ACCESSION: MSBNK-AGILENT-AG000049
RECORD_TITLE: Aminocarb; ESI-QTOF; MS2; CE: 10; [M+H]+
DATE: 2023.02.17
AUTHORS: Rennie E, McEachran A, Agilent Technologies
LICENSE: CC BY
CH$NAME: Aminocarb
CH$COMPOUND_CLASS: N/A
CH$FORMULA: C11H16N2O2
CH$EXACT_MASS: 208.12118
CH$SMILES: CC1=CC(=CC=C1N(C)C)OC(=O)NC
CH$IUPAC: InChI=1S/C11H16N2O2/c1-8-7-9(15-11(14)12-2)5-6-10(8)13(3)4/h5-7H,1-4H3,(H,12,14)
CH$LINK: CAS 2032-59-9
CH$LINK: CHEMSPIDER 15416
CH$LINK: INCHIKEY IMIDOCRTMDIQIJ-UHFFFAOYSA-N
AC$INSTRUMENT: N/A
AC$INSTRUMENT_TYPE: ESI-QTOF
AC$MASS_SPECTROMETRY: MS_TYPE MS2
AC$MASS_SPECTROMETRY: ION_MODE POSITIVE
AC$MASS_SPECTROMETRY: IONIZATION ESI
AC$MASS_SPECTROMETRY: COLLISION_ENERGY 10
MS$FOCUSED_ION: PRECURSOR_M/Z 209.1284542215
MS$FOCUSED_ION: PRECURSOR_TYPE [M+H]+
PK$SPLASH: splash10-0udi-0920000000-f6a40305c1946868e64f
PK$NUM_PEAK: 3
PK$PEAK: m/z int. rel.int.
  137.083515 26.710758 266
  152.10699 100 999
  209.128454 37.057865 370
//
