ACCESSION: MSBNK-AGILENT-AG000007
RECORD_TITLE: Hexaflumuron; ESI-QTOF; MS2; CE: 10; [M+H]+
DATE: 2023.02.17
AUTHORS: Rennie E, McEachran A, Agilent Technologies
LICENSE: CC BY
CH$NAME: Hexaflumuron
CH$COMPOUND_CLASS: N/A
CH$FORMULA: C16H8Cl2F6N2O3
CH$EXACT_MASS: 459.98162
CH$SMILES: O=C(NC(=O)NC1C=C(Cl)C(OC(F)(F)C(F)F)=C(Cl)C=1)C1C(F)=CC=CC=1F
CH$IUPAC: InChI=1S/C16H8Cl2F6N2O3/c17-7-4-6(5-8(18)12(7)29-16(23,24)14(21)22)25-15(28)26-13(27)11-9(19)2-1-3-10(11)20/h1-5,14H,(H2,25,26,27,28)
CH$LINK: CAS 86479-06-3
CH$LINK: CHEMSPIDER 82839
CH$LINK: INCHIKEY RGNPBRKPHBKNKX-UHFFFAOYSA-N
AC$INSTRUMENT: N/A
AC$INSTRUMENT_TYPE: ESI-QTOF
AC$MASS_SPECTROMETRY: MS_TYPE MS2
AC$MASS_SPECTROMETRY: ION_MODE POSITIVE
AC$MASS_SPECTROMETRY: IONIZATION ESI
AC$MASS_SPECTROMETRY: COLLISION_ENERGY 10
MS$FOCUSED_ION: PRECURSOR_M/Z 460.9888932086
MS$FOCUSED_ION: PRECURSOR_TYPE [M+H]+
PK$SPLASH: splash10-0a4i-0900200000-6af729b6a650fd05b2c4
PK$NUM_PEAK: 6
PK$PEAK: m/z int. rel.int.
  57.069877 1.194479 11
  141.014648 7.63599 76
  158.040054 100.000001 999
  159.044056 5.910835 59
  277.974566 2.719629 27
  460.988893 31.183151 311
//
