ACCESSION: MSBNK-AGILENT-AG000055
RECORD_TITLE: Metoxuron; ESI-QTOF; MS2; CE: 40; [M+H]+
DATE: 2023.02.17
AUTHORS: Rennie E, McEachran A, Agilent Technologies
LICENSE: CC BY
CH$NAME: Metoxuron
CH$COMPOUND_CLASS: N/A
CH$FORMULA: C10H13ClN2O2
CH$EXACT_MASS: 228.06656
CH$SMILES: COC1C=CC(=CC=1Cl)NC(=O)N(C)C
CH$IUPAC: InChI=1S/C10H13ClN2O2/c1-13(2)10(14)12-7-4-5-9(15-3)8(11)6-7/h4-6H,1-3H3,(H,12,14)
CH$LINK: CAS 19937-59-8
CH$LINK: CHEMSPIDER 27749
CH$LINK: INCHIKEY DSRNRYQBBJQVCW-UHFFFAOYSA-N
AC$INSTRUMENT: N/A
AC$INSTRUMENT_TYPE: ESI-QTOF
AC$MASS_SPECTROMETRY: MS_TYPE MS2
AC$MASS_SPECTROMETRY: ION_MODE POSITIVE
AC$MASS_SPECTROMETRY: IONIZATION ESI
AC$MASS_SPECTROMETRY: COLLISION_ENERGY 40
MS$FOCUSED_ION: PRECURSOR_M/Z 229.07383
MS$FOCUSED_ION: PRECURSOR_TYPE [M+H]+
PK$SPLASH: splash10-00di-9000000000-e742a79b218fe820bdfb
PK$NUM_PEAK: 9
PK$PEAK: m/z int. rel.int.
  44.049476 3.549999 35
  46.065126 33.305141 332
  56.01309 2.670882 26
  72.044877 100 999
  73.052215 2.388201 23
  78.033826 2.060051 20
  80.013577 4.280369 42
  106.02874 4.567349 45
  156.020581 3.246852 32
//
