ACCESSION: MSBNK-AGILENT-AG000032
RECORD_TITLE: Metazachlor; ESI-QTOF; MS2; CE: 20; [M+H]+
DATE: 2023.02.17
AUTHORS: Rennie E, McEachran A, Agilent Technologies
LICENSE: CC BY
CH$NAME: Metazachlor
CH$COMPOUND_CLASS: N/A
CH$FORMULA: C14H16ClN3O
CH$EXACT_MASS: 277.09819
CH$SMILES: CC1C=CC=C(C)C=1N(CN1C=CC=N1)C(=O)CCl
CH$IUPAC: InChI=1S/C14H16ClN3O/c1-11-5-3-6-12(2)14(11)18(13(19)9-15)10-17-8-4-7-16-17/h3-8H,9-10H2,1-2H3
CH$LINK: CAS 67129-08-2
CH$LINK: CHEMSPIDER 44885
CH$LINK: INCHIKEY STEPQTYSZVCJPV-UHFFFAOYSA-N
AC$INSTRUMENT: N/A
AC$INSTRUMENT_TYPE: ESI-QTOF
AC$MASS_SPECTROMETRY: MS_TYPE MS2
AC$MASS_SPECTROMETRY: ION_MODE POSITIVE
AC$MASS_SPECTROMETRY: IONIZATION ESI
AC$MASS_SPECTROMETRY: COLLISION_ENERGY 20
MS$FOCUSED_ION: PRECURSOR_M/Z 278.1054663166
MS$FOCUSED_ION: PRECURSOR_TYPE [M+H]+
PK$SPLASH: splash10-001i-0900000000-f5ad2c95bc129bc8f21b
PK$NUM_PEAK: 3
PK$PEAK: m/z int. rel.int.
  105.069877 1.163476 11
  134.096426 100 999
  210.068018 4.932511 49
//
