ACCESSION: MSBNK-AGILENT-AG000060
RECORD_TITLE: 2,4,5-T / 2,4,5-Trichlorophenoxyacetic acid; ESI-QTOF; MS2; CE: 10; [M-H]-
DATE: 2023.02.17
AUTHORS: Rennie E, McEachran A, Agilent Technologies
LICENSE: CC BY
CH$NAME: 2,4,5-T / 2,4,5-Trichlorophenoxyacetic acid
CH$COMPOUND_CLASS: N/A
CH$FORMULA: C8H5Cl3O3
CH$EXACT_MASS: 253.93043
CH$SMILES: OC(=O)COC1C=C(Cl)C(Cl)=CC=1Cl
CH$IUPAC: InChI=1S/C8H5Cl3O3/c9-4-1-6(11)7(2-5(4)10)14-3-8(12)13/h1-2H,3H2,(H,12,13)
CH$LINK: CAS 93-76-5
CH$LINK: CHEMSPIDER 1435
CH$LINK: INCHIKEY SMYMJHWAQXWPDB-UHFFFAOYSA-N
AC$INSTRUMENT: N/A
AC$INSTRUMENT_TYPE: ESI-QTOF
AC$MASS_SPECTROMETRY: MS_TYPE MS2
AC$MASS_SPECTROMETRY: ION_MODE NEGATIVE
AC$MASS_SPECTROMETRY: IONIZATION ESI
AC$MASS_SPECTROMETRY: COLLISION_ENERGY 10
MS$FOCUSED_ION: PRECURSOR_M/Z 252.9231507047
MS$FOCUSED_ION: PRECURSOR_TYPE [M-H]-
PK$SPLASH: splash10-0006-0900000000-da6d08dd221de758b651
PK$NUM_PEAK: 2
PK$PEAK: m/z int. rel.int.
  194.917671 100 999
  252.923151 2.897797 28
//
