ACCESSION: MSBNK-AGILENT-AG000042
RECORD_TITLE: 2,4,5-TP / Silvex (Fenoprop); ESI-QTOF; MS2; CE: 10; [M-H]-
DATE: 2023.02.17
AUTHORS: Rennie E, McEachran A, Agilent Technologies
LICENSE: CC BY
CH$NAME: 2,4,5-TP / Silvex (Fenoprop)
CH$COMPOUND_CLASS: N/A
CH$FORMULA: C9H7Cl3O3
CH$EXACT_MASS: 267.94608
CH$SMILES: CC(OC1C=C(Cl)C(Cl)=CC=1Cl)C(O)=O
CH$IUPAC: InChI=1S/C9H7Cl3O3/c1-4(9(13)14)15-8-3-6(11)5(10)2-7(8)12/h2-4H,1H3,(H,13,14)
CH$LINK: CAS 93-72-1
CH$LINK: CHEMSPIDER 6891
CH$LINK: INCHIKEY ZLSWBLPERHFHIS-UHFFFAOYSA-N
AC$INSTRUMENT: N/A
AC$INSTRUMENT_TYPE: ESI-QTOF
AC$MASS_SPECTROMETRY: MS_TYPE MS2
AC$MASS_SPECTROMETRY: ION_MODE NEGATIVE
AC$MASS_SPECTROMETRY: IONIZATION ESI
AC$MASS_SPECTROMETRY: COLLISION_ENERGY 10
MS$FOCUSED_ION: PRECURSOR_M/Z 266.9388007685
MS$FOCUSED_ION: PRECURSOR_TYPE [M-H]-
PK$SPLASH: splash10-0006-0900000000-e20425c5ad763bb5bb28
PK$NUM_PEAK: 2
PK$PEAK: m/z int. rel.int.
  194.917671 100 999
  266.938801 1.949993 19
//
