ACCESSION: MSBNK-AAFC-AC000184
RECORD_TITLE: Kotanin; LC-ESI-ITFT; MS2; CE: 50; R=17500; [M+Na]+
DATE: 2017.07.07
AUTHORS: Justin B. Renaud, Mark W. Sumarah, Agriculture and Agri-Food Canada
LICENSE: CC BY-SA
COPYRIGHT: Copyright (C) 2017
PUBLICATION: Renaud, J. B.; Sumarah, M. W. Data Independent Acquisition-Digital Archiving Mass Spectrometry: Application to Single Kernel Mycotoxin Analysis of Fusarium Graminearum Infected Maize. Analytical and Bioanalytical Chemistry 2016, 408 (12), 3083–91. DOI:10.1007/s00216-016-9391-5
COMMENT: CONFIDENCE isolated standard
CH$NAME: Kotanin
CH$NAME: 8-(4,7-dimethoxy-5-methyl-2-oxochromen-8-yl)-4,7-dimethoxy-5-methylchromen-2-one
CH$COMPOUND_CLASS: Natural Product; Fungal metabolite
CH$FORMULA: C24H22O8
CH$EXACT_MASS: 438.13145
CH$SMILES: CC1=CC(=C(C2=C1C(=CC(=O)O2)OC)C3=C(C=C(C4=C3OC(=O)C=C4OC)C)OC)OC
CH$IUPAC: InChI=1S/C24H22O8/c1-11-7-13(27-3)21(23-19(11)15(29-5)9-17(25)31-23)22-14(28-4)8-12(2)20-16(30-6)10-18(26)32-24(20)22/h7-10H,1-6H3
CH$LINK: INCHIKEY CSJOUDOXDHMIAH-UHFFFAOYSA-N
CH$LINK: CAS 27909-08-6
CH$LINK: PUBCHEM CID:34059
CH$LINK: CHEMSPIDER 31389
CH$LINK: KNAPSACK C00042651
CH$LINK: COMPTOX DTXSID00182193
AC$INSTRUMENT: Q-Exactive Orbitrap Thermo Scientific
AC$INSTRUMENT_TYPE: LC-ESI-ITFT
AC$MASS_SPECTROMETRY: MS_TYPE MS2
AC$MASS_SPECTROMETRY: ION_MODE POSITIVE
AC$MASS_SPECTROMETRY: IONIZATION ESI
AC$MASS_SPECTROMETRY: IONIZATION_VOLTAGE 3.9 kV
AC$MASS_SPECTROMETRY: FRAGMENTATION_MODE HCD
AC$MASS_SPECTROMETRY: COLLISION_ENERGY 50(NCE)
AC$MASS_SPECTROMETRY: RESOLUTION 17500
AC$CHROMATOGRAPHY: COLUMN_NAME Agilent RRHD Eclipse 50 x 2 mm, 1.8 uM
AC$CHROMATOGRAPHY: FLOW_GRADIENT 100:0 at 0 min, 100:0 at 0.5 min, 0:100 at 3.5 min, 0:100 at 5.5 min, 100:0 at 7 min
AC$CHROMATOGRAPHY: FLOW_RATE 0.3 mL min-1
AC$CHROMATOGRAPHY: RETENTION_TIME 3.58
AC$CHROMATOGRAPHY: NAPS_RTI 1176
AC$CHROMATOGRAPHY: SOLVENT A H2O 0.1% FA
AC$CHROMATOGRAPHY: SOLVENT B ACN 0.1% FA
MS$FOCUSED_ION: BASE_PEAK 415.0773
MS$FOCUSED_ION: PRECURSOR_M/Z 461.1201
MS$FOCUSED_ION: PRECURSOR_TYPE [M+Na]+
MS$DATA_PROCESSING: DEPROFILE Proteowizard
MS$DATA_PROCESSING: RECALIBRATE based on Fragment ion formula determination
MS$DATA_PROCESSING: INTENSITY CUTOFF 0.05 Base Peak
PK$SPLASH: splash10-014i-0000900000-e3015159eabe8347a372
PK$ANNOTATION: m/z tentative_formula mass_error(ppm)
  400.0555 C21H13O7Na1+ 0.42
  415.0773 C22H16O7Na1+ -3.64
  461.1193 C24H22O8Na1+ -2.98
PK$NUM_PEAK: 3
PK$PEAK: m/z int. rel.int.
  400.0553 42429.19921875 48
  415.0788 850595.0 999
  461.1207 74638.5859375 86
//
