ACCESSION: MSBNK-AAFC-AC000177
RECORD_TITLE: Kotanin; LC-ESI-ITFT; MS2; CE: 30; R=17500; [M+H]+
DATE: 2017.07.07
AUTHORS: Justin B. Renaud, Mark W. Sumarah, Agriculture and Agri-Food Canada
LICENSE: CC BY-SA
COPYRIGHT: Copyright (C) 2017
PUBLICATION: Renaud, J. B.; Sumarah, M. W. Data Independent Acquisition-Digital Archiving Mass Spectrometry: Application to Single Kernel Mycotoxin Analysis of Fusarium Graminearum Infected Maize. Analytical and Bioanalytical Chemistry 2016, 408 (12), 3083–91. DOI:10.1007/s00216-016-9391-5
COMMENT: CONFIDENCE isolated standard
CH$NAME: Kotanin
CH$NAME: 8-(4,7-dimethoxy-5-methyl-2-oxochromen-8-yl)-4,7-dimethoxy-5-methylchromen-2-one
CH$COMPOUND_CLASS: Natural Product; Fungal metabolite
CH$FORMULA: C24H22O8
CH$EXACT_MASS: 438.13145
CH$SMILES: CC1=CC(=C(C2=C1C(=CC(=O)O2)OC)C3=C(C=C(C4=C3OC(=O)C=C4OC)C)OC)OC
CH$IUPAC: InChI=1S/C24H22O8/c1-11-7-13(27-3)21(23-19(11)15(29-5)9-17(25)31-23)22-14(28-4)8-12(2)20-16(30-6)10-18(26)32-24(20)22/h7-10H,1-6H3
CH$LINK: INCHIKEY CSJOUDOXDHMIAH-UHFFFAOYSA-N
CH$LINK: CAS 27909-08-6
CH$LINK: PUBCHEM CID:34059
CH$LINK: CHEMSPIDER 31389
CH$LINK: KNAPSACK C00042651
CH$LINK: COMPTOX DTXSID00182193
AC$INSTRUMENT: Q-Exactive Orbitrap Thermo Scientific
AC$INSTRUMENT_TYPE: LC-ESI-ITFT
AC$MASS_SPECTROMETRY: MS_TYPE MS2
AC$MASS_SPECTROMETRY: ION_MODE POSITIVE
AC$MASS_SPECTROMETRY: IONIZATION ESI
AC$MASS_SPECTROMETRY: IONIZATION_VOLTAGE 3.9 kV
AC$MASS_SPECTROMETRY: FRAGMENTATION_MODE HCD
AC$MASS_SPECTROMETRY: COLLISION_ENERGY 30(NCE)
AC$MASS_SPECTROMETRY: RESOLUTION 17500
AC$CHROMATOGRAPHY: COLUMN_NAME Agilent RRHD Eclipse 50 x 2 mm, 1.8 uM
AC$CHROMATOGRAPHY: FLOW_GRADIENT 100:0 at 0 min, 100:0 at 0.5 min, 0:100 at 3.5 min, 0:100 at 5.5 min, 100:0 at 7 min
AC$CHROMATOGRAPHY: FLOW_RATE 0.3 mL min-1
AC$CHROMATOGRAPHY: RETENTION_TIME 3.58
AC$CHROMATOGRAPHY: NAPS_RTI 1176
AC$CHROMATOGRAPHY: SOLVENT A H2O 0.1% FA
AC$CHROMATOGRAPHY: SOLVENT B ACN 0.1% FA
MS$FOCUSED_ION: BASE_PEAK 439.1366
MS$FOCUSED_ION: PRECURSOR_M/Z 439.1382
MS$FOCUSED_ION: PRECURSOR_TYPE [M+H]+
MS$DATA_PROCESSING: DEPROFILE Proteowizard
MS$DATA_PROCESSING: RECALIBRATE based on Fragment ion formula determination
MS$DATA_PROCESSING: INTENSITY CUTOFF 0.05 Base Peak
PK$SPLASH: splash10-000j-0006900000-6ebb604611c2194dab46
PK$ANNOTATION: m/z tentative_formula mass_error(ppm)
  365.1003 C21H17O6+ -4.54
  383.1108 C21H19O7+ -4.48
  397.1263 C22H21O7+ -4.71
  407.1107 C23H19O7+ -4.47
  439.1366 C24H23O8+ -4.85
PK$NUM_PEAK: 5
PK$PEAK: m/z int. rel.int.
  365.102 10429750.0 77
  383.1125 12018903.0 88
  397.1282 76077928.0 568
  407.1125 7239586.5 53
  439.1387 133701488.0 999
//
