ACCESSION: MSBNK-AAFC-AC000695
RECORD_TITLE: Phacidin; LC-ESI-ITFT; MS2; CE: 10; R=17500; [M+H]+
DATE: 2017.07.07
AUTHORS: Justin B. Renaud, Mark W. Sumarah, Agriculture and Agri-Food Canada
LICENSE: CC BY-SA
COPYRIGHT: Copyright (C) 2017
COMMENT: CONFIDENCE isolated standard
CH$NAME: Phacidin
CH$NAME: 6-methoxy-5-nonanoyl-4-oxopyran-2-carbaldehyde
CH$COMPOUND_CLASS: Natural Product; Fungal metabolite
CH$FORMULA: C16H22O5
CH$EXACT_MASS: 294.14672
CH$SMILES: CCCCCCCCC(=O)C1=C(OC(=CC1=O)C=O)OC
CH$IUPAC: InChI=1S/C16H22O5/c1-3-4-5-6-7-8-9-13(18)15-14(19)10-12(11-17)21-16(15)20-2/h10-11H,3-9H2,1-2H3
CH$LINK: INCHIKEY YTVPBUCDNKECDB-UHFFFAOYSA-N
CH$LINK: CAS 54835-75-5
CH$LINK: PUBCHEM CID:122734
CH$LINK: CHEMSPIDER 109414
CH$LINK: COMPTOX DTXSID70891841
AC$INSTRUMENT: Q-Exactive Orbitrap Thermo Scientific
AC$INSTRUMENT_TYPE: LC-ESI-ITFT
AC$MASS_SPECTROMETRY: MS_TYPE MS2
AC$MASS_SPECTROMETRY: ION_MODE POSITIVE
AC$MASS_SPECTROMETRY: IONIZATION ESI
AC$MASS_SPECTROMETRY: IONIZATION_VOLTAGE 3.9 kV
AC$MASS_SPECTROMETRY: FRAGMENTATION_MODE HCD
AC$MASS_SPECTROMETRY: COLLISION_ENERGY 10(NCE)
AC$MASS_SPECTROMETRY: RESOLUTION 17500
AC$CHROMATOGRAPHY: COLUMN_NAME Agilent RRHD Eclipse 50 x 2 mm, 1.8 uM
AC$CHROMATOGRAPHY: FLOW_GRADIENT 100:0 at 0 min, 100:0 at 0.5 min, 0:100 at 3.5 min, 0:100 at 5.5 min, 100:0 at 7 min
AC$CHROMATOGRAPHY: FLOW_RATE 0.3 mL min-1
AC$CHROMATOGRAPHY: RETENTION_TIME 4.04
AC$CHROMATOGRAPHY: NAPS_RTI 1439
AC$CHROMATOGRAPHY: SOLVENT A H2O 0.1% FA
AC$CHROMATOGRAPHY: SOLVENT B ACN 0.1% FA
MS$FOCUSED_ION: BASE_PEAK 295.1551
MS$FOCUSED_ION: PRECURSOR_M/Z 295.1535
MS$FOCUSED_ION: PRECURSOR_TYPE [M+H]+
MS$DATA_PROCESSING: DEPROFILE Proteowizard
MS$DATA_PROCESSING: RECALIBRATE based on Fragment ion formula determination
MS$DATA_PROCESSING: INTENSITY CUTOFF 0.05 Base Peak
PK$SPLASH: splash10-0002-0090000000-50825162cf6a0df48819
PK$ANNOTATION: m/z tentative_formula mass_error(ppm)
  141.128 C9H17O1+ 4.21
  267.1602 C15H23O4+ 4.15
  295.1551 C16H23O5+ 3.72
PK$NUM_PEAK: 3
PK$PEAK: m/z int. rel.int.
  141.1274 3237626.0 54
  267.1591 4266314.5 71
  295.154 58649692.0 999
//
