ACCESSION: MSBNK-AAFC-AC000889
RECORD_TITLE: Fusaric acid; LC-ESI-ITFT; MS2; CE: 20; R=17500; [M+H]+
DATE: 2017.07.07
AUTHORS: Megan J. Kelman, Justin B. Renaud, Mark W. Sumarah, Agriculture and Agri-Food Canada
LICENSE: CC BY-SA
COPYRIGHT: Copyright (C) 2017
COMMENT: CONFIDENCE Fusarium verticilloides
CH$NAME: Fusaric acid
CH$NAME: Fusarinic acid, 2.5-Butylpicolinic acid, Piconlinic acid
CH$NAME: 5-Butylpyridine-2-carboxylic acid
CH$COMPOUND_CLASS: Natural Product; Fungal metabolite
CH$FORMULA: C10H13NO2
CH$EXACT_MASS: 179.09463
CH$SMILES: CCCCC1=CN=C(C=C1)C(=O)O
CH$IUPAC: InChI=1S/C10H13NO2/c1-2-3-4-8-5-6-9(10(12)13)11-7-8/h5-7H,2-4H2,1H3,(H,12,13)
CH$LINK: INCHIKEY DGMPVYSXXIOGJY-UHFFFAOYSA-N
CH$LINK: CAS 536-69-6
CH$LINK: PUBCHEM CID:3442
CH$LINK: CHEMSPIDER 3324
CH$LINK: KNAPSACK C00002040
CH$LINK: COMPTOX DTXSID5023085
AC$INSTRUMENT: Q-Exactive Orbitrap Thermo Scientific
AC$INSTRUMENT_TYPE: LC-ESI-ITFT
AC$MASS_SPECTROMETRY: MS_TYPE MS2
AC$MASS_SPECTROMETRY: ION_MODE POSITIVE
AC$MASS_SPECTROMETRY: IONIZATION ESI
AC$MASS_SPECTROMETRY: IONIZATION_VOLTAGE 3.9 kV
AC$MASS_SPECTROMETRY: FRAGMENTATION_MODE HCD
AC$MASS_SPECTROMETRY: COLLISION_ENERGY 20(NCE)
AC$MASS_SPECTROMETRY: RESOLUTION 17500
AC$CHROMATOGRAPHY: COLUMN_NAME Agilent RRHD Eclipse 50 x 2 mm, 1.8 uM
AC$CHROMATOGRAPHY: FLOW_GRADIENT 100:0 at 0 min, 100:0 at 0.5 min, 0:100 at 3.5 min, 0:100 at 5.5 min, 100:0 at 7 min
AC$CHROMATOGRAPHY: FLOW_RATE 0.3 mL min-1
AC$CHROMATOGRAPHY: RETENTION_TIME 2.53
AC$CHROMATOGRAPHY: NAPS_RTI 610
AC$CHROMATOGRAPHY: SOLVENT A H2O 0.1% FA
AC$CHROMATOGRAPHY: SOLVENT B ACN 0.1% FA
MS$FOCUSED_ION: BASE_PEAK 180.1027
MS$FOCUSED_ION: PRECURSOR_M/Z 180.1014
MS$FOCUSED_ION: PRECURSOR_TYPE [M+H]+
MS$DATA_PROCESSING: DEPROFILE Proteowizard
MS$DATA_PROCESSING: RECALIBRATE based on Fragment ion formula determination
MS$DATA_PROCESSING: INTENSITY CUTOFF 0.05 Base Peak
PK$SPLASH: splash10-0f89-0900000000-e57b03719e7ca933b255
PK$ANNOTATION: m/z tentative_formula mass_error(ppm)
  152.1075 C9H14N1O1+ 3.3
  180.1027 C10H14N1O2+ 4.4
PK$NUM_PEAK: 6
PK$PEAK: m/z int. rel.int.
  62.8739 25658.716796875 43
  79.5435 24213.71875 40
  116.0146 27680.2265625 46
  117.0093 27097.66015625 45
  152.107 562624.3125 968
  180.1019 580259.3125 999
//
