ACCESSION: MSBNK-AAFC-AC000409
RECORD_TITLE: Alantrypinone; LC-ESI-ITFT; MS2; CE: 30; R=17500; [M+H]+
DATE: 2017.07.07
AUTHORS: Justin B. Renaud, Mark W. Sumarah, Agriculture and Agri-Food Canada
LICENSE: CC BY-SA
COPYRIGHT: Copyright (C) 2017
PUBLICATION: Renaud, J. B.; Sumarah, M. W. Data Independent Acquisition-Digital Archiving Mass Spectrometry: Application to Single Kernel Mycotoxin Analysis of Fusarium Graminearum Infected Maize. Analytical and Bioanalytical Chemistry 2016, 408 (12), 3083–91. DOI:10.1007/s00216-016-9391-5
COMMENT: CONFIDENCE isolated standard
CH$NAME: Alantrypinone
CH$NAME: (1'S,3S,12'S)-12'-Methyl-3'H,15'H-spiro[indole-3,13'-[2,10,16]triazatetracyclo[10.2.2.02,11.04,9]hexadeca[4,6,8,10]tetraene]-2,3',15'(1H)-trione
CH$COMPOUND_CLASS: Natural Product; Fungal metabolite
CH$FORMULA: C21H16N4O3
CH$EXACT_MASS: 372.12223
CH$SMILES: C[C@]12C3=NC4=CC=CC=C4C(=O)N3[C@H](C[C@@]15C6=CC=CC=C6NC5=O)C(=O)N2
CH$IUPAC: InChI=1S/C21H16N4O3/c1-20-18-22-13-8-4-2-6-11(13)17(27)25(18)15(16(26)24-20)10-21(20)12-7-3-5-9-14(12)23-19(21)28/h2-9,15H,10H2,1H3,(H,23,28)(H,24,26)/t15-,20+,21+/m1/s1
CH$LINK: INCHIKEY COXWNIZQNAMTQL-NQERJWCQSA-N
CH$LINK: PUBCHEM CID:10666980
CH$LINK: CHEMSPIDER 9935174
CH$LINK: KNAPSACK C00026621
CH$LINK: COMPTOX DTXSID70891846
AC$INSTRUMENT: Q-Exactive Orbitrap Thermo Scientific
AC$INSTRUMENT_TYPE: LC-ESI-ITFT
AC$MASS_SPECTROMETRY: MS_TYPE MS2
AC$MASS_SPECTROMETRY: ION_MODE POSITIVE
AC$MASS_SPECTROMETRY: IONIZATION ESI
AC$MASS_SPECTROMETRY: IONIZATION_VOLTAGE 3.9 kV
AC$MASS_SPECTROMETRY: FRAGMENTATION_MODE HCD
AC$MASS_SPECTROMETRY: COLLISION_ENERGY 30(NCE)
AC$MASS_SPECTROMETRY: RESOLUTION 17500
AC$CHROMATOGRAPHY: COLUMN_NAME Agilent RRHD Eclipse 50 x 2 mm, 1.8 uM
AC$CHROMATOGRAPHY: FLOW_GRADIENT 100:0 at 0 min, 100:0 at 0.5 min, 0:100 at 3.5 min, 0:100 at 5.5 min, 100:0 at 7 min
AC$CHROMATOGRAPHY: FLOW_RATE 0.3 mL min-1
AC$CHROMATOGRAPHY: RETENTION_TIME 2.74
AC$CHROMATOGRAPHY: NAPS_RTI 716
AC$CHROMATOGRAPHY: SOLVENT A H2O 0.1% FA
AC$CHROMATOGRAPHY: SOLVENT B ACN 0.1% FA
MS$FOCUSED_ION: BASE_PEAK 228.0774
MS$FOCUSED_ION: PRECURSOR_M/Z 373.129
MS$FOCUSED_ION: PRECURSOR_TYPE [M+H]+
MS$DATA_PROCESSING: DEPROFILE Proteowizard
MS$DATA_PROCESSING: RECALIBRATE based on Fragment ion formula determination
MS$DATA_PROCESSING: INTENSITY CUTOFF 0.05 Base Peak
PK$SPLASH: splash10-004i-0090000000-2f47215ea47697bb3a3b
PK$ANNOTATION: m/z tentative_formula mass_error(ppm)
  200.0824 C11H10N3O1+ 2.83
  228.0774 C12H10N3O2+ 2.88
  373.1305 C21H17N4O3+ 2.66
PK$NUM_PEAK: 3
PK$PEAK: m/z int. rel.int.
  200.0818 6617600.0 53
  228.0767 122383280.0 999
  373.1295 8090386.5 65
//
