ACCESSION: MSBNK-AAFC-AC000883
RECORD_TITLE: Deoxynivalenol 3-glucuronide; LC-ESI-ITFT; MS2; CE: 20; R=17500; [M-H]-
DATE: 2017.07.07
AUTHORS: Justin B. Renaud, Mark W. Sumarah, Agriculture and Agri-Food Canada
LICENSE: CC BY-SA
COPYRIGHT: Copyright (C) 2017
COMMENT: CONFIDENCE synthesized standard
CH$NAME: Deoxynivalenol 3-glucuronide
CH$COMPOUND_CLASS: Fungal metabolite; urinary conjugate
CH$FORMULA: C21H28O12
CH$EXACT_MASS: 472.15805
CH$SMILES: CC1=C[C@@H]2[C@]([C@@H](C1=O)O)([C@]3(C[C@H]([C@H]([C@@]34CO4)O2)O[C@H]5[C@@H]([C@H]([C@@H]([C@H](O5)C(=O)O)O)O)O)C)CO
CH$IUPAC: InChI=1S/C21H28O12/c1-7-3-9-20(5-22,15(27)10(7)23)19(2)4-8(16(32-9)21(19)6-30-21)31-18-13(26)11(24)12(25)14(33-18)17(28)29/h3,8-9,11-16,18,22,24-27H,4-6H2,1-2H3,(H,28,29)/t8-,9-,11+,12+,13-,14+,15-,16-,18-,19-,20-,21+/m1/s1
CH$LINK: INCHIKEY GRFAWUZMBBQEMX-IJNZYEPRSA-N
CH$LINK: PUBCHEM CID:102202100
AC$INSTRUMENT: Q-Exactive Orbitrap Thermo Scientific
AC$INSTRUMENT_TYPE: LC-ESI-ITFT
AC$MASS_SPECTROMETRY: MS_TYPE MS2
AC$MASS_SPECTROMETRY: ION_MODE NEGATIVE
AC$MASS_SPECTROMETRY: IONIZATION ESI
AC$MASS_SPECTROMETRY: IONIZATION_VOLTAGE 3.9 kV
AC$MASS_SPECTROMETRY: FRAGMENTATION_MODE HCD
AC$MASS_SPECTROMETRY: COLLISION_ENERGY 20(NCE)
AC$MASS_SPECTROMETRY: RESOLUTION 17500
AC$CHROMATOGRAPHY: COLUMN_NAME Agilent RRHD Eclipse 50 x 2 mm, 1.8 uM
AC$CHROMATOGRAPHY: FLOW_GRADIENT 100:0 at 0 min, 100:0 at 0.5 min, 0:100 at 3.5 min, 0:100 at 5.5 min, 100:0 at 7 min
AC$CHROMATOGRAPHY: FLOW_RATE 0.3 mL min-1
AC$CHROMATOGRAPHY: RETENTION_TIME 2.22
AC$CHROMATOGRAPHY: NAPS_RTI 473
AC$CHROMATOGRAPHY: SOLVENT A H2O 0.1% FA
AC$CHROMATOGRAPHY: SOLVENT B ACN 0.1% FA
MS$FOCUSED_ION: BASE_PEAK 471.1505
MS$FOCUSED_ION: PRECURSOR_M/Z 471.1513
MS$FOCUSED_ION: PRECURSOR_TYPE [M-H]-
MS$DATA_PROCESSING: DEPROFILE Proteowizard
MS$DATA_PROCESSING: RECALIBRATE based on Fragment ion formula determination
MS$DATA_PROCESSING: INTENSITY CUTOFF 0.05 Base Peak
PK$SPLASH: splash10-00di-0000900000-67c72c6e8bf40dad8ee8
PK$ANNOTATION: m/z tentative_formula mass_error(ppm)
  193.0344 C6H9O7- -4.92
PK$NUM_PEAK: 3
PK$PEAK: m/z int. rel.int.
  113.023 654379.375 45
  193.0354 538432.9375 37
  471.1505 14024986.0 999
//
