ACCESSION: MSBNK-AAFC-AC000598
RECORD_TITLE: Satratoxin G; LC-ESI-ITFT; MS2; CE: 30; R=17500; [M+Na]+
DATE: 2017.07.07
AUTHORS: Justin B. Renaud, Mark W. Sumarah, Agriculture and Agri-Food Canada
LICENSE: CC BY-SA
COPYRIGHT: Copyright (C) 2017
PUBLICATION: Renaud, J. B.; Sumarah, M. W. Data Independent Acquisition-Digital Archiving Mass Spectrometry: Application to Single Kernel Mycotoxin Analysis of Fusarium Graminearum Infected Maize. Analytical and Bioanalytical Chemistry 2016, 408 (12), 3083–91. DOI:10.1007/s00216-016-9391-5
COMMENT: CONFIDENCE isolated standard
CH$NAME: Satratoxin G
CH$COMPOUND_CLASS: Natural Product; Fungal metabolite
CH$FORMULA: C29H36O10
CH$EXACT_MASS: 544.23084
CH$SMILES: CC1=CC2C3(CC1)COC(=O)C4C5(O4)CCOC(C5O)(/C=C/C=C\C(=O)OC6C3(C7(CO7)C(C6)O2)C)C(C)O
CH$IUPAC: InChI=1S/C29H36O10/c1-16-7-9-26-14-34-23(32)22-28(39-22)10-11-35-27(17(2)30,24(28)33)8-5-4-6-21(31)38-18-13-20(37-19(26)12-16)29(15-36-29)25(18,26)3/h4-6,8,12,17-20,22,24,30,33H,7,9-11,13-15H2,1-3H3/b6-4-,8-5+
CH$LINK: INCHIKEY GTONGKBINDTWOM-QXMOYCCXSA-N
CH$LINK: CAS 53126-63-9
CH$LINK: PUBCHEM CID:6437354
CH$LINK: CHEMSPIDER 10204342
CH$LINK: KNAPSACK C00012626
CH$LINK: COMPTOX DTXSID50891844
AC$INSTRUMENT: Q-Exactive Orbitrap Thermo Scientific
AC$INSTRUMENT_TYPE: LC-ESI-ITFT
AC$MASS_SPECTROMETRY: MS_TYPE MS2
AC$MASS_SPECTROMETRY: ION_MODE POSITIVE
AC$MASS_SPECTROMETRY: IONIZATION ESI
AC$MASS_SPECTROMETRY: IONIZATION_VOLTAGE 3.9 kV
AC$MASS_SPECTROMETRY: FRAGMENTATION_MODE HCD
AC$MASS_SPECTROMETRY: COLLISION_ENERGY 30(NCE)
AC$MASS_SPECTROMETRY: RESOLUTION 17500
AC$CHROMATOGRAPHY: COLUMN_NAME Agilent RRHD Eclipse 50 x 2 mm, 1.8 uM
AC$CHROMATOGRAPHY: FLOW_GRADIENT 100:0 at 0 min, 100:0 at 0.5 min, 0:100 at 3.5 min, 0:100 at 5.5 min, 100:0 at 7 min
AC$CHROMATOGRAPHY: FLOW_RATE 0.3 mL min-1
AC$CHROMATOGRAPHY: RETENTION_TIME 3.18
AC$CHROMATOGRAPHY: NAPS_RTI 952
AC$CHROMATOGRAPHY: SOLVENT A H2O 0.1% FA
AC$CHROMATOGRAPHY: SOLVENT B ACN 0.1% FA
MS$FOCUSED_ION: BASE_PEAK 567.2219
MS$FOCUSED_ION: PRECURSOR_M/Z 567.2195
MS$FOCUSED_ION: PRECURSOR_TYPE [M+Na]+
MS$DATA_PROCESSING: DEPROFILE Proteowizard
MS$DATA_PROCESSING: RECALIBRATE based on Fragment ion formula determination
MS$DATA_PROCESSING: INTENSITY CUTOFF 0.05 Base Peak
PK$SPLASH: splash10-014i-0050090000-c8901394a226ee384c84
PK$ANNOTATION: m/z tentative_formula mass_error(ppm)
  219.0636 C10H12O4Na1+ 3.76
  231.1387 C15H19O2+ 3.17
  263.0899 C12H16O5Na1+ 3.46
  275.0545 C14H11O6+ -1.82
  293.1003 C13H18O6Na1+ 2.55
  337.0901 C14H18O8Na1+ 2.16
  493.2229 C29H33O7+ 1.66
  523.1951 C29H31O9+ -2.2
  567.2219 C29H36O10Na1+ 3.24
PK$NUM_PEAK: 9
PK$PEAK: m/z int. rel.int.
  219.0628 144847.640625 73
  231.138 545739.125 280
  263.089 546204.75 280
  275.055 78896.9609375 39
  293.0996 76297.234375 38
  337.0894 107269.3984375 54
  493.2221 141388.9375 71
  523.1963 454048.0 233
  567.2201 1940222.5 999
//
