ACCESSION: MSBNK-AAFC-AC000201
RECORD_TITLE: Neosolaniol; LC-ESI-ITFT; MS2; CE: 30; R=17500; [M+Na]+
DATE: 2017.07.07
AUTHORS: Justin B. Renaud, J. David Miller, Mark W. Sumarah, Agriculture and Agri-Food Canada
LICENSE: CC BY-SA
COPYRIGHT: Copyright (C) 2017
PUBLICATION: Renaud, J. B.; Sumarah, M. W. Data Independent Acquisition-Digital Archiving Mass Spectrometry: Application to Single Kernel Mycotoxin Analysis of Fusarium Graminearum Infected Maize. Analytical and Bioanalytical Chemistry 2016, 408 (12), 3083–91. DOI:10.1007/s00216-016-9391-5
COMMENT: CONFIDENCE isolated standard
CH$NAME: Neosolaniol
CH$COMPOUND_CLASS: Natural Product; Fungal metabolite
CH$FORMULA: C19H26O8
CH$EXACT_MASS: 382.16276
CH$SMILES: CC1=C[C@@H]2[C@](C[C@@H]1O)([C@]3([C@@H]([C@H]([C@H]([C@@]34CO4)O2)O)OC(=O)C)C)COC(=O)C
CH$IUPAC: InChI=1S/C19H26O8/c1-9-5-13-18(6-12(9)22,7-24-10(2)20)17(4)15(26-11(3)21)14(23)16(27-13)19(17)8-25-19/h5,12-16,22-23H,6-8H2,1-4H3/t12-,13+,14+,15+,16+,17+,18+,19-/m0/s1
CH$LINK: INCHIKEY TVZHDVCTOCZDNE-WVJYZQHISA-N
CH$LINK: CAS 36519-25-2
CH$LINK: PUBCHEM CID:13818797
CH$LINK: CHEMSPIDER 24703851
CH$LINK: KNAPSACK C00012613
AC$INSTRUMENT: Q-Exactive Orbitrap Thermo Scientific
AC$INSTRUMENT_TYPE: LC-ESI-ITFT
AC$MASS_SPECTROMETRY: MS_TYPE MS2
AC$MASS_SPECTROMETRY: ION_MODE POSITIVE
AC$MASS_SPECTROMETRY: IONIZATION ESI
AC$MASS_SPECTROMETRY: IONIZATION_VOLTAGE 3.9 kV
AC$MASS_SPECTROMETRY: FRAGMENTATION_MODE HCD
AC$MASS_SPECTROMETRY: COLLISION_ENERGY 30(NCE)
AC$MASS_SPECTROMETRY: RESOLUTION 17500
AC$CHROMATOGRAPHY: COLUMN_NAME Agilent RRHD Eclipse 50 x 2 mm, 1.8 uM
AC$CHROMATOGRAPHY: FLOW_GRADIENT 100:0 at 0 min, 100:0 at 0.5 min, 0:100 at 3.5 min, 0:100 at 5.5 min, 100:0 at 7 min
AC$CHROMATOGRAPHY: FLOW_RATE 0.3 mL min-1
AC$CHROMATOGRAPHY: RETENTION_TIME 2.84
AC$CHROMATOGRAPHY: NAPS_RTI 772
AC$CHROMATOGRAPHY: SOLVENT A H2O 0.1% FA
AC$CHROMATOGRAPHY: SOLVENT B ACN 0.1% FA
MS$FOCUSED_ION: BASE_PEAK 405.1504
MS$FOCUSED_ION: PRECURSOR_M/Z 405.1514
MS$FOCUSED_ION: PRECURSOR_TYPE [M+Na]+
MS$DATA_PROCESSING: DEPROFILE Proteowizard
MS$DATA_PROCESSING: RECALIBRATE based on Fragment ion formula determination
MS$DATA_PROCESSING: INTENSITY CUTOFF 0.05 Base Peak
PK$SPLASH: splash10-0a4i-0000900000-744ca319bdf5b8df092c
PK$ANNOTATION: m/z tentative_formula mass_error(ppm)
  345.1295 C17H22O6Na1+ -3.93
  405.1504 C19H26O8Na1+ -3.9
PK$NUM_PEAK: 2
PK$PEAK: m/z int. rel.int.
  345.1309 1757457.5 52
  405.152 32921246.0 999
//
