ACCESSION: MSBNK-AAFC-AC000555
RECORD_TITLE: Roridin A; LC-ESI-ITFT; MS2; CE: 10; R=17500; [M+H]+
DATE: 2017.07.07
AUTHORS: Justin B. Renaud, Mark W. Sumarah, Agriculture and Agri-Food Canada
LICENSE: CC BY-SA
COPYRIGHT: Copyright (C) 2017
PUBLICATION: Renaud, J. B.; Sumarah, M. W. Data Independent Acquisition-Digital Archiving Mass Spectrometry: Application to Single Kernel Mycotoxin Analysis of Fusarium Graminearum Infected Maize. Analytical and Bioanalytical Chemistry 2016, 408 (12), 3083–91. DOI:10.1007/s00216-016-9391-5
COMMENT: CONFIDENCE isolated standard
CH$NAME: Roridin A
CH$COMPOUND_CLASS: Natural Product; Fungal metabolite
CH$FORMULA: C29H40O9
CH$EXACT_MASS: 532.26723
CH$SMILES: C[C@@H]1CCO[C@H](/C=C/C=C\C(=O)O[C@@H]2C[C@@H]3[C@]4([C@]2([C@]5(CCC(=C[C@H]5O3)C)COC(=O)[C@H]1O)C)CO4)[C@@H](C)O
CH$IUPAC: InChI=1S/C29H40O9/c1-17-9-11-28-15-35-26(33)25(32)18(2)10-12-34-20(19(3)30)7-5-6-8-24(31)38-21-14-23(37-22(28)13-17)29(16-36-29)27(21,28)4/h5-8,13,18-23,25,30,32H,9-12,14-16H2,1-4H3/b7-5+,8-6-/t18-,19-,20-,21-,22-,23-,25+,27-,28-,29+/m1/s1
CH$LINK: INCHIKEY NSFWWJIQIKBZMJ-PAGWOCKZSA-N
CH$LINK: CAS 14729-29-4
CH$LINK: PUBCHEM CID:9915017
CH$LINK: CHEMSPIDER 10292586
CH$LINK: KNAPSACK C00003179
CH$LINK: COMPTOX DTXSID00891839
AC$INSTRUMENT: Q-Exactive Orbitrap Thermo Scientific
AC$INSTRUMENT_TYPE: LC-ESI-ITFT
AC$MASS_SPECTROMETRY: MS_TYPE MS2
AC$MASS_SPECTROMETRY: ION_MODE POSITIVE
AC$MASS_SPECTROMETRY: IONIZATION ESI
AC$MASS_SPECTROMETRY: IONIZATION_VOLTAGE 3.9 kV
AC$MASS_SPECTROMETRY: FRAGMENTATION_MODE HCD
AC$MASS_SPECTROMETRY: COLLISION_ENERGY 10(NCE)
AC$MASS_SPECTROMETRY: RESOLUTION 17500
AC$CHROMATOGRAPHY: COLUMN_NAME Agilent RRHD Eclipse 50 x 2 mm, 1.8 uM
AC$CHROMATOGRAPHY: FLOW_GRADIENT 100:0 at 0 min, 100:0 at 0.5 min, 0:100 at 3.5 min, 0:100 at 5.5 min, 100:0 at 7 min
AC$CHROMATOGRAPHY: FLOW_RATE 0.3 mL min-1
AC$CHROMATOGRAPHY: RETENTION_TIME 3.46
AC$CHROMATOGRAPHY: NAPS_RTI 1106
AC$CHROMATOGRAPHY: SOLVENT A H2O 0.1% FA
AC$CHROMATOGRAPHY: SOLVENT B ACN 0.1% FA
MS$FOCUSED_ION: BASE_PEAK 249.1471
MS$FOCUSED_ION: PRECURSOR_M/Z 533.274
MS$FOCUSED_ION: PRECURSOR_TYPE [M+H]+
MS$DATA_PROCESSING: DEPROFILE Proteowizard
MS$DATA_PROCESSING: RECALIBRATE based on Fragment ion formula determination
MS$DATA_PROCESSING: INTENSITY CUTOFF 0.05 Base Peak
PK$SPLASH: splash10-000t-0091120000-52ee242f58c3d94445fa
PK$ANNOTATION: m/z tentative_formula mass_error(ppm)
  85.065 C5H9O1+ 2.37
  137.059 C8H9O2+ -5.17
  231.1367 C15H19O2+ -5.49
  249.1471 C15H21O3+ -5.74
  333.2042 C20H29O4+ -5.55
  385.1988 C23H29O5+ -5.6
  403.2094 C23H31O6+ -5.26
  533.2719 C29H41O9+ -4.89
PK$NUM_PEAK: 8
PK$PEAK: m/z int. rel.int.
  85.0648 2417021.0 78
  137.0597 1869959.875 60
  231.138 5115648.0 167
  249.1485 30411060.0 999
  333.206 3598403.5 117
  385.201 1176141.5 37
  403.2115 5183861.5 169
  533.2745 11101842.0 364
//
