ACCESSION: MSBNK-AAFC-AC000825
RECORD_TITLE: Andrastin D; LC-ESI-ITFT; MS2; CE: 40; R=17500; [M-H]-
DATE: 2017.07.07
AUTHORS: Megan J. Kelman, Justin B. Renaud, Mark W. Sumarah, Agriculture and Agri-Food Canada
LICENSE: CC BY-SA
COPYRIGHT: Copyright (C) 2017
PUBLICATION: Visagie, C. M.; Renaud, J. B.; Burgess, K. M. N.; Malloch, D. W.; Clark, D.; Ketch, L.; Urb, M.; Louis-Seize, G.; Assabgui, R.; Sumarah, M. W.; et al. Fifteen New Species of Penicillium. Persoonia - Molecular Phylogeny and Evolution of Fungi 2016, 36 (1), 247–80. DOI:10.3767/003158516x691627
COMMENT: CONFIDENCE Penicillium bissettii
CH$NAME: Andrastin D
CH$NAME: methyl (5S,8S,9S,10R,13R,14R)-17-hydroxy-4,4,8,10,12,13,16-heptamethyl-3,15-dioxo-1,2,5,6,7,9-hexahydrocyclopenta[a]phenanthrene-14-carboxylate
CH$COMPOUND_CLASS: Natural Product; Fungal metabolite
CH$FORMULA: C26H36O5
CH$EXACT_MASS: 428.25629
CH$SMILES: CC1=C[C@H]2[C@@]3(CCC(=O)C([C@H]3CC[C@@]2([C@]4([C@@]1(C(=C(C4=O)C)O)C)C(=O)OC)C)(C)C)C
CH$IUPAC: InChI=1S/C26H36O5/c1-14-13-17-23(5)11-10-18(27)22(3,4)16(23)9-12-24(17,6)26(21(30)31-8)20(29)15(2)19(28)25(14,26)7/h13,16-17,28H,9-12H2,1-8H3/t16-,17+,23-,24+,25+,26-/m1/s1
CH$LINK: INCHIKEY SMUNNMAWNRFDPB-UWWAQUNASA-N
CH$LINK: PUBCHEM CID:10477690
CH$LINK: CHEMSPIDER 8653099
CH$LINK: KNAPSACK C00016286
CH$LINK: COMPTOX DTXSID80894025
AC$INSTRUMENT: Q-Exactive Orbitrap Thermo Scientific
AC$INSTRUMENT_TYPE: LC-ESI-ITFT
AC$MASS_SPECTROMETRY: MS_TYPE MS2
AC$MASS_SPECTROMETRY: ION_MODE NEGATIVE
AC$MASS_SPECTROMETRY: IONIZATION ESI
AC$MASS_SPECTROMETRY: IONIZATION_VOLTAGE 3.9 kV
AC$MASS_SPECTROMETRY: FRAGMENTATION_MODE HCD
AC$MASS_SPECTROMETRY: COLLISION_ENERGY 40(NCE)
AC$MASS_SPECTROMETRY: RESOLUTION 17500
AC$CHROMATOGRAPHY: COLUMN_NAME Agilent RRHD Eclipse 50 x 2 mm, 1.8 uM
AC$CHROMATOGRAPHY: FLOW_GRADIENT 100:0 at 0 min, 100:0 at 0.5 min, 0:100 at 3.5 min, 0:100 at 5.5 min, 100:0 at 7 min
AC$CHROMATOGRAPHY: FLOW_RATE 0.3 mL min-1
AC$CHROMATOGRAPHY: RETENTION_TIME 3.95
AC$CHROMATOGRAPHY: NAPS_RTI 1400
AC$CHROMATOGRAPHY: SOLVENT A H2O 0.1% FA
AC$CHROMATOGRAPHY: SOLVENT B ACN 0.1% FA
MS$FOCUSED_ION: BASE_PEAK 427.2479
MS$FOCUSED_ION: PRECURSOR_M/Z 427.2496
MS$FOCUSED_ION: PRECURSOR_TYPE [M-H]-
MS$DATA_PROCESSING: DEPROFILE Proteowizard
MS$DATA_PROCESSING: RECALIBRATE based on Fragment ion formula determination
MS$DATA_PROCESSING: INTENSITY CUTOFF 0.05 Base Peak
PK$SPLASH: splash10-004i-0100900000-36db26f1b7b6add0fda1
PK$ANNOTATION: m/z tentative_formula mass_error(ppm)
  181.0492 C9H9O4- -7.84
  182.057 C9H10O4- -7.94
  395.2223 C25H31O4- -1.24
  412.2244 C25H32O5- -2.74
PK$NUM_PEAK: 5
PK$PEAK: m/z int. rel.int.
  181.0506 656934.8125 36
  182.0584 1437788.625 81
  395.2228 579849.4375 32
  412.2255 609548.5 34
  427.2479 17384120.0 999
//
