ACCESSION: MSBNK-AAFC-AC000090
RECORD_TITLE: Chaetoglobosin C; LC-ESI-ITFT; MS2; CE: 10; R=17500; [M+H]+
DATE: 2017.07.07
AUTHORS: Justin B. Renaud, J. David Miller, Mark W. Sumarah, Agriculture and Agri-Food Canada
LICENSE: CC BY-SA
COPYRIGHT: Copyright (C) 2017
PUBLICATION: Renaud, J. B.; Sumarah, M. W. Data Independent Acquisition-Digital Archiving Mass Spectrometry: Application to Single Kernel Mycotoxin Analysis of Fusarium Graminearum Infected Maize. Analytical and Bioanalytical Chemistry 2016, 408 (12), 3083–91. DOI:10.1007/s00216-016-9391-5
COMMENT: CONFIDENCE isolated standard
CH$NAME: Chaetoglobosin C
CH$COMPOUND_CLASS: Natural Product; Fungal metabolite
CH$FORMULA: C32H36N2O5
CH$EXACT_MASS: 528.26243
CH$SMILES: C[C@H]/1C/C=C\[C@H]2[C@H]3[C@](O3)([C@H]([C@@H]4[C@@]2(C(=O)CCC(=O)C(=O)/C(=C1)/C)C(=O)N[C@H]4CC5=CNC6=CC=CC=C65)C)C
CH$IUPAC: InChI=1S/C32H36N2O5/c1-17-8-7-10-22-29-31(4,39-29)19(3)27-24(15-20-16-33-23-11-6-5-9-21(20)23)34-30(38)32(22,27)26(36)13-12-25(35)28(37)18(2)14-17/h5-7,9-11,14,16-17,19,22,24,27,29,33H,8,12-13,15H2,1-4H3,(H,34,38)/b10-7-,18-14-/t17-,19-,22-,24-,27-,29-,31+,32+/m0/s1
CH$LINK: INCHIKEY RIZAHVBYKWUPHQ-MASOQXDXSA-N
CH$LINK: CAS 50645-76-6
CH$LINK: PUBCHEM CID:102093917
CH$LINK: CHEMSPIDER 10235105
CH$LINK: KNAPSACK C00011309
AC$INSTRUMENT: Q-Exactive Orbitrap Thermo Scientific
AC$INSTRUMENT_TYPE: LC-ESI-ITFT
AC$MASS_SPECTROMETRY: MS_TYPE MS2
AC$MASS_SPECTROMETRY: ION_MODE POSITIVE
AC$MASS_SPECTROMETRY: IONIZATION ESI
AC$MASS_SPECTROMETRY: IONIZATION_VOLTAGE 3.9 kV
AC$MASS_SPECTROMETRY: FRAGMENTATION_MODE HCD
AC$MASS_SPECTROMETRY: COLLISION_ENERGY 10(NCE)
AC$MASS_SPECTROMETRY: RESOLUTION 17500
AC$CHROMATOGRAPHY: COLUMN_NAME Agilent RRHD Eclipse 50 x 2 mm, 1.8 uM
AC$CHROMATOGRAPHY: FLOW_GRADIENT 100:0 at 0 min, 100:0 at 0.5 min, 0:100 at 3.5 min, 0:100 at 5.5 min, 100:0 at 7 min
AC$CHROMATOGRAPHY: FLOW_RATE 0.3 mL min-1
AC$CHROMATOGRAPHY: RETENTION_TIME 3.82
AC$CHROMATOGRAPHY: NAPS_RTI 1317
AC$CHROMATOGRAPHY: SOLVENT A H2O 0.1% FA
AC$CHROMATOGRAPHY: SOLVENT B ACN 0.1% FA
MS$FOCUSED_ION: BASE_PEAK 529.2681
MS$FOCUSED_ION: PRECURSOR_M/Z 529.2692
MS$FOCUSED_ION: PRECURSOR_TYPE [M+H]+
MS$DATA_PROCESSING: DEPROFILE Proteowizard
MS$DATA_PROCESSING: RECALIBRATE based on Fragment ion formula determination
MS$DATA_PROCESSING: INTENSITY CUTOFF 0.05 Base Peak
PK$SPLASH: splash10-004i-0000090000-363b22da6745a6735957
PK$ANNOTATION: m/z tentative_formula mass_error(ppm)
  511.2591 C32H35N2O4+ -0.09
  529.2681 C32H37N2O5+ -3.03
PK$NUM_PEAK: 2
PK$PEAK: m/z int. rel.int.
  511.2591 29474.7890625 38
  529.2697 743203.3125 999
//
