ACCESSION: MSBNK-AAFC-AC000633
RECORD_TITLE: Tentoxin; LC-ESI-ITFT; MS2; CE: 20; R=17500; [M+H]+
DATE: 2017.07.07
AUTHORS: Justin B. Renaud, Mark W. Sumarah, Agriculture and Agri-Food Canada
LICENSE: CC BY-SA
COPYRIGHT: Copyright (C) 2017
PUBLICATION: Kelman, M. J.; Renaud, J. B.; Seifert, K. A.; Mack, J.; Sivagnanam, K.; Yeung, K. K.-C.; Sumarah, M. W. Identification of Six newAlternariasulfoconjugated Metabolites by High-Resolution Neutral Loss Filtering. Rapid Communications in Mass Spectrometry 2015, 29 (19), 1805–10. DOI:10.1002/rcm.7286
COMMENT: CONFIDENCE Reference Standard (Level 1)
CH$NAME: Tentoxin
CH$NAME: cycloleucyl-N-methylalanylglycyl-N-methyl dehydrophenylalanine
CH$NAME: (3S,6S,12Z)-12-benzylidene-1,6,7-trimethyl-3-(2-methylpropyl)-1,4,7,10-tetrazacyclododecane-2,5,8,11-tetrone
CH$COMPOUND_CLASS: Natural Product; Fungal metabolite
CH$FORMULA: C22H30N4O4
CH$EXACT_MASS: 414.2267
CH$SMILES: C[C@H]1C(=O)N[C@H](C(=O)N(/C(=C\C2=CC=CC=C2)/C(=O)NCC(=O)N1C)C)CC(C)C
CH$IUPAC: InChI=1S/C22H30N4O4/c1-14(2)11-17-22(30)26(5)18(12-16-9-7-6-8-10-16)21(29)23-13-19(27)25(4)15(3)20(28)24-17/h6-10,12,14-15,17H,11,13H2,1-5H3,(H,23,29)(H,24,28)/b18-12-/t15-,17-/m0/s1
CH$LINK: INCHIKEY SIIRBDOFKDACOK-LFXZBHHUSA-N
CH$LINK: CAS 28540-82-1
CH$LINK: PUBCHEM CID:5281143
CH$LINK: CHEMSPIDER 4444584
CH$LINK: KNAPSACK C00001521
CH$LINK: COMPTOX DTXSID70893264
AC$INSTRUMENT: Q-Exactive Orbitrap Thermo Scientific
AC$INSTRUMENT_TYPE: LC-ESI-ITFT
AC$MASS_SPECTROMETRY: MS_TYPE MS2
AC$MASS_SPECTROMETRY: ION_MODE POSITIVE
AC$MASS_SPECTROMETRY: IONIZATION ESI
AC$MASS_SPECTROMETRY: IONIZATION_VOLTAGE 3.9 kV
AC$MASS_SPECTROMETRY: FRAGMENTATION_MODE HCD
AC$MASS_SPECTROMETRY: COLLISION_ENERGY 20(NCE)
AC$MASS_SPECTROMETRY: RESOLUTION 17500
AC$CHROMATOGRAPHY: COLUMN_NAME Agilent RRHD Eclipse 50 x 2 mm, 1.8 uM
AC$CHROMATOGRAPHY: FLOW_GRADIENT 100:0 at 0 min, 100:0 at 0.5 min, 0:100 at 3.5 min, 0:100 at 5.5 min, 100:0 at 7 min
AC$CHROMATOGRAPHY: FLOW_RATE 0.3 mL min-1
AC$CHROMATOGRAPHY: RETENTION_TIME 3.15
AC$CHROMATOGRAPHY: NAPS_RTI 936
AC$CHROMATOGRAPHY: SOLVENT A H2O 0.1% FA
AC$CHROMATOGRAPHY: SOLVENT B ACN 0.1% FA
MS$FOCUSED_ION: BASE_PEAK 415.2351
MS$FOCUSED_ION: PRECURSOR_M/Z 415.2334
MS$FOCUSED_ION: PRECURSOR_TYPE [M+H]+
MS$DATA_PROCESSING: DEPROFILE Proteowizard
MS$DATA_PROCESSING: RECALIBRATE based on Fragment ion formula determination
MS$DATA_PROCESSING: INTENSITY CUTOFF 0.05 Base Peak
PK$SPLASH: splash10-02t9-0029800000-6f61f918d86a0afd5132
PK$ANNOTATION: m/z tentative_formula mass_error(ppm)
  238.1557 C14H22O3+ -2.75
  256.1814 C16H22N3+ 2.2
  312.1715 C20H24O3+ -1.63
  330.1822 C20H26O4+ -1.12
  397.2249 C22H29N4O3+ 3.73
  415.2351 C22H31N4O4+ 2.7
PK$NUM_PEAK: 6
PK$PEAK: m/z int. rel.int.
  238.1564 11049859.0 293
  256.1808 1232002.0 31
  312.172 35881328.0 955
  330.1826 2437314.5 64
  397.2234 1230158.875 31
  415.234 37493908.0 999
//
