ACCESSION: MSBNK-AAFC-AC000495
RECORD_TITLE: Fumonisin B3; LC-ESI-ITFT; MS2; CE: 20; R=17500; [M+Na]+
DATE: 2017.07.07
AUTHORS: Justin B. Renaud, Mark W. Sumarah, Agriculture and Agri-Food Canada
LICENSE: CC BY-SA
COPYRIGHT: Copyright (C) 2017
PUBLICATION: Renaud, J. B.; Sumarah, M. W. Data Independent Acquisition-Digital Archiving Mass Spectrometry: Application to Single Kernel Mycotoxin Analysis of Fusarium Graminearum Infected Maize. Analytical and Bioanalytical Chemistry 2016, 408 (12), 3083–91. DOI:10.1007/s00216-016-9391-5
COMMENT: CONFIDENCE isolated standard
CH$NAME: Fumonisin B3
CH$COMPOUND_CLASS: Natural Product; Fungal metabolite
CH$FORMULA: C34H59NO14
CH$EXACT_MASS: 705.39354
CH$SMILES: CCCC[C@@H](C)[C@H]([C@H](C[C@@H](C)C[C@@H](CCCCCC[C@@H]([C@@H](C)N)O)O)OC(=O)CC(CC(=O)O)C(=O)O)OC(=O)CC(CC(=O)O)C(=O)O
CH$IUPAC: InChI=1S/C34H59NO14/c1-5-6-11-21(3)32(49-31(43)19-24(34(46)47)17-29(40)41)27(48-30(42)18-23(33(44)45)16-28(38)39)15-20(2)14-25(36)12-9-7-8-10-13-26(37)22(4)35/h20-27,32,36-37H,5-19,35H2,1-4H3,(H,38,39)(H,40,41)(H,44,45)(H,46,47)/t20-,21+,22+,23?,24?,25+,26-,27-,32+/m0/s1
CH$LINK: INCHIKEY CPCRJSQNWHCGOP-ZBUYIUKQSA-N
CH$LINK: CAS 136379-59-4
CH$LINK: PUBCHEM CID:71312439
CH$LINK: CHEMSPIDER 2299162
AC$INSTRUMENT: Q-Exactive Orbitrap Thermo Scientific
AC$INSTRUMENT_TYPE: LC-ESI-ITFT
AC$MASS_SPECTROMETRY: MS_TYPE MS2
AC$MASS_SPECTROMETRY: ION_MODE POSITIVE
AC$MASS_SPECTROMETRY: IONIZATION ESI
AC$MASS_SPECTROMETRY: IONIZATION_VOLTAGE 3.9 kV
AC$MASS_SPECTROMETRY: FRAGMENTATION_MODE HCD
AC$MASS_SPECTROMETRY: COLLISION_ENERGY 20(NCE)
AC$MASS_SPECTROMETRY: RESOLUTION 17500
AC$CHROMATOGRAPHY: COLUMN_NAME Agilent RRHD Eclipse 50 x 2 mm, 1.8 uM
AC$CHROMATOGRAPHY: FLOW_GRADIENT 100:0 at 0 min, 100:0 at 0.5 min, 0:100 at 3.5 min, 0:100 at 5.5 min, 100:0 at 7 min
AC$CHROMATOGRAPHY: FLOW_RATE 0.3 mL min-1
AC$CHROMATOGRAPHY: RETENTION_TIME 2.83
AC$CHROMATOGRAPHY: NAPS_RTI 791
AC$CHROMATOGRAPHY: SOLVENT A H2O 0.1% FA
AC$CHROMATOGRAPHY: SOLVENT B ACN 0.1% FA
MS$FOCUSED_ION: BASE_PEAK 728.3791
MS$FOCUSED_ION: PRECURSOR_M/Z 728.3822
MS$FOCUSED_ION: PRECURSOR_TYPE [M+Na]+
MS$DATA_PROCESSING: DEPROFILE Proteowizard
MS$DATA_PROCESSING: RECALIBRATE based on Fragment ion formula determination
MS$DATA_PROCESSING: INTENSITY CUTOFF 0.05 Base Peak
PK$SPLASH: splash10-004i-0000000900-87ce3bd453298b113411
PK$ANNOTATION: m/z tentative_formula mass_error(ppm)
  376.317 C19H45O5Na1+ 2.81
  552.3483 C25H53O11Na1+ 0.52
  728.3791 C34H59N1O14Na1+ -5.04
PK$NUM_PEAK: 3
PK$PEAK: m/z int. rel.int.
  376.3159 547621.25 34
  552.348 1208745.5 78
  728.3828 15260655.0 999
//
