ACCESSION: MSBNK-AAFC-AC000005
RECORD_TITLE: Mellein; LC-ESI-ITFT; MS2; CE: 50; R=17500; [M+H]+
DATE: 2017.07.07
AUTHORS: Justin B. Renaud, Mark W. Sumarah, Agriculture and Agri-Food Canada
LICENSE: CC BY-SA
COPYRIGHT: Copyright (C) 2017
PUBLICATION: Renaud, J. B.; Sumarah, M. W. Data Independent Acquisition-Digital Archiving Mass Spectrometry: Application to Single Kernel Mycotoxin Analysis of Fusarium Graminearum Infected Maize. Analytical and Bioanalytical Chemistry 2016, 408 (12), 3083–91. DOI:10.1007/s00216-016-9391-5
COMMENT: CONFIDENCE isolated standard
CH$NAME: Mellein
CH$NAME: Ochracin
CH$NAME: 8-hydroxy-3-methyl-3,4-dihydroisochromen-1-one
CH$COMPOUND_CLASS: Natural Product; Fungal metabolite
CH$FORMULA: C10H10O3
CH$EXACT_MASS: 178.06299
CH$SMILES: CC1CC2=C(C(=CC=C2)O)C(=O)O1
CH$IUPAC: InChI=1S/C10H10O3/c1-6-5-7-3-2-4-8(11)9(7)10(12)13-6/h2-4,6,11H,5H2,1H3
CH$LINK: INCHIKEY KWILGNNWGSNMPA-UHFFFAOYSA-N
CH$LINK: CAS 17397-85-2
CH$LINK: PUBCHEM CID:28516
CH$LINK: CHEMSPIDER 26529
CH$LINK: KNAPSACK C00000550
CH$LINK: COMPTOX DTXSID60891794
AC$INSTRUMENT: Q-Exactive Orbitrap Thermo Scientific
AC$INSTRUMENT_TYPE: LC-ESI-ITFT
AC$MASS_SPECTROMETRY: MS_TYPE MS2
AC$MASS_SPECTROMETRY: ION_MODE POSITIVE
AC$MASS_SPECTROMETRY: IONIZATION ESI
AC$MASS_SPECTROMETRY: IONIZATION_VOLTAGE 3.9 kV
AC$MASS_SPECTROMETRY: FRAGMENTATION_MODE HCD
AC$MASS_SPECTROMETRY: COLLISION_ENERGY 50(NCE)
AC$MASS_SPECTROMETRY: RESOLUTION 17500
AC$CHROMATOGRAPHY: COLUMN_NAME Agilent RRHD Eclipse 50 x 2 mm, 1.8 uM
AC$CHROMATOGRAPHY: FLOW_GRADIENT 100:0 at 0 min, 100:0 at 0.5 min, 0:100 at 3.5 min, 0:100 at 5.5 min, 100:0 at 7 min
AC$CHROMATOGRAPHY: FLOW_RATE 0.3 mL min-1
AC$CHROMATOGRAPHY: RETENTION_TIME 3.44
AC$CHROMATOGRAPHY: NAPS_RTI 1094
AC$CHROMATOGRAPHY: SOLVENT A H2O 0.1% FA
AC$CHROMATOGRAPHY: SOLVENT B ACN 0.1% FA
MS$FOCUSED_ION: BASE_PEAK 133.0643
MS$FOCUSED_ION: PRECURSOR_M/Z 179.0697
MS$FOCUSED_ION: PRECURSOR_TYPE [M+H]+
MS$DATA_PROCESSING: DEPROFILE Proteowizard
MS$DATA_PROCESSING: RECALIBRATE based on Fragment ion formula determination
MS$DATA_PROCESSING: INTENSITY CUTOFF 0.05 Base Peak
PK$SPLASH: splash10-01q9-0900000000-f556e9b53553d12b44b5
PK$ANNOTATION: m/z tentative_formula mass_error(ppm)
  105.0698 C8H9+ -0.84
  115.054 C9H7+ -2.05
  133.0643 C9H9O1+ -3.74
  151.0747 C9H11O2+ -4.37
  161.0589 C10H9O2+ -5.02
  179.0696 C10H11O3+ -3.74
PK$NUM_PEAK: 6
PK$PEAK: m/z int. rel.int.
  105.0699 1513707.125 422
  115.0542 134276.65625 36
  133.0648 3576966.75 999
  151.0754 143513.875 39
  161.0597 2536772.25 708
  179.0703 204606.65625 56
//
