ACCESSION: MSBNK-AAFC-AC000601
RECORD_TITLE: Satratoxin H; LC-ESI-ITFT; MS2; CE: 10; R=17500; [M+H]+
DATE: 2017.07.07
AUTHORS: Justin B. Renaud, Mark W. Sumarah, Agriculture and Agri-Food Canada
LICENSE: CC BY-SA
COPYRIGHT: Copyright (C) 2017
PUBLICATION: Renaud, J. B.; Sumarah, M. W. Data Independent Acquisition-Digital Archiving Mass Spectrometry: Application to Single Kernel Mycotoxin Analysis of Fusarium Graminearum Infected Maize. Analytical and Bioanalytical Chemistry 2016, 408 (12), 3083–91. DOI:10.1007/s00216-016-9391-5
COMMENT: CONFIDENCE isolated standard
CH$NAME: Satratoxin H
CH$COMPOUND_CLASS: Natural Product; Fungal metabolite
CH$FORMULA: C29H36O9
CH$EXACT_MASS: 528.23593
CH$SMILES: CC1=C[C@@H]2[C@@]3(CC1)COC(=O)/C=C/4\CCO[C@@]([C@@H]4O)(/C=C/C=C/C(=O)OC5[C@]3([C@]6(CO6)[C@@H](C5)O2)C)[C@H](C)O
CH$IUPAC: InChI=1S/C29H36O9/c1-17-7-10-27-15-34-24(32)13-19-8-11-35-28(18(2)30,25(19)33)9-5-4-6-23(31)38-20-14-22(37-21(27)12-17)29(16-36-29)26(20,27)3/h4-6,9,12-13,18,20-22,25,30,33H,7-8,10-11,14-16H2,1-3H3/b6-4+,9-5+,19-13+/t18-,20?,21+,22+,25+,26+,27+,28-,29-/m0/s1
CH$LINK: INCHIKEY MUACSCLQRGEGOE-MOCAONITSA-N
CH$LINK: CAS 53126-64-0
CH$LINK: PUBCHEM CID:56928155
CH$LINK: CHEMSPIDER 16736977
CH$LINK: KNAPSACK C00012628
AC$INSTRUMENT: Q-Exactive Orbitrap Thermo Scientific
AC$INSTRUMENT_TYPE: LC-ESI-ITFT
AC$MASS_SPECTROMETRY: MS_TYPE MS2
AC$MASS_SPECTROMETRY: ION_MODE POSITIVE
AC$MASS_SPECTROMETRY: IONIZATION ESI
AC$MASS_SPECTROMETRY: IONIZATION_VOLTAGE 3.9 kV
AC$MASS_SPECTROMETRY: FRAGMENTATION_MODE HCD
AC$MASS_SPECTROMETRY: COLLISION_ENERGY 10(NCE)
AC$MASS_SPECTROMETRY: RESOLUTION 17500
AC$CHROMATOGRAPHY: COLUMN_NAME Agilent RRHD Eclipse 50 x 2 mm, 1.8 uM
AC$CHROMATOGRAPHY: FLOW_GRADIENT 100:0 at 0 min, 100:0 at 0.5 min, 0:100 at 3.5 min, 0:100 at 5.5 min, 100:0 at 7 min
AC$CHROMATOGRAPHY: FLOW_RATE 0.3 mL min-1
AC$CHROMATOGRAPHY: RETENTION_TIME 3.25
AC$CHROMATOGRAPHY: NAPS_RTI 989
AC$CHROMATOGRAPHY: SOLVENT A H2O 0.1% FA
AC$CHROMATOGRAPHY: SOLVENT B ACN 0.1% FA
MS$FOCUSED_ION: BASE_PEAK 529.2451
MS$FOCUSED_ION: PRECURSOR_M/Z 529.2427
MS$FOCUSED_ION: PRECURSOR_TYPE [M+H]+
MS$DATA_PROCESSING: DEPROFILE Proteowizard
MS$DATA_PROCESSING: RECALIBRATE based on Fragment ion formula determination
MS$DATA_PROCESSING: INTENSITY CUTOFF 0.05 Base Peak
PK$SPLASH: splash10-004i-0010090000-9c590c36e0ee6fe53a5f
PK$ANNOTATION: m/z tentative_formula mass_error(ppm)
  231.1388 C15H19O2+ 3.6
  249.1491 C15H21O3+ 2.29
  529.2451 C29H37O9+ 3.58
PK$NUM_PEAK: 3
PK$PEAK: m/z int. rel.int.
  231.138 163356.71875 67
  249.1485 139856.109375 57
  529.2432 2386250.25 999
//
