ACCESSION: MSBNK-AAFC-AC000569
RECORD_TITLE: Sambucinol; LC-ESI-ITFT; MS2; CE: 10; R=17500; [M+H]+
DATE: 2017.07.07
AUTHORS: Justin B. Renaud, Mark W. Sumarah, Agriculture and Agri-Food Canada
LICENSE: CC BY-SA
COPYRIGHT: Copyright (C) 2017
COMMENT: CONFIDENCE isolated standard
CH$NAME: Sambucinol
CH$COMPOUND_CLASS: Natural Product; Fungal metabolite
CH$FORMULA: C15H22O4
CH$EXACT_MASS: 266.15181
CH$SMILES: CC1=C[C@]23[C@](CC1)([C@]4(C[C@@H]([C@H]([C@]4(O2)CO)O3)O)C)C
CH$IUPAC: InChI=1S/C15H22O4/c1-9-4-5-12(2)13(3)7-10(17)11-14(13,8-16)19-15(12,6-9)18-11/h6,10-11,16-17H,4-5,7-8H2,1-3H3/t10-,11+,12+,13+,14+,15+/m0/s1
CH$LINK: INCHIKEY GFLMBFRNOPTZDK-CMBQYIQPSA-N
CH$LINK: CAS 90044-33-0
CH$LINK: PUBCHEM CID:5459101
CH$LINK: CHEMSPIDER 10212194
CH$LINK: KNAPSACK C00012622
AC$INSTRUMENT: Q-Exactive Orbitrap Thermo Scientific
AC$INSTRUMENT_TYPE: LC-ESI-ITFT
AC$MASS_SPECTROMETRY: MS_TYPE MS2
AC$MASS_SPECTROMETRY: ION_MODE POSITIVE
AC$MASS_SPECTROMETRY: IONIZATION ESI
AC$MASS_SPECTROMETRY: IONIZATION_VOLTAGE 3.9 kV
AC$MASS_SPECTROMETRY: FRAGMENTATION_MODE HCD
AC$MASS_SPECTROMETRY: COLLISION_ENERGY 10(NCE)
AC$MASS_SPECTROMETRY: RESOLUTION 17500
AC$CHROMATOGRAPHY: COLUMN_NAME Agilent RRHD Eclipse 50 x 2 mm, 1.8 uM
AC$CHROMATOGRAPHY: FLOW_GRADIENT 100:0 at 0 min, 100:0 at 0.5 min, 0:100 at 3.5 min, 0:100 at 5.5 min, 100:0 at 7 min
AC$CHROMATOGRAPHY: FLOW_RATE 0.3 mL min-1
AC$CHROMATOGRAPHY: RETENTION_TIME 2.91
AC$CHROMATOGRAPHY: NAPS_RTI 811
AC$CHROMATOGRAPHY: SOLVENT A H2O 0.1% FA
AC$CHROMATOGRAPHY: SOLVENT B ACN 0.1% FA
MS$FOCUSED_ION: BASE_PEAK 267.1601
MS$FOCUSED_ION: PRECURSOR_M/Z 267.1585
MS$FOCUSED_ION: PRECURSOR_TYPE [M+H]+
MS$DATA_PROCESSING: DEPROFILE Proteowizard
MS$DATA_PROCESSING: RECALIBRATE based on Fragment ion formula determination
MS$DATA_PROCESSING: INTENSITY CUTOFF 0.05 Base Peak
PK$SPLASH: splash10-014i-0090000000-b8162e1d14a7291be459
PK$ANNOTATION: m/z tentative_formula mass_error(ppm)
  95.0864 C7H11+ 9.04
  249.1496 C15H21O3+ 4.29
  267.1601 C15H23O4+ 3.77
PK$NUM_PEAK: 3
PK$PEAK: m/z int. rel.int.
  95.0855 16259296.0 82
  249.1485 19114426.0 97
  267.1591 194824320.0 999
//
