ACCESSION: MSBNK-AAFC-AC000690
RECORD_TITLE: Kojic Acid; LC-ESI-ITFT; MS2; CE: 10; R=17500; [M+H]+
DATE: 2017.07.07
AUTHORS: Derek Holzscherer, Justin B. Renaud, Mark W. Sumarah, Agriculture and Agri-Food Canada
LICENSE: CC BY-SA
COPYRIGHT: Copyright (C) 2017
COMMENT: CONFIDENCE Reference Standard (Level 1)
CH$NAME: Kojic Acid
CH$NAME: 5-hydroxy-2-(hydroxymethyl)pyran-4-one
CH$COMPOUND_CLASS: Natural Product; Fungal metabolite
CH$FORMULA: C6H6O4
CH$EXACT_MASS: 142.0266
CH$SMILES: C1=C(OC=C(C1=O)O)CO
CH$IUPAC: InChI=1S/C6H6O4/c7-2-4-1-5(8)6(9)3-10-4/h1,3,7,9H,2H2
CH$LINK: INCHIKEY BEJNERDRQOWKJM-UHFFFAOYSA-N
CH$LINK: CAS 501-30-4
CH$LINK: PUBCHEM CID:3840
CH$LINK: CHEMSPIDER 3708
CH$LINK: KNAPSACK C00041026
CH$LINK: COMPTOX DTXSID2040236
AC$INSTRUMENT: Q-Exactive Orbitrap Thermo Scientific
AC$INSTRUMENT_TYPE: LC-ESI-ITFT
AC$MASS_SPECTROMETRY: MS_TYPE MS2
AC$MASS_SPECTROMETRY: ION_MODE POSITIVE
AC$MASS_SPECTROMETRY: IONIZATION ESI
AC$MASS_SPECTROMETRY: IONIZATION_VOLTAGE 3.9 kV
AC$MASS_SPECTROMETRY: FRAGMENTATION_MODE HCD
AC$MASS_SPECTROMETRY: COLLISION_ENERGY 10(NCE)
AC$MASS_SPECTROMETRY: RESOLUTION 17500
AC$CHROMATOGRAPHY: COLUMN_NAME Agilent RRHD Eclipse 50 x 2 mm, 1.8 uM
AC$CHROMATOGRAPHY: FLOW_GRADIENT 100:0 at 0 min, 100:0 at 0.5 min, 0:100 at 3.5 min, 0:100 at 5.5 min, 100:0 at 7 min
AC$CHROMATOGRAPHY: FLOW_RATE 0.3 mL min-1
AC$CHROMATOGRAPHY: RETENTION_TIME 1.55
AC$CHROMATOGRAPHY: NAPS_RTI 468
AC$CHROMATOGRAPHY: SOLVENT A H2O 0.1% FA
AC$CHROMATOGRAPHY: SOLVENT B ACN 0.1% FA
MS$FOCUSED_ION: BASE_PEAK 143.0334
MS$FOCUSED_ION: PRECURSOR_M/Z 143.0333
MS$FOCUSED_ION: PRECURSOR_TYPE [M+H]+
MS$DATA_PROCESSING: DEPROFILE Proteowizard
MS$DATA_PROCESSING: RECALIBRATE based on Fragment ion formula determination
MS$DATA_PROCESSING: INTENSITY CUTOFF 0.05 Base Peak
PK$SPLASH: splash10-0006-1900000000-8688eb5be1882ae9e800
PK$ANNOTATION: m/z tentative_formula mass_error(ppm)
  69.034 C4H5O1+ 7.33
  97.0286 C5H5O2+ 2.02
  143.0334 C6H7O4+ -3.33
PK$NUM_PEAK: 3
PK$PEAK: m/z int. rel.int.
  69.0335 19308542.0 85
  97.0284 17548328.0 77
  143.0339 223934976.0 999
//
