ACCESSION: MSBNK-AAFC-AC000740
RECORD_TITLE: Surfactin B; LC-ESI-ITFT; MS2; CE: 30; R=17500; [M+Na]+
DATE: 2017.07.07
AUTHORS: Tim McDowell, Brian Weselowski, Ze-Chun Yuan, Justin B. Renaud, Mark W. Sumarah, Agriculture and Agri-Food Canada
LICENSE: CC BY-SA
COPYRIGHT: Copyright (C) 2017
COMMENT: CONFIDENCE isolated standard
CH$NAME: Surfactin B
CH$NAME: 3-[(3S,6R,9S,12S,15R,18S,21S,25R)-9-(carboxymethyl)-25-(9-methyldecyl)-3,6,15,18-tetrakis(2-methylpropyl)-2,5,8,11,14,17,20,23-octaoxo-12-propan-2-yl-1-oxa-4,7,10,13,16,19,22-heptazacyclopentacos-21-yl]propanoic acid
CH$COMPOUND_CLASS: Natural Product; Bacterial metabolite
CH$FORMULA: C52H91N7O13
CH$EXACT_MASS: 1021.66749
CH$SMILES: CC(C)CCCCCCCC[C@@H]1CC(=O)N[C@H](C(=O)N[C@H](C(=O)N[C@@H](C(=O)N[C@H](C(=O)N[C@H](C(=O)N[C@@H](C(=O)N[C@H](C(=O)O1)CC(C)C)CC(C)C)CC(=O)O)C(C)C)CC(C)C)CC(C)C)CCC(=O)O
CH$IUPAC: InChI=1S/C52H91N7O13/c1-29(2)19-17-15-13-14-16-18-20-35-27-42(60)53-36(21-22-43(61)62)46(65)54-37(23-30(3)4)47(66)56-39(25-32(7)8)50(69)59-45(34(11)12)51(70)57-40(28-44(63)64)49(68)55-38(24-31(5)6)48(67)58-41(26-33(9)10)52(71)72-35/h29-41,45H,13-28H2,1-12H3,(H,53,60)(H,54,65)(H,55,68)(H,56,66)(H,57,70)(H,58,67)(H,59,69)(H,61,62)(H,63,64)/t35-,36+,37+,38-,39-,40+,41+,45+/m1/s1
CH$LINK: INCHIKEY DDULCZLFAKVKJB-JIXKVBNCSA-N
CH$LINK: PUBCHEM CID:46226665
CH$LINK: CHEMSPIDER 28533731
AC$INSTRUMENT: Q-Exactive Orbitrap Thermo Scientific
AC$INSTRUMENT_TYPE: LC-ESI-ITFT
AC$MASS_SPECTROMETRY: MS_TYPE MS2
AC$MASS_SPECTROMETRY: ION_MODE POSITIVE
AC$MASS_SPECTROMETRY: IONIZATION ESI
AC$MASS_SPECTROMETRY: IONIZATION_VOLTAGE 3.9 kV
AC$MASS_SPECTROMETRY: FRAGMENTATION_MODE HCD
AC$MASS_SPECTROMETRY: COLLISION_ENERGY 30(NCE)
AC$MASS_SPECTROMETRY: RESOLUTION 17500
AC$CHROMATOGRAPHY: COLUMN_NAME Agilent RRHD Eclipse 50 x 2 mm, 1.8 uM
AC$CHROMATOGRAPHY: FLOW_GRADIENT 100:0 at 0 min, 100:0 at 0.5 min, 0:100 at 3.5 min, 0:100 at 5.5 min, 100:0 at 7 min
AC$CHROMATOGRAPHY: FLOW_RATE 0.3 mL min-1
AC$CHROMATOGRAPHY: RETENTION_TIME 4.88
AC$CHROMATOGRAPHY: NAPS_RTI 1890
AC$CHROMATOGRAPHY: SOLVENT A H2O 0.1% FA
AC$CHROMATOGRAPHY: SOLVENT B ACN 0.1% FA
MS$FOCUSED_ION: BASE_PEAK 1044.6593
MS$FOCUSED_ION: PRECURSOR_M/Z 1044.6562
MS$FOCUSED_ION: PRECURSOR_TYPE [M+Na]+
MS$DATA_PROCESSING: DEPROFILE Proteowizard
MS$DATA_PROCESSING: RECALIBRATE based on Fragment ion formula determination
MS$DATA_PROCESSING: INTENSITY CUTOFF 0.05 Base Peak
PK$SPLASH: splash10-0006-9000000111-25365a83048e88de7ec6
PK$ANNOTATION: m/z tentative_formula mass_error(ppm)
  463.2542 C23H38N1O7Na1+ 0.32
  594.3488 C29H51N2O9Na1+ 0.2
  707.4334 C49H57N1O3+ 0.09
  728.4951 C40H69N2O8Na1+ 0.63
  800.4802 C42H66N5O10+ -0.27
  818.4894 C42H71N2O12Na1+ -0.65
  931.5754 C49H78N7O9Na1+ 0.07
  972.6751 C52H90N7O10+ 0.74
  1044.6593 C52H91N7O13Na1+ 2.48
PK$NUM_PEAK: 9
PK$PEAK: m/z int. rel.int.
  463.2541 391980.59375 36
  594.3487 574832.75 53
  707.4333 1411140.5 132
  728.4946 681742.25 63
  800.4804 1373243.25 128
  818.4899 422062.375 38
  931.5753 1256581.5 117
  972.6744 391374.125 36
  1044.6567 10570955.0 999
//
