ACCESSION: MSBNK-AAFC-AC000315
RECORD_TITLE: Ergometrine; LC-ESI-ITFT; MS2; CE: 30; R=17500; [M+H]+
DATE: 2017.07.07
AUTHORS: Justin B. Renaud, Mark W. Sumarah, Agriculture and Agri-Food Canada
LICENSE: CC BY-SA
COPYRIGHT: Copyright (C) 2017
COMMENT: CONFIDENCE Claviceps purpurea sclerotia
CH$NAME: Ergometrine
CH$NAME: ergonovine
CH$NAME: ergobasine
CH$NAME: (6aR,9R)-N-[(2S)-1-hydroxypropan-2-yl]-7-methyl-6,6a,8,9-tetrahydro-4H-indolo[4,3-fg]quinoline-9-carboxamide
CH$COMPOUND_CLASS: Natural Product; Fungal metabolite
CH$FORMULA: C19H23N3O2
CH$EXACT_MASS: 325.17903
CH$SMILES: C[C@@H](CO)NC(=O)[C@H]1CN([C@@H]2CC3=CNC4=CC=CC(=C34)C2=C1)C
CH$IUPAC: InChI=1S/C19H23N3O2/c1-11(10-23)21-19(24)13-6-15-14-4-3-5-16-18(14)12(8-20-16)7-17(15)22(2)9-13/h3-6,8,11,13,17,20,23H,7,9-10H2,1-2H3,(H,21,24)/t11-,13+,17+/m0/s1
CH$LINK: INCHIKEY WVVSZNPYNCNODU-XTQGRXLLSA-N
CH$LINK: CAS 60-79-7
CH$LINK: PUBCHEM CID:443884
CH$LINK: CHEMSPIDER 391970
CH$LINK: KNAPSACK C00001722
CH$LINK: COMPTOX DTXSID8046323
AC$INSTRUMENT: Q-Exactive Orbitrap Thermo Scientific
AC$INSTRUMENT_TYPE: LC-ESI-ITFT
AC$MASS_SPECTROMETRY: MS_TYPE MS2
AC$MASS_SPECTROMETRY: ION_MODE POSITIVE
AC$MASS_SPECTROMETRY: IONIZATION ESI
AC$MASS_SPECTROMETRY: IONIZATION_VOLTAGE 3.9 kV
AC$MASS_SPECTROMETRY: FRAGMENTATION_MODE HCD
AC$MASS_SPECTROMETRY: COLLISION_ENERGY 30(NCE)
AC$MASS_SPECTROMETRY: RESOLUTION 17500
AC$CHROMATOGRAPHY: COLUMN_NAME Agilent RRHD Eclipse 50 x 2 mm, 1.8 uM
AC$CHROMATOGRAPHY: FLOW_GRADIENT 100:0 at 0 min, 100:0 at 0.5 min, 0:100 at 3.5 min, 0:100 at 5.5 min, 100:0 at 7 min
AC$CHROMATOGRAPHY: FLOW_RATE 0.3 mL min-1
AC$CHROMATOGRAPHY: RETENTION_TIME 2.26
AC$CHROMATOGRAPHY: NAPS_RTI 487
AC$CHROMATOGRAPHY: SOLVENT A H2O 0.1% FA
AC$CHROMATOGRAPHY: SOLVENT B ACN 0.1% FA
MS$FOCUSED_ION: BASE_PEAK 326.1859
MS$FOCUSED_ION: PRECURSOR_M/Z 326.1858
MS$FOCUSED_ION: PRECURSOR_TYPE [M+H]+
MS$DATA_PROCESSING: DEPROFILE Proteowizard
MS$DATA_PROCESSING: RECALIBRATE based on Fragment ion formula determination
MS$DATA_PROCESSING: INTENSITY CUTOFF 0.05 Base Peak
PK$SPLASH: splash10-00b9-0198000000-9342992bafd90d8972ad
PK$ANNOTATION: m/z tentative_formula mass_error(ppm)
  197.1072 C13H13N2+ -0.67
  208.0757 C14H10N1O1+ 0.03
  223.1227 C15H15N2+ -1.27
  251.1177 C16H15N2O1+ -0.77
  265.1334 C17H17N2O1+ -0.55
  269.1282 C16H17N2O2+ -0.95
  283.1439 C17H19N2O2+ -0.73
  308.1752 C19H22N3O1+ -1.77
  326.1859 C19H24N3O2+ -1.25
PK$NUM_PEAK: 9
PK$PEAK: m/z int. rel.int.
  197.1073 2494293.25 136
  208.0757 2801798.0 153
  223.123 12319966.0 677
  251.1179 1076965.0 58
  265.1335 593338.25 31
  269.1285 789266.875 42
  283.1441 2302441.0 125
  308.1757 582772.4375 31
  326.1863 18163768.0 999
//
