ACCESSION: MSBNK-AAFC-AC000304
RECORD_TITLE: Ergocryptinine; LC-ESI-ITFT; MS2; CE: 20; R=17500; [M+H]+
DATE: 2017.07.07
AUTHORS: Justin B. Renaud, Mark W. Sumarah, Agriculture and Agri-Food Canada
LICENSE: CC BY-SA
COPYRIGHT: Copyright (C) 2017
PUBLICATION: Renaud, J. B.; Sumarah, M. W. Data Independent Acquisition-Digital Archiving Mass Spectrometry: Application to Single Kernel Mycotoxin Analysis of Fusarium Graminearum Infected Maize. Analytical and Bioanalytical Chemistry 2016, 408 (12), 3083–91. DOI:10.1007/s00216-016-9391-5
COMMENT: CONFIDENCE Reference Standard (Level 1)
CH$NAME: Ergocryptinine
CH$COMPOUND_CLASS: Natural Product; Fungal metabolite
CH$FORMULA: C32H41N5O5
CH$EXACT_MASS: 575.31077
CH$SMILES: CC(C)C[C@H]1C(=O)N2CCC[C@H]2[C@]3(N1C(=O)[C@](O3)(C(C)C)NC(=O)[C@@H]4CN([C@@H]5CC6=CNC7=CC=CC(=C67)C5=C4)C)O
CH$IUPAC: InChI=1S/C32H41N5O5/c1-17(2)12-25-29(39)36-11-7-10-26(36)32(41)37(25)30(40)31(42-32,18(3)4)34-28(38)20-13-22-21-8-6-9-23-27(21)19(15-33-23)14-24(22)35(5)16-20/h6,8-9,13,15,17-18,20,24-26,33,41H,7,10-12,14,16H2,1-5H3,(H,34,38)/t20-,24+,25-,26-,31+,32-/m0/s1
CH$LINK: INCHIKEY YDOTUXAWKBPQJW-JJANYQHSSA-N
CH$LINK: CAS 511-10-4
CH$LINK: PUBCHEM CID:10875520
CH$LINK: CHEMSPIDER 9050795
CH$LINK: COMPTOX DTXSID00891859
AC$INSTRUMENT: Q-Exactive Orbitrap Thermo Scientific
AC$INSTRUMENT_TYPE: LC-ESI-ITFT
AC$MASS_SPECTROMETRY: MS_TYPE MS2
AC$MASS_SPECTROMETRY: ION_MODE POSITIVE
AC$MASS_SPECTROMETRY: IONIZATION ESI
AC$MASS_SPECTROMETRY: IONIZATION_VOLTAGE 3.9 kV
AC$MASS_SPECTROMETRY: FRAGMENTATION_MODE HCD
AC$MASS_SPECTROMETRY: COLLISION_ENERGY 20(NCE)
AC$MASS_SPECTROMETRY: RESOLUTION 17500
AC$CHROMATOGRAPHY: COLUMN_NAME Agilent RRHD Eclipse 50 x 2 mm, 1.8 uM
AC$CHROMATOGRAPHY: FLOW_GRADIENT 100:0 at 0 min, 100:0 at 0.5 min, 0:100 at 3.5 min, 0:100 at 5.5 min, 100:0 at 7 min
AC$CHROMATOGRAPHY: FLOW_RATE 0.3 mL min-1
AC$CHROMATOGRAPHY: RETENTION_TIME 2.8
AC$CHROMATOGRAPHY: NAPS_RTI 750
AC$CHROMATOGRAPHY: SOLVENT A H2O 0.1% FA
AC$CHROMATOGRAPHY: SOLVENT B ACN 0.1% FA
MS$FOCUSED_ION: BASE_PEAK 558.3046
MS$FOCUSED_ION: PRECURSOR_M/Z 576.3175
MS$FOCUSED_ION: PRECURSOR_TYPE [M+H]+
MS$DATA_PROCESSING: DEPROFILE Proteowizard
MS$DATA_PROCESSING: RECALIBRATE based on Fragment ion formula determination
MS$DATA_PROCESSING: INTENSITY CUTOFF 0.05 Base Peak
PK$SPLASH: splash10-0a4i-0079070000-4343ed62b5b07fcb5ddf
PK$ANNOTATION: m/z tentative_formula mass_error(ppm)
  223.1218 C15H15N2+ -5.31
  225.1011 C12H11N5+ 0.93
  261.1371 C15H19N1O3+ 4.41
  268.1429 C13H20N2O4+ 4.27
  291.1687 C14H21N5O2+ -0.93
  305.1268 C17H15N5O1+ -1.0
  348.1687 C18H24N2O5+ 2.1
  530.3101 C31H40N5O3+ -4.67
  558.3046 C32H40N5O4+ -5.17
PK$NUM_PEAK: 9
PK$PEAK: m/z int. rel.int.
  223.123 37772860.0 407
  225.1009 4449034.5 47
  261.1359 3079843.0 32
  268.1418 16033777.0 172
  291.169 40198020.0 433
  305.1271 67315872.0 726
  348.168 49791084.0 537
  530.3126 4359674.0 46
  558.3075 92521784.0 999
//
