ACCESSION: MSBNK-AAFC-AC000833
RECORD_TITLE: Fiscalin C; LC-ESI-ITFT; MS2; CE: 20; R=17500; [M+H]+
DATE: 2017.07.07
AUTHORS: Megan J. Kelman, Justin B. Renaud, Mark W. Sumarah, Agriculture and Agri-Food Canada
LICENSE: CC BY-SA
COPYRIGHT: Copyright (C) 2017
PUBLICATION: Visagie, C. M.; Renaud, J. B.; Burgess, K. M. N.; Malloch, D. W.; Clark, D.; Ketch, L.; Urb, M.; Louis-Seize, G.; Assabgui, R.; Sumarah, M. W.; et al. Fifteen New Species of Penicillium. Persoonia - Molecular Phylogeny and Evolution of Fungi 2016, 36 (1), 247–80. DOI:10.3767/003158516x691627
COMMENT: CONFIDENCE Penicillium corvianum
CH$NAME: Fiscalin C
CH$NAME: (1S,4R)-4-[[(3aR,4R)-4-hydroxy-2,2-dimethyl-1-oxo-3,3a-dihydroimidazo[1,2-a]indol-4-yl]methyl]-1-propan-2-yl-2,4-dihydro-1H-pyrazino[2,1-b]quinazoline-3,6-dione
CH$COMPOUND_CLASS: Natural Product; Fungal metabolite
CH$FORMULA: C27H29N5O4
CH$EXACT_MASS: 487.22194
CH$SMILES: CC(C)[C@H]1C2=NC3=CC=CC=C3C(=O)N2[C@@H](C(=O)N1)C[C@@]4([C@@H]5NC(C(=O)N5C6=CC=CC=C64)(C)C)O
CH$IUPAC: InChI=1S/C27H29N5O4/c1-14(2)20-21-28-17-11-7-5-9-15(17)23(34)31(21)19(22(33)29-20)13-27(36)16-10-6-8-12-18(16)32-24(27)30-26(3,4)25(32)35/h5-12,14,19-20,24,30,36H,13H2,1-4H3,(H,29,33)/t19-,20+,24-,27-/m1/s1
CH$LINK: INCHIKEY VHQZIMAMLQIPDR-KLGADWMXSA-N
CH$LINK: PUBCHEM CID:101651022
CH$LINK: KNAPSACK C00016810
AC$INSTRUMENT: Q-Exactive Orbitrap Thermo Scientific
AC$INSTRUMENT_TYPE: LC-ESI-ITFT
AC$MASS_SPECTROMETRY: MS_TYPE MS2
AC$MASS_SPECTROMETRY: ION_MODE POSITIVE
AC$MASS_SPECTROMETRY: IONIZATION ESI
AC$MASS_SPECTROMETRY: IONIZATION_VOLTAGE 3.9 kV
AC$MASS_SPECTROMETRY: FRAGMENTATION_MODE HCD
AC$MASS_SPECTROMETRY: COLLISION_ENERGY 20(NCE)
AC$MASS_SPECTROMETRY: RESOLUTION 17500
AC$CHROMATOGRAPHY: COLUMN_NAME Agilent RRHD Eclipse 50 x 2 mm, 1.8 uM
AC$CHROMATOGRAPHY: FLOW_GRADIENT 100:0 at 0 min, 100:0 at 0.5 min, 0:100 at 3.5 min, 0:100 at 5.5 min, 100:0 at 7 min
AC$CHROMATOGRAPHY: FLOW_RATE 0.3 mL min-1
AC$CHROMATOGRAPHY: RETENTION_TIME 3.46
AC$CHROMATOGRAPHY: NAPS_RTI 1117
AC$CHROMATOGRAPHY: SOLVENT A H2O 0.1% FA
AC$CHROMATOGRAPHY: SOLVENT B ACN 0.1% FA
MS$FOCUSED_ION: BASE_PEAK 213.1021
MS$FOCUSED_ION: PRECURSOR_M/Z 488.2287
MS$FOCUSED_ION: PRECURSOR_TYPE [M+H]+
MS$DATA_PROCESSING: DEPROFILE Proteowizard
MS$DATA_PROCESSING: RECALIBRATE based on Fragment ion formula determination
MS$DATA_PROCESSING: INTENSITY CUTOFF 0.05 Base Peak
PK$SPLASH: splash10-03k9-0090300000-04399dc279e900ccde9a
PK$ANNOTATION: m/z tentative_formula mass_error(ppm)
  185.1073 C12H13N2+ -0.17
  213.1021 C13H13N2O1+ -0.67
  258.1236 C14H16N3O2+ -0.39
  452.2079 C27H26N5O2+ -0.44
  470.2184 C27H28N5O3+ -0.56
PK$NUM_PEAK: 5
PK$PEAK: m/z int. rel.int.
  185.1073 9512016.0 53
  213.1022 173676000.0 999
  258.1237 75360896.0 432
  452.2081 8120268.5 45
  470.2187 89926720.0 516
//
