ACCESSION: MSBNK-AAFC-AC000762
RECORD_TITLE: Viridicatumtoxin; LC-ESI-ITFT; MS2; CE: 10; R=17500; [M-H]-
DATE: 2017.07.07
AUTHORS: Megan J. Kelman, Justin B. Renaud, Mark W. Sumarah, Agriculture and Agri-Food Canada
LICENSE: CC BY-SA
COPYRIGHT: Copyright (C) 2017
COMMENT: CONFIDENCE Penicillium amphipolaria
CH$NAME: Viridicatumtoxin
CH$NAME: (1S,7a'S,11a'R)-5',6',7a',10',11a'-Pentahydroxy-3'-methoxy-2,6,6-trimethyl-7',8',12'-trioxo-7',7a',8',11',11a',12'-hexahydro-1'H-spiro[cyclohex-2-ene-1,2'-cyclopenta[de]tetracene]-9'-carboxamide
CH$COMPOUND_CLASS: Natural Product; Fungal metabolite
CH$FORMULA: C30H31NO10
CH$EXACT_MASS: 565.19478
CH$SMILES: CC1=CCCC([C@@]12CC3=C4[C@@H]([C@]5(CC(=O)C(=C([C@]5(C(=O)C4=C(C6=C3C2=C(C=C6O)OC)O)O)O)C(=O)N)O)O)(C)C
CH$IUPAC: InChI=1S/C30H31NO10/c1-11-6-5-7-27(2,3)28(11)9-12-16-18(13(32)8-15(41-4)21(16)28)22(34)20-17(12)23(35)29(39)10-14(33)19(26(31)38)24(36)30(29,40)25(20)37/h6,8,23,32,34-36,39-40H,5,7,9-10H2,1-4H3,(H2,31,38)/t23-,28-,29-,30+/m0/s1
CH$LINK: INCHIKEY FNSQKFOXORBCCC-WBWZXODPSA-N
CH$LINK: CAS 39277-41-3
CH$LINK: PUBCHEM CID:54686377
CH$LINK: CHEMSPIDER 29355821
AC$INSTRUMENT: Q-Exactive Orbitrap Thermo Scientific
AC$INSTRUMENT_TYPE: LC-ESI-ITFT
AC$MASS_SPECTROMETRY: MS_TYPE MS2
AC$MASS_SPECTROMETRY: ION_MODE NEGATIVE
AC$MASS_SPECTROMETRY: IONIZATION ESI
AC$MASS_SPECTROMETRY: IONIZATION_VOLTAGE 3.9 kV
AC$MASS_SPECTROMETRY: FRAGMENTATION_MODE HCD
AC$MASS_SPECTROMETRY: COLLISION_ENERGY 10(NCE)
AC$MASS_SPECTROMETRY: RESOLUTION 17500
AC$CHROMATOGRAPHY: COLUMN_NAME Agilent RRHD Eclipse 50 x 2 mm, 1.8 uM
AC$CHROMATOGRAPHY: FLOW_GRADIENT 100:0 at 0 min, 100:0 at 0.5 min, 0:100 at 3.5 min, 0:100 at 5.5 min, 100:0 at 7 min
AC$CHROMATOGRAPHY: FLOW_RATE 0.3 mL min-1
AC$CHROMATOGRAPHY: RETENTION_TIME 3.95
AC$CHROMATOGRAPHY: NAPS_RTI 1400
AC$CHROMATOGRAPHY: SOLVENT A H2O 0.1% FA
AC$CHROMATOGRAPHY: SOLVENT B ACN 0.1% FA
MS$FOCUSED_ION: BASE_PEAK 564.1865
MS$FOCUSED_ION: PRECURSOR_M/Z 564.188
MS$FOCUSED_ION: PRECURSOR_TYPE [M-H]-
MS$DATA_PROCESSING: DEPROFILE Proteowizard
MS$DATA_PROCESSING: RECALIBRATE based on Fragment ion formula determination
MS$DATA_PROCESSING: INTENSITY CUTOFF 0.05 Base Peak
PK$SPLASH: splash10-03di-0000090000-97ec9fba3865be39e288
PK$ANNOTATION: m/z tentative_formula mass_error(ppm)
  502.1862 C29H28N1O7- -1.82
  546.176 C30H28N1O9- -1.71
  547.1602 C30H27O10- -1.37
PK$NUM_PEAK: 5
PK$PEAK: m/z int. rel.int.
  502.1871 1554334.125 153
  520.1959 555264.125 54
  546.1769 692817.625 67
  547.1609 696957.625 68
  564.1865 10053931.0 999
//
