ACCESSION: MSBNK-AAFC-AC000416
RECORD_TITLE: Bassanolide; LC-ESI-ITFT; MS2; CE: 20; R=17500; [M+NH4]+
DATE: 2017.07.07
AUTHORS: Justin B. Renaud, Mark W. Sumarah, Agriculture and Agri-Food Canada
LICENSE: CC BY-SA
COPYRIGHT: Copyright (C) 2017
PUBLICATION: Renaud, J. B.; Kelman, M. J.; McMullin, D. R.; Yeung, K. K.-C.; Sumarah, M. W. Application of C8 Liquid Chromatography-Tandem Mass Spectrometry for the Analysis of Enniatins and Bassianolides. Journal of Chromatography A 2017, 1508, 65–72. DOI:10.1016/j.chroma.2017.05.070
COMMENT: CONFIDENCE Reference Standard (Level 1)
CH$NAME: Bassanolide
CH$NAME: (3S,6R,9S,12R,15S,18R,21S,24R)-4,10,16,22-tetramethyl-3,9,15,21-tetrakis(2-methylpropyl)-6,12,18,24-tetra(propan-2-yl)-1,7,13,19-tetraoxa-4,10,16,22-tetrazacyclotetracosane-2,5,8,11,14,17,20,23-octone
CH$COMPOUND_CLASS: Natural Product; Fungal metabolite
CH$FORMULA: C48H84N4O12
CH$EXACT_MASS: 908.60858
CH$SMILES: CC(C)C[C@H]1C(=O)O[C@@H](C(=O)N([C@H](C(=O)O[C@@H](C(=O)N([C@H](C(=O)O[C@@H](C(=O)N([C@H](C(=O)O[C@@H](C(=O)N1C)C(C)C)CC(C)C)C)C(C)C)CC(C)C)C)C(C)C)CC(C)C)C)C(C)C
CH$IUPAC: InChI=1S/C48H84N4O12/c1-25(2)21-33-45(57)61-38(30(11)12)42(54)50(18)35(23-27(5)6)47(59)63-40(32(15)16)44(56)52(20)36(24-28(7)8)48(60)64-39(31(13)14)43(55)51(19)34(22-26(3)4)46(58)62-37(29(9)10)41(53)49(33)17/h25-40H,21-24H2,1-20H3/t33-,34-,35-,36-,37+,38+,39+,40+/m0/s1
CH$LINK: INCHIKEY QVZZPLDJERFENQ-NKTUOASPSA-N
CH$LINK: CAS 64763-82-2
CH$LINK: PUBCHEM CID:89254632
CH$LINK: CHEMSPIDER 52084768
CH$LINK: COMPTOX DTXSID40891833
AC$INSTRUMENT: Q-Exactive Orbitrap Thermo Scientific
AC$INSTRUMENT_TYPE: LC-ESI-ITFT
AC$MASS_SPECTROMETRY: MS_TYPE MS2
AC$MASS_SPECTROMETRY: ION_MODE POSITIVE
AC$MASS_SPECTROMETRY: IONIZATION ESI
AC$MASS_SPECTROMETRY: IONIZATION_VOLTAGE 3.9 kV
AC$MASS_SPECTROMETRY: FRAGMENTATION_MODE HCD
AC$MASS_SPECTROMETRY: COLLISION_ENERGY 20(NCE)
AC$MASS_SPECTROMETRY: RESOLUTION 17500
AC$CHROMATOGRAPHY: COLUMN_NAME Agilent RRHD Eclipse 50 x 2 mm, 1.8 uM
AC$CHROMATOGRAPHY: FLOW_GRADIENT 100:0 at 0 min, 100:0 at 0.5 min, 0:100 at 3.5 min, 0:100 at 5.5 min, 100:0 at 7 min
AC$CHROMATOGRAPHY: FLOW_RATE 0.3 mL min-1
AC$CHROMATOGRAPHY: RETENTION_TIME 4.96
AC$CHROMATOGRAPHY: NAPS_RTI 1933
AC$CHROMATOGRAPHY: SOLVENT A H2O 0.1% FA
AC$CHROMATOGRAPHY: SOLVENT B ACN 0.1% FA
MS$FOCUSED_ION: BASE_PEAK 210.1497
MS$FOCUSED_ION: PRECURSOR_M/Z 926.6419
MS$FOCUSED_ION: PRECURSOR_TYPE [M+NH4]+
MS$DATA_PROCESSING: DEPROFILE Proteowizard
MS$DATA_PROCESSING: RECALIBRATE based on Fragment ion formula determination
MS$DATA_PROCESSING: INTENSITY CUTOFF 0.05 Base Peak
PK$SPLASH: splash10-03di-0090100001-cf99407b2f4438131741
PK$ANNOTATION: m/z tentative_formula mass_error(ppm)
  200.1653 C11H22N1O2+ 3.92
  210.1497 C12H20N1O2+ 3.98
  228.1603 C12H22N1O3+ 3.83
  455.3132 C25H39N6O2+ 0.64
  473.3238 C25H41N6O3+ 0.7
  682.4661 C39H62N4O6+ -0.45
  700.477 C39H64N4O7+ 0.05
  782.5186 C44H70N4O8+ -0.3
  909.6187 C48H85N4O12+ 3.12
PK$NUM_PEAK: 9
PK$PEAK: m/z int. rel.int.
  200.1645 2285207.0 33
  210.1489 66232988.0 999
  228.1594 29894748.0 450
  455.3129 9254641.0 138
  473.3235 2595219.25 38
  682.4664 5938799.0 88
  700.477 3153378.5 46
  782.5188 2998222.25 44
  909.6159 11388938.0 170
//
