ACCESSION: MSBNK-AAFC-AC000066
RECORD_TITLE: Altersolanol A; LC-ESI-ITFT; MS2; CE: 10; R=17500; [M+H]+
DATE: 2017.07.07
AUTHORS: Justin B. Renaud, Mark W. Sumarah, Agriculture and Agri-Food Canada
LICENSE: CC BY-SA
COPYRIGHT: Copyright (C) 2017
PUBLICATION: Renaud, J. B.; Sumarah, M. W. Data Independent Acquisition-Digital Archiving Mass Spectrometry: Application to Single Kernel Mycotoxin Analysis of Fusarium Graminearum Infected Maize. Analytical and Bioanalytical Chemistry 2016, 408 (12), 3083–91. DOI:10.1007/s00216-016-9391-5
COMMENT: CONFIDENCE isolated standard
CH$NAME: Altersolanol A
CH$NAME: (1S,2R,3S,4R)-1,2,3,4,8-pentahydroxy-6-methoxy-3-methyl-2,4-dihydro-1H-anthracene-9,10-dione
CH$COMPOUND_CLASS: Natural Product; Fungal metabolite
CH$FORMULA: C16H16O8
CH$EXACT_MASS: 336.0845
CH$SMILES: C[C@]1([C@@H]([C@H](C2=C([C@H]1O)C(=O)C3=CC(=CC(=C3C2=O)O)OC)O)O)O
CH$IUPAC: InChI=1S/C16H16O8/c1-16(23)14(21)10-9(13(20)15(16)22)12(19)8-6(11(10)18)3-5(24-2)4-7(8)17/h3-4,13-15,17,20-23H,1-2H3/t13-,14+,15+,16-/m0/s1
CH$LINK: INCHIKEY VSMBLBOUQJNJIL-JJXSEGSLSA-N
CH$LINK: CAS 22268-16-2
CH$LINK: PUBCHEM CID:89644
CH$LINK: CHEMSPIDER 80909
CH$LINK: KNAPSACK C00002791
CH$LINK: COMPTOX DTXSID10891800
AC$INSTRUMENT: Q-Exactive Orbitrap Thermo Scientific
AC$INSTRUMENT_TYPE: LC-ESI-ITFT
AC$MASS_SPECTROMETRY: MS_TYPE MS2
AC$MASS_SPECTROMETRY: ION_MODE POSITIVE
AC$MASS_SPECTROMETRY: IONIZATION ESI
AC$MASS_SPECTROMETRY: IONIZATION_VOLTAGE 3.9 kV
AC$MASS_SPECTROMETRY: FRAGMENTATION_MODE HCD
AC$MASS_SPECTROMETRY: COLLISION_ENERGY 10(NCE)
AC$MASS_SPECTROMETRY: RESOLUTION 17500
AC$CHROMATOGRAPHY: COLUMN_NAME Agilent RRHD Eclipse 50 x 2 mm, 1.8 uM
AC$CHROMATOGRAPHY: FLOW_GRADIENT 100:0 at 0 min, 100:0 at 0.5 min, 0:100 at 3.5 min, 0:100 at 5.5 min, 100:0 at 7 min
AC$CHROMATOGRAPHY: FLOW_RATE 0.3 mL min-1
AC$CHROMATOGRAPHY: RETENTION_TIME 2.52
AC$CHROMATOGRAPHY: NAPS_RTI 605
AC$CHROMATOGRAPHY: SOLVENT A H2O 0.1% FA
AC$CHROMATOGRAPHY: SOLVENT B ACN 0.1% FA
MS$FOCUSED_ION: BASE_PEAK 301.0695
MS$FOCUSED_ION: PRECURSOR_M/Z 337.0912
MS$FOCUSED_ION: PRECURSOR_TYPE [M+H]+
MS$DATA_PROCESSING: DEPROFILE Proteowizard
MS$DATA_PROCESSING: RECALIBRATE based on Fragment ion formula determination
MS$DATA_PROCESSING: INTENSITY CUTOFF 0.05 Base Peak
PK$SPLASH: splash10-0uk9-0089000000-f1f77977bcd36e74fe16
PK$ANNOTATION: m/z tentative_formula mass_error(ppm)
  245.0797 C14H13O4+ -4.62
  257.08 C15H13O4+ -3.24
  259.0591 C14H11O5+ -3.82
  273.0746 C15H13O5+ -4.18
  291.0852 C15H15O6+ -3.79
  301.0695 C16H13O6+ -3.83
  319.08 C16H15O7+ -3.8
  337.0906 C16H17O8+ -3.49
PK$NUM_PEAK: 8
PK$PEAK: m/z int. rel.int.
  245.0808 149331.6875 68
  257.0808 121049.0234375 54
  259.0601 539341.6875 248
  273.0757 1519391.125 701
  291.0863 313705.5 144
  301.0707 2161871.5 999
  319.0812 389059.5625 178
  337.0918 194788.140625 89
//
