ACCESSION: MSBNK-AAFC-AC000688
RECORD_TITLE: Herqueichrysin; LC-ESI-ITFT; MS2; CE: 40; R=17500; [M+H]+
DATE: 2017.07.07
AUTHORS: Justin B. Renaud, Mark W. Sumarah, Agriculture and Agri-Food Canada
LICENSE: CC BY-SA
COPYRIGHT: Copyright (C) 2017
COMMENT: CONFIDENCE isolated standard
CH$NAME: Herqueichrysin
CH$COMPOUND_CLASS: Natural Product; Fungal metabolite
CH$FORMULA: C20H20O6
CH$EXACT_MASS: 356.12598
CH$SMILES: CC1C(C2=C(O1)C3=C4C(=C2O)C(=CC(=O)C4=C(C(=C3O)O)OC)C)(C)C
CH$IUPAC: InChI=1S/C20H20O6/c1-7-6-9(21)11-12-10(7)15(22)14-18(26-8(2)20(14,3)4)13(12)16(23)17(24)19(11)25-5/h6,8,22-24H,1-5H3
CH$LINK: INCHIKEY RFUGLBPILINWDW-UHFFFAOYSA-N
CH$LINK: CAS 35943-23-8
CH$LINK: PUBCHEM CID:304248
CH$LINK: CHEMSPIDER 269041
CH$LINK: KNAPSACK C00018835
AC$INSTRUMENT: Q-Exactive Orbitrap Thermo Scientific
AC$INSTRUMENT_TYPE: LC-ESI-ITFT
AC$MASS_SPECTROMETRY: MS_TYPE MS2
AC$MASS_SPECTROMETRY: ION_MODE POSITIVE
AC$MASS_SPECTROMETRY: IONIZATION ESI
AC$MASS_SPECTROMETRY: IONIZATION_VOLTAGE 3.9 kV
AC$MASS_SPECTROMETRY: FRAGMENTATION_MODE HCD
AC$MASS_SPECTROMETRY: COLLISION_ENERGY 40(NCE)
AC$MASS_SPECTROMETRY: RESOLUTION 17500
AC$CHROMATOGRAPHY: COLUMN_NAME Agilent RRHD Eclipse 50 x 2 mm, 1.8 uM
AC$CHROMATOGRAPHY: FLOW_GRADIENT 100:0 at 0 min, 100:0 at 0.5 min, 0:100 at 3.5 min, 0:100 at 5.5 min, 100:0 at 7 min
AC$CHROMATOGRAPHY: FLOW_RATE 0.3 mL min-1
AC$CHROMATOGRAPHY: RETENTION_TIME 4.35
AC$CHROMATOGRAPHY: NAPS_RTI 1612
AC$CHROMATOGRAPHY: SOLVENT A H2O 0.1% FA
AC$CHROMATOGRAPHY: SOLVENT B ACN 0.1% FA
MS$FOCUSED_ION: BASE_PEAK 327.0873
MS$FOCUSED_ION: PRECURSOR_M/Z 357.1327
MS$FOCUSED_ION: PRECURSOR_TYPE [M+H]+
MS$DATA_PROCESSING: DEPROFILE Proteowizard
MS$DATA_PROCESSING: RECALIBRATE based on Fragment ion formula determination
MS$DATA_PROCESSING: INTENSITY CUTOFF 0.05 Base Peak
PK$SPLASH: splash10-056r-0009000000-f121dc47ba9eb9b28d86
PK$ANNOTATION: m/z tentative_formula mass_error(ppm)
  286.0482 C15H10O6+ 3.59
  301.0716 C16H13O6+ 3.15
  313.0717 C17H13O6+ 3.35
  315.0872 C17H15O6+ 2.84
  327.0873 C18H15O6+ 3.05
  342.1108 C19H18O6+ 2.98
  357.1343 C20H21O6+ 2.91
PK$NUM_PEAK: 7
PK$PEAK: m/z int. rel.int.
  286.0472 1359706.125 32
  301.0707 9283846.0 230
  313.0707 4763265.5 117
  315.0863 3019336.5 74
  327.0863 40142940.0 999
  342.1098 9860930.0 244
  357.1333 38619360.0 961
//
