ACCESSION: MSBNK-AAFC-AC000619
RECORD_TITLE: Stachybocin C; LC-ESI-ITFT; MS2; CE: 20; R=17500; [M+H]+
DATE: 2017.07.07
AUTHORS: Justin B. Renaud, Mark W. Sumarah, Agriculture and Agri-Food Canada
LICENSE: CC BY-SA
COPYRIGHT: Copyright (C) 2017
PUBLICATION: Renaud, J. B.; Sumarah, M. W. Data Independent Acquisition-Digital Archiving Mass Spectrometry: Application to Single Kernel Mycotoxin Analysis of Fusarium Graminearum Infected Maize. Analytical and Bioanalytical Chemistry 2016, 408 (12), 3083–91. DOI:10.1007/s00216-016-9391-5
COMMENT: CONFIDENCE isolated standard
CH$NAME: Stachybocin C
CH$NAME: (2S)-2-[(3R,7R,8R,8aS)-3,4'-dihydroxy-4,4,7,8a-tetramethyl-6'-oxospiro[2,3,4a,5,6,7-hexahydro-1H-naphthalene-8,2'-3,8-dihydrofuro[2,3-e]isoindole]-7'-yl]-6-[(2R,3S,7R,8R,8aS)-2,3,4'-trihydroxy-4,4,7,8a-tetramethyl-6'-oxospiro[2,3,4a,5,6,7-hexahydro-1H-naphthalene-8,2'-3,8-dihydrofuro[2,3-e]isoindole]-7'-yl]hexanoic acid
CH$COMPOUND_CLASS: Natural Product; Fungal metabolite
CH$FORMULA: C52H70N2O11
CH$EXACT_MASS: 898.49797
CH$SMILES: C[C@@H]1CCC2[C@@]([C@@]13CC4=C(C=C5C(=C4O3)CN(C5=O)[C@@H](CCCCN6CC7=C8C(=C(C=C7C6=O)O)C[C@@]9(O8)[C@@H](CCC1[C@@]9(C[C@H]([C@H](C1(C)C)O)O)C)C)C(=O)O)O)(CC[C@H](C2(C)C)O)C
CH$IUPAC: InChI=1S/C52H70N2O11/c1-26-12-14-38-47(3,4)40(58)16-17-49(38,7)51(26)21-30-36(56)20-29-33(42(30)64-51)25-54(45(29)61)34(46(62)63)11-9-10-18-53-24-32-28(44(53)60)19-35(55)31-22-52(65-41(31)32)27(2)13-15-39-48(5,6)43(59)37(57)23-50(39,52)8/h19-20,26-27,34,37-40,43,55-59H,9-18,21-25H2,1-8H3,(H,62,63)/t26-,27-,34+,37-,38?,39?,40-,43-,49+,50+,51-,52-/m1/s1
CH$LINK: INCHIKEY GBUQOBUNFQDAQG-CRDDFVEESA-N
CH$LINK: PUBCHEM CID:10677176
CH$LINK: KNAPSACK C00016149
AC$INSTRUMENT: Q-Exactive Orbitrap Thermo Scientific
AC$INSTRUMENT_TYPE: LC-ESI-ITFT
AC$MASS_SPECTROMETRY: MS_TYPE MS2
AC$MASS_SPECTROMETRY: ION_MODE POSITIVE
AC$MASS_SPECTROMETRY: IONIZATION ESI
AC$MASS_SPECTROMETRY: IONIZATION_VOLTAGE 3.9 kV
AC$MASS_SPECTROMETRY: FRAGMENTATION_MODE HCD
AC$MASS_SPECTROMETRY: COLLISION_ENERGY 20(NCE)
AC$MASS_SPECTROMETRY: RESOLUTION 17500
AC$CHROMATOGRAPHY: COLUMN_NAME Agilent RRHD Eclipse 50 x 2 mm, 1.8 uM
AC$CHROMATOGRAPHY: FLOW_GRADIENT 100:0 at 0 min, 100:0 at 0.5 min, 0:100 at 3.5 min, 0:100 at 5.5 min, 100:0 at 7 min
AC$CHROMATOGRAPHY: FLOW_RATE 0.3 mL min-1
AC$CHROMATOGRAPHY: RETENTION_TIME 4.07
AC$CHROMATOGRAPHY: NAPS_RTI 1456
AC$CHROMATOGRAPHY: SOLVENT A H2O 0.1% FA
AC$CHROMATOGRAPHY: SOLVENT B ACN 0.1% FA
MS$FOCUSED_ION: BASE_PEAK 899.4998
MS$FOCUSED_ION: PRECURSOR_M/Z 899.5047
MS$FOCUSED_ION: PRECURSOR_TYPE [M+H]+
MS$DATA_PROCESSING: DEPROFILE Proteowizard
MS$DATA_PROCESSING: RECALIBRATE based on Fragment ion formula determination
MS$DATA_PROCESSING: INTENSITY CUTOFF 0.05 Base Peak
PK$SPLASH: splash10-000t-0000000090-9af9e85d98fec0ae0c26
PK$ANNOTATION: m/z tentative_formula mass_error(ppm)
  817.4744 C48H67N1O10+ -1.92
  835.4848 C48H69N1O11+ -2.07
  853.4955 C51H69N2O9+ -5.01
  863.4799 C52H67N2O9+ -4.89
  881.4895 C52H69N2O10+ -5.89
  899.4998 C52H71N2O11+ -6.06
PK$NUM_PEAK: 7
PK$PEAK: m/z int. rel.int.
  817.476 5162611.0 186
  835.4865 5703385.0 206
  853.4998 4449640.0 160
  863.4841 11545064.0 418
  881.4947 22826234.0 828
  882.4921 1146970.625 40
  899.5053 27507566.0 999
//
