ACCESSION: MSBNK-AAFC-AC000673
RECORD_TITLE: Scleroderolide; LC-ESI-ITFT; MS2; CE: 30; R=17500; [M+H]+
DATE: 2017.07.07
AUTHORS: Derek Holzscherer, Jacob Walsh, Justin B. Renaud, Mark W. Sumarah, Agriculture and Agri-Food Canada
LICENSE: CC BY-SA
COPYRIGHT: Copyright (C) 2017
COMMENT: CONFIDENCE isolated standard
CH$NAME: Scleroderolide
CH$NAME: furo[2',3':5,6]napho[1,8-BC]pyran-5,6-dione,8,9-dihydro-3,7-dihydroxy-1,8,8,9-tetramethyl-,(9S)-
CH$COMPOUND_CLASS: Natural Product; Fungal metabolite
CH$FORMULA: C18H16O6
CH$EXACT_MASS: 328.09468
CH$SMILES: C[C@H]1C(C2=C(O1)C3=C4C(=C2O)C(=O)C(=O)OC4=C(C=C3C)O)(C)C
CH$IUPAC: InChI=1S/C18H16O6/c1-6-5-8(19)15-10-9(6)16-12(18(3,4)7(2)23-16)13(20)11(10)14(21)17(22)24-15/h5,7,19-20H,1-4H3/t7-/m0/s1
CH$LINK: INCHIKEY MYDJDVOVZVSVIE-ZETCQYMHSA-N
CH$LINK: CAS 108354-17-2
CH$LINK: PUBCHEM CID:13786694
CH$LINK: COMPTOX DTXSID50893262
AC$INSTRUMENT: Q-Exactive Orbitrap Thermo Scientific
AC$INSTRUMENT_TYPE: LC-ESI-ITFT
AC$MASS_SPECTROMETRY: MS_TYPE MS2
AC$MASS_SPECTROMETRY: ION_MODE POSITIVE
AC$MASS_SPECTROMETRY: IONIZATION ESI
AC$MASS_SPECTROMETRY: IONIZATION_VOLTAGE 3.9 kV
AC$MASS_SPECTROMETRY: FRAGMENTATION_MODE HCD
AC$MASS_SPECTROMETRY: COLLISION_ENERGY 30(NCE)
AC$MASS_SPECTROMETRY: RESOLUTION 17500
AC$CHROMATOGRAPHY: COLUMN_NAME Agilent RRHD Eclipse 50 x 2 mm, 1.8 uM
AC$CHROMATOGRAPHY: FLOW_GRADIENT 100:0 at 0 min, 100:0 at 0.5 min, 0:100 at 3.5 min, 0:100 at 5.5 min, 100:0 at 7 min
AC$CHROMATOGRAPHY: FLOW_RATE 0.3 mL min-1
AC$CHROMATOGRAPHY: RETENTION_TIME 4.54
AC$CHROMATOGRAPHY: NAPS_RTI 1710
AC$CHROMATOGRAPHY: SOLVENT A H2O 0.1% FA
AC$CHROMATOGRAPHY: SOLVENT B ACN 0.1% FA
MS$FOCUSED_ION: BASE_PEAK 329.1015
MS$FOCUSED_ION: PRECURSOR_M/Z 329.1014
MS$FOCUSED_ION: PRECURSOR_TYPE [M+H]+
MS$DATA_PROCESSING: DEPROFILE Proteowizard
MS$DATA_PROCESSING: RECALIBRATE based on Fragment ion formula determination
MS$DATA_PROCESSING: INTENSITY CUTOFF 0.05 Base Peak
PK$SPLASH: splash10-004i-0029000000-697b0c9ee7ed302c7acc
PK$ANNOTATION: m/z tentative_formula mass_error(ppm)
  273.039 C14H9O6+ -1.27
  287.0547 C15H11O6+ -1.05
  311.0912 C18H15O5+ -0.62
  329.1015 C18H17O6+ -1.39
PK$NUM_PEAK: 4
PK$PEAK: m/z int. rel.int.
  273.0393 2482477.0 163
  287.055 1128285.625 73
  311.0914 764561.3125 49
  329.102 15074035.0 999
//
