ACCESSION: MSBNK-AAFC-AC000462
RECORD_TITLE: Enniatin B1; LC-ESI-ITFT; MS2; CE: 10; R=17500; [M+H]+
DATE: 2017.07.07
AUTHORS: Justin B. Renaud, Mark W. Sumarah, Agriculture and Agri-Food Canada
LICENSE: CC BY-SA
COPYRIGHT: Copyright (C) 2017
PUBLICATION: Renaud, J. B.; Sumarah, M. W. Data Independent Acquisition-Digital Archiving Mass Spectrometry: Application to Single Kernel Mycotoxin Analysis of Fusarium Graminearum Infected Maize. Analytical and Bioanalytical Chemistry 2016, 408 (12), 3083–91. DOI:10.1007/s00216-016-9391-5
COMMENT: CONFIDENCE Reference Standard (Level 1)
CH$NAME: Enniatin B1
CH$COMPOUND_CLASS: Natural Product; Fungal metabolite
CH$FORMULA: C34H59N3O9
CH$EXACT_MASS: 653.42513
CH$SMILES: CC[C@H](C)[C@H]1C(=O)O[C@@H](C(=O)N([C@H](C(=O)O[C@@H](C(=O)N([C@H](C(=O)O[C@@H](C(=O)N1C)C(C)C)C(C)C)C)C(C)C)C(C)C)C)C(C)C
CH$IUPAC: InChI=1S/C34H59N3O9/c1-16-22(12)25-34(43)46-27(20(8)9)30(39)36(14)23(17(2)3)32(41)44-26(19(6)7)29(38)35(13)24(18(4)5)33(42)45-28(21(10)11)31(40)37(25)15/h17-28H,16H2,1-15H3/t22-,23-,24-,25-,26+,27+,28+/m0/s1
CH$LINK: INCHIKEY UQCSETXJXJTMKO-UMURLBKASA-N
CH$LINK: CAS 19914-20-6
CH$LINK: PUBCHEM CID:11262300
CH$LINK: CHEMSPIDER 9437321
CH$LINK: KNAPSACK C00018906
CH$LINK: COMPTOX DTXSID70891861
AC$INSTRUMENT: Q-Exactive Orbitrap Thermo Scientific
AC$INSTRUMENT_TYPE: LC-ESI-ITFT
AC$MASS_SPECTROMETRY: MS_TYPE MS2
AC$MASS_SPECTROMETRY: ION_MODE POSITIVE
AC$MASS_SPECTROMETRY: IONIZATION ESI
AC$MASS_SPECTROMETRY: IONIZATION_VOLTAGE 3.9 kV
AC$MASS_SPECTROMETRY: FRAGMENTATION_MODE HCD
AC$MASS_SPECTROMETRY: COLLISION_ENERGY 10(NCE)
AC$MASS_SPECTROMETRY: RESOLUTION 17500
AC$CHROMATOGRAPHY: COLUMN_NAME Agilent RRHD Eclipse 50 x 2 mm, 1.8 uM
AC$CHROMATOGRAPHY: FLOW_GRADIENT 100:0 at 0 min, 100:0 at 0.5 min, 0:100 at 3.5 min, 0:100 at 5.5 min, 100:0 at 7 min
AC$CHROMATOGRAPHY: FLOW_RATE 0.3 mL min-1
AC$CHROMATOGRAPHY: RETENTION_TIME 5.18
AC$CHROMATOGRAPHY: NAPS_RTI 2021
AC$CHROMATOGRAPHY: SOLVENT A H2O 0.1% FA
AC$CHROMATOGRAPHY: SOLVENT B ACN 0.1% FA
MS$FOCUSED_ION: BASE_PEAK 654.4282
MS$FOCUSED_ION: PRECURSOR_M/Z 654.4319
MS$FOCUSED_ION: PRECURSOR_TYPE [M+H]+
MS$DATA_PROCESSING: DEPROFILE Proteowizard
MS$DATA_PROCESSING: RECALIBRATE based on Fragment ion formula determination
MS$DATA_PROCESSING: INTENSITY CUTOFF 0.05 Base Peak
PK$SPLASH: splash10-0udi-0120009000-cdfc12249f35cd4aa008
PK$ANNOTATION: m/z tentative_formula mass_error(ppm)
  196.1321 C11H18N1O2+ -5.67
  210.1476 C12H20N1O2+ -6.01
  214.1425 C11H20N1O3+ -5.95
  228.1581 C12H22N1O3+ -5.81
  654.4282 C34H60N3O9+ -6.44
PK$NUM_PEAK: 5
PK$PEAK: m/z int. rel.int.
  196.1332 44410768.0 173
  210.1489 36059236.0 141
  214.1438 16960994.0 65
  228.1594 8529578.0 32
  654.4324 253789024.0 999
//
