ACCESSION: MSBNK-AAFC-AC000025
RECORD_TITLE: Aflatoxin B1; LC-ESI-ITFT; MS2; CE: 50; R=17500; [M+Na]+
DATE: 2017.07.07
AUTHORS: Justin B. Renaud, Mark W. Sumarah, Agriculture and Agri-Food Canada
LICENSE: CC BY-SA
COPYRIGHT: Copyright (C) 2017
PUBLICATION: Renaud, J. B.; Sumarah, M. W. Data Independent Acquisition-Digital Archiving Mass Spectrometry: Application to Single Kernel Mycotoxin Analysis of Fusarium Graminearum Infected Maize. Analytical and Bioanalytical Chemistry 2016, 408 (12), 3083–91. DOI:10.1007/s00216-016-9391-5
COMMENT: CONFIDENCE Reference Standard (Level 1)
CH$NAME: Aflatoxin B1
CH$NAME: (6aR,9aS)-4-Methoxy-2,3,6a,9a-tetrahydrocyclopenta[c]furo[3',2':4,5]furo[2,3-h]chromene-1,11-dione
CH$COMPOUND_CLASS: Natural Product; Fungal metabolite
CH$FORMULA: C17H12O6
CH$EXACT_MASS: 312.06337
CH$SMILES: COC1=C2C3=C(C(=O)CC3)C(=O)OC2=C4[C@@H]5C=CO[C@@H]5OC4=C1
CH$IUPAC: InChI=1S/C17H12O6/c1-20-10-6-11-14(8-4-5-21-17(8)22-11)15-13(10)7-2-3-9(18)12(7)16(19)23-15/h4-6,8,17H,2-3H2,1H3/t8-,17+/m0/s1
CH$LINK: INCHIKEY OQIQSTLJSLGHID-WNWIJWBNSA-N
CH$LINK: CAS 1162-65-8
CH$LINK: PUBCHEM CID:186907
CH$LINK: CHEMSPIDER 162470
CH$LINK: KNAPSACK C00000546
CH$LINK: COMPTOX DTXSID9020035
AC$INSTRUMENT: Q-Exactive Orbitrap Thermo Scientific
AC$INSTRUMENT_TYPE: LC-ESI-ITFT
AC$MASS_SPECTROMETRY: MS_TYPE MS2
AC$MASS_SPECTROMETRY: ION_MODE POSITIVE
AC$MASS_SPECTROMETRY: IONIZATION ESI
AC$MASS_SPECTROMETRY: IONIZATION_VOLTAGE 3.9 kV
AC$MASS_SPECTROMETRY: FRAGMENTATION_MODE HCD
AC$MASS_SPECTROMETRY: COLLISION_ENERGY 50(NCE)
AC$MASS_SPECTROMETRY: RESOLUTION 17500
AC$CHROMATOGRAPHY: COLUMN_NAME Agilent RRHD Eclipse 50 x 2 mm, 1.8 uM
AC$CHROMATOGRAPHY: FLOW_GRADIENT 100:0 at 0 min, 100:0 at 0.5 min, 0:100 at 3.5 min, 0:100 at 5.5 min, 100:0 at 7 min
AC$CHROMATOGRAPHY: FLOW_RATE 0.3 mL min-1
AC$CHROMATOGRAPHY: RETENTION_TIME 3.1
AC$CHROMATOGRAPHY: NAPS_RTI 910
AC$CHROMATOGRAPHY: SOLVENT A H2O 0.1% FA
AC$CHROMATOGRAPHY: SOLVENT B ACN 0.1% FA
MS$FOCUSED_ION: BASE_PEAK 291.0256
MS$FOCUSED_ION: PRECURSOR_M/Z 335.052
MS$FOCUSED_ION: PRECURSOR_TYPE [M+Na]+
MS$DATA_PROCESSING: DEPROFILE Proteowizard
MS$DATA_PROCESSING: RECALIBRATE based on Fragment ion formula determination
MS$DATA_PROCESSING: INTENSITY CUTOFF 0.05 Base Peak
PK$SPLASH: splash10-000f-0069000000-3548a196c3bc1aa26ea7
PK$ANNOTATION: m/z tentative_formula mass_error(ppm)
  291.0256 C15H8O5Na1+ -2.69
  306.0503 C16H11O5Na1+ 1.44
  307.0578 C16H12O5Na1+ 0.37
  320.0284 C16H9O6Na1+ -2.24
  335.0517 C17H12O6Na1+ -2.67
PK$NUM_PEAK: 6
PK$PEAK: m/z int. rel.int.
  129.6869 4765.2744140625 34
  291.0264 135577.71875 999
  306.0499 30576.654296875 224
  307.0577 6400.09033203125 46
  320.0291 20568.98828125 150
  335.0526 135133.390625 995
//
