ACCESSION: MSBNK-AAFC-AC000155
RECORD_TITLE: HT-2 Toxin; LC-ESI-ITFT; MS2; CE: 10; R=17500; [M+Na]+
DATE: 2017.07.07
AUTHORS: Justin B. Renaud, Mark W. Sumarah, Agriculture and Agri-Food Canada
LICENSE: CC BY-SA
COPYRIGHT: Copyright (C) 2017
PUBLICATION: Renaud, J. B.; Sumarah, M. W. Data Independent Acquisition-Digital Archiving Mass Spectrometry: Application to Single Kernel Mycotoxin Analysis of Fusarium Graminearum Infected Maize. Analytical and Bioanalytical Chemistry 2016, 408 (12), 3083–91. DOI:10.1007/s00216-016-9391-5
COMMENT: CONFIDENCE Reference Standard (Level 1)
CH$NAME: HT-2 Toxin
CH$NAME: 12,13-Epoxytrichothec-9-ene-3-alpha,4-beta,8-alpha,15-tetrol 15-acetate 8-isovalerate
CH$COMPOUND_CLASS: Natural Product; Fungal metabolite
CH$FORMULA: C22H32O8
CH$EXACT_MASS: 424.20971
CH$SMILES: CC1=C[C@@H]2[C@](C[C@@H]1OC(=O)CC(C)C)([C@]3([C@@H]([C@H]([C@H]([C@@]34CO4)O2)O)O)C)COC(=O)C
CH$IUPAC: InChI=1S/C22H32O8/c1-11(2)6-16(24)29-14-8-21(9-27-13(4)23)15(7-12(14)3)30-19-17(25)18(26)20(21,5)22(19)10-28-22/h7,11,14-15,17-19,25-26H,6,8-10H2,1-5H3/t14-,15+,17+,18+,19+,20+,21+,22-/m0/s1
CH$LINK: INCHIKEY PNKLMTPXERFKEN-MLXHEQMXSA-N
CH$LINK: CAS 26934-87-2
CH$LINK: PUBCHEM CID:10093830
CH$LINK: CHEMSPIDER 8269366
CH$LINK: KNAPSACK C00012651
CH$LINK: COMPTOX DTXSID60891810
AC$INSTRUMENT: Q-Exactive Orbitrap Thermo Scientific
AC$INSTRUMENT_TYPE: LC-ESI-ITFT
AC$MASS_SPECTROMETRY: MS_TYPE MS2
AC$MASS_SPECTROMETRY: ION_MODE POSITIVE
AC$MASS_SPECTROMETRY: IONIZATION ESI
AC$MASS_SPECTROMETRY: IONIZATION_VOLTAGE 3.9 kV
AC$MASS_SPECTROMETRY: FRAGMENTATION_MODE HCD
AC$MASS_SPECTROMETRY: COLLISION_ENERGY 10(NCE)
AC$MASS_SPECTROMETRY: RESOLUTION 17500
AC$CHROMATOGRAPHY: COLUMN_NAME Agilent RRHD Eclipse 50 x 2 mm, 1.8 uM
AC$CHROMATOGRAPHY: FLOW_GRADIENT 100:0 at 0 min, 100:0 at 0.5 min, 0:100 at 3.5 min, 0:100 at 5.5 min, 100:0 at 7 min
AC$CHROMATOGRAPHY: FLOW_RATE 0.3 mL min-1
AC$CHROMATOGRAPHY: RETENTION_TIME 3.14
AC$CHROMATOGRAPHY: NAPS_RTI 931
AC$CHROMATOGRAPHY: SOLVENT A H2O 0.1% FA
AC$CHROMATOGRAPHY: SOLVENT B ACN 0.1% FA
MS$FOCUSED_ION: BASE_PEAK 447.1971
MS$FOCUSED_ION: PRECURSOR_M/Z 447.1984
MS$FOCUSED_ION: PRECURSOR_TYPE [M+Na]+
MS$DATA_PROCESSING: DEPROFILE Proteowizard
MS$DATA_PROCESSING: RECALIBRATE based on Fragment ion formula determination
MS$DATA_PROCESSING: INTENSITY CUTOFF 0.05 Base Peak
PK$SPLASH: splash10-0002-0000900000-49100e718410f54b50ca
PK$ANNOTATION: m/z tentative_formula mass_error(ppm)
  345.1295 C17H22O6Na1+ -3.93
  447.1971 C22H32O8Na1+ -4.11
PK$NUM_PEAK: 2
PK$PEAK: m/z int. rel.int.
  345.1309 191259.21875 59
  447.1989 3184261.25 999
//
