ACCESSION: MSBNK-AAFC-AC000637
RECORD_TITLE: Tenuazonic acid; LC-ESI-ITFT; MS2; CE: 10; R=17500; [M+H]+
DATE: 2017.07.07
AUTHORS: Justin B. Renaud, Mark W. Sumarah, Agriculture and Agri-Food Canada
LICENSE: CC BY-SA
COPYRIGHT: Copyright (C) 2017
PUBLICATION: Kelman, M. J.; Renaud, J. B.; Seifert, K. A.; Mack, J.; Sivagnanam, K.; Yeung, K. K.-C.; Sumarah, M. W. Identification of Six newAlternariasulfoconjugated Metabolites by High-Resolution Neutral Loss Filtering. Rapid Communications in Mass Spectrometry 2015, 29 (19), 1805–10. DOI:10.1002/rcm.7286
COMMENT: CONFIDENCE Reference Standard (Level 1)
CH$NAME: Tenuazonic acid
CH$NAME: (2S)-4-acetyl-2-[(2S)-butan-2-yl]-3-hydroxy-1,2-dihydropyrrol-5-one
CH$COMPOUND_CLASS: Natural Product; Fungal metabolite
CH$FORMULA: C10H15NO3
CH$EXACT_MASS: 197.10519
CH$SMILES: CC[C@H](C)[C@H]1C(=C(C(=O)N1)C(=O)C)O
CH$IUPAC: InChI=1S/C10H15NO3/c1-4-5(2)8-9(13)7(6(3)12)10(14)11-8/h5,8,13H,4H2,1-3H3,(H,11,14)/t5-,8-/m0/s1
CH$LINK: INCHIKEY CEIZFXOZIQNICU-XNCJUZBTSA-N
CH$LINK: CAS 610-88-8
CH$LINK: PUBCHEM CID:54683011
CH$LINK: CHEMSPIDER 19953674
CH$LINK: KNAPSACK  C00001554
AC$INSTRUMENT: Q-Exactive Orbitrap Thermo Scientific
AC$INSTRUMENT_TYPE: LC-ESI-ITFT
AC$MASS_SPECTROMETRY: MS_TYPE MS2
AC$MASS_SPECTROMETRY: ION_MODE POSITIVE
AC$MASS_SPECTROMETRY: IONIZATION ESI
AC$MASS_SPECTROMETRY: IONIZATION_VOLTAGE 3.9 kV
AC$MASS_SPECTROMETRY: FRAGMENTATION_MODE HCD
AC$MASS_SPECTROMETRY: COLLISION_ENERGY 10(NCE)
AC$MASS_SPECTROMETRY: RESOLUTION 17500
AC$CHROMATOGRAPHY: COLUMN_NAME Agilent RRHD Eclipse 50 x 2 mm, 1.8 uM
AC$CHROMATOGRAPHY: FLOW_GRADIENT 100:0 at 0 min, 100:0 at 0.5 min, 0:100 at 3.5 min, 0:100 at 5.5 min, 100:0 at 7 min
AC$CHROMATOGRAPHY: FLOW_RATE 0.3 mL min-1
AC$CHROMATOGRAPHY: RETENTION_TIME 3.16
AC$CHROMATOGRAPHY: NAPS_RTI 922
AC$CHROMATOGRAPHY: SOLVENT A H2O 0.1% FA
AC$CHROMATOGRAPHY: SOLVENT B ACN 0.1% FA
MS$FOCUSED_ION: BASE_PEAK 198.1136
MS$FOCUSED_ION: PRECURSOR_M/Z 198.1119
MS$FOCUSED_ION: PRECURSOR_TYPE [M+H]+
MS$DATA_PROCESSING: DEPROFILE Proteowizard
MS$DATA_PROCESSING: RECALIBRATE based on Fragment ion formula determination
MS$DATA_PROCESSING: INTENSITY CUTOFF 0.05 Base Peak
PK$SPLASH: splash10-01pk-2900000000-facbdb130808a7436797
PK$ANNOTATION: m/z tentative_formula mass_error(ppm)
  83.0863 C6H11+ 9.15
  97.102 C7H13+ 8.32
  100.0765 C5H10N1O1+ 8.05
  125.0965 C8H13O1+ 3.18
  128.1074 C7H14N1O1+ 3.14
  198.1136 C10H16N1O3+ 5.7
PK$NUM_PEAK: 9
PK$PEAK: m/z int. rel.int.
  83.0855 21923.091796875 83
  97.1012 15117.91796875 57
  100.0757 11297.470703125 42
  125.0961 8456.6953125 31
  128.107 8479.767578125 31
  139.1488 8701.396484375 32
  163.1487 38339.63671875 146
  181.1596 25494.794921875 97
  198.1125 43680.046875 167
//
