ACCESSION: MSBNK-RIKEN_NPDepo-NGA02622
RECORD_TITLE: 7-Hydroxy-4-methyl-2H-1-benzopyran-2-one, 9CI, O-beta-D-Glucopyranoside; LC-ESI-QQQ; MS2; Frag=135.0V CID@10.0; [M+H]+
DATE: 2018.04.04
AUTHORS: Nogawa T, Okano A, CSRS, RIKEN
LICENSE: CC BY
COMMENT: Origin: Plant, Coumarins
CH$NAME: 7-Hydroxy-4-methyl-2H-1-benzopyran-2-one, 9CI, O-beta-D-Glucopyranoside
CH$COMPOUND_CLASS: Benzopyranoids
CH$FORMULA: C16H18O8
CH$EXACT_MASS: 338.3171
CH$SMILES: Cc1cc(=O)oc2cc(O[C@@H]3O[C@H](CO)[C@@H](O)[C@H](O)[C@H]3O)ccc12
CH$IUPAC: InChI=1S/C16H18O8/c1-7-4-12(18)23-10-5-8(2-3-9(7)10)22-16-15(21)14(20)13(19)11(6-17)24-16/h2-5,11,13-17,19-21H,6H2,1H3/t11-,13-,14+,15-,16-/m1/s1
CH$LINK: INCHIKEY YUDPTGPSBJVHCN-YMILTQATSA-N
CH$LINK: PUBCHEM CID:2733779
AC$INSTRUMENT: Agilent 6410 Triple Quadrupole LC/MS system
AC$INSTRUMENT_TYPE: LC-ESI-QQQ
AC$MASS_SPECTROMETRY: MS_TYPE MS2
AC$MASS_SPECTROMETRY: ION_MODE POSITIVE
MS$FOCUSED_ION: PRECURSOR_TYPE [M+H]+
PK$SPLASH: splash10-004i-0900000000-d13ea8d234e2f7c6c5d1
PK$NUM_PEAK: 16
PK$PEAK: m/z int. rel.int.
  176.2 0.28 0
  176.3 1.68 1
  176.4 5.28 5
  176.5 12.12 12
  176.6 22.93 22
  176.7 38.13 38
  176.8 57.15 57
  176.9 76.99 76
  177.0 92.61 92
  177.1 100.0 99
  177.2 97.35 97
  177.3 83.51 83
  177.4 59.0 58
  177.5 30.16 30
  177.6 7.48 7
  177.7 0.01 0
//
