ACCESSION: MSBNK-RIKEN_NPDepo-NGA03853
RECORD_TITLE: Deltaline; LC-ESI-QQQ; MS2; Frag=135.0V CID@5.0; [M+HCOO]-
DATE: 2018.04.04
AUTHORS: Nogawa T, Okano A, CSRS, RIKEN
LICENSE: CC BY
COMMENT: Origin: Plant
COMMENT: SubCategory_DNP: Terpenoid alkaloids, Diterpene alkaloid, Delphinium alkaloid
CH$NAME: Deltaline
CH$COMPOUND_CLASS: Alkaloids
CH$FORMULA: C27H41NO8
CH$EXACT_MASS: 507.6297
CH$SMILES: CCN1C[C@]2(C)CCC(OC)C34C2[C@H](OC(C)=O)C2(OCO[C@@]25C[C@H](OC)[C@H]2C[C@]3(O)C5[C@H]2OC)[C@@H]14
CH$IUPAC: InChI=1S/C27H41NO8/c1-7-28-12-23(3)9-8-17(32-5)26-20(23)21(36-14(2)29)27(22(26)28)25(34-13-35-27)11-16(31-4)15-10-24(26,30)19(25)18(15)33-6/h15-22,30H,7-13H2,1-6H3/t15-,16+,17?,18+,19?,20?,21+,22+,23+,24+,25-,26?,27?/m1/s1
CH$LINK: CAS 6836-11-9
CH$LINK: CHEMSPIDER 145078 390331 4475551 23219130
CH$LINK: INCHIKEY DTTPWCNKTMQMTE-ZRAURUGBSA-N
AC$INSTRUMENT: Agilent 6410 Triple Quadrupole LC/MS system
AC$INSTRUMENT_TYPE: LC-ESI-QQQ
AC$MASS_SPECTROMETRY: MS_TYPE MS2
AC$MASS_SPECTROMETRY: ION_MODE NEGATIVE
MS$FOCUSED_ION: PRECURSOR_TYPE [M+HCOO]-
PK$SPLASH: splash10-0udi-4888890000-ea5c1d7a9a6ec5817e05
PK$NUM_PEAK: 3802
PK$PEAK: m/z int. rel.int.
  50.4 8.65 8
  50.5 12.63 12
  50.6 15.07 15
  50.7 13.82 13
  50.8 9.99 9
  51.0 7.68 7
  51.1 11.88 11
  51.2 16.18 16
  51.3 16.86 16
  51.4 13.22 13
  51.7 8.31 8
  51.8 13.06 13
  51.9 16.54 16
  52.0 15.94 15
  52.1 11.89 11
  52.9 9.04 9
  53.0 12.4 12
  53.1 15.71 15
  53.2 15.79 15
  53.3 12.16 12
  53.6 7.79 7
  53.7 12.01 11
  53.8 14.5 14
  53.9 13.39 13
  54.0 9.88 9
  54.2 7.52 7
  54.3 11.24 11
  54.4 15.47 15
  54.5 16.75 16
  54.6 13.98 13
  54.7 9.49 9
  54.9 8.29 8
  55.0 11.93 11
  55.1 14.57 14
  55.2 13.94 13
  55.3 10.84 10
  55.5 8.37 8
  55.6 11.62 11
  55.7 15.19 15
  55.8 15.51 15
  55.9 11.78 11
  56.8 9.47 9
  56.9 14.43 14
  57.0 17.89 17
  57.1 16.32 16
  57.2 10.42 10
  57.4 3.69 3
  57.5 8.01 8
  57.6 13.78 13
  57.7 16.07 16
  57.8 13.42 13
  58.1 9.59 9
  58.2 14.19 14
  58.3 16.7 16
  58.4 15.16 15
  58.5 11.17 11
  58.7 7.24 7
  58.8 9.87 9
  58.9 13.67 13
  59.0 15.52 15
  59.1 14.01 13
  60.0 7.04 7
  60.1 12.57 12
  60.2 17.84 17
  60.3 17.68 17
  60.4 12.14 12
  60.6 5.29 5
  60.7 9.43 9
  60.8 14.71 14
  60.9 16.52 16
  61.0 13.62 13
  61.2 7.95 7
  61.3 11.6 11
  61.4 16.94 16
  61.5 18.79 18
  61.6 15.16 15
  61.7 8.96 8
  61.9 5.82 5
  62.0 9.97 9
  62.1 13.75 13
  62.2 14.43 14
  62.3 12.16 12
  62.5 8.44 8
  62.6 10.84 10
  62.7 14.78 14
  62.8 16.78 16
  62.9 14.63 14
  63.2 8.05 8
  63.3 13.07 13
  63.4 17.08 17
  63.5 16.3 16
  63.6 11.33 11
  63.8 5.38 5
  63.9 8.71 8
  64.0 13.57 13
  64.1 16.14 16
  64.2 14.58 14
  64.3 10.5 10
  64.5 8.79 8
  64.6 12.57 12
  64.7 14.88 14
  64.8 13.17 13
  65.1 7.64 7
  65.2 11.52 11
  65.3 14.98 14
  65.4 15.1 15
  65.5 11.38 11
  66.4 10.15 10
  66.5 14.94 14
  66.6 17.69 17
  66.7 16.11 16
  66.8 11.61 11
  67.0 7.03 7
  67.1 9.81 9
  67.2 13.34 13
  67.3 14.09 14
  67.4 10.85 10
  67.7 6.46 6
  67.8 11.98 11
  67.9 15.74 15
  68.0 14.69 14
  68.1 10.2 10
  68.3 7.31 7
  68.4 11.64 11
  68.5 15.63 15
  68.6 15.58 15
  68.7 11.64 11
  68.9 7.4 7
  69.0 10.84 10
  69.1 14.87 14
  69.2 16.18 16
  69.3 13.55 13
  69.4 8.8 8
  69.6 6.32 6
  69.7 10.25 10
  69.8 13.85 13
  69.9 14.13 14
  70.0 11.13 11
  70.2 7.48 7
  70.3 10.78 10
  70.4 14.95 14
  70.5 16.36 16
  70.6 14.13 14
  70.9 9.97 9
  71.0 12.69 12
  71.1 14.11 14
  71.2 12.51 12
  71.3 8.8 8
  71.5 5.72 5
  71.6 8.96 8
  71.7 12.81 12
  71.8 14.09 14
  71.9 12.25 12
  72.8 8.11 8
  72.9 11.0 10
  73.0 13.17 13
  73.1 12.57 12
  73.2 9.52 9
  73.4 6.76 6
  73.5 10.57 10
  73.6 15.39 15
  73.7 17.15 17
  73.8 14.18 14
  73.9 9.11 9
  74.1 8.04 8
  74.2 12.09 12
  74.3 14.5 14
  74.4 13.07 13
  74.7 9.0 8
  74.8 12.95 12
  74.9 15.32 15
  75.0 13.57 13
  75.1 9.08 9
  75.3 6.7 6
  75.4 11.16 11
  75.5 15.78 15
  75.6 17.11 17
  75.7 14.25 14
  75.8 9.59 9
  76.0 8.52 8
  76.1 12.06 12
  76.2 13.82 13
  76.3 12.13 12
  76.6 9.16 9
  76.7 12.82 12
  76.8 15.74 15
  76.9 15.86 15
  77.0 13.19 13
  77.3 9.19 9
  77.4 12.33 12
  77.5 14.58 14
  77.6 13.45 13
  77.7 9.27 9
  77.9 6.11 6
  78.0 10.33 10
  78.1 14.49 14
  78.2 14.62 14
  78.3 10.29 10
  78.5 3.57 3
  78.6 7.3 7
  78.7 13.19 13
  78.8 16.39 16
  78.9 14.47 14
  79.0 9.45 9
  79.2 6.62 6
  79.3 10.94 10
  79.4 14.62 14
  79.5 14.06 14
  79.6 9.8 9
  79.8 6.68 6
  79.9 11.33 11
  80.0 15.86 15
  80.1 16.11 16
  80.2 11.8 11
  80.4 6.48 6
  80.5 10.98 10
  80.6 16.58 16
  80.7 18.57 18
  80.8 15.76 15
  80.9 10.74 10
  81.1 7.71 7
  81.2 10.86 10
  81.3 13.35 13
  81.4 12.22 12
  81.5 7.96 7
  81.7 5.37 5
  81.8 10.29 10
  81.9 15.74 15
  82.0 17.99 17
  82.1 15.79 15
  82.2 11.0 10
  82.4 8.6 8
  82.5 13.75 13
  82.6 18.03 18
  82.7 16.86 16
  82.8 11.0 10
  83.0 5.43 5
  83.1 9.91 9
  83.2 14.96 14
  83.3 16.27 16
  83.4 12.97 12
  83.7 8.59 8
  83.8 13.5 13
  83.9 16.54 16
  84.0 15.04 15
  84.1 10.13 10
  84.3 6.72 6
  84.4 11.34 11
  84.5 15.5 15
  84.6 15.26 15
  84.7 11.01 10
  84.9 6.02 6
  85.0 9.69 9
  85.1 14.78 14
  85.2 17.13 17
  85.3 14.94 14
  85.4 10.28 10
  85.6 7.5 7
  85.7 11.37 11
  85.8 15.4 15
  85.9 16.12 16
  86.0 12.74 12
  86.9 8.39 8
  87.0 12.08 12
  87.1 14.66 14
  87.2 13.31 13
  87.3 8.84 8
  87.5 6.62 6
  87.6 11.46 11
  87.7 15.72 15
  87.8 15.96 15
  87.9 12.41 12
  89.4 7.7 7
  89.5 11.73 11
  89.6 15.18 15
  89.7 15.44 15
  89.8 12.62 12
  90.1 9.09 9
  90.2 12.54 12
  90.3 15.23 15
  90.4 14.54 14
  90.5 10.42 10
  90.7 6.76 6
  90.8 11.8 11
  90.9 17.21 17
  91.0 18.12 18
  91.1 13.74 13
  91.4 7.82 7
  91.5 12.71 12
  91.6 15.19 15
  91.7 12.82 12
  92.0 6.72 6
  92.1 11.01 10
  92.2 14.01 13
  92.3 13.51 13
  92.4 10.53 10
  92.6 7.75 7
  92.7 10.08 10
  92.8 12.97 12
  92.9 13.86 13
  93.0 11.72 11
  93.3 8.12 8
  93.4 11.65 11
  93.5 13.87 13
  93.6 12.71 12
  93.9 8.48 8
  94.0 12.5 12
  94.1 15.7 15
  94.2 15.44 15
  94.3 12.0 11
  94.6 8.59 8
  94.7 13.25 13
  94.8 16.02 16
  94.9 14.29 14
  95.2 8.99 8
  95.3 12.45 12
  95.4 13.95 13
  95.5 11.82 11
  95.7 6.64 6
  95.8 9.32 9
  95.9 14.19 14
  96.0 17.2 17
  96.1 15.98 15
  96.2 11.56 11
  96.4 5.98 5
  96.5 8.95 8
  96.6 13.55 13
  96.7 15.86 15
  96.8 13.94 13
  97.1 8.89 8
  97.2 13.51 13
  97.3 17.17 17
  97.4 16.46 16
  97.5 11.74 11
  97.7 6.66 6
  97.8 10.34 10
  97.9 14.77 14
  98.0 15.88 15
  98.1 12.62 12
  98.3 6.12 6
  98.4 9.28 9
  98.5 15.16 15
  98.6 19.19 19
  98.7 18.33 18
  98.8 13.58 13
  99.6 7.97 7
  99.7 12.69 12
  99.8 17.57 17
  99.9 18.88 18
  100.0 15.76 15
  100.1 10.66 10
  100.3 7.48 7
  100.4 11.06 11
  100.5 14.65 14
  100.6 15.14 15
  100.7 12.12 12
  101.0 8.09 8
  101.1 10.73 10
  101.2 12.04 12
  101.3 10.9 10
  101.5 8.2 8
  101.6 10.85 10
  101.7 15.26 15
  101.8 17.68 17
  101.9 15.4 15
  102.0 9.63 9
  102.2 5.51 5
  102.3 11.05 11
  102.4 16.86 16
  102.5 18.05 18
  102.6 13.95 13
  102.9 8.53 8
  103.0 13.13 13
  103.1 15.46 15
  103.2 13.49 13
  104.1 11.22 11
  104.2 14.09 14
  104.3 16.19 16
  104.4 15.6 15
  104.5 12.18 12
  104.7 6.42 6
  104.8 9.29 9
  104.9 14.45 14
  105.0 17.32 17
  105.1 15.28 15
  105.2 10.25 10
  105.4 7.32 7
  105.5 11.61 11
  105.6 16.06 16
  105.7 17.13 17
  105.8 13.97 13
  105.9 8.88 8
  106.1 6.66 6
  106.2 10.54 10
  106.3 13.45 13
  106.4 12.34 12
  106.7 6.51 6
  106.8 11.53 11
  106.9 16.4 16
  107.0 17.31 17
  107.1 13.54 13
  107.4 8.07 8
  107.5 12.67 12
  107.6 15.22 15
  107.7 13.35 13
  108.0 9.41 9
  108.1 14.43 14
  108.2 18.13 18
  108.3 17.29 17
  108.4 12.22 12
  108.6 5.71 5
  108.7 9.49 9
  108.8 14.45 14
  108.9 15.91 15
  109.0 12.63 12
  109.9 9.4 9
  110.0 13.47 13
  110.1 16.32 16
  110.2 15.67 15
  110.3 12.06 12
  110.5 8.89 8
  110.6 12.62 12
  110.7 16.47 16
  110.8 16.82 16
  110.9 13.34 13
  111.2 8.56 8
  111.3 12.14 12
  111.4 15.0 14
  111.5 14.87 14
  111.6 11.85 11
  111.8 8.11 8
  111.9 10.7 10
  112.0 14.01 13
  112.1 15.04 15
  112.2 12.9 12
  113.1 9.39 9
  113.2 14.11 14
  113.3 17.97 17
  113.4 17.69 17
  113.5 13.75 13
  113.8 9.99 9
  113.9 13.33 13
  114.0 15.32 15
  114.1 14.38 14
  114.2 11.14 11
  114.4 7.99 7
  114.5 11.21 11
  114.6 15.07 15
  114.7 16.12 16
  114.8 13.69 13
  115.7 7.84 7
  115.8 13.57 13
  115.9 17.83 17
  116.0 17.04 17
  116.1 11.8 11
  117.0 9.36 9
  117.1 13.63 13
  117.2 16.19 16
  117.3 14.98 14
  117.4 11.2 11
  117.6 8.24 8
  117.7 11.05 11
  117.8 13.81 13
  117.9 13.93 13
  118.0 11.17 11
  118.9 9.21 9
  119.0 13.55 13
  119.1 16.02 16
  119.2 14.7 14
  119.3 10.73 10
  120.1 6.83 6
  120.2 9.52 9
  120.3 13.82 13
  120.4 16.07 16
  120.5 13.86 13
  120.6 8.77 8
  120.8 6.64 6
  120.9 11.16 11
  121.0 14.41 14
  121.1 13.81 13
  121.4 9.37 9
  121.5 12.46 12
  121.6 15.27 15
  121.7 15.23 15
  121.8 11.77 11
  122.1 7.58 7
  122.2 12.65 12
  122.3 16.14 16
  122.4 15.12 15
  122.5 10.64 10
  122.7 7.36 7
  122.8 11.96 11
  122.9 16.26 16
  123.0 16.02 16
  123.1 11.36 11
  123.3 6.4 6
  123.4 10.13 10
  123.5 14.1 14
  123.6 14.98 14
  123.7 12.41 12
  124.0 7.07 7
  124.1 10.93 10
  124.2 14.67 14
  124.3 15.08 15
  124.4 11.8 11
  124.6 6.87 6
  124.7 10.33 10
  124.8 15.32 15
  124.9 17.35 17
  125.0 14.58 14
  125.1 9.71 9
  125.3 8.25 8
  125.4 12.12 12
  125.5 14.91 14
  125.6 13.91 13
  125.7 9.83 9
  125.9 6.68 6
  126.0 11.12 11
  126.1 16.06 16
  126.2 17.24 17
  126.3 13.55 13
  126.5 6.82 6
  126.6 10.3 10
  126.7 15.36 15
  126.8 17.19 17
  126.9 14.19 14
  127.0 8.97 8
  127.2 6.43 6
  127.3 10.89 10
  127.4 15.19 15
  127.5 15.67 15
  127.6 12.18 12
  127.8 8.0 7
  127.9 11.8 11
  128.0 16.38 16
  128.1 17.4 17
  128.2 13.69 13
  129.1 7.97 7
  129.2 12.22 12
  129.3 16.44 16
  129.4 16.94 16
  129.5 12.69 12
  129.8 8.36 8
  129.9 14.27 14
  130.0 17.71 17
  130.1 15.79 15
  130.2 10.11 10
  130.4 5.75 5
  130.5 10.34 10
  130.6 14.83 14
  130.7 15.15 15
  130.8 11.62 11
  131.0 9.11 9
  131.1 12.66 12
  131.2 15.34 15
  131.3 14.65 14
  131.4 11.42 11
  131.7 9.37 9
  131.8 12.58 12
  131.9 14.69 14
  132.0 13.98 13
  132.3 9.33 9
  132.4 12.45 12
  132.5 15.51 15
  132.6 15.91 15
  132.7 13.22 13
  133.6 6.03 6
  133.7 11.22 11
  133.8 15.35 15
  133.9 15.39 15
  134.0 11.89 11
  134.2 6.95 6
  134.3 9.76 9
  134.4 13.97 13
  134.5 15.63 15
  134.6 13.01 12
  135.5 5.01 5
  135.6 9.28 9
  135.7 13.46 13
  135.8 14.47 14
  135.9 12.09 12
  136.7 8.47 8
  136.8 11.09 11
  136.9 15.18 15
  137.0 17.45 17
  137.1 15.48 15
  137.2 10.32 10
  137.4 6.75 6
  137.5 11.76 11
  137.6 16.95 16
  137.7 18.24 18
  137.8 15.06 15
  137.9 10.4 10
  138.1 8.73 8
  138.2 11.86 11
  138.3 14.35 14
  138.4 14.14 14
  138.5 11.61 11
  138.7 9.21 9
  138.8 11.46 11
  138.9 13.66 13
  139.0 13.53 13
  139.3 9.73 9
  139.4 13.42 13
  139.5 16.67 16
  139.6 16.46 16
  139.7 12.59 12
  140.0 6.35 6
  140.1 10.85 10
  140.2 14.47 14
  140.3 13.94 13
  140.4 9.88 9
  140.6 6.78 6
  140.7 10.85 10
  140.8 14.92 14
  140.9 15.7 15
  141.0 12.82 12
  141.3 8.56 8
  141.4 12.3 12
  141.5 14.78 14
  141.6 13.61 13
  141.9 8.61 8
  142.0 12.78 12
  142.1 16.38 16
  142.2 16.54 16
  142.3 13.47 13
  143.2 9.35 9
  143.3 13.25 13
  143.4 16.71 16
  143.5 16.64 16
  143.6 12.63 12
  144.5 9.23 9
  144.6 13.73 13
  144.7 16.95 16
  144.8 15.95 15
  144.9 11.54 11
  145.1 8.03 8
  145.2 12.24 12
  145.3 16.32 16
  145.4 16.28 16
  145.5 11.92 11
  145.7 5.8 5
  145.8 9.68 9
  145.9 15.32 15
  146.0 17.59 17
  146.1 14.02 14
  146.2 7.36 7
  146.4 4.47 4
  146.5 10.04 10
  146.6 15.16 15
  146.7 15.82 15
  146.8 11.81 11
  147.0 5.84 5
  147.1 9.21 9
  147.2 13.69 13
  147.3 14.94 14
  147.4 12.04 12
  147.7 8.28 8
  147.8 12.21 12
  147.9 14.23 14
  148.0 12.63 12
  148.3 7.59 7
  148.4 11.61 11
  148.5 15.63 15
  148.6 16.48 16
  148.7 13.78 13
  149.5 8.01 8
  149.6 10.11 10
  149.7 13.54 13
  149.8 15.59 15
  149.9 14.39 14
  150.0 10.5 10
  150.2 6.44 6
  150.3 10.08 10
  150.4 14.66 14
  150.5 15.98 15
  150.6 12.87 12
  150.9 8.11 8
  151.0 11.38 11
  151.1 13.1 13
  151.2 11.93 11
  151.5 8.23 8
  151.6 11.81 11
  151.7 14.95 14
  151.8 14.99 14
  151.9 12.13 12
  152.1 8.6 8
  152.2 11.13 11
  152.3 14.3 14
  152.4 15.07 15
  152.5 12.62 12
  152.8 9.05 9
  152.9 13.07 13
  153.0 16.2 16
  153.1 15.63 15
  153.2 11.46 11
  153.4 6.5 6
  153.5 9.76 9
  153.6 13.45 13
  153.7 13.81 13
  153.8 10.54 10
  154.0 6.67 6
  154.1 10.57 10
  154.2 15.92 15
  154.3 18.57 18
  154.4 16.24 16
  154.5 10.49 10
  154.7 6.15 6
  154.8 11.42 11
  154.9 17.17 17
  155.0 18.31 18
  155.1 13.83 13
  156.0 8.68 8
  156.1 13.41 13
  156.2 17.09 17
  156.3 17.19 17
  156.4 13.91 13
  156.7 8.96 8
  156.8 11.97 11
  156.9 13.78 13
  157.0 12.7 12
  157.2 9.24 9
  157.3 11.4 11
  157.4 14.74 14
  157.5 15.86 15
  157.6 13.19 13
  157.9 8.51 8
  158.0 13.14 13
  158.1 15.96 15
  158.2 14.61 14
  158.3 10.65 10
  158.5 7.43 7
  158.6 10.28 10
  158.7 13.82 13
  158.8 15.24 15
  158.9 13.3 13
  159.2 8.6 8
  159.3 11.65 11
  159.4 14.22 14
  159.5 14.25 14
  159.6 11.84 11
  159.8 9.57 9
  159.9 12.62 12
  160.0 16.35 16
  160.1 17.73 17
  160.2 15.32 15
  160.3 10.73 10
  160.5 8.27 8
  160.6 11.54 11
  160.7 13.69 13
  160.8 12.49 12
  160.9 9.13 9
  161.1 7.16 7
  161.2 10.34 10
  161.3 13.34 13
  161.4 12.82 12
  161.5 8.27 8
  161.7 3.77 3
  161.8 9.69 9
  161.9 16.95 16
  162.0 19.89 19
  162.1 16.7 16
  162.2 10.52 10
  162.4 7.03 7
  162.5 11.38 11
  162.6 15.63 15
  162.7 16.14 16
  162.8 12.57 12
  163.0 8.11 8
  163.1 11.92 11
  163.2 15.96 15
  163.3 15.92 15
  163.4 11.54 11
  163.6 5.51 5
  163.7 9.16 9
  163.8 14.49 14
  163.9 17.07 17
  164.0 15.02 15
  164.1 10.28 10
  164.3 8.03 8
  164.4 12.36 12
  164.5 15.92 15
  164.6 15.26 15
  164.7 10.74 10
  164.9 5.42 5
  165.0 8.69 8
  165.1 13.46 13
  165.2 16.18 16
  165.3 15.06 15
  165.4 11.42 11
  165.6 9.72 9
  165.7 13.34 13
  165.8 15.63 15
  165.9 13.77 13
  166.2 8.24 8
  166.3 12.98 12
  166.4 16.94 16
  166.5 17.03 17
  166.6 13.29 13
  166.9 9.8 9
  167.0 14.03 14
  167.1 16.51 16
  167.2 15.26 15
  167.3 11.08 11
  167.5 6.92 6
  167.6 10.64 10
  167.7 14.92 14
  167.8 15.56 15
  167.9 11.88 11
  168.1 6.38 6
  168.2 9.51 9
  168.3 13.81 13
  168.4 15.67 15
  168.5 14.01 13
  168.8 10.33 10
  168.9 13.93 13
  169.0 16.02 16
  169.1 14.15 14
  169.2 9.48 9
  169.4 6.86 6
  169.5 11.62 11
  169.6 16.24 16
  169.7 16.52 16
  169.8 12.09 12
  170.0 5.67 5
  170.1 9.75 9
  170.2 15.67 15
  170.3 18.52 18
  170.4 16.08 16
  170.5 10.48 10
  170.7 6.66 6
  170.8 11.26 11
  170.9 15.91 15
  171.0 16.4 16
  171.1 12.25 12
  171.3 5.51 5
  171.4 8.8 8
  171.5 13.9 13
  171.6 16.32 16
  171.7 14.26 14
  171.8 9.61 9
  172.0 7.19 7
  172.1 12.13 12
  172.2 16.98 16
  172.3 16.99 16
  172.4 11.74 11
  172.6 5.17 5
  172.7 9.41 9
  172.8 14.69 14
  172.9 16.56 16
  173.0 14.17 14
  173.3 9.97 9
  173.4 13.86 13
  173.5 16.16 16
  173.6 14.23 14
  173.7 9.19 9
  173.9 6.55 6
  174.0 11.13 11
  174.1 14.83 14
  174.2 14.47 14
  174.3 10.72 10
  174.5 7.22 7
  174.6 10.78 10
  174.7 14.84 14
  174.8 15.98 15
  174.9 13.14 13
  175.0 8.43 8
  175.2 6.47 6
  175.3 11.01 10
  175.4 15.34 15
  175.5 15.95 15
  175.6 12.82 12
  175.8 9.56 9
  175.9 12.34 12
  176.0 14.31 14
  176.1 12.85 12
  176.4 7.14 7
  176.5 11.96 11
  176.6 17.29 17
  176.7 18.76 18
  176.8 14.69 14
  176.9 8.17 8
  177.1 5.94 5
  177.2 10.54 10
  177.3 14.03 14
  177.4 13.63 13
  177.5 9.81 9
  177.7 4.99 4
  177.8 8.57 8
  177.9 13.91 13
  178.0 16.87 16
  178.1 15.39 15
  178.2 11.05 11
  178.4 7.55 7
  178.5 11.01 10
  178.6 14.63 14
  178.7 15.07 15
  178.8 12.01 11
  179.0 7.91 7
  179.1 11.2 11
  179.2 15.55 15
  179.3 17.16 17
  179.4 14.57 14
  180.3 7.03 7
  180.4 11.16 11
  180.5 14.79 14
  180.6 15.03 15
  180.7 11.88 11
  181.6 7.59 7
  181.7 10.56 10
  181.8 12.65 12
  181.9 11.84 11
  182.0 9.08 9
  182.2 7.52 7
  182.3 10.01 9
  182.4 12.49 12
  182.5 13.02 13
  182.6 11.16 11
  183.5 9.07 9
  183.6 13.81 13
  183.7 16.79 16
  183.8 15.2 15
  183.9 10.42 10
  184.1 6.26 6
  184.2 9.67 9
  184.3 14.11 14
  184.4 16.38 16
  184.5 14.87 14
  184.8 10.6 10
  184.9 14.69 14
  185.0 17.21 17
  185.1 15.56 15
  185.2 10.93 10
  185.4 7.78 7
  185.5 11.77 11
  185.6 15.54 15
  185.7 15.59 15
  185.8 11.68 11
  186.0 5.75 5
  186.1 9.49 9
  186.2 15.26 15
  186.3 17.97 17
  186.4 14.94 14
  186.5 8.53 8
  186.7 5.92 5
  186.8 12.04 12
  186.9 16.91 16
  187.0 16.07 16
  187.1 10.56 10
  187.3 4.51 4
  187.4 7.96 7
  187.5 12.59 12
  187.6 14.94 14
  187.7 13.57 13
  187.8 9.89 9
  188.0 8.11 8
  188.1 11.89 11
  188.2 14.96 14
  188.3 14.23 14
  188.4 10.26 10
  188.6 7.54 7
  188.7 11.5 11
  188.8 15.19 15
  188.9 15.35 15
  189.0 11.77 11
  189.3 6.22 6
  189.4 10.78 10
  189.5 14.94 14
  189.6 15.32 15
  189.7 11.88 11
  189.9 8.05 8
  190.0 11.86 11
  190.1 15.98 15
  190.2 16.32 16
  190.3 12.37 12
  190.5 6.06 6
  190.6 9.45 9
  190.7 14.84 14
  190.8 17.72 17
  190.9 15.75 15
  191.0 10.8 10
  191.2 8.28 8
  191.3 12.46 12
  191.4 15.28 15
  191.5 13.51 13
  191.6 8.55 8
  191.8 6.42 6
  191.9 11.26 11
  192.0 15.6 15
  192.1 16.07 16
  192.2 12.25 12
  192.5 7.04 7
  192.6 13.11 13
  192.7 17.67 17
  192.8 16.98 16
  192.9 11.88 11
  194.4 8.63 8
  194.5 13.51 13
  194.6 16.91 16
  194.7 15.83 15
  194.8 11.3 11
  195.0 7.18 7
  195.1 11.13 11
  195.2 15.76 15
  195.3 17.25 17
  195.4 14.49 14
  195.5 9.92 9
  195.7 8.61 8
  195.8 12.25 12
  195.9 14.39 14
  196.0 12.51 12
  196.3 7.11 7
  196.4 12.93 12
  196.5 18.28 18
  196.6 18.45 18
  196.7 12.74 12
  196.9 3.49 3
  197.0 7.67 7
  197.1 14.38 14
  197.2 17.56 17
  197.3 14.66 14
  197.4 8.83 8
  197.6 7.34 7
  197.7 11.45 11
  197.8 13.99 13
  197.9 13.33 13
  198.0 10.54 10
  198.2 8.13 8
  198.3 10.94 10
  198.4 14.18 14
  198.5 14.71 14
  198.6 11.81 11
  198.8 7.28 7
  198.9 10.34 10
  199.0 15.08 15
  199.1 17.81 17
  199.2 16.31 16
  199.3 11.5 11
  199.5 6.18 6
  199.6 9.89 9
  199.7 14.78 14
  199.8 16.43 16
  199.9 13.37 13
  201.4 8.09 8
  201.5 11.05 11
  201.6 14.37 14
  201.7 15.59 15
  201.8 13.37 13
  201.9 8.88 8
  202.1 6.28 6
  202.2 9.84 9
  202.3 12.54 12
  202.4 11.64 11
  202.7 7.4 7
  202.8 12.08 12
  202.9 15.82 15
  203.0 15.4 15
  203.1 11.41 11
  203.3 7.28 7
  203.4 10.69 10
  203.5 14.41 14
  203.6 14.7 14
  203.7 11.1 11
  203.9 5.95 5
  204.0 9.29 9
  204.1 14.23 14
  204.2 16.79 16
  204.3 15.0 14
  204.4 10.52 10
  204.6 7.48 7
  204.7 11.45 11
  204.8 15.47 15
  204.9 15.82 15
  205.0 11.74 11
  205.3 6.76 6
  205.4 12.28 12
  205.5 16.18 16
  205.6 15.79 15
  205.7 12.21 12
  205.9 10.07 10
  206.0 13.31 13
  206.1 15.38 15
  206.2 13.74 13
  206.3 9.41 9
  206.5 6.44 6
  206.6 11.18 11
  206.7 16.52 16
  206.8 17.73 17
  206.9 13.63 13
  207.2 7.8 7
  207.3 13.53 13
  207.4 17.93 17
  207.5 17.21 17
  207.6 11.57 11
  207.8 5.25 5
  207.9 10.61 10
  208.0 17.15 17
  208.1 19.34 19
  208.2 15.82 15
  208.3 10.28 10
  208.5 9.32 9
  208.6 12.89 12
  208.7 14.57 14
  208.8 12.86 12
  209.1 8.55 8
  209.2 12.25 12
  209.3 15.23 15
  209.4 14.77 14
  209.5 11.01 10
  209.7 6.34 6
  209.8 9.63 9
  209.9 14.45 14
  210.0 16.88 16
  210.1 15.08 15
  210.2 10.62 10
  210.4 7.63 7
  210.5 11.6 11
  210.6 15.68 15
  210.7 16.06 16
  210.8 12.05 12
  211.0 6.31 6
  211.1 9.77 9
  211.2 14.53 14
  211.3 16.46 16
  211.4 13.98 13
  211.5 9.05 9
  211.7 7.23 7
  211.8 11.66 11
  211.9 14.79 14
  212.0 13.83 13
  212.3 8.52 8
  212.4 12.22 12
  212.5 15.74 15
  212.6 16.26 16
  212.7 13.25 13
  213.0 8.09 8
  213.1 11.89 11
  213.2 14.67 14
  213.3 14.33 14
  213.6 10.69 10
  213.7 12.67 12
  213.8 13.77 13
  213.9 12.29 12
  214.0 8.85 8
  214.2 6.08 6
  214.3 9.81 9
  214.4 14.84 14
  214.5 17.39 17
  214.6 15.3 15
  214.7 10.32 10
  214.9 8.27 8
  215.0 12.71 12
  215.1 15.59 15
  215.2 14.03 14
  215.5 9.17 9
  215.6 13.42 13
  215.7 16.24 16
  215.8 14.94 14
  215.9 10.34 10
  216.1 5.98 5
  216.2 9.61 9
  216.3 13.9 13
  216.4 15.1 15
  216.5 12.33 12
  217.4 8.33 8
  217.5 12.12 12
  217.6 15.82 15
  217.7 16.66 16
  217.8 14.06 14
  218.1 9.17 9
  218.2 12.91 12
  218.3 15.24 15
  218.4 13.22 13
  218.5 7.86 7
  218.7 4.33 4
  218.8 9.44 9
  218.9 14.75 14
  219.0 16.0 15
  219.1 12.57 12
  219.3 6.83 6
  219.4 10.44 10
  219.5 16.12 16
  219.6 19.34 19
  219.7 17.39 17
  219.8 11.73 11
  220.0 7.34 7
  220.1 11.56 11
  220.2 15.31 15
  220.3 15.0 14
  220.4 11.09 11
  220.6 6.44 6
  220.7 9.61 9
  220.8 13.99 13
  220.9 16.22 16
  221.0 14.98 14
  221.1 12.02 12
  221.3 10.64 10
  221.4 12.49 12
  221.5 13.45 13
  221.6 12.28 12
  221.9 10.01 9
  222.0 13.58 13
  222.1 16.84 16
  222.2 17.15 17
  222.3 13.9 13
  223.2 8.59 8
  223.3 12.54 12
  223.4 15.75 15
  223.5 15.74 15
  223.6 12.57 12
  223.8 8.39 8
  223.9 11.41 11
  224.0 15.26 15
  224.1 16.39 16
  224.2 13.87 13
  225.1 9.09 9
  225.2 13.25 13
  225.3 16.43 16
  225.4 15.55 15
  225.5 10.89 10
  225.7 5.55 5
  225.8 9.48 9
  225.9 14.55 14
  226.0 16.7 16
  226.1 14.75 14
  226.2 10.85 10
  226.4 8.57 8
  226.5 12.08 12
  226.6 15.56 15
  226.7 15.02 15
  226.8 10.01 9
  227.0 5.53 5
  227.1 11.09 11
  227.2 16.72 16
  227.3 17.57 17
  227.4 13.38 13
  228.3 6.94 6
  228.4 11.01 10
  228.5 14.41 14
  228.6 13.87 13
  228.9 8.63 8
  229.0 12.65 12
  229.1 15.92 15
  229.2 15.79 15
  229.3 12.4 12
  229.6 7.79 7
  229.7 11.9 11
  229.8 15.12 15
  229.9 14.54 14
  230.0 10.6 10
  230.2 6.67 6
  230.3 10.23 10
  230.4 14.13 14
  230.5 14.82 14
  230.6 11.81 11
  230.8 6.56 6
  230.9 9.2 9
  231.0 13.91 13
  231.1 16.76 16
  231.2 15.2 15
  231.3 10.53 10
  231.5 7.64 7
  231.6 12.06 12
  231.7 16.16 16
  231.8 16.38 16
  231.9 12.82 12
  232.1 8.72 8
  232.2 12.18 12
  232.3 16.38 16
  232.4 17.19 17
  232.5 13.19 13
  232.8 6.28 6
  232.9 11.6 11
  233.0 15.48 15
  233.1 15.11 15
  233.2 11.29 11
  233.4 6.16 6
  233.5 8.84 8
  233.6 12.99 12
  233.7 14.94 14
  233.8 12.9 12
  233.9 8.56 8
  234.1 6.98 6
  234.2 11.04 11
  234.3 13.99 13
  234.4 12.69 12
  234.7 7.99 7
  234.8 13.94 13
  234.9 18.16 18
  235.0 16.82 16
  235.1 11.24 11
  235.3 6.16 6
  235.4 10.41 10
  235.5 15.38 15
  235.6 17.09 17
  235.7 14.55 14
  235.8 10.19 10
  236.0 9.0 8
  236.1 12.48 12
  236.2 14.51 14
  236.3 13.02 13
  236.6 9.45 9
  236.7 13.77 13
  236.8 17.56 17
  236.9 18.09 18
  237.0 14.71 14
  237.3 9.97 9
  237.4 15.35 15
  237.5 18.4 18
  237.6 15.98 15
  237.7 10.13 10
  237.9 6.44 6
  238.0 10.44 10
  238.1 14.15 14
  238.2 14.74 14
  238.3 12.18 12
  240.5 10.09 10
  240.6 13.34 13
  240.7 15.63 15
  240.8 14.37 14
  240.9 10.05 10
  241.1 7.7 7
  241.2 12.83 12
  241.3 17.08 17
  241.4 16.34 16
  241.5 11.38 11
  241.7 6.52 6
  241.8 10.81 10
  241.9 16.16 16
  242.0 18.07 18
  242.1 14.94 14
  242.2 9.61 9
  242.4 8.12 8
  242.5 12.05 12
  242.6 14.83 14
  242.7 14.3 14
  242.8 10.74 10
  243.0 5.68 5
  243.1 9.05 9
  243.2 14.03 14
  243.3 15.84 15
  243.4 12.63 12
  243.5 7.39 7
  243.7 6.1 6
  243.8 10.11 10
  243.9 13.22 13
  244.0 13.18 13
  244.1 10.45 10
  244.3 8.15 8
  244.4 11.05 11
  244.5 13.77 13
  244.6 13.54 13
  244.7 10.36 10
  244.9 5.9 5
  245.0 8.69 8
  245.1 13.26 13
  245.2 16.08 16
  245.3 15.04 15
  245.6 10.6 10
  245.7 14.42 14
  245.8 16.96 16
  245.9 15.16 15
  246.0 9.92 9
  246.2 5.11 5
  246.3 8.55 8
  246.4 12.5 12
  246.5 13.93 13
  246.6 12.32 12
  246.8 9.01 9
  246.9 11.22 11
  247.0 14.77 14
  247.1 16.63 16
  247.2 14.99 14
  247.3 11.18 11
  247.5 9.44 9
  247.6 12.83 12
  247.7 15.46 15
  247.8 14.79 14
  247.9 11.36 11
  248.2 8.07 8
  248.3 11.1 11
  248.4 13.43 13
  248.5 13.45 13
  249.4 5.34 5
  249.5 9.83 9
  249.6 14.78 14
  249.7 16.35 16
  249.8 13.31 13
  250.0 7.14 7
  250.1 10.29 10
  250.2 15.0 14
  250.3 16.8 16
  250.4 14.27 14
  250.7 9.21 9
  250.8 13.87 13
  250.9 17.77 17
  251.0 17.43 17
  251.1 12.77 12
  252.0 7.75 7
  252.1 12.7 12
  252.2 17.47 17
  252.3 17.92 17
  252.4 13.55 13
  252.7 8.81 8
  252.8 13.57 13
  252.9 16.06 16
  253.0 14.25 14
  253.9 7.22 7
  254.0 13.39 13
  254.1 18.6 18
  254.2 18.16 18
  254.3 12.22 12
  254.6 7.4 7
  254.7 13.37 13
  254.8 16.62 16
  254.9 14.94 14
  255.2 9.2 9
  255.3 13.49 13
  255.4 16.71 16
  255.5 15.92 15
  255.6 11.61 11
  255.8 6.64 6
  255.9 10.09 10
  256.0 14.21 14
  256.1 14.96 14
  256.2 11.66 11
  256.5 8.56 8
  256.6 13.18 13
  256.7 15.88 15
  256.8 14.61 14
  256.9 10.64 10
  257.1 8.77 8
  257.2 13.01 12
  257.3 16.74 16
  257.4 16.55 16
  257.5 12.48 12
  258.4 8.59 8
  258.5 13.21 13
  258.6 17.11 17
  258.7 17.2 17
  258.8 13.37 13
  259.0 7.56 7
  259.1 10.7 10
  259.2 15.15 15
  259.3 16.18 16
  259.4 12.16 12
  259.6 4.34 4
  259.7 7.79 7
  259.8 14.1 14
  259.9 17.91 17
  260.0 15.72 15
  260.1 9.16 9
  260.3 3.9 3
  260.4 9.31 9
  260.5 15.27 15
  260.6 17.07 17
  260.7 13.77 13
  261.0 8.08 8
  261.1 12.12 12
  261.2 14.58 14
  261.3 13.26 13
  261.6 7.88 7
  261.7 12.74 12
  261.8 16.92 16
  261.9 16.58 16
  262.0 12.02 12
  262.2 6.35 6
  262.3 9.83 9
  262.4 14.31 14
  262.5 15.48 15
  262.6 12.17 12
  263.5 8.12 8
  263.6 12.1 12
  263.7 16.08 16
  263.8 16.46 16
  263.9 12.7 12
  264.1 7.22 7
  264.2 10.58 10
  264.3 14.99 14
  264.4 16.06 16
  264.5 12.78 12
  264.8 9.19 9
  264.9 13.51 13
  265.0 15.9 15
  265.1 14.55 14
  265.2 10.85 10
  265.4 8.11 8
  265.5 11.21 11
  265.6 14.62 14
  265.7 15.1 15
  265.8 11.84 11
  266.0 7.22 7
  266.1 11.13 11
  266.2 15.99 15
  266.3 17.16 17
  266.4 13.5 13
  266.7 8.6 8
  266.8 12.93 12
  266.9 15.74 15
  267.0 15.08 15
  267.1 11.6 11
  267.3 7.08 7
  267.4 10.42 10
  267.5 15.42 15
  267.6 17.55 17
  267.7 14.77 14
  267.8 9.56 9
  268.0 7.56 7
  268.1 11.85 11
  268.2 15.72 15
  268.3 16.18 16
  268.4 13.11 13
  269.9 5.58 5
  270.0 9.81 9
  270.1 14.65 14
  270.2 16.48 16
  270.3 14.27 14
  270.6 9.09 9
  270.7 12.45 12
  270.8 14.17 14
  270.9 12.37 12
  271.0 8.71 8
  271.2 7.03 7
  271.3 9.69 9
  271.4 12.05 12
  271.5 12.12 12
  271.6 9.83 9
  271.8 7.27 7
  271.9 10.58 10
  272.0 14.91 14
  272.1 16.52 16
  272.2 13.78 13
  272.5 8.59 8
  272.6 13.59 13
  272.7 17.09 17
  272.8 16.22 16
  272.9 12.08 12
  273.1 8.53 8
  273.2 11.64 11
  273.3 14.29 14
  273.4 13.37 13
  273.5 9.16 9
  273.7 4.41 4
  273.8 7.91 7
  273.9 13.26 13
  274.0 16.63 16
  274.1 15.47 15
  274.2 10.94 10
  274.4 7.64 7
  274.5 11.92 11
  274.6 16.12 16
  274.7 16.27 16
  274.8 11.97 11
  275.0 6.24 6
  275.1 10.24 10
  275.2 15.32 15
  275.3 17.02 17
  275.4 14.13 14
  275.5 9.39 9
  275.7 7.97 7
  275.8 11.54 11
  275.9 14.15 14
  276.0 13.41 13
  276.1 9.79 9
  276.3 6.56 6
  276.4 10.3 10
  276.5 14.46 14
  276.6 15.27 15
  276.7 12.05 12
  278.2 7.55 7
  278.3 11.65 11
  278.4 15.14 15
  278.5 14.98 14
  278.6 11.25 11
  278.8 7.2 7
  278.9 11.56 11
  279.0 17.12 17
  279.1 19.09 19
  279.2 15.62 15
  279.3 9.53 9
  279.5 6.87 6
  279.6 11.49 11
  279.7 15.5 15
  279.8 15.5 15
  279.9 11.52 11
  280.1 5.94 5
  280.2 9.37 9
  280.3 14.23 14
  280.4 16.04 16
  280.5 13.21 13
  280.8 7.3 7
  280.9 11.54 11
  281.0 14.99 14
  281.1 14.73 14
  281.2 11.18 11
  281.4 8.43 8
  281.5 12.06 12
  281.6 15.36 15
  281.7 15.3 15
  281.8 11.78 11
  282.0 6.31 6
  282.1 9.23 9
  282.2 14.05 14
  282.3 16.36 16
  282.4 13.95 13
  282.7 8.44 8
  282.8 13.38 13
  282.9 17.31 17
  283.0 17.23 17
  283.1 13.34 13
  283.4 8.33 8
  283.5 12.26 12
  283.6 15.0 14
  283.7 14.22 14
  283.8 10.77 10
  284.0 8.45 8
  284.1 11.69 11
  284.2 14.54 14
  284.3 14.14 14
  284.4 10.68 10
  284.6 6.92 6
  284.7 10.52 10
  284.8 14.84 14
  284.9 15.87 15
  285.0 12.5 12
  285.3 8.27 8
  285.4 12.77 12
  285.5 15.54 15
  285.6 14.25 14
  285.7 9.81 9
  285.9 5.11 5
  286.0 8.56 8
  286.1 12.77 12
  286.2 14.01 13
  286.3 11.76 11
  286.5 9.31 9
  286.6 12.08 12
  286.7 14.7 14
  286.8 14.43 14
  286.9 10.94 10
  287.1 5.41 5
  287.2 8.4 8
  287.3 14.05 14
  287.4 18.45 18
  287.5 18.43 18
  287.6 14.06 14
  288.5 7.79 7
  288.6 12.79 12
  288.7 16.52 16
  288.8 16.03 16
  288.9 12.1 12
  289.7 7.55 7
  289.8 9.71 9
  289.9 13.26 13
  290.0 15.39 15
  290.1 14.45 14
  290.2 11.34 11
  290.4 8.91 8
  290.5 11.73 11
  290.6 14.35 14
  290.7 13.35 13
  290.8 8.92 8
  291.0 6.72 6
  291.1 11.94 11
  291.2 16.4 16
  291.3 16.4 16
  291.4 12.18 12
  292.3 8.97 8
  292.4 12.38 12
  292.5 15.04 15
  292.6 14.65 14
  292.7 11.29 11
  292.9 6.79 6
  293.0 9.69 9
  293.1 13.79 13
  293.2 15.52 15
  293.3 13.7 13
  293.6 9.84 9
  293.7 13.37 13
  293.8 15.71 15
  293.9 14.17 14
  294.0 9.64 9
  294.2 7.0 6
  294.3 11.69 11
  294.4 16.3 16
  294.5 17.03 17
  294.6 13.51 13
  294.7 8.71 8
  294.9 7.4 7
  295.0 10.7 10
  295.1 13.07 13
  295.2 12.45 12
  295.5 7.43 7
  295.6 11.24 11
  295.7 15.27 15
  295.8 16.16 16
  295.9 13.23 13
  296.1 8.2 8
  296.2 10.97 10
  296.3 14.94 14
  296.4 16.15 16
  296.5 12.94 12
  296.8 6.6 6
  296.9 12.86 12
  297.0 18.13 18
  297.1 18.13 18
  297.2 13.34 13
  297.4 7.23 7
  297.5 10.58 10
  297.6 14.83 14
  297.7 15.68 15
  297.8 11.85 11
  298.1 7.12 7
  298.2 12.67 12
  298.3 16.03 16
  298.4 14.23 14
  298.5 8.8 8
  298.7 5.29 5
  298.8 10.58 10
  298.9 16.16 16
  299.0 17.47 17
  299.1 13.69 13
  299.3 7.22 7
  299.4 10.88 10
  299.5 15.72 15
  299.6 16.64 16
  299.7 12.37 12
  300.0 5.75 5
  300.1 11.86 11
  300.2 17.19 17
  300.3 17.69 17
  300.4 13.15 13
  300.7 7.06 7
  300.8 11.62 11
  300.9 14.19 14
  301.0 12.81 12
  301.9 7.63 7
  302.0 10.62 10
  302.1 14.05 14
  302.2 14.98 14
  302.3 12.66 12
  302.6 8.96 8
  302.7 11.5 11
  302.8 12.71 12
  302.9 11.52 11
  303.2 9.37 9
  303.3 12.75 12
  303.4 15.5 15
  303.5 15.34 15
  303.6 12.24 12
  304.5 6.67 6
  304.6 11.29 11
  304.7 15.51 15
  304.8 16.24 16
  304.9 13.18 13
  305.7 7.68 7
  305.8 10.81 10
  305.9 14.86 14
  306.0 15.9 15
  306.1 12.78 12
  307.0 5.78 5
  307.1 8.87 8
  307.2 13.06 13
  307.3 14.91 14
  307.4 12.73 12
  307.7 7.66 7
  307.8 12.49 12
  307.9 15.86 15
  308.0 14.53 14
  308.1 9.79 9
  308.3 7.8 7
  308.4 12.54 12
  308.5 15.91 15
  308.6 14.91 14
  308.7 10.6 10
  308.9 5.74 5
  309.0 8.57 8
  309.1 12.69 12
  309.2 14.73 14
  309.3 13.17 13
  310.2 5.63 5
  310.3 9.95 9
  310.4 14.91 14
  310.5 16.28 16
  310.6 13.34 13
  311.5 7.3 7
  311.6 10.38 10
  311.7 13.18 13
  311.8 13.3 13
  311.9 10.65 10
  312.1 7.4 7
  312.2 10.01 9
  312.3 13.22 13
  312.4 14.07 14
  312.5 11.78 11
  312.7 7.71 7
  312.8 10.73 10
  312.9 15.5 15
  313.0 18.09 18
  313.1 16.23 16
  313.2 11.26 11
  314.7 6.83 6
  314.8 10.58 10
  314.9 14.8 14
  315.0 15.46 15
  315.1 11.84 11
  315.3 7.26 7
  315.4 11.16 11
  315.5 15.63 15
  315.6 16.62 16
  315.7 13.42 13
  316.6 6.04 6
  316.7 10.54 10
  316.8 15.44 15
  316.9 16.78 16
  317.0 13.59 13
  317.9 8.11 8
  318.0 11.16 11
  318.1 14.13 14
  318.2 14.63 14
  318.3 11.86 11
  318.5 6.19 6
  318.6 8.96 8
  318.7 14.27 14
  318.8 17.61 17
  318.9 16.26 16
  319.0 11.72 11
  319.2 8.45 8
  319.3 11.58 11
  319.4 14.13 14
  319.5 13.5 13
  319.8 9.15 9
  319.9 12.87 12
  320.0 15.9 15
  320.1 15.34 15
  320.2 11.14 11
  320.4 5.68 5
  320.5 9.45 9
  320.6 14.66 14
  320.7 16.66 16
  320.8 13.82 13
  321.1 7.91 7
  321.2 12.59 12
  321.3 16.26 16
  321.4 16.27 16
  321.5 12.99 12
  321.8 8.68 8
  321.9 12.16 12
  322.0 14.49 14
  322.1 13.07 13
  323.0 7.3 7
  323.1 11.58 11
  323.2 15.68 15
  323.3 16.42 16
  323.4 13.13 13
  323.7 7.8 7
  323.8 11.96 11
  323.9 15.0 14
  324.0 14.75 14
  324.3 10.92 10
  324.4 14.96 14
  324.5 18.01 17
  324.6 16.47 16
  324.7 10.58 10
  324.9 3.47 3
  325.0 8.24 8
  325.1 15.14 15
  325.2 18.6 18
  325.3 16.44 16
  325.4 11.22 11
  325.6 7.36 7
  325.7 10.38 10
  325.8 13.31 13
  325.9 13.17 13
  326.0 9.99 9
  326.2 7.0 6
  326.3 10.2 10
  326.4 13.39 13
  326.5 13.75 13
  326.6 11.22 11
  326.8 7.72 7
  326.9 10.12 10
  327.0 13.5 13
  327.1 14.74 14
  327.2 12.46 12
  327.5 8.41 8
  327.6 12.04 12
  327.7 14.53 14
  327.8 14.01 13
  327.9 10.97 10
  328.1 7.24 7
  328.2 9.55 9
  328.3 12.95 12
  328.4 14.65 14
  328.5 13.03 13
  328.8 7.88 7
  328.9 12.7 12
  329.0 16.26 16
  329.1 15.24 15
  329.2 10.98 10
  329.4 8.33 8
  329.5 12.17 12
  329.6 15.82 15
  329.7 16.03 16
  329.8 12.34 12
  330.0 6.23 6
  330.1 9.41 9
  330.2 14.98 14
  330.3 18.47 18
  330.4 16.95 16
  330.5 11.8 11
  330.7 8.59 8
  330.8 13.29 13
  330.9 17.36 17
  331.0 17.19 17
  331.1 13.21 13
  331.3 7.95 7
  331.4 11.12 11
  331.5 15.95 15
  331.6 18.07 18
  331.7 15.11 15
  331.8 9.33 9
  332.0 7.07 7
  332.1 11.33 11
  332.2 14.1 14
  332.3 13.01 12
  332.6 9.23 9
  332.7 13.01 12
  332.8 15.66 15
  332.9 14.62 14
  333.0 10.29 10
  333.2 4.39 4
  333.3 7.31 7
  333.4 12.25 12
  333.5 15.48 15
  333.6 14.61 14
  333.7 10.65 10
  333.9 8.39 8
  334.0 12.4 12
  334.1 15.35 15
  334.2 14.09 14
  334.3 9.53 9
  334.5 6.44 6
  334.6 11.69 11
  334.7 17.63 17
  334.8 19.37 19
  334.9 15.35 15
  335.0 8.93 8
  335.2 7.06 7
  335.3 12.3 12
  335.4 16.35 16
  335.5 15.92 15
  335.6 11.89 11
  335.8 8.6 8
  335.9 12.55 12
  336.0 16.56 16
  336.1 17.13 17
  336.2 13.67 13
  336.3 8.85 8
  336.5 7.8 7
  336.6 11.36 11
  336.7 13.06 13
  336.8 11.02 11
  337.0 6.0 5
  337.1 8.64 8
  337.2 13.67 13
  337.3 17.67 17
  337.4 17.77 17
  337.5 14.03 14
  338.3 5.35 5
  338.4 8.44 8
  338.5 13.33 13
  338.6 16.34 16
  338.7 15.06 15
  338.8 10.52 10
  339.7 7.44 7
  339.8 11.13 11
  339.9 14.06 14
  340.0 13.31 13
  340.3 7.83 7
  340.4 12.38 12
  340.5 16.28 16
  340.6 15.95 15
  340.7 11.76 11
  341.6 8.64 8
  341.7 11.56 11
  341.8 14.21 14
  341.9 13.85 13
  342.0 10.46 10
  342.2 6.19 6
  342.3 8.95 8
  342.4 12.82 12
  342.5 14.49 14
  342.6 12.14 12
  342.9 7.46 7
  343.0 13.98 13
  343.1 18.72 18
  343.2 17.24 17
  343.3 11.05 11
  343.5 5.99 5
  343.6 10.17 10
  343.7 14.3 14
  343.8 15.02 15
  343.9 12.34 12
  344.1 8.93 8
  344.2 12.01 11
  344.3 15.67 15
  344.4 16.23 16
  344.5 12.58 12
  344.8 7.7 7
  344.9 13.19 13
  345.0 17.52 17
  345.1 17.33 17
  345.2 12.89 12
  346.7 11.16 11
  346.8 15.15 15
  346.9 18.79 18
  347.0 19.62 19
  347.1 17.35 17
  347.2 14.01 13
  348.0 0.47 0
  348.1 5.23 5
  348.2 10.65 10
  348.3 12.74 12
  348.4 10.58 10
  348.6 6.47 6
  348.7 9.45 9
  348.8 13.31 13
  348.9 14.34 14
  349.0 11.69 11
  349.2 7.16 7
  349.3 10.34 10
  349.4 15.1 15
  349.5 17.41 17
  349.6 15.55 15
  349.7 11.57 11
  349.9 9.73 9
  350.0 12.86 12
  350.1 15.47 15
  350.2 15.04 15
  350.3 11.74 11
  350.5 7.8 7
  350.6 10.9 10
  350.7 15.0 14
  350.8 16.39 16
  350.9 13.66 13
  351.2 8.24 8
  351.3 12.67 12
  351.4 16.22 16
  351.5 16.02 16
  351.6 12.53 12
  352.4 6.08 6
  352.5 9.28 9
  352.6 14.31 14
  352.7 16.54 16
  352.8 13.93 13
  353.1 7.97 7
  353.2 13.09 13
  353.3 17.02 17
  353.4 16.5 16
  353.5 12.06 12
  353.7 6.18 6
  353.8 9.31 9
  353.9 13.89 13
  354.0 15.79 15
  354.1 13.07 13
  354.4 7.14 7
  354.5 12.37 12
  354.6 16.47 16
  354.7 16.43 16
  354.8 12.85 12
  355.0 8.17 8
  355.1 10.9 10
  355.2 14.71 14
  355.3 15.95 15
  355.4 13.09 13
  355.7 7.04 7
  355.8 11.65 11
  355.9 15.28 15
  356.0 15.02 15
  356.1 11.65 11
  356.3 8.73 8
  356.4 11.61 11
  356.5 14.42 14
  356.6 14.62 14
  356.7 12.08 12
  356.9 8.31 8
  357.0 10.82 10
  357.1 14.49 14
  357.2 15.95 15
  357.3 13.98 13
  357.4 10.4 10
  357.6 8.75 8
  357.7 12.06 12
  357.8 15.35 15
  357.9 15.62 15
  358.0 12.41 12
  358.8 7.62 7
  358.9 11.01 10
  359.0 16.08 16
  359.1 18.64 18
  359.2 16.24 16
  359.3 10.62 10
  359.5 6.99 6
  359.6 11.12 11
  359.7 14.69 14
  359.8 14.55 14
  359.9 11.17 11
  360.1 6.59 6
  360.2 9.0 8
  360.3 13.05 13
  360.4 15.92 15
  360.5 15.55 15
  360.6 12.41 12
  360.8 9.44 9
  360.9 12.82 12
  361.0 16.2 16
  361.1 15.9 15
  361.2 11.74 11
  361.4 6.47 6
  361.5 9.92 9
  361.6 14.63 14
  361.7 16.74 16
  361.8 14.75 14
  362.1 10.11 10
  362.2 13.66 13
  362.3 16.06 16
  362.4 14.95 14
  362.5 10.96 10
  362.7 7.44 7
  362.8 11.3 11
  362.9 15.52 15
  363.0 16.46 16
  363.1 13.67 13
  363.3 9.65 9
  363.4 12.61 12
  363.5 16.51 16
  363.6 17.55 17
  363.7 14.1 14
  364.0 7.94 7
  364.1 13.79 13
  364.2 17.75 17
  364.3 16.36 16
  364.4 11.32 11
  364.6 7.76 7
  364.7 11.49 11
  364.8 14.95 14
  364.9 14.8 14
  365.0 10.84 10
  365.2 5.21 5
  365.3 8.72 8
  365.4 14.15 14
  365.5 17.36 17
  365.6 16.1 16
  365.7 11.66 11
  365.9 7.12 7
  366.0 10.11 10
  366.1 13.97 13
  366.2 15.4 15
  366.3 13.47 13
  367.2 8.8 8
  367.3 11.29 11
  367.4 13.42 13
  367.5 12.89 12
  367.8 7.42 7
  367.9 11.6 11
  368.0 15.84 15
  368.1 16.42 16
  368.2 13.27 13
  369.1 7.84 7
  369.2 11.85 11
  369.3 15.42 15
  369.4 15.88 15
  369.5 12.7 12
  369.8 8.59 8
  369.9 13.69 13
  370.0 17.08 17
  370.1 15.54 15
  370.2 10.32 10
  370.4 7.75 7
  370.5 12.61 12
  370.6 15.94 15
  370.7 14.49 14
  370.8 9.93 9
  371.0 7.58 7
  371.1 11.46 11
  371.2 15.19 15
  371.3 15.84 15
  371.4 12.73 12
  371.7 7.12 7
  371.8 13.03 13
  371.9 17.56 17
  372.0 16.51 16
  372.1 11.0 10
  372.3 6.67 6
  372.4 10.96 10
  372.5 15.03 15
  372.6 15.6 15
  372.7 12.82 12
  373.6 7.08 7
  373.7 11.5 11
  373.8 15.67 15
  373.9 15.4 15
  374.0 11.05 11
  374.2 8.05 8
  374.3 12.26 12
  374.4 15.76 15
  374.5 15.59 15
  374.6 12.34 12
  374.8 8.96 8
  374.9 12.26 12
  375.0 16.22 16
  375.1 17.05 17
  375.2 13.58 13
  375.5 8.09 8
  375.6 12.18 12
  375.7 15.11 15
  375.8 14.86 14
  375.9 12.17 12
  376.1 9.63 9
  376.2 12.69 12
  376.3 16.3 16
  376.4 16.84 16
  376.5 12.85 12
  376.8 6.22 6
  376.9 12.08 12
  377.0 16.54 16
  377.1 16.11 16
  377.2 11.68 11
  377.4 7.88 7
  377.5 12.38 12
  377.6 17.39 17
  377.7 18.73 18
  377.8 15.32 15
  377.9 9.92 9
  378.1 7.8 7
  378.2 11.97 11
  378.3 15.54 15
  378.4 15.39 15
  378.5 11.61 11
  378.7 7.44 7
  378.8 11.33 11
  378.9 15.84 15
  379.0 17.07 17
  379.1 14.11 14
  379.4 8.95 8
  379.5 13.61 13
  379.6 16.71 16
  379.7 14.78 14
  379.8 9.25 9
  380.0 6.58 6
  380.1 11.37 11
  380.2 14.86 14
  380.3 14.06 14
  380.4 10.04 10
  380.6 6.15 6
  380.7 9.39 9
  380.8 13.22 13
  380.9 13.99 13
  381.0 11.04 11
  381.2 6.9 6
  381.3 10.15 10
  381.4 14.39 14
  381.5 15.99 15
  381.6 13.55 13
  381.9 8.69 8
  382.0 12.66 12
  382.1 15.06 15
  382.2 13.61 13
  382.3 9.39 9
  382.5 5.62 5
  382.6 9.37 9
  382.7 14.57 14
  382.8 17.28 17
  382.9 15.15 15
  383.0 9.65 9
  383.2 5.84 5
  383.3 10.73 10
  383.4 15.3 15
  383.5 15.26 15
  383.6 10.93 10
  383.8 6.24 6
  383.9 9.81 9
  384.0 13.94 13
  384.1 15.12 15
  384.2 12.49 12
  384.5 8.32 8
  384.6 12.73 12
  384.7 15.27 15
  384.8 13.41 13
  384.9 9.01 9
  385.1 7.19 7
  385.2 10.72 10
  385.3 13.89 13
  385.4 14.31 14
  385.5 11.69 11
  385.7 7.31 7
  385.8 9.67 9
  385.9 13.53 13
  386.0 15.47 15
  386.1 13.46 13
  386.4 8.88 8
  386.5 13.57 13
  386.6 16.26 16
  386.7 14.22 14
  386.8 9.08 9
  387.0 5.86 5
  387.1 10.98 10
  387.2 16.4 16
  387.3 17.61 17
  387.4 13.91 13
  387.7 9.95 9
  387.8 14.61 14
  387.9 17.43 17
  388.0 16.24 16
  388.1 12.16 12
  388.3 8.33 8
  388.4 11.28 11
  388.5 14.59 14
  388.6 15.08 15
  388.7 11.98 11
  388.9 6.72 6
  389.0 9.61 9
  389.1 13.74 13
  389.2 14.88 14
  389.3 11.7 11
  389.6 7.66 7
  389.7 13.07 13
  389.8 16.51 16
  389.9 14.75 14
  390.0 9.17 9
  390.2 5.01 5
  390.3 9.31 9
  390.4 13.58 13
  390.5 14.61 14
  390.6 12.45 12
  390.8 8.96 8
  390.9 11.17 11
  391.0 14.38 14
  391.1 15.26 15
  391.2 12.37 12
  391.5 7.06 7
  391.6 11.37 11
  391.7 15.07 15
  391.8 15.52 15
  391.9 12.65 12
  392.1 7.96 7
  392.2 10.81 10
  392.3 15.22 15
  392.4 17.16 17
  392.5 14.75 14
  392.6 9.95 9
  392.8 7.92 7
  392.9 12.44 12
  393.0 16.42 16
  393.1 16.31 16
  393.2 12.4 12
  393.4 7.91 7
  393.5 11.37 11
  393.6 15.47 15
  393.7 16.19 16
  393.8 12.69 12
  394.7 6.16 6
  394.8 10.09 10
  394.9 13.33 13
  395.0 13.09 13
  395.1 9.92 9
  395.3 7.0 6
  395.4 9.64 9
  395.5 12.77 12
  395.6 14.06 14
  395.7 12.63 12
  396.0 8.29 8
  396.1 10.92 10
  396.2 13.29 13
  396.3 13.51 13
  396.4 11.48 11
  396.6 8.25 8
  396.7 10.42 10
  396.8 13.71 13
  396.9 14.99 14
  397.0 12.61 12
  397.3 8.13 8
  397.4 12.77 12
  397.5 15.43 15
  397.6 13.47 13
  397.9 9.48 9
  398.0 14.84 14
  398.1 18.52 18
  398.2 17.76 17
  398.3 13.33 13
  398.4 8.27 8
  398.6 7.31 7
  398.7 11.2 11
  398.8 13.65 13
  398.9 12.09 12
  399.1 5.99 5
  399.2 9.13 9
  399.3 15.54 15
  399.4 19.58 19
  399.5 17.51 17
  399.6 11.2 11
  399.8 5.65 5
  399.9 9.07 9
  400.0 12.78 12
  400.1 13.37 13
  400.2 10.21 10
  400.4 5.38 5
  400.5 9.24 9
  400.6 14.73 14
  400.7 17.2 17
  400.8 14.61 14
  400.9 9.33 9
  401.1 7.67 7
  401.2 12.24 12
  401.3 15.44 15
  401.4 14.5 14
  401.5 10.36 10
  401.7 6.56 6
  401.8 10.13 10
  401.9 14.19 14
  402.0 15.19 15
  402.1 12.62 12
  402.4 9.35 9
  402.5 12.37 12
  402.6 14.41 14
  402.7 13.43 13
  403.0 7.48 7
  403.1 12.57 12
  403.2 17.31 17
  403.3 17.41 17
  403.4 13.13 13
  403.7 8.72 8
  403.8 12.46 12
  403.9 14.66 14
  404.0 13.37 13
  404.1 9.64 9
  404.3 6.9 6
  404.4 10.4 10
  404.5 14.3 14
  404.6 14.98 14
  404.7 11.36 11
  405.0 7.16 7
  405.1 12.86 12
  405.2 16.35 16
  405.3 14.88 14
  405.4 10.36 10
  405.6 8.59 8
  405.7 12.66 12
  405.8 15.74 15
  405.9 14.91 14
  406.0 10.64 10
  406.2 6.43 6
  406.3 10.42 10
  406.4 15.11 15
  406.5 16.56 16
  406.6 13.89 13
  406.9 10.42 10
  407.0 14.74 14
  407.1 17.71 17
  407.2 16.78 16
  407.3 12.28 12
  407.5 6.04 6
  407.6 9.45 9
  407.7 14.79 14
  407.8 17.35 17
  407.9 14.69 14
  408.0 9.17 9
  408.2 7.26 7
  408.3 11.52 11
  408.4 13.75 13
  408.5 11.82 11
  408.7 7.92 7
  408.8 11.05 11
  408.9 14.78 14
  409.0 15.78 15
  409.1 13.58 13
  409.4 9.31 9
  409.5 12.45 12
  409.6 15.3 15
  409.7 15.23 15
  409.8 11.98 11
  410.1 8.52 8
  410.2 12.49 12
  410.3 15.24 15
  410.4 14.39 14
  410.5 10.38 10
  410.7 5.7 5
  410.8 8.75 8
  410.9 12.91 12
  411.0 14.61 14
  411.1 12.45 12
  411.4 8.28 8
  411.5 12.55 12
  411.6 15.86 15
  411.7 15.82 15
  411.8 12.78 12
  412.6 7.18 7
  412.7 10.52 10
  412.8 15.0 14
  412.9 16.71 16
  413.0 13.73 13
  413.3 7.7 7
  413.4 12.04 12
  413.5 14.63 14
  413.6 13.39 13
  413.7 9.65 9
  413.9 7.38 7
  414.0 11.22 11
  414.1 15.02 15
  414.2 15.27 15
  414.3 11.6 11
  414.5 7.18 7
  414.6 11.54 11
  414.7 17.07 17
  414.8 18.77 18
  414.9 14.87 14
  415.2 8.28 8
  415.3 14.07 14
  415.4 17.87 17
  415.5 16.27 16
  415.6 10.46 10
  415.8 4.77 4
  415.9 9.41 9
  416.0 15.11 15
  416.1 17.28 17
  416.2 14.8 14
  416.5 9.56 9
  416.6 12.91 12
  416.7 14.82 14
  416.8 13.19 13
  417.1 8.07 8
  417.2 11.77 11
  417.3 14.94 14
  417.4 14.88 14
  417.5 11.52 11
  417.7 6.4 6
  417.8 9.19 9
  417.9 13.5 13
  418.0 15.72 15
  418.1 14.23 14
  418.4 9.91 9
  418.5 13.18 13
  418.6 15.54 15
  418.7 14.41 14
  418.8 10.21 10
  419.0 6.67 6
  419.1 11.21 11
  419.2 16.24 16
  419.3 17.12 17
  419.4 12.87 12
  419.6 5.62 5
  419.7 9.52 9
  419.8 15.34 15
  419.9 17.96 17
  420.0 15.63 15
  420.1 10.8 10
  420.3 7.67 7
  420.4 11.21 11
  420.5 14.73 14
  420.6 14.87 14
  420.7 11.32 11
  420.9 7.14 7
  421.0 11.01 10
  421.1 15.75 15
  421.2 17.29 17
  421.3 14.43 14
  421.4 9.59 9
  421.6 7.68 7
  421.7 12.29 12
  421.8 16.63 16
  421.9 16.82 16
  422.0 12.48 12
  422.8 7.06 7
  422.9 10.46 10
  423.0 15.43 15
  423.1 18.39 18
  423.2 16.64 16
  423.3 10.92 10
  423.5 5.02 5
  423.6 9.48 9
  423.7 14.67 14
  423.8 15.99 15
  423.9 13.05 13
  424.1 9.43 9
  424.2 12.98 12
  424.3 16.74 16
  424.4 16.95 16
  424.5 12.82 12
  424.8 8.0 7
  424.9 13.23 13
  425.0 16.15 16
  425.1 14.25 14
  425.2 9.52 9
  425.4 7.19 7
  425.5 11.29 11
  425.6 15.12 15
  425.7 15.64 15
  425.8 12.69 12
  426.1 9.56 9
  426.2 12.61 12
  426.3 14.7 14
  426.4 14.27 14
  426.5 11.29 11
  426.7 7.04 7
  426.8 9.96 9
  426.9 13.9 13
  427.0 14.86 14
  427.1 11.74 11
  427.3 7.04 7
  427.4 10.72 10
  427.5 15.63 15
  427.6 17.27 17
  427.7 13.85 13
  428.0 6.66 6
  428.1 12.33 12
  428.2 16.87 16
  428.3 16.91 16
  428.4 13.15 13
  429.3 8.97 8
  429.4 12.99 12
  429.5 15.76 15
  429.6 14.84 14
  429.7 11.04 11
  429.9 8.31 8
  430.0 12.4 12
  430.1 16.27 16
  430.2 16.08 16
  430.3 11.65 11
  430.5 5.87 5
  430.6 9.83 9
  430.7 15.11 15
  430.8 16.98 16
  430.9 13.81 13
  431.2 8.61 8
  431.3 13.46 13
  431.4 16.71 16
  431.5 15.83 15
  431.6 11.86 11
  431.8 8.2 8
  431.9 11.69 11
  432.0 15.58 15
  432.1 16.19 16
  432.2 12.75 12
  433.1 7.02 7
  433.2 13.3 13
  433.3 18.25 18
  433.4 17.76 17
  433.5 12.55 12
  433.7 5.84 5
  433.8 9.25 9
  433.9 14.15 14
  434.0 16.15 16
  434.1 13.43 13
  434.4 7.11 7
  434.5 12.49 12
  434.6 17.09 17
  434.7 17.16 17
  434.8 12.91 12
  435.0 7.26 7
  435.1 10.58 10
  435.2 14.65 14
  435.3 15.06 15
  435.4 11.01 10
  435.7 6.35 6
  435.8 11.01 10
  435.9 14.1 14
  436.0 13.49 13
  436.1 10.2 10
  436.3 7.38 7
  436.4 10.34 10
  436.5 13.78 13
  436.6 14.75 14
  436.7 12.69 12
  436.9 9.61 9
  437.0 11.77 11
  437.1 14.35 14
  437.2 14.79 14
  437.3 12.09 12
  437.6 6.31 6
  437.7 11.64 11
  437.8 16.55 16
  437.9 16.75 16
  438.0 12.24 12
  438.2 6.87 6
  438.3 10.58 10
  438.4 14.78 14
  438.5 15.9 15
  438.6 13.54 13
  438.9 10.04 10
  439.0 13.05 13
  439.1 14.9 14
  439.2 13.78 13
  439.3 10.3 10
  439.5 7.59 7
  439.6 11.64 11
  439.7 16.24 16
  439.8 17.53 17
  439.9 14.92 14
  441.4 7.8 7
  441.5 10.88 10
  441.6 14.51 14
  441.7 15.31 15
  441.8 12.48 12
  442.1 8.76 8
  442.2 12.75 12
  442.3 15.52 15
  442.4 14.35 14
  442.5 9.89 9
  442.7 6.39 6
  442.8 10.33 10
  442.9 14.17 14
  443.0 14.66 14
  443.1 11.96 11
  443.3 9.43 9
  443.4 12.51 12
  443.5 15.76 15
  443.6 16.24 16
  443.7 13.45 13
  444.0 10.0 9
  444.1 14.13 14
  444.2 16.88 16
  444.3 15.42 15
  444.4 10.37 10
  444.6 6.08 6
  444.7 10.7 10
  444.8 15.42 15
  444.9 16.03 16
  445.0 12.36 12
  445.2 6.76 6
  445.3 9.85 9
  445.4 14.91 14
  445.5 17.92 17
  445.6 16.18 16
  445.7 10.96 10
  445.9 7.36 7
  446.0 11.9 11
  446.1 15.92 15
  446.2 15.52 15
  446.3 10.92 10
  446.5 4.65 4
  446.6 7.92 7
  446.7 12.85 12
  446.8 15.28 15
  446.9 13.46 13
  447.0 9.29 9
  447.2 7.26 7
  447.3 10.7 10
  447.4 13.35 13
  447.5 12.62 12
  447.8 9.01 9
  447.9 13.03 13
  448.0 15.9 15
  448.1 15.07 15
  448.2 11.18 11
  448.4 7.59 7
  448.5 11.33 11
  448.6 15.79 15
  448.7 16.99 16
  448.8 13.63 13
  449.1 7.36 7
  449.2 12.06 12
  449.3 15.51 15
  449.4 15.0 14
  449.5 10.96 10
  449.7 5.42 5
  449.8 8.48 8
  449.9 12.98 12
  450.0 14.98 14
  450.1 12.82 12
  450.4 6.9 6
  450.5 11.33 11
  450.6 15.6 15
  450.7 16.06 16
  450.8 12.1 12
  451.0 6.31 6
  451.1 10.13 10
  451.2 14.78 14
  451.3 15.63 15
  451.4 12.25 12
  451.6 7.48 7
  451.7 10.21 10
  451.8 13.9 13
  451.9 15.43 15
  452.0 13.62 13
  452.1 9.85 9
  452.3 7.38 7
  452.4 10.74 10
  452.5 14.26 14
  452.6 14.65 14
  452.7 11.2 11
  452.9 5.23 5
  453.0 8.47 8
  453.1 14.11 14
  453.2 17.44 17
  453.3 15.51 15
  453.4 10.04 10
  453.6 6.8 6
  453.7 11.14 11
  453.8 14.73 14
  453.9 14.65 14
  454.2 10.13 10
  454.3 13.18 13
  454.4 16.2 16
  454.5 16.22 16
  454.6 12.66 12
  454.9 8.81 8
  455.0 13.34 13
  455.1 16.39 16
  455.2 15.64 15
  455.3 12.02 12
  455.5 9.15 9
  455.6 12.44 12
  455.7 15.66 15
  455.8 15.75 15
  455.9 12.45 12
  456.8 10.85 10
  456.9 13.66 13
  457.0 15.23 15
  457.1 13.91 13
  457.2 10.26 10
  457.4 6.88 6
  457.5 10.36 10
  457.6 14.49 14
  457.7 15.35 15
  457.8 11.96 11
  458.1 8.48 8
  458.2 13.31 13
  458.3 16.34 16
  458.4 15.32 15
  458.5 11.3 11
  458.7 7.24 7
  458.8 10.07 10
  458.9 13.1 13
  459.0 13.49 13
  459.1 11.34 11
  459.3 9.36 9
  459.4 11.54 11
  459.5 14.13 14
  459.6 15.08 15
  459.7 13.39 13
  459.8 10.0 9
  460.0 8.15 8
  460.1 11.77 11
  460.2 15.82 15
  460.3 16.95 16
  460.4 14.13 14
  461.3 8.65 8
  461.4 12.34 12
  461.5 15.44 15
  461.6 15.22 15
  461.7 11.86 11
  461.9 8.52 8
  462.0 11.56 11
  462.1 14.53 14
  462.2 14.34 14
  462.3 10.85 10
  462.5 6.15 6
  462.6 9.2 9
  462.7 13.7 13
  462.8 16.03 16
  462.9 14.27 14
  463.0 9.68 9
  463.2 6.2 6
  463.3 10.25 10
  463.4 14.06 14
  463.5 13.77 13
  463.6 9.81 9
  463.8 7.15 7
  463.9 11.22 11
  464.0 14.84 14
  464.1 15.04 15
  464.2 12.0 11
  464.5 8.44 8
  464.6 12.45 12
  464.7 15.15 15
  464.8 14.25 14
  464.9 10.65 10
  465.1 7.58 7
  465.2 10.69 10
  465.3 14.17 14
  465.4 14.79 14
  465.5 11.85 11
  466.4 7.59 7
  466.5 12.53 12
  466.6 16.18 16
  466.7 15.66 15
  466.8 11.94 11
  467.0 8.44 8
  467.1 10.88 10
  467.2 13.46 13
  467.3 13.51 13
  467.4 10.48 10
  467.6 6.34 6
  467.7 10.15 10
  467.8 15.5 15
  467.9 17.99 17
  468.0 15.66 15
  468.1 10.7 10
  468.3 8.71 8
  468.4 13.11 13
  468.5 16.4 16
  468.6 15.03 15
  468.7 9.72 9
  468.9 5.23 5
  469.0 9.95 9
  469.1 15.02 15
  469.2 16.36 16
  469.3 13.43 13
  469.6 7.87 7
  469.7 11.7 11
  469.8 14.92 14
  469.9 14.91 14
  470.0 11.72 11
  470.2 8.27 8
  470.3 12.05 12
  470.4 16.31 16
  470.5 16.94 16
  470.6 13.37 13
  471.5 8.64 8
  471.6 11.09 11
  471.7 14.71 14
  471.8 16.51 16
  471.9 14.54 14
  472.2 8.65 8
  472.3 13.06 13
  472.4 16.38 16
  472.5 15.28 15
  472.6 10.61 10
  472.8 7.24 7
  472.9 11.88 11
  473.0 15.95 15
  473.1 15.31 15
  473.2 10.37 10
  473.4 4.99 4
  473.5 8.84 8
  473.6 13.97 13
  473.7 16.74 16
  473.8 15.59 15
  474.1 10.89 10
  474.2 13.98 13
  474.3 15.76 15
  474.4 13.91 13
  474.5 9.41 9
  474.7 7.16 7
  474.8 12.18 12
  474.9 16.86 16
  475.0 17.05 17
  475.1 12.7 12
  476.0 8.57 8
  476.1 12.41 12
  476.2 15.22 15
  476.3 13.82 13
  476.4 9.11 9
  476.6 5.66 5
  476.7 9.81 9
  476.8 14.27 14
  476.9 15.74 15
  477.0 13.54 13
  477.9 7.64 7
  478.0 12.37 12
  478.1 16.35 16
  478.2 16.6 16
  478.3 12.89 12
  478.6 8.37 8
  478.7 12.75 12
  478.8 15.23 15
  478.9 13.7 13
  479.2 9.33 9
  479.3 13.31 13
  479.4 16.14 16
  479.5 15.4 15
  479.6 11.64 11
  479.8 7.03 7
  479.9 10.11 10
  480.0 14.41 14
  480.1 16.07 16
  480.2 13.43 13
  480.5 8.28 8
  480.6 13.05 13
  480.7 16.24 16
  480.8 14.75 14
  480.9 10.04 10
  481.1 8.13 8
  481.2 12.82 12
  481.3 16.36 16
  481.4 15.66 15
  481.5 11.68 11
  481.7 7.66 7
  481.8 10.65 10
  481.9 14.27 14
  482.0 15.42 15
  482.1 13.27 13
  482.4 8.84 8
  482.5 11.65 11
  482.6 13.99 13
  482.7 13.95 13
  482.8 11.36 11
  483.0 8.08 8
  483.1 11.66 11
  483.2 16.42 16
  483.3 17.83 17
  483.4 14.17 14
  483.7 8.87 8
  483.8 14.62 14
  483.9 18.28 18
  484.0 16.78 16
  484.1 11.7 11
  484.3 8.41 8
  484.4 12.2 12
  484.5 15.18 15
  484.6 14.66 14
  484.7 11.38 11
  484.9 7.8 7
  485.0 10.13 10
  485.1 13.58 13
  485.2 15.48 15
  485.3 14.25 14
  485.4 10.7 10
  485.6 8.72 8
  485.7 12.51 12
  485.8 16.0 15
  485.9 15.95 15
  486.0 12.49 12
  486.2 8.32 8
  486.3 11.2 11
  486.4 14.86 14
  486.5 16.03 16
  486.6 13.78 13
  487.5 8.64 8
  487.6 12.5 12
  487.7 15.67 15
  487.8 15.34 15
  487.9 11.69 11
  488.8 7.9 7
  488.9 12.73 12
  489.0 16.34 16
  489.1 15.44 15
  489.2 10.72 10
  489.4 5.87 5
  489.5 9.75 9
  489.6 14.43 14
  489.7 16.08 16
  489.8 13.77 13
  490.1 9.04 9
  490.2 12.49 12
  490.3 14.9 14
  490.4 14.06 14
  490.5 10.66 10
  490.7 7.68 7
  490.8 10.62 10
  490.9 13.85 13
  491.0 14.35 14
  491.1 11.53 11
  491.3 7.34 7
  491.4 10.93 10
  491.5 15.67 15
  491.6 17.07 17
  491.7 13.73 13
  492.0 8.43 8
  492.1 12.17 12
  492.2 14.18 14
  492.3 12.73 12
  492.6 8.77 8
  492.7 12.66 12
  492.8 15.66 15
  492.9 15.0 14
  493.0 10.88 10
  493.9 5.91 5
  494.0 9.52 9
  494.1 13.49 13
  494.2 14.45 14
  494.3 11.81 11
  494.5 6.68 6
  494.6 9.28 9
  494.7 13.7 13
  494.8 15.92 15
  494.9 14.07 14
  495.2 9.83 9
  495.3 13.34 13
  495.4 15.51 15
  495.5 14.46 14
  495.6 10.93 10
  495.8 7.38 7
  495.9 10.25 10
  496.0 13.67 13
  496.1 14.46 14
  496.2 11.92 11
  496.4 7.91 7
  496.5 10.81 10
  496.6 14.75 14
  496.7 16.1 16
  496.8 13.58 13
  497.1 9.75 9
  497.2 13.93 13
  497.3 16.27 16
  497.4 14.58 14
  497.5 10.34 10
  497.7 8.09 8
  497.8 11.78 11
  497.9 15.47 15
  498.0 16.32 16
  498.1 13.33 13
  498.4 6.94 6
  498.5 12.81 12
  498.6 17.85 17
  498.7 17.69 17
  498.8 12.71 12
  499.6 7.23 7
  499.7 9.59 9
  499.8 12.83 12
  499.9 14.29 14
  500.0 12.87 12
  500.3 10.29 10
  500.4 13.79 13
  500.5 16.1 16
  500.6 15.04 15
  500.7 11.52 11
  500.9 8.4 8
  501.0 10.85 10
  501.1 13.69 13
  501.2 14.49 14
  501.3 12.32 12
  501.6 8.05 8
  501.7 12.4 12
  501.8 15.7 15
  501.9 14.92 14
  502.0 10.7 10
  502.2 7.82 7
  502.3 12.5 12
  502.4 16.87 16
  502.5 16.82 16
  502.6 12.3 12
  502.9 7.79 7
  503.0 13.21 13
  503.1 16.98 16
  503.2 15.88 15
  503.3 10.65 10
  503.5 5.59 5
  503.6 10.5 10
  503.7 16.19 16
  503.8 17.6 17
  503.9 13.47 13
  504.0 7.28 7
  504.2 6.12 6
  504.3 10.89 10
  504.4 13.74 13
  504.5 11.92 11
  504.8 6.18 6
  504.9 11.21 11
  505.0 14.63 14
  505.1 13.27 13
  505.2 8.37 8
  505.4 4.95 4
  505.5 10.25 10
  505.6 16.18 16
  505.7 18.03 18
  505.8 14.34 14
  506.1 6.72 6
  506.2 13.18 13
  506.3 18.73 18
  506.4 18.72 18
  506.5 13.23 13
  506.7 6.39 6
  506.8 11.17 11
  506.9 16.91 16
  507.0 18.09 18
  507.1 13.87 13
  507.9 5.7 5
  508.0 9.47 9
  508.1 14.9 14
  508.2 17.95 17
  508.3 16.15 16
  508.4 10.94 10
  508.6 5.71 5
  508.7 9.44 9
  508.8 14.27 14
  508.9 15.95 15
  509.0 12.91 12
  509.3 7.76 7
  509.4 12.97 12
  509.5 16.6 16
  509.6 15.66 15
  509.7 11.1 11
  509.9 7.23 7
  510.0 11.09 11
  510.1 15.18 15
  510.2 15.9 15
  510.3 12.69 12
  511.2 8.65 8
  511.3 11.16 11
  511.4 12.67 12
  511.5 12.21 12
  511.8 11.3 11
  511.9 14.19 14
  512.0 16.51 16
  512.1 16.06 16
  512.2 12.51 12
  512.5 8.64 8
  512.6 13.87 13
  512.7 17.33 17
  512.8 15.83 15
  512.9 10.92 10
  513.1 8.41 8
  513.2 12.34 12
  513.3 15.0 14
  513.4 13.89 13
  513.5 9.79 9
  513.7 5.9 5
  513.8 10.01 9
  513.9 15.24 15
  514.0 17.57 17
  514.1 15.63 15
  514.2 11.44 11
  514.4 8.92 8
  514.5 12.21 12
  514.6 15.11 15
  514.7 14.43 14
  514.8 10.34 10
  515.0 6.18 6
  515.1 9.67 9
  515.2 13.81 13
  515.3 15.31 15
  515.4 13.38 13
  515.7 10.96 10
  515.8 14.75 14
  515.9 17.15 17
  516.0 15.91 15
  516.1 11.56 11
  516.3 7.24 7
  516.4 11.36 11
  516.5 16.14 16
  516.6 17.05 17
  516.7 13.31 13
  517.0 9.12 9
  517.1 13.07 13
  517.2 15.1 15
  517.3 13.98 13
  517.6 10.3 10
  517.7 13.02 13
  517.8 14.92 14
  517.9 13.34 13
  518.0 8.69 8
  518.2 5.41 5
  518.3 9.79 9
  518.4 13.78 13
  518.5 13.85 13
  518.6 10.32 10
  518.8 5.91 5
  518.9 9.08 9
  519.0 13.82 13
  519.1 16.39 16
  519.2 14.55 14
  519.3 9.85 9
  519.5 6.59 6
  519.6 10.37 10
  519.7 14.22 14
  519.8 14.7 14
  519.9 11.54 11
  520.1 7.59 7
  520.2 10.82 10
  520.3 14.67 14
  520.4 15.64 15
  520.5 12.83 12
  520.6 8.48 8
  520.8 7.04 7
  520.9 10.24 10
  521.0 12.58 12
  521.1 12.02 12
  521.4 7.99 7
  521.5 11.72 11
  521.6 15.43 15
  521.7 15.79 15
  521.8 12.2 12
  522.0 6.84 6
  522.1 10.37 10
  522.2 15.32 15
  522.3 17.21 17
  522.4 14.26 14
  522.5 8.69 8
  522.7 5.67 5
  522.8 10.54 10
  522.9 15.39 15
  523.0 16.2 16
  523.1 12.66 12
  523.3 8.29 8
  523.4 12.0 11
  523.5 15.95 15
  523.6 16.32 16
  523.7 12.71 12
  524.0 7.08 7
  524.1 10.78 10
  524.2 14.02 14
  524.3 14.21 14
  524.4 11.29 11
  524.6 7.48 7
  524.7 10.28 10
  524.8 13.9 13
  524.9 15.14 15
  525.0 12.9 12
  525.3 9.07 9
  525.4 13.14 13
  525.5 15.87 15
  525.6 14.51 14
  525.7 9.89 9
  525.9 5.74 5
  526.0 9.43 9
  526.1 13.54 13
  526.2 14.67 14
  526.3 12.38 12
  526.5 8.43 8
  526.6 10.81 10
  526.7 14.18 14
  526.8 15.08 15
  526.9 12.24 12
  527.2 8.36 8
  527.3 12.49 12
  527.4 15.07 15
  527.5 14.3 14
  527.6 11.26 11
  527.8 8.48 8
  527.9 11.08 11
  528.0 14.5 14
  528.1 15.96 15
  528.2 13.9 13
  528.5 9.35 9
  528.6 13.69 13
  528.7 16.88 16
  528.8 16.28 16
  528.9 12.22 12
  529.1 6.86 6
  529.2 10.03 10
  529.3 14.39 14
  529.4 15.79 15
  529.5 13.03 13
  529.7 8.73 8
  529.8 12.37 12
  529.9 16.66 16
  530.0 17.07 17
  530.1 12.5 12
  531.0 7.11 7
  531.1 12.49 12
  531.2 17.29 17
  531.3 17.17 17
  531.4 12.33 12
  531.6 6.26 6
  531.7 9.47 9
  531.8 13.82 13
  531.9 15.68 15
  532.0 13.55 13
  532.1 9.07 9
  532.3 7.03 7
  532.4 11.14 11
  532.5 14.71 14
  532.6 14.8 14
  532.7 11.7 11
  533.5 6.54 6
  533.6 9.43 9
  533.7 14.05 14
  533.8 16.87 16
  533.9 15.62 15
  534.0 11.24 11
  534.2 6.76 6
  534.3 9.72 9
  534.4 13.17 13
  534.5 14.03 14
  534.6 11.6 11
  535.5 7.04 7
  535.6 10.44 10
  535.7 14.55 14
  535.8 16.34 16
  535.9 14.13 14
  536.0 9.67 9
  536.2 8.27 8
  536.3 12.18 12
  536.4 14.59 14
  536.5 13.13 13
  536.8 9.87 9
  536.9 14.73 14
  537.0 17.77 17
  537.1 16.06 16
  537.2 10.77 10
  537.4 5.54 5
  537.5 9.11 9
  537.6 13.58 13
  537.7 15.26 15
  537.8 12.73 12
  538.1 7.83 7
  538.2 12.66 12
  538.3 15.34 15
  538.4 13.19 13
  538.7 7.15 7
  538.8 12.48 12
  538.9 17.19 17
  539.0 17.76 17
  539.1 14.03 14
  540.0 6.19 6
  540.1 9.91 9
  540.2 13.46 13
  540.3 13.39 13
  540.4 9.75 9
  540.6 6.52 6
  540.7 10.61 10
  540.8 14.77 14
  540.9 15.39 15
  541.0 12.42 12
  541.9 5.49 5
  542.0 9.39 9
  542.1 13.74 13
  542.2 15.47 15
  542.3 13.69 13
  543.2 8.12 8
  543.3 13.39 13
  543.4 17.2 17
  543.5 16.67 16
  543.6 12.51 12
  544.4 6.74 6
  544.5 9.68 9
  544.6 14.22 14
  544.7 16.15 16
  544.8 13.41 13
  544.9 8.08 8
  545.1 6.24 6
  545.2 11.2 11
  545.3 15.35 15
  545.4 15.55 15
  545.5 12.24 12
  545.7 7.99 7
  545.8 11.17 11
  545.9 15.18 15
  546.0 15.67 15
  546.1 11.17 11
  546.4 4.91 4
  546.5 11.13 11
  546.6 15.48 15
  546.7 15.0 14
  546.8 11.14 11
  547.0 7.75 7
  547.1 10.74 10
  547.2 14.05 14
  547.3 14.65 14
  547.4 11.81 11
  547.6 6.8 6
  547.7 9.96 9
  547.8 15.03 15
  547.9 17.51 17
  548.0 14.79 14
  548.1 8.85 8
  548.3 5.86 5
  548.4 11.6 11
  548.5 17.05 17
  548.6 17.59 17
  548.7 12.98 12
  548.9 6.6 6
  549.0 10.7 10
  549.1 16.32 16
  549.2 18.52 18
  549.3 15.42 15
  549.4 9.55 9
  549.6 7.47 7
  549.7 13.05 13
  549.8 17.19 17
  549.9 15.5 15
  550.0 8.95 8
  550.2 3.2 3
  550.3 9.0 8
  550.4 15.68 15
  550.5 17.8 17
  550.6 14.23 14
  551.5 4.51 4
  551.6 12.36 12
  551.7 21.77 21
  551.8 27.36 27
  551.9 32.11 32
  552.0 43.76 43
  552.1 59.35 59
  552.2 63.59 63
  552.3 48.78 48
  552.4 26.04 26
  552.5 10.58 10
  552.7 6.39 6
  552.8 9.65 9
  552.9 14.18 14
  553.0 17.04 17
  553.1 15.63 15
  553.2 11.17 11
  553.4 8.56 8
  553.5 12.38 12
  553.6 15.42 15
  553.7 14.7 14
  553.8 10.64 10
  554.0 6.4 6
  554.1 10.4 10
  554.2 15.95 15
  554.3 18.73 18
  554.4 16.55 16
  554.5 11.3 11
  554.7 8.29 8
  554.8 12.34 12
  554.9 15.86 15
  555.0 15.75 15
  555.1 12.32 12
  555.3 7.82 7
  555.4 10.72 10
  555.5 14.9 14
  555.6 16.55 16
  555.7 13.79 13
  556.0 7.56 7
  556.1 12.26 12
  556.2 15.67 15
  556.3 14.96 14
  556.4 11.01 10
  556.6 6.87 6
  556.7 10.32 10
  556.8 14.73 14
  556.9 16.18 16
  557.0 13.22 13
  557.3 8.59 8
  557.4 13.83 13
  557.5 17.21 17
  557.6 15.55 15
  557.9 8.63 8
  558.0 14.23 14
  558.1 18.55 18
  558.2 17.92 17
  558.3 13.27 13
  558.5 7.52 7
  558.6 10.58 10
  558.7 14.91 14
  558.8 16.34 16
  558.9 13.25 13
  559.2 8.67 8
  559.3 12.69 12
  559.4 15.22 15
  559.5 14.27 14
  559.6 10.58 10
  559.8 6.91 6
  559.9 10.16 10
  560.0 13.99 13
  560.1 15.04 15
  560.2 12.45 12
  560.5 8.24 8
  560.6 12.79 12
  560.7 16.07 16
  560.8 14.88 14
  560.9 9.97 9
  561.1 5.57 5
  561.2 9.91 9
  561.3 14.95 14
  561.4 16.84 16
  561.5 14.59 14
  561.8 10.01 9
  561.9 14.03 14
  562.0 16.27 16
  562.1 14.21 14
  562.2 9.39 9
  562.4 7.12 7
  562.5 11.29 11
  562.6 14.8 14
  562.7 15.02 15
  562.8 12.21 12
  563.0 8.6 8
  563.1 11.42 11
  563.2 15.1 15
  563.3 15.9 15
  563.4 12.67 12
  563.6 7.12 7
  563.7 10.44 10
  563.8 15.52 15
  563.9 17.65 17
  564.0 14.67 14
  564.1 9.13 9
  564.3 7.46 7
  564.4 12.59 12
  564.5 17.31 17
  564.6 17.92 17
  564.7 13.74 13
  565.0 8.01 8
  565.1 12.53 12
  565.2 14.84 14
  565.3 13.42 13
  566.2 6.62 6
  566.3 12.17 12
  566.4 16.96 16
  566.5 17.44 17
  566.6 13.98 13
  566.8 9.07 9
  566.9 11.76 11
  567.0 15.66 15
  567.1 17.02 17
  567.2 14.14 14
  567.3 9.21 9
  567.5 7.14 7
  567.6 11.45 11
  567.7 15.9 15
  567.8 17.16 17
  567.9 14.09 14
  568.2 8.09 8
  568.3 12.54 12
  568.4 15.52 15
  568.5 14.63 14
  568.8 9.39 9
  568.9 13.07 13
  569.0 15.31 15
  569.1 12.98 12
  569.4 7.24 7
  569.5 13.09 13
  569.6 17.19 17
  569.7 16.28 16
  569.8 11.5 11
  570.0 6.04 6
  570.1 9.48 9
  570.2 14.61 14
  570.3 17.41 17
  570.4 15.47 15
  570.5 10.24 10
  570.7 6.83 6
  570.8 11.49 11
  570.9 16.04 16
  571.0 16.72 16
  571.1 13.15 13
  572.0 8.41 8
  572.1 13.3 13
  572.2 16.56 16
  572.3 15.54 15
  572.4 11.53 11
  572.6 8.2 8
  572.7 11.42 11
  572.8 14.99 14
  572.9 15.39 15
  573.0 11.49 11
  573.3 7.55 7
  573.4 12.4 12
  573.5 14.82 14
  573.6 13.61 13
  573.7 10.58 10
  573.9 8.73 8
  574.0 11.33 11
  574.1 13.87 13
  574.2 13.57 13
  574.3 10.01 9
  574.5 6.08 6
  574.6 9.99 9
  574.7 14.41 14
  574.8 15.06 15
  574.9 11.28 11
  575.1 5.3 5
  575.2 8.57 8
  575.3 13.69 13
  575.4 16.27 16
  575.5 14.18 14
  575.6 9.41 9
  575.8 7.02 7
  575.9 10.89 10
  576.0 14.55 14
  576.1 15.02 15
  576.2 12.0 11
  576.5 9.17 9
  576.6 13.35 13
  576.7 16.02 16
  576.8 15.03 15
  576.9 11.36 11
  577.1 8.76 8
  577.2 12.44 12
  577.3 15.91 15
  577.4 15.78 15
  577.5 11.77 11
  577.8 7.54 7
  577.9 12.61 12
  578.0 16.22 16
  578.1 15.63 15
  578.2 11.64 11
  578.4 8.13 8
  578.5 11.44 11
  578.6 14.61 14
  578.7 14.46 14
  578.8 10.97 10
  579.0 6.79 6
  579.1 10.42 10
  579.2 15.18 15
  579.3 16.63 16
  579.4 13.33 13
  580.3 9.43 9
  580.4 14.21 14
  580.5 17.97 17
  580.6 17.97 17
  580.7 14.11 14
  581.6 7.68 7
  581.7 11.34 11
  581.8 14.38 14
  581.9 13.97 13
  582.0 10.45 10
  582.2 7.12 7
  582.3 10.37 10
  582.4 14.22 14
  582.5 15.54 15
  582.6 13.15 13
  582.9 9.44 9
  583.0 14.7 14
  583.1 18.03 18
  583.2 16.19 16
  583.3 10.81 10
  583.5 6.76 6
  583.6 10.68 10
  583.7 14.87 14
  583.8 15.92 15
  583.9 12.99 12
  584.2 9.27 9
  584.3 14.34 14
  584.4 17.33 17
  584.5 15.62 15
  584.6 10.77 10
  584.8 7.44 7
  584.9 11.14 11
  585.0 14.46 14
  585.1 14.17 14
  585.2 10.72 10
  585.4 8.41 8
  585.5 12.05 12
  585.6 15.59 15
  585.7 16.47 16
  585.8 14.46 14
  586.7 7.44 7
  586.8 12.99 12
  586.9 16.46 16
  587.0 14.94 14
  587.1 9.93 9
  587.3 5.5 5
  587.4 9.44 9
  587.5 14.22 14
  587.6 15.95 15
  587.7 13.29 13
  588.0 8.77 8
  588.1 13.38 13
  588.2 16.02 16
  588.3 14.01 13
  588.4 8.91 8
  588.6 5.86 5
  588.7 10.62 10
  588.8 15.34 15
  588.9 15.98 15
  589.0 12.1 12
  590.5 6.78 6
  590.6 9.39 9
  590.7 12.99 12
  590.8 14.05 14
  590.9 11.36 11
  591.2 8.04 8
  591.3 12.81 12
  591.4 16.19 16
  591.5 15.48 15
  591.6 11.36 11
  591.8 7.11 7
  591.9 10.74 10
  592.0 14.91 14
  592.1 15.8 15
  592.2 12.61 12
  592.5 9.32 9
  592.6 14.35 14
  592.7 17.51 17
  592.8 16.43 16
  592.9 12.53 12
  593.1 9.32 9
  593.2 12.5 12
  593.3 15.74 15
  593.4 15.4 15
  593.5 10.84 10
  593.7 5.29 5
  593.8 9.89 9
  593.9 15.62 15
  594.0 17.75 17
  594.1 15.15 15
  594.4 9.72 9
  594.5 14.17 14
  594.6 17.69 17
  594.7 16.95 16
  594.8 12.29 12
  595.0 7.14 7
  595.1 11.0 10
  595.2 15.51 15
  595.3 16.68 16
  595.4 13.9 13
  596.3 7.68 7
  596.4 12.45 12
  596.5 16.94 16
  596.6 17.69 17
  596.7 14.35 14
  597.6 9.41 9
  597.7 14.79 14
  597.8 18.13 18
  597.9 16.0 15
  598.0 9.84 9
  598.2 4.94 4
  598.3 9.73 9
  598.4 14.66 14
  598.5 15.7 15
  598.6 12.67 12
  598.9 9.25 9
  599.0 13.3 13
  599.1 16.2 16
  599.2 15.56 15
  599.3 11.89 11
//
