ACCESSION: MSBNK-RIKEN_NPDepo-NGA00325
RECORD_TITLE: Trachelanthine; LC-ESI-QQQ; MS2; Frag=135.0V CID@25.0; [M+H]+
DATE: 2018.04.04
AUTHORS: Nogawa T, Okano A, CSRS, RIKEN
LICENSE: CC BY
COMMENT: Origin: Plant
COMMENT: Formula(Parent): C15H27NO5
COMMENT: Bottle Name:Trachelanthine
COMMENT: PRIME Parent Name:Trachelanthine
COMMENT: PRIME in-house No.:V0316
COMMENT: SubCategory_DNP: Alkaloids derived from ornithine, Pyrrolizidine alkaloids
CH$NAME: Trachelanthamine oxide
CH$NAME: Trachelanthamine N-oxide
CH$NAME: ((7aS,1R)-4-hydroxyperhydropyrrolizinyl)methyl 2,3-dihydroxy-2-(methylethyl)butanoate
CH$NAME: Trachelanthine
CH$COMPOUND_CLASS: Alkaloids
CH$FORMULA: C15H27NO5
CH$EXACT_MASS: 301.3861
CH$SMILES: CC(C)C(O)(C(=O)OC[C@@H]1CC[N+]2([O-])CCC[C@@H]12)C(C)O
CH$IUPAC: InChI=1S/C15H27NO5/c1-10(2)15(19,11(3)17)14(18)21-9-12-6-8-16(20)7-4-5-13(12)16/h10-13,17,19H,4-9H2,1-3H3/t11?,12-,13-,15?,16?/m0/s1
CH$LINK: CAS 510-19-0
CH$LINK: CHEMSPIDER 10086
CH$LINK: INCHIKEY DLNWZIVYKQXLTN-IKZJNQNNSA-N
CH$LINK: PUBCHEM CID:20105825
AC$INSTRUMENT: Agilent 6410 Triple Quadrupole LC/MS system
AC$INSTRUMENT_TYPE: LC-ESI-QQQ
AC$MASS_SPECTROMETRY: MS_TYPE MS2
AC$MASS_SPECTROMETRY: ION_MODE POSITIVE
MS$FOCUSED_ION: PRECURSOR_TYPE [M+H]+
PK$SPLASH: splash10-0a4i-0901000000-2dc48b778d41d29e9c7d
PK$NUM_PEAK: 25
PK$PEAK: m/z int. rel.int.
  157.3 1.6 1
  157.4 4.1 4
  157.5 7.72 7
  157.6 12.46 12
  157.7 20.69 20
  157.8 36.24 36
  157.9 59.24 59
  158.0 82.86 82
  158.1 97.89 97
  158.2 100.0 99
  158.3 90.15 90
  158.4 70.27 70
  158.5 43.59 43
  158.6 17.66 17
  158.7 1.55 1
  301.7 2.05 2
  301.8 3.58 3
  301.9 6.02 6
  302.0 8.85 8
  302.1 11.18 11
  302.2 12.51 12
  302.3 12.67 12
  302.4 11.28 11
  302.5 8.09 8
  302.6 4.01 4
//
