ACCESSION: MSBNK-RIKEN_NPDepo-NGA02188
RECORD_TITLE: Songorine; LC-ESI-QQQ; MS2; Frag=135.0V CID@5.0; [M+H]+
DATE: 2018.04.04
AUTHORS: Nogawa T, Okano A, CSRS, RIKEN
LICENSE: CC BY
COMMENT: Origin: Plant
COMMENT: SubCategory_DNP: Terpenoid alkaloids, Diterpene alkaloid, Aconitum alkaloid
CH$NAME: Songorine
CH$COMPOUND_CLASS: Alkaloids
CH$FORMULA: C22H31NO3
CH$EXACT_MASS: 357.4973
CH$SMILES: C=C1[C@@H]2C[C@]3(C(CC2=O)[C@@]24C(O)CC[C@@]5(C)CN(CC)C2[C@@H]3CC54)[C@@H]1O
CH$IUPAC: InChI=1S/C22H31NO3/c1-4-23-10-20(3)6-5-17(25)22-15(20)7-13(18(22)23)21-9-12(11(2)19(21)26)14(24)8-16(21)22/h12-13,15-19,25-26H,2,4-10H2,1,3H3/t12-,13-,15?,16?,17?,18?,19+,20-,21-,22-/m0/s1
CH$LINK: CAS 509-24-0
CH$LINK: CHEMSPIDER 16736029
CH$LINK: INCHIKEY CBOSLVQFGANWTL-VTXPNNKDSA-N
AC$INSTRUMENT: Agilent 6410 Triple Quadrupole LC/MS system
AC$INSTRUMENT_TYPE: LC-ESI-QQQ
AC$MASS_SPECTROMETRY: MS_TYPE MS2
AC$MASS_SPECTROMETRY: ION_MODE POSITIVE
MS$FOCUSED_ION: PRECURSOR_TYPE [M+H]+
PK$SPLASH: splash10-0a4i-0009000000-17cd65c388b519d1eb61
PK$NUM_PEAK: 15
PK$PEAK: m/z int. rel.int.
  357.4 0.59 0
  357.5 2.22 2
  357.6 5.57 5
  357.7 11.19 11
  357.8 20.24 20
  357.9 34.38 34
  358.0 53.75 53
  358.1 74.86 74
  358.2 91.82 91
  358.3 100.0 99
  358.4 96.82 96
  358.5 80.71 80
  358.6 53.55 53
  358.7 24.06 24
  358.8 3.53 3
//
