ACCESSION: MSBNK-RIKEN_NPDepo-NGA05065
RECORD_TITLE: Hyrcanogenin; LC-ESI-QQQ; MS2; Frag=135.0V CID@15.0; [M+HCOO]-
DATE: 2018.04.04
AUTHORS: Nogawa T, Okano A, CSRS, RIKEN
LICENSE: CC BY
COMMENT: Origin: Plant, Cardanolides
CH$NAME: Hyrcanogenin
CH$COMPOUND_CLASS: Steroids
CH$FORMULA: C23H30O5
CH$EXACT_MASS: 386.4926
CH$SMILES: C[C@]12CCC3C(CCC4=CC(O)CC[C@@]43C=O)C1(O)CCC2C1=CC(=O)OC1
CH$IUPAC: InChI=1S/C23H30O5/c1-21-7-5-18-19(3-2-15-11-16(25)4-8-22(15,18)13-24)23(21,27)9-6-17(21)14-10-20(26)28-12-14/h10-11,13,16-19,25,27H,2-9,12H2,1H3/t16?,17?,18?,19?,21-,22-,23?/m1/s1
CH$LINK: CAS 14530-91-7
CH$LINK: INCHIKEY JPIDFRQBAGAXJM-NGIHOKHASA-N
AC$INSTRUMENT: Agilent 6410 Triple Quadrupole LC/MS system
AC$INSTRUMENT_TYPE: LC-ESI-QQQ
AC$MASS_SPECTROMETRY: MS_TYPE MS2
AC$MASS_SPECTROMETRY: ION_MODE NEGATIVE
MS$FOCUSED_ION: PRECURSOR_TYPE [M+HCOO]-
PK$SPLASH: splash10-000i-0009000000-23010dad0c57edf30a8d
PK$NUM_PEAK: 15
PK$PEAK: m/z int. rel.int.
  384.3 0.78 0
  384.4 2.78 2
  384.5 8.08 8
  384.6 15.81 15
  384.7 23.15 23
  384.8 30.8 30
  384.9 44.07 44
  385.0 65.25 65
  385.1 87.76 87
  385.2 100.0 99
  385.3 93.22 93
  385.4 67.6 67
  385.5 34.01 33
  385.6 8.44 8
  385.7 0.39 0
//
