ACCESSION: MSBNK-RIKEN_NPDepo-NGA04325
RECORD_TITLE: Pseudojervine; LC-ESI-QQQ; MS2; Frag=135.0V CID@25.0; [M+HCOO]-
DATE: 2018.04.04
AUTHORS: Nogawa T, Okano A, CSRS, RIKEN
LICENSE: CC BY
COMMENT: Origin: Plant
COMMENT: SubCategory_DNP: Steroidal alkaloids, Veratrum alkaloids
CH$NAME: Pseudojervine
CH$COMPOUND_CLASS: Alkaloids
CH$FORMULA: C33H49NO8
CH$EXACT_MASS: 587.7604
CH$SMILES: CC1=C2C(=O)[C@H]3C(CC=C4C[C@@H](OC5O[C@H](CO)[C@@H](O)[C@H](O)[C@H]5O)CC[C@@]43C)[C@@H]2CC[C@]12OC1C[C@H](C)CN[C@H]1[C@H]2C
CH$IUPAC: InChI=1S/C33H49NO8/c1-15-11-22-26(34-13-15)17(3)33(42-22)10-8-20-21-6-5-18-12-19(40-31-30(39)29(38)27(36)23(14-35)41-31)7-9-32(18,4)25(21)28(37)24(20)16(33)2/h5,15,17,19-23,25-27,29-31,34-36,38-39H,6-14H2,1-4H3/t15-,17+,19-,20-,21?,22?,23+,25+,26-,27+,29-,30+,31?,32-,33-/m0/s1
CH$LINK: CAS 36069-05-3
CH$LINK: CHEMSPIDER 16735984
CH$LINK: INCHIKEY HYDDDNUKNMMWBD-ORIQALLGSA-N
CH$LINK: PUBCHEM CID:16396498
AC$INSTRUMENT: Agilent 6410 Triple Quadrupole LC/MS system
AC$INSTRUMENT_TYPE: LC-ESI-QQQ
AC$MASS_SPECTROMETRY: MS_TYPE MS2
AC$MASS_SPECTROMETRY: ION_MODE NEGATIVE
MS$FOCUSED_ION: PRECURSOR_TYPE [M+HCOO]-
PK$SPLASH: splash10-00dr-4879787800-57b3cd9794603085aa5b
PK$NUM_PEAK: 3892
PK$PEAK: m/z int. rel.int.
  51.8 8.2 8
  51.9 10.16 10
  52.0 11.97 11
  52.1 13.28 13
  52.2 13.82 13
  52.3 13.05 13
  52.4 10.95 10
  52.5 8.58 8
  52.8 8.4 8
  52.9 10.43 10
  53.0 11.75 11
  53.1 11.8 11
  53.2 10.92 10
  53.3 9.67 9
  54.1 5.88 5
  54.2 7.43 7
  54.3 8.55 8
  54.4 8.42 8
  54.5 7.34 7
  54.6 6.51 6
  54.7 6.98 6
  54.8 8.45 8
  54.9 9.45 9
  55.0 9.73 9
  55.1 10.63 10
  55.2 12.64 12
  55.3 14.0 13
  55.4 12.77 12
  55.5 9.69 9
  55.7 7.64 7
  55.8 9.73 9
  55.9 11.71 11
  56.0 12.54 12
  56.1 12.27 12
  56.2 10.8 10
  56.5 8.36 8
  56.6 12.55 12
  56.7 15.87 15
  56.8 15.88 15
  56.9 13.38 13
  58.5 7.5 7
  58.6 10.49 10
  58.7 15.54 15
  58.8 19.08 19
  58.9 17.36 17
  59.0 11.62 11
  59.8 9.1 9
  59.9 11.16 11
  60.0 12.45 12
  60.1 12.65 12
  60.2 12.69 12
  60.3 13.08 13
  60.4 13.06 13
  60.5 11.94 11
  60.8 9.84 9
  60.9 11.24 11
  61.0 12.77 12
  61.1 13.8 13
  61.2 14.04 14
  61.3 13.71 13
  61.4 13.41 13
  61.5 13.4 13
  61.6 13.24 13
  62.5 8.83 8
  62.6 11.75 11
  62.7 14.49 14
  62.8 14.52 14
  62.9 12.38 12
  65.6 7.95 7
  65.7 10.57 10
  65.8 12.52 12
  65.9 12.25 12
  66.0 10.75 10
  66.1 9.71 9
  66.2 9.27 9
  66.6 8.1 8
  66.7 9.78 9
  66.8 11.87 11
  66.9 13.17 13
  67.0 12.9 12
  67.1 11.47 11
  67.2 9.93 9
  69.1 6.99 6
  69.2 10.49 10
  69.3 14.16 14
  69.4 15.25 15
  69.5 13.22 13
  69.6 10.22 10
  69.7 8.43 8
  69.8 7.84 7
  69.9 6.88 6
  70.6 2.15 2
  70.7 5.58 5
  70.8 20.57 20
  70.9 37.63 37
  71.0 41.41 41
  71.1 30.46 30
  71.2 19.66 19
  71.3 19.31 19
  71.4 22.6 22
  71.5 19.53 19
  71.6 11.91 11
  71.8 9.21 9
  71.9 13.2 13
  72.0 16.07 16
  72.1 16.52 16
  73.3 10.23 10
  73.4 11.71 11
  73.5 13.11 13
  73.6 13.42 13
  73.7 12.03 12
  74.7 10.71 10
  74.8 11.49 11
  74.9 12.41 12
  75.0 13.1 13
  75.1 13.08 13
  75.2 12.47 12
  75.3 12.27 12
  75.4 12.66 12
  75.5 12.51 12
  75.6 11.4 11
  75.7 10.77 10
  75.8 11.78 11
  75.9 13.35 13
  76.0 13.51 13
  76.1 12.05 12
  76.2 10.32 10
  76.5 9.1 9
  76.6 10.16 10
  76.7 11.85 11
  76.8 13.26 13
  76.9 13.36 13
  78.1 8.61 8
  78.2 10.11 10
  78.3 11.66 11
  78.4 11.92 11
  78.5 10.8 10
  79.8 8.87 8
  79.9 10.48 10
  80.0 11.89 11
  80.1 11.65 11
  80.4 8.79 8
  80.5 10.94 10
  80.6 12.12 12
  80.7 11.17 11
  80.8 9.15 9
  81.1 6.66 6
  81.2 7.78 7
  81.3 9.68 9
  81.4 11.46 11
  81.5 12.14 12
  81.6 11.67 11
  81.7 10.58 10
  83.9 9.69 9
  84.0 11.31 11
  84.1 12.56 12
  84.2 11.34 11
  84.3 8.34 8
  85.5 6.84 6
  85.6 8.37 8
  85.7 10.5 10
  85.8 11.87 11
  85.9 12.38 12
  86.0 12.59 12
  86.1 12.41 12
  86.4 8.91 8
  86.5 11.13 11
  86.6 14.05 14
  86.7 14.84 14
  86.8 12.97 12
  87.1 9.68 9
  87.2 11.44 11
  87.3 13.11 13
  87.4 13.53 13
  87.5 12.38 12
  87.7 10.09 10
  87.8 11.87 11
  87.9 14.64 14
  88.0 15.87 15
  88.1 14.58 14
  88.2 12.28 12
  88.5 10.09 10
  88.6 11.48 11
  88.7 13.73 13
  88.8 15.43 15
  88.9 14.8 14
  89.0 11.78 11
  89.1 8.34 8
  89.6 10.21 10
  89.7 10.8 10
  89.8 12.15 12
  89.9 13.51 13
  90.0 13.96 13
  90.1 13.63 13
  90.2 13.14 13
  90.3 12.72 12
  90.4 12.01 11
  91.3 8.06 8
  91.4 9.91 9
  91.5 11.58 11
  91.6 12.59 12
  91.7 13.33 13
  91.8 13.28 13
  91.9 11.67 11
  92.6 5.09 5
  92.7 8.7 8
  92.8 13.56 13
  92.9 16.46 16
  93.0 15.79 15
  93.1 12.21 12
  93.4 6.98 6
  93.5 10.32 10
  93.6 13.62 13
  93.7 14.84 14
  93.8 13.71 13
  93.9 11.33 11
  95.4 8.96 8
  95.5 10.57 10
  95.6 12.19 12
  95.7 12.64 12
  95.8 11.98 11
  95.9 11.24 11
  96.0 10.8 10
  96.1 10.02 10
  97.0 8.38 8
  97.1 10.54 10
  97.2 12.33 12
  97.3 11.62 11
  97.6 7.71 7
  97.7 10.56 10
  97.8 12.15 12
  97.9 10.84 10
  98.0 7.82 7
  98.2 6.04 6
  98.3 8.83 8
  98.4 11.75 11
  98.5 12.54 12
  98.6 10.97 10
  99.7 6.03 6
  99.8 8.16 8
  99.9 8.96 8
  100.0 7.84 7
  100.1 6.61 6
  100.2 6.92 6
  100.3 8.68 8
  100.4 10.63 10
  100.5 11.42 11
  100.6 10.39 10
  101.2 8.34 8
  101.3 9.62 9
  101.4 12.03 12
  101.5 13.87 13
  101.6 14.25 14
  101.7 14.12 14
  101.8 14.14 14
  101.9 13.95 13
  102.0 12.99 12
  102.9 13.92 13
  103.0 16.05 16
  103.1 17.56 17
  103.2 17.09 17
  104.5 8.02 8
  104.6 9.73 9
  104.7 12.28 12
  104.8 14.49 14
  104.9 14.77 14
  105.0 12.9 12
  105.1 10.53 10
  105.7 9.68 9
  105.8 10.57 10
  105.9 12.37 12
  106.0 14.55 14
  106.1 15.96 15
  106.2 15.48 15
  106.3 13.32 13
  106.4 10.59 10
  106.7 8.65 8
  106.8 9.99 9
  106.9 10.53 10
  107.0 10.27 10
  107.1 9.89 9
  107.2 9.76 9
  107.3 9.76 9
  107.4 9.62 9
  107.5 9.23 9
  107.6 8.85 8
  107.7 8.9 8
  107.8 9.41 9
  107.9 10.05 10
  108.0 10.13 10
  108.1 9.4 9
  108.2 8.46 8
  108.3 8.28 8
  108.4 8.99 8
  108.5 9.8 9
  108.6 10.03 10
  108.7 9.53 9
  108.8 8.47 8
  110.8 4.53 4
  110.9 6.49 6
  111.0 9.31 9
  111.1 10.9 10
  111.2 10.7 10
  111.3 9.42 9
  111.4 7.78 7
  111.7 4.81 4
  111.8 6.72 6
  111.9 8.81 8
  112.0 9.36 9
  112.1 8.36 8
  112.2 7.6 7
  112.3 8.46 8
  112.4 10.29 10
  112.5 11.22 11
  112.6 10.45 10
  112.7 9.12 9
  112.8 8.83 8
  112.9 9.6 9
  113.0 9.67 9
  113.3 6.02 6
  113.4 8.01 8
  113.5 9.96 9
  113.6 9.91 9
  113.9 7.6 7
  114.0 10.07 10
  114.1 13.05 13
  114.2 15.27 15
  114.3 15.61 15
  114.4 13.45 13
  114.5 9.82 9
  114.8 7.6 7
  114.9 9.81 9
  115.0 11.44 11
  115.1 11.98 11
  115.2 12.07 12
  115.3 12.24 12
  115.4 12.28 12
  115.5 11.98 11
  115.6 11.56 11
  115.7 11.02 11
  115.8 9.59 9
  116.1 6.26 6
  116.2 8.43 8
  116.3 10.57 10
  116.4 11.19 11
  116.5 10.47 10
  116.6 9.73 9
  116.7 10.29 10
  116.8 11.78 11
  116.9 12.29 12
  117.0 10.52 10
  117.3 8.7 8
  117.4 11.74 11
  117.5 13.23 13
  117.6 12.52 12
  117.7 11.17 11
  117.8 10.88 10
  117.9 11.52 11
  118.0 11.58 11
  118.1 10.23 10
  118.4 8.11 8
  118.5 12.48 12
  118.6 19.54 19
  118.7 25.07 25
  118.8 24.43 24
  118.9 18.85 18
  119.0 14.55 14
  120.5 8.64 8
  120.6 10.36 10
  120.7 11.84 11
  120.8 12.09 12
  120.9 11.49 11
  121.0 10.94 10
  121.1 11.02 11
  121.2 11.87 11
  121.3 13.11 13
  121.4 13.8 13
  121.5 13.42 13
  121.6 12.0 11
  121.7 9.72 9
  122.5 6.08 6
  122.6 8.94 8
  122.7 10.2 10
  122.8 9.35 9
  122.9 7.96 7
  123.0 7.84 7
  123.1 9.22 9
  123.2 10.8 10
  123.3 11.3 11
  123.4 10.71 10
  123.5 9.89 9
  123.6 9.5 9
  123.7 9.66 9
  123.8 10.09 10
  123.9 10.26 10
  124.0 9.57 9
  124.9 9.95 9
  125.0 11.82 11
  125.1 13.35 13
  125.2 13.72 13
  125.3 12.64 12
  125.4 10.43 10
  125.5 7.96 7
  125.6 5.72 5
  125.8 3.54 3
  125.9 5.3 5
  126.0 8.65 8
  126.1 11.39 11
  126.2 11.88 11
  126.3 10.41 10
  129.8 9.03 9
  129.9 10.7 10
  130.0 12.14 12
  130.1 12.93 12
  130.2 12.73 12
  130.3 11.62 11
  130.4 9.81 9
  131.9 5.9 5
  132.0 6.48 6
  132.1 8.34 8
  132.2 11.4 11
  132.3 13.54 13
  132.4 12.78 12
  132.5 9.87 9
  132.8 8.47 8
  132.9 9.44 9
  133.0 10.02 10
  133.1 10.92 10
  133.2 12.18 12
  133.3 13.01 12
  133.4 13.04 13
  133.5 12.38 12
  133.6 11.08 11
  133.7 9.06 9
  134.0 8.09 8
  134.1 10.68 10
  134.2 13.08 13
  134.3 14.17 14
  134.4 13.82 13
  134.5 13.73 13
  134.6 15.43 15
  134.7 17.7 17
  134.8 17.64 17
  134.9 14.72 14
  135.9 9.04 9
  136.0 10.7 10
  136.1 12.87 12
  136.2 14.41 14
  136.3 14.27 14
  136.4 12.43 12
  140.1 9.4 9
  140.2 11.26 11
  140.3 13.35 13
  140.4 13.47 13
  140.5 10.95 10
  140.6 7.56 7
  140.8 6.36 6
  140.9 8.37 8
  141.0 10.31 10
  141.1 11.58 11
  141.2 11.67 11
  141.3 9.91 9
  141.6 5.97 5
  141.7 10.39 10
  141.8 14.26 14
  141.9 14.43 14
  142.0 11.04 11
  142.3 6.96 6
  142.4 9.04 9
  142.5 10.07 10
  142.6 9.69 9
  142.7 8.81 8
  142.8 8.74 8
  142.9 10.22 10
  143.0 12.5 12
  143.1 13.89 13
  143.2 13.46 13
  143.3 11.78 11
  143.6 9.99 9
  143.7 12.7 12
  143.8 15.42 15
  143.9 15.96 15
  144.0 13.85 13
  144.1 10.86 10
  148.1 9.75 9
  148.2 11.92 11
  148.3 13.6 13
  148.4 13.99 13
  148.5 13.51 13
  148.6 13.01 12
  148.7 12.87 12
  148.8 12.82 12
  148.9 12.32 12
  149.0 11.42 11
  149.1 10.9 10
  149.2 11.42 11
  149.3 12.46 12
  149.4 13.04 13
  149.5 12.81 12
  149.6 12.28 12
  149.7 12.12 12
  149.8 12.93 12
  149.9 14.55 14
  150.0 15.89 15
  150.1 15.79 15
  150.2 14.67 14
  150.3 14.05 14
  150.4 14.23 14
  150.5 14.35 14
  150.6 14.26 14
  150.7 14.63 14
  150.8 14.8 14
  150.9 12.63 12
  151.0 7.74 7
  151.2 3.01 3
  151.3 7.43 7
  151.4 12.81 12
  151.5 15.08 15
  151.6 13.49 13
  151.7 10.39 10
  153.4 7.57 7
  153.5 8.51 8
  153.6 11.04 11
  153.7 14.21 14
  153.8 15.88 15
  153.9 14.76 14
  154.0 11.74 11
  154.2 9.81 9
  154.3 12.11 12
  154.4 13.63 13
  154.5 12.39 12
  154.6 9.28 9
  154.9 8.5 8
  155.0 9.73 9
  155.1 10.41 10
  155.2 11.64 11
  155.3 13.23 13
  155.4 13.22 13
  155.5 11.01 10
  157.0 4.92 4
  157.1 7.47 7
  157.2 10.67 10
  157.3 12.03 12
  157.4 10.75 10
  158.8 7.59 7
  158.9 8.95 8
  159.0 9.78 9
  159.1 10.09 10
  159.2 10.25 10
  159.3 10.18 10
  159.4 9.72 9
  160.9 8.1 8
  161.0 9.53 9
  161.1 11.78 11
  161.2 14.44 14
  161.3 15.48 15
  161.4 13.58 13
  161.5 9.91 9
  161.6 7.05 7
  162.2 5.86 5
  162.3 6.88 6
  162.4 7.28 7
  162.5 7.44 7
  162.6 7.84 7
  162.7 7.95 7
  162.8 7.2 7
  162.9 6.48 6
  163.0 6.97 6
  163.1 8.52 8
  163.2 10.0 9
  163.3 10.58 10
  163.4 10.31 10
  163.5 9.54 9
  163.6 8.52 8
  163.9 6.74 6
  164.0 8.33 8
  164.1 10.39 10
  164.2 11.61 11
  164.3 11.78 11
  164.4 11.52 11
  164.5 11.33 11
  164.6 11.07 11
  164.7 10.62 10
  164.8 10.54 10
  164.9 11.33 11
  165.0 12.48 12
  165.1 13.08 13
  165.2 12.74 12
  165.3 12.05 12
  165.4 11.92 11
  165.5 12.59 12
  165.6 13.11 13
  166.7 8.16 8
  166.8 9.78 9
  166.9 12.02 12
  167.0 13.31 13
  167.1 12.7 12
  168.8 5.07 5
  168.9 7.8 7
  169.0 10.41 10
  169.1 11.33 11
  169.2 10.61 10
  169.3 9.63 9
  169.4 9.35 9
  169.5 9.33 9
  169.6 8.94 8
  169.7 8.88 8
  169.8 10.58 10
  169.9 13.65 13
  170.0 15.58 15
  170.1 14.05 14
  170.2 9.53 9
  170.5 5.17 5
  170.6 8.6 8
  170.7 11.31 11
  170.8 12.57 12
  170.9 12.64 12
  171.0 11.67 11
  171.8 6.52 6
  171.9 8.9 8
  172.0 11.34 11
  172.1 11.56 11
  172.2 9.41 9
  172.4 6.57 6
  172.5 8.74 8
  172.6 11.38 11
  172.7 12.41 12
  172.8 11.7 11
  175.0 4.9 4
  175.1 7.53 7
  175.2 10.5 10
  175.3 11.89 11
  175.4 11.29 11
  175.5 9.96 9
  175.6 9.46 9
  175.7 10.12 10
  175.8 10.8 10
  175.9 10.67 10
  176.0 10.04 10
  176.1 9.45 9
  176.2 9.19 9
  176.3 9.46 9
  176.4 10.4 10
  176.5 11.25 11
  176.6 11.06 11
  176.7 10.16 10
  176.8 9.94 9
  176.9 10.95 10
  177.0 12.07 12
  177.1 12.05 12
  177.2 10.76 10
  177.5 9.05 9
  177.6 11.6 11
  177.7 13.63 13
  177.8 13.35 13
  177.9 11.01 10
  178.0 8.18 8
  178.1 6.02 6
  178.4 5.94 5
  178.5 7.64 7
  178.6 8.79 8
  178.7 9.12 9
  178.8 9.39 9
  178.9 10.44 10
  179.0 11.83 11
  179.1 12.28 12
  179.2 11.33 11
  179.3 9.64 9
  179.4 7.91 7
  179.6 5.94 5
  179.7 7.78 7
  179.8 11.51 11
  179.9 14.97 14
  180.0 16.23 16
  180.1 14.81 14
  180.2 11.43 11
  180.3 7.48 7
  180.6 6.21 6
  180.7 8.91 8
  180.8 11.37 11
  180.9 12.81 12
  181.0 12.91 12
  181.1 12.42 12
  181.2 12.41 12
  181.3 13.02 13
  181.4 13.69 13
  181.5 14.17 14
  181.6 14.25 14
  181.7 13.22 13
  181.8 11.19 11
  182.4 10.13 10
  182.5 11.37 11
  182.6 12.5 12
  182.7 13.23 13
  182.8 14.14 14
  182.9 14.72 14
  183.0 13.65 13
  183.1 10.92 10
  183.2 8.06 8
  183.5 8.5 8
  183.6 9.78 9
  183.7 11.03 11
  183.8 12.6 12
  183.9 13.58 13
  184.0 12.43 12
  184.3 8.95 8
  184.4 11.55 11
  184.5 13.1 13
  184.6 12.48 12
  184.9 11.3 11
  185.0 12.66 12
  185.1 13.72 13
  185.2 14.31 14
  185.3 14.18 14
  185.4 13.0 12
  185.5 11.04 11
  186.2 9.66 9
  186.3 10.68 10
  186.4 11.89 11
  186.5 12.09 12
  186.6 11.37 11
  186.7 11.1 11
  186.8 11.83 11
  186.9 12.37 12
  187.0 11.53 11
  187.1 10.36 10
  187.2 10.7 10
  187.3 12.2 12
  187.4 12.56 12
  187.5 11.02 11
  188.0 9.13 9
  188.1 10.44 10
  188.2 11.85 11
  188.3 12.14 12
  188.4 10.9 10
  189.2 8.51 8
  189.3 10.3 10
  189.4 12.68 12
  189.5 13.99 13
  189.6 13.27 13
  189.7 10.79 10
  192.4 8.87 8
  192.5 10.53 10
  192.6 11.51 11
  192.7 11.01 10
  192.8 9.98 9
  192.9 9.85 9
  193.0 10.68 10
  193.1 11.19 11
  193.2 10.59 10
  193.3 9.55 9
  193.4 8.79 8
  194.7 8.32 8
  194.8 9.86 9
  194.9 11.11 11
  195.0 11.46 11
  195.1 11.53 11
  195.2 12.09 12
  195.3 12.46 12
  197.1 11.85 11
  197.2 13.2 13
  197.3 14.41 14
  197.4 14.17 14
  197.5 12.73 12
  198.9 8.31 8
  199.0 9.22 9
  199.1 10.04 10
  199.2 10.32 10
  199.3 10.22 10
  199.4 10.53 10
  199.5 11.66 11
  199.6 12.96 12
  199.7 13.2 13
  199.8 12.24 12
  199.9 11.03 11
  200.4 9.05 9
  200.5 10.47 10
  200.6 12.5 12
  200.7 14.4 14
  200.8 15.44 15
  200.9 15.04 15
  201.0 13.29 13
  201.1 11.43 11
  201.2 10.58 10
  201.3 10.36 10
  201.4 9.35 9
  201.7 6.31 6
  201.8 8.91 8
  201.9 11.67 11
  202.0 13.55 13
  202.1 14.61 14
  202.2 14.81 14
  202.3 13.71 13
  202.4 11.73 11
  202.5 10.12 10
  204.7 6.3 6
  204.8 9.44 9
  204.9 12.78 12
  205.0 14.59 14
  205.1 14.17 14
  205.2 11.69 11
  206.1 7.59 7
  206.2 9.51 9
  206.3 10.95 10
  206.4 11.37 11
  206.5 11.19 11
  206.6 10.66 10
  206.7 9.86 9
  206.8 9.32 9
  206.9 9.45 9
  207.0 9.94 9
  207.1 10.13 10
  207.2 10.04 10
  207.3 10.29 10
  207.4 11.21 11
  207.5 12.29 12
  207.6 12.37 12
  207.7 10.61 10
  207.8 7.43 7
  208.6 5.23 5
  208.7 7.23 7
  208.8 9.15 9
  208.9 9.72 9
  209.0 8.88 8
  211.7 10.86 10
  211.8 12.84 12
  211.9 14.77 14
  212.0 14.67 14
  212.1 13.05 13
  212.2 12.55 12
  212.3 14.44 14
  212.4 16.74 16
  212.5 16.98 16
  212.6 15.16 15
  212.7 13.1 13
  212.8 11.96 11
  212.9 11.34 11
  213.0 10.34 10
  213.3 7.02 7
  213.4 8.64 8
  213.5 10.88 10
  213.6 11.88 11
  213.7 10.94 10
  214.0 8.33 8
  214.1 9.99 9
  214.2 11.35 11
  214.3 11.78 11
  214.4 11.76 11
  214.5 11.83 11
  214.6 11.96 11
  214.7 12.15 12
  214.8 12.7 12
  214.9 13.23 13
  215.0 12.47 12
  215.1 9.91 9
  215.3 7.14 7
  215.4 9.57 9
  215.5 12.07 12
  215.6 12.38 12
  215.7 10.68 10
  216.0 7.16 7
  216.1 8.69 8
  216.2 11.28 11
  216.3 13.23 13
  216.4 13.06 13
  216.5 11.04 11
  216.8 10.22 10
  216.9 12.19 12
  217.0 13.1 13
  217.1 13.15 13
  217.2 13.1 13
  217.3 12.59 12
  217.6 10.26 10
  217.7 11.98 11
  217.8 13.72 13
  217.9 14.3 14
  218.0 13.6 13
  218.1 12.18 12
  218.2 10.67 10
  219.5 6.56 6
  219.6 9.08 9
  219.7 11.4 11
  219.8 11.84 11
  219.9 10.14 10
  220.0 7.51 7
  220.1 5.62 5
  220.5 4.53 4
  220.6 6.26 6
  220.7 9.78 9
  220.8 12.78 12
  220.9 13.18 13
  221.9 4.08 4
  222.0 6.11 6
  222.1 9.89 9
  222.2 13.85 13
  222.3 15.58 15
  222.4 14.01 13
  222.5 10.5 10
  222.6 7.26 7
  222.9 6.3 6
  223.0 8.13 8
  223.1 9.75 9
  223.2 10.63 10
  223.3 10.84 10
  223.4 10.35 10
  223.5 9.05 9
  223.8 7.01 7
  223.9 9.69 9
  224.0 12.42 12
  224.1 13.31 13
  224.2 11.84 11
  224.3 8.83 8
  224.6 5.4 5
  224.7 7.96 7
  224.8 10.0 9
  224.9 10.56 10
  225.0 10.61 10
  225.1 11.39 11
  225.2 12.59 12
  225.3 13.1 13
  225.4 12.48 12
  225.5 11.3 11
  227.0 9.21 9
  227.1 11.15 11
  227.2 13.77 13
  227.3 15.63 15
  227.4 16.64 16
  227.5 17.09 17
  227.6 16.35 16
  227.7 14.08 14
  229.3 9.41 9
  229.4 11.15 11
  229.5 12.91 12
  229.6 13.49 13
  229.7 13.01 12
  229.8 12.52 12
  229.9 12.48 12
  230.0 12.2 12
  230.1 10.9 10
  232.1 7.24 7
  232.2 9.58 9
  232.3 11.29 11
  232.4 11.52 11
  232.5 10.61 10
  232.6 9.08 9
  232.7 7.3 7
  233.0 5.8 5
  233.1 8.34 8
  233.2 11.38 11
  233.3 13.15 13
  233.4 12.96 12
  233.5 11.58 11
  233.6 9.96 9
  234.5 5.34 5
  234.6 7.74 7
  234.7 10.44 10
  234.8 11.21 11
  234.9 9.9 9
  235.0 8.14 8
  235.1 7.01 7
  235.2 6.24 6
  235.6 5.64 5
  235.7 6.58 6
  235.8 7.26 7
  235.9 7.86 7
  236.0 8.37 8
  236.1 9.0 8
  236.2 10.4 10
  236.3 12.52 12
  236.4 13.98 13
  236.5 13.19 13
  236.6 10.41 10
  237.3 8.85 8
  237.4 10.08 10
  237.5 11.2 11
  237.6 11.06 11
  237.7 9.42 9
  238.0 7.57 7
  238.1 9.23 9
  238.2 10.92 10
  238.3 11.49 11
  238.4 10.31 10
  238.7 7.73 7
  238.8 9.23 9
  238.9 10.22 10
  239.0 10.57 10
  239.1 10.95 10
  239.2 11.58 11
  239.3 11.48 11
  239.4 9.8 9
  240.3 7.41 7
  240.4 8.25 8
  240.5 9.46 9
  240.6 11.2 11
  240.7 12.83 12
  240.8 12.97 12
  240.9 10.93 10
  241.0 7.96 7
  241.4 6.71 6
  241.5 7.61 7
  241.6 9.62 9
  241.7 12.1 12
  241.8 13.46 13
  241.9 13.05 13
  242.7 11.34 11
  242.8 12.97 12
  242.9 14.76 14
  243.0 15.53 15
  243.1 14.98 14
  243.2 13.63 13
  244.0 10.86 10
  244.1 12.33 12
  244.2 13.27 13
  244.3 13.42 13
  244.4 13.31 13
  244.5 13.46 13
  244.6 13.64 13
  244.7 13.09 13
  244.8 11.38 11
  245.1 8.18 8
  245.2 10.14 10
  245.3 12.21 12
  245.4 12.7 12
  245.5 11.16 11
  246.3 8.58 8
  246.4 10.68 10
  246.5 12.91 12
  246.6 13.92 13
  246.7 13.81 13
  246.8 13.13 13
  246.9 12.09 12
  247.0 10.9 10
  249.2 4.47 4
  249.3 6.63 6
  249.4 10.56 10
  249.5 13.83 13
  249.6 14.45 14
  249.7 12.56 12
  251.5 8.77 8
  251.6 11.46 11
  251.7 13.11 13
  251.8 12.74 12
  251.9 10.83 10
  252.0 8.18 8
  252.2 5.45 5
  252.3 7.88 7
  252.4 11.75 11
  252.5 14.44 14
  252.6 14.64 14
  253.8 7.52 7
  253.9 9.18 9
  254.0 11.66 11
  254.1 13.23 13
  254.2 12.56 12
  254.3 10.12 10
  254.6 7.32 7
  254.7 9.05 9
  254.8 10.49 10
  254.9 10.44 10
  255.2 6.58 6
  255.3 8.83 8
  255.4 12.28 12
  255.5 14.18 14
  255.6 13.01 12
  255.7 9.91 9
  256.0 8.68 8
  256.1 10.39 10
  256.2 11.7 11
  256.3 12.24 12
  256.4 11.83 11
  256.7 10.23 10
  256.8 11.65 11
  256.9 13.18 13
  257.0 13.46 13
  258.0 9.21 9
  258.1 13.06 13
  258.2 15.38 15
  258.3 15.02 15
  258.6 11.8 11
  258.7 13.9 13
  258.8 16.26 16
  258.9 16.53 16
  260.8 7.71 7
  260.9 9.39 9
  261.0 12.34 12
  261.1 14.31 14
  261.2 13.5 13
  261.3 10.36 10
  262.2 7.68 7
  262.3 10.35 10
  262.4 12.2 12
  262.5 12.78 12
  262.6 12.38 12
  262.7 11.49 11
  262.8 10.75 10
  262.9 10.45 10
  263.0 9.98 9
  263.3 7.77 7
  263.4 10.38 10
  263.5 12.77 12
  263.6 13.05 13
  263.7 11.61 11
  263.8 10.05 10
  264.1 9.37 9
  264.2 10.86 10
  264.3 12.37 12
  264.4 12.38 12
  264.5 10.79 10
  266.2 8.06 8
  266.3 9.13 9
  266.4 11.38 11
  266.5 13.41 13
  266.6 13.81 13
  266.7 12.12 12
  266.8 9.3 9
  267.1 6.6 6
  267.2 7.71 7
  267.3 9.4 9
  267.4 10.93 10
  267.5 11.08 11
  267.6 9.71 9
  267.9 8.99 8
  268.0 10.58 10
  268.1 11.55 11
  268.2 11.42 11
  268.3 10.59 10
  269.4 10.81 10
  269.5 10.8 10
  269.6 11.56 11
  269.7 13.37 13
  269.8 14.68 14
  269.9 13.83 13
  270.0 11.01 10
  271.4 9.32 9
  271.5 10.77 10
  271.6 11.92 11
  271.7 12.06 12
  271.8 11.6 11
  271.9 10.93 10
  272.0 9.75 9
  272.3 7.55 7
  272.4 9.84 9
  272.5 11.89 11
  272.6 12.77 12
  272.7 12.96 12
  272.8 13.01 12
  272.9 12.47 12
  274.4 9.0 8
  274.5 12.21 12
  274.6 13.9 13
  274.7 13.28 13
  274.8 11.98 11
  274.9 12.06 12
  275.0 13.73 13
  275.1 15.29 15
  275.2 15.03 15
  275.3 13.05 13
  275.4 10.71 10
  276.1 7.07 7
  276.2 8.79 8
  276.3 9.58 9
  276.4 9.57 9
  276.5 9.99 9
  276.6 10.98 10
  276.7 11.15 11
  277.0 8.45 8
  277.1 10.3 10
  277.2 12.81 12
  277.3 14.32 14
  277.4 13.85 13
  277.5 11.74 11
  279.2 7.26 7
  279.3 8.6 8
  279.4 10.84 10
  279.5 12.66 12
  279.6 13.2 13
  279.7 12.46 12
  279.8 10.99 10
  281.1 7.1 7
  281.2 9.8 9
  281.3 13.99 13
  281.4 16.42 16
  281.5 15.31 15
  281.6 11.91 11
  282.4 6.54 6
  282.5 8.94 8
  282.6 11.87 11
  282.7 13.76 13
  282.8 13.24 13
  282.9 10.16 10
  283.2 6.62 6
  283.3 9.39 9
  283.4 10.59 10
  283.5 9.78 9
  283.6 8.59 8
  284.2 7.35 7
  284.3 8.99 8
  284.4 10.26 10
  284.5 10.65 10
  284.6 10.31 10
  284.7 9.94 9
  284.8 9.96 9
  284.9 9.94 9
  285.0 9.14 9
  285.3 7.89 7
  285.4 9.3 9
  285.5 9.99 9
  285.6 9.8 9
  285.7 9.93 9
  285.8 10.76 10
  285.9 11.26 11
  286.0 10.85 10
  287.0 5.71 5
  287.1 8.04 8
  287.2 10.2 10
  287.3 10.71 10
  287.4 10.62 10
  287.5 11.74 11
  287.6 13.76 13
  287.7 14.17 14
  287.8 11.61 11
  287.9 7.84 7
  289.7 9.05 9
  289.8 10.59 10
  289.9 12.68 12
  290.0 14.14 14
  290.1 13.92 13
  290.2 12.06 12
  290.6 10.38 10
  290.7 11.07 11
  290.8 12.05 12
  290.9 12.46 12
  291.0 11.22 11
  291.1 8.79 8
  291.4 7.32 7
  291.5 9.06 9
  291.6 10.58 10
  291.7 11.24 11
  291.8 11.06 11
  291.9 10.53 10
  292.0 10.34 10
  292.1 10.56 10
  292.2 10.56 10
  292.3 9.87 9
  292.4 9.15 9
  292.5 9.24 9
  292.6 9.93 9
  292.7 10.39 10
  292.8 10.58 10
  292.9 10.81 10
  293.0 10.7 10
  293.1 9.99 9
  293.2 9.49 9
  293.3 10.12 10
  293.4 11.2 11
  293.5 11.22 11
  293.6 10.0 9
  295.1 9.08 9
  295.2 9.67 9
  295.3 10.77 10
  295.4 11.88 11
  295.5 11.84 11
  295.6 10.63 10
  295.7 9.21 9
  295.8 8.05 8
  296.6 5.58 5
  296.7 7.05 7
  296.8 9.89 9
  296.9 12.38 12
  297.0 13.15 13
  297.1 11.67 11
  297.2 9.06 9
  297.5 6.36 6
  297.6 7.64 7
  297.7 9.96 9
  297.8 12.73 12
  297.9 14.03 14
  298.0 12.46 12
  298.1 8.86 8
  298.4 7.59 7
  298.5 9.81 9
  298.6 11.7 11
  298.7 13.42 13
  298.8 14.44 14
  298.9 13.33 13
  299.0 10.05 10
  302.1 6.53 6
  302.2 10.44 10
  302.3 13.08 13
  302.4 13.05 13
  302.5 11.83 11
  302.6 11.42 11
  302.7 12.0 11
  302.8 12.07 12
  302.9 10.44 10
  303.0 7.66 7
  303.2 5.64 5
  303.3 7.71 7
  303.4 10.25 10
  303.5 11.17 11
  303.6 9.77 9
  304.6 7.5 7
  304.7 9.37 9
  304.8 11.42 11
  304.9 13.15 13
  305.0 13.94 13
  305.1 13.44 13
  305.2 12.41 12
  305.3 11.94 11
  305.4 12.29 12
  305.5 12.99 12
  305.6 13.86 13
  305.7 14.57 14
  305.8 13.87 13
  306.1 9.15 9
  306.2 12.2 12
  306.3 14.58 14
  306.4 13.9 13
  307.5 7.79 7
  307.6 8.68 8
  307.7 11.29 11
  307.8 13.91 13
  307.9 14.61 14
  308.0 13.41 13
  308.1 11.78 11
  308.2 10.71 10
  308.3 10.11 10
  308.7 8.9 8
  308.8 10.67 10
  308.9 13.02 13
  309.0 14.58 14
  309.1 14.71 14
  309.2 13.59 13
  310.2 9.09 9
  310.3 11.25 11
  310.4 12.65 12
  310.5 12.29 12
  310.6 11.2 11
  310.7 10.95 10
  310.8 11.52 11
  310.9 11.82 11
  311.0 11.62 11
  311.1 11.58 11
  311.2 12.07 12
  311.3 12.78 12
  311.4 13.05 13
  311.5 12.66 12
  311.6 11.92 11
  312.7 8.61 8
  312.8 9.95 9
  312.9 11.8 11
  313.0 13.01 12
  313.1 12.81 12
  313.2 11.85 11
  313.3 11.19 11
  313.4 10.56 10
  313.5 8.97 8
  313.8 5.75 5
  313.9 7.74 7
  314.0 9.36 9
  314.1 10.36 10
  314.2 11.38 11
  314.3 12.33 12
  314.4 12.25 12
  314.5 10.98 10
  314.8 9.75 9
  314.9 11.85 11
  315.0 13.94 13
  315.1 13.91 13
  315.2 10.9 10
  315.3 6.63 6
  315.5 4.5 4
  315.6 6.49 6
  315.7 8.22 8
  315.8 9.03 9
  315.9 9.28 9
  316.0 9.08 9
  316.1 8.06 8
  316.4 6.56 6
  316.5 9.26 9
  316.6 11.06 11
  316.7 10.66 10
  316.8 9.12 9
  316.9 7.86 7
  317.2 4.71 4
  317.3 6.36 6
  317.4 9.64 9
  317.5 11.61 11
  317.6 10.48 10
  317.7 7.84 7
  318.3 7.16 7
  318.4 8.78 8
  318.5 9.44 9
  318.6 9.62 9
  318.7 10.17 10
  318.8 10.52 10
  318.9 9.3 9
  319.9 6.34 6
  320.0 7.97 7
  320.1 9.96 9
  320.2 11.39 11
  320.3 11.82 11
  320.4 11.4 11
  320.5 10.48 10
  320.9 9.91 9
  321.0 11.53 11
  321.1 13.15 13
  321.2 14.25 14
  321.3 14.86 14
  321.4 15.48 15
  321.5 16.34 16
  321.6 17.16 17
  321.7 17.54 17
  321.8 17.27 17
  321.9 16.46 16
  322.0 15.08 15
  322.1 13.15 13
  322.2 11.07 11
  322.5 9.85 9
  322.6 11.97 11
  322.7 14.32 14
  322.8 15.71 15
  322.9 15.8 15
  323.0 14.81 14
  323.1 12.78 12
  324.1 9.24 9
  324.2 12.36 12
  324.3 14.99 14
  324.4 15.49 15
  324.5 13.59 13
  325.4 5.95 5
  325.5 7.83 7
  325.6 10.47 10
  325.7 12.45 12
  325.8 12.41 12
  325.9 10.76 10
  326.0 9.76 9
  326.1 11.04 11
  326.2 13.74 13
  326.3 15.45 15
  326.4 14.84 14
  326.5 12.32 12
  326.6 9.24 9
  327.5 7.02 7
  327.6 9.9 9
  327.7 12.01 11
  327.8 12.15 12
  329.0 7.98 7
  329.1 9.42 9
  329.2 10.79 10
  329.3 10.68 10
  329.4 9.1 9
  329.7 7.83 7
  329.8 9.23 9
  329.9 10.9 10
  330.0 11.82 11
  330.1 10.88 10
  331.0 8.96 8
  331.1 11.15 11
  331.2 12.36 12
  331.3 12.28 12
  331.4 11.33 11
  332.3 8.68 8
  332.4 10.88 10
  332.5 13.08 13
  332.6 13.13 13
  332.7 11.22 11
  335.6 11.1 11
  335.7 12.81 12
  335.8 15.22 15
  335.9 16.37 16
  336.0 15.8 15
  336.1 15.42 15
  336.2 16.28 16
  336.3 16.7 16
  336.4 14.57 14
  336.5 10.52 10
  336.7 8.37 8
  336.8 11.67 11
  336.9 15.04 15
  337.0 16.66 16
  337.1 16.53 16
  337.2 15.57 15
  337.3 14.45 14
  337.4 13.33 13
  338.0 10.84 10
  338.1 12.28 12
  338.2 14.35 14
  338.3 15.34 15
  338.4 14.32 14
  338.5 11.97 11
  339.4 10.3 10
  339.5 11.51 11
  339.6 12.5 12
  339.7 12.83 12
  339.8 11.88 11
  340.1 9.5 9
  340.2 11.76 11
  340.3 13.49 13
  340.4 13.28 13
  340.5 11.25 11
  340.6 8.61 8
  340.8 6.89 6
  340.9 8.86 8
  341.0 11.07 11
  341.1 11.69 11
  341.2 10.84 10
  341.3 10.11 10
  341.4 10.17 10
  341.5 10.22 10
  341.6 9.67 9
  341.7 8.83 8
  341.8 8.29 8
  341.9 8.45 8
  342.0 9.39 9
  342.1 10.7 10
  342.2 11.48 11
  342.3 11.57 11
  342.4 11.21 11
  342.5 10.23 10
  342.6 8.2 8
  343.4 7.88 7
  343.5 9.31 9
  343.6 11.12 11
  343.7 12.59 12
  343.8 12.99 12
  343.9 11.78 11
  344.0 9.36 9
  344.1 7.15 7
  344.5 6.26 6
  344.6 7.24 7
  344.7 9.73 9
  344.8 12.99 12
  344.9 15.36 15
  345.0 15.26 15
  345.1 12.65 12
  345.2 9.32 9
  345.6 7.1 7
  345.7 9.06 9
  345.8 10.58 10
  345.9 11.06 11
  346.0 11.46 11
  346.1 12.51 12
  346.2 13.44 13
  346.3 13.0 12
  346.4 11.01 10
  346.7 7.37 7
  346.8 9.59 9
  346.9 11.74 11
  347.0 12.23 12
  347.1 11.02 11
  347.9 6.79 6
  348.0 8.77 8
  348.1 10.92 10
  348.2 12.0 11
  348.3 11.13 11
  348.4 8.67 8
  348.7 6.83 6
  348.8 9.96 9
  348.9 13.1 13
  349.0 14.8 14
  349.1 14.55 14
  349.2 12.6 12
  349.3 9.63 9
  351.7 10.68 10
  351.8 13.41 13
  351.9 16.11 16
  352.0 16.93 16
  353.3 7.53 7
  353.4 9.91 9
  353.5 11.67 11
  353.6 12.07 12
  353.7 12.01 11
  353.8 12.42 12
  353.9 13.28 13
  354.0 13.8 13
  354.1 12.96 12
  354.2 10.53 10
  354.5 8.77 8
  354.6 11.57 11
  354.7 13.08 13
  354.8 12.52 12
  354.9 11.07 11
  355.9 8.4 8
  356.0 10.88 10
  356.1 12.73 12
  356.2 13.15 13
  356.3 12.51 12
  356.4 11.56 11
  356.5 10.45 10
  356.6 8.79 8
  356.7 6.25 6
  357.0 3.55 3
  357.1 5.75 5
  357.2 7.98 7
  357.3 9.81 9
  357.4 10.94 10
  357.5 10.68 10
  357.6 9.12 9
  357.7 7.59 7
  357.8 6.83 6
  358.1 4.19 4
  358.2 6.18 6
  358.3 8.94 8
  358.4 10.03 10
  358.5 9.37 9
  358.6 8.74 8
  358.7 9.12 9
  358.8 9.95 9
  358.9 10.68 10
  359.0 10.81 10
  359.1 9.36 9
  359.2 5.82 5
  359.5 2.34 2
  359.6 7.07 7
  359.7 10.74 10
  359.8 11.44 11
  359.9 10.14 10
  360.3 7.97 7
  360.4 9.27 9
  360.5 11.44 11
  360.6 12.52 12
  360.7 11.22 11
  360.8 8.25 8
  361.1 6.17 6
  361.2 9.82 9
  361.3 13.22 13
  361.4 14.0 13
  361.5 11.85 11
  361.6 8.73 8
  362.4 8.63 8
  362.5 9.73 9
  362.6 10.86 10
  362.7 11.2 11
  362.8 10.7 10
  362.9 10.47 10
  363.0 11.62 11
  363.1 13.53 13
  363.2 14.13 14
  363.3 12.33 12
  363.4 9.33 9
  363.5 7.12 7
  364.0 4.31 4
  364.1 5.81 5
  364.2 9.37 9
  364.3 12.6 12
  364.4 13.13 13
  364.5 11.55 11
  364.6 10.26 10
  364.7 10.14 10
  364.8 9.77 9
  365.6 8.33 8
  365.7 10.57 10
  365.8 11.94 11
  365.9 11.42 11
  366.7 8.73 8
  366.8 10.77 10
  366.9 12.02 12
  367.0 12.16 12
  367.1 12.07 12
  367.2 12.34 12
  367.3 13.01 12
  367.4 14.17 14
  367.5 15.97 15
  367.6 17.31 17
  367.7 16.23 16
  367.8 12.55 12
  368.7 11.11 11
  368.8 11.82 11
  368.9 13.18 13
  369.0 14.13 14
  369.1 13.29 13
  369.8 8.67 8
  369.9 11.1 11
  370.0 12.54 12
  370.1 11.51 11
  370.2 9.17 9
  370.3 7.28 7
  370.8 7.07 7
  370.9 8.74 8
  371.0 11.57 11
  371.1 13.28 13
  371.2 12.24 12
  371.3 9.81 9
  372.0 6.47 6
  372.1 8.95 8
  372.2 11.64 11
  372.3 12.57 12
  372.4 11.03 11
  373.5 9.06 9
  373.6 10.58 10
  373.7 12.47 12
  373.8 12.47 12
  373.9 10.22 10
  374.2 7.42 7
  374.3 8.86 8
  374.4 9.5 9
  374.5 8.87 8
  374.6 7.82 7
  374.7 7.56 7
  374.8 8.5 8
  374.9 9.84 9
  375.0 10.35 10
  375.1 9.55 9
  376.1 7.1 7
  376.2 8.31 8
  376.3 10.61 10
  376.4 12.52 12
  376.5 12.48 12
  377.9 7.7 7
  378.0 9.46 9
  378.1 10.74 10
  378.2 11.53 11
  378.3 11.79 11
  378.4 11.33 11
  379.3 5.77 5
  379.4 7.55 7
  379.5 8.37 8
  379.6 7.73 7
  379.7 6.9 6
  379.8 7.66 7
  379.9 10.08 10
  380.0 12.61 12
  380.1 13.77 13
  380.2 13.45 13
  380.3 12.46 12
  380.4 11.34 11
  380.5 9.99 9
  380.6 8.24 8
  380.9 6.63 6
  381.0 8.42 8
  381.1 9.96 9
  381.2 10.31 10
  381.3 9.32 9
  381.6 7.93 7
  381.7 9.45 9
  381.8 11.03 11
  381.9 12.03 12
  382.0 12.1 12
  383.0 8.04 8
  383.1 11.38 11
  383.2 14.68 14
  383.3 16.32 16
  383.4 16.43 16
  383.5 16.42 16
  383.6 16.82 16
  383.7 16.53 16
  383.8 14.58 14
  383.9 11.67 11
  384.0 9.37 9
  384.4 8.06 8
  384.5 10.5 10
  384.6 13.26 13
  384.7 14.12 14
  384.8 12.05 12
  385.7 5.98 5
  385.8 8.97 8
  385.9 12.81 12
  386.0 15.04 15
  386.1 14.75 14
  386.2 12.91 12
  386.3 11.13 11
  386.4 10.0 9
  386.5 8.97 8
  386.9 7.16 7
  387.0 8.64 8
  387.1 9.42 9
  387.2 9.75 9
  387.3 10.65 10
  387.4 12.21 12
  387.5 12.97 12
  387.6 11.8 11
  387.9 9.53 9
  388.0 10.76 10
  388.1 11.75 11
  388.2 12.41 12
  388.3 12.93 12
  388.4 13.28 13
  388.5 13.1 13
  388.6 12.19 12
  388.7 10.9 10
  388.8 9.96 9
  388.9 9.46 9
  389.0 8.87 8
  389.3 7.33 7
  389.4 8.42 8
  389.5 10.21 10
  389.6 12.05 12
  389.7 12.84 12
  389.8 11.88 11
  390.6 6.85 6
  390.7 9.67 9
  390.8 13.02 13
  390.9 14.9 14
  391.0 14.25 14
  392.8 10.0 9
  392.9 12.55 12
  393.0 14.44 14
  393.1 14.23 14
  393.2 12.28 12
  393.3 9.73 9
  393.6 6.76 6
  393.7 8.81 8
  393.8 10.88 10
  393.9 11.64 11
  394.0 11.03 11
  394.1 10.09 10
  394.2 10.05 10
  394.3 11.11 11
  394.4 12.07 12
  394.5 11.4 11
  394.6 9.06 9
  394.9 5.46 5
  395.0 7.42 7
  395.1 10.58 10
  395.2 13.9 13
  395.3 15.6 15
  395.4 14.34 14
  395.5 10.94 10
  395.7 8.33 8
  395.8 11.04 11
  395.9 13.98 13
  396.0 15.12 15
  396.1 13.99 13
  396.2 11.19 11
  396.5 7.64 7
  396.6 10.35 10
  396.7 12.59 12
  396.8 12.46 12
  397.1 9.89 9
  397.2 11.8 11
  397.3 12.56 12
  397.4 11.88 11
  397.5 11.67 11
  397.6 13.0 12
  397.7 14.49 14
  397.8 14.0 13
  397.9 11.3 11
  398.2 8.77 8
  398.3 10.9 10
  398.4 12.43 12
  398.5 12.69 12
  398.6 12.07 12
  398.7 11.53 11
  398.8 11.73 11
  398.9 12.51 12
  399.0 13.54 13
  399.1 14.52 14
  399.2 15.12 15
  399.3 15.02 15
  399.4 14.39 14
  399.5 13.6 13
  399.6 12.6 12
  399.7 11.15 11
  399.8 9.78 9
  400.3 8.85 8
  400.4 9.77 9
  400.5 10.84 10
  400.6 11.48 11
  400.7 11.28 11
  400.8 10.17 10
  401.1 7.62 7
  401.2 9.51 9
  401.3 12.24 12
  401.4 13.78 13
  401.5 12.74 12
  402.4 7.91 7
  402.5 9.53 9
  402.6 10.71 10
  402.7 10.99 10
  402.8 10.9 10
  402.9 11.07 11
  403.0 11.49 11
  403.1 11.88 11
  403.2 12.18 12
  403.3 12.5 12
  403.4 12.91 12
  403.5 13.09 13
  403.6 12.68 12
  403.7 11.7 11
  405.3 5.84 5
  405.4 8.41 8
  405.5 11.74 11
  405.6 13.08 13
  405.7 12.21 12
  406.8 7.02 7
  406.9 7.89 7
  407.0 9.14 9
  407.1 10.09 10
  407.2 9.99 9
  407.6 8.42 8
  407.7 10.5 10
  407.8 12.81 12
  407.9 13.87 13
  408.0 12.48 12
  408.1 9.31 9
  408.4 7.78 7
  408.5 9.23 9
  408.6 10.02 10
  408.7 10.14 10
  408.8 9.62 9
  408.9 8.69 8
  409.0 8.24 8
  409.1 8.88 8
  409.2 9.72 9
  409.3 9.4 9
  411.0 8.42 8
  411.1 9.95 9
  411.2 11.96 11
  411.3 12.77 12
  411.4 11.49 11
  411.5 8.72 8
  411.6 6.02 6
  411.9 5.88 5
  412.0 7.73 7
  412.1 9.39 9
  412.2 10.34 10
  412.3 11.19 11
  412.4 12.51 12
  412.5 13.47 13
  412.6 12.56 12
  412.7 9.68 9
  413.0 7.19 7
  413.1 9.26 9
  413.2 10.7 10
  413.3 11.97 11
  413.4 13.82 13
  413.5 15.2 15
  413.6 14.23 14
  413.7 11.12 11
  414.6 12.57 12
  414.7 14.49 14
  414.8 16.57 16
  414.9 16.69 16
  415.0 14.31 14
  417.5 5.23 5
  417.6 8.43 8
  417.7 12.5 12
  417.8 14.43 14
  417.9 13.4 13
  418.0 11.06 11
  419.0 8.46 8
  419.1 12.25 12
  419.2 16.06 16
  419.3 17.32 17
  419.4 15.43 15
  419.5 11.91 11
  419.6 8.91 8
  419.7 7.69 7
  419.8 7.65 7
  419.9 7.21 7
  420.2 5.89 5
  420.3 8.87 8
  420.4 11.51 11
  420.5 12.32 12
  420.6 11.83 11
  420.7 11.15 11
  424.0 7.33 7
  424.1 8.63 8
  424.2 10.65 10
  424.3 12.11 12
  424.4 12.24 12
  424.5 11.31 11
  424.6 10.22 10
  425.5 6.61 6
  425.6 8.97 8
  425.7 10.58 10
  425.8 10.36 10
  425.9 8.79 8
  426.2 6.0 5
  426.3 7.95 7
  426.4 10.59 10
  426.5 12.54 12
  426.6 12.78 12
  426.7 11.78 11
  428.2 7.79 7
  428.3 8.69 8
  428.4 9.73 9
  428.5 10.44 10
  428.6 10.75 10
  428.7 11.19 11
  428.8 11.89 11
  428.9 12.11 12
  429.0 11.28 11
  429.1 9.93 9
  429.4 8.78 8
  429.5 9.58 9
  429.6 11.31 11
  429.7 13.59 13
  429.8 15.2 15
  429.9 15.51 15
  430.0 14.97 14
  430.1 14.08 14
  430.2 12.66 12
  430.3 10.88 10
  430.4 9.09 9
  430.7 7.24 7
  430.8 9.9 9
  430.9 13.69 13
  431.0 16.01 15
  431.1 15.2 15
  431.2 12.3 12
  432.0 8.95 8
  432.1 12.12 12
  432.2 14.4 14
  432.3 13.71 13
  432.4 10.97 10
  433.2 8.54 8
  433.3 9.62 9
  433.4 10.29 10
  433.5 10.13 10
  433.9 8.6 8
  434.0 10.21 10
  434.1 12.05 12
  434.2 13.99 13
  434.3 14.98 14
  434.4 13.44 13
  434.5 9.59 9
  434.8 6.66 6
  434.9 9.31 9
  435.0 10.81 10
  435.1 10.77 10
  435.2 10.02 10
  435.3 9.57 9
  435.4 9.72 9
  435.5 10.27 10
  435.6 10.94 10
  435.7 11.55 11
  435.8 11.75 11
  435.9 11.46 11
  436.0 11.03 11
  436.1 10.92 10
  436.2 10.89 10
  436.3 10.62 10
  436.4 10.22 10
  436.5 10.27 10
  436.6 11.17 11
  436.7 12.64 12
  436.8 13.56 13
  436.9 13.0 12
  437.0 11.28 11
  437.9 8.49 8
  438.0 9.54 9
  438.1 11.66 11
  438.2 13.44 13
  438.3 13.17 13
  439.2 4.01 4
  439.3 6.66 6
  439.4 10.8 10
  439.5 13.98 13
  439.6 14.43 14
  439.7 12.59 12
  439.8 10.03 10
  439.9 7.87 7
  440.2 6.12 6
  440.3 7.17 7
  440.4 8.9 8
  440.5 10.71 10
  440.6 11.55 11
  440.7 10.77 10
  441.8 6.33 6
  441.9 7.82 7
  442.0 9.9 9
  442.1 11.34 11
  442.2 11.66 11
  442.3 11.24 11
  442.4 10.76 10
  442.5 10.7 10
  442.6 11.02 11
  442.7 11.46 11
  442.8 11.75 11
  442.9 11.75 11
  443.0 11.12 11
  443.1 9.71 9
  444.7 7.42 7
  444.8 9.66 9
  444.9 12.23 12
  445.0 13.29 13
  445.1 12.81 12
  445.2 12.21 12
  445.3 12.83 12
  445.4 14.32 14
  445.5 15.47 15
  445.6 15.65 15
  445.7 15.25 15
  445.8 14.76 14
  445.9 14.31 14
  446.0 13.94 13
  446.1 13.67 13
  446.2 13.54 13
  446.3 13.32 13
  446.4 13.0 12
  446.5 12.92 12
  446.6 13.17 13
  446.7 13.04 13
  447.0 10.27 10
  447.1 12.45 12
  447.2 14.36 14
  447.3 14.08 14
  447.4 12.41 12
  447.8 10.22 10
  447.9 11.64 11
  448.0 13.54 13
  448.1 14.34 14
  448.2 13.46 13
  448.3 12.14 12
  448.4 11.49 11
  448.5 10.99 10
  448.8 9.19 9
  448.9 10.89 10
  449.0 12.23 12
  449.1 12.14 12
  449.2 11.24 11
  450.1 7.57 7
  450.2 9.59 9
  450.3 12.37 12
  450.4 13.45 13
  450.5 12.45 12
  452.7 4.06 4
  452.8 7.56 7
  452.9 12.97 12
  453.0 16.86 16
  453.1 16.35 16
  453.2 11.73 11
  453.3 6.57 6
  453.5 5.95 5
  453.6 8.55 8
  453.7 10.32 10
  453.8 10.98 10
  453.9 10.98 10
  454.0 10.53 10
  454.1 9.67 9
  454.2 8.56 8
  454.5 7.12 7
  454.6 8.19 8
  454.7 10.3 10
  454.8 13.05 13
  454.9 14.82 14
  455.0 13.87 13
  455.1 10.47 10
  455.2 7.01 7
  455.4 6.26 6
  455.5 7.91 7
  455.6 9.54 9
  455.7 10.9 10
  455.8 12.06 12
  455.9 13.09 13
  456.0 13.85 13
  456.1 13.95 13
  456.2 12.88 12
  456.3 10.27 10
  457.2 8.0 7
  457.3 10.43 10
  457.4 12.84 12
  457.5 13.86 13
  457.6 12.43 12
  457.7 9.46 9
  459.7 9.93 9
  459.8 11.22 11
  459.9 12.07 12
  460.0 12.73 12
  460.1 13.53 13
  460.2 13.78 13
  460.3 12.87 12
  460.4 10.9 10
  460.7 9.49 9
  460.8 12.96 12
  460.9 16.37 16
  461.0 17.55 17
  461.1 16.43 16
  461.2 14.62 14
  461.3 13.35 13
  461.4 12.16 12
  461.5 10.36 10
  461.8 8.27 8
  461.9 10.25 10
  462.0 12.05 12
  462.1 12.7 12
  462.2 12.24 12
  462.3 11.35 11
  463.1 8.94 8
  463.2 10.75 10
  463.3 12.06 12
  463.4 11.74 11
  463.5 10.63 10
  463.6 10.26 10
  463.7 10.94 10
  463.8 11.67 11
  463.9 11.44 11
  465.3 8.6 8
  465.4 10.4 10
  465.5 12.23 12
  465.6 13.11 13
  465.7 13.22 13
  465.8 13.15 13
  465.9 13.06 13
  466.0 12.29 12
  466.1 10.39 10
  466.2 8.16 8
  466.6 7.62 7
  466.7 8.73 8
  466.8 10.88 10
  466.9 12.84 12
  467.0 13.22 13
  467.1 11.85 11
  467.2 9.6 9
  468.4 6.89 6
  468.5 10.2 10
  468.6 13.38 13
  468.7 14.13 14
  468.8 12.6 12
  468.9 10.66 10
  469.0 9.09 9
  470.0 7.01 7
  470.1 9.48 9
  470.2 12.83 12
  470.3 15.67 15
  470.4 16.34 16
  470.5 14.5 14
  470.6 11.29 11
  470.7 8.23 8
  471.0 6.84 6
  471.1 9.15 9
  471.2 11.75 11
  471.3 12.72 12
  471.4 10.98 10
  471.5 7.92 7
  471.6 5.84 5
  471.9 4.99 4
  472.0 5.95 5
  472.1 7.55 7
  472.2 8.61 8
  472.3 8.73 8
  472.4 8.5 8
  472.5 8.74 8
  472.6 9.58 9
  472.7 10.4 10
  472.8 10.09 10
  473.1 6.97 6
  473.2 10.54 10
  473.3 14.75 14
  473.4 16.55 16
  473.5 14.79 14
  473.6 10.65 10
  476.0 8.99 8
  476.1 10.85 10
  476.2 13.87 13
  476.3 16.83 16
  476.4 18.17 18
  476.5 17.24 17
  476.6 15.02 15
  477.7 12.02 12
  477.8 14.21 14
  477.9 15.58 15
  478.0 15.08 15
  478.1 13.45 13
  480.2 8.05 8
  480.3 9.58 9
  480.4 10.4 10
  480.5 10.17 10
  480.6 9.54 9
  480.7 9.12 9
  480.8 8.9 8
  480.9 8.74 8
  481.0 8.96 8
  481.1 9.77 9
  481.2 10.56 10
  481.3 10.21 10
  482.7 4.01 4
  482.8 5.7 5
  482.9 7.92 7
  483.0 10.39 10
  483.1 11.55 11
  483.2 10.23 10
  484.7 7.79 7
  484.8 9.03 9
  484.9 10.71 10
  485.0 12.02 12
  485.1 11.71 11
  485.2 9.72 9
  485.8 5.59 5
  485.9 7.38 7
  486.0 9.99 9
  486.1 11.55 11
  486.2 11.55 11
  488.2 7.26 7
  488.3 8.47 8
  488.4 11.43 11
  488.5 13.87 13
  488.6 13.6 13
  489.6 9.28 9
  489.7 11.17 11
  489.8 13.15 13
  489.9 13.33 13
  490.0 11.61 11
  490.3 10.43 10
  490.4 12.39 12
  490.5 13.64 13
  490.6 13.4 13
  490.7 11.89 11
  490.8 10.0 9
  491.1 9.75 9
  491.2 11.49 11
  491.3 12.57 12
  491.4 12.63 12
  491.5 12.25 12
  491.6 12.15 12
  491.7 12.43 12
  491.8 13.0 12
  491.9 13.56 13
  492.0 13.5 13
  492.3 11.19 11
  492.4 13.18 13
  492.5 16.19 16
  492.6 17.76 17
  492.7 15.98 15
  492.8 11.94 11
  494.4 6.67 6
  494.5 8.96 8
  494.6 12.1 12
  494.7 14.44 14
  494.8 14.45 14
  494.9 12.2 12
  495.0 9.21 9
  496.0 7.33 7
  496.1 8.6 8
  496.2 11.51 11
  496.3 14.46 14
  496.4 14.79 14
  496.5 11.96 11
  496.6 8.45 8
  496.9 5.1 5
  497.0 7.73 7
  497.1 11.97 11
  497.2 14.61 14
  497.3 13.6 13
  497.4 10.7 10
  497.7 9.12 9
  497.8 10.04 10
  497.9 10.74 10
  498.0 11.06 11
  498.1 10.92 10
  498.2 10.08 10
  499.7 7.83 7
  499.8 10.56 10
  499.9 11.94 11
  500.0 12.63 12
  500.1 13.96 13
  500.2 15.18 15
  500.3 14.35 14
  500.4 11.51 11
  500.7 9.54 9
  500.8 10.81 10
  500.9 11.97 11
  501.0 12.5 12
  501.1 11.58 11
  501.2 9.5 9
  501.5 8.88 8
  501.6 11.38 11
  501.7 14.23 14
  501.8 15.51 15
  501.9 13.91 13
  502.0 11.01 10
  503.7 5.91 5
  503.8 8.24 8
  503.9 11.51 11
  504.0 12.99 12
  504.1 12.2 12
  504.2 11.13 11
  504.3 11.42 11
  504.4 12.51 12
  504.5 12.79 12
  504.6 11.61 11
  504.7 9.58 9
  505.0 7.26 7
  505.1 8.97 8
  505.2 10.72 10
  505.3 10.93 10
  505.4 9.28 9
  505.7 7.86 7
  505.8 10.41 10
  505.9 12.3 12
  506.0 12.41 12
  506.1 11.08 11
  506.2 9.75 9
  506.7 8.42 8
  506.8 10.59 10
  506.9 13.23 13
  507.0 15.15 15
  507.1 15.51 15
  507.2 14.19 14
  507.3 12.24 12
  508.2 11.49 11
  508.3 13.45 13
  508.4 15.61 15
  508.5 15.94 15
  508.6 14.05 14
  508.7 10.85 10
  509.0 7.33 7
  509.1 9.94 9
  509.2 12.36 12
  509.3 12.82 12
  509.4 11.04 11
  510.0 8.5 8
  510.1 9.81 9
  510.2 12.91 12
  510.3 15.34 15
  510.4 14.59 14
  510.5 10.43 10
  510.8 6.49 6
  510.9 10.68 10
  511.0 13.31 13
  511.1 13.38 13
  511.2 11.92 11
  511.3 10.07 10
  511.9 6.63 6
  512.0 8.6 8
  512.1 11.94 11
  512.2 14.08 14
  512.3 13.55 13
  512.4 11.51 11
  513.5 5.35 5
  513.6 8.7 8
  513.7 11.1 11
  513.8 12.47 12
  513.9 13.2 13
  514.0 12.74 12
  514.1 10.94 10
  516.1 4.86 4
  516.2 7.8 7
  516.3 11.38 11
  516.4 12.78 12
  516.5 11.93 11
  516.6 10.71 10
  516.7 10.08 10
  516.8 9.57 9
  517.6 8.47 8
  517.7 10.75 10
  517.8 13.47 13
  517.9 13.9 13
  518.0 11.78 11
  518.9 7.21 7
  519.0 9.48 9
  519.1 11.19 11
  519.2 11.13 11
  521.2 8.36 8
  521.3 10.2 10
  521.4 12.0 11
  521.5 12.33 12
  521.6 10.95 10
  521.9 8.02 8
  522.0 9.99 9
  522.1 11.8 11
  522.2 12.03 12
  522.6 10.23 10
  522.7 12.24 12
  522.8 14.16 14
  522.9 15.03 15
  523.0 14.64 14
  523.1 13.26 13
  523.4 11.6 11
  523.5 14.61 14
  523.6 16.77 16
  523.7 16.26 16
  523.8 13.51 13
  523.9 10.49 10
  524.3 9.62 9
  524.4 9.96 9
  524.5 11.19 11
  524.6 13.08 13
  524.7 13.63 13
  524.8 11.98 11
  524.9 9.72 9
  525.2 9.45 9
  525.3 11.52 11
  525.4 13.87 13
  525.5 14.53 14
  525.6 12.28 12
  525.9 7.88 7
  526.0 10.02 10
  526.1 10.49 10
  526.2 9.49 9
  526.3 8.99 8
  526.4 9.59 9
  526.5 10.11 10
  526.6 9.73 9
  526.7 8.7 8
  527.0 6.09 6
  527.1 7.32 7
  527.2 9.94 9
  527.3 12.1 12
  527.4 12.03 12
  527.5 10.25 10
  527.6 8.61 8
  527.9 7.35 7
  528.0 8.38 8
  528.1 10.89 10
  528.2 13.4 13
  528.3 14.46 14
  528.4 14.19 14
  528.5 13.45 13
  528.6 12.54 12
  528.7 11.16 11
  528.8 9.33 9
  529.1 8.34 8
  529.2 10.72 10
  529.3 12.87 12
  529.4 13.5 13
  529.5 12.73 12
  530.0 10.53 10
  530.1 11.83 11
  530.2 14.0 13
  530.3 14.91 14
  531.5 6.4 6
  531.6 8.85 8
  531.7 12.29 12
  531.8 14.57 14
  531.9 14.13 14
  532.0 11.35 11
  532.3 8.95 8
  532.4 11.49 11
  532.5 13.19 13
  532.6 12.75 12
  532.7 10.36 10
  533.0 7.53 7
  533.1 10.52 10
  533.2 12.78 12
  533.3 12.57 12
  533.4 10.22 10
  533.7 8.02 8
  533.8 10.63 10
  533.9 12.48 12
  534.0 12.12 12
  534.1 10.09 10
  534.9 8.56 8
  535.0 9.66 9
  535.1 11.51 11
  535.2 13.45 13
  535.3 14.05 14
  535.4 12.5 12
  535.5 9.54 9
  535.8 6.06 6
  535.9 7.48 7
  536.0 9.14 9
  536.1 11.04 11
  536.2 13.02 13
  536.3 14.37 14
  536.4 14.31 14
  536.5 12.79 12
  536.6 10.56 10
  536.7 8.6 8
  537.1 8.05 8
  537.2 8.86 8
  537.3 10.04 10
  537.4 10.63 10
  537.5 10.13 10
  537.6 8.92 8
  538.0 7.46 7
  538.1 8.65 8
  538.2 9.85 9
  538.3 10.62 10
  538.4 11.35 11
  538.5 12.25 12
  538.6 12.65 12
  538.7 12.21 12
  538.8 11.52 11
  538.9 11.34 11
  539.0 11.69 11
  539.1 12.05 12
  539.2 12.02 12
  539.3 11.71 11
  539.4 11.7 11
  539.5 12.36 12
  539.6 13.18 13
  539.7 13.18 13
  541.5 9.09 9
  541.6 10.56 10
  541.7 12.9 12
  541.8 14.1 14
  541.9 13.17 13
  542.0 11.13 11
  542.1 9.57 9
  542.2 8.7 8
  542.5 6.67 6
  542.6 8.37 8
  542.7 10.53 10
  542.8 10.94 10
  542.9 9.63 9
  543.0 8.96 8
  543.1 10.57 10
  543.2 12.74 12
  543.3 12.69 12
  543.4 10.14 10
  543.6 8.05 8
  543.7 10.43 10
  543.8 12.86 12
  543.9 13.87 13
  544.0 13.2 13
  544.1 11.44 11
  544.2 9.41 9
  546.3 8.02 8
  546.4 10.2 10
  546.5 11.69 11
  546.6 11.47 11
  546.7 9.89 9
  546.8 7.82 7
  547.1 6.98 6
  547.2 7.95 7
  547.3 8.2 8
  547.4 8.46 8
  547.5 9.41 9
  547.6 10.38 10
  547.7 10.12 10
  547.8 8.6 8
  548.1 7.66 7
  548.2 9.12 9
  548.3 10.34 10
  548.4 11.15 11
  548.5 11.19 11
  548.6 9.9 9
  548.9 6.6 6
  549.0 8.65 8
  549.1 10.11 10
  549.2 9.57 9
  549.9 6.49 6
  550.0 8.74 8
  550.1 10.32 10
  550.2 9.93 9
  552.3 5.85 5
  552.4 7.52 7
  552.5 10.0 9
  552.6 12.97 12
  552.7 15.08 15
  552.8 15.03 15
  552.9 13.09 13
  553.0 11.12 11
  554.6 10.65 10
  554.7 11.71 11
  554.8 13.74 13
  554.9 16.29 16
  555.0 17.63 17
  555.1 16.56 16
  555.2 13.81 13
  555.5 11.02 11
  555.6 12.39 12
  555.7 13.28 13
  555.8 13.2 13
  555.9 12.82 12
  556.0 12.61 12
  557.8 9.87 9
  557.9 10.84 10
  558.0 12.99 12
  558.1 14.08 14
  558.2 12.78 12
  558.5 11.62 11
  558.6 13.56 13
  558.7 14.82 14
  558.8 14.68 14
  558.9 13.26 13
  560.4 10.11 10
  560.5 10.74 10
  560.6 11.39 11
  560.7 12.42 12
  560.8 13.06 13
  560.9 12.39 12
  561.0 11.15 11
  561.1 11.16 11
  561.2 12.77 12
  561.3 14.3 14
  561.4 14.18 14
  561.5 12.78 12
  561.6 11.21 11
  562.8 9.33 9
  562.9 10.86 10
  563.0 11.82 11
  563.1 10.99 10
  563.2 9.08 9
  564.1 7.64 7
  564.2 9.57 9
  564.3 10.56 10
  564.4 9.76 9
  564.7 7.24 7
  564.8 9.13 9
  564.9 11.11 11
  565.0 12.32 12
  565.1 12.38 12
  565.2 11.26 11
  565.3 9.41 9
  565.4 7.65 7
  565.9 6.22 6
  566.0 6.79 6
  566.1 9.84 9
  566.2 14.53 14
  566.3 17.16 17
  566.4 14.67 14
  566.5 8.55 8
  568.5 6.26 6
  568.6 7.96 7
  568.7 10.07 10
  568.8 11.44 11
  568.9 12.11 12
  569.0 12.66 12
  569.1 12.88 12
  569.2 12.32 12
  569.3 11.76 11
  569.4 12.74 12
  569.5 15.11 15
  569.6 16.75 16
  569.7 15.92 15
  570.0 12.01 11
  570.1 14.08 14
  570.2 14.81 14
  570.3 13.13 13
  570.6 10.88 10
  570.7 12.81 12
  570.8 13.74 13
  570.9 13.33 13
  571.0 12.79 12
  571.1 13.4 13
  571.2 14.95 14
  571.3 15.94 15
  571.4 15.16 15
  571.5 12.75 12
  571.6 9.87 9
  571.9 8.14 8
  572.0 9.71 9
  572.1 11.82 11
  572.2 14.22 14
  572.3 15.66 15
  572.4 14.71 14
  572.5 11.79 11
  572.9 10.72 10
  573.0 10.97 10
  573.1 11.46 11
  573.2 12.81 12
  573.3 14.82 14
  573.4 16.44 16
  573.5 15.92 15
  573.6 12.07 12
  573.7 6.34 6
  573.9 3.41 3
  574.0 8.13 8
  574.1 12.91 12
  574.2 14.81 14
  574.3 13.81 13
  574.4 12.2 12
  574.5 12.18 12
  574.6 13.63 13
  574.7 14.35 14
  574.8 12.57 12
  574.9 9.13 9
  575.2 8.27 8
  575.3 10.41 10
  575.4 12.36 12
  575.5 13.95 13
  575.6 14.17 14
  575.7 11.7 11
  575.8 7.12 7
  576.0 3.64 3
  576.1 6.79 6
  576.2 9.91 9
  576.3 11.07 11
  576.4 10.5 10
  576.7 7.71 7
  576.8 9.23 9
  576.9 11.73 11
  577.0 13.59 13
  577.1 13.68 13
  577.2 11.87 11
  577.3 9.17 9
  577.6 7.46 7
  577.7 9.41 9
  577.8 11.29 11
  577.9 12.06 12
  578.0 11.34 11
  578.1 9.81 9
  578.7 5.5 5
  578.8 7.08 7
  578.9 10.02 10
  579.0 12.03 12
  579.1 11.78 11
  579.2 10.23 10
  579.9 7.82 7
  580.0 9.05 9
  580.1 10.61 10
  580.2 11.65 11
  580.3 11.87 11
  580.4 12.16 12
  580.5 13.19 13
  580.6 14.08 14
  580.7 13.09 13
  580.8 9.93 9
  581.1 7.11 7
  581.2 9.05 9
  581.3 10.08 10
  581.4 10.02 10
  581.5 9.57 9
  581.6 9.53 9
  581.7 10.21 10
  581.8 10.95 10
  581.9 10.89 10
  582.0 10.02 10
  582.1 9.45 9
  582.2 10.04 10
  582.3 11.61 11
  582.4 13.18 13
  582.5 13.99 13
  582.6 13.33 13
  582.7 11.16 11
  583.0 8.1 8
  583.1 11.44 11
  583.2 14.48 14
  583.3 15.31 15
  583.4 14.34 14
  583.5 13.28 13
  583.6 12.63 12
  583.7 11.64 11
  583.8 10.0 9
  584.8 10.02 10
  584.9 10.48 10
  585.0 11.4 11
  585.1 15.31 15
  585.2 21.43 21
  585.3 24.72 24
  585.4 21.86 21
  585.5 15.29 15
  587.2 10.48 10
  587.3 12.42 12
  587.4 13.94 13
  587.5 13.6 13
  587.8 11.46 11
  587.9 13.09 13
  588.0 14.18 14
  588.1 14.14 14
  588.2 13.36 13
  589.0 7.1 7
  589.1 9.1 9
  589.2 12.51 12
  589.3 14.46 14
  589.4 13.81 13
  589.5 11.51 11
  590.9 6.52 6
  591.0 8.23 8
  591.1 9.4 9
  591.2 8.65 8
  591.3 6.62 6
  591.6 6.12 6
  591.7 8.02 8
  591.8 9.85 9
  591.9 10.88 10
  592.0 10.5 10
  592.1 8.55 8
  593.6 6.15 6
  593.7 8.32 8
  593.8 10.4 10
  593.9 11.58 11
  594.0 11.51 11
  594.1 10.4 10
  596.9 6.11 6
  597.0 9.37 9
  597.1 12.29 12
  597.2 11.74 11
  597.3 8.23 8
  597.5 5.37 5
  597.6 7.79 7
  597.7 10.07 10
  597.8 10.94 10
  597.9 10.86 10
  598.0 10.61 10
  598.1 10.16 10
  598.2 8.83 8
  598.4 6.34 6
  598.5 8.04 8
  598.6 11.34 11
  598.7 13.77 13
  598.8 13.47 13
  598.9 10.94 10
  599.2 8.1 8
  599.3 9.98 9
  599.4 12.0 11
  599.5 13.04 13
  599.6 12.83 12
  599.7 12.28 12
  599.8 12.23 12
  599.9 12.18 12
  600.0 10.85 10
  600.3 7.37 7
  600.4 10.97 10
  600.5 14.31 14
  600.6 14.73 14
  600.7 12.59 12
  601.0 11.79 11
  601.1 13.46 13
  601.2 15.25 15
  601.3 16.68 16
  601.4 16.39 16
  601.5 13.47 13
  601.6 9.37 9
  601.8 7.96 7
  601.9 11.24 11
  602.0 13.63 13
  602.1 13.24 13
  602.2 11.43 11
  602.3 10.8 10
  602.4 12.11 12
  602.5 13.8 13
  602.6 14.27 14
  602.7 13.54 13
  602.8 12.72 12
  602.9 12.33 12
  603.0 11.89 11
  603.1 10.77 10
  604.0 7.62 7
  604.1 8.5 8
  604.2 10.58 10
  604.3 12.74 12
  604.4 13.42 13
  604.5 12.56 12
  604.6 11.03 11
  604.7 9.4 9
  605.0 6.2 6
  605.1 7.59 7
  605.2 10.12 10
  605.3 12.02 12
  605.4 11.48 11
  606.2 8.02 8
  606.3 9.87 9
  606.4 11.62 11
  606.5 11.82 11
  606.6 10.07 10
  606.7 7.66 7
  607.3 8.64 8
  607.4 9.67 9
  607.5 11.42 11
  607.6 12.7 12
  607.7 12.61 12
  607.8 11.65 11
  607.9 10.92 10
  608.0 10.66 10
  609.6 6.53 6
  609.7 8.15 8
  609.8 9.03 9
  609.9 8.58 8
  610.0 7.91 7
  610.1 8.23 8
  610.2 9.71 9
  610.3 11.61 11
  610.4 13.15 13
  610.5 13.92 13
  610.6 13.76 13
  610.7 12.87 12
  610.8 11.66 11
  613.0 7.39 7
  613.1 10.71 10
  613.2 13.08 13
  613.3 12.3 12
  614.6 9.27 9
  614.7 12.81 12
  614.8 14.62 14
  614.9 13.23 13
  615.0 10.84 10
  615.5 10.03 10
  615.6 12.65 12
  615.7 14.41 14
  615.8 13.76 13
  617.0 11.7 11
  617.1 15.06 15
  617.2 19.36 19
  617.3 20.6 20
  617.4 16.75 16
  617.5 10.53 10
  620.0 9.48 9
  620.1 11.88 11
  620.2 14.07 14
  620.3 13.38 13
  620.4 9.72 9
  621.8 10.45 10
  621.9 11.92 11
  622.0 13.32 13
  622.1 13.53 13
  622.2 11.76 11
  622.5 8.97 8
  622.6 11.37 11
  622.7 12.55 12
  622.8 11.4 11
  622.9 8.76 8
  623.1 5.99 5
  623.2 7.83 7
  623.3 10.94 10
  623.4 13.58 13
  623.5 14.05 14
  623.6 12.07 12
  625.3 7.41 7
  625.4 10.7 10
  625.5 13.38 13
  625.6 12.83 12
  625.7 9.46 9
  627.8 5.81 5
  627.9 7.51 7
  628.0 9.69 9
  628.1 10.9 10
  628.2 10.71 10
  628.3 9.86 9
  632.0 8.02 8
  632.1 9.63 9
  632.2 12.37 12
  632.3 14.93 14
  632.4 15.97 15
  632.5 14.86 14
  634.2 7.74 7
  634.3 11.16 11
  634.4 14.22 14
  634.5 14.63 14
  634.6 12.41 12
  637.7 8.02 8
  637.8 11.48 11
  637.9 14.61 14
  638.0 14.77 14
  638.1 12.2 12
  638.4 8.82 8
  638.5 12.43 12
  638.6 15.39 15
  638.7 15.48 15
  638.8 13.51 13
  638.9 11.62 11
  639.0 10.48 10
  639.7 8.38 8
  639.8 11.17 11
  639.9 13.24 13
  640.0 12.11 12
  640.1 8.47 8
  640.3 6.62 6
  640.4 10.03 10
  640.5 12.65 12
  640.6 12.54 12
  641.5 8.27 8
  641.6 9.84 9
  641.7 12.25 12
  641.8 14.44 14
  641.9 14.97 14
  642.0 13.49 13
  642.1 11.43 11
  642.2 10.16 10
  642.3 9.17 9
  642.6 5.21 5
  642.7 7.73 7
  642.8 11.01 10
  642.9 12.56 12
  643.0 11.74 11
  643.1 9.58 9
  643.4 7.05 7
  643.5 9.4 9
  643.6 12.18 12
  643.7 14.1 14
  643.8 14.49 14
  643.9 13.19 13
  644.0 10.5 10
  644.2 7.16 7
  644.3 9.41 9
  644.4 12.46 12
  644.5 13.46 13
  646.1 9.4 9
  646.2 10.4 10
  646.3 12.34 12
  646.4 15.3 15
  646.5 18.64 18
  646.6 20.74 20
  646.7 20.03 20
  646.8 16.46 16
  646.9 12.1 12
  648.0 9.22 9
  648.1 11.07 11
  648.2 13.1 13
  648.3 13.31 13
  648.4 11.4 11
  651.1 8.95 8
  651.2 9.8 9
  651.3 11.78 11
  651.4 13.89 13
  651.5 14.45 14
  651.6 12.77 12
  651.7 9.75 9
  652.0 7.32 7
  652.1 8.54 8
  652.2 9.66 9
  652.3 10.65 10
  652.4 11.31 11
  652.5 11.44 11
  652.6 11.17 11
  652.7 10.99 10
  652.8 11.08 11
  652.9 11.01 10
  653.0 10.09 10
  653.3 7.5 7
  653.4 9.81 9
  653.5 12.68 12
  653.6 13.69 13
  653.7 11.83 11
  653.8 8.55 8
  654.1 7.79 7
  654.2 9.23 9
  654.3 10.59 10
  654.4 11.74 11
  654.5 12.01 11
  654.6 11.29 11
  654.7 10.75 10
  654.8 11.15 11
  654.9 11.58 11
  655.0 10.9 10
  655.1 9.8 9
  655.2 9.64 9
  655.3 10.18 10
  655.4 9.94 9
  657.4 10.49 10
  657.5 10.8 10
  657.6 11.82 11
  657.7 13.69 13
  657.8 15.16 15
  657.9 14.63 14
  658.0 12.02 12
  658.8 4.92 4
  658.9 7.75 7
  659.0 11.33 11
  659.1 13.45 13
  659.2 13.11 13
  659.3 10.39 10
  659.6 5.85 5
  659.7 9.87 9
  659.8 12.68 12
  659.9 12.1 12
  660.0 9.49 9
  661.0 7.65 7
  661.1 8.95 8
  661.2 10.74 10
  661.3 12.34 12
  661.4 12.83 12
  661.5 11.74 11
  661.9 10.0 9
  662.0 10.52 10
  662.1 11.73 11
  662.2 13.77 13
  662.3 15.36 15
  662.4 15.53 15
  662.5 14.25 14
  662.6 11.98 11
  663.5 10.22 10
  663.6 12.28 12
  663.7 14.5 14
  663.8 15.06 15
  663.9 13.26 13
  665.0 8.91 8
  665.1 11.22 11
  665.2 13.33 13
  665.3 14.07 14
  665.4 13.63 13
  665.5 12.82 12
  667.9 9.21 9
  668.0 10.85 10
  668.1 11.74 11
  668.2 11.07 11
  668.5 9.48 9
  668.6 11.93 11
  668.7 14.5 14
  668.8 14.85 14
  668.9 12.01 11
  669.0 7.38 7
  669.2 3.14 3
  669.3 6.31 6
  669.4 11.06 11
  669.5 14.1 14
  669.6 14.05 14
  669.7 12.37 12
  669.8 10.98 10
  669.9 10.02 10
  670.0 8.63 8
  670.3 6.76 6
  670.4 9.5 9
  670.5 12.19 12
  670.6 12.51 12
  670.7 10.34 10
  670.8 7.93 7
  671.5 5.3 5
  671.6 8.27 8
  671.7 11.4 11
  671.8 12.16 12
  671.9 10.23 10
  672.8 5.32 5
  672.9 6.93 6
  673.0 8.27 8
  673.1 8.79 8
  673.2 8.29 8
  673.3 6.61 6
  673.6 2.52 2
  673.7 5.43 5
  673.8 9.69 9
  673.9 12.81 12
  674.0 12.69 12
  674.1 9.42 9
  674.2 5.31 5
  674.4 3.59 3
  674.5 6.58 6
  674.6 10.23 10
  674.7 12.78 12
  674.8 13.18 13
  674.9 11.42 11
  676.0 4.89 4
  676.1 6.6 6
  676.2 8.79 8
  676.3 10.41 10
  676.4 10.76 10
  676.5 9.85 9
  676.6 8.33 8
  676.9 7.48 7
  677.0 9.75 9
  677.1 12.66 12
  677.2 14.36 14
  677.3 13.47 13
  677.4 10.29 10
  677.7 7.75 7
  677.8 11.49 11
  677.9 14.0 13
  678.0 13.99 13
  678.1 12.46 12
  678.2 10.92 10
  678.7 9.76 9
  678.8 11.38 11
  678.9 12.78 12
  679.0 13.02 13
  679.1 12.3 12
  679.2 11.52 11
  679.3 11.07 11
  679.4 10.94 10
  679.5 11.02 11
  679.6 11.43 11
  679.7 11.94 11
  679.8 12.02 12
  679.9 11.46 11
  681.4 7.23 7
  681.5 9.95 9
  681.6 11.87 11
  681.7 11.22 11
  681.8 8.45 8
  682.0 5.17 5
  682.1 7.38 7
  682.2 11.01 10
  682.3 13.65 13
  682.4 13.89 13
  684.1 7.55 7
  684.2 7.83 7
  684.3 8.43 8
  684.4 10.39 10
  684.5 12.86 12
  684.6 13.69 13
  684.7 12.2 12
  685.1 10.29 10
  685.2 11.65 11
  685.3 12.77 12
  685.4 13.4 13
  685.5 13.82 13
  685.6 14.05 14
  685.7 13.53 13
  685.8 11.64 11
  685.9 9.13 9
  686.2 8.01 8
  686.3 9.08 9
  686.4 11.31 11
  686.5 14.43 14
  686.6 15.75 15
  686.7 13.02 13
  686.8 7.42 7
  687.0 3.52 3
  687.1 8.06 8
  687.2 13.08 13
  687.3 15.15 15
  687.4 13.44 13
  687.5 9.99 9
  688.4 8.18 8
  688.5 9.72 9
  688.6 11.76 11
  688.7 13.45 13
  688.8 14.45 14
  688.9 14.3 14
  689.0 12.41 12
  689.1 9.36 9
  689.2 6.84 6
  689.5 4.54 4
  689.6 5.59 5
  689.7 8.34 8
  689.8 10.81 10
  689.9 11.03 11
  690.0 9.54 9
  690.1 9.01 9
  690.2 10.68 10
  690.3 12.78 12
  690.4 12.75 12
  690.5 10.5 10
  692.2 7.65 7
  692.3 9.53 9
  692.4 11.57 11
  692.5 13.36 13
  692.6 13.71 13
  692.7 11.98 11
  692.8 9.54 9
  693.3 8.68 8
  693.4 10.89 10
  693.5 13.46 13
  693.6 14.68 14
  693.7 14.18 14
  693.8 13.0 12
  693.9 12.57 12
  694.0 13.01 12
  694.1 13.09 13
  694.2 11.87 11
  694.5 10.12 10
  694.6 12.18 12
  694.7 14.82 14
  694.8 16.37 16
  694.9 15.34 15
  695.0 12.36 12
  695.7 11.33 11
  695.8 13.33 13
  695.9 15.99 15
  696.0 16.42 16
  696.1 13.37 13
  696.2 9.09 9
  696.4 7.79 7
  696.5 10.0 9
  696.6 11.67 11
  696.7 12.48 12
  696.8 12.84 12
  696.9 12.69 12
  697.0 12.06 12
  697.1 11.35 11
  697.2 10.92 10
  697.3 10.57 10
  697.4 10.31 10
  697.5 10.41 10
  697.6 10.7 10
  697.7 10.75 10
  697.8 10.18 10
  697.9 9.27 9
  698.0 9.0 8
  698.1 10.16 10
  698.2 12.2 12
  698.3 13.47 13
  698.4 13.0 12
  698.5 11.3 11
  698.6 9.33 9
  698.9 8.23 8
  699.0 9.44 9
  699.1 10.48 10
  699.2 11.69 11
  699.3 13.29 13
  699.4 14.39 14
  699.5 14.09 14
  699.6 12.83 12
  699.7 11.58 11
  699.8 10.2 10
  700.1 8.06 8
  700.2 11.17 11
  700.3 14.13 14
  700.4 15.12 15
  700.5 14.09 14
  700.6 11.73 11
  700.7 8.36 8
  700.9 5.01 5
  701.0 7.96 7
  701.1 11.46 11
  701.2 12.43 12
  701.3 10.83 10
  702.1 6.52 6
  702.2 7.73 7
  702.3 10.02 10
  702.4 12.6 12
  702.5 14.19 14
  702.6 13.37 13
  702.7 10.4 10
  702.8 7.15 7
  703.0 5.72 5
  703.1 7.68 7
  703.2 10.2 10
  703.3 11.6 11
  703.4 10.92 10
  703.5 8.92 8
  703.6 6.94 6
  703.9 6.57 6
  704.0 8.47 8
  704.1 10.23 10
  704.2 11.07 11
  704.3 11.01 10
  704.4 10.36 10
  706.6 6.24 6
  706.7 7.24 7
  706.8 8.79 8
  706.9 10.79 10
  707.0 12.46 12
  707.1 12.75 12
  707.2 11.55 11
  707.9 9.23 9
  708.0 11.19 11
  708.1 13.94 13
  708.2 15.72 15
  708.3 15.03 15
  708.4 12.06 12
  708.7 8.78 8
  708.8 11.73 11
  708.9 14.1 14
  709.0 14.45 14
  709.1 13.19 13
  709.2 12.21 12
  709.3 12.63 12
  709.4 13.82 13
  709.5 14.46 14
  709.6 14.19 14
  709.7 13.62 13
  709.8 13.31 13
  709.9 13.46 13
  710.0 14.0 13
  710.1 14.81 14
  710.2 15.72 15
  710.3 16.42 16
  710.4 16.39 16
  710.5 15.12 15
  711.8 8.64 8
  711.9 10.44 10
  712.0 11.78 11
  712.1 12.65 12
  712.2 12.82 12
  712.3 12.0 11
  712.4 10.68 10
  715.6 4.74 4
  715.7 9.21 9
  715.8 12.14 12
  715.9 11.91 11
  716.0 10.31 10
  716.1 9.81 9
  716.2 10.52 10
  716.3 10.92 10
  716.4 10.2 10
  716.5 9.12 9
  716.6 8.85 8
  716.7 9.21 9
  716.8 9.18 9
  717.2 8.24 8
  717.3 10.14 10
  717.4 12.45 12
  717.5 14.77 14
  717.6 16.3 16
  717.7 16.08 16
  717.8 13.98 13
  717.9 11.42 11
  718.0 10.12 10
  718.1 9.87 9
  718.2 9.06 9
  718.5 7.48 7
  718.6 10.38 10
  718.7 12.82 12
  718.8 13.05 13
  718.9 11.22 11
  719.7 7.61 7
  719.8 9.39 9
  719.9 11.64 11
  720.0 13.31 13
  720.1 13.98 13
  720.2 13.72 13
  720.3 12.87 12
  720.4 11.84 11
  720.5 11.1 11
  720.6 10.5 10
  720.7 9.37 9
  721.0 5.59 5
  721.1 7.66 7
  721.2 10.92 10
  721.3 12.91 12
  721.4 11.79 11
  721.7 7.3 7
  721.8 10.0 9
  721.9 11.22 11
  722.0 10.2 10
  722.1 8.76 8
  722.2 8.58 8
  722.3 9.53 9
  722.4 10.71 10
  722.5 11.49 11
  722.6 11.55 11
  722.7 10.83 10
  725.4 8.13 8
  725.5 10.58 10
  725.6 14.54 14
  725.7 17.68 17
  725.8 18.49 18
  725.9 17.2 17
  726.0 14.94 14
  726.1 12.37 12
  726.4 9.59 9
  726.5 12.32 12
  726.6 14.91 14
  726.7 15.74 15
  726.8 14.61 14
  726.9 12.69 12
  728.8 7.53 7
  728.9 8.51 8
  729.0 9.58 9
  729.1 11.39 11
  729.2 12.91 12
  729.3 12.66 12
  729.4 10.81 10
  729.5 8.68 8
  729.8 8.34 8
  729.9 9.12 9
  730.0 9.86 9
  730.1 10.85 10
  730.2 11.56 11
  730.3 11.31 11
  730.4 10.2 10
  730.5 8.99 8
  731.9 9.09 9
  732.0 10.68 10
  732.1 12.12 12
  732.2 11.88 11
  732.3 10.02 10
  732.4 7.97 7
  732.7 7.33 7
  732.8 8.24 8
  732.9 9.03 9
  733.0 9.35 9
  733.1 9.69 9
  733.2 10.38 10
  733.3 10.21 10
  733.4 8.31 8
  733.7 7.28 7
  733.8 8.94 8
  733.9 10.04 10
  734.0 10.97 10
  734.1 11.21 11
  734.2 9.75 9
  736.1 3.65 3
  736.2 5.54 5
  736.3 7.42 7
  736.4 8.59 8
  736.5 10.26 10
  736.6 13.24 13
  736.7 15.92 15
  736.8 15.75 15
  736.9 12.69 12
  738.4 6.72 6
  738.5 9.05 9
  738.6 11.98 11
  738.7 13.9 13
  738.8 13.85 13
  738.9 12.6 12
  739.0 11.93 11
  739.1 12.55 12
  739.2 13.29 13
  739.3 12.75 12
  739.4 11.08 11
  739.9 10.63 10
  740.0 11.67 11
  740.1 12.88 12
  740.2 13.36 13
  740.3 13.27 13
  740.4 13.45 13
  740.5 13.89 13
  740.6 13.98 13
  740.7 13.59 13
  740.8 13.45 13
  740.9 13.6 13
  741.0 13.74 13
  741.1 13.59 13
  741.2 13.26 13
  741.3 12.86 12
  741.4 12.34 12
  741.5 11.92 11
  741.6 11.93 11
  741.7 11.85 11
  741.8 10.58 10
  742.1 8.52 8
  742.2 10.93 10
  742.3 12.28 12
  742.4 11.92 11
  742.5 10.88 10
  742.6 10.02 10
  743.0 8.61 8
  743.1 11.33 11
  743.2 13.68 13
  743.3 13.37 13
  743.4 11.02 11
  744.1 8.45 8
  744.2 10.99 10
  744.3 13.2 13
  744.4 14.13 14
  744.5 13.92 13
  744.6 13.59 13
  744.7 13.5 13
  744.8 13.28 13
  744.9 12.74 12
  745.0 12.41 12
  745.1 12.5 12
  745.2 12.45 12
  745.3 11.76 11
  745.4 10.57 10
  745.5 8.91 8
  745.6 6.76 6
  745.9 6.33 6
  746.0 8.59 8
  746.1 9.94 9
  746.2 10.34 10
  746.3 10.34 10
  746.4 10.05 10
  746.5 9.59 9
  746.6 9.6 9
  746.7 10.44 10
  746.8 10.79 10
  746.9 9.0 8
  747.2 4.35 4
  747.3 7.28 7
  747.4 9.99 9
  747.5 10.99 10
  747.6 10.79 10
  747.7 10.94 10
  747.8 12.06 12
  747.9 13.36 13
  748.0 13.91 13
  748.1 13.51 13
  748.2 12.19 12
  748.3 10.17 10
  748.6 9.23 9
  748.7 11.57 11
  748.8 13.58 13
  748.9 13.5 13
  750.4 6.45 6
  750.5 7.59 7
  750.6 9.63 9
  750.7 10.65 10
  750.8 9.87 9
  750.9 9.0 8
  751.0 9.58 9
  751.1 10.72 10
  751.2 11.07 11
  751.3 10.99 10
  751.4 11.38 11
  751.5 11.47 11
  751.6 10.07 10
  751.9 9.35 9
  752.0 12.02 12
  752.1 13.9 13
  752.2 14.52 14
  752.3 14.21 14
  752.4 12.97 12
  752.5 10.85 10
  752.6 8.38 8
  752.9 7.92 7
  753.0 9.55 9
  753.1 10.61 10
  753.2 11.03 11
  753.3 10.9 10
  753.4 10.16 10
  753.5 9.49 9
  753.6 9.85 9
  753.7 11.03 11
  753.8 11.96 11
  753.9 12.25 12
  754.0 11.91 11
  754.1 10.59 10
  754.3 7.92 7
  754.4 9.8 9
  754.5 13.1 13
  754.6 15.35 15
  754.7 15.35 15
  754.8 13.87 13
  754.9 12.2 12
  755.0 11.02 11
  755.1 10.21 10
  755.2 9.39 9
  755.5 8.16 8
  755.6 9.45 9
  755.7 10.35 10
  755.8 10.07 10
  755.9 9.62 9
  756.0 10.66 10
  756.1 12.92 12
  756.2 14.31 14
  756.3 13.37 13
  756.4 10.81 10
  758.2 6.16 6
  758.3 10.35 10
  758.4 12.86 12
  758.5 12.73 12
  758.6 11.2 11
  758.7 9.71 9
  759.9 8.28 8
  760.0 9.36 9
  760.1 10.36 10
  760.2 10.27 10
  760.3 9.63 9
  760.4 9.93 9
  760.5 11.37 11
  760.6 12.19 12
  760.7 10.88 10
  760.8 8.27 8
  761.1 7.61 7
  761.2 9.14 9
  761.3 10.34 10
  761.4 10.7 10
  761.5 10.68 10
  761.6 11.06 11
  761.7 11.84 11
  761.8 12.15 12
  761.9 11.48 11
  764.9 5.58 5
  765.0 7.47 7
  765.1 10.4 10
  765.2 12.79 12
  765.3 13.05 13
  765.4 11.11 11
  765.5 8.68 8
  767.3 6.15 6
  767.4 8.49 8
  767.5 11.16 11
  767.6 12.9 12
  767.7 13.33 13
  767.8 12.38 12
  767.9 10.3 10
  768.0 7.96 7
  768.3 7.3 7
  768.4 9.01 9
  768.5 10.47 10
  768.6 10.49 10
  768.9 7.78 7
  769.0 9.68 9
  769.1 11.04 11
  769.2 10.41 10
  769.3 8.0 7
  769.4 5.1 5
  769.6 3.14 3
  769.7 5.13 5
  769.8 8.45 8
  769.9 11.49 11
  770.0 12.57 12
  770.9 7.42 7
  771.0 9.8 9
  771.1 11.28 11
  771.2 10.41 10
  771.5 7.6 7
  771.6 9.8 9
  771.7 10.86 10
  771.8 9.85 9
  772.0 7.52 7
  772.1 9.05 9
  772.2 12.2 12
  772.3 15.42 15
  772.4 16.61 16
  772.5 15.13 15
  773.2 10.56 10
  773.3 12.51 12
  773.4 14.3 14
  773.5 14.09 14
  773.6 11.93 11
  773.7 9.18 9
  774.8 7.05 7
  774.9 9.49 9
  775.0 11.8 11
  775.1 12.91 12
  775.2 13.1 13
  775.3 13.33 13
  775.4 13.81 13
  775.5 13.65 13
  775.6 12.39 12
  775.7 10.76 10
  776.6 7.2 7
  776.7 8.34 8
  776.8 9.87 9
  776.9 11.52 11
  777.0 13.32 13
  777.1 14.61 14
  777.2 14.12 14
  777.3 11.79 11
  777.5 9.28 9
  777.6 11.33 11
  777.7 13.98 13
  777.8 15.33 15
  777.9 14.81 14
  778.0 13.28 13
  779.2 6.69 6
  779.3 9.01 9
  779.4 12.6 12
  779.5 14.19 14
  779.6 13.11 13
  780.8 8.22 8
  780.9 10.18 10
  781.0 12.1 12
  781.1 11.94 11
  781.2 10.49 10
  781.3 10.04 10
  781.4 10.75 10
  781.5 10.65 10
  783.0 7.86 7
  783.1 9.63 9
  783.2 12.27 12
  783.3 13.65 13
  783.4 12.1 12
  783.5 8.29 8
  784.7 6.29 6
  784.8 8.33 8
  784.9 9.58 9
  785.0 9.75 9
  785.1 9.87 9
  785.2 10.41 10
  785.3 10.86 10
  785.4 10.8 10
  785.5 10.22 10
  785.6 9.21 9
  785.9 7.88 7
  786.0 10.8 10
  786.1 14.0 13
  786.2 15.36 15
  786.3 14.4 14
  786.4 12.57 12
  786.5 11.3 11
  786.9 10.52 10
  787.0 12.03 12
  787.1 12.95 12
  787.2 12.77 12
  787.3 12.41 12
  787.4 12.6 12
  787.5 12.56 12
  788.3 9.6 9
  788.4 11.8 11
  788.5 13.76 13
  788.6 14.59 14
  788.7 14.08 14
  788.8 12.48 12
  788.9 10.72 10
  789.4 9.42 9
  789.5 11.83 11
  789.6 14.53 14
  789.7 15.39 15
  789.8 13.67 13
  789.9 10.76 10
  791.2 8.61 8
  791.3 10.68 10
  791.4 12.09 12
  791.5 11.74 11
  791.6 10.59 10
  791.7 10.22 10
  791.8 10.79 10
  791.9 11.24 11
  792.0 11.02 11
  792.1 10.86 10
  792.2 10.97 10
  792.3 10.48 10
  793.2 9.54 9
  793.3 12.1 12
  793.4 14.67 14
  793.5 15.35 15
  793.6 13.32 13
  793.7 9.41 9
  794.0 5.18 5
  794.1 8.01 8
  794.2 10.47 10
  794.3 11.87 11
  794.4 13.0 12
  794.5 13.96 13
  794.6 13.69 13
  794.7 11.31 11
  794.8 7.96 7
  795.0 6.39 6
  795.1 8.46 8
  795.2 10.14 10
  795.3 10.44 10
  795.4 9.96 9
  795.5 9.96 9
  795.6 10.61 10
  795.7 10.83 10
  795.8 9.76 9
  796.1 7.2 7
  796.2 8.83 8
  796.3 10.54 10
  796.4 11.01 10
  796.5 10.11 10
  796.6 8.76 8
  796.7 7.75 7
  797.1 7.39 7
  797.2 9.09 9
  797.3 10.41 10
  797.4 10.44 10
  798.4 7.71 7
  798.5 12.19 12
  798.6 14.8 14
  798.7 13.37 13
  798.8 9.81 9
  798.9 7.21 7
//
