ACCESSION: MSBNK-RIKEN_NPDepo-NGA03138
RECORD_TITLE: Icariin; LC-ESI-QQQ; MS2; Frag=135.0V CID@10.0; [M+H]+
DATE: 2018.04.04
AUTHORS: Nogawa T, Okano A, CSRS, RIKEN
LICENSE: CC BY
COMMENT: Origin: Plant, Pyrans
CH$NAME: Icariin
CH$NAME: 3-[(6-Deoxy-alpha-L-mannopyranosyl)oxy]-7-(beta-D-glucopyranosyloxy)-5-hydroxy-2-(4-methoxyphenyl)-8-(3-methyl-2-buten-1-yl)-4H-1-benzopyran-4-one
CH$COMPOUND_CLASS: Flavonoids
CH$FORMULA: C33H40O15
CH$EXACT_MASS: 676.236721
CH$SMILES: C[C@H]1[C@@H]([C@H]([C@H]([C@@H](O1)OC2=C(OC3=C(C2=O)C(=CC(=C3CC=C(C)C)O[C@H]4[C@@H]([C@H]([C@@H]([C@H](O4)CO)O)O)O)O)C5=CC=C(C=C5)OC)O)O)O
CH$IUPAC: InChI=1S/C33H40O15/c1-13(2)5-10-17-19(45-33-28(42)26(40)23(37)20(12-34)46-33)11-18(35)21-24(38)31(48-32-27(41)25(39)22(36)14(3)44-32)29(47-30(17)21)15-6-8-16(43-4)9-7-15/h5-9,11,14,20,22-23,25-28,32-37,39-42H,10,12H2,1-4H3/t14-,20+,22-,23+,25+,26-,27+,28+,32-,33+/m0/s1
CH$LINK: CAS 489-32-7
CH$LINK: CHEMSPIDER 4477421
CH$LINK: COMPTOX DTXSID00964133
CH$LINK: INCHIKEY TZJALUIVHRYQQB-XLRXWWTNSA-N
CH$LINK: NIKKAJI J15.942E
CH$LINK: PUBCHEM CID:5318997
CH$LINK: ZINC ZINC03960893
AC$INSTRUMENT: Agilent 6410 Triple Quadrupole LC/MS system
AC$INSTRUMENT_TYPE: LC-ESI-QQQ
AC$MASS_SPECTROMETRY: MS_TYPE MS2
AC$MASS_SPECTROMETRY: ION_MODE POSITIVE
MS$FOCUSED_ION: PRECURSOR_TYPE [M+H]+
PK$SPLASH: splash10-001i-0001091000-cc6ee53d2d8171779fef
PK$NUM_PEAK: 41
PK$PEAK: m/z int. rel.int.
  368.4 0.72 0
  368.5 1.91 1
  368.6 4.01 4
  368.7 7.06 7
  368.8 10.84 10
  368.9 14.64 14
  369.0 17.41 17
  369.1 18.47 18
  369.2 17.68 17
  369.3 14.98 14
  369.4 10.45 10
  369.5 5.18 5
  369.6 1.08 1
  530.2 1.26 1
  530.3 2.93 2
  530.4 5.9 5
  530.5 10.29 10
  530.6 17.05 17
  530.7 28.32 28
  530.8 45.33 45
  530.9 65.89 65
  531.0 84.74 84
  531.1 96.78 96
  531.2 100.0 99
  531.3 94.73 94
  531.4 80.85 80
  531.5 58.27 58
  531.6 31.29 31
  531.7 8.93 8
  531.8 0.0 0
  676.6 1.76 1
  676.7 2.79 2
  676.8 4.7 4
  676.9 7.38 7
  677.0 10.12 10
  677.1 12.09 12
  677.2 12.84 12
  677.3 12.21 12
  677.4 10.06 10
  677.5 6.61 6
  677.6 2.91 2
//
