ACCESSION: MSBNK-RIKEN_NPDepo-NGA02708
RECORD_TITLE: Asiaticoside; LC-ESI-QQQ; MS2; Frag=135.0V CID@5.0; [M+H]+
DATE: 2018.04.04
AUTHORS: Nogawa T, Okano A, CSRS, RIKEN
LICENSE: CC BY
COMMENT: Origin: Plant
COMMENT: SubCategory_DNP: Triterpenoids
CH$NAME: Asiaticoside
CH$COMPOUND_CLASS: Terpenoids
CH$FORMULA: C48H78O19
CH$EXACT_MASS: 959.1455
CH$SMILES: C[C@@H]1[C@H]2C3=CCC4[C@@]5(C)C[C@@H](O)[C@@H](O)[C@@](C)(CO)C5CC[C@@]4(C)[C@]3(C)CC[C@@]2(C(=O)O[C@@H]2O[C@@H](CO[C@@H]3O[C@H](CO)[C@@H](O[C@@H]4O[C@H](C)[C@@H](O)[C@H](O)[C@H]4O)[C@H](O)[C@H]3O)[C@H](O)[C@@H](O)[C@H]2O)CC[C@H]1C
CH$IUPAC: InChI=1S/C48H78O19/c1-20-10-13-48(15-14-46(6)23(29(48)21(20)2)8-9-28-44(4)16-24(51)39(60)45(5,19-50)27(44)11-12-47(28,46)7)43(61)67-42-36(58)33(55)31(53)26(65-42)18-62-40-37(59)34(56)38(25(17-49)64-40)66-41-35(57)32(54)30(52)22(3)63-41/h8,20-22,24-42,49-60H,9-19H2,1-7H3/t20-,21+,22-,24-,25-,26+,27?,28?,29+,30-,31+,32+,33-,34-,35-,36-,37-,38-,39-,40-,41+,42+,44+,45+,46-,47-,48+/m1/s1
CH$LINK: CAS 16830-15-2
CH$LINK: CHEMSPIDER 16735678
CH$LINK: INCHIKEY WYQVAPGDARQUBT-IWROSPCBSA-N
CH$LINK: PUBCHEM CID:16407391
AC$INSTRUMENT: Agilent 6410 Triple Quadrupole LC/MS system
AC$INSTRUMENT_TYPE: LC-ESI-QQQ
AC$MASS_SPECTROMETRY: MS_TYPE MS2
AC$MASS_SPECTROMETRY: ION_MODE POSITIVE
MS$FOCUSED_ION: PRECURSOR_TYPE [M+H]+
PK$SPLASH: splash10-0a4i-0000000009-122b70040222397e3894
PK$NUM_PEAK: 18
PK$PEAK: m/z int. rel.int.
  958.1 1.88 1
  958.2 3.11 3
  958.3 5.26 5
  958.4 8.09 8
  958.5 11.04 11
  958.6 13.9 13
  958.7 17.59 17
  958.8 25.42 25
  958.9 42.44 42
  959.0 68.72 68
  959.1 92.97 92
  959.2 99.74 99
  959.3 85.32 85
  959.4 60.67 60
  959.5 37.8 37
  959.6 20.29 20
  959.7 7.65 7
  959.8 0.84 0
//
