ACCESSION: MSBNK-RIKEN_NPDepo-NGA03487
RECORD_TITLE: 9,13-Epoxy-3,18-dihydroxy-15,16-labdanolide; LC-ESI-QQQ; MS2; Frag=135.0V CID@10.0; [M+HCOO]-
DATE: 2018.04.04
AUTHORS: Nogawa T, Okano A, CSRS, RIKEN
LICENSE: CC BY
COMMENT: Origin: Plant
COMMENT: SubCategory_DNP: Diterpenoids, Labdane diterpenoids
CH$NAME: 9,13-Epoxy-3,18-dihydroxy-15,16-labdanolide
CH$COMPOUND_CLASS: Terpenoids
CH$FORMULA: C20H32O5
CH$EXACT_MASS: 352.475
CH$SMILES: C[C@@H]1CCC2[C@](C)(CC[C@H](O)[C@@]2(C)CO)[C@@]12CC1(COC(=O)C1)CO2
CH$IUPAC: InChI=1S/C20H32O5/c1-13-4-5-14-17(2,10-21)15(22)6-7-18(14,3)20(13)9-19(12-25-20)8-16(23)24-11-19/h13-15,21-22H,4-12H2,1-3H3/t13-,14?,15+,17+,18+,19?,20-/m1/s1
CH$LINK: INCHIKEY QHYFPLAXWXWDJP-GNQMFGHGSA-N
CH$LINK: PUBCHEM CID:16408478
AC$INSTRUMENT: Agilent 6410 Triple Quadrupole LC/MS system
AC$INSTRUMENT_TYPE: LC-ESI-QQQ
AC$MASS_SPECTROMETRY: MS_TYPE MS2
AC$MASS_SPECTROMETRY: ION_MODE NEGATIVE
MS$FOCUSED_ION: PRECURSOR_TYPE [M+HCOO]-
PK$SPLASH: splash10-0aor-4888980000-d0b5f050a43e565d3cc7
PK$NUM_PEAK: 4116
PK$PEAK: m/z int. rel.int.
  50.9 6.99 6
  51.0 10.0 9
  51.1 16.28 16
  51.2 20.33 20
  51.3 18.21 18
  51.4 11.84 11
  51.6 8.96 8
  51.7 14.83 14
  51.8 20.04 20
  51.9 20.57 20
  52.0 15.86 15
  52.1 8.93 8
  52.3 7.01 7
  52.4 13.62 13
  52.5 19.21 19
  52.6 19.32 19
  52.7 14.0 13
  52.9 4.85 4
  53.0 8.86 8
  53.1 16.07 16
  53.2 19.88 19
  53.3 16.65 16
  53.4 9.16 9
  53.6 5.93 5
  53.7 13.92 13
  53.8 22.52 22
  53.9 25.81 25
  54.0 21.91 21
  54.1 14.45 14
  54.3 9.39 9
  54.4 13.09 13
  54.5 16.46 16
  54.6 16.45 16
  54.7 13.09 13
  54.9 10.74 10
  55.0 14.87 14
  55.1 18.16 18
  55.2 17.4 17
  55.3 13.65 13
  55.5 11.7 11
  55.6 15.71 15
  55.7 18.95 18
  55.8 17.95 17
  55.9 12.92 12
  56.1 7.07 7
  56.2 11.39 11
  56.3 17.07 17
  56.4 18.71 18
  56.5 14.59 14
  56.7 7.51 7
  56.8 11.64 11
  56.9 17.62 17
  57.0 20.52 20
  57.1 18.57 18
  57.4 13.16 13
  57.5 18.23 18
  57.6 21.57 21
  57.7 19.94 19
  57.8 14.65 14
  58.1 9.97 9
  58.2 15.59 15
  58.3 20.37 20
  58.4 19.85 19
  58.5 13.94 13
  58.7 7.33 7
  58.8 11.99 11
  58.9 16.82 16
  59.0 17.1 17
  59.1 12.73 12
  59.3 7.04 7
  59.4 11.36 11
  59.5 16.99 16
  59.6 18.82 18
  59.7 15.37 15
  59.9 7.71 7
  60.0 10.77 10
  60.1 16.53 16
  60.2 19.66 19
  60.3 17.15 17
  60.4 10.99 10
  60.6 8.18 8
  60.7 13.48 13
  60.8 17.26 17
  60.9 16.28 16
  61.0 11.94 11
  61.2 9.3 9
  61.3 13.94 13
  61.4 18.79 18
  61.5 19.46 19
  61.6 14.81 14
  61.8 5.87 5
  61.9 9.52 9
  62.0 16.57 16
  62.1 20.86 20
  62.2 18.7 18
  62.3 12.47 12
  62.5 10.64 10
  62.6 17.01 16
  62.7 21.82 21
  62.8 21.0 20
  62.9 15.47 15
  63.2 10.0 9
  63.3 14.73 14
  63.4 18.07 18
  63.5 17.29 17
  63.6 13.11 13
  63.8 10.72 10
  63.9 15.23 15
  64.0 18.1 18
  64.1 15.76 15
  64.2 9.96 9
  64.4 7.41 7
  64.5 12.77 12
  64.6 17.7 17
  64.7 18.24 18
  64.8 13.56 13
  65.1 5.81 5
  65.2 13.01 12
  65.3 19.26 19
  65.4 20.15 20
  65.5 15.92 15
  65.7 9.99 9
  65.8 12.97 12
  65.9 16.54 16
  66.0 17.49 17
  66.1 15.42 15
  66.2 11.84 11
  66.4 8.52 8
  66.5 11.49 11
  66.6 15.68 15
  66.7 17.57 17
  66.8 15.64 15
  66.9 12.08 12
  67.6 7.37 7
  67.7 11.94 11
  67.8 17.45 17
  67.9 19.6 19
  68.0 16.48 16
  68.1 10.24 10
  68.3 6.3 6
  68.4 11.7 11
  68.5 17.37 17
  68.6 18.37 18
  68.7 13.61 13
  68.9 5.42 5
  69.0 9.97 9
  69.1 16.96 16
  69.2 20.51 20
  69.3 18.13 18
  69.4 12.59 12
  69.6 9.36 9
  69.7 12.89 12
  69.8 15.7 15
  69.9 15.39 15
  70.0 12.39 12
  70.2 9.25 9
  70.3 12.89 12
  70.4 17.24 17
  70.5 18.1 18
  70.6 14.56 14
  71.4 11.1 11
  71.5 14.03 14
  71.6 18.6 18
  71.7 20.41 20
  71.8 16.89 16
  71.9 10.08 10
  72.1 5.43 5
  72.2 10.42 10
  72.3 15.36 15
  72.4 16.03 16
  72.5 12.33 12
  72.7 7.26 7
  72.8 11.03 11
  72.9 16.51 16
  73.0 19.38 19
  73.1 17.13 17
  73.2 11.8 11
  73.4 10.36 10
  73.5 15.48 15
  73.6 18.85 18
  73.7 17.67 17
  73.8 13.31 13
  74.0 9.93 9
  74.1 14.45 14
  74.2 19.62 19
  74.3 20.47 20
  74.4 15.01 14
  75.3 8.43 8
  75.4 14.23 14
  75.5 18.76 18
  75.6 17.65 17
  75.7 11.41 11
  75.9 5.99 5
  76.0 12.36 12
  76.1 19.24 19
  76.2 20.66 20
  76.3 15.7 15
  76.4 8.55 8
  76.6 7.88 7
  76.7 14.31 14
  76.8 18.62 18
  76.9 17.74 17
  77.0 13.8 13
  77.2 12.39 12
  77.3 16.06 16
  77.4 19.1 19
  77.5 18.62 18
  77.6 14.22 14
  77.9 8.58 8
  78.0 15.4 15
  78.1 21.57 21
  78.2 22.19 22
  78.3 16.84 16
  78.5 8.66 8
  78.6 12.55 12
  78.7 17.68 17
  78.8 18.99 18
  78.9 15.68 15
  79.2 12.22 12
  79.3 15.96 15
  79.4 18.23 18
  79.5 16.87 16
  79.6 12.52 12
  79.8 9.89 9
  79.9 14.19 14
  80.0 17.71 17
  80.1 17.28 17
  80.2 13.87 13
  81.0 12.7 12
  81.1 13.92 13
  81.2 15.62 15
  81.3 16.06 16
  81.4 14.14 14
  81.7 9.66 9
  81.8 14.72 14
  81.9 19.6 19
  82.0 19.15 19
  82.1 12.59 12
  82.3 3.34 3
  82.4 8.52 8
  82.5 16.43 16
  82.6 21.13 21
  82.7 20.05 20
  82.8 15.18 15
  84.2 6.51 6
  84.3 9.83 9
  84.4 17.09 17
  84.5 22.88 22
  84.6 23.06 23
  84.7 18.41 18
  85.6 10.03 10
  85.7 14.12 14
  85.8 17.07 17
  85.9 16.54 16
  86.0 12.84 12
  86.2 8.44 8
  86.3 12.0 11
  86.4 16.46 16
  86.5 17.71 17
  86.6 14.26 14
  86.9 8.54 8
  87.0 14.37 14
  87.1 18.26 18
  87.2 17.09 17
  87.3 12.8 12
  87.5 10.42 10
  87.6 13.9 13
  87.7 17.07 17
  87.8 17.26 17
  87.9 14.23 14
  88.1 9.53 9
  88.2 13.11 13
  88.3 18.74 18
  88.4 21.24 21
  88.5 17.37 17
  88.8 9.91 9
  88.9 17.01 16
  89.0 20.47 20
  89.1 16.82 16
  89.2 9.3 9
  89.4 7.05 7
  89.5 14.86 14
  89.6 21.63 21
  89.7 22.02 21
  89.8 16.32 16
  90.0 7.83 7
  90.1 11.88 11
  90.2 18.21 18
  90.3 21.4 21
  90.4 19.02 19
  90.5 13.39 13
  91.3 6.13 6
  91.4 8.47 8
  91.5 12.41 12
  91.6 14.23 14
  91.7 12.05 12
  91.9 6.59 6
  92.0 10.17 10
  92.1 15.84 15
  92.2 18.12 18
  92.3 14.76 14
  92.6 8.02 8
  92.7 14.58 14
  92.8 20.21 20
  92.9 20.68 20
  93.0 16.31 16
  93.2 11.53 11
  93.3 15.86 15
  93.4 21.21 21
  93.5 23.13 23
  93.6 19.66 19
  93.7 12.98 12
  93.9 8.08 8
  94.0 12.56 12
  94.1 17.12 17
  94.2 17.87 17
  94.3 14.48 14
  94.5 8.8 8
  94.6 11.7 11
  94.7 16.25 16
  94.8 17.82 17
  94.9 13.98 13
  95.2 7.52 7
  95.3 14.5 14
  95.4 18.59 18
  95.5 16.7 16
  95.8 12.45 12
  95.9 17.65 17
  96.0 20.55 20
  96.1 18.6 18
  96.2 13.12 13
  96.4 6.94 6
  96.5 10.96 10
  96.6 16.35 16
  96.7 17.95 17
  96.8 14.2 14
  97.1 8.65 8
  97.2 13.26 13
  97.3 16.76 16
  97.4 16.89 16
  97.5 13.65 13
  97.7 9.55 9
  97.8 13.8 13
  97.9 18.73 18
  98.0 19.37 19
  98.1 14.98 14
  98.2 9.6 9
  98.4 9.21 9
  98.5 13.19 13
  98.6 16.54 16
  98.7 16.9 16
  98.8 13.53 13
  99.0 7.46 7
  99.1 10.86 10
  99.2 16.17 16
  99.3 18.41 18
  99.4 15.65 15
  99.6 9.86 9
  99.7 13.72 13
  99.8 19.55 19
  99.9 22.05 22
  100.0 18.62 18
  100.1 11.78 11
  100.3 8.57 8
  100.4 14.28 14
  100.5 18.99 18
  100.6 18.84 18
  100.7 14.47 14
  100.9 9.75 9
  101.0 12.86 12
  101.1 16.35 16
  101.2 17.12 17
  101.3 14.5 14
  101.6 10.92 10
  101.7 15.04 15
  101.8 17.82 17
  101.9 17.49 17
  102.8 5.73 5
  102.9 9.52 9
  103.0 15.36 15
  103.1 18.23 18
  103.2 15.78 15
  103.4 8.88 8
  103.5 11.99 11
  103.6 17.67 17
  103.7 20.97 20
  103.8 18.7 18
  103.9 12.55 12
  104.1 8.83 8
  104.2 13.95 13
  104.3 18.46 18
  104.4 19.24 19
  104.5 17.12 17
  104.6 14.87 14
  105.3 10.07 10
  105.4 11.58 11
  105.5 15.28 15
  105.6 18.24 18
  105.7 17.74 17
  105.8 13.53 13
  106.0 7.3 7
  106.1 11.27 11
  106.2 17.37 17
  106.3 19.87 19
  106.4 16.6 16
  106.5 11.02 11
  106.7 10.03 10
  106.8 13.67 13
  106.9 15.61 15
  107.0 14.53 14
  107.1 11.72 11
  107.3 9.88 9
  107.4 13.37 13
  107.5 18.23 18
  107.6 20.76 20
  107.7 18.6 18
  107.8 13.51 13
  108.0 10.21 10
  108.1 13.59 13
  108.2 16.62 16
  108.3 16.46 16
  108.6 11.19 11
  108.7 16.23 16
  108.8 19.87 19
  108.9 18.52 18
  109.0 14.04 14
  109.2 11.39 11
  109.3 14.5 14
  109.4 16.99 16
  109.5 16.14 16
  109.6 12.41 12
  109.8 9.58 9
  109.9 13.44 13
  110.0 18.1 18
  110.1 20.3 20
  110.2 17.95 17
  110.3 12.27 12
  110.5 7.87 7
  110.6 13.17 13
  110.7 19.18 19
  110.8 20.58 20
  110.9 15.65 15
  111.0 8.22 8
  111.2 6.35 6
  111.3 12.2 12
  111.4 17.12 17
  111.5 17.52 17
  111.6 13.22 13
  111.8 7.26 7
  111.9 11.36 11
  112.0 16.0 15
  112.1 16.23 16
  112.2 11.99 11
  112.4 8.75 8
  112.5 14.08 14
  112.6 19.24 19
  112.7 19.46 19
  112.8 14.59 14
  112.9 8.66 8
  113.1 8.46 8
  113.2 13.08 13
  113.3 16.31 16
  113.4 16.06 16
  113.5 12.97 12
  113.7 8.74 8
  113.8 11.25 11
  113.9 14.72 14
  114.0 14.87 14
  114.1 9.96 9
  114.3 2.62 2
  114.4 8.69 8
  114.5 16.48 16
  114.6 18.8 18
  114.7 14.11 14
  114.8 7.01 7
  115.0 5.65 5
  115.1 12.77 12
  115.2 19.71 19
  115.3 21.52 21
  115.4 17.37 17
  115.5 11.03 11
  115.7 8.29 8
  115.8 12.28 12
  115.9 15.14 15
  116.0 13.87 13
  116.3 9.85 9
  116.4 14.67 14
  116.5 17.51 17
  116.6 15.93 15
  116.9 12.2 12
  117.0 17.17 17
  117.1 20.07 20
  117.2 18.27 18
  117.3 13.11 13
  117.5 7.19 7
  117.6 10.53 10
  117.7 16.25 16
  117.8 20.35 20
  117.9 19.69 19
  118.0 14.62 14
  118.2 7.72 7
  118.3 11.67 11
  118.4 17.57 17
  118.5 19.85 19
  118.6 16.06 16
  119.5 10.0 9
  119.6 14.11 14
  119.7 16.56 16
  119.8 15.47 15
  120.0 11.86 11
  120.1 14.67 14
  120.2 18.7 18
  120.3 19.91 19
  120.4 16.76 16
  120.5 11.45 11
  120.7 8.35 8
  120.8 12.41 12
  120.9 17.15 17
  121.0 19.09 19
  121.1 16.17 16
  121.2 9.71 9
  121.4 6.15 6
  121.5 13.51 13
  121.6 21.27 21
  121.7 23.24 23
  121.8 18.07 18
  121.9 10.47 10
  122.6 8.08 8
  122.7 12.28 12
  122.8 18.15 18
  122.9 21.08 21
  123.0 18.23 18
  123.1 11.36 11
  123.3 7.93 7
  123.4 15.0 14
  123.5 21.11 21
  123.6 20.79 20
  123.7 14.64 14
  123.9 7.38 7
  124.0 12.2 12
  124.1 18.49 18
  124.2 21.21 21
  124.3 18.77 18
  124.4 13.92 13
  124.6 11.78 11
  124.7 15.23 15
  124.8 17.9 17
  124.9 17.28 17
  125.0 13.48 13
  125.2 8.5 8
  125.3 11.35 11
  125.4 15.26 15
  125.5 16.92 16
  125.6 15.56 15
  126.4 8.11 8
  126.5 11.45 11
  126.6 16.84 16
  126.7 19.55 19
  126.8 17.2 17
  126.9 11.59 11
  127.1 7.38 7
  127.2 12.38 12
  127.3 18.46 18
  127.4 20.66 20
  127.5 16.87 16
  127.6 9.58 9
  127.8 3.9 3
  127.9 9.16 9
  128.0 15.56 15
  128.1 17.92 17
  128.2 14.48 14
  128.5 8.24 8
  128.6 13.58 13
  128.7 17.35 17
  128.8 16.84 16
  128.9 12.97 12
  129.1 8.91 8
  129.2 12.55 12
  129.3 17.06 17
  129.4 18.24 18
  129.5 14.64 14
  129.8 8.79 8
  129.9 13.44 13
  130.0 16.35 16
  130.1 15.4 15
  130.2 12.11 12
  130.4 9.91 9
  130.5 12.75 12
  130.6 15.7 15
  130.7 15.89 15
  130.8 12.69 12
  131.0 10.17 10
  131.1 15.11 15
  131.2 19.24 19
  131.3 18.38 18
  131.6 12.47 12
  131.7 17.77 17
  131.8 22.44 22
  131.9 22.63 22
  132.0 17.95 17
  132.1 11.72 11
  132.3 9.64 9
  132.4 13.36 13
  132.5 15.82 15
  132.6 15.12 15
  132.7 12.09 12
  132.9 8.97 8
  133.0 12.38 12
  133.1 17.24 17
  133.2 19.01 18
  133.3 15.09 15
  133.5 6.18 6
  133.6 10.33 10
  133.7 17.1 17
  133.8 20.16 20
  133.9 17.13 17
  134.0 11.14 11
  134.2 9.66 9
  134.3 15.87 15
  134.4 20.72 20
  134.5 19.77 19
  134.6 13.69 13
  134.8 6.69 6
  134.9 11.41 11
  135.0 17.74 17
  135.1 20.66 20
  135.2 18.26 18
  135.3 13.0 12
  135.5 9.6 9
  135.6 13.06 13
  135.7 15.76 15
  135.8 14.89 14
  136.1 10.38 10
  136.2 15.06 15
  136.3 20.15 20
  136.4 22.13 22
  136.5 19.1 19
  137.3 5.09 5
  137.4 9.3 9
  137.5 16.01 15
  137.6 18.55 18
  137.7 14.76 14
  137.9 6.52 6
  138.0 9.85 9
  138.1 16.32 16
  138.2 21.64 21
  138.3 22.77 22
  138.4 19.12 19
  138.5 13.08 13
  138.7 9.61 9
  138.8 13.17 13
  138.9 15.68 15
  139.0 14.87 14
  139.3 11.08 11
  139.4 15.65 15
  139.5 19.54 19
  139.6 19.16 19
  139.7 15.07 15
  139.9 10.58 10
  140.0 13.31 13
  140.1 16.64 16
  140.2 17.65 17
  140.3 15.68 15
  140.6 11.84 11
  140.7 14.92 14
  140.8 17.95 17
  140.9 18.71 18
  141.0 16.26 16
  141.1 12.14 12
  141.3 10.77 10
  141.4 14.5 14
  141.5 16.65 16
  141.6 14.34 14
  141.7 9.08 9
  141.9 5.79 5
  142.0 10.75 10
  142.1 16.04 16
  142.2 17.51 17
  142.3 14.33 14
  142.5 10.58 10
  142.6 15.75 15
  142.7 20.77 20
  142.8 20.46 20
  142.9 15.04 15
  143.1 8.82 8
  143.2 12.8 12
  143.3 17.38 17
  143.4 17.92 17
  143.5 13.11 13
  143.8 4.85 4
  143.9 12.44 12
  144.0 19.3 19
  144.1 20.05 20
  144.2 14.31 14
  144.5 8.49 8
  144.6 15.09 15
  144.7 19.26 19
  144.8 18.35 18
  144.9 14.61 14
  145.6 9.69 9
  145.7 11.24 11
  145.8 14.95 14
  145.9 19.05 19
  146.0 19.9 19
  146.1 15.29 15
  146.2 8.27 8
  146.4 6.98 6
  146.5 13.25 13
  146.6 17.68 17
  146.7 16.98 16
  146.8 12.81 12
  147.0 10.69 10
  147.1 14.51 14
  147.2 18.34 18
  147.3 19.68 19
  147.4 17.57 17
  147.5 13.09 13
  147.7 10.94 10
  147.8 15.2 15
  147.9 17.84 17
  148.0 15.71 15
  148.1 10.66 10
  148.3 8.82 8
  148.4 13.26 13
  148.5 16.85 16
  148.6 17.07 17
  148.7 14.2 14
  148.9 10.61 10
  149.0 13.89 13
  149.1 17.6 17
  149.2 17.65 17
  149.3 13.89 13
  150.2 8.8 8
  150.3 12.86 12
  150.4 16.51 16
  150.5 17.62 17
  150.6 16.2 16
  150.8 13.3 13
  150.9 15.28 15
  151.0 18.74 18
  151.1 20.63 20
  151.2 18.57 18
  151.3 13.87 13
  151.5 10.74 10
  151.6 14.15 14
  151.7 17.01 16
  151.8 16.5 16
  151.9 13.16 13
  152.1 10.81 10
  152.2 14.9 14
  152.3 18.8 18
  152.4 18.21 18
  152.5 12.19 12
  152.7 3.48 3
  152.8 8.71 8
  152.9 16.4 16
  153.0 20.22 20
  153.1 18.16 18
  153.2 13.23 13
  153.4 11.02 11
  153.5 15.12 15
  153.6 18.74 18
  153.7 18.41 18
  153.8 14.2 14
  154.0 10.13 10
  154.1 14.4 14
  154.2 18.49 18
  154.3 18.09 18
  154.4 12.95 12
  154.6 5.02 5
  154.7 8.43 8
  154.8 14.33 14
  154.9 18.13 18
  155.0 17.62 17
  155.1 14.4 14
  155.3 12.31 12
  155.4 15.15 15
  155.5 18.29 18
  155.6 19.38 19
  155.7 17.46 17
  156.6 6.3 6
  156.7 10.81 10
  156.8 16.7 16
  156.9 19.37 19
  157.0 17.15 17
  157.8 10.02 10
  157.9 13.23 13
  158.0 17.37 17
  158.1 19.74 19
  158.2 18.31 18
  158.3 13.47 13
  158.5 8.04 8
  158.6 12.02 12
  158.7 17.17 17
  158.8 19.04 19
  158.9 16.31 16
  159.0 11.47 11
  159.2 8.88 8
  159.3 12.2 12
  159.4 15.39 15
  159.5 15.92 15
  159.6 13.59 13
  159.8 10.38 10
  159.9 12.8 12
  160.0 15.34 15
  160.1 14.86 14
  160.2 11.2 11
  160.4 7.18 7
  160.5 10.27 10
  160.6 14.33 14
  160.7 16.62 16
  160.8 15.98 15
  160.9 13.69 13
  161.1 12.48 12
  161.2 14.95 14
  161.3 17.17 17
  161.4 16.68 16
  161.5 13.25 13
  161.7 9.41 9
  161.8 13.92 13
  161.9 20.27 20
  162.0 23.13 23
  162.1 19.27 19
  162.2 11.45 11
  162.4 8.6 8
  162.5 14.86 14
  162.6 18.46 18
  162.7 15.89 15
  162.9 7.88 7
  163.0 11.35 11
  163.1 17.1 17
  163.2 19.1 19
  163.3 15.37 15
  163.6 9.77 9
  163.7 14.76 14
  163.8 18.55 18
  163.9 18.82 18
  164.0 15.9 15
  164.1 11.75 11
  164.3 9.46 9
  164.4 12.98 12
  164.5 17.06 17
  164.6 18.41 18
  164.7 15.9 15
  164.9 10.14 10
  165.0 12.83 12
  165.1 16.93 16
  165.2 17.57 17
  165.3 13.23 13
  165.5 7.02 7
  165.6 12.22 12
  165.7 18.51 18
  165.8 19.82 19
  165.9 15.56 15
  166.1 9.63 9
  166.2 12.91 12
  166.3 17.06 17
  166.4 18.49 18
  166.5 15.9 15
  166.6 11.1 11
  166.8 7.91 7
  166.9 12.25 12
  167.0 17.6 17
  167.1 19.96 19
  167.2 17.12 17
  167.3 11.3 11
  167.5 9.96 9
  167.6 15.79 15
  167.7 19.77 19
  167.8 18.79 18
  167.9 14.5 14
  168.1 10.71 10
  168.2 14.08 14
  168.3 17.38 17
  168.4 16.62 16
  168.5 11.03 11
  168.7 2.03 2
  168.8 5.81 5
  168.9 13.08 13
  169.0 18.57 18
  169.1 18.62 18
  169.2 14.04 14
  170.0 12.33 12
  170.1 15.7 15
  170.2 19.99 19
  170.3 20.72 20
  170.4 16.42 16
  170.6 8.16 8
  170.7 11.58 11
  170.8 17.79 17
  170.9 21.13 21
  171.0 18.27 18
  171.1 11.31 11
  171.3 7.96 7
  171.4 14.92 14
  171.5 21.15 21
  171.6 21.57 21
  171.7 16.54 16
  172.0 11.83 11
  172.1 15.75 15
  172.2 18.21 18
  172.3 17.38 17
  172.4 13.26 13
  172.6 9.0 8
  172.7 13.64 13
  172.8 18.43 18
  172.9 18.57 18
  173.0 13.94 13
  173.9 8.43 8
  174.0 12.17 12
  174.1 16.26 16
  174.2 17.6 17
  174.3 15.22 15
  174.5 11.08 11
  174.6 14.26 14
  174.7 18.21 18
  174.8 18.93 18
  174.9 15.43 15
  175.1 9.72 9
  175.2 12.64 12
  175.3 16.39 16
  175.4 17.15 17
  175.5 14.28 14
  175.8 9.32 9
  175.9 13.28 13
  176.0 16.92 16
  176.1 17.37 17
  176.2 14.04 14
  177.1 10.25 10
  177.2 14.29 14
  177.3 17.7 17
  177.4 18.46 18
  177.5 16.65 16
  177.7 14.5 14
  177.8 17.42 17
  177.9 20.04 20
  178.0 18.8 18
  178.1 13.78 13
  178.3 7.51 7
  178.4 10.46 10
  178.5 14.84 14
  178.6 17.23 17
  178.7 16.12 16
  179.6 7.08 7
  179.7 10.36 10
  179.8 16.93 16
  179.9 22.08 22
  180.0 21.57 21
  180.1 15.89 15
  180.3 9.27 9
  180.4 13.3 13
  180.5 18.01 17
  180.6 18.62 18
  180.7 14.03 14
  180.9 6.66 6
  181.0 11.44 11
  181.1 18.85 18
  181.2 22.89 22
  181.3 20.24 20
  181.4 12.78 12
  181.6 4.48 4
  181.7 9.32 9
  181.8 15.93 15
  181.9 18.77 18
  182.0 16.39 16
  182.1 12.11 12
  182.3 11.11 11
  182.4 13.56 13
  182.5 14.54 14
  182.8 11.55 11
  182.9 15.31 15
  183.0 18.65 18
  183.1 17.82 17
  183.2 13.17 13
  183.4 7.33 7
  183.5 10.32 10
  183.6 15.15 15
  183.7 18.51 18
  183.8 18.46 18
  183.9 15.73 15
  184.1 12.48 12
  184.2 14.51 14
  184.3 16.81 16
  184.4 16.25 16
  184.5 11.69 11
  184.8 6.13 6
  184.9 12.44 12
  185.0 16.46 16
  185.1 14.84 14
  185.2 9.24 9
  185.4 6.6 6
  185.5 13.39 13
  185.6 20.13 20
  185.7 21.15 21
  185.8 15.48 15
  186.1 9.08 9
  186.2 15.47 15
  186.3 19.41 19
  186.4 18.74 18
  186.5 14.9 14
  186.7 12.45 12
  186.8 16.89 16
  186.9 21.21 21
  187.0 21.15 21
  187.1 16.23 16
  187.2 10.25 10
  187.4 9.25 9
  187.5 13.41 13
  187.6 16.82 16
  187.7 17.01 16
  187.8 14.11 14
  188.0 12.2 12
  188.1 15.92 15
  188.2 18.76 18
  188.3 17.79 17
  188.4 13.64 13
  188.6 10.36 10
  188.7 15.32 15
  188.8 20.43 20
  188.9 20.52 20
  189.0 15.03 15
  189.2 7.97 7
  189.3 12.41 12
  189.4 18.13 18
  189.5 20.58 20
  189.6 18.32 18
  189.7 13.0 12
  189.9 7.82 7
  190.0 11.74 11
  190.1 16.34 16
  190.2 16.95 16
  190.3 12.87 12
  190.5 7.4 7
  190.6 10.22 10
  190.7 13.48 13
  190.8 14.59 14
  190.9 13.26 13
  191.2 9.68 9
  191.3 12.92 12
  191.4 15.92 15
  191.5 15.93 15
  191.6 12.94 12
  191.8 9.86 9
  191.9 13.65 13
  192.0 18.1 18
  192.1 19.04 19
  192.2 15.04 15
  192.5 7.65 7
  192.6 14.47 14
  192.7 19.99 19
  192.8 19.49 19
  193.1 12.84 12
  193.2 19.48 19
  193.3 23.28 23
  193.4 20.13 20
  193.5 12.98 12
  193.7 10.47 10
  193.8 15.92 15
  193.9 19.85 19
  194.0 19.54 19
  194.1 16.31 16
  194.3 12.81 12
  194.4 15.37 15
  194.5 18.95 18
  194.6 20.43 20
  194.7 17.99 17
  194.8 12.92 12
  195.0 7.9 7
  195.1 11.49 11
  195.2 16.18 16
  195.3 17.51 17
  195.4 13.73 13
  195.7 8.65 8
  195.8 14.48 14
  195.9 18.52 18
  196.0 18.15 18
  196.1 14.2 14
  196.3 9.52 9
  196.4 12.89 12
  196.5 17.4 17
  196.6 18.21 18
  196.7 13.26 13
  196.9 5.81 5
  197.0 12.44 12
  197.1 20.68 20
  197.2 23.27 23
  197.3 18.98 18
  197.4 12.06 12
  197.6 8.68 8
  197.7 13.65 13
  197.8 18.34 18
  197.9 18.43 18
  198.0 13.69 13
  198.2 6.73 6
  198.3 9.97 9
  198.4 14.81 14
  198.5 17.28 17
  198.6 16.06 16
  198.9 11.66 11
  199.0 15.32 15
  199.1 18.79 18
  199.2 18.52 18
  199.3 13.87 13
  199.5 9.57 9
  199.6 15.71 15
  199.7 21.64 21
  199.8 21.41 21
  199.9 15.42 15
  200.1 9.02 9
  200.2 13.25 13
  200.3 18.1 18
  200.4 19.34 19
  200.5 15.56 15
  200.8 9.57 9
  200.9 16.59 16
  201.0 20.66 20
  201.1 17.98 17
  201.2 11.49 11
  201.4 9.58 9
  201.5 15.54 15
  201.6 19.76 19
  201.7 18.46 18
  202.0 11.77 11
  202.1 17.95 17
  202.2 23.19 23
  202.3 22.58 22
  202.4 15.79 15
  202.6 5.46 5
  202.7 10.63 10
  202.8 18.82 18
  202.9 23.33 23
  203.0 21.1 21
  203.1 14.68 14
  203.3 8.3 8
  203.4 11.55 11
  203.5 15.93 15
  203.6 17.92 17
  203.7 15.73 15
  204.5 4.73 4
  204.6 8.75 8
  204.7 15.45 15
  204.8 20.16 20
  204.9 19.16 19
  205.0 13.22 13
  205.2 8.08 8
  205.3 13.84 13
  205.4 19.8 19
  205.5 21.25 21
  205.6 17.51 17
  205.7 11.45 11
  205.9 7.18 7
  206.0 11.45 11
  206.1 15.87 15
  206.2 15.68 15
  206.3 10.36 10
  206.5 5.02 5
  206.6 11.3 11
  206.7 18.09 18
  206.8 19.04 19
  206.9 13.2 13
  207.2 6.57 6
  207.3 13.0 12
  207.4 16.76 16
  207.5 16.04 16
  207.7 12.81 12
  207.8 14.72 14
  207.9 17.32 17
  208.0 18.1 18
  208.1 15.95 15
  208.2 12.05 12
  208.4 9.68 9
  208.5 13.03 13
  208.6 16.48 16
  208.7 17.2 17
  208.8 14.56 14
  209.0 10.22 10
  209.1 12.7 12
  209.2 15.57 15
  209.3 15.71 15
  209.4 13.09 13
  209.6 8.86 8
  209.7 10.5 10
  209.8 15.12 15
  209.9 20.43 20
  210.0 21.79 21
  210.1 16.6 16
  210.3 5.4 5
  210.4 10.44 10
  210.5 19.18 19
  210.6 23.55 23
  210.7 19.9 19
  210.8 11.33 11
  211.0 4.17 4
  211.1 10.5 10
  211.2 18.32 18
  211.3 21.35 21
  211.4 17.28 17
  211.5 9.89 9
  211.7 8.13 8
  211.8 14.22 14
  211.9 17.81 17
  212.0 15.61 15
  212.1 9.93 9
  212.3 7.46 7
  212.4 12.64 12
  212.5 17.45 17
  212.6 18.18 18
  212.7 14.72 14
  212.9 10.39 10
  213.0 13.83 13
  213.1 17.52 17
  213.2 17.81 17
  213.3 14.14 14
  213.4 9.02 9
  213.6 7.4 7
  213.7 12.22 12
  213.8 16.68 16
  213.9 16.89 16
  214.0 12.87 12
  214.2 7.9 7
  214.3 11.38 11
  214.4 16.03 16
  214.5 18.12 18
  214.6 15.96 15
  214.7 11.56 11
  214.9 10.07 10
  215.0 13.98 13
  215.1 16.26 16
  215.2 14.17 14
  215.4 7.96 7
  215.5 11.88 11
  215.6 18.18 18
  215.7 21.4 21
  215.8 19.13 19
  215.9 13.86 13
  216.1 9.49 9
  216.2 13.05 13
  216.3 17.09 17
  216.4 17.71 17
  216.5 14.14 14
  216.7 9.39 9
  216.8 13.2 13
  216.9 18.35 18
  217.0 21.1 21
  217.1 19.77 19
  217.2 15.36 15
  217.9 7.66 7
  218.0 9.55 9
  218.1 16.67 16
  218.2 24.02 23
  218.3 25.39 25
  218.4 19.87 19
  218.5 12.23 12
  218.7 7.94 7
  218.8 10.63 10
  218.9 13.31 13
  219.0 14.31 14
  219.1 13.22 13
  219.3 10.17 10
  219.4 12.06 12
  219.5 15.17 15
  219.6 16.1 16
  219.9 11.78 11
  220.0 16.39 16
  220.1 21.33 21
  220.2 22.82 22
  220.3 19.94 19
  220.4 14.73 14
  221.2 7.57 7
  221.3 12.06 12
  221.4 17.45 17
  221.5 19.26 19
  221.6 16.15 16
  221.7 10.47 10
  221.9 8.22 8
  222.0 14.0 13
  222.1 18.77 18
  222.2 17.87 17
  222.3 12.16 12
  222.5 8.07 8
  222.6 13.23 13
  222.7 17.4 17
  222.8 16.0 15
  222.9 9.41 9
  223.1 1.53 1
  223.2 8.02 8
  223.3 17.93 17
  223.4 23.74 23
  223.5 21.02 20
  223.6 12.77 12
  223.8 8.57 8
  223.9 15.71 15
  224.0 21.54 21
  224.1 20.82 20
  224.2 14.26 14
  224.4 6.04 6
  224.5 10.58 10
  224.6 16.5 16
  224.7 18.79 18
  224.8 16.65 16
  224.9 12.8 12
  225.7 6.04 6
  225.8 11.06 11
  225.9 17.51 17
  226.0 20.88 20
  226.1 18.99 18
  226.2 13.87 13
  226.4 11.27 11
  226.5 16.56 16
  226.6 21.27 21
  226.7 20.35 20
  226.8 13.75 13
  227.0 6.91 6
  227.1 12.53 12
  227.2 18.4 18
  227.3 19.19 19
  227.4 14.4 14
  227.7 7.99 7
  227.8 13.92 13
  227.9 17.01 16
  228.0 14.51 14
  228.2 8.69 8
  228.3 12.53 12
  228.4 17.15 17
  228.5 17.48 17
  228.6 12.69 12
  228.8 5.42 5
  228.9 9.58 9
  229.0 16.6 16
  229.1 21.94 21
  229.2 22.07 22
  229.3 16.42 16
  229.6 9.39 9
  229.7 16.39 16
  229.8 20.22 20
  229.9 18.49 18
  230.0 13.94 13
  230.2 10.97 10
  230.3 14.03 14
  230.4 17.01 16
  230.5 16.87 16
  230.6 13.28 13
  230.8 8.46 8
  230.9 11.47 11
  231.0 15.48 15
  231.1 17.18 17
  231.2 15.5 15
  231.3 12.19 12
  231.5 10.16 10
  231.6 12.81 12
  231.7 16.39 16
  231.8 18.2 18
  231.9 16.26 16
  232.1 9.66 9
  232.2 12.58 12
  232.3 18.43 18
  232.4 21.16 21
  232.5 17.59 17
  233.4 11.06 11
  233.5 14.7 14
  233.6 17.85 17
  233.7 17.79 17
  233.8 14.58 14
  234.0 10.92 10
  234.1 14.23 14
  234.2 18.07 18
  234.3 18.73 18
  234.4 15.06 15
  234.5 9.16 9
  234.7 6.26 6
  234.8 12.13 12
  234.9 18.37 18
  235.0 20.43 20
  235.1 17.54 17
  235.2 13.14 13
  235.4 12.02 12
  235.5 14.22 14
  235.6 14.9 14
  235.7 13.05 13
  236.0 10.1 10
  236.1 13.7 13
  236.2 17.2 17
  236.3 17.71 17
  236.4 14.0 13
  236.6 6.41 6
  236.7 10.16 10
  236.8 16.1 16
  236.9 17.74 17
  237.0 13.03 13
  237.2 5.27 5
  237.3 10.25 10
  237.4 17.01 16
  237.5 19.85 19
  237.6 17.24 17
  237.7 12.19 12
  237.9 9.04 9
  238.0 12.2 12
  238.1 14.7 14
  238.2 13.36 13
  238.3 8.75 8
  238.5 5.21 5
  238.6 10.02 10
  238.7 16.43 16
  238.8 20.08 20
  238.9 17.96 17
  239.0 11.78 11
  239.2 8.61 8
  239.3 14.34 14
  239.4 18.55 18
  239.5 17.34 17
  239.6 12.14 12
  239.8 8.13 8
  239.9 12.22 12
  240.0 16.26 16
  240.1 16.89 16
  240.2 14.0 13
  240.4 9.97 9
  240.5 12.91 12
  240.6 17.42 17
  240.7 20.15 20
  240.8 18.9 18
  240.9 14.9 14
  241.1 12.91 12
  241.2 16.54 16
  241.3 18.96 18
  241.4 17.26 17
  241.5 12.02 12
  241.7 5.01 5
  241.8 8.01 8
  241.9 13.17 13
  242.0 15.76 15
  242.1 13.31 13
  242.3 6.35 6
  242.4 9.97 9
  242.5 17.09 17
  242.6 22.1 22
  242.7 21.07 21
  242.8 15.42 15
  243.0 10.41 10
  243.1 13.59 13
  243.2 16.42 16
  243.3 16.54 16
  243.4 14.09 14
  243.6 9.64 9
  243.7 12.06 12
  243.8 16.62 16
  243.9 19.12 19
  244.0 16.74 16
  244.1 11.25 11
  244.3 8.83 8
  244.4 14.04 14
  244.5 18.27 18
  244.6 17.48 17
  244.7 12.33 12
  244.9 8.15 8
  245.0 12.92 12
  245.1 17.67 17
  245.2 18.31 18
  245.3 14.75 14
  245.6 10.27 10
  245.7 14.48 14
  245.8 17.85 17
  245.9 17.63 17
  246.0 13.62 13
  246.2 9.0 8
  246.3 13.72 13
  246.4 19.23 19
  246.5 20.63 20
  246.6 16.9 16
  246.7 11.42 11
  246.9 10.0 9
  247.0 13.3 13
  247.1 15.37 15
  247.2 14.92 14
  247.4 11.59 11
  247.5 13.14 13
  247.6 16.95 16
  247.7 20.01 19
  247.8 19.55 19
  247.9 15.64 15
  248.1 10.19 10
  248.2 13.59 13
  248.3 17.92 17
  248.4 17.67 17
  248.5 11.74 11
  248.7 4.85 4
  248.8 11.35 11
  248.9 19.65 19
  249.0 23.41 23
  249.1 20.51 20
  249.2 14.08 14
  249.4 9.82 9
  249.5 14.03 14
  249.6 17.32 17
  249.7 15.86 15
  249.8 10.3 10
  250.0 5.79 5
  250.1 11.11 11
  250.2 16.81 16
  250.3 18.06 18
  250.4 14.14 14
  250.7 8.58 8
  250.8 13.94 13
  250.9 18.09 18
  251.0 18.1 18
  251.1 14.33 14
  251.3 9.64 9
  251.4 13.83 13
  251.5 19.21 19
  251.6 20.4 20
  251.7 15.53 15
  252.5 4.59 4
  252.6 7.12 7
  252.7 12.56 12
  252.8 16.73 16
  252.9 16.2 16
  253.0 11.7 11
  253.2 7.66 7
  253.3 11.81 11
  253.4 16.54 16
  253.5 17.84 17
  253.6 14.68 14
  253.7 9.82 9
  253.9 8.47 8
  254.0 12.19 12
  254.1 14.72 14
  254.2 13.58 13
  254.3 9.52 9
  254.5 7.26 7
  254.6 12.17 12
  254.7 16.93 16
  254.8 17.4 17
  254.9 13.09 13
  255.1 6.41 6
  255.2 10.61 10
  255.3 16.95 16
  255.4 20.01 19
  255.5 17.49 17
  255.6 12.11 12
  255.8 9.43 9
  255.9 13.94 13
  256.0 18.29 18
  256.1 18.71 18
  256.4 11.95 11
  256.5 19.85 19
  256.6 28.26 28
  256.7 30.17 30
  256.8 23.49 23
  256.9 12.16 12
  257.0 2.82 2
  257.6 3.7 3
  257.7 7.3 7
  257.8 13.58 13
  257.9 17.85 17
  258.0 16.95 16
  258.1 12.27 12
  258.3 9.11 9
  258.4 13.26 13
  258.5 17.46 17
  258.6 18.49 18
  258.7 15.23 15
  258.8 9.46 9
  259.0 6.84 6
  259.1 12.94 12
  259.2 18.59 18
  259.3 19.07 19
  259.4 14.72 14
  259.6 10.36 10
  259.7 14.76 14
  259.8 19.13 19
  259.9 19.41 19
  260.0 15.23 15
  260.1 9.83 9
  260.3 8.57 8
  260.4 13.11 13
  260.5 16.76 16
  260.6 16.48 16
  260.7 12.87 12
  260.9 9.58 9
  261.0 13.05 13
  261.1 16.92 16
  261.2 17.51 17
  261.3 13.92 13
  261.5 7.93 7
  261.6 11.59 11
  261.7 16.89 16
  261.8 18.74 18
  261.9 15.53 15
  262.2 10.08 10
  262.3 15.29 15
  262.4 19.62 19
  262.5 19.91 19
  262.6 15.93 15
  262.8 8.52 8
  262.9 11.59 11
  263.0 17.38 17
  263.1 20.79 20
  263.2 18.84 18
  263.3 13.64 13
  263.5 11.78 11
  263.6 16.28 16
  263.7 18.91 18
  263.8 17.1 17
  263.9 12.38 12
  264.1 7.23 7
  264.2 9.6 9
  264.3 14.36 14
  264.4 18.87 18
  264.5 19.77 19
  264.6 15.89 15
  264.8 9.07 9
  264.9 12.55 12
  265.0 16.51 16
  265.1 16.26 16
  265.4 11.24 11
  265.5 15.47 15
  265.6 17.93 17
  265.7 16.1 16
  265.8 10.99 10
  266.0 5.84 5
  266.1 10.61 10
  266.2 18.09 18
  266.3 23.1 23
  266.4 21.58 21
  266.5 14.56 14
  266.8 8.79 8
  266.9 14.61 14
  267.0 18.49 18
  267.1 18.38 18
  267.2 15.64 15
  268.0 7.93 7
  268.1 13.9 13
  268.2 17.87 17
  268.3 16.12 16
  268.6 11.11 11
  268.7 17.42 17
  268.8 21.02 20
  268.9 18.73 18
  269.0 12.11 12
  269.3 5.87 5
  269.4 12.62 12
  269.5 17.49 17
  269.6 16.64 16
  269.9 10.05 10
  270.0 15.98 15
  270.1 20.52 20
  270.2 19.35 19
  270.3 13.09 13
  270.5 6.57 6
  270.6 11.84 11
  270.7 18.07 18
  270.8 20.13 20
  270.9 17.01 16
  271.7 11.03 11
  271.8 14.62 14
  271.9 20.18 20
  272.0 22.5 22
  272.1 18.91 18
  272.2 11.75 11
  272.4 6.84 6
  272.5 12.2 12
  272.6 17.73 17
  272.7 18.82 18
  272.8 14.9 14
  273.1 9.93 9
  273.2 14.62 14
  273.3 17.34 17
  273.4 15.95 15
  273.7 11.89 11
  273.8 16.73 16
  273.9 19.88 19
  274.0 18.32 18
  274.1 13.5 13
  274.3 9.77 9
  274.4 12.38 12
  274.5 14.86 14
  274.6 15.32 15
  274.7 13.76 13
  275.0 10.61 10
  275.1 13.94 13
  275.2 16.64 16
  275.3 16.21 16
  275.4 12.86 12
  275.6 8.3 8
  275.7 11.7 11
  275.8 17.74 17
  275.9 21.71 21
  276.0 19.82 19
  276.1 13.41 13
  276.3 8.44 8
  276.4 13.19 13
  276.5 17.49 17
  276.6 17.59 17
  276.7 13.9 13
  276.9 10.11 10
  277.0 14.25 14
  277.1 19.24 19
  277.2 20.69 20
  277.3 16.98 16
  277.4 10.6 10
  277.6 6.71 6
  277.7 11.25 11
  277.8 15.61 15
  277.9 16.17 16
  278.1 10.85 10
  278.2 13.06 13
  278.3 19.04 19
  278.4 23.56 23
  278.5 22.1 22
  278.6 15.2 15
  278.8 7.41 7
  278.9 12.62 12
  279.0 18.57 18
  279.1 18.93 18
  279.2 13.3 13
  279.4 7.08 7
  279.5 12.91 12
  279.6 20.21 20
  279.7 23.38 23
  279.8 20.02 19
  279.9 12.73 12
  280.1 7.26 7
  280.2 11.74 11
  280.3 15.86 15
  280.4 16.25 16
  280.5 13.65 13
  280.7 11.3 11
  280.8 13.61 13
  280.9 16.17 16
  281.0 16.93 16
  281.1 15.28 15
  281.2 12.08 12
  281.4 9.57 9
  281.5 12.69 12
  281.6 16.87 16
  281.7 19.05 19
  281.8 17.31 17
  282.1 11.22 11
  282.2 16.6 16
  282.3 19.93 19
  282.4 17.04 17
  282.5 10.39 10
  282.7 8.27 8
  282.8 12.92 12
  282.9 14.75 14
  283.0 11.55 11
  283.2 4.28 4
  283.3 7.71 7
  283.4 14.9 14
  283.5 21.11 21
  283.6 22.02 21
  283.7 17.2 17
  284.6 8.02 8
  284.7 13.58 13
  284.8 17.93 17
  284.9 18.01 17
  285.0 14.44 14
  285.2 10.75 10
  285.3 13.65 13
  285.4 16.29 16
  285.5 15.28 15
  285.6 10.3 10
  285.8 4.1 4
  285.9 9.25 9
  286.0 16.56 16
  286.1 20.3 20
  286.2 18.1 18
  286.3 12.56 12
  286.5 8.93 8
  286.6 13.39 13
  286.7 18.38 18
  286.8 19.83 19
  286.9 16.54 16
  287.1 10.32 10
  287.2 13.87 13
  287.3 18.93 18
  287.4 20.69 20
  287.5 17.74 17
  287.6 12.56 12
  287.8 9.53 9
  287.9 13.76 13
  288.0 18.13 18
  288.1 18.51 18
  288.2 13.75 13
  288.4 6.2 6
  288.5 11.22 11
  288.6 18.46 18
  288.7 21.15 21
  288.8 16.68 16
  289.1 9.46 9
  289.2 16.79 16
  289.3 21.25 21
  289.4 19.68 19
  289.5 14.87 14
  289.7 12.05 12
  289.8 14.97 14
  289.9 17.9 17
  290.0 18.43 18
  290.1 15.61 15
  290.2 11.22 11
  290.4 9.77 9
  290.5 12.61 12
  290.6 14.28 14
  290.7 13.37 13
  291.0 9.97 9
  291.1 13.23 13
  291.2 16.78 16
  291.3 17.15 17
  291.4 13.55 13
  291.6 8.01 8
  291.7 10.92 10
  291.8 15.11 15
  291.9 17.13 17
  292.0 15.86 15
  292.3 13.72 13
  292.4 16.82 16
  292.5 19.09 19
  292.6 18.48 18
  292.7 15.01 14
  293.5 6.41 6
  293.6 9.71 9
  293.7 15.25 15
  293.8 19.05 19
  293.9 18.65 18
  294.0 15.0 14
  294.2 11.5 11
  294.3 15.09 15
  294.4 18.8 18
  294.5 18.35 18
  294.6 13.55 13
  294.8 8.22 8
  294.9 12.02 12
  295.0 17.07 17
  295.1 20.26 20
  295.2 19.8 19
  295.3 16.04 16
  296.1 12.8 12
  296.2 15.14 15
  296.3 17.24 17
  296.4 16.99 16
  296.5 13.81 13
  296.8 8.66 8
  296.9 13.61 13
  297.0 17.24 17
  297.1 16.64 16
  297.3 12.52 12
  297.4 15.37 15
  297.5 19.48 19
  297.6 20.41 20
  297.7 16.65 16
  297.8 11.1 11
  298.0 10.22 10
  298.1 14.64 14
  298.2 17.7 17
  298.3 16.7 16
  298.4 12.14 12
  298.6 8.22 8
  298.7 13.19 13
  298.8 18.24 18
  298.9 19.09 19
  299.0 15.09 15
  299.1 9.33 9
  299.3 7.77 7
  299.4 12.83 12
  299.5 16.84 16
  299.6 16.37 16
  299.7 12.14 12
  299.9 6.48 6
  300.0 9.11 9
  300.1 13.65 13
  300.2 16.34 16
  300.3 14.62 14
  300.6 8.91 8
  300.7 14.47 14
  300.8 19.01 18
  300.9 18.91 18
  301.0 14.31 14
  301.2 7.13 7
  301.3 10.44 10
  301.4 15.81 15
  301.5 18.51 18
  301.6 16.45 16
  301.7 12.28 12
  301.9 11.88 11
  302.0 14.83 14
  302.1 16.12 16
  302.2 14.29 14
  302.4 8.66 8
  302.5 11.97 11
  302.6 18.82 18
  302.7 23.1 23
  302.8 20.71 20
  302.9 14.23 14
  303.1 9.97 9
  303.2 14.61 14
  303.3 19.62 19
  303.4 21.02 20
  303.5 17.26 17
  303.6 10.75 10
  303.8 7.38 7
  303.9 12.11 12
  304.0 16.01 15
  304.1 15.86 15
  304.2 12.38 12
  304.4 9.08 9
  304.5 12.05 12
  304.6 15.11 15
  304.7 15.53 15
  304.8 13.05 13
  304.9 9.38 9
  305.1 7.41 7
  305.2 11.8 11
  305.3 17.46 17
  305.4 20.02 19
  305.5 17.18 17
  305.6 11.64 11
  306.3 5.26 5
  306.4 9.19 9
  306.5 17.46 17
  306.6 22.72 22
  306.7 20.04 20
  306.8 11.83 11
  307.0 6.48 6
  307.1 12.92 12
  307.2 18.63 18
  307.3 18.74 18
  307.4 13.75 13
  307.6 7.51 7
  307.7 11.84 11
  307.8 17.93 17
  307.9 20.71 20
  308.0 17.84 17
  308.1 11.66 11
  308.3 8.19 8
  308.4 13.72 13
  308.5 19.51 19
  308.6 21.49 21
  308.7 18.63 18
  308.8 13.53 13
  309.0 10.72 10
  309.1 13.5 13
  309.2 15.22 15
  309.3 14.58 14
  309.4 13.34 13
  309.5 13.86 13
  309.6 15.89 15
  309.7 17.24 17
  309.8 16.15 16
  309.9 13.14 13
  310.1 9.91 9
  310.2 12.17 12
  310.3 15.89 15
  310.4 18.8 18
  310.5 18.46 18
  310.6 14.0 13
  310.8 6.37 6
  310.9 10.3 10
  311.0 16.65 16
  311.1 19.65 19
  311.2 17.06 17
  311.4 10.07 10
  311.5 13.12 13
  311.6 18.88 18
  311.7 22.18 22
  311.8 19.88 19
  311.9 13.78 13
  312.1 8.22 8
  312.2 11.11 11
  312.3 14.31 14
  312.4 15.31 15
  312.5 13.5 13
  312.7 8.83 8
  312.8 11.41 11
  312.9 16.67 16
  313.0 20.3 20
  313.1 19.21 19
  313.2 14.51 14
  313.9 8.27 8
  314.0 10.53 10
  314.1 15.57 15
  314.2 20.24 20
  314.3 21.4 21
  314.4 18.01 17
  314.5 11.83 11
  314.7 6.68 6
  314.8 11.78 11
  314.9 17.74 17
  315.0 19.13 19
  315.1 14.84 14
  315.3 7.88 7
  315.4 11.7 11
  315.5 16.62 16
  315.6 17.95 17
  315.7 14.86 14
  316.6 10.0 9
  316.7 14.86 14
  316.8 20.07 20
  316.9 21.99 21
  317.0 19.48 19
  317.1 14.39 14
  317.8 10.27 10
  317.9 12.52 12
  318.0 17.42 17
  318.1 20.44 20
  318.2 18.43 18
  318.3 12.67 12
  318.5 8.07 8
  318.6 12.7 12
  318.7 17.43 17
  318.8 17.82 17
  318.9 13.12 13
  319.1 5.85 5
  319.2 11.2 11
  319.3 19.3 19
  319.4 22.96 22
  319.5 18.87 18
  319.6 11.11 11
  319.8 7.62 7
  319.9 12.31 12
  320.0 16.29 16
  320.1 16.67 16
  320.2 13.61 13
  320.4 10.67 10
  320.5 14.15 14
  320.6 17.31 17
  320.7 17.04 17
  320.8 13.8 13
  321.0 10.55 10
  321.1 13.8 13
  321.2 18.21 18
  321.3 20.24 20
  321.4 17.49 17
  321.5 11.31 11
  321.7 6.57 6
  321.8 11.88 11
  321.9 17.76 17
  322.0 19.73 19
  322.1 16.59 16
  322.2 11.11 11
  322.4 8.8 8
  322.5 12.47 12
  322.6 14.79 14
  322.7 13.72 13
  322.8 10.49 10
  323.0 8.07 8
  323.1 10.47 10
  323.2 13.61 13
  323.3 15.37 15
  323.4 14.12 14
  323.5 10.27 10
  323.7 6.91 6
  323.8 10.44 10
  323.9 14.04 14
  324.0 14.92 14
  324.2 12.05 12
  324.3 13.33 13
  324.4 17.06 17
  324.5 20.29 20
  324.6 19.52 19
  324.7 14.45 14
  324.9 6.82 6
  325.0 10.1 10
  325.1 15.48 15
  325.2 18.4 18
  325.3 16.31 16
  325.5 8.8 8
  325.6 12.17 12
  325.7 18.77 18
  325.8 22.47 22
  325.9 19.98 19
  326.0 13.62 13
  326.2 9.24 9
  326.3 14.25 14
  326.4 19.05 19
  326.5 18.66 18
  326.6 12.86 12
  326.8 7.21 7
  326.9 13.7 13
  327.0 20.57 20
  327.1 21.49 21
  327.2 15.54 15
  327.5 6.57 6
  327.6 14.53 14
  327.7 21.58 21
  327.8 22.91 22
  327.9 18.12 18
  328.0 11.58 11
  328.2 10.66 10
  328.3 14.53 14
  328.4 15.64 15
  328.7 11.77 11
  328.8 16.35 16
  328.9 20.32 20
  329.0 20.04 20
  329.1 15.36 15
  329.2 9.57 9
  329.4 8.32 8
  329.5 13.26 13
  329.6 17.74 17
  329.7 18.62 18
  329.8 15.57 15
  330.1 10.53 10
  330.2 15.84 15
  330.3 20.54 20
  330.4 20.44 20
  330.5 15.48 15
  330.7 8.6 8
  330.8 12.52 12
  330.9 17.82 17
  331.0 18.98 18
  331.1 14.34 14
  331.3 6.2 6
  331.4 9.86 9
  331.5 15.15 15
  331.6 17.2 17
  331.7 14.53 14
  332.0 9.64 9
  332.1 15.17 15
  332.2 19.02 19
  332.3 17.92 17
  332.4 13.11 13
  332.6 8.55 8
  332.7 12.28 12
  332.8 16.98 16
  332.9 18.95 18
  333.0 16.96 16
  333.8 10.81 10
  333.9 13.81 13
  334.0 19.01 18
  334.1 22.14 22
  334.2 20.3 20
  334.3 14.54 14
  334.5 7.12 7
  334.6 10.75 10
  334.7 17.24 17
  334.8 21.13 21
  334.9 18.77 18
  335.2 11.63 11
  335.3 18.1 18
  335.4 21.83 21
  335.5 19.02 19
  335.6 12.09 12
  335.8 8.55 8
  335.9 13.61 13
  336.0 16.93 16
  336.1 15.62 15
  336.2 11.66 11
  336.4 10.33 10
  336.5 13.64 13
  336.6 15.95 15
  336.7 15.26 15
  336.8 11.94 11
  337.0 8.08 8
  337.1 11.88 11
  337.2 17.65 17
  337.3 20.83 20
  337.4 18.49 18
  337.5 12.23 12
  337.7 5.24 5
  337.8 8.61 8
  337.9 13.8 13
  338.0 16.82 16
  338.1 15.73 15
  339.0 8.61 8
  339.1 13.92 13
  339.2 18.8 18
  339.3 18.4 18
  339.4 12.89 12
  339.6 7.1 7
  339.7 12.48 12
  339.8 19.23 19
  339.9 22.14 22
  340.0 18.91 18
  340.1 12.05 12
  340.3 7.24 7
  340.4 11.94 11
  340.5 16.76 16
  340.6 17.82 17
  340.7 14.36 14
  340.9 9.5 9
  341.0 14.62 14
  341.1 20.51 20
  341.2 21.47 21
  341.3 16.98 16
  342.2 7.71 7
  342.3 12.27 12
  342.4 15.75 15
  342.5 14.89 14
  342.6 10.47 10
  342.8 7.66 7
  342.9 13.44 13
  343.0 20.26 20
  343.1 22.77 22
  343.2 18.23 18
  343.3 9.25 9
  343.5 4.07 4
  343.6 11.88 11
  343.7 19.15 19
  343.8 19.94 19
  343.9 14.45 14
  344.1 7.19 7
  344.2 11.53 11
  344.3 17.42 17
  344.4 19.9 19
  344.5 16.9 16
  344.6 10.77 10
  344.8 8.02 8
  344.9 13.72 13
  345.0 18.09 18
  345.1 16.57 16
  345.2 10.42 10
  345.4 7.16 7
  345.5 14.03 14
  345.6 20.6 20
  345.7 21.58 21
  345.8 15.98 15
  345.9 7.82 7
  346.1 5.9 5
  346.2 12.39 12
  346.3 16.25 16
  346.4 14.37 14
  346.7 8.91 8
  346.8 14.08 14
  346.9 18.18 18
  347.0 17.92 17
  347.1 13.67 13
  347.3 8.38 8
  347.4 12.69 12
  347.5 18.48 18
  347.6 19.93 19
  347.7 14.93 14
  348.6 7.43 7
  348.7 13.39 13
  348.8 19.85 19
  348.9 21.69 21
  349.0 17.84 17
  349.9 9.86 9
  350.0 16.25 16
  350.1 20.16 20
  350.2 18.84 18
  350.3 13.92 13
  350.5 8.01 8
  350.6 11.22 11
  350.7 16.57 16
  350.8 19.21 19
  350.9 15.87 15
  351.0 8.77 8
  351.2 6.12 6
  351.3 12.56 12
  351.4 17.62 17
  351.5 17.13 17
  351.6 11.72 11
  351.8 6.1 6
  351.9 12.52 12
  352.0 20.4 20
  352.1 22.88 22
  352.2 17.96 17
  352.3 9.94 9
  352.5 6.32 6
  352.6 11.67 11
  352.7 15.79 15
  352.8 15.29 15
  352.9 11.58 11
  353.1 9.74 9
  353.2 13.94 13
  353.3 17.99 17
  353.4 18.13 18
  353.5 13.97 13
  353.7 8.21 8
  353.8 11.02 11
  353.9 14.83 14
  354.0 16.7 16
  354.1 15.39 15
  354.2 11.83 11
  354.4 9.46 9
  354.5 12.83 12
  354.6 15.5 15
  354.7 14.5 14
  354.9 8.65 8
  355.0 10.81 10
  355.1 16.59 16
  355.2 21.69 21
  355.3 22.11 22
  355.4 17.24 17
  355.7 10.91 10
  355.8 16.98 16
  355.9 20.41 20
  356.0 18.04 18
  356.1 12.58 12
  356.3 11.24 11
  356.4 15.09 15
  356.5 16.51 16
  356.6 13.81 13
  356.9 8.8 8
  357.0 14.61 14
  357.1 20.44 20
  357.2 21.96 21
  357.3 17.77 17
  357.4 11.36 11
  357.6 10.0 9
  357.7 14.67 14
  357.8 17.95 17
  357.9 17.43 17
  358.0 13.59 13
  358.2 8.36 8
  358.3 11.59 11
  358.4 15.76 15
  358.5 16.51 16
  358.8 12.08 12
  358.9 16.43 16
  359.0 19.18 19
  359.1 16.78 16
  359.2 9.85 9
  359.4 0.11 0
  359.5 4.37 4
  359.6 12.66 12
  359.7 19.35 19
  359.8 20.26 20
  359.9 15.64 15
  360.1 7.82 7
  360.2 11.13 11
  360.3 16.7 16
  360.4 19.34 19
  360.5 16.81 16
  360.6 11.75 11
  360.8 8.44 8
  360.9 10.63 10
  361.0 12.66 12
  361.1 12.75 12
  361.3 9.97 9
  361.4 12.02 12
  361.5 16.5 16
  361.6 19.3 19
  361.7 16.81 16
  361.8 9.74 9
  362.0 2.7 2
  362.1 8.94 8
  362.2 17.21 17
  362.3 21.64 21
  362.4 20.16 20
  362.5 15.17 15
  362.7 9.88 9
  362.8 13.01 12
  362.9 17.57 17
  363.0 19.41 19
  363.1 16.54 16
  363.3 9.91 9
  363.4 13.48 13
  363.5 18.84 18
  363.6 20.6 20
  363.7 17.23 17
  363.8 12.05 12
  364.0 10.41 10
  364.1 13.53 13
  364.2 15.89 15
  364.3 15.64 15
  364.4 13.12 13
  365.1 7.79 7
  365.2 9.24 9
  365.3 14.9 14
  365.4 20.99 20
  365.5 22.18 22
  365.6 17.1 17
  365.9 9.89 9
  366.0 16.82 16
  366.1 21.54 21
  366.2 20.4 20
  366.3 14.92 14
  367.1 10.71 10
  367.2 13.89 13
  367.3 16.6 16
  367.4 16.14 16
  367.5 12.5 12
  367.7 7.77 7
  367.8 11.19 11
  367.9 16.32 16
  368.0 19.09 19
  368.1 17.29 17
  368.2 12.14 12
  368.4 5.76 5
  368.5 9.16 9
  368.6 14.86 14
  368.7 18.23 18
  368.8 16.4 16
  369.1 10.92 10
  369.2 16.35 16
  369.3 19.37 19
  369.4 16.92 16
  369.5 11.44 11
  369.7 9.32 9
  369.8 14.64 14
  369.9 19.52 19
  370.0 20.08 20
  370.1 15.93 15
  370.4 10.44 10
  370.5 15.4 15
  370.6 18.57 18
  370.7 17.17 17
  370.8 12.19 12
  371.0 7.48 7
  371.1 12.56 12
  371.2 19.58 19
  371.3 23.35 23
  371.4 21.22 21
  371.5 15.79 15
  372.3 7.66 7
  372.4 13.72 13
  372.5 19.58 19
  372.6 20.83 20
  372.7 17.24 17
  373.5 5.38 5
  373.6 8.41 8
  373.7 14.14 14
  373.8 17.76 17
  373.9 16.09 16
  374.0 10.21 10
  374.2 6.54 6
  374.3 14.2 14
  374.4 22.27 22
  374.5 24.0 23
  374.6 18.18 18
  374.7 9.78 9
  374.9 6.52 6
  375.0 11.02 11
  375.1 13.95 13
  375.2 13.14 13
  375.4 8.74 8
  375.5 11.24 11
  375.6 15.95 15
  375.7 17.93 17
  375.8 14.31 14
  376.1 7.96 7
  376.2 14.76 14
  376.3 19.23 19
  376.4 17.84 17
  376.5 12.55 12
  376.7 8.8 8
  376.8 12.91 12
  376.9 16.73 16
  377.0 16.7 16
  377.1 12.42 12
  377.3 4.9 4
  377.4 7.85 7
  377.5 13.56 13
  377.6 17.7 17
  377.7 17.56 17
  377.8 13.67 13
  378.0 7.48 7
  378.1 10.07 10
  378.2 14.83 14
  378.3 17.42 17
  378.4 15.4 15
  378.5 10.63 10
  378.7 8.93 8
  378.8 13.95 13
  378.9 18.7 18
  379.0 19.43 19
  379.1 15.67 15
  379.3 9.36 9
  379.4 12.92 12
  379.5 18.37 18
  379.6 20.88 20
  379.7 18.45 18
  379.8 13.31 13
  380.0 10.81 10
  380.1 15.51 15
  380.2 19.71 19
  380.3 19.13 19
  380.4 13.44 13
  380.6 5.29 5
  380.7 9.89 9
  380.8 16.51 16
  380.9 19.26 19
  381.0 16.14 16
  381.1 10.42 10
  381.3 8.66 8
  381.4 13.16 13
  381.5 16.65 16
  381.6 16.4 16
  381.7 13.05 13
  381.9 10.24 10
  382.0 14.25 14
  382.1 18.71 18
  382.2 19.49 19
  382.3 15.43 15
  382.6 10.0 9
  382.7 15.26 15
  382.8 18.15 18
  382.9 16.09 16
  383.0 10.92 10
  383.2 8.15 8
  383.3 13.2 13
  383.4 17.79 17
  383.5 17.77 17
  383.6 13.26 13
  383.8 7.35 7
  383.9 11.47 11
  384.0 17.49 17
  384.1 19.88 19
  384.2 16.06 16
  385.1 8.97 8
  385.2 14.73 14
  385.3 19.24 19
  385.4 18.68 18
  385.5 13.36 13
  385.7 7.72 7
  385.8 12.56 12
  385.9 18.07 18
  386.0 19.54 19
  386.1 16.1 16
  386.4 11.39 11
  386.5 16.32 16
  386.6 19.57 19
  386.7 18.4 18
  386.8 14.0 13
  387.0 11.13 11
  387.1 15.62 15
  387.2 19.85 19
  387.3 20.22 20
  387.4 17.12 17
  387.6 14.75 14
  387.7 18.87 18
  387.8 23.0 22
  387.9 23.0 22
  388.0 17.93 17
  388.1 10.92 10
  388.3 8.5 8
  388.4 14.06 14
  388.5 18.48 18
  388.6 17.62 17
  388.7 12.31 12
  388.9 6.73 6
  389.0 10.35 10
  389.1 14.62 14
  389.2 15.81 15
  389.3 13.08 13
  389.5 8.9 8
  389.6 12.89 12
  389.7 18.27 18
  389.8 20.38 20
  389.9 17.04 17
  390.0 10.58 10
  390.2 7.68 7
  390.3 13.72 13
  390.4 18.95 18
  390.5 18.91 18
  390.6 14.22 14
  390.8 9.1 9
  390.9 12.75 12
  391.0 17.37 17
  391.1 19.68 19
  391.2 18.29 18
  391.3 13.95 13
  392.1 7.9 7
  392.2 11.19 11
  392.3 15.15 15
  392.4 15.64 15
  392.5 11.75 11
  392.7 7.15 7
  392.8 12.3 12
  392.9 18.45 18
  393.0 20.05 20
  393.1 15.5 15
  393.2 8.33 8
  393.4 6.26 6
  393.5 12.42 12
  393.6 17.73 17
  393.7 18.34 18
  393.8 14.64 14
  394.0 9.38 9
  394.1 12.8 12
  394.2 17.67 17
  394.3 19.04 19
  394.4 14.89 14
  394.7 9.5 9
  394.8 14.93 14
  394.9 18.27 18
  395.0 17.84 17
  395.1 14.64 14
  395.3 10.72 10
  395.4 13.31 13
  395.5 16.45 16
  395.6 16.84 16
  395.7 13.81 13
  395.8 9.8 9
  396.0 7.85 7
  396.1 10.32 10
  396.2 13.92 13
  396.3 16.9 16
  396.4 16.79 16
  396.5 12.81 12
  396.7 7.97 7
  396.8 12.47 12
  396.9 16.7 16
  397.0 16.12 16
  397.2 10.24 10
  397.3 13.75 13
  397.4 19.73 19
  397.5 21.97 21
  397.6 17.42 17
  397.7 9.57 9
  397.9 7.85 7
  398.0 14.19 14
  398.1 18.24 18
  398.2 17.07 17
  398.5 12.55 12
  398.6 17.21 17
  398.7 20.35 20
  398.8 18.88 18
  398.9 13.73 13
  399.7 6.37 6
  399.8 9.27 9
  399.9 14.65 14
  400.0 18.15 18
  400.1 16.7 16
  400.2 10.94 10
  400.4 3.56 3
  400.5 8.27 8
  400.6 15.82 15
  400.7 20.76 20
  400.8 19.74 19
  400.9 14.12 14
  401.1 7.1 7
  401.2 10.64 10
  401.3 14.9 14
  401.4 15.26 15
  401.6 10.49 10
  401.7 13.31 13
  401.8 18.32 18
  401.9 20.86 20
  402.0 19.02 19
  402.1 14.68 14
  402.9 9.88 9
  403.0 12.05 12
  403.1 16.81 16
  403.2 20.69 20
  403.3 20.76 20
  403.4 16.93 16
  403.6 11.78 11
  403.7 15.12 15
  403.8 19.27 19
  403.9 19.85 19
  404.0 15.68 15
  404.1 9.43 9
  404.3 6.01 6
  404.4 10.91 10
  404.5 16.12 16
  404.6 17.6 17
  404.7 14.61 14
  404.9 9.74 9
  405.0 12.95 12
  405.1 16.95 16
  405.2 17.88 17
  405.3 14.87 14
  405.4 10.52 10
  405.6 9.36 9
  405.7 11.92 11
  405.8 12.81 12
  406.1 9.05 9
  406.2 13.11 13
  406.3 18.35 18
  406.4 20.9 20
  406.5 18.4 18
  406.6 12.23 12
  406.8 8.18 8
  406.9 14.45 14
  407.0 20.47 20
  407.1 21.15 21
  407.2 16.81 16
  407.3 11.33 11
  407.5 9.05 9
  407.6 13.45 13
  407.7 18.01 17
  407.8 17.87 17
  407.9 11.64 11
  408.1 2.79 2
  408.2 8.6 8
  408.3 16.1 16
  408.4 18.2 18
  408.5 13.2 13
  408.8 7.19 7
  408.9 12.84 12
  409.0 16.68 16
  409.1 16.15 16
  409.4 10.86 10
  409.5 16.15 16
  409.6 19.99 19
  409.7 18.57 18
  409.8 13.08 13
  410.0 9.5 9
  410.1 14.97 14
  410.2 19.98 19
  410.3 20.54 20
  410.4 16.54 16
  410.5 10.97 10
  410.7 7.41 7
  410.8 12.48 12
  410.9 18.54 18
  411.0 20.24 20
  411.1 16.26 16
  411.3 10.96 10
  411.4 14.59 14
  411.5 17.62 17
  411.6 16.87 16
  411.7 13.36 13
  411.9 9.39 9
  412.0 12.14 12
  412.1 16.9 16
  412.2 20.32 20
  412.3 19.38 19
  412.4 14.4 14
  412.6 8.44 8
  412.7 12.69 12
  412.8 18.18 18
  412.9 19.9 19
  413.0 16.31 16
  413.1 10.88 10
  413.8 7.49 7
  413.9 10.71 10
  414.0 15.18 15
  414.1 16.74 16
  414.2 13.86 13
  414.4 6.59 6
  414.5 9.27 9
  414.6 15.53 15
  414.7 20.65 20
  414.8 20.4 20
  414.9 14.76 14
  415.0 7.93 7
  415.2 7.49 7
  415.3 13.36 13
  415.4 17.79 17
  415.5 17.28 17
  415.6 12.48 12
  415.8 9.35 9
  415.9 14.81 14
  416.0 19.34 19
  416.1 18.29 18
  416.2 12.41 12
  416.4 5.07 5
  416.5 8.82 8
  416.6 14.39 14
  416.7 17.31 17
  416.8 15.92 15
  417.0 12.56 12
  417.1 15.26 15
  417.2 18.37 18
  417.3 19.37 19
  417.4 18.21 18
  417.5 16.07 16
  417.7 13.72 13
  417.8 15.2 15
  417.9 17.29 17
  418.0 17.46 17
  418.1 14.75 14
  418.4 10.36 10
  418.5 14.26 14
  418.6 17.56 17
  418.7 17.87 17
  418.8 15.39 15
  419.0 12.81 12
  419.1 15.86 15
  419.2 18.66 18
  419.3 17.23 17
  419.4 11.2 11
  419.6 4.82 4
  419.7 10.96 10
  419.8 19.26 19
  419.9 23.77 23
  420.0 21.79 21
  420.1 15.36 15
  420.3 9.35 9
  420.4 13.36 13
  420.5 16.93 16
  420.6 15.93 15
  420.7 11.27 11
  420.9 8.02 8
  421.0 12.2 12
  421.1 16.46 16
  421.2 17.26 17
  421.3 13.7 13
  421.5 7.01 7
  421.6 11.0 10
  421.7 17.18 17
  421.8 19.68 19
  421.9 16.28 16
  422.0 10.3 10
  422.2 9.32 9
  422.3 14.59 14
  422.4 18.65 18
  422.5 18.2 18
  422.6 13.62 13
  422.8 6.93 6
  422.9 10.36 10
  423.0 16.09 16
  423.1 19.44 19
  423.2 17.59 17
  423.3 12.02 12
  423.5 7.43 7
  423.6 11.25 11
  423.7 14.59 14
  423.8 14.11 14
  424.0 9.47 9
  424.1 12.17 12
  424.2 17.28 17
  424.3 20.63 20
  424.4 19.46 19
  424.5 14.61 14
  424.7 8.55 8
  424.8 12.0 11
  424.9 17.31 17
  425.0 20.07 20
  425.1 17.95 17
  425.2 12.81 12
  425.4 10.08 10
  425.5 14.22 14
  425.6 17.49 17
  425.7 17.06 17
  425.8 13.41 13
  426.0 8.99 8
  426.1 12.75 12
  426.2 18.63 18
  426.3 22.21 22
  426.4 20.68 20
  426.5 15.5 15
  426.7 11.36 11
  426.8 14.97 14
  426.9 17.71 17
  427.0 16.32 16
  427.1 11.64 11
  427.3 7.99 7
  427.4 12.67 12
  427.5 17.92 17
  427.6 18.71 18
  427.7 13.64 13
  427.9 3.78 3
  428.0 7.54 7
  428.1 15.0 14
  428.2 20.66 20
  428.3 21.02 20
  428.4 16.81 16
  428.5 11.92 11
  428.7 11.66 11
  428.8 14.61 14
  428.9 16.18 16
  429.0 15.14 15
  429.2 11.7 11
  429.3 13.89 13
  429.4 17.85 17
  429.5 19.77 19
  429.6 16.95 16
  429.7 10.78 10
  429.9 6.01 6
  430.0 11.13 11
  430.1 17.18 17
  430.2 19.19 19
  430.3 15.39 15
  430.6 8.86 8
  430.7 15.95 15
  430.8 20.44 20
  430.9 18.38 18
  431.0 12.5 12
  431.2 10.83 10
  431.3 15.01 14
  431.4 16.7 16
  431.5 14.67 14
  431.8 11.8 11
  431.9 14.03 14
  432.0 15.12 15
  432.1 14.4 14
  432.2 12.38 12
  432.4 9.64 9
  432.5 11.52 11
  432.6 15.34 15
  432.7 18.32 18
  432.8 17.48 17
  432.9 13.03 13
  433.1 9.36 9
  433.2 13.92 13
  433.3 18.26 18
  433.4 18.54 18
  433.5 15.29 15
  433.7 12.19 12
  433.8 14.79 14
  433.9 17.74 17
  434.0 18.49 18
  434.1 16.31 16
  434.3 12.14 12
  434.4 14.29 14
  434.5 17.54 17
  434.6 18.76 18
  434.7 16.32 16
  434.8 11.33 11
  435.0 7.15 7
  435.1 11.69 11
  435.2 16.43 16
  435.3 16.51 16
  435.4 11.67 11
  435.6 5.37 5
  435.7 8.79 8
  435.8 13.67 13
  435.9 16.51 16
  436.0 15.48 15
  436.1 11.74 11
  436.3 9.61 9
  436.4 14.31 14
  436.5 18.31 18
  436.6 17.26 17
  436.9 11.2 11
  437.0 18.23 18
  437.1 23.39 23
  437.2 21.89 21
  437.3 14.53 14
  437.5 5.4 5
  437.6 10.11 10
  437.7 16.78 16
  437.8 19.94 19
  437.9 17.68 17
  438.0 11.91 11
  438.2 6.16 6
  438.3 10.58 10
  438.4 16.23 16
  438.5 18.26 18
  438.6 15.22 15
  438.8 8.74 8
  438.9 11.75 11
  439.0 16.56 16
  439.1 18.34 18
  439.2 14.97 14
  439.5 9.8 9
  439.6 15.5 15
  439.7 18.99 18
  439.8 17.13 17
  439.9 11.59 11
  440.1 8.86 8
  440.2 15.04 15
  440.3 20.97 20
  440.4 21.69 21
  440.5 16.28 16
  440.6 9.07 9
  440.8 8.91 8
  440.9 14.75 14
  441.0 17.85 17
  441.1 15.43 15
  441.2 9.64 9
  441.4 6.16 6
  441.5 11.83 11
  441.6 18.41 18
  441.7 21.21 21
  441.8 18.68 18
  441.9 13.65 13
  442.7 10.75 10
  442.8 15.11 15
  442.9 17.63 17
  443.0 16.93 16
  443.1 14.08 14
  443.8 12.22 12
  443.9 13.78 13
  444.0 17.17 17
  444.1 20.04 20
  444.2 19.91 19
  444.3 16.2 16
  444.4 11.14 11
  444.6 9.5 9
  444.7 13.05 13
  444.8 15.04 15
  444.9 13.09 13
  445.2 8.82 8
  445.3 13.75 13
  445.4 18.13 18
  445.5 19.05 19
  445.6 15.92 15
  445.7 10.83 10
  445.9 8.75 8
  446.0 12.33 12
  446.1 14.59 14
  446.2 13.09 13
  446.3 8.97 8
  446.5 7.24 7
  446.6 12.39 12
  446.7 16.85 16
  446.8 16.42 16
  446.9 11.55 11
  447.1 6.15 6
  447.2 10.35 10
  447.3 16.45 16
  447.4 19.98 19
  447.5 17.96 17
  447.6 11.95 11
  447.8 8.05 8
  447.9 14.53 14
  448.0 21.64 21
  448.1 23.89 23
  448.2 19.79 19
  448.5 13.3 13
  448.6 19.55 19
  448.7 23.02 22
  448.8 20.57 20
  448.9 14.65 14
  449.1 10.36 10
  449.2 13.78 13
  449.3 17.24 17
  449.4 17.93 17
  449.5 15.23 15
  449.7 10.16 10
  449.8 12.77 12
  449.9 16.81 16
  450.0 17.81 17
  450.1 14.31 14
  450.3 9.96 9
  450.4 14.17 14
  450.5 18.27 18
  450.6 18.54 18
  450.7 15.22 15
  451.0 10.38 10
  451.1 15.61 15
  451.2 19.71 19
  451.3 17.74 17
  451.4 10.16 10
  451.6 2.47 2
  451.7 8.07 8
  451.8 15.03 15
  451.9 17.96 17
  452.0 14.98 14
  452.2 6.46 6
  452.3 10.07 10
  452.4 17.18 17
  452.5 21.1 21
  452.6 17.71 17
  452.7 9.77 9
  452.9 5.79 5
  453.0 12.94 12
  453.1 19.79 19
  453.2 21.3 21
  453.3 17.18 17
  454.2 5.49 5
  454.3 12.14 12
  454.4 18.26 18
  454.5 18.7 18
  454.6 13.16 13
  454.7 6.29 6
  454.9 5.9 5
  455.0 11.52 11
  455.1 15.81 15
  455.2 16.46 16
  455.3 14.36 14
  455.5 12.14 12
  455.6 14.26 14
  455.7 16.65 16
  455.8 16.6 16
  455.9 13.17 13
  456.1 9.53 9
  456.2 14.54 14
  456.3 19.41 19
  456.4 19.04 19
  456.5 13.7 13
  456.7 7.33 7
  456.8 12.02 12
  456.9 18.84 18
  457.0 22.25 22
  457.1 19.32 19
  457.2 12.52 12
  457.4 7.83 7
  457.5 12.27 12
  457.6 16.48 16
  457.7 17.06 17
  457.9 12.13 12
  458.0 14.31 14
  458.1 19.46 19
  458.2 22.08 22
  458.3 18.85 18
  458.4 12.61 12
  458.6 10.83 10
  458.7 15.67 15
  458.8 19.58 19
  458.9 19.63 19
  459.0 15.48 15
  459.1 9.83 9
  459.3 8.58 8
  459.4 13.11 13
  459.5 16.01 15
  459.6 15.06 15
  459.9 12.02 12
  460.0 14.44 14
  460.1 15.7 15
  460.2 14.45 14
  460.3 11.16 11
  460.6 7.66 7
  460.7 12.44 12
  460.8 17.37 17
  460.9 19.41 19
  461.0 17.76 17
  461.1 14.17 14
  461.8 7.32 7
  461.9 9.97 9
  462.0 15.96 15
  462.1 20.24 20
  462.2 19.51 19
  462.3 15.0 14
  463.1 9.14 9
  463.2 13.0 12
  463.3 18.62 18
  463.4 20.76 20
  463.5 17.74 17
  463.6 12.81 12
  463.8 10.6 10
  463.9 14.04 14
  464.0 18.48 18
  464.1 20.71 20
  464.2 18.43 18
  464.3 13.05 13
  464.5 10.03 10
  464.6 14.42 14
  464.7 17.88 17
  464.8 17.23 17
  464.9 13.33 13
  465.1 10.49 10
  465.2 14.39 14
  465.3 18.31 18
  465.4 18.59 18
  465.5 14.68 14
  465.7 9.53 9
  465.8 14.56 14
  465.9 21.41 21
  466.0 24.19 24
  466.1 20.1 20
  466.2 12.45 12
  466.4 10.24 10
  466.5 16.51 16
  466.6 20.38 20
  466.7 17.95 17
  466.8 10.42 10
  467.0 1.69 1
  467.1 7.12 7
  467.2 14.7 14
  467.3 17.92 17
  467.4 15.18 15
  467.6 10.92 10
  467.7 15.09 15
  467.8 19.54 19
  467.9 20.19 20
  468.0 16.82 16
  468.9 8.22 8
  469.0 10.96 10
  469.1 15.68 15
  469.2 18.49 18
  469.3 17.03 17
  469.4 12.87 12
  469.6 11.38 11
  469.7 15.51 15
  469.8 18.49 18
  469.9 17.04 17
  470.0 12.03 12
  470.2 9.33 9
  470.3 15.06 15
  470.4 20.02 19
  470.5 19.69 19
  470.6 14.68 14
  470.8 9.04 9
  470.9 12.13 12
  471.0 15.75 15
  471.1 16.92 16
  471.2 14.93 14
  471.5 12.36 12
  471.6 16.04 16
  471.7 18.23 18
  471.8 17.15 17
  471.9 13.64 13
  472.1 9.36 9
  472.2 11.97 11
  472.3 16.1 16
  472.4 18.48 18
  472.5 16.98 16
  472.7 11.42 11
  472.8 14.45 14
  472.9 19.66 19
  473.0 21.58 21
  473.1 17.7 17
  473.2 11.27 11
  473.4 9.47 9
  473.5 14.09 14
  473.6 17.03 17
  473.7 15.37 15
  473.8 10.49 10
  474.0 6.4 6
  474.1 9.78 9
  474.2 13.92 13
  474.3 15.93 15
  474.4 14.28 14
  474.7 9.53 9
  474.8 14.87 14
  474.9 18.91 18
  475.0 18.18 18
  475.1 13.45 13
  475.3 9.08 9
  475.4 14.5 14
  475.5 21.29 21
  475.6 23.47 23
  475.7 18.73 18
  475.8 10.91 10
  476.0 7.69 7
  476.1 12.77 12
  476.2 16.7 16
  476.3 16.26 16
  476.4 12.52 12
  476.6 10.85 10
  476.7 15.57 15
  476.8 19.23 19
  476.9 18.02 18
  477.0 12.95 12
  477.2 9.04 9
  477.3 12.25 12
  477.4 14.78 14
  477.5 14.5 14
  477.6 11.77 11
  477.8 8.86 8
  477.9 13.8 13
  478.0 20.74 20
  478.1 23.7 23
  478.2 19.85 19
  478.3 12.28 12
  478.5 6.73 6
  478.6 10.63 10
  478.7 14.64 14
  478.8 15.53 15
  479.1 11.22 11
  479.2 15.62 15
  479.3 20.4 20
  479.4 21.25 21
  479.5 17.1 17
  479.6 11.1 11
  479.8 9.25 9
  479.9 13.73 13
  480.0 17.57 17
  480.1 17.95 17
  480.2 14.5 14
  480.4 9.43 9
  480.5 14.22 14
  480.6 21.24 21
  480.7 24.05 24
  480.8 19.66 19
  480.9 11.77 11
  481.1 9.32 9
  481.2 14.92 14
  481.3 18.74 18
  481.4 18.12 18
  481.5 14.42 14
  482.3 7.97 7
  482.4 11.42 11
  482.5 16.48 16
  482.6 19.12 19
  482.7 17.4 17
  483.6 8.49 8
  483.7 11.75 11
  483.8 15.81 15
  483.9 17.74 17
  484.0 15.96 15
  484.1 11.69 11
  484.8 11.81 11
  484.9 12.55 12
  485.0 15.61 15
  485.1 18.65 18
  485.2 18.23 18
  485.3 13.23 13
  485.6 5.42 5
  485.7 12.41 12
  485.8 19.43 19
  485.9 22.08 22
  486.0 19.01 18
  486.1 13.3 13
  486.8 9.24 9
  486.9 12.38 12
  487.0 16.32 16
  487.1 18.38 18
  487.2 17.03 17
  487.3 12.77 12
  487.5 7.76 7
  487.6 11.33 11
  487.7 15.61 15
  487.8 16.37 16
  487.9 13.36 13
  488.1 10.83 10
  488.2 15.01 14
  488.3 19.21 19
  488.4 19.32 19
  488.5 14.78 14
  488.7 7.9 7
  488.8 11.84 11
  488.9 18.26 18
  489.0 22.0 21
  489.1 19.62 19
  489.2 12.52 12
  489.4 5.73 5
  489.5 11.02 11
  489.6 17.09 17
  489.7 18.74 18
  489.8 15.07 15
  489.9 9.88 9
  490.1 9.1 9
  490.2 11.8 11
  490.3 12.56 12
  490.4 10.89 10
  490.6 8.63 8
  490.7 11.56 11
  490.8 16.4 16
  490.9 19.99 19
  491.0 19.55 19
  491.1 15.43 15
  491.3 10.71 10
  491.4 15.11 15
  491.5 20.61 20
  491.6 21.36 21
  491.7 15.22 15
  492.5 4.43 4
  492.6 8.57 8
  492.7 15.73 15
  492.8 21.4 21
  492.9 22.43 22
  493.0 18.65 18
  493.1 12.78 12
  493.3 9.53 9
  493.4 13.01 12
  493.5 15.22 15
  493.6 13.94 13
  493.8 9.69 9
  493.9 11.7 11
  494.0 15.15 15
  494.1 16.9 16
  494.2 15.12 15
  494.5 9.94 9
  494.6 14.42 14
  494.7 19.04 19
  494.8 20.21 20
  494.9 16.59 16
  495.0 10.67 10
  495.2 8.61 8
  495.3 13.11 13
  495.4 16.43 16
  495.5 16.1 16
  495.8 11.95 11
  495.9 16.4 16
  496.0 20.3 20
  496.1 19.98 19
  496.2 15.7 15
  496.4 11.13 11
  496.5 14.83 14
  496.6 19.24 19
  496.7 20.4 20
  496.8 16.7 16
  496.9 10.56 10
  497.1 6.96 6
  497.2 10.47 10
  497.3 13.53 13
  497.4 13.51 13
  497.6 9.33 9
  497.7 11.3 11
  497.8 16.15 16
  497.9 19.6 19
  498.0 17.77 17
  498.1 11.39 11
  498.3 3.68 3
  498.4 8.44 8
  498.5 15.84 15
  498.6 20.44 20
  498.7 19.29 19
  498.8 13.94 13
  499.0 8.9 8
  499.1 13.58 13
  499.2 19.07 19
  499.3 20.41 20
  499.4 16.37 16
  500.2 11.1 11
  500.3 13.89 13
  500.4 17.71 17
  500.5 18.21 18
  500.6 14.67 14
  500.7 9.97 9
  500.9 8.83 8
  501.0 13.58 13
  501.1 18.51 18
  501.2 19.37 19
  501.3 14.7 14
  501.6 8.77 8
  501.7 15.53 15
  501.8 20.24 20
  501.9 19.07 19
  502.0 13.01 12
  502.2 7.26 7
  502.3 12.55 12
  502.4 18.66 18
  502.5 20.65 20
  502.6 17.34 17
  502.7 11.7 11
  502.9 9.85 9
  503.0 13.65 13
  503.1 15.56 15
  503.2 13.76 13
  503.4 9.74 9
  503.5 12.11 12
  503.6 15.98 15
  503.7 18.26 18
  503.8 16.65 16
  503.9 11.69 11
  504.1 7.33 7
  504.2 11.81 11
  504.3 16.26 16
  504.4 16.39 16
  504.5 11.81 11
  504.7 4.68 4
  504.8 8.74 8
  504.9 15.39 15
  505.0 18.95 18
  505.1 16.87 16
  505.2 12.11 12
  505.4 11.14 11
  505.5 14.64 14
  505.6 16.45 16
  505.7 15.06 15
  506.0 10.35 10
  506.1 14.64 14
  506.2 19.3 19
  506.3 20.51 20
  506.4 16.9 16
  506.5 11.3 11
  506.7 9.83 9
  506.8 14.12 14
  506.9 16.85 16
  507.0 15.48 15
  507.1 11.03 11
  507.3 7.4 7
  507.4 12.09 12
  507.5 17.68 17
  507.6 19.37 19
  507.7 15.62 15
  507.8 9.8 9
  508.0 8.58 8
  508.1 12.62 12
  508.2 15.09 15
  508.3 13.94 13
  508.4 10.14 10
  508.6 6.45 6
  508.7 9.05 9
  508.8 11.86 11
  508.9 12.33 12
  509.0 10.74 10
  509.1 9.93 9
  509.2 11.94 11
  509.3 15.82 15
  509.4 18.7 18
  509.5 18.27 18
  509.6 14.7 14
  509.7 10.33 10
  509.9 9.14 9
  510.0 12.58 12
  510.1 15.9 15
  510.2 17.04 17
  510.3 15.56 15
  510.5 12.52 12
  510.6 14.92 14
  510.7 18.74 18
  510.8 20.91 20
  510.9 19.24 19
  511.0 14.81 14
  511.2 13.23 13
  511.3 18.35 18
  511.4 21.63 21
  511.5 19.12 19
  511.6 12.67 12
  511.8 9.49 9
  511.9 14.51 14
  512.0 17.92 17
  512.1 16.07 16
  512.2 10.17 10
  512.4 5.87 5
  512.5 12.75 12
  512.6 20.94 20
  512.7 24.09 24
  512.8 20.16 20
  512.9 12.59 12
  513.1 6.4 6
  513.2 10.22 10
  513.3 14.81 14
  513.4 16.42 16
  513.5 14.28 14
  513.7 10.91 10
  513.8 13.56 13
  513.9 16.51 16
  514.0 16.73 16
  514.1 13.34 13
  514.3 7.96 7
  514.4 12.53 12
  514.5 18.59 18
  514.6 19.63 19
  514.7 14.09 14
  514.8 6.98 6
  515.0 6.29 6
  515.1 10.89 10
  515.2 14.36 14
  515.3 14.59 14
  515.6 10.53 10
  515.7 15.12 15
  515.8 19.76 19
  515.9 20.51 20
  516.0 16.51 16
  516.9 6.48 6
  517.0 13.31 13
  517.1 20.18 20
  517.2 20.93 20
  517.3 15.06 15
  517.5 7.1 7
  517.6 11.83 11
  517.7 18.27 18
  517.8 21.16 21
  517.9 18.12 18
  518.0 11.5 11
  518.2 8.15 8
  518.3 13.47 13
  518.4 17.56 17
  518.5 17.71 17
  518.6 15.34 15
  518.7 13.25 13
  519.4 10.24 10
  519.5 12.08 12
  519.6 15.59 15
  519.7 18.34 18
  519.8 17.99 17
  519.9 14.26 14
  520.2 10.02 10
  520.3 14.19 14
  520.4 16.45 16
  520.5 14.54 14
  520.7 8.52 8
  520.8 11.86 11
  520.9 18.2 18
  521.0 22.24 22
  521.1 20.51 20
  521.2 14.28 14
  521.4 7.54 7
  521.5 11.13 11
  521.6 15.84 15
  521.7 17.73 17
  521.8 15.32 15
  522.7 9.36 9
  522.8 14.81 14
  522.9 20.85 20
  523.0 21.68 21
  523.1 15.62 15
  523.2 7.71 7
  523.9 10.16 10
  524.0 14.83 14
  524.1 20.24 20
  524.2 21.29 21
  524.3 16.42 16
  524.4 9.22 9
  524.6 7.48 7
  524.7 13.97 13
  524.8 19.46 19
  524.9 19.46 19
  525.0 14.17 14
  525.2 7.1 7
  525.3 11.1 11
  525.4 16.71 16
  525.5 19.46 19
  525.6 17.18 17
  525.7 11.72 11
  525.9 8.57 8
  526.0 13.76 13
  526.1 18.63 18
  526.2 19.18 19
  526.3 15.78 15
  526.5 12.45 12
  526.6 16.25 16
  526.7 20.54 20
  526.8 21.52 21
  526.9 17.82 17
  527.0 12.28 12
  527.2 11.86 11
  527.3 16.23 16
  527.4 18.21 18
  527.5 15.82 15
  527.6 10.97 10
  527.8 8.27 8
  527.9 12.87 12
  528.0 17.84 17
  528.1 18.43 18
  528.2 13.34 13
  528.4 5.31 5
  528.5 10.52 10
  528.6 18.41 18
  528.7 22.58 22
  528.8 19.87 19
  528.9 12.98 12
  529.1 8.99 8
  529.2 14.58 14
  529.3 19.63 19
  529.4 20.18 20
  529.5 16.53 16
  530.3 6.96 6
  530.4 12.47 12
  530.5 18.31 18
  530.6 20.61 20
  530.7 18.73 18
  530.8 14.31 14
  530.9 9.94 9
  531.6 5.7 5
  531.7 11.28 11
  531.8 17.35 17
  531.9 19.35 19
  532.0 15.92 15
  532.1 10.0 9
  532.3 8.26 8
  532.4 13.33 13
  532.5 16.67 16
  532.6 15.29 15
  532.7 10.89 10
  532.9 9.21 9
  533.0 14.28 14
  533.1 19.62 19
  533.2 21.18 21
  533.3 17.28 17
  533.4 10.72 10
  533.6 9.07 9
  533.7 14.44 14
  533.8 17.73 17
  533.9 16.09 16
  534.2 12.08 12
  534.3 16.9 16
  534.4 20.72 20
  534.5 20.88 20
  534.6 16.92 16
  534.7 11.38 11
  534.9 10.61 10
  535.0 15.57 15
  535.1 18.45 18
  535.2 16.21 16
  535.3 10.67 10
  535.5 7.15 7
  535.6 11.84 11
  535.7 16.15 16
  535.8 15.92 15
  535.9 11.24 11
  536.1 6.15 6
  536.2 10.88 10
  536.3 16.51 16
  536.4 17.99 17
  536.5 13.84 13
  536.7 5.18 5
  536.8 9.43 9
  536.9 16.9 16
  537.0 20.88 20
  537.1 18.2 18
  537.2 11.8 11
  537.4 8.21 8
  537.5 13.51 13
  537.6 18.57 18
  537.7 18.23 18
  537.8 11.53 11
  538.0 1.97 1
  538.1 7.66 7
  538.2 15.56 15
  538.3 19.15 19
  538.4 16.64 16
  538.5 11.61 11
  538.7 10.22 10
  538.8 13.69 13
  538.9 15.64 15
  539.0 14.39 14
  539.1 11.02 11
  539.3 6.8 6
  539.4 8.94 8
  539.5 12.92 12
  539.6 15.4 15
  539.7 14.01 13
  539.9 7.88 7
  540.0 10.3 10
  540.1 15.56 15
  540.2 18.65 18
  540.3 16.51 16
  540.6 10.66 10
  540.7 16.45 16
  540.8 20.27 20
  540.9 18.98 18
  541.0 14.09 14
  541.2 9.93 9
  541.3 13.9 13
  541.4 18.76 18
  541.5 20.32 20
  541.6 17.06 17
  541.7 11.24 11
  541.9 7.29 7
  542.0 10.92 10
  542.1 14.75 14
  542.2 15.75 15
  542.5 12.84 12
  542.6 16.46 16
  542.7 19.99 19
  542.8 20.19 20
  542.9 16.2 16
  543.2 10.27 10
  543.3 16.54 16
  543.4 20.27 20
  543.5 17.38 17
  543.6 10.36 10
  543.8 8.36 8
  543.9 15.93 15
  544.0 22.43 22
  544.1 22.82 22
  544.2 17.1 17
  544.3 9.96 9
  544.5 8.75 8
  544.6 13.84 13
  544.7 16.84 16
  544.8 14.83 14
  544.9 9.46 9
  545.1 7.12 7
  545.2 12.09 12
  545.3 16.28 16
  545.4 16.35 16
  545.5 12.69 12
  545.7 7.99 7
  545.8 11.64 11
  545.9 16.84 16
  546.0 18.74 18
  546.1 15.01 14
  547.0 10.36 10
  547.1 14.22 14
  547.2 16.87 16
  547.3 16.2 16
  547.4 13.22 13
  547.6 11.1 11
  547.7 14.37 14
  547.8 18.15 18
  547.9 19.1 19
  548.0 16.07 16
  548.9 12.8 12
  549.0 16.78 16
  549.1 20.49 20
  549.2 20.63 20
  549.3 16.15 16
  549.5 7.08 7
  549.6 10.64 10
  549.7 17.7 17
  549.8 21.89 21
  549.9 19.3 19
  550.0 12.59 12
  550.2 8.88 8
  550.3 13.92 13
  550.4 18.27 18
  550.5 18.06 18
  550.6 12.97 12
  550.8 5.21 5
  550.9 9.44 9
  551.0 15.39 15
  551.1 17.45 17
  551.2 14.59 14
  551.5 11.74 11
  551.6 15.53 15
  551.7 18.48 18
  551.8 18.73 18
  551.9 16.03 16
  552.1 11.16 11
  552.2 14.0 13
  552.3 17.82 17
  552.4 17.57 17
  552.5 12.27 12
  552.7 7.6 7
  552.8 14.12 14
  552.9 20.82 20
  553.0 21.97 21
  553.1 17.1 17
  553.2 10.55 10
  553.4 9.96 9
  553.5 15.36 15
  553.6 19.49 19
  553.7 19.6 19
  553.8 15.87 15
  554.7 8.22 8
  554.8 14.4 14
  554.9 18.88 18
  555.0 17.7 17
  555.1 12.02 12
  555.3 5.52 5
  555.4 8.69 8
  555.5 13.22 13
  555.6 15.75 15
  555.7 14.72 14
  555.9 10.27 10
  556.0 13.47 13
  556.1 19.19 19
  556.2 22.43 22
  556.3 20.74 20
  556.4 16.34 16
  556.6 13.65 13
  556.7 15.84 15
  556.8 17.59 17
  556.9 17.56 17
  557.0 15.79 15
  557.2 12.78 12
  557.3 14.86 14
  557.4 18.73 18
  557.5 20.66 20
  557.6 17.52 17
  557.7 10.78 10
  557.9 8.16 8
  558.0 15.81 15
  558.1 23.25 23
  558.2 24.61 24
  558.3 18.52 18
  558.4 9.72 9
  558.6 8.1 8
  558.7 14.29 14
  558.8 17.57 17
  558.9 15.48 15
  559.1 8.6 8
  559.2 11.99 11
  559.3 18.95 18
  559.4 24.0 23
  559.5 23.06 23
  559.6 17.03 17
  559.8 9.89 9
  559.9 13.73 13
  560.0 17.81 17
  560.1 17.31 17
  560.2 12.5 12
  560.4 9.69 9
  560.5 14.64 14
  560.6 18.6 18
  560.7 18.09 18
  560.8 13.58 13
  561.0 6.88 6
  561.1 10.05 10
  561.2 15.75 15
  561.3 19.37 19
  561.4 17.76 17
  561.5 12.42 12
  561.7 8.63 8
  561.8 12.8 12
  561.9 16.74 16
  562.0 17.31 17
  562.1 14.28 14
  562.3 9.94 9
  562.4 13.19 13
  562.5 16.92 16
  562.6 17.31 17
  562.7 13.81 13
  563.0 9.61 9
  563.1 14.5 14
  563.2 19.24 19
  563.3 20.46 20
  563.4 16.43 16
  564.3 9.52 9
  564.4 16.67 16
  564.5 20.88 20
  564.6 19.43 19
  564.7 14.44 14
  564.9 11.03 11
  565.0 14.75 14
  565.1 18.09 18
  565.2 18.34 18
  565.3 15.51 15
  565.4 11.36 11
  565.6 9.61 9
  565.7 13.9 13
  565.8 18.15 18
  565.9 18.77 18
  566.0 15.34 15
  566.1 10.83 10
  566.8 8.77 8
  566.9 11.78 11
  567.0 15.92 15
  567.1 18.79 18
  567.2 18.52 18
  567.3 15.36 15
  567.5 11.3 11
  567.6 13.61 13
  567.7 16.54 16
  567.8 17.2 17
  567.9 14.83 14
  568.1 10.78 10
  568.2 13.73 13
  568.3 18.37 18
  568.4 20.18 20
  568.5 16.56 16
  568.6 9.97 9
  568.8 7.13 7
  568.9 12.25 12
  569.0 17.12 17
  569.1 18.45 18
  569.2 15.61 15
  570.0 5.56 5
  570.1 10.91 10
  570.2 17.2 17
  570.3 20.18 20
  570.4 18.45 18
  570.5 14.0 13
  570.7 10.63 10
  570.8 13.72 13
  570.9 16.26 16
  571.0 15.04 15
  571.1 10.78 10
  571.3 8.66 8
  571.4 12.97 12
  571.5 16.81 16
  571.6 17.24 17
  571.7 14.25 14
  572.0 10.44 10
  572.1 14.97 14
  572.2 17.63 17
  572.3 16.29 16
  572.4 12.84 12
  572.6 11.61 11
  572.7 14.2 14
  572.8 16.0 15
  572.9 15.0 14
  573.1 9.1 9
  573.2 10.99 10
  573.3 17.1 17
  573.4 22.74 22
  573.5 22.69 22
  573.6 16.48 16
  573.8 7.69 7
  573.9 12.98 12
  574.0 19.41 19
  574.1 20.26 20
  574.2 14.93 14
  574.3 8.54 8
  574.5 7.71 7
  574.6 11.89 11
  574.7 15.48 15
  574.8 16.31 16
  574.9 14.14 14
  575.1 10.56 10
  575.2 13.36 13
  575.3 17.32 17
  575.4 18.71 18
  575.5 15.89 15
  575.7 9.0 8
  575.8 11.91 11
  575.9 17.62 17
  576.0 21.19 21
  576.1 19.6 19
  576.2 13.97 13
  576.3 8.08 8
  576.5 7.16 7
  576.6 11.81 11
  576.7 15.61 15
  576.8 15.42 15
  577.1 10.92 10
  577.2 15.0 14
  577.3 17.62 17
  577.4 16.25 16
  577.5 11.83 11
  577.7 8.05 8
  577.8 11.83 11
  577.9 15.9 15
  578.0 16.81 16
  578.1 14.33 14
  578.3 10.32 10
  578.4 12.47 12
  578.5 15.89 15
  578.6 17.07 17
  578.7 14.09 14
  579.0 8.66 8
  579.1 15.34 15
  579.2 21.55 21
  579.3 22.83 22
  579.4 18.24 18
  579.5 11.91 11
  580.2 7.9 7
  580.3 11.24 11
  580.4 17.34 17
  580.5 21.52 21
  580.6 20.86 20
  580.7 16.62 16
  581.6 10.63 10
  581.7 15.04 15
  581.8 17.73 17
  581.9 15.86 15
  582.0 11.14 11
  582.2 9.5 9
  582.3 14.33 14
  582.4 17.99 17
  582.5 17.06 17
  582.6 12.39 12
  582.8 8.86 8
  582.9 13.31 13
  583.0 17.59 17
  583.1 18.09 18
  583.2 14.36 14
  583.3 9.07 9
  583.5 7.46 7
  583.6 13.19 13
  583.7 19.15 19
  583.8 20.51 20
  583.9 16.35 16
  584.1 8.93 8
  584.2 12.33 12
  584.3 17.12 17
  584.4 18.71 18
  584.5 16.01 15
  584.6 11.89 11
  584.8 10.86 10
  584.9 14.33 14
  585.0 17.52 17
  585.1 17.38 17
  585.2 13.3 13
  585.4 8.24 8
  585.5 12.41 12
  585.6 16.99 16
  585.7 17.12 17
  585.8 12.11 12
  585.9 5.79 5
  586.1 5.51 5
  586.2 10.71 10
  586.3 14.33 14
  586.4 14.34 14
  586.7 12.38 12
  586.8 15.73 15
  586.9 18.52 18
  587.0 18.43 18
  587.1 15.25 15
  587.3 10.58 10
  587.4 13.17 13
  587.5 17.07 17
  587.6 19.12 19
  587.7 17.63 17
  587.8 13.81 13
  588.0 9.96 9
  588.1 12.33 12
  588.2 15.65 15
  588.3 17.2 17
  588.4 15.78 15
  588.6 13.5 13
  588.7 16.35 16
  588.8 18.34 18
  588.9 16.26 16
  589.0 11.33 11
  589.2 8.43 8
  589.3 12.94 12
  589.4 17.79 17
  589.5 19.19 19
  589.6 16.12 16
  589.8 10.49 10
  589.9 13.84 13
  590.0 18.88 18
  590.1 21.07 21
  590.2 17.99 17
  590.3 11.77 11
  590.5 9.64 9
  590.6 16.34 16
  590.7 21.61 21
  590.8 20.38 20
  590.9 13.28 13
  591.7 7.96 7
  591.8 11.05 11
  591.9 16.93 16
  592.0 20.58 20
  592.1 18.93 18
  592.2 13.3 13
  592.4 8.1 8
  592.5 13.19 13
  592.6 19.07 19
  592.7 20.26 20
  592.8 15.61 15
  593.1 9.57 9
  593.2 14.67 14
  593.3 17.79 17
  593.4 16.09 16
  593.5 10.71 10
  593.7 6.51 6
  593.8 11.36 11
  593.9 16.53 16
  594.0 17.81 17
  594.1 14.72 14
  594.3 10.14 10
  594.4 13.53 13
  594.5 17.73 17
  594.6 18.68 18
  594.7 15.12 15
  595.0 9.61 9
  595.1 15.62 15
  595.2 20.82 20
  595.3 21.44 21
  595.4 16.92 16
  595.5 10.69 10
  595.7 10.28 10
  595.8 15.07 15
  595.9 16.99 16
  596.0 14.4 14
  596.2 8.33 8
  596.3 11.03 11
  596.4 16.15 16
  596.5 19.09 19
  596.6 16.26 16
  596.7 9.07 9
  596.9 5.09 5
  597.0 12.87 12
  597.1 20.27 20
  597.2 20.76 20
  597.3 14.0 13
  597.5 2.64 2
  597.6 7.29 7
  597.7 15.56 15
  597.8 20.58 20
  597.9 18.76 18
  598.0 12.94 12
  598.2 10.22 10
  598.3 15.25 15
  598.4 19.79 19
  598.5 20.18 20
  598.6 15.86 15
  598.9 9.47 9
  599.0 15.51 15
  599.1 19.18 19
  599.2 17.17 17
  599.3 11.78 11
//
