ACCESSION: MSBNK-RIKEN_NPDepo-NGA02055
RECORD_TITLE: Trichodesmine; LC-ESI-QQQ; MS2; Frag=135.0V CID@10.0; [M+H]+
DATE: 2018.04.04
AUTHORS: Nogawa T, Okano A, CSRS, RIKEN
LICENSE: CC BY
COMMENT: Origin: Plant
COMMENT: SubCategory_DNP: Alkaloids derived from ornithine, Pyrrolizidine alkaloids
CH$NAME: Trichodesmine
CH$COMPOUND_CLASS: Alkaloids
CH$FORMULA: C18H27NO6
CH$EXACT_MASS: 353.419
CH$SMILES: CC(C)[C@H]1C(=O)OC2CCN3CC=C(COC(=O)C(C)(O)C1(C)O)[C@H]23
CH$IUPAC: InChI=1S/C18H27NO6/c1-10(2)13-15(20)25-12-6-8-19-7-5-11(14(12)19)9-24-16(21)18(4,23)17(13,3)22/h5,10,12-14,22-23H,6-9H2,1-4H3/t12?,13-,14+,17?,18?/m0/s1
CH$LINK: CAS 548-90-3
CH$LINK: CHEMSPIDER 106367
CH$LINK: INCHIKEY SOODLZHDDSGRKL-YHRDOBKISA-N
CH$LINK: PUBCHEM CID:16397438
AC$INSTRUMENT: Agilent 6410 Triple Quadrupole LC/MS system
AC$INSTRUMENT_TYPE: LC-ESI-QQQ
AC$MASS_SPECTROMETRY: MS_TYPE MS2
AC$MASS_SPECTROMETRY: ION_MODE POSITIVE
MS$FOCUSED_ION: PRECURSOR_TYPE [M+H]+
PK$SPLASH: splash10-0udi-0009000000-78a3c421b0f304586990
PK$NUM_PEAK: 15
PK$PEAK: m/z int. rel.int.
  353.4 0.77 0
  353.5 3.11 3
  353.6 7.96 7
  353.7 16.33 16
  353.8 29.57 29
  353.9 48.27 48
  354.0 69.96 69
  354.1 89.06 88
  354.2 100.0 99
  354.3 99.33 99
  354.4 85.29 85
  354.5 59.32 59
  354.6 29.27 29
  354.7 6.6 6
  354.8 0.0 0
//
