ACCESSION: MSBNK-RIKEN_NPDepo-NGA00978
RECORD_TITLE: Raffinose; LC-ESI-QQQ; MS2; Frag=135.0V CID@15.0; [M+Na]+
DATE: 2018.04.04
AUTHORS: Nogawa T, Okano A, CSRS, RIKEN
LICENSE: CC BY
COMMENT: Origin: Plant
COMMENT: Formula(Parent): C18H32O16
COMMENT: Bottle Name:D-(+)-Raffinose pentahydrate
COMMENT: PRIME Parent Name:D-Raffinose
COMMENT: PRIME in-house No.:V0044, Polysaccharides
CH$NAME: Gal(alpha1-6)Glc(alpha1-2beta)Fruf
CH$NAME: 6G-alpha-D-galactosylsucrose
CH$NAME: Raffinose
CH$NAME: Gossypose
CH$NAME: Melitose
CH$NAME: Melitriose
CH$COMPOUND_CLASS: Carbohydrates
CH$FORMULA: C18H32O16
CH$EXACT_MASS: 504.4461
CH$SMILES: OC[C@@H]1O[C@](CO)(O[C@H]2O[C@H](CO[C@H]3O[C@H](CO)[C@H](O)[C@H](O)[C@H]3O)[C@@H](O)[C@H](O)[C@H]2O)[C@H](O)[C@H]1O
CH$IUPAC: InChI=1S/C18H32O16/c19-1-5-8(22)11(25)13(27)16(31-5)30-3-7-9(23)12(26)14(28)17(32-7)34-18(4-21)15(29)10(24)6(2-20)33-18/h5-17,19-29H,1-4H2/t5-,6+,7-,8+,9-,10+,11+,12+,13-,14-,15-,16+,17-,18-/m1/s1
CH$LINK: CAS 512-69-6
CH$LINK: CHEMSPIDER 10102
CH$LINK: INCHIKEY MUPFEKGTMRGPLJ-OARNWLFOSA-N
CH$LINK: PUBCHEM CID:44655806
AC$INSTRUMENT: Agilent 6410 Triple Quadrupole LC/MS system
AC$INSTRUMENT_TYPE: LC-ESI-QQQ
AC$MASS_SPECTROMETRY: MS_TYPE MS2
AC$MASS_SPECTROMETRY: ION_MODE POSITIVE
MS$FOCUSED_ION: PRECURSOR_TYPE [M+Na]+
PK$SPLASH: splash10-004i-0000090000-e276c6acf1c08284b25a
PK$NUM_PEAK: 25
PK$PEAK: m/z int. rel.int.
  364.6 0.61 0
  364.7 2.02 2
  364.8 5.13 5
  364.9 8.33 8
  365.0 9.26 9
  365.1 7.3 7
  365.2 4.14 4
  365.3 1.69 1
  526.1 1.17 1
  526.2 2.55 2
  526.3 6.68 6
  526.4 13.54 13
  526.5 20.72 20
  526.6 26.72 26
  526.7 34.9 34
  526.8 49.97 49
  526.9 71.05 70
  527.0 90.36 90
  527.1 99.96 99
  527.2 96.41 96
  527.3 79.85 79
  527.4 53.73 53
  527.5 26.26 26
  527.6 7.87 7
  527.7 0.6 0
//
