ACCESSION: MSBNK-RIKEN_NPDepo-NGA00314
RECORD_TITLE: Dihydrolycorine; LC-ESI-QQQ; MS2; Frag=135.0V CID@10.0; [M+H]+
DATE: 2018.04.04
AUTHORS: Nogawa T, Okano A, CSRS, RIKEN
LICENSE: CC BY
COMMENT: Origin: Plant
COMMENT: SubCategory_DNP: Isoquinoline alkaloids, Amaryllidaceae alkaloids, Lycorine alkaloids
CH$NAME: Dihydrolycorine
CH$COMPOUND_CLASS: Alkaloids
CH$FORMULA: C16H19NO4
CH$EXACT_MASS: 289.3341
CH$SMILES: O[C@H]1CC2CCN3Cc4cc5c(cc4[C@H]([C@@H]1O)[C@@H]23)OCO5
CH$IUPAC: InChI=1S/C16H19NO4/c18-11-3-8-1-2-17-6-9-4-12-13(21-7-20-12)5-10(9)14(15(8)17)16(11)19/h4-5,8,11,14-16,18-19H,1-3,6-7H2/t8?,11-,14-,15+,16+/m0/s1
CH$LINK: CAS 6271-21-2
CH$LINK: CHEMSPIDER 432333 10050463 28426276
CH$LINK: INCHIKEY VJILFEGOWCJNIK-WIOQNRRMSA-N
CH$LINK: PUBCHEM CID:235311
AC$INSTRUMENT: Agilent 6410 Triple Quadrupole LC/MS system
AC$INSTRUMENT_TYPE: LC-ESI-QQQ
AC$MASS_SPECTROMETRY: MS_TYPE MS2
AC$MASS_SPECTROMETRY: ION_MODE POSITIVE
MS$FOCUSED_ION: PRECURSOR_TYPE [M+H]+
PK$SPLASH: splash10-0006-0090000000-f4a1e071ad32378d8c40
PK$NUM_PEAK: 15
PK$PEAK: m/z int. rel.int.
  289.3 1.43 1
  289.4 3.49 3
  289.5 6.8 6
  289.6 11.74 11
  289.7 20.49 20
  289.8 36.17 36
  289.9 58.69 58
  290.0 81.97 81
  290.1 97.43 97
  290.2 100.0 99
  290.3 89.64 89
  290.4 68.91 68
  290.5 42.51 42
  290.6 17.94 17
  290.7 2.68 2
//
