ACCESSION: MSBNK-RIKEN_NPDepo-NGA02254
RECORD_TITLE: Korseveriline; LC-ESI-QQQ; MS2; Frag=135.0V CID@10.0; [M+H]+
DATE: 2018.04.04
AUTHORS: Nogawa T, Okano A, CSRS, RIKEN
LICENSE: CC BY
COMMENT: Origin: Plant
COMMENT: SubCategory_DNP: Steroidal alkaloids, Cevanine alkaloids
CH$NAME: Korseveriline
CH$COMPOUND_CLASS: Alkaloids
CH$FORMULA: C27H45NO3
CH$EXACT_MASS: 431.6646
CH$SMILES: C[C@@H]1CC[C@H]2[C@H](C)[C@H]3CC[C@]4(O)[C@@H](C[C@H]5[C@H]4C[C@@H](O)[C@H]4C[C@H](O)CC[C@@]45C)[C@@H]3CN2C1
CH$IUPAC: InChI=1S/C27H45NO3/c1-15-4-5-24-16(2)18-7-9-27(31)20(19(18)14-28(24)13-15)11-21-22(27)12-25(30)23-10-17(29)6-8-26(21,23)3/h15-25,29-31H,4-14H2,1-3H3/t15-,16-,17-,18-,19-,20+,21+,22-,23-,24+,25-,26-,27+/m1/s1
CH$LINK: CAS 21851-05-8
CH$LINK: CHEMSPIDER 4477302
CH$LINK: INCHIKEY NQGYOUYEGZOZBN-QAJIXOGVSA-N
CH$LINK: PUBCHEM CID:16406745
AC$INSTRUMENT: Agilent 6410 Triple Quadrupole LC/MS system
AC$INSTRUMENT_TYPE: LC-ESI-QQQ
AC$MASS_SPECTROMETRY: MS_TYPE MS2
AC$MASS_SPECTROMETRY: ION_MODE POSITIVE
MS$FOCUSED_ION: PRECURSOR_TYPE [M+H]+
PK$SPLASH: splash10-001i-0000900000-e48835a2837e8c901de4
PK$NUM_PEAK: 15
PK$PEAK: m/z int. rel.int.
  431.5 1.4 1
  431.6 3.52 3
  431.7 7.5 7
  431.8 14.42 14
  431.9 25.72 25
  432.0 42.26 42
  432.1 62.67 62
  432.2 82.65 82
  432.3 96.58 96
  432.4 100.0 99
  432.5 90.58 90
  432.6 68.94 68
  432.7 40.59 40
  432.8 15.17 15
  432.9 0.73 0
//
