ACCESSION: MSBNK-RIKEN_NPDepo-NGA02783
RECORD_TITLE: N-(2-Hydroxyethyl)cytisine; LC-ESI-QQQ; MS2; Frag=135.0V CID@10.0; [M+H]+
DATE: 2018.04.04
AUTHORS: Nogawa T, Okano A, CSRS, RIKEN
LICENSE: CC BY
COMMENT: Origin: Plant
COMMENT: Formula(Parent): C13H18N2O2
COMMENT: Bottle Name:12-(3-hydroxyethyl)cytisine
COMMENT: PRIME Parent Name:12-(3-hydroxyethyl)cytisine
COMMENT: PRIME in-house No.:V0330
COMMENT: SubCategory_DNP: Alkaloids derived from lysine, More complex lysine-derived alkaloids, Cytisine alkaloids
CH$NAME: N-(2-Hydroxyethyl)cytisin
CH$NAME: (1S,9R)-11-(2-hydroxyethyl)-7,11-diazatricyclo(7.3.1.0(2,7))trideca-2,4-dien-6-one
CH$NAME: N-(2-Hydroxyethyl)cytisine
CH$COMPOUND_CLASS: Alkaloids
CH$FORMULA: C13H18N2O2
CH$EXACT_MASS: 234.3006
CH$SMILES: O=c1cccc2n1CC1CC2CN(CCO)C1
CH$IUPAC: InChI=1S/C13H18N2O2/c16-5-4-14-7-10-6-11(9-14)12-2-1-3-13(17)15(12)8-10/h1-3,10-11,16H,4-9H2
CH$LINK: CAS 329221-11-6
CH$LINK: CHEMSPIDER 3001532
CH$LINK: INCHIKEY YACCDFQYQYSQKW-UHFFFAOYSA-N
CH$LINK: COMPTOX DTXSID70396220
CH$LINK: PUBCHEM CID:3773003
AC$INSTRUMENT: Agilent 6410 Triple Quadrupole LC/MS system
AC$INSTRUMENT_TYPE: LC-ESI-QQQ
AC$MASS_SPECTROMETRY: MS_TYPE MS2
AC$MASS_SPECTROMETRY: ION_MODE POSITIVE
MS$FOCUSED_ION: PRECURSOR_TYPE [M+H]+
PK$SPLASH: splash10-000i-1090000000-4a41f20a0e62a01741aa
PK$NUM_PEAK: 28
PK$PEAK: m/z int. rel.int.
  87.5 1.72 1
  87.6 3.3 3
  87.7 5.74 5
  87.8 8.95 8
  87.9 12.34 12
  88.0 15.04 15
  88.1 16.35 16
  88.2 16.04 16
  88.3 14.13 14
  88.4 10.69 10
  88.5 6.3 6
  88.6 2.28 2
  234.3 0.67 0
  234.4 2.9 2
  234.5 7.45 7
  234.6 14.12 14
  234.7 23.67 23
  234.8 38.08 38
  234.9 57.71 57
  235.0 78.46 78
  235.1 93.85 93
  235.2 100.0 99
  235.3 96.04 95
  235.4 81.06 80
  235.5 55.61 55
  235.6 26.61 26
  235.7 5.0 4
  235.8 0.0 0
//
