ACCESSION: MSBNK-RIKEN_NPDepo-NGA01020
RECORD_TITLE: Purpurin; LC-ESI-QQQ; MS2; Frag=135.0V CID@5.0; [M+H]+
DATE: 2018.04.04
AUTHORS: Nogawa T, Okano A, CSRS, RIKEN
LICENSE: CC BY
COMMENT: Origin: Plant, Organic chemicals, Polycyclic compounds, Anthracenes
CH$NAME: Purpurin
CH$COMPOUND_CLASS: Polycyclic aromatic natural products
CH$FORMULA: C14H8O5
CH$EXACT_MASS: 256.2169
CH$SMILES: O=C1c2ccccc2C(=O)c2c(O)c(O)cc(O)c21
CH$IUPAC: InChI=1S/C14H8O5/c15-8-5-9(16)14(19)11-10(8)12(17)6-3-1-2-4-7(6)13(11)18/h1-5,15-16,19H
CH$LINK: CAS 81-54-9
CH$LINK: CHEMSPIDER 6431
CH$LINK: INCHIKEY BBNQQADTFFCFGB-UHFFFAOYSA-N
CH$LINK: COMPTOX DTXSID4021214
CH$LINK: PUBCHEM CID:6683
AC$INSTRUMENT: Agilent 6410 Triple Quadrupole LC/MS system
AC$INSTRUMENT_TYPE: LC-ESI-QQQ
AC$MASS_SPECTROMETRY: MS_TYPE MS2
AC$MASS_SPECTROMETRY: ION_MODE POSITIVE
MS$FOCUSED_ION: PRECURSOR_TYPE [M+H]+
PK$SPLASH: splash10-0a4i-0090000000-adce46f99b4c0e72947c
PK$NUM_PEAK: 15
PK$PEAK: m/z int. rel.int.
  256.2 1.75 1
  256.3 3.91 3
  256.4 7.45 7
  256.5 12.86 12
  256.6 21.76 21
  256.7 36.76 36
  256.8 58.13 58
  256.9 80.69 80
  257.0 96.28 96
  257.1 100.0 99
  257.2 91.88 91
  257.3 73.57 73
  257.4 47.89 47
  257.5 21.68 21
  257.6 3.56 3
//
