ACCESSION: MSBNK-RIKEN_NPDepo-NGA01158
RECORD_TITLE: Strychnine; LC-ESI-QQQ; MS2; Frag=135.0V CID@15.0; [M+H]+
DATE: 2018.04.04
AUTHORS: Nogawa T, Okano A, CSRS, RIKEN
LICENSE: CC BY
COMMENT: Origin: Plant
COMMENT: Formula(Parent): C21H22N2O2
COMMENT: Bottle Name:Strychnine nitrate
COMMENT: PRIME Parent Name:Strychnine
COMMENT: PRIME in-house No.:V0299
COMMENT: SubCategory_DNP: Alkaloids derived from tryptophan, beta-Carboline alkaloids, Indole alkaloids
CH$NAME: Strychnin
CH$NAME: strychnidin-10-one
CH$NAME: Certox
CH$NAME: Strychnine
CH$COMPOUND_CLASS: Alkaloids
CH$FORMULA: C21H22N2O2
CH$EXACT_MASS: 334.4217
CH$SMILES: O=C1CC2OCC=C3CN4CC[C@]56c7ccccc7N1C5[C@H]2[C@H]3C[C@H]46
CH$IUPAC: InChI=1S/C21H22N2O2/c24-18-10-16-19-13-9-17-21(6-7-22(17)11-12(13)5-8-25-16)14-3-1-2-4-15(14)23(18)20(19)21/h1-5,13,16-17,19-20H,6-11H2/t13-,16?,17-,19-,20?,21+/m0/s1
CH$LINK: CAS 57-24-9
CH$LINK: CHEMSPIDER 389877
CH$LINK: INCHIKEY QMGVPVSNSZLJIA-XBPPHNHDSA-N
CH$LINK: PUBCHEM CID:5979
AC$INSTRUMENT: Agilent 6410 Triple Quadrupole LC/MS system
AC$INSTRUMENT_TYPE: LC-ESI-QQQ
AC$MASS_SPECTROMETRY: MS_TYPE MS2
AC$MASS_SPECTROMETRY: ION_MODE POSITIVE
MS$FOCUSED_ION: PRECURSOR_TYPE [M+H]+
PK$SPLASH: splash10-000i-0009000000-a33fe7e98d3f6b533422
PK$NUM_PEAK: 15
PK$PEAK: m/z int. rel.int.
  334.3 0.88 0
  334.4 3.21 3
  334.5 6.81 6
  334.6 11.29 11
  334.7 18.53 18
  334.8 31.95 31
  334.9 52.05 51
  335.0 73.98 73
  335.1 91.2 91
  335.2 100.0 99
  335.3 98.35 98
  335.4 83.66 83
  335.5 56.6 56
  335.6 25.99 25
  335.7 4.08 4
//
