ACCESSION: MSBNK-RIKEN_NPDepo-NGA03485
RECORD_TITLE: 9,13-Epoxy-3,18-dihydroxy-15,16-labdanolide; LC-ESI-QQQ; MS2; Frag=135.0V CID@25.0; [M+HCOO]-
DATE: 2018.04.04
AUTHORS: Nogawa T, Okano A, CSRS, RIKEN
LICENSE: CC BY
COMMENT: Origin: Plant
COMMENT: SubCategory_DNP: Diterpenoids, Labdane diterpenoids
CH$NAME: 9,13-Epoxy-3,18-dihydroxy-15,16-labdanolide
CH$COMPOUND_CLASS: Terpenoids
CH$FORMULA: C20H32O5
CH$EXACT_MASS: 352.475
CH$SMILES: C[C@@H]1CCC2[C@](C)(CC[C@H](O)[C@@]2(C)CO)[C@@]12CC1(COC(=O)C1)CO2
CH$IUPAC: InChI=1S/C20H32O5/c1-13-4-5-14-17(2,10-21)15(22)6-7-18(14,3)20(13)9-19(12-25-20)8-16(23)24-11-19/h13-15,21-22H,4-12H2,1-3H3/t13-,14?,15+,17+,18+,19?,20-/m1/s1
CH$LINK: INCHIKEY QHYFPLAXWXWDJP-GNQMFGHGSA-N
CH$LINK: PUBCHEM CID:16408478
AC$INSTRUMENT: Agilent 6410 Triple Quadrupole LC/MS system
AC$INSTRUMENT_TYPE: LC-ESI-QQQ
AC$MASS_SPECTROMETRY: MS_TYPE MS2
AC$MASS_SPECTROMETRY: ION_MODE NEGATIVE
MS$FOCUSED_ION: PRECURSOR_TYPE [M+HCOO]-
PK$SPLASH: splash10-0zfs-3889880000-de18b127988206c35033
PK$NUM_PEAK: 4073
PK$PEAK: m/z int. rel.int.
  50.6 10.53 10
  50.7 14.35 14
  50.8 19.8 19
  50.9 22.76 22
  51.0 21.16 21
  51.1 16.01 15
  51.9 13.05 13
  52.0 16.48 16
  52.1 20.35 20
  52.2 21.29 21
  52.3 18.09 18
  52.4 12.16 12
  52.6 5.33 5
  52.7 8.93 8
  52.8 14.75 14
  52.9 18.25 18
  53.0 17.15 17
  53.9 8.46 8
  54.0 12.24 12
  54.1 16.43 16
  54.2 18.01 17
  54.3 15.65 15
  55.8 8.56 8
  55.9 13.18 13
  56.0 17.68 17
  56.1 18.25 18
  56.2 13.97 13
  56.4 5.9 5
  56.5 9.68 9
  56.6 16.25 16
  56.7 19.2 19
  56.8 15.18 15
  57.1 6.65 6
  57.2 14.32 14
  57.3 19.98 19
  57.4 19.26 19
  57.5 13.17 13
  57.7 6.61 6
  57.8 11.01 10
  57.9 15.41 15
  58.0 15.29 15
  58.3 9.63 9
  58.4 16.45 16
  58.5 23.26 23
  58.6 24.32 24
  58.7 18.59 18
  58.8 10.56 10
  59.0 7.57 7
  59.1 12.65 12
  59.2 17.15 17
  59.3 18.22 18
  59.4 15.52 15
  60.2 6.25 6
  60.3 9.18 9
  60.4 14.49 14
  60.5 18.32 18
  60.6 17.92 17
  60.7 13.77 13
  60.9 8.56 8
  61.0 12.72 12
  61.1 18.59 18
  61.2 20.92 20
  61.3 17.47 17
  61.4 11.45 11
  61.6 10.83 10
  61.7 16.01 15
  61.8 19.23 19
  61.9 17.6 17
  62.0 12.08 12
  62.2 6.37 6
  62.3 12.22 12
  62.4 19.85 19
  62.5 22.04 22
  62.6 15.98 15
  62.7 6.8 6
  63.4 3.63 3
  63.5 8.51 8
  63.6 17.39 17
  63.7 23.08 23
  63.8 21.34 21
  63.9 14.33 14
  64.1 8.89 8
  64.2 14.37 14
  64.3 19.42 19
  64.4 19.28 19
  64.5 13.79 13
  64.7 5.12 5
  64.8 9.25 9
  64.9 16.41 16
  65.0 20.59 20
  65.1 18.57 18
  65.2 12.86 12
  65.4 10.16 10
  65.5 14.81 14
  65.6 18.27 18
  65.7 16.93 16
  65.8 11.02 11
  66.0 4.66 4
  66.1 11.21 11
  66.2 19.82 19
  66.3 23.04 23
  66.4 17.89 17
  66.7 9.44 9
  66.8 17.71 17
  66.9 22.57 22
  67.0 20.89 20
  67.1 15.61 15
  67.3 12.27 12
  67.4 15.98 15
  67.5 19.48 19
  67.6 19.23 19
  67.7 14.51 14
  67.9 7.18 7
  68.0 11.42 11
  68.1 17.66 17
  68.2 20.32 20
  68.3 17.63 17
  68.4 12.61 12
  68.6 10.22 10
  68.7 13.73 13
  68.8 17.09 17
  68.9 17.39 17
  69.0 13.95 13
  69.2 7.87 7
  69.3 11.02 11
  69.4 16.37 16
  69.5 19.15 19
  69.6 16.46 16
  69.7 10.41 10
  69.9 8.43 8
  70.0 14.72 14
  70.1 20.0 19
  70.2 20.19 20
  70.3 15.9 15
  71.2 9.01 9
  71.3 11.41 11
  71.4 13.53 13
  71.5 13.77 13
  71.8 11.97 11
  71.9 15.02 15
  72.0 18.09 18
  72.1 18.64 18
  72.2 15.68 15
  72.3 10.8 10
  72.5 8.77 8
  72.6 12.81 12
  72.7 15.63 15
  72.8 14.69 14
  73.0 10.33 10
  73.1 12.53 12
  73.2 16.54 16
  73.3 18.61 18
  73.4 16.57 16
  73.5 12.11 12
  73.7 10.17 10
  73.8 13.79 13
  73.9 17.01 16
  74.0 17.76 17
  74.1 15.98 15
  74.2 12.81 12
  74.4 10.24 10
  74.5 13.29 13
  74.6 16.46 16
  74.7 16.16 16
  74.8 12.27 12
  75.0 9.69 9
  75.1 15.02 15
  75.2 19.64 19
  75.3 18.83 18
  75.4 13.41 13
  75.6 10.65 10
  75.7 16.56 16
  75.8 20.88 20
  75.9 19.44 19
  76.0 13.45 13
  76.2 6.14 6
  76.3 9.33 9
  76.4 14.59 14
  76.5 17.79 17
  76.6 16.32 16
  76.7 11.55 11
  76.9 8.81 8
  77.0 14.96 14
  77.1 22.01 21
  77.2 24.28 24
  77.3 19.34 19
  77.4 10.83 10
  77.6 7.79 7
  77.7 15.69 15
  77.8 22.94 22
  77.9 23.63 23
  78.0 16.88 16
  78.2 5.18 5
  78.3 10.16 10
  78.4 17.73 17
  78.5 20.64 20
  78.6 17.71 17
  78.7 13.77 13
  80.1 6.24 6
  80.2 10.62 10
  80.3 17.13 17
  80.4 21.4 21
  80.5 20.49 20
  80.6 15.13 15
  80.8 8.67 8
  80.9 12.59 12
  81.0 17.53 17
  81.1 19.15 19
  81.2 16.91 16
  81.4 13.41 13
  81.5 16.77 16
  81.6 21.28 21
  81.7 22.25 22
  81.8 17.61 17
  82.1 11.1 11
  82.2 18.06 18
  82.3 22.88 22
  82.4 21.72 21
  82.5 15.87 15
  84.6 7.71 7
  84.7 9.44 9
  84.8 12.21 12
  84.9 13.44 13
  85.0 11.47 11
  85.2 7.98 7
  85.3 12.35 12
  85.4 18.14 18
  85.5 20.03 20
  85.6 16.03 16
  85.7 9.6 9
  85.9 8.67 8
  86.0 14.97 14
  86.1 20.01 19
  86.2 19.88 19
  86.3 15.21 15
  86.5 9.63 9
  86.6 12.72 12
  86.7 16.62 16
  86.8 17.95 17
  86.9 15.49 15
  87.2 10.64 10
  87.3 16.29 16
  87.4 20.54 20
  87.5 19.4 19
  87.6 13.82 13
  87.7 8.54 8
  87.9 8.64 8
  88.0 10.91 10
  88.1 12.4 12
  88.2 13.15 13
  88.3 13.76 13
  88.4 14.49 14
  88.5 15.52 15
  88.6 16.51 16
  88.7 16.48 16
  88.8 14.53 14
  89.0 10.19 10
  89.1 12.43 12
  89.2 16.77 16
  89.3 19.74 19
  89.4 18.73 18
  89.5 14.13 14
  90.3 9.98 9
  90.4 12.25 12
  90.5 15.82 15
  90.6 17.9 17
  90.7 16.3 16
  91.0 10.65 10
  91.1 15.63 15
  91.2 19.63 19
  91.3 19.07 19
  91.4 14.19 14
  91.6 9.25 9
  91.7 14.51 14
  91.8 20.57 20
  91.9 21.98 21
  92.0 17.45 17
  92.1 10.85 10
  92.3 9.82 9
  92.4 15.52 15
  92.5 19.36 19
  92.6 17.85 17
  92.7 12.43 12
  92.9 7.69 7
  93.0 12.08 12
  93.1 17.61 17
  93.2 19.74 19
  93.3 16.08 16
  93.6 8.49 8
  93.7 15.57 15
  93.8 20.08 20
  93.9 18.27 18
  94.0 12.62 12
  94.2 10.41 10
  94.3 15.41 15
  94.4 18.45 18
  94.5 15.9 15
  94.6 9.29 9
  94.8 3.36 3
  94.9 8.81 8
  95.0 15.89 15
  95.1 18.92 18
  95.2 15.66 15
  96.1 8.59 8
  96.2 14.53 14
  96.3 20.19 20
  96.4 21.95 21
  96.5 19.12 19
  96.6 14.17 14
  96.8 12.37 12
  96.9 16.62 16
  97.0 19.47 19
  97.1 18.09 18
  97.3 12.33 12
  97.4 15.05 15
  97.5 20.56 20
  97.6 24.36 24
  97.7 22.97 22
  97.8 17.15 17
  98.0 10.27 10
  98.1 14.56 14
  98.2 19.71 19
  98.3 20.4 20
  98.4 15.33 15
  98.5 8.14 8
  98.7 6.41 6
  98.8 12.09 12
  98.9 16.41 16
  99.0 16.0 15
  99.3 11.01 10
  99.4 16.65 16
  99.5 21.08 21
  99.6 20.7 20
  99.7 16.53 16
  100.5 6.43 6
  100.6 9.39 9
  100.7 15.28 15
  100.8 19.29 19
  100.9 18.37 18
  101.0 13.42 13
  101.3 8.41 8
  101.4 14.14 14
  101.5 18.94 18
  101.6 18.67 18
  101.7 13.82 13
  101.9 11.44 11
  102.0 16.73 16
  102.1 19.58 19
  102.2 16.35 16
  102.3 9.77 9
  102.5 7.95 7
  102.6 13.39 13
  102.7 17.09 17
  102.8 16.11 16
  102.9 11.74 11
  103.1 7.21 7
  103.2 10.91 10
  103.3 16.17 16
  103.4 19.13 19
  103.5 17.49 17
  103.6 12.56 12
  103.8 7.65 7
  103.9 10.54 10
  104.0 13.73 13
  104.1 14.17 14
  104.2 12.16 12
  104.3 11.02 11
  104.4 13.93 13
  104.5 19.95 19
  104.6 24.19 24
  104.7 22.4 22
  104.8 15.28 15
  105.0 6.49 6
  105.1 10.83 10
  105.2 16.67 16
  105.3 18.78 18
  105.4 16.13 16
  105.5 11.57 11
  105.7 9.47 9
  105.8 13.12 13
  105.9 16.78 16
  106.0 17.31 17
  106.1 14.13 14
  106.3 8.17 8
  106.4 10.73 10
  106.5 15.97 15
  106.6 19.84 19
  106.7 19.23 19
  106.8 15.15 15
  107.6 8.61 8
  107.7 11.77 11
  107.8 15.49 15
  107.9 17.02 17
  108.0 15.66 15
  108.2 11.07 11
  108.3 12.89 12
  108.4 17.33 17
  108.5 20.01 19
  108.6 17.55 17
  108.7 11.49 11
  108.9 7.66 7
  109.0 12.35 12
  109.1 17.26 17
  109.2 18.32 18
  109.3 14.3 14
  109.5 6.27 6
  109.6 10.59 10
  109.7 18.11 18
  109.8 22.67 22
  109.9 20.89 20
  110.0 14.54 14
  110.2 7.58 7
  110.3 11.28 11
  110.4 15.65 15
  110.5 16.3 16
  110.6 12.46 12
  110.8 6.11 6
  110.9 10.0 9
  111.0 16.62 16
  111.1 20.65 20
  111.2 18.7 18
  111.3 12.57 12
  111.5 9.92 9
  111.6 15.81 15
  111.7 20.11 20
  111.8 18.94 18
  111.9 13.82 13
  112.1 9.85 9
  112.2 14.08 14
  112.3 18.3 18
  112.4 18.78 18
  112.5 15.31 15
  112.7 10.37 10
  112.8 13.81 13
  112.9 18.72 18
  113.0 20.75 20
  113.1 17.76 17
  113.2 12.03 12
  113.4 8.11 8
  113.5 12.13 12
  113.6 17.13 17
  113.7 19.77 19
  113.8 18.24 18
  113.9 13.92 13
  114.1 11.95 11
  114.2 16.56 16
  114.3 20.2 20
  114.4 19.13 19
  114.5 13.97 13
  115.2 6.33 6
  115.3 8.14 8
  115.4 14.88 14
  115.5 22.06 22
  115.6 23.76 23
  115.7 18.64 18
  115.8 11.42 11
  116.0 10.7 10
  116.1 15.47 15
  116.2 17.49 17
  116.3 14.64 14
  116.4 9.05 9
  116.6 7.58 7
  116.7 13.2 13
  116.8 17.87 17
  116.9 18.53 18
  117.0 15.68 15
  117.9 7.26 7
  118.0 13.13 13
  118.1 18.92 18
  118.2 20.11 20
  118.3 16.11 16
  118.5 10.54 10
  118.6 14.37 14
  118.7 18.33 18
  118.8 18.08 18
  118.9 13.89 13
  119.2 10.53 10
  119.3 14.3 14
  119.4 16.72 16
  119.5 15.37 15
  119.8 9.44 9
  119.9 15.98 15
  120.0 21.96 21
  120.1 21.87 21
  120.2 14.65 14
  120.4 1.71 1
  120.5 7.13 7
  120.6 17.25 17
  120.7 23.52 23
  120.8 21.29 21
  120.9 13.92 13
  121.1 10.01 9
  121.2 14.96 14
  121.3 17.84 17
  121.4 15.63 15
  121.5 10.41 10
  121.7 8.93 8
  121.8 14.88 14
  121.9 20.41 20
  122.0 20.83 20
  122.1 15.85 15
  122.3 9.39 9
  122.4 12.78 12
  122.5 16.53 16
  122.6 16.83 16
  122.7 13.01 12
  122.9 6.62 6
  123.0 10.85 10
  123.1 17.5 17
  123.2 20.89 20
  123.3 18.41 18
  123.4 12.81 12
  123.6 10.13 10
  123.7 14.48 14
  123.8 18.25 18
  123.9 18.37 18
  124.0 14.62 14
  124.9 8.38 8
  125.0 12.8 12
  125.1 16.65 16
  125.2 16.4 16
  125.3 12.46 12
  125.5 7.76 7
  125.6 11.57 11
  125.7 16.93 16
  125.8 19.07 19
  125.9 15.81 15
  126.0 9.69 9
  126.2 7.42 7
  126.3 12.46 12
  126.4 16.22 16
  126.5 15.21 15
  126.6 10.35 10
  126.8 7.44 7
  126.9 13.1 13
  127.0 18.67 18
  127.1 19.68 19
  127.2 15.98 15
  127.5 12.0 11
  127.6 16.83 16
  127.7 20.49 20
  127.8 19.82 19
  127.9 15.39 15
  128.1 11.42 11
  128.2 15.76 15
  128.3 20.17 20
  128.4 20.43 20
  128.5 16.03 16
  129.3 11.18 11
  129.4 12.77 12
  129.5 17.1 17
  129.6 21.13 21
  129.7 20.8 20
  129.8 14.96 14
  130.1 8.41 8
  130.2 14.43 14
  130.3 17.84 17
  130.4 16.56 16
  130.5 12.4 12
  130.7 9.39 9
  130.8 12.37 12
  130.9 14.69 14
  131.0 13.95 13
  131.1 11.07 11
  131.3 8.99 8
  131.4 11.26 11
  131.5 13.81 13
  131.6 14.35 14
  131.7 12.06 12
  131.9 9.61 9
  132.0 13.84 13
  132.1 18.49 18
  132.2 19.34 19
  132.3 15.85 15
  132.5 9.97 9
  132.6 12.46 12
  132.7 16.83 16
  132.8 19.98 19
  132.9 19.9 19
  133.0 16.88 16
  133.1 13.15 13
  133.3 11.58 11
  133.4 13.92 13
  133.5 15.97 15
  133.6 15.61 15
  133.9 12.24 12
  134.0 16.65 16
  134.1 19.26 19
  134.2 16.83 16
  134.3 11.13 11
  134.5 7.36 7
  134.6 11.47 11
  134.7 15.74 15
  134.8 17.68 17
  134.9 17.04 17
  135.0 15.63 15
  135.1 15.57 15
  135.2 17.5 17
  135.3 19.56 19
  135.4 18.97 18
  135.5 14.85 14
  135.6 9.36 9
  135.8 7.82 7
  135.9 13.71 13
  136.0 19.77 19
  136.1 21.0 20
  136.2 15.87 15
  137.0 5.98 5
  137.1 11.9 11
  137.2 19.24 19
  137.3 22.43 22
  137.4 19.42 19
  137.5 13.36 13
  137.7 10.67 10
  137.8 14.11 14
  137.9 16.11 16
  138.0 15.49 15
  138.3 12.88 12
  138.4 15.17 15
  138.5 17.58 17
  138.6 17.82 17
  138.7 15.53 15
  138.8 12.65 12
  139.0 11.52 11
  139.1 13.69 13
  139.2 16.32 16
  139.3 16.96 16
  139.4 14.17 14
  140.3 10.14 10
  140.4 13.84 13
  140.5 16.85 16
  140.6 16.33 16
  140.7 12.13 12
  140.9 7.57 7
  141.0 12.14 12
  141.1 17.34 17
  141.2 18.46 18
  141.3 14.85 14
  141.6 9.97 9
  141.7 14.03 14
  141.8 16.19 16
  141.9 14.27 14
  142.1 8.7 8
  142.2 12.19 12
  142.3 17.92 17
  142.4 20.28 20
  142.5 16.75 16
  142.6 10.4 10
  142.8 8.61 8
  142.9 14.56 14
  143.0 20.22 20
  143.1 21.87 21
  143.2 19.02 19
  143.3 14.67 14
  143.5 13.77 13
  143.6 16.89 16
  143.7 18.65 18
  143.8 17.28 17
  143.9 13.95 13
  144.1 12.24 12
  144.2 14.38 14
  144.3 16.3 16
  144.4 17.01 16
  144.5 16.14 16
  144.6 14.17 14
  144.8 13.1 13
  144.9 15.18 15
  145.0 16.54 16
  145.1 14.8 14
  145.2 10.06 10
  145.4 6.22 6
  145.5 12.19 12
  145.6 19.28 19
  145.7 21.5 21
  145.8 16.97 16
  145.9 9.49 9
  146.1 7.12 7
  146.2 12.91 12
  146.3 17.42 17
  146.4 17.76 17
  146.5 15.28 15
  147.3 10.08 10
  147.4 15.58 15
  147.5 20.0 19
  147.6 19.02 19
  147.7 12.69 12
  147.9 4.86 4
  148.0 9.98 9
  148.1 16.81 16
  148.2 20.08 20
  148.3 18.06 18
  148.4 12.99 12
  148.6 8.65 8
  148.7 12.46 12
  148.8 16.53 16
  148.9 16.8 16
  149.0 12.96 12
  149.2 9.31 9
  149.3 13.81 13
  149.4 18.92 18
  149.5 20.62 20
  149.6 17.73 17
  149.7 12.64 12
  150.4 6.59 6
  150.5 10.43 10
  150.6 17.79 17
  150.7 22.86 22
  150.8 22.4 22
  150.9 17.97 17
  151.0 13.07 13
  151.2 9.49 9
  151.3 11.55 11
  151.4 14.48 14
  151.5 15.44 15
  151.8 12.85 12
  151.9 16.69 16
  152.0 19.39 19
  152.1 17.92 17
  152.2 13.26 13
  152.4 10.37 10
  152.5 14.43 14
  152.6 17.49 17
  152.7 16.0 15
  152.8 10.49 10
  153.0 6.81 6
  153.1 13.55 13
  153.2 20.56 20
  153.3 22.35 22
  153.4 17.98 17
  153.5 10.88 10
  153.7 3.74 3
  153.8 7.04 7
  153.9 13.28 13
  154.0 18.84 18
  154.1 20.22 20
  154.2 16.88 16
  154.4 11.9 11
  154.5 15.5 15
  154.6 19.08 19
  154.7 18.06 18
  154.8 12.22 12
  155.0 4.46 4
  155.1 9.18 9
  155.2 15.65 15
  155.3 17.63 17
  155.4 13.25 13
  155.7 7.34 7
  155.8 12.51 12
  155.9 15.02 15
  156.0 13.23 13
  156.2 9.45 9
  156.3 12.3 12
  156.4 15.95 15
  156.5 17.58 17
  156.6 16.13 16
  156.7 12.48 12
  156.9 9.18 9
  157.0 12.69 12
  157.1 16.73 16
  157.2 17.41 17
  157.3 13.65 13
  157.5 7.36 7
  157.6 11.34 11
  157.7 17.17 17
  157.8 19.21 19
  157.9 15.28 15
  158.0 8.7 8
  158.2 6.75 6
  158.3 12.72 12
  158.4 18.43 18
  158.5 19.64 19
  158.6 15.69 15
  158.8 8.13 8
  158.9 11.36 11
  159.0 17.12 17
  159.1 20.73 20
  159.2 19.71 19
  159.3 15.61 15
  159.5 12.7 12
  159.6 15.47 15
  159.7 17.49 17
  159.8 16.43 16
  159.9 13.01 12
  160.1 11.15 11
  160.2 15.63 15
  160.3 19.92 19
  160.4 19.21 19
  160.5 12.72 12
  160.7 4.27 4
  160.8 10.21 10
  160.9 17.73 17
  161.0 20.12 20
  161.1 15.79 15
  161.2 8.65 8
  161.4 4.24 4
  161.5 8.88 8
  161.6 14.96 14
  161.7 19.12 19
  161.8 19.63 19
  161.9 17.49 17
  162.6 11.07 11
  162.7 12.65 12
  162.8 16.56 16
  162.9 19.63 19
  163.0 18.64 18
  163.1 13.61 13
  163.3 9.25 9
  163.4 14.45 14
  163.5 19.4 19
  163.6 19.07 19
  163.7 13.45 13
  163.9 7.07 7
  164.0 11.89 11
  164.1 17.65 17
  164.2 19.23 19
  164.3 15.25 15
  164.6 7.73 7
  164.7 15.15 15
  164.8 21.61 21
  164.9 21.42 21
  165.0 14.51 14
  165.2 4.5 4
  165.3 9.25 9
  165.4 16.37 16
  165.5 19.87 19
  165.6 17.39 17
  165.7 11.87 11
  165.9 9.84 9
  166.0 14.7 14
  166.1 19.26 19
  166.2 20.3 20
  166.3 17.52 17
  167.2 7.49 7
  167.3 13.98 13
  167.4 19.31 19
  167.5 19.08 19
  167.6 14.27 14
  167.8 10.51 10
  167.9 15.12 15
  168.0 18.96 18
  168.1 17.85 17
  168.2 12.65 12
  168.4 8.65 8
  168.5 12.93 12
  168.6 17.15 17
  168.7 18.01 17
  168.8 14.81 14
  168.9 9.47 9
  169.1 5.98 5
  169.2 10.16 10
  169.3 14.67 14
  169.4 15.9 15
  169.5 13.2 13
  169.7 7.23 7
  169.8 9.63 9
  169.9 15.05 15
  170.0 19.48 19
  170.1 19.23 19
  170.2 14.57 14
  170.4 11.2 11
  170.5 15.61 15
  170.6 17.77 17
  170.7 14.45 14
  171.6 6.18 6
  171.7 12.7 12
  171.8 19.66 19
  171.9 21.63 21
  172.0 16.93 16
  172.1 9.58 9
  172.3 7.82 7
  172.4 12.75 12
  172.5 15.74 15
  172.6 14.93 14
  172.9 11.6 11
  173.0 14.48 14
  173.1 17.17 17
  173.2 17.34 17
  173.3 14.24 14
  173.5 9.2 9
  173.6 12.27 12
  173.7 16.33 16
  173.8 17.1 17
  173.9 13.53 13
  174.1 8.22 8
  174.2 12.41 12
  174.3 18.56 18
  174.4 21.72 21
  174.5 19.76 19
  174.6 15.13 15
  174.8 12.7 12
  174.9 15.42 15
  175.0 17.73 17
  175.1 17.45 17
  175.2 13.81 13
  175.5 8.17 8
  175.6 14.67 14
  175.7 19.44 19
  175.8 18.41 18
  175.9 13.01 12
  176.1 9.41 9
  176.2 14.4 14
  176.3 19.1 19
  176.4 19.55 19
  176.5 15.33 15
  176.7 7.74 7
  176.8 10.94 10
  176.9 17.21 17
  177.0 21.29 21
  177.1 19.39 19
  177.2 13.02 13
  177.4 8.97 8
  177.5 14.11 14
  177.6 17.52 17
  177.7 15.57 15
  177.8 10.21 10
  178.0 6.96 6
  178.1 11.63 11
  178.2 16.41 16
  178.3 17.28 17
  178.4 13.42 13
  178.6 6.35 6
  178.7 9.33 9
  178.8 14.62 14
  178.9 17.79 17
  179.0 15.98 15
  179.1 10.73 10
  179.3 8.43 8
  179.4 14.59 14
  179.5 20.33 20
  179.6 20.46 20
  179.7 14.24 14
  180.0 7.45 7
  180.1 14.77 14
  180.2 19.31 19
  180.3 18.59 18
  180.4 14.62 14
  181.9 10.73 10
  182.0 14.81 14
  182.1 17.84 17
  182.2 16.41 16
  182.3 11.23 11
  182.5 8.59 8
  182.6 14.49 14
  182.7 19.23 19
  182.8 18.46 18
  182.9 12.8 12
  183.1 5.38 5
  183.2 8.96 8
  183.3 14.13 14
  183.4 15.93 15
  183.5 13.2 13
  183.7 9.47 9
  183.8 13.85 13
  183.9 19.5 19
  184.0 22.01 21
  184.1 18.75 18
  184.2 11.39 11
  184.4 5.62 5
  184.5 11.18 11
  184.6 17.28 17
  184.7 19.9 19
  184.8 18.01 17
  184.9 13.26 13
  185.1 9.33 9
  185.2 13.65 13
  185.3 18.11 18
  185.4 18.45 18
  185.5 13.89 13
  185.7 5.17 5
  185.8 8.46 8
  185.9 15.02 15
  186.0 18.7 18
  186.1 15.87 15
  186.3 6.4 6
  186.4 10.49 10
  186.5 18.57 18
  186.6 23.56 23
  186.7 21.08 21
  186.8 13.37 13
  187.0 7.28 7
  187.1 12.01 11
  187.2 16.3 16
  187.3 17.01 16
  187.4 14.56 14
  187.5 10.99 10
  187.7 9.15 9
  187.8 12.29 12
  187.9 15.31 15
  188.0 15.45 15
  188.1 12.78 12
  188.3 10.65 10
  188.4 13.52 13
  188.5 15.73 15
  188.6 14.49 14
  188.7 9.92 9
  188.9 6.29 6
  189.0 12.38 12
  189.1 19.5 19
  189.2 21.5 21
  189.3 16.89 16
  189.5 7.74 7
  189.6 11.45 11
  189.7 17.93 17
  189.8 21.45 21
  189.9 19.31 19
  190.0 13.82 13
  190.2 12.08 12
  190.3 18.21 18
  190.4 23.05 23
  190.5 22.01 21
  190.6 16.24 16
  191.5 9.52 9
  191.6 14.21 14
  191.7 17.98 17
  191.8 17.73 17
  191.9 14.03 14
  192.1 9.93 9
  192.2 13.5 13
  192.3 17.71 17
  192.4 18.32 18
  192.5 14.24 14
  193.4 11.36 11
  193.5 15.36 15
  193.6 19.58 19
  193.7 20.57 20
  193.8 16.75 16
  193.9 10.59 10
  194.1 9.01 9
  194.2 14.03 14
  194.3 17.26 17
  194.4 15.87 15
  194.6 9.74 9
  194.7 12.49 12
  194.8 17.81 17
  194.9 20.67 20
  195.0 18.19 18
  195.1 12.38 12
  195.3 8.09 8
  195.4 11.79 11
  195.5 15.65 15
  195.6 16.72 16
  195.7 14.86 14
  196.6 10.67 10
  196.7 14.41 14
  196.8 18.25 18
  196.9 17.92 17
  197.0 12.96 12
  197.2 6.77 6
  197.3 10.77 10
  197.4 15.84 15
  197.5 17.29 17
  197.6 13.74 13
  197.8 7.13 7
  197.9 11.61 11
  198.0 18.01 17
  198.1 20.19 20
  198.2 16.35 16
  198.3 10.03 10
  198.5 6.93 6
  198.6 11.04 11
  198.7 15.07 15
  198.8 15.98 15
  198.9 13.5 13
  199.7 7.93 7
  199.8 9.47 9
  199.9 13.66 13
  200.0 18.33 18
  200.1 19.6 19
  200.2 15.76 15
  200.4 8.41 8
  200.5 12.22 12
  200.6 17.61 17
  200.7 18.94 18
  200.8 14.86 14
  201.0 8.78 8
  201.1 13.18 13
  201.2 18.8 18
  201.3 20.8 20
  201.4 17.98 17
  201.5 13.21 13
  201.7 11.65 11
  201.8 15.1 15
  201.9 17.81 17
  202.0 17.58 17
  202.1 14.11 14
  203.0 8.64 8
  203.1 13.28 13
  203.2 16.75 16
  203.3 15.97 15
  203.4 11.55 11
  203.6 6.45 6
  203.7 9.92 9
  203.8 15.18 15
  203.9 18.91 18
  204.0 19.04 19
  204.1 15.84 15
  204.3 10.91 10
  204.4 13.79 13
  204.5 17.77 17
  204.6 18.32 18
  204.7 14.16 14
  205.0 9.57 9
  205.1 14.43 14
  205.2 17.58 17
  205.3 16.86 16
  206.2 10.85 10
  206.3 15.09 15
  206.4 18.16 18
  206.5 17.82 17
  206.6 14.3 14
  206.8 9.17 9
  206.9 12.65 12
  207.0 17.5 17
  207.1 18.96 18
  207.2 15.34 15
  207.3 9.71 9
  207.5 8.73 8
  207.6 14.27 14
  207.7 19.12 19
  207.8 19.29 19
  207.9 14.61 14
  208.1 9.05 9
  208.2 13.58 13
  208.3 18.48 18
  208.4 19.26 19
  208.5 15.76 15
  208.7 10.29 10
  208.8 12.77 12
  208.9 16.89 16
  209.0 19.31 19
  209.1 18.11 18
  209.2 14.43 14
  209.4 11.9 11
  209.5 15.39 15
  209.6 18.13 18
  209.7 16.59 16
  209.8 11.73 11
  210.0 10.19 10
  210.1 15.18 15
  210.2 18.57 18
  210.3 17.44 17
  210.4 12.72 12
  210.5 7.73 7
  210.7 6.89 6
  210.8 11.23 11
  210.9 15.85 15
  211.0 18.13 18
  211.1 17.09 17
  211.2 14.41 14
  211.9 5.2 5
  212.0 10.78 10
  212.1 19.34 19
  212.2 24.25 24
  212.3 21.71 21
  212.4 14.43 14
  212.6 11.07 11
  212.7 17.15 17
  212.8 21.16 21
  212.9 18.89 18
  213.0 12.05 12
  213.2 6.48 6
  213.3 12.17 12
  213.4 18.51 18
  213.5 20.51 20
  213.6 17.29 17
  213.8 11.05 11
  213.9 14.29 14
  214.0 19.37 19
  214.1 21.79 21
  214.2 18.99 18
  214.3 12.48 12
  214.5 6.85 6
  214.6 12.22 12
  214.7 18.41 18
  214.8 20.08 20
  214.9 16.45 16
  215.1 11.05 11
  215.2 14.11 14
  215.3 17.76 17
  215.4 18.65 18
  215.5 15.76 15
  215.6 10.77 10
  215.8 7.73 7
  215.9 12.32 12
  216.0 17.39 17
  216.1 18.83 18
  216.2 15.53 15
  216.4 8.7 8
  216.5 11.76 11
  216.6 16.88 16
  216.7 19.12 19
  216.8 16.56 16
  217.1 11.34 11
  217.2 16.75 16
  217.3 20.52 20
  217.4 18.96 18
  217.5 12.75 12
  217.7 5.76 5
  217.8 10.35 10
  217.9 16.37 16
  218.0 18.91 18
  218.1 16.77 16
  219.0 7.05 7
  219.1 11.58 11
  219.2 15.44 15
  219.3 15.9 15
  219.6 12.09 12
  219.7 15.5 15
  219.8 20.04 20
  219.9 22.16 22
  220.0 18.91 18
  220.1 11.74 11
  220.3 8.17 8
  220.4 14.67 14
  220.5 19.53 19
  220.6 18.67 18
  220.7 13.73 13
  220.9 11.01 10
  221.0 16.21 16
  221.1 20.54 20
  221.2 19.55 19
  221.3 13.63 13
  221.5 6.69 6
  221.6 11.25 11
  221.7 17.61 17
  221.8 20.97 20
  221.9 19.07 19
  222.0 13.98 13
  222.2 11.12 11
  222.3 14.96 14
  222.4 17.74 17
  222.5 16.54 16
  222.6 11.97 11
  222.8 7.34 7
  222.9 12.21 12
  223.0 18.67 18
  223.1 21.4 21
  223.2 18.08 18
  223.3 11.95 11
  223.5 10.64 10
  223.6 15.69 15
  223.7 18.61 18
  223.8 16.48 16
  223.9 11.23 11
  224.1 8.99 8
  224.2 13.61 13
  224.3 17.92 17
  224.4 19.07 19
  224.5 16.65 16
  224.7 11.71 11
  224.8 14.37 14
  224.9 18.16 18
  225.0 18.8 18
  225.1 14.8 14
  225.2 8.99 8
  225.4 8.03 8
  225.5 13.81 13
  225.6 18.61 18
  225.7 18.11 18
  225.8 12.46 12
  226.0 5.84 5
  226.1 10.21 10
  226.2 14.83 14
  226.3 15.34 15
  226.4 11.95 11
  226.6 8.16 8
  226.7 10.73 10
  226.8 13.55 13
  226.9 13.73 13
  227.0 11.17 11
  227.2 8.59 8
  227.3 11.29 11
  227.4 15.09 15
  227.5 17.92 17
  227.6 18.06 18
  227.7 15.23 15
  227.9 10.97 10
  228.0 14.3 14
  228.1 18.86 18
  228.2 20.65 20
  228.3 18.09 18
  228.4 12.8 12
  228.6 7.63 7
  228.7 12.25 12
  228.8 18.89 18
  228.9 22.04 22
  229.0 18.89 18
  229.1 12.24 12
  229.3 9.63 9
  229.4 15.77 15
  229.5 20.52 20
  229.6 19.12 19
  229.7 12.3 12
  229.9 4.05 4
  230.0 8.3 8
  230.1 13.79 13
  230.2 15.28 15
  230.3 11.85 11
  230.5 9.04 9
  230.6 15.02 15
  230.7 20.35 20
  230.8 19.31 19
  230.9 12.08 12
  231.1 3.94 3
  231.2 9.26 9
  231.3 15.49 15
  231.4 16.96 16
  231.5 13.25 13
  231.7 8.65 8
  231.8 13.05 13
  231.9 18.21 18
  232.0 20.06 20
  232.1 17.68 17
  232.2 13.09 13
  232.4 9.81 9
  232.5 13.28 13
  232.6 17.41 17
  232.7 19.07 19
  232.8 17.09 17
  233.1 13.42 13
  233.2 17.09 17
  233.3 18.91 18
  233.4 17.42 17
  233.5 13.89 13
  233.7 11.73 11
  233.8 14.53 14
  233.9 16.13 16
  234.0 13.53 13
  234.1 7.73 7
  234.3 2.62 2
  234.4 7.07 7
  234.5 13.18 13
  234.6 16.49 16
  234.7 14.4 14
  234.8 8.78 8
  235.0 6.49 6
  235.1 12.33 12
  235.2 17.66 17
  235.3 18.67 18
  235.4 15.28 15
  235.6 9.37 9
  235.7 12.21 12
  235.8 16.3 16
  235.9 17.66 17
  236.0 15.18 15
  236.3 10.38 10
  236.4 14.27 14
  236.5 18.05 18
  236.6 18.51 18
  236.7 15.28 15
  236.9 11.58 11
  237.0 14.4 14
  237.1 17.1 17
  237.2 16.99 16
  237.3 13.73 13
  237.5 7.74 7
  237.6 10.78 10
  237.7 16.45 16
  237.8 19.56 19
  237.9 16.83 16
  238.0 10.29 10
  238.2 7.89 7
  238.3 15.31 15
  238.4 22.01 21
  238.5 22.0 21
  238.6 14.73 14
  238.8 3.39 3
  238.9 8.57 8
  239.0 16.46 16
  239.1 20.14 20
  239.2 17.71 17
  240.1 6.88 6
  240.2 11.9 11
  240.3 17.28 17
  240.4 18.17 18
  240.5 13.44 13
  240.8 6.48 6
  240.9 12.67 12
  241.0 17.93 17
  241.1 18.56 18
  241.2 14.11 14
  241.4 6.33 6
  241.5 10.25 10
  241.6 16.01 15
  241.7 17.92 17
  241.8 14.57 14
  242.0 8.4 8
  242.1 11.18 11
  242.2 15.42 15
  242.3 17.21 17
  242.4 15.44 15
  242.6 11.82 11
  242.7 13.95 13
  242.8 17.04 17
  242.9 18.7 18
  243.0 17.71 17
  243.1 14.49 14
  243.3 10.49 10
  243.4 14.03 14
  243.5 19.42 19
  243.6 21.42 21
  243.7 17.26 17
  244.5 8.8 8
  244.6 12.35 12
  244.7 17.55 17
  244.8 18.43 18
  244.9 13.2 13
  245.1 5.55 5
  245.2 10.33 10
  245.3 17.5 17
  245.4 22.08 22
  245.5 21.08 21
  245.6 15.25 15
  245.8 8.03 8
  245.9 13.42 13
  246.0 20.68 20
  246.1 23.28 23
  246.2 18.67 18
  246.3 10.7 10
  246.5 7.2 7
  246.6 12.81 12
  246.7 17.36 17
  246.8 17.52 17
  246.9 14.08 14
  247.1 10.35 10
  247.2 14.0 13
  247.3 18.84 18
  247.4 20.38 20
  247.5 16.86 16
  247.6 11.52 11
  247.8 11.05 11
  247.9 14.67 14
  248.0 16.64 16
  248.1 15.9 15
  248.2 13.6 13
  248.4 11.63 11
  248.5 13.58 13
  248.6 15.87 15
  248.7 15.93 15
  248.8 12.93 12
  249.0 7.29 7
  249.1 10.41 10
  249.2 15.97 15
  249.3 19.2 19
  249.4 17.55 17
  249.5 13.15 13
  249.7 10.64 10
  249.8 12.96 12
  249.9 14.17 14
  250.0 13.2 13
  250.3 11.33 11
  250.4 13.52 13
  250.5 16.32 16
  250.6 18.38 18
  250.7 18.01 17
  250.8 14.77 14
  250.9 10.49 10
  251.1 9.29 9
  251.2 11.92 11
  251.3 12.83 12
  251.6 8.29 8
  251.7 13.09 13
  251.8 19.29 19
  251.9 22.54 22
  252.0 20.64 20
  252.1 15.47 15
  252.3 12.49 12
  252.4 17.39 17
  252.5 21.68 21
  252.6 21.18 21
  252.7 15.98 15
  252.9 9.47 9
  253.0 13.87 13
  253.1 19.23 19
  253.2 19.84 19
  253.3 14.4 14
  253.5 5.12 5
  253.6 9.15 9
  253.7 16.33 16
  253.8 21.02 20
  253.9 19.47 19
  254.0 12.85 12
  254.2 6.67 6
  254.3 12.89 12
  254.4 20.38 20
  254.5 22.67 22
  254.6 17.69 17
  254.8 8.89 8
  254.9 14.97 14
  255.0 22.7 22
  255.1 24.38 24
  255.2 18.22 18
  255.3 9.58 9
  255.5 8.45 8
  255.6 15.92 15
  255.7 21.61 21
  255.8 20.88 20
  255.9 14.09 14
  256.1 4.67 4
  256.2 9.87 9
  256.3 16.94 16
  256.4 18.48 18
  256.5 12.65 12
  256.7 3.15 3
  256.8 8.11 8
  256.9 14.57 14
  257.0 16.45 16
  257.1 13.01 12
  257.3 8.14 8
  257.4 12.06 12
  257.5 17.29 17
  257.6 19.68 19
  257.7 17.09 17
  257.8 11.23 11
  258.0 6.99 6
  258.1 12.57 12
  258.2 18.75 18
  258.3 20.04 20
  258.4 15.5 15
  258.7 10.05 10
  258.8 14.77 14
  258.9 18.24 18
  259.0 18.37 18
  259.1 15.31 15
  259.9 9.76 9
  260.0 12.22 12
  260.1 16.48 16
  260.2 18.67 18
  260.3 16.54 16
  260.4 11.98 11
  261.1 7.34 7
  261.2 9.85 9
  261.3 14.72 14
  261.4 18.56 18
  261.5 19.31 19
  261.6 17.25 17
  261.7 14.27 14
  262.4 9.82 9
  262.5 13.65 13
  262.6 17.81 17
  262.7 19.34 19
  262.8 17.69 17
  262.9 14.43 14
  263.1 11.04 11
  263.2 12.94 12
  263.3 15.9 15
  263.4 17.44 17
  263.5 15.87 15
  263.6 12.05 12
  263.8 9.29 9
  263.9 13.53 13
  264.0 18.57 18
  264.1 19.82 19
  264.2 15.23 15
  264.4 4.53 4
  264.5 8.65 8
  264.6 16.69 16
  264.7 20.72 20
  264.8 16.43 16
  264.9 7.76 7
  265.1 5.36 5
  265.2 13.1 13
  265.3 19.02 19
  265.4 18.57 18
  265.5 13.52 13
  265.7 10.91 10
  265.8 15.57 15
  265.9 19.0 18
  266.0 18.37 18
  266.1 14.32 14
  266.3 8.96 8
  266.4 12.19 12
  266.5 17.13 17
  266.6 19.55 19
  266.7 17.5 17
  266.8 12.99 12
  267.0 11.21 11
  267.1 14.94 14
  267.2 17.76 17
  267.3 17.13 17
  267.4 13.89 13
  267.6 11.01 10
  267.7 13.2 13
  267.8 15.77 15
  267.9 16.97 16
  268.0 15.9 15
  268.1 12.8 12
  268.3 9.13 9
  268.4 11.49 11
  268.5 14.41 14
  268.6 15.18 15
  268.9 11.97 11
  269.0 15.6 15
  269.1 19.31 19
  269.2 19.18 19
  269.3 14.54 14
  269.6 9.81 9
  269.7 14.83 14
  269.8 17.69 17
  269.9 16.62 16
  270.2 13.07 13
  270.3 17.21 17
  270.4 20.44 20
  270.5 19.56 19
  270.6 14.64 14
  270.9 9.53 9
  271.0 14.32 14
  271.1 17.39 17
  271.2 16.88 16
  271.5 13.53 13
  271.6 18.51 18
  271.7 23.56 23
  271.8 24.3 24
  271.9 19.31 19
  272.0 12.24 12
  272.7 2.74 2
  272.8 7.71 7
  272.9 13.82 13
  273.0 17.04 17
  273.1 16.4 16
  273.3 12.78 12
  273.4 14.51 14
  273.5 17.98 17
  273.6 19.66 19
  273.7 17.23 17
  273.8 12.41 12
  274.0 11.29 11
  274.1 15.89 15
  274.2 19.53 19
  274.3 19.5 19
  274.4 16.19 16
  275.3 10.65 10
  275.4 16.37 16
  275.5 20.33 20
  275.6 18.64 18
  275.7 12.08 12
  275.9 3.18 3
  276.0 8.01 8
  276.1 15.82 15
  276.2 20.19 20
  276.3 17.98 17
  276.5 10.16 10
  276.6 13.49 13
  276.7 19.55 19
  276.8 23.08 23
  276.9 21.55 21
  277.0 16.19 16
  277.1 10.49 10
  277.3 9.52 9
  277.4 13.31 13
  277.5 15.1 15
  277.6 12.96 12
  277.8 8.46 8
  277.9 11.95 11
  278.0 17.29 17
  278.1 20.09 20
  278.2 17.69 17
  278.3 11.52 11
  278.5 5.95 5
  278.6 10.8 10
  278.7 16.37 16
  278.8 17.87 17
  278.9 14.37 14
  279.2 9.66 9
  279.3 14.22 14
  279.4 16.61 16
  279.5 15.05 15
  279.6 11.65 11
  279.8 10.97 10
  279.9 13.73 13
  280.0 15.05 15
  280.1 13.5 13
  280.4 10.78 10
  280.5 14.24 14
  280.6 17.28 17
  280.7 17.49 17
  280.8 14.48 14
  280.9 10.41 10
  281.1 9.69 9
  281.2 12.57 12
  281.3 14.09 14
  281.4 12.64 12
  281.6 6.56 6
  281.7 8.61 8
  281.8 15.33 15
  281.9 22.03 22
  282.0 22.72 22
  282.1 16.19 16
  282.3 5.49 5
  282.4 10.51 10
  282.5 18.27 18
  282.6 22.38 22
  282.7 20.41 20
  282.8 14.88 14
  283.0 10.0 9
  283.1 13.47 13
  283.2 17.09 17
  283.3 17.37 17
  283.4 14.43 14
  283.6 12.03 12
  283.7 15.25 15
  283.8 17.97 17
  283.9 17.05 17
  284.0 12.21 12
  284.2 4.64 4
  284.3 8.73 8
  284.4 16.08 16
  284.5 20.86 20
  284.6 19.15 19
  284.7 12.65 12
  284.9 8.93 8
  285.0 16.53 16
  285.1 23.95 23
  285.2 24.91 24
  285.3 18.78 18
  286.2 7.85 7
  286.3 14.8 14
  286.4 20.06 20
  286.5 19.29 19
  286.6 13.84 13
  286.8 8.16 8
  286.9 12.37 12
  287.0 17.5 17
  287.1 19.13 19
  287.2 16.0 15
  287.3 11.18 11
  288.0 7.73 7
  288.1 10.4 10
  288.2 16.38 16
  288.3 21.52 21
  288.4 21.04 21
  288.5 14.56 14
  288.7 5.86 5
  288.8 11.55 11
  288.9 19.29 19
  289.0 22.32 22
  289.1 18.11 18
  289.2 10.46 10
  289.4 6.43 6
  289.5 11.02 11
  289.6 15.36 15
  289.7 16.67 16
  289.8 14.37 14
  290.1 8.54 8
  290.2 14.33 14
  290.3 19.34 19
  290.4 18.8 18
  290.5 13.5 13
  290.7 10.56 10
  290.8 15.01 14
  290.9 16.85 16
  291.0 13.49 13
  291.2 7.02 7
  291.3 10.8 10
  291.4 16.25 16
  291.5 18.99 18
  291.6 17.55 17
  291.7 13.26 13
  292.0 7.97 7
  292.1 13.2 13
  292.2 17.57 17
  292.3 17.26 17
  292.4 12.43 12
  292.6 5.01 5
  292.7 8.91 8
  292.8 15.82 15
  292.9 19.93 19
  293.0 17.87 17
  293.1 12.22 12
  293.3 10.61 10
  293.4 15.98 15
  293.5 20.06 20
  293.6 19.28 19
  293.7 14.33 14
  293.9 9.87 9
  294.0 14.09 14
  294.1 17.84 17
  294.2 17.29 17
  294.3 13.25 13
  294.5 9.53 9
  294.6 12.4 12
  294.7 14.94 14
  294.8 14.25 14
  294.9 10.4 10
  295.1 5.14 5
  295.2 7.6 7
  295.3 11.66 11
  295.4 14.51 14
  295.5 14.7 14
  295.6 13.07 13
  295.8 11.98 11
  295.9 13.73 13
  296.0 15.31 15
  296.1 15.39 15
  296.2 14.01 13
  297.0 5.46 5
  297.1 8.35 8
  297.2 13.2 13
  297.3 15.89 15
  297.4 14.59 14
  297.5 11.04 11
  297.7 8.01 8
  297.8 10.25 10
  297.9 14.11 14
  298.0 17.49 17
  298.1 17.97 17
  298.2 15.04 15
  299.6 9.42 9
  299.7 15.44 15
  299.8 21.64 21
  299.9 22.27 22
  300.0 15.76 15
  300.2 3.54 3
  300.3 8.22 8
  300.4 17.41 17
  300.5 24.04 24
  300.6 23.36 23
  300.7 16.3 16
  300.9 6.08 6
  301.0 10.54 10
  301.1 18.35 18
  301.2 23.16 23
  301.3 21.02 20
  301.4 14.22 14
  301.6 10.78 10
  301.7 16.4 16
  301.8 20.08 20
  301.9 18.14 18
  302.0 12.49 12
  302.2 7.89 7
  302.3 11.37 11
  302.4 15.12 15
  302.5 15.34 15
  302.6 11.5 11
  302.8 8.05 8
  302.9 13.66 13
  303.0 19.52 19
  303.1 20.32 20
  303.2 15.41 15
  303.5 9.92 9
  303.6 14.38 14
  303.7 16.85 16
  303.8 16.08 16
  303.9 13.42 13
  304.1 11.97 11
  304.2 15.02 15
  304.3 17.74 17
  304.4 17.1 17
  304.5 13.09 13
  304.7 9.65 9
  304.8 14.69 14
  304.9 20.8 20
  305.0 23.13 23
  305.1 19.76 19
  305.2 13.53 13
  305.4 10.32 10
  305.5 13.84 13
  305.6 16.21 16
  305.7 15.53 15
  305.8 13.12 13
  306.6 7.71 7
  306.7 10.45 10
  306.8 15.1 15
  306.9 18.94 18
  307.0 18.96 18
  307.1 15.02 15
  307.3 10.41 10
  307.4 14.38 14
  307.5 18.88 18
  307.6 19.39 19
  307.7 14.81 14
  307.8 8.06 8
  308.0 3.58 3
  308.1 7.53 7
  308.2 11.93 11
  308.3 13.97 13
  308.4 13.52 13
  308.5 12.61 12
  308.6 13.29 13
  308.7 15.61 15
  308.8 17.1 17
  308.9 15.25 15
  309.0 10.56 10
  309.2 6.88 6
  309.3 11.12 11
  309.4 16.25 16
  309.5 18.88 18
  309.6 17.5 17
  309.7 13.45 13
  309.9 11.13 11
  310.0 15.18 15
  310.1 18.0 17
  310.2 16.32 16
  310.5 10.96 10
  310.6 15.65 15
  310.7 18.19 18
  310.8 16.0 15
  310.9 10.83 10
  311.1 6.38 6
  311.2 9.66 9
  311.3 13.93 13
  311.4 16.17 16
  311.5 15.04 15
  311.8 12.56 12
  311.9 15.45 15
  312.0 17.21 17
  312.1 16.78 16
  312.2 14.46 14
  312.3 11.28 11
  312.5 9.9 9
  312.6 13.18 13
  312.7 16.27 16
  312.8 16.75 16
  312.9 14.59 14
  313.1 10.94 10
  313.2 13.2 13
  313.3 16.53 16
  313.4 17.45 17
  313.7 13.34 13
  313.8 17.52 17
  313.9 21.0 20
  314.0 19.72 19
  314.1 14.09 14
  314.3 7.93 7
  314.4 12.09 12
  314.5 16.75 16
  314.6 17.13 17
  314.7 12.78 12
  314.9 8.29 8
  315.0 13.65 13
  315.1 20.08 20
  315.2 22.48 22
  315.3 18.46 18
  315.4 9.77 9
  315.6 0.0 0
  315.7 6.46 6
  315.8 16.41 16
  315.9 22.48 22
  316.0 20.6 20
  316.1 13.5 13
  316.3 9.5 9
  316.4 15.93 15
  316.5 20.83 20
  316.6 19.63 19
  316.7 14.24 14
  316.9 11.2 11
  317.0 15.09 15
  317.1 18.49 18
  317.2 19.23 19
  317.3 17.1 17
  318.2 4.24 4
  318.3 11.01 10
  318.4 18.22 18
  318.5 20.33 20
  318.6 16.29 16
  318.8 7.42 7
  318.9 11.13 11
  319.0 17.97 17
  319.1 21.74 21
  319.2 19.2 19
  319.3 12.8 12
  319.5 7.97 7
  319.6 11.44 11
  319.7 14.32 14
  319.8 13.63 13
  320.0 8.62 8
  320.1 11.9 11
  320.2 18.54 18
  320.3 22.99 22
  320.4 21.18 21
  320.5 14.56 14
  320.7 7.84 7
  320.8 12.05 12
  320.9 17.82 17
  321.0 20.6 20
  321.1 17.42 17
  321.2 9.84 9
  321.4 5.87 5
  321.5 13.55 13
  321.6 20.12 20
  321.7 20.11 20
  321.8 14.48 14
  322.0 7.73 7
  322.1 11.25 11
  322.2 15.33 15
  322.3 15.89 15
  322.4 12.45 12
  322.6 6.96 6
  322.7 10.37 10
  322.8 16.25 16
  322.9 20.41 20
  323.0 19.77 19
  323.1 14.73 14
  323.3 7.55 7
  323.4 12.21 12
  323.5 19.68 19
  323.6 23.02 22
  323.7 18.64 18
  323.8 10.4 10
  324.0 8.38 8
  324.1 14.56 14
  324.2 18.67 18
  324.3 17.87 17
  324.4 13.81 13
  324.6 11.39 11
  324.7 15.07 15
  324.8 17.61 17
  324.9 16.0 15
  325.0 11.33 11
  325.2 8.72 8
  325.3 12.75 12
  325.4 16.78 16
  325.5 17.57 17
  325.6 14.0 13
  325.9 7.02 7
  326.0 13.29 13
  326.1 18.13 18
  326.2 17.2 17
  326.3 11.69 11
  326.5 7.81 7
  326.6 13.39 13
  326.7 19.39 19
  326.8 21.6 21
  326.9 18.84 18
  327.0 13.52 13
  327.2 9.84 9
  327.3 13.57 13
  327.4 17.68 17
  327.5 18.41 18
  327.6 14.75 14
  327.8 9.09 9
  327.9 13.05 13
  328.0 17.74 17
  328.1 18.22 18
  328.2 13.9 13
  328.4 8.01 8
  328.5 12.14 12
  328.6 17.58 17
  328.7 19.6 19
  328.8 17.25 17
  329.1 13.15 13
  329.2 16.88 16
  329.3 20.32 20
  329.4 20.49 20
  329.5 16.19 16
  330.4 8.01 8
  330.5 14.96 14
  330.6 19.34 19
  330.7 17.66 17
  330.8 11.63 11
  331.0 7.26 7
  331.1 13.41 13
  331.2 20.32 20
  331.3 22.72 22
  331.4 18.97 18
  331.5 12.38 12
  331.7 10.62 10
  331.8 15.93 15
  331.9 18.86 18
  332.0 16.53 16
  332.2 10.24 10
  332.3 13.42 13
  332.4 18.35 18
  332.5 20.33 20
  332.6 17.44 17
  332.7 11.71 11
  332.9 7.02 7
  333.0 11.28 11
  333.1 16.73 16
  333.2 19.0 18
  333.3 16.41 16
  333.4 11.44 11
  333.6 10.41 10
  333.7 15.18 15
  333.8 18.43 18
  333.9 17.2 17
  334.0 12.49 12
  334.2 7.1 7
  334.3 10.75 10
  334.4 16.59 16
  334.5 19.8 19
  334.6 16.86 16
  334.7 10.03 10
  334.9 8.65 8
  335.0 15.04 15
  335.1 18.27 18
  335.2 15.18 15
  336.1 7.12 7
  336.2 12.69 12
  336.3 18.84 18
  336.4 21.9 21
  336.5 20.17 20
  336.6 15.33 15
  336.8 12.38 12
  336.9 15.84 15
  337.0 17.85 17
  337.1 16.01 15
  337.2 11.81 11
  337.4 8.64 8
  337.5 11.29 11
  337.6 14.51 14
  337.7 15.53 15
  338.0 11.82 11
  338.1 15.89 15
  338.2 19.53 19
  338.3 19.24 19
  338.4 14.85 14
  338.5 9.29 9
  338.7 7.71 7
  338.8 12.22 12
  338.9 16.09 16
  339.0 16.51 16
  339.1 13.39 13
  339.3 8.94 8
  339.4 12.14 12
  339.5 16.65 16
  339.6 18.33 18
  339.7 15.23 15
  339.8 9.31 9
  340.0 6.56 6
  340.1 12.48 12
  340.2 17.69 17
  340.3 17.81 17
  340.4 13.65 13
  340.6 9.53 9
  340.7 12.57 12
  340.8 15.92 15
  340.9 17.12 17
  341.0 15.6 15
  341.2 12.54 12
  341.3 14.67 14
  341.4 18.01 17
  341.5 19.13 19
  341.6 15.85 15
  341.7 9.89 9
  341.9 8.4 8
  342.0 14.08 14
  342.1 18.11 18
  342.2 17.69 17
  342.3 14.38 14
  342.5 11.89 11
  342.6 14.77 14
  342.7 17.93 17
  342.8 18.32 18
  342.9 14.45 14
  343.2 7.69 7
  343.3 15.31 15
  343.4 21.26 21
  343.5 20.57 20
  343.6 14.25 14
  343.8 7.52 7
  343.9 12.33 12
  344.0 17.52 17
  344.1 17.95 17
  344.2 13.28 13
  344.4 7.36 7
  344.5 12.0 11
  344.6 18.37 18
  344.7 21.32 21
  344.8 18.29 18
  344.9 11.69 11
  345.1 9.05 9
  345.2 15.39 15
  345.3 19.93 19
  345.4 17.68 17
  345.5 10.3 10
  345.7 6.53 6
  345.8 13.6 13
  345.9 19.02 19
  346.0 18.27 18
  346.1 13.17 13
  346.3 9.36 9
  346.4 13.79 13
  346.5 19.28 19
  346.6 21.79 21
  346.7 18.99 18
  346.8 12.37 12
  347.0 6.77 6
  347.1 11.57 11
  347.2 17.07 17
  347.3 19.2 19
  347.4 17.42 17
  347.6 14.08 14
  347.7 17.01 16
  347.8 20.27 20
  347.9 19.87 19
  348.0 15.15 15
  348.3 8.86 8
  348.4 14.06 14
  348.5 18.46 18
  348.6 18.33 18
  348.7 13.47 13
  348.9 6.49 6
  349.0 9.65 9
  349.1 14.11 14
  349.2 16.03 16
  349.3 13.9 13
  349.4 9.33 9
  349.6 6.7 6
  349.7 11.09 11
  349.8 15.17 15
  349.9 15.01 14
  350.0 10.65 10
  350.2 7.65 7
  350.3 13.5 13
  350.4 19.04 19
  350.5 19.6 19
  350.6 15.76 15
  350.8 11.95 11
  350.9 15.07 15
  351.0 18.43 18
  351.1 19.12 19
  351.2 16.17 16
  351.5 10.83 10
  351.6 16.72 16
  351.7 21.42 21
  351.8 20.91 20
  351.9 15.5 15
  352.0 9.41 9
  352.2 9.1 9
  352.3 13.13 13
  352.4 14.89 14
  352.5 12.7 12
  352.8 8.3 8
  352.9 12.43 12
  353.0 15.73 15
  353.1 15.63 15
  353.2 12.62 12
  353.4 9.93 9
  353.5 13.92 13
  353.6 18.62 18
  353.7 20.14 20
  353.8 16.8 16
  353.9 11.09 11
  354.1 10.19 10
  354.2 15.73 15
  354.3 18.96 18
  354.4 16.75 16
  354.5 11.42 11
  355.2 4.38 4
  355.3 8.32 8
  355.4 15.61 15
  355.5 20.52 20
  355.6 19.64 19
  355.7 14.43 14
  355.9 7.53 7
  356.0 10.46 10
  356.1 15.44 15
  356.2 18.46 18
  356.3 16.97 16
  356.6 11.28 11
  356.7 16.16 16
  356.8 19.2 19
  356.9 17.07 17
  357.0 11.21 11
  357.2 6.08 6
  357.3 10.53 10
  357.4 15.97 15
  357.5 18.05 18
  357.6 15.42 15
  358.5 6.97 6
  358.6 12.45 12
  358.7 19.16 19
  358.8 22.03 22
  358.9 18.59 18
  359.0 11.85 11
  359.2 9.42 9
  359.3 14.99 14
  359.4 19.4 19
  359.5 19.36 19
  359.6 15.79 15
  359.8 13.39 13
  359.9 17.1 17
  360.0 19.71 19
  360.1 18.0 17
  360.2 12.86 12
  360.4 7.85 7
  360.5 12.05 12
  360.6 18.01 17
  360.7 21.18 21
  360.8 18.75 18
  360.9 12.53 12
  361.1 9.44 9
  361.2 15.18 15
  361.3 19.31 19
  361.4 17.39 17
  361.5 11.17 11
  361.7 8.3 8
  361.8 14.59 14
  361.9 20.17 20
  362.0 21.05 21
  362.1 17.39 17
  362.2 12.56 12
  362.4 11.74 11
  362.5 15.18 15
  362.6 16.94 16
  362.7 14.62 14
  362.9 7.71 7
  363.0 10.53 10
  363.1 16.0 15
  363.2 19.1 19
  363.3 17.53 17
  363.4 12.96 12
  363.6 8.61 8
  363.7 12.61 12
  363.8 17.9 17
  363.9 19.88 19
  364.0 16.88 16
  364.3 12.29 12
  364.4 17.93 17
  364.5 21.68 21
  364.6 20.4 20
  364.7 15.69 15
  364.9 11.63 11
  365.0 13.92 13
  365.1 16.22 16
  365.2 16.45 16
  365.3 13.74 13
  365.6 9.95 9
  365.7 14.41 14
  365.8 17.25 17
  365.9 16.32 16
  366.0 12.61 12
  366.2 8.54 8
  366.3 10.96 10
  366.4 13.74 13
  366.5 13.84 13
  366.6 10.83 10
  366.8 7.9 7
  366.9 12.96 12
  367.0 19.04 19
  367.1 21.18 21
  367.2 18.24 18
  367.3 13.84 13
  368.1 9.55 9
  368.2 15.09 15
  368.3 20.76 20
  368.4 22.35 22
  368.5 18.48 18
  368.6 11.89 11
  368.8 9.09 9
  368.9 14.08 14
  369.0 17.29 17
  369.1 15.36 15
  369.2 9.82 9
  369.4 6.59 6
  369.5 12.43 12
  369.6 18.64 18
  369.7 20.3 20
  369.8 16.72 16
  370.0 10.56 10
  370.1 13.84 13
  370.2 18.33 18
  370.3 19.95 19
  370.4 17.02 17
  370.7 11.63 11
  370.8 16.69 16
  370.9 20.03 20
  371.0 18.35 18
  371.1 12.27 12
  371.3 3.84 3
  371.4 7.81 7
  371.5 14.14 14
  371.6 17.17 17
  371.7 14.75 14
  371.9 9.1 9
  372.0 12.62 12
  372.1 17.1 17
  372.2 17.65 17
  372.3 13.47 13
  372.5 7.42 7
  372.6 10.96 10
  372.7 15.73 15
  372.8 18.06 18
  372.9 17.2 17
  373.0 14.7 14
  373.2 11.93 11
  373.3 13.79 13
  373.4 16.77 16
  373.5 17.79 17
  373.6 15.07 15
  373.7 10.29 10
  373.9 8.43 8
  374.0 13.01 12
  374.1 17.04 17
  374.2 16.72 16
  374.3 12.01 11
  374.5 6.67 6
  374.6 11.05 11
  374.7 17.01 16
  374.8 20.14 20
  374.9 18.49 18
  375.2 13.31 13
  375.3 18.17 18
  375.4 21.5 21
  375.5 20.12 20
  375.6 14.91 14
  376.4 8.77 8
  376.5 12.48 12
  376.6 15.85 15
  376.7 15.63 15
  376.8 11.52 11
  377.0 6.02 6
  377.1 10.4 10
  377.2 17.44 17
  377.3 22.32 22
  377.4 21.8 21
  377.5 16.69 16
  377.6 11.17 11
  377.8 11.37 11
  377.9 14.85 14
  378.0 16.27 16
  378.1 14.73 14
  378.4 11.29 11
  378.5 13.63 13
  378.6 15.18 15
  378.7 14.43 14
  379.0 12.3 12
  379.1 14.67 14
  379.2 16.06 16
  379.3 15.21 15
  379.4 12.27 12
  379.6 8.96 8
  379.7 12.45 12
  379.8 16.78 16
  379.9 17.49 17
  380.0 13.45 13
  380.2 5.55 5
  380.3 8.96 8
  380.4 16.08 16
  380.5 21.48 21
  380.6 20.97 20
  380.7 15.61 15
  381.5 7.6 7
  381.6 13.63 13
  381.7 21.58 21
  381.8 25.52 25
  381.9 22.76 22
  382.0 15.73 15
  382.2 8.24 8
  382.3 12.33 12
  382.4 18.72 18
  382.5 22.65 22
  382.6 21.05 21
  382.7 15.47 15
  382.9 10.99 10
  383.0 14.03 14
  383.1 15.66 15
  383.2 13.65 13
  383.4 7.98 7
  383.5 10.72 10
  383.6 16.65 16
  383.7 21.07 21
  383.8 19.87 19
  383.9 13.6 13
  384.1 6.85 6
  384.2 11.93 11
  384.3 18.16 18
  384.4 20.68 20
  384.5 18.59 18
  384.6 14.77 14
  384.8 13.57 13
  384.9 16.27 16
  385.0 17.61 17
  385.1 15.36 15
  385.2 10.69 10
  385.4 9.25 9
  385.5 14.32 14
  385.6 18.57 18
  385.7 18.78 18
  385.8 15.34 15
  386.0 10.16 10
  386.1 12.69 12
  386.2 17.15 17
  386.3 19.68 19
  386.4 17.63 17
  386.5 12.64 12
  386.7 9.66 9
  386.8 13.36 13
  386.9 16.64 16
  387.0 16.43 16
  387.1 12.69 12
  387.3 8.61 8
  387.4 12.43 12
  387.5 16.16 16
  387.6 15.92 15
  387.7 11.98 11
  387.9 6.78 6
  388.0 10.27 10
  388.1 15.66 15
  388.2 18.21 18
  388.3 15.49 15
  388.5 8.29 8
  388.6 11.57 11
  388.7 17.66 17
  388.8 21.95 21
  388.9 21.32 21
  389.0 16.06 16
  389.3 10.65 10
  389.4 16.67 16
  389.5 20.19 20
  389.6 17.9 17
  389.7 11.39 11
  389.9 5.71 5
  390.0 10.48 10
  390.1 15.92 15
  390.2 18.08 18
  390.3 16.06 16
  390.5 11.18 11
  390.6 13.57 13
  390.7 17.77 17
  390.8 19.98 19
  390.9 18.01 17
  391.1 11.58 11
  391.2 14.56 14
  391.3 20.33 20
  391.4 23.29 23
  391.5 19.87 19
  391.6 11.97 11
  391.8 5.47 5
  391.9 10.75 10
  392.0 15.61 15
  392.1 15.36 15
  392.2 10.89 10
  392.4 7.73 7
  392.5 13.23 13
  392.6 20.12 20
  392.7 23.5 23
  392.8 21.02 20
  392.9 15.28 15
  393.1 12.67 12
  393.2 16.88 16
  393.3 19.2 19
  393.4 16.27 16
  393.7 8.38 8
  393.8 16.0 15
  393.9 22.32 22
  394.0 23.28 23
  394.1 19.47 19
  394.2 14.35 14
  394.4 13.6 13
  394.5 18.38 18
  394.6 21.72 21
  394.7 20.12 20
  394.8 14.25 14
  395.0 7.61 7
  395.1 11.1 11
  395.2 14.72 14
  395.3 14.48 14
  395.6 10.69 10
  395.7 15.07 15
  395.8 18.09 18
  395.9 17.61 17
  396.0 14.51 14
  396.8 7.02 7
  396.9 9.93 9
  397.0 15.87 15
  397.1 20.36 20
  397.2 20.27 20
  397.3 16.45 16
  397.4 11.92 11
  397.6 8.83 8
  397.7 10.56 10
  397.8 12.65 12
  397.9 13.37 13
  398.0 12.8 12
  398.1 12.56 12
  398.2 13.61 13
  398.3 15.49 15
  398.4 16.65 16
  398.5 15.73 15
  398.6 12.41 12
  398.8 7.65 7
  398.9 10.93 10
  399.0 16.25 16
  399.1 19.56 19
  399.2 18.62 18
  399.3 15.01 14
  399.5 13.87 13
  399.6 17.73 17
  399.7 20.67 20
  399.8 19.23 19
  399.9 12.96 12
  400.1 4.14 4
  400.2 9.87 9
  400.3 18.25 18
  400.4 21.95 21
  400.5 18.59 18
  400.6 12.46 12
  400.8 11.31 11
  400.9 15.44 15
  401.0 17.69 17
  401.1 16.35 16
  401.2 12.99 12
  401.9 6.77 6
  402.0 11.15 11
  402.1 17.61 17
  402.2 22.46 22
  402.3 22.52 22
  402.4 16.97 16
  402.5 8.35 8
  402.7 3.07 3
  402.8 9.95 9
  402.9 16.91 16
  403.0 18.65 18
  403.1 14.94 14
  403.2 9.77 9
  403.9 8.13 8
  404.0 10.81 10
  404.1 14.01 13
  404.2 15.31 15
  404.3 13.45 13
  404.6 8.78 8
  404.7 14.53 14
  404.8 19.56 19
  404.9 19.93 19
  405.0 15.9 15
  405.2 9.92 9
  405.3 12.72 12
  405.4 17.45 17
  405.5 20.25 20
  405.6 18.45 18
  405.7 13.29 13
  405.9 9.76 9
  406.0 14.53 14
  406.1 19.08 19
  406.2 18.91 18
  406.3 13.29 13
  406.5 5.6 5
  406.6 11.26 11
  406.7 18.45 18
  406.8 20.2 20
  406.9 15.1 15
  407.8 9.49 9
  407.9 13.5 13
  408.0 16.0 15
  408.1 15.58 15
  408.2 12.91 12
  408.4 10.38 10
  408.5 14.13 14
  408.6 18.97 18
  408.7 20.6 20
  408.8 17.09 17
  409.1 10.56 10
  409.2 16.37 16
  409.3 19.98 19
  409.4 18.17 18
  409.5 13.09 13
  409.7 11.57 11
  409.8 16.17 16
  409.9 19.36 19
  410.0 17.9 17
  410.1 12.78 12
  410.3 9.87 9
  410.4 15.97 15
  410.5 21.56 21
  410.6 21.53 21
  410.7 15.49 15
  410.8 7.81 7
  411.0 4.53 4
  411.1 8.88 8
  411.2 12.99 12
  411.3 14.51 14
  411.4 13.65 13
  411.5 12.64 12
  411.6 13.84 13
  411.7 17.36 17
  411.8 20.25 20
  411.9 18.91 18
  412.0 12.8 12
  412.2 3.28 3
  412.3 7.66 7
  412.4 15.33 15
  412.5 19.84 19
  412.6 17.89 17
  412.7 12.14 12
  412.9 8.62 8
  413.0 12.94 12
  413.1 17.52 17
  413.2 18.97 18
  413.3 16.08 16
  413.6 10.49 10
  413.7 15.74 15
  413.8 19.34 19
  413.9 18.41 18
  414.0 14.17 14
  414.2 9.92 9
  414.3 13.02 13
  414.4 16.73 16
  414.5 17.5 17
  414.6 14.22 14
  414.7 9.2 9
  414.9 8.37 8
  415.0 13.04 13
  415.1 15.89 15
  415.2 14.32 14
  415.4 10.24 10
  415.5 14.17 14
  415.6 19.0 18
  415.7 20.24 20
  415.8 17.45 17
  416.1 14.21 14
  416.2 16.43 16
  416.3 17.93 17
  416.4 16.99 16
  416.5 13.04 13
  416.7 6.37 6
  416.8 10.29 10
  416.9 17.2 17
  417.0 21.16 21
  417.1 18.64 18
  417.2 11.97 11
  417.4 7.82 7
  417.5 12.93 12
  417.6 17.5 17
  417.7 17.55 17
  417.8 13.45 13
  418.0 7.6 7
  418.1 10.73 10
  418.2 15.9 15
  418.3 18.67 18
  418.4 15.74 15
  418.6 6.25 6
  418.7 10.14 10
  418.8 17.6 17
  418.9 21.98 21
  419.0 20.2 20
  419.1 14.91 14
  419.3 11.09 11
  419.4 14.97 14
  419.5 18.46 18
  419.6 17.34 17
  419.7 11.58 11
  419.9 5.84 5
  420.0 10.81 10
  420.1 16.32 16
  420.2 17.74 17
  420.3 14.21 14
  420.6 8.05 8
  420.7 13.18 13
  420.8 17.18 17
  420.9 16.65 16
  421.0 12.14 12
  421.2 7.31 7
  421.3 11.82 11
  421.4 18.29 18
  421.5 22.51 22
  421.6 21.5 21
  421.7 15.98 15
  422.4 13.74 13
  422.5 15.87 15
  422.6 18.75 18
  422.7 19.52 19
  422.8 16.49 16
  422.9 10.8 10
  423.1 6.41 6
  423.2 11.6 11
  423.3 17.77 17
  423.4 19.98 19
  423.5 16.43 16
  423.6 10.17 10
  423.8 8.93 8
  423.9 14.48 14
  424.0 18.27 18
  424.1 17.74 17
  424.2 14.41 14
  424.5 10.22 10
  424.6 13.73 13
  424.7 16.64 16
  424.8 15.85 15
  425.1 10.91 10
  425.2 15.71 15
  425.3 19.31 19
  425.4 18.48 18
  425.5 14.53 14
  425.7 11.87 11
  425.8 14.19 14
  425.9 15.55 15
  426.0 14.13 14
  426.1 10.57 10
  426.3 7.89 7
  426.4 11.2 11
  426.5 15.66 15
  426.6 18.56 18
  426.7 17.98 17
  426.8 14.54 14
  427.0 11.85 11
  427.1 14.69 14
  427.2 16.54 16
  427.3 15.09 15
  427.4 11.07 11
  427.6 7.93 7
  427.7 12.05 12
  427.8 16.64 16
  427.9 17.66 17
  428.0 13.92 13
  428.3 8.94 8
  428.4 14.94 14
  428.5 18.81 18
  428.6 17.9 17
  428.7 13.87 13
  428.9 10.89 10
  429.0 14.3 14
  429.1 17.66 17
  429.2 17.57 17
  429.3 13.52 13
  429.6 8.06 8
  429.7 13.34 13
  429.8 17.68 17
  429.9 18.13 18
  430.0 14.99 14
  430.2 11.5 11
  430.3 14.78 14
  430.4 17.49 17
  430.5 15.69 15
  430.8 8.53 8
  430.9 15.15 15
  431.0 20.08 20
  431.1 18.53 18
  431.2 11.79 11
  431.4 4.48 4
  431.5 9.73 9
  431.6 17.29 17
  431.7 21.48 21
  431.8 19.07 19
  431.9 12.21 12
  432.1 6.51 6
  432.2 11.6 11
  432.3 17.58 17
  432.4 19.68 19
  432.5 16.35 16
  432.8 11.29 11
  432.9 16.22 16
  433.0 18.88 18
  433.1 17.1 17
  433.2 12.51 12
  433.4 8.32 8
  433.5 11.49 11
  433.6 15.36 15
  433.7 16.22 16
  433.8 12.78 12
  434.0 7.1 7
  434.1 11.05 11
  434.2 15.85 15
  434.3 16.37 16
  434.4 11.82 11
  434.6 4.82 4
  434.7 8.37 8
  434.8 13.81 13
  434.9 16.7 16
  435.0 15.47 15
  435.3 10.99 10
  435.4 15.92 15
  435.5 20.32 20
  435.6 19.61 19
  435.7 13.15 13
  436.0 6.03 6
  436.1 14.03 14
  436.2 21.24 21
  436.3 22.8 22
  436.4 17.68 17
  437.3 8.51 8
  437.4 15.95 15
  437.5 21.08 21
  437.6 20.0 19
  437.7 14.49 14
  437.9 10.33 10
  438.0 14.41 14
  438.1 17.26 17
  438.2 15.04 15
  438.3 9.47 9
  438.5 8.16 8
  438.6 13.76 13
  438.7 18.11 18
  438.8 18.13 18
  438.9 14.16 14
  439.1 7.55 7
  439.2 10.45 10
  439.3 15.58 15
  439.4 18.3 18
  439.5 15.66 15
  439.6 9.28 9
  439.8 5.97 5
  439.9 12.97 12
  440.0 19.1 19
  440.1 19.07 19
  440.2 13.85 13
  440.4 8.53 8
  440.5 12.48 12
  440.6 17.77 17
  440.7 20.57 20
  440.8 18.4 18
  440.9 12.77 12
  441.1 11.07 11
  441.2 16.8 16
  441.3 19.79 19
  441.4 16.33 16
  441.7 8.29 8
  441.8 16.37 16
  441.9 22.36 22
  442.0 21.31 21
  442.1 14.21 14
  442.2 6.33 6
  442.4 6.18 6
  442.5 12.43 12
  442.6 16.86 16
  442.7 16.81 16
  443.6 4.75 4
  443.7 11.18 11
  443.8 18.7 18
  443.9 22.16 22
  444.0 19.39 19
  444.1 13.13 13
  444.3 9.23 9
  444.4 12.75 12
  444.5 14.85 14
  444.6 13.13 13
  444.9 7.21 7
  445.0 13.02 13
  445.1 19.31 19
  445.2 21.5 21
  445.3 18.67 18
  445.4 13.85 13
  445.6 11.65 11
  445.7 14.3 14
  445.8 15.77 15
  445.9 14.17 14
  446.1 8.75 8
  446.2 11.1 11
  446.3 16.99 16
  446.4 22.2 22
  446.5 22.2 22
  446.6 16.41 16
  447.5 10.45 10
  447.6 13.26 13
  447.7 15.07 15
  447.8 14.13 14
  447.9 10.7 10
  448.1 7.66 7
  448.2 11.73 11
  448.3 16.25 16
  448.4 17.31 17
  448.5 14.19 14
  449.4 5.47 5
  449.5 10.32 10
  449.6 16.27 16
  449.7 18.21 18
  449.8 14.69 14
  450.0 7.18 7
  450.1 10.61 10
  450.2 16.41 16
  450.3 19.47 19
  450.4 17.28 17
  450.5 12.01 11
  450.7 8.94 8
  450.8 13.36 13
  450.9 17.26 17
  451.0 16.7 16
  451.1 11.77 11
  451.3 7.49 7
  451.4 13.37 13
  451.5 19.68 19
  451.6 20.62 20
  451.7 15.36 15
  452.6 8.59 8
  452.7 16.35 16
  452.8 23.74 23
  452.9 24.52 24
  453.0 17.81 17
  453.1 9.21 9
  453.3 8.99 8
  453.4 14.91 14
  453.5 18.16 18
  453.6 16.81 16
  453.7 12.73 12
  453.9 9.81 9
  454.0 13.82 13
  454.1 18.24 18
  454.2 19.05 19
  454.3 15.2 15
  454.6 10.01 9
  454.7 15.71 15
  454.8 19.26 19
  454.9 17.93 17
  455.0 13.84 13
  455.2 13.05 13
  455.3 16.57 16
  455.4 18.61 18
  455.5 16.8 16
  455.6 12.08 12
  455.8 8.77 8
  455.9 13.26 13
  456.0 17.58 17
  456.1 18.32 18
  456.2 15.5 15
  456.5 11.04 11
  456.6 15.76 15
  456.7 19.56 19
  456.8 19.0 18
  456.9 14.65 14
  457.1 9.53 9
  457.2 12.3 12
  457.3 15.9 15
  457.4 16.67 16
  457.5 13.37 13
  457.7 8.51 8
  457.8 13.12 13
  457.9 19.05 19
  458.0 21.16 21
  458.1 17.95 17
  458.2 12.4 12
  458.4 10.41 10
  458.5 14.43 14
  458.6 16.97 16
  458.7 15.31 15
  458.8 10.62 10
  459.0 6.38 6
  459.1 9.98 9
  459.2 14.65 14
  459.3 17.02 17
  459.4 15.74 15
  459.6 11.53 11
  459.7 14.27 14
  459.8 19.02 19
  459.9 21.36 21
  460.0 18.46 18
  460.1 12.19 12
  460.3 9.55 9
  460.4 15.02 15
  460.5 18.75 18
  460.6 17.04 17
  460.7 11.65 11
  460.9 7.02 7
  461.0 10.73 10
  461.1 15.17 15
  461.2 16.54 16
  461.3 13.55 13
  461.5 7.71 7
  461.6 11.39 11
  461.7 17.21 17
  461.8 20.03 20
  461.9 17.13 17
  462.0 10.97 10
  462.2 7.85 7
  462.3 12.72 12
  462.4 17.17 17
  462.5 17.73 17
  462.6 14.33 14
  462.8 9.37 9
  462.9 12.27 12
  463.0 15.85 15
  463.1 16.59 16
  463.2 14.0 13
  463.4 8.62 8
  463.5 10.59 10
  463.6 15.34 15
  463.7 19.44 19
  463.8 19.47 19
  463.9 15.82 15
  464.7 9.31 9
  464.8 12.59 12
  464.9 15.85 15
  465.0 16.8 16
  465.1 15.09 15
  465.4 11.15 11
  465.5 14.7 14
  465.6 17.53 17
  465.7 16.24 16
  465.8 10.99 10
  466.0 6.27 6
  466.1 12.06 12
  466.2 18.83 18
  466.3 20.96 20
  466.4 17.05 17
  466.5 10.62 10
  466.7 8.17 8
  466.8 12.97 12
  466.9 16.35 16
  467.0 15.18 15
  467.1 11.13 11
  467.3 9.92 9
  467.4 14.14 14
  467.5 17.98 17
  467.6 18.35 18
  467.7 14.37 14
  467.9 6.54 6
  468.0 10.41 10
  468.1 17.5 17
  468.2 21.69 21
  468.3 19.56 19
  468.4 13.61 13
  468.6 11.42 11
  468.7 17.01 16
  468.8 21.4 21
  468.9 21.15 21
  469.0 17.04 17
  469.8 5.82 5
  469.9 9.76 9
  470.0 16.69 16
  470.1 20.46 20
  470.2 18.37 18
  470.3 13.31 13
  470.5 11.02 11
  470.6 14.99 14
  470.7 18.84 18
  470.8 19.48 19
  470.9 16.05 16
  471.1 9.97 9
  471.2 13.15 13
  471.3 17.58 17
  471.4 18.8 18
  471.5 15.76 15
  471.6 11.25 11
  471.8 9.15 9
  471.9 12.33 12
  472.0 16.19 16
  472.1 17.82 17
  472.2 15.33 15
  472.5 10.03 10
  472.6 15.85 15
  472.7 19.36 19
  472.8 16.96 16
  472.9 10.96 10
  473.1 9.53 9
  473.2 15.36 15
  473.3 19.63 19
  473.4 19.04 19
  473.5 14.57 14
  473.7 11.45 11
  473.8 16.7 16
  473.9 21.93 21
  474.0 22.46 22
  474.1 17.76 17
  474.2 11.71 11
  474.4 10.45 10
  474.5 14.85 14
  474.6 18.09 18
  474.7 17.13 17
  474.8 12.21 12
  475.0 7.58 7
  475.1 12.62 12
  475.2 17.42 17
  475.3 17.07 17
  475.4 12.59 12
  475.6 8.99 8
  475.7 12.03 12
  475.8 15.18 15
  475.9 16.32 16
  476.0 14.7 14
  476.3 10.73 10
  476.4 16.25 16
  476.5 21.4 21
  476.6 21.55 21
  476.7 16.03 16
  477.5 6.51 6
  477.6 10.53 10
  477.7 17.44 17
  477.8 20.92 20
  477.9 17.77 17
  478.2 10.13 10
  478.3 16.89 16
  478.4 21.52 21
  478.5 19.98 19
  478.6 14.0 13
  478.8 8.93 8
  478.9 13.02 13
  479.0 17.07 17
  479.1 17.74 17
  479.2 14.65 14
  479.3 9.9 9
  479.5 6.46 6
  479.6 10.29 10
  479.7 14.99 14
  479.8 17.02 17
  479.9 15.63 15
  480.1 13.69 13
  480.2 16.48 16
  480.3 18.38 18
  480.4 16.29 16
  480.5 10.7 10
  480.7 5.49 5
  480.8 10.78 10
  480.9 17.69 17
  481.0 20.91 20
  481.1 18.37 18
  481.2 12.91 12
  481.4 11.09 11
  481.5 15.87 15
  481.6 19.68 19
  481.7 19.16 19
  481.8 14.46 14
  482.7 9.31 9
  482.8 15.31 15
  482.9 20.86 20
  483.0 21.79 21
  483.1 17.42 17
  483.2 11.28 11
  483.9 9.87 9
  484.0 14.29 14
  484.1 19.4 19
  484.2 21.98 21
  484.3 19.69 19
  484.4 13.82 13
  484.6 11.15 11
  484.7 17.04 17
  484.8 21.0 20
  484.9 18.84 18
  485.0 12.35 12
  485.2 7.87 7
  485.3 13.02 13
  485.4 18.19 18
  485.5 19.74 19
  485.6 17.33 17
  485.7 13.04 13
  485.9 10.19 10
  486.0 13.73 13
  486.1 16.69 16
  486.2 15.2 15
  486.3 9.77 9
  486.5 7.39 7
  486.6 14.24 14
  486.7 20.19 20
  486.8 20.35 20
  486.9 15.53 15
  487.0 10.51 10
  487.2 10.75 10
  487.3 13.15 13
  487.4 14.24 14
  487.5 13.82 13
  487.8 12.01 11
  487.9 14.08 14
  488.0 17.02 17
  488.1 18.37 18
  488.2 16.45 16
  489.0 5.62 5
  489.1 9.49 9
  489.2 16.14 16
  489.3 21.0 20
  489.4 20.57 20
  489.5 15.65 15
  489.7 10.21 10
  489.8 14.06 14
  489.9 18.16 18
  490.0 18.43 18
  490.1 14.65 14
  490.4 10.48 10
  490.5 14.51 14
  490.6 17.12 17
  490.7 16.65 16
  491.6 7.01 7
  491.7 11.25 11
  491.8 16.46 16
  491.9 18.8 18
  492.0 16.46 16
  492.1 11.21 11
  492.3 8.22 8
  492.4 13.87 13
  492.5 19.61 19
  492.6 20.62 20
  492.7 16.08 16
  492.9 7.89 7
  493.0 11.41 11
  493.1 17.33 17
  493.2 20.35 20
  493.3 18.56 18
  493.4 14.83 14
  494.1 5.81 5
  494.2 8.17 8
  494.3 13.15 13
  494.4 17.05 17
  494.5 16.73 16
  494.6 12.53 12
  494.8 6.32 6
  494.9 9.21 9
  495.0 14.08 14
  495.1 16.94 16
  495.2 15.82 15
  495.3 12.37 12
  495.5 10.33 10
  495.6 13.61 13
  495.7 16.51 16
  495.8 15.5 15
  495.9 10.56 10
  496.1 7.61 7
  496.2 13.37 13
  496.3 18.35 18
  496.4 18.03 18
  496.5 12.67 12
  496.8 6.53 6
  496.9 13.25 13
  497.0 18.35 18
  497.1 17.97 17
  497.2 13.52 13
  497.4 11.26 11
  497.5 15.97 15
  497.6 20.11 20
  497.7 20.19 20
  497.8 15.65 15
  498.0 7.5 7
  498.1 11.2 11
  498.2 17.23 17
  498.3 19.45 19
  498.4 15.37 15
  498.6 6.35 6
  498.7 11.34 11
  498.8 20.04 20
  498.9 24.62 24
  499.0 20.62 20
  499.1 11.15 11
  499.3 4.8 4
  499.4 11.39 11
  499.5 17.13 17
  499.6 17.05 17
  499.7 12.35 12
  499.9 8.97 8
  500.0 13.66 13
  500.1 18.51 18
  500.2 19.93 19
  500.3 17.18 17
  500.4 12.59 12
  500.6 9.82 9
  500.7 12.81 12
  500.8 15.53 15
  500.9 15.18 15
  501.0 11.44 11
  501.2 8.16 8
  501.3 14.11 14
  501.4 21.28 21
  501.5 23.45 23
  501.6 18.25 18
  501.7 9.6 9
  501.9 6.22 6
  502.0 12.83 12
  502.1 18.37 18
  502.2 18.64 18
  502.3 14.11 14
  502.5 8.48 8
  502.6 12.01 11
  502.7 16.19 16
  502.8 16.96 16
  502.9 13.44 13
  503.1 8.29 8
  503.2 14.24 14
  503.3 23.26 23
  503.4 28.14 28
  503.5 24.97 24
  503.6 16.88 16
  504.4 8.13 8
  504.5 11.9 11
  504.6 17.37 17
  504.7 19.76 19
  504.8 17.28 17
  504.9 12.41 12
  505.1 11.37 11
  505.2 15.98 15
  505.3 18.57 18
  505.4 15.95 15
  505.5 9.81 9
  505.7 5.68 5
  505.8 10.86 10
  505.9 16.62 16
  506.0 18.73 18
  506.1 16.24 16
  506.2 11.89 11
  506.4 10.85 10
  506.5 14.27 14
  506.6 16.51 16
  506.7 15.07 15
  507.0 9.82 9
  507.1 15.39 15
  507.2 19.4 19
  507.3 17.69 17
  507.4 11.66 11
  507.6 6.75 6
  507.7 12.0 11
  507.8 18.62 18
  507.9 21.6 21
  508.0 18.3 18
  508.1 11.39 11
  508.3 10.33 10
  508.4 17.2 17
  508.5 21.32 21
  508.6 19.34 19
  508.7 13.98 13
  508.9 12.56 12
  509.0 17.23 17
  509.1 20.54 20
  509.2 19.68 19
  509.3 14.8 14
  509.6 8.38 8
  509.7 14.53 14
  509.8 18.25 18
  509.9 15.61 15
  510.2 9.79 9
  510.3 15.66 15
  510.4 18.97 18
  510.5 16.88 16
  510.6 10.65 10
  510.8 4.48 4
  510.9 10.16 10
  511.0 17.49 17
  511.1 20.17 20
  511.2 15.97 15
  511.5 9.97 9
  511.6 16.24 16
  511.7 19.84 19
  511.8 18.84 18
  511.9 15.2 15
  512.2 11.47 11
  512.3 14.24 14
  512.4 16.4 16
  512.5 15.47 15
  512.6 11.74 11
  512.8 8.83 8
  512.9 12.57 12
  513.0 15.89 15
  513.1 15.18 15
  513.2 10.67 10
  513.4 5.41 5
  513.5 8.72 8
  513.6 13.63 13
  513.7 17.37 17
  513.8 18.22 18
  513.9 16.11 16
  514.1 12.05 12
  514.2 14.94 14
  514.3 19.02 19
  514.4 19.85 19
  514.5 16.35 16
  514.7 13.25 13
  514.8 17.9 17
  514.9 21.42 21
  515.0 19.58 19
  515.1 13.45 13
  515.3 8.83 8
  515.4 13.5 13
  515.5 18.0 17
  515.6 18.53 18
  515.7 14.97 14
  516.6 8.88 8
  516.7 13.92 13
  516.8 20.2 20
  516.9 23.0 22
  517.0 20.22 20
  517.1 14.97 14
  517.8 9.26 9
  517.9 12.91 12
  518.0 17.68 17
  518.1 19.04 19
  518.2 15.5 15
  518.5 10.32 10
  518.6 16.21 16
  518.7 21.45 21
  518.8 21.85 21
  518.9 16.41 16
  519.2 10.41 10
  519.3 16.14 16
  519.4 19.05 19
  519.5 17.01 16
  519.6 11.66 11
  519.8 8.13 8
  519.9 12.93 12
  520.0 17.01 16
  520.1 16.48 16
  520.4 11.15 11
  520.5 15.98 15
  520.6 19.61 19
  520.7 18.57 18
  520.8 13.52 13
  521.1 8.46 8
  521.2 14.22 14
  521.3 19.21 19
  521.4 19.68 19
  521.5 15.39 15
  521.7 10.37 10
  521.8 15.09 15
  521.9 20.4 20
  522.0 21.37 21
  522.1 17.07 17
  522.2 10.99 10
  522.4 8.51 8
  522.5 12.29 12
  522.6 15.55 15
  522.7 15.97 15
  523.0 12.4 12
  523.1 16.48 16
  523.2 20.7 20
  523.3 20.86 20
  523.4 15.9 15
  523.6 8.45 8
  523.7 12.97 12
  523.8 18.69 18
  523.9 19.98 19
  524.0 16.03 16
  524.2 10.33 10
  524.3 14.81 14
  524.4 21.26 21
  524.5 23.95 23
  524.6 19.66 19
  524.7 10.96 10
  524.9 6.67 6
  525.0 14.37 14
  525.1 20.78 20
  525.2 20.4 20
  525.3 14.46 14
  525.5 8.49 8
  525.6 12.38 12
  525.7 16.72 16
  525.8 18.0 17
  525.9 15.33 15
  526.0 10.89 10
  526.2 9.34 9
  526.3 13.41 13
  526.4 16.81 16
  526.5 16.25 16
  526.6 11.6 11
  526.8 5.25 5
  526.9 9.71 9
  527.0 16.53 16
  527.1 20.09 20
  527.2 17.79 17
  527.5 11.05 11
  527.6 17.37 17
  527.7 21.6 21
  527.8 19.37 19
  527.9 12.67 12
  528.1 8.61 8
  528.2 13.61 13
  528.3 18.24 18
  528.4 19.21 19
  528.5 16.21 16
  529.4 7.69 7
  529.5 13.58 13
  529.6 18.35 18
  529.7 17.36 17
  529.8 11.6 11
  530.0 6.94 6
  530.1 12.32 12
  530.2 18.99 18
  530.3 22.94 22
  530.4 22.16 22
  530.5 17.74 17
  531.4 11.02 11
  531.5 15.25 15
  531.6 17.69 17
  531.7 16.8 16
  531.8 13.18 13
  532.6 12.08 12
  532.7 14.56 14
  532.8 16.32 16
  532.9 15.12 15
  533.0 11.57 11
  533.2 9.04 9
  533.3 13.1 13
  533.4 17.1 17
  533.5 16.7 16
  533.6 11.57 11
  533.8 6.3 6
  533.9 12.99 12
  534.0 21.13 21
  534.1 23.95 23
  534.2 19.47 19
  534.3 12.03 12
  534.5 8.93 8
  534.6 14.45 14
  534.7 19.79 19
  534.8 20.38 20
  534.9 14.93 14
  535.1 4.93 4
  535.2 9.71 9
  535.3 17.69 17
  535.4 21.6 21
  535.5 18.32 18
  535.6 11.1 11
  535.8 6.8 6
  535.9 12.37 12
  536.0 17.61 17
  536.1 17.47 17
  536.2 11.66 11
  536.4 4.9 4
  536.5 11.07 11
  536.6 18.84 18
  536.7 22.16 22
  536.8 19.05 19
  536.9 13.15 13
  537.1 12.0 11
  537.2 17.33 17
  537.3 20.59 20
  537.4 17.79 17
  537.5 10.14 10
  537.7 3.28 3
  537.8 9.37 9
  537.9 16.62 16
  538.0 19.37 19
  538.1 16.29 16
  538.4 11.28 11
  538.5 15.66 15
  538.6 18.05 18
  538.7 16.99 16
  539.0 14.35 14
  539.1 17.41 17
  539.2 19.5 19
  539.3 18.0 17
  539.4 12.85 12
  539.6 5.92 5
  539.7 9.65 9
  539.8 15.28 15
  539.9 17.81 17
  540.0 15.07 15
  540.3 9.53 9
  540.4 15.23 15
  540.5 19.71 19
  540.6 18.86 18
  540.7 12.72 12
  540.9 6.05 6
  541.0 12.3 12
  541.1 19.31 19
  541.2 20.43 20
  541.3 15.12 15
  541.5 8.01 8
  541.6 12.7 12
  541.7 18.45 18
  541.8 19.84 19
  541.9 15.44 15
  542.0 8.67 8
  542.2 6.53 6
  542.3 12.29 12
  542.4 17.37 17
  542.5 17.79 17
  542.6 13.37 13
  542.8 7.34 7
  542.9 11.05 11
  543.0 15.82 15
  543.1 17.84 17
  543.2 15.89 15
  543.3 11.42 11
  543.5 6.72 6
  543.6 9.87 9
  543.7 13.98 13
  543.8 15.26 15
  544.1 11.12 11
  544.2 16.93 16
  544.3 22.04 22
  544.4 20.65 20
  544.5 12.57 12
  544.7 2.4 2
  544.8 8.22 8
  544.9 16.32 16
  545.0 20.68 20
  545.1 19.44 19
  545.2 15.39 15
  545.4 13.92 13
  545.5 17.34 17
  545.6 19.66 19
  545.7 18.48 18
  545.8 14.49 14
  546.0 10.72 10
  546.1 13.65 13
  546.2 16.94 16
  546.3 17.79 17
  546.4 15.31 15
  546.5 10.99 10
  546.7 8.67 8
  546.8 12.81 12
  546.9 16.4 16
  547.0 16.06 16
  547.9 3.2 3
  548.0 7.71 7
  548.1 15.31 15
  548.2 19.9 19
  548.3 17.61 17
  548.4 10.73 10
  548.6 6.02 6
  548.7 10.88 10
  548.8 15.6 15
  548.9 16.88 16
  549.0 14.49 14
  549.2 9.92 9
  549.3 13.21 13
  549.4 18.56 18
  549.5 21.15 21
  549.6 18.13 18
  549.7 11.84 11
  549.9 9.29 9
  550.0 14.56 14
  550.1 18.67 18
  550.2 18.3 18
  550.3 14.32 14
  550.5 9.61 9
  550.6 12.56 12
  550.7 16.13 16
  550.8 16.43 16
  550.9 12.38 12
  551.1 5.14 5
  551.2 8.75 8
  551.3 15.2 15
  551.4 18.91 18
  551.5 16.51 16
  551.6 9.82 9
  551.8 4.98 4
  551.9 10.16 10
  552.0 15.25 15
  552.1 16.48 16
  552.4 13.93 13
  552.5 17.81 17
  552.6 20.91 20
  552.7 19.95 19
  552.8 14.78 14
  552.9 8.61 8
  553.1 8.09 8
  553.2 13.36 13
  553.3 16.85 16
  553.4 15.39 15
  553.5 10.54 10
  553.7 8.05 8
  553.8 13.23 13
  553.9 18.8 18
  554.0 20.52 20
  554.1 16.75 16
  554.3 7.31 7
  554.4 10.94 10
  554.5 18.19 18
  554.6 22.59 22
  554.7 20.67 20
  554.8 15.17 15
  555.0 14.0 13
  555.1 19.07 19
  555.2 21.66 21
  555.3 19.04 19
  555.4 13.6 13
  555.6 11.77 11
  555.7 16.38 16
  555.8 20.8 20
  555.9 22.06 22
  556.0 18.75 18
  556.1 11.74 11
  556.3 3.81 3
  556.4 8.16 8
  556.5 13.69 13
  556.6 15.18 15
  556.7 12.01 11
  556.9 7.28 7
  557.0 10.05 10
  557.1 13.87 13
  557.2 15.66 15
  557.3 13.77 13
  557.6 9.77 9
  557.7 13.82 13
  557.8 16.24 16
  557.9 15.23 15
  558.0 12.09 12
  558.2 9.52 9
  558.3 12.06 12
  558.4 14.83 14
  558.5 15.17 15
  558.6 12.57 12
  558.8 9.04 9
  558.9 12.64 12
  559.0 17.39 17
  559.1 18.62 18
  559.2 14.4 14
  559.5 7.33 7
  559.6 14.77 14
  559.7 20.6 20
  559.8 19.98 19
  559.9 13.68 13
  560.1 6.45 6
  560.2 11.05 11
  560.3 16.72 16
  560.4 18.83 18
  560.5 16.62 16
  560.8 13.65 13
  560.9 17.13 17
  561.0 19.13 19
  561.1 18.0 17
  561.2 14.37 14
  561.4 10.62 10
  561.5 13.6 13
  561.6 17.34 17
  561.7 18.57 18
  561.8 16.19 16
  561.9 12.14 12
  562.1 10.83 10
  562.2 14.01 13
  562.3 15.52 15
  562.4 13.01 12
  562.7 7.85 7
  562.8 13.58 13
  562.9 18.09 18
  563.0 17.65 17
  563.1 12.54 12
  563.3 4.91 4
  563.4 8.08 8
  563.5 13.93 13
  563.6 17.92 17
  563.7 16.75 16
  563.8 12.0 11
  564.0 10.21 10
  564.1 14.03 14
  564.2 15.44 15
  564.3 12.46 12
  564.5 7.29 7
  564.6 11.74 11
  564.7 17.97 17
  564.8 20.92 20
  564.9 18.29 18
  565.0 12.27 12
  565.2 7.45 7
  565.3 11.31 11
  565.4 14.86 14
  565.5 14.37 14
  565.6 10.22 10
  565.8 7.58 7
  565.9 12.93 12
  566.0 18.91 18
  566.1 21.55 21
  566.2 19.23 19
  566.3 13.5 13
  566.5 7.29 7
  566.6 11.23 11
  566.7 16.24 16
  566.8 17.73 17
  566.9 14.27 14
  567.1 6.85 6
  567.2 11.29 11
  567.3 19.79 19
  567.4 25.1 25
  567.5 21.6 21
  567.6 11.53 11
  567.8 3.52 3
  567.9 10.56 10
  568.0 17.18 17
  568.1 17.79 17
  568.2 12.51 12
  568.4 5.02 5
  568.5 9.97 9
  568.6 17.21 17
  568.7 20.59 20
  568.8 17.9 17
  568.9 12.69 12
  569.1 11.12 11
  569.2 14.64 14
  569.3 17.33 17
  569.4 17.21 17
  569.5 14.65 14
  569.7 12.38 12
  569.8 15.02 15
  569.9 17.17 17
  570.0 16.43 16
  570.1 13.47 13
  570.9 10.21 10
  571.0 13.68 13
  571.1 18.38 18
  571.2 20.36 20
  571.3 17.34 17
  571.4 11.5 11
  571.6 7.21 7
  571.7 10.41 10
  571.8 14.32 14
  571.9 16.22 16
  572.0 15.01 14
  572.2 10.89 10
  572.3 13.42 13
  572.4 18.64 18
  572.5 22.3 22
  572.6 20.6 20
  572.7 14.06 14
  572.9 6.02 6
  573.0 9.9 9
  573.1 15.34 15
  573.2 17.58 17
  573.3 15.12 15
  573.5 9.12 9
  573.6 11.9 11
  573.7 16.75 16
  573.8 19.23 19
  573.9 16.57 16
  574.0 10.45 10
  574.2 6.3 6
  574.3 10.73 10
  574.4 14.35 14
  574.5 13.95 13
  574.7 8.67 8
  574.8 10.99 10
  574.9 17.13 17
  575.0 22.65 22
  575.1 22.94 22
  575.2 17.44 17
  575.3 10.65 10
  575.5 10.27 10
  575.6 14.78 14
  575.7 17.04 17
  575.8 15.12 15
  575.9 10.57 10
  576.1 7.84 7
  576.2 12.45 12
  576.3 18.05 18
  576.4 21.16 21
  576.5 20.12 20
  576.6 16.03 16
  576.8 12.32 12
  576.9 15.39 15
  577.0 17.57 17
  577.1 15.37 15
  577.3 7.15 7
  577.4 10.43 10
  577.5 17.9 17
  577.6 23.29 23
  577.7 22.27 22
  577.8 16.38 16
  578.0 10.4 10
  578.1 13.49 13
  578.2 16.7 16
  578.3 16.96 16
  578.4 13.65 13
  578.6 5.87 5
  578.7 8.43 8
  578.8 15.53 15
  578.9 21.74 21
  579.0 21.52 21
  579.1 14.8 14
  579.3 6.75 6
  579.4 13.47 13
  579.5 21.6 21
  579.6 23.66 23
  579.7 18.03 18
  580.6 4.42 4
  580.7 8.89 8
  580.8 13.15 13
  580.9 13.85 13
  581.2 10.99 10
  581.3 15.29 15
  581.4 19.04 19
  581.5 19.05 19
  581.6 15.23 15
  581.7 10.29 10
  581.9 8.3 8
  582.0 12.69 12
  582.1 17.87 17
  582.2 20.2 20
  582.3 17.98 17
  583.2 11.23 11
  583.3 15.89 15
  583.4 19.13 19
  583.5 17.92 17
  583.6 13.45 13
  583.8 10.25 10
  583.9 13.49 13
  584.0 16.75 16
  584.1 17.63 17
  584.2 15.5 15
  584.3 11.9 11
  584.5 10.65 10
  584.6 13.71 13
  584.7 15.6 15
  584.8 14.43 14
  585.0 11.01 10
  585.1 13.65 13
  585.2 16.96 16
  585.3 17.02 17
  585.4 12.8 12
  585.6 4.85 4
  585.7 7.82 7
  585.8 14.25 14
  585.9 19.84 19
  586.0 20.89 20
  586.1 17.04 17
  586.2 11.36 11
  586.4 10.01 9
  586.5 14.38 14
  586.6 16.83 16
  586.7 14.65 14
  586.8 9.33 9
  587.0 7.17 7
  587.1 13.95 13
  587.2 20.67 20
  587.3 21.47 21
  587.4 15.17 15
  587.7 6.81 6
  587.8 15.28 15
  587.9 20.99 20
  588.0 19.58 19
  588.1 12.83 12
  588.3 8.25 8
  588.4 14.48 14
  588.5 19.66 19
  588.6 18.56 18
  588.7 12.27 12
  588.9 5.9 5
  589.0 9.71 9
  589.1 14.01 13
  589.2 15.26 15
  589.3 12.91 12
  589.5 7.9 7
  589.6 10.48 10
  589.7 15.01 14
  589.8 17.04 17
  589.9 14.03 14
  590.0 8.05 8
  590.2 5.52 5
  590.3 11.34 11
  590.4 16.77 16
  590.5 18.01 17
  590.6 15.36 15
  591.5 9.63 9
  591.6 15.5 15
  591.7 20.11 20
  591.8 19.56 19
  591.9 15.02 15
  592.1 12.06 12
  592.2 16.57 16
  592.3 20.68 20
  592.4 20.35 20
  592.5 15.26 15
  592.6 8.89 8
  592.8 7.63 7
  592.9 12.93 12
  593.0 17.39 17
  593.1 17.37 17
  593.2 12.91 12
  593.4 7.57 7
  593.5 10.91 10
  593.6 14.37 14
  593.7 14.65 14
  593.8 11.89 11
  594.0 7.93 7
  594.1 10.88 10
  594.2 15.98 15
  594.3 19.28 19
  594.4 17.42 17
  594.5 11.41 11
  594.7 6.65 6
  594.8 12.19 12
  594.9 17.73 17
  595.0 18.37 18
  595.1 13.93 13
  595.3 7.77 7
  595.4 12.14 12
  595.5 17.76 17
  595.6 19.4 19
  595.7 15.84 15
  595.9 9.34 9
  596.0 12.29 12
  596.1 17.07 17
  596.2 19.58 19
  596.3 17.04 17
  596.4 10.88 10
  596.6 7.28 7
  596.7 13.39 13
  596.8 19.26 19
  596.9 20.33 20
  597.0 16.67 16
  597.1 11.74 11
  597.3 10.69 10
  597.4 14.11 14
  597.5 16.45 16
  597.6 15.47 15
  597.9 11.47 11
  598.0 15.37 15
  598.1 17.31 17
  598.2 14.99 14
  598.3 10.13 10
  598.5 7.07 7
  598.6 12.11 12
  598.7 18.49 18
  598.8 21.9 21
  598.9 20.14 20
  599.0 15.21 15
  599.2 12.27 12
  599.3 16.03 16
  599.4 18.16 18
  599.5 15.76 15
  599.6 10.83 10
//
