ACCESSION: MSBNK-RIKEN_NPDepo-NGA01118
RECORD_TITLE: Aucubin; LC-ESI-QQQ; MS2; Frag=135.0V CID@10.0; [M+Na]+
DATE: 2018.04.04
AUTHORS: Nogawa T, Okano A, CSRS, RIKEN
LICENSE: CC BY
COMMENT: Origin: Plant
COMMENT: SubCategory_DNP: Monoterpenoids, Iridoid monoterpenoids
CH$NAME: Aucubin
CH$COMPOUND_CLASS: Terpenoids
CH$FORMULA: C15H22O9
CH$EXACT_MASS: 346.3372
CH$SMILES: OCC1=C[C@@H](O)[C@@H]2C=COC(OC3OC(CO)C(O)C(O)C3O)[C@H]12
CH$IUPAC: InChI=1S/C15H22O9/c16-4-6-3-8(18)7-1-2-22-14(10(6)7)24-15-13(21)12(20)11(19)9(5-17)23-15/h1-3,7-21H,4-5H2/t7-,8+,9?,10+,11?,12?,13?,14?,15?/m0/s1
CH$LINK: CAS 479-98-1
CH$LINK: CHEMSPIDER 82585
CH$LINK: INCHIKEY RJWJHRPNHPHBRN-JKKFXBJFSA-N
AC$INSTRUMENT: Agilent 6410 Triple Quadrupole LC/MS system
AC$INSTRUMENT_TYPE: LC-ESI-QQQ
AC$MASS_SPECTROMETRY: MS_TYPE MS2
AC$MASS_SPECTROMETRY: ION_MODE POSITIVE
MS$FOCUSED_ION: PRECURSOR_TYPE [M+Na]+
PK$SPLASH: splash10-014i-0009000000-34da75b009d3ebb2fc46
PK$NUM_PEAK: 15
PK$PEAK: m/z int. rel.int.
  368.3 0.78 0
  368.4 2.64 2
  368.5 7.37 7
  368.6 16.06 16
  368.7 30.6 30
  368.8 51.66 51
  368.9 75.13 75
  369.0 93.25 93
  369.1 100.0 99
  369.2 95.47 95
  369.3 83.38 83
  369.4 65.49 65
  369.5 42.29 42
  369.6 18.9 18
  369.7 3.13 3
//
