ACCESSION: MSBNK-RIKEN_NPDepo-NGA03682
RECORD_TITLE: Ajmaline; LC-ESI-QQQ; MS2; Frag=135.0V CID@15.0; [M+HCOO]-
DATE: 2018.04.04
AUTHORS: Nogawa T, Okano A, CSRS, RIKEN
LICENSE: CC BY
COMMENT: Origin: Plant
COMMENT: Formula(Parent): C20H26N2O2
COMMENT: Bottle Name:Ajmaline
COMMENT: PRIME Parent Name:Ajmaline
COMMENT: PRIME in-house No.:V0319
COMMENT: SubCategory_DNP: Monoterpenoid indole alkaloids, Ajmaline alkaloids, Indole alkaloids
CH$NAME: Ajmalin
CH$NAME: Cardiorythmine
CH$NAME: Raugalline
CH$NAME: Rauwolfine
CH$NAME: Tachmalin
CH$NAME: Ajmalan-17,21-diol
CH$NAME: (13S,16S,18S,1R,14R,17R)-13-ethyl-8-methyl-8,15-diazahexacyclo(14.2.1.0(1,9).0(2,7).0(10,15).0(12,17))nonadeca-2(7),3,5-triene-14,18-diol
CH$NAME: Ajmaline
CH$COMPOUND_CLASS: Alkaloids
CH$FORMULA: C20H26N2O2
CH$EXACT_MASS: 326.4424
CH$SMILES: CC[C@H]1C2CC3C4N(C)c5ccccc5[C@]45C[C@@H](C2C5O)N3[C@@H]1O
CH$IUPAC: InChI=1S/C20H26N2O2/c1-3-10-11-8-14-17-20(12-6-4-5-7-13(12)21(17)2)9-15(16(11)18(20)23)22(14)19(10)24/h4-7,10-11,14-19,23-24H,3,8-9H2,1-2H3/t10-,11?,14?,15-,16?,17?,18?,19+,20+/m0/s1
CH$LINK: CAS 4360-12-7
CH$LINK: CHEMSPIDER 10469368
CH$LINK: INCHIKEY CJDRUOGAGYHKKD-GHVJXGQCSA-N
AC$INSTRUMENT: Agilent 6410 Triple Quadrupole LC/MS system
AC$INSTRUMENT_TYPE: LC-ESI-QQQ
AC$MASS_SPECTROMETRY: MS_TYPE MS2
AC$MASS_SPECTROMETRY: ION_MODE NEGATIVE
MS$FOCUSED_ION: PRECURSOR_TYPE [M+HCOO]-
PK$SPLASH: splash10-00di-4898880000-3c58d7742ca2fa6a66a2
PK$NUM_PEAK: 3740
PK$PEAK: m/z int. rel.int.
  50.8 1.65 1
  50.9 5.87 5
  51.0 11.83 11
  51.1 14.8 14
  51.2 12.77 12
  51.5 7.86 7
  51.6 12.69 12
  51.7 15.72 15
  51.8 13.72 13
  51.9 7.64 7
  52.1 1.45 1
  52.2 6.24 6
  52.3 12.21 12
  52.4 14.57 14
  52.5 11.79 11
  52.8 6.79 6
  52.9 11.87 11
  53.0 15.37 15
  53.1 14.61 14
  53.2 10.56 10
  54.1 6.03 6
  54.2 10.42 10
  54.3 14.08 14
  54.4 13.84 13
  54.5 9.96 9
  54.7 6.9 6
  54.8 11.35 11
  54.9 15.23 15
  55.0 14.17 14
  55.1 8.46 8
  55.3 2.52 2
  55.4 7.98 7
  55.5 15.07 15
  55.6 18.14 18
  55.7 14.67 14
  55.8 7.73 7
  56.0 4.71 4
  56.1 10.48 10
  56.2 15.59 15
  56.3 16.16 16
  56.4 12.33 12
  56.6 6.49 6
  56.7 9.74 9
  56.8 14.39 14
  56.9 15.67 15
  57.0 11.93 11
  57.9 6.47 6
  58.0 10.09 10
  58.1 12.93 12
  58.2 12.53 12
  58.3 9.0 8
  58.5 3.69 3
  58.6 7.09 7
  58.7 12.77 12
  58.8 16.09 16
  58.9 14.48 14
  59.2 9.33 9
  59.3 13.76 13
  59.4 16.25 16
  59.5 13.98 13
  59.6 8.65 8
  59.8 5.29 5
  59.9 9.63 9
  60.0 14.25 14
  60.1 15.7 15
  60.2 13.16 13
  60.5 7.28 7
  60.6 11.65 11
  60.7 15.4 15
  60.8 15.43 15
  60.9 12.42 12
  61.1 9.84 9
  61.2 13.0 12
  61.3 16.53 16
  61.4 16.76 16
  61.5 12.43 12
  62.4 4.28 4
  62.5 9.14 9
  62.6 14.1 14
  62.7 15.08 15
  62.8 11.38 11
  63.0 5.4 5
  63.1 8.92 8
  63.2 13.44 13
  63.3 14.13 14
  63.4 9.94 9
  63.6 4.0 3
  63.7 8.24 8
  63.8 14.0 13
  63.9 16.4 16
  64.0 13.46 13
  64.1 7.44 7
  64.3 2.8 2
  64.4 6.47 6
  64.5 10.75 10
  64.6 12.36 12
  64.7 10.23 10
  65.0 5.56 5
  65.1 9.99 9
  65.2 13.03 13
  65.3 11.77 11
  65.4 7.36 7
  65.6 4.92 4
  65.7 9.56 9
  65.8 13.06 13
  65.9 11.38 11
  66.2 3.19 3
  66.3 10.22 10
  66.4 16.88 16
  66.5 18.17 18
  66.6 13.94 13
  66.9 8.23 8
  67.0 12.88 12
  67.1 15.59 15
  67.2 13.54 13
  67.3 8.18 8
  67.5 4.61 4
  67.6 8.9 8
  67.7 13.02 13
  67.8 13.57 13
  67.9 10.63 10
  68.8 4.08 4
  68.9 8.77 8
  69.0 13.13 13
  69.1 14.22 14
  69.2 11.26 11
  69.5 6.88 6
  69.6 11.07 11
  69.7 13.21 13
  69.8 11.36 11
  70.1 8.04 8
  70.2 13.35 13
  70.3 16.79 16
  70.4 14.57 14
  70.5 8.08 8
  70.7 3.62 3
  70.8 9.08 9
  70.9 14.22 14
  71.0 14.66 14
  71.1 10.29 10
  71.3 3.53 3
  71.4 6.97 6
  71.5 12.77 12
  71.6 16.28 16
  71.7 14.76 14
  71.8 9.84 9
  72.0 7.19 7
  72.1 11.33 11
  72.2 14.28 14
  72.3 13.15 13
  72.4 8.98 8
  72.6 4.99 4
  72.7 7.77 7
  72.8 11.22 11
  72.9 12.58 12
  73.0 10.86 10
  73.2 6.65 6
  73.3 9.03 9
  73.4 13.48 13
  73.5 16.49 16
  73.6 15.55 15
  73.7 11.33 11
  74.0 6.78 6
  74.1 9.84 9
  74.2 11.68 11
  74.3 10.48 10
  74.6 5.65 5
  74.7 10.48 10
  74.8 14.51 14
  74.9 13.72 13
  75.2 7.07 7
  75.3 12.18 12
  75.4 15.81 15
  75.5 14.61 14
  75.6 10.01 9
  75.8 6.59 6
  75.9 9.91 9
  76.0 13.15 13
  76.1 13.67 13
  76.2 11.32 11
  76.4 7.75 7
  76.5 10.4 10
  76.6 14.3 14
  76.7 15.62 15
  76.8 12.39 12
  77.1 7.09 7
  77.2 12.66 12
  77.3 16.28 16
  77.4 14.83 14
  77.5 9.71 9
  77.7 4.92 4
  77.8 8.23 8
  77.9 11.74 11
  78.0 12.25 12
  78.1 9.5 9
  78.4 5.86 5
  78.5 9.96 9
  78.6 13.85 13
  78.7 14.39 14
  78.8 10.64 10
  79.7 6.88 6
  79.8 11.41 11
  79.9 14.35 14
  80.0 13.57 13
  80.1 10.09 10
  80.3 7.54 7
  80.4 10.15 10
  80.5 12.02 12
  80.6 11.02 11
  80.7 7.79 7
  80.9 4.61 4
  81.0 7.58 7
  81.1 11.89 11
  81.2 14.25 14
  81.3 12.62 12
  81.6 7.66 7
  81.7 11.63 11
  81.8 13.97 13
  81.9 12.09 12
  82.0 7.26 7
  82.2 4.51 4
  82.3 9.85 9
  82.4 15.61 15
  82.5 17.29 17
  82.6 13.79 13
  83.5 7.58 7
  83.6 11.87 11
  83.7 15.02 15
  83.8 14.61 14
  83.9 11.24 11
  84.8 5.37 5
  84.9 8.93 8
  85.0 12.8 12
  85.1 13.07 13
  85.2 9.31 9
  85.4 5.11 5
  85.5 9.22 9
  85.6 14.1 14
  85.7 15.7 15
  85.8 12.53 12
  86.1 5.49 5
  86.2 11.26 11
  86.3 15.53 15
  86.4 14.03 14
  86.5 8.1 8
  86.7 4.57 4
  86.8 9.71 9
  86.9 14.08 14
  87.0 13.98 13
  87.1 9.9 9
  87.3 6.21 6
  87.4 10.57 10
  87.5 14.95 14
  87.6 15.27 15
  87.7 11.24 11
  88.6 5.1 5
  88.7 10.2 10
  88.8 15.33 15
  88.9 16.18 16
  89.0 12.43 12
  89.9 7.23 7
  90.0 11.83 11
  90.1 15.42 15
  90.2 14.98 14
  90.3 11.11 11
  90.5 7.39 7
  90.6 11.11 11
  90.7 15.3 15
  90.8 15.99 15
  90.9 11.96 11
  91.0 5.86 5
  91.2 3.44 3
  91.3 8.84 8
  91.4 14.04 14
  91.5 14.69 14
  91.6 10.32 10
  91.8 4.44 4
  91.9 8.14 8
  92.0 12.24 12
  92.1 12.64 12
  92.2 9.28 9
  92.4 4.95 4
  92.5 8.18 8
  92.6 12.87 12
  92.7 14.86 14
  92.8 11.87 11
  92.9 6.13 6
  93.1 3.37 3
  93.2 7.73 7
  93.3 11.67 11
  93.4 12.24 12
  93.5 9.52 9
  93.7 6.56 6
  93.8 10.41 10
  93.9 15.18 15
  94.0 16.88 16
  94.1 13.76 13
  94.2 7.99 7
  94.4 5.43 5
  94.5 10.78 10
  94.6 15.04 15
  94.7 14.04 14
  94.8 9.09 9
  95.0 7.07 7
  95.1 11.98 11
  95.2 15.94 15
  95.3 15.65 15
  95.4 11.41 11
  96.3 3.59 3
  96.4 8.08 8
  96.5 13.12 13
  96.6 14.48 14
  96.7 11.05 11
  97.0 5.07 5
  97.1 9.85 9
  97.2 13.47 13
  97.3 12.68 12
  97.6 7.07 7
  97.7 12.52 12
  97.8 16.52 16
  97.9 15.29 15
  98.0 10.19 10
  98.2 6.03 6
  98.3 9.87 9
  98.4 13.75 13
  98.5 14.01 13
  98.6 10.16 10
  98.9 6.22 6
  99.0 11.55 11
  99.1 14.92 14
  99.2 13.34 13
  99.3 8.35 8
  99.5 5.62 5
  99.6 10.41 10
  99.7 14.98 14
  99.8 15.29 15
  99.9 10.56 10
  100.1 2.81 2
  100.2 7.26 7
  100.3 14.08 14
  100.4 17.29 17
  100.5 14.41 14
  100.8 7.94 7
  100.9 12.49 12
  101.0 14.93 14
  101.1 13.0 12
  101.2 8.24 8
  101.4 4.52 4
  101.5 8.32 8
  101.6 12.87 12
  101.7 14.39 14
  101.8 11.19 11
  102.1 5.68 5
  102.2 11.54 11
  102.3 15.1 15
  102.4 13.13 13
  102.7 6.16 6
  102.8 12.45 12
  102.9 17.86 17
  103.0 17.99 17
  103.1 12.64 12
  104.0 7.35 7
  104.1 12.45 12
  104.2 15.9 15
  104.3 15.05 15
  104.4 10.34 10
  104.6 3.56 3
  104.7 7.12 7
  104.8 12.72 12
  104.9 15.24 15
  105.0 12.14 12
  105.3 4.28 4
  105.4 10.51 10
  105.5 15.72 15
  105.6 15.43 15
  105.7 10.13 10
  105.9 4.39 4
  106.0 8.52 8
  106.1 12.74 12
  106.2 13.02 13
  106.3 9.34 9
  106.5 4.63 4
  106.6 8.1 8
  106.7 12.86 12
  106.8 14.89 14
  106.9 12.47 12
  107.0 7.76 7
  107.2 4.54 4
  107.3 7.57 7
  107.4 10.97 10
  107.5 12.18 12
  107.8 8.54 8
  107.9 10.76 10
  108.0 13.29 13
  108.1 13.69 13
  108.2 11.2 11
  108.4 6.05 6
  108.5 8.71 8
  108.6 13.57 13
  108.7 16.06 16
  108.8 13.5 13
  108.9 7.99 7
  109.1 5.31 5
  109.2 10.01 9
  109.3 14.3 14
  109.4 14.41 14
  109.5 10.12 10
  109.7 4.47 4
  109.8 8.23 8
  109.9 12.84 12
  110.0 14.14 14
  110.1 11.16 11
  110.4 6.02 6
  110.5 10.83 10
  110.6 14.7 14
  110.7 14.45 14
  110.8 10.56 10
  111.0 5.71 5
  111.1 8.58 8
  111.2 12.46 12
  111.3 13.87 13
  111.4 11.38 11
  111.7 7.19 7
  111.8 11.6 11
  111.9 14.47 14
  112.0 13.37 13
  112.1 9.46 9
  112.3 6.41 6
  112.4 9.4 9
  112.5 12.69 12
  112.6 13.72 13
  112.7 11.61 11
  113.0 8.1 8
  113.1 12.18 12
  113.2 14.47 14
  113.3 12.86 12
  114.2 3.27 3
  114.3 8.61 8
  114.4 14.04 14
  114.5 15.14 15
  114.6 11.8 11
  115.5 6.88 6
  115.6 11.46 11
  115.7 15.27 15
  115.8 15.23 15
  115.9 11.27 11
  116.2 6.53 6
  116.3 10.72 10
  116.4 12.86 12
  116.5 10.85 10
  116.8 6.79 6
  116.9 11.39 11
  117.0 15.04 15
  117.1 15.1 15
  117.2 11.51 11
  118.1 6.41 6
  118.2 12.02 12
  118.3 15.55 15
  118.4 14.57 14
  118.5 10.63 10
  118.7 7.0 6
  118.8 9.72 9
  118.9 13.02 13
  119.0 13.79 13
  119.1 10.7 10
  119.4 6.06 6
  119.5 11.84 11
  119.6 15.93 15
  119.7 15.15 15
  119.8 10.86 10
  120.0 7.44 7
  120.1 10.44 10
  120.2 12.68 12
  120.3 11.45 11
  120.4 7.38 7
  120.6 2.74 2
  120.7 5.43 5
  120.8 9.63 9
  120.9 11.96 11
  121.0 10.5 10
  121.2 5.53 5
  121.3 8.89 8
  121.4 14.98 14
  121.5 18.37 18
  121.6 15.43 15
  121.7 8.14 8
  121.9 3.41 3
  122.0 9.31 9
  122.1 15.02 15
  122.2 15.59 15
  122.3 10.66 10
  122.6 5.87 5
  122.7 11.89 11
  122.8 15.51 15
  122.9 14.03 14
  123.2 7.42 7
  123.3 12.74 12
  123.4 16.88 16
  123.5 15.78 15
  123.6 10.22 10
  123.8 4.8 4
  123.9 9.17 9
  124.0 14.19 14
  124.1 15.52 15
  124.2 12.09 12
  124.5 5.34 5
  124.6 10.07 10
  124.7 13.81 13
  124.8 13.63 13
  124.9 10.1 10
  125.7 5.49 5
  125.8 8.27 8
  125.9 12.84 12
  126.0 14.8 14
  126.1 12.45 12
  126.4 7.0 6
  126.5 10.98 10
  126.6 14.1 14
  126.7 13.28 13
  126.8 8.76 8
  127.0 3.78 3
  127.1 8.26 8
  127.2 13.85 13
  127.3 15.51 15
  127.4 11.67 11
  128.3 8.18 8
  128.4 12.66 12
  128.5 15.89 15
  128.6 14.86 14
  128.7 9.9 9
  128.9 3.78 3
  129.0 7.48 7
  129.1 12.68 12
  129.2 15.08 15
  129.3 12.88 12
  129.6 6.81 6
  129.7 11.54 11
  129.8 14.9 14
  129.9 13.59 13
  130.0 8.46 8
  130.2 3.87 3
  130.3 7.83 7
  130.4 11.9 11
  130.5 12.24 12
  130.6 8.76 8
  130.8 4.93 4
  130.9 8.4 8
  131.0 12.21 12
  131.1 12.97 12
  131.2 10.41 10
  131.5 7.7 7
  131.6 11.14 11
  131.7 13.63 13
  131.8 13.09 13
  131.9 9.63 9
  132.8 4.73 4
  132.9 9.94 9
  133.0 13.6 13
  133.1 12.68 12
  133.2 8.27 8
  133.4 5.14 5
  133.5 9.65 9
  133.6 13.91 13
  133.7 13.84 13
  133.8 9.59 9
  134.0 5.67 5
  134.1 9.71 9
  134.2 13.95 13
  134.3 14.8 14
  134.4 11.42 11
  134.5 5.92 5
  134.7 1.67 1
  134.8 6.12 6
  134.9 12.02 12
  135.0 14.77 14
  135.1 12.36 12
  135.4 6.88 6
  135.5 11.08 11
  135.6 13.43 13
  135.7 11.63 11
  135.8 7.36 7
  136.0 5.93 5
  136.1 9.27 9
  136.2 11.41 11
  136.3 10.45 10
  136.6 6.25 6
  136.7 10.75 10
  136.8 15.46 15
  136.9 16.38 16
  137.0 12.12 12
  137.1 5.64 5
  137.3 3.51 3
  137.4 8.68 8
  137.5 12.61 12
  137.6 12.33 12
  137.9 9.36 9
  138.0 13.44 13
  138.1 16.0 15
  138.2 14.14 14
  138.3 8.64 8
  138.5 3.05 3
  138.6 7.14 7
  138.7 12.49 12
  138.8 14.98 14
  138.9 12.97 12
  139.0 8.4 8
  139.2 6.34 6
  139.3 10.91 10
  139.4 14.74 14
  139.5 14.28 14
  139.6 9.97 9
  139.8 6.05 6
  139.9 9.78 9
  140.0 13.35 13
  140.1 13.1 13
  140.2 8.95 8
  140.4 4.41 4
  140.5 8.84 8
  140.6 14.49 14
  140.7 16.59 16
  140.8 13.12 13
  140.9 6.59 6
  141.1 2.23 2
  141.2 7.12 7
  141.3 12.66 12
  141.4 14.71 14
  141.5 12.15 12
  142.4 5.11 5
  142.5 10.92 10
  142.6 14.86 14
  142.7 13.05 13
  142.8 7.53 7
  143.0 4.71 4
  143.1 9.41 9
  143.2 13.81 13
  143.3 14.58 14
  143.4 11.41 11
  143.7 6.82 6
  143.8 11.11 11
  143.9 13.82 13
  144.0 12.74 12
  144.1 9.18 9
  144.3 6.81 6
  144.4 9.84 9
  144.5 12.83 12
  144.6 13.34 13
  144.7 11.3 11
  144.9 8.57 8
  145.0 10.72 10
  145.1 13.62 13
  145.2 14.25 14
  145.3 11.01 10
  145.6 5.37 5
  145.7 11.54 11
  145.8 15.83 15
  145.9 14.52 14
  146.0 9.31 9
  146.2 5.51 5
  146.3 9.4 9
  146.4 13.37 13
  146.5 14.19 14
  146.6 11.2 11
  146.9 7.38 7
  147.0 11.35 11
  147.1 13.7 13
  147.2 12.49 12
  147.3 8.65 8
  147.5 4.52 4
  147.6 7.38 7
  147.7 11.36 11
  147.8 12.93 12
  147.9 10.63 10
  148.7 3.75 3
  148.8 7.47 7
  148.9 13.02 13
  149.0 15.86 15
  149.1 13.85 13
  149.2 9.06 9
  149.4 7.01 7
  149.5 10.89 10
  149.6 13.87 13
  149.7 13.75 13
  149.8 11.08 11
  150.1 7.96 7
  150.2 11.02 11
  150.3 12.93 12
  150.4 11.52 11
  150.7 9.03 9
  150.8 13.72 13
  150.9 17.09 17
  151.0 16.56 16
  151.1 12.24 12
  152.0 7.22 7
  152.1 12.23 12
  152.2 15.67 15
  152.3 14.86 14
  152.4 10.72 10
  152.6 6.95 6
  152.7 11.11 11
  152.8 15.8 15
  152.9 16.75 16
  153.0 13.02 13
  153.9 6.57 6
  154.0 11.26 11
  154.1 15.93 15
  154.2 16.85 16
  154.3 13.0 12
  154.6 7.69 7
  154.7 12.72 12
  154.8 15.51 15
  154.9 13.95 13
  155.2 8.45 8
  155.3 12.8 12
  155.4 16.21 16
  155.5 15.02 15
  155.6 9.75 9
  155.8 4.22 4
  155.9 7.98 7
  156.0 12.31 12
  156.1 13.24 13
  156.2 10.0 9
  156.4 4.71 4
  156.5 8.37 8
  156.6 14.19 14
  156.7 17.55 17
  156.8 15.42 15
  156.9 9.4 9
  157.1 5.93 5
  157.2 11.83 11
  157.3 17.12 17
  157.4 17.2 17
  157.5 12.49 12
  158.4 5.9 5
  158.5 9.72 9
  158.6 13.44 13
  158.7 13.98 13
  158.8 10.95 10
  159.1 6.98 6
  159.2 10.61 10
  159.3 12.97 12
  159.4 12.49 12
  159.7 9.75 9
  159.8 13.25 13
  159.9 16.31 16
  160.0 15.71 15
  160.1 11.13 11
  161.6 6.69 6
  161.7 10.81 10
  161.8 13.09 13
  161.9 10.89 10
  162.0 5.75 5
  162.2 2.64 2
  162.3 7.58 7
  162.4 13.22 13
  162.5 15.68 15
  162.6 14.06 14
  163.5 5.07 5
  163.6 10.04 10
  163.7 14.03 14
  163.8 13.56 13
  163.9 9.14 9
  164.1 3.53 3
  164.2 7.58 7
  164.3 13.62 13
  164.4 16.54 16
  164.5 14.19 14
  164.8 8.89 8
  164.9 13.06 13
  165.0 15.4 15
  165.1 13.38 13
  165.2 8.36 8
  165.4 6.05 6
  165.5 11.04 11
  165.6 15.58 15
  165.7 16.15 16
  165.8 12.59 12
  166.1 6.85 6
  166.2 10.88 10
  166.3 13.6 13
  166.4 12.31 12
  166.5 7.88 7
  166.7 4.23 4
  166.8 9.12 9
  166.9 14.95 14
  167.0 16.52 16
  167.1 11.92 11
  168.0 5.97 5
  168.1 9.71 9
  168.2 12.91 12
  168.3 12.91 12
  168.4 9.21 9
  168.6 3.81 3
  168.7 8.27 8
  168.8 14.42 14
  168.9 16.33 16
  169.0 12.11 12
  169.9 6.37 6
  170.0 11.51 11
  170.1 15.68 15
  170.2 15.27 15
  170.3 10.95 10
  170.5 6.54 6
  170.6 10.2 10
  170.7 14.66 14
  170.8 15.9 15
  170.9 12.4 12
  171.2 6.09 6
  171.3 11.51 11
  171.4 15.3 15
  171.5 14.26 14
  171.6 9.72 9
  171.8 6.71 6
  171.9 10.81 10
  172.0 14.96 14
  172.1 15.83 15
  172.2 12.55 12
  172.5 6.22 6
  172.6 10.78 10
  172.7 13.97 13
  172.8 13.0 12
  173.1 7.79 7
  173.2 12.09 12
  173.3 15.51 15
  173.4 14.45 14
  173.5 9.39 9
  173.7 4.85 4
  173.8 9.36 9
  173.9 14.47 14
  174.0 15.93 15
  174.1 12.17 12
  174.2 5.83 5
  174.4 3.53 3
  174.5 8.78 8
  174.6 12.49 12
  174.7 11.17 11
  174.8 6.4 6
  175.0 4.3 4
  175.1 9.22 9
  175.2 13.79 13
  175.3 14.39 14
  175.4 10.45 10
  175.7 5.68 5
  175.8 11.63 11
  175.9 15.46 15
  176.0 14.13 14
  176.1 9.37 9
  176.3 6.71 6
  176.4 10.86 10
  176.5 14.29 14
  176.6 13.35 13
  176.7 8.23 8
  176.9 2.58 2
  177.0 7.16 7
  177.1 12.64 12
  177.2 14.16 14
  177.3 10.81 10
  178.2 3.76 3
  178.3 8.29 8
  178.4 12.81 12
  178.5 13.65 13
  178.6 10.57 10
  179.5 3.98 3
  179.6 9.27 9
  179.7 15.04 15
  179.8 16.33 16
  179.9 12.17 12
  180.8 6.54 6
  180.9 12.84 12
  181.0 16.84 16
  181.1 14.41 14
  181.2 7.6 7
  181.4 4.08 4
  181.5 9.58 9
  181.6 13.91 13
  181.7 13.65 13
  181.8 9.72 9
  182.0 5.21 5
  182.1 7.89 7
  182.2 11.7 11
  182.3 13.92 13
  182.4 13.0 12
  182.5 9.69 9
  182.7 6.41 6
  182.8 9.28 9
  182.9 12.59 12
  183.0 13.09 13
  183.1 10.0 9
  183.3 4.85 4
  183.4 8.01 8
  183.5 12.88 12
  183.6 15.14 15
  183.7 12.75 12
  183.8 7.91 7
  184.0 6.03 6
  184.1 9.99 9
  184.2 12.96 12
  184.3 12.08 12
  184.4 7.94 7
  184.6 4.58 4
  184.7 8.86 8
  184.8 13.35 13
  184.9 14.04 14
  185.0 10.53 10
  185.2 6.13 6
  185.3 10.23 10
  185.4 15.49 15
  185.5 17.41 17
  185.6 14.04 14
  185.7 7.92 7
  185.9 5.29 5
  186.0 10.57 10
  186.1 14.95 14
  186.2 14.48 14
  186.3 9.68 9
  186.5 4.26 4
  186.6 7.83 7
  186.7 12.05 12
  186.8 13.22 13
  186.9 10.48 10
  187.2 5.83 5
  187.3 10.19 10
  187.4 13.16 13
  187.5 11.95 11
  187.6 7.5 7
  187.8 3.1 3
  187.9 6.49 6
  188.0 10.91 10
  188.1 13.13 13
  188.2 12.06 12
  189.1 3.44 3
  189.2 6.57 6
  189.3 10.31 10
  189.4 10.88 10
  189.5 7.36 7
  189.7 2.65 2
  189.8 7.36 7
  189.9 13.66 13
  190.0 16.44 16
  190.1 13.47 13
  190.2 7.26 7
  190.4 4.2 4
  190.5 9.39 9
  190.6 13.48 13
  190.7 12.71 12
  191.0 7.47 7
  191.1 12.83 12
  191.2 16.72 16
  191.3 15.48 15
  191.4 9.52 9
  192.3 5.2 5
  192.4 10.66 10
  192.5 14.86 14
  192.6 14.45 14
  192.7 10.13 10
  193.6 8.59 8
  193.7 13.51 13
  193.8 16.52 16
  193.9 14.36 14
  194.0 8.3 8
  194.2 3.57 3
  194.3 8.81 8
  194.4 14.26 14
  194.5 15.11 15
  194.6 10.92 10
  195.4 7.57 7
  195.5 11.9 11
  195.6 15.08 15
  195.7 15.64 15
  195.8 13.97 13
  195.9 10.86 10
  196.8 6.35 6
  196.9 11.17 11
  197.0 13.66 13
  197.1 11.73 11
  197.4 6.94 6
  197.5 11.74 11
  197.6 15.7 15
  197.7 15.59 15
  197.8 11.77 11
  198.1 7.51 7
  198.2 10.59 10
  198.3 12.25 12
  198.4 10.67 10
  198.7 8.08 8
  198.8 12.84 12
  198.9 15.62 15
  199.0 14.11 14
  199.1 9.66 9
  199.3 5.78 5
  199.4 9.75 9
  199.5 14.67 14
  199.6 16.12 16
  199.7 12.36 12
  200.0 6.02 6
  200.1 11.24 11
  200.2 14.85 14
  200.3 13.94 13
  200.4 9.11 9
  200.6 3.35 3
  200.7 7.44 7
  200.8 12.65 12
  200.9 14.16 14
  201.0 10.89 10
  201.2 4.55 4
  201.3 7.8 7
  201.4 13.51 13
  201.5 16.98 16
  201.6 15.2 15
  201.7 9.36 9
  201.9 3.18 3
  202.0 7.16 7
  202.1 12.17 12
  202.2 13.59 13
  202.3 10.42 10
  202.5 5.45 5
  202.6 8.64 8
  202.7 12.28 12
  202.8 12.62 12
  202.9 9.21 9
  203.2 6.09 6
  203.3 11.05 11
  203.4 14.93 14
  203.5 14.79 14
  203.6 10.66 10
  203.8 4.71 4
  203.9 8.17 8
  204.0 13.59 13
  204.1 16.56 16
  204.2 14.89 14
  204.3 10.28 10
  204.5 7.38 7
  204.6 11.22 11
  204.7 14.28 14
  204.8 13.13 13
  204.9 8.81 8
  205.1 7.12 7
  205.2 10.83 10
  205.3 12.33 12
  205.4 9.46 9
  205.7 6.12 6
  205.8 11.43 11
  205.9 15.24 15
  206.0 15.11 15
  206.1 11.27 11
  206.4 5.8 5
  206.5 10.86 10
  206.6 15.51 15
  206.7 16.28 16
  206.8 12.59 12
  207.6 5.61 5
  207.7 9.55 9
  207.8 14.64 14
  207.9 16.63 16
  208.0 14.14 14
  208.1 9.19 9
  208.3 6.06 6
  208.4 10.29 10
  208.5 14.64 14
  208.6 15.1 15
  208.7 10.89 10
  209.0 6.24 6
  209.1 12.68 12
  209.2 17.06 17
  209.3 15.8 15
  209.4 10.5 10
  209.6 6.87 6
  209.7 10.83 10
  209.8 14.13 14
  209.9 13.72 13
  210.0 9.99 9
  210.2 6.52 6
  210.3 10.59 10
  210.4 14.93 14
  210.5 15.43 15
  210.6 11.84 11
  211.5 6.0 5
  211.6 9.25 9
  211.7 12.58 12
  211.8 13.19 13
  211.9 10.76 10
  212.7 4.57 4
  212.8 7.69 7
  212.9 13.46 13
  213.0 16.9 16
  213.1 14.63 14
  213.2 8.33 8
  213.4 3.76 3
  213.5 8.99 8
  213.6 14.47 14
  213.7 15.94 15
  213.8 12.55 12
  214.1 6.84 6
  214.2 12.43 12
  214.3 16.03 16
  214.4 14.29 14
  214.5 8.8 8
  214.7 5.1 5
  214.8 9.97 9
  214.9 14.8 14
  215.0 15.04 15
  215.1 10.0 9
  215.4 4.83 4
  215.5 11.07 11
  215.6 14.95 14
  215.7 13.66 13
  216.0 7.66 7
  216.1 12.24 12
  216.2 15.46 15
  216.3 13.91 13
  216.4 8.45 8
  216.6 3.95 3
  216.7 8.83 8
  216.8 14.3 14
  216.9 16.18 16
  217.0 13.21 13
  217.3 7.23 7
  217.4 12.83 12
  217.5 16.54 16
  217.6 14.93 14
  217.7 9.62 9
  217.9 6.18 6
  218.0 11.01 10
  218.1 15.42 15
  218.2 14.66 14
  218.3 8.52 8
  218.5 2.08 2
  218.6 8.37 8
  218.7 16.13 16
  218.8 19.34 19
  218.9 15.99 15
  219.0 9.24 9
  219.2 5.02 5
  219.3 9.65 9
  219.4 13.92 13
  219.5 14.32 14
  219.6 11.08 11
  219.8 7.26 7
  219.9 10.07 10
  220.0 13.43 13
  220.1 14.04 14
  220.2 10.75 10
  220.5 5.26 5
  220.6 9.82 9
  220.7 13.19 13
  220.8 12.8 12
  220.9 9.5 9
  221.1 7.41 7
  221.2 10.63 10
  221.3 13.27 13
  221.4 12.71 12
  221.7 8.24 8
  221.8 12.23 12
  221.9 15.77 15
  222.0 15.62 15
  222.1 11.48 11
  223.0 5.78 5
  223.1 11.64 11
  223.2 17.2 17
  223.3 17.44 17
  223.4 11.95 11
  224.3 5.23 5
  224.4 9.65 9
  224.5 13.78 13
  224.6 14.29 14
  224.7 10.92 10
  224.9 5.96 5
  225.0 8.95 8
  225.1 12.96 12
  225.2 13.89 13
  225.3 10.32 10
  225.6 5.52 5
  225.7 11.27 11
  225.8 15.18 15
  225.9 14.36 14
  226.0 10.2 10
  226.2 6.19 6
  226.3 9.31 9
  226.4 13.24 13
  226.5 14.69 14
  226.6 12.31 12
  226.9 6.66 6
  227.0 11.41 11
  227.1 15.05 15
  227.2 14.25 14
  227.3 10.06 10
  227.5 7.34 7
  227.6 10.98 10
  227.7 14.17 14
  227.8 14.16 14
  227.9 11.16 11
  228.7 8.13 8
  228.8 11.11 11
  228.9 13.92 13
  229.0 14.42 14
  229.1 11.87 11
  229.2 7.51 7
  229.4 3.54 3
  229.5 6.56 6
  229.6 10.92 10
  229.7 13.29 13
  229.8 11.49 11
  230.6 5.59 5
  230.7 14.23 14
  230.8 21.73 21
  230.9 21.65 21
  231.0 15.05 15
  231.1 7.67 7
  231.3 4.88 4
  231.4 9.46 9
  231.5 14.47 14
  231.6 15.96 15
  231.7 12.65 12
  232.0 5.97 5
  232.1 10.51 10
  232.2 14.48 14
  232.3 14.83 14
  232.4 11.11 11
  232.6 5.14 5
  232.7 8.58 8
  232.8 13.51 13
  232.9 15.33 15
  233.0 12.39 12
  233.9 5.83 5
  234.0 9.87 9
  234.1 13.6 13
  234.2 13.79 13
  234.3 10.28 10
  234.5 6.18 6
  234.6 9.75 9
  234.7 14.03 14
  234.8 15.31 15
  234.9 12.42 12
  235.2 7.12 7
  235.3 11.45 11
  235.4 14.48 14
  235.5 13.69 13
  235.6 9.9 9
  235.8 6.21 6
  235.9 9.58 9
  236.0 13.48 13
  236.1 13.79 13
  236.2 9.21 9
  236.4 1.17 1
  236.5 5.12 5
  236.6 11.52 11
  236.7 14.8 14
  236.8 12.59 12
  237.1 5.86 5
  237.2 10.98 10
  237.3 15.52 15
  237.4 15.87 15
  237.5 11.8 11
  237.8 6.73 6
  237.9 12.62 12
  238.0 16.79 16
  238.1 15.52 15
  238.2 9.93 9
  238.4 5.83 5
  238.5 10.86 10
  238.6 15.61 15
  238.7 15.46 15
  238.8 9.99 9
  239.0 1.63 1
  239.1 6.19 6
  239.2 13.15 13
  239.3 16.24 16
  239.4 13.15 13
  239.5 7.28 7
  239.7 5.9 5
  239.8 10.89 10
  239.9 14.42 14
  240.0 13.1 13
  240.1 7.94 7
  240.3 4.57 4
  240.4 9.72 9
  240.5 14.92 14
  240.6 16.37 16
  240.7 13.72 13
  241.5 3.89 3
  241.6 6.72 6
  241.7 11.13 11
  241.8 13.98 13
  241.9 13.03 13
  242.0 8.95 8
  242.2 4.52 4
  242.3 7.98 7
  242.4 12.36 12
  242.5 13.5 13
  242.6 9.85 9
  242.9 5.55 5
  243.0 11.17 11
  243.1 14.16 14
  243.2 12.23 12
  243.5 5.9 5
  243.6 10.56 10
  243.7 14.19 14
  243.8 13.91 13
  243.9 10.59 10
  244.7 1.65 1
  244.8 5.33 5
  244.9 11.77 11
  245.0 16.93 16
  245.1 17.54 17
  245.2 13.5 13
  245.5 7.42 7
  245.6 11.26 11
  245.7 12.97 12
  245.8 10.79 10
  246.0 5.61 5
  246.1 8.42 8
  246.2 13.09 13
  246.3 15.58 15
  246.4 13.69 13
  246.5 8.86 8
  246.7 4.73 4
  246.8 8.54 8
  246.9 13.07 13
  247.0 14.26 14
  247.1 10.82 10
  247.3 4.41 4
  247.4 7.82 7
  247.5 12.81 12
  247.6 14.74 14
  247.7 12.34 12
  247.9 7.42 7
  248.0 10.54 10
  248.1 15.23 15
  248.2 17.07 17
  248.3 14.0 13
  248.4 8.37 8
  248.6 5.49 5
  248.7 9.74 9
  248.8 13.62 13
  248.9 13.6 13
  249.0 9.46 9
  249.2 3.41 3
  249.3 6.79 6
  249.4 12.12 12
  249.5 15.39 15
  249.6 14.48 14
  249.9 8.99 8
  250.0 13.09 13
  250.1 17.16 17
  250.2 17.79 17
  250.3 14.16 14
  251.2 5.24 5
  251.3 9.4 9
  251.4 12.64 12
  251.5 12.55 12
  251.6 9.74 9
  251.8 6.43 6
  251.9 9.15 9
  252.0 12.99 12
  252.1 14.71 14
  252.2 12.39 12
  252.5 7.61 7
  252.6 11.92 11
  252.7 14.33 14
  252.8 12.72 12
  253.1 6.95 6
  253.2 10.82 10
  253.3 13.89 13
  253.4 12.8 12
  253.5 8.07 8
  253.7 3.62 3
  253.8 7.57 7
  253.9 12.61 12
  254.0 15.15 15
  254.1 13.46 13
  254.2 8.81 8
  254.4 5.58 5
  254.5 9.8 9
  254.6 13.57 13
  254.7 13.4 13
  254.8 9.81 9
  255.0 6.5 6
  255.1 9.75 9
  255.2 13.53 13
  255.3 14.8 14
  255.4 12.5 12
  255.7 6.88 6
  255.8 11.14 11
  255.9 14.96 14
  256.0 14.9 14
  256.1 11.1 11
  256.3 7.03 7
  256.4 10.32 10
  256.5 13.18 13
  256.6 12.2 12
  256.7 7.85 7
  256.9 3.85 3
  257.0 7.45 7
  257.1 11.98 11
  257.2 14.0 13
  257.3 11.99 11
  257.6 7.31 7
  257.7 11.57 11
  257.8 14.13 14
  257.9 12.43 12
  258.0 7.61 7
  258.2 2.45 2
  258.3 5.74 5
  258.4 10.5 10
  258.5 13.06 13
  258.6 11.82 11
  258.9 8.13 8
  259.0 11.58 11
  259.1 13.35 13
  259.2 11.36 11
  259.4 5.89 5
  259.5 8.67 8
  259.6 13.81 13
  259.7 16.81 16
  259.8 14.77 14
  259.9 8.84 8
  260.1 2.45 2
  260.2 6.27 6
  260.3 11.36 11
  260.4 13.46 13
  260.5 11.16 11
  261.4 4.77 4
  261.5 8.78 8
  261.6 13.6 13
  261.7 15.07 15
  261.8 11.46 11
  262.0 4.36 4
  262.1 8.33 8
  262.2 14.03 14
  262.3 15.89 15
  262.4 12.08 12
  262.7 4.2 4
  262.8 10.18 10
  262.9 15.7 15
  263.0 16.9 16
  263.1 13.46 13
  263.4 8.55 8
  263.5 12.4 12
  263.6 14.39 14
  263.7 12.88 12
  264.0 8.8 8
  264.1 12.31 12
  264.2 15.04 15
  264.3 14.42 14
  264.4 10.63 10
  264.6 5.74 5
  264.7 8.71 8
  264.8 12.66 12
  264.9 13.57 13
  265.0 10.28 10
  265.2 4.98 4
  265.3 8.68 8
  265.4 14.2 14
  265.5 16.87 16
  265.6 14.23 14
  265.7 8.49 8
  265.9 5.99 5
  266.0 10.53 10
  266.1 14.06 14
  266.2 13.88 13
  266.3 10.51 10
  267.2 6.41 6
  267.3 9.74 9
  267.4 11.93 11
  267.5 10.89 10
  267.8 5.71 5
  267.9 9.69 9
  268.0 13.76 13
  268.1 14.64 14
  268.2 11.68 11
  268.5 7.76 7
  268.6 11.41 11
  268.7 13.51 13
  268.8 12.39 12
  268.9 9.0 8
  269.1 6.05 6
  269.2 9.11 9
  269.3 12.59 12
  269.4 12.9 12
  269.5 9.3 9
  269.7 5.07 5
  269.8 9.8 9
  269.9 15.61 15
  270.0 17.36 17
  270.1 13.18 13
  270.2 6.12 6
  270.4 2.75 2
  270.5 8.02 8
  270.6 12.99 12
  270.7 13.85 13
  270.8 10.57 10
  272.3 3.69 3
  272.4 9.91 9
  272.5 14.93 14
  272.6 14.98 14
  272.7 10.44 10
  273.6 5.21 5
  273.7 9.91 9
  273.8 14.08 14
  273.9 14.57 14
  274.0 11.3 11
  274.8 4.33 4
  274.9 8.17 8
  275.0 14.19 14
  275.1 17.2 17
  275.2 14.38 14
  275.3 8.2 8
  275.5 6.21 6
  275.6 11.73 11
  275.7 15.92 15
  275.8 15.26 15
  275.9 10.29 10
  276.2 6.35 6
  276.3 11.96 11
  276.4 15.31 15
  276.5 14.08 14
  276.6 9.93 9
  276.8 7.35 7
  276.9 11.1 11
  277.0 14.3 14
  277.1 13.4 13
  277.2 8.68 8
  277.4 5.07 5
  277.5 9.49 9
  277.6 13.59 13
  277.7 13.78 13
  277.8 10.16 10
  278.1 6.62 6
  278.2 11.6 11
  278.3 15.1 15
  278.4 14.04 14
  278.5 9.4 9
  278.7 6.44 6
  278.8 11.22 11
  278.9 15.49 15
  279.0 14.95 14
  279.1 9.14 9
  279.3 1.68 1
  279.4 10.44 10
  279.5 22.99 22
  279.6 28.52 28
  279.7 22.36 22
  279.8 11.05 11
  280.0 6.25 6
  280.1 11.51 11
  280.2 14.22 14
  280.3 11.83 11
  280.4 6.41 6
  280.6 2.18 2
  280.7 6.81 6
  280.8 13.06 13
  280.9 16.11 16
  281.0 13.37 13
  281.3 8.52 8
  281.4 14.96 14
  281.5 18.74 18
  281.6 16.76 16
  281.7 11.07 11
  281.9 6.43 6
  282.0 10.23 10
  282.1 14.06 14
  282.2 14.11 14
  282.3 10.0 9
  282.5 4.13 4
  282.6 7.39 7
  282.7 11.87 11
  282.8 13.35 13
  282.9 10.42 10
  283.2 6.75 6
  283.3 12.28 12
  283.4 16.09 16
  283.5 15.01 14
  283.6 9.71 9
  283.8 3.48 3
  283.9 7.28 7
  284.0 12.04 12
  284.1 13.4 13
  284.2 10.41 10
  284.4 5.04 5
  284.5 8.54 8
  284.6 13.87 13
  284.7 16.09 16
  284.8 12.71 12
  284.9 6.21 6
  285.1 2.71 2
  285.2 7.99 7
  285.3 13.18 13
  285.4 14.14 14
  285.5 10.45 10
  285.8 6.02 6
  285.9 10.75 10
  286.0 13.67 13
  286.1 12.42 12
  286.4 7.36 7
  286.5 12.09 12
  286.6 15.8 15
  286.7 14.86 14
  286.8 9.78 9
  287.0 4.8 4
  287.1 9.53 9
  287.2 14.9 14
  287.3 16.18 16
  287.4 12.65 12
  288.3 6.15 6
  288.4 10.51 10
  288.5 13.98 13
  288.6 14.25 14
  288.7 11.01 10
  289.6 4.69 4
  289.7 10.67 10
  289.8 16.0 15
  289.9 15.81 15
  290.0 10.61 10
  290.2 4.63 4
  290.3 8.35 8
  290.4 12.55 12
  290.5 13.19 13
  290.6 9.8 9
  290.8 5.02 5
  290.9 8.77 8
  291.0 13.72 13
  291.1 15.21 15
  291.2 11.6 11
  291.5 5.61 5
  291.6 11.23 11
  291.7 15.49 15
  291.8 14.95 14
  291.9 10.13 10
  292.1 3.81 3
  292.2 7.67 7
  292.3 13.15 13
  292.4 15.17 15
  292.5 11.83 11
  292.8 7.09 7
  292.9 12.87 12
  293.0 16.35 16
  293.1 14.36 14
  293.2 8.42 8
  293.4 3.66 3
  293.5 8.78 8
  293.6 14.3 14
  293.7 15.62 15
  293.8 12.01 11
  294.1 7.06 7
  294.2 11.54 11
  294.3 14.76 14
  294.4 14.26 14
  294.5 10.59 10
  294.7 6.06 6
  294.8 9.05 9
  294.9 12.91 12
  295.0 13.81 13
  295.1 10.67 10
  295.3 5.01 5
  295.4 7.99 7
  295.5 12.83 12
  295.6 15.01 14
  295.7 12.49 12
  295.8 7.42 7
  296.0 5.27 5
  296.1 9.49 9
  296.2 13.1 13
  296.3 13.06 13
  296.4 9.62 9
  296.6 6.13 6
  296.7 10.03 10
  296.8 14.86 14
  296.9 16.37 16
  297.0 12.83 12
  297.1 6.78 6
  297.3 4.63 4
  297.4 9.72 9
  297.5 13.53 13
  297.6 12.43 12
  297.7 7.39 7
  297.9 3.54 3
  298.0 8.29 8
  298.1 12.96 12
  298.2 13.38 13
  298.3 9.63 9
  298.5 5.96 5
  298.6 9.71 9
  298.7 13.46 13
  298.8 13.59 13
  298.9 9.75 9
  299.2 4.13 4
  299.3 8.59 8
  299.4 11.76 11
  299.5 11.0 10
  299.8 6.13 6
  299.9 11.16 11
  300.0 15.97 15
  300.1 16.57 16
  300.2 12.43 12
  301.1 4.73 4
  301.2 10.26 10
  301.3 14.98 14
  301.4 14.74 14
  301.5 10.19 10
  301.7 5.8 5
  301.8 10.1 10
  301.9 14.88 14
  302.0 15.64 15
  302.1 11.16 11
  302.4 4.74 4
  302.5 11.07 11
  302.6 15.45 15
  302.7 14.41 14
  302.8 9.12 9
  303.0 3.24 3
  303.1 7.25 7
  303.2 12.71 12
  303.3 14.95 14
  303.4 12.02 12
  303.7 6.27 6
  303.8 11.95 11
  303.9 15.71 15
  304.0 14.28 14
  304.1 8.93 8
  304.3 4.55 4
  304.4 9.58 9
  304.5 14.99 14
  304.6 16.0 15
  304.7 12.05 12
  305.6 6.25 6
  305.7 9.15 9
  305.8 12.5 12
  305.9 13.81 13
  306.0 12.11 12
  307.5 7.79 7
  307.6 11.1 11
  307.7 14.07 14
  307.8 13.95 13
  307.9 10.64 10
  308.1 7.1 7
  308.2 10.75 10
  308.3 14.98 14
  308.4 16.13 16
  308.5 13.38 13
  309.4 5.7 5
  309.5 10.76 10
  309.6 16.25 16
  309.7 17.92 17
  309.8 14.39 14
  310.1 8.07 8
  310.2 13.22 13
  310.3 16.49 16
  310.4 15.05 15
  310.5 10.4 10
  310.7 6.71 6
  310.8 9.84 9
  310.9 12.8 12
  311.0 12.65 12
  311.1 9.37 9
  311.4 6.43 6
  311.5 10.04 10
  311.6 12.46 12
  311.7 11.58 11
  312.0 5.96 5
  312.1 10.09 10
  312.2 13.87 13
  312.3 13.67 13
  312.4 9.44 9
  312.6 4.49 4
  312.7 8.32 8
  312.8 12.36 12
  312.9 12.45 12
  313.0 8.51 8
  313.2 2.91 2
  313.3 5.87 5
  313.4 10.78 10
  313.5 13.97 13
  313.6 13.07 13
  313.7 9.22 9
  313.9 6.85 6
  314.0 10.57 10
  314.1 13.19 13
  314.2 11.39 11
  314.3 5.86 5
  314.5 1.14 1
  314.6 7.66 7
  314.7 16.52 16
  314.8 21.32 21
  314.9 18.95 18
  315.0 12.5 12
  315.2 9.43 9
  315.3 13.69 13
  315.4 16.24 16
  315.5 14.3 14
  315.6 9.22 9
  315.8 4.61 4
  315.9 8.3 8
  316.0 12.87 12
  316.1 14.45 14
  316.2 11.77 11
  317.1 5.81 5
  317.2 11.04 11
  317.3 14.28 14
  317.4 12.9 12
  317.5 8.39 8
  317.7 5.29 5
  317.8 10.07 10
  317.9 15.61 15
  318.0 17.17 17
  318.1 12.74 12
  318.4 4.29 4
  318.5 11.73 11
  318.6 17.26 17
  318.7 16.5 16
  318.8 10.85 10
  319.6 5.23 5
  319.7 7.79 7
  319.8 11.42 11
  319.9 13.44 13
  320.0 12.52 12
  320.3 9.39 9
  320.4 13.91 13
  320.5 17.38 17
  320.6 16.02 16
  320.7 10.16 10
  321.5 6.88 6
  321.6 9.56 9
  321.7 14.57 14
  321.8 17.5 17
  321.9 15.42 15
  322.0 9.69 9
  322.2 4.13 4
  322.3 8.26 8
  322.4 13.4 13
  322.5 14.93 14
  322.6 11.1 11
  322.9 6.12 6
  323.0 12.58 12
  323.1 16.47 16
  323.2 14.71 14
  323.3 9.18 9
  323.5 5.05 5
  323.6 9.71 9
  323.7 14.6 14
  323.8 15.56 15
  323.9 12.12 12
  324.7 5.12 5
  324.8 8.04 8
  324.9 12.53 12
  325.0 15.14 15
  325.1 13.43 13
  325.2 8.4 8
  325.4 4.03 4
  325.5 8.4 8
  325.6 13.72 13
  325.7 15.99 15
  325.8 13.67 13
  325.9 8.98 8
  326.1 6.57 6
  326.2 10.28 10
  326.3 13.13 13
  326.4 12.2 12
  326.5 8.07 8
  326.7 4.93 4
  326.8 8.59 8
  326.9 11.99 11
  327.0 11.92 11
  327.1 8.59 8
  327.3 4.82 4
  327.4 7.79 7
  327.5 11.99 11
  327.6 14.25 14
  327.7 12.52 12
  327.8 7.99 7
  328.0 5.72 5
  328.1 10.69 10
  328.2 15.33 15
  328.3 15.67 15
  328.4 11.45 11
  329.3 4.86 4
  329.4 10.59 10
  329.5 14.85 14
  329.6 14.11 14
  329.7 9.65 9
  329.9 6.81 6
  330.0 10.44 10
  330.1 12.77 12
  330.2 11.24 11
  330.3 7.22 7
  330.5 4.76 4
  330.6 8.7 8
  330.7 13.19 13
  330.8 14.58 14
  330.9 11.83 11
  331.2 7.89 7
  331.3 11.83 11
  331.4 14.58 14
  331.5 14.04 14
  331.6 10.82 10
  331.8 8.13 8
  331.9 11.74 11
  332.0 15.74 15
  332.1 16.52 16
  332.2 13.06 13
  332.5 7.1 7
  332.6 11.9 11
  332.7 15.31 15
  332.8 13.88 13
  332.9 8.33 8
  333.1 3.95 3
  333.2 9.14 9
  333.3 13.97 13
  333.4 13.98 13
  333.5 9.93 9
  333.7 7.53 7
  333.8 11.82 11
  333.9 15.67 15
  334.0 15.94 15
  334.1 12.49 12
  334.2 7.77 7
  334.4 5.36 5
  334.5 8.67 8
  334.6 11.99 11
  334.7 12.27 12
  334.8 8.93 8
  335.0 4.2 4
  335.1 7.61 7
  335.2 12.02 12
  335.3 13.35 13
  335.4 10.32 10
  335.6 3.85 3
  335.7 7.14 7
  335.8 13.48 13
  335.9 17.61 17
  336.0 15.78 15
  336.1 9.66 9
  336.3 5.87 5
  336.4 11.39 11
  336.5 16.19 16
  336.6 15.58 15
  336.7 9.63 9
  336.9 2.06 2
  337.0 7.03 7
  337.1 13.82 13
  337.2 16.79 16
  337.3 13.98 13
  337.6 7.89 7
  337.7 11.68 11
  337.8 14.11 14
  337.9 13.19 13
  338.0 9.77 9
  338.2 6.84 6
  338.3 10.0 9
  338.4 13.25 13
  338.5 13.5 13
  338.6 10.42 10
  340.1 3.07 3
  340.2 7.14 7
  340.3 11.49 11
  340.4 12.65 12
  340.5 10.03 10
  340.8 7.35 7
  340.9 12.34 12
  341.0 16.47 16
  341.1 16.84 16
  341.2 13.46 13
  342.0 4.77 4
  342.1 7.5 7
  342.2 12.15 12
  342.3 14.69 14
  342.4 12.59 12
  342.5 7.53 7
  342.7 5.15 5
  342.8 9.88 9
  342.9 14.38 14
  343.0 15.39 15
  343.1 12.75 12
  344.0 7.39 7
  344.1 10.98 10
  344.2 13.65 13
  344.3 13.32 13
  344.6 11.35 11
  344.7 13.35 13
  344.8 15.18 15
  344.9 15.24 15
  345.0 12.27 12
  345.9 5.83 5
  346.0 11.74 11
  346.1 16.46 16
  346.2 15.99 15
  346.3 11.01 10
  346.5 5.1 5
  346.6 8.71 8
  346.7 13.67 13
  346.8 15.93 15
  346.9 13.73 13
  347.2 7.82 7
  347.3 11.74 11
  347.4 14.25 14
  347.5 12.9 12
  347.6 8.99 8
  347.8 6.79 6
  347.9 10.25 10
  348.0 13.7 13
  348.1 14.28 14
  348.2 10.85 10
  348.5 6.06 6
  348.6 12.23 12
  348.7 16.33 16
  348.8 15.01 14
  348.9 9.69 9
  349.1 4.73 4
  349.2 8.96 8
  349.3 14.13 14
  349.4 15.64 15
  349.5 11.84 11
  350.4 6.27 6
  350.5 11.41 11
  350.6 15.52 15
  350.7 15.49 15
  350.8 11.38 11
  351.0 6.16 6
  351.1 10.09 10
  351.2 14.88 14
  351.3 15.83 15
  351.4 11.99 11
  352.3 5.23 5
  352.4 9.99 9
  352.5 14.38 14
  352.6 14.49 14
  352.7 10.38 10
  353.0 6.53 6
  353.1 11.41 11
  353.2 14.58 14
  353.3 13.31 13
  353.4 8.65 8
  353.6 4.88 4
  353.7 8.21 8
  353.8 11.14 11
  353.9 10.97 10
  354.0 8.23 8
  354.2 5.99 5
  354.3 9.06 9
  354.4 12.58 12
  354.5 13.94 13
  354.6 12.75 12
  355.5 6.94 6
  355.6 9.3 9
  355.7 11.87 11
  355.8 12.18 12
  355.9 9.58 9
  356.1 6.09 6
  356.2 9.31 9
  356.3 13.43 13
  356.4 14.93 14
  356.5 12.61 12
  356.8 7.03 7
  356.9 10.45 10
  357.0 12.69 12
  357.1 11.51 11
  357.4 5.74 5
  357.5 10.2 10
  357.6 14.88 14
  357.7 15.77 15
  357.8 12.09 12
  358.1 7.12 7
  358.2 10.98 10
  358.3 13.34 13
  358.4 12.59 12
  358.5 9.59 9
  358.7 7.28 7
  358.8 10.69 10
  358.9 14.58 14
  359.0 15.45 15
  359.1 12.3 12
  359.3 7.19 7
  359.4 10.85 10
  359.5 15.74 15
  359.6 16.87 16
  359.7 12.31 12
  360.0 4.61 4
  360.1 11.32 11
  360.2 16.13 16
  360.3 15.27 15
  360.4 10.23 10
  360.6 5.92 5
  360.7 10.09 10
  360.8 14.74 14
  360.9 15.78 15
  361.0 11.93 11
  361.1 5.96 5
  361.3 3.66 3
  361.4 8.84 8
  361.5 13.98 13
  361.6 15.49 15
  361.9 10.42 10
  362.0 14.01 13
  362.1 17.47 17
  362.2 17.01 16
  362.3 12.37 12
  362.4 6.88 6
  362.6 6.18 6
  362.7 9.56 9
  362.8 11.38 11
  362.9 10.15 10
  363.8 4.33 4
  363.9 10.18 10
  364.0 15.51 15
  364.1 16.18 16
  364.2 12.02 12
  364.5 5.77 5
  364.6 10.94 10
  364.7 14.99 14
  364.8 14.52 14
  364.9 10.06 10
  365.1 5.71 5
  365.2 9.75 9
  365.3 14.0 13
  365.4 14.67 14
  365.5 11.41 11
  366.4 5.64 5
  366.5 10.15 10
  366.6 13.95 13
  366.7 13.79 13
  366.8 9.65 9
  367.0 3.97 3
  367.1 7.36 7
  367.2 12.06 12
  367.3 13.91 13
  367.4 11.42 11
  367.7 5.92 5
  367.8 10.94 10
  367.9 14.7 14
  368.0 13.59 13
  368.1 8.64 8
  368.3 5.15 5
  368.4 9.37 9
  368.5 13.4 13
  368.6 13.92 13
  368.7 10.79 10
  369.6 5.86 5
  369.7 10.22 10
  369.8 14.3 14
  369.9 14.64 14
  370.0 11.0 10
  370.3 7.16 7
  370.4 11.16 11
  370.5 13.44 13
  370.6 11.98 11
  370.9 7.67 7
  371.0 12.17 12
  371.1 14.99 14
  371.2 12.93 12
  371.3 7.35 7
  371.5 4.48 4
  371.6 10.16 10
  371.7 14.8 14
  371.8 13.6 13
  372.0 2.01 2
  372.1 5.87 5
  372.2 18.77 18
  372.3 30.6 30
  372.4 30.53 30
  372.5 18.95 18
  372.6 6.72 6
  372.8 7.91 7
  372.9 14.26 14
  373.0 21.2 21
  373.1 34.33 34
  373.2 51.48 51
  373.3 57.5 57
  373.4 43.62 43
  373.5 22.53 22
  373.6 11.79 11
  373.7 11.63 11
  373.8 11.36 11
  374.7 6.66 6
  374.8 11.04 11
  374.9 14.3 14
  375.0 13.57 13
  375.1 9.39 9
  375.3 4.54 4
  375.4 7.72 7
  375.5 11.92 11
  375.6 13.27 13
  375.7 10.01 9
  376.0 3.41 3
  376.1 8.39 8
  376.2 12.33 12
  376.3 12.11 12
  376.4 8.07 8
  376.6 2.62 2
  376.7 6.09 6
  376.8 11.22 11
  376.9 13.75 13
  377.0 11.82 11
  377.3 7.47 7
  377.4 12.77 12
  377.5 16.57 16
  377.6 15.27 15
  377.7 9.93 9
  377.9 5.96 5
  378.0 10.42 10
  378.1 14.83 14
  378.2 15.52 15
  378.3 12.01 11
  378.6 6.62 6
  378.7 10.57 10
  378.8 13.1 13
  378.9 11.9 11
  379.2 6.91 6
  379.3 10.5 10
  379.4 12.74 12
  379.5 11.39 11
  379.8 6.0 5
  379.9 9.71 9
  380.0 13.09 13
  380.1 13.15 13
  380.2 9.53 9
  380.5 5.58 5
  380.6 11.52 11
  380.7 15.7 15
  380.8 13.98 13
  380.9 7.36 7
  381.1 1.76 1
  381.2 6.59 6
  381.3 10.59 10
  381.4 9.53 9
  381.5 4.42 4
  381.7 0.42 0
  381.8 5.1 5
  381.9 10.42 10
  382.0 12.74 12
  382.1 10.95 10
  382.4 7.22 7
  382.5 11.48 11
  382.6 14.63 14
  382.7 13.75 13
  382.8 9.14 9
  383.0 3.6 3
  383.1 7.75 7
  383.2 13.06 13
  383.3 14.54 14
  383.4 10.83 10
  383.6 4.06 4
  383.7 7.7 7
  383.8 13.48 13
  383.9 16.56 16
  384.0 14.48 14
  384.1 9.25 9
  384.3 6.19 6
  384.4 10.7 10
  384.5 14.73 14
  384.6 14.38 14
  384.7 9.41 9
  384.9 2.05 2
  385.0 6.03 6
  385.1 12.27 12
  385.2 15.34 15
  385.3 12.87 12
  385.6 7.69 7
  385.7 12.24 12
  385.8 14.57 14
  385.9 12.37 12
  386.0 7.42 7
  386.2 4.42 4
  386.3 8.8 8
  386.4 13.4 13
  386.5 14.49 14
  386.6 11.29 11
  386.9 6.65 6
  387.0 10.56 10
  387.1 12.8 12
  387.2 11.65 11
  387.5 5.96 5
  387.6 10.15 10
  387.7 14.89 14
  387.8 15.81 15
  387.9 11.54 11
  388.2 4.99 4
  388.3 10.38 10
  388.4 14.14 14
  388.5 13.65 13
  388.6 10.25 10
  388.8 8.2 8
  388.9 11.08 11
  389.0 13.29 13
  389.1 12.39 12
  389.2 8.39 8
  389.4 4.2 4
  389.5 9.06 9
  389.6 15.29 15
  389.7 17.48 17
  389.8 13.97 13
  390.1 7.06 7
  390.2 11.79 11
  390.3 15.12 15
  390.4 14.2 14
  390.5 9.72 9
  390.7 5.59 5
  390.8 9.46 9
  390.9 13.27 13
  391.0 13.05 13
  391.1 8.61 8
  391.3 3.16 3
  391.4 6.94 6
  391.5 11.99 11
  391.6 14.14 14
  391.7 11.74 11
  391.8 6.75 6
  392.0 4.07 4
  392.1 8.73 8
  392.2 13.54 13
  392.3 14.95 14
  392.4 12.17 12
  393.9 3.35 3
  394.0 9.77 9
  394.1 14.93 14
  394.2 14.83 14
  394.3 10.57 10
  395.2 5.96 5
  395.3 9.36 9
  395.4 11.64 11
  395.5 10.92 10
  395.8 5.55 5
  395.9 10.06 10
  396.0 14.41 14
  396.1 14.45 14
  396.2 10.35 10
  396.4 6.76 6
  396.5 11.14 11
  396.6 15.45 15
  396.7 15.53 15
  396.8 10.66 10
  397.1 3.03 3
  397.2 9.25 9
  397.3 14.38 14
  397.4 14.51 14
  397.5 10.19 10
  397.7 5.55 5
  397.8 9.77 9
  397.9 14.54 14
  398.0 15.36 15
  398.1 11.3 11
  398.2 5.68 5
  398.4 3.82 3
  398.5 7.8 7
  398.6 11.55 11
  398.7 12.42 12
  398.8 10.07 10
  399.6 6.43 6
  399.7 9.65 9
  399.8 14.35 14
  399.9 16.41 16
  400.0 13.57 13
  400.3 6.24 6
  400.4 11.6 11
  400.5 16.35 16
  400.6 16.76 16
  400.7 12.4 12
  401.5 3.46 3
  401.6 7.17 7
  401.7 13.94 13
  401.8 17.83 17
  401.9 15.45 15
  402.0 8.83 8
  402.2 3.12 3
  402.3 8.23 8
  402.4 14.41 14
  402.5 16.34 16
  402.6 12.23 12
  402.9 7.12 7
  403.0 13.91 13
  403.1 18.17 18
  403.2 16.72 16
  403.3 11.04 11
  403.5 5.42 5
  403.6 9.58 9
  403.7 13.82 13
  403.8 13.75 13
  403.9 9.46 9
  404.1 5.2 5
  404.2 9.17 9
  404.3 13.54 13
  404.4 14.71 14
  404.5 12.02 12
  404.8 7.77 7
  404.9 11.76 11
  405.0 14.73 14
  405.1 14.33 14
  405.2 10.79 10
  405.4 7.25 7
  405.5 11.93 11
  405.6 17.45 17
  405.7 18.84 18
  405.8 14.51 14
  405.9 7.95 7
  406.1 5.87 5
  406.2 10.72 10
  406.3 14.67 14
  406.4 14.82 14
  406.5 11.29 11
  406.7 6.56 6
  406.8 10.04 10
  406.9 14.41 14
  407.0 15.1 15
  407.1 11.32 11
  408.0 5.64 5
  408.1 10.83 10
  408.2 15.42 15
  408.3 15.64 15
  408.4 11.27 11
  408.6 5.43 5
  408.7 9.3 9
  408.8 13.98 13
  408.9 14.77 14
  409.0 10.67 10
  409.3 5.4 5
  409.4 10.22 10
  409.5 13.48 13
  409.6 12.93 12
  409.7 9.49 9
  409.9 5.55 5
  410.0 8.07 8
  410.1 11.54 11
  410.2 13.0 12
  410.3 11.2 11
  410.5 7.06 7
  410.6 9.94 9
  410.7 14.74 14
  410.8 17.22 17
  410.9 14.67 14
  411.0 8.74 8
  411.2 5.36 5
  411.3 10.35 10
  411.4 14.63 14
  411.5 14.54 14
  411.6 10.57 10
  411.8 5.17 5
  411.9 8.07 8
  412.0 12.93 12
  412.1 15.72 15
  412.2 13.73 13
  412.3 8.49 8
  412.5 6.3 6
  412.6 10.73 10
  412.7 13.56 13
  412.8 12.52 12
  413.1 8.7 8
  413.2 11.54 11
  413.3 13.79 13
  413.4 13.63 13
  413.5 11.11 11
  413.8 8.46 8
  413.9 12.09 12
  414.0 14.58 14
  414.1 13.24 13
  414.2 8.83 8
  414.4 5.55 5
  414.5 9.44 9
  414.6 13.24 13
  414.7 13.48 13
  414.8 9.91 9
  415.0 5.61 5
  415.1 9.33 9
  415.2 13.43 13
  415.3 13.78 13
  415.4 10.04 10
  415.6 5.1 5
  415.7 8.59 8
  415.8 13.53 13
  415.9 16.02 16
  416.0 14.52 14
  416.1 10.6 10
  416.9 4.52 4
  417.0 8.4 8
  417.1 13.78 13
  417.2 16.15 16
  417.3 13.25 13
  417.6 6.27 6
  417.7 11.07 11
  417.8 14.17 14
  417.9 13.06 13
  418.0 9.22 9
  418.2 6.97 6
  418.3 10.28 10
  418.4 13.25 13
  418.5 13.19 13
  418.6 10.07 10
  418.8 6.49 6
  418.9 10.09 10
  419.0 14.66 14
  419.1 16.38 16
  419.2 13.97 13
  419.3 9.53 9
  419.5 6.87 6
  419.6 9.93 9
  419.7 12.84 12
  419.8 12.66 12
  419.9 8.9 8
  420.1 3.95 3
  420.2 7.57 7
  420.3 12.59 12
  420.4 14.89 14
  420.5 12.59 12
  420.8 7.25 7
  420.9 12.9 12
  421.0 17.09 17
  421.1 16.09 16
  421.2 10.81 10
  421.4 4.69 4
  421.5 8.54 8
  421.6 13.44 13
  421.7 14.85 14
  421.8 11.43 11
  422.1 5.1 5
  422.2 9.63 9
  422.3 12.94 12
  422.4 11.61 11
  422.5 6.27 6
  422.7 1.41 1
  422.8 6.21 6
  422.9 11.42 11
  423.0 12.53 12
  423.1 9.0 8
  423.3 3.46 3
  423.4 7.51 7
  423.5 13.35 13
  423.6 16.0 15
  423.7 13.38 13
  424.0 8.52 8
  424.1 14.04 14
  424.2 17.1 17
  424.3 14.57 14
  424.4 8.37 8
  424.6 4.14 4
  424.7 8.81 8
  424.8 13.47 13
  424.9 14.57 14
  425.0 11.86 11
  425.9 4.52 4
  426.0 8.68 8
  426.1 12.3 12
  426.2 12.65 12
  426.3 9.84 9
  426.5 6.33 6
  426.6 9.9 9
  426.7 14.23 14
  426.8 14.9 14
  426.9 10.59 10
  427.2 4.8 4
  427.3 10.2 10
  427.4 14.01 13
  427.5 13.69 13
  427.6 9.72 9
  427.8 4.1 4
  427.9 7.45 7
  428.0 12.12 12
  428.1 13.32 13
  428.2 9.84 9
  428.4 4.61 4
  428.5 8.54 8
  428.6 13.88 13
  428.7 15.96 15
  428.8 12.62 12
  428.9 6.16 6
  429.1 2.86 2
  429.2 8.87 8
  429.3 14.61 14
  429.4 15.37 15
  429.5 11.13 11
  429.7 5.37 5
  429.8 8.95 8
  429.9 13.84 13
  430.0 16.02 16
  430.1 13.51 13
  430.4 7.7 7
  430.5 13.62 13
  430.6 17.58 17
  430.7 15.8 15
  430.8 9.68 9
  431.0 4.26 4
  431.1 9.11 9
  431.2 14.6 14
  431.3 16.12 16
  431.4 12.88 12
  431.7 7.82 7
  431.8 11.68 11
  431.9 14.17 14
  432.0 12.94 12
  432.1 8.7 8
  432.3 4.89 4
  432.4 8.55 8
  432.5 12.33 12
  432.6 12.52 12
  432.7 8.92 8
  432.9 4.16 4
  433.0 7.85 7
  433.1 12.84 12
  433.2 14.61 14
  433.3 11.33 11
  433.6 5.71 5
  433.7 10.63 10
  433.8 13.81 13
  433.9 12.66 12
  434.2 6.62 6
  434.3 10.97 10
  434.4 14.74 14
  434.5 14.74 14
  434.6 10.89 10
  434.9 5.01 5
  435.0 9.4 9
  435.1 12.45 12
  435.2 11.39 11
  435.5 6.57 6
  435.6 11.01 10
  435.7 14.71 14
  435.8 14.57 14
  435.9 10.51 10
  436.1 5.05 5
  436.2 8.92 8
  436.3 14.08 14
  436.4 15.46 15
  436.5 11.23 11
  436.8 4.74 4
  436.9 10.83 10
  437.0 15.29 15
  437.1 15.04 15
  437.2 10.86 10
  438.0 4.83 4
  438.1 7.67 7
  438.2 12.4 12
  438.3 14.67 14
  438.4 12.36 12
  438.5 7.41 7
  438.7 4.28 4
  438.8 8.23 8
  438.9 12.28 12
  439.0 12.88 12
  439.1 9.68 9
  439.3 6.12 6
  439.4 10.06 10
  439.5 14.32 14
  439.6 14.69 14
  439.7 10.37 10
  439.9 3.54 3
  440.0 7.23 7
  440.1 12.75 12
  440.2 15.62 15
  440.3 14.1 14
  440.4 10.07 10
  440.6 7.53 7
  440.7 11.2 11
  440.8 15.02 15
  440.9 15.56 15
  441.0 11.86 11
  441.3 6.24 6
  441.4 11.16 11
  441.5 14.14 14
  441.6 12.69 12
  441.9 7.8 7
  442.0 11.84 11
  442.1 15.05 15
  442.2 14.3 14
  442.3 9.41 9
  442.5 3.21 3
  442.6 7.54 7
  442.7 12.93 12
  442.8 14.1 14
  442.9 9.88 9
  443.2 4.67 4
  443.3 10.31 10
  443.4 14.04 14
  443.5 12.9 12
  443.6 8.17 8
  443.8 5.7 5
  443.9 11.05 11
  444.0 15.64 15
  444.1 15.4 15
  444.2 10.92 10
  445.1 5.3 5
  445.2 9.66 9
  445.3 13.27 13
  445.4 13.31 13
  445.5 10.07 10
  445.7 6.31 6
  445.8 9.46 9
  445.9 13.44 13
  446.0 14.7 14
  446.1 12.02 12
  446.4 7.66 7
  446.5 12.31 12
  446.6 15.58 15
  446.7 14.86 14
  446.8 10.92 10
  447.0 6.34 6
  447.1 9.55 9
  447.2 13.98 13
  447.3 15.46 15
  447.4 12.2 12
  447.7 6.33 6
  447.8 10.81 10
  447.9 13.25 13
  448.0 11.54 11
  448.3 7.58 7
  448.4 11.67 11
  448.5 13.94 13
  448.6 11.95 11
  448.7 6.84 6
  448.9 2.77 2
  449.0 7.82 7
  449.1 14.11 14
  449.2 16.65 16
  449.3 13.35 13
  449.4 7.23 7
  449.6 5.72 5
  449.7 11.19 11
  449.8 15.08 15
  449.9 14.06 14
  450.0 9.15 9
  450.2 4.54 4
  450.3 8.01 8
  450.4 11.51 11
  450.5 11.74 11
  450.6 8.87 8
  450.8 6.06 6
  450.9 9.0 8
  451.0 12.37 12
  451.1 13.4 13
  451.2 11.27 11
  451.5 8.17 8
  451.6 11.57 11
  451.7 13.84 13
  451.8 13.0 12
  452.1 7.55 7
  452.2 11.45 11
  452.3 15.29 15
  452.4 15.62 15
  452.5 11.79 11
  452.8 6.34 6
  452.9 10.85 10
  453.0 13.54 13
  453.1 11.86 11
  453.2 7.1 7
  453.4 3.41 3
  453.5 7.53 7
  453.6 12.11 12
  453.7 13.16 13
  453.8 9.81 9
  454.0 4.25 4
  454.1 7.57 7
  454.2 12.53 12
  454.3 15.17 15
  454.4 13.85 13
  454.5 10.32 10
  454.7 7.76 7
  454.8 10.09 10
  454.9 12.68 12
  455.0 13.37 13
  455.1 11.58 11
  455.3 8.61 8
  455.4 11.33 11
  455.5 15.05 15
  455.6 15.87 15
  455.7 12.18 12
  455.8 6.43 6
  456.0 4.89 4
  456.1 9.63 9
  456.2 13.02 13
  456.3 12.27 12
  456.6 6.66 6
  456.7 10.91 10
  456.8 14.93 14
  456.9 15.43 15
  457.0 11.86 11
  457.3 6.46 6
  457.4 11.52 11
  457.5 15.01 14
  457.6 13.84 13
  457.7 9.22 9
  457.9 6.69 6
  458.0 11.74 11
  458.1 16.35 16
  458.2 16.22 16
  458.3 11.24 11
  459.1 5.34 5
  459.2 7.86 7
  459.3 12.45 12
  459.4 15.65 15
  459.5 14.73 14
  459.6 10.07 10
  459.8 3.6 3
  459.9 6.91 6
  460.0 12.17 12
  460.1 14.89 14
  460.2 13.28 13
  461.1 5.3 5
  461.2 11.55 11
  461.3 17.04 17
  461.4 17.35 17
  461.5 12.15 12
  462.4 4.49 4
  462.5 9.71 9
  462.6 14.01 13
  462.7 13.31 13
  462.8 8.45 8
  463.0 4.92 4
  463.1 9.68 9
  463.2 14.33 14
  463.3 15.08 15
  463.4 11.73 11
  464.3 4.74 4
  464.4 8.95 8
  464.5 12.96 12
  464.6 13.37 13
  464.7 9.6 9
  464.9 4.08 4
  465.0 8.51 8
  465.1 15.56 15
  465.2 20.1 20
  465.3 18.55 18
  465.4 12.08 12
  466.2 8.4 8
  466.3 11.14 11
  466.4 13.94 13
  466.5 13.76 13
  466.6 10.19 10
  466.8 3.81 3
  466.9 6.87 6
  467.0 12.71 12
  467.1 16.13 16
  467.2 14.13 14
  467.3 9.24 9
  467.5 8.1 8
  467.6 11.51 11
  467.7 13.41 13
  467.8 12.09 12
  467.9 8.55 8
  468.1 5.33 5
  468.2 8.39 8
  468.3 12.15 12
  468.4 13.29 13
  468.5 10.89 10
  468.8 7.77 7
  468.9 11.67 11
  469.0 14.58 14
  469.1 13.94 13
  469.2 9.6 9
  469.4 3.05 3
  469.5 6.59 6
  469.6 12.83 12
  469.7 16.93 16
  469.8 15.58 15
  469.9 10.25 10
  470.1 7.36 7
  470.2 12.06 12
  470.3 15.11 15
  470.4 13.47 13
  470.5 9.0 8
  470.7 6.52 6
  470.8 10.04 10
  470.9 13.38 13
  471.0 13.57 13
  471.1 10.1 10
  471.4 6.9 6
  471.5 12.36 12
  471.6 15.92 15
  471.7 14.6 14
  471.8 9.74 9
  472.0 6.49 6
  472.1 10.75 10
  472.2 14.52 14
  472.3 14.03 14
  472.4 9.27 9
  472.6 3.16 3
  472.7 7.19 7
  472.8 12.8 12
  472.9 15.31 15
  473.0 13.09 13
  473.3 8.36 8
  473.4 12.77 12
  473.5 15.48 15
  473.6 13.56 13
  473.7 7.92 7
  473.9 2.74 2
  474.0 7.72 7
  474.1 13.66 13
  474.2 15.27 15
  474.3 11.14 11
  474.6 6.06 6
  474.7 12.11 12
  474.8 15.58 15
  474.9 13.79 13
  475.0 8.87 8
  475.2 6.62 6
  475.3 10.42 10
  475.4 12.86 12
  475.5 11.29 11
  475.8 6.02 6
  475.9 10.86 10
  476.0 14.66 14
  476.1 14.39 14
  476.2 10.56 10
  476.5 4.57 4
  476.6 8.73 8
  476.7 12.46 12
  476.8 12.43 12
  476.9 8.78 8
  477.1 5.49 5
  477.2 8.98 8
  477.3 12.23 12
  477.4 11.98 11
  477.5 8.37 8
  477.7 4.0 3
  477.8 6.93 6
  477.9 11.24 11
  478.0 14.06 14
  478.1 13.79 13
  478.2 11.13 11
  479.0 6.12 6
  479.1 9.19 9
  479.2 12.25 12
  479.3 12.31 12
  479.4 8.96 8
  479.6 3.67 3
  479.7 6.59 6
  479.8 11.41 11
  479.9 14.23 14
  480.0 12.78 12
  480.1 8.21 8
  480.8 3.92 3
  480.9 6.16 6
  481.0 11.61 11
  481.1 16.59 16
  481.2 17.51 17
  481.3 13.78 13
  481.4 8.26 8
  481.6 6.73 6
  481.7 11.49 11
  481.8 14.98 14
  481.9 13.95 13
  482.0 9.05 9
  482.3 5.46 5
  482.4 10.29 10
  482.5 13.12 13
  482.6 12.14 12
  483.5 6.09 6
  483.6 11.42 11
  483.7 16.02 16
  483.8 15.4 15
  483.9 10.12 10
  484.1 5.05 5
  484.2 9.47 9
  484.3 14.06 14
  484.4 14.51 14
  484.5 10.23 10
  484.8 4.39 4
  484.9 10.42 10
  485.0 15.15 15
  485.1 14.73 14
  485.2 9.82 9
  485.4 4.99 4
  485.5 9.6 9
  485.6 14.33 14
  485.7 14.41 14
  485.8 9.59 9
  486.0 3.28 3
  486.1 7.19 7
  486.2 12.72 12
  486.3 15.61 15
  486.4 13.79 13
  486.5 8.96 8
  486.7 5.83 5
  486.8 9.91 9
  486.9 13.75 13
  487.0 13.98 13
  487.1 10.5 10
  487.4 7.09 7
  487.5 11.19 11
  487.6 13.48 13
  487.7 12.01 11
  488.0 7.23 7
  488.1 11.86 11
  488.2 15.78 15
  488.3 15.78 15
  488.4 12.2 12
  489.3 7.61 7
  489.4 12.09 12
  489.5 14.98 14
  489.6 12.77 12
  489.7 6.41 6
  489.9 1.22 1
  490.0 6.56 6
  490.1 12.12 12
  490.2 13.25 13
  490.3 9.59 9
  490.5 3.81 3
  490.6 7.23 7
  490.7 12.25 12
  490.8 14.47 14
  490.9 12.09 12
  491.2 6.21 6
  491.3 10.82 10
  491.4 14.13 14
  491.5 12.46 12
  491.6 6.47 6
  491.8 1.84 1
  491.9 7.64 7
  492.0 13.81 13
  492.1 15.46 15
  492.2 11.6 11
  492.5 4.8 4
  492.6 10.98 10
  492.7 15.64 15
  492.8 15.14 15
  492.9 10.6 10
  494.4 5.17 5
  494.5 8.77 8
  494.6 12.09 12
  494.7 12.75 12
  494.8 10.1 10
  495.0 5.14 5
  495.1 8.48 8
  495.2 14.13 14
  495.3 17.17 17
  495.4 14.42 14
  495.5 7.99 7
  495.7 6.03 6
  495.8 12.24 12
  495.9 16.68 16
  496.0 15.34 15
  496.1 9.66 9
  496.3 4.44 4
  496.4 9.06 9
  496.5 14.33 14
  496.6 15.7 15
  496.7 12.01 11
  497.6 4.92 4
  497.7 11.19 11
  497.8 15.65 15
  497.9 14.79 14
  498.0 10.01 9
  498.2 6.02 6
  498.3 10.5 10
  498.4 15.39 15
  498.5 16.19 16
  498.6 12.04 12
  499.5 6.06 6
  499.6 11.39 11
  499.7 15.48 15
  499.8 14.52 14
  499.9 9.03 9
  500.1 2.05 2
  500.2 5.59 5
  500.3 11.22 11
  500.4 14.8 14
  500.5 14.06 14
  500.6 10.2 10
  500.8 6.62 6
  500.9 9.28 9
  501.0 11.89 11
  501.1 11.8 11
  501.2 8.92 8
  501.4 5.96 5
  501.5 9.87 9
  501.6 14.42 14
  501.7 14.61 14
  501.8 9.06 9
  502.0 1.99 1
  502.1 8.27 8
  502.2 16.02 16
  502.3 18.7 18
  502.4 14.54 14
  502.5 7.38 7
  502.7 4.83 4
  502.8 11.01 10
  502.9 16.3 16
  503.0 16.27 16
  503.1 10.98 10
  503.9 5.39 5
  504.0 8.27 8
  504.1 12.99 12
  504.2 15.7 15
  504.3 13.82 13
  504.4 8.65 8
  504.6 4.83 4
  504.7 8.48 8
  504.8 11.89 11
  504.9 12.31 12
  505.0 9.71 9
  505.3 5.68 5
  505.4 7.96 7
  505.5 9.37 9
  505.6 9.05 9
  505.7 7.85 7
  505.8 7.53 7
  505.9 9.34 9
  506.0 12.88 12
  506.1 15.62 15
  506.2 14.9 14
  506.3 10.75 10
  506.5 4.96 4
  506.6 7.96 7
  506.7 13.03 13
  506.8 15.96 15
  506.9 13.92 13
  507.0 8.48 8
  507.2 5.42 5
  507.3 10.2 10
  507.4 14.07 14
  507.5 13.43 13
  507.6 9.03 9
  507.8 5.08 5
  507.9 9.33 9
  508.0 14.6 14
  508.1 16.87 16
  508.2 14.61 14
  508.3 10.09 10
  508.5 8.14 8
  508.6 11.23 11
  508.7 13.18 13
  508.8 12.12 12
  509.1 7.7 7
  509.2 11.43 11
  509.3 15.01 14
  509.4 14.83 14
  509.5 10.34 10
  510.4 7.36 7
  510.5 11.71 11
  510.6 15.17 15
  510.7 15.27 15
  510.8 12.21 12
  511.6 4.73 4
  511.7 8.64 8
  511.8 14.22 14
  511.9 17.17 17
  512.0 15.37 15
  512.1 10.12 10
  512.3 4.52 4
  512.4 8.59 8
  512.5 13.75 13
  512.6 15.15 15
  512.7 11.71 11
  513.6 5.78 5
  513.7 12.69 12
  513.8 17.55 17
  513.9 16.69 16
  514.0 11.45 11
  514.2 6.09 6
  514.3 10.04 10
  514.4 14.95 14
  514.5 16.52 16
  514.6 13.32 13
  514.9 7.88 7
  515.0 12.01 11
  515.1 14.06 14
  515.2 12.08 12
  515.5 7.22 7
  515.6 11.52 11
  515.7 15.55 15
  515.8 15.99 15
  515.9 12.04 12
  516.2 7.36 7
  516.3 11.68 11
  516.4 13.81 13
  516.5 12.09 12
  516.8 7.1 7
  516.9 11.38 11
  517.0 14.51 14
  517.1 13.34 13
  517.2 8.78 8
  517.4 4.74 4
  517.5 8.29 8
  517.6 12.37 12
  517.7 13.62 13
  517.8 11.27 11
  518.1 7.63 7
  518.2 11.38 11
  518.3 14.13 14
  518.4 13.21 13
  518.5 9.09 9
  518.7 5.84 5
  518.8 9.47 9
  518.9 12.56 12
  519.0 11.84 11
  519.1 7.32 7
  519.3 1.08 1
  519.4 5.72 5
  519.5 12.84 12
  519.6 16.25 16
  519.7 13.32 13
  520.0 6.56 6
  520.1 11.77 11
  520.2 15.64 15
  520.3 15.08 15
  520.4 10.94 10
  520.6 6.27 6
  520.7 9.21 9
  520.8 13.02 13
  520.9 14.13 14
  521.0 11.14 11
  521.2 4.8 4
  521.3 8.18 8
  521.4 13.79 13
  521.5 16.73 16
  521.6 14.58 14
  521.7 9.22 9
  521.9 4.85 4
  522.0 8.52 8
  522.1 12.36 12
  522.2 12.9 12
  522.3 9.91 9
  522.5 4.83 4
  522.6 7.54 7
  522.7 12.45 12
  522.8 15.45 15
  522.9 13.84 13
  523.2 7.94 7
  523.3 12.28 12
  523.4 15.1 15
  523.5 13.62 13
  523.6 9.12 9
  523.8 5.68 5
  523.9 9.74 9
  524.0 13.98 13
  524.1 14.36 14
  524.2 10.28 10
  524.4 4.58 4
  524.5 8.23 8
  524.6 13.37 13
  524.7 15.72 15
  524.8 13.29 13
  524.9 8.11 8
  525.1 5.3 5
  525.2 9.49 9
  525.3 13.18 13
  525.4 13.19 13
  525.5 9.47 9
  525.7 4.8 4
  525.8 8.96 8
  525.9 14.33 14
  526.0 15.96 15
  526.1 12.36 12
  526.4 5.77 5
  526.5 10.47 10
  526.6 14.03 14
  526.7 13.7 13
  526.8 9.82 9
  527.0 5.11 5
  527.1 8.96 8
  527.2 14.45 14
  527.3 17.16 17
  527.4 14.77 14
  527.5 9.5 9
  527.7 7.1 7
  527.8 11.16 11
  527.9 13.95 13
  528.0 12.78 12
  528.1 8.8 8
  528.3 6.6 6
  528.4 10.63 10
  528.5 14.16 14
  528.6 13.69 13
  528.7 9.36 9
  528.9 5.37 5
  529.0 10.57 10
  529.1 16.5 16
  529.2 18.08 18
  529.3 14.23 14
  529.6 8.48 8
  529.7 12.97 12
  529.8 15.93 15
  529.9 15.17 15
  530.0 11.3 11
  530.3 6.84 6
  530.4 10.32 10
  530.5 12.2 12
  530.6 10.28 10
  531.5 3.47 3
  531.6 8.2 8
  531.7 12.25 12
  531.8 12.46 12
  531.9 9.02 9
  532.1 5.94 5
  532.2 10.42 10
  532.3 15.34 15
  532.4 16.06 16
  532.5 11.26 11
  532.6 4.13 4
  532.8 1.64 1
  532.9 7.12 7
  533.0 11.96 11
  533.1 13.06 13
  533.2 10.79 10
  534.1 5.7 5
  534.2 11.33 11
  534.3 15.89 15
  534.4 15.29 15
  534.5 9.99 9
  534.7 4.13 4
  534.8 8.02 8
  534.9 12.72 12
  535.0 14.45 14
  535.1 12.49 12
  535.3 8.92 8
  535.4 11.86 11
  535.5 15.7 15
  535.6 16.38 16
  535.7 12.61 12
  536.0 5.36 5
  536.1 10.73 10
  536.2 15.7 15
  536.3 15.89 15
  536.4 10.64 10
  536.6 2.72 2
  536.7 6.87 6
  536.8 12.93 12
  536.9 15.67 15
  537.0 13.24 13
  537.1 8.36 8
  537.3 6.52 6
  537.4 10.19 10
  537.5 12.77 12
  537.6 11.71 11
  537.7 7.82 7
  537.9 4.95 4
  538.0 8.86 8
  538.1 12.88 12
  538.2 13.37 13
  538.3 9.84 9
  538.6 6.91 6
  538.7 11.74 11
  538.8 14.73 14
  538.9 13.53 13
  539.8 5.77 5
  539.9 10.69 10
  540.0 15.34 15
  540.1 15.99 15
  540.2 12.25 12
  541.1 3.21 3
  541.2 8.32 8
  541.3 14.28 14
  541.4 16.27 16
  541.5 12.42 12
  542.4 6.13 6
  542.5 10.32 10
  542.6 14.23 14
  542.7 14.54 14
  542.8 10.88 10
  543.0 5.58 5
  543.1 8.9 8
  543.2 13.19 13
  543.3 14.2 14
  543.4 10.95 10
  543.6 5.33 5
  543.7 8.61 8
  543.8 13.6 13
  543.9 15.56 15
  544.0 12.37 12
  544.1 6.57 6
  544.3 4.17 4
  544.4 8.87 8
  544.5 13.43 13
  544.6 14.6 14
  544.7 11.77 11
  545.0 7.42 7
  545.1 11.51 11
  545.2 14.0 13
  545.3 12.61 12
  545.4 8.73 8
  545.6 6.63 6
  545.7 10.1 10
  545.8 13.1 13
  545.9 13.06 13
  546.0 10.09 10
  546.3 6.38 6
  546.4 8.96 8
  546.5 10.56 10
  546.6 9.58 9
  546.9 6.65 6
  547.0 11.49 11
  547.1 14.76 14
  547.2 12.78 12
  547.3 7.06 7
  547.5 3.75 3
  547.6 8.68 8
  547.7 12.99 12
  547.8 12.71 12
  547.9 8.08 8
  548.1 4.48 4
  548.2 10.22 10
  548.3 16.12 16
  548.4 17.09 17
  548.5 12.49 12
  548.8 6.56 6
  548.9 11.84 11
  549.0 14.88 14
  549.1 12.87 12
  549.2 7.57 7
  549.4 4.45 4
  549.5 9.47 9
  549.6 14.58 14
  549.7 15.72 15
  549.8 12.15 12
  550.1 6.03 6
  550.2 10.75 10
  550.3 13.76 13
  550.4 12.18 12
  550.5 7.36 7
  550.7 4.93 4
  550.8 10.4 10
  550.9 15.81 15
  551.0 16.78 16
  551.1 12.61 12
  551.2 6.66 6
  551.4 5.27 5
  551.5 9.93 9
  551.6 13.12 13
  551.7 12.14 12
  552.6 4.99 4
  552.7 10.25 10
  552.8 15.11 15
  552.9 15.64 15
  553.0 11.2 11
  553.3 6.11 6
  553.4 12.21 12
  553.5 16.16 16
  553.6 14.9 14
  553.7 9.97 9
  553.9 5.55 5
  554.0 9.11 9
  554.1 13.21 13
  554.2 14.25 14
  554.3 11.26 11
  554.5 5.55 5
  554.6 8.68 8
  554.7 13.4 13
  554.8 15.08 15
  554.9 12.12 12
  555.2 6.5 6
  555.3 10.53 10
  555.4 13.38 13
  555.5 12.9 12
  555.6 9.78 9
  555.8 7.09 7
  555.9 10.03 10
  556.0 13.43 13
  556.1 14.25 14
  556.2 11.45 11
  556.5 7.91 7
  556.6 13.44 13
  556.7 17.03 17
  556.8 15.36 15
  556.9 9.68 9
  557.1 4.79 4
  557.2 9.31 9
  557.3 14.16 14
  557.4 15.02 15
  557.5 11.17 11
  558.4 6.88 6
  558.5 10.88 10
  558.6 13.76 13
  558.7 13.37 13
  558.8 10.42 10
  559.0 6.44 6
  559.1 8.92 8
  559.2 12.72 12
  559.3 14.2 14
  559.4 11.71 11
  559.5 7.25 7
  559.7 5.3 5
  559.8 8.74 8
  559.9 11.65 11
  560.0 11.41 11
  560.1 8.17 8
  560.3 5.36 5
  560.4 9.43 9
  560.5 13.88 13
  560.6 14.89 14
  560.7 12.25 12
  560.9 9.43 9
  561.0 12.09 12
  561.1 14.54 14
  561.2 14.03 14
  561.3 10.18 10
  561.5 3.63 3
  561.6 6.68 6
  561.7 12.5 12
  561.8 16.28 16
  561.9 14.88 14
  562.0 9.72 9
  562.2 4.99 4
  562.3 8.78 8
  562.4 13.19 13
  562.5 14.08 14
  562.6 10.51 10
  562.8 4.73 4
  562.9 8.46 8
  563.0 13.73 13
  563.1 16.0 15
  563.2 13.78 13
  563.5 9.02 9
  563.6 12.47 12
  563.7 14.45 14
  563.8 12.94 12
  563.9 9.02 9
  564.1 6.53 6
  564.2 10.37 10
  564.3 14.33 14
  564.4 15.08 15
  564.5 11.8 11
  564.8 5.62 5
  564.9 10.83 10
  565.0 15.07 15
  565.1 14.76 14
  565.2 10.75 10
  565.4 7.85 7
  565.5 11.54 11
  565.6 14.7 14
  565.7 14.16 14
  565.8 10.0 9
  566.0 5.01 5
  566.1 9.02 9
  566.2 14.66 14
  566.3 17.22 17
  566.4 14.48 14
  566.5 8.65 8
  566.7 5.14 5
  566.8 9.39 9
  566.9 13.32 13
  567.0 13.66 13
  567.1 10.2 10
  567.3 5.05 5
  567.4 8.17 8
  567.5 12.81 12
  567.6 14.93 14
  567.7 12.64 12
  568.0 7.26 7
  568.1 11.61 11
  568.2 13.91 13
  568.3 11.61 11
  568.6 5.17 5
  568.7 9.9 9
  568.8 13.73 13
  568.9 13.53 13
  569.0 9.5 9
  569.2 3.63 3
  569.3 7.31 7
  569.4 13.15 13
  569.5 16.06 16
  569.6 13.32 13
  569.7 7.25 7
  569.9 4.74 4
  570.0 10.6 10
  570.1 15.59 15
  570.2 15.55 15
  570.3 11.08 11
  570.5 5.97 5
  570.6 9.5 9
  570.7 14.23 14
  570.8 16.21 16
  570.9 13.63 13
  571.2 7.34 7
  571.3 12.56 12
  571.4 16.22 16
  571.5 14.36 14
  571.6 8.2 8
  571.8 4.01 4
  571.9 8.99 8
  572.0 13.1 13
  572.1 12.66 12
  572.2 8.29 8
  572.4 2.47 2
  572.5 5.87 5
  572.6 11.13 11
  572.7 13.79 13
  572.8 11.58 11
  573.1 5.55 5
  573.2 10.57 10
  573.3 13.88 13
  573.4 12.2 12
  573.5 6.94 6
  573.7 2.71 2
  573.8 6.76 6
  573.9 11.39 11
  574.0 13.22 13
  574.1 11.16 11
  574.4 7.25 7
  574.5 11.02 11
  574.6 13.44 13
  574.7 12.24 12
  574.8 8.18 8
  575.0 4.35 4
  575.1 8.51 8
  575.2 13.87 13
  575.3 16.13 16
  575.4 13.66 13
  575.7 7.57 7
  575.8 12.43 12
  575.9 15.99 15
  576.0 14.96 14
  576.1 10.51 10
  576.3 7.42 7
  576.4 10.45 10
  576.5 12.36 12
  576.6 11.08 11
  576.9 6.22 6
  577.0 9.93 9
  577.1 13.98 13
  577.2 15.27 15
  577.3 12.66 12
  577.6 6.12 6
  577.7 10.81 10
  577.8 14.86 14
  577.9 14.38 14
  578.0 9.36 9
  578.2 2.45 2
  578.3 6.52 6
  578.4 12.74 12
  578.5 15.53 15
  578.6 12.36 12
  578.9 6.15 6
  579.0 12.5 12
  579.1 16.57 16
  579.2 14.7 14
  579.3 8.67 8
  579.5 4.64 4
  579.6 9.52 9
  579.7 14.33 14
  579.8 15.3 15
  579.9 11.95 11
  580.8 6.78 6
  580.9 12.08 12
  581.0 16.25 16
  581.1 15.46 15
  581.2 10.29 10
  581.4 5.26 5
  581.5 9.33 9
  581.6 13.46 13
  581.7 13.91 13
  581.8 10.79 10
  582.7 6.25 6
  582.8 10.66 10
  582.9 14.83 14
  583.0 15.3 15
  583.1 11.79 11
  584.6 3.6 3
  584.7 7.66 7
  584.8 12.53 12
  584.9 14.39 14
  585.0 11.8 11
  585.3 5.34 5
  585.4 9.91 9
  585.5 13.72 13
  585.6 13.65 13
  585.7 10.09 10
  585.9 6.52 6
  586.0 9.62 9
  586.1 12.56 12
  586.2 12.05 12
  586.5 6.22 6
  586.6 10.47 10
  586.7 14.64 14
  586.8 15.34 15
  586.9 11.73 11
  587.0 6.05 6
  587.2 3.24 3
  587.3 7.69 7
  587.4 11.33 11
  587.5 10.48 10
  587.6 5.71 5
  587.8 1.67 1
  587.9 6.93 6
  588.0 13.03 13
  588.1 15.12 15
  588.2 12.01 11
  589.1 6.16 6
  589.2 11.61 11
  589.3 15.58 15
  589.4 15.33 15
  589.5 11.63 11
  590.4 6.75 6
  590.5 12.08 12
  590.6 15.36 15
  590.7 13.54 13
  590.8 8.11 8
  591.0 5.08 5
  591.1 9.85 9
  591.2 14.17 14
  591.3 14.83 14
  591.4 11.86 11
  591.7 8.23 8
  591.8 12.23 12
  591.9 14.93 14
  592.0 13.94 13
  592.1 9.91 9
  592.3 7.01 7
  592.4 10.89 10
  592.5 13.97 13
  592.6 12.99 12
  592.7 8.93 8
  592.9 6.22 6
  593.0 10.34 10
  593.1 14.49 14
  593.2 15.04 15
  593.3 11.57 11
  593.6 8.27 8
  593.7 12.62 12
  593.8 15.55 15
  593.9 14.38 14
  594.0 9.49 9
  594.2 4.82 4
  594.3 9.55 9
  594.4 15.12 15
  594.5 17.01 16
  594.6 14.22 14
  594.7 9.56 9
  594.9 7.91 7
  595.0 11.05 11
  595.1 12.96 12
  595.2 11.38 11
  595.5 6.53 6
  595.6 10.85 10
  595.7 14.8 14
  595.8 15.31 15
  595.9 12.06 12
  596.8 7.22 7
  596.9 11.79 11
  597.0 14.69 14
  597.1 13.94 13
  597.4 9.02 9
  597.5 12.04 12
  597.6 14.52 14
  597.7 13.97 13
  597.8 10.26 10
  598.0 4.23 4
  598.1 7.16 7
  598.2 12.55 12
  598.3 15.64 15
  598.4 13.31 13
  598.5 7.28 7
  598.7 3.0 2
  598.8 8.02 8
  598.9 13.25 13
  599.0 14.32 14
  599.1 10.72 10
//
