ACCESSION: MSBNK-RIKEN_NPDepo-NGA02339
RECORD_TITLE: Salutaridine; LC-ESI-QQQ; MS2; Frag=135.0V CID@10.0; [M+H]+
DATE: 2018.04.04
AUTHORS: Nogawa T, Okano A, CSRS, RIKEN
LICENSE: CC BY
COMMENT: Origin: Plant
COMMENT: SubCategory_DNP: Isoquinoline alkaloids, Morphine alkaloids
CH$NAME: Salutaridine
CH$COMPOUND_CLASS: Alkaloids
CH$FORMULA: C19H21NO4
CH$EXACT_MASS: 327.3835
CH$SMILES: COC1=CC23CCN(C)C(Cc4ccc(OC)c(O)c42)C3=CC1=O
CH$IUPAC: InChI=1S/C19H21NO4/c1-20-7-6-19-10-16(24-3)14(21)9-12(19)13(20)8-11-4-5-15(23-2)18(22)17(11)19/h4-5,9-10,13,22H,6-8H2,1-3H3
CH$LINK: CAS 1936-18-1
CH$LINK: CHEMSPIDER 16736005
CH$LINK: INCHIKEY GVTRUVGBZQJVTF-UHFFFAOYSA-N
CH$LINK: PUBCHEM CID:625160
AC$INSTRUMENT: Agilent 6410 Triple Quadrupole LC/MS system
AC$INSTRUMENT_TYPE: LC-ESI-QQQ
AC$MASS_SPECTROMETRY: MS_TYPE MS2
AC$MASS_SPECTROMETRY: ION_MODE POSITIVE
MS$FOCUSED_ION: PRECURSOR_TYPE [M+H]+
PK$SPLASH: splash10-004i-0009000000-f0ab46400da7f7b4b0e2
PK$NUM_PEAK: 15
PK$PEAK: m/z int. rel.int.
  327.3 0.31 0
  327.4 1.59 1
  327.5 4.58 4
  327.6 9.91 9
  327.7 19.13 19
  327.8 34.39 34
  327.9 55.42 55
  328.0 77.29 77
  328.1 93.4 93
  328.2 100.0 99
  328.3 95.48 95
  328.4 78.34 78
  328.5 50.58 50
  328.6 21.52 21
  328.7 2.27 2
//
