ACCESSION: MSBNK-RIKEN_NPDepo-NGA02105
RECORD_TITLE: Inosinic acid; LC-ESI-QQQ; MS2; Frag=135.0V CID@25.0; [M+H]+
DATE: 2018.04.04
AUTHORS: Nogawa T, Okano A, CSRS, RIKEN
LICENSE: CC BY
COMMENT: Origin: Microbe
COMMENT: Formula(Parent): C10H13N4O8P
COMMENT: Bottle Name:Inosine-5'-monophosphate
COMMENT: PRIME Parent Name:Inosine-5'-monophosphate
COMMENT: PRIME in-house No.:0258, Purines
CH$NAME: Inosine-5'-monophosphate
CH$NAME: 5'-IMP
CH$NAME: IMP
CH$NAME: Inosinic acid
CH$COMPOUND_CLASS: Carbohydrates
CH$FORMULA: C10H13N4O8P
CH$EXACT_MASS: 348.04710
CH$SMILES: C1=NC2=C(C(=O)N1)N=CN2[C@H]3[C@@H]([C@@H]([C@H](O3)COP(=O)(O)O)O)O
CH$IUPAC: InChI=1S/C10H13N4O8P/c15-6-4(1-21-23(18,19)20)22-10(7(6)16)14-3-13-5-8(14)11-2-12-9(5)17/h2-4,6-7,10,15-16H,1H2,(H,11,12,17)(H2,18,19,20)/t4-,6-,7-,10-/m1/s1
CH$LINK: CAS 25249-22-3
CH$LINK: CHEMSPIDER 8264
CH$LINK: COMPTOX DTXSID80948097
CH$LINK: INCHIKEY GRSZFWQUAKGDAV-KQYNXXCUSA-N
CH$LINK: KAPPAVIEW KPC00613
CH$LINK: KEGG C00130
CH$LINK: KNAPSACK C00007224
CH$LINK: PUBCHEM CID:135398640
AC$INSTRUMENT: Agilent 6410 Triple Quadrupole LC/MS system
AC$INSTRUMENT_TYPE: LC-ESI-QQQ
AC$MASS_SPECTROMETRY: MS_TYPE MS2
AC$MASS_SPECTROMETRY: ION_MODE POSITIVE
MS$FOCUSED_ION: PRECURSOR_TYPE [M+H]+
PK$SPLASH: splash10-000i-0900000000-7bdc0d74c80012ee819c
PK$NUM_PEAK: 25
PK$PEAK: m/z int. rel.int.
  96.5 1.0 0
  96.6 2.48 2
  96.7 4.98 4
  96.8 7.53 7
  96.9 8.72 8
  97.0 8.16 8
  97.1 6.65 6
  97.2 5.06 5
  97.3 3.5 3
  136.2 0.2 0
  136.3 1.98 1
  136.4 6.79 6
  136.5 13.09 13
  136.6 19.61 19
  136.7 29.36 29
  136.8 47.59 47
  136.9 72.84 72
  137.0 93.75 93
  137.1 100.0 99
  137.2 92.39 92
  137.3 76.74 76
  137.4 54.82 54
  137.5 28.67 28
  137.6 6.79 6
  137.7 0.0 0
//
