ACCESSION: MSBNK-RIKEN_NPDepo-NGA01075
RECORD_TITLE: alpha-Dihydrolysergol; LC-ESI-QQQ; MS2; Frag=135.0V CID@10.0; [M+H]+
DATE: 2018.04.04
AUTHORS: Nogawa T, Okano A, CSRS, RIKEN
LICENSE: CC BY
COMMENT: SubCategory_DNP: : Alkaloids derived from tryptophan, Ergot alkaloids, Clavine alkaloid
CH$NAME: alpha-Dihydrolysergol
CH$COMPOUND_CLASS: Alkaloids
CH$FORMULA: C16H20N2O
CH$EXACT_MASS: 256.3506
CH$SMILES: CN1C[C@H](CO)C[C@@H]2c3cccc4[nH]cc(c34)C[C@H]21
CH$IUPAC: InChI=1S/C16H20N2O/c1-18-8-10(9-19)5-13-12-3-2-4-14-16(12)11(7-17-14)6-15(13)18/h2-4,7,10,13,15,17,19H,5-6,8-9H2,1H3/t10-,13-,15-/m1/s1
CH$LINK: CAS 18051-16-6
CH$LINK: CHEMSPIDER 4438476
CH$LINK: INCHIKEY UFKTZIXVYHGAES-WDBKCZKBSA-N
CH$LINK: COMPTOX DTXSID20939343
CH$LINK: PUBCHEM CID:5274124
AC$INSTRUMENT: Agilent 6410 Triple Quadrupole LC/MS system
AC$INSTRUMENT_TYPE: LC-ESI-QQQ
AC$MASS_SPECTROMETRY: MS_TYPE MS2
AC$MASS_SPECTROMETRY: ION_MODE POSITIVE
MS$FOCUSED_ION: PRECURSOR_TYPE [M+H]+
PK$SPLASH: splash10-0a4i-0090000000-b003ed29bf793b655913
PK$NUM_PEAK: 16
PK$PEAK: m/z int. rel.int.
  256.3 0.59 0
  256.4 2.19 2
  256.5 5.19 5
  256.6 9.76 9
  256.7 17.84 17
  256.8 32.6 32
  256.9 54.21 54
  257.0 77.05 76
  257.1 93.51 93
  257.2 100.0 99
  257.3 96.77 96
  257.4 83.38 83
  257.5 59.48 59
  257.6 30.57 30
  257.7 7.51 7
  257.8 0.0 0
//
