ACCESSION: MSBNK-RIKEN_NPDepo-NGA02006
RECORD_TITLE: Nudicauline; LC-ESI-QQQ; MS2; Frag=135.0V CID@15.0; [M+H]+
DATE: 2018.04.04
AUTHORS: Nogawa T, Okano A, CSRS, RIKEN
LICENSE: CC BY
COMMENT: Origin: Plant
COMMENT: SubCategory_DNP: Terpenoid alkaloids, Diterpene alkaloid, Delphinium alkaloid
CH$NAME: Nudicauline
CH$COMPOUND_CLASS: Alkaloids
CH$FORMULA: C38H50N2O11
CH$EXACT_MASS: 710.829
CH$SMILES: CCN1C[C@]2(COC(=O)c3ccccc3N3C(=O)CC(C)C3=O)CCC(OC)C34C5C[C@@H]6[C@@H](OC)C[C@@](O)(C5[C@H]6OC(C)=O)[C@](O)(C13)[C@@H](OC)C42
CH$IUPAC: InChI=1S/C38H50N2O11/c1-7-39-17-35(18-50-33(44)21-10-8-9-11-24(21)40-27(42)14-19(2)32(40)43)13-12-26(48-5)37-23-15-22-25(47-4)16-36(45,28(23)29(22)51-20(3)41)38(46,34(37)39)31(49-6)30(35)37/h8-11,19,22-23,25-26,28-31,34,45-46H,7,12-18H2,1-6H3/t19?,22-,23?,25+,26?,28?,29+,30?,31+,34?,35+,36-,37?,38-/m1/s1
CH$LINK: CAS 99815-83-5
CH$LINK: CHEMSPIDER 390352 163943 23219298
CH$LINK: INCHIKEY IPWQJEONCUFCOR-PUEURLJZSA-N
CH$LINK: PUBCHEM CID:45033127
AC$INSTRUMENT: Agilent 6410 Triple Quadrupole LC/MS system
AC$INSTRUMENT_TYPE: LC-ESI-QQQ
AC$MASS_SPECTROMETRY: MS_TYPE MS2
AC$MASS_SPECTROMETRY: ION_MODE POSITIVE
MS$FOCUSED_ION: PRECURSOR_TYPE [M+H]+
PK$SPLASH: splash10-03di-0000000900-3c57b545c7819dbf2b4f
PK$NUM_PEAK: 17
PK$PEAK: m/z int. rel.int.
  710.2 1.61 1
  710.3 3.22 3
  710.4 6.47 6
  710.5 12.17 12
  710.6 20.72 20
  710.7 32.01 31
  710.8 45.61 45
  710.9 60.9 60
  711.0 76.78 76
  711.1 91.07 90
  711.2 100.0 99
  711.3 99.01 98
  711.4 85.5 85
  711.5 61.76 61
  711.6 34.98 34
  711.7 13.37 13
  711.8 1.55 1
//
