ACCESSION: MSBNK-RIKEN_NPDepo-NGA04328
RECORD_TITLE: Pseudojervine; LC-ESI-QQQ; MS2; Frag=135.0V CID@5.0; [M+HCOO]-
DATE: 2018.04.04
AUTHORS: Nogawa T, Okano A, CSRS, RIKEN
LICENSE: CC BY
COMMENT: Origin: Plant
COMMENT: SubCategory_DNP: Steroidal alkaloids, Veratrum alkaloids
CH$NAME: Pseudojervine
CH$COMPOUND_CLASS: Alkaloids
CH$FORMULA: C33H49NO8
CH$EXACT_MASS: 587.7604
CH$SMILES: CC1=C2C(=O)[C@H]3C(CC=C4C[C@@H](OC5O[C@H](CO)[C@@H](O)[C@H](O)[C@H]5O)CC[C@@]43C)[C@@H]2CC[C@]12OC1C[C@H](C)CN[C@H]1[C@H]2C
CH$IUPAC: InChI=1S/C33H49NO8/c1-15-11-22-26(34-13-15)17(3)33(42-22)10-8-20-21-6-5-18-12-19(40-31-30(39)29(38)27(36)23(14-35)41-31)7-9-32(18,4)25(21)28(37)24(20)16(33)2/h5,15,17,19-23,25-27,29-31,34-36,38-39H,6-14H2,1-4H3/t15-,17+,19-,20-,21?,22?,23+,25+,26-,27+,29-,30+,31?,32-,33-/m0/s1
CH$LINK: CAS 36069-05-3
CH$LINK: CHEMSPIDER 16735984
CH$LINK: INCHIKEY HYDDDNUKNMMWBD-ORIQALLGSA-N
CH$LINK: PUBCHEM CID:16396498
AC$INSTRUMENT: Agilent 6410 Triple Quadrupole LC/MS system
AC$INSTRUMENT_TYPE: LC-ESI-QQQ
AC$MASS_SPECTROMETRY: MS_TYPE MS2
AC$MASS_SPECTROMETRY: ION_MODE NEGATIVE
MS$FOCUSED_ION: PRECURSOR_TYPE [M+HCOO]-
PK$SPLASH: splash10-001i-0000009000-7dc674863ad0267f0038
PK$NUM_PEAK: 19
PK$PEAK: m/z int. rel.int.
  631.1 0.32 0
  631.2 1.45 1
  631.3 4.53 4
  631.4 9.42 9
  631.5 16.54 16
  631.6 26.03 26
  631.7 35.93 35
  631.8 43.64 43
  631.9 50.33 50
  632.0 60.65 60
  632.1 75.82 75
  632.2 90.71 90
  632.3 99.51 99
  632.4 99.98 99
  632.5 90.66 90
  632.6 70.14 70
  632.7 42.21 42
  632.8 16.66 16
  632.9 2.67 2
//
