ACCESSION: MSBNK-RIKEN_NPDepo-NGA03684
RECORD_TITLE: Ajmaline; LC-ESI-QQQ; MS2; Frag=135.0V CID@5.0; [M+HCOO]-
DATE: 2018.04.04
AUTHORS: Nogawa T, Okano A, CSRS, RIKEN
LICENSE: CC BY
COMMENT: Origin: Plant
COMMENT: Formula(Parent): C20H26N2O2
COMMENT: Bottle Name:Ajmaline
COMMENT: PRIME Parent Name:Ajmaline
COMMENT: PRIME in-house No.:V0319
COMMENT: SubCategory_DNP: Monoterpenoid indole alkaloids, Ajmaline alkaloids, Indole alkaloids
CH$NAME: Ajmalin
CH$NAME: Cardiorythmine
CH$NAME: Raugalline
CH$NAME: Rauwolfine
CH$NAME: Tachmalin
CH$NAME: Ajmalan-17,21-diol
CH$NAME: (13S,16S,18S,1R,14R,17R)-13-ethyl-8-methyl-8,15-diazahexacyclo(14.2.1.0(1,9).0(2,7).0(10,15).0(12,17))nonadeca-2(7),3,5-triene-14,18-diol
CH$NAME: Ajmaline
CH$COMPOUND_CLASS: Alkaloids
CH$FORMULA: C20H26N2O2
CH$EXACT_MASS: 326.4424
CH$SMILES: CC[C@H]1C2CC3C4N(C)c5ccccc5[C@]45C[C@@H](C2C5O)N3[C@@H]1O
CH$IUPAC: InChI=1S/C20H26N2O2/c1-3-10-11-8-14-17-20(12-6-4-5-7-13(12)21(17)2)9-15(16(11)18(20)23)22(14)19(10)24/h4-7,10-11,14-19,23-24H,3,8-9H2,1-2H3/t10-,11?,14?,15-,16?,17?,18?,19+,20+/m0/s1
CH$LINK: CAS 4360-12-7
CH$LINK: CHEMSPIDER 10469368
CH$LINK: INCHIKEY CJDRUOGAGYHKKD-GHVJXGQCSA-N
AC$INSTRUMENT: Agilent 6410 Triple Quadrupole LC/MS system
AC$INSTRUMENT_TYPE: LC-ESI-QQQ
AC$MASS_SPECTROMETRY: MS_TYPE MS2
AC$MASS_SPECTROMETRY: ION_MODE NEGATIVE
MS$FOCUSED_ION: PRECURSOR_TYPE [M+HCOO]-
PK$SPLASH: splash10-00di-0009000000-b6d2486357d548a0ca3c
PK$NUM_PEAK: 12
PK$PEAK: m/z int. rel.int.
  372.4 1.52 1
  372.5 9.34 9
  372.6 33.74 33
  372.7 66.44 66
  372.8 88.56 88
  372.9 92.55 92
  373.0 89.23 89
  373.1 87.52 87
  373.2 80.16 80
  373.3 58.22 58
  373.4 28.64 28
  373.5 7.17 7
//
