ACCESSION: MSBNK-RIKEN_NPDepo-NGA02187
RECORD_TITLE: Songorine; LC-ESI-QQQ; MS2; Frag=135.0V CID@10.0; [M+H]+
DATE: 2018.04.04
AUTHORS: Nogawa T, Okano A, CSRS, RIKEN
LICENSE: CC BY
COMMENT: Origin: Plant
COMMENT: SubCategory_DNP: Terpenoid alkaloids, Diterpene alkaloid, Aconitum alkaloid
CH$NAME: Songorine
CH$COMPOUND_CLASS: Alkaloids
CH$FORMULA: C22H31NO3
CH$EXACT_MASS: 357.4973
CH$SMILES: C=C1[C@@H]2C[C@]3(C(CC2=O)[C@@]24C(O)CC[C@@]5(C)CN(CC)C2[C@@H]3CC54)[C@@H]1O
CH$IUPAC: InChI=1S/C22H31NO3/c1-4-23-10-20(3)6-5-17(25)22-15(20)7-13(18(22)23)21-9-12(11(2)19(21)26)14(24)8-16(21)22/h12-13,15-19,25-26H,2,4-10H2,1,3H3/t12-,13-,15?,16?,17?,18?,19+,20-,21-,22-/m0/s1
CH$LINK: CAS 509-24-0
CH$LINK: CHEMSPIDER 16736029
CH$LINK: INCHIKEY CBOSLVQFGANWTL-VTXPNNKDSA-N
AC$INSTRUMENT: Agilent 6410 Triple Quadrupole LC/MS system
AC$INSTRUMENT_TYPE: LC-ESI-QQQ
AC$MASS_SPECTROMETRY: MS_TYPE MS2
AC$MASS_SPECTROMETRY: ION_MODE POSITIVE
MS$FOCUSED_ION: PRECURSOR_TYPE [M+H]+
PK$SPLASH: splash10-0a4i-0009000000-0b2bd3b2cb62fc1a5b0c
PK$NUM_PEAK: 15
PK$PEAK: m/z int. rel.int.
  357.4 0.35 0
  357.5 1.73 1
  357.6 4.87 4
  357.7 10.61 10
  357.8 20.14 20
  357.9 34.75 34
  358.0 54.26 54
  358.1 75.41 75
  358.2 92.51 92
  358.3 100.0 99
  358.4 94.12 94
  358.5 74.16 74
  358.6 45.02 44
  358.7 17.24 17
  358.8 0.97 0
//
