ACCESSION: MSBNK-RIKEN_NPDepo-NGA05003
RECORD_TITLE: cyclocarposide; LC-ESI-QQQ; MS2; Frag=135.0V CID@25.0; [M+HCOO]-
DATE: 2018.04.04
AUTHORS: Nogawa T, Okano A, CSRS, RIKEN
LICENSE: CC BY
COMMENT: Origin: Plant
COMMENT: SubCategory_DNP: Triterpenoids
CH$NAME: cyclocarposide
CH$COMPOUND_CLASS: Terpenoids
CH$FORMULA: C41H68O13
CH$EXACT_MASS: 768.9913
CH$SMILES: C[C@H]1O[C@H](O[C@H]2CC3[C@]4(C)C[C@H](O)C([C@@]5(C)CC[C@@H](C(C)(C)O)O5)[C@@]4(C)CC[C@]34C[C@@]43CCC(O[C@@H]4OC[C@@H](O)[C@H](O)[C@H]4O)C(C)(C)C23)[C@@H](O)[C@@H](O)[C@@H]1O
CH$IUPAC: InChI=1S/C41H68O13/c1-19-26(44)28(46)30(48)34(51-19)52-22-15-23-38(7)16-20(42)31(39(8)11-9-25(54-39)36(4,5)49)37(38,6)13-14-40(23)18-41(40)12-10-24(35(2,3)32(22)41)53-33-29(47)27(45)21(43)17-50-33/h19-34,42-49H,9-18H2,1-8H3/t19-,20+,21-,22+,23?,24?,25+,26-,27+,28+,29-,30+,31?,32?,33+,34-,37-,38+,39-,40+,41-/m1/s1
CH$LINK: CAS 135101-62-1
CH$LINK: CHEMSPIDER 10252329
CH$LINK: INCHIKEY UPADPCUOTDTWHH-DKNQSDBISA-N
AC$INSTRUMENT: Agilent 6410 Triple Quadrupole LC/MS system
AC$INSTRUMENT_TYPE: LC-ESI-QQQ
AC$MASS_SPECTROMETRY: MS_TYPE MS2
AC$MASS_SPECTROMETRY: ION_MODE NEGATIVE
MS$FOCUSED_ION: PRECURSOR_TYPE [M+HCOO]-
PK$SPLASH: splash10-03di-0000000090-178102b318f2584bc62c
PK$NUM_PEAK: 16
PK$PEAK: m/z int. rel.int.
  812.3 2.53 2
  812.4 4.0 3
  812.5 6.94 6
  812.6 13.35 13
  812.7 26.43 26
  812.8 47.94 47
  812.9 73.8 73
  813.0 93.63 93
  813.1 99.67 99
  813.2 96.04 95
  813.3 92.54 92
  813.4 89.26 89
  813.5 76.28 76
  813.6 50.45 50
  813.7 22.53 22
  813.8 6.18 6
//
