ACCESSION: MSBNK-RIKEN_NPDepo-NGA00788
RECORD_TITLE: Adenosine; LC-ESI-QQQ; MS2; Frag=135.0V CID@25.0; [M+H]+
DATE: 2018.04.04
AUTHORS: Nogawa T, Okano A, CSRS, RIKEN
LICENSE: CC BY
COMMENT: Formula(Parent): C10H13N5O4
COMMENT: Bottle Name:Adenosine
COMMENT: PRIME Parent Name:Adenosine
COMMENT: PRIME in-house No.:0040 R0018, Purines
CH$NAME: Ado
CH$NAME: Ade-Rib
CH$NAME: 9-beta-D-Ribofuranosyladenine
CH$NAME: Adenine riboside
CH$NAME: Adenyldeoxyriboside
CH$NAME: Sandesin
CH$NAME: Boniton
CH$NAME: Myocol
CH$NAME: Nucleocardyl
CH$NAME: Adenocard
CH$NAME: Adenosine
CH$COMPOUND_CLASS: Carbohydrates
CH$FORMULA: C10H13N5O4
CH$EXACT_MASS: 267.2462
CH$SMILES: Nc1ncnc2c1ncn2[C@@H]1O[C@H](CO)[C@@H](O)[C@H]1O
CH$IUPAC: InChI=1S/C10H13N5O4/c11-8-5-9(13-2-12-8)15(3-14-5)10-7(18)6(17)4(1-16)19-10/h2-4,6-7,10,16-18H,1H2,(H2,11,12,13)/t4-,6-,7-,10-/m1/s1
CH$LINK: CAS 58-61-7
CH$LINK: CHEMSPIDER 54923
CH$LINK: INCHIKEY OIRDTQYFTABQOQ-KQYNXXCUSA-N
CH$LINK: COMPTOX DTXSID1022558
CH$LINK: PUBCHEM CID:60961
AC$INSTRUMENT: Agilent 6410 Triple Quadrupole LC/MS system
AC$INSTRUMENT_TYPE: LC-ESI-QQQ
AC$MASS_SPECTROMETRY: MS_TYPE MS2
AC$MASS_SPECTROMETRY: ION_MODE POSITIVE
MS$FOCUSED_ION: PRECURSOR_TYPE [M+H]+
PK$SPLASH: splash10-000i-0900000000-07f7842fdc562c1e7fee
PK$NUM_PEAK: 16
PK$PEAK: m/z int. rel.int.
  135.2 0.83 0
  135.3 2.57 2
  135.4 6.08 6
  135.5 11.38 11
  135.6 19.94 19
  135.7 34.76 34
  135.8 56.2 56
  135.9 78.82 78
  136.0 94.75 94
  136.1 100.0 99
  136.2 95.37 95
  136.3 82.01 81
  136.4 60.22 60
  136.5 33.65 33
  136.6 10.75 10
  136.7 0.07 0
//
