ACCESSION: MSBNK-RIKEN_NPDepo-NGA04369
RECORD_TITLE: Lappaconitine; LC-ESI-QQQ; MS2; Frag=135.0V CID@25.0; [M+HCOO]-
DATE: 2018.04.04
AUTHORS: Nogawa T, Okano A, CSRS, RIKEN
LICENSE: CC BY
COMMENT: Origin: Plant
COMMENT: SubCategory_DNP: Terpenoid alkaloids, Diterpene alkaloid, Aconitum alkaloid
CH$NAME: Lappaconitine
CH$COMPOUND_CLASS: Alkaloids
CH$FORMULA: C32H44N2O8
CH$EXACT_MASS: 584.7161
CH$SMILES: CCN1C[C@]2(OC(=O)c3ccccc3N=C(C)O)CCC(OC)C34C2CC([C@@H]13)[C@@]1(O)C[C@H](OC)[C@H]2CC4[C@]1(O)C2OC
CH$IUPAC: InChI=1S/C32H44N2O8/c1-6-34-16-29(42-28(36)18-9-7-8-10-21(18)33-17(2)35)12-11-25(40-4)31-23(29)14-20(26(31)34)30(37)15-22(39-3)19-13-24(31)32(30,38)27(19)41-5/h7-10,19-20,22-27,37-38H,6,11-16H2,1-5H3,(H,33,35)/t19-,20?,22+,23?,24?,25?,26-,27?,29-,30+,31?,32+/m1/s1
CH$LINK: CAS 32854-75-4
CH$LINK: CHEMSPIDER 3749
CH$LINK: INCHIKEY NWBWCXBPKTTZNQ-FQGVCPELSA-N
CH$LINK: PUBCHEM CID:23010488
AC$INSTRUMENT: Agilent 6410 Triple Quadrupole LC/MS system
AC$INSTRUMENT_TYPE: LC-ESI-QQQ
AC$MASS_SPECTROMETRY: MS_TYPE MS2
AC$MASS_SPECTROMETRY: ION_MODE NEGATIVE
MS$FOCUSED_ION: PRECURSOR_TYPE [M+HCOO]-
PK$SPLASH: splash10-0bt9-0900000000-51976d01f806a245491b
PK$NUM_PEAK: 13
PK$PEAK: m/z int. rel.int.
  159.2 1.5 1
  159.3 6.82 6
  159.4 24.83 24
  159.5 52.85 52
  159.6 75.08 75
  159.7 78.25 78
  159.8 72.36 72
  159.9 78.97 78
  160.0 96.87 96
  160.1 99.33 99
  160.2 71.39 71
  160.3 30.84 30
  160.4 4.66 4
//
