ACCESSION: MSBNK-RIKEN_NPDepo-NGA03820
RECORD_TITLE: Guan-fu base Y; LC-ESI-QQQ; MS2; Frag=135.0V CID@25.0; [M+HCOO]-
DATE: 2018.04.04
AUTHORS: Nogawa T, Okano A, CSRS, RIKEN
LICENSE: CC BY
COMMENT: Origin: Plant
COMMENT: Formula(Parent): C22H29NO5
COMMENT: Bottle Name:Guan-fu base Y
COMMENT: PRIME Parent Name:Guan-fu base Y
COMMENT: PRIME in-house No.:V0331
COMMENT: SubCategory_DNP: Terpenoid alkaloids, Diterpene alkaloid, Aconitum alkaloid
CH$NAME: Guanfu base Y
CH$NAME: 11,13,14-trihydroxyhetisan-2-yl acetate
CH$NAME: (1S,3S,16S,19S,10R,14R)-9,10,19-trihydroxy-5-methyl-12-methylene-7-azaheptacyclo(9.6.2.0(1,8).0(5,17).0(7,16).0(9,14).0(14,18))nonadec-3-yl acetate
CH$NAME: Guan-fu base Y
CH$COMPOUND_CLASS: Alkaloids
CH$FORMULA: C22H29NO5
CH$EXACT_MASS: 387.4801
CH$SMILES: C=C1C[C@@]23CC4C5C6(C)C[C@H](OC(C)=O)CC57C2[C@H](O)C1[C@@H](O)[C@]3(O)[C@H]7N4C6
CH$IUPAC: InChI=1S/C22H29NO5/c1-9-4-20-7-12-15-19(3)5-11(28-10(2)24)6-21(15)16(20)14(25)13(9)17(26)22(20,27)18(21)23(12)8-19/h11-18,25-27H,1,4-8H2,2-3H3/t11-,12?,13?,14+,15?,16?,17+,18-,19?,20+,21?,22-/m0/s1
CH$LINK: CAS 110225-59-7
CH$LINK: CHEMSPIDER 20181446
CH$LINK: INCHIKEY XGTNTUKODZZCGL-FDLOETHHSA-N
AC$INSTRUMENT: Agilent 6410 Triple Quadrupole LC/MS system
AC$INSTRUMENT_TYPE: LC-ESI-QQQ
AC$MASS_SPECTROMETRY: MS_TYPE MS2
AC$MASS_SPECTROMETRY: ION_MODE NEGATIVE
MS$FOCUSED_ION: PRECURSOR_TYPE [M+HCOO]-
PK$SPLASH: splash10-000x-4889880000-4616615795913beda25e
PK$NUM_PEAK: 4300
PK$PEAK: m/z int. rel.int.
  50.5 10.16 10
  50.6 17.11 17
  50.7 21.66 21
  50.8 18.82 18
  50.9 10.13 10
  51.1 2.84 2
  51.2 10.55 10
  51.3 20.01 19
  51.4 23.83 23
  51.5 19.21 19
  51.6 10.65 10
  51.8 9.21 9
  51.9 16.55 16
  52.0 20.97 20
  52.1 18.24 18
  52.2 10.48 10
  52.4 4.23 4
  52.5 11.59 11
  52.6 20.17 20
  52.7 22.27 22
  52.8 15.78 15
  53.0 4.72 4
  53.1 11.41 11
  53.2 20.73 20
  53.3 24.18 24
  53.4 19.02 19
  53.7 10.12 10
  53.8 17.65 17
  53.9 21.68 21
  54.0 18.55 18
  54.1 11.23 11
  54.3 6.58 6
  54.4 11.51 11
  54.5 16.69 16
  54.6 18.17 18
  54.7 14.87 14
  54.9 8.4 8
  55.0 12.66 12
  55.1 19.45 19
  55.2 22.95 22
  55.3 19.93 19
  55.4 12.3 12
  55.6 4.41 4
  55.7 9.98 9
  55.8 17.51 17
  55.9 20.84 20
  56.0 17.82 17
  56.3 12.38 12
  56.4 18.74 18
  56.5 23.04 23
  56.6 21.08 21
  56.7 14.24 14
  56.9 8.88 8
  57.0 14.17 14
  57.1 19.5 19
  57.2 20.23 20
  57.3 15.64 15
  57.5 7.52 7
  57.6 11.3 11
  57.7 17.3 17
  57.8 19.76 19
  57.9 16.29 16
  58.0 10.04 10
  58.2 8.65 8
  58.3 14.8 14
  58.4 18.99 18
  58.5 16.49 16
  58.6 9.09 9
  58.8 5.96 5
  58.9 13.69 13
  59.0 20.04 20
  59.1 19.73 19
  59.2 13.28 13
  59.4 4.52 4
  59.5 9.03 9
  59.6 15.71 15
  59.7 18.99 18
  59.8 16.78 16
  59.9 11.77 11
  60.1 9.82 9
  60.2 14.13 14
  60.3 18.1 18
  60.4 18.56 18
  60.5 14.73 14
  60.7 8.01 8
  60.8 12.06 12
  60.9 18.47 18
  61.0 21.08 21
  61.1 16.74 16
  61.4 9.14 9
  61.5 17.78 17
  61.6 23.12 23
  61.7 20.55 20
  61.8 12.83 12
  62.0 8.52 8
  62.1 15.53 15
  62.2 21.72 21
  62.3 21.1 21
  62.4 13.66 13
  62.6 4.28 4
  62.7 9.63 9
  62.8 16.51 16
  62.9 19.0 18
  63.0 15.45 15
  63.1 9.08 9
  63.3 7.33 7
  63.4 13.28 13
  63.5 17.88 17
  63.6 17.22 17
  63.7 12.19 12
  63.9 7.96 7
  64.0 14.24 14
  64.1 21.63 21
  64.2 23.18 23
  64.3 16.51 16
  64.6 7.13 7
  64.7 16.46 16
  64.8 23.21 23
  64.9 22.63 22
  65.0 15.94 15
  65.2 8.52 8
  65.3 14.04 14
  65.4 20.69 20
  65.5 21.72 21
  65.6 15.26 15
  65.8 3.2 3
  65.9 8.18 8
  66.0 16.84 16
  66.1 21.88 21
  66.2 19.83 19
  66.3 13.35 13
  66.5 8.25 8
  66.6 13.56 13
  66.7 19.5 19
  66.8 20.51 20
  66.9 15.15 15
  67.1 5.89 5
  67.2 11.5 11
  67.3 20.14 20
  67.4 23.61 23
  67.5 18.41 18
  67.6 9.28 9
  67.8 7.69 7
  67.9 15.19 15
  68.0 20.45 20
  68.1 19.0 18
  68.2 11.58 11
  68.4 3.4 3
  68.5 10.16 10
  68.6 18.71 18
  68.7 22.02 21
  68.8 18.05 18
  68.9 11.0 10
  69.1 9.63 9
  69.2 15.94 15
  69.3 19.99 19
  69.4 17.19 17
  69.5 9.47 9
  69.7 6.7 6
  69.8 15.74 15
  69.9 23.39 23
  70.0 23.15 23
  70.1 15.7 15
  70.3 6.51 6
  70.4 12.27 12
  70.5 20.41 20
  70.6 24.57 24
  70.7 21.72 21
  70.8 14.56 14
  71.0 11.1 11
  71.1 17.47 17
  71.2 22.12 22
  71.3 20.17 20
  71.4 12.52 12
  71.6 3.97 3
  71.7 10.58 10
  71.8 19.61 19
  71.9 23.32 23
  72.0 18.64 18
  72.1 10.19 10
  72.3 8.99 8
  72.4 16.42 16
  72.5 20.71 20
  72.6 17.73 17
  72.7 10.27 10
  72.9 7.52 7
  73.0 14.7 14
  73.1 20.59 20
  73.2 20.2 20
  73.3 14.32 14
  73.5 7.14 7
  73.6 11.28 11
  73.7 17.2 17
  73.8 19.65 19
  73.9 15.63 15
  74.2 7.23 7
  74.3 15.86 15
  74.4 21.49 21
  74.5 18.86 18
  74.6 10.36 10
  74.8 6.22 6
  74.9 15.51 15
  75.0 23.85 23
  75.1 24.09 24
  75.2 16.39 16
  75.4 4.25 4
  75.5 9.23 9
  75.6 18.0 17
  75.7 23.09 23
  75.8 20.15 20
  75.9 11.87 11
  76.1 7.77 7
  76.2 15.79 15
  76.3 22.71 22
  76.4 22.63 22
  76.5 16.25 16
  76.7 8.37 8
  76.8 13.48 13
  76.9 20.21 20
  77.0 22.44 22
  77.1 17.92 17
  77.2 10.14 10
  77.4 6.38 6
  77.5 12.82 12
  77.6 19.71 19
  77.7 21.49 21
  77.8 16.69 16
  78.0 8.59 8
  78.1 13.77 13
  78.2 19.44 19
  78.3 18.55 18
  78.4 11.29 11
  78.6 4.45 4
  78.7 11.17 11
  78.8 19.24 19
  78.9 22.28 22
  79.0 18.0 17
  79.2 7.22 7
  79.3 11.77 11
  79.4 20.36 20
  79.5 25.16 25
  79.6 21.52 21
  79.7 11.99 11
  79.9 5.2 5
  80.0 13.71 13
  80.1 22.8 22
  80.2 25.05 25
  80.3 18.78 18
  80.6 9.92 9
  80.7 18.03 18
  80.8 22.98 22
  80.9 21.21 21
  81.0 15.0 14
  81.2 9.0 8
  81.3 13.34 13
  81.4 18.36 18
  81.5 19.39 19
  81.6 15.99 15
  81.8 10.72 10
  81.9 13.41 13
  82.0 17.47 17
  82.1 18.96 18
  82.2 15.7 15
  82.3 9.61 9
  82.5 7.43 7
  82.6 14.52 14
  82.7 21.74 21
  82.8 22.97 22
  82.9 16.76 16
  83.1 6.99 6
  83.2 12.21 12
  83.3 19.09 19
  83.4 21.04 21
  83.5 16.07 16
  83.8 7.83 7
  83.9 17.75 17
  84.0 25.76 25
  84.1 25.6 25
  84.2 18.28 18
  84.4 9.23 9
  84.5 14.6 14
  84.6 21.18 21
  84.7 21.94 21
  84.8 15.36 15
  85.0 6.07 6
  85.1 12.25 12
  85.2 19.92 19
  85.3 22.09 22
  85.4 17.2 17
  85.5 9.58 9
  85.7 8.11 8
  85.8 15.99 15
  85.9 22.67 22
  86.0 22.35 22
  86.1 15.64 15
  86.3 9.39 9
  86.4 15.08 15
  86.5 20.8 20
  86.6 21.33 21
  86.7 15.67 15
  87.0 6.99 6
  87.1 14.93 14
  87.2 21.22 21
  87.3 21.35 21
  87.4 16.15 16
  87.6 8.84 8
  87.7 12.83 12
  87.8 19.32 19
  87.9 22.32 22
  88.0 18.05 18
  88.1 9.24 9
  88.3 6.52 6
  88.4 14.67 14
  88.5 20.01 19
  88.6 17.46 17
  88.7 9.82 9
  88.9 7.11 7
  89.0 15.31 15
  89.1 22.62 22
  89.2 23.24 23
  89.3 17.31 17
  89.5 8.04 8
  89.6 12.46 12
  89.7 19.44 19
  89.8 22.23 22
  89.9 17.5 17
  90.2 8.8 8
  90.3 16.65 16
  90.4 21.42 21
  90.5 19.21 19
  90.6 12.39 12
  90.8 8.09 8
  90.9 14.15 14
  91.0 20.17 20
  91.1 21.37 21
  91.2 17.18 17
  91.3 11.02 11
  91.5 9.34 9
  91.6 15.1 15
  91.7 20.34 20
  91.8 20.83 20
  91.9 15.95 15
  92.1 8.37 8
  92.2 12.74 12
  92.3 18.35 18
  92.4 18.88 18
  92.5 13.24 13
  92.7 6.38 6
  92.8 12.49 12
  92.9 19.73 19
  93.0 21.45 21
  93.1 16.07 16
  93.3 6.23 6
  93.4 10.53 10
  93.5 17.53 17
  93.6 21.15 21
  93.7 18.5 18
  93.8 11.86 11
  94.0 7.39 7
  94.1 13.99 13
  94.2 21.15 21
  94.3 22.38 22
  94.4 15.72 15
  94.7 5.91 5
  94.8 14.26 14
  94.9 19.68 19
  95.0 18.44 18
  95.1 12.82 12
  95.3 8.64 8
  95.4 14.04 14
  95.5 20.21 20
  95.6 22.02 21
  95.7 18.03 18
  95.9 10.12 10
  96.0 14.07 14
  96.1 20.17 20
  96.2 22.37 22
  96.3 18.29 18
  96.4 11.14 11
  96.6 8.46 8
  96.7 13.92 13
  96.8 17.85 17
  96.9 16.26 16
  97.0 10.23 10
  97.2 7.18 7
  97.3 15.04 15
  97.4 22.32 22
  97.5 22.18 22
  97.6 14.57 14
  97.8 5.42 5
  97.9 11.98 11
  98.0 20.38 20
  98.1 23.43 23
  98.2 18.06 18
  98.3 8.22 8
  98.5 5.2 5
  98.6 15.35 15
  98.7 24.09 24
  98.8 24.24 24
  98.9 15.99 15
  99.1 3.45 3
  99.2 8.78 8
  99.3 17.17 17
  99.4 21.12 21
  99.5 17.94 17
  99.8 11.14 11
  99.9 17.32 17
  100.0 21.47 21
  100.1 19.23 19
  100.2 11.63 11
  100.4 6.02 6
  100.5 13.66 13
  100.6 21.39 21
  100.7 22.44 22
  100.8 16.14 16
  101.0 6.46 6
  101.1 11.8 11
  101.2 19.46 19
  101.3 22.76 22
  101.4 19.48 19
  101.5 12.93 12
  101.7 9.58 9
  101.8 14.9 14
  101.9 19.87 19
  102.0 19.94 19
  102.1 14.74 14
  102.4 10.06 10
  102.5 15.68 15
  102.6 19.21 19
  102.7 18.41 18
  103.0 13.43 13
  103.1 18.1 18
  103.2 21.72 21
  103.3 20.1 20
  103.4 13.45 13
  103.6 5.43 5
  103.7 10.53 10
  103.8 17.7 17
  103.9 20.98 20
  104.0 17.7 17
  104.3 10.25 10
  104.4 17.74 17
  104.5 22.05 22
  104.6 18.17 18
  104.7 8.66 8
  104.9 2.06 2
  105.0 9.53 9
  105.1 17.43 17
  105.2 19.37 19
  105.3 14.04 14
  105.5 4.49 4
  105.6 10.8 10
  105.7 20.8 20
  105.8 25.97 25
  105.9 21.84 21
  106.0 12.45 12
  106.2 8.35 8
  106.3 15.87 15
  106.4 21.55 21
  106.5 20.27 20
  106.6 13.43 13
  106.8 5.46 5
  106.9 9.01 9
  107.0 14.14 14
  107.1 17.09 17
  107.2 16.2 16
  107.4 11.51 11
  107.5 14.46 14
  107.6 20.38 20
  107.7 23.82 23
  107.8 20.59 20
  107.9 12.69 12
  108.1 9.79 9
  108.2 17.39 17
  108.3 22.35 22
  108.4 19.38 19
  108.5 10.94 10
  108.7 5.52 5
  108.8 12.1 12
  108.9 17.88 17
  109.0 17.64 17
  109.1 11.64 11
  109.3 4.39 4
  109.4 10.8 10
  109.5 19.74 19
  109.6 23.74 23
  109.7 19.07 19
  109.8 9.23 9
  110.0 2.73 2
  110.1 10.22 10
  110.2 18.26 18
  110.3 20.49 20
  110.4 15.78 15
  110.6 7.36 7
  110.7 12.31 12
  110.8 19.9 19
  110.9 23.73 23
  111.0 20.56 20
  111.1 13.2 13
  111.3 10.86 10
  111.4 18.56 18
  111.5 24.53 24
  111.6 23.47 23
  111.7 16.55 16
  111.9 9.47 9
  112.0 14.61 14
  112.1 20.14 20
  112.2 20.72 20
  112.3 15.78 15
  112.5 7.21 7
  112.6 10.96 10
  112.7 18.29 18
  112.8 23.36 23
  112.9 21.22 21
  113.0 12.81 12
  113.2 5.13 5
  113.3 12.14 12
  113.4 19.27 19
  113.5 20.16 20
  113.6 14.89 14
  113.8 8.39 8
  113.9 13.29 13
  114.0 19.42 19
  114.1 21.55 21
  114.2 17.61 17
  114.3 10.16 10
  114.5 5.42 5
  114.6 11.45 11
  114.7 17.34 17
  114.8 17.94 17
  114.9 13.14 13
  115.1 6.52 6
  115.2 11.66 11
  115.3 19.47 19
  115.4 23.53 23
  115.5 20.3 20
  115.6 12.9 12
  115.8 9.86 9
  115.9 15.39 15
  116.0 19.2 19
  116.1 17.88 17
  116.2 12.55 12
  116.4 7.88 7
  116.5 12.9 12
  116.6 18.29 18
  116.7 19.0 18
  116.8 14.41 14
  117.0 6.33 6
  117.1 9.72 9
  117.2 16.53 16
  117.3 21.54 21
  117.4 20.55 20
  117.5 14.43 14
  117.7 9.19 9
  117.8 15.18 15
  117.9 21.13 21
  118.0 21.69 21
  118.1 16.92 16
  118.2 11.23 11
  118.9 4.09 4
  119.0 8.82 8
  119.1 17.38 17
  119.2 22.8 22
  119.3 20.43 20
  119.4 11.85 11
  119.6 1.59 1
  119.7 7.02 7
  119.8 15.11 15
  119.9 19.14 19
  120.0 16.14 16
  120.9 7.46 7
  121.0 15.14 15
  121.1 21.52 21
  121.2 21.97 21
  121.3 16.32 16
  122.2 6.62 6
  122.3 15.37 15
  122.4 22.07 22
  122.5 21.47 21
  122.6 15.18 15
  122.8 10.48 10
  122.9 16.76 16
  123.0 22.56 22
  123.1 22.21 22
  123.2 15.22 15
  123.4 4.03 4
  123.5 9.78 9
  123.6 20.21 20
  123.7 26.83 26
  123.8 23.95 23
  123.9 14.42 14
  124.1 6.66 6
  124.2 12.33 12
  124.3 17.46 17
  124.4 16.99 16
  124.5 10.76 10
  124.7 3.32 3
  124.8 10.0 9
  124.9 18.83 18
  125.0 22.42 22
  125.1 18.19 18
  125.2 10.36 10
  125.4 8.93 8
  125.5 15.8 15
  125.6 19.86 19
  125.7 17.24 17
  126.0 10.5 10
  126.1 17.06 17
  126.2 21.18 21
  126.3 19.02 19
  126.4 11.83 11
  126.6 4.24 4
  126.7 10.14 10
  126.8 18.41 18
  126.9 22.8 22
  127.0 20.52 20
  127.1 13.97 13
  127.3 8.31 8
  127.4 13.5 13
  127.5 19.73 19
  127.6 20.97 20
  127.7 15.42 15
  127.9 7.85 7
  128.0 15.25 15
  128.1 24.02 23
  128.2 25.97 25
  128.3 19.44 19
  128.4 10.09 10
  128.6 8.27 8
  128.7 15.79 15
  128.8 21.67 21
  128.9 20.94 20
  129.0 14.03 14
  129.2 5.42 5
  129.3 10.94 10
  129.4 17.78 17
  129.5 19.4 19
  129.6 14.39 14
  129.8 5.28 5
  129.9 9.99 9
  130.0 17.84 17
  130.1 21.81 21
  130.2 18.05 18
  130.3 9.62 9
  130.5 5.41 5
  130.6 13.16 13
  130.7 21.06 21
  130.8 23.09 23
  130.9 18.28 18
  131.7 6.52 6
  131.8 10.48 10
  131.9 18.13 18
  132.0 24.04 24
  132.1 23.57 23
  132.2 16.77 16
  133.0 3.03 3
  133.1 10.26 10
  133.2 20.85 20
  133.3 25.43 25
  133.4 20.28 20
  133.5 10.72 10
  133.7 7.83 7
  133.8 15.92 15
  133.9 23.31 23
  134.0 24.64 24
  134.1 19.27 19
  134.9 4.71 4
  135.0 9.3 9
  135.1 16.87 16
  135.2 21.41 21
  135.3 19.93 19
  135.4 14.21 14
  136.2 8.94 8
  136.3 12.66 12
  136.4 18.41 18
  136.5 21.41 21
  136.6 18.54 18
  136.7 11.85 11
  136.9 7.76 7
  137.0 13.6 13
  137.1 19.14 19
  137.2 19.02 19
  137.3 13.01 12
  137.5 7.34 7
  137.6 13.72 13
  137.7 19.95 19
  137.8 20.29 20
  137.9 14.83 14
  138.1 6.85 6
  138.2 11.33 11
  138.3 18.89 18
  138.4 23.91 23
  138.5 22.48 22
  138.6 15.64 15
  138.8 7.46 7
  138.9 13.11 13
  139.0 21.65 21
  139.1 25.77 25
  139.2 21.56 21
  139.3 12.86 12
  139.5 11.33 11
  139.6 19.11 19
  139.7 23.02 22
  139.8 18.53 18
  139.9 9.2 9
  140.1 6.12 6
  140.2 14.62 14
  140.3 21.52 21
  140.4 21.75 21
  140.5 16.35 16
  141.3 7.68 7
  141.4 11.62 11
  141.5 18.34 18
  141.6 22.44 22
  141.7 20.4 20
  141.8 13.64 13
  142.0 6.73 6
  142.1 11.73 11
  142.2 18.15 18
  142.3 20.61 20
  142.4 17.34 17
  142.6 10.29 10
  142.7 13.96 13
  142.8 19.57 19
  142.9 21.53 21
  143.0 17.08 17
  143.1 8.99 8
  143.3 5.45 5
  143.4 13.98 13
  143.5 23.17 23
  143.6 26.12 26
  143.7 20.38 20
  143.8 10.38 10
  144.0 7.78 7
  144.1 16.9 16
  144.2 22.85 22
  144.3 20.07 20
  144.4 12.25 12
  144.6 10.93 10
  144.7 18.27 18
  144.8 23.05 23
  144.9 21.04 21
  145.0 13.87 13
  145.2 6.81 6
  145.3 11.92 11
  145.4 18.37 18
  145.5 21.18 21
  145.6 18.54 18
  146.5 5.93 5
  146.6 13.49 13
  146.7 19.73 19
  146.8 20.15 20
  146.9 15.61 15
  147.1 9.86 9
  147.2 13.49 13
  147.3 18.36 18
  147.4 19.5 19
  147.5 14.84 14
  147.7 6.38 6
  147.8 11.97 11
  147.9 20.44 20
  148.0 23.97 23
  148.1 18.91 18
  148.2 9.27 9
  148.4 4.83 4
  148.5 12.7 12
  148.6 20.5 20
  148.7 23.13 23
  148.8 20.03 20
  149.1 14.28 14
  149.2 19.0 18
  149.3 22.05 22
  149.4 20.06 20
  149.5 13.81 13
  149.7 8.43 8
  149.8 14.41 14
  149.9 20.55 20
  150.0 20.36 20
  150.1 13.32 13
  150.3 5.27 5
  150.4 12.31 12
  150.5 20.71 20
  150.6 23.01 22
  150.7 16.78 16
  150.8 6.58 6
  151.0 3.39 3
  151.1 12.41 12
  151.2 19.93 19
  151.3 20.31 20
  151.4 14.59 14
  151.6 7.53 7
  151.7 11.57 11
  151.8 16.56 16
  151.9 17.61 17
  152.0 13.32 13
  152.2 4.66 4
  152.3 8.5 8
  152.4 15.76 15
  152.5 20.3 20
  152.6 18.58 18
  152.7 12.77 12
  152.9 10.99 10
  153.0 17.4 17
  153.1 22.14 22
  153.2 20.35 20
  153.3 13.15 13
  153.5 6.78 6
  153.6 13.52 13
  153.7 20.92 20
  153.8 22.28 22
  153.9 16.18 16
  154.2 9.1 9
  154.3 17.25 17
  154.4 22.67 22
  154.5 21.59 21
  154.6 15.45 15
  154.8 8.05 8
  154.9 12.01 11
  155.0 17.12 17
  155.1 17.89 17
  155.2 12.61 12
  155.4 3.32 3
  155.5 8.61 8
  155.6 17.06 17
  155.7 21.54 21
  155.8 18.82 18
  155.9 12.12 12
  156.1 9.85 9
  156.2 15.53 15
  156.3 18.9 18
  156.4 16.14 16
  156.5 9.36 9
  156.7 5.87 5
  156.8 12.1 12
  156.9 17.73 17
  157.0 18.13 18
  157.1 13.48 13
  157.3 6.73 6
  157.4 11.22 11
  157.5 18.48 18
  157.6 22.6 22
  157.7 19.74 19
  157.8 11.63 11
  158.0 5.38 5
  158.1 12.68 12
  158.2 20.47 20
  158.3 22.11 22
  158.4 16.27 16
  159.3 10.46 10
  159.4 17.67 17
  159.5 22.36 22
  159.6 20.62 20
  159.7 13.73 13
  159.9 6.17 6
  160.0 11.26 11
  160.1 17.32 17
  160.2 18.55 18
  160.3 13.49 13
  160.6 5.49 5
  160.7 12.63 12
  160.8 18.56 18
  160.9 18.98 18
  161.0 14.32 14
  161.2 8.12 8
  161.3 12.52 12
  161.4 18.28 18
  161.5 19.68 19
  161.6 14.75 14
  161.9 7.98 7
  162.0 15.42 15
  162.1 19.57 19
  162.2 16.34 16
  162.4 5.66 5
  162.5 9.9 9
  162.6 17.79 17
  162.7 21.82 21
  162.8 18.16 18
  162.9 9.79 9
  163.1 4.51 4
  163.2 11.76 11
  163.3 20.13 20
  163.4 23.82 23
  163.5 20.34 20
  163.6 12.3 12
  163.8 6.08 6
  163.9 11.5 11
  164.0 16.44 16
  164.1 16.35 16
  164.4 10.93 10
  164.5 17.02 17
  164.6 22.09 22
  164.7 21.51 21
  164.8 16.04 16
  165.0 11.44 11
  165.1 16.23 16
  165.2 21.18 21
  165.3 21.62 21
  165.4 16.23 16
  165.5 8.52 8
  165.7 6.72 6
  165.8 14.4 14
  165.9 21.72 21
  166.0 23.29 23
  166.1 18.08 18
  166.2 10.71 10
  166.9 7.46 7
  167.0 10.92 10
  167.1 16.02 16
  167.2 18.74 18
  167.3 16.6 16
  167.4 10.79 10
  167.6 8.2 8
  167.7 14.96 14
  167.8 20.3 20
  167.9 19.06 19
  168.0 12.34 12
  168.2 6.37 6
  168.3 12.9 12
  168.4 20.57 20
  168.5 22.67 22
  168.6 17.01 16
  168.7 8.24 8
  168.9 6.79 6
  169.0 14.57 14
  169.1 20.73 20
  169.2 20.99 20
  169.3 15.97 15
  169.5 8.51 8
  169.6 13.35 13
  169.7 20.85 20
  169.8 23.47 23
  169.9 17.41 17
  170.8 5.94 5
  170.9 14.12 14
  171.0 21.98 21
  171.1 23.36 23
  171.2 16.73 16
  171.3 7.07 7
  171.5 5.11 5
  171.6 12.9 12
  171.7 18.23 18
  171.8 16.61 16
  172.1 8.71 8
  172.2 16.7 16
  172.3 23.34 23
  172.4 22.76 22
  172.5 15.29 15
  172.7 5.15 5
  172.8 10.25 10
  172.9 17.6 17
  173.0 20.65 20
  173.1 16.73 16
  173.3 7.11 7
  173.4 11.97 11
  173.5 20.08 20
  173.6 23.85 23
  173.7 20.03 20
  173.8 11.99 11
  174.0 6.44 6
  174.1 12.55 12
  174.2 19.81 19
  174.3 22.58 22
  174.4 18.65 18
  175.3 4.89 4
  175.4 14.33 14
  175.5 21.66 21
  175.6 21.17 21
  175.7 13.94 13
  175.9 3.63 3
  176.0 8.64 8
  176.1 17.33 17
  176.2 22.81 22
  176.3 20.77 20
  176.4 13.21 13
  176.6 7.23 7
  176.7 13.57 13
  176.8 19.94 19
  176.9 20.78 20
  177.0 15.8 15
  177.2 7.95 7
  177.3 11.7 11
  177.4 17.8 17
  177.5 20.66 20
  177.6 17.45 17
  177.8 9.34 9
  177.9 13.1 13
  178.0 18.72 18
  178.1 20.13 20
  178.2 15.52 15
  178.5 8.67 8
  178.6 16.41 16
  178.7 22.72 22
  178.8 22.74 22
  178.9 16.36 16
  179.1 6.02 6
  179.2 10.59 10
  179.3 17.91 17
  179.4 20.24 20
  179.5 14.4 14
  179.7 3.39 3
  179.8 11.03 11
  179.9 23.29 23
  180.0 30.55 30
  180.1 27.51 27
  180.2 17.08 17
  180.4 5.1 5
  180.5 10.51 10
  180.6 17.77 17
  180.7 20.1 20
  180.8 15.83 15
  181.0 7.53 7
  181.1 12.27 12
  181.2 20.35 20
  181.3 25.07 25
  181.4 21.84 21
  181.5 12.89 12
  181.7 6.88 6
  181.8 13.94 13
  181.9 19.83 19
  182.0 19.18 19
  182.1 13.18 13
  182.3 7.47 7
  182.4 12.61 12
  182.5 18.57 18
  182.6 20.28 20
  182.7 16.36 16
  183.0 10.53 10
  183.1 16.12 16
  183.2 19.06 19
  183.3 16.55 16
  183.4 10.59 10
  183.6 7.64 7
  183.7 14.73 14
  183.8 21.88 21
  183.9 22.6 22
  184.0 15.88 15
  184.2 5.12 5
  184.3 10.72 10
  184.4 20.1 20
  184.5 26.06 26
  184.6 24.19 24
  184.7 16.33 16
  184.9 7.8 7
  185.0 13.39 13
  185.1 20.54 20
  185.2 22.9 22
  185.3 18.93 18
  185.5 12.8 12
  185.6 17.34 17
  185.7 22.0 21
  185.8 21.12 21
  185.9 13.99 13
  186.1 2.82 2
  186.2 8.02 8
  186.3 17.45 17
  186.4 23.74 23
  186.5 21.97 21
  186.6 13.84 13
  186.8 6.35 6
  186.9 13.91 13
  187.0 22.08 22
  187.1 22.81 22
  187.2 15.24 15
  188.1 9.17 9
  188.2 15.77 15
  188.3 21.75 21
  188.4 21.69 21
  188.5 15.87 15
  188.7 10.54 10
  188.8 16.08 16
  188.9 21.51 21
  189.0 22.01 21
  189.1 16.7 16
  189.4 8.68 8
  189.5 17.99 17
  189.6 24.04 24
  189.7 20.64 20
  189.8 10.72 10
  190.0 6.09 6
  190.1 15.9 15
  190.2 24.61 24
  190.3 25.06 25
  190.4 17.43 17
  191.3 8.38 8
  191.4 15.02 15
  191.5 21.17 21
  191.6 21.91 21
  191.7 16.64 16
  191.9 7.77 7
  192.0 12.3 12
  192.1 19.3 19
  192.2 22.0 21
  192.3 17.46 17
  192.5 6.84 6
  192.6 11.08 11
  192.7 18.86 18
  192.8 23.04 23
  192.9 19.68 19
  193.0 11.73 11
  193.2 7.78 7
  193.3 14.89 14
  193.4 21.22 21
  193.5 21.53 21
  193.6 15.53 15
  193.8 5.84 5
  193.9 10.78 10
  194.0 19.09 19
  194.1 24.06 24
  194.2 21.69 21
  194.3 14.04 14
  194.5 7.46 7
  194.6 13.97 13
  194.7 21.22 21
  194.8 22.5 22
  194.9 16.34 16
  195.1 5.68 5
  195.2 11.56 11
  195.3 20.48 20
  195.4 23.81 23
  195.5 18.35 18
  195.8 9.29 9
  195.9 16.71 16
  196.0 20.96 20
  196.1 18.56 18
  196.2 11.75 11
  196.4 8.02 8
  196.5 15.71 15
  196.6 23.52 23
  196.7 24.89 24
  196.8 18.7 18
  197.1 9.57 9
  197.2 17.65 17
  197.3 22.99 22
  197.4 20.09 20
  197.5 10.75 10
  197.7 4.72 4
  197.8 13.27 13
  197.9 20.82 20
  198.0 20.59 20
  198.1 13.16 13
  198.3 4.32 4
  198.4 10.59 10
  198.5 18.76 18
  198.6 22.02 21
  198.7 17.99 17
  199.0 10.76 10
  199.1 17.2 17
  199.2 20.47 20
  199.3 17.29 17
  199.4 10.36 10
  199.6 7.98 7
  199.7 15.84 15
  199.8 23.36 23
  199.9 24.15 24
  200.0 17.05 17
  200.3 8.85 8
  200.4 17.48 17
  200.5 22.35 22
  200.6 19.37 19
  200.7 11.22 11
  200.9 6.23 6
  201.0 14.33 14
  201.1 22.73 22
  201.2 24.11 24
  201.3 17.11 17
  201.6 8.45 8
  201.7 17.13 17
  201.8 22.84 22
  201.9 20.99 20
  202.0 13.09 13
  202.2 6.16 6
  202.3 13.5 13
  202.4 20.58 20
  202.5 19.86 19
  202.6 11.38 11
  202.8 1.68 1
  202.9 9.93 9
  203.0 21.39 21
  203.1 26.69 26
  203.2 21.21 21
  203.3 10.11 10
  203.5 7.92 7
  203.6 16.82 16
  203.7 21.67 21
  203.8 18.86 18
  203.9 12.28 12
  204.1 9.53 9
  204.2 14.73 14
  204.3 18.9 18
  204.4 18.03 18
  204.5 12.67 12
  204.7 8.57 8
  204.8 15.08 15
  204.9 22.11 22
  205.0 23.71 23
  205.1 18.47 18
  205.2 10.48 10
  205.4 8.29 8
  205.5 15.54 15
  205.6 21.59 21
  205.7 20.98 20
  205.8 14.1 14
  206.0 6.88 6
  206.1 13.5 13
  206.2 20.63 20
  206.3 21.32 21
  206.4 15.01 14
  206.6 6.12 6
  206.7 10.99 10
  206.8 17.51 17
  206.9 19.66 19
  207.0 15.31 15
  207.3 8.56 8
  207.4 15.4 15
  207.5 19.5 19
  207.6 17.18 17
  207.7 10.53 10
  207.9 6.84 6
  208.0 14.33 14
  208.1 22.25 22
  208.2 24.25 24
  208.3 18.71 18
  208.4 10.44 10
  208.6 8.17 8
  208.7 13.9 13
  208.8 17.66 17
  208.9 15.7 15
  209.0 9.23 9
  209.2 5.52 5
  209.3 13.52 13
  209.4 21.45 21
  209.5 22.27 22
  209.6 15.12 15
  209.8 3.63 3
  209.9 9.85 9
  210.0 19.55 19
  210.1 23.78 23
  210.2 18.37 18
  210.3 8.17 8
  210.5 5.79 5
  210.6 15.78 15
  210.7 24.67 24
  210.8 26.4 26
  210.9 20.34 20
  211.8 10.88 10
  211.9 15.63 15
  212.0 19.3 19
  212.1 18.23 18
  212.2 12.23 12
  212.4 5.04 5
  212.5 10.54 10
  212.6 17.23 17
  212.7 18.58 18
  212.8 13.11 13
  213.0 4.01 4
  213.1 9.3 9
  213.2 17.41 17
  213.3 21.19 21
  213.4 17.32 17
  213.5 9.53 9
  213.7 8.18 8
  213.8 15.5 15
  213.9 20.42 20
  214.0 18.58 18
  214.1 11.54 11
  214.3 5.36 5
  214.4 10.99 10
  214.5 17.16 17
  214.6 18.77 18
  214.7 14.62 14
  215.0 6.92 6
  215.1 14.71 14
  215.2 20.87 20
  215.3 20.03 20
  215.4 13.16 13
  215.6 5.19 5
  215.7 10.48 10
  215.8 17.43 17
  215.9 20.1 20
  216.0 16.69 16
  216.2 8.6 8
  216.3 11.85 11
  216.4 18.3 18
  216.5 22.52 22
  216.6 20.38 20
  216.7 12.73 12
  216.9 5.07 5
  217.0 11.61 11
  217.1 19.31 19
  217.2 21.33 21
  217.3 16.09 16
  217.5 5.84 5
  217.6 10.41 10
  217.7 17.66 17
  217.8 19.83 19
  217.9 13.91 13
  218.2 6.31 6
  218.3 14.81 14
  218.4 19.93 19
  218.5 17.77 17
  218.6 10.3 10
  218.8 3.68 3
  218.9 9.83 9
  219.0 16.61 16
  219.1 17.82 17
  219.2 12.66 12
  219.4 4.35 4
  219.5 9.1 9
  219.6 16.8 16
  219.7 21.31 21
  219.8 19.02 19
  219.9 12.18 12
  220.1 8.84 8
  220.2 15.5 15
  220.3 20.77 20
  220.4 19.52 19
  220.5 12.81 12
  220.7 7.88 7
  220.8 15.23 15
  220.9 22.56 22
  221.0 23.09 23
  221.1 16.54 16
  221.4 10.76 10
  221.5 16.77 16
  221.6 20.63 20
  221.7 20.06 20
  221.8 15.53 15
  222.6 7.41 7
  222.7 12.52 12
  222.8 20.01 19
  222.9 23.4 23
  223.0 19.09 19
  223.1 9.76 9
  223.3 3.97 3
  223.4 12.59 12
  223.5 21.32 21
  223.6 23.0 22
  223.7 17.08 17
  224.5 4.91 4
  224.6 8.67 8
  224.7 15.53 15
  224.8 20.3 20
  224.9 19.38 19
  225.0 13.53 13
  225.2 7.0 6
  225.3 13.04 13
  225.4 20.66 20
  225.5 22.5 22
  225.6 16.16 16
  225.8 3.2 3
  225.9 8.39 8
  226.0 18.3 18
  226.1 24.46 24
  226.2 21.77 21
  226.3 13.43 13
  226.5 10.0 9
  226.6 18.22 18
  226.7 25.43 25
  226.8 25.88 25
  226.9 19.62 19
  227.7 9.93 9
  227.8 13.41 13
  227.9 19.96 19
  228.0 23.73 23
  228.1 20.9 20
  228.2 13.58 13
  228.4 8.12 8
  228.5 13.56 13
  228.6 18.61 18
  228.7 17.7 17
  228.8 10.17 10
  229.0 0.02 0
  229.1 7.39 7
  229.2 18.34 18
  229.3 24.09 24
  229.4 20.15 20
  229.5 10.33 10
  229.7 4.72 4
  229.8 13.16 13
  229.9 21.49 21
  230.0 23.07 23
  230.1 17.37 17
  230.3 8.92 8
  230.4 13.99 13
  230.5 20.01 19
  230.6 20.94 20
  230.7 15.65 15
  231.0 8.72 8
  231.1 17.09 17
  231.2 23.24 23
  231.3 22.32 22
  231.4 16.14 16
  231.6 12.61 12
  231.7 19.54 19
  231.8 26.06 26
  231.9 26.18 26
  232.0 19.02 19
  232.3 11.35 11
  232.4 19.75 19
  232.5 24.35 24
  232.6 21.21 21
  232.7 13.17 13
  232.9 8.57 8
  233.0 15.66 15
  233.1 21.77 21
  233.2 20.78 20
  233.3 13.11 13
  233.5 4.23 4
  233.6 10.22 10
  233.7 18.12 18
  233.8 21.82 21
  233.9 18.92 18
  234.0 11.87 11
  234.2 8.36 8
  234.3 15.79 15
  234.4 21.97 21
  234.5 20.7 20
  234.6 13.43 13
  234.8 9.85 9
  234.9 17.27 17
  235.0 22.71 22
  235.1 20.84 20
  235.2 13.22 13
  235.4 6.46 6
  235.5 13.32 13
  235.6 21.7 21
  235.7 24.99 24
  235.8 20.62 20
  235.9 12.11 12
  236.1 7.84 7
  236.2 15.51 15
  236.3 23.17 23
  236.4 24.8 24
  236.5 19.26 19
  236.6 11.16 11
  236.8 10.48 10
  236.9 17.18 17
  237.0 20.51 20
  237.1 17.33 17
  237.4 10.47 10
  237.5 16.62 16
  237.6 20.96 20
  237.7 19.69 19
  237.8 13.69 13
  238.0 6.76 6
  238.1 11.06 11
  238.2 16.46 16
  238.3 18.02 18
  238.4 14.68 14
  238.6 8.84 8
  238.7 12.99 12
  238.8 19.89 19
  238.9 24.21 24
  239.0 21.98 21
  239.1 14.73 14
  239.3 8.75 8
  239.4 14.34 14
  239.5 19.48 19
  239.6 19.06 19
  239.7 13.31 13
  239.9 5.98 5
  240.0 11.04 11
  240.1 18.29 18
  240.2 21.42 21
  240.3 17.41 17
  240.4 9.74 9
  240.6 8.47 8
  240.7 16.21 16
  240.8 21.91 21
  240.9 20.45 20
  241.0 12.8 12
  241.2 5.39 5
  241.3 12.49 12
  241.4 20.48 20
  241.5 22.78 22
  241.6 18.85 18
  241.8 12.05 12
  241.9 15.33 15
  242.0 20.09 20
  242.1 21.56 21
  242.2 17.59 17
  242.5 10.43 10
  242.6 16.49 16
  242.7 20.76 20
  242.8 19.5 19
  242.9 13.57 13
  243.1 7.16 7
  243.2 12.21 12
  243.3 18.77 18
  243.4 21.22 21
  243.5 17.39 17
  243.6 10.3 10
  243.8 8.35 8
  243.9 15.61 15
  244.0 21.58 21
  244.1 20.98 20
  244.2 14.7 14
  244.4 9.09 9
  244.5 14.03 14
  244.6 18.2 18
  244.7 16.94 16
  244.8 10.82 10
  245.0 5.93 5
  245.1 12.61 12
  245.2 19.95 19
  245.3 21.77 21
  245.4 16.22 16
  245.5 6.97 6
  245.7 2.57 2
  245.8 11.24 11
  245.9 19.78 19
  246.0 20.92 20
  246.1 14.26 14
  246.3 5.66 5
  246.4 12.23 12
  246.5 20.71 20
  246.6 24.05 24
  246.7 19.41 19
  246.8 10.3 10
  247.0 6.87 6
  247.1 15.56 15
  247.2 21.93 21
  247.3 20.28 20
  247.4 12.99 12
  247.6 7.81 7
  247.7 13.59 13
  247.8 19.37 19
  247.9 20.18 20
  248.0 15.25 15
  248.3 8.64 8
  248.4 14.55 14
  248.5 18.35 18
  248.6 17.11 17
  248.7 12.55 12
  248.9 10.45 10
  249.0 15.09 15
  249.1 19.06 19
  249.2 18.12 18
  249.3 12.0 11
  249.5 6.39 6
  249.6 14.41 14
  249.7 23.52 23
  249.8 25.69 25
  249.9 18.76 18
  250.0 8.39 8
  250.2 7.75 7
  250.3 17.31 17
  250.4 23.31 23
  250.5 20.91 20
  250.6 13.37 13
  250.8 9.83 9
  250.9 16.51 16
  251.0 22.41 22
  251.1 22.39 22
  251.2 15.97 15
  251.4 4.14 4
  251.5 8.52 8
  251.6 17.84 17
  251.7 24.63 24
  251.8 23.17 23
  251.9 15.16 15
  252.1 9.64 9
  252.2 17.02 17
  252.3 23.21 23
  252.4 22.31 22
  252.5 14.77 14
  252.7 3.83 3
  252.8 8.85 8
  252.9 16.75 16
  253.0 19.81 19
  253.1 15.07 15
  253.3 4.62 4
  253.4 9.68 9
  253.5 18.41 18
  253.6 23.73 23
  253.7 21.26 21
  253.8 12.9 12
  254.0 4.73 4
  254.1 11.69 11
  254.2 19.72 19
  254.3 21.45 21
  254.4 15.85 15
  254.6 6.36 6
  254.7 10.94 10
  254.8 18.54 18
  254.9 22.6 22
  255.0 19.23 19
  255.1 11.16 11
  255.3 8.39 8
  255.4 15.81 15
  255.5 20.85 20
  255.6 18.99 18
  255.7 12.41 12
  255.9 8.25 8
  256.0 14.54 14
  256.1 20.68 20
  256.2 21.04 21
  256.3 14.69 14
  256.5 3.7 3
  256.6 8.06 8
  256.7 15.79 15
  256.8 20.11 20
  256.9 17.67 17
  257.2 10.2 10
  257.3 17.27 17
  257.4 22.32 22
  257.5 20.5 20
  257.6 13.15 13
  257.8 6.23 6
  257.9 12.61 12
  258.0 20.04 20
  258.1 22.19 22
  258.2 17.36 17
  258.5 8.81 8
  258.6 16.78 16
  258.7 23.18 23
  258.8 22.67 22
  258.9 15.86 15
  259.1 7.34 7
  259.2 12.09 12
  259.3 18.42 18
  259.4 20.73 20
  259.5 17.24 17
  259.8 10.74 10
  259.9 16.13 16
  260.0 19.23 19
  260.1 16.85 16
  260.2 10.78 10
  260.4 8.65 8
  260.5 16.05 16
  260.6 22.36 22
  260.7 21.26 21
  260.8 12.56 12
  261.0 0.67 0
  261.1 7.54 7
  261.2 17.61 17
  261.3 22.41 22
  261.4 18.62 18
  261.5 10.62 10
  261.7 8.56 8
  261.8 15.72 15
  261.9 20.84 20
  262.0 19.25 19
  262.1 12.46 12
  262.3 6.21 6
  262.4 12.28 12
  262.5 19.93 19
  262.6 22.36 22
  262.7 16.68 16
  262.9 3.96 3
  263.0 9.46 9
  263.1 19.33 19
  263.2 24.87 24
  263.3 21.54 21
  263.4 12.51 12
  263.6 6.18 6
  263.7 12.83 12
  263.8 19.27 19
  263.9 20.24 20
  264.0 15.54 15
  264.8 3.06 3
  264.9 6.62 6
  265.0 14.54 14
  265.1 20.69 20
  265.2 20.21 20
  265.3 13.79 13
  265.5 6.74 6
  265.6 13.18 13
  265.7 20.37 20
  265.8 21.19 21
  265.9 14.57 14
  266.1 4.39 4
  266.2 9.32 9
  266.3 17.13 17
  266.4 21.68 21
  266.5 19.86 19
  266.6 13.87 13
  266.8 9.19 9
  266.9 13.69 13
  267.0 18.24 18
  267.1 18.5 18
  267.2 13.98 13
  267.4 9.19 9
  267.5 15.4 15
  267.6 22.43 22
  267.7 23.49 23
  267.8 16.91 16
  268.1 8.31 8
  268.2 15.79 15
  268.3 20.73 20
  268.4 19.68 19
  268.5 13.74 13
  268.7 5.82 5
  268.8 10.06 10
  268.9 16.77 16
  269.0 19.93 19
  269.1 16.28 16
  269.4 8.86 8
  269.5 16.54 16
  269.6 20.84 20
  269.7 18.21 18
  270.0 11.63 11
  270.1 17.08 17
  270.2 19.62 19
  270.3 16.69 16
  270.4 10.57 10
  270.6 6.03 6
  270.7 11.29 11
  270.8 18.06 18
  270.9 21.04 21
  271.0 17.66 17
  271.1 10.99 10
  271.3 9.23 9
  271.4 15.01 14
  271.5 19.04 19
  271.6 17.55 17
  271.7 11.69 11
  271.9 8.29 8
  272.0 15.11 15
  272.1 21.51 21
  272.2 21.63 21
  272.3 15.12 15
  272.5 6.02 6
  272.6 12.46 12
  272.7 21.84 21
  272.8 25.68 25
  272.9 20.14 20
  273.0 9.79 9
  273.2 6.35 6
  273.3 15.74 15
  273.4 24.46 24
  273.5 26.26 26
  273.6 20.56 20
  273.8 10.54 10
  273.9 15.44 15
  274.0 22.52 22
  274.1 24.28 24
  274.2 17.66 17
  274.3 6.99 6
  274.5 1.87 1
  274.6 10.58 10
  274.7 19.42 19
  274.8 21.7 21
  274.9 16.09 16
  275.1 6.51 6
  275.2 13.29 13
  275.3 22.09 22
  275.4 23.27 23
  275.5 14.53 14
  275.7 0.0 0
  275.8 6.24 6
  275.9 16.22 16
  276.0 21.84 21
  276.1 19.87 19
  276.2 13.31 13
  276.4 8.02 8
  276.5 13.08 13
  276.6 18.99 18
  276.7 20.31 20
  276.8 15.32 15
  277.0 6.35 6
  277.1 11.33 11
  277.2 18.5 18
  277.3 20.68 20
  277.4 15.91 15
  277.6 8.46 8
  277.7 13.8 13
  277.8 20.77 20
  277.9 23.67 23
  278.0 20.37 20
  278.1 13.3 13
  278.3 7.45 7
  278.4 12.99 12
  278.5 19.61 19
  278.6 22.01 21
  278.7 18.55 18
  279.0 12.51 12
  279.1 19.07 19
  279.2 23.0 22
  279.3 19.87 19
  279.4 11.45 11
  279.6 3.8 3
  279.7 9.81 9
  279.8 17.4 17
  279.9 20.77 20
  280.0 17.55 17
  280.1 10.34 10
  280.3 5.47 5
  280.4 12.14 12
  280.5 18.9 18
  280.6 19.16 19
  280.7 12.91 12
  280.9 9.07 9
  281.0 16.82 16
  281.1 22.88 22
  281.2 21.1 21
  281.3 12.87 12
  281.5 4.44 4
  281.6 9.75 9
  281.7 16.27 16
  281.8 18.9 18
  281.9 16.09 16
  282.2 10.29 10
  282.3 16.14 16
  282.4 19.57 19
  282.5 16.56 16
  282.6 9.24 9
  282.8 6.05 6
  282.9 14.43 14
  283.0 23.18 23
  283.1 25.54 25
  283.2 19.99 19
  283.3 11.57 11
  283.5 10.29 10
  283.6 16.35 16
  283.7 19.12 19
  283.8 15.32 15
  283.9 7.92 7
  284.1 6.29 6
  284.2 13.74 13
  284.3 20.28 20
  284.4 21.37 21
  284.5 16.55 16
  284.8 8.79 8
  284.9 15.68 15
  285.0 20.13 20
  285.1 18.09 18
  285.4 11.7 11
  285.5 18.02 18
  285.6 21.76 21
  285.7 18.98 18
  286.0 10.18 10
  286.1 18.86 18
  286.2 25.57 25
  286.3 23.91 23
  286.4 14.73 14
  286.6 2.85 2
  286.7 8.42 8
  286.8 16.27 16
  286.9 19.9 19
  287.0 17.52 17
  287.1 12.37 12
  287.3 10.33 10
  287.4 15.66 15
  287.5 20.77 20
  287.6 20.41 20
  287.7 13.56 13
  287.9 5.43 5
  288.0 12.68 12
  288.1 21.22 21
  288.2 23.87 23
  288.3 19.32 19
  288.6 11.13 11
  288.7 18.42 18
  288.8 23.95 23
  288.9 22.23 22
  289.0 13.96 13
  289.2 5.66 5
  289.3 13.1 13
  289.4 21.87 21
  289.5 24.29 24
  289.6 18.35 18
  289.7 9.05 9
  289.9 5.86 5
  290.0 12.88 12
  290.1 18.49 18
  290.2 18.26 18
  290.3 13.09 13
  290.5 8.58 8
  290.6 14.38 14
  290.7 20.18 20
  290.8 19.88 19
  290.9 13.21 13
  291.1 5.79 5
  291.2 11.31 11
  291.3 17.29 17
  291.4 18.37 18
  291.5 13.73 13
  291.8 6.77 6
  291.9 14.82 14
  292.0 20.75 20
  292.1 18.91 18
  292.2 11.14 11
  292.4 6.65 6
  292.5 14.46 14
  292.6 21.72 21
  292.7 22.38 22
  292.8 16.22 16
  293.0 8.15 8
  293.1 14.05 14
  293.2 21.54 21
  293.3 23.96 23
  293.4 19.33 19
  293.5 11.82 11
  293.7 8.67 8
  293.8 13.53 13
  293.9 18.07 18
  294.0 19.25 19
  294.1 16.65 16
  294.3 12.55 12
  294.4 16.32 16
  294.5 20.54 20
  294.6 19.92 19
  294.7 13.57 13
  294.9 5.07 5
  295.0 9.86 9
  295.1 16.74 16
  295.2 20.56 20
  295.3 18.84 18
  295.4 13.0 12
  295.6 8.08 8
  295.7 14.27 14
  295.8 20.72 20
  295.9 20.84 20
  296.0 14.19 14
  296.2 5.38 5
  296.3 10.82 10
  296.4 18.45 18
  296.5 22.0 21
  296.6 18.96 18
  296.7 12.39 12
  296.9 9.36 9
  297.0 14.6 14
  297.1 19.02 19
  297.2 18.36 18
  297.3 12.84 12
  297.5 8.73 8
  297.6 15.93 15
  297.7 22.7 22
  297.8 22.45 22
  297.9 15.19 15
  298.1 4.51 4
  298.2 9.41 9
  298.3 18.2 18
  298.4 24.24 24
  298.5 22.92 22
  298.6 16.06 16
  298.8 12.09 12
  298.9 18.02 18
  299.0 21.74 21
  299.1 19.02 19
  299.2 11.91 11
  299.4 5.08 5
  299.5 9.83 9
  299.6 16.64 16
  299.7 20.17 20
  299.8 17.4 17
  299.9 10.82 10
  300.1 8.39 8
  300.2 15.35 15
  300.3 21.46 21
  300.4 21.13 21
  300.5 14.22 14
  300.7 5.61 5
  300.8 11.64 11
  300.9 19.21 19
  301.0 21.96 21
  301.1 18.44 18
  301.2 12.51 12
  301.4 11.22 11
  301.5 16.58 16
  301.6 20.58 20
  301.7 19.04 19
  301.8 12.49 12
  302.0 5.27 5
  302.1 10.88 10
  302.2 17.75 17
  302.3 19.83 19
  302.4 15.79 15
  302.6 8.22 8
  302.7 12.1 12
  302.8 18.56 18
  302.9 21.61 21
  303.0 17.33 17
  303.3 6.69 6
  303.4 17.04 17
  303.5 24.93 24
  303.6 23.81 23
  303.7 15.74 15
  303.9 9.07 9
  304.0 15.87 15
  304.1 23.01 22
  304.2 24.56 24
  304.3 19.02 19
  304.4 10.53 10
  304.6 8.7 8
  304.7 16.94 16
  304.8 23.25 23
  304.9 22.03 22
  305.0 14.55 14
  305.2 9.46 9
  305.3 17.55 17
  305.4 24.61 24
  305.5 23.36 23
  305.6 14.42 14
  305.8 4.56 4
  305.9 11.4 11
  306.0 20.11 20
  306.1 23.36 23
  306.2 18.1 18
  306.3 8.6 8
  306.5 6.55 6
  306.6 15.61 15
  306.7 22.03 22
  306.8 20.35 20
  306.9 12.68 12
  307.1 6.49 6
  307.2 13.18 13
  307.3 20.25 20
  307.4 21.39 21
  307.5 15.31 15
  307.8 7.32 7
  307.9 15.16 15
  308.0 19.27 19
  308.1 15.98 15
  308.2 8.7 8
  308.4 6.74 6
  308.5 15.12 15
  308.6 23.64 23
  308.7 25.79 25
  308.8 19.37 19
  309.1 10.29 10
  309.2 19.73 19
  309.3 24.99 24
  309.4 21.75 21
  309.5 13.51 13
  309.7 8.15 8
  309.8 13.77 13
  309.9 19.41 19
  310.0 20.64 20
  310.1 16.63 16
  310.3 8.77 8
  310.4 12.65 12
  310.5 18.97 18
  310.6 21.18 21
  310.7 16.11 16
  311.0 7.27 7
  311.1 15.85 15
  311.2 22.34 22
  311.3 21.17 21
  311.4 13.3 13
  311.6 5.32 5
  311.7 11.8 11
  311.8 18.24 18
  311.9 18.24 18
  312.0 12.32 12
  312.2 6.92 6
  312.3 12.55 12
  312.4 18.91 18
  312.5 20.64 20
  312.6 16.28 16
  312.9 9.32 9
  313.0 15.14 15
  313.1 18.82 18
  313.2 17.39 17
  313.3 12.09 12
  313.5 7.55 7
  313.6 12.96 12
  313.7 19.3 19
  313.8 21.08 21
  313.9 16.87 16
  314.1 8.92 8
  314.2 13.44 13
  314.3 20.79 20
  314.4 24.71 24
  314.5 21.8 21
  314.6 14.24 14
  314.8 6.38 6
  314.9 10.86 10
  315.0 16.9 16
  315.1 19.12 19
  315.2 15.45 15
  315.4 7.57 7
  315.5 11.9 11
  315.6 18.72 18
  315.7 21.44 21
  315.8 16.96 16
  315.9 8.71 8
  316.1 6.93 6
  316.2 15.64 15
  316.3 22.84 22
  316.4 22.48 22
  316.5 14.86 14
  316.8 7.57 7
  316.9 14.62 14
  317.0 18.36 18
  317.1 15.92 15
  317.4 10.0 9
  317.5 17.61 17
  317.6 22.81 22
  317.7 20.66 20
  317.8 13.01 12
  318.0 7.07 7
  318.1 12.41 12
  318.2 17.44 17
  318.3 17.71 17
  318.4 12.84 12
  318.6 4.97 4
  318.7 9.91 9
  318.8 18.16 18
  318.9 22.74 22
  319.0 19.81 19
  319.1 12.48 12
  319.3 9.68 9
  319.4 16.19 16
  319.5 21.38 21
  319.6 20.54 20
  319.7 13.93 13
  319.9 4.6 4
  320.0 9.76 9
  320.1 17.96 17
  320.2 22.23 22
  320.3 18.78 18
  320.6 10.53 10
  320.7 18.74 18
  320.8 23.39 23
  320.9 20.1 20
  321.0 11.91 11
  321.2 7.48 7
  321.3 14.93 14
  321.4 22.16 22
  321.5 22.81 22
  321.6 15.45 15
  321.8 1.68 1
  321.9 7.39 7
  322.0 17.8 17
  322.1 23.56 23
  322.2 19.62 19
  322.3 9.81 9
  322.5 4.18 4
  322.6 11.99 11
  322.7 19.64 19
  322.8 21.37 21
  322.9 16.26 16
  323.7 5.8 5
  323.8 11.47 11
  323.9 19.09 19
  324.0 23.21 23
  324.1 20.49 20
  324.2 12.79 12
  324.4 8.24 8
  324.5 15.6 15
  324.6 21.97 21
  324.7 21.61 21
  324.8 14.93 14
  325.0 5.79 5
  325.1 10.53 10
  325.2 17.82 17
  325.3 21.39 21
  325.4 17.86 17
  325.5 9.82 9
  325.7 5.54 5
  325.8 14.04 14
  325.9 23.17 23
  326.0 25.46 25
  326.1 18.64 18
  327.0 7.73 7
  327.1 16.07 16
  327.2 22.37 22
  327.3 21.9 21
  327.4 15.04 15
  327.6 5.63 5
  327.7 10.53 10
  327.8 16.89 16
  327.9 18.21 18
  328.0 13.31 13
  328.2 6.29 6
  328.3 11.45 11
  328.4 18.28 18
  328.5 20.92 20
  328.6 16.88 16
  328.7 8.71 8
  328.9 3.97 3
  329.0 12.45 12
  329.1 21.61 21
  329.2 24.3 24
  329.3 19.1 19
  329.6 11.93 11
  329.7 19.12 19
  329.8 23.18 23
  329.9 20.27 20
  330.0 12.47 12
  330.2 6.7 6
  330.3 12.87 12
  330.4 18.44 18
  330.5 18.05 18
  330.6 12.41 12
  330.8 9.64 9
  330.9 17.61 17
  331.0 24.8 24
  331.1 24.18 24
  331.2 15.08 15
  331.4 1.2 1
  331.5 7.66 7
  331.6 18.51 18
  331.7 25.18 25
  331.8 22.92 22
  331.9 14.75 14
  332.1 9.16 9
  332.2 15.63 15
  332.3 21.12 21
  332.4 20.09 20
  332.5 13.56 13
  332.7 8.93 8
  332.8 15.47 15
  332.9 21.33 21
  333.0 20.76 20
  333.1 13.41 13
  333.3 1.65 1
  333.4 7.05 7
  333.5 16.48 16
  333.6 21.59 21
  333.7 18.14 18
  333.8 9.79 9
  334.0 6.51 6
  334.1 14.42 14
  334.2 21.96 21
  334.3 23.39 23
  334.4 18.13 18
  334.6 8.47 8
  334.7 12.69 12
  334.8 19.6 19
  334.9 22.31 22
  335.0 17.4 17
  335.1 8.26 8
  335.3 5.77 5
  335.4 14.86 14
  335.5 22.07 22
  335.6 21.88 21
  335.7 16.01 15
  335.9 9.91 9
  336.0 13.93 13
  336.1 18.55 18
  336.2 19.16 19
  336.3 14.12 14
  336.6 6.46 6
  336.7 14.13 14
  336.8 20.92 20
  336.9 22.39 22
  337.0 18.36 18
  337.2 12.52 12
  337.3 16.83 16
  337.4 21.07 21
  337.5 19.64 19
  337.6 12.82 12
  337.8 7.35 7
  337.9 13.6 13
  338.0 20.09 20
  338.1 21.69 21
  338.2 17.6 17
  338.3 11.34 11
  338.5 9.99 9
  338.6 15.33 15
  338.7 18.89 18
  338.8 17.43 17
  338.9 12.26 12
  339.1 6.99 6
  339.2 10.47 10
  339.3 15.23 15
  339.4 17.6 17
  339.5 15.98 15
  339.7 9.56 9
  339.8 11.97 11
  339.9 18.58 18
  340.0 24.04 24
  340.1 22.57 22
  340.2 14.38 14
  340.4 5.83 5
  340.5 12.9 12
  340.6 20.93 20
  340.7 22.8 22
  340.8 17.45 17
  341.0 8.99 8
  341.1 14.53 14
  341.2 21.88 21
  341.3 23.94 23
  341.4 18.47 18
  341.7 11.07 11
  341.8 19.12 19
  341.9 24.02 23
  342.0 21.29 21
  342.1 12.87 12
  342.3 5.26 5
  342.4 13.1 13
  342.5 23.39 23
  342.6 28.05 28
  342.7 22.88 22
  342.8 11.83 11
  343.0 5.96 5
  343.1 14.88 14
  343.2 22.45 22
  343.3 22.45 22
  343.4 15.81 15
  343.6 7.41 7
  343.7 12.2 12
  343.8 18.81 18
  343.9 21.45 21
  344.0 17.68 17
  344.3 9.84 9
  344.4 17.19 17
  344.5 21.82 21
  344.6 18.91 18
  344.7 10.5 10
  344.9 5.53 5
  345.0 14.86 14
  345.1 23.9 23
  345.2 24.3 24
  345.3 15.76 15
  345.5 6.51 6
  345.6 14.98 14
  345.7 24.3 24
  345.8 26.2 26
  345.9 19.28 19
  346.0 9.54 9
  346.2 8.92 8
  346.3 17.19 17
  346.4 22.11 22
  346.5 19.65 19
  346.6 12.94 12
  346.8 9.37 9
  346.9 14.38 14
  347.0 18.96 18
  347.1 19.28 19
  347.2 14.93 14
  347.4 7.76 7
  347.5 11.97 11
  347.6 19.1 19
  347.7 23.17 23
  347.8 20.31 20
  347.9 12.58 12
  348.1 8.17 8
  348.2 15.61 15
  348.3 22.79 22
  348.4 23.9 23
  348.5 18.33 18
  348.7 8.25 8
  348.8 12.79 12
  348.9 20.21 20
  349.0 22.88 22
  349.1 17.45 17
  349.2 8.15 8
  349.4 5.47 5
  349.5 13.57 13
  349.6 19.82 19
  349.7 19.18 19
  349.8 13.0 12
  350.0 7.13 7
  350.1 13.03 13
  350.2 20.25 20
  350.3 22.45 22
  350.4 17.39 17
  350.6 6.52 6
  350.7 11.44 11
  350.8 20.51 20
  350.9 25.78 25
  351.0 22.5 22
  351.1 13.29 13
  351.3 5.24 5
  351.4 11.44 11
  351.5 18.7 18
  351.6 21.04 21
  351.7 16.92 16
  351.9 8.75 8
  352.0 12.86 12
  352.1 19.0 18
  352.2 21.14 21
  352.3 17.2 17
  352.4 10.52 10
  352.6 7.9 7
  352.7 12.47 12
  352.8 15.77 15
  352.9 14.8 14
  353.2 8.42 8
  353.3 14.81 14
  353.4 20.9 20
  353.5 20.9 20
  353.6 14.33 14
  353.8 4.63 4
  353.9 9.57 9
  354.0 17.25 17
  354.1 21.06 21
  354.2 17.64 17
  354.3 9.37 9
  354.5 2.35 2
  354.6 8.65 8
  354.7 16.5 16
  354.8 19.96 19
  354.9 17.1 17
  355.7 5.82 5
  355.8 10.76 10
  355.9 18.61 18
  356.0 22.21 22
  356.1 18.28 18
  356.2 9.89 9
  356.4 5.21 5
  356.5 12.79 12
  356.6 20.5 20
  356.7 22.04 22
  356.8 16.25 16
  357.0 5.73 5
  357.1 10.79 10
  357.2 18.62 18
  357.3 21.46 21
  357.4 16.46 16
  357.7 8.63 8
  357.8 16.08 16
  357.9 21.34 21
  358.0 20.35 20
  358.1 13.88 13
  358.3 4.97 4
  358.4 9.69 9
  358.5 17.32 17
  358.6 21.37 21
  358.7 18.34 18
  358.8 11.42 11
  359.0 9.65 9
  359.1 15.84 15
  359.2 20.4 20
  359.3 19.67 19
  359.4 14.78 14
  359.6 9.93 9
  359.7 14.46 14
  359.8 19.57 19
  359.9 19.87 19
  360.0 13.9 13
  360.2 4.56 4
  360.3 10.95 10
  360.4 20.55 20
  360.5 24.8 24
  360.6 19.62 19
  360.7 9.69 9
  360.9 6.26 6
  361.0 14.12 14
  361.1 19.96 19
  361.2 18.86 18
  361.3 12.06 12
  361.5 5.21 5
  361.6 10.89 10
  361.7 17.4 17
  361.8 19.39 19
  361.9 16.07 16
  362.0 10.79 10
  362.2 8.94 8
  362.3 13.14 13
  362.4 16.49 16
  362.5 16.0 15
  362.7 10.99 10
  362.8 13.69 13
  362.9 18.92 18
  363.0 21.79 21
  363.1 18.89 18
  363.2 11.2 11
  363.4 3.63 3
  363.5 10.5 10
  363.6 19.57 19
  363.7 23.77 23
  363.8 20.11 20
  363.9 11.96 11
  364.1 6.51 6
  364.2 12.33 12
  364.3 17.7 17
  364.4 17.66 17
  364.5 12.6 12
  364.7 7.32 7
  364.8 11.89 11
  364.9 17.6 17
  365.0 20.3 20
  365.1 18.4 18
  365.3 12.06 12
  365.4 15.05 15
  365.5 21.11 21
  365.6 24.5 24
  365.7 21.17 21
  365.8 13.29 13
  366.0 8.29 8
  366.1 14.29 14
  366.2 19.16 19
  366.3 17.72 17
  366.4 11.04 11
  366.6 5.84 5
  366.7 12.2 12
  366.8 19.33 19
  366.9 21.61 21
  367.0 17.53 17
  367.2 8.72 8
  367.3 12.55 12
  367.4 19.39 19
  367.5 23.35 23
  367.6 20.98 20
  367.7 14.21 14
  367.9 9.41 9
  368.0 14.64 14
  368.1 19.74 19
  368.2 20.09 20
  368.3 14.91 14
  368.6 7.01 7
  368.7 13.94 13
  368.8 19.17 19
  368.9 18.36 18
  369.0 12.41 12
  369.2 6.15 6
  369.3 11.03 11
  369.4 16.55 16
  369.5 17.22 17
  369.6 11.97 11
  369.8 3.67 3
  369.9 9.01 9
  370.0 17.48 17
  370.1 22.23 22
  370.2 19.8 19
  370.3 13.14 13
  370.5 10.57 10
  370.6 16.14 16
  370.7 19.9 19
  370.8 18.3 18
  370.9 12.67 12
  371.1 8.32 8
  371.2 14.4 14
  371.3 21.26 21
  371.4 22.67 22
  371.5 16.74 16
  371.6 8.23 8
  371.8 7.88 7
  371.9 15.12 15
  372.0 19.31 19
  372.1 17.32 17
  372.4 10.67 10
  372.5 16.57 16
  372.6 21.44 21
  372.7 20.69 20
  372.8 14.21 14
  373.0 4.01 4
  373.1 8.44 8
  373.2 16.5 16
  373.3 21.59 21
  373.4 19.47 19
  373.5 12.2 12
  373.7 7.25 7
  373.8 13.67 13
  373.9 19.17 19
  374.0 18.15 18
  374.1 11.49 11
  374.3 6.55 6
  374.4 13.72 13
  374.5 21.42 21
  374.6 23.13 23
  374.7 17.05 17
  374.8 7.52 7
  375.0 3.26 3
  375.1 10.97 10
  375.2 18.02 18
  375.3 18.27 18
  375.4 11.93 11
  375.6 6.56 6
  375.7 14.62 14
  375.8 23.11 23
  375.9 24.38 24
  376.0 16.68 16
  376.3 6.52 6
  376.4 16.91 16
  376.5 23.11 23
  376.6 19.89 19
  376.7 10.8 10
  376.9 6.11 6
  377.0 14.27 14
  377.1 21.42 21
  377.2 20.85 20
  377.3 12.48 12
  377.5 3.19 3
  377.6 11.62 11
  377.7 21.37 21
  377.8 23.66 23
  377.9 16.89 16
  378.1 4.35 4
  378.2 9.67 9
  378.3 18.67 18
  378.4 23.48 23
  378.5 20.44 20
  378.6 12.53 12
  378.8 7.09 7
  378.9 14.05 14
  379.0 21.51 21
  379.1 22.63 22
  379.2 16.02 16
  380.1 5.15 5
  380.2 12.28 12
  380.3 18.23 18
  380.4 18.27 18
  380.5 12.65 12
  380.7 5.89 5
  380.8 11.59 11
  380.9 18.51 18
  381.0 20.44 20
  381.1 16.34 16
  381.3 8.47 8
  381.4 11.86 11
  381.5 18.44 18
  381.6 23.08 23
  381.7 21.45 21
  381.8 14.08 14
  382.0 5.15 5
  382.1 10.5 10
  382.2 17.4 17
  382.3 19.51 19
  382.4 15.46 15
  382.6 9.55 9
  382.7 14.83 14
  382.8 21.97 21
  382.9 25.06 25
  383.0 21.18 21
  383.1 13.01 12
  383.3 8.26 8
  383.4 14.55 14
  383.5 19.48 19
  383.6 18.19 18
  383.7 12.32 12
  383.9 9.24 9
  384.0 15.03 15
  384.1 20.32 20
  384.2 20.58 20
  384.3 14.87 14
  384.5 4.2 4
  384.6 9.29 9
  384.7 18.65 18
  384.8 24.09 24
  384.9 20.73 20
  385.0 11.38 11
  385.2 2.93 2
  385.3 9.1 9
  385.4 15.9 15
  385.5 16.76 16
  385.6 11.04 11
  385.8 5.05 5
  385.9 12.8 12
  386.0 22.3 22
  386.1 26.22 26
  386.2 21.96 21
  386.3 13.69 13
  386.5 10.18 10
  386.6 16.46 16
  386.7 21.46 21
  386.8 21.11 21
  386.9 16.29 16
  387.1 11.35 11
  387.2 15.05 15
  387.3 18.99 18
  387.4 19.47 19
  387.5 16.23 16
  388.4 5.77 5
  388.5 13.11 13
  388.6 21.81 21
  388.7 24.56 24
  388.8 18.79 18
  389.7 8.85 8
  389.8 15.16 15
  389.9 19.93 19
  390.0 19.33 19
  390.1 14.11 14
  390.3 9.57 9
  390.4 14.93 14
  390.5 20.35 20
  390.6 20.79 20
  390.7 15.51 15
  390.9 7.05 7
  391.0 12.07 12
  391.1 20.01 19
  391.2 24.43 24
  391.3 21.81 21
  391.4 14.78 14
  391.6 9.99 9
  391.7 15.78 15
  391.8 21.47 21
  391.9 21.88 21
  392.0 16.43 16
  392.2 7.68 7
  392.3 12.4 12
  392.4 19.92 19
  392.5 23.6 23
  392.6 20.16 20
  392.7 12.38 12
  392.9 6.4 6
  393.0 12.59 12
  393.1 20.01 19
  393.2 22.29 22
  393.3 17.24 17
  393.5 6.79 6
  393.6 12.58 12
  393.7 22.6 22
  393.8 28.07 28
  393.9 23.46 23
  394.0 12.31 12
  394.2 6.33 6
  394.3 15.5 15
  394.4 22.78 22
  394.5 21.62 21
  394.6 13.81 13
  394.8 8.17 8
  394.9 15.79 15
  395.0 22.93 22
  395.1 22.83 22
  395.2 15.33 15
  395.4 4.24 4
  395.5 8.86 8
  395.6 16.35 16
  395.7 20.55 20
  395.8 18.15 18
  395.9 11.12 11
  396.1 5.46 5
  396.2 13.07 13
  396.3 23.11 23
  396.4 28.23 28
  396.5 24.49 24
  396.6 15.71 15
  396.8 12.53 12
  396.9 19.53 19
  397.0 23.57 23
  397.1 20.45 20
  397.2 13.2 13
  397.4 10.38 10
  397.5 16.46 16
  397.6 20.9 20
  397.7 19.28 19
  397.8 12.83 12
  398.0 10.0 9
  398.1 18.2 18
  398.2 25.44 25
  398.3 25.47 25
  398.4 18.43 18
  398.7 10.86 10
  398.8 18.53 18
  398.9 23.7 23
  399.0 21.72 21
  399.1 13.21 13
  399.3 2.23 2
  399.4 8.4 8
  399.5 17.06 17
  399.6 20.02 19
  399.7 14.68 14
  399.9 5.22 5
  400.0 12.11 12
  400.1 22.01 21
  400.2 26.33 26
  400.3 21.44 21
  400.4 11.54 11
  400.6 4.41 4
  400.7 10.36 10
  400.8 16.34 16
  400.9 16.87 16
  401.0 11.49 11
  401.2 5.04 5
  401.3 11.48 11
  401.4 20.14 20
  401.5 24.16 24
  401.6 20.2 20
  401.7 12.04 12
  401.9 10.43 10
  402.0 17.17 17
  402.1 20.22 20
  402.2 16.36 16
  402.5 9.48 9
  402.6 17.72 17
  402.7 24.06 24
  402.8 23.07 23
  402.9 15.26 15
  403.1 5.94 5
  403.2 11.58 11
  403.3 18.75 18
  403.4 21.41 21
  403.5 18.16 18
  403.6 12.47 12
  403.8 9.46 9
  403.9 13.01 12
  404.0 16.82 16
  404.1 17.65 17
  404.2 14.11 14
  404.4 8.26 8
  404.5 13.65 13
  404.6 20.77 20
  404.7 22.48 22
  404.8 16.5 16
  405.1 7.85 7
  405.2 15.05 15
  405.3 19.06 19
  405.4 16.58 16
  405.6 6.86 6
  405.7 10.65 10
  405.8 19.55 19
  405.9 26.13 26
  406.0 24.52 24
  406.1 15.99 15
  406.3 5.75 5
  406.4 11.57 11
  406.5 19.3 19
  406.6 21.49 21
  406.7 16.13 16
  407.6 7.39 7
  407.7 13.0 12
  407.8 19.04 19
  407.9 20.73 20
  408.0 16.87 16
  408.2 8.75 8
  408.3 12.35 12
  408.4 18.57 18
  408.5 20.86 20
  408.6 16.08 16
  408.8 5.13 5
  408.9 9.57 9
  409.0 17.51 17
  409.1 21.77 21
  409.2 18.54 18
  409.3 10.25 10
  409.5 3.81 3
  409.6 11.45 11
  409.7 20.59 20
  409.8 24.14 24
  409.9 19.95 19
  410.0 12.35 12
  410.2 8.37 8
  410.3 12.09 12
  410.4 13.85 13
  410.5 10.68 10
  410.7 1.62 1
  410.8 5.59 5
  410.9 14.68 14
  411.0 22.28 22
  411.1 22.69 22
  411.2 16.07 16
  411.5 9.63 9
  411.6 16.85 16
  411.7 21.27 21
  411.8 19.09 19
  411.9 11.7 11
  412.1 6.09 6
  412.2 13.44 13
  412.3 20.96 20
  412.4 21.91 21
  412.5 16.04 16
  412.7 9.57 9
  412.8 15.77 15
  412.9 21.7 21
  413.0 20.97 20
  413.1 13.7 13
  413.3 4.85 4
  413.4 11.21 11
  413.5 20.63 20
  413.6 25.64 25
  413.7 22.09 22
  413.8 12.72 12
  414.0 5.35 5
  414.1 12.8 12
  414.2 21.2 21
  414.3 23.78 23
  414.4 18.79 18
  415.3 9.43 9
  415.4 16.04 16
  415.5 20.07 20
  415.6 17.55 17
  415.7 10.4 10
  415.9 5.41 5
  416.0 11.55 11
  416.1 17.57 17
  416.2 18.33 18
  416.3 13.34 13
  416.5 4.11 4
  416.6 7.59 7
  416.7 15.31 15
  416.8 21.73 21
  416.9 21.61 21
  417.0 14.71 14
  417.2 6.07 6
  417.3 12.69 12
  417.4 21.4 21
  417.5 24.59 24
  417.6 19.5 19
  417.7 10.68 10
  417.9 8.37 8
  418.0 14.78 14
  418.1 18.61 18
  418.2 16.75 16
  418.3 11.58 11
  418.5 10.06 10
  418.6 15.39 15
  418.7 18.95 18
  418.8 17.01 16
  418.9 11.29 11
  419.1 8.2 8
  419.2 13.45 13
  419.3 18.3 18
  419.4 18.55 18
  419.5 14.03 14
  419.7 6.99 6
  419.8 10.37 10
  419.9 16.16 16
  420.0 19.9 19
  420.1 18.6 18
  420.2 13.27 13
  420.4 9.95 9
  420.5 15.52 15
  420.6 19.78 19
  420.7 17.8 17
  420.8 10.97 10
  421.0 6.32 6
  421.1 12.44 12
  421.2 18.93 18
  421.3 20.97 20
  421.4 16.81 16
  421.5 9.22 9
  421.7 4.85 4
  421.8 11.34 11
  421.9 17.88 17
  422.0 18.76 18
  422.1 13.34 13
  422.3 6.02 6
  422.4 11.83 11
  422.5 19.14 19
  422.6 21.44 21
  422.7 16.76 16
  423.0 8.99 8
  423.1 15.73 15
  423.2 20.21 20
  423.3 18.35 18
  423.4 11.49 11
  423.6 7.07 7
  423.7 14.89 14
  423.8 22.46 22
  423.9 22.59 22
  424.0 14.52 14
  424.2 1.24 1
  424.3 7.59 7
  424.4 18.96 18
  424.5 26.2 26
  424.6 23.89 23
  424.7 15.04 15
  424.9 7.37 7
  425.0 13.67 13
  425.1 20.86 20
  425.2 22.23 22
  425.3 16.15 16
  425.5 5.62 5
  425.6 10.96 10
  425.7 18.45 18
  425.8 20.97 20
  425.9 16.65 16
  426.8 2.1 2
  426.9 9.1 9
  427.0 15.76 15
  427.1 17.22 17
  427.2 13.65 13
  427.4 9.15 9
  427.5 12.53 12
  427.6 16.73 16
  427.7 18.42 18
  427.8 16.19 16
  428.1 11.5 11
  428.2 17.12 17
  428.3 21.2 21
  428.4 19.69 19
  428.5 13.01 12
  428.7 5.38 5
  428.8 11.02 11
  428.9 18.27 18
  429.0 20.73 20
  429.1 16.47 16
  429.3 6.0 5
  429.4 9.74 9
  429.5 18.14 18
  429.6 24.54 24
  429.7 23.78 23
  429.8 16.95 16
  430.0 8.96 8
  430.1 13.77 13
  430.2 19.79 19
  430.3 21.14 21
  430.4 16.11 16
  430.6 7.07 7
  430.7 11.57 11
  430.8 18.0 17
  430.9 19.97 19
  431.0 15.25 15
  431.3 7.69 7
  431.4 16.21 16
  431.5 22.48 22
  431.6 20.77 20
  431.7 12.23 12
  431.9 3.09 3
  432.0 9.5 9
  432.1 16.85 16
  432.2 18.68 18
  432.3 14.04 14
  432.5 5.49 5
  432.6 10.67 10
  432.7 19.34 19
  432.8 23.92 23
  432.9 20.1 20
  433.0 11.26 11
  433.2 5.41 5
  433.3 11.72 11
  433.4 18.54 18
  433.5 20.61 20
  433.6 16.55 16
  433.8 8.56 8
  433.9 13.73 13
  434.0 21.37 21
  434.1 24.01 23
  434.2 19.06 19
  434.3 10.93 10
  434.5 8.75 8
  434.6 15.76 15
  434.7 21.52 21
  434.8 21.22 21
  434.9 15.24 15
  435.1 8.59 8
  435.2 13.94 13
  435.3 20.07 20
  435.4 21.22 21
  435.5 16.16 16
  435.6 8.8 8
  435.8 7.43 7
  435.9 14.05 14
  436.0 18.92 18
  436.1 17.65 17
  436.2 11.76 11
  436.4 8.31 8
  436.5 14.54 14
  436.6 20.7 20
  436.7 21.76 21
  436.8 16.68 16
  437.6 5.75 5
  437.7 9.17 9
  437.8 17.6 17
  437.9 24.3 24
  438.0 23.41 23
  438.1 15.68 15
  438.3 7.96 7
  438.4 14.13 14
  438.5 20.62 20
  438.6 21.67 21
  438.7 16.69 16
  438.9 7.74 7
  439.0 12.21 12
  439.1 20.69 20
  439.2 26.27 26
  439.3 23.99 23
  439.4 15.26 15
  440.2 8.93 8
  440.3 15.9 15
  440.4 24.36 24
  440.5 26.95 26
  440.6 20.65 20
  440.7 9.95 9
  440.9 6.46 6
  441.0 15.85 15
  441.1 23.13 23
  441.2 22.57 22
  441.3 15.71 15
  441.5 7.41 7
  441.6 12.45 12
  441.7 19.89 19
  441.8 23.21 23
  441.9 19.23 19
  442.0 11.54 11
  442.2 9.62 9
  442.3 15.64 15
  442.4 19.18 19
  442.5 16.81 16
  442.6 10.58 10
  442.8 8.29 8
  442.9 14.84 14
  443.0 20.49 20
  443.1 20.76 20
  443.2 16.16 16
  443.4 9.78 9
  443.5 13.23 13
  443.6 17.8 17
  443.7 18.62 18
  443.8 14.12 14
  444.0 5.46 5
  444.1 10.03 10
  444.2 18.88 18
  444.3 25.62 25
  444.4 25.3 25
  444.5 18.75 18
  444.8 11.78 11
  444.9 17.88 17
  445.0 21.38 21
  445.1 18.56 18
  445.2 11.58 11
  445.4 10.12 10
  445.5 17.09 17
  445.6 20.9 20
  445.7 17.48 17
  445.8 10.05 10
  446.0 8.16 8
  446.1 14.98 14
  446.2 20.09 20
  446.3 19.46 19
  446.4 13.57 13
  446.6 4.02 4
  446.7 8.24 8
  446.8 16.78 16
  446.9 23.11 23
  447.0 21.68 21
  447.1 13.3 13
  447.3 3.39 3
  447.4 9.17 9
  447.5 15.83 15
  447.6 16.67 16
  447.7 11.55 11
  447.9 7.75 7
  448.0 15.25 15
  448.1 22.94 22
  448.2 23.95 23
  448.3 16.87 16
  448.6 6.88 6
  448.7 16.18 16
  448.8 22.86 22
  448.9 21.18 21
  449.0 12.54 12
  449.2 4.72 4
  449.3 12.55 12
  449.4 20.87 20
  449.5 22.41 22
  449.6 16.44 16
  449.8 7.71 7
  449.9 12.33 12
  450.0 18.07 18
  450.1 19.51 19
  450.2 15.5 15
  450.3 9.36 9
  450.5 7.62 7
  450.6 13.31 13
  450.7 18.76 18
  450.8 20.29 20
  450.9 17.19 17
  451.8 5.65 5
  451.9 13.7 13
  452.0 20.84 20
  452.1 20.71 20
  452.2 13.7 13
  452.4 5.8 5
  452.5 12.89 12
  452.6 22.0 21
  452.7 25.29 25
  452.8 20.06 20
  453.1 11.98 11
  453.2 20.68 20
  453.3 25.58 25
  453.4 21.68 21
  453.5 11.9 11
  453.7 6.74 6
  453.8 15.14 15
  453.9 21.84 21
  454.0 20.86 20
  454.1 13.69 13
  454.3 6.23 6
  454.4 10.74 10
  454.5 16.02 16
  454.6 17.93 17
  454.7 15.42 15
  454.9 9.54 9
  455.0 13.67 13
  455.1 20.66 20
  455.2 23.76 23
  455.3 18.84 18
  455.6 8.29 8
  455.7 18.24 18
  455.8 25.27 25
  455.9 23.36 23
  456.0 14.38 14
  456.2 4.25 4
  456.3 11.0 10
  456.4 20.9 20
  456.5 26.08 26
  456.6 22.04 22
  456.7 11.9 11
  456.9 4.99 4
  457.0 12.74 12
  457.1 19.23 19
  457.2 18.13 18
  457.3 10.89 10
  457.5 5.27 5
  457.6 11.84 11
  457.7 19.41 19
  457.8 22.7 22
  457.9 19.4 19
  458.0 12.12 12
  458.2 7.67 7
  458.3 14.03 14
  458.4 20.18 20
  458.5 20.83 20
  458.6 15.71 15
  458.8 9.13 9
  458.9 15.19 15
  459.0 23.13 23
  459.1 25.36 25
  459.2 18.91 18
  459.5 8.66 8
  459.6 18.15 18
  459.7 23.68 23
  459.8 20.59 20
  459.9 12.13 12
  460.1 7.33 7
  460.2 15.1 15
  460.3 22.56 22
  460.4 22.72 22
  460.5 14.41 14
  460.7 1.41 1
  460.8 8.73 8
  460.9 20.21 20
  461.0 26.29 26
  461.1 22.56 22
  461.2 13.18 13
  461.4 8.18 8
  461.5 15.84 15
  461.6 21.63 21
  461.7 19.04 19
  461.8 9.44 9
  462.0 0.83 0
  462.1 8.39 8
  462.2 17.45 17
  462.3 21.24 21
  462.4 17.57 17
  462.5 10.24 10
  462.7 6.66 6
  462.8 11.52 11
  462.9 14.46 14
  463.0 12.25 12
  463.2 4.59 4
  463.3 8.79 8
  463.4 17.51 17
  463.5 24.25 24
  463.6 23.81 23
  463.7 16.92 16
  464.5 8.58 8
  464.6 12.82 12
  464.7 19.38 19
  464.8 22.87 22
  464.9 19.95 19
  465.0 12.41 12
  465.2 7.92 7
  465.3 15.72 15
  465.4 22.77 22
  465.5 22.32 22
  465.6 14.55 14
  465.8 5.06 5
  465.9 11.35 11
  466.0 19.92 19
  466.1 23.55 23
  466.2 19.4 19
  466.3 11.13 11
  466.5 7.52 7
  466.6 13.87 13
  466.7 18.93 18
  466.8 18.44 18
  466.9 13.3 13
  467.1 7.9 7
  467.2 12.67 12
  467.3 18.43 18
  467.4 19.87 19
  467.5 15.65 15
  467.7 6.7 6
  467.8 10.36 10
  467.9 17.92 17
  468.0 23.43 23
  468.1 22.21 22
  468.2 14.83 14
  468.4 5.86 5
  468.5 11.23 11
  468.6 18.15 18
  468.7 20.0 19
  468.8 14.73 14
  469.0 3.66 3
  469.1 8.24 8
  469.2 16.98 16
  469.3 22.46 22
  469.4 20.29 20
  469.5 13.02 13
  469.7 9.37 9
  469.8 16.16 16
  469.9 21.52 21
  470.0 20.34 20
  470.1 13.9 13
  470.3 8.91 8
  470.4 14.69 14
  470.5 20.32 20
  470.6 20.34 20
  470.7 13.64 13
  471.0 5.56 5
  471.1 15.01 14
  471.2 21.87 21
  471.3 21.12 21
  471.4 14.42 14
  471.6 8.65 8
  471.7 14.73 14
  471.8 20.8 20
  471.9 21.13 21
  472.0 15.12 15
  472.2 4.13 4
  472.3 8.4 8
  472.4 17.8 17
  472.5 24.89 24
  472.6 23.35 23
  472.7 14.49 14
  472.9 5.75 5
  473.0 12.26 12
  473.1 19.46 19
  473.2 20.68 20
  473.3 14.62 14
  473.5 3.53 3
  473.6 8.66 8
  473.7 17.47 17
  473.8 22.12 22
  473.9 18.75 18
  474.0 11.06 11
  474.2 8.93 8
  474.3 15.54 15
  474.4 19.95 19
  474.5 17.98 17
  474.6 11.2 11
  474.8 7.29 7
  474.9 15.28 15
  475.0 23.38 23
  475.1 24.92 24
  475.2 19.13 19
  476.1 9.92 9
  476.2 17.11 17
  476.3 23.55 23
  476.4 23.2 23
  476.5 15.93 15
  476.7 6.17 6
  476.8 11.94 11
  476.9 19.76 19
  477.0 22.63 22
  477.1 18.56 18
  477.4 11.44 11
  477.5 17.59 17
  477.6 21.33 21
  477.7 18.63 18
  477.8 11.02 11
  478.0 5.11 5
  478.1 12.34 12
  478.2 19.97 19
  478.3 21.07 21
  478.4 14.41 14
  478.7 5.96 5
  478.8 15.8 15
  478.9 23.22 23
  479.0 22.28 22
  479.1 14.63 14
  479.3 9.82 9
  479.4 16.39 16
  479.5 20.42 20
  479.6 17.06 17
  479.7 8.96 8
  479.9 5.72 5
  480.0 14.28 14
  480.1 22.18 22
  480.2 23.07 23
  480.3 16.63 16
  480.5 5.52 5
  480.6 10.2 10
  480.7 18.5 18
  480.8 22.98 22
  480.9 19.32 19
  481.0 10.8 10
  481.2 6.4 6
  481.3 13.94 13
  481.4 21.45 21
  481.5 22.8 22
  481.6 16.76 16
  481.8 5.95 5
  481.9 10.87 10
  482.0 18.22 18
  482.1 20.76 20
  482.2 16.01 15
  482.4 5.31 5
  482.5 10.0 9
  482.6 18.43 18
  482.7 22.76 22
  482.8 18.58 18
  482.9 9.43 9
  483.1 4.62 4
  483.2 12.49 12
  483.3 20.63 20
  483.4 23.34 23
  483.5 19.3 19
  484.4 6.18 6
  484.5 13.72 13
  484.6 20.48 20
  484.7 20.69 20
  484.8 13.76 13
  485.0 2.41 2
  485.1 7.57 7
  485.2 16.43 16
  485.3 21.72 21
  485.4 19.69 19
  485.5 13.07 13
  485.7 9.85 9
  485.8 16.23 16
  485.9 21.83 21
  486.0 21.93 21
  486.1 16.76 16
  486.4 11.62 11
  486.5 16.55 16
  486.6 19.31 19
  486.7 17.4 17
  486.8 12.12 12
  487.0 9.07 9
  487.1 14.76 14
  487.2 20.04 20
  487.3 20.11 20
  487.4 14.95 14
  487.6 8.47 8
  487.7 13.69 13
  487.8 20.75 20
  487.9 23.15 23
  488.0 18.08 18
  488.1 9.47 9
  488.3 8.43 8
  488.4 16.42 16
  488.5 20.92 20
  488.6 17.5 17
  488.7 9.17 9
  488.9 5.68 5
  489.0 14.27 14
  489.1 22.86 22
  489.2 25.27 25
  489.3 20.22 20
  489.4 12.2 12
  489.6 9.63 9
  489.7 15.28 15
  489.8 18.91 18
  489.9 16.81 16
  490.0 10.72 10
  490.2 8.81 8
  490.3 15.88 15
  490.4 20.85 20
  490.5 18.47 18
  490.6 10.65 10
  490.8 7.48 7
  490.9 17.19 17
  491.0 25.54 25
  491.1 24.79 24
  491.2 15.7 15
  491.4 6.33 6
  491.5 13.74 13
  491.6 21.96 21
  491.7 23.84 23
  491.8 18.49 18
  492.0 9.07 9
  492.1 13.42 13
  492.2 20.42 20
  492.3 23.81 23
  492.4 20.25 20
  492.5 12.35 12
  492.7 6.93 6
  492.8 13.23 13
  492.9 20.34 20
  493.0 22.55 22
  493.1 17.74 17
  493.2 9.3 9
  493.4 6.28 6
  493.5 14.57 14
  493.6 21.9 21
  493.7 21.95 21
  493.8 14.91 14
  494.0 6.44 6
  494.1 12.39 12
  494.2 19.66 19
  494.3 22.03 22
  494.4 18.22 18
  494.5 12.31 12
  495.2 6.1 6
  495.3 9.16 9
  495.4 15.63 15
  495.5 20.79 20
  495.6 20.49 20
  495.7 14.61 14
  495.9 6.66 6
  496.0 11.85 11
  496.1 19.14 19
  496.2 22.41 22
  496.3 19.42 19
  496.4 13.59 13
  496.6 11.91 11
  496.7 16.36 16
  496.8 19.28 19
  496.9 17.71 17
  497.0 12.53 12
  497.2 9.29 9
  497.3 15.19 15
  497.4 20.76 20
  497.5 20.89 20
  497.6 15.78 15
  498.5 8.3 8
  498.6 14.74 14
  498.7 20.32 20
  498.8 19.54 19
  498.9 13.04 13
  499.1 7.66 7
  499.2 14.11 14
  499.3 20.55 20
  499.4 21.34 21
  499.5 16.05 16
  499.7 6.74 6
  499.8 10.3 10
  499.9 17.54 17
  500.0 22.8 22
  500.1 21.34 21
  500.2 13.86 13
  500.4 6.6 6
  500.5 12.94 12
  500.6 19.71 19
  500.7 20.52 20
  500.8 14.7 14
  501.0 7.18 7
  501.1 13.32 13
  501.2 20.48 20
  501.3 22.01 21
  501.4 16.9 16
  501.5 9.65 9
  501.7 7.09 7
  501.8 12.52 12
  501.9 17.31 17
  502.0 17.4 17
  502.1 12.99 12
  502.3 9.9 9
  502.4 15.64 15
  502.5 21.08 21
  502.6 21.18 21
  502.7 15.52 15
  502.9 7.01 7
  503.0 11.68 11
  503.1 18.96 18
  503.2 22.76 22
  503.3 19.87 19
  503.4 12.77 12
  503.6 7.7 7
  503.7 13.16 13
  503.8 18.74 18
  503.9 19.75 19
  504.0 15.61 15
  504.3 9.34 9
  504.4 14.57 14
  504.5 18.24 18
  504.6 17.03 17
  504.9 10.86 10
  505.0 17.54 17
  505.1 22.12 22
  505.2 19.39 19
  505.3 11.0 10
  505.5 4.75 4
  505.6 11.86 11
  505.7 19.34 19
  505.8 21.14 21
  505.9 16.44 16
  506.0 9.64 9
  506.2 7.71 7
  506.3 12.81 12
  506.4 17.64 17
  506.5 18.78 18
  506.8 13.07 13
  506.9 18.45 18
  507.0 23.77 23
  507.1 23.28 23
  507.2 16.29 16
  507.4 6.43 6
  507.5 11.71 11
  507.6 19.13 19
  507.7 22.0 21
  507.8 17.98 17
  507.9 10.86 10
  508.1 9.33 9
  508.2 16.62 16
  508.3 22.31 22
  508.4 20.84 20
  508.5 12.83 12
  508.7 4.55 4
  508.8 11.94 11
  508.9 20.87 20
  509.0 23.18 23
  509.1 16.3 16
  509.2 5.93 5
  509.4 4.51 4
  509.5 13.32 13
  509.6 19.6 19
  509.7 18.4 18
  509.8 10.95 10
  510.0 3.45 3
  510.1 11.13 11
  510.2 20.89 20
  510.3 24.87 24
  510.4 20.17 20
  510.5 11.63 11
  510.7 10.59 10
  510.8 17.67 17
  510.9 21.22 21
  511.0 17.86 17
  511.1 10.99 10
  511.3 8.42 8
  511.4 14.33 14
  511.5 19.25 19
  511.6 18.75 18
  511.7 13.29 13
  511.9 8.42 8
  512.0 14.64 14
  512.1 21.65 21
  512.2 23.12 23
  512.3 17.34 17
  512.4 8.77 8
  512.6 6.67 6
  512.7 14.89 14
  512.8 22.36 22
  512.9 23.06 23
  513.0 16.65 16
  513.2 7.02 7
  513.3 11.97 11
  513.4 18.74 18
  513.5 20.8 20
  513.6 16.27 16
  513.9 9.27 9
  514.0 16.01 15
  514.1 20.71 20
  514.2 19.14 19
  514.3 12.47 12
  514.5 7.27 7
  514.6 13.56 13
  514.7 19.31 19
  514.8 18.9 18
  514.9 12.91 12
  515.1 7.95 7
  515.2 14.49 14
  515.3 21.37 21
  515.4 21.91 21
  515.5 14.93 14
  515.7 3.66 3
  515.8 9.12 9
  515.9 17.34 17
  516.0 20.82 20
  516.1 16.54 16
  516.4 7.56 7
  516.5 15.77 15
  516.6 21.84 21
  516.7 20.61 20
  516.8 12.61 12
  517.0 1.58 1
  517.1 7.45 7
  517.2 16.92 16
  517.3 22.76 22
  517.4 21.04 21
  517.5 14.38 14
  517.7 9.91 9
  517.8 15.4 15
  517.9 20.01 19
  518.0 19.13 19
  518.1 13.71 13
  518.3 9.33 9
  518.4 14.81 14
  518.5 20.38 20
  518.6 20.32 20
  518.7 13.5 13
  518.9 2.49 2
  519.0 8.01 8
  519.1 16.97 16
  519.2 21.95 21
  519.3 19.2 19
  519.4 11.02 11
  519.6 2.99 2
  519.7 9.49 9
  519.8 17.73 17
  519.9 20.34 20
  520.0 15.49 15
  520.2 7.43 7
  520.3 12.16 12
  520.4 18.05 18
  520.5 19.8 19
  520.6 16.39 16
  520.9 10.03 10
  521.0 15.68 15
  521.1 20.55 20
  521.2 20.58 20
  521.3 15.03 15
  521.6 7.78 7
  521.7 16.56 16
  521.8 22.76 22
  521.9 20.63 20
  522.0 12.31 12
  522.2 6.91 6
  522.3 14.03 14
  522.4 19.87 19
  522.5 19.33 19
  522.6 13.76 13
  522.8 9.39 9
  522.9 15.0 14
  523.0 20.77 20
  523.1 21.14 21
  523.2 15.15 15
  523.4 5.5 5
  523.5 10.06 10
  523.6 17.32 17
  523.7 21.39 21
  523.8 19.42 19
  523.9 13.23 13
  524.1 7.97 7
  524.2 13.99 13
  524.3 20.84 20
  524.4 22.55 22
  524.5 17.79 17
  525.3 6.58 6
  525.4 11.44 11
  525.5 18.81 18
  525.6 22.43 22
  525.7 18.67 18
  525.8 10.1 10
  526.0 4.38 4
  526.1 10.9 10
  526.2 17.27 17
  526.3 18.36 18
  526.4 14.03 14
  526.6 8.05 8
  526.7 12.07 12
  526.8 17.47 17
  526.9 19.35 19
  527.0 15.81 15
  527.3 9.83 9
  527.4 16.23 16
  527.5 20.11 20
  527.6 18.48 18
  527.7 13.38 13
  527.9 9.9 9
  528.0 14.28 14
  528.1 19.13 19
  528.2 19.99 19
  528.3 15.22 15
  528.5 5.49 5
  528.6 9.85 9
  528.7 17.98 17
  528.8 22.71 22
  528.9 19.51 19
  529.0 10.75 10
  529.2 5.24 5
  529.3 13.87 13
  529.4 22.38 22
  529.5 23.12 23
  529.6 15.37 15
  529.8 2.62 2
  529.9 7.67 7
  530.0 16.54 16
  530.1 22.04 22
  530.2 19.93 19
  530.3 12.49 12
  530.5 8.86 8
  530.6 16.56 16
  530.7 22.95 22
  530.8 21.75 21
  530.9 13.42 13
  531.1 3.52 3
  531.2 9.91 9
  531.3 17.67 17
  531.4 18.97 18
  531.5 12.23 12
  531.7 1.85 1
  531.8 8.93 8
  531.9 19.05 19
  532.0 23.83 23
  532.1 20.15 20
  532.2 12.19 12
  532.4 7.69 7
  532.5 13.3 13
  532.6 18.63 18
  532.7 19.12 19
  532.8 14.52 14
  533.0 8.6 8
  533.1 13.37 13
  533.2 19.73 19
  533.3 22.49 22
  533.4 19.52 19
  533.5 13.31 13
  533.7 9.2 9
  533.8 14.75 14
  533.9 20.87 20
  534.0 21.61 21
  534.1 15.18 15
  534.3 5.21 5
  534.4 11.55 11
  534.5 19.75 19
  534.6 21.93 21
  534.7 16.76 16
  535.0 11.06 11
  535.1 16.11 16
  535.2 18.57 18
  535.3 16.97 16
  535.4 12.6 12
  535.6 8.13 8
  535.7 12.3 12
  535.8 18.13 18
  535.9 20.5 20
  536.0 16.78 16
  536.1 9.72 9
  536.3 5.5 5
  536.4 10.52 10
  536.5 15.32 15
  536.6 15.9 15
  536.9 9.19 9
  537.0 15.71 15
  537.1 22.01 21
  537.2 21.58 21
  537.3 14.29 14
  537.5 6.26 6
  537.6 13.0 12
  537.7 21.04 21
  537.8 23.27 23
  537.9 17.61 17
  538.0 8.71 8
  538.2 7.29 7
  538.3 16.27 16
  538.4 23.68 23
  538.5 23.71 23
  538.6 17.1 17
  538.8 9.9 9
  538.9 15.81 15
  539.0 22.39 22
  539.1 23.15 23
  539.2 16.73 16
  539.3 8.09 8
  539.5 7.55 7
  539.6 14.6 14
  539.7 18.93 18
  539.8 17.11 17
  539.9 11.01 10
  540.1 7.28 7
  540.2 13.56 13
  540.3 19.17 19
  540.4 18.69 18
  540.5 12.51 12
  540.7 6.74 6
  540.8 13.08 13
  540.9 20.4 20
  541.0 22.6 22
  541.1 18.05 18
  541.2 10.88 10
  541.4 9.78 9
  541.5 15.94 15
  541.6 20.45 20
  541.7 19.68 19
  541.8 14.46 14
  542.0 9.57 9
  542.1 15.11 15
  542.2 21.29 21
  542.3 22.38 22
  542.4 17.25 17
  542.6 7.91 7
  542.7 11.86 11
  542.8 18.33 18
  542.9 21.24 21
  543.0 17.82 17
  543.1 11.02 11
  543.3 8.33 8
  543.4 15.33 15
  543.5 21.68 21
  543.6 21.22 21
  543.7 13.39 13
  543.9 3.27 3
  544.0 10.03 10
  544.1 19.05 19
  544.2 23.05 23
  544.3 19.74 19
  544.4 12.84 12
  544.6 10.06 10
  544.7 15.81 15
  544.8 19.68 19
  544.9 17.46 17
  545.0 11.27 11
  545.2 8.75 8
  545.3 14.6 14
  545.4 19.82 19
  545.5 20.5 20
  545.6 16.2 16
  545.8 8.44 8
  545.9 12.66 12
  546.0 20.32 20
  546.1 25.2 25
  546.2 22.78 22
  546.3 14.6 14
  546.5 7.69 7
  546.6 14.45 14
  546.7 20.25 20
  546.8 18.74 18
  546.9 11.43 11
  547.1 7.54 7
  547.2 15.19 15
  547.3 22.44 22
  547.4 23.71 23
  547.5 18.27 18
  547.6 10.46 10
  547.8 8.73 8
  547.9 15.61 15
  548.0 20.57 20
  548.1 18.6 18
  548.2 11.37 11
  548.4 8.59 8
  548.5 17.2 17
  548.6 25.11 25
  548.7 25.82 25
  548.8 18.61 18
  549.0 5.77 5
  549.1 11.02 11
  549.2 20.57 20
  549.3 26.11 26
  549.4 23.02 22
  549.5 14.64 14
  549.7 11.12 11
  549.8 17.87 17
  549.9 22.23 22
  550.0 20.21 20
  550.1 13.56 13
  550.3 6.51 6
  550.4 11.21 11
  550.5 17.44 17
  550.6 19.27 19
  550.7 14.87 14
  550.9 7.42 7
  551.0 11.98 11
  551.1 18.56 18
  551.2 21.91 21
  551.3 19.54 19
  551.4 13.64 13
  551.6 10.46 10
  551.7 15.92 15
  551.8 20.84 20
  551.9 20.84 20
  552.0 15.63 15
  552.2 6.42 6
  552.3 10.5 10
  552.4 17.65 17
  552.5 21.12 21
  552.6 17.46 17
  552.7 9.84 9
  552.9 7.47 7
  553.0 15.37 15
  553.1 22.09 22
  553.2 21.83 21
  553.3 15.07 15
  553.5 6.87 6
  553.6 13.15 13
  553.7 21.49 21
  553.8 24.56 24
  553.9 19.71 19
  554.2 11.63 11
  554.3 19.19 19
  554.4 24.03 24
  554.5 21.81 21
  554.6 14.06 14
  554.8 7.22 7
  554.9 13.96 13
  555.0 21.46 21
  555.1 22.9 22
  555.2 16.49 16
  555.3 7.0 6
  555.5 4.51 4
  555.6 12.72 12
  555.7 19.31 19
  555.8 18.48 18
  556.0 6.35 6
  556.1 10.29 10
  556.2 21.08 21
  556.3 28.92 28
  556.4 26.29 26
  556.5 15.14 15
  556.7 1.66 1
  556.8 7.71 7
  556.9 16.74 16
  557.0 21.33 21
  557.1 18.24 18
  557.2 10.9 10
  557.4 9.19 9
  557.5 16.69 16
  557.6 21.69 21
  557.7 18.96 18
  557.8 10.4 10
  558.0 4.44 4
  558.1 12.7 12
  558.2 21.41 21
  558.3 23.31 23
  558.4 17.13 17
  559.3 7.39 7
  559.4 13.97 13
  559.5 20.01 19
  559.6 20.91 20
  559.7 16.71 16
  559.9 9.77 9
  560.0 13.31 13
  560.1 19.32 19
  560.2 22.14 22
  560.3 18.26 18
  560.4 10.32 10
  560.6 7.13 7
  560.7 13.31 13
  560.8 17.24 17
  560.9 15.21 15
  561.2 8.58 8
  561.3 15.9 15
  561.4 22.05 22
  561.5 21.62 21
  561.6 14.68 14
  561.8 6.86 6
  561.9 14.43 14
  562.0 23.91 23
  562.1 26.62 26
  562.2 19.58 19
  562.3 8.65 8
  562.5 6.3 6
  562.6 14.42 14
  562.7 20.01 19
  562.8 18.99 18
  562.9 13.15 13
  563.1 7.91 7
  563.2 13.52 13
  563.3 20.21 20
  563.4 22.01 21
  563.5 16.44 16
  563.6 7.33 7
  563.8 5.34 5
  563.9 14.61 14
  564.0 22.31 22
  564.1 21.94 21
  564.2 14.1 14
  564.4 5.33 5
  564.5 12.2 12
  564.6 20.02 19
  564.7 21.4 21
  564.8 15.21 15
  565.0 6.05 6
  565.1 11.51 11
  565.2 18.64 18
  565.3 20.66 20
  565.4 15.5 15
  565.5 7.13 7
  565.7 5.4 5
  565.8 14.0 13
  565.9 21.2 21
  566.0 21.28 21
  566.1 14.77 14
  566.3 6.17 6
  566.4 10.57 10
  566.5 16.6 16
  566.6 18.95 18
  566.7 16.0 15
  566.9 9.16 9
  567.0 12.14 12
  567.1 17.22 17
  567.2 19.72 19
  567.3 17.13 17
  567.4 11.36 11
  567.6 8.09 8
  567.7 13.34 13
  567.8 18.55 18
  567.9 19.5 19
  568.0 15.56 15
  568.2 7.91 7
  568.3 11.02 11
  568.4 17.11 17
  568.5 21.18 21
  568.6 19.59 19
  568.7 13.8 13
  568.9 11.22 11
  569.0 16.7 16
  569.1 19.76 19
  569.2 16.49 16
  569.5 7.26 7
  569.6 16.2 16
  569.7 25.07 25
  569.8 26.54 26
  569.9 18.82 18
  570.0 8.19 8
  570.2 7.75 7
  570.3 16.01 15
  570.4 20.69 20
  570.5 18.48 18
  570.6 12.4 12
  570.8 9.17 9
  570.9 14.9 14
  571.0 20.73 20
  571.1 21.37 21
  571.2 15.03 15
  571.5 5.94 5
  571.6 13.72 13
  571.7 18.67 18
  571.8 17.87 17
  571.9 14.14 14
  572.1 13.1 13
  572.2 16.34 16
  572.3 18.51 18
  572.4 16.68 16
  572.5 10.36 10
  572.7 2.47 2
  572.8 8.95 8
  572.9 18.02 18
  573.0 21.67 21
  573.1 16.57 16
  573.4 7.73 7
  573.5 16.71 16
  573.6 22.14 22
  573.7 19.38 19
  573.8 11.55 11
  574.0 7.73 7
  574.1 14.46 14
  574.2 20.07 20
  574.3 19.85 19
  574.4 14.64 14
  575.2 7.95 7
  575.3 11.8 11
  575.4 17.58 17
  575.5 20.98 20
  575.6 18.93 18
  575.7 12.49 12
  575.9 6.94 6
  576.0 13.39 13
  576.1 20.85 20
  576.2 23.02 22
  576.3 17.91 17
  576.4 9.39 9
  576.6 6.62 6
  576.7 14.49 14
  576.8 20.72 20
  576.9 19.68 19
  577.0 12.56 12
  577.2 6.84 6
  577.3 13.57 13
  577.4 20.3 20
  577.5 21.17 21
  577.6 15.8 15
  577.7 9.14 9
  577.9 8.43 8
  578.0 13.08 13
  578.1 16.06 16
  578.2 14.66 14
  578.5 8.59 8
  578.6 15.98 15
  578.7 22.35 22
  578.8 21.59 21
  578.9 14.14 14
  579.1 5.4 5
  579.2 10.79 10
  579.3 17.68 17
  579.4 20.41 20
  579.5 17.32 17
  580.4 11.31 11
  580.5 16.4 16
  580.6 21.01 20
  580.7 20.96 20
  580.8 15.42 15
  581.1 7.73 7
  581.2 14.17 14
  581.3 18.3 18
  581.4 16.63 16
  581.5 10.9 10
  581.7 8.31 8
  581.8 15.22 15
  581.9 21.76 21
  582.0 22.12 22
  582.1 15.78 15
  582.3 7.46 7
  582.4 13.08 13
  582.5 19.4 19
  582.6 20.23 20
  582.7 14.86 14
  582.8 7.91 7
  583.0 7.35 7
  583.1 12.69 12
  583.2 16.05 16
  583.3 14.76 14
  583.6 8.85 8
  583.7 15.28 15
  583.8 21.81 21
  583.9 22.66 22
  584.0 16.41 16
  584.3 7.33 7
  584.4 15.87 15
  584.5 22.97 22
  584.6 23.43 23
  584.7 17.43 17
  584.9 10.51 10
  585.0 16.41 16
  585.1 22.35 22
  585.2 22.09 22
  585.3 15.83 15
  585.5 8.77 8
  585.6 14.67 14
  585.7 22.17 22
  585.8 24.63 24
  585.9 19.45 19
  586.0 10.76 10
  586.2 7.48 7
  586.3 12.96 12
  586.4 15.76 15
  586.5 12.81 12
  586.8 7.96 7
  586.9 13.86 13
  587.0 18.62 18
  587.1 19.67 19
  587.2 16.2 16
  587.5 8.5 8
  587.6 15.56 15
  587.7 20.62 20
  587.8 18.42 18
  587.9 10.81 10
  588.1 5.66 5
  588.2 12.01 11
  588.3 18.02 18
  588.4 18.64 18
  588.5 13.72 13
  588.7 6.47 6
  588.8 11.96 11
  588.9 19.94 19
  589.0 23.07 23
  589.1 18.26 18
  589.4 10.24 10
  589.5 18.21 18
  589.6 22.78 22
  589.7 20.03 20
  589.8 12.68 12
  590.0 8.89 8
  590.1 16.04 16
  590.2 23.38 23
  590.3 25.08 25
  590.4 19.58 19
  590.7 11.03 11
  590.8 19.07 19
  590.9 23.49 23
  591.0 19.9 19
  591.1 11.34 11
  591.3 6.15 6
  591.4 12.8 12
  591.5 18.88 18
  591.6 18.62 18
  591.7 12.19 12
  591.9 5.55 5
  592.0 11.44 11
  592.1 17.89 17
  592.2 19.71 19
  592.3 16.19 16
  592.5 11.26 11
  592.6 16.46 16
  592.7 22.87 22
  592.8 24.4 24
  592.9 18.93 18
  593.0 10.29 10
  593.2 6.49 6
  593.3 14.68 14
  593.4 23.47 23
  593.5 25.39 25
  593.6 17.96 17
  593.9 7.54 7
  594.0 16.61 16
  594.1 21.4 21
  594.2 18.27 18
  594.3 10.88 10
  594.5 8.12 8
  594.6 15.39 15
  594.7 21.59 21
  594.8 21.0 20
  594.9 14.18 14
  595.1 7.69 7
  595.2 14.6 14
  595.3 22.59 22
  595.4 25.18 25
  595.5 20.5 20
  595.8 12.69 12
  595.9 19.34 19
  596.0 22.94 22
  596.1 19.87 19
  596.2 12.66 12
  596.4 9.65 9
  596.5 16.3 16
  596.6 21.7 21
  596.7 21.32 21
  596.8 15.59 15
  597.0 6.7 6
  597.1 11.23 11
  597.2 19.02 19
  597.3 22.55 22
  597.4 17.79 17
  597.5 8.91 8
  597.7 7.85 7
  597.8 16.42 16
  597.9 22.85 22
  598.0 22.66 22
  598.1 16.81 16
  598.3 9.15 9
  598.4 14.07 14
  598.5 20.98 20
  598.6 23.24 23
  598.7 17.98 17
  598.8 9.14 9
  599.0 7.82 7
  599.1 16.65 16
  599.2 22.92 22
  599.3 21.31 21
  599.4 13.67 13
//
