ACCESSION: MSBNK-RIKEN_NPDepo-NGA02478
RECORD_TITLE: Dihydroergocristine; LC-ESI-QQQ; MS2; Frag=135.0V CID@10.0; [M+H]+
DATE: 2018.04.04
AUTHORS: Nogawa T, Okano A, CSRS, RIKEN
LICENSE: CC BY
COMMENT: Origin: Microbe
COMMENT: SubCategory_DNP: Alkaloids derived from tryptophan, Ergot alkaloids, Clavine alkaloid
CH$NAME: Dihydroergocristine
CH$COMPOUND_CLASS: Alkaloids
CH$FORMULA: C35H41N5O5
CH$EXACT_MASS: 611.7475
CH$SMILES: CC(C)[C@@]1(N=C(O)[C@@H]2C[C@@H]3c4cccc5[nH]cc(c45)C[C@H]3N(C)C2)O[C@@]2(O)[C@@H]3CCCN3C(=O)[C@H](Cc3ccccc3)N2C1=O
CH$IUPAC: InChI=1S/C35H41N5O5/c1-20(2)34(37-31(41)23-16-25-24-11-7-12-26-30(24)22(18-36-26)17-27(25)38(3)19-23)33(43)40-28(15-21-9-5-4-6-10-21)32(42)39-14-8-13-29(39)35(40,44)45-34/h4-7,9-12,18,20,23,25,27-29,36,44H,8,13-17,19H2,1-3H3,(H,37,41)/t23-,25-,27-,28+,29+,34-,35+/m1/s1
CH$LINK: CAS 17479-19-5
CH$LINK: CHEMSPIDER 96884
CH$LINK: INCHIKEY DEQITUUQPICUMR-HJPBWRTMSA-N
CH$LINK: COMPTOX DTXSID3046322
CH$LINK: PUBCHEM CID:107715
AC$INSTRUMENT: Agilent 6410 Triple Quadrupole LC/MS system
AC$INSTRUMENT_TYPE: LC-ESI-QQQ
AC$MASS_SPECTROMETRY: MS_TYPE MS2
AC$MASS_SPECTROMETRY: ION_MODE POSITIVE
MS$FOCUSED_ION: PRECURSOR_TYPE [M+H]+
PK$SPLASH: splash10-03di-0000009000-c4ead6947b7209ec8c5e
PK$NUM_PEAK: 36
PK$PEAK: m/z int. rel.int.
  269.7 2.05 2
  269.8 3.14 3
  269.9 4.51 4
  270.0 5.98 5
  270.1 7.23 7
  270.2 7.95 7
  270.3 7.8 7
  270.4 6.53 6
  270.5 4.27 4
  270.6 1.83 1
  593.9 2.67 2
  594.0 3.83 3
  594.1 5.12 5
  594.2 6.25 6
  594.3 6.89 6
  594.4 6.75 6
  594.5 5.68 5
  594.6 3.83 3
  594.7 1.79 1
  611.3 0.45 0
  611.4 1.8 1
  611.5 4.67 4
  611.6 9.32 9
  611.7 16.31 16
  611.8 26.96 26
  611.9 42.12 42
  612.0 60.32 60
  612.1 77.97 77
  612.2 91.84 91
  612.3 100.0 99
  612.4 99.69 99
  612.5 86.98 86
  612.6 61.68 61
  612.7 31.64 31
  612.8 8.38 8
  612.9 0.0 0
//
