ACCESSION: MSBNK-RIKEN_NPDepo-NGA03304
RECORD_TITLE: germbudine or neogermbudine; LC-ESI-QQQ; MS2; Frag=135.0V CID@25.0; [M+H]+
DATE: 2018.04.04
AUTHORS: Nogawa T, Okano A, CSRS, RIKEN
LICENSE: CC BY
COMMENT: Origin: Plant
COMMENT: SubCategory_DNP: Steroidal alkaloids, [595-64-2] (Neogermbudine), Veratrum alkaloids
CH$NAME: germbudine or neogermbudine
CH$COMPOUND_CLASS: Alkaloids
CH$FORMULA: C37H59NO12
CH$EXACT_MASS: 709.8823
CH$SMILES: CCC(C)C(=O)O[C@H]1C(O)[C@H]2C(CN3CC(C)CC[C@H]3[C@@]2(C)O)[C@@H]2C[C@]34O[C@]5(O)C(OC(=O)C(C)(O)C(C)O)CCC3(C)C5C[C@@H](O)C4[C@@]21O
CH$IUPAC: InChI=1S/C37H59NO12/c1-8-18(3)30(42)49-29-27(41)26-20(16-38-15-17(2)9-10-24(38)34(26,7)45)21-14-35-28(36(21,29)46)22(40)13-23-32(35,5)12-11-25(37(23,47)50-35)48-31(43)33(6,44)19(4)39/h17-29,39-41,44-47H,8-16H2,1-7H3/t17?,18?,19?,20?,21-,22+,23?,24-,25?,26+,27?,28?,29-,32?,33?,34+,35+,36-,37-/m0/s1
CH$LINK: CAS 426-34-6] (Germbudine
CH$LINK: INCHIKEY LWSPRPDSPCBAKK-HAXOVIOZSA-N
CH$LINK: PUBCHEM CID:44661059
AC$INSTRUMENT: Agilent 6410 Triple Quadrupole LC/MS system
AC$INSTRUMENT_TYPE: LC-ESI-QQQ
AC$MASS_SPECTROMETRY: MS_TYPE MS2
AC$MASS_SPECTROMETRY: ION_MODE POSITIVE
MS$FOCUSED_ION: PRECURSOR_TYPE [M+H]+
PK$SPLASH: splash10-03di-0000000900-8619c1744ef1777f8851
PK$NUM_PEAK: 18
PK$PEAK: m/z int. rel.int.
  709.2 1.1 1
  709.3 2.37 2
  709.4 4.97 4
  709.5 9.37 9
  709.6 15.87 15
  709.7 24.76 24
  709.8 36.63 36
  709.9 51.97 51
  710.0 69.83 69
  710.1 86.86 86
  710.2 98.28 98
  710.3 100.0 99
  710.4 90.08 89
  710.5 69.78 69
  710.6 44.21 44
  710.7 20.82 20
  710.8 5.36 5
  710.9 0.04 0
//
