ACCESSION: MSBNK-RIKEN_NPDepo-NGA01191
RECORD_TITLE: Glycoperine; LC-ESI-QQQ; MS2; Frag=135.0V CID@15.0; [M+H]+
DATE: 2018.04.04
AUTHORS: Nogawa T, Okano A, CSRS, RIKEN
LICENSE: CC BY
COMMENT: Origin: Plant
COMMENT: SubCategory_DNP: Alkaloids derived from anthranilic acid, Quinoline alkaloids
CH$NAME: Glycoperine
CH$COMPOUND_CLASS: Alkaloids
CH$FORMULA: C19H21NO8
CH$EXACT_MASS: 391.3811
CH$SMILES: COc1c2ccoc2nc2c(OC)c(O[C@@H]3O[C@H](C)[C@@H](O)[C@@H](O)[C@H]3O)ccc12
CH$IUPAC: InChI=1S/C19H21NO8/c1-8-13(21)14(22)15(23)19(27-8)28-11-5-4-9-12(17(11)25-3)20-18-10(6-7-26-18)16(9)24-2/h4-8,13-15,19,21-23H,1-3H3/t8-,13-,14-,15-,19+/m1/s1
CH$LINK: CAS 55740-45-9
CH$LINK: CHEMSPIDER 391209
CH$LINK: INCHIKEY KJOKSAQCWDHTOL-JHHSONQDSA-N
CH$LINK: PUBCHEM CID:7068014
AC$INSTRUMENT: Agilent 6410 Triple Quadrupole LC/MS system
AC$INSTRUMENT_TYPE: LC-ESI-QQQ
AC$MASS_SPECTROMETRY: MS_TYPE MS2
AC$MASS_SPECTROMETRY: ION_MODE POSITIVE
MS$FOCUSED_ION: PRECURSOR_TYPE [M+H]+
PK$SPLASH: splash10-0002-0090000000-c2b73eaa82b3d2eecce0
PK$NUM_PEAK: 16
PK$PEAK: m/z int. rel.int.
  245.2 0.79 0
  245.3 2.28 2
  245.4 5.28 5
  245.5 10.98 10
  245.6 21.36 21
  245.7 37.77 37
  245.8 58.75 58
  245.9 79.61 79
  246.0 94.65 94
  246.1 100.0 99
  246.2 94.45 94
  246.3 78.48 78
  246.4 54.52 54
  246.5 28.5 28
  246.6 8.3 8
  246.7 0.0 0
//
