ACCESSION: MSBNK-RIKEN_NPDepo-NGA00076
RECORD_TITLE: Narcotine; LC-ESI-QQQ; MS2; Frag=135.0V CID@5.0; [M+H]+
DATE: 2018.04.04
AUTHORS: Nogawa T, Okano A, CSRS, RIKEN
LICENSE: CC BY
COMMENT: Origin: Plant
COMMENT: SubCategory_DNP: Isoquinoline alkaloids, Morphine alkaloids
CH$NAME: Narcotine
CH$COMPOUND_CLASS: Alkaloids
CH$FORMULA: C22H23NO7
CH$EXACT_MASS: 413.4311
CH$SMILES: CN1CCC2=CC3=C(C(=C2[C@@H]1[C@@H]4C5=C(C(=C(C=C5)OC)OC)C(=O)O4)OC)OCO3
CH$IUPAC: InChI=1S/C22H23NO7/c1-23-8-7-11-9-14-20(29-10-28-14)21(27-4)15(11)17(23)18-12-5-6-13(25-2)19(26-3)16(12)22(24)30-18/h5-6,9,17-18H,7-8,10H2,1-4H3/t17-,18+/m1/s1
CH$LINK: CAS 6035-40-1
CH$LINK: CHEMSPIDER 242139
CH$LINK: INCHIKEY AKNNEGZIBPJZJG-MSOLQXFVSA-N
CH$LINK: COMPTOX DTXSID4023385
CH$LINK: PUBCHEM CID:275196
AC$INSTRUMENT: Agilent 6410 Triple Quadrupole LC/MS system
AC$INSTRUMENT_TYPE: LC-ESI-QQQ
AC$MASS_SPECTROMETRY: MS_TYPE MS2
AC$MASS_SPECTROMETRY: ION_MODE POSITIVE
MS$FOCUSED_ION: PRECURSOR_TYPE [M+H]+
PK$SPLASH: splash10-03di-0000900000-a717407f1bbc3e65ab8a
PK$NUM_PEAK: 25
PK$PEAK: m/z int. rel.int.
  219.7 2.51 2
  219.8 4.29 4
  219.9 6.29 6
  220.0 7.85 7
  220.1 8.56 8
  220.2 8.41 8
  220.3 7.44 7
  220.4 5.61 5
  220.5 3.21 3
  413.2 0.89 0
  413.3 2.55 2
  413.4 5.24 5
  413.5 8.74 8
  413.6 13.84 13
  413.7 23.18 23
  413.8 39.38 39
  413.9 61.29 61
  414.0 83.01 82
  414.1 97.41 97
  414.2 100.0 99
  414.3 89.13 89
  414.4 66.1 66
  414.5 37.22 37
  414.6 12.61 12
  414.7 0.12 0
//
