ACCESSION: MSBNK-RIKEN_NPDepo-NGA00198
RECORD_TITLE: Spirosol-5-en-3-ol; LC-ESI-QQQ; MS2; Frag=135.0V CID@10.0; [M+H]+
DATE: 2018.04.04
AUTHORS: Nogawa T, Okano A, CSRS, RIKEN
LICENSE: CC BY
COMMENT: Origin: Plant
COMMENT: SubCategory_DNP: Steroidal alkaloids, Solanaceous alkaloids
CH$NAME: Spirosol-5-en-3-ol
CH$COMPOUND_CLASS: Alkaloids
CH$FORMULA: C27H43NO2
CH$EXACT_MASS: 413.6493
CH$SMILES: CC1CC[C@@]2(NC1)O[C@H]1C[C@H]3[C@@H]4CC=C5CC(O)CC[C@]5(C)C4CC[C@]3(C)[C@H]1[C@@H]2C
CH$IUPAC: InChI=1S/C27H43NO2/c1-16-7-12-27(28-15-16)17(2)24-23(30-27)14-22-20-6-5-18-13-19(29)8-10-25(18,3)21(20)9-11-26(22,24)4/h5,16-17,19-24,28-29H,6-15H2,1-4H3/t16?,17-,19?,20+,21?,22-,23-,24-,25-,26-,27+/m0/s1
CH$LINK: CAS 126-17-0
CH$LINK: CHEMSPIDER 5060 19952204
CH$LINK: INCHIKEY KWVISVAMQJWJSZ-KYSYDILESA-N
CH$LINK: PUBCHEM CID:126961509
AC$INSTRUMENT: Agilent 6410 Triple Quadrupole LC/MS system
AC$INSTRUMENT_TYPE: LC-ESI-QQQ
AC$MASS_SPECTROMETRY: MS_TYPE MS2
AC$MASS_SPECTROMETRY: ION_MODE POSITIVE
MS$FOCUSED_ION: PRECURSOR_TYPE [M+H]+
PK$SPLASH: splash10-03di-0000900000-984685ebf2141490af92
PK$NUM_PEAK: 16
PK$PEAK: m/z int. rel.int.
  413.4 0.94 0
  413.5 2.57 2
  413.6 5.18 5
  413.7 8.78 8
  413.8 14.64 14
  413.9 25.4 25
  414.0 42.71 42
  414.1 64.48 64
  414.2 84.99 84
  414.3 98.18 98
  414.4 100.0 99
  414.5 88.53 88
  414.6 65.0 64
  414.7 35.97 35
  414.8 11.63 11
  414.9 0.1 0
//
