ACCESSION: MSBNK-RIKEN_NPDepo-NGA04358
RECORD_TITLE: 9,13-Epoxy-3,15,16,18-labdanetetrol; LC-ESI-QQQ; MS2; Frag=135.0V CID@15.0; [M+HCOO]-
DATE: 2018.04.04
AUTHORS: Nogawa T, Okano A, CSRS, RIKEN
LICENSE: CC BY
COMMENT: Origin: Plant
COMMENT: SubCategory_DNP: Diterpenoids, Labdane diterpenoids
CH$NAME: 9,13-Epoxy-3,15,16,18-labdanetetrol
CH$COMPOUND_CLASS: Terpenoids
CH$FORMULA: C20H36O5
CH$EXACT_MASS: 356.5069
CH$SMILES: C[C@H]1CCC2[C@](C)(CC[C@H](O)[C@@]2(C)CO)[C@@]12CCC(CO)(CCO)O2
CH$IUPAC: InChI=1S/C20H36O5/c1-14-4-5-15-17(2,12-22)16(24)6-7-18(15,3)20(14)9-8-19(13-23,25-20)10-11-21/h14-16,21-24H,4-13H2,1-3H3/t14-,15?,16-,17-,18-,19?,20+/m0/s1
CH$LINK: INCHIKEY XYPPDQHBNJURHU-NSGLWTTCSA-N
CH$LINK: PUBCHEM CID:12304971
AC$INSTRUMENT: Agilent 6410 Triple Quadrupole LC/MS system
AC$INSTRUMENT_TYPE: LC-ESI-QQQ
AC$MASS_SPECTROMETRY: MS_TYPE MS2
AC$MASS_SPECTROMETRY: ION_MODE NEGATIVE
MS$FOCUSED_ION: PRECURSOR_TYPE [M+HCOO]-
PK$SPLASH: splash10-0fri-3988880000-ba283fbb6f31af56b975
PK$NUM_PEAK: 3868
PK$PEAK: m/z int. rel.int.
  50.9 5.45 5
  51.0 7.35 7
  51.1 10.47 10
  51.2 13.09 13
  51.3 13.38 13
  51.6 10.53 10
  51.7 13.07 13
  51.8 14.55 14
  51.9 12.89 12
  52.1 7.51 7
  52.2 10.15 10
  52.3 15.35 15
  52.4 18.09 18
  52.5 15.17 15
  52.6 9.1 9
  52.8 7.26 7
  52.9 11.68 11
  53.0 14.84 14
  53.1 14.93 14
  53.2 12.55 12
  53.4 9.37 9
  53.5 12.8 12
  53.6 17.68 17
  53.7 19.45 19
  53.8 16.32 16
  54.0 9.61 9
  54.1 12.66 12
  54.2 18.29 18
  54.3 22.43 22
  54.4 22.3 22
  54.5 18.04 18
  54.6 12.44 12
  55.3 11.95 11
  55.4 13.18 13
  55.5 14.75 14
  55.6 15.42 15
  55.7 13.96 13
  55.8 10.58 10
  56.0 7.26 7
  56.1 10.69 10
  56.2 15.28 15
  56.3 16.99 16
  56.4 13.74 13
  56.5 7.82 7
  56.7 5.45 5
  56.8 9.84 9
  56.9 13.36 13
  57.0 13.72 13
  57.1 11.18 11
  57.4 8.0 7
  57.5 11.23 11
  57.6 13.13 13
  57.7 12.21 12
  57.8 10.44 10
  57.9 11.18 11
  58.0 15.44 15
  58.1 20.51 20
  58.2 22.39 22
  58.3 19.05 19
  58.4 12.53 12
  58.6 10.4 10
  58.7 17.44 17
  58.8 22.25 22
  58.9 19.3 19
  59.0 10.02 10
  59.2 1.93 1
  59.3 10.09 10
  59.4 19.03 19
  59.5 21.31 21
  59.6 16.38 16
  60.5 6.23 6
  60.6 10.67 10
  60.7 15.84 15
  60.8 17.59 17
  60.9 14.84 14
  61.0 10.49 10
  61.8 7.13 7
  61.9 10.06 10
  62.0 13.31 13
  62.1 14.05 14
  62.2 10.78 10
  62.4 4.68 4
  62.5 8.07 8
  62.6 12.93 12
  62.7 14.7 14
  62.8 12.42 12
  63.0 8.29 8
  63.1 11.23 11
  63.2 15.8 15
  63.3 18.27 18
  63.4 16.72 16
  63.5 12.89 12
  63.7 11.86 11
  63.8 14.9 14
  63.9 16.63 16
  64.0 14.88 14
  64.1 10.53 10
  64.3 7.78 7
  64.4 12.82 12
  64.5 18.8 18
  64.6 21.69 21
  64.7 19.34 19
  64.8 13.09 13
  65.6 11.05 11
  65.7 14.34 14
  65.8 16.45 16
  65.9 15.53 15
  66.0 12.06 12
  66.3 8.87 8
  66.4 11.5 11
  66.5 12.89 12
  66.6 12.06 12
  66.7 9.84 9
  66.9 7.96 7
  67.0 10.0 9
  67.1 12.73 12
  67.2 14.25 14
  67.3 13.65 13
  68.1 8.27 8
  68.2 10.4 10
  68.3 14.16 14
  68.4 16.23 16
  68.5 14.12 14
  68.6 8.81 8
  68.8 5.33 5
  68.9 11.39 11
  69.0 18.06 18
  69.1 20.06 20
  69.2 16.23 16
  70.1 9.19 9
  70.2 12.08 12
  70.3 13.87 13
  70.4 12.37 12
  70.7 6.54 6
  70.8 11.74 11
  70.9 17.93 17
  71.0 21.11 21
  71.1 19.32 19
  71.2 13.85 13
  71.4 6.95 6
  71.5 10.42 10
  71.6 15.51 15
  71.7 16.99 16
  71.8 13.33 13
  72.0 8.83 8
  72.1 13.76 13
  72.2 18.78 18
  72.3 19.07 19
  72.4 14.34 14
  73.3 7.46 7
  73.4 13.85 13
  73.5 19.0 18
  73.6 18.78 18
  73.7 13.85 13
  73.9 10.35 10
  74.0 15.82 15
  74.1 20.19 20
  74.2 18.65 18
  74.3 12.33 12
  74.6 8.96 8
  74.7 13.09 13
  74.8 16.27 16
  74.9 16.83 16
  75.0 14.16 14
  75.8 6.14 6
  75.9 8.72 8
  76.0 13.45 13
  76.1 16.45 16
  76.2 15.08 15
  76.4 8.87 8
  76.5 11.52 11
  76.6 16.88 16
  76.7 20.08 20
  76.8 18.33 18
  76.9 13.11 13
  77.0 8.05 8
  77.2 6.97 6
  77.3 10.17 10
  77.4 12.46 12
  77.5 11.43 11
  77.8 6.95 6
  77.9 12.24 12
  78.0 16.36 16
  78.1 15.62 15
  78.2 11.03 11
  78.4 5.87 5
  78.5 9.17 9
  78.6 14.32 14
  78.7 17.53 17
  78.8 15.98 15
  78.9 11.14 11
  79.1 9.12 9
  79.2 13.27 13
  79.3 16.38 16
  79.4 16.67 16
  79.5 15.33 15
  80.3 11.39 11
  80.4 13.94 13
  80.5 15.91 15
  80.6 14.7 14
  80.7 10.35 10
  80.9 6.93 6
  81.0 12.57 12
  81.1 18.83 18
  81.2 20.35 20
  81.3 16.34 16
  81.4 10.49 10
  81.6 7.31 7
  81.7 10.65 10
  81.8 14.1 14
  81.9 15.4 15
  82.0 14.39 14
  82.9 8.29 8
  83.0 11.77 11
  83.1 15.69 15
  83.2 16.58 16
  83.3 13.54 13
  83.4 8.83 8
  83.6 6.99 6
  83.7 11.74 11
  83.8 16.79 16
  83.9 17.79 17
  84.0 13.69 13
  84.2 7.19 7
  84.3 10.89 10
  84.4 15.62 15
  84.5 16.92 16
  84.6 14.25 14
  84.8 10.71 10
  84.9 14.1 14
  85.0 17.95 17
  85.1 18.62 18
  85.2 15.26 15
  85.3 10.58 10
  85.5 9.91 9
  85.6 13.25 13
  85.7 15.04 15
  85.8 13.78 13
  85.9 10.67 10
  86.1 8.61 8
  86.2 12.44 12
  86.3 17.28 17
  86.4 19.32 19
  86.5 16.94 16
  87.3 8.81 8
  87.4 11.86 11
  87.5 17.19 17
  87.6 20.53 20
  87.7 18.29 18
  87.8 11.95 11
  88.0 8.72 8
  88.1 13.47 13
  88.2 16.23 16
  88.3 14.7 14
  88.4 10.98 10
  88.6 7.4 7
  88.7 9.5 9
  88.8 13.47 13
  88.9 16.36 16
  89.0 15.28 15
  89.1 10.98 10
  89.3 8.92 8
  89.4 13.13 13
  89.5 16.56 16
  89.6 16.25 16
  89.7 12.55 12
  89.9 8.05 8
  90.0 11.36 11
  90.1 15.8 15
  90.2 17.48 17
  90.3 15.11 15
  90.6 11.18 11
  90.7 15.13 15
  90.8 17.71 17
  90.9 16.38 16
  91.0 11.63 11
  91.2 6.84 6
  91.3 10.67 10
  91.4 14.59 14
  91.5 14.7 14
  91.6 11.63 11
  91.8 9.52 9
  91.9 11.99 11
  92.0 14.14 14
  92.1 14.61 14
  92.2 12.44 12
  92.5 6.23 6
  92.6 12.75 12
  92.7 18.33 18
  92.8 18.29 18
  92.9 13.29 13
  93.8 6.14 6
  93.9 11.47 11
  94.0 15.15 15
  94.1 14.46 14
  94.2 10.22 10
  94.4 6.19 6
  94.5 11.23 11
  94.6 17.44 17
  94.7 19.7 19
  94.8 16.81 16
  95.7 8.0 7
  95.8 12.12 12
  95.9 16.36 16
  96.0 17.41 17
  96.1 14.86 14
  96.2 11.05 11
  96.4 10.06 10
  96.5 12.75 12
  96.6 14.59 14
  96.7 14.25 14
  97.6 10.67 10
  97.7 12.8 12
  97.8 14.52 14
  97.9 14.9 14
  98.0 13.67 13
  98.1 11.36 11
  98.8 6.34 6
  98.9 8.2 8
  99.0 13.72 13
  99.1 18.31 18
  99.2 17.86 17
  99.3 13.29 13
  99.5 9.01 9
  99.6 11.61 11
  99.7 14.34 14
  99.8 15.76 15
  99.9 15.6 15
  100.0 14.01 13
  100.8 5.67 5
  100.9 10.71 10
  101.0 16.38 16
  101.1 16.99 16
  101.2 11.92 11
  101.4 5.98 5
  101.5 9.91 9
  101.6 14.34 14
  101.7 16.43 16
  101.8 15.78 15
  101.9 13.38 13
  102.7 10.22 10
  102.8 13.16 13
  102.9 16.07 16
  103.0 15.28 15
  103.1 10.09 10
  103.3 2.24 2
  103.4 6.28 6
  103.5 12.82 12
  103.6 16.32 16
  103.7 14.05 14
  104.0 7.82 7
  104.1 13.96 13
  104.2 18.6 18
  104.3 17.82 17
  104.4 12.64 12
  104.6 8.72 8
  104.7 13.11 13
  104.8 16.7 16
  104.9 16.45 16
  105.0 13.51 13
  105.3 10.26 10
  105.4 12.98 12
  105.5 15.82 15
  105.6 16.18 16
  105.7 12.91 12
  105.8 7.69 7
  106.0 4.64 4
  106.1 8.94 8
  106.2 13.02 13
  106.3 13.67 13
  106.4 11.83 11
  106.5 10.98 10
  106.6 13.02 13
  106.7 16.38 16
  106.8 17.46 17
  106.9 13.98 13
  107.0 7.24 7
  107.2 2.24 2
  107.3 8.7 8
  107.4 16.58 16
  107.5 20.28 20
  107.6 18.0 17
  107.7 12.66 12
  108.5 6.03 6
  108.6 10.2 10
  108.7 15.08 15
  108.8 16.74 16
  108.9 13.49 13
  109.2 7.13 7
  109.3 14.12 14
  109.4 18.51 18
  109.5 15.8 15
  109.6 8.92 8
  109.8 6.72 6
  109.9 12.28 12
  110.0 16.52 16
  110.1 15.91 15
  110.2 10.85 10
  110.4 6.41 6
  110.5 12.28 12
  110.6 18.78 18
  110.7 20.91 20
  110.8 17.68 17
  110.9 12.35 12
  111.1 11.21 11
  111.2 15.33 15
  111.3 17.55 17
  111.4 15.73 15
  111.5 11.47 11
  111.7 8.63 8
  111.8 12.28 12
  111.9 15.96 15
  112.0 16.45 16
  112.1 13.2 13
  112.2 8.49 8
  112.4 5.87 5
  112.5 8.54 8
  112.6 10.82 10
  112.7 10.96 10
  112.8 9.82 9
  112.9 9.82 9
  113.0 12.1 12
  113.1 15.49 15
  113.2 17.1 17
  113.3 14.77 14
  113.4 9.44 9
  113.6 6.28 6
  113.7 11.32 11
  113.8 16.0 15
  113.9 16.16 16
  114.0 11.83 11
  114.2 6.12 6
  114.3 10.11 10
  114.4 15.69 15
  114.5 18.33 18
  114.6 16.49 16
  114.7 12.44 12
  114.9 9.66 9
  115.0 12.91 12
  115.1 16.85 16
  115.2 18.09 18
  115.3 14.97 14
  115.6 9.35 9
  115.7 14.37 14
  115.8 18.27 18
  115.9 18.53 18
  116.0 15.69 15
  116.1 11.99 11
  116.3 10.65 10
  116.4 12.75 12
  116.5 13.78 13
  116.6 12.26 12
  116.9 9.05 9
  117.0 12.17 12
  117.1 14.32 14
  117.2 13.56 13
  117.4 9.79 9
  117.5 11.79 11
  117.6 15.46 15
  117.7 16.92 16
  117.8 13.6 13
  117.9 6.66 6
  118.1 0.63 0
  118.2 6.99 6
  118.3 15.42 15
  118.4 19.86 19
  118.5 17.68 17
  118.6 11.47 11
  118.8 7.69 7
  118.9 12.51 12
  119.0 16.02 16
  119.1 14.52 14
  119.2 9.5 9
  119.4 6.84 6
  119.5 10.24 10
  119.6 12.01 11
  119.7 10.06 10
  119.9 5.13 5
  120.0 8.34 8
  120.1 14.66 14
  120.2 19.99 19
  120.3 20.69 20
  120.4 16.74 16
  120.5 11.83 11
  121.3 6.57 6
  121.4 12.17 12
  121.5 18.56 18
  121.6 19.97 19
  121.7 14.95 14
  121.8 7.91 7
  122.0 7.28 7
  122.1 12.21 12
  122.2 14.3 14
  122.3 11.47 11
  122.6 6.61 6
  122.7 10.82 10
  122.8 14.48 14
  122.9 15.71 15
  123.0 14.1 14
  123.2 11.61 11
  123.3 14.68 14
  123.4 17.97 17
  123.5 17.48 17
  123.6 12.35 12
  123.7 5.89 5
  123.9 4.86 4
  124.0 9.46 9
  124.1 12.1 12
  124.2 11.14 11
  124.5 9.12 9
  124.6 12.84 12
  124.7 16.0 15
  124.8 16.0 15
  124.9 12.51 12
  125.1 8.9 8
  125.2 13.72 13
  125.3 19.39 19
  125.4 20.69 20
  125.5 16.0 15
  125.6 8.9 8
  125.8 7.89 7
  125.9 14.41 14
  126.0 19.72 19
  126.1 20.15 20
  126.2 15.93 15
  126.3 10.89 10
  126.5 10.71 10
  126.6 13.85 13
  126.7 15.19 15
  126.8 13.87 13
  127.6 7.6 7
  127.7 11.72 11
  127.8 17.01 16
  127.9 18.83 18
  128.0 15.31 15
  128.1 8.76 8
  128.3 4.26 4
  128.4 9.93 9
  128.5 16.9 16
  128.6 19.88 19
  128.7 16.67 16
  128.8 10.0 9
  129.0 7.4 7
  129.1 13.45 13
  129.2 17.57 17
  129.3 15.49 15
  129.4 9.52 9
  129.6 7.55 7
  129.7 12.15 12
  129.8 14.3 14
  129.9 11.81 11
  130.0 7.17 7
  130.2 5.8 5
  130.3 10.26 10
  130.4 14.79 14
  130.5 16.23 16
  130.6 13.56 13
  130.8 8.25 8
  130.9 12.03 12
  131.0 18.2 18
  131.1 21.87 21
  131.2 20.35 20
  131.3 14.99 14
  131.6 9.95 9
  131.7 13.96 13
  131.8 16.72 16
  131.9 16.27 16
  132.0 13.54 13
  132.2 11.36 11
  132.3 13.27 13
  132.4 14.75 14
  132.5 14.3 14
  132.6 12.26 12
  132.8 10.04 10
  132.9 12.33 12
  133.0 15.46 15
  133.1 16.88 16
  133.2 15.28 15
  133.3 11.88 11
  133.5 8.81 8
  133.6 11.36 11
  133.7 14.68 14
  133.8 16.02 16
  133.9 14.43 14
  134.7 9.26 9
  134.8 12.6 12
  134.9 17.32 17
  135.0 19.54 19
  135.1 16.54 16
  135.2 10.09 10
  135.4 7.06 7
  135.5 12.21 12
  135.6 15.91 15
  135.7 14.93 14
  136.0 9.97 9
  136.1 16.14 16
  136.2 22.37 22
  136.3 23.98 23
  136.4 19.5 19
  136.5 12.3 12
  136.7 8.56 8
  136.8 13.33 13
  136.9 17.03 17
  137.0 15.82 15
  137.1 10.67 10
  137.3 6.57 6
  137.4 10.69 10
  137.5 14.99 14
  137.6 16.74 16
  137.7 15.53 15
  138.5 8.47 8
  138.6 12.33 12
  138.7 18.22 18
  138.8 21.76 21
  138.9 19.54 19
  139.0 12.26 12
  139.2 3.54 3
  139.3 8.31 8
  139.4 15.06 15
  139.5 18.0 17
  139.6 14.84 14
  139.9 7.28 7
  140.0 13.54 13
  140.1 18.65 18
  140.2 18.62 18
  140.3 13.74 13
  140.5 6.7 6
  140.6 10.6 10
  140.7 16.16 16
  140.8 18.24 18
  140.9 15.37 15
  141.1 10.74 10
  141.2 14.16 14
  141.3 17.82 17
  141.4 18.13 18
  141.5 14.97 14
  141.7 10.78 10
  141.8 14.01 13
  141.9 18.65 18
  142.0 20.8 20
  142.1 18.02 18
  142.2 11.92 11
  142.4 7.55 7
  142.5 12.1 12
  142.6 16.54 16
  142.7 17.44 17
  142.8 14.77 14
  143.7 5.51 5
  143.8 11.05 11
  143.9 16.79 16
  144.0 18.38 18
  144.1 14.88 14
  145.0 9.32 9
  145.1 13.81 13
  145.2 17.01 16
  145.3 16.05 16
  145.6 9.97 9
  145.7 15.22 15
  145.8 19.61 19
  145.9 18.92 18
  146.0 12.86 12
  146.2 4.3 4
  146.3 9.37 9
  146.4 17.06 17
  146.5 20.84 20
  146.6 18.24 18
  146.7 12.21 12
  146.9 7.42 7
  147.0 11.21 11
  147.1 15.84 15
  147.2 17.44 17
  147.3 14.48 14
  147.6 10.62 10
  147.7 15.87 15
  147.8 18.83 18
  147.9 17.35 17
  148.0 13.63 13
  148.2 12.73 12
  148.3 15.64 15
  148.4 17.14 17
  148.5 15.55 15
  148.6 11.9 11
  148.8 9.21 9
  148.9 12.42 12
  149.0 15.98 15
  149.1 16.67 16
  149.2 13.18 13
  149.5 8.31 8
  149.6 14.57 14
  149.7 18.4 18
  149.8 16.41 16
  149.9 10.24 10
  150.1 5.65 5
  150.2 10.69 10
  150.3 15.96 15
  150.4 17.57 17
  150.5 15.28 15
  150.6 11.54 11
  150.8 9.77 9
  150.9 12.26 12
  151.0 13.56 13
  151.1 11.79 11
  151.3 8.25 8
  151.4 11.79 11
  151.5 16.88 16
  151.6 19.45 19
  151.7 17.35 17
  151.8 12.37 12
  152.0 9.39 9
  152.1 13.31 13
  152.2 16.85 16
  152.3 17.19 17
  152.4 14.57 14
  152.6 11.56 11
  152.7 14.3 14
  152.8 17.48 17
  152.9 17.53 17
  153.0 13.13 13
  153.1 6.66 6
  153.3 4.89 4
  153.4 10.82 10
  153.5 15.73 15
  153.6 15.93 15
  153.7 12.37 12
  153.9 9.46 9
  154.0 12.57 12
  154.1 15.64 15
  154.2 16.27 16
  154.3 13.96 13
  154.6 8.58 8
  154.7 13.02 13
  154.8 17.32 17
  154.9 17.75 17
  155.0 13.87 13
  156.4 8.76 8
  156.5 12.51 12
  156.6 17.19 17
  156.7 20.1 20
  156.8 19.27 19
  156.9 14.77 14
  157.1 8.07 8
  157.2 11.36 11
  157.3 16.56 16
  157.4 18.94 18
  157.5 16.32 16
  157.6 11.18 11
  157.8 9.84 9
  157.9 14.34 14
  158.0 17.28 17
  158.1 15.91 15
  158.4 10.8 10
  158.5 16.0 15
  158.6 19.99 19
  158.7 19.14 19
  158.8 14.01 13
  159.1 8.49 8
  159.2 12.06 12
  159.3 14.12 14
  159.4 13.47 13
  159.5 11.68 11
  159.6 11.45 11
  159.7 13.56 13
  159.8 15.8 15
  159.9 15.13 15
  160.0 11.32 11
  160.3 7.62 7
  160.4 10.51 10
  160.5 12.8 12
  160.6 13.0 12
  160.7 10.58 10
  160.9 5.56 5
  161.0 8.11 8
  161.1 12.55 12
  161.2 14.39 14
  161.3 12.06 12
  161.5 8.9 8
  161.6 13.13 13
  161.7 18.49 18
  161.8 21.54 21
  161.9 20.42 20
  162.0 15.26 15
  162.2 6.72 6
  162.3 10.33 10
  162.4 16.81 16
  162.5 20.04 20
  162.6 16.56 16
  162.7 9.01 9
  162.9 5.04 5
  163.0 11.63 11
  163.1 17.03 17
  163.2 16.58 16
  163.3 11.83 11
  163.5 9.12 9
  163.6 13.29 13
  163.7 17.39 17
  163.8 18.74 18
  163.9 16.54 16
  164.0 11.95 11
  164.2 7.91 7
  164.3 11.97 11
  164.4 17.08 17
  164.5 19.21 19
  164.6 17.21 17
  164.7 13.4 13
  165.5 5.98 5
  165.6 11.59 11
  165.7 16.29 16
  165.8 16.7 16
  165.9 13.76 13
  166.1 10.85 10
  166.2 13.16 13
  166.3 15.64 15
  166.4 16.02 16
  166.5 13.6 13
  166.8 9.7 9
  166.9 13.16 13
  167.0 15.28 15
  167.1 14.16 14
  167.3 10.31 10
  167.4 12.82 12
  167.5 16.83 16
  167.6 18.38 18
  167.7 15.15 15
  168.0 8.79 8
  168.1 14.77 14
  168.2 19.25 19
  168.3 19.14 19
  168.4 15.46 15
  169.2 9.88 9
  169.3 13.07 13
  169.4 18.65 18
  169.5 22.55 22
  169.6 20.93 20
  169.7 13.98 13
  170.5 9.64 9
  170.6 11.95 11
  170.7 15.22 15
  170.8 16.81 16
  170.9 15.19 15
  171.0 11.21 11
  171.2 7.13 7
  171.3 10.06 10
  171.4 13.72 13
  171.5 14.81 14
  171.6 12.17 12
  171.8 6.5 6
  171.9 9.26 9
  172.0 14.34 14
  172.1 17.32 17
  172.2 16.07 16
  172.3 12.39 12
  172.5 10.94 10
  172.6 14.72 14
  172.7 18.47 18
  172.8 19.16 19
  172.9 16.09 16
  173.0 11.61 11
  173.2 9.79 9
  173.3 11.97 11
  173.4 12.8 12
  173.5 11.56 11
  173.6 10.31 10
  173.7 11.34 11
  173.8 14.97 14
  173.9 18.76 18
  174.0 19.59 19
  174.1 16.2 16
  174.2 10.26 10
  174.4 5.78 5
  174.5 9.97 9
  174.6 14.32 14
  174.7 15.13 15
  174.8 12.39 12
  174.9 8.74 8
  175.1 6.9 6
  175.2 9.77 9
  175.3 13.25 13
  175.4 14.63 14
  175.5 13.38 13
  175.6 12.19 12
  175.7 13.6 13
  175.8 16.47 16
  175.9 17.21 17
  176.0 14.63 14
  176.1 10.96 10
  176.3 9.32 9
  176.4 11.12 11
  176.5 12.95 12
  176.6 13.29 13
  176.7 10.85 10
  177.0 5.04 5
  177.1 10.51 10
  177.2 16.63 16
  177.3 19.14 19
  177.4 16.25 16
  177.5 10.51 10
  177.7 9.44 9
  177.8 14.25 14
  177.9 16.18 16
  178.0 13.42 13
  178.2 9.01 9
  178.3 12.73 12
  178.4 16.76 16
  178.5 17.14 17
  178.6 13.38 13
  178.7 8.43 8
  178.9 6.28 6
  179.0 9.75 9
  179.1 13.49 13
  179.2 14.34 14
  179.3 11.39 11
  179.5 7.69 7
  179.6 12.42 12
  179.7 18.09 18
  179.8 20.15 20
  179.9 17.21 17
  180.0 11.34 11
  180.2 5.78 5
  180.3 9.97 9
  180.4 15.22 15
  180.5 17.01 16
  180.6 14.34 14
  180.7 10.22 10
  180.9 9.44 9
  181.0 12.6 12
  181.1 14.7 14
  181.2 13.81 13
  181.5 10.47 10
  181.6 14.21 14
  181.7 16.29 16
  181.8 14.19 14
  181.9 9.41 9
  182.1 7.64 7
  182.2 12.33 12
  182.3 16.49 16
  182.4 16.97 16
  182.5 13.72 13
  182.7 7.8 7
  182.8 10.44 10
  182.9 15.91 15
  183.0 20.13 20
  183.1 19.36 19
  183.2 13.94 13
  183.4 9.66 9
  183.5 14.97 14
  183.6 18.65 18
  183.7 15.87 15
  183.8 8.81 8
  184.0 4.21 4
  184.1 8.52 8
  184.2 12.19 12
  184.3 12.62 12
  184.6 9.93 9
  184.7 11.36 11
  184.8 11.72 11
  184.9 10.6 10
  185.0 8.87 8
  185.3 5.78 5
  185.4 10.15 10
  185.5 16.49 16
  185.6 19.12 19
  185.7 14.61 14
  186.0 6.28 6
  186.1 14.07 14
  186.2 18.42 18
  186.3 15.33 15
  186.4 8.31 8
  186.6 7.01 7
  186.7 12.84 12
  186.8 16.11 16
  186.9 14.07 14
  187.2 9.23 9
  187.3 15.67 15
  187.4 20.28 20
  187.5 19.32 19
  187.6 13.98 13
  187.8 7.44 7
  187.9 10.82 10
  188.0 16.14 16
  188.1 18.98 18
  188.2 16.76 16
  188.3 11.12 11
  188.5 6.45 6
  188.6 10.8 10
  188.7 15.51 15
  188.8 16.07 16
  188.9 11.95 11
  189.1 7.37 7
  189.2 12.12 12
  189.3 17.26 17
  189.4 18.4 18
  189.5 14.86 14
  189.6 9.28 9
  189.8 7.06 7
  189.9 12.39 12
  190.0 16.9 16
  190.1 16.38 16
  190.2 11.97 11
  190.4 10.09 10
  190.5 13.69 13
  190.6 15.51 15
  190.7 13.42 13
  190.8 8.94 8
  191.0 6.68 6
  191.1 11.99 11
  191.2 18.31 18
  191.3 21.29 21
  191.4 18.96 18
  191.5 13.09 13
  191.7 7.84 7
  191.8 11.77 11
  191.9 15.76 15
  192.0 15.35 15
  192.1 10.31 10
  192.3 4.35 4
  192.4 8.56 8
  192.5 13.38 13
  192.6 14.7 14
  192.7 12.08 12
  192.9 6.75 6
  193.0 9.26 9
  193.1 14.41 14
  193.2 18.15 18
  193.3 17.46 17
  193.4 13.07 13
  193.6 8.67 8
  193.7 12.86 12
  193.8 18.33 18
  193.9 20.37 20
  194.0 16.97 16
  194.1 10.67 10
  194.3 7.66 7
  194.4 12.08 12
  194.5 15.17 15
  194.6 14.03 14
  194.7 9.95 9
  194.9 7.22 7
  195.0 11.09 11
  195.1 15.33 15
  195.2 16.02 16
  195.3 12.1 12
  195.5 6.36 6
  195.6 11.5 11
  195.7 18.47 18
  195.8 20.95 20
  195.9 16.38 16
  196.0 8.63 8
  196.2 6.41 6
  196.3 12.28 12
  196.4 16.72 16
  196.5 16.16 16
  196.6 11.14 11
  196.8 4.89 4
  196.9 9.55 9
  197.0 16.47 16
  197.1 20.19 20
  197.2 17.59 17
  197.3 11.25 11
  197.5 8.9 8
  197.6 13.78 13
  197.7 16.2 16
  197.8 13.92 13
  198.1 9.14 9
  198.2 12.84 12
  198.3 15.15 15
  198.4 14.32 14
  198.5 11.34 11
  198.7 9.48 9
  198.8 11.61 11
  198.9 13.22 13
  199.0 13.07 13
  199.1 11.41 11
  199.4 8.18 8
  199.5 11.36 11
  199.6 15.24 15
  199.7 16.29 16
  199.8 12.95 12
  200.0 7.8 7
  200.1 12.3 12
  200.2 16.97 16
  200.3 16.47 16
  200.4 11.32 11
  200.6 5.98 5
  200.7 10.58 10
  200.8 16.63 16
  200.9 19.16 19
  201.0 15.93 15
  201.9 5.69 5
  202.0 8.4 8
  202.1 11.43 11
  202.2 12.17 12
  202.3 9.82 9
  202.5 4.98 4
  202.6 7.15 7
  202.7 11.59 11
  202.8 14.95 14
  202.9 14.95 14
  203.0 12.15 12
  203.2 8.38 8
  203.3 12.06 12
  203.4 17.79 17
  203.5 20.39 20
  203.6 16.58 16
  203.7 9.17 9
  203.9 6.12 6
  204.0 11.99 11
  204.1 16.16 16
  204.2 15.26 15
  204.5 11.21 11
  204.6 14.75 14
  204.7 16.58 16
  204.8 15.37 15
  204.9 12.19 12
  205.1 9.77 9
  205.2 12.62 12
  205.3 15.46 15
  205.4 15.49 15
  205.5 12.48 12
  205.7 6.5 6
  205.8 8.74 8
  205.9 15.19 15
  206.0 21.49 21
  206.1 21.49 21
  206.2 13.85 13
  206.4 2.24 2
  206.5 8.47 8
  206.6 17.53 17
  206.7 21.07 21
  206.8 16.02 16
  207.1 8.11 8
  207.2 15.51 15
  207.3 19.54 19
  207.4 17.71 17
  207.5 12.53 12
  207.7 8.54 8
  207.8 12.46 12
  207.9 16.16 16
  208.0 15.78 15
  208.3 11.3 11
  208.4 15.82 15
  208.5 18.42 18
  208.6 16.63 16
  208.7 11.86 11
  209.0 7.89 7
  209.1 11.68 11
  209.2 14.3 14
  209.3 13.87 13
  209.5 10.67 10
  209.6 12.8 12
  209.7 16.61 16
  209.8 19.16 19
  209.9 18.38 18
  210.0 14.57 14
  210.3 10.09 10
  210.4 13.87 13
  210.5 17.01 16
  210.6 17.62 17
  210.7 15.76 15
  210.8 13.13 13
  211.4 11.09 11
  211.5 13.13 13
  211.6 16.11 16
  211.7 17.82 17
  211.8 16.9 16
  211.9 13.65 13
  212.0 9.97 9
  212.2 8.9 8
  212.3 11.74 11
  212.4 14.12 14
  212.5 13.9 13
  213.4 8.25 8
  213.5 13.96 13
  213.6 20.75 20
  213.7 24.11 24
  213.8 21.29 21
  213.9 14.03 14
  214.1 7.62 7
  214.2 12.21 12
  214.3 16.83 16
  214.4 17.62 17
  214.5 14.41 14
  215.3 9.88 9
  215.4 12.62 12
  215.5 16.11 16
  215.6 18.13 18
  215.7 16.16 16
  215.8 10.56 10
  216.0 5.11 5
  216.1 9.64 9
  216.2 14.55 14
  216.3 15.51 15
  216.4 12.03 12
  216.6 7.42 7
  216.7 11.74 11
  216.8 17.3 17
  216.9 18.98 18
  217.0 14.99 14
  217.1 8.4 8
  217.3 6.01 6
  217.4 11.21 11
  217.5 15.46 15
  217.6 14.97 14
  217.7 10.09 10
  217.9 4.59 4
  218.0 8.65 8
  218.1 13.65 13
  218.2 15.76 15
  218.3 14.32 14
  218.6 12.06 12
  218.7 15.53 15
  218.8 17.75 17
  218.9 16.54 16
  219.2 11.05 11
  219.3 15.58 15
  219.4 19.92 19
  219.5 20.55 20
  219.6 17.01 16
  219.7 11.88 11
  219.9 9.1 9
  220.0 13.29 13
  220.1 17.55 17
  220.2 17.86 17
  220.3 13.81 13
  220.5 9.39 9
  220.6 13.25 13
  220.7 17.32 17
  220.8 17.88 17
  220.9 14.81 14
  221.1 11.41 11
  221.2 14.39 14
  221.3 17.08 17
  221.4 16.76 16
  221.5 13.9 13
  221.8 10.49 10
  221.9 12.89 12
  222.0 14.39 14
  222.1 13.2 13
  222.4 9.32 9
  222.5 13.22 13
  222.6 16.9 16
  222.7 17.17 17
  222.8 13.04 13
  223.0 5.2 5
  223.1 8.56 8
  223.2 14.57 14
  223.3 18.0 17
  223.4 16.72 16
  223.7 12.48 12
  223.8 16.36 16
  223.9 19.5 19
  224.0 18.69 18
  224.1 13.96 13
  224.2 8.76 8
  224.4 8.34 8
  224.5 11.81 11
  224.6 14.77 14
  224.7 15.51 15
  224.8 13.81 13
  225.6 9.86 9
  225.7 12.39 12
  225.8 15.08 15
  225.9 14.9 14
  226.0 11.65 11
  226.3 8.2 8
  226.4 12.73 12
  226.5 16.25 16
  226.6 15.73 15
  226.7 11.72 11
  226.9 9.05 9
  227.0 13.18 13
  227.1 16.54 16
  227.2 16.18 16
  227.3 13.09 13
  227.5 11.56 11
  227.6 14.5 14
  227.7 16.72 16
  227.8 16.45 16
  227.9 13.98 13
  228.0 10.67 10
  228.2 8.14 8
  228.3 10.91 10
  228.4 14.52 14
  228.5 16.16 16
  228.6 14.61 14
  228.7 11.68 11
  228.9 10.65 10
  229.0 12.95 12
  229.1 14.48 14
  229.2 13.33 13
  229.5 9.23 9
  229.6 14.79 14
  229.7 18.98 18
  229.8 17.03 17
  229.9 10.06 10
  230.1 5.98 5
  230.2 13.42 13
  230.3 19.99 19
  230.4 19.63 19
  230.5 13.22 13
  230.7 6.68 6
  230.8 10.58 10
  230.9 14.3 14
  231.0 14.81 14
  231.1 12.62 12
  231.3 9.55 9
  231.4 11.25 11
  231.5 14.3 14
  231.6 16.88 16
  231.7 17.32 17
  231.8 15.42 15
  231.9 12.71 12
  232.7 8.58 8
  232.8 11.32 11
  232.9 13.42 13
  233.0 14.14 14
  233.1 13.72 13
  233.9 8.02 8
  234.0 10.33 10
  234.1 14.28 14
  234.2 17.01 16
  234.3 16.25 16
  234.6 11.54 11
  234.7 15.76 15
  234.8 18.69 18
  234.9 17.32 17
  235.0 12.73 12
  235.2 8.58 8
  235.3 12.46 12
  235.4 16.56 16
  235.5 16.38 16
  235.6 11.39 11
  235.8 5.38 5
  235.9 10.35 10
  236.0 16.54 16
  236.1 18.53 18
  236.2 15.04 15
  236.3 9.28 9
  236.5 6.7 6
  236.6 11.43 11
  236.7 15.82 15
  236.8 16.02 16
  236.9 12.21 12
  237.1 9.39 9
  237.2 13.45 13
  237.3 17.39 17
  237.4 18.24 18
  237.5 15.64 15
  237.6 11.36 11
  237.8 9.52 9
  237.9 13.45 13
  238.0 16.16 16
  238.1 13.85 13
  238.3 3.5 3
  238.4 8.0 7
  238.5 20.51 20
  238.6 31.89 31
  238.7 32.5 32
  238.8 22.48 22
  238.9 11.52 11
  239.1 11.9 11
  239.2 17.84 17
  239.3 20.98 20
  239.4 19.41 19
  239.5 14.32 14
  239.7 9.75 9
  239.8 14.12 14
  239.9 18.15 18
  240.0 17.32 17
  240.1 12.08 12
  240.3 7.51 7
  240.4 12.21 12
  240.5 16.81 16
  240.6 16.9 16
  240.7 12.44 12
  240.9 6.66 6
  241.0 9.84 9
  241.1 14.1 14
  241.2 15.76 15
  241.3 13.51 13
  241.5 7.24 7
  241.6 9.79 9
  241.7 15.6 15
  241.8 20.1 20
  241.9 20.26 20
  242.0 16.88 16
  242.9 8.36 8
  243.0 13.83 13
  243.1 18.4 18
  243.2 17.95 17
  243.3 12.64 12
  243.6 7.69 7
  243.7 11.97 11
  243.8 13.96 13
  243.9 12.82 12
  244.2 11.47 11
  244.3 14.46 14
  244.4 17.32 17
  244.5 17.82 17
  244.6 15.08 15
  245.4 6.7 6
  245.5 10.49 10
  245.6 15.42 15
  245.7 17.68 17
  245.8 15.11 15
  245.9 9.77 9
  246.1 7.78 7
  246.2 12.01 11
  246.3 15.28 15
  246.4 15.15 15
  246.5 12.33 12
  246.7 10.6 10
  246.8 13.67 13
  246.9 16.25 16
  247.0 15.69 15
  247.1 11.95 11
  247.3 6.84 6
  247.4 9.73 9
  247.5 14.37 14
  247.6 17.44 17
  247.7 16.65 16
  247.8 12.33 12
  248.0 6.68 6
  248.1 10.31 10
  248.2 15.31 15
  248.3 17.03 17
  248.4 13.96 13
  249.3 5.85 5
  249.4 9.21 9
  249.5 12.3 12
  249.6 13.72 13
  249.7 13.67 13
  249.8 12.84 12
  249.9 12.37 12
  250.0 13.4 13
  250.1 15.37 15
  250.2 16.29 16
  250.3 14.97 14
  250.4 12.15 12
  250.6 9.68 9
  250.7 12.1 12
  250.8 15.17 15
  250.9 16.11 16
  251.0 14.23 14
  251.8 8.38 8
  251.9 11.77 11
  252.0 14.97 14
  252.1 14.75 14
  252.2 11.34 11
  252.4 8.11 8
  252.5 11.05 11
  252.6 14.34 14
  252.7 15.84 15
  252.8 15.26 15
  252.9 13.4 13
  253.8 7.28 7
  253.9 10.8 10
  254.0 13.54 13
  254.1 13.09 13
  254.4 8.67 8
  254.5 12.98 12
  254.6 16.9 16
  254.7 16.61 16
  254.8 11.83 11
  255.0 5.71 5
  255.1 9.57 9
  255.2 14.99 14
  255.3 18.0 17
  255.4 17.03 17
  255.5 13.42 13
  255.7 10.4 10
  255.8 13.65 13
  255.9 16.49 16
  256.0 15.26 15
  256.1 10.49 10
  256.3 8.25 8
  256.4 13.33 13
  256.5 16.7 16
  256.6 14.93 14
  256.7 9.66 9
  256.9 7.75 7
  257.0 13.33 13
  257.1 17.91 17
  257.2 17.77 17
  257.3 13.76 13
  257.6 9.82 9
  257.7 14.79 14
  257.8 19.39 19
  257.9 19.86 19
  258.0 15.58 15
  258.1 9.73 9
  258.3 7.53 7
  258.4 10.74 10
  258.5 12.8 12
  258.6 12.44 12
  258.7 11.41 11
  258.8 11.79 11
  258.9 13.54 13
  259.0 15.04 15
  259.1 15.11 15
  259.2 13.54 13
  259.3 10.38 10
  259.6 4.62 4
  259.7 9.44 9
  259.8 13.94 13
  259.9 14.19 14
  260.2 9.91 9
  260.3 14.93 14
  260.4 18.51 18
  260.5 17.21 17
  260.6 12.42 12
  260.8 9.57 9
  260.9 12.93 12
  261.0 15.11 15
  261.1 14.01 13
  261.2 10.74 10
  261.4 8.38 8
  261.5 11.39 11
  261.6 14.63 14
  261.7 15.46 15
  261.8 13.18 13
  262.0 8.34 8
  262.1 11.14 11
  262.2 16.7 16
  262.3 20.75 20
  262.4 19.5 19
  262.5 13.4 13
  263.4 8.61 8
  263.5 11.45 11
  263.6 14.59 14
  263.7 15.58 15
  263.8 13.33 13
  264.0 8.31 8
  264.1 11.3 11
  264.2 15.93 15
  264.3 17.32 17
  264.4 13.4 13
  265.3 8.16 8
  265.4 13.98 13
  265.5 18.33 18
  265.6 18.04 18
  265.7 13.56 13
  265.9 8.36 8
  266.0 12.8 12
  266.1 18.24 18
  266.2 19.21 19
  266.3 14.34 14
  266.5 7.06 7
  266.6 11.83 11
  266.7 18.87 18
  266.8 23.04 23
  266.9 21.69 21
  267.0 15.84 15
  267.1 9.14 9
  267.3 7.71 7
  267.4 12.95 12
  267.5 16.79 16
  267.6 15.8 15
  267.7 11.3 11
  267.9 9.21 9
  268.0 13.74 13
  268.1 16.67 16
  268.2 14.72 14
  268.5 9.08 9
  268.6 14.14 14
  268.7 17.44 17
  268.8 16.43 16
  268.9 12.55 12
  269.7 7.4 7
  269.8 10.38 10
  269.9 13.07 13
  270.0 13.49 13
  270.1 11.74 11
  270.4 6.3 6
  270.5 11.07 11
  270.6 17.86 17
  270.7 20.39 20
  270.8 15.37 15
  270.9 6.93 6
  271.1 6.14 6
  271.2 13.27 13
  271.3 17.68 17
  271.4 16.18 16
  271.5 10.94 10
  271.7 7.89 7
  271.8 13.22 13
  271.9 18.42 18
  272.0 18.89 18
  272.1 13.85 13
  272.4 7.78 7
  272.5 13.94 13
  272.6 17.77 17
  272.7 16.65 16
  272.8 12.39 12
  273.0 9.5 9
  273.1 13.74 13
  273.2 18.89 18
  273.3 20.37 20
  273.4 16.07 16
  273.5 9.37 9
  273.7 8.18 8
  273.8 12.37 12
  273.9 14.1 14
  274.0 12.6 12
  274.2 10.42 10
  274.3 12.98 12
  274.4 16.0 15
  274.5 16.43 16
  274.6 13.25 13
  274.9 8.02 8
  275.0 12.37 12
  275.1 16.29 16
  275.2 17.08 17
  275.3 14.5 14
  275.6 11.05 11
  275.7 15.02 15
  275.8 17.75 17
  275.9 16.63 16
  276.0 12.77 12
  276.2 10.26 10
  276.3 13.51 13
  276.4 16.36 16
  276.5 15.82 15
  276.6 11.63 11
  277.4 7.55 7
  277.5 10.47 10
  277.6 15.82 15
  277.7 18.94 18
  277.8 17.32 17
  277.9 12.95 12
  278.1 10.31 10
  278.2 13.92 13
  278.3 17.23 17
  278.4 17.3 17
  278.5 14.34 14
  279.3 8.18 8
  279.4 10.35 10
  279.5 13.98 13
  279.6 15.82 15
  279.7 13.6 13
  279.8 8.79 8
  280.0 6.95 6
  280.1 11.12 11
  280.2 14.3 14
  280.3 14.55 14
  280.4 12.77 12
  280.6 10.04 10
  280.7 11.52 11
  280.8 15.02 15
  280.9 18.29 18
  281.0 18.6 18
  281.1 15.64 15
  281.9 8.07 8
  282.0 13.29 13
  282.1 19.05 19
  282.2 20.42 20
  282.3 15.91 15
  282.6 8.63 8
  282.7 14.86 14
  282.8 18.51 18
  282.9 16.67 16
  283.0 12.19 12
  283.2 10.51 10
  283.3 12.68 12
  283.4 13.92 13
  283.5 13.27 13
  283.6 10.71 10
  283.8 6.72 6
  283.9 9.82 9
  284.0 14.61 14
  284.1 16.38 16
  284.2 12.62 12
  284.3 5.65 5
  284.5 3.09 3
  284.6 10.96 10
  284.7 18.71 18
  284.8 20.17 20
  284.9 14.37 14
  285.0 6.23 6
  285.2 5.36 5
  285.3 11.81 11
  285.4 15.67 15
  285.7 11.63 11
  285.8 15.06 15
  285.9 18.29 18
  286.0 18.33 18
  286.1 15.53 15
  286.2 11.74 11
  286.4 7.17 7
  286.5 9.39 9
  286.6 13.69 13
  286.7 15.96 15
  286.8 13.69 13
  286.9 8.96 8
  287.1 7.51 7
  287.2 11.88 11
  287.3 15.35 15
  287.4 14.63 14
  287.5 10.22 10
  287.7 7.22 7
  287.8 11.97 11
  287.9 15.91 15
  288.0 15.15 15
  288.1 10.56 10
  288.3 8.11 8
  288.4 12.86 12
  288.5 16.63 16
  288.6 16.52 16
  288.7 13.83 13
  288.9 11.68 11
  289.0 13.49 13
  289.1 15.02 15
  289.2 14.41 14
  289.3 11.56 11
  289.6 9.95 9
  289.7 12.68 12
  289.8 14.79 14
  289.9 15.49 15
  290.0 14.59 14
  290.8 8.27 8
  290.9 11.23 11
  291.0 16.25 16
  291.1 19.03 19
  291.2 16.27 16
  291.3 9.32 9
  291.5 3.68 3
  291.6 9.57 9
  291.7 16.47 16
  291.8 19.52 19
  291.9 17.23 17
  292.0 11.99 11
  292.2 7.66 7
  292.3 10.35 10
  292.4 13.04 13
  292.5 13.51 13
  292.6 11.54 11
  292.7 8.29 8
  292.9 6.34 6
  293.0 10.31 10
  293.1 14.72 14
  293.2 15.55 15
  293.5 10.42 10
  293.6 14.5 14
  293.7 17.21 17
  293.8 15.4 15
  293.9 10.29 10
  294.1 6.21 6
  294.2 9.93 9
  294.3 13.83 13
  294.4 14.93 14
  294.7 12.08 12
  294.8 14.81 14
  294.9 16.74 16
  295.0 15.19 15
  295.1 11.05 11
  295.3 7.66 7
  295.4 10.31 10
  295.5 13.63 13
  295.6 15.73 15
  295.7 15.06 15
  295.8 11.23 11
  296.0 4.91 4
  296.1 7.96 7
  296.2 13.2 13
  296.3 16.65 16
  296.4 16.67 16
  296.5 14.95 14
  296.6 14.34 14
  296.7 16.45 16
  296.8 19.92 19
  296.9 20.98 20
  297.0 16.9 16
  297.1 9.79 9
  297.3 7.04 7
  297.4 13.31 13
  297.5 18.53 18
  297.6 18.78 18
  297.7 14.77 14
  297.9 9.7 9
  298.0 13.11 13
  298.1 17.88 17
  298.2 19.16 19
  298.3 14.19 14
  298.4 5.74 5
  298.6 0.87 0
  298.7 6.84 6
  298.8 13.16 13
  298.9 16.09 16
  299.0 14.84 14
  299.9 7.49 7
  300.0 10.24 10
  300.1 12.03 12
  300.2 11.39 11
  300.5 7.26 7
  300.6 10.82 10
  300.7 14.57 14
  300.8 15.33 15
  300.9 12.51 12
  301.1 8.65 8
  301.2 12.84 12
  301.3 18.2 18
  301.4 19.79 19
  301.5 15.91 15
  301.8 9.05 9
  301.9 14.77 14
  302.0 18.49 18
  302.1 16.61 16
  302.2 10.58 10
  302.4 6.48 6
  302.5 12.21 12
  302.6 18.11 18
  302.7 19.3 19
  302.8 14.93 14
  302.9 8.67 8
  303.1 7.64 7
  303.2 12.66 12
  303.3 16.47 16
  303.4 16.94 16
  303.5 15.02 15
  303.7 12.89 12
  303.8 14.72 14
  303.9 17.19 17
  304.0 17.57 17
  304.1 14.57 14
  304.3 10.15 10
  304.4 13.92 13
  304.5 18.02 18
  304.6 17.17 17
  304.7 10.62 10
  305.0 4.62 4
  305.1 11.36 11
  305.2 16.0 15
  305.3 16.25 16
  305.4 13.33 13
  305.6 10.62 10
  305.7 14.81 14
  305.8 20.22 20
  305.9 22.01 21
  306.0 18.02 18
  306.1 11.5 11
  306.9 8.14 8
  307.0 12.28 12
  307.1 15.67 15
  307.2 15.69 15
  307.3 12.44 12
  307.5 8.58 8
  307.6 12.08 12
  307.7 16.43 16
  307.8 17.68 17
  307.9 14.52 14
  308.0 9.46 9
  308.2 7.64 7
  308.3 12.08 12
  308.4 16.76 16
  308.5 18.35 18
  308.6 15.87 15
  308.7 11.34 11
  308.9 8.45 8
  309.0 11.16 11
  309.1 13.36 13
  309.2 12.71 12
  309.5 8.61 8
  309.6 11.52 11
  309.7 13.78 13
  309.8 13.36 13
  309.9 10.65 10
  310.1 8.7 8
  310.2 12.15 12
  310.3 16.0 15
  310.4 16.97 16
  310.5 14.14 14
  311.4 5.15 5
  311.5 10.8 10
  311.6 15.42 15
  311.7 14.97 14
  311.8 10.8 10
  312.0 7.87 7
  312.1 10.89 10
  312.2 13.83 13
  312.3 14.46 14
  312.4 12.35 12
  312.6 9.37 9
  312.7 12.84 12
  312.8 17.37 17
  312.9 19.68 19
  313.0 18.62 18
  313.1 15.26 15
  313.3 11.14 11
  313.4 14.01 13
  313.5 17.82 17
  313.6 18.15 18
  313.7 13.85 13
  314.0 8.96 8
  314.1 13.67 13
  314.2 16.23 16
  314.3 14.61 14
  314.4 10.53 10
  314.6 8.83 8
  314.7 12.53 12
  314.8 15.8 15
  314.9 16.2 16
  315.0 13.69 13
  315.8 4.39 4
  315.9 8.56 8
  316.0 15.4 15
  316.1 19.25 19
  316.2 17.26 17
  316.3 11.52 11
  316.5 6.79 6
  316.6 10.44 10
  316.7 14.16 14
  316.8 14.43 14
  316.9 10.82 10
  317.1 5.42 5
  317.2 8.87 8
  317.3 14.57 14
  317.4 18.51 18
  317.5 18.29 18
  317.6 15.22 15
  318.3 7.44 7
  318.4 9.95 9
  318.5 14.28 14
  318.6 17.91 17
  318.7 18.38 18
  318.8 14.95 14
  318.9 9.88 9
  319.1 8.99 8
  319.2 13.16 13
  319.3 15.11 15
  319.4 12.39 12
  319.6 6.43 6
  319.7 11.59 11
  319.8 19.81 19
  319.9 24.25 24
  320.0 21.16 21
  320.1 13.36 13
  320.4 7.75 7
  320.5 11.99 11
  320.6 14.52 14
  320.7 13.69 13
  320.8 10.06 10
  321.0 6.63 6
  321.1 11.07 11
  321.2 16.38 16
  321.3 17.91 17
  321.4 14.52 14
  321.5 9.73 9
  321.7 9.01 9
  321.8 12.06 12
  321.9 13.6 13
  322.0 12.12 12
  322.2 9.3 9
  322.3 12.44 12
  322.4 16.32 16
  322.5 16.99 16
  322.6 13.47 13
  322.8 7.98 7
  322.9 11.39 11
  323.0 16.54 16
  323.1 19.03 19
  323.2 16.41 16
  323.3 10.42 10
  323.5 5.76 5
  323.6 10.04 10
  323.7 14.88 14
  323.8 16.83 16
  323.9 15.31 15
  324.1 11.27 11
  324.2 13.42 13
  324.3 17.28 17
  324.4 19.27 19
  324.5 17.37 17
  324.6 12.98 12
  325.4 9.91 9
  325.5 12.19 12
  325.6 14.43 14
  325.7 13.6 13
  325.8 9.05 9
  326.0 3.72 3
  326.1 8.11 8
  326.2 13.63 13
  326.3 15.87 15
  326.4 13.69 13
  326.5 9.28 9
  326.7 6.1 6
  326.8 9.77 9
  326.9 14.1 14
  327.0 15.55 15
  327.1 12.8 12
  327.4 6.66 6
  327.5 12.12 12
  327.6 16.65 16
  327.7 16.45 16
  328.0 10.98 10
  328.1 16.63 16
  328.2 21.63 21
  328.3 21.58 21
  328.4 16.67 16
  329.3 12.1 12
  329.4 14.88 14
  329.5 17.71 17
  329.6 18.22 18
  329.7 15.58 15
  329.8 11.47 11
  330.0 8.99 8
  330.1 11.56 11
  330.2 13.98 13
  330.3 13.74 13
  331.2 8.76 8
  331.3 14.25 14
  331.4 17.93 17
  331.5 17.17 17
  331.6 12.48 12
  331.9 6.93 6
  332.0 11.97 11
  332.1 16.14 16
  332.2 16.97 16
  332.3 14.86 14
  333.1 11.21 11
  333.2 13.85 13
  333.3 17.88 17
  333.4 19.39 19
  333.5 16.43 16
  333.8 10.24 10
  333.9 15.02 15
  334.0 18.47 18
  334.1 17.39 17
  334.2 12.66 12
  334.4 8.67 8
  334.5 13.2 13
  334.6 18.53 18
  334.7 20.26 20
  334.8 16.79 16
  334.9 10.6 10
  335.1 7.89 7
  335.2 13.04 13
  335.3 17.01 16
  335.4 16.41 16
  336.3 8.65 8
  336.4 12.93 12
  336.5 16.47 16
  336.6 17.1 17
  336.7 15.06 15
  337.0 11.88 11
  337.1 14.03 14
  337.2 15.6 15
  337.3 15.15 15
  337.6 11.54 11
  337.7 13.85 13
  337.8 16.25 16
  337.9 16.56 16
  338.0 14.19 14
  338.3 11.43 11
  338.4 15.4 15
  338.5 18.15 18
  338.6 17.73 17
  338.7 14.57 14
  338.8 10.71 10
  339.0 9.35 9
  339.1 11.88 11
  339.2 13.07 13
  339.5 8.92 8
  339.6 12.26 12
  339.7 15.49 15
  339.8 15.44 15
  339.9 11.9 11
  340.2 6.16 6
  340.3 12.03 12
  340.4 17.57 17
  340.5 17.95 17
  340.6 12.66 12
  341.4 7.22 7
  341.5 9.5 9
  341.6 13.98 13
  341.7 16.76 16
  341.8 14.7 14
  341.9 9.08 9
  342.1 6.05 6
  342.2 11.47 11
  342.3 16.47 16
  342.4 17.1 17
  342.5 13.49 13
  343.4 6.52 6
  343.5 12.15 12
  343.6 17.79 17
  343.7 18.51 18
  343.8 13.92 13
  344.0 8.83 8
  344.1 13.72 13
  344.2 18.94 18
  344.3 19.79 19
  344.4 16.0 15
  344.5 10.74 10
  344.7 7.04 7
  344.8 9.88 9
  344.9 13.54 13
  345.0 15.13 15
  345.3 11.83 11
  345.4 14.23 14
  345.5 15.4 15
  345.6 13.4 13
  345.7 9.55 9
  345.9 6.63 6
  346.0 9.39 9
  346.1 13.11 13
  346.2 15.02 15
  346.3 13.72 13
  346.5 8.94 8
  346.6 11.0 10
  346.7 15.82 15
  346.8 19.48 19
  346.9 18.24 18
  347.0 12.55 12
  347.2 7.4 7
  347.3 11.88 11
  347.4 15.84 15
  347.5 15.42 15
  347.6 11.52 11
  347.8 7.91 7
  347.9 11.88 11
  348.0 16.81 16
  348.1 18.71 18
  348.2 15.82 15
  348.3 10.31 10
  348.5 6.63 6
  348.6 9.91 9
  348.7 12.51 12
  348.8 11.92 11
  349.0 7.49 7
  349.1 9.48 9
  349.2 14.48 14
  349.3 18.47 18
  349.4 17.79 17
  349.5 13.07 13
  349.7 8.83 8
  349.8 13.04 13
  349.9 17.41 17
  350.0 18.02 18
  350.1 13.83 13
  350.2 7.1 7
  350.4 2.15 2
  350.5 7.69 7
  350.6 14.61 14
  350.7 17.62 17
  350.8 14.7 14
  351.1 8.07 8
  351.2 13.69 13
  351.3 18.22 18
  351.4 18.49 18
  351.5 15.02 15
  352.3 7.93 7
  352.4 12.01 11
  352.5 16.83 16
  352.6 18.71 18
  352.7 16.38 16
  352.8 11.54 11
  353.0 6.93 6
  353.1 10.24 10
  353.2 14.37 14
  353.3 14.97 14
  353.4 11.3 11
  353.6 8.63 8
  353.7 13.04 13
  353.8 15.53 15
  353.9 12.93 12
  354.2 6.5 6
  354.3 12.03 12
  354.4 16.58 16
  354.5 16.47 16
  354.6 11.74 11
  354.9 5.85 5
  355.0 12.42 12
  355.1 18.44 18
  355.2 19.52 19
  355.3 14.81 14
  355.4 8.2 8
  355.6 7.42 7
  355.7 13.16 13
  355.8 17.5 17
  355.9 16.94 16
  356.0 12.33 12
  356.2 9.08 9
  356.3 14.01 13
  356.4 18.56 18
  356.5 19.12 19
  356.6 16.09 16
  356.7 12.55 12
  357.4 8.61 8
  357.5 10.58 10
  357.6 14.19 14
  357.7 16.23 16
  357.8 14.25 14
  358.0 9.03 9
  358.1 12.75 12
  358.2 18.06 18
  358.3 19.95 19
  358.4 16.99 16
  358.5 11.72 11
  358.7 7.1 7
  358.8 9.82 9
  358.9 13.94 13
  359.0 16.2 16
  359.1 14.48 14
  359.2 10.22 10
  359.4 7.4 7
  359.5 11.47 11
  359.6 16.49 16
  359.7 18.89 18
  359.8 16.79 16
  359.9 12.3 12
  360.6 8.92 8
  360.7 12.77 12
  360.8 17.39 17
  360.9 19.48 19
  361.0 17.19 17
  361.1 11.92 11
  361.3 9.79 9
  361.4 15.31 15
  361.5 18.96 18
  361.6 16.79 16
  361.7 10.47 10
  361.9 4.89 4
  362.0 9.86 9
  362.1 16.38 16
  362.2 19.18 19
  362.3 15.82 15
  362.4 9.35 9
  362.6 6.12 6
  362.7 9.41 9
  362.8 11.99 11
  362.9 12.68 12
  363.2 10.69 10
  363.3 12.35 12
  363.4 14.79 14
  363.5 14.88 14
  363.6 10.94 10
  363.8 4.3 4
  363.9 8.38 8
  364.0 15.28 15
  364.1 19.72 19
  364.2 18.27 18
  364.3 11.95 11
  365.1 9.14 9
  365.2 12.51 12
  365.3 16.79 16
  365.4 18.02 18
  365.5 15.11 15
  365.8 9.32 9
  365.9 14.28 14
  366.0 18.36 18
  366.1 17.3 17
  366.2 11.27 11
  366.4 6.21 6
  366.5 13.65 13
  366.6 22.21 22
  366.7 24.76 24
  366.8 18.92 18
  366.9 9.03 9
  367.1 3.2 3
  367.2 9.52 9
  367.3 15.31 15
  367.4 16.14 16
  367.5 12.91 12
  367.7 11.05 11
  367.8 14.32 14
  367.9 16.74 16
  368.0 15.91 15
  368.1 11.88 11
  368.3 5.76 5
  368.4 9.23 9
  368.5 14.63 14
  368.6 17.1 17
  368.7 14.9 14
  368.8 10.85 10
  369.0 9.44 9
  369.1 11.72 11
  369.2 13.0 12
  369.3 12.15 12
  369.6 9.37 9
  369.7 11.99 11
  369.8 13.87 13
  369.9 12.68 12
  370.1 6.9 6
  370.2 9.12 9
  370.3 14.81 14
  370.4 19.59 19
  370.5 19.77 19
  370.6 15.24 15
  371.5 6.88 6
  371.6 12.51 12
  371.7 17.35 17
  371.8 18.15 18
  371.9 14.88 14
  372.2 8.09 8
  372.3 14.28 14
  372.4 19.68 19
  372.5 18.94 18
  372.6 12.3 12
  372.8 3.99 3
  372.9 8.2 8
  373.0 14.01 13
  373.1 16.52 16
  373.2 13.92 13
  373.3 8.49 8
  373.5 5.33 5
  373.6 9.88 9
  373.7 14.16 14
  373.8 14.52 14
  373.9 11.34 11
  374.1 8.43 8
  374.2 12.24 12
  374.3 16.52 16
  374.4 17.48 17
  374.7 12.37 12
  374.8 17.73 17
  374.9 22.32 22
  375.0 21.36 21
  375.1 15.11 15
  375.3 6.3 6
  375.4 10.29 10
  375.5 16.61 16
  375.6 19.45 19
  375.7 16.45 16
  375.8 10.53 10
  376.0 8.25 8
  376.1 12.12 12
  376.2 15.13 15
  376.3 14.52 14
  376.4 10.09 10
  376.6 4.33 4
  376.7 9.88 9
  376.8 17.84 17
  376.9 21.99 21
  377.0 19.88 19
  377.1 14.46 14
  377.9 6.52 6
  378.0 10.38 10
  378.1 14.57 14
  378.2 15.73 15
  378.3 13.18 13
  378.6 8.61 8
  378.7 13.02 13
  378.8 16.9 16
  378.9 16.74 16
  379.0 12.42 12
  379.2 7.26 7
  379.3 11.3 11
  379.4 16.27 16
  379.5 17.84 17
  379.6 14.95 14
  380.5 5.69 5
  380.6 11.59 11
  380.7 16.81 16
  380.8 16.81 16
  380.9 12.12 12
  381.1 6.95 6
  381.2 10.89 10
  381.3 15.55 15
  381.4 16.29 16
  381.5 12.28 12
  381.7 6.19 6
  381.8 9.41 9
  381.9 14.12 14
  382.0 16.52 16
  382.1 14.99 14
  382.4 9.61 9
  382.5 15.42 15
  382.6 21.02 20
  382.7 21.72 21
  382.8 16.85 16
  382.9 10.2 10
  383.1 7.13 7
  383.2 11.25 11
  383.3 14.95 14
  383.4 15.46 15
  383.7 12.28 12
  383.8 15.73 15
  383.9 17.91 17
  384.0 15.73 15
  384.1 10.38 10
  384.3 6.93 6
  384.4 11.09 11
  384.5 15.58 15
  384.6 17.35 17
  384.7 15.51 15
  385.6 6.45 6
  385.7 11.41 11
  385.8 16.54 16
  385.9 17.19 17
  386.0 13.6 13
  386.2 10.58 10
  386.3 14.7 14
  386.4 18.65 18
  386.5 18.58 18
  386.6 13.83 13
  386.7 7.31 7
  386.9 4.17 4
  387.0 9.26 9
  387.1 14.86 14
  387.2 17.14 17
  387.3 14.88 14
  388.1 8.4 8
  388.2 11.81 11
  388.3 15.82 15
  388.4 16.72 16
  388.5 13.85 13
  388.7 8.94 8
  388.8 11.86 11
  388.9 16.65 16
  389.0 19.41 19
  389.1 17.79 17
  389.2 12.75 12
  389.4 6.7 6
  389.5 10.09 10
  389.6 15.76 15
  389.7 19.83 19
  389.8 19.99 19
  389.9 16.83 16
  390.6 9.32 9
  390.7 11.81 11
  390.8 16.65 16
  390.9 20.26 20
  391.0 20.01 19
  391.1 16.47 16
  391.2 12.42 12
  392.0 6.14 6
  392.1 9.44 9
  392.2 13.36 13
  392.3 15.13 15
  392.4 13.74 13
  392.6 10.47 10
  392.7 12.68 12
  392.8 15.84 15
  392.9 16.7 16
  393.0 14.3 14
  393.1 10.65 10
  393.8 7.08 7
  393.9 9.48 9
  394.0 13.98 13
  394.1 18.53 18
  394.2 20.06 20
  394.3 16.67 16
  395.2 6.84 6
  395.3 11.72 11
  395.4 17.06 17
  395.5 19.27 19
  395.6 17.37 17
  395.7 12.93 12
  396.5 7.64 7
  396.6 11.56 11
  396.7 16.16 16
  396.8 16.49 16
  396.9 11.23 11
  397.1 4.8 4
  397.2 10.65 10
  397.3 17.44 17
  397.4 19.83 19
  397.5 17.41 17
  397.6 13.69 13
  398.4 8.85 8
  398.5 11.77 11
  398.6 15.53 15
  398.7 17.03 17
  398.8 14.41 14
  400.3 5.8 5
  400.4 13.04 13
  400.5 22.08 22
  400.6 25.3 25
  400.7 19.21 19
  400.9 5.27 5
  401.0 11.52 11
  401.1 21.76 21
  401.2 26.45 26
  401.3 22.12 22
  401.4 13.11 13
  401.6 6.95 6
  401.7 12.86 12
  401.8 18.15 18
  401.9 17.68 17
  402.0 12.35 12
  402.2 7.46 7
  402.3 12.48 12
  402.4 18.15 18
  402.5 19.21 19
  402.6 14.7 14
  402.7 8.63 8
  402.9 6.95 6
  403.0 10.29 10
  403.1 13.16 13
  403.2 13.96 13
  403.3 12.64 12
  403.5 10.06 10
  403.6 11.88 11
  403.7 14.68 14
  403.8 15.37 15
  403.9 12.37 12
  404.1 6.19 6
  404.2 9.68 9
  404.3 15.78 15
  404.4 19.39 19
  404.5 17.64 17
  404.6 12.03 12
  404.8 6.34 6
  404.9 10.44 10
  405.0 15.69 15
  405.1 17.39 17
  405.2 13.92 13
  405.3 8.16 8
  405.5 6.88 6
  405.6 11.79 11
  405.7 15.17 15
  405.8 14.14 14
  406.0 8.43 8
  406.1 11.03 11
  406.2 16.2 16
  406.3 19.57 19
  406.4 18.65 18
  406.5 15.15 15
  406.7 13.07 13
  406.8 16.58 16
  406.9 20.87 20
  407.0 21.99 21
  407.1 17.55 17
  407.2 9.77 9
  407.4 5.83 5
  407.5 10.78 10
  407.6 14.05 14
  407.7 12.95 12
  408.0 8.72 8
  408.1 13.22 13
  408.2 17.46 17
  408.3 17.95 17
  408.4 13.92 13
  408.7 7.91 7
  408.8 12.51 12
  408.9 14.81 14
  409.0 12.77 12
  409.3 9.17 9
  409.4 14.12 14
  409.5 18.31 18
  409.6 18.31 18
  409.7 13.83 13
  409.9 8.58 8
  410.0 13.0 12
  410.1 17.19 17
  410.2 16.41 16
  410.3 11.21 11
  410.5 5.24 5
  410.6 8.81 8
  410.7 13.94 13
  410.8 16.76 16
  410.9 15.13 15
  411.0 10.74 10
  411.2 9.46 9
  411.3 13.38 13
  411.4 15.67 15
  411.5 14.41 14
  411.6 10.87 10
  411.8 7.8 7
  411.9 10.98 10
  412.0 15.4 15
  412.1 17.77 17
  412.2 15.84 15
  412.3 10.62 10
  412.5 6.81 6
  412.6 12.15 12
  412.7 17.19 17
  412.8 17.06 17
  412.9 12.06 12
  413.1 7.04 7
  413.2 11.45 11
  413.3 17.03 17
  413.4 19.72 19
  413.5 17.97 17
  413.6 13.76 13
  414.4 6.41 6
  414.5 9.91 9
  414.6 14.81 14
  414.7 16.97 16
  414.8 14.39 14
  414.9 9.75 9
  415.1 8.56 8
  415.2 11.27 11
  415.3 12.37 12
  415.6 8.14 8
  415.7 11.77 11
  415.8 15.71 15
  415.9 16.45 16
  416.0 13.45 13
  416.3 7.44 7
  416.4 12.24 12
  416.5 17.26 17
  416.6 18.67 18
  416.7 15.42 15
  416.8 10.13 10
  417.0 8.29 8
  417.1 13.38 13
  417.2 17.97 17
  417.3 18.53 18
  417.4 15.19 15
  418.3 9.79 9
  418.4 13.98 13
  418.5 17.57 17
  418.6 16.43 16
  418.7 11.03 11
  418.9 6.25 6
  419.0 10.47 10
  419.1 14.59 14
  419.2 15.33 15
  419.3 12.71 12
  419.4 9.23 9
  419.6 8.25 8
  419.7 10.56 10
  419.8 12.26 12
  419.9 11.77 11
  420.1 8.81 8
  420.2 11.05 11
  420.3 15.15 15
  420.4 17.64 17
  420.5 16.58 16
  420.6 13.16 13
  420.8 10.58 10
  420.9 13.27 13
  421.0 15.62 15
  421.1 14.95 14
  421.2 11.56 11
  421.4 9.41 9
  421.5 13.47 13
  421.6 17.44 17
  421.7 18.06 18
  421.8 15.13 15
  421.9 11.05 11
  422.1 9.48 9
  422.2 13.58 13
  422.3 18.04 18
  422.4 18.74 18
  422.5 14.28 14
  422.8 8.49 8
  422.9 14.12 14
  423.0 17.5 17
  423.1 16.09 16
  423.2 11.52 11
  423.4 9.28 9
  423.5 14.21 14
  423.6 18.76 18
  423.7 18.44 18
  423.8 12.95 12
  424.6 6.1 6
  424.7 10.02 10
  424.8 14.34 14
  424.9 16.34 16
  425.0 15.31 15
  425.1 12.86 12
  426.5 7.31 7
  426.6 11.43 11
  426.7 17.86 17
  426.8 21.29 21
  426.9 18.38 18
  427.0 11.03 11
  427.2 5.04 5
  427.3 10.42 10
  427.4 15.96 15
  427.5 16.9 16
  427.6 13.22 13
  427.9 10.02 10
  428.0 12.68 12
  428.1 14.21 14
  428.2 14.14 14
  429.1 10.15 10
  429.2 12.51 12
  429.3 14.7 14
  429.4 14.9 14
  429.7 10.35 10
  429.8 14.05 14
  429.9 18.15 18
  430.0 19.45 19
  430.1 17.01 16
  430.2 12.19 12
  430.4 6.81 6
  430.5 10.02 10
  430.6 14.7 14
  430.7 16.72 16
  430.8 14.34 14
  431.1 9.84 9
  431.2 13.63 13
  431.3 15.96 15
  431.4 14.66 14
  431.5 10.49 10
  431.7 6.57 6
  431.8 11.07 11
  431.9 16.67 16
  432.0 18.42 18
  432.1 14.97 14
  432.9 4.98 4
  433.0 9.01 9
  433.1 15.58 15
  433.2 19.25 19
  433.3 16.67 16
  433.4 9.79 9
  433.6 3.97 3
  433.7 8.72 8
  433.8 14.61 14
  433.9 18.38 18
  434.0 18.53 18
  434.1 15.58 15
  434.3 11.14 11
  434.4 14.21 14
  434.5 18.04 18
  434.6 17.91 17
  434.7 13.02 13
  435.5 3.03 3
  435.6 6.57 6
  435.7 12.37 12
  435.8 15.91 15
  435.9 14.59 14
  436.0 9.97 9
  436.2 6.81 6
  436.3 10.38 10
  436.4 13.74 13
  436.5 14.07 14
  436.6 11.14 11
  436.8 7.91 7
  436.9 13.11 13
  437.0 19.54 19
  437.1 20.8 20
  437.2 14.97 14
  437.4 5.63 5
  437.5 10.56 10
  437.6 16.58 16
  437.7 17.46 17
  437.8 12.3 12
  438.1 5.63 5
  438.2 11.7 11
  438.3 16.76 16
  438.4 17.77 17
  438.5 14.88 14
  439.4 5.67 5
  439.5 12.01 11
  439.6 17.64 17
  439.7 18.49 18
  439.8 14.68 14
  440.7 8.81 8
  440.8 13.87 13
  440.9 16.97 16
  441.0 15.4 15
  441.1 10.69 10
  441.3 8.56 8
  441.4 12.89 12
  441.5 16.18 16
  441.6 15.51 15
  441.7 12.06 12
  441.9 9.64 9
  442.0 12.37 12
  442.1 15.08 15
  442.2 15.15 15
  442.3 11.79 11
  442.6 7.49 7
  442.7 13.51 13
  442.8 18.51 18
  442.9 18.4 18
  443.0 12.86 12
  443.2 4.28 4
  443.3 8.76 8
  443.4 16.0 15
  443.5 20.13 20
  443.6 18.31 18
  444.5 10.44 10
  444.6 14.16 14
  444.7 17.91 17
  444.8 18.13 18
  444.9 14.1 14
  445.1 8.81 8
  445.2 12.19 12
  445.3 16.14 16
  445.4 16.81 16
  445.5 13.49 13
  445.7 7.44 7
  445.8 10.91 10
  445.9 16.88 16
  446.0 20.15 20
  446.1 17.55 17
  446.2 11.14 11
  446.4 7.73 7
  446.5 12.84 12
  446.6 16.23 16
  446.7 13.78 13
  446.8 7.24 7
  447.0 5.11 5
  447.1 12.71 12
  447.2 18.98 18
  447.3 18.49 18
  447.4 12.21 12
  447.6 6.36 6
  447.7 12.06 12
  447.8 18.98 18
  447.9 22.59 22
  448.0 20.98 20
  448.1 15.44 15
  448.2 9.48 9
  448.4 8.85 8
  448.5 13.11 13
  448.6 15.58 15
  448.7 14.1 14
  449.0 9.95 9
  449.1 13.74 13
  449.2 16.32 16
  449.3 15.26 15
  449.4 11.14 11
  449.6 6.48 6
  449.7 9.5 9
  449.8 13.29 13
  449.9 14.07 14
  450.0 10.87 10
  450.3 7.06 7
  450.4 11.77 11
  450.5 15.87 15
  450.6 16.83 16
  450.7 14.01 13
  450.8 9.48 9
  451.0 7.78 7
  451.1 11.52 11
  451.2 14.1 14
  451.3 13.07 13
  451.6 9.14 9
  451.7 13.33 13
  451.8 16.94 16
  451.9 17.03 17
  452.0 13.58 13
  452.2 9.44 9
  452.3 12.55 12
  452.4 15.82 15
  452.5 15.91 15
  452.6 12.57 12
  452.8 8.49 8
  452.9 12.71 12
  453.0 18.6 18
  453.1 21.38 21
  453.2 18.67 18
  453.3 12.64 12
  454.1 7.1 7
  454.2 12.57 12
  454.3 16.47 16
  454.4 15.51 15
  454.5 11.16 11
  454.7 8.09 8
  454.8 12.21 12
  454.9 16.76 16
  455.0 17.75 17
  455.1 13.78 13
  455.4 8.2 8
  455.5 13.67 13
  455.6 17.12 17
  455.7 15.93 15
  455.8 11.45 11
  456.0 7.75 7
  456.1 11.21 11
  456.2 14.55 14
  456.3 14.32 14
  456.4 10.33 10
  456.6 5.56 5
  456.7 10.22 10
  456.8 16.88 16
  456.9 20.15 20
  457.0 17.19 17
  457.9 5.27 5
  458.0 11.39 11
  458.1 17.32 17
  458.2 18.4 18
  458.3 13.85 13
  458.6 8.27 8
  458.7 14.34 14
  458.8 18.62 18
  458.9 18.85 18
  459.0 15.93 15
  459.1 12.48 12
  459.3 10.89 10
  459.4 12.64 12
  459.5 13.98 13
  459.6 13.04 13
  459.8 9.3 9
  459.9 12.03 12
  460.0 16.16 16
  460.1 17.17 17
  460.2 14.1 14
  460.5 10.53 10
  460.6 14.48 14
  460.7 17.14 17
  460.8 15.64 15
  460.9 10.35 10
  461.1 5.63 5
  461.2 10.89 10
  461.3 17.17 17
  461.4 19.97 19
  461.5 18.13 18
  461.6 13.9 13
  461.8 10.47 10
  461.9 13.29 13
  462.0 16.52 16
  462.1 17.41 17
  462.2 15.44 15
  463.0 3.14 3
  463.1 8.81 8
  463.2 16.32 16
  463.3 19.81 19
  463.4 16.76 16
  463.5 10.13 10
  463.7 6.88 6
  463.8 12.12 12
  463.9 16.56 16
  464.0 16.99 16
  464.1 14.25 14
  464.3 11.56 11
  464.4 13.58 13
  464.5 15.71 15
  464.6 15.87 15
  464.7 13.45 13
  465.0 8.81 8
  465.1 13.02 13
  465.2 16.2 16
  465.3 14.95 14
  465.4 10.02 10
  465.6 5.8 5
  465.7 10.58 10
  465.8 16.43 16
  465.9 18.49 18
  466.0 14.66 14
  466.2 6.05 6
  466.3 10.13 10
  466.4 16.65 16
  466.5 19.43 19
  466.6 16.29 16
  466.7 10.4 10
  466.9 6.81 6
  467.0 10.85 10
  467.1 15.4 15
  467.2 17.39 17
  467.3 15.98 15
  467.4 13.07 13
  468.0 12.03 12
  468.1 12.73 12
  468.2 14.72 14
  468.3 17.06 17
  468.4 17.68 17
  468.5 14.88 14
  468.6 9.14 9
  468.8 4.91 4
  468.9 11.14 11
  469.0 18.53 18
  469.1 21.6 21
  469.2 18.44 18
  469.3 12.26 12
  469.5 9.41 9
  469.6 14.21 14
  469.7 17.95 17
  469.8 16.83 16
  469.9 11.61 11
  470.1 7.53 7
  470.2 12.86 12
  470.3 17.66 17
  470.4 17.35 17
  470.5 12.37 12
  470.7 6.43 6
  470.8 10.24 10
  470.9 15.8 15
  471.0 18.85 18
  471.1 16.99 16
  471.2 11.83 11
  471.4 9.93 9
  471.5 15.04 15
  471.6 18.18 18
  471.7 15.62 15
  472.6 3.25 3
  472.7 7.01 7
  472.8 12.39 12
  472.9 15.58 15
  473.0 14.5 14
  473.3 10.74 10
  473.4 15.06 15
  473.5 17.5 17
  473.6 15.58 15
  473.7 10.74 10
  473.9 6.9 6
  474.0 10.69 10
  474.1 15.17 15
  474.2 16.56 16
  474.3 13.16 13
  474.6 6.61 6
  474.7 13.0 12
  474.8 17.77 17
  474.9 17.84 17
  475.0 14.46 14
  475.2 10.47 10
  475.3 12.68 12
  475.4 15.96 15
  475.5 17.57 17
  475.6 16.36 16
  476.5 8.05 8
  476.6 11.56 11
  476.7 15.17 15
  476.8 14.99 14
  476.9 10.8 10
  477.1 6.86 6
  477.2 12.15 12
  477.3 17.59 17
  477.4 17.64 17
  477.5 11.63 11
  477.7 3.18 3
  477.8 8.34 8
  477.9 16.05 16
  478.0 20.39 20
  478.1 18.58 18
  478.2 12.73 12
  478.5 8.9 8
  478.6 13.49 13
  478.7 16.79 16
  478.8 16.99 16
  479.7 3.45 3
  479.8 11.47 11
  479.9 18.69 18
  480.0 19.45 19
  480.1 13.65 13
  480.3 5.65 5
  480.4 10.71 10
  480.5 17.19 17
  480.6 19.39 19
  480.7 16.11 16
  481.0 10.33 10
  481.1 14.5 14
  481.2 17.12 17
  481.3 16.11 16
  481.4 12.19 12
  481.6 7.37 7
  481.7 10.96 10
  481.8 16.0 15
  481.9 17.59 17
  482.0 14.05 14
  482.3 8.94 8
  482.4 13.22 13
  482.5 15.17 15
  482.6 13.72 13
  482.9 11.79 11
  483.0 13.98 13
  483.1 15.62 15
  483.2 16.18 16
  483.3 15.51 15
  484.8 7.58 7
  484.9 10.06 10
  485.0 14.3 14
  485.1 16.88 16
  485.2 14.72 14
  485.5 9.12 9
  485.6 13.81 13
  485.7 16.65 16
  485.8 15.49 15
  485.9 11.63 11
  486.1 8.23 8
  486.2 10.98 10
  486.3 14.01 13
  486.4 14.48 14
  486.5 11.79 11
  486.7 8.16 8
  486.8 11.3 11
  486.9 14.99 14
  487.0 15.84 15
  487.1 13.54 13
  487.2 10.49 10
  487.4 9.59 9
  487.5 11.72 11
  487.6 13.54 13
  487.7 13.51 13
  487.8 11.77 11
  488.0 10.04 10
  488.1 11.9 11
  488.2 14.55 14
  488.3 16.18 16
  488.4 15.08 15
  488.5 11.18 11
  488.7 6.95 6
  488.8 11.27 11
  488.9 15.84 15
  489.0 15.96 15
  489.1 11.74 11
  489.3 7.73 7
  489.4 12.03 12
  489.5 16.54 16
  489.6 16.45 16
  489.7 10.78 10
  489.9 3.09 3
  490.0 7.82 7
  490.1 13.69 13
  490.2 15.91 15
  490.3 13.98 13
  490.6 9.46 9
  490.7 13.63 13
  490.8 17.14 17
  490.9 15.84 15
  491.0 9.75 9
  491.2 4.21 4
  491.3 9.64 9
  491.4 15.24 15
  491.5 16.72 16
  491.6 14.37 14
  491.8 11.27 11
  491.9 13.87 13
  492.0 16.56 16
  492.1 15.91 15
  492.2 11.65 11
  492.4 6.9 6
  492.5 9.88 9
  492.6 13.56 13
  492.7 15.51 15
  492.8 14.9 14
  492.9 12.08 12
  493.1 7.28 7
  493.2 10.78 10
  493.3 17.3 17
  493.4 21.18 21
  493.5 18.58 18
  493.6 11.81 11
  493.8 6.72 6
  493.9 9.84 9
  494.0 12.51 12
  494.1 12.98 12
  494.4 10.22 10
  494.5 12.71 12
  494.6 16.61 16
  494.7 18.94 18
  494.8 17.55 17
  494.9 13.13 13
  495.0 8.58 8
  495.2 7.4 7
  495.3 9.32 9
  495.4 10.26 10
  495.5 10.29 10
  495.6 10.58 10
  495.7 11.61 11
  495.8 12.8 12
  495.9 13.76 13
  496.0 14.12 14
  496.1 13.09 13
  496.2 10.38 10
  496.4 8.07 8
  496.5 10.42 10
  496.6 12.12 12
  496.7 11.18 11
  497.6 6.45 6
  497.7 10.74 10
  497.8 14.7 14
  497.9 15.87 15
  498.0 13.42 13
  498.3 9.14 9
  498.4 13.36 13
  498.5 15.87 15
  498.6 14.68 14
  498.9 11.61 11
  499.0 16.25 16
  499.1 20.66 20
  499.2 21.36 21
  499.3 17.17 17
  499.4 10.94 10
  499.6 8.38 8
  499.7 12.46 12
  499.8 15.64 15
  499.9 15.31 15
  500.0 12.3 12
  500.2 10.22 10
  500.3 12.64 12
  500.4 14.34 14
  500.5 13.54 13
  500.6 10.69 10
  500.8 8.02 8
  500.9 11.7 11
  501.0 16.7 16
  501.1 18.56 18
  501.2 15.08 15
  501.3 8.99 8
  501.5 6.16 6
  501.6 9.88 9
  501.7 13.6 13
  501.8 15.76 15
  501.9 15.67 15
  502.0 13.42 13
  502.7 8.94 8
  502.8 13.83 13
  502.9 18.35 18
  503.0 18.69 18
  503.1 14.61 14
  503.4 10.22 10
  503.5 16.11 16
  503.6 20.44 20
  503.7 19.65 19
  503.8 14.1 14
  503.9 7.62 7
  504.1 7.08 7
  504.2 12.12 12
  504.3 15.58 15
  504.4 15.13 15
  505.3 3.61 3
  505.4 10.44 10
  505.5 16.99 16
  505.6 18.42 18
  505.7 14.93 14
  505.9 11.03 11
  506.0 14.66 14
  506.1 18.11 18
  506.2 17.32 17
  506.3 11.63 11
  506.5 3.23 3
  506.6 7.98 7
  506.7 16.07 16
  506.8 21.13 21
  506.9 19.45 19
  507.0 13.11 13
  507.2 7.1 7
  507.3 10.56 10
  507.4 14.55 14
  507.5 16.07 16
  507.6 14.3 14
  507.7 10.71 10
  507.9 8.67 8
  508.0 11.45 11
  508.1 13.56 13
  508.2 12.66 12
  508.4 8.4 8
  508.5 11.12 11
  508.6 15.8 15
  508.7 18.13 18
  508.8 15.96 15
  508.9 10.91 10
  509.7 9.28 9
  509.8 11.77 11
  509.9 15.58 15
  510.0 18.31 18
  510.1 18.33 18
  510.2 15.8 15
  510.3 12.48 12
  511.0 7.44 7
  511.1 10.44 10
  511.2 14.66 14
  511.3 16.14 16
  511.4 12.55 12
  511.7 5.38 5
  511.8 11.63 11
  511.9 16.18 16
  512.0 15.76 15
  512.3 10.71 10
  512.4 14.68 14
  512.5 17.66 17
  512.6 16.9 16
  512.7 12.48 12
  513.0 6.54 6
  513.1 10.96 10
  513.2 13.9 13
  513.3 12.57 12
  513.4 8.27 8
  513.6 6.48 6
  513.7 10.71 10
  513.8 14.21 14
  513.9 13.74 13
  514.0 9.86 9
  514.2 7.37 7
  514.3 12.62 12
  514.4 18.78 18
  514.5 21.52 21
  514.6 18.65 18
  514.7 12.15 12
  514.9 7.33 7
  515.0 11.79 11
  515.1 15.24 15
  515.2 13.94 13
  515.5 9.12 9
  515.6 14.05 14
  515.7 17.03 17
  515.8 15.58 15
  515.9 10.8 10
  516.1 5.27 5
  516.2 9.28 9
  516.3 15.58 15
  516.4 19.63 19
  516.5 19.07 19
  516.6 15.22 15
  516.8 10.02 10
  516.9 12.6 12
  517.0 16.74 16
  517.1 18.29 18
  517.2 15.4 15
  517.3 10.85 10
  518.0 11.03 11
  518.1 13.81 13
  518.2 16.02 16
  518.3 15.35 15
  518.4 12.03 12
  518.5 8.43 8
  518.7 6.72 6
  518.8 8.43 8
  518.9 10.85 10
  519.0 12.75 12
  519.1 12.44 12
  519.4 9.08 9
  519.5 13.81 13
  519.6 17.3 17
  519.7 15.51 15
  519.8 9.88 9
  520.0 8.23 8
  520.1 13.25 13
  520.2 16.49 16
  520.3 15.73 15
  520.4 12.33 12
  520.6 8.38 8
  520.7 11.16 11
  520.8 15.31 15
  520.9 17.12 17
  521.0 14.52 14
  521.3 7.98 7
  521.4 13.69 13
  521.5 18.87 18
  521.6 19.09 19
  521.7 13.78 13
  522.0 7.42 7
  522.1 13.25 13
  522.2 16.79 16
  522.3 15.91 15
  523.2 11.0 10
  523.3 13.49 13
  523.4 14.57 14
  523.5 12.53 12
  523.6 8.43 8
  523.8 5.87 5
  523.9 11.0 10
  524.0 17.28 17
  524.1 19.77 19
  524.2 16.47 16
  524.3 10.38 10
  524.5 7.78 7
  524.6 11.61 11
  524.7 13.85 13
  524.8 12.66 12
  525.1 8.99 8
  525.2 11.25 11
  525.3 13.07 13
  525.4 12.93 12
  525.5 11.03 11
  525.7 8.83 8
  525.8 10.87 10
  525.9 14.07 14
  526.0 16.41 16
  526.1 16.11 16
  526.4 11.21 11
  526.5 15.58 15
  526.6 19.99 19
  526.7 20.39 20
  526.8 16.56 16
  526.9 12.28 12
  527.5 8.72 8
  527.6 11.34 11
  527.7 17.01 16
  527.8 22.46 22
  527.9 23.53 23
  528.0 18.94 18
  528.1 11.7 11
  528.3 7.22 7
  528.4 10.87 10
  528.5 14.21 14
  528.6 14.61 14
  528.7 11.72 11
  529.0 7.24 7
  529.1 12.19 12
  529.2 15.89 15
  529.3 15.17 15
  529.4 10.44 10
  529.6 3.88 3
  529.7 7.22 7
  529.8 13.09 13
  529.9 17.1 17
  530.0 16.65 16
  530.3 12.17 12
  530.4 16.67 16
  530.5 19.9 19
  530.6 18.22 18
  530.7 12.53 12
  530.9 8.52 8
  531.0 14.07 14
  531.1 18.96 18
  531.2 18.13 18
  531.3 12.33 12
  531.5 7.73 7
  531.6 12.75 12
  531.7 17.37 17
  531.8 17.46 17
  531.9 12.95 12
  532.2 8.29 8
  532.3 13.36 13
  532.4 17.23 17
  532.5 17.08 17
  532.6 13.02 13
  532.8 7.98 7
  532.9 12.51 12
  533.0 18.24 18
  533.1 20.48 20
  533.2 17.95 17
  533.3 13.56 13
  534.1 6.21 6
  534.2 11.39 11
  534.3 15.51 15
  534.4 15.26 15
  534.5 10.67 10
  534.7 6.05 6
  534.8 11.59 11
  534.9 17.93 17
  535.0 19.77 19
  535.1 15.8 15
  535.2 9.21 9
  535.4 5.27 5
  535.5 9.91 9
  535.6 14.57 14
  535.7 15.15 15
  535.8 11.12 11
  536.0 5.02 5
  536.1 9.44 9
  536.2 16.2 16
  536.3 19.54 19
  536.4 16.65 16
  536.5 10.56 10
  536.7 9.82 9
  536.8 14.86 14
  536.9 17.32 17
  537.0 14.99 14
  537.1 10.04 10
  537.3 8.25 8
  537.4 13.45 13
  537.5 18.11 18
  537.6 18.38 18
  537.7 14.34 14
  537.9 9.01 9
  538.0 12.33 12
  538.1 16.58 16
  538.2 18.0 17
  538.3 15.53 15
  539.2 4.21 4
  539.3 8.43 8
  539.4 13.6 13
  539.5 16.29 16
  539.6 15.26 15
  540.5 7.04 7
  540.6 11.81 11
  540.7 17.17 17
  540.8 18.67 18
  540.9 14.95 14
  541.8 6.16 6
  541.9 10.49 10
  542.0 14.07 14
  542.1 13.81 13
  542.2 9.88 9
  542.4 6.9 6
  542.5 12.48 12
  542.6 17.84 17
  542.7 17.41 17
  542.8 10.98 10
  543.0 3.18 3
  543.1 7.19 7
  543.2 11.9 11
  543.3 13.85 13
  543.4 12.86 12
  543.7 10.98 10
  543.8 12.86 12
  543.9 14.77 14
  544.0 15.6 15
  544.1 14.25 14
  544.4 8.58 8
  544.5 14.07 14
  544.6 18.8 18
  544.7 17.95 17
  544.8 12.95 12
  545.0 10.85 10
  545.1 15.13 15
  545.2 18.38 18
  545.3 18.29 18
  545.4 15.33 15
  546.3 7.62 7
  546.4 10.96 10
  546.5 14.77 14
  546.6 15.62 15
  546.9 11.68 11
  547.0 16.67 16
  547.1 21.09 21
  547.2 20.62 20
  547.3 15.04 15
  547.6 8.54 8
  547.7 13.98 13
  547.8 17.14 17
  547.9 15.6 15
  548.1 10.0 9
  548.2 13.0 12
  548.3 18.53 18
  548.4 22.19 22
  548.5 21.63 21
  548.6 18.2 18
  548.7 14.55 14
  548.8 11.83 11
  548.9 9.84 9
  549.0 8.23 8
  549.1 6.61 6
  549.4 3.18 3
  549.5 7.49 7
  549.6 13.33 13
  549.7 16.76 16
  549.8 15.62 15
  549.9 11.3 11
  550.1 8.61 8
  550.2 13.02 13
  550.3 17.55 17
  550.4 18.4 18
  550.5 14.77 14
  550.6 9.14 9
  550.8 7.37 7
  550.9 12.37 12
  551.0 15.93 15
  551.1 14.52 14
  551.2 9.66 9
  551.4 8.14 8
  551.5 12.8 12
  551.6 15.98 15
  551.7 15.08 15
  551.8 11.07 11
  552.0 5.8 5
  552.1 8.38 8
  552.2 13.0 12
  552.3 15.76 15
  552.4 14.16 14
  552.7 9.84 9
  552.8 14.59 14
  552.9 17.62 17
  553.0 16.09 16
  553.1 11.39 11
  553.3 8.61 8
  553.4 12.95 12
  553.5 17.14 17
  553.6 18.42 18
  553.7 16.67 16
  553.8 13.63 13
  554.0 12.01 11
  554.1 13.94 13
  554.2 15.08 15
  554.3 14.05 14
  554.4 11.45 11
  554.6 9.7 9
  554.7 12.77 12
  554.8 15.69 15
  554.9 15.17 15
  555.0 11.14 11
  555.2 7.98 7
  555.3 13.38 13
  555.4 19.63 19
  555.5 21.74 21
  555.6 18.49 18
  555.7 13.58 13
  556.4 8.54 8
  556.5 11.09 11
  556.6 15.87 15
  556.7 19.95 19
  556.8 19.97 19
  556.9 15.26 15
  557.0 9.12 9
  557.2 7.73 7
  557.3 11.86 11
  557.4 14.03 14
  557.5 11.9 11
  557.7 5.47 5
  557.8 8.63 8
  557.9 14.34 14
  558.0 17.26 17
  558.1 14.88 14
  558.4 10.98 10
  558.5 15.82 15
  558.6 19.45 19
  558.7 19.12 19
  558.8 14.23 14
  558.9 7.75 7
  559.1 6.7 6
  559.2 11.39 11
  559.3 13.78 13
  559.4 11.86 11
  559.6 7.22 7
  559.7 10.69 10
  559.8 16.38 16
  559.9 20.08 20
  560.0 18.85 18
  560.1 13.18 13
  560.4 7.28 7
  560.5 13.18 13
  560.6 16.85 16
  560.7 15.26 15
  561.0 10.06 10
  561.1 14.46 14
  561.2 16.97 16
  561.3 15.98 15
  561.4 13.31 13
  561.6 12.21 12
  561.7 14.23 14
  561.8 15.49 15
  561.9 13.98 13
  562.0 10.26 10
  562.2 7.31 7
  562.3 10.49 10
  562.4 14.68 14
  562.5 16.94 16
  562.6 15.26 15
  562.9 9.44 9
  563.0 14.39 14
  563.1 18.58 18
  563.2 18.18 18
  563.3 13.22 13
  563.5 6.88 6
  563.6 10.4 10
  563.7 14.48 14
  563.8 14.95 14
  563.9 11.52 11
  564.1 8.2 8
  564.2 12.37 12
  564.3 17.01 16
  564.4 18.6 18
  564.5 16.2 16
  564.8 11.21 11
  564.9 15.51 15
  565.0 18.4 18
  565.1 16.65 16
  565.2 10.69 10
  565.4 4.62 4
  565.5 9.97 9
  565.6 16.74 16
  565.7 19.86 19
  565.8 17.77 17
  565.9 12.71 12
  566.1 8.81 8
  566.2 12.75 12
  566.3 16.61 16
  566.4 16.63 16
  566.5 12.73 12
  567.3 6.03 6
  567.4 8.38 8
  567.5 13.65 13
  567.6 18.2 18
  567.7 18.22 18
  567.8 13.02 13
  568.6 11.0 10
  568.7 15.02 15
  568.8 17.97 17
  568.9 16.63 16
  569.0 11.92 11
  569.3 8.83 8
  569.4 12.3 12
  569.5 14.81 14
  569.6 15.6 15
  569.7 15.02 15
  569.8 13.72 13
  570.6 6.41 6
  570.7 10.42 10
  570.8 14.25 14
  570.9 14.3 14
  571.0 10.94 10
  571.2 8.7 8
  571.3 12.89 12
  571.4 17.48 17
  571.5 18.87 18
  571.6 15.69 15
  571.9 9.44 9
  572.0 14.43 14
  572.1 17.73 17
  572.2 17.1 17
  572.3 13.74 13
  572.5 9.19 9
  572.6 11.92 11
  572.7 16.58 16
  572.8 18.15 18
  572.9 13.94 13
  573.2 6.81 6
  573.3 12.19 12
  573.4 15.22 15
  573.5 13.87 13
  573.6 10.29 10
  573.8 8.07 8
  573.9 10.49 10
  574.0 13.4 13
  574.1 14.66 14
  574.2 13.18 13
  575.0 5.18 5
  575.1 8.23 8
  575.2 12.93 12
  575.3 15.58 15
  575.4 14.63 14
  575.5 11.36 11
  575.7 8.99 8
  575.8 12.6 12
  575.9 16.27 16
  576.0 16.29 16
  576.1 11.92 11
  576.3 5.18 5
  576.4 9.35 9
  576.5 16.25 16
  576.6 20.69 20
  576.7 19.81 19
  576.8 15.24 15
  576.9 10.94 10
  577.6 8.38 8
  577.7 12.44 12
  577.8 17.48 17
  577.9 18.89 18
  578.0 15.26 15
  578.3 9.1 9
  578.4 13.85 13
  578.5 16.97 16
  578.6 16.07 16
  578.7 12.19 12
  578.9 8.27 8
  579.0 11.12 11
  579.1 14.43 14
  579.2 14.52 14
  579.3 10.76 10
  579.5 7.26 7
  579.6 12.77 12
  579.7 19.18 19
  579.8 21.47 21
  579.9 18.0 17
  580.0 11.88 11
  580.2 9.59 9
  580.3 13.6 13
  580.4 16.14 16
  580.5 14.88 14
  580.6 10.53 10
  580.8 5.33 5
  580.9 9.55 9
  581.0 15.71 15
  581.1 18.62 18
  581.2 16.07 16
  581.5 10.11 10
  581.6 14.5 14
  581.7 17.1 17
  581.8 15.44 15
  581.9 11.07 11
  582.1 8.52 8
  582.2 12.39 12
  582.3 16.41 16
  582.4 17.28 17
  582.5 14.37 14
  582.7 10.4 10
  582.8 13.69 13
  582.9 16.99 16
  583.0 16.25 16
  583.1 11.32 11
  583.3 4.93 4
  583.4 8.67 8
  583.5 14.59 14
  583.6 18.33 18
  583.7 16.74 16
  583.8 10.44 10
  584.0 2.13 2
  584.1 7.08 7
  584.2 14.75 14
  584.3 18.74 18
  584.4 16.2 16
  584.7 11.18 11
  584.8 16.43 16
  584.9 18.98 18
  585.0 17.06 17
  585.3 11.79 11
  585.4 16.76 16
  585.5 20.6 20
  585.6 18.89 18
  585.7 12.17 12
  585.9 3.65 3
  586.0 7.46 7
  586.1 13.56 13
  586.2 17.19 17
  586.3 15.67 15
  586.4 10.26 10
  586.6 5.74 5
  586.7 10.6 10
  586.8 15.64 15
  586.9 16.32 16
  587.0 12.53 12
  587.2 8.9 8
  587.3 12.21 12
  587.4 14.28 14
  587.5 12.26 12
  587.8 7.98 7
  587.9 13.63 13
  588.0 18.85 18
  588.1 20.35 20
  588.2 17.3 17
  588.3 12.17 12
  588.5 9.14 9
  588.6 12.37 12
  588.7 15.53 15
  588.8 16.29 16
  588.9 14.25 14
  589.8 8.27 8
  589.9 13.51 13
  590.0 16.79 16
  590.1 14.86 14
  590.2 9.44 9
  590.4 5.06 5
  590.5 8.34 8
  590.6 11.88 11
  590.7 13.45 13
  590.8 13.0 12
  590.9 12.28 12
  591.0 12.93 12
  591.1 14.7 14
  591.2 15.96 15
  591.3 15.02 15
  591.4 11.74 11
  591.7 7.8 7
  591.8 13.16 13
  591.9 18.4 18
  592.0 19.5 19
  592.1 15.84 15
  593.0 8.87 8
  593.1 13.54 13
  593.2 17.19 17
  593.3 17.23 17
  593.4 13.67 13
  593.6 9.19 9
  593.7 11.92 11
  593.8 15.08 15
  593.9 15.58 15
  594.0 12.84 12
  594.3 9.14 9
  594.4 13.33 13
  594.5 15.64 15
  594.6 14.14 14
  594.9 10.74 10
  595.0 15.17 15
  595.1 19.45 19
  595.2 20.26 20
  595.3 16.2 16
  595.6 9.46 9
  595.7 14.5 14
  595.8 16.79 16
  595.9 13.98 13
  596.0 8.94 8
  596.2 7.78 7
  596.3 11.54 11
  596.4 14.39 14
  596.5 14.46 14
  596.6 11.86 11
  596.8 8.85 8
  596.9 12.82 12
  597.0 17.97 17
  597.1 19.65 19
  597.2 16.05 16
  597.5 9.68 9
  597.6 14.37 14
  597.7 16.83 16
  597.8 14.93 14
  597.9 10.58 10
  598.1 7.17 7
  598.2 9.59 9
  598.3 12.55 12
  598.4 13.65 13
  598.6 10.53 10
  598.7 11.9 11
  598.8 16.47 16
  598.9 20.39 20
  599.0 19.9 19
  599.1 14.99 14
  599.3 7.87 7
  599.4 11.34 11
  599.5 17.21 17
  599.6 20.6 20
//
