ACCESSION: MSBNK-RIKEN_NPDepo-NGA03819
RECORD_TITLE: Guan-fu base Y; LC-ESI-QQQ; MS2; Frag=135.0V CID@15.0; [M+HCOO]-
DATE: 2018.04.04
AUTHORS: Nogawa T, Okano A, CSRS, RIKEN
LICENSE: CC BY
COMMENT: Origin: Plant
COMMENT: Formula(Parent): C22H29NO5
COMMENT: Bottle Name:Guan-fu base Y
COMMENT: PRIME Parent Name:Guan-fu base Y
COMMENT: PRIME in-house No.:V0331
COMMENT: SubCategory_DNP: Terpenoid alkaloids, Diterpene alkaloid, Aconitum alkaloid
CH$NAME: Guanfu base Y
CH$NAME: 11,13,14-trihydroxyhetisan-2-yl acetate
CH$NAME: (1S,3S,16S,19S,10R,14R)-9,10,19-trihydroxy-5-methyl-12-methylene-7-azaheptacyclo(9.6.2.0(1,8).0(5,17).0(7,16).0(9,14).0(14,18))nonadec-3-yl acetate
CH$NAME: Guan-fu base Y
CH$COMPOUND_CLASS: Alkaloids
CH$FORMULA: C22H29NO5
CH$EXACT_MASS: 387.4801
CH$SMILES: C=C1C[C@@]23CC4C5C6(C)C[C@H](OC(C)=O)CC57C2[C@H](O)C1[C@@H](O)[C@]3(O)[C@H]7N4C6
CH$IUPAC: InChI=1S/C22H29NO5/c1-9-4-20-7-12-15-19(3)5-11(28-10(2)24)6-21(15)16(20)14(25)13(9)17(26)22(20,27)18(21)23(12)8-19/h11-18,25-27H,1,4-8H2,2-3H3/t11-,12?,13?,14+,15?,16?,17+,18-,19?,20+,21?,22-/m0/s1
CH$LINK: CAS 110225-59-7
CH$LINK: CHEMSPIDER 20181446
CH$LINK: INCHIKEY XGTNTUKODZZCGL-FDLOETHHSA-N
AC$INSTRUMENT: Agilent 6410 Triple Quadrupole LC/MS system
AC$INSTRUMENT_TYPE: LC-ESI-QQQ
AC$MASS_SPECTROMETRY: MS_TYPE MS2
AC$MASS_SPECTROMETRY: ION_MODE NEGATIVE
MS$FOCUSED_ION: PRECURSOR_TYPE [M+HCOO]-
PK$SPLASH: splash10-0a4i-4898880000-ae20fa93d2d79f03f939
PK$NUM_PEAK: 4322
PK$PEAK: m/z int. rel.int.
  50.3 8.29 8
  50.4 12.9 12
  50.5 18.26 18
  50.6 19.91 19
  50.7 15.89 15
  50.8 8.88 8
  51.0 6.44 6
  51.1 12.77 12
  51.2 17.64 17
  51.3 16.35 16
  51.4 9.91 9
  51.6 4.4 4
  51.7 10.38 10
  51.8 17.18 17
  51.9 19.28 19
  52.0 15.06 15
  52.3 8.15 8
  52.4 14.42 14
  52.5 17.6 17
  52.6 15.03 15
  52.7 9.4 9
  52.9 5.92 5
  53.0 11.35 11
  53.1 18.21 18
  53.2 21.12 21
  53.3 17.49 17
  53.4 10.86 10
  54.1 5.87 5
  54.2 10.23 10
  54.3 16.96 16
  54.4 20.24 20
  54.5 16.58 16
  54.6 8.31 8
  54.8 2.56 2
  54.9 9.49 9
  55.0 17.41 17
  55.1 20.6 20
  55.2 17.38 17
  55.3 11.15 11
  55.5 9.45 9
  55.6 14.31 14
  55.7 17.42 17
  55.8 15.86 15
  55.9 11.0 10
  56.1 7.71 7
  56.2 12.94 12
  56.3 18.05 18
  56.4 17.84 17
  56.5 11.96 11
  56.7 5.7 5
  56.8 12.2 12
  56.9 20.4 20
  57.0 23.74 23
  57.1 19.25 19
  57.2 9.98 9
  57.4 3.14 3
  57.5 9.81 9
  57.6 16.34 16
  57.7 16.88 16
  57.8 12.03 12
  58.0 8.1 8
  58.1 13.5 13
  58.2 19.59 19
  58.3 22.26 22
  58.4 21.24 21
  58.5 21.07 21
  58.6 26.01 25
  58.7 33.71 33
  58.8 36.6 36
  58.9 29.96 29
  59.0 17.08 17
  59.1 5.91 5
  59.3 6.64 6
  59.4 14.35 14
  59.5 19.41 19
  59.6 18.0 17
  59.7 11.17 11
  59.9 3.09 3
  60.0 9.03 9
  60.1 17.26 17
  60.2 20.62 20
  60.3 16.27 16
  60.4 8.56 8
  60.6 7.41 7
  60.7 14.51 14
  60.8 19.97 19
  60.9 19.54 19
  61.0 13.89 13
  61.2 6.68 6
  61.3 11.29 11
  61.4 17.54 17
  61.5 19.65 19
  61.6 15.2 15
  61.9 6.59 6
  62.0 14.41 14
  62.1 20.57 20
  62.2 19.79 19
  62.3 12.96 12
  62.5 6.96 6
  62.6 13.04 13
  62.7 18.62 18
  62.8 18.51 18
  62.9 13.11 13
  63.1 4.94 4
  63.2 8.1 8
  63.3 14.29 14
  63.4 18.54 18
  63.5 16.94 16
  63.6 10.91 10
  63.8 8.32 8
  63.9 15.02 15
  64.0 20.81 20
  64.1 20.89 20
  64.2 15.51 15
  64.4 8.08 8
  64.5 12.12 12
  64.6 17.33 17
  64.7 18.17 18
  64.8 13.11 13
  65.0 4.04 4
  65.1 9.11 9
  65.2 17.53 17
  65.3 21.86 21
  65.4 18.47 18
  65.5 11.08 11
  65.7 8.58 8
  65.8 14.45 14
  65.9 18.9 18
  66.0 18.05 18
  66.1 12.62 12
  66.3 7.3 7
  66.4 12.9 12
  66.5 19.57 19
  66.6 21.35 21
  66.7 16.29 16
  66.8 8.47 8
  67.0 5.78 5
  67.1 11.42 11
  67.2 15.75 15
  67.3 14.87 14
  67.4 9.34 9
  67.6 6.33 6
  67.7 14.1 14
  67.8 21.23 21
  67.9 20.73 20
  68.0 12.7 12
  68.2 4.12 4
  68.3 11.0 10
  68.4 18.4 18
  68.5 20.05 20
  68.6 15.67 15
  68.7 9.59 9
  68.9 6.91 6
  69.0 11.13 11
  69.1 15.72 15
  69.2 17.0 16
  69.3 13.78 13
  69.5 8.9 8
  69.6 13.43 13
  69.7 18.95 18
  69.8 20.19 20
  69.9 15.66 15
  70.2 8.22 8
  70.3 15.6 15
  70.4 20.65 20
  70.5 18.59 18
  70.6 11.19 11
  70.8 4.65 4
  70.9 10.25 10
  71.0 16.91 16
  71.1 19.21 19
  71.2 15.36 15
  72.1 6.17 6
  72.2 12.9 12
  72.3 18.47 18
  72.4 18.97 18
  72.5 14.72 14
  72.7 9.18 9
  72.8 13.51 13
  72.9 18.92 18
  73.0 19.94 19
  73.1 14.63 14
  73.3 3.83 3
  73.4 8.46 8
  73.5 17.08 17
  73.6 22.15 22
  73.7 19.13 19
  73.8 11.04 11
  74.0 6.36 6
  74.1 12.88 12
  74.2 18.76 18
  74.3 19.03 19
  74.4 14.08 14
  74.6 9.01 9
  74.7 13.78 13
  74.8 19.28 19
  74.9 20.81 20
  75.0 16.55 16
  75.1 9.04 9
  75.3 4.71 4
  75.4 10.8 10
  75.5 16.5 16
  75.6 16.98 16
  75.7 12.69 12
  75.9 8.56 8
  76.0 13.27 13
  76.1 18.53 18
  76.2 19.57 19
  76.3 15.07 15
  76.6 7.73 7
  76.7 14.22 14
  76.8 19.56 19
  76.9 19.21 19
  77.0 13.44 13
  77.2 6.46 6
  77.3 10.78 10
  77.4 15.68 15
  77.5 16.54 16
  77.6 12.82 12
  77.8 6.42 6
  77.9 9.99 9
  78.0 16.37 16
  78.1 20.32 20
  78.2 18.04 18
  78.3 11.19 11
  78.5 7.38 7
  78.6 14.58 14
  78.7 21.07 21
  78.8 20.84 20
  78.9 14.17 14
  79.1 6.82 6
  79.2 12.57 12
  79.3 19.0 18
  79.4 20.02 19
  79.5 14.56 14
  79.6 7.07 7
  79.8 6.39 6
  79.9 12.6 12
  80.0 16.58 16
  80.1 15.02 15
  80.2 9.75 9
  80.4 7.78 7
  80.5 14.29 14
  80.6 20.53 20
  80.7 21.34 21
  80.8 16.22 16
  81.0 8.6 8
  81.1 12.76 12
  81.2 18.4 18
  81.3 20.13 20
  81.4 16.03 16
  81.5 9.01 9
  81.7 4.67 4
  81.8 10.0 9
  81.9 16.34 16
  82.0 18.88 18
  82.1 15.58 15
  82.4 8.24 8
  82.5 14.66 14
  82.6 18.58 18
  82.7 16.21 16
  83.0 9.71 9
  83.1 15.99 15
  83.2 19.87 19
  83.3 17.4 17
  83.4 10.3 10
  83.6 5.62 5
  83.7 12.1 12
  83.8 18.51 18
  83.9 19.69 19
  84.0 15.44 15
  84.3 10.56 10
  84.4 14.99 14
  84.5 17.31 17
  84.6 15.44 15
  84.7 10.79 10
  84.9 8.55 8
  85.0 14.14 14
  85.1 19.24 19
  85.2 18.68 18
  85.3 12.4 12
  85.5 4.57 4
  85.6 9.43 9
  85.7 15.97 15
  85.8 18.56 18
  85.9 15.24 15
  86.8 6.91 6
  86.9 13.65 13
  87.0 18.4 18
  87.1 16.98 16
  87.2 10.83 10
  87.4 4.37 4
  87.5 9.22 9
  87.6 16.03 16
  87.7 19.5 19
  87.8 16.85 16
  87.9 10.57 10
  88.1 8.79 8
  88.2 15.63 15
  88.3 21.47 21
  88.4 21.43 21
  88.5 15.72 15
  88.7 7.67 7
  88.8 11.68 11
  88.9 17.22 17
  89.0 18.92 18
  89.1 14.95 14
  89.3 6.61 6
  89.4 10.38 10
  89.5 17.5 17
  89.6 22.02 21
  89.7 19.6 19
  89.8 11.9 11
  90.0 6.27 6
  90.1 12.45 12
  90.2 17.73 17
  90.3 17.02 17
  90.4 10.91 10
  90.6 4.05 4
  90.7 9.84 9
  90.8 17.67 17
  90.9 20.93 20
  91.0 16.73 16
  91.1 8.83 8
  91.3 7.06 7
  91.4 14.47 14
  91.5 20.18 20
  91.6 19.46 19
  91.7 12.81 12
  91.9 3.42 3
  92.0 8.58 8
  92.1 16.18 16
  92.2 19.09 19
  92.3 14.75 14
  92.6 8.16 8
  92.7 15.32 15
  92.8 19.47 19
  92.9 17.08 17
  93.0 10.61 10
  93.2 6.98 6
  93.3 12.41 12
  93.4 17.6 17
  93.5 18.49 18
  93.6 14.6 14
  93.9 9.14 9
  94.0 15.28 15
  94.1 19.08 19
  94.2 16.13 16
  94.3 8.9 8
  94.5 7.68 7
  94.6 14.75 14
  94.7 18.99 18
  94.8 16.18 16
  94.9 7.94 7
  95.1 1.21 1
  95.2 9.88 9
  95.3 19.83 19
  95.4 22.68 22
  95.5 16.37 16
  95.6 6.8 6
  95.8 5.56 5
  95.9 13.68 13
  96.0 19.65 19
  96.1 19.09 19
  96.2 13.06 13
  96.4 6.12 6
  96.5 11.3 11
  96.6 17.85 17
  96.7 19.55 19
  96.8 14.3 14
  97.0 3.03 3
  97.1 7.78 7
  97.2 16.88 16
  97.3 21.93 21
  97.4 17.79 17
  97.5 8.29 8
  97.7 5.37 5
  97.8 13.75 13
  97.9 19.88 19
  98.0 18.86 18
  98.1 12.31 12
  98.3 5.57 5
  98.4 11.32 11
  98.5 18.9 18
  98.6 21.92 21
  98.7 17.5 17
  98.8 9.11 9
  99.0 6.69 6
  99.1 14.8 14
  99.2 21.63 21
  99.3 21.89 21
  99.4 16.16 16
  99.6 8.5 8
  99.7 12.78 12
  99.8 18.09 18
  99.9 18.91 18
  100.0 13.87 13
  100.2 5.4 5
  100.3 9.66 9
  100.4 16.02 16
  100.5 18.35 18
  100.6 14.42 14
  100.7 7.73 7
  100.9 5.18 5
  101.0 10.59 10
  101.1 15.87 15
  101.2 17.23 17
  101.3 14.36 14
  101.5 10.26 10
  101.6 13.89 13
  101.7 18.25 18
  101.8 18.78 18
  101.9 13.93 13
  102.0 7.12 7
  102.2 6.63 6
  102.3 12.23 12
  102.4 15.73 15
  102.5 14.64 14
  102.6 10.53 10
  102.8 8.41 8
  102.9 13.89 13
  103.0 19.33 19
  103.1 19.55 19
  103.2 13.94 13
  103.4 4.78 4
  103.5 8.52 8
  103.6 14.91 14
  103.7 18.31 18
  103.8 15.68 15
  104.1 9.09 9
  104.2 15.3 15
  104.3 19.01 18
  104.4 16.99 16
  104.6 9.28 9
  104.7 12.07 12
  104.8 18.47 18
  104.9 23.8 23
  105.0 23.7 23
  105.1 16.89 16
  105.2 7.41 7
  105.4 5.73 5
  105.5 14.6 14
  105.6 21.03 21
  105.7 19.22 19
  105.8 10.7 10
  106.0 2.87 2
  106.1 10.73 10
  106.2 19.75 19
  106.3 22.03 22
  106.4 15.85 15
  106.5 7.05 7
  106.7 6.6 6
  106.8 13.4 13
  106.9 17.64 17
  107.0 16.29 16
  107.1 11.32 11
  107.3 8.16 8
  107.4 12.58 12
  107.5 16.5 16
  107.6 16.01 15
  107.7 11.08 11
  107.9 6.14 6
  108.0 11.62 11
  108.1 18.02 18
  108.2 19.89 19
  108.3 15.96 15
  108.6 9.99 9
  108.7 16.24 16
  108.8 20.1 20
  108.9 18.01 17
  109.0 11.68 11
  109.2 6.11 6
  109.3 10.82 10
  109.4 16.32 16
  109.5 17.84 17
  109.6 13.79 13
  109.9 7.76 7
  110.0 14.62 14
  110.1 18.8 18
  110.2 16.26 16
  110.3 9.4 9
  110.5 6.07 6
  110.6 12.46 12
  110.7 18.01 17
  110.8 17.99 17
  110.9 12.8 12
  111.1 6.29 6
  111.2 10.45 10
  111.3 16.2 16
  111.4 18.71 18
  111.5 15.78 15
  111.6 9.73 9
  111.8 7.85 7
  111.9 14.0 13
  112.0 18.5 18
  112.1 16.88 16
  112.2 10.34 10
  112.4 3.81 3
  112.5 8.97 8
  112.6 15.61 15
  112.7 18.04 18
  112.8 14.14 14
  113.0 4.73 4
  113.1 9.39 9
  113.2 18.21 18
  113.3 23.51 23
  113.4 20.22 20
  113.5 11.0 10
  113.7 3.54 3
  113.8 9.43 9
  113.9 15.27 15
  114.0 15.79 15
  114.1 10.93 10
  114.3 4.59 4
  114.4 9.06 9
  114.5 14.81 14
  114.6 16.56 16
  114.7 12.6 12
  114.9 4.69 4
  115.0 9.39 9
  115.1 17.76 17
  115.2 23.17 23
  115.3 20.88 20
  115.4 12.8 12
  115.6 7.12 7
  115.7 14.25 14
  115.8 20.88 20
  115.9 21.21 21
  116.0 15.21 15
  116.2 7.66 7
  116.3 13.58 13
  116.4 20.62 20
  116.5 21.12 21
  116.6 13.45 13
  116.8 1.48 1
  116.9 7.21 7
  117.0 15.9 15
  117.1 20.56 20
  117.2 18.14 18
  117.3 10.77 10
  117.5 2.6 2
  117.6 7.51 7
  117.7 14.66 14
  117.8 18.22 18
  117.9 15.54 15
  118.8 5.14 5
  118.9 10.37 10
  119.0 16.57 16
  119.1 19.14 19
  119.2 16.1 16
  119.3 10.03 10
  119.5 8.58 8
  119.6 14.59 14
  119.7 18.34 18
  119.8 15.74 15
  119.9 9.0 8
  120.1 6.48 6
  120.2 14.25 14
  120.3 21.7 21
  120.4 22.9 22
  120.5 17.11 17
  121.4 7.57 7
  121.5 15.24 15
  121.6 20.91 20
  121.7 19.02 19
  121.8 11.03 11
  122.0 4.9 4
  122.1 12.11 12
  122.2 19.85 19
  122.3 21.86 21
  122.4 16.81 16
  122.5 9.18 9
  122.7 8.47 8
  122.8 14.94 14
  122.9 18.93 18
  123.0 17.08 17
  123.1 11.32 11
  123.3 9.22 9
  123.4 15.22 15
  123.5 19.43 19
  123.6 17.42 17
  123.7 10.46 10
  123.9 3.71 3
  124.0 9.23 9
  124.1 16.01 15
  124.2 18.66 18
  124.3 15.41 15
  124.5 6.69 6
  124.6 9.95 9
  124.7 17.29 17
  124.8 22.29 22
  124.9 19.99 19
  125.0 11.85 11
  125.2 4.58 4
  125.3 11.35 11
  125.4 19.09 19
  125.5 20.9 20
  125.6 15.2 15
  125.8 5.85 5
  125.9 10.98 10
  126.0 17.57 17
  126.1 19.39 19
  126.2 15.24 15
  126.5 9.73 9
  126.6 16.36 16
  126.7 21.14 21
  126.8 19.93 19
  126.9 13.58 13
  127.1 6.24 6
  127.2 10.78 10
  127.3 17.19 17
  127.4 20.71 20
  127.5 19.1 19
  127.6 14.29 14
  127.8 12.86 12
  127.9 18.24 18
  128.0 21.74 21
  128.1 18.65 18
  128.2 9.71 9
  128.4 1.29 1
  128.5 9.16 9
  128.6 18.14 18
  128.7 20.63 20
  128.8 15.59 15
  129.1 8.83 8
  129.2 16.2 16
  129.3 20.88 20
  129.4 18.45 18
  129.5 11.21 11
  129.7 8.42 8
  129.8 15.57 15
  129.9 21.15 21
  130.0 20.6 20
  130.1 15.06 15
  130.3 8.06 8
  130.4 11.55 11
  130.5 16.5 16
  130.6 17.98 17
  130.7 13.95 13
  130.9 4.86 4
  131.0 8.58 8
  131.1 16.16 16
  131.2 21.53 21
  131.3 19.89 19
  131.4 12.05 12
  131.6 4.36 4
  131.7 11.28 11
  131.8 18.72 18
  131.9 20.0 19
  132.0 15.07 15
  132.2 9.04 9
  132.3 12.7 12
  132.4 16.73 16
  132.5 17.77 17
  132.6 15.07 15
  132.7 10.29 10
  132.9 7.29 7
  133.0 12.59 12
  133.1 18.12 18
  133.2 18.09 18
  133.3 11.83 11
  133.5 6.4 6
  133.6 14.15 14
  133.7 21.98 21
  133.8 22.87 22
  133.9 15.94 15
  134.0 6.9 6
  134.2 5.2 5
  134.3 12.01 11
  134.4 17.12 17
  134.5 16.45 16
  134.6 10.93 10
  134.8 6.25 6
  134.9 12.27 12
  135.0 19.33 19
  135.1 21.91 21
  135.2 18.07 18
  135.3 10.85 10
  135.5 8.64 8
  135.6 15.82 15
  135.7 21.12 21
  135.8 19.48 19
  135.9 12.47 12
  136.1 7.1 7
  136.2 13.27 13
  136.3 19.27 19
  136.4 19.41 19
  136.5 13.43 13
  136.7 5.06 5
  136.8 9.09 9
  136.9 14.91 14
  137.0 17.81 17
  137.1 15.76 15
  137.2 10.74 10
  137.4 8.92 8
  137.5 14.64 14
  137.6 19.73 19
  137.7 19.24 19
  137.8 12.91 12
  138.0 5.54 5
  138.1 11.75 11
  138.2 18.83 18
  138.3 20.25 20
  138.4 14.84 14
  138.7 7.74 7
  138.8 14.79 14
  138.9 19.01 18
  139.0 16.5 16
  139.1 9.55 9
  139.3 6.82 6
  139.4 14.37 14
  139.5 20.97 20
  139.6 20.83 20
  139.7 14.07 14
  139.9 5.58 5
  140.0 11.48 11
  140.1 18.5 18
  140.2 19.61 19
  140.3 13.34 13
  140.6 5.08 5
  140.7 14.03 14
  140.8 20.24 20
  140.9 18.61 18
  141.0 11.66 11
  141.2 8.87 8
  141.3 14.52 14
  141.4 17.72 17
  141.5 15.16 15
  141.6 8.75 8
  141.8 4.35 4
  141.9 11.03 11
  142.0 18.27 18
  142.1 19.89 19
  142.2 14.44 14
  142.5 6.09 6
  142.6 14.01 13
  142.7 20.13 20
  142.8 19.42 19
  142.9 12.94 12
  143.1 8.32 8
  143.2 15.3 15
  143.3 21.51 21
  143.4 21.05 21
  143.5 13.9 13
  143.7 2.45 2
  143.8 6.73 6
  143.9 15.03 15
  144.0 20.87 20
  144.1 19.86 19
  144.2 13.32 13
  144.4 6.99 6
  144.5 12.52 12
  144.6 18.71 18
  144.7 20.05 20
  144.8 15.2 15
  144.9 7.89 7
  145.1 6.09 6
  145.2 12.2 12
  145.3 16.41 16
  145.4 14.8 14
  145.7 8.1 8
  145.8 14.87 14
  145.9 19.7 19
  146.0 17.9 17
  146.1 10.71 10
  146.3 3.55 3
  146.4 9.5 9
  146.5 17.23 17
  146.6 20.6 20
  146.7 16.96 16
  146.8 9.36 9
  147.0 6.25 6
  147.1 13.32 13
  147.2 19.2 19
  147.3 18.73 18
  147.4 12.58 12
  147.6 5.6 5
  147.7 10.78 10
  147.8 16.89 16
  147.9 17.83 17
  148.0 12.15 12
  148.3 5.31 5
  148.4 13.31 13
  148.5 18.28 18
  148.6 15.47 15
  148.7 7.38 7
  148.9 4.75 4
  149.0 13.47 13
  149.1 20.66 20
  149.2 20.72 20
  149.3 14.28 14
  149.5 4.8 4
  149.6 9.06 9
  149.7 15.66 15
  149.8 18.66 18
  149.9 15.73 15
  150.0 9.89 9
  150.2 6.99 6
  150.3 11.59 11
  150.4 15.37 15
  150.5 14.21 14
  150.8 7.08 7
  150.9 15.34 15
  151.0 22.85 22
  151.1 23.31 23
  151.2 16.61 16
  151.5 9.87 9
  151.6 15.35 15
  151.7 18.1 18
  151.8 16.16 16
  151.9 11.29 11
  152.1 8.39 8
  152.2 12.79 12
  152.3 16.78 16
  152.4 16.29 16
  152.5 11.04 11
  152.7 4.31 4
  152.8 9.88 9
  152.9 17.25 17
  153.0 19.66 19
  153.1 15.24 15
  154.0 5.76 5
  154.1 12.68 12
  154.2 18.92 18
  154.3 19.46 19
  154.4 14.39 14
  154.6 7.38 7
  154.7 12.53 12
  154.8 19.14 19
  154.9 20.67 20
  155.0 15.33 15
  155.1 7.68 7
  155.3 7.03 7
  155.4 14.0 13
  155.5 19.15 19
  155.6 17.99 17
  155.7 11.28 11
  155.9 4.49 4
  156.0 11.31 11
  156.1 19.57 19
  156.2 21.68 21
  156.3 15.06 15
  156.6 5.54 5
  156.7 14.95 14
  156.8 20.3 20
  156.9 17.58 17
  157.0 10.07 10
  157.2 5.01 5
  157.3 11.02 11
  157.4 17.0 16
  157.5 17.56 17
  157.6 12.28 12
  157.8 5.07 5
  157.9 10.0 9
  158.0 16.75 16
  158.1 19.65 19
  158.2 16.36 16
  158.3 9.9 9
  158.5 8.11 8
  158.6 14.87 14
  158.7 20.41 20
  158.8 19.88 19
  158.9 13.56 13
  159.0 6.34 6
  159.2 5.72 5
  159.3 11.63 11
  159.4 16.12 16
  159.5 15.23 15
  159.6 9.87 9
  159.8 7.52 7
  159.9 13.52 13
  160.0 17.01 16
  160.1 14.13 14
  160.4 8.7 8
  160.5 15.2 15
  160.6 19.81 19
  160.7 19.17 19
  160.8 13.52 13
  161.1 6.09 6
  161.2 12.51 12
  161.3 16.94 16
  161.4 15.78 15
  161.5 10.53 10
  161.7 7.62 7
  161.8 12.88 12
  161.9 17.17 17
  162.0 16.44 16
  162.1 11.65 11
  162.3 7.91 7
  162.4 12.11 12
  162.5 15.94 15
  162.6 15.4 15
  162.7 10.45 10
  162.9 5.32 5
  163.0 11.6 11
  163.1 20.11 20
  163.2 24.06 24
  163.3 19.68 19
  163.4 10.21 10
  163.6 4.23 4
  163.7 10.49 10
  163.8 15.8 15
  163.9 15.82 15
  164.0 11.17 11
  164.2 5.19 5
  164.3 8.87 8
  164.4 13.85 13
  164.5 15.5 15
  164.6 12.4 12
  164.9 7.66 7
  165.0 12.75 12
  165.1 16.82 16
  165.2 16.38 16
  165.3 11.2 11
  165.5 5.11 5
  165.6 11.17 11
  165.7 18.75 18
  165.8 20.88 20
  165.9 15.4 15
  166.2 7.13 7
  166.3 15.46 15
  166.4 21.08 21
  166.5 19.6 19
  166.6 12.69 12
  166.8 5.23 5
  166.9 11.09 11
  167.0 19.01 18
  167.1 22.08 22
  167.2 17.55 17
  168.0 7.24 7
  168.1 10.86 10
  168.2 16.93 16
  168.3 20.04 20
  168.4 17.05 17
  168.5 9.86 9
  168.7 4.64 4
  168.8 10.94 10
  168.9 17.55 17
  169.0 18.94 18
  169.1 14.5 14
  169.3 7.25 7
  169.4 11.03 11
  169.5 17.04 17
  169.6 20.26 20
  169.7 17.57 17
  169.8 10.29 10
  170.0 3.77 3
  170.1 10.39 10
  170.2 18.4 18
  170.3 21.46 21
  170.4 17.77 17
  170.5 11.33 11
  170.7 9.44 9
  170.8 14.57 14
  170.9 18.6 18
  171.0 18.26 18
  171.1 14.19 14
  171.3 11.93 11
  171.4 17.21 17
  171.5 21.22 21
  171.6 19.38 19
  171.7 12.57 12
  171.9 5.8 5
  172.0 10.4 10
  172.1 15.57 15
  172.2 16.62 16
  172.3 13.03 13
  172.5 7.23 7
  172.6 10.63 10
  172.7 16.19 16
  172.8 19.69 19
  172.9 17.94 17
  173.0 11.63 11
  173.2 4.82 4
  173.3 10.97 10
  173.4 18.9 18
  173.5 21.76 21
  173.6 17.22 17
  173.8 7.84 7
  173.9 12.98 12
  174.0 20.68 20
  174.1 23.5 23
  174.2 18.61 18
  174.3 10.04 10
  174.5 5.29 5
  174.6 11.15 11
  174.7 17.99 17
  174.8 21.29 21
  174.9 18.5 18
  175.0 11.24 11
  175.2 5.16 5
  175.3 10.77 10
  175.4 16.22 16
  175.5 16.27 16
  175.8 10.7 10
  175.9 16.63 16
  176.0 20.17 20
  176.1 17.4 17
  176.2 10.44 10
  176.4 5.76 5
  176.5 11.5 11
  176.6 17.75 17
  176.7 19.87 19
  176.8 16.55 16
  177.0 8.91 8
  177.1 12.31 12
  177.2 18.69 18
  177.3 22.46 22
  177.4 19.84 19
  177.5 12.42 12
  177.7 6.09 6
  177.8 12.54 12
  177.9 19.7 19
  178.0 21.09 21
  178.1 15.92 15
  178.3 7.91 7
  178.4 11.85 11
  178.5 17.01 16
  178.6 18.08 18
  178.7 13.19 13
  178.9 3.03 3
  179.0 8.05 8
  179.1 17.0 16
  179.2 21.82 21
  179.3 18.35 18
  179.4 10.01 9
  179.6 5.74 5
  179.7 12.69 12
  179.8 18.8 18
  179.9 18.58 18
  180.0 12.21 12
  180.2 4.94 4
  180.3 11.5 11
  180.4 20.03 20
  180.5 23.35 23
  180.6 18.5 18
  180.7 9.54 9
  180.9 5.76 5
  181.0 12.7 12
  181.1 18.22 18
  181.2 17.82 17
  181.3 12.69 12
  181.5 8.24 8
  181.6 12.6 12
  181.7 17.31 17
  181.8 18.83 18
  181.9 16.4 16
  182.2 11.0 10
  182.3 15.4 15
  182.4 18.52 18
  182.5 16.77 16
  182.8 9.58 9
  182.9 16.17 16
  183.0 21.6 21
  183.1 20.53 20
  183.2 12.61 12
  183.4 0.54 0
  183.5 5.89 5
  183.6 14.34 14
  183.7 18.0 17
  183.8 14.04 14
  184.0 5.49 5
  184.1 10.88 10
  184.2 19.07 19
  184.3 23.23 23
  184.4 20.06 20
  184.5 11.97 11
  184.7 4.96 4
  184.8 10.93 10
  184.9 18.14 18
  185.0 20.97 20
  185.1 17.86 17
  185.4 12.13 12
  185.5 17.25 17
  185.6 20.11 20
  185.7 17.36 17
  185.8 10.1 10
  186.0 1.4 1
  186.1 5.97 5
  186.2 13.46 13
  186.3 18.23 18
  186.4 16.75 16
  186.5 10.93 10
  186.7 9.14 9
  186.8 15.9 15
  186.9 20.6 20
  187.0 18.59 18
  187.3 10.74 10
  187.4 18.81 18
  187.5 24.29 24
  187.6 21.47 21
  187.7 11.94 11
  187.9 3.93 3
  188.0 12.28 12
  188.1 21.17 21
  188.2 22.9 22
  188.3 16.27 16
  188.4 6.98 6
  188.6 4.7 4
  188.7 11.57 11
  188.8 17.01 16
  188.9 17.12 17
  189.0 12.59 12
  189.2 7.23 7
  189.3 12.04 12
  189.4 17.89 17
  189.5 18.91 18
  189.6 13.51 13
  189.8 5.23 5
  189.9 10.7 10
  190.0 17.87 17
  190.1 19.79 19
  190.2 14.39 14
  190.4 3.13 3
  190.5 7.98 7
  190.6 17.06 17
  190.7 22.68 22
  190.8 19.81 19
  190.9 10.57 10
  191.1 1.58 1
  191.2 8.45 8
  191.3 17.18 17
  191.4 20.87 20
  191.5 17.32 17
  191.6 10.29 10
  191.8 8.34 8
  191.9 14.23 14
  192.0 17.66 17
  192.1 14.42 14
  192.2 6.68 6
  192.4 3.9 3
  192.5 12.82 12
  192.6 21.06 21
  192.7 21.9 21
  192.8 14.99 14
  193.0 5.25 5
  193.1 11.37 11
  193.2 18.92 18
  193.3 20.24 20
  193.4 13.89 13
  193.7 6.22 6
  193.8 13.14 13
  193.9 17.81 17
  194.0 16.88 16
  194.1 11.29 11
  194.3 6.44 6
  194.4 13.3 13
  194.5 21.22 21
  194.6 23.3 23
  194.7 17.53 17
  194.8 8.52 8
  195.0 5.9 5
  195.1 13.27 13
  195.2 18.75 18
  195.3 17.19 17
  195.4 9.57 9
  195.6 2.03 2
  195.7 8.37 8
  195.8 16.33 16
  195.9 20.01 19
  196.0 17.25 17
  196.1 10.98 10
  196.3 8.71 8
  196.4 13.89 13
  196.5 16.42 16
  196.6 13.15 13
  196.8 5.62 5
  196.9 8.98 8
  197.0 14.37 14
  197.1 17.48 17
  197.2 16.25 16
  197.3 11.7 11
  197.5 7.81 7
  197.6 13.27 13
  197.7 20.01 19
  197.8 22.37 22
  197.9 17.99 17
  198.0 10.05 10
  198.2 6.01 6
  198.3 12.82 12
  198.4 19.35 19
  198.5 20.15 20
  198.6 14.87 14
  199.4 7.48 7
  199.5 10.73 10
  199.6 15.69 15
  199.7 17.81 17
  199.8 14.85 14
  200.0 7.64 7
  200.1 11.36 11
  200.2 17.71 17
  200.3 20.93 20
  200.4 17.86 17
  200.5 10.72 10
  200.7 5.1 5
  200.8 10.8 10
  200.9 17.38 17
  201.0 19.18 19
  201.1 14.45 14
  201.4 6.94 6
  201.5 13.95 13
  201.6 19.06 19
  201.7 18.39 18
  201.8 12.92 12
  202.0 8.25 8
  202.1 13.73 13
  202.2 19.18 19
  202.3 19.21 19
  202.4 13.12 13
  202.6 3.38 3
  202.7 7.89 7
  202.8 15.12 15
  202.9 18.83 18
  203.0 16.26 16
  203.1 10.22 10
  203.3 7.41 7
  203.4 13.15 13
  203.5 18.69 18
  203.6 19.13 19
  203.7 13.56 13
  203.9 3.86 3
  204.0 8.0 7
  204.1 14.33 14
  204.2 16.73 16
  204.3 13.57 13
  204.5 6.08 6
  204.6 8.93 8
  204.7 14.96 14
  204.8 19.48 19
  204.9 18.81 18
  205.0 13.61 13
  205.2 7.16 7
  205.3 11.62 11
  205.4 18.18 18
  205.5 20.53 20
  205.6 15.53 15
  205.9 7.6 7
  206.0 15.34 15
  206.1 19.18 19
  206.2 16.18 16
  206.3 9.81 9
  206.5 7.27 7
  206.6 12.65 12
  206.7 17.25 17
  206.8 16.65 16
  206.9 10.72 10
  207.1 3.8 3
  207.2 9.43 9
  207.3 16.02 16
  207.4 17.44 17
  207.5 12.62 12
  207.8 7.3 7
  207.9 12.94 12
  208.0 16.1 16
  208.1 14.66 14
  208.4 8.76 8
  208.5 14.93 14
  208.6 21.52 21
  208.7 22.56 22
  208.8 15.99 15
  209.1 7.28 7
  209.2 16.12 16
  209.3 21.38 21
  209.4 18.78 18
  209.5 10.72 10
  209.7 5.37 5
  209.8 12.59 12
  209.9 19.0 18
  210.0 18.44 18
  210.1 11.61 11
  210.3 6.06 6
  210.4 13.09 13
  210.5 20.23 20
  210.6 21.05 21
  210.7 14.63 14
  210.8 6.11 6
  211.0 5.8 5
  211.1 12.82 12
  211.2 17.19 17
  211.3 15.99 15
  211.4 11.28 11
  211.6 8.29 8
  211.7 13.31 13
  211.8 18.75 18
  211.9 19.26 19
  212.0 13.44 13
  212.3 7.23 7
  212.4 14.33 14
  212.5 18.51 18
  212.6 16.21 16
  212.7 9.08 9
  212.9 4.86 4
  213.0 13.06 13
  213.1 21.01 20
  213.2 22.18 22
  213.3 16.6 16
  213.4 9.91 9
  214.1 5.35 5
  214.2 9.33 9
  214.3 15.72 15
  214.4 19.21 19
  214.5 17.19 17
  214.6 12.09 12
  214.8 9.95 9
  214.9 14.42 14
  215.0 18.64 18
  215.1 19.31 19
  215.2 15.5 15
  215.3 9.73 9
  215.5 8.77 8
  215.6 14.3 14
  215.7 17.58 17
  215.8 15.12 15
  215.9 9.32 9
  216.1 7.85 7
  216.2 13.14 13
  216.3 17.18 17
  216.4 16.86 16
  216.5 12.43 12
  216.8 6.62 6
  216.9 12.09 12
  217.0 15.86 15
  217.1 14.43 14
  217.4 8.81 8
  217.5 15.77 15
  217.6 20.92 20
  217.7 19.49 19
  217.8 12.73 12
  218.0 6.69 6
  218.1 12.19 12
  218.2 17.7 17
  218.3 17.72 17
  218.4 12.06 12
  218.6 4.83 4
  218.7 9.68 9
  218.8 15.93 15
  218.9 17.98 17
  219.0 14.07 14
  219.3 7.64 7
  219.4 14.59 14
  219.5 20.21 20
  219.6 20.09 20
  219.7 14.18 14
  220.0 7.4 7
  220.1 15.11 15
  220.2 20.29 20
  220.3 18.16 18
  220.4 10.67 10
  220.6 6.85 6
  220.7 13.94 13
  220.8 19.37 19
  220.9 18.37 18
  221.0 12.6 12
  221.2 8.83 8
  221.3 14.09 14
  221.4 18.33 18
  221.5 16.95 16
  221.6 10.86 10
  221.8 5.6 5
  221.9 10.94 10
  222.0 17.02 17
  222.1 18.83 18
  222.2 14.71 14
  222.3 7.84 7
  222.5 6.1 6
  222.6 12.92 12
  222.7 18.94 18
  222.8 19.09 19
  222.9 12.85 12
  223.1 3.79 3
  223.2 9.39 9
  223.3 17.66 17
  223.4 22.2 22
  223.5 20.24 20
  223.6 14.45 14
  223.8 11.65 11
  223.9 16.59 16
  224.0 19.68 19
  224.1 17.0 16
  224.2 10.01 9
  224.4 4.38 4
  224.5 10.14 10
  224.6 16.6 16
  224.7 18.51 18
  224.8 14.96 14
  225.0 8.59 8
  225.1 12.45 12
  225.2 18.57 18
  225.3 21.8 21
  225.4 19.43 19
  225.5 13.86 13
  225.7 10.39 10
  225.8 14.1 14
  225.9 17.68 17
  226.0 17.82 17
  226.1 13.63 13
  226.3 6.06 6
  226.4 10.23 10
  226.5 17.34 17
  226.6 20.92 20
  226.7 17.4 17
  226.8 9.49 9
  227.0 3.83 3
  227.1 9.9 9
  227.2 16.33 16
  227.3 17.49 17
  227.4 12.59 12
  227.6 5.79 5
  227.7 10.47 10
  227.8 16.07 16
  227.9 17.2 17
  228.0 13.21 13
  228.2 7.94 7
  228.3 12.77 12
  228.4 19.43 19
  228.5 22.57 22
  228.6 19.33 19
  228.7 12.1 12
  228.9 8.09 8
  229.0 14.12 14
  229.1 19.15 19
  229.2 18.43 18
  229.3 12.45 12
  229.5 5.65 5
  229.6 10.92 10
  229.7 17.58 17
  229.8 19.4 19
  229.9 14.37 14
  230.1 4.73 4
  230.2 9.92 9
  230.3 18.31 18
  230.4 22.8 22
  230.5 19.85 19
  230.6 12.14 12
  230.8 6.14 6
  230.9 11.61 11
  231.0 16.89 16
  231.1 17.01 16
  231.2 12.34 12
  231.4 9.4 9
  231.5 15.03 15
  231.6 19.85 19
  231.7 19.35 19
  231.8 13.8 13
  232.1 7.87 7
  232.2 13.56 13
  232.3 18.05 18
  232.4 18.01 17
  232.5 13.56 13
  232.7 6.86 6
  232.8 9.87 9
  232.9 14.47 14
  233.0 16.56 16
  233.1 14.31 14
  233.3 8.37 8
  233.4 11.2 11
  233.5 16.32 16
  233.6 19.44 19
  233.7 18.12 18
  233.8 13.25 13
  234.6 4.66 4
  234.7 8.7 8
  234.8 15.75 15
  234.9 20.21 20
  235.0 18.14 18
  235.1 11.17 11
  235.3 5.98 5
  235.4 11.68 11
  235.5 17.05 17
  235.6 17.48 17
  235.7 13.25 13
  235.9 9.47 9
  236.0 14.36 14
  236.1 19.46 19
  236.2 19.89 19
  236.3 14.74 14
  236.5 6.22 6
  236.6 10.65 10
  236.7 17.15 17
  236.8 18.92 18
  236.9 13.65 13
  237.2 5.9 5
  237.3 14.11 14
  237.4 21.06 21
  237.5 21.64 21
  237.6 14.92 14
  237.9 5.02 5
  238.0 14.17 14
  238.1 20.5 20
  238.2 18.45 18
  238.3 9.94 9
  238.5 3.58 3
  238.6 11.33 11
  238.7 18.84 18
  238.8 19.48 19
  238.9 13.25 13
  239.1 4.73 4
  239.2 9.23 9
  239.3 15.17 15
  239.4 17.22 17
  239.5 14.1 14
  239.7 7.78 7
  239.8 11.38 11
  239.9 17.24 17
  240.0 20.72 20
  240.1 18.83 18
  240.2 12.36 12
  240.4 3.85 3
  240.5 8.66 8
  240.6 16.44 16
  240.7 20.72 20
  240.8 17.94 17
  240.9 11.08 11
  241.1 9.41 9
  241.2 15.46 15
  241.3 18.08 18
  241.4 13.9 13
  241.7 7.58 7
  241.8 14.38 14
  241.9 18.41 18
  242.0 17.16 17
  242.1 12.19 12
  242.3 4.53 4
  242.4 7.31 7
  242.5 13.96 13
  242.6 19.15 19
  242.7 17.92 17
  242.8 11.46 11
  243.0 7.89 7
  243.1 14.76 14
  243.2 20.5 20
  243.3 19.55 19
  243.4 12.52 12
  243.6 3.69 3
  243.7 8.42 8
  243.8 15.34 15
  243.9 18.92 18
  244.0 16.41 16
  244.1 10.13 10
  244.3 8.06 8
  244.4 14.38 14
  244.5 18.81 18
  244.6 17.06 17
  244.7 10.75 10
  244.9 5.32 5
  245.0 9.6 9
  245.1 13.84 13
  245.2 14.21 14
  245.5 9.62 9
  245.6 15.05 15
  245.7 19.9 19
  245.8 19.42 19
  245.9 13.18 13
  246.2 6.69 6
  246.3 13.71 13
  246.4 18.27 18
  246.5 16.82 16
  246.6 10.62 10
  246.8 5.49 5
  246.9 12.79 12
  247.0 21.25 21
  247.1 22.94 22
  247.2 15.75 15
  247.4 3.1 3
  247.5 8.83 8
  247.6 17.55 17
  247.7 20.99 20
  247.8 16.07 16
  248.1 6.68 6
  248.2 15.34 15
  248.3 21.65 21
  248.4 20.64 20
  248.5 13.73 13
  248.7 5.68 5
  248.8 10.38 10
  248.9 16.95 16
  249.0 19.99 19
  249.1 17.03 17
  249.2 10.59 10
  249.4 7.32 7
  249.5 12.69 12
  249.6 17.55 17
  249.7 18.12 18
  249.8 14.59 14
  250.0 9.76 9
  250.1 13.2 13
  250.2 17.31 17
  250.3 17.48 17
  250.4 12.9 12
  250.6 6.88 6
  250.7 10.98 10
  250.8 15.92 15
  250.9 17.17 17
  251.0 13.97 13
  251.3 8.89 8
  251.4 13.44 13
  251.5 18.05 18
  251.6 18.93 18
  251.7 14.1 14
  252.5 4.96 4
  252.6 9.41 9
  252.7 18.06 18
  252.8 23.62 23
  252.9 21.1 21
  253.0 12.84 12
  253.2 7.72 7
  253.3 15.05 15
  253.4 21.12 21
  253.5 20.03 20
  253.6 12.63 12
  253.8 4.03 4
  253.9 9.6 9
  254.0 17.23 17
  254.1 21.04 21
  254.2 18.51 18
  254.3 12.07 12
  254.5 8.13 8
  254.6 13.52 13
  254.7 17.72 17
  254.8 16.04 16
  254.9 9.21 9
  255.1 2.02 2
  255.2 8.5 8
  255.3 17.23 17
  255.4 21.08 21
  255.5 17.08 17
  255.6 9.41 9
  255.8 8.21 8
  255.9 15.63 15
  256.0 20.95 20
  256.1 19.14 19
  256.2 11.59 11
  256.4 6.7 6
  256.5 14.23 14
  256.6 21.26 21
  256.7 22.02 21
  256.8 15.89 15
  256.9 6.96 6
  257.1 3.88 3
  257.2 12.2 12
  257.3 19.14 19
  257.4 18.28 18
  257.5 10.87 10
  257.7 5.52 5
  257.8 12.64 12
  257.9 18.97 18
  258.0 18.68 18
  258.1 12.37 12
  258.3 5.83 5
  258.4 11.68 11
  258.5 18.39 18
  258.6 19.8 19
  258.7 14.48 14
  259.0 7.44 7
  259.1 15.63 15
  259.2 21.71 21
  259.3 20.98 20
  259.4 14.71 14
  259.6 7.76 7
  259.7 11.77 11
  259.8 16.62 16
  259.9 18.17 18
  260.0 15.37 15
  260.1 10.81 10
  260.3 9.29 9
  260.4 12.18 12
  260.5 13.59 13
  260.6 11.73 11
  260.8 6.11 6
  260.9 8.49 8
  261.0 13.98 13
  261.1 18.37 18
  261.2 17.9 17
  261.3 12.74 12
  261.5 6.7 6
  261.6 11.72 11
  261.7 18.09 18
  261.8 20.15 20
  261.9 16.13 16
  262.2 9.67 9
  262.3 16.03 16
  262.4 20.21 20
  262.5 18.42 18
  262.6 12.43 12
  262.8 8.19 8
  262.9 12.23 12
  263.0 16.01 15
  263.1 16.46 16
  263.2 13.18 13
  263.4 7.46 7
  263.5 11.25 11
  263.6 17.21 17
  263.7 20.22 20
  263.8 17.93 17
  263.9 12.73 12
  264.1 10.91 10
  264.2 16.16 16
  264.3 20.39 20
  264.4 19.26 19
  264.5 12.99 12
  264.7 5.76 5
  264.8 10.85 10
  264.9 17.49 17
  265.0 19.86 19
  265.1 15.63 15
  265.2 8.11 8
  265.4 5.78 5
  265.5 12.91 12
  265.6 18.78 18
  265.7 18.1 18
  265.8 11.46 11
  266.0 5.32 5
  266.1 11.46 11
  266.2 17.49 17
  266.3 17.88 17
  266.4 12.97 12
  266.6 6.53 6
  266.7 10.57 10
  266.8 16.41 16
  266.9 19.26 19
  267.0 16.83 16
  267.2 8.62 8
  267.3 11.72 11
  267.4 18.59 18
  267.5 22.8 22
  267.6 19.87 19
  267.7 11.68 11
  267.9 4.02 4
  268.0 9.56 9
  268.1 16.72 16
  268.2 20.0 19
  268.3 16.85 16
  268.4 9.57 9
  268.6 4.81 4
  268.7 11.71 11
  268.8 18.53 18
  268.9 18.82 18
  269.0 12.44 12
  269.2 5.43 5
  269.3 11.36 11
  269.4 17.79 17
  269.5 19.18 19
  269.6 14.99 14
  270.4 5.84 5
  270.5 10.27 10
  270.6 18.27 18
  270.7 22.47 22
  270.8 19.21 19
  270.9 11.62 11
  271.1 4.89 4
  271.2 9.09 9
  271.3 14.83 14
  271.4 17.65 17
  271.5 15.32 15
  271.8 8.44 8
  271.9 14.71 14
  272.0 19.88 19
  272.1 19.04 19
  272.2 12.7 12
  272.4 6.46 6
  272.5 11.94 11
  272.6 17.88 17
  272.7 18.92 18
  272.8 14.26 14
  273.0 6.06 6
  273.1 9.78 9
  273.2 15.61 15
  273.3 17.67 17
  273.4 13.45 13
  273.7 6.81 6
  273.8 14.2 14
  273.9 19.46 19
  274.0 18.76 18
  274.1 13.35 13
  274.3 7.12 7
  274.4 10.67 10
  274.5 14.62 14
  274.6 14.84 14
  274.7 10.97 10
  274.9 5.57 5
  275.0 9.45 9
  275.1 15.86 15
  275.2 20.24 20
  275.3 19.02 19
  275.4 13.04 13
  275.6 7.9 7
  275.7 13.85 13
  275.8 19.39 19
  275.9 18.83 18
  276.0 12.32 12
  276.2 4.38 4
  276.3 9.1 9
  276.4 15.64 15
  276.5 18.77 18
  276.6 16.28 16
  276.7 10.72 10
  276.9 9.09 9
  277.0 15.29 15
  277.1 20.79 20
  277.2 20.62 20
  277.3 14.54 14
  277.5 7.18 7
  277.6 12.78 12
  277.7 19.8 19
  277.8 21.89 21
  277.9 16.78 16
  278.0 8.3 8
  278.2 6.75 6
  278.3 15.13 15
  278.4 21.03 21
  278.5 19.4 19
  278.6 11.94 11
  278.8 5.08 5
  278.9 11.62 11
  279.0 19.01 18
  279.1 20.58 20
  279.2 15.64 15
  279.4 9.0 8
  279.5 13.2 13
  279.6 17.93 17
  279.7 18.48 18
  279.8 13.56 13
  279.9 6.31 6
  280.1 4.1 4
  280.2 11.8 11
  280.3 19.73 19
  280.4 21.75 21
  280.5 16.61 16
  281.4 7.58 7
  281.5 14.56 14
  281.6 20.01 19
  281.7 19.21 19
  281.8 13.42 13
  282.0 7.28 7
  282.1 11.3 11
  282.2 16.55 16
  282.3 18.26 18
  282.4 14.46 14
  282.7 8.93 8
  282.8 15.01 14
  282.9 18.8 18
  283.0 17.5 17
  283.1 12.44 12
  283.3 8.95 8
  283.4 14.71 14
  283.5 20.31 20
  283.6 20.23 20
  283.7 14.08 14
  283.9 5.07 5
  284.0 9.16 9
  284.1 15.26 15
  284.2 17.6 17
  284.3 14.08 14
  284.5 6.08 6
  284.6 9.62 9
  284.7 15.39 15
  284.8 18.14 18
  284.9 15.41 15
  285.0 9.23 9
  285.2 5.56 5
  285.3 12.56 12
  285.4 20.14 20
  285.5 21.85 21
  285.6 16.37 16
  285.8 6.44 6
  285.9 10.89 10
  286.0 17.52 17
  286.1 19.23 19
  286.2 13.69 13
  286.5 6.1 6
  286.6 14.61 14
  286.7 21.08 21
  286.8 21.48 21
  286.9 16.73 16
  287.1 9.94 9
  287.2 13.48 13
  287.3 18.6 18
  287.4 19.76 19
  287.5 14.68 14
  287.6 7.02 7
  287.8 6.11 6
  287.9 12.81 12
  288.0 17.82 17
  288.1 17.81 17
  288.2 13.83 13
  288.4 9.77 9
  288.5 13.7 13
  288.6 17.82 17
  288.7 17.34 17
  288.8 11.52 11
  289.0 3.87 3
  289.1 8.66 8
  289.2 15.68 15
  289.3 19.75 19
  289.4 18.15 18
  289.5 12.28 12
  289.7 6.96 6
  289.8 11.71 11
  289.9 16.58 16
  290.0 17.17 17
  290.1 13.42 13
  290.3 9.16 9
  290.4 13.6 13
  290.5 18.69 18
  290.6 19.64 19
  290.7 15.28 15
  291.0 8.44 8
  291.1 15.0 14
  291.2 20.3 20
  291.3 19.65 19
  291.4 13.43 13
  291.6 6.17 6
  291.7 11.16 11
  291.8 16.95 16
  291.9 18.17 18
  292.0 14.07 14
  292.2 6.24 6
  292.3 9.3 9
  292.4 15.71 15
  292.5 20.34 20
  292.6 18.97 18
  292.7 12.42 12
  292.9 6.05 6
  293.0 11.12 11
  293.1 16.33 16
  293.2 16.73 16
  293.3 12.32 12
  293.5 6.01 6
  293.6 9.45 9
  293.7 15.14 15
  293.8 18.18 18
  293.9 15.42 15
  294.2 9.55 9
  294.3 16.54 16
  294.4 20.14 20
  294.5 17.07 17
  294.6 10.48 10
  294.8 7.68 7
  294.9 12.69 12
  295.0 16.67 16
  295.1 16.36 16
  295.2 12.34 12
  295.4 7.01 7
  295.5 10.7 10
  295.6 16.67 16
  295.7 19.97 19
  295.8 17.07 17
  295.9 10.04 10
  296.1 6.76 6
  296.2 13.37 13
  296.3 18.78 18
  296.4 17.97 17
  296.5 11.38 11
  296.7 4.21 4
  296.8 10.44 10
  296.9 17.86 17
  297.0 19.28 19
  297.1 13.04 13
  297.3 1.93 1
  297.4 7.0 6
  297.5 15.61 15
  297.6 21.0 20
  297.7 19.37 19
  297.8 12.68 12
  298.0 7.65 7
  298.1 13.67 13
  298.2 19.14 19
  298.3 18.93 18
  298.4 13.57 13
  298.6 6.79 6
  298.7 10.94 10
  298.8 16.82 16
  298.9 19.19 19
  299.0 15.84 15
  299.1 9.9 9
  299.3 8.07 8
  299.4 12.54 12
  299.5 16.01 15
  299.6 15.2 15
  299.7 10.21 10
  299.9 5.76 5
  300.0 12.12 12
  300.1 19.55 19
  300.2 21.71 21
  300.3 16.62 16
  300.4 8.51 8
  300.6 7.45 7
  300.7 15.14 15
  300.8 20.74 20
  300.9 19.46 19
  301.0 12.35 12
  301.2 3.63 3
  301.3 8.6 8
  301.4 15.21 15
  301.5 17.01 16
  301.6 12.06 12
  301.8 3.09 3
  301.9 8.4 8
  302.0 16.95 16
  302.1 21.67 21
  302.2 18.57 18
  302.3 10.57 10
  302.5 6.79 6
  302.6 14.51 14
  302.7 21.62 21
  302.8 22.06 22
  302.9 15.32 15
  303.1 5.02 5
  303.2 9.87 9
  303.3 16.35 16
  303.4 18.08 18
  303.5 13.78 13
  303.8 6.99 6
  303.9 14.06 14
  304.0 18.99 18
  304.1 16.08 16
  304.2 6.9 6
  304.4 2.82 2
  304.5 13.39 13
  304.6 21.92 21
  304.7 20.72 20
  304.8 11.52 11
  305.0 2.12 2
  305.1 9.14 9
  305.2 17.99 17
  305.3 21.72 21
  305.4 17.52 17
  305.5 9.0 8
  305.7 6.46 6
  305.8 14.94 14
  305.9 21.67 21
  306.0 20.9 20
  306.1 13.64 13
  306.3 4.69 4
  306.4 10.38 10
  306.5 18.04 18
  306.6 20.68 20
  306.7 15.79 15
  306.8 7.61 7
  307.0 6.14 6
  307.1 13.94 13
  307.2 19.47 19
  307.3 17.19 17
  307.4 8.74 8
  307.6 2.46 2
  307.7 10.08 10
  307.8 18.34 18
  307.9 21.01 20
  308.0 16.85 16
  308.9 6.27 6
  309.0 12.46 12
  309.1 18.74 18
  309.2 20.25 20
  309.3 16.53 16
  310.1 4.42 4
  310.2 8.72 8
  310.3 15.84 15
  310.4 19.52 19
  310.5 16.91 16
  310.6 11.1 11
  310.8 9.38 9
  310.9 14.84 14
  311.0 19.31 19
  311.1 18.38 18
  311.2 11.91 11
  311.4 2.72 2
  311.5 7.4 7
  311.6 15.08 15
  311.7 19.91 19
  311.8 18.21 18
  311.9 11.47 11
  312.1 4.85 4
  312.2 9.86 9
  312.3 15.53 15
  312.4 16.89 16
  312.5 13.42 13
  313.3 8.48 8
  313.4 11.77 11
  313.5 16.73 16
  313.6 19.11 19
  313.7 16.59 16
  313.8 10.86 10
  314.0 6.73 6
  314.1 12.38 12
  314.2 18.89 18
  314.3 20.36 20
  314.4 14.92 14
  314.7 7.29 7
  314.8 14.67 14
  314.9 18.7 18
  315.0 15.39 15
  315.1 7.35 7
  315.3 3.63 3
  315.4 12.23 12
  315.5 20.37 20
  315.6 21.3 21
  315.7 14.83 14
  315.8 6.94 6
  316.0 6.16 6
  316.1 11.22 11
  316.2 14.41 14
  316.3 13.56 13
  316.6 9.48 9
  316.7 13.81 13
  316.8 16.66 16
  316.9 14.54 14
  317.2 7.11 7
  317.3 13.94 13
  317.4 20.11 20
  317.5 20.46 20
  317.6 14.19 14
  317.9 6.03 6
  318.0 15.54 15
  318.1 22.86 22
  318.2 21.86 21
  318.3 13.74 13
  318.5 5.72 5
  318.6 11.66 11
  318.7 17.51 17
  318.8 17.7 17
  318.9 12.46 12
  319.1 5.93 5
  319.2 10.56 10
  319.3 16.42 16
  319.4 17.95 17
  319.5 13.63 13
  319.7 6.58 6
  319.8 11.59 11
  319.9 18.31 18
  320.0 20.46 20
  320.1 15.89 15
  320.2 8.15 8
  320.4 5.62 5
  320.5 12.8 12
  320.6 18.44 18
  320.7 17.28 17
  320.8 10.65 10
  321.0 6.12 6
  321.1 12.26 12
  321.2 18.02 18
  321.3 18.48 18
  321.4 13.23 13
  321.7 5.5 5
  321.8 13.93 13
  321.9 20.6 20
  322.0 19.48 19
  322.1 11.9 11
  322.3 5.97 5
  322.4 12.7 12
  322.5 19.63 19
  322.6 21.18 21
  322.7 16.21 16
  322.8 8.54 8
  323.0 6.24 6
  323.1 13.11 13
  323.2 18.65 18
  323.3 17.72 17
  323.4 11.13 11
  323.6 6.13 6
  323.7 13.03 13
  323.8 19.34 19
  323.9 19.15 19
  324.0 12.96 12
  324.2 6.03 6
  324.3 11.85 11
  324.4 20.02 19
  324.5 24.05 24
  324.6 20.16 20
  324.7 10.98 10
  324.9 5.54 5
  325.0 13.68 13
  325.1 21.19 21
  325.2 21.64 21
  325.3 15.01 14
  325.5 5.5 5
  325.6 9.93 9
  325.7 15.87 15
  325.8 17.39 17
  325.9 13.24 13
  326.1 6.5 6
  326.2 11.42 11
  326.3 18.93 18
  326.4 23.15 23
  326.5 20.5 20
  326.6 12.48 12
  326.8 3.9 3
  326.9 9.89 9
  327.0 17.64 17
  327.1 20.47 20
  327.2 16.44 16
  328.1 7.05 7
  328.2 14.94 14
  328.3 20.52 20
  328.4 19.3 19
  328.5 12.74 12
  328.7 7.25 7
  328.8 13.27 13
  328.9 19.89 19
  329.0 21.45 21
  329.1 16.33 16
  329.3 5.19 5
  329.4 9.73 9
  329.5 19.17 19
  329.6 25.48 25
  329.7 22.83 22
  329.8 13.13 13
  330.0 3.94 3
  330.1 11.27 11
  330.2 19.59 19
  330.3 21.52 21
  330.4 15.38 15
  330.7 7.54 7
  330.8 16.45 16
  330.9 21.56 21
  331.0 18.61 18
  331.1 11.06 11
  331.3 7.89 7
  331.4 14.09 14
  331.5 19.14 19
  331.6 18.57 18
  331.7 12.92 12
  331.9 7.72 7
  332.0 13.57 13
  332.1 19.64 19
  332.2 20.31 20
  332.3 14.76 14
  332.6 6.95 6
  332.7 14.99 14
  332.8 21.15 21
  332.9 19.92 19
  333.0 11.98 11
  333.2 2.5 2
  333.3 8.65 8
  333.4 16.84 16
  333.5 20.09 20
  333.6 16.35 16
  333.8 7.71 7
  333.9 11.71 11
  334.0 18.5 18
  334.1 21.79 21
  334.2 18.09 18
  334.3 10.28 10
  334.5 6.95 6
  334.6 13.69 13
  334.7 18.73 18
  334.8 17.45 17
  334.9 11.32 11
  335.1 6.38 6
  335.2 11.86 11
  335.3 18.31 18
  335.4 20.84 20
  335.5 17.46 17
  335.6 10.86 10
  335.8 8.21 8
  335.9 14.68 14
  336.0 19.99 19
  336.1 18.93 18
  336.2 12.46 12
  336.4 7.22 7
  336.5 13.07 13
  336.6 18.91 18
  336.7 19.52 19
  336.8 14.33 14
  337.0 5.13 5
  337.1 9.3 9
  337.2 17.21 17
  337.3 22.5 22
  337.4 20.58 20
  337.5 12.77 12
  337.7 4.89 4
  337.8 10.8 10
  337.9 17.19 17
  338.0 17.83 17
  338.1 12.44 12
  338.3 6.53 6
  338.4 12.02 12
  338.5 18.19 18
  338.6 19.55 19
  338.7 15.03 15
  338.9 6.36 6
  339.0 10.53 10
  339.1 18.28 18
  339.2 23.21 23
  339.3 20.63 20
  339.4 11.9 11
  339.6 4.2 4
  339.7 12.07 12
  339.8 20.95 20
  339.9 23.02 22
  340.0 16.61 16
  340.1 7.56 7
  340.3 7.14 7
  340.4 14.45 14
  340.5 18.57 18
  340.6 16.26 16
  340.7 10.38 10
  340.9 7.03 7
  341.0 11.47 11
  341.1 16.21 16
  341.2 17.72 17
  341.3 14.84 14
  341.5 8.76 8
  341.6 12.6 12
  341.7 18.35 18
  341.8 20.38 20
  341.9 16.73 16
  342.0 10.77 10
  342.2 8.46 8
  342.3 11.93 11
  342.4 14.18 14
  342.5 13.01 12
  342.8 7.9 7
  342.9 12.77 12
  343.0 17.34 17
  343.1 17.01 16
  343.2 11.09 11
  343.4 2.46 2
  343.5 7.72 7
  343.6 15.87 15
  343.7 20.05 20
  343.8 16.6 16
  343.9 8.43 8
  344.1 5.12 5
  344.2 13.52 13
  344.3 20.88 20
  344.4 21.03 21
  344.5 14.38 14
  344.7 5.67 5
  344.8 10.69 10
  344.9 17.46 17
  345.0 19.85 19
  345.1 15.82 15
  345.4 9.16 9
  345.5 15.42 15
  345.6 19.1 19
  345.7 16.78 16
  345.8 10.45 10
  346.0 6.88 6
  346.1 13.15 13
  346.2 19.11 19
  346.3 19.31 19
  346.4 13.23 13
  346.6 4.96 4
  346.7 11.15 11
  346.8 19.79 19
  346.9 23.5 23
  347.0 19.36 19
  347.1 11.14 11
  347.3 6.85 6
  347.4 13.74 13
  347.5 20.49 20
  347.6 21.02 20
  347.7 14.62 14
  347.9 5.67 5
  348.0 10.48 10
  348.1 15.94 15
  348.2 16.04 16
  348.3 10.13 10
  348.5 0.69 0
  348.6 5.44 5
  348.7 14.05 14
  348.8 20.15 20
  348.9 19.49 19
  349.0 13.9 13
  349.2 9.56 9
  349.3 13.75 13
  349.4 18.19 18
  349.5 19.13 19
  349.6 15.06 15
  350.5 3.71 3
  350.6 9.76 9
  350.7 15.74 15
  350.8 16.76 16
  350.9 11.92 11
  351.1 3.28 3
  351.2 7.54 7
  351.3 14.2 14
  351.4 17.02 17
  351.5 13.75 13
  351.7 4.48 4
  351.8 7.57 7
  351.9 15.43 15
  352.0 22.5 22
  352.1 23.17 23
  352.2 16.78 16
  353.0 6.6 6
  353.1 10.36 10
  353.2 15.62 15
  353.3 17.91 17
  353.4 15.34 15
  353.5 10.26 10
  353.7 8.59 8
  353.8 13.18 13
  353.9 17.4 17
  354.0 17.92 17
  354.1 13.76 13
  354.3 4.63 4
  354.4 8.27 8
  354.5 16.17 16
  354.6 21.48 21
  354.7 19.01 18
  354.8 10.36 10
  355.0 3.12 3
  355.1 10.5 10
  355.2 18.05 18
  355.3 19.07 19
  355.4 13.51 13
  355.6 7.34 7
  355.7 12.99 12
  355.8 19.35 19
  355.9 20.68 20
  356.0 15.83 15
  356.9 9.89 9
  357.0 16.49 16
  357.1 21.23 21
  357.2 19.84 19
  357.3 13.51 13
  357.5 8.23 8
  357.6 13.48 13
  357.7 18.78 18
  357.8 19.46 19
  357.9 14.87 14
  358.2 8.28 8
  358.3 14.23 14
  358.4 17.92 17
  358.5 16.02 16
  358.6 10.57 10
  358.8 8.27 8
  358.9 13.65 13
  359.0 18.15 18
  359.1 17.5 17
  359.2 11.94 11
  359.4 5.15 5
  359.5 9.53 9
  359.6 15.28 15
  359.7 17.69 17
  359.8 15.19 15
  359.9 10.01 9
  360.1 8.22 8
  360.2 13.39 13
  360.3 17.12 17
  360.4 15.39 15
  360.5 9.48 9
  360.7 5.63 5
  360.8 11.86 11
  360.9 18.4 18
  361.0 19.67 19
  361.1 14.46 14
  361.3 5.69 5
  361.4 10.16 10
  361.5 16.54 16
  361.6 18.75 18
  361.7 14.92 14
  361.8 8.52 8
  362.0 6.81 6
  362.1 12.79 12
  362.2 17.98 17
  362.3 17.87 17
  362.4 12.37 12
  362.6 5.15 5
  362.7 9.91 9
  362.8 16.45 16
  362.9 19.23 19
  363.0 15.84 15
  363.3 8.12 8
  363.4 15.35 15
  363.5 20.07 20
  363.6 17.64 17
  363.7 10.49 10
  363.9 6.24 6
  364.0 11.23 11
  364.1 15.78 15
  364.2 16.63 16
  364.3 13.11 13
  364.5 4.42 4
  364.6 7.76 7
  364.7 15.53 15
  364.8 20.74 20
  364.9 18.25 18
  365.0 10.41 10
  365.2 6.94 6
  365.3 14.33 14
  365.4 19.76 19
  365.5 17.87 17
  365.6 10.1 10
  365.8 2.86 2
  365.9 9.26 9
  366.0 17.08 17
  366.1 19.98 19
  366.2 15.57 15
  366.3 7.4 7
  366.5 4.9 4
  366.6 12.94 12
  366.7 19.82 19
  366.8 19.91 19
  366.9 13.45 13
  367.1 4.48 4
  367.2 9.59 9
  367.3 16.79 16
  367.4 19.27 19
  367.5 14.37 14
  367.7 3.46 3
  367.8 8.16 8
  367.9 16.29 16
  368.0 20.37 20
  368.1 16.94 16
  368.2 9.09 9
  368.4 3.63 3
  368.5 9.4 9
  368.6 15.87 15
  368.7 18.42 18
  368.8 15.8 15
  368.9 10.81 10
  369.1 9.65 9
  369.2 14.0 13
  369.3 16.54 16
  369.4 14.18 14
  369.7 8.01 8
  369.8 15.5 15
  369.9 21.56 21
  370.0 21.28 21
  370.1 14.94 14
  370.9 6.52 6
  371.0 11.82 11
  371.1 18.78 18
  371.2 21.86 21
  371.3 18.48 18
  371.4 10.92 10
  371.6 4.38 4
  371.7 9.83 9
  371.8 16.17 16
  371.9 17.66 17
  372.0 13.57 13
  372.2 8.37 8
  372.3 12.58 12
  372.4 17.51 17
  372.5 19.0 18
  372.6 15.9 15
  372.7 10.46 10
  372.9 7.63 7
  373.0 12.34 12
  373.1 16.68 16
  373.2 16.41 16
  373.3 11.39 11
  373.5 4.96 4
  373.6 9.36 9
  373.7 15.3 15
  373.8 17.46 17
  373.9 13.6 13
  374.1 4.85 4
  374.2 9.98 9
  374.3 18.39 18
  374.4 22.44 22
  374.5 18.71 18
  374.6 10.76 10
  374.8 6.29 6
  374.9 12.92 12
  375.0 19.87 19
  375.1 21.45 21
  375.2 16.4 16
  375.4 6.51 6
  375.5 10.91 10
  375.6 18.84 18
  375.7 23.01 22
  375.8 18.77 18
  375.9 8.78 8
  376.1 3.14 3
  376.2 11.92 11
  376.3 19.79 19
  376.4 20.41 20
  376.5 14.5 14
  376.7 6.47 6
  376.8 10.79 10
  376.9 16.96 16
  377.0 19.47 19
  377.1 15.97 15
  377.4 9.31 9
  377.5 16.62 16
  377.6 21.47 21
  377.7 19.69 19
  377.8 13.37 13
  378.0 8.08 8
  378.1 11.65 11
  378.2 15.16 15
  378.3 15.45 15
  378.4 12.48 12
  378.6 8.88 8
  378.7 12.69 12
  378.8 17.1 17
  378.9 17.4 17
  379.0 12.06 12
  379.2 1.96 1
  379.3 6.32 6
  379.4 15.14 15
  379.5 21.79 21
  379.6 21.24 21
  379.7 14.67 14
  379.9 6.96 6
  380.0 11.56 11
  380.1 17.81 17
  380.2 20.95 20
  380.3 19.09 19
  380.4 14.27 14
  380.6 12.57 12
  380.7 17.61 17
  380.8 20.8 20
  380.9 17.74 17
  381.0 9.9 9
  381.2 3.3 3
  381.3 8.75 8
  381.4 15.18 15
  381.5 17.99 17
  381.6 15.72 15
  381.9 9.34 9
  382.0 15.73 15
  382.1 20.75 20
  382.2 19.03 19
  382.3 11.05 11
  382.5 3.25 3
  382.6 10.03 10
  382.7 17.69 17
  382.8 19.65 19
  382.9 15.08 15
  383.1 7.96 7
  383.2 13.12 13
  383.3 20.27 20
  383.4 22.83 22
  383.5 17.76 17
  383.6 8.7 8
  383.8 5.86 5
  383.9 13.96 13
  384.0 19.93 19
  384.1 18.5 18
  384.2 11.69 11
  384.4 7.34 7
  384.5 13.34 13
  384.6 18.4 18
  384.7 17.66 17
  384.8 11.65 11
  385.0 6.19 6
  385.1 12.3 12
  385.2 18.85 18
  385.3 20.21 20
  385.4 15.63 15
  385.6 6.82 6
  385.7 10.31 10
  385.8 17.4 17
  385.9 22.73 22
  386.0 21.81 21
  386.1 15.1 15
  386.3 5.98 5
  386.4 10.45 10
  386.5 16.96 16
  386.6 19.51 19
  386.7 15.85 15
  387.6 7.46 7
  387.7 14.84 14
  387.8 20.1 20
  387.9 19.58 19
  388.0 14.55 14
  388.2 8.39 8
  388.3 11.68 11
  388.4 15.87 15
  388.5 16.67 16
  388.6 13.04 13
  389.5 2.45 2
  389.6 9.81 9
  389.7 17.39 17
  389.8 19.63 19
  389.9 15.34 15
  390.0 8.26 8
  390.2 6.08 6
  390.3 12.81 12
  390.4 18.45 18
  390.5 18.16 18
  390.6 12.75 12
  390.8 9.23 9
  390.9 15.1 15
  391.0 20.6 20
  391.1 21.46 21
  391.2 17.28 17
  391.3 11.02 11
  391.5 7.92 7
  391.6 13.22 13
  391.7 18.36 18
  391.8 18.87 18
  391.9 14.63 14
  392.1 9.66 9
  392.2 13.39 13
  392.3 16.3 16
  392.4 14.01 13
  392.5 7.9 7
  392.7 5.1 5
  392.8 11.39 11
  392.9 18.0 17
  393.0 20.25 20
  393.1 16.2 16
  393.2 8.63 8
  393.4 6.02 6
  393.5 13.48 13
  393.6 19.55 19
  393.7 19.28 19
  393.8 13.57 13
  394.0 6.66 6
  394.1 11.03 11
  394.2 16.52 16
  394.3 18.0 17
  394.4 14.19 14
  394.7 8.21 8
  394.8 12.98 12
  394.9 15.88 15
  395.0 14.11 14
  395.3 7.79 7
  395.4 13.37 13
  395.5 18.76 18
  395.6 19.98 19
  395.7 16.13 16
  396.6 5.01 5
  396.7 10.85 10
  396.8 16.16 16
  396.9 16.82 16
  397.0 12.86 12
  397.2 8.95 8
  397.3 13.65 13
  397.4 18.19 18
  397.5 17.67 17
  397.6 11.76 11
  397.8 3.38 3
  397.9 7.77 7
  398.0 14.19 14
  398.1 16.93 16
  398.2 13.98 13
  398.3 8.67 8
  398.5 7.54 7
  398.6 12.29 12
  398.7 16.6 16
  398.8 17.37 17
  398.9 14.01 13
  399.7 9.13 9
  399.8 11.48 11
  399.9 16.02 16
  400.0 18.74 18
  400.1 16.09 16
  400.2 9.07 9
  400.4 3.92 3
  400.5 10.33 10
  400.6 16.89 16
  400.7 17.86 17
  400.8 12.81 12
  401.0 6.34 6
  401.1 12.04 12
  401.2 19.47 19
  401.3 22.48 22
  401.4 18.55 18
  401.5 10.75 10
  401.7 6.63 6
  401.8 13.1 13
  401.9 19.0 18
  402.0 19.19 19
  402.1 13.78 13
  402.3 7.69 7
  402.4 12.62 12
  402.5 17.99 17
  402.6 18.42 18
  402.7 12.95 12
  402.9 3.26 3
  403.0 7.82 7
  403.1 16.33 16
  403.2 21.64 21
  403.3 18.69 18
  403.4 9.73 9
  403.6 4.11 4
  403.7 11.95 11
  403.8 19.13 19
  403.9 19.77 19
  404.0 14.37 14
  404.2 9.47 9
  404.3 15.3 15
  404.4 20.75 20
  404.5 20.16 20
  404.6 13.12 13
  404.9 4.19 4
  405.0 12.07 12
  405.1 18.56 18
  405.2 19.32 19
  405.3 14.36 14
  406.1 4.12 4
  406.2 8.05 8
  406.3 15.04 15
  406.4 18.78 18
  406.5 16.17 16
  406.6 9.76 9
  406.8 5.44 5
  406.9 11.28 11
  407.0 17.99 17
  407.1 19.6 19
  407.2 13.95 13
  407.4 1.76 1
  407.5 6.42 6
  407.6 15.84 15
  407.7 22.04 22
  407.8 19.65 19
  407.9 10.83 10
  408.1 3.52 3
  408.2 10.22 10
  408.3 17.04 17
  408.4 18.12 18
  408.5 13.28 13
  408.7 6.32 6
  408.8 10.48 10
  408.9 16.0 15
  409.0 17.81 17
  409.1 14.63 14
  410.0 8.43 8
  410.1 13.06 13
  410.2 16.32 16
  410.3 15.09 15
  410.4 10.32 10
  410.6 6.85 6
  410.7 12.07 12
  410.8 17.79 17
  410.9 19.02 19
  411.0 14.19 14
  411.1 6.7 6
  411.3 5.1 5
  411.4 12.36 12
  411.5 18.24 18
  411.6 17.89 17
  411.7 11.85 11
  411.9 4.61 4
  412.0 10.15 10
  412.1 17.38 17
  412.2 19.92 19
  412.3 15.83 15
  412.4 9.28 9
  412.6 8.85 8
  412.7 13.89 13
  412.8 16.44 16
  412.9 14.18 14
  413.2 8.18 8
  413.3 13.97 13
  413.4 18.2 18
  413.5 16.84 16
  413.6 10.74 10
  413.8 4.36 4
  413.9 9.67 9
  414.0 16.65 16
  414.1 19.7 19
  414.2 16.55 16
  414.3 9.99 9
  414.5 7.57 7
  414.6 14.63 14
  414.7 21.05 21
  414.8 21.13 21
  414.9 14.62 14
  415.1 5.24 5
  415.2 10.03 10
  415.3 17.29 17
  415.4 20.47 20
  415.5 16.27 16
  415.6 8.15 8
  415.8 6.42 6
  415.9 13.93 13
  416.0 19.38 19
  416.1 18.42 18
  416.2 12.58 12
  416.4 7.32 7
  416.5 12.37 12
  416.6 17.54 17
  416.7 17.62 17
  416.8 12.16 12
  417.0 4.52 4
  417.1 9.67 9
  417.2 17.0 16
  417.3 19.73 19
  417.4 15.04 15
  417.7 5.93 5
  417.8 14.09 14
  417.9 20.73 20
  418.0 21.35 21
  418.1 16.16 16
  418.4 10.57 10
  418.5 16.98 16
  418.6 20.41 20
  418.7 18.53 18
  418.8 14.08 14
  419.0 11.58 11
  419.1 13.55 13
  419.2 14.75 14
  419.3 13.57 13
  419.4 10.25 10
  419.6 7.44 7
  419.7 11.87 11
  419.8 17.29 17
  419.9 18.61 18
  420.0 13.72 13
  420.3 7.0 6
  420.4 14.92 14
  420.5 19.41 19
  420.6 16.55 16
  420.7 9.27 9
  420.9 5.78 5
  421.0 12.13 12
  421.1 18.02 18
  421.2 18.78 18
  421.3 14.09 14
  421.6 7.59 7
  421.7 12.85 12
  421.8 15.45 15
  421.9 12.75 12
  422.1 6.22 6
  422.2 10.21 10
  422.3 16.75 16
  422.4 20.65 20
  422.5 19.06 19
  422.6 13.53 13
  422.8 8.28 8
  422.9 12.84 12
  423.0 18.54 18
  423.1 20.14 20
  423.2 15.51 15
  423.5 8.38 8
  423.6 16.48 16
  423.7 21.58 21
  423.8 19.05 19
  423.9 11.76 11
  424.1 8.39 8
  424.2 14.06 14
  424.3 18.54 18
  424.4 18.0 17
  424.5 12.4 12
  424.7 4.14 4
  424.8 8.83 8
  424.9 16.22 16
  425.0 20.13 20
  425.1 17.4 17
  425.2 10.69 10
  425.4 8.56 8
  425.5 15.67 15
  425.6 20.39 20
  425.7 17.79 17
  425.8 10.37 10
  426.0 5.43 5
  426.1 10.29 10
  426.2 14.96 14
  426.3 15.57 15
  426.4 11.44 11
  426.6 4.98 4
  426.7 10.23 10
  426.8 18.04 18
  426.9 22.01 21
  427.0 18.86 18
  427.1 11.32 11
  427.3 6.39 6
  427.4 12.66 12
  427.5 18.78 18
  427.6 19.55 19
  427.7 14.76 14
  427.9 7.85 7
  428.0 11.79 11
  428.1 17.15 17
  428.2 18.55 18
  428.3 13.79 13
  428.5 3.1 3
  428.6 7.41 7
  428.7 16.09 16
  428.8 21.96 21
  428.9 20.56 20
  429.0 13.51 13
  429.2 5.85 5
  429.3 11.68 11
  429.4 19.03 19
  429.5 20.98 20
  429.6 15.44 15
  429.8 4.84 4
  429.9 9.36 9
  430.0 16.87 16
  430.1 20.71 20
  430.2 17.65 17
  430.3 10.66 10
  430.5 8.92 8
  430.6 15.42 15
  430.7 19.55 19
  430.8 17.04 17
  430.9 9.3 9
  431.1 0.68 0
  431.2 6.29 6
  431.3 14.44 14
  431.4 19.15 19
  431.5 17.4 17
  431.6 11.27 11
  431.8 8.57 8
  431.9 15.96 15
  432.0 21.9 21
  432.1 20.39 20
  432.2 12.76 12
  432.4 5.93 5
  432.5 12.01 11
  432.6 18.8 18
  432.7 20.63 20
  432.8 16.16 16
  433.0 7.29 7
  433.1 11.43 11
  433.2 18.22 18
  433.3 21.12 21
  433.4 16.95 16
  433.5 9.09 9
  433.7 6.17 6
  433.8 12.97 12
  433.9 18.5 18
  434.0 18.06 18
  434.1 12.43 12
  434.3 7.06 7
  434.4 13.21 13
  434.5 20.97 20
  434.6 24.24 24
  434.7 20.14 20
  434.8 11.75 11
  435.0 7.13 7
  435.1 13.78 13
  435.2 19.15 19
  435.3 18.03 18
  435.4 11.53 11
  435.6 4.41 4
  435.7 8.26 8
  435.8 12.68 12
  435.9 13.14 13
  436.0 9.0 8
  436.2 4.83 4
  436.3 10.32 10
  436.4 16.6 16
  436.5 18.56 18
  436.6 14.76 14
  436.7 8.24 8
  436.9 5.34 5
  437.0 11.15 11
  437.1 16.98 16
  437.2 18.19 18
  437.3 13.94 13
  437.5 6.76 6
  437.6 11.58 11
  437.7 18.39 18
  437.8 20.42 20
  437.9 15.41 15
  438.1 7.14 7
  438.2 12.78 12
  438.3 20.16 20
  438.4 22.47 22
  438.5 17.61 17
  438.6 9.58 9
  438.8 6.09 6
  438.9 12.24 12
  439.0 18.21 18
  439.1 19.35 19
  439.2 14.85 14
  439.4 6.96 6
  439.5 10.65 10
  439.6 16.32 16
  439.7 18.97 18
  439.8 16.4 16
  440.1 9.25 9
  440.2 16.1 16
  440.3 21.67 21
  440.4 20.73 20
  440.5 14.23 14
  440.7 8.72 8
  440.8 13.89 13
  440.9 18.47 18
  441.0 17.61 17
  441.1 11.44 11
  441.3 3.27 3
  441.4 7.94 7
  441.5 14.46 14
  441.6 17.52 17
  441.7 15.71 15
  441.8 11.47 11
  442.0 7.93 7
  442.1 11.21 11
  442.2 15.43 15
  442.3 16.29 16
  442.4 12.04 12
  442.6 5.19 5
  442.7 9.66 9
  442.8 16.06 16
  442.9 19.39 19
  443.0 17.37 17
  443.1 11.57 11
  443.3 6.03 6
  443.4 10.98 10
  443.5 16.67 16
  443.6 17.51 17
  443.7 12.42 12
  443.9 4.36 4
  444.0 9.84 9
  444.1 18.16 18
  444.2 21.86 21
  444.3 17.25 17
  444.4 8.4 8
  444.6 6.18 6
  444.7 13.48 13
  444.8 18.25 18
  444.9 16.54 16
  445.0 10.48 10
  445.2 6.42 6
  445.3 11.76 11
  445.4 17.59 17
  445.5 19.4 19
  445.6 15.8 15
  445.9 8.83 8
  446.0 15.07 15
  446.1 19.39 19
  446.2 17.42 17
  446.3 10.58 10
  446.5 6.43 6
  446.6 13.77 13
  446.7 20.59 20
  446.8 20.15 20
  446.9 12.36 12
  447.1 4.27 4
  447.2 11.07 11
  447.3 17.76 17
  447.4 17.92 17
  447.5 11.78 11
  447.7 3.9 3
  447.8 8.93 8
  447.9 16.01 15
  448.0 19.51 19
  448.1 16.99 16
  448.2 10.91 10
  448.4 7.79 7
  448.5 14.04 14
  448.6 20.09 20
  448.7 20.19 20
  448.8 13.57 13
  449.0 3.18 3
  449.1 8.02 8
  449.2 16.19 16
  449.3 20.95 20
  449.4 18.18 18
  449.5 10.33 10
  449.7 7.16 7
  449.8 15.94 15
  449.9 23.73 23
  450.0 23.83 23
  450.1 16.16 16
  450.3 5.35 5
  450.4 10.56 10
  450.5 17.37 17
  450.6 19.3 19
  450.7 14.83 14
  450.9 5.46 5
  451.0 9.32 9
  451.1 16.52 16
  451.2 20.56 20
  451.3 17.25 17
  451.4 8.87 8
  451.6 3.93 3
  451.7 11.55 11
  451.8 18.38 18
  451.9 18.43 18
  452.0 11.83 11
  452.2 4.44 4
  452.3 11.65 11
  452.4 20.41 20
  452.5 23.16 23
  452.6 17.95 17
  452.7 9.6 9
  452.9 5.54 5
  453.0 10.47 10
  453.1 14.94 14
  453.2 15.75 15
  453.3 13.12 13
  453.5 9.94 9
  453.6 13.6 13
  453.7 17.94 17
  453.8 18.31 18
  453.9 13.36 13
  454.1 5.29 5
  454.2 9.21 9
  454.3 15.09 15
  454.4 17.81 17
  454.5 15.12 15
  454.6 9.46 9
  454.8 7.74 7
  454.9 14.19 14
  455.0 20.47 20
  455.1 21.43 21
  455.2 15.91 15
  455.5 8.83 8
  455.6 16.5 16
  455.7 20.76 20
  455.8 18.12 18
  455.9 11.59 11
  456.1 8.37 8
  456.2 13.74 13
  456.3 18.83 18
  456.4 19.31 19
  456.5 14.37 14
  457.3 5.85 5
  457.4 10.39 10
  457.5 17.73 17
  457.6 22.3 22
  457.7 20.51 20
  457.8 13.71 13
  458.0 5.75 5
  458.1 9.81 9
  458.2 14.92 14
  458.3 15.9 15
  458.4 11.63 11
  458.6 3.71 3
  458.7 7.83 7
  458.8 15.24 15
  458.9 19.65 19
  459.0 16.99 16
  459.1 9.98 9
  459.3 7.81 7
  459.4 14.69 14
  459.5 19.65 19
  459.6 18.15 18
  459.7 11.4 11
  459.9 3.86 3
  460.0 9.04 9
  460.1 16.16 16
  460.2 19.19 19
  460.3 15.38 15
  461.2 3.27 3
  461.3 8.66 8
  461.4 14.77 14
  461.5 17.45 17
  461.6 15.49 15
  461.9 10.94 10
  462.0 15.91 15
  462.1 19.42 19
  462.2 17.87 17
  462.3 11.87 11
  462.5 5.36 5
  462.6 10.27 10
  462.7 16.32 16
  462.8 18.04 18
  462.9 14.37 14
  463.1 9.21 9
  463.2 13.61 13
  463.3 18.23 18
  463.4 17.71 17
  463.5 11.38 11
  463.7 2.87 2
  463.8 8.57 8
  463.9 16.98 16
  464.0 21.62 21
  464.1 19.34 19
  464.2 12.21 12
  464.4 5.82 5
  464.5 11.89 11
  464.6 18.83 18
  464.7 20.27 20
  464.8 14.93 14
  465.0 5.29 5
  465.1 10.32 10
  465.2 18.67 18
  465.3 22.74 22
  465.4 18.72 18
  465.5 10.26 10
  465.7 6.63 6
  465.8 12.99 12
  465.9 17.77 17
  466.0 16.73 16
  466.1 11.2 11
  466.3 7.49 7
  466.4 13.53 13
  466.5 19.58 19
  466.6 20.33 20
  466.7 14.91 14
  466.9 6.4 6
  467.0 10.79 10
  467.1 16.53 16
  467.2 17.46 17
  467.3 12.29 12
  467.6 4.31 4
  467.7 11.86 11
  467.8 18.83 18
  467.9 20.34 20
  468.0 15.88 15
  468.9 6.73 6
  469.0 14.36 14
  469.1 20.74 20
  469.2 20.98 20
  469.3 14.96 14
  470.1 4.52 4
  470.2 9.53 9
  470.3 17.39 17
  470.4 21.46 21
  470.5 18.59 18
  470.6 11.68 11
  470.8 6.27 6
  470.9 10.41 10
  471.0 14.97 14
  471.1 16.39 16
  471.2 13.71 13
  471.4 7.85 7
  471.5 10.69 10
  471.6 15.67 15
  471.7 18.05 18
  471.8 15.17 15
  472.1 8.39 8
  472.2 15.09 15
  472.3 20.03 20
  472.4 18.5 18
  472.5 11.5 11
  472.7 6.09 6
  472.8 13.3 13
  472.9 20.65 20
  473.0 21.7 21
  473.1 15.77 15
  473.4 7.94 7
  473.5 15.11 15
  473.6 20.25 20
  473.7 19.07 19
  473.8 13.06 13
  474.0 9.86 9
  474.1 16.02 16
  474.2 20.84 20
  474.3 19.51 19
  474.4 12.89 12
  474.6 5.98 5
  474.7 11.0 10
  474.8 16.61 16
  474.9 17.35 17
  475.0 12.32 12
  475.2 3.87 3
  475.3 8.27 8
  475.4 15.91 15
  475.5 21.1 21
  475.6 20.41 20
  475.7 14.91 14
  475.9 8.24 8
  476.0 13.22 13
  476.1 19.99 19
  476.2 21.97 21
  476.3 16.34 16
  476.4 7.34 7
  476.6 5.86 5
  476.7 13.87 13
  476.8 19.36 19
  476.9 17.91 17
  477.0 11.78 11
  477.2 7.87 7
  477.3 12.61 12
  477.4 16.83 16
  477.5 16.93 16
  477.6 12.7 12
  477.8 5.49 5
  477.9 9.09 9
  478.0 15.33 15
  478.1 18.61 18
  478.2 15.75 15
  478.3 9.3 9
  478.5 7.11 7
  478.6 13.01 12
  478.7 17.34 17
  478.8 16.46 16
  478.9 11.79 11
  479.1 8.14 8
  479.2 12.37 12
  479.3 17.23 17
  479.4 19.01 18
  479.5 16.35 16
  479.6 11.5 11
  479.8 10.25 10
  479.9 14.95 14
  480.0 18.23 18
  480.1 16.3 16
  480.2 10.2 10
  480.4 7.08 7
  480.5 14.45 14
  480.6 21.57 21
  480.7 22.06 22
  480.8 14.71 14
  481.0 1.6 1
  481.1 7.97 7
  481.2 19.14 19
  481.3 25.29 25
  481.4 21.45 21
  481.5 12.01 11
  481.7 6.46 6
  481.8 12.44 12
  481.9 17.92 17
  482.0 18.85 18
  482.1 14.87 14
  482.3 7.62 7
  482.4 11.37 11
  482.5 17.31 17
  482.6 19.13 19
  482.7 14.03 14
  482.8 5.87 5
  483.0 4.19 4
  483.1 11.17 11
  483.2 16.57 16
  483.3 16.46 16
  483.4 12.02 12
  483.6 9.58 9
  483.7 15.83 15
  483.8 22.23 22
  483.9 23.19 23
  484.0 17.31 17
  484.3 9.28 9
  484.4 16.81 16
  484.5 20.69 20
  484.6 17.06 17
  484.7 9.23 9
  484.9 6.96 6
  485.0 14.55 14
  485.1 20.62 20
  485.2 20.14 20
  485.3 13.72 13
  485.5 6.73 6
  485.6 13.1 13
  485.7 20.62 20
  485.8 22.29 22
  485.9 16.36 16
  486.0 7.79 7
  486.2 6.34 6
  486.3 13.09 13
  486.4 17.76 17
  486.5 16.74 16
  486.8 10.46 10
  486.9 16.11 16
  487.0 20.37 20
  487.1 19.13 19
  487.2 12.58 12
  487.4 3.05 3
  487.5 7.75 7
  487.6 15.92 15
  487.7 20.92 20
  487.8 18.62 18
  487.9 11.49 11
  488.1 7.45 7
  488.2 13.26 13
  488.3 17.87 17
  488.4 16.75 16
  488.5 10.65 10
  488.7 4.38 4
  488.8 9.37 9
  488.9 15.44 15
  489.0 17.42 17
  489.1 13.61 13
  489.4 8.22 8
  489.5 14.7 14
  489.6 18.52 18
  489.7 16.89 16
  490.0 10.07 10
  490.1 16.45 16
  490.2 22.22 22
  490.3 21.98 21
  490.4 15.14 15
  490.6 4.08 4
  490.7 8.56 8
  490.8 16.33 16
  490.9 20.8 20
  491.0 18.47 18
  491.1 11.81 11
  491.3 6.86 6
  491.4 11.47 11
  491.5 16.04 16
  491.6 16.44 16
  491.7 12.31 12
  491.9 6.8 6
  492.0 11.19 11
  492.1 17.17 17
  492.2 19.86 19
  492.3 17.23 17
  492.4 11.93 11
  492.6 10.45 10
  492.7 14.89 14
  492.8 17.69 17
  492.9 16.05 16
  493.0 11.15 11
  493.2 7.68 7
  493.3 12.35 12
  493.4 16.94 16
  493.5 17.31 17
  493.6 12.91 12
  493.8 5.31 5
  493.9 8.64 8
  494.0 14.64 14
  494.1 18.21 18
  494.2 15.94 15
  494.3 9.53 9
  494.5 5.94 5
  494.6 12.71 12
  494.7 18.89 18
  494.8 18.94 18
  494.9 13.22 13
  495.1 6.64 6
  495.2 10.69 10
  495.3 15.53 15
  495.4 16.96 16
  495.5 14.07 14
  495.7 8.67 8
  495.8 11.89 11
  495.9 17.32 17
  496.0 20.77 20
  496.1 19.31 19
  496.2 13.63 13
  496.4 7.68 7
  496.5 13.06 13
  496.6 19.64 19
  496.7 21.31 21
  496.8 16.05 16
  496.9 8.14 8
  497.1 7.39 7
  497.2 14.17 14
  497.3 18.68 18
  497.4 17.67 17
  497.5 12.73 12
  497.7 8.12 8
  497.8 11.44 11
  497.9 14.8 14
  498.0 14.83 14
  498.1 11.31 11
  498.3 6.7 6
  498.4 10.17 10
  498.5 14.95 14
  498.6 16.68 16
  498.7 13.32 13
  499.0 6.31 6
  499.1 13.71 13
  499.2 20.0 19
  499.3 19.71 19
  499.4 12.87 12
  499.6 3.25 3
  499.7 8.28 8
  499.8 15.29 15
  499.9 17.72 17
  500.0 13.4 13
  500.2 4.38 4
  500.3 9.74 9
  500.4 18.92 18
  500.5 24.49 24
  500.6 22.54 22
  500.7 15.82 15
  500.9 8.8 8
  501.0 12.01 11
  501.1 16.48 16
  501.2 17.69 17
  501.3 13.61 13
  501.6 8.41 8
  501.7 14.1 14
  501.8 17.18 17
  501.9 15.5 15
  502.0 10.85 10
  502.2 8.72 8
  502.3 13.02 13
  502.4 15.82 15
  502.5 14.1 14
  502.6 9.44 9
  502.8 7.47 7
  502.9 12.02 12
  503.0 16.03 16
  503.1 16.13 16
  503.2 12.28 12
  503.4 7.12 7
  503.5 11.25 11
  503.6 17.38 17
  503.7 20.4 20
  503.8 17.81 17
  503.9 11.91 11
  504.1 8.65 8
  504.2 13.3 13
  504.3 17.09 17
  504.4 15.92 15
  504.5 10.07 10
  504.7 4.53 4
  504.8 9.91 9
  504.9 15.72 15
  505.0 17.0 16
  505.1 12.93 12
  505.3 4.42 4
  505.4 7.95 7
  505.5 15.7 15
  505.6 21.7 21
  505.7 20.9 20
  505.8 14.01 13
  506.0 5.93 5
  506.1 11.03 11
  506.2 17.22 17
  506.3 18.44 18
  506.4 13.07 13
  506.7 5.62 5
  506.8 13.51 13
  506.9 19.81 19
  507.0 19.99 19
  507.1 14.78 14
  507.3 8.91 8
  507.4 13.15 13
  507.5 17.45 17
  507.6 16.92 16
  507.7 11.02 11
  507.9 2.96 2
  508.0 8.59 8
  508.1 16.89 16
  508.2 20.56 20
  508.3 16.2 16
  508.4 7.91 7
  508.6 5.99 5
  508.7 12.8 12
  508.8 17.51 17
  508.9 16.21 16
  509.0 10.45 10
  509.2 6.73 6
  509.3 12.52 12
  509.4 17.86 17
  509.5 18.16 18
  509.6 13.34 13
  509.8 5.39 5
  509.9 8.87 8
  510.0 15.04 15
  510.1 18.17 18
  510.2 14.51 14
  510.3 6.4 6
  510.5 3.97 3
  510.6 13.76 13
  510.7 22.53 22
  510.8 23.16 23
  510.9 15.83 15
  511.1 4.86 4
  511.2 9.79 9
  511.3 17.46 17
  511.4 21.28 21
  511.5 18.23 18
  511.6 11.27 11
  511.8 7.94 7
  511.9 13.85 13
  512.0 18.52 18
  512.1 17.5 17
  512.2 11.94 11
  512.4 7.31 7
  512.5 11.91 11
  512.6 17.13 17
  512.7 18.53 18
  512.8 14.36 14
  513.7 5.64 5
  513.8 10.32 10
  513.9 13.93 13
  514.0 13.76 13
  514.3 8.18 8
  514.4 13.81 13
  514.5 19.57 19
  514.6 20.09 20
  514.7 14.61 14
  515.0 9.09 9
  515.1 15.19 15
  515.2 18.74 18
  515.3 16.6 16
  515.4 10.39 10
  515.6 6.19 6
  515.7 11.86 11
  515.8 17.32 17
  515.9 17.94 17
  516.0 13.8 13
  516.2 7.4 7
  516.3 10.37 10
  516.4 15.09 15
  516.5 17.16 17
  516.6 13.92 13
  516.7 7.34 7
  516.9 5.48 5
  517.0 12.97 12
  517.1 18.73 18
  517.2 17.16 17
  517.3 9.68 9
  517.5 4.94 4
  517.6 12.41 12
  517.7 19.14 19
  517.8 19.54 19
  517.9 14.15 14
  518.1 6.94 6
  518.2 10.49 10
  518.3 15.62 15
  518.4 17.71 17
  518.5 14.6 14
  518.6 8.41 8
  518.8 5.7 5
  518.9 11.17 11
  519.0 15.69 15
  519.1 15.46 15
  519.2 10.98 10
  519.4 5.0 4
  519.5 9.23 9
  519.6 16.68 16
  519.7 21.65 21
  519.8 19.49 19
  519.9 11.59 11
  520.1 4.49 4
  520.2 10.78 10
  520.3 17.6 17
  520.4 18.23 18
  520.5 11.42 11
  520.7 2.71 2
  520.8 9.94 9
  520.9 18.94 18
  521.0 22.26 22
  521.1 17.6 17
  521.2 9.06 9
  521.4 6.17 6
  521.5 14.04 14
  521.6 20.46 20
  521.7 20.08 20
  521.8 13.79 13
  522.0 6.45 6
  522.1 11.72 11
  522.2 18.09 18
  522.3 18.99 18
  522.4 12.84 12
  522.6 4.46 4
  522.7 11.53 11
  522.8 20.8 20
  522.9 24.39 24
  523.0 19.44 19
  523.1 10.28 10
  523.3 6.02 6
  523.4 12.75 12
  523.5 17.94 17
  523.6 17.01 16
  523.7 11.39 11
  523.9 7.31 7
  524.0 11.83 11
  524.1 15.91 15
  524.2 15.74 15
  524.3 10.96 10
  524.5 2.81 2
  524.6 7.02 7
  524.7 15.46 15
  524.8 21.88 21
  524.9 20.8 20
  525.0 12.62 12
  525.2 2.92 2
  525.3 9.28 9
  525.4 17.04 17
  525.5 19.27 19
  525.6 14.58 14
  525.9 8.34 8
  526.0 15.56 15
  526.1 20.29 20
  526.2 18.65 18
  526.3 12.61 12
  526.5 8.52 8
  526.6 12.95 12
  526.7 16.11 16
  526.8 14.84 14
  527.1 11.32 11
  527.2 16.18 16
  527.3 19.19 19
  527.4 17.38 17
  527.5 11.58 11
  527.7 5.32 5
  527.8 9.76 9
  527.9 15.72 15
  528.0 18.95 18
  528.1 17.76 17
  528.2 13.43 13
  528.4 8.71 8
  528.5 12.56 12
  528.6 17.43 17
  528.7 18.35 18
  528.8 14.06 14
  529.0 7.22 7
  529.1 11.46 11
  529.2 17.84 17
  529.3 20.85 20
  529.4 17.72 17
  529.5 10.78 10
  529.7 5.97 5
  529.8 10.53 10
  529.9 14.25 14
  530.0 13.4 13
  530.1 8.9 8
  530.3 6.63 6
  530.4 12.65 12
  530.5 19.21 19
  530.6 21.28 21
  530.7 17.22 17
  530.8 10.6 10
  531.0 9.78 9
  531.1 15.52 15
  531.2 19.46 19
  531.3 18.66 18
  531.4 14.24 14
  531.6 10.53 10
  531.7 15.25 15
  531.8 20.48 20
  531.9 21.31 21
  532.0 16.37 16
  532.1 9.26 9
  532.3 7.58 7
  532.4 12.59 12
  532.5 15.42 15
  532.6 13.44 13
  532.8 6.36 6
  532.9 9.2 9
  533.0 16.16 16
  533.1 21.91 21
  533.2 21.23 21
  533.3 14.02 14
  533.5 4.53 4
  533.6 9.89 9
  533.7 16.94 16
  533.8 19.43 19
  533.9 15.57 15
  534.0 8.99 8
  534.2 7.89 7
  534.3 13.92 13
  534.4 18.03 18
  534.5 16.75 16
  534.6 11.66 11
  534.8 8.08 8
  534.9 12.89 12
  535.0 18.17 18
  535.1 19.09 19
  535.2 13.96 13
  535.4 3.44 3
  535.5 7.74 7
  535.6 15.78 15
  535.7 20.4 20
  535.8 17.68 17
  535.9 10.47 10
  536.1 6.59 6
  536.2 13.09 13
  536.3 19.05 19
  536.4 19.14 19
  536.5 13.2 13
  536.7 5.36 5
  536.8 10.55 10
  536.9 17.53 17
  537.0 20.25 20
  537.1 16.66 16
  537.2 10.3 10
  537.4 9.1 9
  537.5 15.16 15
  537.6 19.51 19
  537.7 18.22 18
  537.8 12.63 12
  538.0 8.76 8
  538.1 14.34 14
  538.2 19.83 19
  538.3 19.7 19
  538.4 13.2 13
  538.6 2.96 2
  538.7 7.74 7
  538.8 15.79 15
  538.9 20.54 20
  539.0 17.99 17
  539.1 10.5 10
  539.3 8.1 8
  539.4 16.99 16
  539.5 24.01 23
  539.6 22.83 22
  539.7 14.88 14
  539.9 6.91 6
  540.0 12.61 12
  540.1 18.75 18
  540.2 19.25 19
  540.3 13.12 13
  540.5 3.05 3
  540.6 8.3 8
  540.7 17.38 17
  540.8 23.35 23
  540.9 21.41 21
  541.0 13.04 13
  541.2 5.18 5
  541.3 11.81 11
  541.4 18.33 18
  541.5 18.48 18
  541.6 12.77 12
  541.8 7.33 7
  541.9 13.04 13
  542.0 19.46 19
  542.1 20.81 20
  542.2 15.52 15
  542.4 4.12 4
  542.5 8.27 8
  542.6 16.91 16
  542.7 22.8 22
  542.8 21.08 21
  542.9 13.47 13
  543.1 6.26 6
  543.2 12.08 12
  543.3 18.65 18
  543.4 20.24 20
  543.5 15.83 15
  543.8 9.89 9
  543.9 15.64 15
  544.0 19.05 19
  544.1 17.01 16
  544.2 11.19 11
  544.4 7.21 7
  544.5 12.92 12
  544.6 19.17 19
  544.7 20.48 20
  544.8 15.37 15
  545.1 8.1 8
  545.2 14.7 14
  545.3 18.33 18
  545.4 15.5 15
  545.5 8.58 8
  545.7 6.27 6
  545.8 14.18 14
  545.9 20.82 20
  546.0 20.43 20
  546.1 13.69 13
  546.3 5.76 5
  546.4 10.32 10
  546.5 15.88 15
  546.6 17.42 17
  546.7 13.78 13
  546.9 6.25 6
  547.0 10.17 10
  547.1 16.86 16
  547.2 20.46 20
  547.3 18.03 18
  547.4 11.54 11
  547.6 5.16 5
  547.7 10.56 10
  547.8 17.91 17
  547.9 20.6 20
  548.0 15.62 15
  548.3 6.27 6
  548.4 14.57 14
  548.5 19.91 19
  548.6 18.02 18
  548.7 11.83 11
  548.9 10.09 10
  549.0 15.96 15
  549.1 19.88 19
  549.2 17.76 17
  549.3 10.34 10
  549.5 1.71 1
  549.6 7.85 7
  549.7 16.69 16
  549.8 20.46 20
  549.9 15.79 15
  550.1 4.29 4
  550.2 9.33 9
  550.3 17.93 17
  550.4 22.12 22
  550.5 18.48 18
  550.6 10.81 10
  550.8 8.55 8
  550.9 15.09 15
  551.0 19.83 19
  551.1 18.31 18
  551.2 11.37 11
  551.4 3.54 3
  551.5 9.3 9
  551.6 16.93 16
  551.7 19.67 19
  551.8 14.64 14
  551.9 5.72 5
  552.1 3.83 3
  552.2 13.03 13
  552.3 20.21 20
  552.4 19.26 19
  552.5 11.33 11
  552.7 3.82 3
  552.8 11.52 11
  552.9 19.9 19
  553.0 21.03 21
  553.1 13.91 13
  553.3 3.09 3
  553.4 8.5 8
  553.5 16.48 16
  553.6 20.36 20
  553.7 17.56 17
  553.8 11.21 11
  554.0 8.1 8
  554.1 13.64 13
  554.2 18.71 18
  554.3 18.3 18
  554.4 11.32 11
  554.6 0.36 0
  554.7 6.7 6
  554.8 16.79 16
  554.9 22.19 22
  555.0 19.03 19
  555.1 11.37 11
  555.3 8.38 8
  555.4 13.78 13
  555.5 16.69 16
  555.6 14.08 14
  555.9 8.05 8
  556.0 13.97 13
  556.1 19.14 19
  556.2 19.75 19
  556.3 15.03 15
  556.4 8.14 8
  556.6 6.67 6
  556.7 13.12 13
  556.8 18.07 18
  556.9 17.4 17
  557.0 11.89 11
  557.2 5.51 5
  557.3 10.7 10
  557.4 17.46 17
  557.5 19.46 19
  557.6 14.42 14
  557.8 4.73 4
  557.9 9.6 9
  558.0 17.28 17
  558.1 21.52 21
  558.2 19.63 19
  558.3 13.7 13
  558.5 7.18 7
  558.6 11.17 11
  558.7 16.42 16
  558.8 18.07 18
  558.9 14.78 14
  559.1 8.34 8
  559.2 11.93 11
  559.3 17.71 17
  559.4 20.06 20
  559.5 15.96 15
  559.6 8.44 8
  559.8 7.05 7
  559.9 14.25 14
  560.0 19.14 19
  560.1 17.58 17
  560.2 11.52 11
  560.4 6.84 6
  560.5 11.58 11
  560.6 16.38 16
  560.7 16.56 16
  560.8 10.94 10
  561.0 2.44 2
  561.1 9.33 9
  561.2 19.4 19
  561.3 23.79 23
  561.4 18.68 18
  561.5 8.8 8
  561.7 4.0 3
  561.8 11.31 11
  561.9 17.84 17
  562.0 18.25 18
  562.1 12.76 12
  562.3 5.63 5
  562.4 10.16 10
  562.5 15.78 15
  562.6 16.93 16
  562.7 12.12 12
  562.9 3.18 3
  563.0 7.83 7
  563.1 15.76 15
  563.2 20.51 20
  563.3 18.22 18
  563.4 10.88 10
  563.6 4.36 4
  563.7 9.74 9
  563.8 15.83 15
  563.9 17.82 17
  564.0 14.79 14
  564.2 8.1 8
  564.3 11.55 11
  564.4 17.55 17
  564.5 19.97 19
  564.6 15.24 15
  564.7 6.52 6
  564.9 3.66 3
  565.0 11.58 11
  565.1 17.91 17
  565.2 17.51 17
  565.3 11.3 11
  565.5 2.99 2
  565.6 7.84 7
  565.7 15.43 15
  565.8 19.37 19
  565.9 16.08 16
  566.2 7.87 7
  566.3 16.61 16
  566.4 22.32 22
  566.5 19.43 19
  566.6 10.54 10
  566.8 3.84 3
  566.9 10.09 10
  567.0 16.36 16
  567.1 17.44 17
  567.2 12.99 12
  567.4 6.55 6
  567.5 10.81 10
  567.6 16.22 16
  567.7 17.62 17
  567.8 13.61 13
  568.7 2.45 2
  568.8 8.88 8
  568.9 16.21 16
  569.0 19.34 19
  569.1 16.39 16
  569.2 10.58 10
  569.4 9.61 9
  569.5 14.59 14
  569.6 17.03 17
  569.7 14.31 14
  570.0 7.0 6
  570.1 14.08 14
  570.2 21.05 21
  570.3 22.13 22
  570.4 16.23 16
  570.6 6.68 6
  570.7 11.14 11
  570.8 17.45 17
  570.9 19.55 19
  571.0 15.38 15
  571.1 8.08 8
  571.3 3.3 3
  571.4 8.37 8
  571.5 14.18 14
  571.6 16.29 16
  571.7 13.06 13
  571.9 5.23 5
  572.0 8.63 8
  572.1 14.69 14
  572.2 17.61 17
  572.3 14.88 14
  572.6 9.18 9
  572.7 15.1 15
  572.8 19.16 19
  572.9 17.66 17
  573.0 11.68 11
  573.2 5.85 5
  573.3 10.56 10
  573.4 16.51 16
  573.5 19.13 19
  573.6 16.62 16
  574.5 6.29 6
  574.6 14.21 14
  574.7 20.68 20
  574.8 21.5 21
  574.9 16.79 16
  575.0 10.46 10
  575.2 8.89 8
  575.3 13.58 13
  575.4 16.61 16
  575.5 14.91 14
  575.8 9.8 9
  575.9 15.95 15
  576.0 20.88 20
  576.1 19.83 19
  576.2 12.43 12
  576.4 1.69 1
  576.5 7.44 7
  576.6 15.93 15
  576.7 19.66 19
  576.8 16.08 16
  577.1 10.38 10
  577.2 16.74 16
  577.3 20.22 20
  577.4 17.74 17
  577.5 11.77 11
  577.7 9.44 9
  577.8 14.59 14
  577.9 18.08 18
  578.0 16.45 16
  578.1 10.97 10
  578.3 6.63 6
  578.4 11.93 11
  578.5 18.05 18
  578.6 19.77 19
  578.7 15.4 15
  579.0 7.84 7
  579.1 14.55 14
  579.2 19.65 19
  579.3 18.73 18
  579.4 12.2 12
  579.6 5.18 5
  579.7 12.56 12
  579.8 21.85 21
  579.9 24.83 24
  580.0 18.72 18
  580.1 9.08 9
  580.3 8.27 8
  580.4 15.76 15
  580.5 19.4 19
  580.6 16.01 15
  580.9 9.9 9
  581.0 16.21 16
  581.1 19.22 19
  581.2 16.71 16
  581.3 11.77 11
  581.5 10.77 10
  581.6 15.55 15
  581.7 19.41 19
  581.8 18.94 18
  581.9 13.85 13
  582.2 6.38 6
  582.3 13.61 13
  582.4 19.58 19
  582.5 18.48 18
  582.6 10.91 10
  582.8 5.3 5
  582.9 14.05 14
  583.0 22.75 22
  583.1 23.54 23
  583.2 15.43 15
  583.4 3.15 3
  583.5 9.88 9
  583.6 19.24 19
  583.7 22.95 22
  583.8 18.6 18
  583.9 10.66 10
  584.1 6.99 6
  584.2 12.89 12
  584.3 18.02 18
  584.4 17.87 17
  584.5 12.94 12
  584.7 9.13 9
  584.8 14.81 14
  584.9 20.69 20
  585.0 21.63 21
  585.1 16.5 16
  585.2 9.31 9
  585.4 8.57 8
  585.5 14.43 14
  585.6 17.81 17
  585.7 15.14 15
  586.0 7.12 7
  586.1 14.76 14
  586.2 20.74 20
  586.3 20.38 20
  586.4 14.61 14
  586.7 9.6 9
  586.8 15.19 15
  586.9 18.49 18
  587.0 16.72 16
  587.1 11.15 11
  587.3 5.82 5
  587.4 10.2 10
  587.5 15.37 15
  587.6 16.71 16
  587.7 13.21 13
  587.9 8.99 8
  588.0 14.35 14
  588.1 20.1 20
  588.2 20.21 20
  588.3 13.75 13
  588.5 4.54 4
  588.6 10.32 10
  588.7 18.94 18
  588.8 23.35 23
  588.9 20.15 20
  589.0 12.35 12
  589.2 8.04 8
  589.3 14.64 14
  589.4 20.84 20
  589.5 21.63 21
  589.6 16.75 16
  590.4 4.43 4
  590.5 8.4 8
  590.6 16.2 16
  590.7 21.02 20
  590.8 18.48 18
  590.9 10.47 10
  591.1 3.4 3
  591.2 9.79 9
  591.3 16.96 16
  591.4 18.66 18
  591.5 13.78 13
  592.4 7.03 7
  592.5 12.8 12
  592.6 18.0 17
  592.7 17.68 17
  592.8 12.04 12
  593.0 4.16 4
  593.1 7.8 7
  593.2 13.98 13
  593.3 18.22 18
  593.4 17.7 17
  593.5 13.72 13
  593.7 11.05 11
  593.8 14.92 14
  593.9 18.73 18
  594.0 18.94 18
  594.1 14.79 14
  594.3 8.44 8
  594.4 13.23 13
  594.5 19.7 19
  594.6 21.05 21
  594.7 15.09 15
  594.9 4.26 4
  595.0 8.96 8
  595.1 16.78 16
  595.2 21.23 21
  595.3 18.67 18
  595.4 11.2 11
  595.6 6.12 6
  595.7 13.01 12
  595.8 19.52 19
  595.9 20.13 20
  596.0 14.54 14
  596.1 7.16 7
  596.3 5.2 5
  596.4 11.27 11
  596.5 16.63 16
  596.6 17.16 17
  596.7 13.15 13
  596.9 10.3 10
  597.0 15.47 15
  597.1 19.89 19
  597.2 18.98 18
  597.3 13.07 13
  597.5 6.38 6
  597.6 11.8 11
  597.7 18.94 18
  597.8 21.41 21
  597.9 16.75 16
  598.0 8.77 8
  598.2 6.86 6
  598.3 13.78 13
  598.4 18.39 18
  598.5 16.01 15
  598.6 8.75 8
  598.8 5.47 5
  598.9 12.76 12
  599.0 19.44 19
  599.1 20.84 20
  599.2 16.72 16
//
