ACCESSION: MSBNK-RIKEN_NPDepo-NGA01303
RECORD_TITLE: Acetylenoxolone; LC-ESI-QQQ; MS2; Frag=135.0V CID@15.0; [M+H]+
DATE: 2018.04.04
AUTHORS: Nogawa T, Okano A, CSRS, RIKEN
LICENSE: CC BY
COMMENT: Origin: Animal
COMMENT: SubCategory_DNP: Triterpenoids
CH$NAME: Acetylenoxolone
CH$COMPOUND_CLASS: Terpenoids
CH$FORMULA: C32H48O5
CH$EXACT_MASS: 512.7364
CH$SMILES: CC(=O)O[C@H]1CC[C@@]2(C)C(CC[C@]3(C)C2C(=O)C=C2C4C[C@@](C)(C(=O)O)CC[C@]4(C)CC[C@]23C)C1(C)C
CH$IUPAC: InChI=1S/C32H48O5/c1-19(33)37-24-10-11-30(6)23(27(24,2)3)9-12-32(8)25(30)22(34)17-20-21-18-29(5,26(35)36)14-13-28(21,4)15-16-31(20,32)7/h17,21,23-25H,9-16,18H2,1-8H3,(H,35,36)/t21?,23?,24-,25?,28+,29-,30-,31+,32+/m0/s1
CH$LINK: CAS 6277-14-1
CH$LINK: CHEMSPIDER 85123
CH$LINK: INCHIKEY FTQDJVZNPJRVPG-PPPKKFIDSA-N
AC$INSTRUMENT: Agilent 6410 Triple Quadrupole LC/MS system
AC$INSTRUMENT_TYPE: LC-ESI-QQQ
AC$MASS_SPECTROMETRY: MS_TYPE MS2
AC$MASS_SPECTROMETRY: ION_MODE POSITIVE
MS$FOCUSED_ION: PRECURSOR_TYPE [M+H]+
PK$SPLASH: splash10-03di-0000090000-a9e9d6ca2d8cb2a9133e
PK$NUM_PEAK: 16
PK$PEAK: m/z int. rel.int.
  512.4 0.91 0
  512.5 2.25 2
  512.6 4.58 4
  512.7 9.03 9
  512.8 17.33 17
  512.9 30.85 30
  513.0 49.16 49
  513.1 69.11 69
  513.2 86.08 85
  513.3 96.87 96
  513.4 100.0 99
  513.5 92.86 92
  513.6 72.6 72
  513.7 42.68 42
  513.8 14.55 14
  513.9 0.23 0
//
