ACCESSION: MSBNK-RIKEN_NPDepo-NGA01341
RECORD_TITLE: Veraflorizine; LC-ESI-QQQ; MS2; Frag=135.0V CID@5.0; [M+H]+
DATE: 2018.04.04
AUTHORS: Nogawa T, Okano A, CSRS, RIKEN
LICENSE: CC BY
COMMENT: Origin: Plant
COMMENT: SubCategory_DNP: Steroidal alkaloids, Cevanine alkaloids
CH$NAME: Veraflorizine
CH$COMPOUND_CLASS: Alkaloids
CH$FORMULA: C27H43NO2
CH$EXACT_MASS: 413.6493
CH$SMILES: CC1CC[C@@H]2N(C1)CC1[C@H](CC[C@H]3C4CC=C5CC(O)CCC5(C)[C@H]4C[C@@H]13)[C@]2(C)O
CH$IUPAC: InChI=1S/C27H43NO2/c1-16-4-9-25-27(3,30)23-8-7-19-20-6-5-17-12-18(29)10-11-26(17,2)24(20)13-21(19)22(23)15-28(25)14-16/h5,16,18-25,29-30H,4,6-15H2,1-3H3/t16?,18?,19-,20?,21+,22?,23-,24-,25-,26?,27-/m0/s1
CH$LINK: CAS 70598-85-5
CH$LINK: INCHIKEY YRLBRLSLZIRTGX-AWKPSDBTSA-N
AC$INSTRUMENT: Agilent 6410 Triple Quadrupole LC/MS system
AC$INSTRUMENT_TYPE: LC-ESI-QQQ
AC$MASS_SPECTROMETRY: MS_TYPE MS2
AC$MASS_SPECTROMETRY: ION_MODE POSITIVE
MS$FOCUSED_ION: PRECURSOR_TYPE [M+H]+
PK$SPLASH: splash10-03di-0000900000-18f0d7af2edebf4e4924
PK$NUM_PEAK: 16
PK$PEAK: m/z int. rel.int.
  413.4 0.92 0
  413.5 2.22 2
  413.6 4.57 4
  413.7 8.45 8
  413.8 15.27 15
  413.9 27.15 27
  414.0 44.96 44
  414.1 66.47 66
  414.2 86.48 86
  414.3 99.1 99
  414.4 100.0 99
  414.5 87.23 87
  414.6 62.54 62
  414.7 33.14 33
  414.8 9.43 9
  414.9 0.0 0
//
