ACCESSION: MSBNK-RIKEN_NPDepo-NGA01141
RECORD_TITLE: Hupehemonoside; LC-ESI-QQQ; MS2; Frag=135.0V CID@25.0; [M+H]+
DATE: 2018.04.04
AUTHORS: Nogawa T, Okano A, CSRS, RIKEN
LICENSE: CC BY
COMMENT: Origin: Plant
COMMENT: SubCategory_DNP: Steroidal alkaloids, Cevanine alkaloids
CH$NAME: Hupehemonoside
CH$COMPOUND_CLASS: Alkaloids
CH$FORMULA: C33H53NO8
CH$EXACT_MASS: 591.7923
CH$SMILES: CC1CC[C@@H]2N(C1)CC1C(CC[C@H]3[C@@H]4CC(=O)[C@H]5CC(O[C@@H]6O[C@H](CO)[C@@H](O)[C@H](O)[C@H]6O)CC[C@]5(C)[C@H]4C[C@@H]13)[C@]2(C)O
CH$IUPAC: InChI=1S/C33H53NO8/c1-16-4-7-27-33(3,40)22-6-5-18-19(21(22)14-34(27)13-16)11-23-20(18)12-25(36)24-10-17(8-9-32(23,24)2)41-31-30(39)29(38)28(37)26(15-35)42-31/h16-24,26-31,35,37-40H,4-15H2,1-3H3/t16?,17?,18-,19-,20+,21?,22?,23+,24-,26-,27+,28-,29+,30-,31-,32-,33+/m1/s1
CH$LINK: CAS 143120-88-1
CH$LINK: CHEMSPIDER 117023
CH$LINK: INCHIKEY DHQFYEJMFMYGCV-CRPZZPISSA-N
AC$INSTRUMENT: Agilent 6410 Triple Quadrupole LC/MS system
AC$INSTRUMENT_TYPE: LC-ESI-QQQ
AC$MASS_SPECTROMETRY: MS_TYPE MS2
AC$MASS_SPECTROMETRY: ION_MODE POSITIVE
MS$FOCUSED_ION: PRECURSOR_TYPE [M+H]+
PK$SPLASH: splash10-0006-0000090000-a06918c871937e59b410
PK$NUM_PEAK: 30
PK$PEAK: m/z int. rel.int.
  573.6 2.04 2
  573.7 3.54 3
  573.8 5.83 5
  573.9 9.68 9
  574.0 15.48 15
  574.1 22.25 22
  574.2 28.3 28
  574.3 32.55 32
  574.4 34.51 34
  574.5 33.21 33
  574.6 27.54 27
  574.7 18.17 18
  574.8 8.24 8
  574.9 1.53 1
  591.4 1.33 1
  591.5 3.66 3
  591.6 7.07 7
  591.7 11.57 11
  591.8 18.38 18
  591.9 29.43 29
  592.0 45.54 45
  592.1 65.1 65
  592.2 83.94 83
  592.3 96.84 96
  592.4 100.0 99
  592.5 92.26 92
  592.6 74.2 74
  592.7 48.64 48
  592.8 22.41 22
  592.9 3.92 3
//
