ACCESSION: MSBNK-RIKEN_NPDepo-NGA05145
RECORD_TITLE: astragaloside IV; LC-ESI-QQQ; MS2; Frag=135.0V CID@10.0; [M+HCOO]-
DATE: 2018.04.04
AUTHORS: Nogawa T, Okano A, CSRS, RIKEN
LICENSE: CC BY
COMMENT: Origin: Plant
COMMENT: SubCategory_DNP: Triterpenoids
CH$NAME: astragaloside IV
CH$COMPOUND_CLASS: Terpenoids
CH$FORMULA: C41H68O14
CH$EXACT_MASS: 784.9907
CH$SMILES: C[C@]12CC[C@@]34C[C@@]35CC[C@@H](C([C@@H]5[C@H](C[C@H]4[C@@]1(C[C@@H]([C@@H]2[C@]6(CC[C@H](O6)C(C)(C)O)C)O)C)O[C@H]7[C@@H]([C@H]([C@@H]([C@H](O7)CO)O)O)O)(C)C)O[C@H]8[C@@H]([C@H]([C@@H](CO8)O)O)O
CH$IUPAC: InChI=1S/C41H68O14/c1-35(2)24(54-33-29(48)26(45)20(44)17-51-33)9-11-41-18-40(41)13-12-37(5)31(39(7)10-8-25(55-39)36(3,4)50)19(43)15-38(37,6)23(40)14-21(32(35)41)52-34-30(49)28(47)27(46)22(16-42)53-34/h19-34,42-50H,8-18H2,1-7H3/t19-,20+,21-,22+,23-,24-,25-,26-,27+,28-,29+,30+,31-,32-,33-,34+,37+,38-,39+,40-,41+/m0/s1
CH$LINK: CAS 84687-43-4
CH$LINK: CHEMSPIDER 21111734
CH$LINK: INCHIKEY QMNWISYXSJWHRY-YLNUDOOFSA-N
CH$LINK: PUBCHEM CID:13943297
AC$INSTRUMENT: Agilent 6410 Triple Quadrupole LC/MS system
AC$INSTRUMENT_TYPE: LC-ESI-QQQ
AC$MASS_SPECTROMETRY: MS_TYPE MS2
AC$MASS_SPECTROMETRY: ION_MODE NEGATIVE
MS$FOCUSED_ION: PRECURSOR_TYPE [M+HCOO]-
PK$SPLASH: splash10-004i-0000000090-e550c3319844b4d8590b
PK$NUM_PEAK: 20
PK$PEAK: m/z int. rel.int.
  828.0 1.32 1
  828.1 1.96 1
  828.2 2.95 2
  828.3 5.59 5
  828.4 11.09 11
  828.5 18.97 18
  828.6 27.95 27
  828.7 38.02 37
  828.8 49.8 49
  828.9 62.62 62
  829.0 74.75 74
  829.1 84.77 84
  829.2 92.14 92
  829.3 97.35 97
  829.4 100.0 99
  829.5 95.42 95
  829.6 77.29 77
  829.7 47.21 47
  829.8 17.44 17
  829.9 0.93 0
//
