ACCESSION: MSBNK-RIKEN_NPDepo-NGA00936
RECORD_TITLE: 13-Episclareol; LC-ESI-QQQ; MS2; Frag=135.0V CID@5.0; [M+Na]+
DATE: 2018.04.04
AUTHORS: Nogawa T, Okano A, CSRS, RIKEN
LICENSE: CC BY
COMMENT: Origin: Plant
COMMENT: SubCategory_DNP: Diterpenoids, Labdane diterpenoids, Sclareol diterpenoids
CH$NAME: 13-Episclareol
CH$COMPOUND_CLASS: Terpenoids
CH$FORMULA: C20H36O2
CH$EXACT_MASS: 308.5087
CH$SMILES: C=C[C@](C)(O)CC[C@@H]1[C@@]2(C)CCCC(C)(C)C2CC[C@@]1(C)O
CH$IUPAC: InChI=1S/C20H36O2/c1-7-18(4,21)13-9-16-19(5)12-8-11-17(2,3)15(19)10-14-20(16,6)22/h7,15-16,21-22H,1,8-14H2,2-6H3/t15?,16-,18+,19+,20-/m1/s1
CH$LINK: CAS 4630-08-4
CH$LINK: CHEMSPIDER 5442566
CH$LINK: INCHIKEY XVULBTBTFGYVRC-FFADBYAMSA-N
CH$LINK: PUBCHEM CID:73114
AC$INSTRUMENT: Agilent 6410 Triple Quadrupole LC/MS system
AC$INSTRUMENT_TYPE: LC-ESI-QQQ
AC$MASS_SPECTROMETRY: MS_TYPE MS2
AC$MASS_SPECTROMETRY: ION_MODE POSITIVE
MS$FOCUSED_ION: PRECURSOR_TYPE [M+Na]+
PK$SPLASH: splash10-001i-0009000000-e589c82003b695eb4859
PK$NUM_PEAK: 15
PK$PEAK: m/z int. rel.int.
  330.4 0.65 0
  330.5 2.98 2
  330.6 6.89 6
  330.7 12.13 12
  330.8 19.99 19
  330.9 32.88 32
  331.0 51.5 51
  331.1 72.6 72
  331.2 90.46 90
  331.3 100.0 99
  331.4 97.42 97
  331.5 80.11 80
  331.6 50.55 50
  331.7 19.58 19
  331.8 0.95 0
//
