ACCESSION: MSBNK-RIKEN_NPDepo-NGA03571
RECORD_TITLE: Kokanidin; LC-ESI-QQQ; MS2; Frag=135.0V CID@10.0; [M+HCOO]-
DATE: 2018.04.04
AUTHORS: Nogawa T, Okano A, CSRS, RIKEN
LICENSE: CC BY
COMMENT: Origin: Plant, Coumarins, Coumarin terpenoids
CH$NAME: Kokanidin
CH$COMPOUND_CLASS: Benzopyranoids
CH$FORMULA: C26H34O6
CH$EXACT_MASS: 442.5573
CH$SMILES: CC(=O)OC1CC[C@]2(C)C(CC[C@@](C)(O)[C@H]2COc2ccc3ccc(=O)oc3c2)C1(C)C
CH$IUPAC: InChI=1S/C26H34O6/c1-16(27)31-22-11-12-25(4)20(24(22,2)3)10-13-26(5,29)21(25)15-30-18-8-6-17-7-9-23(28)32-19(17)14-18/h6-9,14,20-22,29H,10-13,15H2,1-5H3/t20?,21-,22?,25+,26+/m0/s1
CH$LINK: INCHIKEY RIPKCRCUFJSKKD-FBQVDBQASA-N
CH$LINK: PUBCHEM CID:126961508
AC$INSTRUMENT: Agilent 6410 Triple Quadrupole LC/MS system
AC$INSTRUMENT_TYPE: LC-ESI-QQQ
AC$MASS_SPECTROMETRY: MS_TYPE MS2
AC$MASS_SPECTROMETRY: ION_MODE NEGATIVE
MS$FOCUSED_ION: PRECURSOR_TYPE [M+HCOO]-
PK$SPLASH: splash10-03xu-4898880000-644401aa52f2f13953cb
PK$NUM_PEAK: 4195
PK$PEAK: m/z int. rel.int.
  50.3 17.16 17
  50.4 25.44 25
  50.5 31.16 31
  50.6 29.7 29
  50.7 22.67 22
  50.9 15.81 15
  51.0 20.67 20
  51.1 26.33 26
  51.2 28.4 28
  51.3 25.53 25
  51.4 20.02 19
  51.6 17.47 17
  51.7 22.84 22
  51.8 26.95 26
  51.9 25.65 25
  52.8 15.93 15
  52.9 23.65 23
  53.0 30.21 30
  53.1 30.44 30
  53.2 24.33 24
  53.4 15.0 14
  53.5 19.14 19
  53.6 25.26 25
  53.7 27.72 27
  53.8 24.51 24
  53.9 18.05 18
  54.1 12.93 12
  54.2 18.28 18
  54.3 24.44 24
  54.4 25.7 25
  54.5 20.95 20
  54.7 15.0 14
  54.8 20.42 20
  54.9 26.77 26
  55.0 28.21 28
  55.1 22.86 22
  55.4 14.3 14
  55.5 24.28 24
  55.6 30.95 30
  55.7 27.72 27
  55.8 17.4 17
  56.0 10.37 10
  56.1 18.35 18
  56.2 25.67 25
  56.3 26.56 26
  56.4 20.98 20
  56.7 15.23 15
  56.8 21.47 21
  56.9 24.84 24
  57.0 22.98 22
  57.3 17.4 17
  57.4 22.4 22
  57.5 26.37 26
  57.6 25.7 25
  57.7 19.91 19
  58.0 13.47 13
  58.1 20.09 20
  58.2 24.86 24
  58.3 25.3 25
  58.6 21.91 21
  58.7 25.28 25
  58.8 27.4 27
  58.9 25.28 25
  59.0 19.6 19
  59.2 13.65 13
  59.3 17.74 17
  59.4 22.77 22
  59.5 24.21 24
  59.6 21.05 21
  59.8 16.14 16
  59.9 20.42 20
  60.0 26.53 26
  60.1 29.26 29
  60.2 25.47 25
  60.3 17.28 17
  60.5 12.6 12
  60.6 19.6 19
  60.7 24.81 24
  60.8 22.93 22
  60.9 16.0 15
  61.1 11.91 11
  61.2 18.19 18
  61.3 24.35 24
  61.4 25.72 25
  61.5 21.3 21
  61.8 13.98 13
  61.9 22.12 22
  62.0 28.6 28
  62.1 28.49 28
  62.2 22.47 22
  63.0 13.49 13
  63.1 16.98 16
  63.2 23.42 23
  63.3 27.67 27
  63.4 26.49 26
  63.5 20.79 20
  64.3 16.02 16
  64.4 20.81 20
  64.5 26.16 26
  64.6 27.14 27
  64.7 22.74 22
  65.0 17.0 16
  65.1 22.37 22
  65.2 26.47 26
  65.3 26.37 26
  65.4 22.44 22
  65.6 17.4 17
  65.7 21.37 21
  65.8 26.84 26
  65.9 29.09 29
  66.0 26.0 25
  66.1 20.02 19
  66.3 18.44 18
  66.4 23.77 23
  66.5 26.7 26
  66.6 23.98 23
  66.7 17.56 17
  66.9 13.51 13
  67.0 19.26 19
  67.1 24.98 24
  67.2 25.86 25
  67.3 21.67 21
  67.6 17.49 17
  67.7 21.63 21
  67.8 24.49 24
  67.9 24.0 23
  68.0 20.26 20
  68.2 15.37 15
  68.3 19.23 19
  68.4 24.12 24
  68.5 24.81 24
  68.6 19.93 19
  68.8 12.86 12
  68.9 18.33 18
  69.0 25.56 25
  69.1 27.91 27
  69.2 23.05 23
  69.3 15.33 15
  69.5 14.81 14
  69.6 21.53 21
  69.7 25.49 25
  69.8 23.19 23
  69.9 16.65 16
  70.1 13.33 13
  70.2 21.0 20
  70.3 28.51 28
  70.4 28.86 28
  70.5 21.07 21
  70.7 8.74 8
  70.8 14.53 14
  70.9 23.93 23
  71.0 29.02 28
  71.1 25.95 25
  71.2 18.26 18
  71.4 17.07 17
  71.5 24.42 24
  71.6 28.02 27
  71.7 23.56 23
  71.8 14.35 14
  72.0 10.84 10
  72.1 19.42 19
  72.2 27.14 27
  72.3 28.88 28
  72.4 24.72 24
  72.5 18.4 18
  72.7 14.07 14
  72.8 17.44 17
  72.9 20.26 20
  73.0 19.0 18
  73.3 13.58 13
  73.4 20.26 20
  73.5 26.05 26
  73.6 26.49 26
  73.7 21.51 21
  73.9 14.4 14
  74.0 19.23 19
  74.1 25.6 25
  74.2 27.23 27
  74.3 22.33 22
  74.6 15.0 14
  74.7 21.3 21
  74.8 26.09 26
  74.9 26.09 26
  75.0 22.02 21
  75.2 17.37 17
  75.3 20.56 20
  75.4 23.84 23
  75.5 23.93 23
  75.6 20.51 20
  75.9 14.7 14
  76.0 19.6 19
  76.1 23.56 23
  76.2 22.91 22
  76.4 16.35 16
  76.5 19.44 19
  76.6 25.81 25
  76.7 30.07 30
  76.8 28.93 28
  76.9 23.37 23
  77.0 16.81 16
  77.2 14.47 14
  77.3 20.35 20
  77.4 25.91 25
  77.5 25.81 25
  77.6 19.77 19
  77.8 12.81 12
  77.9 18.14 18
  78.0 24.12 24
  78.1 25.12 25
  78.2 20.12 20
  78.4 12.02 12
  78.5 15.93 15
  78.6 21.77 21
  78.7 24.74 24
  78.8 22.79 22
  78.9 17.53 17
  79.1 14.74 14
  79.2 20.42 20
  79.3 24.91 24
  79.4 23.3 23
  79.5 16.95 16
  79.7 13.47 13
  79.8 20.07 20
  79.9 25.98 25
  80.0 26.33 26
  80.1 21.26 21
  80.3 15.44 15
  80.4 21.33 21
  80.5 28.42 28
  80.6 30.6 30
  80.7 26.02 25
  80.8 18.42 18
  81.0 16.09 16
  81.1 23.6 23
  81.2 30.19 30
  81.3 30.51 30
  81.4 24.56 24
  81.6 15.26 15
  81.7 19.19 19
  81.8 25.47 25
  81.9 28.7 28
  82.0 26.49 26
  82.1 21.0 20
  82.3 18.19 18
  82.4 22.53 22
  82.5 24.56 24
  82.6 20.79 20
  82.8 11.35 11
  82.9 15.37 15
  83.0 23.19 23
  83.1 28.51 28
  83.2 27.12 27
  83.3 20.05 20
  83.5 12.93 12
  83.6 19.6 19
  83.7 26.93 26
  83.8 27.72 27
  83.9 20.81 20
  84.1 9.07 9
  84.2 14.44 14
  84.3 24.09 24
  84.4 30.21 30
  84.5 28.26 28
  84.6 21.16 21
  84.8 17.53 17
  84.9 22.77 22
  85.0 26.21 26
  85.1 24.67 24
  85.2 19.47 19
  85.4 13.47 13
  85.5 17.23 17
  85.6 23.12 23
  85.7 26.88 26
  85.8 25.74 25
  85.9 20.98 20
  86.1 16.91 16
  86.2 20.65 20
  86.3 24.58 24
  86.4 25.37 25
  86.5 22.67 22
  87.3 13.44 13
  87.4 17.35 17
  87.5 23.58 23
  87.6 27.05 27
  87.7 24.19 24
  87.8 16.47 16
  88.0 11.21 11
  88.1 19.51 19
  88.2 27.77 27
  88.3 28.49 28
  88.4 21.28 21
  88.5 12.53 12
  88.7 12.09 12
  88.8 17.79 17
  88.9 21.37 21
  89.0 20.72 20
  89.3 17.12 17
  89.4 22.35 22
  89.5 27.0 26
  89.6 26.77 26
  89.7 21.3 21
  89.9 14.47 14
  90.0 19.95 19
  90.1 26.77 26
  90.2 28.51 28
  90.3 23.56 23
  90.6 17.44 17
  90.7 24.65 24
  90.8 29.42 29
  90.9 28.05 28
  91.0 22.09 22
  91.2 17.53 17
  91.3 22.65 22
  91.4 27.23 27
  91.5 27.0 26
  91.6 22.28 22
  91.8 15.28 15
  91.9 18.35 18
  92.0 23.79 23
  92.1 27.07 27
  92.2 25.09 25
  92.3 19.26 19
  92.5 15.23 15
  92.6 19.81 19
  92.7 23.53 23
  92.8 22.84 22
  92.9 18.12 18
  93.1 11.4 11
  93.2 15.79 15
  93.3 23.47 23
  93.4 28.19 28
  93.5 25.98 25
  93.6 19.33 19
  93.8 16.05 16
  93.9 21.47 21
  94.0 25.42 25
  94.1 24.21 24
  94.2 19.42 19
  94.4 15.42 15
  94.5 18.6 18
  94.6 22.88 22
  94.7 25.21 25
  94.8 23.07 23
  95.1 15.72 15
  95.2 23.49 23
  95.3 28.81 28
  95.4 26.16 26
  95.5 18.12 18
  95.7 15.47 15
  95.8 23.56 23
  95.9 29.44 29
  96.0 28.51 28
  96.1 23.26 23
  96.3 19.91 19
  96.4 22.79 22
  96.5 25.19 25
  96.6 25.09 25
  96.7 21.84 21
  96.9 14.51 14
  97.0 17.72 17
  97.1 24.77 24
  97.2 30.12 30
  97.3 29.63 29
  97.4 24.14 24
  97.7 18.84 18
  97.8 24.42 24
  97.9 27.77 27
  98.0 25.81 25
  98.1 19.56 19
  98.3 13.05 13
  98.4 18.53 18
  98.5 25.12 25
  98.6 26.58 26
  98.7 21.63 21
  98.9 14.05 14
  99.0 19.63 19
  99.1 26.91 26
  99.2 29.12 29
  99.3 24.3 24
  99.4 17.07 17
  99.6 16.09 16
  99.7 21.33 21
  99.8 23.98 23
  99.9 21.09 21
  100.1 12.02 12
  100.2 15.98 15
  100.3 24.21 24
  100.4 29.65 29
  100.5 28.09 28
  100.6 21.72 21
  100.8 16.65 16
  100.9 21.3 21
  101.0 25.4 25
  101.1 24.3 24
  101.2 18.42 18
  101.4 13.42 13
  101.5 19.3 19
  101.6 25.37 25
  101.7 26.16 26
  101.8 20.67 20
  101.9 12.98 12
  102.1 10.56 10
  102.2 17.21 17
  102.3 23.42 23
  102.4 24.51 24
  102.5 19.84 19
  102.8 14.79 14
  102.9 19.35 19
  103.0 21.44 21
  103.1 20.51 20
  103.3 17.33 17
  103.4 18.95 18
  103.5 23.07 23
  103.6 26.63 26
  103.7 25.86 25
  103.8 20.56 20
  104.0 14.86 14
  104.1 18.91 18
  104.2 23.21 23
  104.3 24.3 24
  104.4 21.67 21
  104.6 15.16 15
  104.7 18.4 18
  104.8 25.58 25
  104.9 30.6 30
  105.0 28.84 28
  105.1 22.28 22
  105.3 17.74 17
  105.4 22.95 22
  105.5 27.51 27
  105.6 26.81 26
  105.7 20.98 20
  105.9 14.67 14
  106.0 19.7 19
  106.1 25.47 25
  106.2 27.12 27
  106.3 23.67 23
  106.6 18.47 18
  106.7 23.07 23
  106.8 25.7 25
  106.9 23.37 23
  107.1 15.88 15
  107.2 19.91 19
  107.3 27.21 27
  107.4 31.19 31
  107.5 28.14 28
  107.6 20.72 20
  107.8 15.14 15
  107.9 19.56 19
  108.0 24.09 24
  108.1 25.72 25
  108.2 23.93 23
  108.3 20.16 20
  108.5 18.14 18
  108.6 22.74 22
  108.7 27.05 27
  108.8 26.58 26
  108.9 20.98 20
  109.1 12.79 12
  109.2 17.47 17
  109.3 25.14 25
  109.4 29.47 29
  109.5 26.58 26
  109.6 18.86 18
  109.8 14.95 14
  109.9 21.88 21
  110.0 27.23 27
  110.1 26.02 25
  110.2 19.63 19
  110.4 14.81 14
  110.5 21.19 21
  110.6 27.58 27
  110.7 27.65 27
  110.8 20.44 20
  111.0 8.58 8
  111.1 13.44 13
  111.2 21.44 21
  111.3 26.0 25
  111.4 24.42 24
  111.5 19.49 19
  111.7 16.79 16
  111.8 19.98 19
  111.9 22.35 22
  112.0 21.37 21
  112.1 16.98 16
  112.3 12.4 12
  112.4 18.47 18
  112.5 26.37 26
  112.6 29.6 29
  112.7 25.65 25
  112.8 18.47 18
  113.0 17.33 17
  113.1 24.02 23
  113.2 27.88 27
  113.3 24.6 24
  113.4 16.79 16
  113.6 12.91 12
  113.7 19.35 19
  113.8 25.05 25
  113.9 25.19 25
  114.0 19.42 19
  114.2 10.67 10
  114.3 16.47 16
  114.4 24.98 24
  114.5 28.53 28
  114.6 24.23 24
  114.7 16.19 16
  114.9 12.23 12
  115.0 18.05 18
  115.1 23.72 23
  115.2 24.86 24
  115.3 20.88 20
  116.2 14.33 14
  116.3 19.26 19
  116.4 23.0 22
  116.5 22.84 22
  116.6 18.51 18
  116.8 13.07 13
  116.9 17.93 17
  117.0 23.67 23
  117.1 24.72 24
  117.2 20.09 20
  117.5 14.93 14
  117.6 20.79 20
  117.7 24.77 24
  117.8 24.02 23
  117.9 19.56 19
  118.1 14.16 14
  118.2 17.05 17
  118.3 21.12 21
  118.4 22.63 22
  118.5 19.72 19
  118.7 11.65 11
  118.8 15.4 15
  118.9 23.44 23
  119.0 28.6 28
  119.1 25.44 25
  119.2 16.49 16
  119.4 11.65 11
  119.5 20.35 20
  119.6 28.56 28
  119.7 29.28 29
  119.8 22.16 22
  120.0 11.91 11
  120.1 17.56 17
  120.2 24.74 24
  120.3 26.67 26
  120.4 22.07 22
  120.7 16.19 16
  120.8 22.91 22
  120.9 27.47 27
  121.0 26.6 26
  121.1 21.93 21
  121.9 17.05 17
  122.0 20.91 20
  122.1 25.56 25
  122.2 26.79 26
  122.3 23.05 23
  122.6 16.35 16
  122.7 23.51 23
  122.8 29.28 29
  122.9 29.05 29
  123.0 23.53 23
  123.9 13.21 13
  124.0 21.6 21
  124.1 27.6 27
  124.2 26.53 26
  124.3 19.91 19
  124.5 12.65 12
  124.6 17.33 17
  124.7 22.93 22
  124.8 24.14 24
  124.9 20.44 20
  125.1 15.14 15
  125.2 18.21 18
  125.3 22.14 22
  125.4 23.6 23
  125.5 21.07 21
  125.6 15.95 15
  125.8 13.28 13
  125.9 18.28 18
  126.0 22.95 22
  126.1 23.09 23
  126.2 18.47 18
  126.4 10.98 10
  126.5 14.88 14
  126.6 21.58 21
  126.7 25.21 25
  126.8 22.16 22
  126.9 15.02 15
  127.1 13.19 13
  127.2 20.53 20
  127.3 26.67 26
  127.4 27.28 27
  127.5 22.67 22
  127.7 17.3 17
  127.8 22.65 22
  127.9 28.44 28
  128.0 28.84 28
  128.1 23.19 23
  128.3 15.65 15
  128.4 20.77 20
  128.5 27.79 27
  128.6 30.56 30
  128.7 26.6 26
  128.8 19.05 19
  129.0 14.35 14
  129.1 18.58 18
  129.2 21.93 21
  129.3 21.0 20
  129.4 16.26 16
  129.6 13.02 13
  129.7 19.77 19
  129.8 27.3 27
  129.9 28.95 28
  130.0 22.51 22
  130.3 13.02 13
  130.4 22.47 22
  130.5 27.67 27
  130.6 24.05 24
  130.7 15.6 15
  130.9 12.98 12
  131.0 20.49 20
  131.1 26.21 26
  131.2 25.65 25
  131.3 20.09 20
  131.5 14.28 14
  131.6 18.26 18
  131.7 23.02 22
  131.8 24.81 24
  131.9 22.79 22
  132.0 18.81 18
  132.2 16.23 16
  132.3 20.4 20
  132.4 25.19 25
  132.5 26.0 25
  132.6 21.14 21
  132.8 12.47 12
  132.9 17.16 17
  133.0 24.12 24
  133.1 25.93 25
  133.2 20.07 20
  133.4 9.77 9
  133.5 16.53 16
  133.6 26.3 26
  133.7 30.33 30
  133.8 25.37 25
  133.9 16.44 16
  134.1 14.86 14
  134.2 22.58 22
  134.3 27.63 27
  134.4 25.98 25
  134.5 20.47 20
  134.7 16.19 16
  134.8 18.6 18
  134.9 21.3 21
  135.0 22.12 22
  135.1 19.67 19
  135.3 12.3 12
  135.4 14.95 14
  135.5 22.26 22
  135.6 29.14 29
  135.7 30.42 30
  135.8 25.09 25
  136.1 18.67 18
  136.2 25.63 25
  136.3 29.44 29
  136.4 26.84 26
  136.5 20.3 20
  136.7 17.53 17
  136.8 23.16 23
  136.9 26.51 26
  137.0 23.84 23
  137.1 17.56 17
  137.3 16.4 16
  137.4 21.86 21
  137.5 25.07 25
  137.6 23.91 23
  137.7 20.58 20
  137.9 18.19 18
  138.0 20.56 20
  138.1 24.28 24
  138.2 27.16 27
  138.3 26.63 26
  138.4 22.88 22
  138.6 20.88 20
  138.7 25.56 25
  138.8 28.4 28
  138.9 25.28 25
  139.0 18.21 18
  139.2 15.63 15
  139.3 22.05 22
  139.4 27.0 26
  139.5 26.91 26
  139.6 22.56 22
  139.7 17.3 17
  139.9 15.19 15
  140.0 19.51 19
  140.1 23.91 23
  140.2 24.07 24
  140.3 18.74 18
  140.5 12.16 12
  140.6 19.65 19
  140.7 28.37 28
  140.8 29.95 29
  140.9 22.79 22
  141.8 14.33 14
  141.9 22.26 22
  142.0 30.02 29
  142.1 31.23 31
  142.2 25.02 24
  142.3 16.86 16
  142.5 16.42 16
  142.6 22.02 21
  142.7 24.56 24
  142.8 21.91 21
  143.0 16.14 16
  143.1 20.28 20
  143.2 26.56 26
  143.3 29.63 29
  143.4 26.67 26
  143.5 19.72 19
  143.7 15.81 15
  143.8 22.33 22
  143.9 27.95 27
  144.0 27.51 27
  144.1 21.23 21
  144.4 14.51 14
  144.5 19.74 19
  144.6 22.67 22
  144.7 20.74 20
  144.9 11.56 11
  145.0 14.51 14
  145.1 23.09 23
  145.2 30.16 30
  145.3 29.77 29
  145.4 22.42 22
  145.7 13.93 13
  145.8 21.26 21
  145.9 25.79 25
  146.0 23.49 23
  146.1 16.77 16
  146.3 13.79 13
  146.4 20.63 20
  146.5 26.53 26
  146.6 25.86 25
  146.7 19.07 19
  146.9 11.42 11
  147.0 17.19 17
  147.1 24.72 24
  147.2 28.12 28
  147.3 24.86 24
  148.2 15.49 15
  148.3 22.74 22
  148.4 26.37 26
  148.5 23.44 23
  148.6 16.74 16
  148.8 13.56 13
  148.9 19.81 19
  149.0 25.4 25
  149.1 25.16 25
  149.2 19.53 19
  149.4 15.16 15
  149.5 21.49 21
  149.6 27.84 27
  149.7 29.26 29
  149.8 24.95 24
  149.9 18.02 18
  150.1 14.26 14
  150.2 19.84 19
  150.3 25.84 25
  150.4 27.98 27
  150.5 25.3 25
  150.6 20.35 20
  150.8 18.88 18
  150.9 23.37 23
  151.0 26.79 26
  151.1 26.42 26
  151.2 22.98 22
  151.4 19.53 19
  151.5 23.4 23
  151.6 27.67 27
  151.7 27.05 27
  151.8 20.09 20
  152.0 10.79 10
  152.1 17.05 17
  152.2 25.3 25
  152.3 28.56 28
  152.4 24.65 24
  153.3 13.07 13
  153.4 21.21 21
  153.5 28.4 28
  153.6 29.23 29
  153.7 23.23 23
  153.8 14.81 14
  154.0 12.81 12
  154.1 20.05 20
  154.2 25.53 25
  154.3 24.58 24
  154.6 17.02 17
  154.7 23.98 23
  154.8 28.72 28
  154.9 26.37 26
  155.0 18.44 18
  155.2 10.93 10
  155.3 17.58 17
  155.4 25.56 25
  155.5 28.14 28
  155.6 23.16 23
  155.7 14.84 14
  155.9 12.35 12
  156.0 19.58 19
  156.1 25.3 25
  156.2 23.98 23
  156.3 16.12 16
  156.5 9.35 9
  156.6 17.65 17
  156.7 25.42 25
  156.8 24.98 24
  156.9 17.02 17
  157.1 10.88 10
  157.2 19.21 19
  157.3 27.4 27
  157.4 28.4 28
  157.5 21.3 21
  157.6 11.3 11
  157.8 9.26 9
  157.9 19.12 19
  158.0 27.49 27
  158.1 27.86 27
  158.2 21.51 21
  158.4 17.21 17
  158.5 24.53 24
  158.6 31.4 31
  158.7 31.86 31
  158.8 25.47 25
  159.1 16.44 16
  159.2 24.28 24
  159.3 30.35 30
  159.4 29.67 29
  159.5 22.74 22
  159.7 12.77 12
  159.8 17.02 17
  159.9 23.65 23
  160.0 26.91 26
  160.1 24.35 24
  160.4 17.3 17
  160.5 23.81 23
  160.6 28.93 28
  160.7 29.35 29
  160.8 26.05 26
  161.0 22.21 22
  161.1 27.91 27
  161.2 35.47 35
  161.3 36.21 36
  161.4 27.05 27
  162.2 13.98 13
  162.3 17.65 17
  162.4 24.77 24
  162.5 28.91 28
  162.6 26.65 26
  162.7 20.28 20
  162.9 14.98 14
  163.0 19.84 19
  163.1 25.35 25
  163.2 26.26 26
  163.3 21.26 21
  163.5 13.05 13
  163.6 17.49 17
  163.7 23.86 23
  163.8 26.74 26
  163.9 24.47 24
  164.0 19.28 19
  164.2 15.77 15
  164.3 20.37 20
  164.4 25.23 25
  164.5 25.65 25
  164.6 21.07 21
  164.8 15.21 15
  164.9 19.26 19
  165.0 23.88 23
  165.1 24.56 24
  165.2 20.28 20
  165.4 12.95 12
  165.5 17.44 17
  165.6 24.84 24
  165.7 28.6 28
  165.8 24.6 24
  165.9 15.42 15
  166.1 10.58 10
  166.2 19.6 19
  166.3 27.91 27
  166.4 28.77 28
  166.5 22.49 22
  166.7 12.84 12
  166.8 17.16 17
  166.9 24.19 24
  167.0 27.84 27
  167.1 24.72 24
  167.2 17.23 17
  167.4 14.16 14
  167.5 21.84 21
  167.6 27.47 27
  167.7 25.81 25
  167.8 19.28 19
  168.0 16.05 16
  168.1 21.79 21
  168.2 26.77 26
  168.3 27.14 27
  168.4 23.14 23
  168.7 17.26 17
  168.8 22.65 22
  168.9 26.95 26
  169.0 25.49 25
  169.1 18.47 18
  169.3 10.74 10
  169.4 16.6 16
  169.5 23.35 23
  169.6 24.79 24
  169.7 20.14 20
  169.9 13.49 13
  170.0 18.37 18
  170.1 24.49 24
  170.2 26.12 26
  170.3 22.09 22
  170.6 16.26 16
  170.7 21.3 21
  170.8 24.81 24
  170.9 23.72 23
  171.0 18.02 18
  171.2 9.58 9
  171.3 14.02 14
  171.4 20.88 20
  171.5 23.7 23
  171.6 19.86 19
  171.7 12.81 12
  171.9 11.07 11
  172.0 17.98 17
  172.1 24.05 24
  172.2 24.67 24
  172.3 19.86 19
  172.5 15.49 15
  172.6 22.09 22
  172.7 28.02 27
  172.8 26.74 26
  172.9 18.79 18
  173.1 9.81 9
  173.2 16.63 16
  173.3 26.07 26
  173.4 30.58 30
  173.5 26.77 26
  173.6 18.7 18
  173.8 16.14 16
  173.9 22.53 22
  174.0 26.81 26
  174.1 25.37 25
  174.2 19.84 19
  174.4 15.26 15
  174.5 20.88 20
  174.6 27.67 27
  174.7 29.98 29
  174.8 25.47 25
  174.9 17.51 17
  175.1 15.21 15
  175.2 22.72 22
  175.3 28.49 28
  175.4 27.37 27
  175.5 20.65 20
  175.7 15.74 15
  175.8 22.19 22
  175.9 27.81 27
  176.0 26.98 26
  176.1 20.14 20
  176.3 11.02 11
  176.4 15.79 15
  176.5 23.37 23
  176.6 27.93 27
  176.7 26.26 26
  176.8 20.23 20
  177.0 14.65 14
  177.1 18.93 18
  177.2 23.14 23
  177.3 22.44 22
  177.4 16.84 16
  177.6 11.26 11
  177.7 17.19 17
  177.8 24.12 24
  177.9 26.14 26
  178.0 21.6 21
  178.3 14.49 14
  178.4 21.09 21
  178.5 26.21 26
  178.6 26.05 26
  178.7 20.79 20
  178.9 15.77 15
  179.0 22.05 22
  179.1 27.58 27
  179.2 25.81 25
  179.3 17.93 17
  179.5 12.58 12
  179.6 19.93 19
  179.7 26.88 26
  179.8 27.47 27
  179.9 21.42 21
  180.1 11.51 11
  180.2 15.56 15
  180.3 22.6 22
  180.4 27.26 27
  180.5 26.28 26
  180.6 20.7 20
  180.9 14.23 14
  181.0 20.98 20
  181.1 26.05 26
  181.2 25.12 25
  181.3 19.0 18
  181.5 14.16 14
  181.6 20.44 20
  181.7 26.12 26
  181.8 25.26 25
  181.9 18.05 18
  182.1 10.53 10
  182.2 17.98 17
  182.3 26.98 26
  182.4 29.84 29
  182.5 24.88 24
  182.6 17.63 17
  183.4 11.77 11
  183.5 19.16 19
  183.6 24.7 24
  183.7 22.98 22
  183.8 16.21 16
  184.0 13.67 13
  184.1 21.12 21
  184.2 28.12 28
  184.3 29.95 29
  184.4 26.09 26
  184.5 19.81 19
  184.7 15.35 15
  184.8 18.44 18
  184.9 21.3 21
  185.0 20.88 20
  185.1 17.26 17
  185.3 14.7 14
  185.4 20.26 20
  185.5 26.47 26
  185.6 28.44 28
  185.7 24.95 24
  186.6 14.7 14
  186.7 19.16 19
  186.8 23.65 23
  186.9 23.93 23
  187.0 19.12 19
  187.2 12.51 12
  187.3 17.88 17
  187.4 24.98 24
  187.5 26.79 26
  187.6 21.12 21
  187.8 10.88 10
  187.9 16.58 16
  188.0 25.05 25
  188.1 29.05 29
  188.2 25.93 25
  188.3 19.19 19
  188.5 15.28 15
  188.6 20.19 20
  188.7 24.91 24
  188.8 25.47 25
  188.9 21.09 21
  189.2 15.63 15
  189.3 21.63 21
  189.4 25.35 25
  189.5 23.77 23
  189.7 15.72 15
  189.8 18.58 18
  189.9 25.84 25
  190.0 31.4 31
  190.1 30.07 30
  190.2 22.23 22
  190.4 11.07 11
  190.5 16.74 16
  190.6 25.7 25
  190.7 29.77 29
  190.8 25.23 25
  191.0 13.0 12
  191.1 18.53 18
  191.2 28.37 28
  191.3 33.3 33
  191.4 28.77 28
  191.5 18.98 18
  191.7 13.4 13
  191.8 19.95 19
  191.9 25.72 25
  192.0 25.95 25
  192.1 20.84 20
  192.3 11.84 11
  192.4 15.26 15
  192.5 22.53 22
  192.6 27.91 27
  192.7 26.28 26
  192.8 18.51 18
  193.0 13.02 13
  193.1 20.77 20
  193.2 27.05 27
  193.3 25.79 25
  193.4 18.67 18
  193.6 14.58 14
  193.7 21.56 21
  193.8 27.77 27
  193.9 28.23 28
  194.0 23.56 23
  194.9 13.93 13
  195.0 18.3 18
  195.1 23.65 23
  195.2 25.91 25
  195.3 24.23 24
  196.2 14.28 14
  196.3 20.86 20
  196.4 27.0 26
  196.5 27.0 26
  196.6 21.05 21
  196.8 12.81 12
  196.9 17.47 17
  197.0 24.3 24
  197.1 27.42 27
  197.2 23.95 23
  197.3 16.65 16
  197.5 13.77 13
  197.6 20.4 20
  197.7 25.53 25
  197.8 25.12 25
  197.9 20.74 20
  198.1 17.12 17
  198.2 19.81 19
  198.3 22.77 22
  198.4 23.37 23
  198.5 20.19 20
  198.6 14.47 14
  198.8 12.42 12
  198.9 19.05 19
  199.0 24.88 24
  199.1 25.07 25
  199.2 20.3 20
  199.4 17.16 17
  199.5 22.86 22
  199.6 28.02 27
  199.7 28.26 28
  199.8 23.28 23
  199.9 16.63 16
  200.1 15.26 15
  200.2 21.74 21
  200.3 26.53 26
  200.4 24.77 24
  200.5 18.14 18
  200.7 15.12 15
  200.8 21.07 21
  200.9 25.26 25
  201.0 23.79 23
  201.3 16.67 16
  201.4 23.42 23
  201.5 28.86 28
  201.6 28.19 28
  201.7 22.16 22
  202.0 16.26 16
  202.1 22.7 22
  202.2 27.74 27
  202.3 27.23 27
  202.4 21.42 21
  202.6 15.44 15
  202.7 20.37 20
  202.8 25.16 25
  202.9 25.05 25
  203.0 20.49 20
  203.2 17.86 17
  203.3 23.79 23
  203.4 28.88 28
  203.5 28.37 28
  203.6 22.63 22
  203.8 14.79 14
  203.9 18.33 18
  204.0 23.84 23
  204.1 26.65 26
  204.2 24.19 24
  204.3 18.35 18
  204.5 16.35 16
  204.6 22.16 22
  204.7 26.47 26
  204.8 25.51 25
  204.9 20.37 20
  205.1 15.09 15
  205.2 19.44 19
  205.3 25.37 25
  205.4 28.26 28
  205.5 25.3 25
  205.8 17.93 17
  205.9 26.0 25
  206.0 32.35 32
  206.1 31.74 31
  206.2 24.6 24
  206.4 14.28 14
  206.5 19.26 19
  206.6 26.49 26
  206.7 28.79 28
  206.8 23.86 23
  207.1 17.49 17
  207.2 24.53 24
  207.3 29.26 29
  207.4 28.3 28
  207.5 22.6 22
  207.7 15.67 15
  207.8 20.49 20
  207.9 26.14 26
  208.0 26.6 26
  208.1 21.0 20
  208.3 12.33 12
  208.4 16.77 16
  208.5 24.12 24
  208.6 28.33 28
  208.7 25.79 25
  208.8 18.72 18
  209.0 14.95 14
  209.1 20.98 20
  209.2 26.07 26
  209.3 25.63 25
  209.4 19.56 19
  209.6 9.88 9
  209.7 13.91 13
  209.8 20.88 20
  209.9 24.98 24
  210.0 23.67 23
  210.1 18.98 18
  210.3 15.35 15
  210.4 18.4 18
  210.5 20.91 20
  210.6 20.16 20
  210.9 15.88 15
  211.0 20.28 20
  211.1 24.35 24
  211.2 24.26 24
  211.3 19.6 19
  211.5 12.88 12
  211.6 17.4 17
  211.7 23.77 23
  211.8 25.88 25
  211.9 20.98 20
  212.0 12.37 12
  212.2 10.44 10
  212.3 19.7 19
  212.4 27.47 27
  212.5 27.3 27
  212.6 19.56 19
  212.8 10.26 10
  212.9 17.53 17
  213.0 27.49 27
  213.1 32.21 32
  213.2 28.91 28
  213.3 21.37 21
  213.5 16.86 16
  213.6 22.07 22
  213.7 26.72 26
  213.8 26.14 26
  213.9 20.44 20
  214.1 14.53 14
  214.2 20.02 19
  214.3 25.79 25
  214.4 25.95 25
  214.5 19.81 19
  214.7 14.3 14
  214.8 22.37 22
  214.9 30.51 30
  215.0 31.6 31
  215.1 24.91 24
  215.4 16.05 16
  215.5 23.84 23
  215.6 28.7 28
  215.7 26.53 26
  215.8 19.65 19
  216.0 15.56 15
  216.1 21.77 21
  216.2 27.7 27
  216.3 28.51 28
  216.4 23.86 23
  216.5 17.65 17
  216.7 16.3 16
  216.8 21.0 20
  216.9 24.72 24
  217.0 24.65 24
  217.1 20.81 20
  217.3 15.07 15
  217.4 18.63 18
  217.5 23.42 23
  217.6 24.58 24
  217.7 20.95 20
  217.9 15.28 15
  218.0 18.0 17
  218.1 22.12 22
  218.2 24.58 24
  218.3 23.44 23
  218.4 18.86 18
  218.6 15.16 15
  218.7 22.3 22
  218.8 29.91 29
  218.9 30.14 30
  219.0 21.81 21
  219.2 10.33 10
  219.3 17.42 17
  219.4 26.63 26
  219.5 29.67 29
  219.6 24.47 24
  219.9 16.4 16
  220.0 23.33 23
  220.1 27.51 27
  220.2 25.7 25
  220.3 19.6 19
  220.5 14.72 14
  220.6 19.42 19
  220.7 23.56 23
  220.8 23.16 23
  220.9 19.23 19
  221.1 17.05 17
  221.2 21.37 21
  221.3 25.98 25
  221.4 27.35 27
  221.5 23.88 23
  221.6 17.23 17
  221.8 13.07 13
  221.9 18.77 18
  222.0 24.09 24
  222.1 24.14 24
  222.2 18.67 18
  222.4 11.16 11
  222.5 17.02 17
  222.6 25.53 25
  222.7 29.58 29
  222.8 25.58 25
  222.9 16.98 16
  223.1 13.37 13
  223.2 20.79 20
  223.3 26.3 26
  223.4 24.86 24
  223.5 18.28 18
  223.7 13.98 13
  223.8 20.93 20
  223.9 27.65 27
  224.0 27.58 27
  224.1 20.09 20
  224.3 10.56 10
  224.4 17.26 17
  224.5 25.37 25
  224.6 27.56 27
  224.7 22.05 22
  224.8 13.49 13
  225.0 11.88 11
  225.1 20.37 20
  225.2 27.19 27
  225.3 26.95 26
  225.4 20.72 20
  225.7 14.44 14
  225.8 18.86 18
  225.9 21.93 21
  226.0 22.12 22
  226.2 18.77 18
  226.3 20.56 20
  226.4 24.98 24
  226.5 27.77 27
  226.6 24.88 24
  226.7 17.4 17
  226.9 13.3 13
  227.0 20.77 20
  227.1 26.98 26
  227.2 26.37 26
  227.3 20.09 20
  227.5 13.42 13
  227.6 18.14 18
  227.7 23.74 23
  227.8 25.33 25
  227.9 21.7 21
  228.2 15.51 15
  228.3 21.4 21
  228.4 25.88 25
  228.5 25.05 25
  228.6 19.3 19
  228.8 13.28 13
  228.9 19.28 19
  229.0 26.47 26
  229.1 28.33 28
  229.2 23.05 23
  229.4 13.51 13
  229.5 18.86 18
  229.6 26.6 26
  229.7 29.19 29
  229.8 23.81 23
  230.1 13.4 13
  230.2 23.42 23
  230.3 31.58 31
  230.4 30.79 30
  230.5 21.35 21
  230.7 8.07 8
  230.8 14.84 14
  230.9 25.35 25
  231.0 30.49 30
  231.1 26.21 26
  231.2 17.14 17
  231.4 14.77 14
  231.5 22.14 22
  231.6 27.72 27
  231.7 27.79 27
  231.8 23.19 23
  232.6 12.95 12
  232.7 17.3 17
  232.8 24.98 24
  232.9 29.07 29
  233.0 25.19 25
  233.1 16.28 16
  233.3 12.35 12
  233.4 21.14 21
  233.5 28.93 28
  233.6 28.77 28
  233.7 20.63 20
  233.9 9.14 9
  234.0 15.07 15
  234.1 24.23 24
  234.2 29.0 28
  234.3 25.42 25
  234.4 16.44 16
  234.6 10.49 10
  234.7 17.56 17
  234.8 24.23 24
  234.9 24.79 24
  235.0 19.33 19
  235.2 14.09 14
  235.3 20.67 20
  235.4 27.23 27
  235.5 27.53 27
  235.6 21.16 21
  235.8 11.93 11
  235.9 17.67 17
  236.0 26.47 26
  236.1 30.77 30
  236.2 26.7 26
  236.3 18.0 17
  236.5 13.07 13
  236.6 18.93 18
  236.7 24.21 24
  236.8 25.0 24
  236.9 21.47 21
  237.1 17.53 17
  237.2 21.44 21
  237.3 26.07 26
  237.4 27.26 27
  237.5 23.86 23
  237.6 18.19 18
  237.8 15.26 15
  237.9 19.49 19
  238.0 23.14 23
  238.1 22.58 22
  238.2 17.72 17
  238.4 11.37 11
  238.5 16.6 16
  238.6 24.07 24
  238.7 27.47 27
  238.8 23.86 23
  238.9 17.02 17
  239.1 16.42 16
  239.2 22.35 22
  239.3 25.23 25
  239.4 22.09 22
  239.5 15.63 15
  239.7 13.67 13
  239.8 19.58 19
  239.9 24.7 24
  240.0 25.21 25
  240.1 20.77 20
  240.3 12.81 12
  240.4 17.84 17
  240.5 26.28 26
  240.6 30.81 30
  240.7 27.42 27
  240.8 19.37 19
  241.0 15.05 15
  241.1 21.28 21
  241.2 25.98 25
  241.3 23.86 23
  241.4 16.07 16
  241.6 9.42 9
  241.7 17.21 17
  241.8 26.72 26
  241.9 30.79 30
  242.0 26.81 26
  242.1 18.86 18
  242.3 16.07 16
  242.4 23.3 23
  242.5 29.53 29
  242.6 29.65 29
  242.7 24.09 24
  242.9 18.19 18
  243.0 22.21 22
  243.1 25.65 25
  243.2 24.53 24
  243.3 19.28 19
  243.5 12.16 12
  243.6 16.05 16
  243.7 22.79 22
  243.8 27.28 27
  243.9 25.63 25
  244.0 18.72 18
  244.2 12.79 12
  244.3 20.0 19
  244.4 27.28 27
  244.5 27.88 27
  244.6 21.88 21
  244.8 14.88 14
  244.9 20.3 20
  245.0 26.51 26
  245.1 27.65 27
  245.2 22.95 22
  245.4 15.28 15
  245.5 19.14 19
  245.6 25.23 25
  245.7 28.51 28
  245.8 26.28 26
  245.9 20.51 20
  246.1 18.47 18
  246.2 24.56 24
  246.3 29.05 29
  246.4 27.37 27
  246.5 20.7 20
  246.7 14.09 14
  246.8 19.02 19
  246.9 25.4 25
  247.0 28.23 28
  247.1 25.16 25
  247.2 18.33 18
  247.4 15.81 15
  247.5 23.72 23
  247.6 30.51 30
  247.7 30.3 30
  247.8 23.12 23
  248.1 15.07 15
  248.2 23.0 22
  248.3 28.37 28
  248.4 26.86 26
  248.5 19.91 19
  248.7 13.28 13
  248.8 18.65 18
  248.9 24.3 24
  249.0 24.81 24
  249.1 19.88 19
  249.3 14.05 14
  249.4 20.26 20
  249.5 27.74 27
  249.6 28.95 28
  249.7 21.86 21
  250.0 15.02 15
  250.1 22.05 22
  250.2 25.44 25
  250.3 24.07 24
  250.6 18.33 18
  250.7 24.21 24
  250.8 29.86 29
  250.9 29.19 29
  251.0 21.58 21
  251.2 11.3 11
  251.3 16.77 16
  251.4 24.33 24
  251.5 27.28 27
  251.6 23.16 23
  251.9 15.09 15
  252.0 23.67 23
  252.1 29.37 29
  252.2 27.12 27
  252.3 19.35 19
  252.5 12.28 12
  252.6 17.4 17
  252.7 23.84 23
  252.8 26.21 26
  252.9 22.58 22
  253.1 15.6 15
  253.2 19.84 19
  253.3 24.79 24
  253.4 25.09 25
  253.5 20.37 20
  254.4 14.49 14
  254.5 17.74 17
  254.6 22.93 22
  254.7 26.0 25
  254.8 23.58 23
  255.7 11.05 11
  255.8 17.81 17
  255.9 24.77 24
  256.0 26.23 26
  256.1 21.4 21
  256.3 13.42 13
  256.4 17.93 17
  256.5 24.02 23
  256.6 25.26 25
  256.7 19.86 19
  256.9 11.16 11
  257.0 16.84 16
  257.1 25.28 25
  257.2 29.49 29
  257.3 26.02 25
  257.4 17.93 17
  257.6 12.49 12
  257.7 18.12 18
  257.8 23.33 23
  257.9 24.05 24
  258.0 20.4 20
  258.2 15.12 15
  258.3 19.67 19
  258.4 26.28 26
  258.5 29.02 28
  258.6 25.05 25
  258.7 17.58 17
  258.9 15.44 15
  259.0 23.02 22
  259.1 29.74 29
  259.2 30.14 30
  259.3 24.09 24
  259.6 18.21 18
  259.7 24.67 24
  259.8 28.3 28
  259.9 26.58 26
  260.0 21.53 21
  260.2 19.3 19
  260.3 23.91 23
  260.4 27.44 27
  260.5 26.4 26
  260.6 20.81 20
  260.8 13.07 13
  260.9 18.19 18
  261.0 26.72 26
  261.1 32.23 32
  261.2 30.72 30
  261.3 24.19 24
  261.5 18.65 18
  261.6 23.07 23
  261.7 26.65 26
  261.8 24.86 24
  261.9 18.63 18
  262.1 14.91 14
  262.2 21.95 21
  262.3 28.67 28
  262.4 28.98 28
  262.5 22.67 22
  262.7 13.16 13
  262.8 17.67 17
  262.9 24.02 23
  263.0 26.23 26
  263.1 22.26 22
  263.2 15.23 15
  263.4 13.07 13
  263.5 20.0 19
  263.6 25.47 25
  263.7 24.6 24
  263.8 18.42 18
  264.0 12.86 12
  264.1 19.05 19
  264.2 26.49 26
  264.3 29.16 29
  264.4 25.07 25
  264.5 17.86 17
  264.7 15.21 15
  264.8 20.72 20
  264.9 25.23 25
  265.0 24.88 24
  265.1 19.95 19
  265.3 13.56 13
  265.4 17.58 17
  265.5 23.16 23
  265.6 25.49 25
  265.7 22.47 22
  265.8 16.44 16
  266.0 13.72 13
  266.1 19.19 19
  266.2 23.21 23
  266.3 21.58 21
  266.6 15.91 15
  266.7 22.88 22
  266.8 27.47 27
  266.9 25.3 25
  267.0 17.93 17
  267.2 11.81 11
  267.3 18.28 18
  267.4 25.58 25
  267.5 27.98 27
  267.6 23.95 23
  267.8 15.16 15
  267.9 20.35 20
  268.0 28.7 28
  268.1 32.42 32
  268.2 27.95 27
  268.3 19.12 19
  268.5 12.63 12
  268.6 17.35 17
  268.7 22.86 22
  268.8 25.02 24
  268.9 22.4 22
  269.2 17.26 17
  269.3 22.7 22
  269.4 26.05 26
  269.5 23.3 23
  269.6 15.77 15
  269.8 11.28 11
  269.9 18.51 18
  270.0 24.86 24
  270.1 25.23 25
  270.2 20.47 20
  270.4 15.16 15
  270.5 20.05 20
  270.6 26.26 26
  270.7 27.91 27
  270.8 22.67 22
  271.1 15.07 15
  271.2 22.12 22
  271.3 25.93 25
  271.4 23.72 23
  271.5 17.7 17
  271.7 12.93 12
  271.8 18.33 18
  271.9 24.4 24
  272.0 25.67 25
  272.1 21.28 21
  272.3 14.7 14
  272.4 18.12 18
  272.5 22.84 22
  272.6 25.49 25
  272.7 24.51 24
  272.8 20.56 20
  273.0 16.37 16
  273.1 20.7 20
  273.2 25.3 25
  273.3 25.05 25
  273.4 19.81 19
  273.6 15.58 15
  273.7 21.12 21
  273.8 26.26 26
  273.9 26.19 26
  274.0 21.05 21
  274.3 15.44 15
  274.4 20.58 20
  274.5 24.51 24
  274.6 24.47 24
  274.7 20.72 20
  274.9 16.47 16
  275.0 20.67 20
  275.1 25.98 25
  275.2 27.72 27
  275.3 24.26 24
  275.5 16.63 16
  275.6 19.93 19
  275.7 25.4 25
  275.8 27.12 27
  275.9 22.14 22
  276.0 13.6 13
  276.2 11.19 11
  276.3 19.63 19
  276.4 26.58 26
  276.5 26.53 26
  276.6 20.12 20
  276.8 11.21 11
  276.9 15.4 15
  277.0 22.19 22
  277.1 26.49 26
  277.2 25.19 25
  277.3 19.67 19
  277.5 15.63 15
  277.6 20.84 20
  277.7 24.91 24
  277.8 23.12 23
  277.9 16.58 16
  278.1 12.37 12
  278.2 19.56 19
  278.3 27.21 27
  278.4 29.07 29
  278.5 24.02 23
  279.4 14.33 14
  279.5 21.47 21
  279.6 26.84 26
  279.7 25.23 25
  279.8 17.74 17
  280.0 9.56 9
  280.1 15.42 15
  280.2 23.02 22
  280.3 26.4 26
  280.4 23.6 23
  280.5 17.98 17
  280.7 14.95 14
  280.8 19.79 19
  280.9 25.42 25
  281.0 27.07 27
  281.1 22.7 22
  281.2 15.44 15
  281.4 13.7 13
  281.5 19.93 19
  281.6 24.58 24
  281.7 23.79 23
  282.0 16.86 16
  282.1 23.53 23
  282.2 27.63 27
  282.3 24.47 24
  282.4 17.4 17
  282.6 15.93 15
  282.7 21.44 21
  282.8 25.84 25
  282.9 26.16 26
  283.0 21.91 21
  283.2 14.49 14
  283.3 18.58 18
  283.4 24.91 24
  283.5 27.98 27
  283.6 25.74 25
  283.7 20.49 20
  283.9 16.95 16
  284.0 21.93 21
  284.1 27.65 27
  284.2 29.49 29
  284.3 25.84 25
  285.1 14.95 14
  285.2 19.47 19
  285.3 24.67 24
  285.4 26.33 26
  285.5 22.98 22
  285.6 17.02 17
  285.8 15.37 15
  285.9 21.3 21
  286.0 25.74 25
  286.1 24.56 24
  286.2 18.84 18
  286.4 12.02 12
  286.5 15.81 15
  286.6 20.93 20
  286.7 22.72 22
  286.8 19.3 19
  287.1 12.26 12
  287.2 19.49 19
  287.3 25.79 25
  287.4 26.47 26
  287.5 22.07 22
  287.7 16.4 16
  287.8 19.72 19
  287.9 24.12 24
  288.0 25.4 25
  288.1 21.86 21
  288.4 16.3 16
  288.5 21.42 21
  288.6 24.21 24
  288.7 22.56 22
  289.0 17.93 17
  289.1 22.26 22
  289.2 25.23 25
  289.3 23.49 23
  289.6 16.35 16
  289.7 23.21 23
  289.8 28.72 28
  289.9 28.42 28
  290.0 23.09 23
  290.9 15.05 15
  291.0 20.16 20
  291.1 24.56 24
  291.2 24.26 24
  291.3 19.72 19
  291.5 14.67 14
  291.6 19.28 19
  291.7 25.74 25
  291.8 28.67 28
  291.9 24.98 24
  292.0 17.44 17
  292.2 15.23 15
  292.3 21.67 21
  292.4 25.86 25
  292.5 24.33 24
  292.6 18.95 18
  292.8 15.67 15
  292.9 20.47 20
  293.0 24.93 24
  293.1 25.02 24
  293.2 19.84 19
  293.4 11.26 11
  293.5 18.05 18
  293.6 29.16 29
  293.7 35.05 35
  293.8 30.3 30
  293.9 19.26 19
  294.1 13.37 13
  294.2 21.79 21
  294.3 28.98 28
  294.4 28.86 28
  294.5 21.51 21
  294.8 12.21 12
  294.9 20.16 20
  295.0 26.19 26
  295.1 25.93 25
  295.2 20.74 20
  295.4 16.95 16
  295.5 21.51 21
  295.6 25.77 25
  295.7 26.21 26
  295.8 22.35 22
  296.0 16.56 16
  296.1 21.6 21
  296.2 27.7 27
  296.3 27.98 27
  296.4 21.56 21
  296.6 12.93 12
  296.7 18.07 18
  296.8 25.16 25
  296.9 28.0 27
  297.0 23.77 23
  297.1 15.37 15
  297.3 11.93 11
  297.4 20.77 20
  297.5 29.56 29
  297.6 32.05 32
  297.7 27.35 27
  297.8 20.02 19
  298.0 18.74 18
  298.1 25.16 25
  298.2 29.6 29
  298.3 27.63 27
  298.4 20.67 20
  298.6 15.91 15
  298.7 22.4 22
  298.8 28.63 28
  298.9 29.23 29
  299.0 23.7 23
  299.3 17.02 17
  299.4 24.19 24
  299.5 28.42 28
  299.6 25.93 25
  300.5 12.88 12
  300.6 18.93 18
  300.7 25.21 25
  300.8 27.02 26
  300.9 23.33 23
  301.1 15.23 15
  301.2 18.67 18
  301.3 24.77 24
  301.4 27.49 27
  301.5 23.86 23
  301.6 17.21 17
  301.8 16.63 16
  301.9 22.4 22
  302.0 25.4 25
  302.1 22.6 22
  302.2 15.88 15
  302.4 9.84 9
  302.5 14.98 14
  302.6 21.3 21
  302.7 23.7 23
  302.8 21.02 20
  303.0 15.3 15
  303.1 18.91 18
  303.2 24.81 24
  303.3 28.05 28
  303.4 25.65 25
  303.5 19.23 19
  303.7 13.28 13
  303.8 18.0 17
  303.9 23.74 23
  304.0 25.91 25
  304.1 22.95 22
  304.3 16.26 16
  304.4 20.42 20
  304.5 27.05 27
  304.6 29.56 29
  304.7 24.56 24
  304.8 15.53 15
  305.0 11.91 11
  305.1 20.33 20
  305.2 27.67 27
  305.3 27.65 27
  305.4 20.6 20
  305.6 10.81 10
  305.7 15.72 15
  305.8 23.26 23
  305.9 27.51 27
  306.0 25.6 25
  306.9 12.16 12
  307.0 19.63 19
  307.1 26.67 26
  307.2 26.95 26
  307.3 20.26 20
  307.5 9.93 9
  307.6 14.56 14
  307.7 21.84 21
  307.8 25.3 25
  307.9 22.12 22
  308.0 15.3 15
  308.2 13.02 13
  308.3 21.0 20
  308.4 28.4 28
  308.5 27.98 27
  308.6 18.81 18
  308.8 6.12 6
  308.9 13.79 13
  309.0 24.26 24
  309.1 28.6 28
  309.2 24.4 24
  310.1 13.79 13
  310.2 20.98 20
  310.3 26.21 26
  310.4 24.93 24
  310.5 18.53 18
  310.7 11.88 11
  310.8 17.4 17
  310.9 24.7 24
  311.0 27.7 27
  311.1 23.88 23
  311.2 16.79 16
  311.4 14.93 14
  311.5 20.74 20
  311.6 24.91 24
  311.7 24.19 24
  311.8 19.49 19
  312.0 14.74 14
  312.1 19.81 19
  312.2 26.09 26
  312.3 28.05 28
  312.4 24.19 24
  312.6 16.65 16
  312.7 20.09 20
  312.8 25.21 25
  312.9 26.91 26
  313.0 23.4 23
  313.2 15.4 15
  313.3 18.95 18
  313.4 25.81 25
  313.5 30.63 30
  313.6 29.65 29
  313.7 23.33 23
  313.9 13.09 13
  314.0 17.58 17
  314.1 26.26 26
  314.2 31.86 31
  314.3 29.19 29
  314.4 20.4 20
  314.6 14.56 14
  314.7 21.86 21
  314.8 28.58 28
  314.9 29.65 29
  315.0 25.26 25
  315.1 19.44 19
  315.8 14.0 13
  315.9 19.37 19
  316.0 26.84 26
  316.1 29.19 29
  316.2 24.79 24
  316.3 18.12 18
  316.5 16.79 16
  316.6 22.51 22
  316.7 26.98 26
  316.8 26.35 26
  316.9 20.95 20
  317.1 14.07 14
  317.2 17.86 17
  317.3 22.95 22
  317.4 24.65 24
  317.5 21.23 21
  317.8 14.7 14
  317.9 21.51 21
  318.0 27.37 27
  318.1 27.65 27
  318.2 22.47 22
  318.4 15.16 15
  318.5 20.09 20
  318.6 27.21 27
  318.7 29.91 29
  318.8 24.65 24
  318.9 15.16 15
  319.1 12.05 12
  319.2 19.7 19
  319.3 25.05 25
  319.4 23.79 23
  319.5 17.51 17
  319.7 11.98 11
  319.8 18.28 18
  319.9 25.14 25
  320.0 26.19 26
  320.1 20.49 20
  320.3 10.58 10
  320.4 14.93 14
  320.5 22.21 22
  320.6 25.86 25
  320.7 22.95 22
  320.8 16.7 16
  321.0 14.7 14
  321.1 19.84 19
  321.2 24.14 24
  321.3 24.28 24
  321.4 20.12 20
  321.6 14.56 14
  321.7 18.12 18
  321.8 22.3 22
  321.9 22.84 22
  322.0 19.07 19
  322.2 13.26 13
  322.3 18.05 18
  322.4 26.02 25
  322.5 31.14 31
  322.6 29.26 29
  322.7 22.12 22
  322.9 17.42 17
  323.0 24.23 24
  323.1 30.0 29
  323.2 28.84 28
  323.3 21.58 21
  323.5 14.95 14
  323.6 21.47 21
  323.7 28.12 28
  323.8 28.47 28
  323.9 22.3 22
  324.0 15.07 15
  324.2 14.21 14
  324.3 19.6 19
  324.4 24.77 24
  324.5 26.44 26
  324.6 23.67 23
  324.8 17.91 17
  324.9 21.44 21
  325.0 26.98 26
  325.1 29.19 29
  325.2 25.14 25
  325.3 17.16 17
  325.5 12.4 12
  325.6 19.09 19
  325.7 25.37 25
  325.8 25.77 25
  325.9 20.7 20
  326.1 16.86 16
  326.2 22.49 22
  326.3 27.65 27
  326.4 27.88 27
  326.5 23.19 23
  326.7 15.3 15
  326.8 19.12 19
  326.9 25.7 25
  327.0 28.77 28
  327.1 24.77 24
  327.2 16.56 16
  327.4 13.02 13
  327.5 19.98 19
  327.6 25.56 25
  327.7 25.42 25
  327.8 20.67 20
  328.0 15.84 15
  328.1 20.3 20
  328.2 25.77 25
  328.3 27.42 27
  328.4 23.7 23
  328.5 17.91 17
  328.7 16.37 16
  328.8 20.58 20
  328.9 23.88 23
  329.0 24.37 24
  329.3 20.07 20
  329.4 24.14 24
  329.5 28.98 28
  329.6 28.88 28
  329.7 21.86 21
  330.6 17.79 17
  330.7 21.53 21
  330.8 24.0 23
  330.9 22.6 22
  331.0 18.09 18
  331.2 15.4 15
  331.3 20.33 20
  331.4 25.21 25
  331.5 26.16 26
  331.6 22.3 22
  331.9 15.74 15
  332.0 21.33 21
  332.1 24.33 24
  332.2 20.93 20
  332.5 11.7 11
  332.6 20.67 20
  332.7 28.4 28
  332.8 28.77 28
  332.9 22.33 22
  333.8 11.79 11
  333.9 16.88 16
  334.0 21.0 20
  334.1 20.81 20
  334.4 15.28 15
  334.5 21.4 21
  334.6 27.23 27
  334.7 27.42 27
  334.8 20.98 20
  335.1 13.42 13
  335.2 20.28 20
  335.3 23.77 23
  335.4 21.05 21
  335.6 12.05 12
  335.7 15.56 15
  335.8 23.35 23
  335.9 29.26 29
  336.0 28.47 28
  336.1 21.51 21
  336.3 11.42 11
  336.4 15.81 15
  336.5 23.02 22
  336.6 27.09 27
  336.7 25.3 25
  336.8 19.35 19
  337.0 14.35 14
  337.1 21.23 21
  337.2 29.09 29
  337.3 30.12 30
  337.4 22.88 22
  337.6 13.16 13
  337.7 19.44 19
  337.8 26.23 26
  337.9 26.74 26
  338.0 20.95 20
  338.2 15.07 15
  338.3 21.6 21
  338.4 28.84 28
  338.5 29.98 29
  338.6 23.58 23
  338.7 14.95 14
  338.9 13.86 13
  339.0 19.6 19
  339.1 22.65 22
  339.2 20.58 20
  339.5 14.7 14
  339.6 22.35 22
  339.7 29.26 29
  339.8 29.79 29
  339.9 24.0 23
  340.0 16.93 16
  340.2 16.42 16
  340.3 22.0 21
  340.4 25.91 25
  340.5 24.74 24
  340.6 19.28 19
  340.8 13.14 13
  340.9 17.63 17
  341.0 23.47 23
  341.1 25.12 25
  341.2 20.65 20
  341.4 12.79 12
  341.5 18.88 18
  341.6 27.63 27
  341.7 31.65 31
  341.8 27.95 27
  341.9 20.0 19
  342.1 15.81 15
  342.2 22.77 22
  342.3 28.72 28
  342.4 27.7 27
  342.5 20.09 20
  342.7 10.09 10
  342.8 15.3 15
  342.9 23.19 23
  343.0 27.16 27
  343.1 24.47 24
  343.2 17.88 17
  343.4 13.84 13
  343.5 18.63 18
  343.6 23.05 23
  343.7 23.16 23
  343.8 18.63 18
  344.0 11.42 11
  344.1 15.81 15
  344.2 22.95 22
  344.3 26.88 26
  344.4 24.28 24
  344.5 17.49 17
  344.7 15.3 15
  344.8 23.35 23
  344.9 29.74 29
  345.0 28.05 28
  345.1 19.63 19
  345.3 14.26 14
  345.4 22.86 22
  345.5 30.07 30
  345.6 28.84 28
  345.7 20.35 20
  345.9 11.74 11
  346.0 17.74 17
  346.1 24.23 24
  346.2 25.79 25
  346.3 21.7 21
  346.5 13.88 13
  346.6 18.58 18
  346.7 27.0 26
  346.8 32.23 32
  346.9 29.14 29
  347.0 19.49 19
  347.2 11.02 11
  347.3 18.4 18
  347.4 25.74 25
  347.5 26.0 25
  347.6 19.05 19
  347.8 8.95 8
  347.9 13.88 13
  348.0 21.98 21
  348.1 27.37 27
  348.2 26.77 26
  348.3 21.42 21
  349.1 12.56 12
  349.2 15.49 15
  349.3 21.16 21
  349.4 24.26 24
  349.5 21.93 21
  349.8 15.77 15
  349.9 23.28 23
  350.0 28.93 28
  350.1 27.81 27
  350.2 21.26 21
  350.4 15.7 15
  350.5 21.33 21
  350.6 26.77 26
  350.7 26.3 26
  350.8 19.42 19
  351.0 10.02 10
  351.1 16.4 16
  351.2 25.72 25
  351.3 30.84 30
  351.4 28.33 28
  351.5 21.21 21
  351.7 16.63 16
  351.8 22.79 22
  351.9 28.91 28
  352.0 29.84 29
  352.1 25.0 24
  352.9 13.77 13
  353.0 17.53 17
  353.1 25.0 24
  353.2 30.53 30
  353.3 29.42 29
  353.4 22.02 21
  353.6 12.86 12
  353.7 19.42 19
  353.8 27.91 27
  353.9 30.49 30
  354.0 25.23 25
  354.8 12.21 12
  354.9 16.09 16
  355.0 22.77 22
  355.1 27.47 27
  355.2 26.72 26
  355.3 20.42 20
  355.5 10.77 10
  355.6 15.6 15
  355.7 23.95 23
  355.8 29.6 29
  355.9 28.7 28
  356.0 22.49 22
  356.2 15.09 15
  356.3 19.3 19
  356.4 24.51 24
  356.5 26.02 25
  356.6 23.14 23
  356.8 17.88 17
  356.9 20.93 20
  357.0 25.53 25
  357.1 27.3 27
  357.2 23.95 23
  357.5 17.74 17
  357.6 24.81 24
  357.7 29.42 29
  357.8 26.84 26
  357.9 18.88 18
  358.1 14.3 14
  358.2 22.3 22
  358.3 29.05 29
  358.4 27.74 27
  358.5 19.12 19
  358.7 10.63 10
  358.8 18.58 18
  358.9 28.02 27
  359.0 31.28 31
  359.1 26.02 25
  359.2 16.79 16
  359.4 13.79 13
  359.5 21.79 21
  359.6 28.16 28
  359.7 27.84 27
  359.8 22.12 22
  360.0 18.05 18
  360.1 24.44 24
  360.2 30.37 30
  360.3 30.28 30
  360.4 24.33 24
  361.3 13.16 13
  361.4 18.4 18
  361.5 24.74 24
  361.6 27.47 27
  361.7 24.7 24
  362.0 19.26 19
  362.1 24.98 24
  362.2 28.88 28
  362.3 27.67 27
  362.4 22.91 22
  362.5 19.4 19
  362.6 19.84 19
  362.7 21.67 21
  362.8 19.84 19
  362.9 12.58 12
  363.2 4.05 4
  363.3 13.33 13
  363.4 21.84 21
  363.5 24.86 24
  363.6 21.79 21
  364.5 14.28 14
  364.6 20.21 20
  364.7 24.12 24
  364.8 22.33 22
  364.9 16.26 16
  365.1 13.05 13
  365.2 19.4 19
  365.3 25.44 25
  365.4 26.65 26
  365.5 22.35 22
  365.6 15.84 15
  365.8 13.49 13
  365.9 18.98 18
  366.0 23.67 23
  366.1 23.6 23
  366.2 19.0 18
  366.4 14.74 14
  366.5 20.16 20
  366.6 25.81 25
  366.7 26.44 26
  366.8 21.12 21
  367.0 12.7 12
  367.1 17.77 17
  367.2 24.84 24
  367.3 27.49 27
  367.4 24.14 24
  367.5 18.6 18
  367.7 17.37 17
  367.8 22.77 22
  367.9 27.74 27
  368.0 28.23 28
  368.1 23.98 23
  368.3 18.6 18
  368.4 22.47 22
  368.5 27.33 27
  368.6 29.44 29
  368.7 27.09 27
  368.8 21.56 21
  369.0 15.74 15
  369.1 18.86 18
  369.2 22.28 22
  369.3 22.47 22
  369.6 18.93 18
  369.7 23.88 23
  369.8 27.65 27
  369.9 26.37 26
  370.0 20.42 20
  370.2 11.58 11
  370.3 15.58 15
  370.4 22.79 22
  370.5 26.95 26
  370.6 24.35 24
  370.7 17.42 17
  370.9 13.28 13
  371.0 19.12 19
  371.1 25.35 25
  371.2 26.84 26
  371.3 22.05 22
  371.6 14.95 14
  371.7 20.53 20
  371.8 23.19 23
  371.9 21.33 21
  372.2 17.37 17
  372.3 22.56 22
  372.4 27.21 27
  372.5 27.63 27
  372.6 23.26 23
  372.7 17.49 17
  373.4 9.21 9
  373.5 12.65 12
  373.6 21.12 21
  373.7 27.98 27
  373.8 27.79 27
  373.9 21.09 21
  374.1 12.88 12
  374.2 18.95 18
  374.3 26.58 26
  374.4 28.47 28
  374.5 22.47 22
  374.8 14.35 14
  374.9 22.49 22
  375.0 27.74 27
  375.1 26.02 25
  375.2 19.16 19
  375.4 12.95 12
  375.5 18.07 18
  375.6 24.09 24
  375.7 26.37 26
  375.8 23.65 23
  375.9 18.58 18
  376.7 14.07 14
  376.8 20.65 20
  376.9 25.53 25
  377.0 24.47 24
  377.2 15.65 15
  377.3 18.7 18
  377.4 26.37 26
  377.5 31.7 31
  377.6 29.14 29
  377.7 20.12 20
  377.9 9.86 9
  378.0 14.6 14
  378.1 21.44 21
  378.2 24.67 24
  378.3 21.56 21
  378.4 14.7 14
  378.6 13.21 13
  378.7 20.47 20
  378.8 25.88 25
  378.9 24.7 24
  379.0 18.07 18
  379.2 12.93 12
  379.3 19.67 19
  379.4 26.74 26
  379.5 28.49 28
  379.6 24.14 24
  379.9 17.05 17
  380.0 24.16 24
  380.1 28.95 28
  380.2 26.4 26
  380.3 18.19 18
  380.5 11.91 11
  380.6 18.09 18
  380.7 23.6 23
  380.8 23.42 23
  380.9 18.28 18
  381.1 13.74 13
  381.2 19.09 19
  381.3 25.21 25
  381.4 27.35 27
  381.5 23.93 23
  381.6 17.49 17
  381.8 14.6 14
  381.9 21.56 21
  382.0 28.3 28
  382.1 28.58 28
  382.2 22.05 22
  382.4 14.33 14
  382.5 20.42 20
  382.6 27.51 27
  382.7 29.19 29
  382.8 23.63 23
  382.9 14.77 14
  383.1 13.33 13
  383.2 22.51 22
  383.3 29.74 29
  383.4 29.6 29
  383.5 23.49 23
  383.7 16.4 16
  383.8 20.05 20
  383.9 24.3 24
  384.0 25.12 25
  384.1 21.7 21
  384.2 16.7 16
  384.4 15.81 15
  384.5 20.16 20
  384.6 23.09 23
  384.7 22.0 21
  385.0 17.35 17
  385.1 23.05 23
  385.2 27.79 27
  385.3 26.63 26
  385.4 19.33 19
  385.6 9.33 9
  385.7 14.28 14
  385.8 21.86 21
  385.9 25.79 25
  386.0 22.93 22
  386.1 15.88 15
  386.3 12.65 12
  386.4 19.09 19
  386.5 24.14 24
  386.6 23.65 23
  386.7 18.98 18
  386.9 15.79 15
  387.0 20.42 20
  387.1 24.74 24
  387.2 24.86 24
  387.3 20.81 20
  387.5 15.44 15
  387.6 18.91 18
  387.7 24.09 24
  387.8 26.95 26
  387.9 25.05 25
  388.0 19.77 19
  388.2 16.21 16
  388.3 20.91 20
  388.4 24.79 24
  388.5 23.51 23
  388.6 17.63 17
  388.8 12.19 12
  388.9 18.28 18
  389.0 25.53 25
  389.1 27.74 27
  389.2 23.14 23
  389.3 15.7 15
  389.5 14.0 13
  389.6 21.26 21
  389.7 26.77 26
  389.8 25.26 25
  389.9 17.7 17
  390.1 11.95 11
  390.2 19.07 19
  390.3 25.98 25
  390.4 26.79 26
  390.5 21.51 21
  390.7 14.07 14
  390.8 19.19 19
  390.9 26.47 26
  391.0 29.3 29
  391.1 24.86 24
  391.2 17.16 17
  391.4 15.95 15
  391.5 22.19 22
  391.6 25.79 25
  391.7 23.44 23
  392.0 15.19 15
  392.1 23.47 23
  392.2 31.37 31
  392.3 32.88 32
  392.4 26.88 26
  392.5 18.33 18
  392.7 16.77 16
  392.8 23.02 22
  392.9 27.02 26
  393.0 26.12 26
  393.1 21.74 21
  393.3 15.88 15
  393.4 18.65 18
  393.5 23.09 23
  393.6 24.7 24
  393.7 21.44 21
  393.9 14.93 14
  394.0 19.23 19
  394.1 26.02 25
  394.2 29.14 29
  394.3 25.19 25
  394.4 17.02 17
  394.6 13.07 13
  394.7 19.93 19
  394.8 25.37 25
  394.9 24.28 24
  395.0 17.86 17
  395.2 15.09 15
  395.3 23.3 23
  395.4 29.91 29
  395.5 28.91 28
  395.6 21.7 21
  396.5 14.98 14
  396.6 19.67 19
  396.7 24.42 24
  396.8 25.14 25
  396.9 20.79 20
  397.1 13.09 13
  397.2 17.65 17
  397.3 25.3 25
  397.4 29.21 29
  397.5 25.4 25
  397.6 17.21 17
  397.8 14.51 14
  397.9 21.37 21
  398.0 26.14 26
  398.1 24.6 24
  398.2 18.56 18
  398.4 15.33 15
  398.5 22.0 21
  398.6 28.49 28
  398.7 29.88 29
  398.8 25.65 25
  398.9 19.12 19
  399.1 15.86 15
  399.2 21.12 21
  399.3 25.6 25
  399.4 24.74 24
  399.5 19.05 19
  399.7 14.53 14
  399.8 20.67 20
  399.9 27.12 27
  400.0 28.07 28
  400.1 22.42 22
  400.3 12.79 12
  400.4 17.09 17
  400.5 24.02 23
  400.6 27.44 27
  400.7 24.79 24
  400.8 18.67 18
  401.0 16.35 16
  401.1 21.98 21
  401.2 26.19 26
  401.3 25.09 25
  401.4 19.16 19
  401.6 12.09 12
  401.7 17.19 17
  401.8 24.0 23
  401.9 26.19 26
  402.0 21.47 21
  402.3 15.42 15
  402.4 22.16 22
  402.5 26.44 26
  402.6 25.65 25
  402.7 20.93 20
  402.9 15.6 15
  403.0 20.88 20
  403.1 27.4 27
  403.2 28.16 28
  403.3 21.19 21
  403.6 14.65 14
  403.7 21.47 21
  403.8 24.95 24
  403.9 24.07 24
  404.2 20.28 20
  404.3 23.67 23
  404.4 27.02 26
  404.5 27.07 27
  404.6 23.02 22
  404.8 16.95 16
  404.9 21.07 21
  405.0 26.4 26
  405.1 27.05 27
  405.2 21.84 21
  405.4 15.74 15
  405.5 21.47 21
  405.6 27.53 27
  405.7 28.16 28
  405.8 22.81 22
  406.1 15.67 15
  406.2 22.81 22
  406.3 28.74 28
  406.4 28.88 28
  406.5 23.44 23
  406.7 15.77 15
  406.8 19.56 19
  406.9 24.7 24
  407.0 26.12 26
  407.1 22.67 22
  407.3 16.19 16
  407.4 19.98 19
  407.5 25.79 25
  407.6 28.0 27
  407.7 23.77 23
  407.8 16.0 15
  408.0 13.14 13
  408.1 20.91 20
  408.2 27.91 27
  408.3 28.67 28
  408.4 23.47 23
  408.5 17.19 17
  408.7 16.4 16
  408.8 20.72 20
  408.9 23.98 23
  409.0 23.33 23
  409.1 18.58 18
  409.3 13.65 13
  409.4 19.81 19
  409.5 26.74 26
  409.6 27.81 27
  409.7 22.14 22
  410.5 15.05 15
  410.6 19.12 19
  410.7 25.91 25
  410.8 30.33 30
  410.9 28.65 28
  411.0 22.26 22
  411.2 16.35 16
  411.3 20.95 20
  411.4 25.86 25
  411.5 26.42 26
  411.6 22.28 22
  411.9 17.12 17
  412.0 21.53 21
  412.1 24.84 24
  412.2 24.79 24
  412.3 21.65 21
  412.5 17.93 17
  412.6 21.12 21
  412.7 24.81 24
  412.8 24.72 24
  412.9 19.7 19
  413.1 11.4 11
  413.2 15.74 15
  413.3 23.09 23
  413.4 27.51 27
  413.5 25.81 25
  413.6 20.3 20
  413.8 16.74 16
  413.9 19.86 19
  414.0 21.91 21
  414.1 20.91 20
  414.4 16.07 16
  414.5 20.98 20
  414.6 28.26 28
  414.7 32.98 32
  414.8 30.88 30
  414.9 23.3 23
  415.1 16.67 16
  415.2 21.37 21
  415.3 25.0 24
  415.4 23.35 23
  415.5 17.86 17
  415.7 13.42 13
  415.8 17.63 17
  415.9 22.28 22
  416.0 23.84 23
  416.1 21.56 21
  416.3 15.4 15
  416.4 17.65 17
  416.5 23.35 23
  416.6 27.84 27
  416.7 26.47 26
  416.8 19.37 19
  417.0 9.7 9
  417.1 14.05 14
  417.2 20.88 20
  417.3 24.16 24
  417.4 21.19 21
  417.6 12.79 12
  417.7 16.63 16
  417.8 22.95 22
  417.9 25.53 25
  418.0 22.21 22
  418.3 14.91 14
  418.4 21.4 21
  418.5 27.09 27
  418.6 27.49 27
  418.7 22.93 22
  418.8 17.95 17
  419.5 13.21 13
  419.6 16.72 16
  419.7 23.58 23
  419.8 27.72 27
  419.9 25.07 25
  420.0 17.81 17
  420.2 14.6 14
  420.3 22.33 22
  420.4 28.51 28
  420.5 26.81 26
  420.6 18.47 18
  420.8 11.16 11
  420.9 18.63 18
  421.0 26.95 26
  421.1 29.44 29
  421.2 24.91 24
  421.5 18.47 18
  421.6 24.42 24
  421.7 27.58 27
  421.8 25.05 25
  421.9 19.09 19
  422.1 17.51 17
  422.2 23.37 23
  422.3 27.53 27
  422.4 26.7 26
  422.5 22.26 22
  422.7 17.51 17
  422.8 20.23 20
  422.9 23.84 23
  423.0 25.44 25
  423.1 23.58 23
  423.2 18.88 18
  423.4 12.91 12
  423.5 16.63 16
  423.6 22.51 22
  423.7 25.35 25
  423.8 23.02 22
  424.0 16.98 16
  424.1 19.74 19
  424.2 24.53 24
  424.3 26.95 26
  424.4 24.05 24
  424.7 16.58 16
  424.8 23.02 22
  424.9 26.56 26
  425.0 23.53 23
  425.1 16.84 16
  425.3 15.07 15
  425.4 20.93 20
  425.5 24.42 24
  425.6 22.26 22
  425.7 16.67 16
  425.9 13.07 13
  426.0 17.21 17
  426.1 22.28 22
  426.2 25.21 25
  426.3 24.02 23
  426.4 19.26 19
  426.6 14.63 14
  426.7 20.0 19
  426.8 26.09 26
  426.9 26.79 26
  427.0 20.98 20
  427.2 12.47 12
  427.3 16.98 16
  427.4 22.6 22
  427.5 23.95 23
  427.6 20.0 19
  427.9 12.53 12
  428.0 19.14 19
  428.1 25.07 25
  428.2 25.3 25
  428.3 19.72 19
  428.5 13.05 13
  428.6 19.28 19
  428.7 27.07 27
  428.8 29.4 29
  428.9 23.88 23
  429.0 15.19 15
  429.2 13.65 13
  429.3 22.19 22
  429.4 29.09 29
  429.5 28.14 28
  429.6 19.72 19
  429.8 12.0 11
  429.9 20.81 20
  430.0 29.84 29
  430.1 31.07 31
  430.2 23.93 23
  430.3 14.81 14
  430.5 14.47 14
  430.6 21.56 21
  430.7 25.65 25
  430.8 23.3 23
  430.9 17.21 17
  431.1 15.21 15
  431.2 19.95 19
  431.3 23.12 23
  431.4 22.4 22
  431.7 18.05 18
  431.8 22.98 22
  431.9 27.95 27
  432.0 28.81 28
  432.1 24.42 24
  432.2 17.74 17
  432.4 14.88 14
  432.5 20.33 20
  432.6 25.58 25
  432.7 26.77 26
  432.8 23.09 23
  433.6 15.09 15
  433.7 20.79 20
  433.8 26.05 26
  433.9 26.91 26
  434.0 22.53 22
  434.3 15.35 15
  434.4 22.72 22
  434.5 28.72 28
  434.6 28.35 28
  434.7 22.09 22
  434.9 14.6 14
  435.0 19.53 19
  435.1 25.51 25
  435.2 26.81 26
  435.3 22.21 22
  436.1 13.74 13
  436.2 17.02 17
  436.3 23.6 23
  436.4 28.12 28
  436.5 27.16 27
  436.6 22.14 22
  436.8 17.93 17
  436.9 22.05 22
  437.0 26.65 26
  437.1 27.88 27
  437.2 24.19 24
  437.5 16.81 16
  437.6 23.6 23
  437.7 29.4 29
  437.8 29.28 29
  437.9 23.14 23
  439.3 13.26 13
  439.4 16.58 16
  439.5 22.74 22
  439.6 26.84 26
  439.7 25.7 25
  439.8 20.51 20
  440.6 14.77 14
  440.7 18.51 18
  440.8 22.84 22
  440.9 24.12 24
  441.0 21.16 21
  441.1 16.09 16
  441.3 13.67 13
  441.4 19.09 19
  441.5 25.14 25
  441.6 26.44 26
  441.7 21.05 21
  441.9 11.95 11
  442.0 17.67 17
  442.1 25.14 25
  442.2 27.09 27
  442.3 21.47 21
  442.4 12.58 12
  442.6 10.33 10
  442.7 17.6 17
  442.8 22.49 22
  442.9 20.67 20
  443.0 14.21 14
  443.2 10.84 10
  443.3 18.07 18
  443.4 25.81 25
  443.5 28.77 28
  443.6 25.42 25
  443.7 18.84 18
  443.9 14.09 14
  444.0 17.3 17
  444.1 19.98 19
  444.2 19.67 19
  444.5 16.3 16
  444.6 21.72 21
  444.7 26.79 26
  444.8 26.37 26
  444.9 20.7 20
  445.1 17.26 17
  445.2 23.93 23
  445.3 29.91 29
  445.4 30.37 30
  445.5 25.23 25
  445.8 18.63 18
  445.9 24.44 24
  446.0 27.42 27
  446.1 24.98 24
  446.2 19.72 19
  446.4 17.28 17
  446.5 21.98 21
  446.6 26.74 26
  446.7 27.58 27
  446.8 23.16 23
  447.1 16.65 16
  447.2 24.35 24
  447.3 30.91 30
  447.4 30.88 30
  447.5 23.84 23
  448.3 8.88 8
  448.4 14.07 14
  448.5 23.56 23
  448.6 29.3 29
  448.7 27.42 27
  448.8 21.47 21
  449.0 18.7 18
  449.1 22.28 22
  449.2 24.95 24
  449.3 24.49 24
  449.4 20.86 20
  449.6 16.49 16
  449.7 21.0 20
  449.8 27.65 27
  449.9 30.93 30
  450.0 27.53 27
  450.1 20.02 19
  450.3 16.21 16
  450.4 20.63 20
  450.5 21.79 21
  450.6 17.51 17
  450.8 11.02 11
  450.9 16.49 16
  451.0 24.67 24
  451.1 30.0 29
  451.2 28.98 28
  451.3 22.7 22
  451.5 14.77 14
  451.6 19.58 19
  451.7 25.91 25
  451.8 27.86 27
  451.9 23.67 23
  452.2 16.81 16
  452.3 23.44 23
  452.4 27.63 27
  452.5 25.77 25
  452.6 20.35 20
  452.8 17.65 17
  452.9 21.12 21
  453.0 24.16 24
  453.1 24.35 24
  453.2 20.86 20
  453.4 14.07 14
  453.5 17.37 17
  453.6 22.86 22
  453.7 25.51 25
  453.8 23.3 23
  453.9 18.53 18
  454.1 16.53 16
  454.2 21.72 21
  454.3 26.79 26
  454.4 27.07 27
  454.5 21.49 21
  454.7 11.14 11
  454.8 15.67 15
  454.9 24.63 24
  455.0 30.65 30
  455.1 28.72 28
  455.2 21.16 21
  455.4 15.33 15
  455.5 20.6 20
  455.6 25.37 25
  455.7 25.19 25
  455.8 20.4 20
  456.0 16.56 16
  456.1 22.12 22
  456.2 27.28 27
  456.3 27.4 27
  456.4 22.6 22
  456.5 16.63 16
  456.7 14.88 14
  456.8 19.33 19
  456.9 22.86 22
  457.0 22.88 22
  457.1 20.26 20
  457.3 17.6 17
  457.4 20.23 20
  457.5 23.6 23
  457.6 24.58 24
  457.7 21.93 21
  458.5 11.72 11
  458.6 14.56 14
  458.7 22.44 22
  458.8 28.95 28
  458.9 27.81 27
  459.0 20.0 19
  459.2 11.95 11
  459.3 17.26 17
  459.4 23.53 23
  459.5 26.05 26
  459.6 23.86 23
  459.9 18.98 18
  460.0 23.74 23
  460.1 27.67 27
  460.2 27.14 27
  460.3 22.42 22
  460.5 18.86 18
  460.6 24.12 24
  460.7 28.14 28
  460.8 25.88 25
  460.9 18.74 18
  461.1 14.26 14
  461.2 21.42 21
  461.3 28.37 28
  461.4 28.81 28
  461.5 22.14 22
  461.8 14.86 14
  461.9 22.09 22
  462.0 26.95 26
  462.1 26.12 26
  462.2 20.58 20
  462.4 14.74 14
  462.5 19.84 19
  462.6 25.3 25
  462.7 25.65 25
  462.8 20.56 20
  463.0 13.67 13
  463.1 18.44 18
  463.2 25.19 25
  463.3 28.0 27
  463.4 24.16 24
  463.5 16.47 16
  463.7 11.63 11
  463.8 17.93 17
  463.9 24.6 24
  464.0 26.56 26
  464.1 23.16 23
  464.3 16.86 16
  464.4 20.77 20
  464.5 27.05 27
  464.6 30.05 30
  464.7 26.12 26
  464.8 18.12 18
  465.0 15.81 15
  465.1 23.63 23
  465.2 29.63 29
  465.3 28.7 28
  465.4 21.95 21
  465.6 15.49 15
  465.7 20.91 20
  465.8 26.63 26
  465.9 27.44 27
  466.0 22.44 22
  466.1 15.3 15
  466.3 13.4 13
  466.4 19.23 19
  466.5 23.95 23
  466.6 23.91 23
  466.7 19.65 19
  466.9 15.37 15
  467.0 20.49 20
  467.1 26.4 26
  467.2 27.49 27
  467.3 22.02 21
  467.5 12.35 12
  467.6 17.58 17
  467.7 25.67 25
  467.8 29.53 29
  467.9 26.33 26
  468.0 19.09 19
  468.2 14.19 14
  468.3 20.37 20
  468.4 27.44 27
  468.5 29.72 29
  468.6 25.51 25
  468.7 18.7 18
  468.9 17.88 17
  469.0 24.02 23
  469.1 27.51 27
  469.2 24.16 24
  469.3 16.12 16
  469.5 12.21 12
  469.6 20.42 20
  469.7 27.58 27
  469.8 27.86 27
  469.9 22.05 22
  470.1 15.95 15
  470.2 20.86 20
  470.3 25.47 25
  470.4 24.37 24
  470.5 17.63 17
  470.7 10.4 10
  470.8 16.42 16
  470.9 24.07 24
  471.0 27.63 27
  471.1 25.21 25
  471.2 19.37 19
  471.4 15.47 15
  471.5 19.84 19
  471.6 23.58 23
  471.7 22.91 22
  471.8 18.28 18
  472.0 14.6 14
  472.1 20.21 20
  472.2 25.93 25
  472.3 26.05 26
  472.4 19.93 19
  472.6 12.0 11
  472.7 17.02 17
  472.8 23.44 23
  472.9 25.88 25
  473.0 22.35 22
  473.1 15.74 15
  473.3 14.09 14
  473.4 20.95 20
  473.5 26.6 26
  473.6 26.47 26
  473.7 20.4 20
  473.9 9.98 9
  474.0 14.26 14
  474.1 22.0 21
  474.2 26.47 26
  474.3 24.21 24
  474.4 17.84 17
  474.6 14.67 14
  474.7 20.49 20
  474.8 25.33 25
  474.9 25.0 24
  475.0 19.81 19
  475.3 14.21 14
  475.4 20.93 20
  475.5 25.77 25
  475.6 24.7 24
  475.9 18.86 18
  476.0 24.44 24
  476.1 28.47 28
  476.2 27.67 27
  476.3 22.81 22
  476.5 16.6 16
  476.6 20.37 20
  476.7 25.19 25
  476.8 25.86 25
  476.9 21.19 21
  477.1 14.77 14
  477.2 19.63 19
  477.3 25.79 25
  477.4 27.84 27
  477.5 23.93 23
  477.8 16.28 16
  477.9 23.02 22
  478.0 27.63 27
  478.1 26.09 26
  478.2 19.74 19
  478.4 13.77 13
  478.5 19.53 19
  478.6 26.49 26
  478.7 28.09 28
  478.8 22.42 22
  479.1 13.98 13
  479.2 21.56 21
  479.3 26.6 26
  479.4 25.51 25
  479.5 20.33 20
  479.7 16.7 16
  479.8 20.72 20
  479.9 24.35 24
  480.0 24.0 23
  480.1 19.47 19
  480.3 12.74 12
  480.4 16.7 16
  480.5 22.28 22
  480.6 23.67 23
  480.7 18.81 18
  480.9 9.37 9
  481.0 14.26 14
  481.1 22.84 22
  481.2 28.23 28
  481.3 26.35 26
  481.4 19.12 19
  481.6 10.7 10
  481.7 14.77 14
  481.8 20.47 20
  481.9 22.77 22
  482.0 19.86 19
  482.2 13.4 13
  482.3 17.12 17
  482.4 23.47 23
  482.5 27.33 27
  482.6 25.79 25
  482.7 20.42 20
  482.9 16.16 16
  483.0 20.47 20
  483.1 25.19 25
  483.2 26.91 26
  483.3 24.58 24
  483.4 20.23 20
  484.2 11.26 11
  484.3 18.77 18
  484.4 26.14 26
  484.5 27.7 27
  484.6 22.79 22
  485.5 13.49 13
  485.6 19.95 19
  485.7 25.02 24
  485.8 23.33 23
  485.9 16.19 16
  486.1 11.88 11
  486.2 18.91 18
  486.3 25.86 25
  486.4 27.7 27
  486.5 23.4 23
  486.6 16.53 16
  486.8 14.05 14
  486.9 18.98 18
  487.0 22.12 22
  487.1 20.63 20
  487.3 14.95 14
  487.4 18.3 18
  487.5 24.35 24
  487.6 27.91 27
  487.7 25.77 25
  487.8 19.58 19
  488.0 13.98 13
  488.1 18.26 18
  488.2 23.16 23
  488.3 24.65 24
  488.4 21.86 21
  488.7 16.93 16
  488.8 21.88 21
  488.9 25.88 25
  489.0 24.56 24
  489.1 17.88 17
  489.3 11.49 11
  489.4 18.05 18
  489.5 24.88 24
  489.6 25.79 25
  489.7 20.65 20
  489.9 13.23 13
  490.0 16.88 16
  490.1 22.16 22
  490.2 24.49 24
  490.3 21.44 21
  490.6 12.77 12
  490.7 21.3 21
  490.8 29.33 29
  490.9 30.05 30
  491.0 23.58 23
  491.2 16.28 16
  491.3 22.4 22
  491.4 29.51 29
  491.5 32.0 31
  491.6 28.26 28
  491.7 21.42 21
  491.9 19.0 18
  492.0 24.42 24
  492.1 26.95 26
  492.2 23.05 23
  492.5 15.81 15
  492.6 23.12 23
  492.7 28.28 28
  492.8 27.51 27
  492.9 22.07 22
  493.8 13.42 13
  493.9 18.21 18
  494.0 21.91 21
  494.1 21.47 21
  494.2 17.58 17
  494.4 13.02 13
  494.5 16.09 16
  494.6 20.14 20
  494.7 21.16 21
  494.8 17.49 17
  495.0 9.4 9
  495.1 13.81 13
  495.2 22.02 21
  495.3 27.16 27
  495.4 24.74 24
  495.5 17.35 17
  495.7 12.63 12
  495.8 18.3 18
  495.9 23.88 23
  496.0 25.58 25
  496.1 22.53 22
  496.2 17.12 17
  496.4 15.14 15
  496.5 20.42 20
  496.6 24.56 24
  496.7 23.51 23
  496.8 17.93 17
  497.0 13.0 12
  497.1 18.58 18
  497.2 24.51 24
  497.3 25.26 25
  497.4 19.95 19
  497.6 12.47 12
  497.7 17.51 17
  497.8 24.3 24
  497.9 26.95 26
  498.0 23.16 23
  498.1 16.07 16
  498.3 13.65 13
  498.4 20.23 20
  498.5 25.14 25
  498.6 23.91 23
  498.7 18.09 18
  498.9 15.6 15
  499.0 22.35 22
  499.1 28.14 28
  499.2 27.77 27
  499.3 21.35 21
  499.6 15.35 15
  499.7 21.77 21
  499.8 25.6 25
  499.9 24.16 24
  500.0 19.42 19
  500.2 17.14 17
  500.3 21.49 21
  500.4 25.44 25
  500.5 25.63 25
  500.6 21.28 21
  500.8 14.0 13
  500.9 18.91 18
  501.0 26.56 26
  501.1 30.19 30
  501.2 26.12 26
  501.3 17.93 17
  501.5 15.12 15
  501.6 21.42 21
  501.7 25.93 25
  501.8 25.33 25
  501.9 20.91 20
  502.1 17.05 17
  502.2 21.53 21
  502.3 26.47 26
  502.4 27.33 27
  502.5 23.28 23
  502.7 17.05 17
  502.8 21.7 21
  502.9 28.67 28
  503.0 31.79 31
  503.1 27.33 27
  503.2 17.93 17
  503.4 11.3 11
  503.5 18.19 18
  503.6 24.63 24
  503.7 25.3 25
  503.8 20.51 20
  504.6 15.51 15
  504.7 19.19 19
  504.8 25.16 25
  504.9 28.21 28
  505.0 24.79 24
  505.1 17.47 17
  505.3 15.81 15
  505.4 22.81 22
  505.5 27.35 27
  505.6 25.14 25
  505.7 17.81 17
  505.9 11.3 11
  506.0 18.23 18
  506.1 27.16 27
  506.2 31.12 31
  506.3 26.95 26
  506.4 18.23 18
  506.6 14.88 14
  506.7 23.02 22
  506.8 29.86 29
  506.9 29.86 29
  507.0 23.47 23
  507.2 16.12 16
  507.3 22.42 22
  507.4 29.79 29
  507.5 30.98 30
  507.6 24.65 24
  507.9 17.19 17
  508.0 25.16 25
  508.1 30.6 30
  508.2 28.95 28
  508.3 21.35 21
  508.5 13.77 13
  508.6 19.49 19
  508.7 25.67 25
  508.8 27.07 27
  508.9 23.16 23
  509.1 15.63 15
  509.2 19.65 19
  509.3 27.05 27
  509.4 31.09 31
  509.5 26.93 26
  509.6 16.81 16
  509.8 8.81 8
  509.9 16.0 15
  510.0 24.0 23
  510.1 27.0 26
  510.2 23.67 23
  510.4 15.0 14
  510.5 18.51 18
  510.6 25.33 25
  510.7 29.26 29
  510.8 27.02 26
  510.9 20.81 20
  511.1 15.05 15
  511.2 18.49 18
  511.3 22.44 22
  511.4 23.58 23
  511.5 21.4 21
  511.7 18.14 18
  511.8 20.93 20
  511.9 24.95 24
  512.0 27.16 27
  512.1 25.44 25
  512.2 20.12 20
  513.0 15.6 15
  513.1 19.74 19
  513.2 23.81 23
  513.3 24.26 24
  513.6 19.74 19
  513.7 24.67 24
  513.8 29.47 29
  513.9 29.42 29
  514.0 23.72 23
  514.2 14.37 14
  514.3 18.63 18
  514.4 25.35 25
  514.5 28.07 28
  514.6 24.12 24
  514.8 13.74 13
  514.9 17.53 17
  515.0 25.72 25
  515.1 31.88 31
  515.2 31.3 31
  515.3 24.77 24
  515.4 17.44 17
  515.6 16.95 16
  515.7 21.65 21
  515.8 24.47 24
  515.9 23.0 22
  516.0 18.51 18
  516.2 16.28 16
  516.3 21.19 21
  516.4 25.12 25
  516.5 24.19 24
  516.6 18.95 18
  516.8 14.4 14
  516.9 19.86 19
  517.0 25.26 25
  517.1 25.19 25
  517.2 19.28 19
  517.4 10.21 10
  517.5 14.47 14
  517.6 22.09 22
  517.7 27.33 27
  517.8 26.26 26
  517.9 20.12 20
  518.1 14.3 14
  518.2 19.51 19
  518.3 25.12 25
  518.4 25.77 25
  518.5 20.91 20
  518.7 15.81 15
  518.8 23.12 23
  518.9 31.58 31
  519.0 33.23 33
  519.1 25.72 25
  519.2 14.79 14
  519.4 12.86 12
  519.5 22.79 22
  519.6 30.79 30
  519.7 30.16 30
  519.8 20.98 20
  520.0 6.79 6
  520.1 12.49 12
  520.2 22.26 22
  520.3 28.3 28
  520.4 26.67 26
  520.5 19.98 19
  520.7 16.16 16
  520.8 21.58 21
  520.9 25.19 25
  521.0 23.33 23
  521.1 17.79 17
  521.3 13.35 13
  521.4 17.91 17
  521.5 23.81 23
  521.6 26.95 26
  521.7 25.44 25
  522.0 21.28 21
  522.1 26.19 26
  522.2 29.47 29
  522.3 27.86 27
  522.4 22.35 22
  522.6 16.95 16
  522.7 20.95 20
  522.8 25.37 25
  522.9 25.67 25
  523.0 21.02 20
  523.2 14.53 14
  523.3 18.91 18
  523.4 24.49 24
  523.5 26.3 26
  523.6 22.65 22
  523.9 16.12 16
  524.0 23.07 23
  524.1 27.33 27
  524.2 25.26 25
  524.3 19.44 19
  524.5 15.7 15
  524.6 20.53 20
  524.7 25.93 25
  524.8 27.14 27
  524.9 22.72 22
  525.2 16.3 16
  525.3 21.44 21
  525.4 24.44 24
  525.5 22.65 22
  525.6 16.98 16
  525.8 12.88 12
  525.9 19.51 19
  526.0 26.21 26
  526.1 26.72 26
  526.2 20.21 20
  526.4 9.44 9
  526.5 14.28 14
  526.6 22.07 22
  526.7 25.21 25
  526.8 20.6 20
  527.0 10.7 10
  527.1 16.0 15
  527.2 24.26 24
  527.3 28.44 28
  527.4 25.65 25
  527.5 19.0 18
  527.7 15.65 15
  527.8 21.35 21
  527.9 25.95 25
  528.0 24.65 24
  528.1 18.16 18
  528.3 11.81 11
  528.4 17.26 17
  528.5 23.35 23
  528.6 24.93 24
  528.7 21.26 21
  529.0 15.67 15
  529.1 20.63 20
  529.2 24.37 24
  529.3 23.93 23
  529.4 19.53 19
  529.6 15.19 15
  529.7 21.21 21
  529.8 28.98 28
  529.9 31.47 31
  530.0 25.79 25
  530.2 13.28 13
  530.3 18.44 18
  530.4 27.07 27
  530.5 31.0 30
  530.6 27.02 26
  530.7 19.26 19
  530.9 16.65 16
  531.0 23.51 23
  531.1 29.19 29
  531.2 28.44 28
  531.3 21.21 21
  531.6 13.98 13
  531.7 21.88 21
  531.8 26.81 26
  531.9 25.19 25
  532.0 19.05 19
  532.2 15.44 15
  532.3 20.84 20
  532.4 24.88 24
  532.5 23.6 23
  532.6 18.12 18
  532.8 12.84 12
  532.9 17.05 17
  533.0 22.09 22
  533.1 23.79 23
  533.2 21.02 20
  533.4 15.98 15
  533.5 19.98 19
  533.6 26.05 26
  533.7 28.91 28
  533.8 25.93 25
  533.9 19.19 19
  534.1 14.4 14
  534.2 20.07 20
  534.3 25.93 25
  534.4 26.37 26
  534.5 20.44 20
  534.7 11.42 11
  534.8 16.63 16
  534.9 24.09 24
  535.0 27.14 27
  535.1 23.26 23
  535.4 15.47 15
  535.5 22.74 22
  535.6 28.14 28
  535.7 27.21 27
  535.8 20.56 20
  536.0 12.67 12
  536.1 19.09 19
  536.2 27.47 27
  536.3 29.84 29
  536.4 23.09 23
  536.5 12.51 12
  536.7 10.05 10
  536.8 17.28 17
  536.9 21.91 21
  537.0 21.58 21
  537.2 17.65 17
  537.3 19.49 19
  537.4 23.77 23
  537.5 27.65 27
  537.6 27.65 27
  537.7 22.6 22
  538.0 15.77 15
  538.1 23.7 23
  538.2 28.91 28
  538.3 26.19 26
  538.4 17.23 17
  538.6 10.58 10
  538.7 18.28 18
  538.8 25.81 25
  538.9 26.95 26
  539.0 21.63 21
  539.9 14.23 14
  540.0 18.49 18
  540.1 22.0 21
  540.2 20.77 20
  540.5 13.65 13
  540.6 20.44 20
  540.7 26.26 26
  540.8 26.14 26
  540.9 20.93 20
  541.1 17.79 17
  541.2 23.4 23
  541.3 28.33 28
  541.4 28.51 28
  541.5 23.7 23
  541.6 16.91 16
  541.8 13.95 13
  541.9 19.88 19
  542.0 25.12 25
  542.1 24.65 24
  542.2 18.53 18
  542.4 11.26 11
  542.5 16.07 16
  542.6 22.19 22
  542.7 24.84 24
  542.8 22.4 22
  543.1 15.67 15
  543.2 21.98 21
  543.3 28.09 28
  543.4 28.65 28
  543.5 22.51 22
  543.8 14.35 14
  543.9 22.84 22
  544.0 28.47 28
  544.1 26.58 26
  544.2 19.72 19
  544.4 17.26 17
  544.5 22.95 22
  544.6 25.88 25
  544.7 23.49 23
  544.9 16.93 16
  545.0 19.67 19
  545.1 25.74 25
  545.2 31.02 30
  545.3 31.21 31
  545.4 25.42 25
  545.6 15.51 15
  545.7 20.05 20
  545.8 27.4 27
  545.9 30.16 30
  546.0 25.4 25
  546.3 16.98 16
  546.4 24.02 23
  546.5 27.63 27
  546.6 24.7 24
  546.7 18.35 18
  546.9 16.02 16
  547.0 20.81 20
  547.1 23.56 23
  547.2 20.77 20
  547.3 14.49 14
  547.5 11.58 11
  547.6 17.7 17
  547.7 24.07 24
  547.8 26.72 26
  547.9 24.74 24
  548.0 20.42 20
  548.2 16.65 16
  548.3 19.21 19
  548.4 21.95 21
  548.5 21.86 21
  548.8 16.3 16
  548.9 21.4 21
  549.0 26.93 26
  549.1 27.65 27
  549.2 22.21 22
  549.4 12.05 12
  549.5 16.3 16
  549.6 24.49 24
  549.7 30.21 30
  549.8 29.02 28
  549.9 21.91 21
  550.7 11.33 11
  550.8 15.6 15
  550.9 23.42 23
  551.0 27.91 27
  551.1 24.72 24
  551.2 16.4 16
  551.4 11.86 11
  551.5 19.26 19
  551.6 25.02 24
  551.7 23.05 23
  551.8 15.07 15
  552.0 11.7 11
  552.1 20.19 20
  552.2 26.42 26
  552.3 24.86 24
  552.4 17.7 17
  552.6 11.74 11
  552.7 17.28 17
  552.8 24.33 24
  552.9 28.53 28
  553.0 27.79 27
  553.1 22.79 22
  553.3 17.07 17
  553.4 21.77 21
  553.5 27.44 27
  553.6 28.49 28
  553.7 23.19 23
  554.0 15.98 15
  554.1 22.44 22
  554.2 26.28 26
  554.3 25.0 24
  554.6 20.77 20
  554.7 24.6 24
  554.8 27.23 27
  554.9 25.95 25
  555.0 21.21 21
  555.2 17.91 17
  555.3 22.4 22
  555.4 24.98 24
  555.5 21.79 21
  555.6 15.02 15
  555.8 12.02 12
  555.9 18.6 18
  556.0 25.0 24
  556.1 26.4 26
  556.2 22.14 22
  556.5 14.6 14
  556.6 22.47 22
  556.7 31.14 31
  556.8 34.3 34
  556.9 28.33 28
  557.0 16.58 16
  557.2 9.77 9
  557.3 18.49 18
  557.4 24.98 24
  557.5 23.14 23
  557.8 14.51 14
  557.9 23.63 23
  558.0 31.12 31
  558.1 30.81 30
  558.2 23.16 23
  559.1 14.21 14
  559.2 22.53 22
  559.3 28.33 28
  559.4 26.33 26
  559.5 18.14 18
  559.7 11.16 11
  559.8 19.09 19
  559.9 28.12 28
  560.0 30.58 30
  560.1 24.7 24
  560.3 14.4 14
  560.4 19.74 19
  560.5 27.02 26
  560.6 29.02 28
  560.7 23.74 23
  561.0 14.95 14
  561.1 23.26 23
  561.2 29.53 29
  561.3 28.7 28
  561.4 21.81 21
  561.6 14.47 14
  561.7 19.33 19
  561.8 25.02 24
  561.9 27.23 27
  562.0 24.65 24
  562.1 18.98 18
  562.3 13.67 13
  562.4 17.63 17
  562.5 21.47 21
  562.6 20.67 20
  562.9 14.0 13
  563.0 20.07 20
  563.1 25.6 25
  563.2 26.14 26
  563.3 21.44 21
  563.5 15.21 15
  563.6 20.56 20
  563.7 27.28 27
  563.8 28.84 28
  563.9 23.42 23
  564.0 15.74 15
  564.2 15.65 15
  564.3 21.53 21
  564.4 25.21 25
  564.5 24.67 24
  564.6 21.09 21
  564.8 15.86 15
  564.9 18.4 18
  565.0 22.72 22
  565.1 24.79 24
  565.2 22.4 22
  565.3 17.26 17
  565.5 14.74 14
  565.6 18.79 18
  565.7 21.91 21
  565.8 21.16 21
  566.1 16.42 16
  566.2 22.26 22
  566.3 27.14 27
  566.4 26.53 26
  566.5 20.67 20
  566.6 13.51 13
  566.8 11.65 11
  566.9 17.16 17
  567.0 21.21 21
  567.1 19.93 19
  567.2 14.77 14
  567.4 13.21 13
  567.5 18.72 18
  567.6 22.02 21
  567.7 19.63 19
  567.9 11.6 11
  568.0 15.72 15
  568.1 24.44 24
  568.2 31.79 31
  568.3 32.44 32
  568.4 26.51 26
  568.6 18.28 18
  568.7 23.56 23
  568.8 29.65 29
  568.9 29.79 29
  569.0 22.91 22
  569.1 14.33 14
  569.3 12.7 12
  569.4 19.3 19
  569.5 25.49 25
  569.6 27.12 27
  569.7 23.09 23
  570.0 15.16 15
  570.1 22.33 22
  570.2 27.67 27
  570.3 26.16 26
  570.4 18.95 18
  570.6 12.14 12
  570.7 17.4 17
  570.8 23.0 22
  570.9 24.44 24
  571.0 21.56 21
  571.3 17.56 17
  571.4 21.35 21
  571.5 23.53 23
  571.6 22.09 22
  571.9 17.3 17
  572.0 21.53 21
  572.1 24.09 24
  572.2 21.05 21
  572.5 11.58 11
  572.6 21.88 21
  572.7 31.49 31
  572.8 32.91 32
  572.9 25.77 25
  573.0 16.3 16
  573.2 13.77 13
  573.3 20.67 20
  573.4 26.35 26
  573.5 26.07 26
  573.8 18.26 18
  573.9 26.26 26
  574.0 31.44 31
  574.1 28.35 28
  574.2 19.65 19
  574.4 11.23 11
  574.5 15.98 15
  574.6 22.74 22
  574.7 26.47 26
  574.8 24.02 23
  574.9 17.4 17
  575.1 14.42 14
  575.2 22.26 22
  575.3 29.95 29
  575.4 31.37 31
  575.5 25.84 25
  576.4 18.16 18
  576.5 24.23 24
  576.6 29.98 29
  576.7 29.33 29
  576.8 21.74 21
  577.0 12.3 12
  577.1 19.37 19
  577.2 28.6 28
  577.3 32.05 32
  577.4 27.0 26
  577.5 18.09 18
  577.7 15.16 15
  577.8 21.56 21
  577.9 25.77 25
  578.0 24.05 24
  578.1 18.23 18
  578.3 14.7 14
  578.4 20.95 20
  578.5 26.95 26
  578.6 26.79 26
  578.7 19.84 19
  578.9 10.51 10
  579.0 16.79 16
  579.1 25.09 25
  579.2 28.0 27
  579.3 23.21 23
  579.4 15.21 15
  579.6 12.51 12
  579.7 17.93 17
  579.8 22.12 22
  579.9 22.42 22
  580.1 18.95 18
  580.2 20.7 20
  580.3 24.23 24
  580.4 26.02 25
  580.5 23.51 23
  580.6 17.65 17
  580.8 14.44 14
  580.9 20.79 20
  581.0 26.49 26
  581.1 26.23 26
  581.2 20.19 20
  581.5 12.93 12
  581.6 19.19 19
  581.7 25.16 25
  581.8 26.84 26
  581.9 23.14 23
  582.7 11.07 11
  582.8 14.47 14
  582.9 21.91 21
  583.0 27.19 27
  583.1 25.67 25
  583.2 18.58 18
  583.4 12.84 12
  583.5 20.26 20
  583.6 28.05 28
  583.7 29.3 29
  583.8 23.35 23
  584.0 14.42 14
  584.1 19.02 19
  584.2 24.67 24
  584.3 25.23 25
  584.4 19.47 19
  584.6 9.84 9
  584.7 15.14 15
  584.8 23.77 23
  584.9 28.58 28
  585.0 26.07 26
  585.1 19.09 19
  585.3 13.6 13
  585.4 18.09 18
  585.5 22.7 22
  585.6 23.05 23
  585.7 18.98 18
  585.9 13.7 13
  586.0 17.77 17
  586.1 23.14 23
  586.2 25.02 24
  586.3 21.58 21
  586.6 15.23 15
  586.7 22.44 22
  586.8 28.33 28
  586.9 27.79 27
  587.0 20.91 20
  587.2 12.0 11
  587.3 17.6 17
  587.4 25.21 25
  587.5 28.26 28
  587.6 24.58 24
  588.5 17.58 17
  588.6 21.79 21
  588.7 24.7 24
  588.8 23.47 23
  588.9 18.91 18
  589.1 14.44 14
  589.2 18.33 18
  589.3 23.0 22
  589.4 23.93 23
  589.5 19.42 19
  589.7 10.35 10
  589.8 14.81 14
  589.9 23.33 23
  590.0 29.53 29
  590.1 29.16 29
  590.2 23.0 22
  591.0 11.98 11
  591.1 16.56 16
  591.2 24.63 24
  591.3 29.7 29
  591.4 27.47 27
  591.5 20.42 20
  591.7 15.53 15
  591.8 19.88 19
  591.9 23.84 23
  592.0 24.74 24
  592.1 22.6 22
  592.3 19.12 19
  592.4 22.14 22
  592.5 26.65 26
  592.6 28.26 28
  592.7 24.35 24
  592.8 16.72 16
  593.0 11.86 11
  593.1 18.47 18
  593.2 24.56 24
  593.3 24.53 24
  593.4 18.95 18
  593.6 14.3 14
  593.7 20.02 19
  593.8 25.47 25
  593.9 25.4 25
  594.0 19.47 19
  594.8 10.35 10
  594.9 13.37 13
  595.0 20.72 20
  595.1 26.86 26
  595.2 26.56 26
  595.3 19.65 19
  595.5 10.56 10
  595.6 16.49 16
  595.7 24.44 24
  595.8 27.6 27
  595.9 23.74 23
  596.2 15.86 15
  596.3 23.79 23
  596.4 29.09 29
  596.5 26.93 26
  596.6 19.4 19
  596.8 13.35 13
  596.9 18.14 18
  597.0 22.37 22
  597.1 22.3 22
  597.4 18.88 18
  597.5 23.88 23
  597.6 28.05 28
  597.7 27.84 27
  597.8 22.51 22
  597.9 14.93 14
  598.1 12.05 12
  598.2 19.05 19
  598.3 25.67 25
  598.4 26.53 26
  598.5 21.3 21
  598.7 14.12 14
  598.8 19.12 19
  598.9 25.95 25
  599.0 29.4 29
  599.1 27.42 27
  599.2 22.28 22
  599.4 19.74 19
  599.5 24.74 24
  599.6 29.3 29
//
