ACCESSION: MSBNK-RIKEN_NPDepo-NGA04357
RECORD_TITLE: 9,13-Epoxy-3,15,16,18-labdanetetrol; LC-ESI-QQQ; MS2; Frag=135.0V CID@25.0; [M+HCOO]-
DATE: 2018.04.04
AUTHORS: Nogawa T, Okano A, CSRS, RIKEN
LICENSE: CC BY
COMMENT: Origin: Plant
COMMENT: SubCategory_DNP: Diterpenoids, Labdane diterpenoids
CH$NAME: 9,13-Epoxy-3,15,16,18-labdanetetrol
CH$COMPOUND_CLASS: Terpenoids
CH$FORMULA: C20H36O5
CH$EXACT_MASS: 356.5069
CH$SMILES: C[C@H]1CCC2[C@](C)(CC[C@H](O)[C@@]2(C)CO)[C@@]12CCC(CO)(CCO)O2
CH$IUPAC: InChI=1S/C20H36O5/c1-14-4-5-15-17(2,12-22)16(24)6-7-18(15,3)20(14)9-8-19(13-23,25-20)10-11-21/h14-16,21-24H,4-13H2,1-3H3/t14-,15?,16-,17-,18-,19?,20+/m0/s1
CH$LINK: INCHIKEY XYPPDQHBNJURHU-NSGLWTTCSA-N
CH$LINK: PUBCHEM CID:12304971
AC$INSTRUMENT: Agilent 6410 Triple Quadrupole LC/MS system
AC$INSTRUMENT_TYPE: LC-ESI-QQQ
AC$MASS_SPECTROMETRY: MS_TYPE MS2
AC$MASS_SPECTROMETRY: ION_MODE NEGATIVE
MS$FOCUSED_ION: PRECURSOR_TYPE [M+HCOO]-
PK$SPLASH: splash10-0006-4988880000-ec57d9a0d2512df12d75
PK$NUM_PEAK: 4064
PK$PEAK: m/z int. rel.int.
  50.7 8.45 8
  50.8 11.86 11
  50.9 16.44 16
  51.0 18.23 18
  51.1 15.36 15
  51.3 7.87 7
  51.4 11.15 11
  51.5 17.62 17
  51.6 21.24 21
  51.7 18.01 17
  51.8 10.1 10
  52.0 4.24 4
  52.1 9.92 9
  52.2 15.83 15
  52.3 17.57 17
  52.4 14.82 14
  52.6 9.53 9
  52.7 12.59 12
  52.8 17.91 17
  52.9 20.88 20
  53.0 18.3 18
  53.2 9.48 9
  53.3 13.11 13
  53.4 20.0 19
  53.5 23.13 23
  53.6 19.31 19
  53.7 11.88 11
  53.9 8.53 8
  54.0 14.53 14
  54.1 20.09 20
  54.2 20.24 20
  54.3 14.07 14
  54.6 8.09 8
  54.7 14.8 14
  54.8 18.45 18
  54.9 16.83 16
  55.0 11.81 11
  55.2 5.51 5
  55.3 8.14 8
  55.4 13.01 12
  55.5 16.0 15
  55.6 14.31 14
  55.9 9.63 9
  56.0 14.92 14
  56.1 17.69 17
  56.2 15.22 15
  56.5 9.63 9
  56.6 14.92 14
  56.7 17.42 17
  56.8 14.82 14
  56.9 10.14 10
  57.1 8.67 8
  57.2 12.37 12
  57.3 16.83 16
  57.4 19.73 19
  57.5 19.01 18
  57.6 14.87 14
  57.8 10.44 10
  57.9 14.9 14
  58.0 20.09 20
  58.1 21.2 21
  58.2 17.03 17
  58.3 11.17 11
  58.5 10.02 10
  58.6 14.48 14
  58.7 17.3 17
  58.8 15.02 15
  58.9 8.97 8
  59.1 6.98 6
  59.2 13.58 13
  59.3 18.08 18
  59.4 16.91 16
  60.3 6.17 6
  60.4 9.09 9
  60.5 13.28 13
  60.6 15.02 15
  60.7 12.72 12
  61.0 9.48 9
  61.1 13.8 13
  61.2 16.39 16
  61.3 14.9 14
  61.4 10.12 10
  61.6 6.0 5
  61.7 11.08 11
  61.8 16.98 16
  61.9 17.77 17
  62.0 11.91 11
  62.2 3.01 3
  62.3 8.55 8
  62.4 16.47 16
  62.5 20.78 20
  62.6 19.43 19
  62.7 14.68 14
  62.9 10.73 10
  63.0 14.82 14
  63.1 18.62 18
  63.2 17.64 17
  63.3 12.25 12
  63.5 8.16 8
  63.6 12.69 12
  63.7 16.71 16
  63.8 17.15 17
  63.9 14.07 14
  64.0 9.68 9
  64.2 8.26 8
  64.3 12.84 12
  64.4 17.3 17
  64.5 17.84 17
  64.6 14.16 14
  64.8 10.29 10
  64.9 15.14 15
  65.0 20.0 19
  65.1 19.73 19
  65.2 14.73 14
  65.4 11.81 11
  65.5 16.98 16
  65.6 20.53 20
  65.7 19.06 19
  65.8 13.99 13
  66.0 8.65 8
  66.1 11.74 11
  66.2 16.64 16
  66.3 20.0 19
  66.4 18.7 18
  66.5 12.64 12
  66.7 2.45 2
  66.8 6.05 6
  66.9 14.24 14
  67.0 21.39 21
  67.1 22.52 22
  67.2 17.28 17
  68.0 9.46 9
  68.1 16.32 16
  68.2 23.03 23
  68.3 23.35 23
  68.4 16.96 16
  69.3 11.2 11
  69.4 17.3 17
  69.5 23.08 23
  69.6 23.96 23
  69.7 18.82 18
  70.0 11.64 11
  70.1 17.96 17
  70.2 21.15 21
  70.3 18.48 18
  70.4 13.11 13
  70.6 11.91 11
  70.7 15.93 15
  70.8 17.89 17
  70.9 15.71 15
  71.0 11.37 11
  71.2 9.68 9
  71.3 13.35 13
  71.4 16.37 16
  71.5 16.1 16
  71.6 12.42 12
  71.8 6.54 6
  71.9 10.0 9
  72.0 15.88 15
  72.1 19.33 19
  72.2 17.3 17
  72.3 11.81 11
  72.5 8.43 8
  72.6 12.86 12
  72.7 16.93 16
  72.8 17.77 17
  72.9 15.54 15
  73.1 11.86 11
  73.2 14.51 14
  73.3 18.94 18
  73.4 21.22 21
  73.5 18.55 18
  73.6 12.91 12
  73.8 11.37 11
  73.9 16.59 16
  74.0 19.87 19
  74.1 18.3 18
  74.2 13.77 13
  74.4 10.22 10
  74.5 12.45 12
  74.6 14.41 14
  74.7 14.04 14
  75.0 9.41 9
  75.1 13.58 13
  75.2 19.41 19
  75.3 22.72 22
  75.4 20.75 20
  75.5 14.68 14
  75.7 7.08 7
  75.8 10.61 10
  75.9 16.03 16
  76.0 18.5 18
  76.1 16.1 16
  76.4 11.98 11
  76.5 17.08 17
  76.6 20.12 20
  76.7 18.26 18
  76.8 12.91 12
  77.0 8.58 8
  77.1 12.28 12
  77.2 15.24 15
  77.3 14.16 14
  77.6 10.1 10
  77.7 14.95 14
  77.8 18.55 18
  77.9 17.94 17
  78.0 13.89 13
  78.2 11.32 11
  78.3 15.85 15
  78.4 19.41 19
  78.5 17.84 17
  78.6 11.86 11
  78.8 5.37 5
  78.9 10.17 10
  79.0 16.79 16
  79.1 20.07 20
  79.2 17.42 17
  79.3 10.63 10
  79.5 4.21 4
  79.6 9.41 9
  79.7 15.83 15
  79.8 18.67 18
  79.9 16.07 16
  80.0 10.44 10
  80.2 8.38 8
  80.3 15.14 15
  80.4 21.15 21
  80.5 21.02 20
  80.6 15.05 15
  80.8 7.69 7
  80.9 12.59 12
  81.0 18.79 18
  81.1 20.61 20
  81.2 16.47 16
  82.1 8.4 8
  82.2 12.96 12
  82.3 16.15 16
  82.4 14.87 14
  82.5 10.39 10
  82.7 6.74 6
  82.8 10.95 10
  82.9 16.07 16
  83.0 17.62 17
  83.1 14.43 14
  83.3 9.65 9
  83.4 12.55 12
  83.5 15.22 15
  83.6 15.09 15
  83.7 13.01 12
  84.0 11.35 11
  84.1 13.23 13
  84.2 15.14 15
  84.3 15.27 15
  84.4 13.13 13
  84.6 9.43 9
  84.7 11.54 11
  84.8 15.9 15
  84.9 19.26 19
  85.0 18.13 18
  85.1 12.94 12
  85.3 8.21 8
  85.4 12.06 12
  85.5 15.95 15
  85.6 16.76 16
  85.7 14.21 14
  85.9 11.08 11
  86.0 14.63 14
  86.1 18.43 18
  86.2 18.26 18
  86.3 13.62 13
  86.6 9.16 9
  86.7 13.53 13
  86.8 16.22 16
  86.9 15.78 15
  87.8 2.28 2
  87.9 6.1 6
  88.0 13.53 13
  88.1 19.36 19
  88.2 19.68 19
  88.3 14.73 14
  88.5 6.93 6
  88.6 10.59 10
  88.7 16.44 16
  88.8 19.26 19
  88.9 16.86 16
  89.7 4.34 4
  89.8 7.62 7
  89.9 13.89 13
  90.0 18.06 18
  90.1 17.05 17
  90.2 12.47 12
  90.4 10.17 10
  90.5 14.24 14
  90.6 17.5 17
  90.7 16.76 16
  90.8 12.06 12
  91.0 6.59 6
  91.1 12.13 12
  91.2 19.75 19
  91.3 22.91 22
  91.4 18.57 18
  91.5 10.07 10
  91.7 4.53 4
  91.8 10.49 10
  91.9 16.86 16
  92.0 18.99 18
  92.1 16.22 16
  92.2 11.98 11
  92.9 4.61 4
  93.0 7.13 7
  93.1 12.01 11
  93.2 15.56 15
  93.3 14.92 14
  93.4 10.56 10
  93.6 5.64 5
  93.7 9.65 9
  93.8 14.43 14
  93.9 15.93 15
  94.0 13.7 13
  94.3 9.88 9
  94.4 13.18 13
  94.5 15.68 15
  94.6 15.14 15
  94.7 12.2 12
  94.9 10.81 10
  95.0 13.89 13
  95.1 16.17 16
  95.2 14.78 14
  95.5 8.16 8
  95.6 14.92 14
  95.7 21.02 20
  95.8 21.51 21
  95.9 16.91 16
  96.0 11.69 11
  96.8 9.26 9
  96.9 13.75 13
  97.0 17.18 17
  97.1 16.39 16
  97.2 12.1 12
  97.4 6.54 6
  97.5 8.97 8
  97.6 13.87 13
  97.7 18.13 18
  97.8 17.99 17
  97.9 12.94 12
  98.1 6.52 6
  98.2 11.3 11
  98.3 16.49 16
  98.4 16.39 16
  98.5 10.19 10
  98.7 2.6 2
  98.8 10.0 9
  98.9 19.53 19
  99.0 23.13 23
  99.1 18.72 18
  99.2 11.91 11
  99.4 11.32 11
  99.5 14.8 14
  99.6 16.37 16
  99.7 14.95 14
  100.0 10.46 10
  100.1 16.2 16
  100.2 20.71 20
  100.3 18.87 18
  100.4 11.93 11
  100.6 5.42 5
  100.7 9.51 9
  100.8 14.6 14
  100.9 17.13 17
  101.0 15.27 15
  101.3 9.7 9
  101.4 15.41 15
  101.5 19.01 18
  101.6 16.71 16
  101.7 10.32 10
  101.9 4.24 4
  102.0 9.02 9
  102.1 15.8 15
  102.2 19.58 19
  102.3 17.01 16
  102.4 10.1 10
  102.6 5.22 5
  102.7 9.85 9
  102.8 14.09 14
  102.9 14.95 14
  103.0 13.09 13
  103.7 8.16 8
  103.8 9.97 9
  103.9 15.39 15
  104.0 20.68 20
  104.1 21.61 21
  104.2 17.5 17
  104.3 11.59 11
  104.5 8.75 8
  104.6 12.06 12
  104.7 14.38 14
  104.8 13.62 13
  105.0 10.98 10
  105.1 13.35 13
  105.2 17.05 17
  105.3 19.51 19
  105.4 18.84 18
  105.5 14.53 14
  105.6 8.43 8
  105.8 4.19 4
  105.9 8.16 8
  106.0 13.31 13
  106.1 16.15 16
  106.2 15.12 15
  106.4 11.3 11
  106.5 14.11 14
  106.6 17.99 17
  106.7 18.6 18
  106.8 14.43 14
  107.0 5.49 5
  107.1 9.16 9
  107.2 17.03 17
  107.3 21.54 21
  107.4 17.57 17
  107.5 8.11 8
  107.7 3.43 3
  107.8 11.15 11
  107.9 17.96 17
  108.0 19.01 18
  108.1 14.8 14
  108.9 9.29 9
  109.0 11.91 11
  109.1 16.61 16
  109.2 18.72 18
  109.3 15.8 15
  109.4 10.29 10
  109.6 7.42 7
  109.7 11.08 11
  109.8 14.24 14
  109.9 14.19 14
  110.0 10.9 10
  110.2 7.99 7
  110.3 12.99 12
  110.4 19.06 19
  110.5 21.32 21
  110.6 17.89 17
  110.7 11.49 11
  110.9 6.42 6
  111.0 9.95 9
  111.1 14.38 14
  111.2 16.66 16
  111.3 15.29 15
  111.6 10.9 10
  111.7 16.37 16
  111.8 19.7 19
  111.9 17.05 17
  112.0 10.51 10
  112.2 8.11 8
  112.3 14.95 14
  112.4 20.8 20
  112.5 20.68 20
  112.6 14.85 14
  112.8 7.65 7
  112.9 11.61 11
  113.0 15.73 15
  113.1 15.0 14
  113.2 9.75 9
  113.4 7.03 7
  113.5 12.91 12
  113.6 17.47 17
  113.7 16.93 16
  113.8 12.62 12
  114.0 6.4 6
  114.1 8.85 8
  114.2 14.82 14
  114.3 20.58 20
  114.4 21.12 21
  114.5 15.66 15
  114.7 8.6 8
  114.8 13.04 13
  114.9 17.52 17
  115.0 17.57 17
  115.1 13.16 13
  115.3 6.42 6
  115.4 9.8 9
  115.5 15.63 15
  115.6 19.51 19
  115.7 19.01 18
  115.8 15.27 15
  115.9 11.08 11
  116.1 9.38 9
  116.2 11.64 11
  116.3 12.84 12
  116.4 10.73 10
  116.6 5.56 5
  116.7 9.61 9
  116.8 16.69 16
  116.9 21.07 21
  117.0 18.84 18
  117.1 11.81 11
  117.3 4.95 4
  117.4 9.56 9
  117.5 15.34 15
  117.6 18.16 18
  117.7 16.98 16
  117.9 12.82 12
  118.0 15.0 14
  118.1 18.89 18
  118.2 20.56 20
  118.3 17.4 17
  118.4 11.27 11
  118.6 7.06 7
  118.7 11.05 11
  118.8 15.24 15
  118.9 16.74 16
  119.0 14.92 14
  119.2 11.08 11
  119.3 14.68 14
  119.4 19.97 19
  119.5 21.59 21
  119.6 17.45 17
  119.7 11.22 11
  119.9 10.32 10
  120.0 14.6 14
  120.1 17.03 17
  120.2 15.66 15
  120.3 11.57 11
  120.5 7.94 7
  120.6 11.66 11
  120.7 16.2 16
  120.8 17.64 17
  120.9 15.02 15
  121.6 7.69 7
  121.7 10.02 10
  121.8 16.83 16
  121.9 23.21 23
  122.0 24.21 24
  122.1 19.43 19
  122.2 12.89 12
  122.4 9.7 9
  122.5 13.58 13
  122.6 17.28 17
  122.7 18.01 17
  122.8 15.39 15
  122.9 11.39 11
  123.1 9.9 9
  123.2 13.31 13
  123.3 15.85 15
  123.4 15.19 15
  123.5 12.25 12
  123.7 10.37 10
  123.8 13.45 13
  123.9 16.96 16
  124.0 17.99 17
  124.1 15.22 15
  124.4 9.48 9
  124.5 14.38 14
  124.6 17.08 17
  124.7 14.33 14
  124.9 7.72 7
  125.0 12.08 12
  125.1 18.33 18
  125.2 20.53 20
  125.3 16.42 16
  125.4 8.97 8
  125.6 5.39 5
  125.7 10.76 10
  125.8 15.05 15
  125.9 15.34 15
  126.0 13.06 13
  126.2 11.1 11
  126.3 13.31 13
  126.4 15.88 15
  126.5 15.9 15
  126.6 12.3 12
  126.8 7.4 7
  126.9 12.33 12
  127.0 19.41 19
  127.1 23.13 23
  127.2 20.51 20
  127.3 13.45 13
  127.5 5.22 5
  127.6 9.75 9
  127.7 17.15 17
  127.8 21.39 21
  127.9 18.89 18
  128.0 11.96 11
  128.2 5.93 5
  128.3 11.0 10
  128.4 17.28 17
  128.5 19.26 19
  128.6 14.75 14
  128.9 8.55 8
  129.0 15.61 15
  129.1 19.77 19
  129.2 18.13 18
  129.3 12.89 12
  129.5 8.18 8
  129.6 11.59 11
  129.7 15.49 15
  129.8 17.2 17
  129.9 17.05 17
  130.0 17.23 17
  130.1 18.5 18
  130.2 19.26 19
  130.3 17.03 17
  130.4 11.61 11
  130.7 5.95 5
  130.8 11.05 11
  130.9 15.39 15
  131.0 16.79 16
  131.1 15.36 15
  131.4 12.35 12
  131.5 16.83 16
  131.6 20.78 20
  131.7 19.97 19
  131.8 14.38 14
  132.1 9.53 9
  132.2 14.07 14
  132.3 16.49 16
  132.4 15.51 15
  132.6 12.03 12
  132.7 14.8 14
  132.8 18.99 18
  132.9 19.68 19
  133.0 14.21 14
  133.1 5.83 5
  133.3 3.26 3
  133.4 9.85 9
  133.5 15.93 15
  133.6 18.13 18
  133.7 16.0 15
  134.6 4.51 4
  134.7 11.76 11
  134.8 18.67 18
  134.9 18.97 18
  135.0 13.04 13
  135.2 8.99 8
  135.3 15.56 15
  135.4 20.73 20
  135.5 19.9 19
  135.6 14.26 14
  135.8 7.87 7
  135.9 12.28 12
  136.0 17.35 17
  136.1 17.69 17
  136.2 12.77 12
  136.4 5.1 5
  136.5 8.14 8
  136.6 14.24 14
  136.7 19.73 19
  136.8 20.58 20
  136.9 15.66 15
  137.8 7.2 7
  137.9 12.52 12
  138.0 17.42 17
  138.1 18.23 18
  138.2 14.78 14
  138.3 10.05 10
  138.5 9.29 9
  138.6 12.99 12
  138.7 15.56 15
  138.8 15.22 15
  139.0 12.23 12
  139.1 14.11 14
  139.2 17.03 17
  139.3 17.5 17
  139.4 14.31 14
  139.6 8.06 8
  139.7 10.56 10
  139.8 16.1 16
  139.9 21.1 21
  140.0 21.73 21
  140.1 17.23 17
  140.2 11.08 11
  140.4 10.61 10
  140.5 15.19 15
  140.6 17.28 17
  140.7 14.68 14
  140.8 9.43 9
  141.0 7.79 7
  141.1 13.84 13
  141.2 19.21 19
  141.3 18.72 18
  141.4 12.45 12
  141.6 6.13 6
  141.7 11.37 11
  141.8 16.42 16
  141.9 16.88 16
  142.0 13.43 13
  142.2 10.22 10
  142.3 14.11 14
  142.4 18.55 18
  142.5 19.55 19
  142.6 15.66 15
  142.8 6.69 6
  142.9 9.97 9
  143.0 17.94 17
  143.1 24.6 24
  143.2 24.75 24
  143.3 18.26 18
  143.4 10.34 10
  143.6 9.46 9
  143.7 15.12 15
  143.8 18.5 18
  143.9 16.66 16
  144.0 11.47 11
  144.2 8.87 8
  144.3 13.18 13
  144.4 16.39 16
  144.5 15.12 15
  144.6 10.19 10
  144.8 8.14 8
  144.9 14.31 14
  145.0 19.63 19
  145.1 20.02 19
  145.2 16.34 16
  145.4 12.57 12
  145.5 15.63 15
  145.6 18.55 18
  145.7 17.99 17
  145.8 13.89 13
  146.0 8.09 8
  146.1 10.78 10
  146.2 15.76 15
  146.3 19.06 19
  146.4 17.86 17
  146.5 13.13 13
  146.7 9.78 9
  146.8 15.12 15
  146.9 20.78 20
  147.0 21.78 21
  147.1 17.01 16
  147.2 10.24 10
  147.4 8.8 8
  147.5 14.29 14
  147.6 18.67 18
  147.7 18.62 18
  147.8 15.09 15
  148.0 12.3 12
  148.1 14.63 14
  148.2 15.63 15
  148.3 13.92 13
  148.6 10.61 10
  148.7 12.77 12
  148.8 14.9 14
  148.9 15.36 15
  149.0 13.04 13
  149.3 7.74 7
  149.4 12.28 12
  149.5 16.39 16
  149.6 17.25 17
  149.7 14.75 14
  149.9 9.48 9
  150.0 11.98 11
  150.1 17.2 17
  150.2 20.8 20
  150.3 19.85 19
  150.6 15.39 15
  150.7 19.11 19
  150.8 21.32 21
  150.9 19.36 19
  151.0 13.82 13
  151.2 7.18 7
  151.3 11.25 11
  151.4 17.03 17
  151.5 19.41 19
  151.6 16.34 16
  151.8 8.33 8
  151.9 11.52 11
  152.0 17.62 17
  152.1 20.73 20
  152.2 17.77 17
  152.3 11.37 11
  152.5 9.09 9
  152.6 14.75 14
  152.7 19.21 19
  152.8 18.75 18
  152.9 14.38 14
  153.1 10.14 10
  153.2 13.16 13
  153.3 16.96 16
  153.4 18.28 18
  153.5 15.36 15
  153.7 7.55 7
  153.8 10.98 10
  153.9 17.42 17
  154.0 20.29 20
  154.1 16.1 16
  154.2 7.89 7
  154.4 2.21 2
  154.5 8.26 8
  154.6 14.97 14
  154.7 17.47 17
  154.8 14.87 14
  154.9 10.71 10
  155.1 10.27 10
  155.2 13.18 13
  155.3 14.97 14
  155.4 13.97 13
  155.7 10.66 10
  155.8 15.51 15
  155.9 19.53 19
  156.0 19.41 19
  156.1 15.14 15
  156.4 9.88 9
  156.5 14.46 14
  156.6 17.59 17
  156.7 17.03 17
  156.8 14.07 14
  157.0 12.28 12
  157.1 14.63 14
  157.2 16.59 16
  157.3 16.12 16
  157.4 13.28 13
  157.6 9.36 9
  157.7 12.3 12
  157.8 17.1 17
  157.9 19.95 19
  158.0 18.33 18
  158.1 13.6 13
  158.3 11.08 11
  158.4 15.27 15
  158.5 18.35 18
  158.6 16.98 16
  158.7 12.03 12
  158.9 7.55 7
  159.0 12.06 12
  159.1 17.54 17
  159.2 19.6 19
  159.3 16.42 16
  160.1 4.44 4
  160.2 8.09 8
  160.3 14.48 14
  160.4 18.38 18
  160.5 16.71 16
  160.6 11.0 10
  160.8 7.87 7
  160.9 14.29 14
  161.0 20.41 20
  161.1 21.27 21
  161.2 16.86 16
  161.4 9.73 9
  161.5 12.91 12
  161.6 18.35 18
  161.7 20.88 20
  161.8 17.42 17
  161.9 10.02 10
  162.1 5.29 5
  162.2 11.42 11
  162.3 17.35 17
  162.4 18.38 18
  162.5 15.07 15
  162.7 11.59 11
  162.8 14.29 14
  162.9 17.57 17
  163.0 18.84 18
  163.1 16.22 16
  163.4 10.05 10
  163.5 16.2 16
  163.6 20.19 20
  163.7 18.11 18
  163.8 11.69 11
  164.0 6.47 6
  164.1 11.88 11
  164.2 17.52 17
  164.3 18.01 17
  164.4 12.84 12
  164.6 6.4 6
  164.7 10.39 10
  164.8 14.46 14
  164.9 14.63 14
  165.0 10.98 10
  165.3 5.73 5
  165.4 10.68 10
  165.5 15.29 15
  165.6 16.39 16
  165.7 13.8 13
  165.9 9.68 9
  166.0 12.99 12
  166.1 17.64 17
  166.2 19.33 19
  166.3 16.59 16
  167.2 8.23 8
  167.3 14.9 14
  167.4 20.83 20
  167.5 20.83 20
  167.6 14.82 14
  167.8 6.71 6
  167.9 11.39 11
  168.0 18.48 18
  168.1 22.22 22
  168.2 19.28 19
  168.3 11.64 11
  168.5 6.25 6
  168.6 11.79 11
  168.7 16.27 16
  168.8 15.93 15
  168.9 12.18 12
  169.1 8.58 8
  169.2 11.49 11
  169.3 15.36 15
  169.4 16.93 16
  169.5 14.36 14
  169.7 7.23 7
  169.8 10.37 10
  169.9 16.86 16
  170.0 21.15 21
  170.1 20.07 20
  170.2 15.66 15
  170.3 11.96 11
  171.0 5.39 5
  171.1 11.64 11
  171.2 19.06 19
  171.3 21.49 21
  171.4 16.05 16
  171.5 6.49 6
  171.7 1.57 1
  171.8 9.02 9
  171.9 16.61 16
  172.0 19.65 19
  172.1 17.77 17
  172.2 14.07 14
  172.4 11.93 11
  172.5 13.8 13
  172.6 15.44 15
  172.7 15.22 15
  172.8 12.86 12
  173.0 9.43 9
  173.1 12.62 12
  173.2 17.47 17
  173.3 19.51 19
  173.4 16.69 16
  174.3 11.74 11
  174.4 15.76 15
  174.5 18.89 18
  174.6 17.79 17
  174.7 13.06 13
  174.9 9.56 9
  175.0 13.6 13
  175.1 17.01 16
  175.2 16.44 16
  175.3 12.18 12
  175.5 5.64 5
  175.6 8.45 8
  175.7 13.75 13
  175.8 16.88 16
  175.9 14.92 14
  176.2 8.72 8
  176.3 14.65 14
  176.4 18.45 18
  176.5 16.61 16
  176.6 11.47 11
  176.8 10.24 10
  176.9 15.14 15
  177.0 18.65 18
  177.1 17.52 17
  177.2 12.5 12
  177.4 6.98 6
  177.5 11.64 11
  177.6 18.01 17
  177.7 20.9 20
  177.8 17.86 17
  177.9 11.69 11
  178.1 9.51 9
  178.2 14.36 14
  178.3 17.69 17
  178.4 16.42 16
  178.5 11.76 11
  178.7 9.46 9
  178.8 14.31 14
  178.9 17.77 17
  179.0 16.03 16
  179.1 10.44 10
  179.3 6.71 6
  179.4 11.79 11
  179.5 17.2 17
  179.6 19.41 19
  179.7 17.89 17
  179.8 14.41 14
  180.0 11.64 11
  180.1 13.77 13
  180.2 15.73 15
  180.3 15.44 15
  180.4 12.64 12
  180.7 9.12 9
  180.8 13.48 13
  180.9 17.42 17
  181.0 18.23 18
  181.1 16.17 16
  181.2 14.02 14
  181.3 13.45 13
  181.4 13.43 13
  181.5 12.3 12
  181.6 9.75 9
  181.8 6.96 6
  181.9 9.9 9
  182.0 15.46 15
  182.1 20.61 20
  182.2 21.39 21
  182.3 16.12 16
  182.4 8.23 8
  182.6 7.11 7
  182.7 14.33 14
  182.8 19.06 19
  182.9 17.59 17
  183.0 12.42 12
  183.2 10.24 10
  183.3 14.11 14
  183.4 16.61 16
  183.5 15.71 15
  183.6 12.72 12
  183.8 10.93 10
  183.9 13.77 13
  184.0 17.2 17
  184.1 19.19 19
  184.2 18.67 18
  184.3 16.37 16
  185.1 3.77 3
  185.2 11.15 11
  185.3 17.45 17
  185.4 18.11 18
  185.5 13.48 13
  185.7 6.22 6
  185.8 9.8 9
  185.9 15.8 15
  186.0 19.43 19
  186.1 17.94 17
  186.2 12.59 12
  186.4 6.08 6
  186.5 9.97 9
  186.6 15.88 15
  186.7 18.84 18
  186.8 16.79 16
  186.9 12.18 12
  187.6 5.81 5
  187.7 8.04 8
  187.8 13.23 13
  187.9 17.13 17
  188.0 15.93 15
  188.1 10.41 10
  188.3 4.73 4
  188.4 8.99 8
  188.5 14.58 14
  188.6 17.67 17
  188.7 16.91 16
  188.8 13.8 13
  189.5 6.69 6
  189.6 8.94 8
  189.7 14.56 14
  189.8 19.31 19
  189.9 20.04 20
  190.0 17.05 17
  190.1 12.96 12
  190.3 10.63 10
  190.4 13.7 13
  190.5 17.18 17
  190.6 17.32 17
  190.7 12.89 12
  190.9 6.91 6
  191.0 11.76 11
  191.1 17.84 17
  191.2 19.95 19
  191.3 16.54 16
  191.4 10.59 10
  191.6 7.69 7
  191.7 12.15 12
  191.8 16.0 15
  191.9 16.05 16
  192.0 12.84 12
  192.8 5.68 5
  192.9 10.56 10
  193.0 15.73 15
  193.1 18.11 18
  193.2 16.07 16
  193.5 10.17 10
  193.6 15.58 15
  193.7 18.75 18
  193.8 15.8 15
  193.9 9.24 9
  194.1 7.57 7
  194.2 13.33 13
  194.3 17.42 17
  194.4 16.86 16
  194.5 12.69 12
  194.7 8.7 8
  194.8 12.57 12
  194.9 16.47 16
  195.0 16.34 16
  195.1 12.3 12
  195.3 7.38 7
  195.4 9.95 9
  195.5 13.33 13
  195.6 14.8 14
  195.7 13.31 13
  195.8 9.73 9
  196.0 6.49 6
  196.1 9.85 9
  196.2 13.87 13
  196.3 15.0 14
  196.4 12.4 12
  196.6 8.31 8
  196.7 11.2 11
  196.8 15.24 15
  196.9 17.15 17
  197.0 15.46 15
  197.1 11.69 11
  197.3 9.07 9
  197.4 11.66 11
  197.5 14.56 14
  197.6 15.46 15
  197.7 13.7 13
  197.9 10.76 10
  198.0 13.62 13
  198.1 17.03 17
  198.2 17.28 17
  198.3 13.31 13
  198.5 6.3 6
  198.6 9.53 9
  198.7 15.51 15
  198.8 19.55 19
  198.9 18.5 18
  199.0 13.67 13
  199.2 9.78 9
  199.3 13.99 13
  199.4 17.5 17
  199.5 16.12 16
  199.6 10.39 10
  199.8 6.37 6
  199.9 12.01 11
  200.0 17.57 17
  200.1 18.82 18
  200.2 15.34 15
  200.3 10.0 9
  200.5 8.75 8
  200.6 14.04 14
  200.7 18.4 18
  200.8 18.45 18
  200.9 14.63 14
  201.1 9.43 9
  201.2 12.2 12
  201.3 16.12 16
  201.4 17.45 17
  201.5 14.73 14
  201.8 9.65 9
  201.9 14.75 14
  202.0 18.7 18
  202.1 17.81 17
  202.2 12.91 12
  202.4 11.05 11
  202.5 16.39 16
  202.6 19.87 19
  202.7 17.45 17
  202.8 10.41 10
  203.0 3.41 3
  203.1 8.67 8
  203.2 15.27 15
  203.3 18.01 17
  203.4 15.73 15
  203.5 11.25 11
  203.7 9.12 9
  203.8 12.64 12
  203.9 15.9 15
  204.0 16.0 15
  204.1 12.96 12
  204.3 9.61 9
  204.4 12.77 12
  204.5 17.5 17
  204.6 20.68 20
  204.7 19.8 19
  204.8 15.17 15
  205.0 9.97 9
  205.1 14.16 14
  205.2 19.09 19
  205.3 19.95 19
  205.4 15.76 15
  206.8 8.72 8
  206.9 11.0 10
  207.0 13.62 13
  207.1 15.83 15
  207.2 16.93 16
  207.3 15.71 15
  207.5 11.71 11
  207.6 14.7 14
  207.7 19.31 19
  207.8 19.8 19
  207.9 13.99 13
  208.1 3.82 3
  208.2 8.65 8
  208.3 16.2 16
  208.4 19.51 19
  208.5 15.85 15
  208.6 8.94 8
  208.8 6.86 6
  208.9 12.59 12
  209.0 17.54 17
  209.1 18.6 18
  209.2 15.98 15
  209.5 10.83 10
  209.6 15.34 15
  209.7 19.09 19
  209.8 18.57 18
  209.9 14.43 14
  210.1 10.95 10
  210.2 13.5 13
  210.3 15.12 15
  210.4 13.26 13
  210.5 8.53 8
  210.7 5.15 5
  210.8 11.57 11
  210.9 19.97 19
  211.0 24.04 24
  211.1 20.31 20
  211.2 11.84 11
  211.9 9.9 9
  212.0 12.91 12
  212.1 17.1 17
  212.2 19.09 19
  212.3 17.18 17
  212.4 13.01 12
  212.6 9.34 9
  212.7 11.69 11
  212.8 15.51 15
  212.9 18.55 18
  213.0 18.45 18
  213.1 14.51 14
  213.4 9.83 9
  213.5 15.41 15
  213.6 18.99 18
  213.7 17.5 17
  213.8 12.67 12
  214.0 11.1 11
  214.1 15.49 15
  214.2 17.54 17
  214.3 14.33 14
  214.6 7.47 7
  214.7 13.77 13
  214.8 18.67 18
  214.9 19.14 19
  215.0 16.15 16
  215.2 12.01 11
  215.3 14.24 14
  215.4 17.32 17
  215.5 17.86 17
  215.6 14.78 14
  215.8 9.14 9
  215.9 12.84 12
  216.0 18.62 18
  216.1 20.93 20
  216.2 17.18 17
  216.3 10.41 10
  216.5 7.08 7
  216.6 12.67 12
  216.7 18.08 18
  216.8 18.23 18
  216.9 12.25 12
  217.1 3.48 3
  217.2 8.23 8
  217.3 14.82 14
  217.4 17.89 17
  217.5 15.56 15
  217.6 10.49 10
  217.8 9.24 9
  217.9 14.6 14
  218.0 19.09 19
  218.1 19.21 19
  218.2 15.0 14
  219.0 10.54 10
  219.1 13.65 13
  219.2 18.3 18
  219.3 20.19 20
  219.4 17.08 17
  219.5 11.03 11
  219.7 9.02 9
  219.8 14.95 14
  219.9 18.92 18
  220.0 16.88 16
  220.1 10.78 10
  220.3 7.94 7
  220.4 13.99 13
  220.5 20.12 20
  220.6 21.76 21
  220.7 17.81 17
  221.0 11.05 11
  221.1 17.37 17
  221.2 21.49 21
  221.3 19.48 19
  221.4 13.04 13
  221.6 7.87 7
  221.7 12.42 12
  221.8 17.1 17
  221.9 17.94 17
  222.0 14.38 14
  222.1 9.24 9
  222.3 7.62 7
  222.4 11.96 11
  222.5 15.58 15
  222.6 15.41 15
  222.8 10.41 10
  222.9 12.72 12
  223.0 17.35 17
  223.1 19.53 19
  223.2 17.25 17
  223.3 12.59 12
  223.5 9.16 9
  223.6 12.4 12
  223.7 16.44 16
  223.8 17.4 17
  223.9 13.45 13
  224.2 7.38 7
  224.3 12.99 12
  224.4 16.47 16
  224.5 15.66 15
  224.8 12.42 12
  224.9 15.85 15
  225.0 18.26 18
  225.1 17.05 17
  225.2 12.62 12
  225.4 7.5 7
  225.5 11.27 11
  225.6 16.22 16
  225.7 17.74 17
  225.8 13.92 13
  226.7 9.61 9
  226.8 13.28 13
  226.9 16.69 16
  227.0 17.59 17
  227.1 14.43 14
  227.3 6.71 6
  227.4 10.71 10
  227.5 18.11 18
  227.6 22.54 22
  227.7 20.58 20
  227.8 14.36 14
  228.0 9.61 9
  228.1 14.21 14
  228.2 17.79 17
  228.3 16.3 16
  228.4 11.2 11
  228.6 7.77 7
  228.7 11.03 11
  228.8 14.7 14
  228.9 17.3 17
  229.0 17.94 17
  229.1 15.88 15
  229.2 11.93 11
  229.4 9.75 9
  229.5 13.11 13
  229.6 15.56 15
  229.7 14.97 14
  229.9 12.13 12
  230.0 14.9 14
  230.1 18.92 18
  230.2 20.07 20
  230.3 16.39 16
  230.4 10.32 10
  230.6 9.34 9
  230.7 14.73 14
  230.8 17.81 17
  230.9 15.95 15
  231.0 11.35 11
  231.2 9.09 9
  231.3 13.75 13
  231.4 18.52 18
  231.5 18.84 18
  231.6 13.65 13
  231.9 7.28 7
  232.0 12.37 12
  232.1 16.0 15
  232.2 16.81 16
  232.3 15.98 15
  233.1 9.51 9
  233.2 12.45 12
  233.3 16.25 16
  233.4 18.03 18
  233.5 16.56 16
  233.6 13.06 13
  233.8 10.81 10
  233.9 13.58 13
  234.0 15.46 15
  234.1 14.02 14
  234.4 9.14 9
  234.5 14.11 14
  234.6 19.28 19
  234.7 20.26 20
  234.8 15.76 15
  235.0 8.04 8
  235.1 12.72 12
  235.2 19.48 19
  235.3 22.79 22
  235.4 20.46 20
  235.5 14.56 14
  235.8 9.34 9
  235.9 14.19 14
  236.0 16.83 16
  236.3 13.75 13
  236.4 16.3 16
  236.5 18.7 18
  236.6 18.23 18
  236.7 14.48 14
  237.0 9.46 9
  237.1 14.41 14
  237.2 18.08 18
  237.3 17.25 17
  237.4 12.35 12
  237.6 7.11 7
  237.7 12.01 11
  237.8 18.38 18
  237.9 20.98 20
  238.0 18.16 18
  238.1 12.94 12
  238.3 11.22 11
  238.4 15.36 15
  238.5 18.18 18
  238.6 16.54 16
  238.7 11.05 11
  238.9 5.42 5
  239.0 10.02 10
  239.1 15.98 15
  239.2 18.13 18
  239.3 14.92 14
  239.5 10.14 10
  239.6 15.49 15
  239.7 21.07 21
  239.8 20.88 20
  239.9 14.78 14
  240.2 9.09 9
  240.3 15.14 15
  240.4 18.75 18
  240.5 16.81 16
  241.4 8.23 8
  241.5 12.89 12
  241.6 17.62 17
  241.7 18.99 18
  241.8 16.3 16
  242.1 12.06 12
  242.2 15.02 15
  242.3 16.81 16
  242.4 15.12 15
  242.5 9.88 9
  242.7 3.72 3
  242.8 9.48 9
  242.9 17.2 17
  243.0 20.22 20
  243.1 16.25 16
  243.4 10.22 10
  243.5 16.52 16
  243.6 20.17 20
  243.7 18.21 18
  243.8 12.5 12
  244.0 7.87 7
  244.1 12.5 12
  244.2 17.37 17
  244.3 18.43 18
  244.4 15.27 15
  244.6 9.65 9
  244.7 12.18 12
  244.8 16.81 16
  244.9 19.21 19
  245.0 15.93 15
  245.1 8.18 8
  245.3 4.78 4
  245.4 14.56 14
  245.5 23.62 23
  245.6 24.36 24
  245.7 17.4 17
  245.9 9.56 9
  246.0 14.29 14
  246.1 18.97 18
  246.2 19.41 19
  246.3 16.05 16
  246.4 12.15 12
  246.6 11.69 11
  246.7 14.68 14
  246.8 17.25 17
  246.9 17.67 17
  247.0 15.66 15
  247.1 12.91 12
  247.8 6.67 6
  247.9 9.07 9
  248.0 13.53 13
  248.1 17.01 16
  248.2 16.37 16
  248.3 11.96 11
  248.5 9.19 9
  248.6 13.82 13
  248.7 17.28 17
  248.8 16.27 16
  248.9 12.15 12
  249.1 9.83 9
  249.2 13.7 13
  249.3 17.28 17
  249.4 17.4 17
  249.5 13.31 13
  249.7 4.46 4
  249.8 7.79 7
  249.9 15.68 15
  250.0 21.71 21
  250.1 20.36 20
  250.2 12.08 12
  250.4 2.3 2
  250.5 9.68 9
  250.6 19.26 19
  250.7 22.76 22
  250.8 18.26 18
  250.9 11.39 11
  251.6 7.79 7
  251.7 10.41 10
  251.8 15.05 15
  251.9 17.64 17
  252.0 15.93 15
  252.1 11.66 11
  252.3 9.85 9
  252.4 14.36 14
  252.5 19.33 19
  252.6 20.85 20
  252.7 16.64 16
  252.8 9.21 9
  253.0 6.15 6
  253.1 12.4 12
  253.2 17.42 17
  253.3 16.93 16
  253.4 11.37 11
  253.6 3.65 3
  253.7 7.89 7
  253.8 14.48 14
  253.9 17.74 17
  254.0 15.09 15
  254.1 9.12 9
  254.3 5.73 5
  254.4 10.14 10
  254.5 14.8 14
  254.6 16.71 16
  254.7 15.44 15
  254.9 12.45 12
  255.0 14.29 14
  255.1 16.93 16
  255.2 17.69 17
  255.3 15.58 15
  255.6 11.88 11
  255.7 15.09 15
  255.8 16.98 16
  255.9 15.61 15
  256.0 12.28 12
  256.2 10.02 10
  256.3 13.38 13
  256.4 17.62 17
  256.5 19.16 19
  256.6 15.8 15
  256.7 9.73 9
  256.9 8.01 8
  257.0 13.53 13
  257.1 17.84 17
  257.2 17.28 17
  257.3 12.2 12
  257.5 6.91 6
  257.6 11.91 11
  257.7 16.86 16
  257.8 16.34 16
  257.9 10.86 10
  258.1 6.37 6
  258.2 11.22 11
  258.3 15.49 15
  258.4 14.21 14
  258.5 7.52 7
  258.7 0.27 0
  258.8 7.11 7
  258.9 15.98 15
  259.0 19.63 19
  259.1 15.63 15
  259.3 6.25 6
  259.4 10.61 10
  259.5 17.52 17
  259.6 20.71 20
  259.7 17.79 17
  259.8 11.59 11
  260.0 8.77 8
  260.1 15.19 15
  260.2 21.44 21
  260.3 21.81 21
  260.4 15.73 15
  260.7 9.38 9
  260.8 15.07 15
  260.9 18.7 18
  261.0 18.67 18
  261.1 16.15 16
  261.2 13.13 13
  261.4 12.59 12
  261.5 14.41 14
  261.6 15.02 15
  261.7 14.16 14
  261.8 13.35 13
  261.9 12.99 12
  262.0 12.18 12
  262.1 10.68 10
  262.4 9.58 9
  262.5 10.83 10
  262.6 13.67 13
  262.7 17.1 17
  262.8 18.26 18
  262.9 15.39 15
  263.0 10.68 10
  263.2 8.97 8
  263.3 11.52 11
  263.4 12.3 12
  263.5 10.14 10
  263.7 6.67 6
  263.8 9.26 9
  263.9 12.89 12
  264.0 15.22 15
  264.1 15.41 15
  264.2 13.48 13
  264.5 9.21 9
  264.6 13.31 13
  264.7 16.37 16
  264.8 15.83 15
  264.9 12.4 12
  265.1 8.21 8
  265.2 10.93 10
  265.3 15.07 15
  265.4 17.03 17
  265.5 14.95 14
  266.4 9.41 9
  266.5 13.97 13
  266.6 17.57 17
  266.7 17.74 17
  266.8 14.82 14
  267.0 9.56 9
  267.1 11.96 11
  267.2 16.79 16
  267.3 19.24 19
  267.4 15.8 15
  267.5 9.04 9
  267.7 7.84 7
  267.8 13.82 13
  267.9 18.01 17
  268.0 17.64 17
  268.1 13.82 13
  268.2 9.56 9
  268.4 9.04 9
  268.5 12.08 12
  268.6 14.24 14
  268.7 13.62 13
  269.0 10.05 10
  269.1 14.9 14
  269.2 18.7 18
  269.3 17.64 17
  269.4 12.13 12
  269.6 7.52 7
  269.7 13.82 13
  269.8 20.31 20
  269.9 21.1 21
  270.0 15.29 15
  270.3 7.89 7
  270.4 15.63 15
  270.5 21.0 20
  270.6 19.26 19
  270.7 12.06 12
  270.9 6.86 6
  271.0 12.72 12
  271.1 17.77 17
  271.2 17.42 17
  271.3 12.55 12
  271.5 7.72 7
  271.6 12.1 12
  271.7 17.37 17
  271.8 19.14 19
  271.9 16.0 15
  272.2 10.27 10
  272.3 15.09 15
  272.4 18.01 17
  272.5 15.68 15
  272.6 9.7 9
  272.8 6.98 6
  272.9 13.87 13
  273.0 20.95 20
  273.1 22.84 22
  273.2 18.08 18
  273.3 10.44 10
  273.5 6.98 6
  273.6 12.42 12
  273.7 17.45 17
  273.8 18.35 18
  273.9 14.92 14
  274.1 10.39 10
  274.2 14.21 14
  274.3 17.74 17
  274.4 16.37 16
  274.5 10.95 10
  274.7 7.23 7
  274.8 10.86 10
  274.9 13.72 13
  275.0 13.92 13
  275.1 11.79 11
  275.4 7.69 7
  275.5 11.86 11
  275.6 16.88 16
  275.7 18.72 18
  275.8 16.2 16
  276.0 11.64 11
  276.1 14.73 14
  276.2 18.48 18
  276.3 18.94 18
  276.4 14.97 14
  276.7 8.89 8
  276.8 15.07 15
  276.9 19.87 19
  277.0 19.33 19
  277.1 14.14 14
  277.3 7.77 7
  277.4 11.35 11
  277.5 16.61 16
  277.6 19.46 19
  277.7 17.4 17
  278.5 6.35 6
  278.6 11.39 11
  278.7 18.7 18
  278.8 22.67 22
  278.9 20.34 20
  279.0 13.4 13
  279.2 5.54 5
  279.3 9.41 9
  279.4 14.9 14
  279.5 17.62 17
  279.6 15.95 15
  279.7 12.01 11
  279.9 10.46 10
  280.0 13.04 13
  280.1 14.63 14
  280.2 14.04 14
  280.5 9.95 9
  280.6 13.45 13
  280.7 17.62 17
  280.8 18.21 18
  280.9 13.82 13
  281.1 6.03 6
  281.2 9.68 9
  281.3 15.56 15
  281.4 18.26 18
  281.5 15.56 15
  281.8 10.54 10
  281.9 16.1 16
  282.0 19.36 19
  282.1 17.13 17
  282.2 11.22 11
  282.4 7.5 7
  282.5 12.82 12
  282.6 18.26 18
  282.7 19.51 19
  282.8 16.54 16
  283.0 13.89 13
  283.1 17.5 17
  283.2 20.22 20
  283.3 18.84 18
  283.4 13.82 13
  283.6 7.42 7
  283.7 11.05 11
  283.8 16.64 16
  283.9 19.31 19
  284.0 16.76 16
  284.3 11.42 11
  284.4 16.12 16
  284.5 18.62 18
  284.6 16.59 16
  284.7 11.35 11
  284.9 6.44 6
  285.0 10.68 10
  285.1 15.95 15
  285.2 17.89 17
  285.3 15.54 15
  285.4 11.64 11
  285.6 9.9 9
  285.7 12.08 12
  285.8 14.63 14
  285.9 15.73 15
  286.0 13.65 13
  286.3 7.89 7
  286.4 13.53 13
  286.5 17.81 17
  286.6 16.98 16
  286.7 12.57 12
  286.9 10.68 10
  287.0 14.97 14
  287.1 18.67 18
  287.2 18.45 18
  287.3 14.07 14
  287.5 7.33 7
  287.6 11.12 11
  287.7 17.32 17
  287.8 21.0 20
  287.9 19.75 19
  288.0 15.31 15
  288.7 13.28 13
  288.8 14.75 14
  288.9 16.81 16
  289.0 17.28 17
  289.1 14.48 14
  289.2 8.87 8
  289.4 2.11 2
  289.5 6.74 6
  289.6 14.85 14
  289.7 20.53 20
  289.8 19.31 19
  289.9 12.55 12
  290.1 7.16 7
  290.2 13.33 13
  290.3 19.46 19
  290.4 19.82 19
  290.5 13.82 13
  290.7 5.15 5
  290.8 10.41 10
  290.9 17.42 17
  291.0 19.75 19
  291.1 16.07 16
  291.2 10.32 10
  291.4 8.23 8
  291.5 12.4 12
  291.6 16.54 16
  291.7 17.32 17
  291.8 13.75 13
  292.0 6.76 6
  292.1 9.85 9
  292.2 14.95 14
  292.3 17.54 17
  292.4 15.68 15
  293.3 9.85 9
  293.4 12.47 12
  293.5 14.56 14
  293.6 14.07 14
  293.7 11.27 11
  293.9 9.19 9
  294.0 12.84 12
  294.1 16.22 16
  294.2 15.76 15
  294.3 11.88 11
  294.5 9.19 9
  294.6 12.72 12
  294.7 16.52 16
  294.8 18.28 18
  294.9 16.32 16
  295.0 10.51 10
  295.2 2.3 2
  295.3 7.06 7
  295.4 14.16 14
  295.5 17.18 17
  295.6 13.97 13
  295.8 6.37 6
  295.9 9.83 9
  296.0 15.39 15
  296.1 17.72 17
  296.2 14.31 14
  296.5 7.6 7
  296.6 13.8 13
  296.7 18.79 18
  296.8 19.38 19
  296.9 15.93 15
  297.1 11.12 11
  297.2 14.38 14
  297.3 18.18 18
  297.4 17.77 17
  297.5 12.08 12
  297.7 4.19 4
  297.8 10.07 10
  297.9 18.48 18
  298.0 22.32 22
  298.1 18.7 18
  298.2 11.52 11
  298.4 8.33 8
  298.5 13.23 13
  298.6 17.35 17
  298.7 17.57 17
  298.8 14.11 14
  299.0 8.7 8
  299.1 11.66 11
  299.2 16.54 16
  299.3 19.26 19
  299.4 17.54 17
  299.5 13.01 12
  299.7 11.17 11
  299.8 15.07 15
  299.9 17.35 17
  300.0 15.24 15
  300.1 10.19 10
  300.3 7.74 7
  300.4 12.2 12
  300.5 16.17 16
  300.6 17.05 17
  300.7 15.12 15
  300.8 11.74 11
  301.0 7.25 7
  301.1 9.48 9
  301.2 13.77 13
  301.3 16.37 16
  301.4 15.0 14
  301.6 9.56 9
  301.7 12.03 12
  301.8 16.61 16
  301.9 18.7 18
  302.0 16.03 16
  302.1 10.78 10
  302.3 8.26 8
  302.4 11.71 11
  302.5 13.92 13
  302.6 12.45 12
  302.8 7.72 7
  302.9 10.81 10
  303.0 16.3 16
  303.1 19.7 19
  303.2 17.77 17
  303.3 11.52 11
  303.5 5.73 5
  303.6 11.12 11
  303.7 17.74 17
  303.8 20.51 20
  303.9 17.32 17
  304.0 10.39 10
  304.2 4.78 4
  304.3 10.14 10
  304.4 16.22 16
  304.5 17.54 17
  304.6 13.31 13
  304.8 8.26 8
  304.9 12.69 12
  305.0 16.66 16
  305.1 15.83 15
  305.2 10.93 10
  305.4 7.13 7
  305.5 11.64 11
  305.6 16.3 16
  305.7 17.57 17
  305.8 15.19 15
  305.9 11.37 11
  306.1 7.72 7
  306.2 9.7 9
  306.3 13.18 13
  306.4 15.58 15
  306.5 14.85 14
  306.7 11.57 11
  306.8 14.65 14
  306.9 19.31 19
  307.0 20.95 20
  307.1 17.15 17
  307.4 10.63 10
  307.5 16.52 16
  307.6 19.97 19
  307.7 18.28 18
  307.8 13.01 12
  308.0 7.16 7
  308.1 11.52 11
  308.2 18.28 18
  308.3 22.18 22
  308.4 20.04 20
  308.5 13.99 13
  308.7 8.75 8
  308.8 11.93 11
  308.9 14.8 14
  309.0 14.46 14
  309.1 11.37 11
  309.3 9.38 9
  309.4 13.72 13
  309.5 17.86 17
  309.6 17.45 17
  309.7 12.33 12
  309.9 7.25 7
  310.0 11.44 11
  310.1 15.27 15
  310.2 14.85 14
  310.3 10.78 10
  310.5 6.96 6
  310.6 11.05 11
  310.7 16.74 16
  310.8 20.0 19
  310.9 18.26 18
  311.0 12.23 12
  311.2 5.1 5
  311.3 9.97 9
  311.4 16.56 16
  311.5 19.28 19
  311.6 16.49 16
  311.8 9.7 9
  311.9 12.77 12
  312.0 18.16 18
  312.1 20.44 20
  312.2 16.32 16
  312.5 7.79 7
  312.6 16.0 15
  312.7 22.74 22
  312.8 23.21 23
  312.9 17.96 17
  313.8 9.09 9
  313.9 14.78 14
  314.0 18.84 18
  314.1 18.79 18
  314.2 15.78 15
  314.4 12.82 12
  314.5 15.22 15
  314.6 18.08 18
  314.7 18.79 18
  314.8 16.0 15
  314.9 11.03 11
  315.1 9.21 9
  315.2 13.94 13
  315.3 17.13 17
  315.4 15.29 15
  315.5 10.1 10
  315.7 8.14 8
  315.8 13.38 13
  315.9 17.3 17
  316.0 16.05 16
  316.1 10.34 10
  316.3 5.78 5
  316.4 12.28 12
  316.5 18.87 18
  316.6 19.28 19
  316.7 12.91 12
  316.9 2.45 2
  317.0 6.84 6
  317.1 15.76 15
  317.2 23.5 23
  317.3 24.92 24
  317.4 19.33 19
  317.5 11.79 11
  317.7 10.76 10
  317.8 15.83 15
  317.9 18.99 18
  318.0 18.01 17
  318.1 14.02 14
  318.3 10.95 10
  318.4 14.43 14
  318.5 16.71 16
  318.6 14.56 14
  318.9 10.39 10
  319.0 15.17 15
  319.1 17.79 17
  319.2 16.1 16
  319.5 11.57 11
  319.6 17.54 17
  319.7 21.76 21
  319.8 20.09 20
  319.9 13.67 13
  320.2 7.91 7
  320.3 13.21 13
  320.4 17.35 17
  320.5 17.2 17
  320.6 12.74 12
  320.8 7.23 7
  320.9 11.69 11
  321.0 16.88 16
  321.1 17.91 17
  321.2 13.99 13
  321.4 8.5 8
  321.5 12.91 12
  321.6 18.28 18
  321.7 19.85 19
  321.8 16.61 16
  321.9 11.49 11
  322.1 9.97 9
  322.2 15.41 15
  322.3 20.44 20
  322.4 20.46 20
  322.5 15.8 15
  322.7 10.46 10
  322.8 13.45 13
  322.9 16.42 16
  323.0 16.34 16
  323.1 13.31 13
  323.3 9.36 9
  323.4 12.4 12
  323.5 17.72 17
  323.6 22.05 22
  323.7 22.08 22
  323.8 17.47 17
  324.0 10.63 10
  324.1 14.97 14
  324.2 20.41 20
  324.3 20.51 20
  324.4 13.62 13
  325.2 8.16 8
  325.3 12.45 12
  325.4 16.39 16
  325.5 17.23 17
  325.6 14.95 14
  325.7 11.25 11
  326.0 8.99 8
  326.1 11.71 11
  326.2 13.45 13
  326.3 13.65 13
  326.4 13.11 13
  326.5 13.04 13
  326.6 14.36 14
  326.7 17.03 17
  326.8 18.94 18
  326.9 17.3 17
  327.0 12.03 12
  327.2 7.18 7
  327.3 11.3 11
  327.4 15.39 15
  327.5 15.88 15
  327.6 13.11 13
  327.8 10.39 10
  327.9 13.82 13
  328.0 18.38 18
  328.1 20.61 20
  328.2 18.28 18
  328.3 12.86 12
  328.5 9.14 9
  328.6 13.16 13
  328.7 16.71 16
  328.8 16.59 16
  328.9 13.18 13
  329.1 10.51 10
  329.2 14.31 14
  329.3 17.79 17
  329.4 17.67 17
  329.5 14.09 14
  329.7 9.19 9
  329.8 11.69 11
  329.9 15.29 15
  330.0 16.27 16
  330.1 12.82 12
  330.4 6.0 5
  330.5 12.08 12
  330.6 16.49 16
  330.7 15.49 15
  330.8 10.51 10
  331.0 8.43 8
  331.1 14.63 14
  331.2 20.71 20
  331.3 22.22 22
  331.4 19.01 18
  331.5 14.43 14
  332.2 10.9 10
  332.3 12.55 12
  332.4 15.02 15
  332.5 16.88 16
  332.6 17.03 17
  332.7 14.85 14
  332.9 9.85 9
  333.0 12.18 12
  333.1 16.61 16
  333.2 18.75 18
  333.3 16.34 16
  333.5 10.56 10
  333.6 13.23 13
  333.7 17.84 17
  333.8 20.31 20
  333.9 18.21 18
  334.0 12.77 12
  334.2 7.11 7
  334.3 10.44 10
  334.4 15.46 15
  334.5 18.67 18
  334.6 17.4 17
  334.7 12.57 12
  334.9 9.73 9
  335.0 16.07 16
  335.1 22.22 22
  335.2 22.3 22
  335.3 15.76 15
  336.2 7.94 7
  336.3 12.08 12
  336.4 16.37 16
  336.5 17.99 17
  336.6 16.34 16
  337.4 4.68 4
  337.5 8.01 8
  337.6 14.8 14
  337.7 20.98 20
  337.8 23.08 23
  337.9 20.31 20
  338.0 15.17 15
  338.7 7.3 7
  338.8 10.68 10
  338.9 17.5 17
  339.0 21.42 21
  339.1 19.06 19
  339.2 12.99 12
  339.4 11.12 11
  339.5 16.0 15
  339.6 18.28 18
  339.7 15.14 15
  339.8 8.87 8
  340.0 5.54 5
  340.1 11.59 11
  340.2 17.94 17
  340.3 19.58 19
  340.4 15.51 15
  341.3 3.99 3
  341.4 8.53 8
  341.5 13.8 13
  341.6 16.15 16
  341.7 14.53 14
  341.9 9.97 9
  342.0 12.18 12
  342.1 16.2 16
  342.2 18.6 18
  342.3 17.2 17
  342.4 13.18 13
  342.6 11.15 11
  342.7 15.19 15
  342.8 18.77 18
  342.9 18.4 18
  343.0 14.02 14
  343.1 8.99 8
  343.8 7.84 7
  343.9 10.14 10
  344.0 14.58 14
  344.1 18.16 18
  344.2 17.47 17
  344.3 12.3 12
  344.5 7.72 7
  344.6 13.4 13
  344.7 18.94 18
  344.8 19.21 19
  344.9 14.78 14
  345.1 10.63 10
  345.2 14.02 14
  345.3 16.61 16
  345.4 15.22 15
  345.5 10.54 10
  345.7 7.06 7
  345.8 11.39 11
  345.9 15.95 15
  346.0 17.08 17
  346.1 14.24 14
  346.3 8.67 8
  346.4 11.03 11
  346.5 15.66 15
  346.6 18.89 18
  346.7 17.77 17
  346.8 12.55 12
  347.0 6.81 6
  347.1 10.78 10
  347.2 15.44 15
  347.3 16.42 16
  347.4 13.48 13
  347.6 8.94 8
  347.7 11.66 11
  347.8 16.17 16
  347.9 19.33 19
  348.0 18.4 18
  348.1 13.01 12
  348.3 4.63 4
  348.4 8.28 8
  348.5 13.87 13
  348.6 16.52 16
  348.7 14.9 14
  348.8 10.98 10
  349.0 8.53 8
  349.1 13.04 13
  349.2 18.45 18
  349.3 20.36 20
  349.4 17.42 17
  349.5 12.37 12
  350.1 8.72 8
  350.2 11.59 11
  350.3 16.15 16
  350.4 18.84 18
  350.5 17.96 17
  350.6 14.33 14
  350.7 10.24 10
  350.9 9.02 9
  351.0 12.77 12
  351.1 15.68 15
  351.2 14.14 14
  351.5 7.6 7
  351.6 14.92 14
  351.7 21.0 20
  351.8 20.71 20
  351.9 14.26 14
  352.2 6.76 6
  352.3 12.67 12
  352.4 15.76 15
  352.5 13.87 13
  352.8 10.14 10
  352.9 14.46 14
  353.0 17.89 17
  353.1 17.72 17
  353.2 13.09 13
  353.4 3.9 3
  353.5 7.72 7
  353.6 14.92 14
  353.7 19.21 19
  353.8 17.79 17
  353.9 13.58 13
  354.1 12.37 12
  354.2 15.14 15
  354.3 16.61 16
  354.4 15.34 15
  354.5 12.18 12
  355.3 7.35 7
  355.4 12.03 12
  355.5 17.23 17
  355.6 18.03 18
  355.7 13.28 13
  356.0 6.17 6
  356.1 12.64 12
  356.2 17.62 17
  356.3 17.57 17
  356.4 13.53 13
  357.2 3.97 3
  357.3 6.15 6
  357.4 12.13 12
  357.5 16.74 16
  357.6 15.29 15
  357.7 8.77 8
  357.9 4.26 4
  358.0 10.34 10
  358.1 16.32 16
  358.2 17.45 17
  358.3 13.18 13
  358.6 7.35 7
  358.7 12.03 12
  358.8 14.24 14
  358.9 12.42 12
  359.2 9.9 9
  359.3 12.52 12
  359.4 14.58 14
  359.5 15.09 15
  359.6 13.4 13
  359.8 7.52 7
  359.9 9.53 9
  360.0 15.44 15
  360.1 20.17 20
  360.2 18.87 18
  360.3 12.69 12
  360.5 8.72 8
  360.6 13.84 13
  360.7 17.99 17
  360.8 17.67 17
  360.9 13.67 13
  361.1 9.95 9
  361.2 13.75 13
  361.3 17.94 17
  361.4 18.48 18
  361.5 14.21 14
  361.8 7.38 7
  361.9 14.04 14
  362.0 18.75 18
  362.1 17.18 17
  362.2 11.27 11
  362.4 7.94 7
  362.5 11.74 11
  362.6 13.84 13
  362.7 11.76 11
  362.8 6.86 6
  363.0 4.39 4
  363.1 10.93 10
  363.2 18.06 18
  363.3 20.0 19
  363.4 15.24 15
  363.5 8.48 8
  363.7 8.53 8
  363.8 13.6 13
  363.9 16.1 16
  364.0 14.14 14
  364.1 9.68 9
  364.3 6.79 6
  364.4 11.22 11
  364.5 16.98 16
  364.6 19.8 19
  364.7 17.2 17
  364.8 11.17 11
  365.0 7.72 7
  365.1 12.72 12
  365.2 17.59 17
  365.3 18.45 18
  365.4 15.27 15
  365.6 12.79 12
  365.7 17.3 17
  365.8 20.98 20
  365.9 20.07 20
  366.0 15.24 15
  366.1 9.9 9
  366.3 7.74 7
  366.4 10.93 10
  366.5 13.99 13
  366.6 14.56 14
  366.9 11.88 11
  367.0 14.63 14
  367.1 16.61 16
  367.2 15.29 15
  367.3 11.25 11
  367.5 8.65 8
  367.6 12.08 12
  367.7 15.0 14
  367.8 15.02 15
  367.9 12.18 12
  368.0 8.43 8
  368.2 7.47 7
  368.3 10.46 10
  368.4 12.5 12
  368.5 11.64 11
  368.7 7.3 7
  368.8 9.78 9
  368.9 16.34 16
  369.0 22.81 22
  369.1 23.7 23
  369.2 18.18 18
  369.5 11.27 11
  369.6 16.59 16
  369.7 19.75 19
  369.8 18.79 18
  369.9 15.12 15
  370.8 11.05 11
  370.9 14.21 14
  371.0 17.3 17
  371.1 17.2 17
  371.2 13.58 13
  371.4 8.72 8
  371.5 11.59 11
  371.6 15.05 15
  371.7 15.41 15
  372.0 11.69 11
  372.1 16.69 16
  372.2 21.49 21
  372.3 21.47 21
  372.4 15.58 15
  372.5 7.74 7
  372.7 6.32 6
  372.8 11.86 11
  372.9 14.7 14
  373.0 12.79 12
  373.2 8.38 8
  373.3 10.78 10
  373.4 13.92 13
  373.5 15.49 15
  373.6 15.22 15
  373.7 13.89 13
  373.9 11.69 11
  374.0 12.89 12
  374.1 15.39 15
  374.2 16.12 16
  374.3 12.77 12
  374.5 5.73 5
  374.6 9.46 9
  374.7 15.8 15
  374.8 19.82 19
  374.9 19.14 19
  375.0 14.97 14
  375.2 11.05 11
  375.3 15.83 15
  375.4 21.37 21
  375.5 22.3 22
  375.6 17.52 17
  375.9 11.81 11
  376.0 16.37 16
  376.1 18.45 18
  376.2 16.79 16
  377.1 11.71 11
  377.2 15.93 15
  377.3 19.38 19
  377.4 19.36 19
  377.5 15.39 15
  377.8 10.66 10
  377.9 16.44 16
  378.0 20.26 20
  378.1 18.67 18
  378.2 13.43 13
  378.4 10.93 10
  378.5 15.22 15
  378.6 18.01 17
  378.7 16.74 16
  378.8 12.59 12
  379.0 7.96 7
  379.1 10.54 10
  379.2 14.85 14
  379.3 18.03 18
  379.4 17.77 17
  379.5 14.6 14
  379.7 12.79 12
  379.8 16.03 16
  379.9 17.54 17
  380.0 14.78 14
  380.2 6.64 6
  380.3 9.29 9
  380.4 16.54 16
  380.5 22.89 22
  380.6 22.89 22
  380.7 16.39 16
  380.8 8.5 8
  381.0 7.4 7
  381.1 12.99 12
  381.2 17.25 17
  381.3 17.28 17
  381.4 13.7 13
  381.6 8.77 8
  381.7 12.15 12
  381.8 17.35 17
  381.9 19.04 19
  382.0 14.38 14
  382.1 6.71 6
  382.3 5.61 5
  382.4 11.76 11
  382.5 15.44 15
  382.6 13.8 13
  382.9 7.18 7
  383.0 13.84 13
  383.1 20.09 20
  383.2 20.56 20
  383.3 15.0 14
  383.5 8.77 8
  383.6 13.92 13
  383.7 19.36 19
  383.8 20.17 20
  383.9 16.05 16
  384.8 7.16 7
  384.9 10.68 10
  385.0 15.22 15
  385.1 17.91 17
  385.2 16.86 16
  385.3 12.33 12
  385.5 7.35 7
  385.6 12.28 12
  385.7 18.26 18
  385.8 19.51 19
  385.9 14.48 14
  386.1 5.98 5
  386.2 10.86 10
  386.3 17.99 17
  386.4 21.17 21
  386.5 18.55 18
  386.6 13.58 13
  387.3 6.3 6
  387.4 11.52 11
  387.5 18.06 18
  387.6 21.76 21
  387.7 20.68 20
  387.8 16.54 16
  387.9 12.77 12
  388.6 9.04 9
  388.7 13.89 13
  388.8 19.11 19
  388.9 19.85 19
  389.0 14.48 14
  389.1 6.64 6
  389.3 5.54 5
  389.4 13.09 13
  389.5 18.21 18
  389.6 16.71 16
  389.9 9.9 9
  390.0 15.95 15
  390.1 20.75 20
  390.2 20.34 20
  390.3 14.87 14
  390.6 9.36 9
  390.7 14.41 14
  390.8 17.4 17
  390.9 16.3 16
  391.0 11.98 11
  391.2 5.91 5
  391.3 9.19 9
  391.4 14.95 14
  391.5 18.5 18
  391.6 17.32 17
  391.7 12.99 12
  391.9 8.53 8
  392.0 11.3 11
  392.1 14.7 14
  392.2 15.41 15
  392.3 12.57 12
  392.5 8.6 8
  392.6 11.98 11
  392.7 16.34 16
  392.8 18.21 18
  392.9 16.81 16
  393.0 14.11 14
  393.7 10.34 10
  393.8 13.13 13
  393.9 16.88 16
  394.0 19.28 19
  394.1 18.65 18
  394.2 14.46 14
  394.5 9.36 9
  394.6 14.78 14
  394.7 17.91 17
  394.8 16.52 16
  394.9 12.33 12
  395.1 9.48 9
  395.2 12.77 12
  395.3 16.03 16
  395.4 16.22 16
  395.5 12.82 12
  395.7 8.58 8
  395.8 12.94 12
  395.9 18.11 18
  396.0 19.26 19
  396.1 15.63 15
  396.4 11.39 11
  396.5 15.36 15
  396.6 17.59 17
  396.7 16.17 16
  397.6 9.78 9
  397.7 14.87 14
  397.8 19.85 19
  397.9 20.53 20
  398.0 15.95 15
  398.1 9.48 9
  398.3 8.09 8
  398.4 12.64 12
  398.5 15.44 15
  398.6 14.31 14
  399.5 4.63 4
  399.6 9.68 9
  399.7 16.52 16
  399.8 20.83 20
  399.9 19.53 19
  400.8 10.95 10
  400.9 13.89 13
  401.0 16.98 16
  401.1 17.84 17
  401.2 15.49 15
  401.5 10.44 10
  401.6 15.02 15
  401.7 18.55 18
  401.8 17.35 17
  401.9 12.23 12
  402.1 8.63 8
  402.2 12.89 12
  402.3 16.03 16
  402.4 14.85 14
  402.5 10.63 10
  402.7 8.48 8
  402.8 13.5 13
  402.9 18.7 18
  403.0 20.02 19
  403.1 16.42 16
  403.2 10.54 10
  403.4 8.43 8
  403.5 14.41 14
  403.6 19.68 19
  403.7 19.55 19
  403.8 14.68 14
  404.0 9.58 9
  404.1 12.37 12
  404.2 15.24 15
  404.3 15.68 15
  404.4 13.09 13
  404.6 7.16 7
  404.7 10.19 10
  404.8 16.69 16
  404.9 21.17 21
  405.0 19.58 19
  405.1 13.35 13
  405.3 7.84 7
  405.4 12.84 12
  405.5 18.94 18
  405.6 22.18 22
  405.7 20.88 20
  405.8 16.81 16
  406.5 8.36 8
  406.6 12.45 12
  406.7 17.81 17
  406.8 20.44 20
  406.9 18.99 18
  407.0 15.17 15
  407.3 11.17 11
  407.4 14.78 14
  407.5 17.25 17
  407.6 15.56 15
  407.9 10.68 10
  408.0 16.61 16
  408.1 20.56 20
  408.2 18.84 18
  408.3 12.52 12
  408.5 5.46 5
  408.6 10.07 10
  408.7 16.15 16
  408.8 18.79 18
  408.9 16.56 16
  409.7 2.3 2
  409.8 7.3 7
  409.9 16.37 16
  410.0 21.91 21
  410.1 19.73 19
  410.2 12.15 12
  410.4 5.39 5
  410.5 10.73 10
  410.6 16.39 16
  410.7 17.89 17
  410.8 15.36 15
  411.0 12.4 12
  411.1 15.07 15
  411.2 17.91 17
  411.3 18.01 17
  411.4 13.99 13
  411.7 7.28 7
  411.8 14.38 14
  411.9 20.14 20
  412.0 20.29 20
  412.1 15.41 15
  413.0 6.57 6
  413.1 11.71 11
  413.2 14.8 14
  413.3 14.14 14
  413.6 11.42 11
  413.7 14.07 14
  413.8 15.98 15
  413.9 15.27 15
  414.0 11.93 11
  414.2 8.01 8
  414.3 11.05 11
  414.4 14.75 14
  414.5 15.46 15
  414.6 12.01 11
  414.7 6.59 6
  414.9 4.95 4
  415.0 11.12 11
  415.1 17.67 17
  415.2 19.75 19
  415.3 16.42 16
  415.5 10.39 10
  415.6 13.89 13
  415.7 18.13 18
  415.8 18.38 18
  415.9 13.99 13
  416.2 9.24 9
  416.3 15.12 15
  416.4 20.26 20
  416.5 20.34 20
  416.6 14.82 14
  416.8 7.45 7
  416.9 12.59 12
  417.0 19.36 19
  417.1 21.83 21
  417.2 18.45 18
  417.3 12.59 12
  417.5 9.31 9
  417.6 12.67 12
  417.7 15.85 15
  417.8 16.07 16
  417.9 13.28 13
  418.7 4.85 4
  418.8 8.99 8
  418.9 13.6 13
  419.0 15.93 15
  419.1 14.92 14
  419.2 11.93 11
  419.9 2.82 2
  420.0 5.12 5
  420.1 10.68 10
  420.2 16.61 16
  420.3 19.21 19
  420.4 16.64 16
  420.7 10.17 10
  420.8 15.66 15
  420.9 19.38 19
  421.0 17.74 17
  421.1 11.86 11
  421.3 6.3 6
  421.4 11.12 11
  421.5 16.56 16
  421.6 17.84 17
  421.7 14.24 14
  421.9 8.92 8
  422.0 12.52 12
  422.1 16.96 16
  422.2 18.35 18
  422.3 16.22 16
  422.4 12.91 12
  423.1 10.63 10
  423.2 12.47 12
  423.3 16.12 16
  423.4 17.89 17
  423.5 15.39 15
  423.6 9.34 9
  423.8 0.0 0
  423.9 3.65 3
  424.0 11.66 11
  424.1 17.62 17
  424.2 16.69 16
  424.3 10.63 10
  424.5 8.09 8
  424.6 14.75 14
  424.7 19.53 19
  424.8 17.64 17
  424.9 10.27 10
  425.1 2.3 2
  425.2 8.09 8
  425.3 15.9 15
  425.4 19.01 18
  425.5 14.68 14
  425.8 7.33 7
  425.9 14.16 14
  426.0 17.15 17
  426.1 14.11 14
  426.2 8.7 8
  426.4 7.74 7
  426.5 12.45 12
  426.6 16.12 16
  426.7 15.73 15
  426.8 11.25 11
  427.0 6.22 6
  427.1 12.01 11
  427.2 19.46 19
  427.3 22.13 22
  427.4 17.4 17
  427.7 8.14 8
  427.8 17.08 17
  427.9 23.65 23
  428.0 22.45 22
  428.1 14.95 14
  428.2 7.13 7
  428.4 6.2 6
  428.5 11.3 11
  428.6 15.27 15
  428.7 15.36 15
  429.6 8.28 8
  429.7 12.4 12
  429.8 15.44 15
  429.9 15.49 15
  430.0 12.64 12
  430.3 8.53 8
  430.4 14.09 14
  430.5 18.18 18
  430.6 16.32 16
  430.7 9.61 9
  430.9 6.42 6
  431.0 14.53 14
  431.1 21.66 21
  431.2 21.34 21
  431.3 14.51 14
  431.5 9.68 9
  431.6 15.56 15
  431.7 19.36 19
  431.8 17.57 17
  431.9 12.64 12
  432.1 10.71 10
  432.2 15.09 15
  432.3 19.41 19
  432.4 20.58 20
  432.5 17.74 17
  432.6 12.91 12
  432.8 10.34 10
  432.9 14.09 14
  433.0 17.3 17
  433.1 17.01 16
  433.2 13.89 13
  434.1 10.68 10
  434.2 12.96 12
  434.3 15.29 15
  434.4 15.41 15
  434.5 13.55 13
  434.8 11.81 11
  434.9 14.24 14
  435.0 16.22 16
  435.1 15.27 15
  435.2 11.03 11
  435.4 7.65 7
  435.5 12.35 12
  435.6 17.01 16
  435.7 17.74 17
  435.8 15.09 15
  435.9 12.1 12
  436.6 8.11 8
  436.7 10.46 10
  436.8 14.92 14
  436.9 17.05 17
  437.0 14.11 14
  437.3 7.79 7
  437.4 14.46 14
  437.5 19.63 19
  437.6 18.94 18
  437.7 13.5 13
  437.9 7.5 7
  438.0 10.93 10
  438.1 15.85 15
  438.2 19.41 19
  438.3 20.09 20
  438.4 17.91 17
  439.2 9.38 9
  439.3 13.62 13
  439.4 18.01 17
  439.5 18.43 18
  439.6 14.36 14
  439.8 7.13 7
  439.9 10.37 10
  440.0 16.27 16
  440.1 19.85 19
  440.2 17.99 17
  440.3 12.18 12
  440.5 6.1 6
  440.6 9.21 9
  440.7 13.01 12
  440.8 14.29 14
  440.9 12.35 12
  441.1 8.11 8
  441.2 10.51 10
  441.3 14.97 14
  441.4 18.01 17
  441.5 17.03 17
  441.6 12.45 12
  441.8 6.22 6
  441.9 9.19 9
  442.0 13.35 13
  442.1 14.8 14
  442.2 12.55 12
  442.4 9.51 9
  442.5 13.82 13
  442.6 19.09 19
  442.7 20.36 20
  442.8 15.93 15
  443.0 7.03 7
  443.1 11.35 11
  443.2 18.94 18
  443.3 22.86 22
  443.4 19.48 19
  443.5 11.96 11
  443.7 7.99 7
  443.8 12.45 12
  443.9 15.85 15
  444.0 15.85 15
  444.1 13.26 13
  444.3 8.99 8
  444.4 10.88 10
  444.5 15.19 15
  444.6 18.82 18
  444.7 18.11 18
  444.8 13.09 13
  445.0 9.36 9
  445.1 15.22 15
  445.2 19.7 19
  445.3 17.81 17
  445.4 11.42 11
  445.6 7.38 7
  445.7 11.42 11
  445.8 14.7 14
  445.9 14.68 14
  446.0 11.39 11
  446.2 6.15 6
  446.3 9.85 9
  446.4 16.32 16
  446.5 20.34 20
  446.6 18.57 18
  446.7 12.96 12
  446.9 9.56 9
  447.0 13.45 13
  447.1 16.59 16
  447.2 16.22 16
  447.3 12.52 12
  447.5 8.38 8
  447.6 13.62 13
  447.7 20.09 20
  447.8 21.83 21
  447.9 17.2 17
  448.2 10.56 10
  448.3 16.49 16
  448.4 20.71 20
  448.5 20.07 20
  448.6 15.41 15
  448.9 11.25 11
  449.0 15.29 15
  449.1 17.69 17
  449.2 16.07 16
  449.3 11.47 11
  449.5 9.61 9
  449.6 14.14 14
  449.7 16.74 16
  449.8 14.43 14
  450.0 7.72 7
  450.1 11.35 11
  450.2 18.13 18
  450.3 22.15 22
  450.4 19.33 19
  450.5 11.54 11
  450.7 5.78 5
  450.8 11.86 11
  450.9 18.21 18
  451.0 19.63 19
  451.1 14.9 14
  451.2 7.65 7
  451.4 5.02 5
  451.5 11.32 11
  451.6 17.08 17
  451.7 17.99 17
  451.8 14.75 14
  452.0 12.03 12
  452.1 14.38 14
  452.2 16.05 16
  452.3 15.83 15
  452.4 14.14 14
  452.7 10.32 10
  452.8 13.43 13
  452.9 15.63 15
  453.0 13.65 13
  453.1 8.48 8
  453.3 6.62 6
  453.4 12.74 12
  453.5 18.79 18
  453.6 20.44 20
  453.7 16.83 16
  453.8 11.44 11
  454.0 10.1 10
  454.1 13.97 13
  454.2 16.76 16
  454.3 16.0 15
  454.5 10.98 10
  454.6 13.33 13
  454.7 18.5 18
  454.8 21.66 21
  454.9 19.68 19
  455.0 14.41 14
  455.2 10.44 10
  455.3 13.04 13
  455.4 15.34 15
  455.5 15.0 14
  455.6 11.91 11
  455.8 7.67 7
  455.9 10.39 10
  456.0 14.29 14
  456.1 16.25 16
  456.2 15.14 15
  456.3 12.06 12
  456.5 8.45 8
  456.6 11.44 11
  456.7 15.78 15
  456.8 17.01 16
  456.9 13.45 13
  457.1 8.6 8
  457.2 12.23 12
  457.3 15.49 15
  457.4 14.46 14
  457.5 9.88 9
  457.7 7.42 7
  457.8 13.18 13
  457.9 19.11 19
  458.0 21.0 20
  458.1 18.11 18
  458.2 13.31 13
  458.4 10.81 10
  458.5 14.56 14
  458.6 18.75 18
  458.7 20.19 20
  458.8 17.45 17
  458.9 12.08 12
  459.1 7.82 7
  459.2 12.45 12
  459.3 17.64 17
  459.4 18.45 18
  459.5 14.02 14
  459.7 7.82 7
  459.8 11.96 11
  459.9 16.88 16
  460.0 17.77 17
  460.1 13.84 13
  460.3 7.74 7
  460.4 11.44 11
  460.5 16.59 16
  460.6 18.48 18
  460.7 16.0 15
  460.8 12.15 12
  461.6 9.43 9
  461.7 13.7 13
  461.8 17.77 17
  461.9 18.6 18
  462.0 15.34 15
  462.2 8.58 8
  462.3 12.23 12
  462.4 18.99 18
  462.5 22.89 22
  462.6 20.34 20
  462.7 13.89 13
  462.9 10.1 10
  463.0 14.8 14
  463.1 19.21 19
  463.2 19.63 19
  463.3 15.8 15
  463.4 10.9 10
  463.6 10.66 10
  463.7 13.99 13
  463.8 15.76 15
  463.9 14.43 14
  464.2 10.71 10
  464.3 15.27 15
  464.4 17.99 17
  464.5 16.3 16
  464.6 12.4 12
  465.3 8.89 8
  465.4 9.83 9
  465.5 14.04 14
  465.6 19.43 19
  465.7 21.71 21
  465.8 18.4 18
  465.9 11.69 11
  466.1 6.89 6
  466.2 11.81 11
  466.3 17.47 17
  466.4 19.7 19
  466.5 17.13 17
  466.6 12.15 12
  467.4 2.92 2
  467.5 7.87 7
  467.6 13.67 13
  467.7 16.32 16
  467.8 14.29 14
  468.7 11.35 11
  468.8 15.56 15
  468.9 18.77 18
  469.0 18.21 18
  469.1 14.21 14
  469.3 10.05 10
  469.4 14.07 14
  469.5 18.45 18
  469.6 18.87 18
  469.7 14.82 14
  470.0 10.63 10
  470.1 15.54 15
  470.2 18.45 18
  470.3 16.86 16
  470.4 12.55 12
  470.6 11.22 11
  470.7 15.39 15
  470.8 18.6 18
  470.9 18.18 18
  471.0 14.56 14
  471.2 10.27 10
  471.3 13.5 13
  471.4 17.94 17
  471.5 18.92 18
  471.6 14.11 14
  471.7 6.62 6
  471.9 5.91 5
  472.0 11.81 11
  472.1 14.78 14
  472.4 11.42 11
  472.5 14.58 14
  472.6 18.4 18
  472.7 20.0 19
  472.8 17.5 17
  472.9 11.91 11
  473.1 6.84 6
  473.2 11.69 11
  473.3 17.84 17
  473.4 19.85 19
  473.5 15.8 15
  474.4 8.38 8
  474.5 12.5 12
  474.6 16.93 16
  474.7 18.52 18
  474.8 16.25 16
  474.9 11.88 11
  475.1 8.72 8
  475.2 11.79 11
  475.3 15.07 15
  475.4 16.25 16
  475.5 15.12 15
  475.7 12.79 12
  475.8 14.46 14
  475.9 16.81 16
  476.0 16.71 16
  476.1 12.4 12
  476.3 4.19 4
  476.4 9.12 9
  476.5 17.2 17
  476.6 21.22 21
  476.7 18.18 18
  476.8 11.79 11
  477.0 8.21 8
  477.1 11.76 11
  477.2 14.51 14
  477.3 14.16 14
  477.6 10.83 10
  477.7 13.82 13
  477.8 16.59 16
  477.9 17.3 17
  478.0 15.34 15
  478.1 11.61 11
  478.3 8.92 8
  478.4 12.79 12
  478.5 17.2 17
  478.6 18.75 18
  478.7 17.13 17
  479.6 9.24 9
  479.7 14.19 14
  479.8 17.81 17
  479.9 16.61 16
  480.8 5.91 5
  480.9 10.41 10
  481.0 15.14 15
  481.1 15.93 15
  481.2 12.15 12
  481.4 6.64 6
  481.5 9.95 9
  481.6 13.89 13
  481.7 14.41 14
  481.8 10.86 10
  482.0 4.73 4
  482.1 7.5 7
  482.2 12.57 12
  482.3 16.2 16
  482.4 16.12 16
  482.5 13.04 13
  482.7 10.59 10
  482.8 14.78 14
  482.9 19.33 19
  483.0 19.97 19
  483.1 15.78 15
  483.2 9.9 9
  483.4 7.94 7
  483.5 12.84 12
  483.6 17.52 17
  483.7 18.33 18
  483.8 14.82 14
  484.0 9.83 9
  484.1 13.26 13
  484.2 17.03 17
  484.3 16.83 16
  484.4 12.18 12
  484.6 5.71 5
  484.7 9.68 9
  484.8 16.03 16
  484.9 20.73 20
  485.0 21.42 21
  485.1 18.28 18
  485.2 13.84 13
  485.9 5.19 5
  486.0 9.19 9
  486.1 15.17 15
  486.2 18.65 18
  486.3 17.94 17
  487.2 9.38 9
  487.3 12.86 12
  487.4 15.24 15
  487.5 13.82 13
  487.6 9.61 9
  487.8 8.16 8
  487.9 12.94 12
  488.0 18.01 17
  488.1 20.36 20
  488.2 18.55 18
  488.3 13.55 13
  488.5 8.8 8
  488.6 13.01 12
  488.7 17.5 17
  488.8 17.52 17
  488.9 12.86 12
  489.1 7.42 7
  489.2 11.49 11
  489.3 16.74 16
  489.4 19.26 19
  489.5 17.5 17
  489.6 12.96 12
  490.4 5.81 5
  490.5 13.45 13
  490.6 21.27 21
  490.7 23.87 23
  490.8 19.33 19
  490.9 11.37 11
  491.1 8.92 8
  491.2 15.22 15
  491.3 19.53 19
  491.4 18.01 17
  491.5 12.08 12
  491.7 8.06 8
  491.8 13.89 13
  491.9 19.21 19
  492.0 18.97 18
  492.1 13.58 13
  492.3 6.05 6
  492.4 9.65 9
  492.5 15.22 15
  492.6 17.67 17
  492.7 15.07 15
  492.9 9.02 9
  493.0 13.26 13
  493.1 20.41 20
  493.2 24.75 24
  493.3 22.69 22
  493.4 16.1 16
  493.6 10.81 10
  493.7 15.83 15
  493.8 20.41 20
  493.9 19.7 19
  494.0 14.21 14
  494.2 10.24 10
  494.3 15.61 15
  494.4 20.12 20
  494.5 19.73 19
  494.6 15.09 15
  494.8 9.85 9
  494.9 13.31 13
  495.0 16.96 16
  495.1 16.74 16
  495.2 12.35 12
  495.5 6.64 6
  495.6 11.47 11
  495.7 16.79 16
  495.8 19.43 19
  495.9 17.64 17
  496.0 12.4 12
  496.2 8.21 8
  496.3 13.48 13
  496.4 18.55 18
  496.5 18.26 18
  496.6 13.09 13
  496.8 8.87 8
  496.9 14.14 14
  497.0 19.19 19
  497.1 19.43 19
  497.2 15.19 15
  498.1 7.52 7
  498.2 11.64 11
  498.3 15.63 15
  498.4 15.85 15
  498.5 12.59 12
  498.7 10.46 10
  498.8 14.53 14
  498.9 18.26 18
  499.0 18.45 18
  499.1 15.12 15
  499.2 10.61 10
  499.4 7.77 7
  499.5 10.9 10
  499.6 15.09 15
  499.7 17.57 17
  499.8 16.91 16
  499.9 13.72 13
  500.1 10.88 10
  500.2 14.48 14
  500.3 17.35 17
  500.4 15.58 15
  500.6 7.99 7
  500.7 10.83 10
  500.8 17.25 17
  500.9 21.98 21
  501.0 21.2 21
  501.1 15.44 15
  501.3 7.67 7
  501.4 11.66 11
  501.5 17.45 17
  501.6 19.14 19
  501.7 14.75 14
  501.9 7.16 7
  502.0 11.66 11
  502.1 16.69 16
  502.2 16.79 16
  502.3 12.33 12
  502.6 7.79 7
  502.7 12.08 12
  502.8 16.69 16
  502.9 18.65 18
  503.0 16.52 16
  503.9 8.8 8
  504.0 13.26 13
  504.1 15.49 15
  504.2 13.09 13
  504.5 6.64 6
  504.6 13.18 13
  504.7 18.89 18
  504.8 18.82 18
  504.9 13.38 13
  505.1 8.45 8
  505.2 13.94 13
  505.3 19.73 19
  505.4 20.8 20
  505.5 16.17 16
  505.6 9.38 9
  505.8 7.01 7
  505.9 11.44 11
  506.0 13.89 13
  506.1 12.2 12
  506.4 9.24 9
  506.5 13.11 13
  506.6 16.61 16
  506.7 17.64 17
  506.8 15.14 15
  506.9 9.95 9
  507.1 5.24 5
  507.2 9.46 9
  507.3 13.7 13
  507.4 13.65 13
  507.6 8.38 8
  507.7 10.78 10
  507.8 15.73 15
  507.9 19.24 19
  508.0 18.23 18
  508.1 13.04 13
  508.4 7.4 7
  508.5 11.88 11
  508.6 14.56 14
  508.7 13.28 13
  508.8 9.16 9
  509.0 6.84 6
  509.1 11.69 11
  509.2 16.25 16
  509.3 16.42 16
  509.6 9.83 9
  509.7 16.49 16
  509.8 23.3 23
  509.9 24.09 24
  510.0 17.74 17
  510.1 9.46 9
  510.3 8.4 8
  510.4 14.02 14
  510.5 17.05 17
  510.6 14.9 14
  510.7 9.97 9
  510.9 9.04 9
  511.0 13.43 13
  511.1 16.1 16
  511.2 15.17 15
  511.3 12.08 12
  511.5 10.32 10
  511.6 13.77 13
  511.7 17.52 17
  511.8 17.86 17
  511.9 13.4 13
  512.2 7.45 7
  512.3 13.8 13
  512.4 18.18 18
  512.5 17.35 17
  512.6 12.42 12
  512.8 7.79 7
  512.9 11.91 11
  513.0 16.52 16
  513.1 17.18 17
  513.2 12.67 12
  513.3 6.1 6
  513.5 5.02 5
  513.6 11.47 11
  513.7 17.13 17
  513.8 17.99 17
  513.9 13.92 13
  514.1 7.5 7
  514.2 11.66 11
  514.3 17.62 17
  514.4 19.82 19
  514.5 16.66 16
  514.7 11.05 11
  514.8 14.36 14
  514.9 17.79 17
  515.0 16.76 16
  515.1 11.42 11
  515.3 6.67 6
  515.4 10.95 10
  515.5 14.8 14
  515.6 14.7 14
  515.7 11.3 11
  515.9 7.23 7
  516.0 10.02 10
  516.1 14.51 14
  516.2 18.55 18
  516.3 20.49 20
  516.4 19.16 19
  516.5 14.78 14
  516.7 8.82 8
  516.8 12.4 12
  516.9 17.35 17
  517.0 18.77 18
  517.1 15.05 15
  517.3 8.26 8
  517.4 11.79 11
  517.5 16.15 16
  517.6 16.1 16
  517.7 10.81 10
  517.9 2.94 2
  518.0 7.57 7
  518.1 14.85 14
  518.2 18.43 18
  518.3 15.19 15
  518.4 8.18 8
  518.6 4.58 4
  518.7 10.44 10
  518.8 16.3 16
  518.9 17.72 17
  519.0 14.19 14
  519.1 9.41 9
  519.8 7.01 7
  519.9 10.22 10
  520.0 14.02 14
  520.1 15.71 15
  520.2 14.48 14
  520.5 10.73 10
  520.6 14.24 14
  520.7 17.74 17
  520.8 18.08 18
  520.9 14.92 14
  521.1 12.74 12
  521.2 17.32 17
  521.3 20.63 20
  521.4 18.5 18
  521.5 12.28 12
  521.7 7.79 7
  521.8 12.25 12
  521.9 16.59 16
  522.0 17.5 17
  522.1 14.68 14
  522.2 10.1 10
  523.1 5.81 5
  523.2 9.16 9
  523.3 11.93 11
  523.4 12.25 12
  523.6 9.29 9
  523.7 10.41 10
  523.8 14.04 14
  523.9 17.45 17
  524.0 17.1 17
  524.1 12.13 12
  524.3 3.72 3
  524.4 7.69 7
  524.5 14.68 14
  524.6 19.11 19
  524.7 18.03 18
  525.0 12.74 12
  525.1 17.3 17
  525.2 19.8 19
  525.3 17.62 17
  525.4 12.82 12
  525.6 11.3 11
  525.7 15.14 15
  525.8 17.35 17
  525.9 15.9 15
  526.0 12.5 12
  526.2 10.71 10
  526.3 13.11 13
  526.4 15.19 15
  526.5 15.34 15
  526.6 13.7 13
  526.8 11.88 11
  526.9 14.58 14
  527.0 18.23 18
  527.1 19.51 19
  527.2 16.37 16
  527.3 10.61 10
  527.5 7.77 7
  527.6 11.93 11
  527.7 14.92 14
  527.8 14.14 14
  527.9 10.51 10
  528.1 5.61 5
  528.2 8.89 8
  528.3 15.17 15
  528.4 19.51 19
  528.5 17.74 17
  528.6 11.05 11
  529.4 8.77 8
  529.5 14.43 14
  529.6 20.53 20
  529.7 20.88 20
  529.8 14.48 14
  530.1 6.84 6
  530.2 14.43 14
  530.3 19.55 19
  530.4 18.3 18
  530.5 13.04 13
  530.7 11.44 11
  530.8 16.05 16
  530.9 19.06 19
  531.0 18.08 18
  531.1 14.04 14
  531.3 9.97 9
  531.4 14.56 14
  531.5 20.75 20
  531.6 23.35 23
  531.7 20.24 20
  531.8 14.26 14
  532.0 10.9 10
  532.1 14.6 14
  532.2 17.62 17
  532.3 17.52 17
  532.4 14.41 14
  533.9 5.61 5
  534.0 10.24 10
  534.1 15.02 15
  534.2 17.77 17
  534.3 17.4 17
  534.4 14.16 14
  534.6 8.7 8
  534.7 12.08 12
  534.8 17.72 17
  534.9 20.22 20
  535.0 17.13 17
  535.8 11.03 11
  535.9 12.82 12
  536.0 16.88 16
  536.1 19.75 19
  536.2 18.06 18
  536.3 12.57 12
  536.5 8.38 8
  536.6 13.11 13
  536.7 17.72 17
  536.8 18.28 18
  536.9 14.87 14
  537.1 10.56 10
  537.2 13.7 13
  537.3 17.94 17
  537.4 19.6 19
  537.5 16.93 16
  537.6 11.66 11
  537.8 9.02 9
  537.9 14.04 14
  538.0 18.43 18
  538.1 17.79 17
  538.2 12.08 12
  538.4 5.37 5
  538.5 10.83 10
  538.6 17.67 17
  538.7 20.17 20
  538.8 16.71 16
  539.1 11.17 11
  539.2 17.08 17
  539.3 20.14 20
  539.4 17.5 17
  540.3 6.22 6
  540.4 13.65 13
  540.5 22.35 22
  540.6 25.78 25
  540.7 21.22 21
  540.8 12.57 12
  541.0 9.9 9
  541.1 18.45 18
  541.2 25.66 25
  541.3 25.12 25
  541.4 16.83 16
  541.7 8.77 8
  541.8 16.52 16
  541.9 20.53 20
  542.0 17.84 17
  542.1 11.39 11
  542.3 9.46 9
  542.4 15.46 15
  542.5 19.48 19
  542.6 18.06 18
  542.7 13.55 13
  543.5 7.99 7
  543.6 14.04 14
  543.7 20.44 20
  543.8 21.93 21
  543.9 17.18 17
  544.0 10.41 10
  544.2 9.56 9
  544.3 14.51 14
  544.4 17.89 17
  544.5 17.13 17
  544.6 12.57 12
  544.8 5.24 5
  544.9 8.43 8
  545.0 14.78 14
  545.1 19.46 19
  545.2 18.77 18
  545.3 13.92 13
  545.5 11.03 11
  545.6 14.58 14
  545.7 16.3 16
  545.8 14.65 14
  546.1 11.61 11
  546.2 14.63 14
  546.3 17.37 17
  546.4 17.18 17
  546.5 13.21 13
  546.7 7.99 7
  546.8 12.99 12
  546.9 19.63 19
  547.0 22.05 22
  547.1 18.26 18
  548.0 11.91 11
  548.1 14.38 14
  548.2 16.25 16
  548.3 16.07 16
  548.4 13.16 13
  548.5 8.65 8
  548.7 7.55 7
  548.8 12.1 12
  548.9 15.46 15
  549.0 14.7 14
  549.3 9.19 9
  549.4 14.63 14
  549.5 19.11 19
  549.6 17.52 17
  549.7 10.14 10
  549.9 2.74 2
  550.0 9.16 9
  550.1 16.71 16
  550.2 19.24 19
  550.3 14.87 14
  550.4 6.96 6
  550.6 1.1 1
  550.7 6.96 6
  550.8 13.8 13
  550.9 16.34 16
  551.0 13.82 13
  551.2 9.48 9
  551.3 12.45 12
  551.4 16.22 16
  551.5 17.37 17
  551.6 14.97 14
  551.7 10.95 10
  551.9 8.94 8
  552.0 12.86 12
  552.1 17.62 17
  552.2 19.28 19
  552.3 15.9 15
  552.4 9.92 9
  552.6 7.84 7
  552.7 12.37 12
  552.8 15.34 15
  552.9 14.02 14
  553.1 8.87 8
  553.2 12.35 12
  553.3 17.86 17
  553.4 19.97 19
  553.5 16.0 15
  553.6 9.24 9
  553.8 7.3 7
  553.9 12.52 12
  554.0 16.39 16
  554.1 15.83 15
  554.2 11.32 11
  554.4 5.05 5
  554.5 9.36 9
  554.6 16.47 16
  554.7 20.56 20
  554.8 18.45 18
  554.9 12.03 12
  555.1 7.5 7
  555.2 12.37 12
  555.3 16.98 16
  555.4 17.35 17
  555.5 13.87 13
  555.7 10.29 10
  555.8 13.23 13
  555.9 16.47 16
  556.0 17.35 17
  556.1 15.36 15
  556.4 11.96 11
  556.5 16.88 16
  556.6 20.24 20
  556.7 17.67 17
  556.8 10.93 10
  557.0 8.75 8
  557.1 15.36 15
  557.2 19.7 19
  557.3 17.45 17
  557.4 10.02 10
  557.6 3.31 3
  557.7 10.39 10
  557.8 18.87 18
  557.9 21.96 21
  558.0 17.91 17
  558.1 10.76 10
  558.3 7.4 7
  558.4 13.4 13
  558.5 18.75 18
  558.6 18.23 18
  558.7 12.42 12
  558.9 7.84 7
  559.0 12.79 12
  559.1 16.76 16
  559.2 16.07 16
  559.3 12.1 12
  559.5 10.56 10
  559.6 14.6 14
  559.7 18.26 18
  559.8 18.67 18
  559.9 15.05 15
  560.0 9.21 9
  560.2 6.22 6
  560.3 11.54 11
  560.4 16.56 16
  560.5 17.05 17
  560.6 13.01 12
  560.8 7.57 7
  560.9 10.95 10
  561.0 15.22 15
  561.1 15.68 15
  561.2 10.9 10
  561.4 3.06 3
  561.5 8.63 8
  561.6 17.79 17
  561.7 23.65 23
  561.8 22.2 22
  561.9 15.46 15
  562.1 8.89 8
  562.2 13.38 13
  562.3 18.11 18
  562.4 18.3 18
  562.5 13.55 13
  562.7 7.13 7
  562.8 12.18 12
  562.9 18.94 18
  563.0 21.07 21
  563.1 16.32 16
  563.3 7.55 7
  563.4 12.01 11
  563.5 17.62 17
  563.6 18.57 18
  563.7 14.02 14
  564.0 8.65 8
  564.1 14.92 14
  564.2 19.06 19
  564.3 17.77 17
  564.4 12.25 12
  564.6 6.25 6
  564.7 11.05 11
  564.8 17.89 17
  564.9 21.12 21
  565.0 18.01 17
  565.1 12.06 12
  565.3 10.68 10
  565.4 14.21 14
  565.5 16.12 16
  565.6 15.29 15
  565.7 12.28 12
  566.5 9.65 9
  566.6 12.91 12
  566.7 17.15 17
  566.8 17.89 17
  566.9 13.62 13
  567.2 7.57 7
  567.3 14.8 14
  567.4 20.58 20
  567.5 20.02 19
  567.6 13.6 13
  567.8 6.4 6
  567.9 11.91 11
  568.0 18.3 18
  568.1 20.26 20
  568.2 17.3 17
  568.4 12.45 12
  568.5 15.9 15
  568.6 21.17 21
  568.7 23.92 23
  568.8 21.17 21
  568.9 14.11 14
  569.1 5.88 5
  569.2 10.39 10
  569.3 16.49 16
  569.4 18.82 18
  569.5 16.27 16
  569.6 12.08 12
  569.8 11.39 11
  569.9 14.41 14
  570.0 16.71 16
  570.1 16.71 16
  570.2 14.53 14
  570.4 11.59 11
  570.5 15.02 15
  570.6 19.97 19
  570.7 21.27 21
  570.8 16.32 16
  571.1 8.45 8
  571.2 14.97 14
  571.3 19.48 19
  571.4 18.77 18
  571.5 14.21 14
  571.7 11.91 11
  571.8 17.52 17
  571.9 21.66 21
  572.0 19.8 19
  572.1 13.58 13
  572.3 8.53 8
  572.4 13.21 13
  572.5 18.43 18
  572.6 19.87 19
  572.7 16.37 16
  573.0 12.18 12
  573.1 17.45 17
  573.2 20.41 20
  573.3 18.65 18
  573.4 13.97 13
  573.6 10.98 10
  573.7 14.6 14
  573.8 18.18 18
  573.9 18.55 18
  574.0 15.0 14
  574.9 7.79 7
  575.0 11.79 11
  575.1 15.24 15
  575.2 15.83 15
  575.3 13.5 13
  575.5 9.92 9
  575.6 12.5 12
  575.7 16.44 16
  575.8 18.21 18
  575.9 15.98 15
  576.1 11.27 11
  576.2 14.36 14
  576.3 18.52 18
  576.4 19.6 19
  576.5 16.54 16
  576.6 12.13 12
  576.8 9.19 9
  576.9 10.81 10
  577.0 13.45 13
  577.1 15.07 15
  577.2 12.89 12
  577.5 6.44 6
  577.6 12.72 12
  577.7 16.91 16
  577.8 16.15 16
  577.9 12.77 12
  578.1 11.74 11
  578.2 14.48 14
  578.3 16.83 16
  578.4 17.2 17
  578.7 15.29 15
  578.8 18.52 18
  578.9 20.88 20
  579.0 19.24 19
  579.1 13.62 13
  579.4 8.26 8
  579.5 13.84 13
  579.6 17.08 17
  579.7 15.19 15
  579.8 10.29 10
  580.0 8.7 8
  580.1 13.58 13
  580.2 17.77 17
  580.3 17.64 17
  580.4 13.26 13
  580.6 7.67 7
  580.7 12.4 12
  580.8 18.48 18
  580.9 19.97 19
  581.0 15.34 15
  581.1 8.7 8
  581.3 7.25 7
  581.4 11.69 11
  581.5 14.87 14
  581.6 14.26 14
  581.7 10.63 10
  581.9 8.67 8
  582.0 13.58 13
  582.1 19.36 19
  582.2 22.47 22
  582.3 20.49 20
  582.4 14.14 14
  582.6 6.47 6
  582.7 10.34 10
  582.8 15.09 15
  582.9 15.98 15
  583.0 12.28 12
  583.2 6.2 6
  583.3 9.97 9
  583.4 16.22 16
  583.5 20.26 20
  583.6 19.04 19
  583.7 14.16 14
  583.9 10.83 10
  584.0 13.92 13
  584.1 15.88 15
  584.2 14.31 14
  584.3 10.22 10
  584.5 7.38 7
  584.6 10.83 10
  584.7 14.07 14
  584.8 14.11 14
  584.9 11.32 11
  585.1 9.29 9
  585.2 12.57 12
  585.3 15.41 15
  585.4 15.05 15
  585.5 12.03 12
  585.7 9.63 9
  585.8 13.65 13
  585.9 19.26 19
  586.0 22.27 22
  586.1 19.75 19
  586.2 13.06 13
  586.4 7.4 7
  586.5 12.99 12
  586.6 19.06 19
  586.7 19.92 19
  586.8 14.78 14
  587.0 8.31 8
  587.1 13.67 13
  587.2 20.36 20
  587.3 22.86 22
  587.4 19.53 19
  587.5 13.01 12
  587.7 7.28 7
  587.8 11.0 10
  587.9 16.0 15
  588.0 18.84 18
  588.1 17.77 17
  588.2 13.72 13
  588.9 3.06 3
  589.0 7.25 7
  589.1 13.77 13
  589.2 16.54 16
  589.3 13.28 13
  589.5 4.8 4
  589.6 8.18 8
  589.7 14.51 14
  589.8 18.45 18
  589.9 17.13 17
  590.0 12.25 12
  590.2 7.82 7
  590.3 12.08 12
  590.4 17.42 17
  590.5 19.11 19
  590.6 15.41 15
  590.7 9.48 9
  590.9 8.06 8
  591.0 12.72 12
  591.1 15.8 15
  591.2 14.51 14
  591.3 9.56 9
  591.5 4.48 4
  591.6 8.94 8
  591.7 14.65 14
  591.8 17.01 16
  591.9 14.75 14
  592.1 9.73 9
  592.2 12.64 12
  592.3 17.32 17
  592.4 19.9 19
  592.5 18.11 18
  592.6 13.58 13
  592.8 10.93 10
  592.9 13.72 13
  593.0 15.58 15
  593.1 14.38 14
  593.2 10.14 10
  593.4 3.75 3
  593.5 8.82 8
  593.6 17.2 17
  593.7 21.88 21
  593.8 19.38 19
  593.9 13.4 13
  594.1 10.78 10
  594.2 14.75 14
  594.3 18.28 18
  594.4 19.11 19
  594.5 16.69 16
  594.6 12.2 12
  594.8 7.55 7
  594.9 10.27 10
  595.0 13.38 13
  595.1 13.82 13
  595.2 12.52 12
  595.3 12.3 12
  595.4 13.77 13
  595.5 14.51 14
  595.6 12.62 12
  595.7 8.75 8
  595.9 4.51 4
  596.0 8.23 8
  596.1 14.68 14
  596.2 19.14 19
  596.3 17.79 17
  596.4 11.88 11
  596.6 6.32 6
  596.7 11.32 11
  596.8 17.77 17
  596.9 20.8 20
  597.0 18.03 18
  597.1 11.88 11
  597.3 8.04 8
  597.4 12.5 12
  597.5 16.69 16
  597.6 17.25 17
  597.7 14.02 14
  597.9 9.9 9
  598.0 13.99 13
  598.1 18.87 18
  598.2 20.0 19
  598.3 16.59 16
  598.4 11.61 11
  598.6 9.92 9
  598.7 13.67 13
  598.8 16.27 16
  598.9 14.43 14
  599.1 6.37 6
  599.2 9.24 9
  599.3 16.47 16
  599.4 22.42 22
  599.5 22.79 22
  599.6 18.16 18
//
