ACCESSION: MSBNK-RIKEN_NPDepo-NGA01912
RECORD_TITLE: Methyllycaconitine; LC-ESI-QQQ; MS2; Frag=135.0V CID@25.0; [M+H]+
DATE: 2018.04.04
AUTHORS: Nogawa T, Okano A, CSRS, RIKEN
LICENSE: CC BY
COMMENT: Origin: Plant
COMMENT: SubCategory_DNP: Terpenoid alkaloids, Diterpene alkaloid, Aconitum alkaloid
CH$NAME: Methyllycaconitine
CH$COMPOUND_CLASS: Alkaloids
CH$FORMULA: C37H50N2O10
CH$EXACT_MASS: 682.8185
CH$SMILES: CCN1C[C@]2(COC(=O)c3ccccc3N3C(=O)CC(C)C3=O)CC[C@H](OC)[C@@]34C5C[C@@H]6[C@@H](OC)C[C@@](O)(C5[C@H]6OC)[C@@](O)(C(OC)C23)C14
CH$IUPAC: InChI=1S/C37H50N2O10/c1-7-38-17-34(18-49-32(42)20-10-8-9-11-23(20)39-26(40)14-19(2)31(39)41)13-12-25(46-4)36-22-15-21-24(45-3)16-35(43,27(22)28(21)47-5)37(44,33(36)38)30(48-6)29(34)36/h8-11,19,21-22,24-25,27-30,33,43-44H,7,12-18H2,1-6H3/t19?,21-,22?,24+,25+,27?,28+,29?,30?,33?,34+,35-,36+,37-/m1/s1
CH$LINK: CAS 21019-30-7
CH$LINK: CHEMSPIDER 4450894
CH$LINK: INCHIKEY XLTANAWLDBYGFU-OQXBGOKZSA-N
AC$INSTRUMENT: Agilent 6410 Triple Quadrupole LC/MS system
AC$INSTRUMENT_TYPE: LC-ESI-QQQ
AC$MASS_SPECTROMETRY: MS_TYPE MS2
AC$MASS_SPECTROMETRY: ION_MODE POSITIVE
MS$FOCUSED_ION: PRECURSOR_TYPE [M+H]+
PK$SPLASH: splash10-001i-0000009000-f8bc2b2a3cf176557fe3
PK$NUM_PEAK: 16
PK$PEAK: m/z int. rel.int.
  682.4 0.87 0
  682.5 2.51 2
  682.6 6.1 6
  682.7 12.49 12
  682.8 22.22 22
  682.9 35.17 35
  683.0 50.49 50
  683.1 66.85 66
  683.2 82.58 82
  683.3 95.02 94
  683.4 100.0 99
  683.5 92.96 92
  683.6 72.58 72
  683.7 44.17 44
  683.8 17.99 17
  683.9 2.13 2
//
