ACCESSION: MSBNK-RIKEN_NPDepo-NGA05233
RECORD_TITLE: Cyclogaleginoside A.; LC-ESI-QQQ; MS2; Frag=135.0V CID@15.0; [M+HOO]-
DATE: 2018.04.04
AUTHORS: Nogawa T, Okano A, CSRS, RIKEN
LICENSE: CC BY
COMMENT: Origin: Plant
COMMENT: SubCategory_DNP: Triterpenoids
CH$NAME: Cyclogaleginoside A.
CH$COMPOUND_CLASS: Terpenoids
CH$FORMULA: C37H60O10
CH$EXACT_MASS: 664.8848
CH$SMILES: CC(=O)O[C@H]1[C@H](OC2CC[C@]34C[C@]35CC[C@]3(C)C([C@@]6(C)CC[C@@H](C(C)(C)O)O6)[C@@H](O)C[C@@]3(C)C5C[C@H](O)C4C2(C)C)OC[C@@H](O)[C@@H]1O
CH$IUPAC: InChI=1S/C37H60O10/c1-19(38)45-27-26(42)22(41)17-44-30(27)46-24-10-12-37-18-36(37)14-13-33(6)29(35(8)11-9-25(47-35)32(4,5)43)21(40)16-34(33,7)23(36)15-20(39)28(37)31(24,2)3/h20-30,39-43H,9-18H2,1-8H3/t20-,21-,22+,23?,24?,25-,26-,27+,28?,29?,30-,33+,34-,35+,36-,37+/m0/s1
CH$LINK: CAS 94443-44-4
CH$LINK: INCHIKEY KILZIJKCZIGLFJ-KFRJDVSMSA-N
AC$INSTRUMENT: Agilent 6410 Triple Quadrupole LC/MS system
AC$INSTRUMENT_TYPE: LC-ESI-QQQ
AC$MASS_SPECTROMETRY: MS_TYPE MS2
AC$MASS_SPECTROMETRY: ION_MODE NEGATIVE
MS$FOCUSED_ION: PRECURSOR_TYPE [M+HOO]-
PK$SPLASH: splash10-0a4i-3988888400-539cdb70d0a436891f61
PK$NUM_PEAK: 4941
PK$PEAK: m/z int. rel.int.
  50.4 12.26 12
  50.5 14.3 14
  50.6 15.26 15
  50.7 14.33 14
  50.8 13.01 12
  51.1 12.71 12
  51.2 12.97 12
  51.3 13.57 13
  51.4 14.1 14
  51.5 13.67 13
  52.2 11.17 11
  52.3 12.47 12
  52.4 13.09 13
  52.5 12.54 12
  52.6 12.04 12
  52.7 12.2 12
  52.8 12.06 12
  53.0 10.47 10
  53.1 11.51 11
  53.2 13.4 13
  53.3 14.6 14
  53.4 15.09 15
  53.5 15.68 15
  53.6 15.93 15
  53.7 14.6 14
  53.8 11.54 11
  54.1 8.01 8
  54.2 11.15 11
  54.3 14.08 14
  54.4 14.74 14
  54.5 13.02 13
  54.8 10.94 10
  54.9 13.05 13
  55.0 14.42 14
  55.1 13.84 13
  55.2 11.79 11
  55.3 10.04 10
  55.5 9.72 9
  55.6 10.16 10
  55.7 10.94 10
  55.8 11.92 11
  55.9 12.43 12
  56.0 12.21 12
  56.1 11.23 11
  56.4 9.31 9
  56.5 10.88 10
  56.6 11.97 11
  56.7 11.89 11
  56.8 11.88 11
  56.9 13.44 13
  57.0 16.1 16
  57.1 17.7 17
  57.2 16.64 16
  57.3 13.73 13
  57.4 11.13 11
  57.7 9.76 9
  57.8 10.21 10
  57.9 11.05 11
  58.0 10.96 10
  58.1 9.01 9
  58.3 5.33 5
  58.4 7.65 7
  58.5 12.03 12
  58.6 14.95 14
  58.7 13.99 13
  58.8 10.13 10
  59.0 6.79 6
  59.1 10.19 10
  59.2 14.7 14
  59.3 17.39 17
  59.4 16.81 16
  59.5 13.67 13
  59.6 9.97 9
  59.8 7.76 7
  59.9 9.07 9
  60.0 10.47 10
  60.1 11.39 11
  60.2 11.62 11
  60.5 9.78 9
  60.6 11.76 11
  60.7 14.79 14
  60.8 16.82 16
  60.9 16.55 16
  61.0 14.77 14
  61.9 9.43 9
  62.0 11.66 11
  62.1 14.0 13
  62.2 14.7 14
  62.3 14.39 14
  62.4 14.91 14
  62.5 16.99 16
  62.6 19.56 19
  62.7 20.7 20
  62.8 19.53 19
  62.9 17.14 17
  63.8 12.09 12
  63.9 13.49 13
  64.0 13.83 13
  64.1 13.46 13
  64.2 13.16 13
  64.5 12.15 12
  64.6 12.74 12
  64.7 13.9 13
  64.8 14.28 14
  64.9 12.76 12
  65.2 10.34 10
  65.3 12.04 12
  65.4 12.9 12
  65.5 12.98 12
  65.6 12.75 12
  65.7 12.54 12
  65.8 12.91 12
  65.9 14.28 14
  66.0 15.41 15
  66.1 14.65 14
  66.2 11.89 11
  66.3 9.09 9
  66.9 9.34 9
  67.0 11.19 11
  67.1 14.54 14
  67.2 17.37 17
  67.3 17.34 17
  67.4 14.15 14
  67.5 9.98 9
  67.7 7.06 7
  67.8 8.5 8
  67.9 10.84 10
  68.0 13.08 13
  68.1 14.23 14
  68.2 13.73 13
  69.0 11.51 11
  69.1 13.5 13
  69.2 14.88 14
  69.3 13.46 13
  69.4 9.77 9
  69.5 6.28 6
  69.7 6.15 6
  69.8 8.4 8
  69.9 10.34 10
  70.0 11.05 11
  70.1 10.26 10
  70.2 8.53 8
  70.4 6.28 6
  70.5 7.77 7
  70.6 10.86 10
  70.7 13.67 13
  70.8 14.59 14
  70.9 13.61 13
  71.0 11.41 11
  71.1 8.66 8
  71.2 6.03 6
  71.4 4.9 4
  71.5 6.63 6
  71.6 9.04 9
  71.7 11.17 11
  71.8 12.27 12
  71.9 11.86 11
  72.0 10.15 10
  72.2 8.78 8
  72.3 10.85 10
  72.4 12.84 12
  72.5 12.78 12
  72.6 11.06 11
  73.3 7.06 7
  73.4 8.5 8
  73.5 11.3 11
  73.6 13.56 13
  73.7 13.99 13
  73.8 12.85 12
  73.9 11.34 11
  74.7 7.48 7
  74.8 9.26 9
  74.9 11.35 11
  75.0 11.99 11
  75.1 10.97 10
  75.5 10.1 10
  75.6 10.07 10
  75.7 10.32 10
  75.8 11.34 11
  75.9 12.54 12
  76.0 12.85 12
  76.1 11.68 11
  76.4 10.05 10
  76.5 11.65 11
  76.6 12.08 12
  76.7 11.78 11
  76.8 12.41 12
  76.9 14.11 14
  77.0 15.49 15
  77.1 15.31 15
  77.4 13.13 13
  77.5 14.6 14
  77.6 15.76 15
  77.7 15.78 15
  77.8 15.0 14
  77.9 13.92 13
  78.0 12.57 12
  78.3 11.12 11
  78.4 12.7 12
  78.5 15.13 15
  78.6 17.52 17
  78.7 18.27 18
  78.8 16.56 16
  78.9 13.65 13
  80.1 9.99 9
  80.2 11.53 11
  80.3 12.8 12
  80.4 12.86 12
  80.5 12.11 12
  80.8 11.5 11
  80.9 12.13 12
  81.0 12.96 12
  81.1 13.16 13
  81.2 11.92 11
  81.4 9.53 9
  81.5 11.12 11
  81.6 13.19 13
  81.7 13.13 13
  81.8 10.68 10
  82.0 9.32 9
  82.1 11.81 11
  82.2 12.96 12
  82.3 11.57 11
  82.5 8.66 8
  82.6 10.26 10
  82.7 12.86 12
  82.8 14.21 14
  82.9 13.5 13
  83.0 11.82 11
  83.1 10.42 10
  83.2 9.24 9
  83.3 8.1 8
  84.0 8.23 8
  84.1 8.56 8
  84.2 9.77 9
  84.3 12.1 12
  84.4 14.43 14
  84.5 15.28 15
  84.6 14.28 14
  84.7 12.65 12
  84.8 11.71 11
  84.9 11.12 11
  85.0 9.62 9
  85.1 7.5 7
  85.6 7.36 7
  85.7 8.15 8
  85.8 9.13 9
  85.9 9.55 9
  86.0 9.67 9
  86.1 9.43 9
  86.2 7.93 7
  86.4 5.59 5
  86.5 9.1 9
  86.6 14.32 14
  86.7 17.45 17
  86.8 16.49 16
  86.9 12.47 12
  87.0 8.07 8
  87.3 6.23 6
  87.4 8.73 8
  87.5 11.56 11
  87.6 13.13 13
  87.7 12.6 12
  88.0 11.61 11
  88.1 12.44 12
  88.2 13.18 13
  88.3 13.36 13
  88.4 12.02 12
  88.5 8.86 8
  89.3 8.56 8
  89.4 10.24 10
  89.5 11.66 11
  89.6 11.35 11
  91.0 9.07 9
  91.1 11.88 11
  91.2 14.66 14
  91.3 15.14 15
  91.4 13.38 13
  91.5 11.39 11
  91.6 10.7 10
  91.7 10.67 10
  92.4 6.63 6
  92.5 8.57 8
  92.6 12.63 12
  92.7 15.66 15
  92.8 15.6 15
  92.9 13.24 13
  93.0 10.8 10
  93.2 10.38 10
  93.3 11.3 11
  93.4 11.57 11
  93.5 11.28 11
  93.6 11.34 11
  93.7 12.63 12
  93.8 15.17 15
  93.9 18.07 18
  94.0 19.63 19
  94.1 18.55 18
  94.2 15.45 15
  94.3 12.32 12
  94.5 11.05 11
  94.6 12.3 12
  94.7 13.47 13
  94.8 13.49 13
  94.9 12.08 12
  95.1 10.59 10
  95.2 12.19 12
  95.3 13.35 13
  95.4 12.69 12
  95.5 11.17 11
  96.0 9.92 9
  96.1 11.24 11
  96.2 13.7 13
  96.3 15.94 15
  96.4 16.33 16
  96.5 14.21 14
  96.7 10.14 10
  96.8 12.41 12
  96.9 15.89 15
  97.0 17.4 17
  97.1 15.88 15
  97.2 12.89 12
  97.5 11.27 11
  97.6 13.4 13
  97.7 15.49 15
  97.8 16.81 16
  97.9 17.03 17
  98.0 16.27 16
  98.1 14.86 14
  98.2 13.49 13
  98.3 12.69 12
  100.2 6.27 6
  100.3 7.6 7
  100.4 10.46 10
  100.5 13.24 13
  100.6 15.01 14
  100.7 16.16 16
  100.8 16.85 16
  100.9 15.93 15
  101.0 13.09 13
  101.1 10.1 10
  101.3 9.48 9
  101.4 10.57 10
  101.5 11.89 11
  101.6 13.72 13
  101.7 15.38 15
  101.8 15.15 15
  101.9 12.44 12
  102.0 9.01 9
  102.3 8.41 8
  102.4 9.29 9
  102.5 11.13 11
  102.6 13.67 13
  102.7 14.63 14
  102.8 12.89 12
  102.9 10.54 10
  103.5 8.19 8
  103.6 9.99 9
  103.7 12.02 12
  103.8 12.54 12
  103.9 11.54 11
  104.0 10.32 10
  104.3 10.31 10
  104.4 10.5 10
  104.5 12.29 12
  104.6 15.87 15
  104.7 19.47 19
  104.8 21.3 21
  104.9 20.73 20
  105.0 18.16 18
  105.1 14.16 14
  105.2 9.58 9
  105.4 6.02 6
  105.5 9.6 9
  105.6 13.95 13
  105.7 15.3 15
  105.8 13.39 13
  106.0 11.95 11
  106.1 14.03 14
  106.2 14.75 14
  106.3 13.27 13
  106.4 11.23 11
  106.7 11.03 11
  106.8 11.17 11
  106.9 11.38 11
  107.0 11.94 11
  107.1 12.42 12
  107.4 10.83 10
  107.5 12.05 12
  107.6 14.11 14
  107.7 15.66 15
  107.8 16.05 16
  107.9 15.12 15
  108.0 12.97 12
  108.2 9.7 9
  108.3 12.15 12
  108.4 16.77 16
  108.5 20.64 20
  108.6 21.75 21
  108.7 20.48 20
  108.8 18.24 18
  108.9 15.95 15
  109.0 13.57 13
  109.2 11.75 11
  109.3 14.62 14
  109.4 18.38 18
  109.5 19.75 19
  109.6 17.72 17
  109.7 14.27 14
  109.9 12.69 12
  110.0 15.03 15
  110.1 17.4 17
  110.2 18.12 18
  110.3 16.82 16
  110.4 14.37 14
  110.5 11.93 11
  110.7 10.4 10
  110.8 11.86 11
  110.9 13.55 13
  111.0 13.72 13
  111.1 12.18 12
  111.2 10.42 10
  111.4 10.18 10
  111.5 10.86 10
  111.6 12.09 12
  111.7 14.05 14
  111.8 15.62 15
  111.9 15.18 15
  112.2 11.54 11
  112.3 14.76 14
  112.4 17.5 17
  112.5 17.24 17
  112.6 14.32 14
  112.7 11.02 11
  113.3 10.42 10
  113.4 11.39 11
  113.5 12.9 12
  113.6 13.78 13
  113.7 13.51 13
  114.0 12.4 12
  114.1 13.77 13
  114.2 15.06 15
  114.3 14.93 14
  114.4 13.11 13
  114.5 10.89 10
  114.8 10.16 10
  114.9 10.09 10
  115.0 10.96 10
  115.1 13.29 13
  115.2 15.56 15
  115.3 15.88 15
  116.7 8.41 8
  116.8 9.78 9
  116.9 12.86 12
  117.0 14.81 14
  117.1 13.74 13
  117.2 10.52 10
  117.3 7.43 7
  117.5 5.76 5
  117.6 6.96 6
  117.7 9.44 9
  117.8 12.59 12
  117.9 14.8 14
  118.0 14.6 14
  118.1 12.32 12
  118.2 9.92 9
  118.3 8.93 8
  118.4 8.93 8
  118.7 7.93 7
  118.8 9.37 9
  118.9 11.72 11
  119.0 13.63 13
  119.1 14.48 14
  119.2 14.31 14
  119.3 13.16 13
  119.4 11.44 11
  119.5 10.1 10
  120.0 9.61 9
  120.1 10.2 10
  120.2 10.96 10
  120.3 12.14 12
  120.4 13.5 13
  120.5 14.09 14
  120.6 13.3 13
  120.9 12.2 12
  121.0 12.95 12
  121.1 13.08 13
  121.2 13.17 13
  121.3 13.44 13
  121.4 12.96 12
  121.5 11.07 11
  121.6 8.62 8
  121.7 6.71 6
  121.9 5.54 5
  122.0 6.78 6
  122.1 9.12 9
  122.2 11.01 10
  122.3 11.64 11
  122.4 11.92 11
  122.5 12.67 12
  122.6 13.07 13
  122.7 12.67 12
  122.8 12.78 12
  122.9 14.55 14
  123.0 16.77 16
  123.1 16.91 16
  123.2 14.26 14
  123.3 10.85 10
  124.0 9.91 9
  124.1 10.63 10
  124.2 12.14 12
  124.3 13.72 13
  124.4 14.27 14
  124.5 13.24 13
  124.8 11.61 11
  124.9 14.2 14
  125.0 16.28 16
  125.1 16.31 16
  125.2 14.77 14
  125.4 13.79 13
  125.5 15.23 15
  125.6 16.49 16
  125.7 16.31 16
  125.8 14.69 14
  125.9 12.84 12
  126.1 12.65 12
  126.2 13.47 13
  126.3 13.74 13
  126.4 13.18 13
  126.5 12.1 12
  126.6 11.07 11
  126.7 10.67 10
  126.8 10.57 10
  127.6 9.74 9
  127.7 10.78 10
  127.8 11.97 11
  127.9 13.22 13
  128.0 14.88 14
  128.1 16.28 16
  128.2 15.74 15
  128.3 12.8 12
  128.5 8.02 8
  128.6 10.15 10
  128.7 13.87 13
  128.8 15.9 15
  128.9 14.76 14
  129.2 12.33 12
  129.3 14.57 14
  129.4 15.68 15
  129.5 15.26 15
  129.6 14.05 14
  129.7 12.1 12
  129.8 9.1 9
  130.0 5.15 5
  130.1 7.5 7
  130.2 11.39 11
  130.3 14.59 14
  130.4 16.45 16
  130.5 17.41 17
  130.6 17.4 17
  130.7 16.1 16
  130.8 13.54 13
  130.9 10.59 10
  131.1 8.85 8
  131.2 10.27 10
  131.3 11.54 11
  131.4 11.51 11
  131.5 10.34 10
  131.6 8.8 8
  131.8 7.83 7
  131.9 8.69 8
  132.0 9.61 9
  132.1 9.93 9
  132.2 9.85 9
  132.3 10.23 10
  132.4 11.64 11
  132.5 13.49 13
  132.6 14.05 14
  132.7 12.6 12
  132.8 10.45 10
  132.9 9.34 9
  133.0 9.43 9
  133.1 9.54 9
  133.2 8.85 8
  133.5 7.14 7
  133.6 9.24 9
  133.7 12.05 12
  133.8 13.67 13
  133.9 13.49 13
  134.0 12.75 12
  134.1 12.4 12
  134.2 11.82 11
  134.5 9.36 9
  134.6 11.3 11
  134.7 12.75 12
  134.8 12.47 12
  134.9 11.11 11
  135.0 9.96 9
  135.1 9.26 9
  135.3 7.82 7
  135.4 8.29 8
  135.5 10.79 10
  135.6 14.42 14
  135.7 17.23 17
  135.8 18.07 18
  135.9 17.23 17
  136.0 15.18 15
  136.1 12.53 12
  136.2 10.36 10
  136.8 9.38 9
  136.9 12.06 12
  137.0 14.36 14
  137.1 14.44 14
  137.2 12.59 12
  137.3 10.19 10
  137.4 8.33 8
  137.6 7.74 7
  137.7 8.83 8
  137.8 10.38 10
  137.9 11.95 11
  138.0 13.14 13
  138.1 13.74 13
  138.2 13.71 13
  138.3 13.03 13
  138.4 11.97 11
  138.5 11.02 11
  138.6 10.58 10
  138.9 9.87 9
  139.0 10.5 10
  139.1 12.19 12
  139.2 13.43 13
  139.3 12.68 12
  139.5 10.77 10
  139.6 13.19 13
  139.7 16.43 16
  139.8 17.85 17
  139.9 16.67 16
  140.2 14.36 14
  140.3 16.77 16
  140.4 18.13 18
  140.5 16.88 16
  140.6 13.9 13
  140.7 11.12 11
  140.9 8.94 8
  141.0 9.93 9
  141.1 12.58 12
  141.2 15.85 15
  141.3 17.89 17
  141.4 17.97 17
  141.5 17.09 17
  141.6 16.21 16
  141.7 15.12 15
  141.8 13.59 13
  142.6 10.07 10
  142.7 11.89 11
  142.8 13.83 13
  142.9 14.49 14
  143.0 14.32 14
  143.1 14.71 14
  143.2 16.39 16
  143.3 18.97 18
  143.4 20.7 20
  143.5 19.62 19
  143.6 15.62 15
  143.7 11.03 11
  144.4 10.42 10
  144.5 12.11 12
  144.6 14.33 14
  144.7 15.08 15
  144.8 13.54 13
  145.6 11.77 11
  145.7 12.42 12
  145.8 12.51 12
  145.9 12.26 12
  146.0 12.25 12
  146.1 12.59 12
  146.2 12.59 12
  147.0 9.23 9
  147.1 10.03 10
  147.2 11.76 11
  147.3 14.08 14
  147.4 16.04 16
  147.5 16.12 16
  147.6 14.01 13
  147.7 10.89 10
  147.8 8.2 8
  148.0 6.87 6
  148.1 8.33 8
  148.2 10.42 10
  148.3 12.35 12
  148.4 13.44 13
  148.5 12.75 12
  148.6 10.03 10
  148.8 6.35 6
  148.9 8.29 8
  149.0 11.43 11
  149.1 14.27 14
  149.2 15.72 15
  149.3 15.33 15
  149.4 13.87 13
  149.5 13.03 13
  149.6 13.29 13
  149.7 13.25 13
  149.8 11.83 11
  150.1 11.05 11
  150.2 12.46 12
  150.3 13.02 13
  150.4 13.09 13
  150.5 13.13 13
  150.6 13.0 12
  150.7 12.63 12
  150.8 12.06 12
  150.9 10.79 10
  151.1 8.75 8
  151.2 10.8 10
  151.3 12.67 12
  151.4 11.64 11
  151.6 8.26 8
  151.7 10.3 10
  151.8 12.54 12
  151.9 12.43 12
  152.0 9.78 9
  152.1 6.13 6
  152.3 4.29 4
  152.4 7.65 7
  152.5 11.33 11
  152.6 12.62 12
  152.7 11.38 11
  152.8 9.61 9
  153.0 9.28 9
  153.1 10.04 10
  153.2 10.95 10
  153.3 11.91 11
  153.4 12.59 12
  153.5 12.76 12
  153.6 12.29 12
  154.8 6.44 6
  154.9 7.6 7
  155.0 9.33 9
  155.1 10.21 10
  155.2 10.04 10
  155.3 9.92 9
  155.4 10.58 10
  155.5 12.16 12
  155.6 14.63 14
  155.7 17.53 17
  155.8 19.72 19
  155.9 20.03 20
  156.0 18.66 18
  156.1 16.54 16
  156.2 14.8 14
  156.7 14.14 14
  156.8 15.17 15
  156.9 16.97 16
  157.0 18.07 18
  157.1 17.51 17
  157.2 15.66 15
  157.3 13.79 13
  157.4 13.01 12
  157.5 13.19 13
  157.6 13.14 13
  157.7 12.21 12
  157.8 10.73 10
  157.9 9.07 9
  158.1 6.73 6
  158.2 8.84 8
  158.3 13.73 13
  158.4 18.16 18
  158.5 18.56 18
  158.6 15.14 15
  158.7 11.67 11
  159.1 10.99 10
  159.2 11.65 11
  159.3 12.95 12
  159.4 13.51 13
  159.5 12.82 12
  159.6 11.48 11
  159.9 10.75 10
  160.0 11.53 11
  160.1 11.94 11
  160.2 12.26 12
  160.3 12.82 12
  160.4 13.01 12
  160.5 12.15 12
  160.6 10.62 10
  160.9 9.6 9
  161.0 11.26 11
  161.1 14.03 14
  161.2 16.39 16
  161.3 16.06 16
  161.4 12.82 12
  161.6 9.23 9
  161.7 11.83 11
  161.8 13.79 13
  161.9 12.64 12
  162.7 7.17 7
  162.8 9.05 9
  162.9 11.46 11
  163.0 13.06 13
  163.1 13.7 13
  163.2 14.44 14
  163.3 15.8 15
  163.4 16.79 16
  163.5 16.2 16
  163.6 14.2 14
  163.7 11.88 11
  163.8 9.96 9
  164.0 8.86 8
  164.1 9.85 9
  164.2 11.57 11
  164.3 13.47 13
  164.4 14.35 14
  164.5 13.36 13
  165.4 10.45 10
  165.5 11.24 11
  165.6 12.21 12
  165.7 12.36 12
  166.0 10.58 10
  166.1 12.14 12
  166.2 13.29 13
  166.3 13.01 12
  166.4 11.71 11
  166.5 10.18 10
  166.8 8.94 8
  166.9 10.43 10
  167.0 12.89 12
  167.1 15.28 15
  167.2 15.87 15
  167.3 14.39 14
  167.4 12.69 12
  167.5 12.31 12
  167.6 12.14 12
  167.7 10.21 10
  167.9 6.51 6
  168.0 8.86 8
  168.1 12.42 12
  168.2 14.22 14
  168.3 12.69 12
  168.4 8.3 8
  168.6 1.04 1
  168.7 4.23 4
  168.8 11.15 11
  168.9 16.79 16
  169.0 17.42 17
  169.1 13.51 13
  169.2 8.2 8
  169.4 5.1 5
  169.5 9.53 9
  169.6 14.81 14
  169.7 16.88 16
  169.8 14.87 14
  169.9 11.61 11
  170.2 10.78 10
  170.3 11.12 11
  170.4 11.45 11
  170.5 12.09 12
  170.6 12.92 12
  170.7 13.36 13
  170.8 12.95 12
  171.0 11.44 11
  171.1 12.21 12
  171.2 14.08 14
  171.3 15.76 15
  171.4 16.14 16
  171.7 14.47 14
  171.8 16.11 16
  171.9 18.01 17
  172.0 18.48 18
  172.1 16.36 16
  172.2 12.49 12
  172.4 10.12 10
  172.5 12.8 12
  172.6 14.64 14
  172.7 14.16 14
  172.8 13.03 13
  172.9 13.4 13
  173.0 14.32 14
  173.1 13.61 13
  173.3 11.43 11
  173.4 13.13 13
  173.5 14.58 14
  173.6 14.03 14
  173.7 12.25 12
  174.0 11.06 11
  174.1 12.75 12
  174.2 15.09 15
  174.3 16.92 16
  174.4 16.66 16
  174.5 13.71 13
  174.8 8.39 8
  174.9 13.56 13
  175.0 18.42 18
  175.1 19.18 19
  175.2 15.42 15
  175.3 10.47 10
  175.6 9.36 9
  175.7 9.43 9
  175.8 9.36 9
  175.9 10.37 10
  176.0 12.1 12
  176.1 13.17 13
  176.2 13.06 13
  176.3 12.48 12
  176.4 12.15 12
  176.5 11.94 11
  176.6 11.29 11
  176.9 9.67 9
  177.0 10.54 10
  177.1 11.72 11
  177.2 12.97 12
  177.3 13.93 13
  177.4 13.7 13
  177.5 11.55 11
  178.3 6.31 6
  178.4 8.96 8
  178.5 12.74 12
  178.6 14.76 14
  178.7 14.37 14
  178.8 12.69 12
  178.9 10.9 10
  179.0 9.67 9
  179.1 9.23 9
  179.2 9.09 9
  179.3 8.29 8
  179.5 6.45 6
  179.6 8.3 8
  179.7 11.34 11
  179.8 13.36 13
  179.9 13.32 13
  180.0 11.91 11
  180.1 10.2 10
  180.4 8.29 8
  180.5 9.42 9
  180.6 11.67 11
  180.7 13.92 13
  180.8 14.42 14
  180.9 12.91 12
  181.7 7.86 7
  181.8 9.56 9
  181.9 10.43 10
  182.0 9.39 9
  182.2 7.7 7
  182.3 9.02 9
  182.4 10.1 10
  182.5 10.03 10
  182.6 9.53 9
  182.7 9.28 9
  182.8 8.95 8
  183.1 7.3 7
  183.2 8.35 8
  183.3 10.05 10
  183.4 11.27 11
  183.5 10.95 10
  183.8 9.27 9
  183.9 11.35 11
  184.0 12.21 12
  184.1 11.51 11
  184.2 11.67 11
  184.3 14.23 14
  184.4 17.09 17
  184.5 16.76 16
  184.6 13.3 13
  184.7 10.03 10
  185.7 10.32 10
  185.8 10.48 10
  185.9 11.83 11
  186.0 13.55 13
  186.1 14.33 14
  186.2 14.04 14
  186.3 13.47 13
  186.4 13.4 13
  186.5 13.67 13
  186.6 13.68 13
  186.7 13.44 13
  186.8 13.73 13
  186.9 14.81 14
  187.0 15.83 15
  187.1 16.04 16
  187.2 15.98 15
  187.3 16.34 16
  187.4 16.55 16
  187.5 15.94 15
  187.8 15.74 15
  187.9 16.55 16
  188.0 17.18 17
  188.1 17.25 17
  188.2 15.99 15
  188.3 13.35 13
  188.5 10.85 10
  188.6 13.07 13
  188.7 15.69 15
  188.8 16.92 16
  188.9 16.14 16
  189.0 14.08 14
  189.1 11.57 11
  189.4 8.88 8
  189.5 11.19 11
  189.6 13.41 13
  189.7 14.33 14
  189.8 14.06 14
  189.9 13.33 13
  190.0 12.48 12
  190.1 11.29 11
  190.3 8.45 8
  190.4 9.31 9
  190.5 12.95 12
  190.6 17.39 17
  190.7 18.94 18
  190.8 16.17 16
  190.9 11.43 11
  191.1 8.08 8
  191.2 10.08 10
  191.3 12.22 12
  191.4 12.89 12
  191.5 11.86 11
  191.6 9.81 9
  191.8 7.41 7
  191.9 8.67 8
  192.0 11.55 11
  192.1 15.15 15
  192.2 18.11 18
  192.3 18.56 18
  192.4 15.46 15
  192.5 10.48 10
  192.7 8.04 8
  192.8 10.25 10
  192.9 11.07 11
  193.0 10.59 10
  193.1 10.5 10
  193.2 10.74 10
  193.3 9.71 9
  193.6 7.36 7
  193.7 10.56 10
  193.8 13.5 13
  193.9 14.68 14
  194.0 14.44 14
  194.1 14.22 14
  194.2 14.53 14
  194.3 14.88 14
  194.4 14.97 14
  194.5 14.79 14
  194.6 14.09 14
  194.7 12.85 12
  195.0 11.22 11
  195.1 12.15 12
  195.2 13.32 13
  195.3 13.9 13
  195.4 13.32 13
  195.5 11.79 11
  195.6 10.13 10
  195.8 8.36 8
  195.9 9.31 9
  196.0 11.65 11
  196.1 14.03 14
  196.2 14.71 14
  196.3 13.18 13
  196.4 11.12 11
  197.0 9.42 9
  197.1 10.45 10
  197.2 11.53 11
  197.3 12.51 12
  197.4 13.83 13
  197.5 15.47 15
  197.6 16.63 16
  197.7 16.25 16
  197.8 14.32 14
  197.9 12.19 12
  199.4 7.3 7
  199.5 7.97 7
  199.6 8.69 8
  199.7 9.11 9
  199.8 9.32 9
  199.9 10.21 10
  200.0 12.27 12
  200.1 14.42 14
  200.2 14.82 14
  200.3 13.33 13
  201.1 12.53 12
  201.2 12.87 12
  201.3 13.77 13
  201.4 15.08 15
  201.5 16.42 16
  201.6 17.13 17
  201.7 16.25 16
  201.8 13.33 13
  202.0 8.73 8
  202.1 11.17 11
  202.2 15.6 15
  202.3 19.14 19
  202.4 20.41 20
  202.5 20.14 20
  202.6 19.42 19
  202.7 18.34 18
  202.8 17.07 17
  202.9 16.03 16
  203.2 14.81 14
  203.3 16.03 16
  203.4 17.39 17
  203.5 17.09 17
  203.6 14.66 14
  203.7 11.73 11
  204.4 9.43 9
  204.5 11.1 11
  204.6 13.46 13
  204.7 14.49 14
  204.8 12.69 12
  205.0 6.85 6
  205.1 9.37 9
  205.2 15.09 15
  205.3 19.19 19
  205.4 18.38 18
  205.5 14.25 14
  206.4 9.51 9
  206.5 11.41 11
  206.6 12.76 12
  206.7 12.4 12
  206.8 10.52 10
  206.9 8.33 8
  207.2 5.85 5
  207.3 7.87 7
  207.4 10.23 10
  207.5 11.21 11
  207.6 11.13 11
  207.7 11.86 11
  207.8 14.1 14
  207.9 16.9 16
  208.0 18.59 18
  208.1 18.22 18
  208.2 16.06 16
  208.3 13.47 13
  208.4 11.73 11
  208.6 11.01 10
  208.7 11.72 11
  208.8 13.22 13
  208.9 14.57 14
  209.0 14.35 14
  209.1 12.36 12
  209.9 9.54 9
  210.0 10.37 10
  210.1 11.64 11
  210.2 13.28 13
  210.3 14.75 14
  210.4 15.07 15
  210.5 13.63 13
  210.6 11.02 11
  210.8 9.49 9
  210.9 11.92 11
  211.0 14.21 14
  211.1 14.42 14
  211.2 12.67 12
  211.3 10.51 10
  211.5 9.21 9
  211.6 10.18 10
  211.7 11.81 11
  211.8 13.32 13
  211.9 13.9 13
  212.0 13.47 13
  212.1 12.68 12
  212.2 12.13 12
  212.3 11.98 11
  212.4 11.61 11
  212.5 10.16 10
  212.6 7.76 7
  212.8 4.73 4
  212.9 6.95 6
  213.0 11.81 11
  213.1 17.17 17
  213.2 20.24 20
  213.3 19.75 19
  213.4 16.06 16
  213.5 11.05 11
  214.4 4.88 4
  214.5 7.85 7
  214.6 11.88 11
  214.7 14.35 14
  214.8 14.91 14
  214.9 15.03 15
  215.0 14.93 14
  215.1 13.65 13
  215.3 11.37 11
  215.4 13.46 13
  215.5 15.19 15
  215.6 13.73 13
  215.7 9.88 9
  215.8 6.66 6
  216.0 6.2 6
  216.1 8.1 8
  216.2 10.84 10
  216.3 13.06 13
  216.4 13.41 13
  216.5 12.05 12
  216.8 10.1 10
  216.9 12.41 12
  217.0 15.06 15
  217.1 16.98 16
  217.2 17.48 17
  217.3 16.1 16
  217.4 13.36 13
  217.6 11.86 11
  217.7 14.21 14
  217.8 16.59 16
  217.9 17.75 17
  218.0 18.0 17
  218.1 17.83 17
  218.2 17.26 17
  218.3 16.34 16
  218.4 15.44 15
  218.5 14.76 14
  218.6 14.15 14
  218.9 13.49 13
  219.0 14.79 14
  219.1 16.36 16
  219.2 16.74 16
  219.3 14.68 14
  219.4 11.03 11
  219.6 10.31 10
  219.7 13.12 13
  219.8 14.27 14
  219.9 13.49 13
  220.0 12.6 12
  220.1 12.22 12
  220.4 10.85 10
  220.5 12.92 12
  220.6 15.15 15
  220.7 14.9 14
  220.8 11.48 11
  221.0 7.5 7
  221.1 11.33 11
  221.2 15.18 15
  221.3 14.77 14
  221.4 10.83 10
  222.1 9.01 9
  222.2 11.34 11
  222.3 14.01 13
  222.4 15.26 15
  222.5 14.1 14
  222.6 11.49 11
  222.8 10.58 10
  222.9 12.82 12
  223.0 13.94 13
  223.1 12.87 12
  223.4 10.86 10
  223.5 12.91 12
  223.6 14.26 14
  223.7 14.06 14
  223.8 13.03 13
  223.9 12.04 12
  224.0 10.67 10
  224.2 6.98 6
  224.3 8.59 8
  224.4 12.9 12
  224.5 16.33 16
  224.6 16.27 16
  224.7 14.14 14
  225.6 6.09 6
  225.7 9.24 9
  225.8 11.72 11
  225.9 12.47 12
  226.0 12.42 12
  226.1 12.46 12
  226.2 12.32 12
  226.3 11.46 11
  227.2 9.32 9
  227.3 10.45 10
  227.4 12.92 12
  227.5 15.3 15
  227.6 15.68 15
  227.7 13.73 13
  227.8 11.01 10
  228.1 9.26 9
  228.2 10.31 10
  228.3 11.44 11
  228.4 12.43 12
  228.5 13.47 13
  228.6 14.85 14
  228.7 16.25 16
  228.8 16.67 16
  228.9 15.71 15
  229.0 14.12 14
  229.1 12.96 12
  229.2 12.3 12
  229.3 11.45 11
  229.4 10.12 10
  229.7 9.23 9
  229.8 10.75 10
  229.9 12.13 12
  230.0 12.47 12
  230.1 11.44 11
  230.4 9.32 9
  230.5 10.85 10
  230.6 11.48 11
  230.7 10.61 10
  231.7 6.23 6
  231.8 7.86 7
  231.9 11.5 11
  232.0 14.64 14
  232.1 15.2 15
  232.2 14.0 13
  232.3 13.08 13
  233.1 11.0 10
  233.2 11.86 11
  233.3 14.33 14
  233.4 17.12 17
  233.5 18.42 18
  233.6 17.45 17
  233.7 15.04 15
  233.9 12.73 12
  234.0 14.42 14
  234.1 16.22 16
  234.2 16.23 16
  234.3 14.55 14
  234.4 12.85 12
  234.5 12.13 12
  234.6 11.75 11
  234.7 10.52 10
  234.8 8.58 8
  235.0 7.64 7
  235.1 8.71 8
  235.2 9.45 9
  235.3 9.99 9
  235.4 10.86 10
  235.5 11.81 11
  235.6 11.87 11
  235.7 10.96 10
  235.8 10.62 10
  235.9 12.48 12
  236.0 15.77 15
  236.1 17.42 17
  236.2 15.25 15
  236.3 10.74 10
  236.9 8.23 8
  237.0 10.34 10
  237.1 13.18 13
  237.2 14.14 14
  237.3 13.33 13
  237.7 13.07 13
  237.8 13.23 13
  237.9 13.95 13
  238.0 14.55 14
  238.1 14.32 14
  238.2 13.59 13
  238.3 12.96 12
  238.4 12.14 12
  238.6 10.2 10
  238.7 11.61 11
  238.8 14.04 14
  238.9 14.52 14
  239.0 12.06 12
  239.2 10.1 10
  239.3 12.74 12
  239.4 14.05 14
  239.5 12.37 12
  239.8 8.45 8
  239.9 11.64 11
  240.0 13.78 13
  240.1 12.71 12
  240.2 9.75 9
  240.4 8.77 8
  240.5 11.29 11
  240.6 13.59 13
  240.7 14.26 14
  240.8 13.06 13
  240.9 10.81 10
  241.7 4.59 4
  241.8 8.37 8
  241.9 12.27 12
  242.0 13.57 13
  242.1 12.25 12
  243.6 6.65 6
  243.7 6.56 6
  243.8 7.59 7
  243.9 9.87 9
  244.0 12.03 12
  244.1 12.84 12
  244.2 12.51 12
  244.3 11.75 11
  244.4 10.46 10
  244.5 8.58 8
  244.6 6.78 6
  244.9 4.88 4
  245.0 6.22 6
  245.1 8.41 8
  245.2 9.61 9
  245.3 8.52 8
  245.5 6.42 6
  245.6 8.84 8
  245.7 11.64 11
  245.8 12.57 12
  245.9 11.92 11
  246.0 11.61 11
  246.1 12.97 12
  246.2 15.17 15
  246.3 15.89 15
  246.4 13.77 13
  246.5 10.29 10
  247.1 10.29 10
  247.2 12.48 12
  247.3 15.77 15
  247.4 17.2 17
  247.5 15.22 15
  247.6 11.21 11
  247.7 7.77 7
  247.9 7.61 7
  248.0 9.62 9
  248.1 11.15 11
  248.2 11.17 11
  248.3 10.07 10
  248.4 8.96 8
  248.6 8.41 8
  248.7 9.13 9
  248.8 11.16 11
  248.9 14.15 14
  249.0 16.69 16
  249.1 17.55 17
  249.2 17.09 17
  249.3 16.48 16
  249.4 16.05 16
  249.5 15.33 15
  250.5 7.49 7
  250.6 9.59 9
  250.7 11.98 11
  250.8 13.2 13
  250.9 12.31 12
  251.0 9.82 9
  251.2 8.14 8
  251.3 10.3 10
  251.4 12.75 12
  251.5 14.08 14
  251.6 13.54 13
  251.7 11.3 11
  251.8 8.47 8
  252.0 8.18 8
  252.1 10.24 10
  252.2 11.64 11
  252.3 12.21 12
  252.4 12.67 12
  252.5 13.29 13
  252.6 14.12 14
  252.7 15.22 15
  252.8 16.09 16
  252.9 15.87 15
  253.0 14.32 14
  253.1 12.38 12
  253.2 11.17 11
  253.3 10.83 10
  253.4 10.73 10
  253.6 9.32 9
  253.7 9.89 9
  253.8 12.59 12
  253.9 16.29 16
  254.0 18.71 18
  254.1 18.67 18
  254.2 16.8 16
  254.3 14.38 14
  254.4 12.54 12
  254.5 11.5 11
  254.6 10.75 10
  254.7 9.76 9
  254.9 8.73 8
  255.0 10.04 10
  255.1 12.2 12
  255.2 14.05 14
  255.3 15.0 14
  255.4 15.31 15
  255.5 15.44 15
  255.6 15.49 15
  255.7 14.93 14
  255.8 13.41 13
  255.9 11.45 11
  256.0 10.1 10
  256.1 9.93 9
  256.2 10.05 10
  256.4 8.47 8
  256.5 9.27 9
  256.6 12.6 12
  256.7 16.28 16
  256.8 17.03 17
  256.9 14.43 14
  257.0 11.18 11
  258.0 4.88 4
  258.1 7.14 7
  258.2 11.82 11
  258.3 15.08 15
  258.4 14.11 14
  258.5 9.82 9
  258.7 5.69 5
  258.8 8.08 8
  258.9 10.18 10
  259.0 10.85 10
  259.1 11.32 11
  259.2 12.36 12
  259.3 12.84 12
  259.4 11.51 11
  259.6 8.13 8
  259.7 9.76 9
  259.8 12.58 12
  259.9 13.62 13
  260.2 9.72 9
  260.3 13.77 13
  260.4 18.02 18
  260.5 18.83 18
  260.6 16.38 16
  260.7 13.87 13
  260.8 13.28 13
  260.9 13.46 13
  261.0 12.36 12
  261.1 10.0 9
  261.3 8.61 8
  261.4 10.13 10
  261.5 11.06 11
  261.6 10.97 10
  261.7 10.74 10
  261.8 11.02 11
  261.9 11.27 11
  262.0 10.94 10
  262.1 10.43 10
  262.2 10.65 10
  262.3 11.46 11
  262.4 11.88 11
  262.7 10.57 10
  262.8 12.87 12
  262.9 15.71 15
  263.0 16.86 16
  263.1 15.64 15
  263.2 13.06 13
  263.5 9.91 9
  263.6 12.43 12
  263.7 13.79 13
  264.0 10.46 10
  264.1 13.84 13
  264.2 16.32 16
  264.3 15.24 15
  264.5 10.97 10
  264.6 13.28 13
  264.7 17.62 17
  264.8 20.87 20
  264.9 21.19 21
  265.0 19.53 19
  265.1 18.22 18
  265.2 17.62 17
  265.3 15.72 15
  265.4 11.99 11
  265.6 10.41 10
  265.7 14.03 14
  265.8 16.59 16
  265.9 16.6 16
  266.0 15.98 15
  266.1 16.63 16
  266.2 17.72 17
  266.3 17.05 17
  266.4 14.36 14
  266.5 11.06 11
  266.7 7.95 7
  266.8 10.14 10
  266.9 14.43 14
  267.0 17.67 17
  267.1 17.63 17
  267.2 15.29 15
  267.3 13.0 12
  267.5 11.12 11
  267.6 11.76 11
  267.7 14.12 14
  267.8 16.85 16
  267.9 17.39 17
  268.0 15.24 15
  268.1 12.62 12
  268.3 12.79 12
  268.4 13.87 13
  268.5 14.42 14
  268.6 14.63 14
  269.5 10.23 10
  269.6 10.84 10
  269.7 13.28 13
  269.8 16.41 16
  269.9 17.08 17
  270.0 13.82 13
  270.3 9.82 9
  270.4 13.46 13
  270.5 16.11 16
  270.6 16.58 16
  270.7 14.88 14
  270.8 11.91 11
  270.9 8.97 8
  271.1 7.54 7
  271.2 8.93 8
  271.3 10.15 10
  271.4 10.62 10
  271.5 10.72 10
  271.6 11.13 11
  271.7 11.78 11
  271.8 11.94 11
  271.9 11.44 11
  272.0 10.86 10
  272.3 10.47 10
  272.4 11.54 11
  272.5 13.18 13
  272.6 14.0 13
  272.7 13.09 13
  272.8 11.39 11
  273.6 9.37 9
  273.7 10.54 10
  273.8 11.98 11
  273.9 13.09 13
  274.0 13.81 13
  274.1 13.82 13
  274.2 12.8 12
  274.3 11.18 11
  274.4 10.13 10
  274.5 9.82 9
  274.7 8.96 8
  274.8 9.24 9
  274.9 11.48 11
  275.0 14.44 14
  275.1 15.52 15
  275.2 13.93 13
  275.3 11.92 11
  275.4 11.68 11
  275.5 12.6 12
  275.6 12.35 12
  275.7 9.85 9
  276.0 6.0 5
  276.1 9.83 9
  276.2 13.21 13
  276.3 13.65 13
  276.4 11.43 11
  276.5 9.13 9
  276.7 9.2 9
  276.8 9.81 9
  276.9 10.72 10
  277.0 12.95 12
  277.1 15.94 15
  277.2 17.13 17
  277.3 14.86 14
  277.4 10.68 10
  277.7 9.24 9
  277.8 10.89 10
  277.9 11.94 11
  278.0 12.35 12
  278.1 12.02 12
  278.2 10.85 10
  278.3 9.11 9
  278.6 6.98 6
  278.7 8.41 8
  278.8 10.48 10
  278.9 12.18 12
  279.0 12.58 12
  279.1 11.91 11
  279.2 11.59 11
  279.3 12.56 12
  279.4 13.79 13
  279.7 11.59 11
  279.8 13.89 13
  279.9 17.26 17
  280.0 18.28 18
  280.1 16.31 16
  280.2 13.72 13
  280.4 13.0 12
  280.5 13.82 13
  280.6 14.77 14
  280.7 15.96 15
  280.8 17.56 17
  280.9 18.93 18
  281.0 18.83 18
  281.1 16.39 16
  281.2 12.82 12
  281.4 10.4 10
  281.5 12.05 12
  281.6 13.5 13
  281.7 13.11 13
  281.8 10.91 10
  282.0 8.26 8
  282.1 10.21 10
  282.2 13.07 13
  282.3 14.91 14
  282.4 14.92 14
  283.3 10.95 10
  283.4 13.06 13
  283.5 15.36 15
  283.6 15.49 15
  283.7 13.21 13
  283.9 10.9 10
  284.0 13.72 13
  284.1 16.81 16
  284.2 17.31 17
  284.3 14.65 14
  284.4 11.13 11
  284.6 10.62 10
  284.7 13.45 13
  284.8 16.2 16
  284.9 17.53 17
  285.0 16.86 16
  285.1 14.65 14
  285.2 12.19 12
  285.5 10.43 10
  285.6 12.29 12
  285.7 15.28 15
  285.8 17.29 17
  285.9 16.42 16
  286.0 13.4 13
  286.1 10.84 10
  286.7 9.93 9
  286.8 10.77 10
  286.9 12.54 12
  287.0 14.47 14
  287.1 15.31 15
  287.2 14.84 14
  287.3 14.05 14
  287.4 13.52 13
  287.5 12.59 12
  287.6 10.63 10
  287.7 8.19 8
  287.9 7.05 7
  288.0 9.85 9
  288.1 13.4 13
  288.2 15.11 15
  288.3 13.95 13
  288.4 11.55 11
  288.5 9.8 9
  288.6 8.83 8
  288.9 7.43 7
  289.0 8.75 8
  289.1 10.68 10
  289.2 12.54 12
  289.3 13.21 13
  289.4 11.79 11
  289.5 8.88 8
  289.6 5.91 5
  289.8 3.33 3
  289.9 5.08 5
  290.0 9.28 9
  290.1 13.93 13
  290.2 16.22 16
  290.3 15.42 15
  290.4 13.27 13
  291.4 10.02 10
  291.5 12.73 12
  291.6 15.26 15
  291.7 15.01 14
  291.8 12.26 12
  291.9 9.5 9
  292.0 8.24 8
  292.4 8.04 8
  292.5 8.45 8
  292.6 10.03 10
  292.7 12.52 12
  292.8 13.99 13
  292.9 13.3 13
  293.1 11.56 11
  293.2 12.98 12
  293.3 13.97 13
  293.4 13.12 13
  293.5 11.15 11
  293.6 9.7 9
  293.9 9.27 9
  294.0 10.0 9
  294.1 12.46 12
  294.2 15.77 15
  294.3 17.32 17
  294.4 15.5 15
  294.5 11.95 11
  294.7 10.31 10
  294.8 12.46 12
  294.9 14.58 14
  295.0 15.71 15
  295.1 15.58 15
  295.9 11.03 11
  296.0 13.41 13
  296.1 15.6 15
  296.2 16.65 16
  296.3 16.44 16
  296.4 15.29 15
  296.5 13.61 13
  296.6 12.1 12
  296.9 11.13 11
  297.0 12.62 12
  297.1 15.09 15
  297.2 17.26 17
  297.3 17.99 17
  297.4 17.41 17
  297.5 15.88 15
  297.6 13.45 13
  297.9 10.24 10
  298.0 12.87 12
  298.1 15.15 15
  298.2 15.45 15
  298.3 14.12 14
  298.4 12.58 12
  298.7 11.62 11
  298.8 12.29 12
  298.9 13.24 13
  299.0 14.15 14
  299.1 14.74 14
  299.2 15.45 15
  299.3 16.77 16
  299.4 17.68 17
  299.5 16.2 16
  299.6 12.19 12
  299.8 8.93 8
  299.9 11.97 11
  300.0 14.28 14
  300.1 13.44 13
  300.3 9.51 9
  300.4 11.17 11
  300.5 14.53 14
  300.6 17.21 17
  300.7 17.57 17
  300.8 15.39 15
  301.1 12.56 12
  301.2 16.23 16
  301.3 18.64 18
  301.4 17.62 17
  301.5 14.03 14
  301.6 10.83 10
  303.2 6.5 6
  303.3 9.16 9
  303.4 10.96 10
  303.5 10.41 10
  303.7 8.63 8
  303.8 10.43 10
  303.9 13.0 12
  304.0 14.62 14
  304.1 14.5 14
  304.2 13.08 13
  305.0 11.92 11
  305.1 13.29 13
  305.2 14.35 14
  305.3 14.2 14
  305.4 13.41 13
  305.5 12.68 12
  305.6 11.94 11
  305.7 10.58 10
  305.9 8.63 8
  306.0 10.18 10
  306.1 12.75 12
  306.2 14.79 14
  306.3 15.49 15
  306.4 15.42 15
  306.5 15.4 15
  306.6 15.07 15
  306.7 13.61 13
  307.9 9.82 9
  308.0 11.77 11
  308.1 13.47 13
  308.2 13.73 13
  308.3 12.64 12
  308.4 11.13 11
  308.5 9.92 9
  308.6 9.04 9
  308.8 7.87 7
  308.9 9.07 9
  309.0 11.34 11
  309.1 12.79 12
  309.2 12.56 12
  309.3 11.78 11
  309.4 11.73 11
  309.5 11.78 11
  309.6 10.32 10
  309.9 7.22 7
  310.0 11.4 11
  310.1 14.65 14
  310.2 14.6 14
  310.3 12.08 12
  310.6 10.21 10
  310.7 12.14 12
  310.8 13.52 13
  310.9 14.22 14
  311.0 14.85 14
  311.1 15.72 15
  311.2 16.29 16
  311.3 16.25 16
  311.4 16.34 16
  311.5 17.53 17
  311.6 19.05 19
  311.7 18.89 18
  311.8 16.17 16
  311.9 12.38 12
  312.1 10.54 10
  312.2 13.0 12
  312.3 15.29 15
  312.4 15.78 15
  312.5 14.92 14
  312.6 13.84 13
  312.7 12.98 12
  313.0 11.6 11
  313.1 13.52 13
  313.2 16.59 16
  313.3 18.5 18
  313.4 17.58 17
  313.5 14.39 14
  313.6 11.0 10
  313.8 9.11 9
  313.9 10.79 10
  314.0 12.91 12
  314.1 14.06 14
  314.2 13.72 13
  314.3 12.24 12
  314.5 10.41 10
  314.6 11.89 11
  314.7 13.77 13
  314.8 14.33 14
  314.9 13.55 13
  315.0 12.32 12
  315.3 10.92 10
  315.4 11.88 11
  315.5 13.3 13
  315.6 14.75 14
  315.7 15.46 15
  315.8 14.61 14
  317.1 7.16 7
  317.2 8.37 8
  317.3 11.26 11
  317.4 14.08 14
  317.5 14.88 14
  317.6 13.63 13
  317.7 11.98 11
  317.8 11.08 11
  317.9 10.48 10
  318.0 9.34 9
  318.2 7.03 7
  318.3 7.87 7
  318.4 10.78 10
  318.5 14.46 14
  318.6 16.14 16
  318.7 14.25 14
  318.8 10.61 10
  319.6 9.11 9
  319.7 10.52 10
  319.8 12.27 12
  319.9 13.41 13
  320.0 13.34 13
  320.1 12.41 12
  320.4 11.51 11
  320.5 12.52 12
  320.6 13.46 13
  320.7 13.25 13
  321.0 10.13 10
  321.1 13.44 13
  321.2 16.97 16
  321.3 17.32 17
  321.4 13.87 13
  321.5 9.11 9
  321.7 5.91 5
  321.8 7.72 7
  321.9 9.67 9
  322.0 10.54 10
  322.1 10.61 10
  322.2 11.07 11
  322.3 12.58 12
  322.4 13.93 13
  322.5 13.68 13
  322.6 12.21 12
  322.7 11.1 11
  322.8 10.62 10
  322.9 9.78 9
  323.0 8.39 8
  323.2 7.75 7
  323.3 8.83 8
  323.4 10.65 10
  323.5 12.76 12
  323.6 13.56 13
  323.7 11.57 11
  323.8 7.81 7
  324.0 5.62 5
  324.1 8.26 8
  324.2 10.88 10
  324.3 11.83 11
  324.4 10.85 10
  324.7 8.08 8
  324.8 11.01 10
  324.9 14.38 14
  325.0 15.61 15
  325.1 14.21 14
  325.2 12.27 12
  326.0 11.03 11
  326.1 12.04 12
  326.2 13.61 13
  326.3 14.1 14
  326.6 13.08 13
  326.7 14.42 14
  326.8 15.68 15
  326.9 16.74 16
  327.0 17.28 17
  327.1 16.59 16
  328.6 10.84 10
  328.7 13.12 13
  328.8 16.15 16
  328.9 17.64 17
  329.0 16.58 16
  329.1 14.2 14
  329.9 8.78 8
  330.0 11.82 11
  330.1 15.41 15
  330.2 16.97 16
  330.3 15.45 15
  330.4 12.3 12
  330.5 9.86 9
  330.6 9.16 9
  330.7 9.32 9
  330.8 8.72 8
  331.0 5.87 5
  331.1 7.11 7
  331.2 10.42 10
  331.3 13.63 13
  331.4 15.17 15
  331.5 15.08 15
  331.6 14.3 14
  331.7 13.32 13
  332.9 6.89 6
  333.0 7.77 7
  333.1 8.5 8
  333.2 8.66 8
  333.3 9.1 9
  333.4 10.68 10
  333.5 12.91 12
  333.6 14.38 14
  333.7 13.99 13
  333.8 11.73 11
  334.7 9.51 9
  334.8 11.97 11
  334.9 13.85 13
  335.0 13.79 13
  335.1 11.62 11
  335.2 8.63 8
  335.4 6.9 6
  335.5 8.83 8
  335.6 11.71 11
  335.7 14.71 14
  335.8 16.39 16
  335.9 15.61 15
  336.0 13.01 12
  336.1 10.34 10
  336.2 8.23 8
  336.4 6.8 6
  336.5 9.36 9
  336.6 13.01 12
  336.7 14.91 14
  336.8 14.3 14
  336.9 12.85 12
  337.0 11.78 11
  337.1 10.94 10
  337.9 8.01 8
  338.0 9.47 9
  338.1 12.82 12
  338.2 15.46 15
  338.3 15.38 15
  338.4 13.33 13
  338.7 12.11 12
  338.8 13.11 13
  338.9 14.2 14
  339.0 14.96 14
  339.1 13.98 13
  339.2 10.85 10
  339.4 7.56 7
  339.5 9.82 9
  339.6 11.77 11
  339.7 11.5 11
  339.8 9.98 9
  340.2 10.0 9
  340.3 9.94 9
  340.4 11.44 11
  340.5 13.4 13
  340.6 13.51 13
  340.7 11.49 11
  340.8 9.26 9
  341.6 7.98 7
  341.7 9.22 9
  341.8 11.18 11
  341.9 12.41 12
  342.0 13.13 13
  342.1 14.69 14
  342.2 17.1 17
  342.3 18.59 18
  342.4 18.21 18
  342.5 17.26 17
  342.6 17.46 17
  342.7 18.82 18
  342.8 19.99 19
  342.9 19.73 19
  343.0 17.77 17
  343.1 14.86 14
  343.2 12.33 12
  343.4 11.12 11
  343.5 12.59 12
  343.6 14.69 14
  343.7 15.35 15
  343.8 13.43 13
  344.0 11.33 11
  344.1 14.3 14
  344.2 16.72 16
  344.3 16.69 16
  344.4 14.93 14
  344.5 12.71 12
  344.6 10.5 10
  344.7 8.59 8
  344.9 7.6 7
  345.0 8.18 8
  345.1 9.87 9
  345.2 13.34 13
  345.3 17.48 17
  345.4 19.46 19
  345.5 17.61 17
  345.6 13.82 13
  345.7 11.41 11
  345.8 11.53 11
  345.9 12.13 12
  346.0 10.9 10
  346.1 7.82 7
  346.3 5.64 5
  346.4 9.88 9
  346.5 15.44 15
  346.6 18.18 18
  346.7 15.77 15
  346.8 10.02 10
  346.9 5.16 5
  347.1 5.49 5
  347.2 7.69 7
  347.3 9.28 9
  347.4 10.61 10
  347.5 12.22 12
  347.6 13.63 13
  347.7 13.94 13
  347.8 13.3 13
  347.9 12.87 12
  348.0 12.9 12
  348.1 12.54 12
  348.2 11.53 11
  349.6 10.69 10
  349.7 12.86 12
  349.8 15.17 15
  349.9 15.96 15
  350.0 14.22 14
  350.1 10.75 10
  350.3 7.33 7
  350.4 9.39 9
  350.5 12.2 12
  350.6 13.65 13
  350.7 12.78 12
  351.0 10.16 10
  351.1 12.49 12
  351.2 14.52 14
  351.3 14.98 14
  351.4 13.97 13
  351.5 12.38 12
  352.2 9.43 9
  352.3 11.29 11
  352.4 13.89 13
  352.5 15.03 15
  352.6 13.71 13
  353.4 8.46 8
  353.5 10.03 10
  353.6 11.48 11
  353.7 12.87 12
  353.8 14.35 14
  353.9 14.81 14
  354.0 13.2 13
  354.1 10.13 10
  354.3 7.25 7
  354.4 9.37 9
  354.5 12.42 12
  354.6 14.37 14
  354.7 13.98 13
  354.8 11.72 11
  356.2 7.98 7
  356.3 10.77 10
  356.4 14.75 14
  356.5 17.25 17
  356.6 17.14 17
  356.7 15.47 15
  356.8 14.17 14
  356.9 13.93 13
  357.0 13.52 13
  357.1 11.98 11
  357.3 10.64 10
  357.4 12.96 12
  357.5 15.8 15
  357.6 17.68 17
  357.7 17.96 17
  357.8 16.93 16
  358.5 15.68 15
  358.6 16.17 16
  358.7 17.01 16
  358.8 17.69 17
  358.9 17.05 17
  359.0 14.96 14
  359.1 12.79 12
  359.2 11.28 11
  359.4 9.74 9
  359.5 11.54 11
  359.6 15.28 15
  359.7 17.85 17
  359.8 16.31 16
  359.9 11.59 11
  360.1 7.97 7
  360.2 11.21 11
  360.3 14.54 14
  360.4 15.42 15
  360.5 13.21 13
  360.6 9.67 9
  360.9 8.48 8
  361.0 9.87 9
  361.1 12.31 12
  361.2 15.76 15
  361.3 17.82 17
  361.4 16.75 16
  361.5 13.61 13
  362.6 10.45 10
  362.7 11.91 11
  362.8 14.04 14
  362.9 14.98 14
  363.0 13.44 13
  363.1 10.16 10
  363.3 7.6 7
  363.4 9.91 9
  363.5 12.76 12
  363.6 14.37 14
  363.7 14.11 14
  363.8 12.8 12
  364.7 11.4 11
  364.8 11.92 11
  364.9 12.42 12
  365.0 12.25 12
  365.1 11.84 11
  365.2 12.0 11
  365.3 12.6 12
  365.4 12.76 12
  365.5 12.82 12
  365.6 13.62 13
  365.7 14.88 14
  365.8 15.34 15
  365.9 14.2 14
  366.0 11.87 11
  366.1 9.4 9
  366.3 8.25 8
  366.4 9.83 9
  366.5 10.77 10
  366.6 9.22 9
  366.7 6.14 6
  366.9 5.46 5
  367.0 8.2 8
  367.1 11.0 10
  367.2 13.29 13
  367.3 14.74 14
  367.4 15.09 15
  367.5 14.85 14
  367.6 15.0 14
  367.7 15.33 15
  367.8 14.11 14
  367.9 10.77 10
  368.1 6.87 6
  368.2 9.01 9
  368.3 11.45 11
  368.4 12.19 12
  368.5 11.15 11
  368.6 9.48 9
  368.8 8.62 8
  368.9 9.87 9
  369.0 11.12 11
  369.1 11.77 11
  369.2 12.22 12
  369.3 12.46 12
  369.4 11.48 11
  369.5 9.26 9
  369.7 8.58 8
  369.8 10.59 10
  369.9 12.33 12
  370.0 13.63 13
  370.1 14.79 14
  370.2 14.9 14
  370.3 13.13 13
  371.1 10.32 10
  371.2 11.46 11
  371.3 12.79 12
  371.4 13.56 13
  371.5 13.5 13
  371.6 13.01 12
  371.7 12.27 12
  371.8 11.33 11
  371.9 10.35 10
  372.0 9.58 9
  372.3 8.26 8
  372.4 10.29 10
  372.5 13.63 13
  372.6 16.52 16
  372.7 17.23 17
  372.8 15.87 15
  373.1 14.87 14
  373.2 15.58 15
  373.3 15.96 15
  373.4 16.5 16
  373.5 16.94 16
  373.6 16.29 16
  373.7 14.86 14
  374.7 10.86 10
  374.8 13.56 13
  374.9 15.71 15
  375.0 15.52 15
  375.1 13.46 13
  375.3 11.41 11
  375.4 13.57 13
  375.5 15.95 15
  375.6 16.16 16
  375.7 14.0 13
  375.8 11.55 11
  376.0 11.5 11
  376.1 12.81 12
  376.2 13.94 13
  376.3 14.98 14
  376.4 15.85 15
  376.5 15.6 15
  376.6 13.3 13
  376.7 10.21 10
  376.9 10.16 10
  377.0 12.09 12
  377.1 12.84 12
  377.2 12.81 12
  377.3 13.29 13
  377.4 14.19 14
  377.5 14.17 14
  377.6 12.84 12
  377.7 10.85 10
  377.9 9.72 9
  378.0 11.44 11
  378.1 13.28 13
  378.2 13.76 13
  378.3 13.13 13
  378.4 13.07 13
  378.5 14.16 14
  378.6 15.18 15
  378.7 14.98 14
  378.8 13.99 13
  378.9 12.86 12
  379.7 9.37 9
  379.8 10.99 10
  379.9 12.85 12
  380.0 13.03 13
  380.1 10.69 10
  380.3 6.79 6
  380.4 9.82 9
  380.5 13.79 13
  380.6 14.49 14
  380.7 11.35 11
  380.9 9.21 9
  381.0 12.32 12
  381.1 14.06 14
  381.2 13.87 13
  381.3 13.59 13
  381.4 13.17 13
  381.5 10.96 10
  381.7 7.58 7
  381.8 10.41 10
  381.9 13.13 13
  382.0 13.05 13
  382.1 11.08 11
  382.3 10.42 10
  382.4 11.81 11
  382.5 13.0 12
  382.6 13.59 13
  382.7 13.44 13
  382.8 12.21 12
  383.1 10.09 10
  383.2 11.98 11
  383.3 13.13 13
  383.4 13.19 13
  383.5 13.19 13
  383.6 13.54 13
  383.7 13.55 13
  383.8 12.91 12
  384.7 9.51 9
  384.8 10.92 10
  384.9 12.15 12
  385.0 12.76 12
  385.1 12.56 12
  385.2 11.0 10
  385.5 8.5 8
  385.6 11.51 11
  385.7 13.74 13
  385.8 13.68 13
  385.9 11.7 11
  386.0 9.1 9
  386.3 7.71 7
  386.4 9.33 9
  386.5 10.99 10
  386.6 12.67 12
  386.7 13.82 13
  386.8 13.55 13
  386.9 12.2 12
  387.2 11.07 11
  387.3 12.08 12
  387.4 13.61 13
  387.5 14.91 14
  387.6 15.18 15
  387.7 14.12 14
  387.8 12.02 12
  387.9 9.77 9
  388.1 8.88 8
  388.2 10.26 10
  388.3 11.88 11
  388.4 13.71 13
  388.5 16.5 16
  388.6 19.85 19
  388.7 21.19 21
  388.8 18.59 18
  389.0 13.44 13
  389.1 16.41 16
  389.2 19.74 19
  389.3 20.14 20
  389.4 18.26 18
  389.5 17.04 17
  389.6 17.53 17
  389.7 17.83 17
  389.8 15.72 15
  389.9 11.6 11
  390.2 7.88 7
  390.3 10.56 10
  390.4 13.55 13
  390.5 15.61 15
  390.6 15.38 15
  390.7 12.92 12
  390.9 9.94 9
  391.0 12.14 12
  391.1 14.77 14
  391.2 15.51 15
  391.3 13.93 13
  391.4 11.97 11
  391.9 12.3 12
  392.0 12.91 12
  392.1 13.93 13
  392.2 14.16 14
  392.3 13.08 13
  393.0 10.96 10
  393.1 12.87 12
  393.2 14.36 14
  393.3 15.36 15
  393.4 16.79 16
  393.5 18.27 18
  393.6 18.01 17
  393.7 15.15 15
  393.8 11.22 11
  394.0 8.17 8
  394.1 9.77 9
  394.2 12.16 12
  394.3 13.79 13
  394.4 13.76 13
  394.5 12.35 12
  394.6 10.47 10
  394.9 9.07 9
  395.0 10.36 10
  395.1 11.24 11
  395.2 11.76 11
  395.3 12.36 12
  395.4 12.37 12
  395.5 10.9 10
  395.7 9.09 9
  395.8 11.07 11
  395.9 12.68 12
  396.0 12.13 12
  396.1 10.34 10
  396.4 9.0 8
  396.5 10.0 9
  396.6 11.6 11
  396.7 12.86 12
  396.8 12.76 12
  396.9 11.32 11
  397.1 8.46 8
  397.2 9.65 9
  397.3 12.56 12
  397.4 14.98 14
  397.5 15.15 15
  397.6 13.76 13
  397.7 12.37 12
  397.8 11.15 11
  397.9 9.67 9
  398.5 9.38 9
  398.6 10.54 10
  398.7 11.22 11
  398.8 10.31 10
  399.0 7.86 7
  399.1 9.22 9
  399.2 12.15 12
  399.3 14.41 14
  399.4 13.45 13
  399.5 9.05 9
  399.7 3.41 3
  399.8 6.99 6
  399.9 11.93 11
  400.0 14.25 14
  400.1 13.18 13
  400.2 10.99 10
  400.5 10.16 10
  400.6 11.49 11
  400.7 12.89 12
  400.8 13.14 13
  400.9 11.56 11
  401.0 9.12 9
  401.6 6.52 6
  401.7 7.43 7
  401.8 9.12 9
  401.9 10.16 10
  402.0 10.19 10
  402.1 9.88 9
  402.2 9.64 9
  402.3 9.64 9
  402.4 10.32 10
  402.5 11.83 11
  402.6 13.38 13
  402.7 14.23 14
  402.8 14.17 14
  402.9 13.0 12
  403.0 10.51 10
  403.2 7.33 7
  403.3 9.42 9
  403.4 12.36 12
  403.5 14.21 14
  403.6 14.82 14
  403.7 14.38 14
  403.8 12.67 12
  403.9 10.05 10
  404.1 8.84 8
  404.2 12.04 12
  404.3 16.74 16
  404.4 20.51 20
  404.5 20.45 20
  404.6 16.38 16
  405.5 8.18 8
  405.6 10.96 10
  405.7 12.31 12
  405.8 12.37 12
  405.9 12.6 12
  406.0 13.36 13
  406.1 13.59 13
  406.2 12.67 12
  406.3 11.27 11
  406.4 10.38 10
  406.5 10.08 10
  406.6 9.77 9
  406.7 9.02 9
  406.9 7.49 7
  407.0 8.4 8
  407.1 10.9 10
  407.2 13.93 13
  407.3 15.61 15
  407.4 14.91 14
  407.5 12.21 12
  407.8 10.31 10
  407.9 12.84 12
  408.0 14.52 14
  408.1 14.17 14
  408.2 11.78 11
  408.3 8.84 8
  408.5 7.96 7
  408.6 9.74 9
  408.7 11.56 11
  408.8 12.65 12
  408.9 13.08 13
  409.0 13.36 13
  409.1 13.34 13
  409.2 12.04 12
  409.5 9.51 9
  409.6 11.91 11
  409.7 12.95 12
  409.8 11.88 11
  410.0 10.73 10
  410.1 12.16 12
  410.2 13.14 13
  410.3 12.75 12
  410.6 10.9 10
  410.7 12.84 12
  410.8 15.2 15
  410.9 15.96 15
  411.0 14.01 13
  411.1 10.69 10
  411.3 9.23 9
  411.4 11.45 11
  411.5 13.18 13
  411.6 13.17 13
  411.7 11.77 11
  412.6 9.27 9
  412.7 10.1 10
  412.8 11.87 11
  412.9 12.4 12
  413.0 10.68 10
  413.1 7.79 7
  413.3 4.81 4
  413.4 6.31 6
  413.5 9.1 9
  413.6 11.66 11
  413.7 13.16 13
  413.8 13.83 13
  413.9 14.06 14
  414.0 13.55 13
  414.1 11.68 11
  414.2 8.77 8
  414.4 6.28 6
  414.5 8.34 8
  414.6 10.84 10
  414.7 12.51 12
  414.8 13.49 13
  414.9 13.92 13
  415.0 13.49 13
  415.1 12.37 12
  415.2 11.64 11
  415.3 11.34 11
  415.4 10.47 10
  415.5 8.99 8
  415.7 8.36 8
  415.8 9.31 9
  415.9 10.74 10
  416.0 12.56 12
  416.1 13.52 13
  416.2 12.95 12
  416.3 12.29 12
  416.4 13.52 13
  416.5 15.62 15
  416.6 15.47 15
  416.7 12.14 12
  417.0 9.5 9
  417.1 12.49 12
  417.2 13.98 13
  417.3 13.52 13
  417.4 12.13 12
  417.7 10.69 10
  417.8 12.21 12
  417.9 13.93 13
  418.0 13.63 13
  418.1 10.34 10
  418.4 6.78 6
  418.5 10.52 10
  418.6 13.3 13
  418.7 14.15 14
  418.8 13.76 13
  418.9 13.35 13
  419.0 13.56 13
  419.1 14.14 14
  419.2 14.21 14
  419.3 12.92 12
  419.6 10.81 10
  419.7 13.63 13
  419.8 15.19 15
  419.9 14.92 14
  420.0 15.0 14
  420.1 16.63 16
  420.2 18.06 18
  420.3 17.21 17
  421.3 8.86 8
  421.4 10.85 10
  421.5 12.8 12
  421.6 13.16 13
  421.7 12.41 12
  421.8 12.29 12
  421.9 13.29 13
  422.0 13.92 13
  422.1 12.81 12
  422.4 11.27 11
  422.5 13.3 13
  422.6 14.74 14
  422.7 15.09 15
  422.8 14.15 14
  423.7 7.04 7
  423.8 9.72 9
  423.9 13.68 13
  424.0 17.1 17
  424.1 17.96 17
  424.2 16.34 16
  424.3 14.41 14
  424.4 13.81 13
  424.5 13.74 13
  424.6 12.54 12
  424.8 10.26 10
  424.9 11.88 11
  425.0 14.05 14
  425.1 14.85 14
  425.2 14.03 14
  425.3 12.71 12
  425.4 11.64 11
  425.7 10.12 10
  425.8 12.24 12
  425.9 15.04 15
  426.0 16.43 16
  426.1 15.68 15
  426.2 14.22 14
  426.3 13.4 13
  426.4 12.86 12
  426.5 11.71 11
  426.6 10.03 10
  427.3 8.47 8
  427.4 10.36 10
  427.5 13.22 13
  427.6 15.89 15
  427.7 17.1 17
  427.8 15.88 15
  427.9 12.9 12
  428.0 10.15 10
  428.3 10.19 10
  428.4 10.13 10
  428.5 10.47 10
  428.6 11.91 11
  428.7 13.55 13
  428.8 13.61 13
  428.9 11.5 11
  429.0 8.45 8
  429.2 5.58 5
  429.3 6.8 6
  429.4 9.55 9
  429.5 13.24 13
  429.6 16.29 16
  429.7 16.55 16
  429.8 13.6 13
  429.9 9.66 9
  430.1 7.76 7
  430.2 10.02 10
  430.3 13.16 13
  430.4 15.61 15
  430.5 15.69 15
  430.6 13.68 13
  430.7 11.53 11
  430.8 10.45 10
  431.0 9.97 9
  431.1 10.41 10
  431.2 11.44 11
  431.3 12.08 12
  431.4 11.46 11
  431.6 9.78 9
  431.7 11.57 11
  431.8 15.04 15
  431.9 18.02 18
  432.0 18.27 18
  432.1 15.49 15
  432.2 11.83 11
  432.3 9.36 9
  432.6 8.57 8
  432.7 9.04 9
  432.8 9.64 9
  432.9 10.43 10
  433.0 11.15 11
  433.1 10.8 10
  434.0 7.87 7
  434.1 9.33 9
  434.2 11.37 11
  434.3 14.1 14
  434.4 16.59 16
  434.5 17.53 17
  434.6 16.37 16
  434.7 13.99 13
  434.8 11.53 11
  435.0 9.47 9
  435.1 10.91 10
  435.2 13.14 13
  435.3 14.6 14
  435.4 15.11 15
  435.5 15.8 15
  435.6 17.45 17
  435.7 19.52 19
  435.8 20.95 20
  435.9 20.46 20
  436.0 17.37 17
  436.1 13.03 13
  436.3 12.2 12
  436.4 15.28 15
  436.5 16.59 16
  436.6 15.31 15
  436.7 13.08 13
  437.5 11.18 11
  437.6 12.47 12
  437.7 13.11 13
  437.8 13.5 13
  437.9 13.81 13
  439.4 12.2 12
  439.5 12.78 12
  439.6 14.65 14
  439.7 16.01 15
  439.8 15.44 15
  439.9 13.44 13
  440.0 11.35 11
  440.8 5.62 5
  440.9 8.89 8
  441.0 11.56 11
  441.1 12.52 12
  441.2 12.48 12
  441.3 12.6 12
  441.4 13.16 13
  441.5 13.97 13
  441.6 14.65 14
  441.7 14.65 14
  441.8 13.46 13
  443.2 7.79 7
  443.3 9.32 9
  443.4 11.32 11
  443.5 12.94 12
  443.6 13.5 13
  443.7 12.48 12
  443.8 10.09 10
  444.0 7.61 7
  444.1 9.54 9
  444.2 12.15 12
  444.3 14.32 14
  444.4 16.16 16
  444.5 17.69 17
  444.6 17.86 17
  444.7 16.15 16
  444.8 13.74 13
  444.9 12.05 12
  445.0 11.21 11
  445.1 10.42 10
  445.2 9.42 9
  445.3 8.67 8
  445.5 8.12 8
  445.6 8.52 8
  445.7 9.85 9
  445.8 11.62 11
  445.9 13.03 13
  446.0 13.84 13
  446.1 14.21 14
  446.2 13.66 13
  446.3 11.81 11
  446.5 10.15 10
  446.6 12.48 12
  446.7 14.25 14
  446.8 13.51 13
  446.9 11.21 11
  447.0 9.61 9
  447.2 9.36 9
  447.3 9.94 9
  447.4 11.67 11
  447.5 13.81 13
  447.6 14.37 14
  447.7 12.82 12
  448.0 11.91 11
  448.1 13.13 13
  448.2 14.15 14
  448.3 15.06 15
  448.4 15.41 15
  448.5 14.64 14
  448.6 12.94 12
  448.7 11.28 11
  449.0 10.65 10
  449.1 11.91 11
  449.2 13.14 13
  449.3 13.66 13
  449.4 13.35 13
  449.5 12.22 12
  449.7 9.93 9
  449.8 12.22 12
  449.9 16.75 16
  450.0 19.74 19
  450.1 18.38 18
  450.2 13.88 13
  450.3 9.88 9
  450.5 9.75 9
  450.6 10.92 10
  450.7 11.64 11
  450.8 12.62 12
  450.9 14.32 14
  451.0 16.38 16
  451.1 17.79 17
  451.2 17.61 17
  451.3 15.44 15
  451.4 12.76 12
  451.6 12.65 12
  451.7 14.3 14
  451.8 15.29 15
  451.9 15.56 15
  452.0 15.5 15
  452.1 15.04 15
  452.2 14.12 14
  453.1 9.37 9
  453.2 11.59 11
  453.3 13.84 13
  453.4 14.27 14
  453.5 13.82 13
  453.6 14.93 14
  453.7 17.67 17
  453.8 19.58 19
  453.9 18.67 18
  454.0 15.23 15
  454.1 10.73 10
  454.2 6.78 6
  454.4 5.79 5
  454.5 9.23 9
  454.6 12.98 12
  454.7 14.86 14
  454.8 14.37 14
  454.9 13.19 13
  455.0 13.41 13
  455.1 15.52 15
  455.2 17.77 17
  455.3 18.12 18
  455.4 16.44 16
  455.5 14.53 14
  456.8 3.72 3
  456.9 4.86 4
  457.0 7.81 7
  457.1 11.13 11
  457.2 13.23 13
  457.3 13.66 13
  457.4 13.14 13
  457.5 12.68 12
  457.6 12.76 12
  457.7 13.32 13
  457.8 13.78 13
  457.9 13.61 13
  458.0 12.8 12
  458.1 11.55 11
  458.2 9.92 9
  458.4 8.28 8
  458.5 10.09 10
  458.6 12.31 12
  458.7 12.57 12
  458.8 10.27 10
  459.0 6.47 6
  459.1 8.94 8
  459.2 12.95 12
  459.3 15.34 15
  459.4 14.64 14
  459.5 12.25 12
  459.6 10.35 10
  460.6 10.07 10
  460.7 11.51 11
  460.8 12.82 12
  460.9 12.57 12
  461.0 11.3 11
  461.1 10.05 10
  461.2 9.05 9
  461.4 7.92 7
  461.5 9.34 9
  461.6 12.04 12
  461.7 14.55 14
  461.8 15.56 15
  461.9 15.25 15
  462.0 14.21 14
  462.1 12.87 12
  463.3 9.31 9
  463.4 9.96 9
  463.5 11.12 11
  463.6 12.82 12
  463.7 14.63 14
  463.8 15.38 15
  463.9 13.97 13
  464.0 10.77 10
  464.1 7.5 7
  464.3 6.82 6
  464.4 8.82 8
  464.5 10.24 10
  464.6 10.19 10
  464.7 9.38 9
  464.8 9.15 9
  464.9 9.97 9
  465.0 11.32 11
  465.1 12.71 12
  465.2 14.04 14
  465.3 15.13 15
  465.4 15.25 15
  465.5 14.15 14
  465.6 12.62 12
  465.7 11.41 11
  465.9 10.46 10
  466.0 11.46 11
  466.1 13.14 13
  466.2 14.19 14
  466.3 14.2 14
  466.4 13.83 13
  466.5 13.54 13
  466.6 13.5 13
  466.7 13.94 13
  466.8 14.47 14
  466.9 14.3 14
  467.0 14.01 13
  467.1 14.84 14
  467.2 16.42 16
  467.3 17.24 17
  467.4 16.65 16
  467.5 15.36 15
  467.6 13.78 13
  467.7 11.64 11
  468.0 8.75 8
  468.1 11.41 11
  468.2 14.11 14
  468.3 15.17 15
  468.4 14.35 14
  468.5 12.76 12
  468.8 11.95 11
  468.9 12.78 12
  469.0 14.01 13
  469.1 15.63 15
  469.2 17.04 17
  469.3 17.93 17
  469.4 18.04 18
  469.5 16.88 16
  469.6 14.27 14
  469.7 11.59 11
  469.9 11.5 11
  470.0 12.91 12
  470.1 14.04 14
  470.2 14.92 14
  470.3 15.0 14
  470.4 13.28 13
  470.7 9.96 9
  470.8 12.68 12
  470.9 14.8 14
  471.0 15.04 15
  471.1 13.67 13
  471.3 12.24 12
  471.4 14.28 14
  471.5 16.21 16
  471.6 15.85 15
  471.7 13.52 13
  472.0 11.44 11
  472.1 12.78 12
  472.2 13.72 13
  472.3 13.25 13
  472.4 10.94 10
  472.5 7.7 7
  472.7 6.65 6
  472.8 9.96 9
  472.9 12.78 12
  473.0 13.59 13
  473.1 13.44 13
  473.2 13.35 13
  473.3 12.4 12
  473.4 9.42 9
  473.6 4.98 4
  473.7 7.95 7
  473.8 12.02 12
  473.9 13.71 13
  474.0 12.54 12
  474.1 10.73 10
  474.4 9.55 9
  474.5 11.08 11
  474.6 12.87 12
  474.7 12.71 12
  476.8 7.95 7
  476.9 9.5 9
  477.0 10.69 10
  477.1 10.8 10
  477.2 10.9 10
  477.3 12.06 12
  477.4 13.18 13
  477.5 12.27 12
  477.6 9.37 9
  477.8 7.65 7
  477.9 10.41 10
  478.0 13.08 13
  478.1 14.22 14
  478.2 13.83 13
  478.3 12.05 12
  478.4 9.33 9
  478.6 7.86 7
  478.7 11.16 11
  478.8 14.47 14
  478.9 15.23 15
  479.0 13.51 13
  479.1 11.24 11
  479.3 9.88 9
  479.4 10.68 10
  479.5 12.15 12
  479.6 13.99 13
  479.7 14.9 14
  479.8 13.68 13
  479.9 10.7 10
  480.2 7.87 7
  480.3 10.32 10
  480.4 13.0 12
  480.5 14.48 14
  480.6 13.85 13
  480.7 11.57 11
  480.9 9.83 9
  481.0 11.97 11
  481.1 13.9 13
  481.2 14.11 14
  481.3 12.75 12
  481.4 10.72 10
  481.7 8.84 8
  481.8 11.1 11
  481.9 13.44 13
  482.0 14.73 14
  482.1 15.23 15
  482.2 15.95 15
  482.3 16.6 16
  482.4 16.0 15
  483.8 8.83 8
  483.9 9.83 9
  484.0 10.84 10
  484.1 11.72 11
  484.2 11.93 11
  484.5 10.32 10
  484.6 11.97 11
  484.7 14.39 14
  484.8 16.44 16
  484.9 17.26 17
  485.0 16.47 16
  485.1 14.36 14
  485.2 11.81 11
  485.3 9.7 9
  485.4 8.04 8
  485.6 6.58 6
  485.7 8.61 8
  485.8 11.88 11
  485.9 13.89 13
  486.0 13.63 13
  486.1 13.03 13
  486.2 13.87 13
  486.3 15.2 15
  486.4 14.74 14
  486.5 12.22 12
  486.6 9.33 9
  486.9 7.1 7
  487.0 9.02 9
  487.1 11.29 11
  487.2 12.6 12
  487.3 12.94 12
  487.4 13.36 13
  487.5 14.03 14
  487.6 13.65 13
  487.7 11.66 11
  487.9 9.7 9
  488.0 11.37 11
  488.1 13.01 12
  488.2 13.28 13
  488.3 12.09 12
  488.4 10.29 10
  488.6 9.43 9
  488.7 11.02 11
  488.8 12.41 12
  488.9 12.31 12
  489.0 10.77 10
  489.2 8.5 8
  489.3 9.78 9
  489.4 12.29 12
  489.5 14.37 14
  489.6 14.79 14
  489.7 13.54 13
  489.8 11.41 11
  490.1 9.75 9
  490.2 11.86 11
  490.3 13.29 13
  490.4 13.02 13
  490.5 11.34 11
  490.8 8.9 8
  490.9 11.17 11
  491.0 13.71 13
  491.1 14.9 14
  491.2 14.19 14
  491.3 12.37 12
  491.4 10.5 10
  491.5 8.89 8
  491.7 7.98 7
  491.8 9.71 9
  491.9 12.14 12
  492.0 13.78 13
  492.1 13.66 13
  492.2 12.21 12
  492.9 9.27 9
  493.0 11.97 11
  493.1 13.77 13
  493.2 12.62 12
  493.5 8.79 8
  493.6 12.9 12
  493.7 16.36 16
  493.8 16.64 16
  493.9 14.06 14
  494.0 10.94 10
  494.1 9.2 9
  494.4 9.58 9
  494.5 9.66 9
  494.6 10.35 10
  494.7 11.49 11
  494.8 12.29 12
  494.9 12.18 12
  495.0 11.28 11
  495.1 9.86 9
  495.2 7.88 7
  495.3 5.41 5
  495.5 3.52 3
  495.6 5.7 5
  495.7 8.47 8
  495.8 10.25 10
  495.9 10.5 10
  496.0 9.71 9
  496.1 9.26 9
  496.2 9.93 9
  496.3 11.41 11
  496.4 12.71 12
  496.5 13.55 13
  496.6 13.88 13
  496.7 13.5 13
  496.8 12.02 12
  497.1 10.02 10
  497.2 12.04 12
  497.3 12.76 12
  497.4 12.05 12
  497.5 12.15 12
  497.6 14.38 14
  497.7 16.86 16
  497.8 16.91 16
  497.9 14.32 14
  498.0 11.38 11
  498.2 9.94 9
  498.3 11.98 11
  498.4 16.34 16
  498.5 21.06 21
  498.6 21.87 21
  498.7 17.15 17
  498.9 9.96 9
  499.0 13.7 13
  499.1 17.95 17
  499.2 18.76 18
  499.3 16.11 16
  499.4 12.29 12
  499.6 9.49 9
  499.7 12.13 12
  499.8 16.14 16
  499.9 19.18 19
  500.0 19.47 19
  500.1 16.94 16
  500.2 13.35 13
  500.4 11.03 11
  500.5 12.67 12
  500.6 14.53 14
  500.7 15.36 15
  500.8 14.49 14
  500.9 12.14 12
  501.1 9.17 9
  501.2 11.3 11
  501.3 14.26 14
  501.4 15.3 15
  501.5 13.71 13
  502.2 13.06 13
  502.3 13.94 13
  502.4 14.88 14
  502.5 14.2 14
  502.6 11.33 11
  502.8 7.45 7
  502.9 10.36 10
  503.0 14.73 14
  503.1 17.13 17
  503.2 15.88 15
  503.3 12.38 12
  503.5 11.01 10
  503.6 13.45 13
  503.7 14.44 14
  503.8 13.47 13
  505.0 8.1 8
  505.1 9.2 9
  505.2 11.27 11
  505.3 12.92 12
  505.4 13.51 13
  505.5 13.34 13
  505.6 12.63 12
  505.7 11.23 11
  505.8 9.21 9
  506.0 6.95 6
  506.1 8.58 8
  506.2 11.34 11
  506.3 13.78 13
  506.4 15.13 15
  506.5 15.14 15
  506.6 13.85 13
  507.3 8.14 8
  507.4 11.39 11
  507.5 16.05 16
  507.6 18.71 18
  507.7 17.53 17
  507.8 13.87 13
  507.9 10.24 10
  508.0 8.14 8
  508.2 7.55 7
  508.3 8.67 8
  508.4 10.59 10
  508.5 12.47 12
  508.6 13.17 13
  508.7 12.48 12
  508.8 11.17 11
  509.1 9.86 9
  509.2 11.4 11
  509.3 12.75 12
  509.4 12.29 12
  509.5 10.09 10
  509.8 7.9 7
  509.9 10.61 10
  510.0 13.59 13
  510.1 14.71 14
  510.2 13.0 12
  510.3 10.24 10
  511.4 8.01 8
  511.5 9.18 9
  511.6 10.69 10
  511.7 12.29 12
  511.8 13.59 13
  511.9 13.72 13
  512.0 12.38 12
  512.2 10.46 10
  512.3 12.19 12
  512.4 14.54 14
  512.5 15.85 15
  512.6 15.63 15
  512.7 14.71 14
  513.0 13.55 13
  513.1 14.52 14
  513.2 16.92 16
  513.3 19.26 19
  513.4 19.3 19
  513.5 16.72 16
  513.6 13.52 13
  513.8 12.8 12
  513.9 15.74 15
  514.0 18.75 18
  514.1 19.36 19
  514.2 17.19 17
  514.3 14.63 14
  515.0 10.32 10
  515.1 11.95 11
  515.2 13.65 13
  515.3 14.82 14
  515.4 15.68 15
  515.5 16.05 16
  515.6 15.17 15
  515.7 12.92 12
  515.9 11.33 11
  516.0 13.66 13
  516.1 15.35 15
  516.2 14.85 14
  516.3 13.16 13
  516.9 8.64 8
  517.0 11.3 11
  517.1 17.45 17
  517.2 21.31 21
  517.3 18.29 18
  517.4 10.4 10
  517.6 4.28 4
  517.7 8.28 8
  517.8 12.04 12
  517.9 13.66 13
  518.0 13.47 13
  518.1 12.21 12
  518.2 10.64 10
  518.4 9.77 9
  518.5 10.7 10
  518.6 11.98 11
  518.7 12.7 12
  519.0 10.81 10
  519.1 12.3 12
  519.2 14.65 14
  519.3 16.33 16
  519.4 16.12 16
  519.5 13.66 13
  519.6 9.98 9
  519.8 8.35 8
  519.9 11.32 11
  520.0 13.63 13
  520.1 13.97 13
  520.2 13.74 13
  520.3 14.31 14
  520.4 14.62 14
  520.5 13.08 13
  520.8 9.91 9
  520.9 12.25 12
  521.0 14.11 14
  521.1 14.79 14
  521.2 14.75 14
  521.3 14.16 14
  521.4 13.06 13
  521.5 11.7 11
  522.1 10.89 10
  522.2 11.45 11
  522.3 12.25 12
  522.4 12.92 12
  522.5 12.86 12
  522.6 11.98 11
  522.7 10.69 10
  522.8 9.26 9
  522.9 7.47 7
  523.2 6.82 6
  523.3 8.06 8
  523.4 8.77 8
  523.5 9.87 9
  523.6 11.78 11
  523.7 13.72 13
  523.8 14.91 14
  523.9 15.49 15
  524.0 15.76 15
  524.1 15.46 15
  524.2 14.27 14
  524.3 12.3 12
  524.4 10.42 10
  525.1 6.93 6
  525.2 8.51 8
  525.3 10.5 10
  525.4 11.26 11
  525.5 10.26 10
  525.6 8.25 8
  525.8 7.06 7
  525.9 9.66 9
  526.0 12.58 12
  526.1 13.16 13
  526.2 11.11 11
  527.0 9.53 9
  527.1 11.0 10
  527.2 12.1 12
  527.3 12.54 12
  527.4 12.43 12
  527.7 10.62 10
  527.8 12.4 12
  527.9 14.58 14
  528.0 15.45 15
  528.1 14.76 14
  528.2 13.39 13
  528.4 11.88 11
  528.5 13.38 13
  528.6 16.01 15
  528.7 17.99 17
  528.8 18.35 18
  528.9 17.79 17
  529.0 17.01 16
  529.1 15.93 15
  529.2 14.49 14
  529.4 13.76 13
  529.5 15.06 15
  529.6 16.31 16
  529.7 16.36 16
  529.8 14.8 14
  529.9 12.4 12
  530.6 7.38 7
  530.7 9.61 9
  530.8 13.32 13
  530.9 15.78 15
  531.0 16.07 16
  531.1 14.9 14
  531.2 12.89 12
  531.3 10.47 10
  531.5 8.93 8
  531.6 10.47 10
  531.7 12.44 12
  531.8 14.49 14
  531.9 16.55 16
  532.0 17.88 17
  532.1 17.47 17
  532.2 15.19 15
  533.2 6.47 6
  533.3 8.1 8
  533.4 11.56 11
  533.5 13.71 13
  533.6 13.28 13
  533.7 12.3 12
  533.8 12.94 12
  533.9 14.62 14
  534.0 14.9 14
  534.1 12.9 12
  534.2 9.96 9
  534.4 8.35 8
  534.5 10.7 10
  534.6 13.55 13
  534.7 14.8 14
  534.8 13.7 13
  534.9 12.02 12
  535.8 11.88 11
  535.9 12.32 12
  536.0 13.14 13
  536.1 13.05 13
  536.2 11.49 11
  537.1 9.17 9
  537.2 10.23 10
  537.3 11.49 11
  537.4 13.21 13
  537.5 14.82 14
  537.6 14.73 14
  537.7 12.54 12
  537.8 10.19 10
  538.0 10.19 10
  538.1 11.29 11
  538.2 12.71 12
  538.3 14.49 14
  538.4 15.36 15
  538.5 13.97 13
  538.6 10.85 10
  538.7 7.91 7
  538.9 6.17 6
  539.0 7.17 7
  539.1 9.65 9
  539.2 12.96 12
  539.3 15.06 15
  539.4 14.32 14
  539.5 11.86 11
  539.7 10.8 10
  539.8 12.13 12
  539.9 12.63 12
  540.2 10.94 10
  540.3 12.44 12
  540.4 14.46 14
  540.5 14.55 14
  540.6 11.91 11
  541.5 10.85 10
  541.6 11.32 11
  541.7 12.48 12
  541.8 13.5 13
  541.9 13.59 13
  542.0 13.46 13
  542.1 14.03 14
  542.2 14.85 14
  542.3 14.48 14
  542.4 12.51 12
  542.5 10.05 10
  542.6 8.39 8
  542.8 7.86 7
  542.9 8.94 8
  543.0 11.3 11
  543.1 14.39 14
  543.2 16.45 16
  543.3 16.15 16
  543.4 13.98 13
  543.7 11.54 11
  543.8 14.1 14
  543.9 16.64 16
  544.0 17.42 17
  544.1 16.14 16
  544.2 13.97 13
  544.4 13.02 13
  544.5 14.88 14
  544.6 17.36 17
  544.7 19.57 19
  544.8 20.49 20
  544.9 19.08 19
  545.0 16.03 16
  545.8 11.57 11
  545.9 12.8 12
  546.0 13.5 13
  546.1 14.22 14
  546.2 14.73 14
  546.3 13.61 13
  546.4 10.69 10
  546.6 9.39 9
  546.7 12.75 12
  546.8 15.83 15
  546.9 16.94 16
  547.0 16.66 16
  547.1 16.12 16
  547.2 15.62 15
  547.3 14.91 14
  547.6 14.17 14
  547.7 15.14 15
  547.8 15.93 15
  547.9 15.8 15
  548.0 14.74 14
  548.1 13.56 13
  548.2 12.96 12
  548.3 12.63 12
  548.6 11.24 11
  548.7 12.81 12
  548.8 15.42 15
  548.9 17.75 17
  549.0 18.6 18
  549.1 17.88 17
  549.2 16.04 16
  549.3 13.55 13
  549.4 11.1 11
  549.5 9.59 9
  549.9 9.24 9
  550.0 10.41 10
  550.1 12.21 12
  550.2 12.94 12
  550.3 11.82 11
  550.4 10.16 10
  551.0 8.31 8
  551.1 9.42 9
  551.2 12.22 12
  551.3 15.04 15
  551.4 16.22 16
  551.5 15.78 15
  551.6 14.96 14
  551.7 14.44 14
  551.8 14.15 14
  551.9 13.68 13
  552.0 12.79 12
  552.1 11.44 11
  552.2 9.89 9
  552.5 8.77 8
  552.6 9.34 9
  552.7 9.62 9
  552.8 9.53 9
  552.9 9.61 9
  553.0 9.93 9
  553.1 9.86 9
  553.2 9.71 9
  553.3 11.26 11
  553.4 14.73 14
  553.5 17.15 17
  553.6 15.63 15
  553.7 11.34 11
  554.0 9.04 9
  554.1 11.79 11
  554.2 13.79 13
  554.3 13.97 13
  554.4 12.65 12
  554.5 11.24 11
  554.6 10.58 10
  554.9 9.13 9
  555.0 10.13 10
  555.1 12.06 12
  555.2 13.92 13
  555.3 14.88 14
  555.4 14.59 14
  555.5 12.56 12
  555.6 9.24 9
  555.9 6.63 6
  556.0 9.09 9
  556.1 11.84 11
  556.2 13.87 13
  556.3 14.01 13
  556.4 11.75 11
  556.5 8.15 8
  556.7 5.33 5
  556.8 8.09 8
  556.9 11.68 11
  557.0 13.61 13
  557.1 13.14 13
  557.2 11.86 11
  557.3 11.24 11
  557.4 11.12 11
  557.5 10.4 10
  557.6 9.04 9
  557.9 8.33 8
  558.0 9.77 9
  558.1 10.88 10
  558.2 11.86 11
  558.3 13.43 13
  558.4 15.2 15
  558.5 15.94 15
  558.6 15.35 15
  558.7 14.58 14
  558.8 14.22 14
  559.1 12.85 12
  559.2 14.27 14
  559.3 15.5 15
  559.6 13.77 13
  559.7 15.44 15
  559.8 17.34 17
  559.9 17.63 17
  560.0 16.29 16
  560.2 15.17 15
  560.3 16.5 16
  560.4 17.2 17
  560.5 16.28 16
  561.4 10.26 10
  561.5 11.12 11
  561.6 12.3 12
  561.7 13.94 13
  561.8 15.3 15
  561.9 15.14 15
  562.0 13.55 13
  562.1 12.04 12
  562.2 11.7 11
  562.3 11.89 11
  562.4 11.4 11
  562.7 9.4 9
  562.8 11.17 11
  562.9 12.63 12
  563.0 12.95 12
  563.1 12.78 12
  563.2 12.82 12
  563.3 12.69 12
  563.4 11.35 11
  563.5 9.0 8
  563.7 6.67 6
  563.8 8.14 8
  563.9 9.62 9
  564.0 9.38 9
  564.2 6.63 6
  564.3 7.83 7
  564.4 10.48 10
  564.5 12.6 12
  564.6 12.86 12
  564.7 11.5 11
  565.5 10.32 10
  565.6 11.16 11
  565.7 11.98 11
  565.8 12.44 12
  566.1 11.06 11
  566.2 12.82 12
  566.3 14.48 14
  566.4 13.41 13
  566.5 9.24 9
  566.7 4.9 4
  566.8 8.97 8
  566.9 13.61 13
  567.0 14.5 14
  567.1 11.22 11
  567.2 7.04 7
  567.4 5.01 5
  567.5 7.12 7
  567.6 10.23 10
  567.7 13.08 13
  567.8 14.42 14
  567.9 13.95 13
  568.0 12.42 12
  568.2 11.38 11
  568.3 12.64 12
  568.4 13.29 13
  568.5 11.92 11
  568.6 9.18 9
  568.8 7.52 7
  568.9 8.97 8
  569.0 9.93 9
  569.1 9.92 9
  569.2 9.81 9
  569.3 10.67 10
  569.4 12.42 12
  569.5 13.81 13
  569.6 13.22 13
  569.7 10.57 10
  569.8 7.92 7
  570.0 7.22 7
  570.1 7.82 7
  570.2 9.17 9
  570.3 11.54 11
  570.4 13.57 13
  570.5 13.77 13
  570.6 12.38 12
  570.7 10.81 10
  570.9 9.93 9
  571.0 11.12 11
  571.1 12.48 12
  571.2 12.56 12
  571.3 11.12 11
  571.5 9.31 9
  571.6 10.59 10
  571.7 12.57 12
  571.8 13.92 13
  571.9 14.12 14
  572.0 13.63 13
  572.1 13.24 13
  572.2 12.84 12
  572.3 11.82 11
  572.4 10.16 10
  573.2 9.78 9
  573.3 11.23 11
  573.4 12.96 12
  573.5 13.83 13
  573.6 13.99 13
  573.7 14.69 14
  573.8 15.87 15
  573.9 15.52 15
  574.0 12.08 12
  574.3 6.98 6
  574.4 11.35 11
  574.5 14.0 13
  574.6 13.35 13
  574.7 11.75 11
  574.8 12.27 12
  574.9 14.97 14
  575.0 16.83 16
  575.1 15.57 15
  575.3 11.1 11
  575.4 13.19 13
  575.5 16.92 16
  575.6 19.16 19
  575.7 18.81 18
  575.8 17.15 17
  575.9 15.49 15
  576.0 13.78 13
  576.2 12.06 12
  576.3 13.62 13
  576.4 15.41 15
  576.5 15.41 15
  576.6 13.57 13
  578.1 7.58 7
  578.2 9.6 9
  578.3 11.91 11
  578.4 13.44 13
  578.5 14.33 14
  578.6 15.13 15
  578.7 16.0 15
  578.8 16.79 16
  578.9 16.9 16
  579.0 15.79 15
  579.1 13.65 13
  579.2 11.23 11
  579.3 9.21 9
  579.5 7.95 7
  579.6 9.77 9
  579.7 12.4 12
  579.8 13.49 13
  579.9 12.31 12
  580.1 10.67 10
  580.2 11.89 11
  580.3 12.86 12
  580.4 13.28 13
  580.5 14.22 14
  580.6 15.94 15
  580.7 17.08 17
  580.8 16.14 16
  580.9 13.25 13
  581.0 10.04 10
  581.2 9.45 9
  581.3 12.26 12
  581.4 14.9 14
  581.5 15.83 15
  581.6 14.76 14
  581.7 12.24 12
  581.9 8.61 8
  582.0 10.68 10
  582.1 13.97 13
  582.2 14.96 14
  582.3 12.42 12
  582.4 8.9 8
  583.0 7.11 7
  583.1 9.1 9
  583.2 11.17 11
  583.3 11.99 11
  583.4 11.68 11
  583.5 10.77 10
  584.7 9.69 9
  584.8 9.87 9
  584.9 9.89 9
  585.0 11.01 10
  585.1 13.57 13
  585.2 15.53 15
  585.3 14.54 14
  585.4 10.9 10
  585.5 7.3 7
  585.7 7.2 7
  585.8 8.9 8
  585.9 9.82 9
  586.0 10.64 10
  586.1 12.87 12
  586.2 16.26 16
  586.3 18.62 18
  586.4 18.38 18
  586.5 15.99 15
  586.6 13.17 13
  586.7 11.21 11
  586.8 10.24 10
  587.9 8.88 8
  588.0 10.09 10
  588.1 12.22 12
  588.2 13.08 13
  588.3 11.92 11
  589.4 7.81 7
  589.5 9.22 9
  589.6 11.11 11
  589.7 11.82 11
  589.8 11.62 11
  589.9 11.93 11
  590.0 13.4 13
  590.1 15.02 15
  590.2 15.71 15
  590.3 15.34 15
  590.4 14.52 14
  590.5 13.68 13
  591.0 13.33 13
  591.1 13.43 13
  591.2 14.2 14
  591.3 15.42 15
  591.4 15.42 15
  591.5 13.41 13
  592.2 9.64 9
  592.3 10.88 10
  592.4 13.71 13
  592.5 15.66 15
  592.6 15.39 15
  592.7 13.93 13
  592.8 12.78 12
  592.9 11.87 11
  593.0 10.41 10
  593.2 8.21 8
  593.3 10.09 10
  593.4 13.72 13
  593.5 16.34 16
  593.6 15.71 15
  593.7 12.31 12
  594.0 10.07 10
  594.1 12.84 12
  594.2 14.92 14
  594.3 15.41 15
  594.4 14.25 14
  594.5 11.76 11
  594.8 8.55 8
  594.9 11.61 11
  595.0 14.69 14
  595.1 15.63 15
  595.2 13.76 13
  596.1 12.02 12
  596.2 13.27 13
  596.3 14.38 14
  596.4 14.8 14
  596.5 14.35 14
  596.6 13.44 13
  596.7 12.85 12
  596.8 12.91 12
  596.9 12.84 12
  597.0 11.99 11
  597.1 10.63 10
  597.2 9.32 9
  597.4 8.5 8
  597.5 9.91 9
  597.6 12.33 12
  597.7 14.46 14
  597.8 15.09 15
  597.9 14.11 14
  598.0 12.51 12
  598.1 11.33 11
  598.2 10.73 10
  598.3 10.03 10
  598.6 8.09 8
  598.7 9.59 9
  598.8 11.71 11
  598.9 13.06 13
  599.0 12.87 12
  599.1 11.84 11
  599.8 10.65 10
  599.9 11.49 11
  600.0 12.33 12
  600.1 12.82 12
  600.2 12.84 12
  600.3 12.15 12
  600.4 10.8 10
  600.5 9.38 9
  600.7 8.56 8
  600.8 9.44 9
  600.9 10.61 10
  601.0 11.77 11
  601.1 13.23 13
  601.2 14.8 14
  601.3 15.14 15
  601.4 13.19 13
  601.5 10.1 10
  602.2 6.74 6
  602.3 10.54 10
  602.4 14.92 14
  602.5 16.28 16
  602.6 14.49 14
  603.7 8.93 8
  603.8 10.2 10
  603.9 12.11 12
  604.0 13.33 13
  604.1 13.56 13
  604.2 13.89 13
  604.3 14.48 14
  604.4 13.93 13
  604.5 11.77 11
  605.1 9.45 9
  605.2 10.51 10
  605.3 12.47 12
  605.4 13.6 13
  605.5 12.71 12
  605.6 10.68 10
  605.8 9.97 9
  605.9 11.39 11
  606.0 12.32 12
  606.1 12.9 12
  606.2 14.05 14
  606.3 15.61 15
  606.4 16.41 16
  606.5 16.53 16
  606.6 17.3 17
  606.7 18.88 18
  606.8 19.69 19
  606.9 18.5 18
  607.0 16.34 16
  608.0 6.92 6
  608.1 9.15 9
  608.2 12.85 12
  608.3 16.14 16
  608.4 17.01 16
  608.5 15.23 15
  608.6 12.48 12
  608.9 11.6 11
  609.0 12.22 12
  609.1 13.36 13
  609.2 15.01 14
  609.3 15.63 15
  609.4 14.16 14
  609.6 11.22 11
  609.7 13.33 13
  609.8 16.64 16
  609.9 18.1 18
  610.0 16.06 16
  610.9 10.19 10
  611.0 14.33 14
  611.1 18.04 18
  611.2 18.61 18
  611.3 16.41 16
  611.4 13.67 13
  611.5 11.86 11
  611.6 10.92 10
  611.9 10.25 10
  612.0 11.05 11
  612.1 12.38 12
  612.2 13.24 13
  612.3 12.71 12
  612.4 11.24 11
  612.5 10.14 10
  612.6 9.44 9
  612.8 7.7 7
  612.9 9.8 9
  613.0 13.88 13
  613.1 16.42 16
  613.2 15.69 15
  613.3 13.72 13
  613.4 12.51 12
  613.5 11.41 11
  613.7 9.13 9
  613.8 10.47 10
  613.9 12.71 12
  614.0 13.81 13
  614.1 13.22 13
  614.2 11.95 11
  614.4 11.27 11
  614.5 12.32 12
  614.6 13.01 12
  614.7 12.49 12
  614.8 11.67 11
  614.9 12.05 12
  615.0 13.16 13
  615.1 13.11 13
  615.2 11.35 11
  615.3 9.32 9
  615.4 8.06 8
  615.5 7.33 7
  615.8 6.41 6
  615.9 8.36 8
  616.0 11.91 11
  616.1 15.84 15
  616.2 18.0 17
  616.3 16.59 16
  616.4 11.6 11
  616.5 5.51 5
  616.7 2.62 2
  616.8 6.85 6
  616.9 11.55 11
  617.0 14.48 14
  617.1 15.51 15
  617.2 15.45 15
  617.3 14.93 14
  617.4 14.27 14
  617.5 13.55 13
  617.8 11.75 11
  617.9 13.63 13
  618.0 15.39 15
  618.1 14.85 14
  618.2 12.11 12
  619.5 6.66 6
  619.6 9.51 9
  619.7 11.55 11
  619.8 11.01 10
  619.9 9.4 9
  620.0 9.59 9
  620.1 11.81 11
  620.2 13.45 13
  620.5 11.61 11
  620.6 14.28 14
  620.7 15.99 15
  620.8 14.35 14
  620.9 10.7 10
  621.1 8.79 8
  621.2 11.07 11
  621.3 12.71 12
  621.4 12.06 12
  621.7 10.09 10
  621.8 12.96 12
  621.9 15.26 15
  622.0 15.67 15
  623.0 10.13 10
  623.1 11.7 11
  623.2 12.74 12
  623.3 13.29 13
  623.4 13.81 13
  623.5 14.76 14
  623.6 16.25 16
  623.7 17.29 17
  623.8 16.52 16
  623.9 13.9 13
  624.0 11.15 11
  624.2 10.7 10
  624.3 12.6 12
  624.4 14.54 14
  624.5 15.26 15
  624.6 13.94 13
  624.7 11.11 11
  624.9 9.17 9
  625.0 12.05 12
  625.1 15.62 15
  625.2 17.75 17
  625.3 17.75 17
  625.4 16.8 16
  625.5 16.26 16
  625.6 15.96 15
  625.7 14.79 14
  627.0 9.18 9
  627.1 11.06 11
  627.2 14.28 14
  627.3 15.99 15
  627.4 13.79 13
  627.5 9.43 9
  627.7 8.44 8
  627.8 11.26 11
  627.9 13.23 13
  628.0 13.83 13
  628.1 13.43 13
  628.2 12.19 12
  628.3 10.89 10
  629.2 7.88 7
  629.3 9.45 9
  629.4 10.89 10
  629.5 10.96 10
  629.6 10.43 10
  629.7 10.45 10
  630.0 9.62 9
  630.1 11.71 11
  630.2 14.76 14
  630.3 15.55 15
  630.4 12.84 12
  630.5 8.94 8
  630.7 7.56 7
  630.8 10.04 10
  630.9 12.82 12
  631.0 14.64 14
  631.1 14.65 14
  631.2 13.0 12
  632.6 7.77 7
  632.7 9.36 9
  632.8 11.12 11
  632.9 11.61 11
  633.0 10.24 10
  633.2 6.31 6
  633.3 7.81 7
  633.4 11.83 11
  633.5 15.39 15
  633.6 15.8 15
  633.7 13.47 13
  633.8 11.17 11
  634.3 10.05 10
  634.4 11.01 10
  634.5 12.16 12
  634.6 12.54 12
  634.7 12.49 12
  634.8 12.65 12
  634.9 12.48 12
  635.0 10.84 10
  635.1 8.08 8
  635.3 6.12 6
  635.4 7.69 7
  635.5 9.71 9
  635.6 11.84 11
  635.7 13.61 13
  635.8 13.78 13
  635.9 12.16 12
  636.8 10.23 10
  636.9 11.68 11
  637.0 12.82 12
  637.1 12.3 12
  637.3 10.42 10
  637.4 12.54 12
  637.5 15.95 15
  637.6 18.48 18
  637.7 19.26 19
  637.8 18.61 18
  637.9 17.18 17
  638.0 15.17 15
  638.1 12.85 12
  638.3 11.56 11
  638.4 14.1 14
  638.5 16.86 16
  638.6 17.59 17
  638.7 16.28 16
  640.0 12.52 12
  640.1 13.02 13
  640.2 13.66 13
  640.3 13.76 13
  640.6 11.83 11
  640.7 13.62 13
  640.8 16.27 16
  640.9 17.89 17
  641.0 17.31 17
  641.1 14.75 14
  641.2 11.41 11
  641.4 9.66 9
  641.5 11.5 11
  641.6 12.74 12
  641.7 12.33 12
  641.9 10.78 10
  642.0 11.84 11
  642.1 13.5 13
  642.2 13.94 13
  642.3 12.08 12
  642.6 8.26 8
  642.7 11.49 11
  642.8 14.53 14
  642.9 15.88 15
  643.0 15.44 15
  643.1 13.73 13
  643.2 11.62 11
  643.4 10.48 10
  643.5 11.95 11
  643.6 12.9 12
  643.7 12.2 12
  643.8 10.5 10
  644.0 9.81 9
  644.1 10.84 10
  644.2 11.44 11
  644.3 11.38 11
  644.4 11.18 11
  644.5 11.35 11
  644.6 11.87 11
  644.7 12.22 12
  644.8 12.15 12
  644.9 11.76 11
  645.0 11.26 11
  645.3 9.87 9
  645.4 12.1 12
  645.5 14.66 14
  645.6 15.31 15
  645.7 13.44 13
  645.8 10.67 10
  645.9 8.5 8
  646.2 6.93 6
  646.3 8.75 8
  646.4 11.16 11
  646.5 12.43 12
  646.6 11.82 11
  646.7 10.24 10
  646.8 8.91 8
  647.1 6.52 6
  647.2 8.48 8
  647.3 11.77 11
  647.4 13.79 13
  647.5 13.08 13
  647.6 10.79 10
  647.7 8.93 8
  647.9 8.46 8
  648.0 9.42 9
  648.1 11.38 11
  648.2 13.36 13
  648.3 13.35 13
  648.4 10.81 10
  648.6 7.12 7
  648.7 8.93 8
  648.8 11.46 11
  648.9 12.78 12
  649.0 12.32 12
  649.1 10.75 10
  649.2 8.91 8
  649.5 7.55 7
  649.6 8.58 8
  649.7 9.23 9
  649.8 9.4 9
  649.9 9.8 9
  650.0 11.27 11
  650.1 13.36 13
  650.2 14.55 14
  650.3 13.74 13
  650.4 11.15 11
  650.7 9.23 9
  650.8 11.71 11
  650.9 12.96 12
  651.0 12.54 12
  652.0 7.82 7
  652.1 9.82 9
  652.2 11.94 11
  652.3 13.41 13
  652.4 13.65 13
  652.7 11.39 11
  652.8 13.18 13
  652.9 15.49 15
  653.0 16.48 16
  653.1 15.44 15
  653.2 13.22 13
  653.4 11.41 11
  653.5 13.05 13
  653.6 14.92 14
  653.7 15.44 15
  653.8 13.98 13
  654.1 11.94 11
  654.2 13.21 13
  654.3 14.2 14
  654.4 14.66 14
  654.5 14.5 14
  654.6 13.44 13
  654.9 11.71 11
  655.0 12.84 12
  655.1 13.41 13
  655.2 13.09 13
  655.3 12.51 12
  655.4 12.36 12
  655.5 13.05 13
  655.6 14.12 14
  655.7 14.28 14
  655.8 12.7 12
  656.1 10.05 10
  656.2 12.69 12
  656.3 15.29 15
  656.4 16.36 16
  656.5 15.47 15
  656.6 13.66 13
  656.7 12.29 12
  656.8 11.4 11
  657.1 9.85 9
  657.2 11.89 11
  657.3 13.72 13
  657.4 13.92 13
  657.5 12.84 12
  657.7 11.71 11
  657.8 12.63 12
  657.9 13.57 13
  658.0 13.36 13
  658.1 11.94 11
  658.2 10.2 10
  658.7 9.53 9
  658.8 10.09 10
  658.9 11.26 11
  659.0 12.38 12
  659.1 13.12 13
  659.2 13.45 13
  659.3 13.09 13
  659.4 11.68 11
  659.5 9.82 9
  660.4 8.25 8
  660.5 9.34 9
  660.6 9.98 9
  660.7 9.97 9
  660.8 9.93 9
  660.9 10.32 10
  661.0 10.89 10
  661.1 11.21 11
  661.2 11.11 11
  661.3 10.72 10
  661.4 9.86 9
  661.7 8.21 8
  661.8 10.81 10
  661.9 13.61 13
  662.0 14.73 14
  662.1 13.57 13
  662.2 11.18 11
  662.3 9.27 9
  662.6 9.17 9
  662.7 9.69 9
  662.8 11.01 10
  662.9 13.08 13
  663.0 14.66 14
  663.1 14.64 14
  663.2 13.14 13
  663.3 11.22 11
  663.5 8.9 8
  663.6 9.81 9
  663.7 12.43 12
  663.8 15.03 15
  663.9 15.46 15
  664.7 10.29 10
  664.8 11.84 11
  664.9 12.36 12
  665.0 11.67 11
  665.1 10.3 10
  665.4 7.91 7
  665.5 10.97 10
  665.6 13.89 13
  665.7 14.19 14
  665.8 12.37 12
  665.9 10.85 10
  666.0 10.56 10
  666.1 10.07 10
  666.4 6.73 6
  666.5 10.25 10
  666.6 13.85 13
  666.7 14.32 14
  666.8 11.44 11
  667.1 9.01 9
  667.2 11.17 11
  667.3 12.76 12
  667.4 13.61 13
  667.5 13.35 13
  667.7 11.19 11
  667.8 12.54 12
  667.9 15.04 15
  668.0 16.14 16
  668.1 15.02 15
  668.7 13.09 13
  668.8 14.85 14
  668.9 16.44 16
  669.0 17.52 17
  669.1 18.58 18
  669.2 19.2 19
  669.3 18.29 18
  669.4 15.91 15
  669.6 13.25 13
  669.7 14.88 14
  669.8 17.02 17
  669.9 17.75 17
  670.0 16.17 16
  670.1 13.18 13
  670.3 10.42 10
  670.4 12.13 12
  670.5 14.12 14
  670.6 15.23 15
  670.7 15.5 15
  670.8 14.81 14
  670.9 12.9 12
  671.0 10.34 10
  671.3 9.18 9
  671.4 10.04 10
  671.5 11.3 11
  671.6 13.32 13
  671.7 15.56 15
  671.8 16.88 16
  671.9 16.12 16
  672.0 13.5 13
  672.3 10.1 10
  672.4 13.12 13
  672.5 16.39 16
  672.6 18.17 18
  672.7 17.73 17
  672.8 15.47 15
  672.9 12.26 12
  673.0 9.24 9
  673.2 8.46 8
  673.3 9.96 9
  673.4 10.69 10
  673.5 10.53 10
  673.6 10.59 10
  673.7 11.6 11
  673.8 13.01 12
  673.9 13.7 13
  674.0 12.86 12
  674.1 11.0 10
  674.7 9.2 9
  674.8 10.43 10
  674.9 11.86 11
  675.0 12.92 12
  675.1 13.63 13
  675.2 14.05 14
  675.3 14.52 14
  675.4 15.24 15
  675.5 15.57 15
  675.6 14.32 14
  675.7 11.37 11
  675.8 8.03 8
  676.0 5.68 5
  676.1 7.42 7
  676.2 10.24 10
  676.3 12.56 12
  676.4 12.9 12
  676.5 11.53 11
  676.6 10.08 10
  677.0 9.85 9
  677.1 10.47 10
  677.2 11.34 11
  677.3 11.19 11
  677.4 10.24 10
  677.5 10.35 10
  677.6 12.62 12
  677.7 15.31 15
  677.8 15.51 15
  677.9 12.87 12
  678.1 11.53 11
  678.2 14.54 14
  678.3 15.76 15
  678.4 13.62 13
  678.5 10.36 10
  678.7 9.72 9
  678.8 11.07 11
  678.9 11.7 11
  679.0 11.95 11
  679.1 12.68 12
  679.2 13.98 13
  679.3 15.03 15
  679.4 15.13 15
  679.5 14.44 14
  679.6 13.39 13
  679.7 12.09 12
  679.8 10.38 10
  680.1 8.33 8
  680.2 10.83 10
  680.3 13.67 13
  680.4 14.75 14
  680.5 12.94 12
  680.6 9.05 9
  680.9 6.28 6
  681.0 9.7 9
  681.1 12.22 12
  681.2 12.57 12
  681.3 11.06 11
  681.5 8.99 8
  681.6 10.19 10
  681.7 11.88 11
  681.8 12.79 12
  681.9 12.68 12
  682.0 12.0 11
  682.1 11.05 11
  682.2 9.99 9
  682.5 9.48 9
  682.6 10.19 10
  682.7 11.46 11
  682.8 12.68 12
  682.9 12.3 12
  683.0 9.99 9
  683.2 7.69 7
  683.3 9.15 9
  683.4 10.48 10
  683.5 11.66 11
  683.6 13.72 13
  683.7 16.28 16
  683.8 17.85 17
  683.9 17.89 17
  684.0 17.14 17
  684.1 16.05 16
  684.2 14.22 14
  684.4 11.24 11
  684.5 12.74 12
  684.6 15.63 15
  684.7 17.61 17
  684.8 17.1 17
  684.9 15.04 15
  685.0 13.57 13
  686.4 11.12 11
  686.5 12.02 12
  686.6 12.54 12
  686.7 12.54 12
  686.8 12.59 12
  686.9 13.33 13
  687.0 14.5 14
  687.1 14.93 14
  687.2 14.03 14
  688.2 6.99 6
  688.3 9.4 9
  688.4 12.29 12
  688.5 13.74 13
  688.6 14.09 14
  688.7 14.19 14
  688.8 14.04 14
  688.9 13.24 13
  689.0 11.62 11
  689.1 9.64 9
  689.3 8.72 8
  689.4 10.53 10
  689.5 12.29 12
  689.6 12.96 12
  689.7 12.95 12
  689.8 12.79 12
  689.9 12.36 12
  690.0 11.38 11
  690.1 9.45 9
  690.3 5.89 5
  690.4 7.5 7
  690.5 11.13 11
  690.6 14.33 14
  690.7 15.46 15
  690.8 14.5 14
  690.9 12.64 12
  692.0 8.29 8
  692.1 10.02 10
  692.2 11.95 11
  692.3 12.79 12
  692.4 12.13 12
  693.3 6.72 6
  693.4 8.83 8
  693.5 10.2 10
  693.8 8.58 8
  693.9 10.56 10
  694.0 12.65 12
  694.1 13.45 13
  694.2 13.16 13
  694.3 13.06 13
  694.4 13.59 13
  694.5 13.87 13
  694.6 13.25 13
  694.7 11.89 11
  694.8 10.14 10
  695.0 9.05 9
  695.1 10.79 10
  695.2 12.31 12
  695.3 12.58 12
  695.4 12.35 12
  695.5 12.9 12
  695.6 14.14 14
  695.7 14.84 14
  695.8 14.03 14
  695.9 11.97 11
  696.8 9.92 9
  696.9 12.04 12
  697.0 13.47 13
  697.1 12.91 12
  697.4 12.05 12
  697.5 13.03 13
  697.6 14.49 14
  697.7 16.99 16
  697.8 19.43 19
  697.9 19.36 19
  698.0 15.13 15
  698.1 8.08 8
  698.2 2.04 2
  698.4 1.89 1
  698.5 5.55 5
  698.6 8.9 8
  698.7 11.01 10
  698.8 11.84 11
  698.9 11.93 11
  699.0 12.05 12
  699.1 12.47 12
  699.2 13.03 13
  699.3 13.92 13
  699.4 15.6 15
  699.5 17.85 17
  699.6 19.45 19
  699.7 19.51 19
  699.8 18.58 18
  699.9 17.61 17
  700.0 16.52 16
  700.1 14.64 14
  700.4 11.81 11
  700.5 14.1 14
  700.6 17.18 17
  700.7 19.4 19
  700.8 19.03 19
  700.9 15.89 15
  701.0 12.15 12
  701.6 11.46 11
  701.7 12.02 12
  701.8 12.96 12
  701.9 14.52 14
  702.0 16.61 16
  702.1 18.59 18
  702.2 19.37 19
  702.3 18.12 18
  702.4 14.85 14
  702.5 10.81 10
  703.0 11.39 11
  703.1 11.0 10
  703.2 11.44 11
  703.3 14.14 14
  703.4 17.35 17
  703.5 17.51 17
  703.6 14.2 14
  703.7 10.64 10
  703.8 9.72 9
  703.9 10.64 10
  704.0 10.69 10
  704.2 7.5 7
  704.3 8.72 8
  704.4 12.56 12
  704.5 15.95 15
  704.6 16.05 16
  704.7 13.52 13
  705.5 8.23 8
  705.6 9.94 9
  705.7 11.94 11
  705.8 13.73 13
  705.9 15.07 15
  706.0 15.17 15
  706.1 13.05 13
  706.2 9.43 9
  706.4 7.45 7
  706.5 10.02 10
  706.6 12.15 12
  706.7 12.56 12
  706.8 12.0 11
  706.9 11.64 11
  707.0 12.14 12
  707.1 13.66 13
  707.2 15.18 15
  707.3 15.23 15
  707.4 13.38 13
  707.5 10.88 10
  707.6 9.05 9
  707.8 8.41 8
  707.9 9.47 9
  708.0 11.03 11
  708.1 13.6 13
  708.2 18.12 18
  708.3 23.2 23
  708.4 24.72 24
  708.5 21.21 21
  708.6 15.74 15
  708.7 11.64 11
  708.8 9.28 9
  709.0 8.73 8
  709.1 10.37 10
  709.2 11.84 11
  709.3 12.86 12
  709.4 13.92 13
  709.5 14.57 14
  709.6 13.43 13
  709.9 9.71 9
  710.0 12.89 12
  710.1 14.44 14
  710.2 12.81 12
  711.4 11.45 11
  711.5 12.87 12
  711.6 15.14 15
  711.7 15.5 15
  711.8 12.6 12
  711.9 8.78 8
  712.5 7.09 7
  712.6 9.06 9
  712.7 11.76 11
  712.8 13.09 13
  712.9 12.67 12
  713.0 11.93 11
  713.1 12.18 12
  713.2 13.27 13
  713.3 14.16 14
  713.4 13.85 13
  713.5 12.13 12
  713.6 10.29 10
  713.8 10.32 10
  713.9 10.92 10
  714.0 11.22 11
  714.1 11.92 11
  714.2 13.07 13
  714.3 13.98 13
  714.4 14.31 14
  714.5 14.79 14
  714.6 16.0 15
  714.7 17.28 17
  714.8 16.83 16
  714.9 13.89 13
  715.2 11.03 11
  715.3 13.92 13
  715.4 15.88 15
  715.5 16.45 16
  715.6 16.22 16
  715.7 15.93 15
  715.8 16.44 16
  715.9 17.69 17
  716.0 18.5 18
  716.1 17.52 17
  716.2 15.29 15
  716.3 13.6 13
  716.4 12.92 12
  716.5 12.4 12
  716.8 11.48 11
  716.9 12.52 12
  717.0 13.18 13
  717.1 12.73 12
  717.2 11.32 11
  717.3 9.62 9
  717.5 8.28 8
  717.6 9.11 9
  717.7 10.75 10
  717.8 12.91 12
  717.9 14.79 14
  718.0 15.26 15
  718.1 14.25 14
  718.2 12.78 12
  718.4 12.22 12
  718.5 12.95 12
  718.6 13.44 13
  718.7 13.12 13
  718.8 12.1 12
  719.0 10.89 10
  719.1 11.98 11
  719.2 13.62 13
  719.3 14.15 14
  719.4 12.76 12
  720.2 6.03 6
  720.3 7.9 7
  720.4 10.9 10
  720.5 13.25 13
  720.6 13.84 13
  720.7 12.71 12
  720.8 10.84 10
  721.0 8.74 8
  721.1 10.15 10
  721.2 12.94 12
  721.3 14.92 14
  721.4 14.22 14
  721.5 11.71 11
  722.3 10.61 10
  722.4 12.32 12
  722.5 14.88 14
  722.6 16.79 16
  722.7 16.87 16
  722.8 15.53 15
  722.9 13.76 13
  724.5 7.53 7
  724.6 8.84 8
  724.7 10.26 10
  724.8 12.22 12
  724.9 13.95 13
  725.0 13.55 13
  725.1 10.74 10
  725.2 7.85 7
  725.4 7.72 7
  725.5 8.73 8
  725.6 9.0 8
  725.7 8.71 8
  725.8 8.95 8
  725.9 10.61 10
  726.0 12.85 12
  726.1 13.4 13
  726.2 11.29 11
  726.3 8.46 8
  726.5 7.96 7
  726.6 8.8 8
  726.7 9.12 9
  726.8 9.54 9
  726.9 10.83 10
  727.0 12.74 12
  727.1 13.67 13
  727.2 12.51 12
  728.0 9.22 9
  728.1 13.25 13
  728.2 15.93 15
  728.3 14.54 14
  728.4 10.56 10
  728.6 8.99 8
  728.7 10.77 10
  728.8 10.59 10
  728.9 9.1 9
  729.0 8.97 8
  729.1 10.96 10
  729.2 12.73 12
  729.3 12.3 12
  730.0 10.37 10
  730.1 11.44 11
  730.2 13.39 13
  730.3 14.76 14
  730.4 14.73 14
  731.3 8.67 8
  731.4 10.59 10
  731.5 12.48 12
  731.6 13.47 13
  731.7 14.26 14
  731.8 15.44 15
  731.9 16.25 16
  732.0 15.0 14
  732.1 11.67 11
  732.3 8.18 8
  732.4 10.46 10
  732.5 12.78 12
  732.6 13.07 13
  732.7 12.05 12
  733.0 11.39 11
  733.1 11.73 11
  733.2 12.85 12
  733.3 13.78 13
  733.4 13.38 13
  733.5 12.18 12
  734.3 9.64 9
  734.4 10.78 10
  734.5 11.92 11
  734.6 12.0 11
  734.7 11.79 11
  734.8 12.41 12
  734.9 13.67 13
  735.0 14.66 14
  735.1 14.86 14
  735.2 13.56 13
  735.3 10.64 10
  735.5 8.02 8
  735.6 10.41 10
  735.7 12.58 12
  735.8 12.8 12
  735.9 11.81 11
  736.0 11.08 11
  736.1 10.97 10
  736.2 10.64 10
  736.5 9.12 9
  736.6 10.69 10
  736.7 12.18 12
  736.8 12.47 12
  736.9 11.61 11
  737.0 10.64 10
  737.1 10.13 10
  737.2 9.7 9
  737.3 8.58 8
  737.5 6.49 6
  737.6 7.96 7
  737.7 10.54 10
  737.8 12.16 12
  737.9 12.4 12
  738.0 12.59 12
  738.1 13.17 13
  738.2 12.62 12
  738.3 10.25 10
  738.5 8.41 8
  738.6 10.46 10
  738.7 12.15 12
  738.8 12.22 12
  738.9 10.86 10
  739.0 8.99 8
  739.3 7.0 6
  739.4 8.29 8
  739.5 10.24 10
  739.6 12.56 12
  739.7 14.44 14
  739.8 14.42 14
  739.9 11.81 11
  740.1 7.98 7
  740.2 10.81 10
  740.3 14.36 14
  740.4 15.36 15
  740.5 13.6 13
  740.8 11.66 11
  740.9 12.8 12
  741.0 13.55 13
  741.1 13.82 13
  741.2 13.71 13
  741.3 13.23 13
  741.4 12.08 12
  742.7 7.9 7
  742.8 9.37 9
  742.9 10.63 10
  743.0 10.94 10
  743.1 10.52 10
  743.2 9.7 9
  743.5 8.4 8
  743.6 9.5 9
  743.7 10.64 10
  743.8 10.58 10
  743.9 9.4 9
  744.5 8.4 8
  744.6 9.91 9
  744.7 11.13 11
  744.8 11.06 11
  744.9 9.33 9
  745.0 6.74 6
  745.2 5.7 5
  745.3 7.77 7
  745.4 10.48 10
  745.5 13.34 13
  745.6 15.69 15
  745.7 16.8 16
  745.8 16.27 16
  745.9 14.09 14
  746.2 11.18 11
  746.3 15.15 15
  746.4 18.49 18
  746.5 19.47 19
  746.6 18.7 18
  746.7 17.45 17
  746.8 16.03 16
  746.9 14.27 14
  747.1 12.48 12
  747.2 13.83 13
  747.3 15.23 15
  747.4 15.0 14
  747.5 13.11 13
  748.5 9.28 9
  748.6 10.42 10
  748.7 13.7 13
  748.8 17.48 17
  748.9 19.7 19
  749.0 18.97 18
  749.1 15.89 15
  749.2 12.74 12
//
