ACCESSION: MSBNK-RIKEN_NPDepo-NGA01624
RECORD_TITLE: Resistomycin; LC-ESI-QQQ; MS2; Frag=135.0V CID@5.0; [M+H]+
DATE: 2018.04.04
AUTHORS: Nogawa T, Okano A, CSRS, RIKEN
LICENSE: CC BY
COMMENT: Origin: Microbe, Organic chemicals, Polycyclic compounds, Pyrenes
CH$NAME: Resistomycin
CH$COMPOUND_CLASS: Polycyclic aromatic natural products
CH$FORMULA: C22H16O6
CH$EXACT_MASS: 376.3692
CH$SMILES: Cc1cc(O)c2c3c4c(cc(O)c13)C(C)(C)C(=O)c1c(O)cc(O)c(c1-4)C2=O
CH$IUPAC: InChI=1S/C22H16O6/c1-7-4-9(23)15-18-13(7)10(24)5-8-14(18)19-16(20(15)27)11(25)6-12(26)17(19)21(28)22(8,2)3/h4-6,23-26H,1-3H3
CH$LINK: CAS 20004-62-0
CH$LINK: CHEMSPIDER 4445287
CH$LINK: INCHIKEY ABLACSIRCKEUOB-UHFFFAOYSA-N
CH$LINK: COMPTOX DTXSID4046101
AC$INSTRUMENT: Agilent 6410 Triple Quadrupole LC/MS system
AC$INSTRUMENT_TYPE: LC-ESI-QQQ
AC$MASS_SPECTROMETRY: MS_TYPE MS2
AC$MASS_SPECTROMETRY: ION_MODE POSITIVE
MS$FOCUSED_ION: PRECURSOR_TYPE [M+H]+
PK$SPLASH: splash10-004i-0009000000-c58cdfb9edf0ffc3a728
PK$NUM_PEAK: 16
PK$PEAK: m/z int. rel.int.
  376.2 1.19 1
  376.3 2.92 2
  376.4 6.13 6
  376.5 10.99 10
  376.6 18.31 18
  376.7 29.8 29
  376.8 46.62 46
  376.9 66.98 66
  377.0 85.74 85
  377.1 97.58 97
  377.2 100.0 99
  377.3 91.94 91
  377.4 72.23 72
  377.5 43.57 43
  377.6 15.74 15
  377.7 0.22 0
//
