ACCESSION: MSBNK-RIKEN_NPDepo-NGA03818
RECORD_TITLE: Guan-fu base Y; LC-ESI-QQQ; MS2; Frag=135.0V CID@10.0; [M+HCOO]-
DATE: 2018.04.04
AUTHORS: Nogawa T, Okano A, CSRS, RIKEN
LICENSE: CC BY
COMMENT: Origin: Plant
COMMENT: Formula(Parent): C22H29NO5
COMMENT: Bottle Name:Guan-fu base Y
COMMENT: PRIME Parent Name:Guan-fu base Y
COMMENT: PRIME in-house No.:V0331
COMMENT: SubCategory_DNP: Terpenoid alkaloids, Diterpene alkaloid, Aconitum alkaloid
CH$NAME: Guanfu base Y
CH$NAME: 11,13,14-trihydroxyhetisan-2-yl acetate
CH$NAME: (1S,3S,16S,19S,10R,14R)-9,10,19-trihydroxy-5-methyl-12-methylene-7-azaheptacyclo(9.6.2.0(1,8).0(5,17).0(7,16).0(9,14).0(14,18))nonadec-3-yl acetate
CH$NAME: Guan-fu base Y
CH$COMPOUND_CLASS: Alkaloids
CH$FORMULA: C22H29NO5
CH$EXACT_MASS: 387.4801
CH$SMILES: C=C1C[C@@]23CC4C5C6(C)C[C@H](OC(C)=O)CC57C2[C@H](O)C1[C@@H](O)[C@]3(O)[C@H]7N4C6
CH$IUPAC: InChI=1S/C22H29NO5/c1-9-4-20-7-12-15-19(3)5-11(28-10(2)24)6-21(15)16(20)14(25)13(9)17(26)22(20,27)18(21)23(12)8-19/h11-18,25-27H,1,4-8H2,2-3H3/t11-,12?,13?,14+,15?,16?,17+,18-,19?,20+,21?,22-/m0/s1
CH$LINK: CAS 110225-59-7
CH$LINK: CHEMSPIDER 20181446
CH$LINK: INCHIKEY XGTNTUKODZZCGL-FDLOETHHSA-N
AC$INSTRUMENT: Agilent 6410 Triple Quadrupole LC/MS system
AC$INSTRUMENT_TYPE: LC-ESI-QQQ
AC$MASS_SPECTROMETRY: MS_TYPE MS2
AC$MASS_SPECTROMETRY: ION_MODE NEGATIVE
MS$FOCUSED_ION: PRECURSOR_TYPE [M+HCOO]-
PK$SPLASH: splash10-001i-4888980000-160ea65d4f932b0d8ffd
PK$NUM_PEAK: 4299
PK$PEAK: m/z int. rel.int.
  50.8 8.2 8
  50.9 14.43 14
  51.0 20.29 20
  51.1 20.5 20
  51.2 15.4 15
  51.4 9.99 9
  51.5 15.06 15
  51.6 21.05 21
  51.7 22.43 22
  51.8 17.32 17
  51.9 9.38 9
  52.1 7.41 7
  52.2 14.65 14
  52.3 20.36 20
  52.4 19.98 19
  52.5 14.49 14
  52.7 8.82 8
  52.8 13.39 13
  52.9 18.48 18
  53.0 19.28 19
  53.1 15.27 15
  53.3 9.53 9
  53.4 13.14 13
  53.5 18.4 18
  53.6 20.91 20
  53.7 17.84 17
  53.8 10.68 10
  54.0 6.51 6
  54.1 14.31 14
  54.2 22.2 22
  54.3 23.71 23
  54.4 18.28 18
  54.6 9.58 9
  54.7 14.24 14
  54.8 20.97 20
  54.9 23.35 23
  55.0 18.66 18
  55.1 10.47 10
  55.3 7.1 7
  55.4 13.53 13
  55.5 18.68 18
  55.6 17.82 17
  55.7 11.38 11
  55.9 3.83 3
  56.0 10.2 10
  56.1 18.67 18
  56.2 21.88 21
  56.3 17.33 17
  56.6 9.88 9
  56.7 17.56 17
  56.8 22.0 21
  56.9 19.18 19
  57.0 11.8 11
  57.2 7.52 7
  57.3 15.15 15
  57.4 23.45 23
  57.5 25.6 25
  57.6 19.65 19
  57.7 10.91 10
  57.9 10.74 10
  58.0 17.85 17
  58.1 21.68 21
  58.2 19.17 19
  58.3 13.13 13
  58.5 10.99 10
  58.6 16.06 16
  58.7 19.33 19
  58.8 17.67 17
  58.9 12.66 12
  59.1 10.31 10
  59.2 16.48 16
  59.3 23.23 23
  59.4 25.32 25
  59.5 20.55 20
  59.6 11.99 11
  59.8 7.42 7
  59.9 14.49 14
  60.0 20.77 20
  60.1 20.55 20
  60.2 14.14 14
  60.4 5.63 5
  60.5 10.41 10
  60.6 17.33 17
  60.7 20.39 20
  60.8 16.95 16
  61.1 9.19 9
  61.2 16.35 16
  61.3 20.99 20
  61.4 18.72 18
  61.7 10.66 10
  61.8 18.78 18
  61.9 24.62 24
  62.0 22.43 22
  62.1 13.57 13
  62.3 5.07 5
  62.4 12.58 12
  62.5 21.64 21
  62.6 25.12 25
  62.7 21.34 21
  62.8 14.97 14
  63.0 14.38 14
  63.1 19.32 19
  63.2 21.8 21
  63.3 19.0 18
  63.4 12.81 12
  63.6 9.0 8
  63.7 14.03 14
  63.8 18.63 18
  63.9 18.79 18
  64.0 14.56 14
  64.2 9.94 9
  64.3 14.64 14
  64.4 20.2 20
  64.5 21.7 21
  64.6 17.61 17
  64.7 10.6 10
  64.9 7.19 7
  65.0 14.95 14
  65.1 23.21 23
  65.2 24.77 24
  65.3 18.16 18
  66.2 9.11 9
  66.3 17.41 17
  66.4 22.77 22
  66.5 20.51 20
  66.6 12.88 12
  66.8 7.39 7
  66.9 13.97 13
  67.0 20.5 20
  67.1 21.28 21
  67.2 16.01 15
  67.5 10.31 10
  67.6 16.59 16
  67.7 20.89 20
  67.8 19.05 19
  67.9 11.85 11
  68.1 6.99 6
  68.2 15.2 15
  68.3 22.61 22
  68.4 22.04 22
  68.5 14.24 14
  68.7 6.23 6
  68.8 12.76 12
  68.9 20.29 20
  69.0 22.34 22
  69.1 17.45 17
  69.4 10.25 10
  69.5 17.38 17
  69.6 22.38 22
  69.7 21.5 21
  69.8 15.84 15
  70.0 9.09 9
  70.1 13.04 13
  70.2 18.03 18
  70.3 19.32 19
  70.4 15.97 15
  70.6 9.75 9
  70.7 12.38 12
  70.8 17.25 17
  70.9 19.73 19
  71.0 16.34 16
  71.1 9.0 8
  71.3 6.61 6
  71.4 14.31 14
  71.5 20.29 20
  71.6 19.48 19
  71.7 13.17 13
  71.9 8.08 8
  72.0 14.18 14
  72.1 20.59 20
  72.2 21.67 21
  72.3 16.47 16
  72.5 7.3 7
  72.6 11.92 11
  72.7 19.37 19
  72.8 23.0 22
  72.9 19.58 19
  73.0 12.3 12
  73.2 10.29 10
  73.3 17.04 17
  73.4 22.01 21
  73.5 20.72 20
  73.6 13.93 13
  73.8 5.32 5
  73.9 10.7 10
  74.0 18.93 18
  74.1 23.13 23
  74.2 19.43 19
  74.3 11.03 11
  74.5 7.99 7
  74.6 16.14 16
  74.7 23.1 23
  74.8 23.8 23
  74.9 18.69 18
  75.8 11.59 11
  75.9 17.29 17
  76.0 20.66 20
  76.1 18.45 18
  76.2 12.34 12
  76.4 9.8 9
  76.5 17.01 16
  76.6 22.94 22
  76.7 21.61 21
  76.8 13.14 13
  77.0 2.26 2
  77.1 8.47 8
  77.2 17.71 17
  77.3 22.66 22
  77.4 19.53 19
  77.5 11.11 11
  77.7 6.76 6
  77.8 15.16 15
  77.9 22.78 22
  78.0 23.37 23
  78.1 17.44 17
  78.3 9.63 9
  78.4 14.84 14
  78.5 21.88 21
  78.6 24.27 24
  78.7 19.67 19
  78.8 12.09 12
  79.0 10.33 10
  79.1 16.89 16
  79.2 21.92 21
  79.3 20.5 20
  79.4 13.06 13
  79.6 6.32 6
  79.7 13.96 13
  79.8 21.83 21
  79.9 22.26 22
  80.0 14.3 14
  80.3 5.69 5
  80.4 14.81 14
  80.5 20.39 20
  80.6 18.38 18
  80.7 11.92 11
  80.9 10.09 10
  81.0 15.53 15
  81.1 18.74 18
  81.2 16.96 16
  81.3 12.14 12
  81.5 9.56 9
  81.6 14.91 14
  81.7 20.95 20
  81.8 22.5 22
  81.9 17.3 17
  82.1 5.79 5
  82.2 10.19 10
  82.3 19.02 19
  82.4 24.87 24
  82.5 22.9 22
  82.6 14.56 14
  82.8 5.0 4
  82.9 11.28 11
  83.0 19.57 19
  83.1 22.3 22
  83.2 17.14 17
  83.5 9.31 9
  83.6 16.66 16
  83.7 20.76 20
  83.8 18.16 18
  83.9 11.44 11
  84.1 8.88 8
  84.2 15.83 15
  84.3 21.32 21
  84.4 20.1 20
  84.5 13.69 13
  84.7 10.04 10
  84.8 15.52 15
  84.9 20.26 20
  85.0 20.81 20
  85.1 17.19 17
  85.4 11.46 11
  85.5 15.92 15
  85.6 18.99 18
  85.7 17.89 17
  85.8 13.65 13
  86.0 11.44 11
  86.1 16.75 16
  86.2 21.71 21
  86.3 21.31 21
  86.4 15.04 15
  86.6 5.9 5
  86.7 10.42 10
  86.8 16.82 16
  86.9 19.04 19
  87.0 15.19 15
  87.2 7.71 7
  87.3 12.46 12
  87.4 19.71 19
  87.5 22.52 22
  87.6 17.38 17
  87.9 6.74 6
  88.0 16.59 16
  88.1 24.84 24
  88.2 25.26 25
  88.3 18.12 18
  88.6 9.61 9
  88.7 16.39 16
  88.8 19.66 19
  88.9 16.59 16
  89.0 10.31 10
  89.2 7.82 7
  89.3 13.89 13
  89.4 19.88 19
  89.5 20.73 20
  89.6 15.4 15
  89.8 5.98 5
  89.9 10.4 10
  90.0 17.91 17
  90.1 21.88 21
  90.2 18.51 18
  90.3 10.32 10
  90.5 6.19 6
  90.6 14.52 14
  90.7 21.99 21
  90.8 21.71 21
  90.9 13.82 13
  91.1 3.19 3
  91.2 9.72 9
  91.3 19.22 19
  91.4 23.46 23
  91.5 18.76 18
  91.6 9.67 9
  91.8 8.69 8
  91.9 16.36 16
  92.0 20.12 20
  92.1 16.75 16
  92.2 9.67 9
  92.4 7.37 7
  92.5 15.2 15
  92.6 23.01 22
  92.7 24.81 24
  92.8 19.88 19
  93.6 6.31 6
  93.7 10.41 10
  93.8 18.23 18
  93.9 22.96 22
  94.0 20.75 20
  94.1 14.06 14
  94.3 8.67 8
  94.4 13.96 13
  94.5 20.56 20
  94.6 23.24 23
  94.7 19.38 19
  94.8 11.79 11
  95.0 8.66 8
  95.1 15.51 15
  95.2 21.22 21
  95.3 20.69 20
  95.4 14.25 14
  95.6 6.64 6
  95.7 12.7 12
  95.8 20.43 20
  95.9 22.6 22
  96.0 16.86 16
  96.3 8.31 8
  96.4 15.93 15
  96.5 20.21 20
  96.6 17.65 17
  96.7 11.1 11
  96.9 9.33 9
  97.0 16.56 16
  97.1 22.34 22
  97.2 21.3 21
  97.3 13.84 13
  97.5 5.32 5
  97.6 11.68 11
  97.7 19.64 19
  97.8 22.06 22
  97.9 16.92 16
  98.2 8.95 8
  98.3 15.83 15
  98.4 20.81 20
  98.5 20.11 20
  98.6 14.23 14
  98.8 9.37 9
  98.9 16.47 16
  99.0 22.71 22
  99.1 21.53 21
  99.2 13.85 13
  99.4 5.11 5
  99.5 10.75 10
  99.6 19.09 19
  99.7 23.64 23
  99.8 20.51 20
  99.9 12.52 12
  100.1 7.92 7
  100.2 14.01 13
  100.3 18.84 18
  100.4 17.88 17
  100.5 11.91 11
  100.7 7.42 7
  100.8 14.23 14
  100.9 21.21 21
  101.0 22.55 22
  101.1 17.65 17
  101.4 10.43 10
  101.5 16.51 16
  101.6 20.86 20
  101.7 19.51 19
  101.8 13.37 13
  102.0 7.62 7
  102.1 12.94 12
  102.2 18.67 18
  102.3 19.45 19
  102.4 14.47 14
  102.6 6.41 6
  102.7 10.58 10
  102.8 16.81 16
  102.9 19.56 19
  103.0 16.55 16
  103.2 7.93 7
  103.3 11.36 11
  103.4 19.14 19
  103.5 25.11 25
  103.6 24.07 24
  103.7 16.42 16
  103.9 5.28 5
  104.0 10.18 10
  104.1 18.36 18
  104.2 22.57 22
  104.3 19.25 19
  104.4 11.99 11
  104.6 10.77 10
  104.7 17.48 17
  104.8 21.71 21
  104.9 19.43 19
  105.0 12.23 12
  105.2 6.39 6
  105.3 12.09 12
  105.4 18.03 18
  105.5 19.09 19
  105.6 14.37 14
  105.8 6.96 6
  105.9 12.76 12
  106.0 21.02 20
  106.1 24.2 24
  106.2 19.34 19
  106.3 10.83 10
  106.5 7.57 7
  106.6 14.13 14
  106.7 19.59 19
  106.8 19.2 19
  106.9 13.02 13
  107.1 3.74 3
  107.2 7.87 7
  107.3 14.64 14
  107.4 18.26 18
  107.5 15.68 15
  107.6 9.34 9
  107.8 7.12 7
  107.9 12.77 12
  108.0 16.7 16
  108.1 16.2 16
  108.4 13.45 13
  108.5 16.39 16
  108.6 19.54 19
  108.7 21.01 20
  108.8 19.13 19
  108.9 14.76 14
  109.6 8.16 8
  109.7 12.39 12
  109.8 20.92 20
  109.9 26.46 26
  110.0 23.35 23
  110.1 13.4 13
  110.3 3.51 3
  110.4 10.04 10
  110.5 18.47 18
  110.6 22.37 22
  110.7 19.02 19
  110.8 11.36 11
  111.0 7.96 7
  111.1 15.44 15
  111.2 21.59 21
  111.3 21.04 21
  111.4 14.82 14
  111.6 8.95 8
  111.7 14.42 14
  111.8 20.32 20
  111.9 21.02 20
  112.0 15.75 15
  112.2 7.27 7
  112.3 11.7 11
  112.4 18.21 18
  112.5 21.04 21
  112.6 18.28 18
  112.7 13.03 13
  112.9 11.07 11
  113.0 15.12 15
  113.1 18.92 18
  113.2 19.34 19
  113.3 15.69 15
  113.5 9.74 9
  113.6 13.86 13
  113.7 20.39 20
  113.8 23.64 23
  113.9 19.98 19
  114.0 11.62 11
  114.2 7.41 7
  114.3 15.71 15
  114.4 22.78 22
  114.5 21.68 21
  114.6 13.15 13
  114.8 5.96 5
  114.9 14.26 14
  115.0 22.91 22
  115.1 25.24 25
  115.2 20.73 20
  115.3 13.9 13
  115.5 11.29 11
  115.6 15.64 15
  115.7 18.32 18
  115.8 16.18 16
  116.0 9.17 9
  116.1 13.06 13
  116.2 20.4 20
  116.3 25.09 25
  116.4 22.34 22
  116.5 13.25 13
  116.7 3.27 3
  116.8 10.19 10
  116.9 19.04 19
  117.0 22.38 22
  117.1 18.27 18
  117.2 11.1 11
  117.4 9.27 9
  117.5 14.56 14
  117.6 17.3 17
  117.7 14.23 14
  118.0 7.08 7
  118.1 15.47 15
  118.2 22.68 22
  118.3 23.04 23
  118.4 16.42 16
  119.2 7.17 7
  119.3 10.57 10
  119.4 18.25 18
  119.5 23.92 23
  119.6 22.3 22
  119.7 14.0 13
  119.9 5.36 5
  120.0 13.13 13
  120.1 22.86 22
  120.2 26.92 26
  120.3 22.91 22
  120.4 14.76 14
  120.6 9.53 9
  120.7 14.75 14
  120.8 19.31 19
  120.9 18.84 18
  121.0 14.11 14
  121.2 9.74 9
  121.3 14.48 14
  121.4 19.88 19
  121.5 20.78 20
  121.6 15.62 15
  121.8 6.83 6
  121.9 11.54 11
  122.0 18.15 18
  122.1 20.47 20
  122.2 16.91 16
  122.4 9.04 9
  122.5 12.32 12
  122.6 18.8 18
  122.7 22.8 22
  122.8 20.12 20
  122.9 12.19 12
  123.1 6.11 6
  123.2 12.94 12
  123.3 20.02 19
  123.4 21.61 21
  123.5 17.12 17
  123.7 9.92 9
  123.8 14.78 14
  123.9 21.3 21
  124.0 23.18 23
  124.1 18.25 18
  124.2 10.18 10
  124.4 6.72 6
  124.5 13.92 13
  124.6 21.05 21
  124.7 22.35 22
  124.8 16.94 16
  125.0 7.01 7
  125.1 11.97 11
  125.2 20.8 20
  125.3 25.92 25
  125.4 22.71 22
  125.5 14.54 14
  125.7 12.46 12
  125.8 19.42 19
  125.9 23.37 23
  126.0 21.04 21
  126.1 14.76 14
  126.9 8.81 8
  127.0 12.2 12
  127.1 18.25 18
  127.2 22.82 22
  127.3 22.17 22
  127.4 16.09 16
  128.2 4.84 4
  128.3 8.86 8
  128.4 17.26 17
  128.5 23.16 23
  128.6 21.92 21
  128.7 15.18 15
  128.9 9.88 9
  129.0 15.15 15
  129.1 18.9 18
  129.2 16.5 16
  129.3 9.85 9
  129.5 5.65 5
  129.6 11.0 10
  129.7 16.46 16
  129.8 17.81 17
  129.9 14.16 14
  130.1 6.57 6
  130.2 10.25 10
  130.3 17.24 17
  130.4 22.14 22
  130.5 21.21 21
  130.6 15.55 15
  130.8 10.83 10
  130.9 16.4 16
  131.0 21.35 21
  131.1 20.36 20
  131.2 14.28 14
  131.4 8.94 8
  131.5 14.01 13
  131.6 19.69 19
  131.7 21.22 21
  131.8 17.28 17
  132.1 10.33 10
  132.2 16.28 16
  132.3 20.38 20
  132.4 19.34 19
  132.5 14.57 14
  132.7 9.93 9
  132.8 13.15 13
  132.9 16.86 16
  133.0 17.19 17
  133.1 13.05 13
  133.3 6.84 6
  133.4 11.6 11
  133.5 18.57 18
  133.6 21.67 21
  133.7 17.47 17
  133.8 8.42 8
  134.0 2.23 2
  134.1 10.35 10
  134.2 19.01 18
  134.3 21.24 21
  134.4 15.91 15
  134.7 8.76 8
  134.8 15.73 15
  134.9 20.48 20
  135.0 19.65 19
  135.1 14.82 14
  135.3 10.25 10
  135.4 13.37 13
  135.5 16.55 16
  135.6 16.4 16
  135.7 12.62 12
  135.9 7.96 7
  136.0 12.53 12
  136.1 18.43 18
  136.2 20.22 20
  136.3 16.09 16
  136.6 9.34 9
  136.7 16.49 16
  136.8 21.71 21
  136.9 20.64 20
  137.0 14.43 14
  137.2 8.65 8
  137.3 14.07 14
  137.4 20.21 20
  137.5 21.48 21
  137.6 16.47 16
  137.7 9.22 9
  137.9 8.25 8
  138.0 14.42 14
  138.1 18.33 18
  138.2 16.2 16
  138.3 10.04 10
  138.5 7.95 7
  138.6 15.26 15
  138.7 21.68 21
  138.8 21.62 21
  138.9 15.25 15
  139.1 7.48 7
  139.2 13.03 13
  139.3 19.85 19
  139.4 21.73 21
  139.5 17.1 17
  139.8 10.22 10
  139.9 16.93 16
  140.0 21.23 21
  140.1 18.89 18
  140.2 11.42 11
  140.4 7.33 7
  140.5 15.82 15
  140.6 23.46 23
  140.7 23.35 23
  140.8 16.05 16
  141.0 9.16 9
  141.1 16.29 16
  141.2 23.52 23
  141.3 24.3 24
  141.4 17.77 17
  141.5 8.8 8
  141.7 7.48 7
  141.8 15.61 15
  141.9 21.54 21
  142.0 20.35 20
  142.1 13.61 13
  142.3 8.42 8
  142.4 16.15 16
  142.5 24.88 24
  142.6 26.78 26
  142.7 19.28 19
  142.8 8.03 8
  143.0 6.34 6
  143.1 15.86 15
  143.2 21.84 21
  143.3 19.29 19
  143.4 11.2 11
  143.6 5.26 5
  143.7 11.41 11
  143.8 18.13 18
  143.9 20.25 20
  144.0 16.6 16
  144.9 9.75 9
  145.0 15.91 15
  145.1 20.76 20
  145.2 19.48 19
  145.3 12.29 12
  145.5 4.86 4
  145.6 11.72 11
  145.7 19.9 19
  145.8 22.42 22
  145.9 17.15 17
  146.0 8.45 8
  146.2 5.51 5
  146.3 12.57 12
  146.4 17.63 17
  146.5 15.94 15
  146.8 9.03 9
  146.9 17.38 17
  147.0 23.7 23
  147.1 23.05 23
  147.2 16.66 16
  147.5 10.35 10
  147.6 16.29 16
  147.7 20.16 20
  147.8 18.39 18
  147.9 12.54 12
  148.1 10.52 10
  148.2 17.11 17
  148.3 21.91 21
  148.4 19.72 19
  148.5 11.62 11
  148.7 4.73 4
  148.8 11.42 11
  148.9 18.38 18
  149.0 19.53 19
  149.1 14.06 14
  149.3 4.71 4
  149.4 9.47 9
  149.5 17.11 17
  149.6 20.72 20
  149.7 17.13 17
  149.8 9.8 9
  150.0 8.15 8
  150.1 15.62 15
  150.2 22.14 22
  150.3 22.65 22
  150.4 16.88 16
  150.6 7.78 7
  150.7 12.72 12
  150.8 19.92 19
  150.9 22.14 22
  151.0 16.64 16
  151.1 8.15 8
  151.3 6.94 6
  151.4 14.48 14
  151.5 20.12 20
  151.6 19.12 19
  151.7 12.41 12
  151.9 7.98 7
  152.0 15.67 15
  152.1 22.88 22
  152.2 23.66 23
  152.3 17.79 17
  152.6 9.7 9
  152.7 16.53 16
  152.8 21.65 21
  152.9 20.81 20
  153.0 14.98 14
  153.2 9.09 9
  153.3 14.47 14
  153.4 20.44 20
  153.5 20.78 20
  153.6 14.32 14
  153.8 4.17 4
  153.9 9.5 9
  154.0 17.66 17
  154.1 21.48 21
  154.2 17.54 17
  154.3 8.95 8
  154.5 5.4 5
  154.6 14.73 14
  154.7 23.57 23
  154.8 24.48 24
  154.9 17.29 17
  155.7 10.18 10
  155.8 13.65 13
  155.9 19.81 19
  156.0 22.38 22
  156.1 18.57 18
  156.2 11.53 11
  156.4 9.93 9
  156.5 17.34 17
  156.6 23.57 23
  156.7 23.11 23
  156.8 15.74 15
  156.9 6.97 6
  157.1 6.56 6
  157.2 13.65 13
  157.3 18.63 18
  157.4 18.4 18
  157.5 14.76 14
  157.7 12.09 12
  157.8 15.61 15
  157.9 19.72 19
  158.0 20.7 20
  158.1 16.62 16
  158.4 9.72 9
  158.5 16.09 16
  158.6 19.92 19
  158.7 17.61 17
  159.0 11.6 11
  159.1 17.91 17
  159.2 21.27 21
  159.3 18.05 18
  159.4 10.94 10
  159.6 8.83 8
  159.7 15.8 15
  159.8 21.3 21
  159.9 20.71 20
  160.0 14.78 14
  160.2 7.79 7
  160.3 12.55 12
  160.4 18.62 18
  160.5 20.46 20
  160.6 15.91 15
  160.9 7.85 7
  161.0 16.35 16
  161.1 22.9 22
  161.2 22.42 22
  161.3 15.77 15
  161.5 7.6 7
  161.6 12.57 12
  161.7 19.13 19
  161.8 21.43 21
  161.9 17.39 17
  162.2 10.35 10
  162.3 16.56 16
  162.4 20.01 19
  162.5 17.43 17
  162.6 11.14 11
  162.8 7.87 7
  162.9 13.95 13
  163.0 19.95 19
  163.1 20.73 20
  163.2 15.68 15
  163.4 8.86 8
  163.5 14.62 14
  163.6 22.14 22
  163.7 24.93 24
  163.8 20.39 20
  163.9 12.13 12
  164.1 9.08 9
  164.2 16.26 16
  164.3 21.27 21
  164.4 18.78 18
  164.5 10.37 10
  164.7 2.98 2
  164.8 10.37 10
  164.9 19.74 19
  165.0 23.97 23
  165.1 19.83 19
  165.2 11.33 11
  165.4 9.16 9
  165.5 17.32 17
  165.6 23.47 23
  165.7 22.47 22
  165.8 15.68 15
  166.0 8.85 8
  166.1 14.56 14
  166.2 21.47 21
  166.3 23.27 23
  166.4 18.07 18
  166.6 7.54 7
  166.7 12.1 12
  166.8 19.64 19
  166.9 23.19 23
  167.0 20.1 20
  167.1 13.74 13
  167.3 10.49 10
  167.4 15.67 15
  167.5 20.9 20
  167.6 21.35 21
  167.7 15.92 15
  167.9 7.0 6
  168.0 11.47 11
  168.1 18.41 18
  168.2 21.75 21
  168.3 18.83 18
  168.4 12.55 12
  168.6 10.0 9
  168.7 15.46 15
  168.8 19.7 19
  168.9 18.47 18
  169.0 12.46 12
  169.2 7.66 7
  169.3 14.18 14
  169.4 20.97 20
  169.5 21.89 21
  169.6 16.27 16
  169.9 9.44 9
  170.0 16.06 16
  170.1 20.95 20
  170.2 20.2 20
  170.3 14.42 14
  170.5 10.17 10
  170.6 17.39 17
  170.7 24.15 24
  170.8 23.46 23
  170.9 15.31 15
  171.1 5.06 5
  171.2 11.11 11
  171.3 19.34 19
  171.4 22.91 22
  171.5 19.72 19
  171.8 14.0 13
  171.9 20.12 20
  172.0 23.61 23
  172.1 20.95 20
  172.2 13.72 13
  172.4 7.08 7
  172.5 12.45 12
  172.6 18.62 18
  172.7 20.03 20
  172.8 15.49 15
  173.0 6.94 6
  173.1 10.6 10
  173.2 17.08 17
  173.3 20.68 20
  173.4 18.23 18
  173.5 12.32 12
  173.7 10.94 10
  173.8 16.57 16
  173.9 20.0 19
  174.0 17.36 17
  174.1 9.96 9
  174.3 3.88 3
  174.4 11.24 11
  174.5 19.84 19
  174.6 22.6 22
  174.7 17.46 17
  174.8 9.12 9
  175.0 8.19 8
  175.1 16.18 16
  175.2 22.08 22
  175.3 21.33 21
  175.4 15.36 15
  175.6 9.69 9
  175.7 14.36 14
  175.8 19.42 19
  175.9 19.67 19
  176.0 13.89 13
  176.2 5.19 5
  176.3 10.82 10
  176.4 18.88 18
  176.5 22.3 22
  176.6 18.17 18
  176.7 10.49 10
  176.9 8.94 8
  177.0 15.47 15
  177.1 20.18 20
  177.2 19.72 19
  177.3 14.94 14
  177.6 10.28 10
  177.7 15.16 15
  177.8 17.9 17
  177.9 15.93 15
  178.2 10.16 10
  178.3 15.53 15
  178.4 18.96 18
  178.5 16.91 16
  178.8 10.65 10
  178.9 17.15 17
  179.0 22.04 22
  179.1 20.89 20
  179.2 14.18 14
  179.4 6.59 6
  179.5 13.18 13
  179.6 21.37 21
  179.7 23.33 23
  179.8 16.74 16
  179.9 6.84 6
  180.1 4.2 4
  180.2 12.8 12
  180.3 20.38 20
  180.4 21.1 21
  180.5 14.54 14
  180.7 4.42 4
  180.8 10.26 10
  180.9 18.89 18
  181.0 22.61 22
  181.1 18.78 18
  182.0 7.4 7
  182.1 10.84 10
  182.2 15.69 15
  182.3 17.47 17
  182.4 14.3 14
  182.6 6.82 6
  182.7 10.39 10
  182.8 17.45 17
  182.9 22.25 22
  183.0 20.8 20
  183.1 14.62 14
  183.3 9.93 9
  183.4 15.47 15
  183.5 20.65 20
  183.6 20.04 20
  183.7 13.43 13
  183.9 6.3 6
  184.0 12.31 12
  184.1 18.89 18
  184.2 19.87 19
  184.3 14.61 14
  184.5 5.76 5
  184.6 9.51 9
  184.7 16.39 16
  184.8 20.97 20
  184.9 19.38 19
  185.0 12.68 12
  185.2 5.17 5
  185.3 10.14 10
  185.4 17.1 17
  185.5 20.69 20
  185.6 18.44 18
  185.9 12.24 12
  186.0 18.44 18
  186.1 22.17 22
  186.2 19.66 19
  186.3 13.01 12
  186.5 10.02 10
  186.6 16.89 16
  186.7 22.53 22
  186.8 21.73 21
  186.9 15.37 15
  187.1 9.08 9
  187.2 14.23 14
  187.3 20.04 20
  187.4 21.34 21
  187.5 16.81 16
  187.8 9.42 9
  187.9 16.19 16
  188.0 20.69 20
  188.1 19.09 19
  188.2 13.46 13
  188.4 10.93 10
  188.5 16.11 16
  188.6 19.6 19
  188.7 17.18 17
  188.8 10.36 10
  189.0 8.19 8
  189.1 16.38 16
  189.2 23.48 23
  189.3 24.14 24
  189.4 18.25 18
  189.5 9.89 9
  189.7 5.29 5
  189.8 12.01 11
  189.9 19.49 19
  190.0 21.91 21
  190.1 17.54 17
  190.4 11.47 11
  190.5 18.27 18
  190.6 21.8 21
  190.7 19.05 19
  191.0 12.75 12
  191.1 18.5 18
  191.2 21.93 21
  191.3 19.72 19
  191.4 13.05 13
  191.6 5.34 5
  191.7 9.65 9
  191.8 15.64 15
  191.9 18.08 18
  192.0 15.0 14
  192.2 6.75 6
  192.3 10.03 10
  192.4 16.57 16
  192.5 20.21 20
  192.6 17.32 17
  192.9 10.4 10
  193.0 16.77 16
  193.1 20.66 20
  193.2 18.23 18
  193.3 10.76 10
  193.5 3.96 3
  193.6 11.22 11
  193.7 20.29 20
  193.8 23.94 23
  193.9 19.59 19
  194.0 11.46 11
  194.2 8.11 8
  194.3 14.31 14
  194.4 19.57 19
  194.5 19.43 19
  194.6 14.34 14
  194.8 10.57 10
  194.9 16.7 16
  195.0 22.13 22
  195.1 21.06 21
  195.2 13.46 13
  195.4 4.08 4
  195.5 10.55 10
  195.6 18.91 18
  195.7 21.42 21
  195.8 16.07 16
  195.9 7.76 7
  196.1 5.58 5
  196.2 12.15 12
  196.3 17.58 17
  196.4 17.66 17
  196.5 12.43 12
  196.7 6.13 6
  196.8 11.99 11
  196.9 19.77 19
  197.0 22.9 22
  197.1 18.85 18
  197.2 11.38 11
  197.4 10.21 10
  197.5 17.52 17
  197.6 22.21 22
  197.7 19.77 19
  197.8 12.57 12
  198.0 7.82 7
  198.1 12.9 12
  198.2 17.35 17
  198.3 16.95 16
  198.4 12.08 12
  198.6 7.65 7
  198.7 13.3 13
  198.8 19.88 19
  198.9 21.95 21
  199.0 17.54 17
  199.1 9.61 9
  199.3 6.22 6
  199.4 14.11 14
  199.5 21.36 21
  199.6 22.32 22
  199.7 17.1 17
  199.8 10.39 10
  200.0 9.08 9
  200.1 14.25 14
  200.2 17.96 17
  200.3 16.73 16
  200.4 11.86 11
  200.6 9.93 9
  200.7 14.93 14
  200.8 18.94 18
  200.9 18.8 18
  201.0 14.9 14
  201.2 9.23 9
  201.3 12.19 12
  201.4 16.89 16
  201.5 18.89 18
  201.6 15.7 15
  201.8 7.43 7
  201.9 11.66 11
  202.0 19.71 19
  202.1 24.59 24
  202.2 21.64 21
  202.3 12.99 12
  202.5 6.3 6
  202.6 12.82 12
  202.7 18.99 18
  202.8 19.99 19
  202.9 16.74 16
  203.1 14.05 14
  203.2 18.05 18
  203.3 21.86 21
  203.4 21.05 21
  203.5 14.67 14
  203.7 4.03 4
  203.8 8.53 8
  203.9 16.77 16
  204.0 21.91 21
  204.1 20.44 20
  204.2 15.02 15
  204.4 10.49 10
  204.5 14.0 13
  204.6 18.88 18
  204.7 21.33 21
  204.8 18.56 18
  204.9 12.3 12
  205.1 10.25 10
  205.2 15.55 15
  205.3 18.15 18
  205.4 15.17 15
  205.6 7.62 7
  205.7 11.37 11
  205.8 18.14 18
  205.9 22.13 22
  206.0 19.66 19
  206.1 12.7 12
  206.3 8.07 8
  206.4 14.48 14
  206.5 20.8 20
  206.6 21.26 21
  206.7 15.11 15
  206.9 5.02 5
  207.0 10.28 10
  207.1 18.84 18
  207.2 23.47 23
  207.3 20.37 20
  207.4 12.46 12
  207.6 8.38 8
  207.7 16.49 16
  207.8 24.6 24
  207.9 25.8 25
  208.0 18.67 18
  208.1 9.05 9
  208.3 7.51 7
  208.4 13.86 13
  208.5 17.82 17
  208.6 17.23 17
  208.9 13.6 13
  209.0 17.76 17
  209.1 21.51 21
  209.2 21.3 21
  209.3 16.74 16
  209.5 11.09 11
  209.6 15.2 15
  209.7 20.24 20
  209.8 21.12 21
  209.9 15.97 15
  210.2 8.56 8
  210.3 17.37 17
  210.4 23.39 23
  210.5 21.76 21
  210.6 14.28 14
  210.8 7.12 7
  210.9 13.08 13
  211.0 19.35 19
  211.1 19.5 19
  211.2 12.98 12
  211.4 4.82 4
  211.5 10.95 10
  211.6 18.71 18
  211.7 21.32 21
  211.8 17.04 17
  212.1 10.38 10
  212.2 16.07 16
  212.3 19.02 19
  212.4 16.2 16
  212.5 9.69 9
  212.7 6.84 6
  212.8 14.18 14
  212.9 22.09 22
  213.0 25.21 25
  213.1 21.91 21
  213.2 15.19 15
  213.4 10.55 10
  213.5 15.03 15
  213.6 18.92 18
  213.7 18.41 18
  213.9 13.04 13
  214.0 16.18 16
  214.1 22.34 22
  214.2 26.06 26
  214.3 22.9 22
  214.4 13.56 13
  214.6 2.13 2
  214.7 7.79 7
  214.8 15.42 15
  214.9 18.36 18
  215.0 15.2 15
  215.2 8.16 8
  215.3 11.6 11
  215.4 18.21 18
  215.5 22.98 22
  215.6 21.62 21
  215.7 14.61 14
  215.9 5.34 5
  216.0 10.29 10
  216.1 17.41 17
  216.2 20.26 20
  216.3 16.62 16
  216.5 8.56 8
  216.6 12.41 12
  216.7 18.61 18
  216.8 21.49 21
  216.9 18.26 18
  217.0 11.38 11
  217.2 8.25 8
  217.3 15.06 15
  217.4 21.38 21
  217.5 22.17 22
  217.6 17.23 17
  217.8 9.11 9
  217.9 12.91 12
  218.0 19.18 19
  218.1 22.54 22
  218.2 19.9 19
  218.5 13.63 13
  218.6 20.44 20
  218.7 25.11 25
  218.8 24.22 24
  218.9 19.23 19
  219.1 13.86 13
  219.2 17.4 17
  219.3 21.54 21
  219.4 21.77 21
  219.5 16.66 16
  219.8 7.82 7
  219.9 15.8 15
  220.0 22.97 22
  220.1 23.11 23
  220.2 16.06 16
  220.4 6.99 6
  220.5 12.1 12
  220.6 18.08 18
  220.7 19.05 19
  220.8 13.95 13
  221.0 4.52 4
  221.1 8.52 8
  221.2 15.48 15
  221.3 18.89 18
  221.4 15.51 15
  221.5 8.36 8
  221.7 5.68 5
  221.8 13.07 13
  221.9 20.13 20
  222.0 21.24 21
  222.1 16.13 16
  222.3 9.86 9
  222.4 15.14 15
  222.5 20.91 20
  222.6 21.46 21
  222.7 15.71 15
  223.0 7.77 7
  223.1 15.23 15
  223.2 20.4 20
  223.3 19.72 19
  223.4 15.2 15
  223.6 12.4 12
  223.7 15.56 15
  223.8 17.95 17
  223.9 17.39 17
  224.0 14.29 14
  224.2 11.19 11
  224.3 15.41 15
  224.4 21.26 21
  224.5 23.7 23
  224.6 20.05 20
  224.7 13.24 13
  224.9 10.58 10
  225.0 15.81 15
  225.1 19.82 19
  225.2 18.73 18
  225.3 12.65 12
  225.5 3.88 3
  225.6 8.74 8
  225.7 16.85 16
  225.8 21.19 21
  225.9 17.93 17
  226.1 7.04 7
  226.2 11.62 11
  226.3 20.5 20
  226.4 25.38 25
  226.5 21.39 21
  226.6 11.65 11
  226.8 5.96 5
  226.9 13.85 13
  227.0 20.57 20
  227.1 20.12 20
  227.2 13.07 13
  227.5 5.69 5
  227.6 14.15 14
  227.7 20.72 20
  227.8 20.2 20
  227.9 13.78 13
  228.1 10.91 10
  228.2 18.92 18
  228.3 25.36 25
  228.4 24.22 24
  228.5 16.52 16
  228.7 7.94 7
  228.8 12.99 12
  228.9 18.84 18
  229.0 19.7 19
  229.1 14.61 14
  229.3 6.52 6
  229.4 11.27 11
  229.5 18.55 18
  229.6 22.68 22
  229.7 20.66 20
  229.8 14.19 14
  230.0 8.64 8
  230.1 14.86 14
  230.2 21.91 21
  230.3 23.45 23
  230.4 17.84 17
  231.3 7.94 7
  231.4 15.72 15
  231.5 19.95 19
  231.6 17.61 17
  231.7 11.08 11
  231.9 5.93 5
  232.0 12.17 12
  232.1 19.76 19
  232.2 22.17 22
  232.3 17.01 16
  232.6 8.81 8
  232.7 17.3 17
  232.8 22.93 22
  232.9 20.67 20
  233.0 12.46 12
  233.2 6.73 6
  233.3 14.79 14
  233.4 22.91 22
  233.5 23.94 23
  233.6 16.75 16
  233.8 5.4 5
  233.9 12.36 12
  234.0 22.74 22
  234.1 27.7 27
  234.2 23.67 23
  234.3 14.75 14
  234.5 9.41 9
  234.6 15.5 15
  234.7 20.86 20
  234.8 20.59 20
  234.9 14.59 14
  235.1 5.31 5
  235.2 10.02 10
  235.3 18.1 18
  235.4 22.83 22
  235.5 20.04 20
  235.6 12.08 12
  235.8 8.44 8
  235.9 16.94 16
  236.0 23.66 23
  236.1 21.7 21
  236.2 12.3 12
  236.4 4.75 4
  236.5 13.49 13
  236.6 21.97 21
  236.7 22.42 22
  236.8 15.24 15
  237.0 6.27 6
  237.1 11.22 11
  237.2 18.12 18
  237.3 21.58 21
  237.4 18.85 18
  237.5 11.85 11
  237.7 7.04 7
  237.8 13.47 13
  237.9 19.68 19
  238.0 20.01 19
  238.1 14.16 14
  238.4 8.18 8
  238.5 14.97 14
  238.6 19.34 19
  238.7 17.17 17
  239.0 7.97 7
  239.1 16.9 16
  239.2 23.67 23
  239.3 22.09 22
  239.4 13.98 13
  239.6 6.97 6
  239.7 14.23 14
  239.8 22.17 22
  239.9 23.61 23
  240.0 17.06 17
  240.1 8.31 8
  240.3 8.3 8
  240.4 15.22 15
  240.5 19.04 19
  240.6 16.59 16
  240.9 9.98 9
  241.0 17.45 17
  241.1 23.3 23
  241.2 22.78 22
  241.3 16.18 16
  241.5 6.76 6
  241.6 12.12 12
  241.7 20.2 20
  241.8 23.52 23
  241.9 18.6 18
  242.0 9.34 9
  242.2 5.45 5
  242.3 12.85 12
  242.4 18.93 18
  242.5 18.69 18
  242.6 12.87 12
  242.8 6.7 6
  242.9 11.77 11
  243.0 17.51 17
  243.1 18.47 18
  243.2 13.83 13
  243.4 7.72 7
  243.5 12.94 12
  243.6 19.32 19
  243.7 21.17 21
  243.8 17.36 17
  244.0 9.94 9
  244.1 13.02 13
  244.2 18.59 18
  244.3 21.78 21
  244.4 19.05 19
  244.5 11.51 11
  244.7 5.05 5
  244.8 11.71 11
  244.9 18.89 18
  245.0 20.29 20
  245.1 15.23 15
  245.4 9.22 9
  245.5 15.82 15
  245.6 20.12 20
  245.7 18.48 18
  246.0 11.99 11
  246.1 18.45 18
  246.2 22.52 22
  246.3 19.81 19
  246.4 11.72 11
  246.6 3.07 3
  246.7 8.61 8
  246.8 16.07 16
  246.9 19.43 19
  247.0 16.15 16
  247.2 6.04 6
  247.3 9.6 9
  247.4 17.95 17
  247.5 24.21 24
  247.6 22.97 22
  247.7 15.57 15
  247.9 8.73 8
  248.0 14.6 14
  248.1 20.24 20
  248.2 19.96 19
  248.3 13.76 13
  248.5 6.87 6
  248.6 12.9 12
  248.7 20.2 20
  248.8 22.45 22
  248.9 17.8 17
  249.0 10.3 10
  249.2 8.28 8
  249.3 14.53 14
  249.4 19.77 19
  249.5 20.31 20
  249.6 16.46 16
  249.8 10.86 10
  249.9 14.87 14
  250.0 21.04 21
  250.1 24.02 23
  250.2 20.42 20
  250.3 12.32 12
  250.5 7.0 6
  250.6 13.81 13
  250.7 20.47 20
  250.8 21.44 21
  250.9 16.71 16
  251.1 11.09 11
  251.2 16.25 16
  251.3 22.05 22
  251.4 22.39 22
  251.5 15.77 15
  251.8 7.03 7
  251.9 15.86 15
  252.0 22.06 22
  252.1 20.47 20
  252.2 12.75 12
  252.4 6.7 6
  252.5 14.93 14
  252.6 24.03 24
  252.7 26.45 26
  252.8 20.38 20
  252.9 11.25 11
  253.1 9.39 9
  253.2 16.01 15
  253.3 19.94 19
  253.4 17.54 17
  253.5 11.1 11
  253.7 8.27 8
  253.8 14.84 14
  253.9 20.76 20
  254.0 20.94 20
  254.1 15.39 15
  254.3 8.66 8
  254.4 14.76 14
  254.5 22.34 22
  254.6 24.01 23
  254.7 17.65 17
  254.8 8.65 8
  255.0 8.64 8
  255.1 15.9 15
  255.2 19.99 19
  255.3 17.83 17
  255.4 11.86 11
  255.6 9.41 9
  255.7 16.03 16
  255.8 22.25 22
  255.9 22.66 22
  256.0 16.36 16
  256.9 10.06 10
  257.0 16.75 16
  257.1 21.59 21
  257.2 20.03 20
  257.3 13.28 13
  257.5 8.84 8
  257.6 15.66 15
  257.7 22.32 22
  257.8 23.34 23
  257.9 17.95 17
  258.0 10.22 10
  258.2 8.37 8
  258.3 14.8 14
  258.4 19.28 19
  258.5 17.92 17
  258.6 12.4 12
  258.8 8.6 8
  258.9 13.43 13
  259.0 18.22 18
  259.1 18.79 18
  259.2 15.02 15
  259.4 11.42 11
  259.5 16.92 16
  259.6 23.27 23
  259.7 24.91 24
  259.8 19.81 19
  259.9 11.4 11
  260.1 6.75 6
  260.2 12.91 12
  260.3 18.65 18
  260.4 18.98 18
  260.5 13.97 13
  260.7 8.41 8
  260.8 13.59 13
  260.9 19.85 19
  261.0 22.08 22
  261.1 18.49 18
  261.2 11.99 11
  261.4 9.5 9
  261.5 15.46 15
  261.6 20.09 20
  261.7 18.66 18
  261.8 12.23 12
  262.0 7.04 7
  262.1 12.83 12
  262.2 19.27 19
  262.3 21.12 21
  262.4 16.6 16
  262.5 9.09 9
  262.7 7.48 7
  262.8 14.42 14
  262.9 19.23 19
  263.0 17.96 17
  263.1 12.8 12
  263.3 10.57 10
  263.4 16.46 16
  263.5 22.35 22
  263.6 23.26 23
  263.7 18.02 18
  264.6 9.77 9
  264.7 16.49 16
  264.8 21.26 21
  264.9 19.81 19
  265.0 13.08 13
  265.2 7.48 7
  265.3 14.82 14
  265.4 22.72 22
  265.5 24.21 24
  265.6 18.45 18
  266.5 9.47 9
  266.6 16.69 16
  266.7 22.42 22
  266.8 21.44 21
  266.9 14.25 14
  267.1 5.66 5
  267.2 11.13 11
  267.3 18.11 18
  267.4 20.56 20
  267.5 16.69 16
  267.6 10.14 10
  267.8 8.83 8
  267.9 15.23 15
  268.0 21.01 20
  268.1 21.97 21
  268.2 17.56 17
  268.4 9.74 9
  268.5 13.49 13
  268.6 18.39 18
  268.7 18.48 18
  268.8 13.17 13
  269.0 8.38 8
  269.1 14.01 13
  269.2 19.48 19
  269.3 19.61 19
  269.4 14.08 14
  269.6 4.55 4
  269.7 8.15 8
  269.8 15.48 15
  269.9 20.76 20
  270.0 19.45 19
  270.1 12.4 12
  270.3 5.67 5
  270.4 12.15 12
  270.5 19.95 19
  270.6 23.2 23
  270.7 19.82 19
  271.0 11.72 11
  271.1 18.94 18
  271.2 23.55 23
  271.3 20.38 20
  271.4 11.72 11
  271.6 5.69 5
  271.7 12.66 12
  271.8 19.68 19
  271.9 20.99 20
  272.0 16.14 16
  272.2 8.3 8
  272.3 12.42 12
  272.4 18.69 18
  272.5 21.62 21
  272.6 18.79 18
  272.7 12.31 12
  272.9 7.35 7
  273.0 12.25 12
  273.1 17.08 17
  273.2 17.03 17
  273.3 11.66 11
  273.5 5.72 5
  273.6 12.18 12
  273.7 20.27 20
  273.8 23.05 23
  273.9 18.28 18
  274.0 10.31 10
  274.2 8.58 8
  274.3 16.24 16
  274.4 22.8 22
  274.5 22.94 22
  274.6 16.72 16
  274.8 7.54 7
  274.9 11.9 11
  275.0 18.59 18
  275.1 21.82 21
  275.2 18.88 18
  275.3 12.31 12
  275.5 9.8 9
  275.6 15.24 15
  275.7 18.36 18
  275.8 15.89 15
  276.0 10.22 10
  276.1 15.01 14
  276.2 21.22 21
  276.3 23.32 23
  276.4 19.49 19
  276.5 12.38 12
  276.7 5.75 5
  276.8 10.86 10
  276.9 18.01 17
  277.0 20.98 20
  277.1 16.84 16
  277.3 6.46 6
  277.4 11.05 11
  277.5 18.51 18
  277.6 21.04 21
  277.7 15.94 15
  277.8 7.83 7
  278.0 5.63 5
  278.1 12.32 12
  278.2 18.65 18
  278.3 20.6 20
  278.4 17.3 17
  278.7 11.36 11
  278.8 18.21 18
  278.9 23.09 23
  279.0 21.6 21
  279.1 15.23 15
  279.3 8.96 8
  279.4 13.56 13
  279.5 18.6 18
  279.6 19.05 19
  279.7 14.18 14
  279.9 7.98 7
  280.0 13.65 13
  280.1 21.2 21
  280.2 24.48 24
  280.3 20.8 20
  280.4 13.48 13
  280.6 10.47 10
  280.7 16.58 16
  280.8 21.36 21
  280.9 20.36 20
  281.0 14.32 14
  281.2 8.91 8
  281.3 14.97 14
  281.4 21.68 21
  281.5 23.05 23
  281.6 18.12 18
  283.1 8.74 8
  283.2 15.34 15
  283.3 20.65 20
  283.4 20.16 20
  283.5 13.83 13
  283.7 3.85 3
  283.8 9.15 9
  283.9 18.67 18
  284.0 25.09 25
  284.1 23.05 23
  284.2 13.64 13
  284.4 1.54 1
  284.5 7.93 7
  284.6 16.99 16
  284.7 20.7 20
  284.8 17.04 17
  285.0 10.72 10
  285.1 15.93 15
  285.2 22.1 22
  285.3 23.3 23
  285.4 17.94 17
  285.5 10.11 10
  285.7 9.05 9
  285.8 16.72 16
  285.9 22.79 22
  286.0 21.76 21
  286.1 14.16 14
  286.3 6.16 6
  286.4 13.16 13
  286.5 20.99 20
  286.6 22.33 22
  286.7 16.15 16
  286.9 5.72 5
  287.0 10.1 10
  287.1 17.28 17
  287.2 21.19 21
  287.3 18.62 18
  287.4 11.83 11
  287.6 9.47 9
  287.7 17.46 17
  287.8 24.08 24
  287.9 23.48 23
  288.0 16.66 16
  288.9 9.94 9
  289.0 16.63 16
  289.1 20.98 20
  289.2 18.58 18
  289.3 11.22 11
  289.5 5.07 5
  289.6 10.78 10
  289.7 18.16 18
  289.8 22.32 22
  289.9 20.51 20
  290.0 14.4 14
  290.2 9.34 9
  290.3 13.84 13
  290.4 17.4 17
  290.5 16.11 16
  290.6 11.35 11
  290.8 9.25 9
  290.9 14.37 14
  291.0 19.25 19
  291.1 19.93 19
  291.2 15.62 15
  291.4 7.56 7
  291.5 10.98 10
  291.6 17.59 17
  291.7 21.86 21
  291.8 19.67 19
  291.9 12.1 12
  292.1 6.02 6
  292.2 13.04 13
  292.3 19.53 19
  292.4 19.14 19
  292.5 12.3 12
  292.7 5.64 5
  292.8 12.03 12
  292.9 19.11 19
  293.0 21.24 21
  293.1 17.46 17
  293.2 11.31 11
  293.4 8.28 8
  293.5 13.34 13
  293.6 17.99 17
  293.7 17.56 17
  293.8 12.24 12
  294.0 8.72 8
  294.1 14.63 14
  294.2 19.62 19
  294.3 19.31 19
  294.4 14.23 14
  294.6 7.56 7
  294.7 11.77 11
  294.8 18.0 17
  294.9 20.83 20
  295.0 17.85 17
  295.1 11.77 11
  295.3 8.83 8
  295.4 13.83 13
  295.5 18.62 18
  295.6 19.46 19
  295.7 16.11 16
  295.9 11.08 11
  296.0 14.25 14
  296.1 18.5 18
  296.2 19.57 19
  296.3 16.11 16
  296.5 10.17 10
  296.6 14.45 14
  296.7 20.64 20
  296.8 22.77 22
  296.9 18.02 18
  297.2 9.41 9
  297.3 18.04 18
  297.4 24.43 24
  297.5 23.24 23
  297.6 14.93 14
  297.9 6.78 6
  298.0 14.92 14
  298.1 19.13 19
  298.2 16.11 16
  298.4 6.46 6
  298.5 10.29 10
  298.6 17.97 17
  298.7 22.96 22
  298.8 20.73 20
  298.9 12.83 12
  299.1 5.71 5
  299.2 13.16 13
  299.3 22.24 22
  299.4 25.57 25
  299.5 20.56 20
  299.6 11.38 11
  299.8 7.52 7
  299.9 14.87 14
  300.0 19.99 19
  300.1 17.56 17
  300.2 10.07 10
  300.4 7.18 7
  300.5 14.36 14
  300.6 19.99 19
  300.7 19.36 19
  300.8 13.24 13
  301.0 5.54 5
  301.1 10.86 10
  301.2 19.07 19
  301.3 24.1 24
  301.4 22.33 22
  301.5 15.77 15
  301.7 11.65 11
  301.8 18.24 18
  301.9 23.97 23
  302.0 22.64 22
  302.1 14.68 14
  302.3 6.18 6
  302.4 11.64 11
  302.5 17.79 17
  302.6 19.6 19
  302.7 16.61 16
  303.0 11.11 11
  303.1 15.39 15
  303.2 18.7 18
  303.3 17.52 17
  303.4 12.35 12
  303.6 7.98 7
  303.7 13.6 13
  303.8 19.84 19
  303.9 20.65 20
  304.0 14.36 14
  304.2 3.02 3
  304.3 8.53 8
  304.4 17.85 17
  304.5 22.76 22
  304.6 18.84 18
  304.7 9.89 9
  304.9 6.42 6
  305.0 14.23 14
  305.1 20.15 20
  305.2 19.07 19
  305.3 12.54 12
  305.5 6.29 6
  305.6 11.18 11
  305.7 17.14 17
  305.8 19.54 19
  305.9 16.81 16
  306.7 8.65 8
  306.8 12.36 12
  306.9 17.96 17
  307.0 20.87 20
  307.1 18.99 18
  307.2 14.07 14
  307.4 9.27 9
  307.5 12.95 12
  307.6 18.18 18
  307.7 20.4 20
  307.8 16.82 16
  307.9 9.47 9
  308.1 5.78 5
  308.2 12.68 12
  308.3 18.79 18
  308.4 18.99 18
  308.5 13.89 13
  308.7 8.05 8
  308.8 12.13 12
  308.9 17.22 17
  309.0 18.7 18
  309.1 14.84 14
  309.3 5.67 5
  309.4 9.6 9
  309.5 17.77 17
  309.6 23.23 23
  309.7 20.92 20
  309.8 12.54 12
  310.0 5.68 5
  310.1 12.65 12
  310.2 20.21 20
  310.3 22.39 22
  310.4 17.97 17
  310.5 10.95 10
  310.7 10.09 10
  310.8 16.57 16
  310.9 20.65 20
  311.0 18.55 18
  311.1 12.47 12
  311.3 10.21 10
  311.4 16.94 16
  311.5 22.48 22
  311.6 21.57 21
  311.7 15.01 14
  311.9 8.22 8
  312.0 13.28 13
  312.1 19.57 19
  312.2 22.0 21
  312.3 18.49 18
  312.6 11.15 11
  312.7 17.47 17
  312.8 21.97 21
  312.9 20.86 20
  313.0 15.28 15
  313.3 10.84 10
  313.4 15.91 15
  313.5 19.04 19
  313.6 17.71 17
  313.7 13.17 13
  313.9 10.62 10
  314.0 15.14 15
  314.1 18.96 18
  314.2 18.25 18
  314.3 13.31 13
  314.5 9.44 9
  314.6 14.87 14
  314.7 20.09 20
  314.8 20.47 20
  314.9 16.53 16
  315.1 14.0 13
  315.2 18.05 18
  315.3 20.89 20
  315.4 19.03 19
  315.5 13.04 13
  315.7 4.94 4
  315.8 8.76 8
  315.9 15.91 15
  316.0 20.94 20
  316.1 19.76 19
  316.2 13.8 13
  316.4 10.51 10
  316.5 16.55 16
  316.6 21.58 21
  316.7 20.92 20
  316.8 14.63 14
  317.0 5.22 5
  317.1 9.81 9
  317.2 17.71 17
  317.3 22.55 22
  317.4 20.67 20
  317.5 14.46 14
  317.7 9.92 9
  317.8 14.97 14
  317.9 20.1 20
  318.0 20.71 20
  318.1 16.3 16
  318.3 10.55 10
  318.4 15.96 15
  318.5 22.94 22
  318.6 24.91 24
  318.7 19.39 19
  318.8 10.81 10
  319.0 9.14 9
  319.1 15.89 15
  319.2 19.84 19
  319.3 17.08 17
  319.4 10.11 10
  319.6 7.74 7
  319.7 14.65 14
  319.8 20.14 20
  319.9 19.51 19
  320.0 13.41 13
  320.2 5.78 5
  320.3 10.68 10
  320.4 17.83 17
  320.5 21.34 21
  320.6 18.19 18
  320.7 11.25 11
  320.9 9.52 9
  321.0 16.47 16
  321.1 21.3 21
  321.2 19.74 19
  321.3 13.78 13
  321.5 11.0 10
  321.6 16.5 16
  321.7 20.83 20
  321.8 20.22 20
  321.9 15.11 15
  322.1 7.98 7
  322.2 12.19 12
  322.3 19.37 19
  322.4 23.64 23
  322.5 20.98 20
  322.6 13.21 13
  322.8 8.44 8
  322.9 16.29 16
  323.0 23.82 23
  323.1 24.56 24
  323.2 18.44 18
  324.1 8.25 8
  324.2 13.37 13
  324.3 18.46 18
  324.4 18.88 18
  324.5 14.41 14
  324.7 8.58 8
  324.8 12.94 12
  324.9 19.02 19
  325.0 21.27 21
  325.1 16.85 16
  326.0 8.74 8
  326.1 16.23 16
  326.2 23.01 22
  326.3 24.13 24
  326.4 18.71 18
  326.6 8.71 8
  326.7 13.56 13
  326.8 21.73 21
  326.9 25.82 25
  327.0 22.11 22
  327.1 13.97 13
  327.3 10.36 10
  327.4 16.78 16
  327.5 21.68 21
  327.6 20.61 20
  327.7 14.73 14
  327.9 10.09 10
  328.0 15.79 15
  328.1 21.92 21
  328.2 23.44 23
  328.3 18.96 18
  328.4 11.94 11
  328.6 11.0 10
  328.7 17.54 17
  328.8 21.32 21
  328.9 18.63 18
  329.0 11.99 11
  329.2 9.08 9
  329.3 15.07 15
  329.4 20.54 20
  329.5 20.81 20
  329.6 15.42 15
  329.8 6.77 6
  329.9 11.31 11
  330.0 18.91 18
  330.1 23.36 23
  330.2 21.11 21
  330.3 14.03 14
  330.5 7.52 7
  330.6 12.76 12
  330.7 18.7 18
  330.8 19.85 19
  330.9 15.08 15
  331.1 7.37 7
  331.2 11.49 11
  331.3 17.17 17
  331.4 18.69 18
  331.5 14.16 14
  331.8 8.01 8
  331.9 15.58 15
  332.0 21.26 21
  332.1 20.35 20
  332.2 13.5 13
  332.4 6.6 6
  332.5 13.36 13
  332.6 21.2 21
  332.7 23.44 23
  332.8 18.43 18
  333.1 11.11 11
  333.2 18.77 18
  333.3 23.02 22
  333.4 20.05 20
  333.5 12.94 12
  333.7 9.27 9
  333.8 14.56 14
  333.9 19.17 19
  334.0 19.12 19
  334.1 14.27 14
  334.3 7.53 7
  334.4 12.28 12
  334.5 19.28 19
  334.6 22.52 22
  334.7 19.28 19
  334.8 12.9 12
  335.0 12.16 12
  335.1 17.92 17
  335.2 21.03 21
  335.3 18.11 18
  335.4 10.82 10
  335.6 4.39 4
  335.7 10.17 10
  335.8 17.06 17
  335.9 19.47 19
  336.0 15.95 15
  336.2 8.26 8
  336.3 11.61 11
  336.4 17.18 17
  336.5 19.44 19
  336.6 15.75 15
  336.7 8.59 8
  336.9 4.44 4
  337.0 11.43 11
  337.1 18.99 18
  337.2 20.79 20
  337.3 15.59 15
  337.5 6.53 6
  337.6 11.92 11
  337.7 20.31 20
  337.8 24.77 24
  337.9 22.09 22
  338.0 15.03 15
  338.2 9.42 9
  338.3 13.73 13
  338.4 18.16 18
  338.5 18.93 18
  338.6 15.6 15
  338.8 10.13 10
  338.9 13.05 13
  339.0 16.85 16
  339.1 16.86 16
  339.2 12.29 12
  339.4 9.29 9
  339.5 16.61 16
  339.6 23.91 23
  339.7 24.84 24
  339.8 18.18 18
  339.9 9.19 9
  340.1 8.03 8
  340.2 15.62 15
  340.3 21.47 21
  340.4 21.14 21
  340.5 15.38 15
  340.7 8.44 8
  340.8 13.25 13
  340.9 19.14 19
  341.0 20.79 20
  341.1 16.84 16
  341.4 9.38 9
  341.5 16.19 16
  341.6 21.66 21
  341.7 20.64 20
  341.8 13.92 13
  342.0 8.03 8
  342.1 14.02 14
  342.2 20.59 20
  342.3 22.77 22
  342.4 19.8 19
  342.6 14.97 14
  342.7 18.87 18
  342.8 23.04 23
  342.9 22.2 22
  343.0 15.07 15
  343.1 5.66 5
  343.3 1.73 1
  343.4 9.3 9
  343.5 16.79 16
  343.6 18.45 18
  343.7 14.04 14
  343.9 9.78 9
  344.0 15.59 15
  344.1 21.36 21
  344.2 21.87 21
  344.3 16.44 16
  344.6 8.55 8
  344.7 16.26 16
  344.8 21.67 21
  344.9 19.77 19
  345.0 12.37 12
  345.2 9.08 9
  345.3 16.88 16
  345.4 22.98 22
  345.5 22.01 21
  345.6 15.2 15
  345.8 7.05 7
  345.9 11.8 11
  346.0 18.98 18
  346.1 23.26 23
  346.2 21.94 21
  346.3 16.57 16
  347.1 5.64 5
  347.2 12.34 12
  347.3 19.92 19
  347.4 22.11 22
  347.5 16.84 16
  347.6 8.48 8
  347.8 7.77 7
  347.9 15.4 15
  348.0 19.82 19
  348.1 17.06 17
  348.4 10.15 10
  348.5 17.14 17
  348.6 21.49 21
  348.7 19.71 19
  348.8 13.5 13
  349.0 7.08 7
  349.1 11.81 11
  349.2 18.15 18
  349.3 20.76 20
  349.4 17.15 17
  349.5 10.04 10
  349.7 6.21 6
  349.8 12.62 12
  349.9 18.68 18
  350.0 18.79 18
  350.1 12.76 12
  350.3 5.66 5
  350.4 11.37 11
  350.5 18.55 18
  350.6 21.23 21
  350.7 17.41 17
  351.0 10.63 10
  351.1 17.36 17
  351.2 21.27 21
  351.3 18.47 18
  351.4 11.29 11
  351.6 7.37 7
  351.7 14.23 14
  351.8 20.86 20
  351.9 21.62 21
  352.0 15.63 15
  352.8 2.02 2
  352.9 6.68 6
  353.0 16.5 16
  353.1 23.7 23
  353.2 22.79 22
  353.3 15.31 15
  353.5 7.81 7
  353.6 14.3 14
  353.7 21.72 21
  353.8 23.12 23
  353.9 17.07 17
  354.2 9.83 9
  354.3 16.77 16
  354.4 21.09 21
  354.5 19.93 19
  354.6 14.89 14
  354.8 11.0 10
  354.9 15.28 15
  355.0 19.29 19
  355.1 19.12 19
  355.2 14.56 14
  355.4 7.81 7
  355.5 11.13 11
  355.6 16.74 16
  355.7 20.34 20
  355.8 19.13 19
  355.9 13.93 13
  356.1 8.63 8
  356.2 13.85 13
  356.3 20.27 20
  356.4 21.84 21
  356.5 16.66 16
  356.7 6.84 6
  356.8 11.54 11
  356.9 18.32 18
  357.0 20.0 19
  357.1 14.94 14
  357.3 7.59 7
  357.4 12.35 12
  357.5 18.63 18
  357.6 21.8 21
  357.7 20.38 20
  357.8 16.24 16
  358.0 12.55 12
  358.1 15.6 15
  358.2 19.24 19
  358.3 19.8 19
  358.4 15.82 15
  358.6 7.85 7
  358.7 11.76 11
  358.8 18.37 18
  358.9 21.21 21
  359.0 17.14 17
  359.1 9.58 9
  359.3 7.96 7
  359.4 15.8 15
  359.5 22.54 22
  359.6 22.93 22
  359.7 16.6 16
  360.0 7.46 7
  360.1 15.68 15
  360.2 21.53 21
  360.3 20.33 20
  360.4 14.13 14
  360.6 10.22 10
  360.7 15.88 15
  360.8 20.88 20
  360.9 20.46 20
  361.0 14.9 14
  361.2 9.69 9
  361.3 15.3 15
  361.4 21.04 21
  361.5 21.32 21
  361.6 15.59 15
  361.8 7.07 7
  361.9 11.87 11
  362.0 19.2 19
  362.1 22.94 22
  362.2 19.91 19
  362.3 12.48 12
  362.5 6.96 6
  362.6 13.56 13
  362.7 21.19 21
  362.8 23.41 23
  362.9 18.39 18
  363.0 10.87 10
  363.2 10.55 10
  363.3 16.31 16
  363.4 19.44 19
  363.5 17.32 17
  363.8 12.14 12
  363.9 18.08 18
  364.0 21.9 21
  364.1 20.55 20
  364.2 15.81 15
  364.4 12.12 12
  364.5 15.85 15
  364.6 19.54 19
  364.7 18.76 18
  364.8 13.13 13
  365.0 7.84 7
  365.1 14.94 14
  365.2 23.16 23
  365.3 25.44 25
  365.4 19.68 19
  365.5 11.03 11
  365.7 10.46 10
  365.8 17.62 17
  365.9 21.82 21
  366.0 19.66 19
  366.1 13.47 13
  366.3 7.44 7
  366.4 10.7 10
  366.5 15.49 15
  366.6 18.05 18
  366.7 15.75 15
  366.9 7.32 7
  367.0 10.6 10
  367.1 17.86 17
  367.2 22.92 22
  367.3 21.66 21
  367.4 15.45 15
  367.6 8.04 8
  367.7 11.65 11
  367.8 16.61 16
  367.9 18.58 18
  368.0 16.41 16
  368.2 12.59 12
  368.3 16.44 16
  368.4 21.58 21
  368.5 22.89 22
  368.6 17.85 17
  368.8 6.43 6
  368.9 10.86 10
  369.0 19.55 19
  369.1 24.89 24
  369.2 22.38 22
  369.3 14.35 14
  369.5 7.99 7
  369.6 14.87 14
  369.7 22.25 22
  369.8 23.71 23
  369.9 18.36 18
  370.1 9.03 9
  370.2 13.23 13
  370.3 20.04 20
  370.4 23.43 23
  370.5 20.17 20
  370.6 12.5 12
  370.8 6.33 6
  370.9 11.96 11
  371.0 17.58 17
  371.1 18.27 18
  371.2 14.63 14
  371.4 11.92 11
  371.5 15.62 15
  371.6 19.34 19
  371.7 19.93 19
  371.8 16.04 16
  372.0 7.27 7
  372.1 10.66 10
  372.2 17.97 17
  372.3 22.92 22
  372.4 21.06 21
  372.5 13.65 13
  372.7 6.54 6
  372.8 13.04 13
  372.9 20.62 20
  373.0 22.89 22
  373.1 18.39 18
  373.4 12.26 12
  373.5 19.0 18
  373.6 23.24 23
  373.7 21.3 21
  373.8 14.8 14
  374.0 9.17 9
  374.1 14.25 14
  374.2 19.81 19
  374.3 20.88 20
  374.4 16.34 16
  374.6 7.89 7
  374.7 13.07 13
  374.8 22.19 22
  374.9 27.25 27
  375.0 23.1 23
  375.1 13.16 13
  375.3 8.52 8
  375.4 16.64 16
  375.5 23.02 22
  375.6 22.12 22
  375.7 15.17 15
  375.9 7.33 7
  376.0 11.8 11
  376.1 17.71 17
  376.2 20.42 20
  376.3 17.61 17
  376.4 10.74 10
  376.6 6.5 6
  376.7 14.41 14
  376.8 22.25 22
  376.9 22.89 22
  377.0 15.88 15
  377.8 7.21 7
  377.9 11.9 11
  378.0 19.4 19
  378.1 23.53 23
  378.2 20.24 20
  378.3 12.08 12
  378.5 8.08 8
  378.6 15.97 15
  378.7 22.78 22
  378.8 22.37 22
  378.9 15.05 15
  379.1 5.89 5
  379.2 12.65 12
  379.3 21.99 21
  379.4 25.84 25
  379.5 20.94 20
  379.6 11.94 11
  379.8 9.58 9
  379.9 16.31 16
  380.0 20.62 20
  380.1 19.14 19
  380.2 13.51 13
  380.4 7.98 7
  380.5 12.71 12
  380.6 18.38 18
  380.7 19.76 19
  380.8 15.64 15
  381.0 8.86 8
  381.1 12.6 12
  381.2 18.14 18
  381.3 20.99 20
  381.4 18.84 18
  381.5 13.13 13
  381.7 8.27 8
  381.8 13.32 13
  381.9 18.48 18
  382.0 18.33 18
  382.1 12.53 12
  382.3 6.84 6
  382.4 13.26 13
  382.5 20.24 20
  382.6 21.44 21
  382.7 15.79 15
  383.0 7.63 7
  383.1 14.67 14
  383.2 19.64 19
  383.3 18.52 18
  383.4 12.8 12
  383.6 8.7 8
  383.7 14.98 14
  383.8 21.39 21
  383.9 21.72 21
  384.0 14.8 14
  384.2 2.3 2
  384.3 7.38 7
  384.4 17.39 17
  384.5 24.58 24
  384.6 23.65 23
  384.7 16.07 16
  384.9 7.17 7
  385.0 12.3 12
  385.1 19.26 19
  385.2 22.24 22
  385.3 18.93 18
  385.4 12.58 12
  386.1 3.03 3
  386.2 7.85 7
  386.3 16.0 15
  386.4 19.83 19
  386.5 15.89 15
  386.8 7.43 7
  386.9 14.71 14
  387.0 19.88 19
  387.1 18.82 18
  387.2 12.65 12
  387.4 6.6 6
  387.5 12.71 12
  387.6 20.17 20
  387.7 22.91 22
  387.8 18.96 18
  387.9 11.62 11
  388.1 7.41 7
  388.2 13.85 13
  388.3 20.56 20
  388.4 21.5 21
  388.5 15.77 15
  388.7 7.53 7
  388.8 12.99 12
  388.9 20.0 19
  389.0 22.03 22
  389.1 17.62 17
  389.3 10.1 10
  389.4 14.64 14
  389.5 21.53 21
  389.6 25.05 25
  389.7 22.08 22
  389.8 14.37 14
  390.0 7.63 7
  390.1 14.49 14
  390.2 22.31 22
  390.3 23.83 23
  390.4 17.72 17
  390.6 8.88 8
  390.7 15.11 15
  390.8 22.63 22
  390.9 23.8 23
  391.0 17.01 16
  391.3 7.95 7
  391.4 16.01 15
  391.5 21.46 21
  391.6 20.35 20
  391.7 14.18 14
  391.9 7.82 7
  392.0 13.06 13
  392.1 19.89 19
  392.2 22.23 22
  392.3 17.67 17
  392.4 9.77 9
  392.6 7.64 7
  392.7 14.89 14
  392.8 21.01 20
  392.9 21.09 21
  393.0 15.14 15
  393.2 6.96 6
  393.3 11.22 11
  393.4 16.53 16
  393.5 17.65 17
  393.6 13.61 13
  393.9 7.86 7
  394.0 14.15 14
  394.1 18.84 18
  394.2 17.77 17
  394.5 10.59 10
  394.6 17.62 17
  394.7 23.33 23
  394.8 22.82 22
  394.9 16.74 16
  395.1 8.5 8
  395.2 12.75 12
  395.3 19.48 19
  395.4 22.82 22
  395.5 19.28 19
  395.6 10.94 10
  395.8 4.96 4
  395.9 11.32 11
  396.0 17.48 17
  396.1 18.18 18
  396.2 13.72 13
  396.4 8.85 8
  396.5 13.27 13
  396.6 18.29 18
  396.7 19.15 19
  396.8 14.93 14
  397.0 8.99 8
  397.1 13.87 13
  397.2 19.87 19
  397.3 21.09 21
  397.4 15.67 15
  397.7 6.74 6
  397.8 15.55 15
  397.9 22.48 22
  398.0 21.81 21
  398.1 14.28 14
  398.3 5.82 5
  398.4 11.84 11
  398.5 18.83 18
  398.6 20.18 20
  398.7 14.73 14
  398.9 4.89 4
  399.0 9.48 9
  399.1 17.23 17
  399.2 21.35 21
  399.3 18.54 18
  399.4 11.57 11
  399.6 7.52 7
  399.7 13.46 13
  399.8 19.21 19
  399.9 19.85 19
  400.0 15.07 15
  400.2 8.2 8
  400.3 12.82 12
  400.4 19.87 19
  400.5 23.56 23
  400.6 20.12 20
  400.7 11.64 11
  400.9 5.63 5
  401.0 13.08 13
  401.1 21.0 20
  401.2 22.43 22
  401.3 16.03 16
  401.5 5.31 5
  401.6 10.72 10
  401.7 18.46 18
  401.8 21.09 21
  401.9 16.39 16
  402.1 6.1 6
  402.2 10.38 10
  402.3 18.44 18
  402.4 23.52 23
  402.5 21.22 21
  402.6 13.53 13
  402.8 7.06 7
  402.9 13.03 13
  403.0 19.22 19
  403.1 19.74 19
  403.2 13.89 13
  403.4 5.44 5
  403.5 11.39 11
  403.6 20.15 20
  403.7 24.38 24
  403.8 20.69 20
  403.9 12.87 12
  404.1 10.21 10
  404.2 15.52 15
  404.3 18.61 18
  404.4 16.62 16
  404.5 11.17 11
  404.7 7.19 7
  404.8 13.54 13
  404.9 21.56 21
  405.0 24.98 24
  405.1 21.08 21
  405.2 13.53 13
  405.4 11.25 11
  405.5 16.51 16
  405.6 19.07 19
  405.7 16.46 16
  406.0 11.37 11
  406.1 17.49 17
  406.2 22.74 22
  406.3 22.35 22
  406.4 15.82 15
  406.6 5.62 5
  406.7 9.83 9
  406.8 16.78 16
  406.9 20.51 20
  407.0 17.8 17
  407.1 10.89 10
  407.3 7.9 7
  407.4 15.6 15
  407.5 22.87 22
  407.6 23.68 23
  407.7 17.18 17
  407.8 8.45 8
  408.0 8.15 8
  408.1 15.12 15
  408.2 18.77 18
  408.3 16.68 16
  408.5 11.13 11
  408.6 14.26 14
  408.7 19.12 19
  408.8 21.16 21
  408.9 17.73 17
  409.0 11.07 11
  409.2 8.75 8
  409.3 14.39 14
  409.4 18.63 18
  409.5 18.23 18
  409.6 13.92 13
  409.8 8.37 8
  409.9 12.52 12
  410.0 18.67 18
  410.1 20.81 20
  410.2 15.72 15
  410.5 7.76 7
  410.6 16.51 16
  410.7 21.49 21
  410.8 18.99 18
  411.1 11.48 11
  411.2 18.6 18
  411.3 24.13 24
  411.4 23.38 23
  411.5 16.75 16
  411.7 7.14 7
  411.8 11.77 11
  411.9 19.61 19
  412.0 23.94 23
  412.1 20.34 20
  412.2 11.29 11
  412.4 7.23 7
  412.5 16.48 16
  412.6 24.49 24
  412.7 24.53 24
  412.8 16.99 16
  412.9 8.09 8
  413.1 7.44 7
  413.2 14.01 13
  413.3 18.52 18
  413.4 17.36 17
  413.7 9.62 9
  413.8 17.25 17
  413.9 23.14 23
  414.0 21.0 20
  414.1 11.97 11
  414.3 4.06 4
  414.4 12.24 12
  414.5 21.16 21
  414.6 23.03 23
  414.7 16.45 16
  414.9 3.79 3
  415.0 8.99 8
  415.1 18.87 18
  415.2 25.35 25
  415.3 23.05 23
  415.4 13.78 13
  415.6 5.52 5
  415.7 13.86 13
  415.8 23.08 23
  415.9 25.18 25
  416.0 19.06 19
  416.1 10.75 10
  416.3 9.53 9
  416.4 15.01 14
  416.5 18.88 18
  416.6 18.78 18
  416.8 13.69 13
  416.9 15.68 15
  417.0 20.59 20
  417.1 23.3 23
  417.2 19.77 19
  417.3 12.28 12
  417.5 8.81 8
  417.6 14.45 14
  417.7 19.09 19
  417.8 19.18 19
  417.9 15.19 15
  418.1 10.28 10
  418.2 14.09 14
  418.3 19.22 19
  418.4 21.34 21
  418.5 18.3 18
  418.6 11.72 11
  418.8 6.52 6
  418.9 12.57 12
  419.0 19.14 19
  419.1 20.02 19
  419.2 14.38 14
  419.4 6.74 6
  419.5 12.19 12
  419.6 19.72 19
  419.7 23.56 23
  419.8 20.81 20
  419.9 13.37 13
  420.1 7.96 7
  420.2 15.01 14
  420.3 21.53 21
  420.4 21.16 21
  420.5 14.6 14
  420.7 8.43 8
  420.8 14.39 14
  420.9 21.6 21
  421.0 24.46 24
  421.1 20.64 20
  421.2 13.31 13
  421.4 12.14 12
  421.5 19.33 19
  421.6 23.08 23
  421.7 18.69 18
  421.8 9.51 9
  422.0 7.33 7
  422.1 16.79 16
  422.2 24.38 24
  422.3 24.24 24
  422.4 17.39 17
  422.6 9.49 9
  422.7 13.92 13
  422.8 19.02 19
  422.9 20.56 20
  423.0 17.95 17
  423.3 11.77 11
  423.4 17.25 17
  423.5 22.79 22
  423.6 22.83 22
  423.7 16.07 16
  424.6 7.96 7
  424.7 14.49 14
  424.8 18.6 18
  424.9 17.0 16
  425.2 10.37 10
  425.3 17.41 17
  425.4 24.33 24
  425.5 25.27 25
  425.6 18.66 18
  425.7 9.28 9
  425.9 7.88 7
  426.0 16.05 16
  426.1 22.37 22
  426.2 22.3 22
  426.3 16.68 16
  426.5 8.91 8
  426.6 12.75 12
  426.7 18.3 18
  426.8 20.04 20
  426.9 15.58 15
  427.1 5.04 5
  427.2 9.49 9
  427.3 18.62 18
  427.4 24.38 24
  427.5 21.51 21
  427.6 12.88 12
  427.8 7.86 7
  427.9 14.69 14
  428.0 19.93 19
  428.1 18.4 18
  428.2 12.01 11
  428.4 9.34 9
  428.5 15.62 15
  428.6 20.77 20
  428.7 20.57 20
  428.8 15.28 15
  429.0 8.73 8
  429.1 13.16 13
  429.2 18.02 18
  429.3 17.94 17
  429.4 12.04 12
  429.6 1.47 1
  429.7 5.75 5
  429.8 14.72 14
  429.9 21.62 21
  430.0 21.28 21
  430.1 14.84 14
  430.3 8.28 8
  430.4 12.95 12
  430.5 17.48 17
  430.6 17.59 17
  430.7 13.6 13
  430.9 8.74 8
  431.0 12.24 12
  431.1 17.26 17
  431.2 20.12 20
  431.3 19.68 19
  431.4 18.47 18
  431.5 18.67 18
  431.6 19.04 19
  431.7 18.4 18
  431.8 18.91 18
  431.9 22.67 22
  432.0 27.46 27
  432.1 30.18 30
  432.2 31.73 31
  432.3 34.27 34
  432.4 35.89 35
  432.5 31.85 31
  432.6 20.97 20
  432.7 8.61 8
  432.9 5.55 5
  433.0 14.18 14
  433.1 20.8 20
  433.2 20.33 20
  433.3 13.94 13
  433.5 8.16 8
  433.6 14.02 14
  433.7 20.1 20
  433.8 21.0 20
  433.9 15.79 15
  434.1 5.67 5
  434.2 9.8 9
  434.3 17.35 17
  434.4 21.39 21
  434.5 18.5 18
  434.6 11.53 11
  434.8 5.93 5
  434.9 10.94 10
  435.0 17.32 17
  435.1 19.71 19
  435.2 16.03 16
  435.4 6.95 6
  435.5 10.62 10
  435.6 17.94 17
  435.7 22.85 22
  435.8 21.14 21
  435.9 14.58 14
  436.1 10.27 10
  436.2 16.12 16
  436.3 21.12 21
  436.4 20.0 19
  436.5 12.9 12
  436.7 4.71 4
  436.8 11.66 11
  436.9 20.67 20
  437.0 24.02 23
  437.1 19.32 19
  437.4 11.4 11
  437.5 18.37 18
  437.6 22.28 22
  437.7 20.15 20
  437.8 14.54 14
  438.0 9.92 9
  438.1 13.1 13
  438.2 17.24 17
  438.3 18.96 18
  438.4 16.15 16
  438.6 8.31 8
  438.7 12.51 12
  438.8 20.03 20
  438.9 23.33 23
  439.0 18.56 18
  439.1 9.61 9
  439.3 6.23 6
  439.4 14.67 14
  439.5 22.56 22
  439.6 23.02 22
  439.7 15.33 15
  439.9 4.64 4
  440.0 11.29 11
  440.1 19.44 19
  440.2 21.01 20
  440.3 14.79 14
  440.6 6.98 6
  440.7 14.16 14
  440.8 19.12 19
  440.9 17.96 17
  441.2 10.57 10
  441.3 17.77 17
  441.4 23.54 23
  441.5 23.12 23
  441.6 17.0 16
  441.7 9.8 9
  441.9 9.38 9
  442.0 15.42 15
  442.1 19.07 19
  442.2 16.91 16
  442.4 8.98 8
  442.5 12.15 12
  442.6 18.52 18
  442.7 22.96 22
  442.8 22.0 21
  442.9 15.92 15
  443.1 6.11 6
  443.2 10.24 10
  443.3 17.92 17
  443.4 22.54 22
  443.5 20.48 20
  443.6 14.28 14
  443.8 10.53 10
  443.9 15.7 15
  444.0 20.4 20
  444.1 19.42 19
  444.2 12.37 12
  444.4 4.73 4
  444.5 11.62 11
  444.6 19.79 19
  444.7 22.12 22
  444.8 17.24 17
  445.0 8.75 8
  445.1 13.01 12
  445.2 18.49 18
  445.3 19.51 19
  445.4 14.74 14
  445.7 8.69 8
  445.8 15.5 15
  445.9 19.6 19
  446.0 17.68 17
  446.1 11.8 11
  446.3 8.42 8
  446.4 14.39 14
  446.5 20.33 20
  446.6 20.86 20
  446.7 15.13 15
  446.9 5.84 5
  447.0 11.91 11
  447.1 21.36 21
  447.2 25.71 25
  447.3 20.99 20
  447.4 11.66 11
  447.6 9.34 9
  447.7 18.02 18
  447.8 25.1 25
  447.9 24.98 24
  448.0 17.8 17
  448.1 8.96 8
  448.3 7.15 7
  448.4 13.52 13
  448.5 18.33 18
  448.6 18.0 17
  448.7 13.85 13
  448.9 11.7 11
  449.0 15.68 15
  449.1 18.13 18
  449.2 15.79 15
  449.5 8.56 8
  449.6 16.69 16
  449.7 24.23 24
  449.8 25.32 25
  449.9 19.13 19
  450.0 10.52 10
  450.2 9.4 9
  450.3 16.95 16
  450.4 21.94 21
  450.5 19.81 19
  450.6 12.1 12
  450.8 6.66 6
  450.9 15.25 15
  451.0 24.15 24
  451.1 25.38 25
  451.2 17.91 17
  452.1 9.29 9
  452.2 16.66 16
  452.3 22.15 22
  452.4 21.03 21
  452.5 14.2 14
  452.7 8.41 8
  452.8 14.93 14
  452.9 21.14 21
  453.0 21.38 21
  453.1 15.67 15
  453.4 9.8 9
  453.5 16.33 16
  453.6 20.51 20
  453.7 18.79 18
  453.8 12.95 12
  454.0 10.15 10
  454.1 16.13 16
  454.2 21.35 21
  454.3 21.12 21
  454.4 15.61 15
  455.3 11.41 11
  455.4 16.22 16
  455.5 19.27 19
  455.6 17.65 17
  455.7 12.1 12
  455.9 6.5 6
  456.0 11.85 11
  456.1 19.02 19
  456.2 22.28 22
  456.3 19.38 19
  456.4 13.2 13
  456.6 10.33 10
  456.7 15.28 15
  456.8 19.23 19
  456.9 17.9 17
  457.0 11.8 11
  457.2 7.66 7
  457.3 14.61 14
  457.4 20.94 20
  457.5 20.76 20
  457.6 14.62 14
  457.8 7.84 7
  457.9 12.53 12
  458.0 18.3 18
  458.1 20.38 20
  458.2 16.95 16
  458.5 9.5 9
  458.6 16.52 16
  458.7 21.89 21
  458.8 20.73 20
  458.9 14.41 14
  459.1 9.78 9
  459.2 15.06 15
  459.3 19.87 19
  459.4 19.81 19
  459.5 14.94 14
  459.7 7.01 7
  459.8 10.59 10
  459.9 17.45 17
  460.0 21.94 21
  460.1 19.77 19
  460.2 12.6 12
  460.4 9.27 9
  460.5 16.49 16
  460.6 21.62 21
  460.7 19.45 19
  460.8 12.16 12
  461.0 8.86 8
  461.1 16.11 16
  461.2 22.49 22
  461.3 22.82 22
  461.4 16.75 16
  461.6 5.75 5
  461.7 10.76 10
  461.8 20.01 19
  461.9 24.78 24
  462.0 20.22 20
  462.1 10.4 10
  462.3 6.07 6
  462.4 14.32 14
  462.5 22.44 22
  462.6 24.64 24
  462.7 19.68 19
  462.8 11.86 11
  463.0 9.14 9
  463.1 15.19 15
  463.2 20.22 20
  463.3 19.95 19
  463.4 14.75 14
  463.6 9.44 9
  463.7 14.76 14
  463.8 20.6 20
  463.9 21.11 21
  464.0 15.13 15
  464.2 4.36 4
  464.3 8.71 8
  464.4 17.24 17
  464.5 23.35 23
  464.6 22.52 22
  464.7 16.06 16
  464.9 8.78 8
  465.0 12.71 12
  465.1 16.84 16
  465.2 16.55 16
  465.3 11.76 11
  465.5 8.19 8
  465.6 14.52 14
  465.7 21.24 21
  465.8 22.52 22
  465.9 17.11 17
  466.2 11.14 11
  466.3 17.55 17
  466.4 21.1 21
  466.5 18.94 18
  466.6 12.61 12
  466.8 9.04 9
  466.9 17.08 17
  467.0 25.09 25
  467.1 26.1 26
  467.2 19.74 19
  468.1 9.32 9
  468.2 16.28 16
  468.3 20.97 20
  468.4 19.17 19
  468.5 12.58 12
  468.7 6.93 6
  468.8 12.43 12
  468.9 18.9 18
  469.0 20.44 20
  469.1 14.8 14
  469.3 2.67 2
  469.4 8.1 8
  469.5 18.17 18
  469.6 24.14 24
  469.7 21.24 21
  469.8 13.06 13
  470.0 9.4 9
  470.1 15.77 15
  470.2 20.09 20
  470.3 18.25 18
  470.4 11.96 11
  470.6 6.94 6
  470.7 12.49 12
  470.8 18.93 18
  470.9 21.22 21
  471.0 17.57 17
  471.1 11.16 11
  471.3 9.52 9
  471.4 15.05 15
  471.5 18.96 18
  471.6 17.61 17
  471.7 12.06 12
  471.9 8.48 8
  472.0 15.19 15
  472.1 22.68 22
  472.2 25.25 25
  472.3 21.02 20
  472.4 13.34 13
  472.6 11.06 11
  472.7 18.61 18
  472.8 23.75 23
  472.9 20.86 20
  473.0 12.46 12
  473.2 8.33 8
  473.3 15.18 15
  473.4 20.47 20
  473.5 19.59 19
  473.6 13.56 13
  473.8 7.05 7
  473.9 11.85 11
  474.0 17.81 17
  474.1 20.46 20
  474.2 18.72 18
  474.3 14.47 14
  474.5 11.93 11
  474.6 16.96 16
  474.7 21.95 21
  474.8 21.51 21
  474.9 15.05 15
  475.1 6.83 6
  475.2 11.73 11
  475.3 18.05 18
  475.4 20.09 20
  475.5 15.77 15
  475.8 7.64 7
  475.9 15.17 15
  476.0 21.23 21
  476.1 21.27 21
  476.2 16.22 16
  477.0 6.42 6
  477.1 11.88 11
  477.2 18.67 18
  477.3 22.02 21
  477.4 19.8 19
  477.5 13.96 13
  477.7 9.28 9
  477.8 14.5 14
  477.9 20.22 20
  478.0 20.73 20
  478.1 15.36 15
  478.3 10.39 10
  478.4 16.55 16
  478.5 22.36 22
  478.6 22.55 22
  478.7 17.05 17
  478.8 10.18 10
  479.0 9.08 9
  479.1 15.16 15
  479.2 20.11 20
  479.3 19.56 19
  479.4 13.72 13
  479.6 8.76 8
  479.7 16.27 16
  479.8 24.4 24
  479.9 25.58 25
  480.0 18.14 18
  480.3 9.58 9
  480.4 19.02 19
  480.5 24.74 24
  480.6 22.09 22
  480.7 13.54 13
  480.9 7.77 7
  481.0 15.8 15
  481.1 22.78 22
  481.2 21.97 21
  481.3 14.49 14
  481.5 6.92 6
  481.6 12.57 12
  481.7 19.39 19
  481.8 21.47 21
  481.9 17.0 16
  482.2 9.31 9
  482.3 16.73 16
  482.4 22.17 22
  482.5 20.8 20
  482.6 13.6 13
  482.8 6.76 6
  482.9 14.01 13
  483.0 22.56 22
  483.1 25.21 25
  483.2 20.38 20
  483.3 13.28 13
  483.5 12.95 12
  483.6 17.38 17
  483.7 19.24 19
  483.8 16.95 16
  483.9 12.29 12
  484.1 9.97 9
  484.2 15.39 15
  484.3 20.95 20
  484.4 21.57 21
  484.5 16.75 16
  484.7 9.78 9
  484.8 13.7 13
  484.9 19.38 19
  485.0 22.03 22
  485.1 19.1 19
  485.2 12.27 12
  485.4 8.06 8
  485.5 14.47 14
  485.6 20.29 20
  485.7 20.23 20
  485.8 14.87 14
  486.0 10.14 10
  486.1 15.15 15
  486.2 19.85 19
  486.3 19.47 19
  486.4 14.04 14
  486.6 7.66 7
  486.7 12.86 12
  486.8 19.66 19
  486.9 21.78 21
  487.0 16.08 16
  487.1 6.12 6
  487.3 3.96 3
  487.4 14.61 14
  487.5 23.59 23
  487.6 24.96 24
  487.7 20.24 20
  487.9 15.2 15
  488.0 18.74 18
  488.1 22.09 22
  488.2 21.05 21
  488.3 14.98 14
  488.5 4.91 4
  488.6 9.2 9
  488.7 17.33 17
  488.8 22.52 22
  488.9 20.32 20
  489.0 12.76 12
  489.2 8.59 8
  489.3 16.36 16
  489.4 22.89 22
  489.5 21.9 21
  489.6 14.5 14
  489.8 8.06 8
  489.9 14.2 14
  490.0 20.6 20
  490.1 21.86 21
  490.2 16.77 16
  490.3 8.78 8
  490.5 5.67 5
  490.6 12.21 12
  490.7 17.4 17
  490.8 16.99 16
  490.9 12.37 12
  491.1 8.97 8
  491.2 13.45 13
  491.3 18.58 18
  491.4 20.2 20
  491.5 16.61 16
  492.4 6.43 6
  492.5 12.3 12
  492.6 18.14 18
  492.7 18.84 18
  492.8 13.75 13
  493.0 5.93 5
  493.1 11.11 11
  493.2 18.6 18
  493.3 21.91 21
  493.4 18.62 18
  493.5 11.76 11
  493.7 6.78 6
  493.8 12.07 12
  493.9 18.6 18
  494.0 21.27 21
  494.1 18.11 18
  494.9 7.03 7
  495.0 11.13 11
  495.1 18.18 18
  495.2 22.37 22
  495.3 19.88 19
  495.4 12.35 12
  495.6 5.24 5
  495.7 10.8 10
  495.8 17.41 17
  495.9 19.81 19
  496.0 16.58 16
  496.9 6.56 6
  497.0 15.07 15
  497.1 22.13 22
  497.2 21.81 21
  497.3 14.53 14
  497.5 6.06 6
  497.6 12.62 12
  497.7 21.16 21
  497.8 24.57 24
  497.9 20.48 20
  498.0 12.92 12
  498.2 9.71 9
  498.3 15.14 15
  498.4 19.1 19
  498.5 17.47 17
  498.6 11.55 11
  498.8 8.53 8
  498.9 15.05 15
  499.0 21.26 21
  499.1 22.01 21
  499.2 16.4 16
  499.4 6.55 6
  499.5 10.92 10
  499.6 18.18 18
  499.7 22.2 22
  499.8 20.2 20
  499.9 14.47 14
  500.1 10.95 10
  500.2 16.35 16
  500.3 21.76 21
  500.4 21.72 21
  500.5 14.85 14
  500.7 2.8 2
  500.8 7.98 7
  500.9 17.01 16
  501.0 22.36 22
  501.1 20.28 20
  501.2 13.42 13
  501.4 9.07 9
  501.5 15.44 15
  501.6 20.82 20
  501.7 19.48 19
  501.8 12.4 12
  502.0 5.35 5
  502.1 10.36 10
  502.2 17.01 16
  502.3 20.55 20
  502.4 18.52 18
  502.5 13.15 13
  502.7 11.79 11
  502.8 16.86 16
  502.9 19.79 19
  503.0 17.59 17
  503.3 11.41 11
  503.4 17.03 17
  503.5 20.75 20
  503.6 19.22 19
  503.7 13.91 13
  503.9 8.48 8
  504.0 12.32 12
  504.1 17.15 17
  504.2 18.27 18
  504.3 14.16 14
  504.5 6.07 6
  504.6 10.27 10
  504.7 17.96 17
  504.8 23.02 22
  504.9 21.71 21
  505.0 15.96 15
  505.2 10.87 10
  505.3 15.22 15
  505.4 20.43 20
  505.5 21.93 21
  505.6 17.94 17
  505.7 11.36 11
  505.9 9.37 9
  506.0 14.61 14
  506.1 17.96 17
  506.2 15.86 15
  506.3 9.61 9
  506.5 5.43 5
  506.6 12.65 12
  506.7 20.55 20
  506.8 22.19 22
  506.9 15.9 15
  507.1 4.58 4
  507.2 9.78 9
  507.3 17.26 17
  507.4 19.35 19
  507.5 14.48 14
  507.7 7.1 7
  507.8 11.04 11
  507.9 15.99 15
  508.0 17.8 17
  508.1 15.18 15
  508.4 8.8 8
  508.5 15.19 15
  508.6 21.37 21
  508.7 22.06 22
  508.8 16.03 16
  509.1 8.61 8
  509.2 17.29 17
  509.3 22.5 22
  509.4 20.2 20
  509.5 13.53 13
  509.7 11.8 11
  509.8 17.74 17
  509.9 21.11 21
  510.0 18.08 18
  510.1 10.63 10
  510.3 3.3 3
  510.4 8.96 8
  510.5 18.02 18
  510.6 24.07 24
  510.7 22.1 22
  510.8 14.19 14
  511.0 9.72 9
  511.1 16.33 16
  511.2 21.6 21
  511.3 21.2 21
  511.4 15.6 15
  511.6 7.88 7
  511.7 11.9 11
  511.8 16.83 16
  511.9 17.22 17
  512.0 12.54 12
  512.2 7.68 7
  512.3 13.34 13
  512.4 20.36 20
  512.5 22.99 22
  512.6 18.55 18
  512.7 10.16 10
  512.9 7.5 7
  513.0 15.99 15
  513.1 22.87 22
  513.2 22.28 22
  513.3 15.49 15
  513.5 9.34 9
  513.6 14.89 14
  513.7 20.73 20
  513.8 21.53 21
  513.9 16.27 16
  514.1 7.29 7
  514.2 12.06 12
  514.3 19.95 19
  514.4 24.29 24
  514.5 21.17 21
  514.6 13.05 13
  514.8 6.76 6
  514.9 13.32 13
  515.0 20.7 20
  515.1 22.88 22
  515.2 18.5 18
  516.1 9.05 9
  516.2 17.38 17
  516.3 24.01 23
  516.4 23.7 23
  516.5 17.14 17
  516.7 8.48 8
  516.8 13.38 13
  516.9 20.27 20
  517.0 22.33 22
  517.1 17.08 17
  517.4 9.94 9
  517.5 16.42 16
  517.6 19.54 19
  517.7 17.13 17
  517.8 11.51 11
  518.0 7.85 7
  518.1 13.59 13
  518.2 19.78 19
  518.3 20.46 20
  518.4 14.56 14
  518.6 6.45 6
  518.7 12.5 12
  518.8 20.5 20
  518.9 23.54 23
  519.0 19.14 19
  519.1 11.26 11
  519.3 9.23 9
  519.4 15.9 15
  519.5 20.65 20
  519.6 19.77 19
  519.7 14.84 14
  519.9 10.77 10
  520.0 15.38 15
  520.1 21.26 21
  520.2 24.08 24
  520.3 21.17 21
  520.4 14.45 14
  520.6 10.81 10
  520.7 16.9 16
  520.8 21.37 21
  520.9 19.22 19
  521.2 10.75 10
  521.3 18.89 18
  521.4 24.99 24
  521.5 23.54 23
  521.6 15.51 15
  521.8 5.38 5
  521.9 11.06 11
  522.0 19.44 19
  522.1 23.81 23
  522.2 21.31 21
  522.3 14.49 14
  522.5 8.17 8
  522.6 13.14 13
  522.7 19.18 19
  522.8 20.62 20
  522.9 15.7 15
  523.1 6.6 6
  523.2 11.48 11
  523.3 18.93 18
  523.4 21.62 21
  523.5 16.52 16
  523.8 8.39 8
  523.9 16.91 16
  524.0 22.2 22
  524.1 19.84 19
  524.2 12.42 12
  524.4 7.27 7
  524.5 13.17 13
  524.6 19.49 19
  524.7 21.33 21
  524.8 17.65 17
  525.0 10.84 10
  525.1 15.09 15
  525.2 21.21 21
  525.3 23.47 23
  525.4 19.56 19
  525.5 12.35 12
  525.7 8.76 8
  525.8 15.58 15
  525.9 22.16 22
  526.0 22.61 22
  526.1 16.38 16
  526.3 7.65 7
  526.4 13.32 13
  526.5 21.41 21
  526.6 25.02 24
  526.7 20.83 20
  526.8 11.74 11
  527.0 6.86 6
  527.1 15.24 15
  527.2 22.22 22
  527.3 21.09 21
  527.4 13.24 13
  527.6 7.45 7
  527.7 14.38 14
  527.8 20.33 20
  527.9 19.64 19
  528.0 12.75 12
  528.2 4.54 4
  528.3 10.51 10
  528.4 18.66 18
  528.5 22.22 22
  528.6 18.52 18
  528.9 9.45 9
  529.0 17.88 17
  529.1 24.65 24
  529.2 23.74 23
  529.3 15.75 15
  529.5 5.0 4
  529.6 10.32 10
  529.7 18.58 18
  529.8 22.68 22
  529.9 18.99 18
  530.0 10.93 10
  530.2 8.96 8
  530.3 17.25 17
  530.4 24.04 24
  530.5 24.09 24
  530.6 17.71 17
  530.7 10.06 10
  531.4 7.24 7
  531.5 12.29 12
  531.6 20.25 20
  531.7 23.46 23
  531.8 18.6 18
  531.9 9.87 9
  532.1 8.11 8
  532.2 16.14 16
  532.3 22.06 22
  532.4 21.21 21
  532.5 14.89 14
  532.7 8.19 8
  532.8 14.04 14
  532.9 21.36 21
  533.0 23.27 23
  533.1 17.51 17
  533.2 8.91 8
  533.4 7.01 7
  533.5 14.14 14
  533.6 19.91 19
  533.7 19.45 19
  533.8 12.83 12
  534.0 4.31 4
  534.1 10.42 10
  534.2 18.67 18
  534.3 21.49 21
  534.4 16.47 16
  534.6 7.57 7
  534.7 13.79 13
  534.8 21.79 21
  534.9 24.12 24
  535.0 18.67 18
  535.1 9.77 9
  535.3 7.1 7
  535.4 15.47 15
  535.5 22.04 22
  535.6 21.03 21
  535.7 14.36 14
  535.9 9.76 9
  536.0 15.01 14
  536.1 20.1 20
  536.2 20.79 20
  536.3 16.33 16
  536.5 8.39 8
  536.6 12.27 12
  536.7 18.52 18
  536.8 21.32 21
  536.9 17.7 17
  537.0 10.05 10
  537.2 4.97 4
  537.3 11.84 11
  537.4 19.34 19
  537.5 21.22 21
  537.6 15.96 15
  537.8 5.91 5
  537.9 10.98 10
  538.0 19.32 19
  538.1 23.34 23
  538.2 19.13 19
  538.3 10.35 10
  538.5 6.53 6
  538.6 14.28 14
  538.7 21.22 21
  538.8 21.92 21
  538.9 16.58 16
  539.2 10.26 10
  539.3 15.47 15
  539.4 18.77 18
  539.5 17.57 17
  539.6 13.26 13
  539.8 10.98 10
  539.9 14.72 14
  540.0 17.03 17
  540.1 15.23 15
  540.2 10.6 10
  540.4 8.52 8
  540.5 14.48 14
  540.6 20.83 20
  540.7 22.23 22
  540.8 17.49 17
  541.7 11.43 11
  541.8 17.61 17
  541.9 21.66 21
  542.0 18.95 18
  542.1 10.89 10
  542.3 3.59 3
  542.4 10.4 10
  542.5 18.74 18
  542.6 21.9 21
  542.7 17.68 17
  542.9 8.19 8
  543.0 12.17 12
  543.1 18.76 18
  543.2 21.93 21
  543.3 18.95 18
  543.4 12.5 12
  543.6 9.17 9
  543.7 14.82 14
  543.8 20.03 20
  543.9 20.16 20
  544.0 15.03 15
  544.2 7.98 7
  544.3 12.2 12
  544.4 18.28 18
  544.5 21.0 20
  544.6 18.14 18
  544.7 12.18 12
  544.9 9.17 9
  545.0 14.29 14
  545.1 19.33 19
  545.2 20.12 20
  545.3 16.01 15
  546.1 7.11 7
  546.2 10.58 10
  546.3 17.39 17
  546.4 21.86 21
  546.5 20.59 20
  546.6 15.06 15
  546.8 10.32 10
  546.9 15.12 15
  547.0 20.27 20
  547.1 20.87 20
  547.2 15.95 15
  547.4 7.49 7
  547.5 11.4 11
  547.6 17.4 17
  547.7 19.74 19
  547.8 16.13 16
  548.1 10.02 10
  548.2 16.94 16
  548.3 21.95 21
  548.4 20.59 20
  548.5 13.64 13
  548.7 6.63 6
  548.8 12.63 12
  548.9 19.47 19
  549.0 21.33 21
  549.1 17.52 17
  549.2 12.14 12
  549.4 11.71 11
  549.5 15.51 15
  549.6 17.61 17
  549.7 15.8 15
  549.8 11.08 11
  550.0 8.41 8
  550.1 14.51 14
  550.2 20.7 20
  550.3 21.45 21
  550.4 16.19 16
  551.3 5.4 5
  551.4 12.83 12
  551.5 20.89 20
  551.6 22.68 22
  551.7 16.82 16
  551.8 8.78 8
  552.0 7.59 7
  552.1 13.08 13
  552.2 16.5 16
  552.3 14.84 14
  552.6 7.44 7
  552.7 14.38 14
  552.8 20.71 20
  552.9 21.04 21
  553.0 15.56 15
  553.2 9.2 9
  553.3 13.86 13
  553.4 18.92 18
  553.5 19.29 19
  553.6 14.57 14
  553.8 8.82 8
  553.9 13.49 13
  554.0 19.18 19
  554.1 20.86 20
  554.2 16.7 16
  554.3 9.39 9
  554.5 5.98 5
  554.6 13.74 13
  554.7 21.95 21
  554.8 24.03 24
  554.9 18.78 18
  555.0 11.63 11
  555.7 7.85 7
  555.8 11.47 11
  555.9 17.61 17
  556.0 22.01 21
  556.1 21.53 21
  556.2 16.66 16
  556.4 10.59 10
  556.5 14.59 14
  556.6 19.05 19
  556.7 18.25 18
  556.8 11.36 11
  557.0 2.69 2
  557.1 10.07 10
  557.2 20.9 20
  557.3 26.73 26
  557.4 23.14 23
  557.5 13.7 13
  557.7 5.84 5
  557.8 11.38 11
  557.9 17.46 17
  558.0 19.28 19
  558.1 16.11 16
  559.0 8.17 8
  559.1 15.18 15
  559.2 20.72 20
  559.3 19.72 19
  559.4 13.16 13
  559.6 7.61 7
  559.7 14.03 14
  559.8 20.92 20
  559.9 22.98 22
  560.0 19.56 19
  560.1 14.45 14
  560.8 7.17 7
  560.9 11.11 11
  561.0 19.57 19
  561.1 24.84 24
  561.2 21.73 21
  561.3 12.52 12
  561.5 2.99 2
  561.6 9.22 9
  561.7 17.72 17
  561.8 21.45 21
  561.9 17.56 17
  562.8 6.63 6
  562.9 11.86 11
  563.0 17.52 17
  563.1 19.5 19
  563.2 16.89 16
  563.4 12.08 12
  563.5 15.86 15
  563.6 21.03 21
  563.7 22.46 22
  563.8 17.67 17
  563.9 9.54 9
  564.1 6.46 6
  564.2 14.54 14
  564.3 22.09 22
  564.4 23.14 23
  564.5 17.59 17
  564.8 10.59 10
  564.9 16.0 15
  565.0 19.72 19
  565.1 19.1 19
  565.2 15.01 14
  565.4 11.86 11
  565.5 15.95 15
  565.6 19.42 19
  565.7 18.6 18
  566.0 14.05 14
  566.1 19.34 19
  566.2 22.76 22
  566.3 20.67 20
  566.4 14.42 14
  566.6 9.2 9
  566.7 13.67 13
  566.8 18.36 18
  566.9 19.18 19
  567.0 15.53 15
  567.2 9.54 9
  567.3 13.83 13
  567.4 20.46 20
  567.5 23.88 23
  567.6 20.84 20
  567.7 13.39 13
  567.9 7.97 7
  568.0 14.5 14
  568.1 21.39 21
  568.2 22.55 22
  568.3 16.61 16
  568.5 5.26 5
  568.6 9.74 9
  568.7 17.86 17
  568.8 22.39 22
  568.9 19.44 19
  569.0 11.8 11
  569.2 7.3 7
  569.3 13.72 13
  569.4 19.23 19
  569.5 18.54 18
  569.6 12.37 12
  569.8 6.55 6
  569.9 12.06 12
  570.0 18.47 18
  570.1 20.94 20
  570.2 18.0 17
  570.3 12.1 12
  570.5 9.42 9
  570.6 15.95 15
  570.7 22.56 22
  570.8 23.58 23
  570.9 18.32 18
  571.1 10.17 10
  571.2 13.96 13
  571.3 19.15 19
  571.4 21.24 21
  571.5 19.06 19
  571.7 13.89 13
  571.8 16.97 16
  571.9 21.92 21
  572.0 23.25 23
  572.1 17.65 17
  572.2 8.36 8
  572.4 5.73 5
  572.5 14.48 14
  572.6 22.02 21
  572.7 22.66 22
  572.8 16.57 16
  573.0 7.88 7
  573.1 13.3 13
  573.2 20.59 20
  573.3 22.9 22
  573.4 18.24 18
  573.6 8.38 8
  573.7 12.5 12
  573.8 19.76 19
  573.9 23.54 23
  574.0 20.27 20
  574.1 12.6 12
  574.3 8.01 8
  574.4 15.35 15
  574.5 23.38 23
  574.6 25.59 25
  574.7 19.6 19
  574.8 9.69 9
  575.0 5.93 5
  575.1 13.74 13
  575.2 20.15 20
  575.3 20.49 20
  575.4 15.75 15
  575.6 9.49 9
  575.7 13.8 13
  575.8 20.11 20
  575.9 22.64 22
  576.0 18.89 18
  576.2 11.04 11
  576.3 15.5 15
  576.4 21.66 21
  576.5 23.15 23
  576.6 18.04 18
  576.9 10.0 9
  577.0 17.15 17
  577.1 21.5 21
  577.2 19.1 19
  577.3 12.48 12
  577.5 10.98 10
  577.6 18.11 18
  577.7 23.76 23
  577.8 23.61 23
  577.9 17.95 17
  578.1 9.25 9
  578.2 13.58 13
  578.3 20.34 20
  578.4 23.05 23
  578.5 19.17 19
  578.6 12.29 12
  578.8 10.05 10
  578.9 15.27 15
  579.0 19.24 19
  579.1 18.43 18
  579.2 12.99 12
  579.4 5.54 5
  579.5 10.55 10
  579.6 18.41 18
  579.7 22.38 22
  579.8 18.66 18
  579.9 10.07 10
  580.1 5.83 5
  580.2 14.98 14
  580.3 24.0 23
  580.4 25.0 24
  580.5 17.08 17
  580.7 5.02 5
  580.8 11.19 11
  580.9 19.38 19
  581.0 21.36 21
  581.1 15.25 15
  581.4 7.48 7
  581.5 14.84 14
  581.6 19.7 19
  581.7 18.91 18
  581.8 13.92 13
  582.0 10.43 10
  582.1 15.59 15
  582.2 20.56 20
  582.3 20.76 20
  582.4 15.83 15
  582.6 8.59 8
  582.7 13.36 13
  582.8 20.57 20
  582.9 23.58 23
  583.0 19.05 19
  583.1 10.51 10
  583.3 7.42 7
  583.4 14.59 14
  583.5 20.15 20
  583.6 19.2 19
  583.7 12.72 12
  583.9 6.33 6
  584.0 11.95 11
  584.1 18.35 18
  584.2 20.01 19
  584.3 15.75 15
  584.6 9.89 9
  584.7 16.4 16
  584.8 20.17 20
  584.9 17.66 17
  585.0 10.88 10
  585.2 6.22 6
  585.3 11.94 11
  585.4 17.92 17
  585.5 19.0 18
  585.6 14.05 14
  585.8 4.24 4
  585.9 8.47 8
  586.0 16.58 16
  586.1 21.61 21
  586.2 18.78 18
  586.3 10.55 10
  586.5 5.87 5
  586.6 12.85 12
  586.7 18.98 18
  586.8 19.14 19
  586.9 13.45 13
  587.1 6.77 6
  587.2 13.25 13
  587.3 21.57 21
  587.4 24.53 24
  587.5 19.7 19
  587.6 11.54 11
  587.8 10.07 10
  587.9 17.24 17
  588.0 22.14 22
  588.1 20.29 20
  588.2 13.46 13
  588.4 9.91 9
  588.5 16.5 16
  588.6 21.81 21
  588.7 21.38 21
  588.8 15.82 15
  589.1 8.72 8
  589.2 14.6 14
  589.3 18.06 18
  589.4 15.26 15
  589.6 5.77 5
  589.7 9.64 9
  589.8 17.38 17
  589.9 21.91 21
  590.0 19.49 19
  590.1 12.92 12
  590.3 9.93 9
  590.4 15.53 15
  590.5 20.39 20
  590.6 19.96 19
  590.7 13.45 13
  590.9 1.92 1
  591.0 6.45 6
  591.1 14.85 14
  591.2 20.55 20
  591.3 20.32 20
  591.4 15.7 15
  591.6 10.17 10
  591.7 14.5 14
  591.8 20.07 20
  591.9 21.01 20
  592.0 15.73 15
  592.2 6.73 6
  592.3 10.53 10
  592.4 16.96 16
  592.5 20.7 20
  592.6 18.46 18
  592.9 10.36 10
  593.0 18.29 18
  593.1 24.7 24
  593.2 23.35 23
  593.3 14.67 14
  593.5 4.86 4
  593.6 12.74 12
  593.7 22.59 22
  593.8 25.48 25
  593.9 19.29 19
  594.1 8.4 8
  594.2 13.76 13
  594.3 21.2 21
  594.4 23.89 23
  594.5 19.62 19
  594.6 11.72 11
  594.8 7.23 7
  594.9 13.18 13
  595.0 18.71 18
  595.1 19.33 19
  595.2 14.89 14
  595.4 7.32 7
  595.5 11.24 11
  595.6 17.82 17
  595.7 21.19 21
  595.8 18.47 18
  595.9 12.59 12
  596.1 11.0 10
  596.2 16.67 16
  596.3 21.42 21
  596.4 21.06 21
  596.5 15.53 15
  597.3 7.98 7
  597.4 11.63 11
  597.5 17.38 17
  597.6 20.47 20
  597.7 19.21 19
  597.8 15.46 15
  598.0 12.36 12
  598.1 16.19 16
  598.2 20.71 20
  598.3 20.72 20
  598.4 14.69 14
  598.6 7.17 7
  598.7 13.48 13
  598.8 21.6 21
  598.9 25.38 25
  599.0 22.35 22
  599.1 14.96 14
  599.3 8.26 8
  599.4 13.51 13
  599.5 19.02 19
  599.6 19.58 19
//
