ACCESSION: MSBNK-RIKEN_NPDepo-NGA01082
RECORD_TITLE: Songorine; LC-ESI-QQQ; MS2; Frag=135.0V CID@10.0; [M+H]+
DATE: 2018.04.04
AUTHORS: Nogawa T, Okano A, CSRS, RIKEN
LICENSE: CC BY
COMMENT: Origin: Plant
COMMENT: SubCategory_DNP: Terpenoid alkaloids, Diterpene alkaloid, Aconitum alkaloid
CH$NAME: Songorine
CH$COMPOUND_CLASS: Alkaloids
CH$FORMULA: C22H31NO3
CH$EXACT_MASS: 357.4973
CH$SMILES: C=C1[C@H]2C[C@]3(C4C[C@@H]5[C@@]6(C)CC[C@H](O)[C@@]5(C4N(CC)C6)[C@@H]3CC2=O)[C@@H]1O
CH$IUPAC: InChI=1S/C22H31NO3/c1-4-23-10-20(3)6-5-17(25)22-15(20)7-13(18(22)23)21-9-12(11(2)19(21)26)14(24)8-16(21)22/h12-13,15-19,25-26H,2,4-10H2,1,3H3/t12-,13?,15-,16-,17+,18?,19-,20+,21-,22+/m1/s1
CH$LINK: CAS 509-24-0
CH$LINK: CHEMSPIDER 16736029
CH$LINK: INCHIKEY CBOSLVQFGANWTL-NQZGNCTHSA-N
AC$INSTRUMENT: Agilent 6410 Triple Quadrupole LC/MS system
AC$INSTRUMENT_TYPE: LC-ESI-QQQ
AC$MASS_SPECTROMETRY: MS_TYPE MS2
AC$MASS_SPECTROMETRY: ION_MODE POSITIVE
MS$FOCUSED_ION: PRECURSOR_TYPE [M+H]+
PK$SPLASH: splash10-0a4i-0009000000-dbf38ee4794d3cd49373
PK$NUM_PEAK: 15
PK$PEAK: m/z int. rel.int.
  357.4 1.07 1
  357.5 3.13 3
  357.6 6.76 6
  357.7 13.09 13
  357.8 24.14 24
  357.9 41.09 41
  358.0 61.91 61
  358.1 81.65 81
  358.2 95.38 95
  358.3 100.0 99
  358.4 93.17 93
  358.5 73.58 73
  358.6 44.95 44
  358.7 17.37 17
  358.8 1.24 1
//
