ACCESSION: MSBNK-RIKEN_NPDepo-NGA01616
RECORD_TITLE: Lapidin; LC-ESI-QQQ; MS2; Frag=135.0V CID@25.0; [M+Na]+
DATE: 2018.04.04
AUTHORS: Nogawa T, Okano A, CSRS, RIKEN
LICENSE: CC BY
COMMENT: Origin: Plant
COMMENT: SubCategory_DNP: Sesquiterpenoids
CH$NAME: Lapidin
CH$COMPOUND_CLASS: Terpenoids
CH$FORMULA: C20H30O4
CH$EXACT_MASS: 334.4597
CH$SMILES: C/C=C(\C)C(=O)O[C@H]1CC(C)=CC(=O)[C@@]2(C)CC[C@@](O)(C(C)C)[C@H]12
CH$IUPAC: InChI=1S/C20H30O4/c1-7-14(5)18(22)24-15-10-13(4)11-16(21)19(6)8-9-20(23,12(2)3)17(15)19/h7,11-12,15,17,23H,8-10H2,1-6H3/b14-7+/t15-,17+,19+,20+/m0/s1
CH$LINK: CAS 79863-24-4
CH$LINK: CHEMSPIDER 4944881
CH$LINK: INCHIKEY YMWBTMBPEHUMBA-FAKHFBMMSA-N
CH$LINK: PUBCHEM CID:11872435
AC$INSTRUMENT: Agilent 6410 Triple Quadrupole LC/MS system
AC$INSTRUMENT_TYPE: LC-ESI-QQQ
AC$MASS_SPECTROMETRY: MS_TYPE MS2
AC$MASS_SPECTROMETRY: ION_MODE POSITIVE
MS$FOCUSED_ION: PRECURSOR_TYPE [M+Na]+
PK$SPLASH: splash10-03di-4988800000-156c330abad14609d972
PK$NUM_PEAK: 2189
PK$PEAK: m/z int. rel.int.
  50.8 6.37 6
  50.9 6.62 6
  51.0 7.17 7
  51.1 8.12 8
  51.2 8.53 8
  51.3 7.97 7
  51.4 7.1 7
  51.5 6.72 6
  52.3 3.48 3
  52.4 6.91 6
  52.5 9.47 9
  52.6 8.31 8
  53.6 3.6 3
  53.7 4.83 4
  53.8 6.43 6
  53.9 8.27 8
  54.0 10.28 10
  54.1 11.12 11
  54.2 9.63 9
  55.7 6.54 6
  55.8 8.19 8
  55.9 8.92 8
  56.0 7.58 7
  56.1 6.01 6
  56.2 5.84 5
  56.9 5.54 5
  57.0 6.25 6
  57.1 8.65 8
  57.2 9.88 9
  57.3 8.15 8
  57.4 5.24 5
  57.6 4.75 4
  57.7 6.06 6
  57.8 6.73 6
  57.9 6.63 6
  58.0 5.95 5
  58.1 5.51 5
  58.2 6.56 6
  58.3 8.92 8
  58.4 10.4 10
  58.5 9.47 9
  59.4 4.04 4
  59.5 5.09 5
  59.6 6.65 6
  59.7 7.37 7
  59.8 6.69 6
  59.9 6.01 6
  60.0 6.23 6
  60.1 6.39 6
  60.2 5.64 5
  60.3 5.24 5
  60.4 6.03 6
  60.5 6.6 6
  60.6 5.58 5
  60.7 4.43 4
  60.8 5.67 5
  60.9 8.6 8
  61.0 9.6 9
  61.1 7.36 7
  63.0 4.49 4
  63.1 6.99 6
  63.2 8.54 8
  63.3 8.51 8
  63.4 8.16 8
  63.5 8.01 8
  63.6 7.72 7
  63.7 7.57 7
  63.8 7.93 7
  63.9 8.16 8
  64.0 7.39 7
  64.1 6.82 6
  64.2 8.29 8
  64.3 10.77 10
  64.4 10.87 10
  64.5 7.66 7
  66.9 4.47 4
  67.0 5.79 5
  67.1 6.55 6
  67.2 7.1 7
  67.3 7.77 7
  67.4 7.6 7
  67.5 6.39 6
  67.6 6.32 6
  67.7 8.53 8
  67.8 10.67 10
  67.9 10.01 9
  68.0 7.68 7
  69.4 5.57 5
  69.5 7.8 7
  69.6 9.0 8
  69.7 8.32 8
  69.8 7.53 7
  69.9 7.82 7
  70.0 7.82 7
  70.1 6.58 6
  70.2 5.35 5
  70.3 5.23 5
  70.4 5.19 5
  71.4 3.35 3
  71.5 4.35 4
  71.6 5.41 5
  71.7 5.26 5
  71.8 4.64 4
  71.9 5.17 5
  72.0 6.65 6
  72.1 7.44 7
  72.2 7.07 7
  72.3 6.58 6
  72.4 6.69 6
  72.5 7.1 7
  72.6 7.27 7
  72.7 7.32 7
  72.8 7.77 7
  72.9 8.06 8
  74.1 4.49 4
  74.2 6.16 6
  74.3 7.47 7
  74.4 8.73 8
  74.5 10.67 10
  74.6 11.78 11
  74.7 10.14 10
  74.8 6.93 6
  75.9 8.26 8
  76.0 9.18 9
  76.1 9.47 9
  76.2 10.21 10
  76.3 10.48 10
  76.4 8.24 8
  78.2 3.51 3
  78.3 5.14 5
  78.4 8.5 8
  78.5 9.82 9
  78.8 6.96 6
  78.9 9.13 9
  79.0 9.83 9
  79.1 8.56 8
  79.2 6.68 6
  80.6 3.65 3
  80.7 4.55 4
  80.8 4.35 4
  80.9 4.79 4
  81.0 6.74 6
  81.1 8.68 8
  81.2 9.01 9
  81.3 8.03 8
  81.4 6.78 6
  81.7 5.29 5
  81.8 7.53 7
  81.9 9.45 9
  82.0 9.2 9
  82.1 7.67 7
  82.2 6.84 6
  82.3 6.37 6
  82.5 4.29 4
  82.6 5.9 5
  82.7 8.53 8
  82.8 8.85 8
  82.9 6.98 6
  83.0 6.4 6
  83.1 8.02 8
  83.2 8.59 8
  83.3 6.36 6
  83.5 4.97 4
  83.6 7.16 7
  83.7 7.41 7
  83.8 5.81 5
  83.9 5.24 5
  84.0 6.68 6
  84.1 8.34 8
  84.2 8.71 8
  84.3 8.14 8
  84.4 7.16 7
  84.7 4.85 4
  84.8 7.47 7
  84.9 9.42 9
  85.0 8.8 8
  85.1 6.98 6
  85.5 5.57 5
  85.6 6.41 6
  85.7 8.65 8
  85.8 9.73 9
  85.9 8.72 8
  86.0 7.35 7
  86.1 6.72 6
  87.3 4.55 4
  87.4 6.45 6
  87.5 7.23 7
  87.6 5.77 5
  87.7 4.69 4
  87.8 6.17 6
  87.9 8.47 8
  88.0 8.96 8
  88.1 8.04 8
  88.2 7.8 7
  88.3 8.35 8
  88.4 8.22 8
  88.5 6.99 6
  88.6 5.7 5
  88.7 4.62 4
  88.9 2.8 2
  89.0 4.41 4
  89.1 6.96 6
  89.2 7.48 7
  90.3 4.07 4
  90.4 5.97 5
  90.5 7.84 7
  90.6 7.72 7
  90.7 6.35 6
  90.8 5.22 5
  91.0 3.99 3
  91.1 5.07 5
  91.2 7.33 7
  91.3 8.09 8
  92.0 3.83 3
  92.1 6.35 6
  92.2 8.07 8
  92.3 7.66 7
  92.4 7.02 7
  92.5 7.49 7
  92.6 7.96 7
  92.7 7.23 7
  92.8 6.12 6
  93.2 5.83 5
  93.3 7.05 7
  93.4 8.18 8
  93.5 8.32 8
  93.6 8.04 8
  93.7 8.19 8
  93.8 8.37 8
  93.9 7.53 7
  97.3 3.79 3
  97.4 5.37 5
  97.5 6.82 6
  97.6 7.97 7
  97.7 7.52 7
  97.8 5.25 5
  98.0 4.04 4
  98.1 5.95 5
  98.2 6.65 6
  98.3 6.53 6
  98.4 7.57 7
  98.5 9.02 9
  98.6 8.3 8
  99.4 2.81 2
  99.5 4.12 4
  99.6 5.51 5
  99.7 6.89 6
  99.8 7.36 7
  99.9 7.11 7
  100.0 7.8 7
  100.1 9.39 9
  100.2 9.69 9
  101.1 4.98 4
  101.2 5.63 5
  101.3 6.58 6
  101.4 8.29 8
  101.5 8.66 8
  101.6 6.11 6
  101.8 3.79 3
  101.9 7.14 7
  102.0 8.94 8
  102.1 7.67 7
  102.2 6.42 6
  102.3 7.45 7
  102.4 8.88 8
  102.5 8.32 8
  102.6 7.03 7
  102.7 7.54 7
  102.8 9.4 9
  102.9 10.04 10
  103.0 9.13 9
  105.3 4.78 4
  105.4 6.12 6
  105.5 7.49 7
  105.6 8.63 8
  105.7 8.68 8
  106.0 6.38 6
  106.1 8.76 8
  106.2 10.16 10
  106.3 9.32 9
  106.4 8.1 8
  106.5 8.17 8
  106.6 8.33 8
  106.7 6.85 6
  107.4 4.54 4
  107.5 7.88 7
  107.6 9.5 9
  107.7 8.57 8
  107.8 6.55 6
  107.9 4.38 4
  108.1 2.13 2
  108.2 3.84 3
  108.3 5.53 5
  108.6 1.63 1
  108.7 5.29 5
  108.8 9.13 9
  108.9 9.83 9
  109.0 8.53 8
  109.1 8.54 8
  109.2 10.02 10
  109.3 10.46 10
  109.4 8.91 8
  109.5 7.19 7
  109.8 6.27 6
  109.9 7.48 7
  110.0 8.72 8
  110.1 7.91 7
  110.3 5.06 5
  110.4 7.29 7
  110.5 9.33 9
  110.6 8.51 8
  112.5 5.28 5
  112.6 7.57 7
  112.7 8.29 8
  113.8 5.7 5
  113.9 9.03 9
  114.0 10.42 10
  114.1 9.71 9
  114.2 9.05 9
  114.3 8.65 8
  114.4 7.02 7
  115.0 3.59 3
  115.1 5.28 5
  115.2 7.4 7
  115.3 7.48 7
  115.4 6.28 6
  115.5 6.24 6
  115.6 7.21 7
  115.7 7.43 7
  115.8 7.02 7
  115.9 7.54 7
  116.0 8.7 8
  116.1 8.56 8
  116.4 5.72 5
  116.5 7.44 7
  116.6 9.08 9
  116.7 9.32 9
  116.8 7.57 7
  116.9 4.59 4
  117.1 3.09 3
  117.2 6.36 6
  117.3 9.41 9
  117.4 9.44 9
  117.5 6.55 6
  117.6 3.16 3
  117.8 1.81 1
  117.9 3.88 3
  118.0 6.86 6
  118.1 9.03 9
  118.2 8.6 8
  118.3 5.96 5
  118.7 5.64 5
  118.8 5.36 5
  118.9 6.2 6
  119.0 7.71 7
  119.1 7.84 7
  119.2 6.72 6
  119.3 6.42 6
  119.4 6.85 6
  119.5 5.76 5
  119.7 2.97 2
  119.8 5.37 5
  119.9 7.04 7
  120.0 5.73 5
  120.1 4.08 4
  120.2 5.21 5
  120.3 7.87 7
  120.4 9.19 9
  120.5 8.91 8
  120.6 8.64 8
  120.7 8.7 8
  120.8 8.65 8
  120.9 8.66 8
  121.0 8.91 8
  121.1 8.73 8
  121.2 7.71 7
  121.3 6.53 6
  121.4 5.81 5
  121.5 4.83 4
  121.7 1.55 1
  121.8 3.39 3
  121.9 7.71 7
  122.0 10.09 10
  122.1 7.88 7
  123.6 3.94 3
  123.7 6.13 6
  123.8 6.79 6
  123.9 6.68 6
  124.0 7.75 7
  124.1 9.09 9
  124.2 8.63 8
  124.3 7.31 7
  124.4 7.76 7
  124.5 9.61 9
  124.6 9.47 9
  125.6 2.22 2
  125.7 3.84 3
  125.8 6.74 6
  125.9 7.7 7
  126.0 6.13 6
  126.1 5.19 5
  126.2 6.74 6
  126.3 8.35 8
  126.4 7.47 7
  126.5 5.39 5
  126.6 4.59 4
  126.9 3.83 3
  127.0 6.23 6
  127.1 9.24 9
  127.2 9.05 9
  127.5 6.39 6
  127.6 8.8 8
  127.7 9.24 9
  127.8 8.57 8
  127.9 8.23 8
  128.0 7.68 7
  128.3 6.26 6
  128.4 7.39 7
  128.5 7.42 7
  128.6 6.95 6
  128.7 7.24 7
  128.8 7.78 7
  128.9 7.02 7
  129.5 5.9 5
  129.6 7.42 7
  129.7 8.58 8
  131.1 7.4 7
  131.2 8.48 8
  131.3 9.89 9
  131.4 10.49 10
  131.5 9.32 9
  131.6 7.43 7
  131.7 6.69 6
  133.4 3.63 3
  133.5 6.41 6
  133.6 8.12 8
  133.7 7.04 7
  133.8 5.87 5
  133.9 6.37 6
  134.0 6.66 6
  134.1 5.64 5
  134.2 5.61 5
  134.3 7.59 7
  134.4 9.25 9
  134.5 8.91 8
  134.6 8.02 8
  134.7 8.15 8
  134.8 8.29 8
  134.9 6.91 6
  136.0 4.13 4
  136.1 5.28 5
  136.2 5.19 5
  136.3 5.25 5
  136.4 7.41 7
  136.5 10.15 10
  136.6 10.48 10
  136.7 8.7 8
  137.0 7.54 7
  137.1 7.58 7
  137.2 10.3 10
  137.3 14.55 14
  137.4 15.83 15
  137.5 12.73 12
  137.6 9.09 9
  138.9 4.21 4
  139.0 6.54 6
  139.1 8.9 8
  139.2 8.73 8
  139.3 7.29 7
  139.4 6.66 6
  139.7 5.11 5
  139.8 7.21 7
  139.9 9.3 9
  140.0 8.49 8
  140.1 5.88 5
  140.6 5.43 5
  140.7 7.84 7
  140.8 9.97 9
  140.9 9.16 9
  141.2 7.1 7
  141.3 8.5 8
  141.4 8.76 8
  141.5 8.45 8
  141.6 7.77 7
  143.9 5.09 5
  144.0 5.5 5
  144.1 6.83 6
  144.2 7.34 7
  144.3 5.89 5
  146.2 4.56 4
  146.3 7.25 7
  146.4 8.71 8
  146.5 7.41 7
  147.5 2.8 2
  147.6 4.49 4
  147.7 6.46 6
  147.8 7.68 7
  147.9 8.43 8
  148.0 8.62 8
  148.1 7.38 7
  148.9 6.6 6
  149.0 8.26 8
  149.1 10.35 10
  149.2 12.02 12
  149.3 11.73 11
  149.4 8.62 8
  150.1 5.53 5
  150.2 7.39 7
  150.3 8.76 8
  150.4 9.16 9
  150.5 9.16 9
  150.6 8.7 8
  150.7 7.71 7
  154.3 3.73 3
  154.4 5.08 5
  154.5 5.89 5
  154.6 5.48 5
  154.7 5.17 5
  154.8 5.6 5
  154.9 5.74 5
  155.0 5.27 5
  155.1 5.64 5
  155.2 7.43 7
  155.3 8.98 8
  155.4 9.03 9
  155.5 8.53 8
  155.6 8.6 8
  155.7 8.79 8
  155.8 8.45 8
  155.9 8.01 8
  156.0 7.43 7
  156.1 5.71 5
  156.3 2.11 2
  156.4 4.1 4
  156.5 7.29 7
  156.6 8.84 8
  156.7 8.17 8
  156.8 6.96 6
  157.1 5.53 5
  157.2 7.11 7
  157.3 9.63 9
  157.4 10.71 10
  157.5 9.21 9
  157.6 6.86 6
  158.0 6.03 6
  158.1 6.57 6
  158.2 8.55 8
  158.3 9.62 9
  158.4 8.26 8
  159.4 5.57 5
  159.5 8.71 8
  159.6 11.05 11
  159.7 10.54 10
  159.8 8.29 8
  159.9 6.26 6
  160.1 5.43 5
  160.2 6.74 6
  160.3 8.04 8
  160.4 7.3 7
  160.6 1.55 1
  160.7 3.93 3
  160.8 11.95 11
  160.9 21.7 21
  161.0 28.7 28
  161.1 30.65 30
  161.2 26.39 26
  161.3 16.83 16
  161.4 6.84 6
  161.6 3.61 3
  161.7 6.1 6
  161.8 6.98 6
  161.9 7.11 7
  162.0 7.25 7
  162.3 5.63 5
  162.4 7.18 7
  162.5 7.92 7
  163.5 2.98 2
  163.6 4.25 4
  163.7 7.44 7
  163.8 10.6 10
  163.9 10.81 10
  164.0 8.3 8
  164.6 6.43 6
  164.7 7.88 7
  164.8 7.96 7
  164.9 7.57 7
  165.0 8.62 8
  165.1 10.19 10
  165.2 9.98 9
  165.3 8.03 8
  166.3 5.81 5
  166.4 7.32 7
  166.5 8.16 8
  166.6 8.43 8
  166.7 8.6 8
  166.8 7.99 7
  167.4 5.75 5
  167.5 6.81 6
  167.6 8.81 8
  167.7 9.37 9
  167.8 8.12 8
  167.9 6.94 6
  168.2 6.22 6
  168.3 7.04 7
  168.4 9.21 9
  168.5 10.04 10
  168.6 7.73 7
  168.7 4.36 4
  168.9 3.96 3
  169.0 4.77 4
  169.1 5.47 5
  169.2 7.28 7
  169.3 9.36 9
  169.4 9.44 9
  169.5 7.38 7
  169.6 5.5 5
  170.6 4.14 4
  170.7 5.45 5
  170.8 5.52 5
  170.9 5.26 5
  171.0 5.9 5
  171.1 7.05 7
  171.2 7.72 7
  171.3 7.61 7
  171.4 6.76 6
  171.7 4.28 4
  171.8 6.24 6
  171.9 8.31 8
  172.0 9.11 9
  172.1 9.09 9
  172.2 9.3 9
  172.3 9.2 9
  172.4 7.54 7
  172.6 3.79 3
  172.7 5.93 5
  172.8 8.91 8
  172.9 9.73 9
  173.0 8.43 8
  173.1 6.82 6
  173.2 5.24 5
  173.4 2.46 2
  173.5 4.21 4
  173.6 6.91 6
  173.7 7.45 7
  173.8 5.92 5
  173.9 5.29 5
  174.0 6.63 6
  174.1 7.45 7
  175.4 5.15 5
  175.5 5.21 5
  175.6 6.43 6
  175.7 8.42 8
  175.8 9.37 9
  175.9 9.13 9
  176.0 8.99 8
  176.1 9.42 9
  176.2 9.32 9
  176.3 8.08 8
  176.4 6.65 6
  176.5 5.76 5
  176.8 4.66 4
  176.9 7.21 7
  177.0 9.09 9
  177.1 7.92 7
  177.7 4.17 4
  177.8 6.63 6
  177.9 9.24 9
  178.0 9.33 9
  178.1 7.83 7
  178.2 7.19 7
  178.3 7.38 7
  178.6 6.08 6
  178.7 7.83 7
  178.8 9.06 9
  178.9 8.53 8
  179.3 7.68 7
  179.4 8.31 8
  179.5 9.23 9
  179.6 9.33 9
  179.7 7.97 7
  180.5 5.08 5
  180.6 6.11 6
  180.7 7.68 7
  180.8 8.47 8
  180.9 7.37 7
  182.3 4.94 4
  182.4 5.68 5
  182.5 8.01 8
  182.6 9.21 9
  182.7 7.89 7
  182.8 6.67 6
  182.9 7.98 7
  183.0 10.32 10
  183.1 10.73 10
  183.2 9.42 9
  183.3 8.84 8
  183.4 9.4 9
  183.5 8.65 8
  183.8 5.05 5
  183.9 7.63 7
  184.0 8.68 8
  184.1 7.99 7
  184.2 6.81 6
  184.3 5.15 5
  184.5 2.78 2
  184.6 5.35 5
  184.7 8.49 8
  184.8 9.17 9
  184.9 8.26 8
  185.0 8.46 8
  185.1 9.38 9
  185.2 8.31 8
  190.8 4.13 4
  190.9 6.4 6
  191.0 9.54 9
  191.1 10.5 10
  191.2 8.14 8
  191.9 6.66 6
  192.0 8.16 8
  192.1 8.8 8
  192.2 8.68 8
  192.3 8.72 8
  192.4 8.59 8
  192.5 7.72 7
  192.9 7.26 7
  193.0 7.99 7
  193.1 9.45 9
  193.2 9.93 9
  193.5 5.79 5
  193.6 9.93 9
  193.7 12.53 12
  193.8 11.09 11
  193.9 8.25 8
  194.0 7.23 7
  194.1 7.26 7
  194.4 4.17 4
  194.5 6.56 6
  194.6 8.39 8
  194.7 7.55 7
  194.8 5.55 5
  196.1 5.53 5
  196.2 6.98 6
  196.3 8.27 8
  196.4 8.46 8
  196.5 8.45 8
  196.6 8.9 8
  196.7 8.88 8
  196.8 7.49 7
  196.9 5.5 5
  199.5 5.53 5
  199.6 6.56 6
  199.7 7.24 7
  199.8 7.23 7
  199.9 7.2 7
  200.0 7.17 7
  200.1 6.44 6
  200.7 5.83 5
  200.8 6.99 6
  200.9 8.59 8
  201.0 8.43 8
  201.1 6.49 6
  201.4 6.38 6
  201.5 6.63 6
  201.6 7.48 7
  201.7 9.84 9
  201.8 11.53 11
  201.9 10.02 10
  202.0 6.71 6
  202.1 5.11 5
  203.7 6.78 6
  203.8 8.34 8
  203.9 9.84 9
  204.0 9.63 9
  204.1 7.38 7
  204.2 4.8 4
  205.1 2.18 2
  205.2 6.0 5
  205.3 8.21 8
  205.4 7.85 7
  205.5 7.0 6
  205.6 6.24 6
  205.9 4.46 4
  206.0 7.47 7
  206.1 10.07 10
  206.2 10.7 10
  206.3 9.83 9
  206.4 8.53 8
  206.7 5.65 5
  206.8 7.55 7
  206.9 9.86 9
  207.0 10.18 10
  207.1 8.51 8
  207.2 6.91 6
  208.1 3.51 3
  208.2 5.99 5
  208.3 8.81 8
  208.4 10.22 10
  208.5 9.5 9
  208.6 6.94 6
  208.7 3.8 3
  208.9 2.61 2
  209.0 4.96 4
  209.1 6.72 6
  209.2 7.03 7
  209.3 7.06 7
  209.4 7.14 7
  210.1 5.77 5
  210.2 8.19 8
  210.3 10.46 10
  210.4 9.23 9
  211.6 7.17 7
  211.7 7.2 7
  211.8 7.56 7
  211.9 8.71 8
  212.0 8.91 8
  212.1 6.61 6
  212.3 3.73 3
  212.4 6.82 6
  212.5 9.02 9
  212.6 7.94 7
  213.6 5.18 5
  213.7 7.09 7
  213.8 8.38 8
  213.9 8.15 8
  214.0 8.51 8
  214.1 10.29 10
  214.2 11.09 11
  214.3 9.65 9
  215.1 5.83 5
  215.2 7.02 7
  215.3 8.39 8
  215.4 8.85 8
  215.5 7.81 7
  215.6 6.35 6
  215.7 5.9 5
  215.8 5.77 5
  216.0 2.99 2
  216.1 4.01 4
  216.2 7.88 7
  216.3 10.77 10
  216.4 9.89 9
  216.5 7.18 7
  216.6 6.06 6
  217.2 6.96 6
  217.3 6.67 6
  217.4 7.09 7
  217.5 8.53 8
  217.6 8.74 8
  217.7 6.49 6
  218.6 4.56 4
  218.7 6.73 6
  218.8 9.36 9
  218.9 9.64 9
  219.0 7.52 7
  220.3 6.25 6
  220.4 7.56 7
  220.5 9.82 9
  220.6 9.97 9
  221.7 6.73 6
  221.8 7.93 7
  221.9 8.43 8
  222.0 7.67 7
  222.1 6.69 6
  222.2 6.28 6
  222.5 4.64 4
  222.6 5.91 5
  222.7 7.56 7
  222.8 7.52 7
  222.9 6.32 6
  223.0 6.25 6
  223.1 7.47 7
  223.2 7.71 7
  223.3 6.81 6
  223.4 7.14 7
  223.5 9.08 9
  223.6 9.84 9
  223.7 7.97 7
  223.8 5.73 5
  224.2 4.44 4
  224.3 6.46 6
  224.4 9.37 9
  224.5 10.44 10
  224.6 9.7 9
  224.7 9.19 9
  224.8 9.18 9
  224.9 8.24 8
  225.0 6.35 6
  225.1 5.02 5
  225.4 4.32 4
  225.5 5.42 5
  225.6 7.12 7
  225.7 7.64 7
  225.8 6.83 6
  225.9 6.55 6
  226.0 7.47 7
  226.1 7.69 7
  226.2 5.85 5
  226.5 3.32 3
  226.6 4.81 4
  226.7 6.3 6
  226.8 7.65 7
  226.9 8.08 8
  227.0 7.18 7
  231.0 5.03 5
  231.1 6.65 6
  231.2 8.9 8
  231.3 8.7 8
  231.4 6.77 6
  231.5 6.01 6
  231.6 6.33 6
  231.7 5.53 5
  232.2 5.93 5
  232.3 6.06 6
  232.4 7.27 7
  232.5 7.92 7
  232.6 6.84 6
  234.5 7.03 7
  234.6 8.41 8
  234.7 9.4 9
  234.8 9.69 9
  234.9 9.69 9
  235.0 8.78 8
  235.1 6.36 6
  235.8 4.47 4
  235.9 6.52 6
  236.0 7.47 7
  236.1 7.49 7
  236.2 7.89 7
  236.3 7.99 7
  236.4 5.88 5
  236.5 2.1 2
  236.7 1.16 1
  236.8 3.41 3
  236.9 4.1 4
  237.0 3.81 3
  237.1 4.7 4
  237.2 6.69 6
  237.3 7.8 7
  237.4 7.51 7
  237.5 7.06 7
  237.6 6.6 6
  239.8 4.98 4
  239.9 5.72 5
  240.0 6.06 6
  240.1 6.78 6
  240.2 7.21 7
  240.3 6.52 6
  240.4 6.0 5
  240.5 7.34 7
  240.6 9.29 9
  240.7 9.16 9
  240.8 7.27 7
  240.9 6.95 6
  241.0 9.14 9
  241.1 10.73 10
  241.4 8.43 8
  241.5 10.6 10
  241.6 11.11 11
  241.7 10.17 10
  241.8 9.87 9
  241.9 9.66 9
  242.0 7.74 7
  242.1 5.2 5
  242.5 4.22 4
  242.6 5.68 5
  242.7 8.22 8
  242.8 8.85 8
  242.9 7.31 7
  243.0 6.71 6
  243.1 8.46 8
  243.2 9.72 9
  243.3 7.78 7
  243.6 4.76 4
  243.7 6.18 6
  243.8 6.59 6
  243.9 7.18 7
  244.0 7.89 7
  244.1 7.26 7
  244.7 6.03 6
  244.8 7.33 7
  244.9 8.97 8
  245.0 9.31 9
  245.1 8.89 8
  245.2 8.99 8
  245.3 9.4 9
  245.4 8.89 8
  245.5 7.32 7
  245.6 5.84 5
  247.2 4.78 4
  247.3 6.18 6
  247.4 7.38 7
  247.5 6.94 6
  247.6 5.83 5
  247.7 6.1 6
  247.8 7.69 7
  247.9 8.2 8
  249.9 5.18 5
  250.0 6.54 6
  250.1 7.16 7
  250.2 6.98 6
  250.3 7.36 7
  250.4 8.21 8
  250.5 7.94 7
  252.6 5.02 5
  252.7 5.44 5
  252.8 6.17 6
  252.9 7.68 7
  253.0 8.45 8
  253.1 7.09 7
  253.9 2.31 2
  254.0 3.39 3
  254.1 6.47 6
  254.2 8.63 8
  254.3 7.32 7
  255.4 5.25 5
  255.5 9.11 9
  255.6 12.36 12
  255.7 12.06 12
  255.8 10.06 10
  255.9 9.03 9
  256.0 8.43 8
  256.6 2.98 2
  256.7 5.81 5
  256.8 11.96 11
  256.9 14.64 14
  257.0 11.31 11
  257.1 6.69 6
  257.2 5.02 5
  258.3 4.19 4
  258.4 6.7 6
  258.5 8.84 8
  258.6 8.31 8
  260.1 5.46 5
  260.2 7.17 7
  260.3 7.74 7
  260.4 7.19 7
  260.5 7.7 7
  260.6 9.11 9
  260.7 9.0 8
  260.8 7.06 7
  260.9 5.54 5
  261.3 5.28 5
  261.4 6.65 6
  261.5 8.0 7
  261.6 8.19 8
  261.7 8.02 8
  261.8 9.05 9
  261.9 10.64 10
  262.0 10.78 10
  262.1 9.12 9
  264.3 4.31 4
  264.4 6.02 6
  264.5 7.03 7
  264.8 4.99 4
  264.9 6.79 6
  265.0 7.63 7
  265.1 7.07 7
  265.2 6.22 6
  265.5 5.72 5
  265.6 7.39 7
  265.7 9.19 9
  265.8 9.37 9
  268.0 5.22 5
  268.1 5.53 5
  268.2 6.14 6
  268.3 7.21 7
  268.4 7.6 7
  268.5 6.81 6
  268.6 6.22 6
  268.7 6.98 6
  268.8 8.07 8
  268.9 8.35 8
  269.0 8.31 8
  269.1 8.51 8
  269.2 7.92 7
  269.4 5.81 5
  269.5 7.71 7
  269.6 9.8 9
  269.7 9.39 9
  269.8 7.52 7
  270.8 6.17 6
  270.9 8.43 8
  271.0 9.2 9
  271.1 8.86 8
  271.2 8.94 8
  271.3 8.8 8
  271.4 7.15 7
  271.6 5.52 5
  271.7 7.76 7
  271.8 9.14 9
  271.9 8.08 8
  272.8 3.46 3
  272.9 5.47 5
  273.0 7.97 7
  273.1 8.37 8
  273.2 6.21 6
  273.5 3.72 3
  273.6 4.76 4
  273.7 6.39 6
  273.8 8.55 8
  273.9 9.32 9
  274.0 7.38 7
  274.2 5.4 5
  274.3 7.73 7
  274.4 8.4 8
  275.1 5.69 5
  275.2 7.71 7
  275.3 8.83 8
  275.4 8.47 8
  275.5 7.68 7
  275.6 6.78 6
  275.8 4.44 4
  275.9 5.77 5
  276.0 8.51 8
  276.1 9.81 9
  276.2 9.16 9
  276.3 8.84 8
  276.4 9.82 9
  276.5 10.2 10
  276.6 8.8 8
  276.7 7.14 7
  276.8 6.71 6
  278.2 5.73 5
  278.3 6.58 6
  278.4 7.33 7
  278.5 7.06 7
  279.7 4.73 4
  279.8 6.61 6
  279.9 8.64 8
  280.0 9.04 9
  280.1 8.69 8
  280.2 8.41 8
  280.3 7.29 7
  280.6 4.12 4
  280.7 6.56 6
  280.8 7.38 7
  280.9 5.78 5
  281.2 4.31 4
  281.3 5.03 5
  281.4 6.59 6
  281.5 8.95 8
  281.6 10.14 10
  281.7 8.89 8
  281.8 6.95 6
  281.9 6.38 6
  283.6 4.79 4
  283.7 7.29 7
  283.8 7.9 7
  284.1 5.63 5
  284.2 7.11 7
  284.3 8.37 8
  284.4 9.2 9
  284.5 9.01 9
  285.5 5.19 5
  285.6 4.36 4
  285.7 6.22 6
  285.8 10.18 10
  285.9 11.4 11
  286.0 7.74 7
  286.2 2.97 2
  286.3 5.89 5
  286.4 8.33 8
  286.5 8.76 8
  286.6 8.59 8
  286.7 8.76 8
  286.8 8.85 8
  286.9 8.78 8
  287.0 8.82 8
  287.1 8.02 8
  287.4 4.71 4
  287.5 7.23 7
  287.6 8.15 8
  287.7 6.86 6
  287.8 5.88 5
  287.9 6.57 6
  288.0 7.29 7
  288.1 6.56 6
  288.2 5.28 5
  288.3 4.96 4
  288.7 4.27 4
  288.8 6.3 6
  288.9 7.49 7
  289.0 6.96 6
  289.1 6.06 6
  289.2 5.96 5
  289.3 6.47 6
  289.4 7.5 7
  289.5 9.16 9
  289.6 10.56 10
  289.7 9.97 9
  289.8 7.27 7
  290.7 5.22 5
  290.8 5.91 5
  290.9 7.57 7
  291.0 8.02 8
  291.1 6.26 6
  291.5 5.19 5
  291.6 5.3 5
  291.7 6.22 6
  291.8 6.77 6
  291.9 5.29 5
  292.1 2.99 2
  292.2 5.68 5
  292.3 8.32 8
  292.4 8.88 8
  292.5 8.29 8
  292.6 7.76 7
  292.9 6.53 6
  293.0 7.49 7
  293.1 8.71 8
  293.2 9.56 9
  293.3 10.31 10
  293.4 11.05 11
  293.5 10.4 10
  293.6 7.48 7
  294.7 4.9 4
  294.8 6.84 6
  294.9 7.75 7
  295.0 7.52 7
  295.1 7.32 7
  296.4 8.01 8
  296.5 9.66 9
  296.6 10.94 10
  296.7 11.12 11
  296.8 10.87 10
  296.9 10.44 10
  297.8 5.79 5
  297.9 7.38 7
  298.0 8.64 8
  298.1 8.89 8
  298.2 7.25 7
  298.5 3.71 3
  298.6 7.16 7
  298.7 8.4 8
  299.6 4.45 4
  299.7 4.71 4
  299.8 6.68 6
  299.9 8.15 8
  300.0 7.17 7
  301.8 5.77 5
  301.9 6.57 6
  302.0 8.3 8
  302.1 8.65 8
  302.9 6.1 6
  303.0 7.43 7
  303.1 8.62 8
  303.2 9.69 9
  303.3 9.58 9
  303.4 7.38 7
  303.6 4.97 4
  303.7 7.57 7
  303.8 9.46 9
  303.9 9.35 9
  304.0 9.14 9
  304.1 9.93 9
  304.2 9.9 9
  304.3 8.02 8
  304.9 3.72 3
  305.0 6.87 6
  305.1 9.32 9
  305.2 8.68 8
  305.3 7.07 7
  305.7 6.32 6
  305.8 7.81 7
  305.9 9.36 9
  306.0 8.32 8
  307.4 6.17 6
  307.5 7.64 7
  307.6 9.14 9
  307.7 8.88 8
  307.8 7.6 7
  307.9 6.67 6
  309.1 2.19 2
  309.2 3.94 3
  309.3 5.14 5
  309.4 4.9 4
  309.5 4.49 4
  309.6 4.87 4
  309.7 5.43 5
  309.8 5.23 5
  309.9 4.12 4
  310.1 2.47 2
  310.2 3.99 3
  310.3 6.68 6
  310.4 9.13 9
  310.5 10.31 10
  310.6 10.06 10
  312.1 5.67 5
  312.2 7.12 7
  312.3 9.16 9
  312.4 9.06 9
  312.5 7.69 7
  312.6 7.24 7
  312.7 6.93 6
  313.0 3.86 3
  313.1 6.82 6
  313.2 9.12 9
  313.3 9.38 9
  313.4 8.53 8
  313.5 7.22 7
  313.8 5.36 5
  313.9 7.37 7
  314.0 9.06 9
  314.1 8.73 8
  316.4 4.38 4
  316.5 7.08 7
  316.6 8.52 8
  316.7 7.08 7
  317.0 4.47 4
  317.1 5.43 5
  317.2 6.44 6
  317.3 8.08 8
  317.4 9.49 9
  317.5 9.15 9
  317.6 7.56 7
  319.5 5.85 5
  319.6 7.06 7
  319.7 6.99 6
  319.8 6.63 6
  319.9 6.7 6
  321.9 5.93 5
  322.0 6.92 6
  322.1 7.97 7
  322.2 7.91 7
  322.3 7.34 7
  322.4 7.29 7
  322.5 7.4 7
  322.6 6.7 6
  322.7 6.08 6
  322.8 6.82 6
  322.9 7.66 7
  323.0 6.43 6
  323.3 4.83 4
  323.4 6.74 6
  323.5 7.18 7
  323.6 7.57 7
  323.7 9.39 9
  323.8 10.71 10
  323.9 8.92 8
  324.2 6.18 6
  324.3 7.59 7
  324.4 7.33 7
  324.5 7.32 7
  324.6 8.68 8
  324.7 9.71 9
  324.8 9.22 9
  324.9 8.51 8
  325.0 8.4 8
  325.1 7.55 7
  327.9 2.49 2
  328.0 5.12 5
  328.1 9.19 9
  328.2 10.84 10
  328.3 8.99 8
  328.4 5.74 5
  328.6 3.55 3
  328.7 5.32 5
  328.8 8.19 8
  328.9 10.62 10
  329.0 10.83 10
  329.1 8.8 8
  329.2 6.63 6
  330.1 5.01 5
  330.2 6.96 6
  330.3 7.72 7
  330.4 7.54 7
  330.5 7.58 7
  330.6 7.43 7
  332.4 4.86 4
  332.5 5.64 5
  332.6 7.86 7
  332.7 10.59 10
  332.8 11.03 11
  332.9 8.73 8
  333.1 7.36 7
  333.2 9.53 9
  333.3 10.59 10
  333.4 9.61 9
  333.5 7.44 7
  333.8 5.1 5
  333.9 6.07 6
  334.0 6.62 6
  334.1 7.03 7
  334.2 8.14 8
  334.3 9.85 9
  334.4 10.69 10
  334.5 9.23 9
  334.6 6.28 6
  337.3 3.47 3
  337.4 5.38 5
  337.5 6.51 6
  337.6 5.91 5
  337.7 5.19 5
  337.8 5.79 5
  337.9 6.96 6
  338.0 6.94 6
  338.1 5.96 5
  338.2 5.83 5
  338.3 7.0 6
  338.4 7.88 7
  338.5 7.73 7
  338.6 7.64 7
  338.7 8.23 8
  338.8 8.8 8
  338.9 8.66 8
  339.0 8.13 8
  340.3 3.88 3
  340.4 6.77 6
  340.5 9.81 9
  340.6 9.33 9
  340.7 7.01 7
  342.0 3.94 3
  342.1 5.94 5
  342.2 8.2 8
  342.3 9.11 9
  342.4 9.54 9
  342.5 9.97 9
  342.6 9.04 9
  343.6 2.62 2
  343.7 3.46 3
  343.8 5.6 5
  343.9 6.83 6
  344.0 6.33 6
  344.1 6.34 6
  344.2 7.97 7
  344.3 8.91 8
  344.6 6.22 6
  344.7 8.39 8
  344.8 8.88 8
  344.9 7.17 7
  345.0 5.2 5
  345.3 4.39 4
  345.4 6.5 6
  345.5 9.3 9
  345.6 10.23 10
  345.7 8.32 8
  345.8 5.8 5
  346.2 4.26 4
  346.3 5.3 5
  346.4 7.35 7
  346.5 7.76 7
  346.6 6.14 6
  346.9 5.15 5
  347.0 5.41 5
  347.1 6.87 6
  347.2 9.12 9
  347.3 9.37 9
  347.4 6.98 6
  348.0 4.66 4
  348.1 7.7 7
  348.2 10.02 10
  348.3 9.46 9
  348.4 7.34 7
  348.7 7.08 7
  348.8 8.13 8
  348.9 9.32 9
  349.0 9.5 9
  349.1 7.8 7
  350.5 4.54 4
  350.6 6.26 6
  350.7 7.58 7
  351.0 4.94 4
  351.1 7.27 7
  351.2 7.67 7
  351.3 6.0 5
  351.4 5.53 5
  351.5 7.36 7
  351.6 8.9 8
  351.7 8.88 8
  351.8 9.0 8
  351.9 9.87 9
  352.0 9.4 9
  352.1 7.07 7
  356.5 5.38 5
  356.6 6.76 6
  356.7 8.25 8
  356.8 8.48 8
  356.9 8.1 8
  357.0 8.08 8
  357.3 5.85 5
  357.4 7.64 7
  357.5 9.71 9
  357.6 8.99 8
  357.7 6.05 6
  358.0 5.77 5
  358.1 6.55 6
  358.2 7.48 7
  358.3 8.43 8
  358.6 5.97 5
  358.7 7.96 7
  358.8 10.23 10
  358.9 9.76 9
  360.8 1.62 1
  360.9 3.76 3
  361.0 6.36 6
  361.1 7.38 7
  361.2 7.01 7
  361.3 6.46 6
  361.4 6.04 6
  361.7 4.53 4
  361.8 6.18 6
  361.9 7.14 7
  362.0 6.57 6
  362.1 5.83 5
  362.2 6.14 6
  362.3 7.11 7
  362.4 7.92 7
  362.5 8.37 8
  362.6 8.18 8
  362.7 6.89 6
  362.9 5.37 5
  363.0 7.0 6
  363.1 8.0 7
  363.2 7.08 7
  363.3 5.64 5
  363.4 5.06 5
  363.7 2.75 2
  363.8 5.24 5
  363.9 8.25 8
  364.0 8.65 8
  364.1 6.61 6
  364.2 4.82 4
  364.3 4.26 4
  364.6 2.95 2
  364.7 4.91 4
  364.8 6.25 6
  364.9 5.88 5
  365.0 5.55 5
  365.1 6.5 6
  365.2 7.14 7
  365.5 5.57 5
  365.6 6.95 6
  365.7 7.0 6
  365.8 6.82 6
  365.9 8.78 8
  366.0 11.83 11
  366.1 12.23 12
  366.2 9.35 9
  367.6 4.11 4
  367.7 8.32 8
  367.8 10.58 10
  367.9 8.65 8
  368.0 5.74 5
  368.5 4.83 4
  368.6 6.37 6
  368.7 7.78 7
  368.8 8.74 8
  368.9 10.17 10
  369.0 11.25 11
  369.1 9.82 9
  369.2 6.08 6
  369.4 3.73 3
  369.5 6.05 6
  369.6 7.85 7
  369.7 8.43 8
  369.8 7.97 7
  370.1 4.85 4
  370.2 7.73 7
  370.3 9.79 9
  370.4 8.73 8
  371.3 4.07 4
  371.4 3.93 3
  371.5 6.16 6
  371.6 8.56 8
  371.7 7.84 7
  371.8 5.01 5
  372.0 4.99 4
  372.1 6.03 6
  372.2 6.09 6
  372.3 7.1 7
  372.4 9.31 9
  372.5 9.94 9
  372.6 7.52 7
  372.7 4.43 4
  373.0 4.38 4
  373.1 4.81 4
  373.2 7.27 7
  373.3 10.61 10
  373.4 11.17 11
  373.5 8.26 8
  373.6 5.21 5
  373.9 4.31 4
  374.0 5.12 5
  374.1 7.12 7
  374.2 8.14 8
  374.3 6.85 6
  374.6 6.38 6
  374.7 7.37 7
  374.8 8.2 8
  374.9 9.35 9
  375.0 9.69 9
  375.1 8.1 8
  375.4 6.55 6
  375.5 7.15 7
  375.6 7.22 7
  375.7 8.47 8
  375.8 10.73 10
  375.9 11.34 11
  376.0 9.05 9
  376.1 6.29 6
  376.5 5.29 5
  376.6 6.56 6
  376.7 9.4 9
  376.8 10.55 10
  376.9 9.15 9
  377.0 7.52 7
  377.1 6.6 6
  377.2 4.97 4
  377.5 3.75 3
  377.6 5.57 5
  377.7 6.2 6
  377.8 6.75 6
  377.9 7.87 7
  378.0 8.0 7
  378.1 6.38 6
  378.6 5.37 5
  378.7 6.84 6
  378.8 9.11 9
  378.9 9.01 9
  379.9 7.21 7
  380.0 8.48 8
  380.1 9.98 9
  380.2 9.23 9
  382.9 3.48 3
  383.0 5.14 5
  383.1 7.61 7
  383.2 7.55 7
  383.5 6.12 6
  383.6 7.68 7
  383.7 8.37 8
  383.8 9.34 9
  383.9 10.58 10
  384.0 9.98 9
  384.1 7.14 7
  384.3 5.87 5
  384.4 8.22 8
  384.5 8.92 8
  384.6 7.51 7
  384.9 4.92 4
  385.0 6.28 6
  385.1 8.33 8
  385.2 9.0 8
  385.3 7.36 7
  385.5 5.45 5
  385.6 7.15 7
  385.7 8.54 8
  385.8 8.71 8
  385.9 8.32 8
  386.0 7.8 7
  386.3 5.11 5
  386.4 7.5 7
  386.5 9.91 9
  386.6 9.34 9
  388.5 5.21 5
  388.6 8.14 8
  388.7 9.84 9
  388.8 8.66 8
  388.9 6.66 6
  389.0 6.19 6
  389.1 6.37 6
  389.4 3.6 3
  389.5 5.37 5
  389.6 6.33 6
  389.7 5.89 5
  389.8 6.04 6
  389.9 7.45 7
  390.0 8.39 8
  390.1 7.85 7
  390.2 7.03 7
  390.3 6.98 6
  390.4 7.14 7
  390.5 7.04 7
  390.6 7.25 7
  390.7 7.82 7
  390.8 7.67 7
  391.5 3.11 3
  391.6 5.48 5
  391.7 7.23 7
  391.8 6.28 6
  392.8 2.11 2
  392.9 5.22 5
  393.0 7.74 7
  393.1 8.12 8
  393.2 7.86 7
  393.3 8.29 8
  393.4 8.39 8
  393.5 7.47 7
  393.6 7.18 7
  393.7 8.76 8
  393.8 10.53 10
  393.9 10.37 10
  394.0 8.88 8
  394.1 7.9 7
  396.1 5.04 5
  396.2 6.12 6
  396.3 7.11 7
  396.4 7.45 7
  396.5 7.65 7
  396.6 8.53 8
  396.7 9.27 9
  396.8 8.0 7
  398.0 5.57 5
  398.1 6.36 6
  398.2 6.22 6
  398.3 6.59 6
  398.4 7.71 7
  398.5 8.04 8
  400.5 5.4 5
  400.6 7.93 7
  400.7 9.66 9
  400.8 9.87 9
  400.9 9.64 9
  401.0 8.9 8
  401.1 7.0 6
  401.3 5.11 5
  401.4 7.39 7
  401.5 8.68 8
  401.6 7.16 7
  401.7 4.9 4
  401.8 4.22 4
  402.1 2.73 2
  402.2 4.33 4
  402.3 7.11 7
  402.4 8.14 8
  402.5 7.18 7
  402.6 6.55 6
  402.7 6.93 6
  403.8 4.3 4
  403.9 5.68 5
  404.0 8.46 8
  404.1 9.74 9
  404.2 8.5 8
  404.3 6.47 6
  404.6 5.6 5
  404.7 6.37 6
  404.8 7.81 7
  404.9 8.73 8
  405.0 8.19 8
  405.6 5.69 5
  405.7 7.02 7
  405.8 8.02 8
  405.9 7.76 7
  406.0 7.54 7
  406.1 7.81 7
  406.2 7.16 7
  408.1 4.9 4
  408.2 7.03 7
  408.3 9.42 9
  408.4 9.39 9
  408.5 7.64 7
  409.8 4.6 4
  409.9 6.46 6
  410.0 8.05 8
  410.1 7.59 7
  410.2 5.84 5
  410.4 4.74 4
  410.5 5.85 5
  410.6 8.17 8
  410.7 10.68 10
  410.8 10.43 10
  410.9 6.21 6
  411.1 1.85 1
  411.2 6.18 6
  411.3 9.71 9
  411.4 9.33 9
  411.5 7.06 7
  412.8 4.6 4
  412.9 6.3 6
  413.0 6.9 6
  413.3 5.25 5
  413.4 6.79 6
  413.5 7.26 7
  413.6 7.67 7
  413.7 9.21 9
  413.8 10.05 10
  413.9 7.91 7
  414.2 5.9 5
  414.3 8.58 8
  414.4 9.78 9
  414.5 10.51 10
  414.6 11.25 11
  414.7 10.62 10
  414.8 8.51 8
  415.5 5.54 5
  415.6 6.38 6
  415.7 6.96 6
  415.8 7.7 7
  415.9 8.57 8
  416.0 8.79 8
  416.1 7.98 7
  416.2 7.01 7
  416.3 6.6 6
  416.4 6.37 6
  416.5 5.32 5
  416.8 4.45 4
  416.9 5.29 5
  417.0 5.48 5
  417.1 6.0 5
  417.2 7.4 7
  417.3 8.43 8
  417.4 7.96 7
  417.5 7.03 7
  417.6 7.32 7
  417.7 8.41 8
  417.8 8.71 8
  417.9 8.38 8
  418.0 8.86 8
  418.1 9.64 9
  418.2 8.69 8
  418.3 6.12 6
  420.6 4.09 4
  420.7 5.74 5
  420.8 5.56 5
  420.9 5.5 5
  421.0 7.85 7
  421.1 10.46 10
  421.2 10.09 10
  422.1 6.25 6
  422.2 7.44 7
  422.3 8.74 8
  422.4 7.63 7
  424.2 4.11 4
  424.3 5.24 5
  424.4 7.17 7
  424.5 8.02 8
  424.6 7.48 7
  424.7 7.33 7
  424.8 8.35 8
  424.9 9.06 9
  425.0 8.45 8
  425.1 7.56 7
  425.2 7.53 7
  425.3 7.88 7
  425.4 7.59 7
  425.5 6.96 6
  425.6 6.99 6
  425.7 7.68 7
  425.8 7.64 7
  425.9 5.91 5
  426.8 5.69 5
  426.9 7.43 7
  427.0 9.09 9
  427.1 8.3 8
  427.8 5.71 5
  427.9 7.77 7
  428.0 9.27 9
  428.1 8.64 8
  429.9 3.12 3
  430.0 5.79 5
  430.1 9.05 9
  430.2 9.17 9
  430.3 6.88 6
  430.7 5.69 5
  430.8 6.38 6
  430.9 7.25 7
  431.0 7.16 7
  431.1 6.59 6
  431.2 6.71 6
  431.3 7.18 7
  431.4 7.03 7
  431.5 6.89 6
  431.6 7.9 7
  431.7 8.91 8
  432.0 5.53 5
  432.1 8.36 8
  432.2 9.98 9
  432.3 7.55 7
  432.6 3.68 3
  432.7 5.73 5
  432.8 6.85 6
  432.9 7.16 7
  433.0 6.46 6
  434.7 5.99 5
  434.8 7.47 7
  434.9 8.37 8
  435.0 8.89 8
  435.1 9.07 9
  435.2 7.91 7
  435.4 5.25 5
  435.5 8.07 8
  435.6 11.53 11
  435.7 11.68 11
  435.8 8.85 8
  437.2 4.4 4
  437.3 6.58 6
  437.4 7.33 7
  437.5 6.32 6
  437.6 5.99 5
  437.7 6.92 6
  437.8 7.26 7
  437.9 6.54 6
  438.0 6.3 6
  438.1 6.79 6
  438.4 5.31 5
  438.5 7.67 7
  438.6 9.72 9
  438.7 9.39 9
  438.8 8.24 8
  438.9 8.33 8
  439.0 8.6 8
  439.1 7.01 7
  440.6 5.27 5
  440.7 7.1 7
  440.8 7.45 7
  440.9 6.4 6
  441.0 6.16 6
  441.1 7.03 7
  441.2 7.43 7
  441.3 7.2 7
  441.4 7.68 7
  441.5 8.73 8
  441.6 8.25 8
  441.8 5.15 5
  441.9 7.26 7
  442.0 10.3 10
  442.1 10.92 10
  442.2 9.07 9
  442.4 8.0 7
  442.5 9.35 9
  442.6 10.23 10
  442.7 10.56 10
  442.8 10.36 10
  442.9 9.35 9
  443.0 8.14 8
  443.1 7.91 7
  443.2 8.2 8
  443.5 4.88 4
  443.6 7.97 7
  443.7 10.43 10
  443.8 9.2 9
  443.9 6.41 6
  445.4 6.47 6
  445.5 7.52 7
  445.6 7.94 7
  445.7 8.3 8
  445.8 8.06 8
  445.9 6.23 6
  446.2 3.67 3
  446.3 6.56 6
  446.4 8.3 8
  446.5 8.66 8
  446.6 8.54 8
  446.7 7.72 7
  446.8 5.89 5
  447.8 3.9 3
  447.9 6.03 6
  448.0 6.7 6
  448.1 6.09 6
  448.2 6.43 6
  448.3 8.3 8
  448.4 9.63 9
  448.5 8.8 8
  448.9 7.17 7
  449.0 7.27 7
  449.1 7.75 7
  449.2 8.69 8
  449.3 8.72 8
  451.2 4.56 4
  451.3 7.21 7
  451.4 8.49 8
  451.7 5.78 5
  451.8 7.55 7
  451.9 7.52 7
  452.0 6.34 6
  452.1 6.49 6
  452.2 8.2 8
  452.3 9.35 9
  452.4 8.29 8
  452.5 5.87 5
  452.8 5.71 5
  452.9 6.53 6
  453.0 7.26 7
  453.1 8.23 8
  453.2 8.75 8
  453.3 8.16 8
  453.4 6.9 6
  453.5 5.7 5
  454.3 4.74 4
  454.4 6.49 6
  454.5 7.4 7
  454.6 8.09 8
  454.7 8.63 8
  454.8 7.25 7
  455.0 2.98 2
  455.1 5.71 5
  455.2 9.04 9
  455.3 8.83 8
  455.4 5.78 5
  456.5 5.3 5
  456.6 6.78 6
  456.7 7.5 7
  456.8 7.36 7
  456.9 6.51 6
  457.5 4.47 4
  457.6 5.91 5
  457.7 8.34 8
  457.8 8.52 8
  459.3 5.15 5
  459.4 6.42 6
  459.5 7.86 7
  459.6 8.12 8
  459.7 7.6 7
  459.8 7.8 7
  459.9 8.57 8
  460.0 8.34 8
  460.1 7.04 7
  461.0 5.4 5
  461.1 7.38 7
  461.2 9.78 9
  461.3 9.17 9
  461.4 6.21 6
  461.6 4.68 4
  461.7 6.03 6
  461.8 7.31 7
  461.9 8.6 8
  462.0 9.25 9
  462.1 8.2 8
  463.1 6.47 6
  463.2 8.59 8
  463.3 11.19 11
  463.4 10.98 10
  464.5 4.8 4
  464.6 7.51 7
  464.7 8.35 8
  464.8 7.04 7
  464.9 6.11 6
  465.0 6.89 6
  465.1 7.67 7
  465.2 7.2 7
  465.3 6.52 6
  465.4 6.63 6
  465.5 6.61 6
  465.6 5.76 5
  465.7 5.25 5
  465.8 5.89 5
  465.9 6.27 6
  466.2 5.01 5
  466.3 7.32 7
  466.4 8.67 8
  466.5 8.32 8
  466.6 7.7 7
  466.7 7.83 7
  466.8 7.83 7
  467.2 6.65 6
  467.3 6.94 6
  467.4 7.53 7
  467.5 8.65 8
  467.6 8.62 8
  467.7 6.2 6
  468.2 6.23 6
  468.3 6.37 6
  468.4 8.05 8
  468.5 9.11 9
  468.8 6.79 6
  468.9 8.35 8
  469.0 9.45 9
  469.1 10.26 10
  469.2 11.2 11
  469.3 11.17 11
  469.4 9.19 9
  470.0 5.47 5
  470.1 7.92 7
  470.2 10.12 10
  470.3 9.72 9
  470.4 8.18 8
  470.5 7.31 7
  471.6 4.74 4
  471.7 6.06 6
  471.8 8.52 8
  471.9 9.5 9
  472.0 8.51 8
  472.1 7.76 7
  472.2 8.16 8
  472.3 7.8 7
  474.6 3.22 3
  474.7 5.27 5
  474.8 8.13 8
  474.9 8.35 8
  475.0 5.87 5
  475.4 4.24 4
  475.5 4.76 4
  475.6 6.82 6
  475.7 8.19 8
  475.8 7.09 7
  476.2 6.28 6
  476.3 6.12 6
  476.4 7.3 7
  476.5 9.69 9
  476.6 10.5 10
  476.7 8.36 8
  477.6 5.69 5
  477.7 6.49 6
  477.8 8.59 8
  477.9 9.25 9
  479.1 6.58 6
  479.2 7.4 7
  479.3 8.47 8
  479.4 9.38 9
  479.5 8.8 8
  479.8 6.04 6
  479.9 8.99 8
  480.0 11.0 10
  480.1 10.58 10
  480.2 8.76 8
  480.3 7.27 7
  481.1 4.0 3
  481.2 6.54 6
  481.3 7.61 7
  481.4 6.41 6
  481.5 5.38 5
  481.6 6.21 6
  481.7 7.39 7
  481.8 7.17 7
  481.9 6.61 6
  482.0 7.26 7
  482.1 7.82 7
  482.2 6.51 6
  483.3 4.38 4
  483.4 6.19 6
  483.5 7.12 7
  483.6 6.63 6
  483.7 6.17 6
  483.8 6.74 6
  483.9 7.69 7
  484.0 8.17 8
  484.1 8.41 8
  484.2 8.48 8
  484.3 7.32 7
  485.5 3.24 3
  485.6 5.08 5
  485.7 7.71 7
  485.8 9.56 9
  485.9 9.36 9
  486.0 7.06 7
  487.0 5.4 5
  487.1 6.53 6
  487.2 8.7 8
  487.3 9.63 9
  487.4 9.06 9
  487.5 8.48 8
  487.6 7.83 7
  488.8 5.3 5
  488.9 7.27 7
  489.0 8.0 7
  489.1 7.53 7
  489.2 7.63 7
  489.3 8.34 8
  489.4 8.13 8
  490.0 5.25 5
  490.1 7.09 7
  490.2 9.76 9
  490.3 10.46 10
  490.4 9.05 9
  491.4 3.94 3
  491.5 6.12 6
  491.6 6.86 6
  491.7 6.57 6
  491.8 6.95 6
  491.9 7.85 7
  492.0 7.69 7
  492.1 6.63 6
  492.2 6.23 6
  492.3 6.51 6
  492.4 5.92 5
  493.0 5.07 5
  493.1 6.4 6
  493.2 7.24 7
  493.3 6.29 6
  493.4 5.22 5
  493.5 5.79 5
  493.6 6.9 6
  493.7 6.6 6
  493.8 5.9 5
  493.9 7.23 7
  494.0 10.07 10
  494.1 10.99 10
  494.2 8.86 8
  496.9 3.61 3
  497.0 5.27 5
  497.1 6.92 6
  497.2 7.06 7
  497.3 6.76 6
  497.4 7.34 7
  497.5 7.78 7
  497.6 7.27 7
  497.7 7.49 7
  497.8 9.49 9
  497.9 10.88 10
  498.0 9.44 9
//
