ACCESSION: MSBNK-RIKEN_NPDepo-NGA03856
RECORD_TITLE: Deltaline; LC-ESI-QQQ; MS2; Frag=135.0V CID@25.0; [M+HCOO]-
DATE: 2018.04.04
AUTHORS: Nogawa T, Okano A, CSRS, RIKEN
LICENSE: CC BY
COMMENT: Origin: Plant
COMMENT: SubCategory_DNP: Terpenoid alkaloids, Diterpene alkaloid, Delphinium alkaloid
CH$NAME: Deltaline
CH$COMPOUND_CLASS: Alkaloids
CH$FORMULA: C27H41NO8
CH$EXACT_MASS: 507.6297
CH$SMILES: CCN1C[C@]2(C)CCC(OC)C34C2[C@H](OC(C)=O)C2(OCO[C@@]25C[C@H](OC)[C@H]2C[C@]3(O)C5[C@H]2OC)[C@@H]14
CH$IUPAC: InChI=1S/C27H41NO8/c1-7-28-12-23(3)9-8-17(32-5)26-20(23)21(36-14(2)29)27(22(26)28)25(34-13-35-27)11-16(31-4)15-10-24(26,30)19(25)18(15)33-6/h15-22,30H,7-13H2,1-6H3/t15-,16+,17?,18+,19?,20?,21+,22+,23+,24+,25-,26?,27?/m1/s1
CH$LINK: CAS 6836-11-9
CH$LINK: CHEMSPIDER 145078 390331 4475551 23219130
CH$LINK: INCHIKEY DTTPWCNKTMQMTE-ZRAURUGBSA-N
AC$INSTRUMENT: Agilent 6410 Triple Quadrupole LC/MS system
AC$INSTRUMENT_TYPE: LC-ESI-QQQ
AC$MASS_SPECTROMETRY: MS_TYPE MS2
AC$MASS_SPECTROMETRY: ION_MODE NEGATIVE
MS$FOCUSED_ION: PRECURSOR_TYPE [M+HCOO]-
PK$SPLASH: splash10-0f7d-4988880000-86b5a8f49f06a6a748fc
PK$NUM_PEAK: 4269
PK$PEAK: m/z int. rel.int.
  50.9 10.26 10
  51.0 19.1 19
  51.1 23.86 23
  51.2 20.15 20
  51.3 11.69 11
  51.5 8.28 8
  51.6 15.89 15
  51.7 22.04 22
  51.8 21.09 21
  51.9 13.72 13
  52.1 4.11 4
  52.2 9.33 9
  52.3 17.75 17
  52.4 23.28 23
  52.5 22.42 22
  52.6 16.66 16
  52.8 11.36 11
  52.9 16.84 16
  53.0 23.49 23
  53.1 25.36 25
  53.2 20.11 20
  54.0 6.86 6
  54.1 11.34 11
  54.2 19.24 19
  54.3 23.68 23
  54.4 20.46 20
  54.5 11.69 11
  54.7 5.78 5
  54.8 14.6 14
  54.9 23.84 23
  55.0 26.24 26
  55.1 20.99 20
  56.0 8.28 8
  56.1 16.24 16
  56.2 23.68 23
  56.3 24.87 24
  56.4 18.89 18
  57.3 11.57 11
  57.4 16.75 16
  57.5 19.78 19
  57.6 18.29 18
  57.7 13.11 13
  57.9 7.42 7
  58.0 12.76 12
  58.1 19.9 19
  58.2 22.56 22
  58.3 18.43 18
  58.5 9.54 9
  58.6 14.18 14
  58.7 21.51 21
  58.8 24.61 24
  58.9 20.29 20
  59.0 11.78 11
  59.2 8.77 8
  59.3 18.08 18
  59.4 26.31 26
  59.5 25.96 25
  59.6 17.17 17
  59.8 6.16 6
  59.9 12.88 12
  60.0 21.53 21
  60.1 24.73 24
  60.2 20.64 20
  60.3 13.83 13
  60.5 12.83 12
  60.6 18.36 18
  60.7 21.32 21
  60.8 18.38 18
  60.9 11.94 11
  61.1 10.31 10
  61.2 16.61 16
  61.3 21.93 21
  61.4 22.58 22
  61.5 18.38 18
  61.7 10.45 10
  61.8 14.02 14
  61.9 20.6 20
  62.0 23.96 23
  62.1 20.55 20
  62.2 13.32 13
  62.4 12.01 11
  62.5 18.99 18
  62.6 23.3 23
  62.7 20.9 20
  62.8 14.25 14
  63.0 10.78 10
  63.1 16.45 16
  63.2 21.04 21
  63.3 19.83 19
  63.4 12.81 12
  63.6 3.62 3
  63.7 9.59 9
  63.8 19.38 19
  63.9 25.94 25
  64.0 23.91 23
  64.1 14.42 14
  64.3 5.55 5
  64.4 15.05 15
  64.5 25.05 25
  64.6 26.2 26
  64.7 17.7 17
  64.9 4.85 4
  65.0 11.52 11
  65.1 21.65 21
  65.2 26.85 26
  65.3 23.4 23
  65.4 14.95 14
  65.6 9.68 9
  65.7 16.49 16
  65.8 22.77 22
  65.9 22.42 22
  66.0 15.7 15
  66.2 11.08 11
  66.3 18.89 18
  66.4 25.8 25
  66.5 25.36 25
  66.6 17.98 17
  66.8 6.58 6
  66.9 11.69 11
  67.0 21.02 20
  67.1 26.78 26
  67.2 23.51 23
  67.3 13.58 13
  67.5 6.67 6
  67.6 15.19 15
  67.7 23.75 23
  67.8 25.33 25
  67.9 18.85 18
  68.0 9.59 9
  68.2 8.37 8
  68.3 16.49 16
  68.4 21.6 21
  68.5 18.59 18
  68.6 9.84 9
  68.8 6.25 6
  68.9 16.21 16
  69.0 25.19 25
  69.1 26.01 25
  69.2 18.99 18
  69.4 9.94 9
  69.5 15.89 15
  69.6 22.63 22
  69.7 22.86 22
  69.8 15.65 15
  70.1 7.0 6
  70.2 15.26 15
  70.3 22.04 22
  70.4 22.18 22
  70.5 16.17 16
  70.7 11.48 11
  70.8 18.92 18
  70.9 25.78 25
  71.0 24.94 24
  71.1 16.05 16
  71.3 5.18 5
  71.4 12.88 12
  71.5 22.79 22
  71.6 26.38 26
  71.7 20.67 20
  71.8 10.52 10
  72.0 8.42 8
  72.1 18.78 18
  72.2 26.85 26
  72.3 25.61 25
  72.4 16.4 16
  72.6 7.04 7
  72.7 14.42 14
  72.8 22.79 22
  72.9 24.82 24
  73.0 19.15 19
  73.3 11.41 11
  73.4 19.76 19
  73.5 24.73 24
  73.6 21.62 21
  73.7 13.32 13
  73.9 7.67 7
  74.0 13.74 13
  74.1 19.5 19
  74.2 20.04 20
  74.3 15.09 15
  74.5 8.05 8
  74.6 13.27 13
  74.7 20.78 20
  74.8 24.33 24
  74.9 21.23 21
  75.0 14.67 14
  75.2 12.74 12
  75.3 19.2 19
  75.4 24.31 24
  75.5 22.95 22
  75.6 15.68 15
  75.8 10.36 10
  75.9 18.82 18
  76.0 26.55 26
  76.1 25.82 25
  76.2 17.17 17
  76.4 6.62 6
  76.5 12.55 12
  76.6 20.36 20
  76.7 23.35 23
  76.8 18.89 18
  76.9 10.26 10
  77.1 6.2 6
  77.2 14.25 14
  77.3 21.16 21
  77.4 21.16 21
  77.5 15.58 15
  77.7 9.75 9
  77.8 13.09 13
  77.9 17.17 17
  78.0 18.73 18
  78.1 16.49 16
  78.3 11.71 11
  78.4 15.3 15
  78.5 20.71 20
  78.6 23.19 23
  78.7 20.01 19
  78.8 12.92 12
  79.0 7.91 7
  79.1 15.07 15
  79.2 23.35 23
  79.3 26.15 26
  79.4 21.46 21
  79.5 13.74 13
  79.7 11.57 11
  79.8 16.98 16
  79.9 20.36 20
  80.0 18.59 18
  80.3 12.15 12
  80.4 20.29 20
  80.5 26.64 26
  80.6 25.22 25
  80.7 17.4 17
  80.9 8.47 8
  81.0 12.64 12
  81.1 18.57 18
  81.2 21.53 21
  81.3 19.52 19
  81.4 14.77 14
  81.6 12.34 12
  81.7 16.19 16
  81.8 19.62 19
  81.9 19.29 19
  82.0 14.67 14
  82.2 8.21 8
  82.3 13.37 13
  82.4 20.36 20
  82.5 22.11 22
  82.6 16.0 15
  82.8 3.45 3
  82.9 8.63 8
  83.0 18.36 18
  83.1 24.75 24
  83.2 23.33 23
  83.3 16.19 16
  83.5 8.4 8
  83.6 13.41 13
  83.7 20.22 20
  83.8 23.28 23
  83.9 20.32 20
  84.1 12.29 12
  84.2 16.12 16
  84.3 21.93 21
  84.4 22.39 22
  84.5 15.56 15
  84.7 4.9 4
  84.8 10.01 9
  84.9 18.33 18
  85.0 23.91 23
  85.1 22.74 22
  85.2 15.16 15
  85.4 4.15 4
  85.5 10.43 10
  85.6 20.41 20
  85.7 25.75 25
  85.8 22.25 22
  85.9 13.18 13
  86.1 7.65 7
  86.2 15.56 15
  86.3 23.05 23
  86.4 23.54 23
  86.5 16.98 16
  86.7 8.51 8
  86.8 14.58 14
  86.9 22.04 22
  87.0 23.49 23
  87.1 17.24 17
  87.3 7.44 7
  87.4 12.99 12
  87.5 20.43 20
  87.6 23.35 23
  87.7 20.36 20
  88.0 13.76 13
  88.1 19.55 19
  88.2 24.68 24
  88.3 23.86 23
  88.4 16.14 16
  88.6 4.5 4
  88.7 10.43 10
  88.8 19.27 19
  88.9 23.28 23
  89.0 19.9 19
  89.2 12.06 12
  89.3 16.84 16
  89.4 24.0 23
  89.5 27.25 27
  89.6 23.86 23
  89.7 16.42 16
  89.9 9.84 9
  90.0 14.63 14
  90.1 20.18 20
  90.2 20.95 20
  90.3 15.51 15
  90.5 6.32 6
  90.6 11.52 11
  90.7 20.2 20
  90.8 25.54 25
  90.9 22.98 22
  91.0 14.58 14
  91.2 8.75 8
  91.3 15.93 15
  91.4 22.37 22
  91.5 22.35 22
  91.6 16.1 16
  91.8 8.33 8
  91.9 14.44 14
  92.0 22.63 22
  92.1 25.5 25
  92.2 20.22 20
  92.3 10.96 10
  92.5 8.21 8
  92.6 16.4 16
  92.7 22.25 22
  92.8 20.92 20
  92.9 14.51 14
  93.1 8.79 8
  93.2 13.48 13
  93.3 19.5 19
  93.4 22.09 22
  93.5 18.99 18
  93.7 11.85 11
  93.8 17.35 17
  93.9 25.73 25
  94.0 28.67 28
  94.1 22.0 21
  94.2 10.73 10
  94.4 8.09 8
  94.5 17.1 17
  94.6 23.72 23
  94.7 23.93 23
  94.8 19.27 19
  95.0 13.25 13
  95.1 17.45 17
  95.2 23.16 23
  95.3 24.07 24
  95.4 17.47 17
  96.3 8.23 8
  96.4 18.82 18
  96.5 26.03 26
  96.6 25.12 25
  96.7 18.45 18
  97.5 9.45 9
  97.6 12.88 12
  97.7 20.97 20
  97.8 26.94 26
  97.9 25.29 25
  98.0 17.28 17
  98.2 9.66 9
  98.3 15.98 15
  98.4 22.77 22
  98.5 23.56 23
  98.6 17.05 17
  98.8 4.64 4
  98.9 9.68 9
  99.0 18.73 18
  99.1 23.63 23
  99.2 20.34 20
  99.5 12.29 12
  99.6 21.16 21
  99.7 27.87 27
  99.8 26.62 26
  99.9 17.87 17
  100.2 9.49 9
  100.3 18.71 18
  100.4 24.66 24
  100.5 22.63 22
  100.6 14.86 14
  100.8 10.57 10
  100.9 18.33 18
  101.0 25.29 25
  101.1 25.1 25
  101.2 18.08 18
  101.4 9.0 8
  101.5 14.6 14
  101.6 22.11 22
  101.7 24.12 24
  101.8 17.61 17
  102.0 3.38 3
  102.1 9.54 9
  102.2 20.85 20
  102.3 27.53 27
  102.4 24.63 24
  102.5 16.1 16
  102.7 9.52 9
  102.8 14.86 14
  102.9 20.95 20
  103.0 22.95 22
  103.1 19.48 19
  103.3 12.04 12
  103.4 16.03 16
  103.5 22.07 22
  103.6 23.86 23
  103.7 18.78 18
  103.8 10.5 10
  104.0 8.89 8
  104.1 16.52 16
  104.2 21.27 21
  104.3 17.63 17
  104.4 7.79 7
  104.6 4.15 4
  104.7 16.59 16
  104.8 28.13 28
  104.9 29.62 29
  105.0 20.57 20
  105.1 8.93 8
  105.3 6.97 6
  105.4 15.37 15
  105.5 21.11 21
  105.6 19.34 19
  105.7 11.71 11
  105.9 5.78 5
  106.0 13.72 13
  106.1 22.42 22
  106.2 24.87 24
  106.3 19.48 19
  106.5 7.65 7
  106.6 12.32 12
  106.7 21.58 21
  106.8 26.94 26
  106.9 22.84 22
  107.0 12.5 12
  107.2 7.77 7
  107.3 17.63 17
  107.4 25.94 25
  107.5 25.73 25
  107.6 17.91 17
  107.8 7.88 7
  107.9 13.95 13
  108.0 22.7 22
  108.1 26.06 26
  108.2 20.39 20
  108.3 10.36 10
  108.5 8.0 7
  108.6 16.56 16
  108.7 22.81 22
  108.8 21.83 21
  108.9 15.58 15
  109.1 11.97 11
  109.2 17.84 17
  109.3 22.3 22
  109.4 20.46 20
  109.5 12.71 12
  109.7 1.89 1
  109.8 7.6 7
  109.9 17.0 16
  110.0 22.63 22
  110.1 20.97 20
  110.2 15.49 15
  110.4 13.6 13
  110.5 17.24 17
  110.6 19.24 19
  110.7 17.38 17
  110.8 12.32 12
  111.0 6.76 6
  111.1 11.64 11
  111.2 18.43 18
  111.3 21.51 21
  111.4 18.43 18
  111.6 9.61 9
  111.7 13.37 13
  111.8 21.04 21
  111.9 25.89 25
  112.0 23.05 23
  112.1 14.3 14
  112.3 7.37 7
  112.4 15.58 15
  112.5 24.61 24
  112.6 26.66 26
  112.7 20.04 20
  112.8 10.59 10
  113.0 10.05 10
  113.1 17.03 17
  113.2 20.25 20
  113.3 16.7 16
  113.5 5.85 5
  113.6 9.77 9
  113.7 19.41 19
  113.8 27.15 27
  113.9 26.45 26
  114.0 17.87 17
  114.2 6.04 6
  114.3 11.5 11
  114.4 19.85 19
  114.5 24.14 24
  114.6 21.51 21
  114.7 15.28 15
  114.9 13.55 13
  115.0 19.66 19
  115.1 24.12 24
  115.2 22.18 22
  115.3 14.49 14
  115.5 6.46 6
  115.6 12.76 12
  115.7 20.08 20
  115.8 22.25 22
  115.9 18.5 18
  116.1 11.8 11
  116.2 16.03 16
  116.3 22.32 22
  116.4 23.75 23
  116.5 17.33 17
  116.8 9.84 9
  116.9 18.54 18
  117.0 24.03 24
  117.1 22.63 22
  117.2 15.82 15
  117.4 8.21 8
  117.5 14.32 14
  117.6 22.58 22
  117.7 25.96 25
  117.8 21.74 21
  117.9 13.86 13
  118.1 11.48 11
  118.2 17.31 17
  118.3 20.29 20
  118.4 17.1 17
  118.7 10.45 10
  118.8 17.91 17
  118.9 24.52 24
  119.0 25.08 25
  119.1 18.8 18
  119.3 8.3 8
  119.4 13.69 13
  119.5 21.97 21
  119.6 25.54 25
  119.7 21.23 21
  119.8 12.74 12
  120.0 8.09 8
  120.1 14.18 14
  120.2 19.62 19
  120.3 20.13 20
  120.4 16.19 16
  120.6 11.41 11
  120.7 15.89 15
  120.8 21.95 21
  120.9 23.68 23
  121.0 18.29 18
  121.2 7.07 7
  121.3 13.2 13
  121.4 23.26 23
  121.5 27.85 27
  121.6 22.72 22
  121.7 12.48 12
  121.9 6.97 6
  122.0 14.07 14
  122.1 20.48 20
  122.2 21.2 21
  122.3 16.12 16
  122.5 9.14 9
  122.6 14.44 14
  122.7 21.81 21
  122.8 24.63 24
  122.9 19.87 19
  123.0 11.08 11
  123.2 6.53 6
  123.3 13.02 13
  123.4 18.78 18
  123.5 19.1 19
  123.6 14.11 14
  123.8 8.02 8
  123.9 13.95 13
  124.0 22.04 22
  124.1 25.54 25
  124.2 21.46 21
  124.3 13.51 13
  124.5 10.24 10
  124.6 15.58 15
  124.7 19.06 19
  124.8 17.84 17
  125.1 12.25 12
  125.2 18.5 18
  125.3 24.68 24
  125.4 24.91 24
  125.5 17.98 17
  125.7 6.3 6
  125.8 11.06 11
  125.9 19.48 19
  126.0 24.12 24
  126.1 20.53 20
  126.2 11.66 11
  126.4 8.93 8
  126.5 17.61 17
  126.6 23.44 23
  126.7 21.53 21
  126.8 14.93 14
  127.0 11.73 11
  127.1 17.45 17
  127.2 22.7 22
  127.3 23.02 22
  127.4 17.84 17
  127.7 11.2 11
  127.8 18.71 18
  127.9 24.1 24
  128.0 23.02 22
  128.1 17.26 17
  128.3 14.95 14
  128.4 20.92 20
  128.5 24.82 24
  128.6 22.02 21
  128.7 13.46 13
  128.9 4.48 4
  129.0 11.85 11
  129.1 21.06 21
  129.2 23.84 23
  129.3 17.96 17
  129.5 5.85 5
  129.6 10.64 10
  129.7 19.87 19
  129.8 26.5 26
  129.9 25.73 25
  130.0 18.54 18
  130.2 8.75 8
  130.3 13.23 13
  130.4 19.94 19
  130.5 23.07 23
  130.6 20.32 20
  130.9 13.41 13
  131.0 19.99 19
  131.1 24.66 24
  131.2 22.95 22
  131.3 16.26 16
  131.5 11.52 11
  131.6 17.68 17
  131.7 23.19 23
  131.8 22.21 22
  131.9 15.0 14
  132.1 6.9 6
  132.2 12.71 12
  132.3 20.01 19
  132.4 22.88 22
  132.5 19.31 19
  132.8 11.03 11
  132.9 18.89 18
  133.0 25.31 25
  133.1 24.45 24
  133.2 17.12 17
  133.4 9.21 9
  133.5 15.56 15
  133.6 23.26 23
  133.7 25.26 25
  133.8 19.17 19
  133.9 9.68 9
  134.1 6.55 6
  134.2 13.2 13
  134.3 18.12 18
  134.4 17.77 17
  134.5 13.9 13
  134.7 12.08 12
  134.8 16.59 16
  134.9 20.97 20
  135.0 21.3 21
  135.1 16.24 16
  135.4 9.61 9
  135.5 17.77 17
  135.6 23.51 23
  135.7 22.25 22
  135.8 15.63 15
  136.0 10.82 10
  136.1 17.61 17
  136.2 24.05 24
  136.3 24.0 23
  136.4 17.75 17
  137.2 8.68 8
  137.3 11.94 11
  137.4 17.66 17
  137.5 20.74 20
  137.6 17.35 17
  137.9 8.23 8
  138.0 17.66 17
  138.1 25.1 25
  138.2 24.05 24
  138.3 15.35 15
  138.5 3.62 3
  138.6 8.7 8
  138.7 16.59 16
  138.8 20.88 20
  138.9 18.5 18
  139.2 11.36 11
  139.3 18.12 18
  139.4 22.7 22
  139.5 20.9 20
  139.6 14.32 14
  139.8 9.68 9
  139.9 16.12 16
  140.0 22.67 22
  140.1 23.28 23
  140.2 17.12 17
  140.4 8.28 8
  140.5 13.86 13
  140.6 21.83 21
  140.7 25.59 25
  140.8 22.16 22
  140.9 14.25 14
  141.1 7.95 7
  141.2 14.28 14
  141.3 21.46 21
  141.4 23.33 23
  141.5 18.15 18
  141.8 11.38 11
  141.9 19.29 19
  142.0 24.1 24
  142.1 21.76 21
  142.2 14.98 14
  142.4 13.3 13
  142.5 20.13 20
  142.6 24.49 24
  142.7 22.02 21
  142.8 14.35 14
  143.0 6.74 6
  143.1 12.53 12
  143.2 20.25 20
  143.3 24.33 24
  143.4 22.16 22
  143.5 16.05 16
  143.7 11.97 11
  143.8 17.28 17
  143.9 21.51 21
  144.0 19.5 19
  144.1 11.99 11
  144.3 6.02 6
  144.4 13.11 13
  144.5 20.08 20
  144.6 20.5 20
  144.7 14.63 14
  144.9 8.14 8
  145.0 13.44 13
  145.1 20.46 20
  145.2 24.12 24
  145.3 21.51 21
  145.4 14.28 14
  145.6 9.47 9
  145.7 16.63 16
  145.8 23.07 23
  145.9 22.53 22
  146.0 15.58 15
  146.2 7.39 7
  146.3 12.97 12
  146.4 20.64 20
  146.5 23.84 23
  146.6 19.52 19
  146.9 10.89 10
  147.0 18.05 18
  147.1 22.25 22
  147.2 20.08 20
  147.3 14.04 14
  147.5 11.66 11
  147.6 18.45 18
  147.7 24.56 24
  147.8 24.31 24
  147.9 17.0 16
  148.2 8.86 8
  148.3 17.96 17
  148.4 23.33 23
  148.5 20.36 20
  148.6 12.57 12
  148.8 10.71 10
  148.9 18.99 18
  149.0 25.82 25
  149.1 25.64 25
  149.2 18.73 18
  149.3 10.66 10
  149.5 10.05 10
  149.6 15.21 15
  149.7 17.56 17
  149.8 15.05 15
  150.0 10.01 9
  150.1 15.72 15
  150.2 24.1 24
  150.3 27.92 27
  150.4 23.37 23
  150.5 14.16 14
  150.7 9.47 9
  150.8 15.72 15
  150.9 19.97 19
  151.0 17.68 17
  151.1 10.8 10
  151.3 7.93 7
  151.4 16.68 16
  151.5 26.66 26
  151.6 31.3 31
  151.7 26.69 26
  151.8 15.56 15
  152.0 5.76 5
  152.1 12.67 12
  152.2 18.89 18
  152.3 18.24 18
  152.6 11.34 11
  152.7 19.15 19
  152.8 25.82 25
  152.9 26.5 26
  153.0 21.3 21
  153.1 14.02 14
  153.3 11.15 11
  153.4 16.77 16
  153.5 21.13 21
  153.6 19.85 19
  153.7 13.93 13
  153.9 9.38 9
  154.0 15.72 15
  154.1 22.77 22
  154.2 24.1 24
  154.3 17.8 17
  154.5 6.83 6
  154.6 13.11 13
  154.7 22.04 22
  154.8 25.1 25
  154.9 19.9 19
  155.2 12.57 12
  155.3 19.34 19
  155.4 23.23 23
  155.5 21.16 21
  155.6 14.77 14
  155.8 8.84 8
  155.9 14.14 14
  156.0 20.2 20
  156.1 21.51 21
  156.2 17.21 17
  156.5 12.39 12
  156.6 17.38 17
  156.7 21.11 21
  156.8 20.95 20
  156.9 16.59 16
  157.1 8.89 8
  157.2 12.69 12
  157.3 19.03 19
  157.4 22.11 22
  157.5 19.5 19
  157.7 12.78 12
  157.8 16.4 16
  157.9 21.95 21
  158.0 23.61 23
  158.1 18.82 18
  158.2 11.06 11
  158.4 9.26 9
  158.5 16.72 16
  158.6 22.98 22
  158.7 22.95 22
  158.8 16.56 16
  159.0 6.09 6
  159.1 10.73 10
  159.2 18.94 18
  159.3 23.37 23
  159.4 19.99 19
  159.7 11.22 11
  159.8 19.5 19
  159.9 25.57 25
  160.0 24.21 24
  160.1 16.56 16
  161.0 11.71 11
  161.1 17.96 17
  161.2 21.93 21
  161.3 19.2 19
  161.4 11.71 11
  161.6 8.86 8
  161.7 17.12 17
  161.8 24.17 24
  161.9 24.12 24
  162.0 17.66 17
  162.2 9.84 9
  162.3 15.65 15
  162.4 23.54 23
  162.5 26.62 26
  162.6 21.48 21
  162.7 11.69 11
  162.9 7.37 7
  163.0 16.56 16
  163.1 24.28 24
  163.2 23.56 23
  163.3 15.51 15
  163.5 7.72 7
  163.6 14.93 14
  163.7 23.4 23
  163.8 26.06 26
  163.9 20.74 20
  164.2 12.2 12
  164.3 20.88 20
  164.4 25.78 25
  164.5 22.39 22
  164.6 13.41 13
  164.8 4.9 4
  164.9 10.59 10
  165.0 17.19 17
  165.1 19.03 19
  165.4 13.62 13
  165.5 18.61 18
  165.6 22.91 22
  165.7 21.81 21
  165.8 14.84 14
  166.1 6.86 6
  166.2 15.47 15
  166.3 21.11 21
  166.4 18.85 18
  166.7 10.08 10
  166.8 20.39 20
  166.9 28.67 28
  167.0 27.53 27
  167.1 17.7 17
  167.3 5.23 5
  167.4 11.08 11
  167.5 18.43 18
  167.6 20.25 20
  167.7 15.33 15
  167.9 6.86 6
  168.0 11.85 11
  168.1 20.18 20
  168.2 25.52 25
  168.3 23.47 23
  168.4 15.33 15
  168.6 6.02 6
  168.7 12.67 12
  168.8 21.81 21
  168.9 25.87 25
  169.0 21.65 21
  169.1 12.9 12
  169.3 9.38 9
  169.4 16.66 16
  169.5 21.27 21
  169.6 18.19 18
  169.9 9.56 9
  170.0 18.54 18
  170.1 24.91 24
  170.2 22.77 22
  170.3 13.16 13
  170.5 3.59 3
  170.6 12.13 12
  170.7 21.86 21
  170.8 24.47 24
  170.9 18.89 18
  171.1 8.82 8
  171.2 13.23 13
  171.3 20.92 20
  171.4 25.89 25
  171.5 24.33 24
  171.6 17.68 17
  171.8 11.57 11
  171.9 17.77 17
  172.0 24.49 24
  172.1 25.01 24
  172.2 17.91 17
  172.5 8.77 8
  172.6 16.75 16
  172.7 22.51 22
  172.8 21.44 21
  172.9 14.25 14
  173.1 7.7 7
  173.2 15.56 15
  173.3 23.77 23
  173.4 24.47 24
  173.5 16.79 16
  173.8 9.89 9
  173.9 17.45 17
  174.0 21.53 21
  174.1 19.71 19
  174.3 11.8 11
  174.4 14.98 14
  174.5 21.9 21
  174.6 26.08 26
  174.7 23.26 23
  174.8 15.61 15
  175.0 9.38 9
  175.1 15.4 15
  175.2 21.88 21
  175.3 23.0 22
  175.4 17.66 17
  175.5 9.89 9
  175.7 8.05 8
  175.8 15.79 15
  175.9 22.53 22
  176.0 22.77 22
  176.1 17.24 17
  176.3 12.11 12
  176.4 17.19 17
  176.5 22.28 22
  176.6 21.58 21
  176.7 13.88 13
  176.9 3.24 3
  177.0 11.2 11
  177.1 22.16 22
  177.2 26.59 26
  177.3 21.3 21
  177.4 11.97 11
  177.6 11.03 11
  177.7 18.99 18
  177.8 23.42 23
  177.9 20.08 20
  178.0 12.2 12
  178.2 8.02 8
  178.3 13.51 13
  178.4 18.1 18
  178.5 18.45 18
  178.6 15.05 15
  178.8 9.35 9
  178.9 12.69 12
  179.0 19.45 19
  179.1 24.26 24
  179.2 21.93 21
  179.3 13.32 13
  179.5 6.09 6
  179.6 14.0 13
  179.7 22.79 22
  179.8 25.26 25
  179.9 19.97 19
  180.1 10.29 10
  180.2 15.7 15
  180.3 23.33 23
  180.4 25.17 25
  180.5 18.31 18
  180.8 7.09 7
  180.9 17.59 17
  181.0 25.54 25
  181.1 24.31 24
  181.2 14.77 14
  181.4 3.27 3
  181.5 10.96 10
  181.6 20.78 20
  181.7 24.0 23
  181.8 18.75 18
  182.1 11.99 11
  182.2 18.19 18
  182.3 21.76 21
  182.4 19.71 19
  182.5 13.51 13
  182.7 9.28 9
  182.8 15.3 15
  182.9 21.39 21
  183.0 22.49 22
  183.1 18.05 18
  183.3 9.98 9
  183.4 14.07 14
  183.5 20.67 20
  183.6 23.12 23
  183.7 18.31 18
  183.8 10.12 10
  184.0 8.21 8
  184.1 15.3 15
  184.2 20.55 20
  184.3 19.27 19
  184.4 12.71 12
  184.6 7.65 7
  184.7 14.02 14
  184.8 20.92 20
  184.9 22.86 22
  185.0 18.54 18
  185.2 9.49 9
  185.3 13.69 13
  185.4 21.09 21
  185.5 25.1 25
  185.6 22.16 22
  185.7 14.84 14
  185.9 9.7 9
  186.0 14.84 14
  186.1 19.5 19
  186.2 19.62 19
  186.3 15.3 15
  186.5 9.4 9
  186.6 13.69 13
  186.7 19.97 19
  186.8 22.56 22
  186.9 18.8 18
  187.1 8.82 8
  187.2 12.76 12
  187.3 20.88 20
  187.4 26.2 26
  187.5 24.14 24
  187.6 16.49 16
  187.8 8.37 8
  187.9 13.09 13
  188.0 18.61 18
  188.1 19.52 19
  188.2 15.12 15
  188.4 8.77 8
  188.5 13.06 13
  188.6 19.71 19
  188.7 24.05 24
  188.8 22.65 22
  188.9 15.72 15
  189.1 6.86 6
  189.2 13.58 13
  189.3 22.35 22
  189.4 24.47 24
  189.5 17.31 17
  189.7 4.95 4
  189.8 11.78 11
  189.9 21.51 21
  190.0 25.29 25
  190.1 20.6 20
  190.4 10.85 10
  190.5 19.41 19
  190.6 26.59 26
  190.7 26.08 26
  190.8 18.17 18
  191.0 7.42 7
  191.1 12.71 12
  191.2 20.06 20
  191.3 22.6 22
  191.4 17.73 17
  191.6 6.27 6
  191.7 11.08 11
  191.8 19.87 19
  191.9 24.8 24
  192.0 21.72 21
  192.1 13.23 13
  192.3 5.02 5
  192.4 11.29 11
  192.5 19.38 19
  192.6 22.65 22
  192.7 19.27 19
  193.5 8.33 8
  193.6 11.59 11
  193.7 19.34 19
  193.8 24.73 24
  193.9 22.49 22
  194.0 14.51 14
  194.2 8.23 8
  194.3 15.42 15
  194.4 23.77 23
  194.5 26.43 26
  194.6 20.5 20
  194.7 9.68 9
  194.9 3.22 3
  195.0 12.48 12
  195.1 22.07 22
  195.2 24.49 24
  195.3 18.87 18
  195.5 9.84 9
  195.6 14.7 14
  195.7 20.64 20
  195.8 21.65 21
  195.9 16.96 16
  196.1 10.45 10
  196.2 15.16 15
  196.3 20.85 20
  196.4 21.9 21
  196.5 17.03 17
  196.8 8.84 8
  196.9 15.96 15
  197.0 23.21 23
  197.1 25.38 25
  197.2 20.64 20
  197.5 11.29 11
  197.6 19.64 19
  197.7 25.92 25
  197.8 24.33 24
  197.9 16.31 16
  198.1 9.4 9
  198.2 16.19 16
  198.3 23.47 23
  198.4 24.82 24
  198.5 19.27 19
  198.7 10.38 10
  198.8 15.68 15
  198.9 22.88 22
  199.0 25.15 25
  199.1 20.34 20
  199.2 12.67 12
  199.4 11.41 11
  199.5 17.61 17
  199.6 21.67 21
  199.7 20.85 20
  199.8 16.89 16
  200.0 13.62 13
  200.1 17.91 17
  200.2 22.95 22
  200.3 23.21 23
  200.4 16.54 16
  200.6 4.32 4
  200.7 9.38 9
  200.8 18.03 18
  200.9 22.44 22
  201.0 18.89 18
  201.1 10.57 10
  201.3 6.95 6
  201.4 14.95 14
  201.5 21.09 21
  201.6 19.73 19
  201.7 13.2 13
  201.9 10.75 10
  202.0 17.07 17
  202.1 21.86 21
  202.2 21.86 21
  202.3 18.05 18
  202.4 13.37 13
  202.6 11.83 11
  202.7 16.31 16
  202.8 20.25 20
  202.9 19.08 19
  203.0 12.83 12
  203.2 7.77 7
  203.3 14.21 14
  203.4 20.15 20
  203.5 19.92 19
  203.6 14.32 14
  203.8 11.27 11
  203.9 18.57 18
  204.0 25.15 25
  204.1 24.66 24
  204.2 16.96 16
  204.4 7.18 7
  204.5 14.02 14
  204.6 23.21 23
  204.7 26.71 26
  204.8 21.67 21
  205.1 11.36 11
  205.2 20.55 20
  205.3 27.39 27
  205.4 26.17 26
  205.5 17.82 17
  206.3 4.08 4
  206.4 9.49 9
  206.5 19.06 19
  206.6 24.89 24
  206.7 22.18 22
  206.8 13.02 13
  207.0 4.99 4
  207.1 13.3 13
  207.2 22.42 22
  207.3 24.35 24
  207.4 18.03 18
  207.6 6.97 6
  207.7 12.08 12
  207.8 20.83 20
  207.9 26.08 26
  208.0 23.51 23
  208.1 15.07 15
  208.3 7.28 7
  208.4 14.25 14
  208.5 21.9 21
  208.6 23.0 22
  208.7 16.35 16
  208.9 5.25 5
  209.0 10.61 10
  209.1 19.08 19
  209.2 23.21 23
  209.3 19.83 19
  209.6 11.85 11
  209.7 20.15 20
  209.8 26.69 26
  209.9 25.05 25
  210.0 15.47 15
  210.2 4.5 4
  210.3 13.25 13
  210.4 23.79 23
  210.5 26.29 26
  210.6 18.87 18
  210.8 6.09 6
  210.9 12.11 12
  211.0 21.37 21
  211.1 25.85 25
  211.2 21.95 21
  211.3 13.3 13
  211.5 9.75 9
  211.6 17.7 17
  211.7 24.21 24
  211.8 23.96 23
  211.9 18.15 18
  212.1 12.06 12
  212.2 17.21 17
  212.3 23.58 23
  212.4 25.15 25
  212.5 20.08 20
  212.7 10.61 10
  212.8 15.28 15
  212.9 22.49 22
  213.0 25.38 25
  213.1 21.04 21
  213.2 12.92 12
  213.4 9.98 9
  213.5 17.12 17
  213.6 23.28 23
  213.7 23.63 23
  213.8 18.01 17
  214.7 10.8 10
  214.8 17.73 17
  214.9 23.44 23
  215.0 23.35 23
  215.1 17.4 17
  215.3 8.0 7
  215.4 13.04 13
  215.5 21.11 21
  215.6 24.77 24
  215.7 20.71 20
  215.8 13.09 13
  216.0 11.64 11
  216.1 18.08 18
  216.2 22.44 22
  216.3 20.92 20
  216.4 14.98 14
  216.6 10.36 10
  216.7 15.54 15
  216.8 20.92 20
  216.9 21.65 21
  217.0 16.33 16
  217.2 5.53 5
  217.3 10.15 10
  217.4 19.15 19
  217.5 24.7 24
  217.6 22.21 22
  217.7 14.53 14
  217.9 10.43 10
  218.0 17.31 17
  218.1 23.77 23
  218.2 24.8 24
  218.3 19.64 19
  218.4 11.97 11
  218.6 9.49 9
  218.7 16.35 16
  218.8 21.86 21
  218.9 20.9 20
  219.0 14.42 14
  219.2 9.03 9
  219.3 15.26 15
  219.4 21.25 21
  219.5 20.83 20
  219.6 13.44 13
  219.8 3.17 3
  219.9 9.45 9
  220.0 18.36 18
  220.1 22.39 22
  220.2 18.89 18
  220.5 12.15 12
  220.6 20.6 20
  220.7 25.85 25
  220.8 22.49 22
  220.9 12.99 12
  221.1 6.76 6
  221.2 15.56 15
  221.3 24.84 24
  221.4 27.08 27
  221.5 20.81 20
  222.4 9.4 9
  222.5 15.21 15
  222.6 19.52 19
  222.7 19.45 19
  222.8 16.05 16
  223.0 13.3 13
  223.1 18.17 18
  223.2 24.05 24
  223.3 25.59 25
  223.4 20.34 20
  223.5 11.73 11
  223.7 8.42 8
  223.8 15.26 15
  223.9 20.95 20
  224.0 21.06 21
  224.1 16.12 16
  224.3 8.75 8
  224.4 12.9 12
  224.5 19.55 19
  224.6 22.72 22
  224.7 19.38 19
  224.8 12.71 12
  225.0 11.57 11
  225.1 17.61 17
  225.2 21.2 21
  225.3 18.57 18
  225.4 11.8 11
  225.6 9.73 9
  225.7 17.49 17
  225.8 23.54 23
  225.9 22.18 22
  226.0 15.12 15
  226.2 10.61 10
  226.3 17.35 17
  226.4 23.44 23
  226.5 23.14 23
  226.6 16.05 16
  226.8 4.71 4
  226.9 10.26 10
  227.0 19.76 19
  227.1 25.4 25
  227.2 22.53 22
  227.3 13.55 13
  227.5 8.14 8
  227.6 18.22 18
  227.7 27.97 27
  227.8 28.27 28
  227.9 18.38 18
  228.2 7.09 7
  228.3 16.4 16
  228.4 21.65 21
  228.5 19.17 19
  228.8 11.83 11
  228.9 18.12 18
  229.0 22.11 22
  229.1 20.22 20
  229.2 13.9 13
  229.4 9.05 9
  229.5 15.61 15
  229.6 22.79 22
  229.7 24.35 24
  229.8 18.68 18
  230.1 9.54 9
  230.2 18.17 18
  230.3 24.17 24
  230.4 22.35 22
  230.5 14.93 14
  230.7 9.98 9
  230.8 15.84 15
  230.9 21.18 21
  231.0 21.67 21
  231.1 17.28 17
  231.3 11.59 11
  231.4 16.14 16
  231.5 22.18 22
  231.6 24.31 24
  231.7 20.04 20
  231.8 12.06 12
  232.0 9.14 9
  232.1 17.14 17
  232.2 23.37 23
  232.3 21.88 21
  232.4 14.09 14
  232.6 6.23 6
  232.7 12.32 12
  232.8 19.57 19
  232.9 21.65 21
  233.0 16.98 16
  233.1 10.12 10
  233.3 9.49 9
  233.4 14.39 14
  233.5 17.63 17
  233.6 16.49 16
  233.9 8.72 8
  234.0 16.98 16
  234.1 25.87 25
  234.2 26.78 26
  234.3 17.59 17
  235.2 7.51 7
  235.3 15.02 15
  235.4 21.97 21
  235.5 23.21 23
  235.6 18.31 18
  235.8 10.82 10
  235.9 15.98 15
  236.0 22.84 22
  236.1 24.68 24
  236.2 19.59 19
  236.4 10.54 10
  236.5 15.79 15
  236.6 23.61 23
  236.7 26.78 26
  236.8 21.83 21
  236.9 12.08 12
  237.1 6.32 6
  237.2 14.44 14
  237.3 22.28 22
  237.4 23.16 23
  237.5 16.68 16
  237.7 7.11 7
  237.8 12.62 12
  237.9 20.81 20
  238.0 24.7 24
  238.1 21.02 20
  238.2 12.85 12
  238.4 8.47 8
  238.5 15.28 15
  238.6 21.09 21
  238.7 20.78 20
  238.8 15.49 15
  239.0 12.06 12
  239.1 17.59 17
  239.2 21.79 21
  239.3 20.18 20
  239.4 13.81 13
  239.6 8.56 8
  239.7 14.79 14
  239.8 22.74 22
  239.9 26.5 26
  240.0 22.86 22
  240.1 14.16 14
  240.3 8.42 8
  240.4 16.38 16
  240.5 24.35 24
  240.6 26.03 26
  240.7 21.18 21
  241.6 8.19 8
  241.7 14.18 14
  241.8 20.11 20
  241.9 20.43 20
  242.0 15.16 15
  242.2 10.89 10
  242.3 17.82 17
  242.4 25.03 25
  242.5 26.03 26
  242.6 19.45 19
  242.7 10.15 10
  242.9 8.54 8
  243.0 17.26 17
  243.1 24.12 24
  243.2 23.26 23
  243.3 15.7 15
  243.5 7.63 7
  243.6 12.95 12
  243.7 18.92 18
  243.8 19.9 19
  243.9 14.81 14
  244.1 6.79 6
  244.2 12.53 12
  244.3 21.2 21
  244.4 25.61 25
  244.5 22.0 21
  244.6 13.32 13
  244.8 6.3 6
  244.9 12.27 12
  245.0 19.17 19
  245.1 21.48 21
  245.2 17.94 17
  245.4 12.08 12
  245.5 17.42 17
  245.6 24.07 24
  245.7 25.33 25
  245.8 19.66 19
  245.9 11.76 11
  246.1 10.92 10
  246.2 17.66 17
  246.3 21.46 21
  246.4 18.31 18
  246.7 10.26 10
  246.8 18.52 18
  246.9 24.52 24
  247.0 22.77 22
  247.1 14.39 14
  247.3 5.3 5
  247.4 12.22 12
  247.5 21.18 21
  247.6 24.91 24
  247.7 21.2 21
  247.8 13.97 13
  248.0 9.94 9
  248.1 15.33 15
  248.2 20.92 20
  248.3 21.88 21
  248.4 16.24 16
  248.7 8.26 8
  248.8 17.31 17
  248.9 22.72 22
  249.0 20.27 20
  249.3 13.44 13
  249.4 19.78 19
  249.5 23.61 23
  249.6 21.46 21
  249.7 15.35 15
  249.9 11.69 11
  250.0 17.4 17
  250.1 22.72 22
  250.2 22.46 22
  250.3 16.24 16
  251.1 6.65 6
  251.2 11.5 11
  251.3 20.71 20
  251.4 27.85 27
  251.5 27.64 27
  251.6 19.57 19
  251.9 11.57 11
  252.0 19.83 19
  252.1 24.1 24
  252.2 22.28 22
  252.3 16.96 16
  253.1 8.26 8
  253.2 15.91 15
  253.3 24.7 24
  253.4 26.24 26
  253.5 19.36 19
  253.7 8.82 8
  253.8 13.83 13
  253.9 21.06 21
  254.0 24.0 23
  254.1 20.32 20
  254.4 12.5 12
  254.5 19.08 19
  254.6 23.44 23
  254.7 21.72 21
  254.8 15.44 15
  255.0 10.73 10
  255.1 16.03 16
  255.2 20.48 20
  255.3 19.36 19
  255.4 13.44 13
  255.6 8.07 8
  255.7 14.65 14
  255.8 22.91 22
  255.9 26.03 26
  256.0 20.95 20
  256.1 11.48 11
  256.3 7.6 7
  256.4 16.33 16
  256.5 24.63 24
  256.6 26.45 26
  256.7 21.65 21
  256.8 15.47 15
  257.5 9.98 9
  257.6 13.88 13
  257.7 20.18 20
  257.8 24.35 24
  257.9 22.28 22
  258.0 14.11 14
  258.2 3.69 3
  258.3 9.26 9
  258.4 16.96 16
  258.5 20.57 20
  258.6 18.52 18
  258.8 13.25 13
  258.9 16.56 16
  259.0 21.79 21
  259.1 24.07 24
  259.2 20.43 20
  259.3 12.46 12
  259.5 7.81 7
  259.6 17.0 16
  259.7 26.57 26
  259.8 28.43 28
  259.9 21.2 21
  260.0 11.5 11
  260.2 9.56 9
  260.3 15.19 15
  260.4 18.61 18
  260.5 17.45 17
  260.6 13.32 13
  260.8 10.71 10
  260.9 15.14 15
  261.0 19.03 19
  261.1 17.96 17
  261.2 11.9 11
  261.4 7.18 7
  261.5 14.98 14
  261.6 23.09 23
  261.7 24.12 24
  261.8 17.14 17
  262.0 6.09 6
  262.1 11.5 11
  262.2 19.66 19
  262.3 23.14 23
  262.4 18.47 18
  262.7 7.72 7
  262.8 17.63 17
  262.9 26.22 26
  263.0 27.22 27
  263.1 21.18 21
  264.0 7.23 7
  264.1 14.93 14
  264.2 21.97 21
  264.3 22.7 22
  264.4 16.82 16
  264.6 8.47 8
  264.7 14.72 14
  264.8 23.33 23
  264.9 26.2 26
  265.0 20.15 20
  265.3 10.92 10
  265.4 20.5 20
  265.5 26.8 26
  265.6 24.54 24
  265.7 15.61 15
  265.9 6.79 6
  266.0 13.25 13
  266.1 19.8 19
  266.2 19.66 19
  266.3 13.34 13
  266.5 8.19 8
  266.6 15.51 15
  266.7 23.98 23
  266.8 27.06 27
  266.9 22.04 22
  267.0 12.67 12
  267.2 9.28 9
  267.3 18.59 18
  267.4 26.57 26
  267.5 26.64 26
  267.6 19.36 19
  267.8 10.01 9
  267.9 15.14 15
  268.0 22.25 22
  268.1 25.08 25
  268.2 20.64 20
  268.3 12.13 12
  268.5 8.28 8
  268.6 16.0 15
  268.7 22.93 22
  268.8 23.63 23
  268.9 18.17 18
  269.1 10.8 10
  269.2 15.28 15
  269.3 20.81 20
  269.4 21.83 21
  269.5 16.75 16
  269.7 6.06 6
  269.8 10.59 10
  269.9 19.5 19
  270.0 24.45 24
  270.1 20.6 20
  270.4 11.64 11
  270.5 21.06 21
  270.6 28.25 28
  270.7 27.15 27
  270.8 18.05 18
  271.0 5.2 5
  271.1 11.8 11
  271.2 21.62 21
  271.3 25.96 25
  271.4 21.25 21
  271.5 12.25 12
  271.7 8.89 8
  271.8 15.05 15
  271.9 18.96 18
  272.0 16.89 16
  272.1 10.8 10
  272.3 8.09 8
  272.4 15.05 15
  272.5 22.0 21
  272.6 23.93 23
  272.7 20.04 20
  272.9 11.43 11
  273.0 15.0 14
  273.1 22.23 22
  273.2 26.38 26
  273.3 22.51 22
  273.4 12.76 12
  273.6 6.27 6
  273.7 15.16 15
  273.8 23.93 23
  273.9 24.94 24
  274.0 17.84 17
  274.2 8.12 8
  274.3 14.07 14
  274.4 21.27 21
  274.5 22.53 22
  274.6 16.17 16
  274.9 6.67 6
  275.0 15.89 15
  275.1 22.81 22
  275.2 22.91 22
  275.3 18.15 18
  275.5 14.18 14
  275.6 18.19 18
  275.7 22.58 22
  275.8 22.91 22
  275.9 17.63 17
  276.8 11.34 11
  276.9 19.55 19
  277.0 25.36 25
  277.1 22.81 22
  277.2 13.41 13
  277.4 3.99 3
  277.5 11.22 11
  277.6 20.29 20
  277.7 23.7 23
  277.8 18.94 18
  278.0 7.16 7
  278.1 11.8 11
  278.2 20.78 20
  278.3 26.2 26
  278.4 23.58 23
  278.5 15.49 15
  278.7 8.51 8
  278.8 14.23 14
  278.9 20.9 20
  279.0 23.05 23
  279.1 18.92 18
  279.2 11.71 11
  279.4 8.86 8
  279.5 15.02 15
  279.6 19.52 19
  279.7 17.77 17
  280.0 10.01 9
  280.1 17.96 17
  280.2 24.24 24
  280.3 23.28 23
  280.4 16.14 16
  280.6 8.21 8
  280.7 13.39 13
  280.8 20.01 19
  280.9 22.88 22
  281.0 20.39 20
  281.1 15.28 15
  281.3 12.46 12
  281.4 15.7 15
  281.5 18.19 18
  281.6 17.4 17
  281.7 13.76 13
  281.9 10.82 10
  282.0 15.75 15
  282.1 21.46 21
  282.2 22.53 22
  282.3 17.26 17
  282.5 9.0 8
  282.6 14.65 14
  282.7 22.02 21
  282.8 23.79 23
  282.9 18.08 18
  283.1 6.9 6
  283.2 12.01 11
  283.3 20.83 20
  283.4 25.4 25
  283.5 21.83 21
  283.6 13.6 13
  283.8 10.15 10
  283.9 17.38 17
  284.0 23.23 23
  284.1 22.04 22
  284.2 14.35 14
  284.4 3.48 3
  284.5 8.21 8
  284.6 16.54 16
  284.7 22.42 22
  284.8 21.81 21
  284.9 15.58 15
  285.7 9.61 9
  285.8 12.81 12
  285.9 18.75 18
  286.0 21.6 21
  286.1 18.1 18
  286.4 10.57 10
  286.5 18.31 18
  286.6 24.91 24
  286.7 24.33 24
  286.8 16.07 16
  287.0 4.57 4
  287.1 11.78 11
  287.2 21.55 21
  287.3 25.08 25
  287.4 20.32 20
  287.6 10.59 10
  287.7 14.79 14
  287.8 21.65 21
  287.9 25.24 25
  288.0 22.18 22
  288.1 14.32 14
  288.3 7.37 7
  288.4 13.23 13
  288.5 18.87 18
  288.6 18.66 18
  288.7 12.9 12
  288.9 8.09 8
  289.0 15.3 15
  289.1 23.49 23
  289.2 25.99 25
  289.3 20.85 20
  289.4 12.18 12
  289.6 8.42 8
  289.7 15.82 15
  289.8 21.9 21
  289.9 20.57 20
  290.0 12.62 12
  290.2 4.34 4
  290.3 11.59 11
  290.4 21.44 21
  290.5 26.5 26
  290.6 22.77 22
  290.7 13.3 13
  290.9 7.09 7
  291.0 15.37 15
  291.1 23.05 23
  291.2 22.74 22
  291.3 15.09 15
  291.5 9.07 9
  291.6 16.68 16
  291.7 23.44 23
  291.8 23.35 23
  291.9 16.86 16
  292.2 10.26 10
  292.3 17.87 17
  292.4 23.0 22
  292.5 21.74 21
  292.6 15.86 15
  292.8 12.64 12
  292.9 18.33 18
  293.0 22.84 22
  293.1 21.86 21
  293.2 16.14 16
  293.4 10.15 10
  293.5 14.65 14
  293.6 19.8 19
  293.7 20.34 20
  293.8 15.26 15
  294.0 9.17 9
  294.1 15.37 15
  294.2 22.25 22
  294.3 23.16 23
  294.4 16.93 16
  294.7 8.16 8
  294.8 18.19 18
  294.9 26.45 26
  295.0 26.1 26
  295.1 17.82 17
  295.4 11.15 11
  295.5 17.73 17
  295.6 21.41 21
  295.7 20.46 20
  296.6 6.79 6
  296.7 13.6 13
  296.8 19.83 19
  296.9 19.64 19
  297.0 12.92 12
  297.2 4.76 4
  297.3 12.71 12
  297.4 23.65 23
  297.5 28.53 28
  297.6 22.81 22
  297.7 10.64 10
  297.9 2.66 2
  298.0 12.88 12
  298.1 23.35 23
  298.2 26.31 26
  298.3 21.48 21
  299.8 7.84 7
  299.9 14.07 14
  300.0 21.06 21
  300.1 23.26 23
  300.2 18.82 18
  300.5 10.59 10
  300.6 17.38 17
  300.7 21.46 21
  300.8 19.17 19
  301.1 11.99 11
  301.2 18.15 18
  301.3 22.53 22
  301.4 20.74 20
  301.5 13.32 13
  301.7 4.43 4
  301.8 10.33 10
  301.9 18.36 18
  302.0 21.25 21
  302.1 16.21 16
  302.3 3.5 3
  302.4 8.07 8
  302.5 18.08 18
  302.6 25.36 25
  302.7 24.56 24
  302.8 17.54 17
  303.0 10.57 10
  303.1 15.35 15
  303.2 20.95 20
  303.3 22.09 22
  303.4 17.07 17
  303.6 6.04 6
  303.7 10.38 10
  303.8 19.24 19
  303.9 25.15 25
  304.0 23.05 23
  304.1 15.0 14
  304.3 8.19 8
  304.4 14.28 14
  304.5 19.85 19
  304.6 19.01 18
  304.7 12.18 12
  304.9 6.02 6
  305.0 13.72 13
  305.1 23.12 23
  305.2 27.08 27
  305.3 22.35 22
  305.4 12.32 12
  305.6 5.64 5
  305.7 13.86 13
  305.8 22.6 22
  305.9 25.31 25
  306.0 21.09 21
  306.9 10.59 10
  307.0 19.06 19
  307.1 25.19 25
  307.2 23.98 23
  307.3 16.38 16
  307.5 8.49 8
  307.6 15.05 15
  307.7 22.02 21
  307.8 22.63 22
  307.9 16.59 16
  308.1 7.77 7
  308.2 12.62 12
  308.3 20.36 20
  308.4 24.84 24
  308.5 22.56 22
  308.6 16.19 16
  308.8 13.6 13
  308.9 19.29 19
  309.0 22.95 22
  309.1 20.08 20
  309.2 12.01 11
  309.4 5.51 5
  309.5 13.3 13
  309.6 23.44 23
  309.7 28.88 28
  309.8 25.64 25
  309.9 16.38 16
  310.1 9.52 9
  310.2 16.93 16
  310.3 22.95 22
  310.4 20.88 20
  310.5 12.32 12
  310.7 6.62 6
  310.8 15.05 15
  310.9 23.23 23
  311.0 24.03 24
  311.1 17.03 17
  311.3 8.14 8
  311.4 15.23 15
  311.5 24.21 24
  311.6 27.57 27
  311.7 22.84 22
  311.8 14.42 14
  312.0 11.52 11
  312.1 18.33 18
  312.2 23.44 23
  312.3 22.44 22
  312.4 16.26 16
  312.6 7.42 7
  312.7 11.41 11
  312.8 17.84 17
  312.9 20.57 20
  313.0 17.12 17
  313.2 9.89 9
  313.3 14.16 14
  313.4 20.11 20
  313.5 21.9 21
  313.6 17.89 17
  313.9 12.18 12
  314.0 19.01 18
  314.1 24.07 24
  314.2 23.61 23
  314.3 18.57 18
  314.5 13.34 13
  314.6 16.91 16
  314.7 20.69 20
  314.8 21.02 20
  314.9 17.54 17
  315.2 11.24 11
  315.3 16.59 16
  315.4 21.27 21
  315.5 20.57 20
  315.6 13.81 13
  315.8 2.4 2
  315.9 7.18 7
  316.0 16.26 16
  316.1 21.93 21
  316.2 19.73 19
  316.5 12.08 12
  316.6 19.38 19
  316.7 24.31 24
  316.8 22.16 22
  316.9 14.53 14
  317.1 8.02 8
  317.2 14.58 14
  317.3 21.25 21
  317.4 21.79 21
  317.5 15.51 15
  317.7 6.09 6
  317.8 12.32 12
  317.9 22.18 22
  318.0 27.76 27
  318.1 25.01 24
  318.2 17.33 17
  318.4 12.11 12
  318.5 15.84 15
  318.6 18.17 18
  318.7 16.52 16
  319.0 11.03 11
  319.1 16.54 16
  319.2 21.88 21
  319.3 22.58 22
  319.4 17.98 17
  319.7 12.71 12
  319.8 19.06 19
  319.9 23.23 23
  320.0 21.02 20
  320.1 13.25 13
  320.3 6.51 6
  320.4 15.21 15
  320.5 25.8 25
  320.6 29.93 29
  320.7 24.82 24
  320.8 15.63 15
  321.0 12.29 12
  321.1 17.47 17
  321.2 19.64 19
  321.3 16.38 16
  321.5 9.4 9
  321.6 14.37 14
  321.7 22.77 22
  321.8 27.71 27
  321.9 24.75 24
  322.0 16.0 15
  322.2 7.3 7
  322.3 13.6 13
  322.4 22.18 22
  322.5 26.03 26
  322.6 21.72 21
  322.7 12.9 12
  322.9 10.5 10
  323.0 18.89 18
  323.1 25.01 24
  323.2 23.07 23
  323.3 14.42 14
  323.5 6.18 6
  323.6 13.65 13
  323.7 21.67 21
  323.8 23.02 22
  323.9 16.45 16
  324.1 4.01 4
  324.2 8.98 8
  324.3 18.57 18
  324.4 24.42 24
  324.5 21.04 21
  324.6 11.38 11
  324.8 6.55 6
  324.9 15.84 15
  325.0 24.12 24
  325.1 24.24 24
  325.2 15.93 15
  325.4 4.25 4
  325.5 11.17 11
  325.6 20.48 20
  325.7 23.98 23
  325.8 19.71 19
  326.7 4.2 4
  326.8 9.68 9
  326.9 16.72 16
  327.0 20.11 20
  327.1 18.45 18
  327.3 12.43 12
  327.4 15.54 15
  327.5 21.86 21
  327.6 25.36 25
  327.7 21.65 21
  327.8 12.92 12
  328.0 6.62 6
  328.1 12.92 12
  328.2 19.06 19
  328.3 19.8 19
  328.4 15.07 15
  328.6 7.84 7
  328.7 11.41 11
  328.8 16.63 16
  328.9 18.43 18
  329.0 15.0 14
  329.2 9.7 9
  329.3 15.4 15
  329.4 22.7 22
  329.5 25.26 25
  329.6 20.29 20
  329.7 10.96 10
  329.9 4.85 4
  330.0 12.92 12
  330.1 22.02 21
  330.2 24.91 24
  330.3 19.5 19
  330.5 8.02 8
  330.6 13.06 13
  330.7 21.11 21
  330.8 24.4 24
  330.9 20.08 20
  331.0 12.27 12
  331.2 8.4 8
  331.3 13.3 13
  331.4 17.33 17
  331.5 17.12 17
  331.8 11.71 11
  331.9 16.68 16
  332.0 20.69 20
  332.1 20.01 19
  332.2 14.84 14
  332.4 7.0 6
  332.5 11.27 11
  332.6 19.43 19
  332.7 25.64 25
  332.8 24.96 24
  332.9 17.98 17
  333.1 9.89 9
  333.2 14.91 14
  333.3 20.69 20
  333.4 21.62 21
  333.5 16.72 16
  333.7 9.96 9
  333.8 15.91 15
  333.9 23.28 23
  334.0 24.82 24
  334.1 18.66 18
  334.4 9.07 9
  334.5 17.89 17
  334.6 24.68 24
  334.7 23.51 23
  334.8 15.26 15
  335.0 5.85 5
  335.1 12.25 12
  335.2 20.5 20
  335.3 24.21 24
  335.4 20.78 20
  335.5 13.16 13
  335.7 7.65 7
  335.8 13.9 13
  335.9 19.85 19
  336.0 19.73 19
  336.1 14.04 14
  336.3 8.93 8
  336.4 14.32 14
  336.5 20.22 20
  336.6 21.67 21
  336.7 17.31 17
  336.9 7.49 7
  337.0 11.34 11
  337.1 19.2 19
  337.2 24.33 24
  337.3 22.58 22
  337.4 16.14 16
  337.6 11.85 11
  337.7 17.21 17
  337.8 22.02 21
  337.9 21.53 21
  338.0 15.82 15
  338.2 9.19 9
  338.3 13.97 13
  338.4 19.52 19
  338.5 20.34 20
  338.6 15.42 15
  338.8 7.21 7
  338.9 12.13 12
  339.0 20.32 20
  339.1 25.4 25
  339.2 23.42 23
  339.3 16.1 16
  339.5 10.12 10
  339.6 16.96 16
  339.7 24.31 24
  339.8 25.78 25
  339.9 20.15 20
  340.8 10.96 10
  340.9 17.66 17
  341.0 23.12 23
  341.1 22.51 22
  341.2 16.86 16
  341.4 11.55 11
  341.5 16.66 16
  341.6 22.23 22
  341.7 22.7 22
  341.8 16.82 16
  342.1 9.52 9
  342.2 16.42 16
  342.3 21.58 21
  342.4 21.48 21
  342.5 17.17 17
  342.7 12.64 12
  342.8 16.4 16
  342.9 20.46 20
  343.0 20.41 20
  343.1 15.49 15
  343.3 7.58 7
  343.4 11.38 11
  343.5 17.12 17
  343.6 19.48 19
  343.7 16.77 16
  343.9 10.45 10
  344.0 14.0 13
  344.1 20.57 20
  344.2 24.8 24
  344.3 22.42 22
  344.4 14.49 14
  344.6 6.67 6
  344.7 13.65 13
  344.8 21.93 21
  344.9 24.54 24
  345.0 20.01 19
  345.2 10.94 10
  345.3 15.63 15
  345.4 23.89 23
  345.5 29.02 28
  345.6 26.78 26
  345.7 18.8 18
  345.9 10.31 10
  346.0 15.28 15
  346.1 20.62 20
  346.2 20.78 20
  346.3 15.49 15
  346.5 8.28 8
  346.6 12.64 12
  346.7 18.66 18
  346.8 20.83 20
  346.9 16.84 16
  347.2 10.08 10
  347.3 16.91 16
  347.4 22.11 22
  347.5 21.79 21
  347.6 16.66 16
  347.8 12.01 11
  347.9 18.66 18
  348.0 26.73 26
  348.1 29.09 29
  348.2 22.93 22
  348.3 12.83 12
  348.5 8.7 8
  348.6 16.68 16
  348.7 23.72 23
  348.8 24.12 24
  348.9 18.19 18
  349.1 11.69 11
  349.2 16.89 16
  349.3 22.42 22
  349.4 23.21 23
  349.5 18.75 18
  349.7 12.85 12
  349.8 17.8 17
  349.9 24.07 24
  350.0 26.03 26
  350.1 21.81 21
  350.4 13.81 13
  350.5 21.41 21
  350.6 26.83 26
  350.7 24.42 24
  350.8 15.23 15
  351.0 7.88 7
  351.1 16.47 16
  351.2 24.61 24
  351.3 24.91 24
  351.4 17.63 17
  351.6 7.18 7
  351.7 12.06 12
  351.8 19.76 19
  351.9 23.75 23
  352.0 20.48 20
  352.1 12.5 12
  352.3 7.07 7
  352.4 14.58 14
  352.5 23.09 23
  352.6 26.13 26
  352.7 21.44 21
  352.8 13.13 13
  353.0 10.08 10
  353.1 16.96 16
  353.2 21.97 21
  353.3 19.9 19
  353.4 11.99 11
  353.6 7.72 7
  353.7 17.1 17
  353.8 24.73 24
  353.9 22.95 22
  354.0 14.16 14
  354.2 10.71 10
  354.3 19.66 19
  354.4 26.31 26
  354.5 25.05 25
  354.6 17.47 17
  354.8 8.16 8
  354.9 13.25 13
  355.0 21.3 21
  355.1 25.92 25
  355.2 23.16 23
  355.3 14.91 14
  355.5 7.07 7
  355.6 13.09 13
  355.7 19.87 19
  355.8 21.44 21
  355.9 16.77 16
  356.1 8.26 8
  356.2 11.97 11
  356.3 18.45 18
  356.4 22.18 22
  356.5 20.01 19
  356.6 13.81 13
  356.8 9.8 9
  356.9 14.86 14
  357.0 18.99 18
  357.1 17.61 17
  357.2 11.13 11
  357.4 2.61 2
  357.5 7.25 7
  357.6 15.21 15
  357.7 20.95 20
  357.8 20.5 20
  357.9 15.12 15
  358.1 12.69 12
  358.2 19.55 19
  358.3 24.56 24
  358.4 22.53 22
  358.5 14.74 14
  358.7 6.97 6
  358.8 12.34 12
  358.9 18.26 18
  359.0 18.8 18
  359.1 13.67 13
  359.3 8.47 8
  359.4 14.53 14
  359.5 21.62 21
  359.6 23.86 23
  359.7 19.34 19
  359.8 11.29 11
  360.0 6.86 6
  360.1 14.32 14
  360.2 22.77 22
  360.3 25.4 25
  360.4 20.15 20
  360.6 10.19 10
  360.7 15.35 15
  360.8 21.97 21
  360.9 23.05 23
  361.0 17.47 17
  361.2 8.79 8
  361.3 14.0 13
  361.4 21.79 21
  361.5 25.01 24
  361.6 20.08 20
  361.7 10.75 10
  361.9 7.09 7
  362.0 15.54 15
  362.1 23.35 23
  362.2 24.31 24
  362.3 17.47 17
  362.5 6.16 6
  362.6 13.25 13
  362.7 22.81 22
  362.8 24.47 24
  362.9 15.72 15
  363.1 1.73 1
  363.2 8.75 8
  363.3 19.43 19
  363.4 25.31 25
  363.5 22.37 22
  363.6 13.44 13
  363.8 6.44 6
  363.9 13.83 13
  364.0 20.69 20
  364.1 20.53 20
  364.2 13.95 13
  364.4 5.76 5
  364.5 12.08 12
  364.6 21.53 21
  364.7 26.69 26
  364.8 23.4 23
  364.9 14.7 14
  365.1 8.75 8
  365.2 15.21 15
  365.3 20.9 20
  365.4 19.87 19
  365.5 12.76 12
  365.7 6.79 6
  365.8 14.02 14
  365.9 22.18 22
  366.0 25.47 25
  366.1 21.9 21
  366.2 14.56 14
  366.4 10.15 10
  366.5 16.38 16
  366.6 22.04 22
  366.7 21.55 21
  366.8 14.7 14
  367.0 5.32 5
  367.1 10.15 10
  367.2 16.89 16
  367.3 19.87 19
  367.4 17.7 17
  367.6 13.11 13
  367.7 16.98 16
  367.8 22.11 22
  367.9 23.23 23
  368.0 18.1 18
  368.3 10.82 10
  368.4 19.48 19
  368.5 24.96 24
  368.6 21.86 21
  368.7 12.62 12
  368.9 6.39 6
  369.0 14.46 14
  369.1 22.79 22
  369.2 24.96 24
  369.3 19.5 19
  369.4 10.52 10
  369.6 7.02 7
  369.7 15.35 15
  369.8 22.86 22
  369.9 23.63 23
  370.0 18.03 18
  370.2 9.47 9
  370.3 13.37 13
  370.4 19.83 19
  370.5 23.26 23
  370.6 20.08 20
  370.7 12.34 12
  370.9 7.84 7
  371.0 14.79 14
  371.1 20.55 20
  371.2 19.48 19
  371.5 11.27 11
  371.6 19.99 19
  371.7 27.04 27
  371.8 26.36 26
  371.9 19.06 19
  372.8 9.42 9
  372.9 17.33 17
  373.0 24.31 24
  373.1 24.87 24
  373.2 19.13 19
  374.0 12.5 12
  374.1 17.1 17
  374.2 22.88 22
  374.3 24.0 23
  374.4 18.12 18
  374.5 8.77 8
  374.7 3.87 3
  374.8 11.24 11
  374.9 18.8 18
  375.0 21.37 21
  375.1 18.12 18
  375.3 11.52 11
  375.4 15.42 15
  375.5 21.18 21
  375.6 22.81 22
  375.7 17.96 17
  375.9 7.37 7
  376.0 11.97 11
  376.1 21.58 21
  376.2 28.55 28
  376.3 26.69 26
  376.4 16.98 16
  376.6 5.55 5
  376.7 12.5 12
  376.8 21.97 21
  376.9 25.82 25
  377.0 20.99 20
  377.3 12.39 12
  377.4 21.62 21
  377.5 27.2 27
  377.6 24.14 24
  377.7 15.21 15
  377.9 8.44 8
  378.0 15.61 15
  378.1 23.89 23
  378.2 26.92 26
  378.3 22.32 22
  378.4 13.58 13
  378.6 9.89 9
  378.7 17.49 17
  378.8 23.35 23
  378.9 21.95 21
  379.0 15.16 15
  379.2 12.39 12
  379.3 19.94 19
  379.4 25.85 25
  379.5 24.54 24
  379.6 16.4 16
  379.8 4.57 4
  379.9 10.33 10
  380.0 19.87 19
  380.1 24.54 24
  380.2 20.18 20
  380.3 11.48 11
  380.5 10.33 10
  380.6 18.22 18
  380.7 23.7 23
  380.8 22.35 22
  380.9 15.65 15
  381.1 10.61 10
  381.2 17.26 17
  381.3 23.56 23
  381.4 23.65 23
  381.5 17.61 17
  381.7 9.31 9
  381.8 13.58 13
  381.9 19.71 19
  382.0 22.35 22
  382.1 18.99 18
  382.4 10.85 10
  382.5 18.47 18
  382.6 25.1 25
  382.7 24.66 24
  382.8 17.07 17
  383.0 8.47 8
  383.1 15.35 15
  383.2 23.3 23
  383.3 25.4 25
  383.4 20.34 20
  383.6 9.35 9
  383.7 13.6 13
  383.8 22.23 22
  383.9 27.13 27
  384.0 22.93 22
  384.1 12.9 12
  384.3 8.44 8
  384.4 17.28 17
  384.5 24.84 24
  384.6 24.63 24
  384.7 16.17 16
  384.9 1.03 1
  385.0 6.69 6
  385.1 18.57 18
  385.2 27.53 27
  385.3 26.62 26
  385.4 17.0 16
  385.6 5.92 5
  385.7 14.28 14
  385.8 24.19 24
  385.9 26.01 25
  386.0 18.01 17
  386.2 5.25 5
  386.3 11.08 11
  386.4 20.04 20
  386.5 25.12 25
  386.6 23.0 22
  386.7 15.89 15
  386.9 10.03 10
  387.0 15.4 15
  387.1 19.69 19
  387.2 17.21 17
  387.3 9.49 9
  387.5 6.69 6
  387.6 15.44 15
  387.7 22.6 22
  387.8 22.07 22
  387.9 14.53 14
  388.1 5.3 5
  388.2 11.29 11
  388.3 19.87 19
  388.4 24.21 24
  388.5 20.83 20
  388.6 12.76 12
  388.8 9.77 9
  388.9 18.05 18
  389.0 24.89 24
  389.1 23.86 23
  389.2 15.14 15
  389.4 4.78 4
  389.5 13.18 13
  389.6 23.63 23
  389.7 26.48 26
  389.8 19.13 19
  389.9 8.0 7
  390.1 6.48 6
  390.2 15.75 15
  390.3 22.67 22
  390.4 22.32 22
  390.5 15.63 15
  390.7 6.79 6
  390.8 12.9 12
  390.9 20.83 20
  391.0 22.95 22
  391.1 17.56 17
  391.3 10.85 10
  391.4 18.66 18
  391.5 27.78 27
  391.6 29.58 29
  391.7 21.62 21
  392.0 9.66 9
  392.1 19.97 19
  392.2 26.62 26
  392.3 23.98 23
  392.4 14.44 14
  392.6 5.06 5
  392.7 11.43 11
  392.8 19.03 19
  392.9 21.74 21
  393.0 17.98 17
  393.3 10.61 10
  393.4 17.77 17
  393.5 22.02 21
  393.6 18.33 18
  393.7 9.31 9
  393.9 5.76 5
  394.0 15.28 15
  394.1 24.0 23
  394.2 24.68 24
  394.3 16.91 16
  394.5 5.69 5
  394.6 12.27 12
  394.7 21.44 21
  394.8 25.54 25
  394.9 21.9 21
  395.0 14.37 14
  395.2 10.38 10
  395.3 16.19 16
  395.4 21.2 21
  395.5 20.69 20
  395.6 15.09 15
  395.8 10.61 10
  395.9 17.12 17
  396.0 23.63 23
  396.1 23.63 23
  396.2 15.86 15
  396.4 3.8 3
  396.5 10.47 10
  396.6 19.99 19
  396.7 23.7 23
  396.8 19.38 19
  397.1 12.2 12
  397.2 17.61 17
  397.3 20.64 20
  397.4 17.96 17
  397.5 11.24 11
  397.7 8.21 8
  397.8 14.95 14
  397.9 20.64 20
  398.0 20.95 20
  398.1 16.4 16
  398.2 10.85 10
  398.4 9.75 9
  398.5 14.46 14
  398.6 18.29 18
  398.7 17.77 17
  399.0 11.83 11
  399.1 18.17 18
  399.2 23.89 23
  399.3 22.93 22
  399.4 14.44 14
  399.6 2.43 2
  399.7 9.75 9
  399.8 20.71 20
  399.9 26.78 26
  400.0 24.1 24
  400.1 16.14 16
  400.3 10.92 10
  400.4 17.75 17
  400.5 24.33 24
  400.6 24.42 24
  400.7 17.26 17
  400.9 6.27 6
  401.0 12.11 12
  401.1 21.3 21
  401.2 26.55 26
  401.3 24.12 24
  401.4 16.26 16
  401.6 9.98 9
  401.7 17.03 17
  401.8 24.31 24
  401.9 25.22 25
  402.0 19.1 19
  403.5 9.28 9
  403.6 15.79 15
  403.7 21.37 21
  403.8 21.23 21
  403.9 15.65 15
  404.1 7.72 7
  404.2 11.36 11
  404.3 17.33 17
  404.4 20.67 20
  404.5 18.31 18
  404.6 12.04 12
  404.8 9.17 9
  404.9 17.17 17
  405.0 25.26 25
  405.1 26.5 26
  405.2 19.78 19
  405.4 9.75 9
  405.5 15.16 15
  405.6 22.02 21
  405.7 24.17 24
  405.8 20.18 20
  405.9 13.46 13
  406.1 10.78 10
  406.2 17.47 17
  406.3 23.56 23
  406.4 23.26 23
  406.5 16.59 16
  406.7 10.15 10
  406.8 16.28 16
  406.9 21.83 21
  407.0 21.44 21
  407.1 16.31 16
  407.3 12.62 12
  407.4 17.33 17
  407.5 21.88 21
  407.6 22.28 22
  407.7 18.17 18
  408.0 11.92 11
  408.1 17.52 17
  408.2 22.39 22
  408.3 22.14 22
  408.4 16.24 16
  408.6 7.18 7
  408.7 12.48 12
  408.8 20.78 20
  408.9 24.7 24
  409.0 20.34 20
  409.1 11.2 11
  409.3 7.53 7
  409.4 15.68 15
  409.5 22.25 22
  409.6 21.58 21
  409.7 15.0 14
  409.9 11.29 11
  410.0 18.08 18
  410.1 23.12 23
  410.2 21.65 21
  410.3 15.51 15
  410.5 12.18 12
  410.6 18.87 18
  410.7 25.08 25
  410.8 24.73 24
  410.9 16.98 16
  411.2 8.09 8
  411.3 17.52 17
  411.4 24.52 24
  411.5 23.96 23
  411.6 16.26 16
  411.8 3.73 3
  411.9 9.14 9
  412.0 18.59 18
  412.1 23.4 23
  412.2 19.38 19
  412.5 10.89 10
  412.6 20.01 19
  412.7 26.59 26
  412.8 25.52 25
  412.9 18.38 18
  413.1 11.15 11
  413.2 15.98 15
  413.3 20.64 20
  413.4 19.94 19
  413.5 13.74 13
  413.7 6.37 6
  413.8 12.46 12
  413.9 20.9 20
  414.0 24.73 24
  414.1 20.74 20
  414.2 12.2 12
  414.4 8.89 8
  414.5 17.42 17
  414.6 24.19 24
  414.7 22.77 22
  414.8 14.72 14
  415.0 7.37 7
  415.1 13.32 13
  415.2 19.9 19
  415.3 21.48 21
  415.4 17.03 17
  415.6 9.47 9
  415.7 14.16 14
  415.8 20.62 20
  415.9 22.79 22
  416.0 18.59 18
  416.1 11.22 11
  416.3 8.47 8
  416.4 16.26 16
  416.5 24.14 24
  416.6 25.54 25
  416.7 18.78 18
  417.0 9.82 9
  417.1 19.27 19
  417.2 25.1 25
  417.3 22.7 22
  417.4 15.21 15
  417.6 10.96 10
  417.7 17.7 17
  417.8 23.7 23
  417.9 22.93 22
  418.0 15.07 15
  418.2 5.04 5
  418.3 11.94 11
  418.4 21.06 21
  418.5 24.47 24
  418.6 19.87 19
  418.9 12.25 12
  419.0 21.18 21
  419.1 26.9 26
  419.2 23.91 23
  419.3 14.21 14
  419.5 5.02 5
  419.6 12.78 12
  419.7 22.49 22
  419.8 26.69 26
  419.9 22.88 22
  420.0 15.23 15
  420.2 12.08 12
  420.3 17.19 17
  420.4 19.85 19
  420.5 17.19 17
  420.8 12.22 12
  420.9 18.82 18
  421.0 22.93 22
  421.1 20.01 19
  421.2 12.08 12
  421.4 8.75 8
  421.5 17.28 17
  421.6 24.61 24
  421.7 24.73 24
  421.8 17.52 17
  422.0 4.71 4
  422.1 10.1 10
  422.2 20.71 20
  422.3 27.69 27
  422.4 25.24 25
  422.5 16.26 16
  422.7 9.47 9
  422.8 16.4 16
  422.9 23.21 23
  423.0 23.75 23
  423.1 17.73 17
  423.9 9.07 9
  424.0 13.23 13
  424.1 19.9 19
  424.2 22.77 22
  424.3 18.8 18
  424.6 9.7 9
  424.7 18.03 18
  424.8 25.31 25
  424.9 25.75 25
  425.0 18.73 18
  425.3 9.75 9
  425.4 17.94 17
  425.5 22.93 22
  425.6 20.43 20
  425.7 12.36 12
  425.9 3.83 3
  426.0 10.33 10
  426.1 18.71 18
  426.2 21.51 21
  426.3 16.63 16
  426.5 7.77 7
  426.6 13.83 13
  426.7 22.44 22
  426.8 25.45 25
  426.9 19.57 19
  427.0 9.84 9
  427.2 8.4 8
  427.3 17.07 17
  427.4 23.09 23
  427.5 21.3 21
  427.6 13.27 13
  427.8 5.67 5
  427.9 13.37 13
  428.0 23.05 23
  428.1 26.66 26
  428.2 21.34 21
  428.3 12.18 12
  428.5 10.82 10
  428.6 17.77 17
  428.7 21.09 21
  428.8 17.47 17
  429.1 9.4 9
  429.2 18.68 18
  429.3 26.66 26
  429.4 26.36 26
  429.5 17.45 17
  429.7 6.25 6
  429.8 13.83 13
  429.9 23.02 22
  430.0 25.8 25
  430.1 20.53 20
  430.4 12.2 12
  430.5 18.75 18
  430.6 22.07 22
  430.7 18.85 18
  430.8 12.39 12
  431.0 10.71 10
  431.1 16.33 16
  431.2 21.11 21
  431.3 21.46 21
  431.4 16.84 16
  431.6 8.56 8
  431.7 12.78 12
  431.8 19.85 19
  431.9 23.23 23
  432.0 19.73 19
  432.1 12.39 12
  432.3 8.91 8
  432.4 15.68 15
  432.5 22.09 22
  432.6 22.81 22
  432.7 17.4 17
  433.0 8.72 8
  433.1 16.05 16
  433.2 22.35 22
  433.3 22.46 22
  433.4 16.66 16
  433.6 8.86 8
  433.7 12.85 12
  433.8 18.26 18
  433.9 19.99 19
  434.0 16.21 16
  434.9 8.72 8
  435.0 15.4 15
  435.1 20.29 20
  435.2 19.08 19
  435.3 13.32 13
  435.5 10.54 10
  435.6 17.54 17
  435.7 24.03 24
  435.8 24.24 24
  435.9 17.49 17
  436.2 9.26 9
  436.3 17.0 16
  436.4 21.83 21
  436.5 19.87 19
  436.6 13.25 13
  436.8 8.91 8
  436.9 14.86 14
  437.0 19.85 19
  437.1 18.57 18
  437.2 11.92 11
  437.4 5.81 5
  437.5 11.66 11
  437.6 18.99 18
  437.7 22.25 22
  437.8 18.71 18
  438.0 7.63 7
  438.1 12.81 12
  438.2 24.1 24
  438.3 32.0 31
  438.4 29.16 29
  438.5 17.75 17
  438.7 8.61 8
  438.8 17.73 17
  438.9 25.36 25
  439.0 23.47 23
  439.1 13.58 13
  439.3 3.22 3
  439.4 10.01 9
  439.5 18.5 18
  439.6 22.16 22
  439.7 18.73 18
  439.8 11.48 11
  440.0 7.79 7
  440.1 15.21 15
  440.2 22.63 22
  440.3 23.65 23
  440.4 17.42 17
  440.6 7.14 7
  440.7 11.97 11
  440.8 19.31 19
  440.9 22.16 22
  441.0 17.54 17
  441.3 9.61 9
  441.4 18.12 18
  441.5 23.63 23
  441.6 21.6 21
  441.7 14.6 14
  441.9 11.94 11
  442.0 18.59 18
  442.1 22.53 22
  442.2 19.03 19
  442.3 10.61 10
  442.5 6.69 6
  442.6 15.33 15
  442.7 24.07 24
  442.8 26.31 26
  442.9 20.46 20
  443.0 11.24 11
  443.2 9.59 9
  443.3 17.7 17
  443.4 22.98 22
  443.5 20.71 20
  443.6 13.27 13
  443.8 6.65 6
  443.9 12.78 12
  444.0 20.85 20
  444.1 25.24 25
  444.2 23.23 23
  444.3 17.19 17
  444.5 14.16 14
  444.6 19.64 19
  444.7 22.65 22
  444.8 18.57 18
  445.1 9.63 9
  445.2 17.56 17
  445.3 23.26 23
  445.4 22.46 22
  445.5 16.28 16
  445.7 9.03 9
  445.8 15.19 15
  445.9 23.93 23
  446.0 28.15 28
  446.1 24.14 24
  446.2 14.98 14
  446.4 7.95 7
  446.5 15.02 15
  446.6 22.58 22
  446.7 23.68 23
  446.8 17.54 17
  447.0 8.75 8
  447.1 13.97 13
  447.2 20.9 20
  447.3 23.96 23
  447.4 21.3 21
  447.7 15.42 15
  447.8 21.76 21
  447.9 25.52 25
  448.0 22.3 22
  448.1 14.11 14
  448.3 8.56 8
  448.4 16.7 16
  448.5 25.5 25
  448.6 26.92 26
  448.7 19.24 19
  448.9 7.16 7
  449.0 13.27 13
  449.1 21.69 21
  449.2 25.36 25
  449.3 22.18 22
  449.4 15.33 15
  449.6 9.98 9
  449.7 15.05 15
  449.8 20.22 20
  449.9 20.74 20
  450.0 16.56 16
  450.2 11.29 11
  450.3 14.53 14
  450.4 18.57 18
  450.5 19.52 19
  450.6 16.05 16
  450.8 8.82 8
  450.9 12.36 12
  451.0 19.94 19
  451.1 25.68 25
  451.2 23.96 23
  451.3 15.63 15
  451.5 7.77 7
  451.6 14.79 14
  451.7 22.04 22
  451.8 22.32 22
  451.9 15.0 14
  452.1 6.11 6
  452.2 13.11 13
  452.3 21.67 21
  452.4 24.75 24
  452.5 20.57 20
  452.6 12.78 12
  452.8 7.25 7
  452.9 12.11 12
  453.0 17.03 17
  453.1 18.15 18
  453.2 15.51 15
  453.4 11.83 11
  453.5 14.63 14
  453.6 18.45 18
  453.7 19.85 19
  453.8 17.77 17
  454.0 14.32 14
  454.1 17.49 17
  454.2 21.79 21
  454.3 23.26 23
  454.4 20.15 20
  454.5 14.65 14
  454.7 11.78 11
  454.8 16.84 16
  454.9 22.0 21
  455.0 22.28 22
  455.1 16.79 16
  455.3 7.74 7
  455.4 11.99 11
  455.5 18.92 18
  455.6 22.28 22
  455.7 18.78 18
  455.8 11.24 11
  456.0 8.12 8
  456.1 14.79 14
  456.2 19.99 19
  456.3 18.89 18
  456.4 12.71 12
  456.6 7.67 7
  456.7 13.93 13
  456.8 21.09 21
  456.9 23.3 23
  457.0 18.92 18
  457.9 9.35 9
  458.0 15.28 15
  458.1 21.55 21
  458.2 22.56 22
  458.3 17.26 17
  458.5 9.47 9
  458.6 15.12 15
  458.7 23.33 23
  458.8 27.43 27
  458.9 23.72 23
  459.0 14.51 14
  459.2 7.72 7
  459.3 16.07 16
  459.4 24.52 24
  459.5 25.17 25
  459.6 17.31 17
  459.8 6.79 6
  459.9 14.11 14
  460.0 23.65 23
  460.1 27.06 27
  460.2 21.67 21
  460.5 11.15 11
  460.6 20.46 20
  460.7 27.18 27
  460.8 25.52 25
  460.9 17.75 17
  461.1 12.97 12
  461.2 20.6 20
  461.3 27.2 27
  461.4 25.47 25
  461.5 15.44 15
  461.7 4.06 4
  461.8 12.01 11
  461.9 21.55 21
  462.0 24.47 24
  462.1 19.2 19
  462.4 12.46 12
  462.5 20.46 20
  462.6 25.1 25
  462.7 22.98 22
  462.8 16.82 16
  463.0 14.02 14
  463.1 19.55 19
  463.2 23.91 23
  463.3 22.72 22
  463.4 16.05 16
  463.6 5.09 5
  463.7 9.59 9
  463.8 18.82 18
  463.9 25.38 25
  464.0 23.65 23
  464.1 15.72 15
  464.3 9.96 9
  464.4 16.07 16
  464.5 21.06 21
  464.6 19.99 19
  464.7 13.53 13
  464.9 6.51 6
  465.0 12.57 12
  465.1 20.57 20
  465.2 23.75 23
  465.3 19.83 19
  465.6 12.53 12
  465.7 18.99 18
  465.8 23.68 23
  465.9 22.46 22
  466.0 15.68 15
  466.2 6.23 6
  466.3 10.57 10
  466.4 17.14 17
  466.5 20.43 20
  466.6 18.31 18
  466.7 13.25 13
  467.5 7.81 7
  467.6 15.7 15
  467.7 22.23 22
  467.8 23.0 22
  467.9 17.56 17
  468.1 8.19 8
  468.2 12.83 12
  468.3 19.76 19
  468.4 21.79 21
  468.5 16.61 16
  468.8 8.02 8
  468.9 15.42 15
  469.0 21.04 21
  469.1 20.62 20
  469.4 13.41 13
  469.5 20.32 20
  469.6 26.27 26
  469.7 25.8 25
  469.8 18.59 18
  469.9 9.4 9
  470.1 8.09 8
  470.2 17.19 17
  470.3 24.68 24
  470.4 24.12 24
  470.5 15.61 15
  470.7 5.32 5
  470.8 13.62 13
  470.9 24.66 24
  471.0 28.88 28
  471.1 22.72 22
  471.2 11.8 11
  471.4 9.1 9
  471.5 17.82 17
  471.6 23.42 23
  471.7 21.23 21
  471.8 14.25 14
  472.0 11.62 11
  472.1 18.5 18
  472.2 23.77 23
  472.3 22.39 22
  472.4 15.23 15
  472.6 6.67 6
  472.7 12.46 12
  472.8 21.13 21
  472.9 25.75 25
  473.0 22.63 22
  473.1 14.81 14
  473.3 10.45 10
  473.4 16.14 16
  473.5 20.06 20
  473.6 17.7 17
  473.7 10.78 10
  473.9 7.25 7
  474.0 14.44 14
  474.1 21.32 21
  474.2 22.56 22
  474.3 17.66 17
  474.5 8.93 8
  474.6 12.76 12
  474.7 19.08 19
  474.8 21.97 21
  474.9 18.33 18
  475.2 9.8 9
  475.3 18.59 18
  475.4 25.33 25
  475.5 23.96 23
  475.6 15.54 15
  475.8 5.34 5
  475.9 11.03 11
  476.0 18.47 18
  476.1 20.85 20
  476.2 16.12 16
  476.4 7.93 7
  476.5 14.81 14
  476.6 24.66 24
  476.7 28.71 28
  476.8 23.14 23
  476.9 12.78 12
  477.1 9.24 9
  477.2 17.73 17
  477.3 24.89 24
  477.4 24.96 24
  477.5 17.59 17
  477.8 8.33 8
  477.9 17.21 17
  478.0 22.58 22
  478.1 19.76 19
  478.4 10.52 10
  478.5 19.2 19
  478.6 25.59 25
  478.7 24.66 24
  478.8 18.05 18
  479.0 10.01 9
  479.1 14.86 14
  479.2 21.3 21
  479.3 23.02 22
  479.4 18.5 18
  479.6 9.8 9
  479.7 13.6 13
  479.8 20.06 20
  479.9 22.84 22
  480.0 18.85 18
  480.3 11.78 11
  480.4 17.87 17
  480.5 20.83 20
  480.6 17.84 17
  480.7 10.68 10
  480.9 3.48 3
  481.0 9.87 9
  481.1 18.89 18
  481.2 23.33 23
  481.3 20.11 20
  481.6 12.53 12
  481.7 18.66 18
  481.8 22.44 22
  481.9 20.01 19
  482.0 12.32 12
  482.2 3.73 3
  482.3 9.94 9
  482.4 18.5 18
  482.5 22.35 22
  482.6 18.96 18
  483.5 10.4 10
  483.6 17.47 17
  483.7 22.95 22
  483.8 22.23 22
  483.9 16.17 16
  484.1 11.03 11
  484.2 17.73 17
  484.3 25.47 25
  484.4 27.48 27
  484.5 21.46 21
  484.6 11.78 11
  484.8 7.44 7
  484.9 14.84 14
  485.0 21.9 21
  485.1 23.07 23
  485.2 17.45 17
  485.4 8.79 8
  485.5 15.96 15
  485.6 25.75 25
  485.7 28.9 28
  485.8 22.04 22
  485.9 11.34 11
  486.1 9.91 9
  486.2 18.54 18
  486.3 24.26 24
  486.4 22.28 22
  486.5 14.6 14
  486.7 8.98 8
  486.8 16.05 16
  486.9 22.39 22
  487.0 22.44 22
  487.1 17.35 17
  487.3 13.69 13
  487.4 18.57 18
  487.5 23.12 23
  487.6 22.81 22
  487.7 16.89 16
  488.0 8.82 8
  488.1 16.59 16
  488.2 23.07 23
  488.3 22.86 22
  488.4 15.79 15
  488.6 6.3 6
  488.7 13.06 13
  488.8 22.18 22
  488.9 25.85 25
  489.0 21.55 21
  489.1 13.97 13
  489.3 12.18 12
  489.4 17.77 17
  489.5 21.02 20
  489.6 18.85 18
  489.8 11.85 11
  489.9 16.05 16
  490.0 23.61 23
  490.1 27.64 27
  490.2 23.12 23
  490.3 12.01 11
  490.5 0.47 0
  490.6 7.86 7
  490.7 18.5 18
  490.8 24.56 24
  490.9 21.86 21
  491.0 13.37 13
  491.2 7.63 7
  491.3 14.65 14
  491.4 20.99 20
  491.5 21.02 20
  491.6 14.77 14
  491.8 6.65 6
  491.9 12.5 12
  492.0 20.15 20
  492.1 22.98 22
  492.2 19.17 19
  493.1 11.17 11
  493.2 18.78 18
  493.3 25.15 25
  493.4 25.24 25
  493.5 18.78 18
  494.4 3.94 3
  494.5 14.7 14
  494.6 23.33 23
  494.7 23.51 23
  494.8 16.82 16
  495.0 10.66 10
  495.1 16.91 16
  495.2 23.26 23
  495.3 24.1 24
  495.4 18.75 18
  495.5 11.15 11
  495.7 9.42 9
  495.8 17.1 17
  495.9 23.33 23
  496.0 22.07 22
  496.1 14.21 14
  496.3 7.25 7
  496.4 13.69 13
  496.5 19.94 19
  496.6 20.43 20
  496.7 15.44 15
  496.9 9.24 9
  497.0 13.88 13
  497.1 20.29 20
  497.2 23.14 23
  497.3 19.5 19
  497.4 11.92 11
  497.6 8.58 8
  497.7 15.84 15
  497.8 21.76 21
  497.9 20.83 20
  498.0 13.88 13
  498.2 6.69 6
  498.3 13.27 13
  498.4 20.97 20
  498.5 22.84 22
  498.6 17.26 17
  498.8 6.02 6
  498.9 10.26 10
  499.0 19.24 19
  499.1 26.22 26
  499.2 25.82 25
  499.3 18.85 18
  499.5 11.01 10
  499.6 15.47 15
  499.7 19.52 19
  499.8 18.22 18
  499.9 12.22 12
  500.1 8.63 8
  500.2 16.07 16
  500.3 23.51 23
  500.4 25.17 25
  500.5 20.36 20
  500.8 13.27 13
  500.9 20.13 20
  501.0 25.01 24
  501.1 22.91 22
  501.2 14.79 14
  501.4 6.53 6
  501.5 13.69 13
  501.6 23.09 23
  501.7 26.9 26
  501.8 21.67 21
  501.9 12.13 12
  502.1 10.89 10
  502.2 19.62 19
  502.3 24.91 24
  502.4 22.07 22
  502.5 14.11 14
  502.7 11.03 11
  502.8 17.94 17
  502.9 22.58 22
  503.0 20.53 20
  503.1 13.37 13
  503.3 6.55 6
  503.4 12.67 12
  503.5 20.39 20
  503.6 23.23 23
  503.7 18.75 18
  504.0 10.22 10
  504.1 19.97 19
  504.2 28.22 28
  504.3 28.71 28
  504.4 21.65 21
  504.6 11.01 10
  504.7 15.89 15
  504.8 22.98 22
  504.9 24.82 24
  505.0 18.24 18
  505.2 3.76 3
  505.3 9.96 9
  505.4 22.14 22
  505.5 29.67 29
  505.6 26.13 26
  505.7 15.09 15
  505.9 6.04 6
  506.0 12.69 12
  506.1 19.5 19
  506.2 21.25 21
  506.3 17.84 17
  506.5 11.99 11
  506.6 15.65 15
  506.7 21.11 21
  506.8 22.98 22
  506.9 18.61 18
  507.0 10.59 10
  507.2 5.39 5
  507.3 12.18 12
  507.4 19.8 19
  507.5 22.37 22
  507.6 18.59 18
  508.4 1.07 1
  508.5 5.78 5
  508.6 16.03 16
  508.7 25.24 25
  508.8 27.41 27
  508.9 22.14 22
  509.0 15.09 15
  509.7 8.82 8
  509.8 14.3 14
  509.9 21.74 21
  510.0 23.68 23
  510.1 17.49 17
  510.4 8.63 8
  510.5 18.68 18
  510.6 26.29 26
  510.7 25.45 25
  510.8 17.14 17
  511.0 8.35 8
  511.1 15.93 15
  511.2 24.45 24
  511.3 26.2 26
  511.4 20.25 20
  511.7 12.5 12
  511.8 19.03 19
  511.9 22.7 22
  512.0 20.36 20
  512.1 13.83 13
  512.3 9.14 9
  512.4 15.54 15
  512.5 22.18 22
  512.6 23.09 23
  512.7 17.52 17
  512.9 9.24 9
  513.0 13.95 13
  513.1 20.62 20
  513.2 23.47 23
  513.3 20.27 20
  513.4 13.95 13
  513.6 11.17 11
  513.7 16.33 16
  513.8 20.11 20
  513.9 18.96 18
  514.2 13.32 13
  514.3 18.22 18
  514.4 22.32 22
  514.5 22.35 22
  514.6 17.84 17
  514.9 11.48 11
  515.0 19.24 19
  515.1 25.75 25
  515.2 26.01 25
  515.3 20.81 20
  515.5 14.65 14
  515.6 18.12 18
  515.7 21.97 21
  515.8 22.02 21
  515.9 17.49 17
  516.1 13.69 13
  516.2 20.29 20
  516.3 26.48 26
  516.4 26.13 26
  516.5 19.62 19
  516.6 12.57 12
  516.8 12.6 12
  516.9 17.42 17
  517.0 20.34 20
  517.1 18.73 18
  517.2 13.41 13
  517.4 9.52 9
  517.5 16.05 16
  517.6 23.16 23
  517.7 24.66 24
  517.8 19.2 19
  518.0 9.19 9
  518.1 14.35 14
  518.2 22.49 22
  518.3 26.1 26
  518.4 22.14 22
  518.5 14.32 14
  518.7 9.8 9
  518.8 15.44 15
  518.9 21.6 21
  519.0 23.47 23
  519.1 19.06 19
  519.2 11.45 11
  519.4 9.8 9
  519.5 17.38 17
  519.6 22.3 22
  519.7 19.78 19
  520.0 11.71 11
  520.1 18.52 18
  520.2 22.35 22
  520.3 19.87 19
  520.4 13.11 13
  520.6 8.26 8
  520.7 15.54 15
  520.8 23.86 23
  520.9 25.96 25
  521.0 19.73 19
  521.1 10.36 10
  521.3 8.96 8
  521.4 16.38 16
  521.5 20.71 20
  521.6 18.19 18
  521.9 11.48 11
  522.0 18.01 17
  522.1 21.86 21
  522.2 19.31 19
  522.3 12.32 12
  522.5 6.46 6
  522.6 12.57 12
  522.7 20.71 20
  522.8 24.66 24
  522.9 21.02 20
  523.2 11.9 11
  523.3 20.95 20
  523.4 27.13 27
  523.5 25.15 25
  523.6 16.98 16
  523.8 6.97 6
  523.9 11.66 11
  524.0 18.45 18
  524.1 20.76 20
  524.2 17.12 17
  524.4 12.04 12
  524.5 16.31 16
  524.6 21.39 21
  524.7 22.63 22
  524.8 17.8 17
  525.1 8.09 8
  525.2 17.33 17
  525.3 25.26 25
  525.4 25.29 25
  525.5 16.96 16
  525.7 3.45 3
  525.8 10.01 9
  525.9 20.9 20
  526.0 27.15 27
  526.1 24.84 24
  526.2 17.45 17
  526.4 10.66 10
  526.5 14.32 14
  526.6 18.54 18
  526.7 19.22 19
  526.8 15.42 15
  527.0 9.61 9
  527.1 14.56 14
  527.2 21.44 21
  527.3 23.7 23
  527.4 18.66 18
  527.7 11.31 11
  527.8 19.99 19
  527.9 25.96 25
  528.0 24.21 24
  528.1 15.84 15
  528.3 6.6 6
  528.4 13.65 13
  528.5 22.46 22
  528.6 25.31 25
  528.7 20.01 19
  529.0 12.2 12
  529.1 19.97 19
  529.2 24.7 24
  529.3 21.86 21
  529.4 13.46 13
  529.6 7.46 7
  529.7 14.09 14
  529.8 19.36 19
  529.9 18.33 18
  530.2 13.32 13
  530.3 19.03 19
  530.4 23.05 23
  530.5 21.93 21
  530.6 15.79 15
  530.9 9.33 9
  531.0 16.77 16
  531.1 21.62 21
  531.2 19.92 19
  531.3 13.76 13
  531.5 11.36 11
  531.6 18.54 18
  531.7 25.03 25
  531.8 25.38 25
  531.9 19.17 19
  532.1 8.7 8
  532.2 13.58 13
  532.3 22.18 22
  532.4 26.97 26
  532.5 23.02 22
  532.6 13.02 13
  532.8 6.74 6
  532.9 15.63 15
  533.0 23.37 23
  533.1 22.81 22
  533.2 14.79 14
  533.5 8.14 8
  533.6 15.42 15
  533.7 19.38 19
  533.8 17.21 17
  534.0 10.05 10
  534.1 14.07 14
  534.2 20.83 20
  534.3 24.14 24
  534.4 20.99 20
  534.5 13.76 13
  534.7 8.42 8
  534.8 14.67 14
  534.9 21.48 21
  535.0 22.02 21
  535.1 14.79 14
  535.3 5.6 5
  535.4 13.69 13
  535.5 23.16 23
  535.6 25.05 25
  535.7 17.63 17
  535.8 7.32 7
  536.0 4.85 4
  536.1 12.67 12
  536.2 19.8 19
  536.3 21.46 21
  536.4 16.47 16
  536.6 6.32 6
  536.7 12.43 12
  536.8 22.53 22
  536.9 27.18 27
  537.0 21.69 21
  537.1 11.01 10
  537.3 7.23 7
  537.4 17.0 16
  537.5 25.1 25
  537.6 24.21 24
  537.7 15.26 15
  537.9 7.35 7
  538.0 15.54 15
  538.1 23.51 23
  538.2 24.31 24
  538.3 18.4 18
  538.5 11.94 11
  538.6 17.05 17
  538.7 22.18 22
  538.8 22.21 22
  538.9 16.7 16
  539.1 7.65 7
  539.2 11.38 11
  539.3 18.33 18
  539.4 22.56 22
  539.5 19.78 19
  539.6 11.27 11
  539.8 3.03 3
  539.9 10.8 10
  540.0 20.62 20
  540.1 24.66 24
  540.2 20.04 20
  540.3 11.76 11
  540.5 10.92 10
  540.6 17.42 17
  540.7 20.5 20
  540.8 17.0 16
  541.1 8.68 8
  541.2 17.61 17
  541.3 24.52 24
  541.4 23.16 23
  541.5 15.21 15
  541.7 9.28 9
  541.8 16.45 16
  541.9 23.7 23
  542.0 25.15 25
  542.1 19.52 19
  542.2 11.01 10
  542.4 7.7 7
  542.5 14.35 14
  542.6 19.5 19
  542.7 18.61 18
  542.8 12.76 12
  543.0 7.93 7
  543.1 14.65 14
  543.2 22.25 22
  543.3 23.98 23
  543.4 18.24 18
  543.6 8.77 8
  543.7 13.79 13
  543.8 20.36 20
  543.9 21.83 21
  544.0 16.89 16
  544.3 10.22 10
  544.4 18.36 18
  544.5 25.19 25
  544.6 24.47 24
  544.7 15.35 15
  544.9 1.66 1
  545.0 8.23 8
  545.1 18.24 18
  545.2 23.37 23
  545.3 21.02 20
  545.4 14.93 14
  545.6 12.41 12
  545.7 18.17 18
  545.8 22.81 22
  545.9 21.27 21
  546.0 14.25 14
  546.2 8.42 8
  546.3 15.05 15
  546.4 21.76 21
  546.5 22.21 22
  546.6 15.65 15
  546.8 6.18 6
  546.9 12.06 12
  547.0 20.25 20
  547.1 23.33 23
  547.2 18.8 18
  547.5 10.89 10
  547.6 18.82 18
  547.7 25.19 25
  547.8 25.26 25
  547.9 19.38 19
  548.8 8.26 8
  548.9 16.7 16
  549.0 22.49 22
  549.1 20.06 20
  549.2 11.59 11
  549.4 5.48 5
  549.5 12.41 12
  549.6 19.48 19
  549.7 20.57 20
  549.8 14.37 14
  550.0 5.34 5
  550.1 12.64 12
  550.2 22.16 22
  550.3 25.36 25
  550.4 19.08 19
  550.5 7.81 7
  550.7 3.22 3
  550.8 14.0 13
  550.9 23.56 23
  551.0 24.52 24
  551.1 17.77 17
  551.3 8.14 8
  551.4 12.95 12
  551.5 20.55 20
  551.6 24.45 24
  551.7 20.88 20
  551.8 12.55 12
  552.0 8.42 8
  552.1 16.33 16
  552.2 22.84 22
  552.3 21.9 21
  552.4 14.37 14
  552.6 5.81 5
  552.7 12.41 12
  552.8 21.23 21
  552.9 24.47 24
  553.0 19.34 19
  553.2 8.35 8
  553.3 14.32 14
  553.4 23.72 23
  553.5 27.83 27
  553.6 22.6 22
  553.7 12.08 12
  553.9 6.53 6
  554.0 15.63 15
  554.1 24.45 24
  554.2 26.29 26
  554.3 21.04 21
  555.2 11.27 11
  555.3 15.63 15
  555.4 19.34 19
  555.5 18.52 18
  555.6 13.34 13
  555.8 7.7 7
  555.9 13.25 13
  556.0 20.25 20
  556.1 22.46 22
  556.2 17.73 17
  556.4 8.26 8
  556.5 13.11 13
  556.6 21.72 21
  556.7 26.8 26
  556.8 23.44 23
  556.9 13.86 13
  557.1 7.44 7
  557.2 16.47 16
  557.3 25.5 25
  557.4 27.11 27
  557.5 20.62 20
  557.8 12.08 12
  557.9 19.41 19
  558.0 23.58 23
  558.1 20.76 20
  558.2 13.27 13
  558.4 9.49 9
  558.5 16.79 16
  558.6 22.93 22
  558.7 21.74 21
  558.8 13.95 13
  559.0 7.32 7
  559.1 15.4 15
  559.2 23.75 23
  559.3 25.5 25
  559.4 20.41 20
  559.7 13.83 13
  559.8 20.76 20
  559.9 26.5 26
  560.0 25.19 25
  560.1 16.35 16
  560.3 5.83 5
  560.4 13.41 13
  560.5 22.11 22
  560.6 23.91 23
  560.7 17.91 17
  561.0 10.94 10
  561.1 18.47 18
  561.2 23.12 23
  561.3 20.57 20
  561.4 12.78 12
  561.6 7.86 7
  561.7 14.7 14
  561.8 20.71 20
  561.9 20.67 20
  562.0 15.28 15
  562.2 11.13 11
  562.3 17.61 17
  562.4 24.63 24
  562.5 26.48 26
  562.6 21.3 21
  562.7 13.09 13
  562.9 10.8 10
  563.0 17.8 17
  563.1 22.56 22
  563.2 20.08 20
  563.3 12.13 12
  563.5 7.77 7
  563.6 17.03 17
  563.7 25.92 25
  563.8 26.57 26
  563.9 18.59 18
  564.1 6.51 6
  564.2 12.41 12
  564.3 21.69 21
  564.4 26.36 26
  564.5 22.63 22
  564.6 14.04 14
  564.8 8.96 8
  564.9 14.74 14
  565.0 19.55 19
  565.1 18.94 18
  565.2 13.55 13
  565.4 7.93 7
  565.5 13.3 13
  565.6 20.15 20
  565.7 22.56 22
  565.8 18.38 18
  566.1 11.08 11
  566.2 18.36 18
  566.3 23.0 22
  566.4 20.36 20
  566.5 12.48 12
  566.7 9.33 9
  566.8 19.2 19
  566.9 28.11 28
  567.0 27.85 27
  567.1 18.05 18
  567.3 4.5 4
  567.4 12.64 12
  567.5 23.84 23
  567.6 28.29 28
  567.7 23.07 23
  567.8 14.14 14
  568.0 11.83 11
  568.1 18.05 18
  568.2 22.7 22
  568.3 21.72 21
  568.4 15.54 15
  568.6 8.91 8
  568.7 14.81 14
  568.8 21.65 21
  568.9 23.0 22
  569.0 17.66 17
  569.2 9.05 9
  569.3 14.21 14
  569.4 22.21 22
  569.5 26.62 26
  569.6 24.03 24
  569.7 17.42 17
  569.9 15.05 15
  570.0 20.29 20
  570.1 23.98 23
  570.2 23.19 23
  570.3 18.78 18
  570.5 12.67 12
  570.6 15.91 15
  570.7 21.51 21
  570.8 24.66 24
  570.9 21.88 21
  571.0 14.65 14
  571.2 10.15 10
  571.3 16.82 16
  571.4 22.95 22
  571.5 23.56 23
  571.6 18.82 18
  572.4 3.87 3
  572.5 8.37 8
  572.6 18.01 17
  572.7 25.47 25
  572.8 24.73 24
  572.9 16.82 16
  573.1 8.61 8
  573.2 14.32 14
  573.3 20.29 20
  573.4 21.27 21
  573.5 17.47 17
  573.7 12.29 12
  573.8 15.72 15
  573.9 20.36 20
  574.0 21.79 21
  574.1 18.15 18
  574.2 11.92 11
  574.4 9.68 9
  574.5 16.03 16
  574.6 22.14 22
  574.7 22.65 22
  574.8 16.77 16
  575.0 9.1 9
  575.1 15.33 15
  575.2 22.6 22
  575.3 23.7 23
  575.4 17.24 17
  575.6 6.13 6
  575.7 11.73 11
  575.8 21.04 21
  575.9 25.87 25
  576.0 21.9 21
  576.1 12.36 12
  576.3 5.09 5
  576.4 11.78 11
  576.5 19.36 19
  576.6 21.81 21
  576.7 17.26 17
  576.8 9.54 9
  577.0 6.9 6
  577.1 13.39 13
  577.2 19.27 19
  577.3 20.57 20
  577.6 15.23 15
  577.7 20.34 20
  577.8 24.05 24
  577.9 21.13 21
  578.0 12.97 12
  578.2 8.56 8
  578.3 17.14 17
  578.4 25.08 25
  578.5 25.45 25
  578.6 18.15 18
  578.8 6.79 6
  578.9 12.06 12
  579.0 20.71 20
  579.1 25.22 25
  579.2 21.55 21
  579.3 12.71 12
  579.5 5.27 5
  579.6 10.82 10
  579.7 17.4 17
  579.8 20.13 20
  579.9 17.91 17
  580.2 13.6 13
  580.3 18.17 18
  580.4 20.92 20
  580.5 18.85 18
  580.6 13.06 13
  580.8 10.52 10
  580.9 17.82 17
  581.0 24.47 24
  581.1 24.63 24
  581.2 18.29 18
  581.4 8.61 8
  581.5 13.34 13
  581.6 20.95 20
  581.7 24.24 24
  581.8 19.71 19
  582.1 10.24 10
  582.2 19.08 19
  582.3 25.64 25
  582.4 24.84 24
  582.5 18.47 18
  582.7 13.18 13
  582.8 17.63 17
  582.9 21.39 21
  583.0 20.41 20
  583.1 14.63 14
  583.3 6.6 6
  583.4 12.5 12
  583.5 21.83 21
  583.6 26.62 26
  583.7 22.67 22
  583.8 14.09 14
  584.0 11.17 11
  584.1 18.05 18
  584.2 22.88 22
  584.3 21.39 21
  584.4 14.95 14
  584.6 8.23 8
  584.7 14.32 14
  584.8 22.46 22
  584.9 25.57 25
  585.0 21.04 21
  585.8 15.65 15
  585.9 18.89 18
  586.0 24.45 24
  586.1 26.1 26
  586.2 20.32 20
  586.3 9.73 9
  586.5 0.91 0
  586.6 8.26 8
  586.7 17.89 17
  586.8 23.4 23
  586.9 22.07 22
  587.0 16.28 16
  587.2 10.78 10
  587.3 14.7 14
  587.4 18.47 18
  587.5 17.89 17
  587.6 13.46 13
  587.8 10.8 10
  587.9 16.66 16
  588.0 22.77 22
  588.1 23.63 23
  588.2 17.94 17
  588.5 9.98 9
  588.6 17.47 17
  588.7 22.84 22
  588.8 21.86 21
  588.9 15.89 15
  589.1 11.45 11
  589.2 16.77 16
  589.3 21.13 21
  589.4 19.8 19
  589.5 13.06 13
  589.7 4.18 4
  589.8 9.21 9
  589.9 17.63 17
  590.0 23.14 23
  590.1 21.3 21
  590.2 13.53 13
  590.4 7.46 7
  590.5 14.74 14
  590.6 20.88 20
  590.7 19.2 19
  590.8 11.01 10
  591.0 4.97 4
  591.1 12.57 12
  591.2 20.64 20
  591.3 23.12 23
  591.4 18.73 18
  591.7 10.61 10
  591.8 18.38 18
  591.9 23.82 23
  592.0 21.9 21
  592.1 14.44 14
  592.3 7.7 7
  592.4 12.83 12
  592.5 18.1 18
  592.6 18.29 18
  592.7 12.99 12
  592.9 8.56 8
  593.0 16.28 16
  593.1 25.31 25
  593.2 29.13 29
  593.3 25.75 25
  593.4 18.61 18
  593.6 13.95 13
  593.7 19.31 19
  593.8 24.1 24
  593.9 23.0 22
  594.0 16.1 16
  594.2 9.05 9
  594.3 15.56 15
  594.4 22.81 22
  594.5 24.19 24
  594.6 18.78 18
  594.9 12.34 12
  595.0 18.57 18
  595.1 22.32 22
  595.2 20.2 20
  595.3 14.0 13
  595.5 10.52 10
  595.6 16.4 16
  595.7 21.23 21
  595.8 20.25 20
  595.9 13.83 13
  596.1 6.23 6
  596.2 11.78 11
  596.3 19.64 19
  596.4 23.68 23
  596.5 20.85 20
  596.6 13.72 13
  596.8 10.1 10
  596.9 17.19 17
  597.0 23.4 23
  597.1 22.77 22
  597.2 15.47 15
  597.4 7.72 7
  597.5 14.44 14
  597.6 21.81 21
  597.7 23.47 23
  597.8 18.89 18
  598.0 11.17 11
  598.1 14.74 14
  598.2 20.46 20
  598.3 23.33 23
  598.4 20.22 20
  598.5 12.74 12
  598.7 6.41 6
  598.8 13.79 13
  598.9 22.88 22
  599.0 25.99 25
  599.1 20.41 20
  599.4 10.31 10
  599.5 19.01 18
  599.6 24.63 24
//
