ACCESSION: MSBNK-RIKEN_NPDepo-NGA00476
RECORD_TITLE: Lagochilin; LC-ESI-QQQ; MS2; Frag=135.0V CID@5.0; [M+Na]+
DATE: 2018.04.04
AUTHORS: Nogawa T, Okano A, CSRS, RIKEN
LICENSE: CC BY
COMMENT: Origin: Plant
COMMENT: SubCategory_DNP: Diterpenoids, Lagochilin diterpenoids
CH$NAME: Lagochilin
CH$COMPOUND_CLASS: Terpenoids
CH$FORMULA: C20H38O6
CH$EXACT_MASS: 374.5223
CH$SMILES: C[C@@H]1CCC2[C@](C)(CC[C@H](O)[C@@]2(C)CO)[C@@]12CCC(CO)(CCO)O2.O
CH$IUPAC: InChI=1S/C20H36O5.H2O/c1-14-4-5-15-17(2,12-22)16(24)6-7-18(15,3)20(14)9-8-19(13-23,25-20)10-11-21;/h14-16,21-24H,4-13H2,1-3H3;1H2/t14-,15?,16+,17+,18+,19?,20-;/m1./s1
CH$LINK: CAS 23554-81-6
CH$LINK: CHEMSPIDER 5140873
CH$LINK: INCHIKEY FMNYIIOAJSNXSS-ZLEPDKQGSA-N
AC$INSTRUMENT: Agilent 6410 Triple Quadrupole LC/MS system
AC$INSTRUMENT_TYPE: LC-ESI-QQQ
AC$MASS_SPECTROMETRY: MS_TYPE MS2
AC$MASS_SPECTROMETRY: ION_MODE POSITIVE
MS$FOCUSED_ION: PRECURSOR_TYPE [M+Na]+
PK$SPLASH: splash10-004i-0009000000-50527c9e738a3396db04
PK$NUM_PEAK: 16
PK$PEAK: m/z int. rel.int.
  378.3 1.19 1
  378.4 3.46 3
  378.5 5.92 5
  378.6 7.67 7
  378.7 10.88 10
  378.8 20.73 20
  378.9 39.93 39
  379.0 64.11 64
  379.1 85.07 84
  379.2 97.51 97
  379.3 100.0 99
  379.4 90.92 90
  379.5 68.99 68
  379.6 39.06 39
  379.7 12.46 12
  379.8 0.0 0
//
