ACCESSION: MSBNK-RIKEN_NPDepo-NGA03855
RECORD_TITLE: Deltaline; LC-ESI-QQQ; MS2; Frag=135.0V CID@15.0; [M+HCOO]-
DATE: 2018.04.04
AUTHORS: Nogawa T, Okano A, CSRS, RIKEN
LICENSE: CC BY
COMMENT: Origin: Plant
COMMENT: SubCategory_DNP: Terpenoid alkaloids, Diterpene alkaloid, Delphinium alkaloid
CH$NAME: Deltaline
CH$COMPOUND_CLASS: Alkaloids
CH$FORMULA: C27H41NO8
CH$EXACT_MASS: 507.6297
CH$SMILES: CCN1C[C@]2(C)CCC(OC)C34C2[C@H](OC(C)=O)C2(OCO[C@@]25C[C@H](OC)[C@H]2C[C@]3(O)C5[C@H]2OC)[C@@H]14
CH$IUPAC: InChI=1S/C27H41NO8/c1-7-28-12-23(3)9-8-17(32-5)26-20(23)21(36-14(2)29)27(22(26)28)25(34-13-35-27)11-16(31-4)15-10-24(26,30)19(25)18(15)33-6/h15-22,30H,7-13H2,1-6H3/t15-,16+,17?,18+,19?,20?,21+,22+,23+,24+,25-,26?,27?/m1/s1
CH$LINK: CAS 6836-11-9
CH$LINK: CHEMSPIDER 145078 390331 4475551 23219130
CH$LINK: INCHIKEY DTTPWCNKTMQMTE-ZRAURUGBSA-N
AC$INSTRUMENT: Agilent 6410 Triple Quadrupole LC/MS system
AC$INSTRUMENT_TYPE: LC-ESI-QQQ
AC$MASS_SPECTROMETRY: MS_TYPE MS2
AC$MASS_SPECTROMETRY: ION_MODE NEGATIVE
MS$FOCUSED_ION: PRECURSOR_TYPE [M+HCOO]-
PK$SPLASH: splash10-006x-4898880000-92fb7301141b515d6348
PK$NUM_PEAK: 4322
PK$PEAK: m/z int. rel.int.
  50.7 13.57 13
  50.8 19.69 19
  50.9 25.6 25
  51.0 26.44 26
  51.1 21.42 21
  51.3 12.47 12
  51.4 16.91 16
  51.5 23.87 23
  51.6 26.54 26
  51.7 22.4 22
  51.8 15.35 15
  52.0 11.59 11
  52.1 16.33 16
  52.2 21.47 21
  52.3 22.92 22
  52.4 19.41 19
  52.6 14.58 14
  52.7 20.21 20
  52.8 26.26 26
  52.9 25.72 25
  53.0 17.5 17
  53.2 5.49 5
  53.3 12.01 11
  53.4 22.03 22
  53.5 27.33 27
  53.6 23.73 23
  53.7 14.41 14
  53.9 7.54 7
  54.0 15.14 15
  54.1 23.22 23
  54.2 25.06 25
  54.3 19.5 19
  54.5 9.06 9
  54.6 14.34 14
  54.7 23.03 23
  54.8 26.72 26
  54.9 21.28 21
  55.0 11.4 11
  55.2 9.74 9
  55.3 19.2 19
  55.4 26.07 26
  55.5 25.06 25
  55.6 17.87 17
  56.4 10.18 10
  56.5 14.04 14
  56.6 20.3 20
  56.7 24.32 24
  56.8 22.24 22
  56.9 15.32 15
  57.1 11.1 11
  57.2 18.62 18
  57.3 25.3 25
  57.4 24.62 24
  57.5 16.91 16
  57.7 7.17 7
  57.8 12.64 12
  57.9 21.12 21
  58.0 26.26 26
  58.1 23.73 23
  58.2 15.02 15
  58.4 7.99 7
  58.5 15.91 15
  58.6 23.83 23
  58.7 25.23 25
  58.8 20.14 20
  59.0 12.45 12
  59.1 17.01 16
  59.2 23.27 23
  59.3 25.06 25
  59.4 20.51 20
  59.7 13.17 13
  59.8 20.44 20
  59.9 25.2 25
  60.0 22.26 22
  60.1 13.95 13
  60.3 11.24 11
  60.4 20.09 20
  60.5 27.19 27
  60.6 26.7 26
  60.7 19.06 19
  61.0 11.19 11
  61.1 19.13 19
  61.2 23.71 23
  61.3 21.21 21
  61.4 14.37 14
  61.6 11.63 11
  61.7 18.01 17
  61.8 23.17 23
  61.9 22.26 22
  62.0 15.81 15
  62.2 10.53 10
  62.3 16.73 16
  62.4 22.49 22
  62.5 22.96 22
  62.6 18.43 18
  62.8 10.72 10
  62.9 14.39 14
  63.0 21.68 21
  63.1 26.58 26
  63.2 24.2 24
  63.3 16.37 16
  63.5 10.72 10
  63.6 17.17 17
  63.7 23.69 23
  63.8 25.04 25
  63.9 20.16 20
  64.7 13.41 13
  64.8 16.65 16
  64.9 22.38 22
  65.0 26.07 26
  65.1 24.74 24
  65.2 18.73 18
  65.4 11.14 11
  65.5 15.93 15
  65.6 22.28 22
  65.7 24.27 24
  65.8 20.25 20
  66.0 11.68 11
  66.1 15.63 15
  66.2 22.73 22
  66.3 26.56 26
  66.4 23.08 23
  66.5 14.55 14
  66.7 7.94 7
  66.8 15.02 15
  66.9 22.35 22
  67.0 23.06 23
  67.1 16.65 16
  67.3 10.16 10
  67.4 17.26 17
  67.5 24.88 24
  67.6 26.23 26
  67.7 20.23 20
  67.8 12.01 11
  68.0 11.17 11
  68.1 17.92 17
  68.2 22.49 22
  68.3 21.51 21
  68.4 16.3 16
  68.6 10.65 10
  68.7 15.11 15
  68.8 21.72 21
  68.9 25.37 25
  69.0 22.7 22
  69.1 15.95 15
  69.3 14.09 14
  69.4 20.86 20
  69.5 25.04 25
  69.6 21.7 21
  69.7 12.99 12
  69.9 8.34 8
  70.0 16.87 16
  70.1 24.36 24
  70.2 24.5 24
  70.3 18.06 18
  70.5 11.19 11
  70.6 15.91 15
  70.7 20.7 20
  70.8 21.26 21
  70.9 17.57 17
  71.2 12.64 12
  71.3 16.63 16
  71.4 19.97 19
  71.5 19.86 19
  71.6 16.19 16
  71.8 12.36 12
  71.9 17.15 17
  72.0 22.19 22
  72.1 22.59 22
  72.2 17.75 17
  72.5 12.08 12
  72.6 18.15 18
  72.7 22.38 22
  72.8 20.37 20
  72.9 13.06 13
  73.1 9.32 9
  73.2 18.66 18
  73.3 27.4 27
  73.4 28.5 28
  73.5 22.1 22
  74.4 13.38 13
  74.5 19.88 19
  74.6 24.9 24
  74.7 24.08 24
  74.8 17.29 17
  75.0 8.5 8
  75.1 14.76 14
  75.2 22.82 22
  75.3 24.83 24
  75.4 18.99 18
  75.6 8.95 8
  75.7 14.34 14
  75.8 22.54 22
  75.9 26.61 26
  76.0 22.99 22
  76.1 14.11 14
  76.3 7.71 7
  76.4 15.84 15
  76.5 24.76 24
  76.6 27.12 27
  76.7 21.51 21
  76.9 11.7 11
  77.0 16.42 16
  77.1 22.66 22
  77.2 24.08 24
  77.3 19.34 19
  77.6 11.7 11
  77.7 18.78 18
  77.8 24.53 24
  77.9 24.08 24
  78.0 17.45 17
  78.2 8.06 8
  78.3 13.97 13
  78.4 23.06 23
  78.5 27.66 27
  78.6 24.27 24
  78.7 16.54 16
  78.9 12.5 12
  79.0 17.92 17
  79.1 22.7 22
  79.2 23.17 23
  79.3 19.13 19
  79.5 12.61 12
  79.6 16.49 16
  79.7 22.26 22
  79.8 23.66 23
  79.9 18.1 18
  80.2 10.98 10
  80.3 18.13 18
  80.4 22.78 22
  80.5 21.47 21
  80.6 15.3 15
  80.8 8.76 8
  80.9 14.79 14
  81.0 21.58 21
  81.1 22.49 22
  81.2 16.89 16
  81.4 10.56 10
  81.5 16.42 16
  81.6 23.06 23
  81.7 24.62 24
  81.8 19.95 19
  82.0 11.03 11
  82.1 15.32 15
  82.2 23.06 23
  82.3 27.66 27
  82.4 25.06 25
  82.5 17.15 17
  82.7 11.26 11
  82.8 18.66 18
  82.9 26.26 26
  83.0 27.33 27
  83.1 21.05 21
  83.4 13.06 13
  83.5 20.84 20
  83.6 25.32 25
  83.7 22.49 22
  83.8 15.11 15
  84.0 11.47 11
  84.1 18.43 18
  84.2 24.99 24
  84.3 25.77 25
  84.4 20.51 20
  84.6 11.98 11
  84.7 16.09 16
  84.8 22.82 22
  84.9 26.05 26
  85.0 21.98 21
  85.1 13.2 13
  85.3 8.69 8
  85.4 16.16 16
  85.5 21.47 21
  85.6 19.22 19
  85.7 11.98 11
  85.9 7.62 7
  86.0 14.51 14
  86.1 22.19 22
  86.2 24.85 24
  86.3 20.84 20
  86.5 12.59 12
  86.6 17.24 17
  86.7 24.46 24
  86.8 27.56 27
  86.9 23.27 23
  87.0 14.81 14
  87.2 10.37 10
  87.3 17.38 17
  87.4 23.38 23
  87.5 22.75 22
  87.6 16.3 16
  87.8 10.98 10
  87.9 17.94 17
  88.0 25.23 25
  88.1 26.82 26
  88.2 21.96 21
  88.5 15.67 15
  88.6 21.86 21
  88.7 25.39 25
  88.8 22.92 22
  88.9 16.54 16
  89.1 13.41 13
  89.2 20.02 19
  89.3 26.47 26
  89.4 27.14 27
  89.5 20.79 20
  89.7 9.27 9
  89.8 14.41 14
  89.9 22.78 22
  90.0 26.4 26
  90.1 22.47 22
  90.4 15.32 15
  90.5 20.93 20
  90.6 23.73 23
  90.7 21.58 21
  90.8 16.4 16
  91.0 13.13 13
  91.1 18.59 18
  91.2 24.41 24
  91.3 25.09 25
  91.4 19.55 19
  91.7 13.1 13
  91.8 20.21 20
  91.9 24.83 24
  92.0 22.96 22
  92.1 16.51 16
  92.3 13.92 13
  92.4 20.86 20
  92.5 26.26 26
  92.6 25.58 25
  92.7 19.86 19
  92.9 12.66 12
  93.0 16.58 16
  93.1 22.24 22
  93.2 23.9 23
  93.3 18.83 18
  93.5 6.45 6
  93.6 11.0 10
  93.7 21.47 21
  93.8 30.04 30
  93.9 30.9 30
  94.0 24.13 24
  94.1 15.25 15
  94.3 13.27 13
  94.4 19.6 19
  94.5 22.92 22
  94.6 19.32 19
  94.7 11.63 11
  94.9 9.46 9
  95.0 17.87 17
  95.1 25.32 25
  95.2 25.39 25
  95.3 17.87 17
  95.5 9.93 9
  95.6 18.03 18
  95.7 25.72 25
  95.8 24.6 24
  95.9 15.58 15
  96.1 6.56 6
  96.2 13.34 13
  96.3 21.7 21
  96.4 25.41 25
  96.5 22.4 22
  97.4 8.88 8
  97.5 17.19 17
  97.6 26.02 25
  97.7 28.31 28
  97.8 22.54 22
  98.1 13.43 13
  98.2 21.61 21
  98.3 26.23 26
  98.4 22.87 22
  98.7 14.13 14
  98.8 23.2 23
  98.9 29.41 29
  99.0 27.07 27
  99.1 18.15 18
  99.3 8.64 8
  99.4 14.39 14
  99.5 21.72 21
  99.6 24.34 24
  99.7 19.95 19
  99.8 12.1 12
  100.0 9.88 9
  100.1 17.47 17
  100.2 23.73 23
  100.3 23.31 23
  100.4 16.89 16
  100.6 11.21 11
  100.7 18.06 18
  100.8 24.97 24
  100.9 25.32 25
  101.0 18.41 18
  101.2 7.26 7
  101.3 12.66 12
  101.4 21.02 20
  101.5 24.57 24
  101.6 20.42 20
  101.7 12.8 12
  101.9 10.51 10
  102.0 17.5 17
  102.1 23.94 23
  102.2 24.74 24
  102.3 19.29 19
  102.5 11.17 11
  102.6 16.89 16
  102.7 24.6 24
  102.8 26.77 26
  102.9 20.88 20
  103.2 12.82 12
  103.3 19.72 19
  103.4 23.64 23
  103.5 22.38 22
  103.6 18.27 18
  103.8 16.37 16
  103.9 20.58 20
  104.0 24.36 24
  104.1 23.52 23
  104.2 17.26 17
  104.4 8.74 8
  104.5 15.0 14
  104.6 23.83 23
  104.7 27.84 27
  104.8 24.22 24
  104.9 17.12 17
  105.1 15.42 15
  105.2 21.02 20
  105.3 24.88 24
  105.4 23.36 23
  105.5 16.89 16
  105.7 8.46 8
  105.8 14.41 14
  105.9 23.27 23
  106.0 27.4 27
  106.1 23.43 23
  106.2 15.53 15
  106.4 13.43 13
  106.5 19.6 19
  106.6 23.62 23
  106.7 22.1 22
  106.8 16.51 16
  107.0 12.89 12
  107.1 19.18 19
  107.2 25.37 25
  107.3 25.58 25
  107.4 19.15 19
  107.6 9.37 9
  107.7 15.07 15
  107.8 24.08 24
  107.9 28.75 28
  108.0 25.04 25
  108.1 16.07 16
  108.3 9.2 9
  108.4 15.0 14
  108.5 21.07 21
  108.6 22.7 22
  108.7 19.48 19
  108.9 14.2 14
  109.0 17.29 17
  109.1 21.61 21
  109.2 22.92 22
  109.3 18.92 18
  109.6 10.42 10
  109.7 19.69 19
  109.8 27.82 27
  109.9 27.84 27
  110.0 19.74 19
  110.2 9.32 9
  110.3 16.75 16
  110.4 25.44 25
  110.5 26.33 26
  110.6 18.34 18
  110.8 6.94 6
  110.9 13.5 13
  111.0 22.61 22
  111.1 26.44 26
  111.2 22.1 22
  111.3 13.62 13
  111.5 10.91 10
  111.6 19.39 19
  111.7 26.65 26
  111.8 26.58 26
  111.9 19.01 18
  112.2 11.82 11
  112.3 19.64 19
  112.4 23.64 23
  112.5 20.93 20
  112.6 14.6 14
  112.8 12.26 12
  112.9 18.1 18
  113.0 22.8 22
  113.1 22.21 22
  113.2 16.91 16
  113.4 10.7 10
  113.5 15.07 15
  113.6 20.86 20
  113.7 22.99 22
  113.8 19.48 19
  114.0 11.47 11
  114.1 15.58 15
  114.2 22.52 22
  114.3 25.6 25
  114.4 21.93 21
  114.5 14.83 14
  114.7 11.24 11
  114.8 16.42 16
  114.9 21.07 21
  115.0 20.77 20
  115.1 15.72 15
  115.3 10.35 10
  115.4 14.76 14
  115.5 19.88 19
  115.6 21.56 21
  115.7 18.71 18
  116.0 12.45 12
  116.1 18.97 18
  116.2 24.85 24
  116.3 25.11 25
  116.4 19.29 19
  116.6 10.77 10
  116.7 15.65 15
  116.8 22.21 22
  116.9 23.8 23
  117.0 18.55 18
  117.2 8.78 8
  117.3 13.97 13
  117.4 22.99 22
  117.5 28.5 28
  117.6 25.86 25
  117.7 17.38 17
  117.9 10.53 10
  118.0 17.08 17
  118.1 23.97 23
  118.2 25.11 25
  118.3 19.57 19
  118.5 10.0 9
  118.6 15.3 15
  118.7 23.73 23
  118.8 27.66 27
  118.9 23.22 23
  119.0 14.55 14
  119.2 12.99 12
  119.3 21.21 21
  119.4 26.79 26
  119.5 24.55 24
  119.6 16.0 15
  119.8 8.15 8
  119.9 16.42 16
  120.0 26.44 26
  120.1 30.06 30
  120.2 24.95 24
  120.3 16.0 15
  120.5 13.34 13
  120.6 21.65 21
  120.7 29.25 29
  120.8 29.53 29
  120.9 21.4 21
  121.7 12.45 12
  121.8 18.24 18
  121.9 25.91 25
  122.0 28.43 28
  122.1 22.87 22
  122.2 12.92 12
  122.4 7.66 7
  122.5 15.77 15
  122.6 23.43 23
  122.7 24.04 24
  122.8 17.17 17
  123.0 8.5 8
  123.1 16.61 16
  123.2 27.42 27
  123.3 31.72 31
  123.4 25.81 25
  123.5 14.86 14
  123.7 11.19 11
  123.8 19.81 19
  123.9 25.79 25
  124.0 24.01 23
  124.1 16.4 16
  124.3 8.39 8
  124.4 13.67 13
  124.5 21.0 20
  124.6 24.48 24
  124.7 21.47 21
  125.6 11.8 11
  125.7 17.5 17
  125.8 21.98 21
  125.9 20.56 20
  126.0 14.25 14
  126.2 9.46 9
  126.3 15.72 15
  126.4 23.2 23
  126.5 26.63 26
  126.6 23.69 23
  126.7 16.89 16
  126.9 12.73 12
  127.0 17.19 17
  127.1 18.92 18
  127.2 14.39 14
  127.4 5.23 5
  127.5 10.63 10
  127.6 19.88 19
  127.7 26.09 26
  127.8 24.6 24
  127.9 16.68 16
  128.1 9.3 9
  128.2 17.24 17
  128.3 26.19 26
  128.4 28.19 28
  128.5 21.96 21
  128.6 13.1 13
  128.8 11.1 11
  128.9 18.03 18
  129.0 24.01 23
  129.1 24.5 24
  129.2 19.22 19
  129.4 13.67 13
  129.5 20.93 20
  129.6 28.71 28
  129.7 28.87 28
  129.8 20.3 20
  130.0 8.01 8
  130.1 14.74 14
  130.2 24.57 24
  130.3 29.74 29
  130.4 27.0 26
  130.5 19.32 19
  131.3 9.11 9
  131.4 14.95 14
  131.5 24.18 24
  131.6 27.49 27
  131.7 20.86 20
  131.9 7.52 7
  132.0 13.83 13
  132.1 23.41 23
  132.2 28.1 28
  132.3 24.88 24
  132.4 17.01 16
  132.6 10.07 10
  132.7 14.44 14
  132.8 18.85 18
  132.9 18.85 18
  133.0 14.72 14
  133.2 10.35 10
  133.3 15.18 15
  133.4 21.54 21
  133.5 23.78 23
  133.6 19.41 19
  133.9 12.8 12
  134.0 20.02 19
  134.1 24.27 24
  134.2 21.63 21
  134.5 13.17 13
  134.6 20.95 20
  134.7 27.21 27
  134.8 27.03 27
  134.9 20.51 20
  135.2 12.52 12
  135.3 21.19 21
  135.4 27.68 27
  135.5 26.7 26
  135.6 19.34 19
  135.8 13.38 13
  135.9 20.49 20
  136.0 27.12 27
  136.1 27.05 27
  136.2 20.86 20
  137.1 12.66 12
  137.2 19.79 19
  137.3 27.07 27
  137.4 28.29 28
  137.5 22.28 22
  138.3 7.01 7
  138.4 10.93 10
  138.5 19.15 19
  138.6 25.58 25
  138.7 25.04 25
  138.8 18.24 18
  139.0 11.4 11
  139.1 17.45 17
  139.2 24.2 24
  139.3 25.65 25
  139.4 20.74 20
  139.6 11.28 11
  139.7 15.56 15
  139.8 23.03 23
  139.9 26.49 26
  140.0 22.42 22
  140.3 14.88 14
  140.4 22.1 22
  140.5 27.35 27
  140.6 26.63 26
  140.7 19.88 19
  140.8 11.24 11
  141.0 9.18 9
  141.1 16.19 16
  141.2 21.16 21
  141.3 20.04 20
  141.6 15.07 15
  141.7 21.79 21
  141.8 26.89 26
  141.9 25.84 25
  142.0 18.71 18
  142.2 8.41 8
  142.3 13.45 13
  142.4 20.88 20
  142.5 23.8 23
  142.6 19.88 19
  142.9 13.57 13
  143.0 20.14 20
  143.1 24.29 24
  143.2 23.01 22
  143.3 17.8 17
  143.5 12.45 12
  143.6 16.54 16
  143.7 21.49 21
  143.8 22.38 22
  143.9 18.15 18
  144.1 11.33 11
  144.2 16.37 16
  144.3 24.43 24
  144.4 28.94 28
  144.5 26.05 26
  144.6 18.66 18
  144.8 14.51 14
  144.9 20.32 20
  145.0 25.25 25
  145.1 24.29 24
  145.2 17.45 17
  145.4 9.2 9
  145.5 15.23 15
  145.6 23.57 23
  145.7 27.66 27
  145.8 24.43 24
  145.9 17.19 17
  146.1 15.18 15
  146.2 22.66 22
  146.3 27.98 27
  146.4 25.53 25
  146.5 16.65 16
  146.7 9.81 9
  146.8 17.59 17
  146.9 24.15 24
  147.0 22.92 22
  147.1 15.58 15
  147.3 11.14 11
  147.4 18.76 18
  147.5 26.0 25
  147.6 26.72 26
  147.7 20.56 20
  147.9 10.65 10
  148.0 15.25 15
  148.1 23.2 23
  148.2 28.22 28
  148.3 26.56 26
  148.4 19.62 19
  148.6 12.19 12
  148.7 17.43 17
  148.8 23.99 23
  148.9 25.95 25
  149.0 21.47 21
  149.1 14.32 14
  149.3 13.03 13
  149.4 19.97 19
  149.5 25.13 25
  149.6 23.59 23
  149.7 16.63 16
  149.9 11.42 11
  150.0 17.24 17
  150.1 23.01 22
  150.2 24.18 24
  150.3 20.39 20
  150.5 13.9 13
  150.6 17.54 17
  150.7 22.31 22
  150.8 23.31 23
  150.9 19.9 19
  151.1 13.99 13
  151.2 16.7 16
  151.3 21.93 21
  151.4 25.46 25
  151.5 23.92 23
  151.6 18.29 18
  151.8 13.5 13
  151.9 18.34 18
  152.0 23.87 23
  152.1 25.16 25
  152.2 20.02 19
  152.5 11.14 11
  152.6 19.39 19
  152.7 25.18 25
  152.8 23.76 23
  152.9 16.89 16
  153.1 11.17 11
  153.2 16.44 16
  153.3 21.56 21
  153.4 22.05 22
  153.5 17.89 17
  153.7 11.59 11
  153.8 14.83 14
  153.9 19.81 19
  154.0 21.61 21
  154.1 18.29 18
  154.3 10.77 10
  154.4 14.06 14
  154.5 20.23 20
  154.6 24.46 24
  154.7 23.52 23
  154.8 18.03 18
  155.0 12.17 12
  155.1 18.22 18
  155.2 25.77 25
  155.3 27.82 27
  155.4 21.82 21
  155.5 12.38 12
  155.7 10.0 9
  155.8 17.82 17
  155.9 23.66 23
  156.0 23.06 23
  156.1 17.87 17
  156.3 13.9 13
  156.4 18.8 18
  156.5 23.87 23
  156.6 24.2 24
  156.7 18.76 18
  156.9 10.42 10
  157.0 15.35 15
  157.1 22.61 22
  157.2 25.93 25
  157.3 22.17 22
  157.4 13.76 13
  157.6 8.32 8
  157.7 15.88 15
  157.8 23.59 23
  157.9 24.78 24
  158.0 18.45 18
  158.2 9.39 9
  158.3 15.53 15
  158.4 22.63 22
  158.5 23.24 23
  158.6 16.87 16
  158.8 9.83 9
  158.9 16.65 16
  159.0 24.5 24
  159.1 26.42 26
  159.2 20.74 20
  159.3 12.24 12
  159.5 9.74 9
  159.6 17.08 17
  159.7 23.87 23
  159.8 24.6 24
  159.9 18.13 18
  160.1 6.24 6
  160.2 11.52 11
  160.3 20.81 20
  160.4 26.44 26
  160.5 24.78 24
  160.6 18.69 18
  160.8 14.48 14
  160.9 19.22 19
  161.0 23.01 22
  161.1 20.88 20
  161.2 13.48 13
  161.4 8.18 8
  161.5 15.95 15
  161.6 24.27 24
  161.7 26.91 26
  161.8 22.8 22
  161.9 15.98 15
  162.1 14.51 14
  162.2 20.51 20
  162.3 24.39 24
  162.4 21.72 21
  162.5 13.69 13
  162.7 8.11 8
  162.8 16.91 16
  162.9 25.95 25
  163.0 26.91 26
  163.1 19.27 19
  164.0 12.26 12
  164.1 19.57 19
  164.2 24.6 24
  164.3 22.47 22
  164.4 15.14 15
  164.6 9.18 9
  164.7 15.58 15
  164.8 22.85 22
  164.9 24.92 24
  165.0 20.28 20
  165.1 13.08 13
  165.3 12.12 12
  165.4 18.8 18
  165.5 23.8 23
  165.6 22.78 22
  165.7 16.73 16
  165.9 11.31 11
  166.0 16.21 16
  166.1 20.84 20
  166.2 20.79 20
  166.3 16.16 16
  166.5 10.56 10
  166.6 15.95 15
  166.7 23.69 23
  166.8 27.07 27
  166.9 22.54 22
  167.2 13.99 13
  167.3 22.33 22
  167.4 26.82 26
  167.5 23.24 23
  167.6 14.81 14
  167.8 10.86 10
  167.9 18.43 18
  168.0 24.41 24
  168.1 23.17 23
  168.2 15.42 15
  168.4 4.6 4
  168.5 9.65 9
  168.6 18.73 18
  168.7 24.95 24
  168.8 23.36 23
  168.9 15.11 15
  169.1 7.92 7
  169.2 16.02 16
  169.3 24.22 24
  169.4 24.95 24
  169.5 18.48 18
  169.7 11.21 11
  169.8 16.77 16
  169.9 23.17 23
  170.0 24.36 24
  170.1 18.73 18
  170.4 10.07 10
  170.5 18.57 18
  170.6 25.3 25
  170.7 25.27 25
  170.8 18.99 18
  171.1 12.1 12
  171.2 19.01 18
  171.3 23.06 23
  171.4 20.35 20
  171.7 12.85 12
  171.8 22.17 22
  171.9 28.75 28
  172.0 26.68 26
  172.1 17.85 17
  172.3 9.25 9
  172.4 16.23 16
  172.5 25.02 24
  172.6 28.36 28
  172.7 23.52 23
  172.8 15.02 15
  173.0 12.82 12
  173.1 18.87 18
  173.2 22.26 22
  173.3 19.97 19
  173.5 12.92 12
  173.6 16.82 16
  173.7 23.36 23
  173.8 26.14 26
  173.9 22.1 22
  174.0 14.18 14
  174.2 8.04 8
  174.3 12.94 12
  174.4 18.92 18
  174.5 21.28 21
  174.6 18.03 18
  174.8 8.83 8
  174.9 12.45 12
  175.0 20.49 20
  175.1 26.16 26
  175.2 24.55 24
  175.3 17.33 17
  175.5 11.77 11
  175.6 18.57 18
  175.7 25.46 25
  175.8 26.33 26
  175.9 20.6 20
  176.1 12.26 12
  176.2 18.52 18
  176.3 27.42 27
  176.4 30.48 30
  176.5 23.97 23
  176.6 12.82 12
  176.8 8.22 8
  176.9 15.81 15
  177.0 21.75 21
  177.1 21.14 21
  177.2 15.16 15
  177.4 11.63 11
  177.5 19.6 19
  177.6 27.1 27
  177.7 26.75 26
  177.8 18.24 18
  178.0 6.19 6
  178.1 12.17 12
  178.2 21.56 21
  178.3 27.24 27
  178.4 24.78 24
  178.5 15.79 15
  178.7 7.15 7
  178.8 15.63 15
  178.9 25.13 25
  179.0 27.28 27
  179.1 21.14 21
  179.3 11.05 11
  179.4 15.98 15
  179.5 23.34 23
  179.6 25.98 25
  179.7 20.35 20
  179.8 10.23 10
  180.0 7.15 7
  180.1 16.77 16
  180.2 24.29 24
  180.3 23.15 23
  180.4 14.9 14
  180.6 8.29 8
  180.7 16.0 15
  180.8 23.27 23
  180.9 23.64 23
  181.0 17.17 17
  181.2 6.94 6
  181.3 11.82 11
  181.4 20.49 20
  181.5 25.77 25
  181.6 23.17 23
  181.7 15.35 15
  181.9 11.47 11
  182.0 19.67 19
  182.1 27.4 27
  182.2 27.96 27
  182.3 21.02 20
  182.5 12.08 12
  182.6 18.29 18
  182.7 25.93 25
  182.8 28.15 28
  182.9 22.94 22
  183.0 14.46 14
  183.2 10.98 10
  183.3 17.26 17
  183.4 22.61 22
  183.5 23.01 22
  183.6 18.76 18
  184.4 7.33 7
  184.5 13.41 13
  184.6 23.9 23
  184.7 29.15 29
  184.8 23.52 23
  184.9 11.7 11
  185.1 7.45 7
  185.2 16.96 16
  185.3 24.08 24
  185.4 23.73 23
  185.5 18.08 18
  185.7 13.41 13
  185.8 17.96 17
  185.9 22.56 22
  186.0 22.78 22
  186.1 17.82 17
  186.2 10.96 10
  186.4 9.32 9
  186.5 16.0 15
  186.6 21.91 21
  186.7 22.35 22
  186.8 17.78 17
  187.0 14.79 14
  187.1 21.77 21
  187.2 28.52 28
  187.3 28.12 28
  187.4 19.86 19
  187.6 8.25 8
  187.7 13.34 13
  187.8 20.84 20
  187.9 24.97 24
  188.0 23.34 23
  188.1 17.5 17
  188.3 12.33 12
  188.4 18.03 18
  188.5 24.2 24
  188.6 25.23 25
  188.7 20.49 20
  188.9 12.52 12
  189.0 16.28 16
  189.1 21.91 21
  189.2 23.9 23
  189.3 20.25 20
  189.5 12.43 12
  189.6 16.33 16
  189.7 22.92 22
  189.8 26.02 25
  189.9 22.19 22
  190.0 14.09 14
  190.2 9.37 9
  190.3 16.42 16
  190.4 23.43 23
  190.5 24.01 23
  190.6 17.19 17
  190.8 6.84 6
  190.9 13.15 13
  191.0 22.47 22
  191.1 26.96 26
  191.2 23.24 23
  191.3 14.93 14
  191.5 11.33 11
  191.6 20.56 20
  191.7 30.25 30
  191.8 32.63 32
  191.9 25.32 25
  192.0 13.99 13
  192.2 12.08 12
  192.3 21.56 21
  192.4 27.35 27
  192.5 24.06 24
  192.6 14.76 14
  192.8 9.09 9
  192.9 16.68 16
  193.0 23.24 23
  193.1 23.27 23
  193.2 17.73 17
  193.4 12.57 12
  193.5 18.41 18
  193.6 25.74 25
  193.7 28.12 28
  193.8 22.38 22
  194.1 11.73 11
  194.2 21.0 20
  194.3 27.12 27
  194.4 25.06 25
  194.5 16.75 16
  194.7 7.64 7
  194.8 14.67 14
  194.9 23.76 23
  195.0 26.61 26
  195.1 20.84 20
  195.3 9.46 9
  195.4 14.55 14
  195.5 22.73 22
  195.6 26.21 26
  195.7 21.28 21
  195.8 12.24 12
  196.0 10.23 10
  196.1 18.43 18
  196.2 24.81 24
  196.3 25.09 25
  196.4 20.23 20
  196.6 14.48 14
  196.7 18.92 18
  196.8 24.81 24
  196.9 26.7 26
  197.0 21.75 21
  197.3 12.1 12
  197.4 21.68 21
  197.5 27.84 27
  197.6 24.9 24
  197.7 16.14 16
  197.9 10.56 10
  198.0 17.08 17
  198.1 23.43 23
  198.2 25.02 24
  198.3 21.19 21
  198.4 14.95 14
  198.6 11.42 11
  198.7 16.33 16
  198.8 21.12 21
  198.9 21.56 21
  199.0 17.59 17
  199.2 13.9 13
  199.3 18.38 18
  199.4 22.31 22
  199.5 21.47 21
  199.8 15.7 15
  199.9 20.98 20
  200.0 25.02 24
  200.1 24.11 24
  200.2 18.31 18
  200.4 9.2 9
  200.5 13.31 13
  200.6 21.26 21
  200.7 27.21 27
  200.8 26.63 26
  200.9 19.88 19
  201.1 10.53 10
  201.2 15.42 15
  201.3 22.17 22
  201.4 24.04 24
  201.5 19.13 19
  201.7 10.04 10
  201.8 14.41 14
  201.9 21.4 21
  202.0 25.02 24
  202.1 22.31 22
  202.2 15.63 15
  202.4 11.82 11
  202.5 17.94 17
  202.6 23.17 23
  202.7 22.87 22
  202.8 18.15 18
  203.0 14.18 14
  203.1 17.71 17
  203.2 21.0 20
  203.3 21.14 21
  203.4 17.64 17
  203.6 11.45 11
  203.7 15.18 15
  203.8 21.58 21
  203.9 24.83 24
  204.0 21.49 21
  204.3 13.81 13
  204.4 21.56 21
  204.5 26.89 26
  204.6 24.95 24
  204.7 17.31 17
  205.0 11.45 11
  205.1 18.01 17
  205.2 23.01 22
  205.3 23.57 23
  205.4 20.07 20
  205.6 16.68 16
  205.7 21.23 21
  205.8 24.69 24
  205.9 22.33 22
  206.0 15.21 15
  206.2 9.9 9
  206.3 16.73 16
  206.4 24.25 24
  206.5 25.93 25
  206.6 20.04 20
  206.8 8.85 8
  206.9 14.2 14
  207.0 23.87 23
  207.1 29.92 29
  207.2 27.21 27
  207.3 17.99 17
  207.5 10.49 10
  207.6 17.66 17
  207.7 24.25 24
  207.8 24.15 24
  207.9 18.1 18
  208.1 11.52 11
  208.2 16.21 16
  208.3 22.31 22
  208.4 24.99 24
  208.5 21.79 21
  208.6 14.6 14
  208.8 10.07 10
  208.9 16.42 16
  209.0 21.82 21
  209.1 21.07 21
  209.2 15.3 15
  209.4 9.83 9
  209.5 13.38 13
  209.6 17.26 17
  209.7 18.29 18
  209.8 15.72 15
  210.0 10.75 10
  210.1 15.63 15
  210.2 24.48 24
  210.3 30.48 30
  210.4 28.1 28
  210.5 18.78 18
  210.7 9.37 9
  210.8 15.79 15
  210.9 22.61 22
  211.0 23.17 23
  211.1 16.94 16
  211.3 6.77 6
  211.4 11.38 11
  211.5 19.64 19
  211.6 25.16 25
  211.7 23.99 23
  211.8 18.2 18
  212.0 14.34 14
  212.1 19.27 19
  212.2 23.06 23
  212.3 21.05 21
  212.4 13.81 13
  212.6 8.43 8
  212.7 16.91 16
  212.8 26.07 26
  212.9 28.05 28
  213.0 21.37 21
  213.2 9.69 9
  213.3 14.69 14
  213.4 22.52 22
  213.5 26.3 26
  213.6 22.94 22
  213.7 15.18 15
  213.9 10.98 10
  214.0 18.83 18
  214.1 26.0 25
  214.2 26.19 26
  214.3 19.62 19
  214.5 11.68 11
  214.6 17.57 17
  214.7 25.23 25
  214.8 27.82 27
  214.9 22.78 22
  215.0 13.78 13
  215.2 10.11 10
  215.3 18.03 18
  215.4 24.2 24
  215.5 22.47 22
  215.6 14.62 14
  215.8 11.84 11
  215.9 20.42 20
  216.0 26.79 26
  216.1 25.74 25
  216.2 18.78 18
  216.4 10.72 10
  216.5 15.37 15
  216.6 21.35 21
  216.7 23.55 23
  216.8 20.81 20
  217.1 15.51 15
  217.2 20.6 20
  217.3 24.39 24
  217.4 23.08 23
  217.5 17.4 17
  217.7 11.21 11
  217.8 16.3 16
  217.9 23.34 23
  218.0 26.09 26
  218.1 21.44 21
  218.2 12.73 12
  218.4 9.23 9
  218.5 17.52 17
  218.6 25.16 25
  218.7 26.09 26
  218.8 20.02 19
  219.0 11.07 11
  219.1 15.72 15
  219.2 21.23 21
  219.3 21.37 21
  219.4 15.95 15
  219.6 11.14 11
  219.7 17.15 17
  219.8 23.71 23
  219.9 25.62 25
  220.0 21.61 21
  220.1 14.93 14
  220.3 12.8 12
  220.4 19.29 19
  220.5 24.9 24
  220.6 24.83 24
  220.7 19.08 19
  220.9 9.72 9
  221.0 13.67 13
  221.1 20.93 20
  221.2 25.11 25
  221.3 22.26 22
  221.6 14.16 14
  221.7 22.0 21
  221.8 27.66 27
  221.9 25.74 25
  222.0 17.36 17
  222.2 7.94 7
  222.3 13.69 13
  222.4 21.68 21
  222.5 25.93 25
  222.6 23.29 23
  222.7 15.81 15
  222.9 10.28 10
  223.0 16.58 16
  223.1 22.4 22
  223.2 22.38 22
  223.3 16.96 16
  223.5 10.58 10
  223.6 15.16 15
  223.7 20.37 20
  223.8 20.79 20
  223.9 16.02 16
  224.1 11.82 11
  224.2 17.94 17
  224.3 24.6 24
  224.4 26.07 26
  224.5 20.72 20
  224.6 12.52 12
  224.8 10.37 10
  224.9 17.64 17
  225.0 23.31 23
  225.1 22.28 22
  225.2 15.35 15
  225.4 10.16 10
  225.5 18.1 18
  225.6 26.07 26
  225.7 27.35 27
  225.8 21.23 21
  225.9 12.73 12
  226.1 11.12 11
  226.2 18.57 18
  226.3 23.36 23
  226.4 20.37 20
  226.7 10.68 10
  226.8 19.81 19
  226.9 26.12 26
  227.0 23.66 23
  227.1 15.16 15
  227.3 8.74 8
  227.4 14.81 14
  227.5 22.31 22
  227.6 26.77 26
  227.7 24.83 24
  227.8 17.47 17
  228.0 10.35 10
  228.1 16.14 16
  228.2 21.63 21
  228.3 21.14 21
  228.6 12.5 12
  228.7 20.81 20
  228.8 29.57 29
  228.9 31.44 31
  229.0 23.99 23
  229.1 12.45 12
  229.3 9.13 9
  229.4 18.9 18
  229.5 26.12 26
  229.6 24.57 24
  229.7 16.91 16
  229.9 14.27 14
  230.0 21.65 21
  230.1 26.58 26
  230.2 24.74 24
  230.3 17.82 17
  230.5 9.95 9
  230.6 15.07 15
  230.7 22.31 22
  230.8 25.34 25
  230.9 21.51 21
  231.2 14.37 14
  231.3 20.98 20
  231.4 24.6 24
  231.5 21.14 21
  231.6 12.87 12
  231.8 7.29 7
  231.9 14.58 14
  232.0 22.4 22
  232.1 24.88 24
  232.2 20.7 20
  232.5 13.06 13
  232.6 20.14 20
  232.7 25.77 25
  232.8 24.97 24
  232.9 18.2 18
  233.1 11.07 11
  233.2 17.54 17
  233.3 25.37 25
  233.4 27.94 27
  233.5 23.38 23
  233.7 13.2 13
  233.8 18.01 17
  233.9 26.02 25
  234.0 28.75 28
  234.1 22.56 22
  234.2 12.57 12
  234.4 10.68 10
  234.5 18.01 17
  234.6 22.19 22
  234.7 19.55 19
  234.8 12.57 12
  235.0 9.04 9
  235.1 16.4 16
  235.2 23.52 23
  235.3 24.71 24
  235.4 19.81 19
  235.6 13.36 13
  235.7 17.4 17
  235.8 22.26 22
  235.9 22.96 22
  236.0 17.96 17
  236.1 10.44 10
  236.3 8.39 8
  236.4 15.91 15
  236.5 22.89 22
  236.6 23.97 23
  236.7 18.52 18
  237.0 10.07 10
  237.1 17.12 17
  237.2 21.82 21
  237.3 19.83 19
  237.5 9.58 9
  237.6 13.48 13
  237.7 22.66 22
  237.8 29.08 29
  237.9 27.05 27
  238.0 18.59 18
  238.2 9.51 9
  238.3 15.6 15
  238.4 24.27 24
  238.5 28.24 28
  238.6 23.62 23
  238.7 14.18 14
  238.9 10.25 10
  239.0 17.89 17
  239.1 23.48 23
  239.2 22.19 22
  239.3 16.19 16
  239.5 13.48 13
  239.6 19.48 19
  239.7 25.04 25
  239.8 25.53 25
  239.9 20.14 20
  240.8 13.08 13
  240.9 19.48 19
  241.0 24.88 24
  241.1 24.15 24
  241.2 17.73 17
  241.4 11.21 11
  241.5 17.01 16
  241.6 23.48 23
  241.7 24.78 24
  241.8 19.83 19
  242.6 6.8 6
  242.7 11.28 11
  242.8 20.7 20
  242.9 27.66 27
  243.0 26.3 26
  243.1 17.47 17
  243.3 5.65 5
  243.4 12.03 12
  243.5 22.7 22
  243.6 29.5 29
  243.7 26.65 26
  243.8 16.26 16
  244.0 8.69 8
  244.1 19.74 19
  244.2 31.16 31
  244.3 33.38 33
  244.4 25.41 25
  244.5 14.9 14
  244.7 14.55 14
  244.8 22.17 22
  244.9 26.19 26
  245.0 24.18 24
  245.2 20.35 20
  245.3 24.46 24
  245.4 27.87 27
  245.5 25.88 25
  245.6 18.27 18
  245.9 8.81 8
  246.0 18.45 18
  246.1 26.44 26
  246.2 26.37 26
  246.3 18.83 18
  246.5 8.34 8
  246.6 13.64 13
  246.7 21.33 21
  246.8 24.15 24
  246.9 19.39 19
  247.1 9.39 9
  247.2 14.53 14
  247.3 23.01 22
  247.4 27.54 27
  247.5 23.94 23
  247.6 14.76 14
  247.8 8.69 8
  247.9 17.15 17
  248.0 25.91 25
  248.1 27.84 27
  248.2 21.51 21
  248.5 12.24 12
  248.6 20.58 20
  248.7 25.51 25
  248.8 23.57 23
  248.9 18.08 18
  249.1 16.23 16
  249.2 21.33 21
  249.3 25.41 25
  249.4 24.08 24
  249.5 17.54 17
  249.7 13.06 13
  249.8 20.6 20
  249.9 26.79 26
  250.0 25.16 25
  250.1 16.63 16
  250.3 6.31 6
  250.4 12.47 12
  250.5 21.7 21
  250.6 26.51 26
  250.7 23.01 22
  250.8 14.06 14
  251.0 6.26 6
  251.1 13.15 13
  251.2 22.52 22
  251.3 27.87 27
  251.4 25.79 25
  251.5 18.85 18
  251.7 14.62 14
  251.8 21.07 21
  251.9 26.37 26
  252.0 24.6 24
  252.1 16.33 16
  252.3 7.66 7
  252.4 13.74 13
  252.5 20.58 20
  252.6 22.17 22
  252.7 17.82 17
  252.9 12.05 12
  253.0 17.24 17
  253.1 23.99 23
  253.2 26.89 26
  253.3 23.97 23
  253.4 17.96 17
  253.6 14.39 14
  253.7 19.25 19
  253.8 24.13 24
  253.9 24.53 24
  254.0 19.39 19
  254.2 10.53 10
  254.3 15.46 15
  254.4 23.34 23
  254.5 26.86 26
  254.6 22.89 22
  254.8 12.1 12
  254.9 16.49 16
  255.0 25.34 25
  255.1 30.6 30
  255.2 26.68 26
  255.3 16.14 16
  255.5 8.08 8
  255.6 16.82 16
  255.7 26.09 26
  255.8 28.01 27
  255.9 21.05 21
  256.1 8.43 8
  256.2 14.79 14
  256.3 24.71 24
  256.4 28.47 28
  256.5 22.33 22
  256.8 12.94 12
  256.9 22.73 22
  257.0 29.04 29
  257.1 26.65 26
  257.2 17.5 17
  257.4 8.55 8
  257.5 16.09 16
  257.6 25.11 25
  257.7 27.73 27
  257.8 21.77 21
  257.9 12.54 12
  258.1 10.25 10
  258.2 17.26 17
  258.3 22.96 22
  258.4 23.97 23
  258.5 20.88 20
  258.6 16.61 16
  258.8 14.76 14
  258.9 17.45 17
  259.0 18.87 18
  259.1 16.96 16
  259.3 13.22 13
  259.4 17.8 17
  259.5 23.73 23
  259.6 25.37 25
  259.7 20.86 20
  259.9 11.75 11
  260.0 16.94 16
  260.1 25.98 25
  260.2 31.02 30
  260.3 27.03 27
  260.4 16.4 16
  260.6 7.24 7
  260.7 16.12 16
  260.8 27.0 26
  260.9 31.63 31
  261.0 26.98 26
  261.1 17.19 17
  261.3 10.98 10
  261.4 17.8 17
  261.5 23.9 23
  261.6 23.94 23
  261.7 18.55 18
  261.9 12.75 12
  262.0 17.61 17
  262.1 22.54 22
  262.2 22.4 22
  262.3 17.29 17
  262.5 12.73 12
  262.6 18.52 18
  262.7 25.16 25
  262.8 26.93 26
  262.9 21.91 21
  263.0 13.69 13
  263.2 11.84 11
  263.3 19.88 19
  263.4 25.55 25
  263.5 23.13 23
  263.6 14.55 14
  263.8 7.64 7
  263.9 14.3 14
  264.0 21.79 21
  264.1 24.81 24
  264.2 21.93 21
  264.3 15.93 15
  264.5 11.87 11
  264.6 15.98 15
  264.7 20.02 19
  264.8 20.32 20
  264.9 16.61 16
  265.1 12.71 12
  265.2 18.06 18
  265.3 24.32 24
  265.4 25.09 25
  265.5 18.66 18
  265.7 8.48 8
  265.8 14.39 14
  265.9 22.56 22
  266.0 25.58 25
  266.1 21.54 21
  266.2 14.86 14
  266.4 13.59 13
  266.5 19.43 19
  266.6 23.94 23
  266.7 23.2 23
  266.8 17.54 17
  267.0 10.89 10
  267.1 15.35 15
  267.2 20.46 20
  267.3 21.05 21
  267.4 16.37 16
  267.6 10.7 10
  267.7 17.12 17
  267.8 25.98 25
  267.9 30.18 30
  268.0 26.21 26
  268.1 17.12 17
  268.3 10.07 10
  268.4 16.28 16
  268.5 22.94 22
  268.6 24.2 24
  268.7 19.11 19
  268.9 11.77 11
  269.0 17.66 17
  269.1 24.78 24
  269.2 26.42 26
  269.3 21.54 21
  270.2 12.17 12
  270.3 19.15 19
  270.4 24.27 24
  270.5 23.22 23
  270.6 16.91 16
  270.8 7.5 7
  270.9 11.8 11
  271.0 19.88 19
  271.1 24.97 24
  271.2 22.12 22
  271.3 13.5 13
  271.5 9.46 9
  271.6 18.94 18
  271.7 27.0 26
  271.8 26.42 26
  271.9 17.92 17
  272.1 6.24 6
  272.2 12.45 12
  272.3 22.19 22
  272.4 26.98 26
  272.5 22.92 22
  272.8 14.2 14
  272.9 22.28 22
  273.0 27.03 27
  273.1 23.85 23
  273.2 14.72 14
  273.4 5.65 5
  273.5 12.61 12
  273.6 22.0 21
  273.7 26.68 26
  273.8 23.64 23
  273.9 16.56 16
  274.1 13.74 13
  274.2 19.34 19
  274.3 23.76 23
  274.4 23.08 23
  274.5 17.47 17
  274.7 10.46 10
  274.8 15.63 15
  274.9 21.91 21
  275.0 23.22 23
  275.1 18.41 18
  275.3 11.45 11
  275.4 17.17 17
  275.5 24.32 24
  275.6 25.77 25
  275.7 19.93 19
  275.9 10.18 10
  276.0 14.72 14
  276.1 21.61 21
  276.2 24.69 24
  276.3 21.16 21
  276.4 13.62 13
  276.6 10.16 10
  276.7 18.66 18
  276.8 27.84 27
  276.9 30.44 30
  277.0 23.62 23
  277.1 12.38 12
  277.3 7.9 7
  277.4 16.49 16
  277.5 23.43 23
  277.6 23.43 23
  277.7 17.64 17
  277.9 10.96 10
  278.0 15.42 15
  278.1 20.07 20
  278.2 19.34 19
  278.3 13.01 12
  278.5 8.29 8
  278.6 16.84 16
  278.7 26.4 26
  278.8 29.6 29
  278.9 23.97 23
  279.0 13.97 13
  279.2 9.3 9
  279.3 17.54 17
  279.4 24.67 24
  279.5 23.69 23
  279.6 14.88 14
  279.8 5.79 5
  279.9 15.02 15
  280.0 25.86 25
  280.1 28.5 28
  280.2 20.63 20
  280.5 10.21 10
  280.6 20.63 20
  280.7 27.17 27
  280.8 24.76 24
  280.9 16.19 16
  281.1 10.3 10
  281.2 18.43 18
  281.3 26.44 26
  281.4 27.19 27
  281.5 20.18 20
  281.7 9.18 9
  281.8 14.76 14
  281.9 23.48 23
  282.0 27.77 27
  282.1 24.11 24
  282.2 15.56 15
  282.4 9.23 9
  282.5 16.07 16
  282.6 23.24 23
  282.7 24.08 24
  282.8 17.68 17
  283.0 10.02 10
  283.1 17.05 17
  283.2 24.53 24
  283.3 24.85 24
  283.4 17.73 17
  283.6 8.5 8
  283.7 14.13 14
  283.8 22.14 22
  283.9 26.51 26
  284.0 23.71 23
  284.1 15.7 15
  284.3 9.04 9
  284.4 17.33 17
  284.5 27.03 27
  284.6 29.74 29
  284.7 23.1 23
  285.0 13.59 13
  285.1 21.54 21
  285.2 25.93 25
  285.3 23.5 23
  285.4 17.1 17
  285.6 13.55 13
  285.7 18.43 18
  285.8 22.19 22
  285.9 20.84 20
  286.0 14.83 14
  286.2 9.86 9
  286.3 17.61 17
  286.4 26.28 26
  286.5 27.56 27
  286.6 19.86 19
  286.8 9.13 9
  286.9 16.37 16
  287.0 25.11 25
  287.1 27.38 27
  287.2 21.56 21
  287.3 12.75 12
  287.5 10.25 10
  287.6 18.01 17
  287.7 24.57 24
  287.8 24.36 24
  287.9 17.75 17
  288.1 9.48 9
  288.2 14.51 14
  288.3 21.0 20
  288.4 23.31 23
  288.5 19.46 19
  288.8 12.99 12
  288.9 19.5 19
  289.0 23.03 23
  289.1 20.07 20
  289.2 13.01 12
  289.4 8.92 8
  289.5 16.44 16
  289.6 24.88 24
  289.7 27.24 27
  289.8 21.05 21
  289.9 10.89 10
  290.1 8.6 8
  290.2 18.1 18
  290.3 25.2 25
  290.4 23.97 23
  290.5 16.23 16
  290.7 10.75 10
  290.8 18.66 18
  290.9 26.56 26
  291.0 27.45 27
  291.1 20.63 20
  291.3 10.77 10
  291.4 17.19 17
  291.5 25.65 25
  291.6 28.12 28
  291.7 22.31 22
  291.8 13.17 13
  292.0 9.3 9
  292.1 16.44 16
  292.2 23.2 23
  292.3 23.64 23
  292.4 17.01 16
  292.6 7.99 7
  292.7 14.81 14
  292.8 24.48 24
  292.9 29.06 29
  293.0 24.53 24
  293.1 14.18 14
  293.3 7.97 7
  293.4 16.16 16
  293.5 22.54 22
  293.6 21.09 21
  293.7 14.02 14
  293.9 8.64 8
  294.0 14.06 14
  294.1 19.93 19
  294.2 21.84 21
  294.3 18.94 18
  294.5 13.36 13
  294.6 16.82 16
  294.7 21.89 21
  294.8 23.41 23
  294.9 19.32 19
  295.1 10.63 10
  295.2 14.67 14
  295.3 21.89 21
  295.4 26.21 26
  295.5 24.08 24
  295.6 17.01 16
  295.8 9.46 9
  295.9 15.63 15
  296.0 24.01 23
  296.1 27.4 27
  296.2 22.52 22
  296.5 13.59 13
  296.6 22.73 22
  296.7 28.22 28
  296.8 24.9 24
  296.9 16.05 16
  297.1 11.84 11
  297.2 19.18 19
  297.3 24.81 24
  297.4 23.64 23
  297.5 16.73 16
  297.7 8.55 8
  297.8 14.25 14
  297.9 22.61 22
  298.0 26.72 26
  298.1 22.78 22
  298.2 14.16 14
  298.4 11.17 11
  298.5 18.66 18
  298.6 24.11 24
  298.7 22.68 22
  298.8 15.6 15
  299.0 8.69 8
  299.1 16.07 16
  299.2 25.2 25
  299.3 28.54 28
  299.4 23.85 23
  299.5 15.7 15
  299.7 13.59 13
  299.8 20.7 20
  299.9 26.0 25
  300.0 24.55 24
  300.1 17.78 17
  300.3 13.59 13
  300.4 20.11 20
  300.5 25.34 25
  300.6 23.87 23
  300.7 16.54 16
  300.9 10.63 10
  301.0 17.94 17
  301.1 25.72 25
  301.2 27.52 27
  301.3 22.0 21
  301.4 13.67 13
  301.6 11.26 11
  301.7 19.22 19
  301.8 26.65 26
  301.9 27.8 27
  302.0 22.17 22
  302.3 15.81 15
  302.4 21.82 21
  302.5 25.3 25
  302.6 22.63 22
  302.9 13.71 13
  303.0 22.17 22
  303.1 27.63 27
  303.2 24.67 24
  303.3 15.79 15
  303.5 8.15 8
  303.6 15.28 15
  303.7 23.64 23
  303.8 26.23 26
  303.9 21.56 21
  304.1 13.48 13
  304.2 17.92 17
  304.3 23.59 23
  304.4 24.5 24
  304.5 19.29 19
  304.7 9.37 9
  304.8 13.36 13
  304.9 20.95 20
  305.0 25.93 25
  305.1 23.76 23
  305.2 15.67 15
  305.4 7.03 7
  305.5 14.13 14
  305.6 22.85 22
  305.7 24.85 24
  305.8 17.78 17
  306.0 4.13 4
  306.1 10.46 10
  306.2 22.52 22
  306.3 31.44 31
  306.4 30.88 30
  306.5 22.05 22
  306.7 9.88 9
  306.8 15.56 15
  306.9 23.71 23
  307.0 26.56 26
  307.1 21.54 21
  307.9 11.94 11
  308.0 16.7 16
  308.1 24.6 24
  308.2 28.71 28
  308.3 24.83 24
  308.4 15.35 15
  308.6 5.58 5
  308.7 12.31 12
  308.8 21.89 21
  308.9 26.3 26
  309.0 21.79 21
  309.3 14.23 14
  309.4 22.56 22
  309.5 26.84 26
  309.6 23.94 23
  309.7 16.65 16
  309.9 11.24 11
  310.0 17.82 17
  310.1 25.06 25
  310.2 26.56 26
  310.3 21.14 21
  310.6 15.09 15
  310.7 21.93 21
  310.8 25.55 25
  310.9 23.17 23
  311.0 17.29 17
  311.2 14.69 14
  311.3 20.65 20
  311.4 25.93 25
  311.5 25.09 25
  311.6 17.36 17
  311.8 5.33 5
  311.9 10.21 10
  312.0 18.57 18
  312.1 23.43 23
  312.2 21.47 21
  312.5 15.35 15
  312.6 22.31 22
  312.7 26.82 26
  312.8 24.41 24
  312.9 16.65 16
  313.1 10.77 10
  313.2 18.17 18
  313.3 25.74 25
  313.4 26.37 26
  313.5 19.41 19
  313.7 8.55 8
  313.8 14.06 14
  313.9 22.92 22
  314.0 27.54 27
  314.1 23.9 23
  314.2 15.04 15
  314.4 9.04 9
  314.5 16.47 16
  314.6 23.87 23
  314.7 24.69 24
  314.8 18.57 18
  315.0 11.1 11
  315.1 16.7 16
  315.2 22.73 22
  315.3 23.22 23
  315.4 17.89 17
  315.6 11.1 11
  315.7 15.77 15
  315.8 21.89 21
  315.9 24.29 24
  316.0 21.28 21
  316.1 15.6 15
  316.3 13.78 13
  316.4 19.25 19
  316.5 23.62 23
  316.6 23.06 23
  316.7 18.06 18
  316.9 11.33 11
  317.0 14.83 14
  317.1 20.23 20
  317.2 22.82 22
  317.3 20.32 20
  317.6 14.18 14
  317.7 19.55 19
  317.8 23.24 23
  317.9 20.98 20
  318.0 13.43 13
  318.2 7.59 7
  318.3 16.56 16
  318.4 26.51 26
  318.5 28.73 28
  318.6 21.26 21
  318.7 10.96 10
  319.5 8.62 8
  319.6 16.35 16
  319.7 22.89 22
  319.8 23.78 23
  319.9 18.78 18
  320.1 8.9 8
  320.2 13.78 13
  320.3 23.57 23
  320.4 30.02 29
  320.5 27.07 27
  320.6 16.77 16
  320.8 5.51 5
  320.9 11.8 11
  321.0 20.07 20
  321.1 23.36 23
  321.2 19.41 19
  321.5 12.8 12
  321.6 20.79 20
  321.7 25.91 25
  321.8 23.45 23
  321.9 15.84 15
  322.1 12.87 12
  322.2 20.46 20
  322.3 25.84 25
  322.4 23.97 23
  322.5 17.17 17
  322.7 12.1 12
  322.8 17.1 17
  322.9 22.54 22
  323.0 23.85 23
  323.1 19.27 19
  323.4 12.33 12
  323.5 20.81 20
  323.6 26.37 26
  323.7 24.43 24
  323.8 17.5 17
  324.0 13.13 13
  324.1 18.24 18
  324.2 21.54 21
  324.3 19.29 19
  324.5 10.93 10
  324.6 14.11 14
  324.7 21.54 21
  324.8 27.91 27
  324.9 28.45 28
  325.0 22.7 22
  325.3 15.23 15
  325.4 22.4 22
  325.5 27.0 26
  325.6 24.57 24
  325.7 16.12 16
  325.9 5.68 5
  326.0 12.12 12
  326.1 21.49 21
  326.2 25.74 25
  326.3 21.54 21
  326.4 13.15 13
  326.6 9.81 9
  326.7 16.94 16
  326.8 23.57 23
  326.9 24.43 24
  327.0 19.25 19
  327.2 13.52 13
  327.3 18.8 18
  327.4 23.36 23
  327.5 22.0 21
  327.6 15.77 15
  327.8 10.32 10
  327.9 15.58 15
  328.0 21.61 21
  328.1 23.22 23
  328.2 18.97 18
  328.5 11.91 11
  328.6 18.2 18
  328.7 22.07 22
  328.8 19.62 19
  329.0 9.58 9
  329.1 13.45 13
  329.2 22.21 22
  329.3 28.59 28
  329.4 27.12 27
  329.5 19.01 18
  329.7 9.88 9
  329.8 16.44 16
  329.9 24.9 24
  330.0 27.75 27
  330.1 22.42 22
  330.2 13.41 13
  330.4 11.84 11
  330.5 20.44 20
  330.6 26.49 26
  330.7 24.81 24
  330.8 17.15 17
  331.0 11.45 11
  331.1 18.17 18
  331.2 24.06 24
  331.3 23.29 23
  331.4 16.51 16
  331.6 8.41 8
  331.7 14.41 14
  331.8 23.59 23
  331.9 28.87 28
  332.0 25.2 25
  332.1 15.04 15
  332.3 9.27 9
  332.4 19.48 19
  332.5 28.24 28
  332.6 27.19 27
  332.7 17.5 17
  332.9 6.1 6
  333.0 12.29 12
  333.1 19.86 19
  333.2 22.07 22
  333.3 17.54 17
  333.5 7.36 7
  333.6 11.03 11
  333.7 19.55 19
  333.8 27.1 27
  333.9 28.38 28
  334.0 22.96 22
  334.1 15.63 15
  334.8 8.2 8
  334.9 13.78 13
  335.0 21.54 21
  335.1 24.69 24
  335.2 20.21 20
  335.3 11.82 11
  335.5 10.04 10
  335.6 19.01 18
  335.7 26.26 26
  335.8 25.67 25
  335.9 17.85 17
  336.1 7.87 7
  336.2 14.02 14
  336.3 22.66 22
  336.4 26.65 26
  336.5 23.36 23
  336.6 16.3 16
  336.8 13.45 13
  336.9 19.43 19
  337.0 24.69 24
  337.1 25.3 25
  337.2 21.28 21
  337.4 15.04 15
  337.5 19.39 19
  337.6 25.77 25
  337.7 27.38 27
  337.8 20.91 20
  338.0 8.08 8
  338.1 14.32 14
  338.2 24.78 24
  338.3 30.81 30
  338.4 28.45 28
  338.5 20.84 20
  338.7 14.51 14
  338.8 19.5 19
  338.9 24.32 24
  339.0 24.25 24
  339.1 19.39 19
  339.3 14.32 14
  339.4 19.2 19
  339.5 25.09 25
  339.6 26.82 26
  339.7 22.14 22
  339.8 13.78 13
  340.0 9.48 9
  340.1 17.61 17
  340.2 25.48 25
  340.3 26.3 26
  340.4 19.55 19
  341.2 10.09 10
  341.3 14.06 14
  341.4 20.86 20
  341.5 24.04 24
  341.6 20.81 20
  341.9 13.41 13
  342.0 20.3 20
  342.1 26.42 26
  342.2 26.75 26
  342.3 20.44 20
  342.5 8.69 8
  342.6 13.43 13
  342.7 22.35 22
  342.8 27.21 27
  342.9 23.69 23
  343.0 15.56 15
  343.2 13.38 13
  343.3 21.72 21
  343.4 28.15 28
  343.5 26.42 26
  343.6 17.71 17
  343.8 10.6 10
  343.9 17.92 17
  344.0 25.25 25
  344.1 26.68 26
  344.2 21.4 21
  344.3 13.38 13
  344.5 10.04 10
  344.6 16.54 16
  344.7 22.61 22
  344.8 23.78 23
  344.9 19.88 19
  345.1 13.08 13
  345.2 16.8 16
  345.3 22.28 22
  345.4 23.41 23
  345.5 17.73 17
  345.7 7.24 7
  345.8 12.08 12
  345.9 19.72 19
  346.0 22.68 22
  346.1 17.96 17
  346.3 7.66 7
  346.4 12.8 12
  346.5 21.44 21
  346.6 26.96 26
  346.7 26.12 26
  346.8 20.3 20
  347.6 12.01 11
  347.7 16.12 16
  347.8 22.17 22
  347.9 24.43 24
  348.0 20.98 20
  348.1 15.0 14
  348.3 13.29 13
  348.4 18.45 18
  348.5 22.0 21
  348.6 20.09 20
  348.7 13.99 13
  348.9 9.13 9
  349.0 15.23 15
  349.1 22.73 22
  349.2 25.93 25
  349.3 22.42 22
  349.4 15.7 15
  349.6 13.5 13
  349.7 19.32 19
  349.8 24.36 24
  349.9 24.18 24
  350.0 18.15 18
  350.2 9.46 9
  350.3 15.6 15
  350.4 23.76 23
  350.5 25.91 25
  350.6 19.88 19
  350.7 11.1 11
  350.9 9.95 9
  351.0 16.28 16
  351.1 20.37 20
  351.2 19.57 19
  351.3 15.11 15
  351.5 11.21 11
  351.6 16.51 16
  351.7 22.33 22
  351.8 22.75 22
  351.9 16.8 16
  352.1 8.46 8
  352.2 13.74 13
  352.3 21.4 21
  352.4 25.48 25
  352.5 23.36 23
  352.6 17.66 17
  352.8 15.6 15
  352.9 20.7 20
  353.0 23.73 23
  353.1 21.42 21
  353.2 15.93 15
  353.4 13.71 13
  353.5 19.86 19
  353.6 26.54 26
  353.7 28.43 28
  353.8 22.87 22
  353.9 13.76 13
  354.1 12.94 12
  354.2 21.23 21
  354.3 25.98 25
  354.4 23.41 23
  354.5 16.61 16
  354.7 12.64 12
  354.8 17.96 17
  354.9 22.87 22
  355.0 22.85 22
  355.1 17.59 17
  355.3 10.35 10
  355.4 15.35 15
  355.5 22.21 22
  355.6 24.78 24
  355.7 20.86 20
  356.0 14.6 14
  356.1 21.75 21
  356.2 26.86 26
  356.3 25.77 25
  356.4 18.83 18
  356.6 8.29 8
  356.7 13.57 13
  356.8 22.78 22
  356.9 27.77 27
  357.0 24.27 24
  357.1 16.14 16
  357.3 13.71 13
  357.4 19.97 19
  357.5 23.66 23
  357.6 21.3 21
  357.7 15.25 15
  357.9 12.05 12
  358.0 17.5 17
  358.1 22.35 22
  358.2 22.05 22
  358.3 16.23 16
  358.5 7.36 7
  358.6 12.36 12
  358.7 19.93 19
  358.8 23.64 23
  358.9 21.12 21
  359.1 13.29 13
  359.2 16.63 16
  359.3 23.97 23
  359.4 29.36 29
  359.5 27.73 27
  359.6 19.83 19
  359.8 9.72 9
  359.9 14.93 14
  360.0 23.34 23
  360.1 27.96 27
  360.2 24.25 24
  360.3 14.95 14
  360.5 10.11 10
  360.6 16.94 16
  360.7 20.79 20
  360.8 17.68 17
  361.0 8.18 8
  361.1 11.84 11
  361.2 19.64 19
  361.3 25.39 25
  361.4 24.32 24
  361.5 16.98 16
  361.7 7.59 7
  361.8 14.04 14
  361.9 23.55 23
  362.0 28.33 28
  362.1 24.74 24
  362.2 16.73 16
  362.4 14.58 14
  362.5 21.65 21
  362.6 26.16 26
  362.7 23.55 23
  362.8 15.98 15
  363.0 11.63 11
  363.1 19.46 19
  363.2 27.19 27
  363.3 28.24 28
  363.4 21.33 21
  363.5 11.49 11
  363.7 8.92 8
  363.8 16.33 16
  363.9 21.05 21
  364.0 19.18 19
  364.3 13.5 13
  364.4 19.39 19
  364.5 24.32 24
  364.6 24.78 24
  364.7 19.86 19
  365.0 12.57 12
  365.1 21.28 21
  365.2 27.98 27
  365.3 27.24 27
  365.4 20.23 20
  365.6 12.99 12
  365.7 18.29 18
  365.8 23.55 23
  365.9 22.89 22
  366.0 16.09 16
  366.2 8.06 8
  366.3 14.86 14
  366.4 23.64 23
  366.5 26.75 26
  366.6 21.7 21
  366.7 13.08 13
  366.9 9.62 9
  367.0 16.28 16
  367.1 22.28 22
  367.2 22.99 22
  367.3 18.22 18
  367.5 12.59 12
  367.6 18.69 18
  367.7 25.65 25
  367.8 26.91 26
  367.9 21.44 21
  368.1 12.66 12
  368.2 16.63 16
  368.3 22.47 22
  368.4 24.48 24
  368.5 20.35 20
  368.8 13.08 13
  368.9 20.95 20
  369.0 25.3 25
  369.1 22.03 22
  369.4 14.67 14
  369.5 21.42 21
  369.6 26.44 26
  369.7 25.74 25
  369.8 19.34 19
  370.0 8.83 8
  370.1 13.31 13
  370.2 21.21 21
  370.3 25.51 25
  370.4 23.06 23
  370.7 17.38 17
  370.8 23.41 23
  370.9 27.17 27
  371.0 24.95 24
  371.1 17.96 17
  371.3 12.4 12
  371.4 19.22 19
  371.5 26.49 26
  371.6 27.68 27
  371.7 21.47 21
  372.0 13.15 13
  372.1 20.98 20
  372.2 26.4 26
  372.3 24.78 24
  372.4 16.89 16
  372.6 8.41 8
  372.7 15.32 15
  372.8 23.69 23
  372.9 26.47 26
  373.0 22.1 22
  373.9 6.96 6
  374.0 15.07 15
  374.1 22.78 22
  374.2 23.2 23
  374.3 15.93 15
  374.5 6.75 6
  374.6 14.34 14
  374.7 24.78 24
  374.8 30.32 30
  374.9 27.49 27
  375.0 19.46 19
  375.8 15.18 15
  375.9 20.6 20
  376.0 26.65 26
  376.1 26.02 25
  376.2 16.77 16
  376.4 2.71 2
  376.5 10.35 10
  376.6 21.79 21
  376.7 27.4 27
  376.8 23.73 23
  376.9 15.42 15
  377.1 13.01 12
  377.2 20.81 20
  377.3 26.96 26
  377.4 26.05 26
  377.5 18.62 18
  377.7 10.11 10
  377.8 16.75 16
  377.9 25.11 25
  378.0 27.96 27
  378.1 23.22 23
  378.2 15.21 15
  378.4 11.26 11
  378.5 17.36 17
  378.6 22.87 22
  378.7 22.8 22
  378.8 17.54 17
  379.0 13.2 13
  379.1 18.9 18
  379.2 24.6 24
  379.3 25.13 25
  379.4 19.83 19
  379.5 12.78 12
  379.7 11.49 11
  379.8 16.84 16
  379.9 20.53 20
  380.0 19.15 19
  380.3 11.14 11
  380.4 18.76 18
  380.5 26.47 26
  380.6 27.63 27
  380.7 21.16 21
  380.9 10.3 10
  381.0 15.58 15
  381.1 24.08 24
  381.2 28.57 28
  381.3 25.44 25
  381.4 17.43 17
  381.6 12.17 12
  381.7 19.01 18
  381.8 25.3 25
  381.9 24.99 24
  382.0 17.85 17
  382.2 8.43 8
  382.3 15.3 15
  382.4 24.81 24
  382.5 27.94 27
  382.6 20.95 20
  382.7 10.07 10
  382.9 10.18 10
  383.0 19.01 18
  383.1 24.2 24
  383.2 23.13 23
  383.3 18.17 18
  383.5 13.08 13
  383.6 16.82 16
  383.7 21.49 21
  383.8 22.49 22
  383.9 18.92 18
  384.1 13.67 13
  384.2 16.87 16
  384.3 21.19 21
  384.4 22.42 22
  384.5 18.8 18
  384.7 10.23 10
  384.8 14.44 14
  384.9 22.66 22
  385.0 27.8 27
  385.1 25.06 25
  385.2 16.89 16
  385.4 10.7 10
  385.5 16.87 16
  385.6 22.68 22
  385.7 22.85 22
  385.8 17.73 17
  386.0 12.05 12
  386.1 16.84 16
  386.2 22.75 22
  386.3 24.6 24
  386.4 20.46 20
  386.7 12.82 12
  386.8 19.64 19
  386.9 24.57 24
  387.0 23.22 23
  387.1 16.8 16
  387.3 10.46 10
  387.4 16.7 16
  387.5 24.76 24
  387.6 27.45 27
  387.7 21.37 21
  387.8 10.68 10
  388.0 5.63 5
  388.1 14.44 14
  388.2 22.63 22
  388.3 23.9 23
  388.4 18.36 18
  388.6 10.86 10
  388.7 16.4 16
  388.8 24.5 24
  388.9 28.33 28
  389.0 23.62 23
  389.1 13.97 13
  389.3 12.36 12
  389.4 21.51 21
  389.5 27.0 26
  389.6 24.32 24
  389.7 16.56 16
  389.9 10.21 10
  390.0 14.72 14
  390.1 19.81 19
  390.2 21.91 21
  390.3 20.18 20
  390.5 15.56 15
  390.6 18.78 18
  390.7 24.5 24
  390.8 27.28 27
  390.9 23.45 23
  391.0 15.49 15
  391.2 11.17 11
  391.3 17.26 17
  391.4 22.33 22
  391.5 21.63 21
  391.6 15.77 15
  391.8 9.06 9
  391.9 14.11 14
  392.0 20.79 20
  392.1 23.48 23
  392.2 20.42 20
  392.4 13.36 13
  392.5 16.65 16
  392.6 21.84 21
  392.7 23.83 23
  392.8 20.28 20
  392.9 13.71 13
  393.1 10.84 10
  393.2 17.5 17
  393.3 24.2 24
  393.4 25.25 25
  393.5 19.43 19
  393.7 9.6 9
  393.8 14.83 14
  393.9 23.06 23
  394.0 27.47 27
  394.1 24.78 24
  394.2 17.33 17
  394.4 12.31 12
  394.5 18.76 18
  394.6 24.48 24
  394.7 23.85 23
  394.8 17.8 17
  395.0 12.47 12
  395.1 18.1 18
  395.2 24.39 24
  395.3 26.23 26
  395.4 22.28 22
  395.5 15.74 15
  395.7 13.71 13
  395.8 20.42 20
  395.9 26.09 26
  396.0 25.18 25
  396.1 18.2 18
  396.3 13.29 13
  396.4 20.44 20
  396.5 25.88 25
  396.6 23.55 23
  396.7 14.86 14
  396.9 6.31 6
  397.0 12.08 12
  397.1 19.62 19
  397.2 23.38 23
  397.3 21.02 20
  397.4 14.74 14
  397.6 11.87 11
  397.7 18.57 18
  397.8 23.73 23
  397.9 21.93 21
  398.0 14.55 14
  398.2 9.25 9
  398.3 16.3 16
  398.4 23.94 23
  398.5 26.54 26
  398.6 22.82 22
  398.9 15.93 15
  399.0 22.78 22
  399.1 28.45 28
  399.2 27.56 27
  399.3 19.53 19
  399.5 7.9 7
  399.6 13.83 13
  399.7 21.91 21
  399.8 24.22 24
  399.9 19.55 19
  400.1 12.1 12
  400.2 17.01 16
  400.3 24.11 24
  400.4 27.21 27
  400.5 23.2 23
  400.8 14.51 14
  400.9 22.42 22
  401.0 27.17 27
  401.1 24.04 24
  401.2 15.32 15
  401.4 8.39 8
  401.5 16.26 16
  401.6 24.76 24
  401.7 26.0 25
  401.8 18.85 18
  402.0 8.76 8
  402.1 14.46 14
  402.2 21.21 21
  402.3 22.61 22
  402.4 18.01 17
  402.7 11.52 11
  402.8 17.52 17
  402.9 23.2 23
  403.0 24.83 24
  403.1 20.98 20
  403.3 12.47 12
  403.4 16.65 16
  403.5 23.31 23
  403.6 25.67 25
  403.7 21.44 21
  403.9 14.76 14
  404.0 21.84 21
  404.1 31.04 31
  404.2 33.85 33
  404.3 26.7 26
  404.4 13.55 13
  404.6 0.0 0
  404.7 6.59 6
  404.8 15.98 15
  404.9 20.23 20
  405.0 16.68 16
  405.2 7.43 7
  405.3 12.08 12
  405.4 20.09 20
  405.5 24.76 24
  405.6 22.68 22
  405.7 16.44 16
  405.9 11.87 11
  406.0 17.19 17
  406.1 23.73 23
  406.2 26.0 25
  406.3 21.23 21
  406.5 9.41 9
  406.6 14.02 14
  406.7 22.8 22
  406.8 27.77 27
  406.9 24.46 24
  407.0 15.32 15
  407.2 8.99 8
  407.3 17.57 17
  407.4 25.44 25
  407.5 25.04 25
  407.6 16.87 16
  407.8 7.29 7
  407.9 13.5 13
  408.0 21.23 21
  408.1 23.71 23
  408.2 19.46 19
  408.4 11.47 11
  408.5 15.95 15
  408.6 22.38 22
  408.7 24.62 24
  408.8 20.77 20
  409.0 12.47 12
  409.1 16.51 16
  409.2 23.99 23
  409.3 28.71 28
  409.4 26.05 26
  409.5 17.31 17
  409.7 7.87 7
  409.8 13.81 13
  409.9 21.86 21
  410.0 25.79 25
  410.1 22.54 22
  410.2 14.74 14
  410.4 11.52 11
  410.5 19.15 19
  410.6 24.95 24
  410.7 23.41 23
  410.8 15.93 15
  411.0 10.07 10
  411.1 17.52 17
  411.2 25.32 25
  411.3 26.26 26
  411.4 18.9 18
  411.7 8.88 8
  411.8 19.29 19
  411.9 26.7 26
  412.0 24.85 24
  412.1 15.65 15
  412.3 8.76 8
  412.4 18.06 18
  412.5 27.31 27
  412.6 28.05 28
  412.7 19.39 19
  412.9 4.32 4
  413.0 10.16 10
  413.1 20.95 20
  413.2 27.28 27
  413.3 24.08 24
  413.4 14.95 14
  413.6 10.32 10
  413.7 18.24 18
  413.8 24.6 24
  413.9 23.38 23
  414.0 15.72 15
  414.2 7.8 7
  414.3 14.13 14
  414.4 22.47 22
  414.5 26.28 26
  414.6 22.59 22
  414.7 14.62 14
  414.9 11.87 11
  415.0 19.9 19
  415.1 26.16 26
  415.2 24.74 24
  415.3 16.73 16
  415.5 8.5 8
  415.6 15.07 15
  415.7 22.56 22
  415.8 23.97 23
  415.9 17.94 17
  416.1 8.83 8
  416.2 15.49 15
  416.3 24.9 24
  416.4 29.6 29
  416.5 26.35 26
  416.6 18.03 18
  416.8 10.58 10
  416.9 16.61 16
  417.0 23.55 23
  417.1 24.85 24
  417.2 19.04 19
  417.4 10.23 10
  417.5 16.73 16
  417.6 25.37 25
  417.7 27.98 27
  417.8 21.61 21
  417.9 11.56 11
  418.1 10.6 10
  418.2 20.07 20
  418.3 26.75 26
  418.4 25.48 25
  418.5 18.24 18
  418.7 10.56 10
  418.8 15.04 15
  418.9 20.14 20
  419.0 20.74 20
  419.1 16.33 16
  419.4 12.31 12
  419.5 16.44 16
  419.6 18.76 18
  419.7 18.15 18
  419.9 15.07 15
  420.0 17.87 17
  420.1 23.5 23
  420.2 27.4 27
  420.3 24.92 24
  420.4 16.61 16
  420.6 8.41 8
  420.7 15.51 15
  420.8 24.64 24
  420.9 29.74 29
  421.0 27.84 27
  421.1 20.46 20
  421.3 17.4 17
  421.4 27.49 27
  421.5 33.43 33
  421.6 27.8 27
  421.7 16.21 16
  421.9 10.44 10
  422.0 15.79 15
  422.1 20.09 20
  422.2 20.07 20
  422.3 15.51 15
  422.5 9.72 9
  422.6 15.46 15
  422.7 22.24 22
  422.8 23.62 23
  422.9 18.73 18
  423.2 11.89 11
  423.3 19.11 19
  423.4 25.39 25
  423.5 24.76 24
  423.6 16.7 16
  423.8 6.59 6
  423.9 13.36 13
  424.0 22.21 22
  424.1 25.51 25
  424.2 20.88 20
  424.4 10.16 10
  424.5 15.04 15
  424.6 23.22 23
  424.7 26.7 26
  424.8 21.84 21
  425.1 11.35 11
  425.2 21.12 21
  425.3 28.85 28
  425.4 28.26 28
  425.5 19.81 19
  425.8 9.18 9
  425.9 19.36 19
  426.0 27.07 27
  426.1 26.07 26
  426.2 17.96 17
  426.4 11.45 11
  426.5 17.85 17
  426.6 23.36 23
  426.7 22.96 22
  426.8 17.47 17
  427.0 11.68 11
  427.1 16.35 16
  427.2 21.68 21
  427.3 22.42 22
  427.4 17.33 17
  427.6 8.22 8
  427.7 13.03 13
  427.8 21.44 21
  427.9 26.16 26
  428.0 22.63 22
  428.1 13.74 13
  428.3 8.92 8
  428.4 16.77 16
  428.5 24.22 24
  428.6 25.53 25
  428.7 19.69 19
  429.6 8.04 8
  429.7 17.45 17
  429.8 24.57 24
  429.9 24.41 24
  430.0 19.15 19
  430.2 15.14 15
  430.3 19.04 19
  430.4 22.38 22
  430.5 21.68 21
  430.6 17.01 16
  430.8 10.93 10
  430.9 14.76 14
  431.0 20.56 20
  431.1 23.22 23
  431.2 19.39 19
  431.3 10.93 10
  431.5 6.52 6
  431.6 15.6 15
  431.7 24.74 24
  431.8 27.03 27
  431.9 21.77 21
  432.1 13.24 13
  432.2 18.13 18
  432.3 24.01 23
  432.4 24.46 24
  432.5 18.64 18
  432.7 9.69 9
  432.8 14.37 14
  432.9 22.4 22
  433.0 27.7 27
  433.1 25.84 25
  433.2 17.75 17
  433.4 8.85 8
  433.5 15.18 15
  433.6 22.82 22
  433.7 24.18 24
  433.8 17.26 17
  434.0 5.75 5
  434.1 13.62 13
  434.2 25.72 25
  434.3 32.12 32
  434.4 27.89 27
  434.5 16.75 16
  434.7 6.0 5
  434.8 13.57 13
  434.9 23.5 23
  435.0 27.0 26
  435.1 21.12 21
  435.3 9.83 9
  435.4 15.74 15
  435.5 23.92 23
  435.6 27.12 27
  435.7 23.2 23
  435.8 15.58 15
  436.0 10.82 10
  436.1 17.24 17
  436.2 23.59 23
  436.3 23.83 23
  436.4 17.45 17
  436.6 9.51 9
  436.7 16.02 16
  436.8 23.66 23
  436.9 24.92 24
  437.0 18.9 18
  437.2 11.0 10
  437.3 17.29 17
  437.4 25.46 25
  437.5 28.73 28
  437.6 24.5 24
  437.7 16.54 16
  437.9 12.96 12
  438.0 18.48 18
  438.1 22.07 22
  438.2 20.44 20
  438.3 15.35 15
  438.5 13.22 13
  438.6 18.92 18
  438.7 24.71 24
  438.8 25.51 25
  438.9 19.81 19
  439.2 11.91 11
  439.3 19.27 19
  439.4 23.24 23
  439.5 20.53 20
  439.6 13.71 13
  439.8 9.88 9
  439.9 16.77 16
  440.0 24.32 24
  440.1 26.56 26
  440.2 21.98 21
  440.4 12.61 12
  440.5 17.08 17
  440.6 24.67 24
  440.7 28.4 28
  440.8 24.27 24
  440.9 14.93 14
  441.1 8.5 8
  441.2 15.98 15
  441.3 23.34 23
  441.4 24.53 24
  441.5 19.69 19
  441.7 13.38 13
  441.8 17.87 17
  441.9 24.18 24
  442.0 27.05 27
  442.1 23.29 23
  442.2 15.02 15
  442.4 10.46 10
  442.5 18.08 18
  442.6 24.32 24
  442.7 23.08 23
  442.8 15.53 15
  443.0 9.62 9
  443.1 16.91 16
  443.2 23.9 23
  443.3 24.2 24
  443.4 17.52 17
  443.6 8.41 8
  443.7 14.86 14
  443.8 24.27 24
  443.9 28.8 28
  444.0 24.29 24
  444.1 14.13 14
  444.3 10.79 10
  444.4 20.6 20
  444.5 26.75 26
  444.6 23.62 23
  444.7 15.28 15
  444.9 9.93 9
  445.0 14.79 14
  445.1 20.28 20
  445.2 22.94 22
  445.3 20.86 20
  445.4 15.28 15
  445.6 11.52 11
  445.7 17.75 17
  445.8 23.83 23
  445.9 23.73 23
  446.0 16.96 16
  446.2 8.69 8
  446.3 15.6 15
  446.4 24.88 24
  446.5 29.13 29
  446.6 25.34 25
  446.7 17.61 17
  446.9 15.35 15
  447.0 21.58 21
  447.1 25.95 25
  447.2 24.67 24
  447.3 19.01 18
  447.5 14.18 14
  447.6 19.43 19
  447.7 25.3 25
  447.8 26.47 26
  447.9 21.61 21
  448.1 12.73 12
  448.2 17.31 17
  448.3 24.46 24
  448.4 27.24 27
  448.5 22.75 22
  448.6 14.58 14
  448.8 9.48 9
  448.9 15.14 15
  449.0 21.65 21
  449.1 24.41 24
  449.2 21.91 21
  449.4 15.79 15
  449.5 18.8 18
  449.6 23.22 23
  449.7 24.29 24
  449.8 20.23 20
  449.9 13.9 13
  450.1 11.35 11
  450.2 16.37 16
  450.3 21.12 21
  450.4 21.77 21
  450.5 17.92 17
  450.7 12.61 12
  450.8 17.71 17
  450.9 23.92 23
  451.0 24.85 24
  451.1 19.46 19
  451.3 12.01 11
  451.4 16.35 16
  451.5 21.3 21
  451.6 21.82 21
  451.7 16.73 16
  451.9 6.33 6
  452.0 9.93 9
  452.1 18.48 18
  452.2 25.62 25
  452.3 25.44 25
  452.4 18.08 18
  452.6 9.25 9
  452.7 16.47 16
  452.8 25.3 25
  452.9 28.05 28
  453.0 23.22 23
  453.9 10.32 10
  454.0 17.03 17
  454.1 24.08 24
  454.2 25.23 25
  454.3 19.32 19
  454.5 9.34 9
  454.6 14.53 14
  454.7 22.24 22
  454.8 24.99 24
  454.9 20.3 20
  455.2 13.43 13
  455.3 19.41 19
  455.4 22.99 22
  455.5 21.16 21
  455.6 15.3 15
  455.8 11.45 11
  455.9 19.15 19
  456.0 27.56 27
  456.1 29.48 29
  456.2 22.94 22
  456.3 12.87 12
  456.5 8.25 8
  456.6 15.32 15
  456.7 21.12 21
  456.8 20.37 20
  456.9 14.39 14
  457.1 10.53 10
  457.2 17.03 17
  457.3 23.34 23
  457.4 24.18 24
  457.5 19.08 19
  457.7 11.07 11
  457.8 15.23 15
  457.9 20.91 20
  458.0 21.89 21
  458.1 16.84 16
  458.3 9.11 9
  458.4 14.04 14
  458.5 21.54 21
  458.6 25.77 25
  458.7 23.17 23
  458.8 15.77 15
  459.0 10.46 10
  459.1 16.58 16
  459.2 22.96 22
  459.3 24.92 24
  459.4 21.37 21
  459.7 14.34 14
  459.8 20.58 20
  459.9 24.41 24
  460.0 21.26 21
  460.1 13.45 13
  460.3 10.72 10
  460.4 18.85 18
  460.5 25.39 25
  460.6 24.53 24
  460.7 17.05 17
  460.9 8.46 8
  461.0 15.56 15
  461.1 25.48 25
  461.2 30.11 30
  461.3 25.44 25
  461.4 15.16 15
  461.6 9.53 9
  461.7 18.36 18
  461.8 26.02 25
  461.9 25.44 25
  462.0 17.36 17
  462.2 9.44 9
  462.3 17.03 17
  462.4 25.51 25
  462.5 27.56 27
  462.6 22.05 22
  462.9 15.32 15
  463.0 22.89 22
  463.1 27.03 27
  463.2 23.94 23
  463.3 16.23 16
  463.5 10.3 10
  463.6 15.86 15
  463.7 22.12 22
  463.8 23.78 23
  463.9 19.27 19
  464.1 9.74 9
  464.2 14.37 14
  464.3 22.99 22
  464.4 28.19 28
  464.5 25.11 25
  464.6 16.0 15
  464.8 8.6 8
  464.9 15.98 15
  465.0 23.5 23
  465.1 24.41 24
  465.2 18.29 18
  465.4 9.95 9
  465.5 15.32 15
  465.6 21.79 21
  465.7 22.96 22
  465.8 17.96 17
  466.0 11.38 11
  466.1 17.01 16
  466.2 23.78 23
  466.3 25.13 25
  466.4 19.29 19
  466.7 10.42 10
  466.8 19.62 19
  466.9 26.91 26
  467.0 26.09 26
  467.1 17.85 17
  467.3 7.26 7
  467.4 12.57 12
  467.5 20.3 20
  467.6 24.71 24
  467.7 23.45 23
  467.8 18.22 18
  468.0 13.64 13
  468.1 19.41 19
  468.2 25.23 25
  468.3 24.46 24
  468.4 16.65 16
  468.6 7.19 7
  468.7 13.48 13
  468.8 21.42 21
  468.9 24.01 23
  469.0 19.43 19
  469.2 9.81 9
  469.3 14.13 14
  469.4 21.65 21
  469.5 25.88 25
  469.6 23.27 23
  469.7 16.21 16
  469.9 11.73 11
  470.0 17.66 17
  470.1 22.92 22
  470.2 22.26 22
  470.3 15.91 15
  470.5 9.06 9
  470.6 15.42 15
  470.7 22.85 22
  470.8 24.5 24
  470.9 19.13 19
  471.1 9.23 9
  471.2 13.88 13
  471.3 22.7 22
  471.4 29.39 29
  471.5 28.83 28
  471.6 21.02 20
  471.8 9.58 9
  471.9 15.28 15
  472.0 23.34 23
  472.1 25.74 25
  472.2 20.14 20
  472.5 12.19 12
  472.6 19.83 19
  472.7 24.06 24
  472.8 21.21 21
  472.9 14.34 14
  473.1 12.75 12
  473.2 19.72 19
  473.3 25.18 25
  473.4 24.48 24
  473.5 17.24 17
  473.7 5.37 5
  473.8 11.98 11
  473.9 23.76 23
  474.0 30.41 30
  474.1 26.09 26
  474.2 15.35 15
  474.4 10.25 10
  474.5 18.55 18
  474.6 25.34 25
  474.7 24.64 24
  474.8 17.03 17
  475.0 7.8 7
  475.1 14.11 14
  475.2 22.68 22
  475.3 26.33 26
  475.4 22.12 22
  475.5 14.09 14
  475.7 12.82 12
  475.8 20.72 20
  475.9 26.42 26
  476.0 25.23 25
  476.1 18.1 18
  476.3 9.02 9
  476.4 13.92 13
  476.5 20.65 20
  476.6 23.34 23
  476.7 20.77 20
  477.5 14.3 14
  477.6 18.45 18
  477.7 24.5 24
  477.8 27.87 27
  477.9 25.39 25
  478.0 18.5 18
  478.2 12.71 12
  478.3 19.69 19
  478.4 27.75 27
  478.5 29.55 29
  478.6 23.2 23
  478.7 13.97 13
  478.9 12.75 12
  479.0 20.02 19
  479.1 24.5 24
  479.2 22.26 22
  479.3 15.16 15
  479.5 10.68 10
  479.6 18.66 18
  479.7 27.05 27
  479.8 28.4 28
  479.9 21.63 21
  480.1 10.89 10
  480.2 15.93 15
  480.3 22.75 22
  480.4 24.85 24
  480.5 20.51 20
  480.8 13.62 13
  480.9 22.28 22
  481.0 29.2 29
  481.1 28.57 28
  481.2 20.79 20
  481.3 12.26 12
  481.5 12.73 12
  481.6 18.29 18
  481.7 21.07 21
  481.8 19.25 19
  482.1 13.9 13
  482.2 20.23 20
  482.3 25.09 25
  482.4 22.94 22
  482.5 14.67 14
  482.7 7.15 7
  482.8 13.78 13
  482.9 21.28 21
  483.0 24.04 24
  483.1 20.93 20
  484.0 8.29 8
  484.1 16.73 16
  484.2 23.36 23
  484.3 21.61 21
  484.4 13.31 13
  484.6 7.38 7
  484.7 15.14 15
  484.8 23.52 23
  484.9 26.12 26
  485.0 21.3 21
  485.1 13.29 13
  485.3 11.19 11
  485.4 18.22 18
  485.5 23.24 23
  485.6 21.96 21
  485.7 16.28 16
  485.9 12.5 12
  486.0 17.54 17
  486.1 22.7 22
  486.2 23.24 23
  486.3 17.85 17
  486.5 8.11 8
  486.6 13.81 13
  486.7 23.45 23
  486.8 28.52 28
  486.9 24.08 24
  487.0 13.88 13
  487.2 9.02 9
  487.3 17.68 17
  487.4 25.37 25
  487.5 26.05 26
  487.6 19.74 19
  487.9 12.94 12
  488.0 20.53 20
  488.1 24.76 24
  488.2 21.84 21
  488.5 13.41 13
  488.6 22.05 22
  488.7 27.98 27
  488.8 25.48 25
  488.9 17.17 17
  489.1 11.28 11
  489.2 17.59 17
  489.3 24.13 24
  489.4 25.58 25
  489.5 20.32 20
  489.8 12.73 12
  489.9 21.54 21
  490.0 26.84 26
  490.1 22.96 22
  490.2 12.31 12
  490.4 6.56 6
  490.5 17.54 17
  490.6 27.8 27
  490.7 28.83 28
  490.8 20.65 20
  491.0 8.27 8
  491.1 14.34 14
  491.2 23.62 23
  491.3 27.87 27
  491.4 23.66 23
  491.5 15.49 15
  491.7 12.8 12
  491.8 18.2 18
  491.9 21.26 21
  492.0 19.46 19
  492.2 14.2 14
  492.3 17.89 17
  492.4 24.11 24
  492.5 27.73 27
  492.6 25.32 25
  492.7 17.85 17
  492.9 9.23 9
  493.0 14.39 14
  493.1 21.14 21
  493.2 23.57 23
  493.3 20.02 19
  493.6 13.78 13
  493.7 20.56 20
  493.8 25.65 25
  493.9 24.29 24
  494.0 17.24 17
  494.2 11.94 11
  494.3 19.86 19
  494.4 28.24 28
  494.5 30.09 30
  494.6 23.5 23
  494.7 13.57 13
  494.9 11.17 11
  495.0 19.41 19
  495.1 25.25 25
  495.2 23.9 23
  495.3 17.22 17
  495.5 10.77 10
  495.6 15.18 15
  495.7 19.46 19
  495.8 18.69 18
  496.1 10.79 10
  496.2 18.52 18
  496.3 26.0 25
  496.4 26.86 26
  496.5 19.86 19
  496.6 10.04 10
  496.8 7.47 7
  496.9 16.37 16
  497.0 24.57 24
  497.1 26.14 26
  497.2 20.74 20
  497.4 12.15 12
  497.5 16.63 16
  497.6 22.63 22
  497.7 24.36 24
  497.8 20.35 20
  497.9 14.32 14
  498.1 13.76 13
  498.2 18.59 18
  498.3 21.65 21
  498.4 20.28 20
  498.7 14.67 14
  498.8 20.88 20
  498.9 26.47 26
  499.0 25.91 25
  499.1 18.94 18
  499.3 10.72 10
  499.4 17.87 17
  499.5 26.91 26
  499.6 29.76 29
  499.7 23.5 23
  499.8 13.31 13
  500.0 11.35 11
  500.1 19.53 19
  500.2 24.15 24
  500.3 20.6 20
  500.6 10.89 10
  500.7 20.93 20
  500.8 28.71 28
  500.9 27.87 27
  501.0 19.29 19
  501.1 9.62 9
  501.3 9.53 9
  501.4 17.36 17
  501.5 22.66 22
  501.6 21.23 21
  501.7 14.53 14
  501.9 11.1 11
  502.0 19.64 19
  502.1 27.4 27
  502.2 27.52 27
  502.3 20.37 20
  502.5 12.45 12
  502.6 18.15 18
  502.7 24.57 24
  502.8 25.93 25
  502.9 21.3 21
  503.0 14.55 14
  503.2 12.47 12
  503.3 17.71 17
  503.4 21.56 21
  503.5 19.72 19
  503.8 11.73 11
  503.9 21.3 21
  504.0 29.18 29
  504.1 28.31 28
  504.2 19.81 19
  504.4 10.37 10
  504.5 16.61 16
  504.6 25.06 25
  504.7 29.67 29
  504.8 27.89 27
  504.9 22.12 22
  505.8 11.61 11
  505.9 18.45 18
  506.0 23.1 23
  506.1 20.53 20
  507.0 10.98 10
  507.1 17.15 17
  507.2 22.28 22
  507.3 22.17 22
  507.4 17.36 17
  507.6 12.68 12
  507.7 18.01 17
  507.8 24.18 24
  507.9 25.69 25
  508.0 20.84 20
  508.3 11.84 11
  508.4 21.37 21
  508.5 29.22 29
  508.6 28.5 28
  508.7 20.25 20
  508.9 11.61 11
  509.0 17.61 17
  509.1 24.55 24
  509.2 26.93 26
  509.3 23.85 23
  509.6 17.78 17
  509.7 22.87 22
  509.8 26.47 26
  509.9 23.9 23
  510.0 15.67 15
  510.2 9.06 9
  510.3 17.1 17
  510.4 25.86 25
  510.5 27.91 27
  510.6 21.26 21
  510.7 11.19 11
  510.9 9.86 9
  511.0 19.11 19
  511.1 25.79 25
  511.2 24.48 24
  511.3 16.26 16
  511.5 6.77 6
  511.6 14.44 14
  511.7 24.32 24
  511.8 27.07 27
  511.9 20.16 20
  512.1 8.25 8
  512.2 14.86 14
  512.3 24.01 23
  512.4 26.86 26
  512.5 20.53 20
  512.8 10.42 10
  512.9 20.6 20
  513.0 28.17 28
  513.1 27.1 27
  513.2 18.59 18
  513.4 9.18 9
  513.5 15.58 15
  513.6 22.85 22
  513.7 24.29 24
  513.8 18.97 18
  514.0 9.86 9
  514.1 15.39 15
  514.2 24.67 24
  514.3 30.25 30
  514.4 27.54 27
  514.5 18.78 18
  514.7 9.39 9
  514.8 15.04 15
  514.9 23.22 23
  515.0 27.05 27
  515.1 22.66 22
  515.2 13.27 13
  515.4 10.44 10
  515.5 18.97 18
  515.6 24.25 24
  515.7 21.56 21
  516.0 13.17 13
  516.1 21.07 21
  516.2 26.56 26
  516.3 24.48 24
  516.4 16.51 16
  516.6 9.79 9
  516.7 15.93 15
  516.8 22.33 22
  516.9 23.34 23
  517.0 18.38 18
  517.2 10.68 10
  517.3 15.11 15
  517.4 22.17 22
  517.5 26.28 26
  517.6 24.11 24
  517.7 17.24 17
  517.9 11.59 11
  518.0 17.43 17
  518.1 23.17 23
  518.2 23.36 23
  518.3 17.64 17
  518.5 8.04 8
  518.6 12.71 12
  518.7 20.95 20
  518.8 25.39 25
  518.9 21.77 21
  519.0 13.48 13
  519.2 10.75 10
  519.3 18.45 18
  519.4 24.92 24
  519.5 24.76 24
  519.6 17.96 17
  519.8 8.69 8
  519.9 15.56 15
  520.0 24.99 24
  520.1 28.38 28
  520.2 23.08 23
  520.3 14.72 14
  521.1 10.35 10
  521.2 18.66 18
  521.3 24.83 24
  521.4 24.95 24
  521.5 19.88 19
  521.6 13.17 13
  521.8 10.56 10
  521.9 17.47 17
  522.0 24.22 24
  522.1 24.67 24
  522.2 18.9 18
  522.4 15.0 14
  522.5 20.3 20
  522.6 23.1 23
  522.7 19.76 19
  522.8 13.1 13
  523.0 11.94 11
  523.1 18.17 18
  523.2 22.42 22
  523.3 21.28 21
  523.4 15.93 15
  523.6 10.49 10
  523.7 15.09 15
  523.8 21.33 21
  523.9 24.6 24
  524.0 22.35 22
  524.1 15.98 15
  524.3 10.02 10
  524.4 15.7 15
  524.5 22.61 22
  524.6 24.99 24
  524.7 20.74 20
  525.6 8.13 8
  525.7 16.65 16
  525.8 23.15 23
  525.9 22.14 22
  526.0 15.18 15
  526.2 8.99 8
  526.3 15.35 15
  526.4 23.15 23
  526.5 26.65 26
  526.6 23.1 23
  526.7 14.93 14
  526.9 8.74 8
  527.0 15.16 15
  527.1 21.09 21
  527.2 20.65 20
  527.3 14.37 14
  527.5 10.14 10
  527.6 17.75 17
  527.7 25.13 25
  527.8 25.91 25
  527.9 19.83 19
  528.1 11.14 11
  528.2 16.54 16
  528.3 23.62 23
  528.4 25.18 25
  528.5 18.97 18
  528.8 9.67 9
  528.9 18.8 18
  529.0 25.55 25
  529.1 24.78 24
  529.2 18.1 18
  529.4 11.59 11
  529.5 16.84 16
  529.6 22.26 22
  529.7 22.05 22
  529.8 15.84 15
  530.0 9.13 9
  530.1 16.35 16
  530.2 25.67 25
  530.3 29.88 29
  530.4 25.53 25
  530.5 15.81 15
  530.7 9.39 9
  530.8 17.85 17
  530.9 26.54 26
  531.0 28.17 28
  531.1 21.68 21
  531.2 12.5 12
  531.4 10.37 10
  531.5 17.52 17
  531.6 22.05 22
  531.7 19.27 19
  532.0 11.33 11
  532.1 20.7 20
  532.2 27.66 27
  532.3 26.56 26
  532.4 18.85 18
  532.6 10.04 10
  532.7 15.42 15
  532.8 22.75 22
  532.9 26.02 25
  533.0 22.28 22
  533.1 14.67 14
  533.3 13.13 13
  533.4 21.12 21
  533.5 26.93 26
  533.6 25.79 25
  533.7 19.43 19
  533.9 13.74 13
  534.0 18.8 18
  534.1 24.08 24
  534.2 23.9 23
  534.3 17.33 17
  534.5 7.26 7
  534.6 12.57 12
  534.7 20.88 20
  534.8 24.83 24
  534.9 20.37 20
  535.0 11.17 11
  535.2 9.37 9
  535.3 19.15 19
  535.4 26.68 26
  535.5 26.05 26
  535.6 18.78 18
  535.8 12.26 12
  535.9 19.43 19
  536.0 27.28 27
  536.1 28.64 28
  536.2 21.7 21
  536.3 11.84 11
  536.5 9.27 9
  536.6 16.7 16
  536.7 22.14 22
  536.8 21.21 21
  537.1 14.39 14
  537.2 22.33 22
  537.3 28.22 28
  537.4 25.58 25
  537.5 15.28 15
  537.7 4.91 4
  537.8 13.74 13
  537.9 25.06 25
  538.0 30.04 30
  538.1 24.95 24
  538.2 14.13 14
  538.4 8.2 8
  538.5 16.75 16
  538.6 23.9 23
  538.7 23.76 23
  538.8 17.43 17
  539.1 10.63 10
  539.2 16.28 16
  539.3 19.69 19
  539.4 17.71 17
  539.6 8.95 8
  539.7 12.64 12
  539.8 21.26 21
  539.9 27.82 27
  540.0 27.21 27
  540.1 21.21 21
  540.3 15.86 15
  540.4 19.72 19
  540.5 22.96 22
  540.6 22.17 22
  540.7 17.8 17
  540.9 12.36 12
  541.0 15.86 15
  541.1 21.37 21
  541.2 24.81 24
  541.3 23.13 23
  541.4 17.33 17
  541.6 12.38 12
  541.7 17.73 17
  541.8 22.47 22
  541.9 20.91 20
  542.0 13.9 13
  542.2 10.53 10
  542.3 19.13 19
  542.4 27.07 27
  542.5 27.91 27
  542.6 21.37 21
  542.9 13.95 13
  543.0 21.33 21
  543.1 26.05 26
  543.2 24.36 24
  543.3 18.06 18
  543.5 14.09 14
  543.6 20.37 20
  543.7 25.86 25
  543.8 25.02 24
  543.9 18.29 18
  544.1 11.68 11
  544.2 17.05 17
  544.3 22.19 22
  544.4 21.58 21
  544.5 15.07 15
  544.7 4.44 4
  544.8 9.04 9
  544.9 18.87 18
  545.0 27.33 27
  545.1 28.29 28
  545.2 21.56 21
  545.4 13.22 13
  545.5 19.69 19
  545.6 25.84 25
  545.7 24.55 24
  545.8 16.68 16
  546.0 8.97 8
  546.1 15.44 15
  546.2 24.6 24
  546.3 30.51 30
  546.4 28.99 28
  546.5 20.91 20
  546.7 11.4 11
  546.8 17.87 17
  546.9 25.27 25
  547.0 25.51 25
  547.1 17.31 17
  547.3 4.95 4
  547.4 11.98 11
  547.5 23.01 22
  547.6 28.92 28
  547.7 25.04 25
  547.8 15.65 15
  548.0 12.03 12
  548.1 19.6 19
  548.2 25.18 25
  548.3 24.32 24
  548.4 17.89 17
  548.6 8.78 8
  548.7 13.06 13
  548.8 20.21 20
  548.9 24.15 24
  549.0 21.72 21
  549.3 13.92 13
  549.4 21.4 21
  549.5 27.59 27
  549.6 26.91 26
  549.7 19.57 19
  549.9 10.63 10
  550.0 16.65 16
  550.1 23.8 23
  550.2 24.99 24
  550.3 19.13 19
  550.5 9.9 9
  550.6 15.02 15
  550.7 22.61 22
  550.8 26.02 25
  550.9 22.14 22
  551.0 14.23 14
  551.2 11.49 11
  551.3 19.04 19
  551.4 25.32 25
  551.5 25.55 25
  551.6 20.63 20
  551.8 13.85 13
  551.9 17.15 17
  552.0 22.31 22
  552.1 24.34 24
  552.2 20.39 20
  552.4 10.16 10
  552.5 14.58 14
  552.6 22.75 22
  552.7 26.37 26
  552.8 21.02 20
  552.9 10.84 10
  553.1 7.01 7
  553.2 15.84 15
  553.3 23.55 23
  553.4 24.18 24
  553.5 18.2 18
  553.7 9.93 9
  553.8 14.55 14
  553.9 21.02 20
  554.0 23.73 23
  554.1 20.51 20
  554.2 13.88 13
  554.4 11.28 11
  554.5 19.55 19
  554.6 26.98 26
  554.7 25.72 25
  554.8 15.81 15
  555.0 5.91 5
  555.1 14.39 14
  555.2 23.52 23
  555.3 25.62 25
  555.4 20.35 20
  556.2 13.57 13
  556.3 17.17 17
  556.4 22.75 22
  556.5 25.79 25
  556.6 23.22 23
  556.7 16.3 16
  556.9 10.28 10
  557.0 16.91 16
  557.1 25.11 25
  557.2 28.22 28
  557.3 23.76 23
  557.4 15.6 15
  557.6 12.15 12
  557.7 19.29 19
  557.8 25.98 25
  557.9 26.23 26
  558.0 19.57 19
  558.2 9.74 9
  558.3 14.37 14
  558.4 20.81 20
  558.5 23.38 23
  558.6 20.21 20
  558.9 12.66 12
  559.0 19.69 19
  559.1 25.55 25
  559.2 24.6 24
  559.3 17.19 17
  559.5 9.76 9
  559.6 16.16 16
  559.7 22.68 22
  559.8 23.22 23
  559.9 17.66 17
  560.1 10.44 10
  560.2 15.95 15
  560.3 23.5 23
  560.4 26.79 26
  560.5 23.06 23
  560.6 15.18 15
  560.8 9.02 9
  560.9 15.18 15
  561.0 22.07 22
  561.1 23.45 23
  561.2 18.24 18
  561.4 10.56 10
  561.5 16.58 16
  561.6 24.97 24
  561.7 28.66 28
  561.8 24.74 24
  561.9 17.01 16
  562.1 15.04 15
  562.2 21.7 21
  562.3 25.13 25
  562.4 21.0 20
  562.7 12.59 12
  562.8 20.72 20
  562.9 25.6 25
  563.0 23.64 23
  563.1 17.31 17
  563.3 12.75 12
  563.4 18.24 18
  563.5 23.83 23
  563.6 24.32 24
  563.7 19.11 19
  564.0 13.88 13
  564.1 19.48 19
  564.2 23.06 23
  564.3 22.26 22
  564.4 17.96 17
  564.6 13.06 13
  564.7 16.47 16
  564.8 21.23 21
  564.9 23.03 23
  565.0 19.72 19
  565.2 12.45 12
  565.3 17.57 17
  565.4 25.51 25
  565.5 28.66 28
  565.6 23.94 23
  565.7 15.11 15
  565.9 9.95 9
  566.0 17.01 16
  566.1 24.48 24
  566.2 26.02 25
  566.3 20.11 20
  566.4 11.75 11
  566.6 9.81 9
  566.7 16.19 16
  566.8 21.65 21
  566.9 22.35 22
  567.0 18.17 18
  567.2 13.9 13
  567.3 19.93 19
  567.4 26.51 26
  567.5 26.84 26
  567.6 19.18 19
  567.8 5.91 5
  567.9 12.1 12
  568.0 22.35 22
  568.1 26.91 26
  568.2 21.26 21
  568.3 10.58 10
  568.5 9.6 9
  568.6 19.46 19
  568.7 25.2 25
  568.8 22.59 22
  569.1 14.65 14
  569.2 22.03 22
  569.3 27.03 27
  569.4 24.62 24
  569.5 16.07 16
  569.7 7.59 7
  569.8 14.53 14
  569.9 23.45 23
  570.0 27.49 27
  570.1 23.57 23
  570.2 14.86 14
  570.4 9.86 9
  570.5 17.31 17
  570.6 24.22 24
  570.7 25.32 25
  570.8 20.93 20
  571.0 15.11 15
  571.1 19.64 19
  571.2 24.43 24
  571.3 24.04 24
  571.4 18.52 18
  571.6 12.78 12
  571.7 17.57 17
  571.8 23.8 23
  571.9 26.58 26
  572.0 23.45 23
  572.1 16.68 16
  572.3 14.67 14
  572.4 21.63 21
  572.5 26.3 26
  572.6 24.2 24
  572.7 17.24 17
  572.9 10.3 10
  573.0 14.39 14
  573.1 20.44 20
  573.2 24.15 24
  573.3 22.49 22
  573.4 16.42 16
  573.6 11.45 11
  573.7 17.89 17
  573.8 24.67 24
  573.9 25.41 25
  574.0 19.72 19
  574.2 12.99 12
  574.3 18.62 18
  574.4 24.95 24
  574.5 26.09 26
  574.6 20.93 20
  574.8 11.59 11
  574.9 16.05 16
  575.0 23.15 23
  575.1 25.65 25
  575.2 20.79 20
  575.3 12.96 12
  575.5 11.59 11
  575.6 18.76 18
  575.7 24.95 24
  575.8 25.3 25
  575.9 19.9 19
  576.1 13.15 13
  576.2 17.71 17
  576.3 23.62 23
  576.4 26.61 26
  576.5 24.48 24
  576.6 18.45 18
  576.8 13.95 13
  576.9 20.42 20
  577.0 26.77 26
  577.1 26.84 26
  577.2 19.93 19
  577.4 9.37 9
  577.5 15.3 15
  577.6 24.01 23
  577.7 26.84 26
  577.8 20.86 20
  577.9 11.89 11
  578.1 11.87 11
  578.2 18.71 18
  578.3 22.28 22
  578.4 19.95 19
  578.5 14.27 14
  578.7 11.47 11
  578.8 16.63 16
  578.9 21.61 21
  579.0 22.45 22
  579.1 18.34 18
  579.3 11.59 11
  579.4 16.37 16
  579.5 23.29 23
  579.6 25.55 25
  579.7 20.95 20
  579.9 12.29 12
  580.0 16.94 16
  580.1 24.5 24
  580.2 28.66 28
  580.3 25.23 25
  580.4 15.3 15
  580.6 3.46 3
  580.7 9.67 9
  580.8 18.48 18
  580.9 22.28 22
  581.0 18.57 18
  581.2 9.34 9
  581.3 14.16 14
  581.4 22.47 22
  581.5 26.98 26
  581.6 23.87 23
  581.7 16.21 16
  581.9 11.61 11
  582.0 17.54 17
  582.1 23.73 23
  582.2 25.09 25
  582.3 20.02 19
  583.2 8.81 8
  583.3 17.54 17
  583.4 24.25 24
  583.5 24.6 24
  583.6 19.22 19
  584.4 7.43 7
  584.5 11.8 11
  584.6 18.87 18
  584.7 23.1 23
  584.8 21.58 21
  585.1 13.83 13
  585.2 20.95 20
  585.3 26.54 26
  585.4 24.46 24
  585.5 16.26 16
  585.7 10.77 10
  585.8 18.59 18
  585.9 26.49 26
  586.0 27.52 27
  586.1 19.67 19
  586.4 7.69 7
  586.5 19.67 19
  586.6 28.01 27
  586.7 25.39 25
  586.8 14.88 14
  587.0 9.09 9
  587.1 19.04 19
  587.2 27.8 27
  587.3 28.61 28
  587.4 22.0 21
  588.3 11.77 11
  588.4 18.76 18
  588.5 25.37 25
  588.6 26.72 26
  588.7 21.86 21
  588.9 11.87 11
  589.0 16.12 16
  589.1 23.85 23
  589.2 27.28 27
  589.3 22.38 22
  589.4 13.38 13
  589.6 11.14 11
  589.7 18.5 18
  589.8 24.13 24
  589.9 24.36 24
  590.0 20.25 20
  590.2 14.79 14
  590.3 17.73 17
  590.4 21.58 21
  590.5 22.24 22
  590.6 18.34 18
  590.8 11.05 11
  590.9 14.72 14
  591.0 21.47 21
  591.1 25.86 25
  591.2 23.83 23
  591.3 16.19 16
  591.5 6.87 6
  591.6 12.33 12
  591.7 20.42 20
  591.8 24.9 24
  591.9 22.94 22
  592.2 15.63 15
  592.3 22.14 22
  592.4 26.07 26
  592.5 23.1 23
  592.6 15.81 15
  592.8 13.17 13
  592.9 20.58 20
  593.0 26.51 26
  593.1 25.04 25
  593.2 16.35 16
  593.4 5.51 5
  593.5 12.45 12
  593.6 21.98 21
  593.7 26.16 26
  593.8 22.14 22
  593.9 14.18 14
  594.1 11.35 11
  594.2 17.92 17
  594.3 22.85 22
  594.4 21.12 21
  594.5 13.45 13
  594.7 6.52 6
  594.8 14.69 14
  594.9 24.01 23
  595.0 27.0 26
  595.1 22.45 22
  596.6 12.59 12
  596.7 20.72 20
  596.8 28.45 28
  596.9 29.34 29
  597.0 22.33 22
  597.9 11.05 11
  598.0 18.78 18
  598.1 26.09 26
  598.2 28.01 27
  598.3 23.62 23
  599.2 14.53 14
  599.3 23.38 23
  599.4 29.08 29
  599.5 26.72 26
  599.6 18.71 18
//
