ACCESSION: MSBNK-RIKEN_NPDepo-NGA03569
RECORD_TITLE: Kokanidin; LC-ESI-QQQ; MS2; Frag=135.0V CID@25.0; [M+HCOO]-
DATE: 2018.04.04
AUTHORS: Nogawa T, Okano A, CSRS, RIKEN
LICENSE: CC BY
COMMENT: Origin: Plant, Coumarins, Coumarin terpenoids
CH$NAME: Kokanidin
CH$COMPOUND_CLASS: Benzopyranoids
CH$FORMULA: C26H34O6
CH$EXACT_MASS: 442.5573
CH$SMILES: CC(=O)OC1CC[C@]2(C)C(CC[C@@](C)(O)[C@H]2COc2ccc3ccc(=O)oc3c2)C1(C)C
CH$IUPAC: InChI=1S/C26H34O6/c1-16(27)31-22-11-12-25(4)20(24(22,2)3)10-13-26(5,29)21(25)15-30-18-8-6-17-7-9-23(28)32-19(17)14-18/h6-9,14,20-22,29H,10-13,15H2,1-5H3/t20?,21-,22?,25+,26+/m0/s1
CH$LINK: INCHIKEY RIPKCRCUFJSKKD-FBQVDBQASA-N
CH$LINK: PUBCHEM CID:126961508
AC$INSTRUMENT: Agilent 6410 Triple Quadrupole LC/MS system
AC$INSTRUMENT_TYPE: LC-ESI-QQQ
AC$MASS_SPECTROMETRY: MS_TYPE MS2
AC$MASS_SPECTROMETRY: ION_MODE NEGATIVE
MS$FOCUSED_ION: PRECURSOR_TYPE [M+HCOO]-
PK$SPLASH: splash10-076u-4888890000-d3aac9e3e92162875f01
PK$NUM_PEAK: 4165
PK$PEAK: m/z int. rel.int.
  51.2 10.27 10
  51.3 16.89 16
  51.4 22.61 22
  51.5 22.56 22
  51.6 16.6 16
  51.7 8.79 8
  51.9 6.64 6
  52.0 13.79 13
  52.1 20.97 20
  52.2 23.03 23
  52.3 18.9 18
  52.4 12.34 12
  52.6 10.13 10
  52.7 14.14 14
  52.8 15.69 15
  52.9 12.71 12
  53.1 9.33 9
  53.2 15.36 15
  53.3 21.53 21
  53.4 21.95 21
  53.5 16.16 16
  53.8 8.94 8
  53.9 14.56 14
  54.0 17.92 17
  54.1 16.39 16
  54.2 11.49 11
  54.4 7.41 7
  54.5 13.27 13
  54.6 21.41 21
  54.7 25.75 25
  54.8 22.37 22
  54.9 13.65 13
  55.1 9.57 9
  55.2 18.18 18
  55.3 24.65 24
  55.4 22.58 22
  55.5 14.02 14
  55.7 5.49 5
  55.8 11.4 11
  55.9 18.83 18
  56.0 21.48 21
  56.1 17.35 17
  56.9 2.11 2
  57.0 6.97 6
  57.1 16.49 16
  57.2 23.19 23
  57.3 21.69 21
  57.4 13.34 13
  57.6 5.44 5
  57.7 12.88 12
  57.8 20.52 20
  57.9 21.15 21
  58.0 14.59 14
  58.2 5.51 5
  58.3 10.67 10
  58.4 17.99 17
  58.5 21.41 21
  58.6 18.27 18
  58.7 10.95 10
  58.9 5.39 5
  59.0 11.44 11
  59.1 17.87 17
  59.2 19.47 19
  59.3 15.36 15
  59.5 7.55 7
  59.6 10.86 10
  59.7 16.56 16
  59.8 19.09 19
  59.9 15.92 15
  60.0 9.9 9
  60.2 8.47 8
  60.3 14.68 14
  60.4 19.75 19
  60.5 19.21 19
  60.6 13.41 13
  60.8 7.48 7
  60.9 12.69 12
  61.0 18.32 18
  61.1 19.02 19
  61.2 13.34 13
  61.5 3.85 3
  61.6 12.76 12
  61.7 20.03 20
  61.8 19.91 19
  61.9 13.37 13
  62.1 5.84 5
  62.2 11.02 11
  62.3 17.38 17
  62.4 19.93 19
  62.5 17.61 17
  62.7 12.48 12
  62.8 15.9 15
  62.9 21.36 21
  63.0 24.18 24
  63.1 21.88 21
  63.2 16.18 16
  63.4 11.84 11
  63.5 16.02 16
  63.6 19.07 19
  63.7 16.7 16
  63.8 10.3 10
  64.0 7.04 7
  64.1 13.56 13
  64.2 20.19 20
  64.3 21.69 21
  64.4 17.12 17
  64.6 9.43 9
  64.7 14.17 14
  64.8 20.59 20
  64.9 22.26 22
  65.0 16.53 16
  65.3 5.77 5
  65.4 16.11 16
  65.5 24.2 24
  65.6 23.33 23
  65.7 14.56 14
  65.9 2.35 2
  66.0 8.61 8
  66.1 18.71 18
  66.2 24.09 24
  66.3 20.31 20
  66.4 11.12 11
  66.6 6.47 6
  66.7 13.98 13
  66.8 20.99 20
  66.9 22.73 22
  67.0 19.37 19
  67.1 14.75 14
  67.8 10.76 10
  67.9 13.58 13
  68.0 17.33 17
  68.1 19.32 19
  68.2 17.42 17
  68.3 12.31 12
  68.5 7.83 7
  68.6 12.99 12
  68.7 19.63 19
  68.8 22.23 22
  68.9 17.96 17
  69.0 10.23 10
  69.8 5.18 5
  69.9 13.93 13
  70.0 23.12 23
  70.1 26.31 26
  70.2 21.86 21
  70.3 14.42 14
  71.0 3.4 3
  71.1 8.56 8
  71.2 17.66 17
  71.3 23.22 23
  71.4 20.36 20
  71.5 11.09 11
  71.7 2.67 2
  71.8 10.06 10
  71.9 18.29 18
  72.0 20.22 20
  72.1 14.82 14
  72.3 5.46 5
  72.4 10.23 10
  72.5 17.64 17
  72.6 21.18 21
  72.7 17.73 17
  72.8 10.18 10
  73.0 5.63 5
  73.1 12.17 12
  73.2 18.83 18
  73.3 20.08 20
  73.4 14.94 14
  73.6 5.93 5
  73.7 10.15 10
  73.8 17.05 17
  73.9 20.36 20
  74.0 17.21 17
  74.1 10.62 10
  74.3 8.51 8
  74.4 13.32 13
  74.5 15.97 15
  74.6 14.09 14
  74.9 8.75 8
  75.0 13.58 13
  75.1 17.64 17
  75.2 17.42 17
  75.3 12.9 12
  75.5 6.1 6
  75.6 9.83 9
  75.7 14.89 14
  75.8 15.76 15
  75.9 11.02 11
  76.1 4.55 4
  76.2 9.73 9
  76.3 16.84 16
  76.4 20.52 20
  76.5 18.34 18
  76.6 12.12 12
  76.8 6.47 6
  76.9 11.87 11
  77.0 18.27 18
  77.1 20.38 20
  77.2 17.0 16
  78.0 11.42 11
  78.1 14.68 14
  78.2 20.94 20
  78.3 25.0 24
  78.4 22.61 22
  78.5 14.59 14
  78.7 6.54 6
  78.8 14.17 14
  78.9 23.57 23
  79.0 26.69 26
  79.1 20.52 20
  79.2 9.71 9
  79.4 3.66 3
  79.5 11.47 11
  79.6 18.81 18
  79.7 19.82 19
  79.8 14.66 14
  80.0 7.67 7
  80.1 12.08 12
  80.2 17.68 17
  80.3 18.95 18
  80.4 14.61 14
  80.7 9.01 9
  80.8 15.17 15
  80.9 19.54 19
  81.0 18.64 18
  81.1 13.27 13
  81.3 7.93 7
  81.4 13.67 13
  81.5 20.24 20
  81.6 21.15 21
  81.7 14.99 14
  81.9 5.65 5
  82.0 11.77 11
  82.1 20.26 20
  82.2 23.66 23
  82.3 19.47 19
  82.4 11.87 11
  82.6 10.41 10
  82.7 17.24 17
  82.8 22.33 22
  82.9 21.22 21
  83.0 14.28 14
  83.2 5.11 5
  83.3 10.13 10
  83.4 16.98 16
  83.5 19.32 19
  83.6 15.24 15
  83.8 5.84 5
  83.9 9.99 9
  84.0 18.36 18
  84.1 23.57 23
  84.2 20.47 20
  84.3 11.37 11
  84.5 5.77 5
  84.6 13.48 13
  84.7 19.98 19
  84.8 19.28 19
  84.9 12.45 12
  85.1 6.61 6
  85.2 13.3 13
  85.3 20.78 20
  85.4 23.26 23
  85.5 19.16 19
  85.6 11.59 11
  85.8 8.82 8
  85.9 16.35 16
  86.0 22.49 22
  86.1 21.6 21
  86.2 14.47 14
  86.4 5.39 5
  86.5 10.62 10
  86.6 17.85 17
  86.7 20.15 20
  86.8 15.34 15
  87.1 8.28 8
  87.2 14.75 14
  87.3 18.67 18
  87.4 17.03 17
  87.5 11.59 11
  87.7 8.02 8
  87.8 13.37 13
  87.9 19.25 19
  88.0 20.76 20
  88.1 16.32 16
  88.3 8.23 8
  88.4 13.6 13
  88.5 20.9 20
  88.6 22.35 22
  88.7 15.67 15
  88.8 6.12 6
  89.0 5.37 5
  89.1 13.44 13
  89.2 18.83 18
  89.3 17.59 17
  89.4 11.56 11
  89.6 6.12 6
  89.7 11.21 11
  89.8 17.21 17
  89.9 19.07 19
  90.0 15.06 15
  90.3 8.82 8
  90.4 16.14 16
  90.5 22.02 21
  90.6 21.58 21
  90.7 14.99 14
  90.9 6.61 6
  91.0 11.63 11
  91.1 17.33 17
  91.2 17.54 17
  91.3 11.73 11
  91.5 5.51 5
  91.6 12.73 12
  91.7 21.53 21
  91.8 23.97 23
  91.9 17.38 17
  92.0 6.87 6
  92.2 4.69 4
  92.3 13.53 13
  92.4 19.09 19
  92.5 16.11 16
  92.8 5.93 5
  92.9 15.99 15
  93.0 24.16 24
  93.1 24.25 24
  93.2 17.47 17
  93.5 10.76 10
  93.6 16.89 16
  93.7 21.44 21
  93.8 20.94 20
  93.9 15.85 15
  94.1 10.2 10
  94.2 14.87 14
  94.3 20.71 20
  94.4 23.12 23
  94.5 20.12 20
  94.6 13.81 13
  94.8 9.9 9
  94.9 15.24 15
  95.0 19.49 19
  95.1 17.71 17
  95.2 11.0 10
  95.4 6.75 6
  95.5 13.32 13
  95.6 19.49 19
  95.7 20.43 20
  95.8 16.21 16
  96.0 9.4 9
  96.1 12.95 12
  96.2 18.41 18
  96.3 20.54 20
  96.4 16.58 16
  96.7 9.76 9
  96.8 17.94 17
  96.9 22.87 22
  97.0 19.82 19
  97.1 11.37 11
  97.3 6.24 6
  97.4 14.19 14
  97.5 21.93 21
  97.6 22.84 22
  97.7 16.58 16
  98.5 6.14 6
  98.6 8.98 8
  98.7 13.98 13
  98.8 16.89 16
  98.9 14.85 14
  99.0 9.29 9
  99.2 7.34 7
  99.3 13.16 13
  99.4 17.57 17
  99.5 17.14 17
  99.6 13.06 13
  99.8 6.71 6
  99.9 9.38 9
  100.0 14.89 14
  100.1 18.2 18
  100.2 15.36 15
  100.3 8.37 8
  100.5 5.96 5
  100.6 13.44 13
  100.7 20.45 20
  100.8 21.67 21
  100.9 16.18 16
  101.1 5.61 5
  101.2 10.83 10
  101.3 19.98 19
  101.4 24.91 24
  101.5 21.06 21
  101.6 11.91 11
  101.8 5.86 5
  101.9 12.45 12
  102.0 19.02 19
  102.1 20.45 20
  102.2 16.32 16
  103.0 5.16 5
  103.1 9.15 9
  103.2 15.31 15
  103.3 18.83 18
  103.4 17.24 17
  103.5 12.17 12
  103.7 9.59 9
  103.8 14.66 14
  103.9 18.55 18
  104.0 17.61 17
  104.1 12.92 12
  104.3 7.88 7
  104.4 11.63 11
  104.5 17.12 17
  104.6 19.96 19
  104.7 17.19 17
  104.8 10.41 10
  105.0 5.65 5
  105.1 11.44 11
  105.2 17.07 17
  105.3 17.85 17
  105.4 14.14 14
  105.6 10.93 10
  105.7 14.85 14
  105.8 18.5 18
  105.9 18.5 18
  106.0 15.08 15
  106.1 11.0 10
  106.3 10.2 10
  106.4 13.39 13
  106.5 15.55 15
  106.6 13.65 13
  106.8 5.72 5
  106.9 9.4 9
  107.0 17.42 17
  107.1 23.36 23
  107.2 22.63 22
  107.3 16.56 16
  108.2 7.15 7
  108.3 14.21 14
  108.4 21.51 21
  108.5 22.82 22
  108.6 17.19 17
  109.4 6.4 6
  109.5 10.2 10
  109.6 19.35 19
  109.7 25.8 25
  109.8 23.69 23
  109.9 14.87 14
  110.1 7.69 7
  110.2 14.33 14
  110.3 19.75 19
  110.4 18.25 18
  110.5 11.16 11
  110.7 4.95 4
  110.8 11.16 11
  110.9 18.6 18
  111.0 21.34 21
  111.1 17.24 17
  111.2 9.64 9
  111.4 6.75 6
  111.5 14.07 14
  111.6 20.9 20
  111.7 21.76 21
  111.8 16.23 16
  112.6 4.83 4
  112.7 7.58 7
  112.8 13.25 13
  112.9 17.94 17
  113.0 18.03 18
  113.1 13.39 13
  113.3 6.61 6
  113.4 9.92 9
  113.5 14.7 14
  113.6 17.07 17
  113.7 15.78 15
  113.8 12.41 12
  114.0 10.98 10
  114.1 14.68 14
  114.2 17.52 17
  114.3 16.14 16
  114.4 11.52 11
  114.6 9.92 9
  114.7 14.68 14
  114.8 17.96 17
  114.9 16.98 16
  115.0 13.18 13
  115.2 11.02 11
  115.3 13.81 13
  115.4 15.06 15
  115.5 12.76 12
  115.7 5.86 5
  115.8 8.02 8
  115.9 15.06 15
  116.0 22.96 22
  116.1 25.8 25
  116.2 20.71 20
  116.3 11.23 11
  116.5 7.18 7
  116.6 15.36 15
  116.7 22.26 22
  116.8 22.42 22
  116.9 16.89 16
  117.0 10.88 10
  117.2 10.6 10
  117.3 14.66 14
  117.4 17.45 17
  117.5 16.11 16
  117.6 10.88 10
  117.8 7.79 7
  117.9 15.06 15
  118.0 22.35 22
  118.1 23.17 23
  118.2 16.74 16
  119.0 6.97 6
  119.1 10.37 10
  119.2 16.6 16
  119.3 20.33 20
  119.4 18.81 18
  119.5 14.31 14
  119.7 13.06 13
  119.8 17.28 17
  119.9 19.93 19
  120.0 18.03 18
  120.1 12.71 12
  120.3 8.82 8
  120.4 14.17 14
  120.5 20.52 20
  120.6 23.15 23
  120.7 19.96 19
  120.8 13.41 13
  121.0 10.11 10
  121.1 15.01 14
  121.2 17.59 17
  121.3 14.38 14
  121.6 7.65 7
  121.7 14.35 14
  121.8 19.58 19
  121.9 19.28 19
  122.0 13.84 13
  122.3 7.67 7
  122.4 13.16 13
  122.5 16.67 16
  122.6 15.88 15
  122.9 11.05 11
  123.0 16.42 16
  123.1 21.44 21
  123.2 20.83 20
  123.3 13.88 13
  123.5 3.54 3
  123.6 8.54 8
  123.7 16.23 16
  123.8 19.75 19
  123.9 16.18 16
  124.1 6.89 6
  124.2 11.47 11
  124.3 19.98 19
  124.4 25.66 25
  124.5 23.97 23
  124.6 16.35 16
  124.8 7.32 7
  124.9 11.66 11
  125.0 17.75 17
  125.1 20.61 20
  125.2 17.92 17
  125.5 10.98 10
  125.6 17.96 17
  125.7 22.84 22
  125.8 20.64 20
  125.9 12.83 12
  126.1 4.36 4
  126.2 9.31 9
  126.3 16.23 16
  126.4 19.47 19
  126.5 16.37 16
  126.8 9.08 9
  126.9 16.18 16
  127.0 21.22 21
  127.1 20.19 20
  127.2 14.47 14
  127.4 8.56 8
  127.5 12.34 12
  127.6 16.3 16
  127.7 16.35 16
  127.8 12.5 12
  128.0 8.16 8
  128.1 12.1 12
  128.2 16.23 16
  128.3 15.76 15
  128.4 10.27 10
  128.6 5.28 5
  128.7 12.34 12
  128.8 20.76 20
  128.9 23.62 23
  129.0 18.22 18
  129.1 8.54 8
  129.3 4.27 4
  129.4 12.27 12
  129.5 18.93 18
  129.6 18.95 18
  129.7 13.23 13
  129.9 6.8 6
  130.0 11.52 11
  130.1 16.91 16
  130.2 17.78 17
  130.3 13.32 13
  130.5 6.31 6
  130.6 10.79 10
  130.7 18.39 18
  130.8 23.69 23
  130.9 22.49 22
  131.0 15.24 15
  131.3 8.3 8
  131.4 15.81 15
  131.5 21.22 21
  131.6 21.32 21
  131.7 17.26 17
  131.9 13.67 13
  132.0 17.19 17
  132.1 19.86 19
  132.2 17.99 17
  132.3 12.48 12
  132.5 8.58 8
  132.6 13.46 13
  132.7 18.11 18
  132.8 18.62 18
  132.9 14.61 14
  133.1 7.01 7
  133.2 10.39 10
  133.3 16.56 16
  133.4 19.23 19
  133.5 14.96 14
  133.8 6.85 6
  133.9 14.31 14
  134.0 19.44 19
  134.1 18.5 18
  134.2 13.2 13
  134.4 8.35 8
  134.5 12.08 12
  134.6 16.84 16
  134.7 19.21 19
  134.8 17.8 17
  135.7 6.03 6
  135.8 13.58 13
  135.9 21.51 21
  136.0 23.8 23
  136.1 19.18 19
  137.0 6.94 6
  137.1 14.12 14
  137.2 19.98 19
  137.3 20.36 20
  137.4 15.81 15
  137.7 9.9 9
  137.8 15.76 15
  137.9 19.72 19
  138.0 17.57 17
  138.1 10.69 10
  138.3 7.72 7
  138.4 15.2 15
  138.5 20.61 20
  138.6 18.2 18
  138.7 9.94 9
  138.9 4.46 4
  139.0 11.82 11
  139.1 18.88 18
  139.2 20.1 20
  139.3 15.34 15
  139.5 7.22 7
  139.6 10.91 10
  139.7 17.47 17
  139.8 21.81 21
  139.9 20.29 20
  140.0 14.05 14
  140.2 9.24 9
  140.3 14.77 14
  140.4 19.68 19
  140.5 19.51 19
  140.6 15.17 15
  140.8 10.23 10
  140.9 13.09 13
  141.0 16.82 16
  141.1 18.08 18
  141.2 15.06 15
  141.5 7.65 7
  141.6 16.02 16
  141.7 22.65 22
  141.8 20.66 20
  141.9 11.09 11
  142.1 2.3 2
  142.2 10.86 10
  142.3 20.47 20
  142.4 22.84 22
  142.5 16.09 16
  142.8 6.17 6
  142.9 14.89 14
  143.0 20.1 20
  143.1 16.91 16
  143.2 8.11 8
  143.4 2.46 2
  143.5 10.27 10
  143.6 18.01 17
  143.7 19.35 19
  143.8 13.3 13
  144.0 2.27 2
  144.1 7.34 7
  144.2 16.25 16
  144.3 21.65 21
  144.4 19.3 19
  144.5 11.56 11
  144.7 5.77 5
  144.8 12.59 12
  144.9 19.56 19
  145.0 20.17 20
  145.1 13.63 13
  145.3 4.83 4
  145.4 10.58 10
  145.5 16.96 16
  145.6 17.78 17
  145.7 12.76 12
  146.5 5.61 5
  146.6 9.31 9
  146.7 16.28 16
  146.8 20.64 20
  146.9 18.55 18
  147.0 11.52 11
  147.2 6.24 6
  147.3 13.93 13
  147.4 22.33 22
  147.5 24.2 24
  147.6 17.87 17
  147.9 9.94 9
  148.0 18.71 18
  148.1 24.2 24
  148.2 21.97 21
  148.3 13.98 13
  148.5 5.28 5
  148.6 10.53 10
  148.7 17.33 17
  148.8 19.82 19
  148.9 16.46 16
  149.0 11.16 11
  149.8 6.85 6
  149.9 12.55 12
  150.0 17.89 17
  150.1 18.13 18
  150.2 13.11 13
  150.4 9.17 9
  150.5 16.18 16
  150.6 22.77 22
  150.7 22.37 22
  150.8 14.47 14
  151.0 2.25 2
  151.1 7.55 7
  151.2 16.42 16
  151.3 21.39 21
  151.4 18.69 18
  151.5 11.61 11
  151.7 8.63 8
  151.8 13.88 13
  151.9 17.38 17
  152.0 15.85 15
  152.1 10.69 10
  152.3 6.71 6
  152.4 11.37 11
  152.5 16.11 16
  152.6 16.51 16
  152.7 12.03 12
  152.9 4.62 4
  153.0 9.01 9
  153.1 17.0 16
  153.2 22.42 22
  153.3 20.1 20
  153.4 11.21 11
  153.6 3.31 3
  153.7 11.3 11
  153.8 19.42 19
  153.9 19.82 19
  154.0 12.12 12
  154.2 0.61 0
  154.3 5.84 5
  154.4 14.68 14
  154.5 20.83 20
  154.6 20.33 20
  154.7 13.95 13
  154.9 5.79 5
  155.0 11.8 11
  155.1 19.72 19
  155.2 21.86 21
  155.3 16.04 16
  155.5 5.89 5
  155.6 11.4 11
  155.7 18.67 18
  155.8 20.54 20
  155.9 15.53 15
  156.0 8.37 8
  156.2 7.65 7
  156.3 13.44 13
  156.4 17.94 17
  156.5 18.22 18
  156.6 14.68 14
  156.8 9.33 9
  156.9 13.02 13
  157.0 17.5 17
  157.1 16.91 16
  157.2 10.25 10
  157.4 2.35 2
  157.5 8.02 8
  157.6 16.04 16
  157.7 20.54 20
  157.8 18.06 18
  157.9 10.44 10
  158.1 5.23 5
  158.2 12.69 12
  158.3 20.64 20
  158.4 22.44 22
  158.5 16.3 16
  158.7 3.33 3
  158.8 8.44 8
  158.9 17.92 17
  159.0 23.59 23
  159.1 21.46 21
  159.2 14.59 14
  159.4 9.29 9
  159.5 13.51 13
  159.6 17.82 17
  159.7 18.53 18
  159.8 14.75 14
  160.0 7.97 7
  160.1 12.12 12
  160.2 18.08 18
  160.3 19.65 19
  160.4 14.87 14
  160.7 8.61 8
  160.8 16.11 16
  160.9 21.72 21
  161.0 20.87 20
  161.1 13.72 13
  161.3 2.98 2
  161.4 8.14 8
  161.5 16.67 16
  161.6 20.66 20
  161.7 16.37 16
  161.9 4.95 4
  162.0 10.41 10
  162.1 20.19 20
  162.2 26.17 26
  162.3 24.13 24
  162.4 16.63 16
  162.6 11.09 11
  162.7 17.14 17
  162.8 22.33 22
  162.9 21.01 20
  163.0 13.84 13
  163.2 8.0 7
  163.3 15.06 15
  163.4 21.69 21
  163.5 21.51 21
  163.6 14.45 14
  163.8 3.96 3
  163.9 8.44 8
  164.0 15.36 15
  164.1 18.62 18
  164.2 15.95 15
  164.4 7.76 7
  164.5 10.88 10
  164.6 17.4 17
  164.7 21.27 21
  164.8 18.64 18
  164.9 11.73 11
  165.1 6.17 6
  165.2 11.4 11
  165.3 17.96 17
  165.4 21.08 21
  165.5 18.83 18
  165.6 13.58 13
  165.8 12.2 12
  165.9 17.47 17
  166.0 21.01 20
  166.1 18.67 18
  166.2 11.14 11
  166.4 2.7 2
  166.5 8.84 8
  166.6 17.14 17
  166.7 20.12 20
  166.8 14.8 14
  167.1 5.18 5
  167.2 13.74 13
  167.3 19.86 19
  167.4 19.09 19
  167.5 12.9 12
  167.7 6.59 6
  167.8 11.49 11
  167.9 16.89 16
  168.0 17.89 17
  168.1 13.93 13
  168.3 6.87 6
  168.4 9.94 9
  168.5 15.24 15
  168.6 17.99 17
  168.7 15.24 15
  168.8 8.79 8
  169.0 6.17 6
  169.1 12.78 12
  169.2 17.85 17
  169.3 16.6 16
  169.4 10.76 10
  169.6 7.95 7
  169.7 13.27 13
  169.8 17.4 17
  169.9 17.5 17
  170.0 14.42 14
  170.2 10.25 10
  170.3 12.95 12
  170.4 17.21 17
  170.5 19.91 19
  170.6 19.18 19
  170.9 14.4 14
  171.0 18.81 18
  171.1 21.69 21
  171.2 18.69 18
  171.3 10.88 10
  171.5 4.5 4
  171.6 11.37 11
  171.7 19.09 19
  171.8 21.69 21
  171.9 17.99 17
  172.0 11.87 11
  172.2 9.45 9
  172.3 14.28 14
  172.4 18.83 18
  172.5 19.63 19
  172.6 16.25 16
  172.7 11.75 11
  172.9 11.37 11
  173.0 14.17 14
  173.1 15.64 15
  173.2 15.06 15
  173.4 11.68 11
  173.5 13.25 13
  173.6 17.78 17
  173.7 21.18 21
  173.8 18.93 18
  173.9 11.75 11
  174.1 7.6 7
  174.2 15.55 15
  174.3 23.31 23
  174.4 24.2 24
  174.5 16.98 16
  174.6 6.92 6
  174.8 5.79 5
  174.9 14.99 14
  175.0 21.04 21
  175.1 18.86 18
  175.2 11.68 11
  175.4 9.38 9
  175.5 15.48 15
  175.6 19.96 19
  175.7 19.96 19
  175.8 16.51 16
  176.0 12.01 11
  176.1 14.61 14
  176.2 18.25 18
  176.3 19.11 19
  176.4 15.55 15
  176.6 8.18 8
  176.7 11.96 11
  176.8 18.69 18
  176.9 22.37 22
  177.0 19.35 19
  177.1 12.03 12
  177.3 8.35 8
  177.4 15.34 15
  177.5 21.6 21
  177.6 21.76 21
  177.7 15.88 15
  177.9 8.04 8
  178.0 12.66 12
  178.1 19.28 19
  178.2 22.65 22
  178.3 20.52 20
  178.4 15.08 15
  178.6 12.31 12
  178.7 17.28 17
  178.8 21.58 21
  178.9 20.85 20
  179.0 14.7 14
  179.2 5.49 5
  179.3 10.86 10
  179.4 18.41 18
  179.5 20.22 20
  179.6 13.86 13
  179.7 4.81 4
  179.9 4.41 4
  180.0 11.7 11
  180.1 16.65 16
  180.2 16.51 16
  180.3 12.83 12
  180.5 8.37 8
  180.6 10.91 10
  180.7 14.4 14
  180.8 15.31 15
  180.9 12.03 12
  181.1 6.43 6
  181.2 11.37 11
  181.3 18.13 18
  181.4 20.26 20
  181.5 15.71 15
  181.6 8.37 8
  181.8 5.96 5
  181.9 11.75 11
  182.0 17.19 17
  182.1 18.9 18
  182.2 16.32 16
  183.0 5.32 5
  183.1 10.41 10
  183.2 17.66 17
  183.3 22.35 22
  183.4 21.65 21
  183.5 16.04 16
  183.7 8.63 8
  183.8 13.04 13
  183.9 17.89 17
  184.0 17.59 17
  184.1 11.89 11
  184.3 4.43 4
  184.4 9.31 9
  184.5 16.21 16
  184.6 18.81 18
  184.7 14.26 14
  185.0 4.88 4
  185.1 13.51 13
  185.2 21.6 21
  185.3 23.45 23
  185.4 18.08 18
  185.5 10.08 10
  185.7 8.02 8
  185.8 13.41 13
  185.9 16.82 16
  186.0 15.76 15
  186.2 11.35 11
  186.3 14.7 14
  186.4 20.66 20
  186.5 24.62 24
  186.6 23.52 23
  186.7 18.39 18
  186.9 13.48 13
  187.0 17.33 17
  187.1 21.2 21
  187.2 20.78 20
  187.3 15.17 15
  188.1 7.55 7
  188.2 10.74 10
  188.3 15.69 15
  188.4 18.13 18
  188.5 16.37 16
  188.6 11.84 11
  188.8 6.61 6
  188.9 10.76 10
  189.0 18.01 17
  189.1 22.49 22
  189.2 19.39 19
  189.3 11.23 11
  189.5 8.75 8
  189.6 14.92 14
  189.7 17.73 17
  189.8 14.87 14
  189.9 9.69 9
  190.1 8.58 8
  190.2 13.04 13
  190.3 16.46 16
  190.4 15.85 15
  190.5 11.66 11
  190.7 7.08 7
  190.8 10.88 10
  190.9 15.69 15
  191.0 17.28 17
  191.1 14.35 14
  191.3 7.79 7
  191.4 11.28 11
  191.5 17.54 17
  191.6 21.39 21
  191.7 19.7 19
  191.8 13.7 13
  192.0 8.11 8
  192.1 14.19 14
  192.2 21.69 21
  192.3 23.94 23
  192.4 18.6 18
  192.7 9.73 9
  192.8 17.42 17
  192.9 22.68 22
  193.0 21.67 21
  193.1 16.37 16
  193.3 12.48 12
  193.4 17.19 17
  193.5 22.0 21
  193.6 22.44 22
  193.7 17.89 17
  194.5 9.57 9
  194.6 12.66 12
  194.7 18.06 18
  194.8 21.2 21
  194.9 19.42 19
  195.0 14.14 14
  195.2 9.29 9
  195.3 13.3 13
  195.4 17.8 17
  195.5 18.67 18
  195.6 15.2 15
  195.9 9.9 9
  196.0 13.95 13
  196.1 16.37 16
  196.2 14.56 14
  196.3 9.83 9
  196.5 7.65 7
  196.6 12.69 12
  196.7 17.35 17
  196.8 18.03 18
  196.9 14.75 14
  197.1 10.3 10
  197.2 13.37 13
  197.3 16.93 16
  197.4 17.14 17
  197.5 13.04 13
  197.7 7.01 7
  197.8 11.82 11
  197.9 18.9 18
  198.0 22.4 22
  198.1 19.11 19
  198.2 11.47 11
  198.4 5.37 5
  198.5 10.18 10
  198.6 15.13 15
  198.7 16.35 16
  198.8 13.39 13
  199.1 8.28 8
  199.2 13.37 13
  199.3 17.26 17
  199.4 16.37 16
  199.5 11.02 11
  199.7 5.09 5
  199.8 10.06 10
  199.9 16.28 16
  200.0 17.92 17
  200.1 13.2 13
  200.3 4.83 4
  200.4 9.99 9
  200.5 17.61 17
  200.6 20.71 20
  200.7 16.63 16
  201.0 10.06 10
  201.1 17.47 17
  201.2 22.09 22
  201.3 20.03 20
  201.4 13.3 13
  201.6 7.9 7
  201.7 12.85 12
  201.8 17.66 17
  201.9 17.96 17
  202.0 14.17 14
  202.2 11.33 11
  202.3 16.56 16
  202.4 22.44 22
  202.5 24.23 24
  202.6 19.61 19
  202.7 11.14 11
  202.9 6.8 6
  203.0 15.08 15
  203.1 22.58 22
  203.2 22.12 22
  203.3 13.79 13
  204.2 10.18 10
  204.3 16.44 16
  204.4 21.08 21
  204.5 19.58 19
  204.6 12.88 12
  204.8 5.21 5
  204.9 10.48 10
  205.0 17.85 17
  205.1 20.94 20
  205.2 17.12 17
  205.5 11.07 11
  205.6 17.45 17
  205.7 20.83 20
  205.8 19.07 19
  205.9 14.02 14
  206.1 9.94 9
  206.2 14.14 14
  206.3 18.41 18
  206.4 18.41 18
  206.5 13.91 13
  206.8 8.84 8
  206.9 13.74 13
  207.0 17.73 17
  207.1 17.59 17
  207.2 13.44 13
  207.4 9.26 9
  207.5 13.02 13
  207.6 15.97 15
  207.7 14.21 14
  208.0 7.27 7
  208.1 15.74 15
  208.2 24.13 24
  208.3 25.8 25
  208.4 18.93 18
  208.5 8.0 7
  208.7 1.38 1
  208.8 9.43 9
  208.9 17.89 17
  209.0 20.15 20
  209.1 15.64 15
  209.3 9.97 9
  209.4 14.73 14
  209.5 19.56 19
  209.6 20.03 20
  209.7 15.92 15
  209.8 10.91 10
  210.5 5.51 5
  210.6 8.61 8
  210.7 14.99 14
  210.8 19.35 19
  210.9 18.03 18
  211.0 12.34 12
  211.2 6.99 6
  211.3 11.42 11
  211.4 16.63 16
  211.5 18.36 18
  211.6 15.34 15
  211.7 10.08 10
  211.9 8.44 8
  212.0 12.99 12
  212.1 16.06 16
  212.2 14.75 14
  212.4 8.77 8
  212.5 11.14 11
  212.6 16.44 16
  212.7 20.59 20
  212.8 20.31 20
  212.9 15.67 15
  213.1 9.5 9
  213.2 14.59 14
  213.3 21.51 21
  213.4 23.31 23
  213.5 16.96 16
  213.6 7.06 7
  213.8 6.26 6
  213.9 15.71 15
  214.0 22.58 22
  214.1 21.9 21
  214.2 14.89 14
  214.4 5.89 5
  214.5 10.58 10
  214.6 17.24 17
  214.7 19.84 19
  214.8 16.04 16
  214.9 9.17 9
  215.1 7.11 7
  215.2 13.13 13
  215.3 18.27 18
  215.4 18.27 18
  215.5 12.88 12
  215.7 7.32 7
  215.8 14.26 14
  215.9 21.65 21
  216.0 22.65 22
  216.1 17.28 17
  217.0 9.43 9
  217.1 16.25 16
  217.2 22.75 22
  217.3 23.76 23
  217.4 18.62 18
  217.6 10.86 10
  217.7 15.62 15
  217.8 21.62 21
  217.9 23.24 23
  218.0 18.79 18
  218.1 11.21 11
  218.3 6.31 6
  218.4 13.48 13
  218.5 21.51 21
  218.6 23.5 23
  218.7 18.03 18
  219.5 3.56 3
  219.6 9.15 9
  219.7 17.07 17
  219.8 20.36 20
  219.9 15.92 15
  220.2 7.81 7
  220.3 16.42 16
  220.4 21.76 21
  220.5 19.23 19
  220.6 11.02 11
  220.8 3.71 3
  220.9 9.59 9
  221.0 16.16 16
  221.1 18.01 17
  221.2 14.24 14
  221.5 8.26 8
  221.6 14.56 14
  221.7 20.12 20
  221.8 20.47 20
  221.9 14.56 14
  222.0 6.66 6
  222.7 4.55 4
  222.8 9.76 9
  222.9 17.47 17
  223.0 21.27 21
  223.1 17.12 17
  223.2 7.86 7
  223.4 2.91 2
  223.5 10.62 10
  223.6 17.03 17
  223.7 17.5 17
  223.8 13.65 13
  224.0 10.44 10
  224.1 14.28 14
  224.2 18.86 18
  224.3 20.29 20
  224.4 16.98 16
  224.6 9.57 9
  224.7 13.46 13
  224.8 20.08 20
  224.9 22.73 22
  225.0 18.43 18
  225.1 11.28 11
  225.3 10.98 10
  225.4 15.69 15
  225.5 17.47 17
  225.6 15.29 15
  225.7 10.93 10
  225.9 7.04 7
  226.0 11.89 11
  226.1 18.83 18
  226.2 22.3 22
  226.3 19.07 19
  226.4 11.16 11
  226.6 3.03 3
  226.7 7.81 7
  226.8 14.17 14
  226.9 16.89 16
  227.0 14.89 14
  227.2 12.15 12
  227.3 16.51 16
  227.4 21.32 21
  227.5 21.88 21
  227.6 16.58 16
  227.9 8.49 8
  228.0 16.28 16
  228.1 21.11 21
  228.2 18.83 18
  228.3 12.22 12
  228.5 9.1 9
  228.6 14.63 14
  228.7 19.39 19
  228.8 19.79 19
  228.9 15.5 15
  229.2 9.8 9
  229.3 15.69 15
  229.4 19.35 19
  229.5 18.29 18
  230.4 4.57 4
  230.5 10.95 10
  230.6 18.5 18
  230.7 20.73 20
  230.8 15.5 15
  231.7 7.72 7
  231.8 14.56 14
  231.9 20.66 20
  232.0 21.39 21
  232.1 16.16 16
  232.2 8.84 8
  232.4 6.29 6
  232.5 12.36 12
  232.6 17.89 17
  232.7 18.39 18
  233.0 12.76 12
  233.1 19.79 19
  233.2 25.42 25
  233.3 24.46 24
  233.4 17.38 17
  233.5 9.45 9
  233.7 8.49 8
  233.8 13.11 13
  233.9 14.94 14
  234.0 12.55 12
  234.2 8.84 8
  234.3 12.48 12
  234.4 16.35 16
  234.5 16.49 16
  234.6 12.66 12
  234.8 7.43 7
  234.9 11.21 11
  235.0 17.47 17
  235.1 21.46 21
  235.2 19.18 19
  235.3 11.49 11
  235.5 4.71 4
  235.6 11.82 11
  235.7 19.89 19
  235.8 22.49 22
  235.9 18.13 18
  236.0 10.65 10
  236.2 7.27 7
  236.3 12.92 12
  236.4 18.06 18
  236.5 18.5 18
  236.6 14.14 14
  236.8 8.61 8
  236.9 12.78 12
  237.0 16.72 16
  237.1 15.53 15
  237.2 9.38 9
  237.4 3.03 3
  237.5 9.24 9
  237.6 17.4 17
  237.7 20.99 20
  237.8 17.64 17
  237.9 11.05 11
  238.1 7.53 7
  238.2 11.44 11
  238.3 14.92 14
  238.4 15.31 15
  238.5 12.5 12
  238.7 8.37 8
  238.8 11.59 11
  238.9 16.28 16
  239.0 18.2 18
  239.1 15.17 15
  239.2 9.05 9
  239.4 5.61 5
  239.5 11.91 11
  239.6 18.9 18
  239.7 21.36 21
  239.8 18.11 18
  240.0 12.15 12
  240.1 16.3 16
  240.2 21.55 21
  240.3 22.16 22
  240.4 16.18 16
  240.7 7.41 7
  240.8 16.11 16
  240.9 21.51 21
  241.0 18.5 18
  241.1 9.87 9
  241.3 3.31 3
  241.4 9.57 9
  241.5 16.11 16
  241.6 18.01 17
  241.7 15.1 15
  242.6 10.3 10
  242.7 16.86 16
  242.8 21.36 21
  242.9 20.0 19
  243.0 14.26 14
  243.2 8.18 8
  243.3 12.97 12
  243.4 19.11 19
  243.5 20.57 20
  243.6 15.41 15
  243.8 6.12 6
  243.9 10.2 10
  244.0 16.3 16
  244.1 19.02 19
  244.2 16.74 16
  244.3 12.22 12
  244.5 11.02 11
  244.6 14.54 14
  244.7 17.07 17
  244.8 16.63 16
  244.9 13.48 13
  245.1 8.49 8
  245.2 10.86 10
  245.3 14.77 14
  245.4 16.44 16
  245.5 14.0 13
  245.7 7.22 7
  245.8 10.13 10
  245.9 16.35 16
  246.0 19.89 19
  246.1 16.51 16
  246.2 8.56 8
  246.4 5.79 5
  246.5 13.41 13
  246.6 19.91 19
  246.7 20.9 20
  246.8 17.14 17
  247.7 10.65 10
  247.8 13.86 13
  247.9 16.93 16
  248.0 17.24 17
  248.1 13.65 13
  248.3 6.1 6
  248.4 9.76 9
  248.5 16.79 16
  248.6 20.78 20
  248.7 17.92 17
  248.8 11.14 11
  249.0 9.5 9
  249.1 15.36 15
  249.2 18.97 18
  249.3 17.5 17
  249.4 12.99 12
  249.6 10.32 10
  249.7 13.7 13
  249.8 16.35 16
  249.9 15.62 15
  250.0 11.89 11
  250.2 8.37 8
  250.3 12.99 12
  250.4 19.37 19
  250.5 22.42 22
  250.6 18.57 18
  250.7 9.8 9
  250.9 2.93 2
  251.0 9.33 9
  251.1 16.3 16
  251.2 18.6 18
  251.3 15.57 15
  251.4 10.3 10
  251.6 9.33 9
  251.7 14.31 14
  251.8 17.19 17
  251.9 14.87 14
  252.1 7.79 7
  252.2 11.8 11
  252.3 18.6 18
  252.4 21.67 21
  252.5 17.45 17
  252.6 8.82 8
  252.8 4.71 4
  252.9 13.32 13
  253.0 21.69 21
  253.1 22.65 22
  253.2 14.94 14
  253.3 4.64 4
  253.5 4.15 4
  253.6 12.38 12
  253.7 17.21 17
  253.8 15.13 15
  254.1 8.35 8
  254.2 14.92 14
  254.3 20.31 20
  254.4 20.61 20
  254.5 15.67 15
  254.7 7.27 7
  254.8 11.56 11
  254.9 18.86 18
  255.0 22.89 22
  255.1 20.1 20
  255.2 12.57 12
  255.4 6.82 6
  255.5 13.51 13
  255.6 20.66 20
  255.7 21.74 21
  255.8 15.76 15
  256.0 7.5 7
  256.1 13.6 13
  256.2 21.08 21
  256.3 22.65 22
  256.4 16.04 16
  256.7 5.68 5
  256.8 15.5 15
  256.9 22.23 22
  257.0 20.52 20
  257.1 12.59 12
  257.3 5.11 5
  257.4 10.6 10
  257.5 17.0 16
  257.6 18.86 18
  257.7 14.87 14
  257.9 7.5 7
  258.0 11.19 11
  258.1 16.74 16
  258.2 18.97 18
  258.3 15.64 15
  258.6 8.68 8
  258.7 14.89 14
  258.8 19.25 19
  258.9 17.92 17
  259.0 12.31 12
  259.2 9.8 9
  259.3 16.63 16
  259.4 22.84 22
  259.5 23.15 23
  259.6 16.79 16
  259.7 8.44 8
  259.9 8.04 8
  260.0 15.06 15
  260.1 18.71 18
  260.2 15.74 15
  260.3 9.26 9
  260.5 7.58 7
  260.6 14.12 14
  260.7 20.0 19
  260.8 21.06 21
  260.9 16.91 16
  261.0 10.6 10
  261.2 6.45 6
  261.3 10.37 10
  261.4 14.56 14
  261.5 15.34 15
  261.6 12.03 12
  261.8 6.92 6
  261.9 10.46 10
  262.0 15.06 15
  262.1 16.04 16
  262.2 12.34 12
  262.4 8.21 8
  262.5 13.86 13
  262.6 20.24 20
  262.7 21.39 21
  262.8 16.06 16
  263.0 7.08 7
  263.1 11.82 11
  263.2 18.25 18
  263.3 20.22 20
  263.4 16.46 16
  263.7 9.73 9
  263.8 16.44 16
  263.9 22.49 22
  264.0 22.28 22
  264.1 15.2 15
  264.3 6.05 6
  264.4 12.45 12
  264.5 20.29 20
  264.6 22.61 22
  264.7 17.99 17
  264.8 10.67 10
  265.0 6.4 6
  265.1 10.48 10
  265.2 14.19 14
  265.3 14.19 14
  265.6 10.11 10
  265.7 13.53 13
  265.8 15.45 15
  265.9 14.12 14
  266.0 10.67 10
  266.2 6.59 6
  266.3 8.96 8
  266.4 13.23 13
  266.5 16.16 16
  266.6 15.38 15
  266.9 10.55 10
  267.0 14.94 14
  267.1 18.32 18
  267.2 17.31 17
  267.3 12.29 12
  267.5 5.23 5
  267.6 8.79 8
  267.7 15.1 15
  267.8 19.3 19
  267.9 18.48 18
  268.2 12.8 12
  268.3 18.41 18
  268.4 23.03 23
  268.5 21.34 21
  268.6 13.41 13
  268.8 3.73 3
  268.9 8.98 8
  269.0 16.02 16
  269.1 19.44 19
  269.2 17.26 17
  269.3 11.61 11
  269.5 7.43 7
  269.6 13.25 13
  269.7 19.58 19
  269.8 20.66 20
  269.9 15.15 15
  270.1 4.06 4
  270.2 8.3 8
  270.3 16.79 16
  270.4 22.12 22
  270.5 19.93 19
  270.7 10.3 10
  270.8 14.24 14
  270.9 21.53 21
  271.0 24.84 24
  271.1 20.52 20
  271.2 12.38 12
  271.4 10.81 10
  271.5 18.2 18
  271.6 23.52 23
  271.7 22.56 22
  271.8 15.71 15
  272.7 9.45 9
  272.8 16.6 16
  272.9 21.6 21
  273.0 19.96 19
  273.1 13.23 13
  273.3 7.11 7
  273.4 12.73 12
  273.5 19.23 19
  273.6 21.46 21
  273.7 18.01 17
  274.6 6.99 6
  274.7 16.23 16
  274.8 23.78 23
  274.9 22.94 22
  275.0 14.59 14
  275.2 3.66 3
  275.3 8.51 8
  275.4 15.29 15
  275.5 17.71 17
  275.6 13.6 13
  275.9 7.6 7
  276.0 14.54 14
  276.1 18.48 18
  276.2 16.06 16
  276.3 9.69 9
  276.5 6.45 6
  276.6 12.24 12
  276.7 16.74 16
  276.8 15.48 15
  276.9 9.22 9
  277.1 4.39 4
  277.2 12.41 12
  277.3 21.51 21
  277.4 23.64 23
  277.5 16.77 16
  278.4 2.81 2
  278.5 9.03 9
  278.6 16.14 16
  278.7 19.61 19
  278.8 17.99 17
  278.9 13.53 13
  279.1 12.08 12
  279.2 16.84 16
  279.3 20.59 20
  279.4 19.75 19
  279.5 14.52 14
  279.7 8.37 8
  279.8 13.02 13
  279.9 18.41 18
  280.0 18.57 18
  280.1 12.59 12
  280.3 4.48 4
  280.4 9.59 9
  280.5 16.72 16
  280.6 20.47 20
  280.7 18.27 18
  280.8 12.15 12
  281.0 7.06 7
  281.1 11.49 11
  281.2 16.16 16
  281.3 16.98 16
  281.4 13.53 13
  281.6 9.47 9
  281.7 14.92 14
  281.8 22.07 22
  281.9 25.14 25
  282.0 21.48 21
  282.1 13.58 13
  282.3 7.41 7
  282.4 13.25 13
  282.5 18.57 18
  282.6 17.75 17
  282.7 11.52 11
  282.9 6.89 6
  283.0 12.69 12
  283.1 17.82 17
  283.2 17.78 17
  283.3 13.46 13
  283.5 9.87 9
  283.6 14.35 14
  283.7 19.39 19
  283.8 20.45 20
  283.9 16.06 16
  284.2 9.55 9
  284.3 15.45 15
  284.4 18.64 18
  284.5 15.88 15
  284.6 8.98 8
  284.8 4.88 4
  284.9 12.17 12
  285.0 20.15 20
  285.1 22.44 22
  285.2 17.33 17
  285.4 5.68 5
  285.5 10.04 10
  285.6 18.93 18
  285.7 24.91 24
  285.8 23.36 23
  285.9 16.39 16
  286.1 10.25 10
  286.2 14.96 14
  286.3 19.96 19
  286.4 21.04 21
  286.5 17.59 17
  287.4 8.54 8
  287.5 13.74 13
  287.6 16.49 16
  287.7 13.86 13
  287.8 8.07 8
  288.0 5.42 5
  288.1 11.87 11
  288.2 18.41 18
  288.3 19.89 19
  288.4 15.69 15
  288.6 9.19 9
  288.7 13.46 13
  288.8 19.18 19
  288.9 20.99 20
  289.0 17.05 17
  289.1 10.18 10
  289.3 5.77 5
  289.4 10.46 10
  289.5 15.13 15
  289.6 15.55 15
  289.7 11.63 11
  289.9 8.02 8
  290.0 14.19 14
  290.1 20.87 20
  290.2 21.62 21
  290.3 15.03 15
  290.5 3.89 3
  290.6 8.75 8
  290.7 16.49 16
  290.8 20.31 20
  290.9 17.45 17
  291.0 11.09 11
  291.2 8.61 8
  291.3 14.59 14
  291.4 19.89 19
  291.5 19.96 19
  291.6 14.68 14
  291.7 8.37 8
  291.9 7.81 7
  292.0 11.98 11
  292.1 14.63 14
  292.2 13.95 13
  292.5 8.86 8
  292.6 13.81 13
  292.7 19.23 19
  292.8 20.17 20
  292.9 15.5 15
  293.2 10.37 10
  293.3 15.22 15
  293.4 18.2 18
  293.5 17.0 16
  293.6 11.98 11
  293.8 5.86 5
  293.9 10.01 9
  294.0 14.21 14
  294.1 13.56 13
  294.3 6.03 6
  294.4 9.08 9
  294.5 16.89 16
  294.6 23.97 23
  294.7 25.12 25
  294.8 19.21 19
  294.9 10.62 10
  295.1 9.5 9
  295.2 16.35 16
  295.3 19.77 19
  295.4 16.3 16
  295.6 6.85 6
  295.7 11.3 11
  295.8 19.49 19
  295.9 24.23 24
  296.0 21.2 21
  296.1 12.76 12
  296.3 4.95 4
  296.4 10.6 10
  296.5 17.89 17
  296.6 21.51 21
  296.7 19.11 19
  296.8 12.8 12
  297.0 8.35 8
  297.1 13.27 13
  297.2 17.8 17
  297.3 17.85 17
  297.4 13.27 13
  297.6 6.61 6
  297.7 11.12 11
  297.8 18.03 18
  297.9 21.13 21
  298.0 17.57 17
  298.3 10.76 10
  298.4 17.42 17
  298.5 21.95 21
  298.6 20.9 20
  298.7 15.08 15
  298.9 7.18 7
  299.0 11.52 11
  299.1 18.01 17
  299.2 20.22 20
  299.3 15.43 15
  300.1 4.74 4
  300.2 9.05 9
  300.3 16.82 16
  300.4 21.9 21
  300.5 20.61 20
  300.6 14.59 14
  300.8 7.36 7
  300.9 11.14 11
  301.0 17.28 17
  301.1 21.22 21
  301.2 19.65 19
  301.5 13.65 13
  301.6 20.71 20
  301.7 25.02 24
  301.8 22.7 22
  301.9 16.04 16
  302.1 10.18 10
  302.2 14.49 14
  302.3 19.65 19
  302.4 20.64 20
  302.5 15.83 15
  303.3 8.79 8
  303.4 11.66 11
  303.5 17.28 17
  303.6 21.13 21
  303.7 19.21 19
  303.8 11.89 11
  304.0 4.97 4
  304.1 12.17 12
  304.2 20.17 20
  304.3 22.0 21
  304.4 17.1 17
  304.7 10.81 10
  304.8 15.88 15
  304.9 19.18 19
  305.0 18.01 17
  305.1 13.11 13
  305.3 8.23 8
  305.4 11.26 11
  305.5 14.05 14
  305.6 14.09 14
  305.7 11.82 11
  305.9 9.43 9
  306.0 13.18 13
  306.1 18.64 18
  306.2 21.2 21
  306.3 18.01 17
  306.4 11.37 11
  306.6 7.11 7
  306.7 11.4 11
  306.8 14.85 14
  306.9 13.67 13
  307.8 4.64 4
  307.9 10.65 10
  308.0 17.4 17
  308.1 20.45 20
  308.2 17.68 17
  308.3 10.91 10
  308.5 5.0 4
  308.6 11.07 11
  308.7 19.14 19
  308.8 23.12 23
  308.9 19.68 19
  309.0 11.61 11
  309.2 7.65 7
  309.3 14.47 14
  309.4 19.77 19
  309.5 18.93 18
  309.6 13.41 13
  309.8 9.45 9
  309.9 14.35 14
  310.0 18.5 18
  310.1 17.82 17
  311.0 2.58 2
  311.1 8.63 8
  311.2 18.46 18
  311.3 24.7 24
  311.4 22.19 22
  311.5 13.13 13
  311.7 5.35 5
  311.8 11.96 11
  311.9 18.81 18
  312.0 20.24 20
  312.1 15.5 15
  312.3 6.64 6
  312.4 10.67 10
  312.5 16.86 16
  312.6 18.95 18
  312.7 15.27 15
  313.0 10.67 10
  313.1 15.74 15
  313.2 19.32 19
  313.3 18.55 18
  313.4 13.95 13
  313.6 9.71 9
  313.7 15.27 15
  313.8 21.83 21
  313.9 23.38 23
  314.0 17.75 17
  314.1 9.12 9
  314.3 8.14 8
  314.4 15.55 15
  314.5 19.91 19
  314.6 17.31 17
  314.7 9.83 9
  314.9 3.75 3
  315.0 10.41 10
  315.1 18.29 18
  315.2 21.06 21
  315.3 16.49 16
  315.5 5.82 5
  315.6 10.44 10
  315.7 18.22 18
  315.8 21.34 21
  315.9 16.86 16
  316.1 6.43 6
  316.2 10.95 10
  316.3 19.54 19
  316.4 24.91 24
  316.5 22.35 22
  316.6 13.93 13
  316.8 6.52 6
  316.9 12.85 12
  317.0 19.79 19
  317.1 21.55 21
  317.2 17.5 17
  317.4 11.07 11
  317.5 14.31 14
  317.6 18.41 18
  317.7 19.44 19
  317.8 16.28 16
  317.9 10.62 10
  318.1 5.28 5
  318.2 9.73 9
  318.3 16.51 16
  318.4 20.57 20
  318.5 18.57 18
  318.6 12.57 12
  318.8 8.14 8
  318.9 12.1 12
  319.0 15.43 15
  319.1 14.82 14
  319.3 8.54 8
  319.4 10.98 10
  319.5 17.14 17
  319.6 21.51 21
  319.7 19.56 19
  319.8 12.03 12
  320.0 3.94 3
  320.1 10.34 10
  320.2 18.71 18
  320.3 22.26 22
  320.4 18.69 18
  321.3 1.38 1
  321.4 8.94 8
  321.5 16.25 16
  321.6 17.68 17
  321.7 13.37 13
  321.9 6.94 6
  322.0 11.4 11
  322.1 18.6 18
  322.2 22.87 22
  322.3 20.17 20
  322.4 12.48 12
  322.6 8.82 8
  322.7 16.74 16
  322.8 23.01 22
  322.9 21.44 21
  323.0 13.13 13
  323.2 4.2 4
  323.3 9.8 9
  323.4 16.77 16
  323.5 20.0 19
  323.6 18.32 18
  323.7 13.95 13
  323.9 10.62 10
  324.0 15.13 15
  324.1 20.45 20
  324.2 21.55 21
  324.3 16.96 16
  324.5 9.4 9
  324.6 13.18 13
  324.7 18.29 18
  324.8 19.77 19
  324.9 16.18 16
  325.2 10.48 10
  325.3 16.63 16
  325.4 21.08 21
  325.5 20.38 20
  326.3 11.77 11
  326.4 14.54 14
  326.5 19.28 19
  326.6 22.14 22
  326.7 20.87 20
  326.8 15.88 15
  327.0 8.96 8
  327.1 13.65 13
  327.2 21.06 21
  327.3 24.79 24
  327.4 20.94 20
  327.5 12.03 12
  327.7 4.64 4
  327.8 11.61 11
  327.9 19.86 19
  328.0 22.96 22
  328.1 18.86 18
  328.4 12.12 12
  328.5 19.91 19
  328.6 24.79 24
  328.7 21.48 21
  328.8 11.61 11
  329.0 3.61 3
  329.1 12.17 12
  329.2 20.38 20
  329.3 20.59 20
  329.4 13.46 13
  329.6 6.99 6
  329.7 13.95 13
  329.8 20.59 20
  329.9 20.15 20
  330.0 12.24 12
  330.2 0.84 0
  330.3 5.79 5
  330.4 13.2 13
  330.5 16.72 16
  330.6 14.31 14
  330.9 9.01 9
  331.0 14.66 14
  331.1 18.53 18
  331.2 17.1 17
  331.3 11.09 11
  331.5 3.35 3
  331.6 7.46 7
  331.7 13.98 13
  331.8 18.22 18
  331.9 17.68 17
  332.0 13.63 13
  332.2 11.19 11
  332.3 16.35 16
  332.4 20.47 20
  332.5 18.36 18
  332.6 10.69 10
  332.8 6.82 6
  332.9 16.39 16
  333.0 24.95 24
  333.1 24.95 24
  333.2 16.6 16
  333.4 5.23 5
  333.5 11.28 11
  333.6 19.37 19
  333.7 21.67 21
  333.8 16.16 16
  334.0 4.97 4
  334.1 9.43 9
  334.2 17.33 17
  334.3 21.46 21
  334.4 17.85 17
  334.5 9.38 9
  334.7 3.68 3
  334.8 10.69 10
  334.9 18.57 18
  335.0 21.58 21
  335.1 17.68 17
  335.2 9.92 9
  335.4 5.82 5
  335.5 12.55 12
  335.6 19.04 19
  335.7 20.19 20
  335.8 15.85 15
  335.9 10.18 10
  336.1 8.89 8
  336.2 12.08 12
  336.3 13.98 13
  336.4 13.18 13
  336.6 10.32 10
  336.7 13.56 13
  336.8 18.5 18
  336.9 20.5 20
  337.0 16.82 16
  337.1 9.9 9
  337.3 7.18 7
  337.4 13.6 13
  337.5 18.71 18
  337.6 17.71 17
  337.7 11.52 11
  337.9 6.99 6
  338.0 13.27 13
  338.1 19.44 19
  338.2 20.92 20
  338.3 17.31 17
  338.4 11.73 11
  338.6 8.86 8
  338.7 13.09 13
  338.8 16.63 16
  338.9 15.81 15
  339.1 8.91 8
  339.2 12.27 12
  339.3 19.75 19
  339.4 24.86 24
  339.5 22.61 22
  339.6 14.12 14
  339.9 6.85 6
  340.0 14.61 14
  340.1 19.65 19
  340.2 18.62 18
  340.3 12.95 12
  340.5 7.74 7
  340.6 13.23 13
  340.7 19.11 19
  340.8 19.7 19
  340.9 14.42 14
  341.1 7.62 7
  341.2 12.34 12
  341.3 18.01 17
  341.4 19.44 19
  341.5 15.15 15
  341.6 8.26 8
  341.8 6.52 6
  341.9 14.05 14
  342.0 20.99 20
  342.1 21.93 21
  342.2 15.99 15
  342.4 4.62 4
  342.5 9.31 9
  342.6 17.28 17
  342.7 20.36 20
  342.8 15.6 15
  343.1 8.96 8
  343.2 14.77 14
  343.3 17.61 17
  343.4 15.78 15
  343.7 10.69 10
  343.8 14.99 14
  343.9 19.14 19
  344.0 20.0 19
  344.1 16.98 16
  345.0 8.23 8
  345.1 13.46 13
  345.2 17.14 17
  345.3 16.06 16
  345.4 10.53 10
  345.6 3.61 3
  345.7 9.03 9
  345.8 16.37 16
  345.9 18.48 18
  346.0 12.85 12
  346.3 3.96 3
  346.4 11.75 11
  346.5 17.52 17
  346.6 17.14 17
  346.7 11.75 11
  346.9 7.11 7
  347.0 12.83 12
  347.1 18.41 18
  347.2 18.13 18
  347.3 11.68 11
  347.5 3.52 3
  347.6 9.76 9
  347.7 18.15 18
  347.8 22.28 22
  347.9 19.93 19
  348.0 13.95 13
  348.2 8.26 8
  348.3 11.23 11
  348.4 15.2 15
  348.5 16.72 16
  348.6 14.21 14
  348.8 8.02 8
  348.9 11.12 11
  349.0 16.96 16
  349.1 20.52 20
  349.2 18.67 18
  349.3 12.9 12
  349.5 8.65 8
  349.6 13.34 13
  349.7 17.47 17
  349.8 16.6 16
  349.9 11.42 11
  350.1 9.22 9
  350.2 15.43 15
  350.3 20.54 20
  350.4 20.59 20
  350.5 16.14 16
  350.6 10.58 10
  350.8 9.4 9
  350.9 14.85 14
  351.0 19.42 19
  351.1 19.0 18
  351.2 14.19 14
  351.4 12.12 12
  351.5 18.01 17
  351.6 21.86 21
  351.7 19.21 19
  351.8 11.56 11
  352.0 4.88 4
  352.1 10.81 10
  352.2 17.47 17
  352.3 18.9 18
  352.4 13.81 13
  352.7 6.85 6
  352.8 12.27 12
  352.9 16.02 16
  353.0 16.16 16
  353.3 11.94 11
  353.4 16.06 16
  353.5 19.84 19
  353.6 18.62 18
  353.7 12.1 12
  353.9 3.45 3
  354.0 7.74 7
  354.1 14.4 14
  354.2 18.36 18
  354.3 17.05 17
  354.4 12.05 12
  354.6 8.4 8
  354.7 14.09 14
  354.8 20.36 20
  354.9 21.41 21
  355.0 16.02 16
  355.2 6.66 6
  355.3 10.58 10
  355.4 16.91 16
  355.5 20.17 20
  355.6 17.99 17
  355.7 12.85 12
  355.9 10.76 10
  356.0 15.27 15
  356.1 18.6 18
  356.2 17.31 17
  356.5 10.08 10
  356.6 17.31 17
  356.7 23.92 23
  356.8 23.94 23
  356.9 17.24 17
  357.8 8.16 8
  357.9 14.59 14
  358.0 18.57 18
  358.1 16.35 16
  358.2 10.55 10
  358.4 8.26 8
  358.5 12.85 12
  358.6 16.6 16
  358.7 16.23 16
  358.8 11.49 11
  359.0 4.03 4
  359.1 8.02 8
  359.2 14.68 14
  359.3 18.97 18
  359.4 18.29 18
  359.5 13.65 13
  359.7 7.62 7
  359.8 12.1 12
  359.9 18.46 18
  360.0 20.29 20
  360.1 15.27 15
  360.3 6.0 5
  360.4 10.6 10
  360.5 16.93 16
  360.6 18.79 18
  360.7 14.68 14
  361.0 9.36 9
  361.1 15.48 15
  361.2 18.9 18
  361.3 16.39 16
  361.4 10.08 10
  361.6 4.83 4
  361.7 9.12 9
  361.8 15.01 14
  361.9 18.36 18
  362.0 16.63 16
  362.1 11.56 11
  362.3 9.38 9
  362.4 13.67 13
  362.5 16.02 16
  362.6 13.51 13
  362.8 6.17 6
  362.9 9.33 9
  363.0 14.89 14
  363.1 17.75 17
  363.2 16.04 16
  363.3 11.98 11
  363.5 8.42 8
  363.6 11.66 11
  363.7 16.84 16
  363.8 20.08 20
  363.9 18.11 18
  364.0 12.36 12
  364.2 10.51 10
  364.3 16.56 16
  364.4 20.5 20
  364.5 17.99 17
  364.6 10.88 10
  364.8 6.1 6
  364.9 12.24 12
  365.0 18.55 18
  365.1 19.91 19
  365.2 15.06 15
  365.4 4.46 4
  365.5 9.1 9
  365.6 18.62 18
  365.7 24.77 24
  365.8 21.65 21
  365.9 11.56 11
  366.1 2.44 2
  366.2 9.94 9
  366.3 18.43 18
  366.4 20.71 20
  366.5 15.92 15
  366.7 9.29 9
  366.8 15.01 14
  366.9 21.72 21
  367.0 23.1 23
  367.1 17.59 17
  367.4 9.01 9
  367.5 16.65 16
  367.6 22.09 22
  367.7 20.45 20
  367.8 13.11 13
  368.0 6.97 6
  368.1 12.62 12
  368.2 17.85 17
  368.3 18.08 18
  368.4 13.41 13
  368.6 5.68 5
  368.7 9.83 9
  368.8 17.21 17
  368.9 21.22 21
  369.0 17.5 17
  369.1 8.65 8
  369.3 4.06 4
  369.4 12.97 12
  369.5 21.65 21
  369.6 23.17 23
  369.7 17.12 17
  370.6 7.55 7
  370.7 14.77 14
  370.8 20.45 20
  370.9 19.58 19
  371.0 13.39 13
  371.2 7.41 7
  371.3 13.3 13
  371.4 20.64 20
  371.5 23.45 23
  371.6 19.58 19
  371.7 12.64 12
  371.9 11.54 11
  372.0 17.71 17
  372.1 21.29 21
  372.2 18.62 18
  372.3 12.05 12
  372.5 8.94 8
  372.6 14.4 14
  372.7 18.5 18
  372.8 17.4 17
  372.9 12.2 12
  373.1 8.02 8
  373.2 12.34 12
  373.3 17.07 17
  373.4 18.25 18
  373.5 14.66 14
  373.6 8.75 8
  373.8 7.18 7
  373.9 12.55 12
  374.0 16.65 16
  374.1 16.11 16
  374.2 11.8 11
  374.4 7.34 7
  374.5 11.49 11
  374.6 16.67 16
  374.7 18.46 18
  374.8 15.15 15
  375.1 9.01 9
  375.2 13.98 13
  375.3 17.26 17
  375.4 15.76 15
  375.5 10.48 10
  375.7 8.23 8
  375.8 14.38 14
  375.9 18.81 18
  376.0 16.96 16
  376.1 10.39 10
  376.3 5.96 5
  376.4 12.66 12
  376.5 20.12 20
  376.6 22.14 22
  376.7 16.46 16
  376.9 3.33 3
  377.0 8.37 8
  377.1 18.71 18
  377.2 25.07 25
  377.3 21.81 21
  377.4 12.38 12
  377.6 7.81 7
  377.7 16.02 16
  377.8 23.17 23
  377.9 23.92 23
  378.0 18.13 18
  378.1 10.18 10
  378.3 6.89 6
  378.4 12.03 12
  378.5 16.25 16
  378.6 16.82 16
  378.9 14.87 14
  379.0 18.41 18
  379.1 21.11 21
  379.2 20.5 20
  379.3 16.7 16
  380.2 9.66 9
  380.3 14.87 14
  380.4 19.77 19
  380.5 20.05 20
  380.6 15.36 15
  380.8 10.39 10
  380.9 16.35 16
  381.0 22.14 22
  381.1 21.36 21
  381.2 14.47 14
  381.4 6.07 6
  381.5 10.11 10
  381.6 15.85 15
  381.7 18.86 18
  381.8 17.28 17
  382.7 9.52 9
  382.8 14.31 14
  382.9 18.93 18
  383.0 20.0 19
  383.1 16.84 16
  383.2 11.52 11
  383.4 7.9 7
  383.5 12.27 12
  383.6 17.07 17
  383.7 18.18 18
  383.8 14.49 14
  383.9 9.03 9
  384.6 7.67 7
  384.7 11.73 11
  384.8 17.1 17
  384.9 19.56 19
  385.0 17.14 17
  385.1 11.52 11
  385.3 9.5 9
  385.4 16.49 16
  385.5 22.02 21
  385.6 20.61 20
  385.7 13.88 13
  385.9 7.39 7
  386.0 11.35 11
  386.1 16.39 16
  386.2 18.41 18
  386.3 15.45 15
  386.6 7.67 7
  386.7 14.75 14
  386.8 21.04 21
  386.9 20.52 20
  387.0 12.69 12
  387.2 2.79 2
  387.3 10.11 10
  387.4 19.23 19
  387.5 21.86 21
  387.6 16.21 16
  387.8 5.3 5
  387.9 10.48 10
  388.0 18.79 18
  388.1 22.61 22
  388.2 18.67 18
  388.3 10.44 10
  388.5 5.7 5
  388.6 11.98 11
  388.7 18.71 18
  388.8 20.9 20
  388.9 16.67 16
  389.0 8.79 8
  389.2 5.44 5
  389.3 13.3 13
  389.4 19.79 19
  389.5 18.9 18
  389.6 12.1 12
  389.8 9.03 9
  389.9 15.62 15
  390.0 19.65 19
  390.1 17.59 17
  390.2 11.98 11
  390.4 9.24 9
  390.5 14.28 14
  390.6 18.95 18
  390.7 19.37 19
  390.8 15.41 15
  391.0 9.57 9
  391.1 13.86 13
  391.2 20.15 20
  391.3 22.77 22
  391.4 18.93 18
  391.5 11.54 11
  391.7 7.81 7
  391.8 12.92 12
  391.9 16.18 16
  392.0 13.93 13
  392.1 7.95 7
  392.3 5.21 5
  392.4 12.2 12
  392.5 19.04 19
  392.6 19.72 19
  392.7 13.95 13
  392.9 5.77 5
  393.0 9.83 9
  393.1 15.99 15
  393.2 20.17 20
  393.3 19.96 19
  393.4 15.5 15
  393.7 9.66 9
  393.8 16.46 16
  393.9 20.9 20
  394.0 18.53 18
  394.3 11.35 11
  394.4 19.28 19
  394.5 24.53 24
  394.6 22.23 22
  394.7 14.09 14
  394.9 7.29 7
  395.0 13.95 13
  395.1 20.64 20
  395.2 21.29 21
  395.3 15.22 15
  395.6 7.08 7
  395.7 13.84 13
  395.8 18.22 18
  395.9 16.7 16
  396.0 10.83 10
  396.2 6.36 6
  396.3 11.73 11
  396.4 17.14 17
  396.5 17.64 17
  396.6 13.16 13
  396.8 8.82 8
  396.9 14.33 14
  397.0 20.47 20
  397.1 22.16 22
  397.2 18.36 18
  397.3 12.59 12
  397.5 9.52 9
  397.6 11.82 11
  397.7 13.65 13
  397.8 13.74 13
  397.9 11.94 11
  398.1 9.24 9
  398.2 12.05 12
  398.3 15.95 15
  398.4 16.32 16
  398.5 11.26 11
  398.7 2.11 2
  398.8 6.43 6
  398.9 13.58 13
  399.0 17.89 17
  399.1 16.53 16
  399.2 11.19 11
  399.4 5.49 5
  399.5 9.36 9
  399.6 14.68 14
  399.7 17.26 17
  399.8 15.01 14
  399.9 9.69 9
  400.1 7.36 7
  400.2 12.8 12
  400.3 17.07 17
  400.4 16.14 16
  400.7 10.48 10
  400.8 15.17 15
  400.9 17.8 17
  401.0 15.5 15
  401.1 9.85 9
  401.3 7.53 7
  401.4 14.63 14
  401.5 21.62 21
  401.6 22.61 22
  401.7 16.63 16
  402.0 8.3 8
  402.1 15.99 15
  402.2 21.39 21
  402.3 19.96 19
  402.4 13.7 13
  402.6 10.81 10
  402.7 15.81 15
  402.8 18.5 18
  402.9 15.85 15
  403.0 9.69 9
  403.2 6.5 6
  403.3 12.85 12
  403.4 19.02 19
  403.5 19.89 19
  403.6 15.41 15
  404.4 5.37 5
  404.5 9.05 9
  404.6 17.14 17
  404.7 23.59 23
  404.8 22.77 22
  404.9 15.1 15
  405.1 4.92 4
  405.2 10.34 10
  405.3 17.8 17
  405.4 21.04 21
  405.5 18.08 18
  405.6 12.17 12
  405.8 8.51 8
  405.9 12.48 12
  406.0 16.79 16
  406.1 18.48 18
  406.2 16.63 16
  407.1 8.91 8
  407.2 15.43 15
  407.3 19.56 19
  407.4 17.59 17
  407.5 10.93 10
  407.7 4.32 4
  407.8 8.98 8
  407.9 14.21 14
  408.0 15.43 15
  408.3 9.69 9
  408.4 15.76 15
  408.5 22.26 22
  408.6 23.08 23
  408.7 16.67 16
  409.0 7.15 7
  409.1 16.39 16
  409.2 23.92 23
  409.3 23.36 23
  409.4 15.17 15
  409.6 5.58 5
  409.7 11.98 11
  409.8 19.61 19
  409.9 22.37 22
  410.0 19.56 19
  410.3 13.79 13
  410.4 19.02 19
  410.5 23.48 23
  410.6 23.12 23
  410.7 17.87 17
  411.5 4.88 4
  411.6 11.14 11
  411.7 18.95 18
  411.8 21.44 21
  411.9 16.82 16
  412.8 10.3 10
  412.9 16.46 16
  413.0 22.47 22
  413.1 23.52 23
  413.2 18.36 18
  413.3 10.88 10
  413.5 7.34 7
  413.6 11.35 11
  413.7 14.82 14
  413.8 15.45 15
  414.1 13.04 13
  414.2 16.04 16
  414.3 18.46 18
  414.4 17.59 17
  414.5 13.32 13
  414.7 7.58 7
  414.8 10.91 10
  414.9 15.57 15
  415.0 17.03 17
  415.1 13.84 13
  415.2 9.01 9
  415.4 8.44 8
  415.5 12.31 12
  415.6 14.24 14
  415.7 12.01 11
  416.0 6.66 6
  416.1 13.27 13
  416.2 19.21 19
  416.3 20.12 20
  416.4 15.85 15
  416.5 10.23 10
  416.7 9.4 9
  416.8 14.05 14
  416.9 17.0 16
  417.0 14.82 14
  417.1 8.68 8
  417.3 6.47 6
  417.4 13.86 13
  417.5 19.65 19
  417.6 18.48 18
  417.7 12.01 11
  417.9 9.22 9
  418.0 15.88 15
  418.1 21.15 21
  418.2 20.85 20
  418.3 15.53 15
  418.5 6.66 6
  418.6 10.2 10
  418.7 17.03 17
  418.8 20.92 20
  418.9 18.06 18
  419.0 11.0 10
  419.2 7.79 7
  419.3 14.49 14
  419.4 20.92 20
  419.5 21.83 21
  419.6 16.14 16
  419.7 7.74 7
  419.9 6.8 6
  420.0 14.92 14
  420.1 20.54 20
  420.2 19.23 19
  420.3 12.73 12
  420.5 6.64 6
  420.6 12.36 12
  420.7 19.68 19
  420.8 22.51 22
  420.9 18.76 18
  421.0 12.41 12
  421.2 12.22 12
  421.3 17.07 17
  421.4 19.39 19
  421.5 16.93 16
  421.6 11.09 11
  421.8 8.11 8
  421.9 14.85 14
  422.0 20.29 20
  422.1 18.83 18
  422.2 11.49 11
  422.4 5.3 5
  422.5 12.05 12
  422.6 19.65 19
  422.7 22.02 21
  422.8 17.31 17
  423.0 6.24 6
  423.1 10.6 10
  423.2 19.11 19
  423.3 23.9 23
  423.4 20.83 20
  423.5 13.18 13
  423.7 8.86 8
  423.8 15.48 15
  423.9 22.28 22
  424.0 23.76 23
  424.1 18.67 18
  424.2 11.16 11
  424.4 7.95 7
  424.5 13.72 13
  424.6 19.3 19
  424.7 19.51 19
  424.8 13.48 13
  425.0 7.04 7
  425.1 14.26 14
  425.2 22.0 21
  425.3 23.31 23
  425.4 17.45 17
  426.3 7.65 7
  426.4 15.85 15
  426.5 21.04 21
  426.6 18.88 18
  426.7 11.52 11
  426.9 5.82 5
  427.0 12.97 12
  427.1 20.47 20
  427.2 21.74 21
  427.3 16.3 16
  427.5 7.5 7
  427.6 11.4 11
  427.7 17.59 17
  427.8 20.85 20
  427.9 18.34 18
  428.0 11.47 11
  428.2 5.79 5
  428.3 12.1 12
  428.4 18.93 18
  428.5 20.08 20
  428.6 14.85 14
  428.9 8.16 8
  429.0 14.52 14
  429.1 18.93 18
  429.2 17.8 17
  429.3 12.52 12
  429.5 10.51 10
  429.6 16.06 16
  429.7 19.51 19
  429.8 16.67 16
  429.9 9.36 9
  430.1 4.83 4
  430.2 10.93 10
  430.3 15.71 15
  430.4 14.05 14
  430.5 7.04 7
  430.7 1.83 1
  430.8 9.05 9
  430.9 17.0 16
  431.0 19.84 19
  431.1 16.02 16
  431.4 7.74 7
  431.5 15.24 15
  431.6 21.76 21
  431.7 22.05 22
  431.8 16.14 16
  432.0 8.77 8
  432.1 13.88 13
  432.2 19.42 19
  432.3 19.37 19
  432.4 13.58 13
  432.6 8.07 8
  432.7 14.54 14
  432.8 21.76 21
  432.9 23.66 23
  433.0 18.69 18
  433.1 10.55 10
  433.3 6.82 6
  433.4 13.6 13
  433.5 20.33 20
  433.6 21.76 21
  433.7 17.38 17
  433.9 10.32 10
  434.0 14.82 14
  434.1 21.44 21
  434.2 24.44 24
  434.3 21.58 21
  434.4 15.6 15
  434.6 12.66 12
  434.7 17.14 17
  434.8 20.38 20
  434.9 18.69 18
  435.0 12.57 12
  435.2 5.82 5
  435.3 11.54 11
  435.4 19.11 19
  435.5 22.3 22
  435.6 18.74 18
  435.9 11.98 11
  436.0 18.03 18
  436.1 21.01 20
  436.2 17.82 17
  436.3 11.21 11
  436.5 9.43 9
  436.6 15.83 15
  436.7 20.73 20
  436.8 19.98 19
  436.9 14.12 14
  437.1 5.72 5
  437.2 10.08 10
  437.3 17.57 17
  437.4 22.19 22
  437.5 20.4 20
  437.6 14.8 14
  438.4 3.26 3
  438.5 8.58 8
  438.6 15.78 15
  438.7 19.0 18
  438.8 15.69 15
  439.0 8.49 8
  439.1 13.7 13
  439.2 20.8 20
  439.3 23.05 23
  439.4 18.13 18
  439.5 9.69 9
  439.7 4.88 4
  439.8 11.21 11
  439.9 17.66 17
  440.0 19.18 19
  440.1 15.22 15
  440.9 3.19 3
  441.0 8.61 8
  441.1 18.15 18
  441.2 24.27 24
  441.3 22.87 22
  441.4 16.32 16
  442.2 4.32 4
  442.3 7.76 7
  442.4 15.74 15
  442.5 21.48 21
  442.6 19.79 19
  442.7 12.1 12
  442.9 4.88 4
  443.0 10.55 10
  443.1 17.31 17
  443.2 19.86 19
  443.3 16.23 16
  443.6 9.71 9
  443.7 16.77 16
  443.8 20.57 20
  443.9 17.26 17
  444.0 9.64 9
  444.2 5.25 5
  444.3 12.22 12
  444.4 19.61 19
  444.5 21.83 21
  444.6 17.89 17
  444.7 11.56 11
  444.9 9.26 9
  445.0 14.05 14
  445.1 17.8 17
  445.2 16.56 16
  445.3 10.79 10
  445.5 7.2 7
  445.6 14.24 14
  445.7 20.29 20
  445.8 18.95 18
  445.9 11.05 11
  446.1 4.69 4
  446.2 12.69 12
  446.3 20.47 20
  446.4 20.76 20
  446.5 13.58 13
  446.7 5.3 5
  446.8 11.91 11
  446.9 20.59 20
  447.0 24.81 24
  447.1 21.67 21
  447.2 13.86 13
  447.4 8.89 8
  447.5 14.73 14
  447.6 19.61 19
  447.7 19.21 19
  447.8 14.24 14
  448.0 8.4 8
  448.1 12.8 12
  448.2 18.62 18
  448.3 20.4 20
  448.4 15.99 15
  448.6 7.15 7
  448.7 11.52 11
  448.8 18.32 18
  448.9 21.25 21
  449.0 17.89 17
  449.3 10.01 9
  449.4 17.17 17
  449.5 22.87 22
  449.6 21.46 21
  449.7 13.13 13
  449.9 3.52 3
  450.0 10.44 10
  450.1 19.32 19
  450.2 22.77 22
  450.3 18.18 18
  450.4 9.45 9
  450.6 6.45 6
  450.7 14.26 14
  450.8 19.98 19
  450.9 18.93 18
  451.0 12.95 12
  451.2 7.5 7
  451.3 13.09 13
  451.4 19.91 19
  451.5 21.79 21
  451.6 16.02 16
  451.7 6.24 6
  451.9 2.98 2
  452.0 12.48 12
  452.1 20.52 20
  452.2 20.71 20
  452.3 14.47 14
  452.5 8.0 7
  452.6 11.61 11
  452.7 15.24 15
  452.8 15.43 15
  452.9 11.98 11
  453.1 7.93 7
  453.2 13.65 13
  453.3 20.87 20
  453.4 23.22 23
  453.5 18.5 18
  453.6 10.53 10
  453.8 6.78 6
  453.9 12.92 12
  454.0 18.46 18
  454.1 18.01 17
  454.2 11.07 11
  454.4 0.73 0
  454.5 5.93 5
  454.6 13.84 13
  454.7 17.71 17
  454.8 14.99 14
  455.1 9.5 9
  455.2 15.1 15
  455.3 17.85 17
  455.4 15.97 15
  455.5 12.05 12
  455.7 10.06 10
  455.8 12.43 12
  455.9 14.26 14
  456.0 13.32 13
  456.3 9.15 9
  456.4 14.24 14
  456.5 19.28 19
  456.6 20.83 20
  456.7 17.73 17
  456.8 11.91 11
  457.0 8.4 8
  457.1 13.46 13
  457.2 17.42 17
  457.3 15.45 15
  457.4 8.35 8
  457.6 1.9 1
  457.7 8.11 8
  457.8 16.06 16
  457.9 20.31 20
  458.0 18.69 18
  458.1 13.65 13
  458.3 11.14 11
  458.4 15.64 15
  458.5 19.18 19
  458.6 18.41 18
  458.7 14.02 14
  458.9 10.55 10
  459.0 15.43 15
  459.1 20.31 20
  459.2 20.33 20
  459.3 15.15 15
  459.5 9.55 9
  459.6 14.59 14
  459.7 19.86 19
  459.8 20.36 20
  459.9 15.67 15
  460.8 8.21 8
  460.9 12.71 12
  461.0 17.52 17
  461.1 18.5 18
  461.2 14.42 14
  461.5 8.0 7
  461.6 14.31 14
  461.7 19.07 19
  461.8 18.11 18
  461.9 12.34 12
  462.1 8.26 8
  462.2 14.82 14
  462.3 21.62 21
  462.4 23.03 23
  462.5 18.03 18
  462.6 10.53 10
  462.8 7.9 7
  462.9 13.46 13
  463.0 17.28 17
  463.1 15.64 15
  463.4 9.55 9
  463.5 16.86 16
  463.6 22.4 22
  463.7 21.53 21
  463.8 15.64 15
  464.6 9.78 9
  464.7 12.92 12
  464.8 18.13 18
  464.9 21.08 21
  465.0 18.74 18
  465.1 12.76 12
  465.3 9.99 9
  465.4 16.21 16
  465.5 21.41 21
  465.6 20.71 20
  465.7 14.19 14
  465.9 5.49 5
  466.0 9.97 9
  466.1 16.06 16
  466.2 18.48 18
  466.3 15.76 15
  466.6 11.61 11
  466.7 16.6 16
  466.8 19.91 19
  466.9 18.6 18
  467.0 13.32 13
  467.2 7.72 7
  467.3 12.64 12
  467.4 18.6 18
  467.5 20.26 20
  467.6 16.35 16
  467.9 9.8 9
  468.0 15.74 15
  468.1 19.3 19
  468.2 16.46 16
  468.5 8.26 8
  468.6 16.14 16
  468.7 21.58 21
  468.8 19.91 19
  468.9 12.92 12
  469.1 5.35 5
  469.2 9.12 9
  469.3 13.95 13
  469.4 15.71 15
  469.5 13.13 13
  469.7 7.11 7
  469.8 10.67 10
  469.9 17.5 17
  470.0 21.88 21
  470.1 19.39 19
  470.2 11.56 11
  470.4 4.43 4
  470.5 10.13 10
  470.6 16.65 16
  470.7 18.48 18
  470.8 13.81 13
  471.1 5.91 5
  471.2 13.86 13
  471.3 19.3 19
  471.4 17.47 17
  471.5 10.32 10
  471.7 6.19 6
  471.8 13.74 13
  471.9 20.92 20
  472.0 22.02 21
  472.1 16.63 16
  472.2 8.94 8
  472.4 5.79 5
  472.5 11.73 11
  472.6 16.77 16
  472.7 16.39 16
  473.0 10.04 10
  473.1 16.35 16
  473.2 20.54 20
  473.3 18.15 18
  473.4 11.09 11
  473.6 6.03 6
  473.7 11.98 11
  473.8 18.6 18
  473.9 20.43 20
  474.0 15.69 15
  474.1 7.9 7
  474.3 5.02 5
  474.4 11.56 11
  474.5 17.17 17
  474.6 17.28 17
  474.7 12.36 12
  474.9 8.98 8
  475.0 16.04 16
  475.1 22.98 22
  475.2 23.15 23
  475.3 15.45 15
  475.6 6.45 6
  475.7 16.44 16
  475.8 22.87 22
  475.9 21.01 20
  476.0 13.91 13
  476.2 8.3 8
  476.3 12.92 12
  476.4 17.35 17
  476.5 17.35 17
  476.6 12.48 12
  476.8 5.42 5
  476.9 10.6 10
  477.0 18.11 18
  477.1 20.73 20
  477.2 15.41 15
  477.4 3.85 3
  477.5 9.19 9
  477.6 17.82 17
  477.7 22.26 22
  477.8 19.96 19
  477.9 14.14 14
  478.1 10.01 9
  478.2 14.33 14
  478.3 19.07 19
  478.4 19.93 19
  478.5 15.85 15
  478.8 9.83 9
  478.9 14.68 14
  479.0 18.06 18
  479.1 17.19 17
  479.2 12.83 12
  479.4 9.99 9
  479.5 15.95 15
  479.6 22.07 22
  479.7 22.84 22
  479.8 17.14 17
  480.1 10.48 10
  480.2 17.99 17
  480.3 22.73 22
  480.4 20.83 20
  480.5 13.74 13
  480.7 6.94 6
  480.8 13.27 13
  480.9 20.54 20
  481.0 22.33 22
  481.1 17.61 17
  481.9 10.25 10
  482.0 15.03 15
  482.1 18.22 18
  482.2 16.74 16
  482.3 12.17 12
  482.5 8.86 8
  482.6 13.18 13
  482.7 18.6 18
  482.8 20.76 20
  482.9 17.12 17
  483.0 9.64 9
  483.2 4.81 4
  483.3 12.34 12
  483.4 20.97 20
  483.5 23.85 23
  483.6 18.71 18
  483.7 9.8 9
  483.9 6.94 6
  484.0 14.12 14
  484.1 19.14 19
  484.2 17.26 17
  484.3 10.13 10
  484.5 5.44 5
  484.6 12.38 12
  484.7 19.21 19
  484.8 20.22 20
  484.9 14.92 14
  485.2 7.43 7
  485.3 13.7 13
  485.4 18.62 18
  485.5 18.15 18
  485.6 12.69 12
  485.8 8.65 8
  485.9 14.54 14
  486.0 19.21 19
  486.1 17.92 17
  486.4 12.43 12
  486.5 19.61 19
  486.6 25.23 25
  486.7 24.91 24
  486.8 18.81 18
  487.1 10.58 10
  487.2 17.87 17
  487.3 23.41 23
  487.4 22.49 22
  487.5 16.46 16
  488.2 8.44 8
  488.3 10.48 10
  488.4 17.38 17
  488.5 24.2 24
  488.6 24.98 24
  488.7 18.53 18
  488.8 9.87 9
  489.0 8.49 8
  489.1 15.1 15
  489.2 19.98 19
  489.3 19.44 19
  489.4 14.12 14
  489.6 9.19 9
  489.7 15.22 15
  489.8 22.28 22
  489.9 24.55 24
  490.0 19.79 19
  490.1 11.23 11
  490.3 7.34 7
  490.4 15.53 15
  490.5 22.14 22
  490.6 20.5 20
  490.7 11.89 11
  490.9 4.55 4
  491.0 10.91 10
  491.1 16.58 16
  491.2 16.53 16
  491.3 11.61 11
  491.5 6.47 6
  491.6 11.61 11
  491.7 18.36 18
  491.8 20.9 20
  491.9 16.14 16
  492.0 7.25 7
  492.2 2.93 2
  492.3 10.72 10
  492.4 18.71 18
  492.5 21.06 21
  492.6 16.7 16
  493.4 3.99 3
  493.5 8.42 8
  493.6 15.62 15
  493.7 20.26 20
  493.8 19.04 19
  493.9 12.95 12
  494.1 7.41 7
  494.2 13.37 13
  494.3 19.21 19
  494.4 19.21 19
  494.5 13.63 13
  494.7 6.26 6
  494.8 9.55 9
  494.9 14.38 14
  495.0 17.07 17
  495.1 16.46 16
  495.2 13.88 13
  496.0 7.6 7
  496.1 13.27 13
  496.2 21.13 21
  496.3 23.64 23
  496.4 17.66 17
  496.5 8.0 7
  496.7 4.81 4
  496.8 11.84 11
  496.9 17.35 17
  497.0 16.84 16
  497.1 11.05 11
  497.3 7.69 7
  497.4 14.99 14
  497.5 21.51 21
  497.6 21.6 21
  497.7 15.6 15
  497.8 8.65 8
  498.0 8.89 8
  498.1 13.63 13
  498.2 15.78 15
  498.3 13.6 13
  498.4 8.94 8
  498.6 6.92 6
  498.7 11.96 11
  498.8 16.89 16
  498.9 17.96 17
  499.0 14.52 14
  499.1 9.4 9
  499.3 8.65 8
  499.4 12.9 12
  499.5 15.03 15
  499.6 12.57 12
  499.8 5.51 5
  499.9 8.35 8
  500.0 14.28 14
  500.1 18.83 18
  500.2 19.02 19
  500.3 15.81 15
  500.5 13.48 13
  500.6 17.0 16
  500.7 20.0 19
  500.8 18.86 18
  500.9 13.41 13
  501.1 7.27 7
  501.2 12.95 12
  501.3 20.17 20
  501.4 22.8 22
  501.5 18.83 18
  501.6 11.4 11
  501.8 7.25 7
  501.9 13.91 13
  502.0 20.38 20
  502.1 20.92 20
  502.2 15.17 15
  502.4 7.74 7
  502.5 13.18 13
  502.6 20.97 20
  502.7 25.09 25
  502.8 22.33 22
  502.9 14.59 14
  503.1 7.32 7
  503.2 12.62 12
  503.3 18.32 18
  503.4 18.71 18
  503.5 13.63 13
  503.7 8.58 8
  503.8 14.26 14
  503.9 20.19 20
  504.0 20.83 20
  504.1 15.27 15
  504.3 5.18 5
  504.4 9.52 9
  504.5 17.17 17
  504.6 21.36 21
  504.7 18.62 18
  504.8 11.96 11
  505.0 9.8 9
  505.1 15.55 15
  505.2 19.96 19
  505.3 19.3 19
  505.4 14.56 14
  505.6 11.14 11
  505.7 16.21 16
  505.8 20.59 20
  505.9 19.65 19
  506.0 13.51 13
  506.2 5.68 5
  506.3 11.26 11
  506.4 19.23 19
  506.5 22.73 22
  506.6 18.62 18
  506.7 10.46 10
  506.9 6.59 6
  507.0 12.64 12
  507.1 17.66 17
  507.2 17.57 17
  507.3 12.99 12
  507.5 6.64 6
  507.6 9.99 9
  507.7 14.85 14
  507.8 16.65 16
  507.9 13.41 13
  508.1 4.55 4
  508.2 7.79 7
  508.3 15.53 15
  508.4 21.65 21
  508.5 20.92 20
  508.6 13.84 13
  508.8 5.79 5
  508.9 10.81 10
  509.0 16.06 16
  509.1 16.46 16
  509.2 11.77 11
  509.4 5.56 5
  509.5 11.21 11
  509.6 19.75 19
  509.7 24.67 24
  509.8 22.12 22
  509.9 14.14 14
  510.1 5.72 5
  510.2 10.11 10
  510.3 15.81 15
  510.4 18.03 18
  510.5 15.24 15
  510.7 8.28 8
  510.8 11.94 11
  510.9 19.0 18
  511.0 23.83 23
  511.1 22.0 21
  511.2 14.52 14
  511.4 7.76 7
  511.5 15.38 15
  511.6 23.43 23
  511.7 23.69 23
  511.8 14.94 14
  512.0 3.07 3
  512.1 9.9 9
  512.2 17.99 17
  512.3 19.51 19
  512.4 13.7 13
  512.6 5.09 5
  512.7 10.91 10
  512.8 19.3 19
  512.9 23.59 23
  513.0 20.29 20
  513.1 12.15 12
  513.3 7.39 7
  513.4 15.27 15
  513.5 22.58 22
  513.6 22.68 22
  513.7 15.95 15
  513.9 8.51 8
  514.0 13.23 13
  514.1 18.03 18
  514.2 18.64 18
  514.3 15.22 15
  514.5 10.11 10
  514.6 13.3 13
  514.7 18.06 18
  514.8 19.63 19
  514.9 15.2 15
  515.0 7.08 7
  515.2 1.88 1
  515.3 8.7 8
  515.4 16.84 16
  515.5 21.48 21
  515.6 20.57 20
  515.7 15.57 15
  516.4 3.94 3
  516.5 7.08 7
  516.6 16.65 16
  516.7 24.86 24
  516.8 24.93 24
  516.9 17.21 17
  517.1 6.52 6
  517.2 11.02 11
  517.3 17.82 17
  517.4 21.58 21
  517.5 19.79 19
  517.6 14.38 14
  517.8 11.49 11
  517.9 16.93 16
  518.0 21.62 21
  518.1 21.27 21
  518.2 16.04 16
  518.4 9.5 9
  518.5 14.31 14
  518.6 20.45 20
  518.7 21.97 21
  518.8 17.1 17
  519.0 7.65 7
  519.1 11.54 11
  519.2 18.81 18
  519.3 24.04 24
  519.4 23.52 23
  519.5 17.64 17
  519.8 10.65 10
  519.9 16.35 16
  520.0 20.0 19
  520.1 18.83 18
  520.4 12.59 12
  520.5 18.11 18
  520.6 22.12 22
  520.7 20.22 20
  520.8 13.51 13
  521.0 9.97 9
  521.1 16.21 16
  521.2 20.66 20
  521.3 18.97 18
  521.4 12.43 12
  521.6 5.28 5
  521.7 10.91 10
  521.8 18.83 18
  521.9 22.26 22
  522.0 18.08 18
  522.1 9.87 9
  522.3 6.64 6
  522.4 13.2 13
  522.5 17.99 17
  522.6 16.96 16
  522.7 11.66 11
  522.9 8.09 8
  523.0 13.02 13
  523.1 18.08 18
  523.2 19.16 19
  523.3 15.62 15
  523.5 10.51 10
  523.6 14.94 14
  523.7 20.36 20
  523.8 21.22 21
  523.9 15.85 15
  524.0 7.6 7
  524.2 4.78 4
  524.3 12.52 12
  524.4 19.89 19
  524.5 21.46 21
  524.6 16.53 16
  524.9 9.55 9
  525.0 15.69 15
  525.1 18.79 18
  525.2 15.76 15
  526.1 5.75 5
  526.2 13.16 13
  526.3 20.17 20
  526.4 22.16 22
  526.5 18.11 18
  527.4 7.76 7
  527.5 14.54 14
  527.6 17.99 17
  527.7 14.89 14
  527.8 8.11 8
  528.0 4.08 4
  528.1 9.78 9
  528.2 16.56 16
  528.3 20.17 20
  528.4 18.5 18
  528.5 13.65 13
  529.3 5.37 5
  529.4 12.41 12
  529.5 18.88 18
  529.6 20.08 20
  529.7 15.24 15
  529.9 7.01 7
  530.0 11.87 11
  530.1 18.76 18
  530.2 20.61 20
  530.3 15.03 15
  530.6 6.8 6
  530.7 13.72 13
  530.8 18.11 18
  530.9 16.77 16
  531.0 11.26 11
  531.2 6.94 6
  531.3 12.45 12
  531.4 18.22 18
  531.5 19.25 19
  531.6 14.75 14
  531.8 6.26 6
  531.9 10.23 10
  532.0 17.57 17
  532.1 22.33 22
  532.2 20.59 20
  532.3 13.7 13
  532.5 8.04 8
  532.6 14.09 14
  532.7 19.79 19
  532.8 19.93 19
  532.9 15.2 15
  533.1 9.94 9
  533.2 13.27 13
  533.3 17.38 17
  533.4 18.79 18
  533.5 16.32 16
  533.6 12.12 12
  533.8 9.83 9
  533.9 12.99 12
  534.0 16.3 16
  534.1 16.39 16
  534.2 12.1 12
  534.4 6.43 6
  534.5 11.8 11
  534.6 18.32 18
  534.7 19.91 19
  534.8 15.48 15
  535.0 8.16 8
  535.1 12.01 11
  535.2 17.68 17
  535.3 20.29 20
  535.4 17.24 17
  535.5 10.01 9
  535.7 2.04 2
  535.8 6.75 6
  535.9 13.56 13
  536.0 17.35 17
  536.1 16.42 16
  536.3 12.48 12
  536.4 15.31 15
  536.5 19.47 19
  536.6 20.26 20
  536.7 15.36 15
  537.0 7.6 7
  537.1 14.24 14
  537.2 18.69 18
  537.3 18.11 18
  537.4 13.56 13
  537.6 7.55 7
  537.7 11.16 11
  537.8 16.37 16
  537.9 18.01 17
  538.0 14.17 14
  538.3 7.97 7
  538.4 14.05 14
  538.5 18.03 18
  538.6 15.85 15
  538.7 9.03 9
  538.9 6.38 6
  539.0 13.88 13
  539.1 19.93 19
  539.2 19.82 19
  539.3 14.35 14
  539.4 8.04 8
  539.6 7.15 7
  539.7 11.16 11
  539.8 13.79 13
  539.9 13.51 13
  540.0 11.07 11
  540.2 8.37 8
  540.3 12.1 12
  540.4 17.57 17
  540.5 20.31 20
  540.6 17.71 17
  541.4 11.91 11
  541.5 14.92 14
  541.6 19.25 19
  541.7 21.06 21
  541.8 19.0 18
  542.1 13.84 13
  542.2 19.04 19
  542.3 23.87 23
  542.4 23.94 23
  542.5 18.39 18
  543.3 6.89 6
  543.4 13.6 13
  543.5 23.59 23
  543.6 28.78 28
  543.7 24.65 24
  543.8 14.52 14
  544.0 5.23 5
  544.1 10.04 10
  544.2 15.34 15
  544.3 16.89 16
  544.4 14.49 14
  544.7 11.28 11
  544.8 14.99 14
  544.9 17.4 17
  545.0 16.37 16
  545.1 12.66 12
  545.3 9.62 9
  545.4 14.4 14
  545.5 20.1 20
  545.6 21.29 21
  545.7 15.95 15
  546.0 8.61 8
  546.1 16.02 16
  546.2 20.9 20
  546.3 19.54 19
  546.4 13.18 13
  546.6 5.51 5
  546.7 10.46 10
  546.8 17.19 17
  546.9 19.77 19
  547.0 16.39 16
  547.2 10.3 10
  547.3 14.49 14
  547.4 19.89 19
  547.5 21.2 21
  547.6 16.77 16
  547.9 9.47 9
  548.0 16.23 16
  548.1 21.08 21
  548.2 19.51 19
  548.3 12.43 12
  548.5 3.68 3
  548.6 8.54 8
  548.7 15.9 15
  548.8 19.51 19
  548.9 16.37 16
  549.1 6.92 6
  549.2 11.12 11
  549.3 18.5 18
  549.4 21.55 21
  549.5 16.51 16
  549.6 7.32 7
  549.8 4.88 4
  549.9 13.18 13
  550.0 19.65 19
  550.1 19.28 19
  550.2 12.8 12
  550.4 4.27 4
  550.5 9.8 9
  550.6 18.01 17
  550.7 22.02 21
  550.8 18.48 18
  550.9 10.67 10
  551.1 8.0 7
  551.2 15.6 15
  551.3 21.67 21
  551.4 20.61 20
  551.5 13.44 13
  551.7 6.78 6
  551.8 13.34 13
  551.9 19.96 19
  552.0 20.24 20
  552.1 14.09 14
  552.3 7.48 7
  552.4 14.21 14
  552.5 22.54 22
  552.6 25.38 25
  552.7 19.79 19
  552.8 9.71 9
  553.0 4.92 4
  553.1 13.63 13
  553.2 21.01 20
  553.3 19.91 19
  553.4 11.07 11
  553.6 3.33 3
  553.7 11.75 11
  553.8 20.54 20
  553.9 22.37 22
  554.0 15.9 15
  554.3 7.34 7
  554.4 17.19 17
  554.5 24.2 24
  554.6 22.7 22
  554.7 14.31 14
  554.9 5.68 5
  555.0 11.23 11
  555.1 17.45 17
  555.2 19.04 19
  555.3 15.24 15
  555.6 9.62 9
  555.7 15.53 15
  555.8 18.48 18
  555.9 15.74 15
  556.1 8.65 8
  556.2 11.98 11
  556.3 18.06 18
  556.4 22.21 22
  556.5 20.99 20
  556.6 14.63 14
  556.8 6.19 6
  556.9 11.82 11
  557.0 19.58 19
  557.1 22.16 22
  557.2 17.17 17
  557.4 8.26 8
  557.5 13.93 13
  557.6 21.74 21
  557.7 24.53 24
  557.8 20.15 20
  557.9 12.5 12
  558.1 10.06 10
  558.2 16.82 16
  558.3 21.95 21
  558.4 20.29 20
  558.5 12.45 12
  558.7 4.48 4
  558.8 10.91 10
  558.9 18.18 18
  559.0 20.0 19
  559.1 15.43 15
  559.4 8.42 8
  559.5 14.94 14
  559.6 20.0 19
  559.7 19.42 19
  559.8 13.41 13
  560.0 4.69 4
  560.1 8.75 8
  560.2 15.29 15
  560.3 18.69 18
  560.4 15.95 15
  560.7 8.84 8
  560.8 16.6 16
  560.9 22.0 21
  561.0 19.84 19
  561.1 11.4 11
  561.3 2.93 2
  561.4 9.4 9
  561.5 16.86 16
  561.6 18.62 18
  561.7 13.81 13
  561.9 7.55 7
  562.0 13.13 13
  562.1 19.61 19
  562.2 21.2 21
  562.3 16.65 16
  562.4 9.64 9
  562.6 7.43 7
  562.7 13.37 13
  562.8 18.01 17
  562.9 17.42 17
  563.0 11.96 11
  563.3 5.93 5
  563.4 11.96 11
  563.5 16.16 16
  563.6 14.66 14
  563.8 7.32 7
  563.9 11.91 11
  564.0 19.28 19
  564.1 21.93 21
  564.2 17.17 17
  564.5 8.86 8
  564.6 16.98 16
  564.7 22.73 22
  564.8 21.36 21
  564.9 14.31 14
  565.1 4.76 4
  565.2 8.54 8
  565.3 15.74 15
  565.4 20.71 20
  565.5 18.62 18
  565.6 10.41 10
  565.8 4.83 4
  565.9 13.16 13
  566.0 20.83 20
  566.1 21.13 21
  566.2 14.26 14
  567.0 4.34 4
  567.1 8.28 8
  567.2 15.64 15
  567.3 21.08 21
  567.4 20.54 20
  567.5 15.24 15
  567.7 10.74 10
  567.8 14.73 14
  567.9 18.01 17
  568.0 17.33 17
  568.1 12.99 12
  568.3 7.86 7
  568.4 12.8 12
  568.5 19.7 19
  568.6 22.58 22
  568.7 18.93 18
  568.8 12.05 12
  569.0 10.15 10
  569.1 15.9 15
  569.2 19.77 19
  569.3 17.66 17
  569.4 10.55 10
  569.6 4.27 4
  569.7 11.44 11
  569.8 19.35 19
  569.9 19.98 19
  570.0 12.27 12
  570.2 2.11 2
  570.3 8.86 8
  570.4 17.19 17
  570.5 20.15 20
  570.6 16.16 16
  570.8 7.27 7
  570.9 11.7 11
  571.0 19.84 19
  571.1 24.79 24
  571.2 22.28 22
  571.3 13.88 13
  571.5 3.8 3
  571.6 9.12 9
  571.7 17.14 17
  571.8 21.11 21
  571.9 17.82 17
  572.2 9.1 9
  572.3 18.11 18
  572.4 25.4 25
  572.5 24.27 24
  572.6 14.96 14
  572.8 1.57 1
  572.9 7.25 7
  573.0 16.96 16
  573.1 23.1 23
  573.2 21.08 21
  573.3 13.63 13
  573.5 10.83 10
  573.6 17.5 17
  573.7 21.2 21
  573.8 18.41 18
  573.9 12.2 12
  574.1 10.11 10
  574.2 15.88 15
  574.3 20.47 20
  574.4 19.44 19
  574.5 13.46 13
  574.7 7.9 7
  574.8 13.27 13
  574.9 19.25 19
  575.0 20.92 20
  575.1 17.19 17
  575.2 11.26 11
  575.4 9.17 9
  575.5 14.24 14
  575.6 18.79 18
  575.7 18.64 18
  575.8 13.27 13
  576.0 6.97 6
  576.1 13.65 13
  576.2 21.6 21
  576.3 23.9 23
  576.4 18.95 18
  576.5 11.61 11
  576.7 10.18 10
  576.8 15.17 15
  576.9 17.89 17
  577.0 15.81 15
  577.1 10.25 10
  577.3 5.68 5
  577.4 10.83 10
  577.5 16.89 16
  577.6 18.67 18
  577.7 14.94 14
  577.9 8.42 8
  578.0 12.24 12
  578.1 17.73 17
  578.2 20.22 20
  578.3 17.75 17
  578.4 12.24 12
  578.6 6.97 6
  578.7 11.21 11
  578.8 17.14 17
  578.9 19.93 19
  579.0 17.31 17
  579.2 9.83 9
  579.3 13.2 13
  579.4 19.09 19
  579.5 21.39 21
  579.6 17.73 17
  579.7 11.63 11
  579.9 10.18 10
  580.0 13.65 13
  580.1 14.96 14
  580.2 12.59 12
  580.5 6.71 6
  580.6 11.89 11
  580.7 17.45 17
  580.8 19.28 19
  580.9 15.92 15
  581.7 4.6 4
  581.8 8.94 8
  581.9 17.19 17
  582.0 22.7 22
  582.1 20.8 20
  582.2 13.48 13
  582.4 8.4 8
  582.5 14.26 14
  582.6 19.54 19
  582.7 19.89 19
  582.8 15.03 15
  583.1 7.9 7
  583.2 14.17 14
  583.3 18.43 18
  583.4 17.03 17
  583.5 11.33 11
  583.7 7.5 7
  583.8 13.09 13
  583.9 18.25 18
  584.0 18.06 18
  584.1 12.55 12
  584.3 6.78 6
  584.4 11.59 11
  584.5 16.89 16
  584.6 18.48 18
  584.7 15.69 15
  584.8 11.0 10
  585.0 9.57 9
  585.1 14.19 14
  585.2 17.73 17
  585.3 16.67 16
  585.4 12.03 12
  585.6 8.23 8
  585.7 12.71 12
  585.8 18.41 18
  585.9 20.97 20
  586.0 17.99 17
  586.1 11.21 11
  586.3 7.34 7
  586.4 13.79 13
  586.5 19.35 19
  586.6 18.71 18
  586.7 12.78 12
  586.9 8.58 8
  587.0 14.52 14
  587.1 19.72 19
  587.2 19.32 19
  587.3 13.7 13
  587.5 6.89 6
  587.6 11.35 11
  587.7 17.21 17
  587.8 19.82 19
  587.9 17.68 17
  588.2 12.31 12
  588.3 17.31 17
  588.4 21.06 21
  588.5 19.79 19
  588.6 14.02 14
  588.8 8.79 8
  588.9 14.28 14
  589.0 20.31 20
  589.1 21.51 21
  589.2 16.93 16
  589.4 8.56 8
  589.5 12.9 12
  589.6 19.93 19
  589.7 23.26 23
  589.8 19.7 19
  589.9 11.82 11
  590.1 6.57 6
  590.2 12.76 12
  590.3 18.36 18
  590.4 17.31 17
  590.5 10.04 10
  590.7 3.45 3
  590.8 9.92 9
  590.9 16.25 16
  591.0 16.77 16
  591.1 11.8 11
  591.3 5.42 5
  591.4 10.25 10
  591.5 17.66 17
  591.6 22.12 22
  591.7 19.61 19
  591.8 11.21 11
  592.0 2.2 2
  592.1 8.18 8
  592.2 15.67 15
  592.3 18.48 18
  592.4 15.08 15
  592.6 7.08 7
  592.7 10.6 10
  592.8 16.53 16
  592.9 19.16 19
  593.0 16.42 16
  593.1 11.19 11
  593.3 10.58 10
  593.4 15.03 15
  593.5 17.64 17
  593.6 15.64 15
  593.7 9.55 9
  593.9 2.23 2
  594.0 8.47 8
  594.1 16.93 16
  594.2 19.42 19
  594.3 12.92 12
  594.5 0.0 0
  594.6 5.58 5
  594.7 15.41 15
  594.8 21.97 21
  594.9 21.2 21
  595.0 15.27 15
  595.2 10.51 10
  595.3 15.5 15
  595.4 19.98 19
  595.5 19.63 19
  595.6 14.96 14
  595.8 8.98 8
  595.9 12.59 12
  596.0 17.73 17
  596.1 19.96 19
  596.2 17.57 17
  596.3 13.18 13
  596.5 11.91 11
  596.6 14.8 14
  596.7 16.49 16
  596.8 14.8 14
  596.9 9.92 9
  597.1 3.99 3
  597.2 8.51 8
  597.3 15.81 15
  597.4 21.08 21
  597.5 21.39 21
  597.6 17.82 17
  597.8 14.52 14
  597.9 17.12 17
  598.0 18.36 18
  598.1 15.53 15
  598.2 9.92 9
  598.4 7.41 7
  598.5 14.07 14
  598.6 21.83 21
  598.7 25.56 25
  598.8 22.63 22
  598.9 15.29 15
  599.1 9.59 9
  599.2 15.34 15
  599.3 20.85 20
  599.4 20.5 20
  599.5 14.19 14
//
