ACCESSION: MSBNK-RIKEN_NPDepo-NGA04352
RECORD_TITLE: Ecdysterone 22-O-benzoate; LC-ESI-QQQ; MS2; Frag=135.0V CID@25.0; [M+HCOO]-
DATE: 2018.04.04
AUTHORS: Nogawa T, Okano A, CSRS, RIKEN
LICENSE: CC BY
COMMENT: Origin: Plant
COMMENT: SubCategory_DNP: The sterols, Cholestanes
CH$NAME: Ecdysterone 22-O-benzoate
CH$COMPOUND_CLASS: Steroids
CH$FORMULA: C34H48O8
CH$EXACT_MASS: 584.7569
CH$SMILES: CC(C)(O)CC[C@H](OC(=O)c1ccccc1)[C@](C)(O)C1CC[C@@]2(O)C3=CC(=O)C4CC(O)C(O)C[C@]4(C)C3CC[C@]12C
CH$IUPAC: InChI=1S/C34H48O8/c1-30(2,39)14-13-28(42-29(38)20-9-7-6-8-10-20)33(5,40)27-12-16-34(41)22-17-24(35)23-18-25(36)26(37)19-31(23,3)21(22)11-15-32(27,34)4/h6-10,17,21,23,25-28,36-37,39-41H,11-16,18-19H2,1-5H3/t21?,23?,25?,26?,27?,28-,31+,32+,33+,34+/m0/s1
CH$LINK: INCHIKEY GHZYCHXISZLQFT-IKFSIKHDSA-N
CH$LINK: PUBCHEM CID:44663461
AC$INSTRUMENT: Agilent 6410 Triple Quadrupole LC/MS system
AC$INSTRUMENT_TYPE: LC-ESI-QQQ
AC$MASS_SPECTROMETRY: MS_TYPE MS2
AC$MASS_SPECTROMETRY: ION_MODE NEGATIVE
MS$FOCUSED_ION: PRECURSOR_TYPE [M+HCOO]-
PK$SPLASH: splash10-00di-0900000000-759148e44db7589f5494
PK$NUM_PEAK: 14
PK$PEAK: m/z int. rel.int.
  120.2 0.02 0
  120.3 1.75 1
  120.4 13.09 13
  120.5 32.68 32
  120.6 53.36 53
  120.7 66.38 66
  120.8 70.5 70
  120.9 72.84 72
  121.0 82.27 82
  121.1 96.95 96
  121.2 100.0 99
  121.3 76.99 76
  121.4 37.08 37
  121.5 5.15 5
//
