ACCESSION: MSBNK-RIKEN_NPDepo-NGA01312
RECORD_TITLE: 6-Benzoylheteratisine; LC-ESI-QQQ; MS2; Frag=135.0V CID@25.0; [M+H]+
DATE: 2018.04.04
AUTHORS: Nogawa T, Okano A, CSRS, RIKEN
LICENSE: CC BY
COMMENT: Origin: Plant
COMMENT: SubCategory_DNP: Terpenoid alkaloids, Diterpene alkaloid, Aconitum alkaloid
CH$NAME: 6-Benzoylheteratisine
CH$COMPOUND_CLASS: Alkaloids
CH$FORMULA: C29H37NO6
CH$EXACT_MASS: 495.6213
CH$SMILES: CCN1C[C@]2(C)CC[C@H](OC)[C@]34C5C[C@@H]6CC[C@@](O)(C5C(=O)O6)[C@H](C13)[C@@H](OC(=O)c1ccccc1)C42
CH$IUPAC: InChI=1S/C29H37NO6/c1-4-30-15-27(2)12-11-19(34-3)29-18-14-17-10-13-28(33,20(18)26(32)35-17)21(24(29)30)22(23(27)29)36-25(31)16-8-6-5-7-9-16/h5-9,17-24,33H,4,10-15H2,1-3H3/t17-,18?,19-,20?,21-,22+,23?,24?,27-,28+,29-/m0/s1
CH$LINK: CAS 99759-48-5
CH$LINK: CHEMSPIDER 4589194
CH$LINK: INCHIKEY XVVZJDDPRFFKTQ-MFJRHRAESA-N
AC$INSTRUMENT: Agilent 6410 Triple Quadrupole LC/MS system
AC$INSTRUMENT_TYPE: LC-ESI-QQQ
AC$MASS_SPECTROMETRY: MS_TYPE MS2
AC$MASS_SPECTROMETRY: ION_MODE POSITIVE
MS$FOCUSED_ION: PRECURSOR_TYPE [M+H]+
PK$SPLASH: splash10-0002-0000900000-57b5bfe60aff6adbb9ce
PK$NUM_PEAK: 25
PK$PEAK: m/z int. rel.int.
  341.8 2.12 2
  341.9 3.68 3
  342.0 5.63 5
  342.1 7.35 7
  342.2 8.28 8
  342.3 8.21 8
  342.4 7.1 7
  342.5 5.08 5
  342.6 2.7 2
  495.4 1.43 1
  495.5 3.31 3
  495.6 6.93 6
  495.7 13.27 13
  495.8 23.6 23
  495.9 38.66 38
  496.0 57.33 57
  496.1 76.42 76
  496.2 91.91 91
  496.3 100.0 99
  496.4 97.13 97
  496.5 80.93 80
  496.6 53.85 53
  496.7 24.99 24
  496.8 4.77 4
  496.9 0.0 0
//
