ACCESSION: MSBNK-RIKEN_NPDepo-NGA04613
RECORD_TITLE: Hupehemonoside; LC-ESI-QQQ; MS2; Frag=135.0V CID@25.0; [M+HCOO]-
DATE: 2018.04.04
AUTHORS: Nogawa T, Okano A, CSRS, RIKEN
LICENSE: CC BY
COMMENT: Origin: Plant
COMMENT: SubCategory_DNP: Steroidal alkaloids, Cevanine alkaloids
CH$NAME: Hupehemonoside
CH$COMPOUND_CLASS: Alkaloids
CH$FORMULA: C33H53NO8
CH$EXACT_MASS: 591.7923
CH$SMILES: C[C@H]1CC[C@@H]2N(CC3[C@@H]4C[C@H]5C(CC(=O)[C@H]6CC(OC7O[C@H](CO)[C@@H](O)[C@H](O)[C@H]7O)CC[C@@]65C)[C@@H]4CC[C@H]3[C@]2(C)O)C1
CH$IUPAC: InChI=1S/C33H53NO8/c1-16-4-7-27-33(3,40)22-6-5-18-19(21(22)14-34(27)13-16)11-23-20(18)12-25(36)24-10-17(8-9-32(23,24)2)41-31-30(39)29(38)28(37)26(15-35)42-31/h16-24,26-31,35,37-40H,4-15H2,1-3H3/t16-,17?,18+,19+,20?,21?,22+,23-,24+,26+,27-,28+,29-,30+,31?,32+,33-/m0/s1
CH$LINK: CAS 143120-88-1
CH$LINK: CHEMSPIDER 117023
CH$LINK: INCHIKEY DHQFYEJMFMYGCV-WNLYLCEVSA-N
CH$LINK: PUBCHEM CID:44661317
AC$INSTRUMENT: Agilent 6410 Triple Quadrupole LC/MS system
AC$INSTRUMENT_TYPE: LC-ESI-QQQ
AC$MASS_SPECTROMETRY: MS_TYPE MS2
AC$MASS_SPECTROMETRY: ION_MODE NEGATIVE
MS$FOCUSED_ION: PRECURSOR_TYPE [M+HCOO]-
PK$SPLASH: splash10-0a4i-4988788800-741153cd15c450561199
PK$NUM_PEAK: 4658
PK$PEAK: m/z int. rel.int.
  51.0 7.15 7
  51.1 7.79 7
  51.2 9.13 9
  51.3 10.98 10
  51.4 13.13 13
  51.5 14.68 14
  51.6 14.78 14
  51.7 13.57 13
  51.8 12.08 12
  51.9 10.87 10
  52.2 9.66 9
  52.3 10.89 10
  52.4 11.84 11
  52.5 11.75 11
  53.4 7.48 7
  53.5 9.68 9
  53.6 11.59 11
  53.7 12.89 12
  53.8 14.19 14
  53.9 15.11 15
  54.0 14.17 14
  54.1 11.02 11
  54.2 7.44 7
  54.4 6.34 6
  54.5 8.38 8
  54.6 10.39 10
  54.7 11.53 11
  54.8 11.64 11
  54.9 10.85 10
  55.2 9.53 9
  55.3 11.16 11
  55.4 12.36 12
  55.5 12.1 12
  55.6 10.87 10
  55.7 9.51 9
  55.8 8.36 8
  56.1 7.77 7
  56.2 8.87 8
  56.3 9.53 9
  56.4 10.1 10
  56.5 11.26 11
  56.6 12.43 12
  56.7 12.39 12
  57.0 11.18 11
  57.1 12.32 12
  57.2 13.03 13
  57.3 13.11 13
  57.4 12.78 12
  57.5 12.19 12
  57.6 11.7 11
  58.0 10.6 10
  58.1 12.5 12
  58.2 14.89 14
  58.3 16.59 16
  58.4 19.34 19
  58.5 26.4 26
  58.6 37.18 37
  58.7 44.66 44
  58.8 41.28 41
  58.9 27.81 27
  59.0 13.66 13
  59.5 10.67 10
  59.6 11.18 11
  59.7 12.76 12
  59.8 13.57 13
  59.9 12.58 12
  60.0 10.72 10
  60.3 10.5 10
  60.4 11.48 11
  60.5 12.52 12
  60.6 13.14 13
  60.7 12.65 12
  60.8 11.05 11
  60.9 9.31 9
  61.2 8.56 8
  61.3 9.44 9
  61.4 10.82 10
  61.5 11.62 11
  61.6 10.36 10
  61.7 6.98 6
  61.9 3.63 3
  62.0 6.01 6
  62.1 8.56 8
  62.2 9.4 9
  62.3 8.73 8
  62.4 7.79 7
  62.8 6.64 6
  62.9 7.75 7
  63.0 9.15 9
  63.1 10.78 10
  63.2 13.05 13
  63.3 15.47 15
  63.4 16.11 16
  63.5 13.84 13
  63.8 9.15 9
  63.9 12.7 12
  64.0 15.84 15
  64.1 16.13 16
  64.2 13.29 13
  64.3 9.17 9
  64.5 6.73 6
  64.6 9.64 9
  64.7 13.46 13
  64.8 16.41 16
  64.9 17.6 17
  65.0 16.74 16
  65.1 13.97 13
  65.2 10.28 10
  65.5 8.23 8
  65.6 9.35 9
  65.7 9.83 9
  65.8 10.39 10
  65.9 11.22 11
  66.0 11.51 11
  66.1 10.94 10
  67.1 5.81 5
  67.2 8.14 8
  67.3 12.56 12
  67.4 16.77 16
  67.5 18.06 18
  67.6 15.82 15
  67.7 12.43 12
  67.8 10.65 10
  67.9 10.67 10
  68.0 10.54 10
  68.3 8.23 8
  68.4 9.73 9
  68.5 12.3 12
  68.6 14.94 14
  68.7 15.93 15
  68.8 14.43 14
  68.9 12.03 12
  69.0 10.8 10
  69.1 10.58 10
  69.4 8.84 8
  69.5 10.47 10
  69.6 12.83 12
  69.7 14.56 14
  69.8 14.89 14
  69.9 13.86 13
  70.0 12.32 12
  70.5 11.13 11
  70.6 12.5 12
  70.7 14.13 14
  70.8 13.16 13
  70.9 9.48 9
  71.1 7.81 7
  71.2 10.63 10
  71.3 11.31 11
  71.4 9.79 9
  71.5 9.35 9
  71.6 11.35 11
  71.7 13.05 13
  71.8 11.84 11
  72.0 9.06 9
  72.1 11.79 11
  72.2 14.54 14
  72.3 14.52 14
  72.4 12.08 12
  73.2 8.18 8
  73.3 9.26 9
  73.4 10.43 10
  73.5 11.4 11
  73.6 12.01 11
  73.7 11.81 11
  73.8 10.82 10
  73.9 9.7 9
  74.5 9.9 9
  74.6 10.16 10
  74.7 11.44 11
  74.8 13.6 13
  74.9 14.89 14
  75.0 13.18 13
  75.1 8.89 8
  75.4 6.45 6
  75.5 9.72 9
  75.6 11.75 11
  75.7 11.57 11
  75.8 9.46 9
  75.9 6.89 6
  76.4 5.68 5
  76.5 6.51 6
  76.6 8.25 8
  76.7 10.56 10
  76.8 12.83 12
  76.9 14.5 14
  77.0 14.74 14
  77.1 12.61 12
  77.2 8.71 8
  77.4 7.0 6
  77.5 10.65 10
  77.6 13.14 13
  77.7 12.37 12
  79.0 8.82 8
  79.1 11.75 11
  79.2 14.15 14
  79.3 14.01 13
  79.4 12.04 12
  79.7 10.28 10
  79.8 11.07 11
  79.9 11.71 11
  80.0 12.03 12
  80.1 11.9 11
  80.2 11.46 11
  80.3 11.27 11
  80.4 11.77 11
  80.5 12.41 12
  80.6 12.23 12
  82.1 9.09 9
  82.2 10.85 10
  82.3 12.69 12
  82.4 13.86 13
  82.5 14.01 13
  82.6 12.98 12
  82.7 11.24 11
  82.8 9.61 9
  82.9 8.38 8
  83.2 6.51 6
  83.3 9.33 9
  83.4 12.37 12
  83.5 13.8 13
  83.6 13.91 13
  83.7 13.42 13
  83.8 11.7 11
  83.9 8.47 8
  84.1 5.77 5
  84.2 8.36 8
  84.3 10.82 10
  84.4 10.87 10
  84.5 8.84 8
  84.7 7.52 7
  84.8 9.64 9
  84.9 11.2 11
  85.0 11.2 11
  85.1 10.54 10
  85.2 9.97 9
  85.3 8.84 8
  85.6 6.45 6
  85.7 8.6 8
  85.8 9.9 9
  85.9 9.66 9
  86.0 9.04 9
  86.1 9.15 9
  86.2 9.66 9
  86.3 10.03 10
  86.4 10.21 10
  86.5 10.54 10
  86.6 10.89 10
  86.7 11.04 11
  86.8 10.74 10
  86.9 9.72 9
  87.2 8.47 8
  87.3 10.21 10
  87.4 11.68 11
  87.5 12.59 12
  87.6 13.38 13
  87.7 13.91 13
  87.8 13.47 13
  87.9 11.4 11
  88.1 5.28 5
  88.2 7.63 7
  88.3 16.15 16
  88.4 24.84 24
  88.5 25.76 25
  88.6 19.43 19
  88.7 14.02 14
  88.8 13.86 13
  88.9 14.85 14
  89.0 12.26 12
  89.1 7.26 7
  89.3 4.6 4
  89.4 7.88 7
  89.5 11.07 11
  89.6 11.92 11
  89.7 10.36 10
  89.8 7.94 7
  89.9 5.77 5
  90.1 4.64 4
  90.2 6.18 6
  90.3 8.23 8
  90.4 9.99 9
  90.5 11.7 11
  90.6 13.84 13
  90.7 15.56 15
  90.8 15.25 15
  90.9 12.74 12
  91.0 9.92 9
  91.2 9.51 9
  91.3 10.61 10
  91.4 11.07 11
  91.5 11.0 10
  91.6 10.96 10
  91.7 10.83 10
  91.8 10.05 10
  91.9 8.62 8
  92.8 7.13 7
  92.9 8.23 8
  93.0 8.87 8
  93.1 9.4 9
  93.2 9.95 9
  93.3 10.27 10
  93.4 10.65 10
  93.5 11.82 11
  93.6 13.38 13
  93.7 13.84 13
  93.8 12.59 12
  93.9 10.83 10
  94.0 9.95 9
  94.1 9.55 9
  94.4 8.67 8
  94.5 11.16 11
  94.6 12.81 12
  94.7 12.32 12
  95.4 8.23 8
  95.5 11.75 11
  95.6 14.37 14
  95.7 13.46 13
  95.8 9.86 9
  96.0 8.01 8
  96.1 10.98 10
  96.2 12.74 12
  96.3 11.7 11
  96.4 9.31 9
  97.0 7.06 7
  97.1 8.67 8
  97.2 10.54 10
  97.3 11.37 11
  97.4 11.35 11
  97.5 11.26 11
  97.6 11.04 11
  97.7 10.78 10
  97.8 11.33 11
  97.9 12.65 12
  98.0 13.02 13
  98.1 11.35 11
  98.8 11.02 11
  98.9 11.71 11
  99.0 13.25 13
  99.1 15.31 15
  99.2 16.68 16
  99.3 16.11 16
  99.4 13.47 13
  99.5 9.73 9
  99.8 6.21 6
  99.9 8.65 8
  100.0 9.59 9
  100.1 8.47 8
  100.2 7.63 7
  100.3 8.82 8
  100.4 11.09 11
  100.5 12.54 12
  100.6 12.54 12
  100.7 11.81 11
  100.8 11.02 11
  101.6 10.41 10
  101.7 11.59 11
  101.8 12.83 12
  101.9 13.22 13
  102.0 12.17 12
  102.1 9.9 9
  102.8 6.62 6
  102.9 9.31 9
  103.0 11.2 11
  103.1 11.26 11
  103.2 10.8 10
  103.3 10.91 10
  103.4 10.89 10
  103.5 9.66 9
  103.6 7.55 7
  103.9 5.5 5
  104.0 7.63 7
  104.1 10.41 10
  104.2 12.96 12
  104.3 14.5 14
  104.4 14.3 14
  104.5 11.93 11
  104.6 8.29 8
  104.9 6.34 6
  105.0 9.22 9
  105.1 11.82 11
  105.2 12.8 12
  105.3 11.95 11
  106.2 8.96 8
  106.3 10.32 10
  106.4 11.13 11
  106.5 11.11 11
  106.6 10.28 10
  106.9 9.0 8
  107.0 11.37 11
  107.1 13.42 13
  107.2 13.31 13
  107.3 11.09 11
  107.6 8.78 8
  107.7 10.5 10
  107.8 11.86 11
  107.9 11.88 11
  108.2 10.32 10
  108.3 12.43 12
  108.4 14.3 14
  108.5 14.19 14
  108.6 11.75 11
  108.7 8.49 8
  109.0 7.92 7
  109.1 9.26 9
  109.2 11.16 11
  109.3 13.2 13
  109.4 13.64 13
  109.5 11.68 11
  109.6 9.02 9
  109.8 8.01 8
  109.9 9.83 9
  110.0 12.59 12
  110.1 15.38 15
  110.2 16.85 16
  110.3 16.32 16
  110.4 14.54 14
  110.5 12.54 12
  110.6 10.3 10
  110.7 7.52 7
  110.9 5.5 5
  111.0 8.29 8
  111.1 11.71 11
  111.2 13.6 13
  111.3 13.4 13
  111.4 11.71 11
  111.5 9.35 9
  111.7 7.3 7
  111.8 9.75 9
  111.9 13.09 13
  112.0 14.92 14
  112.1 14.72 14
  112.2 13.77 13
  112.3 12.8 12
  112.4 11.38 11
  112.5 9.37 9
  112.8 8.32 8
  112.9 10.21 10
  113.0 11.97 11
  113.1 13.6 13
  113.2 15.53 15
  113.3 17.1 17
  113.4 16.9 16
  113.5 14.52 14
  113.6 11.59 11
  113.7 9.81 9
  113.8 9.5 9
  113.9 9.55 9
  114.0 9.04 9
  114.3 7.83 7
  114.4 9.75 9
  114.5 11.62 11
  114.6 11.66 11
  115.3 8.62 8
  115.4 10.01 9
  115.5 10.56 10
  115.6 9.72 9
  115.7 8.52 8
  116.0 7.41 7
  116.1 8.08 8
  116.2 9.55 9
  116.3 11.22 11
  116.4 11.81 11
  116.5 9.94 9
  116.6 6.09 6
  116.8 3.39 3
  116.9 6.71 6
  117.0 10.12 10
  117.1 11.57 11
  117.2 11.04 11
  117.3 9.62 9
  117.4 7.99 7
  117.7 6.47 6
  117.8 8.3 8
  117.9 11.05 11
  118.0 13.24 13
  118.1 12.98 12
  118.2 10.74 10
  118.3 10.94 10
  118.4 17.64 17
  118.5 26.69 26
  118.6 28.91 28
  118.7 22.69 22
  120.6 8.49 8
  120.7 9.42 9
  120.8 11.13 11
  120.9 13.27 13
  121.0 15.22 15
  121.1 15.82 15
  121.2 14.57 14
  121.3 12.81 12
  122.0 10.16 10
  122.1 11.02 11
  122.2 12.67 12
  122.3 14.15 14
  122.4 14.24 14
  122.5 12.54 12
  122.6 9.66 9
  122.8 7.19 7
  122.9 8.93 8
  123.0 10.91 10
  123.1 11.99 11
  123.2 12.47 12
  123.3 13.09 13
  123.4 13.86 13
  123.5 14.23 14
  123.6 13.84 13
  123.7 13.09 13
  123.8 12.48 12
  123.9 11.79 11
  124.0 10.16 10
  124.2 7.17 7
  124.3 9.15 9
  124.4 12.1 12
  124.5 13.11 13
  124.6 11.62 11
  125.9 7.64 7
  126.0 10.63 10
  126.1 14.37 14
  126.2 16.35 16
  126.3 15.64 15
  126.4 13.64 13
  126.5 11.93 11
  126.6 10.74 10
  126.9 10.5 10
  127.0 12.03 12
  127.1 13.49 13
  127.2 14.1 14
  127.3 13.22 13
  127.6 9.99 9
  127.7 12.37 12
  127.8 14.43 14
  127.9 14.35 14
  128.0 12.19 12
  128.1 9.37 9
  128.4 7.88 7
  128.5 8.84 8
  128.6 9.64 9
  128.7 10.69 10
  128.8 12.04 12
  128.9 13.16 13
  129.0 13.4 13
  129.1 12.39 12
  129.2 10.3 10
  129.4 8.36 8
  129.5 10.25 10
  129.6 12.83 12
  129.7 14.34 14
  129.8 13.71 13
  129.9 10.96 10
  130.2 7.15 7
  130.3 10.23 10
  130.4 12.54 12
  130.5 12.48 12
  130.6 10.49 10
  130.7 8.3 8
  131.3 8.29 8
  131.4 9.24 9
  131.5 9.9 9
  131.6 10.69 10
  131.7 12.61 12
  131.8 14.83 14
  131.9 15.12 15
  132.0 13.4 13
  132.3 13.25 13
  132.4 13.84 13
  132.5 15.01 14
  132.6 16.41 16
  132.7 15.62 15
  132.8 12.03 12
  133.7 10.1 10
  133.8 10.71 10
  133.9 10.85 10
  134.0 11.73 11
  134.1 13.2 13
  134.2 13.46 13
  134.3 11.88 11
  135.1 10.98 10
  135.2 12.26 12
  135.3 13.29 13
  135.4 13.99 13
  135.5 14.46 14
  135.6 14.34 14
  135.7 12.76 12
  135.8 10.14 10
  136.4 8.85 8
  136.5 10.43 10
  136.6 12.5 12
  136.7 12.91 12
  137.0 10.94 10
  137.1 12.48 12
  137.2 13.36 13
  137.3 12.1 12
  137.6 8.78 8
  137.7 11.29 11
  137.8 12.69 12
  137.9 12.61 12
  138.0 12.48 12
  138.1 12.69 12
  138.2 12.01 11
  138.3 9.81 9
  138.6 7.72 7
  138.7 10.23 10
  138.8 12.5 12
  138.9 13.6 13
  139.0 13.4 13
  139.1 12.17 12
  139.2 10.6 10
  139.8 10.43 10
  139.9 11.42 11
  140.0 13.0 12
  140.1 13.95 13
  140.2 13.49 13
  140.3 11.64 11
  140.4 8.91 8
  140.7 5.92 5
  140.8 8.23 8
  140.9 10.16 10
  141.0 11.0 10
  141.1 11.33 11
  141.2 11.6 11
  141.3 11.26 11
  141.4 9.88 9
  142.1 10.32 10
  142.2 11.37 11
  142.3 13.07 13
  142.4 14.24 14
  142.5 14.23 14
  142.6 12.92 12
  142.7 11.07 11
  142.8 9.55 9
  144.0 6.4 6
  144.1 8.6 8
  144.2 10.98 10
  144.3 11.9 11
  144.4 10.45 10
  144.5 7.66 7
  144.7 6.09 6
  144.8 7.86 7
  144.9 9.73 9
  145.0 11.27 11
  145.1 12.58 12
  145.2 13.24 13
  145.3 12.47 12
  145.4 10.65 10
  145.7 9.51 9
  145.8 11.26 11
  145.9 13.47 13
  146.0 14.72 14
  146.1 13.49 13
  147.0 6.1 6
  147.1 8.71 8
  147.2 11.35 11
  147.3 12.45 12
  147.4 12.03 12
  147.5 11.16 11
  147.6 10.54 10
  147.7 9.92 9
  147.8 8.87 8
  148.1 6.82 6
  148.2 8.21 8
  148.3 9.75 9
  148.4 10.16 10
  148.5 8.71 8
  148.8 6.29 6
  148.9 9.11 9
  149.0 11.04 11
  149.1 11.0 10
  149.2 10.3 10
  149.3 10.28 10
  149.4 10.96 10
  149.5 11.66 11
  149.6 12.28 12
  149.7 12.96 12
  149.8 13.27 13
  149.9 12.47 12
  150.0 10.8 10
  150.7 10.01 9
  150.8 10.76 10
  150.9 11.88 11
  151.0 12.81 12
  151.1 13.27 13
  151.2 13.73 13
  151.3 14.59 14
  151.4 15.47 15
  151.5 15.07 15
  151.6 12.59 12
  151.7 8.82 8
  151.8 5.63 5
  152.0 4.99 4
  152.1 6.78 6
  152.2 9.48 9
  152.3 12.3 12
  152.4 13.69 13
  152.5 12.89 12
  152.6 10.89 10
  153.3 9.28 9
  153.4 10.83 10
  153.5 12.92 12
  153.6 13.71 13
  153.7 12.39 12
  153.8 9.73 9
  154.0 7.15 7
  154.1 9.09 9
  154.2 11.4 11
  154.3 11.93 11
  154.4 10.69 10
  155.6 10.19 10
  155.7 11.49 11
  155.8 12.45 12
  155.9 13.02 13
  156.0 13.05 13
  156.1 11.97 11
  156.2 9.9 9
  157.2 5.06 5
  157.3 6.49 6
  157.4 8.74 8
  157.5 10.06 10
  157.6 9.68 9
  158.6 5.24 5
  158.7 6.75 6
  158.8 9.57 9
  158.9 11.75 11
  159.0 12.69 12
  159.1 12.45 12
  159.2 10.58 10
  159.3 7.3 7
  159.5 5.13 5
  159.6 7.42 7
  159.7 9.44 9
  159.8 10.49 10
  159.9 11.38 11
  160.0 12.48 12
  160.1 13.36 13
  160.2 13.55 13
  160.3 12.81 12
  160.4 11.0 10
  160.5 8.54 8
  160.7 7.13 7
  160.8 8.96 8
  160.9 10.36 10
  161.0 10.19 10
  161.1 9.2 9
  161.4 8.67 8
  161.5 10.5 10
  161.6 12.67 12
  161.7 13.2 13
  161.8 11.66 11
  162.0 9.68 9
  162.1 11.33 11
  162.2 13.47 13
  162.3 14.9 14
  162.4 14.87 14
  162.5 13.36 13
  163.8 9.99 9
  163.9 11.26 11
  164.0 12.72 12
  164.1 13.53 13
  164.2 13.11 13
  164.3 12.34 12
  164.4 12.3 12
  164.5 12.58 12
  164.6 11.71 11
  164.7 9.59 9
  164.9 8.36 8
  165.0 10.12 10
  165.1 11.49 11
  165.2 11.73 11
  165.3 11.55 11
  165.4 11.82 11
  165.5 12.43 12
  165.6 12.76 12
  165.7 12.74 12
  165.8 12.83 12
  165.9 12.89 12
  166.0 12.14 12
  166.1 10.56 10
  166.9 6.43 6
  167.0 9.7 9
  167.1 13.33 13
  167.2 15.03 15
  167.3 13.77 13
  167.4 10.34 10
  167.7 6.97 6
  167.8 10.52 10
  167.9 13.49 13
  168.0 13.64 13
  168.1 10.72 10
  168.4 7.74 7
  168.5 10.93 10
  168.6 12.98 12
  168.7 12.81 12
  168.8 11.18 11
  170.1 5.99 5
  170.2 9.46 9
  170.3 12.12 12
  170.4 11.66 11
  170.5 9.26 9
  170.6 7.59 7
  170.7 7.24 7
  170.8 6.47 6
  171.1 4.75 4
  171.2 6.75 6
  171.3 8.05 8
  171.4 8.16 8
  171.7 6.47 6
  171.8 7.72 7
  171.9 9.86 9
  172.0 10.74 10
  172.1 8.78 8
  172.4 4.64 4
  172.5 8.76 8
  172.6 12.67 12
  172.7 14.26 14
  172.8 13.68 13
  172.9 12.47 12
  173.0 11.71 11
  173.4 10.76 10
  173.5 12.43 12
  173.6 13.79 13
  173.7 13.77 13
  173.8 12.85 12
  173.9 11.79 11
  174.0 10.12 10
  174.1 7.35 7
  174.3 5.35 5
  174.4 8.29 8
  174.5 11.09 11
  174.6 11.77 11
  174.7 11.0 10
  174.8 10.63 10
  174.9 10.74 10
  175.2 8.69 8
  175.3 10.36 10
  175.4 12.19 12
  175.5 12.41 12
  175.6 11.51 11
  175.7 11.13 11
  175.8 11.79 11
  175.9 12.58 12
  176.0 12.45 12
  176.1 11.29 11
  176.4 9.33 9
  176.5 10.36 10
  176.6 11.68 11
  176.7 12.37 12
  177.0 10.39 10
  177.1 12.01 11
  177.2 14.3 14
  177.3 14.79 14
  177.4 12.45 12
  177.7 8.6 8
  177.8 10.93 10
  177.9 11.75 11
  178.2 9.84 9
  178.3 11.95 11
  178.4 13.97 13
  178.5 14.85 14
  178.6 14.59 14
  178.7 13.46 13
  178.8 11.49 11
  179.1 8.67 8
  179.2 10.52 10
  179.3 11.38 11
  179.6 8.25 8
  179.7 11.49 11
  179.8 15.27 15
  179.9 15.69 15
  180.0 11.88 11
  180.9 8.71 8
  181.0 11.29 11
  181.1 13.35 13
  181.2 13.95 13
  181.3 13.13 13
  182.5 9.07 9
  182.6 10.36 10
  182.7 11.81 11
  182.8 13.42 13
  182.9 14.79 14
  183.0 15.05 15
  183.1 13.62 13
  183.2 11.44 11
  183.6 9.84 9
  183.7 10.23 10
  183.8 11.05 11
  183.9 11.64 11
  184.0 11.22 11
  184.1 10.39 10
  184.2 10.63 10
  184.3 12.06 12
  184.4 12.85 12
  184.5 11.27 11
  184.6 8.38 8
  184.8 7.68 7
  184.9 9.26 9
  185.0 9.4 9
  185.1 8.27 8
  185.2 7.72 7
  185.3 8.96 8
  185.4 11.0 10
  185.5 12.04 12
  185.6 11.53 11
  185.7 10.25 10
  185.8 9.04 9
  186.1 7.66 7
  186.2 8.87 8
  186.3 11.27 11
  186.4 14.15 14
  186.5 15.71 15
  186.6 14.54 14
  186.7 11.57 11
  186.8 9.37 9
  187.7 8.45 8
  187.8 9.86 9
  187.9 10.63 10
  188.0 10.54 10
  188.1 9.72 9
  188.4 8.23 8
  188.5 9.55 9
  188.6 11.05 11
  188.7 12.83 12
  188.8 14.59 14
  188.9 14.85 14
  189.0 12.76 12
  189.1 9.92 9
  189.3 9.28 9
  189.4 10.74 10
  189.5 11.97 11
  189.6 12.48 12
  189.7 11.88 11
  189.8 10.01 9
  190.1 6.53 6
  190.2 9.18 9
  190.3 11.95 11
  190.4 12.8 12
  190.5 11.68 11
  190.8 10.94 10
  190.9 11.86 11
  191.0 12.26 12
  191.1 12.58 12
  191.2 13.49 13
  191.3 15.01 14
  191.4 15.77 15
  191.5 14.32 14
  191.6 10.91 10
  191.7 7.44 7
  191.9 6.38 6
  192.0 8.34 8
  192.1 10.54 10
  192.2 12.1 12
  192.3 12.85 12
  192.4 13.03 13
  192.5 12.81 12
  192.6 12.14 12
  192.7 11.05 11
  192.8 9.95 9
  194.1 8.6 8
  194.2 10.17 10
  194.3 11.44 11
  194.4 11.55 11
  194.5 11.02 11
  194.6 10.56 10
  194.7 10.32 10
  194.8 10.28 10
  194.9 10.54 10
  195.0 11.2 11
  195.1 12.1 12
  195.2 13.11 13
  195.3 14.06 14
  195.4 14.43 14
  195.5 13.46 13
  195.6 11.24 11
  196.3 8.96 8
  196.4 10.21 10
  196.5 11.99 11
  196.6 13.11 13
  196.7 13.4 13
  196.8 13.36 13
  196.9 13.2 13
  197.0 12.54 12
  197.1 11.38 11
  197.2 10.01 9
  197.5 9.57 9
  197.6 10.54 10
  197.7 11.11 11
  197.8 11.68 11
  197.9 13.09 13
  198.0 14.35 14
  198.1 13.24 13
  198.2 9.28 9
  198.4 5.21 5
  198.5 8.89 8
  198.6 13.22 13
  198.7 14.96 14
  198.8 13.55 13
  198.9 10.91 10
  199.8 5.76 5
  199.9 8.03 8
  200.0 11.92 11
  200.1 15.75 15
  200.2 17.49 17
  200.3 16.1 16
  200.4 12.48 12
  200.5 8.71 8
  200.7 6.25 6
  200.8 7.74 7
  200.9 9.94 9
  201.0 11.59 11
  201.1 11.95 11
  201.2 11.59 11
  201.3 11.64 11
  201.4 12.34 12
  201.5 13.02 13
  201.6 13.25 13
  201.7 12.8 12
  201.8 11.55 11
  201.9 10.17 10
  202.4 8.82 8
  202.5 10.36 10
  202.6 12.48 12
  202.7 13.2 13
  202.8 12.12 12
  203.7 9.7 9
  203.8 11.16 11
  203.9 12.54 12
  204.0 13.46 13
  204.1 14.04 14
  204.2 13.86 13
  204.3 12.83 12
  204.4 12.26 12
  204.5 13.18 13
  204.6 14.7 14
  204.7 15.23 15
  204.8 14.01 13
  204.9 11.64 11
  205.0 8.93 8
  205.3 6.82 6
  205.4 9.51 9
  205.5 12.48 12
  205.6 14.1 14
  205.7 13.46 13
  206.0 10.71 10
  206.1 14.37 14
  206.2 16.88 16
  206.3 15.64 15
  206.4 11.88 11
  206.5 8.69 8
  206.7 8.65 8
  206.8 9.92 9
  206.9 10.56 10
  207.0 10.63 10
  207.1 10.83 10
  207.2 11.77 11
  207.3 12.87 12
  207.4 12.92 12
  207.5 11.82 11
  207.6 10.39 10
  208.6 7.63 7
  208.7 9.48 9
  208.8 12.63 12
  208.9 14.7 14
  209.0 13.8 13
  209.1 9.99 9
  209.4 4.4 4
  209.5 9.02 9
  209.6 13.47 13
  209.7 14.76 14
  209.8 12.56 12
  209.9 9.2 9
  210.1 7.33 7
  210.2 9.0 8
  210.3 11.55 11
  210.4 14.01 13
  210.5 14.78 14
  210.6 13.18 13
  211.9 6.42 6
  212.0 8.38 8
  212.1 10.5 10
  212.2 11.18 11
  212.3 10.47 10
  212.4 9.48 9
  212.5 8.58 8
  212.6 7.17 7
  213.4 6.56 6
  213.5 9.17 9
  213.6 13.16 13
  213.7 16.43 16
  213.8 18.24 18
  213.9 18.68 18
  214.0 17.03 17
  214.1 13.24 13
  214.3 9.99 9
  214.4 12.63 12
  214.5 13.91 13
  214.6 11.88 11
  215.2 9.07 9
  215.3 10.34 10
  215.4 11.79 11
  215.5 11.11 11
  215.6 8.6 8
  215.8 7.28 7
  215.9 9.15 9
  216.0 10.61 10
  216.1 11.05 11
  216.2 10.65 10
  216.3 9.9 9
  216.4 9.15 9
  216.7 7.96 7
  216.8 8.96 8
  216.9 10.47 10
  217.0 11.05 11
  217.1 9.99 9
  217.4 8.52 8
  217.5 9.84 9
  217.6 10.61 10
  217.7 10.23 10
  218.6 9.5 9
  218.7 11.11 11
  218.8 12.32 12
  218.9 11.77 11
  219.0 9.7 9
  219.2 7.79 7
  219.3 9.99 9
  219.4 13.0 12
  219.5 15.0 14
  219.6 14.94 14
  219.7 13.11 13
  220.5 8.29 8
  220.6 10.43 10
  220.7 11.7 11
  220.8 9.9 9
  221.0 6.6 6
  221.1 9.04 9
  221.2 11.11 11
  221.3 10.39 10
  221.6 7.3 7
  221.7 9.46 9
  221.8 10.6 10
  221.9 10.1 10
  222.0 9.29 9
  222.1 9.35 9
  222.2 10.1 10
  222.3 10.98 10
  222.4 11.92 11
  222.5 12.41 12
  222.6 11.35 11
  222.7 8.87 8
  223.0 8.03 8
  223.1 9.64 9
  223.2 11.31 11
  223.3 12.98 12
  223.4 13.31 13
  223.5 10.85 10
  223.6 6.64 6
  223.8 5.06 5
  223.9 8.52 8
  224.0 10.54 10
  224.1 9.28 9
  224.3 6.73 6
  224.4 9.55 9
  224.5 12.26 12
  224.6 12.03 12
  224.7 8.91 8
  224.8 5.43 5
  225.0 4.67 4
  225.1 6.73 6
  225.2 8.98 8
  225.3 11.18 11
  225.4 13.14 13
  225.5 14.04 14
  225.6 13.05 13
  225.7 10.36 10
  225.8 7.06 7
  226.5 6.69 6
  226.6 7.86 7
  226.7 9.75 9
  226.8 10.23 10
  226.9 7.53 7
  227.2 1.92 1
  227.3 7.31 7
  227.4 12.28 12
  227.5 14.37 14
  227.6 13.97 13
  227.7 12.47 12
  229.2 7.61 7
  229.3 8.89 8
  229.4 9.83 9
  229.5 9.64 9
  229.6 8.96 8
  229.7 8.85 8
  229.8 9.92 9
  229.9 11.66 11
  230.0 13.07 13
  230.1 13.25 13
  230.2 11.9 11
  230.3 9.73 9
  231.1 10.89 10
  231.2 11.84 11
  231.3 12.98 12
  231.4 13.88 13
  231.5 14.13 14
  231.6 13.8 13
  231.7 13.02 13
  231.8 11.99 11
  232.7 8.52 8
  232.8 10.39 10
  232.9 11.86 11
  233.0 11.64 11
  233.1 10.78 10
  233.2 11.53 11
  233.3 13.71 13
  233.4 14.57 14
  233.5 12.45 12
  233.6 9.11 9
  233.8 8.29 8
  233.9 10.52 10
  234.0 12.65 12
  234.1 13.33 13
  234.2 12.21 12
  234.3 10.38 10
  235.0 10.47 10
  235.1 11.16 11
  235.2 11.59 11
  235.3 11.81 11
  235.4 12.19 12
  235.5 12.52 12
  236.8 8.14 8
  236.9 10.34 10
  237.0 13.02 13
  237.1 13.27 13
  237.2 10.78 10
  237.5 7.94 7
  237.6 9.33 9
  237.7 10.54 10
  237.8 11.57 11
  237.9 12.32 12
  238.0 12.43 12
  238.1 11.97 11
  240.8 8.1 8
  240.9 10.34 10
  241.0 12.98 12
  241.1 14.59 14
  241.2 14.34 14
  241.3 12.32 12
  241.4 9.2 9
  241.7 5.83 5
  241.8 8.41 8
  241.9 10.28 10
  242.0 10.28 10
  242.1 9.4 9
  242.2 9.68 9
  242.3 11.22 11
  242.4 12.56 12
  242.5 13.09 13
  242.6 13.62 13
  242.7 14.54 14
  242.8 14.76 14
  242.9 13.84 13
  243.0 12.89 12
  243.4 11.97 11
  243.5 13.88 13
  243.6 15.91 15
  243.7 15.34 15
  243.8 11.77 11
  244.1 8.65 8
  244.2 10.91 10
  244.3 12.04 12
  244.4 12.37 12
  244.5 12.76 12
  244.6 13.49 13
  244.7 14.43 14
  244.8 15.34 15
  244.9 15.2 15
  245.0 13.22 13
  245.9 7.02 7
  246.0 9.18 9
  246.1 12.25 12
  246.2 13.75 13
  246.3 12.04 12
  246.6 8.34 8
  246.7 11.51 11
  246.8 13.51 13
  246.9 13.09 13
  247.7 9.94 9
  247.8 11.4 11
  247.9 12.83 12
  248.0 12.36 12
  248.1 9.77 9
  248.3 6.14 6
  248.4 8.36 8
  248.5 12.37 12
  248.6 15.64 15
  248.7 16.11 16
  248.8 13.8 13
  248.9 10.45 10
  249.6 8.76 8
  249.7 10.25 10
  249.8 12.56 12
  249.9 13.57 13
  250.0 11.95 11
  250.1 8.98 8
  250.6 7.68 7
  250.7 8.74 8
  250.8 9.68 9
  250.9 10.27 10
  251.0 11.09 11
  251.1 12.14 12
  251.2 12.78 12
  251.3 13.36 13
  251.4 14.63 14
  251.5 15.93 15
  251.6 15.56 15
  251.7 13.4 13
  251.8 10.93 10
  252.3 10.01 9
  252.4 10.38 10
  252.5 11.84 11
  252.6 13.57 13
  252.7 13.77 13
  252.8 12.14 12
  252.9 10.12 10
  253.0 8.91 8
  253.1 8.4 8
  253.2 7.97 7
  253.5 6.56 6
  253.6 8.56 8
  253.7 12.17 12
  253.8 15.09 15
  253.9 15.14 15
  254.0 12.47 12
  254.1 9.51 9
  254.2 8.25 8
  254.3 8.3 8
  254.6 6.76 6
  254.7 8.58 8
  254.8 11.99 11
  254.9 15.36 15
  255.0 17.03 17
  255.1 16.57 16
  255.2 15.0 14
  255.3 13.57 13
  255.4 12.8 12
  257.6 9.39 9
  257.7 9.55 9
  257.8 10.65 10
  257.9 12.96 12
  258.0 15.4 15
  258.1 16.11 16
  258.2 14.23 14
  258.5 10.82 10
  258.6 14.52 14
  258.7 16.68 16
  258.8 15.07 15
  258.9 10.93 10
  259.1 7.61 7
  259.2 9.97 9
  259.3 11.86 11
  259.4 11.9 11
  259.5 11.48 11
  259.6 12.15 12
  259.7 13.14 13
  259.8 12.91 12
  259.9 11.57 11
  260.0 10.45 10
  260.4 9.75 9
  260.5 10.56 10
  260.6 12.3 12
  260.7 13.62 13
  260.8 12.96 12
  260.9 10.98 10
  262.0 11.51 11
  262.1 11.82 11
  262.2 12.3 12
  262.3 12.61 12
  262.4 12.01 11
  262.5 10.56 10
  263.1 9.13 9
  263.2 10.38 10
  263.3 11.57 11
  263.4 11.27 11
  264.2 6.6 6
  264.3 9.86 9
  264.4 11.95 11
  264.5 12.54 12
  264.6 12.89 12
  264.7 13.18 13
  264.8 12.41 12
  265.1 10.06 10
  265.2 12.63 12
  265.3 14.78 14
  265.4 15.18 15
  265.5 13.84 13
  265.6 11.77 11
  265.7 10.08 10
  265.9 9.48 9
  266.0 10.19 10
  266.1 11.92 11
  266.2 14.46 14
  266.3 16.55 16
  266.4 16.96 16
  266.5 16.02 16
  266.6 14.94 14
  266.7 14.26 14
  266.8 13.11 13
  266.9 10.72 10
  267.1 7.19 7
  267.2 9.17 9
  267.3 12.37 12
  267.4 14.45 14
  267.5 14.59 14
  267.6 13.64 13
  267.7 12.25 12
  267.8 10.08 10
  268.1 6.53 6
  268.2 10.49 10
  268.3 13.57 13
  268.4 13.31 13
  268.7 10.69 10
  268.8 12.48 12
  268.9 13.25 13
  269.0 12.54 12
  269.8 7.37 7
  269.9 8.71 8
  270.0 10.89 10
  270.1 13.13 13
  270.2 14.32 14
  270.3 13.68 13
  271.3 7.17 7
  271.4 10.01 9
  271.5 12.74 12
  271.6 13.13 13
  271.7 11.22 11
  271.8 8.69 8
  272.0 7.3 7
  272.1 8.91 8
  272.2 10.89 10
  272.3 12.3 12
  272.4 12.92 12
  272.5 12.65 12
  272.6 10.87 10
  272.7 7.99 7
  272.9 6.98 6
  273.0 9.29 9
  273.1 10.78 10
  273.2 10.67 10
  273.3 9.94 9
  273.4 9.42 9
  273.7 7.88 7
  273.8 8.76 8
  273.9 11.02 11
  274.0 13.88 13
  274.1 16.1 16
  274.2 16.15 16
  274.3 13.69 13
  274.4 10.1 10
  275.3 8.76 8
  275.4 10.01 9
  275.5 11.27 11
  275.6 12.8 12
  275.7 13.86 13
  275.8 13.44 13
  277.0 10.25 10
  277.1 11.18 11
  277.2 12.91 12
  277.3 14.24 14
  277.4 14.65 14
  277.5 14.1 14
  277.6 12.52 12
  277.7 10.25 10
  278.6 8.4 8
  278.7 9.44 9
  278.8 11.07 11
  278.9 12.69 12
  279.0 13.14 13
  279.1 11.77 11
  279.2 9.24 9
  279.5 6.4 6
  279.6 8.27 8
  279.7 10.74 10
  279.8 12.36 12
  279.9 11.93 11
  280.0 9.99 9
  280.7 3.06 3
  280.8 5.98 5
  280.9 8.69 8
  281.0 8.6 8
  281.1 5.88 5
  281.3 3.87 3
  281.4 7.33 7
  281.5 10.96 10
  281.6 11.86 11
  281.7 9.66 9
  281.9 5.19 5
  282.0 7.2 7
  282.1 11.38 11
  282.2 14.7 14
  282.3 15.05 15
  282.4 12.54 12
  282.5 9.24 9
  284.1 8.3 8
  284.2 9.0 8
  284.3 9.39 9
  284.4 10.34 10
  284.5 12.08 12
  284.6 12.85 12
  284.7 11.18 11
  285.0 8.36 8
  285.1 10.28 10
  285.2 11.07 11
  285.3 10.36 10
  285.6 8.63 8
  285.7 10.28 10
  285.8 11.64 11
  285.9 10.94 10
  286.2 7.59 7
  286.3 10.71 10
  286.4 13.18 13
  286.5 13.33 13
  286.6 11.84 11
  286.7 10.1 10
  286.8 8.63 8
  287.0 7.02 7
  287.1 8.19 8
  287.2 10.45 10
  287.3 12.21 12
  287.4 12.32 12
  287.5 11.11 11
  288.2 11.35 11
  288.3 11.77 11
  288.4 12.5 12
  288.5 12.67 12
  288.6 11.16 11
  288.9 8.45 8
  289.0 11.29 11
  289.1 13.53 13
  289.2 13.66 13
  289.3 11.62 11
  289.4 8.62 8
  289.5 6.12 6
  289.8 5.54 5
  289.9 6.95 6
  290.0 9.2 9
  290.1 12.01 11
  290.2 14.23 14
  290.3 14.56 14
  290.4 12.8 12
  290.5 10.58 10
  291.4 8.4 8
  291.5 9.79 9
  291.6 11.9 11
  291.7 12.43 12
  291.8 10.87 10
  293.3 7.04 7
  293.4 9.2 9
  293.5 11.42 11
  293.6 12.41 12
  293.7 12.28 12
  293.8 11.9 11
  293.9 11.51 11
  294.0 10.61 10
  294.1 8.76 8
  294.9 7.92 7
  295.0 9.48 9
  295.1 10.94 10
  295.2 10.94 10
  295.3 9.06 9
  295.4 6.09 6
  295.6 4.25 4
  295.7 6.86 6
  295.8 10.14 10
  295.9 12.41 12
  296.0 13.24 13
  296.1 13.24 13
  296.2 13.05 13
  296.3 12.92 12
  296.4 12.7 12
  296.5 12.03 12
  296.8 9.72 9
  296.9 11.42 11
  297.0 12.92 12
  297.1 12.58 12
  297.4 10.34 10
  297.5 11.37 11
  297.6 12.32 12
  297.7 13.02 13
  297.8 13.09 13
  298.7 9.42 9
  298.8 10.38 10
  298.9 11.49 11
  299.0 13.03 13
  299.1 14.01 13
  299.2 13.29 13
  300.3 8.93 8
  300.4 10.89 10
  300.5 14.54 14
  300.6 15.97 15
  300.7 13.95 13
  300.8 11.11 11
  300.9 9.84 9
  301.0 9.57 9
  301.3 8.43 8
  301.4 10.16 10
  301.5 11.81 11
  301.6 12.14 12
  301.7 10.98 10
  301.8 9.06 9
  302.0 6.97 6
  302.1 8.3 8
  302.2 10.47 10
  302.3 11.81 11
  302.4 11.51 11
  303.9 7.2 7
  304.0 8.47 8
  304.1 10.43 10
  304.2 11.44 11
  304.3 10.61 10
  304.6 7.35 7
  304.7 9.53 9
  304.8 12.01 11
  304.9 12.74 12
  305.0 11.81 11
  305.1 10.82 10
  305.2 10.28 10
  305.5 9.02 9
  305.6 10.85 10
  305.7 12.36 12
  305.8 12.23 12
  305.9 11.24 11
  306.0 11.02 11
  306.1 11.88 11
  306.2 12.14 12
  306.3 11.05 11
  306.4 10.16 10
  306.5 11.42 11
  306.6 14.32 14
  306.7 16.44 16
  306.8 16.3 16
  306.9 14.7 14
  307.8 6.42 6
  307.9 8.45 8
  308.0 10.19 10
  308.1 10.21 10
  308.2 8.34 8
  308.5 4.67 4
  308.6 7.35 7
  308.7 10.21 10
  308.8 11.51 11
  308.9 10.85 10
  309.0 9.2 9
  309.3 7.81 7
  309.4 8.96 8
  309.5 10.3 10
  309.6 10.83 10
  309.7 10.39 10
  309.8 10.27 10
  309.9 11.53 11
  310.0 13.36 13
  310.1 14.01 13
  310.2 13.25 13
  310.3 12.43 12
  310.4 12.54 12
  310.5 12.87 12
  310.6 12.37 12
  311.9 9.0 8
  312.0 10.34 10
  312.1 11.64 11
  312.2 12.54 12
  312.3 12.3 12
  312.4 10.78 10
  312.6 8.85 8
  312.7 10.58 10
  312.8 13.16 13
  312.9 14.94 14
  313.0 15.03 15
  313.1 13.6 13
  313.2 11.4 11
  314.1 9.61 9
  314.2 11.13 11
  314.3 12.67 12
  314.4 13.22 13
  314.5 12.06 12
  314.6 9.94 9
  315.5 8.27 8
  315.6 10.94 10
  315.7 13.0 12
  315.8 12.85 12
  315.9 10.63 10
  316.2 7.68 7
  316.3 11.04 11
  316.4 13.35 13
  316.5 13.24 13
  316.6 11.7 11
  316.7 10.27 10
  316.8 9.48 9
  317.1 8.54 8
  317.2 9.26 9
  317.3 11.44 11
  317.4 13.86 13
  317.5 14.56 14
  317.6 13.33 13
  318.8 9.48 9
  318.9 10.47 10
  319.0 12.65 12
  319.1 14.15 14
  319.2 13.58 13
  319.9 10.34 10
  320.0 13.47 13
  320.1 17.09 17
  320.2 17.76 17
  320.3 14.63 14
  320.4 10.49 10
  323.0 4.25 4
  323.1 8.19 8
  323.2 12.7 12
  323.3 14.56 14
  323.4 13.11 13
  323.7 9.37 9
  323.8 11.79 11
  323.9 14.13 14
  324.0 14.41 14
  324.1 12.28 12
  324.2 9.42 9
  325.3 7.72 7
  325.4 9.15 9
  325.5 10.41 10
  325.6 11.15 11
  325.7 11.49 11
  325.8 11.24 11
  325.9 10.03 10
  326.2 8.63 8
  326.3 11.2 11
  326.4 13.2 13
  326.5 12.89 12
  327.4 6.78 6
  327.5 8.56 8
  327.6 10.69 10
  327.7 11.64 11
  327.8 11.04 11
  327.9 9.66 9
  328.2 8.8 8
  328.3 9.83 9
  328.4 11.11 11
  328.5 11.82 11
  328.6 11.15 11
  328.9 9.31 9
  329.0 12.17 12
  329.1 14.56 14
  329.2 14.35 14
  329.3 12.04 12
  329.6 9.97 9
  329.7 11.29 11
  329.8 13.16 13
  329.9 15.05 15
  330.0 15.56 15
  330.1 13.57 13
  330.2 10.25 10
  330.9 4.56 4
  331.0 9.62 9
  331.1 14.83 14
  331.2 16.77 16
  331.3 14.76 14
  331.4 10.58 10
  332.3 9.31 9
  332.4 10.23 10
  332.5 11.35 11
  332.6 12.01 11
  332.7 11.44 11
  332.8 10.12 10
  332.9 8.95 8
  333.4 8.19 8
  333.5 9.13 9
  333.6 10.17 10
  333.7 11.02 11
  333.8 11.27 11
  333.9 10.72 10
  334.7 8.47 8
  334.8 9.83 9
  334.9 11.29 11
  335.0 11.22 11
  335.1 9.62 9
  336.1 5.21 5
  336.2 7.11 7
  336.3 9.26 9
  336.4 9.75 9
  336.5 8.25 8
  336.8 5.63 5
  336.9 8.78 8
  337.0 11.97 11
  337.1 13.97 13
  337.2 14.98 14
  337.3 15.55 15
  337.4 15.64 15
  337.5 15.16 15
  337.6 14.54 14
  337.7 14.35 14
  337.8 14.45 14
  337.9 13.51 13
  338.0 10.61 10
  338.8 8.67 8
  338.9 11.79 11
  339.0 13.73 13
  339.1 12.98 12
  339.2 10.91 10
  339.3 9.4 9
  339.4 8.71 8
  339.7 7.96 7
  339.8 8.82 8
  339.9 9.86 9
  340.0 10.67 10
  340.1 11.22 11
  340.2 11.4 11
  340.3 11.07 11
  340.7 9.81 9
  340.8 10.5 10
  340.9 11.88 11
  341.0 12.5 12
  341.1 11.57 11
  341.2 10.54 10
  341.3 11.22 11
  341.4 12.87 12
  341.5 13.07 13
  341.6 11.11 11
  341.9 9.75 9
  342.0 11.79 11
  342.1 13.22 13
  342.2 13.68 13
  342.3 13.36 13
  342.4 12.63 12
  342.5 11.49 11
  342.6 9.92 9
  342.9 8.4 8
  343.0 9.66 9
  343.1 10.06 10
  343.2 9.73 9
  343.3 9.81 9
  343.4 10.39 10
  343.5 10.65 10
  343.6 10.49 10
  343.7 10.69 10
  343.8 11.62 11
  343.9 12.37 12
  344.0 12.01 11
  344.3 9.68 9
  344.4 11.29 11
  344.5 12.61 12
  344.6 12.28 12
  344.7 10.43 10
  345.0 8.73 8
  345.1 9.68 9
  345.2 10.16 10
  345.3 10.56 10
  345.4 11.16 11
  345.5 11.53 11
  345.6 11.11 11
  347.1 5.63 5
  347.2 7.09 7
  347.3 9.92 9
  347.4 13.09 13
  347.5 15.03 15
  347.6 14.85 14
  347.7 12.69 12
  347.8 9.06 9
  348.1 6.43 6
  348.2 10.03 10
  348.3 12.12 12
  348.4 12.17 12
  348.5 11.64 11
  348.6 11.07 11
  348.7 9.97 9
  349.8 4.12 4
  349.9 5.96 5
  350.0 8.96 8
  350.1 10.85 10
  350.2 10.47 10
  350.3 8.74 8
  350.6 7.11 7
  350.7 9.2 9
  350.8 12.32 12
  350.9 14.85 14
  351.0 15.22 15
  351.1 13.38 13
  351.2 10.89 10
  351.4 9.57 9
  351.5 11.13 11
  351.6 12.69 12
  351.7 12.74 12
  351.8 11.13 11
  352.9 7.66 7
  353.0 9.59 9
  353.1 11.66 11
  353.2 13.0 12
  353.3 13.44 13
  353.4 12.92 12
  353.5 11.38 11
  356.6 8.51 8
  356.7 9.57 9
  356.8 10.63 10
  356.9 11.15 11
  357.0 10.93 10
  357.1 10.28 10
  357.2 9.81 9
  357.3 10.1 10
  357.4 11.42 11
  357.5 12.81 12
  357.6 12.72 12
  358.5 8.69 8
  358.6 10.54 10
  358.7 11.57 11
  358.8 12.17 12
  358.9 13.0 12
  359.0 13.58 13
  359.1 12.87 12
  359.2 10.56 10
  359.4 8.84 8
  359.5 11.68 11
  359.6 14.52 14
  359.7 15.36 15
  359.8 14.48 14
  359.9 13.24 13
  360.0 12.03 12
  360.5 10.43 10
  360.6 10.8 10
  360.7 12.19 12
  360.8 13.68 13
  360.9 12.98 12
  361.0 9.37 9
  361.2 4.27 4
  361.3 6.82 6
  361.4 10.47 10
  361.5 12.48 12
  361.6 12.12 12
  361.7 10.32 10
  362.5 8.27 8
  362.6 9.53 9
  362.7 10.54 10
  362.8 10.76 10
  362.9 10.65 10
  363.0 10.41 10
  363.1 9.62 9
  363.4 8.73 8
  363.5 9.62 9
  363.6 9.86 9
  363.7 9.64 9
  363.8 9.72 9
  363.9 10.71 10
  364.0 12.19 12
  364.1 12.67 12
  364.2 11.04 11
  364.5 7.72 7
  364.6 9.62 9
  364.7 11.4 11
  364.8 12.83 12
  364.9 13.97 13
  365.0 14.37 14
  365.1 13.71 13
  365.2 12.3 12
  365.3 10.58 10
  365.4 8.87 8
  365.7 8.43 8
  365.8 9.46 9
  365.9 10.28 10
  366.0 11.66 11
  366.1 13.79 13
  366.2 15.31 15
  366.3 14.76 14
  366.4 12.12 12
  366.5 9.18 9
  366.7 8.3 8
  366.8 9.62 9
  366.9 10.65 10
  367.0 10.93 10
  367.1 10.69 10
  367.2 10.36 10
  367.3 10.61 10
  367.4 11.37 11
  367.5 11.64 11
  367.6 10.89 10
  367.7 10.17 10
  367.8 10.58 10
  367.9 11.42 11
  368.0 11.29 11
  368.1 10.34 10
  368.2 10.17 10
  368.3 11.71 11
  368.4 14.17 14
  368.5 16.02 16
  368.6 15.93 15
  368.7 13.97 13
  368.8 11.66 11
  369.1 10.58 10
  369.2 11.15 11
  369.3 12.43 12
  369.4 13.71 13
  369.5 13.99 13
  369.8 12.48 12
  369.9 14.04 14
  370.0 16.21 16
  370.1 17.05 17
  370.2 15.16 15
  370.4 11.22 11
  370.5 13.93 13
  370.6 17.05 17
  370.7 16.68 16
  370.8 13.2 13
  370.9 10.21 10
  371.5 7.94 7
  371.6 9.81 9
  371.7 11.46 11
  371.8 11.73 11
  371.9 10.93 10
  372.0 9.83 9
  372.3 8.3 8
  372.4 11.81 11
  372.5 16.43 16
  372.6 18.24 18
  372.7 14.94 14
  372.8 8.71 8
  373.0 5.88 5
  373.1 10.05 10
  373.2 13.02 13
  373.3 13.24 13
  373.4 12.34 12
  373.5 12.1 12
  373.6 12.14 12
  373.7 11.24 11
  373.8 9.39 9
  374.3 8.38 8
  374.4 9.4 9
  374.5 11.81 11
  374.6 14.04 14
  374.7 14.43 14
  374.8 13.0 12
  374.9 11.42 11
  375.4 10.34 10
  375.5 11.62 11
  375.6 13.91 13
  375.7 15.73 15
  375.8 15.8 15
  375.9 14.41 14
  376.0 12.94 12
  376.1 11.99 11
  376.2 11.27 11
  376.3 10.67 10
  376.4 10.36 10
  376.5 10.1 10
  376.6 9.33 9
  376.7 7.92 7
  377.5 7.33 7
  377.6 8.85 8
  377.7 9.73 9
  377.8 9.61 9
  377.9 9.39 9
  378.0 9.48 9
  378.1 9.94 9
  378.2 11.44 11
  378.3 14.3 14
  378.4 16.98 16
  378.5 16.5 16
  378.6 12.32 12
  378.8 7.53 7
  378.9 10.65 10
  379.0 13.09 13
  379.1 11.81 11
  379.2 8.25 8
  379.4 6.45 6
  379.5 8.58 8
  379.6 10.5 10
  379.7 11.35 11
  379.8 11.24 11
  379.9 10.8 10
  380.0 10.54 10
  380.1 10.78 10
  380.2 11.22 11
  380.3 11.15 11
  380.4 10.41 10
  380.5 10.19 10
  380.6 11.4 11
  380.7 12.69 12
  380.8 11.84 11
  380.9 9.26 9
  381.1 8.6 8
  381.2 10.19 10
  381.3 10.85 10
  381.4 11.0 10
  381.5 11.84 11
  381.6 13.49 13
  381.7 14.9 14
  381.8 14.92 14
  381.9 13.49 13
  382.0 11.77 11
  382.1 10.69 10
  382.4 9.55 9
  382.5 10.25 10
  382.6 11.75 11
  382.7 13.14 13
  382.8 13.77 13
  382.9 13.64 13
  383.0 13.09 13
  383.1 12.37 12
  383.2 11.27 11
  383.7 9.95 9
  383.8 10.41 10
  383.9 12.04 12
  384.0 14.45 14
  384.1 16.0 15
  384.2 15.73 15
  384.3 14.39 14
  384.4 12.91 12
  385.3 9.53 9
  385.4 11.26 11
  385.5 12.3 12
  385.6 12.23 12
  385.7 11.71 11
  385.8 11.09 11
  386.1 9.09 9
  386.2 10.91 10
  386.3 13.05 13
  386.4 14.08 14
  386.5 13.55 13
  386.6 11.88 11
  386.7 9.55 9
  387.0 6.31 6
  387.1 8.51 8
  387.2 11.57 11
  387.3 13.73 13
  387.4 14.02 14
  387.5 13.0 12
  387.6 11.93 11
  387.7 11.31 11
  387.8 10.47 10
  387.9 8.78 8
  388.0 6.76 6
  388.3 7.11 7
  388.4 7.66 7
  388.5 7.99 7
  388.6 9.29 9
  388.7 11.57 11
  388.8 12.98 12
  388.9 12.12 12
  389.0 9.92 9
  389.8 6.6 6
  389.9 8.16 8
  390.0 10.17 10
  390.1 10.96 10
  390.2 9.94 9
  391.4 7.2 7
  391.5 9.26 9
  391.6 13.49 13
  391.7 17.05 17
  391.8 17.43 17
  391.9 14.76 14
  392.0 11.7 11
  392.1 10.56 10
  392.2 10.85 10
  392.5 8.36 8
  392.6 10.3 10
  392.7 12.85 12
  392.8 13.07 13
  393.1 9.77 9
  393.2 11.79 11
  393.3 12.65 12
  393.4 11.57 11
  393.5 9.88 9
  394.1 8.05 8
  394.2 8.67 8
  394.3 10.23 10
  394.4 12.26 12
  394.5 13.71 13
  394.6 13.8 13
  394.7 12.83 12
  394.8 11.86 11
  394.9 11.62 11
  395.0 11.66 11
  395.1 10.72 10
  395.3 6.87 6
  395.4 8.56 8
  395.5 12.96 12
  395.6 16.17 16
  395.7 15.01 14
  395.8 10.43 10
  396.0 5.87 5
  396.1 8.47 8
  396.2 11.49 11
  396.3 12.54 12
  396.4 11.22 11
  396.5 8.8 8
  396.7 6.98 6
  396.8 8.98 8
  396.9 11.93 11
  397.0 14.21 14
  397.1 14.41 14
  397.2 12.61 12
  398.2 9.13 9
  398.3 11.38 11
  398.4 14.46 14
  398.5 15.55 15
  398.6 13.86 13
  398.7 11.24 11
  399.3 9.26 9
  399.4 10.58 10
  399.5 13.25 13
  399.6 14.41 14
  399.7 12.65 12
  399.8 9.62 9
  400.4 7.68 7
  400.5 9.84 9
  400.6 12.83 12
  400.7 13.44 13
  400.8 10.94 10
  401.1 9.15 9
  401.2 10.98 10
  401.3 12.3 12
  401.4 12.85 12
  401.5 12.03 12
  401.6 9.33 9
  401.7 5.44 5
  401.9 2.42 2
  402.0 5.28 5
  402.1 9.72 9
  402.2 13.46 13
  402.3 14.87 14
  402.4 13.8 13
  402.5 11.57 11
  403.5 6.54 6
  403.6 7.24 7
  403.7 8.12 8
  403.8 9.48 9
  403.9 11.22 11
  404.0 12.59 12
  404.1 12.5 12
  404.2 10.76 10
  404.3 8.62 8
  404.4 7.41 7
  405.0 6.25 6
  405.1 7.5 7
  405.2 10.28 10
  405.3 12.72 12
  405.4 12.67 12
  405.5 10.63 10
  405.9 10.36 10
  406.0 10.67 10
  406.1 12.54 12
  406.2 14.17 14
  406.3 13.02 13
  407.1 6.69 6
  407.2 9.53 9
  407.3 12.94 12
  407.4 13.84 13
  407.5 12.26 12
  408.4 9.22 9
  408.5 9.53 9
  408.6 10.27 10
  408.7 11.66 11
  408.8 12.83 12
  408.9 12.59 12
  409.0 10.6 10
  409.1 7.59 7
  409.3 5.55 5
  409.4 8.45 8
  409.5 12.04 12
  409.6 14.1 14
  409.7 14.28 14
  409.8 13.8 13
  409.9 13.38 13
  410.0 12.61 12
  410.1 11.42 11
  410.2 10.63 10
  410.3 10.49 10
  410.4 10.17 10
  410.8 9.22 9
  410.9 10.23 10
  411.0 10.78 10
  411.1 11.48 11
  411.2 12.7 12
  411.3 13.46 13
  411.4 12.41 12
  411.5 10.01 9
  412.2 10.08 10
  412.3 11.07 11
  412.4 13.53 13
  412.5 15.12 15
  412.6 13.64 13
  412.7 9.79 9
  413.0 6.98 6
  413.1 9.35 9
  413.2 11.11 11
  413.3 11.42 11
  413.6 9.46 9
  413.7 12.32 12
  413.8 15.88 15
  413.9 17.01 16
  414.0 14.19 14
  414.1 8.93 8
  414.9 7.02 7
  415.0 8.62 8
  415.1 10.43 10
  415.2 10.85 10
  416.8 6.38 6
  416.9 9.24 9
  417.0 12.69 12
  417.1 13.77 13
  418.5 3.94 3
  418.6 5.48 5
  418.7 7.46 7
  418.8 9.13 9
  418.9 9.83 9
  419.0 9.29 9
  419.1 8.36 8
  419.2 8.38 8
  419.3 9.55 9
  419.4 10.6 10
  419.5 10.23 10
  420.4 7.41 7
  420.5 8.38 8
  420.6 10.23 10
  420.7 11.73 11
  420.8 11.44 11
  420.9 9.29 9
  422.1 10.1 10
  422.2 11.02 11
  422.3 13.11 13
  422.4 14.63 14
  422.5 14.48 14
  422.6 13.64 13
  422.7 13.77 13
  422.8 14.78 14
  422.9 14.56 14
  423.0 11.92 11
  423.7 9.48 9
  423.8 10.96 10
  423.9 11.77 11
  424.0 11.29 11
  424.1 10.17 10
  424.4 8.19 8
  424.5 9.92 9
  424.6 11.88 11
  424.7 12.56 12
  424.8 11.92 11
  424.9 10.91 10
  425.0 10.21 10
  425.6 9.35 9
  425.7 9.97 9
  425.8 10.49 10
  425.9 11.33 11
  426.0 12.76 12
  426.1 13.49 13
  426.2 11.97 11
  426.3 9.06 9
  426.5 8.3 8
  426.6 10.45 10
  426.7 11.66 11
  426.8 11.26 11
  426.9 9.62 9
  427.0 7.57 7
  427.2 6.32 6
  427.3 7.63 7
  427.4 8.76 8
  427.5 9.57 9
  427.6 10.89 10
  427.7 12.5 12
  427.8 13.13 13
  427.9 12.25 12
  428.0 10.8 10
  428.1 9.24 9
  428.4 6.98 6
  428.5 9.79 9
  428.6 12.54 12
  428.7 13.05 13
  428.8 10.98 10
  429.1 8.21 8
  429.2 10.94 10
  429.3 12.61 12
  429.4 13.2 13
  429.5 14.12 14
  429.6 15.05 15
  429.7 14.5 14
  429.8 12.58 12
  429.9 10.94 10
  430.2 9.48 9
  430.3 10.76 10
  430.4 13.0 12
  430.5 14.48 14
  430.6 14.08 14
  430.7 12.12 12
  430.8 9.75 9
  431.1 8.63 8
  431.2 10.05 10
  431.3 10.71 10
  431.4 10.5 10
  431.5 10.34 10
  431.6 10.63 10
  431.7 10.49 10
  431.8 9.24 9
  432.1 8.63 8
  432.2 10.14 10
  432.3 10.91 10
  432.4 10.96 10
  432.5 10.69 10
  432.8 9.5 9
  432.9 11.29 11
  433.0 13.33 13
  433.1 13.8 13
  433.9 6.64 6
  434.0 10.58 10
  434.1 14.56 14
  434.2 15.6 15
  434.3 12.81 12
  434.4 8.45 8
  434.6 6.42 6
  434.7 8.85 8
  434.8 10.83 10
  434.9 11.62 11
  435.0 11.99 11
  435.1 12.43 12
  435.2 12.12 12
  435.3 10.12 10
  435.6 6.97 6
  435.7 9.17 9
  435.8 11.04 11
  435.9 12.32 12
  436.0 13.13 13
  436.1 13.02 13
  437.0 5.41 5
  437.1 7.77 7
  437.2 12.19 12
  437.3 16.21 16
  437.4 17.62 17
  437.5 16.5 16
  437.6 15.09 15
  437.7 14.63 14
  437.8 13.73 13
  437.9 11.0 10
  438.1 7.88 7
  438.2 11.16 11
  438.3 15.0 14
  438.4 16.26 16
  438.5 14.74 14
  438.6 12.41 12
  440.1 9.55 9
  440.2 11.07 11
  440.3 11.66 11
  440.4 11.7 11
  440.5 11.66 11
  440.6 11.18 11
  440.7 9.7 9
  440.8 7.42 7
  441.0 5.19 5
  441.1 8.12 8
  441.2 13.29 13
  441.3 17.6 17
  441.4 18.2 18
  441.5 14.92 14
  441.6 9.9 9
  441.9 6.05 6
  442.0 9.35 9
  442.1 11.26 11
  442.2 10.08 10
  442.7 10.01 9
  442.8 9.79 9
  442.9 11.15 11
  443.0 13.47 13
  443.1 14.32 14
  443.2 12.34 12
  443.3 9.04 9
  443.7 7.11 7
  443.8 7.46 7
  443.9 9.06 9
  444.0 10.98 10
  444.1 11.9 11
  444.2 11.71 11
  445.8 4.2 4
  445.9 6.54 6
  446.0 9.33 9
  446.1 11.09 11
  446.2 11.51 11
  446.3 11.26 11
  446.4 11.42 11
  446.5 12.25 12
  446.6 13.0 12
  446.7 13.09 13
  446.8 13.16 13
  446.9 13.93 13
  447.0 14.68 14
  447.1 13.8 13
  447.2 11.42 11
  447.7 10.16 10
  447.8 10.91 10
  447.9 12.28 12
  448.0 12.87 12
  448.1 11.66 11
  448.4 9.11 9
  448.5 10.34 10
  448.6 11.6 11
  448.7 12.76 12
  448.8 13.71 13
  448.9 14.08 14
  449.0 13.79 13
  449.1 13.02 13
  449.2 12.08 12
  449.3 11.13 11
  449.4 9.94 9
  449.5 8.52 8
  449.8 8.01 8
  449.9 9.68 9
  450.0 10.72 10
  450.1 10.61 10
  450.2 10.3 10
  450.3 11.15 11
  450.4 12.83 12
  450.5 13.24 13
  450.6 11.27 11
  450.8 9.33 9
  450.9 12.36 12
  451.0 15.01 14
  451.1 15.09 15
  451.2 13.44 13
  451.3 12.04 12
  451.4 11.46 11
  451.8 10.8 10
  451.9 11.66 11
  452.0 12.8 12
  452.1 13.84 13
  452.2 14.35 14
  452.3 14.21 14
  452.4 13.51 13
  452.5 12.67 12
  452.6 12.19 12
  452.7 12.06 12
  452.8 11.33 11
  452.9 9.53 9
  453.1 7.96 7
  453.2 9.73 9
  453.3 11.26 11
  453.4 10.83 10
  453.5 9.42 9
  453.6 9.61 9
  453.7 11.88 11
  453.8 13.69 13
  453.9 13.09 13
  454.0 11.48 11
  454.1 11.38 11
  454.2 12.7 12
  454.3 13.0 12
  454.4 11.11 11
  455.5 8.4 8
  455.6 9.62 9
  455.7 10.76 10
  455.8 11.59 11
  455.9 11.92 11
  456.0 11.35 11
  456.9 9.37 9
  457.0 10.47 10
  457.1 11.97 11
  457.2 12.94 12
  457.3 12.67 12
  458.2 4.67 4
  458.3 8.4 8
  458.4 12.06 12
  458.5 12.58 12
  458.6 9.99 9
  458.7 6.89 6
  458.9 6.36 6
  459.0 7.81 7
  459.1 8.3 8
  459.2 7.24 7
  459.5 6.47 6
  459.6 8.56 8
  459.7 10.03 10
  459.8 10.27 10
  459.9 9.57 9
  460.2 7.77 7
  460.3 8.62 8
  460.4 10.08 10
  460.5 11.73 11
  460.6 12.54 12
  460.7 11.68 11
  460.8 9.62 9
  461.1 8.76 8
  461.2 11.05 11
  461.3 13.44 13
  461.4 14.37 14
  461.5 13.49 13
  461.6 12.65 12
  461.7 13.33 13
  461.8 14.24 14
  461.9 13.38 13
  462.0 10.96 10
  463.0 10.52 10
  463.1 11.64 11
  463.2 13.51 13
  463.3 14.76 14
  463.4 14.61 14
  463.5 13.47 13
  463.6 11.97 11
  463.9 11.04 11
  464.0 12.32 12
  464.1 13.44 13
  464.2 13.68 13
  464.3 12.89 12
  464.4 11.49 11
  464.5 10.41 10
  464.6 10.05 10
  464.7 9.95 9
  464.8 9.29 9
  465.8 7.0 6
  465.9 7.92 7
  466.0 10.06 10
  466.1 11.84 11
  466.2 11.46 11
  466.5 9.17 9
  466.6 10.27 10
  466.7 11.09 11
  466.8 11.93 11
  466.9 12.69 12
  467.0 12.04 12
  467.1 9.37 9
  467.4 5.02 5
  467.5 8.07 8
  467.6 10.36 10
  467.7 9.92 9
  467.9 7.04 7
  468.0 9.4 9
  468.1 12.63 12
  468.2 13.14 13
  471.1 6.71 6
  471.2 8.52 8
  471.3 9.68 9
  471.4 9.48 9
  471.5 9.4 9
  471.6 10.6 10
  471.7 11.7 11
  471.8 10.67 10
  471.9 7.48 7
  472.2 6.27 6
  472.3 8.45 8
  472.4 9.57 9
  472.5 9.92 9
  472.6 9.9 9
  472.7 9.31 9
  472.8 8.05 8
  473.7 6.38 6
  473.8 8.41 8
  473.9 10.23 10
  474.0 11.82 11
  474.1 13.25 13
  474.2 13.88 13
  474.3 13.27 13
  475.3 9.59 9
  475.4 12.28 12
  475.5 13.73 13
  475.6 12.76 12
  475.7 11.51 11
  475.8 12.37 12
  475.9 14.54 14
  476.0 15.07 15
  476.1 12.59 12
  476.2 8.78 8
  476.5 7.33 7
  476.6 8.85 8
  476.7 9.73 9
  476.8 9.83 9
  476.9 9.68 9
  477.0 10.17 10
  477.1 11.44 11
  477.2 12.28 12
  477.3 11.2 11
  477.4 8.41 8
  477.6 7.13 7
  477.7 9.7 9
  477.8 11.13 11
  477.9 10.19 10
  478.8 6.97 6
  478.9 8.96 8
  479.0 11.15 11
  479.1 12.1 12
  479.2 11.64 11
  479.3 10.63 10
  479.4 10.05 10
  479.5 9.81 9
  479.6 8.96 8
  480.3 9.51 9
  480.4 10.6 10
  480.5 11.66 11
  480.6 12.04 12
  480.7 11.18 11
  481.0 8.56 8
  481.1 10.23 10
  481.2 11.02 11
  481.3 9.88 9
  481.6 7.09 7
  481.7 8.41 8
  481.8 9.42 9
  481.9 9.44 9
  482.0 9.09 9
  482.1 9.66 9
  482.2 11.07 11
  482.3 11.64 11
  482.4 10.49 10
  482.9 8.29 8
  483.0 8.85 8
  483.1 11.11 11
  483.2 13.71 13
  483.3 14.63 14
  483.4 13.0 12
  483.5 9.39 9
  483.8 6.05 6
  483.9 10.08 10
  484.0 13.33 13
  484.1 13.9 13
  484.2 12.28 12
  484.4 10.5 10
  484.5 12.36 12
  484.6 14.3 14
  484.7 14.13 14
  485.0 10.17 10
  485.1 13.24 13
  485.2 15.11 15
  485.3 13.86 13
  485.4 10.83 10
  485.7 8.43 8
  485.8 9.55 9
  485.9 10.63 10
  486.0 11.05 11
  486.1 10.41 10
  486.2 9.13 9
  487.4 4.45 4
  487.5 6.87 6
  487.6 10.61 10
  487.7 12.76 12
  487.8 12.72 12
  487.9 11.97 11
  490.1 9.46 9
  490.2 11.7 11
  490.3 14.15 14
  490.4 14.34 14
  490.5 12.17 12
  490.8 9.99 9
  490.9 12.08 12
  491.0 14.98 14
  491.1 17.82 17
  491.2 18.85 18
  491.3 17.14 17
  491.4 13.71 13
  491.5 10.89 10
  492.1 9.64 9
  492.2 11.81 11
  492.3 15.29 15
  492.4 17.14 17
  492.5 15.47 15
  492.6 11.53 11
  493.3 10.39 10
  493.4 11.49 11
  493.5 12.81 12
  493.6 14.13 14
  493.7 14.74 14
  493.8 14.26 14
  493.9 13.46 13
  494.0 12.81 12
  496.3 9.77 9
  496.4 11.22 11
  496.5 11.84 11
  496.6 11.73 11
  496.7 11.55 11
  496.8 11.57 11
  496.9 11.24 11
  497.0 9.72 9
  497.1 6.86 6
  497.3 3.76 3
  497.4 6.84 6
  497.5 11.35 11
  497.6 14.46 14
  497.7 15.16 15
  497.8 14.45 14
  497.9 13.33 13
  498.0 12.17 12
  498.1 10.89 10
  498.2 9.66 9
  498.6 9.59 9
  498.7 10.16 10
  498.8 10.93 10
  498.9 11.79 11
  499.0 12.48 12
  499.1 12.48 12
  499.2 11.46 11
  500.1 9.31 9
  500.2 11.46 11
  500.3 13.29 13
  500.4 13.35 13
  500.5 11.77 11
  500.6 10.12 10
  500.7 9.44 9
  500.8 9.33 9
  501.1 7.31 7
  501.2 8.93 8
  501.3 12.15 12
  501.4 15.03 15
  501.5 15.95 15
  501.6 14.89 14
  501.7 12.67 12
  502.0 9.35 9
  502.1 11.35 11
  502.2 13.16 13
  502.3 13.22 13
  502.4 11.49 11
  502.6 9.24 9
  502.7 10.89 10
  502.8 13.16 13
  502.9 13.77 13
  503.0 11.81 11
  503.5 12.54 12
  503.6 12.01 11
  503.7 12.81 12
  503.8 14.59 14
  503.9 14.89 14
  504.0 12.61 12
  504.1 9.35 9
  504.3 8.05 8
  504.4 9.53 9
  504.5 10.5 10
  504.6 10.63 10
  504.7 10.82 10
  504.8 11.57 11
  504.9 12.19 12
  505.0 11.9 11
  505.1 11.09 11
  505.2 10.96 10
  505.3 11.75 11
  505.4 12.14 12
  505.5 10.98 10
  506.1 9.62 9
  506.2 10.65 10
  506.3 11.71 11
  506.4 12.52 12
  506.5 13.69 13
  506.6 15.0 14
  506.7 15.23 15
  506.8 14.01 13
  506.9 12.43 12
  507.0 11.64 11
  507.1 11.42 11
  507.4 9.62 9
  507.5 11.02 11
  507.6 13.07 13
  507.7 13.88 13
  507.8 12.48 12
  508.1 9.7 9
  508.2 11.62 11
  508.3 13.13 13
  508.4 13.75 13
  508.5 13.79 13
  508.6 13.49 13
  508.7 12.69 12
  508.8 11.66 11
  508.9 10.56 10
  509.0 9.2 9
  509.3 7.66 7
  509.4 10.01 9
  509.5 13.11 13
  509.6 15.55 15
  509.7 15.62 15
  509.8 12.8 12
  509.9 8.85 8
  510.2 7.74 7
  510.3 9.02 9
  510.4 9.92 9
  510.5 11.09 11
  510.6 12.56 12
  510.7 13.44 13
  510.8 12.92 12
  510.9 11.59 11
  511.0 10.52 10
  511.1 9.68 9
  511.4 7.28 7
  511.5 8.96 8
  511.6 10.85 10
  511.7 11.15 11
  512.6 6.12 6
  512.7 7.83 7
  512.8 9.15 9
  512.9 9.06 9
  513.8 7.08 7
  513.9 7.92 7
  514.0 8.12 8
  514.1 8.85 8
  514.2 10.82 10
  514.3 12.78 12
  514.4 12.98 12
  514.5 10.72 10
  514.6 6.91 6
  514.8 3.19 3
  514.9 7.06 7
  515.0 12.98 12
  515.1 17.12 17
  515.2 17.75 17
  515.3 16.22 16
  515.4 14.56 14
  517.1 7.46 7
  517.2 10.16 10
  517.3 11.97 11
  517.4 11.99 11
  517.5 11.13 11
  517.6 10.74 10
  517.7 11.15 11
  517.8 11.6 11
  517.9 11.66 11
  518.0 11.4 11
  518.1 10.65 10
  518.4 8.07 8
  518.5 10.06 10
  518.6 12.21 12
  518.7 12.89 12
  518.8 12.12 12
  518.9 11.05 11
  519.8 9.37 9
  519.9 11.33 11
  520.0 12.65 12
  520.1 12.72 12
  520.2 13.0 12
  520.3 14.21 14
  520.4 14.96 14
  520.5 13.77 13
  520.6 11.0 10
  521.5 6.18 6
  521.6 8.87 8
  521.7 11.81 11
  521.8 14.12 14
  521.9 15.16 15
  522.0 14.63 14
  522.1 12.76 12
  522.2 10.39 10
  523.3 6.6 6
  523.4 7.22 7
  523.5 9.42 9
  523.6 11.6 11
  523.7 12.01 11
  523.8 10.69 10
  523.9 9.0 8
  524.7 7.86 7
  524.8 10.98 10
  524.9 13.8 13
  525.0 13.31 13
  525.3 9.4 9
  525.4 12.69 12
  525.5 14.26 14
  525.6 12.7 12
  525.9 9.62 9
  526.0 13.09 13
  526.1 15.89 15
  526.2 16.24 16
  526.3 14.21 14
  526.4 11.15 11
  526.5 8.27 8
  528.6 6.73 6
  528.7 8.93 8
  528.8 12.39 12
  528.9 14.81 14
  529.0 14.7 14
  529.1 12.26 12
  529.2 8.73 8
  529.5 7.37 7
  529.6 9.2 9
  529.7 10.52 10
  529.8 12.39 12
  529.9 14.9 14
  530.0 15.69 15
  530.1 12.94 12
  530.2 8.67 8
  530.4 7.72 7
  530.5 9.61 9
  530.6 9.77 9
  530.8 7.42 7
  530.9 8.65 8
  531.0 12.21 12
  531.1 16.08 16
  531.2 17.01 16
  531.3 13.36 13
  531.4 7.3 7
  531.6 3.37 3
  531.7 7.06 7
  531.8 11.31 11
  531.9 13.86 13
  532.0 14.02 14
  532.1 13.05 13
  532.2 12.43 12
  532.3 12.34 12
  532.4 11.73 11
  532.5 10.23 10
  532.6 8.6 8
  532.7 7.61 7
  533.0 6.76 6
  533.1 7.86 7
  533.2 9.26 9
  533.3 9.64 9
  533.4 8.91 8
  533.5 8.47 8
  533.6 8.85 8
  533.7 9.13 9
  533.8 8.98 8
  533.9 9.46 9
  534.0 11.11 11
  534.1 12.78 12
  534.2 12.89 12
  534.3 11.05 11
  534.4 8.38 8
  534.6 7.33 7
  534.7 8.96 8
  534.8 10.12 10
  534.9 10.34 10
  535.0 10.34 10
  535.1 10.54 10
  535.2 10.16 10
  535.9 8.67 8
  536.0 9.9 9
  536.1 10.85 10
  536.2 11.11 11
  536.3 11.51 11
  536.4 12.17 12
  536.5 12.04 12
  536.6 10.32 10
  536.8 6.91 6
  536.9 8.69 8
  537.0 11.88 11
  537.1 13.69 13
  537.2 12.92 12
  537.3 10.69 10
  537.4 8.76 8
  537.8 8.05 8
  537.9 9.39 9
  538.0 10.87 10
  538.1 11.2 11
  538.2 10.43 10
  538.3 9.79 9
  538.4 9.81 9
  538.5 9.73 9
  538.9 8.49 8
  539.0 9.72 9
  539.1 11.09 11
  539.2 12.03 12
  539.3 11.24 11
  539.5 8.25 8
  539.6 10.1 10
  539.7 12.94 12
  539.8 13.99 13
  539.9 12.8 12
  540.0 11.26 11
  540.1 10.38 10
  540.2 9.11 9
  540.5 6.43 6
  540.6 8.87 8
  540.7 10.43 10
  540.8 9.84 9
  542.2 4.31 4
  542.3 7.11 7
  542.4 11.15 11
  542.5 13.44 13
  542.6 12.67 12
  542.7 10.1 10
  543.0 8.05 8
  543.1 9.06 9
  543.2 9.94 9
  543.3 10.96 10
  543.4 11.7 11
  543.5 11.16 11
  543.8 8.65 8
  543.9 11.05 11
  544.0 13.16 13
  544.1 12.87 12
  544.2 10.52 10
  544.3 8.4 8
  544.6 8.23 8
  544.7 8.76 8
  544.8 9.53 9
  544.9 9.75 9
  545.0 9.18 9
  545.1 8.73 8
  545.2 9.13 9
  545.3 10.34 10
  545.4 11.86 11
  545.5 13.05 13
  545.6 13.2 13
  545.7 11.92 11
  546.0 9.28 9
  546.1 10.78 10
  546.2 12.5 12
  546.3 13.33 13
  546.4 12.92 12
  546.5 11.75 11
  546.6 10.3 10
  546.9 7.85 7
  547.0 9.59 9
  547.1 12.06 12
  547.2 14.02 14
  547.3 14.54 14
  547.4 13.6 13
  547.5 12.28 12
  547.6 11.68 11
  547.7 11.51 11
  547.8 10.69 10
  548.1 9.04 9
  548.2 10.67 10
  548.3 11.29 11
  548.4 10.83 10
  548.5 10.39 10
  548.6 10.38 10
  548.9 8.45 8
  549.0 10.25 10
  549.1 13.07 13
  549.2 14.5 14
  549.3 13.66 13
  550.1 7.5 7
  550.2 10.01 9
  550.3 12.94 12
  550.4 14.43 14
  550.5 13.51 13
  550.6 11.18 11
  550.7 9.11 9
  551.0 8.52 8
  551.1 9.37 9
  551.2 10.27 10
  551.3 11.0 10
  551.4 11.29 11
  551.5 10.96 10
  551.6 10.25 10
  551.7 10.01 9
  551.8 10.78 10
  551.9 11.84 11
  552.0 11.64 11
  552.1 9.77 9
  552.2 7.42 7
  552.5 7.52 7
  552.6 8.49 8
  552.7 9.37 9
  552.8 10.34 10
  552.9 11.38 11
  553.0 12.25 12
  553.1 12.34 12
  554.0 7.48 7
  554.1 10.21 10
  554.2 11.93 11
  554.3 12.23 12
  554.4 11.99 11
  554.5 11.4 11
  554.6 10.21 10
  556.0 9.55 9
  556.1 10.21 10
  556.2 11.33 11
  556.3 13.57 13
  556.4 16.0 15
  556.5 16.94 16
  556.6 15.77 15
  556.7 13.09 13
  556.8 9.79 9
  557.0 6.43 6
  557.1 8.41 8
  557.2 11.79 11
  557.3 14.23 14
  557.4 14.57 14
  557.5 13.36 13
  557.6 11.64 11
  558.3 9.26 9
  558.4 10.89 10
  558.5 11.9 11
  558.6 11.53 11
  558.7 10.56 10
  559.0 9.7 9
  559.1 10.83 10
  559.2 12.89 12
  559.3 14.08 14
  559.4 13.02 13
  559.5 10.47 10
  560.4 10.36 10
  560.5 12.08 12
  560.6 13.35 13
  560.7 13.88 13
  560.8 13.44 13
  560.9 11.92 11
  561.2 10.39 10
  561.3 11.4 11
  561.4 12.54 12
  561.5 13.86 13
  561.6 14.46 14
  561.7 13.33 13
  562.7 8.85 8
  562.8 10.78 10
  562.9 11.99 11
  563.0 12.54 12
  563.1 13.07 13
  563.2 13.02 13
  563.3 11.29 11
  563.4 8.27 8
  563.6 6.47 6
  563.7 8.84 8
  563.8 11.22 11
  563.9 12.06 12
  564.0 11.33 11
  564.3 9.18 9
  564.4 11.24 11
  564.5 13.07 13
  564.6 12.72 12
  564.7 10.1 10
  565.0 6.62 6
  565.1 10.06 10
  565.2 13.9 13
  565.3 15.4 15
  565.4 13.18 13
  565.5 8.85 8
  565.7 5.94 5
  565.8 8.98 8
  565.9 12.8 12
  566.0 15.45 15
  566.1 16.19 16
  566.2 15.62 15
  566.3 14.74 14
  566.4 13.57 13
  566.5 11.51 11
  566.7 8.95 8
  566.8 10.85 10
  566.9 13.03 13
  567.0 13.35 13
  567.1 12.12 12
  567.7 10.3 10
  567.8 12.41 12
  567.9 15.45 15
  568.0 17.62 17
  568.1 16.94 16
  568.2 13.02 13
  568.3 8.07 8
  568.5 6.23 6
  568.6 8.67 8
  568.7 9.95 9
  568.8 9.9 9
  568.9 10.43 10
  569.0 12.61 12
  569.1 14.78 14
  569.2 14.32 14
  569.3 10.85 10
  569.6 7.13 7
  569.7 10.56 10
  569.8 13.82 13
  569.9 15.6 15
  570.0 15.77 15
  570.1 15.25 15
  570.2 15.0 14
  570.3 14.78 14
  570.4 13.95 13
  570.5 12.76 12
  571.7 7.42 7
  571.8 8.43 8
  571.9 10.25 10
  572.0 12.41 12
  572.1 13.99 13
  572.2 14.34 14
  572.3 13.75 13
  572.4 12.74 12
  573.3 8.27 8
  573.4 10.3 10
  573.5 11.4 11
  573.6 11.51 11
  573.7 11.75 11
  573.8 11.9 11
  573.9 10.94 10
  576.2 9.33 9
  576.3 11.38 11
  576.4 13.86 13
  576.5 14.83 14
  576.6 13.84 13
  576.7 12.14 12
  577.7 8.45 8
  577.8 10.16 10
  577.9 12.81 12
  578.0 14.23 14
  578.1 14.02 14
  578.2 13.99 13
  578.3 15.2 15
  578.4 16.68 16
  578.5 16.96 16
  578.6 15.84 15
  578.7 13.86 13
  578.8 11.64 11
  578.9 9.5 9
  579.0 7.85 7
  579.4 7.39 7
  579.5 8.38 8
  579.6 10.08 10
  579.7 12.04 12
  579.8 13.22 13
  579.9 12.76 12
  580.0 10.65 10
  580.3 8.23 8
  580.4 10.93 10
  580.5 12.32 12
  580.6 11.44 11
  582.5 3.63 3
  582.6 5.94 5
  582.7 9.77 9
  582.8 12.32 12
  582.9 11.88 11
  583.0 9.09 9
  583.1 5.79 5
  583.3 3.92 3
  583.4 6.38 6
  583.5 9.9 9
  583.6 12.81 12
  583.7 13.88 13
  583.8 13.49 13
  583.9 13.35 13
  584.0 14.28 14
  584.1 14.92 14
  584.2 13.42 13
  584.3 10.45 10
  584.5 9.11 9
  584.6 10.72 10
  584.7 11.75 11
  584.8 11.37 11
  585.1 8.96 8
  585.2 10.25 10
  585.3 11.18 11
  585.4 10.78 10
  585.7 9.31 9
  585.8 10.6 10
  585.9 11.51 11
  586.0 11.24 11
  586.1 9.83 9
  586.4 7.7 7
  586.5 9.31 9
  586.6 11.31 11
  586.7 12.36 12
  586.8 11.66 11
  586.9 9.72 9
  587.3 8.89 8
  587.4 9.26 9
  587.5 10.47 10
  587.6 12.17 12
  587.7 13.25 13
  587.8 13.24 13
  587.9 12.45 12
  588.0 11.31 11
  588.3 9.95 9
  588.4 10.94 10
  588.5 11.71 11
  588.6 11.7 11
  588.7 10.96 10
  590.2 7.19 7
  590.3 8.32 8
  590.4 11.05 11
  590.5 13.73 13
  590.6 13.68 13
  590.7 10.16 10
  590.8 5.63 5
  591.0 4.34 4
  591.1 6.18 6
  591.2 6.78 6
  591.3 6.51 6
  591.4 7.2 7
  591.5 9.28 9
  591.6 10.98 10
  591.7 11.18 11
  591.8 10.85 10
  591.9 11.6 11
  592.0 13.18 13
  592.1 14.21 14
  592.2 14.24 14
  592.3 13.75 13
  592.4 12.7 12
  592.5 10.5 10
  592.8 7.81 7
  592.9 10.85 10
  593.0 13.4 13
  593.1 14.19 14
  593.2 13.33 13
  593.3 11.66 11
  595.0 5.9 5
  595.1 8.41 8
  595.2 11.55 11
  595.3 12.74 12
  595.4 11.37 11
  595.5 9.13 9
  597.1 3.19 3
  597.2 6.34 6
  597.3 10.61 10
  597.4 13.51 13
  597.5 14.3 14
  597.6 13.4 13
  597.7 11.16 11
  597.8 8.51 8
  598.0 7.52 7
  598.1 9.04 9
  598.2 10.14 10
  598.3 10.05 10
  598.4 8.98 8
  599.3 7.9 7
  599.4 8.8 8
  599.5 9.81 9
  599.6 10.34 10
  599.7 10.5 10
  599.8 10.83 10
  599.9 11.93 11
  600.0 13.16 13
  600.1 13.16 13
  600.2 11.62 11
  601.0 11.24 11
  601.1 11.73 11
  601.2 12.8 12
  601.3 14.02 14
  601.4 14.76 14
  601.5 14.15 14
  601.6 12.12 12
  601.7 9.5 9
  601.8 7.24 7
  602.1 4.31 4
  602.2 6.47 6
  602.3 10.08 10
  602.4 13.05 13
  602.5 13.57 13
  602.6 11.73 11
  602.7 9.06 9
  602.9 7.11 7
  603.0 9.26 9
  603.1 12.14 12
  603.2 13.4 13
  603.3 12.28 12
  603.4 10.69 10
  603.9 9.57 9
  604.0 10.82 10
  604.1 11.66 11
  604.2 11.77 11
  604.3 11.7 11
  604.4 11.81 11
  604.5 12.19 12
  604.6 12.83 12
  604.7 13.29 13
  604.8 12.98 12
  604.9 11.95 11
  605.0 10.93 10
  605.1 10.27 10
  605.4 8.16 8
  605.5 9.18 9
  605.6 11.42 11
  605.7 13.05 13
  605.8 12.41 12
  605.9 10.05 10
  606.5 6.51 6
  606.6 8.34 8
  606.7 11.04 11
  606.8 12.78 12
  606.9 12.89 12
  607.0 11.57 11
  607.3 8.89 8
  607.4 10.63 10
  607.5 12.01 11
  607.6 11.77 11
  607.7 10.06 10
  607.9 7.81 7
  608.0 9.92 9
  608.1 13.38 13
  608.2 15.91 15
  608.3 15.95 15
  608.4 13.79 13
  608.5 10.91 10
  610.0 5.59 5
  610.1 7.5 7
  610.2 9.31 9
  610.3 9.97 9
  610.4 9.2 9
  610.6 6.86 6
  610.7 8.25 8
  610.8 11.48 11
  610.9 14.21 14
  611.0 14.72 14
  611.1 13.71 13
  611.2 12.92 12
  611.3 12.41 12
  611.4 11.04 11
  611.7 8.03 8
  611.8 9.95 9
  611.9 11.97 11
  612.0 13.31 13
  612.1 13.62 13
  612.2 12.76 12
  612.3 11.26 11
  614.5 8.67 8
  614.6 9.51 9
  614.7 10.08 10
  614.8 11.11 11
  614.9 12.47 12
  615.0 13.27 13
  615.1 12.92 12
  615.2 11.79 11
  615.7 10.16 10
  615.8 10.6 10
  615.9 11.97 11
  616.0 13.47 13
  616.1 14.34 14
  616.2 14.15 14
  616.3 12.91 12
  616.4 10.87 10
  616.7 9.99 9
  616.8 11.59 11
  616.9 12.61 12
  617.0 12.74 12
  617.1 12.59 12
  617.2 12.96 12
  617.3 14.02 14
  617.4 14.81 14
  617.5 14.56 14
  617.6 13.16 13
  617.7 10.98 10
  618.0 7.81 7
  618.1 11.07 11
  618.2 13.97 13
  618.3 13.97 13
  618.4 11.35 11
  618.6 8.67 8
  618.7 10.8 10
  618.8 13.07 13
  618.9 13.53 13
  619.0 12.36 12
  619.1 11.48 11
  619.2 12.43 12
  619.3 14.72 14
  619.4 16.59 16
  619.5 16.46 16
  619.6 14.1 14
  619.7 11.24 11
  621.1 7.08 7
  621.2 9.61 9
  621.3 13.14 13
  621.4 15.31 15
  621.5 14.41 14
  621.6 11.2 11
  621.7 7.96 7
  622.0 6.56 6
  622.1 8.54 8
  622.2 11.75 11
  622.3 14.28 14
  622.4 14.32 14
  622.5 12.37 12
  623.8 7.3 7
  623.9 8.82 8
  624.0 11.22 11
  624.1 13.03 13
  624.2 12.92 12
  624.3 10.72 10
  624.4 7.94 7
  624.6 7.24 7
  624.7 8.49 8
  624.8 8.91 8
  624.9 8.89 8
  625.0 9.95 9
  625.1 12.03 12
  625.2 13.18 13
  625.3 12.3 12
  626.9 7.26 7
  627.0 10.47 10
  627.1 13.84 13
  627.2 15.0 14
  627.3 13.77 13
  627.4 12.15 12
  627.5 11.24 11
  627.6 10.34 10
  627.7 8.49 8
  627.9 5.61 5
  628.0 7.15 7
  628.1 10.05 10
  628.2 12.36 12
  628.3 13.09 13
  628.4 13.07 13
  628.5 13.4 13
  628.6 13.88 13
  628.7 13.53 13
  628.8 11.93 11
  628.9 9.62 9
  629.2 8.51 8
  629.3 10.27 10
  629.4 11.7 11
  629.5 12.65 12
  629.6 13.16 13
  629.7 13.0 12
  629.8 12.06 12
  630.1 10.19 10
  630.2 11.49 11
  630.3 12.98 12
  630.4 13.35 13
  630.5 12.76 12
  630.6 12.56 12
  630.7 13.27 13
  630.8 13.8 13
  630.9 13.16 13
  632.0 10.39 10
  632.1 11.71 11
  632.2 13.22 13
  632.3 13.58 13
  632.4 12.32 12
  632.5 10.45 10
  633.1 9.53 9
  633.2 10.82 10
  633.3 12.28 12
  633.4 13.14 13
  633.5 12.72 12
  633.6 11.37 11
  633.7 10.45 10
  633.8 10.5 10
  633.9 10.39 10
  634.0 9.22 9
  634.3 9.07 9
  634.4 9.94 9
  634.5 10.67 10
  634.6 11.48 11
  634.7 11.64 11
  634.8 10.61 10
  636.1 9.37 9
  636.2 10.49 10
  636.3 11.48 11
  636.4 11.27 11
  636.7 9.09 9
  636.8 10.63 10
  636.9 11.73 11
  637.0 10.91 10
  637.1 8.45 8
  637.3 6.75 6
  637.4 8.73 8
  637.5 10.08 10
  637.6 9.57 9
  637.7 8.07 8
  638.2 7.63 7
  638.3 8.49 8
  638.4 10.63 10
  638.5 12.26 12
  638.6 11.88 11
  638.7 10.52 10
  638.8 10.36 10
  638.9 11.57 11
  639.0 12.58 12
  639.1 12.32 12
  639.2 11.31 11
  640.2 8.74 8
  640.3 10.21 10
  640.4 11.26 11
  640.5 10.74 10
  640.6 9.51 9
  640.7 9.53 9
  640.8 11.27 11
  640.9 12.81 12
  641.0 12.43 12
  641.1 10.45 10
  641.4 8.87 8
  641.5 10.56 10
  641.6 11.55 11
  641.7 11.29 11
  641.8 10.5 10
  641.9 9.86 9
  642.0 9.29 9
  642.3 8.36 8
  642.4 9.29 9
  642.5 10.5 10
  642.6 11.33 11
  642.7 11.2 11
  642.8 10.19 10
  643.2 9.2 9
  643.3 9.68 9
  643.4 10.49 10
  643.5 11.88 11
  643.6 13.33 13
  643.7 13.9 13
  643.8 13.31 13
  643.9 11.92 11
  644.0 10.28 10
  644.3 7.72 7
  644.4 9.11 9
  644.5 11.02 11
  644.6 11.75 11
  644.7 10.93 10
  644.8 10.12 10
  644.9 10.72 10
  645.0 12.12 12
  645.1 12.59 12
  645.2 11.48 11
  645.3 9.55 9
  645.6 8.62 8
  645.7 10.34 10
  645.8 12.25 12
  645.9 13.24 13
  646.0 12.65 12
  646.3 9.59 9
  646.4 11.53 11
  646.5 13.03 13
  646.6 12.06 12
  646.7 8.91 8
  646.9 6.65 6
  647.0 9.64 9
  647.1 12.19 12
  647.2 12.23 12
  647.3 11.18 11
  647.4 11.38 11
  647.5 12.45 12
  647.6 12.14 12
  647.7 10.17 10
  649.1 8.6 8
  649.2 9.84 9
  649.3 11.9 11
  649.4 13.68 13
  649.5 14.28 14
  649.6 13.64 13
  649.7 12.21 12
  650.9 2.95 2
  651.0 5.5 5
  651.1 8.56 8
  651.2 10.06 10
  651.3 9.7 9
  651.4 8.34 8
  651.7 5.92 5
  651.8 7.09 7
  651.9 8.85 8
  652.0 10.25 10
  652.1 10.63 10
  652.2 10.12 10
  653.2 7.64 7
  653.3 10.41 10
  653.4 12.41 12
  653.5 11.37 11
  653.8 7.66 7
  653.9 10.36 10
  654.0 13.07 13
  654.1 14.34 14
  654.2 14.37 14
  654.3 14.04 14
  654.4 13.16 13
  654.5 11.2 11
  654.8 9.77 9
  654.9 11.64 11
  655.0 13.02 13
  655.1 13.47 13
  655.2 13.13 13
  655.3 12.21 12
  655.4 11.15 11
  658.8 8.67 8
  658.9 10.78 10
  659.0 13.57 13
  659.1 15.09 15
  659.2 13.99 13
  659.3 11.35 11
  660.4 9.4 9
  660.5 11.05 11
  660.6 13.16 13
  660.7 13.33 13
  660.8 11.93 11
  661.4 10.45 10
  661.5 11.77 11
  661.6 12.7 12
  661.7 12.78 12
  661.8 12.19 12
  661.9 10.85 10
  662.2 9.33 9
  662.3 11.48 11
  662.4 12.89 12
  662.5 12.32 12
  662.6 10.01 9
  662.8 7.3 7
  662.9 9.2 9
  663.0 11.79 11
  663.1 13.31 13
  663.2 13.46 13
  663.3 12.52 12
  663.4 10.74 10
  663.5 8.58 8
  663.7 6.93 6
  663.8 8.71 8
  663.9 11.35 11
  664.0 12.87 12
  664.1 12.12 12
  664.2 10.19 10
  665.2 7.97 7
  665.3 9.17 9
  665.4 10.32 10
  665.5 10.23 10
  665.6 9.11 9
  665.7 7.94 7
  666.2 6.42 6
  666.3 7.48 7
  666.4 9.33 9
  666.5 10.94 10
  666.6 11.55 11
  666.7 11.31 11
  666.8 10.69 10
  666.9 9.72 9
  667.0 8.19 8
  667.2 6.54 6
  667.3 8.63 8
  667.4 11.09 11
  667.5 11.46 11
  667.6 9.9 9
  667.7 8.49 8
  667.8 8.12 8
  667.9 7.64 7
  668.1 4.78 4
  668.2 5.98 5
  668.3 9.7 9
  668.4 12.76 12
  668.5 11.9 11
  668.6 7.83 7
  668.8 4.47 4
  668.9 6.78 6
  669.0 8.67 8
  669.1 9.51 9
  669.2 10.94 10
  669.3 13.57 13
  669.4 15.42 15
  669.5 14.15 14
  669.6 10.6 10
  669.8 8.12 8
  669.9 10.08 10
  670.0 12.04 12
  670.1 13.35 13
  670.2 14.1 14
  670.3 14.26 14
  670.4 13.49 13
  670.5 11.7 11
  670.8 9.2 9
  670.9 10.8 10
  671.0 12.17 12
  671.1 12.89 12
  671.2 13.22 13
  671.3 13.58 13
  671.4 14.41 14
  671.5 15.38 15
  671.6 15.07 15
  671.7 12.56 12
  671.8 8.95 8
  672.0 6.42 6
  672.1 8.23 8
  672.2 10.52 10
  672.3 11.93 11
  672.4 11.88 11
  672.7 9.77 9
  672.8 10.93 10
  672.9 12.21 12
  673.0 11.92 11
  673.1 9.57 9
  673.2 6.62 6
  673.4 5.7 5
  673.5 7.86 7
  673.6 9.72 9
  673.7 9.51 9
  673.8 7.26 7
  674.0 5.48 5
  674.1 8.14 8
  674.2 11.11 11
  674.3 12.87 12
  674.4 13.31 13
  674.5 12.74 12
  674.6 11.46 11
  674.7 9.81 9
  675.4 9.37 9
  675.5 10.25 10
  675.6 10.87 10
  675.7 10.94 10
  675.8 10.83 10
  675.9 10.93 10
  676.0 11.13 11
  676.1 10.94 10
  676.2 10.38 10
  676.3 9.75 9
  676.4 9.55 9
  676.5 9.33 9
  676.6 8.32 8
  676.9 6.32 6
  677.0 8.05 8
  677.1 9.46 9
  677.2 9.95 9
  677.3 10.06 10
  677.4 10.61 10
  677.5 11.81 11
  677.6 12.69 12
  677.7 12.08 12
  677.8 10.06 10
  678.6 8.98 8
  678.7 10.5 10
  678.8 11.79 11
  678.9 11.73 11
  679.0 10.43 10
  679.1 9.0 8
  679.4 7.35 7
  679.5 8.1 8
  679.6 9.75 9
  679.7 11.62 11
  679.8 12.78 12
  679.9 12.47 12
  681.0 10.63 10
  681.1 12.17 12
  681.2 13.97 13
  681.3 14.67 14
  681.4 13.55 13
  681.5 10.87 10
  681.7 8.18 8
  681.8 10.74 10
  681.9 13.47 13
  682.0 13.82 13
  682.6 12.72 12
  682.7 13.69 13
  682.8 14.48 14
  682.9 14.32 14
  683.0 13.58 13
  683.1 12.72 12
  683.2 11.53 11
  684.1 9.35 9
  684.2 11.81 11
  684.3 13.4 13
  684.4 13.46 13
  684.5 12.78 12
  684.6 12.03 12
  684.7 11.2 11
  685.0 9.51 9
  685.1 11.15 11
  685.2 13.44 13
  685.3 14.89 14
  685.4 14.94 14
  685.5 14.41 14
  685.6 14.17 14
  685.7 14.28 14
  685.8 14.46 14
  685.9 14.26 14
  686.0 13.29 13
  686.9 9.37 9
  687.0 10.87 10
  687.1 11.49 11
  687.2 11.38 11
  687.3 11.27 11
  687.4 11.26 11
  687.7 9.51 9
  687.8 10.58 10
  687.9 12.91 12
  688.0 14.37 14
  688.1 13.73 13
  688.2 11.97 11
  688.3 10.82 10
  688.4 10.56 10
  688.5 10.1 10
  688.6 8.69 8
  688.9 6.73 6
  689.0 9.73 9
  689.1 12.45 12
  689.2 13.18 13
  689.3 12.21 12
  689.9 11.27 11
  690.0 11.88 11
  690.1 12.56 12
  690.2 12.67 12
  690.5 10.56 10
  690.6 11.79 11
  690.7 13.14 13
  690.8 13.24 13
  690.9 11.22 11
  691.0 7.72 7
  691.2 4.67 4
  691.3 7.26 7
  691.4 10.82 10
  691.5 13.14 13
  691.6 13.09 13
  691.7 11.37 11
  692.5 7.33 7
  692.6 9.2 9
  692.7 11.16 11
  692.8 12.01 11
  692.9 12.01 11
  693.0 12.04 12
  693.1 12.17 12
  693.2 11.88 11
  693.3 11.38 11
  693.4 11.68 11
  693.5 13.03 13
  693.6 14.46 14
  693.7 14.96 14
  693.8 14.85 14
  693.9 14.72 14
  694.0 14.32 14
  694.3 13.18 13
  694.4 14.94 14
  694.5 16.19 16
  694.6 16.22 16
  694.7 15.31 15
  694.8 13.62 13
  694.9 11.35 11
  695.7 9.46 9
  695.8 10.25 10
  695.9 10.91 10
  696.0 11.35 11
  696.1 10.85 10
  696.3 8.93 8
  696.4 10.41 10
  696.5 13.13 13
  696.6 14.74 14
  696.7 13.79 13
  696.8 10.83 10
  697.6 9.33 9
  697.7 10.76 10
  697.8 13.05 13
  697.9 14.24 14
  698.0 13.0 12
  698.1 10.52 10
  698.8 7.15 7
  698.9 8.34 8
  699.0 10.43 10
  699.1 12.89 12
  699.2 14.5 14
  699.3 14.79 14
  699.4 14.78 14
  699.5 15.25 15
  699.6 15.44 15
  699.7 13.88 13
  699.8 10.69 10
  699.9 7.53 7
  700.1 6.29 6
  700.2 7.81 7
  700.3 9.42 9
  700.4 10.49 10
  700.5 11.09 11
  700.6 11.81 11
  700.7 12.47 12
  700.8 12.23 12
  701.1 9.97 9
  701.2 11.7 11
  701.3 13.36 13
  701.4 13.79 13
  701.5 13.09 13
  701.8 11.37 11
  701.9 12.48 12
  702.0 13.36 13
  702.1 12.61 12
  702.2 10.21 10
  702.3 7.74 7
  702.6 8.23 8
  702.7 8.71 8
  702.8 9.22 9
  702.9 10.65 10
  703.0 12.36 12
  703.1 12.92 12
  704.6 8.01 8
  704.7 9.84 9
  704.8 11.81 11
  704.9 12.1 12
  705.0 10.8 10
  705.1 9.17 9
  705.2 7.94 7
  705.3 6.89 6
  705.9 6.31 6
  706.0 6.91 6
  706.1 7.68 7
  706.2 8.52 8
  706.3 9.22 9
  706.4 9.09 9
  706.5 7.66 7
  706.7 5.61 5
  706.8 8.12 8
  706.9 11.29 11
  707.0 12.19 12
  707.3 9.31 9
  707.4 11.09 11
  707.5 13.24 13
  707.6 14.3 14
  707.7 13.55 13
  707.8 11.71 11
  707.9 10.14 10
  708.2 8.84 8
  708.3 10.03 10
  708.4 10.94 10
  708.5 10.21 10
  708.8 7.5 7
  708.9 9.64 9
  709.0 12.08 12
  709.1 13.51 13
  709.2 13.49 13
  709.3 13.02 13
  709.4 13.25 13
  709.5 13.93 13
  709.6 13.53 13
  709.7 11.77 11
  709.8 9.79 9
  709.9 8.52 8
  710.2 6.8 6
  710.3 8.05 8
  710.4 10.17 10
  710.5 12.28 12
  710.6 13.66 13
  710.7 14.13 14
  710.8 13.68 13
  710.9 12.3 12
  711.0 10.54 10
  711.1 9.04 9
  711.4 8.56 8
  711.5 9.66 9
  711.6 10.85 10
  711.7 11.7 11
  711.8 11.53 11
  711.9 10.03 10
  712.2 7.5 7
  712.3 10.05 10
  712.4 12.63 12
  712.5 14.01 13
  712.6 14.19 14
  712.7 13.46 13
  712.8 11.6 11
  712.9 8.95 8
  713.1 6.18 6
  713.2 8.18 8
  713.3 12.14 12
  713.4 16.22 16
  713.5 18.33 18
  713.6 17.65 17
  713.7 15.11 15
  713.8 11.64 11
  713.9 7.7 7
  714.2 5.54 5
  714.3 7.77 7
  714.4 8.52 8
  714.5 8.73 8
  714.6 10.05 10
  714.7 12.1 12
  714.8 12.83 12
  714.9 11.16 11
  715.2 9.04 9
  715.3 11.79 11
  715.4 13.9 13
  715.5 14.24 14
  715.6 12.89 12
  715.7 10.65 10
  716.6 8.93 8
  716.7 9.95 9
  716.8 11.77 11
  716.9 12.25 12
  717.0 11.0 10
  717.9 8.07 8
  718.0 10.34 10
  718.1 12.41 12
  718.2 12.98 12
  718.3 11.95 11
  718.4 9.53 9
  718.5 6.45 6
  718.7 5.02 5
  718.8 8.18 8
  718.9 12.01 11
  719.0 13.9 13
  719.1 12.34 12
  719.2 8.56 8
  719.5 5.72 5
  719.6 7.19 7
  719.7 8.69 8
  719.8 10.03 10
  719.9 10.78 10
  720.0 10.3 10
  720.1 8.36 8
  720.3 5.1 5
  720.4 7.31 7
  720.5 11.37 11
  720.6 13.95 13
  720.7 12.94 12
  720.8 9.53 9
  721.0 7.24 7
  721.1 9.46 9
  721.2 10.91 10
  721.3 10.47 10
  721.4 9.62 9
  721.5 9.94 9
  721.6 10.91 10
  721.7 11.0 10
  721.8 9.72 9
  722.1 8.32 8
  722.2 10.28 10
  722.3 12.58 12
  722.4 13.93 13
  722.5 13.91 13
  722.6 13.53 13
  722.7 13.51 13
  722.8 13.22 13
  722.9 11.59 11
  723.2 8.32 8
  723.3 10.38 10
  723.4 12.76 12
  723.5 14.74 14
  723.6 16.13 16
  723.7 16.9 16
  723.8 16.83 16
  723.9 15.62 15
  724.0 13.27 13
  724.1 10.45 10
  724.4 8.25 8
  724.5 10.38 10
  724.6 12.28 12
  724.7 12.56 12
  724.8 11.68 11
  724.9 11.46 11
  725.0 12.8 12
  725.1 14.5 14
  725.2 14.79 14
  725.3 13.31 13
  725.4 11.27 11
  725.7 9.62 9
  725.8 10.74 10
  725.9 12.43 12
  726.0 13.25 13
  726.1 12.06 12
  726.2 9.72 9
  726.4 8.1 8
  726.5 9.28 9
  726.6 10.98 10
  726.7 12.76 12
  726.8 13.46 13
  726.9 11.97 11
  728.0 8.49 8
  728.1 9.62 9
  728.2 11.62 11
  728.3 12.28 12
  728.4 10.87 10
  728.5 8.63 8
  728.7 7.15 7
  728.8 8.91 8
  728.9 11.22 11
  729.0 12.1 12
  729.1 10.65 10
  729.2 8.23 8
  729.8 7.11 7
  729.9 8.41 8
  730.0 10.14 10
  730.1 11.27 11
  730.2 11.31 11
  730.3 10.39 10
  730.4 8.69 8
  730.5 6.54 6
  730.7 4.62 4
  730.8 6.6 6
  730.9 9.68 9
  731.0 12.14 12
  731.1 13.11 13
  731.2 12.8 12
  731.3 11.51 11
  731.4 9.57 9
  732.7 6.34 6
  732.8 7.94 7
  732.9 9.29 9
  733.0 9.48 9
  733.1 8.56 8
  733.3 6.67 6
  733.4 7.88 7
  733.5 10.19 10
  733.6 11.59 11
  733.7 10.67 10
  733.8 8.32 8
  734.0 6.53 6
  734.1 8.21 8
  734.2 11.11 11
  734.3 13.99 13
  734.4 15.01 14
  734.5 13.25 13
  734.6 10.3 10
  737.2 5.32 5
  737.3 7.02 7
  737.4 9.0 8
  737.5 9.4 9
  737.6 8.69 8
  737.7 9.06 9
  737.8 11.37 11
  737.9 13.73 13
  738.0 13.31 13
  738.1 9.77 9
  738.3 4.89 4
  738.4 7.28 7
  738.5 10.94 10
  738.6 13.68 13
  738.7 14.46 14
  738.8 13.05 13
  738.9 9.99 9
  739.1 7.52 7
  739.2 10.36 10
  739.3 12.65 12
  739.4 11.68 11
  739.7 7.74 7
  739.8 11.51 11
  739.9 14.1 14
  740.0 13.47 13
  740.1 10.96 10
  740.4 11.15 11
  740.5 11.59 11
  740.6 12.14 12
  740.7 13.25 13
  740.8 13.8 13
  740.9 13.13 13
  741.0 11.92 11
  741.1 10.65 10
  741.2 8.51 8
  741.3 5.41 5
  741.5 4.0 3
  741.6 6.62 6
  741.7 9.06 9
  741.8 10.43 10
  741.9 11.02 11
  742.0 10.89 10
  742.1 10.21 10
  742.2 9.79 9
  742.3 9.92 9
  742.4 9.7 9
  742.5 8.52 8
  742.8 7.57 7
  742.9 8.65 8
  743.0 9.62 9
  743.1 10.71 10
  743.2 11.93 11
  743.3 13.09 13
  743.4 13.73 13
  743.5 13.38 13
  743.6 12.08 12
  743.7 10.58 10
  744.1 9.48 9
  744.2 10.41 10
  744.3 11.84 11
  744.4 13.55 13
  744.5 14.96 14
  744.6 14.78 14
  744.7 12.52 12
  744.8 9.86 9
  745.5 8.34 8
  745.6 10.47 10
  745.7 13.57 13
  745.8 15.66 15
  745.9 14.9 14
  746.0 11.75 11
  746.1 8.69 8
  746.9 5.48 5
  747.0 7.59 7
  747.1 10.1 10
  747.2 11.57 11
  747.3 11.81 11
  747.4 11.51 11
  747.5 11.49 11
  747.6 11.93 11
  747.7 13.11 13
  747.8 14.72 14
  747.9 15.66 15
  748.0 14.78 14
  748.3 12.15 12
  748.4 14.12 14
  748.5 14.94 14
  748.6 14.01 13
  748.7 12.56 12
  748.8 11.55 11
  749.1 9.88 9
  749.2 11.0 10
  749.3 12.17 12
  749.4 12.45 12
  749.5 12.28 12
  749.6 12.7 12
  749.7 13.18 13
  749.8 12.36 12
  749.9 10.19 10
  750.1 8.18 8
  750.2 9.68 9
  750.3 11.53 11
  750.4 12.47 12
  750.5 11.81 11
  751.3 9.06 9
  751.4 10.61 10
  751.5 13.13 13
  751.6 15.36 15
  751.7 15.4 15
  751.8 13.0 12
  751.9 10.36 10
  752.9 6.27 6
  753.0 8.82 8
  753.1 12.08 12
  753.2 14.15 14
  753.3 14.59 14
  753.4 14.12 14
  753.5 13.71 13
  753.6 13.95 13
  753.7 14.41 14
  753.8 14.08 14
  753.9 12.41 12
  754.0 10.01 9
  754.3 8.58 8
  754.4 10.54 10
  754.5 12.5 12
  754.6 13.22 13
  754.7 12.01 11
  755.9 10.12 10
  756.0 11.49 11
  756.1 13.99 13
  756.2 15.95 15
  756.3 16.33 16
  756.4 15.53 15
  756.5 14.06 14
  756.6 11.9 11
  756.7 9.44 9
  757.0 7.24 7
  757.1 8.96 8
  757.2 11.09 11
  757.3 12.17 12
  757.4 11.81 11
  757.5 11.27 11
  757.6 11.71 11
  757.7 12.48 12
  757.8 12.12 12
  757.9 10.39 10
  758.2 8.87 8
  758.3 9.79 9
  758.4 10.47 10
  758.5 11.04 11
  758.6 11.37 11
  758.7 11.02 11
  758.8 10.38 10
  758.9 10.5 10
  759.0 11.75 11
  759.1 12.74 12
  759.2 12.15 12
  760.1 9.44 9
  760.2 10.27 10
  760.3 10.96 10
  760.4 10.43 10
  760.5 8.4 8
  760.8 6.53 6
  760.9 8.3 8
  761.0 9.2 9
  761.1 8.85 8
  761.2 8.07 8
  761.3 7.99 7
  761.4 9.24 9
  761.5 11.11 11
  761.6 11.86 11
  761.7 10.38 10
  762.0 7.99 7
  762.1 10.6 10
  762.2 12.25 12
  762.3 12.5 12
  762.4 12.15 12
  762.5 11.46 11
  763.1 11.38 11
  763.2 12.37 12
  763.3 13.86 13
  763.4 14.57 14
  763.5 13.95 13
  763.6 11.93 11
  763.7 8.95 8
  763.9 7.26 7
  764.0 9.99 9
  764.1 12.74 12
  764.2 13.36 13
  764.3 12.17 12
  764.4 11.44 11
  764.5 12.37 12
  764.6 13.4 13
  764.7 12.58 12
  764.8 10.34 10
  765.0 8.87 8
  765.1 10.12 10
  765.2 11.64 11
  765.3 12.94 12
  765.4 13.53 13
  765.5 12.98 12
  765.6 11.24 11
  765.7 9.06 9
  765.9 7.37 7
  766.0 8.67 8
  766.1 10.61 10
  766.2 11.97 11
  766.3 12.37 12
  766.4 12.56 12
  766.5 13.29 13
  766.6 14.1 14
  766.7 14.01 13
  766.8 12.85 12
  766.9 11.46 11
  767.0 10.34 10
  767.1 9.31 9
  767.4 6.71 6
  767.5 8.43 8
  767.6 11.73 11
  767.7 14.63 14
  767.8 15.0 14
  767.9 12.76 12
  768.0 9.92 9
  768.2 9.07 9
  768.3 10.5 10
  768.4 11.6 11
  768.5 11.53 11
  768.6 10.19 10
  768.9 8.6 8
  769.0 11.0 10
  769.1 13.05 13
  769.2 13.4 13
  769.3 11.99 11
  769.4 9.99 9
  770.5 6.53 6
  770.6 9.68 9
  770.7 13.64 13
  770.8 15.89 15
  770.9 14.98 14
  771.0 12.06 12
  771.1 9.5 9
  771.7 9.5 9
  771.8 10.39 10
  771.9 11.75 11
  772.0 11.9 11
  772.1 10.06 10
  772.2 7.44 7
  772.4 6.71 6
  772.5 8.32 8
  772.6 9.33 9
  772.7 9.11 9
  772.8 8.56 8
  772.9 8.84 8
  773.0 9.51 9
  773.1 9.18 9
  773.4 7.64 7
  773.5 9.95 9
  773.6 11.66 11
  773.7 11.51 11
  773.8 9.84 9
  774.9 9.04 9
  775.0 10.39 10
  775.1 12.04 12
  775.2 13.2 13
  775.3 13.09 13
  775.4 11.48 11
  775.5 9.2 9
  775.8 8.47 8
  775.9 10.25 10
  776.0 11.97 11
  776.1 12.48 12
  776.2 11.59 11
  776.8 7.77 7
  776.9 10.61 10
  777.0 13.8 13
  777.1 14.01 13
  777.2 10.63 10
  777.3 6.51 6
  777.5 6.18 6
  777.6 8.93 8
  777.7 10.76 10
  777.8 10.52 10
  777.9 9.06 9
  778.0 7.77 7
  778.3 5.37 5
  778.4 7.11 7
  778.5 11.16 11
  778.6 14.7 14
  778.7 15.38 15
  778.8 14.21 14
  778.9 13.07 13
  779.0 11.97 11
  779.1 9.68 9
  779.4 6.58 6
  779.5 8.89 8
  779.6 10.05 10
  779.7 9.66 9
  779.8 9.44 9
  779.9 10.89 10
  780.0 13.09 13
  780.1 13.62 13
  780.2 11.64 11
  780.3 8.67 8
  780.9 7.64 7
  781.0 9.62 9
  781.1 12.39 12
  781.2 13.03 13
  781.3 11.44 11
  781.4 9.73 9
  784.0 4.4 4
  784.1 7.06 7
  784.2 10.58 10
  784.3 11.77 11
  784.4 10.69 10
  784.5 9.68 9
  784.6 9.92 9
  784.7 10.87 10
  784.8 11.57 11
  784.9 11.37 11
  785.0 9.88 9
  785.1 7.74 7
  785.3 6.27 6
  785.4 7.74 7
  785.5 10.3 10
  785.6 13.07 13
  785.7 14.61 14
  785.8 14.21 14
  785.9 12.87 12
  786.6 12.23 12
  786.7 12.61 12
  786.8 13.35 13
  786.9 14.08 14
  787.0 14.21 14
  787.1 13.62 13
  787.2 12.5 12
  787.3 10.89 10
  788.8 5.85 5
  788.9 9.13 9
  789.0 10.72 10
  789.1 10.34 10
  789.2 9.73 9
  789.3 10.34 10
  789.4 12.01 11
  789.5 13.29 13
  789.6 13.03 13
  789.7 11.57 11
  790.4 5.57 5
  790.5 8.41 8
  790.6 11.73 11
  790.7 12.85 12
  790.8 11.0 10
  791.0 7.08 7
  791.1 9.02 9
  791.2 12.48 12
  791.3 14.72 14
  791.4 13.88 13
  791.5 10.63 10
  791.7 6.89 6
  791.8 9.5 9
  791.9 13.27 13
  792.0 15.18 15
  792.1 13.88 13
  792.2 11.15 11
  793.5 7.09 7
  793.6 9.04 9
  793.7 11.84 11
  793.8 14.21 14
  793.9 14.98 14
  794.0 14.28 14
  794.1 13.64 13
  794.2 14.04 14
  794.3 14.54 14
  794.4 13.75 13
  794.5 11.99 11
  794.6 10.52 10
  794.9 8.14 8
  795.0 9.64 9
  795.1 12.52 12
  795.2 14.08 14
  795.3 13.0 12
  795.4 10.82 10
  795.5 9.28 9
  796.0 8.85 8
  796.1 9.15 9
  796.2 11.11 11
  796.3 14.08 14
  796.4 15.73 15
  796.5 14.9 14
  796.6 12.65 12
  796.7 10.65 10
  797.4 9.4 9
  797.5 11.24 11
  797.6 13.84 13
  797.7 15.8 15
  797.8 16.32 16
  797.9 15.4 15
  798.0 13.53 13
  798.1 11.66 11
  798.9 8.91 8
  799.0 9.09 9
  799.1 10.47 10
  799.2 13.6 13
  799.3 16.11 16
  799.4 15.45 15
  799.5 12.25 12
//
