ACCESSION: MSBNK-RIKEN_NPDepo-NGA04497
RECORD_TITLE: Lagochilin; LC-ESI-QQQ; MS2; Frag=135.0V CID@25.0; [M+HCOO]-
DATE: 2018.04.04
AUTHORS: Nogawa T, Okano A, CSRS, RIKEN
LICENSE: CC BY
COMMENT: Origin: Plant
COMMENT: SubCategory_DNP: Diterpenoids, Lagochilin diterpenoids
CH$NAME: Lagochilin
CH$COMPOUND_CLASS: Terpenoids
CH$FORMULA: C20H36O5
CH$EXACT_MASS: 356.5069
CH$SMILES: C[C@@H]1CCC2[C@](C)(CC[C@H](O)[C@@]2(C)CO)[C@]12CCC(CO)(CCO)O2
CH$IUPAC: InChI=1S/C20H36O5/c1-14-4-5-15-17(2,12-22)16(24)6-7-18(15,3)20(14)9-8-19(13-23,25-20)10-11-21/h14-16,21-24H,4-13H2,1-3H3/t14-,15?,16+,17+,18+,19?,20+/m1/s1
CH$LINK: CAS 23554-81-6
CH$LINK: CHEMSPIDER 5140873
CH$LINK: INCHIKEY XYPPDQHBNJURHU-SSLRCSEFSA-N
CH$LINK: PUBCHEM CID:23010489
AC$INSTRUMENT: Agilent 6410 Triple Quadrupole LC/MS system
AC$INSTRUMENT_TYPE: LC-ESI-QQQ
AC$MASS_SPECTROMETRY: MS_TYPE MS2
AC$MASS_SPECTROMETRY: ION_MODE NEGATIVE
MS$FOCUSED_ION: PRECURSOR_TYPE [M+HCOO]-
PK$SPLASH: splash10-03gi-4898880000-54205e20d65edc1c843e
PK$NUM_PEAK: 4068
PK$PEAK: m/z int. rel.int.
  50.3 15.7 15
  50.4 21.99 21
  50.5 26.0 25
  50.6 24.1 24
  50.7 18.08 18
  50.9 14.34 14
  51.0 20.11 20
  51.1 25.14 25
  51.2 24.74 24
  51.3 19.49 19
  51.5 13.62 13
  51.6 17.51 17
  51.7 22.02 21
  51.8 22.66 22
  51.9 18.4 18
  52.2 13.08 13
  52.3 18.77 18
  52.4 22.39 22
  52.5 21.1 21
  52.8 16.02 16
  52.9 21.67 21
  53.0 25.78 25
  53.1 24.27 24
  53.2 17.78 17
  53.5 12.16 12
  53.6 17.41 17
  53.7 20.88 20
  53.8 20.98 20
  53.9 18.85 18
  54.1 17.24 17
  54.2 19.79 19
  54.3 22.91 22
  54.4 23.63 23
  54.5 20.65 20
  54.6 16.34 16
  54.8 15.9 15
  54.9 18.75 18
  55.0 19.94 19
  55.3 17.14 17
  55.4 20.43 20
  55.5 23.77 23
  55.6 23.55 23
  55.7 19.42 19
  56.0 13.42 13
  56.1 18.3 18
  56.2 22.29 22
  56.3 21.3 21
  56.4 15.35 15
  56.6 9.14 9
  56.7 14.88 14
  56.8 22.36 22
  56.9 25.43 25
  57.0 21.42 21
  57.1 13.52 13
  57.3 10.7 10
  57.4 17.58 17
  57.5 23.23 23
  57.6 23.95 23
  57.7 21.12 21
  57.9 18.45 18
  58.0 21.0 20
  58.1 23.53 23
  58.2 22.96 22
  58.3 18.65 18
  58.4 13.03 13
  58.6 10.75 10
  58.7 15.08 15
  58.8 19.09 19
  58.9 19.64 19
  59.0 16.77 16
  59.2 13.97 13
  59.3 17.98 17
  59.4 23.03 23
  59.5 24.76 24
  59.6 20.58 20
  59.7 12.95 12
  59.9 9.31 9
  60.0 16.12 16
  60.1 22.63 22
  60.2 23.75 23
  60.3 19.54 19
  60.5 14.09 14
  60.6 17.31 17
  60.7 20.78 20
  60.8 21.37 21
  60.9 18.72 18
  61.1 14.56 14
  61.2 17.9 17
  61.3 22.56 22
  61.4 24.02 23
  61.5 20.11 20
  61.6 13.74 13
  61.8 12.63 12
  61.9 18.0 17
  62.0 20.93 20
  62.1 19.02 19
  62.4 15.3 15
  62.5 19.94 19
  62.6 23.87 23
  62.7 24.0 23
  62.8 19.44 19
  62.9 12.9 12
  63.1 11.32 11
  63.2 17.71 17
  63.3 22.76 22
  63.4 21.4 21
  63.5 14.29 14
  63.7 9.88 9
  63.8 18.6 18
  63.9 27.07 27
  64.0 28.58 28
  64.1 22.88 22
  64.2 15.01 14
  64.4 13.72 13
  64.5 19.99 19
  64.6 23.5 23
  64.7 21.03 21
  64.8 15.45 15
  65.0 14.81 14
  65.1 19.71 19
  65.2 22.76 22
  65.3 21.03 21
  65.4 15.53 15
  65.6 11.39 11
  65.7 17.06 17
  65.8 22.59 22
  65.9 22.71 22
  66.0 17.41 17
  66.2 10.18 10
  66.3 15.01 14
  66.4 22.26 22
  66.5 25.66 25
  66.6 22.21 22
  66.7 15.21 15
  66.9 11.96 11
  67.0 16.74 16
  67.1 20.83 20
  67.2 21.47 21
  67.3 18.67 18
  67.5 14.64 14
  67.6 17.21 17
  67.7 20.53 20
  67.8 21.42 21
  67.9 18.85 18
  68.2 14.14 14
  68.3 19.29 19
  68.4 23.43 23
  68.5 22.68 22
  68.6 17.48 17
  68.8 12.46 12
  68.9 17.09 17
  69.0 21.62 21
  69.1 21.45 21
  69.2 16.99 16
  69.4 13.62 13
  69.5 18.52 18
  69.6 23.8 23
  69.7 25.58 25
  69.8 22.76 22
  69.9 17.41 17
  70.1 12.06 12
  70.2 15.06 15
  70.3 19.47 19
  70.4 21.35 21
  70.5 18.62 18
  70.7 10.97 10
  70.8 14.46 14
  70.9 21.1 21
  71.0 24.62 24
  71.1 21.64 21
  71.4 14.78 14
  71.5 20.51 20
  71.6 24.44 24
  71.7 23.16 23
  71.8 17.51 17
  72.0 12.06 12
  72.1 16.82 16
  72.2 21.59 21
  72.3 21.77 21
  72.4 16.99 16
  72.7 10.85 10
  72.8 16.91 16
  72.9 22.56 22
  73.0 24.12 24
  73.1 21.2 21
  73.2 17.01 16
  73.3 14.86 14
  73.4 14.96 14
  73.5 15.08 15
  73.6 13.57 13
  73.9 9.48 9
  74.0 15.45 15
  74.1 23.25 23
  74.2 26.77 26
  74.3 22.86 22
  74.4 15.3 15
  74.6 12.93 12
  74.7 18.42 18
  74.8 22.07 22
  74.9 20.75 20
  75.0 15.97 15
  75.2 13.5 13
  75.3 18.8 18
  75.4 23.48 23
  75.5 22.91 22
  75.6 17.58 17
  75.8 12.06 12
  75.9 15.75 15
  76.0 19.94 19
  76.1 21.52 21
  76.2 19.91 19
  76.4 14.96 14
  76.5 16.86 16
  76.6 21.74 21
  76.7 25.48 25
  76.8 24.15 24
  76.9 17.95 17
  77.1 11.14 11
  77.2 16.34 16
  77.3 22.46 22
  77.4 23.68 23
  77.5 18.95 18
  77.6 12.53 12
  77.8 12.23 12
  77.9 17.06 17
  78.0 19.81 19
  78.1 18.75 18
  79.0 10.03 10
  79.1 14.86 14
  79.2 22.63 22
  79.3 27.41 27
  79.4 25.46 25
  79.5 17.86 17
  79.6 9.86 9
  79.8 10.4 10
  79.9 15.7 15
  80.0 18.1 18
  80.1 17.01 16
  80.2 15.75 15
  80.3 17.06 17
  80.4 20.58 20
  80.5 23.82 23
  80.6 24.64 24
  80.7 22.71 22
  80.8 19.49 19
  81.0 17.83 17
  81.1 20.63 20
  81.2 23.68 23
  81.3 24.39 24
  81.4 21.64 21
  81.5 16.89 16
  81.7 15.26 15
  81.8 19.37 19
  81.9 21.89 21
  82.0 20.18 20
  82.3 16.15 16
  82.4 21.12 21
  82.5 24.47 24
  82.6 22.93 22
  82.7 17.19 17
  82.9 9.96 9
  83.0 13.97 13
  83.1 19.07 19
  83.2 19.86 19
  83.3 15.18 15
  83.5 9.41 9
  83.6 15.53 15
  83.7 22.96 22
  83.8 25.06 25
  83.9 19.91 19
  84.2 12.11 12
  84.3 19.44 19
  84.4 24.76 24
  84.5 24.15 24
  84.6 18.23 18
  84.9 12.75 12
  85.0 17.98 17
  85.1 20.95 20
  85.2 20.13 20
  85.3 16.82 16
  85.5 13.87 13
  85.6 17.16 17
  85.7 20.78 20
  85.8 21.37 21
  85.9 18.7 18
  86.7 16.2 16
  86.8 20.01 19
  86.9 23.43 23
  87.0 22.96 22
  87.1 18.42 18
  87.4 13.74 13
  87.5 19.24 19
  87.6 23.92 23
  87.7 24.62 24
  87.8 20.98 20
  87.9 16.17 16
  88.5 13.37 13
  88.6 14.44 14
  88.7 16.64 16
  88.8 19.37 19
  88.9 20.68 20
  89.0 18.67 18
  89.8 7.8 7
  89.9 11.27 11
  90.0 16.15 16
  90.1 20.53 20
  90.2 22.59 22
  90.3 20.6 20
  90.4 15.58 15
  90.6 12.58 12
  90.7 16.39 16
  90.8 18.5 18
  90.9 16.34 16
  91.2 12.78 12
  91.3 17.48 17
  91.4 20.78 20
  91.5 20.31 20
  91.6 16.3 16
  91.8 11.34 11
  91.9 16.77 16
  92.0 24.69 24
  92.1 28.63 28
  92.2 25.21 25
  92.3 17.43 17
  92.5 12.21 12
  92.6 18.15 18
  92.7 24.44 24
  92.8 26.15 26
  92.9 22.19 22
  93.0 16.1 16
  93.8 10.62 10
  93.9 19.07 19
  94.0 24.52 24
  94.1 21.97 21
  94.2 14.49 14
  94.4 12.01 11
  94.5 18.8 18
  94.6 23.87 23
  94.7 23.2 23
  94.8 17.71 17
  95.0 11.02 11
  95.1 14.49 14
  95.2 19.12 19
  95.3 21.17 21
  95.4 19.66 19
  95.5 16.44 16
  95.7 14.24 14
  95.8 16.52 16
  95.9 19.14 19
  96.0 19.37 19
  96.1 16.07 16
  96.3 11.54 11
  96.4 16.54 16
  96.5 23.6 23
  96.6 26.89 26
  96.7 23.38 23
  96.8 15.92 15
  97.0 12.16 12
  97.1 17.46 17
  97.2 21.42 21
  97.3 21.12 21
  97.4 17.93 17
  97.6 14.69 14
  97.7 17.41 17
  97.8 22.14 22
  97.9 26.03 26
  98.0 25.93 25
  98.1 21.45 21
  98.9 10.35 10
  99.0 14.96 14
  99.1 20.48 20
  99.2 22.26 22
  99.3 18.95 18
  99.5 12.26 12
  99.6 16.3 16
  99.7 22.34 22
  99.8 23.95 23
  99.9 18.65 18
  100.0 10.85 10
  100.2 10.45 10
  100.3 16.74 16
  100.4 21.12 21
  100.5 21.2 21
  100.6 18.35 18
  100.8 15.92 15
  100.9 18.62 18
  101.0 21.5 21
  101.1 21.94 21
  101.2 19.12 19
  101.3 14.88 14
  101.5 12.95 12
  101.6 15.7 15
  101.7 17.73 17
  102.0 14.59 14
  102.1 17.68 17
  102.2 22.86 22
  102.3 25.98 25
  102.4 24.47 24
  102.5 19.54 19
  102.7 13.92 13
  102.8 16.67 16
  102.9 20.51 20
  103.0 21.89 21
  103.1 19.47 19
  103.3 13.37 13
  103.4 16.15 16
  103.5 22.31 22
  103.6 27.04 27
  103.7 25.9 25
  103.8 19.02 19
  103.9 11.22 11
  104.1 9.98 9
  104.2 14.74 14
  104.3 17.61 17
  104.4 16.34 16
  104.7 12.68 12
  104.8 17.88 17
  104.9 21.87 21
  105.0 21.27 21
  105.1 16.99 16
  105.3 14.24 14
  105.4 19.32 19
  105.5 23.77 23
  105.6 22.88 22
  105.7 16.86 16
  105.9 9.98 9
  106.0 14.46 14
  106.1 20.53 20
  106.2 23.25 23
  106.3 20.41 20
  106.4 14.61 14
  106.6 13.55 13
  106.7 18.8 18
  106.8 21.82 21
  106.9 19.96 19
  107.2 13.89 13
  107.3 19.12 19
  107.4 24.05 24
  107.5 24.64 24
  107.6 20.83 20
  107.8 16.34 16
  107.9 20.08 20
  108.0 24.2 24
  108.1 24.59 24
  108.2 20.13 20
  108.3 14.12 14
  108.5 13.37 13
  108.6 18.35 18
  108.7 22.16 22
  108.8 22.09 22
  108.9 18.4 18
  109.1 13.6 13
  109.2 17.56 17
  109.3 22.76 22
  109.4 24.52 24
  109.5 21.67 21
  109.6 16.99 16
  109.8 13.89 13
  109.9 16.79 16
  110.0 20.63 20
  110.1 22.14 22
  110.2 19.17 19
  111.0 10.3 10
  111.1 14.83 14
  111.2 21.77 21
  111.3 25.38 25
  111.4 23.7 23
  111.5 18.99 18
  111.7 15.28 15
  111.8 18.67 18
  111.9 21.72 21
  112.0 20.8 20
  112.3 15.85 15
  112.4 22.14 22
  112.5 27.14 27
  112.6 25.9 25
  112.7 18.85 18
  112.9 11.32 11
  113.0 18.35 18
  113.1 26.99 26
  113.2 29.84 29
  113.3 25.16 25
  113.4 18.42 18
  114.2 17.09 17
  114.3 18.28 18
  114.4 19.07 19
  114.5 19.61 19
  114.6 19.14 19
  114.7 16.59 16
  115.5 10.45 10
  115.6 14.91 14
  115.7 22.26 22
  115.8 26.03 26
  115.9 22.76 22
  116.8 8.54 8
  116.9 15.01 14
  117.0 21.62 21
  117.1 22.66 22
  117.2 17.31 17
  117.4 8.12 8
  117.5 12.48 12
  117.6 19.89 19
  117.7 24.69 24
  117.8 24.27 24
  117.9 20.41 20
  118.7 11.47 11
  118.8 16.0 15
  118.9 21.07 21
  119.0 22.41 22
  119.1 19.02 19
  119.4 13.79 13
  119.5 18.75 18
  119.6 22.39 22
  119.7 22.04 22
  119.8 18.0 17
  120.0 11.76 11
  120.1 14.83 14
  120.2 19.19 19
  120.3 19.89 19
  120.4 15.82 15
  120.6 10.77 10
  120.7 15.63 15
  120.8 21.59 21
  120.9 23.5 23
  121.0 19.81 19
  121.1 13.52 13
  121.3 11.59 11
  121.4 18.08 18
  121.5 24.69 24
  121.6 26.57 26
  121.7 22.36 22
  121.8 15.45 15
  122.0 12.9 12
  122.1 18.05 18
  122.2 21.5 21
  122.3 19.99 19
  122.5 14.56 14
  122.6 18.18 18
  122.7 23.58 23
  122.8 25.8 25
  122.9 22.88 22
  123.0 17.06 17
  123.2 13.0 12
  123.3 17.53 17
  123.4 22.91 22
  123.5 25.01 24
  123.6 22.11 22
  123.7 16.39 16
  123.9 13.67 13
  124.0 17.61 17
  124.1 19.91 19
  124.2 18.08 18
  125.1 7.58 7
  125.2 12.51 12
  125.3 18.67 18
  125.4 21.84 21
  125.5 20.36 20
  125.6 16.59 16
  125.8 14.98 14
  125.9 18.33 18
  126.0 21.15 21
  126.1 21.0 20
  126.2 18.35 18
  126.4 16.12 16
  126.5 19.34 19
  126.6 22.54 22
  126.7 22.31 22
  126.8 18.3 18
  127.1 13.97 13
  127.2 18.33 18
  127.3 20.63 20
  127.4 19.29 19
  128.3 11.32 11
  128.4 17.81 17
  128.5 24.24 24
  128.6 25.31 25
  128.7 21.12 21
  128.8 16.22 16
  129.0 14.78 14
  129.1 16.79 16
  129.2 18.57 18
  129.3 18.7 18
  129.6 15.45 15
  129.7 19.76 19
  129.8 23.53 23
  129.9 22.14 22
  130.0 15.38 15
  130.2 6.86 6
  130.3 13.3 13
  130.4 22.88 22
  130.5 28.28 28
  130.6 25.8 25
  130.7 17.86 17
  131.0 11.47 11
  131.1 16.44 16
  131.2 19.24 19
  131.5 16.22 16
  131.6 19.69 19
  131.7 24.52 24
  131.8 26.28 26
  131.9 22.83 22
  132.0 16.2 16
  132.2 10.72 10
  132.3 15.97 15
  132.4 22.59 22
  132.5 25.31 25
  132.6 22.07 22
  132.7 16.0 15
  132.9 15.13 15
  133.0 20.33 20
  133.1 23.06 23
  133.2 20.78 20
  133.4 15.33 15
  133.5 18.62 18
  133.6 23.11 23
  133.7 24.42 24
  133.8 21.4 21
  133.9 16.1 16
  134.1 10.67 10
  134.2 13.35 13
  134.3 17.21 17
  134.4 18.6 18
  134.5 16.22 16
  134.7 12.7 12
  134.8 16.54 16
  134.9 20.95 20
  135.0 22.02 21
  135.1 18.8 18
  135.4 12.36 12
  135.5 18.13 18
  135.6 23.77 23
  135.7 24.22 24
  135.8 18.72 18
  136.0 11.96 11
  136.1 17.76 17
  136.2 25.11 25
  136.3 27.74 27
  136.4 23.35 23
  136.5 15.53 15
  136.7 12.31 12
  136.8 18.3 18
  136.9 22.93 22
  137.0 22.14 22
  137.1 17.06 17
  137.3 13.79 13
  137.4 18.15 18
  137.5 21.15 21
  137.6 19.51 19
  137.7 14.56 14
  137.9 11.07 11
  138.0 15.73 15
  138.1 21.42 21
  138.2 24.22 24
  138.3 22.21 22
  138.4 17.31 17
  138.6 14.76 14
  138.7 19.04 19
  138.8 22.54 22
  138.9 21.99 21
  139.2 17.58 17
  139.3 21.99 21
  139.4 24.84 24
  139.5 23.2 23
  139.6 18.4 18
  139.8 13.74 13
  139.9 16.91 16
  140.0 21.45 21
  140.1 23.7 23
  140.2 21.35 21
  140.3 15.92 15
  140.5 12.65 12
  140.6 17.73 17
  140.7 23.28 23
  140.8 24.91 24
  140.9 21.12 21
  141.0 15.28 15
  141.7 13.97 13
  141.8 18.08 18
  141.9 22.36 22
  142.0 23.16 23
  142.1 19.96 19
  142.3 15.08 15
  142.4 18.13 18
  142.5 22.11 22
  142.6 23.3 23
  142.7 20.23 20
  142.8 14.61 14
  143.0 9.86 9
  143.1 14.83 14
  143.2 21.64 21
  143.3 25.04 25
  143.4 22.96 22
  143.5 18.3 18
  143.7 15.92 15
  143.8 18.52 18
  143.9 21.03 21
  144.0 21.72 21
  144.1 19.99 19
  144.3 16.32 16
  144.4 18.87 18
  144.5 22.61 22
  144.6 23.06 23
  144.7 18.57 18
  145.0 13.1 13
  145.1 19.04 19
  145.2 23.33 23
  145.3 22.73 22
  145.4 17.73 17
  145.6 11.54 11
  145.7 15.38 15
  145.8 19.47 19
  145.9 19.81 19
  146.2 17.16 17
  146.3 19.44 19
  146.4 21.25 21
  146.5 22.21 22
  146.6 21.4 21
  146.7 17.88 17
  146.9 12.8 12
  147.0 16.44 16
  147.1 20.16 20
  147.2 19.32 19
  147.3 14.12 14
  147.5 8.49 8
  147.6 13.2 13
  147.7 19.32 19
  147.8 21.55 21
  147.9 18.03 18
  148.1 10.55 10
  148.2 13.99 13
  148.3 20.01 19
  148.4 23.6 23
  148.5 21.59 21
  148.6 15.73 15
  148.8 12.73 12
  148.9 18.25 18
  149.0 23.06 23
  149.1 23.8 23
  149.2 20.83 20
  149.3 16.94 16
  149.5 14.64 14
  149.6 16.74 16
  149.7 19.19 19
  149.8 20.08 20
  149.9 18.72 18
  150.1 16.42 16
  150.2 18.52 18
  150.3 20.41 20
  150.4 19.47 19
  150.5 15.75 15
  150.7 12.31 12
  150.8 15.82 15
  150.9 19.89 19
  151.0 20.55 20
  151.1 17.09 17
  151.3 12.75 12
  151.4 16.12 16
  151.5 19.99 19
  151.6 21.3 21
  151.7 19.29 19
  151.8 15.4 15
  152.0 11.99 11
  152.1 14.51 14
  152.2 17.78 17
  152.3 19.17 19
  152.4 17.34 17
  153.2 9.88 9
  153.3 15.58 15
  153.4 23.16 23
  153.5 27.41 27
  153.6 26.2 26
  153.7 20.95 20
  153.8 14.86 14
  154.0 12.61 12
  154.1 16.82 16
  154.2 20.18 20
  154.3 20.58 20
  154.4 19.32 19
  154.5 18.72 18
  154.6 20.23 20
  154.7 23.28 23
  154.8 25.21 25
  154.9 23.08 23
  155.0 17.63 17
  155.2 14.46 14
  155.3 18.8 18
  155.4 21.55 21
  155.5 19.32 19
  155.6 13.3 13
  155.8 8.96 8
  155.9 15.8 15
  156.0 23.2 23
  156.1 24.1 24
  156.2 17.63 17
  157.1 13.82 13
  157.2 18.7 18
  157.3 21.12 21
  157.4 18.42 18
  157.5 12.93 12
  157.7 10.82 10
  157.8 16.52 16
  157.9 22.78 22
  158.0 25.53 25
  158.1 23.18 23
  158.2 17.68 17
  158.4 14.29 14
  158.5 20.11 20
  158.6 26.28 26
  158.7 26.94 26
  158.8 20.65 20
  158.9 12.11 12
  159.1 11.14 11
  159.2 17.34 17
  159.3 20.7 20
  159.4 18.82 18
  159.7 13.15 13
  159.8 18.67 18
  159.9 24.07 24
  160.0 25.41 25
  160.1 21.97 21
  160.2 16.64 16
  160.9 6.09 6
  161.0 11.19 11
  161.1 20.06 20
  161.2 25.73 25
  161.3 23.95 23
  161.4 16.22 16
  161.6 6.34 6
  161.7 11.99 11
  161.8 20.73 20
  161.9 25.61 25
  162.0 23.7 23
  162.1 18.0 17
  162.8 12.98 12
  162.9 15.01 14
  163.0 21.55 21
  163.1 27.29 27
  163.2 26.52 26
  163.3 19.27 19
  163.5 9.78 9
  163.6 15.11 15
  163.7 21.99 21
  163.8 23.92 23
  163.9 19.69 19
  164.2 14.96 14
  164.3 20.03 20
  164.4 23.28 23
  164.5 22.11 22
  164.6 17.51 17
  164.8 14.36 14
  164.9 19.37 19
  165.0 23.75 23
  165.1 22.93 22
  165.2 17.19 17
  165.4 10.18 10
  165.5 13.92 13
  165.6 18.65 18
  165.7 20.18 20
  165.8 17.66 17
  166.0 13.0 12
  166.1 16.2 16
  166.2 20.7 20
  166.3 21.87 21
  166.4 17.34 17
  166.5 9.68 9
  166.7 7.5 7
  166.8 16.59 16
  166.9 25.73 25
  167.0 28.11 28
  167.1 22.63 22
  167.2 15.13 15
  168.0 13.03 13
  168.1 17.98 17
  168.2 23.06 23
  168.3 24.1 24
  168.4 19.32 19
  168.7 11.66 11
  168.8 20.16 20
  168.9 25.41 25
  169.0 23.13 23
  169.1 16.77 16
  169.3 13.5 13
  169.4 17.71 17
  169.5 21.12 21
  169.6 20.7 20
  169.7 16.69 16
  169.9 12.65 12
  170.0 17.01 16
  170.1 21.94 21
  170.2 23.13 23
  170.3 19.24 19
  170.6 12.43 12
  170.7 18.15 18
  170.8 22.14 22
  170.9 21.3 21
  171.0 16.72 16
  171.2 11.99 11
  171.3 15.73 15
  171.4 20.33 20
  171.5 21.59 21
  171.6 18.47 18
  171.9 14.41 14
  172.0 19.04 19
  172.1 21.59 21
  172.2 19.69 19
  172.3 15.11 15
  172.5 13.1 13
  172.6 17.01 16
  172.7 20.85 20
  172.8 21.59 21
  172.9 18.28 18
  173.1 11.39 11
  173.2 14.21 14
  173.3 19.71 19
  173.4 23.45 23
  173.5 22.86 22
  173.6 18.67 18
  173.8 13.08 13
  173.9 16.52 16
  174.0 21.69 21
  174.1 23.53 23
  174.2 19.74 19
  174.4 12.51 12
  174.5 16.62 16
  174.6 22.73 22
  174.7 25.71 25
  174.8 23.3 23
  174.9 17.61 17
  175.1 14.96 14
  175.2 20.88 20
  175.3 26.18 26
  175.4 25.83 25
  175.5 19.96 19
  175.7 12.46 12
  175.8 16.34 16
  175.9 20.78 20
  176.0 21.25 21
  176.1 17.88 17
  176.4 14.93 14
  176.5 17.06 17
  176.6 18.05 18
  176.9 16.05 16
  177.0 17.31 17
  177.1 19.42 19
  177.2 20.38 20
  177.3 19.22 19
  177.5 16.0 15
  177.6 17.66 17
  177.7 21.42 21
  177.8 24.59 24
  177.9 24.05 24
  178.0 19.07 19
  178.3 13.42 13
  178.4 19.94 19
  178.5 24.07 24
  178.6 22.26 22
  178.7 15.97 15
  178.9 11.49 11
  179.0 17.95 17
  179.1 25.09 25
  179.2 27.37 27
  179.3 23.45 23
  179.4 16.77 16
  179.6 12.41 12
  179.7 16.37 16
  179.8 20.06 20
  179.9 19.86 19
  180.2 14.12 14
  180.3 20.41 20
  180.4 25.93 25
  180.5 26.15 26
  180.6 21.64 21
  181.4 11.99 11
  181.5 14.91 14
  181.6 18.75 18
  181.7 20.95 20
  181.8 20.33 20
  181.9 17.24 17
  182.1 12.38 12
  182.2 14.78 14
  182.3 18.9 18
  182.4 20.48 20
  182.5 17.76 17
  182.7 13.08 13
  182.8 17.24 17
  182.9 22.54 22
  183.0 24.47 24
  183.1 21.45 21
  183.2 15.82 15
  183.4 12.61 12
  183.5 16.39 16
  183.6 18.87 18
  183.7 17.31 17
  183.9 11.71 11
  184.0 13.94 13
  184.1 19.27 19
  184.2 24.49 24
  184.3 26.32 26
  184.4 23.18 23
  185.3 14.78 14
  185.4 18.28 18
  185.5 20.9 20
  185.6 20.23 20
  185.9 15.58 15
  186.0 20.13 20
  186.1 24.29 24
  186.2 23.92 23
  186.3 18.72 18
  187.1 16.02 16
  187.2 18.87 18
  187.3 23.35 23
  187.4 25.76 25
  187.5 23.63 23
  187.6 18.18 18
  187.8 13.03 13
  187.9 17.63 17
  188.0 23.23 23
  188.1 24.52 24
  188.2 20.33 20
  188.3 14.59 14
  188.5 12.83 12
  188.6 15.75 15
  188.7 18.45 18
  188.8 19.76 19
  189.1 17.73 17
  189.2 20.58 20
  189.3 23.58 23
  189.4 22.83 22
  189.5 17.98 17
  189.7 12.13 12
  189.8 15.55 15
  189.9 20.11 20
  190.0 22.24 22
  190.1 20.8 20
  190.4 16.34 16
  190.5 20.78 20
  190.6 25.56 25
  190.7 26.6 26
  190.8 22.51 22
  191.7 15.43 15
  191.8 20.38 20
  191.9 25.46 25
  192.0 26.47 26
  192.1 22.21 22
  192.2 15.9 15
  192.9 12.33 12
  193.0 16.49 16
  193.1 22.02 21
  193.2 24.07 24
  193.3 21.15 21
  193.4 15.6 15
  193.6 11.34 11
  193.7 16.34 16
  193.8 23.01 22
  193.9 25.9 25
  194.0 22.51 22
  194.1 16.22 16
  194.3 14.29 14
  194.4 17.41 17
  194.5 18.6 18
  194.6 17.26 17
  194.9 15.13 15
  195.0 18.05 18
  195.1 20.75 20
  195.2 20.63 20
  195.3 17.61 17
  195.5 14.31 14
  195.6 17.56 17
  195.7 21.62 21
  195.8 23.53 23
  195.9 21.94 21
  196.0 17.98 17
  196.2 15.35 15
  196.3 18.75 18
  196.4 21.0 20
  196.5 19.07 19
  196.7 12.83 12
  196.8 15.68 15
  196.9 21.42 21
  197.0 25.51 25
  197.1 24.67 24
  197.2 19.14 19
  197.3 12.38 12
  197.5 10.5 10
  197.6 15.82 15
  197.7 20.16 20
  197.8 20.43 20
  197.9 17.29 17
  198.1 13.65 13
  198.2 16.44 16
  198.3 20.43 20
  198.4 22.02 21
  198.5 19.42 19
  198.7 14.14 14
  198.8 17.58 17
  198.9 21.74 21
  199.0 21.45 21
  199.1 15.7 15
  199.3 5.75 5
  199.4 9.71 9
  199.5 17.86 17
  199.6 24.15 24
  199.7 24.27 24
  199.8 19.22 19
  200.0 13.27 13
  200.1 16.69 16
  200.2 20.55 20
  200.3 21.92 21
  200.4 20.75 20
  200.6 17.93 17
  200.7 19.86 19
  200.8 23.72 23
  200.9 25.41 25
  201.0 21.89 21
  201.3 15.45 15
  201.4 21.99 21
  201.5 27.64 27
  201.6 28.03 28
  201.7 21.84 21
  201.8 13.05 13
  202.0 12.21 12
  202.1 20.26 20
  202.2 25.61 25
  202.3 24.0 23
  202.4 17.56 17
  202.6 13.17 13
  202.7 18.15 18
  202.8 21.32 21
  202.9 18.45 18
  203.2 10.97 10
  203.3 19.17 19
  203.4 25.66 25
  203.5 25.41 25
  203.6 19.64 19
  203.8 11.81 11
  203.9 14.86 14
  204.0 20.78 20
  204.1 26.0 25
  204.2 26.77 26
  204.3 21.59 21
  205.1 11.02 11
  205.2 16.69 16
  205.3 21.25 21
  205.4 20.46 20
  205.5 16.32 16
  205.7 15.16 15
  205.8 18.72 18
  205.9 21.92 21
  206.0 23.3 23
  206.1 22.04 22
  206.2 18.1 18
  206.4 13.05 13
  206.5 16.42 16
  206.6 21.69 21
  206.7 24.84 24
  206.8 23.33 23
  206.9 18.03 18
  207.1 12.98 12
  207.2 17.86 17
  207.3 23.13 23
  207.4 23.53 23
  207.5 18.7 18
  207.7 13.22 13
  207.8 17.83 17
  207.9 22.66 22
  208.0 22.76 22
  208.1 17.93 17
  208.3 13.94 13
  208.4 19.22 19
  208.5 23.97 23
  208.6 23.92 23
  208.7 19.24 19
  209.0 13.3 13
  209.1 19.17 19
  209.2 23.68 23
  209.3 23.6 23
  209.4 19.59 19
  209.7 15.03 15
  209.8 19.51 19
  209.9 22.78 22
  210.0 21.67 21
  210.1 17.38 17
  210.3 15.7 15
  210.4 19.37 19
  210.5 21.27 21
  210.6 19.47 19
  210.7 15.43 15
  210.9 12.48 12
  211.0 16.15 16
  211.1 20.78 20
  211.2 22.59 22
  211.3 20.41 20
  212.2 12.83 12
  212.3 18.47 18
  212.4 23.11 23
  212.5 21.45 21
  212.6 14.96 14
  212.8 11.19 11
  212.9 16.2 16
  213.0 20.43 20
  213.1 20.21 20
  213.2 15.8 15
  213.4 10.85 10
  213.5 15.63 15
  213.6 21.3 21
  213.7 22.46 22
  213.8 17.88 17
  214.1 11.0 10
  214.2 16.49 16
  214.3 19.56 19
  214.4 17.51 17
  214.6 11.84 11
  214.7 15.6 15
  214.8 21.79 21
  214.9 25.8 25
  215.0 25.21 25
  215.1 20.85 20
  215.2 15.9 15
  215.4 13.52 13
  215.5 17.09 17
  215.6 21.47 21
  215.7 23.55 23
  215.8 21.89 21
  215.9 18.25 18
  216.2 16.62 16
  216.3 18.52 18
  216.4 19.76 19
  216.5 20.03 20
  216.6 20.23 20
  216.7 21.17 21
  216.8 22.19 22
  216.9 21.72 21
  217.0 19.07 19
  217.3 14.51 14
  217.4 19.54 19
  217.5 23.85 23
  217.6 23.48 23
  217.7 18.95 18
  217.9 13.47 13
  218.0 16.37 16
  218.1 19.89 19
  218.2 20.11 20
  218.3 16.0 15
  218.5 9.26 9
  218.6 13.03 13
  218.7 20.23 20
  218.8 26.32 26
  218.9 27.51 27
  219.0 23.38 23
  219.1 17.51 17
  219.8 9.76 9
  219.9 15.9 15
  220.0 22.29 22
  220.1 23.43 23
  220.2 18.5 18
  220.3 11.59 11
  220.5 10.18 10
  220.6 15.87 15
  220.7 20.43 20
  220.8 20.73 20
  220.9 17.24 17
  221.1 13.67 13
  221.2 17.19 17
  221.3 20.63 20
  221.4 20.65 20
  221.5 17.06 17
  221.8 12.13 12
  221.9 17.98 17
  222.0 23.53 23
  222.1 25.06 25
  222.2 22.59 22
  222.3 19.34 19
  223.0 13.52 13
  223.1 17.34 17
  223.2 22.98 22
  223.3 26.0 25
  223.4 23.55 23
  223.5 17.14 17
  223.7 12.13 12
  223.8 17.41 17
  223.9 22.39 22
  224.0 22.56 22
  224.1 18.2 18
  224.3 11.07 11
  224.4 14.29 14
  224.5 20.26 20
  224.6 23.85 23
  224.7 22.11 22
  224.8 17.11 17
  225.0 14.69 14
  225.1 18.3 18
  225.2 20.6 20
  225.3 19.59 19
  225.6 15.97 15
  225.7 18.67 18
  225.8 21.5 21
  225.9 22.29 22
  226.0 20.01 19
  226.3 15.23 15
  226.4 20.18 20
  226.5 24.0 23
  226.6 22.96 22
  226.7 17.9 17
  226.9 15.06 15
  227.0 20.68 20
  227.1 24.91 24
  227.2 22.78 22
  227.3 15.23 15
  227.5 7.92 7
  227.6 13.6 13
  227.7 20.18 20
  227.8 22.07 22
  227.9 17.88 17
  228.1 8.22 8
  228.2 12.01 11
  228.3 19.76 19
  228.4 25.41 25
  228.5 25.19 25
  228.6 20.18 20
  228.8 12.75 12
  228.9 16.34 16
  229.0 22.63 22
  229.1 25.93 25
  229.2 22.24 22
  229.3 13.99 13
  229.5 10.03 10
  229.6 16.86 16
  229.7 21.89 21
  229.8 20.9 20
  229.9 16.05 16
  230.1 11.96 11
  230.2 14.64 14
  230.3 17.78 17
  230.4 18.9 18
  230.7 15.6 15
  230.8 19.17 19
  230.9 22.98 22
  231.0 23.28 23
  231.1 19.19 19
  231.3 12.33 12
  231.4 15.97 15
  231.5 21.2 21
  231.6 22.88 22
  231.7 19.76 19
  231.9 14.64 14
  232.0 18.3 18
  232.1 24.02 23
  232.2 27.56 27
  232.3 26.1 26
  232.4 20.41 20
  232.7 14.46 14
  232.8 19.79 19
  232.9 22.73 22
  233.0 20.41 20
  233.1 14.81 14
  233.3 11.32 11
  233.4 16.17 16
  233.5 21.52 21
  233.6 23.13 23
  233.7 19.84 19
  233.9 14.83 14
  234.0 18.92 18
  234.1 23.2 23
  234.2 22.46 22
  234.3 16.86 16
  234.6 11.57 11
  234.7 15.8 15
  234.8 19.02 19
  234.9 19.54 19
  235.0 17.68 17
  235.3 15.33 15
  235.4 17.01 16
  235.5 17.83 17
  235.8 15.92 15
  235.9 18.35 18
  236.0 22.34 22
  236.1 24.74 24
  236.2 23.01 22
  236.3 18.18 18
  236.5 14.54 14
  236.6 18.95 18
  236.7 23.82 23
  236.8 24.72 24
  236.9 20.55 20
  237.1 13.27 13
  237.2 16.67 16
  237.3 21.79 21
  237.4 23.58 23
  237.5 19.99 19
  237.8 14.09 14
  237.9 20.01 19
  238.0 23.48 23
  238.1 20.88 20
  238.4 12.46 12
  238.5 20.38 20
  238.6 27.04 27
  238.7 27.22 27
  238.8 21.55 21
  239.6 12.93 12
  239.7 15.8 15
  239.8 20.23 20
  239.9 22.63 22
  240.0 21.12 21
  240.1 16.64 16
  240.3 12.18 12
  240.4 15.92 15
  240.5 20.31 20
  240.6 20.93 20
  240.7 16.34 16
  240.9 7.11 7
  241.0 11.02 11
  241.1 18.3 18
  241.2 22.68 22
  241.3 20.73 20
  241.4 14.19 14
  241.6 6.36 6
  241.7 10.08 10
  241.8 16.22 16
  241.9 20.85 20
  242.0 21.82 21
  242.1 20.31 20
  242.2 19.39 19
  242.3 20.88 20
  242.4 23.35 23
  242.5 23.82 23
  242.6 21.05 21
  242.9 17.31 17
  243.0 21.59 21
  243.1 24.54 24
  243.2 23.2 23
  243.3 17.78 17
  243.6 12.65 12
  243.7 16.96 16
  243.8 19.56 19
  243.9 19.07 19
  244.0 16.32 16
  244.2 13.94 13
  244.3 16.89 16
  244.4 19.81 19
  244.5 19.86 19
  244.6 17.38 17
  244.8 15.73 15
  244.9 18.35 18
  245.0 20.51 20
  245.1 19.71 19
  245.2 16.37 16
  245.4 13.84 13
  245.5 16.91 16
  245.6 20.21 20
  245.7 21.94 21
  245.8 21.72 21
  245.9 19.74 19
  246.1 16.37 16
  246.2 19.22 19
  246.3 23.82 23
  246.4 25.24 25
  246.5 20.38 20
  246.6 12.46 12
  246.8 11.57 11
  246.9 18.7 18
  247.0 22.49 22
  247.1 19.59 19
  247.3 11.42 11
  247.4 15.5 15
  247.5 22.71 22
  247.6 27.39 27
  247.7 25.61 25
  247.8 18.15 18
  248.0 9.04 9
  248.1 14.04 14
  248.2 20.08 20
  248.3 21.64 21
  248.4 18.4 18
  248.6 12.58 12
  248.7 15.33 15
  248.8 20.28 20
  248.9 23.13 23
  249.0 21.0 20
  249.3 15.75 15
  249.4 21.55 21
  249.5 24.96 24
  249.6 23.3 23
  249.7 18.7 18
  249.8 14.81 14
  250.0 14.56 14
  250.1 17.01 16
  250.2 18.97 18
  250.3 18.18 18
  250.5 12.33 12
  250.6 14.61 14
  250.7 20.85 20
  250.8 26.05 26
  250.9 26.05 26
  251.0 21.12 21
  251.9 10.87 10
  252.0 18.18 18
  252.1 24.1 24
  252.2 24.24 24
  252.3 19.86 19
  252.5 15.8 15
  252.6 19.24 19
  252.7 22.78 22
  252.8 22.78 22
  252.9 18.8 18
  253.1 14.44 14
  253.2 19.61 19
  253.3 25.38 25
  253.4 26.4 26
  253.5 21.55 21
  254.4 11.34 11
  254.5 17.73 17
  254.6 22.51 22
  254.7 21.64 21
  254.8 16.2 16
  255.0 9.56 9
  255.1 13.05 13
  255.2 18.03 18
  255.3 20.46 20
  255.4 19.29 19
  255.7 16.72 16
  255.8 20.48 20
  255.9 23.48 23
  256.0 22.63 22
  256.1 18.0 17
  256.3 12.98 12
  256.4 16.89 16
  256.5 21.47 21
  256.6 22.39 22
  256.7 18.52 18
  256.9 11.37 11
  257.0 14.78 14
  257.1 20.63 20
  257.2 24.05 24
  257.3 22.54 22
  257.4 17.56 17
  257.6 13.62 13
  257.7 18.3 18
  257.8 22.91 22
  257.9 22.59 22
  258.0 17.09 17
  258.2 9.86 9
  258.3 14.31 14
  258.4 20.6 20
  258.5 23.87 23
  258.6 22.11 22
  258.7 17.26 17
  258.9 13.6 13
  259.0 16.94 16
  259.1 19.84 19
  259.2 19.19 19
  259.5 15.38 15
  259.6 19.29 19
  259.7 21.47 21
  259.8 20.21 20
  259.9 16.54 16
  260.2 11.54 11
  260.3 16.39 16
  260.4 20.88 20
  260.5 20.43 20
  260.6 15.11 15
  260.8 8.94 8
  260.9 13.45 13
  261.0 19.71 19
  261.1 23.58 23
  261.2 22.98 22
  261.3 18.95 18
  261.5 14.83 14
  261.6 18.3 18
  261.7 21.84 21
  261.8 21.27 21
  261.9 15.95 15
  262.1 8.32 8
  262.2 12.13 12
  262.3 17.51 17
  262.4 19.56 19
  262.5 17.24 17
  262.8 12.93 12
  262.9 18.03 18
  263.0 22.14 22
  263.1 21.99 21
  263.4 17.88 17
  263.5 21.89 21
  263.6 24.05 24
  263.7 21.72 21
  263.8 15.97 15
  264.1 10.3 10
  264.2 15.16 15
  264.3 19.12 19
  264.4 19.32 19
  264.6 14.56 14
  264.7 17.06 17
  264.8 22.63 22
  264.9 25.93 25
  265.0 22.49 22
  265.1 13.67 13
  265.3 5.37 5
  265.4 11.86 11
  265.5 19.59 19
  265.6 22.39 22
  265.7 19.37 19
  265.9 15.75 15
  266.0 21.27 21
  266.1 26.47 26
  266.2 25.66 25
  266.3 18.6 18
  266.6 12.01 11
  266.7 17.98 17
  266.8 21.42 21
  266.9 20.58 20
  267.1 16.07 16
  267.2 18.13 18
  267.3 22.54 22
  267.4 25.8 25
  267.5 25.01 24
  267.6 20.55 20
  268.5 13.05 13
  268.6 17.24 17
  268.7 21.15 21
  268.8 21.17 21
  268.9 17.46 17
  269.1 13.79 13
  269.2 18.47 18
  269.3 24.29 24
  269.4 26.6 26
  269.5 23.13 23
  269.6 16.47 16
  269.8 13.69 13
  269.9 18.52 18
  270.0 21.77 21
  270.1 20.55 20
  270.2 16.12 16
  270.4 13.37 13
  270.5 18.03 18
  270.6 22.24 22
  270.7 22.11 22
  270.8 17.83 17
  271.0 10.97 10
  271.1 14.24 14
  271.2 19.99 19
  271.3 22.16 22
  271.4 17.48 17
  271.7 10.5 10
  271.8 17.63 17
  271.9 22.68 22
  272.0 23.08 23
  272.1 19.51 19
  272.3 14.56 14
  272.4 17.73 17
  272.5 21.77 21
  272.6 22.71 22
  272.7 19.37 19
  272.9 12.58 12
  273.0 16.27 16
  273.1 23.03 23
  273.2 27.46 27
  273.3 26.08 26
  273.4 20.7 20
  273.6 16.17 16
  273.7 20.53 20
  273.8 25.09 25
  273.9 25.26 25
  274.0 20.11 20
  274.8 11.39 11
  274.9 15.26 15
  275.0 21.57 21
  275.1 24.44 24
  275.2 21.2 21
  275.3 14.24 14
  275.5 8.96 8
  275.6 15.08 15
  275.7 22.11 22
  275.8 23.72 23
  275.9 18.52 18
  276.1 10.15 10
  276.2 14.24 14
  276.3 19.61 19
  276.4 21.69 21
  276.5 19.71 19
  277.4 14.19 14
  277.5 18.05 18
  277.6 22.46 22
  277.7 24.96 24
  277.8 24.17 24
  277.9 20.43 20
  278.7 15.33 15
  278.8 19.14 19
  278.9 24.86 24
  279.0 27.59 27
  279.1 24.89 24
  279.2 18.62 18
  279.4 14.56 14
  279.5 19.12 19
  279.6 22.39 22
  279.7 20.75 20
  280.0 14.36 14
  280.1 19.96 19
  280.2 24.69 24
  280.3 24.29 24
  280.4 18.35 18
  280.7 11.39 11
  280.8 19.02 19
  280.9 24.99 24
  281.0 25.66 25
  281.1 21.45 21
  281.9 15.28 15
  282.0 20.88 20
  282.1 26.18 26
  282.2 25.24 25
  282.3 17.61 17
  282.6 9.46 9
  282.7 18.0 17
  282.8 24.76 24
  282.9 25.33 25
  283.0 20.48 20
  283.2 15.38 15
  283.3 20.18 20
  283.4 24.79 24
  283.5 23.9 23
  283.6 17.95 17
  283.8 13.0 12
  283.9 18.65 18
  284.0 24.44 24
  284.1 25.41 25
  284.2 21.3 21
  284.3 15.55 15
  284.5 13.3 13
  284.6 17.93 17
  284.7 22.56 22
  284.8 23.23 23
  284.9 19.04 19
  285.1 12.26 12
  285.2 16.59 16
  285.3 23.43 23
  285.4 26.35 26
  285.5 21.15 21
  285.6 10.75 10
  285.8 5.55 5
  285.9 14.26 14
  286.0 21.94 21
  286.1 23.01 22
  286.2 18.1 18
  286.5 12.78 12
  286.6 19.07 19
  286.7 23.23 23
  286.8 21.59 21
  286.9 16.17 16
  287.6 11.74 11
  287.7 15.3 15
  287.8 20.48 20
  287.9 22.78 22
  288.0 19.89 19
  288.1 13.6 13
  288.3 10.1 10
  288.4 16.62 16
  288.5 23.01 22
  288.6 24.02 23
  288.7 19.09 19
  288.9 10.33 10
  289.0 13.97 13
  289.1 20.28 20
  289.2 23.68 23
  289.3 21.12 21
  289.4 14.64 14
  289.6 10.77 10
  289.7 16.1 16
  289.8 20.83 20
  289.9 20.95 20
  290.0 16.82 16
  290.2 10.5 10
  290.3 14.26 14
  290.4 21.4 21
  290.5 26.7 26
  290.6 25.71 25
  290.7 19.47 19
  290.9 14.78 14
  291.0 19.84 19
  291.1 23.35 23
  291.2 21.05 21
  291.3 14.34 14
  291.5 7.5 7
  291.6 12.11 12
  291.7 18.03 18
  291.8 20.38 20
  291.9 17.86 17
  292.1 11.42 11
  292.2 14.24 14
  292.3 20.23 20
  292.4 24.96 24
  292.5 24.49 24
  292.6 19.12 19
  292.8 12.68 12
  292.9 16.94 16
  293.0 21.77 21
  293.1 22.34 22
  293.2 17.46 17
  293.3 10.45 10
  293.5 7.58 7
  293.6 12.73 12
  293.7 17.76 17
  293.8 19.69 19
  293.9 18.42 18
  294.1 15.58 15
  294.2 17.68 17
  294.3 20.31 20
  294.4 20.33 20
  294.5 16.74 16
  294.7 11.34 11
  294.8 15.01 14
  294.9 20.13 20
  295.0 22.19 22
  295.1 19.71 19
  295.2 14.91 14
  295.4 12.36 12
  295.5 16.05 16
  295.6 19.32 19
  295.7 19.14 19
  295.8 15.55 15
  296.0 11.96 11
  296.1 16.94 16
  296.2 22.78 22
  296.3 23.87 23
  296.4 18.47 18
  296.6 8.62 8
  296.7 12.95 12
  296.8 20.36 20
  296.9 24.76 24
  297.0 23.11 23
  297.1 17.16 17
  297.3 11.81 11
  297.4 16.39 16
  297.5 21.4 21
  297.6 22.29 22
  297.7 18.7 18
  297.9 13.74 13
  298.0 17.43 17
  298.1 21.94 21
  298.2 22.56 22
  298.3 17.71 17
  298.5 9.04 9
  298.6 13.45 13
  298.7 20.26 20
  298.8 23.16 23
  298.9 19.81 19
  299.0 13.15 13
  299.2 7.01 7
  299.3 11.49 11
  299.4 18.55 18
  299.5 22.88 22
  299.6 21.1 21
  299.8 14.04 14
  299.9 18.3 18
  300.0 25.06 25
  300.1 28.11 28
  300.2 24.64 24
  300.3 17.36 17
  300.5 13.45 13
  300.6 19.39 19
  300.7 24.32 24
  300.8 23.85 23
  300.9 18.9 18
  301.1 13.05 13
  301.2 16.0 15
  301.3 20.16 20
  301.4 21.97 21
  301.5 20.13 20
  302.4 13.0 12
  302.5 15.92 15
  302.6 18.9 18
  302.7 19.47 19
  302.8 17.58 17
  303.0 15.87 15
  303.1 18.65 18
  303.2 21.62 21
  303.3 21.92 21
  303.4 18.42 18
  303.7 12.46 12
  303.8 17.63 17
  303.9 21.07 21
  304.0 19.99 19
  304.1 15.6 15
  304.3 13.35 13
  304.4 19.29 19
  304.5 25.95 25
  304.6 27.61 27
  304.7 22.21 22
  304.8 14.14 14
  305.0 13.5 13
  305.1 20.03 20
  305.2 23.97 23
  305.3 22.78 22
  305.4 18.7 18
  305.6 16.15 16
  305.7 18.92 18
  305.8 20.6 20
  305.9 18.82 18
  306.0 14.78 14
  306.2 13.13 13
  306.3 17.71 17
  306.4 22.63 22
  306.5 24.52 24
  306.6 22.11 22
  306.7 16.96 16
  306.9 12.65 12
  307.0 16.74 16
  307.1 21.22 21
  307.2 21.84 21
  307.3 18.2 18
  307.5 13.17 13
  307.6 16.07 16
  307.7 20.21 20
  307.8 22.31 22
  307.9 20.18 20
  308.0 14.69 14
  308.2 9.53 9
  308.3 14.41 14
  308.4 19.94 19
  308.5 21.45 21
  308.6 18.42 18
  308.8 13.25 13
  308.9 16.0 15
  309.0 20.55 20
  309.1 22.88 22
  309.2 20.65 20
  309.3 15.43 15
  309.5 13.89 13
  309.6 18.95 18
  309.7 21.87 21
  309.8 19.81 19
  309.9 15.08 15
  310.1 13.45 13
  310.2 17.76 17
  310.3 22.07 22
  310.4 23.43 23
  310.5 21.27 21
  311.3 10.38 10
  311.4 16.34 16
  311.5 24.91 24
  311.6 29.15 29
  311.7 25.95 25
  311.8 18.55 18
  312.0 11.64 11
  312.1 15.38 15
  312.2 20.43 20
  312.3 22.93 22
  312.4 21.2 21
  312.5 16.96 16
  312.7 14.74 14
  312.8 18.05 18
  312.9 20.13 20
  313.0 18.13 18
  313.1 13.03 13
  313.3 9.83 9
  313.4 16.32 16
  313.5 23.9 23
  313.6 26.92 26
  313.7 23.87 23
  314.5 12.41 12
  314.6 15.28 15
  314.7 21.3 21
  314.8 25.83 25
  314.9 25.38 25
  315.0 20.75 20
  315.2 14.86 14
  315.3 17.58 17
  315.4 21.92 21
  315.5 23.97 23
  315.6 20.83 20
  315.7 13.99 13
  315.9 10.92 10
  316.0 17.29 17
  316.1 22.66 22
  316.2 23.16 23
  316.3 19.29 19
  316.5 13.55 13
  316.6 16.52 16
  316.7 20.8 20
  316.8 22.14 22
  316.9 18.85 18
  317.7 8.25 8
  317.8 13.27 13
  317.9 22.81 22
  318.0 29.45 29
  318.1 28.11 28
  318.2 21.15 21
  319.0 13.42 13
  319.1 18.45 18
  319.2 24.05 24
  319.3 25.78 25
  319.4 22.66 22
  320.3 9.76 9
  320.4 17.09 17
  320.5 25.24 25
  320.6 27.54 27
  320.7 22.63 22
  320.8 14.86 14
  321.0 11.69 11
  321.1 18.03 18
  321.2 23.97 23
  321.3 24.81 24
  321.4 20.16 20
  321.5 13.97 13
  321.7 13.35 13
  321.8 18.3 18
  321.9 21.03 21
  322.0 17.93 17
  322.1 10.82 10
  322.3 7.9 7
  322.4 15.3 15
  322.5 21.62 21
  322.6 21.84 21
  322.7 17.09 17
  322.9 12.75 12
  323.0 16.12 16
  323.1 18.6 18
  323.2 17.61 17
  323.5 14.51 14
  323.6 18.42 18
  323.7 21.72 21
  323.8 21.97 21
  323.9 19.07 19
  324.8 11.05 11
  324.9 16.67 16
  325.0 23.33 23
  325.1 26.15 26
  325.2 22.54 22
  325.3 15.38 15
  325.5 13.1 13
  325.6 19.24 19
  325.7 23.01 22
  325.8 20.58 20
  325.9 14.61 14
  326.1 13.37 13
  326.2 18.6 18
  326.3 21.32 21
  326.4 18.92 18
  326.5 13.32 13
  326.7 8.59 8
  326.8 13.17 13
  326.9 19.69 19
  327.0 23.6 23
  327.1 21.99 21
  327.2 16.07 16
  327.4 11.42 11
  327.5 17.53 17
  327.6 23.75 23
  327.7 24.47 24
  327.8 19.61 19
  328.0 14.14 14
  328.1 17.98 17
  328.2 21.67 21
  328.3 21.5 21
  328.4 17.48 17
  328.7 12.04 12
  328.8 16.72 16
  328.9 21.35 21
  329.0 22.51 22
  329.1 19.49 19
  329.3 14.71 14
  329.4 18.05 18
  329.5 21.72 21
  329.6 21.52 21
  329.7 17.46 17
  330.6 10.85 10
  330.7 15.26 15
  330.8 21.57 21
  330.9 25.14 25
  331.0 22.93 22
  331.1 17.61 17
  331.8 12.68 12
  331.9 15.45 15
  332.0 20.18 20
  332.1 22.76 22
  332.2 20.38 20
  332.5 15.26 15
  332.6 21.4 21
  332.7 24.84 24
  332.8 21.92 21
  332.9 15.01 14
  333.1 11.07 11
  333.2 16.42 16
  333.3 21.45 21
  333.4 22.73 22
  333.5 20.23 20
  333.7 14.74 14
  333.8 17.11 17
  333.9 22.46 22
  334.0 26.62 26
  334.1 26.05 26
  334.2 21.1 21
  335.0 15.28 15
  335.1 17.95 17
  335.2 21.27 21
  335.3 23.03 23
  335.4 22.61 22
  335.5 20.43 20
  336.3 8.37 8
  336.4 13.69 13
  336.5 21.15 21
  336.6 24.32 24
  336.7 21.05 21
  336.8 14.88 14
  337.0 11.84 11
  337.1 15.26 15
  337.2 17.19 17
  337.3 15.4 15
  337.4 10.92 10
  337.6 7.33 7
  337.7 12.36 12
  337.8 18.72 18
  337.9 21.2 21
  338.0 18.18 18
  338.2 13.79 13
  338.3 18.18 18
  338.4 22.56 22
  338.5 22.41 22
  338.6 17.48 17
  338.8 10.57 10
  338.9 13.89 13
  339.0 19.07 19
  339.1 22.31 22
  339.2 21.62 21
  339.3 17.61 17
  339.5 12.41 12
  339.6 15.11 15
  339.7 18.77 18
  339.8 19.42 19
  339.9 15.63 15
  340.1 10.28 10
  340.2 15.4 15
  340.3 21.84 21
  340.4 24.02 23
  340.5 20.55 20
  340.8 13.97 13
  340.9 20.65 20
  341.0 26.57 26
  341.1 27.34 27
  341.2 22.24 22
  341.3 14.78 14
  341.5 10.25 10
  341.6 15.38 15
  341.7 20.13 20
  341.8 19.74 19
  341.9 14.66 14
  342.1 12.01 11
  342.2 18.67 18
  342.3 24.59 24
  342.4 24.64 24
  342.5 19.02 19
  343.3 11.54 11
  343.4 16.54 16
  343.5 22.49 22
  343.6 25.11 25
  343.7 23.43 23
  343.8 18.82 18
  343.9 13.6 13
  344.1 11.12 11
  344.2 14.44 14
  344.3 16.79 16
  344.4 16.02 16
  344.5 13.92 13
  344.6 14.36 14
  344.7 18.67 18
  344.8 23.75 23
  344.9 24.96 24
  345.0 20.88 20
  345.1 14.61 14
  345.3 12.56 12
  345.4 17.16 17
  345.5 20.33 20
  345.6 18.82 18
  345.7 14.04 14
  345.9 12.33 12
  346.0 17.21 17
  346.1 21.47 21
  346.2 22.41 22
  346.3 20.55 20
  346.5 17.9 17
  346.6 20.33 20
  346.7 23.68 23
  346.8 24.62 24
  346.9 21.07 21
  347.0 14.56 14
  347.2 10.48 10
  347.3 17.29 17
  347.4 25.24 25
  347.5 28.18 28
  347.6 23.6 23
  347.7 15.38 15
  347.9 13.15 13
  348.0 19.54 19
  348.1 23.25 23
  348.2 21.05 21
  348.5 15.28 15
  348.6 20.33 20
  348.7 23.6 23
  348.8 21.97 21
  348.9 16.25 16
  349.1 8.99 8
  349.2 12.68 12
  349.3 17.95 17
  349.4 20.18 20
  349.5 18.3 18
  350.4 14.91 14
  350.5 17.88 17
  350.6 20.43 20
  350.7 20.46 20
  350.8 17.71 17
  351.0 13.37 13
  351.1 16.34 16
  351.2 21.07 21
  351.3 23.5 23
  351.4 21.5 21
  351.5 16.47 16
  351.7 12.18 12
  351.8 16.49 16
  351.9 21.94 21
  352.0 23.72 23
  352.1 20.33 20
  352.3 13.32 13
  352.4 16.67 16
  352.5 21.87 21
  352.6 23.4 23
  352.7 19.09 19
  352.9 12.13 12
  353.0 17.71 17
  353.1 25.06 25
  353.2 27.66 27
  353.3 23.33 23
  353.4 15.78 15
  353.6 10.65 10
  353.7 14.09 14
  353.8 16.74 16
  353.9 16.2 16
  354.2 12.75 12
  354.3 16.79 16
  354.4 22.39 22
  354.5 25.36 25
  354.6 22.41 22
  354.7 15.53 15
  354.9 11.81 11
  355.0 17.36 17
  355.1 22.19 22
  355.2 22.29 22
  355.3 17.86 17
  355.5 12.18 12
  355.6 16.49 16
  355.7 22.54 22
  355.8 25.01 24
  355.9 21.37 21
  356.1 12.58 12
  356.2 16.69 16
  356.3 23.18 23
  356.4 25.76 25
  356.5 22.29 22
  356.6 16.27 16
  356.8 15.28 15
  356.9 20.63 20
  357.0 24.32 24
  357.1 22.91 22
  357.2 17.06 17
  357.4 9.71 9
  357.5 13.84 13
  357.6 19.24 19
  357.7 20.51 20
  357.8 16.67 16
  358.0 10.35 10
  358.1 14.12 14
  358.2 20.6 20
  358.3 25.48 25
  358.4 25.66 25
  358.5 22.04 22
  359.3 11.29 11
  359.4 14.24 14
  359.5 17.98 17
  359.6 20.06 20
  359.7 20.08 20
  360.6 14.98 14
  360.7 18.95 18
  360.8 22.71 22
  360.9 22.83 22
  361.0 18.4 18
  361.1 11.96 11
  361.3 10.57 10
  361.4 17.09 17
  361.5 22.71 22
  361.6 23.43 23
  361.7 19.79 19
  361.9 16.17 16
  362.0 20.83 20
  362.1 26.72 26
  362.2 28.7 28
  362.3 24.2 24
  362.4 16.47 16
  362.6 15.3 15
  362.7 21.82 21
  362.8 25.38 25
  362.9 23.18 23
  363.0 17.68 17
  363.2 13.27 13
  363.3 16.49 16
  363.4 20.43 20
  363.5 21.99 21
  363.6 19.64 19
  363.9 14.96 14
  364.0 20.36 20
  364.1 24.12 24
  364.2 23.7 23
  364.3 20.83 20
  364.4 18.42 18
  364.5 17.71 17
  364.6 18.13 18
  364.7 17.95 17
  364.8 15.73 15
  365.0 10.28 10
  365.1 12.33 12
  365.2 17.66 17
  365.3 23.3 23
  365.4 25.85 25
  365.5 23.53 23
  365.6 17.81 17
  365.8 12.41 12
  365.9 15.75 15
  366.0 19.27 19
  366.1 19.51 19
  366.2 16.3 16
  366.4 11.89 11
  366.5 15.23 15
  366.6 20.36 20
  366.7 23.7 23
  366.8 23.13 23
  366.9 19.29 19
  367.6 11.89 11
  367.7 13.92 13
  367.8 19.99 19
  367.9 25.28 25
  368.0 25.16 25
  368.1 19.74 19
  368.3 12.13 12
  368.4 16.0 15
  368.5 21.57 21
  368.6 23.35 23
  368.7 19.22 19
  368.9 10.13 10
  369.0 14.07 14
  369.1 21.17 21
  369.2 25.48 25
  369.3 23.77 23
  369.4 17.71 17
  369.6 10.82 10
  369.7 14.51 14
  369.8 19.99 19
  369.9 22.93 22
  370.0 21.42 21
  370.1 17.31 17
  370.3 14.66 14
  370.4 16.99 16
  370.5 17.81 17
  370.6 15.35 15
  370.8 10.6 10
  370.9 13.79 13
  371.0 19.59 19
  371.1 24.32 24
  371.2 25.11 25
  371.3 21.72 21
  371.4 16.59 16
  371.6 14.44 14
  371.7 18.47 18
  371.8 21.94 21
  371.9 21.84 21
  372.0 18.52 18
  372.2 15.9 15
  372.3 18.72 18
  372.4 20.9 20
  372.5 20.28 20
  372.6 17.76 17
  372.8 16.3 16
  372.9 19.37 19
  373.0 22.59 22
  373.1 22.49 22
  373.2 18.23 18
  373.4 11.17 11
  373.5 14.44 14
  373.6 19.91 19
  373.7 23.01 22
  373.8 21.05 21
  373.9 15.38 15
  374.1 10.33 10
  374.2 15.78 15
  374.3 22.83 22
  374.4 26.13 26
  374.5 23.03 23
  374.6 16.32 16
  374.8 12.8 12
  374.9 18.18 18
  375.0 22.44 22
  375.1 21.3 21
  375.2 15.75 15
  375.4 13.0 12
  375.5 19.24 19
  375.6 23.77 23
  375.7 22.29 22
  376.6 10.9 10
  376.7 16.12 16
  376.8 21.4 21
  376.9 23.16 23
  377.0 20.46 20
  377.3 16.34 16
  377.4 21.17 21
  377.5 24.62 24
  377.6 23.72 23
  377.7 18.9 18
  377.9 12.48 12
  378.0 16.91 16
  378.1 23.5 23
  378.2 26.28 26
  378.3 22.29 22
  378.4 14.69 14
  378.6 12.65 12
  378.7 19.42 19
  378.8 23.5 23
  378.9 21.12 21
  379.0 15.35 15
  379.2 13.22 13
  379.3 17.71 17
  379.4 21.94 21
  379.5 23.13 23
  379.6 20.68 20
  380.4 12.88 12
  380.5 15.5 15
  380.6 19.86 19
  380.7 23.43 23
  380.8 23.65 23
  380.9 20.43 20
  381.7 10.85 10
  381.8 14.78 14
  381.9 22.14 22
  382.0 26.92 26
  382.1 25.63 25
  382.2 20.26 20
  382.4 15.38 15
  382.5 18.65 18
  382.6 21.72 21
  382.7 21.2 21
  382.8 17.11 17
  383.0 13.13 13
  383.1 16.37 16
  383.2 19.32 19
  383.3 18.95 18
  383.4 15.82 15
  383.6 12.7 12
  383.7 15.97 15
  383.8 20.88 20
  383.9 23.82 23
  384.0 21.77 21
  384.1 15.6 15
  384.3 10.23 10
  384.4 16.22 16
  384.5 23.77 23
  384.6 27.27 27
  384.7 24.07 24
  384.8 16.62 16
  385.0 9.68 9
  385.1 13.77 13
  385.2 18.23 18
  385.3 18.87 18
  385.6 14.71 14
  385.7 19.74 19
  385.8 24.02 23
  385.9 24.24 24
  386.0 20.33 20
  386.1 15.11 15
  386.3 12.68 12
  386.4 15.97 15
  386.5 18.85 18
  386.6 19.37 19
  386.9 17.26 17
  387.0 20.01 19
  387.1 22.04 22
  387.2 20.16 20
  387.5 13.4 13
  387.6 19.56 19
  387.7 25.38 25
  387.8 26.28 26
  387.9 21.94 21
  388.0 16.1 16
  388.2 14.78 14
  388.3 19.04 19
  388.4 21.74 21
  388.5 19.51 19
  388.6 13.37 13
  388.8 9.51 9
  388.9 15.63 15
  389.0 21.87 21
  389.1 23.72 23
  389.2 19.91 19
  389.3 13.32 13
  389.5 11.24 11
  389.6 17.78 17
  389.7 22.76 22
  389.8 21.69 21
  389.9 16.1 16
  390.1 12.85 12
  390.2 17.19 17
  390.3 20.11 20
  390.4 19.47 19
  390.7 16.84 16
  390.8 19.07 19
  390.9 21.05 21
  391.0 21.27 21
  391.1 18.99 18
  391.4 13.67 13
  391.5 18.77 18
  391.6 23.97 23
  391.7 24.81 24
  391.8 20.53 20
  392.1 15.5 15
  392.2 20.98 20
  392.3 23.87 23
  392.4 21.74 21
  392.5 16.91 16
  392.7 15.65 15
  392.8 19.76 19
  392.9 22.21 22
  393.0 20.73 20
  393.3 15.85 15
  393.4 20.33 20
  393.5 23.58 23
  393.6 22.54 22
  393.7 18.3 18
  393.9 14.51 14
  394.0 17.19 17
  394.1 19.94 19
  394.2 19.71 19
  394.3 15.95 15
  394.5 9.51 9
  394.6 12.33 12
  394.7 17.41 17
  394.8 20.75 20
  394.9 20.06 20
  395.0 16.17 16
  395.2 11.14 11
  395.3 14.61 14
  395.4 19.71 19
  395.5 21.32 21
  395.6 17.73 17
  395.8 11.52 11
  395.9 15.38 15
  396.0 20.58 20
  396.1 22.21 22
  396.2 18.97 18
  396.5 14.88 14
  396.6 18.18 18
  396.7 19.89 19
  396.8 18.57 18
  396.9 14.74 14
  397.1 10.5 10
  397.2 14.93 14
  397.3 21.22 21
  397.4 24.96 24
  397.5 23.8 23
  397.6 19.09 19
  398.3 9.66 9
  398.4 12.98 12
  398.5 19.32 19
  398.6 23.87 23
  398.7 23.43 23
  398.8 18.45 18
  399.0 11.07 11
  399.1 14.96 14
  399.2 20.36 20
  399.3 21.82 21
  399.4 17.48 17
  399.5 10.65 10
  399.7 7.85 7
  399.8 15.16 15
  399.9 23.63 23
  400.0 26.97 26
  400.1 22.73 22
  400.2 15.55 15
  400.4 14.88 14
  400.5 19.96 19
  400.6 22.26 22
  400.7 19.84 19
  400.8 15.11 15
  401.0 13.65 13
  401.1 17.88 17
  401.2 21.15 21
  401.3 20.41 20
  401.6 15.43 15
  401.7 20.93 20
  401.8 24.62 24
  401.9 22.29 22
  402.0 15.28 15
  402.2 8.69 8
  402.3 13.72 13
  402.4 19.44 19
  402.5 21.05 21
  402.6 17.86 17
  402.8 13.0 12
  402.9 16.84 16
  403.0 22.02 21
  403.1 24.81 24
  403.2 23.85 23
  403.3 20.38 20
  404.7 8.15 8
  404.8 10.53 10
  404.9 17.04 17
  405.0 24.32 24
  405.1 27.24 27
  405.2 24.1 24
  405.3 18.3 18
  406.1 9.76 9
  406.2 16.15 16
  406.3 23.2 23
  406.4 25.98 25
  406.5 22.68 22
  406.6 16.47 16
  406.8 14.59 14
  406.9 19.61 19
  407.0 22.66 22
  407.1 20.73 20
  407.4 15.48 15
  407.5 21.25 21
  407.6 25.85 25
  407.7 25.06 25
  407.8 18.85 18
  408.0 10.43 10
  408.1 14.81 14
  408.2 21.05 21
  408.3 23.72 23
  408.4 20.83 20
  408.6 12.48 12
  408.7 15.78 15
  408.8 22.24 22
  408.9 25.21 25
  409.0 21.07 21
  409.1 13.5 13
  409.3 11.91 11
  409.4 18.95 18
  409.5 24.22 24
  409.6 23.38 23
  409.7 17.63 17
  409.9 13.22 13
  410.0 18.65 18
  410.1 24.02 23
  410.2 25.19 25
  410.3 21.84 21
  410.4 17.14 17
  410.6 15.9 15
  410.7 19.24 19
  410.8 21.64 21
  410.9 21.03 21
  411.0 17.61 17
  411.3 13.84 13
  411.4 18.62 18
  411.5 21.97 21
  411.6 20.03 20
  411.7 14.07 14
  411.9 11.76 11
  412.0 18.25 18
  412.1 23.2 23
  412.2 21.94 21
  412.3 15.65 15
  412.5 10.9 10
  412.6 15.92 15
  412.7 19.56 19
  412.8 18.08 18
  413.0 11.71 11
  413.1 15.08 15
  413.2 21.69 21
  413.3 26.89 26
  413.4 26.92 26
  413.5 21.45 21
  413.6 14.19 14
  413.8 13.1 13
  413.9 19.32 19
  414.0 24.29 24
  414.1 24.94 24
  414.2 21.03 21
  414.5 15.26 15
  414.6 21.82 21
  414.7 25.56 25
  414.8 22.78 22
  414.9 16.57 16
  415.1 15.6 15
  415.2 20.88 20
  415.3 24.1 24
  415.4 22.63 22
  415.5 18.1 18
  415.7 15.7 15
  415.8 19.42 19
  415.9 21.84 21
  416.0 20.01 19
  416.1 14.78 14
  416.3 8.72 8
  416.4 12.63 12
  416.5 18.03 18
  416.6 19.96 19
  416.7 16.99 16
  416.9 11.24 11
  417.0 14.12 14
  417.1 18.67 18
  417.2 21.37 21
  417.3 20.65 20
  417.4 17.56 17
  417.6 15.13 15
  417.7 18.03 18
  417.8 21.4 21
  417.9 21.87 21
  418.0 17.86 17
  418.3 11.99 11
  418.4 19.09 19
  418.5 23.55 23
  418.6 21.22 21
  418.9 14.36 14
  419.0 20.73 20
  419.1 23.95 23
  419.2 21.15 21
  419.3 15.3 15
  419.5 12.41 12
  419.6 17.71 17
  419.7 23.16 23
  419.8 24.24 24
  419.9 19.96 19
  420.1 12.18 12
  420.2 15.95 15
  420.3 22.29 22
  420.4 25.83 25
  420.5 23.4 23
  420.6 17.01 16
  420.8 11.02 11
  420.9 14.64 14
  421.0 19.12 19
  421.1 21.22 21
  421.2 20.18 20
  421.4 16.96 16
  421.5 18.87 18
  421.6 22.41 22
  421.7 24.89 24
  421.8 24.2 24
  421.9 20.41 20
  422.7 10.9 10
  422.8 14.59 14
  422.9 19.32 19
  423.0 21.3 21
  423.1 19.32 19
  423.4 15.28 15
  423.5 19.94 19
  423.6 23.25 23
  423.7 22.26 22
  424.7 14.51 14
  424.8 16.27 16
  424.9 19.66 19
  425.0 21.32 21
  425.1 18.99 18
  425.3 14.21 14
  425.4 17.51 17
  425.5 21.25 21
  425.6 21.3 21
  425.7 17.38 17
  426.6 14.98 14
  426.7 18.35 18
  426.8 22.24 22
  426.9 22.54 22
  427.0 18.13 18
  427.2 10.7 10
  427.3 14.09 14
  427.4 20.16 20
  427.5 24.49 24
  427.6 24.1 24
  427.7 19.94 19
  427.9 17.71 17
  428.0 22.19 22
  428.1 24.74 24
  428.2 21.59 21
  428.3 14.59 14
  428.5 11.17 11
  428.6 18.23 18
  428.7 24.74 24
  428.8 25.01 24
  428.9 19.27 19
  429.1 12.98 12
  429.2 17.88 17
  429.3 22.71 22
  429.4 21.89 21
  429.5 15.16 15
  429.7 7.92 7
  429.8 15.01 14
  429.9 23.95 23
  430.0 28.06 28
  430.1 25.31 25
  430.2 19.07 19
  430.4 13.97 13
  430.5 17.48 17
  430.6 21.77 21
  430.7 22.91 22
  430.8 19.39 19
  431.1 13.65 13
  431.2 18.85 18
  431.3 21.62 21
  431.4 19.42 19
  431.5 14.07 14
  431.7 12.01 11
  431.8 17.76 17
  431.9 22.86 22
  432.0 22.98 22
  432.1 17.81 17
  432.4 11.39 11
  432.5 17.98 17
  432.6 22.19 22
  432.7 20.93 20
  432.8 16.54 16
  433.0 15.33 15
  433.1 19.66 19
  433.2 23.23 23
  433.3 23.03 23
  433.4 18.87 18
  433.6 14.17 14
  433.7 19.32 19
  433.8 25.51 25
  433.9 27.17 27
  434.0 23.13 23
  434.9 14.12 14
  435.0 19.02 19
  435.1 22.66 22
  435.2 21.1 21
  435.3 15.16 15
  435.5 9.39 9
  435.6 14.36 14
  435.7 20.08 20
  435.8 21.82 21
  435.9 18.8 18
  436.1 12.38 12
  436.2 15.28 15
  436.3 21.03 21
  436.4 25.26 25
  436.5 24.17 24
  436.6 18.38 18
  436.8 11.91 11
  436.9 16.17 16
  437.0 21.47 21
  437.1 23.43 23
  437.2 21.12 21
  437.3 16.82 16
  437.5 14.93 14
  437.6 19.22 19
  437.7 23.03 23
  437.8 22.51 22
  437.9 18.05 18
  438.1 14.36 14
  438.2 19.42 19
  438.3 24.39 24
  438.4 24.24 24
  438.5 18.65 18
  438.7 11.52 11
  438.8 15.33 15
  438.9 20.03 20
  439.0 21.42 21
  439.1 18.65 18
  439.4 13.5 13
  439.5 18.9 18
  439.6 23.11 23
  439.7 22.63 22
  439.8 18.2 18
  440.0 13.05 13
  440.1 16.54 16
  440.2 21.25 21
  440.3 22.98 22
  440.4 19.81 19
  440.5 14.31 14
  440.7 12.73 12
  440.8 16.77 16
  440.9 18.95 18
  441.0 17.06 17
  441.3 12.58 12
  441.4 18.23 18
  441.5 23.3 23
  441.6 23.68 23
  441.7 19.09 19
  441.9 12.8 12
  442.0 16.86 16
  442.1 22.36 22
  442.2 24.59 24
  442.3 21.72 21
  442.4 16.05 16
  442.6 13.37 13
  442.7 18.77 18
  442.8 24.2 24
  442.9 25.26 25
  443.0 20.93 20
  443.1 14.29 14
  443.3 12.78 12
  443.4 18.15 18
  443.5 21.55 21
  443.6 20.38 20
  443.8 16.07 16
  443.9 19.17 19
  444.0 23.9 23
  444.1 26.28 26
  444.2 24.37 24
  444.3 19.84 19
  444.5 16.37 16
  444.6 18.9 18
  444.7 21.07 21
  444.8 20.65 20
  444.9 17.41 17
  445.1 12.83 12
  445.2 16.37 16
  445.3 21.42 21
  445.4 23.38 23
  445.5 20.38 20
  445.6 15.08 15
  445.8 12.85 12
  445.9 17.09 17
  446.0 20.03 20
  446.1 18.1 18
  446.3 9.98 9
  446.4 13.15 13
  446.5 20.18 20
  446.6 25.43 25
  446.7 25.28 25
  446.8 20.43 20
  447.0 12.53 12
  447.1 15.7 15
  447.2 22.02 21
  447.3 25.9 25
  447.4 23.33 23
  447.5 16.17 16
  447.7 11.37 11
  447.8 16.79 16
  447.9 21.47 21
  448.0 20.85 20
  448.1 15.18 15
  448.3 9.83 9
  448.4 15.43 15
  448.5 21.57 21
  448.6 23.8 23
  448.7 21.97 21
  449.0 18.25 18
  449.1 21.45 21
  449.2 23.38 23
  449.3 21.42 21
  449.4 16.22 16
  449.6 9.98 9
  449.7 13.45 13
  449.8 18.87 18
  449.9 21.5 21
  450.0 18.92 18
  450.3 13.87 13
  450.4 19.49 19
  450.5 22.86 22
  450.6 21.25 21
  450.7 16.77 16
  450.9 13.55 13
  451.0 16.0 15
  451.1 18.28 18
  451.2 18.87 18
  451.3 18.1 18
  451.4 17.43 17
  451.5 18.25 18
  451.6 20.73 20
  451.7 23.5 23
  451.8 24.05 24
  451.9 20.85 20
  452.0 15.97 15
  452.2 15.16 15
  452.3 18.72 18
  452.4 20.53 20
  452.5 19.29 19
  452.8 16.22 16
  452.9 18.87 18
  453.0 20.51 20
  453.1 19.19 19
  453.2 15.7 15
  453.4 12.41 12
  453.5 14.86 14
  453.6 18.33 18
  453.7 20.46 20
  453.8 19.29 19
  453.9 15.18 15
  454.1 12.73 12
  454.2 18.55 18
  454.3 23.45 23
  454.4 22.24 22
  454.5 16.15 16
  454.7 11.02 11
  454.8 15.55 15
  454.9 21.07 21
  455.0 23.8 23
  455.1 21.74 21
  455.2 16.77 16
  455.4 14.24 14
  455.5 18.25 18
  455.6 21.15 21
  455.7 20.28 20
  455.8 16.67 16
  456.0 13.52 13
  456.1 16.82 16
  456.2 20.9 20
  456.3 22.51 22
  456.4 20.21 20
  456.7 14.36 14
  456.8 19.39 19
  456.9 23.68 23
  457.0 22.61 22
  457.1 16.25 16
  457.3 10.97 10
  457.4 17.53 17
  457.5 23.53 23
  457.6 23.5 23
  457.7 17.78 17
  457.9 9.19 9
  458.0 13.25 13
  458.1 20.11 20
  458.2 23.92 23
  458.3 21.5 21
  458.4 15.35 15
  458.6 12.63 12
  458.7 17.76 17
  458.8 22.16 22
  458.9 22.76 22
  459.0 20.18 20
  459.1 17.01 16
  459.8 12.13 12
  459.9 13.67 13
  460.0 17.48 17
  460.1 20.83 20
  460.2 20.48 20
  460.3 16.34 16
  460.5 11.09 11
  460.6 14.71 14
  460.7 19.49 19
  460.8 21.07 21
  460.9 18.15 18
  461.1 12.56 12
  461.2 15.6 15
  461.3 20.46 20
  461.4 23.28 23
  461.5 22.46 22
  461.6 19.34 19
  461.8 16.86 16
  461.9 19.19 19
  462.0 21.27 21
  462.1 20.75 20
  462.2 17.63 17
  463.0 11.84 11
  463.1 16.57 16
  463.2 22.31 22
  463.3 23.77 23
  463.4 19.09 19
  463.7 11.66 11
  463.8 18.2 18
  463.9 22.39 22
  464.0 20.43 20
  464.1 14.24 14
  464.3 10.87 10
  464.4 17.09 17
  464.5 23.43 23
  464.6 25.56 25
  464.7 22.31 22
  464.8 16.25 16
  465.0 13.79 13
  465.1 19.71 19
  465.2 24.47 24
  465.3 23.8 23
  465.4 18.99 18
  465.6 14.41 14
  465.7 17.83 17
  465.8 21.59 21
  465.9 21.62 21
  466.0 16.86 16
  466.3 12.06 12
  466.4 17.26 17
  466.5 20.55 20
  466.6 20.11 20
  466.7 16.74 16
  467.5 10.15 10
  467.6 14.69 14
  467.7 21.07 21
  467.8 24.67 24
  467.9 23.01 22
  468.0 17.71 17
  468.2 13.3 13
  468.3 17.21 17
  468.4 20.85 20
  468.5 20.36 20
  468.6 16.05 16
  468.8 12.18 12
  468.9 16.42 16
  469.0 21.2 21
  469.1 22.54 22
  469.2 19.14 19
  469.5 13.13 13
  469.6 19.69 19
  469.7 24.89 24
  469.8 24.32 24
  469.9 18.62 18
  470.1 11.32 11
  470.2 15.73 15
  470.3 21.99 21
  470.4 24.54 24
  470.5 21.1 21
  470.7 12.31 12
  470.8 15.8 15
  470.9 22.61 22
  471.0 26.8 26
  471.1 24.34 24
  471.2 17.06 17
  471.4 11.44 11
  471.5 16.22 16
  471.6 20.26 20
  471.7 20.11 20
  472.0 17.09 17
  472.1 21.59 21
  472.2 24.32 24
  472.3 22.29 22
  472.4 16.67 16
  472.6 11.07 11
  472.7 14.91 14
  472.8 20.23 20
  472.9 23.23 23
  473.0 21.72 21
  473.1 17.06 17
  473.3 13.3 13
  473.4 17.43 17
  473.5 21.89 21
  473.6 22.34 22
  473.7 17.66 17
  473.8 11.07 11
  474.0 9.19 9
  474.1 13.97 13
  474.2 18.15 18
  474.3 19.39 19
  474.6 16.84 16
  474.7 20.55 20
  474.8 24.05 24
  474.9 23.65 23
  475.0 19.42 19
  475.2 14.64 14
  475.3 18.97 18
  475.4 25.58 25
  475.5 30.11 30
  475.6 29.64 29
  475.7 25.24 25
  475.8 21.22 21
  475.9 20.36 20
  476.0 20.51 20
  476.1 17.24 17
  476.2 9.63 9
  476.4 0.79 0
  476.5 5.92 5
  476.6 13.6 13
  476.7 19.14 19
  476.8 20.28 20
  476.9 17.58 17
  477.1 13.67 13
  477.2 17.43 17
  477.3 21.79 21
  477.4 21.97 21
  477.5 17.58 17
  477.7 12.56 12
  477.8 16.2 16
  477.9 20.7 20
  478.0 23.13 23
  478.1 22.41 22
  478.2 19.24 19
  479.1 12.78 12
  479.2 18.4 18
  479.3 22.11 22
  479.4 20.83 20
  479.5 15.7 15
  479.7 10.4 10
  479.8 14.14 14
  479.9 18.47 18
  480.0 20.03 20
  480.1 18.52 18
  480.3 15.18 15
  480.4 16.62 16
  480.5 20.16 20
  480.6 23.55 23
  480.7 23.8 23
  480.8 20.08 20
  480.9 15.16 15
  481.6 10.2 10
  481.7 13.6 13
  481.8 18.85 18
  481.9 21.87 21
  482.0 20.6 20
  482.1 16.57 16
  482.3 14.86 14
  482.4 19.76 19
  482.5 23.82 23
  482.6 22.73 22
  482.7 17.06 17
  482.9 13.62 13
  483.0 18.9 18
  483.1 23.01 22
  483.2 21.79 21
  483.3 16.07 16
  483.5 10.85 10
  483.6 16.84 16
  483.7 23.43 23
  483.8 24.84 24
  483.9 20.43 20
  484.0 14.56 14
  484.2 13.52 13
  484.3 18.05 18
  484.4 22.19 22
  484.5 22.61 22
  484.6 18.18 18
  484.9 11.59 11
  485.0 18.03 18
  485.1 22.49 22
  485.2 21.35 21
  485.3 16.3 16
  485.5 14.34 14
  485.6 19.59 19
  485.7 23.35 23
  485.8 22.21 22
  486.1 16.99 16
  486.2 22.63 22
  486.3 26.84 26
  486.4 26.0 25
  486.5 20.68 20
  486.6 15.01 14
  487.4 11.86 11
  487.5 18.35 18
  487.6 23.35 23
  487.7 22.24 22
  487.8 16.07 16
  488.0 10.7 10
  488.1 16.07 16
  488.2 21.4 21
  488.3 21.67 21
  488.4 17.06 17
  488.6 11.91 11
  488.7 16.17 16
  488.8 21.92 21
  488.9 24.44 24
  489.0 20.95 20
  489.1 13.57 13
  489.3 9.96 9
  489.4 16.44 16
  489.5 21.77 21
  489.6 21.45 21
  489.7 16.54 16
  489.9 12.48 12
  490.0 18.03 18
  490.1 24.05 24
  490.2 25.28 25
  490.3 20.75 20
  491.2 13.15 13
  491.3 16.96 16
  491.4 20.18 20
  491.5 20.73 20
  491.6 18.33 18
  491.8 14.54 14
  491.9 17.56 17
  492.0 21.55 21
  492.1 22.86 22
  492.2 20.73 20
  492.5 16.54 16
  492.6 19.51 19
  492.7 22.49 22
  492.8 23.13 23
  492.9 19.91 19
  493.0 14.09 14
  493.2 10.95 10
  493.3 15.68 15
  493.4 19.39 19
  493.5 18.97 18
  493.8 15.63 15
  493.9 18.6 18
  494.0 20.23 20
  494.1 19.14 19
  494.2 16.05 16
  495.0 13.65 13
  495.1 16.54 16
  495.2 21.94 21
  495.3 26.15 26
  495.4 25.76 25
  495.5 21.05 21
  495.6 15.82 15
  495.8 13.67 13
  495.9 15.58 15
  496.0 17.26 17
  496.1 18.13 18
  496.2 18.25 18
  496.3 18.03 18
  496.4 18.23 18
  496.5 19.47 19
  496.6 20.85 20
  496.7 20.23 20
  496.8 17.16 17
  497.0 15.13 15
  497.1 18.65 18
  497.2 21.5 21
  497.3 20.55 20
  497.4 16.02 16
  497.6 12.18 12
  497.7 16.91 16
  497.8 21.82 21
  497.9 22.81 22
  498.0 19.96 19
  498.8 10.67 10
  498.9 13.22 13
  499.0 20.38 20
  499.1 26.3 26
  499.2 25.68 25
  499.3 19.54 19
  499.5 14.09 14
  499.6 19.27 19
  499.7 24.52 24
  499.8 25.36 25
  499.9 21.74 21
  500.0 17.24 17
  500.2 16.0 15
  500.3 18.3 18
  500.4 20.16 20
  500.5 19.81 19
  500.8 17.06 17
  500.9 20.9 20
  501.0 23.58 23
  501.1 23.06 23
  501.2 20.6 20
  501.3 18.28 18
  501.5 16.86 16
  501.6 18.15 18
  501.7 19.66 19
  501.8 19.44 19
  502.0 15.5 15
  502.1 17.19 17
  502.2 21.2 21
  502.3 23.33 23
  502.4 20.13 20
  502.7 12.98 12
  502.8 21.77 21
  502.9 28.21 28
  503.0 26.67 26
  503.1 18.8 18
  503.3 10.1 10
  503.4 14.66 14
  503.5 20.18 20
  503.6 22.04 22
  503.7 19.39 19
  504.0 13.99 13
  504.1 18.7 18
  504.2 23.25 23
  504.3 24.1 24
  504.4 20.88 20
  504.5 16.74 16
  505.3 12.16 12
  505.4 16.77 16
  505.5 21.79 21
  505.6 23.11 23
  505.7 19.71 19
  506.0 14.78 14
  506.1 20.31 20
  506.2 24.1 24
  506.3 23.43 23
  506.4 20.03 20
  506.6 18.47 18
  506.7 20.95 20
  506.8 22.29 22
  506.9 20.31 20
  507.0 15.85 15
  507.2 13.57 13
  507.3 18.05 18
  507.4 21.67 21
  507.5 20.68 20
  507.6 15.33 15
  507.8 9.98 9
  507.9 14.71 14
  508.0 19.69 19
  508.1 21.05 21
  508.2 19.07 19
  508.3 16.32 16
  508.5 15.3 15
  508.6 17.78 17
  508.7 20.16 20
  508.8 19.76 19
  508.9 16.1 16
  509.1 10.0 9
  509.2 12.98 12
  509.3 18.25 18
  509.4 20.98 20
  509.5 18.77 18
  509.7 13.13 13
  509.8 16.17 16
  509.9 20.95 20
  510.0 23.01 22
  510.1 20.46 20
  510.2 15.13 15
  510.4 11.61 11
  510.5 16.47 16
  510.6 21.72 21
  510.7 22.46 22
  510.8 17.19 17
  511.0 7.6 7
  511.1 12.73 12
  511.2 21.17 21
  511.3 25.76 25
  511.4 23.16 23
  511.5 16.05 16
  511.7 9.19 9
  511.8 13.87 13
  511.9 20.16 20
  512.0 23.06 23
  512.1 20.51 20
  513.0 14.07 14
  513.1 19.12 19
  513.2 22.68 22
  513.3 21.2 21
  513.4 15.45 15
  513.6 8.72 8
  513.7 12.58 12
  513.8 18.97 18
  513.9 23.38 23
  514.0 22.07 22
  514.1 15.8 15
  514.3 10.8 10
  514.4 16.52 16
  514.5 21.74 21
  514.6 22.46 22
  514.7 19.24 19
  515.5 12.01 11
  515.6 17.9 17
  515.7 24.76 24
  515.8 27.54 27
  515.9 24.42 24
  516.0 18.03 18
  516.2 12.65 12
  516.3 16.0 15
  516.4 19.27 19
  516.5 18.97 18
  516.8 14.09 14
  516.9 19.76 19
  517.0 24.29 24
  517.1 22.93 22
  517.2 16.79 16
  517.4 12.85 12
  517.5 18.62 18
  517.6 24.02 23
  517.7 24.91 24
  517.8 20.83 20
  517.9 14.26 14
  518.1 9.06 9
  518.2 13.42 13
  518.3 18.3 18
  518.4 19.49 19
  518.5 16.62 16
  518.7 12.16 12
  518.8 15.7 15
  518.9 20.58 20
  519.0 21.99 21
  519.1 18.38 18
  519.3 11.47 11
  519.4 15.5 15
  519.5 22.04 22
  519.6 25.71 25
  519.7 23.5 23
  519.8 17.56 17
  520.0 12.73 12
  520.1 16.96 16
  520.2 21.79 21
  520.3 23.08 23
  520.4 19.94 19
  520.6 14.83 14
  520.7 17.76 17
  520.8 20.9 20
  520.9 20.48 20
  521.0 16.59 16
  521.3 12.58 12
  521.4 16.27 16
  521.5 20.16 20
  521.6 21.87 21
  521.7 20.21 20
  521.9 16.3 16
  522.0 18.75 18
  522.1 22.31 22
  522.2 23.6 23
  522.3 21.35 21
  522.4 17.11 17
  523.1 12.65 12
  523.2 15.33 15
  523.3 20.55 20
  523.4 25.33 25
  523.5 26.82 26
  523.6 23.85 23
  523.7 18.47 18
  523.9 16.2 16
  524.0 20.36 20
  524.1 23.08 23
  524.2 21.35 21
  524.3 16.15 16
  524.5 11.96 11
  524.6 17.09 17
  524.7 22.66 22
  524.8 24.1 24
  524.9 20.8 20
  525.0 15.92 15
  525.2 13.47 13
  525.3 15.87 15
  525.4 17.83 17
  525.5 17.83 17
  525.6 16.07 16
  525.8 14.04 14
  525.9 16.74 16
  526.0 20.78 20
  526.1 22.81 22
  526.2 20.78 20
  526.3 16.49 16
  526.5 15.03 15
  526.6 18.25 18
  526.7 20.36 20
  526.8 20.11 20
  526.9 18.45 18
  527.6 16.05 16
  527.7 17.66 17
  527.8 21.77 21
  527.9 25.63 25
  528.0 25.41 25
  528.1 19.61 19
  528.2 11.29 11
  528.4 7.28 7
  528.5 13.08 13
  528.6 18.4 18
  528.7 19.56 19
  528.8 16.79 16
  529.0 12.95 12
  529.1 15.63 15
  529.2 18.4 18
  529.3 17.95 17
  529.6 13.82 13
  529.7 19.59 19
  529.8 25.48 25
  529.9 27.19 27
  530.0 23.92 23
  530.1 18.5 18
  530.3 15.01 14
  530.4 18.1 18
  530.5 20.75 20
  530.6 19.51 19
  530.8 11.69 11
  530.9 15.03 15
  531.0 23.53 23
  531.1 30.16 30
  531.2 29.02 28
  531.3 21.22 21
  531.5 12.61 12
  531.6 17.46 17
  531.7 22.86 22
  531.8 23.77 23
  531.9 19.64 19
  532.1 12.28 12
  532.2 15.73 15
  532.3 21.87 21
  532.4 25.24 25
  532.5 22.34 22
  532.6 15.5 15
  532.8 12.43 12
  532.9 18.92 18
  533.0 25.09 25
  533.1 26.2 26
  533.2 21.97 21
  533.4 15.82 15
  533.5 19.86 19
  533.6 24.72 24
  533.7 25.01 24
  533.8 19.69 19
  534.0 12.09 12
  534.1 17.24 17
  534.2 23.97 23
  534.3 25.9 25
  534.4 20.98 20
  534.5 13.2 13
  534.7 9.61 9
  534.8 14.59 14
  534.9 19.19 19
  535.0 20.65 20
  535.1 19.02 19
  536.0 9.56 9
  536.1 13.0 12
  536.2 19.39 19
  536.3 23.65 23
  536.4 22.29 22
  536.5 17.41 17
  536.7 16.07 16
  536.8 20.18 20
  536.9 21.99 21
  537.0 19.34 19
  537.2 12.8 12
  537.3 15.82 15
  537.4 21.45 21
  537.5 24.69 24
  537.6 22.81 22
  537.7 17.86 17
  537.9 14.93 14
  538.0 19.22 19
  538.1 23.97 23
  538.2 25.16 25
  538.3 20.88 20
  538.4 13.4 13
  538.6 10.33 10
  538.7 17.71 17
  538.8 24.39 24
  538.9 24.74 24
  539.0 18.95 18
  539.2 11.32 11
  539.3 14.98 14
  539.4 19.56 19
  539.5 20.31 20
  539.6 15.9 15
  539.8 8.25 8
  539.9 12.53 12
  540.0 18.72 18
  540.1 21.25 21
  540.2 18.65 18
  540.5 14.96 14
  540.6 19.37 19
  540.7 21.79 21
  540.8 20.55 20
  540.9 17.16 17
  541.1 13.92 13
  541.2 16.22 16
  541.3 19.12 19
  541.4 19.94 19
  541.5 17.81 17
  541.6 14.14 14
  541.8 10.65 10
  541.9 13.3 13
  542.0 17.43 17
  542.1 19.59 19
  542.2 17.78 17
  542.3 14.02 14
  542.5 13.08 13
  542.6 15.58 15
  542.7 16.44 16
  542.8 14.54 14
  543.0 10.95 10
  543.1 15.01 14
  543.2 22.19 22
  543.3 27.41 27
  543.4 25.88 25
  543.5 17.95 17
  543.7 8.44 8
  543.8 14.24 14
  543.9 21.67 21
  544.0 23.97 23
  544.1 19.49 19
  544.3 10.65 10
  544.4 14.64 14
  544.5 20.55 20
  544.6 22.68 22
  544.7 19.64 19
  545.6 9.76 9
  545.7 16.47 16
  545.8 23.13 23
  545.9 24.44 24
  546.0 19.81 19
  546.1 13.08 13
  546.3 10.82 10
  546.4 16.77 16
  546.5 22.16 22
  546.6 22.73 22
  546.7 18.85 18
  546.9 13.94 13
  547.0 17.01 16
  547.1 21.37 21
  547.2 23.25 23
  547.3 20.6 20
  547.4 15.4 15
  547.6 13.77 13
  547.7 17.56 17
  547.8 19.86 19
  547.9 18.8 18
  548.2 14.59 14
  548.3 19.71 19
  548.4 24.32 24
  548.5 23.82 23
  548.6 17.9 17
  548.8 9.01 9
  548.9 12.85 12
  549.0 18.75 18
  549.1 21.5 21
  549.2 19.37 19
  549.3 14.91 14
  549.5 12.9 12
  549.6 16.42 16
  549.7 19.37 19
  549.8 19.42 19
  549.9 17.38 17
  550.7 13.97 13
  550.8 18.65 18
  550.9 23.72 23
  551.0 24.17 24
  551.1 18.55 18
  551.3 7.92 7
  551.4 12.36 12
  551.5 20.95 20
  551.6 27.07 27
  551.7 26.62 26
  551.8 20.85 20
  552.6 12.46 12
  552.7 16.91 16
  552.8 24.42 24
  552.9 28.55 28
  553.0 25.04 25
  553.1 16.99 16
  553.3 14.64 14
  553.4 21.27 21
  553.5 24.76 24
  553.6 20.98 20
  553.7 12.73 12
  553.9 8.69 8
  554.0 16.74 16
  554.1 25.48 25
  554.2 29.35 29
  554.3 26.67 26
  554.4 20.21 20
  554.6 14.56 14
  554.7 18.1 18
  554.8 21.67 21
  554.9 21.64 21
  555.0 17.98 17
  555.2 12.75 12
  555.3 16.1 16
  555.4 20.7 20
  555.5 21.82 21
  555.6 17.86 17
  555.9 12.83 12
  556.0 17.56 17
  556.1 20.53 20
  556.2 19.32 19
  556.4 13.32 13
  556.5 16.07 16
  556.6 21.07 21
  556.7 22.98 22
  556.8 19.71 19
  556.9 13.99 13
  557.1 12.8 12
  557.2 18.42 18
  557.3 22.24 22
  557.4 20.6 20
  557.5 14.74 14
  557.7 9.76 9
  557.8 15.03 15
  557.9 21.55 21
  558.0 24.47 24
  558.1 22.09 22
  558.2 17.11 17
  558.4 15.03 15
  558.5 19.39 19
  558.6 23.23 23
  558.7 23.11 23
  558.8 18.33 18
  558.9 11.91 11
  559.1 10.35 10
  559.2 15.97 15
  559.3 20.31 20
  559.4 19.81 19
  560.3 8.15 8
  560.4 14.83 14
  560.5 22.41 22
  560.6 25.48 25
  560.7 22.24 22
  561.6 13.65 13
  561.7 20.41 20
  561.8 25.66 25
  561.9 25.16 25
  562.0 19.49 19
  562.1 12.98 12
  562.3 12.43 12
  562.4 17.48 17
  562.5 21.05 21
  562.6 20.21 20
  562.9 15.35 15
  563.0 21.1 21
  563.1 24.72 24
  563.2 21.57 21
  563.3 13.37 13
  563.5 8.17 8
  563.6 16.12 16
  563.7 23.77 23
  563.8 24.84 24
  563.9 19.29 19
  564.2 11.99 11
  564.3 18.62 18
  564.4 24.39 24
  564.5 24.12 24
  564.6 17.51 17
  564.8 9.93 9
  564.9 16.42 16
  565.0 24.47 24
  565.1 27.44 27
  565.2 23.38 23
  565.3 16.17 16
  565.5 13.2 13
  565.6 17.88 17
  565.7 21.0 20
  565.8 19.74 19
  566.1 14.88 14
  566.2 19.81 19
  566.3 23.8 23
  566.4 23.38 23
  566.5 18.99 18
  566.6 14.24 14
  566.8 13.84 13
  566.9 17.01 16
  567.0 19.76 19
  567.1 20.16 20
  567.4 16.39 16
  567.5 20.36 20
  567.6 23.18 23
  567.7 20.93 20
  567.8 14.96 14
  568.0 13.1 13
  568.1 19.84 19
  568.2 25.41 25
  568.3 25.24 25
  568.4 19.79 19
  568.6 12.56 12
  568.7 16.49 16
  568.8 21.92 21
  568.9 24.24 24
  569.0 22.02 21
  569.1 17.24 17
  569.4 13.37 13
  569.5 17.71 17
  569.6 20.36 20
  569.7 18.57 18
  569.9 12.13 12
  570.0 15.75 15
  570.1 22.66 22
  570.2 26.37 26
  570.3 22.73 22
  570.4 14.76 14
  570.6 12.06 12
  570.7 18.33 18
  570.8 22.91 22
  570.9 22.81 22
  571.0 19.32 19
  571.2 16.05 16
  571.3 18.9 18
  571.4 21.97 21
  571.5 22.44 22
  571.8 19.47 19
  571.9 23.63 23
  572.0 26.72 26
  572.1 24.42 24
  572.2 15.9 15
  572.3 5.55 5
  572.5 3.0 2
  572.6 12.11 12
  572.7 20.58 20
  572.8 23.08 23
  572.9 19.79 19
  573.1 14.51 14
  573.2 17.81 17
  573.3 22.36 22
  573.4 24.15 24
  573.5 21.22 21
  573.6 15.78 15
  573.8 13.97 13
  573.9 19.24 19
  574.0 23.13 23
  574.1 21.94 21
  574.2 17.04 17
  574.4 14.41 14
  574.5 18.57 18
  574.6 22.04 22
  574.7 22.07 22
  574.8 18.82 18
  575.6 11.49 11
  575.7 15.11 15
  575.8 20.21 20
  575.9 23.01 22
  576.0 21.07 21
  576.1 16.0 15
  576.3 12.26 12
  576.4 16.54 16
  576.5 21.3 21
  576.6 22.46 22
  576.7 18.7 18
  576.8 12.83 12
  577.0 11.17 11
  577.1 16.1 16
  577.2 20.21 20
  577.3 20.51 20
  577.6 16.12 16
  577.7 20.36 20
  577.8 23.28 23
  577.9 21.77 21
  578.0 17.11 17
  578.2 13.2 13
  578.3 17.04 17
  578.4 21.92 21
  578.5 24.42 24
  578.6 22.93 22
  578.7 18.92 18
  578.9 15.23 15
  579.0 18.4 18
  579.1 22.14 22
  579.2 22.78 22
  579.3 19.54 19
  579.5 14.07 14
  579.6 16.72 16
  579.7 20.7 20
  579.8 21.92 21
  579.9 18.42 18
  580.1 12.83 12
  580.2 17.43 17
  580.3 23.01 22
  580.4 24.74 24
  580.5 21.94 21
  580.6 17.26 17
  581.4 16.15 16
  581.5 18.92 18
  581.6 21.5 21
  581.7 21.25 21
  581.8 17.76 17
  582.1 13.05 13
  582.2 19.12 19
  582.3 24.1 24
  582.4 23.68 23
  582.5 18.25 18
  582.7 11.22 11
  582.8 14.78 14
  582.9 20.03 20
  583.0 22.86 22
  583.1 21.25 21
  583.2 17.14 17
  583.4 15.75 15
  583.5 19.94 19
  583.6 23.2 23
  583.7 22.56 22
  583.8 18.05 18
  584.0 11.86 11
  584.1 15.38 15
  584.2 19.86 19
  584.3 20.73 20
  584.4 17.36 17
  584.6 13.4 13
  584.7 17.29 17
  584.8 22.39 22
  584.9 25.09 25
  585.0 23.33 23
  585.1 18.05 18
  585.3 11.32 11
  585.4 15.16 15
  585.5 20.73 20
  585.6 22.68 22
  585.7 19.27 19
  585.9 13.05 13
  586.0 17.11 17
  586.1 22.91 22
  586.2 25.24 25
  586.3 21.42 21
  586.4 14.21 14
  586.6 10.45 10
  586.7 14.74 14
  586.8 17.46 17
  586.9 16.15 16
  587.2 10.48 10
  587.3 15.78 15
  587.4 21.37 21
  587.5 22.56 22
  587.6 17.83 17
  587.8 8.89 8
  587.9 13.52 13
  588.0 21.32 21
  588.1 25.41 25
  588.2 22.34 22
  588.3 15.55 15
  588.5 14.19 14
  588.6 19.44 19
  588.7 22.11 22
  588.8 19.64 19
  588.9 14.14 14
  589.1 11.22 11
  589.2 17.06 17
  589.3 23.16 23
  589.4 24.67 24
  589.5 20.85 20
  589.6 15.73 15
  589.8 15.16 15
  589.9 18.5 18
  590.0 19.99 19
  590.1 17.9 17
  590.4 13.97 13
  590.5 18.1 18
  590.6 20.43 20
  590.7 18.42 18
  590.8 13.1 13
  591.0 7.33 7
  591.1 11.29 11
  591.2 17.38 17
  591.3 21.52 21
  591.4 21.15 21
  591.5 17.14 17
  591.7 13.25 13
  591.8 17.14 17
  591.9 21.17 21
  592.0 21.62 21
  592.1 18.55 18
  592.2 14.74 14
  592.4 13.5 13
  592.5 17.01 16
  592.6 21.07 21
  592.7 22.11 22
  592.8 18.87 18
  593.0 14.86 14
  593.1 18.42 18
  593.2 21.27 21
  593.3 20.36 20
  593.4 16.89 16
  593.6 14.91 14
  593.7 19.02 19
  593.8 23.53 23
  593.9 24.12 24
  594.0 19.34 19
  594.2 10.05 10
  594.3 13.87 13
  594.4 20.88 20
  594.5 24.84 24
  594.6 22.36 22
  594.7 16.25 16
  594.9 14.98 14
  595.0 21.0 20
  595.1 24.79 24
  595.2 22.76 22
  595.3 16.82 16
  595.5 11.47 11
  595.6 15.03 15
  595.7 19.34 19
  595.8 20.93 20
  595.9 18.65 18
  596.0 14.59 14
  596.2 13.0 12
  596.3 15.78 15
  596.4 17.66 17
  596.5 16.77 16
  596.7 12.38 12
  596.8 14.69 14
  596.9 20.53 20
  597.0 25.46 25
  597.1 24.54 24
  597.2 17.78 17
  597.4 10.82 10
  597.5 16.32 16
  597.6 21.77 21
  597.7 22.09 22
  597.8 17.66 17
  598.0 12.11 12
  598.1 15.43 15
  598.2 20.26 20
  598.3 23.11 23
  598.4 21.62 21
  598.5 16.07 16
  598.7 9.58 9
  598.8 15.18 15
  598.9 22.54 22
  599.0 25.16 25
  599.1 21.3 21
  599.3 13.32 13
  599.4 17.14 17
  599.5 23.5 23
  599.6 26.89 26
//
