ACCESSION: MSBNK-RIKEN_NPDepo-NGA00100
RECORD_TITLE: Inosine; LC-ESI-QQQ; MS2; Frag=135.0V CID@25.0; [M+H]+
DATE: 2018.04.04
AUTHORS: Nogawa T, Okano A, CSRS, RIKEN
LICENSE: CC BY
COMMENT: Formula(Parent): C10H12N4O5
COMMENT: Bottle Name:Inosine
COMMENT: PRIME Parent Name:Inosine
COMMENT: PRIME in-house No.:0256, Purines
CH$NAME: INO
CH$NAME: (-)-Inosine
CH$NAME: beta-Inosine
CH$NAME: Hypoxanthine 9-beta-D-ribofuranoside
CH$NAME: 9-beta-D-ribofuranosylhypoxanthine
CH$NAME: Hypoxanthine ribonucleoside
CH$NAME: Oxiamin
CH$NAME: Ribonosine
CH$NAME: Trophicardyl
CH$NAME: Inosine
CH$COMPOUND_CLASS: Carbohydrates
CH$FORMULA: C10H12N4O5
CH$EXACT_MASS: 268.2309
CH$SMILES: OC[C@H]1O[C@@H](n2cnc3c(O)ncnc32)[C@H](O)[C@@H]1O
CH$IUPAC: InChI=1S/C10H12N4O5/c15-1-4-6(16)7(17)10(19-4)14-3-13-5-8(14)11-2-12-9(5)18/h2-4,6-7,10,15-17H,1H2,(H,11,12,18)/t4-,6-,7-,10-/m1/s1
CH$LINK: CAS 58-63-9
CH$LINK: CHEMSPIDER 5799
CH$LINK: INCHIKEY UGQMRVRMYYASKQ-KQYNXXCUSA-N
CH$LINK: COMPTOX DTXSID2045993
CH$LINK: PUBCHEM CID:135398641
AC$INSTRUMENT: Agilent 6410 Triple Quadrupole LC/MS system
AC$INSTRUMENT_TYPE: LC-ESI-QQQ
AC$MASS_SPECTROMETRY: MS_TYPE MS2
AC$MASS_SPECTROMETRY: ION_MODE POSITIVE
MS$FOCUSED_ION: PRECURSOR_TYPE [M+H]+
PK$SPLASH: splash10-000i-0900000000-972c17deff515653912e
PK$NUM_PEAK: 26
PK$PEAK: m/z int. rel.int.
  136.1 1.67 1
  136.2 3.7 3
  136.3 7.05 7
  136.4 10.06 10
  136.5 14.4 14
  136.6 24.38 24
  136.7 43.74 43
  136.8 69.44 69
  136.9 91.37 91
  137.0 100.0 99
  137.1 94.06 93
  137.2 79.49 79
  137.3 61.68 61
  137.4 41.93 41
  137.5 21.67 21
  137.6 5.67 5
  137.7 0.0 0
  190.5 1.26 1
  190.6 3.26 3
  190.7 5.62 5
  190.8 7.57 7
  190.9 8.46 8
  191.0 7.93 7
  191.1 6.26 6
  191.2 4.3 4
  191.3 2.83 2
//
