ACCESSION: MSBNK-RIKEN_NPDepo-NGA01190
RECORD_TITLE: Glycoperine; LC-ESI-QQQ; MS2; Frag=135.0V CID@10.0; [M+H]+
DATE: 2018.04.04
AUTHORS: Nogawa T, Okano A, CSRS, RIKEN
LICENSE: CC BY
COMMENT: Origin: Plant
COMMENT: SubCategory_DNP: Alkaloids derived from anthranilic acid, Quinoline alkaloids
CH$NAME: Glycoperine
CH$COMPOUND_CLASS: Alkaloids
CH$FORMULA: C19H21NO8
CH$EXACT_MASS: 391.3811
CH$SMILES: COc1c2ccoc2nc2c(OC)c(O[C@@H]3O[C@H](C)[C@@H](O)[C@@H](O)[C@H]3O)ccc12
CH$IUPAC: InChI=1S/C19H21NO8/c1-8-13(21)14(22)15(23)19(27-8)28-11-5-4-9-12(17(11)25-3)20-18-10(6-7-26-18)16(9)24-2/h4-8,13-15,19,21-23H,1-3H3/t8-,13-,14-,15-,19+/m1/s1
CH$LINK: CAS 55740-45-9
CH$LINK: CHEMSPIDER 391209
CH$LINK: INCHIKEY KJOKSAQCWDHTOL-JHHSONQDSA-N
CH$LINK: PUBCHEM CID:7068014
AC$INSTRUMENT: Agilent 6410 Triple Quadrupole LC/MS system
AC$INSTRUMENT_TYPE: LC-ESI-QQQ
AC$MASS_SPECTROMETRY: MS_TYPE MS2
AC$MASS_SPECTROMETRY: ION_MODE POSITIVE
MS$FOCUSED_ION: PRECURSOR_TYPE [M+H]+
PK$SPLASH: splash10-0002-0090000000-938447652c4f549b785a
PK$NUM_PEAK: 25
PK$PEAK: m/z int. rel.int.
  245.2 0.87 0
  245.3 2.46 2
  245.4 5.56 5
  245.5 10.76 10
  245.6 19.56 19
  245.7 33.85 33
  245.8 53.66 53
  245.9 75.27 75
  246.0 92.46 92
  246.1 100.0 99
  246.2 95.81 95
  246.3 80.36 80
  246.4 56.45 56
  246.5 30.17 30
  246.6 9.44 9
  246.7 0.15 0
  391.7 2.31 2
  391.8 3.89 3
  391.9 5.79 5
  392.0 7.37 7
  392.1 8.13 8
  392.2 8.0 7
  392.3 7.08 7
  392.4 5.43 5
  392.5 3.28 3
//
