ACCESSION: MSBNK-RIKEN_NPDepo-NGA00475
RECORD_TITLE: Lagochilin; LC-ESI-QQQ; MS2; Frag=135.0V CID@10.0; [M+Na]+
DATE: 2018.04.04
AUTHORS: Nogawa T, Okano A, CSRS, RIKEN
LICENSE: CC BY
COMMENT: Origin: Plant
COMMENT: SubCategory_DNP: Diterpenoids, Lagochilin diterpenoids
CH$NAME: Lagochilin
CH$COMPOUND_CLASS: Terpenoids
CH$FORMULA: C20H38O6
CH$EXACT_MASS: 374.5223
CH$SMILES: C[C@@H]1CCC2[C@](C)(CC[C@H](O)[C@@]2(C)CO)[C@@]12CCC(CO)(CCO)O2.O
CH$IUPAC: InChI=1S/C20H36O5.H2O/c1-14-4-5-15-17(2,12-22)16(24)6-7-18(15,3)20(14)9-8-19(13-23,25-20)10-11-21;/h14-16,21-24H,4-13H2,1-3H3;1H2/t14-,15?,16+,17+,18+,19?,20-;/m1./s1
CH$LINK: CAS 23554-81-6
CH$LINK: CHEMSPIDER 5140873
CH$LINK: INCHIKEY FMNYIIOAJSNXSS-ZLEPDKQGSA-N
AC$INSTRUMENT: Agilent 6410 Triple Quadrupole LC/MS system
AC$INSTRUMENT_TYPE: LC-ESI-QQQ
AC$MASS_SPECTROMETRY: MS_TYPE MS2
AC$MASS_SPECTROMETRY: ION_MODE POSITIVE
MS$FOCUSED_ION: PRECURSOR_TYPE [M+Na]+
PK$SPLASH: splash10-004i-0009000000-a518f7ccd615172801fa
PK$NUM_PEAK: 16
PK$PEAK: m/z int. rel.int.
  378.3 0.64 0
  378.4 2.05 2
  378.5 5.22 5
  378.6 10.04 10
  378.7 16.4 16
  378.8 25.6 25
  378.9 39.88 39
  379.0 59.32 59
  379.1 79.87 79
  379.2 95.32 95
  379.3 100.0 99
  379.4 89.86 89
  379.5 65.04 64
  379.6 33.48 33
  379.7 8.02 8
  379.8 0.0 0
//
