ACCESSION: MSBNK-RIKEN_NPDepo-NGA00746
RECORD_TITLE: Thalicarpine; LC-ESI-QQQ; MS2; Frag=135.0V CID@10.0; [M+H]+
DATE: 2018.04.04
AUTHORS: Nogawa T, Okano A, CSRS, RIKEN
LICENSE: CC BY
COMMENT: Origin: Plant
COMMENT: Formula(Parent): C41H48N2O8
COMMENT: Bottle Name:Thalicarpine hydrochloride
COMMENT: PRIME Parent Name:Thalicarpine
COMMENT: PRIME in-house No.:V0344
COMMENT: SubCategory_DNP: Isoquinoline alkaloids, Benzylisoquinoline alkaloids
CH$NAME: Thaliblastine
CH$NAME: Taliblastine
CH$NAME: Thalicarpin
CH$NAME: Taliblastin
CH$NAME: Thalicarpine
CH$COMPOUND_CLASS: Alkaloids
CH$FORMULA: C41H48N2O8
CH$EXACT_MASS: 696.8483
CH$SMILES: COc1cc(CC2c3cc(OC)c(OC)cc3CCN2C)c(Oc2cc3c(cc2OC)-c2c(OC)c(OC)cc4c2C(C3)N(C)CC4)cc1OC
CH$IUPAC: InChI=1S/C41H48N2O8/c1-42-12-10-23-16-32(44-3)34(46-5)20-27(23)29(42)15-26-19-33(45-4)36(48-7)22-31(26)51-37-18-25-14-30-39-24(11-13-43(30)2)17-38(49-8)41(50-9)40(39)28(25)21-35(37)47-6/h16-22,29-30H,10-15H2,1-9H3
CH$LINK: CAS 5373-42-2
CH$LINK: CHEMSPIDER 20178 530199
CH$LINK: INCHIKEY ZCTJIMXXSXQXRI-UHFFFAOYSA-N
CH$LINK: PUBCHEM CID:609931
AC$INSTRUMENT: Agilent 6410 Triple Quadrupole LC/MS system
AC$INSTRUMENT_TYPE: LC-ESI-QQQ
AC$MASS_SPECTROMETRY: MS_TYPE MS2
AC$MASS_SPECTROMETRY: ION_MODE POSITIVE
MS$FOCUSED_ION: PRECURSOR_TYPE [M+H]+
PK$SPLASH: splash10-0002-0000009000-2730d74be17f0618e070
PK$NUM_PEAK: 14
PK$PEAK: m/z int. rel.int.
  696.5 1.32 1
  696.6 4.49 4
  696.7 19.19 19
  696.8 40.34 40
  696.9 55.12 55
  697.0 55.59 55
  697.1 50.37 50
  697.2 57.0 56
  697.3 79.82 79
  697.4 99.7 99
  697.5 92.56 92
  697.6 57.44 57
  697.7 18.88 18
  697.8 0.0 0
//
