ACCESSION: MSBNK-RIKEN_NPDepo-NGA00650
RECORD_TITLE: Lasalocid A, Na salt; LC-ESI-QQQ; MS2; Frag=135.0V CID@15.0; [M+Na]+
DATE: 2018.04.04
AUTHORS: Nogawa T, Okano A, CSRS, RIKEN
LICENSE: CC BY
COMMENT: Origin: Microbe
CH$NAME: Lasalocid A, Na salt
CH$COMPOUND_CLASS: Polyketide
CH$FORMULA: C34H53NaO8
CH$EXACT_MASS: 612.7865
CH$SMILES: CC[C@H](C(=O)[C@H](C)[C@H](O)[C@@H](C)CCc1ccc(C)c([O-])c1C(=O)O)[C@@H]1O[C@@](CC)([C@@H]2CC[C@@](O)(CC)[C@@H](C)O2)C[C@H]1C.[Na+]
CH$IUPAC: InChI=1S/C34H54O8.Na/c1-9-25(31-21(6)18-34(11-3,42-31)26-16-17-33(40,10-2)23(8)41-26)30(37)22(7)28(35)19(4)12-14-24-15-13-20(5)29(36)27(24)32(38)39;/h13,15,19,21-23,25-26,28,31,35-36,40H,9-12,14,16-18H2,1-8H3,(H,38,39);/q;+1/p-1/t19-,21+,22+,23+,25+,26-,28+,31+,33-,34+;/m0./s1
CH$LINK: INCHIKEY RDHDUYAKDYQPEW-DBDPTFCUSA-M
CH$LINK: PUBCHEM CID:44659173
AC$INSTRUMENT: Agilent 6410 Triple Quadrupole LC/MS system
AC$INSTRUMENT_TYPE: LC-ESI-QQQ
AC$MASS_SPECTROMETRY: MS_TYPE MS2
AC$MASS_SPECTROMETRY: ION_MODE POSITIVE
MS$FOCUSED_ION: PRECURSOR_TYPE [M+Na]+
PK$SPLASH: splash10-03di-0000009000-f6fb2222a8b225da624f
PK$NUM_PEAK: 17
PK$PEAK: m/z int. rel.int.
  612.3 0.49 0
  612.4 1.35 1
  612.5 4.23 4
  612.6 9.02 9
  612.7 15.05 15
  612.8 22.82 22
  612.9 34.28 34
  613.0 50.17 50
  613.1 68.06 67
  613.2 84.08 83
  613.3 95.45 95
  613.4 100.0 99
  613.5 93.95 93
  613.6 73.88 73
  613.7 43.28 43
  613.8 14.14 14
  613.9 0.0 0
//
