ACCESSION: MSBNK-RIKEN_NPDepo-NGA03854
RECORD_TITLE: Deltaline; LC-ESI-QQQ; MS2; Frag=135.0V CID@10.0; [M+HCOO]-
DATE: 2018.04.04
AUTHORS: Nogawa T, Okano A, CSRS, RIKEN
LICENSE: CC BY
COMMENT: Origin: Plant
COMMENT: SubCategory_DNP: Terpenoid alkaloids, Diterpene alkaloid, Delphinium alkaloid
CH$NAME: Deltaline
CH$COMPOUND_CLASS: Alkaloids
CH$FORMULA: C27H41NO8
CH$EXACT_MASS: 507.6297
CH$SMILES: CCN1C[C@]2(C)CCC(OC)C34C2[C@H](OC(C)=O)C2(OCO[C@@]25C[C@H](OC)[C@H]2C[C@]3(O)C5[C@H]2OC)[C@@H]14
CH$IUPAC: InChI=1S/C27H41NO8/c1-7-28-12-23(3)9-8-17(32-5)26-20(23)21(36-14(2)29)27(22(26)28)25(34-13-35-27)11-16(31-4)15-10-24(26,30)19(25)18(15)33-6/h15-22,30H,7-13H2,1-6H3/t15-,16+,17?,18+,19?,20?,21+,22+,23+,24+,25-,26?,27?/m1/s1
CH$LINK: CAS 6836-11-9
CH$LINK: CHEMSPIDER 145078 390331 4475551 23219130
CH$LINK: INCHIKEY DTTPWCNKTMQMTE-ZRAURUGBSA-N
AC$INSTRUMENT: Agilent 6410 Triple Quadrupole LC/MS system
AC$INSTRUMENT_TYPE: LC-ESI-QQQ
AC$MASS_SPECTROMETRY: MS_TYPE MS2
AC$MASS_SPECTROMETRY: ION_MODE NEGATIVE
MS$FOCUSED_ION: PRECURSOR_TYPE [M+HCOO]-
PK$SPLASH: splash10-067i-4889880000-3827b2ce5eca897799e7
PK$NUM_PEAK: 4364
PK$PEAK: m/z int. rel.int.
  50.5 6.19 6
  50.6 10.75 10
  50.7 16.48 16
  50.8 19.06 19
  50.9 17.13 17
  51.8 7.36 7
  51.9 15.88 15
  52.0 24.32 24
  52.1 25.51 25
  52.2 18.41 18
  52.5 8.94 8
  52.6 17.9 17
  52.7 23.95 23
  52.8 22.49 22
  52.9 16.01 15
  53.1 10.89 10
  53.2 15.36 15
  53.3 19.69 19
  53.4 19.67 19
  53.5 14.83 14
  53.7 8.73 8
  53.8 14.39 14
  53.9 21.6 21
  54.0 23.72 23
  54.1 18.16 18
  54.4 7.82 7
  54.5 18.41 18
  54.6 25.72 25
  54.7 22.35 22
  54.8 11.48 11
  55.0 6.54 6
  55.1 16.57 16
  55.2 25.19 25
  55.3 25.98 25
  55.4 19.18 19
  55.7 10.27 10
  55.8 17.6 17
  55.9 21.93 21
  56.0 19.2 19
  56.1 11.94 11
  56.3 8.08 8
  56.4 15.71 15
  56.5 23.63 23
  56.6 25.68 25
  56.7 19.9 19
  56.8 10.41 10
  57.0 6.91 6
  57.1 15.36 15
  57.2 22.58 22
  57.3 22.91 22
  57.4 17.46 17
  57.6 12.15 12
  57.7 16.39 16
  57.8 20.14 20
  57.9 19.58 19
  58.0 15.08 15
  58.2 10.13 10
  58.3 14.83 14
  58.4 21.18 21
  58.5 23.56 23
  58.6 19.46 19
  58.7 12.08 12
  58.9 9.36 9
  59.0 15.69 15
  59.1 20.81 20
  59.2 20.2 20
  59.3 14.39 14
  59.5 8.08 8
  59.6 12.55 12
  59.7 17.36 17
  59.8 18.13 18
  60.1 13.48 13
  60.2 18.6 18
  60.3 23.58 23
  60.4 23.3 23
  60.5 16.83 16
  60.8 9.8 9
  60.9 16.74 16
  61.0 22.02 21
  61.1 22.63 22
  61.2 18.53 18
  61.3 12.99 12
  61.5 12.24 12
  61.6 16.57 16
  61.7 18.83 18
  61.8 16.39 16
  62.1 10.29 10
  62.2 17.11 17
  62.3 22.09 22
  62.4 20.6 20
  62.5 13.78 13
  62.7 8.96 8
  62.8 17.25 17
  62.9 25.63 25
  63.0 26.0 25
  63.1 17.43 17
  63.3 5.45 5
  63.4 11.85 11
  63.5 20.93 20
  63.6 24.84 24
  63.7 20.09 20
  63.8 10.24 10
  64.0 3.03 3
  64.1 8.92 8
  64.2 15.08 15
  64.3 17.2 17
  64.4 15.15 15
  64.6 11.52 11
  64.7 15.39 15
  64.8 20.83 20
  64.9 22.65 22
  65.0 18.16 18
  65.2 7.7 7
  65.3 11.85 11
  65.4 19.72 19
  65.5 23.93 23
  65.6 20.83 20
  65.7 13.29 13
  65.9 7.43 7
  66.0 12.59 12
  66.1 18.88 18
  66.2 21.21 21
  66.3 17.34 17
  66.6 11.24 11
  66.7 17.99 17
  66.8 21.6 21
  66.9 19.13 19
  67.0 13.45 13
  67.2 12.01 11
  67.3 17.13 17
  67.4 20.48 20
  67.5 18.95 18
  67.6 13.8 13
  67.8 8.82 8
  67.9 12.94 12
  68.0 18.16 18
  68.1 20.11 20
  68.2 16.78 16
  68.4 7.98 7
  68.5 11.8 11
  68.6 20.0 19
  68.7 25.3 25
  68.8 21.95 21
  68.9 12.29 12
  69.1 6.89 6
  69.2 15.32 15
  69.3 22.37 22
  69.4 22.3 22
  69.5 16.22 16
  69.7 8.03 8
  69.8 12.08 12
  69.9 18.62 18
  70.0 22.51 22
  70.1 20.46 20
  70.2 13.78 13
  70.4 7.87 7
  70.5 14.22 14
  70.6 21.72 21
  70.7 23.95 23
  70.8 18.95 18
  71.1 10.34 10
  71.2 17.57 17
  71.3 21.6 21
  71.4 18.3 18
  71.6 7.12 7
  71.7 11.24 11
  71.8 20.44 20
  71.9 26.61 26
  72.0 23.88 23
  72.1 14.01 13
  72.3 5.61 5
  72.4 14.69 14
  72.5 24.53 24
  72.6 26.65 26
  72.7 19.83 19
  73.5 8.29 8
  73.6 12.85 12
  73.7 20.88 20
  73.8 26.07 26
  73.9 23.95 23
  74.0 15.55 15
  74.8 5.87 5
  74.9 11.24 11
  75.0 20.11 20
  75.1 25.81 25
  75.2 23.93 23
  75.3 16.48 16
  75.5 10.2 10
  75.6 14.2 14
  75.7 16.74 16
  75.8 14.62 14
  76.1 8.1 8
  76.2 15.71 15
  76.3 23.6 23
  76.4 25.65 25
  76.5 20.27 20
  76.6 11.89 11
  76.8 9.33 9
  76.9 16.88 16
  77.0 23.28 23
  77.1 23.04 23
  77.2 16.74 16
  78.0 9.87 9
  78.1 13.66 13
  78.2 21.32 21
  78.3 25.54 25
  78.4 22.23 22
  78.5 14.53 14
  78.7 9.1 9
  78.8 13.78 13
  78.9 18.2 18
  79.0 18.32 18
  79.1 13.76 13
  79.3 7.12 7
  79.4 12.2 12
  79.5 19.93 19
  79.6 23.58 23
  79.7 19.76 19
  79.8 11.59 11
  80.0 7.5 7
  80.1 14.62 14
  80.2 21.88 21
  80.3 24.14 24
  80.4 20.34 20
  80.7 12.97 12
  80.8 19.09 19
  80.9 22.6 22
  81.0 19.48 19
  81.2 9.36 9
  81.3 13.87 13
  81.4 22.37 22
  81.5 26.63 26
  81.6 21.76 21
  81.7 11.22 11
  81.9 6.24 6
  82.0 15.81 15
  82.1 24.28 24
  82.2 24.21 24
  82.3 15.78 15
  82.5 4.66 4
  82.6 11.76 11
  82.7 21.28 21
  82.8 24.74 24
  82.9 19.86 19
  83.1 9.33 9
  83.2 13.8 13
  83.3 21.51 21
  83.4 25.65 25
  83.5 22.3 22
  83.6 13.31 13
  83.8 4.45 4
  83.9 11.59 11
  84.0 21.02 20
  84.1 25.49 25
  84.2 22.56 22
  84.3 16.15 16
  84.5 14.48 14
  84.6 19.86 19
  84.7 23.84 23
  84.8 22.63 22
  84.9 16.69 16
  85.1 9.47 9
  85.2 13.64 13
  85.3 18.65 18
  85.4 19.27 19
  85.5 14.71 14
  85.7 8.1 8
  85.8 12.13 12
  85.9 17.53 17
  86.0 19.46 19
  86.1 16.53 16
  86.3 11.5 11
  86.4 16.32 16
  86.5 22.91 22
  86.6 24.91 24
  86.7 19.65 19
  86.8 10.61 10
  87.0 7.29 7
  87.1 15.92 15
  87.2 24.35 24
  87.3 26.58 26
  87.4 21.53 21
  87.5 13.36 13
  87.7 10.08 10
  87.8 15.9 15
  87.9 19.81 19
  88.0 17.78 17
  88.3 11.13 11
  88.4 17.78 17
  88.5 22.53 22
  88.6 20.81 20
  88.7 13.29 13
  88.9 3.68 3
  89.0 9.64 9
  89.1 19.18 19
  89.2 24.63 24
  89.3 21.3 21
  89.4 12.22 12
  89.6 6.33 6
  89.7 13.41 13
  89.8 20.04 20
  89.9 20.6 20
  90.0 14.64 14
  90.2 5.89 5
  90.3 12.2 12
  90.4 20.9 20
  90.5 23.93 23
  90.6 18.76 18
  90.8 8.01 8
  90.9 12.71 12
  91.0 20.86 20
  91.1 25.68 25
  91.2 23.56 23
  91.3 16.64 16
  91.5 10.5 10
  91.6 15.67 15
  91.7 21.72 21
  91.8 23.6 23
  91.9 19.72 19
  92.8 12.08 12
  92.9 17.71 17
  93.0 21.35 21
  93.1 20.07 20
  93.2 15.29 15
  93.4 11.8 11
  93.5 16.85 16
  93.6 22.63 22
  93.7 23.84 23
  93.8 18.67 18
  94.1 11.48 11
  94.2 18.76 18
  94.3 22.84 22
  94.4 20.07 20
  94.5 12.87 12
  94.7 9.92 9
  94.8 17.67 17
  94.9 24.07 24
  95.0 22.88 22
  95.1 15.25 15
  95.3 8.26 8
  95.4 14.83 14
  95.5 22.3 22
  95.6 24.49 24
  95.7 19.34 19
  95.8 10.59 10
  96.0 7.22 7
  96.1 15.22 15
  96.2 22.21 22
  96.3 22.21 22
  96.4 15.95 15
  96.6 9.52 9
  96.7 14.97 14
  96.8 20.79 20
  96.9 21.44 21
  97.0 16.04 16
  97.2 7.54 7
  97.3 12.83 12
  97.4 20.9 20
  97.5 24.79 24
  97.6 20.83 20
  97.7 12.2 12
  97.9 8.43 8
  98.0 16.95 16
  98.1 24.79 24
  98.2 25.44 25
  98.3 18.48 18
  98.6 10.24 10
  98.7 18.58 18
  98.8 24.49 24
  98.9 22.95 22
  99.0 14.9 14
  99.2 6.26 6
  99.3 13.73 13
  99.4 22.95 22
  99.5 26.23 26
  99.6 21.88 21
  99.9 14.57 14
  100.0 20.37 20
  100.1 23.28 23
  100.2 20.32 20
  100.3 14.41 14
  101.1 8.05 8
  101.2 17.83 17
  101.3 24.84 24
  101.4 23.25 23
  101.5 15.06 15
  101.7 5.59 5
  101.8 11.62 11
  101.9 20.41 20
  102.0 23.91 23
  102.1 18.13 18
  102.2 7.94 7
  102.4 7.1 7
  102.5 16.04 16
  102.6 21.18 21
  102.7 18.83 18
  102.8 12.2 12
  103.0 8.03 8
  103.1 13.41 13
  103.2 19.04 19
  103.3 19.72 19
  103.4 14.32 14
  103.6 7.36 7
  103.7 14.11 14
  103.8 22.56 22
  103.9 25.81 25
  104.0 21.53 21
  104.1 13.11 13
  104.3 7.1 7
  104.4 13.55 13
  104.5 21.18 21
  104.6 24.14 24
  104.7 20.67 20
  104.8 14.06 14
  105.0 12.43 12
  105.1 18.55 18
  105.2 22.44 22
  105.3 19.76 19
  105.4 12.22 12
  105.6 6.89 6
  105.7 13.85 13
  105.8 20.88 20
  105.9 21.62 21
  106.0 15.74 15
  106.2 9.31 9
  106.3 15.46 15
  106.4 21.62 21
  106.5 21.37 21
  106.6 14.53 14
  106.8 7.01 7
  106.9 13.85 13
  107.0 22.63 22
  107.1 26.0 25
  107.2 20.72 20
  107.3 10.17 10
  107.5 3.49 3
  107.6 12.36 12
  107.7 21.46 21
  107.8 23.39 23
  107.9 17.46 17
  108.1 7.98 7
  108.2 13.5 13
  108.3 21.21 21
  108.4 23.93 23
  108.5 19.48 19
  108.7 9.26 9
  108.8 13.24 13
  108.9 21.21 21
  109.0 26.58 26
  109.1 24.26 24
  109.2 15.06 15
  109.4 5.07 5
  109.5 11.76 11
  109.6 19.74 19
  109.7 22.07 22
  109.8 17.2 17
  110.1 9.57 9
  110.2 17.16 17
  110.3 21.16 21
  110.4 17.76 17
  110.6 9.12 9
  110.7 13.78 13
  110.8 20.39 20
  110.9 22.72 22
  111.0 18.9 18
  111.1 12.22 12
  111.3 9.66 9
  111.4 17.02 17
  111.5 24.32 24
  111.6 25.49 25
  111.7 19.39 19
  111.8 10.94 10
  112.0 10.03 10
  112.1 17.85 17
  112.2 23.35 23
  112.3 21.37 21
  112.4 13.69 13
  112.6 7.7 7
  112.7 14.18 14
  112.8 21.76 21
  112.9 25.16 25
  113.0 22.07 22
  113.1 14.85 14
  113.3 10.68 10
  113.4 17.23 17
  113.5 22.74 22
  113.6 21.72 21
  113.7 14.48 14
  113.9 6.12 6
  114.0 12.69 12
  114.1 20.53 20
  114.2 21.69 21
  114.3 14.64 14
  114.5 3.68 3
  114.6 10.85 10
  114.7 21.93 21
  114.8 27.75 27
  114.9 23.37 23
  115.0 12.59 12
  115.2 6.31 6
  115.3 15.85 15
  115.4 24.95 24
  115.5 26.19 26
  115.6 19.41 19
  116.5 10.85 10
  116.6 16.57 16
  116.7 20.88 20
  116.8 18.9 18
  116.9 11.06 11
  117.1 4.31 4
  117.2 13.08 13
  117.3 22.93 22
  117.4 25.3 25
  117.5 18.9 18
  118.3 7.96 7
  118.4 14.46 14
  118.5 23.04 23
  118.6 26.21 26
  118.7 21.14 21
  118.8 12.17 12
  119.0 6.89 6
  119.1 13.5 13
  119.2 21.58 21
  119.3 25.07 25
  119.4 20.69 20
  119.5 12.24 12
  119.7 11.45 11
  119.8 18.88 18
  119.9 22.39 22
  120.0 18.67 18
  120.1 11.24 11
  120.3 7.8 7
  120.4 14.41 14
  120.5 20.88 20
  120.6 21.53 21
  120.7 15.6 15
  120.9 7.84 7
  121.0 14.76 14
  121.1 24.37 24
  121.2 29.17 29
  121.3 25.3 25
  121.4 15.85 15
  121.6 8.71 8
  121.7 16.11 16
  121.8 23.42 23
  121.9 23.53 23
  122.0 16.27 16
  122.2 8.47 8
  122.3 16.43 16
  122.4 25.37 25
  122.5 26.82 26
  122.6 19.44 19
  123.5 10.5 10
  123.6 18.09 18
  123.7 23.37 23
  123.8 20.93 20
  123.9 12.71 12
  124.1 5.61 5
  124.2 13.13 13
  124.3 23.0 22
  124.4 27.82 27
  124.5 23.93 23
  124.6 14.64 14
  124.8 8.22 8
  124.9 15.27 15
  125.0 22.14 22
  125.1 22.84 22
  125.2 17.16 17
  125.4 8.71 8
  125.5 13.76 13
  125.6 21.04 21
  125.7 23.98 23
  125.8 19.97 19
  126.1 11.82 11
  126.2 18.72 18
  126.3 22.7 22
  126.4 19.88 19
  126.5 12.83 12
  126.7 7.87 7
  126.8 13.27 13
  126.9 19.95 19
  127.0 23.39 23
  127.1 21.62 21
  127.2 16.62 16
  127.4 13.83 13
  127.5 17.64 17
  127.6 19.74 19
  127.7 17.2 17
  127.9 9.61 9
  128.0 13.48 13
  128.1 21.32 21
  128.2 26.4 26
  128.3 24.07 24
  128.4 16.13 16
  128.6 8.45 8
  128.7 13.36 13
  128.8 18.85 18
  128.9 19.86 19
  129.0 15.67 15
  129.2 8.43 8
  129.3 12.73 12
  129.4 20.48 20
  129.5 25.58 25
  129.6 23.46 23
  129.7 15.69 15
  129.9 9.45 9
  130.0 16.15 16
  130.1 23.07 23
  130.2 24.16 24
  130.3 18.41 18
  130.6 10.36 10
  130.7 17.99 17
  130.8 22.56 22
  130.9 20.25 20
  131.0 13.94 13
  131.2 12.38 12
  131.3 18.44 18
  131.4 21.88 21
  131.5 18.81 18
  131.6 11.43 11
  131.8 7.98 7
  131.9 15.69 15
  132.0 22.95 22
  132.1 23.3 23
  132.2 16.2 16
  132.4 4.73 4
  132.5 10.61 10
  132.6 20.69 20
  132.7 26.61 26
  132.8 23.14 23
  132.9 13.36 13
  133.1 7.59 7
  133.2 15.6 15
  133.3 22.3 22
  133.4 21.74 21
  133.5 14.78 14
  133.7 7.4 7
  133.8 14.08 14
  133.9 22.32 22
  134.0 24.79 24
  134.1 19.09 19
  134.4 10.34 10
  134.5 18.65 18
  134.6 23.93 23
  134.7 22.11 22
  134.8 15.22 15
  135.0 8.12 8
  135.1 13.9 13
  135.2 21.3 21
  135.3 23.7 23
  135.4 18.69 18
  135.6 6.89 6
  135.7 11.31 11
  135.8 20.83 20
  135.9 27.61 27
  136.0 25.79 25
  136.1 16.71 16
  136.3 5.8 5
  136.4 11.01 10
  136.5 17.74 17
  136.6 19.95 19
  136.7 16.67 16
  136.9 11.1 11
  137.0 14.46 14
  137.1 19.06 19
  137.2 21.14 21
  137.3 18.62 18
  137.6 12.08 12
  137.7 20.3 20
  137.8 27.16 27
  137.9 25.86 25
  138.0 16.6 16
  138.2 4.42 4
  138.3 11.36 11
  138.4 21.46 21
  138.5 25.74 25
  138.6 20.41 20
  138.7 10.71 10
  138.9 9.92 9
  139.0 18.88 18
  139.1 24.28 24
  139.2 21.58 21
  139.3 13.83 13
  139.5 10.71 10
  139.6 17.3 17
  139.7 21.83 21
  139.8 20.25 20
  139.9 13.99 13
  140.1 7.5 7
  140.2 14.11 14
  140.3 23.7 23
  140.4 28.61 28
  140.5 24.26 24
  140.6 14.25 14
  140.8 9.92 9
  140.9 18.39 18
  141.0 24.16 24
  141.1 21.09 21
  141.2 11.2 11
  141.4 3.56 3
  141.5 13.34 13
  141.6 24.12 24
  141.7 26.12 26
  141.8 17.13 17
  142.0 0.0 0
  142.1 6.82 6
  142.2 19.55 19
  142.3 28.07 28
  142.4 26.0 25
  142.5 15.74 15
  142.7 4.63 4
  142.8 11.99 11
  142.9 20.74 20
  143.0 22.88 22
  143.1 17.27 17
  143.3 9.19 9
  143.4 15.6 15
  143.5 23.81 23
  143.6 26.23 26
  143.7 20.46 20
  144.0 10.8 10
  144.1 18.97 18
  144.2 23.51 23
  144.3 19.3 19
  144.4 9.61 9
  144.6 4.96 4
  144.7 13.64 13
  144.8 21.88 21
  144.9 23.58 23
  145.0 18.16 18
  145.1 10.45 10
  145.3 9.26 9
  145.4 15.39 15
  145.5 19.6 19
  145.6 18.62 18
  145.9 12.8 12
  146.0 17.57 17
  146.1 20.69 20
  146.2 18.62 18
  146.3 12.43 12
  146.5 8.8 8
  146.6 16.62 16
  146.7 24.88 24
  146.8 26.33 26
  146.9 19.04 19
  147.0 8.54 8
  147.2 6.94 6
  147.3 16.99 16
  147.4 24.95 24
  147.5 24.21 24
  147.6 15.62 15
  147.8 4.17 4
  147.9 9.61 9
  148.0 18.23 18
  148.1 23.23 23
  148.2 20.86 20
  148.3 13.64 13
  148.5 9.31 9
  148.6 14.64 14
  148.7 18.92 18
  148.8 18.41 18
  148.9 13.5 13
  149.1 7.66 7
  149.2 13.57 13
  149.3 21.44 21
  149.4 24.16 24
  149.5 19.67 19
  149.7 11.08 11
  149.8 16.15 16
  149.9 23.25 23
  150.0 25.49 25
  150.1 20.39 20
  150.2 12.31 12
  150.4 10.34 10
  150.5 16.83 16
  150.6 21.65 21
  150.7 20.25 20
  150.8 13.27 13
  151.0 5.07 5
  151.1 11.27 11
  151.2 20.34 20
  151.3 25.0 24
  151.4 21.21 21
  151.5 12.83 12
  151.7 10.92 10
  151.8 17.5 17
  151.9 20.69 20
  152.0 17.81 17
  152.3 12.1 12
  152.4 19.53 19
  152.5 25.05 25
  152.6 22.93 22
  152.7 13.73 13
  152.9 3.14 3
  153.0 9.5 9
  153.1 17.71 17
  153.2 21.32 21
  153.3 18.76 18
  154.2 1.14 1
  154.3 8.89 8
  154.4 19.86 19
  154.5 25.02 24
  154.6 21.28 21
  154.7 13.71 13
  154.9 12.29 12
  155.0 17.69 17
  155.1 20.16 20
  155.2 16.32 16
  155.5 7.73 7
  155.6 17.39 17
  155.7 25.42 25
  155.8 25.88 25
  155.9 19.74 19
  156.7 6.47 6
  156.8 11.27 11
  156.9 19.62 19
  157.0 24.35 24
  157.1 21.81 21
  157.2 14.57 14
  157.4 8.71 8
  157.5 15.48 15
  157.6 23.3 23
  157.7 24.67 24
  157.8 17.2 17
  158.1 8.22 8
  158.2 17.71 17
  158.3 23.02 22
  158.4 19.95 19
  158.5 11.76 11
  158.7 8.94 8
  158.8 17.74 17
  158.9 24.74 24
  159.0 23.09 23
  159.1 13.62 13
  159.3 3.19 3
  159.4 11.2 11
  159.5 21.42 21
  159.6 25.72 25
  159.7 21.25 21
  159.8 12.43 12
  160.0 9.5 9
  160.1 17.39 17
  160.2 22.74 22
  160.3 19.93 19
  160.4 10.8 10
  160.6 3.75 3
  160.7 12.59 12
  160.8 22.72 22
  160.9 25.7 25
  161.0 19.18 19
  161.3 9.5 9
  161.4 17.99 17
  161.5 22.77 22
  161.6 19.72 19
  161.7 11.43 11
  161.9 5.77 5
  162.0 13.64 13
  162.1 21.76 21
  162.2 22.93 22
  162.3 16.34 16
  162.5 6.73 6
  162.6 12.71 12
  162.7 20.83 20
  162.8 23.88 23
  162.9 19.25 19
  163.0 11.27 11
  163.2 9.22 9
  163.3 15.97 15
  163.4 21.14 21
  163.5 20.37 20
  163.6 14.43 14
  163.8 8.24 8
  163.9 13.24 13
  164.0 18.51 18
  164.1 18.62 18
  164.2 12.97 12
  164.4 3.35 3
  164.5 7.89 7
  164.6 16.64 16
  164.7 22.97 22
  164.8 21.97 21
  164.9 15.15 15
  165.1 9.57 9
  165.2 15.41 15
  165.3 20.86 20
  165.4 20.83 20
  165.5 15.6 15
  165.7 10.27 10
  165.8 15.76 15
  165.9 21.95 21
  166.0 23.0 22
  166.1 17.32 17
  166.4 8.47 8
  166.5 16.18 16
  166.6 21.76 21
  166.7 21.04 21
  166.8 15.08 15
  167.0 7.12 7
  167.1 12.1 12
  167.2 20.25 20
  167.3 24.88 24
  167.4 22.09 22
  167.5 14.43 14
  167.7 8.89 8
  167.8 14.62 14
  167.9 19.62 19
  168.0 18.88 18
  168.1 13.06 13
  168.3 8.82 8
  168.4 14.97 14
  168.5 20.69 20
  168.6 20.97 20
  168.7 16.34 16
  168.9 11.99 11
  169.0 16.85 16
  169.1 22.93 22
  169.2 25.28 25
  169.3 20.76 20
  169.4 11.41 11
  169.6 5.8 5
  169.7 15.08 15
  169.8 23.84 23
  169.9 24.19 24
  170.0 16.6 16
  170.2 8.19 8
  170.3 14.92 14
  170.4 22.42 22
  170.5 23.32 23
  170.6 15.99 15
  170.9 6.7 6
  171.0 16.83 16
  171.1 24.63 24
  171.2 24.56 24
  171.3 17.71 17
  171.5 11.1 11
  171.6 17.41 17
  171.7 22.86 22
  171.8 20.88 20
  171.9 12.08 12
  172.1 1.93 1
  172.2 8.26 8
  172.3 17.53 17
  172.4 23.04 23
  172.5 21.11 21
  172.6 14.06 14
  172.8 10.96 10
  172.9 18.53 18
  173.0 23.79 23
  173.1 20.83 20
  173.2 11.82 11
  173.4 5.21 5
  173.5 12.87 12
  173.6 21.04 21
  173.7 23.37 23
  173.8 18.46 18
  174.1 10.68 10
  174.2 18.62 18
  174.3 23.7 23
  174.4 21.37 21
  174.5 13.97 13
  174.7 8.71 8
  174.8 13.59 13
  174.9 17.81 17
  175.0 17.78 17
  175.1 13.94 13
  175.3 8.66 8
  175.4 12.97 12
  175.5 20.55 20
  175.6 25.61 25
  175.7 22.97 22
  175.8 14.01 13
  176.0 7.54 7
  176.1 15.67 15
  176.2 22.65 22
  176.3 21.69 21
  176.4 14.08 14
  176.6 7.52 7
  176.7 14.73 14
  176.8 23.14 23
  176.9 26.16 26
  177.0 21.65 21
  177.1 13.34 13
  177.3 10.47 10
  177.4 19.27 19
  177.5 27.4 27
  177.6 27.37 27
  177.7 18.62 18
  178.5 4.8 4
  178.6 9.92 9
  178.7 19.46 19
  178.8 24.44 24
  178.9 20.3 20
  179.8 4.38 4
  179.9 13.38 13
  180.0 23.53 23
  180.1 27.07 27
  180.2 22.0 21
  180.3 13.13 13
  180.5 10.15 10
  180.6 16.76 16
  180.7 20.76 20
  180.8 18.39 18
  181.1 11.31 11
  181.2 18.69 18
  181.3 24.44 24
  181.4 23.14 23
  181.5 15.57 15
  181.7 6.63 6
  181.8 11.89 11
  181.9 18.48 18
  182.0 20.44 20
  182.1 16.57 16
  182.4 11.85 11
  182.5 17.36 17
  182.6 21.35 21
  182.7 20.07 20
  182.8 13.62 13
  183.0 7.22 7
  183.1 14.18 14
  183.2 21.88 21
  183.3 23.28 23
  183.4 17.11 17
  183.6 6.19 6
  183.7 11.29 11
  183.8 19.95 19
  183.9 24.7 24
  184.0 21.49 21
  184.1 13.01 12
  184.3 8.22 8
  184.4 15.53 15
  184.5 21.49 21
  184.6 20.76 20
  184.7 14.71 14
  184.9 8.85 8
  185.0 14.04 14
  185.1 21.09 21
  185.2 24.21 24
  185.3 19.79 19
  185.4 10.47 10
  185.6 6.89 6
  185.7 17.2 17
  185.8 26.49 26
  185.9 26.93 26
  186.0 18.6 18
  186.2 7.7 7
  186.3 14.8 14
  186.4 23.88 23
  186.5 26.09 26
  186.6 18.62 18
  186.8 2.96 2
  186.9 9.31 9
  187.0 21.23 21
  187.1 28.0 27
  187.2 24.28 24
  187.3 14.73 14
  187.5 9.73 9
  187.6 16.01 15
  187.7 20.93 20
  187.8 20.2 20
  187.9 14.36 14
  188.1 7.05 7
  188.2 12.57 12
  188.3 19.69 19
  188.4 21.72 21
  188.5 16.69 16
  188.7 6.38 6
  188.8 10.34 10
  188.9 18.16 18
  189.0 23.46 23
  189.1 22.09 22
  189.2 15.36 15
  189.4 9.1 9
  189.5 15.43 15
  189.6 22.56 22
  189.7 23.95 23
  189.8 18.41 18
  190.0 8.71 8
  190.1 13.43 13
  190.2 22.07 22
  190.3 28.05 28
  190.4 25.98 25
  190.5 16.6 16
  190.7 5.84 5
  190.8 12.38 12
  190.9 20.25 20
  191.0 22.44 22
  191.1 17.99 17
  191.3 11.08 11
  191.4 16.57 16
  191.5 23.51 23
  191.6 25.33 25
  191.7 20.48 20
  191.8 13.31 13
  192.0 10.64 10
  192.1 15.76 15
  192.2 20.23 20
  192.3 20.07 20
  192.4 15.2 15
  192.6 10.31 10
  192.7 16.27 16
  192.8 22.91 22
  192.9 23.53 23
  193.0 16.83 16
  193.2 6.1 6
  193.3 11.24 11
  193.4 18.9 18
  193.5 22.49 22
  193.6 19.32 19
  193.9 10.92 10
  194.0 19.44 19
  194.1 26.09 26
  194.2 24.58 24
  194.3 15.97 15
  194.5 6.7 6
  194.6 13.36 13
  194.7 21.83 21
  194.8 24.79 24
  194.9 19.74 19
  195.0 10.99 10
  195.2 8.45 8
  195.3 15.78 15
  195.4 21.6 21
  195.5 21.37 21
  195.6 15.95 15
  195.8 10.8 10
  195.9 17.3 17
  196.0 24.46 24
  196.1 24.91 24
  196.2 16.71 16
  196.5 7.94 7
  196.6 17.36 17
  196.7 22.58 22
  196.8 19.88 19
  196.9 12.57 12
  197.1 8.03 8
  197.2 14.5 14
  197.3 21.95 21
  197.4 24.84 24
  197.5 20.67 20
  197.6 12.24 12
  197.8 5.8 5
  197.9 11.62 11
  198.0 17.48 17
  198.1 18.27 18
  198.4 13.76 13
  198.5 19.79 19
  198.6 23.93 23
  198.7 21.6 21
  198.8 13.92 13
  199.0 6.98 6
  199.1 13.29 13
  199.2 20.25 20
  199.3 21.39 21
  199.4 15.41 15
  199.6 6.52 6
  199.7 13.38 13
  199.8 22.25 22
  199.9 25.09 25
  200.0 19.79 19
  200.1 11.34 11
  200.3 8.96 8
  200.4 15.76 15
  200.5 21.39 21
  200.6 21.32 21
  200.7 15.71 15
  200.9 6.66 6
  201.0 10.99 10
  201.1 18.62 18
  201.2 22.88 22
  201.3 20.09 20
  201.4 12.99 12
  201.6 8.31 8
  201.7 14.13 14
  201.8 20.34 20
  201.9 21.55 21
  202.0 16.46 16
  202.2 8.43 8
  202.3 13.85 13
  202.4 21.0 20
  202.5 22.79 22
  202.6 17.11 17
  202.8 5.98 5
  202.9 11.1 11
  203.0 19.62 19
  203.1 23.65 23
  203.2 19.6 19
  203.3 11.82 11
  203.5 10.78 10
  203.6 17.48 17
  203.7 22.11 22
  203.8 21.25 21
  203.9 15.71 15
  204.1 7.54 7
  204.2 11.69 11
  204.3 18.69 18
  204.4 22.16 22
  204.5 18.92 18
  204.6 12.15 12
  204.8 9.52 9
  204.9 15.13 15
  205.0 20.37 20
  205.1 21.18 21
  205.2 16.99 16
  205.4 12.06 12
  205.5 18.9 18
  205.6 26.3 26
  205.7 26.23 26
  205.8 17.39 17
  206.0 4.98 4
  206.1 12.1 12
  206.2 22.11 22
  206.3 26.44 26
  206.4 21.6 21
  206.5 11.71 11
  206.7 6.22 6
  206.8 14.25 14
  206.9 22.14 22
  207.0 23.58 23
  207.1 17.95 17
  207.3 8.85 8
  207.4 14.11 14
  207.5 21.21 21
  207.6 22.56 22
  207.7 16.2 16
  207.9 5.1 5
  208.0 9.59 9
  208.1 17.32 17
  208.2 22.49 22
  208.3 21.83 21
  208.4 16.32 16
  208.6 8.64 8
  208.7 12.48 12
  208.8 18.04 18
  208.9 19.88 19
  209.0 16.39 16
  209.2 9.85 9
  209.3 14.5 14
  209.4 21.62 21
  209.5 25.35 25
  209.6 22.7 22
  209.7 15.57 15
  209.9 7.19 7
  210.0 12.76 12
  210.1 21.39 21
  210.2 25.28 25
  210.3 20.04 20
  210.4 10.08 10
  210.6 8.85 8
  210.7 18.37 18
  210.8 23.67 23
  210.9 19.74 19
  211.2 10.36 10
  211.3 18.97 18
  211.4 23.91 23
  211.5 20.76 20
  211.6 12.48 12
  211.8 6.28 6
  211.9 13.08 13
  212.0 21.69 21
  212.1 25.93 25
  212.2 22.39 22
  212.3 13.92 13
  212.5 7.73 7
  212.6 12.92 12
  212.7 17.5 17
  212.8 17.2 17
  212.9 11.96 11
  213.1 5.45 5
  213.2 11.8 11
  213.3 20.81 20
  213.4 24.79 24
  213.5 20.16 20
  213.6 11.31 11
  213.8 10.08 10
  213.9 17.53 17
  214.0 21.69 21
  214.1 19.16 19
  214.2 12.22 12
  214.4 6.47 6
  214.5 13.18 13
  214.6 21.3 21
  214.7 23.77 23
  214.8 18.65 18
  214.9 10.82 10
  215.1 9.33 9
  215.2 15.29 15
  215.3 19.41 19
  215.4 18.6 18
  215.6 13.08 13
  215.7 16.27 16
  215.8 21.83 21
  215.9 24.37 24
  216.0 20.95 20
  216.1 13.9 13
  216.3 9.45 9
  216.4 14.9 14
  216.5 20.04 20
  216.6 19.93 19
  216.7 14.2 14
  216.9 6.56 6
  217.0 11.73 11
  217.1 18.76 18
  217.2 21.83 21
  217.3 18.53 18
  217.4 11.62 11
  217.6 8.45 8
  217.7 15.57 15
  217.8 22.16 22
  217.9 22.23 22
  218.0 15.95 15
  218.2 9.12 9
  218.3 14.66 14
  218.4 20.6 20
  218.5 21.39 21
  218.6 16.48 16
  218.8 8.43 8
  218.9 12.45 12
  219.0 19.39 19
  219.1 23.74 23
  219.2 22.02 21
  219.3 15.92 15
  219.5 10.66 10
  219.6 15.71 15
  219.7 21.21 21
  219.8 22.25 22
  219.9 18.25 18
  220.2 12.78 12
  220.3 16.64 16
  220.4 19.06 19
  220.5 17.5 17
  220.7 10.45 10
  220.8 13.62 13
  220.9 21.21 21
  221.0 26.72 26
  221.1 24.7 24
  221.2 16.46 16
  221.4 8.57 8
  221.5 14.29 14
  221.6 20.79 20
  221.7 22.46 22
  221.8 17.76 17
  221.9 10.27 10
  222.1 9.15 9
  222.2 16.34 16
  222.3 21.21 21
  222.4 19.74 19
  222.5 13.24 13
  222.7 5.14 5
  222.8 10.22 10
  222.9 18.41 18
  223.0 22.93 22
  223.1 19.81 19
  223.3 10.2 10
  223.4 15.36 15
  223.5 23.93 23
  223.6 27.96 27
  223.7 23.42 23
  223.8 13.41 13
  224.0 5.03 5
  224.1 11.48 11
  224.2 18.37 18
  224.3 19.39 19
  224.4 14.59 14
  224.6 10.38 10
  224.7 16.41 16
  224.8 22.39 22
  224.9 22.6 22
  225.0 16.15 16
  225.3 8.36 8
  225.4 16.99 16
  225.5 22.58 22
  225.6 20.53 20
  225.7 13.22 13
  225.9 8.1 8
  226.0 14.53 14
  226.1 20.86 20
  226.2 21.37 21
  226.3 15.74 15
  226.5 8.33 8
  226.6 13.94 13
  226.7 21.37 21
  226.8 23.65 23
  226.9 17.83 17
  227.0 8.15 8
  227.2 6.7 6
  227.3 16.36 16
  227.4 23.65 23
  227.5 23.25 23
  227.6 16.92 16
  227.8 9.99 9
  227.9 14.57 14
  228.0 20.25 20
  228.1 21.51 21
  228.2 16.06 16
  228.4 3.86 3
  228.5 8.47 8
  228.6 17.88 17
  228.7 23.84 23
  228.8 21.69 21
  228.9 14.43 14
  229.1 10.29 10
  229.2 16.83 16
  229.3 23.16 23
  229.4 23.56 23
  229.5 17.13 17
  229.8 8.68 8
  229.9 15.6 15
  230.0 19.55 19
  230.1 17.62 17
  230.4 11.01 10
  230.5 16.92 16
  230.6 21.25 21
  230.7 19.83 19
  230.8 13.9 13
  231.0 10.71 10
  231.1 17.04 17
  231.2 22.77 22
  231.3 23.35 23
  231.4 18.78 18
  231.7 11.06 11
  231.8 17.76 17
  231.9 24.05 24
  232.0 24.09 24
  232.1 17.3 17
  232.3 8.57 8
  232.4 15.06 15
  232.5 22.95 22
  232.6 24.42 24
  232.7 17.5 17
  232.9 5.24 5
  233.0 11.5 11
  233.1 21.11 21
  233.2 25.07 25
  233.3 20.3 20
  233.5 10.17 10
  233.6 15.62 15
  233.7 23.46 23
  233.8 26.37 26
  233.9 21.46 21
  234.0 12.01 11
  234.2 5.31 5
  234.3 12.43 12
  234.4 20.07 20
  234.5 22.04 22
  234.6 17.43 17
  234.9 10.36 10
  235.0 16.48 16
  235.1 20.0 19
  235.2 17.06 17
  235.5 6.61 6
  235.6 16.99 16
  235.7 27.23 27
  235.8 29.24 29
  235.9 21.55 21
  236.0 10.75 10
  236.2 9.05 9
  236.3 18.83 18
  236.4 26.56 26
  236.5 25.81 25
  236.6 17.34 17
  236.8 8.59 8
  236.9 15.55 15
  237.0 22.28 22
  237.1 21.86 21
  237.2 14.99 14
  237.4 9.73 9
  237.5 16.92 16
  237.6 24.21 24
  237.7 25.65 25
  237.8 20.53 20
  237.9 13.01 12
  238.1 11.17 11
  238.2 17.46 17
  238.3 22.21 22
  238.4 21.09 21
  238.5 15.11 15
  238.7 9.45 9
  238.8 14.22 14
  238.9 18.97 18
  239.0 18.95 18
  239.1 14.18 14
  239.3 8.89 8
  239.4 14.25 14
  239.5 21.79 21
  239.6 25.35 25
  239.7 21.42 21
  239.8 12.73 12
  240.0 8.43 8
  240.1 15.92 15
  240.2 21.18 21
  240.3 18.16 18
  240.4 8.99 8
  240.6 3.75 3
  240.7 12.2 12
  240.8 20.02 19
  240.9 21.39 21
  241.0 16.71 16
  241.2 10.45 10
  241.3 15.01 14
  241.4 21.42 21
  241.5 24.21 24
  241.6 20.27 20
  241.7 12.45 12
  241.9 10.15 10
  242.0 17.71 17
  242.1 23.42 23
  242.2 22.3 22
  242.3 15.64 15
  242.5 7.89 7
  242.6 12.45 12
  242.7 18.41 18
  242.8 20.62 20
  242.9 17.3 17
  243.2 10.5 10
  243.3 18.55 18
  243.4 25.61 25
  243.5 24.81 24
  243.6 16.13 16
  243.8 5.59 5
  243.9 11.31 11
  244.0 17.97 17
  244.1 19.86 19
  244.2 16.32 16
  244.4 9.73 9
  244.5 13.55 13
  244.6 20.0 19
  244.7 23.56 23
  244.8 20.93 20
  244.9 14.48 14
  245.1 12.13 12
  245.2 18.3 18
  245.3 23.25 23
  245.4 22.65 22
  245.5 16.99 16
  245.7 9.61 9
  245.8 13.97 13
  245.9 20.51 20
  246.0 23.46 23
  246.1 19.58 19
  246.2 11.45 11
  246.4 8.96 8
  246.5 17.25 17
  246.6 23.56 23
  246.7 22.53 22
  246.8 15.81 15
  247.0 10.13 10
  247.1 16.62 16
  247.2 24.39 24
  247.3 27.14 27
  247.4 21.86 21
  247.5 11.96 11
  247.7 9.17 9
  247.8 18.95 18
  247.9 25.79 25
  248.0 23.28 23
  248.1 14.2 14
  248.3 9.78 9
  248.4 19.13 19
  248.5 27.14 27
  248.6 26.58 26
  248.7 18.2 18
  248.9 7.45 7
  249.0 12.62 12
  249.1 19.81 19
  249.2 23.23 23
  249.3 20.86 20
  249.4 15.04 15
  249.6 11.69 11
  249.7 17.11 17
  249.8 21.44 21
  249.9 19.79 19
  250.0 13.31 13
  250.2 8.85 8
  250.3 15.29 15
  250.4 21.95 21
  250.5 23.3 23
  250.6 18.04 18
  250.9 10.89 10
  251.0 19.25 19
  251.1 25.02 24
  251.2 23.46 23
  251.3 16.04 16
  251.5 8.31 8
  251.6 13.18 13
  251.7 18.9 18
  251.8 20.25 20
  251.9 16.01 15
  252.1 7.68 7
  252.2 12.2 12
  252.3 20.14 20
  252.4 24.63 24
  252.5 21.21 21
  252.6 12.41 12
  252.8 7.1 7
  252.9 14.87 14
  253.0 22.04 22
  253.1 22.11 22
  253.2 15.08 15
  253.4 6.12 6
  253.5 12.62 12
  253.6 21.07 21
  253.7 24.26 24
  253.8 19.72 19
  253.9 11.5 11
  254.1 8.68 8
  254.2 16.43 16
  254.3 22.04 22
  254.4 19.46 19
  254.5 10.64 10
  254.7 5.61 5
  254.8 14.94 14
  254.9 25.09 25
  255.0 28.77 28
  255.1 23.25 23
  255.2 13.13 13
  255.4 9.73 9
  255.5 18.27 18
  255.6 24.05 24
  255.7 21.72 21
  255.8 14.22 14
  256.0 11.01 10
  256.1 16.53 16
  256.2 19.55 19
  256.3 17.02 17
  256.4 11.06 11
  256.6 6.77 6
  256.7 13.5 13
  256.8 22.51 22
  256.9 26.82 26
  257.0 22.56 22
  257.1 13.31 13
  257.3 7.96 7
  257.4 14.5 14
  257.5 20.37 20
  257.6 20.69 20
  257.7 15.57 15
  257.9 7.8 7
  258.0 11.99 11
  258.1 18.34 18
  258.2 20.93 20
  258.3 17.41 17
  258.5 10.54 10
  258.6 15.29 15
  258.7 21.81 21
  258.8 24.14 24
  258.9 19.72 19
  259.0 11.38 11
  259.2 7.47 7
  259.3 14.97 14
  259.4 20.74 20
  259.5 19.09 19
  259.6 11.87 11
  259.8 7.57 7
  259.9 15.48 15
  260.0 23.98 23
  260.1 26.28 26
  260.2 20.48 20
  260.3 11.03 11
  260.5 7.45 7
  260.6 15.71 15
  260.7 22.95 22
  260.8 23.3 23
  260.9 17.46 17
  261.1 10.64 10
  261.2 14.92 14
  261.3 19.48 19
  261.4 19.39 19
  261.5 14.04 14
  261.7 7.4 7
  261.8 13.55 13
  261.9 21.83 21
  262.0 25.09 25
  262.1 20.41 20
  262.2 11.92 11
  262.4 9.52 9
  262.5 16.55 16
  262.6 21.93 21
  262.7 20.95 20
  262.8 14.53 14
  263.0 7.8 7
  263.1 13.18 13
  263.2 19.27 19
  263.3 20.62 20
  263.4 16.2 16
  263.7 10.57 10
  263.8 17.16 17
  263.9 21.35 21
  264.0 19.34 19
  264.1 12.78 12
  264.3 9.19 9
  264.4 16.34 16
  264.5 22.42 22
  264.6 21.72 21
  264.7 15.41 15
  264.9 11.59 11
  265.0 18.06 18
  265.1 23.56 23
  265.2 23.04 23
  265.3 16.76 16
  265.5 8.29 8
  265.6 12.83 12
  265.7 19.88 19
  265.8 23.74 23
  265.9 21.3 21
  266.0 14.39 14
  266.2 8.36 8
  266.3 13.38 13
  266.4 18.92 18
  266.5 20.48 20
  266.6 17.25 17
  266.9 11.85 11
  267.0 18.44 18
  267.1 23.42 23
  267.2 21.67 21
  267.3 14.15 14
  267.5 8.38 8
  267.6 15.04 15
  267.7 20.16 20
  267.8 18.39 18
  267.9 11.78 11
  268.1 7.54 7
  268.2 13.01 12
  268.3 18.58 18
  268.4 19.88 19
  268.5 16.11 16
  268.7 8.03 8
  268.8 11.08 11
  268.9 17.76 17
  269.0 23.21 23
  269.1 22.95 22
  269.2 16.6 16
  269.4 6.77 6
  269.5 12.01 11
  269.6 19.51 19
  269.7 21.69 21
  269.8 16.15 16
  270.1 8.52 8
  270.2 16.92 16
  270.3 22.91 22
  270.4 22.39 22
  270.5 16.64 16
  270.7 8.85 8
  270.8 12.2 12
  270.9 17.81 17
  271.0 20.65 20
  271.1 17.57 17
  271.3 8.4 8
  271.4 13.18 13
  271.5 21.6 21
  271.6 25.37 25
  271.7 20.46 20
  272.0 10.06 10
  272.1 19.32 19
  272.2 24.95 24
  272.3 21.04 21
  272.4 10.47 10
  272.6 2.49 2
  272.7 10.94 10
  272.8 20.18 20
  272.9 22.88 22
  273.0 17.71 17
  273.3 11.59 11
  273.4 18.81 18
  273.5 23.63 23
  273.6 22.35 22
  273.7 15.69 15
  273.9 7.17 7
  274.0 12.31 12
  274.1 19.51 19
  274.2 22.28 22
  274.3 18.27 18
  274.5 8.68 8
  274.6 12.97 12
  274.7 20.58 20
  274.8 23.77 23
  274.9 18.88 18
  275.0 10.13 10
  275.2 8.47 8
  275.3 16.41 16
  275.4 22.21 22
  275.5 20.93 20
  275.6 13.57 13
  275.8 6.03 6
  275.9 13.24 13
  276.0 22.16 22
  276.1 25.02 24
  276.2 19.74 19
  277.1 4.17 4
  277.2 12.85 12
  277.3 23.81 23
  277.4 27.23 27
  277.5 20.55 20
  278.4 9.19 9
  278.5 15.57 15
  278.6 20.39 20
  278.7 19.39 19
  278.8 13.45 13
  279.0 9.36 9
  279.1 16.36 16
  279.2 23.32 23
  279.3 24.0 23
  279.4 17.53 17
  279.7 9.01 9
  279.8 17.36 17
  279.9 23.42 23
  280.0 22.44 22
  280.1 15.22 15
  280.3 6.56 6
  280.4 12.34 12
  280.5 19.6 19
  280.6 21.79 21
  280.7 17.41 17
  280.9 8.66 8
  281.0 12.9 12
  281.1 20.02 19
  281.2 23.32 23
  281.3 19.13 19
  281.4 10.78 10
  281.6 7.43 7
  281.7 15.22 15
  281.8 22.04 22
  281.9 22.07 22
  282.0 15.36 15
  282.2 8.12 8
  282.3 15.6 15
  282.4 24.09 24
  282.5 25.42 25
  282.6 17.9 17
  282.8 5.35 5
  282.9 11.01 10
  283.0 18.97 18
  283.1 21.35 21
  283.2 16.29 16
  283.5 9.43 9
  283.6 16.57 16
  283.7 21.35 21
  283.8 20.23 20
  283.9 14.62 14
  284.1 9.17 9
  284.2 14.36 14
  284.3 21.11 21
  284.4 23.91 23
  284.5 19.95 19
  284.6 11.96 11
  284.8 7.82 7
  284.9 15.29 15
  285.0 22.56 22
  285.1 23.49 23
  285.2 17.3 17
  285.4 7.38 7
  285.5 12.99 12
  285.6 20.72 20
  285.7 22.3 22
  285.8 15.64 15
  286.0 5.84 5
  286.1 12.45 12
  286.2 21.3 21
  286.3 25.12 25
  286.4 21.39 21
  286.5 13.83 13
  286.7 9.64 9
  286.8 15.29 15
  286.9 20.44 20
  287.0 20.23 20
  287.1 14.27 14
  287.3 6.03 6
  287.4 11.94 11
  287.5 20.48 20
  287.6 24.46 24
  287.7 20.62 20
  287.8 12.57 12
  288.0 8.96 8
  288.1 15.85 15
  288.2 21.74 21
  288.3 21.51 21
  288.4 15.69 15
  288.6 9.78 9
  288.7 15.53 15
  288.8 22.02 21
  288.9 23.42 23
  289.0 18.72 18
  289.2 10.57 10
  289.3 14.55 14
  289.4 20.95 20
  289.5 24.02 23
  289.6 20.67 20
  289.7 13.24 13
  289.9 9.96 9
  290.0 18.11 18
  290.1 25.86 25
  290.2 26.26 26
  290.3 18.09 18
  290.5 3.84 3
  290.6 9.87 9
  290.7 20.0 19
  290.8 24.86 24
  290.9 20.93 20
  291.0 13.27 13
  291.2 11.99 11
  291.3 18.13 18
  291.4 22.28 22
  291.5 20.93 20
  291.6 15.64 15
  291.8 12.59 12
  291.9 17.81 17
  292.0 22.88 22
  292.1 23.14 23
  292.2 17.43 17
  292.5 9.94 9
  292.6 16.92 16
  292.7 21.0 20
  292.8 18.46 18
  292.9 11.45 11
  293.1 8.64 8
  293.2 17.41 17
  293.3 25.51 25
  293.4 25.93 25
  293.5 18.18 18
  293.8 9.73 9
  293.9 18.18 18
  294.0 22.67 22
  294.1 19.62 19
  294.2 12.17 12
  294.4 8.22 8
  294.5 15.15 15
  294.6 22.11 22
  294.7 22.81 22
  294.8 16.22 16
  295.0 7.38 7
  295.1 14.08 14
  295.2 22.37 22
  295.3 24.63 24
  295.4 19.06 19
  295.5 10.59 10
  295.7 9.59 9
  295.8 17.57 17
  295.9 23.56 23
  296.0 21.95 21
  296.1 13.78 13
  296.3 6.33 6
  296.4 15.11 15
  296.5 25.37 25
  296.6 28.45 28
  296.7 21.62 21
  296.8 11.2 11
  297.0 10.94 10
  297.1 19.32 19
  297.2 23.44 23
  297.3 19.81 19
  297.4 11.92 11
  297.6 7.31 7
  297.7 13.94 13
  297.8 20.18 20
  297.9 20.04 20
  298.0 13.62 13
  298.2 8.5 8
  298.3 16.18 16
  298.4 23.35 23
  298.5 23.25 23
  298.6 15.9 15
  298.8 7.12 7
  298.9 14.39 14
  299.0 24.05 24
  299.1 28.42 28
  299.2 24.35 24
  299.3 15.06 15
  299.5 5.31 5
  299.6 10.31 10
  299.7 17.2 17
  299.8 20.0 19
  299.9 16.9 16
  300.1 10.57 10
  300.2 15.15 15
  300.3 22.16 22
  300.4 25.44 25
  300.5 21.83 21
  300.6 14.22 14
  300.8 9.36 9
  300.9 13.71 13
  301.0 17.2 17
  301.1 17.06 17
  301.2 13.85 13
  301.4 9.5 9
  301.5 13.9 13
  301.6 20.93 20
  301.7 24.16 24
  301.8 19.72 19
  302.0 7.8 7
  302.1 13.38 13
  302.2 22.95 22
  302.3 26.98 26
  302.4 21.49 21
  302.5 11.57 11
  302.7 8.26 8
  302.8 15.64 15
  302.9 21.18 21
  303.0 20.23 20
  303.1 13.8 13
  303.3 6.45 6
  303.4 11.94 11
  303.5 19.95 19
  303.6 24.05 24
  303.7 20.18 20
  304.0 9.26 9
  304.1 19.37 19
  304.2 26.12 26
  304.3 23.3 23
  304.4 13.83 13
  304.6 6.05 6
  304.7 12.62 12
  304.8 19.88 19
  304.9 22.07 22
  305.0 18.37 18
  305.2 11.73 11
  305.3 15.39 15
  305.4 20.86 20
  305.5 23.25 23
  305.6 19.76 19
  305.7 12.06 12
  305.9 6.63 6
  306.0 13.59 13
  306.1 20.62 20
  306.2 21.21 21
  306.3 14.83 14
  306.5 7.22 7
  306.6 13.83 13
  306.7 21.37 21
  306.8 23.02 22
  306.9 17.81 17
  307.2 9.73 9
  307.3 16.67 16
  307.4 22.58 22
  307.5 22.74 22
  307.6 16.53 16
  307.9 8.33 8
  308.0 16.5 16
  308.1 21.49 21
  308.2 18.65 18
  308.5 10.64 10
  308.6 19.16 19
  308.7 24.77 24
  308.8 22.77 22
  308.9 15.29 15
  309.1 7.94 7
  309.2 12.55 12
  309.3 17.74 17
  309.4 18.18 18
  309.5 12.92 12
  309.7 7.22 7
  309.8 14.83 14
  309.9 23.6 23
  310.0 25.74 25
  310.1 19.41 19
  310.2 10.13 10
  310.4 7.77 7
  310.5 14.9 14
  310.6 20.74 20
  310.7 20.81 20
  310.8 15.5 15
  311.0 9.24 9
  311.1 14.59 14
  311.2 21.11 21
  311.3 22.56 22
  311.4 17.02 17
  311.6 6.1 6
  311.7 11.73 11
  311.8 21.42 21
  311.9 26.19 26
  312.0 21.25 21
  312.1 10.61 10
  312.3 5.54 5
  312.4 15.32 15
  312.5 24.86 24
  312.6 26.3 26
  312.7 18.51 18
  312.9 6.28 6
  313.0 12.87 12
  313.1 21.9 21
  313.2 25.28 25
  313.3 21.16 21
  313.4 14.32 14
  313.6 12.71 12
  313.7 17.62 17
  313.8 20.6 20
  313.9 18.16 18
  314.2 10.08 10
  314.3 19.55 19
  314.4 27.56 27
  314.5 26.68 26
  314.6 17.32 17
  314.8 7.22 7
  314.9 15.74 15
  315.0 25.79 25
  315.1 28.42 28
  315.2 21.46 21
  315.3 10.89 10
  315.5 7.73 7
  315.6 15.46 15
  315.7 21.23 21
  315.8 20.46 20
  315.9 14.59 14
  316.1 9.54 9
  316.2 16.32 16
  316.3 24.65 24
  316.4 27.47 27
  316.5 21.67 21
  316.6 11.82 11
  316.8 9.64 9
  316.9 17.48 17
  317.0 22.3 22
  317.1 20.02 19
  317.2 12.99 12
  317.4 6.66 6
  317.5 12.62 12
  317.6 20.55 20
  317.7 24.21 24
  317.8 20.51 20
  317.9 12.73 12
  318.1 10.34 10
  318.2 17.85 17
  318.3 23.58 23
  318.4 22.35 22
  318.5 15.27 15
  318.7 8.59 8
  318.8 15.01 14
  318.9 22.21 22
  319.0 23.58 23
  319.1 17.57 17
  319.3 6.42 6
  319.4 11.36 11
  319.5 19.79 19
  319.6 24.93 24
  319.7 23.25 23
  319.8 16.78 16
  320.0 11.62 11
  320.1 17.71 17
  320.2 23.65 23
  320.3 23.07 23
  320.4 16.11 16
  320.6 9.03 9
  320.7 14.66 14
  320.8 20.69 20
  320.9 21.9 21
  321.0 17.23 17
  321.3 9.47 9
  321.4 17.02 17
  321.5 22.16 22
  321.6 19.86 19
  321.7 11.94 11
  321.9 7.01 7
  322.0 14.94 14
  322.1 23.39 23
  322.2 25.88 25
  322.3 20.58 20
  322.4 11.85 11
  322.6 9.22 9
  322.7 15.67 15
  322.8 19.65 19
  322.9 17.62 17
  323.2 9.89 9
  323.3 16.85 16
  323.4 23.49 23
  323.5 23.81 23
  323.6 17.11 17
  323.8 9.26 9
  323.9 16.48 16
  324.0 24.21 24
  324.1 24.56 24
  324.2 16.99 16
  324.3 7.98 7
  324.5 7.54 7
  324.6 14.73 14
  324.7 20.88 20
  324.8 21.55 21
  324.9 16.06 16
  325.1 7.87 7
  325.2 13.15 13
  325.3 19.74 19
  325.4 20.93 20
  325.5 15.78 15
  325.7 9.22 9
  325.8 15.22 15
  325.9 22.81 22
  326.0 25.26 25
  326.1 20.16 20
  326.4 11.17 11
  326.5 19.11 19
  326.6 24.14 24
  326.7 21.28 21
  326.8 12.5 12
  327.0 6.63 6
  327.1 15.18 15
  327.2 23.42 23
  327.3 24.35 24
  327.4 18.09 18
  327.6 9.68 9
  327.7 13.94 13
  327.8 19.62 19
  327.9 21.83 21
  328.0 18.6 18
  328.3 11.1 11
  328.4 18.02 18
  328.5 23.46 23
  328.6 22.14 22
  328.7 14.92 14
  328.9 7.89 7
  329.0 15.06 15
  329.1 24.23 24
  329.2 27.75 27
  329.3 22.25 22
  329.4 12.24 12
  329.6 9.68 9
  329.7 19.2 19
  329.8 26.19 26
  329.9 24.26 24
  330.0 15.34 15
  330.2 7.5 7
  330.3 13.52 13
  330.4 19.55 19
  330.5 20.53 20
  330.6 16.25 16
  330.8 8.73 8
  330.9 13.27 13
  331.0 21.65 21
  331.1 26.91 26
  331.2 23.32 23
  331.3 12.64 12
  331.5 2.96 2
  331.6 11.41 11
  331.7 20.69 20
  331.8 22.6 22
  331.9 16.53 16
  332.1 9.38 9
  332.2 16.25 16
  332.3 23.77 23
  332.4 24.84 24
  332.5 18.25 18
  332.8 11.13 11
  332.9 19.32 19
  333.0 23.72 23
  333.1 20.72 20
  333.2 13.18 13
  333.4 9.59 9
  333.5 17.48 17
  333.6 25.47 25
  333.7 27.12 27
  333.8 20.62 20
  333.9 10.71 10
  334.1 7.17 7
  334.2 14.25 14
  334.3 19.11 19
  334.4 17.55 17
  334.5 11.38 11
  334.7 6.89 6
  334.8 13.31 13
  334.9 20.09 20
  335.0 21.09 21
  335.1 15.29 15
  335.3 5.96 5
  335.4 10.75 10
  335.5 18.27 18
  335.6 22.14 22
  335.7 19.13 19
  335.8 12.31 12
  336.0 10.61 10
  336.1 17.99 17
  336.2 23.72 23
  336.3 22.37 22
  336.4 14.46 14
  336.6 4.52 4
  336.7 10.73 10
  336.8 19.48 19
  336.9 22.79 22
  337.0 17.27 17
  337.3 7.03 7
  337.4 16.97 16
  337.5 24.86 24
  337.6 24.63 24
  337.7 17.11 17
  337.9 9.43 9
  338.0 16.85 16
  338.1 24.74 24
  338.2 25.56 25
  338.3 18.2 18
  338.6 9.19 9
  338.7 17.88 17
  338.8 22.84 22
  338.9 19.06 19
  339.0 9.01 9
  339.2 2.09 2
  339.3 11.36 11
  339.4 20.65 20
  339.5 22.25 22
  339.6 15.88 15
  339.8 7.05 7
  339.9 13.8 13
  340.0 23.37 23
  340.1 27.84 27
  340.2 23.14 23
  340.3 13.34 13
  340.5 10.85 10
  340.6 19.69 19
  340.7 25.07 25
  340.8 21.76 21
  340.9 13.06 13
  341.1 9.43 9
  341.2 16.5 16
  341.3 22.04 22
  341.4 21.93 21
  341.5 16.92 16
  341.7 9.61 9
  341.8 14.11 14
  341.9 21.11 21
  342.0 24.19 24
  342.1 20.23 20
  342.4 12.94 12
  342.5 20.76 20
  342.6 25.95 25
  342.7 23.95 23
  342.8 15.85 15
  343.0 4.33 4
  343.1 9.66 9
  343.2 19.27 19
  343.3 25.12 25
  343.4 22.25 22
  343.5 13.59 13
  343.7 9.71 9
  343.8 17.16 17
  343.9 21.42 21
  344.0 17.83 17
  344.2 6.87 6
  344.3 11.03 11
  344.4 19.67 19
  344.5 25.95 25
  344.6 24.63 24
  344.7 16.22 16
  344.9 4.54 4
  345.0 9.85 9
  345.1 18.04 18
  345.2 22.18 22
  345.3 19.02 19
  345.6 12.36 12
  345.7 20.39 20
  345.8 24.95 24
  345.9 22.18 22
  346.0 14.73 14
  346.2 8.22 8
  346.3 14.39 14
  346.4 22.81 22
  346.5 26.47 26
  346.6 21.72 21
  346.7 12.52 12
  346.9 10.89 10
  347.0 20.0 19
  347.1 27.05 27
  347.2 26.54 26
  347.3 19.44 19
  347.5 11.36 11
  347.6 16.64 16
  347.7 21.81 21
  347.8 20.55 20
  347.9 13.41 13
  348.1 7.8 7
  348.2 14.5 14
  348.3 21.21 21
  348.4 22.56 22
  348.5 18.18 18
  348.8 11.73 11
  348.9 17.39 17
  349.0 21.65 21
  349.1 19.83 19
  349.2 11.89 11
  349.4 3.28 3
  349.5 11.22 11
  349.6 21.3 21
  349.7 24.67 24
  349.8 18.34 18
  350.1 7.96 7
  350.2 18.3 18
  350.3 24.42 24
  350.4 21.3 21
  350.5 12.1 12
  350.7 6.05 6
  350.8 14.29 14
  350.9 22.51 22
  351.0 23.42 23
  351.1 16.76 16
  351.3 7.57 7
  351.4 12.76 12
  351.5 20.09 20
  351.6 23.6 23
  351.7 20.69 20
  351.8 13.99 13
  352.0 10.54 10
  352.1 16.22 16
  352.2 20.83 20
  352.3 20.02 19
  352.4 14.25 14
  352.6 8.4 8
  352.7 14.22 14
  352.8 20.97 20
  352.9 22.44 22
  353.0 17.16 17
  353.2 7.57 7
  353.3 12.03 12
  353.4 19.44 19
  353.5 23.3 23
  353.6 20.2 20
  353.7 12.83 12
  353.9 9.45 9
  354.0 16.81 16
  354.1 23.07 23
  354.2 22.32 22
  354.3 15.04 15
  354.5 7.98 7
  354.6 15.64 15
  354.7 24.63 24
  354.8 27.26 27
  354.9 21.32 21
  355.0 11.87 11
  355.2 8.87 8
  355.3 16.08 16
  355.4 21.88 21
  355.5 21.86 21
  355.6 16.32 16
  355.8 8.66 8
  355.9 13.66 13
  356.0 20.51 20
  356.1 22.42 22
  356.2 16.95 16
  356.4 5.47 5
  356.5 10.75 10
  356.6 20.46 20
  356.7 26.05 26
  356.8 22.11 22
  356.9 11.41 11
  357.1 2.82 2
  357.2 12.5 12
  357.3 24.12 24
  357.4 28.7 28
  357.5 23.67 23
  357.6 14.76 14
  357.8 12.59 12
  357.9 17.39 17
  358.0 18.67 18
  358.1 15.01 14
  358.3 9.92 9
  358.4 14.73 14
  358.5 21.37 21
  358.6 24.53 24
  358.7 21.07 21
  358.8 12.71 12
  359.0 5.7 5
  359.1 13.43 13
  359.2 22.46 22
  359.3 25.19 25
  359.4 19.2 19
  359.6 5.82 5
  359.7 11.08 11
  359.8 20.76 20
  359.9 25.95 25
  360.0 22.07 22
  360.1 12.99 12
  360.3 9.33 9
  360.4 17.34 17
  360.5 23.79 23
  360.6 22.95 22
  360.7 15.88 15
  360.9 9.66 9
  361.0 16.36 16
  361.1 22.49 22
  361.2 21.76 21
  361.3 14.78 14
  361.5 6.66 6
  361.6 12.64 12
  361.7 21.69 21
  361.8 27.12 27
  361.9 24.23 24
  362.0 14.99 14
  362.2 6.98 6
  362.3 13.62 13
  362.4 20.25 20
  362.5 20.88 20
  362.6 15.15 15
  362.9 8.26 8
  363.0 16.55 16
  363.1 22.46 22
  363.2 20.74 20
  363.3 12.73 12
  363.5 6.01 6
  363.6 13.83 13
  363.7 21.9 21
  363.8 22.7 22
  363.9 15.76 15
  364.1 8.05 8
  364.2 13.97 13
  364.3 20.16 20
  364.4 21.46 21
  364.5 17.32 17
  364.6 10.89 10
  364.8 6.82 6
  364.9 11.8 11
  365.0 17.76 17
  365.1 20.23 20
  365.2 17.83 17
  365.5 12.66 12
  365.6 16.97 16
  365.7 19.3 19
  365.8 16.71 16
  366.1 10.38 10
  366.2 16.88 16
  366.3 20.74 20
  366.4 18.11 18
  366.5 11.41 11
  366.7 8.68 8
  366.8 16.06 16
  366.9 23.14 23
  367.0 24.07 24
  367.1 18.39 18
  368.0 9.75 9
  368.1 16.69 16
  368.2 22.0 21
  368.3 20.39 20
  368.4 12.97 12
  368.6 7.17 7
  368.7 14.9 14
  368.8 22.84 22
  368.9 23.98 23
  369.0 17.27 17
  369.3 9.29 9
  369.4 18.55 18
  369.5 25.07 25
  369.6 23.28 23
  369.7 14.5 14
  369.9 6.73 6
  370.0 14.87 14
  370.1 22.88 22
  370.2 23.39 23
  370.3 16.74 16
  370.5 9.1 9
  370.6 14.69 14
  370.7 21.35 21
  370.8 23.23 23
  370.9 18.51 18
  371.1 7.31 7
  371.2 11.64 11
  371.3 20.83 20
  371.4 26.51 26
  371.5 22.91 22
  371.6 12.76 12
  371.8 5.8 5
  371.9 15.01 14
  372.0 24.88 24
  372.1 27.12 27
  372.2 19.95 19
  372.3 9.57 9
  372.5 7.82 7
  372.6 16.15 16
  372.7 22.67 22
  372.8 22.88 22
  372.9 17.43 17
  373.1 10.45 10
  373.2 15.46 15
  373.3 21.6 21
  373.4 22.46 22
  373.5 16.64 16
  373.7 7.26 7
  373.8 11.82 11
  373.9 19.06 19
  374.0 22.88 22
  374.1 19.69 19
  374.2 11.8 11
  374.4 7.98 7
  374.5 16.57 16
  374.6 24.51 24
  374.7 24.74 24
  374.8 17.11 17
  375.0 6.63 6
  375.1 13.13 13
  375.2 21.76 21
  375.3 24.42 24
  375.4 18.55 18
  375.5 9.24 9
  375.7 8.22 8
  375.8 16.85 16
  375.9 23.02 22
  376.0 21.65 21
  376.1 14.04 14
  376.3 4.19 4
  376.4 9.01 9
  376.5 16.67 16
  376.6 21.11 21
  376.7 19.34 19
  376.9 12.55 12
  377.0 16.34 16
  377.1 22.18 22
  377.2 23.58 23
  377.3 17.81 17
  377.6 8.5 8
  377.7 16.97 16
  377.8 22.79 22
  377.9 21.18 21
  378.0 13.55 13
  378.2 6.01 6
  378.3 12.66 12
  378.4 20.6 20
  378.5 23.21 23
  378.6 19.13 19
  378.7 12.73 12
  378.9 12.1 12
  379.0 17.41 17
  379.1 20.53 20
  379.2 18.32 18
  379.3 12.64 12
  379.5 9.94 9
  379.6 15.06 15
  379.7 19.09 19
  379.8 18.27 18
  379.9 13.15 13
  380.1 6.73 6
  380.2 10.89 10
  380.3 17.13 17
  380.4 20.27 20
  380.5 18.04 18
  380.7 11.43 11
  380.8 15.41 15
  380.9 21.83 21
  381.0 24.21 24
  381.1 19.23 19
  381.2 10.41 10
  381.4 6.82 6
  381.5 15.2 15
  381.6 23.39 23
  381.7 24.49 24
  381.8 17.34 17
  382.0 4.66 4
  382.1 10.06 10
  382.2 19.39 19
  382.3 24.7 24
  382.4 21.95 21
  382.5 13.73 13
  382.7 6.45 6
  382.8 12.24 12
  382.9 18.78 18
  383.0 20.18 20
  383.1 15.29 15
  383.3 8.03 8
  383.4 13.64 13
  383.5 21.14 21
  383.6 23.93 23
  383.7 19.58 19
  384.0 12.83 12
  384.1 20.83 20
  384.2 25.93 25
  384.3 23.56 23
  384.4 14.66 14
  384.6 3.42 3
  384.7 11.27 11
  384.8 22.16 22
  384.9 25.77 25
  385.0 18.92 18
  385.3 8.03 8
  385.4 17.27 17
  385.5 23.35 23
  385.6 21.55 21
  385.7 14.32 14
  385.9 9.85 9
  386.0 16.39 16
  386.1 22.32 22
  386.2 21.97 21
  386.3 15.32 15
  386.5 6.28 6
  386.6 11.48 11
  386.7 18.76 18
  386.8 21.65 21
  386.9 17.78 17
  387.2 10.85 10
  387.3 18.34 18
  387.4 23.28 23
  387.5 21.46 21
  387.6 15.11 15
  387.8 11.01 10
  387.9 16.15 16
  388.0 20.37 20
  388.1 19.3 19
  388.2 13.8 13
  388.4 11.13 11
  388.5 18.02 18
  388.6 24.67 24
  388.7 26.12 26
  388.8 21.44 21
  388.9 13.8 13
  389.1 9.19 9
  389.2 15.57 15
  389.3 21.95 21
  389.4 22.6 22
  389.5 16.67 16
  389.7 7.59 7
  389.8 13.71 13
  389.9 22.88 22
  390.0 26.72 26
  390.1 21.35 21
  390.2 11.24 11
  390.4 7.96 7
  390.5 16.55 16
  390.6 23.09 23
  390.7 22.02 21
  390.8 14.71 14
  391.0 7.31 7
  391.1 13.94 13
  391.2 21.23 21
  391.3 21.79 21
  391.4 14.43 14
  391.6 4.31 4
  391.7 11.82 11
  391.8 22.25 22
  391.9 26.7 26
  392.0 21.93 21
  392.1 12.59 12
  392.3 6.31 6
  392.4 12.1 12
  392.5 18.92 18
  392.6 21.86 21
  392.7 18.95 18
  392.8 12.97 12
  393.0 11.34 11
  393.1 16.69 16
  393.2 19.69 19
  393.3 16.57 16
  393.6 8.89 8
  393.7 17.57 17
  393.8 24.19 24
  393.9 23.11 23
  394.0 15.76 15
  394.2 7.84 7
  394.3 14.27 14
  394.4 22.91 22
  394.5 26.63 26
  394.6 21.88 21
  394.7 12.43 12
  394.9 8.26 8
  395.0 16.18 16
  395.1 22.35 22
  395.2 20.74 20
  395.3 12.78 12
  395.5 8.61 8
  395.6 17.6 17
  395.7 25.09 25
  395.8 24.58 24
  395.9 16.95 16
  396.1 7.26 7
  396.2 13.34 13
  396.3 21.21 21
  396.4 22.84 22
  396.5 16.15 16
  396.7 6.28 6
  396.8 13.01 12
  396.9 22.09 22
  397.0 26.35 26
  397.1 22.7 22
  397.2 13.76 13
  397.4 5.17 5
  397.5 11.31 11
  397.6 18.25 18
  397.7 19.9 19
  397.8 15.81 15
  398.0 9.33 9
  398.1 12.57 12
  398.2 17.83 17
  398.3 20.97 20
  398.4 19.25 19
  398.5 13.87 13
  398.7 10.57 10
  398.8 15.57 15
  398.9 19.23 19
  399.0 17.41 17
  399.3 8.36 8
  399.4 17.5 17
  399.5 26.54 26
  399.6 27.68 27
  399.7 20.11 20
  399.8 10.8 10
  400.6 6.68 6
  400.7 14.34 14
  400.8 21.74 21
  400.9 23.23 23
  401.0 18.34 18
  401.3 11.62 11
  401.4 17.09 17
  401.5 20.02 19
  401.6 17.41 17
  401.7 11.22 11
  401.9 8.52 8
  402.0 15.57 15
  402.1 22.97 22
  402.2 25.12 25
  402.3 20.25 20
  402.6 11.41 11
  402.7 19.3 19
  402.8 23.49 23
  402.9 19.37 19
  403.0 10.94 10
  403.2 9.52 9
  403.3 17.48 17
  403.4 23.67 23
  403.5 23.14 23
  403.6 15.99 15
  403.8 5.8 5
  403.9 11.27 11
  404.0 19.18 19
  404.1 22.74 22
  404.2 19.53 19
  404.4 9.57 9
  404.5 13.11 13
  404.6 21.44 21
  404.7 27.03 27
  404.8 24.14 24
  404.9 14.76 14
  405.1 7.24 7
  405.2 14.62 14
  405.3 22.3 22
  405.4 23.46 23
  405.5 16.74 16
  405.7 4.21 4
  405.8 10.1 10
  405.9 20.23 20
  406.0 25.44 25
  406.1 21.21 21
  406.2 12.03 12
  406.4 10.66 10
  406.5 19.88 19
  406.6 25.98 25
  406.7 23.28 23
  406.8 14.11 14
  407.0 4.8 4
  407.1 11.38 11
  407.2 20.02 19
  407.3 23.37 23
  407.4 18.74 18
  407.6 8.85 8
  407.7 14.25 14
  407.8 21.9 21
  407.9 24.39 24
  408.0 19.39 19
  408.3 10.61 10
  408.4 18.55 18
  408.5 23.81 23
  408.6 21.3 21
  408.7 12.38 12
  408.9 1.21 1
  409.0 7.08 7
  409.1 17.06 17
  409.2 23.91 23
  409.3 22.39 22
  409.4 14.29 14
  409.6 9.99 9
  409.7 18.58 18
  409.8 24.74 24
  409.9 22.16 22
  410.0 12.87 12
  410.2 4.17 4
  410.3 11.22 11
  410.4 19.86 19
  410.5 22.97 22
  410.6 18.72 18
  410.9 12.48 12
  411.0 18.69 18
  411.1 21.83 21
  411.2 19.3 19
  411.3 13.45 13
  411.5 11.52 11
  411.6 17.48 17
  411.7 21.28 21
  411.8 18.48 18
  412.1 10.57 10
  412.2 17.55 17
  412.3 22.3 22
  412.4 20.95 20
  412.5 14.94 14
  412.7 8.01 8
  412.8 12.66 12
  412.9 19.88 19
  413.0 23.93 23
  413.1 21.16 21
  413.2 13.83 13
  413.4 9.82 9
  413.5 15.88 15
  413.6 20.51 20
  413.7 19.88 19
  413.8 15.43 15
  414.0 12.1 12
  414.1 16.48 16
  414.2 21.18 21
  414.3 21.37 21
  414.4 15.27 15
  414.7 5.68 5
  414.8 16.25 16
  414.9 26.44 26
  415.0 28.4 28
  415.1 20.62 20
  415.3 6.35 6
  415.4 12.08 12
  415.5 21.55 21
  415.6 25.56 25
  415.7 19.95 19
  415.8 9.52 9
  416.0 7.33 7
  416.1 17.04 17
  416.2 24.3 24
  416.3 23.51 23
  416.4 15.83 15
  416.6 6.17 6
  416.7 11.48 11
  416.8 18.25 18
  416.9 19.95 19
  417.0 14.97 14
  417.3 8.05 8
  417.4 15.64 15
  417.5 21.76 21
  417.6 21.65 21
  417.7 15.08 15
  417.9 6.56 6
  418.0 12.59 12
  418.1 19.76 19
  418.2 21.44 21
  418.3 17.2 17
  418.5 12.1 12
  418.6 16.22 16
  418.7 20.48 20
  418.8 20.46 20
  418.9 15.64 15
  419.1 7.91 7
  419.2 11.31 11
  419.3 17.34 17
  419.4 21.02 20
  419.5 19.13 19
  419.6 12.99 12
  419.8 8.29 8
  419.9 14.57 14
  420.0 21.6 21
  420.1 23.32 23
  420.2 18.39 18
  420.5 12.03 12
  420.6 19.65 19
  420.7 24.3 24
  420.8 21.44 21
  420.9 13.13 13
  421.1 7.77 7
  421.2 15.76 15
  421.3 23.95 23
  421.4 25.86 25
  421.5 20.88 20
  421.6 13.9 13
  422.4 7.05 7
  422.5 16.27 16
  422.6 25.09 25
  422.7 26.07 26
  422.8 18.92 18
  423.0 8.94 8
  423.1 13.99 13
  423.2 20.53 20
  423.3 22.74 22
  423.4 19.11 19
  423.7 13.52 13
  423.8 19.72 19
  423.9 23.23 23
  424.0 20.37 20
  424.1 13.43 13
  424.3 9.61 9
  424.4 15.06 15
  424.5 19.69 19
  424.6 19.23 19
  424.7 14.04 14
  424.9 8.96 8
  425.0 14.69 14
  425.1 21.25 21
  425.2 23.18 23
  425.3 18.97 18
  425.6 11.38 11
  425.7 17.9 17
  425.8 23.02 22
  425.9 22.58 22
  426.0 16.53 16
  426.2 7.05 7
  426.3 12.27 12
  426.4 20.41 20
  426.5 23.84 23
  426.6 19.39 19
  426.9 11.5 11
  427.0 19.37 19
  427.1 23.63 23
  427.2 19.83 19
  427.3 11.41 11
  427.5 9.08 9
  427.6 17.43 17
  427.7 23.98 23
  427.8 22.97 22
  427.9 14.97 14
  428.1 4.05 4
  428.2 10.06 10
  428.3 19.44 19
  428.4 24.6 24
  428.5 21.58 21
  428.6 13.83 13
  428.8 11.29 11
  428.9 18.95 18
  429.0 24.84 24
  429.1 23.51 23
  429.2 15.78 15
  429.4 8.82 8
  429.5 16.55 16
  429.6 25.16 25
  429.7 27.37 27
  429.8 21.39 21
  429.9 12.2 12
  430.1 9.54 9
  430.2 16.13 16
  430.3 20.04 20
  430.4 17.64 17
  430.6 9.61 9
  430.7 13.34 13
  430.8 20.02 19
  430.9 23.88 23
  431.0 21.3 21
  431.1 13.71 13
  431.3 6.24 6
  431.4 12.97 12
  431.5 21.6 21
  431.6 25.09 25
  431.7 21.0 20
  431.8 13.13 13
  432.0 9.52 9
  432.1 16.34 16
  432.2 22.23 22
  432.3 21.42 21
  432.4 14.18 14
  432.6 6.77 6
  432.7 13.5 13
  432.8 21.14 21
  432.9 22.81 22
  433.0 16.88 16
  433.2 4.96 4
  433.3 10.47 10
  433.4 20.23 20
  433.5 25.3 25
  433.6 21.0 20
  433.7 10.99 10
  433.9 5.73 5
  434.0 14.53 14
  434.1 22.6 22
  434.2 23.11 23
  434.3 16.22 16
  434.5 5.54 5
  434.6 10.22 10
  434.7 18.18 18
  434.8 22.74 22
  434.9 19.88 19
  435.0 12.24 12
  435.2 9.57 9
  435.3 17.71 17
  435.4 25.28 25
  435.5 26.98 26
  435.6 22.3 22
  435.7 15.34 15
  435.9 12.99 12
  436.0 18.11 18
  436.1 20.95 20
  436.2 17.81 17
  436.5 11.99 11
  436.6 19.3 19
  436.7 23.51 23
  436.8 20.76 20
  436.9 13.13 13
  437.1 6.45 6
  437.2 12.73 12
  437.3 20.11 20
  437.4 22.44 22
  437.5 18.25 18
  437.7 11.34 11
  437.8 16.11 16
  437.9 21.42 21
  438.0 21.18 21
  438.1 15.06 15
  438.3 7.24 7
  438.4 13.34 13
  438.5 22.67 22
  438.6 28.12 28
  438.7 25.12 25
  438.8 15.6 15
  439.0 5.47 5
  439.1 12.36 12
  439.2 20.95 20
  439.3 23.49 23
  439.4 18.25 18
  439.6 9.36 9
  439.7 14.71 14
  439.8 21.95 21
  439.9 24.21 24
  440.0 19.18 19
  440.1 10.73 10
  440.3 8.89 8
  440.4 17.53 17
  440.5 24.35 24
  440.6 23.04 23
  440.7 14.5 14
  440.9 5.63 5
  441.0 13.78 13
  441.1 24.12 24
  441.2 27.98 27
  441.3 21.81 21
  441.4 10.36 10
  441.6 6.05 6
  441.7 16.34 16
  441.8 24.74 24
  441.9 24.02 23
  442.0 15.74 15
  442.2 8.24 8
  442.3 14.85 14
  442.4 21.16 21
  442.5 21.28 21
  442.6 14.97 14
  442.8 5.56 5
  442.9 11.52 11
  443.0 20.86 20
  443.1 25.7 25
  443.2 21.95 21
  443.3 12.73 12
  443.5 5.47 5
  443.6 11.8 11
  443.7 18.72 18
  443.8 20.41 20
  443.9 15.85 15
  444.1 7.84 7
  444.2 12.87 12
  444.3 20.51 20
  444.4 23.91 23
  444.5 19.46 19
  444.7 7.08 7
  444.8 11.96 11
  444.9 20.95 20
  445.0 25.07 25
  445.1 20.55 20
  445.2 11.48 11
  445.4 5.14 5
  445.5 10.75 10
  445.6 17.2 17
  445.7 20.04 20
  445.8 18.51 18
  446.0 14.55 14
  446.1 17.27 17
  446.2 21.69 21
  446.3 23.56 23
  446.4 19.39 19
  446.5 10.64 10
  446.7 5.33 5
  446.8 14.39 14
  446.9 23.49 23
  447.0 24.84 24
  447.1 17.69 17
  447.4 9.73 9
  447.5 17.97 17
  447.6 22.32 22
  447.7 19.09 19
  447.8 11.08 11
  448.0 6.8 6
  448.1 14.27 14
  448.2 21.25 21
  448.3 21.65 21
  448.4 15.32 15
  448.6 6.15 6
  448.7 11.29 11
  448.8 18.06 18
  448.9 19.86 19
  449.0 15.11 15
  449.2 5.45 5
  449.3 9.89 9
  449.4 18.16 18
  449.5 23.09 23
  449.6 20.11 20
  449.7 11.82 11
  449.9 6.75 6
  450.0 13.87 13
  450.1 21.0 20
  450.2 22.65 22
  450.3 18.06 18
  450.6 12.38 12
  450.7 18.55 18
  450.8 21.86 21
  450.9 19.46 19
  451.2 12.57 12
  451.3 19.97 19
  451.4 25.77 25
  451.5 24.12 24
  451.6 15.85 15
  451.8 7.98 7
  451.9 14.55 14
  452.0 21.25 21
  452.1 22.04 22
  452.2 16.76 16
  452.5 10.64 10
  452.6 17.71 17
  452.7 22.3 22
  452.8 20.0 19
  452.9 12.59 12
  453.1 7.29 7
  453.2 14.41 14
  453.3 22.32 22
  453.4 24.56 24
  453.5 19.41 19
  454.4 10.64 10
  454.5 18.16 18
  454.6 23.53 23
  454.7 21.16 21
  454.8 12.69 12
  455.0 6.91 6
  455.1 15.74 15
  455.2 25.12 25
  455.3 27.14 27
  455.4 19.74 19
  455.5 8.96 8
  455.7 8.38 8
  455.8 18.04 18
  455.9 23.6 23
  456.0 20.14 20
  456.1 11.82 11
  456.3 10.54 10
  456.4 18.69 18
  456.5 24.63 24
  456.6 23.86 23
  456.7 17.76 17
  456.9 11.76 11
  457.0 17.2 17
  457.1 23.18 23
  457.2 23.79 23
  457.3 17.97 17
  457.5 8.52 8
  457.6 12.97 12
  457.7 19.76 19
  457.8 22.63 22
  457.9 18.92 18
  458.2 11.78 11
  458.3 19.04 19
  458.4 23.88 23
  458.5 21.49 21
  458.6 13.08 13
  458.8 3.54 3
  458.9 8.8 8
  459.0 16.64 16
  459.1 21.37 21
  459.2 19.72 19
  459.3 13.27 13
  459.5 8.85 8
  459.6 16.25 16
  459.7 24.09 24
  459.8 25.49 25
  459.9 18.72 18
  460.0 8.71 8
  460.2 7.57 7
  460.3 17.36 17
  460.4 24.12 24
  460.5 21.69 21
  460.6 12.57 12
  460.8 5.47 5
  460.9 12.43 12
  461.0 18.88 18
  461.1 18.76 18
  461.2 12.27 12
  461.4 5.87 5
  461.5 13.92 13
  461.6 24.07 24
  461.7 28.24 28
  461.8 23.14 23
  461.9 13.64 13
  462.1 10.31 10
  462.2 17.02 17
  462.3 20.83 20
  462.4 17.53 17
  462.5 10.1 10
  462.7 8.54 8
  462.8 16.34 16
  462.9 22.6 22
  463.0 22.97 22
  463.1 18.39 18
  463.3 12.36 12
  463.4 16.22 16
  463.5 21.97 21
  463.6 25.14 25
  463.7 23.32 23
  463.8 17.76 17
  464.0 10.64 10
  464.1 14.29 14
  464.2 19.53 19
  464.3 20.9 20
  464.4 17.09 17
  464.6 11.82 11
  464.7 15.74 15
  464.8 20.16 20
  464.9 20.83 20
  465.0 16.92 16
  465.3 10.15 10
  465.4 17.74 17
  465.5 24.14 24
  465.6 23.42 23
  465.7 16.04 16
  465.9 9.17 9
  466.0 16.04 16
  466.1 22.86 22
  466.2 23.21 23
  466.3 17.18 17
  466.5 10.27 10
  466.6 16.92 16
  466.7 26.44 26
  466.8 31.8 31
  466.9 28.89 28
  467.0 19.69 19
  467.1 10.36 10
  467.3 7.05 7
  467.4 10.13 10
  467.5 10.41 10
  467.7 3.58 3
  467.8 6.33 6
  467.9 15.43 15
  468.0 24.88 24
  468.1 27.93 27
  468.2 22.74 22
  468.3 13.9 13
  468.5 10.38 10
  468.6 16.55 16
  468.7 20.95 20
  468.8 19.58 19
  468.9 13.43 13
  469.1 7.43 7
  469.2 13.94 13
  469.3 22.23 22
  469.4 25.47 25
  469.5 21.28 21
  470.4 11.08 11
  470.5 17.06 17
  470.6 20.53 20
  470.7 18.58 18
  470.8 13.69 13
  471.0 11.69 11
  471.1 16.5 16
  471.2 21.32 21
  471.3 21.55 21
  471.4 15.41 15
  471.6 5.14 5
  471.7 11.52 11
  471.8 20.51 20
  471.9 23.77 23
  472.0 18.83 18
  472.1 10.34 10
  472.3 7.5 7
  472.4 14.73 14
  472.5 20.79 20
  472.6 20.62 20
  472.7 14.8 14
  472.9 8.45 8
  473.0 14.29 14
  473.1 20.86 20
  473.2 21.21 21
  473.3 14.22 14
  473.5 4.66 4
  473.6 11.59 11
  473.7 21.46 21
  473.8 26.3 26
  473.9 22.56 22
  474.0 13.48 13
  474.2 5.21 5
  474.3 10.85 10
  474.4 17.57 17
  474.5 19.16 19
  474.6 13.73 13
  474.8 2.42 2
  474.9 7.75 7
  475.0 17.95 17
  475.1 24.35 24
  475.2 21.69 21
  475.3 13.2 13
  475.5 8.68 8
  475.6 16.32 16
  475.7 23.09 23
  475.8 23.28 23
  475.9 17.34 17
  476.1 9.71 9
  476.2 13.71 13
  476.3 18.88 18
  476.4 20.3 20
  476.5 16.29 16
  476.7 7.12 7
  476.8 11.08 11
  476.9 19.62 19
  477.0 25.72 25
  477.1 23.81 23
  477.2 15.22 15
  477.4 6.61 6
  477.5 13.06 13
  477.6 20.39 20
  477.7 21.79 21
  477.8 15.83 15
  478.0 4.98 4
  478.1 11.31 11
  478.2 21.83 21
  478.3 27.12 27
  478.4 22.63 22
  478.5 13.48 13
  478.7 10.73 10
  478.8 17.39 17
  478.9 22.42 22
  479.0 21.72 21
  479.1 15.62 15
  479.3 6.89 6
  479.4 11.64 11
  479.5 19.11 19
  479.6 23.09 23
  479.7 20.53 20
  479.8 14.08 14
  480.0 11.45 11
  480.1 17.48 17
  480.2 21.97 21
  480.3 20.34 20
  480.4 13.66 13
  480.6 9.17 9
  480.7 16.71 16
  480.8 25.09 25
  480.9 27.79 27
  481.0 22.7 22
  481.1 13.43 13
  481.3 7.59 7
  481.4 15.27 15
  481.5 22.74 22
  481.6 22.7 22
  481.7 15.25 15
  481.9 7.7 7
  482.0 14.69 14
  482.1 22.51 22
  482.2 24.72 24
  482.3 19.79 19
  483.2 8.87 8
  483.3 17.36 17
  483.4 23.37 23
  483.5 21.55 21
  483.6 14.11 14
  483.8 8.8 8
  483.9 15.34 15
  484.0 22.02 21
  484.1 23.53 23
  484.2 18.69 18
  484.5 11.15 11
  484.6 19.13 19
  484.7 24.44 24
  484.8 21.76 21
  484.9 13.2 13
  485.1 7.87 7
  485.2 15.88 15
  485.3 23.37 23
  485.4 24.44 24
  485.5 19.44 19
  485.7 13.73 13
  485.8 18.62 18
  485.9 23.51 23
  486.0 22.37 22
  486.1 14.76 14
  486.3 5.84 5
  486.4 12.34 12
  486.5 20.72 20
  486.6 24.21 24
  486.7 20.04 20
  486.8 11.15 11
  487.0 5.14 5
  487.1 13.5 13
  487.2 22.67 22
  487.3 25.16 25
  487.4 19.37 19
  487.5 10.29 10
  487.7 8.26 8
  487.8 16.71 16
  487.9 23.3 23
  488.0 22.07 22
  488.1 14.29 14
  488.3 8.26 8
  488.4 14.99 14
  488.5 20.93 20
  488.6 21.11 21
  488.7 16.64 16
  488.9 10.87 10
  489.0 13.55 13
  489.1 17.74 17
  489.2 20.11 20
  489.3 18.39 18
  489.6 12.08 12
  489.7 18.06 18
  489.8 22.6 22
  489.9 21.02 20
  490.0 14.36 14
  490.2 6.91 6
  490.3 12.22 12
  490.4 19.9 19
  490.5 23.53 23
  490.6 19.37 19
  490.9 9.1 9
  491.0 19.72 19
  491.1 27.33 27
  491.2 24.84 24
  491.3 14.83 14
  491.5 6.31 6
  491.6 13.71 13
  491.7 21.42 21
  491.8 22.86 22
  491.9 17.3 17
  492.1 8.19 8
  492.2 12.94 12
  492.3 20.41 20
  492.4 24.49 24
  492.5 21.76 21
  492.6 13.99 13
  492.8 7.59 7
  492.9 15.85 15
  493.0 25.37 25
  493.1 27.51 27
  493.2 20.53 20
  494.0 3.86 3
  494.1 8.43 8
  494.2 18.04 18
  494.3 25.14 25
  494.4 23.84 23
  494.5 15.32 15
  494.7 6.77 6
  494.8 15.11 15
  494.9 25.23 25
  495.0 28.35 28
  495.1 21.76 21
  495.2 11.48 11
  495.4 9.61 9
  495.5 16.53 16
  495.6 20.48 20
  495.7 18.51 18
  495.8 12.69 12
  496.0 9.36 9
  496.1 16.55 16
  496.2 23.74 23
  496.3 23.77 23
  496.4 15.78 15
  496.6 4.84 4
  496.7 11.85 11
  496.8 21.18 21
  496.9 24.79 24
  497.0 20.44 20
  497.2 11.34 11
  497.3 16.62 16
  497.4 24.63 24
  497.5 27.49 27
  497.6 21.81 21
  497.7 11.76 11
  497.9 7.03 7
  498.0 15.39 15
  498.1 23.84 23
  498.2 26.12 26
  498.3 21.35 21
  499.2 8.73 8
  499.3 14.9 14
  499.4 21.18 21
  499.5 22.07 22
  499.6 16.46 16
  499.8 8.19 8
  499.9 13.59 13
  500.0 20.55 20
  500.1 22.3 22
  500.2 16.74 16
  500.5 7.43 7
  500.6 16.53 16
  500.7 24.05 24
  500.8 23.91 23
  500.9 16.5 16
  501.1 6.94 6
  501.2 12.59 12
  501.3 19.32 19
  501.4 20.09 20
  501.5 13.85 13
  501.7 5.91 5
  501.8 13.11 13
  501.9 21.72 21
  502.0 23.65 23
  502.1 16.92 16
  502.4 7.57 7
  502.5 17.46 17
  502.6 24.81 24
  502.7 24.19 24
  502.8 17.39 17
  503.0 12.03 12
  503.1 17.76 17
  503.2 22.56 22
  503.3 21.25 21
  503.4 14.2 14
  503.6 4.45 4
  503.7 8.54 8
  503.8 15.76 15
  503.9 20.74 20
  504.0 20.18 20
  504.1 15.2 15
  504.3 11.57 11
  504.4 17.16 17
  504.5 22.67 22
  504.6 22.65 22
  504.7 16.39 16
  504.9 7.26 7
  505.0 12.73 12
  505.1 20.44 20
  505.2 23.35 23
  505.3 18.6 18
  505.4 9.92 9
  505.6 7.19 7
  505.7 16.43 16
  505.8 24.91 24
  505.9 25.77 25
  506.0 18.58 18
  506.2 7.96 7
  506.3 14.13 14
  506.4 22.39 22
  506.5 24.56 24
  506.6 18.11 18
  506.9 9.54 9
  507.0 18.99 18
  507.1 24.35 24
  507.2 20.93 20
  507.3 12.36 12
  507.5 8.45 8
  507.6 15.81 15
  507.7 22.95 22
  507.8 24.98 24
  507.9 20.83 20
  508.0 14.15 14
  508.2 13.15 13
  508.3 18.78 18
  508.4 21.79 21
  508.5 19.39 19
  508.6 13.97 13
  508.8 12.62 12
  508.9 18.16 18
  509.0 21.76 21
  509.1 19.34 19
  509.2 12.27 12
  509.4 7.17 7
  509.5 14.46 14
  509.6 22.67 22
  509.7 25.14 25
  509.8 20.04 20
  510.1 12.1 12
  510.2 19.27 19
  510.3 23.35 23
  510.4 20.62 20
  510.5 13.57 13
  510.7 10.13 10
  510.8 16.34 16
  510.9 21.93 21
  511.0 21.97 21
  511.1 15.78 15
  511.3 5.1 5
  511.4 10.17 10
  511.5 18.69 18
  511.6 23.23 23
  511.7 20.09 20
  511.8 12.38 12
  512.0 7.29 7
  512.1 13.36 13
  512.2 19.53 19
  512.3 20.74 20
  512.4 16.55 16
  512.6 11.06 11
  512.7 16.95 16
  512.8 23.93 23
  512.9 24.77 24
  513.0 17.97 17
  513.3 10.94 10
  513.4 18.48 18
  513.5 23.84 23
  513.6 23.63 23
  513.7 18.58 18
  513.9 11.29 11
  514.0 14.9 14
  514.1 19.86 19
  514.2 20.62 20
  514.3 15.22 15
  514.5 5.75 5
  514.6 12.15 12
  514.7 21.95 21
  514.8 26.05 26
  514.9 20.62 20
  515.0 11.06 11
  515.2 9.8 9
  515.3 17.34 17
  515.4 21.65 21
  515.5 18.92 18
  515.6 11.94 11
  515.8 9.36 9
  515.9 16.99 16
  516.0 24.28 24
  516.1 25.47 25
  516.2 19.58 19
  516.3 11.41 11
  516.5 10.41 10
  516.6 16.83 16
  516.7 20.76 20
  516.8 18.74 18
  517.0 10.1 10
  517.1 13.66 13
  517.2 21.32 21
  517.3 25.51 25
  517.4 20.95 20
  517.5 10.22 10
  517.7 1.02 1
  517.8 8.17 8
  517.9 17.25 17
  518.0 22.16 22
  518.1 20.25 20
  518.2 14.06 14
  518.4 10.82 10
  518.5 16.46 16
  518.6 20.93 20
  518.7 20.04 20
  518.8 14.53 14
  519.0 8.4 8
  519.1 13.83 13
  519.2 20.95 20
  519.3 23.3 23
  519.4 18.53 18
  519.6 9.66 9
  519.7 15.43 15
  519.8 23.93 23
  519.9 27.4 27
  520.0 22.07 22
  520.1 11.99 11
  520.3 7.91 7
  520.4 15.6 15
  520.5 20.97 20
  520.6 19.88 19
  520.7 14.59 14
  520.9 11.34 11
  521.0 16.62 16
  521.1 21.97 21
  521.2 22.6 22
  521.3 17.64 17
  521.6 10.89 10
  521.7 17.32 17
  521.8 21.65 21
  521.9 20.07 20
  522.0 14.34 14
  522.2 11.31 11
  522.3 16.95 16
  522.4 21.83 21
  522.5 21.25 21
  522.6 15.41 15
  522.8 7.64 7
  522.9 11.59 11
  523.0 16.53 16
  523.1 17.04 17
  523.2 12.03 12
  523.4 4.49 4
  523.5 10.22 10
  523.6 19.39 19
  523.7 25.05 25
  523.8 22.79 22
  523.9 14.55 14
  524.1 7.22 7
  524.2 14.32 14
  524.3 22.81 22
  524.4 25.86 25
  524.5 21.39 21
  524.6 13.62 13
  524.8 11.96 11
  524.9 19.02 19
  525.0 23.7 23
  525.1 21.02 20
  525.2 12.43 12
  525.4 4.24 4
  525.5 11.92 11
  525.6 21.72 21
  525.7 25.7 25
  525.8 21.0 20
  525.9 12.52 12
  526.1 11.1 11
  526.2 17.3 17
  526.3 20.44 20
  526.4 17.95 17
  526.5 12.69 12
  526.7 11.1 11
  526.8 16.88 16
  526.9 22.14 22
  527.0 21.58 21
  527.1 14.62 14
  527.3 6.08 6
  527.4 12.38 12
  527.5 20.25 20
  527.6 22.6 22
  527.7 17.43 17
  527.8 8.99 8
  528.0 6.84 6
  528.1 14.78 14
  528.2 21.25 21
  528.3 21.32 21
  528.4 16.18 16
  528.6 12.06 12
  528.7 16.6 16
  528.8 20.25 20
  528.9 18.9 18
  529.0 12.5 12
  529.2 2.16 2
  529.3 7.17 7
  529.4 16.92 16
  529.5 23.72 23
  529.6 22.51 22
  529.7 15.99 15
  529.9 12.71 12
  530.0 18.3 18
  530.1 22.23 22
  530.2 19.74 19
  530.3 11.31 11
  530.5 5.03 5
  530.6 15.55 15
  530.7 26.61 26
  530.8 28.54 28
  530.9 20.27 20
  531.0 9.31 9
  531.2 5.59 5
  531.3 12.48 12
  531.4 18.81 18
  531.5 20.41 20
  531.6 17.6 17
  531.8 14.76 14
  531.9 18.37 18
  532.0 21.95 21
  532.1 21.72 21
  532.2 16.6 16
  532.3 9.52 9
  532.5 7.66 7
  532.6 13.76 13
  532.7 18.81 18
  532.8 18.78 18
  532.9 14.18 14
  533.1 10.15 10
  533.2 16.11 16
  533.3 22.46 22
  533.4 23.16 23
  533.5 17.06 17
  533.6 8.94 8
  533.8 7.36 7
  533.9 14.04 14
  534.0 19.2 19
  534.1 18.13 18
  534.4 10.87 10
  534.5 17.83 17
  534.6 22.23 22
  534.7 20.62 20
  534.8 15.29 15
  535.0 10.73 10
  535.1 14.76 14
  535.2 19.74 19
  535.3 21.32 21
  535.4 17.74 17
  535.6 9.47 9
  535.7 13.92 13
  535.8 21.9 21
  535.9 25.81 25
  536.0 20.95 20
  536.1 10.66 10
  536.3 4.38 4
  536.4 12.38 12
  536.5 19.95 19
  536.6 20.83 20
  536.7 14.99 14
  536.9 7.33 7
  537.0 13.29 13
  537.1 21.11 21
  537.2 23.93 23
  537.3 18.83 18
  537.4 9.5 9
  537.6 7.17 7
  537.7 17.16 17
  537.8 24.93 24
  537.9 23.58 23
  538.0 15.32 15
  538.2 8.4 8
  538.3 14.18 14
  538.4 20.27 20
  538.5 22.25 22
  538.6 19.44 19
  538.9 14.36 14
  539.0 18.02 18
  539.1 20.79 20
  539.2 20.07 20
  539.3 15.67 15
  539.5 9.26 9
  539.6 13.08 13
  539.7 18.95 18
  539.8 21.32 21
  539.9 17.78 17
  540.1 10.85 10
  540.2 15.29 15
  540.3 20.95 20
  540.4 21.69 21
  540.5 16.27 16
  540.7 8.01 8
  540.8 13.59 13
  540.9 21.67 21
  541.0 25.3 25
  541.1 21.55 21
  541.2 14.01 13
  541.4 10.34 10
  541.5 15.9 15
  541.6 20.09 20
  541.7 18.92 18
  541.8 13.48 13
  542.0 7.61 7
  542.1 12.06 12
  542.2 18.41 18
  542.3 21.32 21
  542.4 17.55 17
  542.5 9.75 9
  542.7 7.19 7
  542.8 15.5 15
  542.9 23.35 23
  543.0 24.74 24
  543.1 18.46 18
  543.3 5.05 5
  543.4 10.27 10
  543.5 20.11 20
  543.6 25.35 25
  543.7 21.67 21
  543.8 13.66 13
  544.0 12.13 12
  544.1 18.51 18
  544.2 21.69 21
  544.3 17.81 17
  544.4 9.59 9
  544.6 6.38 6
  544.7 14.69 14
  544.8 22.14 22
  544.9 23.16 23
  545.0 18.2 18
  545.3 11.45 11
  545.4 17.3 17
  545.5 22.67 22
  545.6 22.56 22
  545.7 16.04 16
  545.9 7.52 7
  546.0 13.52 13
  546.1 20.48 20
  546.2 21.69 21
  546.3 16.5 16
  546.5 10.52 10
  546.6 15.67 15
  546.7 20.14 20
  546.8 19.06 19
  546.9 13.64 13
  547.1 9.12 9
  547.2 13.08 13
  547.3 17.95 17
  547.4 20.25 20
  547.5 17.83 17
  547.8 9.71 9
  547.9 17.55 17
  548.0 24.72 24
  548.1 24.95 24
  548.2 18.18 18
  548.5 10.29 10
  548.6 18.04 18
  548.7 24.32 24
  548.8 24.21 24
  548.9 18.16 18
  549.1 11.34 11
  549.2 15.74 15
  549.3 19.44 19
  549.4 18.02 18
  549.5 12.22 12
  549.7 7.87 7
  549.8 15.2 15
  549.9 23.77 23
  550.0 26.07 26
  550.1 19.74 19
  550.4 10.1 10
  550.5 19.27 19
  550.6 26.35 26
  550.7 26.05 26
  550.8 19.06 19
  551.6 9.01 9
  551.7 12.64 12
  551.8 18.69 18
  551.9 21.93 21
  552.0 19.3 19
  552.1 12.52 12
  552.3 6.17 6
  552.4 12.01 11
  552.5 19.74 19
  552.6 23.3 23
  552.7 20.16 20
  552.8 13.71 13
  553.0 11.64 11
  553.1 17.27 17
  553.2 21.55 21
  553.3 20.02 19
  553.4 12.99 12
  553.6 6.89 6
  553.7 15.29 15
  553.8 24.16 24
  553.9 25.05 25
  554.0 17.2 17
  554.2 8.29 8
  554.3 16.22 16
  554.4 24.88 24
  554.5 26.42 26
  554.6 19.72 19
  554.7 10.31 10
  554.9 9.29 9
  555.0 17.97 17
  555.1 24.3 24
  555.2 23.39 23
  555.3 16.9 16
  556.2 7.7 7
  556.3 13.55 13
  556.4 18.78 18
  556.5 18.81 18
  556.6 13.45 13
  556.8 5.98 5
  556.9 10.96 10
  557.0 17.5 17
  557.1 19.18 19
  557.2 14.73 14
  557.4 8.43 8
  557.5 13.76 13
  557.6 20.6 20
  557.7 22.37 22
  557.8 16.18 16
  558.0 2.16 2
  558.1 7.64 7
  558.2 18.34 18
  558.3 25.28 25
  558.4 23.79 23
  558.5 16.36 16
  559.3 9.57 9
  559.4 14.46 14
  559.5 20.81 20
  559.6 22.7 22
  559.7 17.85 17
  559.8 10.08 10
  560.0 8.26 8
  560.1 15.69 15
  560.2 22.51 22
  560.3 23.6 23
  560.4 18.58 18
  560.6 10.78 10
  560.7 15.01 14
  560.8 20.86 20
  560.9 22.93 22
  561.0 19.44 19
  561.3 12.24 12
  561.4 19.04 19
  561.5 23.7 23
  561.6 21.28 21
  561.7 13.59 13
  561.9 9.43 9
  562.0 17.23 17
  562.1 23.93 23
  562.2 23.0 22
  562.3 15.25 15
  562.5 8.38 8
  562.6 15.74 15
  562.7 23.77 23
  562.8 25.88 25
  562.9 20.39 20
  563.2 10.66 10
  563.3 20.0 19
  563.4 26.82 26
  563.5 25.0 24
  563.6 16.2 16
  563.8 6.42 6
  563.9 11.59 11
  564.0 18.44 18
  564.1 21.65 21
  564.2 19.34 19
  564.3 13.99 13
  564.5 11.62 11
  564.6 16.88 16
  564.7 21.02 20
  564.8 19.62 19
  564.9 13.48 13
  565.1 9.36 9
  565.2 16.5 16
  565.3 23.98 23
  565.4 25.56 25
  565.5 19.88 19
  565.7 8.78 8
  565.8 13.59 13
  565.9 21.97 21
  566.0 25.79 25
  566.1 20.83 20
  566.2 11.1 11
  566.4 8.87 8
  566.5 18.06 18
  566.6 24.37 24
  566.7 22.74 22
  566.8 15.74 15
  567.0 8.92 8
  567.1 13.55 13
  567.2 19.76 19
  567.3 22.42 22
  567.4 19.09 19
  567.5 12.48 12
  567.7 10.13 10
  567.8 16.5 16
  567.9 21.44 21
  568.0 19.76 19
  568.3 11.64 11
  568.4 20.39 20
  568.5 26.14 26
  568.6 23.65 23
  568.7 15.01 14
  568.9 5.31 5
  569.0 10.38 10
  569.1 17.46 17
  569.2 20.11 20
  569.3 16.15 16
  569.5 6.31 6
  569.6 10.1 10
  569.7 18.62 18
  569.8 25.79 25
  569.9 25.72 25
  570.0 17.78 17
  570.3 8.68 8
  570.4 16.71 16
  570.5 20.6 20
  570.6 17.62 17
  570.9 11.45 11
  571.0 16.15 16
  571.1 18.9 18
  571.2 18.02 18
  571.4 13.94 13
  571.5 15.85 15
  571.6 20.62 20
  571.7 25.02 24
  571.8 24.56 24
  571.9 17.18 17
  572.2 6.15 6
  572.3 16.11 16
  572.4 22.56 22
  572.5 20.39 20
  572.6 13.11 13
  572.8 11.64 11
  572.9 19.23 19
  573.0 24.39 24
  573.1 22.37 22
  573.2 14.69 14
  573.4 6.96 6
  573.5 12.8 12
  573.6 20.14 20
  573.7 22.81 22
  573.8 18.58 18
  574.1 10.31 10
  574.2 17.85 17
  574.3 22.95 22
  574.4 20.53 20
  574.5 12.69 12
  574.7 10.22 10
  574.8 19.46 19
  574.9 26.28 26
  575.0 24.44 24
  575.1 16.27 16
  575.3 10.47 10
  575.4 16.99 16
  575.5 23.04 23
  575.6 23.65 23
  575.7 18.58 18
  576.0 11.87 11
  576.1 18.53 18
  576.2 23.0 22
  576.3 21.53 21
  576.4 15.9 15
  576.6 10.82 10
  576.7 14.62 14
  576.8 19.95 19
  576.9 22.7 22
  577.0 19.79 19
  577.3 10.71 10
  577.4 20.23 20
  577.5 27.77 27
  577.6 26.3 26
  577.7 17.39 17
  577.9 8.22 8
  578.0 14.01 13
  578.1 20.81 20
  578.2 22.7 22
  578.3 18.67 18
  578.5 11.66 11
  578.6 15.71 15
  578.7 21.53 21
  578.8 23.35 23
  578.9 18.67 18
  579.2 9.45 9
  579.3 17.74 17
  579.4 23.63 23
  579.5 21.76 21
  579.6 13.69 13
  579.8 6.24 6
  579.9 13.66 13
  580.0 23.63 23
  580.1 28.51 28
  580.2 23.72 23
  580.3 12.48 12
  580.5 5.8 5
  580.6 15.36 15
  580.7 23.37 23
  580.8 22.16 22
  580.9 13.29 13
  581.1 8.22 8
  581.2 18.16 18
  581.3 26.4 26
  581.4 24.95 24
  581.5 15.34 15
  581.7 6.38 6
  581.8 13.71 13
  581.9 21.14 21
  582.0 22.42 22
  582.1 17.83 17
  582.3 10.15 10
  582.4 13.22 13
  582.5 19.16 19
  582.6 22.77 22
  582.7 19.74 19
  582.8 11.13 11
  583.0 3.7 3
  583.1 11.24 11
  583.2 19.83 19
  583.3 22.35 22
  583.4 17.16 17
  583.7 10.01 9
  583.8 17.64 17
  583.9 21.9 21
  584.0 19.11 19
  584.1 11.73 11
  584.3 7.52 7
  584.4 14.06 14
  584.5 19.9 19
  584.6 19.74 19
  584.7 13.94 13
  584.9 7.24 7
  585.0 12.62 12
  585.1 19.18 19
  585.2 21.14 21
  585.3 17.25 17
  585.5 10.96 10
  585.6 15.67 15
  585.7 21.67 21
  585.8 23.07 23
  585.9 17.76 17
  586.0 9.89 9
  586.2 9.05 9
  586.3 16.2 16
  586.4 21.35 21
  586.5 20.46 20
  586.6 14.34 14
  586.8 5.24 5
  586.9 9.71 9
  587.0 17.81 17
  587.1 23.23 23
  587.2 21.58 21
  587.3 14.22 14
  587.5 7.08 7
  587.6 13.83 13
  587.7 22.0 21
  587.8 24.35 24
  587.9 18.69 18
  588.2 11.27 11
  588.3 18.51 18
  588.4 21.93 21
  588.5 19.39 19
  588.6 13.97 13
  588.8 11.38 11
  588.9 15.88 15
  589.0 18.88 18
  589.1 16.18 16
  589.4 8.12 8
  589.5 16.78 16
  589.6 23.58 23
  589.7 22.67 22
  589.8 14.76 14
  590.0 2.26 2
  590.1 7.73 7
  590.2 18.67 18
  590.3 26.86 26
  590.4 25.74 25
  590.5 16.85 16
  590.7 8.05 8
  590.8 15.01 14
  590.9 22.02 21
  591.0 22.02 21
  591.1 14.92 14
  591.3 7.52 7
  591.4 14.55 14
  591.5 22.53 22
  591.6 24.53 24
  591.7 19.39 19
  591.9 11.45 11
  592.0 17.3 17
  592.1 24.6 24
  592.2 25.88 25
  592.3 18.69 18
  592.4 7.91 7
  592.6 3.24 3
  592.7 11.43 11
  592.8 19.72 19
  592.9 22.72 22
  593.0 19.44 19
  593.2 10.89 10
  593.3 14.48 14
  593.4 21.42 21
  593.5 24.77 24
  593.6 20.39 20
  593.7 11.55 11
  593.9 9.64 9
  594.0 18.76 18
  594.1 25.3 25
  594.2 23.6 23
  594.3 15.62 15
  594.5 7.98 7
  594.6 14.41 14
  594.7 22.3 22
  594.8 25.21 25
  594.9 20.79 20
  595.0 12.76 12
  595.2 9.31 9
  595.3 16.53 16
  595.4 23.37 23
  595.5 23.51 23
  595.6 16.06 16
  595.8 4.56 4
  595.9 10.29 10
  596.0 18.83 18
  596.1 22.86 22
  596.2 19.83 19
  596.3 13.38 13
  596.5 11.29 11
  596.6 15.95 15
  596.7 18.99 18
  596.8 18.04 18
  596.9 14.39 14
  597.1 11.17 11
  597.2 14.87 14
  597.3 19.76 19
  597.4 21.44 21
  597.5 17.74 17
  597.7 10.75 10
  597.8 15.74 15
  597.9 22.04 22
  598.0 23.35 23
  598.1 18.46 18
  598.2 11.78 11
  598.4 11.36 11
  598.5 16.2 16
  598.6 18.72 18
  598.7 16.62 16
  599.0 11.03 11
  599.1 17.74 17
  599.2 24.05 24
  599.3 24.44 24
  599.4 17.97 17
//
