ACCESSION: MSBNK-RIKEN_NPDepo-NGA02745
RECORD_TITLE: 10-hydroxycamptothecin; LC-ESI-QQQ; MS2; Frag=135.0V CID@5.0; [M+H]+
DATE: 2018.04.04
AUTHORS: Nogawa T, Okano A, CSRS, RIKEN
LICENSE: CC BY
COMMENT: SubCategory_DNP: : Alkaloids derived from anthranilic acid, Quinoline alkaloids
CH$NAME: 10-hydroxycamptothecin
CH$COMPOUND_CLASS: Alkaloids
CH$FORMULA: C20H16N2O5
CH$EXACT_MASS: 364.3609
CH$SMILES: CCC1(O)C(=O)OCc2c1cc1n(c2=O)Cc2cc3cc(O)ccc3nc2-1
CH$IUPAC: InChI=1S/C20H16N2O5/c1-2-20(26)14-7-16-17-11(5-10-6-12(23)3-4-15(10)21-17)8-22(16)18(24)13(14)9-27-19(20)25/h3-7,23,26H,2,8-9H2,1H3
CH$LINK: CAS 19685-09-7
CH$LINK: CHEMSPIDER 87754 3534982 19979630
CH$LINK: INCHIKEY HAWSQZCWOQZXHI-UHFFFAOYSA-N
CH$LINK: PUBCHEM CID:4330531
AC$INSTRUMENT: Agilent 6410 Triple Quadrupole LC/MS system
AC$INSTRUMENT_TYPE: LC-ESI-QQQ
AC$MASS_SPECTROMETRY: MS_TYPE MS2
AC$MASS_SPECTROMETRY: ION_MODE POSITIVE
MS$FOCUSED_ION: PRECURSOR_TYPE [M+H]+
PK$SPLASH: splash10-014i-0009000000-642a9729ad681683fc1c
PK$NUM_PEAK: 15
PK$PEAK: m/z int. rel.int.
  364.3 0.92 0
  364.4 3.2 3
  364.5 7.46 7
  364.6 14.48 14
  364.7 25.78 25
  364.8 42.6 42
  364.9 63.5 63
  365.0 83.61 83
  365.1 97.16 97
  365.2 100.0 99
  365.3 89.7 89
  365.4 66.52 66
  365.5 36.69 36
  365.6 11.27 11
  365.7 0.06 0
//
