ACCESSION: MSBNK-RIKEN_NPDepo-NGA02155
RECORD_TITLE: Petilidine; LC-ESI-QQQ; MS2; Frag=135.0V CID@15.0; [M+H]+
DATE: 2018.04.04
AUTHORS: Nogawa T, Okano A, CSRS, RIKEN
LICENSE: CC BY
COMMENT: Origin: Plant
COMMENT: SubCategory_DNP: Steroidal alkaloids, Petilium alkaloids
CH$NAME: Petilidine
CH$COMPOUND_CLASS: Alkaloids
CH$FORMULA: C27H45NO2
CH$EXACT_MASS: 415.6652
CH$SMILES: C[C@@H]1CCC2[C@H](C)C3CCC4C(CC5C4C[C@H](O)[C@H]4C[C@@H](O)CC[C@]54C)C3CN2C1
CH$IUPAC: InChI=1S/C27H45NO2/c1-15-4-7-25-16(2)18-5-6-19-20(22(18)14-28(25)13-15)11-23-21(19)12-26(30)24-10-17(29)8-9-27(23,24)3/h15-26,29-30H,4-14H2,1-3H3/t15-,16-,17+,18?,19?,20?,21?,22?,23?,24-,25?,26+,27-/m1/s1
CH$LINK: CAS 22169-21-7 204-02-4
CH$LINK: CHEMSPIDER 107301
CH$LINK: INCHIKEY NEMWYOKGHGSVSC-JDFUPSAOSA-N
CH$LINK: PUBCHEM CID:16406893
AC$INSTRUMENT: Agilent 6410 Triple Quadrupole LC/MS system
AC$INSTRUMENT_TYPE: LC-ESI-QQQ
AC$MASS_SPECTROMETRY: MS_TYPE MS2
AC$MASS_SPECTROMETRY: ION_MODE POSITIVE
MS$FOCUSED_ION: PRECURSOR_TYPE [M+H]+
PK$SPLASH: splash10-014i-0000900000-56018f819397c042f7fc
PK$NUM_PEAK: 16
PK$PEAK: m/z int. rel.int.
  415.4 0.84 0
  415.5 2.54 2
  415.6 5.86 5
  415.7 13.01 12
  415.8 25.03 25
  415.9 43.4 43
  416.0 66.34 66
  416.1 87.19 87
  416.2 98.93 98
  416.3 99.94 99
  416.4 92.9 92
  416.5 78.88 78
  416.6 57.15 57
  416.7 31.14 31
  416.8 9.39 9
  416.9 0.92 0
//
