ACCESSION: MSBNK-RIKEN_NPDepo-NGA04514
RECORD_TITLE: Pseudojervine; LC-ESI-QQQ; MS2; Frag=135.0V CID@15.0; [M+HCOO]-
DATE: 2018.04.04
AUTHORS: Nogawa T, Okano A, CSRS, RIKEN
LICENSE: CC BY
COMMENT: Origin: Plant
COMMENT: SubCategory_DNP: Steroidal alkaloids, Veratrum alkaloids
CH$NAME: Pseudojervine
CH$COMPOUND_CLASS: Alkaloids
CH$FORMULA: C33H49NO8
CH$EXACT_MASS: 587.7604
CH$SMILES: CC1=C2C(=O)[C@H]3C(CC=C4CC(O[C@@H]5O[C@H](CO)[C@@H](O)[C@H](O)[C@H]5O)CCC43C)[C@@H]2CC[C@]12O[C@@H]1CC(C)CN[C@H]1[C@H]2C
CH$IUPAC: InChI=1S/C33H49NO8/c1-15-11-22-26(34-13-15)17(3)33(42-22)10-8-20-21-6-5-18-12-19(40-31-30(39)29(38)27(36)23(14-35)41-31)7-9-32(18,4)25(21)28(37)24(20)16(33)2/h5,15,17,19-23,25-27,29-31,34-36,38-39H,6-14H2,1-4H3/t15?,17-,19?,20+,21?,22-,23-,25-,26+,27-,29+,30-,31-,32?,33+/m1/s1
CH$LINK: CAS 36069-05-3
CH$LINK: CHEMSPIDER 16735984
CH$LINK: INCHIKEY HYDDDNUKNMMWBD-YKFLPMENSA-N
CH$LINK: PUBCHEM CID:44661863
AC$INSTRUMENT: Agilent 6410 Triple Quadrupole LC/MS system
AC$INSTRUMENT_TYPE: LC-ESI-QQQ
AC$MASS_SPECTROMETRY: MS_TYPE MS2
AC$MASS_SPECTROMETRY: ION_MODE NEGATIVE
MS$FOCUSED_ION: PRECURSOR_TYPE [M+HCOO]-
PK$SPLASH: splash10-000i-0000093000-02fd546a811827d3996f
PK$NUM_PEAK: 16
PK$PEAK: m/z int. rel.int.
  586.0 0.94 0
  586.1 9.68 9
  586.2 35.43 35
  586.3 72.14 72
  586.4 94.03 93
  586.5 80.1 80
  586.6 41.1 41
  586.7 8.08 8
  631.5 5.98 5
  631.6 9.03 9
  631.7 15.11 15
  631.8 23.67 23
  631.9 30.17 30
  632.0 28.91 28
  632.1 19.9 19
  632.2 9.71 9
//
