ACCESSION: MSBNK-RIKEN_NPDepo-NGA00779
RECORD_TITLE: Harpagide; LC-ESI-QQQ; MS2; Frag=135.0V CID@15.0; [M+Na]+
DATE: 2018.04.04
AUTHORS: Nogawa T, Okano A, CSRS, RIKEN
LICENSE: CC BY
COMMENT: Origin: Plant
COMMENT: SubCategory_DNP: Monoterpenoids, Harpagide monoterpenoids
CH$NAME: Harpagide
CH$COMPOUND_CLASS: Terpenoids
CH$FORMULA: C15H24O10
CH$EXACT_MASS: 364.3525
CH$SMILES: C[C@]1(O)CC(O)C2(O)C=COC(OC3O[C@H](CO)[C@@H](O)[C@H](O)[C@H]3O)C21
CH$IUPAC: InChI=1S/C15H24O10/c1-14(21)4-7(17)15(22)2-3-23-13(11(14)15)25-12-10(20)9(19)8(18)6(5-16)24-12/h2-3,6-13,16-22H,4-5H2,1H3/t6-,7?,8-,9+,10-,11?,12?,13?,14+,15?/m1/s1
CH$LINK: CAS 6926-08-5
CH$LINK: CHEMSPIDER 3866787
CH$LINK: INCHIKEY XUWSHXDEJOOIND-RKYOIMIWSA-N
AC$INSTRUMENT: Agilent 6410 Triple Quadrupole LC/MS system
AC$INSTRUMENT_TYPE: LC-ESI-QQQ
AC$MASS_SPECTROMETRY: MS_TYPE MS2
AC$MASS_SPECTROMETRY: ION_MODE POSITIVE
MS$FOCUSED_ION: PRECURSOR_TYPE [M+Na]+
PK$SPLASH: splash10-000i-0009000000-565d99dd9038b7d1435e
PK$NUM_PEAK: 15
PK$PEAK: m/z int. rel.int.
  386.2 0.98 0
  386.3 3.67 3
  386.4 7.87 7
  386.5 13.35 13
  386.6 19.21 19
  386.7 27.69 27
  386.8 43.6 43
  386.9 67.11 67
  387.0 89.56 89
  387.1 100.0 99
  387.2 93.73 93
  387.3 72.8 72
  387.4 43.51 43
  387.5 15.92 15
  387.6 1.03 1
//
