ACCESSION: MSBNK-RIKEN_NPDepo-NGA01589
RECORD_TITLE: Aconosine; LC-ESI-QQQ; MS2; Frag=135.0V CID@5.0; [M+H]+
DATE: 2018.04.04
AUTHORS: Nogawa T, Okano A, CSRS, RIKEN
LICENSE: CC BY
COMMENT: Origin: Plant
COMMENT: SubCategory_DNP: Terpenoid alkaloids, Diterpene alkaloid, Aconitum alkaloid
CH$NAME: Aconosine
CH$COMPOUND_CLASS: Alkaloids
CH$FORMULA: C22H35NO4
CH$EXACT_MASS: 377.5286
CH$SMILES: CCN1C[C@@H]2CCC(OC)C34C5C[C@@H]6[C@@H](OC)C[C@@](O)(C5[C@H]6O)C(CC23)[C@@H]14
CH$IUPAC: InChI=1S/C22H35NO4/c1-4-23-10-11-5-6-17(27-3)22-13(11)8-15(20(22)23)21(25)9-16(26-2)12-7-14(22)18(21)19(12)24/h11-20,24-25H,4-10H2,1-3H3/t11-,12+,13?,14?,15?,16-,17?,18?,19-,20+,21-,22?/m0/s1
CH$LINK: CAS 38839-95-1
CH$LINK: CHEMSPIDER 148761 10179266
CH$LINK: INCHIKEY VCOQRRVEIUTMFC-QMSLHRSGSA-N
AC$INSTRUMENT: Agilent 6410 Triple Quadrupole LC/MS system
AC$INSTRUMENT_TYPE: LC-ESI-QQQ
AC$MASS_SPECTROMETRY: MS_TYPE MS2
AC$MASS_SPECTROMETRY: ION_MODE POSITIVE
MS$FOCUSED_ION: PRECURSOR_TYPE [M+H]+
PK$SPLASH: splash10-004i-0009000000-57e2d08cdb84e5de10b9
PK$NUM_PEAK: 16
PK$PEAK: m/z int. rel.int.
  377.4 1.13 1
  377.5 2.49 2
  377.6 5.26 5
  377.7 10.4 10
  377.8 19.63 19
  377.9 34.76 34
  378.0 55.21 55
  378.1 76.29 76
  378.2 92.13 92
  378.3 100.0 99
  378.4 99.0 98
  378.5 86.22 86
  378.6 60.4 60
  378.7 29.13 29
  378.8 5.5 5
  378.9 0.0 0
//
