ACCESSION: MSBNK-RIKEN_NPDepo-NGA02056
RECORD_TITLE: Trichodesmine; LC-ESI-QQQ; MS2; Frag=135.0V CID@5.0; [M+H]+
DATE: 2018.04.04
AUTHORS: Nogawa T, Okano A, CSRS, RIKEN
LICENSE: CC BY
COMMENT: Origin: Plant
COMMENT: SubCategory_DNP: Alkaloids derived from ornithine, Pyrrolizidine alkaloids
CH$NAME: Trichodesmine
CH$COMPOUND_CLASS: Alkaloids
CH$FORMULA: C18H27NO6
CH$EXACT_MASS: 353.419
CH$SMILES: CC(C)[C@H]1C(=O)OC2CCN3CC=C(COC(=O)C(C)(O)C1(C)O)[C@H]23
CH$IUPAC: InChI=1S/C18H27NO6/c1-10(2)13-15(20)25-12-6-8-19-7-5-11(14(12)19)9-24-16(21)18(4,23)17(13,3)22/h5,10,12-14,22-23H,6-9H2,1-4H3/t12?,13-,14+,17?,18?/m0/s1
CH$LINK: CAS 548-90-3
CH$LINK: CHEMSPIDER 106367
CH$LINK: INCHIKEY SOODLZHDDSGRKL-YHRDOBKISA-N
CH$LINK: PUBCHEM CID:16397438
AC$INSTRUMENT: Agilent 6410 Triple Quadrupole LC/MS system
AC$INSTRUMENT_TYPE: LC-ESI-QQQ
AC$MASS_SPECTROMETRY: MS_TYPE MS2
AC$MASS_SPECTROMETRY: ION_MODE POSITIVE
MS$FOCUSED_ION: PRECURSOR_TYPE [M+H]+
PK$SPLASH: splash10-0udi-0009000000-0eb122b862cafb1a33b6
PK$NUM_PEAK: 15
PK$PEAK: m/z int. rel.int.
  353.4 1.11 1
  353.5 3.28 3
  353.6 7.53 7
  353.7 15.04 15
  353.8 27.62 27
  353.9 46.36 46
  354.0 68.81 68
  354.1 88.75 88
  354.2 100.0 99
  354.3 99.35 99
  354.4 85.65 85
  354.5 60.38 60
  354.6 30.7 30
  354.7 7.54 7
  354.8 0.0 0
//
