ACCESSION: MSBNK-RIKEN_NPDepo-NGA04126
RECORD_TITLE: Hupehemonoside; LC-ESI-QQQ; MS2; Frag=135.0V CID@10.0; [M+HCOO]-
DATE: 2018.04.04
AUTHORS: Nogawa T, Okano A, CSRS, RIKEN
LICENSE: CC BY
COMMENT: Origin: Plant
COMMENT: SubCategory_DNP: Steroidal alkaloids, Cevanine alkaloids
CH$NAME: Hupehemonoside
CH$COMPOUND_CLASS: Alkaloids
CH$FORMULA: C33H53NO8
CH$EXACT_MASS: 591.7923
CH$SMILES: CC1CC[C@@H]2N(C1)CC1C(CC[C@H]3[C@@H]4CC(=O)[C@H]5CC(O[C@@H]6O[C@H](CO)[C@@H](O)[C@H](O)[C@H]6O)CC[C@]5(C)[C@H]4C[C@@H]13)[C@]2(C)O
CH$IUPAC: InChI=1S/C33H53NO8/c1-16-4-7-27-33(3,40)22-6-5-18-19(21(22)14-34(27)13-16)11-23-20(18)12-25(36)24-10-17(8-9-32(23,24)2)41-31-30(39)29(38)28(37)26(15-35)42-31/h16-24,26-31,35,37-40H,4-15H2,1-3H3/t16?,17?,18-,19-,20+,21?,22?,23+,24-,26-,27+,28-,29+,30-,31-,32-,33+/m1/s1
CH$LINK: CAS 143120-88-1
CH$LINK: CHEMSPIDER 117023
CH$LINK: INCHIKEY DHQFYEJMFMYGCV-CRPZZPISSA-N
AC$INSTRUMENT: Agilent 6410 Triple Quadrupole LC/MS system
AC$INSTRUMENT_TYPE: LC-ESI-QQQ
AC$MASS_SPECTROMETRY: MS_TYPE MS2
AC$MASS_SPECTROMETRY: ION_MODE NEGATIVE
MS$FOCUSED_ION: PRECURSOR_TYPE [M+HCOO]-
PK$SPLASH: splash10-000i-0000009000-634e6c464c149624ba93
PK$NUM_PEAK: 15
PK$PEAK: m/z int. rel.int.
  635.4 0.07 0
  635.5 0.79 0
  635.6 8.56 8
  635.7 23.03 23
  635.8 38.65 38
  635.9 48.25 48
  636.0 50.93 50
  636.1 52.83 52
  636.2 61.18 61
  636.3 78.5 78
  636.4 97.18 97
  636.5 100.0 99
  636.6 75.66 75
  636.7 35.32 35
  636.8 3.78 3
//
