ACCESSION: MSBNK-RIKEN_NPDepo-NGA01603
RECORD_TITLE: Glycoperine; LC-ESI-QQQ; MS2; Frag=135.0V CID@15.0; [M+H]+
DATE: 2018.04.04
AUTHORS: Nogawa T, Okano A, CSRS, RIKEN
LICENSE: CC BY
COMMENT: Origin: Plant
COMMENT: SubCategory_DNP: Alkaloids derived from anthranilic acid, Quinoline alkaloids
CH$NAME: Glycoperine
CH$COMPOUND_CLASS: Alkaloids
CH$FORMULA: C19H21NO8
CH$EXACT_MASS: 391.3811
CH$SMILES: COc1c2ccoc2nc2c(OC)c(O[C@H]3O[C@H](C)[C@@H](O)[C@H](O)[C@@H]3O)ccc12
CH$IUPAC: InChI=1S/C19H21NO8/c1-8-13(21)14(22)15(23)19(27-8)28-11-5-4-9-12(17(11)25-3)20-18-10(6-7-26-18)16(9)24-2/h4-8,13-15,19,21-23H,1-3H3/t8-,13-,14+,15+,19-/m1/s1
CH$LINK: CAS 55740-45-9
CH$LINK: CHEMSPIDER 391209
CH$LINK: INCHIKEY KJOKSAQCWDHTOL-LBSYMCQFSA-N
AC$INSTRUMENT: Agilent 6410 Triple Quadrupole LC/MS system
AC$INSTRUMENT_TYPE: LC-ESI-QQQ
AC$MASS_SPECTROMETRY: MS_TYPE MS2
AC$MASS_SPECTROMETRY: ION_MODE POSITIVE
MS$FOCUSED_ION: PRECURSOR_TYPE [M+H]+
PK$SPLASH: splash10-0002-0090000000-9f5371b46679d982a688
PK$NUM_PEAK: 16
PK$PEAK: m/z int. rel.int.
  245.2 0.59 0
  245.3 2.67 2
  245.4 6.29 6
  245.5 11.37 11
  245.6 19.37 19
  245.7 33.17 33
  245.8 53.5 53
  245.9 75.98 75
  246.0 93.29 93
  246.1 100.0 99
  246.2 94.52 94
  246.3 77.76 77
  246.4 52.94 52
  246.5 26.73 26
  246.6 7.14 7
  246.7 0.0 0
//
