ACCESSION: MSBNK-RIKEN_NPDepo-NGA03570
RECORD_TITLE: Kokanidin; LC-ESI-QQQ; MS2; Frag=135.0V CID@15.0; [M+HCOO]-
DATE: 2018.04.04
AUTHORS: Nogawa T, Okano A, CSRS, RIKEN
LICENSE: CC BY
COMMENT: Origin: Plant, Coumarins, Coumarin terpenoids
CH$NAME: Kokanidin
CH$COMPOUND_CLASS: Benzopyranoids
CH$FORMULA: C26H34O6
CH$EXACT_MASS: 442.5573
CH$SMILES: CC(=O)OC1CC[C@]2(C)C(CC[C@@](C)(O)[C@H]2COc2ccc3ccc(=O)oc3c2)C1(C)C
CH$IUPAC: InChI=1S/C26H34O6/c1-16(27)31-22-11-12-25(4)20(24(22,2)3)10-13-26(5,29)21(25)15-30-18-8-6-17-7-9-23(28)32-19(17)14-18/h6-9,14,20-22,29H,10-13,15H2,1-5H3/t20?,21-,22?,25+,26+/m0/s1
CH$LINK: INCHIKEY RIPKCRCUFJSKKD-FBQVDBQASA-N
CH$LINK: PUBCHEM CID:126961508
AC$INSTRUMENT: Agilent 6410 Triple Quadrupole LC/MS system
AC$INSTRUMENT_TYPE: LC-ESI-QQQ
AC$MASS_SPECTROMETRY: MS_TYPE MS2
AC$MASS_SPECTROMETRY: ION_MODE NEGATIVE
MS$FOCUSED_ION: PRECURSOR_TYPE [M+HCOO]-
PK$SPLASH: splash10-0f6x-4889880000-1f3c4cd388761b790ff1
PK$NUM_PEAK: 4280
PK$PEAK: m/z int. rel.int.
  50.8 7.59 7
  50.9 14.59 14
  51.0 19.82 19
  51.1 19.18 19
  51.2 13.52 13
  51.4 9.4 9
  51.5 16.45 16
  51.6 23.09 23
  51.7 23.0 22
  51.8 16.19 16
  52.0 6.31 6
  52.1 11.1 11
  52.2 18.59 18
  52.3 21.89 21
  52.4 17.79 17
  52.5 10.06 10
  52.7 8.51 8
  52.8 14.7 14
  52.9 18.59 18
  53.0 17.39 17
  53.3 12.18 12
  53.4 18.14 18
  53.5 22.76 22
  53.6 21.18 21
  53.7 13.76 13
  53.9 4.52 4
  54.0 9.45 9
  54.1 16.68 16
  54.2 20.57 20
  54.3 18.17 18
  54.4 11.4 11
  54.6 7.52 7
  54.7 15.2 15
  54.8 22.24 22
  54.9 22.1 22
  55.0 14.96 14
  55.2 5.04 5
  55.3 9.61 9
  55.4 16.61 16
  55.5 20.76 20
  55.6 19.18 19
  55.7 13.67 13
  55.9 9.38 9
  56.0 13.76 13
  56.1 18.1 18
  56.2 18.4 18
  56.3 14.44 14
  56.5 10.77 10
  56.6 16.56 16
  56.7 22.88 22
  56.8 24.39 24
  56.9 20.36 20
  57.1 14.47 14
  57.2 18.5 18
  57.3 23.04 23
  57.4 23.09 23
  57.5 17.84 17
  57.6 11.17 11
  57.8 9.5 9
  57.9 13.85 13
  58.0 16.97 16
  58.1 16.38 16
  58.4 12.7 12
  58.5 18.21 18
  58.6 23.26 23
  58.7 23.8 23
  58.8 18.76 18
  58.9 11.4 11
  59.1 9.28 9
  59.2 15.27 15
  59.3 19.7 19
  59.4 18.83 18
  59.5 13.88 13
  59.7 9.28 9
  59.8 13.95 13
  59.9 19.98 19
  60.0 22.5 22
  60.1 19.02 19
  60.2 11.97 11
  60.4 7.23 7
  60.5 11.9 11
  60.6 16.23 16
  60.7 16.47 16
  60.8 12.82 12
  61.0 9.59 9
  61.1 13.57 13
  61.2 17.01 16
  61.3 16.21 16
  61.4 11.29 11
  61.6 6.01 6
  61.7 11.26 11
  61.8 17.65 17
  61.9 19.11 19
  62.0 13.69 13
  62.3 6.67 6
  62.4 14.33 14
  62.5 18.64 18
  62.6 16.49 16
  62.7 10.67 10
  62.9 7.99 7
  63.0 14.18 14
  63.1 20.45 20
  63.2 21.7 21
  63.3 16.94 16
  63.4 10.23 10
  63.6 7.94 7
  63.7 13.17 13
  63.8 18.05 18
  63.9 18.36 18
  64.0 13.69 13
  64.2 9.24 9
  64.3 14.92 14
  64.4 20.83 20
  64.5 21.61 21
  64.6 16.54 16
  64.8 9.05 9
  64.9 14.21 14
  65.0 21.09 21
  65.1 23.33 23
  65.2 19.09 19
  65.3 12.09 12
  65.5 10.06 10
  65.6 16.02 16
  65.7 20.9 20
  65.8 20.08 20
  65.9 13.69 13
  66.1 6.72 6
  66.2 12.98 12
  66.3 19.77 19
  66.4 20.12 20
  66.5 13.36 13
  66.7 4.36 4
  66.8 10.08 10
  66.9 17.7 17
  67.0 20.64 20
  67.1 16.75 16
  67.4 9.68 9
  67.5 16.45 16
  67.6 20.99 20
  67.7 20.15 20
  67.8 15.01 14
  68.0 9.43 9
  68.1 14.59 14
  68.2 20.69 20
  68.3 21.47 21
  68.4 15.46 15
  68.6 6.27 6
  68.7 11.31 11
  68.8 18.8 18
  68.9 23.09 23
  69.0 21.39 21
  69.1 15.17 15
  69.3 9.07 9
  69.4 15.62 15
  69.5 23.77 23
  69.6 26.3 26
  69.7 20.71 20
  69.8 11.78 11
  70.0 8.6 8
  70.1 14.33 14
  70.2 17.67 17
  70.3 15.13 15
  70.5 6.55 6
  70.6 11.52 11
  70.7 21.39 21
  70.8 28.13 28
  70.9 25.78 25
  71.0 16.26 16
  71.2 6.81 6
  71.3 13.45 13
  71.4 21.61 21
  71.5 25.0 24
  71.6 21.42 21
  71.7 13.88 13
  71.9 11.33 11
  72.0 19.09 19
  72.1 24.67 24
  72.2 22.48 22
  72.3 14.16 14
  72.5 7.54 7
  72.6 14.7 14
  72.7 21.87 21
  72.8 23.07 23
  72.9 18.03 18
  73.1 9.31 9
  73.2 12.96 12
  73.3 19.37 19
  73.4 22.5 22
  73.5 18.69 18
  73.6 9.99 9
  73.8 3.56 3
  73.9 10.82 10
  74.0 18.66 18
  74.1 20.9 20
  74.2 16.23 16
  74.5 9.59 9
  74.6 17.06 17
  74.7 21.77 21
  74.8 19.42 19
  74.9 12.25 12
  75.1 9.92 9
  75.2 17.13 17
  75.3 21.96 21
  75.4 19.58 19
  75.5 11.88 11
  75.7 5.35 5
  75.8 11.33 11
  75.9 18.12 18
  76.0 20.48 20
  76.1 16.78 16
  76.3 7.82 7
  76.4 11.97 11
  76.5 20.05 20
  76.6 24.67 24
  76.7 21.28 21
  76.8 12.98 12
  77.0 10.13 10
  77.1 17.79 17
  77.2 23.75 23
  77.3 22.69 22
  77.4 14.89 14
  77.6 3.51 3
  77.7 9.28 9
  77.8 18.36 18
  77.9 22.57 22
  78.0 18.64 18
  78.1 11.12 11
  78.3 9.31 9
  78.4 14.56 14
  78.5 18.52 18
  78.6 18.92 18
  78.7 15.76 15
  78.9 9.66 9
  79.0 12.87 12
  79.1 18.73 18
  79.2 21.91 21
  79.3 19.51 19
  79.5 12.91 12
  79.6 17.11 17
  79.7 23.02 22
  79.8 24.1 24
  79.9 18.52 18
  80.1 9.47 9
  80.2 14.42 14
  80.3 21.94 21
  80.4 26.18 26
  80.5 24.58 24
  80.6 18.85 18
  81.5 7.05 7
  81.6 12.37 12
  81.7 16.59 16
  81.8 17.11 17
  82.1 13.81 13
  82.2 17.44 17
  82.3 20.55 20
  82.4 19.6 19
  82.5 14.11 14
  82.7 6.53 6
  82.8 11.24 11
  82.9 18.36 18
  83.0 22.36 22
  83.1 20.1 20
  83.2 13.15 13
  83.4 7.05 7
  83.5 13.22 13
  83.6 19.89 19
  83.7 21.04 21
  83.8 16.19 16
  84.0 8.6 8
  84.1 12.54 12
  84.2 18.03 18
  84.3 19.7 19
  84.4 16.02 16
  84.6 8.29 8
  84.7 11.78 11
  84.8 17.72 17
  84.9 20.33 20
  85.0 16.64 16
  85.3 9.38 9
  85.4 16.45 16
  85.5 21.14 21
  85.6 19.18 19
  85.7 12.18 12
  85.9 6.31 6
  86.0 12.16 12
  86.1 18.59 18
  86.2 20.22 20
  86.3 15.46 15
  86.6 7.05 7
  86.7 15.5 15
  86.8 22.71 22
  86.9 23.59 23
  87.0 18.45 18
  87.1 12.04 12
  87.3 10.53 10
  87.4 14.56 14
  87.5 17.7 17
  87.6 17.74 17
  87.7 14.87 14
  87.9 11.9 11
  88.0 15.53 15
  88.1 19.34 19
  88.2 19.13 19
  88.3 14.66 14
  88.5 10.25 10
  88.6 14.8 14
  88.7 19.25 19
  88.8 18.54 18
  88.9 12.21 12
  89.1 4.43 4
  89.2 11.12 11
  89.3 20.52 20
  89.4 24.74 24
  89.5 19.65 19
  89.6 9.21 9
  89.8 5.87 5
  89.9 15.74 15
  90.0 23.3 23
  90.1 22.24 22
  90.2 14.33 14
  90.4 7.3 7
  90.5 14.61 14
  90.6 22.31 22
  90.7 23.59 23
  90.8 17.79 17
  91.0 8.13 8
  91.1 12.84 12
  91.2 20.43 20
  91.3 24.03 24
  91.4 19.93 19
  91.5 10.98 10
  91.7 4.45 4
  91.8 10.44 10
  91.9 17.11 17
  92.0 19.72 19
  92.1 17.22 17
  92.3 11.5 11
  92.4 14.54 14
  92.5 18.69 18
  92.6 19.82 19
  92.7 16.68 16
  92.8 11.33 11
  93.0 9.45 9
  93.1 15.5 15
  93.2 21.04 21
  93.3 21.25 21
  93.4 16.19 16
  93.6 10.82 10
  93.7 16.14 16
  93.8 22.57 22
  93.9 24.25 24
  94.0 18.83 18
  94.1 9.85 9
  94.3 6.9 6
  94.4 14.23 14
  94.5 19.27 19
  94.6 17.93 17
  94.9 12.37 12
  95.0 17.7 17
  95.1 20.66 20
  95.2 18.4 18
  95.3 12.58 12
  95.5 7.94 7
  95.6 13.6 13
  95.7 20.81 20
  95.8 24.25 24
  95.9 21.44 21
  96.0 14.99 14
  96.2 11.38 11
  96.3 16.61 16
  96.4 20.69 20
  96.5 19.11 19
  96.6 12.61 12
  96.8 5.84 5
  96.9 10.7 10
  97.0 17.15 17
  97.1 20.66 20
  97.2 18.71 18
  97.3 12.42 12
  97.5 6.13 6
  97.6 11.78 11
  97.7 18.47 18
  97.8 19.86 19
  97.9 14.56 14
  98.1 6.79 6
  98.2 12.72 12
  98.3 19.77 19
  98.4 21.56 21
  98.5 17.62 17
  98.6 12.61 12
  99.3 9.5 9
  99.4 12.49 12
  99.5 17.72 17
  99.6 21.96 21
  99.7 21.42 21
  99.8 15.81 15
  100.0 9.9 9
  100.1 15.25 15
  100.2 20.9 20
  100.3 21.39 21
  100.4 16.09 16
  100.5 8.98 8
  100.7 6.74 6
  100.8 12.46 12
  100.9 17.55 17
  101.0 17.65 17
  101.1 12.51 12
  101.3 5.28 5
  101.4 8.88 8
  101.5 13.55 13
  101.6 15.06 15
  101.7 12.54 12
  101.9 7.42 7
  102.0 10.7 10
  102.1 16.33 16
  102.2 19.11 19
  102.3 15.81 15
  102.5 6.46 6
  102.6 11.0 10
  102.7 19.46 19
  102.8 24.58 24
  102.9 22.29 22
  103.0 15.06 15
  103.2 7.35 7
  103.3 11.45 11
  103.4 16.94 16
  103.5 19.18 19
  103.6 16.66 16
  103.8 11.52 11
  103.9 14.59 14
  104.0 18.85 18
  104.1 20.0 19
  104.2 16.68 16
  104.4 9.61 9
  104.5 12.94 12
  104.6 19.25 19
  104.7 23.54 23
  104.8 22.2 22
  104.9 15.9 15
  105.0 9.1 9
  105.2 8.51 8
  105.3 13.6 13
  105.4 17.25 17
  105.5 16.52 16
  105.6 12.39 12
  105.8 10.2 10
  105.9 15.15 15
  106.0 20.26 20
  106.1 21.58 21
  106.2 17.74 17
  106.3 11.29 11
  106.5 9.45 9
  106.6 13.74 13
  106.7 15.88 15
  106.8 14.82 14
  107.0 12.51 12
  107.1 15.15 15
  107.2 20.17 20
  107.3 23.82 23
  107.4 22.01 21
  107.5 14.84 14
  107.7 6.29 6
  107.8 11.29 11
  107.9 17.81 17
  108.0 19.49 19
  108.1 13.76 13
  108.3 3.02 3
  108.4 9.28 9
  108.5 19.04 19
  108.6 23.96 23
  108.7 20.03 20
  108.8 10.63 10
  109.0 3.82 3
  109.1 10.65 10
  109.2 17.55 17
  109.3 19.3 19
  109.4 15.72 15
  109.6 9.24 9
  109.7 13.85 13
  109.8 21.65 21
  109.9 26.01 25
  110.0 22.83 22
  110.1 14.99 14
  110.3 11.43 11
  110.4 18.64 18
  110.5 24.55 24
  110.6 23.16 23
  110.7 14.63 14
  110.9 4.41 4
  111.0 10.74 10
  111.1 18.57 18
  111.2 21.23 21
  111.3 17.62 17
  111.5 10.16 10
  111.6 13.83 13
  111.7 19.53 19
  111.8 21.37 21
  111.9 17.08 17
  112.8 4.74 4
  112.9 11.57 11
  113.0 19.11 19
  113.1 20.97 20
  113.2 15.72 15
  113.4 6.22 6
  113.5 11.78 11
  113.6 20.29 20
  113.7 23.89 23
  113.8 19.2 19
  113.9 10.41 10
  114.1 7.78 7
  114.2 16.0 15
  114.3 23.02 22
  114.4 22.97 22
  114.5 16.31 16
  114.7 7.19 7
  114.8 11.78 11
  114.9 18.24 18
  115.0 20.62 20
  115.1 16.52 16
  115.2 8.53 8
  115.4 3.42 3
  115.5 10.72 10
  115.6 18.76 18
  115.7 21.35 21
  115.8 16.75 16
  115.9 9.19 9
  116.1 7.87 7
  116.2 14.23 14
  116.3 17.18 17
  116.4 13.03 13
  116.7 5.33 5
  116.8 12.16 12
  116.9 16.52 16
  117.0 15.17 15
  117.3 9.45 9
  117.4 15.1 15
  117.5 19.46 19
  117.6 18.94 18
  117.7 13.31 13
  117.9 3.35 3
  118.0 7.33 7
  118.1 14.94 14
  118.2 20.08 20
  118.3 19.02 19
  118.4 12.96 12
  118.6 7.85 7
  118.7 14.63 14
  118.8 20.9 20
  118.9 20.48 20
  119.0 14.63 14
  119.2 9.66 9
  119.3 14.07 14
  119.4 18.76 18
  119.5 19.2 19
  119.6 14.09 14
  119.8 6.46 6
  119.9 11.31 11
  120.0 17.48 17
  120.1 19.6 19
  120.2 16.12 16
  120.3 9.99 9
  120.5 7.85 7
  120.6 13.38 13
  120.7 17.58 17
  120.8 16.94 16
  120.9 12.91 12
  121.1 10.86 10
  121.2 15.79 15
  121.3 20.66 20
  121.4 21.37 21
  121.5 16.94 16
  121.8 10.58 10
  121.9 16.87 16
  122.0 21.25 21
  122.1 20.0 19
  122.2 13.69 13
  122.4 5.89 5
  122.5 11.12 11
  122.6 18.21 18
  122.7 20.57 20
  122.8 16.07 16
  123.1 8.72 8
  123.2 15.55 15
  123.3 20.48 20
  123.4 19.77 19
  123.5 14.42 14
  123.7 8.15 8
  123.8 12.18 12
  123.9 17.11 17
  124.0 18.38 18
  124.1 14.99 14
  124.3 9.52 9
  124.4 13.52 13
  124.5 19.49 19
  124.6 22.17 22
  124.7 18.59 18
  124.8 11.07 11
  125.0 7.4 7
  125.1 13.12 13
  125.2 16.97 16
  125.3 15.5 15
  125.6 10.16 10
  125.7 15.88 15
  125.8 21.07 21
  125.9 21.8 21
  126.0 17.51 17
  126.3 9.99 9
  126.4 17.18 17
  126.5 24.65 24
  126.6 26.37 26
  126.7 20.57 20
  127.5 6.46 6
  127.6 13.67 13
  127.7 21.56 21
  127.8 23.16 23
  127.9 16.97 16
  128.2 8.13 8
  128.3 15.62 15
  128.4 19.72 19
  128.5 17.39 17
  128.6 10.65 10
  128.8 3.91 3
  128.9 9.26 9
  129.0 16.02 16
  129.1 18.45 18
  129.2 15.25 15
  130.1 7.35 7
  130.2 12.75 12
  130.3 17.55 17
  130.4 17.48 17
  130.5 12.23 12
  130.7 5.25 5
  130.8 10.49 10
  130.9 17.93 17
  131.0 21.75 21
  131.1 19.49 19
  131.2 13.97 13
  131.4 11.73 11
  131.5 16.28 16
  131.6 19.98 19
  131.7 19.37 19
  131.8 14.26 14
  132.0 7.23 7
  132.1 13.12 13
  132.2 21.84 21
  132.3 26.01 25
  132.4 21.72 21
  132.5 12.61 12
  132.7 9.0 8
  132.8 16.94 16
  132.9 22.48 22
  133.0 20.24 20
  133.1 12.68 12
  133.3 9.35 9
  133.4 16.71 16
  133.5 23.54 23
  133.6 24.69 24
  133.7 19.37 19
  133.8 11.71 11
  134.0 10.79 10
  134.1 17.34 17
  134.2 21.77 21
  134.3 21.37 21
  134.4 17.77 17
  134.6 14.26 14
  134.7 16.75 16
  134.8 18.73 18
  134.9 16.94 16
  135.2 10.2 10
  135.3 16.8 16
  135.4 22.36 22
  135.5 21.89 21
  135.6 15.57 15
  135.8 6.5 6
  135.9 10.7 10
  136.0 17.22 17
  136.1 20.52 20
  136.2 18.05 18
  136.3 12.16 12
  136.5 9.59 9
  136.6 15.9 15
  136.7 22.01 21
  136.8 23.09 23
  136.9 18.59 18
  137.0 12.25 12
  137.2 10.6 10
  137.3 15.2 15
  137.4 18.47 18
  137.5 17.25 17
  137.8 11.19 11
  137.9 18.03 18
  138.0 22.38 22
  138.1 19.75 19
  138.2 12.56 12
  138.4 7.75 7
  138.5 13.12 13
  138.6 19.11 19
  138.7 21.25 21
  138.8 18.17 18
  138.9 12.46 12
  139.1 9.1 9
  139.2 12.21 12
  139.3 14.23 14
  139.4 12.61 12
  139.5 8.11 8
  139.7 4.64 4
  139.8 9.9 9
  139.9 16.47 16
  140.0 19.32 19
  140.1 16.52 16
  140.9 5.33 5
  141.0 8.98 8
  141.1 18.73 18
  141.2 27.0 26
  141.3 26.56 26
  141.4 18.26 18
  141.6 9.8 9
  141.7 15.69 15
  141.8 21.04 21
  141.9 20.59 20
  142.0 15.41 15
  142.2 10.86 10
  142.3 15.41 15
  142.4 21.09 21
  142.5 23.59 23
  142.6 20.76 20
  142.7 14.82 14
  142.9 11.9 11
  143.0 15.83 15
  143.1 18.36 18
  143.2 16.68 16
  143.3 11.12 11
  143.5 1.81 1
  143.6 5.94 5
  143.7 14.49 14
  143.8 20.26 20
  143.9 18.03 18
  144.0 10.32 10
  144.2 7.38 7
  144.3 13.95 13
  144.4 18.21 18
  144.5 16.82 16
  144.7 9.14 9
  144.8 12.04 12
  144.9 19.53 19
  145.0 25.52 25
  145.1 24.41 24
  145.2 16.78 16
  145.3 8.41 8
  145.5 7.23 7
  145.6 12.84 12
  145.7 17.01 16
  145.8 16.12 16
  145.9 10.96 10
  146.1 8.41 8
  146.2 15.32 15
  146.3 21.94 21
  146.4 23.14 23
  146.5 18.59 18
  146.6 12.56 12
  146.8 10.79 10
  146.9 13.41 13
  147.0 14.51 14
  147.1 13.03 13
  147.3 8.39 8
  147.4 10.53 10
  147.5 15.83 15
  147.6 20.29 20
  147.7 19.89 19
  147.8 14.89 14
  148.0 9.47 9
  148.1 14.26 14
  148.2 19.44 19
  148.3 20.12 20
  148.4 16.0 15
  148.6 9.35 9
  148.7 13.03 13
  148.8 19.44 19
  148.9 23.21 23
  149.0 20.71 20
  149.1 13.97 13
  149.3 9.87 9
  149.4 15.74 15
  149.5 21.11 21
  149.6 21.39 21
  149.7 16.99 16
  150.5 8.79 8
  150.6 10.93 10
  150.7 15.67 15
  150.8 19.04 19
  150.9 18.0 17
  151.0 13.55 13
  151.2 10.11 10
  151.3 14.82 14
  151.4 19.18 19
  151.5 18.07 18
  151.6 11.43 11
  151.8 5.3 5
  151.9 12.32 12
  152.0 20.76 20
  152.1 23.96 23
  152.2 19.63 19
  152.3 11.38 11
  152.5 7.78 7
  152.6 13.81 13
  152.7 18.66 18
  152.8 18.97 18
  152.9 15.36 15
  153.2 10.01 9
  153.3 15.32 15
  153.4 19.91 19
  153.5 19.09 19
  153.6 13.01 12
  153.8 6.72 6
  153.9 12.18 12
  154.0 18.5 18
  154.1 20.24 20
  154.2 15.83 15
  154.5 8.67 8
  154.6 14.99 14
  154.7 17.98 17
  154.8 14.94 14
  155.1 9.92 9
  155.2 15.53 15
  155.3 18.99 18
  155.4 17.74 17
  155.5 12.89 12
  155.7 8.18 8
  155.8 13.15 13
  155.9 19.72 19
  156.0 22.13 22
  156.1 17.48 17
  156.4 8.44 8
  156.5 18.03 18
  156.6 24.65 24
  156.7 22.46 22
  156.8 13.83 13
  157.0 6.31 6
  157.1 12.42 12
  157.2 19.09 19
  157.3 20.81 20
  157.4 16.8 16
  157.6 9.4 9
  157.7 12.77 12
  157.8 18.19 18
  157.9 20.26 20
  158.0 16.14 16
  158.3 8.39 8
  158.4 17.51 17
  158.5 23.26 23
  158.6 20.48 20
  158.7 12.56 12
  158.9 10.04 10
  159.0 17.27 17
  159.1 22.69 22
  159.2 21.54 21
  159.3 14.23 14
  159.5 4.17 4
  159.6 9.57 9
  159.7 17.55 17
  159.8 20.92 20
  159.9 16.8 16
  160.0 9.1 9
  160.2 6.24 6
  160.3 13.5 13
  160.4 20.64 20
  160.5 22.17 22
  160.6 17.18 17
  160.7 10.2 10
  161.4 7.63 7
  161.5 12.28 12
  161.6 18.61 18
  161.7 21.11 21
  161.8 16.99 16
  161.9 8.98 8
  162.1 5.89 5
  162.2 14.59 14
  162.3 22.71 22
  162.4 23.73 23
  162.5 17.2 17
  162.6 8.84 8
  162.8 7.92 7
  162.9 14.42 14
  163.0 18.43 18
  163.1 15.86 15
  163.2 8.72 8
  163.4 6.15 6
  163.5 13.95 13
  163.6 20.92 20
  163.7 21.84 21
  163.8 16.92 16
  164.0 10.04 10
  164.1 14.21 14
  164.2 19.65 19
  164.3 21.18 21
  164.4 17.25 17
  164.6 9.24 9
  164.7 13.24 13
  164.8 20.43 20
  164.9 24.84 24
  165.0 22.86 22
  165.1 16.28 16
  165.3 11.4 11
  165.4 17.11 17
  165.5 22.53 22
  165.6 22.53 22
  165.7 16.8 16
  165.9 7.63 7
  166.0 11.71 11
  166.1 18.43 18
  166.2 21.82 21
  166.3 18.94 18
  166.6 11.62 11
  166.7 19.16 19
  166.8 23.7 23
  166.9 19.93 19
  167.0 10.63 10
  167.2 6.79 6
  167.3 16.12 16
  167.4 24.76 24
  167.5 26.34 26
  167.6 20.22 20
  167.9 11.05 11
  168.0 18.99 18
  168.1 24.41 24
  168.2 22.64 22
  168.3 14.92 14
  168.5 5.96 5
  168.6 10.96 10
  168.7 16.68 16
  168.8 17.32 17
  168.9 12.82 12
  169.1 9.47 9
  169.2 15.36 15
  169.3 21.02 20
  169.4 21.56 21
  169.5 16.78 16
  169.6 10.41 10
  169.8 8.67 8
  169.9 14.35 14
  170.0 19.25 19
  170.1 19.16 19
  170.2 14.09 14
  170.4 7.02 7
  170.5 11.15 11
  170.6 16.78 16
  170.7 18.28 18
  170.8 13.41 13
  171.1 5.3 5
  171.2 13.74 13
  171.3 19.65 19
  171.4 17.86 17
  171.5 10.44 10
  171.7 6.57 6
  171.8 14.56 14
  171.9 21.91 21
  172.0 22.57 22
  172.1 16.89 16
  172.3 10.46 10
  172.4 16.05 16
  172.5 22.53 22
  172.6 24.22 24
  172.7 19.06 19
  172.8 10.58 10
  173.0 7.89 7
  173.1 16.02 16
  173.2 22.67 22
  173.3 22.43 22
  173.4 16.07 16
  173.6 7.56 7
  173.7 12.28 12
  173.8 19.34 19
  173.9 22.24 22
  174.0 17.6 17
  174.1 9.05 9
  174.3 7.61 7
  174.4 16.14 16
  174.5 22.6 22
  174.6 22.03 22
  174.7 15.76 15
  174.9 10.44 10
  175.0 16.12 16
  175.1 21.09 21
  175.2 20.1 20
  175.3 13.08 13
  175.5 1.63 1
  175.6 5.89 5
  175.7 14.61 14
  175.8 21.3 21
  175.9 21.54 21
  176.0 16.05 16
  176.2 7.82 7
  176.3 11.76 11
  176.4 17.51 17
  176.5 19.02 19
  176.6 14.63 14
  176.8 9.64 9
  176.9 15.22 15
  177.0 20.26 20
  177.1 19.44 19
  177.2 13.48 13
  177.4 5.87 5
  177.5 9.21 9
  177.6 14.7 14
  177.7 18.4 18
  177.8 17.62 17
  177.9 13.24 13
  178.1 9.75 9
  178.2 14.09 14
  178.3 18.54 18
  178.4 19.39 19
  178.5 15.9 15
  178.7 9.8 9
  178.8 13.9 13
  178.9 20.24 20
  179.0 23.19 23
  179.1 20.55 20
  179.2 14.84 14
  179.4 10.65 10
  179.5 14.44 14
  179.6 18.14 18
  179.7 17.6 17
  179.8 12.68 12
  180.0 8.36 8
  180.1 14.56 14
  180.2 21.56 21
  180.3 23.42 23
  180.4 18.61 18
  180.7 11.73 11
  180.8 17.13 17
  180.9 19.77 19
  181.0 17.62 17
  181.1 12.77 12
  181.3 10.44 10
  181.4 14.73 14
  181.5 18.17 18
  181.6 16.97 16
  181.7 11.31 11
  181.9 5.42 5
  182.0 10.96 10
  182.1 17.93 17
  182.2 20.9 20
  182.3 17.86 17
  182.4 11.71 11
  182.6 9.43 9
  182.7 14.77 14
  182.8 18.54 18
  182.9 17.13 17
  183.0 12.11 12
  183.2 8.98 8
  183.3 13.83 13
  183.4 19.16 19
  183.5 20.59 20
  183.6 16.59 16
  183.8 8.06 8
  183.9 12.72 12
  184.0 20.22 20
  184.1 23.35 23
  184.2 19.09 19
  184.3 10.74 10
  184.5 4.41 4
  184.6 9.87 9
  184.7 15.86 15
  184.8 17.08 17
  184.9 12.79 12
  185.1 5.37 5
  185.2 8.95 8
  185.3 14.82 14
  185.4 17.86 17
  185.5 15.95 15
  185.7 10.44 10
  185.8 13.81 13
  185.9 19.34 19
  186.0 22.71 22
  186.1 21.32 21
  186.2 16.23 16
  186.3 10.86 10
  186.5 10.11 10
  186.6 13.38 13
  186.7 14.92 14
  186.8 12.96 12
  187.0 8.46 8
  187.1 12.77 12
  187.2 19.6 19
  187.3 23.26 23
  187.4 20.76 20
  187.5 15.06 15
  187.7 12.16 12
  187.8 16.02 16
  187.9 19.77 19
  188.0 20.99 20
  188.1 18.97 18
  188.9 10.37 10
  189.0 14.44 14
  189.1 19.72 19
  189.2 20.45 20
  189.3 14.42 14
  189.6 6.55 6
  189.7 15.86 15
  189.8 23.94 23
  189.9 25.87 25
  190.0 20.88 20
  190.3 12.58 12
  190.4 20.66 20
  190.5 25.78 25
  190.6 23.49 23
  190.7 16.21 16
  190.9 10.11 10
  191.0 14.37 14
  191.1 18.5 18
  191.2 18.36 18
  191.3 13.62 13
  191.5 6.41 6
  191.6 11.17 11
  191.7 18.47 18
  191.8 22.03 22
  191.9 18.94 18
  192.0 12.56 12
  192.2 11.1 11
  192.3 16.82 16
  192.4 20.71 20
  192.5 19.67 19
  192.6 15.03 15
  192.8 10.39 10
  192.9 13.1 13
  193.0 16.61 16
  193.1 17.62 17
  193.2 14.37 14
  193.4 5.33 5
  193.5 8.67 8
  193.6 17.25 17
  193.7 24.39 24
  193.8 24.06 24
  193.9 16.68 16
  194.1 7.56 7
  194.2 12.42 12
  194.3 18.26 18
  194.4 20.17 20
  194.5 17.34 17
  194.8 12.51 12
  194.9 18.03 18
  195.0 21.39 21
  195.1 18.47 18
  195.2 11.0 10
  195.4 7.8 7
  195.5 16.09 16
  195.6 23.54 23
  195.7 24.29 24
  195.8 18.99 18
  196.6 5.8 5
  196.7 9.61 9
  196.8 16.73 16
  196.9 21.91 21
  197.0 20.52 20
  197.1 12.91 12
  197.3 4.48 4
  197.4 10.6 10
  197.5 18.07 18
  197.6 20.31 20
  197.7 15.29 15
  197.9 4.19 4
  198.0 8.91 8
  198.1 18.03 18
  198.2 24.15 24
  198.3 22.86 22
  198.4 15.83 15
  198.6 7.85 7
  198.7 12.3 12
  198.8 17.51 17
  198.9 18.26 18
  199.0 13.67 13
  199.2 6.74 6
  199.3 12.28 12
  199.4 20.81 20
  199.5 25.07 25
  199.6 21.11 21
  199.7 12.46 12
  200.5 3.2 3
  200.6 11.33 11
  200.7 20.22 20
  200.8 24.22 24
  200.9 21.63 21
  201.0 15.55 15
  201.2 11.85 11
  201.3 15.48 15
  201.4 18.31 18
  201.5 17.55 17
  201.6 13.64 13
  201.8 9.33 9
  201.9 13.15 13
  202.0 17.86 17
  202.1 18.5 18
  202.2 13.36 13
  202.4 7.07 7
  202.5 14.0 13
  202.6 21.84 21
  202.7 23.61 23
  202.8 18.17 18
  203.1 10.91 10
  203.2 18.97 18
  203.3 24.98 24
  203.4 24.79 24
  203.5 19.67 19
  204.3 10.13 10
  204.4 14.54 14
  204.5 20.55 20
  204.6 23.61 23
  204.7 21.14 21
  204.8 14.47 14
  205.5 11.05 11
  205.6 14.21 14
  205.7 19.93 19
  205.8 23.09 23
  205.9 20.74 20
  206.0 14.7 14
  206.2 8.03 8
  206.3 11.0 10
  206.4 16.0 15
  206.5 19.63 19
  206.6 18.73 18
  206.7 13.34 13
  206.9 6.41 6
  207.0 11.31 11
  207.1 17.79 17
  207.2 20.19 20
  207.3 16.61 16
  207.4 10.41 10
  207.6 8.03 8
  207.7 12.37 12
  207.8 15.74 15
  207.9 15.29 15
  208.2 9.4 9
  208.3 15.29 15
  208.4 21.04 21
  208.5 20.95 20
  208.6 14.49 14
  208.8 6.2 6
  208.9 12.46 12
  209.0 20.33 20
  209.1 22.5 22
  209.2 17.04 17
  209.3 8.98 8
  209.5 8.69 8
  209.6 14.84 14
  209.7 17.84 17
  209.8 15.57 15
  210.0 9.75 9
  210.1 13.2 13
  210.2 18.52 18
  210.3 21.11 21
  210.4 18.83 18
  210.5 13.38 13
  210.8 9.43 9
  210.9 13.69 13
  211.0 16.19 16
  211.1 15.25 15
  211.3 11.24 11
  211.4 13.95 13
  211.5 19.63 19
  211.6 24.1 24
  211.7 23.47 23
  211.8 17.34 17
  211.9 9.52 9
  212.1 8.01 8
  212.2 14.23 14
  212.3 18.21 18
  212.4 16.14 16
  212.5 9.66 9
  212.7 4.24 4
  212.8 9.52 9
  212.9 15.36 15
  213.0 16.97 16
  213.3 12.82 12
  213.4 18.92 18
  213.5 24.41 24
  213.6 23.89 23
  213.7 16.68 16
  213.9 5.37 5
  214.0 10.13 10
  214.1 17.55 17
  214.2 21.09 21
  214.3 18.05 18
  214.4 10.44 10
  214.6 3.25 3
  214.7 10.2 10
  214.8 19.04 19
  214.9 22.74 22
  215.0 19.2 19
  215.1 12.72 12
  215.3 11.31 11
  215.4 16.49 16
  215.5 19.32 19
  215.6 16.68 16
  215.9 10.41 10
  216.0 15.98 15
  216.1 18.76 18
  216.2 15.72 15
  216.3 9.24 9
  216.5 5.25 5
  216.6 11.24 11
  216.7 18.33 18
  216.8 21.11 21
  216.9 17.2 17
  217.1 7.23 7
  217.2 11.71 11
  217.3 19.3 19
  217.4 22.24 22
  217.5 17.18 17
  217.6 8.29 8
  217.8 6.17 6
  217.9 15.29 15
  218.0 24.06 24
  218.1 26.41 26
  218.2 21.16 21
  218.3 12.77 12
  218.5 10.53 10
  218.6 17.55 17
  218.7 23.19 23
  218.8 23.35 23
  218.9 18.99 18
  219.1 15.03 15
  219.2 19.25 19
  219.3 22.43 22
  219.4 20.12 20
  219.5 13.48 13
  219.7 9.66 9
  219.8 15.65 15
  219.9 21.07 21
  220.0 21.82 21
  220.1 17.58 17
  221.0 5.44 5
  221.1 14.47 14
  221.2 22.55 22
  221.3 23.82 23
  221.4 18.28 18
  222.2 7.68 7
  222.3 11.8 11
  222.4 19.34 19
  222.5 23.4 23
  222.6 19.79 19
  222.7 11.31 11
  222.9 6.24 6
  223.0 13.1 13
  223.1 19.3 19
  223.2 19.37 19
  223.3 12.61 12
  223.5 0.52 0
  223.6 5.25 5
  223.7 14.49 14
  223.8 20.81 20
  223.9 19.67 19
  224.0 13.03 13
  224.2 6.5 6
  224.3 11.92 11
  224.4 18.59 18
  224.5 20.71 20
  224.6 16.42 16
  224.8 9.17 9
  224.9 13.64 13
  225.0 18.19 18
  225.1 17.48 17
  225.2 12.21 12
  226.0 3.39 3
  226.1 7.05 7
  226.2 15.57 15
  226.3 21.42 21
  226.4 19.51 19
  226.5 12.32 12
  226.7 8.48 8
  226.8 15.25 15
  226.9 22.01 21
  227.0 23.87 23
  227.1 19.6 19
  227.2 11.97 11
  227.4 6.41 6
  227.5 12.49 12
  227.6 18.9 18
  227.7 19.56 19
  227.8 13.71 13
  228.0 6.55 6
  228.1 11.97 11
  228.2 17.79 17
  228.3 17.95 17
  228.4 11.8 11
  228.6 1.89 1
  228.7 6.9 6
  228.8 15.55 15
  228.9 21.28 21
  229.0 20.5 20
  229.1 15.08 15
  229.3 10.63 10
  229.4 15.57 15
  229.5 20.22 20
  229.6 19.7 19
  229.7 14.21 14
  229.9 10.01 9
  230.0 15.6 15
  230.1 20.57 20
  230.2 20.31 20
  230.3 15.15 15
  230.5 7.0 6
  230.6 10.34 10
  230.7 17.84 17
  230.8 24.48 24
  230.9 24.86 24
  231.0 18.36 18
  231.2 10.89 10
  231.3 16.42 16
  231.4 20.81 20
  231.5 18.26 18
  231.6 10.56 10
  231.8 5.4 5
  231.9 11.83 11
  232.0 18.05 18
  232.1 19.75 19
  232.2 17.37 17
  232.3 13.74 13
  232.5 10.67 10
  232.6 13.38 13
  232.7 17.62 17
  232.8 19.63 19
  232.9 16.87 16
  233.7 6.88 6
  233.8 10.39 10
  233.9 17.98 17
  234.0 23.19 23
  234.1 20.88 20
  234.2 12.68 12
  234.4 7.59 7
  234.5 16.49 16
  234.6 25.14 25
  234.7 26.37 26
  234.8 19.16 19
  235.1 9.5 9
  235.2 19.39 19
  235.3 25.87 25
  235.4 23.73 23
  235.5 15.48 15
  235.7 8.53 8
  235.8 14.7 14
  235.9 20.99 20
  236.0 21.44 21
  236.1 15.65 15
  236.3 8.98 8
  236.4 15.86 15
  236.5 23.68 23
  236.6 25.33 25
  236.7 19.56 19
  236.8 11.4 11
  237.0 9.28 9
  237.1 15.48 15
  237.2 20.88 20
  237.3 21.25 21
  237.4 16.07 16
  237.7 9.92 9
  237.8 16.47 16
  237.9 20.15 20
  238.0 17.81 17
  238.1 11.73 11
  238.3 8.51 8
  238.4 13.69 13
  238.5 17.55 17
  238.6 16.07 16
  238.7 10.65 10
  238.9 8.36 8
  239.0 14.11 14
  239.1 18.76 18
  239.2 18.07 18
  239.3 12.21 12
  239.6 6.13 6
  239.7 12.25 12
  239.8 15.69 15
  239.9 13.43 13
  240.1 5.89 5
  240.2 10.86 10
  240.3 20.38 20
  240.4 27.36 27
  240.5 26.58 26
  240.6 19.32 19
  242.1 10.34 10
  242.2 16.16 16
  242.3 20.38 20
  242.4 19.18 19
  242.5 13.64 13
  242.7 8.48 8
  242.8 13.36 13
  242.9 18.99 18
  243.0 20.74 20
  243.1 17.53 17
  243.2 12.02 12
  243.4 8.88 8
  243.5 13.74 13
  243.6 19.13 19
  243.7 20.31 20
  243.8 16.07 16
  244.0 10.44 10
  244.1 16.38 16
  244.2 23.47 23
  244.3 24.98 24
  244.4 18.94 18
  244.6 5.66 5
  244.7 10.44 10
  244.8 21.04 21
  244.9 28.61 28
  245.0 26.74 26
  245.1 17.37 17
  245.3 7.96 7
  245.4 14.11 14
  245.5 20.9 20
  245.6 22.27 22
  245.7 17.04 17
  246.0 9.8 9
  246.1 18.4 18
  246.2 24.86 24
  246.3 23.96 23
  246.4 16.99 16
  246.6 11.36 11
  246.7 17.81 17
  246.8 22.97 22
  246.9 20.85 20
  247.0 12.68 12
  247.2 5.21 5
  247.3 11.8 11
  247.4 19.91 19
  247.5 23.16 23
  247.6 18.94 18
  247.7 10.32 10
  247.9 5.61 5
  248.0 13.52 13
  248.1 20.85 20
  248.2 20.9 20
  248.3 13.85 13
  248.5 5.47 5
  248.6 10.56 10
  248.7 16.26 16
  248.8 17.51 17
  248.9 13.67 13
  249.1 7.16 7
  249.2 11.15 11
  249.3 17.27 17
  249.4 20.31 20
  249.5 18.14 18
  249.6 13.52 13
  249.8 11.64 11
  249.9 15.62 15
  250.0 19.02 19
  250.1 18.59 18
  250.2 14.47 14
  250.4 10.2 10
  250.5 15.08 15
  250.6 21.39 21
  250.7 23.37 23
  250.8 18.07 18
  251.1 9.78 9
  251.2 18.94 18
  251.3 24.34 24
  251.4 21.35 21
  251.5 12.68 12
  251.7 5.18 5
  251.8 11.73 11
  251.9 19.32 19
  252.0 21.68 21
  252.1 17.22 17
  253.0 6.83 6
  253.1 14.16 14
  253.2 20.76 20
  253.3 21.28 21
  253.4 14.94 14
  253.5 6.01 6
  253.7 3.56 3
  253.8 11.36 11
  253.9 17.34 17
  254.0 16.64 16
  254.2 9.54 9
  254.3 12.87 12
  254.4 18.5 18
  254.5 20.99 20
  254.6 18.21 18
  254.7 12.51 12
  254.9 9.87 9
  255.0 15.81 15
  255.1 21.68 21
  255.2 22.64 22
  255.3 17.77 17
  255.4 10.7 10
  255.6 8.15 8
  255.7 13.74 13
  255.8 18.19 18
  255.9 17.37 17
  256.2 10.49 10
  256.3 17.58 17
  256.4 23.09 23
  256.5 21.82 21
  256.6 14.7 14
  256.8 7.3 7
  256.9 12.75 12
  257.0 18.66 18
  257.1 19.37 19
  257.2 14.7 14
  257.4 9.26 9
  257.5 15.62 15
  257.6 24.41 24
  257.7 28.42 28
  257.8 23.44 23
  257.9 12.72 12
  258.1 4.48 4
  258.2 10.98 10
  258.3 17.48 17
  258.4 18.73 18
  258.5 14.82 14
  258.7 10.74 10
  258.8 15.46 15
  258.9 20.24 20
  259.0 20.03 20
  259.1 13.43 13
  259.4 4.31 4
  259.5 13.1 13
  259.6 20.22 20
  259.7 21.18 21
  259.8 16.42 16
  260.6 5.07 5
  260.7 9.59 9
  260.8 18.47 18
  260.9 23.8 23
  261.0 19.93 19
  261.1 10.23 10
  261.3 5.35 5
  261.4 12.61 12
  261.5 18.57 18
  261.6 18.83 18
  261.7 14.42 14
  261.9 9.57 9
  262.0 13.67 13
  262.1 18.36 18
  262.2 18.71 18
  262.3 13.03 13
  262.6 4.34 4
  262.7 12.32 12
  262.8 18.83 18
  262.9 19.04 19
  263.0 13.43 13
  263.2 7.4 7
  263.3 12.89 12
  263.4 19.13 19
  263.5 20.48 20
  263.6 15.6 15
  263.9 8.32 8
  264.0 15.9 15
  264.1 21.51 21
  264.2 20.29 20
  264.3 13.12 13
  264.5 6.57 6
  264.6 12.84 12
  264.7 18.8 18
  264.8 18.64 18
  264.9 12.89 12
  265.1 7.14 7
  265.2 13.1 13
  265.3 20.41 20
  265.4 23.26 23
  265.5 20.15 20
  265.6 14.66 14
  265.8 12.09 12
  265.9 15.22 15
  266.0 17.91 17
  266.1 17.04 17
  266.2 11.92 11
  266.4 5.63 5
  266.5 11.55 11
  266.6 18.9 18
  266.7 21.23 21
  266.8 16.82 16
  267.1 8.62 8
  267.2 16.09 16
  267.3 22.38 22
  267.4 22.01 21
  267.5 15.43 15
  267.7 9.52 9
  267.8 15.6 15
  267.9 21.02 20
  268.0 20.48 20
  268.1 14.68 14
  268.3 9.61 9
  268.4 15.81 15
  268.5 22.41 22
  268.6 23.37 23
  268.7 17.62 17
  269.0 10.04 10
  269.1 17.58 17
  269.2 22.79 22
  269.3 21.09 21
  269.4 13.38 13
  269.6 5.42 5
  269.7 12.42 12
  269.8 20.69 20
  269.9 22.69 22
  270.0 16.64 16
  270.3 7.75 7
  270.4 16.94 16
  270.5 23.77 23
  270.6 22.6 22
  270.7 14.37 14
  270.9 5.4 5
  271.0 11.97 11
  271.1 19.44 19
  271.2 21.58 21
  271.3 17.88 17
  271.4 12.72 12
  271.6 12.18 12
  271.7 16.28 16
  271.8 18.94 18
  271.9 17.27 17
  272.2 11.4 11
  272.3 17.04 17
  272.4 20.76 20
  272.5 18.71 18
  272.6 12.72 12
  272.8 10.3 10
  272.9 16.05 16
  273.0 20.85 20
  273.1 21.39 21
  273.2 17.53 17
  273.4 9.87 9
  273.5 13.45 13
  273.6 20.74 20
  273.7 24.81 24
  273.8 21.16 21
  273.9 12.39 12
  274.1 8.41 8
  274.2 16.05 16
  274.3 22.29 22
  274.4 21.96 21
  274.5 15.55 15
  274.7 5.77 5
  274.8 10.11 10
  274.9 17.44 17
  275.0 21.21 21
  275.1 18.31 18
  275.2 11.88 11
  275.4 9.78 9
  275.5 15.55 15
  275.6 21.63 21
  275.7 24.74 24
  275.8 23.23 23
  275.9 18.69 18
  276.0 15.06 15
  276.1 14.61 14
  276.2 14.89 14
  276.3 11.88 11
  276.4 5.56 5
  276.6 2.4 2
  276.7 10.18 10
  276.8 18.99 18
  276.9 22.48 22
  277.0 18.69 18
  277.3 11.12 11
  277.4 17.44 17
  277.5 21.98 21
  277.6 21.16 21
  277.7 15.25 15
  278.0 7.66 7
  278.1 14.61 14
  278.2 19.98 19
  278.3 19.39 19
  278.4 13.78 13
  278.6 8.98 8
  278.7 13.15 13
  278.8 15.83 15
  278.9 13.71 13
  279.1 6.39 6
  279.2 9.73 9
  279.3 17.84 17
  279.4 25.42 25
  279.5 26.46 26
  279.6 19.53 19
  279.7 9.4 9
  279.9 5.8 5
  280.0 12.68 12
  280.1 17.25 17
  280.2 15.46 15
  280.4 7.35 7
  280.5 11.0 10
  280.6 18.1 18
  280.7 22.46 22
  280.8 20.0 19
  280.9 12.28 12
  281.1 4.9 4
  281.2 11.38 11
  281.3 19.65 19
  281.4 23.44 23
  281.5 20.59 20
  281.6 14.23 14
  281.8 9.26 9
  281.9 12.82 12
  282.0 16.75 16
  282.1 17.37 17
  282.2 13.55 13
  282.4 7.99 7
  282.5 13.62 13
  282.6 21.42 21
  282.7 24.88 24
  282.8 21.18 21
  282.9 13.76 13
  283.1 10.93 10
  283.2 17.06 17
  283.3 20.9 20
  283.4 17.77 17
  283.5 9.66 9
  283.7 5.54 5
  283.8 13.15 13
  283.9 20.19 20
  284.0 21.11 21
  284.1 15.79 15
  284.3 6.88 6
  284.4 11.52 11
  284.5 19.09 19
  284.6 22.5 22
  284.7 18.4 18
  284.8 10.82 10
  285.0 9.94 9
  285.1 16.71 16
  285.2 21.25 21
  285.3 19.93 19
  285.4 14.37 14
  285.6 9.83 9
  285.7 15.01 14
  285.8 20.24 20
  285.9 20.64 20
  286.0 16.02 16
  286.8 8.18 8
  286.9 10.53 10
  287.0 15.53 15
  287.1 20.29 20
  287.2 21.14 21
  287.3 16.4 16
  287.5 7.0 6
  287.6 12.35 12
  287.7 21.68 21
  287.8 26.37 26
  287.9 21.58 21
  288.0 11.64 11
  288.2 9.87 9
  288.3 19.72 19
  288.4 27.12 27
  288.5 26.2 26
  288.6 18.36 18
  288.8 7.96 7
  288.9 12.63 12
  289.0 19.49 19
  289.1 22.13 22
  289.2 18.26 18
  290.0 4.26 4
  290.1 9.66 9
  290.2 20.66 20
  290.3 29.22 29
  290.4 28.68 28
  290.5 19.56 19
  290.6 8.86 8
  290.8 7.16 7
  290.9 14.35 14
  291.0 19.02 19
  291.1 17.44 17
  291.2 11.5 11
  291.4 7.66 7
  291.5 12.96 12
  291.6 17.46 17
  291.7 17.2 17
  292.0 11.38 11
  292.1 16.52 16
  292.2 21.35 21
  292.3 21.7 21
  292.4 16.99 16
  292.5 10.53 10
  292.7 8.48 8
  292.8 14.16 14
  292.9 18.99 18
  293.0 18.69 18
  293.1 13.88 13
  293.3 11.36 11
  293.4 16.4 16
  293.5 20.22 20
  293.6 19.32 19
  293.7 13.88 13
  293.8 7.12 7
  294.0 5.44 5
  294.1 11.4 11
  294.2 16.31 16
  294.3 16.42 16
  294.4 12.63 12
  294.6 9.87 9
  294.7 14.49 14
  294.8 19.09 19
  294.9 19.56 19
  295.0 15.17 15
  295.2 7.23 7
  295.3 11.71 11
  295.4 19.6 19
  295.5 23.63 23
  295.6 19.32 19
  295.7 9.87 9
  295.9 6.95 6
  296.0 15.5 15
  296.1 21.49 21
  296.2 19.89 19
  296.3 13.6 13
  296.5 11.19 11
  296.6 17.22 17
  296.7 21.96 21
  296.8 21.37 21
  296.9 15.88 15
  297.1 8.13 8
  297.2 12.39 12
  297.3 18.61 18
  297.4 21.07 21
  297.5 18.0 17
  297.7 13.95 13
  297.8 18.73 18
  297.9 23.82 23
  298.0 24.29 24
  298.1 18.78 18
  298.2 10.32 10
  298.4 6.62 6
  298.5 14.8 14
  298.6 23.33 23
  298.7 25.8 25
  298.8 20.17 20
  298.9 10.53 10
  299.1 7.68 7
  299.2 16.61 16
  299.3 23.11 23
  299.4 21.87 21
  299.5 15.62 15
  299.7 12.44 12
  299.8 17.15 17
  299.9 20.85 20
  300.0 19.96 19
  300.1 14.28 14
  300.3 5.25 5
  300.4 9.92 9
  300.5 17.7 17
  300.6 21.75 21
  300.7 18.61 18
  300.8 11.45 11
  301.0 9.83 9
  301.1 17.32 17
  301.2 22.76 22
  301.3 21.51 21
  301.4 15.27 15
  301.6 8.65 8
  301.7 12.28 12
  301.8 17.48 17
  301.9 20.38 20
  302.0 18.66 18
  302.1 13.62 13
  302.3 11.43 11
  302.4 16.12 16
  302.5 18.76 18
  302.6 15.98 15
  302.7 9.94 9
  302.9 7.99 7
  303.0 14.63 14
  303.1 20.88 20
  303.2 21.91 21
  303.3 17.32 17
  303.5 9.35 9
  303.6 12.94 12
  303.7 19.6 19
  303.8 24.27 24
  303.9 23.16 23
  304.0 17.55 17
  304.2 13.97 13
  304.3 18.5 18
  304.4 20.74 20
  304.5 17.11 17
  304.6 9.61 9
  304.8 3.42 3
  304.9 8.81 8
  305.0 15.29 15
  305.1 17.58 17
  305.2 14.44 14
  305.4 8.69 8
  305.5 12.75 12
  305.6 19.02 19
  305.7 22.83 22
  305.8 20.99 20
  305.9 14.09 14
  306.1 4.19 4
  306.2 8.69 8
  306.3 16.47 16
  306.4 21.44 21
  306.5 20.41 20
  306.6 15.17 15
  306.8 9.71 9
  306.9 12.75 12
  307.0 16.0 15
  307.1 15.79 15
  307.4 11.9 11
  307.5 16.28 16
  307.6 18.57 18
  307.7 16.16 16
  307.8 10.63 10
  308.0 6.36 6
  308.1 10.89 10
  308.2 16.19 16
  308.3 18.5 18
  308.4 16.64 16
  308.6 11.48 11
  308.7 14.35 14
  308.8 19.58 19
  308.9 22.05 22
  309.0 18.8 18
  309.1 12.35 12
  309.3 10.25 10
  309.4 16.4 16
  309.5 21.49 21
  309.6 20.74 20
  309.7 14.35 14
  309.9 7.35 7
  310.0 13.05 13
  310.1 19.27 19
  310.2 19.98 19
  310.3 14.66 14
  310.5 6.46 6
  310.6 10.18 10
  310.7 16.19 16
  310.8 19.82 19
  310.9 18.71 18
  311.0 14.0 13
  311.2 10.13 10
  311.3 16.33 16
  311.4 23.92 23
  311.5 26.72 26
  311.6 22.13 22
  311.7 13.64 13
  311.9 8.79 8
  312.0 15.34 15
  312.1 21.49 21
  312.2 21.8 21
  312.3 15.76 15
  312.5 6.22 6
  312.6 11.0 10
  312.7 18.24 18
  312.8 21.04 21
  312.9 17.13 17
  313.1 8.6 8
  313.2 12.49 12
  313.3 18.47 18
  313.4 20.76 20
  313.5 16.97 16
  313.6 10.2 10
  313.8 8.65 8
  313.9 15.76 15
  314.0 21.37 21
  314.1 20.71 20
  314.2 14.75 14
  314.4 9.54 9
  314.5 14.73 14
  314.6 20.22 20
  314.7 21.23 21
  314.8 16.75 16
  315.0 8.46 8
  315.1 12.51 12
  315.2 19.7 19
  315.3 23.54 23
  315.4 19.72 19
  315.5 10.56 10
  315.7 4.12 4
  315.8 11.43 11
  315.9 19.32 19
  316.0 22.13 22
  316.1 18.45 18
  316.2 11.57 11
  316.4 8.6 8
  316.5 14.11 14
  316.6 18.5 18
  316.7 18.33 18
  316.8 14.87 14
  317.0 12.63 12
  317.1 15.98 15
  317.2 18.47 18
  317.3 16.78 16
  317.4 11.15 11
  317.6 5.23 5
  317.7 10.89 10
  317.8 18.83 18
  317.9 22.74 22
  318.0 19.49 19
  318.1 12.18 12
  318.3 9.68 9
  318.4 15.39 15
  318.5 18.54 18
  318.6 16.12 16
  318.9 9.59 9
  319.0 15.2 15
  319.1 20.1 20
  319.2 20.88 20
  319.3 17.2 17
  320.2 9.0 8
  320.3 15.36 15
  320.4 20.83 20
  320.5 21.18 21
  320.6 16.31 16
  320.8 8.2 8
  320.9 12.11 12
  321.0 18.38 18
  321.1 21.3 21
  321.2 18.47 18
  321.3 12.46 12
  321.5 9.17 9
  321.6 14.7 14
  321.7 19.82 19
  321.8 19.37 19
  321.9 13.03 13
  322.1 6.27 6
  322.2 13.31 13
  322.3 21.89 21
  322.4 25.0 24
  322.5 20.26 20
  322.6 11.66 11
  322.8 7.14 7
  322.9 12.7 12
  323.0 17.06 17
  323.1 17.15 17
  323.3 13.08 13
  323.4 14.96 14
  323.5 19.09 19
  323.6 21.68 21
  323.7 19.44 19
  323.8 12.87 12
  324.1 7.35 7
  324.2 13.95 13
  324.3 19.04 19
  324.4 19.16 19
  324.5 14.89 14
  324.7 10.82 10
  324.8 14.7 14
  324.9 18.03 18
  325.0 17.3 17
  325.1 12.96 12
  325.3 8.81 8
  325.4 13.5 13
  325.5 18.87 18
  325.6 19.84 19
  325.7 15.43 15
  325.9 10.08 10
  326.0 15.17 15
  326.1 20.69 20
  326.2 21.37 21
  326.3 16.12 16
  326.5 6.48 6
  326.6 11.31 11
  326.7 20.76 20
  326.8 27.62 27
  326.9 26.58 26
  327.0 18.78 18
  327.9 13.22 13
  328.0 18.43 18
  328.1 22.83 22
  328.2 22.2 22
  328.3 16.49 16
  328.5 10.16 10
  328.6 15.81 15
  328.7 21.8 21
  328.8 21.89 21
  328.9 15.67 15
  329.2 9.54 9
  329.3 16.64 16
  329.4 20.9 20
  329.5 18.64 18
  329.6 11.83 11
  329.8 7.56 7
  329.9 13.6 13
  330.0 19.13 19
  330.1 19.49 19
  330.2 14.7 14
  330.4 8.01 8
  330.5 12.65 12
  330.6 19.65 19
  330.7 23.3 23
  330.8 20.76 20
  330.9 14.33 14
  331.7 9.87 9
  331.8 15.95 15
  331.9 20.99 20
  332.0 20.48 20
  332.1 14.44 14
  332.3 5.63 5
  332.4 10.6 10
  332.5 18.28 18
  332.6 21.84 21
  332.7 18.26 18
  333.0 11.03 11
  333.1 17.62 17
  333.2 21.44 21
  333.3 18.9 18
  333.4 12.23 12
  333.6 8.67 8
  333.7 15.2 15
  333.8 21.58 21
  333.9 22.6 22
  334.0 17.74 17
  334.3 11.59 11
  334.4 17.32 17
  334.5 20.74 20
  334.6 18.87 18
  334.7 13.57 13
  334.9 11.31 11
  335.0 16.47 16
  335.1 20.15 20
  335.2 18.54 18
  335.3 12.54 12
  335.5 5.35 5
  335.6 9.61 9
  335.7 16.35 16
  335.8 20.05 20
  335.9 17.04 17
  336.1 6.48 6
  336.2 10.89 10
  336.3 19.63 19
  336.4 24.29 24
  336.5 20.62 20
  336.6 11.97 11
  336.8 6.27 6
  336.9 11.88 11
  337.0 16.99 16
  337.1 17.11 17
  337.2 12.63 12
  337.4 7.56 7
  337.5 12.25 12
  337.6 19.34 19
  337.7 23.87 23
  337.8 21.77 21
  337.9 13.55 13
  338.1 3.53 3
  338.2 9.4 9
  338.3 17.25 17
  338.4 20.55 20
  338.5 17.51 17
  338.7 11.1 11
  338.8 14.89 14
  338.9 19.7 19
  339.0 20.26 20
  339.1 15.41 15
  339.2 8.46 8
  339.4 6.48 6
  339.5 12.72 12
  339.6 18.43 18
  339.7 19.89 19
  339.8 17.01 16
  340.0 12.3 12
  340.1 15.67 15
  340.2 20.5 20
  340.3 22.36 22
  340.4 19.34 19
  340.5 13.83 13
  340.7 11.73 11
  340.8 16.59 16
  340.9 20.36 20
  341.0 18.83 18
  341.1 12.44 12
  341.3 7.09 7
  341.4 14.47 14
  341.5 22.22 22
  341.6 23.11 23
  341.7 16.4 16
  341.9 5.54 5
  342.0 11.19 11
  342.1 21.07 21
  342.2 27.36 27
  342.3 24.95 24
  342.4 16.28 16
  342.6 9.54 9
  342.7 15.88 15
  342.8 21.54 21
  342.9 20.64 20
  343.0 13.55 13
  343.2 7.0 6
  343.3 14.7 14
  343.4 23.02 22
  343.5 25.26 25
  343.6 20.78 20
  343.7 14.3 14
  343.9 12.28 12
  344.0 17.27 17
  344.1 21.16 21
  344.2 19.02 19
  344.3 10.89 10
  344.5 3.13 3
  344.6 11.71 11
  344.7 22.22 22
  344.8 26.72 26
  344.9 22.79 22
  345.0 14.96 14
  345.2 10.79 10
  345.3 15.1 15
  345.4 17.98 17
  345.5 16.21 16
  345.6 11.0 10
  345.8 8.2 8
  345.9 14.0 13
  346.0 19.37 19
  346.1 19.65 19
  346.2 14.7 14
  346.4 7.66 7
  346.5 12.96 12
  346.6 20.26 20
  346.7 22.46 22
  346.8 16.89 16
  346.9 8.11 8
  347.1 6.48 6
  347.2 14.0 13
  347.3 19.58 19
  347.4 19.18 19
  347.5 14.23 14
  348.3 7.4 7
  348.4 11.78 11
  348.5 17.3 17
  348.6 18.73 18
  348.7 13.93 13
  348.8 6.1 6
  349.0 4.29 4
  349.1 12.02 12
  349.2 18.69 18
  349.3 19.42 19
  349.4 14.3 14
  349.6 8.2 8
  349.7 14.84 14
  349.8 22.74 22
  349.9 24.55 24
  350.0 19.16 19
  350.2 11.29 11
  350.3 16.26 16
  350.4 22.57 22
  350.5 24.81 24
  350.6 21.32 21
  350.7 14.63 14
  350.9 9.99 9
  351.0 15.55 15
  351.1 21.11 21
  351.2 21.02 20
  351.3 14.51 14
  351.6 7.52 7
  351.7 15.1 15
  351.8 19.49 19
  351.9 17.25 17
  352.1 8.53 8
  352.2 12.98 12
  352.3 21.54 21
  352.4 26.25 26
  352.5 21.82 21
  352.6 11.17 11
  352.8 3.96 3
  352.9 12.02 12
  353.0 20.59 20
  353.1 23.99 23
  353.2 20.76 20
  353.3 13.85 13
  353.5 9.35 9
  353.6 15.32 15
  353.7 20.74 20
  353.8 20.24 20
  353.9 14.56 14
  354.1 10.77 10
  354.2 16.19 16
  354.3 20.83 20
  354.4 20.33 20
  354.5 14.75 14
  354.7 6.34 6
  354.8 10.96 10
  354.9 18.4 18
  355.0 22.1 22
  355.1 18.73 18
  355.2 11.33 11
  355.4 9.43 9
  355.5 17.15 17
  355.6 22.5 22
  355.7 20.19 20
  355.8 12.02 12
  356.0 5.4 5
  356.1 12.39 12
  356.2 20.26 20
  356.3 22.74 22
  356.4 18.28 18
  356.5 10.98 10
  356.7 9.64 9
  356.8 15.43 15
  356.9 18.47 18
  357.0 15.98 15
  357.1 10.6 10
  357.3 9.14 9
  357.4 14.07 14
  357.5 18.14 18
  357.6 18.26 18
  357.7 14.47 14
  357.9 9.78 9
  358.0 13.74 13
  358.1 18.5 18
  358.2 19.49 19
  358.3 15.6 15
  358.5 7.94 7
  358.6 11.22 11
  358.7 17.44 17
  358.8 20.9 20
  358.9 17.67 17
  359.0 9.71 9
  359.2 6.24 6
  359.3 14.68 14
  359.4 21.72 21
  359.5 21.58 21
  359.6 15.29 15
  359.9 9.17 9
  360.0 14.94 14
  360.1 18.5 18
  360.2 16.78 16
  360.3 11.48 11
  360.5 8.65 8
  360.6 13.97 13
  360.7 19.06 19
  360.8 19.51 19
  360.9 14.61 14
  361.1 5.7 5
  361.2 9.57 9
  361.3 16.07 16
  361.4 18.87 18
  361.5 15.17 15
  361.8 8.74 8
  361.9 15.48 15
  362.0 20.41 20
  362.1 19.77 19
  362.2 14.11 14
  363.0 4.38 4
  363.1 9.38 9
  363.2 17.37 17
  363.3 21.8 21
  363.4 19.32 19
  363.5 12.75 12
  363.7 9.85 9
  363.8 15.83 15
  363.9 20.62 20
  364.0 19.49 19
  364.1 12.82 12
  364.3 5.84 5
  364.4 12.02 12
  364.5 19.04 19
  364.6 20.64 20
  364.7 16.09 16
  365.0 9.02 9
  365.1 15.57 15
  365.2 20.97 20
  365.3 20.31 20
  365.4 13.76 13
  365.6 7.78 7
  365.7 14.04 14
  365.8 19.86 19
  365.9 20.15 20
  366.0 15.69 15
  366.2 10.86 10
  366.3 14.44 14
  366.4 19.06 19
  366.5 20.88 20
  366.6 17.58 17
  366.9 7.89 7
  367.0 17.37 17
  367.1 26.96 26
  367.2 28.84 28
  367.3 21.63 21
  367.4 11.36 11
  367.6 8.65 8
  367.7 15.9 15
  367.8 20.62 20
  367.9 18.31 18
  368.0 10.96 10
  368.2 5.56 5
  368.3 11.73 11
  368.4 17.46 17
  368.5 17.6 17
  368.6 12.7 12
  368.8 9.17 9
  368.9 14.63 14
  369.0 19.16 19
  369.1 17.86 17
  369.2 11.24 11
  369.4 4.64 4
  369.5 10.77 10
  369.6 18.54 18
  369.7 22.46 22
  369.8 20.43 20
  369.9 14.4 14
  370.7 8.86 8
  370.8 13.01 12
  370.9 16.97 16
  371.0 17.22 17
  371.1 13.34 13
  371.3 6.64 6
  371.4 9.87 9
  371.5 15.72 15
  371.6 19.37 19
  371.7 17.34 17
  371.8 10.82 10
  372.0 4.52 4
  372.1 10.51 10
  372.2 18.14 18
  372.3 21.09 21
  372.4 16.82 16
  372.6 5.63 5
  372.7 10.11 10
  372.8 19.56 19
  372.9 25.87 25
  373.0 23.42 23
  373.1 14.56 14
  373.3 9.35 9
  373.4 17.39 17
  373.5 24.32 24
  373.6 23.96 23
  373.7 16.42 16
  373.9 4.67 4
  374.0 9.78 9
  374.1 18.19 18
  374.2 22.01 21
  374.3 17.65 17
  374.4 9.0 8
  374.6 6.39 6
  374.7 14.92 14
  374.8 22.31 22
  374.9 22.81 22
  375.0 16.28 16
  375.2 6.08 6
  375.3 11.55 11
  375.4 19.96 19
  375.5 23.37 23
  375.6 18.19 18
  375.9 9.71 9
  376.0 17.48 17
  376.1 21.32 21
  376.2 18.07 18
  376.3 10.79 10
  376.5 7.3 7
  376.6 14.09 14
  376.7 19.96 19
  376.8 19.51 19
  376.9 13.41 13
  377.1 7.59 7
  377.2 13.48 13
  377.3 20.31 20
  377.4 22.67 22
  377.5 18.99 18
  377.6 12.16 12
  377.8 8.69 8
  377.9 15.01 14
  378.0 20.99 20
  378.1 21.25 21
  378.2 15.74 15
  378.4 9.0 8
  378.5 13.24 13
  378.6 18.14 18
  378.7 19.3 19
  378.8 15.83 15
  379.0 8.77 8
  379.1 11.78 11
  379.2 17.18 17
  379.3 19.65 19
  379.4 16.26 16
  379.6 6.83 6
  379.7 10.56 10
  379.8 17.79 17
  379.9 22.17 22
  380.0 20.66 20
  380.1 15.43 15
  380.3 10.23 10
  380.4 14.09 14
  380.5 19.42 19
  380.6 21.58 21
  380.7 18.33 18
  380.8 11.99 11
  381.0 9.8 9
  381.1 17.01 16
  381.2 23.68 23
  381.3 23.61 23
  381.4 16.28 16
  381.6 7.02 7
  381.7 13.03 13
  381.8 20.15 20
  381.9 21.68 21
  382.0 16.56 16
  382.3 9.97 9
  382.4 17.48 17
  382.5 23.44 23
  382.6 23.63 23
  382.7 18.0 17
  383.5 9.78 9
  383.6 15.69 15
  383.7 22.53 22
  383.8 23.85 23
  383.9 18.12 18
  384.0 9.92 9
  384.2 8.72 8
  384.3 15.46 15
  384.4 19.77 19
  384.5 17.84 17
  384.6 11.62 11
  384.8 8.27 8
  384.9 14.4 14
  385.0 19.89 19
  385.1 20.5 20
  385.2 16.38 16
  385.4 10.06 10
  385.5 13.15 13
  385.6 17.39 17
  385.7 18.24 18
  385.8 14.47 14
  386.0 8.67 8
  386.1 13.12 13
  386.2 19.77 19
  386.3 23.3 23
  386.4 20.59 20
  386.5 13.29 13
  386.7 6.6 6
  386.8 13.52 13
  386.9 22.29 22
  387.0 25.73 25
  387.1 21.02 20
  387.2 12.13 12
  387.4 6.88 6
  387.5 12.61 12
  387.6 17.91 17
  387.7 18.43 18
  387.8 13.85 13
  388.0 7.0 6
  388.1 11.76 11
  388.2 18.69 18
  388.3 21.28 21
  388.4 17.11 17
  388.7 10.96 10
  388.8 17.79 17
  388.9 21.51 21
  389.0 18.66 18
  389.1 11.73 11
  389.3 8.48 8
  389.4 15.08 15
  389.5 20.88 20
  389.6 20.41 20
  389.7 13.29 13
  389.9 5.16 5
  390.0 12.42 12
  390.1 20.45 20
  390.2 22.1 22
  390.3 16.87 16
  390.4 9.83 9
  390.6 8.39 8
  390.7 14.47 14
  390.8 19.75 19
  390.9 19.65 19
  391.0 14.11 14
  391.2 8.03 8
  391.3 13.52 13
  391.4 20.19 20
  391.5 22.67 22
  391.6 18.94 18
  391.7 12.16 12
  391.9 9.83 9
  392.0 14.99 14
  392.1 18.59 18
  392.2 18.21 18
  392.3 15.27 15
  392.5 13.6 13
  392.6 16.56 16
  392.7 18.99 18
  392.8 17.86 17
  392.9 12.91 12
  393.1 7.45 7
  393.2 13.34 13
  393.3 21.39 21
  393.4 24.62 24
  393.5 19.65 19
  393.6 10.41 10
  393.8 7.96 7
  393.9 15.76 15
  394.0 20.69 20
  394.1 18.76 18
  394.2 12.77 12
  394.4 10.56 10
  394.5 16.42 16
  394.6 21.58 21
  394.7 21.96 21
  394.8 16.73 16
  394.9 9.19 9
  395.1 6.08 6
  395.2 12.68 12
  395.3 18.43 18
  395.4 17.86 17
  395.5 11.48 11
  395.7 8.36 8
  395.8 16.99 16
  395.9 24.22 24
  396.0 23.44 23
  396.1 16.0 15
  396.3 8.88 8
  396.4 14.75 14
  396.5 22.1 22
  396.6 25.64 25
  396.7 22.74 22
  396.8 15.36 15
  397.0 10.51 10
  397.1 17.06 17
  397.2 22.71 22
  397.3 21.56 21
  397.4 14.23 14
  397.6 8.2 8
  397.7 16.16 16
  397.8 24.67 24
  397.9 26.67 26
  398.0 20.85 20
  398.1 12.13 12
  398.3 8.98 8
  398.4 15.17 15
  398.5 19.98 19
  398.6 19.39 19
  398.7 14.37 14
  398.9 8.81 8
  399.0 12.94 12
  399.1 18.52 18
  399.2 21.04 21
  399.3 18.47 18
  399.4 13.17 13
  400.1 1.86 1
  400.2 8.74 8
  400.3 17.53 17
  400.4 22.48 22
  400.5 21.58 21
  400.6 16.56 16
  400.8 10.39 10
  400.9 14.47 14
  401.0 19.86 19
  401.1 21.07 21
  401.2 15.95 15
  401.3 8.11 8
  401.5 6.43 6
  401.6 13.97 13
  401.7 19.53 19
  401.8 17.86 17
  401.9 9.99 9
  402.1 2.97 2
  402.2 10.72 10
  402.3 19.72 19
  402.4 22.93 22
  402.5 18.47 18
  402.6 10.96 10
  403.3 1.39 1
  403.4 6.36 6
  403.5 15.62 15
  403.6 21.11 21
  403.7 18.8 18
  403.8 12.11 12
  404.0 8.13 8
  404.1 13.12 13
  404.2 19.06 19
  404.3 22.71 22
  404.4 22.05 22
  404.5 17.72 17
  404.7 14.54 14
  404.8 20.22 20
  404.9 24.86 24
  405.0 22.34 22
  405.1 13.1 13
  405.3 4.81 4
  405.4 12.84 12
  405.5 21.49 21
  405.6 23.42 23
  405.7 17.7 17
  405.9 7.89 7
  406.0 12.58 12
  406.1 19.82 19
  406.2 22.97 22
  406.3 19.25 19
  406.4 11.69 11
  406.6 8.01 8
  406.7 14.68 14
  406.8 20.41 20
  406.9 20.12 20
  407.0 14.47 14
  407.2 8.98 8
  407.3 14.4 14
  407.4 20.64 20
  407.5 22.64 22
  407.6 19.04 19
  407.7 12.82 12
  407.9 10.89 10
  408.0 16.82 16
  408.1 21.98 21
  408.2 21.58 21
  408.3 15.22 15
  408.5 7.09 7
  408.6 12.87 12
  408.7 19.82 19
  408.8 21.42 21
  408.9 16.94 16
  409.1 10.13 10
  409.2 13.43 13
  409.3 18.19 18
  409.4 20.33 20
  409.5 17.95 17
  409.6 12.68 12
  409.8 9.66 9
  409.9 14.8 14
  410.0 19.53 19
  410.1 18.8 18
  410.2 12.32 12
  410.4 5.87 5
  410.5 12.84 12
  410.6 20.24 20
  410.7 21.23 21
  410.8 15.34 15
  411.0 6.34 6
  411.1 11.33 11
  411.2 18.9 18
  411.3 23.02 22
  411.4 20.97 20
  411.5 15.15 15
  411.7 10.89 10
  411.8 14.8 14
  411.9 18.36 18
  412.0 18.1 18
  412.1 13.83 13
  412.3 7.89 7
  412.4 12.21 12
  412.5 18.71 18
  412.6 21.58 21
  412.7 17.46 17
  412.8 9.38 9
  413.0 7.85 7
  413.1 15.65 15
  413.2 20.52 20
  413.3 18.52 18
  413.4 12.42 12
  413.6 8.79 8
  413.7 13.24 13
  413.8 17.06 17
  413.9 16.73 16
  414.0 12.21 12
  414.2 6.88 6
  414.3 12.16 12
  414.4 19.32 19
  414.5 22.57 22
  414.6 19.18 19
  414.7 11.64 11
  414.9 5.94 5
  415.0 12.51 12
  415.1 19.84 19
  415.2 21.56 21
  415.3 16.26 16
  416.2 6.24 6
  416.3 13.5 13
  416.4 20.08 20
  416.5 20.26 20
  416.6 14.47 14
  416.8 8.67 8
  416.9 13.62 13
  417.0 18.5 18
  417.1 18.83 18
  417.2 14.68 14
  417.4 8.01 8
  417.5 11.03 11
  417.6 16.33 16
  417.7 19.18 19
  417.8 16.87 16
  417.9 11.03 11
  418.1 7.8 7
  418.2 13.71 13
  418.3 19.34 19
  418.4 20.12 20
  418.5 15.86 15
  418.7 9.68 9
  418.8 13.17 13
  418.9 17.27 17
  419.0 17.51 17
  419.1 13.69 13
  419.3 8.27 8
  419.4 11.99 11
  419.5 18.61 18
  419.6 23.7 23
  419.7 23.4 23
  419.8 17.72 17
  420.6 9.47 9
  420.7 14.47 14
  420.8 21.65 21
  420.9 25.26 25
  421.0 22.17 22
  421.1 14.42 14
  421.3 8.48 8
  421.4 14.51 14
  421.5 20.0 19
  421.6 19.91 19
  421.7 15.34 15
  421.9 11.92 11
  422.0 15.88 15
  422.1 19.86 19
  422.2 20.52 20
  422.3 16.75 16
  422.4 11.03 11
  422.6 9.54 9
  422.7 13.64 13
  422.8 16.31 16
  422.9 16.07 16
  423.0 14.09 14
  423.2 11.99 11
  423.3 14.3 14
  423.4 17.55 17
  423.5 18.31 18
  423.6 14.99 14
  423.8 8.58 8
  423.9 11.66 11
  424.0 16.66 16
  424.1 18.9 18
  424.2 16.31 16
  424.3 11.07 11
  424.5 9.24 9
  424.6 14.21 14
  424.7 18.26 18
  424.8 18.03 18
  424.9 14.07 14
  425.1 9.75 9
  425.2 13.08 13
  425.3 16.68 16
  425.4 16.87 16
  425.5 13.17 13
  425.8 8.08 8
  425.9 13.05 13
  426.0 18.26 18
  426.1 19.42 19
  426.2 15.08 15
  426.4 8.15 8
  426.5 12.3 12
  426.6 17.53 17
  426.7 19.39 19
  426.8 16.94 16
  426.9 11.99 11
  427.1 8.79 8
  427.2 13.78 13
  427.3 18.97 18
  427.4 19.79 19
  427.5 15.88 15
  427.7 9.54 9
  427.8 12.58 12
  427.9 17.37 17
  428.0 19.44 19
  428.1 16.73 16
  428.3 11.83 11
  428.4 16.61 16
  428.5 22.17 22
  428.6 22.29 22
  428.7 15.69 15
  429.0 7.07 7
  429.1 15.34 15
  429.2 20.95 20
  429.3 19.11 19
  429.4 11.95 11
  429.6 6.74 6
  429.7 12.32 12
  429.8 18.0 17
  429.9 19.25 19
  430.0 15.41 15
  430.3 9.94 9
  430.4 16.02 16
  430.5 19.93 19
  430.6 18.03 18
  430.7 11.8 11
  430.9 7.26 7
  431.0 11.95 11
  431.1 15.98 15
  431.2 15.72 15
  431.3 11.83 11
  431.5 7.4 7
  431.6 11.12 11
  431.7 17.25 17
  431.8 21.96 21
  431.9 21.65 21
  432.0 16.4 16
  432.2 9.85 9
  432.3 14.42 14
  432.4 19.44 19
  432.5 19.09 19
  432.6 12.79 12
  432.8 5.04 5
  432.9 11.29 11
  433.0 19.32 19
  433.1 22.03 22
  433.2 17.13 17
  433.4 5.91 5
  433.5 10.27 10
  433.6 18.57 18
  433.7 23.4 23
  433.8 20.36 20
  433.9 12.23 12
  434.1 6.93 6
  434.2 12.84 12
  434.3 18.45 18
  434.4 19.82 19
  434.5 16.99 16
  434.7 11.71 11
  434.8 14.51 14
  434.9 19.23 19
  435.0 21.75 21
  435.1 19.58 19
  435.2 14.02 14
  435.4 10.65 10
  435.5 16.33 16
  435.6 21.14 21
  435.7 19.7 19
  435.8 12.84 12
  436.0 7.71 7
  436.1 14.02 14
  436.2 20.08 20
  436.3 20.95 20
  436.4 16.66 16
  437.3 9.31 9
  437.4 16.35 16
  437.5 22.88 22
  437.6 23.52 23
  437.7 17.6 17
  438.0 11.59 11
  438.1 18.19 18
  438.2 22.41 22
  438.3 21.14 21
  438.4 15.65 15
  438.6 12.25 12
  438.7 18.47 18
  438.8 23.85 23
  438.9 22.95 22
  439.0 16.0 15
  439.2 6.83 6
  439.3 11.76 11
  439.4 19.2 19
  439.5 23.28 23
  439.6 20.9 20
  439.7 14.18 14
  439.9 8.55 8
  440.0 13.2 13
  440.1 17.18 17
  440.2 16.09 16
  440.4 9.14 9
  440.5 13.64 13
  440.6 21.77 21
  440.7 25.99 25
  440.8 22.43 22
  440.9 14.18 14
  441.1 6.13 6
  441.2 10.51 10
  441.3 16.94 16
  441.4 20.45 20
  441.5 18.12 18
  441.6 11.76 11
  441.8 6.57 6
  441.9 11.38 11
  442.0 16.52 16
  442.1 17.6 17
  442.2 13.97 13
  442.4 9.21 9
  442.5 13.95 13
  442.6 19.46 19
  442.7 20.74 20
  442.8 16.97 16
  443.0 11.92 11
  443.1 16.05 16
  443.2 20.99 20
  443.3 21.77 21
  443.4 16.54 16
  443.5 8.29 8
  443.7 5.68 5
  443.8 14.35 14
  443.9 22.67 22
  444.0 24.15 24
  444.1 17.91 17
  444.3 6.46 6
  444.4 11.76 11
  444.5 20.36 20
  444.6 23.56 23
  444.7 17.86 17
  444.8 8.67 8
  445.0 7.42 7
  445.1 14.16 14
  445.2 18.99 18
  445.3 19.42 19
  445.4 16.12 16
  445.5 11.43 11
  445.7 10.08 10
  445.8 14.66 14
  445.9 18.0 17
  446.0 16.52 16
  446.3 10.23 10
  446.4 17.79 17
  446.5 23.89 23
  446.6 22.1 22
  446.7 12.82 12
  446.9 2.54 2
  447.0 10.77 10
  447.1 20.99 20
  447.2 24.39 24
  447.3 18.33 18
  447.6 9.92 9
  447.7 18.87 18
  447.8 23.7 23
  447.9 20.99 20
  448.0 13.97 13
  448.2 10.41 10
  448.3 16.09 16
  448.4 20.5 20
  448.5 19.34 19
  448.6 13.74 13
  448.8 9.05 9
  448.9 14.59 14
  449.0 20.81 20
  449.1 22.24 22
  449.2 17.93 17
  449.4 11.45 11
  449.5 15.98 15
  449.6 21.61 21
  449.7 23.09 23
  449.8 18.78 18
  449.9 11.83 11
  450.1 9.31 9
  450.2 15.79 15
  450.3 21.44 21
  450.4 21.23 21
  450.5 15.15 15
  450.7 8.53 8
  450.8 15.86 15
  450.9 24.91 24
  451.0 27.76 27
  451.1 21.89 21
  451.2 12.54 12
  451.4 11.26 11
  451.5 20.62 20
  451.6 27.9 27
  451.7 26.7 26
  451.8 17.3 17
  452.6 5.77 5
  452.7 11.12 11
  452.8 18.76 18
  452.9 21.47 21
  453.0 17.32 17
  453.3 9.64 9
  453.4 16.78 16
  453.5 22.53 22
  453.6 22.38 22
  453.7 17.01 16
  453.9 10.16 10
  454.0 13.76 13
  454.1 18.83 18
  454.2 21.07 21
  454.3 18.07 18
  454.4 11.69 11
  454.6 9.12 9
  454.7 16.05 16
  454.8 22.1 22
  454.9 22.15 22
  455.0 16.19 16
  455.2 7.49 7
  455.3 12.94 12
  455.4 20.59 20
  455.5 22.9 22
  455.6 17.32 17
  455.7 8.74 8
  455.9 7.05 7
  456.0 14.23 14
  456.1 19.58 19
  456.2 18.21 18
  456.3 10.86 10
  456.5 4.9 4
  456.6 12.23 12
  456.7 19.53 19
  456.8 20.45 20
  456.9 14.8 14
  457.1 6.62 6
  457.2 10.86 10
  457.3 16.97 16
  457.4 19.96 19
  457.5 17.84 17
  457.6 12.58 12
  457.8 7.54 7
  457.9 11.1 11
  458.0 15.46 15
  458.1 16.38 16
  458.2 12.56 12
  458.4 8.15 8
  458.5 14.09 14
  458.6 20.78 20
  458.7 22.2 22
  458.8 16.85 16
  459.0 5.54 5
  459.1 9.85 9
  459.2 18.8 18
  459.3 24.46 24
  459.4 21.32 21
  459.5 12.11 12
  459.7 6.76 6
  459.8 14.26 14
  459.9 20.99 20
  460.0 22.01 21
  460.1 17.04 17
  460.4 9.59 9
  460.5 17.37 17
  460.6 22.29 22
  460.7 19.27 19
  460.8 11.12 11
  461.0 9.21 9
  461.1 17.81 17
  461.2 24.08 24
  461.3 22.62 22
  461.4 14.94 14
  461.6 5.66 5
  461.7 10.82 10
  461.8 17.77 17
  461.9 20.17 20
  462.0 16.45 16
  462.2 9.24 9
  462.3 12.65 12
  462.4 18.0 17
  462.5 20.92 20
  462.6 19.44 19
  462.7 15.1 15
  462.9 11.71 11
  463.0 15.03 15
  463.1 18.33 18
  463.2 17.91 17
  463.3 12.54 12
  463.5 3.16 3
  463.6 8.25 8
  463.7 16.87 16
  463.8 21.89 21
  463.9 19.84 19
  464.0 13.64 13
  464.2 9.31 9
  464.3 13.88 13
  464.4 17.81 17
  464.5 16.31 16
  464.6 9.35 9
  464.8 3.11 3
  464.9 11.33 11
  465.0 21.07 21
  465.1 24.03 24
  465.2 17.65 17
  465.5 7.52 7
  465.6 17.48 17
  465.7 24.41 24
  465.8 23.59 23
  465.9 17.2 17
  466.7 8.95 8
  466.8 12.72 12
  466.9 18.64 18
  467.0 21.61 21
  467.1 19.49 19
  467.2 14.54 14
  467.4 11.69 11
  467.5 15.36 15
  467.6 17.95 17
  467.7 16.16 16
  467.8 10.58 10
  468.0 4.81 4
  468.1 9.85 9
  468.2 16.8 16
  468.3 19.96 19
  468.4 16.4 16
  468.7 8.29 8
  468.8 15.48 15
  468.9 19.77 19
  469.0 17.72 17
  469.1 11.83 11
  469.3 8.01 8
  469.4 13.1 13
  469.5 18.45 18
  469.6 19.46 19
  469.7 15.25 15
  470.0 9.02 9
  470.1 14.8 14
  470.2 18.59 18
  470.3 17.3 17
  470.4 12.32 12
  470.6 9.54 9
  470.7 14.42 14
  470.8 18.54 18
  470.9 18.03 18
  471.0 13.12 13
  471.2 7.66 7
  471.3 12.98 12
  471.4 19.09 19
  471.5 19.65 19
  471.6 13.69 13
  471.8 5.44 5
  471.9 10.96 10
  472.0 18.47 18
  472.1 21.61 21
  472.2 17.6 17
  472.3 9.24 9
  472.5 2.54 2
  472.6 9.35 9
  472.7 17.84 17
  472.8 21.28 21
  472.9 17.15 17
  473.0 9.8 9
  473.2 8.6 8
  473.3 14.51 14
  473.4 18.8 18
  473.5 18.83 18
  473.6 15.15 15
  473.8 11.12 11
  473.9 16.19 16
  474.0 22.97 22
  474.1 25.47 25
  474.2 20.76 20
  474.3 12.58 12
  474.5 10.08 10
  474.6 15.74 15
  474.7 19.34 19
  474.8 18.36 18
  474.9 14.35 14
  475.1 12.42 12
  475.2 16.97 16
  475.3 20.17 20
  475.4 17.67 17
  475.5 10.58 10
  475.7 7.73 7
  475.8 15.86 15
  475.9 22.62 22
  476.0 22.1 22
  476.1 14.7 14
  476.3 5.18 5
  476.4 10.23 10
  476.5 16.66 16
  476.6 18.66 18
  476.7 15.32 15
  476.9 9.1 9
  477.0 11.97 11
  477.1 16.85 16
  477.2 19.6 19
  477.3 17.79 17
  477.4 12.68 12
  477.6 9.59 9
  477.7 15.22 15
  477.8 20.95 20
  477.9 21.65 21
  478.0 16.0 15
  478.3 7.63 7
  478.4 15.67 15
  478.5 20.69 20
  478.6 17.93 17
  478.9 8.86 8
  479.0 17.25 17
  479.1 22.6 22
  479.2 20.0 19
  479.3 11.97 11
  479.5 4.88 4
  479.6 10.44 10
  479.7 17.25 17
  479.8 19.96 19
  479.9 16.82 16
  480.0 10.53 10
  480.2 6.15 6
  480.3 10.84 10
  480.4 16.23 16
  480.5 17.77 17
  480.6 14.23 14
  480.8 9.54 9
  480.9 15.06 15
  481.0 21.51 21
  481.1 22.93 22
  481.2 17.55 17
  481.4 7.07 7
  481.5 11.5 11
  481.6 18.69 18
  481.7 21.49 21
  481.8 17.08 17
  482.1 8.46 8
  482.2 18.21 18
  482.3 27.0 26
  482.4 27.87 27
  482.5 20.33 20
  482.7 9.05 9
  482.8 14.77 14
  482.9 22.08 22
  483.0 23.44 23
  483.1 17.2 17
  483.2 8.22 8
  483.4 5.49 5
  483.5 12.44 12
  483.6 17.98 17
  483.7 17.77 17
  484.0 12.11 12
  484.1 17.27 17
  484.2 20.22 20
  484.3 17.62 17
  484.4 11.31 11
  484.6 6.01 6
  484.7 11.31 11
  484.8 17.86 17
  484.9 20.69 20
  485.0 18.36 18
  485.1 13.64 13
  485.9 7.09 7
  486.0 10.39 10
  486.1 16.05 16
  486.2 19.58 19
  486.3 17.77 17
  486.6 12.89 12
  486.7 19.13 19
  486.8 23.0 22
  486.9 20.78 20
  487.0 14.16 14
  487.2 6.24 6
  487.3 9.73 9
  487.4 15.17 15
  487.5 17.39 17
  487.6 13.76 13
  487.9 6.93 6
  488.0 14.94 14
  488.1 21.39 21
  488.2 21.3 21
  488.3 15.25 15
  488.5 7.68 7
  488.6 12.28 12
  488.7 17.93 17
  488.8 19.39 19
  488.9 15.5 15
  489.1 8.62 8
  489.2 13.45 13
  489.3 20.66 20
  489.4 23.52 23
  489.5 19.11 19
  489.7 8.77 8
  489.8 13.38 13
  489.9 21.3 21
  490.0 24.55 24
  490.1 19.51 19
  490.2 10.53 10
  490.4 7.92 7
  490.5 14.16 14
  490.6 18.69 18
  490.7 19.02 19
  490.8 16.07 16
  491.1 11.0 10
  491.2 15.39 15
  491.3 19.44 19
  491.4 19.58 19
  491.5 15.69 15
  491.7 11.48 11
  491.8 15.9 15
  491.9 21.11 21
  492.0 21.94 21
  492.1 16.92 16
  493.0 9.07 9
  493.1 15.72 15
  493.2 19.93 19
  493.3 17.84 17
  493.4 10.96 10
  493.6 5.3 5
  493.7 11.43 11
  493.8 18.54 18
  493.9 21.28 21
  494.0 18.28 18
  494.1 12.61 12
  494.3 10.7 10
  494.4 16.42 16
  494.5 21.49 21
  494.6 21.49 21
  494.7 16.66 16
  494.9 11.05 11
  495.0 14.7 14
  495.1 18.36 18
  495.2 17.6 17
  495.3 12.32 12
  495.5 5.75 5
  495.6 10.93 10
  495.7 18.66 18
  495.8 22.9 22
  495.9 20.15 20
  496.0 12.89 12
  496.2 8.98 8
  496.3 17.01 16
  496.4 24.93 24
  496.5 25.57 25
  496.6 18.21 18
  496.8 9.5 9
  496.9 15.93 15
  497.0 22.05 22
  497.1 21.32 21
  497.2 14.47 14
  497.4 7.56 7
  497.5 12.39 12
  497.6 17.79 17
  497.7 19.7 19
  497.8 17.55 17
  497.9 13.78 13
  498.1 12.56 12
  498.2 15.86 15
  498.3 18.4 18
  498.4 17.3 17
  498.5 12.44 12
  498.7 5.25 5
  498.8 8.46 8
  498.9 13.5 13
  499.0 16.12 16
  499.1 14.37 14
  499.4 9.97 9
  499.5 15.53 15
  499.6 20.22 20
  499.7 20.26 20
  499.8 15.86 15
  500.0 9.5 9
  500.1 12.98 12
  500.2 17.88 17
  500.3 19.25 19
  500.4 15.6 15
  500.6 8.95 8
  500.7 12.49 12
  500.8 18.36 18
  500.9 22.08 22
  501.0 21.14 21
  501.1 16.23 16
  501.3 9.4 9
  501.4 13.03 13
  501.5 18.61 18
  501.6 21.02 20
  501.7 18.17 18
  502.5 11.45 11
  502.6 15.72 15
  502.7 21.11 21
  502.8 22.79 22
  502.9 18.52 18
  503.0 10.65 10
  503.2 4.52 4
  503.3 10.16 10
  503.4 16.49 16
  503.5 18.21 18
  503.6 14.3 14
  503.8 6.83 6
  503.9 10.96 10
  504.0 18.12 18
  504.1 22.38 22
  504.2 20.03 20
  504.3 12.82 12
  504.5 7.45 7
  504.6 14.63 14
  504.7 22.15 22
  504.8 23.26 23
  504.9 17.22 17
  505.1 8.25 8
  505.2 13.12 13
  505.3 19.39 19
  505.4 21.18 21
  505.5 17.53 17
  505.8 12.46 12
  505.9 16.64 16
  506.0 19.39 19
  506.1 18.66 18
  506.2 14.84 14
  506.4 11.64 11
  506.5 16.85 16
  506.6 22.53 22
  506.7 23.26 23
  506.8 17.93 17
  507.1 11.15 11
  507.2 16.92 16
  507.3 19.72 19
  507.4 17.22 17
  507.7 11.88 11
  507.8 17.88 17
  507.9 22.1 22
  508.0 20.55 20
  508.1 13.64 13
  508.4 6.83 6
  508.5 13.85 13
  508.6 18.8 18
  508.7 18.24 18
  508.8 13.74 13
  509.0 11.57 11
  509.1 16.33 16
  509.2 19.39 19
  509.3 16.71 16
  509.4 9.47 9
  509.6 3.65 3
  509.7 10.49 10
  509.8 18.57 18
  509.9 21.51 21
  510.0 17.22 17
  510.1 9.61 9
  510.3 7.59 7
  510.4 14.47 14
  510.5 19.6 19
  510.6 18.36 18
  510.7 11.95 11
  510.9 5.68 5
  511.0 11.03 11
  511.1 16.97 16
  511.2 17.46 17
  511.3 11.62 11
  511.5 4.97 4
  511.6 12.25 12
  511.7 21.02 20
  511.8 24.06 24
  511.9 18.92 18
  512.0 9.68 9
  512.2 5.25 5
  512.3 12.37 12
  512.4 18.12 18
  512.5 17.37 17
  512.6 11.07 11
  512.8 5.14 5
  512.9 12.09 12
  513.0 21.42 21
  513.1 26.2 26
  513.2 23.26 23
  513.3 15.9 15
  513.5 13.48 13
  513.6 20.15 20
  513.7 24.69 24
  513.8 22.36 22
  513.9 14.54 14
  514.1 6.31 6
  514.2 12.11 12
  514.3 19.98 19
  514.4 23.4 23
  514.5 19.2 19
  514.8 10.32 10
  514.9 19.2 19
  515.0 24.65 24
  515.1 21.37 21
  515.2 11.83 11
  515.4 6.95 6
  515.5 16.61 16
  515.6 24.62 24
  515.7 23.77 23
  515.8 15.72 15
  516.0 7.66 7
  516.1 13.74 13
  516.2 20.92 20
  516.3 23.21 23
  516.4 18.69 18
  516.5 11.15 11
  516.7 9.94 9
  516.8 17.04 17
  516.9 21.89 21
  517.0 20.45 20
  517.1 14.75 14
  517.3 10.63 10
  517.4 15.32 15
  517.5 20.78 20
  517.6 23.04 23
  517.7 19.82 19
  517.8 13.12 13
  518.0 9.73 9
  518.1 15.01 14
  518.2 18.8 18
  518.3 17.34 17
  518.4 11.76 11
  518.6 7.71 7
  518.7 14.07 14
  518.8 20.99 20
  518.9 22.62 22
  519.0 17.86 17
  519.3 10.93 10
  519.4 17.7 17
  519.5 21.77 21
  519.6 19.63 19
  519.7 13.55 13
  519.9 10.13 10
  520.0 15.13 15
  520.1 19.79 19
  520.2 19.82 19
  520.3 14.87 14
  520.5 10.84 10
  520.6 17.3 17
  520.7 22.74 22
  520.8 20.92 20
  520.9 13.03 13
  521.1 6.29 6
  521.2 12.82 12
  521.3 20.03 20
  521.4 22.22 22
  521.5 17.6 17
  521.6 9.35 9
  521.8 4.59 4
  521.9 12.39 12
  522.0 20.38 20
  522.1 21.42 21
  522.2 14.49 14
  522.4 3.16 3
  522.5 8.74 8
  522.6 17.27 17
  522.7 21.56 21
  522.8 18.73 18
  522.9 12.37 12
  523.1 9.45 9
  523.2 13.52 13
  523.3 16.21 16
  523.4 14.56 14
  523.5 9.68 9
  523.7 7.28 7
  523.8 13.29 13
  523.9 18.85 18
  524.0 19.06 19
  524.1 13.78 13
  524.3 6.86 6
  524.4 12.56 12
  524.5 20.08 20
  524.6 22.24 22
  524.7 16.8 16
  525.6 7.92 7
  525.7 14.26 14
  525.8 19.65 19
  525.9 19.84 19
  526.0 14.75 14
  526.1 8.11 8
  526.3 6.01 6
  526.4 11.15 11
  526.5 15.74 15
  526.6 16.47 16
  526.7 13.27 13
  526.9 10.25 10
  527.0 14.77 14
  527.1 19.32 19
  527.2 19.58 19
  527.3 15.55 15
  527.5 12.25 12
  527.6 16.99 16
  527.7 21.04 21
  527.8 20.12 20
  527.9 14.54 14
  528.1 6.81 6
  528.2 10.65 10
  528.3 17.77 17
  528.4 23.33 23
  528.5 23.33 23
  528.6 17.79 17
  528.8 10.41 10
  528.9 15.29 15
  529.0 21.98 21
  529.1 24.86 24
  529.2 21.42 21
  529.3 14.73 14
  529.5 13.15 13
  529.6 18.76 18
  529.7 21.94 21
  529.8 18.69 18
  529.9 10.01 9
  530.1 2.95 2
  530.2 12.35 12
  530.3 22.74 22
  530.4 25.31 25
  530.5 19.09 19
  530.6 10.93 10
  531.3 5.28 5
  531.4 10.49 10
  531.5 19.82 19
  531.6 25.49 25
  531.7 22.95 22
  531.8 14.77 14
  532.0 9.57 9
  532.1 16.78 16
  532.2 23.07 23
  532.3 22.24 22
  532.4 14.42 14
  532.6 4.01 4
  532.7 10.37 10
  532.8 19.56 19
  532.9 23.35 23
  533.0 18.76 18
  533.1 10.6 10
  533.3 7.56 7
  533.4 12.44 12
  533.5 16.23 16
  533.6 16.45 16
  533.7 13.38 13
  533.9 9.05 9
  534.0 12.7 12
  534.1 18.4 18
  534.2 21.37 21
  534.3 18.69 18
  534.4 12.49 12
  534.6 9.57 9
  534.7 14.89 14
  534.8 19.02 19
  534.9 18.36 18
  535.0 13.64 13
  535.2 9.33 9
  535.3 14.73 14
  535.4 21.32 21
  535.5 23.94 23
  535.6 20.52 20
  535.7 13.76 13
  535.9 10.11 10
  536.0 15.83 15
  536.1 20.69 20
  536.2 19.84 19
  536.3 14.21 14
  536.5 10.6 10
  536.6 15.98 15
  536.7 20.71 20
  536.8 20.55 20
  536.9 15.41 15
  537.2 9.73 9
  537.3 16.12 16
  537.4 20.05 20
  537.5 17.88 17
  537.6 11.59 11
  537.8 9.31 9
  537.9 16.19 16
  538.0 21.47 21
  538.1 20.1 20
  538.2 12.89 12
  538.4 4.67 4
  538.5 11.29 11
  538.6 20.29 20
  538.7 24.2 24
  538.8 19.84 19
  538.9 11.22 11
  539.1 6.83 6
  539.2 13.67 13
  539.3 19.67 19
  539.4 19.34 19
  539.5 12.94 12
  539.7 7.8 7
  539.8 14.37 14
  539.9 20.0 19
  540.0 19.04 19
  540.1 12.46 12
  540.3 6.13 6
  540.4 11.95 11
  540.5 18.83 18
  540.6 21.07 21
  540.7 16.73 16
  540.8 8.72 8
  541.0 4.41 4
  541.1 12.63 12
  541.2 21.04 21
  541.3 22.36 22
  541.4 15.53 15
  541.6 4.97 4
  541.7 10.96 10
  541.8 19.09 19
  541.9 21.72 21
  542.0 16.87 16
  542.3 10.01 9
  542.4 17.44 17
  542.5 22.22 22
  542.6 20.69 20
  542.7 14.42 14
  542.9 8.6 8
  543.0 14.07 14
  543.1 20.36 20
  543.2 21.8 21
  543.3 16.85 16
  543.5 8.53 8
  543.6 14.49 14
  543.7 23.04 23
  543.8 26.41 26
  543.9 21.61 21
  544.0 12.75 12
  544.2 7.68 7
  544.3 14.09 14
  544.4 20.55 20
  544.5 22.15 22
  544.6 18.12 18
  545.5 5.68 5
  545.6 11.52 11
  545.7 16.78 16
  545.8 15.98 15
  546.1 7.33 7
  546.2 16.12 16
  546.3 23.7 23
  546.4 23.16 23
  546.5 15.17 15
  546.7 5.73 5
  546.8 12.18 12
  546.9 20.78 20
  547.0 24.08 24
  547.1 19.18 19
  547.2 10.08 10
  547.4 6.88 6
  547.5 15.03 15
  547.6 22.31 22
  547.7 23.54 23
  547.8 18.45 18
  548.7 10.74 10
  548.8 14.63 14
  548.9 17.32 17
  549.0 15.6 15
  549.1 9.92 9
  549.3 6.03 6
  549.4 13.41 13
  549.5 21.8 21
  549.6 24.95 24
  549.7 21.28 21
  549.8 14.96 14
  550.6 7.96 7
  550.7 15.32 15
  550.8 21.82 21
  550.9 22.41 22
  551.0 16.49 16
  551.2 7.99 7
  551.3 14.3 14
  551.4 22.62 22
  551.5 25.33 25
  551.6 20.0 19
  551.7 11.38 11
  551.9 8.06 8
  552.0 14.14 14
  552.1 18.94 18
  552.2 18.57 18
  552.3 13.74 13
  552.5 9.8 9
  552.6 15.08 15
  552.7 20.5 20
  552.8 20.74 20
  552.9 14.92 14
  553.1 6.2 6
  553.2 11.43 11
  553.3 18.9 18
  553.4 22.1 22
  553.5 18.21 18
  553.6 10.23 10
  553.8 7.07 7
  553.9 15.15 15
  554.0 22.36 22
  554.1 23.33 23
  554.2 18.19 18
  554.3 11.64 11
  554.5 11.12 11
  554.6 16.33 16
  554.7 19.16 19
  554.8 16.68 16
  555.1 9.92 9
  555.2 16.05 16
  555.3 20.9 20
  555.4 19.84 19
  555.5 13.41 13
  555.7 6.81 6
  555.8 12.23 12
  555.9 17.81 17
  556.0 17.65 17
  556.1 11.5 11
  556.3 4.59 4
  556.4 11.78 11
  556.5 20.88 20
  556.6 23.96 23
  556.7 17.84 17
  557.0 6.17 6
  557.1 18.12 18
  557.2 27.52 27
  557.3 26.25 26
  557.4 15.6 15
  557.6 3.49 3
  557.7 11.48 11
  557.8 21.25 21
  557.9 24.62 24
  558.0 19.67 19
  558.1 11.48 11
  558.3 10.25 10
  558.4 17.18 17
  558.5 21.87 21
  558.6 20.88 20
  558.7 16.09 16
  558.9 13.83 13
  559.0 18.43 18
  559.1 21.61 21
  559.2 20.12 20
  559.3 15.29 15
  559.5 10.98 10
  559.6 15.03 15
  559.7 20.64 20
  559.8 23.66 23
  559.9 21.3 21
  560.0 14.73 14
  560.2 8.34 8
  560.3 13.2 13
  560.4 18.52 18
  560.5 18.71 18
  560.6 13.08 13
  560.8 6.08 6
  560.9 12.11 12
  561.0 19.86 19
  561.1 22.57 22
  561.2 17.44 17
  561.5 7.82 7
  561.6 17.3 17
  561.7 23.68 23
  561.8 21.16 21
  561.9 11.57 11
  562.1 2.54 2
  562.2 11.24 11
  562.3 21.51 21
  562.4 24.29 24
  562.5 17.46 17
  562.8 8.95 8
  562.9 16.64 16
  563.0 20.22 20
  563.1 17.46 17
  564.0 7.09 7
  564.1 13.08 13
  564.2 18.83 18
  564.3 19.67 19
  564.4 15.15 15
  564.7 8.34 8
  564.8 15.67 15
  564.9 21.28 21
  565.0 19.96 19
  565.1 13.01 12
  565.3 5.94 5
  565.4 9.78 9
  565.5 13.95 13
  565.6 15.29 15
  565.7 13.74 13
  565.9 11.15 11
  566.0 13.64 13
  566.1 17.34 17
  566.2 18.64 18
  566.3 15.15 15
  566.5 7.4 7
  566.6 12.37 12
  566.7 19.72 19
  566.8 22.2 22
  566.9 17.81 17
  567.0 10.79 10
  567.2 8.67 8
  567.3 14.99 14
  567.4 21.11 21
  567.5 22.13 22
  567.6 17.32 17
  567.9 11.45 11
  568.0 16.89 16
  568.1 19.98 19
  568.2 17.95 17
  568.3 12.35 12
  568.5 9.52 9
  568.6 16.21 16
  568.7 22.76 22
  568.8 23.33 23
  568.9 16.89 16
  569.1 6.74 6
  569.2 11.88 11
  569.3 19.58 19
  569.4 22.74 22
  569.5 18.38 18
  569.6 10.13 10
  569.8 8.51 8
  569.9 16.92 16
  570.0 22.9 22
  570.1 21.35 21
  570.2 14.02 14
  570.4 6.88 6
  570.5 12.25 12
  570.6 18.43 18
  570.7 19.63 19
  570.8 14.73 14
  571.0 8.29 8
  571.1 14.96 14
  571.2 23.11 23
  571.3 25.35 25
  571.4 19.56 19
  571.5 10.49 10
  571.7 8.67 8
  571.8 17.32 17
  571.9 24.27 24
  572.0 23.52 23
  572.1 15.29 15
  572.2 5.61 5
  572.4 4.5 4
  572.5 11.33 11
  572.6 16.59 16
  572.7 17.34 17
  572.8 14.18 14
  573.0 10.72 10
  573.1 15.32 15
  573.2 20.43 20
  573.3 20.66 20
  573.4 14.92 14
  573.6 5.7 5
  573.7 10.79 10
  573.8 19.11 19
  573.9 23.37 23
  574.0 19.96 19
  574.3 12.44 12
  574.4 19.42 19
  574.5 23.49 23
  574.6 21.09 21
  574.7 14.11 14
  574.9 8.29 8
  575.0 14.66 14
  575.1 22.1 22
  575.2 24.34 24
  575.3 19.63 19
  575.4 12.25 12
  575.6 10.7 10
  575.7 15.08 15
  575.8 16.87 16
  575.9 14.51 14
  576.2 9.9 9
  576.3 15.17 15
  576.4 19.86 19
  576.5 19.77 19
  576.6 14.21 14
  576.8 5.0 4
  576.9 9.87 9
  577.0 18.59 18
  577.1 23.96 23
  577.2 21.18 21
  577.3 12.89 12
  577.5 8.95 8
  577.6 15.29 15
  577.7 18.8 18
  577.8 15.39 15
  578.1 6.36 6
  578.2 15.53 15
  578.3 23.37 23
  578.4 23.35 23
  578.5 15.5 15
  578.7 3.75 3
  578.8 8.93 8
  578.9 16.4 16
  579.0 19.2 19
  579.1 15.5 15
  579.3 7.87 7
  579.4 11.71 11
  579.5 18.4 18
  579.6 23.0 22
  579.7 22.34 22
  579.8 16.61 16
  580.1 9.38 9
  580.2 15.48 15
  580.3 18.92 18
  580.4 16.28 16
  580.5 9.83 9
  580.7 7.52 7
  580.8 14.33 14
  580.9 18.99 18
  581.0 15.86 15
  581.1 6.86 6
  581.3 1.72 1
  581.4 10.82 10
  581.5 20.19 20
  581.6 23.26 23
  581.7 19.11 19
  581.9 9.94 9
  582.0 13.93 13
  582.1 21.28 21
  582.2 25.85 25
  582.3 23.52 23
  582.4 15.67 15
  582.6 6.6 6
  582.7 11.83 11
  582.8 19.49 19
  582.9 23.37 23
  583.0 20.43 20
  583.1 13.34 13
  583.3 10.2 10
  583.4 16.09 16
  583.5 19.93 19
  583.6 18.05 18
  584.5 12.18 12
  584.6 18.43 18
  584.7 22.17 22
  584.8 19.65 19
  584.9 12.58 12
  585.1 4.78 4
  585.2 9.1 9
  585.3 15.93 15
  585.4 20.41 20
  585.5 19.63 19
  585.6 15.1 15
  585.8 13.24 13
  585.9 18.0 17
  586.0 21.09 21
  586.1 18.73 18
  586.2 12.06 12
  586.4 7.02 7
  586.5 13.88 13
  586.6 21.32 21
  586.7 22.62 22
  586.8 16.56 16
  587.1 8.98 8
  587.2 15.55 15
  587.3 19.67 19
  587.4 18.59 18
  587.5 13.41 13
  587.8 9.0 8
  587.9 14.44 14
  588.0 17.7 17
  588.1 16.42 16
  588.3 11.73 11
  588.4 14.82 14
  588.5 19.72 19
  588.6 21.51 21
  588.7 17.2 17
  588.8 8.86 8
  589.0 5.35 5
  589.1 14.66 14
  589.2 23.0 22
  589.3 23.37 23
  589.4 16.28 16
  589.6 7.73 7
  589.7 12.04 12
  589.8 16.94 16
  589.9 18.52 18
  590.0 16.89 16
  590.3 14.3 14
  590.4 16.85 16
  590.5 18.8 18
  590.6 18.14 18
  590.9 14.47 14
  591.0 18.71 18
  591.1 21.65 21
  591.2 19.42 19
  591.3 12.35 12
  591.5 5.14 5
  591.6 12.37 12
  591.7 21.91 21
  591.8 26.23 26
  591.9 22.22 22
  592.0 13.67 13
  592.2 7.82 7
  592.3 13.6 13
  592.4 19.37 19
  592.5 19.91 19
  592.6 14.66 14
  592.8 6.08 6
  592.9 10.27 10
  593.0 16.94 16
  593.1 20.52 20
  593.2 18.64 18
  593.4 11.45 11
  593.5 14.61 14
  593.6 20.97 20
  593.7 24.51 24
  593.8 20.81 20
  593.9 11.85 11
  594.1 6.03 6
  594.2 14.28 14
  594.3 21.98 21
  594.4 22.41 22
  594.5 15.88 15
  594.7 7.45 7
  594.8 11.71 11
  594.9 17.67 17
  595.0 20.41 20
  595.1 17.48 17
  595.2 10.93 10
  595.4 7.94 7
  595.5 14.92 14
  595.6 21.68 21
  595.7 23.02 22
  595.8 18.24 18
  596.0 9.1 9
  596.1 13.69 13
  596.2 21.09 21
  596.3 23.47 23
  596.4 17.22 17
  596.5 7.12 7
  596.7 5.77 5
  596.8 15.1 15
  596.9 21.72 21
  597.0 20.71 20
  597.1 14.44 14
  597.3 9.68 9
  597.4 14.44 14
  597.5 19.53 19
  597.6 21.16 21
  597.7 18.24 18
  598.0 12.72 12
  598.1 17.7 17
  598.2 20.5 20
  598.3 18.19 18
  598.4 12.21 12
  598.6 7.56 7
  598.7 13.6 13
  598.8 20.19 20
  598.9 20.97 20
  599.0 15.1 15
  599.2 9.45 9
  599.3 16.8 16
  599.4 24.58 24
  599.5 26.37 26
  599.6 21.32 21
//
