ACCESSION: MSBNK-RIKEN_NPDepo-NGA02247
RECORD_TITLE: Piptanthine; LC-ESI-QQQ; MS2; Frag=135.0V CID@10.0; [M+H]+
DATE: 2018.04.04
AUTHORS: Nogawa T, Okano A, CSRS, RIKEN
LICENSE: CC BY
COMMENT: Origin: Plant
COMMENT: SubCategory_DNP: Alkaloids derived from lysine, Piperidine alkaloids
CH$NAME: Piptanthine
CH$COMPOUND_CLASS: Alkaloids
CH$FORMULA: C20H35N3
CH$EXACT_MASS: 317.5221
CH$SMILES: C1CC[C@H](C23CC(C[C@@H]4CCCN[C@H]42)[C@@H]2CCCCN2C3)NC1
CH$IUPAC: InChI=1S/C20H35N3/c1-3-9-21-18(8-1)20-13-16(12-15-6-5-10-22-19(15)20)17-7-2-4-11-23(17)14-20/h15-19,21-22H,1-14H2/t15-,16?,17-,18+,19+,20?/m0/s1
CH$LINK: CAS 7344-67-4
CH$LINK: CHEMSPIDER 391264
CH$LINK: INCHIKEY YUKCLPPRYNXRAF-HWRFPWLWSA-N
AC$INSTRUMENT: Agilent 6410 Triple Quadrupole LC/MS system
AC$INSTRUMENT_TYPE: LC-ESI-QQQ
AC$MASS_SPECTROMETRY: MS_TYPE MS2
AC$MASS_SPECTROMETRY: ION_MODE POSITIVE
MS$FOCUSED_ION: PRECURSOR_TYPE [M+H]+
PK$SPLASH: splash10-014i-0009000000-41b6ad552a3b0c000ab2
PK$NUM_PEAK: 15
PK$PEAK: m/z int. rel.int.
  317.5 0.88 0
  317.6 3.29 3
  317.7 7.45 7
  317.8 14.86 14
  317.9 28.02 27
  318.0 47.57 47
  318.1 69.79 69
  318.2 88.21 88
  318.3 98.53 98
  318.4 100.0 99
  318.5 91.37 91
  318.6 70.26 70
  318.7 39.95 39
  318.8 12.05 12
  318.9 0.0 0
//
