ACCESSION: MSBNK-RIKEN_NPDepo-NGA00673
RECORD_TITLE: Foetoside C; LC-ESI-QQQ; MS2; Frag=135.0V CID@5.0; [M+Na]+
DATE: 2018.04.04
AUTHORS: Nogawa T, Okano A, CSRS, RIKEN
LICENSE: CC BY
COMMENT: Origin: Plant
COMMENT: SubCategory_DNP: Triterpenoids
CH$NAME: Foetoside C
CH$COMPOUND_CLASS: Terpenoids
CH$FORMULA: C58H94O25
CH$EXACT_MASS: 1191.3809
CH$SMILES: CC1OC(OC2C(OC3CC[C@@]4(C)C(CC[C@]5(C)C4CC=C4C6CC(C)(C)CCC6(C(=O)OC6OC(COC7OC(CO)C(O)C(O)C7O)C(O)C(O)C6O)CC[C@]45C)C3(C)C)OCC(O)C2O)C(O)C(OC2OCC(O)C(O)C2O)C1O
CH$IUPAC: InChI=1S/C58H94O25/c1-24-34(62)45(81-48-41(69)35(63)27(60)21-74-48)44(72)50(77-24)82-46-36(64)28(61)22-75-51(46)80-33-12-13-55(6)31(54(33,4)5)11-14-57(8)32(55)10-9-25-26-19-53(2,3)15-17-58(26,18-16-56(25,57)7)52(73)83-49-43(71)40(68)38(66)30(79-49)23-76-47-42(70)39(67)37(65)29(20-59)78-47/h9,24,26-51,59-72H,10-23H2,1-8H3/t24?,26?,27?,28?,29?,30?,31?,32?,33?,34?,35?,36?,37?,38?,39?,40?,41?,42?,43?,44?,45?,46?,47?,48?,49?,50?,51?,55-,56+,57+,58?/m0/s1
CH$LINK: CAS 94483-11-1
CH$LINK: INCHIKEY BGKLFKHHSFCDKC-KPHKKTKMSA-N
CH$LINK: PUBCHEM CID:44661022
AC$INSTRUMENT: Agilent 6410 Triple Quadrupole LC/MS system
AC$INSTRUMENT_TYPE: LC-ESI-QQQ
AC$MASS_SPECTROMETRY: MS_TYPE MS2
AC$MASS_SPECTROMETRY: ION_MODE POSITIVE
MS$FOCUSED_ION: PRECURSOR_TYPE [M+Na]+
PK$SPLASH: splash10-00ko-6889444444-1c0c873b0ed9eb9755ac
PK$NUM_PEAK: 10280
PK$PEAK: m/z int. rel.int.
  51.2 13.92 13
  51.3 15.22 15
  51.4 16.5 16
  51.5 17.19 17
  51.6 17.1 17
  51.9 15.31 15
  52.0 16.31 16
  52.1 18.32 18
  52.2 20.35 20
  52.3 21.48 21
  52.4 21.35 21
  52.5 20.32 20
  52.6 18.65 18
  52.7 16.36 16
  52.9 13.57 13
  53.0 15.22 15
  53.1 18.01 17
  53.2 20.47 20
  53.3 22.15 22
  53.4 22.71 22
  53.5 21.41 21
  53.6 18.37 18
  53.7 14.99 14
  53.8 12.65 12
  54.0 11.67 11
  54.1 13.51 13
  54.2 16.6 16
  54.3 19.29 19
  54.4 20.15 20
  54.5 19.26 19
  54.6 17.61 17
  54.7 15.96 15
  54.8 14.35 14
  55.0 12.43 12
  55.1 13.63 13
  55.2 16.31 16
  55.3 19.21 19
  55.4 20.97 20
  55.5 21.36 21
  55.6 20.9 20
  55.7 19.79 19
  55.8 18.13 18
  56.5 16.56 16
  56.6 17.71 17
  56.7 19.82 19
  56.8 21.52 21
  56.9 21.52 21
  57.0 19.85 19
  57.3 18.14 18
  57.4 19.56 19
  57.5 20.43 20
  57.6 20.7 20
  57.7 20.77 20
  57.8 20.39 20
  57.9 19.3 19
  58.2 17.84 17
  58.3 18.89 18
  58.4 19.55 19
  58.5 19.15 19
  58.8 17.54 17
  58.9 19.61 19
  59.0 21.71 21
  59.1 22.52 22
  59.2 21.84 21
  59.3 20.22 20
  59.4 18.48 18
  59.7 17.22 17
  59.8 18.24 18
  59.9 19.89 19
  60.0 21.43 21
  60.1 21.74 21
  60.2 20.41 20
  60.3 17.97 17
  60.4 15.14 15
  60.5 12.59 12
  60.7 11.35 11
  60.8 13.96 13
  60.9 17.87 17
  61.0 21.12 21
  61.1 22.54 22
  61.2 22.22 22
  61.3 20.97 20
  61.4 19.49 19
  62.1 17.36 17
  62.2 18.79 18
  62.3 20.48 20
  62.4 20.97 20
  62.5 20.0 19
  62.6 18.0 17
  62.9 15.95 15
  63.0 18.33 18
  63.1 20.56 20
  63.2 21.37 21
  63.3 21.24 21
  63.4 21.47 21
  63.5 22.66 22
  63.6 24.14 24
  63.7 24.89 24
  63.8 24.57 24
  63.9 22.75 22
  64.0 19.75 19
  64.1 17.06 17
  64.6 14.79 14
  64.7 16.04 16
  64.8 18.63 18
  64.9 21.1 21
  65.0 22.72 22
  65.1 23.31 23
  65.2 22.83 22
  65.3 21.44 21
  65.6 19.96 19
  65.7 21.29 21
  65.8 22.1 22
  65.9 21.87 21
  66.0 21.45 21
  66.1 21.93 21
  66.2 22.84 22
  66.3 22.71 22
  66.4 21.26 21
  66.5 19.54 19
  66.6 18.37 18
  66.9 17.78 17
  67.0 19.31 19
  67.1 21.73 21
  67.2 24.23 24
  67.3 25.72 25
  67.4 25.52 25
  67.5 23.65 23
  67.7 20.51 20
  67.8 22.15 22
  67.9 25.2 25
  68.0 27.19 27
  68.1 26.5 26
  68.2 23.77 23
  68.3 21.19 21
  69.0 17.26 17
  69.1 18.69 18
  69.2 21.73 21
  69.3 25.95 25
  69.4 29.73 29
  69.5 30.83 30
  69.6 28.63 28
  69.7 24.37 24
  69.8 19.78 19
  69.9 16.12 16
  70.1 14.66 14
  70.2 15.95 15
  70.3 17.3 17
  70.4 18.57 18
  70.5 19.73 19
  70.6 20.45 20
  70.7 20.73 20
  70.8 21.22 21
  70.9 21.77 21
  71.0 21.39 21
  71.1 19.63 19
  71.3 17.71 17
  71.4 19.39 19
  71.5 21.08 21
  71.6 21.63 21
  71.7 21.18 21
  71.8 20.32 20
  71.9 19.05 19
  72.1 17.73 17
  72.2 18.84 18
  72.3 20.32 20
  72.4 21.25 21
  72.5 21.61 21
  72.6 21.63 21
  72.7 21.16 21
  72.8 20.01 19
  73.1 19.1 19
  73.2 20.57 20
  73.3 21.49 21
  73.4 21.17 21
  74.7 10.63 10
  74.8 11.86 11
  74.9 14.75 14
  75.0 18.79 18
  75.1 22.58 22
  75.2 24.47 24
  75.3 23.48 23
  75.4 20.66 20
  75.5 18.09 18
  75.7 17.45 17
  75.8 18.18 18
  75.9 19.48 19
  76.0 22.09 22
  76.1 25.47 25
  76.2 27.71 27
  76.3 27.25 27
  76.4 24.6 24
  76.5 21.63 21
  76.6 19.75 19
  77.2 18.89 18
  77.3 19.36 19
  77.4 21.0 20
  77.5 22.9 22
  77.6 23.9 23
  77.7 23.77 23
  77.8 23.01 22
  77.9 21.75 21
  78.0 19.57 19
  78.1 16.7 16
  78.3 15.09 15
  78.4 18.74 18
  78.5 23.27 23
  78.6 25.64 25
  78.7 24.85 24
  78.8 22.22 22
  78.9 19.62 19
  79.0 17.46 17
  79.2 14.74 14
  79.3 16.1 16
  79.4 19.8 19
  79.5 24.02 23
  79.6 26.38 26
  79.7 25.65 25
  79.8 22.47 22
  79.9 18.74 18
  80.0 16.25 16
  80.1 15.47 15
  80.5 14.65 14
  80.6 15.66 15
  80.7 17.78 17
  80.8 20.19 20
  80.9 21.69 21
  81.0 21.77 21
  81.1 21.08 21
  81.2 20.51 20
  81.3 20.15 20
  81.4 19.68 19
  81.5 19.02 19
  81.8 18.66 18
  81.9 19.63 19
  82.0 20.77 20
  82.1 21.3 21
  82.2 20.9 20
  82.3 19.99 19
  82.4 19.14 19
  82.7 18.27 18
  82.8 19.35 19
  82.9 20.27 20
  83.0 20.38 20
  83.1 20.12 20
  83.2 20.27 20
  83.3 20.98 20
  83.4 21.87 21
  83.5 22.41 22
  83.6 22.09 22
  83.7 20.7 20
  84.0 18.44 18
  84.1 19.94 19
  84.2 21.12 21
  84.3 21.15 21
  85.3 15.51 15
  85.4 17.79 17
  85.5 20.58 20
  85.6 22.43 22
  85.7 22.92 22
  85.8 22.49 22
  85.9 21.54 21
  86.0 19.89 19
  86.1 17.46 17
  86.4 14.75 14
  86.5 18.35 18
  86.6 23.24 23
  86.7 27.38 27
  86.8 28.97 28
  86.9 27.78 27
  87.0 25.09 25
  87.1 22.42 22
  87.2 20.41 20
  87.3 19.05 19
  87.6 17.54 17
  87.7 18.38 18
  87.8 19.61 19
  87.9 19.98 19
  88.0 19.01 18
  88.1 17.6 17
  88.8 16.86 16
  88.9 17.49 17
  89.0 18.77 18
  89.1 19.3 19
  89.2 18.16 18
  89.3 16.0 15
  89.4 14.26 14
  89.7 13.43 13
  89.8 14.43 14
  89.9 16.5 16
  90.0 18.57 18
  90.1 19.83 19
  90.2 20.74 20
  90.3 22.07 22
  90.4 23.05 23
  90.5 22.54 22
  90.6 20.72 20
  90.7 18.95 18
  91.0 18.64 18
  91.1 19.54 19
  91.2 20.38 20
  91.3 20.44 20
  91.4 19.35 19
  91.7 17.86 17
  91.8 19.5 19
  91.9 21.11 21
  92.0 22.55 22
  92.1 23.69 23
  92.2 23.66 23
  92.3 21.88 21
  92.4 19.02 19
  92.5 16.28 16
  92.8 13.56 13
  92.9 15.65 15
  93.0 18.59 18
  93.1 20.48 20
  93.2 20.21 20
  93.3 18.65 18
  93.4 18.23 18
  93.5 20.39 20
  93.6 23.65 23
  93.7 24.7 24
  93.8 22.02 21
  93.9 17.68 17
  94.1 14.52 14
  94.2 16.19 16
  94.3 18.49 18
  94.4 20.21 20
  94.5 20.59 20
  94.6 19.74 19
  94.9 18.42 18
  95.0 19.05 19
  95.1 19.92 19
  95.2 20.8 20
  95.3 20.95 20
  95.4 19.63 19
  95.5 17.34 17
  96.1 16.29 16
  96.2 16.86 16
  96.3 18.26 18
  96.4 20.0 19
  96.5 21.32 21
  96.6 21.97 21
  96.7 22.57 22
  96.8 23.48 23
  96.9 24.23 24
  97.0 24.22 24
  97.1 23.96 23
  97.2 24.41 24
  97.3 25.52 25
  97.4 26.15 26
  97.5 24.98 24
  97.6 21.75 21
  97.7 17.39 17
  97.8 13.72 13
  98.0 12.49 12
  98.1 13.96 13
  98.2 15.64 15
  98.3 17.04 17
  98.4 18.06 18
  98.5 19.1 19
  98.6 20.73 20
  98.7 22.49 22
  98.8 23.06 23
  98.9 21.6 21
  99.0 18.45 18
  99.3 13.87 13
  99.4 18.11 18
  99.5 23.07 23
  99.6 25.67 25
  99.7 24.68 24
  99.8 21.43 21
  99.9 18.16 18
  100.2 16.6 16
  100.3 17.96 17
  100.4 20.32 20
  100.5 23.43 23
  100.6 25.8 25
  100.7 25.66 25
  100.8 23.23 23
  100.9 20.33 20
  101.0 18.58 18
  101.3 18.06 18
  101.4 19.34 19
  101.5 20.97 20
  101.6 21.88 21
  101.7 21.5 21
  101.8 20.22 20
  102.7 16.0 15
  102.8 17.58 17
  102.9 19.5 19
  103.0 20.53 20
  103.1 20.07 20
  103.2 18.74 18
  104.0 15.32 15
  104.1 15.98 15
  104.2 17.42 17
  104.3 19.1 19
  104.4 20.04 20
  104.5 19.96 19
  104.6 19.34 19
  104.7 18.31 18
  104.8 16.45 16
  105.0 14.29 14
  105.1 16.68 16
  105.2 19.99 19
  105.3 22.1 22
  105.4 22.92 22
  105.5 23.78 23
  105.6 25.12 25
  105.7 25.84 25
  105.8 24.67 24
  105.9 21.5 21
  106.0 17.42 17
  106.1 13.92 13
  106.3 12.35 12
  106.4 14.43 14
  106.5 17.6 17
  106.6 20.41 20
  106.7 21.68 21
  106.8 21.35 21
  106.9 20.48 20
  107.4 19.46 19
  107.5 20.0 19
  107.6 21.12 21
  107.7 21.8 21
  107.8 21.04 21
  107.9 19.22 19
  108.0 17.28 17
  108.1 15.25 15
  108.2 13.11 13
  108.3 11.55 11
  108.5 11.16 11
  108.6 11.75 11
  108.7 13.55 13
  108.8 16.77 16
  108.9 20.34 20
  109.0 23.09 23
  109.1 24.43 24
  109.2 23.9 23
  109.3 20.96 20
  109.4 16.35 16
  109.5 12.26 12
  109.7 11.88 11
  109.8 13.9 13
  109.9 14.78 14
  110.0 14.44 14
  110.1 14.39 14
  110.2 15.4 15
  110.3 16.48 16
  110.4 16.26 16
  110.7 15.01 14
  110.8 17.12 17
  110.9 19.59 19
  111.0 21.25 21
  111.1 21.51 21
  111.2 20.77 20
  112.2 10.41 10
  112.3 12.54 12
  112.4 15.25 15
  112.5 17.4 17
  112.6 18.42 18
  112.7 18.39 18
  112.8 17.35 17
  112.9 15.57 15
  113.1 14.59 14
  113.2 16.3 16
  113.3 17.65 17
  113.4 17.47 17
  113.7 16.18 16
  113.8 17.09 17
  113.9 17.92 17
  114.0 17.39 17
  114.1 14.89 14
  114.4 11.69 11
  114.5 15.76 15
  114.6 19.28 19
  114.7 20.28 20
  114.8 19.43 19
  114.9 19.08 19
  115.0 20.11 20
  115.1 21.03 21
  115.2 20.19 20
  115.3 17.8 17
  115.4 15.11 15
  115.5 12.93 12
  115.7 12.25 12
  115.8 13.9 13
  115.9 15.67 15
  116.0 16.47 16
  116.1 16.58 16
  116.2 17.08 17
  116.3 18.22 18
  116.4 19.2 19
  116.5 19.3 19
  116.6 18.95 18
  116.7 18.95 18
  116.8 19.34 19
  116.9 19.57 19
  117.0 19.57 19
  117.1 19.4 19
  117.2 18.44 18
  117.3 16.38 16
  117.4 14.03 14
  117.5 12.33 12
  117.6 11.04 11
  117.8 9.04 9
  117.9 10.52 10
  118.0 13.68 13
  118.1 16.73 16
  118.2 18.72 18
  118.3 19.99 19
  118.4 21.34 21
  118.5 22.74 22
  118.6 23.05 23
  118.7 21.18 21
  118.8 17.64 17
  119.1 14.93 14
  119.2 17.84 17
  119.3 19.82 19
  119.4 19.54 19
  119.5 17.35 17
  119.6 14.93 14
  120.4 13.1 13
  120.5 15.18 15
  120.6 16.9 16
  120.7 18.03 18
  120.8 18.58 18
  120.9 18.07 18
  121.0 16.64 16
  121.1 15.08 15
  121.4 14.49 14
  121.5 15.33 15
  121.6 16.56 16
  121.7 18.14 18
  121.8 19.76 19
  121.9 20.46 20
  122.0 19.17 19
  122.1 16.26 16
  122.2 13.53 13
  122.4 12.86 12
  122.5 13.97 13
  122.6 15.38 15
  122.7 17.27 17
  122.8 19.44 19
  122.9 20.98 20
  123.0 20.74 20
  123.1 18.46 18
  123.2 15.31 15
  123.5 13.94 13
  123.6 15.18 15
  123.7 15.91 15
  123.8 15.96 15
  123.9 15.45 15
  124.0 15.12 15
  124.1 15.84 15
  124.2 17.59 17
  124.3 19.28 19
  124.4 19.57 19
  124.5 17.94 17
  124.6 15.13 15
  124.8 12.3 12
  124.9 13.89 13
  125.0 16.42 16
  125.1 18.42 18
  125.2 18.95 18
  125.3 18.23 18
  125.4 17.71 17
  125.5 18.51 18
  125.6 20.21 20
  125.7 21.34 21
  125.8 20.92 20
  125.9 19.35 19
  126.8 15.5 15
  126.9 18.53 18
  127.0 21.58 21
  127.1 23.09 23
  127.2 22.79 22
  127.3 21.82 21
  127.4 21.08 21
  127.5 20.57 20
  127.6 19.73 19
  127.7 18.43 18
  127.8 16.82 16
  127.9 14.93 14
  128.0 12.72 12
  128.3 10.48 10
  128.4 12.25 12
  128.5 13.98 13
  128.6 15.32 15
  128.7 16.61 16
  128.8 17.98 17
  128.9 18.58 18
  129.0 17.78 17
  129.1 16.23 16
  129.2 15.05 15
  129.4 13.98 13
  129.5 14.43 14
  129.6 16.45 16
  129.7 19.37 19
  129.8 21.31 21
  129.9 21.31 21
  130.0 20.26 20
  130.1 19.44 19
  130.2 19.34 19
  130.3 19.21 19
  130.4 18.2 18
  130.5 16.3 16
  130.7 15.19 15
  130.8 17.21 17
  130.9 19.37 19
  131.0 20.05 20
  131.1 18.88 18
  131.2 16.76 16
  131.3 14.7 14
  131.4 13.17 13
  131.7 11.74 11
  131.8 14.05 14
  131.9 17.62 17
  132.0 21.22 21
  132.1 23.76 23
  132.2 24.93 24
  132.3 24.63 24
  132.4 22.38 22
  132.5 17.84 17
  132.6 12.36 12
  132.8 8.58 8
  132.9 11.18 11
  133.0 14.34 14
  133.1 16.64 16
  133.2 17.93 17
  133.3 18.57 18
  133.4 18.9 18
  133.5 18.96 18
  133.6 18.31 18
  133.7 16.32 16
  133.8 13.33 13
  134.0 11.1 11
  134.1 13.7 13
  134.2 17.07 17
  134.3 19.66 19
  134.4 21.23 21
  134.5 21.81 21
  134.6 20.98 20
  134.7 18.69 18
  134.8 16.08 16
  134.9 14.34 14
  135.0 13.36 13
  135.3 11.56 11
  135.4 12.96 12
  135.5 15.09 15
  135.6 16.65 16
  135.7 16.94 16
  135.8 16.54 16
  135.9 16.37 16
  136.0 16.52 16
  136.1 16.44 16
  136.4 14.41 14
  136.5 15.71 15
  136.6 17.32 17
  136.7 17.36 17
  136.8 15.5 15
  136.9 13.33 13
  137.2 12.85 12
  137.3 13.2 13
  137.4 13.94 13
  137.5 14.44 14
  137.6 13.7 13
  137.9 12.55 12
  138.0 14.8 14
  138.1 17.61 17
  138.2 20.47 20
  138.3 22.25 22
  138.4 21.91 21
  138.5 19.79 19
  138.6 16.91 16
  138.9 14.37 14
  139.0 17.07 17
  139.1 18.83 18
  139.2 17.93 17
  139.3 15.08 15
  139.4 12.35 12
  139.6 11.65 11
  139.7 12.85 12
  139.8 13.87 13
  139.9 14.46 14
  140.0 14.91 14
  140.1 15.21 15
  140.2 15.0 14
  140.3 14.63 14
  140.4 15.25 15
  140.5 17.39 17
  140.6 19.63 19
  140.7 19.86 19
  140.8 17.83 17
  140.9 15.25 15
  141.1 14.48 14
  141.2 15.89 15
  141.3 17.61 17
  141.4 19.37 19
  141.5 20.89 20
  141.6 21.31 21
  141.7 19.99 19
  141.8 17.48 17
  142.6 14.17 14
  142.7 14.99 14
  142.8 17.41 17
  142.9 21.05 21
  143.0 23.81 23
  143.1 23.66 23
  143.2 20.58 20
  143.3 16.55 16
  143.5 14.0 13
  143.6 16.76 16
  143.7 20.24 20
  143.8 21.86 21
  143.9 20.7 20
  144.0 18.0 17
  144.1 15.57 15
  144.2 14.0 13
  144.5 13.23 13
  144.6 14.76 14
  144.7 16.8 16
  144.8 18.4 18
  144.9 19.21 19
  145.0 19.26 19
  145.1 18.75 18
  145.2 17.83 17
  145.3 16.6 16
  145.7 15.53 15
  145.8 16.21 16
  145.9 16.99 16
  146.0 17.9 17
  146.1 18.69 18
  146.2 19.24 19
  146.3 19.31 19
  146.4 18.53 18
  146.5 17.21 17
  146.8 17.26 17
  146.9 18.01 17
  147.0 18.63 18
  147.1 19.04 19
  147.2 19.0 18
  147.3 18.53 18
  147.4 18.37 18
  147.5 18.7 18
  147.6 18.76 18
  147.7 17.72 17
  147.8 16.1 16
  148.1 16.17 16
  148.2 16.65 16
  148.3 17.57 17
  148.4 19.02 19
  148.5 20.02 19
  148.6 19.54 19
  148.7 17.32 17
  148.8 14.24 14
  149.1 12.61 12
  149.2 13.57 13
  149.3 13.77 13
  149.4 13.95 13
  149.5 14.65 14
  149.6 15.05 15
  149.9 13.01 12
  150.0 14.56 14
  150.1 16.25 16
  150.2 16.96 16
  150.3 17.22 17
  150.4 17.88 17
  150.5 18.45 18
  150.6 18.06 18
  150.7 16.71 16
  150.8 15.47 15
  150.9 14.79 14
  151.0 14.2 14
  151.1 13.24 13
  151.3 11.74 11
  151.4 12.7 12
  151.5 14.55 14
  151.6 16.09 16
  151.7 16.45 16
  151.8 15.74 15
  152.1 14.79 14
  152.2 16.25 16
  152.3 17.42 17
  152.4 17.26 17
  152.9 16.38 16
  153.0 16.49 16
  153.1 17.57 17
  153.2 19.0 18
  153.3 19.29 19
  153.4 17.93 17
  153.5 15.96 15
  153.7 14.89 14
  153.8 16.49 16
  153.9 18.71 18
  154.0 20.37 20
  154.1 20.39 20
  154.2 18.69 18
  154.3 16.36 16
  154.4 14.94 14
  154.5 14.87 14
  154.6 15.07 15
  154.9 13.7 13
  155.0 15.2 15
  155.1 17.4 17
  155.2 19.11 19
  155.3 19.75 19
  155.4 19.62 19
  155.5 19.13 19
  155.6 18.25 18
  155.7 17.21 17
  156.3 14.48 14
  156.4 16.1 16
  156.5 18.16 18
  156.6 19.01 18
  156.7 18.49 18
  157.0 17.53 17
  157.1 18.01 17
  157.2 19.08 19
  157.3 20.33 20
  157.4 20.74 20
  157.5 19.99 19
  158.5 12.25 12
  158.6 13.23 13
  158.7 15.33 15
  158.8 17.75 17
  158.9 19.39 19
  159.0 19.57 19
  159.1 18.23 18
  159.2 15.97 15
  159.5 14.49 14
  159.6 16.57 16
  159.7 18.37 18
  159.8 19.07 19
  159.9 18.89 18
  160.0 18.61 18
  160.1 18.37 18
  160.2 17.66 17
  160.3 16.19 16
  160.4 14.21 14
  160.6 12.43 12
  160.7 14.23 14
  160.8 17.0 16
  160.9 18.9 18
  161.0 19.17 19
  161.1 18.97 18
  161.2 20.06 20
  161.3 22.91 22
  161.4 25.77 25
  161.5 26.36 26
  161.6 24.03 24
  161.7 20.27 20
  161.8 17.17 17
  162.1 16.18 16
  162.2 17.77 17
  162.3 19.15 19
  162.4 19.55 19
  162.5 19.1 19
  162.6 18.24 18
  163.1 17.9 17
  163.2 17.93 17
  163.3 18.52 18
  163.4 20.02 19
  163.5 21.86 21
  163.6 22.62 22
  163.7 21.62 21
  163.8 19.66 19
  163.9 18.01 17
  164.0 16.9 16
  164.1 16.05 16
  164.2 15.46 15
  164.5 14.29 14
  164.6 15.46 15
  164.7 17.83 17
  164.8 20.3 20
  164.9 22.06 22
  165.0 22.79 22
  165.1 22.48 22
  165.2 21.28 21
  165.3 19.31 19
  165.4 16.88 16
  165.7 15.08 15
  165.8 16.86 16
  165.9 18.79 18
  166.0 20.73 20
  166.1 22.19 22
  166.2 22.1 22
  166.3 19.94 19
  166.4 16.43 16
  166.6 12.88 12
  166.7 15.13 15
  166.8 18.55 18
  166.9 20.84 20
  167.0 21.28 21
  167.1 20.79 20
  167.2 20.19 20
  167.3 19.57 19
  167.4 18.77 18
  167.5 17.8 17
  167.8 15.83 15
  167.9 17.96 17
  168.0 21.05 21
  168.1 23.12 23
  168.2 22.77 22
  168.3 20.44 20
  168.4 17.99 17
  168.5 16.76 16
  168.8 15.96 15
  168.9 16.51 16
  169.0 17.84 17
  169.1 19.74 19
  169.2 22.06 22
  169.3 24.14 24
  169.4 24.61 24
  169.5 22.94 22
  169.6 20.4 20
  169.7 18.55 18
  169.8 17.97 17
  169.9 17.93 17
  170.0 17.52 17
  170.1 16.55 16
  170.2 15.43 15
  170.3 14.44 14
  170.6 12.81 12
  170.7 14.03 14
  170.8 15.46 15
  170.9 16.36 16
  171.0 17.2 17
  171.1 18.52 18
  171.2 19.47 19
  171.3 18.77 18
  171.6 15.87 15
  171.7 18.12 18
  171.8 20.8 20
  171.9 23.0 22
  172.0 23.98 23
  172.1 23.39 23
  172.2 21.21 21
  172.3 18.07 18
  172.4 15.08 15
  172.6 13.35 13
  172.7 14.65 14
  172.8 16.71 16
  172.9 19.18 19
  173.0 20.96 20
  173.1 20.54 20
  173.2 18.0 17
  173.5 15.19 15
  173.6 18.32 18
  173.7 21.44 21
  173.8 22.4 22
  173.9 20.72 20
  174.0 18.19 18
  174.1 16.62 16
  174.2 15.99 15
  174.3 15.07 15
  174.4 12.98 12
  174.7 9.22 9
  174.8 12.81 12
  174.9 17.17 17
  175.0 20.39 20
  175.1 21.73 21
  175.2 21.56 21
  175.3 20.61 20
  175.4 19.31 19
  175.5 17.91 17
  175.6 16.32 16
  175.7 14.89 14
  175.9 13.77 13
  176.0 14.36 14
  176.1 16.22 16
  176.2 18.84 18
  176.3 20.11 20
  176.4 18.45 18
  176.6 14.72 14
  176.7 17.16 17
  176.8 20.71 20
  176.9 22.2 22
  177.0 20.45 20
  177.1 16.95 16
  177.3 15.01 14
  177.4 17.39 17
  177.5 19.53 19
  177.6 20.79 20
  177.7 21.68 21
  177.8 21.95 21
  177.9 20.56 20
  178.0 17.92 17
  179.7 14.11 14
  179.8 14.87 14
  179.9 16.12 16
  180.0 17.06 17
  180.1 17.33 17
  180.2 17.13 17
  180.3 16.68 16
  180.4 16.41 16
  180.5 17.03 17
  180.6 18.57 18
  180.7 20.25 20
  180.8 21.23 21
  180.9 21.12 21
  181.0 20.07 20
  181.2 18.71 18
  181.3 19.83 19
  181.4 21.11 21
  181.5 21.09 21
  181.6 19.67 19
  181.7 18.03 18
  181.8 16.96 16
  181.9 16.25 16
  182.2 15.19 15
  182.3 16.29 16
  182.4 17.45 17
  182.5 17.57 17
  182.6 16.68 16
  182.7 16.08 16
  182.8 16.99 16
  182.9 19.01 18
  183.0 20.58 20
  183.1 20.89 20
  183.2 20.25 20
  183.3 19.24 19
  183.4 18.13 18
  184.0 16.77 16
  184.1 17.73 17
  184.2 20.24 20
  184.3 22.48 22
  184.4 22.66 22
  184.5 20.48 20
  184.6 17.23 17
  184.7 14.54 14
  185.0 14.52 14
  185.1 15.04 15
  185.2 15.54 15
  185.3 17.12 17
  185.4 20.02 19
  185.5 23.03 23
  185.6 24.7 24
  185.7 25.13 25
  185.8 25.21 25
  185.9 25.27 25
  186.0 24.81 24
  186.1 23.29 23
  186.2 21.02 20
  186.3 18.76 18
  186.6 16.9 16
  186.7 18.13 18
  186.8 19.34 19
  186.9 19.63 19
  187.0 18.65 18
  187.3 16.82 16
  187.4 19.17 19
  187.5 21.86 21
  187.6 23.69 23
  187.7 24.42 24
  187.8 24.41 24
  187.9 23.75 23
  188.0 22.47 22
  188.2 21.25 21
  188.3 22.32 22
  188.4 23.43 23
  188.5 23.53 23
  188.6 22.49 22
  188.7 20.91 20
  188.8 19.61 19
  189.3 19.15 19
  189.4 20.05 20
  189.5 21.55 21
  189.6 22.64 22
  189.7 21.94 21
  189.8 19.44 19
  190.0 18.0 17
  190.1 19.91 19
  190.2 20.3 20
  190.5 18.76 18
  190.6 21.13 21
  190.7 22.16 22
  190.8 21.26 21
  190.9 19.49 19
  191.0 18.12 18
  191.3 17.86 17
  191.4 19.03 19
  191.5 20.8 20
  191.6 22.72 22
  191.7 24.07 24
  191.8 24.33 24
  191.9 23.31 23
  192.0 21.45 21
  192.1 19.66 19
  192.2 18.51 18
  192.5 16.9 16
  192.6 17.64 17
  192.7 19.54 19
  192.8 21.62 21
  192.9 22.43 22
  193.0 21.13 21
  193.1 18.45 18
  193.3 16.56 16
  193.4 18.74 18
  193.5 21.45 21
  193.6 23.22 23
  193.7 23.27 23
  193.8 21.97 21
  193.9 20.19 20
  194.0 18.77 18
  194.1 17.87 17
  194.4 17.54 17
  194.5 18.97 18
  194.6 20.82 20
  194.7 22.1 22
  194.8 21.78 21
  194.9 20.02 19
  195.0 18.11 18
  195.1 16.86 16
  195.2 15.76 15
  195.4 13.75 13
  195.5 15.78 15
  195.6 19.78 19
  195.7 22.94 22
  195.8 23.38 23
  195.9 21.71 21
  196.0 19.59 19
  196.1 17.52 17
  196.3 15.32 15
  196.4 17.04 17
  196.5 19.68 19
  196.6 20.53 20
  196.7 18.42 18
  196.8 15.07 15
  197.0 14.56 14
  197.1 16.88 16
  197.2 18.4 18
  197.3 18.94 18
  197.4 19.98 19
  197.5 22.32 22
  197.6 24.91 24
  197.7 25.79 25
  197.8 24.21 24
  197.9 21.47 21
  198.0 19.17 19
  198.3 18.46 18
  198.4 19.36 19
  198.5 20.13 20
  198.6 20.31 20
  198.7 19.76 19
  198.8 18.18 18
  198.9 15.69 15
  199.1 12.93 12
  199.2 14.56 14
  199.3 17.06 17
  199.4 18.95 18
  199.5 20.01 19
  199.6 20.74 20
  199.7 21.25 21
  199.8 21.26 21
  199.9 21.11 21
  200.0 21.67 21
  200.1 22.4 22
  200.2 21.68 21
  200.3 19.14 19
  200.5 16.3 16
  200.6 18.14 18
  200.7 20.59 20
  200.8 22.23 22
  200.9 22.65 22
  201.0 22.35 22
  201.1 21.93 21
  201.2 21.63 21
  201.3 20.89 20
  201.4 19.18 19
  201.5 17.28 17
  201.7 16.91 16
  201.8 17.53 17
  201.9 18.2 18
  202.0 20.25 20
  202.1 23.72 23
  202.2 26.52 26
  202.3 26.52 26
  202.4 23.81 23
  202.5 20.25 20
  202.6 17.61 17
  202.9 16.61 16
  203.0 17.03 17
  203.1 17.6 17
  203.2 18.22 18
  203.3 18.64 18
  203.4 18.64 18
  203.5 18.62 18
  203.6 19.14 19
  203.7 20.11 20
  203.8 20.44 20
  203.9 19.2 19
  204.0 16.91 16
  204.2 15.26 15
  204.3 16.8 16
  204.4 18.75 18
  204.5 19.88 19
  204.6 19.88 19
  204.7 19.61 19
  204.8 19.89 19
  204.9 20.21 20
  205.0 19.62 19
  205.3 18.44 18
  205.4 19.87 19
  205.5 21.15 21
  205.6 21.26 21
  205.7 19.55 19
  205.8 16.6 16
  206.1 14.36 14
  206.2 17.46 17
  206.3 20.69 20
  206.4 22.2 22
  206.5 21.1 21
  206.6 18.1 18
  206.9 15.2 15
  207.0 18.46 18
  207.1 21.36 21
  207.2 22.78 22
  207.3 23.16 23
  207.4 22.78 22
  207.5 21.32 21
  207.6 19.04 19
  207.9 16.97 16
  208.0 18.3 18
  208.1 19.86 19
  208.2 20.54 20
  208.3 19.52 19
  208.4 17.12 17
  208.5 14.79 14
  208.8 14.28 14
  208.9 15.45 15
  209.0 16.96 16
  209.1 18.5 18
  209.2 19.44 19
  209.3 19.57 19
  209.4 19.34 19
  209.5 19.44 19
  209.6 19.72 19
  209.7 19.29 19
  209.8 17.6 17
  209.9 15.14 15
  210.1 13.76 13
  210.2 16.1 16
  210.3 18.88 18
  210.4 20.18 20
  210.5 19.18 19
  210.6 16.87 16
  210.8 15.48 15
  210.9 17.39 17
  211.0 18.9 18
  211.1 18.74 18
  211.2 17.84 17
  211.3 18.03 18
  211.4 19.46 19
  211.5 20.24 20
  211.6 18.76 18
  211.7 15.58 15
  211.9 13.05 13
  212.0 15.39 15
  212.1 18.06 18
  212.2 19.53 19
  212.3 19.96 19
  212.4 19.86 19
  212.5 19.03 19
  212.6 17.51 17
  213.1 16.55 16
  213.2 17.13 17
  213.3 18.49 18
  213.4 19.78 19
  213.5 20.7 20
  213.6 21.57 21
  213.7 22.61 22
  213.8 23.19 23
  213.9 22.45 22
  214.0 20.43 20
  214.1 17.97 17
  214.2 15.86 15
  214.5 13.81 13
  214.6 16.22 16
  214.7 19.1 19
  214.8 20.7 20
  214.9 20.28 20
  215.0 18.38 18
  215.1 15.97 15
  215.3 13.37 13
  215.4 14.65 14
  215.5 17.98 17
  215.6 22.47 22
  215.7 26.16 26
  215.8 27.42 27
  215.9 25.97 25
  216.0 22.67 22
  216.1 18.79 18
  216.2 15.57 15
  216.5 14.2 14
  216.6 16.15 16
  216.7 19.2 19
  216.8 22.04 22
  216.9 22.9 22
  217.0 21.43 21
  217.1 19.13 19
  217.2 17.67 17
  217.8 17.83 17
  217.9 18.16 18
  218.0 18.49 18
  218.1 18.78 18
  218.2 18.33 18
  218.3 16.67 16
  218.4 14.44 14
  218.7 13.76 13
  218.8 15.17 15
  218.9 17.66 17
  219.0 21.11 21
  219.1 24.16 24
  219.2 25.39 25
  219.3 24.65 24
  219.4 22.46 22
  219.5 19.11 19
  219.6 15.0 14
  219.9 11.9 11
  220.0 15.05 15
  220.1 17.94 17
  220.2 19.49 19
  220.3 20.07 20
  220.4 20.28 20
  220.7 18.76 18
  220.8 19.87 19
  220.9 21.23 21
  221.0 21.0 20
  221.1 19.28 19
  222.8 13.35 13
  222.9 15.02 15
  223.0 17.32 17
  223.1 18.97 18
  223.2 19.52 19
  223.3 19.43 19
  223.4 19.07 19
  223.7 17.62 17
  223.8 19.31 19
  223.9 21.93 21
  224.0 23.72 23
  224.1 23.16 23
  224.2 20.15 20
  224.3 16.19 16
  224.6 13.2 13
  224.7 15.78 15
  224.8 18.45 18
  224.9 20.37 20
  225.0 21.35 21
  225.1 21.37 21
  225.2 20.71 20
  225.3 20.31 20
  225.4 20.35 20
  225.5 20.06 20
  225.6 18.78 18
  225.9 17.49 17
  226.0 18.91 18
  226.1 20.4 20
  226.2 21.15 21
  226.3 20.12 20
  226.4 17.35 17
  226.5 14.08 14
  226.8 12.61 12
  226.9 14.87 14
  227.0 17.67 17
  227.1 20.74 20
  227.2 23.64 23
  227.3 25.37 25
  227.4 25.06 25
  227.5 22.98 22
  227.6 20.79 20
  227.7 19.61 19
  227.8 19.24 19
  227.9 18.91 18
  228.0 18.35 18
  228.1 17.57 17
  228.2 16.37 16
  228.5 14.35 14
  228.6 16.08 16
  228.7 17.97 17
  228.8 18.92 18
  228.9 18.77 18
  229.0 18.44 18
  229.1 18.59 18
  229.2 18.95 18
  229.3 19.11 19
  229.4 19.44 19
  229.5 20.12 20
  229.6 20.66 20
  229.7 20.33 20
  229.8 19.13 19
  229.9 17.73 17
  230.1 17.0 16
  230.2 17.83 17
  230.3 19.04 19
  230.4 19.81 19
  230.5 19.15 19
  230.6 16.75 16
  230.7 13.75 13
  231.0 12.62 12
  231.1 13.52 13
  231.2 14.48 14
  231.3 15.54 15
  231.4 16.36 16
  231.5 16.65 16
  231.6 16.75 16
  231.7 17.16 17
  231.8 17.96 17
  231.9 18.94 18
  232.0 19.63 19
  232.1 19.72 19
  232.2 19.11 19
  232.3 18.04 18
  232.4 16.97 16
  232.5 16.3 16
  232.6 15.97 15
  232.7 15.76 15
  232.8 15.33 15
  232.9 14.54 14
  233.2 12.92 12
  233.3 13.85 13
  233.4 15.76 15
  233.5 17.62 17
  233.6 18.01 17
  233.7 16.65 16
  233.8 14.63 14
  234.1 13.85 13
  234.2 15.39 15
  234.3 16.69 16
  234.4 16.45 16
  234.5 14.31 14
  234.7 11.3 11
  234.8 13.92 13
  234.9 18.18 18
  235.0 20.74 20
  235.1 19.62 19
  235.2 16.29 16
  235.4 14.23 14
  235.5 15.86 15
  235.6 17.32 17
  235.7 18.07 18
  235.8 18.45 18
  235.9 18.87 18
  236.0 19.31 19
  236.1 19.13 19
  236.2 17.57 17
  236.3 15.0 14
  236.5 12.68 12
  236.6 14.07 14
  236.7 15.93 15
  236.8 17.35 17
  236.9 18.09 18
  237.0 18.03 18
  237.1 17.19 17
  237.4 15.65 15
  237.5 17.0 16
  237.6 18.57 18
  237.7 20.05 20
  237.8 21.31 21
  237.9 21.86 21
  238.0 21.09 21
  238.1 19.44 19
  238.8 15.65 15
  238.9 17.78 17
  239.0 20.21 20
  239.1 21.25 21
  239.2 20.7 20
  239.3 19.52 19
  240.2 11.48 11
  240.3 13.57 13
  240.4 16.68 16
  240.5 18.85 18
  240.6 19.37 19
  240.7 18.59 18
  240.8 17.04 17
  241.0 15.26 15
  241.1 16.99 16
  241.2 19.39 19
  241.3 20.48 20
  241.4 20.01 19
  241.7 19.29 19
  241.8 20.74 20
  241.9 22.42 22
  242.0 22.68 22
  242.1 20.84 20
  242.2 18.19 18
  242.4 16.99 16
  242.5 18.48 18
  242.6 20.08 20
  242.7 21.04 21
  242.8 20.78 20
  242.9 19.04 19
  243.0 16.55 16
  243.3 14.91 14
  243.4 16.26 16
  243.5 17.74 17
  243.6 18.9 18
  243.7 19.65 19
  243.8 20.52 20
  243.9 21.8 21
  244.0 22.72 22
  244.1 21.9 21
  244.2 18.91 18
  244.3 14.81 14
  244.6 11.58 11
  244.7 15.13 15
  244.8 19.01 18
  244.9 21.15 21
  245.0 20.95 20
  245.1 19.49 19
  245.2 18.13 18
  245.3 17.3 17
  245.4 16.64 16
  245.5 15.78 15
  245.8 14.35 14
  245.9 15.7 15
  246.0 17.1 17
  246.1 17.54 17
  246.2 17.27 17
  246.3 17.35 17
  246.4 18.2 18
  246.5 19.24 19
  246.6 20.05 20
  246.7 20.6 20
  246.8 20.74 20
  246.9 20.02 19
  247.0 18.4 18
  247.1 16.63 16
  247.2 15.51 15
  247.5 14.8 14
  247.6 15.33 15
  247.7 16.61 16
  247.8 17.92 17
  247.9 18.7 18
  248.0 19.29 19
  248.1 20.33 20
  248.2 21.58 21
  248.3 22.0 21
  248.4 20.86 20
  248.5 18.36 18
  248.6 15.24 15
  248.9 13.06 13
  249.0 15.95 15
  249.1 18.55 18
  249.2 19.68 19
  249.3 19.13 19
  249.4 17.2 17
  249.5 14.86 14
  250.0 13.94 13
  250.1 14.53 14
  250.2 15.61 15
  250.3 16.34 16
  250.4 16.52 16
  250.5 16.76 16
  250.6 17.09 17
  250.7 16.7 16
  250.8 15.32 15
  250.9 13.94 13
  251.0 13.4 13
  251.1 13.23 13
  251.4 11.55 11
  251.5 13.43 13
  251.6 16.3 16
  251.7 18.72 18
  251.8 19.78 19
  251.9 19.61 19
  252.0 18.77 18
  252.1 17.83 17
  252.2 17.15 17
  252.3 16.47 16
  252.4 14.98 14
  252.6 12.03 12
  252.7 13.56 13
  252.8 16.34 16
  252.9 18.17 18
  253.0 18.4 18
  253.1 17.71 17
  253.2 16.88 16
  253.3 15.87 15
  253.4 14.47 14
  254.8 4.07 4
  254.9 6.34 6
  255.0 10.83 10
  255.1 15.79 15
  255.2 20.32 20
  255.3 24.66 24
  255.4 28.35 28
  255.5 29.28 29
  255.6 25.64 25
  255.7 18.77 18
  255.8 12.47 12
  256.1 10.56 10
  256.2 11.76 11
  256.3 14.08 14
  256.4 17.38 17
  256.5 20.12 20
  256.6 21.12 21
  256.7 20.54 20
  256.8 19.03 19
  256.9 16.73 16
  257.0 14.01 13
  257.2 12.66 12
  257.3 15.33 15
  257.4 18.61 18
  257.5 20.84 20
  257.6 21.64 21
  257.7 21.5 21
  257.8 20.53 20
  257.9 18.51 18
  258.0 15.86 15
  258.1 13.57 13
  258.3 12.97 12
  258.4 14.46 14
  258.5 16.22 16
  258.6 17.26 17
  258.7 17.03 17
  258.8 15.67 15
  258.9 13.48 13
  259.0 11.05 11
  259.1 9.24 9
  259.2 8.23 8
  259.4 7.0 6
  259.5 7.57 7
  259.6 9.98 9
  259.7 13.81 13
  259.8 17.51 17
  259.9 19.16 19
  260.0 17.77 17
  260.1 14.14 14
  260.4 10.8 10
  260.5 14.39 14
  260.6 17.94 17
  260.7 19.67 19
  260.8 19.29 19
  260.9 17.96 17
  261.7 15.32 15
  261.8 16.57 16
  261.9 17.17 17
  262.0 16.9 16
  262.1 16.41 16
  262.2 15.89 15
  262.3 15.06 15
  263.0 13.57 13
  263.1 15.08 15
  263.2 17.27 17
  263.3 18.66 18
  263.4 18.94 18
  263.5 19.13 19
  263.6 19.7 19
  263.7 19.41 19
  263.8 17.51 17
  263.9 15.39 15
  264.0 14.65 14
  264.1 14.68 14
  264.2 14.08 14
  264.4 12.3 12
  264.5 13.97 13
  264.6 17.29 17
  264.7 20.4 20
  264.8 21.62 21
  264.9 20.14 20
  265.0 16.25 16
  265.1 11.42 11
  265.3 8.58 8
  265.4 12.0 11
  265.5 16.65 16
  265.6 20.6 20
  265.7 22.8 22
  265.8 23.38 23
  265.9 23.24 23
  266.0 23.13 23
  266.1 23.04 23
  266.2 22.59 22
  266.3 21.93 21
  266.4 21.17 21
  266.5 20.25 20
  268.6 9.34 9
  268.7 9.89 9
  268.8 12.59 12
  268.9 16.95 16
  269.0 20.59 20
  269.1 21.57 21
  269.2 20.26 20
  269.3 18.39 18
  269.4 16.91 16
  269.7 15.34 15
  269.8 16.65 16
  269.9 17.65 17
  270.0 17.39 17
  270.1 16.05 16
  270.2 14.36 14
  270.3 12.93 12
  270.6 11.97 11
  270.7 12.9 12
  270.8 14.41 14
  270.9 16.04 16
  271.0 16.97 16
  271.1 16.6 16
  271.4 14.68 14
  271.5 16.81 16
  271.6 19.4 19
  271.7 21.43 21
  271.8 22.07 22
  271.9 20.8 20
  272.0 17.96 17
  272.1 14.88 14
  273.3 9.57 9
  273.4 10.86 10
  273.5 13.33 13
  273.6 16.13 16
  273.7 17.79 17
  273.8 17.4 17
  273.9 15.39 15
  274.0 12.99 12
  274.3 11.0 10
  274.4 12.13 12
  274.5 12.8 12
  274.6 13.0 12
  274.7 14.18 14
  274.8 17.22 17
  274.9 20.43 20
  275.0 21.24 21
  275.1 19.16 19
  275.4 16.52 16
  275.5 17.99 17
  275.6 19.08 19
  275.7 19.99 19
  275.8 20.86 20
  275.9 21.43 21
  276.0 21.48 21
  276.1 20.77 20
  276.2 19.03 19
  276.3 16.67 16
  276.9 13.11 13
  277.0 14.55 14
  277.1 17.07 17
  277.2 19.21 19
  277.3 20.63 20
  277.4 21.74 21
  277.5 22.78 22
  277.6 23.4 23
  277.7 22.81 22
  277.8 20.43 20
  277.9 16.67 16
  278.0 12.85 12
  278.3 9.99 9
  278.4 13.69 13
  278.5 17.83 17
  278.6 19.62 19
  278.7 18.77 18
  278.8 17.43 17
  278.9 16.93 16
  279.0 16.22 16
  279.1 14.26 14
  279.2 11.81 11
  279.4 10.97 10
  279.5 12.93 12
  279.6 15.33 15
  279.7 17.38 17
  279.8 18.56 18
  279.9 18.74 18
  280.0 17.99 17
  280.1 16.78 16
  280.8 13.91 13
  280.9 16.1 16
  281.0 21.03 21
  281.1 26.61 26
  281.2 30.12 30
  281.3 29.82 29
  281.4 26.23 26
  281.5 21.6 21
  281.6 18.13 18
  281.7 16.44 16
  282.3 15.66 15
  282.4 16.42 16
  282.5 18.52 18
  282.6 21.16 21
  282.7 22.85 22
  282.8 22.71 22
  282.9 20.92 20
  283.2 18.3 18
  283.3 19.81 19
  283.4 21.04 21
  283.5 21.47 21
  283.6 21.5 21
  283.7 21.81 21
  283.8 22.45 22
  283.9 22.67 22
  284.0 21.96 21
  284.1 20.63 20
  284.2 19.44 19
  284.3 18.45 18
  284.4 17.25 17
  284.6 16.0 15
  284.7 17.58 17
  284.8 19.54 19
  284.9 20.17 20
  285.0 19.15 19
  285.3 18.26 18
  285.4 19.7 19
  285.5 21.17 21
  285.6 22.33 22
  285.7 23.19 23
  285.8 23.94 23
  285.9 24.65 24
  286.0 24.87 24
  286.1 24.02 23
  286.2 21.78 21
  286.3 18.85 18
  286.5 17.0 16
  286.6 19.46 19
  286.7 22.4 22
  286.8 23.66 23
  286.9 22.79 22
  287.0 21.28 21
  287.1 20.53 20
  287.2 20.27 20
  287.5 18.66 18
  287.6 20.67 20
  287.7 23.3 23
  287.8 24.33 24
  287.9 23.01 22
  288.0 20.44 20
  288.1 17.83 17
  288.2 15.39 15
  288.5 12.97 12
  288.6 15.82 15
  288.7 19.18 19
  288.8 21.74 21
  288.9 23.23 23
  289.0 24.11 24
  289.1 24.42 24
  289.2 23.91 23
  289.3 22.64 22
  289.4 20.98 20
  289.5 19.37 19
  289.6 17.9 17
  289.9 17.41 17
  290.0 18.74 18
  290.1 19.81 19
  290.2 20.46 20
  290.3 21.13 21
  290.4 21.83 21
  290.5 21.61 21
  290.6 19.92 19
  290.9 17.08 17
  291.0 19.02 19
  291.1 20.76 20
  291.2 20.92 20
  291.3 19.37 19
  291.6 17.78 17
  291.7 19.61 19
  291.8 20.52 20
  291.9 20.19 20
  292.2 18.91 18
  292.3 19.53 19
  292.4 21.1 21
  292.5 23.09 23
  292.6 24.27 24
  292.7 24.0 23
  292.8 22.72 22
  292.9 21.15 21
  293.0 19.41 19
  293.3 17.46 17
  293.4 20.21 20
  293.5 23.25 23
  293.6 25.25 25
  293.7 25.85 25
  293.8 25.09 25
  293.9 23.11 23
  294.0 20.26 20
  294.3 16.82 16
  294.4 20.25 20
  294.5 24.74 24
  294.6 27.66 27
  294.7 27.26 27
  294.8 23.9 23
  294.9 19.87 19
  295.4 20.41 20
  295.5 20.87 20
  295.6 22.13 22
  295.7 23.37 23
  295.8 23.58 23
  295.9 23.03 23
  297.1 18.65 18
  297.2 19.39 19
  297.3 20.8 20
  297.4 22.71 22
  297.5 23.81 23
  297.6 22.92 22
  297.9 21.21 21
  298.0 23.36 23
  298.1 24.49 24
  298.2 24.2 24
  298.3 23.46 23
  298.4 23.12 23
  298.5 22.8 22
  298.6 21.54 21
  298.7 18.83 18
  299.0 15.22 15
  299.1 18.92 18
  299.2 22.74 22
  299.3 25.13 25
  299.4 25.86 25
  299.5 25.12 25
  299.6 23.22 23
  299.7 21.29 21
  299.8 20.59 20
  299.9 20.77 20
  300.0 20.18 20
  300.1 18.24 18
  300.4 16.81 16
  300.5 18.66 18
  300.6 20.56 20
  300.7 22.27 22
  300.8 23.42 23
  300.9 23.37 23
  301.0 21.77 21
  301.1 19.47 19
  301.3 18.89 18
  301.4 20.11 20
  301.5 20.6 20
  301.6 20.79 20
  301.7 21.76 21
  301.8 23.1 23
  301.9 23.07 23
  302.0 21.13 21
  302.1 18.65 18
  302.4 17.02 17
  302.5 17.65 17
  302.6 18.95 18
  302.7 20.92 20
  302.8 23.17 23
  302.9 24.79 24
  303.0 25.31 25
  303.1 24.79 24
  303.2 23.58 23
  303.3 21.99 21
  303.4 20.51 20
  304.9 12.86 12
  305.0 16.7 16
  305.1 21.48 21
  305.2 25.53 25
  305.3 27.72 27
  305.4 27.58 27
  305.5 25.35 25
  305.6 22.35 22
  306.4 18.19 18
  306.5 21.21 21
  306.6 23.16 23
  306.7 22.74 22
  306.8 20.77 20
  306.9 18.56 18
  307.1 17.03 17
  307.2 18.26 18
  307.3 19.78 19
  307.4 20.6 20
  307.5 20.72 20
  307.6 20.79 20
  307.7 21.44 21
  307.8 22.55 22
  307.9 23.22 23
  308.0 22.47 22
  308.1 20.79 20
  308.2 19.47 19
  308.3 19.05 19
  308.4 18.81 18
  308.5 18.12 18
  308.6 17.34 17
  308.9 15.91 15
  309.0 16.76 16
  309.1 18.65 18
  309.2 20.22 20
  309.3 20.09 20
  309.4 18.27 18
  309.7 16.65 16
  309.8 19.04 19
  309.9 21.68 21
  310.0 23.35 23
  310.1 23.36 23
  310.2 22.07 22
  310.3 20.63 20
  310.4 19.48 19
  310.5 18.4 18
  311.9 15.21 15
  312.0 17.57 17
  312.1 22.3 22
  312.2 27.7 27
  312.3 30.46 30
  312.4 29.13 29
  312.5 25.47 25
  312.6 22.17 22
  312.7 20.01 19
  313.0 17.08 17
  313.1 19.63 19
  313.2 22.84 22
  313.3 24.02 23
  313.4 22.72 22
  313.5 20.66 20
  313.6 19.11 19
  313.7 17.49 17
  314.0 15.65 15
  314.1 17.42 17
  314.2 18.63 18
  314.3 19.02 19
  314.4 19.13 19
  314.5 19.02 19
  314.6 18.26 18
  314.7 17.01 16
  314.8 15.83 15
  314.9 14.86 14
  315.2 13.71 13
  315.3 14.3 14
  315.4 15.4 15
  315.5 17.06 17
  315.6 18.85 18
  315.7 19.87 19
  315.8 19.43 19
  315.9 17.8 17
  316.1 15.85 15
  316.2 17.32 17
  316.3 19.76 19
  316.4 21.82 21
  316.5 22.57 22
  316.6 21.77 21
  316.7 19.81 19
  316.8 17.77 17
  317.0 17.17 17
  317.1 18.33 18
  317.2 19.21 19
  317.3 18.91 18
  317.4 17.36 17
  317.7 15.8 15
  317.8 18.09 18
  317.9 20.69 20
  318.0 22.41 22
  318.1 22.46 22
  318.2 20.85 20
  318.3 18.39 18
  318.4 15.67 15
  318.6 12.97 12
  318.7 14.85 14
  318.8 17.87 17
  318.9 19.72 19
  319.0 19.75 19
  319.1 19.07 19
  319.2 18.87 18
  319.3 18.88 18
  319.4 18.74 18
  319.5 18.65 18
  319.6 18.78 18
  319.7 18.29 18
  319.8 16.71 16
  320.1 14.6 14
  320.2 15.93 15
  320.3 17.8 17
  320.4 19.34 19
  320.5 19.78 19
  320.6 19.11 19
  320.7 17.92 17
  320.8 16.44 16
  321.0 14.63 14
  321.1 15.76 15
  321.2 18.19 18
  321.3 20.86 20
  321.4 22.74 22
  321.5 22.94 22
  321.6 21.41 21
  321.7 19.35 19
  321.9 18.77 18
  322.0 19.81 19
  322.1 20.35 20
  322.2 20.14 20
  322.5 19.22 19
  322.6 20.07 20
  322.7 21.35 21
  322.8 22.13 22
  322.9 21.93 21
  323.0 20.85 20
  323.1 19.46 19
  323.7 18.97 18
  323.8 20.01 19
  323.9 22.02 21
  324.0 23.64 23
  324.1 23.83 23
  324.2 22.22 22
  324.3 19.39 19
  324.6 17.29 17
  324.7 18.95 18
  324.8 19.94 19
  324.9 20.51 20
  325.0 21.34 21
  325.1 22.47 22
  325.2 23.27 23
  325.3 23.18 23
  325.4 22.27 22
  325.5 21.03 21
  325.6 19.76 19
  325.9 17.51 17
  326.0 19.4 19
  326.1 22.22 22
  326.2 23.88 23
  326.3 23.33 23
  326.4 21.49 21
  326.5 20.04 20
  326.6 19.62 19
  326.7 19.81 19
  326.8 19.48 19
  326.9 17.99 17
  327.1 15.09 15
  327.2 16.78 16
  327.3 20.41 20
  327.4 23.81 23
  327.5 25.04 25
  327.6 24.05 24
  327.7 21.74 21
  327.8 18.75 18
  327.9 15.64 15
  328.2 12.98 12
  328.3 14.78 14
  328.4 16.74 16
  328.5 18.01 17
  328.6 18.36 18
  328.7 18.2 18
  328.8 17.61 17
  328.9 16.23 16
  329.1 13.84 13
  329.2 14.98 14
  329.3 17.41 17
  329.4 20.3 20
  329.5 23.13 23
  329.6 25.06 25
  329.7 24.86 24
  329.8 22.49 22
  329.9 19.94 19
  330.9 14.96 14
  331.0 15.82 15
  331.1 17.43 17
  331.2 19.27 19
  331.3 20.39 20
  331.4 19.94 19
  331.7 16.6 16
  331.8 19.54 19
  331.9 22.94 22
  332.0 24.65 24
  332.1 23.98 23
  332.2 21.62 21
  332.3 18.45 18
  332.4 15.44 15
  332.5 13.49 13
  332.8 11.91 11
  332.9 12.96 12
  333.0 15.71 15
  333.1 19.01 18
  333.2 21.24 21
  333.3 21.75 21
  333.4 21.03 21
  333.5 19.78 19
  335.0 9.34 9
  335.1 10.44 10
  335.2 12.4 12
  335.3 14.96 14
  335.4 17.98 17
  335.5 20.79 20
  335.6 22.21 22
  335.7 21.69 21
  335.8 20.04 20
  335.9 18.78 18
  336.0 18.52 18
  336.1 18.56 18
  336.2 18.12 18
  336.6 17.94 17
  336.7 18.45 18
  336.8 19.33 19
  336.9 19.68 19
  337.0 18.29 18
  337.1 15.47 15
  337.4 14.68 14
  337.5 16.03 16
  337.6 16.97 16
  337.7 18.4 18
  337.8 20.48 20
  337.9 22.19 22
  338.0 22.61 22
  338.1 21.69 21
  338.2 19.85 19
  338.3 17.35 17
  338.4 14.48 14
  338.5 11.64 11
  338.6 9.34 9
  338.8 7.97 7
  338.9 9.2 9
  339.0 11.05 11
  339.1 12.85 12
  339.2 14.21 14
  339.3 15.08 15
  339.4 15.66 15
  339.5 16.15 16
  339.6 16.76 16
  339.7 17.86 17
  339.8 19.62 19
  339.9 21.64 21
  340.0 23.04 23
  340.1 23.43 23
  340.2 23.25 23
  340.3 23.17 23
  340.4 22.98 22
  340.5 22.07 22
  340.6 20.46 20
  340.7 19.18 19
  340.8 18.96 18
  340.9 19.11 19
  341.0 18.33 18
  341.3 16.99 16
  341.4 18.89 18
  341.5 20.54 20
  341.6 21.58 21
  341.7 22.09 22
  341.8 21.87 21
  341.9 20.91 20
  342.0 19.68 19
  343.5 13.05 13
  343.6 14.2 14
  343.7 16.37 16
  343.8 18.66 18
  343.9 19.94 19
  344.0 19.76 19
  344.1 18.48 18
  344.2 16.68 16
  344.4 14.86 14
  344.5 16.42 16
  344.6 18.78 18
  344.7 20.28 20
  344.8 20.04 20
  344.9 18.78 18
  345.0 17.91 17
  345.1 17.77 17
  345.2 17.28 17
  345.3 15.63 15
  345.5 12.81 12
  345.6 14.42 14
  345.7 17.48 17
  345.8 20.24 20
  345.9 21.15 21
  346.0 20.13 20
  346.1 18.27 18
  346.4 17.67 17
  346.5 19.1 19
  346.6 20.08 20
  346.7 19.92 19
  346.8 19.14 19
  346.9 18.75 18
  347.0 18.55 18
  347.1 17.22 17
  347.4 13.76 13
  347.5 16.69 16
  347.6 19.52 19
  347.7 20.2 20
  347.8 18.33 18
  347.9 15.3 15
  349.2 14.57 14
  349.3 15.27 15
  349.4 16.32 16
  349.5 16.68 16
  349.6 15.72 15
  349.9 13.57 13
  350.0 14.69 14
  350.1 15.4 15
  350.2 16.13 16
  350.3 17.98 17
  350.4 20.92 20
  350.5 23.01 22
  350.6 22.23 22
  350.7 18.72 18
  350.8 14.7 14
  351.0 12.57 12
  351.1 14.39 14
  351.2 17.12 17
  351.3 20.43 20
  351.4 23.4 23
  351.5 24.55 24
  351.6 23.22 23
  351.7 20.11 20
  351.8 16.37 16
  351.9 13.18 13
  352.1 11.83 11
  352.2 13.09 13
  352.3 13.88 13
  352.4 14.02 14
  352.5 14.35 14
  352.6 15.46 15
  352.7 16.73 16
  352.8 17.3 17
  352.9 16.99 16
  353.0 16.16 16
  353.1 15.24 15
  353.2 13.96 13
  353.3 11.95 11
  353.5 8.85 8
  353.6 10.44 10
  353.7 13.68 13
  353.8 16.42 16
  353.9 17.26 17
  354.0 16.48 16
  354.1 15.71 15
  354.2 16.54 16
  354.3 19.28 19
  354.4 22.29 22
  354.5 23.09 23
  354.6 20.57 20
  354.7 16.11 16
  355.0 13.04 13
  355.1 15.47 15
  355.2 17.29 17
  355.3 18.31 18
  355.4 18.97 18
  355.5 19.36 19
  355.6 19.29 19
  355.7 18.91 18
  355.8 18.19 18
  355.9 17.04 17
  356.8 15.04 15
  356.9 15.38 15
  357.0 16.28 16
  357.1 17.73 17
  357.2 19.16 19
  357.3 19.93 19
  357.4 19.78 19
  357.5 18.84 18
  357.6 17.68 17
  357.7 16.7 16
  357.8 15.95 15
  358.2 15.54 15
  358.3 15.98 15
  358.4 16.87 16
  358.5 17.97 17
  358.6 18.56 18
  358.7 18.38 18
  358.8 18.19 18
  358.9 18.76 18
  359.0 19.79 19
  359.1 20.39 20
  359.2 19.96 19
  359.3 18.53 18
  359.4 16.67 16
  359.5 15.04 15
  359.6 14.04 14
  359.7 13.35 13
  359.8 12.36 12
  359.9 11.15 11
  360.1 10.21 10
  360.2 11.04 11
  360.3 12.43 12
  360.4 14.34 14
  360.5 16.9 16
  360.6 19.8 19
  360.7 22.04 22
  360.8 22.75 22
  360.9 21.9 21
  361.0 20.2 20
  361.1 18.56 18
  362.1 14.91 14
  362.2 16.24 16
  362.3 18.14 18
  362.4 19.03 19
  362.5 17.93 17
  362.6 15.2 15
  362.7 12.25 12
  362.9 10.78 10
  363.0 13.1 13
  363.1 16.25 16
  363.2 18.74 18
  363.3 19.68 19
  363.4 18.97 18
  363.5 17.0 16
  363.6 14.4 14
  363.7 11.89 11
  363.9 10.43 10
  364.0 11.93 11
  364.1 14.35 14
  364.2 17.32 17
  364.3 20.64 20
  364.4 23.49 23
  364.5 24.65 24
  364.6 23.88 23
  364.7 21.88 21
  364.8 19.2 19
  364.9 15.87 15
  365.0 12.28 12
  365.2 9.09 9
  365.3 11.82 11
  365.4 17.1 17
  365.5 22.42 22
  365.6 25.04 25
  365.7 24.26 24
  365.8 21.51 21
  365.9 18.39 18
  366.0 15.28 15
  366.1 12.26 12
  366.3 10.15 10
  366.4 12.52 12
  366.5 16.22 16
  366.6 19.66 19
  366.7 21.78 21
  366.8 21.97 21
  366.9 19.99 19
  367.0 16.45 16
  367.2 12.75 12
  367.3 15.08 15
  367.4 18.66 18
  367.5 21.69 21
  367.6 23.29 23
  367.7 23.39 23
  367.8 22.17 22
  367.9 20.45 20
  368.0 19.03 19
  368.1 17.66 17
  368.2 15.57 15
  368.3 13.05 13
  368.5 11.49 11
  368.6 12.72 12
  368.7 14.6 14
  368.8 16.48 16
  368.9 17.33 17
  369.0 16.95 16
  369.1 16.49 16
  369.2 16.77 16
  369.3 17.25 17
  369.4 16.73 16
  369.5 14.82 14
  369.6 11.95 11
  369.9 8.78 8
  370.0 11.44 11
  370.1 14.56 14
  370.2 17.14 17
  370.3 18.71 18
  370.4 19.65 19
  370.5 20.51 20
  370.6 21.0 20
  370.7 19.75 19
  370.8 16.44 16
  370.9 12.62 12
  371.1 9.91 9
  371.2 12.07 12
  371.3 15.77 15
  371.4 19.3 19
  371.5 21.16 21
  371.6 21.22 21
  371.7 19.96 19
  371.8 17.81 17
  371.9 15.12 15
  372.0 12.39 12
  372.1 10.14 10
  372.3 9.15 9
  372.4 10.59 10
  372.5 12.62 12
  372.6 14.42 14
  372.7 15.32 15
  372.8 15.22 15
  372.9 14.83 14
  373.0 14.89 14
  373.1 15.43 15
  373.2 15.69 15
  373.3 15.15 15
  374.2 11.57 11
  374.3 13.55 13
  374.4 14.78 14
  374.5 14.57 14
  374.6 13.44 13
  374.9 12.21 12
  375.0 14.26 14
  375.1 17.33 17
  375.2 20.02 19
  375.3 20.9 20
  375.4 19.54 19
  375.5 16.82 16
  375.6 14.09 14
  375.8 12.3 12
  375.9 13.64 13
  376.0 15.74 15
  376.1 17.77 17
  376.2 19.26 19
  376.3 20.26 20
  376.4 20.74 20
  376.5 20.72 20
  376.6 19.91 19
  376.7 18.06 18
  376.8 15.67 15
  377.0 13.97 13
  377.1 15.92 15
  377.2 18.81 18
  377.3 21.48 21
  377.4 22.85 22
  377.5 22.43 22
  378.5 12.32 12
  378.6 14.05 14
  378.7 14.56 14
  378.8 13.39 13
  379.1 11.41 11
  379.2 12.85 12
  379.3 13.66 13
  379.4 13.85 13
  379.5 14.76 14
  379.6 17.33 17
  379.7 20.64 20
  379.8 23.06 23
  379.9 23.35 23
  380.0 21.16 21
  380.1 17.49 17
  380.4 14.34 14
  380.5 17.04 17
  380.6 20.67 20
  380.7 24.41 24
  380.8 26.3 26
  380.9 24.53 24
  381.0 19.67 19
  381.3 15.72 15
  381.4 19.49 19
  381.5 22.58 22
  381.6 23.92 23
  381.7 23.48 23
  381.8 21.61 21
  381.9 19.04 19
  382.0 16.97 16
  382.7 15.34 15
  382.8 15.79 15
  382.9 16.76 16
  383.0 18.98 18
  383.1 22.3 22
  383.2 25.48 25
  383.3 26.95 26
  383.4 25.89 25
  383.5 22.8 22
  383.6 19.17 19
  383.7 16.65 16
  383.9 16.56 16
  384.0 17.75 17
  384.1 18.79 18
  384.2 19.17 19
  384.3 18.44 18
  384.4 16.42 16
  384.5 13.43 13
  384.6 10.66 10
  384.8 9.86 9
  384.9 11.6 11
  385.0 13.55 13
  385.1 15.33 15
  385.2 16.97 16
  385.3 18.59 18
  385.4 19.82 19
  385.5 20.05 20
  385.6 19.16 19
  385.9 17.65 17
  386.0 18.83 18
  386.1 20.2 20
  386.2 21.45 21
  386.3 22.57 22
  386.4 23.49 23
  386.5 23.42 23
  386.6 21.75 21
  386.7 19.6 19
  387.4 16.22 16
  387.5 17.04 17
  387.6 18.12 18
  387.7 19.14 19
  387.8 19.69 19
  387.9 19.57 19
  388.0 18.97 18
  388.1 18.13 18
  388.4 17.17 17
  388.5 18.4 18
  388.6 19.99 19
  388.7 20.89 20
  388.8 20.98 20
  388.9 20.61 20
  389.0 19.98 19
  389.1 18.82 18
  389.2 17.09 17
  389.3 15.4 15
  389.6 15.5 15
  389.7 15.64 15
  389.8 16.02 16
  389.9 17.92 17
  390.0 20.92 20
  390.1 22.97 22
  390.2 22.88 22
  390.3 21.6 21
  390.4 20.4 20
  390.5 19.49 19
  390.6 18.32 18
  390.7 17.04 17
  390.8 15.74 15
  391.1 13.62 13
  391.2 16.0 15
  391.3 19.18 19
  391.4 21.16 21
  391.5 21.16 21
  391.6 19.95 19
  391.7 18.65 18
  391.9 17.36 17
  392.0 18.0 17
  392.1 20.14 20
  392.2 23.19 23
  392.3 25.09 25
  392.4 23.98 23
  392.5 20.35 20
  392.6 16.64 16
  392.7 14.54 14
  392.8 13.19 13
  392.9 10.99 10
  393.1 7.84 7
  393.2 10.43 10
  393.3 14.8 14
  393.4 18.62 18
  393.5 20.47 20
  393.6 20.2 20
  393.7 18.51 18
  393.9 17.32 17
  394.0 19.23 19
  394.1 21.06 21
  394.2 21.02 20
  394.3 18.98 18
  394.4 16.47 16
  394.6 15.85 15
  394.7 17.7 17
  394.8 19.34 19
  394.9 19.61 19
  395.0 18.26 18
  395.1 16.17 16
  395.2 14.11 14
  395.3 12.33 12
  395.6 11.0 10
  395.7 12.43 12
  395.8 14.57 14
  395.9 17.39 17
  396.0 20.33 20
  396.1 22.49 22
  396.2 23.05 23
  396.3 21.68 21
  396.4 18.79 18
  396.7 16.45 16
  396.8 19.81 19
  396.9 22.45 22
  397.0 23.17 23
  397.1 22.36 22
  397.2 20.9 20
  397.3 19.09 19
  397.6 17.4 17
  397.7 18.72 18
  397.8 19.49 19
  397.9 19.24 19
  398.0 18.74 18
  398.1 19.04 19
  398.2 20.39 20
  398.3 21.87 21
  398.4 22.3 22
  398.5 21.11 21
  398.6 18.53 18
  398.7 15.52 15
  399.0 13.89 13
  399.1 15.15 15
  399.2 16.51 16
  399.3 18.04 18
  399.4 19.7 19
  399.5 20.97 20
  399.6 21.52 21
  399.7 21.39 21
  399.8 20.89 20
  399.9 19.98 19
  400.0 18.17 18
  400.1 15.15 15
  400.4 12.46 12
  400.5 16.21 16
  400.6 20.38 20
  400.7 23.64 23
  400.8 24.95 24
  400.9 23.87 23
  401.0 21.35 21
  402.6 14.93 14
  402.7 16.35 16
  402.8 17.97 17
  402.9 18.65 18
  403.0 17.55 17
  403.3 16.02 16
  403.4 18.31 18
  403.5 20.12 20
  403.6 20.74 20
  403.7 20.5 20
  403.8 19.7 19
  403.9 18.27 18
  404.0 16.51 16
  404.2 15.96 15
  404.3 17.0 16
  404.4 17.29 17
  404.5 16.7 16
  404.6 16.54 16
  404.7 17.72 17
  404.8 19.4 19
  404.9 20.24 20
  405.0 19.87 19
  405.1 18.78 18
  405.4 16.94 16
  405.5 17.79 17
  405.6 19.23 19
  405.7 21.08 21
  405.8 22.73 22
  405.9 23.12 23
  406.0 22.14 22
  406.1 21.64 21
  406.2 23.11 23
  406.3 25.35 25
  406.4 25.7 25
  406.5 23.46 23
  406.6 20.51 20
  406.8 20.0 19
  406.9 21.43 21
  407.0 21.84 21
  407.1 20.91 20
  407.2 19.44 19
  407.6 18.42 18
  407.7 19.24 19
  407.8 20.89 20
  407.9 22.71 22
  408.0 23.49 23
  408.1 22.7 22
  408.2 20.64 20
  408.3 17.8 17
  408.4 14.82 14
  408.6 13.66 13
  408.7 16.42 16
  408.8 19.59 19
  408.9 21.19 21
  409.0 20.24 20
  409.1 17.26 17
  409.3 13.42 13
  409.4 15.92 15
  409.5 20.38 20
  409.6 23.9 23
  409.7 24.24 24
  409.8 21.38 21
  409.9 17.42 17
  410.0 14.76 14
  410.3 15.12 15
  410.4 15.56 15
  410.5 16.73 16
  410.6 18.64 18
  410.7 20.83 20
  410.8 23.04 23
  410.9 25.06 25
  411.0 26.13 26
  411.1 25.31 25
  411.2 22.52 22
  411.3 18.97 18
  411.4 16.26 16
  411.6 15.18 15
  411.7 16.34 16
  411.8 17.97 17
  411.9 19.01 18
  412.0 19.07 19
  412.1 18.97 18
  412.2 19.63 19
  412.3 20.6 20
  412.4 20.72 20
  412.5 19.88 19
  412.6 18.88 18
  412.7 18.4 18
  412.8 18.32 18
  412.9 18.01 17
  413.0 17.38 17
  413.1 16.84 16
  413.2 16.67 16
  413.3 16.22 16
  413.6 14.5 14
  413.7 16.89 16
  413.8 19.63 19
  413.9 20.71 20
  414.2 18.37 18
  414.3 20.06 20
  414.4 22.09 22
  414.5 23.48 23
  414.6 23.9 23
  414.7 23.48 23
  414.8 22.43 22
  414.9 21.49 21
  415.0 21.16 21
  415.1 20.57 20
  415.2 18.74 18
  415.3 16.32 16
  415.6 15.82 15
  415.7 17.02 17
  415.8 18.81 18
  415.9 20.33 20
  416.0 20.09 20
  416.1 17.92 17
  416.2 15.06 15
  416.5 12.33 12
  416.6 15.14 15
  416.7 19.74 19
  416.8 24.1 24
  416.9 26.41 26
  417.0 26.74 26
  417.1 26.09 26
  417.2 24.7 24
  417.3 22.39 22
  417.4 19.61 19
  417.7 17.93 17
  417.8 20.6 20
  417.9 23.49 23
  418.0 25.05 25
  418.1 24.86 24
  418.2 23.55 23
  418.3 21.91 21
  418.4 19.99 19
  418.5 17.43 17
  418.6 14.6 14
  418.9 12.15 12
  419.0 14.0 13
  419.1 16.25 16
  419.2 18.12 18
  419.3 19.2 19
  419.4 19.26 19
  419.5 18.43 18
  419.8 17.43 17
  419.9 18.58 18
  420.0 19.63 19
  420.1 20.11 20
  420.2 19.8 19
  420.3 18.79 18
  420.6 16.88 16
  420.7 18.19 18
  420.8 19.65 19
  420.9 20.05 20
  421.0 19.05 19
  421.2 17.72 17
  421.3 19.27 19
  421.4 20.96 20
  421.5 21.43 21
  421.6 20.74 20
  421.7 20.13 20
  421.8 20.05 20
  421.9 19.46 19
  422.0 17.25 17
  422.3 13.22 13
  422.4 16.95 16
  422.5 21.57 21
  422.6 25.32 25
  422.7 26.97 26
  422.8 26.32 26
  422.9 24.33 24
  423.0 22.04 22
  423.1 19.83 19
  423.2 17.59 17
  423.5 15.95 15
  423.6 17.66 17
  423.7 19.52 19
  423.8 21.08 21
  423.9 22.19 22
  424.0 22.61 22
  424.1 21.83 21
  424.2 19.8 19
  424.3 17.27 17
  424.5 15.5 15
  424.6 17.01 16
  424.7 19.53 19
  424.8 22.21 22
  424.9 24.21 24
  425.0 24.73 24
  425.1 23.94 23
  425.2 22.52 22
  425.3 20.73 20
  425.6 18.5 18
  425.7 20.77 20
  425.8 22.61 22
  425.9 23.5 23
  426.0 23.94 23
  426.1 24.02 23
  426.2 23.32 23
  426.3 21.96 21
  426.4 20.4 20
  426.5 18.88 18
  426.6 17.35 17
  426.9 16.17 16
  427.0 18.39 18
  427.1 21.54 21
  427.2 24.36 24
  427.3 25.59 25
  427.4 24.82 24
  427.5 22.97 22
  427.6 21.34 21
  427.7 20.25 20
  427.8 19.02 19
  427.9 17.06 17
  428.2 14.62 14
  428.3 16.52 16
  428.4 18.75 18
  428.5 20.57 20
  428.6 21.68 21
  428.7 21.91 21
  428.8 21.23 21
  428.9 19.61 19
  429.0 17.17 17
  429.1 14.57 14
  429.3 13.22 13
  429.4 14.94 14
  429.5 17.38 17
  429.6 19.89 19
  429.7 21.63 21
  429.8 21.49 21
  429.9 19.17 19
  430.0 16.19 16
  430.2 14.74 14
  430.3 16.73 16
  430.4 19.39 19
  430.5 21.56 21
  430.6 22.21 22
  430.7 20.96 20
  430.8 18.23 18
  431.1 14.98 14
  431.2 17.53 17
  431.3 18.92 18
  431.4 17.71 17
  431.7 14.42 14
  431.8 16.73 16
  431.9 19.04 19
  432.0 20.39 20
  432.1 20.86 20
  432.2 20.69 20
  432.3 19.37 19
  432.4 16.6 16
  432.7 13.38 13
  432.8 15.71 15
  432.9 17.71 17
  433.0 18.59 18
  433.1 18.1 18
  433.2 16.43 16
  433.5 14.42 14
  433.6 15.43 15
  433.7 16.26 16
  433.8 17.02 17
  433.9 18.22 18
  434.0 20.14 20
  434.1 21.94 21
  434.2 22.43 22
  434.3 21.06 21
  434.4 18.2 18
  434.5 14.69 14
  434.6 11.63 11
  434.8 10.72 10
  434.9 13.1 13
  435.0 16.24 16
  435.1 19.54 19
  435.2 22.55 22
  435.3 24.7 24
  435.4 25.41 25
  435.5 24.91 24
  435.6 23.79 23
  435.7 22.53 22
  435.8 21.12 21
  435.9 19.41 19
  436.0 17.41 17
  436.2 16.55 16
  436.3 18.19 18
  436.4 19.29 19
  436.5 18.96 18
  436.6 18.24 18
  436.7 18.65 18
  436.8 20.38 20
  436.9 21.9 21
  437.0 21.84 21
  437.8 20.02 19
  437.9 21.1 21
  438.0 22.28 22
  438.1 22.28 22
  438.2 20.38 20
  438.3 17.58 17
  438.6 15.18 15
  438.7 17.19 17
  438.8 19.57 19
  438.9 20.79 20
  439.0 20.08 20
  439.1 18.32 18
  439.2 16.91 16
  439.3 16.36 16
  439.4 15.78 15
  439.5 14.21 14
  439.7 11.58 11
  439.8 14.03 14
  439.9 18.27 18
  440.0 22.19 22
  440.1 24.82 24
  440.2 26.24 26
  440.3 26.17 26
  440.4 24.26 24
  440.5 21.13 21
  440.6 18.22 18
  440.7 16.03 16
  440.9 14.55 14
  441.0 16.17 16
  441.1 18.53 18
  441.2 19.98 19
  441.3 19.85 19
  441.4 18.71 18
  441.5 17.33 17
  441.8 16.55 16
  441.9 18.03 18
  442.0 19.44 19
  442.1 20.01 19
  442.2 19.96 19
  442.3 20.27 20
  442.4 21.1 21
  442.5 21.6 21
  442.6 21.49 21
  442.7 21.18 21
  442.8 20.77 20
  442.9 19.63 19
  443.0 17.8 17
  443.2 17.07 17
  443.3 18.31 18
  443.4 18.91 18
  443.5 18.92 18
  443.6 19.39 19
  443.7 20.38 20
  443.8 20.93 20
  443.9 20.22 20
  444.0 18.39 18
  444.1 16.37 16
  444.9 14.82 14
  445.0 15.98 15
  445.1 17.83 17
  445.2 19.55 19
  445.3 20.34 20
  445.4 20.17 20
  445.5 19.86 19
  445.6 20.2 20
  445.7 21.38 21
  445.8 22.8 22
  445.9 23.7 23
  446.0 23.64 23
  446.1 22.68 22
  446.2 20.98 20
  446.3 18.88 18
  446.6 16.51 16
  446.7 18.38 18
  446.8 20.98 20
  446.9 23.09 23
  447.0 23.36 23
  447.1 21.08 21
  447.2 17.1 17
  447.5 15.07 15
  447.6 16.93 16
  447.7 17.78 17
  447.8 17.78 17
  447.9 17.67 17
  448.0 18.27 18
  448.1 20.28 20
  448.2 22.74 22
  448.3 23.38 23
  448.4 21.16 21
  448.5 17.64 17
  448.6 14.95 14
  448.9 13.85 13
  449.0 15.28 15
  449.1 17.21 17
  449.2 18.84 18
  449.3 19.92 19
  449.4 20.2 20
  449.5 19.14 19
  449.6 16.61 16
  449.7 13.84 13
  449.9 13.56 13
  450.0 15.32 15
  450.1 16.34 16
  450.2 16.17 16
  450.3 15.8 15
  450.4 16.17 16
  450.5 17.13 17
  450.6 17.65 17
  450.7 17.19 17
  451.0 16.21 16
  451.1 16.95 16
  451.2 17.97 17
  451.3 19.37 19
  451.4 20.78 20
  451.5 21.12 21
  451.6 20.09 20
  451.7 18.92 18
  451.8 18.61 18
  451.9 18.57 18
  452.0 17.59 17
  452.1 15.69 15
  452.4 13.64 13
  452.5 14.85 14
  452.6 16.69 16
  452.7 19.41 19
  452.8 22.59 22
  452.9 24.56 24
  453.0 23.89 23
  453.1 20.96 20
  453.2 17.29 17
  453.3 14.17 14
  453.6 12.32 12
  453.7 13.14 13
  453.8 14.04 14
  453.9 15.63 15
  454.0 17.77 17
  454.1 19.6 19
  454.2 20.61 20
  454.3 20.85 20
  454.4 19.75 19
  454.5 16.77 16
  454.6 13.06 13
  454.8 10.84 10
  454.9 12.86 12
  455.0 15.65 15
  455.1 18.42 18
  455.2 20.15 20
  455.3 19.93 19
  455.4 17.66 17
  455.5 14.69 14
  455.7 13.05 13
  455.8 14.79 14
  455.9 16.96 16
  456.0 18.96 18
  456.1 20.76 20
  456.2 21.54 21
  456.3 20.18 20
  456.4 17.09 17
  456.7 15.67 15
  456.8 17.01 16
  456.9 17.72 17
  457.0 17.87 17
  457.1 17.72 17
  457.2 17.35 17
  457.3 16.56 16
  458.5 11.24 11
  458.6 12.83 12
  458.7 15.53 15
  458.8 17.08 17
  458.9 16.54 16
  459.0 15.08 15
  459.1 14.07 14
  459.4 12.22 12
  459.5 14.34 14
  459.6 18.45 18
  459.7 22.67 22
  459.8 25.17 25
  459.9 25.31 25
  460.0 23.48 23
  460.1 20.71 20
  460.2 18.58 18
  461.0 15.01 14
  461.1 16.54 16
  461.2 17.81 17
  461.3 18.13 18
  461.4 17.29 17
  461.5 15.41 15
  461.6 12.79 12
  461.9 10.65 10
  462.0 13.52 13
  462.1 16.37 16
  462.2 18.37 18
  462.3 19.78 19
  462.4 21.19 21
  462.5 22.57 22
  462.6 23.5 23
  462.7 23.66 23
  462.8 22.8 22
  462.9 20.78 20
  463.0 18.16 18
  463.8 12.39 12
  463.9 14.34 14
  464.0 15.99 15
  464.1 17.53 17
  464.2 19.48 19
  464.3 21.41 21
  464.4 22.25 22
  464.5 21.82 21
  464.6 20.7 20
  464.7 19.82 19
  464.8 19.42 19
  464.9 18.85 18
  465.0 17.39 17
  465.3 14.85 14
  465.4 16.74 16
  465.5 19.26 19
  465.6 21.36 21
  465.7 21.81 21
  465.8 20.28 20
  466.1 18.06 18
  466.2 19.87 19
  466.3 21.61 21
  466.4 22.86 22
  466.5 23.71 23
  466.6 24.63 24
  466.7 25.52 25
  466.8 25.07 25
  466.9 22.23 22
  467.0 17.87 17
  467.1 14.4 14
  467.4 13.13 13
  467.5 13.46 13
  467.6 14.67 14
  467.7 16.89 16
  467.8 19.35 19
  467.9 20.95 20
  468.0 20.85 20
  468.1 19.34 19
  468.2 17.47 17
  468.3 16.32 16
  468.4 16.0 15
  468.7 15.06 15
  468.8 15.5 15
  468.9 17.55 17
  469.0 20.71 20
  469.1 23.25 23
  469.2 23.63 23
  469.3 21.64 21
  469.4 18.36 18
  469.5 15.0 14
  469.6 12.4 12
  469.8 11.48 11
  469.9 13.61 13
  470.0 16.68 16
  470.1 18.92 18
  470.2 19.02 19
  470.3 17.19 17
  470.4 15.04 15
  470.9 15.25 15
  471.0 15.34 15
  471.1 17.06 17
  471.2 20.02 19
  471.3 22.3 22
  471.4 22.6 22
  471.5 21.28 21
  471.6 19.85 19
  471.7 19.07 19
  471.8 18.52 18
  471.9 17.57 17
  472.0 16.26 16
  472.2 15.39 15
  472.3 16.48 16
  472.4 18.2 18
  472.5 19.98 19
  472.6 21.15 21
  472.7 21.23 21
  472.8 20.0 19
  472.9 17.6 17
  473.0 14.82 14
  473.1 12.75 12
  473.4 11.91 11
  473.5 12.64 12
  473.6 13.84 13
  473.7 14.92 14
  473.8 15.2 15
  473.9 15.02 15
  474.0 15.38 15
  474.1 16.95 16
  474.2 19.27 19
  474.3 21.24 21
  474.4 22.22 22
  474.5 21.94 21
  474.6 20.5 20
  474.7 18.42 18
  475.9 10.07 10
  476.0 11.88 11
  476.1 14.78 14
  476.2 16.38 16
  476.3 15.33 15
  476.4 12.21 12
  476.6 8.36 8
  476.7 10.08 10
  476.8 13.22 13
  476.9 15.85 15
  477.0 17.2 17
  477.1 18.0 17
  477.2 19.43 19
  477.3 21.12 21
  477.4 21.67 21
  477.5 20.14 20
  477.6 17.08 17
  477.7 13.94 13
  477.9 12.72 12
  478.0 14.54 14
  478.1 16.48 16
  478.2 18.06 18
  478.3 19.4 19
  478.4 20.18 20
  478.5 19.75 19
  478.6 18.16 18
  478.7 16.21 16
  478.8 14.33 14
  478.9 12.42 12
  479.1 10.66 10
  479.2 12.42 12
  479.3 15.33 15
  479.4 17.77 17
  479.5 18.52 18
  479.6 17.52 17
  479.7 15.46 15
  480.0 13.87 13
  480.1 15.15 15
  480.2 15.72 15
  480.3 16.06 16
  480.4 17.1 17
  480.5 18.82 18
  480.6 20.47 20
  480.7 21.36 21
  480.8 20.82 20
  480.9 18.88 18
  481.0 16.61 16
  481.1 15.25 15
  481.4 14.98 14
  481.5 15.89 15
  481.6 17.75 17
  481.7 19.62 19
  481.8 20.38 20
  481.9 19.98 19
  482.0 18.98 18
  482.1 18.07 18
  482.2 17.48 17
  482.3 17.2 17
  482.4 16.78 16
  482.5 15.64 15
  482.8 13.64 13
  482.9 16.48 16
  483.0 20.27 20
  483.1 23.1 23
  483.2 23.82 23
  483.3 22.61 22
  483.4 20.18 20
  483.5 17.08 17
  483.6 14.36 14
  483.8 14.31 14
  483.9 15.34 15
  484.0 15.86 15
  484.1 16.8 16
  484.2 18.88 18
  484.3 21.05 21
  484.4 21.41 21
  484.5 18.9 18
  484.6 14.07 14
  484.7 8.79 8
  484.9 4.76 4
  485.0 7.52 7
  485.1 12.54 12
  485.2 17.55 17
  485.3 20.19 20
  485.4 19.81 19
  485.5 18.14 18
  485.6 16.99 16
  485.7 16.73 16
  485.8 16.63 16
  485.9 16.08 16
  486.0 14.78 14
  486.1 13.06 13
  486.3 11.5 11
  486.4 13.25 13
  486.5 16.19 16
  486.6 19.0 18
  486.7 20.97 20
  486.8 22.09 22
  486.9 21.75 21
  487.0 18.98 18
  487.1 14.5 14
  487.4 12.04 12
  487.5 13.74 13
  487.6 14.52 14
  487.7 15.02 15
  487.8 16.02 16
  487.9 17.26 17
  488.0 17.73 17
  488.1 16.67 16
  488.2 14.93 14
  488.3 13.96 13
  488.4 14.05 14
  488.5 14.02 14
  488.6 13.3 13
  488.9 12.45 12
  489.0 13.32 13
  489.1 15.71 15
  489.2 18.69 18
  489.3 20.22 20
  489.4 19.3 19
  489.5 16.76 16
  489.6 14.14 14
  489.9 13.24 13
  490.0 14.17 14
  490.1 15.09 15
  490.2 17.15 17
  490.3 20.34 20
  490.4 22.38 22
  490.5 20.83 20
  490.6 16.24 16
  490.7 11.74 11
  491.0 10.76 10
  491.1 11.7 11
  491.2 13.81 13
  491.3 17.28 17
  491.4 20.79 20
  491.5 22.78 22
  491.6 22.67 22
  491.7 20.56 20
  491.8 17.21 17
  492.1 14.42 14
  492.2 15.98 15
  492.3 16.65 16
  492.4 16.49 16
  492.5 16.39 16
  492.6 17.0 16
  492.7 17.8 17
  492.8 17.99 17
  492.9 17.2 17
  493.2 16.24 16
  493.3 17.14 17
  493.4 17.57 17
  493.5 17.42 17
  493.6 16.75 16
  493.7 15.65 15
  494.4 13.43 13
  494.5 16.31 16
  494.6 20.48 20
  494.7 23.11 23
  494.8 22.86 22
  494.9 20.51 20
  495.0 17.67 17
  495.1 15.35 15
  495.2 13.55 13
  495.4 11.41 11
  495.5 12.45 12
  495.6 15.32 15
  495.7 18.75 18
  495.8 21.03 21
  495.9 21.64 21
  496.0 21.57 21
  496.1 21.78 21
  496.2 21.8 21
  496.3 20.65 20
  496.4 18.36 18
  496.7 15.4 15
  496.8 18.44 18
  496.9 21.5 21
  497.0 22.0 21
  497.1 19.52 19
  497.2 16.29 16
  498.1 14.92 14
  498.2 15.97 15
  498.3 16.52 16
  498.4 15.96 15
  498.5 14.75 14
  498.8 14.24 14
  498.9 15.67 15
  499.0 16.84 16
  499.1 17.22 17
  499.2 17.22 17
  499.3 17.65 17
  499.4 18.24 18
  499.5 18.06 18
  499.6 16.93 16
  500.3 15.18 15
  500.4 16.26 16
  500.5 18.13 18
  500.6 19.23 19
  500.7 19.16 19
  500.8 18.91 18
  500.9 19.03 19
  501.0 18.89 18
  501.3 17.1 17
  501.4 18.42 18
  501.5 20.32 20
  501.6 22.06 22
  501.7 23.36 23
  501.8 24.0 23
  501.9 23.64 23
  502.0 21.88 21
  502.1 18.52 18
  502.2 14.44 14
  502.4 11.31 11
  502.5 14.59 14
  502.6 19.5 19
  502.7 23.37 23
  502.8 24.85 24
  502.9 24.57 24
  503.0 23.69 23
  503.1 22.36 22
  503.2 20.2 20
  503.3 17.48 17
  503.4 15.01 14
  503.6 13.61 13
  503.7 15.34 15
  503.8 18.3 18
  503.9 21.22 21
  504.0 22.85 22
  504.1 22.64 22
  504.2 20.86 20
  504.3 18.57 18
  504.6 17.07 17
  504.7 18.07 18
  504.8 19.14 19
  504.9 20.35 20
  505.0 21.42 21
  505.1 21.81 21
  505.2 21.21 21
  505.3 20.12 20
  505.4 19.22 19
  505.5 18.69 18
  505.6 18.2 18
  505.7 17.54 17
  505.9 16.24 16
  506.0 17.08 17
  506.1 19.82 19
  506.2 23.7 23
  506.3 26.82 26
  506.4 27.74 27
  506.5 26.19 26
  506.6 23.16 23
  506.7 20.11 20
  506.8 18.16 18
  507.1 16.75 16
  507.2 17.3 17
  507.3 19.03 19
  507.4 21.43 21
  507.5 23.38 23
  507.6 23.58 23
  507.7 21.74 21
  507.8 19.04 19
  509.3 15.48 15
  509.4 16.15 16
  509.5 17.34 17
  509.6 18.81 18
  509.7 19.92 19
  509.8 20.09 20
  509.9 19.33 19
  510.1 17.94 17
  510.2 18.94 18
  510.3 20.83 20
  510.4 22.26 22
  510.5 21.7 21
  510.6 18.91 18
  510.7 15.25 15
  510.9 12.72 12
  511.0 14.3 14
  511.1 16.12 16
  511.2 17.25 17
  511.3 17.87 17
  511.4 18.53 18
  511.5 19.37 19
  511.6 20.06 20
  511.7 20.24 20
  511.8 19.69 19
  511.9 18.61 18
  512.0 17.3 17
  512.7 15.05 15
  512.8 16.16 16
  512.9 17.71 17
  513.0 18.74 18
  513.1 18.97 18
  513.2 18.66 18
  513.3 18.26 18
  513.4 17.77 17
  513.5 17.23 17
  513.6 16.73 16
  513.7 16.31 16
  514.0 15.22 15
  514.1 15.82 15
  514.2 17.04 17
  514.3 18.27 18
  514.4 18.89 18
  514.5 18.7 18
  514.6 17.85 17
  514.7 16.69 16
  514.8 15.73 15
  514.9 15.04 15
  515.0 13.95 13
  515.2 11.61 11
  515.3 13.37 13
  515.4 16.94 16
  515.5 19.85 19
  515.6 20.27 20
  515.7 18.75 18
  516.0 17.9 17
  516.1 19.22 19
  516.2 20.09 20
  516.3 20.59 20
  516.4 21.19 21
  516.5 22.14 22
  516.6 23.31 23
  516.7 24.14 24
  516.8 23.87 23
  516.9 22.36 22
  517.0 20.82 20
  517.1 19.92 19
  517.2 18.89 18
  517.3 16.86 16
  517.6 14.67 14
  517.7 17.17 17
  517.8 19.6 19
  517.9 20.7 20
  518.0 20.37 20
  518.9 15.28 15
  519.0 16.12 16
  519.1 17.57 17
  519.2 19.53 19
  519.3 21.56 21
  519.4 22.7 22
  519.5 22.75 22
  519.6 22.79 22
  519.7 23.33 23
  519.8 23.38 23
  519.9 21.58 21
  520.0 18.29 18
  520.2 14.7 14
  520.3 16.93 16
  520.4 20.77 20
  520.5 23.78 23
  520.6 24.21 24
  520.7 22.47 22
  520.8 20.21 20
  520.9 18.43 18
  521.1 17.55 17
  521.2 18.88 18
  521.3 20.35 20
  521.4 20.95 20
  521.5 21.17 21
  521.6 22.32 22
  521.7 24.54 24
  521.8 26.54 26
  521.9 27.02 26
  522.0 25.61 25
  522.1 22.91 22
  522.2 19.86 19
  522.3 17.28 17
  523.1 15.66 15
  523.2 17.42 17
  523.3 20.01 19
  523.4 21.97 21
  523.5 22.73 22
  523.6 22.8 22
  523.7 22.94 22
  523.8 23.31 23
  523.9 23.76 23
  524.0 23.96 23
  524.1 23.42 23
  524.2 21.82 21
  524.4 20.45 20
  524.5 22.49 22
  524.6 25.13 25
  524.7 27.01 26
  524.8 27.68 27
  524.9 27.19 27
  525.0 25.65 25
  525.1 23.5 23
  525.2 21.76 21
  525.3 20.9 20
  525.4 20.4 20
  525.5 19.49 19
  525.8 17.14 17
  525.9 18.88 18
  526.0 21.65 21
  526.1 24.28 24
  526.2 25.71 25
  526.3 25.5 25
  526.4 23.7 23
  526.5 21.13 21
  526.6 19.08 19
  528.1 15.84 15
  528.2 17.17 17
  528.3 19.08 19
  528.4 20.59 20
  528.5 21.42 21
  528.6 21.69 21
  528.7 21.6 21
  528.8 21.5 21
  528.9 21.63 21
  529.0 21.62 21
  529.1 20.91 20
  529.4 19.7 19
  529.5 21.02 20
  529.6 21.83 21
  529.7 21.6 21
  529.8 21.0 20
  529.9 21.09 21
  530.0 21.52 21
  530.1 21.19 21
  530.2 19.95 19
  530.3 18.82 18
  530.6 18.64 18
  530.7 19.59 19
  530.8 21.71 21
  530.9 24.61 24
  531.0 27.06 27
  531.1 28.05 28
  531.2 27.23 27
  531.3 24.93 24
  531.4 21.58 21
  531.5 17.92 17
  531.6 14.86 14
  531.8 13.79 13
  531.9 15.4 15
  532.0 18.0 17
  532.1 21.48 21
  532.2 24.73 24
  532.3 25.66 25
  532.4 23.36 23
  532.5 19.31 19
  532.6 16.24 16
  532.8 16.35 16
  532.9 17.88 17
  533.0 18.9 18
  533.1 18.68 18
  533.2 17.3 17
  533.3 15.59 15
  533.4 13.83 13
  533.6 11.19 11
  533.7 12.36 12
  533.8 15.65 15
  533.9 19.46 19
  534.0 22.25 22
  534.1 23.17 23
  534.2 22.0 21
  534.3 19.56 19
  534.5 18.4 18
  534.6 20.47 20
  534.7 22.06 22
  534.8 22.13 22
  534.9 21.22 21
  535.0 20.06 20
  535.1 19.03 19
  535.9 13.92 13
  536.0 16.03 16
  536.1 19.79 19
  536.2 23.12 23
  536.3 24.49 24
  536.4 23.76 23
  536.5 21.42 21
  536.6 18.79 18
  538.5 16.42 16
  538.6 17.17 17
  538.7 19.48 19
  538.8 21.96 21
  538.9 22.61 22
  539.0 20.77 20
  539.1 17.88 17
  539.7 17.51 17
  539.8 17.99 17
  539.9 18.75 18
  540.0 19.44 19
  540.1 19.85 19
  540.2 20.15 20
  540.3 21.15 21
  540.4 22.9 22
  540.5 23.89 23
  540.6 22.43 22
  540.7 18.9 18
  540.8 15.28 15
  541.0 14.73 14
  541.1 17.67 17
  541.2 21.02 20
  541.3 23.5 23
  541.4 24.59 24
  541.5 24.69 24
  541.6 24.62 24
  541.7 24.65 24
  541.8 24.37 24
  541.9 23.37 23
  543.0 12.55 12
  543.1 13.79 13
  543.2 15.38 15
  543.3 17.2 17
  543.4 19.46 19
  543.5 21.68 21
  543.6 22.84 22
  543.7 22.7 22
  543.8 21.9 21
  543.9 20.89 20
  544.0 19.43 19
  544.2 17.73 17
  544.3 19.02 19
  544.4 20.73 20
  544.5 21.73 21
  544.6 21.64 21
  544.7 20.77 20
  544.8 19.52 19
  544.9 18.3 18
  545.0 17.1 17
  545.1 15.73 15
  545.4 14.63 14
  545.5 15.72 15
  545.6 17.8 17
  545.7 20.84 20
  545.8 23.06 23
  545.9 22.71 22
  546.7 19.4 19
  546.8 20.72 20
  546.9 21.97 21
  547.0 21.83 21
  547.1 20.33 20
  547.2 18.66 18
  547.3 17.6 17
  547.4 16.91 16
  547.5 16.32 16
  547.6 15.71 15
  547.9 14.91 14
  548.0 16.11 16
  548.1 17.73 17
  548.2 19.18 19
  548.3 19.85 19
  548.4 19.17 19
  548.5 17.48 17
  548.6 16.1 16
  548.7 15.84 15
  549.0 14.91 14
  549.1 17.01 16
  549.2 21.28 21
  549.3 25.0 24
  549.4 25.79 25
  549.5 23.87 23
  549.6 21.16 21
  549.7 19.1 19
  550.0 17.23 17
  550.1 18.2 18
  550.2 19.73 19
  550.3 21.61 21
  550.4 23.62 23
  550.5 24.79 24
  550.6 23.82 23
  550.7 20.53 20
  550.8 16.54 16
  551.0 14.22 14
  551.1 16.28 16
  551.2 18.89 18
  551.3 20.78 20
  551.4 21.29 21
  551.5 20.69 20
  551.6 19.55 19
  551.7 18.27 18
  551.8 16.83 16
  551.9 15.28 15
  552.0 14.03 14
  552.2 13.27 13
  552.3 14.1 14
  552.4 15.18 15
  552.5 15.67 15
  552.6 15.45 15
  552.7 15.44 15
  552.8 16.47 16
  552.9 17.91 17
  553.0 18.17 18
  553.1 16.56 16
  553.2 14.23 14
  553.3 12.67 12
  553.6 11.3 11
  553.7 13.2 13
  553.8 17.48 17
  553.9 22.15 22
  554.0 24.37 24
  554.1 23.26 23
  554.2 20.3 20
  554.3 17.64 17
  554.4 15.98 15
  554.7 14.36 14
  554.8 16.22 16
  554.9 18.57 18
  555.0 20.06 20
  555.1 20.18 20
  555.2 19.8 19
  555.3 19.99 19
  555.4 20.96 20
  555.5 21.95 21
  555.6 21.9 21
  555.7 20.27 20
  555.8 17.86 17
  555.9 15.95 15
  556.0 14.91 14
  556.1 14.11 14
  556.3 13.0 12
  556.4 13.92 13
  556.5 15.87 15
  556.6 17.93 17
  556.7 19.09 19
  556.8 19.05 19
  556.9 18.55 18
  557.3 17.77 17
  557.4 18.81 18
  557.5 20.15 20
  557.6 21.73 21
  557.7 23.04 23
  557.8 22.74 22
  557.9 20.21 20
  558.0 16.48 16
  558.1 13.14 13
  558.4 10.87 10
  558.5 13.68 13
  558.6 16.51 16
  558.7 17.84 17
  558.8 18.38 18
  558.9 19.98 19
  559.0 22.71 22
  559.1 24.28 24
  559.2 22.96 22
  559.3 19.57 19
  559.4 16.34 16
  559.5 14.47 14
  560.3 9.13 9
  560.4 12.35 12
  560.5 16.34 16
  560.6 19.21 19
  560.7 20.14 20
  560.8 19.5 19
  560.9 18.12 18
  561.9 14.72 14
  562.0 16.57 16
  562.1 17.86 17
  562.2 17.72 17
  562.3 16.44 16
  562.5 15.45 15
  562.6 16.67 16
  562.7 18.19 18
  562.8 19.49 19
  562.9 20.14 20
  563.0 19.72 19
  563.3 18.38 18
  563.4 19.59 19
  563.5 20.26 20
  563.6 19.75 19
  563.7 17.93 17
  564.0 14.95 14
  564.1 17.51 17
  564.2 20.32 20
  564.3 23.1 23
  564.4 25.97 25
  564.5 27.96 27
  564.6 27.32 27
  564.7 24.02 23
  564.8 19.79 19
  564.9 16.54 16
  565.2 14.96 14
  565.3 15.92 15
  565.4 17.94 17
  565.5 20.67 20
  565.6 22.88 22
  565.7 23.75 23
  565.8 23.27 23
  565.9 21.74 21
  566.0 19.09 19
  566.3 16.68 16
  566.4 19.91 19
  566.5 22.92 22
  566.6 25.02 24
  566.7 26.96 26
  566.8 28.98 28
  566.9 29.55 29
  567.0 26.69 26
  567.1 20.87 20
  567.2 15.18 15
  567.4 12.16 12
  567.5 13.83 13
  567.6 16.61 16
  567.7 20.19 20
  567.8 23.65 23
  567.9 25.31 25
  568.0 23.76 23
  568.1 19.15 19
  568.2 13.81 13
  568.4 11.25 11
  568.5 13.94 13
  568.6 16.82 16
  568.7 19.05 19
  568.8 20.32 20
  568.9 20.06 20
  569.0 18.38 18
  569.2 16.88 16
  569.3 18.77 18
  569.4 20.78 20
  569.5 21.13 21
  569.6 19.41 19
  569.7 16.8 16
  570.0 15.57 15
  570.1 17.29 17
  570.2 19.01 18
  570.3 20.25 20
  570.4 20.78 20
  570.5 20.28 20
  570.6 18.25 18
  570.7 14.87 14
  570.8 11.31 11
  571.0 8.45 8
  571.1 9.98 9
  571.2 12.7 12
  571.3 15.37 15
  571.4 17.01 16
  571.5 17.51 17
  571.6 17.27 17
  571.7 17.03 17
  571.8 17.26 17
  571.9 17.88 17
  572.0 18.27 18
  572.1 18.13 18
  572.2 17.79 17
  572.3 17.57 17
  573.3 10.39 10
  573.4 11.95 11
  573.5 13.55 13
  573.6 13.63 13
  573.7 12.81 12
  573.8 13.03 13
  573.9 14.95 14
  574.0 17.21 17
  574.1 18.53 18
  574.2 19.0 18
  574.3 19.03 19
  574.4 18.58 18
  574.5 17.72 17
  575.3 16.25 16
  575.4 17.15 17
  575.5 18.17 18
  575.6 18.45 18
  575.9 16.95 16
  576.0 17.87 17
  576.1 19.16 19
  576.2 20.09 20
  576.3 20.09 20
  576.4 19.35 19
  576.5 18.59 18
  576.6 18.45 18
  576.7 18.35 18
  576.8 17.33 17
  576.9 15.56 15
  577.1 14.57 14
  577.2 15.53 15
  577.3 16.56 16
  577.4 17.62 17
  577.5 18.61 18
  577.6 18.78 18
  577.7 17.68 17
  577.8 15.71 15
  577.9 13.49 13
  578.2 11.48 11
  578.3 13.18 13
  578.4 14.63 14
  578.5 15.13 15
  578.6 14.93 14
  578.7 14.34 14
  578.8 13.39 13
  579.1 12.28 12
  579.2 13.97 13
  579.3 16.73 16
  579.4 19.92 19
  579.5 22.3 22
  579.6 22.57 22
  579.7 20.66 20
  579.8 18.12 18
  579.9 16.7 16
  580.0 16.68 16
  580.1 16.87 16
  580.2 16.21 16
  580.3 14.99 14
  580.5 13.68 13
  580.6 14.4 14
  580.7 16.19 16
  580.8 18.39 18
  580.9 19.66 19
  581.0 19.4 19
  581.3 18.31 18
  581.4 18.9 18
  581.5 19.73 19
  581.6 20.53 20
  581.7 20.78 20
  581.8 20.06 20
  581.9 18.45 18
  582.0 16.49 16
  582.3 15.6 15
  582.4 16.43 16
  582.5 17.01 16
  582.6 17.49 17
  582.7 18.3 18
  582.8 19.33 19
  582.9 20.25 20
  583.0 20.72 20
  583.1 20.85 20
  583.2 20.7 20
  583.3 19.81 19
  583.4 17.78 17
  583.7 15.61 15
  583.8 17.46 17
  583.9 18.29 18
  584.0 17.85 17
  584.1 16.94 16
  584.2 15.95 15
  584.3 14.76 14
  584.6 13.11 13
  584.7 14.68 14
  584.8 16.75 16
  584.9 17.97 17
  585.0 17.93 17
  585.1 17.67 17
  585.2 18.38 18
  585.3 19.52 19
  585.4 19.74 19
  585.5 18.36 18
  585.6 15.45 15
  585.7 11.89 11
  585.9 9.96 9
  586.0 13.29 13
  586.1 17.29 17
  586.2 20.38 20
  586.3 22.87 22
  586.4 25.27 25
  586.5 26.99 26
  586.6 26.86 26
  586.7 24.68 24
  586.8 21.61 21
  586.9 19.28 19
  587.0 18.46 18
  587.1 17.96 17
  587.2 16.45 16
  587.3 14.4 14
  587.5 13.62 13
  587.6 14.67 14
  587.7 15.91 15
  587.8 17.01 16
  587.9 17.09 17
  588.0 15.51 15
  588.1 12.77 12
  588.2 10.26 10
  588.4 9.09 9
  588.5 10.6 10
  588.6 13.38 13
  588.7 16.69 16
  588.8 19.05 19
  588.9 19.59 19
  589.0 18.97 18
  589.1 18.48 18
  589.2 18.0 17
  589.3 16.41 16
  589.4 13.83 13
  589.7 13.63 13
  589.8 14.3 14
  589.9 14.78 14
  590.0 15.87 15
  590.1 17.19 17
  590.2 17.72 17
  590.3 17.08 17
  590.4 15.31 15
  590.5 12.73 12
  590.7 10.46 10
  590.8 12.36 12
  590.9 14.96 14
  591.0 16.96 16
  591.1 17.72 17
  591.2 17.13 17
  591.3 15.4 15
  591.4 13.14 13
  591.6 10.7 10
  591.7 12.1 12
  591.8 14.74 14
  591.9 17.09 17
  592.0 18.33 18
  592.1 18.78 18
  592.2 18.96 18
  592.3 18.95 18
  592.4 18.69 18
  592.5 18.57 18
  592.6 18.26 18
  592.7 16.86 16
  592.8 14.54 14
  594.2 12.9 12
  594.3 15.43 15
  594.4 18.09 18
  594.5 19.34 19
  594.6 19.03 19
  594.7 17.94 17
  594.8 16.56 16
  595.0 15.5 15
  595.1 17.07 17
  595.2 19.36 19
  595.3 21.06 21
  595.4 21.45 21
  595.5 20.53 20
  595.6 18.49 18
  595.7 15.91 15
  596.0 14.74 14
  596.1 15.86 15
  596.2 17.13 17
  596.3 17.84 17
  596.4 17.16 17
  596.5 15.78 15
  596.6 15.15 15
  596.7 15.44 15
  596.8 15.32 15
  596.9 14.2 14
  597.1 13.01 12
  597.2 14.3 14
  597.3 16.58 16
  597.4 18.96 18
  597.5 19.86 19
  597.6 18.14 18
  597.7 14.4 14
  598.0 10.12 10
  598.1 13.97 13
  598.2 18.71 18
  598.3 21.96 21
  598.4 22.16 22
  598.5 19.69 19
  598.6 16.63 16
  598.7 14.8 14
  598.8 14.35 14
  598.9 13.89 13
  599.0 12.52 12
  599.3 10.76 10
  599.4 12.74 12
  599.5 15.27 15
  599.6 17.88 17
  599.7 19.99 19
  599.8 20.7 20
  599.9 19.46 19
  600.0 16.88 16
  600.7 14.46 14
  600.8 15.84 15
  600.9 16.9 16
  601.0 17.33 17
  601.1 17.41 17
  601.2 17.2 17
  601.3 16.43 16
  601.4 15.41 15
  601.5 14.49 14
  601.8 13.71 13
  601.9 14.69 14
  602.0 15.86 15
  602.1 16.25 16
  602.2 15.48 15
  602.5 14.87 14
  602.6 16.35 16
  602.7 17.66 17
  602.8 18.89 18
  602.9 20.51 20
  603.0 22.23 22
  603.1 22.59 22
  603.2 20.5 20
  603.3 16.82 16
  603.4 13.4 13
  603.5 11.22 11
  603.7 10.21 10
  603.8 12.26 12
  603.9 15.96 15
  604.0 19.88 19
  604.1 22.77 22
  604.2 24.44 24
  604.3 25.2 25
  604.4 25.19 25
  604.5 24.2 24
  604.6 22.15 22
  604.7 19.29 19
  604.9 15.87 15
  605.0 17.55 17
  605.1 20.34 20
  605.2 22.26 22
  605.3 22.88 22
  605.4 22.97 22
  605.5 22.54 22
  605.6 20.87 20
  605.7 18.07 18
  605.8 15.44 15
  606.0 13.62 13
  606.1 14.39 14
  606.2 16.73 16
  606.3 20.63 20
  606.4 24.72 24
  606.5 26.84 26
  606.6 25.69 25
  606.7 21.67 21
  606.8 16.84 16
  606.9 13.44 13
  607.2 12.54 12
  607.3 13.65 13
  607.4 15.66 15
  607.5 18.1 18
  607.6 20.06 20
  607.7 20.93 20
  607.8 20.5 20
  607.9 18.82 18
  608.0 16.29 16
  608.1 13.9 13
  608.3 12.66 12
  608.4 13.79 13
  608.5 16.13 16
  608.6 19.68 19
  608.7 23.16 23
  608.8 24.69 24
  608.9 23.69 23
  609.0 20.95 20
  609.1 17.59 17
  609.2 14.37 14
  609.3 11.57 11
  609.5 9.09 9
  609.6 10.27 10
  609.7 12.75 12
  609.8 15.48 15
  609.9 17.06 17
  610.0 16.87 16
  610.8 14.98 14
  610.9 16.35 16
  611.0 17.64 17
  611.1 18.52 18
  611.2 19.16 19
  611.3 19.99 19
  611.4 20.8 20
  611.5 20.24 20
  611.6 17.39 17
  611.7 13.42 13
  611.9 11.54 11
  612.0 14.46 14
  612.1 17.73 17
  612.2 20.08 20
  612.3 21.19 21
  612.4 20.97 20
  612.5 18.94 18
  612.6 15.5 15
  612.8 12.78 12
  612.9 15.93 15
  613.0 20.07 20
  613.1 22.99 22
  613.2 23.92 23
  613.3 22.79 22
  613.4 19.82 19
  613.5 16.09 16
  613.7 13.1 13
  613.8 15.4 15
  613.9 18.71 18
  614.0 21.09 21
  614.1 21.62 21
  614.2 20.69 20
  614.3 19.1 19
  614.4 17.42 17
  615.1 17.2 17
  615.2 18.25 18
  615.3 20.05 20
  615.4 20.93 20
  615.5 20.02 19
  615.8 17.87 17
  615.9 20.22 20
  616.0 22.57 22
  616.1 23.2 23
  616.2 21.89 21
  616.3 19.68 19
  616.4 17.52 17
  616.7 15.7 15
  616.8 18.44 18
  616.9 21.03 21
  617.0 21.73 21
  617.1 20.61 20
  617.2 19.17 19
  618.8 12.28 12
  618.9 13.64 13
  619.0 16.16 16
  619.1 18.35 18
  619.2 18.96 18
  619.3 18.22 18
  619.4 17.74 17
  619.5 18.85 18
  619.6 20.8 20
  619.7 21.63 21
  619.8 20.31 20
  619.9 17.54 17
  620.0 14.95 14
  620.3 14.39 14
  620.4 14.93 14
  620.5 15.46 15
  620.6 16.31 16
  620.7 17.73 17
  620.8 19.42 19
  620.9 20.78 20
  621.0 21.57 21
  621.1 22.33 22
  621.2 23.37 23
  621.3 24.09 24
  621.4 23.16 23
  621.5 20.46 20
  621.8 18.27 18
  621.9 20.32 20
  622.0 21.37 21
  622.1 21.19 21
  622.2 20.25 20
  623.3 9.63 9
  623.4 11.62 11
  623.5 14.41 14
  623.6 17.42 17
  623.7 21.1 21
  623.8 25.46 25
  623.9 28.57 28
  624.0 28.24 28
  624.1 24.8 24
  624.2 20.7 20
  624.3 17.3 17
  624.4 14.53 14
  624.6 13.0 12
  624.7 16.34 16
  624.8 21.0 20
  624.9 24.82 24
  625.0 26.76 26
  625.1 26.62 26
  625.2 24.59 24
  625.3 21.36 21
  625.4 18.29 18
  625.6 16.62 16
  625.7 17.79 17
  625.8 19.4 19
  625.9 21.23 21
  626.0 23.45 23
  626.1 25.51 25
  626.2 25.95 25
  626.3 23.51 23
  626.4 18.88 18
  626.5 14.13 14
  626.6 11.05 11
  626.8 10.32 10
  626.9 11.22 11
  627.0 12.79 12
  627.1 15.57 15
  627.2 19.34 19
  627.3 22.73 22
  627.4 24.65 24
  627.5 25.22 25
  627.6 24.93 24
  627.7 23.56 23
  627.8 21.12 21
  627.9 18.44 18
  628.0 16.68 16
  628.2 15.79 15
  628.3 17.12 17
  628.4 19.86 19
  628.5 22.15 22
  628.6 21.52 21
  628.7 17.9 17
  628.8 13.85 13
  629.0 13.07 13
  629.1 15.45 15
  629.2 17.21 17
  629.3 17.38 17
  629.4 16.81 16
  629.5 16.9 16
  629.6 17.84 17
  629.7 18.38 18
  629.8 17.99 17
  629.9 17.52 17
  630.0 17.64 17
  630.1 17.85 17
  630.4 15.96 15
  630.5 17.51 17
  630.6 18.98 18
  630.7 18.89 18
  630.8 17.96 17
  630.9 17.97 17
  631.0 19.33 19
  631.1 20.96 20
  631.2 21.64 21
  631.3 21.06 21
  631.4 19.16 19
  631.5 16.16 16
  631.7 13.39 13
  631.8 16.29 16
  631.9 20.2 20
  632.0 22.92 22
  632.1 24.3 24
  632.2 25.18 25
  632.3 25.52 25
  632.4 24.52 24
  632.5 21.99 21
  632.6 19.03 19
  632.8 17.7 17
  632.9 19.21 19
  633.0 19.87 19
  633.1 19.42 19
  633.2 19.1 19
  633.3 19.49 19
  633.4 19.73 19
  633.5 18.91 18
  633.6 17.27 17
  633.7 15.44 15
  633.8 14.01 13
  634.1 13.94 13
  634.2 15.08 15
  634.3 17.36 17
  634.4 20.04 20
  634.5 21.47 21
  634.6 20.69 20
  634.7 18.3 18
  635.0 16.17 16
  635.1 18.82 18
  635.2 21.83 21
  635.3 23.88 23
  635.4 24.42 24
  635.5 23.89 23
  635.6 22.9 22
  635.7 22.03 22
  635.8 21.62 21
  635.9 21.21 21
  636.0 20.17 20
  636.2 18.81 18
  636.3 20.38 20
  636.4 22.75 22
  636.5 24.17 24
  636.6 23.71 23
  636.7 22.2 22
  636.8 21.02 20
  636.9 20.8 20
  637.0 20.91 20
  637.1 20.61 20
  637.2 19.72 19
  637.5 17.73 17
  637.6 19.92 19
  637.7 23.48 23
  637.8 26.19 26
  637.9 25.83 25
  638.0 22.23 22
  638.1 17.46 17
  638.3 13.82 13
  638.4 15.89 15
  638.5 18.4 18
  638.6 19.5 19
  638.7 18.84 18
  638.8 17.8 17
  638.9 17.94 17
  639.0 19.74 19
  639.1 22.23 22
  639.2 23.7 23
  639.3 23.16 23
  639.4 21.3 21
  639.5 19.56 19
  639.6 18.07 18
  639.7 16.13 16
  639.9 13.89 13
  640.0 15.45 15
  640.1 17.4 17
  640.2 18.29 18
  640.3 18.24 18
  640.4 18.51 18
  640.5 20.04 20
  640.6 22.51 22
  640.7 24.42 24
  640.8 24.69 24
  640.9 23.45 23
  641.0 21.71 21
  642.1 14.26 14
  642.2 16.02 16
  642.3 20.72 20
  642.4 26.22 26
  642.5 29.94 29
  642.6 30.48 30
  642.7 28.29 28
  642.8 24.76 24
  642.9 20.97 20
  643.0 17.32 17
  643.3 14.87 14
  643.4 17.75 17
  643.5 20.77 20
  643.6 22.79 22
  643.7 23.24 23
  643.8 22.45 22
  643.9 21.11 21
  644.0 19.68 19
  644.1 18.4 18
  644.2 17.43 17
  644.5 16.91 16
  644.6 17.33 17
  644.7 18.4 18
  644.8 19.55 19
  644.9 19.8 19
  645.0 19.37 19
  645.1 19.23 19
  645.2 19.79 19
  645.3 20.31 20
  645.4 20.18 20
  645.5 19.54 19
  645.6 19.3 19
  645.7 20.11 20
  645.8 21.81 21
  645.9 23.57 23
  646.0 24.41 24
  646.1 23.97 23
  646.2 22.81 22
  646.3 22.02 21
  646.4 22.08 22
  646.5 22.16 22
  646.6 21.22 21
  646.9 18.89 18
  647.0 21.0 20
  647.1 23.79 23
  647.2 25.73 25
  647.3 25.53 25
  647.4 23.39 23
  647.5 20.57 20
  647.6 17.99 17
  647.7 15.61 15
  648.0 13.82 13
  648.1 15.95 15
  648.2 17.53 17
  648.3 18.04 18
  648.4 18.57 18
  648.5 20.02 19
  648.6 22.17 22
  648.7 23.68 23
  648.8 23.25 23
  648.9 20.69 20
  649.0 17.47 17
  649.3 16.6 16
  649.4 17.93 17
  649.5 18.98 18
  649.6 19.55 19
  649.7 19.36 19
  649.8 18.32 18
  649.9 16.65 16
  650.0 14.72 14
  650.2 13.1 13
  650.3 14.4 14
  650.4 16.61 16
  650.5 19.13 19
  650.6 21.65 21
  650.7 23.88 23
  650.8 24.66 24
  650.9 22.98 22
  651.0 19.14 19
  651.1 15.07 15
  651.3 13.66 13
  651.4 16.13 16
  651.5 19.13 19
  651.6 21.69 21
  651.7 22.75 22
  651.8 21.45 21
  651.9 18.4 18
  652.8 15.69 15
  652.9 17.72 17
  653.0 19.23 19
  653.1 20.09 20
  653.2 20.34 20
  653.3 19.47 19
  653.4 16.91 16
  653.5 13.35 13
  653.8 10.37 10
  653.9 12.08 12
  654.0 14.78 14
  654.1 18.25 18
  654.2 21.3 21
  654.3 22.35 22
  654.4 21.36 21
  654.5 19.59 19
  654.6 18.05 18
  654.7 16.8 16
  654.8 15.67 15
  655.1 15.02 15
  655.2 16.22 16
  655.3 17.75 17
  655.4 18.51 18
  655.5 17.84 17
  655.6 16.11 16
  655.7 13.97 13
  656.0 10.85 10
  656.1 14.76 14
  656.2 20.37 20
  656.3 24.8 24
  656.4 26.23 26
  656.5 24.95 24
  656.6 22.52 22
  656.7 19.95 19
  656.8 17.58 17
  656.9 15.83 15
  657.0 15.05 15
  657.1 14.53 14
  657.2 12.86 12
  657.5 9.87 9
  657.6 14.3 14
  657.7 19.35 19
  657.8 22.67 22
  657.9 23.39 23
  658.0 22.09 22
  658.1 19.69 19
  658.2 16.93 16
  658.5 13.7 13
  658.6 16.25 16
  658.7 20.01 19
  658.8 23.24 23
  658.9 24.09 24
  659.0 22.03 22
  659.1 18.11 18
  659.2 14.11 14
  659.4 12.65 12
  659.5 15.45 15
  659.6 18.17 18
  659.7 18.98 18
  659.8 18.14 18
  659.9 17.1 17
  660.0 16.62 16
  660.1 16.26 16
  660.2 15.72 15
  660.3 15.34 15
  660.6 14.37 14
  660.7 15.0 14
  660.8 17.29 17
  660.9 20.3 20
  661.0 22.22 22
  661.1 22.39 22
  661.2 21.43 21
  662.2 19.05 19
  662.3 19.95 19
  662.4 21.09 21
  662.5 21.87 21
  662.6 21.95 21
  662.7 21.19 21
  662.8 19.26 19
  662.9 16.04 16
  663.2 11.5 11
  663.3 15.66 15
  663.4 20.97 20
  663.5 24.48 24
  663.6 24.98 24
  663.7 23.91 23
  663.8 23.56 23
  663.9 24.09 24
  664.0 23.94 23
  664.1 22.19 22
  664.2 19.93 19
  664.4 19.33 19
  664.5 21.0 20
  664.6 22.62 22
  664.7 23.04 23
  664.8 22.02 21
  664.9 20.28 20
  665.0 18.89 18
  665.3 17.68 17
  665.4 18.22 18
  665.5 19.3 19
  665.6 20.66 20
  665.7 21.96 21
  665.8 22.75 22
  665.9 22.6 22
  666.0 21.52 21
  666.3 18.92 18
  666.4 20.76 20
  666.5 23.14 23
  666.6 24.42 24
  666.7 24.26 24
  666.8 23.49 23
  666.9 22.58 22
  667.0 20.82 20
  667.1 18.04 18
  667.3 15.98 15
  667.4 19.0 18
  667.5 22.93 22
  667.6 25.5 25
  667.7 25.51 25
  667.8 23.31 23
  667.9 20.0 19
  668.0 16.91 16
  669.0 13.71 13
  669.1 14.96 14
  669.2 16.36 16
  669.3 16.82 16
  669.4 15.99 15
  669.7 15.6 15
  669.8 16.83 16
  669.9 18.49 18
  670.0 20.48 20
  670.1 21.89 21
  670.2 21.86 21
  671.3 14.31 14
  671.4 15.13 15
  671.5 15.71 15
  671.6 16.39 16
  671.7 17.1 17
  671.8 17.26 17
  671.9 16.62 16
  672.0 15.43 15
  672.3 15.15 15
  672.4 16.11 16
  672.5 16.81 16
  672.6 17.64 17
  672.7 18.95 18
  672.8 20.08 20
  672.9 20.08 20
  673.0 19.14 19
  673.1 18.59 18
  673.2 19.59 19
  673.3 21.41 21
  673.4 22.08 22
  673.5 20.38 20
  673.6 16.6 16
  673.7 12.15 12
  673.8 8.56 8
  674.0 7.41 7
  674.1 9.24 9
  674.2 11.11 11
  674.3 12.14 12
  674.4 12.45 12
  674.5 12.83 12
  674.6 13.82 13
  674.7 14.94 14
  674.8 15.22 15
  674.9 14.8 14
  675.0 15.22 15
  675.1 17.21 17
  675.2 19.65 19
  675.3 20.83 20
  675.4 20.51 20
  675.5 19.6 19
  675.6 18.4 18
  675.7 16.5 16
  676.0 15.24 15
  676.1 17.36 17
  676.2 18.61 18
  676.3 18.36 18
  677.0 17.71 17
  677.1 18.46 18
  677.2 18.85 18
  677.3 19.07 19
  677.4 19.52 19
  677.5 20.0 19
  677.6 19.49 19
  677.7 17.72 17
  677.8 15.31 15
  677.9 13.04 13
  678.0 11.36 11
  678.2 10.51 10
  678.3 11.77 11
  678.4 14.34 14
  678.5 17.53 17
  678.6 19.87 19
  678.7 20.39 20
  678.8 19.74 19
  678.9 19.29 19
  679.0 19.47 19
  679.1 19.4 19
  679.2 18.19 18
  679.3 16.21 16
  679.5 15.09 15
  679.6 16.81 16
  679.7 19.09 19
  679.8 21.03 21
  679.9 21.61 21
  680.0 20.32 20
  680.1 18.05 18
  680.2 16.34 16
  680.3 15.8 15
  680.4 15.67 15
  680.7 14.83 14
  680.8 16.42 16
  680.9 18.1 18
  681.0 18.82 18
  681.1 18.72 18
  681.2 18.56 18
  681.3 18.78 18
  681.4 19.29 19
  681.5 19.7 19
  681.6 19.35 19
  681.7 17.54 17
  681.9 14.42 14
  682.0 16.47 16
  682.1 19.69 19
  682.2 21.97 21
  682.3 22.96 22
  682.4 23.01 22
  682.5 21.89 21
  682.6 19.88 19
  682.7 18.06 18
  682.8 17.15 17
  682.9 16.9 16
  683.0 16.56 16
  683.3 14.76 14
  683.4 16.71 16
  683.5 19.61 19
  683.6 21.3 21
  683.7 20.46 20
  683.8 17.61 17
  683.9 14.01 13
  684.2 10.74 10
  684.3 15.27 15
  684.4 20.57 20
  684.5 23.71 23
  684.6 23.69 23
  684.7 21.47 21
  684.8 18.51 18
  684.9 15.95 15
  685.1 15.09 15
  685.2 16.39 16
  685.3 17.3 17
  685.4 17.35 17
  685.5 17.3 17
  685.6 18.2 18
  685.7 20.37 20
  685.8 22.84 22
  685.9 23.83 23
  686.0 21.82 21
  686.1 16.94 16
  686.2 11.34 11
  686.4 7.15 7
  686.5 9.26 9
  686.6 12.97 12
  686.7 17.38 17
  686.8 20.98 20
  686.9 22.39 22
  687.0 21.81 21
  688.9 13.62 13
  689.0 16.08 16
  689.1 18.49 18
  689.2 19.49 19
  689.3 19.11 19
  689.4 17.68 17
  689.5 15.01 14
  689.6 11.75 11
  689.8 10.15 10
  689.9 12.43 12
  690.0 15.31 15
  690.1 18.11 18
  690.2 20.02 19
  690.3 20.01 19
  690.4 18.06 18
  690.5 15.66 15
  691.1 14.7 14
  691.2 16.47 16
  691.3 18.77 18
  691.4 20.33 20
  691.5 20.71 20
  691.6 20.01 19
  691.7 18.57 18
  692.5 15.67 15
  692.6 16.97 16
  692.7 18.87 18
  692.8 20.17 20
  692.9 20.04 20
  693.0 18.4 18
  693.1 15.69 15
  693.4 12.77 12
  693.5 16.05 16
  693.6 19.2 19
  693.7 20.54 20
  693.8 20.09 20
  693.9 18.82 18
  694.8 16.74 16
  694.9 17.4 17
  695.0 18.65 18
  695.1 19.99 19
  695.2 20.28 20
  695.3 18.49 18
  695.4 14.7 14
  695.5 10.73 10
  695.7 9.42 9
  695.8 12.12 12
  695.9 15.77 15
  696.0 19.39 19
  696.1 21.83 21
  696.2 22.34 22
  696.3 20.9 20
  696.4 18.2 18
  696.5 15.27 15
  696.8 14.22 14
  696.9 15.99 15
  697.0 17.35 17
  697.1 18.39 18
  697.2 19.02 19
  697.3 18.82 18
  697.4 17.83 17
  697.5 16.87 16
  697.6 16.18 16
  697.7 15.17 15
  698.0 12.99 12
  698.1 15.33 15
  698.2 18.53 18
  698.3 20.98 20
  698.4 21.42 21
  698.5 19.7 19
  698.6 16.71 16
  698.7 13.75 13
  698.9 12.14 12
  699.0 13.44 13
  699.1 14.98 14
  699.2 16.19 16
  699.3 17.09 17
  699.4 17.93 17
  699.5 18.56 18
  699.6 18.85 18
  699.7 18.72 18
  699.8 18.63 18
  699.9 19.0 18
  700.0 19.87 19
  700.1 20.38 20
  700.2 19.15 19
  700.3 15.77 15
  700.6 11.83 11
  700.7 16.83 16
  700.8 22.52 22
  700.9 26.1 26
  701.0 26.34 26
  701.1 24.08 24
  701.2 21.28 21
  701.3 19.08 19
  701.4 17.33 17
  701.5 15.56 15
  701.6 13.64 13
  701.9 12.85 12
  702.0 14.3 14
  702.1 15.37 15
  702.2 15.9 15
  702.3 16.39 16
  702.4 17.0 16
  702.5 17.43 17
  702.6 17.41 17
  702.7 17.28 17
  702.8 17.65 17
  702.9 18.77 18
  703.0 19.76 19
  703.1 19.46 19
  703.2 17.87 17
  704.3 14.81 14
  704.4 15.6 15
  704.5 17.36 17
  704.6 19.33 19
  704.7 20.56 20
  704.8 20.37 20
  704.9 19.18 19
  706.2 13.09 13
  706.3 15.9 15
  706.4 19.5 19
  706.5 21.8 21
  706.6 21.91 21
  706.7 20.57 20
  706.8 18.92 18
  707.0 18.24 18
  707.1 19.21 19
  707.2 20.24 20
  707.3 20.77 20
  707.4 20.34 20
  707.5 18.74 18
  707.6 16.12 16
  707.7 13.57 13
  708.0 12.83 12
  708.1 13.81 13
  708.2 14.67 14
  708.3 14.92 14
  708.4 14.55 14
  708.5 14.18 14
  708.6 14.3 14
  708.7 14.72 14
  708.8 15.33 15
  708.9 16.39 16
  709.0 17.99 17
  709.1 19.41 19
  709.2 19.43 19
  709.3 17.39 17
  709.4 13.88 13
  709.5 10.58 10
  709.7 9.61 9
  709.8 10.82 10
  709.9 11.9 11
  710.0 13.57 13
  710.1 16.62 16
  710.2 19.95 19
  710.3 21.29 21
  710.4 19.57 19
  710.5 16.28 16
  712.0 6.91 6
  712.1 8.9 8
  712.2 12.41 12
  712.3 16.45 16
  712.4 19.21 19
  712.5 19.52 19
  712.6 18.22 18
  712.7 16.8 16
  712.8 15.78 15
  712.9 14.67 14
  713.0 13.26 13
  713.1 11.97 11
  713.4 11.39 11
  713.5 12.99 12
  713.6 15.3 15
  713.7 17.3 17
  713.8 18.22 18
  713.9 18.09 18
  714.0 17.17 17
  714.1 15.61 15
  714.2 13.94 13
  714.3 13.03 13
  714.4 12.88 12
  714.7 11.32 11
  714.8 12.91 12
  714.9 15.45 15
  715.0 17.46 17
  715.1 18.48 18
  715.2 18.7 18
  715.3 18.14 18
  716.6 11.95 11
  716.7 12.97 12
  716.8 14.87 14
  716.9 16.15 16
  717.0 15.91 15
  717.3 14.73 14
  717.4 15.79 15
  717.5 16.47 16
  717.6 16.21 16
  717.9 15.54 15
  718.0 16.62 16
  718.1 18.06 18
  718.2 19.49 19
  718.3 20.57 20
  718.4 21.08 21
  718.5 21.16 21
  718.6 20.54 20
  718.7 18.98 18
  718.8 16.95 16
  719.6 11.77 11
  719.7 13.19 13
  719.8 14.54 14
  719.9 15.11 15
  720.0 14.56 14
  720.1 13.22 13
  720.4 11.63 11
  720.5 12.9 12
  720.6 14.83 14
  720.7 17.28 17
  720.8 20.01 19
  720.9 22.25 22
  721.0 22.67 22
  721.1 21.08 21
  721.8 14.22 14
  721.9 16.55 16
  722.0 18.52 18
  722.1 18.37 18
  722.2 16.44 16
  722.3 14.09 14
  722.5 13.37 13
  722.6 15.32 15
  722.7 17.26 17
  722.8 17.75 17
  722.9 16.74 16
  723.0 15.3 15
  723.3 15.04 15
  723.4 16.04 16
  723.5 17.07 17
  723.6 17.39 17
  723.7 16.71 16
  724.4 12.38 12
  724.5 14.91 14
  724.6 18.37 18
  724.7 20.2 20
  724.8 19.35 19
  724.9 17.1 17
  725.2 15.85 15
  725.3 18.03 18
  725.4 19.3 19
  725.5 19.1 19
  725.6 18.61 18
  725.7 18.79 18
  725.8 18.76 18
  725.9 17.33 17
  726.0 14.89 14
  726.3 12.83 12
  726.4 15.41 15
  726.5 19.52 19
  726.6 23.78 23
  726.7 26.24 26
  726.8 25.57 25
  726.9 21.94 21
  727.0 16.96 16
  727.1 12.66 12
  727.3 10.5 10
  727.4 12.59 12
  727.5 15.72 15
  727.6 18.57 18
  727.7 19.82 19
  727.8 19.15 19
  727.9 17.39 17
  728.0 16.03 16
  729.1 15.15 15
  729.2 16.1 16
  729.3 17.65 17
  729.4 19.15 19
  729.5 19.79 19
  729.6 19.68 19
  729.7 19.49 19
  729.8 19.61 19
  729.9 19.49 19
  730.0 18.44 18
  730.1 16.83 16
  730.2 15.76 15
  730.3 15.28 15
  730.4 14.29 14
  730.7 11.9 11
  730.8 13.88 13
  730.9 15.96 15
  731.0 17.86 17
  731.1 19.62 19
  731.2 20.52 20
  731.3 19.93 19
  731.4 18.55 18
  731.5 17.58 17
  731.6 17.14 17
  731.7 16.56 16
  731.8 15.5 15
  732.0 13.48 13
  732.1 14.54 14
  732.2 17.59 17
  732.3 21.04 21
  732.4 22.87 22
  732.5 22.35 22
  732.6 20.35 20
  732.7 18.06 18
  732.8 16.1 16
  732.9 14.3 14
  733.1 12.02 12
  733.2 13.4 13
  733.3 16.35 16
  733.4 18.85 18
  733.5 19.39 19
  733.8 17.94 17
  733.9 18.94 18
  734.0 19.69 19
  734.1 19.61 19
  734.2 18.72 18
  734.3 17.39 17
  734.4 15.78 15
  734.5 14.07 14
  734.7 12.68 12
  734.8 13.92 13
  734.9 16.0 15
  735.0 17.87 17
  735.1 18.79 18
  735.2 18.85 18
  735.3 19.03 19
  735.4 20.12 20
  735.5 21.7 21
  735.6 22.86 22
  735.7 23.14 23
  735.8 22.3 22
  735.9 20.12 20
  736.0 17.14 17
  736.2 16.45 16
  736.3 18.95 18
  736.4 20.67 20
  736.5 21.12 21
  736.6 21.78 21
  736.7 23.56 23
  736.8 25.54 25
  736.9 26.03 26
  737.0 24.53 24
  737.2 21.39 21
  737.3 23.68 23
  737.4 27.13 27
  737.5 27.25 27
  737.6 22.36 22
  737.7 15.95 15
  737.9 12.86 12
  738.0 14.83 14
  738.1 16.58 16
  738.2 17.77 17
  738.3 18.68 18
  738.4 19.24 19
  738.5 19.08 19
  738.6 18.2 18
  739.0 17.19 17
  739.1 17.6 17
  739.2 19.02 19
  739.3 20.87 20
  739.4 21.69 21
  739.5 20.73 20
  739.6 18.06 18
  739.7 14.31 14
  740.0 10.71 10
  740.1 13.61 13
  740.2 16.95 16
  740.3 20.21 20
  740.4 23.12 23
  740.5 25.12 25
  740.6 25.51 25
  740.7 24.16 24
  740.8 21.63 21
  740.9 19.24 19
  741.2 18.11 18
  741.3 19.35 19
  741.4 21.91 21
  741.5 24.62 24
  741.6 24.98 24
  741.7 22.06 22
  741.8 17.94 17
  742.0 15.33 15
  742.1 16.8 16
  742.2 18.7 18
  742.3 19.82 19
  742.4 19.49 19
  742.7 17.61 17
  742.8 18.79 18
  742.9 19.86 19
  743.0 20.35 20
  743.1 20.22 20
  743.2 19.61 19
  743.6 18.72 18
  743.7 19.62 19
  743.8 20.33 20
  743.9 20.63 20
  744.0 20.83 20
  744.1 21.25 21
  744.2 21.75 21
  744.3 21.78 21
  744.4 20.82 20
  744.5 19.02 19
  744.6 17.25 17
  745.0 16.1 16
  745.1 16.95 16
  745.2 18.29 18
  745.3 19.24 19
  745.4 19.68 19
  745.5 20.44 20
  745.6 21.95 21
  745.7 23.62 23
  745.8 24.42 24
  745.9 23.61 23
  746.0 21.47 21
  746.2 19.42 19
  746.3 21.11 21
  746.4 23.17 23
  746.5 24.28 24
  746.6 23.89 23
  746.7 22.26 22
  746.8 20.37 20
  746.9 19.34 19
  748.0 17.12 17
  748.1 17.96 17
  748.2 19.59 19
  748.3 20.91 20
  748.4 21.31 21
  748.5 21.0 20
  748.6 20.79 20
  748.7 20.82 20
  748.8 20.72 20
  748.9 20.44 20
  749.0 20.46 20
  749.1 20.98 20
  749.2 21.37 21
  749.3 20.87 20
  749.4 19.74 19
  749.6 18.88 18
  749.7 19.81 19
  749.8 21.29 21
  749.9 22.22 22
  750.0 21.38 21
  750.1 18.64 18
  750.2 15.67 15
  750.4 14.07 14
  750.5 15.71 15
  750.6 19.55 19
  750.7 24.83 24
  750.8 28.77 28
  750.9 29.31 29
  751.0 27.35 27
  751.1 25.28 25
  751.2 24.09 24
  751.3 23.11 23
  751.4 21.88 21
  751.5 20.82 20
  751.6 20.15 20
  751.7 19.33 19
  751.8 17.99 17
  751.9 16.61 16
  752.2 15.86 15
  752.3 16.94 16
  752.4 19.02 19
  752.5 21.29 21
  752.6 22.58 22
  752.7 22.28 22
  752.8 20.43 20
  752.9 17.92 17
  753.1 15.73 15
  753.2 17.22 17
  753.3 19.11 19
  753.4 20.15 20
  753.5 20.52 20
  753.6 21.18 21
  753.7 22.09 22
  753.8 22.21 22
  753.9 21.02 20
  754.0 18.89 18
  754.3 17.09 17
  754.4 19.47 19
  754.5 21.58 21
  754.6 22.48 22
  754.7 22.48 22
  754.8 21.91 21
  755.7 20.05 20
  755.8 21.87 21
  755.9 23.35 23
  756.0 24.07 24
  756.1 24.3 24
  756.2 24.11 24
  756.3 23.65 23
  756.4 23.25 23
  756.5 23.39 23
  756.6 24.26 24
  756.7 25.31 25
  756.8 25.58 25
  756.9 24.91 24
  757.0 23.95 23
  757.1 23.3 23
  757.2 22.74 22
  757.3 21.43 21
  757.4 19.05 19
  757.5 16.42 16
  757.7 15.01 14
  757.8 16.9 16
  757.9 19.65 19
  758.0 21.99 21
  758.1 23.29 23
  758.2 23.39 23
  758.3 22.13 22
  758.4 19.47 19
  758.5 16.32 16
  758.7 14.73 14
  758.8 16.83 16
  758.9 19.54 19
  759.0 21.95 21
  759.1 23.43 23
  759.2 23.72 23
  760.9 18.81 18
  761.0 19.49 19
  761.1 20.22 20
  761.2 20.8 20
  761.3 21.0 20
  761.4 20.66 20
  761.5 20.32 20
  761.6 21.02 20
  761.7 23.2 23
  761.8 25.53 25
  761.9 26.31 26
  762.0 25.3 25
  762.1 23.77 23
  762.2 22.79 22
  762.3 22.03 22
  762.6 20.58 20
  762.7 22.99 22
  762.8 24.99 24
  762.9 24.28 24
  763.0 21.06 21
  763.1 17.93 17
  763.5 18.52 18
  763.6 18.56 18
  763.7 19.67 19
  763.8 21.93 21
  763.9 24.4 24
  764.0 25.7 25
  764.1 25.31 25
  764.2 23.89 23
  764.3 22.64 22
  764.4 21.91 21
  764.7 19.91 19
  764.8 21.34 21
  764.9 24.3 24
  765.0 27.1 27
  765.1 27.8 27
  765.2 26.15 26
  765.3 23.64 23
  765.4 22.09 22
  766.0 19.09 19
  766.1 20.47 20
  766.2 23.71 23
  766.3 27.3 27
  766.4 29.15 29
  766.5 27.99 27
  766.6 24.37 24
  766.7 20.12 20
  766.8 16.75 16
  767.0 15.15 15
  767.1 17.02 17
  767.2 19.54 19
  767.3 20.97 20
  767.4 20.4 20
  767.5 18.81 18
  767.6 17.84 17
  767.7 17.64 17
  767.8 17.27 17
  768.1 16.71 16
  768.2 17.92 17
  768.3 18.78 18
  768.4 19.31 19
  768.5 20.31 20
  768.6 22.26 22
  768.7 24.34 24
  768.8 24.93 24
  768.9 23.09 23
  769.0 19.93 19
  769.1 17.39 17
  769.4 16.0 15
  769.5 16.38 16
  769.6 17.51 17
  769.7 18.9 18
  769.8 19.22 19
  769.9 17.58 17
  770.0 14.78 14
  770.3 13.52 13
  770.4 14.34 14
  770.5 15.56 15
  770.6 18.0 17
  770.7 21.36 21
  770.8 24.33 24
  770.9 25.83 25
  771.0 25.57 25
  771.1 23.72 23
  771.2 20.77 20
  771.3 17.85 17
  771.4 15.82 15
  771.7 14.69 14
  771.8 16.69 16
  771.9 19.91 19
  772.0 23.22 23
  772.1 25.5 25
  772.2 26.1 26
  772.3 25.09 25
  772.4 22.9 22
  772.5 19.88 19
  772.6 16.43 16
  773.3 14.94 14
  773.4 15.97 15
  773.5 17.26 17
  773.6 18.11 18
  773.7 18.04 18
  773.8 16.71 16
  774.0 14.43 14
  774.1 15.82 15
  774.2 18.65 18
  774.3 21.64 21
  774.4 23.91 23
  774.5 25.12 25
  774.6 24.95 24
  774.7 23.33 23
  774.8 20.8 20
  774.9 18.33 18
  775.2 16.37 16
  775.3 17.38 17
  775.4 19.4 19
  775.5 21.93 21
  775.6 23.5 23
  775.7 23.14 23
  775.8 21.18 21
  775.9 18.9 18
  776.0 17.48 17
  776.3 17.47 17
  776.4 17.9 17
  776.5 18.81 18
  776.6 19.91 19
  776.7 20.47 20
  776.8 19.86 19
  776.9 18.04 18
  777.0 15.95 15
  777.1 14.67 14
  777.3 14.18 14
  777.4 14.72 14
  777.5 16.47 16
  777.6 18.72 18
  777.7 19.78 19
  777.8 19.23 19
  777.9 18.66 18
  778.0 19.5 19
  778.1 20.85 20
  778.2 20.71 20
  778.3 18.77 18
  778.4 16.75 16
  778.5 15.86 15
  778.8 15.51 15
  778.9 16.52 16
  779.0 18.13 18
  779.1 19.63 19
  779.2 20.38 20
  779.3 19.94 19
  779.4 18.53 18
  779.7 17.51 17
  779.8 19.22 19
  779.9 20.4 20
  780.0 20.21 20
  780.1 18.97 18
  780.2 17.91 17
  780.3 17.7 17
  780.4 17.8 17
  780.5 17.14 17
  780.6 15.6 15
  780.8 14.67 14
  780.9 16.17 16
  781.0 18.27 18
  781.1 20.26 20
  781.2 21.54 21
  781.3 21.45 21
  781.4 20.27 20
  781.7 19.04 19
  781.8 20.06 20
  781.9 21.78 21
  782.0 23.42 23
  782.1 23.5 23
  782.2 21.73 21
  782.3 19.61 19
  782.4 18.51 18
  782.7 18.31 18
  782.8 19.69 19
  782.9 21.83 21
  783.0 23.06 23
  783.1 22.1 22
  783.2 19.57 19
  783.4 17.88 17
  783.5 19.43 19
  783.6 20.53 20
  783.7 20.92 20
  783.8 21.84 21
  783.9 23.46 23
  784.0 24.04 24
  784.1 21.83 21
  784.2 17.23 17
  784.3 12.55 12
  784.5 10.34 10
  784.6 12.96 12
  784.7 16.21 16
  784.8 18.18 18
  784.9 18.12 18
  785.0 17.26 17
  785.1 17.28 17
  785.2 18.52 18
  785.3 20.05 20
  785.4 21.13 21
  785.5 21.55 21
  785.6 21.36 21
  785.9 20.65 20
  786.0 21.65 21
  786.1 22.61 22
  786.2 22.83 22
  786.3 21.89 21
  786.4 19.78 19
  786.5 16.88 16
  786.6 14.03 14
  786.8 12.71 12
  786.9 14.52 14
  787.0 16.56 16
  787.1 18.14 18
  787.2 19.33 19
  787.3 20.02 19
  787.4 19.88 19
  787.5 18.69 18
  787.6 16.73 16
  787.9 15.72 15
  788.0 16.97 16
  788.1 17.65 17
  788.2 17.8 17
  788.3 17.74 17
  788.4 17.07 17
  788.6 15.77 15
  788.7 16.81 16
  788.8 18.12 18
  788.9 18.27 18
  789.0 17.25 17
  789.3 15.92 15
  789.4 16.62 16
  789.5 17.84 17
  789.6 19.61 19
  789.7 21.26 21
  789.8 21.77 21
  789.9 20.48 20
  790.0 17.97 17
  790.3 15.7 15
  790.4 16.81 16
  790.5 17.94 17
  790.6 19.03 19
  790.7 19.98 19
  790.8 20.52 20
  790.9 20.14 20
  791.0 18.65 18
  791.1 16.64 16
  791.2 15.02 15
  791.4 14.37 14
  791.5 15.11 15
  791.6 16.45 16
  791.7 18.17 18
  791.8 19.5 19
  791.9 20.02 19
  792.0 20.28 20
  792.1 21.18 21
  792.2 22.42 22
  792.3 22.32 22
  792.4 19.68 19
  792.5 15.66 15
  792.7 12.8 12
  792.8 14.73 14
  792.9 16.6 16
  793.0 17.16 17
  793.1 16.67 16
  793.2 16.42 16
  793.3 17.64 17
  793.4 20.06 20
  793.5 21.64 21
  793.6 20.41 20
  793.7 17.03 17
  793.8 14.21 14
  794.1 13.68 13
  794.2 13.82 13
  794.3 14.99 14
  794.4 16.74 16
  794.5 18.01 17
  794.6 18.53 18
  794.7 18.44 18
  794.8 17.29 17
  794.9 14.86 14
  795.2 13.44 13
  795.3 15.64 15
  795.4 16.8 16
  795.5 17.42 17
  795.6 18.7 18
  795.7 19.82 19
  795.8 18.75 18
  795.9 15.45 15
  796.1 13.48 13
  796.2 16.64 16
  796.3 20.01 19
  796.4 21.91 21
  796.5 22.14 22
  796.6 21.26 21
  796.7 20.37 20
  796.8 20.07 20
  796.9 20.06 20
  797.0 19.57 19
  797.1 18.31 18
  797.2 16.8 16
  797.4 15.72 15
  797.5 16.7 16
  797.6 17.91 17
  797.7 17.97 17
  797.8 16.32 16
  797.9 14.09 14
  798.0 12.38 12
  798.3 10.98 10
  798.4 12.4 12
  798.5 13.98 13
  798.6 15.13 15
  798.7 15.97 15
  798.8 16.37 16
  798.9 15.65 15
  799.0 14.08 14
  799.6 12.36 12
  799.7 12.75 12
  799.8 14.5 14
  799.9 17.62 17
  800.0 20.87 20
  800.1 22.54 22
  800.2 21.99 21
  800.3 19.91 19
  800.4 17.72 17
  801.1 17.75 17
  801.2 17.93 17
  801.3 18.63 18
  801.4 19.67 19
  801.5 20.19 20
  801.6 19.54 19
  801.7 18.31 18
  801.8 17.52 17
  801.9 16.99 16
  802.1 15.34 15
  802.2 16.76 16
  802.3 20.02 19
  802.4 22.42 22
  802.5 21.67 21
  802.6 18.29 18
  802.9 14.92 14
  803.0 17.47 17
  803.1 19.29 19
  803.2 19.79 19
  803.3 19.52 19
  803.4 18.95 18
  803.5 18.2 18
  803.6 17.59 17
  803.7 17.36 17
  803.8 17.03 17
  803.9 16.0 15
  804.1 14.94 14
  804.2 16.16 16
  804.3 17.39 17
  804.4 17.9 17
  804.5 18.05 18
  804.6 18.17 18
  804.7 17.92 17
  804.8 17.14 17
  804.9 16.36 16
  805.2 15.77 15
  805.3 16.44 16
  805.4 17.48 17
  805.5 18.16 18
  805.6 17.72 17
  805.8 15.63 15
  805.9 16.86 16
  806.0 19.76 19
  806.1 22.13 22
  806.2 22.07 22
  806.3 20.09 20
  806.4 18.2 18
  806.6 17.87 17
  806.7 18.72 18
  806.8 20.04 20
  806.9 21.57 21
  807.0 22.3 22
  807.1 21.8 21
  807.2 20.97 20
  807.3 21.02 20
  807.4 21.26 21
  807.5 20.12 20
  807.6 17.46 17
  807.9 15.7 15
  808.0 16.45 16
  808.1 16.83 16
  808.2 17.09 17
  808.3 16.5 16
  808.4 14.27 14
  808.7 10.77 10
  808.8 14.23 14
  808.9 17.3 17
  809.0 18.43 18
  809.1 18.36 18
  809.2 18.25 18
  809.3 18.0 17
  809.4 16.99 16
  809.7 14.96 14
  809.8 16.1 16
  809.9 17.34 17
  810.0 18.43 18
  810.1 19.27 19
  810.2 19.66 19
  810.3 19.07 19
  810.4 17.33 17
  810.5 14.94 14
  811.4 13.94 13
  811.5 14.82 14
  811.6 16.09 16
  811.7 17.92 17
  811.8 19.75 19
  811.9 20.37 20
  812.0 19.18 19
  812.1 16.74 16
  812.2 14.18 14
  812.3 12.28 12
  812.6 11.37 11
  812.7 12.47 12
  812.8 14.02 14
  812.9 15.48 15
  813.0 15.93 15
  813.1 14.53 14
  813.4 12.16 12
  813.5 15.7 15
  813.6 18.45 18
  813.7 19.41 19
  813.8 19.48 19
  813.9 19.21 19
  814.0 18.22 18
  814.1 16.51 16
  814.2 14.78 14
  814.3 12.99 12
  814.4 10.87 10
  814.6 8.25 8
  814.7 9.48 9
  814.8 12.46 12
  814.9 16.73 16
  815.0 21.18 21
  815.1 24.44 24
  815.2 25.41 25
  815.3 24.0 23
  815.4 20.85 20
  815.5 17.07 17
  815.6 13.83 13
  815.8 12.83 12
  815.9 14.82 14
  816.0 16.47 16
  816.1 16.69 16
  816.2 16.52 16
  816.3 17.58 17
  816.4 19.87 19
  816.5 21.62 21
  816.6 21.47 21
  816.7 19.34 19
  816.8 16.13 16
  816.9 12.75 12
  817.0 9.75 9
  817.2 8.1 8
  817.3 10.87 10
  817.4 15.02 15
  817.5 18.71 18
  817.6 20.87 20
  817.7 21.42 21
  817.8 20.4 20
  817.9 18.01 17
  818.0 14.95 14
  818.2 11.77 11
  818.3 13.4 13
  818.4 16.67 16
  818.5 19.66 19
  818.6 20.74 20
  818.7 19.79 19
  818.8 17.52 17
  818.9 14.55 14
  819.0 11.77 11
  819.2 11.28 11
  819.3 13.39 13
  819.4 15.35 15
  819.5 16.75 16
  819.6 18.19 18
  819.7 20.01 19
  819.8 21.32 21
  819.9 20.78 20
  820.0 18.16 18
  820.1 14.57 14
  820.2 11.65 11
  820.4 10.35 10
  820.5 11.96 11
  820.6 14.72 14
  820.7 17.74 17
  820.8 19.82 19
  820.9 20.13 20
  821.0 19.01 18
  821.3 18.26 18
  821.4 19.49 19
  821.5 20.5 20
  821.6 20.58 20
  821.7 19.14 19
  822.0 16.75 16
  822.1 19.93 19
  822.2 22.75 22
  822.3 23.4 23
  822.4 21.56 21
  822.5 18.03 18
  822.6 14.61 14
  822.9 13.65 13
  823.0 14.42 14
  823.1 15.95 15
  823.2 18.63 18
  823.3 21.67 21
  823.4 23.37 23
  823.5 22.15 22
  823.6 17.92 17
  823.7 12.6 12
  823.9 8.61 8
  824.0 10.72 10
  824.1 13.45 13
  824.2 15.63 15
  824.3 17.29 17
  824.4 18.59 18
  824.5 19.04 19
  824.6 18.68 18
  824.7 18.79 18
  824.8 20.34 20
  824.9 22.19 22
  825.0 22.35 22
  825.1 20.53 20
  825.4 17.8 17
  825.5 19.52 19
  825.6 20.83 20
  825.7 20.65 20
  825.8 19.54 19
  825.9 18.71 18
  826.0 18.5 18
  826.1 18.16 18
  826.2 17.07 17
  826.3 15.27 15
  826.5 13.3 13
  826.6 14.87 14
  826.7 16.88 16
  826.8 16.91 16
  826.9 14.59 14
  827.1 12.27 12
  827.2 14.55 14
  827.3 16.97 16
  827.4 17.78 17
  827.5 16.84 16
  827.6 15.39 15
  827.7 14.49 14
  828.1 13.83 13
  828.2 15.53 15
  828.3 18.14 18
  828.4 20.27 20
  828.5 20.77 20
  828.6 19.41 19
  828.7 17.01 16
  828.8 14.81 14
  829.0 14.31 14
  829.1 15.63 15
  829.2 17.04 17
  829.3 18.14 18
  829.4 18.49 18
  829.5 17.49 17
  829.6 15.39 15
  830.3 13.68 13
  830.4 14.6 14
  830.5 15.27 15
  830.6 15.57 15
  830.7 16.05 16
  830.8 16.77 16
  830.9 16.88 16
  831.0 15.43 15
  831.2 12.29 12
  831.3 14.59 14
  831.4 18.94 18
  831.5 22.32 22
  831.6 22.58 22
  831.7 20.15 20
  831.8 16.96 16
  831.9 14.66 14
  832.2 14.78 14
  832.3 14.89 14
  832.4 15.04 15
  832.5 15.74 15
  832.6 16.48 16
  832.7 16.5 16
  832.8 16.18 16
  832.9 16.37 16
  833.0 16.78 16
  833.1 16.32 16
  833.2 14.57 14
  833.5 13.39 13
  833.6 15.44 15
  833.7 16.89 16
  833.8 17.1 17
  833.9 16.42 16
  834.0 15.38 15
  834.1 14.21 14
  834.4 12.55 12
  834.5 13.7 13
  834.6 15.12 15
  834.7 16.15 16
  834.8 16.5 16
  834.9 16.56 16
  835.0 16.93 16
  835.1 18.0 17
  835.2 19.33 19
  835.3 19.66 19
  835.4 18.17 18
  835.5 15.43 15
  835.6 12.94 12
  835.9 11.61 11
  836.0 12.73 12
  836.1 14.53 14
  836.2 16.18 16
  836.3 16.78 16
  836.4 16.29 16
  836.7 15.65 15
  836.8 16.71 16
  836.9 17.75 17
  837.0 18.46 18
  837.1 18.98 18
  837.2 19.26 19
  837.3 18.69 18
  837.4 16.8 16
  837.5 14.26 14
  837.7 12.45 12
  837.8 14.05 14
  837.9 16.02 16
  838.0 16.63 16
  838.1 15.24 15
  838.3 13.26 13
  838.4 15.21 15
  838.5 17.09 17
  838.6 17.09 17
  838.7 15.59 15
  839.4 13.75 13
  839.5 15.17 15
  839.6 17.27 17
  839.7 18.72 18
  839.8 18.82 18
  839.9 17.87 17
  840.0 16.5 16
  840.1 15.11 15
  840.4 14.89 14
  840.5 15.71 15
  840.6 16.19 16
  840.7 16.68 16
  840.8 17.13 17
  840.9 16.93 16
  841.3 16.11 16
  841.4 16.39 16
  841.5 17.21 17
  841.6 18.3 18
  841.7 18.97 18
  841.8 19.21 19
  841.9 19.22 19
  842.0 18.9 18
  842.1 18.44 18
  842.2 18.7 18
  842.3 20.11 20
  842.4 21.97 21
  842.5 23.31 23
  842.6 23.52 23
  842.7 22.29 22
  842.8 19.72 19
  842.9 16.57 16
  843.2 14.03 14
  843.3 15.92 15
  843.4 17.52 17
  843.5 18.12 18
  843.6 17.94 17
  843.7 17.4 17
  843.8 16.13 16
  843.9 14.0 13
  844.6 12.27 12
  844.7 13.69 13
  844.8 16.0 15
  844.9 17.78 17
  845.0 17.79 17
  845.3 16.28 16
  845.4 18.94 18
  845.5 21.38 21
  845.6 22.13 22
  845.7 21.11 21
  845.8 19.49 19
  845.9 18.19 18
  846.2 18.17 18
  846.3 19.01 18
  846.4 19.98 19
  846.5 20.57 20
  846.6 19.95 19
  846.7 17.67 17
  847.0 14.47 14
  847.1 16.89 16
  847.2 19.0 18
  847.3 20.21 20
  847.4 20.91 20
  847.5 21.44 21
  847.6 22.15 22
  847.7 22.99 22
  847.8 23.12 23
  847.9 21.23 21
  848.0 17.42 17
  848.1 13.79 13
  848.3 13.55 13
  848.4 15.28 15
  848.5 16.16 16
  848.6 16.05 16
  848.7 15.53 15
  848.8 15.26 15
  848.9 15.74 15
  849.0 17.17 17
  849.1 19.16 19
  849.2 20.44 20
  849.3 19.54 19
  849.4 16.29 16
  849.5 12.26 12
  849.7 9.81 9
  849.8 13.07 13
  849.9 17.97 17
  850.0 22.02 21
  850.1 23.4 23
  850.2 22.17 22
  850.3 19.94 19
  850.4 18.26 18
  850.5 17.71 17
  850.6 17.73 17
  850.7 17.45 17
  851.0 16.06 16
  851.1 17.33 17
  851.2 19.02 19
  851.3 20.07 20
  851.4 20.13 20
  851.5 19.7 19
  851.6 19.39 19
  851.7 19.29 19
  851.8 19.18 19
  851.9 18.87 18
  852.0 18.3 18
  853.2 11.82 11
  853.3 13.63 13
  853.4 16.68 16
  853.5 19.35 19
  853.6 20.13 20
  853.7 19.23 19
  853.8 18.25 18
  853.9 17.79 17
  854.0 16.96 16
  854.3 14.34 14
  854.4 16.45 16
  854.5 18.29 18
  854.6 19.03 19
  854.7 19.62 19
  854.8 20.45 20
  854.9 20.14 20
  855.0 17.53 17
  855.1 14.03 14
  855.3 12.93 12
  855.4 14.02 14
  855.5 14.66 14
  855.6 15.74 15
  855.7 17.79 17
  855.8 19.7 19
  855.9 20.47 20
  856.0 20.54 20
  856.1 20.54 20
  856.2 20.31 20
  856.3 19.56 19
  856.4 18.61 18
  856.5 17.84 17
  856.9 17.34 17
  857.0 18.65 18
  857.1 20.76 20
  857.2 21.94 21
  857.3 20.6 20
  857.4 17.59 17
  857.5 14.98 14
  857.8 13.66 13
  857.9 15.33 15
  858.0 17.09 17
  858.1 17.57 17
  858.2 17.13 17
  858.3 17.27 17
  858.4 18.92 18
  858.5 21.52 21
  858.6 23.3 23
  858.7 22.52 22
  858.8 19.22 19
  859.1 15.91 15
  859.2 19.87 19
  859.3 24.18 24
  859.4 26.6 26
  859.5 25.57 25
  859.6 21.47 21
  859.7 16.7 16
  859.8 13.61 13
  860.1 13.29 13
  860.2 13.95 13
  860.3 15.33 15
  860.4 17.77 17
  860.5 20.69 20
  860.6 22.81 22
  860.7 23.49 23
  860.8 23.16 23
  860.9 22.77 22
  861.0 22.52 22
  861.1 21.94 21
  861.2 21.02 20
  862.6 16.44 16
  862.7 18.27 18
  862.8 21.73 21
  862.9 24.85 24
  863.0 25.61 25
  863.1 23.95 23
  863.2 21.21 21
  863.3 19.18 19
  863.8 18.33 18
  863.9 18.74 18
  864.0 20.47 20
  864.1 22.67 22
  864.2 23.62 23
  864.3 22.61 22
  864.4 20.87 20
  865.9 19.35 19
  866.0 20.51 20
  866.1 20.95 20
  866.2 21.02 20
  866.3 21.95 21
  866.4 23.71 23
  866.5 24.76 24
  866.6 23.68 23
  866.7 20.77 20
  866.8 17.34 17
  866.9 14.36 14
  867.1 11.51 11
  867.2 12.6 12
  867.3 15.82 15
  867.4 20.69 20
  867.5 25.79 25
  867.6 29.61 29
  867.7 31.54 31
  867.8 31.78 31
  867.9 30.12 30
  868.0 26.15 26
  868.1 20.8 20
  868.2 16.29 16
  868.4 14.36 14
  868.5 15.65 15
  868.6 17.98 17
  868.7 20.92 20
  868.8 22.67 22
  868.9 21.86 21
  869.0 19.52 19
  869.9 16.08 16
  870.0 17.27 17
  870.1 18.62 18
  870.2 19.82 19
  870.3 20.6 20
  870.4 20.26 20
  870.5 18.24 18
  870.6 15.08 15
  870.8 12.07 12
  870.9 14.6 14
  871.0 19.18 19
  871.1 24.23 24
  871.2 28.04 28
  871.3 29.44 29
  871.4 27.93 27
  871.5 24.43 24
  871.6 20.97 20
  871.7 19.16 19
  871.8 18.63 18
  871.9 18.03 18
  872.0 16.78 16
  872.1 15.45 15
  872.4 15.0 14
  872.5 15.67 15
  872.6 16.77 16
  872.7 18.18 18
  872.8 19.31 19
  872.9 19.74 19
  873.0 19.62 19
  873.1 19.72 19
  873.2 20.26 20
  873.3 20.65 20
  873.4 19.94 19
  873.5 18.24 18
  873.7 16.7 16
  873.8 18.55 18
  873.9 20.98 20
  874.0 22.16 22
  874.1 21.28 21
  874.2 18.68 18
  874.5 15.72 15
  874.6 19.81 19
  874.7 23.59 23
  874.8 24.27 24
  874.9 21.9 21
  875.0 18.81 18
  875.2 17.66 17
  875.3 19.14 19
  875.4 20.11 20
  875.5 19.92 19
  875.6 19.33 19
  875.7 19.33 19
  875.8 20.28 20
  875.9 22.07 22
  876.0 24.24 24
  876.1 25.84 25
  876.2 25.41 25
  876.3 22.45 22
  876.4 18.22 18
  876.5 14.89 14
  876.7 14.82 14
  876.8 16.6 16
  876.9 18.11 18
  877.0 19.15 19
  877.1 20.02 19
  877.2 20.82 20
  877.3 21.08 21
  877.4 20.37 20
  877.5 18.88 18
  877.8 17.09 17
  877.9 18.48 18
  878.0 20.37 20
  878.1 22.36 22
  878.2 24.16 24
  878.3 25.14 25
  878.4 24.42 24
  878.5 21.77 21
  878.6 18.32 18
  878.7 15.92 15
  878.9 15.8 15
  879.0 16.42 16
  879.1 17.34 17
  879.2 18.92 18
  879.3 20.53 20
  879.4 21.03 21
  879.5 20.39 20
  879.9 19.5 19
  880.0 19.93 19
  880.1 20.92 20
  880.2 21.96 21
  880.3 22.47 22
  880.4 22.45 22
  880.5 21.86 21
  880.6 20.57 20
  880.7 18.78 18
  880.8 16.97 16
  880.9 15.38 15
  881.1 13.85 13
  881.2 14.82 14
  881.3 17.25 17
  881.4 20.89 20
  881.5 24.82 24
  881.6 27.6 27
  881.7 28.16 28
  881.8 26.5 26
  881.9 23.45 23
  882.0 19.82 19
  882.1 16.49 16
  882.4 14.43 14
  882.5 16.99 16
  882.6 20.57 20
  882.7 23.36 23
  882.8 23.44 23
  882.9 20.9 20
  883.0 17.93 17
  883.1 16.43 16
  883.5 15.7 15
  883.6 16.64 16
  883.7 17.73 17
  883.8 18.45 18
  883.9 18.69 18
  884.0 18.75 18
  884.1 18.97 18
  884.2 19.22 19
  884.3 18.61 18
  884.4 16.81 16
  884.6 14.33 14
  884.7 16.3 16
  884.8 20.09 20
  884.9 23.78 23
  885.0 25.77 25
  885.1 25.82 25
  885.2 24.73 24
  885.3 23.29 23
  885.4 21.57 21
  885.5 19.68 19
  885.7 18.14 18
  885.8 19.4 19
  885.9 21.19 21
  886.0 22.47 22
  886.1 22.75 22
  886.2 22.61 22
  886.3 22.7 22
  886.4 22.7 22
  886.5 21.91 21
  886.6 19.96 19
  886.7 17.53 17
  886.8 15.78 15
  887.2 14.75 14
  887.3 15.47 15
  887.4 18.53 18
  887.5 22.84 22
  887.6 26.15 26
  887.7 26.97 26
  887.8 25.28 25
  887.9 22.16 22
  888.0 19.23 19
  888.2 17.74 17
  888.3 18.96 18
  888.4 20.61 20
  888.5 22.12 22
  888.6 22.77 22
  888.7 22.35 22
  888.8 21.32 21
  889.7 17.3 17
  889.8 19.31 19
  889.9 20.78 20
  890.0 20.34 20
  890.1 17.88 17
  890.2 14.79 14
  890.4 13.61 13
  890.5 15.87 15
  890.6 18.39 18
  890.7 20.31 20
  890.8 21.25 21
  890.9 21.16 21
  891.0 20.41 20
  892.0 15.43 15
  892.1 17.74 17
  892.2 21.06 21
  892.3 23.49 23
  892.4 23.71 23
  892.5 21.68 21
  892.6 18.49 18
  893.2 16.54 16
  893.3 17.47 17
  893.4 18.89 18
  893.5 19.86 19
  893.6 19.86 19
  893.7 19.1 19
  893.8 17.88 17
  893.9 16.31 16
  894.0 14.56 14
  894.2 13.31 13
  894.3 15.27 15
  894.4 18.33 18
  894.5 21.02 20
  894.6 22.13 22
  894.7 21.24 21
  894.8 19.21 19
  894.9 17.23 17
  895.0 16.1 16
  895.1 15.35 15
  895.3 14.15 14
  895.4 15.0 14
  895.5 17.13 17
  895.6 19.54 19
  895.7 21.21 21
  895.8 21.93 21
  895.9 22.17 22
  896.0 21.91 21
  896.1 20.46 20
  896.2 17.7 17
  896.4 14.41 14
  896.5 16.13 16
  896.6 18.79 18
  896.7 20.26 20
  896.8 19.62 19
  896.9 17.83 17
  897.4 16.51 16
  897.5 17.06 17
  897.6 18.94 18
  897.7 21.3 21
  897.8 22.32 22
  897.9 21.03 21
  898.0 18.25 18
  898.1 15.76 15
  898.3 14.65 14
  898.4 15.76 15
  898.5 17.66 17
  898.6 19.92 19
  898.7 21.88 21
  898.8 22.93 22
  898.9 22.58 22
  899.0 20.83 20
  899.1 18.39 18
  899.2 16.47 16
  899.5 16.24 16
  899.6 16.88 16
  899.7 17.71 17
  899.8 17.93 17
  900.1 16.34 16
  900.2 17.61 17
  900.3 18.85 18
  900.4 18.61 18
  900.7 16.11 16
  900.8 19.15 19
  900.9 22.3 22
  901.0 23.79 23
  901.1 23.63 23
  901.2 22.67 22
  901.3 21.49 21
  901.4 20.39 20
  901.5 19.54 19
  901.6 18.53 18
  901.7 17.06 17
  901.8 15.35 15
  901.9 14.11 14
  902.2 13.51 13
  902.3 14.95 14
  902.4 17.49 17
  902.5 20.33 20
  902.6 22.22 22
  902.7 22.57 22
  902.8 22.0 21
  902.9 21.13 21
  903.0 20.12 20
  903.1 18.64 18
  903.2 17.0 16
  903.4 16.11 16
  903.5 17.58 17
  903.6 19.22 19
  903.7 19.92 19
  903.8 19.82 19
  903.9 19.87 19
  904.0 20.0 19
  904.1 19.37 19
  904.2 17.88 17
  904.5 17.72 17
  904.6 18.61 18
  904.7 19.86 19
  904.8 21.82 21
  904.9 23.58 23
  905.0 23.95 23
  905.1 23.04 23
  905.2 22.1 22
  905.3 21.61 21
  905.4 20.83 20
  905.5 18.88 18
  905.7 16.43 16
  905.8 19.47 19
  905.9 23.77 23
  906.0 25.89 25
  906.1 24.65 24
  906.2 21.99 21
  907.1 16.12 16
  907.2 18.38 18
  907.3 21.04 21
  907.4 22.42 22
  907.5 21.64 21
  907.6 19.35 19
  908.4 17.34 17
  908.5 18.78 18
  908.6 19.92 19
  908.7 19.49 19
  908.8 17.75 17
  908.9 16.09 16
  909.0 15.08 15
  909.1 14.1 14
  909.4 11.96 11
  909.5 14.85 14
  909.6 18.74 18
  909.7 21.47 21
  909.8 21.68 21
  909.9 19.72 19
  910.0 16.94 16
  910.3 14.49 14
  910.4 15.84 15
  910.5 17.81 17
  910.6 20.58 20
  910.7 23.27 23
  910.8 24.33 24
  910.9 23.17 23
  911.0 20.54 20
  911.1 17.46 17
  911.2 14.47 14
  911.3 12.27 12
  911.6 11.97 11
  911.7 12.79 12
  911.8 14.31 14
  911.9 16.03 16
  912.0 16.73 16
  912.1 16.49 16
  912.2 16.43 16
  912.3 16.65 16
  912.4 16.1 16
  912.5 14.5 14
  912.6 12.64 12
  912.8 10.74 10
  912.9 11.95 11
  913.0 14.49 14
  913.1 16.67 16
  913.2 17.51 17
  913.3 17.64 17
  913.4 17.93 17
  913.5 17.91 17
  913.6 16.91 16
  913.7 15.19 15
  913.9 13.26 13
  914.0 14.66 14
  914.1 17.09 17
  914.2 18.9 18
  914.3 19.05 19
  914.4 17.74 17
  914.5 15.47 15
  914.8 12.06 12
  914.9 15.5 15
  915.0 20.99 20
  915.1 26.77 26
  915.2 30.11 30
  915.3 29.31 29
  915.4 25.21 25
  915.5 20.63 20
  916.3 17.0 16
  916.4 18.0 17
  916.5 18.95 18
  916.6 18.74 18
  916.7 17.29 17
  917.4 16.0 15
  917.5 17.99 17
  917.6 22.17 22
  917.7 25.54 25
  917.8 24.87 24
  917.9 20.53 20
  918.0 15.84 15
  918.1 13.17 13
  918.4 12.38 12
  918.5 13.68 13
  918.6 15.01 14
  918.7 15.72 15
  918.8 16.49 16
  918.9 18.09 18
  919.0 19.7 19
  919.1 19.83 19
  919.2 18.11 18
  919.3 15.53 15
  919.4 13.11 13
  919.6 11.68 11
  919.7 14.05 14
  919.8 18.01 17
  919.9 21.81 21
  920.0 23.75 23
  920.1 22.96 22
  920.2 20.31 20
  920.3 17.52 17
  920.6 16.57 16
  920.7 17.87 17
  920.8 19.6 19
  920.9 20.78 20
  921.0 20.45 20
  921.1 18.66 18
  921.2 16.49 16
  921.5 15.28 15
  921.6 16.34 16
  921.7 16.95 16
  921.8 16.67 16
  921.9 16.06 16
  922.0 16.03 16
  922.1 16.65 16
  922.2 17.12 17
  922.3 16.95 16
  922.4 16.64 16
  922.5 16.58 16
  922.6 16.89 16
  922.7 17.42 17
  922.8 18.05 18
  922.9 18.63 18
  923.0 18.72 18
  923.1 17.91 17
  923.2 15.86 15
  923.5 13.49 13
  923.6 16.64 16
  923.7 20.02 19
  923.8 22.14 22
  923.9 22.2 22
  924.0 20.54 20
  924.1 18.51 18
  924.4 16.71 16
  924.5 17.52 17
  924.6 19.0 18
  924.7 20.34 20
  924.8 20.65 20
  924.9 19.75 19
  925.0 18.17 18
  925.1 16.77 16
  925.2 16.28 16
  925.3 16.28 16
  925.6 15.12 15
  925.7 16.61 16
  925.8 19.28 19
  925.9 21.68 21
  926.0 22.55 22
  926.1 21.83 21
  926.2 19.92 19
  926.3 17.0 16
  926.4 13.81 13
  926.6 12.49 12
  926.7 14.6 14
  926.8 16.63 16
  926.9 18.3 18
  927.0 20.22 20
  927.1 21.76 21
  927.2 21.64 21
  927.3 19.76 19
  927.4 17.64 17
  927.5 16.1 16
  927.8 15.09 15
  927.9 15.8 15
  928.0 16.39 16
  928.1 16.96 16
  928.2 17.88 17
  928.3 18.69 18
  928.4 18.66 18
  928.5 17.79 17
  928.6 16.43 16
  928.7 14.73 14
  928.8 12.53 12
  929.1 10.01 9
  929.2 12.59 12
  929.3 16.3 16
  929.4 19.85 19
  929.5 21.82 21
  929.6 21.62 21
  929.7 19.74 19
  929.8 17.32 17
  929.9 15.34 15
  930.3 14.36 14
  930.4 15.28 15
  930.5 16.99 16
  930.6 18.78 18
  930.7 19.33 19
  930.8 18.04 18
  930.9 15.9 15
  931.0 14.48 14
  931.1 13.79 13
  931.2 12.57 12
  931.3 10.45 10
  931.5 8.27 8
  931.6 9.5 9
  931.7 12.08 12
  931.8 15.89 15
  931.9 19.96 19
  932.0 22.4 22
  932.1 21.95 21
  932.2 19.31 19
  932.3 16.25 16
  932.4 14.3 14
  932.6 14.15 14
  932.7 14.69 14
  932.8 15.52 15
  932.9 16.54 16
  933.0 16.7 16
  933.1 15.08 15
  933.2 12.38 12
  933.7 12.28 12
  933.8 12.48 12
  933.9 13.23 13
  934.0 13.53 13
  934.1 12.19 12
  934.4 10.2 10
  934.5 12.28 12
  934.6 13.39 13
  934.7 13.36 13
  934.8 13.42 13
  934.9 14.65 14
  935.0 16.71 16
  935.1 18.52 18
  935.2 19.05 19
  935.3 18.12 18
  935.4 16.11 16
  935.5 13.89 13
  935.7 12.43 12
  935.8 13.55 13
  935.9 15.39 15
  936.0 17.46 17
  936.1 18.75 18
  936.2 18.57 18
  936.3 16.99 16
  936.4 14.74 14
  936.5 12.59 12
  936.6 10.93 10
  936.7 9.88 9
  937.1 9.27 9
  937.2 9.96 9
  937.3 11.3 11
  937.4 13.12 13
  937.5 14.85 14
  937.6 16.02 16
  937.7 16.21 16
  937.8 15.34 15
  937.9 13.83 13
  938.2 12.22 12
  938.3 13.52 13
  938.4 14.74 14
  938.5 15.27 15
  938.6 15.34 15
  938.7 15.3 15
  938.8 14.78 14
  938.9 13.43 13
  939.0 11.76 11
  939.3 10.67 10
  939.4 11.6 11
  939.5 12.88 12
  939.6 13.92 13
  939.7 14.01 13
  940.0 12.71 12
  940.1 13.37 13
  940.2 14.6 14
  940.3 15.84 15
  940.4 16.31 16
  940.5 15.85 15
  941.2 13.26 13
  941.3 14.83 14
  941.4 17.68 17
  941.5 20.47 20
  941.6 21.62 21
  941.7 20.43 20
  941.8 17.39 17
  942.0 13.84 13
  942.1 16.19 16
  942.2 19.73 19
  942.3 21.7 21
  942.4 20.59 20
  942.5 17.14 17
  942.6 13.74 13
  942.7 12.15 12
  942.8 12.16 12
  943.1 10.67 10
  943.2 11.75 11
  943.3 14.23 14
  943.4 17.12 17
  943.5 19.59 19
  943.6 21.13 21
  943.7 21.58 21
  943.8 21.54 21
  943.9 22.06 22
  944.0 22.91 22
  944.1 22.4 22
  944.2 19.55 19
  944.3 15.84 15
  944.5 14.63 14
  944.6 16.36 16
  944.7 16.56 16
  944.9 14.35 14
  945.0 15.87 15
  945.1 18.95 18
  945.2 22.08 22
  945.3 24.49 24
  945.4 25.9 25
  945.5 25.9 25
  945.6 24.48 24
  945.7 22.08 22
  945.8 19.3 19
  945.9 16.86 16
  946.1 15.7 15
  946.2 17.29 17
  946.3 19.72 19
  946.4 22.17 22
  946.5 23.48 23
  946.6 22.61 22
  946.7 19.75 19
  946.8 16.49 16
  947.0 15.5 15
  947.1 17.81 17
  947.2 20.13 20
  947.3 21.13 21
  947.4 20.5 20
  947.5 19.15 19
  947.7 18.36 18
  947.8 19.11 19
  947.9 20.17 20
  948.0 21.11 21
  948.1 21.12 21
  948.2 19.29 19
  948.3 16.16 16
  948.4 13.52 13
  948.6 13.45 13
  948.7 14.21 14
  948.8 14.26 14
  948.9 14.42 14
  949.0 15.91 15
  949.1 18.45 18
  949.2 20.14 20
  949.3 19.55 19
  949.4 17.62 17
  950.0 14.49 14
  950.1 15.44 15
  950.2 18.51 18
  950.3 21.54 21
  950.4 22.07 22
  950.5 20.05 20
  950.6 17.41 17
  950.7 15.7 15
  950.8 14.62 14
  950.9 13.37 13
  951.1 11.93 11
  951.2 13.18 13
  951.3 15.11 15
  951.4 16.83 16
  951.5 17.91 17
  951.6 18.51 18
  951.7 18.66 18
  951.8 18.43 18
  951.9 17.58 17
  952.0 16.04 16
  952.3 14.86 14
  952.4 16.29 16
  952.5 17.26 17
  952.6 17.92 17
  952.7 18.92 18
  952.8 20.0 19
  952.9 20.37 20
  953.0 19.69 19
  953.1 18.37 18
  953.2 16.62 16
  953.3 14.54 14
  953.6 12.06 12
  953.7 13.95 13
  953.8 15.73 15
  953.9 16.56 16
  954.0 16.36 16
  954.1 15.61 15
  954.4 15.22 15
  954.5 15.67 15
  954.6 16.24 16
  954.7 17.66 17
  954.8 19.93 19
  954.9 21.96 21
  955.0 22.59 22
  955.1 21.68 21
  955.2 19.93 19
  956.6 14.7 14
  956.7 16.74 16
  956.8 19.17 19
  956.9 21.08 21
  957.0 21.86 21
  957.1 21.67 21
  957.2 21.11 21
  957.3 20.44 20
  957.4 19.5 19
  957.5 17.94 17
  957.6 15.8 15
  957.7 13.38 13
  957.8 10.93 10
  958.0 9.27 9
  958.1 12.08 12
  958.2 16.86 16
  958.3 21.5 21
  958.4 23.75 23
  958.5 22.65 22
  958.6 19.33 19
  958.7 16.43 16
  959.4 15.54 15
  959.5 16.26 16
  959.6 17.27 17
  959.7 18.46 18
  959.8 19.46 19
  959.9 19.63 19
  960.0 18.76 18
  960.1 17.14 17
  960.2 15.04 15
  960.3 12.77 12
  960.5 11.12 11
  960.6 13.48 13
  960.7 17.09 17
  960.8 20.19 20
  960.9 21.57 21
  961.0 21.29 21
  961.1 19.87 19
  961.2 17.66 17
  961.3 15.53 15
  961.5 14.89 14
  961.6 15.79 15
  961.7 16.38 16
  961.8 16.67 16
  961.9 16.95 16
  962.0 17.65 17
  962.1 19.14 19
  962.2 21.43 21
  962.3 23.66 23
  962.4 23.87 23
  962.5 20.9 20
  962.6 16.38 16
  962.8 15.12 15
  962.9 18.4 18
  963.0 21.35 21
  963.1 23.1 23
  963.2 24.02 23
  963.3 23.94 23
  963.4 22.64 22
  963.5 20.74 20
  963.6 19.01 18
  963.7 17.62 17
  964.2 16.43 16
  964.3 17.09 17
  964.4 19.23 19
  964.5 21.34 21
  964.6 21.7 21
  965.9 18.43 18
  966.0 19.8 19
  966.1 20.83 20
  966.2 21.3 21
  966.3 21.19 21
  966.4 21.12 21
  966.5 21.56 21
  966.6 22.13 22
  966.7 21.54 21
  966.8 19.33 19
  967.1 16.44 16
  967.2 19.26 19
  967.3 21.76 21
  967.4 22.2 22
  967.5 20.5 20
  967.6 18.11 18
  967.9 16.99 16
  968.0 18.56 18
  968.1 20.21 20
  968.2 20.82 20
  968.3 19.76 19
  968.4 17.32 17
  968.5 14.33 14
  968.6 11.67 11
  968.9 10.71 10
  969.0 12.59 12
  969.1 15.14 15
  969.2 18.1 18
  969.3 20.99 20
  969.4 22.8 22
  969.5 22.23 22
  969.6 19.3 19
  969.7 15.83 15
  969.9 14.86 14
  970.0 17.12 17
  970.1 19.34 19
  970.2 20.47 20
  970.3 20.4 20
  970.4 19.67 19
  970.5 18.59 18
  970.6 16.58 16
  970.7 13.48 13
  970.9 11.93 11
  971.0 15.63 15
  971.1 19.08 19
  971.2 19.96 19
  971.3 19.35 19
  971.4 19.52 19
  971.5 20.77 20
  971.6 21.69 21
  971.7 21.5 21
  971.8 20.45 20
  971.9 19.2 19
  972.2 18.07 18
  972.3 18.74 18
  972.4 20.21 20
  972.5 21.91 21
  972.6 22.06 22
  972.7 19.96 19
  972.8 17.25 17
  972.9 15.84 15
  973.0 15.82 15
  973.1 15.84 15
  973.2 15.28 15
  973.3 14.46 14
  973.6 13.66 13
  973.7 14.72 14
  973.8 16.41 16
  973.9 18.17 18
  974.0 19.34 19
  974.1 19.3 19
  974.2 17.81 17
  974.3 15.39 15
  974.5 14.24 14
  974.6 16.8 16
  974.7 19.92 19
  974.8 22.08 22
  974.9 22.99 22
  975.0 23.11 23
  975.1 22.73 22
  975.2 21.32 21
  975.3 18.65 18
  975.4 15.64 15
  975.6 14.85 14
  975.7 17.47 17
  975.8 20.14 20
  975.9 21.78 21
  976.0 22.74 22
  976.1 23.57 23
  976.2 23.98 23
  976.3 23.23 23
  976.4 21.04 21
  976.5 18.29 18
  976.7 17.19 17
  976.8 19.14 19
  976.9 20.85 20
  977.0 21.42 21
  977.1 21.36 21
  977.2 21.43 21
  977.3 21.94 21
  977.4 22.91 22
  977.5 23.98 23
  977.6 24.49 24
  977.7 23.82 23
  977.8 22.09 22
  977.9 19.62 19
  978.0 16.96 16
  978.9 16.61 16
  979.0 18.66 18
  979.1 20.12 20
  979.2 19.65 19
  979.3 17.53 17
  979.5 15.51 15
  979.6 17.32 17
  979.7 19.92 19
  979.8 22.46 22
  979.9 24.16 24
  980.0 23.79 23
  980.1 20.73 20
  980.2 16.55 16
  980.4 14.66 14
  980.5 16.76 16
  980.6 18.84 18
  980.7 20.46 20
  980.8 21.64 21
  980.9 22.38 22
  981.0 22.84 22
  981.1 23.05 23
  981.2 22.32 22
  981.3 20.15 20
  981.4 17.47 17
  981.6 16.77 16
  981.7 18.63 18
  981.8 20.38 20
  981.9 21.56 21
  982.0 22.13 22
  982.1 22.07 22
  982.2 21.23 21
  982.3 19.61 19
  983.1 19.57 19
  983.2 21.21 21
  983.3 23.64 23
  983.4 25.53 25
  983.5 24.99 24
  983.6 21.43 21
  983.7 16.67 16
  984.0 14.1 14
  984.1 17.4 17
  984.2 21.78 21
  984.3 25.82 25
  984.4 27.94 27
  984.5 27.7 27
  984.6 25.72 25
  984.7 23.03 23
  984.8 20.5 20
  984.9 18.75 18
  985.8 18.89 18
  985.9 20.07 20
  986.0 22.13 22
  986.1 24.35 24
  986.2 25.78 25
  986.3 25.61 25
  986.4 23.9 23
  986.5 21.88 21
  986.6 20.48 20
  986.7 19.81 19
  986.8 19.4 19
  986.9 18.87 18
  987.2 18.36 18
  987.3 19.92 19
  987.4 21.89 21
  987.5 23.07 23
  987.6 22.43 22
  987.7 20.04 20
  987.8 17.13 17
  987.9 15.05 15
  988.1 14.35 14
  988.2 15.05 15
  988.3 16.23 16
  988.4 17.7 17
  988.5 18.96 18
  988.6 19.75 19
  988.7 20.45 20
  988.8 21.74 21
  988.9 23.57 23
  989.0 24.89 24
  989.1 24.78 24
  989.2 23.06 23
  989.3 20.52 20
  989.4 18.36 18
  989.5 17.36 17
  989.6 17.15 17
  989.7 16.73 16
  990.0 14.85 14
  990.1 16.19 16
  990.2 17.85 17
  990.3 19.18 19
  990.4 20.12 20
  990.5 20.25 20
  990.6 19.21 19
  990.7 17.51 17
  990.9 16.68 16
  991.0 18.14 18
  991.1 20.05 20
  991.2 21.64 21
  991.3 22.52 22
  991.4 22.83 22
  991.5 22.94 22
  991.6 22.81 22
  991.7 22.22 22
  992.0 21.0 20
  992.1 22.55 22
  992.2 24.49 24
  992.3 25.73 25
  992.4 25.59 25
  992.5 24.14 24
  992.6 21.9 21
  992.7 19.67 19
  994.4 16.95 16
  994.5 17.72 17
  994.6 19.88 19
  994.7 22.61 22
  994.8 24.13 24
  994.9 23.24 23
  995.0 20.61 20
  995.1 17.87 17
  995.2 15.9 15
  995.4 14.76 14
  995.5 16.17 16
  995.6 18.56 18
  995.7 20.63 20
  995.8 21.43 21
  995.9 21.24 21
  996.0 20.78 20
  996.1 20.22 20
  996.2 19.21 19
  996.5 17.27 17
  996.6 18.88 18
  996.7 20.02 19
  996.8 20.01 19
  996.9 19.8 19
  997.0 20.78 20
  997.1 22.47 22
  997.2 22.96 22
  997.3 21.25 21
  997.4 18.55 18
  997.6 17.15 17
  997.7 18.46 18
  997.8 19.68 19
  997.9 20.22 20
  998.0 20.2 20
  998.1 20.05 20
  998.2 20.2 20
  998.3 20.38 20
  998.4 19.56 19
  998.5 17.13 17
  998.6 14.11 14
  998.8 13.18 13
  998.9 15.64 15
  999.0 18.36 18
  999.1 20.0 19
  999.2 19.78 19
  999.3 17.86 17
  999.6 16.52 16
  999.7 18.33 18
  999.8 19.16 19
  999.9 18.98 18
  1000.0 18.78 18
  1000.1 19.0 18
  1000.2 19.5 19
  1000.3 20.27 20
  1000.4 21.16 21
  1000.5 21.75 21
  1000.6 21.38 21
  1000.7 20.19 20
  1001.0 19.28 19
  1001.1 21.0 20
  1001.2 23.19 23
  1001.3 24.91 24
  1001.4 25.28 25
  1001.5 24.34 24
  1001.6 23.0 22
  1001.7 22.13 22
  1001.8 21.64 21
  1001.9 20.7 20
  1002.0 19.14 19
  1002.2 17.74 17
  1002.3 19.03 19
  1002.4 21.09 21
  1002.5 22.8 22
  1002.6 22.91 22
  1002.7 20.9 20
  1002.8 17.59 17
  1002.9 14.74 14
  1003.1 14.11 14
  1003.2 15.44 15
  1003.3 16.75 16
  1003.4 17.57 17
  1003.5 17.53 17
  1003.6 16.6 16
  1003.8 15.17 15
  1003.9 16.67 16
  1004.0 19.67 19
  1004.1 22.85 22
  1004.2 24.42 24
  1004.3 23.42 23
  1004.4 20.67 20
  1004.5 18.19 18
  1004.6 17.16 17
  1005.0 16.34 16
  1005.1 17.03 17
  1005.2 19.09 19
  1005.3 21.18 21
  1005.4 21.73 21
  1005.5 20.95 20
  1005.6 20.44 20
  1005.7 21.3 21
  1005.8 22.91 22
  1005.9 23.81 23
  1006.0 23.33 23
  1007.2 18.55 18
  1007.3 19.52 19
  1007.4 20.25 20
  1007.5 20.66 20
  1007.6 20.69 20
  1007.7 20.38 20
  1007.8 20.06 20
  1007.9 20.0 19
  1008.0 20.11 20
  1008.1 20.19 20
  1008.2 19.78 19
  1008.3 18.0 17
  1008.4 14.62 14
  1008.6 9.92 9
  1008.7 12.17 12
  1008.8 16.86 16
  1008.9 21.8 21
  1009.0 25.13 25
  1009.1 25.47 25
  1009.2 22.77 22
  1009.3 18.85 18
  1009.5 17.1 17
  1009.6 19.17 19
  1009.7 20.27 20
  1009.8 19.33 19
  1009.9 17.07 17
  1010.0 14.74 14
  1010.2 13.05 13
  1010.3 14.33 14
  1010.4 16.35 16
  1010.5 17.77 17
  1010.6 17.92 17
  1010.7 17.34 17
  1011.1 17.06 17
  1011.2 17.58 17
  1011.3 18.16 18
  1011.4 18.32 18
  1011.5 17.64 17
  1011.6 16.29 16
  1011.9 14.21 14
  1012.0 16.21 16
  1012.1 19.61 19
  1012.2 23.39 23
  1012.3 26.19 26
  1012.4 27.01 26
  1012.5 25.39 25
  1012.6 22.04 22
  1012.7 18.29 18
  1012.8 15.18 15
  1013.1 12.78 12
  1013.2 14.69 14
  1013.3 17.58 17
  1013.4 20.21 20
  1013.5 21.44 21
  1013.6 20.93 20
  1013.7 19.41 19
  1013.8 17.62 17
  1013.9 16.1 16
  1014.0 14.98 14
  1014.3 13.3 13
  1014.4 14.11 14
  1014.5 16.03 16
  1014.6 18.16 18
  1014.7 19.4 19
  1014.8 19.41 19
  1014.9 18.51 18
  1015.0 16.78 16
  1015.1 14.28 14
  1015.2 11.74 11
  1015.4 10.98 10
  1015.5 13.14 13
  1015.6 16.11 16
  1015.7 19.23 19
  1015.8 21.73 21
  1015.9 22.93 22
  1016.0 22.68 22
  1016.1 21.75 21
  1016.2 21.08 21
  1016.3 20.63 20
  1016.4 19.78 19
  1016.5 18.24 18
  1016.8 16.16 16
  1016.9 18.64 18
  1017.0 21.16 21
  1017.1 22.01 21
  1017.2 20.9 20
  1017.3 18.51 18
  1017.4 15.44 15
  1017.5 12.23 12
  1017.7 9.99 9
  1017.8 12.26 12
  1017.9 16.08 16
  1018.0 19.92 19
  1018.1 22.02 21
  1018.2 21.49 21
  1018.3 18.91 18
  1018.4 16.04 16
  1018.6 14.88 14
  1018.7 16.47 16
  1018.8 17.64 17
  1018.9 17.46 17
  1019.0 16.45 16
  1019.1 16.04 16
  1019.2 17.17 17
  1019.3 19.52 19
  1019.4 21.52 21
  1019.5 21.64 21
  1019.6 19.57 19
  1019.7 16.43 16
  1019.8 13.62 13
  1020.0 11.54 11
  1020.1 12.91 12
  1020.2 15.58 15
  1020.3 18.18 18
  1020.4 19.53 19
  1020.5 19.65 19
  1020.6 19.31 19
  1020.7 18.62 18
  1020.8 17.09 17
  1021.1 14.83 14
  1021.2 16.97 16
  1021.3 19.69 19
  1021.4 21.81 21
  1021.5 22.32 22
  1021.6 21.51 21
  1021.7 20.56 20
  1021.8 19.65 19
  1021.9 18.04 18
  1022.2 15.84 15
  1022.3 17.61 17
  1022.4 18.64 18
  1022.5 18.82 18
  1022.6 19.21 19
  1022.7 20.22 20
  1022.8 21.15 21
  1022.9 20.99 20
  1023.0 19.8 19
  1023.1 18.48 18
  1023.2 17.72 17
  1023.3 17.45 17
  1023.4 16.77 16
  1023.5 15.27 15
  1023.7 13.68 13
  1023.8 15.15 15
  1023.9 17.06 17
  1024.0 18.09 18
  1024.1 18.22 18
  1024.2 18.17 18
  1024.3 18.38 18
  1024.4 18.33 18
  1024.5 17.2 17
  1024.6 14.95 14
  1024.8 12.43 12
  1024.9 15.0 14
  1025.0 19.42 19
  1025.1 23.53 23
  1025.2 25.56 25
  1025.3 24.86 24
  1025.4 21.68 21
  1025.5 17.15 17
  1025.6 13.33 13
  1025.8 13.2 13
  1025.9 15.5 15
  1026.0 17.25 17
  1026.1 18.23 18
  1026.2 19.23 19
  1026.3 20.59 20
  1026.4 21.45 21
  1026.5 20.86 20
  1026.6 18.79 18
  1026.7 16.13 16
  1026.8 14.33 14
  1026.9 14.1 14
  1027.0 14.53 14
  1027.3 12.4 12
  1027.4 14.09 14
  1027.5 16.42 16
  1027.6 17.58 17
  1027.7 17.49 17
  1027.8 17.66 17
  1027.9 18.51 18
  1028.0 19.02 19
  1028.3 16.82 16
  1028.4 18.71 18
  1028.5 21.29 21
  1028.6 22.93 22
  1028.7 22.98 22
  1028.8 21.41 21
  1028.9 18.39 18
  1029.0 14.4 14
  1029.1 10.89 10
  1029.3 9.98 9
  1029.4 11.69 11
  1029.5 13.76 13
  1029.6 16.32 16
  1029.7 19.46 19
  1029.8 22.52 22
  1029.9 24.35 24
  1030.0 23.92 23
  1030.1 21.52 21
  1030.2 18.84 18
  1030.3 17.4 17
  1030.4 16.81 16
  1030.5 15.74 15
  1030.7 13.4 13
  1030.8 15.14 15
  1030.9 18.37 18
  1031.0 20.59 20
  1031.1 20.33 20
  1031.2 18.19 18
  1031.3 15.77 15
  1031.4 14.02 14
  1031.6 13.25 13
  1031.7 14.16 14
  1031.8 15.17 15
  1031.9 15.7 15
  1032.0 15.9 15
  1032.1 16.6 16
  1032.2 17.8 17
  1032.3 18.25 18
  1032.4 16.91 16
  1032.5 14.08 14
  1032.6 11.16 11
  1032.8 10.26 10
  1032.9 12.92 12
  1033.0 16.22 16
  1033.1 19.31 19
  1033.2 22.03 22
  1033.3 23.55 23
  1033.4 22.1 22
  1033.5 17.17 17
  1033.6 11.05 11
  1033.8 7.33 7
  1033.9 10.22 10
  1034.0 12.93 12
  1034.1 13.68 13
  1034.2 12.96 12
  1034.3 12.72 12
  1034.4 14.37 14
  1034.5 17.57 17
  1034.6 20.72 20
  1034.7 22.22 22
  1034.8 21.3 21
  1034.9 18.39 18
  1035.0 14.98 14
  1035.1 12.87 12
  1035.9 12.8 12
  1036.0 14.13 14
  1036.1 16.48 16
  1036.2 18.05 18
  1036.3 17.64 17
  1037.3 13.68 13
  1037.4 14.65 14
  1037.5 15.77 15
  1037.6 16.23 16
  1037.7 15.9 15
  1037.8 15.58 15
  1037.9 15.95 15
  1038.0 17.12 17
  1038.1 18.56 18
  1038.2 19.53 19
  1038.3 19.0 18
  1038.4 16.56 16
  1038.6 12.02 12
  1038.7 14.05 14
  1038.8 18.64 18
  1038.9 22.35 22
  1039.0 22.62 22
  1039.1 19.96 19
  1040.3 15.92 15
  1040.4 16.3 16
  1040.5 17.27 17
  1040.6 19.14 19
  1040.7 21.13 21
  1040.8 21.67 21
  1040.9 20.19 20
  1041.8 18.01 17
  1041.9 18.97 18
  1042.0 19.89 19
  1042.1 19.35 19
  1042.2 17.0 16
  1042.3 14.0 13
  1042.5 11.32 11
  1042.6 12.81 12
  1042.7 15.97 15
  1042.8 19.43 19
  1042.9 21.58 21
  1043.0 21.88 21
  1043.1 20.7 20
  1043.2 18.55 18
  1043.3 16.12 16
  1043.5 14.86 14
  1043.6 16.44 16
  1043.7 18.1 18
  1043.8 19.04 19
  1043.9 19.47 19
  1044.0 19.95 19
  1044.1 20.63 20
  1044.2 21.15 21
  1044.3 20.91 20
  1044.4 19.24 19
  1044.5 16.31 16
  1044.6 13.14 13
  1044.8 11.9 11
  1044.9 13.98 13
  1045.0 16.34 16
  1045.1 17.97 17
  1045.2 18.58 18
  1045.3 18.29 18
  1045.4 17.17 17
  1045.6 15.58 15
  1045.7 16.96 16
  1045.8 19.14 19
  1045.9 20.69 20
  1046.0 21.11 21
  1046.1 20.93 20
  1046.2 20.67 20
  1046.3 20.26 20
  1046.4 19.39 19
  1046.5 18.03 18
  1046.8 16.25 16
  1046.9 17.39 17
  1047.0 18.76 18
  1047.1 19.98 19
  1047.2 20.72 20
  1047.3 20.64 20
  1047.4 19.48 19
  1047.5 17.84 17
  1048.1 16.84 16
  1048.2 18.13 18
  1048.3 18.87 18
  1048.4 18.55 18
  1048.5 17.75 17
  1049.4 12.21 12
  1049.5 14.72 14
  1049.6 18.87 18
  1049.7 22.59 22
  1049.8 24.21 24
  1049.9 23.91 23
  1050.0 22.87 22
  1050.1 21.84 21
  1050.2 20.46 20
  1050.3 18.18 18
  1050.4 15.28 15
  1050.5 12.81 12
  1050.7 12.52 12
  1050.8 13.76 13
  1050.9 14.83 14
  1051.0 16.0 15
  1051.1 17.83 17
  1051.2 19.47 19
  1051.3 19.1 19
  1051.4 15.84 15
  1051.5 11.19 11
  1051.7 9.1 9
  1051.8 12.78 12
  1051.9 16.44 16
  1052.0 17.96 17
  1052.1 17.57 17
  1052.2 17.04 17
  1052.3 17.2 17
  1052.4 17.01 16
  1052.5 15.34 15
  1052.6 13.01 12
  1052.8 12.53 12
  1052.9 13.98 13
  1053.0 15.05 15
  1053.1 14.93 14
  1053.2 13.18 13
  1053.3 10.47 10
  1053.4 8.22 8
  1053.6 7.84 7
  1053.7 9.21 9
  1053.8 11.06 11
  1053.9 12.73 12
  1054.0 13.87 13
  1054.1 14.73 14
  1054.2 15.69 15
  1054.3 15.97 15
  1054.6 13.68 13
  1054.7 15.7 15
  1054.8 18.53 18
  1054.9 19.8 19
  1055.0 18.16 18
  1055.1 14.57 14
  1055.2 11.36 11
  1055.4 10.07 10
  1055.5 10.99 10
  1055.6 12.6 12
  1055.7 15.0 14
  1055.8 17.49 17
  1055.9 19.33 19
  1056.0 19.95 19
  1056.1 18.87 18
  1056.2 16.32 16
  1056.3 13.91 13
  1056.8 12.74 12
  1056.9 13.58 13
  1057.0 15.57 15
  1057.1 17.85 17
  1057.2 20.06 20
  1057.3 22.1 22
  1057.4 23.72 23
  1057.5 24.0 23
  1057.6 22.12 22
  1057.7 18.51 18
  1058.0 15.56 15
  1058.1 18.61 18
  1058.2 20.82 20
  1058.3 20.07 20
  1058.4 16.25 16
  1058.5 11.67 11
  1058.7 9.1 9
  1058.8 11.29 11
  1058.9 13.92 13
  1059.0 15.51 15
  1059.1 15.82 15
  1059.2 16.18 16
  1059.3 17.75 17
  1059.4 19.56 19
  1059.5 19.57 19
  1059.6 17.43 17
  1059.7 14.42 14
  1060.0 11.3 11
  1060.1 13.95 13
  1060.2 17.03 17
  1060.3 18.95 18
  1060.4 19.22 19
  1060.5 18.42 18
  1060.6 17.38 17
  1060.7 16.69 16
  1061.1 16.08 16
  1061.2 17.45 17
  1061.3 19.91 19
  1061.4 22.12 22
  1061.5 22.6 22
  1061.6 21.23 21
  1061.7 19.14 19
  1061.8 17.17 17
  1061.9 15.41 15
  1062.0 13.89 13
  1062.2 13.19 13
  1062.3 14.22 14
  1062.4 15.84 15
  1062.5 17.52 17
  1062.6 18.66 18
  1062.7 19.72 19
  1062.8 21.06 21
  1062.9 22.01 21
  1063.0 21.19 21
  1063.1 18.64 18
  1063.2 15.67 15
  1063.3 13.42 13
  1063.6 13.29 13
  1063.7 13.94 13
  1063.8 14.13 14
  1063.9 14.85 14
  1064.0 17.13 17
  1064.1 20.74 20
  1064.2 23.98 23
  1064.3 25.14 25
  1064.4 23.78 23
  1064.5 21.08 21
  1064.6 18.33 18
  1064.7 16.34 16
  1065.7 14.55 14
  1065.8 15.31 15
  1065.9 17.02 17
  1066.0 18.9 18
  1066.1 20.05 20
  1066.2 20.64 20
  1066.3 21.58 21
  1066.4 23.06 23
  1066.5 24.08 24
  1066.6 23.66 23
  1066.7 21.87 21
  1066.8 19.52 19
  1067.7 13.94 13
  1067.8 16.11 16
  1067.9 18.52 18
  1068.0 19.37 19
  1068.1 18.29 18
  1069.0 17.6 17
  1069.1 18.38 18
  1069.2 20.08 20
  1069.3 21.3 21
  1069.4 20.37 20
  1069.5 17.32 17
  1069.6 13.92 13
  1069.7 11.55 11
  1069.9 10.83 10
  1070.0 11.81 11
  1070.1 13.45 13
  1070.2 16.16 16
  1070.3 19.69 19
  1070.4 22.84 22
  1070.5 23.88 23
  1070.6 22.66 22
  1070.7 20.43 20
  1070.8 18.37 18
  1070.9 16.52 16
  1071.2 15.27 15
  1071.3 17.15 17
  1071.4 18.63 18
  1071.5 19.42 19
  1071.6 20.31 20
  1071.7 21.55 21
  1071.8 22.42 22
  1071.9 22.34 22
  1072.0 21.19 21
  1072.1 18.97 18
  1072.2 15.6 15
  1072.3 11.81 11
  1072.6 9.17 9
  1072.7 11.88 11
  1072.8 15.06 15
  1072.9 17.2 17
  1073.0 17.88 17
  1073.1 18.45 18
  1073.2 19.96 19
  1073.3 21.39 21
  1073.4 20.83 20
  1073.5 17.93 17
  1073.6 14.76 14
  1073.8 14.73 14
  1073.9 16.34 16
  1074.0 16.75 16
  1074.1 16.51 16
  1074.2 16.93 16
  1074.3 17.6 17
  1074.4 16.65 16
  1074.5 14.02 14
  1074.7 12.64 12
  1074.8 14.56 14
  1074.9 15.8 15
  1075.0 16.26 16
  1075.1 17.13 17
  1075.2 18.51 18
  1075.3 19.63 19
  1075.4 20.2 20
  1075.5 20.48 20
  1075.6 20.22 20
  1075.7 19.05 19
  1075.8 17.62 17
  1076.5 14.79 14
  1076.6 15.39 15
  1076.7 16.68 16
  1076.8 19.03 19
  1076.9 22.7 22
  1077.0 26.83 26
  1077.1 29.21 29
  1077.2 28.14 28
  1077.3 24.09 24
  1077.4 19.16 19
  1077.5 15.39 15
  1077.7 14.52 14
  1077.8 16.58 16
  1077.9 18.24 18
  1078.0 18.01 17
  1078.1 15.92 15
  1078.3 13.42 13
  1078.4 15.44 15
  1078.5 18.43 18
  1078.6 20.84 20
  1078.7 22.19 22
  1078.8 22.38 22
  1078.9 21.23 21
  1079.0 19.17 19
  1079.1 17.23 17
  1079.2 16.31 16
  1079.3 16.25 16
  1079.4 16.13 16
  1079.5 15.14 15
  1079.7 13.39 13
  1079.8 15.25 15
  1079.9 18.55 18
  1080.0 21.39 21
  1080.1 22.64 22
  1080.2 22.42 22
  1080.3 21.38 21
  1080.4 20.2 20
  1080.5 19.3 19
  1080.6 18.49 18
  1080.7 17.2 17
  1080.8 15.63 15
  1081.0 14.87 14
  1081.1 15.95 15
  1081.2 17.29 17
  1081.3 18.62 18
  1081.4 19.82 19
  1081.5 21.05 21
  1081.6 22.23 22
  1081.7 22.72 22
  1081.8 21.61 21
  1081.9 19.1 19
  1082.0 16.45 16
  1082.2 15.06 15
  1082.3 16.25 16
  1082.4 17.22 17
  1082.5 16.83 16
  1082.7 14.62 14
  1082.8 16.19 16
  1082.9 19.73 19
  1083.0 22.99 22
  1083.1 24.0 23
  1083.2 22.98 22
  1083.3 21.65 21
  1083.4 21.12 21
  1083.5 21.09 21
  1083.6 20.9 20
  1083.7 20.34 20
  1083.8 19.29 19
  1083.9 17.52 17
  1084.1 14.47 14
  1084.2 15.82 15
  1084.3 18.71 18
  1084.4 21.31 21
  1084.5 22.67 22
  1084.6 22.93 22
  1084.7 22.28 22
  1084.8 20.91 20
  1084.9 19.49 19
  1085.0 18.83 18
  1085.1 18.94 18
  1085.2 18.88 18
  1085.3 17.84 17
  1085.6 16.22 16
  1085.7 18.74 18
  1085.8 21.55 21
  1085.9 23.4 23
  1086.0 23.88 23
  1086.1 22.94 22
  1086.2 20.9 20
  1087.1 21.47 21
  1087.2 22.28 22
  1087.3 22.78 22
  1087.4 22.94 22
  1087.5 22.39 22
  1087.6 20.57 20
  1087.7 18.17 18
  1087.9 17.45 17
  1088.0 19.28 19
  1088.1 20.9 20
  1088.2 21.95 21
  1088.3 22.65 22
  1088.4 22.48 22
  1088.5 20.85 20
  1088.6 18.69 18
  1088.8 18.19 18
  1088.9 19.63 19
  1089.0 20.71 20
  1089.1 20.98 20
  1089.2 21.11 21
  1089.3 21.93 21
  1089.4 22.92 22
  1089.5 22.6 22
  1089.6 20.45 20
  1089.7 17.88 17
  1089.9 17.53 17
  1090.0 18.77 18
  1090.1 19.16 19
  1090.2 18.69 18
  1090.3 18.42 18
  1090.4 19.35 19
  1090.5 21.38 21
  1090.6 23.72 23
  1090.7 25.27 25
  1090.8 25.33 25
  1090.9 23.83 23
  1091.0 21.57 21
  1091.1 19.59 19
  1091.3 18.59 18
  1091.4 19.52 19
  1091.5 21.23 21
  1091.6 22.98 22
  1091.7 23.4 23
  1091.8 21.63 21
  1091.9 18.43 18
  1092.8 18.11 18
  1092.9 18.72 18
  1093.0 19.47 19
  1093.1 20.53 20
  1093.2 22.02 21
  1093.3 23.43 23
  1093.4 23.74 23
  1093.5 22.16 22
  1093.6 18.98 18
  1093.9 16.43 16
  1094.0 19.34 19
  1094.1 21.11 21
  1094.2 20.04 20
  1094.3 16.95 16
  1094.5 14.03 14
  1094.6 15.83 15
  1094.7 18.19 18
  1094.8 19.7 19
  1094.9 20.01 19
  1095.0 19.52 19
  1095.1 18.55 18
  1095.3 16.91 16
  1095.4 18.07 18
  1095.5 20.33 20
  1095.6 21.76 21
  1095.7 21.34 21
  1095.8 19.76 19
  1095.9 18.06 18
  1096.2 16.7 16
  1096.3 18.61 18
  1096.4 20.24 20
  1096.5 20.89 20
  1096.6 20.96 20
  1096.7 21.19 21
  1096.8 22.03 22
  1096.9 23.51 23
  1097.0 24.79 24
  1097.1 24.68 24
  1097.2 22.84 22
  1097.3 20.3 20
  1097.5 18.88 18
  1097.6 20.4 20
  1097.7 21.75 21
  1097.8 22.03 22
  1097.9 21.38 21
  1098.0 20.14 20
  1098.1 18.51 18
  1098.2 16.68 16
  1098.4 14.89 14
  1098.5 16.28 16
  1098.6 19.0 18
  1098.7 21.86 21
  1098.8 23.52 23
  1098.9 23.63 23
  1099.0 22.62 22
  1099.1 21.18 21
  1099.2 19.5 19
  1099.3 17.68 17
  1099.9 17.86 17
  1100.0 18.46 18
  1100.1 20.13 20
  1100.2 22.0 21
  1100.3 23.4 23
  1100.4 23.84 23
  1100.5 22.96 22
  1100.6 21.02 20
  1100.7 19.02 19
  1101.0 16.93 16
  1101.1 19.56 19
  1101.2 23.92 23
  1101.3 27.84 27
  1101.4 29.28 29
  1101.5 27.64 27
  1101.6 23.66 23
  1101.7 18.95 18
  1102.0 16.8 16
  1102.1 19.28 19
  1102.2 21.04 21
  1102.3 21.73 21
  1102.4 21.68 21
  1102.5 21.52 21
  1102.6 21.5 21
  1102.7 21.51 21
  1102.8 21.44 21
  1102.9 21.1 21
  1103.0 20.11 20
  1103.1 18.24 18
  1103.4 16.17 16
  1103.5 17.86 17
  1103.6 19.54 19
  1103.7 20.24 20
  1103.8 19.43 19
  1103.9 17.55 17
  1104.2 16.43 16
  1104.3 17.38 17
  1104.4 18.06 18
  1104.5 18.96 18
  1104.6 20.74 20
  1104.7 22.96 22
  1104.8 24.27 24
  1104.9 23.63 23
  1105.0 21.58 21
  1105.1 19.29 19
  1105.2 17.07 17
  1105.4 14.75 14
  1105.5 16.35 16
  1105.6 19.13 19
  1105.7 21.3 21
  1105.8 22.23 22
  1105.9 22.86 22
  1106.0 23.88 23
  1106.1 24.93 24
  1106.2 25.5 25
  1106.3 25.58 25
  1106.4 25.38 25
  1106.5 24.95 24
  1106.6 24.42 24
  1106.7 23.85 23
  1107.8 17.71 17
  1107.9 18.69 18
  1108.0 20.48 20
  1108.1 22.14 22
  1108.2 22.83 22
  1108.3 22.29 22
  1108.4 21.18 21
  1108.5 20.14 20
  1108.6 19.21 19
  1108.7 17.78 17
  1108.8 15.65 15
  1108.9 13.32 13
  1109.1 12.06 12
  1109.2 14.69 14
  1109.3 18.81 18
  1109.4 22.22 22
  1109.5 23.06 23
  1109.6 21.9 21
  1109.7 20.28 20
  1109.8 18.79 18
  1109.9 17.25 17
  1110.2 16.02 16
  1110.3 17.03 17
  1110.4 18.2 18
  1110.5 18.84 18
  1110.6 18.36 18
  1110.7 17.06 17
  1111.0 15.97 15
  1111.1 16.48 16
  1111.2 17.47 17
  1111.3 18.81 18
  1111.4 19.85 19
  1111.5 20.24 20
  1111.6 20.31 20
  1111.7 20.14 20
  1111.8 19.46 19
  1111.9 18.12 18
  1112.0 16.44 16
  1112.1 14.85 14
  1112.4 13.16 13
  1112.5 14.4 14
  1112.6 16.82 16
  1112.7 19.72 19
  1112.8 21.47 21
  1112.9 21.02 20
  1113.0 18.79 18
  1113.2 15.99 15
  1113.3 17.59 17
  1113.4 20.15 20
  1113.5 22.08 22
  1113.6 22.23 22
  1113.7 20.45 20
  1113.8 17.27 17
  1114.0 13.59 13
  1114.1 15.58 15
  1114.2 18.78 18
  1114.3 21.18 21
  1114.4 21.88 21
  1114.5 21.11 21
  1114.6 19.47 19
  1114.8 17.88 17
  1114.9 19.79 19
  1115.0 22.9 22
  1115.1 25.27 25
  1115.2 25.18 25
  1115.3 22.62 22
  1115.4 19.39 19
  1115.5 17.2 17
  1115.6 16.29 16
  1115.9 15.84 15
  1116.0 16.51 16
  1116.1 17.8 17
  1116.2 19.16 19
  1116.3 19.93 19
  1116.4 20.08 20
  1116.5 19.91 19
  1116.6 19.13 19
  1116.7 17.45 17
  1116.9 16.04 16
  1117.0 18.0 17
  1117.1 20.4 20
  1117.2 22.08 22
  1117.3 22.91 22
  1117.4 22.75 22
  1118.3 15.17 15
  1118.4 17.08 17
  1118.5 19.09 19
  1118.6 20.27 20
  1118.7 20.32 20
  1118.8 19.74 19
  1118.9 18.81 18
  1119.1 17.54 17
  1119.2 18.57 18
  1119.3 20.17 20
  1119.4 21.09 21
  1119.5 21.24 21
  1119.6 21.32 21
  1119.7 21.29 21
  1119.8 20.51 20
  1119.9 18.98 18
  1120.0 17.41 17
  1120.3 16.28 16
  1120.4 17.0 16
  1120.5 18.0 17
  1120.6 19.3 19
  1120.7 20.39 20
  1120.8 20.12 20
  1121.0 17.6 17
  1121.1 19.13 19
  1121.2 22.16 22
  1121.3 23.97 23
  1121.4 23.11 23
  1121.5 20.31 20
  1121.6 17.09 17
  1121.9 15.04 15
  1122.0 16.52 16
  1122.1 18.14 18
  1122.2 19.69 19
  1122.3 20.99 20
  1122.4 22.0 21
  1122.5 22.66 22
  1122.6 22.33 22
  1122.7 20.31 20
  1122.8 17.1 17
  1122.9 14.29 14
  1123.1 12.9 12
  1123.2 14.31 14
  1123.3 17.26 17
  1123.4 20.97 20
  1123.5 23.48 23
  1123.6 23.13 23
  1123.7 20.34 20
  1123.8 17.04 17
  1123.9 14.73 14
  1124.2 13.12 13
  1124.3 14.59 14
  1124.4 17.78 17
  1124.5 21.7 21
  1124.6 24.22 24
  1124.7 24.35 24
  1124.8 22.64 22
  1124.9 20.18 20
  1125.0 17.33 17
  1125.2 13.72 13
  1125.3 15.13 15
  1125.4 18.75 18
  1125.5 23.63 23
  1125.6 28.23 28
  1125.7 30.53 30
  1125.8 28.9 28
  1125.9 23.63 23
  1126.0 17.14 17
  1126.3 13.16 13
  1126.4 15.86 15
  1126.5 17.53 17
  1126.6 17.98 17
  1126.7 18.42 18
  1126.8 19.91 19
  1126.9 22.3 22
  1127.0 24.48 24
  1127.1 25.12 25
  1127.2 23.58 23
  1127.3 20.08 20
  1127.4 15.5 15
  1127.7 11.69 11
  1127.8 16.22 16
  1127.9 20.38 20
  1128.0 22.09 22
  1128.1 21.71 21
  1128.2 20.31 20
  1128.3 18.09 18
  1128.4 15.11 15
  1128.6 12.45 12
  1128.7 14.39 14
  1128.8 17.17 17
  1128.9 19.37 19
  1129.0 20.26 20
  1129.1 19.87 19
  1129.2 18.81 18
  1130.2 12.28 12
  1130.3 14.94 14
  1130.4 18.07 18
  1130.5 20.77 20
  1130.6 22.3 22
  1130.7 22.35 22
  1130.8 21.24 21
  1130.9 19.75 19
  1131.0 18.38 18
  1131.3 16.95 16
  1131.4 17.77 17
  1131.5 18.51 18
  1131.6 18.74 18
  1131.7 18.48 18
  1131.8 17.92 17
  1131.9 17.32 17
  1132.8 16.55 16
  1132.9 17.96 17
  1133.0 19.7 19
  1133.1 20.18 20
  1133.2 18.87 18
  1133.3 16.51 16
  1133.5 14.3 14
  1133.6 16.09 16
  1133.7 19.15 19
  1133.8 21.86 21
  1133.9 22.51 22
  1134.0 20.38 20
  1134.1 16.25 16
  1134.2 12.08 12
  1134.4 10.32 10
  1134.5 12.04 12
  1134.6 13.53 13
  1134.7 14.63 14
  1134.8 16.43 16
  1134.9 18.92 18
  1135.0 20.4 20
  1135.1 19.67 19
  1135.3 18.0 17
  1135.4 19.57 19
  1135.5 20.76 20
  1135.6 19.44 19
  1135.7 15.83 15
  1136.0 12.67 12
  1136.1 15.97 15
  1136.2 19.31 19
  1136.3 21.77 21
  1136.4 22.61 22
  1136.5 21.13 21
  1136.6 17.77 17
  1136.7 14.28 14
  1136.9 13.48 13
  1137.0 16.39 16
  1137.1 19.69 19
  1137.2 21.48 21
  1137.3 21.37 21
  1137.4 20.47 20
  1137.5 19.82 19
  1137.6 19.29 19
  1137.7 18.32 18
  1137.8 16.7 16
  1138.1 14.72 14
  1138.2 17.04 17
  1138.3 19.17 19
  1138.4 19.61 19
  1138.5 18.13 18
  1138.6 15.51 15
  1138.7 13.13 13
  1139.0 11.78 11
  1139.1 12.66 12
  1139.2 14.35 14
  1139.3 16.63 16
  1139.4 18.96 18
  1139.5 20.65 20
  1139.6 21.06 21
  1139.7 19.87 19
  1139.8 17.74 17
  1139.9 15.85 15
  1140.0 14.53 14
  1140.1 13.22 13
  1140.3 11.29 11
  1140.4 12.53 12
  1140.5 15.63 15
  1140.6 19.47 19
  1140.7 22.48 22
  1140.8 23.7 23
  1140.9 23.33 23
  1141.0 22.49 22
  1141.1 22.17 22
  1141.2 22.16 22
  1141.3 21.38 21
  1141.4 18.78 18
  1141.5 15.09 15
  1141.7 13.52 13
  1141.8 17.41 17
  1141.9 21.93 21
  1142.0 24.56 24
  1142.1 24.08 24
  1142.2 20.61 20
  1142.3 16.04 16
  1142.6 14.1 14
  1142.7 15.98 15
  1142.8 17.81 17
  1142.9 19.76 19
  1143.0 21.43 21
  1143.1 22.16 22
  1143.2 21.93 21
  1143.3 21.17 21
  1143.4 20.35 20
  1143.5 19.68 19
  1143.6 19.05 19
  1143.9 17.38 17
  1144.0 19.09 19
  1144.1 21.95 21
  1144.2 24.56 24
  1144.3 25.43 25
  1144.4 23.85 23
  1144.5 20.41 20
  1144.6 16.75 16
  1144.7 14.23 14
  1144.9 13.44 13
  1145.0 15.33 15
  1145.1 17.85 17
  1145.2 19.44 19
  1145.3 19.83 19
  1145.4 20.19 20
  1145.5 20.59 20
  1145.6 19.78 19
  1145.7 17.54 17
  1146.4 14.54 14
  1146.5 16.73 16
  1146.6 19.09 19
  1146.7 20.07 20
  1146.8 19.36 19
  1147.5 13.42 13
  1147.6 15.3 15
  1147.7 18.13 18
  1147.8 19.85 19
  1147.9 19.5 19
  1148.0 17.98 17
  1148.3 16.76 16
  1148.4 17.68 17
  1148.5 18.7 18
  1148.6 19.65 19
  1148.7 20.18 20
  1148.8 19.88 19
  1148.9 18.75 18
  1149.0 17.3 17
  1149.1 16.11 16
  1150.0 12.6 12
  1150.1 15.04 15
  1150.2 17.78 17
  1150.3 19.79 19
  1150.4 20.3 20
  1150.5 19.4 19
  1150.6 17.91 17
  1150.7 16.43 16
  1150.8 15.14 15
  1150.9 14.26 14
  1151.0 13.98 13
  1151.1 13.94 13
  1151.5 13.2 13
  1151.6 14.22 14
  1151.7 15.38 15
  1151.8 16.05 16
  1151.9 15.97 15
  1152.0 15.39 15
  1152.1 14.73 14
  1152.4 13.57 13
  1152.5 14.39 14
  1152.6 16.1 16
  1152.7 17.42 17
  1152.8 16.74 16
  1152.9 14.48 14
  1153.4 15.3 15
  1153.5 15.67 15
  1153.6 16.44 16
  1153.7 17.13 17
  1153.8 17.43 17
  1153.9 18.05 18
  1154.0 19.3 19
  1154.1 20.12 20
  1154.2 19.39 19
  1154.3 17.62 17
  1154.4 16.22 16
  1154.5 15.67 15
  1154.6 15.26 15
  1154.7 14.3 14
  1155.0 12.57 12
  1155.1 13.72 13
  1155.2 15.19 15
  1155.3 16.34 16
  1155.4 16.52 16
  1155.5 15.31 15
  1155.6 13.19 13
  1155.8 11.63 11
  1155.9 14.31 14
  1156.0 18.1 18
  1156.1 20.79 20
  1156.2 21.6 21
  1156.3 21.31 21
  1156.4 20.67 20
  1156.5 19.22 19
  1156.6 17.01 16
  1157.6 12.17 12
  1157.7 13.42 13
  1157.8 14.44 14
  1157.9 14.85 14
  1158.0 15.0 14
  1158.1 15.74 15
  1158.2 17.55 17
  1158.3 19.82 19
  1158.4 21.17 21
  1158.5 20.5 20
  1158.6 17.81 17
  1158.7 14.16 14
  1158.8 11.06 11
  1159.0 10.43 10
  1159.1 11.62 11
  1159.2 12.49 12
  1159.3 13.63 13
  1159.4 15.65 15
  1159.5 17.91 17
  1159.6 19.22 19
  1159.7 19.48 19
  1159.8 19.24 19
  1159.9 18.22 18
  1160.0 15.66 15
  1160.1 11.78 11
  1160.2 7.97 7
  1160.4 5.61 5
  1160.5 8.04 8
  1160.6 11.97 11
  1160.7 15.7 15
  1160.8 18.23 18
  1160.9 19.93 19
  1161.0 21.23 21
  1161.1 21.62 21
  1161.2 20.76 20
  1161.3 19.2 19
  1161.4 17.98 17
  1161.5 17.54 17
  1161.6 17.52 17
  1161.7 17.1 17
  1162.0 15.63 15
  1162.1 17.12 17
  1162.2 18.31 18
  1162.3 17.68 17
  1162.4 15.5 15
  1162.6 13.24 13
  1162.7 14.69 14
  1162.8 16.91 16
  1162.9 19.27 19
  1163.0 21.13 21
  1163.1 21.8 21
  1163.2 21.25 21
  1163.3 20.24 20
  1163.4 19.54 19
  1163.5 18.78 18
  1163.6 17.15 17
  1163.7 14.83 14
  1163.9 12.67 12
  1164.0 13.81 13
  1164.1 16.17 16
  1164.2 19.15 19
  1164.3 21.12 21
  1164.4 20.59 20
  1164.5 18.05 18
  1164.6 15.86 15
  1164.9 16.31 16
  1165.0 16.63 16
  1165.1 17.66 17
  1165.2 19.21 19
  1165.3 20.33 20
  1165.4 20.04 20
  1165.5 18.13 18
  1165.6 15.72 15
  1165.9 14.99 14
  1166.0 15.86 15
  1166.1 17.01 16
  1166.2 18.46 18
  1166.3 19.68 19
  1166.4 19.75 19
  1167.3 14.37 14
  1167.4 15.41 15
  1167.5 16.91 16
  1167.6 17.99 17
  1167.7 17.99 17
  1167.8 17.64 17
  1167.9 18.29 18
  1168.0 20.22 20
  1168.1 21.78 21
  1168.2 21.1 21
  1168.3 18.27 18
  1168.4 15.22 15
  1168.9 15.35 15
  1169.0 15.59 15
  1169.1 16.39 16
  1169.2 17.06 17
  1169.3 16.61 16
  1169.4 15.28 15
  1170.3 12.47 12
  1170.4 15.92 15
  1170.5 21.05 21
  1170.6 24.61 24
  1170.7 24.39 24
  1170.8 21.54 21
  1170.9 18.65 18
  1171.0 16.76 16
  1171.1 15.07 15
  1171.3 12.52 12
  1171.4 13.81 13
  1171.5 16.99 16
  1171.6 20.51 20
  1171.7 22.42 22
  1171.8 21.99 21
  1171.9 20.19 20
  1172.2 18.7 18
  1172.3 19.52 19
  1172.4 21.25 21
  1172.5 23.31 23
  1172.6 24.17 24
  1172.7 22.96 22
  1172.8 20.11 20
  1172.9 16.62 16
  1173.0 13.3 13
  1173.1 11.05 11
  1173.3 10.91 10
  1173.4 11.77 11
  1173.5 12.47 12
  1173.6 13.17 13
  1173.7 14.34 14
  1173.8 15.91 15
  1173.9 17.3 17
  1174.0 17.85 17
  1174.1 17.47 17
  1174.2 16.61 16
  1174.3 15.39 15
  1174.6 14.42 14
  1174.7 15.73 15
  1174.8 16.75 16
  1174.9 16.96 16
  1175.0 16.56 16
  1175.1 16.28 16
  1175.2 16.56 16
  1175.3 17.26 17
  1175.4 17.49 17
  1175.5 16.6 16
  1175.8 15.0 14
  1175.9 16.3 16
  1176.0 17.16 17
  1176.1 17.14 17
  1176.2 16.81 16
  1176.3 16.81 16
  1176.4 16.7 16
  1176.5 15.6 15
  1176.7 12.22 12
  1176.8 13.59 13
  1176.9 17.47 17
  1177.0 21.88 21
  1177.1 24.67 24
  1177.2 24.99 24
  1177.3 23.06 23
  1177.4 19.62 19
  1177.5 15.65 15
  1177.6 12.33 12
  1177.9 11.22 11
  1178.0 12.02 12
  1178.1 12.52 12
  1178.2 12.83 12
  1178.3 12.74 12
  1178.4 12.03 12
  1178.5 11.83 11
  1178.6 13.55 13
  1178.7 16.51 16
  1178.8 18.0 17
  1178.9 16.39 16
  1179.0 13.26 13
  1179.2 12.12 12
  1179.3 14.75 14
  1179.4 17.48 17
  1179.5 18.83 18
  1179.6 18.38 18
  1179.7 16.64 16
  1179.8 14.47 14
  1180.1 13.17 13
  1180.2 14.17 14
  1180.3 14.5 14
  1180.4 14.72 14
  1180.5 16.08 16
  1180.6 18.33 18
  1180.7 19.73 19
  1180.8 19.2 19
  1180.9 17.8 17
  1181.4 16.63 16
  1181.5 17.62 17
  1181.6 19.49 19
  1181.7 21.6 21
  1181.8 22.98 22
  1181.9 23.12 23
  1182.0 22.73 22
  1182.1 22.53 22
  1182.2 21.83 21
  1182.3 19.54 19
  1182.6 15.28 15
  1182.7 18.94 18
  1182.8 22.52 22
  1182.9 23.92 23
  1183.0 23.18 23
  1183.1 21.76 21
  1183.2 20.41 20
  1183.3 18.69 18
  1183.4 16.21 16
  1183.5 13.5 13
  1183.7 11.7 11
  1183.8 14.17 14
  1183.9 18.46 18
  1184.0 22.81 22
  1184.1 25.4 25
  1184.2 25.37 25
  1184.3 23.16 23
  1184.4 20.0 19
  1184.5 16.95 16
  1184.6 14.67 14
  1184.8 14.0 13
  1184.9 15.5 15
  1185.0 17.46 17
  1185.1 19.29 19
  1185.2 20.54 20
  1185.3 20.73 20
  1185.4 19.8 19
  1186.6 12.75 12
  1186.7 14.86 14
  1186.8 17.25 17
  1186.9 19.15 19
  1187.0 20.21 20
  1187.1 20.72 20
  1187.2 21.19 21
  1187.3 21.54 21
  1187.4 21.32 21
  1188.7 12.58 12
  1188.8 15.69 15
  1188.9 19.41 19
  1189.0 21.56 21
  1189.1 21.56 21
  1189.2 20.24 20
  1189.3 18.87 18
  1189.4 17.99 17
  1189.5 17.46 17
  1189.6 16.74 16
  1189.7 15.85 15
  1190.0 14.87 14
  1190.1 15.8 15
  1190.2 17.92 17
  1190.3 20.18 20
  1190.4 20.77 20
  1190.5 19.43 19
  1192.0 15.21 15
  1192.1 17.17 17
  1192.2 19.04 19
  1192.3 20.15 20
  1192.4 20.59 20
  1192.5 20.7 20
  1192.6 20.19 20
  1192.7 18.85 18
  1192.8 17.52 17
  1193.5 14.07 14
  1193.6 15.84 15
  1193.7 18.06 18
  1193.8 19.46 19
  1193.9 19.59 19
  1194.0 18.76 18
  1194.1 17.14 17
  1194.2 15.12 15
  1195.6 11.13 11
  1195.7 12.98 12
  1195.8 15.86 15
  1195.9 18.79 18
  1196.0 21.03 21
  1196.1 21.9 21
  1196.2 21.58 21
  1196.3 21.0 20
  1196.4 20.74 20
  1196.5 20.52 20
  1196.6 19.78 19
  1196.9 18.57 18
  1197.0 20.45 20
  1197.1 22.64 22
  1197.2 23.74 23
  1197.3 22.83 22
  1197.4 20.37 20
  1197.5 17.75 17
  1197.6 16.03 16
  1197.9 15.56 15
  1198.0 16.18 16
  1198.1 17.78 17
  1198.2 20.19 20
  1198.3 22.45 22
  1198.4 23.56 23
  1198.5 23.14 23
  1198.6 21.21 21
  1198.7 17.96 17
  1198.8 14.36 14
  1199.1 12.58 12
  1199.2 14.31 14
  1199.3 16.36 16
  1199.4 18.32 18
  1199.5 19.68 19
  1199.6 20.5 20
  1199.7 21.17 21
  1199.8 21.28 21
  1199.9 19.89 19
  1200.2 17.28 17
  1200.3 19.28 19
  1200.4 20.71 20
  1200.5 21.48 21
  1200.6 22.28 22
  1200.7 23.36 23
  1200.8 24.24 24
  1200.9 24.31 24
  1201.0 23.1 23
  1201.1 20.61 20
  1201.2 17.8 17
  1201.5 16.32 16
  1201.6 17.71 17
  1201.7 19.61 19
  1201.8 21.37 21
  1201.9 22.16 22
  1202.0 21.7 21
  1202.1 20.33 20
  1202.2 18.53 18
  1202.5 17.65 17
  1202.6 19.2 19
  1202.7 20.51 20
  1202.8 20.92 20
  1202.9 19.85 19
  1203.0 17.49 17
  1203.2 15.52 15
  1203.3 17.7 17
  1203.4 20.18 20
  1203.5 21.25 21
  1203.6 20.83 20
  1203.7 20.33 20
  1203.8 20.97 20
  1203.9 22.17 22
  1204.0 22.57 22
  1204.1 21.68 21
  1204.9 17.86 17
  1205.0 19.72 19
  1205.1 21.42 21
  1205.2 22.4 22
  1205.3 22.8 22
  1205.4 23.14 23
  1205.5 23.78 23
  1205.6 24.29 24
  1205.7 24.07 24
  1205.8 22.93 22
  1205.9 21.42 21
  1206.0 20.38 20
  1206.1 20.08 20
  1206.2 19.87 19
  1206.3 19.22 19
  1206.9 18.42 18
  1207.0 18.92 18
  1207.1 18.97 18
  1207.2 19.16 19
  1207.3 20.5 20
  1207.4 22.58 22
  1207.5 23.71 23
  1207.6 23.4 23
  1207.7 22.93 22
  1207.8 23.3 23
  1207.9 23.42 23
  1208.0 21.75 21
  1208.1 18.51 18
  1208.4 16.58 16
  1208.5 19.42 19
  1208.6 22.29 22
  1208.7 23.81 23
  1208.8 23.17 23
  1208.9 20.93 20
  1209.0 18.68 18
  1209.3 18.04 18
  1209.4 18.91 18
  1209.5 20.34 20
  1209.6 21.89 21
  1209.7 22.42 22
  1209.8 21.22 21
  1209.9 19.03 19
  1210.8 17.79 17
  1210.9 19.57 19
  1211.0 21.54 21
  1211.1 22.87 22
  1211.2 23.16 23
  1211.3 22.1 22
  1211.4 20.0 19
  1211.7 17.53 17
  1211.8 19.14 19
  1211.9 20.9 20
  1212.0 21.75 21
  1212.1 21.05 21
  1212.2 18.92 18
  1212.3 16.31 16
  1212.5 14.37 14
  1212.6 15.63 15
  1212.7 17.17 17
  1212.8 18.26 18
  1212.9 18.88 18
  1213.0 19.63 19
  1213.1 20.84 20
  1213.2 21.73 21
  1213.3 21.16 21
  1213.4 19.33 19
  1213.6 18.11 18
  1213.7 19.75 19
  1213.8 21.38 21
  1213.9 21.74 21
  1214.0 20.5 20
  1214.1 18.19 18
  1214.6 17.06 17
  1214.7 16.81 16
  1214.8 18.24 18
  1214.9 21.11 21
  1215.0 23.2 23
  1215.1 22.81 22
  1215.2 20.54 20
  1215.3 17.99 17
  1215.4 16.28 16
  1215.5 15.41 15
  1215.8 15.11 15
  1215.9 16.18 16
  1216.0 17.92 17
  1216.1 19.55 19
  1216.2 20.33 20
  1216.3 20.14 20
  1216.4 19.59 19
  1216.8 18.7 18
  1216.9 19.66 19
  1217.0 20.99 20
  1217.1 22.13 22
  1217.2 22.41 22
  1217.3 21.69 21
  1217.4 20.27 20
  1217.5 18.46 18
  1217.8 15.92 15
  1217.9 18.76 18
  1218.0 22.85 22
  1218.1 26.6 26
  1218.2 28.58 28
  1218.3 27.59 27
  1218.4 23.07 23
  1218.5 16.29 16
  1218.6 9.8 9
  1218.8 5.98 5
  1218.9 9.95 9
  1219.0 16.35 16
  1219.1 22.7 22
  1219.2 27.14 27
  1219.3 29.04 29
  1219.4 28.45 28
  1219.5 25.91 25
  1219.6 22.65 22
  1219.7 20.01 19
  1219.8 18.33 18
  1220.0 17.19 17
  1220.1 18.42 18
  1220.2 20.72 20
  1220.3 22.54 22
  1220.4 22.41 22
  1220.5 20.26 20
  1220.6 17.59 17
  1220.7 15.98 15
  1220.8 15.65 15
  1220.9 15.35 15
  1221.2 14.35 14
  1221.3 16.62 16
  1221.4 18.87 18
  1221.5 19.94 19
  1221.6 19.85 19
  1221.7 19.14 19
  1222.1 18.36 18
  1222.2 19.07 19
  1222.3 20.54 20
  1222.4 22.54 22
  1222.5 23.56 23
  1222.6 22.52 22
  1222.7 20.09 20
  1222.8 18.11 18
  1223.6 14.21 14
  1223.7 15.65 15
  1223.8 18.09 18
  1223.9 20.46 20
  1224.0 21.86 21
  1224.1 21.64 21
  1224.2 19.94 19
  1224.3 17.66 17
  1224.5 16.12 16
  1224.6 17.51 17
  1224.7 18.92 18
  1224.8 19.0 18
  1224.9 17.87 17
  1225.2 17.1 17
  1225.3 17.8 17
  1225.4 18.58 18
  1225.5 19.33 19
  1225.6 19.92 19
  1225.7 20.41 20
  1225.8 21.05 21
  1225.9 21.68 21
  1226.0 22.14 22
  1226.1 22.12 22
  1226.2 21.32 21
  1227.0 18.38 18
  1227.1 19.83 19
  1227.2 21.86 21
  1227.3 23.27 23
  1227.4 23.1 23
  1227.5 21.48 21
  1229.5 14.29 14
  1229.6 16.06 16
  1229.7 17.01 16
  1229.8 16.04 16
  1230.1 14.07 14
  1230.2 16.19 16
  1230.3 17.97 17
  1230.4 18.01 17
  1230.7 16.63 16
  1230.8 18.13 18
  1230.9 19.49 19
  1231.0 20.6 20
  1231.1 21.3 21
  1231.2 21.13 21
  1231.3 20.19 20
  1231.4 19.01 18
  1231.5 17.64 17
  1231.8 16.3 16
  1231.9 17.66 17
  1232.0 18.68 18
  1232.1 19.14 19
  1232.2 19.5 19
  1232.3 20.14 20
  1232.4 21.16 21
  1232.5 21.62 21
  1232.6 20.13 20
  1232.7 16.5 16
  1232.9 12.91 12
  1233.0 16.74 16
  1233.1 21.91 21
  1233.2 24.92 24
  1233.3 24.41 24
  1233.4 21.58 21
  1233.5 18.53 18
  1235.2 14.47 14
  1235.3 15.92 15
  1235.4 17.9 17
  1235.5 19.34 19
  1235.6 19.66 19
  1235.7 19.31 19
  1235.8 19.18 19
  1235.9 19.72 19
  1236.0 20.45 20
  1236.1 20.18 20
  1236.2 17.77 17
  1236.3 13.59 13
  1236.5 8.4 8
  1236.6 10.56 10
  1236.7 14.89 14
  1236.8 19.52 19
  1236.9 23.12 23
  1237.0 25.08 25
  1237.1 25.11 25
  1237.2 23.53 23
  1237.3 21.37 21
  1237.4 19.76 19
  1237.5 18.81 18
  1237.6 18.09 18
  1237.7 17.7 17
  1237.8 17.75 17
  1237.9 17.57 17
  1238.0 16.32 16
  1238.2 14.65 14
  1238.3 16.97 16
  1238.4 20.47 20
  1238.5 22.79 22
  1238.6 22.2 22
  1238.7 19.31 19
  1239.0 17.0 16
  1239.1 18.91 18
  1239.2 20.4 20
  1239.3 20.9 20
  1239.4 20.35 20
  1239.5 19.33 19
  1241.1 14.67 14
  1241.2 15.12 15
  1241.3 16.94 16
  1241.4 19.73 19
  1241.5 22.09 22
  1241.6 22.77 22
  1241.7 21.24 21
  1241.8 18.55 18
  1241.9 16.29 16
  1242.3 15.77 15
  1242.4 16.5 16
  1242.5 17.74 17
  1242.6 18.91 18
  1242.7 19.65 19
  1242.8 20.09 20
  1242.9 20.69 20
  1243.0 21.45 21
  1243.1 21.87 21
  1243.2 21.52 21
  1243.3 20.71 20
  1243.4 19.79 19
  1244.6 13.61 13
  1244.7 15.07 15
  1244.8 16.23 16
  1244.9 16.41 16
  1245.0 15.95 15
  1245.1 15.04 15
  1245.4 11.5 11
  1245.5 14.75 14
  1245.6 19.44 19
  1245.7 22.71 22
  1245.8 23.53 23
  1245.9 22.83 22
  1246.0 21.52 21
  1246.1 19.92 19
  1246.4 18.69 18
  1246.5 20.53 20
  1246.6 21.77 21
  1246.7 21.42 21
  1247.5 15.82 15
  1247.6 18.13 18
  1247.7 21.06 21
  1247.8 23.12 23
  1247.9 23.48 23
  1248.0 22.4 22
  1248.1 20.78 20
  1248.3 19.72 19
  1248.4 21.0 20
  1248.5 22.52 22
  1248.6 22.88 22
  1248.7 21.52 21
  1248.8 19.23 19
  1248.9 17.09 17
  1249.0 15.26 15
  1249.3 12.34 12
  1249.4 14.57 14
  1249.5 16.68 16
  1249.6 16.9 16
  1249.9 15.7 15
  1250.0 16.74 16
  1250.1 17.25 17
  1250.2 16.89 16
  1250.3 15.85 15
  1250.6 14.85 14
  1250.7 17.07 17
  1250.8 20.26 20
  1250.9 23.23 23
  1251.0 24.74 24
  1251.1 24.33 24
  1251.2 22.33 22
  1251.3 19.2 19
  1251.4 15.17 15
  1251.5 10.93 10
  1251.7 8.46 8
  1251.8 11.39 11
  1251.9 15.02 15
  1252.0 17.62 17
  1252.1 18.51 18
  1252.2 17.83 17
  1252.3 16.04 16
  1252.4 14.2 14
  1252.7 13.75 13
  1252.8 14.67 14
  1252.9 15.79 15
  1253.0 16.43 16
  1253.1 16.24 16
  1253.2 15.53 15
  1253.5 15.0 14
  1253.6 15.67 15
  1253.7 16.61 16
  1253.8 17.03 17
  1253.9 16.41 16
  1254.9 10.95 10
  1255.0 12.83 12
  1255.1 15.31 15
  1255.2 16.87 16
  1255.3 17.28 17
  1255.4 17.3 17
  1255.5 17.39 17
  1255.6 17.36 17
  1255.9 16.39 16
  1256.0 17.25 17
  1256.1 18.65 18
  1256.2 19.69 19
  1256.3 19.8 19
  1256.4 18.95 18
  1256.5 17.36 17
  1256.7 14.98 14
  1256.8 16.47 16
  1256.9 19.36 19
  1257.0 21.36 21
  1257.1 20.74 20
  1257.2 17.62 17
  1257.5 13.1 13
  1257.6 16.69 16
  1257.7 20.04 20
  1257.8 21.31 21
  1257.9 20.69 20
  1258.0 19.54 19
  1258.1 18.84 18
  1258.2 18.65 18
  1258.3 18.26 18
  1258.4 16.97 16
  1258.7 15.19 15
  1258.8 16.86 16
  1258.9 17.88 17
  1259.0 17.72 17
  1259.1 17.25 17
  1259.2 17.7 17
  1259.3 19.17 19
  1259.4 20.84 20
  1259.5 21.61 21
  1259.6 21.09 21
  1259.7 19.34 19
  1259.8 17.07 17
  1259.9 15.17 15
  1260.0 13.78 13
  1260.1 12.46 12
  1260.9 11.83 11
  1261.0 13.12 13
  1261.1 14.41 14
  1261.2 15.19 15
  1261.3 15.08 15
  1261.6 14.29 14
  1261.7 16.34 16
  1261.8 18.52 18
  1261.9 19.57 19
  1262.0 19.44 19
  1262.1 19.1 19
  1262.2 19.34 19
  1262.3 20.38 20
  1262.4 21.89 21
  1262.5 23.01 22
  1262.6 22.45 22
  1262.7 20.21 20
  1263.5 12.48 12
  1263.6 14.61 14
  1263.7 16.77 16
  1263.8 17.3 17
  1263.9 16.17 16
  1264.1 13.87 13
  1264.2 15.02 15
  1264.3 17.72 17
  1264.4 20.34 20
  1264.5 21.39 21
  1264.6 21.17 21
  1264.7 20.99 20
  1264.8 21.24 21
  1264.9 21.19 21
  1265.0 20.5 20
  1265.8 11.62 11
  1265.9 15.93 15
  1266.0 21.18 21
  1266.1 24.46 24
  1266.2 24.74 24
  1266.3 23.11 23
  1266.4 21.36 21
  1266.7 19.68 19
  1266.8 20.71 20
  1266.9 22.02 21
  1267.0 22.07 22
  1267.1 20.14 20
  1267.2 17.61 17
  1267.4 16.8 16
  1267.5 18.44 18
  1267.6 20.3 20
  1267.7 21.86 21
  1267.8 22.86 22
  1267.9 23.14 23
  1268.0 22.74 22
  1268.1 21.81 21
  1268.2 20.56 20
  1269.1 12.15 12
  1269.2 14.8 14
  1269.3 17.66 17
  1269.4 19.29 19
  1269.5 19.42 19
  1269.6 18.81 18
  1269.7 18.45 18
  1269.8 18.36 18
  1269.9 17.55 17
  1270.0 15.56 15
  1270.1 13.24 13
  1270.3 11.54 11
  1270.4 12.78 12
  1270.5 15.78 15
  1270.6 20.17 20
  1270.7 24.04 24
  1270.8 25.21 25
  1270.9 22.94 22
  1271.0 18.32 18
  1271.1 12.97 12
  1271.2 8.39 8
  1271.4 5.74 5
  1271.5 7.35 7
  1271.6 9.94 9
  1271.7 13.4 13
  1271.8 17.58 17
  1271.9 21.06 21
  1272.0 22.47 22
  1272.1 21.99 21
  1272.2 20.95 20
  1272.3 20.21 20
  1272.4 19.52 19
  1272.5 18.24 18
  1272.6 16.22 16
  1272.7 13.88 13
  1272.9 12.65 12
  1273.0 14.42 14
  1273.1 16.42 16
  1273.2 17.46 17
  1273.3 17.2 17
  1273.4 15.92 15
  1273.7 14.09 14
  1273.8 15.21 15
  1273.9 16.7 16
  1274.0 18.49 18
  1274.1 19.81 19
  1274.2 19.56 19
  1274.3 17.65 17
  1275.1 10.44 10
  1275.2 12.57 12
  1275.3 15.34 15
  1275.4 17.03 17
  1275.5 17.58 17
  1275.6 17.87 17
  1275.7 18.75 18
  1275.8 19.83 19
  1275.9 20.05 20
  1276.0 18.87 18
  1276.8 14.83 14
  1276.9 16.57 16
  1277.0 18.63 18
  1277.1 19.3 19
  1277.2 18.19 18
  1277.3 16.23 16
  1277.4 14.43 14
  1277.7 13.4 13
  1277.8 15.19 15
  1277.9 17.19 17
  1278.0 17.93 17
  1278.1 16.94 16
  1278.2 15.25 15
  1279.9 10.47 10
  1280.0 12.32 12
  1280.1 14.66 14
  1280.2 16.84 16
  1280.3 17.93 17
  1280.4 17.34 17
  1280.5 15.44 15
  1280.6 13.0 12
  1280.7 10.37 10
  1280.9 7.25 7
  1281.0 9.05 9
  1281.1 12.99 12
  1281.2 16.93 16
  1281.3 18.98 18
  1281.4 19.14 19
  1281.5 18.64 18
  1281.6 18.33 18
  1281.7 17.79 17
  1281.8 16.44 16
  1281.9 14.57 14
  1282.0 12.97 12
  1282.3 11.23 11
  1282.4 13.36 13
  1282.5 16.8 16
  1282.6 19.86 19
  1282.7 20.99 20
  1282.8 20.0 19
  1282.9 17.59 17
  1283.0 15.14 15
  1283.5 15.93 15
  1283.6 16.16 16
  1283.7 16.9 16
  1283.8 17.83 17
  1283.9 18.43 18
  1284.0 18.72 18
  1284.1 19.28 19
  1284.2 20.53 20
  1284.3 21.81 21
  1284.4 22.07 22
  1284.5 21.34 21
  1284.6 20.98 20
  1284.7 21.74 21
  1284.8 22.86 22
  1284.9 23.01 22
  1285.0 21.77 21
  1285.1 19.63 19
  1285.2 17.7 17
  1285.3 16.78 16
  1285.4 16.6 16
  1285.5 16.26 16
  1285.8 15.26 15
  1285.9 15.84 15
  1286.0 17.15 17
  1286.1 19.54 19
  1286.2 22.13 22
  1286.3 23.17 23
  1286.4 21.76 21
  1286.5 18.89 18
  1286.6 16.21 16
  1286.8 15.51 15
  1286.9 16.94 16
  1287.0 17.84 17
  1287.1 16.95 16
  1287.2 14.57 14
  1287.5 12.55 12
  1287.6 14.07 14
  1287.7 15.95 15
  1287.8 18.07 18
  1287.9 20.0 19
  1288.0 21.28 21
  1288.1 21.83 21
  1288.2 21.42 21
  1288.3 20.3 20
  1289.1 8.84 8
  1289.2 10.69 10
  1289.3 13.69 13
  1289.4 16.22 16
  1289.5 18.0 17
  1289.6 19.52 19
  1289.7 20.79 20
  1289.8 21.74 21
  1289.9 22.51 22
  1290.0 23.09 23
  1290.1 22.72 22
  1290.2 20.43 20
  1290.3 16.54 16
  1290.6 13.07 13
  1290.7 17.15 17
  1290.8 20.97 20
  1290.9 22.87 22
  1291.0 22.85 22
  1291.1 21.29 21
  1291.2 18.17 18
  1291.3 14.27 14
  1292.5 13.53 13
  1292.6 14.59 14
  1292.7 15.96 15
  1292.8 16.84 16
  1292.9 17.43 17
  1293.0 18.38 18
  1293.1 19.44 19
  1293.2 19.65 19
  1293.3 18.48 18
  1293.4 16.58 16
  1293.6 14.66 14
  1293.7 15.97 15
  1293.8 17.86 17
  1293.9 18.74 18
  1294.0 18.12 18
  1294.1 16.87 16
  1294.2 15.73 15
  1294.3 14.6 14
  1294.4 13.27 13
  1295.2 14.81 14
  1295.3 15.73 15
  1295.4 16.38 16
  1295.5 17.38 17
  1295.6 19.22 19
  1295.7 21.0 20
  1295.8 21.57 21
  1295.9 20.84 20
  1296.0 19.23 19
  1296.1 17.13 17
  1296.2 15.06 15
  1296.4 14.41 14
  1296.5 15.38 15
  1296.6 16.29 16
  1296.7 17.07 17
  1296.8 17.79 17
  1296.9 18.19 18
  1297.0 17.97 17
  1297.1 17.46 17
  1297.2 17.27 17
  1297.3 17.52 17
  1297.4 17.59 17
  1297.5 16.56 16
  1297.6 14.18 14
  1297.7 11.47 11
  1297.9 10.22 10
  1298.0 12.93 12
  1298.1 17.17 17
  1298.2 21.19 21
  1298.3 22.8 22
  1298.4 21.6 21
  1298.5 19.35 19
  1299.8 12.28 12
  1299.9 14.66 14
  1300.0 17.04 17
  1300.1 17.53 17
  1300.2 16.41 16
  1300.7 14.74 14
  1300.8 15.15 15
  1300.9 16.83 16
  1301.0 18.9 18
  1301.1 19.82 19
  1301.2 19.24 19
  1301.3 18.14 18
  1301.4 17.27 17
  1301.5 16.41 16
  1301.6 15.12 15
  1301.9 12.97 12
  1302.0 15.04 15
  1302.1 17.12 17
  1302.2 17.75 17
  1302.3 17.39 17
  1302.4 17.45 17
  1302.5 18.29 18
  1302.6 19.18 19
  1302.7 19.67 19
  1302.8 20.12 20
  1302.9 20.87 20
  1303.0 21.6 21
  1303.1 21.31 21
  1303.2 19.59 19
  1303.8 17.54 17
  1303.9 18.33 18
  1304.0 20.72 20
  1304.1 22.97 22
  1304.2 23.39 23
  1304.3 21.91 21
  1304.4 19.33 19
  1304.5 16.5 16
  1304.7 14.47 14
  1304.8 16.48 16
  1304.9 19.21 19
  1305.0 21.36 21
  1305.1 22.83 22
  1305.2 24.08 24
  1305.3 25.14 25
  1305.4 25.87 25
  1305.5 26.31 26
  1305.6 26.65 26
  1305.7 26.51 26
  1305.8 25.38 25
  1305.9 23.35 23
  1306.0 21.06 21
  1306.1 18.81 18
  1306.2 16.32 16
  1306.3 13.77 13
  1306.5 12.2 12
  1306.6 14.23 14
  1306.7 17.67 17
  1306.8 21.1 21
  1306.9 22.77 22
  1307.0 22.06 22
  1307.1 20.13 20
  1307.9 17.19 17
  1308.0 18.64 18
  1308.1 20.93 20
  1308.2 22.83 22
  1308.3 23.18 23
  1308.4 21.8 21
  1308.5 19.87 19
  1308.6 18.66 18
  1308.7 18.22 18
  1308.8 17.64 17
  1309.0 15.83 15
  1309.1 17.07 17
  1309.2 19.94 19
  1309.3 22.43 22
  1309.4 23.11 23
  1309.5 22.15 22
  1309.6 20.54 20
  1309.7 18.88 18
  1309.8 17.28 17
  1309.9 15.83 15
  1310.0 14.54 14
  1310.2 12.62 12
  1310.3 13.4 13
  1310.4 16.09 16
  1310.5 19.34 19
  1310.6 20.99 20
  1310.7 20.14 20
  1310.8 18.04 18
  1310.9 16.43 16
  1311.5 14.82 14
  1311.6 17.55 17
  1311.7 21.23 21
  1311.8 23.36 23
  1311.9 23.29 23
  1312.0 22.07 22
  1312.1 20.39 20
  1312.2 18.17 18
  1312.3 15.77 15
  1312.7 14.57 14
  1312.8 15.01 14
  1312.9 16.36 16
  1313.0 18.31 18
  1313.1 19.63 19
  1313.2 19.59 19
  1313.3 18.75 18
  1313.4 17.81 17
  1313.7 16.95 16
  1313.8 18.45 18
  1313.9 19.83 19
  1314.0 20.66 20
  1314.1 21.08 21
  1314.2 21.19 21
  1314.3 20.98 20
  1314.4 20.47 20
  1314.5 19.37 19
  1314.6 17.52 17
  1314.9 15.71 15
  1315.0 17.53 17
  1315.1 19.56 19
  1315.2 21.06 21
  1315.3 21.5 21
  1315.4 20.86 20
  1315.5 19.61 19
  1315.6 18.11 18
  1315.7 16.55 16
  1315.8 15.14 15
  1316.0 14.55 14
  1316.1 15.34 15
  1316.2 16.36 16
  1316.3 17.0 16
  1316.6 15.53 15
  1316.7 17.02 17
  1316.8 20.11 20
  1316.9 23.84 23
  1317.0 26.97 26
  1317.1 28.04 28
  1317.2 26.3 26
  1317.3 22.79 22
  1317.4 19.57 19
  1317.5 17.83 17
  1318.3 17.15 17
  1318.4 17.79 17
  1318.5 19.04 19
  1318.6 20.54 20
  1318.7 21.93 21
  1318.8 22.87 22
  1318.9 23.24 23
  1319.0 22.77 22
  1319.1 21.63 21
  1319.2 20.37 20
  1319.3 19.31 19
  1319.4 17.83 17
  1319.5 14.98 14
  1319.7 11.0 10
  1319.8 14.36 14
  1319.9 19.61 19
  1320.0 22.97 22
  1320.1 22.92 22
  1320.2 21.16 21
  1321.2 15.5 15
  1321.3 17.16 17
  1321.4 18.78 18
  1321.5 18.82 18
  1321.6 17.03 17
  1321.7 14.49 14
  1321.8 12.3 12
  1322.0 11.11 11
  1322.1 12.49 12
  1322.2 15.28 15
  1322.3 19.03 19
  1322.4 22.9 22
  1322.5 26.03 26
  1322.6 27.58 27
  1322.7 26.82 26
  1322.8 23.62 23
  1322.9 18.76 18
  1323.1 13.2 13
  1323.2 16.39 16
  1323.3 22.04 22
  1323.4 26.31 26
  1323.5 27.14 27
  1323.6 25.47 25
  1323.7 23.5 23
  1323.8 22.47 22
  1323.9 22.26 22
  1324.0 22.06 22
  1324.1 21.18 21
  1324.3 19.16 19
  1324.4 20.28 20
  1324.5 22.4 22
  1324.6 23.37 23
  1324.7 22.35 22
  1325.0 20.43 20
  1325.1 22.0 21
  1325.2 23.2 23
  1325.3 23.32 23
  1325.4 22.36 22
  1325.5 21.25 21
  1325.6 20.7 20
  1326.0 20.04 20
  1326.1 21.19 21
  1326.2 23.07 23
  1326.3 24.99 24
  1326.4 25.57 25
  1326.5 24.34 24
  1327.8 16.16 16
  1327.9 19.0 18
  1328.0 21.5 21
  1328.1 22.33 22
  1328.2 22.0 21
  1328.3 21.89 21
  1328.4 22.57 22
  1328.5 23.2 23
  1328.6 22.8 22
  1328.7 21.63 21
  1328.8 20.53 20
  1329.0 19.72 19
  1329.1 20.46 20
  1329.2 22.17 22
  1329.3 23.91 23
  1329.4 24.39 24
  1329.5 23.53 23
  1329.6 22.29 22
  1331.0 15.3 15
  1331.1 16.04 16
  1331.2 17.49 17
  1331.3 18.68 18
  1331.4 18.72 18
  1331.5 18.03 18
  1331.6 17.98 17
  1331.7 19.31 19
  1331.8 20.97 20
  1331.9 21.38 21
  1332.0 20.52 20
  1332.3 19.88 19
  1332.4 21.69 21
  1332.5 24.74 24
  1332.6 28.01 27
  1332.7 29.46 29
  1332.8 27.81 27
  1332.9 24.05 24
  1333.0 20.39 20
  1333.1 18.13 18
  1333.2 17.02 17
  1333.4 16.21 16
  1333.5 16.99 16
  1333.6 18.43 18
  1333.7 19.92 19
  1333.8 21.15 21
  1333.9 22.45 22
  1334.0 23.96 23
  1334.1 25.18 25
  1334.2 25.14 25
  1334.3 23.04 23
  1334.4 19.34 19
  1334.5 15.85 15
  1334.8 15.15 15
  1334.9 16.31 16
  1335.0 17.91 17
  1335.1 19.6 19
  1335.2 20.53 20
  1335.3 20.34 20
  1335.4 19.34 19
  1335.5 17.67 17
  1335.6 15.53 15
  1335.7 13.55 13
  1336.0 12.61 12
  1336.1 14.53 14
  1336.2 17.13 17
  1336.3 19.13 19
  1336.4 19.76 19
  1336.5 19.53 19
  1336.6 19.09 19
  1336.7 18.83 18
  1336.8 18.63 18
  1336.9 18.2 18
  1337.0 17.47 17
  1337.3 16.64 16
  1337.4 17.25 17
  1337.5 18.44 18
  1337.6 20.22 20
  1337.7 22.1 22
  1337.8 23.32 23
  1337.9 23.32 23
  1338.0 22.02 21
  1338.3 19.68 19
  1338.4 22.03 22
  1338.5 25.47 25
  1338.6 28.39 28
  1338.7 28.75 28
  1338.8 25.6 25
  1338.9 20.09 20
  1339.0 14.91 14
  1339.3 12.47 12
  1339.4 14.87 14
  1339.5 18.17 18
  1339.6 21.64 21
  1339.7 23.7 23
  1339.8 22.92 22
  1339.9 19.66 19
  1340.0 15.86 15
  1340.2 13.62 13
  1340.3 15.3 15
  1340.4 17.13 17
  1340.5 17.9 17
  1340.6 17.84 17
  1340.7 18.13 18
  1340.8 19.54 19
  1340.9 21.61 21
  1341.0 23.05 23
  1341.1 23.4 23
  1341.2 23.4 23
  1341.3 23.75 23
  1341.4 24.03 24
  1341.5 23.74 23
  1341.6 23.53 23
  1341.7 24.11 24
  1341.8 24.73 24
  1341.9 23.76 23
  1342.0 20.92 20
  1342.1 17.64 17
  1342.3 15.96 15
  1342.4 17.85 17
  1342.5 20.09 20
  1342.6 22.03 22
  1342.7 23.84 23
  1342.8 25.32 25
  1342.9 25.13 25
  1343.0 22.45 22
  1343.1 18.58 18
  1343.3 16.64 16
  1343.4 19.86 19
  1343.5 23.35 23
  1343.6 24.42 24
  1343.7 22.59 22
  1344.0 20.77 20
  1344.1 21.69 21
  1344.2 22.13 22
  1344.3 22.4 22
  1344.4 22.15 22
  1344.5 21.18 21
  1344.6 20.15 20
  1344.7 19.54 19
  1344.8 18.92 18
  1345.6 18.68 18
  1345.7 19.04 19
  1345.8 19.53 19
  1345.9 19.56 19
  1346.0 18.9 18
  1346.1 18.55 18
  1346.2 19.53 19
  1346.3 21.32 21
  1346.4 22.41 22
  1346.5 22.4 22
  1346.6 21.83 21
  1346.7 20.91 20
  1347.0 19.04 19
  1347.1 20.24 20
  1347.2 21.65 21
  1347.3 23.23 23
  1347.4 24.94 24
  1347.5 25.69 25
  1347.6 24.13 24
  1347.7 20.43 20
  1347.9 16.19 16
  1348.0 18.35 18
  1348.1 21.12 21
  1348.2 22.54 22
  1348.3 22.41 22
  1348.4 21.36 21
  1348.5 19.61 19
  1348.6 17.15 17
  1348.9 14.78 14
  1349.0 16.78 16
  1349.1 18.87 18
  1349.2 20.9 20
  1349.3 23.04 23
  1349.4 24.72 24
  1349.5 24.63 24
  1349.6 22.48 22
  1349.7 19.46 19
  1349.8 17.22 17
  1349.9 16.56 16
  1350.0 16.9 16
  1350.1 16.82 16
  1350.4 15.5 15
  1350.5 17.96 17
  1350.6 19.44 19
  1350.7 18.75 18
  1350.8 17.28 17
  1350.9 16.45 16
  1351.0 15.98 15
  1351.1 15.17 15
  1351.4 13.64 13
  1351.5 15.98 15
  1351.6 19.42 19
  1351.7 22.07 22
  1351.8 22.43 22
  1351.9 20.79 20
  1352.2 18.51 18
  1352.3 20.04 20
  1352.4 22.09 22
  1352.5 23.81 23
  1352.6 24.3 24
  1352.7 23.42 23
  1352.8 22.12 22
  1352.9 21.29 21
  1353.0 20.76 20
  1353.1 19.78 19
  1353.2 18.16 18
  1353.3 16.54 16
  1354.3 16.16 16
  1354.4 17.29 17
  1354.5 18.42 18
  1354.6 18.09 18
  1354.7 16.31 16
  1354.9 14.65 14
  1355.0 16.67 16
  1355.1 19.44 19
  1355.2 20.98 20
  1355.3 20.38 20
  1356.3 10.6 10
  1356.4 12.72 12
  1356.5 15.18 15
  1356.6 17.84 17
  1356.7 20.56 20
  1356.8 22.73 22
  1356.9 23.53 23
  1357.0 22.61 22
  1357.1 20.45 20
  1357.2 18.32 18
  1357.4 18.0 17
  1357.5 18.92 18
  1357.6 19.36 19
  1357.7 19.34 19
  1357.8 19.01 18
  1357.9 18.13 18
  1358.0 16.84 16
  1358.2 16.03 16
  1358.3 16.95 16
  1358.4 18.64 18
  1358.5 20.98 20
  1358.6 23.07 23
  1358.7 23.36 23
  1358.8 21.48 21
  1358.9 18.87 18
  1359.0 16.86 16
  1359.1 15.77 15
  1359.7 15.12 15
  1359.8 16.49 16
  1359.9 18.12 18
  1360.0 19.05 19
  1360.1 19.14 19
  1360.2 18.91 18
  1360.3 18.57 18
  1360.4 17.59 17
  1360.7 15.41 15
  1360.8 17.23 17
  1360.9 19.53 19
  1361.0 21.43 21
  1361.1 22.64 22
  1361.2 23.45 23
  1361.3 23.95 23
  1361.4 23.33 23
  1361.5 21.08 21
  1361.6 18.32 18
  1362.3 16.77 16
  1362.4 17.81 17
  1362.5 19.11 19
  1362.6 20.79 20
  1362.7 22.49 22
  1362.8 23.05 23
  1362.9 21.37 21
  1363.0 17.99 17
  1363.2 15.9 15
  1363.3 18.25 18
  1363.4 19.95 19
  1363.5 19.67 19
  1363.6 18.24 18
  1363.7 16.82 16
  1363.8 15.52 15
  1363.9 14.1 14
  1364.5 10.39 10
  1364.6 12.22 12
  1364.7 16.21 16
  1364.8 19.78 19
  1364.9 21.43 21
  1365.0 21.8 21
  1365.1 21.84 21
  1365.2 21.04 21
  1365.3 18.09 18
  1365.4 13.62 13
  1365.6 11.28 11
  1365.7 15.02 15
  1365.8 18.42 18
  1365.9 18.89 18
  1366.0 16.81 16
  1366.8 15.46 15
  1366.9 17.0 16
  1367.0 19.61 19
  1367.1 22.09 22
  1367.2 23.16 23
  1367.3 22.17 22
  1367.4 20.24 20
  1367.5 19.29 19
  1367.6 19.55 19
  1367.7 19.08 19
  1367.8 16.68 16
  1367.9 13.49 13
  1368.1 11.8 11
  1368.2 14.42 14
  1368.3 18.26 18
  1368.4 21.83 21
  1368.5 23.89 23
  1368.6 24.14 24
  1368.7 22.58 22
  1368.8 19.52 19
  1368.9 15.78 15
  1369.0 12.72 12
  1369.2 11.41 11
  1369.3 12.52 12
  1369.4 14.11 14
  1369.5 15.8 15
  1369.6 17.13 17
  1369.7 17.73 17
  1369.8 17.59 17
  1369.9 16.77 16
  1370.2 15.05 15
  1370.3 16.51 16
  1370.4 18.46 18
  1370.5 19.93 19
  1370.6 20.65 20
  1370.7 21.23 21
  1370.8 22.16 22
  1370.9 23.1 23
  1371.0 22.8 22
  1371.1 20.47 20
  1371.2 16.7 16
  1371.4 13.27 13
  1371.5 15.91 15
  1371.6 19.65 19
  1371.7 22.02 21
  1371.8 22.02 21
  1371.9 20.11 20
  1372.0 17.2 17
  1372.1 14.31 14
  1372.2 12.48 12
  1372.4 12.26 12
  1372.5 12.64 12
  1372.6 14.24 14
  1372.7 18.23 18
  1372.8 23.25 23
  1372.9 26.02 25
  1373.0 24.79 24
  1373.1 21.09 21
  1373.2 18.09 18
  1373.3 17.35 17
  1373.4 17.83 17
  1373.5 17.53 17
  1373.6 15.67 15
  1373.9 13.31 13
  1374.0 16.04 16
  1374.1 19.0 18
  1374.2 20.59 20
  1374.3 20.25 20
  1374.4 18.78 18
  1374.5 17.51 17
  1374.6 16.61 16
  1374.7 15.53 15
  1375.0 14.0 13
  1375.1 15.25 15
  1375.2 16.35 16
  1375.3 16.25 16
  1375.4 14.46 14
  1375.7 12.65 12
  1375.8 14.94 14
  1375.9 16.09 16
  1376.0 15.74 15
  1376.1 14.61 14
  1376.4 12.4 12
  1376.5 14.96 14
  1376.6 18.82 18
  1376.7 21.94 21
  1376.8 22.94 22
  1376.9 21.82 21
  1377.0 19.4 19
  1377.1 16.75 16
  1377.2 14.6 14
  1377.3 12.77 12
  1377.4 10.66 10
  1377.6 9.02 9
  1377.7 11.36 11
  1377.8 14.13 14
  1377.9 15.13 15
  1378.0 13.97 13
  1378.2 12.03 12
  1378.3 13.96 13
  1378.4 16.93 16
  1378.5 19.29 19
  1378.6 20.01 19
  1378.7 19.14 19
  1378.9 17.29 17
  1379.0 18.53 18
  1379.1 20.2 20
  1379.2 20.34 20
  1379.3 18.23 18
  1379.4 15.13 15
  1380.2 11.3 11
  1380.3 13.11 13
  1380.4 15.7 15
  1380.5 17.03 17
  1380.6 16.6 16
  1380.7 15.31 15
  1380.8 14.21 14
  1381.0 13.32 13
  1381.1 14.02 14
  1381.2 15.63 15
  1381.3 17.53 17
  1381.4 18.97 18
  1381.5 19.74 19
  1381.6 20.22 20
  1381.7 20.99 20
  1381.8 21.93 21
  1381.9 22.12 22
  1382.0 20.86 20
  1382.1 19.07 19
  1383.2 13.1 13
  1383.3 14.44 14
  1383.4 16.47 16
  1383.5 18.79 18
  1383.6 21.35 21
  1383.7 23.5 23
  1383.8 24.04 24
  1383.9 22.74 22
  1384.0 20.72 20
  1384.1 19.34 19
  1384.2 18.89 18
  1384.3 18.63 18
  1384.4 17.83 17
  1384.5 16.47 16
  1384.6 15.0 14
  1385.3 14.04 14
  1385.4 14.62 14
  1385.5 16.44 16
  1385.6 18.84 18
  1385.7 20.82 20
  1385.8 21.73 21
  1385.9 21.32 21
  1386.0 19.68 19
  1386.2 17.66 17
  1386.3 19.7 19
  1386.4 21.77 21
  1386.5 20.92 20
  1386.6 17.01 16
  1386.9 14.05 14
  1387.0 16.95 16
  1387.1 19.52 19
  1387.2 21.48 21
  1387.3 22.32 22
  1387.4 21.24 21
  1387.5 18.63 18
  1387.8 15.58 15
  1387.9 17.96 17
  1388.0 21.1 21
  1388.1 23.82 23
  1388.2 25.44 25
  1388.3 26.11 26
  1388.4 26.04 26
  1388.5 24.91 24
  1388.6 22.29 22
  1388.7 18.23 18
  1388.8 13.65 13
  1389.0 8.68 8
  1389.1 10.58 10
  1389.2 15.6 15
  1389.3 22.21 22
  1389.4 28.0 27
  1389.5 31.31 31
  1389.6 31.86 31
  1389.7 30.45 30
  1389.8 28.66 28
  1391.0 12.23 12
  1391.1 13.75 13
  1391.2 18.64 18
  1391.3 25.59 25
  1391.4 31.57 31
  1391.5 33.88 33
  1391.6 32.08 32
  1391.7 27.6 27
  1391.8 22.23 22
  1391.9 17.07 17
  1392.0 12.75 12
  1392.1 9.37 9
  1392.3 6.16 6
  1392.4 8.17 8
  1392.5 12.73 12
  1392.6 17.86 17
  1392.7 21.76 21
  1392.8 24.52 24
  1392.9 26.82 26
  1393.0 27.83 27
  1393.1 25.57 25
  1393.2 19.6 19
  1393.3 12.2 12
  1393.4 6.42 6
  1393.6 3.75 3
  1393.7 5.25 5
  1393.8 7.6 7
  1393.9 11.08 11
  1394.0 16.1 16
  1394.1 22.0 21
  1394.2 27.06 27
  1394.3 29.5 29
  1394.4 28.77 28
  1394.5 25.97 25
  1394.6 22.67 22
  1394.7 18.95 18
  1394.8 13.65 13
  1394.9 6.82 6
  1395.1 0.0 0
  1395.2 3.57 3
  1395.3 9.3 9
  1395.4 14.23 14
  1395.5 17.08 17
  1395.6 18.26 18
  1395.7 19.22 19
  1395.8 21.1 21
  1395.9 23.3 23
  1396.0 24.09 24
  1396.1 22.71 22
  1396.2 19.89 19
  1396.3 16.21 16
  1396.4 11.47 11
  1396.5 6.5 6
  1396.7 3.69 3
  1396.8 7.04 7
  1396.9 11.91 11
  1397.0 17.02 17
  1397.1 21.49 21
  1397.2 24.29 24
  1397.3 25.26 25
  1397.4 25.51 25
  1397.5 26.18 26
  1397.6 26.54 26
  1397.7 24.54 24
  1397.8 19.21 19
  1397.9 12.03 12
  1398.2 7.07 7
  1398.3 12.01 11
  1398.4 16.82 16
  1398.5 20.01 19
  1398.6 21.64 21
  1398.7 22.92 22
  1398.8 25.02 24
  1398.9 27.97 27
  1399.0 30.4 30
  1399.1 30.67 30
  1399.2 27.97 27
  1399.3 22.43 22
  1399.4 15.07 15
  1399.5 7.62 7
  1399.6 2.2 2
//
