ACCESSION: MSBNK-RIKEN_NPDepo-NGA03681
RECORD_TITLE: Ajmaline; LC-ESI-QQQ; MS2; Frag=135.0V CID@25.0; [M+HCOO]-
DATE: 2018.04.04
AUTHORS: Nogawa T, Okano A, CSRS, RIKEN
LICENSE: CC BY
COMMENT: Origin: Plant
COMMENT: Formula(Parent): C20H26N2O2
COMMENT: Bottle Name:Ajmaline
COMMENT: PRIME Parent Name:Ajmaline
COMMENT: PRIME in-house No.:V0319
COMMENT: SubCategory_DNP: Monoterpenoid indole alkaloids, Ajmaline alkaloids, Indole alkaloids
CH$NAME: Ajmalin
CH$NAME: Cardiorythmine
CH$NAME: Raugalline
CH$NAME: Rauwolfine
CH$NAME: Tachmalin
CH$NAME: Ajmalan-17,21-diol
CH$NAME: (13S,16S,18S,1R,14R,17R)-13-ethyl-8-methyl-8,15-diazahexacyclo(14.2.1.0(1,9).0(2,7).0(10,15).0(12,17))nonadeca-2(7),3,5-triene-14,18-diol
CH$NAME: Ajmaline
CH$COMPOUND_CLASS: Alkaloids
CH$FORMULA: C20H26N2O2
CH$EXACT_MASS: 326.4424
CH$SMILES: CC[C@H]1C2CC3C4N(C)c5ccccc5[C@]45C[C@@H](C2C5O)N3[C@@H]1O
CH$IUPAC: InChI=1S/C20H26N2O2/c1-3-10-11-8-14-17-20(12-6-4-5-7-13(12)21(17)2)9-15(16(11)18(20)23)22(14)19(10)24/h4-7,10-11,14-19,23-24H,3,8-9H2,1-2H3/t10-,11?,14?,15-,16?,17?,18?,19+,20+/m0/s1
CH$LINK: CAS 4360-12-7
CH$LINK: CHEMSPIDER 10469368
CH$LINK: INCHIKEY CJDRUOGAGYHKKD-GHVJXGQCSA-N
AC$INSTRUMENT: Agilent 6410 Triple Quadrupole LC/MS system
AC$INSTRUMENT_TYPE: LC-ESI-QQQ
AC$MASS_SPECTROMETRY: MS_TYPE MS2
AC$MASS_SPECTROMETRY: ION_MODE NEGATIVE
MS$FOCUSED_ION: PRECURSOR_TYPE [M+HCOO]-
PK$SPLASH: splash10-006w-4888890000-9d1f827e98fb89ee207c
PK$NUM_PEAK: 4242
PK$PEAK: m/z int. rel.int.
  50.7 7.38 7
  50.8 15.0 14
  50.9 22.66 22
  51.0 23.98 23
  51.1 18.31 18
  51.3 8.78 8
  51.4 13.05 13
  51.5 20.48 20
  51.6 24.85 24
  51.7 22.15 22
  51.8 14.31 14
  52.0 8.05 8
  52.1 13.74 13
  52.2 19.52 19
  52.3 20.55 20
  52.4 16.62 16
  53.2 11.29 11
  53.3 16.05 16
  53.4 21.74 21
  53.5 23.16 23
  53.6 18.04 18
  54.5 6.2 6
  54.6 16.83 16
  54.7 27.73 27
  54.8 30.48 30
  54.9 22.77 22
  55.0 10.77 10
  55.2 6.26 6
  55.3 14.08 14
  55.4 19.16 19
  55.5 16.87 16
  55.6 9.79 9
  55.8 6.65 6
  55.9 14.01 13
  56.0 21.4 21
  56.1 23.66 23
  56.2 20.14 20
  56.3 14.36 14
  56.5 12.46 12
  56.6 16.87 16
  56.7 19.8 19
  56.8 17.72 17
  56.9 11.68 11
  57.1 8.92 8
  57.2 16.21 16
  57.3 22.86 22
  57.4 22.2 22
  57.5 13.42 13
  57.7 0.0 0
  57.8 7.2 7
  57.9 17.92 17
  58.0 22.57 22
  58.1 18.45 18
  58.4 11.8 11
  58.5 18.31 18
  58.6 22.86 22
  58.7 22.15 22
  58.8 17.31 17
  59.0 11.34 11
  59.1 14.63 14
  59.2 19.36 19
  59.3 20.8 20
  59.4 16.83 16
  59.6 8.8 8
  59.7 13.58 13
  59.8 21.65 21
  59.9 26.29 26
  60.0 23.62 23
  60.1 16.07 16
  60.3 10.52 10
  60.4 16.35 16
  60.5 22.18 22
  60.6 22.36 22
  60.7 16.19 16
  60.9 8.32 8
  61.0 14.54 14
  61.1 22.36 22
  61.2 24.97 24
  61.3 20.28 20
  61.4 12.64 12
  61.6 11.5 11
  61.7 18.54 18
  61.8 23.09 23
  61.9 20.62 20
  62.0 12.89 12
  62.2 7.52 7
  62.3 15.11 15
  62.4 23.05 23
  62.5 24.33 24
  62.6 17.65 17
  62.8 5.4 5
  62.9 10.59 10
  63.0 19.82 19
  63.1 25.01 24
  63.2 21.83 21
  63.3 13.21 13
  63.5 7.32 7
  63.6 14.4 14
  63.7 21.67 21
  63.8 23.14 23
  63.9 18.31 18
  64.1 12.78 12
  64.2 18.86 18
  64.3 25.31 25
  64.4 25.93 25
  64.5 19.73 19
  64.6 11.34 11
  64.8 9.26 9
  64.9 16.58 16
  65.0 23.0 22
  65.1 23.39 23
  65.2 17.83 17
  65.4 11.04 11
  65.5 16.37 16
  65.6 22.22 22
  65.7 22.25 22
  65.8 15.48 15
  66.0 5.37 5
  66.1 10.79 10
  66.2 19.16 19
  66.3 23.73 23
  66.4 21.17 21
  66.5 13.99 13
  66.7 9.63 9
  66.8 17.17 17
  66.9 24.78 24
  67.0 25.56 25
  67.1 18.4 18
  68.0 6.95 6
  68.1 15.32 15
  68.2 21.44 21
  68.3 20.32 20
  68.4 13.85 13
  68.6 8.05 8
  68.7 12.41 12
  68.8 16.83 16
  68.9 16.85 16
  69.0 12.0 11
  69.2 5.44 5
  69.3 10.97 10
  69.4 19.62 19
  69.5 25.19 25
  69.6 23.48 23
  69.7 16.03 16
  69.9 8.57 8
  70.0 14.4 14
  70.1 20.32 20
  70.2 19.94 19
  70.3 13.28 13
  70.5 8.87 8
  70.6 19.32 19
  70.7 30.73 30
  70.8 33.58 33
  70.9 25.63 25
  71.0 14.01 13
  71.2 9.56 9
  71.3 16.1 16
  71.4 21.12 21
  71.5 20.32 20
  71.6 14.2 14
  71.8 7.93 7
  71.9 13.72 13
  72.0 20.37 20
  72.1 22.13 22
  72.2 17.6 17
  72.5 10.4 10
  72.6 17.95 17
  72.7 23.39 23
  72.8 21.65 21
  72.9 14.06 14
  73.1 7.34 7
  73.2 13.47 13
  73.3 19.23 19
  73.4 18.61 18
  73.5 12.14 12
  73.7 8.89 8
  73.8 17.97 17
  73.9 27.0 26
  74.0 29.01 28
  74.1 22.93 22
  74.2 13.76 13
  74.4 9.81 9
  74.5 16.44 16
  74.6 21.74 21
  74.7 20.48 20
  74.8 13.72 13
  75.0 8.78 8
  75.1 15.48 15
  75.2 22.47 22
  75.3 23.8 23
  75.4 17.74 17
  75.7 9.69 9
  75.8 18.79 18
  75.9 24.85 24
  76.0 23.55 23
  76.1 16.92 16
  76.3 10.27 10
  76.4 15.0 14
  76.5 20.42 20
  76.6 21.38 21
  76.7 16.69 16
  76.9 8.02 8
  77.0 12.46 12
  77.1 20.16 20
  77.2 24.1 24
  77.3 20.23 20
  77.5 7.16 7
  77.6 11.71 11
  77.7 22.43 22
  77.8 29.84 29
  77.9 26.84 26
  78.0 16.0 15
  78.2 7.59 7
  78.3 16.14 16
  78.4 24.55 24
  78.5 25.47 25
  78.6 19.04 19
  79.4 9.99 9
  79.5 13.92 13
  79.6 21.93 21
  79.7 27.48 27
  79.8 25.67 25
  79.9 17.56 17
  80.1 7.25 7
  80.2 12.8 12
  80.3 21.15 21
  80.4 25.45 25
  80.5 22.61 22
  80.6 15.45 15
  80.8 11.29 11
  80.9 17.81 17
  81.0 23.39 23
  81.1 22.29 22
  81.2 15.13 15
  81.4 7.61 7
  81.5 13.42 13
  81.6 20.21 20
  81.7 21.86 21
  81.8 17.31 17
  82.0 10.15 10
  82.1 14.91 14
  82.2 21.49 21
  82.3 23.8 23
  82.4 19.11 19
  82.5 10.97 10
  82.7 8.14 8
  82.8 15.11 15
  82.9 21.12 21
  83.0 21.63 21
  83.1 16.96 16
  83.3 11.18 11
  83.4 15.0 14
  83.5 19.82 19
  83.6 21.17 21
  83.7 17.47 17
  84.6 9.24 9
  84.7 15.39 15
  84.8 21.97 21
  84.9 24.03 24
  85.0 20.48 20
  85.1 14.49 14
  85.3 12.32 12
  85.4 17.65 17
  85.5 22.41 22
  85.6 22.84 22
  85.7 19.36 19
  85.9 15.59 15
  86.0 18.72 18
  86.1 21.99 21
  86.2 21.54 21
  86.3 16.32 16
  86.5 7.25 7
  86.6 11.04 11
  86.7 17.81 17
  86.8 21.4 21
  86.9 18.36 18
  87.1 7.73 7
  87.2 11.82 11
  87.3 21.06 21
  87.4 27.27 27
  87.5 24.74 24
  87.6 16.12 16
  87.8 10.52 10
  87.9 17.56 17
  88.0 24.55 24
  88.1 25.72 25
  88.2 19.66 19
  88.5 9.58 9
  88.6 18.59 18
  88.7 25.17 25
  88.8 23.55 23
  88.9 15.41 15
  89.1 8.98 8
  89.2 16.37 16
  89.3 23.94 23
  89.4 25.49 25
  89.5 20.74 20
  90.3 10.7 10
  90.4 14.27 14
  90.5 21.65 21
  90.6 26.41 26
  90.7 23.82 23
  90.8 15.61 15
  91.0 9.1 9
  91.1 16.39 16
  91.2 23.66 23
  91.3 23.96 23
  91.4 16.83 16
  91.6 7.86 7
  91.7 15.57 15
  91.8 26.43 26
  91.9 31.85 31
  92.0 27.32 27
  92.1 16.6 16
  92.3 7.61 7
  92.4 13.85 13
  92.5 20.78 20
  92.6 23.05 23
  92.7 20.0 19
  92.9 14.45 14
  93.0 18.68 18
  93.1 24.83 24
  93.2 26.7 26
  93.3 21.49 21
  93.4 12.94 12
  93.6 9.88 9
  93.7 16.99 16
  93.8 23.57 23
  93.9 24.67 24
  94.0 19.43 19
  94.2 10.65 10
  94.3 15.2 15
  94.4 20.94 20
  94.5 21.35 21
  94.6 15.66 15
  94.8 6.9 6
  94.9 10.27 10
  95.0 17.65 17
  95.1 26.27 26
  95.2 31.28 31
  95.3 28.21 28
  95.4 19.3 19
  96.2 10.27 10
  96.3 18.02 18
  96.4 22.52 22
  96.5 20.16 20
  96.8 13.37 13
  96.9 19.64 19
  97.0 23.57 23
  97.1 20.87 20
  97.2 12.99 12
  97.4 6.04 6
  97.5 13.44 13
  97.6 22.13 22
  97.7 24.9 24
  97.8 19.94 19
  98.1 13.4 13
  98.2 21.15 21
  98.3 25.74 25
  98.4 23.09 23
  98.5 15.43 15
  98.7 10.45 10
  98.8 17.49 17
  98.9 24.3 24
  99.0 24.49 24
  99.1 17.38 17
  99.3 6.24 6
  99.4 11.87 11
  99.5 20.64 20
  99.6 24.76 24
  99.7 20.53 20
  100.0 10.77 10
  100.1 20.12 20
  100.2 26.29 26
  100.3 23.59 23
  100.4 14.15 14
  100.6 4.55 4
  100.7 10.91 10
  100.8 18.98 18
  100.9 22.02 21
  101.0 18.13 18
  101.3 11.73 11
  101.4 18.13 18
  101.5 22.68 22
  101.6 21.86 21
  101.7 16.67 16
  101.9 11.02 11
  102.0 14.95 14
  102.1 19.18 19
  102.2 19.02 19
  102.3 13.95 13
  102.5 8.37 8
  102.6 14.24 14
  102.7 21.33 21
  102.8 22.98 22
  102.9 17.58 17
  103.1 7.91 7
  103.2 12.37 12
  103.3 19.87 19
  103.4 24.69 24
  103.5 23.32 23
  103.6 16.87 16
  103.8 9.01 9
  103.9 13.85 13
  104.0 20.21 20
  104.1 22.11 22
  104.2 17.95 17
  104.5 11.8 11
  104.6 17.28 17
  104.7 20.55 20
  104.8 18.66 18
  104.9 13.12 13
  105.1 10.49 10
  105.2 16.71 16
  105.3 22.04 22
  105.4 21.4 21
  105.5 15.32 15
  105.7 8.89 8
  105.8 14.77 14
  105.9 22.11 22
  106.0 24.67 24
  106.1 20.44 20
  106.4 13.44 13
  106.5 19.68 19
  106.6 23.25 23
  106.7 20.94 20
  106.8 14.77 14
  107.0 11.61 11
  107.1 17.72 17
  107.2 23.41 23
  107.3 24.19 24
  107.4 20.07 20
  107.5 14.65 14
  107.7 13.19 13
  107.8 17.51 17
  107.9 20.69 20
  108.0 19.09 19
  108.1 13.49 13
  108.3 10.72 10
  108.4 17.1 17
  108.5 22.15 22
  108.6 20.42 20
  108.7 12.78 12
  108.9 7.11 7
  109.0 15.68 15
  109.1 25.19 25
  109.2 28.07 28
  109.3 21.95 21
  109.4 11.27 11
  109.6 4.8 4
  109.7 12.96 12
  109.8 20.46 20
  109.9 19.66 19
  110.0 11.0 10
  110.2 3.54 3
  110.3 12.05 12
  110.4 21.22 21
  110.5 24.35 24
  110.6 20.23 20
  110.7 13.05 13
  110.9 10.72 10
  111.0 16.62 16
  111.1 20.58 20
  111.2 18.38 18
  111.4 9.17 9
  111.5 13.31 13
  111.6 21.63 21
  111.7 26.47 26
  111.8 23.71 23
  111.9 16.46 16
  112.1 12.09 12
  112.2 17.95 17
  112.3 24.49 24
  112.4 26.57 26
  112.5 21.47 21
  112.6 12.3 12
  112.8 10.15 10
  112.9 18.72 18
  113.0 23.91 23
  113.1 20.55 20
  113.2 11.75 11
  113.4 4.94 4
  113.5 11.23 11
  113.6 19.55 19
  113.7 24.58 24
  113.8 23.05 23
  113.9 16.46 16
  114.1 11.25 11
  114.2 16.92 16
  114.3 21.42 21
  114.4 20.14 20
  114.5 14.47 14
  114.7 9.44 9
  114.8 14.81 14
  114.9 22.31 22
  115.0 25.88 25
  115.1 21.7 21
  115.2 12.48 12
  115.4 8.82 8
  115.5 17.67 17
  115.6 23.96 23
  115.7 21.67 21
  115.8 13.63 13
  116.0 11.75 11
  116.1 20.32 20
  116.2 25.83 25
  116.3 22.54 22
  116.4 12.87 12
  116.6 6.9 6
  116.7 16.46 16
  116.8 26.34 26
  116.9 29.13 29
  117.0 23.62 23
  117.1 15.29 15
  117.9 8.41 8
  118.0 15.23 15
  118.1 21.93 21
  118.2 23.5 23
  118.3 19.46 19
  118.5 12.35 12
  118.6 16.21 16
  118.7 22.29 22
  118.8 24.94 24
  118.9 21.01 20
  119.0 13.1 13
  119.2 8.46 8
  119.3 14.95 14
  119.4 21.42 21
  119.5 22.73 22
  119.6 18.02 18
  120.4 6.13 6
  120.5 10.93 10
  120.6 18.68 18
  120.7 22.38 22
  120.8 19.62 19
  121.0 12.0 11
  121.1 15.64 15
  121.2 22.36 22
  121.3 26.15 26
  121.4 22.59 22
  121.5 13.21 13
  121.7 4.76 4
  121.8 12.46 12
  121.9 21.03 21
  122.0 22.98 22
  122.1 17.72 17
  122.3 9.3 9
  122.4 13.47 13
  122.5 20.58 20
  122.6 25.38 25
  122.7 24.03 24
  122.8 17.31 17
  123.0 8.96 8
  123.1 13.49 13
  123.2 19.48 19
  123.3 20.92 20
  123.4 16.07 16
  123.7 9.37 9
  123.8 15.11 15
  123.9 18.88 18
  124.0 17.76 17
  124.3 10.93 10
  124.4 17.81 17
  124.5 24.01 23
  124.6 23.78 23
  124.7 17.03 17
  124.9 8.25 8
  125.0 13.17 13
  125.1 19.64 19
  125.2 22.09 22
  125.3 18.7 18
  125.4 12.39 12
  125.6 9.63 9
  125.7 15.8 15
  125.8 21.1 21
  125.9 20.37 20
  126.2 13.01 12
  126.3 20.58 20
  126.4 26.73 26
  126.5 26.43 26
  126.6 19.82 19
  126.9 11.96 11
  127.0 19.41 19
  127.1 24.12 24
  127.2 21.44 21
  127.3 13.44 13
  127.5 8.57 8
  127.6 15.55 15
  127.7 21.81 21
  127.8 22.04 22
  127.9 16.19 16
  128.1 8.18 8
  128.2 13.51 13
  128.3 20.51 20
  128.4 22.5 22
  128.5 17.65 17
  128.7 7.77 7
  128.8 11.98 11
  128.9 20.05 20
  129.0 25.42 25
  129.1 23.8 23
  129.2 16.76 16
  129.4 10.04 10
  129.5 15.55 15
  129.6 22.04 22
  129.7 23.69 23
  129.8 18.66 18
  130.0 8.8 8
  130.1 13.49 13
  130.2 20.58 20
  130.3 23.05 23
  130.4 18.47 18
  130.5 10.79 10
  130.7 8.16 8
  130.8 15.25 15
  130.9 21.67 21
  131.0 21.67 21
  131.1 15.0 14
  131.3 7.54 7
  131.4 14.84 14
  131.5 23.75 23
  131.6 26.98 26
  131.7 22.68 22
  131.8 15.2 15
  132.0 12.39 12
  132.1 17.7 17
  132.2 21.44 21
  132.3 19.75 19
  132.4 13.72 13
  132.6 10.15 10
  132.7 17.9 17
  132.8 25.72 25
  132.9 26.59 26
  133.0 19.8 19
  133.9 7.36 7
  134.0 17.58 17
  134.1 26.82 26
  134.2 28.44 28
  134.3 22.38 22
  134.4 14.47 14
  134.6 13.63 13
  134.7 18.93 18
  134.8 22.18 22
  134.9 20.58 20
  135.0 14.93 14
  135.2 7.43 7
  135.3 11.29 11
  135.4 17.44 17
  135.5 20.6 20
  135.6 18.79 18
  135.8 14.49 14
  135.9 17.7 17
  136.0 21.08 21
  136.1 20.07 20
  136.2 14.11 14
  136.4 6.68 6
  136.5 12.44 12
  136.6 20.9 20
  136.7 25.47 25
  136.8 22.66 22
  136.9 15.25 15
  137.1 11.59 11
  137.2 18.02 18
  137.3 22.86 22
  137.4 21.24 21
  137.5 14.01 13
  137.7 3.73 3
  137.8 8.07 8
  137.9 16.78 16
  138.0 23.62 23
  138.1 23.57 23
  138.2 17.51 17
  138.4 10.49 10
  138.5 14.65 14
  138.6 19.62 19
  138.7 20.64 20
  138.8 16.78 16
  139.0 12.09 12
  139.1 17.9 17
  139.2 24.12 24
  139.3 24.14 24
  139.4 16.96 16
  139.6 4.87 4
  139.7 9.85 9
  139.8 19.27 19
  139.9 25.7 25
  140.0 24.28 24
  140.1 17.17 17
  140.3 11.96 11
  140.4 18.06 18
  140.5 23.55 23
  140.6 22.5 22
  140.7 15.2 15
  140.9 8.39 8
  141.0 15.84 15
  141.1 24.19 24
  141.2 26.41 26
  141.3 20.94 20
  141.6 13.79 13
  141.7 21.65 21
  141.8 26.34 26
  141.9 24.19 24
  142.0 17.95 17
  142.2 15.11 15
  142.3 20.39 20
  142.4 24.51 24
  142.5 23.73 23
  142.6 18.34 18
  142.8 10.29 10
  142.9 14.01 13
  143.0 20.55 20
  143.1 24.46 24
  143.2 22.34 22
  143.3 15.68 15
  143.5 8.23 8
  143.6 13.51 13
  143.7 21.86 21
  143.8 26.54 26
  143.9 23.0 22
  144.1 10.59 10
  144.2 17.49 17
  144.3 29.56 29
  144.4 34.41 34
  144.5 26.66 26
  144.6 13.65 13
  144.8 10.61 10
  144.9 19.32 19
  145.0 25.19 25
  145.1 24.3 24
  145.2 18.77 18
  145.4 14.72 14
  145.5 19.84 19
  145.6 24.26 24
  145.7 22.09 22
  145.8 12.96 12
  146.0 1.65 1
  146.1 10.11 10
  146.2 22.84 22
  146.3 29.68 29
  146.4 25.42 25
  146.5 14.65 14
  146.7 9.17 9
  146.8 17.08 17
  146.9 23.21 23
  147.0 22.13 22
  147.1 14.75 14
  147.3 6.61 6
  147.4 13.35 13
  147.5 21.88 21
  147.6 24.76 24
  147.7 19.89 19
  147.9 11.11 11
  148.0 16.96 16
  148.1 25.79 25
  148.2 30.48 30
  148.3 26.79 26
  148.4 17.06 17
  148.6 7.36 7
  148.7 13.17 13
  148.8 19.75 19
  148.9 21.24 21
  149.0 16.9 16
  149.2 8.73 8
  149.3 12.71 12
  149.4 20.19 20
  149.5 24.81 24
  149.6 21.83 21
  149.7 13.15 13
  149.9 6.54 6
  150.0 13.67 13
  150.1 21.06 21
  150.2 22.29 22
  150.3 16.6 16
  150.5 7.52 7
  150.6 12.76 12
  150.7 19.75 19
  150.8 21.4 21
  150.9 15.59 15
  151.2 7.45 7
  151.3 16.21 16
  151.4 22.93 22
  151.5 22.57 22
  151.6 16.1 16
  151.8 10.11 10
  151.9 17.63 17
  152.0 26.09 26
  152.1 27.25 27
  152.2 18.82 18
  152.4 2.33 2
  152.5 8.46 8
  152.6 20.37 20
  152.7 28.1 28
  152.8 25.56 25
  152.9 15.5 15
  153.1 7.22 7
  153.2 15.11 15
  153.3 22.93 22
  153.4 24.03 24
  153.5 18.91 18
  154.3 11.96 11
  154.4 14.84 14
  154.5 18.52 18
  154.6 20.83 20
  154.7 20.21 20
  154.8 16.8 16
  155.0 12.73 12
  155.1 16.78 16
  155.2 22.04 22
  155.3 22.75 22
  155.4 16.85 16
  155.6 6.81 6
  155.7 11.8 11
  155.8 18.88 18
  155.9 21.49 21
  156.0 17.67 17
  156.3 10.65 10
  156.4 17.9 17
  156.5 24.05 24
  156.6 23.59 23
  156.7 16.23 16
  156.9 6.97 6
  157.0 13.31 13
  157.1 21.67 21
  157.2 24.85 24
  157.3 20.0 19
  157.4 10.95 10
  157.6 7.64 7
  157.7 17.03 17
  157.8 25.79 25
  157.9 26.66 26
  158.0 19.55 19
  158.8 6.42 6
  158.9 11.41 11
  159.0 20.64 20
  159.1 26.43 26
  159.2 23.53 23
  159.3 14.65 14
  159.5 8.07 8
  159.6 14.49 14
  159.7 21.17 21
  159.8 22.43 22
  159.9 17.26 17
  160.1 8.25 8
  160.2 13.35 13
  160.3 20.96 20
  160.4 24.12 24
  160.5 20.51 20
  160.6 14.24 14
  160.8 12.69 12
  160.9 15.61 15
  161.0 16.44 16
  161.1 14.68 14
  161.4 11.29 11
  161.5 14.65 14
  161.6 18.59 18
  161.7 19.25 19
  161.8 14.68 14
  162.0 4.5 4
  162.1 9.63 9
  162.2 20.94 20
  162.3 29.56 29
  162.4 26.93 26
  162.5 14.45 14
  162.7 4.41 4
  162.8 14.86 14
  162.9 24.33 24
  163.0 25.13 25
  163.1 18.47 18
  164.0 10.63 10
  164.1 16.99 16
  164.2 22.41 22
  164.3 22.27 22
  164.4 16.83 16
  164.6 10.17 10
  164.7 14.24 14
  164.8 18.75 18
  164.9 18.82 18
  165.0 13.9 13
  165.2 5.37 5
  165.3 9.12 9
  165.4 16.92 16
  165.5 22.63 22
  165.6 20.85 20
  165.7 12.8 12
  165.9 7.59 7
  166.0 15.66 15
  166.1 22.77 22
  166.2 22.7 22
  166.3 15.87 15
  166.5 6.2 6
  166.6 11.36 11
  166.7 19.3 19
  166.8 23.25 23
  166.9 19.87 19
  167.2 11.84 11
  167.3 18.95 18
  167.4 22.91 22
  167.5 20.42 20
  167.6 14.24 14
  167.8 10.36 10
  167.9 15.52 15
  168.0 20.67 20
  168.1 20.76 20
  168.2 15.13 15
  168.4 6.13 6
  168.5 10.79 10
  168.6 19.0 18
  168.7 24.28 24
  168.8 22.34 22
  168.9 15.16 15
  169.1 10.47 10
  169.2 17.9 17
  169.3 25.63 25
  169.4 26.66 26
  169.5 19.3 19
  169.7 6.17 6
  169.8 11.87 11
  169.9 21.15 21
  170.0 25.47 25
  170.1 20.55 20
  170.2 10.49 10
  170.4 6.68 6
  170.5 16.67 16
  170.6 25.61 25
  170.7 25.99 25
  170.8 18.18 18
  171.0 10.33 10
  171.1 18.22 18
  171.2 25.97 25
  171.3 26.09 26
  171.4 18.61 18
  171.5 9.9 9
  171.7 10.2 10
  171.8 16.48 16
  171.9 19.66 19
  172.0 17.49 17
  172.2 10.24 10
  172.3 13.26 13
  172.4 20.64 20
  172.5 27.14 27
  172.6 26.57 26
  172.7 17.97 17
  172.9 5.62 5
  173.0 12.19 12
  173.1 21.38 21
  173.2 25.56 25
  173.3 22.09 22
  173.4 14.63 14
  173.6 10.84 10
  173.7 17.17 17
  173.8 22.36 22
  173.9 21.22 21
  174.0 14.75 14
  174.2 9.51 9
  174.3 16.0 15
  174.4 23.39 23
  174.5 25.72 25
  174.6 21.15 21
  174.9 12.78 12
  175.0 20.35 20
  175.1 24.49 24
  175.2 20.1 20
  175.3 10.13 10
  175.5 5.4 5
  175.6 15.18 15
  175.7 24.3 24
  175.8 25.19 25
  175.9 17.63 17
  176.1 6.31 6
  176.2 12.0 11
  176.3 19.5 19
  176.4 21.03 21
  176.5 14.7 14
  176.7 4.14 4
  176.8 10.79 10
  176.9 21.01 20
  177.0 25.9 25
  177.1 20.99 20
  177.2 10.2 10
  177.4 3.09 3
  177.5 10.86 10
  177.6 18.66 18
  177.7 20.32 20
  177.8 15.27 15
  178.0 6.81 6
  178.1 12.12 12
  178.2 20.23 20
  178.3 24.1 24
  178.4 19.91 19
  178.5 10.2 10
  178.7 3.06 3
  178.8 12.55 12
  178.9 23.71 23
  179.0 27.85 27
  179.1 22.59 22
  179.2 13.65 13
  180.0 7.73 7
  180.1 15.45 15
  180.2 23.57 23
  180.3 25.97 25
  180.4 20.74 20
  180.5 12.51 12
  180.7 11.57 11
  180.8 17.67 17
  180.9 20.39 20
  181.0 17.33 17
  181.9 9.17 9
  182.0 17.06 17
  182.1 23.25 23
  182.2 22.61 22
  182.3 16.21 16
  182.5 8.3 8
  182.6 13.17 13
  182.7 20.46 20
  182.8 23.78 23
  182.9 19.8 19
  183.0 12.14 12
  183.2 10.61 10
  183.3 17.58 17
  183.4 22.57 22
  183.5 21.42 21
  183.6 15.34 15
  183.8 10.15 10
  183.9 15.89 15
  184.0 22.15 22
  184.1 23.73 23
  184.2 19.57 19
  184.4 11.34 11
  184.5 15.2 15
  184.6 21.26 21
  184.7 23.14 23
  184.8 18.11 18
  185.0 7.57 7
  185.1 13.05 13
  185.2 23.25 23
  185.3 30.16 30
  185.4 28.3 28
  185.5 19.36 19
  185.7 8.55 8
  185.8 13.85 13
  185.9 21.15 21
  186.0 23.82 23
  186.1 19.43 19
  186.2 11.8 11
  186.4 9.37 9
  186.5 16.03 16
  186.6 21.99 21
  186.7 22.66 22
  186.8 17.92 17
  187.0 12.78 12
  187.1 18.93 18
  187.2 25.33 25
  187.3 24.99 24
  187.4 16.71 16
  187.6 2.65 2
  187.7 8.12 8
  187.8 18.95 18
  187.9 26.79 26
  188.0 26.15 26
  188.1 19.34 19
  188.3 13.97 13
  188.4 19.34 19
  188.5 24.9 24
  188.6 25.65 25
  188.7 20.39 20
  188.9 11.98 11
  189.0 17.24 17
  189.1 24.28 24
  189.2 26.34 26
  189.3 21.35 21
  189.4 13.49 13
  189.6 11.66 11
  189.7 18.72 18
  189.8 23.82 23
  189.9 21.93 21
  190.0 14.24 14
  190.2 6.95 6
  190.3 13.01 12
  190.4 19.87 19
  190.5 21.58 21
  190.6 16.76 16
  190.8 6.74 6
  190.9 11.13 11
  191.0 19.82 19
  191.1 25.24 25
  191.2 22.31 22
  191.3 13.53 13
  191.5 9.24 9
  191.6 17.76 17
  191.7 25.15 25
  191.8 25.15 25
  191.9 18.11 18
  192.1 7.86 7
  192.2 12.41 12
  192.3 19.0 18
  192.4 21.12 21
  192.5 16.69 16
  192.7 6.68 6
  192.8 10.79 10
  192.9 19.27 19
  193.0 25.56 25
  193.1 24.28 24
  193.2 15.82 15
  193.4 6.26 6
  193.5 12.71 12
  193.6 19.82 19
  193.7 21.26 21
  193.8 16.87 16
  194.0 10.29 10
  194.1 14.36 14
  194.2 20.21 20
  194.3 22.68 22
  194.4 19.55 19
  194.7 12.0 11
  194.8 19.91 19
  194.9 27.41 27
  195.0 27.98 27
  195.1 20.67 20
  195.2 11.32 11
  195.4 10.59 10
  195.5 17.74 17
  195.6 21.79 21
  195.7 18.98 18
  196.0 10.75 10
  196.1 18.59 18
  196.2 24.9 24
  196.3 23.94 23
  196.4 16.51 16
  196.6 9.37 9
  196.7 15.5 15
  196.8 22.02 21
  196.9 23.48 23
  197.0 19.3 19
  197.3 13.85 13
  197.4 18.7 18
  197.5 21.54 21
  197.6 19.5 19
  197.7 13.81 13
  197.9 11.02 11
  198.0 18.2 18
  198.1 25.19 25
  198.2 26.15 26
  198.3 20.28 20
  198.5 9.58 9
  198.6 14.61 14
  198.7 23.5 23
  198.8 28.03 28
  198.9 23.96 23
  199.0 15.23 15
  199.2 12.6 12
  199.3 19.52 19
  199.4 23.62 23
  199.5 20.44 20
  199.6 12.6 12
  199.8 9.47 9
  199.9 16.21 16
  200.0 21.26 21
  200.1 20.71 20
  200.2 15.91 15
  200.4 11.09 11
  200.5 15.16 15
  200.6 20.44 20
  200.7 22.47 22
  200.8 19.0 18
  200.9 12.28 12
  201.1 8.92 8
  201.2 15.36 15
  201.3 21.65 21
  201.4 22.2 22
  201.5 16.48 16
  201.7 8.07 8
  201.8 13.12 13
  201.9 20.21 20
  202.0 22.77 22
  202.1 18.27 18
  202.4 10.61 10
  202.5 19.02 19
  202.6 25.29 25
  202.7 23.73 23
  202.8 14.88 14
  203.0 4.73 4
  203.1 12.19 12
  203.2 21.31 21
  203.3 24.03 24
  203.4 19.04 19
  203.6 11.29 11
  203.7 17.08 17
  203.8 24.51 24
  203.9 26.7 26
  204.0 21.24 21
  204.1 12.44 12
  204.3 10.31 10
  204.4 18.34 18
  204.5 24.53 24
  204.6 23.48 23
  204.7 16.28 16
  204.9 8.39 8
  205.0 13.03 13
  205.1 18.38 18
  205.2 19.75 19
  205.3 16.37 16
  205.5 9.88 9
  205.6 13.85 13
  205.7 20.6 20
  205.8 23.98 23
  205.9 19.91 19
  206.0 11.02 11
  206.2 5.88 5
  206.3 13.24 13
  206.4 20.44 20
  206.5 22.13 22
  206.6 17.67 17
  206.8 8.3 8
  206.9 12.25 12
  207.0 19.91 19
  207.1 24.87 24
  207.2 23.16 23
  207.3 16.53 16
  207.5 10.33 10
  207.6 15.84 15
  207.7 22.29 22
  207.8 23.78 23
  207.9 18.79 18
  208.1 9.74 9
  208.2 14.24 14
  208.3 21.12 21
  208.4 23.69 23
  208.5 19.09 19
  208.6 11.04 11
  208.8 8.5 8
  208.9 15.89 15
  209.0 22.34 22
  209.1 22.57 22
  209.2 16.83 16
  209.4 10.08 10
  209.5 15.61 15
  209.6 21.86 21
  209.7 22.77 22
  209.8 17.42 17
  210.0 9.03 9
  210.1 13.53 13
  210.2 20.96 20
  210.3 25.65 25
  210.4 23.89 23
  210.5 17.1 17
  210.7 10.17 10
  210.8 14.84 14
  210.9 20.05 20
  211.0 20.74 20
  211.1 16.3 16
  211.3 9.85 9
  211.4 14.36 14
  211.5 20.83 20
  211.6 23.53 23
  211.7 19.59 19
  212.0 11.98 11
  212.1 19.82 19
  212.2 25.08 25
  212.3 23.59 23
  212.4 17.03 17
  212.6 9.3 9
  212.7 13.24 13
  212.8 19.27 19
  212.9 22.22 22
  213.0 19.04 19
  213.9 11.43 11
  214.0 18.29 18
  214.1 22.93 22
  214.2 21.49 21
  214.3 15.87 15
  214.5 9.47 9
  214.6 13.24 13
  214.7 20.12 20
  214.8 24.9 24
  214.9 22.75 22
  215.2 13.05 13
  215.3 22.15 22
  215.4 28.1 28
  215.5 24.65 24
  215.6 14.7 14
  215.8 7.84 7
  215.9 16.21 16
  216.0 24.78 24
  216.1 26.93 26
  216.2 22.15 22
  217.1 9.05 9
  217.2 16.1 16
  217.3 23.69 23
  217.4 24.97 24
  217.5 18.52 18
  217.7 6.54 6
  217.8 12.57 12
  217.9 23.09 23
  218.0 29.13 29
  218.1 25.4 25
  218.2 15.09 15
  218.4 6.1 6
  218.5 12.48 12
  218.6 18.84 18
  218.7 19.0 18
  218.8 13.08 13
  219.0 7.68 7
  219.1 14.45 14
  219.2 21.35 21
  219.3 22.25 22
  219.4 17.08 17
  219.6 10.88 10
  219.7 15.59 15
  219.8 21.49 21
  219.9 23.25 23
  220.0 18.34 18
  220.3 8.94 8
  220.4 18.77 18
  220.5 26.47 26
  220.6 26.11 26
  220.7 18.43 18
  221.6 9.26 9
  221.7 17.01 16
  221.8 24.49 24
  221.9 25.63 25
  222.0 19.02 19
  222.2 7.13 7
  222.3 12.23 12
  222.4 20.26 20
  222.5 23.34 23
  222.6 19.11 19
  222.8 10.68 10
  222.9 15.57 15
  223.0 22.95 22
  223.1 26.11 26
  223.2 21.9 21
  223.3 13.74 13
  223.5 9.6 9
  223.6 14.77 14
  223.7 18.61 18
  223.8 17.81 17
  223.9 13.12 13
  224.1 8.73 8
  224.2 14.04 14
  224.3 20.05 20
  224.4 21.22 21
  224.5 16.3 16
  224.8 9.47 9
  224.9 17.08 17
  225.0 24.05 24
  225.1 24.74 24
  225.2 18.34 18
  225.4 8.69 8
  225.5 14.31 14
  225.6 21.7 21
  225.7 23.82 23
  225.8 18.84 18
  226.7 9.08 9
  226.8 16.71 16
  226.9 23.89 23
  227.0 25.01 24
  227.1 19.52 19
  227.3 9.97 9
  227.4 14.29 14
  227.5 21.63 21
  227.6 25.29 25
  227.7 21.6 21
  227.8 13.37 13
  228.0 8.55 8
  228.1 15.41 15
  228.2 22.09 22
  228.3 22.7 22
  228.4 16.69 16
  228.6 7.27 7
  228.7 12.19 12
  228.8 19.32 19
  228.9 22.09 22
  229.0 18.29 18
  229.3 12.32 12
  229.4 18.84 18
  229.5 22.89 22
  229.6 20.6 20
  229.7 14.06 14
  229.9 11.71 11
  230.0 18.63 18
  230.1 23.94 23
  230.2 22.68 22
  230.3 15.73 15
  230.5 7.8 7
  230.6 13.42 13
  230.7 21.4 21
  230.8 25.51 25
  230.9 22.47 22
  231.0 14.65 14
  231.2 8.78 8
  231.3 14.93 14
  231.4 21.08 21
  231.5 21.9 21
  231.6 17.31 17
  231.8 11.5 11
  231.9 16.51 16
  232.0 22.45 22
  232.1 23.3 23
  232.2 17.72 17
  232.4 8.62 8
  232.5 13.17 13
  232.6 20.19 20
  232.7 23.71 23
  232.8 20.48 20
  232.9 12.46 12
  233.1 7.75 7
  233.2 16.67 16
  233.3 25.38 25
  233.4 26.15 26
  233.5 18.56 18
  233.6 9.37 9
  234.3 6.36 6
  234.4 10.95 10
  234.5 19.39 19
  234.6 25.17 25
  234.7 23.66 23
  234.8 16.23 16
  235.0 9.03 9
  235.1 15.75 15
  235.2 23.87 23
  235.3 26.29 26
  235.4 20.76 20
  235.5 11.82 11
  235.7 9.97 9
  235.8 17.47 17
  235.9 22.7 22
  236.0 21.47 21
  236.1 15.52 15
  236.3 10.24 10
  236.4 13.9 13
  236.5 17.1 17
  236.6 16.19 16
  236.8 8.71 8
  236.9 11.29 11
  237.0 19.48 19
  237.1 27.64 27
  237.2 29.45 29
  237.3 23.59 23
  237.4 14.38 14
  237.6 8.14 8
  237.7 13.67 13
  237.8 19.78 19
  237.9 21.19 21
  238.0 16.51 16
  238.2 7.61 7
  238.3 12.19 12
  238.4 20.16 20
  238.5 25.01 24
  238.6 22.57 22
  238.9 13.24 13
  239.0 21.65 21
  239.1 26.41 26
  239.2 21.65 21
  239.5 10.36 10
  239.6 20.74 20
  239.7 28.35 28
  239.8 27.39 27
  239.9 19.07 19
  240.2 9.44 9
  240.3 17.63 17
  240.4 22.86 22
  240.5 20.62 20
  240.6 13.21 13
  240.8 10.15 10
  240.9 18.31 18
  241.0 25.15 25
  241.1 24.97 24
  241.2 18.38 18
  241.4 8.85 8
  241.5 13.31 13
  241.6 20.64 20
  241.7 24.07 24
  241.8 20.23 20
  242.0 10.17 10
  242.1 14.68 14
  242.2 22.7 22
  242.3 26.82 26
  242.4 22.66 22
  242.5 12.8 12
  242.7 5.67 5
  242.8 13.72 13
  242.9 22.47 22
  243.0 25.33 25
  243.1 20.76 20
  244.0 11.2 11
  244.1 20.12 20
  244.2 26.36 26
  244.3 24.65 24
  244.4 16.8 16
  244.6 9.1 9
  244.7 15.07 15
  244.8 22.86 22
  244.9 26.2 26
  245.0 22.09 22
  245.1 13.95 13
  245.3 11.36 11
  245.4 19.18 19
  245.5 25.13 25
  245.6 23.71 23
  245.7 16.32 16
  245.9 9.1 9
  246.0 14.08 14
  246.1 19.62 19
  246.2 20.55 20
  246.3 15.84 15
  246.5 6.86 6
  246.6 10.97 10
  246.7 18.13 18
  246.8 21.54 21
  246.9 17.86 17
  247.1 7.84 7
  247.2 12.19 12
  247.3 20.28 20
  247.4 24.99 24
  247.5 22.22 22
  247.6 14.4 14
  247.8 8.87 8
  247.9 15.45 15
  248.0 22.57 22
  248.1 24.33 24
  248.2 19.23 19
  248.4 8.64 8
  248.5 13.28 13
  248.6 21.63 21
  248.7 26.09 26
  248.8 22.45 22
  248.9 13.67 13
  249.1 7.98 7
  249.2 15.25 15
  249.3 22.04 22
  249.4 21.47 21
  249.5 13.37 13
  249.7 5.3 5
  249.8 14.27 14
  249.9 24.87 24
  250.0 28.92 28
  250.1 24.49 24
  250.2 16.32 16
  250.4 12.76 12
  250.5 19.3 19
  250.6 24.85 24
  250.7 24.28 24
  250.8 17.7 17
  251.0 8.21 8
  251.1 12.87 12
  251.2 20.39 20
  251.3 24.23 24
  251.4 20.92 20
  251.7 12.19 12
  251.8 20.83 20
  251.9 27.05 27
  252.0 24.58 24
  252.1 14.97 14
  252.3 6.04 6
  252.4 13.76 13
  252.5 22.86 22
  252.6 25.74 25
  252.7 19.84 19
  253.5 5.99 5
  253.6 11.48 11
  253.7 22.11 22
  253.8 28.05 28
  253.9 24.42 24
  254.0 15.02 15
  254.2 8.89 8
  254.3 16.87 16
  254.4 24.78 24
  254.5 25.1 25
  254.6 17.24 17
  254.8 6.36 6
  254.9 12.51 12
  255.0 21.06 21
  255.1 25.01 24
  255.2 21.81 21
  255.3 14.75 14
  255.5 9.67 9
  255.6 14.72 14
  255.7 20.12 20
  255.8 20.87 20
  255.9 16.05 16
  256.1 9.65 9
  256.2 14.79 14
  256.3 20.85 20
  256.4 21.42 21
  256.5 15.13 15
  256.7 5.1 5
  256.8 10.59 10
  256.9 19.41 19
  257.0 25.03 25
  257.1 23.87 23
  257.2 17.49 17
  257.4 10.86 10
  257.5 15.96 15
  257.6 21.44 21
  257.7 21.19 21
  257.8 14.68 14
  258.0 7.48 7
  258.1 14.04 14
  258.2 21.97 21
  258.3 24.78 24
  258.4 20.32 20
  258.5 12.25 12
  258.7 9.03 9
  258.8 17.12 17
  258.9 24.58 24
  259.0 24.71 24
  259.1 17.06 17
  260.0 10.59 10
  260.1 15.36 15
  260.2 19.09 19
  260.3 17.72 17
  260.6 10.13 10
  260.7 17.12 17
  260.8 22.7 22
  260.9 20.96 20
  261.0 12.51 12
  261.2 4.32 4
  261.3 12.94 12
  261.4 23.59 23
  261.5 28.07 28
  261.6 23.39 23
  261.7 13.72 13
  261.9 8.53 8
  262.0 16.07 16
  262.1 22.59 22
  262.2 22.2 22
  262.3 15.64 15
  262.5 8.94 8
  262.6 13.88 13
  262.7 18.84 18
  262.8 19.23 19
  262.9 14.63 14
  263.1 6.81 6
  263.2 11.82 11
  263.3 20.76 20
  263.4 26.13 26
  263.5 23.0 22
  263.6 14.22 14
  263.8 8.28 8
  263.9 13.81 13
  264.0 18.61 18
  264.1 19.62 19
  264.2 17.54 17
  264.4 14.56 14
  264.5 16.37 16
  264.6 18.84 18
  264.7 19.16 19
  264.8 15.82 15
  264.9 10.33 10
  265.1 8.62 8
  265.2 14.33 14
  265.3 19.73 19
  265.4 20.94 20
  265.5 17.63 17
  265.7 10.95 10
  265.8 14.31 14
  265.9 20.74 20
  266.0 24.42 24
  266.1 21.24 21
  266.2 13.37 13
  266.4 8.71 8
  266.5 15.13 15
  266.6 21.08 21
  266.7 21.42 21
  266.8 16.05 16
  267.0 10.17 10
  267.1 16.39 16
  267.2 23.39 23
  267.3 24.67 24
  267.4 19.04 19
  267.6 9.17 9
  267.7 13.47 13
  267.8 20.74 20
  267.9 24.87 24
  268.0 22.61 22
  268.1 15.84 15
  268.3 10.15 10
  268.4 15.59 15
  268.5 21.51 21
  268.6 22.45 22
  268.7 17.06 17
  268.9 7.13 7
  269.0 11.68 11
  269.1 18.88 18
  269.2 21.79 21
  269.5 17.67 17
  269.6 22.54 22
  269.7 26.38 26
  269.8 26.45 26
  269.9 22.25 22
  270.0 15.43 15
  270.2 10.45 10
  270.3 16.14 16
  270.4 21.95 21
  270.5 22.5 22
  270.6 17.35 17
  270.9 10.52 10
  271.0 16.64 16
  271.1 21.06 21
  271.2 20.19 20
  271.3 14.95 14
  271.5 10.11 10
  271.6 15.07 15
  271.7 20.44 20
  271.8 21.4 21
  271.9 17.49 17
  272.1 11.59 11
  272.2 15.66 15
  272.3 22.15 22
  272.4 25.7 25
  272.5 22.66 22
  272.6 14.61 14
  272.8 7.61 7
  272.9 13.24 13
  273.0 19.0 18
  273.1 19.25 19
  273.2 14.24 14
  273.4 9.53 9
  273.5 15.45 15
  273.6 22.82 22
  273.7 25.81 25
  273.8 21.79 21
  273.9 14.01 13
  274.1 12.07 12
  274.2 18.79 18
  274.3 22.41 22
  274.4 18.68 18
  274.5 10.38 10
  274.7 4.21 4
  274.8 9.65 9
  274.9 15.94 15
  275.0 18.56 18
  275.1 16.28 16
  275.3 10.65 10
  275.4 14.22 14
  275.5 19.91 19
  275.6 22.18 22
  275.7 18.06 18
  275.8 10.45 10
  276.0 8.07 8
  276.1 14.13 14
  276.2 17.99 17
  276.3 16.16 16
  276.6 8.98 8
  276.7 15.34 15
  276.8 22.02 21
  276.9 24.01 23
  277.0 20.16 20
  277.3 14.72 14
  277.4 20.71 20
  277.5 24.53 24
  277.6 22.11 22
  277.7 14.22 14
  277.9 5.9 5
  278.0 12.71 12
  278.1 21.08 21
  278.2 23.39 23
  278.3 17.42 17
  278.5 6.36 6
  278.6 11.75 11
  278.7 20.21 20
  278.8 24.26 24
  278.9 20.62 20
  279.0 12.78 12
  279.2 10.4 10
  279.3 18.22 18
  279.4 24.39 24
  279.5 23.71 23
  279.6 16.67 16
  279.8 7.27 7
  279.9 12.48 12
  280.0 19.87 19
  280.1 22.54 22
  280.2 18.29 18
  281.1 10.72 10
  281.2 17.97 17
  281.3 22.63 22
  281.4 20.6 20
  281.5 13.92 13
  281.7 9.76 9
  281.8 16.14 16
  281.9 23.07 23
  282.0 24.87 24
  282.1 19.52 19
  282.2 10.22 10
  282.4 5.85 5
  282.5 15.2 15
  282.6 24.37 24
  282.7 26.25 26
  282.8 20.83 20
  283.6 7.43 7
  283.7 12.07 12
  283.8 21.51 21
  283.9 27.87 27
  284.0 24.67 24
  284.1 13.85 13
  284.3 6.52 6
  284.4 16.9 16
  284.5 27.0 26
  284.6 28.51 28
  284.7 21.15 21
  285.6 8.32 8
  285.7 14.75 14
  285.8 21.19 21
  285.9 21.65 21
  286.0 15.64 15
  286.2 7.98 7
  286.3 13.88 13
  286.4 20.96 20
  286.5 22.63 22
  286.6 17.31 17
  286.8 7.59 7
  286.9 12.21 12
  287.0 20.14 20
  287.1 24.49 24
  287.2 20.87 20
  287.3 11.66 11
  287.5 5.1 5
  287.6 12.51 12
  287.7 19.78 19
  287.8 20.94 20
  287.9 16.1 16
  288.1 9.6 9
  288.2 13.99 13
  288.3 19.5 19
  288.4 20.92 20
  288.5 16.26 16
  288.8 7.64 7
  288.9 17.19 17
  289.0 25.83 25
  289.1 26.68 26
  289.2 19.87 19
  289.4 11.29 11
  289.5 17.01 16
  289.6 23.09 23
  289.7 22.79 22
  289.8 15.5 15
  290.0 5.26 5
  290.1 11.11 11
  290.2 20.58 20
  290.3 26.7 26
  290.4 25.1 25
  290.5 17.49 17
  290.7 9.42 9
  290.8 15.07 15
  290.9 21.49 21
  291.0 22.52 22
  291.1 17.28 17
  291.3 8.39 8
  291.4 12.51 12
  291.5 19.78 19
  291.6 24.17 24
  291.7 21.65 21
  291.8 13.99 13
  292.0 8.3 8
  292.1 16.21 16
  292.2 24.81 24
  292.3 26.36 26
  292.4 19.3 19
  292.6 7.84 7
  292.7 13.67 13
  292.8 21.74 21
  292.9 24.33 24
  293.0 19.02 19
  293.2 7.86 7
  293.3 12.25 12
  293.4 20.55 20
  293.5 25.77 25
  293.6 23.23 23
  293.7 15.07 15
  293.9 10.31 10
  294.0 17.97 17
  294.1 24.07 24
  294.2 22.41 22
  294.3 13.6 13
  294.5 5.58 5
  294.6 15.36 15
  294.7 26.31 26
  294.8 28.72 28
  294.9 21.24 21
  295.0 11.59 11
  295.2 12.03 12
  295.3 18.93 18
  295.4 23.18 23
  295.5 21.9 21
  295.6 16.21 16
  295.8 9.44 9
  295.9 14.72 14
  296.0 22.09 22
  296.1 25.01 24
  296.2 20.76 20
  296.4 10.81 10
  296.5 15.18 15
  296.6 22.47 22
  296.7 25.83 25
  296.8 22.15 22
  297.1 11.89 11
  297.2 21.99 21
  297.3 31.44 31
  297.4 31.73 31
  297.5 22.45 22
  297.7 8.94 8
  297.8 15.0 14
  297.9 23.37 23
  298.0 25.93 25
  298.1 20.58 20
  299.0 9.33 9
  299.1 16.19 16
  299.2 23.3 23
  299.3 24.6 24
  299.4 19.5 19
  299.6 10.54 10
  299.7 14.24 14
  299.8 21.28 21
  299.9 25.83 25
  300.0 23.37 23
  300.1 15.39 15
  300.3 10.29 10
  300.4 17.26 17
  300.5 22.2 22
  300.6 19.68 19
  300.7 12.0 11
  300.9 8.55 8
  301.0 15.8 15
  301.1 22.11 22
  301.2 22.31 22
  301.3 16.39 16
  301.6 7.64 7
  301.7 15.43 15
  301.8 22.13 22
  301.9 22.04 22
  302.0 15.09 15
  302.2 6.81 6
  302.3 13.08 13
  302.4 20.21 20
  302.5 21.31 21
  302.6 15.61 15
  302.8 5.85 5
  302.9 10.11 10
  303.0 17.92 17
  303.1 22.95 22
  303.2 21.06 21
  303.3 14.24 14
  303.5 9.56 9
  303.6 15.18 15
  303.7 21.01 20
  303.8 22.47 22
  303.9 18.63 18
  304.2 12.99 12
  304.3 19.71 19
  304.4 23.98 23
  304.5 21.44 21
  304.6 14.2 14
  304.8 11.73 11
  304.9 19.27 19
  305.0 24.62 24
  305.1 22.82 22
  305.2 15.82 15
  305.4 10.15 10
  305.5 15.91 15
  305.6 22.57 22
  305.7 24.12 24
  305.8 18.38 18
  306.7 9.69 9
  306.8 16.92 16
  306.9 25.17 25
  307.0 27.98 27
  307.1 23.27 23
  307.2 15.16 15
  307.4 10.95 10
  307.5 15.91 15
  307.6 19.41 19
  307.7 17.74 17
  308.0 10.75 10
  308.1 16.96 16
  308.2 22.25 22
  308.3 21.67 21
  308.4 15.89 15
  308.6 11.18 11
  308.7 16.55 16
  308.8 22.27 22
  308.9 23.69 23
  309.0 19.34 19
  309.1 11.64 11
  309.3 8.48 8
  309.4 17.08 17
  309.5 24.78 24
  309.6 24.99 24
  309.7 17.92 17
  309.9 9.4 9
  310.0 15.02 15
  310.1 21.26 21
  310.2 21.76 21
  310.3 16.16 16
  310.6 11.16 11
  310.7 17.19 17
  310.8 20.67 20
  310.9 18.93 18
  311.2 12.14 12
  311.3 18.29 18
  311.4 23.87 23
  311.5 23.5 23
  311.6 17.08 17
  311.8 10.24 10
  311.9 16.71 16
  312.0 23.98 23
  312.1 25.15 25
  312.2 19.23 19
  312.4 9.81 9
  312.5 14.75 14
  312.6 21.88 21
  312.7 24.71 24
  312.8 20.53 20
  312.9 12.71 12
  313.1 8.82 8
  313.2 15.25 15
  313.3 21.74 21
  313.4 23.53 23
  313.5 19.64 19
  313.8 13.03 13
  313.9 18.54 18
  314.0 21.35 21
  314.1 18.63 18
  314.2 13.21 13
  314.9 10.95 10
  315.0 16.67 16
  315.1 23.46 23
  315.2 24.97 24
  315.3 20.21 20
  315.4 13.28 13
  315.6 9.14 9
  315.7 13.88 13
  315.8 19.39 19
  315.9 21.17 21
  316.0 17.51 17
  316.1 11.02 11
  316.3 8.82 8
  316.4 16.21 16
  316.5 23.37 23
  316.6 24.33 24
  316.7 18.13 18
  316.9 8.16 8
  317.0 13.24 13
  317.1 20.53 20
  317.2 23.05 23
  317.3 18.18 18
  317.6 9.33 9
  317.7 17.47 17
  317.8 23.55 23
  317.9 22.77 22
  318.0 16.14 16
  318.2 7.54 7
  318.3 11.82 11
  318.4 18.29 18
  318.5 21.56 21
  318.6 19.16 19
  318.9 12.25 12
  319.0 18.15 18
  319.1 22.5 22
  319.2 21.1 21
  319.3 14.84 14
  319.5 8.94 8
  319.6 14.4 14
  319.7 20.51 20
  319.8 21.67 21
  319.9 16.9 16
  320.1 8.46 8
  320.2 13.9 13
  320.3 22.95 22
  320.4 27.66 27
  320.5 23.0 22
  320.6 12.39 12
  320.8 7.02 7
  320.9 15.78 15
  321.0 23.02 22
  321.1 22.7 22
  321.2 16.46 16
  321.4 11.96 11
  321.5 17.49 17
  321.6 22.15 22
  321.7 21.22 21
  321.8 14.88 14
  322.0 6.01 6
  322.1 10.7 10
  322.2 18.54 18
  322.3 23.66 23
  322.4 22.52 22
  322.5 16.76 16
  322.7 12.69 12
  322.8 18.13 18
  322.9 22.84 22
  323.0 21.93 21
  323.1 15.73 15
  323.3 8.32 8
  323.4 14.01 13
  323.5 21.88 21
  323.6 25.26 25
  323.7 20.9 20
  323.8 12.05 12
  324.0 8.71 8
  324.1 17.49 17
  324.2 24.49 24
  324.3 23.05 23
  324.4 14.7 14
  324.6 8.12 8
  324.7 15.78 15
  324.8 23.16 23
  324.9 23.53 23
  325.0 16.99 16
  325.2 9.28 9
  325.3 15.25 15
  325.4 22.82 22
  325.5 25.86 25
  325.6 22.36 22
  325.7 15.04 15
  325.9 9.42 9
  326.0 15.11 15
  326.1 21.72 21
  326.2 23.46 23
  326.3 18.61 18
  326.5 9.26 9
  326.6 14.33 14
  326.7 22.29 22
  326.8 25.72 25
  326.9 21.28 21
  327.0 12.55 12
  327.2 7.36 7
  327.3 14.79 14
  327.4 22.95 22
  327.5 25.7 25
  327.6 21.7 21
  327.8 14.31 14
  327.9 18.36 18
  328.0 23.8 23
  328.1 24.51 24
  328.2 17.97 17
  329.1 10.77 10
  329.2 20.0 19
  329.3 25.56 25
  329.4 23.18 23
  329.5 15.71 15
  329.7 10.15 10
  329.8 15.64 15
  329.9 20.67 20
  330.0 19.96 19
  330.1 13.65 13
  330.3 6.88 6
  330.4 12.73 12
  330.5 20.42 20
  330.6 24.26 24
  330.7 22.09 22
  330.8 16.62 16
  331.0 15.23 15
  331.1 20.26 20
  331.2 23.02 22
  331.3 20.0 19
  331.4 12.76 12
  331.6 6.52 6
  331.7 13.03 13
  331.8 21.63 21
  331.9 26.31 26
  332.0 24.03 24
  332.1 16.85 16
  332.3 9.72 9
  332.4 15.59 15
  332.5 22.59 22
  332.6 23.87 23
  332.7 17.51 17
  332.9 6.2 6
  333.0 11.41 11
  333.1 19.3 19
  333.2 22.27 22
  333.3 17.99 17
  333.4 10.88 10
  333.6 9.63 9
  333.7 16.62 16
  333.8 22.73 22
  333.9 22.52 22
  334.0 15.91 15
  334.2 11.2 11
  334.3 20.07 20
  334.4 27.8 27
  334.5 27.11 27
  334.6 18.84 18
  334.8 8.16 8
  334.9 13.63 13
  335.0 22.04 22
  335.1 26.79 26
  335.2 24.67 24
  335.3 17.99 17
  335.5 11.45 11
  335.6 15.84 15
  335.7 21.49 21
  335.8 23.16 23
  335.9 19.18 19
  336.1 12.21 12
  336.2 16.8 16
  336.3 23.23 23
  336.4 25.13 25
  336.5 19.73 19
  336.6 10.49 10
  336.8 6.31 6
  336.9 14.31 14
  337.0 21.31 21
  337.1 21.28 21
  337.2 14.59 14
  337.4 7.11 7
  337.5 13.72 13
  337.6 22.11 22
  337.7 25.49 25
  337.8 21.44 21
  338.7 12.35 12
  338.8 19.94 19
  338.9 25.88 25
  339.0 25.01 24
  339.1 17.65 17
  339.3 8.6 8
  339.4 14.95 14
  339.5 23.46 23
  339.6 26.59 26
  339.7 21.9 21
  339.8 13.81 13
  340.0 12.21 12
  340.1 19.18 19
  340.2 23.98 23
  340.3 22.02 21
  340.4 14.84 14
  340.6 10.77 10
  340.7 18.72 18
  340.8 26.15 26
  340.9 26.93 26
  341.0 20.76 20
  341.8 9.17 9
  341.9 12.8 12
  342.0 20.32 20
  342.1 25.65 25
  342.2 24.12 24
  342.3 16.92 16
  342.5 8.82 8
  342.6 13.65 13
  342.7 19.25 19
  342.8 19.66 19
  342.9 13.76 13
  343.1 6.36 6
  343.2 14.11 14
  343.3 24.39 24
  343.4 28.6 28
  343.5 23.11 23
  343.6 12.8 12
  343.8 9.26 9
  343.9 18.4 18
  344.0 26.25 26
  344.1 26.7 26
  344.2 19.75 19
  345.1 7.43 7
  345.2 17.83 17
  345.3 27.07 27
  345.4 27.46 27
  345.5 18.4 18
  345.8 7.0 6
  345.9 17.74 17
  346.0 24.42 24
  346.1 21.44 21
  346.4 11.91 11
  346.5 21.38 21
  346.6 27.32 27
  346.7 24.19 24
  346.8 14.68 14
  347.0 7.18 7
  347.1 14.56 14
  347.2 22.27 22
  347.3 23.82 23
  347.4 18.4 18
  347.7 11.59 11
  347.8 18.13 18
  347.9 22.06 22
  348.0 20.14 20
  348.1 14.2 14
  348.3 10.56 10
  348.4 16.69 16
  348.5 22.89 22
  348.6 23.39 23
  348.7 17.24 17
  348.9 6.84 6
  349.0 11.89 11
  349.1 20.42 20
  349.2 24.99 24
  349.3 21.65 21
  349.4 13.92 13
  349.6 10.93 10
  349.7 16.53 16
  349.8 20.35 20
  349.9 19.34 19
  350.1 12.3 12
  350.2 14.81 14
  350.3 21.72 21
  350.4 27.34 27
  350.5 25.88 25
  350.6 17.15 17
  350.8 4.46 4
  350.9 10.77 10
  351.0 21.44 21
  351.1 27.85 27
  351.2 25.13 25
  351.3 16.44 16
  351.5 9.83 9
  351.6 15.43 15
  351.7 20.87 20
  351.8 21.49 21
  351.9 16.85 16
  352.1 9.88 9
  352.2 14.47 14
  352.3 20.69 20
  352.4 22.31 22
  352.5 17.12 17
  352.7 6.95 6
  352.8 12.25 12
  352.9 21.74 21
  353.0 27.69 27
  353.1 25.17 25
  353.2 16.71 16
  353.4 9.74 9
  353.5 15.52 15
  353.6 21.65 21
  353.7 23.32 23
  353.8 19.5 19
  353.9 13.31 13
  354.1 11.68 11
  354.2 18.29 18
  354.3 24.01 23
  354.4 23.78 23
  354.5 17.88 17
  354.7 11.68 11
  354.8 15.64 15
  354.9 18.77 18
  355.0 17.19 17
  355.3 11.73 11
  355.4 18.63 18
  355.5 24.42 24
  355.6 23.85 23
  355.7 16.12 16
  355.9 3.29 3
  356.0 9.01 9
  356.1 18.27 18
  356.2 22.41 22
  356.3 18.22 18
  356.4 10.31 10
  356.6 9.01 9
  356.7 16.53 16
  356.8 22.93 22
  356.9 23.39 23
  357.0 17.33 17
  357.3 8.18 8
  357.4 17.26 17
  357.5 24.14 24
  357.6 22.79 22
  357.7 15.2 15
  357.9 9.85 9
  358.0 15.52 15
  358.1 19.98 19
  358.2 18.95 18
  358.3 12.96 12
  358.5 6.58 6
  358.6 13.53 13
  358.7 22.5 22
  358.8 25.81 25
  358.9 20.83 20
  359.2 12.32 12
  359.3 20.39 20
  359.4 25.29 25
  359.5 22.31 22
  359.6 13.99 13
  359.8 9.49 9
  359.9 17.33 17
  360.0 24.3 24
  360.1 23.71 23
  360.2 15.29 15
  360.4 4.07 4
  360.5 11.16 11
  360.6 20.83 20
  360.7 24.46 24
  360.8 19.27 19
  361.1 10.24 10
  361.2 20.32 20
  361.3 28.26 28
  361.4 27.11 27
  361.5 16.78 16
  361.7 1.07 1
  361.8 8.3 8
  361.9 20.48 20
  362.0 27.59 27
  362.1 24.51 24
  362.2 15.04 15
  362.4 8.64 8
  362.5 15.11 15
  362.6 20.83 20
  362.7 20.85 20
  362.8 15.43 15
  363.0 7.66 7
  363.1 12.23 12
  363.2 19.07 19
  363.3 21.56 21
  363.4 17.26 17
  363.6 9.21 9
  363.7 14.49 14
  363.8 22.04 22
  363.9 24.92 24
  364.0 20.19 20
  364.1 11.29 11
  364.3 8.37 8
  364.4 17.35 17
  364.5 24.87 24
  364.6 24.6 24
  364.7 17.1 17
  365.6 11.25 11
  365.7 18.04 18
  365.8 22.11 22
  365.9 20.58 20
  366.0 15.43 15
  366.2 12.71 12
  366.3 18.95 18
  366.4 25.19 25
  366.5 25.67 25
  366.6 19.14 19
  366.8 7.43 7
  366.9 12.64 12
  367.0 21.54 21
  367.1 25.31 25
  367.2 19.57 19
  367.5 8.6 8
  367.6 18.13 18
  367.7 24.71 24
  367.8 23.41 23
  367.9 15.89 15
  368.1 6.79 6
  368.2 11.59 11
  368.3 18.47 18
  368.4 21.4 21
  368.5 17.58 17
  368.8 9.05 9
  368.9 18.06 18
  369.0 25.31 25
  369.1 24.58 24
  369.2 16.6 16
  370.0 9.12 9
  370.1 14.95 14
  370.2 21.49 21
  370.3 22.79 22
  370.4 17.67 17
  370.5 9.95 9
  370.7 5.88 5
  370.8 11.93 11
  370.9 18.79 18
  371.0 20.96 20
  371.1 16.94 16
  371.3 9.08 9
  371.4 13.03 13
  371.5 18.68 18
  371.6 20.76 20
  371.7 17.38 17
  371.8 11.18 11
  372.0 8.5 8
  372.1 14.79 14
  372.2 21.17 21
  372.3 22.77 22
  372.4 19.0 18
  372.6 14.22 14
  372.7 18.86 18
  372.8 23.37 23
  372.9 22.61 22
  373.0 16.6 16
  373.2 10.45 10
  373.3 16.62 16
  373.4 24.19 24
  373.5 26.09 26
  373.6 19.39 19
  373.7 8.8 8
  373.9 6.88 6
  374.0 16.78 16
  374.1 23.73 23
  374.2 21.93 21
  374.3 13.88 13
  374.5 9.3 9
  374.6 17.1 17
  374.7 24.97 24
  374.8 27.02 26
  374.9 21.67 21
  375.0 12.92 12
  375.2 9.65 9
  375.3 16.58 16
  375.4 21.56 21
  375.5 20.0 19
  375.6 13.44 13
  375.8 9.37 9
  375.9 16.83 16
  376.0 24.42 24
  376.1 25.22 25
  376.2 17.97 17
  376.4 6.31 6
  376.5 12.62 12
  376.6 21.72 21
  376.7 24.94 24
  376.8 19.55 19
  376.9 11.07 11
  377.1 9.63 9
  377.2 15.96 15
  377.3 20.8 20
  377.4 20.69 20
  377.5 15.94 15
  377.7 9.76 9
  377.8 14.81 14
  377.9 21.99 21
  378.0 25.29 25
  378.1 21.6 21
  378.2 13.85 13
  378.4 10.36 10
  378.5 17.24 17
  378.6 22.68 22
  378.7 21.47 21
  378.8 14.75 14
  379.0 9.47 9
  379.1 15.64 15
  379.2 21.33 21
  379.3 21.19 21
  379.4 15.13 15
  379.6 4.82 4
  379.7 8.85 8
  379.8 16.9 16
  379.9 22.13 22
  380.0 20.03 20
  380.1 12.73 12
  380.3 8.23 8
  380.4 14.93 14
  380.5 21.28 21
  380.6 21.99 21
  380.7 16.78 16
  380.9 8.85 8
  381.0 13.42 13
  381.1 20.58 20
  381.2 24.49 24
  381.3 21.56 21
  381.4 13.53 13
  381.6 7.45 7
  381.7 15.2 15
  381.8 23.32 23
  381.9 24.83 24
  382.0 18.88 18
  382.2 9.28 9
  382.3 14.31 14
  382.4 21.58 21
  382.5 24.19 24
  382.6 19.55 19
  382.8 8.82 8
  382.9 13.44 13
  383.0 21.67 21
  383.1 25.45 25
  383.2 20.26 20
  383.3 9.74 9
  383.5 4.73 4
  383.6 14.11 14
  383.7 22.89 22
  383.8 23.94 23
  383.9 16.62 16
  384.1 5.49 5
  384.2 12.21 12
  384.3 21.03 21
  384.4 23.39 23
  384.5 17.44 17
  384.8 9.4 9
  384.9 16.87 16
  385.0 21.88 21
  385.1 21.06 21
  385.2 16.37 16
  385.4 12.35 12
  385.5 14.91 14
  385.6 17.72 17
  385.7 18.02 18
  385.8 14.22 14
  386.0 5.14 5
  386.1 9.3 9
  386.2 17.86 17
  386.3 23.11 23
  386.4 20.3 20
  386.5 12.39 12
  386.7 9.19 9
  386.8 17.4 17
  386.9 24.83 24
  387.0 25.17 25
  387.1 18.11 18
  387.4 10.29 10
  387.5 16.03 16
  387.6 18.5 18
  387.7 16.12 16
  387.9 12.55 12
  388.0 18.15 18
  388.1 25.49 25
  388.2 27.94 27
  388.3 22.15 22
  388.4 11.66 11
  388.6 5.92 5
  388.7 14.31 14
  388.8 22.36 22
  388.9 23.82 23
  389.0 18.45 18
  389.3 11.8 11
  389.4 18.4 18
  389.5 22.57 22
  389.6 20.23 20
  389.9 11.11 11
  390.0 19.91 19
  390.1 27.27 27
  390.2 26.82 26
  390.3 18.54 18
  390.5 4.92 4
  390.6 10.22 10
  390.7 20.48 20
  390.8 26.73 26
  390.9 23.32 23
  391.0 13.99 13
  391.2 10.81 10
  391.3 18.88 18
  391.4 24.49 24
  391.5 22.59 22
  391.6 14.88 14
  391.8 9.12 9
  391.9 17.26 17
  392.0 26.06 26
  392.1 27.71 27
  392.2 20.3 20
  392.5 10.29 10
  392.6 19.68 19
  392.7 25.4 25
  392.8 23.16 23
  392.9 15.64 15
  393.1 11.09 11
  393.2 18.36 18
  393.3 25.47 25
  393.4 26.36 26
  393.5 20.8 20
  393.6 13.92 13
  393.8 13.05 13
  393.9 17.76 17
  394.0 20.39 20
  394.1 17.67 17
  394.3 7.36 7
  394.4 10.97 10
  394.5 19.96 19
  394.6 26.38 26
  394.7 24.14 24
  394.8 15.41 15
  395.0 8.34 8
  395.1 15.25 15
  395.2 22.95 22
  395.3 25.24 25
  395.4 20.46 20
  396.3 13.17 13
  396.4 20.21 20
  396.5 25.56 25
  396.6 24.65 24
  396.7 17.44 17
  396.9 6.72 6
  397.0 11.59 11
  397.1 19.36 19
  397.2 23.27 23
  397.3 20.07 20
  397.4 12.69 12
  397.6 8.44 8
  397.7 14.72 14
  397.8 20.35 20
  397.9 20.1 20
  398.0 14.36 14
  398.2 9.42 9
  398.3 15.43 15
  398.4 21.81 21
  398.5 23.14 23
  398.6 18.18 18
  398.9 11.07 11
  399.0 17.95 17
  399.1 22.06 22
  399.2 20.14 20
  399.5 15.27 15
  399.6 21.15 21
  399.7 24.6 24
  399.8 22.34 22
  399.9 15.73 15
  400.1 8.53 8
  400.2 13.56 13
  400.3 20.51 20
  400.4 23.5 23
  400.5 19.84 19
  400.6 12.78 12
  400.8 11.32 11
  400.9 18.5 18
  401.0 23.91 23
  401.1 22.79 22
  401.2 16.32 16
  401.4 10.79 10
  401.5 16.67 16
  401.6 22.82 22
  401.7 23.71 23
  401.8 18.63 18
  402.0 10.56 10
  402.1 15.07 15
  402.2 21.93 21
  402.3 25.1 25
  402.4 21.51 21
  402.5 14.08 14
  402.7 11.39 11
  402.8 18.11 18
  402.9 24.12 24
  403.0 24.83 24
  403.1 19.66 19
  403.3 10.79 10
  403.4 15.29 15
  403.5 21.88 21
  403.6 23.73 23
  403.7 18.61 18
  403.9 8.3 8
  404.0 13.26 13
  404.1 22.13 22
  404.2 27.07 27
  404.3 23.16 23
  404.4 13.49 13
  404.6 8.23 8
  404.7 17.22 17
  404.8 25.86 25
  404.9 27.18 27
  405.0 20.42 20
  405.3 12.6 12
  405.4 20.0 19
  405.5 24.65 24
  405.6 23.89 23
  405.7 19.43 19
  406.5 10.24 10
  406.6 15.16 15
  406.7 21.79 21
  406.8 24.23 24
  406.9 19.94 19
  407.0 12.53 12
  407.2 11.23 11
  407.3 18.24 18
  407.4 23.53 23
  407.5 22.18 22
  407.6 14.59 14
  407.8 6.49 6
  407.9 14.06 14
  408.0 22.52 22
  408.1 23.94 23
  408.2 17.49 17
  408.4 7.22 7
  408.5 11.96 11
  408.6 19.98 19
  408.7 24.87 24
  408.8 22.89 22
  408.9 16.48 16
  409.1 13.76 13
  409.2 19.89 19
  409.3 24.23 24
  409.4 21.93 21
  409.5 14.38 14
  409.7 8.44 8
  409.8 14.97 14
  409.9 22.15 22
  410.0 24.26 24
  410.1 19.46 19
  410.2 11.32 11
  410.4 8.34 8
  410.5 16.05 16
  410.6 22.66 22
  410.7 22.54 22
  410.8 16.16 16
  411.1 9.51 9
  411.2 16.53 16
  411.3 21.12 21
  411.4 18.95 18
  411.5 12.0 11
  411.7 9.17 9
  411.8 15.43 15
  411.9 19.16 19
  412.0 16.37 16
  412.3 10.15 10
  412.4 17.44 17
  412.5 23.11 23
  412.6 22.82 22
  412.7 16.85 16
  412.9 8.53 8
  413.0 13.65 13
  413.1 20.94 20
  413.2 23.59 23
  413.3 18.72 18
  413.4 9.9 9
  413.6 5.92 5
  413.7 14.13 14
  413.8 22.22 22
  413.9 23.69 23
  414.0 17.42 17
  414.2 7.29 7
  414.3 12.92 12
  414.4 20.92 20
  414.5 23.59 23
  414.6 18.5 18
  414.8 6.86 6
  414.9 11.55 11
  415.0 20.74 20
  415.1 26.73 26
  415.2 24.51 24
  415.3 16.67 16
  415.5 13.03 13
  415.6 19.94 19
  415.7 24.51 24
  415.8 22.02 21
  415.9 14.24 14
  416.1 7.27 7
  416.2 14.15 14
  416.3 23.07 23
  416.4 26.79 26
  416.5 22.06 22
  416.6 12.73 12
  416.8 8.8 8
  416.9 16.62 16
  417.0 23.3 23
  417.1 23.55 23
  417.2 18.13 18
  417.4 12.89 12
  417.5 18.43 18
  417.6 23.8 23
  417.7 23.21 23
  417.8 16.39 16
  418.0 6.72 6
  418.1 12.25 12
  418.2 20.3 20
  418.3 23.66 23
  418.4 19.87 19
  418.7 13.37 13
  418.8 19.73 19
  418.9 23.71 23
  419.0 21.97 21
  419.1 15.8 15
  419.3 8.12 8
  419.4 12.83 12
  419.5 20.37 20
  419.6 24.17 24
  419.7 20.39 20
  419.8 12.12 12
  420.0 10.59 10
  420.1 19.18 19
  420.2 24.81 24
  420.3 22.22 22
  420.4 13.83 13
  420.6 7.82 7
  420.7 15.34 15
  420.8 23.57 23
  420.9 25.7 25
  421.0 19.78 19
  421.3 10.4 10
  421.4 18.82 18
  421.5 23.75 23
  421.6 21.12 21
  421.7 14.11 14
  421.9 12.07 12
  422.0 18.91 18
  422.1 24.03 24
  422.2 22.73 22
  422.3 15.48 15
  422.5 5.05 5
  422.6 9.51 9
  422.7 16.8 16
  422.8 20.67 20
  422.9 18.5 18
  423.2 12.99 12
  423.3 18.24 18
  423.4 21.79 21
  423.5 19.94 19
  423.6 13.33 13
  423.8 6.74 6
  423.9 13.15 13
  424.0 21.6 21
  424.1 25.42 25
  424.2 21.51 21
  424.3 13.47 13
  424.5 11.13 11
  424.6 18.27 18
  424.7 22.5 22
  424.8 19.11 19
  424.9 10.56 10
  425.1 4.12 4
  425.2 10.7 10
  425.3 17.4 17
  425.4 18.75 18
  425.5 14.79 14
  426.3 10.79 10
  426.4 14.84 14
  426.5 21.38 21
  426.6 24.1 24
  426.7 19.2 19
  426.8 10.36 10
  427.0 7.2 7
  427.1 14.36 14
  427.2 20.74 20
  427.3 21.81 21
  427.4 16.87 16
  427.6 6.81 6
  427.7 11.09 11
  427.8 18.91 18
  427.9 23.34 23
  428.0 21.35 21
  428.1 15.98 15
  428.3 13.63 13
  428.4 17.9 17
  428.5 20.96 20
  428.6 19.02 19
  428.7 12.67 12
  428.9 8.23 8
  429.0 16.0 15
  429.1 24.33 24
  429.2 25.63 25
  429.3 18.2 18
  429.6 9.26 9
  429.7 18.5 18
  429.8 25.26 25
  429.9 25.15 25
  430.0 19.07 19
  430.9 8.73 8
  431.0 16.83 16
  431.1 22.84 22
  431.2 22.02 21
  431.3 15.55 15
  431.5 10.08 10
  431.6 16.26 16
  431.7 22.04 22
  431.8 22.11 22
  431.9 16.92 16
  432.1 10.06 10
  432.2 14.56 14
  432.3 21.08 21
  432.4 23.23 23
  432.5 18.06 18
  432.7 6.56 6
  432.8 11.66 11
  432.9 20.9 20
  433.0 26.41 26
  433.1 23.66 23
  433.2 15.07 15
  433.4 7.75 7
  433.5 14.65 14
  433.6 22.34 22
  433.7 24.21 24
  433.8 19.0 18
  434.1 12.53 12
  434.2 20.26 20
  434.3 25.63 25
  434.4 24.39 24
  434.5 17.24 17
  434.7 8.57 8
  434.8 15.55 15
  434.9 24.53 24
  435.0 27.02 26
  435.1 21.35 21
  436.0 11.5 11
  436.1 19.57 19
  436.2 26.2 26
  436.3 26.02 25
  436.4 19.11 19
  436.6 9.51 9
  436.7 14.88 14
  436.8 21.95 21
  436.9 23.8 23
  437.0 18.82 18
  437.2 9.53 9
  437.3 13.83 13
  437.4 20.85 20
  437.5 24.65 24
  437.6 21.44 21
  437.7 13.19 13
  437.9 7.77 7
  438.0 16.19 16
  438.1 23.98 23
  438.2 23.46 23
  438.3 14.59 14
  438.5 3.96 3
  438.6 11.57 11
  438.7 22.11 22
  438.8 27.8 27
  438.9 25.45 25
  439.0 18.56 18
  439.1 13.35 13
  439.8 5.44 5
  439.9 11.64 11
  440.0 19.8 19
  440.1 23.32 23
  440.2 19.32 19
  440.3 11.75 11
  440.5 9.85 9
  440.6 16.42 16
  440.7 21.7 21
  440.8 21.35 21
  440.9 15.75 15
  441.1 9.72 9
  441.2 14.97 14
  441.3 20.32 20
  441.4 19.91 19
  441.5 13.63 13
  441.7 7.89 7
  441.8 14.7 14
  441.9 22.18 22
  442.0 23.96 23
  442.1 19.27 19
  442.9 6.1 6
  443.0 9.72 9
  443.1 17.79 17
  443.2 24.51 24
  443.3 25.1 25
  443.4 19.66 19
  443.6 10.61 10
  443.7 14.4 14
  443.8 20.99 20
  443.9 24.46 24
  444.0 21.58 21
  444.1 15.0 14
  444.3 12.25 12
  444.4 17.17 17
  444.5 20.64 20
  444.6 19.71 19
  444.7 15.0 14
  444.9 9.17 9
  445.0 14.22 14
  445.1 21.17 21
  445.2 23.27 23
  445.3 17.7 17
  445.6 9.26 9
  445.7 18.18 18
  445.8 24.55 24
  445.9 23.46 23
  446.0 16.69 16
  446.2 11.39 11
  446.3 17.58 17
  446.4 23.3 23
  446.5 22.45 22
  446.6 15.0 14
  446.8 7.89 7
  446.9 15.66 15
  447.0 24.3 24
  447.1 26.7 26
  447.2 21.95 21
  447.3 15.11 15
  447.5 13.37 13
  447.6 17.56 17
  447.7 20.53 20
  447.8 19.66 19
  447.9 15.07 15
  448.1 11.18 11
  448.2 17.54 17
  448.3 24.71 24
  448.4 26.31 26
  448.5 20.51 20
  448.6 12.07 12
  448.8 10.43 10
  448.9 16.6 16
  449.0 20.35 20
  449.1 18.95 18
  449.4 13.19 13
  449.5 18.06 18
  449.6 23.34 23
  449.7 24.53 24
  449.8 19.73 19
  450.6 10.2 10
  450.7 13.31 13
  450.8 19.34 19
  450.9 23.66 23
  451.0 22.95 22
  451.1 18.34 18
  451.3 15.16 15
  451.4 19.64 19
  451.5 23.64 23
  451.6 23.16 23
  451.7 17.76 17
  452.0 10.13 10
  452.1 16.53 16
  452.2 21.7 21
  452.3 21.9 21
  452.4 17.63 17
  452.6 12.48 12
  452.7 16.6 16
  452.8 21.28 21
  452.9 21.1 21
  453.0 15.39 15
  453.2 8.37 8
  453.3 13.67 13
  453.4 20.87 20
  453.5 24.26 24
  453.6 21.22 21
  453.7 14.47 14
  453.9 12.57 12
  454.0 19.09 19
  454.1 23.71 23
  454.2 22.04 22
  454.3 15.32 15
  454.5 9.69 9
  454.6 16.12 16
  454.7 22.95 22
  454.8 24.51 24
  454.9 19.62 19
  455.0 12.23 12
  455.2 9.92 9
  455.3 16.76 16
  455.4 22.95 22
  455.5 23.34 23
  455.6 18.02 18
  455.8 12.25 12
  455.9 17.67 17
  456.0 23.5 23
  456.1 24.12 24
  456.2 18.31 18
  456.4 7.91 7
  456.5 12.71 12
  456.6 21.1 21
  456.7 25.4 25
  456.8 21.6 21
  456.9 13.47 13
  457.1 11.02 11
  457.2 17.72 17
  457.3 22.25 22
  457.4 20.67 20
  457.5 14.24 14
  457.7 7.89 7
  457.8 13.95 13
  457.9 22.18 22
  458.0 26.15 26
  458.1 23.25 23
  458.2 16.64 16
  458.4 13.58 13
  458.5 18.52 18
  458.6 22.34 22
  458.7 21.17 21
  458.8 15.82 15
  459.0 13.33 13
  459.1 20.48 20
  459.2 27.27 27
  459.3 28.14 28
  459.4 22.36 22
  459.5 14.24 14
  459.7 11.16 11
  459.8 16.23 16
  459.9 19.16 19
  460.0 16.9 16
  460.2 10.47 10
  460.3 14.22 14
  460.4 20.69 20
  460.5 24.67 24
  460.6 22.75 22
  460.7 15.98 15
  460.9 7.54 7
  461.0 12.46 12
  461.1 20.14 20
  461.2 24.21 24
  461.3 21.35 21
  461.4 14.52 14
  461.6 12.37 12
  461.7 18.08 18
  461.8 22.02 21
  461.9 20.6 20
  462.0 15.09 15
  462.2 11.71 11
  462.3 18.82 18
  462.4 26.04 26
  462.5 26.82 26
  462.6 20.07 20
  462.7 11.04 11
  462.9 9.3 9
  463.0 17.31 17
  463.1 23.91 23
  463.2 23.69 23
  463.3 17.38 17
  463.5 11.73 11
  463.6 18.4 18
  463.7 24.85 24
  463.8 24.39 24
  463.9 16.85 16
  464.1 7.91 7
  464.2 14.45 14
  464.3 22.84 22
  464.4 25.97 25
  464.5 21.19 21
  464.6 12.57 12
  464.8 10.59 10
  464.9 18.84 18
  465.0 24.71 24
  465.1 23.07 23
  465.2 15.55 15
  465.4 8.28 8
  465.5 14.47 14
  465.6 21.76 21
  465.7 23.23 23
  465.8 16.96 16
  466.0 5.92 5
  466.1 11.11 11
  466.2 19.18 19
  466.3 22.95 22
  466.4 19.5 19
  466.5 12.19 12
  466.7 8.44 8
  466.8 14.33 14
  466.9 20.26 20
  467.0 21.74 21
  467.1 17.86 17
  467.3 10.47 10
  467.4 14.91 14
  467.5 22.11 22
  467.6 25.24 25
  467.7 20.6 20
  467.8 11.55 11
  468.0 9.44 9
  468.1 18.63 18
  468.2 24.85 24
  468.3 22.13 22
  468.4 12.99 12
  468.6 6.63 6
  468.7 14.47 14
  468.8 22.84 22
  468.9 24.92 24
  469.0 18.84 18
  469.3 8.96 8
  469.4 18.75 18
  469.5 25.19 25
  469.6 23.09 23
  469.7 15.34 15
  469.9 9.92 9
  470.0 15.59 15
  470.1 21.08 21
  470.2 21.63 21
  470.3 16.48 16
  470.5 7.06 7
  470.6 11.04 11
  470.7 17.86 17
  470.8 21.33 21
  470.9 18.93 18
  471.1 13.08 13
  471.2 18.06 18
  471.3 25.49 25
  471.4 28.67 28
  471.5 24.39 24
  471.6 15.94 15
  471.8 9.51 9
  471.9 14.22 14
  472.0 19.27 19
  472.1 20.32 20
  472.2 16.62 16
  472.4 10.93 10
  472.5 15.52 15
  472.6 21.65 21
  472.7 23.73 23
  472.8 20.1 20
  472.9 13.9 13
  473.1 11.39 11
  473.2 16.69 16
  473.3 21.42 21
  473.4 21.1 21
  473.5 15.52 15
  473.7 7.89 7
  473.8 11.52 11
  473.9 16.62 16
  474.0 18.91 18
  474.1 16.74 16
  474.4 10.45 10
  474.5 16.9 16
  474.6 22.13 22
  474.7 20.62 20
  474.8 13.37 13
  475.0 7.29 7
  475.1 14.47 14
  475.2 22.95 22
  475.3 26.11 26
  475.4 21.74 21
  475.5 13.74 13
  475.7 9.47 9
  475.8 14.7 14
  475.9 19.23 19
  476.0 19.27 19
  476.1 15.36 15
  476.3 11.32 11
  476.4 15.64 15
  476.5 20.67 20
  476.6 21.76 21
  476.7 17.81 17
  476.9 10.43 10
  477.0 14.86 14
  477.1 22.38 22
  477.2 25.77 25
  477.3 20.78 20
  477.4 11.32 11
  477.6 9.74 9
  477.7 17.67 17
  477.8 22.38 22
  477.9 20.6 20
  478.0 15.45 15
  478.2 13.24 13
  478.3 17.83 17
  478.4 22.41 22
  478.5 22.93 22
  478.6 17.65 17
  478.8 6.63 6
  478.9 11.41 11
  479.0 19.59 19
  479.1 22.68 22
  479.2 17.38 17
  479.5 8.98 8
  479.6 16.83 16
  479.7 22.82 22
  479.8 22.86 22
  479.9 17.22 17
  480.2 10.2 10
  480.3 15.75 15
  480.4 18.98 18
  480.5 17.24 17
  480.6 12.55 12
  480.8 11.29 11
  480.9 15.8 15
  481.0 18.98 18
  481.1 18.18 18
  481.4 13.1 13
  481.5 18.5 18
  481.6 23.57 23
  481.7 23.32 23
  481.8 16.55 16
  482.0 5.17 5
  482.1 10.04 10
  482.2 17.88 17
  482.3 21.72 21
  482.4 19.11 19
  482.5 13.47 13
  482.7 10.88 10
  482.8 15.0 14
  482.9 18.68 18
  483.0 18.75 18
  483.1 14.79 14
  483.3 9.88 9
  483.4 15.64 15
  483.5 23.07 23
  483.6 25.77 25
  483.7 21.22 21
  483.8 12.87 12
  484.0 7.8 7
  484.1 14.22 14
  484.2 20.46 20
  484.3 20.62 20
  484.4 14.2 14
  484.6 5.26 5
  484.7 11.29 11
  484.8 19.68 19
  484.9 22.68 22
  485.0 17.28 17
  485.2 6.22 6
  485.3 12.53 12
  485.4 22.59 22
  485.5 27.62 27
  485.6 22.95 22
  485.7 12.19 12
  485.9 5.51 5
  486.0 14.75 14
  486.1 23.96 23
  486.2 25.93 25
  486.3 20.44 20
  487.2 10.4 10
  487.3 17.72 17
  487.4 22.77 22
  487.5 21.26 21
  487.6 14.68 14
  487.8 8.76 8
  487.9 13.56 13
  488.0 18.93 18
  488.1 20.42 20
  488.2 16.8 16
  488.5 9.92 9
  488.6 15.57 15
  488.7 18.84 18
  488.8 16.23 16
  489.1 8.28 8
  489.2 15.59 15
  489.3 21.95 21
  489.4 21.88 21
  489.5 15.66 15
  489.7 9.85 9
  489.8 17.33 17
  489.9 25.72 25
  490.0 27.53 27
  490.1 20.74 20
  491.0 6.65 6
  491.1 16.62 16
  491.2 26.15 26
  491.3 27.46 27
  491.4 19.84 19
  491.7 10.4 10
  491.8 19.5 19
  491.9 25.03 25
  492.0 22.66 22
  492.1 15.23 15
  492.3 9.9 9
  492.4 15.41 15
  492.5 21.35 21
  492.6 23.14 23
  492.7 19.43 19
  492.9 12.44 12
  493.0 17.35 17
  493.1 24.33 24
  493.2 26.22 26
  493.3 20.3 20
  493.6 11.09 11
  493.7 19.36 19
  493.8 24.97 24
  493.9 23.27 23
  494.0 15.59 15
  494.2 6.24 6
  494.3 10.65 10
  494.4 16.62 16
  494.5 18.66 18
  494.6 14.97 14
  494.8 7.7 7
  494.9 13.15 13
  495.0 21.35 21
  495.1 25.08 25
  495.2 20.83 20
  495.3 11.87 11
  495.5 6.58 6
  495.6 14.2 14
  495.7 21.35 21
  495.8 21.67 21
  495.9 15.48 15
  496.1 8.28 8
  496.2 13.37 13
  496.3 20.28 20
  496.4 23.53 23
  496.5 20.16 20
  496.6 12.85 12
  496.8 11.02 11
  496.9 18.52 18
  497.0 24.07 24
  497.1 22.68 22
  497.2 15.61 15
  497.4 8.78 8
  497.5 15.18 15
  497.6 23.11 23
  497.7 25.88 25
  497.8 21.12 21
  498.1 13.05 13
  498.2 21.22 21
  498.3 25.95 25
  498.4 22.63 22
  498.5 14.01 13
  498.7 9.74 9
  498.8 18.13 18
  498.9 25.67 25
  499.0 26.43 26
  499.1 20.87 20
  499.3 13.03 13
  499.4 17.72 17
  499.5 24.21 24
  499.6 26.2 26
  499.7 21.28 21
  499.8 13.35 13
  500.0 11.09 11
  500.1 17.51 17
  500.2 22.47 22
  500.3 21.76 21
  500.4 16.0 15
  500.6 10.38 10
  500.7 17.15 17
  500.8 25.4 25
  500.9 27.46 27
  501.0 20.64 20
  501.2 7.32 7
  501.3 13.19 13
  501.4 22.82 22
  501.5 27.39 27
  501.6 23.41 23
  501.7 14.72 14
  501.9 9.79 9
  502.0 17.1 17
  502.1 24.07 24
  502.2 24.12 24
  502.3 16.32 16
  502.5 5.08 5
  502.6 11.73 11
  502.7 21.65 21
  502.8 27.0 26
  502.9 24.14 24
  503.0 16.16 16
  503.2 11.75 11
  503.3 19.02 19
  503.4 24.9 24
  503.5 23.85 23
  503.6 16.64 16
  503.8 8.44 8
  503.9 13.9 13
  504.0 21.06 21
  504.1 24.03 24
  504.2 21.1 21
  504.3 15.32 15
  504.5 13.12 13
  504.6 18.5 18
  504.7 22.09 22
  504.8 19.23 19
  505.1 12.53 12
  505.2 20.23 20
  505.3 24.39 24
  505.4 21.56 21
  505.5 15.0 14
  505.7 12.28 12
  505.8 18.5 18
  505.9 24.6 24
  506.0 25.74 25
  506.1 20.8 20
  506.4 13.85 13
  506.5 19.89 19
  506.6 23.11 23
  506.7 20.14 20
  506.8 12.71 12
  507.0 6.01 6
  507.1 11.55 11
  507.2 18.5 18
  507.3 21.38 21
  507.4 18.08 18
  507.7 10.56 10
  507.8 16.94 16
  507.9 21.4 21
  508.0 19.68 19
  508.1 12.62 12
  508.3 5.58 5
  508.4 12.16 12
  508.5 20.48 20
  508.6 24.42 24
  508.7 22.04 22
  508.8 16.48 16
  509.0 14.43 14
  509.1 19.57 19
  509.2 23.23 23
  509.3 21.6 21
  509.4 15.98 15
  509.6 12.32 12
  509.7 17.47 17
  509.8 21.93 21
  509.9 20.85 20
  510.0 14.93 14
  510.2 10.65 10
  510.3 16.62 16
  510.4 22.91 22
  510.5 24.6 24
  510.6 20.05 20
  510.9 11.61 11
  511.0 19.5 19
  511.1 24.14 24
  511.2 20.69 20
  511.3 12.14 12
  511.5 8.69 8
  511.6 17.65 17
  511.7 26.29 26
  511.8 27.75 27
  511.9 20.74 20
  512.0 10.91 10
  512.2 9.35 9
  512.3 15.78 15
  512.4 19.18 19
  512.5 17.58 17
  512.8 13.81 13
  512.9 18.08 18
  513.0 21.38 21
  513.1 21.03 21
  513.2 17.1 17
  513.4 11.39 11
  513.5 14.88 14
  513.6 20.42 20
  513.7 22.75 22
  513.8 19.25 19
  514.1 13.01 12
  514.2 19.43 19
  514.3 23.59 23
  514.4 22.13 22
  514.5 16.67 16
  514.7 13.01 12
  514.8 17.56 17
  514.9 21.81 21
  515.0 21.86 21
  515.1 16.92 16
  515.3 7.7 7
  515.4 11.91 11
  515.5 19.41 19
  515.6 23.43 23
  515.7 20.55 20
  516.0 13.42 13
  516.1 19.94 19
  516.2 23.62 23
  516.3 19.8 19
  516.4 10.54 10
  516.6 4.92 4
  516.7 13.76 13
  516.8 22.22 22
  516.9 23.34 23
  517.0 17.38 17
  517.2 10.59 10
  517.3 16.51 16
  517.4 23.34 23
  517.5 25.15 25
  517.6 20.07 20
  517.7 11.71 11
  517.9 8.5 8
  518.0 16.44 16
  518.1 23.98 23
  518.2 24.81 24
  518.3 18.15 18
  518.5 8.12 8
  518.6 13.28 13
  518.7 19.68 19
  518.8 20.35 20
  518.9 14.01 13
  519.2 6.17 6
  519.3 14.22 14
  519.4 21.08 21
  519.5 21.79 21
  519.6 15.91 15
  519.8 6.95 6
  519.9 12.51 12
  520.0 20.51 20
  520.1 23.41 23
  520.2 18.24 18
  520.4 7.41 7
  520.5 13.95 13
  520.6 24.26 24
  520.7 29.31 29
  520.8 24.76 24
  520.9 14.38 14
  521.1 7.66 7
  521.2 15.94 15
  521.3 23.37 23
  521.4 22.89 22
  521.5 15.29 15
  521.7 6.72 6
  521.8 11.96 11
  521.9 18.15 18
  522.0 19.68 19
  522.1 15.32 15
  522.3 6.72 6
  522.4 10.29 10
  522.5 17.38 17
  522.6 22.54 22
  522.7 21.58 21
  522.8 14.84 14
  523.0 7.61 7
  523.1 13.56 13
  523.2 20.26 20
  523.3 21.56 21
  523.4 16.71 16
  523.6 9.1 9
  523.7 14.49 14
  523.8 22.68 22
  523.9 26.5 26
  524.0 21.99 21
  524.1 12.44 12
  524.3 8.37 8
  524.4 17.44 17
  524.5 25.4 25
  524.6 25.9 25
  524.7 19.32 19
  525.6 8.76 8
  525.7 17.31 17
  525.8 23.11 23
  525.9 21.63 21
  526.0 14.79 14
  526.2 8.6 8
  526.3 14.29 14
  526.4 20.76 20
  526.5 22.18 22
  526.6 17.24 17
  526.8 7.98 7
  526.9 12.53 12
  527.0 20.21 20
  527.1 24.33 24
  527.2 21.6 21
  527.3 14.68 14
  527.5 9.9 9
  527.6 16.23 16
  527.7 23.11 23
  527.8 24.12 24
  527.9 17.6 17
  528.1 5.65 5
  528.2 10.68 10
  528.3 19.59 19
  528.4 25.08 25
  528.5 23.05 23
  528.6 16.28 16
  528.8 13.65 13
  528.9 19.71 19
  529.0 23.43 23
  529.1 21.08 21
  529.2 14.56 14
  529.4 10.63 10
  529.5 17.22 17
  529.6 23.59 23
  529.7 23.87 23
  529.8 17.95 17
  530.0 10.04 10
  530.1 14.06 14
  530.2 19.73 19
  530.3 22.52 22
  530.4 20.21 20
  530.5 14.17 14
  530.7 8.3 8
  530.8 13.58 13
  530.9 20.35 20
  531.0 22.93 22
  531.1 19.48 19
  532.0 9.9 9
  532.1 15.75 15
  532.2 20.55 20
  532.3 20.19 20
  532.4 15.34 15
  532.6 11.32 11
  532.7 16.99 16
  532.8 23.41 23
  532.9 24.78 24
  533.0 19.07 19
  533.3 9.44 9
  533.4 18.18 18
  533.5 24.58 24
  533.6 23.57 23
  533.7 16.85 16
  533.9 10.91 10
  534.0 16.12 16
  534.1 20.99 20
  534.2 20.64 20
  534.3 14.93 14
  534.5 5.44 5
  534.6 9.53 9
  534.7 17.31 17
  534.8 21.81 21
  534.9 18.31 18
  535.2 8.39 8
  535.3 17.81 17
  535.4 24.62 24
  535.5 22.7 22
  535.6 13.51 13
  535.8 3.96 3
  535.9 11.32 11
  536.0 20.14 20
  536.1 23.0 22
  536.2 18.68 18
  536.3 12.32 12
  536.5 11.39 11
  536.6 16.48 16
  536.7 20.51 20
  536.8 19.25 19
  536.9 12.89 12
  537.1 8.32 8
  537.2 15.32 15
  537.3 21.74 21
  537.4 22.15 22
  537.5 16.67 16
  537.7 7.82 7
  537.8 11.68 11
  537.9 18.4 18
  538.0 21.86 21
  538.1 18.7 18
  538.4 11.84 11
  538.5 18.7 18
  538.6 23.21 23
  538.7 21.65 21
  538.8 15.82 15
  539.0 11.27 11
  539.1 16.26 16
  539.2 21.97 21
  539.3 24.03 24
  539.4 20.74 20
  540.3 2.22 2
  540.4 12.85 12
  540.5 23.87 23
  540.6 26.61 26
  540.7 20.19 20
  540.8 11.07 11
  541.0 10.38 10
  541.1 17.79 17
  541.2 22.04 22
  541.3 18.68 18
  541.6 9.6 9
  541.7 20.03 20
  541.8 27.62 27
  541.9 25.93 25
  542.0 17.08 17
  542.2 8.92 8
  542.3 16.05 16
  542.4 23.78 23
  542.5 24.78 24
  542.6 18.15 18
  542.8 9.12 9
  542.9 15.07 15
  543.0 22.52 22
  543.1 24.81 24
  543.2 19.84 19
  543.3 11.43 11
  543.5 7.27 7
  543.6 14.54 14
  543.7 22.27 22
  543.8 24.69 24
  543.9 20.23 20
  544.1 10.93 10
  544.2 15.78 15
  544.3 23.75 23
  544.4 27.32 27
  544.5 22.57 22
  544.6 13.19 13
  544.8 10.61 10
  544.9 19.66 19
  545.0 25.79 25
  545.1 22.7 22
  545.2 13.28 13
  545.4 10.04 10
  545.5 19.11 19
  545.6 25.83 25
  545.7 25.22 25
  545.8 19.23 19
  546.0 13.05 13
  546.1 17.49 17
  546.2 22.7 22
  546.3 23.32 23
  546.4 17.72 17
  546.5 9.85 9
  546.7 8.94 8
  546.8 16.16 16
  546.9 22.36 22
  547.0 23.55 23
  547.1 19.39 19
  547.4 12.48 12
  547.5 19.48 19
  547.6 24.35 24
  547.7 21.83 21
  547.8 13.92 13
  548.0 10.43 10
  548.1 18.72 18
  548.2 25.97 25
  548.3 26.04 26
  548.4 19.02 19
  549.2 6.54 6
  549.3 11.96 11
  549.4 19.96 19
  549.5 24.26 24
  549.6 21.44 21
  549.7 14.33 14
  549.9 11.96 11
  550.0 17.99 17
  550.1 21.22 21
  550.2 17.88 17
  550.3 10.7 10
  550.5 7.8 7
  550.6 15.09 15
  550.7 22.68 22
  550.8 24.9 24
  550.9 19.96 19
  551.2 10.63 10
  551.3 18.98 18
  551.4 24.94 24
  551.5 23.69 23
  551.6 17.22 17
  551.8 12.14 12
  551.9 18.13 18
  552.0 24.46 24
  552.1 25.17 25
  552.2 19.16 19
  552.4 9.17 9
  552.5 13.4 13
  552.6 20.51 20
  552.7 24.44 24
  552.8 21.67 21
  552.9 14.08 14
  553.1 7.18 7
  553.2 13.58 13
  553.3 21.58 21
  553.4 24.23 24
  553.5 19.18 19
  553.7 8.78 8
  553.8 13.33 13
  553.9 20.74 20
  554.0 24.46 24
  554.1 21.81 21
  554.2 15.23 15
  554.4 10.08 10
  554.5 15.43 15
  554.6 21.6 21
  554.7 23.39 23
  554.8 19.25 19
  555.0 11.87 11
  555.1 16.69 16
  555.2 23.43 23
  555.3 25.49 25
  555.4 20.55 20
  555.6 9.58 9
  555.7 13.97 13
  555.8 22.13 22
  555.9 26.09 26
  556.0 21.42 21
  556.3 12.23 12
  556.4 21.24 21
  556.5 26.25 26
  556.6 22.59 22
  556.7 13.26 13
  556.9 4.53 4
  557.0 11.23 11
  557.1 20.67 20
  557.2 25.45 25
  557.3 21.63 21
  557.4 12.85 12
  557.6 10.29 10
  557.7 17.58 17
  557.8 21.81 21
  557.9 19.02 19
  558.0 11.82 11
  558.2 8.98 8
  558.3 16.85 16
  558.4 24.07 24
  558.5 24.62 24
  558.6 18.08 18
  558.8 7.34 7
  558.9 12.64 12
  559.0 21.74 21
  559.1 26.73 26
  559.2 22.86 22
  559.3 13.56 13
  559.5 9.33 9
  559.6 16.83 16
  559.7 22.31 22
  559.8 20.55 20
  559.9 13.08 13
  560.1 7.06 7
  560.2 15.23 15
  560.3 25.31 25
  560.4 29.93 29
  560.5 26.22 26
  560.6 17.99 17
  560.8 12.05 12
  560.9 16.44 16
  561.0 19.84 19
  561.1 18.29 18
  561.2 12.62 12
  561.4 9.81 9
  561.5 16.71 16
  561.6 23.57 23
  561.7 25.06 25
  561.8 20.21 20
  561.9 13.03 13
  562.1 12.19 12
  562.2 18.11 18
  562.3 21.15 21
  562.4 18.04 18
  562.5 10.79 10
  562.7 4.05 4
  562.8 9.79 9
  562.9 18.04 18
  563.0 22.57 22
  563.1 19.48 19
  563.4 10.84 10
  563.5 21.15 21
  563.6 28.19 28
  563.7 24.85 24
  563.8 14.06 14
  564.0 8.02 8
  564.1 17.17 17
  564.2 23.82 23
  564.3 21.42 21
  564.4 12.64 12
  564.6 7.36 7
  564.7 14.86 14
  564.8 21.76 21
  564.9 22.61 22
  565.0 17.12 17
  565.2 7.54 7
  565.3 11.77 11
  565.4 19.34 19
  565.5 23.64 23
  565.6 20.67 20
  565.7 13.19 13
  565.9 10.38 10
  566.0 17.44 17
  566.1 22.93 22
  566.2 21.65 21
  566.3 14.4 14
  566.5 8.14 8
  566.6 15.5 15
  566.7 22.91 22
  566.8 23.11 23
  566.9 15.59 15
  567.1 5.62 5
  567.2 11.89 11
  567.3 20.55 20
  567.4 25.03 25
  567.5 23.05 23
  567.6 16.94 16
  567.8 10.49 10
  567.9 14.29 14
  568.0 19.71 19
  568.1 22.27 22
  568.2 19.87 19
  568.3 14.65 14
  568.5 12.12 12
  568.6 16.46 16
  568.7 20.1 20
  568.8 19.55 19
  568.9 15.09 15
  569.1 12.0 11
  569.2 17.76 17
  569.3 23.25 23
  569.4 22.86 22
  569.5 16.28 16
  569.7 7.54 7
  569.8 13.49 13
  569.9 22.29 22
  570.0 26.75 26
  570.1 22.89 22
  570.2 13.31 13
  570.4 6.97 6
  570.5 16.0 15
  570.6 24.65 24
  570.7 25.08 25
  570.8 17.33 17
  571.0 7.06 7
  571.1 12.94 12
  571.2 20.69 20
  571.3 23.53 23
  571.4 19.98 19
  571.6 12.99 12
  571.7 16.76 16
  571.8 22.31 22
  571.9 24.69 24
  572.0 21.65 21
  572.1 15.25 15
  572.3 10.43 10
  572.4 15.27 15
  572.5 20.16 20
  572.6 19.68 19
  572.7 13.24 13
  572.9 7.34 7
  573.0 15.91 15
  573.1 25.13 25
  573.2 26.79 26
  573.3 19.94 19
  574.2 12.55 12
  574.3 17.17 17
  574.4 20.51 20
  574.5 19.71 19
  574.6 15.34 15
  574.8 9.28 9
  574.9 13.6 13
  575.0 21.15 21
  575.1 25.17 25
  575.2 20.53 20
  575.3 9.63 9
  575.5 3.82 3
  575.6 15.23 15
  575.7 26.38 26
  575.8 27.82 27
  575.9 18.7 18
  576.7 8.55 8
  576.8 12.83 12
  576.9 18.61 18
  577.0 20.05 20
  577.1 15.75 15
  577.3 8.57 8
  577.4 13.1 13
  577.5 20.39 20
  577.6 24.9 24
  577.7 22.63 22
  577.8 14.17 14
  578.0 3.8 3
  578.1 11.13 11
  578.2 21.26 21
  578.3 25.56 25
  578.4 20.96 20
  578.5 12.14 12
  578.7 9.33 9
  578.8 16.9 16
  578.9 22.47 22
  579.0 20.69 20
  579.1 13.47 13
  579.3 11.32 11
  579.4 19.73 19
  579.5 26.54 26
  579.6 26.38 26
  579.7 19.57 19
  580.0 10.54 10
  580.1 17.99 17
  580.2 22.61 22
  580.3 20.37 20
  580.4 13.88 13
  580.6 11.32 11
  580.7 17.97 17
  580.8 24.23 24
  580.9 25.35 25
  581.0 20.14 20
  581.1 12.35 12
  581.3 10.75 10
  581.4 17.6 17
  581.5 22.09 22
  581.6 19.84 19
  581.7 12.73 12
  581.9 7.25 7
  582.0 12.76 12
  582.1 18.18 18
  582.2 18.93 18
  582.3 15.11 15
  582.5 11.89 11
  582.6 17.4 17
  582.7 23.43 23
  582.8 24.94 24
  582.9 20.6 20
  583.0 13.58 13
  583.2 11.45 11
  583.3 18.52 18
  583.4 24.44 24
  583.5 23.73 23
  583.6 16.78 16
  583.8 8.02 8
  583.9 13.37 13
  584.0 20.58 20
  584.1 23.05 23
  584.2 18.43 18
  584.5 10.31 10
  584.6 18.24 18
  584.7 22.54 22
  584.8 18.68 18
  585.1 8.46 8
  585.2 18.08 18
  585.3 26.25 26
  585.4 26.18 26
  585.5 17.63 17
  585.7 4.48 4
  585.8 11.5 11
  585.9 22.89 22
  586.0 29.54 29
  586.1 27.14 27
  586.2 18.91 18
  586.4 11.11 11
  586.5 16.07 16
  586.6 22.13 22
  586.7 23.75 23
  586.8 19.14 19
  587.1 12.55 12
  587.2 19.34 19
  587.3 23.09 23
  587.4 20.46 20
  587.5 14.27 14
  587.7 12.57 12
  587.8 17.92 17
  587.9 20.9 20
  588.0 18.08 18
  588.3 10.52 10
  588.4 18.36 18
  588.5 24.6 24
  588.6 23.43 23
  588.7 15.66 15
  588.9 7.09 7
  589.0 13.24 13
  589.1 20.87 20
  589.2 23.16 23
  589.3 17.79 17
  589.6 8.25 8
  589.7 18.08 18
  589.8 26.11 26
  589.9 26.09 26
  590.0 18.34 18
  590.3 9.85 9
  590.4 17.72 17
  590.5 22.5 22
  590.6 20.55 20
  590.7 14.38 14
  590.9 10.86 10
  591.0 16.76 16
  591.1 22.43 22
  591.2 22.89 22
  591.3 17.97 17
  591.5 12.19 12
  591.6 16.92 16
  591.7 21.67 21
  591.8 21.1 21
  591.9 14.81 14
  592.1 6.06 6
  592.2 11.98 11
  592.3 21.6 21
  592.4 27.25 27
  592.5 23.94 23
  592.6 14.68 14
  592.8 8.76 8
  592.9 15.36 15
  593.0 20.83 20
  593.1 19.78 19
  593.2 13.08 13
  593.4 7.68 7
  593.5 15.11 15
  593.6 22.66 22
  593.7 23.66 23
  593.8 17.99 17
  594.1 12.41 12
  594.2 17.97 17
  594.3 22.41 22
  594.4 22.41 22
  594.5 17.42 17
  594.7 12.53 12
  594.8 19.34 19
  594.9 26.02 25
  595.0 25.88 25
  595.1 19.16 19
  595.3 11.16 11
  595.4 16.42 16
  595.5 22.41 22
  595.6 22.61 22
  595.7 16.16 16
  595.9 7.73 7
  596.0 14.15 14
  596.1 22.84 22
  596.2 26.79 26
  596.3 23.23 23
  596.4 15.34 15
  596.6 10.22 10
  596.7 16.28 16
  596.8 22.34 22
  596.9 23.21 23
  597.0 18.22 18
  597.3 12.0 11
  597.4 18.77 18
  597.5 23.14 23
  597.6 21.06 21
  597.7 14.52 14
  597.9 11.55 11
  598.0 18.15 18
  598.1 23.69 23
  598.2 23.34 23
  598.3 17.79 17
  598.5 14.2 14
  598.6 20.58 20
  598.7 25.17 25
  598.8 22.41 22
  598.9 14.08 14
  599.1 7.7 7
  599.2 14.77 14
  599.3 23.66 23
  599.4 28.24 28
  599.5 25.17 25
  599.6 16.71 16
//
