ACCESSION: MSBNK-RIKEN_NPDepo-NGA00509
RECORD_TITLE: Echinatine; LC-ESI-QQQ; MS2; Frag=135.0V CID@5.0; [M+H]+
DATE: 2018.04.04
AUTHORS: Nogawa T, Okano A, CSRS, RIKEN
LICENSE: CC BY
COMMENT: Origin: Plant
COMMENT: SubCategory_DNP: Alkaloids derived from ornithine, Pyrrolizidine alkaloids
CH$NAME: Echinatine
CH$COMPOUND_CLASS: Alkaloids
CH$FORMULA: C15H25NO5
CH$EXACT_MASS: 299.3702
CH$SMILES: CC(C)C(O)(C(=O)OCC1=CCN2CC[C@H](O)[C@@H]12)C(C)O
CH$IUPAC: InChI=1S/C15H25NO5/c1-9(2)15(20,10(3)17)14(19)21-8-11-4-6-16-7-5-12(18)13(11)16/h4,9-10,12-13,17-18,20H,5-8H2,1-3H3/t10?,12-,13+,15?/m0/s1
CH$LINK: CAS 480-83-1
CH$LINK: CHEMSPIDER 21009 9782
CH$LINK: INCHIKEY SFVVQRJOGUKCEG-HFAULKRZSA-N
CH$LINK: PUBCHEM CID:21627977
AC$INSTRUMENT: Agilent 6410 Triple Quadrupole LC/MS system
AC$INSTRUMENT_TYPE: LC-ESI-QQQ
AC$MASS_SPECTROMETRY: MS_TYPE MS2
AC$MASS_SPECTROMETRY: ION_MODE POSITIVE
MS$FOCUSED_ION: PRECURSOR_TYPE [M+H]+
PK$SPLASH: splash10-0udi-0019000000-f94174764cfcee48d817
PK$NUM_PEAK: 16
PK$PEAK: m/z int. rel.int.
  299.3 1.11 1
  299.4 2.7 2
  299.5 5.39 5
  299.6 9.47 9
  299.7 16.55 16
  299.8 29.42 29
  299.9 49.13 49
  300.0 71.99 71
  300.1 90.9 90
  300.2 100.0 99
  300.3 97.0 96
  300.4 81.81 81
  300.5 56.65 56
  300.6 28.47 28
  300.7 6.97 6
  300.8 0.0 0
//
