ACCESSION: MSBNK-RIKEN_NPDepo-NGA01302
RECORD_TITLE: Acetylenoxolone; LC-ESI-QQQ; MS2; Frag=135.0V CID@10.0; [M+H]+
DATE: 2018.04.04
AUTHORS: Nogawa T, Okano A, CSRS, RIKEN
LICENSE: CC BY
COMMENT: Origin: Animal
COMMENT: SubCategory_DNP: Triterpenoids
CH$NAME: Acetylenoxolone
CH$COMPOUND_CLASS: Terpenoids
CH$FORMULA: C32H48O5
CH$EXACT_MASS: 512.7364
CH$SMILES: CC(=O)O[C@H]1CC[C@@]2(C)C(CC[C@]3(C)C2C(=O)C=C2C4C[C@@](C)(C(=O)O)CC[C@]4(C)CC[C@]23C)C1(C)C
CH$IUPAC: InChI=1S/C32H48O5/c1-19(33)37-24-10-11-30(6)23(27(24,2)3)9-12-32(8)25(30)22(34)17-20-21-18-29(5,26(35)36)14-13-28(21,4)15-16-31(20,32)7/h17,21,23-25H,9-16,18H2,1-8H3,(H,35,36)/t21?,23?,24-,25?,28+,29-,30-,31+,32+/m0/s1
CH$LINK: CAS 6277-14-1
CH$LINK: CHEMSPIDER 85123
CH$LINK: INCHIKEY FTQDJVZNPJRVPG-PPPKKFIDSA-N
AC$INSTRUMENT: Agilent 6410 Triple Quadrupole LC/MS system
AC$INSTRUMENT_TYPE: LC-ESI-QQQ
AC$MASS_SPECTROMETRY: MS_TYPE MS2
AC$MASS_SPECTROMETRY: ION_MODE POSITIVE
MS$FOCUSED_ION: PRECURSOR_TYPE [M+H]+
PK$SPLASH: splash10-03di-0000090000-71325405615a71616b8d
PK$NUM_PEAK: 16
PK$PEAK: m/z int. rel.int.
  512.4 1.26 1
  512.5 2.75 2
  512.6 6.07 6
  512.7 11.68 11
  512.8 20.73 20
  512.9 34.55 34
  513.0 52.36 52
  513.1 70.81 70
  513.2 86.36 86
  513.3 96.92 96
  513.4 100.0 99
  513.5 91.37 91
  513.6 68.95 68
  513.7 38.42 38
  513.8 11.75 11
  513.9 0.02 0
//
