ACCESSION: MSBNK-RIKEN_NPDepo-NGA00635
RECORD_TITLE: 9(11)-Dehydroglycyrrhetic acid; LC-ESI-QQQ; MS2; Frag=135.0V CID@15.0; [M+H]+
DATE: 2018.04.04
AUTHORS: Nogawa T, Okano A, CSRS, RIKEN
LICENSE: CC BY
COMMENT: Origin: Plant
COMMENT: SubCategory_DNP: Triterpenoids
CH$NAME: 9(11)-Dehydroglycyrrhetic acid
CH$COMPOUND_CLASS: Terpenoids
CH$FORMULA: C30H46O3
CH$EXACT_MASS: 454.6993
CH$SMILES: CC1(C)C2CC[C@]3(C)C(=CC=C4C5C[C@@](C)(C(=O)O)CC[C@]5(C)CC[C@]43C)[C@@]2(C)CC[C@@H]1O
CH$IUPAC: InChI=1S/C30H46O3/c1-25(2)21-10-13-30(7)22(28(21,5)12-11-23(25)31)9-8-19-20-18-27(4,24(32)33)15-14-26(20,3)16-17-29(19,30)6/h8-9,20-21,23,31H,10-18H2,1-7H3,(H,32,33)/t20?,21?,23-,26+,27-,28-,29+,30+/m0/s1
CH$LINK: CAS 14884-88-9
CH$LINK: INCHIKEY DPWVNICGMWYCAP-NJHULDLCSA-N
AC$INSTRUMENT: Agilent 6410 Triple Quadrupole LC/MS system
AC$INSTRUMENT_TYPE: LC-ESI-QQQ
AC$MASS_SPECTROMETRY: MS_TYPE MS2
AC$MASS_SPECTROMETRY: ION_MODE POSITIVE
MS$FOCUSED_ION: PRECURSOR_TYPE [M+H]+
PK$SPLASH: splash10-0a4i-0003900000-bb18e3b3be2266990e1a
PK$NUM_PEAK: 1155
PK$PEAK: m/z int. rel.int.
  94.7 2.52 2
  94.8 4.13 4
  94.9 5.52 5
  95.0 6.15 6
  95.1 5.67 5
  95.2 4.15 4
  95.3 2.34 2
  188.6 3.27 3
  188.7 5.8 5
  188.8 11.19 11
  188.9 16.76 16
  189.0 18.77 18
  189.1 16.44 16
  189.2 12.04 12
  189.3 7.67 7
  189.4 3.95 3
  214.7 2.02 2
  214.8 3.41 3
  214.9 4.41 4
  215.0 5.03 5
  215.1 5.96 5
  215.2 7.08 7
  215.3 7.08 7
  215.4 5.16 5
  215.5 2.41 2
  228.8 1.82 1
  228.9 3.35 3
  229.0 4.74 4
  229.1 5.09 5
  229.2 4.13 4
  274.9 2.26 2
  275.0 3.97 3
  275.1 5.85 5
  275.2 6.92 6
  275.3 6.27 6
  275.4 4.16 4
  300.6 1.88 1
  300.7 3.34 3
  300.8 4.65 4
  300.9 5.05 5
  301.0 4.6 4
  301.1 3.88 3
  301.2 3.26 3
  301.3 2.68 2
  301.4 2.09 2
  301.5 1.52 1
  301.6 0.99 0
  301.7 0.6 0
  301.8 0.45 0
  301.9 0.49 0
  302.0 0.52 0
  302.1 0.5 0
  302.2 0.49 0
  302.3 0.51 0
  302.4 0.6 0
  302.5 0.9 0
  302.6 1.37 1
  302.7 1.7 1
  302.8 1.54 1
  302.9 1.03 1
  303.0 0.61 0
  303.1 0.49 0
  303.2 0.52 0
  303.3 0.53 0
  303.4 0.5 0
  303.5 0.47 0
  303.6 0.48 0
  303.7 0.51 0
  303.8 0.54 0
  303.9 0.55 0
  304.0 0.54 0
  304.1 0.51 0
  304.2 0.51 0
  304.3 0.53 0
  304.4 0.56 0
  304.5 0.57 0
  304.6 0.53 0
  304.7 0.48 0
  304.8 0.45 0
  304.9 0.48 0
  305.0 0.54 0
  305.1 0.58 0
  305.2 0.58 0
  305.3 0.52 0
  305.4 0.47 0
  305.5 0.47 0
  305.6 0.52 0
  305.7 0.59 0
  305.8 0.61 0
  305.9 0.57 0
  306.0 0.5 0
  306.1 0.46 0
  306.2 0.47 0
  306.3 0.52 0
  306.4 0.56 0
  306.5 0.56 0
  306.6 0.52 0
  306.7 0.48 0
  306.8 0.47 0
  306.9 0.51 0
  307.0 0.55 0
  307.1 0.56 0
  307.2 0.53 0
  307.3 0.49 0
  307.4 0.48 0
  307.5 0.5 0
  307.6 0.53 0
  307.7 0.53 0
  307.8 0.51 0
  307.9 0.47 0
  308.0 0.46 0
  308.1 0.49 0
  308.2 0.54 0
  308.3 0.57 0
  308.4 0.55 0
  308.5 0.5 0
  308.6 0.46 0
  308.7 0.47 0
  308.8 0.52 0
  308.9 0.57 0
  309.0 0.57 0
  309.1 0.52 0
  309.2 0.47 0
  309.3 0.46 0
  309.4 0.49 0
  309.5 0.53 0
  309.6 0.55 0
  309.7 0.54 0
  309.8 0.51 0
  309.9 0.47 0
  310.0 0.47 0
  310.1 0.5 0
  310.2 0.55 0
  310.3 0.55 0
  310.4 0.52 0
  310.5 0.48 0
  310.6 0.49 0
  310.7 0.55 0
  310.8 0.63 0
  310.9 0.64 0
  311.0 0.58 0
  311.1 0.5 0
  311.2 0.46 0
  311.3 0.48 0
  311.4 0.54 0
  311.5 0.57 0
  311.6 0.56 0
  311.7 0.52 0
  311.8 0.47 0
  311.9 0.47 0
  312.0 0.5 0
  312.1 0.56 0
  312.2 0.62 0
  312.3 0.64 0
  312.4 0.6 0
  312.5 0.54 0
  312.6 0.53 0
  312.7 0.59 0
  312.8 0.65 0
  312.9 0.63 0
  313.0 0.54 0
  313.1 0.47 0
  313.2 0.47 0
  313.3 0.52 0
  313.4 0.56 0
  313.5 0.56 0
  313.6 0.53 0
  313.7 0.49 0
  313.8 0.48 0
  313.9 0.51 0
  314.0 0.55 0
  314.1 0.55 0
  314.2 0.51 0
  314.3 0.46 0
  314.4 0.46 0
  314.5 0.56 0
  314.6 0.79 0
  314.7 1.21 1
  314.8 1.81 1
  314.9 2.31 2
  315.0 2.28 2
  315.1 1.67 1
  315.2 0.94 0
  315.3 0.55 0
  315.4 0.49 0
  315.5 0.51 0
  315.6 0.48 0
  315.7 0.46 0
  315.8 0.47 0
  315.9 0.52 0
  316.0 0.57 0
  316.1 0.57 0
  316.2 0.53 0
  316.3 0.5 0
  316.4 0.5 0
  316.5 0.54 0
  316.6 0.58 0
  316.7 0.59 0
  316.8 0.56 0
  316.9 0.51 0
  317.0 0.49 0
  317.1 0.51 0
  317.2 0.54 0
  317.3 0.55 0
  317.4 0.52 0
  317.5 0.47 0
  317.6 0.45 0
  317.7 0.49 0
  317.8 0.58 0
  317.9 0.67 0
  318.0 0.67 0
  318.1 0.6 0
  318.2 0.51 0
  318.3 0.48 0
  318.4 0.5 0
  318.5 0.54 0
  318.6 0.56 0
  318.7 0.54 0
  318.8 0.51 0
  318.9 0.49 0
  319.0 0.49 0
  319.1 0.52 0
  319.2 0.55 0
  319.3 0.55 0
  319.4 0.51 0
  319.5 0.48 0
  319.6 0.49 0
  319.7 0.53 0
  319.8 0.57 0
  319.9 0.57 0
  320.0 0.53 0
  320.1 0.49 0
  320.2 0.47 0
  320.3 0.5 0
  320.4 0.54 0
  320.5 0.56 0
  320.6 0.55 0
  320.7 0.51 0
  320.8 0.49 0
  320.9 0.5 0
  321.0 0.54 0
  321.1 0.56 0
  321.2 0.55 0
  321.3 0.52 0
  321.4 0.5 0
  321.5 0.5 0
  321.6 0.53 0
  321.7 0.55 0
  321.8 0.55 0
  321.9 0.53 0
  322.0 0.49 0
  322.1 0.48 0
  322.2 0.49 0
  322.3 0.53 0
  322.4 0.56 0
  322.5 0.56 0
  322.6 0.52 0
  322.7 0.48 0
  322.8 0.48 0
  322.9 0.52 0
  323.0 0.56 0
  323.1 0.56 0
  323.2 0.51 0
  323.3 0.45 0
  323.4 0.43 0
  323.5 0.46 0
  323.6 0.52 0
  323.7 0.55 0
  323.8 0.53 0
  323.9 0.52 0
  324.0 0.53 0
  324.1 0.58 0
  324.2 0.62 0
  324.3 0.62 0
  324.4 0.58 0
  324.5 0.54 0
  324.6 0.5 0
  324.7 0.49 0
  324.8 0.5 0
  324.9 0.53 0
  325.0 0.55 0
  325.1 0.54 0
  325.2 0.51 0
  325.3 0.49 0
  325.4 0.49 0
  325.5 0.51 0
  325.6 0.53 0
  325.7 0.54 0
  325.8 0.53 0
  325.9 0.5 0
  326.0 0.49 0
  326.1 0.51 0
  326.2 0.55 0
  326.3 0.56 0
  326.4 0.51 0
  326.5 0.42 0
  326.6 0.35 0
  326.7 0.39 0
  326.8 0.71 0
  326.9 1.4 1
  327.0 2.16 2
  327.1 2.42 2
  327.2 1.95 1
  327.3 1.15 1
  327.4 0.61 0
  327.5 0.48 0
  327.6 0.52 0
  327.7 0.52 0
  327.8 0.48 0
  327.9 0.46 0
  328.0 0.5 0
  328.1 0.55 0
  328.2 0.56 0
  328.3 0.53 0
  328.4 0.5 0
  328.5 0.52 0
  328.6 0.58 0
  328.7 0.64 0
  328.8 0.67 0
  328.9 0.68 0
  329.0 0.67 0
  329.1 0.63 0
  329.2 0.58 0
  329.3 0.56 0
  329.4 0.55 0
  329.5 0.53 0
  329.6 0.49 0
  329.7 0.46 0
  329.8 0.46 0
  329.9 0.49 0
  330.0 0.52 0
  330.1 0.53 0
  330.2 0.52 0
  330.3 0.5 0
  330.4 0.49 0
  330.5 0.5 0
  330.6 0.53 0
  330.7 0.56 0
  330.8 0.57 0
  330.9 0.55 0
  331.0 0.52 0
  331.1 0.5 0
  331.2 0.52 0
  331.3 0.56 0
  331.4 0.58 0
  331.5 0.56 0
  331.6 0.52 0
  331.7 0.5 0
  331.8 0.52 0
  331.9 0.57 0
  332.0 0.59 0
  332.1 0.57 0
  332.2 0.52 0
  332.3 0.49 0
  332.4 0.49 0
  332.5 0.53 0
  332.6 0.57 0
  332.7 0.58 0
  332.8 0.55 0
  332.9 0.51 0
  333.0 0.49 0
  333.1 0.51 0
  333.2 0.55 0
  333.3 0.57 0
  333.4 0.56 0
  333.5 0.53 0
  333.6 0.49 0
  333.7 0.49 0
  333.8 0.51 0
  333.9 0.55 0
  334.0 0.56 0
  334.1 0.54 0
  334.2 0.51 0
  334.3 0.5 0
  334.4 0.53 0
  334.5 0.56 0
  334.6 0.57 0
  334.7 0.54 0
  334.8 0.49 0
  334.9 0.47 0
  335.0 0.48 0
  335.1 0.52 0
  335.2 0.55 0
  335.3 0.54 0
  335.4 0.5 0
  335.5 0.48 0
  335.6 0.49 0
  335.7 0.53 0
  335.8 0.56 0
  335.9 0.57 0
  336.0 0.54 0
  336.1 0.5 0
  336.2 0.48 0
  336.3 0.5 0
  336.4 0.54 0
  336.5 0.57 0
  336.6 0.55 0
  336.7 0.51 0
  336.8 0.47 0
  336.9 0.48 0
  337.0 0.53 0
  337.1 0.56 0
  337.2 0.56 0
  337.3 0.53 0
  337.4 0.49 0
  337.5 0.48 0
  337.6 0.51 0
  337.7 0.54 0
  337.8 0.55 0
  337.9 0.52 0
  338.0 0.48 0
  338.1 0.46 0
  338.2 0.5 0
  338.3 0.56 0
  338.4 0.6 0
  338.5 0.6 0
  338.6 0.55 0
  338.7 0.49 0
  338.8 0.48 0
  338.9 0.52 0
  339.0 0.57 0
  339.1 0.58 0
  339.2 0.54 0
  339.3 0.48 0
  339.4 0.46 0
  339.5 0.5 0
  339.6 0.56 0
  339.7 0.59 0
  339.8 0.55 0
  339.9 0.49 0
  340.0 0.45 0
  340.1 0.46 0
  340.2 0.5 0
  340.3 0.54 0
  340.4 0.55 0
  340.5 0.52 0
  340.6 0.49 0
  340.7 0.48 0
  340.8 0.51 0
  340.9 0.55 0
  341.0 0.57 0
  341.1 0.55 0
  341.2 0.53 0
  341.3 0.55 0
  341.4 0.62 0
  341.5 0.73 0
  341.6 0.77 0
  341.7 0.71 0
  341.8 0.58 0
  341.9 0.48 0
  342.0 0.47 0
  342.1 0.52 0
  342.2 0.58 0
  342.3 0.58 0
  342.4 0.54 0
  342.5 0.49 0
  342.6 0.48 0
  342.7 0.51 0
  342.8 0.55 0
  342.9 0.57 0
  343.0 0.54 0
  343.1 0.5 0
  343.2 0.47 0
  343.3 0.48 0
  343.4 0.51 0
  343.5 0.54 0
  343.6 0.55 0
  343.7 0.53 0
  343.8 0.5 0
  343.9 0.5 0
  344.0 0.52 0
  344.1 0.56 0
  344.2 0.58 0
  344.3 0.55 0
  344.4 0.5 0
  344.5 0.48 0
  344.6 0.51 0
  344.7 0.56 0
  344.8 0.58 0
  344.9 0.55 0
  345.0 0.51 0
  345.1 0.47 0
  345.2 0.48 0
  345.3 0.51 0
  345.4 0.55 0
  345.5 0.54 0
  345.6 0.51 0
  345.7 0.48 0
  345.8 0.48 0
  345.9 0.51 0
  346.0 0.55 0
  346.1 0.56 0
  346.2 0.53 0
  346.3 0.48 0
  346.4 0.47 0
  346.5 0.5 0
  346.6 0.56 0
  346.7 0.6 0
  346.8 0.59 0
  346.9 0.54 0
  347.0 0.49 0
  347.1 0.48 0
  347.2 0.51 0
  347.3 0.56 0
  347.4 0.58 0
  347.5 0.56 0
  347.6 0.51 0
  347.7 0.48 0
  347.8 0.51 0
  347.9 0.57 0
  348.0 0.61 0
  348.1 0.59 0
  348.2 0.54 0
  348.3 0.5 0
  348.4 0.51 0
  348.5 0.56 0
  348.6 0.6 0
  348.7 0.59 0
  348.8 0.53 0
  348.9 0.47 0
  349.0 0.46 0
  349.1 0.51 0
  349.2 0.55 0
  349.3 0.56 0
  349.4 0.52 0
  349.5 0.47 0
  349.6 0.45 0
  349.7 0.5 0
  349.8 0.57 0
  349.9 0.61 0
  350.0 0.59 0
  350.1 0.53 0
  350.2 0.47 0
  350.3 0.47 0
  350.4 0.5 0
  350.5 0.55 0
  350.6 0.55 0
  350.7 0.52 0
  350.8 0.48 0
  350.9 0.46 0
  351.0 0.49 0
  351.1 0.54 0
  351.2 0.59 0
  351.3 0.61 0
  351.4 0.59 0
  351.5 0.55 0
  351.6 0.51 0
  351.7 0.51 0
  351.8 0.53 0
  351.9 0.55 0
  352.0 0.54 0
  352.1 0.5 0
  352.2 0.48 0
  352.3 0.49 0
  352.4 0.53 0
  352.5 0.56 0
  352.6 0.56 0
  352.7 0.53 0
  352.8 0.5 0
  352.9 0.5 0
  353.0 0.54 0
  353.1 0.57 0
  353.2 0.57 0
  353.3 0.53 0
  353.4 0.49 0
  353.5 0.48 0
  353.6 0.51 0
  353.7 0.55 0
  353.8 0.55 0
  353.9 0.52 0
  354.0 0.49 0
  354.1 0.48 0
  354.2 0.49 0
  354.3 0.52 0
  354.4 0.54 0
  354.5 0.53 0
  354.6 0.5 0
  354.7 0.49 0
  354.8 0.51 0
  354.9 0.56 0
  355.0 0.6 0
  355.1 0.58 0
  355.2 0.52 0
  355.3 0.46 0
  355.4 0.46 0
  355.5 0.5 0
  355.6 0.56 0
  355.7 0.59 0
  355.8 0.56 0
  355.9 0.51 0
  356.0 0.46 0
  356.1 0.47 0
  356.2 0.5 0
  356.3 0.54 0
  356.4 0.54 0
  356.5 0.52 0
  356.6 0.49 0
  356.7 0.48 0
  356.8 0.5 0
  356.9 0.54 0
  357.0 0.56 0
  357.1 0.54 0
  357.2 0.5 0
  357.3 0.47 0
  357.4 0.49 0
  357.5 0.54 0
  357.6 0.56 0
  357.7 0.55 0
  357.8 0.51 0
  357.9 0.47 0
  358.0 0.48 0
  358.1 0.5 0
  358.2 0.53 0
  358.3 0.54 0
  358.4 0.52 0
  358.5 0.5 0
  358.6 0.5 0
  358.7 0.52 0
  358.8 0.55 0
  358.9 0.56 0
  359.0 0.53 0
  359.1 0.48 0
  359.2 0.45 0
  359.3 0.47 0
  359.4 0.52 0
  359.5 0.57 0
  359.6 0.58 0
  359.7 0.54 0
  359.8 0.48 0
  359.9 0.47 0
  360.0 0.5 0
  360.1 0.55 0
  360.2 0.57 0
  360.3 0.55 0
  360.4 0.5 0
  360.5 0.48 0
  360.6 0.5 0
  360.7 0.54 0
  360.8 0.56 0
  360.9 0.54 0
  361.0 0.5 0
  361.1 0.47 0
  361.2 0.48 0
  361.3 0.53 0
  361.4 0.57 0
  361.5 0.58 0
  361.6 0.55 0
  361.7 0.5 0
  361.8 0.47 0
  361.9 0.49 0
  362.0 0.53 0
  362.1 0.57 0
  362.2 0.56 0
  362.3 0.53 0
  362.4 0.51 0
  362.5 0.52 0
  362.6 0.56 0
  362.7 0.59 0
  362.8 0.57 0
  362.9 0.52 0
  363.0 0.48 0
  363.1 0.49 0
  363.2 0.52 0
  363.3 0.57 0
  363.4 0.57 0
  363.5 0.54 0
  363.6 0.5 0
  363.7 0.48 0
  363.8 0.51 0
  363.9 0.55 0
  364.0 0.58 0
  364.1 0.56 0
  364.2 0.51 0
  364.3 0.46 0
  364.4 0.45 0
  364.5 0.49 0
  364.6 0.54 0
  364.7 0.56 0
  364.8 0.55 0
  364.9 0.51 0
  365.0 0.5 0
  365.1 0.51 0
  365.2 0.53 0
  365.3 0.56 0
  365.4 0.55 0
  365.5 0.53 0
  365.6 0.5 0
  365.7 0.5 0
  365.8 0.53 0
  365.9 0.56 0
  366.0 0.55 0
  366.1 0.51 0
  366.2 0.46 0
  366.3 0.46 0
  366.4 0.5 0
  366.5 0.56 0
  366.6 0.59 0
  366.7 0.57 0
  366.8 0.51 0
  366.9 0.47 0
  367.0 0.49 0
  367.1 0.53 0
  367.2 0.57 0
  367.3 0.56 0
  367.4 0.52 0
  367.5 0.48 0
  367.6 0.47 0
  367.7 0.51 0
  367.8 0.57 0
  367.9 0.59 0
  368.0 0.56 0
  368.1 0.51 0
  368.2 0.49 0
  368.3 0.5 0
  368.4 0.53 0
  368.5 0.54 0
  368.6 0.52 0
  368.7 0.49 0
  368.8 0.48 0
  368.9 0.5 0
  369.0 0.54 0
  369.1 0.58 0
  369.2 0.58 0
  369.3 0.53 0
  369.4 0.48 0
  369.5 0.46 0
  369.6 0.49 0
  369.7 0.53 0
  369.8 0.55 0
  369.9 0.53 0
  370.0 0.49 0
  370.1 0.48 0
  370.2 0.51 0
  370.3 0.56 0
  370.4 0.58 0
  370.5 0.55 0
  370.6 0.49 0
  370.7 0.46 0
  370.8 0.46 0
  370.9 0.5 0
  371.0 0.53 0
  371.1 0.54 0
  371.2 0.52 0
  371.3 0.5 0
  371.4 0.49 0
  371.5 0.51 0
  371.6 0.54 0
  371.7 0.56 0
  371.8 0.54 0
  371.9 0.5 0
  372.0 0.46 0
  372.1 0.47 0
  372.2 0.52 0
  372.3 0.57 0
  372.4 0.57 0
  372.5 0.53 0
  372.6 0.48 0
  372.7 0.46 0
  372.8 0.5 0
  372.9 0.54 0
  373.0 0.56 0
  373.1 0.53 0
  373.2 0.49 0
  373.3 0.47 0
  373.4 0.5 0
  373.5 0.55 0
  373.6 0.58 0
  373.7 0.57 0
  373.8 0.53 0
  373.9 0.48 0
  374.0 0.47 0
  374.1 0.5 0
  374.2 0.54 0
  374.3 0.55 0
  374.4 0.52 0
  374.5 0.49 0
  374.6 0.49 0
  374.7 0.52 0
  374.8 0.56 0
  374.9 0.57 0
  375.0 0.54 0
  375.1 0.48 0
  375.2 0.45 0
  375.3 0.46 0
  375.4 0.51 0
  375.5 0.56 0
  375.6 0.57 0
  375.7 0.54 0
  375.8 0.5 0
  375.9 0.47 0
  376.0 0.5 0
  376.1 0.54 0
  376.2 0.57 0
  376.3 0.56 0
  376.4 0.53 0
  376.5 0.51 0
  376.6 0.51 0
  376.7 0.54 0
  376.8 0.56 0
  376.9 0.55 0
  377.0 0.51 0
  377.1 0.48 0
  377.2 0.49 0
  377.3 0.53 0
  377.4 0.58 0
  377.5 0.59 0
  377.6 0.56 0
  377.7 0.5 0
  377.8 0.48 0
  377.9 0.49 0
  378.0 0.54 0
  378.1 0.57 0
  378.2 0.56 0
  378.3 0.52 0
  378.4 0.5 0
  378.5 0.52 0
  378.6 0.56 0
  378.7 0.59 0
  378.8 0.58 0
  378.9 0.53 0
  379.0 0.47 0
  379.1 0.46 0
  379.2 0.5 0
  379.3 0.56 0
  379.4 0.59 0
  379.5 0.57 0
  379.6 0.52 0
  379.7 0.49 0
  379.8 0.51 0
  379.9 0.56 0
  380.0 0.59 0
  380.1 0.56 0
  380.2 0.5 0
  380.3 0.46 0
  380.4 0.46 0
  380.5 0.5 0
  380.6 0.54 0
  380.7 0.56 0
  380.8 0.57 0
  380.9 0.56 0
  381.0 0.55 0
  381.1 0.54 0
  381.2 0.54 0
  381.3 0.54 0
  381.4 0.53 0
  381.5 0.5 0
  381.6 0.49 0
  381.7 0.54 0
  381.8 0.61 0
  381.9 0.64 0
  382.0 0.6 0
  382.1 0.53 0
  382.2 0.46 0
  382.3 0.45 0
  382.4 0.49 0
  382.5 0.54 0
  382.6 0.57 0
  382.7 0.54 0
  382.8 0.5 0
  382.9 0.48 0
  383.0 0.49 0
  383.1 0.54 0
  383.2 0.57 0
  383.3 0.56 0
  383.4 0.52 0
  383.5 0.48 0
  383.6 0.49 0
  383.7 0.53 0
  383.8 0.58 0
  383.9 0.59 0
  384.0 0.54 0
  384.1 0.48 0
  384.2 0.46 0
  384.3 0.49 0
  384.4 0.55 0
  384.5 0.57 0
  384.6 0.55 0
  384.7 0.5 0
  384.8 0.48 0
  384.9 0.5 0
  385.0 0.54 0
  385.1 0.57 0
  385.2 0.55 0
  385.3 0.5 0
  385.4 0.45 0
  385.5 0.45 0
  385.6 0.5 0
  385.7 0.56 0
  385.8 0.57 0
  385.9 0.54 0
  386.0 0.48 0
  386.1 0.46 0
  386.2 0.49 0
  386.3 0.54 0
  386.4 0.57 0
  386.5 0.55 0
  386.6 0.49 0
  386.7 0.46 0
  386.8 0.47 0
  386.9 0.52 0
  387.0 0.57 0
  387.1 0.56 0
  387.2 0.51 0
  387.3 0.46 0
  387.4 0.44 0
  387.5 0.47 0
  387.6 0.53 0
  387.7 0.57 0
  387.8 0.55 0
  387.9 0.51 0
  388.0 0.47 0
  388.1 0.48 0
  388.2 0.53 0
  388.3 0.58 0
  388.4 0.58 0
  388.5 0.54 0
  388.6 0.49 0
  388.7 0.47 0
  388.8 0.51 0
  388.9 0.56 0
  389.0 0.56 0
  389.1 0.52 0
  389.2 0.48 0
  389.3 0.47 0
  389.4 0.5 0
  389.5 0.56 0
  389.6 0.58 0
  389.7 0.56 0
  389.8 0.5 0
  389.9 0.46 0
  390.0 0.46 0
  390.1 0.51 0
  390.2 0.55 0
  390.3 0.55 0
  390.4 0.51 0
  390.5 0.47 0
  390.6 0.49 0
  390.7 0.59 0
  390.8 0.79 0
  390.9 1.04 1
  391.0 1.22 1
  391.1 1.2 1
  391.2 0.98 0
  391.3 0.7 0
  391.4 0.55 0
  391.5 0.51 0
  391.6 0.52 0
  391.7 0.51 0
  391.8 0.49 0
  391.9 0.48 0
  392.0 0.5 0
  392.1 0.54 0
  392.2 0.57 0
  392.3 0.55 0
  392.4 0.5 0
  392.5 0.46 0
  392.6 0.48 0
  392.7 0.54 0
  392.8 0.58 0
  392.9 0.57 0
  393.0 0.52 0
  393.1 0.49 0
  393.2 0.5 0
  393.3 0.55 0
  393.4 0.59 0
  393.5 0.58 0
  393.6 0.53 0
  393.7 0.48 0
  393.8 0.49 0
  393.9 0.56 0
  394.0 0.66 0
  394.1 0.69 0
  394.2 0.64 0
  394.3 0.55 0
  394.4 0.49 0
  394.5 0.49 0
  394.6 0.52 0
  394.7 0.56 0
  394.8 0.58 0
  394.9 0.59 0
  395.0 0.58 0
  395.1 0.57 0
  395.2 0.56 0
  395.3 0.56 0
  395.4 0.56 0
  395.5 0.53 0
  395.6 0.5 0
  395.7 0.5 0
  395.8 0.52 0
  395.9 0.56 0
  396.0 0.57 0
  396.1 0.55 0
  396.2 0.51 0
  396.3 0.48 0
  396.4 0.48 0
  396.5 0.53 0
  396.6 0.57 0
  396.7 0.58 0
  396.8 0.56 0
  396.9 0.52 0
  397.0 0.49 0
  397.1 0.51 0
  397.2 0.54 0
  397.3 0.56 0
  397.4 0.54 0
  397.5 0.5 0
  397.6 0.47 0
  397.7 0.48 0
  397.8 0.53 0
  397.9 0.56 0
  398.0 0.55 0
  398.1 0.52 0
  398.2 0.5 0
  398.3 0.5 0
  398.4 0.52 0
  398.5 0.56 0
  398.6 0.57 0
  398.7 0.55 0
  398.8 0.51 0
  398.9 0.48 0
  399.0 0.5 0
  399.1 0.54 0
  399.2 0.56 0
  399.3 0.55 0
  399.4 0.51 0
  399.5 0.48 0
  399.6 0.49 0
  399.7 0.54 0
  399.8 0.58 0
  399.9 0.58 0
  400.0 0.53 0
  400.1 0.49 0
  400.2 0.48 0
  400.3 0.5 0
  400.4 0.54 0
  400.5 0.55 0
  400.6 0.53 0
  400.7 0.48 0
  400.8 0.45 0
  400.9 0.48 0
  401.0 0.55 0
  401.1 0.6 0
  401.2 0.59 0
  401.3 0.53 0
  401.4 0.48 0
  401.5 0.47 0
  401.6 0.51 0
  401.7 0.55 0
  401.8 0.54 0
  401.9 0.5 0
  402.0 0.46 0
  402.1 0.46 0
  402.2 0.5 0
  402.3 0.54 0
  402.4 0.55 0
  402.5 0.52 0
  402.6 0.47 0
  402.7 0.44 0
  402.8 0.46 0
  402.9 0.52 0
  403.0 0.58 0
  403.1 0.58 0
  403.2 0.54 0
  403.3 0.49 0
  403.4 0.47 0
  403.5 0.51 0
  403.6 0.56 0
  403.7 0.59 0
  403.8 0.56 0
  403.9 0.5 0
  404.0 0.45 0
  404.1 0.45 0
  404.2 0.49 0
  404.3 0.55 0
  404.4 0.56 0
  404.5 0.52 0
  404.6 0.47 0
  404.7 0.46 0
  404.8 0.5 0
  404.9 0.54 0
  405.0 0.54 0
  405.1 0.51 0
  405.2 0.47 0
  405.3 0.46 0
  405.4 0.47 0
  405.5 0.51 0
  405.6 0.54 0
  405.7 0.54 0
  405.8 0.5 0
  405.9 0.47 0
  406.0 0.47 0
  406.1 0.52 0
  406.2 0.57 0
  406.3 0.57 0
  406.4 0.52 0
  406.5 0.46 0
  406.6 0.45 0
  406.7 0.49 0
  406.8 0.55 0
  406.9 0.58 0
  407.0 0.56 0
  407.1 0.52 0
  407.2 0.48 0
  407.3 0.49 0
  407.4 0.54 0
  407.5 0.57 0
  407.6 0.54 0
  407.7 0.46 0
  407.8 0.37 0
  407.9 0.31 0
  408.0 0.31 0
  408.1 0.41 0
  408.2 0.78 0
  408.3 1.99 1
  408.4 4.4 4
  408.5 7.67 7
  408.6 10.99 10
  408.7 14.11 14
  408.8 17.86 17
  408.9 25.04 25
  409.0 39.9 39
  409.1 63.18 63
  409.2 86.87 86
  409.3 98.55 98
  409.4 92.17 92
  409.5 71.66 71
  409.6 45.37 45
  409.7 21.05 21
  409.8 5.92 5
  409.9 0.31 0
  436.8 4.09 4
  436.9 4.96 4
  437.0 9.29 9
  437.1 16.8 16
  437.2 24.28 24
  437.3 28.25 28
  437.4 26.91 26
  437.5 20.31 20
  437.6 10.88 10
  437.7 2.95 2
  454.4 0.65 0
  454.5 2.43 2
  454.6 5.5 5
  454.7 9.69 9
  454.8 15.19 15
  454.9 23.76 23
  455.0 38.22 38
  455.1 58.97 58
  455.2 81.29 81
  455.3 97.36 97
  455.4 99.98 99
  455.5 85.22 85
  455.6 55.83 55
  455.7 23.25 23
  455.8 2.04 2
//
