ACCESSION: MSBNK-RIKEN_NPDepo-NGA00888
RECORD_TITLE: Tschimganin; LC-ESI-QQQ; MS2; Frag=135.0V CID@5.0; [M+Na]+
DATE: 2018.04.04
AUTHORS: Nogawa T, Okano A, CSRS, RIKEN
LICENSE: CC BY
COMMENT: Origin: Plant
COMMENT: SubCategory_DNP: Sesquiterpenoids
CH$NAME: Tschimganin
CH$COMPOUND_CLASS: Terpenoids
CH$FORMULA: C18H24O4
CH$EXACT_MASS: 304.3896
CH$SMILES: COc1cc(C(=O)OC2CC3CCC2(C)C3(C)C)ccc1O
CH$IUPAC: InChI=1S/C18H24O4/c1-17(2)12-7-8-18(17,3)15(10-12)22-16(20)11-5-6-13(19)14(9-11)21-4/h5-6,9,12,15,19H,7-8,10H2,1-4H3
CH$LINK: CAS 38970-49-9
CH$LINK: INCHIKEY KTOAGBIQQPGNIR-UHFFFAOYSA-N
CH$LINK: PUBCHEM CID:2946267
AC$INSTRUMENT: Agilent 6410 Triple Quadrupole LC/MS system
AC$INSTRUMENT_TYPE: LC-ESI-QQQ
AC$MASS_SPECTROMETRY: MS_TYPE MS2
AC$MASS_SPECTROMETRY: ION_MODE POSITIVE
MS$FOCUSED_ION: PRECURSOR_TYPE [M+Na]+
PK$SPLASH: splash10-004i-0009000000-c13249fd310ed3674e36
PK$NUM_PEAK: 14
PK$PEAK: m/z int. rel.int.
  326.4 3.54 3
  326.5 5.26 5
  326.6 9.11 9
  326.7 18.54 18
  326.8 36.29 36
  326.9 59.77 59
  327.0 81.57 81
  327.1 95.56 95
  327.2 99.97 99
  327.3 93.7 93
  327.4 74.62 74
  327.5 45.25 45
  327.6 16.36 16
  327.7 0.46 0
//
