ACCESSION: MSBNK-RIKEN_NPDepo-NGA01065
RECORD_TITLE: Melezitose; LC-ESI-QQQ; MS2; Frag=135.0V CID@5.0; [M+Na]+
DATE: 2018.04.04
AUTHORS: Nogawa T, Okano A, CSRS, RIKEN
LICENSE: CC BY
COMMENT: Origin: Plant
COMMENT: Formula(Parent): C18H32O16
COMMENT: Bottle Name:D-(+)-Melezitose monohydrate / D-(+)-Melezitose hydrate
COMMENT: PRIME Parent Name:D-Melezitose
COMMENT: PRIME in-house No.:?V0068 S0210, Polysaccharides (?V0068: D-Melezitose, ?S0210: D-Melezitose)
CH$NAME: Glc(alpha1-3)Fruf(beta2-1alpha)Glc
CH$NAME: Melizitose
CH$NAME: O-alpha-D-Glucopyranosyl-(1-3)-beta-D-fructofuranosyl-alpha-D-glucopyranoside / Glc(alpha1-3)Fruf(beta2-1alpha)Glc
CH$NAME: O-alpha-D-Glucopyranosyl-(1-3)-beta-D-fructofuranosyl-alpha-D-glucopyranoside
CH$NAME: Melezitose
CH$COMPOUND_CLASS: Carbohydrates
CH$FORMULA: C18H32O16
CH$EXACT_MASS: 504.4461
CH$SMILES: OC[C@H]1O[C@H](O[C@H]2[C@H](O)[C@@H](CO)O[C@@]2(CO)O[C@H]2O[C@H](CO)[C@@H](O)[C@H](O)[C@H]2O)[C@H](O)[C@@H](O)[C@@H]1O
CH$IUPAC: InChI=1S/C18H32O16/c19-1-5-8(23)11(26)13(28)16(30-5)32-15-10(25)7(3-21)33-18(15,4-22)34-17-14(29)12(27)9(24)6(2-20)31-17/h5-17,19-29H,1-4H2/t5-,6-,7-,8-,9-,10-,11+,12+,13-,14-,15+,16-,17-,18+/m1/s1
CH$LINK: CAS 597-12-6
CH$LINK: CHEMSPIDER 83787
CH$LINK: INCHIKEY QWIZNVHXZXRPDR-WSCXOGSTSA-N
CH$LINK: COMPTOX DTXSID20883458
CH$LINK: PUBCHEM CID:92817
AC$INSTRUMENT: Agilent 6410 Triple Quadrupole LC/MS system
AC$INSTRUMENT_TYPE: LC-ESI-QQQ
AC$MASS_SPECTROMETRY: MS_TYPE MS2
AC$MASS_SPECTROMETRY: ION_MODE POSITIVE
MS$FOCUSED_ION: PRECURSOR_TYPE [M+Na]+
PK$SPLASH: splash10-004i-0000090000-69b561cdc432a926f206
PK$NUM_PEAK: 17
PK$PEAK: m/z int. rel.int.
  526.0 0.59 0
  526.1 1.83 1
  526.2 4.48 4
  526.3 8.14 8
  526.4 11.42 11
  526.5 13.75 13
  526.6 17.62 17
  526.7 27.18 27
  526.8 43.84 43
  526.9 64.68 64
  527.0 84.67 84
  527.1 98.31 98
  527.2 99.48 99
  527.3 83.98 83
  527.4 55.03 54
  527.5 24.21 24
  527.6 3.55 3
//
