ACCESSION: MSBNK-RIKEN_NPDepo-NGA00159
RECORD_TITLE: Alloside B; LC-ESI-QQQ; MS2; Frag=135.0V CID@10.0; [M+Na]+
DATE: 2018.04.04
AUTHORS: Nogawa T, Okano A, CSRS, RIKEN
LICENSE: CC BY
COMMENT: Origin: Plant
COMMENT: SubCategory_DNP: The sterols, Cholestanes
CH$NAME: Alloside B
CH$COMPOUND_CLASS: Steroids
CH$FORMULA: C39H66O14
CH$EXACT_MASS: 758.9525
CH$SMILES: CC(C)CCC(O)[C@@H](C)C1C(O[C@@H]2OC(CO)[C@@H](O)C(O)C2O)CC2C3CC=C4C[C@@H](O)CC(O[C@@H]5OC(CO)[C@@H](O)C(O)C5O)[C@]4(C)C3CC[C@@]21C
CH$IUPAC: InChI=1S/C39H66O14/c1-17(2)6-9-24(43)18(3)29-25(50-36-34(48)32(46)30(44)26(15-40)51-36)14-23-21-8-7-19-12-20(42)13-28(39(19,5)22(21)10-11-38(23,29)4)53-37-35(49)33(47)31(45)27(16-41)52-37/h7,17-18,20-37,40-49H,6,8-16H2,1-5H3/t18-,20-,21?,22?,23?,24?,25?,26?,27?,28?,29?,30-,31-,32?,33?,34?,35?,36-,37+,38+,39+/m1/s1
CH$LINK: CAS 142735-55-5
CH$LINK: CHEMSPIDER 2331841
CH$LINK: INCHIKEY JPJDIOVDAAVUNF-JCBACFEVSA-N
AC$INSTRUMENT: Agilent 6410 Triple Quadrupole LC/MS system
AC$INSTRUMENT_TYPE: LC-ESI-QQQ
AC$MASS_SPECTROMETRY: MS_TYPE MS2
AC$MASS_SPECTROMETRY: ION_MODE POSITIVE
MS$FOCUSED_ION: PRECURSOR_TYPE [M+Na]+
PK$SPLASH: splash10-001i-1453653920-f686378df914fd5c5d89
PK$NUM_PEAK: 2327
PK$PEAK: m/z int. rel.int.
  53.6 4.09 4
  53.7 5.39 5
  53.8 6.44 6
  53.9 6.79 6
  54.0 6.58 6
  54.1 6.21 6
  54.2 5.95 5
  54.3 5.76 5
  54.4 5.46 5
  54.5 4.98 4
  54.6 4.45 4
  54.7 4.2 4
  54.8 4.39 4
  54.9 4.83 4
  55.0 5.27 5
  55.1 5.64 5
  55.2 5.9 5
  55.3 5.85 5
  55.4 5.41 5
  55.5 4.73 4
  55.6 4.09 4
  55.7 3.65 3
  55.8 3.51 3
  55.9 3.64 3
  56.0 3.94 3
  56.1 4.35 4
  56.2 4.78 4
  56.3 5.2 5
  56.4 5.53 5
  56.5 5.85 5
  56.6 6.13 6
  56.7 6.15 6
  56.8 5.67 5
  64.0 2.57 2
  64.1 3.74 3
  64.2 4.8 4
  64.3 5.46 5
  64.4 5.48 5
  64.5 4.82 4
  64.6 3.91 3
  64.7 3.4 3
  64.8 3.6 3
  64.9 4.27 4
  65.0 4.9 4
  65.1 5.34 5
  65.2 5.6 5
  65.3 5.47 5
  65.4 4.81 4
  65.5 3.97 3
  65.6 3.6 3
  65.7 3.87 3
  65.8 4.27 4
  65.9 4.36 4
  66.0 4.26 4
  66.1 4.32 4
  66.2 4.71 4
  66.3 5.3 5
  66.4 5.87 5
  66.5 6.13 6
  66.6 5.77 5
  66.7 4.72 4
  75.0 3.39 3
  75.1 4.54 4
  75.2 5.77 5
  75.3 6.64 6
  75.4 6.66 6
  75.5 5.72 5
  79.5 2.84 2
  79.6 4.31 4
  79.7 5.47 5
  79.8 6.1 6
  79.9 6.41 6
  80.0 6.48 6
  80.1 6.02 6
  80.2 4.94 4
  87.4 2.92 2
  87.5 4.05 4
  87.6 5.18 5
  87.7 6.04 6
  87.8 6.33 6
  87.9 5.94 5
  88.0 5.11 5
  88.1 4.31 4
  88.2 3.81 3
  88.3 3.66 3
  88.4 3.9 3
  88.5 4.51 4
  88.6 5.3 5
  88.7 6.01 6
  88.8 6.47 6
  88.9 6.58 6
  89.0 6.22 6
  89.1 5.38 5
  107.4 3.5 3
  107.5 4.8 4
  107.6 5.87 5
  107.7 6.18 6
  107.8 5.83 5
  107.9 5.28 5
  108.0 4.78 4
  108.1 4.27 4
  108.2 3.74 3
  108.3 3.33 3
  108.4 3.03 3
  108.5 2.8 2
  108.6 2.55 2
  108.7 2.39 2
  108.8 2.47 2
  108.9 3.02 3
  109.0 3.92 3
  109.1 4.67 4
  109.2 4.72 4
  109.3 4.12 4
  109.4 3.39 3
  109.5 3.01 3
  109.6 3.08 3
  109.7 3.57 3
  109.8 4.4 4
  109.9 5.25 5
  110.0 5.51 5
  110.1 4.94 4
  110.2 4.06 4
  110.3 3.52 3
  110.4 3.42 3
  110.5 3.41 3
  110.6 3.28 3
  110.7 3.19 3
  110.8 3.28 3
  110.9 3.43 3
  111.0 3.54 3
  111.1 3.7 3
  111.2 3.97 3
  111.3 4.23 4
  111.4 4.33 4
  111.5 4.34 4
  111.6 4.23 4
  111.7 3.97 3
  111.8 3.65 3
  111.9 3.6 3
  112.0 3.91 3
  112.1 4.26 4
  112.2 4.38 4
  112.3 4.39 4
  112.4 4.53 4
  112.5 4.71 4
  112.6 4.69 4
  112.7 4.37 4
  112.8 3.87 3
  112.9 3.42 3
  113.0 3.22 3
  113.1 3.53 3
  113.2 4.32 4
  113.3 5.15 5
  113.4 5.55 5
  113.5 5.4 5
  113.6 4.83 4
  113.7 3.88 3
  113.8 2.62 2
  114.3 1.9 1
  114.4 3.16 3
  114.5 4.32 4
  114.6 4.96 4
  114.7 4.9 4
  114.8 4.25 4
  114.9 3.39 3
  115.0 2.77 2
  115.1 2.74 2
  115.2 3.35 3
  115.3 4.41 4
  115.4 5.54 5
  115.5 6.42 6
  115.6 6.76 6
  115.7 6.52 6
  115.8 5.87 5
  115.9 5.09 5
  116.0 4.4 4
  116.1 3.88 3
  116.2 3.55 3
  116.3 3.42 3
  116.4 3.48 3
  116.5 3.71 3
  116.6 3.98 3
  116.7 4.13 4
  116.8 3.99 3
  116.9 3.49 3
  117.0 2.88 2
  117.1 2.6 2
  117.2 2.85 2
  117.3 3.38 3
  117.4 3.83 3
  117.5 4.08 4
  117.6 4.18 4
  117.7 4.27 4
  117.8 4.48 4
  117.9 4.83 4
  118.0 5.08 5
  118.1 4.89 4
  118.2 4.23 4
  118.3 3.54 3
  118.4 3.27 3
  118.5 3.42 3
  118.6 3.7 3
  118.7 3.98 3
  118.8 4.4 4
  118.9 4.89 4
  119.0 5.2 5
  119.1 5.11 5
  119.2 4.71 4
  119.3 4.29 4
  119.4 4.17 4
  119.5 4.48 4
  119.6 5.03 5
  119.7 5.5 5
  119.8 5.68 5
  119.9 5.64 5
  120.0 5.48 5
  120.1 5.14 5
  120.2 4.57 4
  120.3 4.01 4
  120.4 3.87 3
  120.5 4.19 4
  120.6 4.57 4
  120.7 4.81 4
  120.8 5.06 5
  120.9 5.39 5
  121.0 5.65 5
  121.1 5.72 5
  121.2 5.64 5
  121.3 5.52 5
  121.4 5.25 5
  121.5 4.66 4
  122.0 3.19 3
  122.1 4.37 4
  122.2 5.46 5
  122.3 6.11 6
  122.4 6.14 6
  122.5 5.53 5
  133.4 3.64 3
  133.5 5.04 5
  133.6 6.36 6
  133.7 6.98 6
  133.8 6.54 6
  142.2 4.15 4
  142.3 5.34 5
  142.4 6.4 6
  142.5 6.92 6
  142.6 6.69 6
  142.7 5.73 5
  143.3 4.23 4
  143.4 5.22 5
  143.5 6.14 6
  143.6 6.86 6
  143.7 7.12 7
  143.8 6.74 6
  143.9 5.82 5
  144.0 4.91 4
  144.1 4.6 4
  144.2 5.0 4
  144.3 5.61 5
  144.4 5.92 5
  144.5 5.93 5
  144.6 5.99 5
  144.7 6.18 6
  144.8 6.27 6
  144.9 6.03 6
  145.0 5.52 5
  145.1 4.92 4
  145.2 4.42 4
  145.3 4.23 4
  145.4 4.41 4
  145.5 4.79 4
  145.6 5.07 5
  145.7 5.05 5
  145.8 4.82 4
  145.9 4.57 4
  146.0 4.29 4
  146.1 3.74 3
  146.2 3.03 3
  146.3 2.53 2
  146.4 2.52 2
  146.5 2.93 2
  146.6 3.68 3
  146.7 4.77 4
  146.8 5.95 5
  146.9 6.72 6
  147.0 6.77 6
  147.1 6.19 6
  147.2 5.38 5
  147.3 4.58 4
  147.4 3.9 3
  147.5 3.52 3
  147.6 3.58 3
  147.7 4.09 4
  147.8 4.84 4
  147.9 5.54 5
  148.0 6.04 6
  148.1 6.26 6
  148.2 6.2 6
  148.3 5.86 5
  148.4 5.34 5
  148.5 4.87 4
  148.6 4.68 4
  148.7 4.72 4
  148.8 4.73 4
  148.9 4.62 4
  149.0 4.58 4
  149.1 4.82 4
  149.2 5.37 5
  149.3 5.97 5
  149.4 6.23 6
  149.5 5.86 5
  155.7 3.52 3
  155.8 4.84 4
  155.9 6.11 6
  156.0 6.78 6
  156.1 6.53 6
  156.2 5.6 5
  157.9 4.15 4
  158.0 5.35 5
  158.1 6.48 6
  158.2 7.02 7
  158.3 6.62 6
  158.4 5.32 5
  177.0 4.6 4
  177.1 5.93 5
  177.2 7.08 7
  177.3 7.4 7
  177.4 6.66 6
  184.6 2.55 2
  184.7 3.95 3
  184.8 5.18 5
  184.9 5.87 5
  185.0 5.92 5
  185.1 5.6 5
  185.2 5.32 5
  185.3 5.24 5
  185.4 5.16 5
  185.5 4.86 4
  185.6 4.41 4
  185.7 4.07 4
  185.8 4.07 4
  185.9 4.48 4
  186.0 5.14 5
  186.1 5.73 5
  186.2 5.89 5
  186.3 5.51 5
  186.4 4.74 4
  202.8 2.41 2
  202.9 3.63 3
  203.0 4.69 4
  203.1 4.97 4
  203.2 4.42 4
  203.3 3.58 3
  203.4 3.02 3
  203.5 2.87 2
  203.6 3.05 3
  203.7 3.39 3
  203.8 3.82 3
  203.9 4.27 4
  204.0 4.63 4
  204.1 4.7 4
  204.2 4.39 4
  204.3 3.8 3
  204.4 3.17 3
  204.5 2.81 2
  204.6 2.99 2
  204.7 3.66 3
  204.8 4.56 4
  204.9 5.37 5
  205.0 5.83 5
  205.1 5.81 5
  205.2 5.38 5
  205.3 4.73 4
  205.4 4.03 4
  205.5 3.38 3
  205.6 2.78 2
  205.7 2.41 2
  205.8 2.41 2
  205.9 2.74 2
  206.0 3.28 3
  206.1 3.91 3
  206.2 4.57 4
  206.3 5.11 5
  206.4 5.35 5
  206.5 5.27 5
  206.6 4.97 4
  206.7 4.53 4
  206.8 4.05 4
  206.9 3.68 3
  207.0 3.76 3
  207.1 4.45 4
  207.2 5.49 5
  207.3 6.24 6
  207.4 6.2 6
  207.5 5.52 5
  207.6 4.73 4
  207.7 4.24 4
  207.8 4.09 4
  207.9 4.09 4
  208.0 4.11 4
  208.1 4.1 4
  208.2 4.01 4
  208.3 3.78 3
  208.4 3.57 3
  208.5 3.61 3
  208.6 4.02 4
  208.7 4.57 4
  208.8 4.92 4
  208.9 4.85 4
  209.0 4.45 4
  209.1 4.03 4
  209.2 3.91 3
  209.3 4.11 4
  209.4 4.44 4
  209.5 4.67 4
  209.6 4.81 4
  209.7 4.92 4
  209.8 5.02 5
  209.9 4.97 4
  210.0 4.6 4
  210.1 3.95 3
  210.2 3.34 3
  210.3 3.08 3
  210.4 3.27 3
  210.5 3.74 3
  210.6 4.37 4
  210.7 5.07 5
  210.8 5.52 5
  210.9 5.3 5
  211.0 4.36 4
  211.1 3.22 3
  211.2 2.62 2
  211.3 2.78 2
  211.4 3.17 3
  211.5 3.3 3
  211.6 3.38 3
  211.7 4.03 4
  211.8 5.29 5
  211.9 6.45 6
  212.0 6.69 6
  212.1 5.78 5
  212.2 4.25 4
  224.9 3.41 3
  225.0 4.63 4
  225.1 5.62 5
  225.2 5.96 5
  225.3 5.74 5
  225.4 5.21 5
  225.5 4.37 4
  226.1 2.69 2
  226.2 3.69 3
  226.3 4.72 4
  226.4 5.54 5
  226.5 5.87 5
  226.6 5.6 5
  226.7 4.81 4
  226.8 3.9 3
  226.9 3.33 3
  227.0 3.41 3
  227.1 3.96 3
  227.2 4.43 4
  227.3 4.48 4
  227.4 4.17 4
  227.5 3.77 3
  227.6 3.5 3
  227.7 3.38 3
  227.8 3.24 3
  227.9 2.9 2
  228.0 2.43 2
  228.1 2.07 2
  228.2 2.09 2
  228.3 2.63 2
  228.4 3.67 3
  228.5 4.93 4
  228.6 5.95 5
  228.7 6.36 6
  228.8 6.11 6
  228.9 5.36 5
  229.0 4.41 4
  229.1 3.57 3
  229.2 3.09 3
  229.3 3.07 3
  229.4 3.34 3
  229.5 3.66 3
  229.6 3.86 3
  229.7 3.97 3
  229.8 3.92 3
  229.9 3.7 3
  230.0 3.4 3
  230.1 3.14 3
  230.2 2.89 2
  230.3 2.7 2
  230.4 2.77 2
  230.5 3.33 3
  230.6 4.15 4
  230.7 4.77 4
  230.8 4.95 4
  230.9 4.76 4
  231.0 4.35 4
  231.1 3.75 3
  231.2 3.01 3
  231.3 2.31 2
  231.4 1.94 1
  231.5 2.19 2
  231.6 3.2 3
  231.7 4.68 4
  231.8 6.03 6
  231.9 6.77 6
  232.0 6.68 6
  232.1 5.73 5
  232.2 4.07 4
  232.6 1.68 1
  232.7 3.4 3
  232.8 5.24 5
  232.9 6.53 6
  233.0 6.86 6
  233.1 6.28 6
  238.3 3.13 3
  238.4 4.39 4
  238.5 5.46 5
  238.6 5.95 5
  238.7 5.66 5
  238.8 4.84 4
  238.9 4.11 4
  239.0 3.88 3
  239.1 3.92 3
  239.2 3.91 3
  239.3 4.0 3
  239.4 4.57 4
  239.5 5.46 5
  239.6 6.15 6
  239.7 6.27 6
  239.8 5.91 5
  239.9 5.18 5
  240.4 3.81 3
  240.5 5.03 5
  240.6 6.08 6
  240.7 6.72 6
  240.8 6.8 6
  240.9 6.39 6
  241.0 5.68 5
  241.1 4.86 4
  241.2 4.1 4
  241.3 3.63 3
  241.4 3.57 3
  241.5 3.83 3
  241.6 4.14 4
  241.7 4.29 4
  241.8 4.4 4
  241.9 4.61 4
  242.0 4.79 4
  242.1 4.69 4
  242.2 4.27 4
  242.3 3.68 3
  242.4 3.09 3
  242.5 2.7 2
  242.6 2.76 2
  242.7 3.38 3
  242.8 4.19 4
  242.9 4.73 4
  243.0 4.95 4
  243.1 5.1 5
  243.2 5.3 5
  243.3 5.35 5
  243.4 5.14 5
  243.5 4.84 4
  243.6 4.7 4
  243.7 4.72 4
  243.8 4.83 4
  243.9 5.06 5
  244.0 5.4 5
  244.1 5.65 5
  244.2 5.71 5
  244.3 5.63 5
  244.4 5.4 5
  244.5 4.94 4
  244.6 4.3 4
  244.7 3.65 3
  244.8 3.04 3
  244.9 2.58 2
  245.0 2.61 2
  245.1 3.47 3
  245.2 4.88 4
  245.3 5.97 5
  245.4 6.05 6
  245.5 5.27 5
  245.6 4.38 4
  245.7 3.88 3
  245.8 3.72 3
  245.9 3.7 3
  246.0 3.9 3
  246.1 4.41 4
  246.2 4.96 4
  246.3 5.33 5
  246.4 5.58 5
  246.5 5.85 5
  246.6 5.89 5
  246.7 5.3 5
  261.8 4.81 4
  261.9 5.99 5
  262.0 7.09 7
  262.1 7.67 7
  262.2 7.55 7
  262.3 6.89 6
  279.7 2.89 2
  279.8 4.19 4
  279.9 5.9 5
  280.0 7.24 7
  280.1 7.56 7
  280.2 6.82 6
  280.3 5.56 5
  280.8 3.58 3
  280.9 4.96 4
  281.0 6.12 6
  281.1 6.54 6
  281.2 6.33 6
  281.3 5.82 5
  281.4 5.18 5
  281.5 4.48 4
  281.6 3.92 3
  281.7 3.67 3
  281.8 3.84 3
  281.9 4.39 4
  282.0 5.19 5
  282.1 5.97 5
  282.2 6.47 6
  282.3 6.63 6
  282.4 6.49 6
  282.5 6.06 6
  282.6 5.26 5
  289.9 4.24 4
  290.0 5.46 5
  290.1 6.49 6
  290.2 6.94 6
  290.3 6.63 6
  290.4 5.73 5
  294.3 4.28 4
  294.4 5.31 5
  294.5 6.26 6
  294.6 6.94 6
  294.7 6.85 6
  294.8 5.66 5
  294.9 3.86 3
  296.6 4.19 4
  296.7 5.41 5
  296.8 6.42 6
  296.9 6.87 6
  297.0 6.7 6
  297.1 6.06 6
  297.2 5.24 5
  297.3 4.63 4
  297.4 4.52 4
  297.5 4.75 4
  297.6 4.86 4
  297.7 4.71 4
  297.8 4.64 4
  297.9 4.78 4
  298.0 4.79 4
  298.1 4.45 4
  298.2 4.11 4
  298.3 4.1 4
  298.4 4.29 4
  298.5 4.28 4
  298.6 3.88 3
  298.7 3.26 3
  298.8 2.81 2
  298.9 2.84 2
  299.0 3.44 3
  299.1 4.34 4
  299.2 5.06 5
  299.3 5.17 5
  299.4 4.68 4
  299.5 3.97 3
  299.6 3.51 3
  299.7 3.49 3
  299.8 3.73 3
  299.9 4.04 4
  300.0 4.55 4
  300.1 5.44 5
  300.2 6.37 6
  300.3 6.61 6
  300.4 5.88 5
  300.5 4.61 4
  301.0 4.18 4
  301.1 5.55 5
  301.2 6.68 6
  301.3 7.18 7
  301.4 6.92 6
  301.5 5.99 5
  310.0 3.1 3
  310.1 4.49 4
  310.2 5.83 5
  310.3 6.67 6
  310.4 6.81 6
  310.5 6.23 6
  310.6 5.1 5
  312.2 2.99 2
  312.3 4.35 4
  312.4 5.56 5
  312.5 6.05 6
  312.6 5.74 5
  312.7 4.96 4
  312.8 4.11 4
  312.9 3.48 3
  313.0 3.16 3
  313.1 3.09 3
  313.2 3.13 3
  313.3 3.33 3
  313.4 3.93 3
  313.5 5.02 5
  313.6 6.11 6
  313.7 6.42 6
  313.8 5.67 5
  313.9 4.36 4
  353.8 4.49 4
  353.9 5.74 5
  354.0 6.7 6
  354.1 6.71 6
  354.2 5.81 5
  354.3 4.71 4
  354.4 4.13 4
  354.5 4.19 4
  354.6 4.53 4
  354.7 4.8 4
  354.8 4.91 4
  354.9 4.96 4
  355.0 4.86 4
  355.1 4.45 4
  355.2 3.71 3
  355.3 3.08 3
  355.4 2.95 2
  355.5 3.31 3
  355.6 3.8 3
  355.7 4.11 4
  355.8 4.13 4
  355.9 3.96 3
  356.0 3.76 3
  356.1 3.66 3
  356.2 3.69 3
  356.3 3.83 3
  356.4 4.0 3
  356.5 4.09 4
  356.6 4.01 4
  356.7 3.9 3
  356.8 3.94 3
  356.9 4.28 4
  357.0 4.86 4
  357.1 5.46 5
  357.2 5.85 5
  357.3 5.87 5
  357.4 5.53 5
  357.5 4.94 4
  357.6 4.25 4
  357.7 3.6 3
  357.8 3.1 3
  357.9 2.93 2
  358.0 3.35 3
  358.1 4.39 4
  358.2 5.68 5
  358.3 6.69 6
  358.4 7.17 7
  358.5 7.13 7
  358.6 6.55 6
  358.7 5.49 5
  388.2 2.65 2
  388.3 3.7 3
  388.4 4.66 4
  388.5 5.49 5
  388.6 6.06 6
  388.7 6.28 6
  388.8 6.24 6
  388.9 5.91 5
  389.0 5.08 5
  391.6 3.61 3
  391.7 4.84 4
  391.8 5.99 5
  391.9 6.67 6
  392.0 6.78 6
  392.1 6.37 6
  392.2 5.57 5
  392.3 4.77 4
  392.4 4.29 4
  392.5 4.17 4
  392.6 4.15 4
  392.7 4.21 4
  392.8 4.48 4
  392.9 4.91 4
  393.0 5.22 5
  393.1 5.22 5
  393.2 4.86 4
  393.3 4.19 4
  393.4 3.42 3
  393.5 2.89 2
  393.6 2.91 2
  393.7 3.57 3
  393.8 4.63 4
  393.9 5.66 5
  394.0 6.24 6
  394.1 6.2 6
  394.2 5.74 5
  394.3 5.16 5
  394.4 4.62 4
  394.5 4.2 4
  394.6 3.93 3
  394.7 3.82 3
  394.8 3.92 3
  394.9 4.32 4
  395.0 4.9 4
  395.1 5.46 5
  395.2 5.89 5
  395.3 6.23 6
  395.4 6.4 6
  395.5 6.13 6
  395.6 5.27 5
  395.7 4.17 4
  395.8 3.47 3
  395.9 3.48 3
  396.0 3.79 3
  396.1 3.9 3
  396.2 3.88 3
  396.3 4.14 4
  396.4 4.72 4
  396.5 5.09 5
  396.6 4.9 4
  396.7 4.42 4
  396.8 4.12 4
  396.9 4.07 4
  397.0 4.03 4
  397.1 3.98 3
  397.2 4.16 4
  397.3 4.67 4
  397.4 5.27 5
  397.5 5.77 5
  397.6 6.11 6
  397.7 6.25 6
  397.8 6.07 6
  397.9 5.47 5
  398.0 4.63 4
  398.1 3.99 3
  398.2 3.92 3
  398.3 4.45 4
  398.4 5.23 5
  398.5 5.84 5
  398.6 6.13 6
  398.7 6.13 6
  398.8 5.81 5
  398.9 5.16 5
  399.0 4.43 4
  399.1 3.97 3
  399.2 3.8 3
  399.3 3.65 3
  399.4 3.44 3
  399.5 3.47 3
  399.6 3.98 3
  399.7 4.84 4
  399.8 5.58 5
  399.9 5.79 5
  400.0 5.42 5
  400.1 4.77 4
  400.2 4.24 4
  400.3 3.97 3
  400.4 3.84 3
  400.5 3.8 3
  400.6 3.98 3
  400.7 4.43 4
  400.8 4.94 4
  400.9 5.21 5
  401.0 5.13 5
  401.1 4.88 4
  401.2 4.59 4
  401.3 4.3 4
  401.4 3.97 3
  401.5 3.64 3
  401.6 3.47 3
  401.7 3.48 3
  401.8 3.6 3
  401.9 3.89 3
  402.0 4.52 4
  402.1 5.4 5
  402.2 6.02 6
  402.3 5.91 5
  402.4 5.17 5
  402.5 4.26 4
  402.6 3.68 3
  402.7 3.74 3
  402.8 4.29 4
  402.9 4.92 4
  403.0 5.28 5
  403.1 5.43 5
  403.2 5.51 5
  403.3 5.38 5
  403.4 4.84 4
  403.5 4.09 4
  403.6 3.6 3
  403.7 3.58 3
  403.8 3.86 3
  403.9 4.22 4
  404.0 4.61 4
  404.1 5.05 5
  404.2 5.33 5
  404.3 5.2 5
  404.4 4.65 4
  404.5 3.94 3
  404.6 3.44 3
  404.7 3.24 3
  404.8 3.38 3
  404.9 3.84 3
  405.0 4.62 4
  405.1 5.46 5
  405.2 6.1 6
  405.3 6.53 6
  405.4 6.87 6
  405.5 7.02 7
  405.6 6.66 6
  405.7 5.63 5
  407.4 3.14 3
  407.5 4.49 4
  407.6 5.6 5
  407.7 6.07 6
  407.8 6.07 6
  407.9 5.88 5
  408.0 5.56 5
  408.1 5.09 5
  408.2 4.59 4
  408.3 4.19 4
  408.4 3.87 3
  408.5 3.59 3
  408.6 3.44 3
  408.7 3.55 3
  408.8 3.88 3
  408.9 4.14 4
  409.0 4.03 4
  409.1 3.56 3
  409.2 3.04 3
  409.3 2.75 2
  409.4 2.77 2
  409.5 3.12 3
  409.6 3.7 3
  409.7 4.34 4
  409.8 4.9 4
  409.9 5.23 5
  410.0 5.1 5
  410.1 4.39 4
  410.2 3.52 3
  410.3 3.06 3
  410.4 3.19 3
  410.5 3.58 3
  410.6 3.98 3
  410.7 4.45 4
  410.8 5.06 5
  410.9 5.71 5
  411.0 6.14 6
  411.1 6.18 6
  411.2 5.81 5
  411.3 5.25 5
  411.4 4.76 4
  411.5 4.65 4
  411.6 4.99 4
  411.7 5.55 5
  411.8 5.85 5
  411.9 5.64 5
  412.0 5.01 5
  412.1 4.19 4
  412.2 3.38 3
  412.3 2.87 2
  412.4 2.95 2
  412.5 3.54 3
  412.6 4.15 4
  412.7 4.4 4
  412.8 4.37 4
  412.9 4.39 4
  413.0 4.66 4
  413.1 5.1 5
  413.2 5.46 5
  413.3 5.47 5
  413.4 4.99 4
  424.0 3.9 3
  424.1 5.11 5
  424.2 6.39 6
  424.3 7.2 7
  424.4 7.13 7
  424.5 6.38 6
  424.6 5.54 5
  433.0 2.75 2
  433.1 3.8 3
  433.2 4.67 4
  433.3 5.18 5
  433.4 5.34 5
  433.5 5.19 5
  433.6 4.79 4
  433.7 4.19 4
  433.8 3.6 3
  433.9 3.25 3
  434.0 3.34 3
  434.1 3.84 3
  434.2 4.55 4
  434.3 5.26 5
  434.4 5.86 5
  434.5 6.16 6
  434.6 6.0 5
  434.7 5.34 5
  434.8 4.33 4
  451.1 3.15 3
  451.2 4.35 4
  451.3 5.44 5
  451.4 5.81 5
  451.5 5.32 5
  459.9 2.33 2
  460.0 3.75 3
  460.1 5.14 5
  460.2 6.04 6
  460.3 6.14 6
  460.4 5.54 5
  460.5 4.65 4
  460.6 4.01 4
  460.7 3.82 3
  460.8 3.83 3
  460.9 3.76 3
  461.0 3.69 3
  461.1 3.95 3
  461.2 4.69 4
  461.3 5.56 5
  461.4 6.01 6
  461.5 5.85 5
  461.6 5.3 5
  461.7 4.74 4
  461.8 4.39 4
  461.9 4.19 4
  462.0 3.97 3
  462.1 3.71 3
  462.2 3.64 3
  462.3 3.92 3
  462.4 4.41 4
  462.5 4.79 4
  462.6 4.78 4
  462.7 4.34 4
  462.8 3.7 3
  462.9 3.27 3
  463.0 3.38 3
  463.1 3.99 3
  463.2 4.74 4
  463.3 5.33 5
  463.4 5.75 5
  463.5 6.15 6
  463.6 6.47 6
  463.7 6.48 6
  463.8 6.02 6
  463.9 5.17 5
  464.0 4.25 4
  464.1 3.7 3
  464.2 3.77 3
  464.3 4.3 4
  464.4 4.8 4
  464.5 4.97 4
  464.6 4.96 4
  464.7 4.97 4
  464.8 4.71 4
  465.3 3.3 3
  465.4 4.27 4
  465.5 5.02 5
  465.6 5.6 5
  465.7 5.99 5
  465.8 6.1 6
  465.9 5.97 5
  466.0 5.65 5
  466.1 5.09 5
  466.2 4.33 4
  466.3 3.6 3
  466.4 3.29 3
  466.5 3.66 3
  466.6 4.6 4
  466.7 5.69 5
  466.8 6.48 6
  466.9 6.79 6
  467.0 6.6 6
  467.1 5.97 5
  467.2 5.0 4
  467.7 3.28 3
  467.8 4.46 4
  467.9 5.58 5
  468.0 6.15 6
  468.1 6.01 6
  468.2 5.34 5
  468.3 4.35 4
  472.1 3.3 3
  472.2 4.61 4
  472.3 5.84 5
  472.4 6.5 6
  472.5 6.53 6
  472.6 6.07 6
  472.7 5.39 5
  472.8 4.72 4
  472.9 4.03 4
  473.0 3.23 3
  473.1 2.59 2
  473.2 2.65 2
  473.3 3.55 3
  473.4 4.77 4
  473.5 5.7 5
  473.6 6.09 6
  473.7 6.04 6
  473.8 5.66 5
  473.9 5.1 5
  474.0 4.54 4
  474.1 4.15 4
  474.2 4.0 3
  474.3 4.09 4
  474.4 4.31 4
  474.5 4.58 4
  474.6 4.85 4
  474.7 5.16 5
  474.8 5.39 5
  474.9 5.34 5
  475.0 4.95 4
  475.1 4.31 4
  475.2 3.69 3
  475.3 3.17 3
  475.4 2.68 2
  475.5 2.29 2
  475.6 2.45 2
  475.7 3.44 3
  475.8 4.9 4
  475.9 6.03 6
  476.0 6.28 6
  476.1 5.68 5
  483.3 5.32 5
  483.4 6.35 6
  483.5 7.32 7
  483.6 7.74 7
  483.7 7.41 7
  483.8 6.47 6
  486.7 3.72 3
  486.8 4.99 4
  486.9 6.17 6
  487.0 6.7 6
  487.1 6.51 6
  487.2 5.88 5
  487.3 5.26 5
  487.4 4.92 4
  487.5 4.84 4
  487.6 4.73 4
  487.7 4.62 4
  487.8 4.82 4
  487.9 5.42 5
  488.0 6.14 6
  488.1 6.49 6
  488.2 6.27 6
  488.3 5.68 5
  488.4 5.2 5
  488.5 5.07 5
  488.6 5.01 5
  488.7 4.66 4
  488.8 4.22 4
  488.9 4.2 4
  489.0 4.86 4
  489.1 5.81 5
  489.2 6.35 6
  489.3 6.04 6
  489.4 5.17 5
  489.5 4.47 4
  489.6 4.29 4
  489.7 4.36 4
  489.8 4.26 4
  489.9 3.98 3
  490.0 3.82 3
  490.1 3.96 3
  490.2 4.43 4
  490.3 5.03 5
  490.4 5.48 5
  490.5 5.48 5
  490.6 5.03 5
  490.7 4.52 4
  490.8 4.32 4
  490.9 4.36 4
  491.0 4.43 4
  491.1 4.55 4
  491.2 4.96 4
  491.3 5.72 5
  491.4 6.45 6
  491.5 6.73 6
  491.6 6.45 6
  491.7 5.81 5
  491.8 5.06 5
  491.9 4.35 4
  492.0 3.8 3
  492.1 3.53 3
  492.2 3.55 3
  492.3 3.85 3
  492.4 4.52 4
  492.5 5.44 5
  492.6 6.07 6
  492.7 5.99 5
  492.8 5.41 5
  492.9 4.87 4
  493.0 4.65 4
  493.1 4.56 4
  493.2 4.35 4
  493.3 4.1 4
  493.4 4.23 4
  493.5 4.98 4
  493.6 6.02 6
  493.7 6.66 6
  493.8 6.62 6
  493.9 5.99 5
  497.8 3.72 3
  497.9 4.74 4
  498.0 5.64 5
  498.1 6.46 6
  498.2 7.02 7
  498.3 6.9 6
  498.4 5.86 5
  498.5 4.19 4
  522.6 2.67 2
  522.7 4.07 4
  522.8 5.04 5
  522.9 5.42 5
  523.0 5.49 5
  523.1 5.39 5
  523.2 5.04 5
  523.3 4.48 4
  523.4 3.78 3
  523.5 3.07 3
  523.6 2.59 2
  523.7 2.56 2
  523.8 2.85 2
  523.9 3.12 3
  524.0 3.32 3
  524.1 3.81 3
  524.2 4.66 4
  524.3 5.36 5
  524.4 5.24 5
  524.5 4.29 4
  524.6 3.21 3
  524.7 2.7 2
  524.8 2.98 2
  524.9 3.77 3
  525.0 4.78 4
  525.1 5.71 5
  525.2 6.23 6
  525.3 6.06 6
  525.4 5.28 5
  525.5 4.19 4
  525.9 2.31 2
  526.0 3.7 3
  526.1 4.97 4
  526.2 5.62 5
  526.3 5.83 5
  526.4 5.82 5
  526.5 5.39 5
  526.6 4.41 4
  526.7 3.42 3
  526.8 2.94 2
  526.9 2.99 2
  527.0 3.34 3
  527.1 3.96 3
  527.2 4.84 4
  527.3 5.71 5
  527.4 6.14 6
  527.5 6.09 6
  527.6 5.73 5
  527.7 5.21 5
  527.8 4.52 4
  527.9 3.62 3
  528.0 2.76 2
  528.1 2.34 2
  528.2 2.58 2
  528.3 3.28 3
  528.4 3.95 3
  528.5 4.3 4
  528.6 4.44 4
  528.7 4.55 4
  528.8 4.6 4
  528.9 4.35 4
  529.0 3.68 3
  529.1 2.91 2
  529.2 2.49 2
  529.3 2.62 2
  529.4 3.28 3
  529.5 4.31 4
  529.6 5.44 5
  529.7 6.28 6
  529.8 6.54 6
  529.9 6.13 6
  530.0 5.14 5
  541.6 3.42 3
  541.7 4.51 4
  541.8 5.53 5
  541.9 6.12 6
  542.0 5.93 5
  542.1 4.86 4
  542.7 3.42 3
  542.8 4.53 4
  542.9 5.53 5
  543.0 6.01 6
  543.1 5.93 5
  543.2 5.54 5
  543.3 5.02 5
  543.4 4.39 4
  543.5 3.74 3
  543.6 3.29 3
  543.7 3.09 3
  543.8 3.05 3
  543.9 3.07 3
  544.0 3.09 3
  544.1 3.2 3
  544.2 3.46 3
  544.3 3.96 3
  544.4 4.66 4
  544.5 5.27 5
  544.6 5.28 5
  544.7 4.38 4
  554.1 3.53 3
  554.2 4.75 4
  554.3 5.93 5
  554.4 6.38 6
  554.5 5.87 5
  554.6 4.84 4
  576.6 3.6 3
  576.7 4.75 4
  576.8 5.86 5
  576.9 6.3 6
  577.0 5.75 5
  577.5 4.16 4
  577.6 5.16 5
  577.7 6.01 6
  577.8 6.53 6
  577.9 6.61 6
  578.0 6.24 6
  578.1 5.52 5
  578.2 4.71 4
  578.3 4.07 4
  578.4 3.64 3
  578.5 3.37 3
  578.6 3.29 3
  578.7 3.63 3
  578.8 4.49 4
  578.9 5.52 5
  579.0 6.06 6
  579.1 5.77 5
  579.2 4.86 4
  579.3 3.87 3
  579.4 3.26 3
  579.5 3.18 3
  579.6 3.46 3
  579.7 3.8 3
  579.8 4.02 4
  579.9 4.19 4
  580.0 4.48 4
  580.1 4.88 4
  580.2 5.19 5
  580.3 5.26 5
  580.4 5.04 5
  580.5 4.58 4
  580.6 4.01 4
  580.7 3.56 3
  580.8 3.5 3
  580.9 4.02 4
  581.0 4.94 4
  581.1 5.85 5
  581.2 6.36 6
  581.3 6.4 6
  581.4 6.19 6
  581.5 5.9 5
  581.6 5.47 5
  581.7 4.83 4
  581.8 4.13 4
  581.9 3.7 3
  582.0 3.75 3
  582.1 4.22 4
  582.2 4.87 4
  582.3 5.56 5
  582.4 6.1 6
  582.5 6.24 6
  582.6 5.88 5
  582.7 5.34 5
  582.8 4.96 4
  582.9 4.82 4
  583.0 4.82 4
  583.1 4.97 4
  583.2 5.22 5
  583.3 5.41 5
  583.4 5.45 5
  583.5 5.44 5
  583.6 5.49 5
  583.7 5.54 5
  583.8 5.59 5
  583.9 5.65 5
  584.0 5.64 5
  584.1 5.34 5
  584.2 4.74 4
  584.3 4.15 4
  584.4 3.96 3
  584.5 4.33 4
  584.6 5.07 5
  584.7 5.74 5
  584.8 6.01 6
  584.9 5.93 5
  585.0 5.54 5
  585.1 4.81 4
  585.2 3.82 3
  585.3 2.92 2
  585.4 2.68 2
  585.5 3.4 3
  585.6 4.84 4
  585.7 6.38 6
  585.8 7.32 7
  585.9 7.32 7
  586.0 6.51 6
  588.8 2.77 2
  588.9 4.05 4
  589.0 5.11 5
  589.1 5.67 5
  589.2 5.83 5
  589.3 5.72 5
  589.4 5.41 5
  589.5 4.91 4
  589.6 4.27 4
  589.7 3.65 3
  589.8 3.4 3
  589.9 3.73 3
  590.0 4.53 4
  590.1 5.35 5
  590.2 5.74 5
  590.3 5.5 5
  590.4 4.76 4
  590.5 3.96 3
  590.6 3.6 3
  590.7 3.7 3
  590.8 3.87 3
  590.9 3.83 3
  591.0 3.89 3
  591.1 4.41 4
  591.2 5.39 5
  591.3 6.38 6
  591.4 6.92 6
  591.5 6.93 6
  591.6 6.47 6
  591.7 5.77 5
  591.8 5.08 5
  591.9 4.7 4
  592.0 4.81 4
  592.1 5.34 5
  592.2 6.0 5
  592.3 6.38 6
  592.4 6.32 6
  592.5 6.01 6
  592.6 5.76 5
  592.7 5.62 5
  592.8 5.46 5
  592.9 5.21 5
  593.0 4.92 4
  593.1 4.63 4
  593.2 4.43 4
  593.3 4.44 4
  593.4 4.65 4
  593.5 4.88 4
  593.6 5.0 4
  593.7 5.14 5
  593.8 5.42 5
  593.9 5.71 5
  594.0 5.74 5
  594.1 5.52 5
  594.2 5.32 5
  594.3 5.37 5
  594.4 5.58 5
  594.5 5.68 5
  594.6 5.68 5
  594.7 5.85 5
  594.8 6.21 6
  594.9 6.39 6
  595.0 6.01 6
  595.1 5.19 5
  595.2 4.4 4
  595.3 3.94 3
  595.4 3.74 3
  595.5 3.76 3
  595.6 4.08 4
  595.7 4.72 4
  595.8 5.46 5
  595.9 5.99 5
  596.0 6.14 6
  596.1 5.99 5
  596.2 5.63 5
  596.3 5.22 5
  596.4 4.89 4
  596.5 4.72 4
  596.6 4.69 4
  596.7 4.78 4
  596.8 5.1 5
  596.9 5.71 5
  597.0 6.31 6
  597.1 6.51 6
  597.2 6.1 6
  597.3 5.28 5
  597.4 4.37 4
  597.5 3.76 3
  597.6 3.78 3
  597.7 4.45 4
  597.8 5.41 5
  597.9 6.19 6
  598.0 6.68 6
  598.1 7.0 6
  598.2 7.13 7
  598.3 6.91 6
  598.4 6.19 6
  598.5 4.99 4
  598.9 2.04 2
  599.0 3.51 3
  599.1 5.46 5
  599.2 7.02 7
  599.3 7.53 7
  599.4 7.02 7
  610.2 3.44 3
  610.3 4.39 4
  610.4 5.36 5
  610.5 6.0 5
  610.6 6.1 6
  610.7 5.69 5
  610.8 4.95 4
  610.9 4.08 4
  611.0 3.34 3
  611.1 3.01 3
  611.2 3.19 3
  611.3 3.77 3
  611.4 4.56 4
  611.5 5.28 5
  611.6 5.71 5
  611.7 5.79 5
  611.8 5.62 5
  611.9 5.2 5
  612.0 4.5 4
  612.1 3.71 3
  612.2 3.25 3
  612.3 3.36 3
  612.4 3.83 3
  612.5 4.29 4
  612.6 4.63 4
  612.7 4.95 4
  612.8 5.2 5
  612.9 5.15 5
  613.0 4.82 4
  613.1 4.57 4
  613.2 4.75 4
  613.3 5.25 5
  613.4 5.67 5
  613.5 5.73 5
  613.6 5.45 5
  613.7 5.1 5
  613.8 4.9 4
  613.9 4.86 4
  614.0 4.84 4
  614.1 4.67 4
  614.2 4.42 4
  614.3 4.26 4
  614.4 4.37 4
  614.5 4.69 4
  614.6 5.0 4
  614.7 5.19 5
  614.8 5.4 5
  614.9 5.79 5
  615.0 6.13 6
  615.1 6.12 6
  615.2 5.68 5
  615.3 5.06 5
  615.4 4.45 4
  615.5 3.88 3
  615.6 3.37 3
  615.7 2.99 2
  615.8 2.93 2
  615.9 3.4 3
  616.0 4.41 4
  616.1 5.56 5
  616.2 6.22 6
  616.3 6.07 6
  616.4 5.36 5
  616.5 4.63 4
  616.6 4.17 4
  616.7 3.9 3
  616.8 3.72 3
  616.9 3.7 3
  617.0 3.88 3
  617.1 4.1 4
  617.2 4.09 4
  617.3 3.82 3
  617.4 3.48 3
  617.5 3.28 3
  617.6 3.47 3
  617.7 4.18 4
  617.8 5.09 5
  617.9 5.81 5
  618.0 6.18 6
  618.1 6.22 6
  618.2 5.94 5
  618.3 5.27 5
  618.4 4.51 4
  618.5 4.13 4
  618.6 4.28 4
  618.7 4.61 4
  618.8 4.62 4
  618.9 4.13 4
  619.0 3.5 3
  619.1 3.33 3
  619.2 3.8 3
  619.3 4.54 4
  619.4 5.05 5
  619.5 5.03 5
  619.6 4.43 4
  619.7 3.46 3
  619.8 2.54 2
  619.9 2.18 2
  620.0 2.46 2
  620.1 3.18 3
  620.2 4.13 4
  620.3 5.18 5
  620.4 6.1 6
  620.5 6.76 6
  620.6 7.18 7
  620.7 7.28 7
  620.8 6.77 6
  646.2 2.97 2
  646.3 4.8 4
  646.4 6.38 6
  646.5 6.76 6
  646.6 5.97 5
  650.6 3.25 3
  650.7 4.4 4
  650.8 5.34 5
  650.9 5.93 5
  651.0 6.12 6
  651.1 5.68 5
  651.2 4.48 4
  651.6 2.46 2
  651.7 3.88 3
  651.8 5.14 5
  651.9 5.74 5
  652.0 5.6 5
  652.1 5.03 5
  652.2 4.48 4
  652.3 4.12 4
  652.4 3.82 3
  652.5 3.48 3
  652.6 3.06 3
  652.7 2.63 2
  652.8 2.29 2
  652.9 2.21 2
  653.0 2.46 2
  653.1 2.93 2
  653.2 3.52 3
  653.3 4.19 4
  653.4 4.89 4
  653.5 5.49 5
  653.6 5.66 5
  653.7 5.09 5
  656.1 3.33 3
  656.2 4.69 4
  656.3 5.87 5
  656.4 6.6 6
  656.5 6.76 6
  656.6 6.4 6
  656.7 5.55 5
  656.8 4.29 4
  658.4 3.26 3
  658.5 4.56 4
  658.6 5.78 5
  658.7 6.39 6
  658.8 6.19 6
  658.9 5.27 5
  675.2 2.69 2
  675.3 3.85 3
  675.4 5.03 5
  675.5 6.02 6
  675.6 6.6 6
  675.7 6.53 6
  675.8 5.89 5
  675.9 5.08 5
  676.0 4.39 4
  676.1 4.11 4
  676.2 4.43 4
  676.3 5.28 5
  676.4 6.11 6
  676.5 6.25 6
  676.6 5.53 5
  693.2 2.65 2
  693.3 4.26 4
  693.4 6.06 6
  693.5 7.61 7
  693.6 8.38 8
  693.7 7.98 7
  693.8 6.6 6
  693.9 4.98 4
  697.7 2.76 2
  697.8 3.93 3
  697.9 5.06 5
  698.0 5.96 5
  698.1 6.57 6
  698.2 6.68 6
  698.3 6.09 6
  702.2 3.47 3
  702.3 4.97 4
  702.4 6.43 6
  702.5 7.43 7
  702.6 7.87 7
  702.7 7.79 7
  702.8 7.32 7
  702.9 6.63 6
  703.0 5.93 5
  703.1 5.38 5
  703.2 5.04 5
  703.3 4.94 4
  703.4 5.02 5
  703.5 5.14 5
  703.6 5.24 5
  703.7 5.38 5
  703.8 5.55 5
  703.9 5.56 5
  704.0 5.21 5
  704.1 4.59 4
  704.2 4.01 4
  704.3 3.71 3
  704.4 3.75 3
  704.5 4.06 4
  704.6 4.52 4
  704.7 5.02 5
  704.8 5.44 5
  704.9 5.64 5
  705.0 5.66 5
  705.1 5.6 5
  705.2 5.45 5
  705.3 4.98 4
  705.4 4.15 4
  705.5 3.5 3
  705.6 3.68 3
  705.7 4.67 4
  705.8 5.7 5
  705.9 6.07 6
  706.0 5.71 5
  706.1 4.99 4
  706.2 4.32 4
  706.3 3.94 3
  706.4 3.85 3
  706.5 3.8 3
  706.6 3.62 3
  706.7 3.36 3
  706.8 3.25 3
  706.9 3.53 3
  707.0 4.18 4
  707.1 4.97 4
  707.2 5.59 5
  707.3 5.8 5
  707.4 5.54 5
  707.5 5.01 5
  707.6 4.56 4
  707.7 4.43 4
  707.8 4.62 4
  707.9 4.95 4
  708.0 5.26 5
  708.1 5.43 5
  708.2 5.48 5
  708.3 5.37 5
  708.4 5.1 5
  708.5 4.71 4
  708.6 4.32 4
  708.7 3.88 3
  708.8 3.44 3
  708.9 3.22 3
  709.0 3.52 3
  709.1 4.28 4
  709.2 5.05 5
  709.3 5.39 5
  709.4 5.26 5
  709.5 5.05 5
  709.6 5.15 5
  709.7 5.53 5
  709.8 5.85 5
  709.9 5.82 5
  710.0 5.52 5
  710.1 5.29 5
  710.2 5.38 5
  710.3 5.75 5
  710.4 6.11 6
  710.5 6.13 6
  710.6 5.7 5
  710.7 4.94 4
  710.8 4.06 4
  710.9 3.37 3
  711.0 3.23 3
  711.1 3.75 3
  711.2 4.59 4
  711.3 5.25 5
  711.4 5.57 5
  711.5 5.6 5
  711.6 5.29 5
  711.7 4.66 4
  711.8 4.06 4
  711.9 3.97 3
  712.0 4.41 4
  712.1 4.99 4
  712.2 5.39 5
  712.3 5.6 5
  712.4 5.75 5
  712.5 5.82 5
  712.6 5.79 5
  712.7 5.71 5
  712.8 5.61 5
  712.9 5.39 5
  713.0 4.9 4
  713.1 4.09 4
  713.2 3.26 3
  713.3 2.94 2
  713.4 3.47 3
  713.5 4.58 4
  713.6 5.61 5
  713.7 6.19 6
  713.8 6.34 6
  713.9 6.2 6
  714.0 5.73 5
  714.1 4.96 4
  714.2 4.15 4
  714.3 3.67 3
  714.4 3.63 3
  714.5 3.95 3
  714.6 4.48 4
  714.7 5.14 5
  714.8 5.82 5
  714.9 6.27 6
  715.0 6.26 6
  715.1 5.77 5
  715.2 4.94 4
  715.3 4.02 4
  715.4 3.3 3
  715.5 3.1 3
  715.6 3.48 3
  715.7 4.1 4
  715.8 4.54 4
  715.9 4.73 4
  716.0 4.99 4
  716.1 5.44 5
  716.2 5.79 5
  716.3 5.66 5
  716.4 5.08 5
  716.5 4.41 4
  716.6 4.02 4
  716.7 3.98 3
  716.8 4.29 4
  716.9 4.92 4
  717.0 5.62 5
  717.1 6.05 6
  717.2 6.08 6
  717.3 5.84 5
  717.4 5.52 5
  717.5 5.09 5
  717.6 4.48 4
  717.7 3.84 3
  717.8 3.56 3
  717.9 3.9 3
  718.0 4.78 4
  718.1 5.84 5
  718.2 6.69 6
  718.3 7.04 7
  718.4 6.72 6
  724.7 3.54 3
  724.8 4.69 4
  724.9 5.6 5
  725.0 6.02 6
  725.1 5.77 5
  725.2 4.93 4
  725.3 3.94 3
  725.4 3.41 3
  725.5 3.55 3
  725.6 4.07 4
  725.7 4.64 4
  725.8 5.11 5
  725.9 5.42 5
  726.0 5.46 5
  726.1 5.14 5
  726.2 4.63 4
  726.3 4.17 4
  726.4 3.91 3
  726.5 3.78 3
  726.6 3.58 3
  726.7 3.4 3
  726.8 3.42 3
  726.9 3.72 3
  727.0 4.09 4
  727.1 4.38 4
  727.2 4.78 4
  727.3 5.39 5
  727.4 5.8 5
  727.5 5.58 5
  727.6 4.9 4
  727.7 4.35 4
  727.8 4.15 4
  727.9 4.13 4
  728.0 4.08 4
  728.1 4.01 4
  728.2 3.92 3
  728.3 3.88 3
  728.4 3.94 3
  728.5 4.17 4
  728.6 4.56 4
  728.7 5.01 5
  728.8 5.29 5
  728.9 5.2 5
  729.0 4.7 4
  729.1 4.08 4
  729.2 3.72 3
  729.3 3.89 3
  729.4 4.54 4
  729.5 5.31 5
  729.6 5.73 5
  729.7 5.64 5
  729.8 5.25 5
  729.9 4.93 4
  730.0 4.74 4
  730.1 4.55 4
  730.2 4.37 4
  730.3 4.4 4
  730.4 4.76 4
  730.5 5.4 5
  730.6 6.05 6
  730.7 6.23 6
  730.8 5.73 5
  730.9 4.81 4
  731.0 4.03 4
  731.1 3.64 3
  731.2 3.48 3
  731.3 3.38 3
  731.4 3.38 3
  731.5 3.57 3
  731.6 3.99 3
  731.7 4.59 4
  731.8 5.23 5
  731.9 5.68 5
  732.0 5.81 5
  732.1 5.65 5
  732.2 5.22 5
  732.3 4.51 4
  732.4 3.66 3
  732.5 3.11 3
  732.6 3.14 3
  732.7 3.7 3
  732.8 4.47 4
  732.9 5.13 5
  733.0 5.44 5
  733.1 5.34 5
  733.2 4.91 4
  733.3 4.33 4
  733.4 3.89 3
  733.5 3.95 3
  733.6 4.47 4
  733.7 4.96 4
  733.8 4.98 4
  733.9 4.63 4
  734.0 4.37 4
  734.1 4.5 4
  734.2 4.85 4
  734.3 4.86 4
  734.4 4.17 4
  734.5 3.04 3
  734.6 2.25 2
  734.7 2.35 2
  734.8 3.31 3
  734.9 4.73 4
  735.0 5.98 5
  735.1 6.51 6
  735.2 6.26 6
  735.3 5.66 5
  735.4 5.09 5
  735.5 4.57 4
  735.6 4.01 4
  735.7 3.54 3
  735.8 3.49 3
  735.9 4.01 4
  736.0 4.87 4
  736.1 5.52 5
  736.2 5.48 5
  736.3 4.82 4
  736.4 4.13 4
  736.5 3.78 3
  736.6 3.69 3
  736.7 3.66 3
  736.8 3.72 3
  736.9 3.93 3
  737.0 4.32 4
  737.1 4.77 4
  737.2 5.19 5
  737.3 5.46 5
  737.4 5.51 5
  737.5 5.3 5
  737.6 4.83 4
  737.7 4.19 4
  737.8 3.6 3
  737.9 3.16 3
  738.0 2.97 2
  738.1 3.13 3
  738.2 3.63 3
  738.3 4.33 4
  738.4 5.0 4
  738.5 5.49 5
  738.6 5.81 5
  738.7 5.84 5
  738.8 5.3 5
  741.5 3.64 3
  741.6 5.31 5
  741.7 6.53 6
  741.8 6.86 6
  741.9 6.42 6
  742.0 5.52 5
  757.3 3.74 3
  757.4 5.13 5
  757.5 6.26 6
  757.6 6.63 6
  757.7 6.17 6
  757.8 5.29 5
  757.9 4.45 4
  758.0 3.84 3
  758.1 3.33 3
  758.2 2.93 2
  758.3 2.98 2
  758.4 3.62 3
  758.5 4.51 4
  758.6 5.1 5
  758.7 5.24 5
  758.8 5.18 5
  758.9 5.04 5
  759.0 4.75 4
  759.1 4.35 4
  759.2 4.06 4
  759.3 4.03 4
  759.4 4.14 4
  759.5 4.15 4
  759.6 4.0 3
  759.7 3.87 3
  759.8 3.95 3
  759.9 4.22 4
  760.0 4.45 4
  760.1 4.47 4
  760.2 4.27 4
  760.3 3.92 3
  760.4 3.58 3
  760.5 3.5 3
  760.6 3.89 3
  760.7 4.63 4
  760.8 5.39 5
  760.9 5.9 5
  761.0 6.02 6
  761.1 5.77 5
  761.2 5.17 5
  761.3 4.43 4
  761.4 3.7 3
  761.5 3.14 3
  761.6 2.84 2
  761.7 2.85 2
  761.8 3.16 3
  761.9 3.6 3
  762.0 3.99 3
  762.1 4.34 4
  762.2 4.71 4
  762.3 5.07 5
  762.4 5.12 5
  762.5 4.63 4
  772.0 3.64 3
  772.1 4.92 4
  772.2 6.08 6
  772.3 6.56 6
  772.4 6.15 6
  774.0 2.77 2
  774.1 4.24 4
  774.2 5.37 5
  774.3 5.71 5
  774.4 5.29 5
  774.5 4.56 4
  774.6 4.07 4
  774.7 4.05 4
  774.8 4.34 4
  774.9 4.57 4
  775.0 4.41 4
  775.1 4.0 3
  775.2 3.82 3
  775.3 4.14 4
  775.4 4.65 4
  775.5 4.8 4
  775.6 4.38 4
  775.7 3.77 3
  775.8 3.55 3
  775.9 3.84 3
  776.0 4.19 4
  776.1 4.2 4
  776.2 3.99 3
  776.3 3.86 3
  776.4 3.94 3
  776.5 4.19 4
  776.6 4.61 4
  776.7 5.09 5
  776.8 5.25 5
  776.9 4.82 4
  777.0 3.99 3
  777.1 3.27 3
  777.2 2.99 2
  777.3 2.99 2
  777.4 3.06 3
  777.5 3.39 3
  777.6 4.2 4
  777.7 5.31 5
  777.8 6.11 6
  777.9 6.23 6
  778.0 5.8 5
  778.1 5.15 5
  778.2 4.5 4
  778.3 3.9 3
  778.4 3.48 3
  778.5 3.4 3
  778.6 3.69 3
  778.7 4.09 4
  778.8 4.35 4
  778.9 4.46 4
  779.0 4.46 4
  779.1 4.32 4
  779.2 3.96 3
  779.3 3.4 3
  779.4 2.89 2
  779.5 2.68 2
  779.6 2.77 2
  779.7 2.95 2
  779.8 3.19 3
  779.9 3.65 3
  780.0 4.45 4
  780.1 5.41 5
  780.2 5.99 5
  780.3 5.77 5
  780.4 4.96 4
  780.5 4.56 4
  780.6 5.69 5
  780.7 9.14 9
  780.8 15.54 15
  780.9 26.42 26
  781.0 43.69 43
  781.1 64.24 64
  781.2 75.88 75
  781.3 66.58 66
  781.4 39.85 39
  781.5 13.51 13
  781.6 0.87 0
  796.3 3.22 3
  796.4 4.67 4
  796.5 5.72 5
  796.6 5.89 5
  796.7 5.57 5
  796.8 5.48 5
  796.9 5.84 5
  797.0 6.28 6
  797.1 6.24 6
  797.2 5.63 5
  797.3 4.69 4
  797.9 3.3 3
  798.0 4.58 4
  798.1 5.66 5
  798.2 6.2 6
  798.3 5.99 5
  798.4 5.18 5
  798.9 3.32 3
  799.0 4.53 4
  799.1 5.74 5
  799.2 6.43 6
  799.3 6.4 6
  799.4 5.87 5
  799.5 5.2 5
  799.6 4.61 4
  799.7 4.13 4
  799.8 3.8 3
  799.9 3.79 3
  800.0 4.06 4
  800.1 4.34 4
  800.2 4.45 4
  800.3 4.46 4
  800.4 4.57 4
  800.5 4.8 4
  800.6 4.97 4
  800.7 4.93 4
  800.8 4.8 4
  800.9 4.84 4
  801.0 5.1 5
  801.1 5.34 5
  801.2 5.32 5
  801.3 5.04 5
  801.4 4.72 4
  801.5 4.67 4
  801.6 4.96 4
  801.7 5.35 5
  801.8 5.43 5
  801.9 5.04 5
  802.0 4.43 4
  802.1 3.93 3
  802.2 3.54 3
  802.3 3.27 3
  802.4 3.47 3
  802.5 4.49 4
  802.6 6.01 6
  802.7 7.05 7
  802.8 6.9 6
  802.9 5.71 5
  810.4 3.84 3
  810.5 5.06 5
  810.6 6.25 6
  810.7 6.99 6
  810.8 7.0 6
  810.9 6.47 6
  811.0 5.64 5
  811.1 4.75 4
  811.2 4.1 4
  811.3 4.07 4
  811.4 4.86 4
  811.5 6.17 6
  811.6 7.33 7
  811.7 7.79 7
  811.8 7.37 7
  811.9 6.29 6
  812.0 4.91 4
  842.1 3.36 3
  842.2 4.48 4
  842.3 5.38 5
  842.4 5.8 5
  842.5 5.61 5
  842.6 4.82 4
  842.7 3.78 3
  842.8 3.13 3
  842.9 3.31 3
  843.0 4.12 4
  843.1 4.99 4
  843.2 5.6 5
  843.3 5.79 5
  843.4 5.33 5
  856.5 3.16 3
  856.6 4.31 4
  856.7 5.44 5
  856.8 6.07 6
  856.9 5.85 5
  857.0 4.7 4
  861.0 2.7 2
  861.1 4.07 4
  861.2 5.35 5
  861.3 6.05 6
  861.4 6.15 6
  861.5 5.89 5
  861.6 5.4 5
  861.7 4.63 4
  861.8 3.7 3
  861.9 3.03 3
  862.0 2.95 2
  862.1 3.39 3
  862.2 4.01 4
  862.3 4.55 4
  862.4 4.99 4
  862.5 5.34 5
  862.6 5.44 5
  862.7 5.1 5
  862.8 4.44 4
  862.9 3.9 3
  863.0 3.86 3
  863.1 4.13 4
  863.2 4.19 4
  863.3 3.86 3
  863.4 3.59 3
  863.5 3.94 3
  863.6 4.8 4
  863.7 5.51 5
  863.8 5.38 5
  863.9 4.28 4
  872.2 3.26 3
  872.3 4.61 4
  872.4 5.93 5
  872.5 6.57 6
  872.6 6.39 6
  872.7 5.58 5
  872.8 4.57 4
  872.9 3.75 3
  873.0 3.37 3
  873.1 3.34 3
  873.2 3.48 3
  873.3 3.63 3
  873.4 3.79 3
  873.5 3.93 3
  873.6 4.11 4
  873.7 4.38 4
  873.8 4.71 4
  873.9 4.86 4
  874.0 4.55 4
  874.1 3.67 3
  874.6 1.97 1
  874.7 3.56 3
  874.8 5.3 5
  874.9 6.61 6
  875.0 7.1 7
  875.1 6.67 6
  875.2 5.47 5
  875.3 3.9 3
  883.7 3.64 3
  883.8 4.73 4
  883.9 5.79 5
  884.0 6.34 6
  884.1 6.05 6
  884.2 4.99 4
  884.7 3.69 3
  884.8 5.29 5
  884.9 6.58 6
  885.0 7.08 7
  885.1 6.67 6
  885.2 5.6 5
  885.3 4.32 4
  887.1 3.92 3
  887.2 5.32 5
  887.3 6.62 6
  887.4 7.41 7
  887.5 7.3 7
  887.6 6.18 6
  887.7 4.55 4
  894.0 3.76 3
  894.1 4.99 4
  894.2 6.4 6
  894.3 7.41 7
  894.4 7.5 7
  894.5 6.69 6
  898.5 4.67 4
  898.6 5.73 5
  898.7 6.66 6
  898.8 7.1 7
  898.9 6.84 6
//
