ACCESSION: MSBNK-RIKEN_NPDepo-NGA02993
RECORD_TITLE: isoverticine; LC-ESI-QQQ; MS2; Frag=135.0V CID@5.0; [M+H]+
DATE: 2018.04.04
AUTHORS: Nogawa T, Okano A, CSRS, RIKEN
LICENSE: CC BY
COMMENT: Origin: Plant
COMMENT: SubCategory_DNP: Steroidal alkaloids, Veratrum alkaloids
CH$NAME: isoverticine
CH$COMPOUND_CLASS: Alkaloids
CH$FORMULA: C27H45NO3
CH$EXACT_MASS: 431.6646
CH$SMILES: CC1CC[C@@H]2N(C1)CC1[C@H](CC[C@H]3C4CC(O)[C@H]5CC(O)CCC5(C)[C@H]4C[C@@H]13)[C@]2(C)O
CH$IUPAC: InChI=1S/C27H45NO3/c1-15-4-7-25-27(3,31)21-6-5-17-18(20(21)14-28(25)13-15)11-22-19(17)12-24(30)23-10-16(29)8-9-26(22,23)2/h15-25,29-31H,4-14H2,1-3H3/t15?,16?,17-,18-,19?,20?,21+,22+,23-,24?,25+,26?,27+/m1/s1
CH$LINK: CAS 23496-43-7
CH$LINK: INCHIKEY IUKLSMSEHKDIIP-HJNHJIHISA-N
AC$INSTRUMENT: Agilent 6410 Triple Quadrupole LC/MS system
AC$INSTRUMENT_TYPE: LC-ESI-QQQ
AC$MASS_SPECTROMETRY: MS_TYPE MS2
AC$MASS_SPECTROMETRY: ION_MODE POSITIVE
MS$FOCUSED_ION: PRECURSOR_TYPE [M+H]+
PK$SPLASH: splash10-001i-0000900000-8a637263933348909f2e
PK$NUM_PEAK: 16
PK$PEAK: m/z int. rel.int.
  431.4 0.24 0
  431.5 1.64 1
  431.6 4.72 4
  431.7 10.07 10
  431.8 18.61 18
  431.9 31.6 31
  432.0 49.29 49
  432.1 69.5 69
  432.2 87.69 87
  432.3 98.99 98
  432.4 100.0 99
  432.5 89.2 89
  432.6 67.45 67
  432.7 39.74 39
  432.8 14.95 14
  432.9 0.69 0
//
