ACCESSION: MSBNK-RIKEN_NPDepo-NGA00777
RECORD_TITLE: Harpagide; LC-ESI-QQQ; MS2; Frag=135.0V CID@5.0; [M+Na]+
DATE: 2018.04.04
AUTHORS: Nogawa T, Okano A, CSRS, RIKEN
LICENSE: CC BY
COMMENT: Origin: Plant
COMMENT: SubCategory_DNP: Monoterpenoids, Harpagide monoterpenoids
CH$NAME: Harpagide
CH$COMPOUND_CLASS: Terpenoids
CH$FORMULA: C15H24O10
CH$EXACT_MASS: 364.3525
CH$SMILES: C[C@]1(O)CC(O)C2(O)C=COC(OC3O[C@H](CO)[C@@H](O)[C@H](O)[C@H]3O)C21
CH$IUPAC: InChI=1S/C15H24O10/c1-14(21)4-7(17)15(22)2-3-23-13(11(14)15)25-12-10(20)9(19)8(18)6(5-16)24-12/h2-3,6-13,16-22H,4-5H2,1H3/t6-,7?,8-,9+,10-,11?,12?,13?,14+,15?/m1/s1
CH$LINK: CAS 6926-08-5
CH$LINK: CHEMSPIDER 3866787
CH$LINK: INCHIKEY XUWSHXDEJOOIND-RKYOIMIWSA-N
AC$INSTRUMENT: Agilent 6410 Triple Quadrupole LC/MS system
AC$INSTRUMENT_TYPE: LC-ESI-QQQ
AC$MASS_SPECTROMETRY: MS_TYPE MS2
AC$MASS_SPECTROMETRY: ION_MODE POSITIVE
MS$FOCUSED_ION: PRECURSOR_TYPE [M+Na]+
PK$SPLASH: splash10-000i-0009000000-93ecf058c4d9322082ed
PK$NUM_PEAK: 17
PK$PEAK: m/z int. rel.int.
  386.0 0.42 0
  386.1 1.69 1
  386.2 4.16 4
  386.3 7.36 7
  386.4 10.38 10
  386.5 13.82 13
  386.6 20.06 20
  386.7 31.36 31
  386.8 48.18 48
  386.9 68.7 68
  387.0 88.26 88
  387.1 100.0 99
  387.2 97.81 97
  387.3 79.83 79
  387.4 50.78 50
  387.5 21.23 21
  387.6 2.02 2
//
