ACCESSION: MSBNK-RIKEN_NPDepo-NGA03004
RECORD_TITLE: harmine; LC-ESI-QQQ; MS2; Frag=135.0V CID@5.0; [M+H]+
DATE: 2018.04.04
AUTHORS: Nogawa T, Okano A, CSRS, RIKEN
LICENSE: CC BY
COMMENT: Origin: Plant
COMMENT: SubCategory_DNP: Alkaloids derived from tryptophan, beta-Carboline alkaloids, Indole alkaloids
CH$NAME: harmine
CH$COMPOUND_CLASS: Alkaloids
CH$FORMULA: C13H12N2O
CH$EXACT_MASS: 212.2534
CH$SMILES: COc1ccc2c(c1)[nH]c1c(C)nccc12
CH$IUPAC: InChI=1S/C13H12N2O/c1-8-13-11(5-6-14-8)10-4-3-9(16-2)7-12(10)15-13/h3-7,15H,1-2H3
CH$LINK: CAS 442-51-3
CH$LINK: CHEMSPIDER 4444445
CH$LINK: INCHIKEY BXNJHAXVSOCGBA-UHFFFAOYSA-N
CH$LINK: COMPTOX DTXSID30196066
CH$LINK: PUBCHEM CID:5280953
AC$INSTRUMENT: Agilent 6410 Triple Quadrupole LC/MS system
AC$INSTRUMENT_TYPE: LC-ESI-QQQ
AC$MASS_SPECTROMETRY: MS_TYPE MS2
AC$MASS_SPECTROMETRY: ION_MODE POSITIVE
MS$FOCUSED_ION: PRECURSOR_TYPE [M+H]+
PK$SPLASH: splash10-03di-0090000000-599f351caf6fe93bfb0a
PK$NUM_PEAK: 15
PK$PEAK: m/z int. rel.int.
  212.3 0.6 0
  212.4 2.99 2
  212.5 8.3 8
  212.6 17.12 17
  212.7 30.04 30
  212.8 47.6 47
  212.9 68.4 68
  213.0 87.44 87
  213.1 98.91 98
  213.2 100.0 99
  213.3 90.22 90
  213.4 69.55 69
  213.5 41.39 41
  213.6 14.99 14
  213.7 0.24 0
//
