ACCESSION: MSBNK-RIKEN_NPDepo-NGA01474
RECORD_TITLE: Monocrotaline; LC-ESI-QQQ; MS2; Frag=135.0V CID@10.0; [M+H]+
DATE: 2018.04.04
AUTHORS: Nogawa T, Okano A, CSRS, RIKEN
LICENSE: CC BY
COMMENT: Origin: Plant
COMMENT: SubCategory_DNP: Alkaloids derived from ornithine, Pyrrolizidine alkaloids
CH$NAME: Monocrotaline
CH$COMPOUND_CLASS: Alkaloids
CH$FORMULA: C16H23NO6
CH$EXACT_MASS: 325.3648
CH$SMILES: C[C@H]1C(=O)O[C@@H]2CCN3CC=C(COC(=O)C(C)(O)C1(C)O)C23
CH$IUPAC: InChI=1S/C16H23NO6/c1-9-13(18)23-11-5-7-17-6-4-10(12(11)17)8-22-14(19)16(3,21)15(9,2)20/h4,9,11-12,20-21H,5-8H2,1-3H3/t9-,11+,12?,15?,16?/m0/s1
CH$LINK: CAS 315-22-0
CH$LINK: CHEMSPIDER 9044
CH$LINK: INCHIKEY QVCMHGGNRFRMAD-XRQQVQNLSA-N
AC$INSTRUMENT: Agilent 6410 Triple Quadrupole LC/MS system
AC$INSTRUMENT_TYPE: LC-ESI-QQQ
AC$MASS_SPECTROMETRY: MS_TYPE MS2
AC$MASS_SPECTROMETRY: ION_MODE POSITIVE
MS$FOCUSED_ION: PRECURSOR_TYPE [M+H]+
PK$SPLASH: splash10-004i-0009000000-82226b6dc31abb280825
PK$NUM_PEAK: 14
PK$PEAK: m/z int. rel.int.
  325.4 1.44 1
  325.5 4.03 4
  325.6 8.64 8
  325.7 16.54 16
  325.8 29.73 29
  325.9 48.74 48
  326.0 70.47 70
  326.1 89.25 89
  326.2 100.0 99
  326.3 99.09 98
  326.4 83.99 83
  326.5 56.46 56
  326.6 25.87 25
  326.7 4.17 4
//
