ACCESSION: MSBNK-RIKEN_NPDepo-NGA04630
RECORD_TITLE: Veratroylzygadenine; LC-ESI-QQQ; MS2; Frag=135.0V CID@10.0; [M+HCOO]-
DATE: 2018.04.04
AUTHORS: Nogawa T, Okano A, CSRS, RIKEN
LICENSE: CC BY
COMMENT: Origin: Plant
COMMENT: SubCategory_DNP: Steroidal alkaloids, Veratrum alkaloids
CH$NAME: Veratroylzygadenine
CH$COMPOUND_CLASS: Alkaloids
CH$FORMULA: C36H51NO10
CH$EXACT_MASS: 657.8086
CH$SMILES: COc1ccc(C(=O)OC2CCC3(C)C4CCC5[C@]6(O)[C@@H](O)C(O)[C@H]7C(CN8CC(C)CC[C@H]8[C@@]7(C)O)[C@@H]6C[C@@]53O[C@]24O)cc1OC
CH$IUPAC: InChI=1S/C36H51NO10/c1-18-6-11-26-33(3,41)28-20(17-37(26)16-18)21-15-34-25(35(21,42)30(39)29(28)38)10-9-24-32(34,2)13-12-27(36(24,43)47-34)46-31(40)19-7-8-22(44-4)23(14-19)45-5/h7-8,14,18,20-21,24-30,38-39,41-43H,6,9-13,15-17H2,1-5H3/t18?,20?,21-,24?,25?,26-,27?,28+,29?,30-,32?,33+,34+,35-,36-/m0/s1
CH$LINK: CAS 31329-58-5
CH$LINK: CHEMSPIDER 32904
CH$LINK: INCHIKEY LQZYJVWXEFXUJG-ALBSXIIMSA-N
AC$INSTRUMENT: Agilent 6410 Triple Quadrupole LC/MS system
AC$INSTRUMENT_TYPE: LC-ESI-QQQ
AC$MASS_SPECTROMETRY: MS_TYPE MS2
AC$MASS_SPECTROMETRY: ION_MODE NEGATIVE
MS$FOCUSED_ION: PRECURSOR_TYPE [M+HCOO]-
PK$SPLASH: splash10-001i-0900000000-cf5db6f1b51b469b5a8b
PK$NUM_PEAK: 15
PK$PEAK: m/z int. rel.int.
  180.1 1.6 1
  180.2 2.84 2
  180.3 5.7 5
  180.4 11.65 11
  180.5 21.82 21
  180.6 36.35 36
  180.7 54.4 54
  180.8 73.97 73
  180.9 91.12 91
  181.0 99.92 99
  181.1 94.56 94
  181.2 73.8 73
  181.3 44.17 44
  181.4 16.78 16
  181.5 1.9 1
//
