ACCESSION: MSBNK-RIKEN_NPDepo-NGA02678
RECORD_TITLE: Geniposide; LC-ESI-QQQ; MS2; Frag=135.0V CID@15.0; [M+Na]+
DATE: 2018.04.04
AUTHORS: Nogawa T, Okano A, CSRS, RIKEN
LICENSE: CC BY
COMMENT: Origin: Plant
COMMENT: SubCategory_DNP: Monoterpenoids, Iridoid monoterpenoids
CH$NAME: Geniposide
CH$COMPOUND_CLASS: Terpenoids
CH$FORMULA: C17H24O10
CH$EXACT_MASS: 388.3748
CH$SMILES: COC(=O)C1=CO[C@@H](OC2O[C@H](CO)[C@@H](O)[C@H](O)[C@H]2O)[C@@H]2C(CO)=CC[C@H]12
CH$IUPAC: InChI=1S/C17H24O10/c1-24-15(23)9-6-25-16(11-7(4-18)2-3-8(9)11)27-17-14(22)13(21)12(20)10(5-19)26-17/h2,6,8,10-14,16-22H,3-5H2,1H3/t8-,10-,11-,12-,13+,14-,16+,17?/m1/s1
CH$LINK: CAS 24512-63-8
CH$LINK: CHEMSPIDER 23089587
CH$LINK: INCHIKEY IBFYXTRXDNAPMM-NOPYRFGNSA-N
CH$LINK: PUBCHEM CID:16394645
AC$INSTRUMENT: Agilent 6410 Triple Quadrupole LC/MS system
AC$INSTRUMENT_TYPE: LC-ESI-QQQ
AC$MASS_SPECTROMETRY: MS_TYPE MS2
AC$MASS_SPECTROMETRY: ION_MODE POSITIVE
MS$FOCUSED_ION: PRECURSOR_TYPE [M+Na]+
PK$SPLASH: splash10-03di-0000900000-9017ea29d52ccb32db6d
PK$NUM_PEAK: 18
PK$PEAK: m/z int. rel.int.
  409.9 1.32 1
  410.0 3.1 3
  410.1 6.17 6
  410.2 9.65 9
  410.3 12.07 12
  410.4 12.62 12
  410.5 13.33 13
  410.6 17.68 17
  410.7 29.51 29
  410.8 47.36 47
  410.9 65.14 65
  411.0 80.44 80
  411.1 93.92 93
  411.2 100.0 99
  411.3 87.59 87
  411.4 55.76 55
  411.5 20.58 20
  411.6 1.66 1
//
