ACCESSION: MSBNK-RIKEN_NPDepo-NGA00594
RECORD_TITLE: Spirosol-5-en-3-ol; LC-ESI-QQQ; MS2; Frag=135.0V CID@10.0; [M+H]+
DATE: 2018.04.04
AUTHORS: Nogawa T, Okano A, CSRS, RIKEN
LICENSE: CC BY
COMMENT: Origin: Plant
COMMENT: SubCategory_DNP: Steroidal alkaloids, Solanaceous alkaloids
CH$NAME: Spirosol-5-en-3-ol
CH$COMPOUND_CLASS: Alkaloids
CH$FORMULA: C27H43NO2
CH$EXACT_MASS: 413.6493
CH$SMILES: CC1CCC2(NC1)OC1C[C@H]3C4CC=C5CC(O)CC[C@]5(C)[C@H]4CC[C@]3(C)[C@H]1[C@@H]2C
CH$IUPAC: InChI=1S/C27H43NO2/c1-16-7-12-27(28-15-16)17(2)24-23(30-27)14-22-20-6-5-18-13-19(29)8-10-25(18,3)21(20)9-11-26(22,24)4/h5,16-17,19-24,28-29H,6-15H2,1-4H3/t16?,17-,19?,20?,21-,22-,23?,24-,25-,26-,27?/m0/s1
CH$LINK: CAS 126-17-0
CH$LINK: CHEMSPIDER 5060 19952204
CH$LINK: INCHIKEY KWVISVAMQJWJSZ-JBXIOQMQSA-N
CH$LINK: PUBCHEM CID:126961506
AC$INSTRUMENT: Agilent 6410 Triple Quadrupole LC/MS system
AC$INSTRUMENT_TYPE: LC-ESI-QQQ
AC$MASS_SPECTROMETRY: MS_TYPE MS2
AC$MASS_SPECTROMETRY: ION_MODE POSITIVE
MS$FOCUSED_ION: PRECURSOR_TYPE [M+H]+
PK$SPLASH: splash10-03di-0000900000-8e72c946c1f76077a2ce
PK$NUM_PEAK: 16
PK$PEAK: m/z int. rel.int.
  413.4 1.28 1
  413.5 3.29 3
  413.6 6.13 6
  413.7 10.0 9
  413.8 17.2 17
  413.9 31.21 31
  414.0 52.37 52
  414.1 75.35 75
  414.2 92.62 92
  414.3 100.0 99
  414.4 97.26 97
  414.5 84.6 84
  414.6 62.38 62
  414.7 35.14 35
  414.8 11.82 11
  414.9 0.22 0
//
