ACCESSION: MSBNK-RIKEN_NPDepo-NGA03122
RECORD_TITLE: sipeimine; LC-ESI-QQQ; MS2; Frag=135.0V CID@10.0; [M+H]+
DATE: 2018.04.04
AUTHORS: Nogawa T, Okano A, CSRS, RIKEN
LICENSE: CC BY
COMMENT: Origin: Plant
COMMENT: SubCategory_DNP: Steroidal alkaloids, Veratrum alkaloids
CH$NAME: sipeimine
CH$COMPOUND_CLASS: Alkaloids
CH$FORMULA: C27H43NO3
CH$EXACT_MASS: 429.6487
CH$SMILES: C[C@H]1CC[C@@H]2N(C1)C[C@H]1[C@@H]3C[C@H]4[C@@H](CC(=O)[C@H]5C[C@@H](O)CC[C@@]54C)[C@@H]3CC[C@H]1[C@]2(C)O
CH$IUPAC: InChI=1S/C27H43NO3/c1-15-4-7-25-27(3,31)21-6-5-17-18(20(21)14-28(25)13-15)11-22-19(17)12-24(30)23-10-16(29)8-9-26(22,23)2/h15-23,25,29,31H,4-14H2,1-3H3/t15-,16-,17+,18+,19-,20-,21+,22-,23+,25-,26+,27-/m0/s1
CH$LINK: CAS 18059-10-4 61825-98-7
CH$LINK: CHEMSPIDER 16735860
CH$LINK: INCHIKEY IQDIERHFZVCNRZ-LRCDAWNTSA-N
CH$LINK: PUBCHEM CID:442977
AC$INSTRUMENT: Agilent 6410 Triple Quadrupole LC/MS system
AC$INSTRUMENT_TYPE: LC-ESI-QQQ
AC$MASS_SPECTROMETRY: MS_TYPE MS2
AC$MASS_SPECTROMETRY: ION_MODE POSITIVE
MS$FOCUSED_ION: PRECURSOR_TYPE [M+H]+
PK$SPLASH: splash10-001i-0000900000-67a6e7395c10dc6f4bf4
PK$NUM_PEAK: 16
PK$PEAK: m/z int. rel.int.
  429.4 0.51 0
  429.5 2.27 2
  429.6 6.13 6
  429.7 12.53 12
  429.8 22.19 22
  429.9 36.02 35
  430.0 53.83 53
  430.1 73.22 73
  430.2 90.04 89
  430.3 100.0 99
  430.4 99.59 99
  430.5 86.54 86
  430.6 61.96 61
  430.7 32.76 32
  430.8 9.21 9
  430.9 0.0 0
//
