ACCESSION: MSBNK-RIKEN_NPDepo-NGA00676
RECORD_TITLE: Foetoside C; LC-ESI-QQQ; MS2; Frag=135.0V CID@25.0; [M+Na]+
DATE: 2018.04.04
AUTHORS: Nogawa T, Okano A, CSRS, RIKEN
LICENSE: CC BY
COMMENT: Origin: Plant
COMMENT: SubCategory_DNP: Triterpenoids
CH$NAME: Foetoside C
CH$COMPOUND_CLASS: Terpenoids
CH$FORMULA: C58H94O25
CH$EXACT_MASS: 1191.3809
CH$SMILES: CC1OC(OC2C(OC3CC[C@@]4(C)C(CC[C@]5(C)C4CC=C4C6CC(C)(C)CCC6(C(=O)OC6OC(COC7OC(CO)C(O)C(O)C7O)C(O)C(O)C6O)CC[C@]45C)C3(C)C)OCC(O)C2O)C(O)C(OC2OCC(O)C(O)C2O)C1O
CH$IUPAC: InChI=1S/C58H94O25/c1-24-34(62)45(81-48-41(69)35(63)27(60)21-74-48)44(72)50(77-24)82-46-36(64)28(61)22-75-51(46)80-33-12-13-55(6)31(54(33,4)5)11-14-57(8)32(55)10-9-25-26-19-53(2,3)15-17-58(26,18-16-56(25,57)7)52(73)83-49-43(71)40(68)38(66)30(79-49)23-76-47-42(70)39(67)37(65)29(20-59)78-47/h9,24,26-51,59-72H,10-23H2,1-8H3/t24?,26?,27?,28?,29?,30?,31?,32?,33?,34?,35?,36?,37?,38?,39?,40?,41?,42?,43?,44?,45?,46?,47?,48?,49?,50?,51?,55-,56+,57+,58?/m0/s1
CH$LINK: CAS 94483-11-1
CH$LINK: INCHIKEY BGKLFKHHSFCDKC-KPHKKTKMSA-N
CH$LINK: PUBCHEM CID:44661022
AC$INSTRUMENT: Agilent 6410 Triple Quadrupole LC/MS system
AC$INSTRUMENT_TYPE: LC-ESI-QQQ
AC$MASS_SPECTROMETRY: MS_TYPE MS2
AC$MASS_SPECTROMETRY: ION_MODE POSITIVE
MS$FOCUSED_ION: PRECURSOR_TYPE [M+Na]+
PK$SPLASH: splash10-03di-3589333344-aca7132ceb296eab153d
PK$NUM_PEAK: 4822
PK$PEAK: m/z int. rel.int.
  60.1 3.37 3
  60.2 4.36 4
  60.3 5.86 5
  60.4 7.14 7
  60.5 7.33 7
  60.6 6.3 6
  60.7 4.68 4
  61.1 3.52 3
  61.2 5.3 5
  61.3 7.19 7
  61.4 8.29 8
  61.5 8.1 8
  61.6 6.85 6
  67.2 3.71 3
  67.3 5.37 5
  67.4 7.3 7
  67.5 8.4 8
  67.6 8.24 8
  67.7 7.36 7
  67.8 6.53 6
  67.9 6.08 6
  68.0 5.8 5
  68.1 5.42 5
  68.2 4.97 4
  68.3 4.67 4
  68.4 4.57 4
  68.5 4.61 4
  68.6 4.82 4
  68.7 5.12 5
  68.8 5.2 5
  68.9 4.82 4
  69.0 4.15 4
  69.1 3.72 3
  69.2 3.83 3
  69.3 4.48 4
  69.4 5.32 5
  69.5 6.0 5
  69.6 6.28 6
  69.7 6.29 6
  69.8 6.33 6
  69.9 6.4 6
  70.0 6.11 6
  70.9 3.57 3
  71.0 4.7 4
  71.1 6.07 6
  71.2 6.95 6
  71.3 6.9 6
  71.4 6.14 6
  82.1 3.7 3
  82.2 4.88 4
  82.3 6.0 5
  82.4 6.69 6
  82.5 7.0 6
  82.6 7.12 7
  82.7 6.97 6
  82.8 6.27 6
  82.9 4.9 4
  85.5 3.96 3
  85.6 5.14 5
  85.7 6.48 6
  85.8 7.33 7
  85.9 6.9 6
  86.0 5.02 5
  86.1 2.49 2
  86.4 1.19 1
  86.5 2.65 2
  86.6 4.1 4
  86.7 5.42 5
  86.8 6.58 6
  86.9 7.33 7
  87.0 7.55 7
  87.1 7.25 7
  87.2 6.54 6
  87.3 5.52 5
  88.2 3.42 3
  88.3 4.46 4
  88.4 5.46 5
  88.5 6.41 6
  88.6 7.08 7
  88.7 6.95 6
  88.8 5.85 5
  88.9 4.17 4
  89.3 2.85 2
  89.4 4.0 3
  89.5 4.79 4
  89.6 5.36 5
  89.7 6.07 6
  89.8 6.67 6
  89.9 6.41 6
  90.0 5.09 5
  91.3 4.26 4
  91.4 5.63 5
  91.5 7.0 6
  91.6 7.71 7
  91.7 7.61 7
  91.8 6.94 6
  91.9 6.15 6
  92.0 5.52 5
  92.1 5.19 5
  92.2 5.19 5
  92.3 5.35 5
  92.4 5.41 5
  92.5 5.41 5
  92.6 5.47 5
  92.7 5.46 5
  92.8 5.0 4
  92.9 4.02 4
  96.1 4.34 4
  96.2 5.42 5
  96.3 6.32 6
  96.4 6.53 6
  96.5 6.18 6
  96.6 5.83 5
  96.7 5.66 5
  96.8 5.41 5
  96.9 4.92 4
  97.0 4.55 4
  97.1 4.7 4
  97.2 5.29 5
  97.3 5.79 5
  97.4 5.97 5
  97.5 6.15 6
  97.6 6.53 6
  97.7 6.72 6
  97.8 6.27 6
  103.0 5.39 5
  103.1 6.88 6
  103.2 8.05 8
  103.3 7.91 7
  105.7 5.08 5
  105.8 5.86 5
  105.9 7.13 7
  106.0 8.33 8
  106.1 8.66 8
  106.2 7.95 7
  106.3 6.86 6
  106.4 6.3 6
  106.5 6.53 6
  106.6 7.1 7
  106.7 7.37 7
  106.8 7.0 6
  106.9 6.22 6
  107.0 5.61 5
  107.1 5.59 5
  107.2 6.05 6
  107.3 6.48 6
  107.4 6.44 6
  107.5 5.94 5
  107.6 5.33 5
  107.7 4.92 4
  107.8 4.91 4
  107.9 5.1 5
  108.0 5.23 5
  108.1 5.17 5
  108.2 5.13 5
  108.3 5.25 5
  108.4 5.54 5
  108.5 5.9 5
  108.6 6.17 6
  108.7 6.11 6
  108.8 5.76 5
  108.9 5.53 5
  109.0 5.85 5
  109.1 6.66 6
  109.2 7.52 7
  109.3 7.84 7
  109.4 7.16 7
  109.5 5.73 5
  109.8 4.72 4
  109.9 5.83 5
  110.0 7.04 7
  110.1 7.72 7
  110.2 7.54 7
  110.3 6.82 6
  110.4 6.18 6
  110.5 5.86 5
  110.6 5.77 5
  110.7 5.91 5
  110.8 6.18 6
  110.9 6.26 6
  111.0 6.17 6
  111.1 6.35 6
  111.2 6.86 6
  111.3 7.05 7
  111.4 6.22 6
  121.6 5.0 4
  121.7 6.73 6
  121.8 8.68 8
  121.9 10.08 10
  122.0 10.35 10
  122.1 9.27 9
  122.2 7.39 7
  125.1 4.82 4
  125.2 6.17 6
  125.3 7.5 7
  125.4 8.19 8
  125.5 7.98 7
  125.6 7.08 7
  126.3 5.26 5
  126.4 6.29 6
  126.5 7.69 7
  126.6 8.91 8
  126.7 9.21 9
  126.8 8.38 8
  135.5 4.92 4
  135.6 6.48 6
  135.7 7.89 7
  135.8 8.33 8
  135.9 7.7 7
  136.0 6.76 6
  136.1 6.34 6
  136.2 6.62 6
  136.3 7.12 7
  136.4 7.33 7
  136.5 7.21 7
  136.6 7.12 7
  136.7 7.34 7
  136.8 7.72 7
  136.9 7.68 7
  137.0 6.77 6
  142.6 4.2 4
  142.7 5.57 5
  142.8 7.12 7
  142.9 8.05 8
  143.0 8.13 8
  143.1 7.64 7
  143.2 7.02 7
  143.3 6.41 6
  143.4 5.72 5
  143.8 3.87 3
  143.9 5.11 5
  144.0 6.45 6
  144.1 7.36 7
  144.2 7.75 7
  144.3 7.69 7
  144.4 7.3 7
  144.5 6.61 6
  144.6 5.89 5
  144.7 5.42 5
  144.8 5.26 5
  144.9 5.44 5
  145.0 6.31 6
  145.1 7.95 7
  145.2 9.62 9
  145.3 10.25 10
  145.4 9.51 9
  145.5 8.08 8
  147.2 5.7 5
  147.3 8.18 8
  147.4 9.71 9
  147.5 9.58 9
  147.6 8.46 8
  150.7 4.96 4
  150.8 6.26 6
  150.9 7.76 7
  151.0 8.67 8
  151.1 8.58 8
  151.2 7.73 7
  151.3 6.72 6
  151.4 5.78 5
  151.8 4.39 4
  151.9 5.7 5
  152.0 6.99 6
  152.1 7.57 7
  152.2 7.19 7
  152.3 6.25 6
  152.4 5.53 5
  152.5 5.53 5
  152.6 6.12 6
  152.7 6.81 6
  152.8 7.09 7
  152.9 6.71 6
  153.0 5.92 5
  153.1 5.41 5
  153.2 5.54 5
  153.3 5.89 5
  153.4 5.76 5
  153.5 5.04 5
  154.6 3.74 3
  154.7 4.98 4
  154.8 6.36 6
  154.9 6.93 6
  155.0 6.62 6
  155.1 6.21 6
  155.2 6.27 6
  155.3 6.68 6
  155.4 6.97 6
  155.5 6.88 6
  155.6 6.47 6
  155.7 5.87 5
  155.8 5.06 5
  156.3 3.84 3
  156.4 5.43 5
  156.5 6.9 6
  156.6 7.7 7
  156.7 7.7 7
  156.8 7.24 7
  156.9 6.82 6
  157.0 6.74 6
  157.1 6.88 6
  157.2 6.77 6
  158.4 4.07 4
  158.5 5.57 5
  158.6 6.73 6
  158.7 6.96 6
  158.8 6.37 6
  158.9 5.43 5
  160.6 5.1 5
  160.7 6.36 6
  160.8 7.49 7
  160.9 7.67 7
  161.0 6.76 6
  168.2 3.82 3
  168.3 5.39 5
  168.4 6.74 6
  168.5 7.43 7
  168.6 7.13 7
  168.7 6.07 6
  174.5 4.68 4
  174.6 5.72 5
  174.7 6.66 6
  174.8 6.84 6
  174.9 6.06 6
  182.1 4.42 4
  182.2 5.44 5
  182.3 6.35 6
  182.4 6.66 6
  182.5 6.27 6
  182.6 5.52 5
  182.7 4.78 4
  182.8 3.97 3
  183.1 2.41 2
  183.2 3.97 3
  183.3 6.18 6
  183.4 7.78 7
  183.5 7.99 7
  183.6 7.0 6
  183.7 5.54 5
  186.6 7.24 7
  186.7 8.21 8
  186.8 9.25 9
  186.9 10.03 10
  187.0 10.29 10
  187.1 10.12 10
  187.2 9.74 9
  187.3 9.13 9
  187.4 8.02 8
  187.5 6.32 6
  187.6 4.45 4
  189.2 4.87 4
  189.3 5.82 5
  189.4 6.53 6
  189.5 6.9 6
  189.6 7.07 7
  189.7 7.01 7
  189.8 6.28 6
  189.9 4.62 4
  196.0 3.56 3
  196.1 4.84 4
  196.2 5.8 5
  196.3 6.16 6
  196.4 6.1 6
  196.5 5.91 5
  196.6 5.83 5
  196.7 5.94 5
  196.8 6.19 6
  196.9 6.24 6
  197.0 5.87 5
  197.1 5.3 5
  197.2 4.99 4
  197.3 4.94 4
  197.4 4.67 4
  197.5 3.87 3
  197.6 3.02 3
  197.7 2.93 2
  197.8 3.74 3
  197.9 4.68 4
  198.0 4.81 4
  198.1 3.95 3
  198.5 3.36 3
  198.6 4.81 4
  198.7 6.16 6
  198.8 6.93 6
  198.9 6.66 6
  199.0 5.25 5
  199.4 3.3 3
  199.5 4.16 4
  199.6 4.9 4
  199.7 5.44 5
  199.8 5.55 5
  199.9 5.14 5
  200.0 4.47 4
  200.1 4.15 4
  200.2 4.39 4
  200.3 4.72 4
  200.4 4.55 4
  200.5 4.04 4
  200.6 4.08 4
  200.7 5.04 5
  200.8 6.15 6
  200.9 6.45 6
  201.0 5.81 5
  201.1 4.99 4
  201.2 4.83 4
  201.3 5.51 5
  201.4 6.46 6
  201.5 6.88 6
  201.6 6.63 6
  201.7 6.2 6
  201.8 6.04 6
  201.9 6.11 6
  202.0 6.13 6
  202.1 5.92 5
  202.2 5.47 5
  202.3 4.99 4
  202.4 4.71 4
  202.5 4.67 4
  202.6 4.68 4
  202.7 4.68 4
  202.8 4.82 4
  202.9 5.14 5
  203.0 5.46 5
  203.1 5.59 5
  203.2 5.5 5
  203.3 5.43 5
  203.4 5.73 5
  203.5 6.5 6
  203.6 7.39 7
  203.7 7.92 7
  203.8 7.83 7
  203.9 7.11 7
  204.0 5.99 5
  204.4 5.4 5
  204.5 6.53 6
  204.6 7.43 7
  204.7 7.6 7
  204.8 6.9 6
  204.9 5.62 5
  205.7 5.58 5
  205.8 6.83 6
  205.9 7.95 7
  206.0 8.09 8
  206.1 6.91 6
  206.2 5.02 5
  206.6 4.7 4
  206.7 5.5 5
  206.8 6.39 6
  206.9 7.27 7
  207.0 7.97 7
  207.1 8.26 8
  207.2 7.96 7
  207.3 7.06 7
  208.8 2.3 2
  208.9 3.69 3
  209.0 4.72 4
  209.1 5.14 5
  209.2 5.41 5
  209.3 5.96 5
  209.4 6.6 6
  209.5 6.69 6
  209.6 6.03 6
  211.4 5.17 5
  211.5 6.2 6
  211.6 6.94 6
  211.7 7.37 7
  211.8 7.48 7
  211.9 7.13 7
  212.0 6.22 6
  213.5 3.54 3
  213.6 5.06 5
  213.7 6.27 6
  213.8 7.06 7
  213.9 7.56 7
  214.0 7.42 7
  214.1 6.24 6
  214.2 4.42 4
  214.5 3.18 3
  214.6 4.31 4
  214.7 5.72 5
  214.8 6.83 6
  214.9 6.96 6
  215.3 4.82 4
  215.4 6.16 6
  215.5 7.08 7
  215.6 7.02 7
  215.7 6.36 6
  215.8 5.9 5
  215.9 5.96 5
  216.0 6.31 6
  216.1 6.52 6
  216.2 6.5 6
  216.3 6.42 6
  216.4 6.48 6
  216.5 6.7 6
  216.6 6.79 6
  216.7 6.55 6
  216.8 6.24 6
  216.9 6.39 6
  217.0 7.02 7
  217.1 7.48 7
  217.2 7.16 7
  217.3 6.09 6
  219.1 2.18 2
  219.2 3.32 3
  219.3 4.9 4
  219.4 6.26 6
  219.5 6.66 6
  219.6 5.91 5
  230.0 4.2 4
  230.1 5.02 5
  230.2 5.9 5
  230.3 6.57 6
  230.4 6.75 6
  230.5 6.41 6
  230.6 5.88 5
  230.7 5.58 5
  230.8 5.55 5
  230.9 5.58 5
  231.0 5.69 5
  231.1 6.03 6
  231.2 6.55 6
  231.3 7.06 7
  231.4 7.4 7
  231.5 7.49 7
  231.6 7.18 7
  231.7 6.49 6
  231.8 5.69 5
  231.9 5.11 5
  232.0 4.86 4
  232.1 4.83 4
  232.2 4.88 4
  232.3 4.91 4
  232.4 5.01 5
  232.5 5.36 5
  232.6 5.86 5
  232.7 6.23 6
  232.8 6.16 6
  232.9 5.61 5
  233.0 4.89 4
  233.1 4.4 4
  233.2 4.48 4
  233.3 5.05 5
  233.4 5.66 5
  233.5 5.92 5
  233.6 5.89 5
  233.7 5.92 5
  233.8 6.13 6
  233.9 6.12 6
  234.0 5.44 5
  234.1 4.16 4
  234.5 3.94 3
  234.6 5.34 5
  234.7 6.53 6
  234.8 7.17 7
  234.9 7.22 7
  235.0 6.8 6
  235.1 6.11 6
  235.2 5.52 5
  235.3 5.43 5
  235.4 5.89 5
  235.5 6.53 6
  235.6 6.97 6
  235.7 7.08 7
  235.8 6.87 6
  235.9 6.33 6
  236.0 5.67 5
  236.1 5.29 5
  236.2 5.57 5
  236.3 6.46 6
  236.4 7.48 7
  236.5 8.09 8
  236.6 8.01 8
  236.7 7.4 7
  236.8 6.61 6
  236.9 6.13 6
  237.0 6.17 6
  237.1 6.57 6
  237.2 6.88 6
  237.3 6.99 6
  237.4 7.04 7
  237.5 7.09 7
  237.6 7.02 7
  237.7 6.76 6
  237.8 6.26 6
  237.9 5.58 5
  238.0 4.98 4
  238.1 4.84 4
  238.2 5.17 5
  238.3 5.5 5
  238.4 5.41 5
  238.5 5.1 5
  238.6 5.11 5
  238.7 5.65 5
  238.8 6.28 6
  238.9 6.43 6
  239.0 5.91 5
  239.1 5.04 5
  239.2 4.32 4
  239.3 4.05 4
  239.4 4.26 4
  239.5 4.71 4
  239.6 5.12 5
  239.7 5.45 5
  239.8 5.78 5
  239.9 6.09 6
  240.0 6.13 6
  240.1 5.95 5
  240.2 5.9 5
  240.3 6.16 6
  240.4 6.37 6
  240.5 6.09 6
  240.6 5.58 5
  240.7 5.45 5
  240.8 5.92 5
  240.9 6.66 6
  241.0 7.29 7
  241.1 7.61 7
  241.2 7.36 7
  241.3 6.43 6
  241.6 4.55 4
  241.7 5.87 5
  241.8 7.62 7
  241.9 8.73 8
  242.0 8.51 8
  242.1 7.15 7
  242.2 5.45 5
  242.5 4.11 4
  242.6 5.27 5
  242.7 6.54 6
  242.8 7.39 7
  242.9 7.66 7
  243.0 7.72 7
  243.1 7.89 7
  243.2 8.04 8
  243.3 7.7 7
  247.4 6.15 6
  247.5 7.03 7
  247.6 7.76 7
  247.7 8.11 8
  247.8 7.81 7
  247.9 6.78 6
  248.0 5.34 5
  248.3 4.4 4
  248.4 6.21 6
  248.5 7.96 7
  248.6 8.45 8
  248.7 7.54 7
  248.8 6.2 6
  252.8 4.91 4
  252.9 6.37 6
  253.0 7.59 7
  253.1 7.77 7
  253.2 7.09 7
  253.3 6.39 6
  253.4 6.02 6
  253.5 5.57 5
  263.7 5.02 5
  263.8 6.24 6
  263.9 7.53 7
  264.0 8.22 8
  264.1 8.01 8
  264.2 6.96 6
  264.3 5.43 5
  266.9 4.86 4
  267.0 5.64 5
  267.1 6.39 6
  267.2 7.11 7
  267.3 7.68 7
  267.4 7.76 7
  267.5 7.13 7
  267.6 6.03 6
  271.5 4.18 4
  271.6 5.37 5
  271.7 6.86 6
  271.8 7.77 7
  271.9 7.57 7
  273.7 3.05 3
  273.8 4.2 4
  273.9 5.47 5
  274.0 6.42 6
  274.1 6.67 6
  274.2 6.23 6
  274.3 5.58 5
  274.4 5.22 5
  274.5 5.04 5
  274.6 4.58 4
  274.7 3.75 3
  274.8 3.07 3
  274.9 3.12 3
  275.0 4.03 4
  275.1 5.45 5
  275.2 6.89 6
  275.3 7.69 7
  275.4 7.4 7
  275.5 6.28 6
  275.6 5.16 5
  276.1 3.14 3
  276.2 4.43 4
  276.3 6.05 6
  276.4 7.23 7
  276.5 7.71 7
  276.6 7.78 7
  276.7 7.55 7
  276.8 7.0 6
  276.9 6.26 6
  277.0 5.63 5
  277.1 5.32 5
  277.2 5.46 5
  277.3 6.09 6
  277.4 6.93 6
  277.5 7.26 7
  277.6 6.64 6
  279.9 4.48 4
  280.0 5.56 5
  280.1 6.63 6
  280.2 7.31 7
  280.3 7.43 7
  280.4 6.79 6
  280.8 5.22 5
  280.9 6.78 6
  281.0 8.04 8
  281.1 8.43 8
  281.2 7.88 7
  281.3 6.86 6
  281.4 5.82 5
  285.9 3.1 3
  286.0 4.58 4
  286.1 6.53 6
  286.2 8.05 8
  286.3 8.29 8
  286.4 7.35 7
  286.5 6.28 6
  286.6 5.98 5
  286.7 6.29 6
  286.8 6.49 6
  286.9 6.5 6
  287.0 6.67 6
  287.1 7.04 7
  287.2 7.26 7
  287.3 7.19 7
  287.4 6.9 6
  287.5 6.53 6
  287.6 6.04 6
  287.7 5.55 5
  287.8 5.27 5
  287.9 5.39 5
  288.0 5.81 5
  288.1 6.16 6
  288.2 6.21 6
  288.3 6.13 6
  288.4 5.98 5
  288.5 5.61 5
  288.6 4.9 4
  288.7 4.23 4
  288.8 4.15 4
  288.9 4.66 4
  289.0 5.18 5
  289.1 5.28 5
  289.2 5.2 5
  289.3 5.4 5
  289.4 5.86 5
  289.5 6.16 6
  289.6 6.02 6
  289.7 5.41 5
  290.1 3.86 3
  290.2 5.01 5
  290.3 6.08 6
  290.4 6.53 6
  290.5 6.43 6
  290.6 5.97 5
  290.7 5.23 5
  291.4 3.6 3
  291.5 5.1 5
  291.6 6.72 6
  291.7 8.24 8
  291.8 9.24 9
  291.9 9.15 9
  292.0 7.98 7
  292.1 6.27 6
  292.5 4.49 4
  292.6 5.75 5
  292.7 6.78 6
  292.8 6.96 6
  292.9 6.2 6
  293.0 5.0 4
  293.5 3.98 3
  293.6 5.36 5
  293.7 6.52 6
  293.8 6.78 6
  293.9 6.06 6
  295.9 3.76 3
  296.0 5.14 5
  296.1 6.49 6
  296.2 7.38 7
  296.3 7.63 7
  296.4 7.08 7
  298.4 3.82 3
  298.5 4.43 4
  298.6 5.23 5
  298.7 6.16 6
  298.8 6.77 6
  298.9 6.75 6
  299.0 6.19 6
  299.1 5.45 5
  299.2 4.9 4
  299.3 4.85 4
  299.4 5.37 5
  299.5 6.23 6
  299.6 7.01 7
  299.7 7.34 7
  299.8 6.93 6
  299.9 5.72 5
  300.0 4.18 4
  300.5 3.46 3
  300.6 4.7 4
  300.7 6.04 6
  300.8 6.89 6
  300.9 6.8 6
  301.0 5.94 5
  301.1 5.05 5
  301.2 4.78 4
  301.3 5.1 5
  301.4 5.57 5
  301.5 5.95 5
  301.6 6.17 6
  301.7 6.0 5
  301.8 5.29 5
  301.9 4.48 4
  302.0 4.2 4
  302.1 4.55 4
  302.2 4.9 4
  302.3 4.81 4
  302.4 4.59 4
  302.5 4.82 4
  302.6 5.68 5
  302.7 6.64 6
  302.8 7.0 6
  302.9 6.55 6
  303.0 5.75 5
  303.1 5.09 5
  303.2 4.66 4
  303.3 4.31 4
  303.4 3.98 3
  303.5 3.74 3
  303.6 3.61 3
  303.7 3.57 3
  303.8 3.54 3
  303.9 3.49 3
  304.0 3.62 3
  304.1 4.26 4
  304.2 5.31 5
  304.3 5.89 5
  304.4 5.25 5
  307.7 2.28 2
  307.8 3.92 3
  307.9 5.8 5
  308.0 7.26 7
  308.1 7.97 7
  308.2 7.77 7
  308.3 6.52 6
  308.4 4.41 4
  308.7 2.02 2
  308.8 3.57 3
  308.9 4.79 4
  309.0 4.99 4
  309.1 4.41 4
  309.2 3.88 3
  309.3 4.18 4
  309.4 5.49 5
  309.5 7.04 7
  309.6 7.77 7
  309.7 7.19 7
  329.7 2.9 2
  329.8 4.31 4
  329.9 5.84 5
  330.0 7.03 7
  330.1 7.46 7
  330.2 7.22 7
  330.3 6.85 6
  330.4 6.51 6
  330.5 5.79 5
  333.2 3.36 3
  333.3 4.76 4
  333.4 5.96 5
  333.5 6.59 6
  333.6 7.0 6
  333.7 7.47 7
  333.8 7.53 7
  333.9 6.54 6
  334.0 4.56 4
  334.3 2.37 2
  334.4 3.76 3
  334.5 4.92 4
  334.6 5.5 5
  334.7 5.67 5
  334.8 5.73 5
  334.9 5.77 5
  335.0 5.77 5
  335.1 5.73 5
  335.2 5.6 5
  335.3 5.38 5
  335.4 5.27 5
  335.5 5.53 5
  335.6 6.16 6
  335.7 6.6 6
  335.8 6.41 6
  335.9 5.9 5
  336.0 5.8 5
  336.1 6.35 6
  336.2 6.89 6
  336.3 6.77 6
  336.4 6.17 6
  336.5 5.89 5
  336.6 6.28 6
  336.7 7.01 7
  336.8 7.66 7
  336.9 8.12 8
  337.0 8.22 8
  337.1 7.76 7
  337.2 6.83 6
  337.3 5.81 5
  347.2 5.95 5
  347.3 7.01 7
  347.4 7.73 7
  347.5 8.06 8
  347.6 8.14 8
  347.7 8.0 7
  347.8 7.65 7
  347.9 7.28 7
  348.0 7.11 7
  348.1 7.19 7
  348.2 7.49 7
  348.3 7.87 7
  348.4 7.91 7
  348.5 7.38 7
  348.6 6.66 6
  348.7 6.51 6
  348.8 7.28 7
  348.9 8.47 8
  349.0 9.16 9
  349.1 8.77 8
  349.2 7.5 7
  355.2 6.29 6
  355.3 7.58 7
  355.4 8.72 8
  355.5 9.27 9
  355.6 9.3 9
  355.7 9.12 9
  355.8 8.77 8
  355.9 8.14 8
  356.0 7.42 7
  356.1 7.1 7
  356.2 7.28 7
  356.3 7.55 7
  356.4 7.5 7
  356.5 7.17 7
  356.6 6.61 6
  357.0 5.15 5
  357.1 6.46 6
  357.2 7.37 7
  357.3 7.45 7
  357.4 7.01 7
  357.5 6.42 6
  357.6 5.9 5
  357.7 5.71 5
  357.8 5.97 5
  357.9 6.5 6
  358.0 6.83 6
  358.1 6.86 6
  358.2 6.9 6
  358.3 7.17 7
  358.4 7.48 7
  358.5 7.59 7
  358.6 7.54 7
  358.7 7.58 7
  358.8 7.83 7
  358.9 8.1 8
  359.0 8.16 8
  359.1 7.84 7
  359.2 7.27 7
  359.3 6.72 6
  359.4 6.22 6
  361.0 5.65 5
  361.1 6.97 6
  361.2 8.34 8
  361.3 9.11 9
  361.4 8.96 8
  361.5 8.16 8
  361.6 7.46 7
  361.7 7.25 7
  361.8 7.22 7
  361.9 6.77 6
  362.0 5.8 5
  362.1 4.96 4
  362.2 5.08 5
  362.3 6.1 6
  362.4 7.1 7
  362.5 7.23 7
  362.6 6.68 6
  362.7 6.21 6
  362.8 6.11 6
  362.9 6.04 6
  363.0 5.79 5
  363.1 5.53 5
  363.2 5.48 5
  363.3 5.8 5
  363.4 6.67 6
  363.5 7.8 7
  363.6 8.36 8
  363.7 7.93 7
  363.8 7.19 7
  363.9 7.02 7
  364.0 7.26 7
  364.1 7.06 7
  364.2 6.08 6
  364.6 4.95 4
  364.7 6.03 6
  364.8 7.3 7
  364.9 8.29 8
  365.0 8.46 8
  365.1 7.77 7
  365.2 6.77 6
  369.1 3.54 3
  369.2 4.96 4
  369.3 6.28 6
  369.4 6.89 6
  369.5 7.0 6
  369.6 7.31 7
  369.7 8.07 8
  369.8 8.73 8
  369.9 8.39 8
  370.0 6.85 6
  372.6 5.24 5
  372.7 6.47 6
  372.8 7.4 7
  372.9 7.68 7
  373.0 7.45 7
  373.1 6.99 6
  373.2 6.46 6
  373.3 5.97 5
  373.4 5.52 5
  373.5 5.1 5
  373.6 4.82 4
  373.7 4.89 4
  373.8 5.29 5
  373.9 5.68 5
  374.0 5.72 5
  374.1 5.52 5
  374.2 5.33 5
  374.3 5.14 5
  374.4 4.86 4
  374.5 4.73 4
  374.6 5.01 5
  374.7 5.53 5
  374.8 5.81 5
  374.9 5.7 5
  375.0 5.65 5
  375.1 5.94 5
  375.2 6.23 6
  375.3 6.15 6
  375.4 5.84 5
  375.5 5.79 5
  375.6 6.07 6
  375.7 6.36 6
  375.8 6.49 6
  375.9 6.6 6
  376.0 6.83 6
  376.1 7.19 7
  376.2 7.6 7
  376.3 7.86 7
  376.4 7.66 7
  376.5 6.94 6
  376.6 5.98 5
  377.1 4.96 4
  377.2 6.23 6
  377.3 7.7 7
  377.4 9.0 8
  377.5 9.78 9
  377.6 9.91 9
  377.7 9.55 9
  377.8 8.94 8
  377.9 8.09 8
  378.0 6.79 6
  378.1 5.18 5
  378.5 3.86 3
  378.6 4.97 4
  378.7 5.87 5
  378.8 6.26 6
  378.9 6.3 6
  379.0 6.16 6
  379.1 5.84 5
  379.2 5.32 5
  379.3 5.04 5
  379.4 5.38 5
  379.5 6.06 6
  379.6 6.47 6
  379.7 6.34 6
  379.8 6.06 6
  379.9 6.13 6
  380.0 6.7 6
  380.1 7.43 7
  380.2 7.65 7
  380.3 6.99 6
  380.8 5.55 5
  380.9 6.57 6
  381.0 7.36 7
  381.1 7.76 7
  381.2 7.71 7
  381.3 7.23 7
  381.4 6.59 6
  381.5 6.22 6
  381.6 6.21 6
  381.7 6.16 6
  381.8 5.83 5
  381.9 5.5 5
  382.0 5.5 5
  382.1 5.78 5
  382.2 6.02 6
  382.3 6.1 6
  382.4 6.14 6
  382.5 6.29 6
  382.6 6.46 6
  382.7 6.6 6
  382.8 6.96 6
  382.9 7.73 7
  383.0 8.58 8
  383.1 8.83 8
  383.2 8.06 8
  383.3 6.5 6
  386.7 4.45 4
  386.8 5.18 5
  386.9 6.15 6
  387.0 7.42 7
  387.1 8.69 8
  387.2 9.39 9
  387.3 9.19 9
  387.4 8.17 8
  387.5 6.68 6
  388.8 2.08 2
  388.9 3.26 3
  389.0 5.16 5
  389.1 6.86 6
  389.2 7.41 7
  389.3 6.73 6
  393.1 3.88 3
  393.2 5.48 5
  393.3 6.67 6
  393.4 6.74 6
  393.5 5.9 5
  393.6 4.83 4
  394.1 2.73 2
  394.2 3.88 3
  394.3 5.04 5
  394.4 5.4 5
  394.5 4.97 4
  394.6 4.51 4
  394.7 4.57 4
  394.8 4.95 4
  394.9 5.14 5
  395.0 4.94 4
  395.1 4.53 4
  395.2 4.26 4
  395.3 4.37 4
  395.4 4.89 4
  395.5 5.44 5
  395.6 5.63 5
  395.7 5.34 5
  395.8 4.9 4
  395.9 4.64 4
  396.0 4.74 4
  396.1 5.17 5
  396.2 5.72 5
  396.3 6.05 6
  396.4 5.99 5
  396.5 5.64 5
  396.6 5.28 5
  396.7 5.05 5
  396.8 4.8 4
  396.9 4.37 4
  397.0 3.96 3
  397.1 4.08 4
  397.2 4.85 4
  397.3 5.75 5
  397.4 6.13 6
  397.5 5.9 5
  397.6 5.52 5
  397.7 5.28 5
  397.8 4.98 4
  397.9 4.44 4
  398.0 3.95 3
  398.1 4.12 4
  398.2 5.07 5
  398.3 6.28 6
  398.4 6.95 6
  398.5 6.82 6
  398.6 6.16 6
  404.7 5.08 5
  404.8 6.12 6
  404.9 6.92 6
  405.0 7.11 7
  405.1 6.82 6
  405.2 6.39 6
  405.3 5.91 5
  405.4 5.49 5
  405.5 5.28 5
  405.6 5.35 5
  405.7 5.51 5
  405.8 5.51 5
  405.9 5.28 5
  406.0 4.97 4
  406.1 4.83 4
  406.2 4.86 4
  406.3 4.78 4
  406.4 4.48 4
  406.5 4.32 4
  406.6 4.62 4
  406.7 5.14 5
  406.8 5.3 5
  406.9 5.08 5
  407.0 5.04 5
  407.1 5.55 5
  407.2 6.33 6
  407.3 6.84 6
  407.4 6.9 6
  407.5 6.68 6
  407.6 6.24 6
  407.7 5.54 5
  407.8 4.65 4
  409.8 3.3 3
  409.9 4.54 4
  410.0 5.93 5
  410.1 6.88 6
  410.2 7.16 7
  410.3 6.86 6
  410.4 6.37 6
  410.5 5.97 5
  410.6 5.58 5
  410.7 5.05 5
  410.8 4.55 4
  410.9 4.19 4
  411.0 3.89 3
  411.1 3.68 3
  411.2 4.06 4
  411.3 5.28 5
  411.4 6.66 6
  411.5 7.32 7
  411.6 7.16 7
  411.7 6.86 6
  411.8 6.82 6
  411.9 6.66 6
  412.0 6.0 5
  412.1 5.12 5
  412.2 4.77 4
  412.3 5.12 5
  412.4 5.55 5
  412.5 5.52 5
  412.6 5.27 5
  412.7 5.4 5
  412.8 5.95 5
  412.9 6.27 6
  413.0 5.77 5
  416.5 2.68 2
  416.6 4.14 4
  416.7 5.11 5
  416.8 5.58 5
  416.9 5.98 5
  417.0 6.35 6
  417.1 6.27 6
  417.2 5.43 5
  417.3 4.12 4
  417.8 2.2 2
  417.9 3.32 3
  418.0 4.51 4
  418.1 5.37 5
  418.2 5.84 5
  418.3 6.03 6
  418.4 6.12 6
  418.5 6.16 6
  418.6 6.23 6
  418.7 6.3 6
  418.8 6.19 6
  418.9 5.65 5
  429.6 4.19 4
  429.7 5.79 5
  429.8 6.94 6
  429.9 6.93 6
  430.0 6.18 6
  430.1 5.53 5
  430.2 5.22 5
  430.3 4.78 4
  430.4 4.04 4
  430.5 3.51 3
  430.6 3.85 3
  430.7 4.96 4
  430.8 6.2 6
  430.9 6.94 6
  431.0 6.85 6
  431.1 5.99 5
  432.2 4.07 4
  432.3 5.01 5
  432.4 5.82 5
  432.5 6.04 6
  432.6 5.67 5
  432.7 5.12 5
  432.8 4.61 4
  432.9 4.07 4
  433.0 3.67 3
  433.1 3.76 3
  433.2 4.4 4
  433.3 5.27 5
  433.4 6.09 6
  433.5 6.62 6
  433.6 6.6 6
  433.7 5.94 5
  433.8 4.89 4
  436.6 4.09 4
  436.7 5.68 5
  436.8 7.01 7
  436.9 7.41 7
  437.0 6.89 6
  437.1 6.09 6
  437.2 5.76 5
  437.3 5.96 5
  437.4 6.05 6
  437.5 5.55 5
  437.6 4.73 4
  437.7 4.28 4
  437.8 4.4 4
  437.9 4.73 4
  438.0 4.91 4
  438.1 4.89 4
  438.2 4.76 4
  438.3 4.58 4
  438.4 4.31 4
  438.5 3.86 3
  438.6 3.3 3
  438.7 2.95 2
  438.8 3.2 3
  438.9 3.95 3
  439.0 4.69 4
  439.1 4.98 4
  439.2 4.89 4
  439.3 4.71 4
  439.4 4.55 4
  439.5 4.38 4
  439.6 4.34 4
  439.7 4.66 4
  439.8 5.17 5
  439.9 5.54 5
  440.0 5.8 5
  440.1 6.44 6
  440.2 7.48 7
  440.3 8.33 8
  440.4 8.45 8
  440.5 7.97 7
  440.6 7.34 7
  440.7 6.75 6
  446.8 4.55 4
  446.9 6.1 6
  447.0 7.07 7
  447.1 6.85 6
  447.2 6.03 6
  447.3 5.53 5
  447.4 5.66 5
  447.5 6.12 6
  447.6 6.54 6
  447.7 6.72 6
  447.8 6.49 6
  447.9 5.88 5
  448.0 5.22 5
  448.1 4.92 4
  448.2 5.27 5
  448.3 6.04 6
  448.4 6.65 6
  448.5 6.6 6
  448.6 5.99 5
  448.7 5.43 5
  448.8 5.27 5
  448.9 5.36 5
  449.0 5.51 5
  449.1 5.7 5
  449.2 6.03 6
  449.3 6.5 6
  449.4 6.96 6
  449.5 7.18 7
  449.6 7.02 7
  449.7 6.74 6
  449.8 6.77 6
  449.9 7.25 7
  450.0 7.73 7
  450.1 7.65 7
  450.2 6.83 6
  454.0 4.53 4
  454.1 5.5 5
  454.2 6.22 6
  454.3 6.77 6
  454.4 7.33 7
  454.5 7.78 7
  454.6 8.0 7
  454.7 7.99 7
  454.8 7.71 7
  454.9 6.84 6
  455.0 5.18 5
  455.3 3.67 3
  455.4 5.46 5
  455.5 7.41 7
  455.6 8.93 8
  455.7 9.43 9
  455.8 8.59 8
  455.9 6.85 6
  459.8 4.49 4
  459.9 5.67 5
  460.0 6.99 6
  460.1 7.98 7
  460.2 8.31 8
  460.3 7.85 7
  460.4 6.81 6
  464.4 4.7 4
  464.5 5.88 5
  464.6 7.11 7
  464.7 7.89 7
  464.8 7.85 7
  464.9 7.1 7
  465.0 6.3 6
  465.1 6.02 6
  465.2 6.19 6
  465.3 6.26 6
  465.4 6.02 6
  465.5 5.61 5
  465.6 5.3 5
  465.7 5.3 5
  465.8 5.65 5
  465.9 6.07 6
  466.0 6.2 6
  466.1 6.0 5
  466.2 5.76 5
  466.3 5.73 5
  466.4 6.01 6
  466.5 6.56 6
  466.6 7.23 7
  466.7 7.79 7
  466.8 8.14 8
  466.9 8.26 8
  467.0 7.87 7
  467.1 6.67 6
  467.2 4.87 4
  467.5 3.09 3
  467.6 4.43 4
  467.7 6.17 6
  467.8 7.78 7
  467.9 8.89 8
  468.0 9.43 9
  468.1 9.55 9
  468.2 9.37 9
  468.3 8.82 8
  468.4 7.86 7
  468.5 6.75 6
  469.3 5.67 5
  469.4 6.71 6
  469.5 7.77 7
  469.6 8.24 8
  469.7 7.79 7
  469.8 6.73 6
  477.2 5.54 5
  477.3 6.45 6
  477.4 7.55 7
  477.5 8.63 8
  477.6 9.34 9
  477.7 9.41 9
  477.8 8.93 8
  477.9 8.12 8
  478.0 7.09 7
  478.1 5.75 5
  478.2 4.2 4
  479.6 4.95 4
  479.7 6.24 6
  479.8 7.26 7
  479.9 7.66 7
  480.0 7.36 7
  480.1 6.61 6
  480.2 5.84 5
  480.3 5.48 5
  480.4 5.58 5
  480.5 5.89 5
  480.6 6.12 6
  480.7 6.27 6
  480.8 6.55 6
  480.9 6.96 6
  481.0 7.22 7
  481.1 7.15 7
  481.2 6.97 6
  481.3 7.11 7
  481.4 7.6 7
  481.5 7.99 7
  481.6 7.8 7
  481.7 6.89 6
  484.3 5.38 5
  484.4 6.53 6
  484.5 7.5 7
  484.6 7.56 7
  484.7 6.83 6
  484.8 6.18 6
  484.9 6.21 6
  485.0 6.89 6
  485.1 7.72 7
  485.2 8.19 8
  485.3 8.16 8
  485.4 8.01 8
  485.5 8.26 8
  485.6 8.88 8
  485.7 9.3 9
  485.8 9.1 9
  485.9 8.46 8
  486.0 7.7 7
  486.1 6.82 6
  486.6 5.54 5
  486.7 6.37 6
  486.8 7.22 7
  486.9 7.73 7
  487.0 7.55 7
  487.1 6.82 6
  487.2 6.12 6
  487.3 5.99 5
  487.4 6.47 6
  487.5 7.06 7
  487.6 7.12 7
  487.7 6.7 6
  487.8 6.31 6
  487.9 6.29 6
  488.0 6.31 6
  488.1 5.96 5
  488.2 5.36 5
  488.3 4.88 4
  488.4 4.88 4
  488.5 5.36 5
  488.6 6.13 6
  488.7 6.79 6
  488.8 6.95 6
  488.9 6.5 6
  494.3 3.25 3
  494.4 4.34 4
  494.5 5.56 5
  494.6 6.4 6
  494.7 6.7 6
  494.8 6.42 6
  494.9 5.78 5
  495.0 5.4 5
  495.1 5.78 5
  495.2 6.7 6
  495.3 7.29 7
  495.4 7.0 6
  495.5 6.11 6
  495.6 5.42 5
  495.7 5.31 5
  495.8 5.59 5
  495.9 5.73 5
  496.0 5.67 5
  496.1 5.83 5
  496.2 6.31 6
  496.3 6.65 6
  496.4 6.56 6
  496.5 6.23 6
  496.6 5.74 5
  496.7 4.84 4
  497.0 3.1 3
  497.1 4.61 4
  497.2 6.31 6
  497.3 7.28 7
  497.4 7.3 7
  497.5 6.8 6
  497.6 6.28 6
  497.7 5.87 5
  497.8 5.38 5
  497.9 4.83 4
  498.0 4.6 4
  498.1 4.91 4
  498.2 5.54 5
  498.3 6.01 6
  498.4 6.18 6
  498.5 6.22 6
  498.6 6.12 6
  498.7 5.66 5
  500.4 2.76 2
  500.5 4.26 4
  500.6 6.23 6
  500.7 7.36 7
  500.8 7.12 7
  500.9 6.32 6
  501.0 5.91 5
  501.1 5.87 5
  501.2 5.67 5
  501.3 5.25 5
  501.4 5.0 4
  501.5 5.16 5
  501.6 5.58 5
  501.7 5.96 5
  501.8 6.21 6
  501.9 6.31 6
  502.0 6.2 6
  502.1 5.78 5
  502.2 5.15 5
  502.3 4.71 4
  502.4 4.56 4
  502.5 4.45 4
  502.6 4.47 4
  502.7 5.09 5
  502.8 6.45 6
  502.9 7.77 7
  503.0 8.08 8
  503.1 7.32 7
  503.2 6.16 6
  505.0 4.18 4
  505.1 5.63 5
  505.2 7.0 6
  505.3 7.87 7
  505.4 8.14 8
  505.5 7.9 7
  505.6 7.26 7
  509.2 3.92 3
  509.3 4.88 4
  509.4 5.8 5
  509.5 6.44 6
  509.6 6.74 6
  509.7 6.82 6
  509.8 6.92 6
  509.9 7.26 7
  510.0 7.58 7
  510.1 7.42 7
  510.2 6.58 6
  510.3 5.38 5
  514.4 5.02 5
  514.5 6.42 6
  514.6 7.83 7
  514.7 8.39 8
  514.8 7.81 7
  514.9 6.57 6
  515.6 5.25 5
  515.7 6.33 6
  515.8 7.48 7
  515.9 8.14 8
  516.0 7.91 7
  516.1 6.95 6
  521.9 3.14 3
  522.0 4.84 4
  522.1 6.61 6
  522.2 7.15 7
  522.3 6.31 6
  522.4 5.05 5
  522.5 4.49 4
  522.6 4.95 4
  522.7 5.84 5
  522.8 6.42 6
  522.9 6.38 6
  523.0 5.93 5
  523.1 5.5 5
  523.2 5.43 5
  523.3 5.7 5
  523.4 5.98 5
  523.5 5.85 5
  523.6 5.21 5
  523.7 4.56 4
  523.8 4.61 4
  523.9 5.48 5
  524.0 6.58 6
  524.1 7.16 7
  524.2 7.05 7
  524.3 6.6 6
  524.4 6.13 6
  524.5 5.79 5
  524.6 5.6 5
  524.7 5.58 5
  524.8 5.75 5
  524.9 6.18 6
  525.0 6.95 6
  525.1 7.75 7
  525.2 8.04 8
  525.3 7.56 7
  525.4 6.68 6
  525.5 5.96 5
  525.6 5.65 5
  525.7 5.72 5
  525.8 6.06 6
  525.9 6.55 6
  526.0 7.01 7
  526.1 7.4 7
  526.2 7.48 7
  526.3 6.87 6
  530.7 2.24 2
  530.8 3.6 3
  530.9 4.82 4
  531.0 5.67 5
  531.1 6.2 6
  531.2 6.38 6
  531.3 6.25 6
  531.4 6.01 6
  531.5 5.77 5
  531.6 5.43 5
  531.7 4.98 4
  531.8 4.68 4
  531.9 4.61 4
  532.0 4.58 4
  532.1 4.42 4
  532.2 4.31 4
  532.3 4.46 4
  532.4 4.82 4
  532.5 5.13 5
  532.6 5.06 5
  532.7 4.5 4
  532.8 3.71 3
  532.9 3.13 3
  533.0 3.04 3
  533.1 3.32 3
  533.2 3.67 3
  533.3 3.89 3
  533.4 3.97 3
  533.5 4.08 4
  533.6 4.37 4
  533.7 4.8 4
  533.8 5.1 5
  533.9 5.11 5
  534.0 4.9 4
  534.1 4.57 4
  534.2 4.34 4
  534.3 4.38 4
  534.4 4.6 4
  534.5 4.68 4
  534.6 4.63 4
  534.7 4.76 4
  534.8 5.13 5
  534.9 5.37 5
  535.0 5.02 5
  535.1 4.08 4
  535.2 3.22 3
  535.3 3.27 3
  535.4 4.32 4
  535.5 5.5 5
  535.6 5.94 5
  535.7 5.72 5
  535.8 5.43 5
  535.9 5.13 5
  536.0 4.48 4
  536.4 2.41 2
  536.5 3.52 3
  536.6 4.83 4
  536.7 5.64 5
  536.8 5.44 5
  538.8 3.01 3
  538.9 4.22 4
  539.0 5.3 5
  539.1 5.76 5
  539.2 5.58 5
  539.3 5.1 5
  539.4 4.46 4
  545.2 4.48 4
  545.3 5.72 5
  545.4 6.84 6
  545.5 7.25 7
  545.6 6.92 6
  545.7 6.27 6
  545.8 5.96 5
  545.9 6.28 6
  546.0 6.97 6
  546.1 7.59 7
  546.2 7.98 7
  546.3 8.18 8
  546.4 7.99 7
  546.5 7.29 7
  546.6 6.36 6
  549.4 2.33 2
  549.5 4.08 4
  549.6 5.48 5
  549.7 6.38 6
  549.8 6.93 6
  549.9 7.13 7
  550.0 6.78 6
  550.1 5.84 5
  557.4 5.13 5
  557.5 6.31 6
  557.6 7.21 7
  557.7 7.48 7
  557.8 7.23 7
  557.9 6.64 6
  567.6 4.65 4
  567.7 6.2 6
  567.8 7.89 7
  567.9 8.72 8
  568.0 8.31 8
  568.1 7.03 7
  568.2 5.39 5
  568.6 4.07 4
  568.7 5.24 5
  568.8 6.54 6
  568.9 7.54 7
  569.0 7.79 7
  569.1 7.51 7
  569.2 7.48 7
  569.3 8.13 8
  569.4 8.97 8
  569.5 9.18 9
  569.6 8.31 8
  569.7 6.58 6
  569.8 4.67 4
  570.1 3.77 3
  570.2 5.32 5
  570.3 7.17 7
  570.4 8.49 8
  570.5 8.76 8
  570.6 8.24 8
  570.7 7.64 7
  570.8 7.26 7
  570.9 6.9 6
  571.0 6.23 6
  571.1 5.07 5
  571.4 3.31 3
  571.5 4.82 4
  571.6 6.71 6
  571.7 7.99 7
  571.8 8.06 8
  577.2 4.48 4
  577.3 5.9 5
  577.4 7.01 7
  577.5 7.04 7
  577.6 6.24 6
  577.7 5.47 5
  577.8 5.18 5
  577.9 5.29 5
  578.0 5.43 5
  578.1 5.39 5
  578.2 5.15 5
  578.3 4.84 4
  578.4 4.79 4
  578.5 5.25 5
  578.6 6.11 6
  578.7 6.87 6
  578.8 7.16 7
  578.9 7.08 7
  579.0 6.89 6
  579.1 6.43 6
  579.5 4.64 4
  579.6 6.25 6
  579.7 7.34 7
  579.8 7.18 7
  580.2 5.42 5
  580.3 6.65 6
  580.4 7.56 7
  580.5 8.06 8
  580.6 8.54 8
  580.7 9.07 9
  580.8 9.22 9
  580.9 8.87 8
  581.0 8.25 8
  581.1 7.57 7
  583.2 4.4 4
  583.3 5.27 5
  583.4 6.39 6
  583.5 7.34 7
  583.6 7.83 7
  583.7 7.9 7
  583.8 7.63 7
  583.9 7.08 7
  584.0 6.6 6
  584.1 6.53 6
  584.2 6.82 6
  584.3 7.14 7
  584.4 7.39 7
  584.5 7.78 7
  584.6 8.33 8
  584.7 8.69 8
  584.8 8.59 8
  584.9 8.08 8
  585.0 7.26 7
  585.4 5.18 5
  585.5 6.87 6
  585.6 8.75 8
  585.7 9.82 9
  585.8 9.66 9
  585.9 8.72 8
  586.0 7.7 7
  589.5 4.8 4
  589.6 6.1 6
  589.7 7.4 7
  589.8 7.71 7
  589.9 6.94 6
  590.0 5.93 5
  590.1 5.49 5
  590.2 5.7 5
  590.3 6.1 6
  590.4 6.39 6
  590.5 6.61 6
  590.6 7.04 7
  590.7 7.75 7
  590.8 8.43 8
  590.9 8.5 8
  591.0 7.68 7
  591.1 6.37 6
  606.4 5.43 5
  606.5 6.91 6
  606.6 8.13 8
  606.7 8.66 8
  606.8 8.66 8
  606.9 8.44 8
  607.0 7.89 7
  607.1 6.71 6
  607.2 5.06 5
  607.5 2.74 2
  607.6 4.05 4
  607.7 6.14 6
  607.8 7.75 7
  607.9 7.74 7
  608.0 6.33 6
  608.4 5.31 5
  608.5 6.17 6
  608.6 7.06 7
  608.7 7.73 7
  608.8 7.84 7
  608.9 7.38 7
  609.0 6.79 6
  609.1 6.4 6
  609.2 6.26 6
  609.3 6.11 6
  609.4 5.72 5
  609.5 5.06 5
  609.6 4.42 4
  609.7 4.18 4
  609.8 4.35 4
  609.9 4.64 4
  610.0 4.83 4
  610.1 5.12 5
  610.2 5.78 5
  610.3 6.78 6
  610.4 7.85 7
  610.5 8.61 8
  610.6 8.69 8
  610.7 7.98 7
  610.8 6.96 6
  610.9 6.17 6
  611.0 5.56 5
  613.8 2.25 2
  613.9 3.32 3
  614.0 5.44 5
  614.1 7.69 7
  614.2 8.77 8
  614.3 8.03 8
  614.4 5.95 5
  614.5 3.76 3
  614.8 3.06 3
  614.9 4.5 4
  615.0 5.87 5
  615.1 6.6 6
  615.2 6.54 6
  615.3 6.11 6
  615.4 5.68 5
  615.5 5.2 5
  615.6 4.58 4
  615.7 4.26 4
  615.8 4.72 4
  615.9 5.74 5
  616.0 6.47 6
  616.1 6.37 6
  616.2 5.67 5
  618.0 4.53 4
  618.1 5.86 5
  618.2 7.26 7
  618.3 7.7 7
  618.4 6.75 6
  621.4 4.21 4
  621.5 5.24 5
  621.6 6.32 6
  621.7 6.9 6
  621.8 6.81 6
  621.9 6.15 6
  624.0 3.09 3
  624.1 4.22 4
  624.2 5.18 5
  624.3 5.95 5
  624.4 6.46 6
  624.5 6.25 6
  624.9 4.06 4
  625.0 5.51 5
  625.1 6.91 6
  625.2 7.82 7
  625.3 8.14 8
  625.4 7.95 7
  625.5 7.29 7
  625.6 6.18 6
  629.5 5.33 5
  629.6 6.35 6
  629.7 7.4 7
  629.8 7.81 7
  629.9 7.22 7
  630.0 5.77 5
  630.1 4.0 3
  630.4 2.89 2
  630.5 3.98 3
  630.6 5.23 5
  630.7 6.25 6
  630.8 6.63 6
  630.9 6.43 6
  631.0 6.05 6
  631.1 5.8 5
  631.2 5.58 5
  631.3 5.39 5
  631.4 5.43 5
  631.5 5.68 5
  631.6 5.85 5
  631.7 5.86 5
  631.8 6.12 6
  631.9 6.63 6
  632.0 6.83 6
  632.1 6.25 6
  632.2 5.14 5
  634.2 3.28 3
  634.3 4.43 4
  634.4 5.89 5
  634.5 7.1 7
  634.6 7.42 7
  634.7 6.82 6
  634.8 5.95 5
  634.9 5.61 5
  635.0 5.69 5
  635.1 5.54 5
  635.2 4.92 4
  635.3 4.34 4
  635.4 4.33 4
  635.5 4.96 4
  635.6 5.87 5
  635.7 6.47 6
  635.8 6.33 6
  635.9 5.62 5
  636.0 4.89 4
  636.1 4.43 4
  636.2 3.98 3
  636.3 3.39 3
  636.4 2.89 2
  636.5 2.99 2
  636.6 3.98 3
  636.7 5.5 5
  636.8 6.67 6
  636.9 6.93 6
  637.0 6.61 6
  637.1 6.42 6
  637.2 6.38 6
  637.3 6.04 6
  637.4 5.27 5
  637.5 4.57 4
  637.6 4.47 4
  637.7 5.02 5
  637.8 5.84 5
  637.9 6.48 6
  638.0 6.69 6
  638.1 6.37 6
  654.2 3.42 3
  654.3 4.63 4
  654.4 5.66 5
  654.5 6.27 6
  654.6 6.54 6
  654.7 6.65 6
  654.8 6.56 6
  654.9 6.15 6
  655.0 5.38 5
  656.6 6.02 6
  656.7 7.19 7
  656.8 8.17 8
  656.9 8.45 8
  657.0 7.91 7
  657.1 7.06 7
  657.2 6.4 6
  657.3 5.74 5
  659.0 4.82 4
  659.1 5.83 5
  659.2 6.57 6
  659.3 6.94 6
  659.4 7.13 7
  659.5 7.08 7
  659.6 6.54 6
  659.7 5.75 5
  659.8 5.46 5
  659.9 5.97 5
  660.0 6.58 6
  660.1 6.6 6
  660.2 6.09 6
  660.3 5.56 5
  660.4 5.28 5
  660.5 5.19 5
  660.6 5.41 5
  660.7 5.87 5
  660.8 6.29 6
  660.9 6.31 6
  661.0 5.98 5
  661.1 5.59 5
  661.2 5.51 5
  661.3 5.83 5
  661.4 6.29 6
  661.5 6.62 6
  661.6 6.63 6
  661.7 6.27 6
  662.2 4.62 4
  662.3 5.58 5
  662.4 6.8 6
  662.5 7.79 7
  662.6 8.09 8
  662.7 7.63 7
  664.6 4.53 4
  664.7 5.96 5
  664.8 7.11 7
  664.9 7.68 7
  665.0 7.79 7
  665.1 7.47 7
  665.2 6.79 6
  665.3 6.24 6
  665.4 6.31 6
  665.5 6.76 6
  665.6 7.09 7
  665.7 7.15 7
  665.8 7.08 7
  665.9 6.92 6
  666.0 6.82 6
  666.1 7.04 7
  666.2 7.6 7
  666.3 8.05 8
  666.4 8.01 8
  666.5 7.59 7
  666.6 7.25 7
  666.7 7.2 7
  666.8 7.22 7
  666.9 6.88 6
  667.0 6.16 6
  667.1 5.63 5
  667.2 5.6 5
  667.3 5.76 5
  667.4 5.7 5
  667.5 5.49 5
  667.6 5.48 5
  667.7 5.63 5
  667.8 5.52 5
  667.9 5.0 4
  668.0 4.42 4
  668.1 4.25 4
  668.2 4.62 4
  668.3 5.32 5
  668.4 6.07 6
  668.5 6.5 6
  668.6 6.43 6
  668.7 5.98 5
  668.8 5.42 5
  668.9 4.93 4
  669.0 4.61 4
  669.1 4.55 4
  669.2 4.76 4
  669.3 5.09 5
  669.4 5.28 5
  669.5 5.16 5
  669.6 4.76 4
  669.7 4.42 4
  669.8 4.37 4
  669.9 4.5 4
  670.0 4.52 4
  670.1 4.33 4
  670.2 4.12 4
  670.3 4.14 4
  670.4 4.54 4
  670.5 5.21 5
  670.6 5.76 5
  670.7 5.92 5
  670.8 5.9 5
  670.9 6.13 6
  671.0 6.63 6
  671.1 6.97 6
  671.2 6.89 6
  671.3 6.55 6
  671.4 6.09 6
  671.5 5.5 5
  671.6 4.8 4
  671.7 4.32 4
  671.8 4.23 4
  671.9 4.36 4
  672.0 4.42 4
  672.1 4.31 4
  672.2 4.43 4
  672.3 5.17 5
  672.4 6.22 6
  672.5 6.69 6
  672.6 6.28 6
  672.7 5.68 5
  672.8 5.54 5
  672.9 5.63 5
  673.0 5.23 5
  675.3 2.55 2
  675.4 3.87 3
  675.5 5.32 5
  675.6 6.7 6
  675.7 7.82 7
  675.8 8.2 8
  675.9 7.66 7
  676.0 6.7 6
  676.1 6.06 6
  676.2 6.07 6
  676.3 6.47 6
  676.4 6.78 6
  676.5 6.57 6
  676.6 5.91 5
  676.7 5.26 5
  676.8 4.92 4
  676.9 4.77 4
  677.0 4.54 4
  677.1 4.22 4
  677.2 4.08 4
  677.3 4.31 4
  677.4 5.04 5
  677.5 6.15 6
  677.6 7.08 7
  677.7 7.19 7
  677.8 6.5 6
  677.9 5.67 5
  678.0 5.33 5
  678.1 5.53 5
  678.2 5.98 5
  678.3 6.32 6
  678.4 6.27 6
  678.5 5.8 5
  678.6 5.26 5
  678.7 5.1 5
  678.8 5.39 5
  678.9 5.8 5
  679.0 5.91 5
  679.1 5.35 5
  679.5 4.41 4
  679.6 5.59 5
  679.7 6.67 6
  679.8 7.69 7
  679.9 8.48 8
  680.0 8.53 8
  680.1 7.7 7
  681.1 4.6 4
  681.2 5.7 5
  681.3 6.91 6
  681.4 7.46 7
  681.5 7.04 7
  681.6 6.08 6
  681.7 5.35 5
  681.8 5.33 5
  681.9 6.07 6
  682.0 7.25 7
  682.1 8.14 8
  682.2 8.19 8
  682.3 7.41 7
  686.5 5.33 5
  686.6 6.44 6
  686.7 7.67 7
  686.8 8.46 8
  686.9 8.39 8
  687.0 7.45 7
  687.1 6.03 6
  690.9 5.06 5
  691.0 6.04 6
  691.1 7.05 7
  691.2 7.72 7
  691.3 7.59 7
  691.4 6.63 6
  695.4 6.15 6
  695.5 7.14 7
  695.6 8.29 8
  695.7 9.11 9
  695.8 9.04 9
  695.9 7.97 7
  697.0 4.55 4
  697.1 5.84 5
  697.2 6.76 6
  697.3 7.37 7
  697.4 7.7 7
  697.5 7.43 7
  697.6 6.43 6
  698.1 5.2 5
  698.2 5.99 5
  698.3 6.82 6
  698.4 7.53 7
  698.5 8.19 8
  698.6 8.94 8
  698.7 9.44 9
  698.8 9.14 9
  698.9 8.01 8
  699.0 6.75 6
  704.7 5.58 5
  704.8 6.66 6
  704.9 7.83 7
  705.0 8.59 8
  705.1 8.6 8
  705.2 7.87 7
  706.8 4.55 4
  706.9 6.07 6
  707.0 7.28 7
  707.1 7.98 7
  707.2 8.29 8
  707.3 8.22 8
  707.4 7.71 7
  707.5 6.93 6
  707.6 6.28 6
  707.7 5.98 5
  707.8 6.01 6
  707.9 6.22 6
  708.0 6.42 6
  708.1 6.37 6
  708.2 5.77 5
  712.2 4.49 4
  712.3 5.44 5
  712.4 6.59 6
  712.5 7.58 7
  712.6 8.0 7
  712.7 7.71 7
  712.8 6.97 6
  719.5 6.21 6
  719.6 7.08 7
  719.7 7.91 7
  719.8 8.58 8
  719.9 8.83 8
  720.0 8.32 8
  720.1 7.15 7
  722.9 4.68 4
  723.0 6.33 6
  723.1 7.79 7
  723.2 8.32 8
  723.3 7.88 7
  723.4 6.93 6
  723.5 6.16 6
  723.6 6.01 6
  723.7 6.38 6
  723.8 6.78 6
  723.9 6.65 6
  724.0 5.99 5
  724.1 5.3 5
  724.2 4.95 4
  724.3 4.91 4
  724.4 5.12 5
  724.5 5.76 5
  724.6 6.81 6
  724.7 7.67 7
  724.8 7.51 7
  724.9 6.29 6
  730.1 4.27 4
  730.2 5.52 5
  730.3 6.97 6
  730.4 7.87 7
  730.5 7.72 7
  730.6 6.8 6
  730.7 5.66 5
  730.8 4.57 4
  731.1 3.16 3
  731.2 4.67 4
  731.3 6.4 6
  731.4 7.4 7
  731.5 7.46 7
  731.6 6.98 6
  731.7 6.27 6
  734.7 3.12 3
  734.8 4.53 4
  734.9 5.77 5
  735.0 6.44 6
  735.1 6.46 6
  735.2 5.91 5
  735.3 4.92 4
  735.7 4.3 4
  735.8 5.79 5
  735.9 7.13 7
  736.0 7.79 7
  736.1 7.47 7
  736.2 6.44 6
  738.2 2.04 2
  738.3 3.77 3
  738.4 5.43 5
  738.5 6.74 6
  738.6 7.61 7
  738.7 7.91 7
  738.8 7.62 7
  738.9 6.82 6
  739.0 5.61 5
  739.1 4.16 4
  740.8 5.33 5
  740.9 6.49 6
  741.0 7.34 7
  741.1 7.76 7
  741.2 7.48 7
  741.3 6.36 6
  741.7 4.1 4
  741.8 5.11 5
  741.9 6.08 6
  742.0 6.61 6
  742.1 6.53 6
  742.2 6.1 6
  742.3 5.68 5
  742.4 5.39 5
  742.5 5.23 5
  742.6 5.35 5
  742.7 5.91 5
  742.8 6.59 6
  742.9 6.86 6
  743.0 6.46 6
  743.1 5.55 5
  743.2 4.36 4
  743.6 3.34 3
  743.7 4.38 4
  743.8 5.73 5
  743.9 7.05 7
  744.0 7.75 7
  744.1 7.43 7
  744.2 6.16 6
  750.4 4.97 4
  750.5 6.07 6
  750.6 7.0 6
  750.7 7.15 7
  750.8 6.52 6
  750.9 5.6 5
  751.0 5.06 5
  751.1 5.22 5
  751.2 5.94 5
  751.3 6.63 6
  751.4 6.6 6
  751.5 5.8 5
  751.6 4.87 4
  751.7 4.61 4
  751.8 5.08 5
  751.9 5.65 5
  752.0 5.72 5
  752.1 5.26 5
  752.2 4.59 4
  752.3 4.18 4
  752.4 4.35 4
  752.5 4.92 4
  752.6 5.4 5
  752.7 5.4 5
  752.8 5.02 5
  752.9 4.55 4
  753.0 3.98 3
  753.1 3.25 3
  753.2 2.63 2
  753.3 2.47 2
  753.4 2.89 2
  753.5 3.75 3
  753.6 4.74 4
  753.7 5.46 5
  753.8 5.58 5
  753.9 5.12 5
  754.0 4.39 4
  754.1 3.71 3
  754.2 3.29 3
  754.3 3.27 3
  754.4 3.8 3
  754.5 4.81 4
  754.6 5.94 5
  754.7 6.67 6
  754.8 6.7 6
  754.9 6.19 6
  755.0 5.59 5
  755.1 5.25 5
  755.2 5.23 5
  755.3 5.28 5
  755.4 5.21 5
  755.5 5.06 5
  755.6 5.03 5
  755.7 5.4 5
  755.8 6.18 6
  755.9 6.89 6
  756.0 6.85 6
  756.1 6.07 6
  756.2 5.27 5
  756.3 4.93 4
  756.4 4.74 4
  756.5 4.24 4
  756.6 3.63 3
  756.7 3.55 3
  756.8 4.39 4
  756.9 5.8 5
  757.0 6.79 6
  757.1 6.71 6
  757.2 5.92 5
  757.3 5.38 5
  757.4 5.48 5
  757.5 5.7 5
  757.6 5.41 5
  757.7 4.62 4
  757.8 3.94 3
  757.9 3.98 3
  758.0 4.77 4
  758.1 5.72 5
  758.2 6.11 6
  758.3 5.7 5
  758.4 4.71 4
  758.5 3.53 3
  759.1 1.75 1
  759.2 2.75 2
  759.3 4.51 4
  759.4 6.37 6
  759.5 7.63 7
  759.6 8.11 8
  759.7 7.95 7
  759.8 7.25 7
  759.9 6.11 6
  763.7 3.78 3
  763.8 5.0 4
  763.9 6.13 6
  764.0 6.72 6
  764.1 6.64 6
  764.2 6.2 6
  764.3 5.78 5
  764.4 5.46 5
  764.5 4.92 4
  764.6 3.84 3
  769.6 3.62 3
  769.7 4.73 4
  769.8 6.08 6
  769.9 6.95 6
  770.0 7.07 7
  770.1 6.66 6
  770.2 6.09 6
  770.3 5.63 5
  770.4 5.26 5
  770.5 4.85 4
  770.6 4.35 4
  770.7 3.96 3
  770.8 3.92 3
  770.9 4.3 4
  771.0 4.93 4
  771.1 5.58 5
  771.2 5.96 5
  771.3 5.85 5
  771.4 5.3 5
  771.5 4.57 4
  771.6 4.03 4
  771.7 3.99 3
  771.8 4.48 4
  771.9 4.98 4
  772.0 4.94 4
  772.1 4.5 4
  772.2 4.42 4
  772.3 5.24 5
  772.4 6.67 6
  772.5 7.8 7
  772.6 7.92 7
  772.7 6.85 6
  772.8 5.28 5
  776.6 1.62 1
  776.7 3.24 3
  776.8 5.28 5
  776.9 6.68 6
  777.0 7.11 7
  777.1 6.82 6
  777.2 6.25 6
  777.3 5.87 5
  777.4 5.87 5
  777.5 5.96 5
  777.6 5.84 5
  777.7 5.52 5
  777.8 5.14 5
  777.9 4.87 4
  778.0 4.82 4
  778.1 5.08 5
  778.2 5.38 5
  778.3 5.28 5
  778.4 4.87 4
  778.5 4.67 4
  778.6 4.99 4
  778.7 5.43 5
  778.8 5.43 5
  778.9 4.88 4
  779.0 4.23 4
  779.1 3.98 3
  779.2 4.28 4
  779.3 4.77 4
  779.4 4.94 4
  779.5 4.59 4
  779.6 4.03 4
  779.7 3.78 3
  779.8 4.14 4
  779.9 5.09 5
  780.0 6.31 6
  780.1 7.38 7
  780.2 7.85 7
  780.3 7.52 7
  780.4 6.5 6
  796.4 6.08 6
  796.5 7.7 7
  796.6 9.01 9
  796.7 9.28 9
  796.8 8.54 8
  796.9 7.59 7
  797.0 7.11 7
  797.1 6.9 6
  797.2 6.47 6
  797.3 5.92 5
  797.4 5.86 5
  797.5 6.55 6
  797.6 7.66 7
  797.7 8.51 8
  797.8 8.62 8
  797.9 7.97 7
  798.0 6.94 6
  798.1 5.85 5
  798.5 4.58 4
  798.6 5.86 5
  798.7 7.18 7
  798.8 8.1 8
  798.9 8.32 8
  799.0 7.88 7
  800.1 4.43 4
  800.2 5.25 5
  800.3 6.38 6
  800.4 7.57 7
  800.5 8.45 8
  800.6 8.69 8
  800.7 8.3 8
  800.8 7.49 7
  800.9 6.75 6
  801.0 6.41 6
  801.1 6.43 6
  801.2 6.54 6
  801.3 6.72 6
  801.4 7.12 7
  801.5 7.63 7
  801.6 7.84 7
  801.7 7.63 7
  801.8 7.25 7
  801.9 6.78 6
  802.4 6.04 6
  802.5 7.25 7
  802.6 8.38 8
  802.7 9.02 9
  802.8 8.76 8
  802.9 7.59 7
  803.0 5.9 5
  803.3 4.23 4
  803.4 5.75 5
  803.5 7.9 7
  803.6 9.82 9
  803.7 10.47 10
  803.8 9.35 9
  803.9 7.1 7
  804.0 4.95 4
  804.6 4.48 4
  804.7 5.57 5
  804.8 7.34 7
  804.9 8.82 8
  805.0 9.07 9
  805.1 7.97 7
  805.2 6.24 6
  814.1 3.58 3
  814.2 5.08 5
  814.3 6.16 6
  814.4 6.69 6
  814.5 7.0 6
  814.6 7.32 7
  814.7 7.36 7
  814.8 6.72 6
  815.2 5.53 5
  815.3 6.8 6
  815.4 7.92 7
  815.5 8.36 8
  815.6 7.93 7
  815.7 6.98 6
  816.3 5.53 5
  816.4 6.8 6
  816.5 7.84 7
  816.6 8.34 8
  816.7 8.37 8
  816.8 8.15 8
  816.9 7.78 7
  817.0 7.41 7
  817.1 7.1 7
  817.2 6.72 6
  819.8 4.39 4
  819.9 5.55 5
  820.0 6.48 6
  820.1 6.84 6
  820.2 6.75 6
  820.3 6.57 6
  820.4 6.56 6
  820.5 6.79 6
  820.6 7.23 7
  820.7 7.77 7
  820.8 8.22 8
  820.9 8.45 8
  821.0 8.3 8
  821.1 7.71 7
  822.2 4.92 4
  822.3 5.99 5
  822.4 7.16 7
  822.5 7.89 7
  822.6 7.8 7
  822.7 7.19 7
  822.8 6.69 6
  822.9 6.4 6
  823.0 5.92 5
  823.1 5.12 5
  823.2 4.45 4
  823.3 4.42 4
  823.4 5.19 5
  823.5 6.39 6
  823.6 7.4 7
  823.7 7.6 7
  823.8 7.05 7
  823.9 6.38 6
  824.0 6.05 6
  824.1 5.91 5
  824.2 5.62 5
  824.3 5.23 5
  824.4 5.02 5
  824.5 5.04 5
  824.6 5.28 5
  824.7 5.94 5
  824.8 7.05 7
  824.9 8.16 8
  825.0 8.71 8
  825.1 8.51 8
  825.2 7.78 7
  825.3 6.69 6
  834.1 3.72 3
  834.2 5.32 5
  834.3 7.51 7
  834.4 9.24 9
  834.5 9.56 9
  834.6 8.51 8
  834.7 6.85 6
  836.2 4.71 4
  836.3 5.76 5
  836.4 6.7 6
  836.5 7.39 7
  836.6 7.53 7
  836.7 7.23 7
  836.8 6.83 6
  836.9 6.33 6
  837.0 5.59 5
  837.1 4.96 4
  837.2 4.93 4
  837.3 5.41 5
  837.4 5.93 5
  837.5 6.24 6
  837.6 6.32 6
  837.7 5.92 5
  842.5 3.65 3
  842.6 5.02 5
  842.7 6.19 6
  842.8 6.49 6
  842.9 5.93 5
  843.0 5.19 5
  843.1 4.75 4
  843.2 4.55 4
  843.3 4.26 4
  843.4 3.85 3
  843.5 3.66 3
  843.6 4.04 4
  843.7 4.94 4
  843.8 5.84 5
  843.9 6.06 6
  844.0 5.45 5
  844.1 4.74 4
  844.2 4.73 4
  844.3 5.33 5
  844.4 5.78 5
  844.5 5.8 5
  844.6 5.81 5
  844.7 6.02 6
  844.8 6.36 6
  844.9 6.77 6
  845.0 7.04 7
  845.1 6.81 6
  845.2 6.11 6
  845.3 5.53 5
  845.4 5.34 5
  845.5 5.32 5
  845.6 5.28 5
  845.7 5.52 5
  845.8 6.1 6
  845.9 6.66 6
  846.0 6.91 6
  846.1 6.84 6
  846.2 6.46 6
  846.7 5.75 5
  846.8 7.06 7
  846.9 8.14 8
  847.0 8.69 8
  847.1 8.66 8
  847.2 8.0 7
  847.3 6.57 6
  847.4 4.66 4
  847.7 2.56 2
  847.8 4.14 4
  847.9 6.23 6
  848.0 7.72 7
  848.1 7.89 7
  848.2 7.16 7
  848.3 6.45 6
  848.4 6.02 6
  848.5 5.58 5
  848.6 5.1 5
  848.7 4.9 4
  848.8 5.03 5
  848.9 5.31 5
  849.0 5.68 5
  849.1 6.16 6
  849.2 6.75 6
  849.3 7.26 7
  849.4 7.38 7
  849.5 6.8 6
  854.2 4.46 4
  854.3 5.56 5
  854.4 6.59 6
  854.5 7.04 7
  854.6 6.75 6
  854.7 6.04 6
  854.8 5.4 5
  854.9 5.2 5
  855.0 5.39 5
  855.1 5.56 5
  855.2 5.34 5
  855.3 4.67 4
  855.4 3.94 3
  855.5 3.58 3
  855.6 3.9 3
  855.7 4.76 4
  855.8 5.55 5
  855.9 5.75 5
  856.0 5.4 5
  856.1 5.0 4
  856.2 4.97 4
  856.3 5.23 5
  856.4 5.44 5
  856.5 5.47 5
  856.6 5.5 5
  856.7 5.72 5
  856.8 5.94 5
  856.9 5.68 5
  857.0 4.89 4
  857.1 4.09 4
  857.2 3.98 3
  857.3 4.67 4
  857.4 5.61 5
  857.5 6.0 5
  857.6 5.61 5
  857.7 4.76 4
  857.8 4.05 4
  857.9 3.9 3
  858.0 4.29 4
  858.1 4.9 4
  858.2 5.47 5
  858.3 5.86 5
  858.4 5.94 5
  858.5 5.72 5
  858.6 5.34 5
  858.7 4.99 4
  858.8 4.71 4
  858.9 4.49 4
  859.0 4.4 4
  859.1 4.24 4
  859.2 3.72 3
  859.3 3.07 3
  859.4 3.11 3
  859.5 4.19 4
  859.6 5.71 5
  859.7 6.87 6
  859.8 7.51 7
  859.9 7.81 7
  860.0 7.68 7
  860.1 6.9 6
  860.2 5.62 5
  860.3 4.18 4
  860.6 2.63 2
  860.7 4.04 4
  860.8 5.74 5
  860.9 6.66 6
  861.0 6.34 6
  861.1 5.44 5
  861.2 4.87 4
  861.3 4.81 4
  861.4 4.7 4
  861.5 4.15 4
  861.6 3.45 3
  861.7 3.13 3
  861.8 3.38 3
  861.9 4.11 4
  862.0 5.09 5
  862.1 6.02 6
  862.2 6.56 6
  862.3 6.56 6
  862.4 6.32 6
  862.5 6.24 6
  862.6 6.35 6
  862.7 6.23 6
  862.8 5.44 5
  863.4 4.68 4
  863.5 5.72 5
  863.6 6.93 6
  863.7 7.47 7
  863.8 6.96 6
  863.9 5.73 5
  864.5 4.57 4
  864.6 5.46 5
  864.7 6.43 6
  864.8 7.4 7
  864.9 8.0 7
  865.0 7.85 7
  865.1 6.94 6
  866.5 4.22 4
  866.6 5.61 5
  866.7 6.9 6
  866.8 7.23 7
  866.9 6.86 6
  867.0 6.63 6
  867.1 6.9 6
  867.2 7.21 7
  867.3 6.8 6
  872.2 2.98 2
  872.3 4.28 4
  872.4 5.74 5
  872.5 6.61 6
  872.6 6.39 6
  872.7 5.18 5
  874.5 2.68 2
  874.6 4.04 4
  874.7 5.78 5
  874.8 6.88 6
  874.9 6.86 6
  875.0 6.16 6
  875.1 5.5 5
  875.2 5.15 5
  875.3 5.01 5
  875.4 4.84 4
  875.5 4.41 4
  875.6 3.8 3
  875.7 3.51 3
  875.8 4.04 4
  875.9 5.21 5
  876.0 6.23 6
  876.1 6.52 6
  876.2 6.15 6
  876.3 5.76 5
  876.4 5.67 5
  876.5 5.65 5
  876.6 5.49 5
  876.7 5.32 5
  876.8 5.33 5
  876.9 5.43 5
  877.0 5.37 5
  877.1 5.02 5
  877.2 4.49 4
  877.3 3.96 3
  877.4 3.65 3
  877.5 3.8 3
  877.6 4.46 4
  877.7 5.42 5
  877.8 6.17 6
  877.9 6.29 6
  878.0 5.7 5
  878.1 4.79 4
  878.2 4.15 4
  878.3 4.11 4
  878.4 4.37 4
  878.5 4.4 4
  878.6 4.13 4
  878.7 3.88 3
  878.8 3.9 3
  878.9 4.18 4
  879.0 4.5 4
  879.1 4.5 4
  879.2 3.95 3
  879.3 3.08 3
  879.4 2.54 2
  879.5 2.72 2
  879.6 3.67 3
  879.7 5.17 5
  879.8 6.68 6
  879.9 7.56 7
  880.0 7.41 7
  880.1 6.34 6
  880.2 4.83 4
  880.9 5.86 5
  881.0 6.76 6
  881.1 8.0 7
  881.2 8.82 8
  881.3 8.63 8
  881.4 7.46 7
  881.5 5.77 5
  881.8 4.04 4
  881.9 5.31 5
  882.0 6.64 6
  882.1 7.38 7
  882.2 7.41 7
  882.3 7.15 7
  882.4 6.97 6
  882.5 6.75 6
  882.6 6.09 6
  882.7 4.87 4
  884.0 3.86 3
  884.1 5.17 5
  884.2 6.48 6
  884.3 7.34 7
  884.4 7.49 7
  884.5 7.0 6
  884.6 6.19 6
  884.7 5.39 5
  884.8 4.64 4
  889.3 2.49 2
  889.4 3.42 3
  889.5 4.38 4
  889.6 5.14 5
  889.7 5.8 5
  889.8 6.38 6
  889.9 6.59 6
  890.0 6.21 6
  890.1 5.47 5
  890.2 4.86 4
  890.3 4.69 4
  890.4 4.96 4
  890.5 5.43 5
  890.6 5.67 5
  890.7 5.4 5
  890.8 4.82 4
  890.9 4.41 4
  891.0 4.58 4
  891.1 5.43 5
  891.2 6.67 6
  891.3 7.7 7
  891.4 8.0 7
  891.5 7.39 7
  891.6 5.99 5
  891.7 4.34 4
  893.3 4.61 4
  893.4 6.08 6
  893.5 7.27 7
  893.6 7.35 7
  893.7 6.44 6
  893.8 5.5 5
  893.9 5.19 5
  894.0 5.27 5
  894.1 5.14 5
  894.2 4.73 4
  894.3 4.5 4
  894.4 4.65 4
  894.5 4.71 4
  894.6 4.07 4
  895.0 2.75 2
  895.1 4.54 4
  895.2 5.98 5
  895.3 6.6 6
  895.4 6.38 6
  896.7 4.39 4
  896.8 5.89 5
  896.9 7.19 7
  897.0 7.91 7
  897.1 8.1 8
  897.2 7.79 7
  897.3 6.89 6
  897.4 5.54 5
  900.2 4.86 4
  900.3 5.89 5
  900.4 6.88 6
  900.5 7.13 7
  900.6 6.3 6
  901.5 3.6 3
  901.6 4.9 4
  901.7 6.44 6
  901.8 7.42 7
  901.9 7.7 7
  902.0 7.48 7
  902.1 6.99 6
  902.2 6.43 6
  902.3 6.1 6
  902.4 6.05 6
  902.5 6.09 6
  902.6 6.17 6
  902.7 6.4 6
  902.8 6.65 6
  902.9 6.56 6
  903.0 6.1 6
  903.1 5.69 5
  903.2 5.65 5
  903.3 5.75 5
  903.4 5.46 5
  904.6 4.37 4
  904.7 5.12 5
  904.8 5.86 5
  904.9 6.65 6
  905.0 7.45 7
  905.1 8.12 8
  905.2 8.38 8
  905.3 8.07 8
  905.4 7.29 7
  905.5 6.47 6
  905.6 6.11 6
  905.7 6.49 6
  905.8 7.47 7
  905.9 8.39 8
  906.0 8.67 8
  906.1 8.17 8
  906.2 7.27 7
  908.8 4.22 4
  908.9 5.72 5
  909.0 6.71 6
  909.1 6.88 6
  909.2 6.77 6
  909.3 6.85 6
  909.4 6.82 6
  909.5 6.29 6
  909.6 5.57 5
  909.7 5.35 5
  909.8 5.91 5
  909.9 6.92 6
  910.0 7.82 7
  910.1 8.16 8
  910.2 7.84 7
  910.3 7.0 6
  910.4 5.89 5
  910.8 3.81 3
  910.9 5.45 5
  911.0 6.76 6
  911.1 6.83 6
  911.2 5.91 5
  911.3 5.08 5
  911.4 4.97 4
  911.5 5.33 5
  911.6 5.52 5
  911.7 5.19 5
  911.8 4.53 4
  911.9 4.14 4
  912.0 4.46 4
  912.1 5.37 5
  912.2 6.38 6
  912.3 6.92 6
  912.4 6.83 6
  912.5 6.48 6
  912.6 6.38 6
  912.7 6.52 6
  912.8 6.22 6
  912.9 5.14 5
  914.4 2.84 2
  914.5 4.75 4
  914.6 6.65 6
  914.7 7.71 7
  914.8 7.66 7
  914.9 6.91 6
  915.0 6.16 6
  915.1 5.63 5
  915.2 5.15 5
  915.3 4.75 4
  915.4 4.89 4
  915.5 5.89 5
  915.6 7.5 7
  915.7 9.01 9
  915.8 9.7 9
  915.9 9.37 9
  916.0 8.41 8
  916.1 7.5 7
  917.7 3.91 3
  917.8 5.3 5
  917.9 6.38 6
  918.0 6.63 6
  918.1 6.44 6
  918.2 6.38 6
  918.3 6.41 6
  918.4 6.17 6
  918.5 5.91 5
  918.6 6.07 6
  918.7 6.6 6
  918.8 6.84 6
  918.9 6.42 6
  919.0 5.59 5
  921.4 4.18 4
  921.5 5.54 5
  921.6 7.1 7
  921.7 8.14 8
  921.8 8.26 8
  921.9 7.78 7
  922.0 7.33 7
  922.1 7.23 7
  922.2 7.26 7
  922.3 7.01 7
  922.4 6.37 6
  922.5 5.65 5
  922.6 5.18 5
  922.7 5.06 5
  922.8 5.31 5
  922.9 5.99 5
  923.0 7.0 6
  923.1 7.93 7
  923.2 8.27 8
  923.3 7.77 7
  923.4 6.58 6
  923.9 5.5 5
  924.0 6.52 6
  924.1 7.4 7
  924.2 8.05 8
  924.3 8.43 8
  924.4 8.29 8
  924.5 7.28 7
  928.3 5.84 5
  928.4 6.73 6
  928.5 7.69 7
  928.6 8.46 8
  928.7 8.66 8
  928.8 8.0 7
  928.9 6.74 6
  929.0 5.35 5
  929.4 3.99 3
  929.5 4.94 4
  929.6 6.2 6
  929.7 7.47 7
  929.8 8.32 8
  929.9 8.49 8
  930.0 8.15 8
  930.1 7.59 7
  930.2 6.87 6
  930.3 5.94 5
  930.7 5.15 5
  930.8 6.22 6
  930.9 7.11 7
  931.0 7.5 7
  931.1 7.63 7
  931.2 7.9 7
  931.3 8.18 8
  931.4 7.9 7
  931.5 6.73 6
  931.6 5.04 5
  937.7 5.16 5
  937.8 6.51 6
  937.9 7.52 7
  938.0 7.86 7
  938.1 7.71 7
  938.2 7.34 7
  938.3 6.73 6
  938.4 5.91 5
  938.5 5.35 5
  938.6 5.5 5
  938.7 6.2 6
  938.8 6.69 6
  938.9 6.52 6
  939.0 5.91 5
  939.1 5.39 5
  939.2 5.41 5
  939.3 6.05 6
  939.4 6.9 6
  939.5 7.14 7
  939.6 6.32 6
  939.7 4.79 4
  940.1 3.27 3
  940.2 4.86 4
  940.3 6.51 6
  940.4 7.82 7
  940.5 8.59 8
  940.6 8.57 8
  940.7 7.71 7
  940.8 6.31 6
  942.4 5.85 5
  942.5 6.97 6
  942.6 7.76 7
  942.7 7.92 7
  942.8 7.79 7
  942.9 7.71 7
  943.0 7.5 7
  943.1 6.79 6
  947.1 6.1 6
  947.2 7.19 7
  947.3 8.04 8
  947.4 8.18 8
  947.5 7.56 7
  947.6 6.51 6
  952.9 4.74 4
  953.0 6.16 6
  953.1 7.34 7
  953.2 7.64 7
  953.3 7.04 7
  953.4 5.93 5
  953.5 4.68 4
  955.3 4.14 4
  955.4 5.43 5
  955.5 6.74 6
  955.6 7.52 7
  955.7 7.78 7
  955.8 7.75 7
  955.9 7.35 7
  956.0 6.46 6
  960.1 3.76 3
  960.2 5.36 5
  960.3 6.59 6
  960.4 6.91 6
  960.5 6.53 6
  960.6 5.77 5
  960.7 5.03 5
  960.8 4.69 4
  960.9 4.91 4
  961.0 5.48 5
  961.1 5.98 5
  961.2 6.15 6
  961.3 6.16 6
  961.4 6.31 6
  961.5 6.63 6
  961.6 6.69 6
  961.7 6.19 6
  961.8 5.41 5
  961.9 4.92 4
  962.0 5.14 5
  962.1 6.08 6
  962.2 7.21 7
  962.3 7.8 7
  962.4 7.54 7
  962.5 6.85 6
  962.6 6.23 6
  962.7 5.67 5
  962.8 5.07 5
  962.9 4.66 4
  963.0 4.63 4
  963.1 4.75 4
  963.2 4.77 4
  963.3 4.77 4
  963.4 4.9 4
  963.5 4.97 4
  963.6 4.91 4
  963.7 4.93 4
  963.8 5.18 5
  963.9 5.53 5
  964.0 5.78 5
  964.1 5.73 5
  964.2 5.27 5
  964.3 4.69 4
  964.4 4.47 4
  964.5 4.75 4
  964.6 5.11 5
  964.7 5.29 5
  964.8 5.47 5
  964.9 5.79 5
  965.0 5.95 5
  965.1 5.79 5
  965.2 5.52 5
  965.3 5.42 5
  965.4 5.45 5
  965.5 5.46 5
  965.6 5.48 5
  965.7 5.72 5
  965.8 6.29 6
  965.9 7.12 7
  966.0 7.91 7
  966.1 8.29 8
  966.2 8.18 8
  966.3 7.7 7
  966.4 7.06 7
  966.5 6.31 6
  967.0 5.08 5
  967.1 6.05 6
  967.2 6.72 6
  967.3 6.96 6
  967.4 7.06 7
  967.5 7.07 7
  967.6 6.82 6
  967.7 6.3 6
  967.8 5.83 5
  967.9 5.71 5
  968.0 6.08 6
  968.1 6.84 6
  968.2 7.42 7
  968.3 7.12 7
  968.4 5.93 5
  968.9 5.59 5
  969.0 6.59 6
  969.1 7.54 7
  969.2 8.31 8
  969.3 8.63 8
  969.4 8.04 8
  969.5 6.61 6
  969.6 5.02 5
  973.7 3.32 3
  973.8 4.87 4
  973.9 6.6 6
  974.0 7.62 7
  974.1 7.63 7
  974.2 6.88 6
  974.3 5.8 5
  974.4 4.62 4
  974.5 3.39 3
  974.9 2.64 2
  975.0 4.71 4
  975.1 7.04 7
  975.2 8.42 8
  975.3 8.19 8
  975.4 6.75 6
  977.1 4.21 4
  977.2 5.28 5
  977.3 6.56 6
  977.4 7.73 7
  977.5 8.53 8
  977.6 8.8 8
  977.7 8.53 8
  977.8 7.85 7
  977.9 7.0 6
  978.0 6.15 6
  978.1 5.33 5
  979.5 4.29 4
  979.6 5.31 5
  979.7 6.14 6
  979.8 6.28 6
  979.9 5.5 5
  983.2 4.48 4
  983.3 6.02 6
  983.4 7.18 7
  983.5 7.39 7
  983.6 6.72 6
  983.7 5.57 5
  983.8 4.25 4
  984.2 2.71 2
  984.3 4.26 4
  984.4 5.72 5
  984.5 6.67 6
  984.6 7.02 7
  984.7 6.96 6
  984.8 6.65 6
  984.9 6.27 6
  985.0 5.88 5
  985.1 5.45 5
  985.2 4.9 4
  985.3 4.36 4
  985.4 4.18 4
  985.5 4.48 4
  985.6 4.87 4
  985.7 4.87 4
  985.8 4.54 4
  985.9 4.49 4
  986.0 5.09 5
  986.1 6.01 6
  986.2 6.57 6
  986.3 6.47 6
  986.4 5.96 5
  986.5 5.49 5
  986.6 5.24 5
  986.7 5.16 5
  986.8 5.11 5
  986.9 4.95 4
  987.0 4.66 4
  987.1 4.47 4
  987.2 4.66 4
  987.3 5.2 5
  987.4 5.59 5
  987.5 5.45 5
  987.6 4.95 4
  987.7 4.63 4
  987.8 4.94 4
  987.9 5.81 5
  988.0 6.59 6
  988.1 6.63 6
  988.2 5.89 5
  988.3 4.78 4
  988.4 3.75 3
  988.9 2.66 2
  989.0 3.77 3
  989.1 4.94 4
  989.2 5.53 5
  989.3 5.3 5
  989.4 4.67 4
  989.5 4.22 4
  989.6 4.04 4
  989.7 3.84 3
  989.8 3.36 3
  990.2 1.8 1
  990.3 3.03 3
  990.4 4.08 4
  990.5 4.53 4
  990.6 4.66 4
  990.7 4.73 4
  990.8 4.62 4
  990.9 4.32 4
  991.0 4.06 4
  991.1 4.22 4
  991.2 4.89 4
  991.3 5.79 5
  991.4 6.41 6
  991.5 6.44 6
  991.6 5.87 5
  991.7 4.93 4
  994.4 3.37 3
  994.5 4.34 4
  994.6 5.52 5
  994.7 6.69 6
  994.8 7.61 7
  994.9 8.02 8
  995.0 7.77 7
  995.1 6.86 6
  995.2 5.41 5
  998.8 4.08 4
  998.9 5.48 5
  999.0 7.02 7
  999.1 7.54 7
  999.2 6.74 6
  999.3 5.22 5
  1002.9 3.79 3
  1003.0 5.12 5
  1003.1 6.16 6
  1003.2 6.71 6
  1003.3 7.0 6
  1003.4 7.12 7
  1003.5 6.84 6
  1003.6 6.23 6
  1003.7 5.69 5
  1003.8 5.43 5
  1003.9 5.19 5
  1004.0 4.82 4
  1004.1 4.58 4
  1004.2 4.63 4
  1004.3 4.68 4
  1004.4 4.53 4
  1004.5 4.42 4
  1004.6 4.65 4
  1004.7 5.32 5
  1004.8 6.32 6
  1004.9 7.31 7
  1005.0 7.71 7
  1005.1 7.26 7
  1005.2 6.36 6
  1005.3 5.72 5
  1005.4 5.5 5
  1005.5 5.42 5
  1005.6 5.23 5
  1005.7 5.1 5
  1005.8 5.18 5
  1005.9 5.28 5
  1006.0 5.18 5
  1006.1 4.95 4
  1006.2 4.63 4
  1006.3 4.05 4
  1006.4 3.22 3
  1006.5 2.74 2
  1006.6 3.37 3
  1006.7 5.02 5
  1006.8 6.69 6
  1006.9 7.45 7
  1007.0 7.16 7
  1007.1 6.35 6
  1007.6 4.87 4
  1007.7 5.98 5
  1007.8 7.07 7
  1007.9 7.67 7
  1008.0 7.69 7
  1008.1 7.27 7
  1008.2 6.47 6
  1008.3 5.31 5
  1008.7 4.56 4
  1008.8 5.43 5
  1008.9 6.16 6
  1009.0 6.59 6
  1009.1 6.29 6
  1009.2 5.06 5
  1015.2 4.18 4
  1015.3 5.53 5
  1015.4 6.74 6
  1015.5 7.15 7
  1015.6 6.8 6
  1015.7 6.22 6
  1015.8 5.87 5
  1015.9 5.77 5
  1016.0 5.94 5
  1016.1 6.45 6
  1016.2 7.28 7
  1016.3 8.15 8
  1016.4 8.64 8
  1016.5 8.27 8
  1016.6 6.86 6
  1016.7 4.94 4
  1019.9 1.88 1
  1020.0 3.52 3
  1020.1 5.49 5
  1020.2 7.09 7
  1020.3 8.06 8
  1020.4 8.61 8
  1020.5 8.98 8
  1020.6 8.99 8
  1020.7 8.03 8
  1020.8 6.04 6
  1021.1 3.97 3
  1021.2 5.71 5
  1021.3 7.61 7
  1021.4 9.02 9
  1021.5 9.54 9
  1021.6 9.16 9
  1026.4 3.95 3
  1026.5 5.13 5
  1026.6 6.46 6
  1026.7 7.55 7
  1026.8 7.86 7
  1026.9 7.4 7
  1027.0 6.78 6
  1027.1 6.57 6
  1027.2 6.68 6
  1027.3 6.53 6
  1027.4 5.82 5
  1027.5 4.99 4
  1027.6 4.77 4
  1027.7 5.35 5
  1027.8 6.09 6
  1027.9 6.43 6
  1028.0 6.46 6
  1028.1 6.54 6
  1028.2 6.63 6
  1028.3 6.44 6
  1028.4 6.12 6
  1028.5 6.28 6
  1028.6 7.16 7
  1028.7 8.24 8
  1028.8 8.7 8
  1028.9 8.23 8
  1029.0 7.16 7
  1033.4 5.86 5
  1033.5 7.19 7
  1033.6 8.29 8
  1033.7 8.35 8
  1033.8 7.21 7
  1033.9 5.49 5
  1035.6 6.65 6
  1035.7 7.82 7
  1035.8 9.21 9
  1035.9 10.34 10
  1036.0 10.75 10
  1036.1 10.19 10
  1036.2 8.8 8
  1036.3 7.04 7
  1036.4 5.4 5
  1042.0 6.4 6
  1042.1 7.55 7
  1042.2 8.44 8
  1042.3 8.83 8
  1042.4 9.12 9
  1042.5 9.39 9
  1042.6 9.07 9
  1042.7 7.85 7
  1047.7 6.62 6
  1047.8 7.5 7
  1047.9 8.5 8
  1048.0 9.06 9
  1048.1 8.75 8
  1048.2 7.65 7
  1059.8 4.95 4
  1059.9 6.49 6
  1060.0 7.96 7
  1060.1 8.51 8
  1060.2 7.97 7
  1060.3 6.93 6
  1070.4 4.6 4
  1070.5 5.58 5
  1070.6 6.72 6
  1070.7 7.52 7
  1070.8 7.64 7
  1070.9 7.08 7
  1074.1 3.07 3
  1074.2 4.24 4
  1074.3 5.65 5
  1074.4 6.27 6
  1074.5 5.52 5
  1075.7 3.78 3
  1075.8 4.7 4
  1075.9 5.96 5
  1076.0 6.76 6
  1076.1 6.45 6
  1080.1 5.11 5
  1080.2 6.39 6
  1080.3 7.48 7
  1080.4 7.98 7
  1080.5 7.58 7
  1080.6 6.38 6
  1080.7 5.0 4
  1081.1 3.84 3
  1081.2 5.05 5
  1081.3 6.61 6
  1081.4 7.84 7
  1081.5 8.31 8
  1081.6 8.08 8
  1082.7 4.64 4
  1082.8 5.67 5
  1082.9 6.41 6
  1083.0 7.02 7
  1083.1 7.84 7
  1083.2 8.61 8
  1083.3 8.66 8
  1083.4 7.7 7
  1083.5 6.05 6
  1083.6 4.41 4
  1084.1 4.07 4
  1084.2 5.19 5
  1084.3 6.4 6
  1084.4 7.03 7
  1084.5 6.76 6
  1084.6 6.06 6
  1084.7 5.73 5
  1084.8 6.24 6
  1084.9 7.33 7
  1085.0 8.36 8
  1085.1 8.65 8
  1085.2 7.94 7
  1085.3 6.57 6
  1085.4 5.13 5
  1085.8 4.52 4
  1085.9 5.65 5
  1086.0 6.91 6
  1086.1 7.81 7
  1086.2 7.94 7
  1086.3 7.49 7
  1086.4 7.15 7
  1086.5 7.22 7
  1086.6 7.23 7
  1086.7 6.47 6
  1086.8 4.95 4
  1087.1 3.62 3
  1087.2 4.93 4
  1087.3 6.12 6
  1087.4 6.65 6
  1087.5 6.45 6
  1087.6 5.77 5
  1087.7 5.15 5
  1087.8 5.1 5
  1087.9 5.57 5
  1088.0 6.03 6
  1088.1 6.3 6
  1088.2 6.71 6
  1088.3 7.51 7
  1088.4 8.24 8
  1088.5 8.25 8
  1088.6 7.43 7
  1088.7 6.23 6
  1089.8 3.09 3
  1089.9 4.18 4
  1090.0 5.38 5
  1090.1 6.47 6
  1090.2 7.26 7
  1090.3 7.47 7
  1090.4 6.93 6
  1090.5 6.02 6
  1090.6 5.44 5
  1090.7 5.69 5
  1090.8 6.46 6
  1090.9 6.9 6
  1091.0 6.47 6
  1091.1 5.56 5
  1091.2 4.99 4
  1091.3 4.98 4
  1091.4 5.09 5
  1091.5 4.91 4
  1091.6 4.52 4
  1091.7 4.2 4
  1091.8 3.96 3
  1091.9 3.7 3
  1092.0 3.51 3
  1092.1 3.84 3
  1092.2 5.11 5
  1092.3 7.0 6
  1092.4 8.5 8
  1092.5 8.68 8
  1092.6 7.56 7
  1092.7 5.99 5
  1094.6 2.98 2
  1094.7 4.15 4
  1094.8 5.24 5
  1094.9 5.72 5
  1095.0 5.32 5
  1100.1 3.27 3
  1100.2 5.01 5
  1100.3 6.67 6
  1100.4 7.23 7
  1100.5 6.55 6
  1100.6 5.44 5
  1100.7 4.62 4
  1106.1 4.01 4
  1106.2 5.18 5
  1106.3 6.63 6
  1106.4 7.78 7
  1106.5 8.5 8
  1106.6 8.65 8
  1106.7 7.8 7
  1106.8 5.99 5
  1108.6 2.47 2
  1108.7 4.26 4
  1108.8 6.08 6
  1108.9 7.16 7
  1109.0 7.35 7
  1109.1 7.07 7
  1109.2 6.72 6
  1109.3 6.16 6
  1110.5 2.38 2
  1110.6 3.5 3
  1110.7 4.52 4
  1110.8 5.11 5
  1110.9 5.34 5
  1111.0 5.56 5
  1111.1 5.96 5
  1111.2 6.24 6
  1111.3 6.09 6
  1111.4 5.71 5
  1111.5 5.5 5
  1111.6 5.38 5
  1111.7 5.16 5
  1111.8 4.86 4
  1111.9 4.78 4
  1112.0 4.97 4
  1112.1 5.35 5
  1112.2 5.8 5
  1112.3 6.05 6
  1112.4 5.67 5
  1112.5 4.53 4
  1112.9 3.51 3
  1113.0 4.42 4
  1113.1 5.3 5
  1113.2 6.12 6
  1113.3 6.57 6
  1113.4 6.45 6
  1113.5 6.02 6
  1113.6 5.65 5
  1113.7 5.22 5
  1117.6 3.11 3
  1117.7 4.15 4
  1117.8 5.14 5
  1117.9 6.07 6
  1118.0 7.21 7
  1118.1 8.36 8
  1118.2 8.67 8
  1118.3 7.48 7
  1118.4 5.33 5
  1120.2 4.3 4
  1120.3 5.32 5
  1120.4 6.14 6
  1120.5 6.56 6
  1120.6 6.45 6
  1120.7 5.65 5
  1121.1 3.84 3
  1121.2 5.68 5
  1121.3 7.16 7
  1121.4 7.68 7
  1121.5 7.47 7
  1121.6 7.06 7
  1121.7 6.65 6
  1121.8 6.24 6
  1121.9 5.9 5
  1122.0 5.65 5
  1122.1 5.51 5
  1122.2 5.46 5
  1122.3 5.53 5
  1122.4 5.62 5
  1122.5 5.63 5
  1122.6 5.57 5
  1122.7 5.46 5
  1122.8 5.21 5
  1122.9 4.8 4
  1123.0 4.53 4
  1123.1 4.77 4
  1123.2 5.5 5
  1123.3 6.19 6
  1123.4 6.23 6
  1123.5 5.48 5
  1124.8 4.48 4
  1124.9 5.79 5
  1125.0 6.89 6
  1125.1 7.11 7
  1125.2 6.52 6
  1125.3 5.59 5
  1126.0 4.04 4
  1126.1 5.26 5
  1126.2 6.38 6
  1126.3 6.85 6
  1126.4 6.53 6
  1126.5 5.78 5
  1126.6 5.28 5
  1126.7 5.29 5
  1126.8 5.65 5
  1126.9 6.08 6
  1127.0 6.38 6
  1127.1 6.22 6
  1127.2 5.35 5
  1130.0 3.23 3
  1130.1 4.38 4
  1130.2 5.79 5
  1130.3 6.78 6
  1130.4 7.04 7
  1130.5 6.82 6
  1130.6 6.53 6
  1130.7 6.4 6
  1130.8 6.46 6
  1130.9 6.49 6
  1131.0 6.24 6
  1131.1 5.65 5
  1142.3 4.97 4
  1142.4 6.53 6
  1142.5 8.07 8
  1142.6 9.33 9
  1142.7 10.11 10
  1142.8 9.99 9
  1142.9 8.88 8
  1155.1 5.36 5
  1155.2 6.97 6
  1155.3 8.46 8
  1155.4 9.02 9
  1155.5 8.47 8
  1155.6 7.31 7
  1157.2 5.26 5
  1157.3 6.32 6
  1157.4 7.49 7
  1157.5 8.1 8
  1157.6 8.08 8
  1157.7 7.92 7
  1157.8 7.86 7
  1157.9 7.63 7
  1165.5 4.37 4
  1165.6 5.53 5
  1165.7 6.79 6
  1165.8 7.67 7
  1165.9 8.03 8
  1166.0 8.14 8
  1166.1 8.1 8
  1166.2 7.52 7
  1166.3 6.21 6
  1168.0 4.95 4
  1168.1 5.82 5
  1168.2 6.68 6
  1168.3 7.21 7
  1168.4 7.34 7
  1168.5 7.24 7
  1168.6 6.94 6
  1168.7 6.24 6
  1169.3 5.49 5
  1169.4 6.46 6
  1169.5 7.51 7
  1169.6 8.1 8
  1169.7 7.88 7
  1169.8 6.9 6
  1169.9 5.41 5
  1170.3 4.42 4
  1170.4 5.5 5
  1170.5 6.4 6
  1170.6 7.05 7
  1170.7 7.53 7
  1170.8 7.88 7
  1170.9 8.12 8
  1171.0 8.12 8
  1171.1 7.78 7
  1171.2 7.15 7
  1171.3 6.28 6
  1172.6 4.99 4
  1172.7 6.47 6
  1172.8 7.88 7
  1172.9 8.55 8
  1173.0 8.35 8
  1173.1 7.6 7
  1185.3 4.62 4
  1185.4 5.79 5
  1185.5 6.93 6
  1185.6 7.48 7
  1185.7 7.41 7
  1185.8 7.28 7
  1185.9 7.5 7
  1186.0 7.73 7
  1186.1 7.3 7
  1186.2 5.9 5
  1186.3 4.06 4
  1186.6 3.12 3
  1186.7 4.33 4
  1186.8 5.56 5
  1186.9 6.68 6
  1187.0 7.67 7
  1187.1 8.47 8
  1187.2 8.91 8
  1187.3 8.73 8
  1187.4 7.73 7
  1187.5 6.26 6
  1192.5 5.91 5
  1192.6 6.89 6
  1192.7 7.73 7
  1192.8 8.18 8
  1192.9 8.17 8
  1193.0 7.7 7
  1193.1 7.01 7
  1193.2 6.4 6
  1193.3 6.0 5
  1193.4 5.65 5
  1193.5 5.06 5
  1196.1 4.03 4
  1196.2 5.04 5
  1196.3 6.07 6
  1196.4 7.13 7
  1196.5 7.89 7
  1196.6 7.74 7
  1196.7 6.56 6
  1197.1 4.93 4
  1197.2 6.3 6
  1197.3 7.56 7
  1197.4 8.35 8
  1197.5 8.48 8
  1197.6 7.96 7
  1197.7 6.98 6
  1199.3 3.33 3
  1199.4 4.6 4
  1199.5 5.75 5
  1199.6 6.63 6
  1199.7 7.36 7
  1199.8 7.7 7
  1199.9 7.32 7
  1200.0 6.44 6
  1200.1 5.54 5
  1204.4 3.75 3
  1204.5 5.06 5
  1204.6 6.02 6
  1204.7 6.5 6
  1204.8 6.52 6
  1204.9 6.37 6
  1205.0 6.49 6
  1205.1 6.87 6
  1205.2 7.09 7
  1205.3 6.86 6
  1205.4 6.46 6
  1205.5 6.37 6
  1205.6 6.75 6
  1205.7 7.22 7
  1205.8 7.33 7
  1205.9 7.0 6
  1206.0 6.55 6
  1206.1 6.24 6
  1206.2 6.17 6
  1206.3 6.31 6
  1206.4 6.46 6
  1206.5 6.47 6
  1206.6 6.26 6
  1206.7 5.86 5
  1206.8 5.41 5
  1206.9 5.19 5
  1207.0 5.41 5
  1207.1 6.04 6
  1207.2 6.75 6
  1207.3 7.23 7
  1207.4 7.19 7
  1207.5 6.41 6
  1207.6 5.04 5
  1211.4 4.29 4
  1211.5 5.21 5
  1211.6 6.21 6
  1211.7 7.06 7
  1211.8 7.4 7
  1211.9 6.87 6
  1212.0 5.5 5
  1212.1 4.0 3
  1212.5 2.92 2
  1212.6 4.28 4
  1212.7 8.49 8
  1212.8 15.95 15
  1212.9 23.6 23
  1213.0 26.99 26
  1213.1 26.19 26
  1213.2 29.12 29
  1213.3 43.92 43
  1213.4 64.77 64
  1213.5 72.32 72
  1213.6 55.45 55
  1213.7 26.26 26
  1213.8 5.54 5
  1217.2 4.23 4
  1217.3 5.22 5
  1217.4 6.57 6
  1217.5 7.46 7
  1217.6 6.93 6
  1217.7 4.95 4
  1218.0 2.79 2
  1218.1 4.32 4
  1218.2 5.31 5
  1218.3 5.36 5
  1218.4 4.74 4
  1218.5 3.88 3
  1219.0 2.82 2
  1219.1 4.13 4
  1219.2 5.19 5
  1219.3 5.41 5
  1219.4 4.76 4
  1219.5 3.76 3
  1219.6 3.34 3
  1219.7 3.91 3
  1219.8 4.83 4
  1219.9 5.07 5
  1220.0 4.42 4
  1220.1 3.56 3
  1220.2 3.1 3
  1220.3 3.11 3
  1220.4 3.38 3
  1220.5 3.89 3
  1220.6 4.58 4
  1220.7 5.15 5
  1220.8 5.55 5
  1220.9 5.96 5
  1221.0 6.56 6
  1221.1 7.15 7
  1221.2 7.3 7
  1221.3 6.72 6
  1221.4 5.55 5
  1223.2 4.43 4
  1223.3 5.47 5
  1223.4 6.86 6
  1223.5 7.88 7
  1223.6 7.85 7
  1223.7 6.68 6
  1223.8 4.93 4
  1225.1 2.41 2
  1225.2 4.06 4
  1225.3 5.95 5
  1225.4 7.05 7
  1225.5 6.89 6
  1225.6 5.89 5
  1233.3 4.89 4
  1233.4 5.82 5
  1233.5 7.07 7
  1233.6 7.97 7
  1233.7 8.01 8
  1233.8 7.37 7
  1233.9 6.78 6
  1234.0 6.76 6
  1234.1 7.11 7
  1234.2 7.15 7
  1234.3 6.61 6
  1234.4 5.86 5
  1234.5 5.29 5
  1234.6 4.97 4
  1234.7 4.7 4
  1234.8 4.41 4
  1234.9 4.18 4
  1235.0 4.11 4
  1235.1 4.1 4
  1235.2 4.07 4
  1235.3 3.99 3
  1235.4 3.89 3
  1235.5 3.85 3
  1235.6 4.06 4
  1235.7 4.81 4
  1235.8 6.16 6
  1235.9 7.57 7
  1236.0 8.22 8
  1236.1 7.78 7
  1239.8 2.9 2
  1239.9 4.07 4
  1240.0 4.99 4
  1240.1 5.47 5
  1240.2 5.71 5
  1240.3 5.81 5
  1240.4 5.74 5
  1240.5 5.38 5
  1240.6 4.86 4
  1240.7 4.55 4
  1240.8 4.63 4
  1240.9 4.99 4
  1241.0 5.43 5
  1241.1 5.89 5
  1241.2 6.16 6
  1241.3 5.87 5
  1241.4 5.11 5
  1241.5 4.67 4
  1241.6 5.0 4
  1241.7 5.64 5
  1241.8 5.88 5
  1241.9 5.69 5
  1242.0 5.5 5
  1242.1 5.64 5
  1242.2 6.12 6
  1242.3 6.72 6
  1242.4 7.14 7
  1242.5 7.25 7
  1242.6 7.08 7
  1242.7 6.69 6
  1242.8 6.18 6
  1242.9 5.65 5
  1243.0 5.23 5
  1243.1 4.97 4
  1243.2 5.03 5
  1243.3 5.43 5
  1243.4 5.87 5
  1243.5 5.83 5
  1243.6 5.19 5
  1243.7 4.37 4
  1243.8 4.01 4
  1243.9 4.31 4
  1244.0 5.15 5
  1244.1 6.27 6
  1244.2 7.34 7
  1244.3 7.91 7
  1244.4 7.74 7
  1244.5 7.14 7
  1244.6 6.42 6
  1244.7 5.52 5
  1245.6 4.64 4
  1245.7 5.88 5
  1245.8 6.71 6
  1245.9 7.01 7
  1246.0 7.09 7
  1246.1 6.96 6
  1251.0 3.45 3
  1251.1 5.32 5
  1251.2 6.7 6
  1251.3 7.26 7
  1251.4 7.35 7
  1251.5 7.34 7
  1251.6 7.16 7
  1251.7 6.65 6
  1251.8 5.95 5
  1251.9 5.39 5
  1252.0 5.24 5
  1252.1 5.58 5
  1252.2 6.29 6
  1252.3 6.98 6
  1252.4 7.39 7
  1252.5 7.45 7
  1252.6 7.3 7
  1252.7 7.06 7
  1252.8 6.76 6
  1252.9 6.34 6
  1253.0 5.68 5
  1253.4 4.28 4
  1253.5 5.56 5
  1253.6 6.74 6
  1253.7 7.27 7
  1253.8 6.85 6
  1253.9 5.86 5
  1254.0 5.17 5
  1254.1 5.47 5
  1254.2 6.47 6
  1254.3 7.29 7
  1254.4 7.51 7
  1254.5 7.48 7
  1254.6 7.58 7
  1254.7 7.74 7
  1254.8 7.69 7
  1254.9 7.4 7
  1255.0 7.03 7
  1255.1 6.73 6
  1255.2 6.41 6
  1255.3 5.94 5
  1255.4 5.46 5
  1255.5 5.19 5
  1255.6 5.29 5
  1255.7 5.74 5
  1255.8 6.42 6
  1255.9 7.02 7
  1256.0 7.27 7
  1256.1 7.3 7
  1256.2 7.32 7
  1256.3 7.31 7
  1256.4 7.05 7
  1256.5 6.44 6
  1256.6 5.54 5
  1262.8 6.67 6
  1262.9 7.97 7
  1263.0 9.51 9
  1263.1 10.77 10
  1263.2 11.01 10
  1263.3 9.99 9
  1263.4 8.22 8
  1263.5 6.32 6
  1263.9 4.55 4
  1264.0 5.49 5
  1264.1 6.21 6
  1264.2 6.72 6
  1264.3 7.04 7
  1264.4 7.06 7
  1264.5 6.68 6
  1264.6 6.05 6
  1264.7 5.38 5
  1264.8 4.86 4
  1264.9 4.67 4
  1265.0 4.84 4
  1265.1 5.2 5
  1265.2 5.44 5
  1265.3 5.53 5
  1265.4 5.81 5
  1265.5 6.46 6
  1265.6 7.06 7
  1265.7 7.06 7
  1265.8 6.56 6
  1265.9 6.33 6
  1266.0 6.77 6
  1266.1 7.47 7
  1266.2 7.82 7
  1266.3 7.61 7
  1266.4 6.97 6
  1266.5 6.23 6
  1266.6 5.69 5
  1266.7 5.5 5
  1266.8 5.69 5
  1266.9 6.26 6
  1267.0 7.07 7
  1267.1 7.77 7
  1267.2 7.96 7
  1267.3 7.63 7
  1267.4 7.11 7
  1267.5 6.66 6
  1267.6 6.53 6
  1267.7 6.85 6
  1267.8 7.48 7
  1267.9 8.13 8
  1268.0 8.48 8
  1268.1 8.48 8
  1268.2 8.08 8
  1271.0 5.16 5
  1271.1 5.84 5
  1271.2 6.52 6
  1271.3 7.55 7
  1271.4 8.86 8
  1271.5 9.74 9
  1271.6 9.62 9
  1271.7 8.73 8
  1271.8 7.7 7
  1271.9 6.67 6
  1272.0 5.38 5
  1272.3 4.24 4
  1272.4 5.67 5
  1272.5 6.9 6
  1272.6 7.42 7
  1272.7 7.21 7
  1272.8 6.4 6
  1275.1 5.89 5
  1275.2 7.44 7
  1275.3 8.7 8
  1275.4 8.49 8
  1277.0 6.54 6
  1277.1 7.3 7
  1277.2 8.13 8
  1277.3 8.77 8
  1277.4 8.68 8
  1277.5 7.87 7
  1277.6 7.02 7
  1277.7 6.68 6
  1277.8 6.76 6
  1277.9 6.9 6
  1278.0 7.03 7
  1278.1 7.31 7
  1278.2 7.73 7
  1278.3 7.98 7
  1278.4 7.81 7
  1278.5 7.3 7
  1278.6 6.72 6
  1278.7 6.17 6
  1278.8 5.68 5
  1278.9 5.52 5
  1279.0 6.08 6
  1279.1 7.16 7
  1279.2 7.97 7
  1279.3 7.81 7
  1279.4 6.75 6
  1302.5 4.71 4
  1302.6 5.85 5
  1302.7 7.05 7
  1302.8 8.18 8
  1302.9 8.95 8
  1303.0 9.03 9
  1303.1 8.19 8
  1303.2 6.64 6
  1303.3 5.07 5
  1303.8 3.75 3
  1303.9 5.16 5
  1304.0 7.03 7
  1304.1 8.71 8
  1304.2 9.58 9
  1304.3 9.31 9
  1304.4 8.14 8
  1304.5 6.87 6
  1304.6 6.02 6
  1304.7 5.47 5
  1305.5 5.15 5
  1305.6 6.0 5
  1305.7 6.87 6
  1305.8 7.51 7
  1305.9 7.54 7
  1306.0 6.85 6
  1308.5 3.09 3
  1308.6 4.14 4
  1308.7 5.57 5
  1308.8 6.89 6
  1308.9 7.63 7
  1309.0 7.7 7
  1309.1 7.28 7
  1309.2 6.58 6
  1314.2 3.5 3
  1314.3 4.53 4
  1314.4 5.71 5
  1314.5 6.5 6
  1314.6 6.66 6
  1314.7 6.36 6
  1314.8 5.82 5
  1314.9 5.08 5
  1317.9 2.95 2
  1318.0 4.48 4
  1318.1 5.81 5
  1318.2 6.34 6
  1318.3 6.05 6
  1318.4 5.36 5
  1318.5 4.73 4
  1318.6 4.49 4
  1318.7 4.76 4
  1318.8 5.21 5
  1318.9 5.46 5
  1319.0 5.5 5
  1319.1 5.79 5
  1319.2 6.35 6
  1319.3 6.63 6
  1319.4 6.18 6
  1319.5 5.38 5
  1319.6 4.8 4
  1319.7 4.65 4
  1319.8 4.59 4
  1319.9 4.41 4
  1320.0 4.27 4
  1320.1 4.3 4
  1320.2 4.3 4
  1320.3 4.0 3
  1320.4 3.68 3
  1320.5 3.97 3
  1320.6 5.08 5
  1320.7 6.38 6
  1320.8 7.03 7
  1320.9 6.62 6
  1321.0 5.41 5
  1321.4 3.02 3
  1321.5 4.08 4
  1321.6 5.8 5
  1321.7 7.41 7
  1321.8 8.02 8
  1321.9 7.28 7
  1324.7 3.41 3
  1324.8 5.28 5
  1324.9 6.63 6
  1325.0 6.99 6
  1325.1 6.55 6
  1325.2 5.77 5
  1325.3 5.08 5
  1325.4 4.8 4
  1325.5 5.11 5
  1325.6 5.78 5
  1325.7 6.37 6
  1325.8 6.53 6
  1325.9 6.2 6
  1326.0 5.66 5
  1326.1 5.19 5
  1326.2 4.94 4
  1326.3 4.93 4
  1326.4 5.27 5
  1326.5 6.1 6
  1326.6 7.25 7
  1326.7 8.08 8
  1326.8 7.93 7
  1326.9 6.65 6
  1327.0 4.91 4
  1328.8 5.55 5
  1328.9 6.79 6
  1329.0 8.0 7
  1329.1 8.21 8
  1329.2 7.19 7
  1329.3 5.57 5
  1329.7 3.39 3
  1329.8 4.67 4
  1329.9 5.76 5
  1330.0 6.22 6
  1330.1 6.28 6
  1330.2 6.19 6
  1330.3 5.78 5
  1330.4 4.96 4
  1330.5 4.17 4
  1330.6 3.91 3
  1330.7 4.14 4
  1330.8 4.5 4
  1330.9 4.7 4
  1331.0 4.85 4
  1331.1 5.3 5
  1331.2 6.08 6
  1331.3 6.61 6
  1331.4 6.46 6
  1331.5 5.89 5
  1331.6 5.58 5
  1331.7 5.57 5
  1331.8 5.38 5
  1331.9 4.82 4
  1332.0 4.21 4
  1332.1 3.82 3
  1332.2 3.77 3
  1332.3 4.26 4
  1332.4 5.29 5
  1332.5 6.24 6
  1332.6 6.27 6
  1332.7 5.37 5
  1332.8 4.25 4
  1333.2 2.51 2
  1333.3 3.98 3
  1333.4 5.18 5
  1333.5 5.5 5
  1333.6 5.27 5
  1333.7 5.01 5
  1333.8 4.69 4
  1333.9 4.18 4
  1334.0 3.82 3
  1334.1 4.07 4
  1334.2 4.88 4
  1334.3 5.82 5
  1334.4 6.52 6
  1334.5 6.76 6
  1334.6 6.38 6
  1334.7 5.48 5
  1334.8 4.49 4
  1336.0 4.55 4
  1336.1 5.48 5
  1336.2 6.67 6
  1336.3 7.51 7
  1336.4 7.29 7
  1336.5 5.98 5
  1339.3 4.65 4
  1339.4 5.89 5
  1339.5 6.98 6
  1339.6 6.98 6
  1339.7 5.84 5
  1345.0 4.34 4
  1345.1 5.21 5
  1345.2 5.97 5
  1345.3 6.3 6
  1345.4 6.03 6
  1345.5 5.35 5
  1346.2 4.28 4
  1346.3 5.72 5
  1346.4 7.29 7
  1346.5 8.26 8
  1346.6 8.23 8
  1346.7 7.35 7
  1349.5 5.17 5
  1349.6 6.46 6
  1349.7 7.63 7
  1349.8 7.9 7
  1349.9 7.18 7
  1350.0 6.12 6
  1351.8 3.04 3
  1351.9 4.08 4
  1352.0 5.15 5
  1352.1 5.92 5
  1352.2 6.19 6
  1352.3 6.0 5
  1352.4 5.57 5
  1352.5 5.15 5
  1352.6 5.02 5
  1352.7 5.25 5
  1352.8 5.49 5
  1352.9 5.28 5
  1353.0 4.44 4
  1353.4 3.82 3
  1353.5 5.58 5
  1353.6 6.83 6
  1353.7 6.97 6
  1353.8 6.25 6
  1353.9 5.24 5
  1354.0 4.2 4
  1355.2 2.91 2
  1355.3 4.23 4
  1355.4 5.37 5
  1355.5 5.68 5
  1355.6 5.03 5
  1355.7 4.02 4
  1355.8 3.73 3
  1355.9 4.56 4
  1356.0 5.61 5
  1356.1 5.63 5
  1356.2 4.66 4
  1356.3 3.79 3
  1356.4 3.82 3
  1356.5 4.67 4
  1356.6 5.89 5
  1356.7 7.09 7
  1356.8 7.78 7
  1356.9 7.52 7
  1357.0 6.53 6
  1357.7 4.81 4
  1357.8 6.04 6
  1357.9 7.29 7
  1358.0 7.82 7
  1358.1 7.44 7
  1358.2 6.75 6
  1358.3 6.35 6
  1358.4 6.27 6
  1358.5 6.23 6
  1358.6 6.04 6
  1358.7 5.71 5
  1358.8 5.13 5
  1358.9 4.49 4
  1359.0 4.17 4
  1359.1 4.46 4
  1359.2 5.35 5
  1359.3 6.61 6
  1359.4 7.88 7
  1359.5 8.66 8
  1359.6 8.65 8
  1359.7 7.92 7
  1359.8 6.73 6
  1359.9 5.34 5
  1360.3 3.25 3
  1360.4 4.26 4
  1360.5 5.72 5
  1360.6 6.96 6
  1360.7 7.26 7
  1360.8 6.53 6
  1360.9 5.36 5
  1361.3 4.28 4
  1361.4 5.75 5
  1361.5 7.29 7
  1361.6 8.05 8
  1361.7 7.73 7
  1361.8 6.76 6
  1362.5 5.12 5
  1362.6 5.99 5
  1362.7 6.63 6
  1362.8 7.21 7
  1362.9 7.68 7
  1363.0 7.67 7
  1363.1 7.14 7
  1363.2 6.57 6
  1363.3 6.31 6
  1363.4 6.33 6
  1363.5 6.3 6
  1363.6 6.08 6
  1363.7 5.81 5
  1363.8 5.75 5
  1363.9 6.02 6
  1364.0 6.53 6
  1364.1 7.0 6
  1364.2 7.06 7
  1364.3 6.49 6
  1366.1 4.47 4
  1366.2 5.34 5
  1366.3 6.15 6
  1366.4 6.78 6
  1366.5 7.27 7
  1366.6 7.67 7
  1366.7 7.89 7
  1366.8 7.63 7
  1366.9 6.87 6
  1367.4 6.27 6
  1367.5 7.62 7
  1367.6 8.68 8
  1367.7 9.05 9
  1367.8 8.9 8
  1367.9 8.48 8
  1368.0 7.75 7
  1368.6 5.69 5
  1368.7 6.66 6
  1368.8 8.12 8
  1368.9 9.18 9
  1369.0 9.31 9
  1369.1 8.68 8
  1369.2 7.73 7
  1369.3 6.69 6
  1370.5 4.11 4
  1370.6 5.3 5
  1370.7 6.67 6
  1370.8 7.53 7
  1370.9 7.64 7
  1371.0 7.39 7
  1371.1 7.09 7
  1371.2 6.69 6
  1371.3 6.14 6
  1371.4 5.59 5
  1371.5 5.23 5
  1371.6 5.06 5
  1371.7 4.92 4
  1371.8 4.81 4
  1371.9 5.01 5
  1372.0 5.63 5
  1372.1 6.48 6
  1372.2 7.13 7
  1372.3 7.42 7
  1372.4 7.45 7
  1372.5 7.28 7
  1372.6 6.7 6
  1373.0 5.14 5
  1373.1 6.23 6
  1373.2 6.99 6
  1373.3 7.21 7
  1373.4 7.01 7
  1373.5 6.54 6
  1375.9 5.79 5
  1376.0 6.97 6
  1376.1 7.9 7
  1376.2 7.75 7
  1376.3 6.39 6
  1376.6 4.11 4
  1376.7 5.56 5
  1376.8 7.41 7
  1376.9 9.15 9
  1377.0 10.46 10
  1377.1 10.91 10
  1377.2 10.19 10
  1377.3 8.57 8
  1377.4 6.9 6
  1380.1 5.58 5
  1380.2 6.42 6
  1380.3 7.55 7
  1380.4 8.5 8
  1380.5 8.46 8
  1380.6 7.18 7
  1381.3 6.06 6
  1381.4 7.24 7
  1381.5 8.3 8
  1381.6 8.56 8
  1381.7 7.98 7
  1381.8 7.18 7
  1381.9 6.64 6
  1382.0 6.26 6
  1382.1 5.8 5
  1382.2 5.51 5
  1382.3 5.84 5
  1382.4 6.65 6
  1382.5 7.14 7
  1382.6 6.9 6
  1382.7 6.45 6
  1382.8 6.56 6
  1382.9 7.3 7
  1383.0 8.0 7
  1383.1 8.15 8
  1383.2 7.78 7
  1383.3 7.09 7
  1383.4 6.38 6
  1383.5 5.89 5
  1383.6 5.74 5
  1383.7 5.77 5
  1383.8 5.99 5
  1383.9 6.56 6
  1384.0 7.45 7
  1384.1 8.22 8
  1384.2 8.56 8
  1384.3 8.46 8
  1384.4 7.98 7
  1384.5 7.13 7
  1384.9 4.99 4
  1385.0 6.42 6
  1385.1 8.46 8
  1385.2 10.32 10
  1385.3 11.18 11
  1385.4 10.71 10
  1385.5 9.21 9
  1385.6 7.15 7
  1385.7 5.06 5
  1386.0 4.42 4
  1386.1 6.03 6
  1386.2 7.45 7
  1386.3 8.4 8
  1386.4 8.99 8
  1386.5 9.12 9
  1386.6 8.54 8
  1386.7 7.37 7
  1387.6 7.46 7
  1387.7 8.42 8
  1387.8 9.55 9
  1387.9 10.12 10
  1388.0 9.71 9
  1388.1 8.66 8
  1388.2 7.58 7
  1388.3 6.72 6
  1388.7 5.68 5
  1388.8 7.22 7
  1388.9 8.7 8
  1389.0 9.47 9
  1389.1 9.43 9
  1389.2 8.93 8
  1389.3 8.21 8
  1389.4 7.49 7
  1389.5 7.03 7
  1389.6 7.14 7
  1389.7 7.86 7
  1389.8 8.87 8
  1389.9 9.73 9
  1390.0 10.29 10
  1390.1 10.62 10
  1390.2 10.66 10
  1390.3 10.16 10
  1390.4 8.95 8
  1390.5 7.44 7
  1391.1 5.87 5
  1391.2 7.25 7
  1391.3 8.51 8
  1391.4 8.95 8
  1391.5 8.49 8
  1391.6 7.54 7
  1391.7 6.49 6
  1391.8 5.44 5
  1391.9 4.26 4
  1392.2 2.87 2
  1392.3 4.09 4
  1392.4 5.55 5
  1392.5 6.92 6
  1392.6 8.29 8
  1392.7 9.76 9
  1392.8 10.84 10
  1392.9 10.86 10
  1393.0 9.59 9
  1393.1 7.71 7
  1393.2 5.99 5
  1395.3 0.73 0
  1395.4 2.57 2
  1395.5 4.93 4
  1395.6 7.24 7
  1395.7 9.23 9
  1395.8 10.68 10
  1395.9 11.15 11
  1396.0 10.33 10
  1396.1 8.41 8
  1396.2 6.04 6
  1396.3 4.0 3
  1396.8 3.16 3
  1396.9 4.44 4
  1397.0 5.92 5
  1397.1 7.59 7
  1397.2 9.5 9
  1397.3 11.41 11
  1397.4 12.72 12
  1397.5 12.82 12
  1397.6 11.46 11
  1397.7 9.02 9
  1397.8 6.46 6
  1397.9 4.56 4
  1398.3 2.82 2
  1398.4 4.45 4
  1398.5 6.14 6
  1398.6 7.37 7
  1398.7 8.23 8
  1398.8 8.85 8
  1398.9 9.18 9
  1399.0 9.25 9
  1399.1 9.17 9
  1399.2 8.82 8
  1399.3 7.84 7
  1399.4 6.24 6
//
