ACCESSION: MSBNK-RIKEN_NPDepo-NGA01310
RECORD_TITLE: 6-Benzoylheteratisine; LC-ESI-QQQ; MS2; Frag=135.0V CID@10.0; [M+H]+
DATE: 2018.04.04
AUTHORS: Nogawa T, Okano A, CSRS, RIKEN
LICENSE: CC BY
COMMENT: Origin: Plant
COMMENT: SubCategory_DNP: Terpenoid alkaloids, Diterpene alkaloid, Aconitum alkaloid
CH$NAME: 6-Benzoylheteratisine
CH$COMPOUND_CLASS: Alkaloids
CH$FORMULA: C29H37NO6
CH$EXACT_MASS: 495.6213
CH$SMILES: CCN1C[C@]2(C)CC[C@H](OC)[C@]34C5C[C@@H]6CC[C@@](O)(C5C(=O)O6)[C@H](C13)[C@@H](OC(=O)c1ccccc1)C42
CH$IUPAC: InChI=1S/C29H37NO6/c1-4-30-15-27(2)12-11-19(34-3)29-18-14-17-10-13-28(33,20(18)26(32)35-17)21(24(29)30)22(23(27)29)36-25(31)16-8-6-5-7-9-16/h5-9,17-24,33H,4,10-15H2,1-3H3/t17-,18?,19-,20?,21-,22+,23?,24?,27-,28+,29-/m0/s1
CH$LINK: CAS 99759-48-5
CH$LINK: CHEMSPIDER 4589194
CH$LINK: INCHIKEY XVVZJDDPRFFKTQ-MFJRHRAESA-N
AC$INSTRUMENT: Agilent 6410 Triple Quadrupole LC/MS system
AC$INSTRUMENT_TYPE: LC-ESI-QQQ
AC$MASS_SPECTROMETRY: MS_TYPE MS2
AC$MASS_SPECTROMETRY: ION_MODE POSITIVE
MS$FOCUSED_ION: PRECURSOR_TYPE [M+H]+
PK$SPLASH: splash10-0002-0000900000-afe5024674e47db2f0c0
PK$NUM_PEAK: 17
PK$PEAK: m/z int. rel.int.
  495.3 0.56 0
  495.4 1.89 1
  495.5 4.41 4
  495.6 8.22 8
  495.7 14.13 14
  495.8 24.16 24
  495.9 39.88 39
  496.0 59.87 59
  496.1 79.62 79
  496.2 94.1 94
  496.3 100.0 99
  496.4 95.35 95
  496.5 79.04 78
  496.6 53.26 53
  496.7 25.63 25
  496.8 5.55 5
  496.9 0.0 0
//
