ACCESSION: MSBNK-RIKEN_NPDepo-NGA01761
RECORD_TITLE: Nitrarine; LC-ESI-QQQ; MS2; Frag=135.0V CID@5.0; [M+H]+
DATE: 2018.04.04
AUTHORS: Nogawa T, Okano A, CSRS, RIKEN
LICENSE: CC BY
COMMENT: Origin: Plant
COMMENT: SubCategory_DNP: Alkaloids derived from tryptophan, beta-Carboline alkaloids, Indole alkaloids
CH$NAME: Nitrarine
CH$COMPOUND_CLASS: Alkaloids
CH$FORMULA: C20H25N3
CH$EXACT_MASS: 307.4424
CH$SMILES: c1ccc2c3c([nH]c2c1)[C@@H]1C2CCC([C@H]4CCCN[C@@H]24)N1CC3
CH$IUPAC: InChI=1S/C20H25N3/c1-2-6-16-12(4-1)13-9-11-23-17-8-7-15(20(23)19(13)22-16)18-14(17)5-3-10-21-18/h1-2,4,6,14-15,17-18,20-22H,3,5,7-11H2/t14-,15?,17?,18-,20+/m1/s1
CH$LINK: CAS 20069-03-8
CH$LINK: CHEMSPIDER 353526
CH$LINK: INCHIKEY SBGPASZOVGSOFJ-AFNOLGPFSA-N
CH$LINK: PUBCHEM CID:129895246
AC$INSTRUMENT: Agilent 6410 Triple Quadrupole LC/MS system
AC$INSTRUMENT_TYPE: LC-ESI-QQQ
AC$MASS_SPECTROMETRY: MS_TYPE MS2
AC$MASS_SPECTROMETRY: ION_MODE POSITIVE
MS$FOCUSED_ION: PRECURSOR_TYPE [M+H]+
PK$SPLASH: splash10-0a4i-0009000000-1b603c2f6e4d3f2e479a
PK$NUM_PEAK: 15
PK$PEAK: m/z int. rel.int.
  307.4 1.04 1
  307.5 2.85 2
  307.6 7.31 7
  307.7 16.14 16
  307.8 30.38 30
  307.9 48.87 48
  308.0 68.48 68
  308.1 85.49 85
  308.2 96.82 96
  308.3 100.0 99
  308.4 92.38 92
  308.5 72.46 72
  308.6 43.99 43
  308.7 16.89 16
  308.8 1.27 1
//
