ACCESSION: MSBNK-RIKEN_NPDepo-NGA04543
RECORD_TITLE: Lappaconitine; LC-ESI-QQQ; MS2; Frag=135.0V CID@15.0; [M+HCOO]-
DATE: 2018.04.04
AUTHORS: Nogawa T, Okano A, CSRS, RIKEN
LICENSE: CC BY
COMMENT: Origin: Plant
COMMENT: SubCategory_DNP: Terpenoid alkaloids, Diterpene alkaloid, Aconitum alkaloid
CH$NAME: Lappaconitine
CH$COMPOUND_CLASS: Alkaloids
CH$FORMULA: C32H44N2O8
CH$EXACT_MASS: 584.7161
CH$SMILES: CCN1C[C@]2(OC(=O)c3ccccc3N=C(C)O)CC[C@H](OC)[C@]34C1[C@H](CC23)[C@@]1(O)C[C@H](OC)[C@H]2CC4[C@]1(O)[C@H]2OC
CH$IUPAC: InChI=1S/C32H44N2O8/c1-6-34-16-29(42-28(36)18-9-7-8-10-21(18)33-17(2)35)12-11-25(40-4)31-23(29)14-20(26(31)34)30(37)15-22(39-3)19-13-24(31)32(30,38)27(19)41-5/h7-10,19-20,22-27,37-38H,6,11-16H2,1-5H3,(H,33,35)/t19-,20+,22+,23?,24?,25+,26?,27+,29-,30+,31+,32+/m1/s1
CH$LINK: CAS 32854-75-4
CH$LINK: CHEMSPIDER 3749
CH$LINK: INCHIKEY NWBWCXBPKTTZNQ-GZGPSRNVSA-N
CH$LINK: PUBCHEM CID:16464737
AC$INSTRUMENT: Agilent 6410 Triple Quadrupole LC/MS system
AC$INSTRUMENT_TYPE: LC-ESI-QQQ
AC$MASS_SPECTROMETRY: MS_TYPE MS2
AC$MASS_SPECTROMETRY: ION_MODE NEGATIVE
MS$FOCUSED_ION: PRECURSOR_TYPE [M+HCOO]-
PK$SPLASH: splash10-08fr-0598200000-eef1594e0b6e0eb31d04
PK$NUM_PEAK: 2632
PK$PEAK: m/z int. rel.int.
  159.1 1.41 1
  159.2 4.59 4
  159.3 12.91 12
  159.4 26.15 26
  159.5 41.93 41
  159.6 56.41 56
  159.7 63.72 63
  159.8 60.74 60
  159.9 55.78 55
  160.0 63.53 63
  160.1 84.59 84
  160.2 98.28 98
  160.3 84.9 84
  160.4 49.54 49
  160.5 15.62 15
  160.6 0.49 0
  160.8 0.89 0
  160.9 2.77 2
  161.0 3.28 3
  161.1 3.37 3
  161.2 3.35 3
  161.3 3.25 3
  161.4 3.15 3
  161.5 3.15 3
  161.6 3.25 3
  161.7 3.37 3
  161.8 3.39 3
  161.9 3.28 3
  162.0 3.12 3
  162.1 3.03 3
  162.2 3.05 3
  162.3 3.14 3
  162.4 3.2 3
  162.5 3.21 3
  162.6 3.19 3
  162.7 3.14 3
  162.8 3.05 3
  162.9 2.92 2
  163.0 2.82 2
  163.1 2.81 2
  163.2 2.88 2
  163.3 3.0 2
  163.4 3.08 3
  163.5 3.06 3
  163.6 2.94 2
  163.7 2.79 2
  163.8 2.75 2
  163.9 2.85 2
  164.0 3.0 2
  164.1 3.07 3
  164.2 3.03 3
  164.3 2.95 2
  164.4 2.91 2
  164.5 2.94 2
  164.6 3.0 2
  164.7 3.07 3
  164.8 3.16 3
  164.9 3.24 3
  165.0 3.27 3
  165.1 3.23 3
  165.2 3.17 3
  165.3 3.14 3
  165.4 3.13 3
  165.5 3.11 3
  165.6 3.06 3
  165.7 2.99 2
  165.8 2.95 2
  165.9 3.01 3
  166.0 3.11 3
  166.1 3.14 3
  166.2 3.11 3
  166.3 3.1 3
  166.4 3.13 3
  166.5 3.09 3
  166.6 2.95 2
  166.7 2.79 2
  166.8 2.72 2
  166.9 2.81 2
  167.0 3.04 3
  167.1 3.28 3
  167.2 3.34 3
  167.3 3.15 3
  167.4 2.82 2
  167.5 2.65 2
  167.6 2.8 2
  167.7 3.13 3
  167.8 3.36 3
  167.9 3.35 3
  168.0 3.2 3
  168.1 3.05 3
  168.2 2.94 2
  168.3 2.85 2
  168.4 2.77 2
  168.5 2.72 2
  168.6 2.73 2
  168.7 2.82 2
  168.8 2.95 2
  168.9 3.11 3
  169.0 3.22 3
  169.1 3.2 3
  169.2 3.08 3
  169.3 2.96 2
  169.4 2.91 2
  169.5 2.9 2
  169.6 2.88 2
  169.7 2.85 2
  169.8 2.89 2
  169.9 2.99 2
  170.0 3.08 3
  170.1 3.1 3
  170.2 3.1 3
  170.3 3.16 3
  170.4 3.27 3
  170.5 3.3 3
  170.6 3.18 3
  170.7 3.04 3
  170.8 3.03 3
  170.9 3.19 3
  171.0 3.39 3
  171.1 3.48 3
  171.2 3.41 3
  171.3 3.23 3
  171.4 3.04 3
  171.5 2.94 2
  171.6 2.95 2
  171.7 3.02 3
  171.8 3.07 3
  171.9 3.11 3
  172.0 3.15 3
  172.1 3.12 3
  172.2 3.01 3
  172.3 2.93 2
  172.4 3.02 3
  172.5 3.29 3
  172.6 3.51 3
  172.7 3.5 3
  172.8 3.26 3
  172.9 3.01 3
  173.0 2.94 2
  173.1 3.01 3
  173.2 3.06 3
  173.3 3.0 2
  173.4 2.96 2
  173.5 3.02 3
  173.6 3.09 3
  173.7 3.04 3
  173.8 2.86 2
  173.9 2.72 2
  174.0 2.7 2
  174.1 2.74 2
  174.2 2.77 2
  174.3 2.81 2
  174.4 2.89 2
  174.5 3.03 3
  174.6 3.15 3
  174.7 3.21 3
  174.8 3.18 3
  174.9 3.09 3
  175.0 3.01 3
  175.1 2.98 2
  175.2 2.95 2
  175.3 2.94 2
  175.4 2.98 2
  175.5 3.11 3
  175.6 3.28 3
  175.7 3.4 3
  175.8 3.42 3
  175.9 3.38 3
  176.0 3.31 3
  176.1 3.22 3
  176.2 3.07 3
  176.3 2.88 2
  176.4 2.76 2
  176.5 2.8 2
  176.6 2.99 2
  176.7 3.21 3
  176.8 3.26 3
  176.9 3.11 3
  177.0 2.89 2
  177.1 2.78 2
  177.2 2.81 2
  177.3 2.89 2
  177.4 2.92 2
  177.5 2.88 2
  177.6 2.82 2
  177.7 2.82 2
  177.8 2.92 2
  177.9 3.08 3
  178.0 3.24 3
  178.1 3.31 3
  178.2 3.28 3
  178.3 3.14 3
  178.4 3.0 2
  178.5 2.91 2
  178.6 2.83 2
  178.7 2.71 2
  178.8 2.58 2
  178.9 2.63 2
  179.0 2.91 2
  179.1 3.25 3
  179.2 3.36 3
  179.3 3.16 3
  179.4 2.85 2
  179.5 2.67 2
  179.6 2.73 2
  179.7 2.94 2
  179.8 3.14 3
  179.9 3.2 3
  180.0 3.12 3
  180.1 3.02 3
  180.2 2.99 2
  180.3 3.07 3
  180.4 3.2 3
  180.5 3.27 3
  180.6 3.25 3
  180.7 3.15 3
  180.8 3.01 3
  180.9 2.91 2
  181.0 2.89 2
  181.1 2.93 2
  181.2 3.0 2
  181.3 3.05 3
  181.4 3.07 3
  181.5 3.07 3
  181.6 3.09 3
  181.7 3.15 3
  181.8 3.22 3
  181.9 3.26 3
  182.0 3.28 3
  182.1 3.32 3
  182.2 3.31 3
  182.3 3.2 3
  182.4 3.03 3
  182.5 2.98 2
  182.6 3.12 3
  182.7 3.31 3
  182.8 3.35 3
  182.9 3.21 3
  183.0 3.02 3
  183.1 2.9 2
  183.2 2.85 2
  183.3 2.84 2
  183.4 2.92 2
  183.5 3.12 3
  183.6 3.36 3
  183.7 3.42 3
  183.8 3.19 3
  183.9 2.83 2
  184.0 2.61 2
  184.1 2.66 2
  184.2 2.86 2
  184.3 3.07 3
  184.4 3.23 3
  184.5 3.33 3
  184.6 3.35 3
  184.7 3.25 3
  184.8 3.04 3
  184.9 2.9 2
  185.0 2.97 2
  185.1 3.18 3
  185.2 3.33 3
  185.3 3.28 3
  185.4 3.12 3
  185.5 3.02 3
  185.6 3.03 3
  185.7 3.08 3
  185.8 3.1 3
  185.9 3.09 3
  186.0 3.03 3
  186.1 2.93 2
  186.2 2.81 2
  186.3 2.76 2
  186.4 2.8 2
  186.5 2.91 2
  186.6 3.05 3
  186.7 3.17 3
  186.8 3.23 3
  186.9 3.19 3
  187.0 3.06 3
  187.1 2.89 2
  187.2 2.74 2
  187.3 2.69 2
  187.4 2.76 2
  187.5 2.9 2
  187.6 2.99 2
  187.7 2.94 2
  187.8 2.74 2
  187.9 2.56 2
  188.0 2.61 2
  188.1 2.93 2
  188.2 3.3 3
  188.3 3.39 3
  188.4 3.1 3
  188.5 2.74 2
  188.6 2.66 2
  188.7 2.89 2
  188.8 3.14 3
  188.9 3.18 3
  189.0 3.08 3
  189.1 3.0 2
  189.2 3.02 3
  189.3 3.05 3
  189.4 3.03 3
  189.5 2.97 2
  189.6 2.94 2
  189.7 3.0 2
  189.8 3.1 3
  189.9 3.16 3
  190.0 3.14 3
  190.1 3.09 3
  190.2 3.06 3
  190.3 3.0 2
  190.4 2.88 2
  190.5 2.82 2
  190.6 2.98 2
  190.7 3.3 3
  190.8 3.5 3
  190.9 3.31 3
  191.0 2.84 2
  191.1 2.47 2
  191.2 2.5 2
  191.3 2.89 2
  191.4 3.29 3
  191.5 3.4 3
  191.6 3.25 3
  191.7 3.1 3
  191.8 3.09 3
  191.9 3.16 3
  192.0 3.19 3
  192.1 3.14 3
  192.2 3.05 3
  192.3 2.98 2
  192.4 3.01 3
  192.5 3.16 3
  192.6 3.29 3
  192.7 3.27 3
  192.8 3.12 3
  192.9 2.98 2
  193.0 2.94 2
  193.1 2.99 2
  193.2 3.07 3
  193.3 3.15 3
  193.4 3.2 3
  193.5 3.16 3
  193.6 3.06 3
  193.7 2.98 2
  193.8 3.01 3
  193.9 3.1 3
  194.0 3.17 3
  194.1 3.2 3
  194.2 3.24 3
  194.3 3.29 3
  194.4 3.28 3
  194.5 3.2 3
  194.6 3.09 3
  194.7 3.0 2
  194.8 2.94 2
  194.9 2.91 2
  195.0 2.92 2
  195.1 3.01 3
  195.2 3.1 3
  195.3 3.12 3
  195.4 3.1 3
  195.5 3.1 3
  195.6 3.16 3
  195.7 3.28 3
  195.8 3.38 3
  195.9 3.4 3
  196.0 3.37 3
  196.1 3.34 3
  196.2 3.31 3
  196.3 3.21 3
  196.4 3.05 3
  196.5 2.93 2
  196.6 2.95 2
  196.7 3.04 3
  196.8 3.07 3
  196.9 3.03 3
  197.0 3.01 3
  197.1 3.1 3
  197.2 3.25 3
  197.3 3.34 3
  197.4 3.29 3
  197.5 3.16 3
  197.6 3.06 3
  197.7 3.07 3
  197.8 3.11 3
  197.9 3.11 3
  198.0 3.06 3
  198.1 3.02 3
  198.2 3.03 3
  198.3 3.09 3
  198.4 3.15 3
  198.5 3.19 3
  198.6 3.18 3
  198.7 3.14 3
  198.8 3.07 3
  198.9 2.96 2
  199.0 2.84 2
  199.1 2.8 2
  199.2 2.88 2
  199.3 3.01 3
  199.4 3.07 3
  199.5 3.04 3
  199.6 3.0 2
  199.7 3.0 2
  199.8 3.03 3
  199.9 3.1 3
  200.0 3.19 3
  200.1 3.29 3
  200.2 3.28 3
  200.3 3.16 3
  200.4 3.07 3
  200.5 3.04 3
  200.6 3.01 3
  200.7 2.96 2
  200.8 2.98 2
  200.9 3.07 3
  201.0 3.16 3
  201.1 3.19 3
  201.2 3.17 3
  201.3 3.13 3
  201.4 3.03 3
  201.5 2.92 2
  201.6 2.93 2
  201.7 3.1 3
  201.8 3.33 3
  201.9 3.42 3
  202.0 3.33 3
  202.1 3.15 3
  202.2 3.04 3
  202.3 3.04 3
  202.4 3.15 3
  202.5 3.28 3
  202.6 3.31 3
  202.7 3.16 3
  202.8 2.9 2
  202.9 2.76 2
  203.0 2.85 2
  203.1 3.06 3
  203.2 3.23 3
  203.3 3.33 3
  203.4 3.4 3
  203.5 3.42 3
  203.6 3.34 3
  203.7 3.18 3
  203.8 3.05 3
  203.9 3.02 3
  204.0 3.02 3
  204.1 3.01 3
  204.2 2.99 2
  204.3 3.03 3
  204.4 3.15 3
  204.5 3.26 3
  204.6 3.24 3
  204.7 3.09 3
  204.8 2.95 2
  204.9 2.94 2
  205.0 3.06 3
  205.1 3.18 3
  205.2 3.17 3
  205.3 3.01 3
  205.4 2.94 2
  205.5 3.36 3
  205.6 4.29 4
  205.7 5.18 5
  205.8 5.48 5
  205.9 5.17 5
  206.0 4.59 4
  206.1 4.02 4
  206.2 3.58 3
  206.3 3.3 3
  206.4 3.13 3
  206.5 2.98 2
  206.6 2.88 2
  206.7 2.9 2
  206.8 3.03 3
  206.9 3.22 3
  207.0 3.37 3
  207.1 3.43 3
  207.2 3.41 3
  207.3 3.35 3
  207.4 3.26 3
  207.5 3.18 3
  207.6 3.13 3
  207.7 3.13 3
  207.8 3.16 3
  207.9 3.19 3
  208.0 3.18 3
  208.1 3.14 3
  208.2 3.09 3
  208.3 3.02 3
  208.4 2.95 2
  208.5 2.93 2
  208.6 3.02 3
  208.7 3.16 3
  208.8 3.22 3
  208.9 3.1 3
  209.0 2.91 2
  209.1 2.86 2
  209.2 3.0 2
  209.3 3.21 3
  209.4 3.29 3
  209.5 3.2 3
  209.6 3.07 3
  209.7 3.07 3
  209.8 3.24 3
  209.9 3.38 3
  210.0 3.32 3
  210.1 3.13 3
  210.2 3.02 3
  210.3 3.05 3
  210.4 3.08 3
  210.5 2.99 2
  210.6 2.85 2
  210.7 2.8 2
  210.8 2.89 2
  210.9 3.11 3
  211.0 3.29 3
  211.1 3.32 3
  211.2 3.19 3
  211.3 3.11 3
  211.4 3.26 3
  211.5 3.56 3
  211.6 3.74 3
  211.7 3.66 3
  211.8 3.41 3
  211.9 3.18 3
  212.0 3.04 3
  212.1 3.02 3
  212.2 3.13 3
  212.3 3.31 3
  212.4 3.45 3
  212.5 3.43 3
  212.6 3.32 3
  212.7 3.25 3
  212.8 3.34 3
  212.9 3.5 3
  213.0 3.54 3
  213.1 3.4 3
  213.2 3.19 3
  213.3 3.06 3
  213.4 3.06 3
  213.5 3.15 3
  213.6 3.22 3
  213.7 3.21 3
  213.8 3.12 3
  213.9 3.03 3
  214.0 3.04 3
  214.1 3.17 3
  214.2 3.3 3
  214.3 3.3 3
  214.4 3.22 3
  214.5 3.18 3
  214.6 3.2 3
  214.7 3.19 3
  214.8 3.11 3
  214.9 3.02 3
  215.0 3.04 3
  215.1 3.16 3
  215.2 3.28 3
  215.3 3.28 3
  215.4 3.17 3
  215.5 3.02 3
  215.6 2.94 2
  215.7 2.98 2
  215.8 3.1 3
  215.9 3.2 3
  216.0 3.22 3
  216.1 3.21 3
  216.2 3.2 3
  216.3 3.22 3
  216.4 3.22 3
  216.5 3.22 3
  216.6 3.23 3
  216.7 3.24 3
  216.8 3.2 3
  216.9 3.13 3
  217.0 3.13 3
  217.1 3.25 3
  217.2 3.4 3
  217.3 3.5 3
  217.4 3.46 3
  217.5 3.3 3
  217.6 3.05 3
  217.7 2.84 2
  217.8 2.79 2
  217.9 2.9 2
  218.0 3.01 3
  218.1 3.02 3
  218.2 3.0 2
  218.3 3.03 3
  218.4 3.08 3
  218.5 3.08 3
  218.6 3.04 3
  218.7 3.04 3
  218.8 3.11 3
  218.9 3.22 3
  219.0 3.3 3
  219.1 3.27 3
  219.2 3.15 3
  219.3 3.04 3
  219.4 3.03 3
  219.5 3.12 3
  219.6 3.23 3
  219.7 3.24 3
  219.8 3.11 3
  219.9 2.92 2
  220.0 2.86 2
  220.1 3.0 2
  220.2 3.25 3
  220.3 3.44 3
  220.4 3.42 3
  220.5 3.21 3
  220.6 2.98 2
  220.7 2.85 2
  220.8 2.82 2
  220.9 2.83 2
  221.0 2.87 2
  221.1 2.93 2
  221.2 2.99 2
  221.3 3.03 3
  221.4 3.07 3
  221.5 3.16 3
  221.6 3.27 3
  221.7 3.28 3
  221.8 3.09 3
  221.9 2.8 2
  222.0 2.68 2
  222.1 2.87 2
  222.2 3.22 3
  222.3 3.47 3
  222.4 3.51 3
  222.5 3.43 3
  222.6 3.32 3
  222.7 3.22 3
  222.8 3.15 3
  222.9 3.11 3
  223.0 3.13 3
  223.1 3.24 3
  223.2 3.38 3
  223.3 3.42 3
  223.4 3.33 3
  223.5 3.19 3
  223.6 3.09 3
  223.7 3.05 3
  223.8 3.05 3
  223.9 3.15 3
  224.0 3.33 3
  224.1 3.48 3
  224.2 3.49 3
  224.3 3.38 3
  224.4 3.25 3
  224.5 3.18 3
  224.6 3.18 3
  224.7 3.21 3
  224.8 3.2 3
  224.9 3.13 3
  225.0 3.03 3
  225.1 3.0 2
  225.2 3.09 3
  225.3 3.25 3
  225.4 3.36 3
  225.5 3.39 3
  225.6 3.36 3
  225.7 3.34 3
  225.8 3.33 3
  225.9 3.28 3
  226.0 3.13 3
  226.1 2.9 2
  226.2 2.71 2
  226.3 2.71 2
  226.4 2.95 2
  226.5 3.3 3
  226.6 3.51 3
  226.7 3.5 3
  226.8 3.31 3
  226.9 3.11 3
  227.0 3.04 3
  227.1 3.11 3
  227.2 3.27 3
  227.3 3.37 3
  227.4 3.32 3
  227.5 3.14 3
  227.6 2.97 2
  227.7 2.94 2
  227.8 3.05 3
  227.9 3.15 3
  228.0 3.11 3
  228.1 2.95 2
  228.2 2.8 2
  228.3 2.82 2
  228.4 2.98 2
  228.5 3.15 3
  228.6 3.19 3
  228.7 3.11 3
  228.8 3.01 3
  228.9 2.93 2
  229.0 2.92 2
  229.1 2.99 2
  229.2 3.06 3
  229.3 3.05 3
  229.4 2.95 2
  229.5 2.89 2
  229.6 2.94 2
  229.7 3.07 3
  229.8 3.15 3
  229.9 3.09 3
  230.0 2.97 2
  230.1 2.92 2
  230.2 3.01 3
  230.3 3.12 3
  230.4 3.14 3
  230.5 3.09 3
  230.6 3.05 3
  230.7 3.04 3
  230.8 3.01 3
  230.9 2.94 2
  231.0 2.94 2
  231.1 3.01 3
  231.2 3.09 3
  231.3 3.1 3
  231.4 3.03 3
  231.5 2.97 2
  231.6 2.94 2
  231.7 2.93 2
  231.8 2.89 2
  231.9 2.8 2
  232.0 2.73 2
  232.1 2.77 2
  232.2 2.93 2
  232.3 3.1 3
  232.4 3.17 3
  232.5 3.11 3
  232.6 3.02 3
  232.7 2.96 2
  232.8 2.96 2
  232.9 3.01 3
  233.0 3.1 3
  233.1 3.17 3
  233.2 3.15 3
  233.3 3.05 3
  233.4 2.94 2
  233.5 2.95 2
  233.6 3.05 3
  233.7 3.07 3
  233.8 2.96 2
  233.9 2.83 2
  234.0 2.83 2
  234.1 3.0 2
  234.2 3.23 3
  234.3 3.39 3
  234.4 3.42 3
  234.5 3.31 3
  234.6 3.18 3
  234.7 3.15 3
  234.8 3.24 3
  234.9 3.3 3
  235.0 3.2 3
  235.1 2.94 2
  235.2 2.73 2
  235.3 2.75 2
  235.4 2.98 2
  235.5 3.24 3
  235.6 3.35 3
  235.7 3.28 3
  235.8 3.19 3
  235.9 3.15 3
  236.0 3.08 3
  236.1 2.94 2
  236.2 2.82 2
  236.3 2.91 2
  236.4 3.15 3
  236.5 3.32 3
  236.6 3.29 3
  236.7 3.14 3
  236.8 3.01 3
  236.9 2.96 2
  237.0 3.0 2
  237.1 3.08 3
  237.2 3.14 3
  237.3 3.15 3
  237.4 3.1 3
  237.5 3.08 3
  237.6 3.14 3
  237.7 3.21 3
  237.8 3.17 3
  237.9 3.05 3
  238.0 2.95 2
  238.1 2.93 2
  238.2 2.98 2
  238.3 3.08 3
  238.4 3.18 3
  238.5 3.2 3
  238.6 3.12 3
  238.7 3.02 3
  238.8 3.0 2
  238.9 3.05 3
  239.0 3.1 3
  239.1 3.08 3
  239.2 3.02 3
  239.3 2.97 2
  239.4 2.94 2
  239.5 2.95 2
  239.6 3.0 2
  239.7 3.07 3
  239.8 3.1 3
  239.9 3.04 3
  240.0 2.94 2
  240.1 2.9 2
  240.2 2.98 2
  240.3 3.08 3
  240.4 3.07 3
  240.5 2.94 2
  240.6 2.83 2
  240.7 2.79 2
  240.8 2.81 2
  240.9 2.86 2
  241.0 2.93 2
  241.1 2.94 2
  241.2 2.83 2
  241.3 2.72 2
  241.4 2.76 2
  241.5 2.94 2
  241.6 3.05 3
  241.7 2.97 2
  241.8 2.82 2
  241.9 2.8 2
  242.0 2.92 2
  242.1 3.1 3
  242.2 3.23 3
  242.3 3.28 3
  242.4 3.2 3
  242.5 3.04 3
  242.6 2.91 2
  242.7 2.89 2
  242.8 2.96 2
  242.9 3.04 3
  243.0 3.03 3
  243.1 2.95 2
  243.2 2.89 2
  243.3 2.88 2
  243.4 2.95 2
  243.5 3.04 3
  243.6 3.11 3
  243.7 3.12 3
  243.8 3.11 3
  243.9 3.13 3
  244.0 3.17 3
  244.1 3.23 3
  244.2 3.26 3
  244.3 3.19 3
  244.4 3.05 3
  244.5 2.94 2
  244.6 2.93 2
  244.7 2.97 2
  244.8 2.95 2
  244.9 2.85 2
  245.0 2.77 2
  245.1 2.85 2
  245.2 3.05 3
  245.3 3.22 3
  245.4 3.19 3
  245.5 3.0 2
  245.6 2.79 2
  245.7 2.71 2
  245.8 2.77 2
  245.9 2.91 2
  246.0 3.02 3
  246.1 3.07 3
  246.2 3.04 3
  246.3 3.01 3
  246.4 3.04 3
  246.5 3.16 3
  246.6 3.31 3
  246.7 3.37 3
  246.8 3.31 3
  246.9 3.18 3
  247.0 3.08 3
  247.1 3.06 3
  247.2 3.05 3
  247.3 2.99 2
  247.4 2.9 2
  247.5 2.89 2
  247.6 3.0 2
  247.7 3.12 3
  247.8 3.12 3
  247.9 3.03 3
  248.0 2.98 2
  248.1 3.05 3
  248.2 3.16 3
  248.3 3.2 3
  248.4 3.14 3
  248.5 2.99 2
  248.6 2.84 2
  248.7 2.84 2
  248.8 3.01 3
  248.9 3.2 3
  249.0 3.19 3
  249.1 2.98 2
  249.2 2.74 2
  249.3 2.62 2
  249.4 2.69 2
  249.5 2.94 2
  249.6 3.28 3
  249.7 3.5 3
  249.8 3.44 3
  249.9 3.14 3
  250.0 2.85 2
  250.1 2.74 2
  250.2 2.8 2
  250.3 2.92 2
  250.4 3.03 3
  250.5 3.1 3
  250.6 3.1 3
  250.7 3.08 3
  250.8 3.1 3
  250.9 3.15 3
  251.0 3.12 3
  251.1 2.95 2
  251.2 2.79 2
  251.3 2.79 2
  251.4 2.93 2
  251.5 3.06 3
  251.6 3.07 3
  251.7 2.99 2
  251.8 2.88 2
  251.9 2.78 2
  252.0 2.77 2
  252.1 2.86 2
  252.2 3.02 3
  252.3 3.17 3
  252.4 3.23 3
  252.5 3.21 3
  252.6 3.15 3
  252.7 3.08 3
  252.8 3.03 3
  252.9 3.04 3
  253.0 3.12 3
  253.1 3.24 3
  253.2 3.35 3
  253.3 3.34 3
  253.4 3.2 3
  253.5 3.03 3
  253.6 2.95 2
  253.7 2.99 2
  253.8 3.09 3
  253.9 3.2 3
  254.0 3.28 3
  254.1 3.27 3
  254.2 3.21 3
  254.3 3.17 3
  254.4 3.21 3
  254.5 3.23 3
  254.6 3.11 3
  254.7 2.88 2
  254.8 2.72 2
  254.9 2.75 2
  255.0 2.94 2
  255.1 3.11 3
  255.2 3.17 3
  255.3 3.13 3
  255.4 3.04 3
  255.5 2.93 2
  255.6 2.86 2
  255.7 2.86 2
  255.8 2.9 2
  255.9 2.93 2
  256.0 2.89 2
  256.1 2.84 2
  256.2 2.83 2
  256.3 2.83 2
  256.4 2.8 2
  256.5 2.79 2
  256.6 2.89 2
  256.7 3.05 3
  256.8 3.15 3
  256.9 3.12 3
  257.0 3.07 3
  257.1 3.11 3
  257.2 3.25 3
  257.3 3.45 3
  257.4 3.6 3
  257.5 3.6 3
  257.6 3.44 3
  257.7 3.19 3
  257.8 3.01 3
  257.9 2.98 2
  258.0 3.09 3
  258.1 3.24 3
  258.2 3.35 3
  258.3 3.35 3
  258.4 3.22 3
  258.5 3.05 3
  258.6 2.95 2
  258.7 3.0 2
  258.8 3.12 3
  258.9 3.23 3
  259.0 3.27 3
  259.1 3.28 3
  259.2 3.25 3
  259.3 3.17 3
  259.4 3.07 3
  259.5 2.99 2
  259.6 2.94 2
  259.7 2.87 2
  259.8 2.8 2
  259.9 2.8 2
  260.0 2.92 2
  260.1 3.1 3
  260.2 3.27 3
  260.3 3.34 3
  260.4 3.27 3
  260.5 3.07 3
  260.6 2.89 2
  260.7 2.83 2
  260.8 2.9 2
  260.9 2.98 2
  261.0 3.03 3
  261.1 3.03 3
  261.2 2.98 2
  261.3 2.88 2
  261.4 2.77 2
  261.5 2.74 2
  261.6 2.83 2
  261.7 3.02 3
  261.8 3.22 3
  261.9 3.33 3
  262.0 3.25 3
  262.1 3.0 2
  262.2 2.81 2
  262.3 2.84 2
  262.4 3.08 3
  262.5 3.35 3
  262.6 3.49 3
  262.7 3.4 3
  262.8 3.13 3
  262.9 2.88 2
  263.0 2.83 2
  263.1 2.96 2
  263.2 3.16 3
  263.3 3.36 3
  263.4 3.53 3
  263.5 3.56 3
  263.6 3.42 3
  263.7 3.26 3
  263.8 3.19 3
  263.9 3.22 3
  264.0 3.27 3
  264.1 3.31 3
  264.2 3.31 3
  264.3 3.22 3
  264.4 3.1 3
  264.5 3.01 3
  264.6 2.97 2
  264.7 2.99 2
  264.8 3.09 3
  264.9 3.27 3
  265.0 3.42 3
  265.1 3.48 3
  265.2 3.49 3
  265.3 3.49 3
  265.4 3.44 3
  265.5 3.3 3
  265.6 3.13 3
  265.7 3.05 3
  265.8 3.09 3
  265.9 3.13 3
  266.0 3.06 3
  266.1 2.96 2
  266.2 2.94 2
  266.3 3.01 3
  266.4 3.08 3
  266.5 3.11 3
  266.6 3.15 3
  266.7 3.27 3
  266.8 3.4 3
  266.9 3.44 3
  267.0 3.35 3
  267.1 3.19 3
  267.2 3.08 3
  267.3 3.06 3
  267.4 3.08 3
  267.5 3.09 3
  267.6 3.09 3
  267.7 3.12 3
  267.8 3.19 3
  267.9 3.29 3
  268.0 3.36 3
  268.1 3.4 3
  268.2 3.39 3
  268.3 3.34 3
  268.4 3.27 3
  268.5 3.2 3
  268.6 3.15 3
  268.7 3.14 3
  268.8 3.19 3
  268.9 3.28 3
  269.0 3.35 3
  269.1 3.36 3
  269.2 3.31 3
  269.3 3.26 3
  269.4 3.26 3
  269.5 3.23 3
  269.6 3.12 3
  269.7 3.02 3
  269.8 3.04 3
  269.9 3.14 3
  270.0 3.16 3
  270.1 3.05 3
  270.2 2.93 2
  270.3 2.96 2
  270.4 3.12 3
  270.5 3.25 3
  270.6 3.22 3
  270.7 3.05 3
  270.8 2.89 2
  270.9 2.87 2
  271.0 2.93 2
  271.1 2.95 2
  271.2 2.93 2
  271.3 2.97 2
  271.4 3.11 3
  271.5 3.3 3
  271.6 3.44 3
  271.7 3.49 3
  271.8 3.43 3
  271.9 3.27 3
  272.0 3.07 3
  272.1 2.92 2
  272.2 2.9 2
  272.3 2.94 2
  272.4 2.95 2
  272.5 2.9 2
  272.6 2.85 2
  272.7 2.84 2
  272.8 2.9 2
  272.9 3.05 3
  273.0 3.27 3
  273.1 3.42 3
  273.2 3.42 3
  273.3 3.26 3
  273.4 3.06 3
  273.5 2.93 2
  273.6 2.92 2
  273.7 2.97 2
  273.8 3.04 3
  273.9 3.09 3
  274.0 3.17 3
  274.1 3.28 3
  274.2 3.36 3
  274.3 3.35 3
  274.4 3.21 3
  274.5 3.05 3
  274.6 3.04 3
  274.7 3.21 3
  274.8 3.39 3
  274.9 3.43 3
  275.0 3.33 3
  275.1 3.19 3
  275.2 3.12 3
  275.3 3.11 3
  275.4 3.14 3
  275.5 3.13 3
  275.6 3.06 3
  275.7 2.98 2
  275.8 2.98 2
  275.9 3.13 3
  276.0 3.33 3
  276.1 3.41 3
  276.2 3.31 3
  276.3 3.12 3
  276.4 3.03 3
  276.5 3.09 3
  276.6 3.18 3
  276.7 3.23 3
  276.8 3.24 3
  276.9 3.28 3
  277.0 3.33 3
  277.1 3.32 3
  277.2 3.2 3
  277.3 3.04 3
  277.4 2.95 2
  277.5 3.0 2
  277.6 3.13 3
  277.7 3.18 3
  277.8 3.12 3
  277.9 3.08 3
  278.0 3.16 3
  278.1 3.31 3
  278.2 3.4 3
  278.3 3.4 3
  278.4 3.32 3
  278.5 3.19 3
  278.6 3.06 3
  278.7 3.05 3
  278.8 3.2 3
  278.9 3.38 3
  279.0 3.42 3
  279.1 3.31 3
  279.2 3.19 3
  279.3 3.17 3
  279.4 3.22 3
  279.5 3.29 3
  279.6 3.35 3
  279.7 3.4 3
  279.8 3.38 3
  279.9 3.26 3
  280.0 3.08 3
  280.1 2.95 2
  280.2 2.92 2
  280.3 3.02 3
  280.4 3.19 3
  280.5 3.32 3
  280.6 3.3 3
  280.7 3.21 3
  280.8 3.2 3
  280.9 3.33 3
  281.0 3.48 3
  281.1 3.56 3
  281.2 3.53 3
  281.3 3.42 3
  281.4 3.27 3
  281.5 3.15 3
  281.6 3.09 3
  281.7 3.05 3
  281.8 2.94 2
  281.9 2.81 2
  282.0 2.79 2
  282.1 2.95 2
  282.2 3.19 3
  282.3 3.33 3
  282.4 3.26 3
  282.5 3.06 3
  282.6 2.91 2
  282.7 2.93 2
  282.8 3.09 3
  282.9 3.26 3
  283.0 3.34 3
  283.1 3.3 3
  283.2 3.19 3
  283.3 3.06 3
  283.4 2.94 2
  283.5 2.85 2
  283.6 2.85 2
  283.7 2.92 2
  283.8 2.99 2
  283.9 2.98 2
  284.0 2.93 2
  284.1 2.95 2
  284.2 3.05 3
  284.3 3.15 3
  284.4 3.2 3
  284.5 3.23 3
  284.6 3.29 3
  284.7 3.34 3
  284.8 3.33 3
  284.9 3.29 3
  285.0 3.27 3
  285.1 3.28 3
  285.2 3.26 3
  285.3 3.17 3
  285.4 3.09 3
  285.5 3.07 3
  285.6 3.05 3
  285.7 3.0 2
  285.8 2.95 2
  285.9 3.0 2
  286.0 3.11 3
  286.1 3.15 3
  286.2 3.06 3
  286.3 2.93 2
  286.4 2.86 2
  286.5 2.9 2
  286.6 3.01 3
  286.7 3.14 3
  286.8 3.21 3
  286.9 3.14 3
  287.0 2.96 2
  287.1 2.82 2
  287.2 2.78 2
  287.3 2.77 2
  287.4 2.74 2
  287.5 2.76 2
  287.6 2.86 2
  287.7 3.01 3
  287.8 3.14 3
  287.9 3.2 3
  288.0 3.2 3
  288.1 3.25 3
  288.2 3.4 3
  288.3 3.52 3
  288.4 3.44 3
  288.5 3.18 3
  288.6 2.95 2
  288.7 2.88 2
  288.8 2.91 2
  288.9 2.95 2
  289.0 2.94 2
  289.1 2.97 2
  289.2 3.06 3
  289.3 3.19 3
  289.4 3.27 3
  289.5 3.3 3
  289.6 3.33 3
  289.7 3.4 3
  289.8 3.44 3
  289.9 3.41 3
  290.0 3.34 3
  290.1 3.29 3
  290.2 3.26 3
  290.3 3.26 3
  290.4 3.25 3
  290.5 3.24 3
  290.6 3.22 3
  290.7 3.18 3
  290.8 3.12 3
  290.9 3.09 3
  291.0 3.12 3
  291.1 3.16 3
  291.2 3.15 3
  291.3 3.06 3
  291.4 2.99 2
  291.5 3.03 3
  291.6 3.15 3
  291.7 3.21 3
  291.8 3.14 3
  291.9 2.99 2
  292.0 2.91 2
  292.1 2.94 2
  292.2 3.02 3
  292.3 3.03 3
  292.4 2.95 2
  292.5 2.87 2
  292.6 2.89 2
  292.7 3.02 3
  292.8 3.18 3
  292.9 3.28 3
  293.0 3.29 3
  293.1 3.22 3
  293.2 3.15 3
  293.3 3.16 3
  293.4 3.21 3
  293.5 3.18 3
  293.6 3.06 3
  293.7 2.98 2
  293.8 3.09 3
  293.9 3.3 3
  294.0 3.39 3
  294.1 3.21 3
  294.2 2.85 2
  294.3 2.59 2
  294.4 2.59 2
  294.5 2.86 2
  294.6 3.15 3
  294.7 3.23 3
  294.8 3.08 3
  294.9 2.94 2
  295.0 2.99 2
  295.1 3.13 3
  295.2 3.1 3
  295.3 2.84 2
  295.4 2.6 2
  295.5 2.57 2
  295.6 2.7 2
  295.7 2.87 2
  295.8 3.05 3
  295.9 3.24 3
  296.0 3.35 3
  296.1 3.3 3
  296.2 3.16 3
  296.3 3.04 3
  296.4 2.94 2
  296.5 2.85 2
  296.6 2.83 2
  296.7 2.88 2
  296.8 2.95 2
  296.9 2.94 2
  297.0 2.85 2
  297.1 2.75 2
  297.2 2.71 2
  297.3 2.73 2
  297.4 2.76 2
  297.5 2.79 2
  297.6 2.85 2
  297.7 2.96 2
  297.8 3.03 3
  297.9 2.99 2
  298.0 2.88 2
  298.1 2.85 2
  298.2 2.97 2
  298.3 3.13 3
  298.4 3.16 3
  298.5 3.09 3
  298.6 3.02 3
  298.7 3.05 3
  298.8 3.13 3
  298.9 3.16 3
  299.0 3.07 3
  299.1 2.87 2
  299.2 2.72 2
  299.3 2.78 2
  299.4 3.04 3
  299.5 3.3 3
  299.6 3.35 3
  299.7 3.16 3
  299.8 2.86 2
  299.9 2.63 2
  300.0 2.62 2
  300.1 2.83 2
  300.2 3.1 3
  300.3 3.27 3
  300.4 3.31 3
  300.5 3.29 3
  300.6 3.25 3
  300.7 3.14 3
  300.8 2.94 2
  300.9 2.73 2
  301.0 2.64 2
  301.1 2.78 2
  301.2 3.07 3
  301.3 3.31 3
  301.4 3.39 3
  301.5 3.33 3
  301.6 3.23 3
  301.7 3.14 3
  301.8 3.08 3
  301.9 3.03 3
  302.0 2.94 2
  302.1 2.81 2
  302.2 2.71 2
  302.3 2.75 2
  302.4 2.96 2
  302.5 3.17 3
  302.6 3.21 3
  302.7 3.06 3
  302.8 2.85 2
  302.9 2.78 2
  303.0 2.86 2
  303.1 3.01 3
  303.2 3.15 3
  303.3 3.23 3
  303.4 3.16 3
  303.5 2.95 2
  303.6 2.74 2
  303.7 2.71 2
  303.8 2.88 2
  303.9 3.1 3
  304.0 3.24 3
  304.1 3.27 3
  304.2 3.28 3
  304.3 3.29 3
  304.4 3.26 3
  304.5 3.18 3
  304.6 3.15 3
  304.7 3.22 3
  304.8 3.32 3
  304.9 3.32 3
  305.0 3.2 3
  305.1 3.06 3
  305.2 2.97 2
  305.3 2.96 2
  305.4 3.01 3
  305.5 3.05 3
  305.6 3.0 2
  305.7 2.91 2
  305.8 2.92 2
  305.9 3.04 3
  306.0 3.17 3
  306.1 3.24 3
  306.2 3.28 3
  306.3 3.3 3
  306.4 3.26 3
  306.5 3.18 3
  306.6 3.11 3
  306.7 3.06 3
  306.8 2.98 2
  306.9 2.89 2
  307.0 2.83 2
  307.1 2.84 2
  307.2 2.93 2
  307.3 3.02 3
  307.4 3.05 3
  307.5 3.03 3
  307.6 2.98 2
  307.7 2.97 2
  307.8 3.03 3
  307.9 3.2 3
  308.0 3.36 3
  308.1 3.33 3
  308.2 3.14 3
  308.3 2.95 2
  308.4 2.87 2
  308.5 2.84 2
  308.6 2.84 2
  308.7 2.92 2
  308.8 3.07 3
  308.9 3.2 3
  309.0 3.19 3
  309.1 3.05 3
  309.2 2.9 2
  309.3 2.87 2
  309.4 2.97 2
  309.5 3.08 3
  309.6 3.05 3
  309.7 2.88 2
  309.8 2.7 2
  309.9 2.69 2
  310.0 2.86 2
  310.1 3.08 3
  310.2 3.2 3
  310.3 3.16 3
  310.4 3.01 3
  310.5 2.86 2
  310.6 2.8 2
  310.7 2.83 2
  310.8 2.93 2
  310.9 3.01 3
  311.0 3.04 3
  311.1 3.03 3
  311.2 3.03 3
  311.3 3.04 3
  311.4 3.03 3
  311.5 3.0 2
  311.6 3.02 3
  311.7 3.11 3
  311.8 3.22 3
  311.9 3.27 3
  312.0 3.24 3
  312.1 3.19 3
  312.2 3.14 3
  312.3 3.1 3
  312.4 3.07 3
  312.5 3.1 3
  312.6 3.14 3
  312.7 3.08 3
  312.8 2.88 2
  312.9 2.71 2
  313.0 2.74 2
  313.1 2.96 2
  313.2 3.19 3
  313.3 3.29 3
  313.4 3.29 3
  313.5 3.22 3
  313.6 3.09 3
  313.7 2.94 2
  313.8 2.83 2
  313.9 2.85 2
  314.0 2.95 2
  314.1 3.0 2
  314.2 2.93 2
  314.3 2.83 2
  314.4 2.83 2
  314.5 2.95 2
  314.6 3.08 3
  314.7 3.14 3
  314.8 3.14 3
  314.9 3.17 3
  315.0 3.2 3
  315.1 3.17 3
  315.2 3.07 3
  315.3 2.98 2
  315.4 2.95 2
  315.5 2.97 2
  315.6 3.02 3
  315.7 3.06 3
  315.8 3.09 3
  315.9 3.13 3
  316.0 3.19 3
  316.1 3.3 3
  316.2 3.36 3
  316.3 3.31 3
  316.4 3.19 3
  316.5 3.07 3
  316.6 3.0 2
  316.7 3.01 3
  316.8 3.1 3
  316.9 3.24 3
  317.0 3.3 3
  317.1 3.24 3
  317.2 3.14 3
  317.3 3.09 3
  317.4 3.13 3
  317.5 3.2 3
  317.6 3.21 3
  317.7 3.17 3
  317.8 3.11 3
  317.9 3.06 3
  318.0 3.02 3
  318.1 2.98 2
  318.2 2.97 2
  318.3 3.05 3
  318.4 3.13 3
  318.5 3.14 3
  318.6 3.05 3
  318.7 2.97 2
  318.8 2.95 2
  318.9 2.97 2
  319.0 3.04 3
  319.1 3.18 3
  319.2 3.33 3
  319.3 3.37 3
  319.4 3.27 3
  319.5 3.15 3
  319.6 3.07 3
  319.7 3.0 2
  319.8 2.96 2
  319.9 3.01 3
  320.0 3.16 3
  320.1 3.24 3
  320.2 3.17 3
  320.3 3.02 3
  320.4 2.92 2
  320.5 2.92 2
  320.6 3.01 3
  320.7 3.18 3
  320.8 3.32 3
  320.9 3.29 3
  321.0 3.08 3
  321.1 2.87 2
  321.2 2.84 2
  321.3 2.98 2
  321.4 3.12 3
  321.5 3.17 3
  321.6 3.14 3
  321.7 3.17 3
  321.8 3.29 3
  321.9 3.39 3
  322.0 3.36 3
  322.1 3.2 3
  322.2 3.05 3
  322.3 3.02 3
  322.4 3.11 3
  322.5 3.21 3
  322.6 3.25 3
  322.7 3.19 3
  322.8 3.06 3
  322.9 2.94 2
  323.0 2.85 2
  323.1 2.84 2
  323.2 2.92 2
  323.3 3.05 3
  323.4 3.18 3
  323.5 3.23 3
  323.6 3.22 3
  323.7 3.19 3
  323.8 3.21 3
  323.9 3.22 3
  324.0 3.17 3
  324.1 3.05 3
  324.2 2.95 2
  324.3 2.91 2
  324.4 2.93 2
  324.5 2.97 2
  324.6 3.01 3
  324.7 3.02 3
  324.8 2.99 2
  324.9 3.02 3
  325.0 3.12 3
  325.1 3.19 3
  325.2 3.17 3
  325.3 3.09 3
  325.4 3.01 3
  325.5 2.9 2
  325.6 2.81 2
  325.7 2.82 2
  325.8 2.96 2
  325.9 3.09 3
  326.0 3.09 3
  326.1 3.01 3
  326.2 2.97 2
  326.3 2.99 2
  326.4 3.05 3
  326.5 3.16 3
  326.6 3.27 3
  326.7 3.33 3
  326.8 3.32 3
  326.9 3.3 3
  327.0 3.28 3
  327.1 3.19 3
  327.2 3.05 3
  327.3 2.92 2
  327.4 2.93 2
  327.5 3.07 3
  327.6 3.26 3
  327.7 3.34 3
  327.8 3.22 3
  327.9 2.98 2
  328.0 2.78 2
  328.1 2.76 2
  328.2 2.85 2
  328.3 2.97 2
  328.4 3.08 3
  328.5 3.15 3
  328.6 3.17 3
  328.7 3.17 3
  328.8 3.21 3
  328.9 3.3 3
  329.0 3.39 3
  329.1 3.42 3
  329.2 3.37 3
  329.3 3.26 3
  329.4 3.11 3
  329.5 3.0 2
  329.6 2.95 2
  329.7 2.99 2
  329.8 3.13 3
  329.9 3.27 3
  330.0 3.28 3
  330.1 3.2 3
  330.2 3.18 3
  330.3 3.28 3
  330.4 3.34 3
  330.5 3.23 3
  330.6 3.02 3
  330.7 2.92 2
  330.8 3.01 3
  330.9 3.19 3
  331.0 3.33 3
  331.1 3.34 3
  331.2 3.28 3
  331.3 3.25 3
  331.4 3.27 3
  331.5 3.28 3
  331.6 3.23 3
  331.7 3.13 3
  331.8 3.07 3
  331.9 3.13 3
  332.0 3.28 3
  332.1 3.35 3
  332.2 3.22 3
  332.3 3.01 3
  332.4 2.93 2
  332.5 3.01 3
  332.6 3.08 3
  332.7 3.03 3
  332.8 2.97 2
  332.9 2.99 2
  333.0 3.1 3
  333.1 3.17 3
  333.2 3.14 3
  333.3 3.05 3
  333.4 3.0 2
  333.5 3.07 3
  333.6 3.23 3
  333.7 3.36 3
  333.8 3.36 3
  333.9 3.22 3
  334.0 3.04 3
  334.1 2.93 2
  334.2 2.91 2
  334.3 2.94 2
  334.4 2.98 2
  334.5 3.04 3
  334.6 3.22 3
  334.7 3.5 3
  334.8 3.68 3
  334.9 3.59 3
  335.0 3.31 3
  335.1 3.13 3
  335.2 3.12 3
  335.3 3.18 3
  335.4 3.21 3
  335.5 3.2 3
  335.6 3.16 3
  335.7 3.14 3
  335.8 3.2 3
  335.9 3.35 3
  336.0 3.44 3
  336.1 3.35 3
  336.2 3.19 3
  336.3 3.11 3
  336.4 3.11 3
  336.5 3.13 3
  336.6 3.14 3
  336.7 3.21 3
  336.8 3.31 3
  336.9 3.34 3
  337.0 3.21 3
  337.1 2.98 2
  337.2 2.84 2
  337.3 2.89 2
  337.4 3.09 3
  337.5 3.26 3
  337.6 3.31 3
  337.7 3.23 3
  337.8 3.12 3
  337.9 3.05 3
  338.0 3.01 3
  338.1 3.02 3
  338.2 3.03 3
  338.3 2.98 2
  338.4 2.87 2
  338.5 2.81 2
  338.6 2.88 2
  338.7 3.1 3
  338.8 3.36 3
  338.9 3.45 3
  339.0 3.35 3
  339.1 3.17 3
  339.2 3.06 3
  339.3 3.04 3
  339.4 3.04 3
  339.5 3.05 3
  339.6 3.09 3
  339.7 3.2 3
  339.8 3.29 3
  339.9 3.24 3
  340.0 3.07 3
  340.1 2.93 2
  340.2 2.95 2
  340.3 3.07 3
  340.4 3.22 3
  340.5 3.3 3
  340.6 3.28 3
  340.7 3.15 3
  340.8 2.98 2
  340.9 2.91 2
  341.0 2.99 2
  341.1 3.16 3
  341.2 3.31 3
  341.3 3.32 3
  341.4 3.19 3
  341.5 3.0 2
  341.6 2.85 2
  341.7 2.85 2
  341.8 2.98 2
  341.9 3.12 3
  342.0 3.18 3
  342.1 3.13 3
  342.2 3.07 3
  342.3 3.1 3
  342.4 3.19 3
  342.5 3.24 3
  342.6 3.16 3
  342.7 3.03 3
  342.8 2.99 2
  342.9 3.1 3
  343.0 3.28 3
  343.1 3.37 3
  343.2 3.3 3
  343.3 3.13 3
  343.4 2.99 2
  343.5 2.97 2
  343.6 3.02 3
  343.7 3.1 3
  343.8 3.19 3
  343.9 3.26 3
  344.0 3.27 3
  344.1 3.21 3
  344.2 3.11 3
  344.3 2.95 2
  344.4 2.74 2
  344.5 2.6 2
  344.6 2.67 2
  344.7 2.99 2
  344.8 3.38 3
  344.9 3.62 3
  345.0 3.64 3
  345.1 3.51 3
  345.2 3.3 3
  345.3 3.11 3
  345.4 3.02 3
  345.5 3.07 3
  345.6 3.19 3
  345.7 3.24 3
  345.8 3.19 3
  345.9 3.14 3
  346.0 3.19 3
  346.1 3.28 3
  346.2 3.3 3
  346.3 3.29 3
  346.4 3.32 3
  346.5 3.4 3
  346.6 3.42 3
  346.7 3.34 3
  346.8 3.26 3
  346.9 3.26 3
  347.0 3.28 3
  347.1 3.24 3
  347.2 3.16 3
  347.3 3.18 3
  347.4 3.27 3
  347.5 3.35 3
  347.6 3.33 3
  347.7 3.2 3
  347.8 3.03 3
  347.9 2.95 2
  348.0 3.0 2
  348.1 3.08 3
  348.2 3.05 3
  348.3 2.94 2
  348.4 2.88 2
  348.5 2.97 2
  348.6 3.11 3
  348.7 3.19 3
  348.8 3.18 3
  348.9 3.13 3
  349.0 3.09 3
  349.1 3.04 3
  349.2 2.94 2
  349.3 2.82 2
  349.4 2.79 2
  349.5 2.95 2
  349.6 3.22 3
  349.7 3.43 3
  349.8 3.49 3
  349.9 3.42 3
  350.0 3.31 3
  350.1 3.16 3
  350.2 3.01 3
  350.3 2.88 2
  350.4 2.82 2
  350.5 2.81 2
  350.6 2.91 2
  350.7 3.12 3
  350.8 3.3 3
  350.9 3.3 3
  351.0 3.15 3
  351.1 3.04 3
  351.2 3.07 3
  351.3 3.12 3
  351.4 3.06 3
  351.5 2.97 2
  351.6 2.96 2
  351.7 3.0 2
  351.8 3.02 3
  351.9 2.96 2
  352.0 2.92 2
  352.1 3.0 2
  352.2 3.19 3
  352.3 3.31 3
  352.4 3.22 3
  352.5 2.99 2
  352.6 2.78 2
  352.7 2.75 2
  352.8 2.86 2
  352.9 3.02 3
  353.0 3.16 3
  353.1 3.24 3
  353.2 3.25 3
  353.3 3.18 3
  353.4 3.06 3
  353.5 3.0 2
  353.6 3.05 3
  353.7 3.11 3
  353.8 3.12 3
  353.9 3.06 3
  354.0 3.01 3
  354.1 2.97 2
  354.2 2.9 2
  354.3 2.85 2
  354.4 2.88 2
  354.5 2.99 2
  354.6 3.12 3
  354.7 3.21 3
  354.8 3.22 3
  354.9 3.18 3
  355.0 3.09 3
  355.1 2.96 2
  355.2 2.85 2
  355.3 2.83 2
  355.4 2.93 2
  355.5 3.05 3
  355.6 3.14 3
  355.7 3.17 3
  355.8 3.17 3
  355.9 3.17 3
  356.0 3.21 3
  356.1 3.25 3
  356.2 3.25 3
  356.3 3.21 3
  356.4 3.13 3
  356.5 3.04 3
  356.6 3.02 3
  356.7 3.09 3
  356.8 3.19 3
  356.9 3.2 3
  357.0 3.15 3
  357.1 3.11 3
  357.2 3.09 3
  357.3 3.12 3
  357.4 3.23 3
  357.5 3.38 3
  357.6 3.44 3
  357.7 3.41 3
  357.8 3.35 3
  357.9 3.31 3
  358.0 3.22 3
  358.1 3.11 3
  358.2 3.06 3
  358.3 3.11 3
  358.4 3.19 3
  358.5 3.26 3
  358.6 3.28 3
  358.7 3.25 3
  358.8 3.14 3
  358.9 3.0 2
  359.0 2.88 2
  359.1 2.8 2
  359.2 2.77 2
  359.3 2.78 2
  359.4 2.84 2
  359.5 2.94 2
  359.6 3.06 3
  359.7 3.17 3
  359.8 3.25 3
  359.9 3.27 3
  360.0 3.22 3
  360.1 3.13 3
  360.2 3.09 3
  360.3 3.1 3
  360.4 3.1 3
  360.5 3.04 3
  360.6 2.95 2
  360.7 2.95 2
  360.8 3.09 3
  360.9 3.3 3
  361.0 3.41 3
  361.1 3.38 3
  361.2 3.25 3
  361.3 3.09 3
  361.4 2.94 2
  361.5 2.85 2
  361.6 2.9 2
  361.7 3.06 3
  361.8 3.19 3
  361.9 3.23 3
  362.0 3.25 3
  362.1 3.34 3
  362.2 3.43 3
  362.3 3.35 3
  362.4 3.07 3
  362.5 2.78 2
  362.6 2.71 2
  362.7 2.93 2
  362.8 3.21 3
  362.9 3.29 3
  363.0 3.15 3
  363.1 2.98 2
  363.2 2.96 2
  363.3 3.03 3
  363.4 3.06 3
  363.5 3.01 3
  363.6 2.9 2
  363.7 2.76 2
  363.8 2.64 2
  363.9 2.59 2
  364.0 2.62 2
  364.1 2.68 2
  364.2 2.76 2
  364.3 2.83 2
  364.4 2.91 2
  364.5 2.94 2
  364.6 2.89 2
  364.7 2.82 2
  364.8 2.77 2
  364.9 2.74 2
  365.0 2.7 2
  365.1 2.67 2
  365.2 2.73 2
  365.3 2.97 2
  365.4 3.31 3
  365.5 3.55 3
  365.6 3.54 3
  365.7 3.26 3
  365.8 2.92 2
  365.9 2.69 2
  366.0 2.63 2
  366.1 2.62 2
  366.2 2.62 2
  366.3 2.7 2
  366.4 2.91 2
  366.5 3.17 3
  366.6 3.29 3
  366.7 3.23 3
  366.8 3.1 3
  366.9 3.0 2
  367.0 3.01 3
  367.1 3.06 3
  367.2 3.06 3
  367.3 2.95 2
  367.4 2.82 2
  367.5 2.8 2
  367.6 2.92 2
  367.7 3.06 3
  367.8 3.16 3
  367.9 3.21 3
  368.0 3.22 3
  368.1 3.2 3
  368.2 3.14 3
  368.3 3.06 3
  368.4 2.98 2
  368.5 2.93 2
  368.6 2.93 2
  368.7 2.96 2
  368.8 2.97 2
  368.9 2.91 2
  369.0 2.82 2
  369.1 2.8 2
  369.2 2.88 2
  369.3 3.05 3
  369.4 3.19 3
  369.5 3.2 3
  369.6 3.12 3
  369.7 3.05 3
  369.8 3.05 3
  369.9 3.03 3
  370.0 2.95 2
  370.1 2.9 2
  370.2 3.0 2
  370.3 3.18 3
  370.4 3.28 3
  370.5 3.2 3
  370.6 3.03 3
  370.7 2.88 2
  370.8 2.8 2
  370.9 2.76 2
  371.0 2.76 2
  371.1 2.88 2
  371.2 3.09 3
  371.3 3.25 3
  371.4 3.26 3
  371.5 3.14 3
  371.6 3.0 2
  371.7 2.89 2
  371.8 2.79 2
  371.9 2.72 2
  372.0 2.74 2
  372.1 2.88 2
  372.2 3.08 3
  372.3 3.22 3
  372.4 3.23 3
  372.5 3.19 3
  372.6 3.18 3
  372.7 3.23 3
  372.8 3.27 3
  372.9 3.24 3
  373.0 3.19 3
  373.1 3.12 3
  373.2 3.04 3
  373.3 2.97 2
  373.4 2.99 2
  373.5 3.05 3
  373.6 3.05 3
  373.7 2.95 2
  373.8 2.85 2
  373.9 2.9 2
  374.0 3.02 3
  374.1 3.1 3
  374.2 3.07 3
  374.3 3.0 2
  374.4 2.95 2
  374.5 2.94 2
  374.6 2.98 2
  374.7 3.12 3
  374.8 3.31 3
  374.9 3.46 3
  375.0 3.41 3
  375.1 3.12 3
  375.2 2.68 2
  375.3 2.33 2
  375.4 2.26 2
  375.5 2.46 2
  375.6 2.8 2
  375.7 3.14 3
  375.8 3.37 3
  375.9 3.47 3
  376.0 3.41 3
  376.1 3.23 3
  376.2 3.04 3
  376.3 2.94 2
  376.4 2.93 2
  376.5 2.96 2
  376.6 3.05 3
  376.7 3.16 3
  376.8 3.2 3
  376.9 3.11 3
  377.0 2.98 2
  377.1 2.92 2
  377.2 2.96 2
  377.3 3.05 3
  377.4 3.15 3
  377.5 3.24 3
  377.6 3.26 3
  377.7 3.19 3
  377.8 3.05 3
  377.9 2.93 2
  378.0 2.85 2
  378.1 2.83 2
  378.2 2.89 2
  378.3 3.01 3
  378.4 3.11 3
  378.5 3.12 3
  378.6 3.07 3
  378.7 3.0 2
  378.8 2.93 2
  378.9 2.88 2
  379.0 2.89 2
  379.1 2.97 2
  379.2 3.08 3
  379.3 3.17 3
  379.4 3.17 3
  379.5 3.09 3
  379.6 2.98 2
  379.7 2.89 2
  379.8 2.83 2
  379.9 2.85 2
  380.0 2.92 2
  380.1 2.97 2
  380.2 2.98 2
  380.3 3.04 3
  380.4 3.27 3
  380.5 3.58 3
  380.6 3.68 3
  380.7 3.48 3
  380.8 3.16 3
  380.9 2.92 2
  381.0 2.82 2
  381.1 2.8 2
  381.2 2.85 2
  381.3 2.95 2
  381.4 3.05 3
  381.5 3.11 3
  381.6 3.17 3
  381.7 3.2 3
  381.8 3.16 3
  381.9 3.09 3
  382.0 3.03 3
  382.1 3.0 2
  382.2 2.95 2
  382.3 2.87 2
  382.4 2.83 2
  382.5 2.88 2
  382.6 3.01 3
  382.7 3.13 3
  382.8 3.18 3
  382.9 3.16 3
  383.0 3.09 3
  383.1 3.07 3
  383.2 3.12 3
  383.3 3.16 3
  383.4 3.11 3
  383.5 3.02 3
  383.6 2.99 2
  383.7 3.05 3
  383.8 3.15 3
  383.9 3.21 3
  384.0 3.22 3
  384.1 3.22 3
  384.2 3.18 3
  384.3 3.06 3
  384.4 2.89 2
  384.5 2.76 2
  384.6 2.75 2
  384.7 2.85 2
  384.8 3.0 2
  384.9 3.14 3
  385.0 3.18 3
  385.1 3.09 3
  385.2 2.96 2
  385.3 2.92 2
  385.4 3.0 2
  385.5 3.1 3
  385.6 3.09 3
  385.7 3.01 3
  385.8 2.99 2
  385.9 3.12 3
  386.0 3.31 3
  386.1 3.38 3
  386.2 3.27 3
  386.3 3.1 3
  386.4 3.02 3
  386.5 3.06 3
  386.6 3.12 3
  386.7 3.11 3
  386.8 3.02 3
  386.9 2.92 2
  387.0 2.9 2
  387.1 3.0 2
  387.2 3.17 3
  387.3 3.34 3
  387.4 3.47 3
  387.5 3.48 3
  387.6 3.38 3
  387.7 3.2 3
  387.8 3.03 3
  387.9 2.96 2
  388.0 2.99 2
  388.1 3.07 3
  388.2 3.11 3
  388.3 3.14 3
  388.4 3.22 3
  388.5 3.36 3
  388.6 3.44 3
  388.7 3.37 3
  388.8 3.22 3
  388.9 3.08 3
  389.0 3.01 3
  389.1 3.0 2
  389.2 3.04 3
  389.3 3.11 3
  389.4 3.19 3
  389.5 3.25 3
  389.6 3.29 3
  389.7 3.34 3
  389.8 3.4 3
  389.9 3.44 3
  390.0 3.44 3
  390.1 3.37 3
  390.2 3.23 3
  390.3 3.1 3
  390.4 3.09 3
  390.5 3.23 3
  390.6 3.37 3
  390.7 3.34 3
  390.8 3.14 3
  390.9 2.96 2
  391.0 2.96 2
  391.1 3.13 3
  391.2 3.32 3
  391.3 3.43 3
  391.4 3.42 3
  391.5 3.33 3
  391.6 3.22 3
  391.7 3.16 3
  391.8 3.13 3
  391.9 3.08 3
  392.0 3.02 3
  392.1 2.99 2
  392.2 3.02 3
  392.3 3.14 3
  392.4 3.28 3
  392.5 3.38 3
  392.6 3.37 3
  392.7 3.26 3
  392.8 3.11 3
  392.9 3.04 3
  393.0 3.07 3
  393.1 3.18 3
  393.2 3.22 3
  393.3 3.15 3
  393.4 3.03 3
  393.5 2.97 2
  393.6 3.0 2
  393.7 3.09 3
  393.8 3.19 3
  393.9 3.26 3
  394.0 3.25 3
  394.1 3.19 3
  394.2 3.12 3
  394.3 3.09 3
  394.4 3.14 3
  394.5 3.23 3
  394.6 3.27 3
  394.7 3.18 3
  394.8 3.06 3
  394.9 3.04 3
  395.0 3.14 3
  395.1 3.19 3
  395.2 3.11 3
  395.3 2.96 2
  395.4 2.88 2
  395.5 2.91 2
  395.6 2.97 2
  395.7 2.99 2
  395.8 2.94 2
  395.9 2.9 2
  396.0 2.97 2
  396.1 3.13 3
  396.2 3.29 3
  396.3 3.37 3
  396.4 3.37 3
  396.5 3.29 3
  396.6 3.16 3
  396.7 3.08 3
  396.8 3.11 3
  396.9 3.18 3
  397.0 3.17 3
  397.1 3.09 3
  397.2 3.08 3
  397.3 3.22 3
  397.4 3.38 3
  397.5 3.36 3
  397.6 3.15 3
  397.7 3.0 2
  397.8 3.03 3
  397.9 3.16 3
  398.0 3.2 3
  398.1 3.11 3
  398.2 3.04 3
  398.3 3.09 3
  398.4 3.22 3
  398.5 3.32 3
  398.6 3.33 3
  398.7 3.28 3
  398.8 3.23 3
  398.9 3.24 3
  399.0 3.28 3
  399.1 3.33 3
  399.2 3.36 3
  399.3 3.37 3
  399.4 3.36 3
  399.5 3.35 3
  399.6 3.37 3
  399.7 3.48 3
  399.8 3.66 3
  399.9 3.81 3
  400.0 3.8 3
  400.1 3.53 3
  400.2 3.11 3
  400.3 2.8 2
  400.4 2.73 2
  400.5 2.81 2
  400.6 2.88 2
  400.7 2.92 2
  400.8 3.0 2
  400.9 3.13 3
  401.0 3.21 3
  401.1 3.21 3
  401.2 3.17 3
  401.3 3.18 3
  401.4 3.24 3
  401.5 3.31 3
  401.6 3.29 3
  401.7 3.19 3
  401.8 3.09 3
  401.9 3.03 3
  402.0 3.03 3
  402.1 3.06 3
  402.2 3.09 3
  402.3 3.08 3
  402.4 3.07 3
  402.5 3.11 3
  402.6 3.17 3
  402.7 3.2 3
  402.8 3.19 3
  402.9 3.2 3
  403.0 3.22 3
  403.1 3.15 3
  403.2 2.98 2
  403.3 2.83 2
  403.4 2.83 2
  403.5 3.03 3
  403.6 3.37 3
  403.7 3.69 3
  403.8 3.81 3
  403.9 3.67 3
  404.0 3.41 3
  404.1 3.2 3
  404.2 3.15 3
  404.3 3.17 3
  404.4 3.15 3
  404.5 3.06 3
  404.6 3.01 3
  404.7 3.04 3
  404.8 3.07 3
  404.9 3.02 3
  405.0 2.9 2
  405.1 2.88 2
  405.2 2.97 2
  405.3 3.11 3
  405.4 3.16 3
  405.5 3.08 3
  405.6 2.93 2
  405.7 2.81 2
  405.8 2.85 2
  405.9 3.03 3
  406.0 3.24 3
  406.1 3.39 3
  406.2 3.4 3
  406.3 3.24 3
  406.4 2.95 2
  406.5 2.67 2
  406.6 2.56 2
  406.7 2.71 2
  406.8 3.02 3
  406.9 3.3 3
  407.0 3.37 3
  407.1 3.23 3
  407.2 3.02 3
  407.3 2.87 2
  407.4 2.83 2
  407.5 2.85 2
  407.6 2.9 2
  407.7 2.98 2
  407.8 3.05 3
  407.9 3.05 3
  408.0 2.94 2
  408.1 2.87 2
  408.2 2.97 2
  408.3 3.21 3
  408.4 3.36 3
  408.5 3.31 3
  408.6 3.15 3
  408.7 3.06 3
  408.8 3.04 3
  408.9 3.05 3
  409.0 3.07 3
  409.1 3.14 3
  409.2 3.24 3
  409.3 3.32 3
  409.4 3.33 3
  409.5 3.26 3
  409.6 3.16 3
  409.7 3.09 3
  409.8 3.1 3
  409.9 3.13 3
  410.0 3.11 3
  410.1 3.07 3
  410.2 3.1 3
  410.3 3.25 3
  410.4 3.38 3
  410.5 3.33 3
  410.6 3.13 3
  410.7 2.9 2
  410.8 2.78 2
  410.9 2.8 2
  411.0 2.99 2
  411.1 3.28 3
  411.2 3.5 3
  411.3 3.51 3
  411.4 3.31 3
  411.5 3.07 3
  411.6 2.98 2
  411.7 3.07 3
  411.8 3.24 3
  411.9 3.34 3
  412.0 3.31 3
  412.1 3.25 3
  412.2 3.2 3
  412.3 3.12 3
  412.4 2.97 2
  412.5 2.83 2
  412.6 2.9 2
  412.7 3.19 3
  412.8 3.52 3
  412.9 3.63 3
  413.0 3.47 3
  413.1 3.21 3
  413.2 3.01 3
  413.3 2.99 2
  413.4 3.15 3
  413.5 3.41 3
  413.6 3.58 3
  413.7 3.54 3
  413.8 3.31 3
  413.9 3.03 3
  414.0 2.85 2
  414.1 2.85 2
  414.2 2.98 2
  414.3 3.15 3
  414.4 3.24 3
  414.5 3.28 3
  414.6 3.31 3
  414.7 3.35 3
  414.8 3.27 3
  414.9 3.04 3
  415.0 2.79 2
  415.1 2.74 2
  415.2 2.92 2
  415.3 3.2 3
  415.4 3.33 3
  415.5 3.22 3
  415.6 2.97 2
  415.7 2.79 2
  415.8 2.79 2
  415.9 2.94 2
  416.0 3.13 3
  416.1 3.23 3
  416.2 3.2 3
  416.3 3.08 3
  416.4 3.02 3
  416.5 3.1 3
  416.6 3.23 3
  416.7 3.28 3
  416.8 3.17 3
  416.9 2.99 2
  417.0 2.88 2
  417.1 2.91 2
  417.2 2.94 2
  417.3 2.87 2
  417.4 2.78 2
  417.5 2.8 2
  417.6 2.97 2
  417.7 3.14 3
  417.8 3.14 3
  417.9 3.02 3
  418.0 2.93 2
  418.1 2.95 2
  418.2 2.99 2
  418.3 2.96 2
  418.4 2.87 2
  418.5 2.82 2
  418.6 2.85 2
  418.7 2.87 2
  418.8 2.85 2
  418.9 2.8 2
  419.0 2.77 2
  419.1 2.84 2
  419.2 3.0 2
  419.3 3.16 3
  419.4 3.22 3
  419.5 3.17 3
  419.6 3.12 3
  419.7 3.14 3
  419.8 3.13 3
  419.9 3.02 3
  420.0 2.9 2
  420.1 2.87 2
  420.2 2.9 2
  420.3 2.94 2
  420.4 2.98 2
  420.5 3.07 3
  420.6 3.17 3
  420.7 3.16 3
  420.8 3.02 3
  420.9 2.81 2
  421.0 2.63 2
  421.1 2.48 2
  421.2 2.41 2
  421.3 2.48 2
  421.4 2.61 2
  421.5 3.23 3
  421.6 6.13 6
  421.7 12.88 12
  421.8 21.61 21
  421.9 26.98 26
  422.0 24.84 24
  422.1 16.67 16
  422.2 8.11 8
  422.3 3.46 3
//
