ACCESSION: MSBNK-RIKEN_NPDepo-NGA00578
RECORD_TITLE: Aconitine; LC-ESI-QQQ; MS2; Frag=135.0V CID@10.0; [M+H]+
DATE: 2018.04.04
AUTHORS: Nogawa T, Okano A, CSRS, RIKEN
LICENSE: CC BY
COMMENT: Origin: Plant
COMMENT: SubCategory_DNP: Terpenoid alkaloids, Diterpene alkaloid, Aconitum alkaloid
CH$NAME: Aconitine
CH$COMPOUND_CLASS: Alkaloids
CH$FORMULA: C34H47NO11
CH$EXACT_MASS: 645.7538
CH$SMILES: CCN1C[C@@]2(COC)C3[C@@H](OC)[C@H]4C1[C@@]3(C1C[C@]3(O)[C@@H](OC)[C@H](O)[C@@]4(OC(C)=O)C1[C@H]3OC(=O)c1ccccc1)[C@@H](OC)C[C@H]2O
CH$IUPAC: InChI=1S/C34H47NO11/c1-7-35-15-31(16-41-3)20(37)13-21(42-4)33-19-14-32(40)28(45-30(39)18-11-9-8-10-12-18)22(19)34(46-17(2)36,27(38)29(32)44-6)23(26(33)35)24(43-5)25(31)33/h8-12,19-29,37-38,40H,7,13-16H2,1-6H3/t19?,20-,21+,22?,23+,24+,25?,26?,27+,28-,29+,31+,32-,33+,34-/m1/s1
CH$LINK: CAS 302-27-2
CH$LINK: CHEMSPIDER 214292
CH$LINK: INCHIKEY XFSBVAOIAHNAPC-DIOAZWHVSA-N
CH$LINK: PUBCHEM CID:6323706
AC$INSTRUMENT: Agilent 6410 Triple Quadrupole LC/MS system
AC$INSTRUMENT_TYPE: LC-ESI-QQQ
AC$MASS_SPECTROMETRY: MS_TYPE MS2
AC$MASS_SPECTROMETRY: ION_MODE POSITIVE
MS$FOCUSED_ION: PRECURSOR_TYPE [M+H]+
PK$SPLASH: splash10-0002-0000009000-5548a4af077880b53e83
PK$NUM_PEAK: 18
PK$PEAK: m/z int. rel.int.
  645.1 0.99 0
  645.2 1.97 1
  645.3 3.84 3
  645.4 6.84 6
  645.5 11.33 11
  645.6 18.23 18
  645.7 29.12 29
  645.8 44.82 44
  645.9 63.75 63
  646.0 82.0 81
  646.1 95.19 95
  646.2 100.0 99
  646.3 94.24 94
  646.4 77.55 77
  646.5 53.19 53
  646.6 28.2 28
  646.7 9.67 9
  646.8 0.72 0
//
