ACCESSION: MSBNK-RIKEN_NPDepo-NGA04128
RECORD_TITLE: Hupehemonoside; LC-ESI-QQQ; MS2; Frag=135.0V CID@25.0; [M+HCOO]-
DATE: 2018.04.04
AUTHORS: Nogawa T, Okano A, CSRS, RIKEN
LICENSE: CC BY
COMMENT: Origin: Plant
COMMENT: SubCategory_DNP: Steroidal alkaloids, Cevanine alkaloids
CH$NAME: Hupehemonoside
CH$COMPOUND_CLASS: Alkaloids
CH$FORMULA: C33H53NO8
CH$EXACT_MASS: 591.7923
CH$SMILES: CC1CC[C@@H]2N(C1)CC1C(CC[C@H]3[C@@H]4CC(=O)[C@H]5CC(O[C@@H]6O[C@H](CO)[C@@H](O)[C@H](O)[C@H]6O)CC[C@]5(C)[C@H]4C[C@@H]13)[C@]2(C)O
CH$IUPAC: InChI=1S/C33H53NO8/c1-16-4-7-27-33(3,40)22-6-5-18-19(21(22)14-34(27)13-16)11-23-20(18)12-25(36)24-10-17(8-9-32(23,24)2)41-31-30(39)29(38)28(37)26(15-35)42-31/h16-24,26-31,35,37-40H,4-15H2,1-3H3/t16?,17?,18-,19-,20+,21?,22?,23+,24-,26-,27+,28-,29+,30-,31-,32-,33+/m1/s1
CH$LINK: CAS 143120-88-1
CH$LINK: CHEMSPIDER 117023
CH$LINK: INCHIKEY DHQFYEJMFMYGCV-CRPZZPISSA-N
AC$INSTRUMENT: Agilent 6410 Triple Quadrupole LC/MS system
AC$INSTRUMENT_TYPE: LC-ESI-QQQ
AC$MASS_SPECTROMETRY: MS_TYPE MS2
AC$MASS_SPECTROMETRY: ION_MODE NEGATIVE
MS$FOCUSED_ION: PRECURSOR_TYPE [M+HCOO]-
PK$SPLASH: splash10-03di-4888978800-6b5e6de73756e5f37260
PK$NUM_PEAK: 4954
PK$PEAK: m/z int. rel.int.
  51.0 9.53 9
  51.1 10.86 10
  51.2 11.58 11
  51.3 11.14 11
  51.4 10.34 10
  51.5 11.01 10
  51.6 13.69 13
  51.7 16.25 16
  51.8 16.11 16
  51.9 13.67 13
  52.7 12.21 12
  52.8 13.87 13
  52.9 15.63 15
  53.0 16.11 16
  53.1 14.52 14
  53.2 11.77 11
  53.4 10.58 10
  53.5 13.06 13
  53.6 15.13 15
  53.7 14.87 14
  53.8 12.69 12
  53.9 10.58 10
  54.1 9.99 9
  54.2 10.95 10
  54.3 11.71 11
  54.4 11.16 11
  55.2 8.5 8
  55.3 9.46 9
  55.4 10.95 10
  55.5 12.54 12
  55.6 13.34 13
  55.7 13.39 13
  55.8 13.72 13
  55.9 14.91 14
  56.0 16.2 16
  56.1 16.7 16
  56.2 15.96 15
  56.3 14.28 14
  57.4 9.14 9
  57.5 10.38 10
  57.6 11.99 11
  57.7 13.82 13
  57.8 15.61 15
  57.9 17.01 16
  58.0 16.99 16
  58.1 14.39 14
  58.2 9.51 9
  58.4 3.51 3
  58.5 6.35 6
  58.6 11.06 11
  58.7 14.48 14
  58.8 14.74 14
  58.9 12.39 12
  59.2 9.31 9
  59.3 11.32 11
  59.4 13.52 13
  59.5 15.22 15
  59.6 15.39 15
  59.7 13.41 13
  59.8 10.53 10
  60.0 10.2 10
  60.1 11.4 11
  60.2 11.69 11
  60.3 11.6 11
  60.4 12.1 12
  60.5 13.08 13
  60.6 14.0 13
  60.7 14.11 14
  60.8 12.47 12
  61.0 8.02 8
  61.1 10.42 10
  61.2 16.09 16
  61.3 21.7 21
  61.4 23.79 23
  61.5 20.87 20
  61.6 14.63 14
  61.9 10.2 10
  62.0 13.28 13
  62.1 14.26 14
  62.2 13.78 13
  62.3 14.26 14
  62.4 16.53 16
  62.5 18.56 18
  62.6 18.08 18
  62.7 15.29 15
  62.8 12.43 12
  63.1 10.66 10
  63.2 12.32 12
  63.3 15.42 15
  63.4 17.79 17
  63.5 17.31 17
  64.3 9.09 9
  64.4 11.1 11
  64.5 11.34 11
  64.6 10.79 10
  64.7 11.71 11
  64.8 14.11 14
  64.9 16.16 16
  65.0 16.48 16
  65.1 15.22 15
  65.4 11.58 11
  65.5 14.41 14
  65.6 17.6 17
  65.7 17.73 17
  65.8 14.39 14
  65.9 10.25 10
  66.2 6.91 6
  66.3 9.03 9
  66.4 12.17 12
  66.5 14.48 14
  66.6 14.33 14
  66.9 11.38 11
  67.0 13.56 13
  67.1 14.7 14
  67.2 13.74 13
  67.3 11.99 11
  67.6 11.49 11
  67.7 12.78 12
  67.8 14.41 14
  67.9 15.26 15
  68.0 14.09 14
  68.1 10.9 10
  68.4 7.15 7
  68.5 9.59 9
  68.6 11.4 11
  68.7 11.82 11
  68.8 11.38 11
  68.9 10.99 10
  69.0 11.01 10
  69.1 11.84 11
  69.2 14.0 13
  69.3 16.7 16
  69.4 17.38 17
  69.5 14.26 14
  69.6 9.16 9
  70.1 10.4 10
  70.2 10.55 10
  70.3 12.34 12
  70.4 15.44 15
  70.5 16.75 16
  70.6 15.15 15
  71.3 7.28 7
  71.4 9.29 9
  71.5 9.86 9
  71.6 9.4 9
  71.7 10.64 10
  71.8 14.22 14
  71.9 17.16 17
  72.0 16.7 16
  72.1 13.63 13
  72.2 10.66 10
  74.3 7.54 7
  74.4 9.05 9
  74.5 12.89 12
  74.6 16.18 16
  74.7 15.72 15
  75.7 8.46 8
  75.8 10.1 10
  75.9 12.36 12
  76.0 14.35 14
  76.1 15.72 15
  76.2 16.35 16
  76.3 15.87 15
  76.4 14.35 14
  76.5 12.63 12
  76.8 11.21 11
  76.9 12.28 12
  77.0 14.11 14
  77.1 14.78 14
  77.2 13.06 13
  77.3 10.47 10
  77.8 10.14 10
  77.9 11.23 11
  78.0 12.58 12
  78.1 13.58 13
  78.2 13.85 13
  78.3 12.76 12
  78.6 10.34 10
  78.7 11.88 11
  78.8 12.73 12
  78.9 12.54 12
  79.0 11.64 11
  79.1 10.4 10
  79.2 9.22 9
  80.0 5.78 5
  80.1 7.61 7
  80.2 10.9 10
  80.3 12.65 12
  80.4 11.54 11
  80.5 9.25 9
  80.9 8.87 8
  81.0 8.96 8
  81.1 10.55 10
  81.2 13.54 13
  81.3 15.74 15
  81.4 15.31 15
  81.5 12.32 12
  81.6 9.01 9
  82.4 7.11 7
  82.5 8.83 8
  82.6 11.12 11
  82.7 13.43 13
  82.8 14.83 14
  82.9 15.07 15
  83.0 14.89 14
  83.1 14.81 14
  83.2 13.98 13
  83.3 11.88 11
  84.0 6.35 6
  84.1 9.16 9
  84.2 13.85 13
  84.3 16.51 16
  84.4 15.15 15
  84.5 11.23 11
  84.6 7.74 7
  84.9 7.37 7
  85.0 8.42 8
  85.1 9.88 9
  85.2 11.32 11
  85.3 11.34 11
  85.4 9.18 9
  85.6 5.76 5
  85.7 8.44 8
  85.8 12.93 12
  85.9 16.66 16
  86.0 18.03 18
  86.1 16.66 16
  86.2 13.19 13
  86.3 9.2 9
  86.5 6.63 6
  86.6 8.48 8
  86.7 10.51 10
  86.8 11.6 11
  86.9 11.93 11
  87.0 12.06 12
  87.1 12.06 12
  87.2 11.82 11
  87.3 11.25 11
  87.4 10.71 10
  87.5 10.92 10
  87.6 12.12 12
  87.7 13.28 13
  87.8 12.43 12
  87.9 8.96 8
  88.1 4.3 4
  88.2 7.24 7
  88.3 11.38 11
  88.4 13.5 13
  88.5 12.71 12
  88.8 10.88 10
  88.9 13.48 13
  89.0 15.22 15
  89.1 15.18 15
  89.2 14.46 14
  89.3 14.15 14
  89.4 13.3 13
  89.5 10.66 10
  89.8 7.37 7
  89.9 11.8 11
  90.0 16.07 16
  90.1 17.2 17
  90.2 14.76 14
  90.3 11.38 11
  91.0 7.65 7
  91.1 9.86 9
  91.2 11.95 11
  91.3 12.34 12
  91.6 10.49 10
  91.7 12.36 12
  91.8 14.72 14
  91.9 15.39 15
  92.0 13.74 13
  92.2 10.66 10
  92.3 12.65 12
  92.4 15.77 15
  92.5 18.01 17
  92.6 18.75 18
  92.7 18.38 18
  92.8 16.9 16
  92.9 14.06 14
  93.2 9.92 9
  93.3 13.87 13
  93.4 16.94 16
  93.5 17.07 17
  94.3 7.48 7
  94.4 11.54 11
  94.5 15.53 15
  94.6 17.49 17
  94.7 17.55 17
  94.8 16.11 16
  94.9 13.61 13
  95.8 10.16 10
  95.9 12.25 12
  96.0 14.22 14
  96.1 14.57 14
  96.4 12.82 12
  96.5 14.78 14
  96.6 16.83 16
  96.7 17.27 17
  96.8 15.7 15
  97.1 13.41 13
  97.2 14.59 14
  97.3 15.37 15
  97.4 15.68 15
  97.5 15.31 15
  97.6 13.82 13
  97.8 11.08 11
  97.9 12.89 12
  98.0 15.96 15
  98.1 17.82 17
  98.2 17.12 17
  98.3 14.83 14
  98.4 12.6 12
  98.5 10.62 10
  98.7 5.91 5
  98.8 7.39 7
  98.9 12.76 12
  99.0 18.08 18
  99.1 19.25 19
  99.2 16.66 16
  99.5 14.41 14
  99.6 15.68 15
  99.7 16.22 16
  99.8 16.07 16
  99.9 15.05 15
  100.0 13.3 13
  101.0 9.46 9
  101.1 11.23 11
  101.2 13.48 13
  101.3 14.2 14
  101.4 12.69 12
  101.5 10.51 10
  101.6 9.2 9
  101.8 7.83 7
  101.9 8.7 8
  102.0 11.86 11
  102.1 16.11 16
  102.2 19.28 19
  102.3 19.78 19
  102.4 17.47 17
  103.6 8.55 8
  103.7 9.79 9
  103.8 11.58 11
  103.9 13.3 13
  104.0 14.15 14
  104.1 13.69 13
  104.2 12.08 12
  105.1 4.91 4
  105.2 6.96 6
  105.3 10.47 10
  105.4 13.34 13
  105.5 14.91 14
  105.6 15.53 15
  105.7 14.96 14
  105.8 13.08 13
  106.8 10.23 10
  106.9 11.45 11
  107.0 14.81 14
  107.1 19.28 19
  107.2 21.96 21
  107.3 20.67 20
  107.4 17.1 17
  107.5 14.63 14
  107.6 14.35 14
  107.7 14.52 14
  108.0 13.39 13
  108.1 15.39 15
  108.2 16.96 16
  108.3 16.31 16
  108.4 13.85 13
  108.6 12.06 12
  108.7 14.39 14
  108.8 17.23 17
  108.9 19.52 19
  109.0 20.98 20
  109.1 20.89 20
  109.2 18.21 18
  109.3 13.39 13
  109.6 9.31 9
  109.7 12.67 12
  109.8 14.72 14
  109.9 14.2 14
  110.0 12.17 12
  110.3 11.71 11
  110.4 13.3 13
  110.5 14.48 14
  110.6 14.85 14
  110.7 14.57 14
  110.8 13.93 13
  111.7 8.79 8
  111.8 11.77 11
  111.9 20.8 20
  112.0 31.64 31
  112.1 34.1 34
  112.2 24.84 24
  112.3 13.04 13
  112.5 9.86 9
  112.6 12.12 12
  112.7 13.54 13
  112.8 14.94 14
  112.9 16.07 16
  113.0 16.2 16
  113.1 15.53 15
  113.2 14.26 14
  113.3 12.43 12
  113.5 10.53 10
  113.6 12.28 12
  113.7 14.59 14
  113.8 15.09 15
  113.9 12.34 12
  114.0 7.81 7
  114.2 6.63 6
  114.3 9.73 9
  114.4 10.66 10
  114.5 9.2 9
  114.6 8.68 8
  114.7 11.45 11
  114.8 15.87 15
  114.9 18.4 18
  115.0 16.9 16
  115.1 12.17 12
  115.3 6.8 6
  115.4 10.01 9
  115.5 14.33 14
  115.6 16.27 16
  115.7 14.89 14
  115.8 11.99 11
  116.1 9.33 9
  116.2 10.82 10
  116.3 13.72 13
  116.4 17.55 17
  116.5 20.63 20
  116.6 21.46 21
  116.7 20.28 20
  116.8 18.23 18
  116.9 16.22 16
  117.0 15.07 15
  117.1 15.18 15
  117.2 15.55 15
  117.3 14.2 14
  117.4 10.64 10
  117.7 7.52 7
  117.8 11.1 11
  117.9 17.29 17
  118.0 23.27 23
  118.1 23.22 23
  118.2 16.42 16
  118.4 12.06 12
  118.5 18.4 18
  118.6 20.74 20
  118.7 16.35 16
  118.8 10.49 10
  119.0 9.55 9
  119.1 11.14 11
  119.2 11.91 11
  119.3 12.71 12
  119.4 14.02 14
  119.5 14.78 14
  119.6 13.67 13
  119.7 10.9 10
  120.1 11.06 11
  120.2 10.9 10
  120.3 11.56 11
  120.4 13.98 13
  120.5 16.2 16
  120.6 15.57 15
  120.7 11.88 11
  121.0 8.37 8
  121.1 11.14 11
  121.2 12.36 12
  121.3 11.8 11
  122.0 10.62 10
  122.1 12.15 12
  122.2 14.61 14
  122.3 15.61 15
  122.4 14.17 14
  122.5 11.75 11
  122.7 11.06 11
  122.8 12.36 12
  122.9 13.48 13
  123.0 14.15 14
  123.1 13.89 13
  123.2 12.19 12
  123.4 10.14 10
  123.5 12.25 12
  123.6 14.33 14
  123.7 14.11 14
  124.0 12.34 12
  124.1 14.81 14
  124.2 16.96 16
  124.3 18.12 18
  124.4 18.36 18
  124.5 17.55 17
  124.6 16.18 16
  124.7 15.02 15
  124.8 14.09 14
  125.1 12.01 11
  125.2 15.09 15
  125.3 18.08 18
  125.4 17.68 17
  125.5 13.45 13
  125.6 8.44 8
  125.8 7.06 7
  125.9 9.81 9
  126.0 12.28 12
  126.1 13.39 13
  126.2 12.69 12
  126.5 10.27 10
  126.6 12.25 12
  126.7 14.46 14
  126.8 16.62 16
  126.9 18.51 18
  127.0 19.25 19
  127.1 17.88 17
  127.2 14.61 14
  127.3 11.12 11
  127.5 9.66 9
  127.6 11.8 11
  127.7 14.44 14
  127.8 16.4 16
  127.9 16.94 16
  128.0 15.59 15
  129.2 9.18 9
  129.3 9.9 9
  129.4 12.01 11
  129.5 14.06 14
  129.6 14.57 14
  129.7 14.0 13
  129.8 14.0 13
  129.9 14.37 14
  130.0 13.58 13
  130.1 11.38 11
  130.5 9.97 9
  130.6 10.16 10
  130.7 11.01 10
  130.8 12.36 12
  130.9 13.19 13
  131.0 12.73 12
  131.1 11.3 11
  131.2 9.92 9
  132.6 7.11 7
  132.7 8.05 8
  132.8 9.83 9
  132.9 11.47 11
  133.0 11.54 11
  133.1 10.18 10
  133.7 8.87 8
  133.8 10.55 10
  133.9 13.67 13
  134.0 15.55 15
  134.1 14.44 14
  134.2 11.51 11
  134.9 10.1 10
  135.0 10.66 10
  135.1 11.38 11
  135.2 11.88 11
  135.3 11.38 11
  135.4 9.38 9
  135.7 6.06 6
  135.8 9.49 9
  135.9 12.39 12
  136.0 12.8 12
  136.1 11.36 11
  136.2 9.94 9
  137.0 7.61 7
  137.1 9.57 9
  137.2 10.18 10
  137.3 9.01 9
  137.4 8.79 8
  137.5 11.32 11
  137.6 14.96 14
  137.7 17.05 17
  137.8 16.59 16
  137.9 14.46 14
  138.0 11.91 11
  138.2 9.97 9
  138.3 12.08 12
  138.4 15.39 15
  138.5 17.64 17
  138.6 16.99 16
  138.7 13.91 13
  138.9 10.53 10
  139.0 12.41 12
  139.1 15.02 15
  139.2 16.81 16
  139.3 16.81 16
  139.4 14.94 14
  139.7 11.36 11
  139.8 14.98 14
  139.9 18.53 18
  140.0 19.17 19
  140.1 16.99 16
  141.8 9.25 9
  141.9 10.88 10
  142.0 12.54 12
  142.1 13.67 13
  142.2 13.87 13
  142.3 12.65 12
  142.4 10.18 10
  142.5 7.52 7
  142.7 6.32 6
  142.8 8.72 8
  142.9 11.4 11
  143.0 12.52 12
  143.1 11.86 11
  143.2 10.66 10
  143.5 9.35 9
  143.6 10.9 10
  143.7 12.76 12
  143.8 13.52 13
  143.9 12.73 12
  144.0 11.01 10
  144.3 9.05 9
  144.4 10.2 10
  144.5 11.36 11
  144.6 12.01 11
  144.7 11.93 11
  144.8 11.19 11
  144.9 10.27 10
  145.0 9.44 9
  145.3 8.61 8
  145.4 9.92 9
  145.5 11.21 11
  145.6 11.3 11
  145.7 10.2 10
  145.8 9.55 9
  145.9 10.53 10
  146.0 12.08 12
  146.1 11.88 11
  146.2 9.14 9
  146.3 5.26 5
  146.5 1.29 1
  146.6 3.53 3
  146.7 7.94 7
  146.8 12.12 12
  146.9 14.48 14
  147.0 15.37 15
  147.1 15.9 15
  147.2 15.81 15
  147.3 13.93 13
  147.4 10.58 10
  147.6 8.11 8
  147.7 10.47 10
  147.8 12.93 12
  147.9 13.93 13
  148.0 13.48 13
  148.1 12.39 12
  148.2 11.43 11
  148.3 10.86 10
  148.4 10.31 10
  148.7 7.98 7
  148.8 9.7 9
  148.9 13.06 13
  149.0 15.92 15
  149.1 15.98 15
  149.2 13.11 13
  149.3 9.35 9
  149.5 6.72 6
  149.6 8.53 8
  149.7 11.51 11
  149.8 14.5 14
  149.9 15.94 15
  150.0 15.0 14
  150.1 12.73 12
  151.1 9.27 9
  151.2 10.88 10
  151.3 13.26 13
  151.4 14.72 14
  151.5 13.69 13
  151.6 11.12 11
  151.9 8.98 8
  152.0 9.97 9
  152.1 11.03 11
  152.2 12.17 12
  152.3 13.39 13
  152.4 14.24 14
  152.5 13.98 13
  152.6 13.02 13
  153.0 11.91 11
  153.1 12.76 12
  153.2 14.61 14
  153.3 15.72 15
  153.4 15.05 15
  153.5 13.65 13
  153.8 12.25 12
  153.9 13.39 13
  154.0 14.48 14
  154.1 13.74 13
  154.4 11.27 11
  154.5 14.57 14
  154.6 16.4 16
  154.7 16.09 16
  154.8 15.94 15
  154.9 17.38 17
  155.0 18.53 18
  155.1 16.99 16
  155.2 13.5 13
  155.3 10.77 10
  155.5 10.07 10
  155.6 11.4 11
  155.7 14.2 14
  155.8 16.88 16
  155.9 16.7 16
  156.0 13.82 13
  156.7 12.67 12
  156.8 13.76 13
  156.9 15.18 15
  157.0 17.16 17
  157.1 19.23 19
  157.2 19.91 19
  157.3 17.82 17
  157.4 13.91 13
  157.6 12.39 12
  157.7 16.01 15
  157.8 18.97 18
  157.9 19.1 19
  158.0 17.1 17
  158.1 14.96 14
  158.2 13.45 13
  158.3 12.15 12
  159.1 7.83 7
  159.2 10.18 10
  159.3 12.36 12
  159.4 12.95 12
  159.5 11.99 11
  160.9 10.05 10
  161.0 11.47 11
  161.1 13.8 13
  161.2 15.61 15
  161.3 15.83 15
  161.4 14.17 14
  161.7 11.21 11
  161.8 13.13 13
  161.9 13.96 13
  162.0 13.13 13
  162.1 11.49 11
  162.3 10.16 10
  162.4 11.77 11
  162.5 13.82 13
  162.6 14.13 14
  162.7 11.82 11
  162.8 8.46 8
  163.0 7.61 7
  163.1 9.49 9
  163.2 10.58 10
  163.3 10.71 10
  163.4 10.97 10
  163.5 11.56 11
  163.6 11.67 11
  163.7 10.97 10
  163.8 10.27 10
  163.9 10.73 10
  164.0 12.65 12
  164.1 14.76 14
  164.2 15.53 15
  164.3 14.22 14
  164.4 11.95 11
  165.0 9.94 9
  165.1 12.95 12
  165.2 15.7 15
  165.3 15.72 15
  165.4 13.15 13
  165.6 10.62 10
  165.7 12.76 12
  165.8 14.68 14
  165.9 14.81 14
  166.0 13.34 13
  166.1 11.01 10
  166.2 8.5 8
  166.4 7.09 7
  166.5 9.09 9
  166.6 11.23 11
  166.7 11.77 11
  166.8 10.68 10
  166.9 9.75 9
  167.0 10.71 10
  167.1 13.08 13
  167.2 14.7 14
  167.3 14.15 14
  167.4 12.58 12
  167.8 11.86 11
  167.9 12.6 12
  168.0 15.07 15
  168.1 17.66 17
  168.2 18.36 18
  168.3 17.07 17
  168.4 15.77 15
  168.5 15.48 15
  168.6 15.24 15
  168.9 13.02 13
  169.0 15.09 15
  169.1 17.16 17
  169.2 17.79 17
  169.3 16.81 16
  169.4 14.94 14
  169.5 13.39 13
  169.6 12.97 12
  170.0 11.99 11
  170.1 14.17 14
  170.2 15.92 15
  170.3 16.01 15
  170.4 15.72 15
  170.5 16.81 16
  170.6 18.53 18
  170.7 18.97 18
  170.8 18.03 18
  170.9 17.64 17
  171.0 18.93 18
  171.1 20.69 20
  171.2 20.69 20
  171.3 17.77 17
  171.4 12.87 12
  171.7 9.44 9
  171.8 12.87 12
  171.9 15.68 15
  172.0 16.75 16
  172.1 16.55 16
  172.2 15.94 15
  172.3 15.55 15
  172.4 15.07 15
  172.5 14.06 14
  172.6 12.54 12
  173.3 10.53 10
  173.4 12.28 12
  173.5 14.37 14
  173.6 14.96 14
  173.7 14.35 14
  173.8 13.65 13
  173.9 12.97 12
  174.0 11.8 11
  174.1 10.31 10
  174.4 7.85 7
  174.5 10.82 10
  174.6 15.98 15
  174.7 20.54 20
  174.8 21.65 21
  174.9 18.91 18
  175.0 14.74 14
  175.3 13.39 13
  175.4 13.89 13
  175.5 14.63 14
  175.6 15.48 15
  175.7 14.33 14
  176.0 9.79 9
  176.1 14.7 14
  176.2 17.73 17
  176.3 16.51 16
  176.4 13.15 13
  177.9 4.56 4
  178.0 7.74 7
  178.1 11.97 11
  178.2 14.59 14
  178.3 13.78 13
  178.4 10.25 10
  178.6 8.13 8
  178.7 12.1 12
  178.8 15.53 15
  178.9 15.5 15
  179.0 12.84 12
  179.6 7.85 7
  179.7 10.77 10
  179.8 15.35 15
  179.9 17.34 17
  180.0 15.94 15
  181.4 12.47 12
  181.5 13.41 13
  181.6 14.24 14
  181.7 14.04 14
  181.8 12.76 12
  181.9 11.47 11
  182.8 8.24 8
  182.9 11.01 10
  183.0 12.97 12
  183.1 12.08 12
  183.2 8.98 8
  183.5 6.06 6
  183.6 7.33 7
  183.7 9.25 9
  183.8 11.8 11
  183.9 14.02 14
  184.0 15.11 15
  184.1 15.37 15
  184.2 15.13 15
  184.3 14.09 14
  184.4 12.3 12
  184.6 10.84 10
  184.7 12.19 12
  184.8 14.02 14
  184.9 14.52 14
  185.2 11.06 11
  185.3 14.0 13
  185.4 16.64 16
  185.5 16.96 16
  185.6 15.44 15
  185.7 13.28 13
  185.8 11.34 11
  186.1 11.23 11
  186.2 11.6 11
  186.3 11.75 11
  186.4 12.78 12
  186.5 15.2 15
  186.6 17.62 17
  186.7 17.84 17
  186.8 15.53 15
  186.9 12.71 12
  187.7 9.25 9
  187.8 10.68 10
  187.9 11.45 11
  188.0 11.01 10
  188.1 10.01 9
  188.2 10.05 10
  188.3 12.43 12
  188.4 16.03 16
  188.5 17.92 17
  188.6 16.07 16
  188.7 11.4 11
  189.0 7.7 7
  189.1 11.64 11
  189.2 14.24 14
  189.3 13.76 13
  189.4 11.3 11
  189.6 9.38 9
  189.7 11.03 11
  189.8 12.19 12
  189.9 11.73 11
  190.0 10.82 10
  190.1 11.21 11
  190.2 13.04 13
  190.3 14.96 14
  190.4 15.72 15
  190.5 15.29 15
  190.6 13.61 13
  190.7 10.95 10
  192.0 7.81 7
  192.1 10.53 10
  192.2 15.46 15
  192.3 18.08 18
  192.4 15.7 15
  192.5 11.19 11
  193.2 6.26 6
  193.3 7.96 7
  193.4 11.77 11
  193.5 15.07 15
  193.6 15.09 15
  193.7 11.56 11
  193.8 7.28 7
  194.0 7.09 7
  194.1 9.81 9
  194.2 10.88 10
  194.3 10.38 10
  194.4 10.64 10
  194.5 12.49 12
  194.6 14.22 14
  194.7 14.48 14
  194.8 13.74 13
  194.9 12.6 12
  195.0 10.84 10
  195.2 9.03 9
  195.3 10.88 10
  195.4 13.17 13
  195.5 13.98 13
  195.6 12.78 12
  195.7 10.75 10
  196.0 9.42 9
  196.1 10.16 10
  196.2 11.62 11
  196.3 13.48 13
  196.4 14.2 14
  196.5 12.54 12
  196.6 9.09 9
  196.8 6.0 5
  196.9 8.57 8
  197.0 11.67 11
  197.1 12.56 12
  197.2 10.14 10
  197.3 5.95 5
  197.6 3.66 3
  197.7 6.8 6
  197.8 10.31 10
  197.9 13.5 13
  198.0 15.61 15
  198.1 16.35 16
  198.2 15.74 15
  198.3 14.46 14
  198.4 12.76 12
  198.5 10.77 10
  198.6 8.87 8
  198.9 8.0 7
  199.0 8.87 8
  199.1 10.49 10
  199.2 12.6 12
  199.3 14.09 14
  199.4 14.26 14
  199.5 13.34 13
  199.6 11.88 11
  199.9 9.68 9
  200.0 12.82 12
  200.1 16.81 16
  200.2 18.25 18
  200.3 15.92 15
  200.5 12.41 12
  200.6 15.44 15
  200.7 18.23 18
  200.8 17.34 17
  200.9 12.52 12
  201.1 5.21 5
  201.2 8.59 8
  201.3 14.37 14
  201.4 17.75 17
  201.5 16.83 16
  202.3 11.88 11
  202.4 15.72 15
  202.5 19.49 19
  202.6 19.62 19
  202.7 16.07 16
  202.8 12.08 12
  203.0 11.86 11
  203.1 14.26 14
  203.2 16.09 16
  203.3 16.51 16
  203.4 15.18 15
  203.5 12.54 12
  203.6 9.68 9
  203.9 8.09 8
  204.0 9.68 9
  204.1 11.54 11
  204.2 13.3 13
  204.3 14.28 14
  204.4 14.22 14
  204.5 13.54 13
  205.5 8.81 8
  205.6 10.77 10
  205.7 14.35 14
  205.8 18.16 18
  205.9 19.93 19
  206.0 17.99 17
  206.1 13.5 13
  206.4 10.92 10
  206.5 12.39 12
  206.6 13.0 12
  206.7 13.8 13
  206.8 14.94 14
  206.9 15.37 15
  207.0 14.24 14
  207.1 11.99 11
  207.2 9.75 9
  207.4 8.83 8
  207.5 10.42 10
  207.6 12.28 12
  207.7 13.19 13
  207.8 12.06 12
  207.9 9.25 9
  208.1 6.19 6
  208.2 7.87 7
  208.3 10.68 10
  208.4 13.72 13
  208.5 15.83 15
  208.6 16.07 16
  208.7 14.41 14
  208.8 11.99 11
  209.0 10.16 10
  209.1 11.82 11
  209.2 13.91 13
  209.3 15.0 14
  209.4 14.72 14
  209.5 13.76 13
  209.6 12.97 12
  209.7 12.34 12
  209.8 11.3 11
  211.3 6.15 6
  211.4 10.68 10
  211.5 16.31 16
  211.6 18.49 18
  211.7 15.59 15
  211.8 10.79 10
  212.0 9.75 9
  212.1 12.06 12
  212.2 13.06 13
  212.3 12.49 12
  212.4 11.82 11
  212.5 12.25 12
  212.6 13.11 13
  212.7 13.0 12
  212.8 11.71 11
  212.9 9.97 9
  213.1 8.68 8
  213.2 10.34 10
  213.3 12.06 12
  213.4 11.6 11
  213.7 9.4 9
  213.8 11.54 11
  213.9 12.47 12
  214.0 11.75 11
  214.1 10.23 10
  214.2 8.72 8
  214.5 6.11 6
  214.6 7.89 7
  214.7 10.2 10
  214.8 10.71 10
  215.1 9.03 9
  215.2 12.34 12
  215.3 14.39 14
  215.4 13.3 13
  215.7 11.43 11
  215.8 13.93 13
  215.9 15.24 15
  216.0 14.57 14
  216.3 12.08 12
  216.4 14.37 14
  216.5 16.01 15
  216.6 15.24 15
  216.7 12.69 12
  217.0 9.33 9
  217.1 12.34 12
  217.2 17.34 17
  217.3 21.54 21
  217.4 21.43 21
  217.5 16.33 16
  217.6 9.42 9
  217.8 6.17 6
  217.9 10.12 10
  218.0 13.06 13
  218.1 12.97 12
  218.2 11.43 11
  218.3 10.68 10
  218.4 10.73 10
  218.5 10.05 10
  218.8 9.64 9
  218.9 10.95 10
  219.0 11.25 11
  219.1 11.54 11
  219.2 13.11 13
  219.3 15.22 15
  219.4 16.14 16
  219.5 15.46 15
  219.6 14.48 14
  219.7 14.15 14
  219.8 13.61 13
  219.9 11.75 11
  220.1 7.63 7
  220.2 9.59 9
  220.3 13.72 13
  220.4 16.7 16
  220.5 16.4 16
  220.6 13.48 13
  221.5 11.97 11
  221.6 12.87 12
  221.7 13.67 13
  221.8 14.76 14
  221.9 15.46 15
  222.0 14.39 14
  222.1 11.95 11
  223.1 7.35 7
  223.2 8.92 8
  223.3 11.56 11
  223.4 13.65 13
  223.5 13.96 13
  223.6 12.93 12
  224.5 10.6 10
  224.6 12.04 12
  224.7 13.56 13
  224.8 13.06 13
  225.1 8.96 8
  225.2 12.93 12
  225.3 16.31 16
  225.4 16.77 16
  225.5 15.07 15
  225.6 13.15 13
  226.6 7.61 7
  226.7 9.14 9
  226.8 12.76 12
  226.9 16.35 16
  227.0 16.79 16
  227.1 13.19 13
  227.2 8.31 8
  227.4 6.91 6
  227.5 9.09 9
  227.6 9.99 9
  227.7 9.62 9
  227.8 9.77 9
  227.9 11.56 11
  228.0 14.17 14
  228.1 16.11 16
  228.2 16.09 16
  228.3 14.26 14
  228.4 11.95 11
  229.1 10.53 10
  229.2 11.56 11
  229.3 13.43 13
  229.4 15.0 14
  229.5 14.48 14
  229.8 11.03 11
  229.9 13.3 13
  230.0 13.89 13
  230.1 12.25 12
  230.6 13.26 13
  230.7 13.13 13
  230.8 13.3 13
  230.9 14.96 14
  231.0 17.4 17
  231.1 18.67 18
  231.2 18.29 18
  231.3 18.05 18
  231.4 18.6 18
  231.5 18.05 18
  231.6 14.96 14
  231.8 10.6 10
  231.9 13.41 13
  232.0 17.27 17
  232.1 19.32 19
  232.2 18.16 18
  232.3 14.46 14
  232.6 11.27 11
  232.7 14.04 14
  232.8 15.13 15
  232.9 14.57 14
  233.0 14.7 14
  233.1 16.92 16
  233.2 19.8 19
  233.3 20.32 20
  233.4 17.38 17
  233.5 13.11 13
  233.8 11.67 11
  233.9 12.04 12
  234.0 12.21 12
  234.1 12.67 12
  234.2 13.28 13
  234.3 13.8 13
  234.4 14.33 14
  234.5 14.59 14
  234.6 14.28 14
  234.7 13.58 13
  235.7 9.68 9
  235.8 12.12 12
  235.9 13.54 13
  236.0 12.73 12
  236.2 10.05 10
  236.3 11.93 11
  236.4 15.31 15
  236.5 17.47 17
  236.6 17.01 16
  236.7 14.96 14
  236.8 13.3 13
  237.6 9.83 9
  237.7 11.01 10
  237.8 13.06 13
  237.9 13.78 13
  238.0 12.36 12
  238.3 11.08 11
  238.4 13.08 13
  238.5 15.22 15
  238.6 15.98 15
  238.7 14.28 14
  238.8 10.97 10
  239.0 9.53 9
  239.1 11.45 11
  239.2 12.23 12
  239.3 11.8 11
  239.4 11.84 11
  239.5 13.0 12
  239.6 13.54 13
  239.7 12.19 12
  240.0 9.59 9
  240.1 11.1 11
  240.2 12.78 12
  240.3 14.44 14
  240.4 15.18 15
  240.5 13.96 13
  240.6 11.3 11
  240.9 9.79 9
  241.0 11.25 11
  241.1 12.41 12
  241.2 12.54 12
  242.6 10.49 10
  242.7 11.4 11
  242.8 12.8 12
  242.9 13.96 13
  243.0 14.0 13
  243.1 12.91 12
  243.4 11.43 11
  243.5 12.52 12
  243.6 13.96 13
  243.7 15.0 14
  243.8 15.46 15
  243.9 15.74 15
  244.0 15.61 15
  244.1 14.06 14
  244.2 10.9 10
  245.0 8.35 8
  245.1 10.23 10
  245.2 12.1 12
  245.3 12.91 12
  245.4 12.54 12
  245.5 11.51 11
  245.6 10.25 10
  245.7 9.03 9
  245.9 7.61 7
  246.0 8.96 8
  246.1 12.17 12
  246.2 15.13 15
  246.3 15.26 15
  246.4 12.49 12
  246.6 10.38 10
  246.7 13.8 13
  246.8 17.62 17
  246.9 19.73 19
  247.0 20.21 20
  247.1 19.86 19
  247.2 19.21 19
  248.2 11.43 11
  248.3 15.13 15
  248.4 19.54 19
  248.5 20.54 20
  248.6 17.66 17
  248.7 13.26 13
  248.8 9.57 9
  249.0 7.76 7
  249.1 9.9 9
  249.2 12.76 12
  249.3 14.89 14
  249.4 15.74 15
  249.5 15.44 15
  249.6 14.63 14
  249.7 14.59 14
  249.8 15.98 15
  249.9 17.58 17
  250.0 17.27 17
  250.1 14.76 14
  250.2 11.97 11
  250.5 11.51 11
  250.6 12.39 12
  250.7 13.67 13
  250.8 14.85 14
  250.9 15.05 15
  251.0 13.98 13
  251.1 12.3 12
  251.7 10.16 10
  251.8 11.73 11
  251.9 12.97 12
  252.0 12.23 12
  252.3 9.97 9
  252.4 10.9 10
  252.5 12.73 12
  252.6 16.11 16
  252.7 19.41 19
  252.8 19.78 19
  252.9 16.81 16
  254.4 8.4 8
  254.5 11.03 11
  254.6 12.97 12
  254.7 12.34 12
  254.8 9.97 9
  255.4 6.91 6
  255.5 9.57 9
  255.6 13.93 13
  255.7 16.92 16
  255.8 16.27 16
  255.9 12.34 12
  256.0 7.81 7
  256.2 7.04 7
  256.3 10.73 10
  256.4 13.93 13
  256.5 15.29 15
  256.6 15.37 15
  256.7 15.22 15
  256.8 14.87 14
  256.9 13.78 13
  257.0 12.23 12
  257.5 11.64 11
  257.6 12.47 12
  257.7 14.09 14
  257.8 14.85 14
  258.1 12.04 12
  258.2 14.85 14
  258.3 17.31 17
  258.4 16.38 16
  258.5 12.32 12
  258.6 8.02 8
  258.9 5.84 5
  259.0 8.02 8
  259.1 10.25 10
  259.2 12.01 11
  259.3 13.37 13
  259.4 13.45 13
  259.5 11.25 11
  259.7 6.83 6
  259.8 9.09 9
  259.9 12.93 12
  260.0 14.74 14
  260.1 12.76 12
  260.2 8.77 8
  260.4 7.24 7
  260.5 9.35 9
  260.6 11.36 11
  260.7 13.0 12
  260.8 13.76 13
  261.1 10.68 10
  261.2 13.28 13
  261.3 16.09 16
  261.4 15.61 15
  261.5 11.93 11
  261.8 10.68 10
  261.9 12.3 12
  262.0 13.06 13
  262.1 13.74 13
  262.2 14.2 14
  262.3 13.61 13
  262.6 10.88 10
  262.7 13.04 13
  262.8 16.16 16
  262.9 17.64 17
  263.0 15.9 15
  263.1 12.65 12
  264.5 6.61 6
  264.6 9.09 9
  264.7 12.6 12
  264.8 14.98 14
  264.9 14.72 14
  265.0 12.47 12
  265.1 9.88 9
  265.2 8.22 8
  265.5 7.92 7
  265.6 8.74 8
  265.7 10.1 10
  265.8 11.6 11
  265.9 12.52 12
  266.0 12.12 12
  266.8 10.77 10
  266.9 11.95 11
  267.0 12.47 12
  267.1 11.58 11
  267.2 9.97 9
  267.6 9.49 9
  267.7 10.05 10
  267.8 10.71 10
  267.9 11.19 11
  268.0 11.71 11
  268.1 12.65 12
  268.2 13.5 13
  268.3 13.5 13
  268.4 12.32 12
  268.5 10.64 10
  270.0 7.76 7
  270.1 9.2 9
  270.2 11.03 11
  270.3 12.36 12
  270.4 12.36 12
  270.5 11.06 11
  270.6 9.25 9
  270.9 7.02 7
  271.0 8.46 8
  271.1 10.27 10
  271.2 10.97 10
  271.3 10.58 10
  271.4 10.64 10
  271.5 11.54 11
  271.6 11.91 11
  271.9 9.9 9
  272.0 11.51 11
  272.1 12.8 12
  272.2 12.93 12
  272.3 11.88 11
  272.4 10.05 10
  272.6 8.55 8
  272.7 10.66 10
  272.8 12.71 12
  272.9 12.95 12
  273.0 11.75 11
  274.4 7.22 7
  274.5 8.26 8
  274.6 11.67 11
  274.7 15.02 15
  274.8 15.61 15
  274.9 13.19 13
  275.0 10.2 10
  275.1 8.74 8
  275.4 7.33 7
  275.5 8.98 8
  275.6 12.34 12
  275.7 14.22 14
  275.8 12.76 12
  275.9 9.92 9
  276.4 8.9 8
  276.5 10.03 10
  276.6 11.58 11
  276.7 12.54 12
  276.8 12.41 12
  276.9 11.34 11
  277.4 10.29 10
  277.5 11.03 11
  277.6 12.19 12
  277.7 12.52 12
  277.8 11.71 11
  277.9 11.3 11
  278.0 12.93 12
  278.1 16.07 16
  278.2 18.14 18
  278.3 17.18 17
  278.4 13.8 13
  278.7 10.23 10
  278.8 12.39 12
  278.9 13.8 13
  279.0 13.54 13
  279.1 11.93 11
  279.2 10.16 10
  279.5 8.72 8
  279.6 10.92 10
  279.7 14.5 14
  279.8 18.16 18
  279.9 20.52 20
  280.0 20.34 20
  280.1 17.2 17
  280.2 12.39 12
  280.5 9.38 9
  280.6 12.87 12
  280.7 15.9 15
  280.8 16.88 16
  280.9 15.39 15
  281.0 12.69 12
  281.2 10.97 10
  281.3 12.67 12
  281.4 13.58 13
  281.5 11.75 11
  281.6 8.07 8
  281.8 6.17 6
  281.9 9.05 9
  282.0 11.82 11
  282.1 13.34 13
  282.2 13.87 13
  282.3 13.87 13
  282.4 13.32 13
  282.5 11.95 11
  282.6 10.01 9
  282.8 7.68 7
  282.9 8.77 8
  283.0 11.56 11
  283.1 14.96 14
  283.2 16.9 16
  283.3 15.74 15
  283.4 12.58 12
  283.5 9.88 9
  283.7 9.42 9
  283.8 10.4 10
  283.9 12.36 12
  284.0 14.98 14
  284.1 16.57 16
  284.2 16.27 16
  284.3 15.81 15
  284.4 17.27 17
  284.5 19.58 19
  284.6 19.21 19
  284.7 14.7 14
  284.8 8.85 8
  285.0 5.87 5
  285.1 8.2 8
  285.2 10.47 10
  285.3 11.77 11
  285.4 12.12 12
  285.5 11.73 11
  286.3 9.44 9
  286.4 10.53 10
  286.5 10.9 10
  286.6 10.97 10
  286.7 11.62 11
  286.8 12.8 12
  286.9 13.24 13
  287.0 12.06 12
  287.1 9.83 9
  287.4 7.87 7
  287.5 9.03 9
  287.6 10.05 10
  287.7 10.55 10
  287.8 11.25 11
  287.9 12.93 12
  288.0 14.98 14
  288.1 15.59 15
  288.2 14.06 14
  288.5 11.8 11
  288.6 13.17 13
  288.7 14.39 14
  288.8 14.68 14
  288.9 13.17 13
  289.6 11.82 11
  289.7 13.32 13
  289.8 14.41 14
  289.9 14.78 14
  290.0 14.87 14
  290.1 14.37 14
  290.2 12.71 12
  290.5 10.77 10
  290.6 13.19 13
  290.7 15.09 15
  290.8 15.26 15
  290.9 13.85 13
  291.0 12.19 12
  291.1 11.21 11
  291.4 10.27 10
  291.5 11.25 11
  291.6 12.19 12
  291.7 12.41 12
  291.8 12.41 12
  291.9 12.93 12
  292.0 13.56 13
  292.1 13.45 13
  292.4 12.25 12
  292.5 13.13 13
  292.6 14.09 14
  292.7 14.28 14
  292.8 13.82 13
  292.9 13.17 13
  293.0 12.47 12
  293.1 11.34 11
  293.4 9.83 9
  293.5 12.34 12
  293.6 15.61 15
  293.7 18.34 18
  293.8 19.49 19
  293.9 19.1 19
  294.0 17.97 17
  294.3 17.42 17
  294.4 17.92 17
  294.5 18.51 18
  294.6 19.21 19
  294.7 19.19 19
  294.8 17.97 17
  294.9 16.22 16
  295.0 15.39 15
  295.1 15.48 15
  295.2 15.18 15
  295.3 13.98 13
  296.1 10.68 10
  296.2 12.32 12
  296.3 15.83 15
  296.4 17.47 17
  296.5 16.14 16
  296.6 14.48 14
  296.7 14.26 14
  296.8 13.85 13
  297.1 9.86 9
  297.2 13.67 13
  297.3 16.62 16
  297.4 16.27 16
  297.5 13.56 13
  297.6 10.77 10
  297.8 9.9 9
  297.9 11.67 11
  298.0 13.72 13
  298.1 15.24 15
  298.2 15.7 15
  298.3 14.81 14
  298.4 12.73 12
  299.5 9.66 9
  299.6 10.97 10
  299.7 14.5 14
  299.8 17.49 17
  299.9 16.99 16
  300.0 12.95 12
  300.1 8.26 8
  300.3 6.35 6
  300.4 7.89 7
  300.5 9.42 9
  300.6 11.14 11
  300.7 13.15 13
  300.8 14.44 14
  300.9 13.85 13
  301.1 10.82 10
  301.2 12.56 12
  301.3 15.85 15
  301.4 17.68 17
  301.5 16.86 16
  301.6 15.11 15
  301.7 14.22 14
  301.8 13.67 13
  302.7 11.08 11
  302.8 13.26 13
  302.9 14.59 14
  303.0 14.7 14
  303.1 13.61 13
  303.4 12.49 12
  303.5 14.98 14
  303.6 17.2 17
  303.7 18.05 18
  303.8 17.27 17
  303.9 14.98 14
  304.0 11.8 11
  304.2 9.27 9
  304.3 11.3 11
  304.4 13.39 13
  304.5 14.0 13
  304.6 13.5 13
  304.7 12.69 12
  304.8 11.47 11
  305.0 8.79 8
  305.1 10.25 10
  305.2 13.02 13
  305.3 14.91 14
  305.4 15.7 15
  305.5 16.53 16
  305.6 17.03 17
  305.7 15.53 15
  305.8 12.32 12
  305.9 9.81 9
  306.8 7.46 7
  306.9 8.7 8
  307.0 10.4 10
  307.1 12.28 12
  307.2 14.39 14
  307.3 16.09 16
  307.4 16.77 16
  307.5 16.4 16
  307.8 14.17 14
  307.9 15.39 15
  308.0 17.49 17
  308.1 18.49 18
  308.2 16.64 16
  308.3 12.67 12
  308.6 10.01 9
  308.7 13.34 13
  308.8 16.88 16
  308.9 19.36 19
  309.0 19.76 19
  309.1 17.84 17
  309.2 14.78 14
  309.5 12.06 12
  309.6 13.78 13
  309.7 15.79 15
  309.8 16.57 16
  309.9 15.61 15
  310.0 14.33 14
  310.1 14.09 14
  310.2 14.04 14
  310.5 11.03 11
  310.6 14.02 14
  310.7 17.88 17
  310.8 19.47 19
  310.9 17.84 17
  311.0 14.76 14
  311.1 12.41 12
  311.3 11.6 11
  311.4 12.58 12
  311.5 13.76 13
  311.6 14.24 14
  311.7 13.74 13
  311.8 13.26 13
  311.9 13.82 13
  312.0 15.29 15
  312.1 16.31 16
  312.2 15.68 15
  312.3 13.61 13
  312.4 11.4 11
  313.2 11.32 11
  313.3 13.17 13
  313.4 16.35 16
  313.5 17.77 17
  313.6 16.4 16
  313.7 13.85 13
  313.8 11.82 11
  314.7 8.42 8
  314.8 9.46 9
  314.9 11.3 11
  315.0 13.72 13
  315.1 16.16 16
  315.2 17.53 17
  315.3 16.96 16
  315.4 14.83 14
  315.5 12.28 12
  315.6 10.05 10
  315.9 8.77 8
  316.0 11.16 11
  316.1 12.69 12
  316.2 12.39 12
  316.3 11.45 11
  316.4 11.21 11
  316.5 11.01 10
  316.6 9.64 9
  316.8 7.41 7
  316.9 10.03 10
  317.0 13.28 13
  317.1 14.04 14
  317.2 12.1 12
  317.3 9.59 9
  317.6 8.13 8
  317.7 9.64 9
  317.8 10.84 10
  317.9 10.92 10
  318.0 10.58 10
  318.1 10.49 10
  318.2 10.42 10
  318.3 9.7 9
  318.6 8.77 8
  318.7 9.86 9
  318.8 10.9 10
  318.9 11.23 11
  319.0 10.49 10
  319.3 8.16 8
  319.4 10.79 10
  319.5 13.65 13
  319.6 14.39 14
  319.7 12.34 12
  319.8 8.9 8
  320.1 6.87 6
  320.2 9.22 9
  320.3 10.95 10
  320.4 11.3 11
  320.5 10.75 10
  320.6 10.12 10
  320.7 9.83 9
  320.8 10.51 10
  320.9 12.56 12
  321.0 15.07 15
  321.1 15.85 15
  321.2 13.82 13
  321.3 10.68 10
  321.8 8.79 8
  321.9 10.31 10
  322.0 12.8 12
  322.1 14.68 14
  322.2 14.94 14
  322.3 13.48 13
  322.4 11.34 11
  322.5 9.44 9
  322.6 7.78 7
  322.9 5.54 5
  323.0 8.5 8
  323.1 11.49 11
  323.2 12.32 12
  323.3 10.82 10
  323.5 8.22 8
  323.6 9.99 9
  323.7 12.08 12
  323.8 12.23 12
  324.1 10.2 10
  324.2 13.0 12
  324.3 16.07 16
  324.4 17.92 17
  324.5 17.84 17
  324.6 16.42 16
  325.9 12.78 12
  326.0 13.91 13
  326.1 14.91 14
  326.2 14.35 14
  326.3 11.51 11
  326.4 7.63 7
  326.7 5.58 5
  326.8 7.15 7
  326.9 9.18 9
  327.0 12.47 12
  327.1 16.4 16
  327.2 18.16 18
  327.3 15.61 15
  327.4 10.6 10
  327.6 9.07 9
  327.7 12.49 12
  327.8 14.2 14
  327.9 13.0 12
  328.0 10.2 10
  328.3 7.44 7
  328.4 9.03 9
  328.5 10.55 10
  328.6 11.6 11
  328.7 12.65 12
  328.8 13.87 13
  328.9 14.57 14
  329.0 13.89 13
  329.1 11.71 11
  329.2 9.01 9
  329.4 7.09 7
  329.5 8.7 8
  329.6 10.95 10
  329.7 12.78 12
  329.8 13.98 13
  329.9 14.26 14
  330.0 13.13 13
  331.0 5.04 5
  331.1 7.33 7
  331.2 10.07 10
  331.3 11.45 11
  331.4 11.47 11
  331.5 11.56 11
  331.6 12.6 12
  331.7 14.0 13
  331.8 14.26 14
  331.9 12.67 12
  332.0 10.23 10
  332.6 7.06 7
  332.7 9.46 9
  332.8 13.28 13
  332.9 15.29 15
  333.0 13.96 13
  333.1 11.19 11
  333.2 9.51 9
  333.3 9.38 9
  333.4 9.33 9
  333.5 8.02 8
  333.8 4.49 4
  333.9 7.72 7
  334.0 11.23 11
  334.1 12.73 12
  334.2 12.49 12
  334.3 12.45 12
  334.4 13.74 13
  334.5 15.72 15
  334.6 16.75 16
  334.7 15.55 15
  334.8 12.43 12
  335.0 10.36 10
  335.1 13.37 13
  335.2 15.46 15
  335.3 14.57 14
  335.6 12.21 12
  335.7 13.34 13
  335.8 14.04 14
  335.9 13.65 13
  336.1 10.47 10
  336.2 11.77 11
  336.3 15.61 15
  336.4 17.71 17
  336.5 14.63 14
  336.6 8.66 8
  336.8 7.13 7
  336.9 10.34 10
  337.0 11.3 11
  337.1 10.18 10
  337.2 9.55 9
  337.3 10.58 10
  337.4 12.12 12
  337.5 12.56 12
  337.6 11.69 11
  337.7 10.31 10
  337.8 8.83 8
  338.1 5.91 5
  338.2 8.9 8
  338.3 12.65 12
  338.4 15.0 14
  338.5 15.48 15
  338.6 14.85 14
  338.7 13.63 13
  339.0 12.49 12
  339.1 14.57 14
  339.2 16.42 16
  339.3 16.66 16
  339.4 15.05 15
  339.5 12.76 12
  339.7 11.06 11
  339.8 12.84 12
  339.9 15.44 15
  340.0 16.86 16
  340.1 15.44 15
  340.2 11.36 11
  340.4 6.65 6
  340.5 10.62 10
  340.6 16.07 16
  340.7 18.67 18
  340.8 17.31 17
  341.8 10.16 10
  341.9 12.39 12
  342.0 13.69 13
  342.1 13.58 13
  342.2 12.93 12
  342.5 10.9 10
  342.6 12.56 12
  342.7 14.96 14
  342.8 15.42 15
  342.9 13.67 13
  343.0 11.88 11
  343.4 10.97 10
  343.5 11.82 11
  343.6 13.48 13
  343.7 14.13 14
  343.8 12.84 12
  344.0 10.79 10
  344.1 12.69 12
  344.2 14.85 14
  344.3 15.57 15
  344.4 14.57 14
  344.5 12.43 12
  344.6 10.01 9
  344.8 8.83 8
  344.9 10.82 10
  345.0 13.0 12
  345.1 13.56 13
  345.2 12.45 12
  345.3 11.88 11
  345.4 13.39 13
  345.5 15.46 15
  345.6 15.29 15
  345.7 12.89 12
  346.0 12.15 12
  346.1 13.15 13
  346.2 14.33 14
  346.3 15.46 15
  346.4 15.55 15
  346.5 14.17 14
  346.6 12.52 12
  346.7 11.82 11
  346.8 11.51 11
  347.1 9.86 9
  347.2 11.88 11
  347.3 13.85 13
  347.4 14.5 14
  347.5 13.56 13
  347.6 11.36 11
  347.8 8.46 8
  347.9 10.55 10
  348.0 14.0 13
  348.1 16.68 16
  348.2 17.27 17
  348.3 15.85 15
  348.4 13.32 13
  348.5 10.9 10
  348.8 10.16 10
  348.9 11.84 11
  349.0 13.65 13
  349.1 14.74 14
  349.2 14.98 14
  349.3 14.89 14
  349.4 14.7 14
  349.5 13.82 13
  349.6 11.86 11
  351.2 8.26 8
  351.3 10.05 10
  351.4 11.25 11
  351.5 10.95 10
  351.6 10.4 10
  351.7 11.4 11
  351.8 13.98 13
  351.9 16.07 16
  352.0 16.01 15
  352.1 14.13 14
  352.2 12.08 12
  352.7 11.08 11
  352.8 11.38 11
  352.9 12.15 12
  353.0 13.87 13
  353.1 15.74 15
  353.2 16.11 16
  353.3 14.35 14
  353.4 11.86 11
  353.8 11.25 11
  353.9 11.93 11
  354.0 14.11 14
  354.1 16.44 16
  354.2 16.64 16
  354.3 14.2 14
  355.6 7.5 7
  355.7 11.75 11
  355.8 17.58 17
  355.9 21.94 21
  356.0 22.96 22
  356.1 20.82 20
  356.2 17.29 17
  357.0 12.69 12
  357.1 14.28 14
  357.2 15.05 15
  357.3 14.65 14
  357.4 14.59 14
  357.5 15.74 15
  357.6 16.64 16
  357.7 15.77 15
  359.9 9.77 9
  360.0 13.02 13
  360.1 16.22 16
  360.2 17.07 17
  360.3 15.48 15
  360.4 13.34 13
  360.5 11.97 11
  360.6 11.23 11
  360.9 9.46 9
  361.0 11.38 11
  361.1 14.09 14
  361.2 14.94 14
  361.3 12.54 12
  361.6 8.07 8
  361.7 11.34 11
  361.8 15.59 15
  361.9 19.1 19
  362.0 19.71 19
  362.1 17.05 17
  362.2 13.17 13
  362.4 11.06 11
  362.5 13.02 13
  362.6 14.94 14
  362.7 15.81 15
  362.8 15.87 15
  362.9 15.87 15
  363.0 15.74 15
  363.1 14.85 14
  363.2 12.87 12
  363.3 10.38 10
  363.6 8.72 8
  363.7 10.36 10
  363.8 12.69 12
  363.9 15.44 15
  364.0 17.03 17
  364.1 16.14 16
  364.2 13.48 13
  364.3 10.73 10
  364.4 8.59 8
  364.6 6.89 6
  364.7 8.33 8
  364.8 9.9 9
  364.9 10.25 10
  365.0 10.47 10
  365.1 12.36 12
  365.2 15.05 15
  365.3 15.66 15
  365.4 13.45 13
  365.6 11.4 11
  365.7 14.13 14
  365.8 17.01 16
  365.9 18.14 18
  366.0 17.29 17
  366.1 14.91 14
  366.2 12.23 12
  367.0 8.4 8
  367.1 12.47 12
  367.2 15.22 15
  367.3 14.76 14
  367.4 12.12 12
  367.5 9.33 9
  367.7 7.44 7
  367.8 8.63 8
  367.9 10.64 10
  368.0 12.56 12
  368.1 13.65 13
  368.2 13.67 13
  369.5 10.99 10
  369.6 11.64 11
  369.7 12.52 12
  369.8 13.15 13
  369.9 13.34 13
  370.0 12.8 12
  370.1 11.4 11
  370.4 9.64 9
  370.5 10.53 10
  370.6 11.51 11
  370.7 12.25 12
  370.8 12.58 12
  370.9 12.97 12
  371.0 14.24 14
  371.1 15.92 15
  371.2 16.46 16
  371.3 15.15 15
  371.5 13.28 13
  371.6 14.87 14
  371.7 16.75 16
  371.8 17.47 17
  371.9 16.46 16
  372.0 14.52 14
  373.0 12.3 12
  373.1 13.58 13
  373.2 14.89 14
  373.3 15.13 15
  373.4 13.82 13
  373.5 11.88 11
  373.6 10.84 10
  373.7 10.95 10
  373.8 10.64 10
  374.1 8.09 8
  374.2 10.88 10
  374.3 13.52 13
  374.4 13.74 13
  374.5 11.45 11
  375.3 7.85 7
  375.4 9.38 9
  375.5 11.93 11
  375.6 13.8 13
  375.7 13.85 13
  375.8 13.02 13
  375.9 13.24 13
  376.0 14.65 14
  376.1 15.66 15
  376.2 15.13 15
  376.3 13.54 13
  376.4 11.84 11
  376.6 10.68 10
  376.7 11.91 11
  376.8 13.37 13
  376.9 13.3 13
  377.2 11.12 11
  377.3 13.89 13
  377.4 16.09 16
  377.5 15.61 15
  377.6 12.39 12
  377.9 8.98 8
  378.0 12.84 12
  378.1 15.15 15
  378.2 14.44 14
  378.3 11.99 11
  379.7 7.87 7
  379.8 9.29 9
  379.9 11.38 11
  380.0 13.3 13
  380.1 14.28 14
  380.2 13.45 13
  380.3 10.75 10
  380.5 7.39 7
  380.6 9.55 9
  380.7 12.1 12
  380.8 12.76 12
  380.9 11.36 11
  381.8 7.39 7
  381.9 9.55 9
  382.0 11.73 11
  382.1 12.15 12
  382.2 10.79 10
  382.3 9.14 9
  382.4 8.31 8
  382.5 7.98 7
  382.8 5.28 5
  382.9 7.17 7
  383.0 10.55 10
  383.1 13.24 13
  383.2 13.37 13
  383.3 10.92 10
  383.6 8.66 8
  383.7 10.05 10
  383.8 10.51 10
  383.9 11.23 11
  384.0 12.41 12
  384.1 12.43 12
  384.2 10.51 10
  384.3 8.35 8
  384.8 8.57 8
  384.9 9.42 9
  385.0 10.38 10
  385.1 11.06 11
  385.2 11.38 11
  385.3 11.3 11
  385.4 10.86 10
  385.5 10.53 10
  385.6 10.86 10
  385.7 11.56 11
  385.8 12.06 12
  385.9 12.41 12
  386.0 12.76 12
  386.1 12.54 12
  386.2 11.16 11
  386.4 9.03 9
  386.5 11.36 11
  386.6 15.11 15
  386.7 17.73 17
  386.8 17.75 17
  386.9 15.85 15
  387.0 13.78 13
  387.1 12.43 12
  387.4 11.43 11
  387.5 13.26 13
  387.6 14.96 14
  387.7 15.15 15
  387.8 14.02 14
  387.9 12.82 12
  388.0 12.23 12
  388.1 11.97 11
  388.8 10.92 10
  388.9 11.77 11
  389.0 12.93 12
  389.1 14.13 14
  389.2 14.81 14
  389.3 14.37 14
  389.4 12.91 12
  390.6 6.67 6
  390.7 8.94 8
  390.8 12.67 12
  390.9 14.78 14
  391.0 13.56 13
  391.1 10.62 10
  391.8 6.91 6
  391.9 9.46 9
  392.0 11.25 11
  392.1 11.23 11
  392.2 10.38 10
  392.3 10.03 10
  392.4 10.25 10
  392.5 10.12 10
  392.6 9.09 9
  392.7 7.83 7
  392.9 6.83 6
  393.0 7.37 7
  393.1 9.86 9
  393.2 14.11 14
  393.3 17.47 17
  393.4 17.31 17
  393.5 14.13 14
  393.6 10.68 10
  395.0 7.0 6
  395.1 8.07 8
  395.2 8.63 8
  395.3 8.29 8
  395.4 8.57 8
  395.5 10.68 10
  395.6 13.65 13
  395.7 15.39 15
  395.8 15.22 15
  395.9 13.98 13
  396.0 11.73 11
  396.1 8.02 8
  396.3 4.1 4
  396.4 6.98 6
  396.5 9.94 9
  396.6 10.53 10
  396.7 9.62 9
  396.8 9.38 9
  396.9 10.34 10
  397.0 11.54 11
  397.1 12.08 12
  397.2 11.75 11
  397.3 10.86 10
  397.4 10.49 10
  397.5 11.6 11
  397.6 13.58 13
  397.7 14.24 14
  397.8 12.36 12
  398.1 9.05 9
  398.2 13.02 13
  398.3 16.42 16
  398.4 16.66 16
  398.5 13.8 13
  398.6 10.38 10
  398.8 9.62 9
  398.9 10.9 10
  399.0 11.75 11
  399.1 12.34 12
  399.2 12.93 12
  399.3 13.28 13
  399.4 13.43 13
  399.5 13.45 13
  399.6 13.61 13
  399.7 13.87 13
  399.8 13.98 13
  399.9 13.56 13
  400.2 11.14 11
  400.3 13.21 13
  400.4 15.46 15
  400.5 14.98 14
  400.6 11.56 11
  400.8 9.33 9
  400.9 12.69 12
  401.0 14.59 14
  401.1 13.15 13
  401.3 10.9 10
  401.4 12.82 12
  401.5 14.2 14
  401.6 13.98 13
  401.7 12.89 12
  402.4 8.68 8
  402.5 11.08 11
  402.6 14.22 14
  402.7 16.88 16
  402.8 18.91 18
  402.9 20.08 20
  403.0 19.54 19
  403.1 17.51 17
  403.2 15.46 15
  403.3 14.57 14
  403.4 14.7 14
  403.5 14.57 14
  403.6 13.32 13
  403.9 11.34 11
  404.0 12.65 12
  404.1 13.72 13
  404.2 14.24 14
  404.3 14.74 14
  404.4 15.7 15
  404.5 16.68 16
  404.6 16.46 16
  404.7 14.61 14
  404.8 12.08 12
  405.0 10.82 10
  405.1 12.21 12
  405.2 13.3 13
  405.3 13.24 13
  405.4 12.63 12
  405.5 12.04 12
  405.8 10.47 10
  405.9 11.67 11
  406.0 13.43 13
  406.1 13.54 13
  406.2 11.06 11
  406.4 8.72 8
  406.5 12.12 12
  406.6 15.66 15
  406.7 16.62 16
  406.8 14.91 14
  406.9 12.54 12
  407.0 11.4 11
  407.4 10.62 10
  407.5 13.13 13
  407.6 16.7 16
  407.7 18.01 17
  407.8 15.79 15
  407.9 12.17 12
  408.0 9.97 9
  408.5 8.74 8
  408.6 10.75 10
  408.7 14.09 14
  408.8 16.38 16
  408.9 15.9 15
  409.0 12.89 12
  409.1 9.53 9
  409.8 9.68 9
  409.9 11.1 11
  410.0 11.8 11
  410.1 12.06 12
  410.2 11.95 11
  410.3 11.25 11
  410.6 9.86 9
  410.7 10.84 10
  410.8 11.49 11
  410.9 11.47 11
  411.0 11.4 11
  411.1 12.23 12
  411.2 13.65 13
  411.3 14.57 14
  411.4 14.68 14
  411.5 14.72 14
  411.6 14.94 14
  411.7 14.81 14
  411.8 14.13 14
  411.9 13.76 13
  412.0 14.2 14
  412.1 14.74 14
  413.0 12.89 12
  413.1 14.68 14
  413.2 15.63 15
  413.3 13.5 13
  413.4 8.55 8
  413.6 3.25 3
  413.7 6.96 6
  413.8 11.86 11
  413.9 14.96 14
  414.0 15.66 15
  414.1 15.05 15
  414.2 14.15 14
  414.3 13.43 13
  414.4 12.45 12
  414.5 10.62 10
  414.8 8.96 8
  414.9 11.49 11
  415.0 13.17 13
  415.1 12.87 12
  416.0 8.29 8
  416.1 9.57 9
  416.2 11.67 11
  416.3 13.67 13
  416.4 14.61 14
  416.5 14.28 14
  416.6 13.52 13
  416.7 13.5 13
  416.8 14.74 14
  416.9 16.92 16
  417.0 19.19 19
  417.1 20.15 20
  417.2 18.86 18
  417.3 16.09 16
  418.5 11.12 11
  418.6 14.24 14
  418.7 17.75 17
  418.8 18.64 18
  418.9 16.59 16
  419.0 13.52 13
  419.8 11.62 11
  419.9 12.91 12
  420.0 13.85 13
  420.1 13.93 13
  420.2 13.52 13
  420.6 12.54 12
  420.7 13.37 13
  420.8 14.61 14
  420.9 15.2 15
  421.0 14.44 14
  421.1 13.11 13
  421.2 12.6 12
  421.3 12.63 12
  421.6 10.64 10
  421.7 12.69 12
  421.8 15.11 15
  421.9 15.2 15
  422.0 12.32 12
  422.2 9.11 9
  422.3 12.19 12
  422.4 14.81 14
  422.5 14.39 14
  423.2 8.33 8
  423.3 11.1 11
  423.4 13.52 13
  423.5 13.11 13
  423.6 9.53 9
  423.8 3.77 3
  423.9 7.3 7
  424.0 13.91 13
  424.1 18.56 18
  424.2 17.38 17
  424.3 11.82 11
  424.5 8.57 8
  424.6 12.28 12
  424.7 14.33 14
  424.8 13.82 13
  424.9 13.45 13
  425.0 14.68 14
  425.1 15.55 15
  425.2 14.35 14
  425.3 12.15 12
  425.4 10.66 10
  425.5 9.77 9
  425.8 8.81 8
  425.9 9.49 9
  426.0 10.34 10
  426.1 10.82 10
  426.4 9.25 9
  426.5 10.49 10
  426.6 12.01 11
  426.7 12.8 12
  426.8 12.87 12
  426.9 12.78 12
  427.0 13.02 13
  427.1 13.48 13
  427.2 13.28 13
  427.9 11.49 11
  428.0 14.35 14
  428.1 17.79 17
  428.2 18.88 18
  428.3 17.12 17
  428.4 13.85 13
  428.5 10.9 10
  428.7 10.68 10
  428.8 12.08 12
  428.9 12.69 12
  429.0 13.06 13
  429.1 13.85 13
  429.2 14.2 14
  429.3 13.17 13
  430.8 10.18 10
  430.9 12.87 12
  431.0 16.18 16
  431.1 17.14 17
  431.2 14.94 14
  431.5 10.88 10
  431.6 14.13 14
  431.7 16.9 16
  431.8 16.9 16
  431.9 14.61 14
  432.0 12.47 12
  432.1 11.8 11
  432.2 11.64 11
  432.5 9.75 9
  432.6 11.1 11
  432.7 13.15 13
  432.8 14.46 14
  432.9 14.52 14
  433.0 14.09 14
  433.1 13.52 13
  433.2 12.34 12
  433.3 10.34 10
  433.6 8.7 8
  433.7 11.67 11
  433.8 15.05 15
  433.9 17.01 16
  434.0 16.88 16
  434.1 15.7 15
  434.2 14.68 14
  434.3 13.93 13
  435.1 11.06 11
  435.2 13.04 13
  435.3 14.26 14
  435.4 13.19 13
  436.5 7.15 7
  436.6 9.09 9
  436.7 11.3 11
  436.8 11.99 11
  436.9 11.58 11
  437.0 11.36 11
  437.1 11.54 11
  437.2 11.03 11
  438.0 7.44 7
  438.1 9.03 9
  438.2 11.56 11
  438.3 12.8 12
  438.4 12.32 12
  438.5 12.08 12
  438.6 13.48 13
  438.7 15.24 15
  438.8 14.83 14
  438.9 12.32 12
  439.3 12.69 12
  439.4 12.8 12
  439.5 13.63 13
  439.6 14.85 14
  439.7 14.72 14
  439.8 12.45 12
  439.9 9.55 9
  440.1 8.46 8
  440.2 10.1 10
  440.3 11.88 11
  440.4 13.06 13
  440.5 13.21 13
  440.6 12.97 12
  440.7 13.45 13
  440.8 14.7 14
  440.9 15.77 15
  441.0 15.66 15
  441.1 13.87 13
  441.2 10.53 10
  441.3 6.93 6
  441.5 5.91 5
  441.6 7.59 7
  441.7 8.55 8
  441.8 8.87 8
  441.9 9.81 9
  442.0 11.49 11
  442.1 12.84 12
  442.2 12.87 12
  442.3 12.01 11
  443.4 7.85 7
  443.5 8.66 8
  443.6 9.86 9
  443.7 11.64 11
  443.8 13.52 13
  443.9 14.44 14
  444.0 13.54 13
  444.1 11.3 11
  444.3 9.22 9
  444.4 11.06 11
  444.5 13.58 13
  444.6 14.87 14
  444.7 14.04 14
  444.8 11.82 11
  445.1 9.2 9
  445.2 10.6 10
  445.3 11.86 11
  445.4 12.36 12
  445.5 12.41 12
  445.6 12.54 12
  445.7 12.47 12
  445.8 11.49 11
  445.9 9.75 9
  446.7 7.26 7
  446.8 9.94 9
  446.9 14.2 14
  447.0 16.86 16
  447.1 15.29 15
  447.2 10.36 10
  447.4 5.69 5
  447.5 8.87 8
  447.6 13.24 13
  447.7 16.86 16
  447.8 18.71 18
  447.9 18.47 18
  448.0 17.01 16
  448.1 15.77 15
  448.2 15.31 15
  448.3 14.76 14
  448.4 13.26 13
  448.7 10.51 10
  448.8 13.28 13
  448.9 16.11 16
  449.0 17.05 17
  449.1 16.25 16
  451.8 8.9 8
  451.9 12.41 12
  452.0 16.05 16
  452.1 16.4 16
  452.2 13.54 13
  453.1 11.06 11
  453.2 12.17 12
  453.3 14.17 14
  453.4 15.68 15
  453.5 14.63 14
  453.6 10.79 10
  453.8 7.39 7
  453.9 10.1 10
  454.0 12.47 12
  454.1 12.84 12
  454.2 12.1 12
  454.3 11.77 11
  454.4 12.47 12
  454.5 13.69 13
  454.6 14.74 14
  454.7 15.61 15
  454.8 15.92 15
  454.9 14.81 14
  455.0 12.21 12
  455.1 9.97 9
  455.5 9.64 9
  455.6 10.4 10
  455.7 11.86 11
  455.8 13.28 13
  455.9 13.8 13
  456.0 12.58 12
  456.3 8.72 8
  456.4 12.21 12
  456.5 14.44 14
  456.6 12.8 12
  456.7 8.77 8
  456.9 6.02 6
  457.0 8.48 8
  457.1 11.64 11
  457.2 15.0 14
  457.3 18.19 18
  457.4 19.89 19
  457.5 19.06 19
  457.6 16.75 16
  457.7 14.81 14
  457.8 13.54 13
  457.9 12.12 12
  458.2 9.92 9
  458.3 11.84 11
  458.4 14.22 14
  458.5 16.07 16
  458.6 16.38 16
  458.7 14.57 14
  458.8 11.34 11
  459.1 9.46 9
  459.2 12.52 12
  459.3 14.39 14
  459.4 13.96 13
  459.5 11.8 11
  459.6 9.51 9
  460.2 7.41 7
  460.3 8.35 8
  460.4 11.51 11
  460.5 14.54 14
  460.6 14.37 14
  460.7 10.71 10
  460.8 6.28 6
  461.0 4.67 4
  461.1 6.91 6
  461.2 9.18 9
  461.3 10.6 10
  461.4 11.21 11
  461.5 11.1 11
  461.6 10.38 10
  461.7 9.25 9
  462.0 9.11 9
  462.1 10.36 10
  462.2 11.75 11
  462.3 13.65 13
  462.4 15.53 15
  462.5 15.42 15
  462.6 11.86 11
  462.9 7.44 7
  463.0 11.56 11
  463.1 13.37 13
  463.2 12.65 12
  463.3 11.47 11
  463.4 10.55 10
  463.7 9.29 9
  463.8 11.99 11
  463.9 14.35 14
  464.0 14.26 14
  464.1 12.12 12
  464.7 10.71 10
  464.8 12.17 12
  464.9 14.3 14
  465.0 15.46 15
  465.1 14.76 14
  465.3 12.78 12
  465.4 14.06 14
  465.5 16.44 16
  465.6 18.45 18
  465.7 18.53 18
  465.8 16.07 16
  465.9 12.19 12
  466.1 8.9 8
  466.2 11.49 11
  466.3 14.5 14
  466.4 15.31 15
  466.5 13.54 13
  466.7 10.6 10
  466.8 12.63 12
  466.9 14.98 14
  467.0 14.87 14
  467.1 11.95 11
  467.4 8.9 8
  467.5 11.32 11
  467.6 12.69 12
  467.7 11.64 11
  467.9 8.13 8
  468.0 10.88 10
  468.1 15.77 15
  468.2 18.75 18
  468.3 17.88 17
  468.4 15.11 15
  468.5 13.26 13
  469.3 9.05 9
  469.4 11.3 11
  469.5 13.02 13
  469.6 12.82 12
  469.7 11.73 11
  469.8 11.49 11
  469.9 12.36 12
  470.0 12.89 12
  470.1 12.3 12
  470.2 11.4 11
  470.3 11.06 11
  470.4 10.97 10
  470.5 10.31 10
  470.8 9.57 9
  470.9 11.56 11
  471.0 14.11 14
  471.1 16.29 16
  471.2 16.81 16
  471.3 14.81 14
  471.4 10.82 10
  471.6 8.02 8
  471.7 11.14 11
  471.8 13.41 13
  471.9 12.8 12
  472.0 10.97 10
  472.5 9.75 9
  472.6 11.14 11
  472.7 13.13 13
  472.8 14.2 14
  472.9 14.15 14
  473.0 14.11 14
  473.1 14.46 14
  473.2 14.76 14
  473.3 14.26 14
  473.4 12.34 12
  473.5 9.29 9
  473.7 7.48 7
  473.8 11.21 11
  473.9 15.33 15
  474.0 16.4 16
  474.1 13.17 13
  474.2 7.68 7
  474.4 3.58 3
  474.5 7.11 7
  474.6 10.84 10
  474.7 11.8 11
  474.8 10.49 10
  474.9 10.05 10
  475.0 12.36 12
  475.1 15.7 15
  475.2 16.72 16
  475.3 14.13 14
  475.4 10.18 10
  475.6 9.05 9
  475.7 11.1 11
  475.8 11.71 11
  475.9 11.06 11
  476.0 11.45 11
  476.1 13.69 13
  476.2 16.05 16
  476.3 16.81 16
  476.4 15.66 15
  476.5 13.17 13
  477.3 8.61 8
  477.4 12.23 12
  477.5 13.78 13
  477.6 12.95 12
  477.7 11.19 11
  477.9 9.57 9
  478.0 10.99 10
  478.1 13.48 13
  478.2 14.96 14
  478.3 13.56 13
  478.4 9.88 9
  478.6 7.06 7
  478.7 9.22 9
  478.8 10.88 10
  478.9 11.3 11
  479.0 12.28 12
  479.1 15.15 15
  479.2 18.6 18
  479.3 20.26 20
  479.4 19.86 19
  479.5 18.91 18
  479.6 18.12 18
  479.7 16.81 16
  479.8 14.7 14
  480.1 13.13 13
  480.2 14.06 14
  480.3 15.02 15
  480.4 16.57 16
  480.5 19.19 19
  480.6 21.91 21
  480.7 22.37 22
  480.8 19.1 19
  480.9 13.69 13
  481.1 10.27 10
  481.2 13.63 13
  481.3 17.05 17
  481.4 18.51 18
  481.5 18.45 18
  481.6 18.16 18
  481.7 17.88 17
  481.8 17.01 16
  481.9 15.24 15
  482.6 14.04 14
  482.7 15.37 15
  482.8 16.57 16
  482.9 15.92 15
  483.0 12.95 12
  483.3 9.44 9
  483.4 12.84 12
  483.5 14.72 14
  483.6 13.63 13
  483.7 10.99 10
  483.9 9.77 9
  484.0 11.95 11
  484.1 13.93 13
  484.2 14.26 14
  484.3 12.91 12
  484.4 10.88 10
  484.6 9.42 9
  484.7 10.77 10
  484.8 12.06 12
  484.9 12.01 11
  485.0 11.06 11
  485.1 10.79 10
  485.2 11.62 11
  485.3 12.71 12
  485.4 13.32 13
  485.5 14.02 14
  485.6 15.53 15
  485.7 17.2 17
  485.8 17.58 17
  485.9 15.53 15
  486.0 11.56 11
  486.1 7.76 7
  486.3 6.8 6
  486.4 7.96 7
  486.5 8.83 8
  486.6 10.05 10
  486.7 12.23 12
  486.8 14.44 14
  486.9 14.83 14
  487.0 12.73 12
  487.8 7.76 7
  487.9 10.36 10
  488.0 13.28 13
  488.1 14.98 14
  488.2 14.83 14
  488.3 13.21 13
  488.5 11.71 11
  488.6 13.8 13
  488.7 16.09 16
  488.8 16.51 16
  488.9 14.61 14
  489.0 11.77 11
  489.3 10.16 10
  489.4 11.99 11
  489.5 13.41 13
  489.6 13.32 13
  489.7 11.77 11
  490.0 9.57 9
  490.1 10.86 10
  490.2 12.6 12
  490.3 14.02 14
  490.4 14.11 14
  490.5 12.52 12
  490.6 10.34 10
  490.8 9.42 9
  490.9 10.77 10
  491.0 12.41 12
  491.1 13.89 13
  491.2 14.83 14
  491.3 14.57 14
  491.4 12.87 12
  491.5 10.38 10
  491.7 8.66 8
  491.8 10.88 10
  491.9 12.6 12
  492.0 11.25 11
  492.2 6.93 6
  492.3 9.4 9
  492.4 13.19 13
  492.5 15.42 15
  492.6 14.94 14
  492.9 11.23 11
  493.0 15.72 15
  493.1 20.56 20
  493.2 21.76 21
  493.3 18.34 18
  493.4 13.15 13
  493.6 11.77 11
  493.7 14.63 14
  493.8 15.68 15
  493.9 13.96 13
  494.0 10.88 10
  494.2 8.4 8
  494.3 10.75 10
  494.4 14.04 14
  494.5 16.05 16
  494.6 16.29 16
  494.7 15.96 15
  494.8 16.01 15
  494.9 16.18 16
  495.0 16.16 16
  495.1 16.01 15
  495.2 15.39 15
  495.3 14.02 14
  495.4 12.1 12
  495.7 8.94 8
  495.8 12.67 12
  495.9 17.31 17
  496.0 19.58 19
  496.1 18.84 18
  496.2 17.2 17
  496.3 16.03 16
  496.4 14.65 14
  496.5 12.32 12
  496.6 9.66 9
  496.8 8.07 8
  496.9 10.34 10
  497.0 13.8 13
  497.1 16.25 16
  497.2 16.18 16
  497.3 14.37 14
  497.4 12.6 12
  497.7 11.34 11
  497.8 11.82 11
  497.9 13.61 13
  498.0 15.98 15
  498.1 17.29 17
  498.2 16.62 16
  498.3 14.78 14
  499.3 8.68 8
  499.4 11.97 11
  499.5 15.72 15
  499.6 17.86 17
  499.7 18.05 18
  499.8 16.72 16
  499.9 14.11 14
  500.7 7.7 7
  500.8 10.01 9
  500.9 11.69 11
  501.0 12.67 12
  501.1 13.78 13
  501.2 15.11 15
  501.3 15.87 15
  501.4 15.83 15
  501.5 15.02 15
  501.6 13.5 13
  501.7 11.73 11
  501.8 10.31 10
  502.1 8.33 8
  502.2 9.14 9
  502.3 11.4 11
  502.4 14.5 14
  502.5 17.07 17
  502.6 17.58 17
  502.7 15.57 15
  502.8 12.45 12
  505.2 7.28 7
  505.3 8.72 8
  505.4 10.68 10
  505.5 12.28 12
  505.6 12.97 12
  505.7 12.19 12
  505.8 10.14 10
  506.0 8.9 8
  506.1 11.03 11
  506.2 11.99 11
  506.3 11.01 10
  506.4 10.23 10
  506.5 10.82 10
  506.6 11.21 11
  506.7 10.07 10
  506.8 9.16 9
  506.9 10.55 10
  507.0 13.5 13
  507.1 15.07 15
  507.2 13.56 13
  507.3 10.05 10
  507.5 6.02 6
  507.6 8.37 8
  507.7 13.41 13
  507.8 18.64 18
  507.9 20.87 20
  508.0 19.04 19
  508.1 14.85 14
  508.2 11.12 11
  508.5 10.07 10
  508.6 10.86 10
  508.7 11.6 11
  508.8 12.78 12
  508.9 14.74 14
  509.0 16.75 16
  509.1 17.29 17
  509.9 12.32 12
  510.0 14.7 14
  510.1 16.79 16
  510.2 17.27 17
  510.3 16.55 16
  510.4 15.53 15
  510.5 13.78 13
  510.6 10.95 10
  510.8 7.41 7
  510.9 10.25 10
  511.0 14.59 14
  511.1 16.77 16
  511.2 15.26 15
  511.3 11.82 11
  511.9 8.44 8
  512.0 12.32 12
  512.1 16.46 16
  512.2 17.03 17
  512.3 14.41 14
  512.4 12.15 12
  512.5 11.91 11
  512.6 12.19 12
  512.9 9.88 9
  513.0 11.43 11
  513.1 13.04 13
  513.2 12.67 12
  513.3 9.99 9
  513.5 7.39 7
  513.6 10.79 10
  513.7 15.46 15
  513.8 18.03 18
  513.9 16.2 16
  514.0 10.99 10
  514.2 8.13 8
  514.3 12.47 12
  514.4 14.91 14
  514.5 12.8 12
  515.4 4.56 4
  515.5 8.0 7
  515.6 11.45 11
  515.7 13.45 13
  515.8 13.0 12
  515.9 10.36 10
  516.1 7.76 7
  516.2 10.77 10
  516.3 15.09 15
  516.4 17.95 17
  516.5 17.05 17
  516.6 12.65 12
  517.4 7.7 7
  517.5 10.66 10
  517.6 14.06 14
  517.7 15.61 15
  517.8 14.68 14
  517.9 12.21 12
  518.0 9.59 9
  518.3 8.44 8
  518.4 9.4 9
  518.5 11.27 11
  518.6 13.78 13
  518.7 14.87 14
  518.8 12.8 12
  518.9 8.87 8
  519.8 7.15 7
  519.9 8.92 8
  520.0 11.64 11
  520.1 13.48 13
  520.2 13.58 13
  520.3 13.02 13
  520.4 13.41 13
  520.5 15.0 14
  520.6 16.07 16
  520.7 15.0 14
  520.8 12.06 12
  521.1 8.96 8
  521.2 11.88 11
  521.3 15.35 15
  521.4 16.96 16
  521.5 15.35 15
  521.6 11.47 11
  521.7 8.02 8
  521.9 7.87 7
  522.0 9.14 9
  522.1 9.88 9
  522.2 10.53 10
  522.3 11.71 11
  522.4 13.32 13
  522.5 14.35 14
  522.6 13.91 13
  522.7 12.43 12
  522.8 11.03 11
  523.7 7.87 7
  523.8 8.9 8
  523.9 11.1 11
  524.0 13.26 13
  524.1 13.76 13
  524.2 12.36 12
  524.3 10.16 10
  525.0 7.48 7
  525.1 8.81 8
  525.2 12.08 12
  525.3 13.65 13
  525.4 12.04 12
  525.5 10.4 10
  525.6 12.1 12
  525.7 16.09 16
  525.8 17.97 17
  525.9 15.72 15
  526.2 11.95 11
  526.3 14.87 14
  526.4 18.1 18
  526.5 20.93 20
  526.6 22.05 22
  526.7 20.19 20
  526.8 16.18 16
  528.1 7.65 7
  528.2 9.97 9
  528.3 11.45 11
  528.4 10.77 10
  528.5 9.27 9
  528.6 9.38 9
  528.7 12.23 12
  528.8 15.83 15
  528.9 16.77 16
  529.0 13.72 13
  529.1 8.74 8
  529.3 6.32 6
  529.4 10.05 10
  529.5 13.17 13
  529.6 13.0 12
  531.0 6.8 6
  531.1 8.83 8
  531.2 10.12 10
  531.3 9.94 9
  531.4 9.59 9
  531.5 10.31 10
  531.6 11.64 11
  531.7 12.73 12
  531.8 13.56 13
  531.9 14.11 14
  532.0 13.93 13
  532.8 6.17 6
  532.9 12.3 12
  533.0 16.96 16
  533.1 16.64 16
  533.2 12.95 12
  533.8 10.16 10
  533.9 11.75 11
  534.0 14.33 14
  534.1 15.68 15
  534.2 14.37 14
  534.3 11.38 11
  534.5 10.03 10
  534.6 12.34 12
  534.7 13.91 13
  534.8 13.48 13
  535.7 10.4 10
  535.8 12.15 12
  535.9 13.32 13
  536.2 11.4 11
  536.3 14.41 14
  536.4 17.73 17
  536.5 18.62 18
  536.6 16.7 16
  536.7 13.02 13
  536.8 9.18 9
  537.0 7.13 7
  537.1 9.01 9
  537.2 11.06 11
  537.3 12.67 12
  537.4 13.56 13
  537.5 13.5 13
  537.6 12.87 12
  537.7 12.43 12
  537.8 12.45 12
  537.9 12.32 12
  538.0 11.49 11
  538.3 9.79 9
  538.4 12.39 12
  538.5 14.37 14
  538.6 13.82 13
  540.1 10.84 10
  540.2 12.49 12
  540.3 13.65 13
  540.4 14.15 14
  540.5 14.59 14
  540.6 15.02 15
  540.7 15.79 15
  540.8 17.1 17
  540.9 18.16 18
  541.0 17.47 17
  541.1 14.94 14
  541.2 11.86 11
  541.5 8.9 8
  541.6 11.8 11
  541.7 14.68 14
  541.8 15.31 15
  542.1 13.85 13
  542.2 15.74 15
  542.3 17.14 17
  542.4 17.1 17
  542.5 15.74 15
  542.6 13.56 13
  542.8 10.82 10
  542.9 12.56 12
  543.0 15.79 15
  543.1 18.34 18
  543.2 18.86 18
  543.3 18.34 18
  543.4 18.01 17
  543.5 17.66 17
  543.8 15.72 15
  543.9 16.92 16
  544.0 17.73 17
  544.1 17.07 17
  544.2 15.31 15
  544.3 13.8 13
  544.4 13.58 13
  544.5 14.04 14
  544.6 13.34 13
  544.8 9.94 9
  544.9 11.64 11
  545.0 15.31 15
  545.1 17.86 17
  545.2 17.23 17
  545.3 14.35 14
  545.5 11.8 11
  545.6 13.91 13
  545.7 16.22 16
  545.8 16.7 16
  545.9 14.76 14
  546.0 11.69 11
  546.2 10.01 9
  546.3 12.41 12
  546.4 15.13 15
  546.5 16.33 16
  546.6 14.89 14
  546.7 11.56 11
  546.9 8.63 8
  547.0 12.3 12
  547.1 17.03 17
  547.2 19.6 19
  547.3 18.91 18
  547.4 16.42 16
  547.5 13.82 13
  547.6 11.45 11
  547.9 10.34 10
  548.0 12.69 12
  548.1 14.68 14
  548.2 15.55 15
  548.3 15.48 15
  548.4 14.59 14
  548.5 13.0 12
  549.3 10.27 10
  549.4 12.01 11
  549.5 13.26 13
  549.6 13.11 13
  549.7 12.47 12
  549.8 12.78 12
  549.9 14.15 14
  550.0 14.7 14
  550.1 13.17 13
  550.4 10.66 10
  550.5 12.39 12
  550.6 13.61 13
  550.7 14.65 14
  550.8 15.7 15
  550.9 16.11 16
  551.0 15.48 15
  551.8 11.88 11
  551.9 13.02 13
  552.0 14.72 14
  552.1 15.05 15
  552.2 12.93 12
  552.3 9.66 9
  552.8 7.74 7
  552.9 9.2 9
  553.0 12.69 12
  553.1 15.57 15
  553.2 16.22 16
  553.3 15.57 15
  553.4 14.85 14
  554.4 12.43 12
  554.5 13.04 13
  554.6 13.85 13
  554.7 14.83 14
  554.8 14.85 14
  554.9 13.72 13
  555.0 13.11 13
  555.1 14.52 14
  555.2 16.66 16
  555.3 16.92 16
  555.4 14.61 14
  555.5 11.49 11
  555.7 10.12 10
  555.8 12.06 12
  555.9 14.41 14
  556.0 15.96 15
  556.1 15.87 15
  556.8 13.96 13
  556.9 15.07 15
  557.0 17.84 17
  557.1 20.98 20
  557.2 22.15 22
  557.3 20.34 20
  557.4 17.01 16
  560.4 4.88 4
  560.5 6.08 6
  560.6 8.42 8
  560.7 12.25 12
  560.8 16.83 16
  560.9 19.86 19
  561.0 19.78 19
  561.1 17.2 17
  561.2 14.24 14
  561.3 12.08 12
  562.0 9.55 9
  562.1 11.97 11
  562.2 15.9 15
  562.3 18.14 18
  562.4 17.55 17
  562.5 14.91 14
  562.8 11.54 11
  562.9 13.67 13
  563.0 14.44 14
  563.1 13.15 13
  563.2 11.34 11
  564.6 7.44 7
  564.7 9.55 9
  564.8 11.47 11
  564.9 12.47 12
  565.0 13.37 13
  565.1 14.37 14
  565.2 14.76 14
  565.3 14.17 14
  565.6 13.19 13
  565.7 14.59 14
  565.8 16.01 15
  565.9 15.72 15
  566.0 12.45 12
  566.1 7.33 7
  566.3 3.55 3
  566.4 7.06 7
  566.5 11.23 11
  566.6 13.56 13
  566.7 13.48 13
  566.8 11.77 11
  567.1 9.11 9
  567.2 10.88 10
  567.3 11.84 11
  567.4 11.86 11
  567.5 12.39 12
  567.6 13.54 13
  567.7 13.93 13
  567.8 13.0 12
  567.9 11.99 11
  568.0 11.93 11
  568.1 11.75 11
  568.2 9.79 9
  568.3 6.06 6
  568.5 2.25 2
  568.6 5.65 5
  568.7 10.6 10
  568.8 13.78 13
  568.9 14.22 14
  569.0 12.91 12
  569.1 10.64 10
  570.0 4.69 4
  570.1 7.78 7
  570.2 11.3 11
  570.3 14.2 14
  570.4 16.01 15
  570.5 16.01 15
  570.6 13.45 13
  570.7 9.31 9
  571.0 6.19 6
  571.1 8.44 8
  571.2 11.03 11
  571.3 12.82 12
  571.4 12.73 12
  571.5 11.19 11
  572.1 10.31 10
  572.2 11.93 11
  572.3 13.08 13
  572.4 13.82 13
  572.5 15.53 15
  572.6 17.9 17
  572.7 18.93 18
  572.8 17.62 17
  572.9 15.53 15
  573.0 14.09 14
  573.1 12.89 12
  573.2 11.34 11
  573.5 9.99 9
  573.6 10.97 10
  573.7 12.93 12
  573.8 14.48 14
  573.9 13.43 13
  574.0 10.2 10
  574.3 8.09 8
  574.4 9.94 9
  574.5 12.93 12
  574.6 16.46 16
  574.7 18.51 18
  574.8 17.86 17
  574.9 15.98 15
  575.0 15.35 15
  575.1 15.68 15
  575.2 14.7 14
  575.3 12.04 12
  575.9 9.44 9
  576.0 13.06 13
  576.1 17.18 17
  576.2 17.97 17
  576.3 14.59 14
  576.4 10.03 10
  576.5 7.63 7
  576.8 7.65 7
  576.9 8.0 7
  577.0 10.1 10
  577.1 12.69 12
  577.2 13.63 13
  577.5 11.8 11
  577.6 13.58 13
  577.7 15.53 15
  577.8 16.51 16
  577.9 16.11 16
  578.0 14.63 14
  578.1 12.76 12
  578.2 11.36 11
  579.8 4.73 4
  579.9 6.24 6
  580.0 9.68 9
  580.1 12.76 12
  580.2 13.3 13
  580.3 12.06 12
  580.4 11.73 11
  580.5 13.15 13
  580.6 14.28 14
  580.7 13.08 13
  580.8 10.23 10
  581.0 9.05 9
  581.1 11.64 11
  581.2 14.26 14
  581.3 15.46 15
  581.4 15.0 14
  581.5 13.48 13
  581.6 11.73 11
  581.7 10.25 10
  583.2 6.93 6
  583.3 9.03 9
  583.4 10.84 10
  583.5 11.49 11
  583.6 11.71 11
  583.7 12.89 12
  583.8 14.96 14
  583.9 15.85 15
  584.0 13.74 13
  584.1 9.83 9
  584.3 7.92 7
  584.4 10.25 10
  584.5 12.06 12
  584.6 12.32 12
  584.7 11.77 11
  584.8 11.19 11
  585.1 10.05 10
  585.2 12.34 12
  585.3 16.03 16
  585.4 18.8 18
  585.5 19.15 19
  585.6 17.6 17
  585.7 15.55 15
  585.8 14.26 14
  585.9 14.11 14
  586.0 13.93 13
  586.1 12.63 12
  586.2 10.05 10
  586.4 7.13 7
  586.5 8.87 8
  586.6 11.99 11
  586.7 14.24 14
  586.8 14.5 14
  586.9 13.63 13
  587.0 12.84 12
  588.6 12.87 12
  588.7 13.39 13
  588.8 14.35 14
  588.9 15.11 15
  589.0 15.44 15
  589.1 15.44 15
  589.2 15.33 15
  589.3 15.26 15
  589.4 15.31 15
  589.5 15.0 14
  589.6 13.67 13
  589.7 11.43 11
  591.0 9.44 9
  591.1 11.3 11
  591.2 13.52 13
  591.3 14.41 14
  591.4 13.06 13
  591.6 10.27 10
  591.7 12.41 12
  591.8 14.46 14
  591.9 13.45 13
  592.2 9.86 9
  592.3 13.15 13
  592.4 14.26 14
  592.5 12.69 12
  593.3 8.33 8
  593.4 10.1 10
  593.5 12.6 12
  593.6 12.84 12
  593.7 9.66 9
  594.0 6.17 6
  594.1 10.01 9
  594.2 12.08 12
  594.3 11.25 11
  594.4 9.62 9
  594.5 10.03 10
  594.6 12.78 12
  594.7 15.09 15
  594.8 14.41 14
  594.9 11.82 11
  595.3 11.03 11
  595.4 11.6 11
  595.5 13.21 13
  595.6 14.09 14
  595.7 13.78 13
  595.8 13.96 13
  595.9 15.31 15
  596.0 16.05 16
  596.1 14.83 14
  596.4 11.93 11
  596.5 13.54 13
  596.6 14.7 14
  596.7 14.22 14
  596.8 12.32 12
  596.9 10.42 10
  597.0 9.68 9
  597.3 8.61 8
  597.4 9.49 9
  597.5 11.93 11
  597.6 13.93 13
  597.7 13.74 13
  598.6 9.4 9
  598.7 10.88 10
  598.8 13.32 13
  598.9 14.94 14
  599.0 14.48 14
  599.8 8.77 8
  599.9 9.83 9
  600.0 12.32 12
  600.1 14.13 14
  600.2 13.39 13
  600.4 10.95 10
  600.5 13.13 13
  600.6 15.81 15
  600.7 16.14 16
  600.8 13.39 13
  601.6 11.01 10
  601.7 12.41 12
  601.8 14.33 14
  601.9 15.55 15
  602.0 15.07 15
  602.1 12.91 12
  602.3 9.33 9
  602.4 11.3 11
  602.5 15.85 15
  602.6 20.3 20
  602.7 21.17 21
  602.8 17.49 17
  602.9 12.17 12
  603.1 10.49 10
  603.2 13.19 13
  603.3 14.54 14
  603.6 12.12 12
  603.7 14.52 14
  603.8 17.03 17
  603.9 17.51 17
  604.0 16.29 16
  604.9 12.76 12
  605.0 13.8 13
  605.1 15.26 15
  605.2 16.27 16
  605.3 16.18 16
  605.4 14.89 14
  605.5 12.95 12
  605.7 11.06 11
  605.8 12.6 12
  605.9 15.07 15
  606.0 16.68 16
  606.1 16.55 16
  608.3 13.11 13
  608.4 15.05 15
  608.5 17.64 17
  608.6 19.15 19
  608.7 18.73 18
  609.6 9.99 9
  609.7 13.02 13
  609.8 16.16 16
  609.9 17.92 17
  610.0 17.62 17
  610.1 15.44 15
  610.2 12.32 12
  610.3 9.51 9
  610.5 8.44 8
  610.6 10.62 10
  610.7 12.87 12
  610.8 13.87 13
  610.9 13.61 13
  611.3 12.89 12
  611.4 14.54 14
  611.5 16.35 16
  611.6 16.86 16
  611.7 15.7 15
  611.8 13.3 13
  611.9 10.99 10
  612.4 8.79 8
  612.5 11.64 11
  612.6 16.64 16
  612.7 19.65 19
  612.8 18.56 18
  612.9 15.48 15
  613.0 13.89 13
  613.1 14.48 14
  613.2 14.81 14
  613.3 12.91 12
  613.5 10.07 10
  613.6 12.87 12
  613.7 16.09 16
  613.8 17.18 17
  613.9 16.14 16
  614.0 14.52 14
  615.9 11.16 11
  616.0 12.34 12
  616.1 13.74 13
  616.2 14.68 14
  616.3 14.39 14
  617.2 11.19 11
  617.3 13.24 13
  617.4 14.94 14
  617.5 14.46 14
  618.2 14.68 14
  618.3 15.85 15
  618.4 16.77 16
  618.5 17.58 17
  618.6 19.1 19
  618.7 20.76 20
  618.8 20.76 20
  618.9 19.01 18
  619.0 17.47 17
  619.1 17.18 17
  619.2 17.01 16
  619.3 15.37 15
  619.4 12.69 12
  619.6 10.44 10
  619.7 12.32 12
  619.8 15.37 15
  619.9 17.77 17
  620.0 17.92 17
  620.1 15.72 15
  620.2 12.67 12
  620.3 10.27 10
  620.5 8.9 8
  620.6 10.14 10
  620.7 11.97 11
  620.8 13.08 13
  620.9 12.58 12
  621.3 11.4 11
  621.4 11.99 11
  621.5 12.43 12
  621.6 13.5 13
  621.7 15.05 15
  621.8 15.68 15
  621.9 14.26 14
  622.1 11.06 11
  622.2 13.39 13
  622.3 16.83 16
  622.4 18.34 18
  622.5 16.88 16
  622.6 14.24 14
  622.7 12.25 12
  622.8 10.86 10
  623.1 9.66 9
  623.2 10.75 10
  623.3 11.03 11
  623.4 10.84 10
  623.5 10.82 10
  623.6 10.79 10
  623.7 10.34 10
  623.8 9.75 9
  623.9 9.92 9
  624.0 11.3 11
  624.1 13.3 13
  624.2 14.57 14
  624.3 13.96 13
  624.4 12.36 12
  626.0 9.59 9
  626.1 10.12 10
  626.2 11.51 11
  626.3 12.49 12
  626.4 12.08 12
  626.5 10.77 10
  627.0 9.42 9
  627.1 9.99 9
  627.2 11.3 11
  627.3 12.36 12
  627.4 11.97 11
  627.5 10.25 10
  627.7 7.96 7
  627.8 9.35 9
  627.9 12.19 12
  628.0 14.48 14
  628.1 14.24 14
  628.2 11.38 11
  628.5 8.44 8
  628.6 11.27 11
  628.7 12.97 12
  628.8 12.71 12
  628.9 11.43 11
  629.0 10.47 10
  629.3 9.92 9
  629.4 10.99 10
  629.5 13.11 13
  629.6 14.87 14
  629.7 14.61 14
  629.8 12.52 12
  629.9 10.73 10
  630.0 10.68 10
  630.1 11.03 11
  630.2 9.27 9
  630.4 4.54 4
  630.5 7.61 7
  630.6 12.25 12
  630.7 14.04 14
  630.8 12.23 12
  631.1 9.46 9
  631.2 11.23 11
  631.3 12.36 12
  631.4 11.88 11
  631.5 10.18 10
  632.1 9.03 9
  632.2 10.97 10
  632.3 12.97 12
  632.4 13.37 13
  632.5 12.63 12
  632.6 12.01 11
  632.7 11.91 11
  632.8 12.25 12
  632.9 13.3 13
  633.0 14.44 14
  633.1 14.09 14
  633.2 11.6 11
  633.5 8.92 8
  633.6 10.92 10
  633.7 12.21 12
  633.8 12.54 12
  633.9 12.39 12
  634.0 12.34 12
  634.1 12.01 11
  634.4 10.25 10
  634.5 12.54 12
  634.6 14.57 14
  634.7 14.44 14
  634.8 12.28 12
  635.0 9.35 9
  635.1 11.8 11
  635.2 15.94 15
  635.3 18.34 18
  635.4 16.7 16
  635.5 12.69 12
  635.7 11.91 11
  635.8 14.54 14
  635.9 15.24 15
  636.0 13.85 13
  636.1 12.6 12
  636.2 12.28 12
  636.3 11.16 11
  636.5 6.45 6
  636.6 8.24 8
  636.7 13.39 13
  636.8 18.16 18
  636.9 19.58 19
  637.0 18.03 18
  637.1 15.81 15
  637.2 14.15 14
  637.3 12.52 12
  637.6 10.36 10
  637.7 13.26 13
  637.8 15.42 15
  637.9 14.41 14
  638.0 10.44 10
  638.1 6.0 5
  638.4 4.32 4
  638.5 6.56 6
  638.6 9.77 9
  638.7 12.82 12
  638.8 13.67 13
  638.9 11.71 11
  639.8 8.57 8
  639.9 11.1 11
  640.0 14.96 14
  640.1 17.2 17
  640.2 15.79 15
  640.3 12.04 12
  641.5 8.09 8
  641.6 9.49 9
  641.7 10.71 10
  641.8 10.47 10
  641.9 9.07 9
  642.8 5.8 5
  642.9 8.59 8
  643.0 11.23 11
  643.1 13.3 13
  643.2 14.68 14
  643.3 14.39 14
  643.4 11.97 11
  644.8 6.17 6
  644.9 8.61 8
  645.0 10.64 10
  645.1 11.23 11
  645.2 11.03 11
  645.3 10.95 10
  645.4 10.62 10
  645.5 9.29 9
  645.7 7.81 7
  645.8 9.53 9
  645.9 10.92 10
  646.0 10.64 10
  646.1 9.4 9
  646.2 8.2 8
  646.4 6.93 6
  646.5 8.02 8
  646.6 9.92 9
  646.7 10.82 10
  646.8 10.05 10
  646.9 9.31 9
  647.0 10.25 10
  647.1 12.28 12
  647.2 13.43 13
  647.3 13.28 13
  647.4 13.0 12
  647.5 13.13 13
  647.6 12.45 12
  648.5 8.07 8
  648.6 10.16 10
  648.7 13.15 13
  648.8 16.18 16
  648.9 18.05 18
  649.0 17.64 17
  649.1 15.05 15
  649.2 12.23 12
  649.5 12.45 12
  649.6 12.41 12
  649.7 12.87 12
  649.8 14.81 14
  649.9 16.94 16
  650.0 17.47 17
  650.1 16.62 16
  651.4 9.86 9
  651.5 11.71 11
  651.6 13.96 13
  651.7 15.87 15
  651.8 15.96 15
  651.9 13.06 13
  652.0 8.68 8
  652.2 7.28 7
  652.3 11.36 11
  652.4 14.46 14
  652.5 14.15 14
  652.8 11.03 11
  652.9 13.34 13
  653.0 14.54 14
  653.1 13.5 13
  653.4 10.99 10
  653.5 13.08 13
  653.6 14.57 14
  653.7 14.57 14
  653.8 13.52 13
  654.6 9.46 9
  654.7 10.95 10
  654.8 12.12 12
  654.9 12.43 12
  655.0 12.78 12
  655.1 13.54 13
  655.2 13.74 13
  655.3 12.3 12
  657.2 9.4 9
  657.3 11.45 11
  657.4 12.76 12
  657.5 12.39 12
  657.6 10.99 10
  657.9 10.44 10
  658.0 11.49 11
  658.1 12.23 12
  658.2 12.56 12
  658.3 12.71 12
  658.4 13.19 13
  658.5 14.7 14
  658.6 16.62 16
  658.7 17.1 17
  658.8 15.42 15
  660.0 9.05 9
  660.1 10.95 10
  660.2 13.85 13
  660.3 15.31 15
  660.4 14.17 14
  660.6 11.99 11
  660.7 13.82 13
  660.8 15.42 15
  660.9 14.74 14
  661.0 12.21 12
  662.1 11.01 10
  662.2 11.43 11
  662.3 12.69 12
  662.4 14.46 14
  662.5 15.87 15
  662.6 16.4 16
  662.7 16.64 16
  662.8 17.42 17
  662.9 18.69 18
  663.0 19.12 19
  663.1 17.53 17
  663.2 14.15 14
  663.4 10.66 10
  663.5 12.97 12
  663.6 15.29 15
  663.7 15.05 15
  663.8 12.69 12
  664.0 11.6 11
  664.1 13.58 13
  664.2 15.33 15
  664.3 16.07 16
  664.4 16.18 16
  664.5 16.03 16
  664.6 15.61 15
  664.7 14.87 14
  665.0 13.52 13
  665.1 15.13 15
  665.2 17.03 17
  665.3 17.73 17
  665.4 16.9 16
  665.5 15.48 15
  665.8 13.93 13
  665.9 14.87 14
  666.0 16.01 15
  666.1 16.29 16
  666.2 16.05 16
  666.3 16.83 16
  666.4 18.58 18
  666.5 18.6 18
  666.6 15.07 15
  666.8 10.66 10
  666.9 14.2 14
  667.0 17.31 17
  667.1 17.47 17
  667.2 15.94 15
  667.3 14.3 14
  668.2 10.27 10
  668.3 12.41 12
  668.4 14.26 14
  668.5 15.55 15
  668.6 16.57 16
  668.7 17.23 17
  668.8 16.99 16
  668.9 15.46 15
  669.0 12.87 12
  669.1 10.38 10
  669.6 9.88 9
  669.7 10.97 10
  669.8 13.19 13
  669.9 15.59 15
  670.0 17.16 17
  670.1 17.29 17
  671.3 7.74 7
  671.4 10.23 10
  671.5 14.24 14
  671.6 16.99 16
  671.7 17.71 17
  671.8 17.14 17
  671.9 15.55 15
  672.0 12.8 12
  672.3 10.2 10
  672.4 14.0 13
  672.5 18.1 18
  672.6 20.41 20
  672.7 19.93 19
  672.8 17.49 17
  672.9 14.98 14
  673.0 13.19 13
  673.1 11.51 11
  673.4 9.49 9
  673.5 11.62 11
  673.6 13.43 13
  673.7 14.35 14
  673.8 15.11 15
  673.9 16.11 16
  674.0 16.14 16
  674.1 14.04 14
  674.2 10.77 10
  674.4 8.42 8
  674.5 10.1 10
  674.6 12.39 12
  674.7 15.02 15
  674.8 17.44 17
  674.9 18.12 18
  675.0 16.14 16
  675.1 12.63 12
  675.2 9.73 9
  675.5 9.11 9
  675.6 10.25 10
  675.7 11.19 11
  675.8 11.64 11
  675.9 12.12 12
  676.0 12.97 12
  676.1 13.89 13
  676.2 14.22 14
  676.3 13.98 13
  676.4 13.74 13
  676.5 13.48 13
  676.9 12.6 12
  677.0 13.48 13
  677.1 13.98 13
  677.2 14.06 14
  677.3 13.63 13
  677.4 12.58 12
  678.1 10.4 10
  678.2 13.61 13
  678.3 16.7 16
  678.4 16.81 16
  678.5 13.87 13
  678.6 9.88 9
  678.8 7.48 7
  678.9 10.05 10
  679.0 12.71 12
  679.1 13.78 13
  679.2 13.04 13
  679.3 11.27 11
  679.5 9.46 9
  679.6 10.99 10
  679.7 12.89 12
  679.8 13.34 13
  679.9 12.25 12
  680.0 11.45 11
  680.1 12.63 12
  680.2 15.42 15
  680.3 17.77 17
  680.4 18.16 18
  680.5 16.79 16
  680.6 14.68 14
  680.9 12.36 12
  681.0 14.7 14
  681.1 16.72 16
  681.2 16.81 16
  681.5 15.15 15
  681.6 17.25 17
  681.7 18.47 18
  681.8 17.84 17
  681.9 16.35 16
  682.0 15.15 15
  682.1 14.26 14
  682.4 12.97 12
  682.5 14.26 14
  682.6 15.92 15
  682.7 16.59 16
  682.8 15.42 15
  682.9 12.65 12
  683.0 9.4 9
  683.3 5.41 5
  683.4 8.81 8
  683.5 13.41 13
  683.6 16.16 16
  683.7 15.35 15
  683.8 12.17 12
  684.0 9.55 9
  684.1 12.76 12
  684.2 16.42 16
  684.3 17.47 17
  684.4 15.61 15
  684.5 13.28 13
  684.6 12.15 12
  684.7 11.6 11
  684.8 10.79 10
  684.9 9.99 9
  685.2 9.16 9
  685.3 11.38 11
  685.4 15.15 15
  685.5 17.86 17
  685.6 17.03 17
  685.7 13.02 13
  685.8 8.77 8
  686.0 7.68 7
  686.1 9.35 9
  686.2 10.62 10
  686.3 11.69 11
  686.4 12.78 12
  686.5 12.8 12
  686.6 11.1 11
  686.9 9.83 9
  687.0 11.12 11
  687.1 12.25 12
  687.2 13.78 13
  687.3 14.91 14
  687.4 14.02 14
  687.5 11.77 11
  687.8 11.1 11
  687.9 11.54 11
  688.0 12.89 12
  688.1 15.02 15
  688.2 16.03 16
  688.3 14.74 14
  688.4 12.41 12
  689.2 7.63 7
  689.3 9.49 9
  689.4 10.82 10
  689.5 11.88 11
  689.6 12.56 12
  689.7 12.28 12
  689.8 11.82 11
  689.9 12.73 12
  690.0 14.96 14
  690.1 16.59 16
  690.2 16.22 16
  690.3 14.33 14
  690.4 12.39 12
  692.6 5.15 5
  692.7 7.3 7
  692.8 9.64 9
  692.9 9.27 9
  693.0 7.28 7
  693.1 7.74 7
  693.2 11.51 11
  693.3 14.61 14
  693.4 13.54 13
  693.5 10.03 10
  693.7 8.98 8
  693.8 11.16 11
  693.9 12.89 12
  694.0 13.41 13
  694.1 12.49 12
  694.2 10.55 10
  694.5 9.14 9
  694.6 10.53 10
  694.7 11.86 11
  694.8 12.19 12
  694.9 11.45 11
  695.0 10.86 10
  695.1 11.86 11
  695.2 13.78 13
  695.3 14.15 14
  695.4 11.86 11
  695.6 8.53 8
  695.7 10.68 10
  695.8 13.13 13
  695.9 13.76 13
  696.0 12.45 12
  696.3 10.84 10
  696.4 12.67 12
  696.5 14.5 14
  696.6 15.68 15
  696.7 15.81 15
  696.8 14.5 14
  696.9 12.15 12
  697.6 6.54 6
  697.7 9.68 9
  697.8 13.21 13
  697.9 14.0 13
  698.0 11.91 11
  698.2 9.75 9
  698.3 11.99 11
  698.4 13.52 13
  698.5 12.1 12
  698.8 10.1 10
  698.9 12.76 12
  699.0 13.67 13
  699.1 13.48 13
  699.2 13.93 13
  699.3 15.02 15
  699.4 15.31 15
  699.5 14.52 14
  699.6 13.82 13
  699.7 13.34 13
  699.8 11.88 11
  700.1 8.4 8
  700.2 11.01 10
  700.3 13.8 13
  700.4 15.68 15
  700.5 16.16 16
  700.6 15.31 15
  700.7 14.11 14
  700.8 13.43 13
  700.9 12.93 12
  701.0 12.08 12
  702.1 3.12 3
  702.2 5.87 5
  702.3 11.03 11
  702.4 14.11 14
  702.5 12.54 12
  702.6 7.52 7
  702.9 1.72 1
  703.0 6.39 6
  703.1 11.19 11
  703.2 13.8 13
  703.3 13.98 13
  703.4 12.78 12
  704.2 6.39 6
  704.3 8.29 8
  704.4 10.55 10
  704.5 11.62 11
  704.6 11.08 11
  704.7 9.77 9
  705.3 9.01 9
  705.4 10.03 10
  705.5 11.84 11
  705.6 12.49 12
  705.7 11.23 11
  706.8 8.13 8
  706.9 8.94 8
  707.0 9.7 9
  707.1 10.84 10
  707.2 12.52 12
  707.3 13.56 13
  707.4 12.47 12
  707.5 9.46 9
  708.1 10.29 10
  708.2 10.62 10
  708.3 11.77 11
  708.4 12.69 12
  708.5 12.67 12
  708.6 12.56 12
  708.7 13.54 13
  708.8 14.98 14
  708.9 14.48 14
  709.0 11.12 11
  709.2 8.07 8
  709.3 11.49 11
  709.4 13.93 13
  709.5 12.84 12
  709.6 9.99 9
  709.9 9.62 9
  710.0 10.01 9
  710.1 11.38 11
  710.2 13.65 13
  710.3 15.18 15
  710.4 14.81 14
  710.5 12.84 12
  710.8 10.07 10
  710.9 11.36 11
  711.0 11.69 11
  711.1 11.21 11
  711.2 11.75 11
  711.3 14.2 14
  711.4 16.81 16
  711.5 17.34 17
  711.6 15.94 15
  711.7 15.2 15
  711.8 16.31 16
  711.9 17.42 17
  712.0 16.66 16
  712.1 14.78 14
  712.4 12.97 12
  712.5 13.56 13
  712.6 15.33 15
  712.7 17.31 17
  712.8 17.77 17
  712.9 16.03 16
  713.0 13.45 13
  713.7 14.54 14
  713.8 15.37 15
  713.9 16.25 16
  714.0 16.25 16
  714.1 15.26 15
  714.2 14.0 13
  714.3 12.97 12
  714.4 12.04 12
  714.7 10.18 10
  714.8 10.97 10
  714.9 12.93 12
  715.0 15.92 15
  715.1 18.51 18
  715.2 18.43 18
  715.3 15.22 15
  716.1 11.91 11
  716.2 13.11 13
  716.3 13.45 13
  716.4 13.17 13
  716.5 12.89 12
  716.6 12.52 12
  716.7 11.6 11
  717.0 8.87 8
  717.1 10.6 10
  717.2 13.65 13
  717.3 16.27 16
  717.4 16.7 16
  717.5 15.11 15
  718.4 11.62 11
  718.5 13.02 13
  718.6 14.61 14
  718.7 14.74 14
  718.8 12.97 12
  719.6 7.85 7
  719.7 9.62 9
  719.8 12.91 12
  719.9 14.5 14
  720.0 12.91 12
  720.2 8.96 8
  720.3 11.27 11
  720.4 14.89 14
  720.5 16.53 16
  720.6 15.22 15
  720.9 12.71 12
  721.0 13.82 13
  721.1 15.05 15
  721.2 16.01 15
  721.3 15.94 15
  721.4 14.39 14
  721.5 11.93 11
  721.6 9.66 9
  721.9 7.5 7
  722.0 9.07 9
  722.1 11.51 11
  722.2 13.06 13
  722.3 12.58 12
  722.4 10.84 10
  722.7 8.9 8
  722.8 11.32 11
  722.9 13.96 13
  723.0 13.91 13
  723.1 10.53 10
  723.4 7.33 7
  723.5 9.46 9
  723.6 10.97 10
  723.7 11.77 11
  723.8 11.73 11
  723.9 11.08 11
  724.0 10.99 10
  724.1 12.54 12
  724.2 14.11 14
  724.3 13.04 13
  724.6 7.96 7
  724.7 13.04 13
  724.8 16.92 16
  724.9 16.27 16
  725.0 12.71 12
  725.2 10.79 10
  725.3 12.84 12
  725.4 14.33 14
  725.5 14.59 14
  725.6 14.11 14
  725.7 13.61 13
  726.1 12.71 12
  726.2 13.69 13
  726.3 14.54 14
  726.6 12.69 12
  726.7 14.98 14
  726.8 17.92 17
  726.9 18.73 18
  727.0 16.72 16
  727.1 13.96 13
  727.3 12.73 12
  727.4 13.85 13
  727.5 15.46 15
  727.6 17.6 17
  727.7 19.65 19
  727.8 20.45 20
  727.9 19.28 19
  728.0 16.66 16
  728.1 14.0 13
  729.1 12.67 12
  729.2 13.08 13
  729.3 13.76 13
  729.4 14.46 14
  729.5 14.06 14
  729.6 12.34 12
  729.8 10.31 10
  729.9 11.88 11
  730.0 14.15 14
  730.1 15.15 15
  730.2 13.87 13
  730.5 10.1 10
  730.6 12.97 12
  730.7 16.11 16
  730.8 17.16 17
  730.9 15.68 15
  731.0 13.48 13
  731.2 12.78 12
  731.3 13.89 13
  731.4 14.87 14
  731.5 14.89 14
  731.8 11.84 11
  731.9 14.37 14
  732.0 17.62 17
  732.1 18.08 18
  732.2 14.63 14
  732.3 10.16 10
  732.5 9.25 9
  732.6 11.34 11
  732.7 12.91 12
  732.8 13.61 13
  732.9 13.13 13
  733.0 11.43 11
  733.1 9.27 9
  733.4 8.94 8
  733.5 9.92 9
  733.6 10.58 10
  733.7 11.21 11
  733.8 11.99 11
  733.9 12.82 12
  734.0 13.21 13
  734.1 12.73 12
  734.2 11.58 11
  735.6 8.85 8
  735.7 10.34 10
  735.8 13.04 13
  735.9 15.37 15
  736.0 15.39 15
  736.3 12.69 12
  736.4 14.17 14
  736.5 15.87 15
  736.6 16.42 16
  736.7 14.44 14
  736.8 10.18 10
  737.0 7.15 7
  737.1 11.1 11
  737.2 14.83 14
  737.3 15.2 15
  737.4 12.25 12
  737.5 8.79 8
  737.7 8.2 8
  737.8 10.53 10
  737.9 12.76 12
  738.0 13.98 13
  738.1 13.91 13
  738.2 12.69 12
  738.3 10.64 10
  738.4 8.13 8
  738.6 5.47 5
  738.7 7.83 7
  738.8 11.86 11
  738.9 14.28 14
  739.2 11.4 11
  739.3 15.37 15
  739.4 18.75 18
  739.5 17.68 17
  739.6 12.8 12
  740.3 9.97 9
  740.4 11.49 11
  740.5 13.11 13
  740.6 15.13 15
  740.7 17.47 17
  740.8 18.67 18
  740.9 17.92 17
  741.0 15.85 15
  741.1 13.3 13
  741.3 10.01 9
  741.4 11.64 11
  741.5 15.11 15
  741.6 18.36 18
  741.7 19.86 19
  741.8 19.54 19
  741.9 17.97 17
  742.0 15.94 15
  742.1 14.06 14
  742.2 12.6 12
  742.5 11.54 11
  742.6 13.52 13
  742.7 16.57 16
  742.8 19.01 18
  742.9 19.06 19
  743.0 16.33 16
  743.1 12.43 12
  743.3 10.25 10
  743.4 12.95 12
  743.5 15.77 15
  743.6 16.51 16
  743.7 14.85 14
  743.8 12.67 12
  743.9 11.58 11
  744.0 11.16 11
  744.3 8.77 8
  744.4 11.03 11
  744.5 14.09 14
  744.6 15.24 15
  744.7 13.67 13
  744.9 11.34 11
  745.0 13.24 13
  745.1 15.46 15
  745.2 15.98 15
  745.3 14.04 14
  745.4 10.64 10
  745.6 8.74 8
  745.7 11.4 11
  745.8 13.58 13
  745.9 13.8 13
  746.0 12.69 12
  746.1 11.21 11
  746.4 8.98 8
  746.5 11.75 11
  746.6 13.37 13
  746.7 11.75 11
  746.8 8.68 8
  747.0 7.85 7
  747.1 9.22 9
  747.2 10.27 10
  747.3 11.14 11
  747.4 11.93 11
  747.5 11.84 11
  747.6 10.38 10
  747.8 7.72 7
  747.9 9.18 9
  748.0 12.08 12
  748.1 14.57 14
  748.2 14.96 14
  748.3 12.69 12
  748.4 8.87 8
  748.6 6.69 6
  748.7 10.01 9
  748.8 13.02 13
  748.9 13.91 13
  749.0 13.41 13
  749.1 12.49 12
  749.4 10.4 10
  749.5 13.11 13
  749.6 15.37 15
  749.7 14.09 14
  749.8 9.73 9
  749.9 5.89 5
  750.1 6.08 6
  750.2 7.5 7
  750.3 9.22 9
  750.4 11.47 11
  750.5 13.45 13
  750.6 14.2 14
  750.7 13.78 13
  750.8 12.93 12
  750.9 12.34 12
  751.0 12.3 12
  751.1 12.17 12
  751.2 11.25 11
  751.3 9.92 9
  751.6 9.7 9
  751.7 10.2 10
  751.8 11.36 11
  751.9 13.52 13
  752.0 15.68 15
  752.1 16.16 16
  752.2 14.5 14
  752.3 11.71 11
  752.6 7.89 7
  752.7 11.12 11
  752.8 15.94 15
  752.9 18.95 18
  753.0 17.66 17
  753.1 13.0 12
  753.2 8.2 8
  753.4 5.87 5
  753.5 8.13 8
  753.6 11.12 11
  753.7 13.48 13
  753.8 14.5 14
  753.9 14.2 14
  754.0 13.08 13
  754.7 8.81 8
  754.8 13.24 13
  754.9 18.05 18
  755.0 19.21 19
  755.1 15.53 15
  755.2 9.49 9
  755.9 6.65 6
  756.0 10.62 10
  756.1 14.15 14
  756.2 14.91 14
  756.3 13.11 13
  756.6 10.4 10
  756.7 11.6 11
  756.8 11.93 11
  756.9 11.95 11
  757.0 12.78 12
  757.1 13.72 13
  757.2 12.63 12
  757.3 9.33 9
  757.5 7.09 7
  757.6 9.46 9
  757.7 12.21 12
  757.8 14.54 14
  757.9 16.2 16
  758.0 16.33 16
  758.1 14.54 14
  758.2 11.97 11
  758.4 10.34 10
  758.5 12.04 12
  758.6 14.44 14
  758.7 16.88 16
  758.8 19.1 19
  758.9 20.04 20
  759.0 18.05 18
  759.1 13.58 13
  759.2 9.44 9
  759.5 8.29 8
  759.6 10.6 10
  759.7 14.89 14
  759.8 19.1 19
  759.9 20.45 20
  760.0 18.53 18
  760.1 15.5 15
  760.2 13.19 13
  760.3 11.71 11
  760.4 10.4 10
  761.5 8.02 8
  761.6 8.74 8
  761.7 9.68 9
  761.8 11.73 11
  761.9 14.63 14
  762.0 17.14 17
  762.1 18.19 18
  762.2 17.07 17
  762.3 13.93 13
  762.6 10.68 10
  762.7 14.15 14
  762.8 16.51 16
  762.9 16.75 16
  763.0 15.31 15
  763.1 12.69 12
  763.2 9.44 9
  763.4 6.65 6
  763.5 8.83 8
  763.6 12.47 12
  763.7 15.79 15
  763.8 16.88 16
  763.9 15.35 15
  764.0 13.24 13
  764.1 12.82 12
  764.2 13.5 13
  764.3 12.45 12
  764.6 8.07 8
  764.7 12.06 12
  764.8 14.61 14
  764.9 13.28 13
  765.0 9.64 9
  765.2 7.98 7
  765.3 10.97 10
  765.4 13.13 13
  765.5 12.84 12
  766.1 10.27 10
  766.2 11.73 11
  766.3 13.39 13
  766.4 12.87 12
  766.5 10.12 10
  766.7 7.81 7
  766.8 10.05 10
  766.9 12.84 12
  767.0 15.0 14
  767.1 15.87 15
  767.2 15.35 15
  767.3 13.61 13
  767.4 11.71 11
  768.2 10.05 10
  768.3 11.16 11
  768.4 12.87 12
  768.5 14.3 14
  768.6 14.13 14
  768.7 12.06 12
  768.9 10.1 10
  769.0 12.82 12
  769.1 16.07 16
  769.2 17.18 17
  769.3 14.89 14
  769.4 10.42 10
  769.6 6.13 6
  769.7 8.66 8
  769.8 12.04 12
  769.9 13.87 13
  770.0 14.28 14
  770.1 15.02 15
  770.2 16.55 16
  770.3 16.9 16
  770.4 14.63 14
  770.5 11.06 11
  770.7 9.14 9
  770.8 10.82 10
  770.9 11.86 11
  771.0 11.34 11
  771.1 9.77 9
  771.2 8.02 8
  771.5 5.45 5
  771.6 7.7 7
  771.7 11.34 11
  771.8 14.33 14
  771.9 15.48 15
  772.0 15.42 15
  772.1 14.94 14
  772.2 13.89 13
  772.3 12.15 12
  772.4 10.6 10
  772.8 9.57 9
  772.9 10.53 10
  773.0 12.25 12
  773.1 14.3 14
  773.2 16.22 16
  773.3 17.27 17
  773.4 16.53 16
  773.5 14.33 14
  773.8 11.97 11
  773.9 12.91 12
  774.0 14.46 14
  774.1 15.72 15
  774.2 14.94 14
  774.3 11.86 11
  774.5 9.07 9
  774.6 11.86 11
  774.7 15.33 15
  774.8 17.73 17
  774.9 17.97 17
  775.0 15.9 15
  775.1 12.67 12
  775.4 11.19 11
  775.5 12.56 12
  775.6 13.98 13
  775.7 15.09 15
  775.8 14.76 14
  776.1 11.71 11
  776.2 13.93 13
  776.3 14.94 14
  776.4 13.41 13
  776.5 10.95 10
  776.6 9.64 9
  776.7 9.53 9
  777.0 8.09 8
  777.1 9.64 9
  777.2 12.1 12
  777.3 13.13 13
  777.6 11.38 11
  777.7 13.74 13
  777.8 14.98 14
  777.9 13.69 13
  778.0 10.97 10
  778.2 8.85 8
  778.3 10.38 10
  778.4 12.01 11
  778.5 12.71 12
  778.6 12.8 12
  778.7 13.37 13
  778.8 14.13 14
  778.9 13.41 13
  779.0 10.36 10
  779.1 6.41 6
  779.3 2.62 2
  779.4 4.23 4
  779.5 7.92 7
  779.6 11.95 11
  779.7 14.3 14
  779.8 14.57 14
  779.9 13.78 13
  780.0 12.93 12
  780.1 12.23 12
  780.2 11.67 11
  780.3 10.79 10
  781.1 9.2 9
  781.2 11.84 11
  781.3 14.0 13
  781.4 13.48 13
  781.5 11.03 11
  781.7 10.01 9
  781.8 12.01 11
  781.9 14.02 14
  782.0 15.57 15
  782.1 16.07 16
  782.2 14.63 14
  782.3 11.1 11
  782.5 6.89 6
  782.6 9.27 9
  782.7 12.32 12
  782.8 13.5 13
  782.9 12.65 12
  783.7 9.14 9
  783.8 12.43 12
  783.9 15.61 15
  784.0 15.24 15
  784.1 11.69 11
  784.8 6.37 6
  784.9 8.85 8
  785.0 11.47 11
  785.1 10.77 10
  785.3 5.39 5
  785.4 8.0 7
  785.5 13.0 12
  785.6 16.4 16
  785.7 16.7 16
  785.8 15.09 15
  785.9 13.65 13
  786.0 13.32 13
  786.1 13.32 13
  786.2 12.12 12
  786.3 9.86 9
  786.6 8.09 8
  786.7 10.25 10
  786.8 13.02 13
  786.9 14.24 14
  787.0 12.47 12
  788.6 9.59 9
  788.7 10.95 10
  788.8 14.68 14
  788.9 18.75 18
  789.0 20.34 20
  789.1 18.21 18
  789.2 14.06 14
  789.5 11.32 11
  789.6 13.37 13
  789.7 15.29 15
  789.8 16.11 16
  789.9 15.68 15
  790.0 14.7 14
  790.1 14.33 14
  790.2 14.15 14
  790.5 11.23 11
  790.6 13.63 13
  790.7 15.87 15
  790.8 15.72 15
  790.9 13.41 13
  791.0 10.53 10
  791.2 8.68 8
  791.3 10.71 10
  791.4 13.28 13
  791.5 14.7 14
  791.6 14.63 14
  792.6 9.33 9
  792.7 10.79 10
  792.8 11.71 11
  792.9 11.91 11
  793.0 12.65 12
  793.1 14.81 14
  793.2 18.03 18
  793.3 20.74 20
  793.4 21.74 21
  793.5 21.04 21
  793.6 19.06 19
  793.7 16.05 16
  793.8 12.36 12
  794.5 12.32 12
  794.6 14.35 14
  794.7 16.48 16
  794.8 16.42 16
  794.9 14.09 14
  795.7 9.29 9
  795.8 10.88 10
  795.9 13.91 13
  796.0 15.77 15
  796.1 15.22 15
  796.4 12.32 12
  796.5 14.24 14
  796.6 15.7 15
  796.7 14.3 14
  796.8 10.14 10
  797.0 7.11 7
  797.1 10.62 10
  797.2 13.48 13
  797.3 13.24 13
  797.5 10.16 10
  797.6 12.39 12
  797.7 15.98 15
  797.8 17.4 17
  797.9 15.15 15
  798.2 11.91 11
  798.3 14.0 13
  798.4 14.96 14
  798.5 14.81 14
  798.6 14.3 14
  798.9 12.89 12
  799.0 14.09 14
  799.1 15.79 15
  799.2 16.25 16
  799.3 14.89 14
//
