ACCESSION: MSBNK-RIKEN_NPDepo-NGA02410
RECORD_TITLE: Crassicauline A; LC-ESI-QQQ; MS2; Frag=135.0V CID@15.0; [M+H]+
DATE: 2018.04.04
AUTHORS: Nogawa T, Okano A, CSRS, RIKEN
LICENSE: CC BY
COMMENT: Origin: Plant
COMMENT: SubCategory_DNP: Terpenoid alkaloids, Diterpene alkaloid, Aconitum alkaloid
CH$NAME: Crassicauline A
CH$COMPOUND_CLASS: Alkaloids
CH$FORMULA: C35H49NO10
CH$EXACT_MASS: 643.7815
CH$SMILES: CCN1C[C@]2(COC)CCC(OC)[C@@]34C5C[C@]6(O)C(OC)C[C@@](OC(C)=O)(C5[C@H]6OC(=O)c5ccc(OC)cc5)C(C(OC)C23)[C@@H]14
CH$IUPAC: InChI=1S/C35H49NO10/c1-8-36-17-32(18-40-3)14-13-23(42-5)35-22-15-33(39)24(43-6)16-34(46-19(2)37,26(29(35)36)27(44-7)28(32)35)25(22)30(33)45-31(38)20-9-11-21(41-4)12-10-20/h9-12,22-30,39H,8,13-18H2,1-7H3/t22?,23?,24?,25?,26?,27?,28?,29-,30-,32+,33+,34-,35+/m1/s1
CH$LINK: CAS 79592-91-9
CH$LINK: CHEMSPIDER 138632 10227251
CH$LINK: INCHIKEY GAZDXIGXYWVWQX-MFPSJDIESA-N
CH$LINK: PUBCHEM CID:44662911
AC$INSTRUMENT: Agilent 6410 Triple Quadrupole LC/MS system
AC$INSTRUMENT_TYPE: LC-ESI-QQQ
AC$MASS_SPECTROMETRY: MS_TYPE MS2
AC$MASS_SPECTROMETRY: ION_MODE POSITIVE
MS$FOCUSED_ION: PRECURSOR_TYPE [M+H]+
PK$SPLASH: splash10-0006-0000009000-609c4cb1945a9e08fe3c
PK$NUM_PEAK: 17
PK$PEAK: m/z int. rel.int.
  643.3 0.78 0
  643.4 1.97 1
  643.5 4.37 4
  643.6 8.55 8
  643.7 15.49 15
  643.8 26.21 26
  643.9 40.83 40
  644.0 58.02 57
  644.1 75.49 75
  644.2 90.35 90
  644.3 99.45 99
  644.4 100.0 99
  644.5 89.86 89
  644.6 68.75 68
  644.7 40.95 40
  644.8 15.5 15
  644.9 1.06 1
//
