ACCESSION: MSBNK-RIKEN_NPDepo-NGA01560
RECORD_TITLE: Convolvidine; LC-ESI-QQQ; MS2; Frag=135.0V CID@5.0; [M+H]+
DATE: 2018.04.04
AUTHORS: Nogawa T, Okano A, CSRS, RIKEN
LICENSE: CC BY
COMMENT: Origin: Plant
COMMENT: SubCategory_DNP: Alkaloids derived from ornithine, Tropane alkaloids
CH$NAME: Convolvidine
CH$COMPOUND_CLASS: Alkaloids
CH$FORMULA: C34H44N2O8
CH$EXACT_MASS: 608.7384
CH$SMILES: COc1ccc(C(=O)OC2CC3CCC(C2)N3CCN2C3CCC2CC(OC(=O)c2ccc(OC)c(OC)c2)C3)cc1OC
CH$IUPAC: InChI=1S/C34H44N2O8/c1-39-29-11-5-21(15-31(29)41-3)33(37)43-27-17-23-7-8-24(18-27)35(23)13-14-36-25-9-10-26(36)20-28(19-25)44-34(38)22-6-12-30(40-2)32(16-22)42-4/h5-6,11-12,15-16,23-28H,7-10,13-14,17-20H2,1-4H3
CH$LINK: CAS 50656-81-0
CH$LINK: INCHIKEY KOCZJZLYLZKBJT-UHFFFAOYSA-N
CH$LINK: PUBCHEM CID:4639600
AC$INSTRUMENT: Agilent 6410 Triple Quadrupole LC/MS system
AC$INSTRUMENT_TYPE: LC-ESI-QQQ
AC$MASS_SPECTROMETRY: MS_TYPE MS2
AC$MASS_SPECTROMETRY: ION_MODE POSITIVE
MS$FOCUSED_ION: PRECURSOR_TYPE [M+H]+
PK$SPLASH: splash10-0a4i-0000009000-930164c32597f48f995e
PK$NUM_PEAK: 17
PK$PEAK: m/z int. rel.int.
  608.3 1.1 1
  608.4 2.4 2
  608.5 4.82 4
  608.6 8.73 8
  608.7 14.86 14
  608.8 24.87 24
  608.9 40.17 40
  609.0 59.43 59
  609.1 78.1 78
  609.2 91.84 91
  609.3 99.34 99
  609.4 100.0 99
  609.5 90.66 90
  609.6 68.81 68
  609.7 39.24 39
  609.8 13.21 13
  609.9 0.0 0
//
