ACCESSION: MSBNK-RIKEN_NPDepo-NGA00457
RECORD_TITLE: Bilirubin Ixalpha; LC-ESI-QQQ; MS2; Frag=135.0V CID@25.0; [M+H]+
DATE: 2018.04.04
AUTHORS: Nogawa T, Okano A, CSRS, RIKEN
LICENSE: CC BY
COMMENT: Origin: Plant
COMMENT: Formula(Parent): C33H36N4O6
COMMENT: Bottle Name:Bilirubin from Porcine / Bilirubin ,Mixed isomers
COMMENT: PRIME Parent Name:Bilirubin
COMMENT: PRIME in-house No.:?0043 V0105, (?0043: Bilirubin, ?V0105: Bilirubin)
CH$NAME: Haematoidin
CH$NAME: Hematoidin
CH$NAME: Hemetoidin
CH$NAME: Principal bile pigment
CH$NAME: Bilirubin Ixalpha
CH$COMPOUND_CLASS: Polypyrroles
CH$FORMULA: C33H36N4O6
CH$EXACT_MASS: 584.6781
CH$SMILES: C=CC1=C(C)/C(=C/c2[nH]c(Cc3[nH]c(/C=C4\N=C(O)C(C)=C4C=C)c(C)c3CCC(=O)O)c(CCC(=O)O)c2C)N=C1O
CH$IUPAC: InChI=1S/C33H36N4O6/c1-7-20-19(6)32(42)37-27(20)14-25-18(5)23(10-12-31(40)41)29(35-25)15-28-22(9-11-30(38)39)17(4)24(34-28)13-26-16(3)21(8-2)33(43)36-26/h7-8,13-14,34-35H,1-2,9-12,15H2,3-6H3,(H,36,43)(H,37,42)(H,38,39)(H,40,41)/b26-13-,27-14-
CH$LINK: CAS 635-65-4
CH$LINK: CHEMSPIDER 4444055
CH$LINK: INCHIKEY BPYKTIZUTYGOLE-IFADSCNNSA-N
CH$LINK: COMPTOX DTXSID90239827
CH$LINK: PUBCHEM CID:5280352
AC$INSTRUMENT: Agilent 6410 Triple Quadrupole LC/MS system
AC$INSTRUMENT_TYPE: LC-ESI-QQQ
AC$MASS_SPECTROMETRY: MS_TYPE MS2
AC$MASS_SPECTROMETRY: ION_MODE POSITIVE
MS$FOCUSED_ION: PRECURSOR_TYPE [M+H]+
PK$SPLASH: splash10-0002-0090000000-1b90c7fdb3c8262596b4
PK$NUM_PEAK: 18
PK$PEAK: m/z int. rel.int.
  298.3 1.73 1
  298.4 4.07 4
  298.5 11.56 11
  298.6 25.35 25
  298.7 44.18 44
  298.8 65.3 65
  298.9 84.68 84
  299.0 95.9 95
  299.1 91.21 91
  299.2 68.33 68
  299.3 36.75 36
  299.4 10.75 10
  299.5 0.9 0
  299.7 1.66 1
  299.8 3.76 3
  299.9 5.48 5
  300.0 6.12 6
  300.1 5.12 5
//
