ACCESSION: MSBNK-RIKEN_NPDepo-NGA03554
RECORD_TITLE: Alloside B; LC-ESI-QQQ; MS2; Frag=135.0V CID@10.0; [M+HCOO]-
DATE: 2018.04.04
AUTHORS: Nogawa T, Okano A, CSRS, RIKEN
LICENSE: CC BY
COMMENT: Origin: Plant
COMMENT: SubCategory_DNP: The sterols, Cholestanes
CH$NAME: Alloside B
CH$COMPOUND_CLASS: Steroids
CH$FORMULA: C39H66O14
CH$EXACT_MASS: 758.9525
CH$SMILES: CC(C)CCC(O)[C@@H](C)C1C(O[C@@H]2OC(CO)[C@@H](O)C(O)C2O)CC2C3CC=C4C[C@@H](O)CC(O[C@@H]5OC(CO)[C@@H](O)C(O)C5O)[C@]4(C)C3CC[C@@]21C
CH$IUPAC: InChI=1S/C39H66O14/c1-17(2)6-9-24(43)18(3)29-25(50-36-34(48)32(46)30(44)26(15-40)51-36)14-23-21-8-7-19-12-20(42)13-28(39(19,5)22(21)10-11-38(23,29)4)53-37-35(49)33(47)31(45)27(16-41)52-37/h7,17-18,20-37,40-49H,6,8-16H2,1-5H3/t18-,20-,21?,22?,23?,24?,25?,26?,27?,28?,29?,30-,31-,32?,33?,34?,35?,36-,37+,38+,39+/m1/s1
CH$LINK: CAS 142735-55-5
CH$LINK: CHEMSPIDER 2331841
CH$LINK: INCHIKEY JPJDIOVDAAVUNF-JCBACFEVSA-N
AC$INSTRUMENT: Agilent 6410 Triple Quadrupole LC/MS system
AC$INSTRUMENT_TYPE: LC-ESI-QQQ
AC$MASS_SPECTROMETRY: MS_TYPE MS2
AC$MASS_SPECTROMETRY: ION_MODE NEGATIVE
MS$FOCUSED_ION: PRECURSOR_TYPE [M+HCOO]-
PK$SPLASH: splash10-0udi-0000000190-84509f53b056edeadae1
PK$NUM_PEAK: 33
PK$PEAK: m/z int. rel.int.
  756.4 1.92 1
  756.5 2.93 2
  756.6 3.88 3
  756.7 4.79 4
  756.8 6.1 6
  756.9 8.42 8
  757.0 12.12 12
  757.1 17.01 16
  757.2 21.63 21
  757.3 23.68 23
  757.4 21.75 21
  757.5 16.59 16
  757.6 10.39 10
  757.7 5.22 5
  757.8 1.68 1
  802.2 1.79 1
  802.3 2.76 2
  802.4 4.48 4
  802.5 8.35 8
  802.6 16.41 16
  802.7 29.32 29
  802.8 44.57 44
  802.9 58.23 58
  803.0 68.59 68
  803.1 77.01 76
  803.2 85.57 85
  803.3 94.45 94
  803.4 99.98 99
  803.5 94.77 94
  803.6 73.93 73
  803.7 42.62 42
  803.8 14.38 14
  803.9 2.32 2
//
