ACCESSION: MSBNK-RIKEN_NPDepo-NGA00801
RECORD_TITLE: Napelline; LC-ESI-QQQ; MS2; Frag=135.0V CID@5.0; [M+H]+
DATE: 2018.04.04
AUTHORS: Nogawa T, Okano A, CSRS, RIKEN
LICENSE: CC BY
COMMENT: Origin: Plant
COMMENT: Formula(Parent): C22H33NO3
COMMENT: Bottle Name:Napelline
COMMENT: PRIME Parent Name:Napelline
COMMENT: PRIME in-house No.:V0349
COMMENT: SubCategory_DNP: Terpenoid alkaloids, Diterpene alkaloid, Aconitum alkaloid
CH$NAME: Luciculine
CH$NAME: (5S,6S,10S,1R,2R,3R,9R,13R)-15-ethyl-13-methyl-4-methylene-15-azahexacyclo(7.7.2.1(2,5).0(2,8).0(9,16).0(13,18))nonadecane-3,6,10-triol
CH$NAME: Napelline
CH$COMPOUND_CLASS: Alkaloids
CH$FORMULA: C22H33NO3
CH$EXACT_MASS: 359.5132
CH$SMILES: C=C1[C@@H]2C[C@]3(C(C[C@@H]2O)[C@]24C5C[C@H]3[C@H]2N(CC)C[C@]5(C)CC[C@@H]4O)[C@@H]1O
CH$IUPAC: InChI=1S/C22H33NO3/c1-4-23-10-20(3)6-5-17(25)22-15(20)7-13(18(22)23)21-9-12(11(2)19(21)26)14(24)8-16(21)22/h12-19,24-26H,2,4-10H2,1,3H3/t12-,13-,14-,15?,16?,17-,18+,19+,20-,21-,22-/m0/s1
CH$LINK: CAS 5008-52-6
CH$LINK: CHEMSPIDER 16735924
CH$LINK: INCHIKEY AZAZKLKDEOMJBJ-LVXADFIOSA-N
AC$INSTRUMENT: Agilent 6410 Triple Quadrupole LC/MS system
AC$INSTRUMENT_TYPE: LC-ESI-QQQ
AC$MASS_SPECTROMETRY: MS_TYPE MS2
AC$MASS_SPECTROMETRY: ION_MODE POSITIVE
MS$FOCUSED_ION: PRECURSOR_TYPE [M+H]+
PK$SPLASH: splash10-03di-0009000000-28c0e491f1cd171714cb
PK$NUM_PEAK: 15
PK$PEAK: m/z int. rel.int.
  359.4 1.12 1
  359.5 3.04 3
  359.6 6.23 6
  359.7 11.3 11
  359.8 20.16 20
  359.9 35.08 35
  360.0 55.76 55
  360.1 77.46 77
  360.2 93.54 93
  360.3 100.0 99
  360.4 95.61 95
  360.5 79.43 79
  360.6 52.88 52
  360.7 23.91 23
  360.8 3.51 3
//
