ACCESSION: MSBNK-RIKEN_NPDepo-NGA00260
RECORD_TITLE: Ormosanine; LC-ESI-QQQ; MS2; Frag=135.0V CID@25.0; [M+H]+
DATE: 2018.04.04
AUTHORS: Nogawa T, Okano A, CSRS, RIKEN
LICENSE: CC BY
COMMENT: Origin: Plant
COMMENT: Formula(Parent): C20H35N3
COMMENT: Bottle Name:Ormosanine
COMMENT: PRIME Parent Name:Ormosanine
COMMENT: PRIME in-house No.:V0309
COMMENT: SubCategory_DNP: Alkaloids derived from lysine, More complex lysine-derived alkaloids, Ormosia alkaloids
CH$NAME: 1-((2R)(2-piperidyl))(1S,10S,2R)-3,15-diazatetracyclo(7.7.1.0(2,7).0(10,15))heptadecane
CH$NAME: Ormosanine
CH$COMPOUND_CLASS: Alkaloids
CH$FORMULA: C20H35N3
CH$EXACT_MASS: 317.5221
CH$SMILES: C1CCC([C@@]23CC(CC4CCCN[C@H]42)[C@@H]2CCCCN2C3)NC1
CH$IUPAC: InChI=1S/C20H35N3/c1-3-9-21-18(8-1)20-13-16(12-15-6-5-10-22-19(15)20)17-7-2-4-11-23(17)14-20/h15-19,21-22H,1-14H2/t15?,16?,17-,18?,19+,20-/m0/s1
CH$LINK: CAS 5001-21-8
CH$LINK: CHEMSPIDER 391262 13183720
CH$LINK: INCHIKEY YUKCLPPRYNXRAF-GYKGFCEISA-N
AC$INSTRUMENT: Agilent 6410 Triple Quadrupole LC/MS system
AC$INSTRUMENT_TYPE: LC-ESI-QQQ
AC$MASS_SPECTROMETRY: MS_TYPE MS2
AC$MASS_SPECTROMETRY: ION_MODE POSITIVE
MS$FOCUSED_ION: PRECURSOR_TYPE [M+H]+
PK$SPLASH: splash10-014i-0009000000-be6fadd741b21b240172
PK$NUM_PEAK: 23
PK$PEAK: m/z int. rel.int.
  97.8 3.12 3
  97.9 4.85 4
  98.0 6.95 6
  98.1 8.11 8
  98.2 7.1 7
  98.3 4.3 4
  98.4 1.52 1
  317.3 0.92 0
  317.4 2.29 2
  317.5 4.49 4
  317.6 7.16 7
  317.7 11.32 11
  317.8 20.11 20
  317.9 36.27 36
  318.0 58.34 58
  318.1 80.28 80
  318.2 95.52 95
  318.3 100.0 99
  318.4 91.66 91
  318.5 70.48 70
  318.6 41.5 41
  318.7 14.97 14
  318.8 0.82 0
//
