ACCESSION: MSBNK-RIKEN_NPDepo-NGA02108
RECORD_TITLE: Inosinic acid; LC-ESI-QQQ; MS2; Frag=135.0V CID@5.0; [M+H]+
DATE: 2018.04.04
AUTHORS: Nogawa T, Okano A, CSRS, RIKEN
LICENSE: CC BY
COMMENT: Origin: Microbe
COMMENT: Formula(Parent): C10H13N4O8P
COMMENT: Bottle Name:Inosine-5'-monophosphate
COMMENT: PRIME Parent Name:Inosine-5'-monophosphate
COMMENT: PRIME in-house No.:0258, Purines
CH$NAME: Inosine-5'-monophosphate
CH$NAME: 5'-IMP
CH$NAME: IMP
CH$NAME: Inosinic acid
CH$COMPOUND_CLASS: Carbohydrates
CH$FORMULA: C10H13N4O8P
CH$EXACT_MASS: 348.04710
CH$SMILES: C1=NC2=C(C(=O)N1)N=CN2[C@H]3[C@@H]([C@@H]([C@H](O3)COP(=O)(O)O)O)O
CH$IUPAC: InChI=1S/C10H13N4O8P/c15-6-4(1-21-23(18,19)20)22-10(7(6)16)14-3-13-5-8(14)11-2-12-9(5)17/h2-4,6-7,10,15-16H,1H2,(H,11,12,17)(H2,18,19,20)/t4-,6-,7-,10-/m1/s1
CH$LINK: CAS 25249-22-3
CH$LINK: CHEMSPIDER 8264
CH$LINK: COMPTOX DTXSID80948097
CH$LINK: INCHIKEY GRSZFWQUAKGDAV-KQYNXXCUSA-N
CH$LINK: KAPPAVIEW KPC00613
CH$LINK: KEGG C00130
CH$LINK: KNAPSACK C00007224
CH$LINK: PUBCHEM CID:135398640
AC$INSTRUMENT: Agilent 6410 Triple Quadrupole LC/MS system
AC$INSTRUMENT_TYPE: LC-ESI-QQQ
AC$MASS_SPECTROMETRY: MS_TYPE MS2
AC$MASS_SPECTROMETRY: ION_MODE POSITIVE
MS$FOCUSED_ION: PRECURSOR_TYPE [M+H]+
PK$SPLASH: splash10-000i-0900000000-08e8a6efbcb9b8f2b66c
PK$NUM_PEAK: 22
PK$PEAK: m/z int. rel.int.
  136.1 0.11 0
  136.2 1.32 1
  136.3 4.52 4
  136.4 8.61 8
  136.5 14.12 14
  136.6 24.63 24
  136.7 43.16 43
  136.8 66.64 66
  136.9 87.1 87
  137.0 98.49 98
  137.1 100.0 99
  137.2 93.09 92
  137.3 78.19 78
  137.4 55.96 55
  137.5 30.54 30
  137.6 9.47 9
  137.7 0.04 0
  232.9 1.75 1
  233.0 3.26 3
  233.1 4.86 4
  233.2 5.28 5
  233.3 3.95 3
//
