ACCESSION: MSBNK-RIKEN_NPDepo-NGA02074
RECORD_TITLE: Kanamycin; LC-ESI-QQQ; MS2; Frag=135.0V CID@10.0; [M+H]+
DATE: 2018.04.04
AUTHORS: Nogawa T, Okano A, CSRS, RIKEN
LICENSE: CC BY
COMMENT: Origin: Microbe, Glycosides, Aminoglycosides
CH$NAME: Kanamycin
CH$COMPOUND_CLASS: Carbohydrates
CH$FORMULA: C18H36N4O11
CH$EXACT_MASS: 484.5078
CH$SMILES: NC[C@@H]1O[C@@H](O[C@@H]2[C@@H](N)C[C@@H](N)[C@H](O[C@@H]3O[C@@H](CO)[C@H](O)[C@@H](N)[C@@H]3O)[C@H]2O)[C@@H](O)[C@H](O)[C@H]1O
CH$IUPAC: InChI=1S/C18H36N4O11/c19-2-6-10(25)12(27)13(28)18(30-6)33-16-5(21)1-4(20)15(14(16)29)32-17-11(26)8(22)9(24)7(3-23)31-17/h4-18,23-29H,1-3,19-22H2/t4-,5+,6+,7+,8-,9+,10+,11+,12-,13+,14-,15+,16-,17+,18+/m1/s1
CH$LINK: CAS 8063-07-8
CH$LINK: CHEMSPIDER 5810
CH$LINK: INCHIKEY SBUJHOSQTJFQJX-HZKXJDKASA-N
CH$LINK: PUBCHEM CID:16397788
AC$INSTRUMENT: Agilent 6410 Triple Quadrupole LC/MS system
AC$INSTRUMENT_TYPE: LC-ESI-QQQ
AC$MASS_SPECTROMETRY: MS_TYPE MS2
AC$MASS_SPECTROMETRY: ION_MODE POSITIVE
MS$FOCUSED_ION: PRECURSOR_TYPE [M+H]+
PK$SPLASH: splash10-000i-0103900000-fb06ebdb52ffe1db6af8
PK$NUM_PEAK: 1233
PK$PEAK: m/z int. rel.int.
  162.6 6.19 6
  162.7 7.58 7
  162.8 10.81 10
  162.9 15.9 15
  163.0 21.95 21
  163.1 27.3 27
  163.2 29.38 29
  163.3 26.06 26
  163.4 17.95 17
  163.5 8.69 8
  163.6 2.13 2
  204.7 1.2 1
  204.8 2.41 2
  204.9 4.51 4
  205.0 6.78 6
  205.1 8.16 8
  205.2 8.21 8
  205.3 7.13 7
  205.4 5.22 5
  205.5 2.92 2
  323.6 1.82 1
  323.7 4.06 4
  323.8 9.2 9
  323.9 17.9 17
  324.0 29.27 29
  324.1 39.78 39
  324.2 44.47 44
  324.3 40.49 40
  324.4 29.49 29
  324.5 16.36 16
  324.6 5.85 5
  324.7 0.8 0
  365.8 1.64 1
  365.9 3.12 3
  366.0 4.38 4
  366.1 4.75 4
  366.2 4.4 4
  366.3 3.94 3
  366.4 3.58 3
  366.5 2.97 2
  366.6 1.95 1
  366.7 0.86 0
  366.8 0.22 0
  366.9 0.09 0
  367.0 0.15 0
  367.1 0.25 0
  367.2 0.3 0
  367.3 0.31 0
  367.4 0.29 0
  367.5 0.26 0
  367.6 0.24 0
  367.7 0.26 0
  367.8 0.29 0
  367.9 0.31 0
  368.0 0.3 0
  368.1 0.28 0
  368.2 0.26 0
  368.3 0.26 0
  368.4 0.28 0
  368.5 0.3 0
  368.6 0.3 0
  368.7 0.27 0
  368.8 0.24 0
  368.9 0.24 0
  369.0 0.26 0
  369.1 0.29 0
  369.2 0.31 0
  369.3 0.3 0
  369.4 0.27 0
  369.5 0.25 0
  369.6 0.26 0
  369.7 0.28 0
  369.8 0.31 0
  369.9 0.31 0
  370.0 0.28 0
  370.1 0.26 0
  370.2 0.25 0
  370.3 0.27 0
  370.4 0.3 0
  370.5 0.31 0
  370.6 0.29 0
  370.7 0.26 0
  370.8 0.25 0
  370.9 0.27 0
  371.0 0.3 0
  371.1 0.31 0
  371.2 0.3 0
  371.3 0.27 0
  371.4 0.25 0
  371.5 0.25 0
  371.6 0.27 0
  371.7 0.29 0
  371.8 0.29 0
  371.9 0.27 0
  372.0 0.25 0
  372.1 0.24 0
  372.2 0.26 0
  372.3 0.29 0
  372.4 0.31 0
  372.5 0.29 0
  372.6 0.26 0
  372.7 0.24 0
  372.8 0.25 0
  372.9 0.26 0
  373.0 0.28 0
  373.1 0.28 0
  373.2 0.26 0
  373.3 0.25 0
  373.4 0.25 0
  373.5 0.28 0
  373.6 0.3 0
  373.7 0.31 0
  373.8 0.29 0
  373.9 0.26 0
  374.0 0.25 0
  374.1 0.26 0
  374.2 0.29 0
  374.3 0.31 0
  374.4 0.3 0
  374.5 0.26 0
  374.6 0.24 0
  374.7 0.25 0
  374.8 0.28 0
  374.9 0.3 0
  375.0 0.31 0
  375.1 0.28 0
  375.2 0.26 0
  375.3 0.25 0
  375.4 0.27 0
  375.5 0.29 0
  375.6 0.3 0
  375.7 0.29 0
  375.8 0.26 0
  375.9 0.25 0
  376.0 0.26 0
  376.1 0.28 0
  376.2 0.3 0
  376.3 0.3 0
  376.4 0.27 0
  376.5 0.25 0
  376.6 0.24 0
  376.7 0.26 0
  376.8 0.29 0
  376.9 0.3 0
  377.0 0.29 0
  377.1 0.26 0
  377.2 0.25 0
  377.3 0.25 0
  377.4 0.28 0
  377.5 0.29 0
  377.6 0.29 0
  377.7 0.27 0
  377.8 0.25 0
  377.9 0.25 0
  378.0 0.27 0
  378.1 0.29 0
  378.2 0.29 0
  378.3 0.27 0
  378.4 0.24 0
  378.5 0.23 0
  378.6 0.26 0
  378.7 0.29 0
  378.8 0.31 0
  378.9 0.29 0
  379.0 0.26 0
  379.1 0.25 0
  379.2 0.26 0
  379.3 0.28 0
  379.4 0.3 0
  379.5 0.3 0
  379.6 0.27 0
  379.7 0.25 0
  379.8 0.25 0
  379.9 0.28 0
  380.0 0.3 0
  380.1 0.3 0
  380.2 0.28 0
  380.3 0.25 0
  380.4 0.24 0
  380.5 0.25 0
  380.6 0.29 0
  380.7 0.31 0
  380.8 0.31 0
  380.9 0.29 0
  381.0 0.26 0
  381.1 0.26 0
  381.2 0.28 0
  381.3 0.29 0
  381.4 0.3 0
  381.5 0.28 0
  381.6 0.26 0
  381.7 0.26 0
  381.8 0.27 0
  381.9 0.29 0
  382.0 0.3 0
  382.1 0.29 0
  382.2 0.26 0
  382.3 0.24 0
  382.4 0.25 0
  382.5 0.28 0
  382.6 0.3 0
  382.7 0.3 0
  382.8 0.28 0
  382.9 0.26 0
  383.0 0.26 0
  383.1 0.27 0
  383.2 0.29 0
  383.3 0.3 0
  383.4 0.29 0
  383.5 0.26 0
  383.6 0.25 0
  383.7 0.26 0
  383.8 0.28 0
  383.9 0.3 0
  384.0 0.29 0
  384.1 0.27 0
  384.2 0.26 0
  384.3 0.26 0
  384.4 0.28 0
  384.5 0.3 0
  384.6 0.3 0
  384.7 0.28 0
  384.8 0.26 0
  384.9 0.26 0
  385.0 0.27 0
  385.1 0.29 0
  385.2 0.3 0
  385.3 0.28 0
  385.4 0.26 0
  385.5 0.25 0
  385.6 0.27 0
  385.7 0.29 0
  385.8 0.3 0
  385.9 0.28 0
  386.0 0.26 0
  386.1 0.24 0
  386.2 0.25 0
  386.3 0.27 0
  386.4 0.3 0
  386.5 0.3 0
  386.6 0.28 0
  386.7 0.25 0
  386.8 0.24 0
  386.9 0.26 0
  387.0 0.3 0
  387.1 0.33 0
  387.2 0.32 0
  387.3 0.29 0
  387.4 0.26 0
  387.5 0.26 0
  387.6 0.27 0
  387.7 0.29 0
  387.8 0.29 0
  387.9 0.27 0
  388.0 0.25 0
  388.1 0.25 0
  388.2 0.27 0
  388.3 0.3 0
  388.4 0.3 0
  388.5 0.29 0
  388.6 0.26 0
  388.7 0.24 0
  388.8 0.25 0
  388.9 0.28 0
  389.0 0.3 0
  389.1 0.3 0
  389.2 0.28 0
  389.3 0.26 0
  389.4 0.25 0
  389.5 0.27 0
  389.6 0.29 0
  389.7 0.3 0
  389.8 0.28 0
  389.9 0.26 0
  390.0 0.25 0
  390.1 0.26 0
  390.2 0.28 0
  390.3 0.29 0
  390.4 0.28 0
  390.5 0.25 0
  390.6 0.24 0
  390.7 0.25 0
  390.8 0.28 0
  390.9 0.31 0
  391.0 0.31 0
  391.1 0.29 0
  391.2 0.26 0
  391.3 0.24 0
  391.4 0.25 0
  391.5 0.28 0
  391.6 0.29 0
  391.7 0.29 0
  391.8 0.27 0
  391.9 0.26 0
  392.0 0.27 0
  392.1 0.29 0
  392.2 0.31 0
  392.3 0.3 0
  392.4 0.27 0
  392.5 0.25 0
  392.6 0.25 0
  392.7 0.28 0
  392.8 0.3 0
  392.9 0.3 0
  393.0 0.28 0
  393.1 0.26 0
  393.2 0.25 0
  393.3 0.27 0
  393.4 0.29 0
  393.5 0.3 0
  393.6 0.29 0
  393.7 0.27 0
  393.8 0.26 0
  393.9 0.27 0
  394.0 0.28 0
  394.1 0.3 0
  394.2 0.29 0
  394.3 0.27 0
  394.4 0.26 0
  394.5 0.26 0
  394.6 0.28 0
  394.7 0.3 0
  394.8 0.3 0
  394.9 0.28 0
  395.0 0.26 0
  395.1 0.26 0
  395.2 0.27 0
  395.3 0.3 0
  395.4 0.31 0
  395.5 0.3 0
  395.6 0.28 0
  395.7 0.26 0
  395.8 0.26 0
  395.9 0.27 0
  396.0 0.29 0
  396.1 0.3 0
  396.2 0.28 0
  396.3 0.27 0
  396.4 0.26 0
  396.5 0.27 0
  396.6 0.29 0
  396.7 0.3 0
  396.8 0.29 0
  396.9 0.27 0
  397.0 0.26 0
  397.1 0.26 0
  397.2 0.28 0
  397.3 0.3 0
  397.4 0.29 0
  397.5 0.27 0
  397.6 0.25 0
  397.7 0.24 0
  397.8 0.26 0
  397.9 0.29 0
  398.0 0.31 0
  398.1 0.3 0
  398.2 0.28 0
  398.3 0.27 0
  398.4 0.27 0
  398.5 0.29 0
  398.6 0.31 0
  398.7 0.3 0
  398.8 0.28 0
  398.9 0.25 0
  399.0 0.24 0
  399.1 0.26 0
  399.2 0.29 0
  399.3 0.31 0
  399.4 0.29 0
  399.5 0.26 0
  399.6 0.24 0
  399.7 0.25 0
  399.8 0.27 0
  399.9 0.29 0
  400.0 0.29 0
  400.1 0.27 0
  400.2 0.25 0
  400.3 0.25 0
  400.4 0.27 0
  400.5 0.29 0
  400.6 0.28 0
  400.7 0.27 0
  400.8 0.25 0
  400.9 0.25 0
  401.0 0.26 0
  401.1 0.29 0
  401.2 0.31 0
  401.3 0.3 0
  401.4 0.28 0
  401.5 0.25 0
  401.6 0.25 0
  401.7 0.28 0
  401.8 0.31 0
  401.9 0.32 0
  402.0 0.31 0
  402.1 0.3 0
  402.2 0.3 0
  402.3 0.3 0
  402.4 0.3 0
  402.5 0.3 0
  402.6 0.29 0
  402.7 0.25 0
  402.8 0.24 0
  402.9 0.26 0
  403.0 0.3 0
  403.1 0.32 0
  403.2 0.3 0
  403.3 0.27 0
  403.4 0.24 0
  403.5 0.25 0
  403.6 0.28 0
  403.7 0.3 0
  403.8 0.3 0
  403.9 0.28 0
  404.0 0.25 0
  404.1 0.25 0
  404.2 0.26 0
  404.3 0.29 0
  404.4 0.3 0
  404.5 0.29 0
  404.6 0.27 0
  404.7 0.26 0
  404.8 0.27 0
  404.9 0.28 0
  405.0 0.29 0
  405.1 0.29 0
  405.2 0.26 0
  405.3 0.24 0
  405.4 0.24 0
  405.5 0.26 0
  405.6 0.29 0
  405.7 0.29 0
  405.8 0.28 0
  405.9 0.26 0
  406.0 0.24 0
  406.1 0.26 0
  406.2 0.28 0
  406.3 0.3 0
  406.4 0.29 0
  406.5 0.27 0
  406.6 0.25 0
  406.7 0.25 0
  406.8 0.27 0
  406.9 0.29 0
  407.0 0.29 0
  407.1 0.27 0
  407.2 0.25 0
  407.3 0.25 0
  407.4 0.27 0
  407.5 0.3 0
  407.6 0.31 0
  407.7 0.29 0
  407.8 0.26 0
  407.9 0.24 0
  408.0 0.25 0
  408.1 0.28 0
  408.2 0.3 0
  408.3 0.3 0
  408.4 0.27 0
  408.5 0.26 0
  408.6 0.26 0
  408.7 0.28 0
  408.8 0.31 0
  408.9 0.31 0
  409.0 0.29 0
  409.1 0.26 0
  409.2 0.24 0
  409.3 0.25 0
  409.4 0.28 0
  409.5 0.3 0
  409.6 0.3 0
  409.7 0.27 0
  409.8 0.25 0
  409.9 0.25 0
  410.0 0.27 0
  410.1 0.29 0
  410.2 0.29 0
  410.3 0.28 0
  410.4 0.27 0
  410.5 0.27 0
  410.6 0.28 0
  410.7 0.3 0
  410.8 0.3 0
  410.9 0.28 0
  411.0 0.26 0
  411.1 0.25 0
  411.2 0.26 0
  411.3 0.28 0
  411.4 0.29 0
  411.5 0.29 0
  411.6 0.26 0
  411.7 0.25 0
  411.8 0.25 0
  411.9 0.28 0
  412.0 0.31 0
  412.1 0.31 0
  412.2 0.28 0
  412.3 0.25 0
  412.4 0.24 0
  412.5 0.27 0
  412.6 0.31 0
  412.7 0.34 0
  412.8 0.33 0
  412.9 0.3 0
  413.0 0.28 0
  413.1 0.3 0
  413.2 0.33 0
  413.3 0.34 0
  413.4 0.31 0
  413.5 0.28 0
  413.6 0.26 0
  413.7 0.26 0
  413.8 0.27 0
  413.9 0.29 0
  414.0 0.29 0
  414.1 0.28 0
  414.2 0.26 0
  414.3 0.25 0
  414.4 0.27 0
  414.5 0.29 0
  414.6 0.31 0
  414.7 0.3 0
  414.8 0.27 0
  414.9 0.24 0
  415.0 0.24 0
  415.1 0.26 0
  415.2 0.29 0
  415.3 0.3 0
  415.4 0.29 0
  415.5 0.26 0
  415.6 0.24 0
  415.7 0.26 0
  415.8 0.29 0
  415.9 0.31 0
  416.0 0.3 0
  416.1 0.27 0
  416.2 0.25 0
  416.3 0.26 0
  416.4 0.28 0
  416.5 0.3 0
  416.6 0.29 0
  416.7 0.27 0
  416.8 0.25 0
  416.9 0.25 0
  417.0 0.27 0
  417.1 0.29 0
  417.2 0.29 0
  417.3 0.27 0
  417.4 0.25 0
  417.5 0.24 0
  417.6 0.26 0
  417.7 0.29 0
  417.8 0.3 0
  417.9 0.29 0
  418.0 0.27 0
  418.1 0.24 0
  418.2 0.25 0
  418.3 0.27 0
  418.4 0.3 0
  418.5 0.3 0
  418.6 0.27 0
  418.7 0.25 0
  418.8 0.25 0
  418.9 0.27 0
  419.0 0.29 0
  419.1 0.3 0
  419.2 0.28 0
  419.3 0.26 0
  419.4 0.24 0
  419.5 0.26 0
  419.6 0.29 0
  419.7 0.31 0
  419.8 0.31 0
  419.9 0.28 0
  420.0 0.26 0
  420.1 0.25 0
  420.2 0.26 0
  420.3 0.29 0
  420.4 0.3 0
  420.5 0.29 0
  420.6 0.27 0
  420.7 0.26 0
  420.8 0.26 0
  420.9 0.28 0
  421.0 0.3 0
  421.1 0.3 0
  421.2 0.28 0
  421.3 0.26 0
  421.4 0.26 0
  421.5 0.27 0
  421.6 0.29 0
  421.7 0.3 0
  421.8 0.28 0
  421.9 0.26 0
  422.0 0.26 0
  422.1 0.27 0
  422.2 0.3 0
  422.3 0.31 0
  422.4 0.29 0
  422.5 0.26 0
  422.6 0.24 0
  422.7 0.25 0
  422.8 0.29 0
  422.9 0.31 0
  423.0 0.31 0
  423.1 0.28 0
  423.2 0.25 0
  423.3 0.25 0
  423.4 0.27 0
  423.5 0.29 0
  423.6 0.3 0
  423.7 0.29 0
  423.8 0.26 0
  423.9 0.25 0
  424.0 0.25 0
  424.1 0.27 0
  424.2 0.29 0
  424.3 0.29 0
  424.4 0.27 0
  424.5 0.26 0
  424.6 0.26 0
  424.7 0.28 0
  424.8 0.3 0
  424.9 0.3 0
  425.0 0.28 0
  425.1 0.26 0
  425.2 0.26 0
  425.3 0.27 0
  425.4 0.3 0
  425.5 0.31 0
  425.6 0.29 0
  425.7 0.26 0
  425.8 0.24 0
  425.9 0.24 0
  426.0 0.27 0
  426.1 0.3 0
  426.2 0.31 0
  426.3 0.28 0
  426.4 0.25 0
  426.5 0.25 0
  426.6 0.27 0
  426.7 0.3 0
  426.8 0.31 0
  426.9 0.3 0
  427.0 0.28 0
  427.1 0.26 0
  427.2 0.27 0
  427.3 0.28 0
  427.4 0.3 0
  427.5 0.29 0
  427.6 0.27 0
  427.7 0.25 0
  427.8 0.26 0
  427.9 0.29 0
  428.0 0.31 0
  428.1 0.31 0
  428.2 0.29 0
  428.3 0.26 0
  428.4 0.25 0
  428.5 0.26 0
  428.6 0.28 0
  428.7 0.3 0
  428.8 0.29 0
  428.9 0.27 0
  429.0 0.26 0
  429.1 0.26 0
  429.2 0.28 0
  429.3 0.3 0
  429.4 0.3 0
  429.5 0.28 0
  429.6 0.26 0
  429.7 0.26 0
  429.8 0.28 0
  429.9 0.3 0
  430.0 0.31 0
  430.1 0.29 0
  430.2 0.25 0
  430.3 0.24 0
  430.4 0.25 0
  430.5 0.28 0
  430.6 0.3 0
  430.7 0.3 0
  430.8 0.27 0
  430.9 0.24 0
  431.0 0.24 0
  431.1 0.26 0
  431.2 0.29 0
  431.3 0.3 0
  431.4 0.29 0
  431.5 0.28 0
  431.6 0.28 0
  431.7 0.3 0
  431.8 0.31 0
  431.9 0.32 0
  432.0 0.31 0
  432.1 0.29 0
  432.2 0.26 0
  432.3 0.26 0
  432.4 0.27 0
  432.5 0.29 0
  432.6 0.29 0
  432.7 0.27 0
  432.8 0.25 0
  432.9 0.25 0
  433.0 0.27 0
  433.1 0.31 0
  433.2 0.32 0
  433.3 0.29 0
  433.4 0.26 0
  433.5 0.24 0
  433.6 0.25 0
  433.7 0.28 0
  433.8 0.29 0
  433.9 0.29 0
  434.0 0.27 0
  434.1 0.25 0
  434.2 0.25 0
  434.3 0.27 0
  434.4 0.29 0
  434.5 0.3 0
  434.6 0.28 0
  434.7 0.26 0
  434.8 0.25 0
  434.9 0.26 0
  435.0 0.28 0
  435.1 0.3 0
  435.2 0.29 0
  435.3 0.27 0
  435.4 0.26 0
  435.5 0.26 0
  435.6 0.28 0
  435.7 0.3 0
  435.8 0.3 0
  435.9 0.28 0
  436.0 0.26 0
  436.1 0.25 0
  436.2 0.27 0
  436.3 0.29 0
  436.4 0.3 0
  436.5 0.29 0
  436.6 0.27 0
  436.7 0.25 0
  436.8 0.25 0
  436.9 0.28 0
  437.0 0.3 0
  437.1 0.31 0
  437.2 0.29 0
  437.3 0.27 0
  437.4 0.25 0
  437.5 0.26 0
  437.6 0.28 0
  437.7 0.3 0
  437.8 0.28 0
  437.9 0.26 0
  438.0 0.25 0
  438.1 0.26 0
  438.2 0.28 0
  438.3 0.3 0
  438.4 0.29 0
  438.5 0.27 0
  438.6 0.26 0
  438.7 0.27 0
  438.8 0.29 0
  438.9 0.3 0
  439.0 0.29 0
  439.1 0.27 0
  439.2 0.24 0
  439.3 0.24 0
  439.4 0.26 0
  439.5 0.29 0
  439.6 0.3 0
  439.7 0.28 0
  439.8 0.26 0
  439.9 0.25 0
  440.0 0.26 0
  440.1 0.29 0
  440.2 0.3 0
  440.3 0.29 0
  440.4 0.26 0
  440.5 0.24 0
  440.6 0.25 0
  440.7 0.27 0
  440.8 0.29 0
  440.9 0.29 0
  441.0 0.27 0
  441.1 0.25 0
  441.2 0.25 0
  441.3 0.26 0
  441.4 0.29 0
  441.5 0.3 0
  441.6 0.29 0
  441.7 0.27 0
  441.8 0.26 0
  441.9 0.26 0
  442.0 0.28 0
  442.1 0.3 0
  442.2 0.3 0
  442.3 0.28 0
  442.4 0.26 0
  442.5 0.26 0
  442.6 0.28 0
  442.7 0.3 0
  442.8 0.31 0
  442.9 0.29 0
  443.0 0.26 0
  443.1 0.25 0
  443.2 0.26 0
  443.3 0.29 0
  443.4 0.31 0
  443.5 0.31 0
  443.6 0.28 0
  443.7 0.26 0
  443.8 0.26 0
  443.9 0.28 0
  444.0 0.31 0
  444.1 0.31 0
  444.2 0.28 0
  444.3 0.25 0
  444.4 0.24 0
  444.5 0.25 0
  444.6 0.28 0
  444.7 0.3 0
  444.8 0.29 0
  444.9 0.26 0
  445.0 0.24 0
  445.1 0.25 0
  445.2 0.28 0
  445.3 0.3 0
  445.4 0.31 0
  445.5 0.29 0
  445.6 0.26 0
  445.7 0.24 0
  445.8 0.25 0
  445.9 0.28 0
  446.0 0.29 0
  446.1 0.28 0
  446.2 0.26 0
  446.3 0.24 0
  446.4 0.26 0
  446.5 0.28 0
  446.6 0.3 0
  446.7 0.29 0
  446.8 0.27 0
  446.9 0.25 0
  447.0 0.26 0
  447.1 0.28 0
  447.2 0.31 0
  447.3 0.31 0
  447.4 0.29 0
  447.5 0.26 0
  447.6 0.26 0
  447.7 0.27 0
  447.8 0.29 0
  447.9 0.3 0
  448.0 0.29 0
  448.1 0.26 0
  448.2 0.25 0
  448.3 0.26 0
  448.4 0.28 0
  448.5 0.3 0
  448.6 0.3 0
  448.7 0.29 0
  448.8 0.26 0
  448.9 0.25 0
  449.0 0.27 0
  449.1 0.29 0
  449.2 0.32 0
  449.3 0.32 0
  449.4 0.31 0
  449.5 0.29 0
  449.6 0.28 0
  449.7 0.31 0
  449.8 0.36 0
  449.9 0.43 0
  450.0 0.47 0
  450.1 0.44 0
  450.2 0.38 0
  450.3 0.44 0
  450.4 0.63 0
  450.5 0.75 0
  450.6 0.64 0
  450.7 0.4 0
  450.8 0.23 0
  450.9 0.21 0
  451.0 0.27 0
  451.1 0.3 0
  451.2 0.29 0
  451.3 0.26 0
  451.4 0.24 0
  451.5 0.24 0
  451.6 0.28 0
  451.7 0.31 0
  451.8 0.31 0
  451.9 0.28 0
  452.0 0.25 0
  452.1 0.25 0
  452.2 0.27 0
  452.3 0.3 0
  452.4 0.31 0
  452.5 0.3 0
  452.6 0.28 0
  452.7 0.26 0
  452.8 0.27 0
  452.9 0.29 0
  453.0 0.3 0
  453.1 0.29 0
  453.2 0.27 0
  453.3 0.24 0
  453.4 0.24 0
  453.5 0.27 0
  453.6 0.3 0
  453.7 0.3 0
  453.8 0.28 0
  453.9 0.25 0
  454.0 0.24 0
  454.1 0.26 0
  454.2 0.29 0
  454.3 0.3 0
  454.4 0.29 0
  454.5 0.26 0
  454.6 0.23 0
  454.7 0.24 0
  454.8 0.27 0
  454.9 0.29 0
  455.0 0.29 0
  455.1 0.27 0
  455.2 0.25 0
  455.3 0.25 0
  455.4 0.27 0
  455.5 0.3 0
  455.6 0.31 0
  455.7 0.29 0
  455.8 0.26 0
  455.9 0.25 0
  456.0 0.26 0
  456.1 0.28 0
  456.2 0.3 0
  456.3 0.3 0
  456.4 0.28 0
  456.5 0.26 0
  456.6 0.26 0
  456.7 0.27 0
  456.8 0.29 0
  456.9 0.29 0
  457.0 0.28 0
  457.1 0.26 0
  457.2 0.26 0
  457.3 0.27 0
  457.4 0.29 0
  457.5 0.31 0
  457.6 0.3 0
  457.7 0.27 0
  457.8 0.26 0
  457.9 0.26 0
  458.0 0.28 0
  458.1 0.31 0
  458.2 0.31 0
  458.3 0.29 0
  458.4 0.26 0
  458.5 0.25 0
  458.6 0.26 0
  458.7 0.29 0
  458.8 0.3 0
  458.9 0.29 0
  459.0 0.27 0
  459.1 0.26 0
  459.2 0.27 0
  459.3 0.29 0
  459.4 0.31 0
  459.5 0.3 0
  459.6 0.28 0
  459.7 0.26 0
  459.8 0.26 0
  459.9 0.28 0
  460.0 0.29 0
  460.1 0.29 0
  460.2 0.27 0
  460.3 0.25 0
  460.4 0.24 0
  460.5 0.26 0
  460.6 0.29 0
  460.7 0.31 0
  460.8 0.3 0
  460.9 0.27 0
  461.0 0.26 0
  461.1 0.26 0
  461.2 0.28 0
  461.3 0.3 0
  461.4 0.3 0
  461.5 0.28 0
  461.6 0.25 0
  461.7 0.24 0
  461.8 0.25 0
  461.9 0.28 0
  462.0 0.3 0
  462.1 0.29 0
  462.2 0.27 0
  462.3 0.25 0
  462.4 0.25 0
  462.5 0.28 0
  462.6 0.29 0
  462.7 0.29 0
  462.8 0.28 0
  462.9 0.26 0
  463.0 0.27 0
  463.1 0.29 0
  463.2 0.31 0
  463.3 0.31 0
  463.4 0.29 0
  463.5 0.26 0
  463.6 0.25 0
  463.7 0.27 0
  463.8 0.29 0
  463.9 0.3 0
  464.0 0.29 0
  464.1 0.26 0
  464.2 0.25 0
  464.3 0.26 0
  464.4 0.29 0
  464.5 0.32 0
  464.6 0.31 0
  464.7 0.28 0
  464.8 0.25 0
  464.9 0.25 0
  465.0 0.27 0
  465.1 0.3 0
  465.2 0.31 0
  465.3 0.29 0
  465.4 0.27 0
  465.5 0.26 0
  465.6 0.27 0
  465.7 0.28 0
  465.8 0.3 0
  465.9 0.3 0
  466.0 0.28 0
  466.1 0.26 0
  466.2 0.25 0
  466.3 0.27 0
  466.4 0.29 0
  466.5 0.3 0
  466.6 0.28 0
  466.7 0.26 0
  466.8 0.26 0
  466.9 0.28 0
  467.0 0.31 0
  467.1 0.31 0
  467.2 0.29 0
  467.3 0.25 0
  467.4 0.23 0
  467.5 0.25 0
  467.6 0.29 0
  467.7 0.34 0
  467.8 0.37 0
  467.9 0.39 0
  468.0 0.4 0
  468.1 0.39 0
  468.2 0.37 0
  468.3 0.34 0
  468.4 0.31 0
  468.5 0.28 0
  468.6 0.25 0
  468.7 0.24 0
  468.8 0.26 0
  468.9 0.28 0
  469.0 0.3 0
  469.1 0.3 0
  469.2 0.28 0
  469.3 0.26 0
  469.4 0.26 0
  469.5 0.28 0
  469.6 0.3 0
  469.7 0.3 0
  469.8 0.28 0
  469.9 0.25 0
  470.0 0.24 0
  470.1 0.25 0
  470.2 0.28 0
  470.3 0.3 0
  470.4 0.29 0
  470.5 0.27 0
  470.6 0.25 0
  470.7 0.26 0
  470.8 0.29 0
  470.9 0.31 0
  471.0 0.3 0
  471.1 0.27 0
  471.2 0.25 0
  471.3 0.25 0
  471.4 0.27 0
  471.5 0.3 0
  471.6 0.31 0
  471.7 0.29 0
  471.8 0.26 0
  471.9 0.24 0
  472.0 0.25 0
  472.1 0.28 0
  472.2 0.3 0
  472.3 0.29 0
  472.4 0.27 0
  472.5 0.25 0
  472.6 0.25 0
  472.7 0.27 0
  472.8 0.29 0
  472.9 0.29 0
  473.0 0.27 0
  473.1 0.26 0
  473.2 0.25 0
  473.3 0.26 0
  473.4 0.29 0
  473.5 0.3 0
  473.6 0.29 0
  473.7 0.27 0
  473.8 0.25 0
  473.9 0.25 0
  474.0 0.28 0
  474.1 0.31 0
  474.2 0.31 0
  474.3 0.3 0
  474.4 0.27 0
  474.5 0.26 0
  474.6 0.27 0
  474.7 0.3 0
  474.8 0.31 0
  474.9 0.29 0
  475.0 0.27 0
  475.1 0.26 0
  475.2 0.27 0
  475.3 0.29 0
  475.4 0.31 0
  475.5 0.3 0
  475.6 0.27 0
  475.7 0.25 0
  475.8 0.25 0
  475.9 0.28 0
  476.0 0.3 0
  476.1 0.31 0
  476.2 0.29 0
  476.3 0.26 0
  476.4 0.25 0
  476.5 0.26 0
  476.6 0.28 0
  476.7 0.3 0
  476.8 0.29 0
  476.9 0.27 0
  477.0 0.25 0
  477.1 0.25 0
  477.2 0.27 0
  477.3 0.29 0
  477.4 0.29 0
  477.5 0.27 0
  477.6 0.25 0
  477.7 0.25 0
  477.8 0.27 0
  477.9 0.29 0
  478.0 0.29 0
  478.1 0.28 0
  478.2 0.26 0
  478.3 0.25 0
  478.4 0.26 0
  478.5 0.29 0
  478.6 0.31 0
  478.7 0.31 0
  478.8 0.29 0
  478.9 0.26 0
  479.0 0.25 0
  479.1 0.27 0
  479.2 0.29 0
  479.3 0.3 0
  479.4 0.29 0
  479.5 0.26 0
  479.6 0.26 0
  479.7 0.27 0
  479.8 0.29 0
  479.9 0.3 0
  480.0 0.29 0
  480.1 0.27 0
  480.2 0.25 0
  480.3 0.26 0
  480.4 0.28 0
  480.5 0.29 0
  480.6 0.3 0
  480.7 0.28 0
  480.8 0.26 0
  480.9 0.25 0
  481.0 0.26 0
  481.1 0.29 0
  481.2 0.3 0
  481.3 0.29 0
  481.4 0.26 0
  481.5 0.24 0
  481.6 0.25 0
  481.7 0.28 0
  481.8 0.3 0
  481.9 0.3 0
  482.0 0.28 0
  482.1 0.25 0
  482.2 0.25 0
  482.3 0.27 0
  482.4 0.29 0
  482.5 0.29 0
  482.6 0.27 0
  482.7 0.25 0
  482.8 0.25 0
  482.9 0.26 0
  483.0 0.28 0
  483.1 0.3 0
  483.2 0.29 0
  483.3 0.27 0
  483.4 0.25 0
  483.5 0.24 0
  483.6 0.25 0
  483.7 0.26 0
  483.8 0.24 0
  483.9 0.21 0
  484.0 0.23 0
  484.1 0.38 0
  484.2 0.65 0
  484.3 1.22 1
  484.4 2.67 2
  484.5 5.52 5
  484.6 9.87 9
  484.7 15.49 15
  484.8 22.88 22
  484.9 34.18 34
  485.0 51.67 51
  485.1 73.64 73
  485.2 92.73 92
  485.3 99.99 99
  485.4 90.66 90
  485.5 66.67 66
  485.6 36.21 36
  485.7 10.63 10
  485.8 0.04 0
//
