ACCESSION: MSBNK-RIKEN_NPDepo-NGA01090
RECORD_TITLE: Napelline N-oxide; LC-ESI-QQQ; MS2; Frag=135.0V CID@15.0; [M+H]+
DATE: 2018.04.04
AUTHORS: Nogawa T, Okano A, CSRS, RIKEN
LICENSE: CC BY
COMMENT: Origin: Plant
COMMENT: SubCategory_DNP: Terpenoid alkaloids, Diterpene alkaloid, Aconitum alkaloid
CH$NAME: Napelline N-oxide
CH$COMPOUND_CLASS: Alkaloids
CH$FORMULA: C22H33NO4
CH$EXACT_MASS: 375.5126
CH$SMILES: C=C1[C@H]2C[C@]3(C4CC5[C@@]6(C)CC[C@H](O)[C@]5(C3C[C@@H]2O)C4[N+]([O-])(CC)C6)[C@@H]1O
CH$IUPAC: InChI=1S/C22H33NO4/c1-4-23(27)10-20(3)6-5-17(25)22-15(20)7-13(18(22)23)21-9-12(11(2)19(21)26)14(24)8-16(21)22/h12-19,24-26H,2,4-10H2,1,3H3/t12-,13?,14+,15?,16?,17+,18?,19-,20+,21-,22+,23?/m1/s1
CH$LINK: CAS 74047-88-4
CH$LINK: INCHIKEY DEMQJEXKIJFBRD-LGTBQFFLSA-N
AC$INSTRUMENT: Agilent 6410 Triple Quadrupole LC/MS system
AC$INSTRUMENT_TYPE: LC-ESI-QQQ
AC$MASS_SPECTROMETRY: MS_TYPE MS2
AC$MASS_SPECTROMETRY: ION_MODE POSITIVE
MS$FOCUSED_ION: PRECURSOR_TYPE [M+H]+
PK$SPLASH: splash10-004i-0009000000-3de72097085f1cecb9a0
PK$NUM_PEAK: 15
PK$PEAK: m/z int. rel.int.
  375.4 1.07 1
  375.5 2.92 2
  375.6 6.01 6
  375.7 10.84 10
  375.8 19.4 19
  375.9 34.24 34
  376.0 55.04 54
  376.1 76.85 76
  376.2 93.14 93
  376.3 100.0 99
  376.4 95.81 95
  376.5 79.33 79
  376.6 52.39 52
  376.7 23.52 23
  376.8 3.46 3
//
