ACCESSION: MSBNK-RIKEN_NPDepo-NGA00208
RECORD_TITLE: Brevicarine; LC-ESI-QQQ; MS2; Frag=135.0V CID@5.0; [M+H]+
DATE: 2018.04.04
AUTHORS: Nogawa T, Okano A, CSRS, RIKEN
LICENSE: CC BY
COMMENT: Origin: Plant
COMMENT: SubCategory_DNP: Alkaloids derived from tryptophan, beta-Carboline alkaloids, Indole alkaloids
CH$NAME: Brevicarine
CH$COMPOUND_CLASS: Alkaloids
CH$FORMULA: C17H21N3
CH$EXACT_MASS: 267.377
CH$SMILES: CNCCCCc1cnc(C)c2[nH]c3ccccc3c12
CH$IUPAC: InChI=1S/C17H21N3/c1-12-17-16(14-8-3-4-9-15(14)20-17)13(11-19-12)7-5-6-10-18-2/h3-4,8-9,11,18,20H,5-7,10H2,1-2H3
CH$LINK: CAS 25978-39-6
CH$LINK: CHEMSPIDER 4590257
CH$LINK: INCHIKEY OMGIBPZQATWNBX-UHFFFAOYSA-N
CH$LINK: COMPTOX DTXSID40180638
CH$LINK: PUBCHEM CID:5490034
AC$INSTRUMENT: Agilent 6410 Triple Quadrupole LC/MS system
AC$INSTRUMENT_TYPE: LC-ESI-QQQ
AC$MASS_SPECTROMETRY: MS_TYPE MS2
AC$MASS_SPECTROMETRY: ION_MODE POSITIVE
MS$FOCUSED_ION: PRECURSOR_TYPE [M+H]+
PK$SPLASH: splash10-014i-0090000000-d3593bad61c45f5ecd36
PK$NUM_PEAK: 16
PK$PEAK: m/z int. rel.int.
  267.3 1.26 1
  267.4 3.66 3
  267.5 7.68 7
  267.6 13.0 12
  267.7 20.76 20
  267.8 33.85 33
  267.9 53.56 53
  268.0 75.91 75
  268.1 93.25 93
  268.2 100.0 99
  268.3 95.28 95
  268.4 80.27 80
  268.5 56.77 56
  268.6 29.84 29
  268.7 8.06 8
  268.8 0.0 0
//
