ACCESSION: MSBNK-RIKEN_NPDepo-NGA01700
RECORD_TITLE: 3,6-Cevanediol; LC-ESI-QQQ; MS2; Frag=135.0V CID@25.0; [M+H]+
DATE: 2018.04.04
AUTHORS: Nogawa T, Okano A, CSRS, RIKEN
LICENSE: CC BY
COMMENT: Origin: Plant
COMMENT: SubCategory_DNP: Steroidal alkaloids, Veratrum Alkaloids
CH$NAME: 3,6-Cevanediol
CH$COMPOUND_CLASS: Alkaloids
CH$FORMULA: C27H45NO2
CH$EXACT_MASS: 415.6652
CH$SMILES: C[C@@H]1CC[C@H]2[C@H](C)[C@H]3CC[C@H]4C5C[C@H](O)[C@H]6C[C@H](O)CC[C@]6(C)[C@H]5C[C@H]4C3CN2C1
CH$IUPAC: InChI=1S/C27H45NO2/c1-15-4-7-25-16(2)18-5-6-19-20(22(18)14-28(25)13-15)11-23-21(19)12-26(30)24-10-17(29)8-9-27(23,24)3/h15-26,29-30H,4-14H2,1-3H3/t15-,16-,17-,18-,19-,20-,21?,22?,23+,24-,25+,26+,27-/m1/s1
CH$LINK: INCHIKEY NEMWYOKGHGSVSC-VCZJEBPASA-N
AC$INSTRUMENT: Agilent 6410 Triple Quadrupole LC/MS system
AC$INSTRUMENT_TYPE: LC-ESI-QQQ
AC$MASS_SPECTROMETRY: MS_TYPE MS2
AC$MASS_SPECTROMETRY: ION_MODE POSITIVE
MS$FOCUSED_ION: PRECURSOR_TYPE [M+H]+
PK$SPLASH: splash10-014i-0000900000-775c9ddea077874ef85a
PK$NUM_PEAK: 16
PK$PEAK: m/z int. rel.int.
  415.4 1.04 1
  415.5 2.65 2
  415.6 5.65 5
  415.7 10.09 10
  415.8 16.75 16
  415.9 27.42 27
  416.0 43.24 43
  416.1 62.61 62
  416.2 81.43 81
  416.3 95.16 95
  416.4 100.0 99
  416.5 92.72 92
  416.6 72.28 72
  416.7 43.45 43
  416.8 16.57 16
  416.9 0.51 0
//
