ACCESSION: MSBNK-RIKEN_NPDepo-NGA05234
RECORD_TITLE: Cyclogaleginoside A.; LC-ESI-QQQ; MS2; Frag=135.0V CID@25.0; [M+HOO]-
DATE: 2018.04.04
AUTHORS: Nogawa T, Okano A, CSRS, RIKEN
LICENSE: CC BY
COMMENT: Origin: Plant
COMMENT: SubCategory_DNP: Triterpenoids
CH$NAME: Cyclogaleginoside A.
CH$COMPOUND_CLASS: Terpenoids
CH$FORMULA: C37H60O10
CH$EXACT_MASS: 664.8848
CH$SMILES: CC(=O)O[C@H]1[C@H](OC2CC[C@]34C[C@]35CC[C@]3(C)C([C@@]6(C)CC[C@@H](C(C)(C)O)O6)[C@@H](O)C[C@@]3(C)C5C[C@H](O)C4C2(C)C)OC[C@@H](O)[C@@H]1O
CH$IUPAC: InChI=1S/C37H60O10/c1-19(38)45-27-26(42)22(41)17-44-30(27)46-24-10-12-37-18-36(37)14-13-33(6)29(35(8)11-9-25(47-35)32(4,5)43)21(40)16-34(33,7)23(36)15-20(39)28(37)31(24,2)3/h20-30,39-43H,9-18H2,1-8H3/t20-,21-,22+,23?,24?,25-,26-,27+,28?,29?,30-,33+,34-,35+,36-,37+/m0/s1
CH$LINK: CAS 94443-44-4
CH$LINK: INCHIKEY KILZIJKCZIGLFJ-KFRJDVSMSA-N
AC$INSTRUMENT: Agilent 6410 Triple Quadrupole LC/MS system
AC$INSTRUMENT_TYPE: LC-ESI-QQQ
AC$MASS_SPECTROMETRY: MS_TYPE MS2
AC$MASS_SPECTROMETRY: ION_MODE NEGATIVE
MS$FOCUSED_ION: PRECURSOR_TYPE [M+HOO]-
PK$SPLASH: splash10-074j-4888789400-cc1f4c6a8dc271fddb1a
PK$NUM_PEAK: 4897
PK$PEAK: m/z int. rel.int.
  51.0 5.86 5
  51.1 7.8 7
  51.2 9.87 9
  51.3 11.44 11
  51.4 11.81 11
  51.5 10.34 10
  51.6 7.13 7
  51.7 3.44 3
  51.9 1.84 1
  52.0 4.4 4
  52.1 7.74 7
  52.2 10.76 10
  52.3 12.63 12
  52.4 12.92 12
  52.5 12.28 12
  52.6 11.51 11
  52.7 10.35 10
  52.8 8.15 8
  52.9 5.38 5
  53.1 3.55 3
  53.2 4.95 4
  53.3 7.16 7
  53.4 9.26 9
  53.5 10.17 10
  53.6 9.67 9
  53.9 9.15 9
  54.0 9.77 9
  54.1 10.9 10
  54.2 11.78 11
  54.3 10.8 10
  54.4 7.79 7
  54.7 4.76 4
  54.8 7.22 7
  54.9 9.59 9
  55.0 10.62 10
  55.1 9.98 9
  56.0 5.21 5
  56.1 7.37 7
  56.2 9.93 9
  56.3 11.24 11
  56.4 11.26 11
  56.5 10.73 10
  56.6 9.69 9
  56.7 8.1 8
  56.9 6.93 6
  57.0 8.39 8
  57.1 9.76 9
  57.2 10.09 10
  57.3 9.47 9
  58.0 8.78 8
  58.1 9.88 9
  58.2 11.65 11
  58.3 13.39 13
  58.4 13.8 13
  58.5 12.0 11
  58.6 9.02 9
  58.8 7.33 7
  58.9 9.14 9
  59.0 11.94 11
  59.1 15.34 15
  59.2 18.32 18
  59.3 19.23 19
  59.4 17.39 17
  59.5 13.84 13
  59.6 10.32 10
  59.7 7.98 7
  59.9 7.42 7
  60.0 9.01 9
  60.1 11.36 11
  60.2 13.15 13
  60.3 13.6 13
  60.4 12.7 12
  60.5 10.89 10
  60.6 8.35 8
  60.8 5.46 5
  60.9 7.93 7
  61.0 11.87 11
  61.1 13.97 13
  61.2 12.41 12
  61.3 8.95 8
  62.4 8.88 8
  62.5 9.48 9
  62.6 10.67 10
  62.7 11.85 11
  62.8 12.52 12
  62.9 12.54 12
  63.0 12.1 12
  63.1 11.05 11
  63.2 9.2 9
  63.5 6.49 6
  63.6 9.02 9
  63.7 11.5 11
  63.8 12.51 12
  63.9 12.01 11
  64.0 10.8 10
  64.1 9.2 9
  64.2 7.16 7
  64.4 5.7 5
  64.5 7.31 7
  64.6 8.98 8
  64.7 10.21 10
  64.8 11.37 11
  64.9 12.08 12
  65.0 11.14 11
  65.1 8.63 8
  65.3 6.88 6
  65.4 8.66 8
  65.5 9.77 9
  65.6 9.11 9
  66.4 8.67 8
  66.5 10.86 10
  66.6 12.43 12
  66.7 11.7 11
  66.8 9.38 9
  66.9 7.3 7
  67.4 5.58 5
  67.5 6.54 6
  67.6 8.51 8
  67.7 9.8 9
  67.8 9.07 9
  68.1 7.13 7
  68.2 8.6 8
  68.3 9.04 9
  68.4 8.37 8
  68.5 7.63 7
  68.6 7.14 7
  68.7 5.97 5
  68.8 3.86 3
  69.0 2.45 2
  69.1 4.25 4
  69.2 6.37 6
  69.3 8.29 8
  69.4 10.26 10
  69.5 11.78 11
  69.6 11.59 11
  69.7 9.61 9
  69.8 7.3 7
  70.2 6.09 6
  70.3 6.49 6
  70.4 7.56 7
  70.5 8.62 8
  70.6 8.96 8
  70.7 8.57 8
  70.8 7.74 7
  71.0 6.57 6
  71.1 7.51 7
  71.2 9.15 9
  71.3 10.23 10
  71.4 10.29 10
  71.5 9.76 9
  71.6 8.62 8
  71.7 6.79 6
  71.8 4.77 4
  72.3 6.03 6
  72.4 5.88 5
  72.5 6.42 6
  72.6 7.89 7
  72.7 8.57 8
  72.8 7.34 7
  73.1 6.61 6
  73.2 7.89 7
  73.3 8.55 8
  73.4 8.67 8
  73.5 8.5 8
  73.6 8.42 8
  73.7 9.2 9
  73.8 10.99 10
  73.9 12.9 12
  74.0 13.48 13
  74.3 12.19 12
  74.4 14.55 14
  74.5 16.43 16
  74.6 15.47 15
  74.7 11.53 11
  74.8 6.9 6
  75.0 6.13 6
  75.1 8.94 8
  75.2 10.49 10
  75.3 10.12 10
  76.1 5.86 5
  76.2 7.49 7
  76.3 10.76 10
  76.4 13.2 13
  76.5 12.86 12
  76.6 10.11 10
  76.7 6.99 6
  76.9 6.16 6
  77.0 8.67 8
  77.1 11.25 11
  77.2 11.77 11
  77.3 9.65 9
  77.5 6.68 6
  77.6 9.18 9
  77.7 11.7 11
  77.8 11.51 11
  77.9 8.96 8
  78.1 7.97 7
  78.2 10.53 10
  78.3 11.97 11
  78.4 11.02 11
  78.5 9.04 9
  78.6 7.63 7
  78.7 7.03 7
  79.0 6.18 6
  79.1 6.9 6
  79.2 8.95 8
  79.3 11.43 11
  79.4 12.2 12
  79.5 9.87 9
  79.6 5.74 5
  79.8 2.92 2
  79.9 5.07 5
  80.0 7.11 7
  80.1 7.63 7
  80.4 6.44 6
  80.5 7.63 7
  80.6 8.75 8
  80.7 9.08 9
  80.8 8.57 8
  81.1 6.45 6
  81.2 8.06 8
  81.3 10.5 10
  81.4 11.51 11
  81.5 9.65 9
  81.6 5.93 5
  81.9 3.87 3
  82.0 6.64 6
  82.1 9.29 9
  82.2 10.98 10
  82.3 11.59 11
  82.4 11.42 11
  82.5 10.45 10
  82.6 8.54 8
  82.7 6.24 6
  83.0 5.42 5
  83.1 6.64 6
  83.2 7.58 7
  83.3 7.79 7
  83.4 6.83 6
  83.5 4.88 4
  83.7 3.16 3
  83.8 5.38 5
  83.9 8.33 8
  84.0 10.05 10
  84.1 9.87 9
  84.2 8.92 8
  85.8 4.07 4
  85.9 6.57 6
  86.0 10.27 10
  86.1 11.1 11
  86.2 8.38 8
  86.3 5.55 5
  86.4 5.15 5
  86.5 5.62 5
  86.6 4.42 4
  86.8 2.01 2
  86.9 3.94 3
  87.0 6.33 6
  87.1 7.71 7
  87.2 7.72 7
  87.3 6.45 6
  87.4 4.44 4
  87.6 3.05 3
  87.7 4.73 4
  87.8 6.71 6
  87.9 7.41 7
  88.0 6.65 6
  88.1 5.91 5
  88.2 6.65 6
  88.3 8.48 8
  88.4 10.01 9
  88.5 10.57 10
  88.6 10.7 10
  88.7 10.58 10
  88.8 9.76 9
  88.9 8.42 8
  89.0 7.75 7
  89.3 6.77 6
  89.4 7.36 7
  89.5 10.45 10
  89.6 14.24 14
  89.7 16.2 16
  89.8 16.03 16
  89.9 15.2 15
  90.0 14.81 14
  90.1 14.26 14
  90.2 12.5 12
  90.4 9.17 9
  90.5 10.92 10
  90.6 13.74 13
  90.7 14.67 14
  90.8 12.82 12
  90.9 10.21 10
  91.0 8.75 8
  91.1 8.22 8
  91.2 7.51 7
  91.3 6.47 6
  92.0 6.11 6
  92.1 7.1 7
  92.2 9.24 9
  92.3 10.59 10
  92.4 10.1 10
  92.5 8.75 8
  92.6 8.14 8
  92.7 8.29 8
  93.0 6.36 6
  93.1 8.34 8
  93.2 10.76 10
  93.3 10.66 10
  93.4 7.64 7
  94.2 4.64 4
  94.3 7.69 7
  94.4 10.73 10
  94.5 11.68 11
  94.6 10.26 10
  94.7 8.4 8
  94.9 7.76 7
  95.0 8.4 8
  95.1 9.64 9
  95.2 10.58 10
  95.3 9.52 9
  95.6 6.03 6
  95.7 8.98 8
  95.8 10.56 10
  95.9 9.47 9
  96.2 6.72 6
  96.3 8.54 8
  96.4 10.29 10
  96.5 11.14 11
  96.6 10.95 10
  96.7 10.49 10
  96.8 10.61 10
  96.9 10.9 10
  97.0 9.98 9
  97.1 7.6 7
  97.2 5.1 5
  97.4 4.24 4
  97.5 5.73 5
  97.6 7.7 7
  97.7 9.3 9
  97.8 9.96 9
  97.9 9.93 9
  98.0 9.67 9
  98.1 9.09 9
  99.3 4.15 4
  99.4 4.99 4
  99.5 6.09 6
  99.6 6.8 6
  99.7 7.47 7
  99.8 8.5 8
  99.9 9.48 9
  100.0 9.63 9
  100.1 9.2 9
  100.2 8.98 8
  100.3 9.2 9
  100.4 9.32 9
  100.5 8.71 8
  100.6 7.11 7
  101.4 5.01 5
  101.5 7.12 7
  101.6 8.73 8
  101.7 8.21 8
  101.8 6.43 6
  102.1 4.94 4
  102.2 5.87 5
  102.3 7.62 7
  102.4 9.27 9
  102.5 9.63 9
  102.6 8.72 8
  102.7 8.22 8
  102.8 8.68 8
  102.9 8.45 8
  103.0 6.31 6
  103.2 3.84 3
  103.3 6.56 6
  103.4 9.64 9
  103.5 10.87 10
  103.6 9.99 9
  103.9 8.51 8
  104.0 10.81 10
  104.1 12.7 12
  104.2 12.46 12
  104.3 10.13 10
  104.4 7.14 7
  104.6 5.28 5
  104.7 7.01 7
  104.8 8.97 8
  104.9 10.06 10
  105.0 10.74 10
  105.1 12.23 12
  105.2 14.24 14
  105.3 14.98 14
  106.7 7.17 7
  106.8 8.04 8
  106.9 9.31 9
  107.0 9.9 9
  107.1 9.7 9
  107.2 10.15 10
  107.3 12.25 12
  107.4 14.32 14
  107.5 13.38 13
  107.6 9.09 9
  108.6 9.23 9
  108.7 9.48 9
  108.8 10.62 10
  108.9 12.77 12
  109.0 14.31 14
  109.1 13.17 13
  109.2 9.61 9
  109.4 7.53 7
  109.5 10.93 10
  109.6 13.52 13
  109.7 13.16 13
  109.8 11.09 11
  110.0 10.19 10
  110.1 11.44 11
  110.2 12.36 12
  110.3 12.48 12
  110.4 11.74 11
  110.5 9.58 9
  110.6 6.39 6
  110.8 4.14 4
  110.9 6.2 6
  111.0 8.5 8
  111.1 10.11 10
  111.2 11.02 11
  111.3 11.36 11
  111.4 11.13 11
  111.5 10.19 10
  111.6 8.61 8
  112.4 6.54 6
  112.5 8.04 8
  112.6 10.33 10
  112.7 12.04 12
  112.8 12.79 12
  112.9 12.64 12
  113.0 11.48 11
  113.1 9.65 9
  113.2 7.93 7
  113.3 6.67 6
  113.5 5.36 5
  113.6 6.26 6
  113.7 8.27 8
  113.8 10.66 10
  113.9 12.53 12
  114.0 12.68 12
  114.1 10.41 10
  114.2 7.12 7
  114.4 6.28 6
  114.5 7.74 7
  114.6 8.34 8
  114.7 8.34 8
  114.8 8.58 8
  114.9 9.4 9
  115.0 10.49 10
  115.1 11.31 11
  115.2 11.22 11
  115.3 10.17 10
  116.2 3.62 3
  116.3 5.7 5
  116.4 7.16 7
  116.5 6.67 6
  116.8 4.56 4
  116.9 7.54 7
  117.0 10.73 10
  117.1 12.39 12
  117.2 12.62 12
  117.3 12.5 12
  117.4 12.25 12
  117.5 11.02 11
  117.6 8.63 8
  117.8 7.05 7
  117.9 9.09 9
  118.0 10.59 10
  118.1 9.57 9
  118.4 5.34 5
  118.5 9.58 9
  118.6 13.13 13
  118.7 12.73 12
  118.8 8.92 8
  118.9 5.04 5
  119.1 4.19 4
  119.2 5.51 5
  119.3 6.25 6
  119.4 6.16 6
  119.5 6.2 6
  119.6 7.68 7
  119.7 10.63 10
  119.8 13.5 13
  119.9 14.65 14
  120.0 13.73 13
  120.1 11.21 11
  120.2 8.14 8
  120.4 6.76 6
  120.5 9.06 9
  120.6 11.25 11
  120.7 12.07 12
  120.8 11.84 11
  120.9 12.01 11
  121.0 13.25 13
  121.1 14.89 14
  121.2 15.72 15
  121.3 15.47 15
  121.4 14.93 14
  121.5 14.44 14
  121.6 13.63 13
  121.7 11.9 11
  121.8 9.65 9
  122.1 9.25 9
  122.2 10.26 10
  122.3 11.1 11
  122.4 12.1 12
  122.5 12.62 12
  122.6 11.94 11
  122.7 10.45 10
  122.8 9.35 9
  123.1 8.21 8
  123.2 8.86 8
  123.3 10.44 10
  123.4 11.49 11
  123.5 10.89 10
  123.6 8.75 8
  123.7 6.08 6
  123.9 4.6 4
  124.0 6.41 6
  124.1 7.85 7
  124.2 8.11 8
  124.3 8.78 8
  124.4 11.26 11
  124.5 14.59 14
  124.6 16.16 16
  124.7 14.47 14
  124.8 10.45 10
  125.1 6.85 6
  125.2 10.34 10
  125.3 13.88 13
  125.4 16.06 16
  125.5 15.92 15
  125.6 13.52 13
  125.7 10.28 10
  125.8 7.92 7
  125.9 6.74 6
  126.0 5.82 5
  126.3 4.33 4
  126.4 6.68 6
  126.5 9.38 9
  126.6 10.38 10
  126.7 8.96 8
  127.4 5.18 5
  127.5 7.79 7
  127.6 10.47 10
  127.7 10.51 10
  127.8 8.73 8
  127.9 8.39 8
  128.0 11.1 11
  128.1 14.42 14
  128.2 14.69 14
  128.3 11.24 11
  128.4 6.9 6
  128.5 4.38 4
  128.7 3.84 3
  128.8 4.35 4
  128.9 5.9 5
  129.0 8.12 8
  129.1 9.44 9
  129.2 8.85 8
  129.3 7.23 7
  129.6 6.03 6
  129.7 6.95 6
  129.8 8.32 8
  129.9 9.59 9
  130.0 9.96 9
  130.1 9.01 9
  130.2 6.83 6
  130.5 4.52 4
  130.6 7.62 7
  130.7 9.88 9
  130.8 9.52 9
  130.9 7.34 7
  131.2 6.36 6
  131.3 6.79 6
  131.4 6.93 6
  131.5 7.23 7
  131.6 7.19 7
  131.7 6.27 6
  132.3 7.01 7
  132.4 7.56 7
  132.5 8.65 8
  132.6 9.64 9
  132.7 9.72 9
  132.8 8.75 8
  133.1 7.79 7
  133.2 8.38 8
  133.3 8.51 8
  133.4 8.45 8
  133.5 8.4 8
  133.6 8.29 8
  133.7 8.4 8
  133.8 9.09 9
  133.9 10.24 10
  134.0 11.28 11
  134.1 11.65 11
  134.2 10.81 10
  134.3 8.48 8
  134.6 4.77 4
  134.7 8.72 8
  134.8 12.35 12
  134.9 12.56 12
  135.0 9.63 9
  136.2 6.88 6
  136.3 9.18 9
  136.4 11.66 11
  136.5 12.76 12
  136.6 13.14 13
  136.7 13.71 13
  136.8 13.86 13
  136.9 12.37 12
  137.0 9.94 9
  137.7 7.71 7
  137.8 8.74 8
  137.9 9.53 9
  138.0 9.36 9
  138.1 8.04 8
  138.3 6.44 6
  138.4 7.82 7
  138.5 9.17 9
  138.6 8.91 8
  139.4 7.12 7
  139.5 8.63 8
  139.6 9.46 9
  139.7 9.83 9
  139.8 10.3 10
  139.9 10.99 10
  140.0 11.68 11
  140.1 12.31 12
  140.2 12.5 12
  140.3 11.6 11
  140.4 9.47 9
  140.6 6.07 6
  140.7 7.75 7
  140.8 10.73 10
  140.9 11.95 11
  141.0 10.01 9
  141.2 6.41 6
  141.3 8.79 8
  141.4 12.13 12
  141.5 13.39 13
  141.6 11.28 11
  142.9 7.8 7
  143.0 9.82 9
  143.1 11.71 11
  143.2 12.17 12
  143.3 11.25 11
  143.4 10.11 10
  143.5 9.09 9
  143.6 7.77 7
  143.7 6.32 6
  144.5 5.59 5
  144.6 6.73 6
  144.7 9.25 9
  144.8 11.14 11
  144.9 9.96 9
  145.0 5.9 5
  145.2 2.98 2
  145.3 6.72 6
  145.4 9.61 9
  145.5 8.79 8
  146.4 4.94 4
  146.5 6.24 6
  146.6 7.22 7
  146.7 7.94 7
  146.8 8.61 8
  146.9 9.01 9
  147.0 8.85 8
  147.1 8.06 8
  147.2 6.67 6
  147.5 4.94 4
  147.6 8.06 8
  147.7 11.47 11
  147.8 12.76 12
  147.9 11.44 11
  148.0 9.19 9
  148.1 7.77 7
  148.2 7.4 7
  148.3 6.95 6
  148.5 4.86 4
  148.6 5.99 5
  148.7 8.57 8
  148.8 10.42 10
  148.9 10.41 10
  149.0 9.38 9
  149.1 8.74 8
  149.2 8.62 8
  149.3 7.82 7
  149.4 5.52 5
  149.7 2.99 2
  149.8 5.73 5
  149.9 7.35 7
  150.0 7.42 7
  150.1 7.62 7
  150.2 8.48 8
  150.3 8.75 8
  150.6 6.5 6
  150.7 7.95 7
  150.8 9.76 9
  150.9 11.13 11
  151.0 11.15 11
  151.1 9.13 9
  151.2 5.84 5
  151.4 4.13 4
  151.5 6.96 6
  151.6 10.57 10
  151.7 13.56 13
  151.8 14.81 14
  151.9 14.05 14
  152.0 12.36 12
  153.4 6.2 6
  153.5 7.22 7
  153.6 9.14 9
  153.7 10.97 10
  153.8 12.06 12
  153.9 12.47 12
  154.0 12.47 12
  154.1 11.91 11
  154.2 10.63 10
  154.3 8.69 8
  154.5 6.99 6
  154.6 8.86 8
  154.7 11.04 11
  154.8 11.44 11
  154.9 9.69 9
  155.1 6.88 6
  155.2 8.62 8
  155.3 11.07 11
  155.4 11.97 11
  155.5 10.97 10
  155.6 10.0 9
  155.7 10.69 10
  155.8 12.34 12
  155.9 13.05 13
  156.0 11.59 11
  156.1 8.8 8
  156.3 7.41 7
  156.4 9.98 9
  156.5 11.95 11
  156.6 11.24 11
  156.7 8.81 8
  157.3 4.75 4
  157.4 7.11 7
  157.5 10.27 10
  157.6 11.39 11
  157.7 9.77 9
  157.8 7.07 7
  158.1 5.34 5
  158.2 6.44 6
  158.3 7.52 7
  158.4 8.42 8
  158.5 8.92 8
  158.6 9.14 9
  158.7 10.0 9
  158.8 11.73 11
  158.9 12.57 12
  159.0 10.45 10
  159.1 6.26 6
  159.3 4.18 4
  159.4 6.73 6
  159.5 8.63 8
  159.6 9.07 9
  159.7 8.6 8
  159.8 7.36 7
  159.9 5.33 5
  160.1 2.97 2
  160.2 4.64 4
  160.3 7.36 7
  160.4 9.26 9
  160.5 9.31 9
  160.6 8.63 8
  160.7 8.83 8
  160.8 9.59 9
  160.9 8.97 8
  161.0 6.64 6
  161.2 5.1 5
  161.3 6.9 6
  161.4 8.29 8
  161.5 8.61 8
  161.6 8.71 8
  161.7 9.3 9
  161.8 9.92 9
  161.9 9.67 9
  162.0 8.26 8
  162.3 5.23 5
  162.4 8.0 7
  162.5 10.98 10
  162.6 11.83 11
  162.7 10.4 10
  162.8 8.6 8
  162.9 7.94 7
  163.0 7.89 7
  163.3 6.95 6
  163.4 8.69 8
  163.5 10.12 10
  163.6 10.12 10
  163.7 9.55 9
  163.8 9.57 9
  163.9 9.31 9
  164.0 7.18 7
  164.3 4.41 4
  164.4 7.58 7
  164.5 9.3 9
  164.6 8.85 8
  164.7 7.91 7
  164.8 8.02 8
  164.9 8.9 8
  165.0 9.01 9
  165.1 7.93 7
  165.2 6.7 6
  165.3 5.81 5
  165.6 3.98 3
  165.7 7.1 7
  165.8 11.47 11
  165.9 13.97 13
  166.0 12.46 12
  166.1 7.56 7
  166.4 3.55 3
  166.5 7.41 7
  166.6 10.47 10
  166.7 12.29 12
  166.8 12.9 12
  166.9 11.91 11
  167.0 9.7 9
  167.2 8.05 8
  167.3 10.01 9
  167.4 11.85 11
  167.5 11.89 11
  167.6 10.67 10
  167.7 10.39 10
  167.8 11.71 11
  167.9 12.99 12
  168.0 12.83 12
  168.1 11.7 11
  168.2 10.4 10
  168.3 9.17 9
  168.6 8.68 8
  168.7 9.41 9
  168.8 9.78 9
  168.9 9.94 9
  169.0 10.29 10
  169.1 10.95 10
  169.2 11.35 11
  169.3 10.81 10
  169.4 9.67 9
  169.5 8.75 8
  170.3 6.68 6
  170.4 7.86 7
  170.5 9.31 9
  170.6 9.96 9
  170.7 9.82 9
  170.8 9.19 9
  171.6 3.62 3
  171.7 6.39 6
  171.8 9.47 9
  171.9 10.61 10
  172.0 10.13 10
  172.1 9.94 9
  172.2 10.96 10
  172.3 11.78 11
  172.4 10.22 10
  172.5 6.61 6
  172.7 5.17 5
  172.8 7.64 7
  172.9 8.29 8
  173.5 6.33 6
  173.6 7.11 7
  173.7 9.01 9
  173.8 10.59 10
  173.9 10.61 10
  174.0 9.19 9
  174.8 4.02 4
  174.9 6.9 6
  175.0 10.72 10
  175.1 12.64 12
  175.2 11.04 11
  175.3 6.89 6
  175.5 3.45 3
  175.6 7.33 7
  175.7 11.64 11
  175.8 12.71 12
  175.9 10.46 10
  176.0 7.66 7
  176.1 5.82 5
  176.4 3.27 3
  176.5 5.55 5
  176.6 7.56 7
  176.7 7.81 7
  176.8 7.28 7
  176.9 7.37 7
  177.0 7.77 7
  177.1 7.6 7
  177.2 7.4 7
  177.3 8.6 8
  177.4 10.95 10
  177.5 12.12 12
  177.6 10.62 10
  177.7 7.75 7
  177.8 5.61 5
  178.0 5.41 5
  178.1 6.07 6
  178.2 6.87 6
  178.3 8.1 8
  178.4 9.44 9
  178.5 10.1 10
  178.6 9.61 9
  178.7 8.5 8
  179.0 7.58 7
  179.1 7.99 7
  179.2 9.4 9
  179.3 11.24 11
  179.4 11.3 11
  179.5 8.67 8
  179.7 5.55 5
  179.8 8.23 8
  179.9 10.56 10
  180.0 9.76 9
  180.1 6.26 6
  180.3 2.87 2
  180.4 5.99 5
  180.5 10.21 10
  180.6 12.57 12
  180.7 11.71 11
  180.8 8.61 8
  181.7 4.36 4
  181.8 7.1 7
  181.9 10.46 10
  182.0 12.6 12
  182.1 12.13 12
  182.2 9.23 9
  182.3 5.87 5
  182.5 5.51 5
  182.6 7.48 7
  182.7 8.9 8
  182.8 10.28 10
  182.9 12.92 12
  183.0 16.26 16
  183.1 18.21 18
  183.2 17.53 17
  183.3 15.17 15
  183.4 12.74 12
  183.5 10.96 10
  184.2 5.92 5
  184.3 7.25 7
  184.4 8.66 8
  184.5 9.59 9
  184.6 9.96 9
  184.7 9.47 9
  184.8 8.0 7
  185.1 5.78 5
  185.2 7.4 7
  185.3 9.63 9
  185.4 11.55 11
  185.5 12.57 12
  185.6 12.59 12
  185.7 11.9 11
  186.4 8.86 8
  186.5 10.11 10
  186.6 11.32 11
  186.7 11.83 11
  186.8 11.9 11
  186.9 11.97 11
  187.0 12.2 12
  187.1 12.36 12
  187.2 12.34 12
  187.3 11.89 11
  187.4 10.28 10
  187.5 7.47 7
  187.7 5.64 5
  187.8 7.57 7
  187.9 8.86 8
  188.0 8.91 8
  188.1 8.98 8
  188.2 9.76 9
  188.3 10.36 10
  188.4 10.28 10
  188.5 10.11 10
  188.6 10.04 10
  188.7 9.53 9
  188.8 8.73 8
  188.9 8.08 8
  189.0 6.93 6
  189.1 4.63 4
  189.3 2.8 2
  189.4 5.63 5
  189.5 9.09 9
  189.6 11.37 11
  189.7 11.61 11
  189.8 10.13 10
  189.9 7.94 7
  190.2 6.24 6
  190.3 7.47 7
  190.4 8.56 8
  190.5 9.09 9
  190.6 9.24 9
  190.7 9.25 9
  190.8 9.08 9
  190.9 8.22 8
  191.0 6.76 6
  192.8 5.82 5
  192.9 6.5 6
  193.0 6.94 6
  193.1 8.0 7
  193.2 10.04 10
  193.3 11.89 11
  193.4 12.02 12
  193.5 10.49 10
  193.6 9.03 9
  193.7 8.91 8
  193.8 9.2 9
  193.9 8.48 8
  195.2 4.79 4
  195.3 6.15 6
  195.4 8.17 8
  195.5 8.9 8
  195.6 7.69 7
  195.7 5.87 5
  196.1 4.88 4
  196.2 5.61 5
  196.3 6.77 6
  196.4 7.08 7
  196.5 5.64 5
  196.7 2.93 2
  196.8 5.5 5
  196.9 9.47 9
  197.0 11.27 11
  197.1 9.37 9
  197.4 6.26 6
  197.5 8.15 8
  197.6 9.59 9
  197.7 10.47 10
  197.8 10.33 10
  197.9 8.8 8
  198.0 6.93 6
  198.3 6.39 6
  198.4 6.44 6
  198.5 7.54 7
  198.6 9.95 9
  198.7 12.77 12
  198.8 14.69 14
  198.9 14.52 14
  199.0 12.14 12
  199.1 9.06 9
  199.3 8.61 8
  199.4 10.86 10
  199.5 11.91 11
  199.6 11.37 11
  199.7 10.91 10
  199.8 12.04 12
  199.9 13.85 13
  200.0 14.18 14
  200.1 12.43 12
  200.4 9.52 9
  200.5 11.94 11
  200.6 14.11 14
  200.7 14.51 14
  200.8 13.34 13
  200.9 12.0 11
  201.0 10.98 10
  201.1 9.29 9
  201.2 6.56 6
  201.4 4.01 4
  201.5 6.07 6
  201.6 8.95 8
  201.7 10.89 10
  201.8 11.14 11
  201.9 10.47 10
  203.0 6.93 6
  203.1 7.47 7
  203.2 8.97 8
  203.3 10.84 10
  203.4 11.39 11
  203.5 9.73 9
  203.6 6.9 6
  203.8 5.0 4
  203.9 6.55 6
  204.0 8.17 8
  204.1 8.72 8
  204.2 8.23 8
  204.3 7.93 7
  204.4 8.56 8
  204.5 9.23 9
  204.6 8.6 8
  204.7 6.61 6
  205.0 4.94 4
  205.1 6.71 6
  205.2 7.76 7
  205.3 7.45 7
  205.4 6.65 6
  205.5 6.8 6
  205.6 8.23 8
  205.7 9.75 9
  205.8 9.93 9
  205.9 8.6 8
  206.1 6.97 6
  206.2 8.39 8
  206.3 9.98 9
  206.4 9.96 9
  206.5 7.81 7
  206.8 4.4 4
  206.9 7.4 7
  207.0 10.51 10
  207.1 12.3 12
  207.2 12.53 12
  207.3 12.11 12
  207.4 11.83 11
  207.5 11.74 11
  207.6 11.55 11
  207.7 10.87 10
  207.8 9.43 9
  209.0 6.08 6
  209.1 7.07 7
  209.2 8.29 8
  209.3 8.74 8
  209.4 8.73 8
  209.5 9.21 9
  209.6 10.18 10
  209.7 10.62 10
  209.8 10.16 10
  209.9 9.27 9
  210.8 6.65 6
  210.9 7.65 7
  211.0 8.68 8
  211.1 9.09 9
  211.2 8.39 8
  211.3 6.77 6
  211.4 4.98 4
  212.1 3.85 3
  212.2 4.46 4
  212.3 6.27 6
  212.4 8.86 8
  212.5 10.82 10
  212.6 11.31 11
  212.7 10.87 10
  213.5 8.98 8
  213.6 10.35 10
  213.7 13.2 13
  213.8 15.04 15
  213.9 14.71 14
  214.0 13.15 13
  214.2 11.87 11
  214.3 12.74 12
  214.4 14.34 14
  214.5 15.9 15
  214.6 16.22 16
  214.7 14.76 14
  214.8 12.43 12
  214.9 10.18 10
  215.2 7.37 7
  215.3 10.87 10
  215.4 13.82 13
  215.5 12.96 12
  215.6 9.18 9
  215.8 6.16 6
  215.9 8.09 8
  216.0 10.21 10
  216.1 11.62 11
  216.2 12.08 12
  216.3 11.49 11
  216.4 10.19 10
  216.5 8.92 8
  216.6 7.95 7
  216.8 6.83 6
  216.9 7.77 7
  217.0 9.83 9
  217.1 11.82 11
  217.2 12.86 12
  217.3 12.76 12
  217.4 11.38 11
  217.5 8.97 8
  217.7 6.49 6
  217.8 8.21 8
  217.9 10.74 10
  218.0 12.65 12
  218.1 13.4 13
  218.2 12.88 12
  218.3 11.01 10
  218.4 8.43 8
  218.6 7.22 7
  218.7 8.78 8
  218.8 9.73 9
  218.9 9.83 9
  219.0 9.83 9
  219.1 9.92 9
  219.2 9.25 9
  219.3 7.18 7
  219.4 4.32 4
  219.6 2.68 2
  219.7 5.24 5
  219.8 8.58 8
  219.9 11.41 11
  220.0 13.1 13
  220.1 13.29 13
  220.2 11.85 11
  220.3 9.2 9
  220.4 5.99 5
  220.6 3.46 3
  220.7 7.25 7
  220.8 12.36 12
  220.9 14.6 14
  221.0 12.45 12
  221.1 8.4 8
  221.3 5.96 5
  221.4 7.58 7
  221.5 9.32 9
  221.6 10.01 9
  221.7 9.35 9
  221.8 8.43 8
  221.9 9.09 9
  222.0 12.05 12
  222.1 15.04 15
  222.2 15.0 14
  222.3 11.56 11
  222.4 7.42 7
  222.7 6.33 6
  222.8 7.43 7
  222.9 8.58 8
  223.0 8.85 8
  223.1 7.33 7
  223.4 4.31 4
  223.5 7.47 7
  223.6 11.67 11
  223.7 14.83 14
  223.8 15.1 15
  223.9 12.45 12
  224.0 8.56 8
  224.3 5.67 5
  224.4 7.43 7
  224.5 8.06 8
  224.6 7.52 7
  224.7 7.57 7
  224.8 9.46 9
  224.9 12.28 12
  225.0 14.08 14
  225.1 13.62 13
  225.2 10.97 10
  225.3 7.62 7
  225.4 5.5 5
  225.8 5.44 5
  225.9 5.91 5
  226.0 7.31 7
  226.1 8.48 8
  226.2 8.26 8
  226.3 6.59 6
  226.6 3.91 3
  226.7 5.93 5
  226.8 9.01 9
  226.9 11.78 11
  227.0 12.28 12
  227.1 9.6 9
  227.2 5.91 5
  227.4 5.41 5
  227.5 6.65 6
  227.6 7.06 7
  227.7 7.93 7
  227.8 9.89 9
  227.9 11.27 11
  228.0 10.34 10
  228.1 7.56 7
  228.4 5.85 5
  228.5 7.99 7
  228.6 10.28 10
  228.7 12.36 12
  228.8 13.27 13
  228.9 12.25 12
  229.0 9.8 9
  229.1 7.46 7
  229.3 6.26 6
  229.4 7.22 7
  229.5 8.58 8
  229.6 10.23 10
  229.7 11.96 11
  229.8 13.08 13
  229.9 13.05 13
  230.0 12.2 12
  230.1 11.13 11
  230.2 9.95 9
  230.5 8.95 8
  230.6 9.54 9
  230.7 9.9 9
  230.8 10.21 10
  230.9 10.67 10
  231.0 11.15 11
  231.1 11.16 11
  231.2 10.33 10
  231.9 9.14 9
  232.0 10.61 10
  232.1 12.37 12
  232.2 12.9 12
  232.3 11.27 11
  232.4 8.43 8
  232.6 7.35 7
  232.7 10.32 10
  232.8 12.36 12
  232.9 11.03 11
  233.0 7.43 7
  233.2 5.34 5
  233.3 7.74 7
  233.4 10.36 10
  233.5 12.33 12
  233.6 12.98 12
  233.7 11.45 11
  233.8 8.45 8
  234.0 6.91 6
  234.1 8.75 8
  234.2 9.64 9
  234.3 9.11 9
  234.4 8.4 8
  234.5 8.33 8
  234.6 8.79 8
  234.7 9.18 9
  234.8 8.71 8
  234.9 7.26 7
  235.0 5.32 5
  235.1 3.6 3
  235.3 3.01 3
  235.4 4.02 4
  235.5 5.39 5
  235.6 6.96 6
  235.7 8.69 8
  235.8 10.17 10
  235.9 10.63 10
  236.0 9.5 9
  236.1 6.83 6
  236.3 2.98 2
  236.4 4.95 4
  236.5 8.22 8
  236.6 10.19 10
  236.7 10.05 10
  236.8 9.01 9
  236.9 8.33 8
  237.0 7.97 7
  237.1 7.17 7
  237.3 5.34 5
  237.4 7.35 7
  237.5 11.08 11
  237.6 13.4 13
  237.7 12.41 12
  237.8 9.69 9
  237.9 7.75 7
  238.2 5.98 5
  238.3 6.96 6
  238.4 8.33 8
  238.5 8.46 8
  238.6 6.96 6
  238.8 4.81 4
  238.9 6.59 6
  239.0 9.04 9
  239.1 10.23 10
  239.2 9.55 9
  239.3 8.22 8
  239.4 7.28 7
  239.5 6.13 6
  239.8 3.37 3
  239.9 6.96 6
  240.0 11.05 11
  240.1 12.34 12
  240.2 9.99 9
  240.3 6.53 6
  240.5 5.53 5
  240.6 7.63 7
  240.7 9.71 9
  240.8 10.05 10
  240.9 7.77 7
  241.7 5.9 5
  241.8 7.63 7
  241.9 9.95 9
  242.0 10.1 10
  242.1 7.05 7
  242.2 3.12 3
  242.4 2.8 2
  242.5 4.83 4
  242.6 6.07 6
  242.7 6.33 6
  242.8 6.01 6
  242.9 5.44 5
  243.0 5.4 5
  243.1 6.45 6
  243.2 7.71 7
  243.3 7.97 7
  243.4 7.66 7
  243.5 8.51 8
  243.6 10.69 10
  243.7 11.88 11
  243.8 10.41 10
  243.9 7.74 7
  244.0 6.55 6
  244.1 6.82 6
  244.4 4.72 4
  244.5 7.16 7
  244.6 10.12 10
  244.7 10.82 10
  244.8 9.38 9
  245.1 8.29 8
  245.2 9.92 9
  245.3 11.78 11
  245.4 12.77 12
  245.5 12.23 12
  246.6 8.79 8
  246.7 9.72 9
  246.8 11.78 11
  246.9 12.69 12
  247.0 11.05 11
  247.1 8.11 8
  247.2 6.05 6
  247.3 5.64 5
  247.6 4.55 4
  247.7 5.8 5
  247.8 9.26 9
  247.9 12.68 12
  248.0 12.99 12
  248.1 10.26 10
  248.2 7.79 7
  248.3 7.92 7
  248.4 8.97 8
  248.5 8.2 8
  248.7 5.15 5
  248.8 7.47 7
  248.9 10.9 10
  249.0 12.22 12
  249.1 10.13 10
  249.2 6.26 6
  249.3 3.27 3
  249.5 2.82 2
  249.6 3.63 3
  249.7 5.51 5
  249.8 8.6 8
  249.9 11.18 11
  250.0 10.99 10
  250.1 8.28 8
  250.8 6.27 6
  250.9 8.35 8
  251.0 10.23 10
  251.1 10.26 10
  251.2 8.73 8
  251.5 6.6 6
  251.6 8.48 8
  251.7 10.39 10
  251.8 10.64 10
  251.9 9.35 9
  252.4 7.29 7
  252.5 7.51 7
  252.6 9.89 9
  252.7 12.87 12
  252.8 13.33 13
  252.9 10.34 10
  253.0 6.37 6
  254.1 4.09 4
  254.2 4.81 4
  254.3 5.53 5
  254.4 6.21 6
  254.5 7.53 7
  254.6 9.81 9
  254.7 11.49 11
  254.8 10.52 10
  254.9 7.4 7
  255.6 5.1 5
  255.7 6.76 6
  255.8 9.34 9
  255.9 10.68 10
  256.0 9.08 9
  256.1 4.9 4
  256.3 0.16 0
  256.4 3.33 3
  256.5 7.62 7
  256.6 9.69 9
  256.7 9.07 9
  256.8 7.54 7
  256.9 6.04 6
  257.0 4.31 4
  257.2 2.2 2
  257.3 3.44 3
  257.4 5.65 5
  257.5 7.86 7
  257.6 9.3 9
  257.7 9.66 9
  257.8 9.23 9
  257.9 8.58 8
  258.0 7.89 7
  258.1 6.93 6
  259.1 2.05 2
  259.2 4.01 4
  259.3 8.04 8
  259.4 12.11 12
  259.5 14.03 14
  259.6 13.68 13
  259.7 12.39 12
  260.7 8.85 8
  260.8 10.0 9
  260.9 10.35 10
  261.0 10.56 10
  261.1 11.64 11
  261.2 12.46 12
  261.3 11.02 11
  261.4 7.51 7
  261.6 5.86 5
  261.7 10.0 9
  261.8 14.15 14
  261.9 15.23 15
  262.0 12.91 12
  262.1 9.9 9
  262.7 7.99 7
  262.8 9.55 9
  262.9 10.57 10
  263.0 10.36 10
  263.1 9.53 9
  263.2 8.9 8
  263.3 8.6 8
  263.6 7.29 7
  263.7 8.2 8
  263.8 10.04 10
  263.9 11.09 11
  264.0 10.17 10
  264.7 10.03 10
  264.8 11.16 11
  264.9 12.46 12
  265.0 13.1 13
  265.1 12.62 12
  265.2 10.76 10
  265.5 8.37 8
  265.6 9.54 9
  265.7 9.81 9
  265.8 9.27 9
  265.9 9.03 9
  266.0 9.6 9
  266.1 10.19 10
  266.2 9.83 9
  266.3 8.5 8
  266.6 7.91 7
  266.7 8.67 8
  266.8 8.94 8
  266.9 9.3 9
  267.0 9.8 9
  267.1 9.21 9
  267.2 7.25 7
  267.4 5.75 5
  267.5 7.58 7
  267.6 9.42 9
  267.7 10.34 10
  267.8 10.41 10
  267.9 10.34 10
  268.0 10.98 10
  268.1 12.37 12
  268.2 12.92 12
  268.3 10.76 10
  268.4 6.38 6
  268.6 3.78 3
  268.7 7.72 7
  268.8 11.81 11
  268.9 13.32 13
  269.0 12.06 12
  269.1 9.8 9
  269.4 8.32 8
  269.5 8.71 8
  269.6 9.47 9
  269.7 10.19 10
  269.8 10.07 10
  269.9 8.89 8
  270.0 7.24 7
  270.2 6.02 6
  270.3 7.8 7
  270.4 10.73 10
  270.5 13.04 13
  270.6 12.98 12
  270.7 10.35 10
  270.8 7.03 7
  271.0 5.3 5
  271.1 6.7 6
  271.2 8.68 8
  271.3 10.9 10
  271.4 12.53 12
  271.5 12.58 12
  271.8 10.42 10
  271.9 12.37 12
  272.0 13.84 13
  272.1 13.05 13
  272.2 9.75 9
  272.3 5.35 5
  272.5 2.77 2
  272.6 6.56 6
  272.7 11.03 11
  272.8 13.34 13
  272.9 12.74 12
  273.0 10.72 10
  273.1 9.04 9
  273.2 8.21 8
  273.3 7.66 7
  274.1 6.27 6
  274.2 7.53 7
  274.3 9.67 9
  274.4 10.96 10
  274.5 10.68 10
  274.6 10.07 10
  274.7 10.07 10
  274.8 9.94 9
  274.9 8.72 8
  275.1 6.9 6
  275.2 9.11 9
  275.3 12.46 12
  275.4 14.64 14
  275.5 14.44 14
  275.6 12.74 12
  275.7 10.72 10
  275.8 8.75 8
  276.0 6.19 6
  276.1 7.62 7
  276.2 10.36 10
  276.3 12.42 12
  276.4 13.26 13
  276.5 14.08 14
  276.6 15.24 15
  276.7 15.52 15
  276.8 13.79 13
  276.9 10.55 10
  277.1 8.05 8
  277.2 10.4 10
  277.3 12.13 12
  277.4 11.19 11
  278.4 8.29 8
  278.5 9.53 9
  278.6 11.33 11
  278.7 13.74 13
  278.8 15.57 15
  278.9 15.17 15
  279.0 12.4 12
  279.1 9.47 9
  279.7 4.18 4
  279.8 8.33 8
  279.9 13.69 13
  280.0 16.03 16
  280.1 14.02 14
  280.2 9.98 9
  281.3 5.27 5
  281.4 5.88 5
  281.5 7.97 7
  281.6 10.82 10
  281.7 12.62 12
  281.8 12.52 12
  281.9 11.72 11
  282.0 11.49 11
  282.1 11.25 11
  282.2 9.71 9
  283.3 6.54 6
  283.4 6.25 6
  283.5 6.99 6
  283.6 8.79 8
  283.7 9.75 9
  283.8 8.51 8
  284.1 5.48 5
  284.2 7.83 7
  284.3 10.46 10
  284.4 11.77 11
  284.5 10.73 10
  284.6 7.75 7
  284.7 4.53 4
  284.9 3.48 3
  285.0 4.99 4
  285.1 6.07 6
  285.2 6.48 6
  285.3 7.18 7
  285.4 8.75 8
  285.5 10.29 10
  285.6 10.18 10
  286.4 3.16 3
  286.5 5.9 5
  286.6 9.82 9
  286.7 10.93 10
  286.8 8.95 8
  288.1 2.52 2
  288.2 6.39 6
  288.3 9.44 9
  288.4 9.52 9
  288.5 7.8 7
  288.6 6.32 6
  288.7 5.56 5
  288.8 4.78 4
  289.1 2.88 2
  289.2 3.95 3
  289.3 5.82 5
  289.4 8.45 8
  289.5 10.89 10
  289.6 11.79 11
  289.7 10.84 10
  289.8 9.07 9
  289.9 7.63 7
  290.2 7.68 7
  290.3 8.42 8
  290.4 9.95 9
  290.5 12.06 12
  290.6 13.22 13
  290.7 12.3 12
  290.8 10.28 10
  291.8 6.89 6
  291.9 7.93 7
  292.0 10.74 10
  292.1 14.57 14
  292.2 17.8 17
  292.3 18.56 18
  292.4 16.32 16
  292.5 12.2 12
  292.6 8.23 8
  292.8 6.01 6
  292.9 7.59 7
  293.0 8.83 8
  293.1 8.63 8
  293.2 8.05 8
  293.3 8.5 8
  293.4 9.6 9
  293.5 10.27 10
  293.6 10.41 10
  293.7 10.39 10
  293.8 9.96 9
  295.2 6.02 6
  295.3 7.48 7
  295.4 9.17 9
  295.5 11.27 11
  295.6 13.06 13
  295.7 13.62 13
  295.8 13.23 13
  295.9 12.51 12
  296.0 11.25 11
  296.1 9.38 9
  296.4 9.0 8
  296.5 9.31 9
  296.6 9.75 9
  296.7 10.61 10
  296.8 11.13 11
  296.9 10.64 10
  297.0 9.44 9
  297.2 8.05 8
  297.3 9.53 9
  297.4 11.51 11
  297.5 11.96 11
  297.6 10.39 10
  297.9 8.45 8
  298.0 9.12 9
  298.1 9.47 9
  298.2 9.6 9
  298.3 9.26 9
  298.4 8.12 8
  299.0 8.23 8
  299.1 8.89 8
  299.2 10.4 10
  299.3 11.08 11
  299.4 9.58 9
  299.5 6.5 6
  299.6 3.66 3
  299.8 3.26 3
  299.9 4.92 4
  300.0 6.67 6
  300.1 8.0 7
  300.2 8.32 8
  300.3 7.87 7
  300.4 7.8 7
  300.5 8.71 8
  300.6 9.41 9
  300.7 8.45 8
  300.9 5.99 5
  301.0 7.7 7
  301.1 9.66 9
  301.2 8.91 8
  301.3 5.04 5
  301.5 0.9 0
  301.6 4.36 4
  301.7 8.92 8
  301.8 12.1 12
  301.9 13.32 13
  302.0 12.83 12
  302.1 10.91 10
  302.2 7.99 7
  302.4 5.65 5
  302.5 7.83 7
  302.6 10.35 10
  302.7 11.25 11
  302.8 10.11 10
  302.9 8.08 8
  303.6 6.15 6
  303.7 7.18 7
  303.8 8.96 8
  303.9 10.29 10
  304.0 10.26 10
  304.3 8.74 8
  304.4 9.88 9
  304.5 10.53 10
  304.6 10.27 10
  304.7 9.52 9
  304.8 8.83 8
  304.9 8.43 8
  305.0 7.72 7
  305.1 5.88 5
  305.2 2.83 2
  305.4 0.17 0
  305.5 2.85 2
  305.6 7.02 7
  305.7 11.13 11
  305.8 13.85 13
  305.9 14.26 14
  306.0 12.39 12
  306.1 9.55 9
  306.4 7.24 7
  306.5 8.95 8
  306.6 10.03 10
  306.7 9.46 9
  306.9 7.53 7
  307.0 8.83 8
  307.1 10.7 10
  307.2 11.54 11
  307.3 11.04 11
  307.4 10.34 10
  307.5 10.59 10
  307.6 11.74 11
  307.7 12.57 12
  307.8 12.31 12
  307.9 11.01 10
  309.2 3.06 3
  309.3 5.88 5
  309.4 10.56 10
  309.5 14.58 14
  309.6 16.09 16
  309.7 15.0 14
  309.8 12.59 12
  309.9 10.42 10
  310.1 9.69 9
  310.2 10.68 10
  310.3 11.24 11
  310.4 10.79 10
  311.5 8.95 8
  311.6 10.74 10
  311.7 12.58 12
  311.8 14.01 13
  311.9 14.52 14
  312.0 12.88 12
  312.1 8.83 8
  312.4 6.07 6
  312.5 9.38 9
  312.6 10.95 10
  312.7 10.4 10
  312.8 8.91 8
  312.9 7.58 7
  313.0 6.8 6
  313.3 6.03 6
  313.4 6.87 6
  313.5 8.44 8
  313.6 10.06 10
  313.7 11.25 11
  313.8 11.49 11
  313.9 10.32 10
  314.0 7.77 7
  314.1 4.64 4
  314.3 2.24 2
  314.4 4.67 4
  314.5 8.56 8
  314.6 11.32 11
  314.7 11.05 11
  314.8 8.65 8
  315.6 4.1 4
  315.7 6.1 6
  315.8 6.77 6
  315.9 5.71 5
  316.0 3.96 3
  316.2 2.55 2
  316.3 3.68 3
  316.4 5.67 5
  316.5 7.72 7
  316.6 9.2 9
  316.7 9.96 9
  316.8 10.33 10
  316.9 10.9 10
  317.0 11.59 11
  317.1 11.81 11
  317.2 11.31 11
  317.3 10.44 10
  317.4 9.06 9
  317.5 7.01 7
  317.7 4.66 4
  317.8 6.15 6
  317.9 8.66 8
  318.0 10.89 10
  318.1 11.93 11
  318.2 10.91 10
  318.3 7.85 7
  318.4 4.4 4
  318.6 3.9 3
  318.7 5.91 5
  318.8 7.48 7
  318.9 8.39 8
  319.0 8.45 8
  319.1 7.02 7
  319.3 3.52 3
  319.4 5.76 5
  319.5 9.77 9
  319.6 11.88 11
  319.7 10.68 10
  319.8 8.37 8
  319.9 7.51 7
  320.0 7.92 7
  320.1 7.65 7
  320.2 5.97 5
  320.4 4.56 4
  320.5 6.32 6
  320.6 8.09 8
  320.7 8.69 8
  320.8 8.0 7
  320.9 6.45 6
  321.1 4.73 4
  321.2 6.25 6
  321.3 7.86 7
  321.4 7.7 7
  321.7 6.44 6
  321.8 8.31 8
  321.9 9.93 9
  322.0 10.58 10
  322.1 10.05 10
  322.2 8.86 8
  322.3 7.72 7
  322.4 7.05 7
  322.5 6.39 6
  322.7 4.3 4
  322.8 5.61 5
  322.9 9.72 9
  323.0 14.09 14
  323.1 15.45 15
  323.2 13.56 13
  323.4 12.14 12
  323.5 14.77 14
  323.6 16.61 16
  323.7 15.87 15
  323.8 13.14 13
  323.9 9.73 9
  324.0 6.55 6
  324.2 3.81 3
  324.3 5.33 5
  324.4 7.72 7
  324.5 9.61 9
  324.6 10.52 10
  324.7 10.89 10
  324.8 10.92 10
  324.9 10.42 10
  325.0 9.49 9
  325.1 8.2 8
  325.2 6.61 6
  325.5 5.55 5
  325.6 7.49 7
  325.7 9.42 9
  325.8 10.63 10
  325.9 10.75 10
  326.0 10.04 10
  326.1 9.17 9
  326.2 8.61 8
  326.3 7.87 7
  326.6 6.48 6
  326.7 8.97 8
  326.8 11.82 11
  326.9 13.11 13
  327.0 11.33 11
  327.1 7.13 7
  327.3 3.75 3
  327.4 7.39 7
  327.5 11.26 11
  327.6 12.28 12
  327.7 9.72 9
  328.6 4.17 4
  328.7 7.92 7
  328.8 11.28 11
  328.9 11.05 11
  329.0 7.62 7
  329.2 4.41 4
  329.3 6.67 6
  329.4 8.94 8
  329.5 10.0 9
  329.6 9.69 9
  329.7 7.82 7
  329.8 4.92 4
  330.5 3.78 3
  330.6 5.96 5
  330.7 8.28 8
  330.8 9.27 9
  330.9 8.11 8
  331.0 5.41 5
  331.2 3.32 3
  331.3 5.9 5
  331.4 8.72 8
  331.5 9.71 9
  331.6 8.75 8
  331.9 7.05 7
  332.0 7.92 7
  332.1 8.56 8
  332.2 8.56 8
  332.3 8.33 8
  332.4 8.27 8
  332.5 8.12 8
  333.3 6.38 6
  333.4 8.16 8
  333.5 10.95 10
  333.6 13.14 13
  333.7 13.17 13
  333.8 11.49 11
  333.9 10.04 10
  334.0 9.37 9
  334.1 8.39 8
  334.4 6.82 6
  334.5 8.83 8
  334.6 9.94 9
  334.7 9.31 9
  334.8 7.46 7
  335.0 5.36 5
  335.1 7.18 7
  335.2 10.21 10
  335.3 12.01 11
  335.4 11.05 11
  335.5 8.23 8
  335.6 6.03 6
  335.7 5.71 5
  335.8 6.01 6
  336.1 4.58 4
  336.2 6.14 6
  336.3 7.22 7
  336.4 7.02 7
  336.5 6.9 6
  336.6 8.0 7
  336.7 9.75 9
  336.8 10.96 10
  336.9 11.66 11
  337.0 12.43 12
  337.1 13.11 13
  337.2 12.56 12
  337.3 10.03 10
  337.4 6.65 6
  337.6 5.75 5
  337.7 8.02 8
  337.8 8.92 8
  337.9 7.98 7
  338.0 7.53 7
  338.1 9.27 9
  338.2 11.95 11
  338.3 13.09 13
  338.4 12.25 12
  338.5 10.69 10
  338.7 9.11 9
  338.8 9.98 9
  338.9 11.85 11
  339.0 13.6 13
  339.1 13.84 13
  339.2 12.31 12
  339.3 10.03 10
  340.4 6.66 6
  340.5 7.82 7
  340.6 9.36 9
  340.7 10.87 10
  340.8 12.13 12
  340.9 11.84 11
  341.0 8.95 8
  341.2 4.79 4
  341.3 7.97 7
  341.4 11.13 11
  341.5 10.96 10
  341.8 8.26 8
  341.9 10.33 10
  342.0 12.23 12
  342.1 13.42 13
  342.2 13.11 13
  342.3 10.86 10
  342.4 7.88 7
  342.7 6.76 6
  342.8 7.2 7
  342.9 8.61 8
  343.0 11.15 11
  343.1 13.26 13
  343.2 13.29 13
  343.3 11.16 11
  343.4 7.8 7
  343.5 4.44 4
  343.7 3.61 3
  343.8 6.13 6
  343.9 8.09 8
  344.0 8.48 8
  344.1 8.56 8
  344.2 9.96 9
  344.3 12.29 12
  344.4 13.61 13
  344.5 12.46 12
  344.6 9.37 9
  345.3 6.13 6
  345.4 7.51 7
  345.5 8.96 8
  345.6 9.34 9
  345.7 8.2 8
  345.8 6.3 6
  345.9 4.83 4
  346.2 4.83 4
  346.3 5.23 5
  346.4 6.27 6
  346.5 7.13 7
  346.6 6.54 6
  346.7 4.59 4
  346.9 2.88 2
  347.0 5.74 5
  347.1 9.35 9
  347.2 10.38 10
  347.3 7.46 7
  347.6 4.4 4
  347.7 7.98 7
  347.8 9.58 9
  347.9 8.95 8
  348.2 7.58 7
  348.3 9.08 9
  348.4 10.12 10
  348.5 9.86 9
  348.6 9.11 9
  348.7 9.6 9
  348.8 11.37 11
  348.9 12.41 12
  349.0 11.03 11
  349.1 8.03 8
  349.3 5.99 5
  349.4 7.74 7
  349.5 9.5 9
  349.6 10.36 10
  349.7 10.29 10
  349.8 9.7 9
  349.9 8.86 8
  350.0 8.16 8
  350.1 7.58 7
  350.2 6.56 6
  350.5 3.85 3
  350.6 5.8 5
  350.7 8.37 8
  350.8 9.98 9
  350.9 9.6 9
  351.2 7.86 7
  351.3 10.38 10
  351.4 11.91 11
  351.5 11.05 11
  351.6 8.58 8
  351.9 7.11 7
  352.0 8.43 8
  352.1 9.04 9
  352.2 8.85 8
  352.3 8.78 8
  352.4 9.64 9
  352.5 10.92 10
  352.6 10.85 10
  352.7 8.58 8
  352.9 3.97 3
  353.0 6.02 6
  353.1 10.26 10
  353.2 13.08 13
  353.3 12.3 12
  354.4 7.85 7
  354.5 10.84 10
  354.6 13.74 13
  354.7 14.84 14
  354.8 14.34 14
  354.9 12.98 12
  355.0 10.92 10
  355.2 7.64 7
  355.3 9.11 9
  355.4 12.59 12
  355.5 16.09 16
  355.6 17.3 17
  355.7 14.99 14
  355.8 9.78 9
  356.0 3.24 3
  356.1 6.36 6
  356.2 10.79 10
  356.3 12.64 12
  356.4 11.51 11
  356.5 10.17 10
  356.6 10.93 10
  356.7 12.98 12
  356.8 13.79 13
  356.9 12.4 12
  357.0 10.27 10
  357.1 8.97 8
  357.2 8.35 8
  357.3 7.57 7
  357.4 6.56 6
  357.7 5.62 5
  357.8 7.81 7
  357.9 11.6 11
  358.0 14.77 14
  358.1 14.58 14
  358.2 10.63 10
  358.3 5.7 5
  358.5 4.25 4
  358.6 7.23 7
  358.7 10.11 10
  358.8 11.51 11
  358.9 10.84 10
  359.0 8.51 8
  359.1 5.96 5
  359.3 5.38 5
  359.4 7.41 7
  359.5 9.59 9
  359.6 10.75 10
  359.7 10.33 10
  359.8 8.71 8
  359.9 6.48 6
  360.2 4.61 4
  360.3 6.48 6
  360.4 7.8 7
  360.5 8.17 8
  360.6 8.17 8
  360.7 8.21 8
  360.8 8.22 8
  360.9 8.29 8
  361.0 8.35 8
  361.1 7.57 7
  361.4 5.41 5
  361.5 8.55 8
  361.6 10.84 10
  361.7 10.04 10
  361.8 7.07 7
  362.0 4.47 4
  362.1 6.36 6
  362.2 8.97 8
  362.3 11.03 11
  362.4 11.76 11
  362.5 11.22 11
  362.6 10.04 10
  362.7 8.8 8
  364.3 5.34 5
  364.4 9.02 9
  364.5 12.33 12
  364.6 12.82 12
  364.7 10.61 10
  364.8 7.36 7
  365.0 4.31 4
  365.1 6.15 6
  365.2 9.01 9
  365.3 10.44 10
  365.4 9.3 9
  365.5 7.51 7
  365.6 7.56 7
  365.7 8.43 8
  365.8 7.03 7
  365.9 3.17 3
  366.1 1.66 1
  366.2 5.35 5
  366.3 8.86 8
  366.4 10.84 10
  366.5 11.07 11
  366.6 9.81 9
  366.7 7.89 7
  366.8 6.41 6
  366.9 5.7 5
  367.0 5.5 5
  367.1 5.3 5
  367.4 4.41 4
  367.5 6.74 6
  367.6 9.84 9
  367.7 10.86 10
  367.8 8.8 8
  368.7 8.06 8
  368.8 9.37 9
  368.9 10.21 10
  369.0 9.75 9
  369.3 8.08 8
  369.4 10.21 10
  369.5 12.81 12
  369.6 14.24 14
  369.7 13.74 13
  370.0 11.25 11
  370.1 12.79 12
  370.2 13.72 13
  370.3 13.23 13
  370.4 11.82 11
  370.5 10.12 10
  371.3 5.42 5
  371.4 7.95 7
  371.5 10.06 10
  371.6 10.53 10
  371.7 9.59 9
  373.2 5.9 5
  373.3 7.47 7
  373.4 8.98 8
  373.5 9.67 9
  373.6 9.88 9
  373.7 10.18 10
  373.8 10.38 10
  373.9 10.0 9
  374.2 9.13 9
  374.3 10.32 10
  374.4 12.08 12
  374.5 13.79 13
  374.6 14.49 14
  374.7 13.27 13
  374.8 9.98 9
  374.9 5.97 5
  375.1 3.64 3
  375.2 6.3 6
  375.3 10.05 10
  375.4 13.61 13
  375.5 15.73 15
  375.6 15.69 15
  375.7 13.62 13
  375.8 10.28 10
  375.9 7.05 7
  376.6 7.89 7
  376.7 8.23 8
  376.8 8.94 8
  376.9 9.72 9
  377.0 9.46 9
  377.1 7.86 7
  377.2 6.28 6
  377.7 5.32 5
  377.8 7.36 7
  377.9 10.12 10
  378.0 11.94 11
  378.1 12.51 12
  378.2 12.57 12
  378.3 12.76 12
  378.4 12.57 12
  378.5 10.98 10
  378.6 8.12 8
  378.9 6.36 6
  379.0 8.94 8
  379.1 10.95 10
  379.2 11.65 11
  379.3 11.14 11
  379.4 10.04 10
  379.5 8.98 8
  379.6 8.08 8
  379.9 7.05 7
  380.0 8.22 8
  380.1 9.24 9
  380.2 9.49 9
  380.3 9.59 9
  380.4 9.76 9
  380.5 9.15 9
  380.6 7.29 7
  380.8 4.94 4
  380.9 6.32 6
  381.0 8.21 8
  381.1 9.21 9
  381.2 8.97 8
  381.3 8.34 8
  381.4 8.74 8
  381.5 10.45 10
  381.6 12.33 12
  381.7 12.6 12
  381.8 10.23 10
  381.9 6.14 6
  382.1 3.1 3
  382.2 5.53 5
  382.3 8.17 8
  382.4 9.82 9
  382.5 10.5 10
  382.6 10.32 10
  382.7 9.3 9
  382.8 7.99 7
  382.9 7.1 7
  383.0 6.44 6
  383.2 4.86 4
  383.3 5.7 5
  383.4 8.5 8
  383.5 11.21 11
  383.6 11.43 11
  383.7 9.29 9
  384.2 9.58 9
  384.3 9.65 9
  384.4 10.35 10
  384.5 11.73 11
  384.6 12.83 12
  384.7 12.43 12
  384.8 10.15 10
  385.1 7.43 7
  385.2 10.45 10
  385.3 12.83 12
  385.4 13.29 13
  385.5 12.02 12
  386.5 6.83 6
  386.6 10.01 9
  386.7 14.0 13
  386.8 16.02 16
  386.9 13.75 13
  387.0 8.61 8
  387.8 2.85 2
  387.9 5.9 5
  388.0 8.86 8
  388.1 10.55 10
  388.2 11.04 11
  388.3 11.02 11
  388.4 10.91 10
  388.5 10.91 10
  388.6 11.16 11
  388.7 11.42 11
  388.8 11.14 11
  388.9 10.06 10
  389.0 8.68 8
  389.1 7.25 7
  389.4 3.97 3
  389.5 7.49 7
  389.6 11.15 11
  389.7 11.25 11
  390.0 7.56 7
  390.1 10.56 10
  390.2 12.22 12
  390.3 11.21 11
  390.4 8.54 8
  390.7 6.31 6
  390.8 7.89 7
  390.9 9.03 9
  391.0 9.0 8
  391.1 7.7 7
  391.2 5.99 5
  391.5 5.15 5
  391.6 5.65 5
  391.7 7.23 7
  391.8 9.66 9
  391.9 11.35 11
  392.0 11.02 11
  392.1 8.97 8
  392.2 6.05 6
  392.4 2.12 2
  392.5 3.87 3
  392.6 7.45 7
  392.7 9.9 9
  392.8 9.32 9
  393.7 4.83 4
  393.8 6.16 6
  393.9 7.47 7
  394.0 8.75 8
  394.1 9.53 9
  394.2 9.18 9
  394.5 7.58 7
  394.6 8.62 8
  394.7 9.55 9
  394.8 9.49 9
  394.9 8.27 8
  395.6 4.43 4
  395.7 6.88 6
  395.8 9.01 9
  395.9 8.95 8
  396.0 6.8 6
  396.1 4.08 4
  396.3 2.94 2
  396.4 5.0 4
  396.5 7.74 7
  396.6 9.99 9
  396.7 10.68 10
  396.8 9.99 9
  397.9 5.39 5
  398.0 6.44 6
  398.1 7.92 7
  398.2 8.65 8
  398.3 7.88 7
  398.4 5.74 5
  398.5 3.23 3
  398.7 2.23 2
  398.8 3.63 3
  398.9 4.54 4
  399.0 4.87 4
  399.1 5.78 5
  399.2 7.59 7
  399.3 9.31 9
  399.4 10.0 9
  399.5 10.0 9
  399.6 9.99 9
  399.7 10.23 10
  399.8 9.98 9
  399.9 8.57 8
  400.1 6.28 6
  400.2 8.94 8
  400.3 13.36 13
  400.4 15.95 15
  400.5 14.41 14
  400.6 10.55 10
  400.8 9.59 9
  400.9 13.19 13
  401.0 16.39 16
  401.1 16.83 16
  401.2 13.88 13
  401.3 9.77 9
  401.5 8.49 8
  401.6 9.98 9
  401.7 10.85 10
  401.8 11.79 11
  401.9 13.28 13
  402.0 14.35 14
  402.1 13.75 13
  402.2 11.84 11
  402.3 10.06 10
  402.9 8.21 8
  403.0 9.3 9
  403.1 11.31 11
  403.2 11.88 11
  403.3 9.55 9
  403.4 6.15 6
  403.6 5.88 5
  403.7 7.17 7
  403.8 7.23 7
  403.9 7.2 7
  404.0 8.27 8
  404.1 9.31 9
  404.2 8.74 8
  404.3 7.47 7
  404.4 7.85 7
  404.5 9.86 9
  404.6 10.59 10
  404.7 8.27 8
  404.8 4.88 4
  405.1 4.78 4
  405.2 4.61 4
  405.3 5.34 5
  405.4 8.48 8
  405.5 12.29 12
  405.6 13.31 13
  405.7 10.55 10
  405.8 7.01 7
  406.2 6.57 6
  406.3 7.31 7
  406.4 9.88 9
  406.5 11.66 11
  406.6 10.63 10
  406.7 8.03 8
  407.0 6.48 6
  407.1 7.8 7
  407.2 9.99 9
  407.3 12.06 12
  407.4 12.36 12
  407.5 10.3 10
  407.6 7.07 7
  407.9 4.77 4
  408.0 7.2 7
  408.1 9.11 9
  408.2 8.85 8
  408.3 6.8 6
  408.5 5.12 5
  408.6 7.08 7
  408.7 9.37 9
  408.8 10.38 10
  408.9 9.6 9
  409.0 7.42 7
  409.2 4.36 4
  409.3 6.16 6
  409.4 9.25 9
  409.5 11.24 11
  409.6 10.86 10
  409.7 8.91 8
  409.8 6.87 6
  410.5 5.97 5
  410.6 8.37 8
  410.7 9.8 9
  410.8 8.83 8
  410.9 6.55 6
  411.1 5.57 5
  411.2 6.87 6
  411.3 8.12 8
  411.4 8.81 8
  411.5 8.43 8
  412.5 3.11 3
  412.6 3.91 3
  412.7 4.77 4
  412.8 6.36 6
  412.9 8.68 8
  413.0 9.89 9
  413.1 8.22 8
  413.2 4.46 4
  413.5 2.47 2
  413.6 4.7 4
  413.7 6.51 6
  413.8 7.23 7
  414.1 4.93 4
  414.2 6.9 6
  414.3 9.84 9
  414.4 11.67 11
  414.5 10.95 10
  414.6 8.03 8
  415.5 6.34 6
  415.6 9.04 9
  415.7 11.68 11
  415.8 12.73 12
  415.9 11.99 11
  416.0 10.38 10
  416.2 9.12 9
  416.3 11.24 11
  416.4 14.26 14
  416.5 15.99 15
  416.6 15.26 15
  416.7 13.08 13
  416.8 11.2 11
  417.7 7.35 7
  417.8 8.28 8
  417.9 10.15 10
  418.0 12.12 12
  418.1 12.4 12
  418.2 10.21 10
  419.5 8.27 8
  419.6 10.4 10
  419.7 12.41 12
  419.8 11.83 11
  419.9 8.9 8
  420.1 5.3 5
  420.2 7.31 7
  420.3 9.93 9
  420.4 10.61 10
  421.2 6.76 6
  421.3 8.86 8
  421.4 11.82 11
  421.5 13.97 13
  421.6 13.62 13
  421.7 10.62 10
  422.5 3.2 3
  422.6 6.39 6
  422.7 9.55 9
  422.8 10.33 10
  422.9 9.24 9
  423.0 8.29 8
  423.1 8.6 8
  423.2 8.95 8
  423.3 7.0 6
  423.6 1.63 1
  423.7 6.42 6
  423.8 10.47 10
  423.9 12.34 12
  424.0 13.36 13
  424.1 13.8 13
  424.2 12.06 12
  424.3 8.12 8
  425.6 5.05 5
  425.7 6.99 6
  425.8 8.88 8
  425.9 9.7 9
  426.0 9.84 9
  426.1 9.04 9
  426.2 6.66 6
  426.4 2.64 2
  426.5 4.92 4
  426.6 9.21 9
  426.7 12.54 12
  426.8 12.71 12
  426.9 10.12 10
  427.0 6.68 6
  427.2 4.03 4
  427.3 6.09 6
  427.4 9.25 9
  427.5 10.98 10
  427.6 9.77 9
  427.7 6.99 6
  427.8 5.18 5
  427.9 4.6 4
  428.1 2.95 2
  428.2 4.46 4
  428.3 8.51 8
  428.4 12.01 11
  428.5 12.11 12
  428.6 8.97 8
  428.9 4.75 4
  429.0 8.48 8
  429.1 12.11 12
  429.2 13.6 13
  429.3 12.59 12
  429.4 10.21 10
  429.5 7.92 7
  429.7 6.79 6
  429.8 7.85 7
  429.9 8.81 8
  430.0 8.67 8
  430.3 7.62 7
  430.4 9.64 9
  430.5 11.22 11
  430.6 11.22 11
  430.7 10.03 10
  430.9 8.83 8
  431.0 9.94 9
  431.1 11.32 11
  431.2 11.64 11
  431.3 10.17 10
  431.6 8.39 8
  431.7 11.31 11
  431.8 14.05 14
  431.9 14.7 14
  432.0 13.0 12
  432.1 10.99 10
  432.2 10.79 10
  432.3 11.54 11
  432.4 10.8 10
  433.9 8.28 8
  434.0 10.35 10
  434.1 11.95 11
  434.2 11.93 11
  434.3 10.89 10
  436.0 6.73 6
  436.1 8.28 8
  436.2 9.61 9
  436.3 10.16 10
  436.4 9.9 9
  436.5 8.85 8
  437.8 5.15 5
  437.9 6.8 6
  438.0 7.52 7
  438.1 6.99 6
  438.2 6.83 6
  438.3 8.12 8
  438.4 9.89 9
  438.5 10.72 10
  438.6 10.62 10
  438.7 10.5 10
  438.8 10.36 10
  438.9 9.13 9
  439.0 6.56 6
  439.2 4.18 4
  439.3 6.18 6
  439.4 8.78 8
  439.5 10.42 10
  439.6 10.51 10
  439.7 9.48 9
  439.8 8.04 8
  439.9 6.6 6
  440.2 5.52 5
  440.3 7.57 7
  440.4 9.44 9
  440.5 10.01 9
  440.6 9.69 9
  440.7 9.54 9
  440.8 9.52 9
  440.9 8.67 8
  441.0 7.14 7
  441.5 6.62 6
  441.6 7.36 7
  441.7 8.38 8
  441.8 8.55 8
  441.9 7.31 7
  442.6 5.23 5
  442.7 7.71 7
  442.8 9.78 9
  442.9 10.01 9
  443.0 9.5 9
  443.1 9.38 9
  443.2 8.94 8
  443.5 6.22 6
  443.6 8.35 8
  443.7 10.17 10
  443.8 10.45 10
  443.9 9.42 9
  444.0 7.83 7
  444.1 6.25 6
  444.2 4.98 4
  444.5 3.09 3
  444.6 4.4 4
  444.7 7.24 7
  444.8 10.27 10
  444.9 11.78 11
  445.0 11.24 11
  445.1 9.77 9
  445.2 8.34 8
  445.3 7.28 7
  445.4 6.65 6
  445.5 6.21 6
  445.8 4.6 4
  445.9 5.75 5
  446.0 7.02 7
  446.1 7.54 7
  446.2 7.76 7
  446.3 8.43 8
  446.4 9.52 9
  446.5 10.3 10
  446.6 9.96 9
  446.9 8.16 8
  447.0 9.96 9
  447.1 11.55 11
  447.2 11.64 11
  448.5 6.78 6
  448.6 8.44 8
  448.7 10.98 10
  448.8 11.97 11
  448.9 10.23 10
  450.1 6.15 6
  450.2 7.2 7
  450.3 9.25 9
  450.4 11.41 11
  450.5 12.75 12
  450.6 12.93 12
  450.7 11.94 11
  450.8 9.86 9
  450.9 7.41 7
  451.2 5.74 5
  451.3 6.82 6
  451.4 8.45 8
  451.5 10.15 10
  451.6 10.68 10
  451.7 9.99 9
  451.8 9.37 9
  451.9 9.32 9
  452.0 9.0 8
  452.1 7.86 7
  452.3 6.41 6
  452.4 8.14 8
  452.5 11.66 11
  452.6 15.21 15
  452.7 15.83 15
  452.8 12.39 12
  452.9 7.13 7
  453.1 3.85 3
  453.2 6.34 6
  453.3 8.6 8
  453.4 9.59 9
  453.5 10.34 10
  453.6 11.66 11
  453.7 12.13 12
  453.8 10.13 10
  453.9 6.56 6
  454.1 4.27 4
  454.2 6.79 6
  454.3 10.07 10
  454.4 12.35 12
  454.5 12.24 12
  454.6 9.61 9
  454.7 5.93 5
  455.2 6.2 6
  455.3 5.92 5
  455.4 6.83 6
  455.5 8.75 8
  455.6 10.34 10
  455.7 10.55 10
  455.8 9.4 9
  455.9 7.35 7
  456.0 5.39 5
  456.2 4.59 4
  456.3 5.67 5
  456.4 6.91 6
  456.5 8.03 8
  456.6 8.73 8
  456.7 8.73 8
  456.8 8.38 8
  456.9 8.0 7
  457.0 7.81 7
  457.1 7.97 7
  457.2 8.67 8
  457.3 9.49 9
  457.4 9.52 9
  457.5 8.68 8
  457.6 8.25 8
  457.7 8.84 8
  457.8 9.08 9
  457.9 7.54 7
  458.2 5.34 5
  458.3 7.6 7
  458.4 9.23 9
  458.5 9.49 9
  458.6 8.71 8
  458.7 7.82 7
  458.8 7.24 7
  460.1 4.47 4
  460.2 9.06 9
  460.3 15.23 15
  460.4 18.43 18
  460.5 16.43 16
  460.6 11.36 11
  460.7 7.01 7
  460.9 6.1 6
  461.0 8.22 8
  461.1 10.91 10
  461.2 12.93 12
  461.3 12.9 12
  461.4 10.19 10
  461.5 6.09 6
  461.7 2.6 2
  461.8 6.21 6
  461.9 11.61 11
  462.0 14.7 14
  462.1 12.79 12
  462.2 7.98 7
  462.4 6.71 6
  462.5 10.46 10
  462.6 12.96 12
  462.7 13.33 13
  462.8 12.99 12
  462.9 12.75 12
  463.0 11.59 11
  463.2 8.06 8
  463.3 10.56 10
  463.4 15.72 15
  463.5 19.22 19
  463.6 18.1 18
  463.7 13.88 13
  463.8 10.3 10
  464.4 7.76 7
  464.5 9.11 9
  464.6 11.25 11
  464.7 12.27 12
  464.8 11.39 11
  464.9 9.86 9
  465.0 9.23 9
  465.1 9.4 9
  465.2 8.94 8
  465.3 7.54 7
  465.5 6.08 6
  465.6 7.42 7
  465.7 9.59 9
  465.8 11.74 11
  465.9 13.33 13
  466.0 13.66 13
  466.1 12.12 12
  466.2 9.19 9
  466.4 6.99 6
  466.5 8.58 8
  466.6 9.83 9
  466.7 10.11 10
  466.8 9.96 9
  466.9 9.53 9
  467.0 8.38 8
  467.2 7.26 7
  467.3 8.69 8
  467.4 9.8 9
  467.7 7.16 7
  467.8 9.96 9
  467.9 14.64 14
  468.0 17.57 17
  468.1 16.19 16
  468.2 11.5 11
  468.3 6.77 6
  468.5 4.42 4
  468.6 5.88 5
  468.7 7.57 7
  468.8 9.06 9
  468.9 9.89 9
  469.0 9.14 9
  469.1 6.61 6
  469.3 3.92 3
  469.4 6.49 6
  469.5 10.1 10
  469.6 12.25 12
  469.7 11.67 11
  469.8 8.98 8
  469.9 6.32 6
  470.0 5.27 5
  470.1 5.33 5
  470.4 4.41 4
  470.5 6.65 6
  470.6 9.77 9
  470.7 11.42 11
  470.8 10.45 10
  470.9 7.71 7
  471.6 8.52 8
  471.7 9.41 9
  471.8 10.96 10
  471.9 11.53 11
  472.0 9.76 9
  472.1 6.3 6
  472.3 2.66 2
  472.4 6.24 6
  472.5 14.13 14
  472.6 21.76 21
  472.7 22.39 22
  472.8 14.98 14
  472.9 6.48 6
  473.5 5.73 5
  473.6 7.89 7
  473.7 9.57 9
  473.8 9.21 9
  474.1 7.07 7
  474.2 8.22 8
  474.3 9.38 9
  474.4 10.01 9
  474.5 10.26 10
  474.6 10.61 10
  474.7 10.92 10
  474.8 10.55 10
  474.9 9.2 9
  475.0 7.54 7
  475.8 5.45 5
  475.9 7.52 7
  476.0 10.61 10
  476.1 12.35 12
  476.2 11.59 11
  476.3 9.24 9
  476.4 6.91 6
  476.9 5.3 5
  477.0 6.07 6
  477.1 7.53 7
  477.2 8.17 8
  477.3 7.63 7
  477.4 7.17 7
  477.5 8.1 8
  477.6 10.3 10
  477.7 12.36 12
  477.8 12.9 12
  477.9 11.77 11
  478.0 9.73 9
  478.3 6.48 6
  478.4 9.81 9
  478.5 13.9 13
  478.6 15.87 15
  478.7 15.29 15
  479.6 7.16 7
  479.7 8.66 8
  479.8 9.59 9
  479.9 9.35 9
  481.4 8.21 8
  481.5 9.49 9
  481.6 10.87 10
  481.7 11.14 11
  481.8 9.59 9
  483.0 7.93 7
  483.1 8.86 8
  483.2 8.94 8
  483.3 8.71 8
  483.4 9.38 9
  483.5 10.36 10
  483.6 10.12 10
  483.7 8.54 8
  485.5 3.31 3
  485.6 5.64 5
  485.7 8.86 8
  485.8 11.18 11
  485.9 11.85 11
  486.0 10.96 10
  486.1 8.78 8
  487.0 4.21 4
  487.1 6.09 6
  487.2 7.79 7
  487.3 8.25 8
  487.4 7.34 7
  487.5 5.86 5
  487.7 4.53 4
  487.8 5.98 5
  487.9 8.42 8
  488.0 10.18 10
  488.1 9.98 9
  488.2 8.04 8
  488.5 5.51 5
  488.6 6.88 6
  488.7 7.91 7
  488.8 8.15 8
  488.9 7.86 7
  489.0 7.2 7
  489.8 2.53 2
  489.9 4.7 4
  490.0 7.08 7
  490.1 7.82 7
  490.2 6.9 6
  490.4 5.17 5
  490.5 6.38 6
  490.6 8.9 8
  490.7 11.14 11
  490.8 10.68 10
  490.9 7.03 7
  491.1 2.3 2
  491.2 5.75 5
  491.3 10.15 10
  491.4 11.74 11
  491.5 10.07 10
  492.3 5.61 5
  492.4 7.41 7
  492.5 8.2 8
  492.6 7.76 7
  492.9 6.22 6
  493.0 7.71 7
  493.1 9.35 9
  493.4 7.0 6
  493.5 9.6 9
  493.6 13.49 13
  493.7 15.35 15
  493.8 14.48 14
  493.9 12.48 12
  494.0 10.63 10
  494.2 8.49 8
  494.3 9.69 9
  494.4 12.06 12
  494.5 13.36 13
  494.6 12.23 12
  494.7 10.01 9
  494.8 8.49 8
  495.7 7.4 7
  495.8 8.2 8
  495.9 9.08 9
  496.0 9.48 9
  496.1 8.62 8
  496.2 6.72 6
  496.4 5.64 5
  496.5 7.64 7
  496.6 10.05 10
  496.7 11.65 11
  496.8 12.1 12
  496.9 11.72 11
  497.0 10.93 10
  497.1 9.29 9
  497.2 6.48 6
  497.4 3.38 3
  497.5 5.65 5
  497.6 9.04 9
  497.7 11.77 11
  497.8 13.1 13
  497.9 13.0 12
  498.0 11.81 11
  498.1 10.35 10
  499.7 5.32 5
  499.8 6.21 6
  499.9 7.49 7
  500.0 8.26 8
  500.1 7.82 7
  500.2 6.44 6
  500.5 4.72 4
  500.6 6.04 6
  500.7 6.96 6
  500.8 6.72 6
  500.9 6.1 6
  501.0 6.49 6
  501.1 7.79 7
  501.2 8.49 8
  501.3 7.49 7
  501.6 4.61 4
  501.7 6.87 6
  501.8 8.81 8
  501.9 8.85 8
  502.0 7.0 6
  502.2 4.44 4
  502.3 6.84 6
  502.4 10.36 10
  502.5 11.94 11
  502.6 10.01 9
  502.7 5.98 5
  502.8 2.69 2
  503.0 2.82 2
  503.1 4.5 4
  503.2 6.32 6
  503.3 7.87 7
  503.4 8.26 8
  503.8 7.3 7
  503.9 7.99 7
  504.0 8.74 8
  504.1 9.6 9
  504.2 9.96 9
  504.3 9.08 9
  504.4 7.26 7
  504.6 6.19 6
  504.7 7.66 7
  504.8 8.9 8
  504.9 9.06 9
  505.0 8.51 8
  505.1 8.08 8
  505.2 8.19 8
  505.3 8.6 8
  505.4 8.97 8
  505.5 9.48 9
  505.6 10.26 10
  505.7 10.84 10
  505.8 10.51 10
  505.9 9.31 9
  506.0 7.82 7
  506.3 7.2 7
  506.4 8.69 8
  506.5 9.7 9
  506.6 9.46 9
  506.7 8.27 8
  506.8 6.85 6
  507.8 6.89 6
  507.9 7.71 7
  508.0 8.26 8
  508.1 7.82 7
  508.2 7.28 7
  508.3 7.39 7
  508.4 7.47 7
  508.7 6.1 6
  508.8 7.11 7
  508.9 8.72 8
  509.0 9.9 9
  509.1 10.03 10
  509.2 9.61 9
  509.3 9.81 9
  509.4 10.98 10
  509.5 12.69 12
  509.6 14.15 14
  509.7 15.0 14
  509.8 15.24 15
  509.9 15.05 15
  510.0 14.19 14
  510.1 12.46 12
  510.2 10.19 10
  510.3 7.98 7
  510.5 6.19 6
  510.6 7.18 7
  510.7 9.19 9
  510.8 11.38 11
  510.9 12.52 12
  511.0 11.82 11
  511.1 9.87 9
  511.4 8.22 8
  511.5 8.56 8
  511.6 9.47 9
  511.7 11.15 11
  511.8 13.0 12
  511.9 13.86 13
  512.0 12.74 12
  512.1 9.49 9
  512.3 5.35 5
  512.4 8.16 8
  512.5 11.99 11
  512.6 13.85 13
  512.7 13.59 13
  512.8 13.48 13
  512.9 14.84 14
  513.0 16.35 16
  513.1 15.89 15
  513.2 13.4 13
  513.3 11.09 11
  513.4 10.49 10
  513.5 10.64 10
  513.6 10.06 10
  513.7 8.84 8
  513.8 7.94 7
  513.9 7.4 7
  514.2 6.78 6
  514.3 8.61 8
  514.4 10.22 10
  514.5 10.76 10
  514.6 10.51 10
  514.7 9.71 9
  515.0 8.14 8
  515.1 9.24 9
  515.2 10.62 10
  515.3 11.48 11
  515.4 11.55 11
  515.5 10.91 10
  515.6 9.75 9
  515.7 8.12 8
  515.9 6.34 6
  516.0 8.2 8
  516.1 10.61 10
  516.2 11.45 11
  516.3 10.61 10
  516.4 9.42 9
  517.2 4.36 4
  517.3 7.91 7
  517.4 11.72 11
  517.5 12.94 12
  517.6 10.89 10
  517.7 7.2 7
  518.0 4.59 4
  518.1 6.07 6
  518.2 7.25 7
  518.3 8.55 8
  518.4 10.3 10
  518.5 11.66 11
  518.6 11.41 11
  518.7 9.58 9
  518.8 7.53 7
  519.1 7.28 7
  519.2 8.25 8
  519.3 9.23 9
  519.4 10.21 10
  519.5 11.07 11
  519.6 11.37 11
  519.7 10.39 10
  519.8 7.88 7
  520.1 5.99 5
  520.2 8.51 8
  520.3 9.86 9
  520.4 9.82 9
  520.5 9.7 9
  520.6 10.3 10
  520.7 11.13 11
  520.8 11.36 11
  520.9 10.62 10
  521.0 9.11 9
  521.1 7.1 7
  521.4 5.3 5
  521.5 6.51 6
  521.6 7.01 7
  521.7 6.55 6
  521.8 6.08 6
  521.9 6.47 6
  522.0 7.43 7
  522.1 8.05 8
  522.2 8.05 8
  522.3 7.77 7
  522.4 7.39 7
  522.5 7.06 7
  522.6 7.25 7
  522.7 8.17 8
  522.8 9.08 9
  522.9 9.2 9
  523.0 8.32 8
  523.1 6.93 6
  523.3 6.05 6
  523.4 7.16 7
  523.5 8.51 8
  523.6 9.46 9
  523.7 10.07 10
  523.8 10.7 10
  523.9 11.3 11
  524.0 11.04 11
  524.1 9.41 9
  524.2 7.08 7
  524.4 5.59 5
  524.5 7.52 7
  524.6 10.09 10
  524.7 11.61 11
  524.8 11.77 11
  524.9 12.0 11
  525.0 13.51 13
  525.1 15.85 15
  525.2 17.77 17
  525.3 18.39 18
  525.4 17.05 17
  525.5 13.79 13
  525.6 10.01 9
  525.7 7.53 7
  526.1 8.22 8
  526.2 8.42 8
  526.3 8.98 8
  526.4 10.32 10
  526.5 12.31 12
  526.6 14.31 14
  526.7 15.35 15
  526.8 14.35 14
  526.9 11.32 11
  527.0 7.66 7
  527.2 5.55 5
  527.3 7.19 7
  527.4 8.89 8
  527.5 9.69 9
  527.6 9.41 9
  527.7 8.51 8
  528.0 7.58 7
  528.1 9.2 9
  528.2 10.87 10
  528.3 11.25 11
  528.4 9.67 9
  528.7 7.06 7
  528.8 10.06 10
  528.9 12.52 12
  529.0 13.72 13
  529.1 14.46 14
  529.2 14.66 14
  529.3 13.09 13
  529.4 9.55 9
  529.5 5.71 5
  529.7 3.96 3
  529.8 6.36 6
  529.9 9.81 9
  530.0 12.11 12
  530.1 11.53 11
  530.2 9.03 9
  530.3 7.43 7
  530.4 7.58 7
  530.7 5.9 5
  530.8 7.42 7
  530.9 10.0 9
  531.0 11.19 11
  531.1 10.04 10
  531.2 8.1 8
  531.3 7.31 7
  531.4 7.33 7
  531.5 6.1 6
  531.7 2.43 2
  531.8 4.64 4
  531.9 8.92 8
  532.0 12.29 12
  532.1 13.16 13
  532.2 11.94 11
  532.3 10.09 10
  532.4 8.85 8
  532.5 8.52 8
  532.6 7.92 7
  532.9 5.01 5
  533.0 8.28 8
  533.1 11.79 11
  533.2 12.81 12
  533.3 10.42 10
  533.4 6.22 6
  533.6 2.87 2
  533.7 5.52 5
  533.8 8.89 8
  533.9 10.95 10
  534.0 10.89 10
  534.1 9.09 9
  534.3 6.77 6
  534.4 9.15 9
  534.5 11.7 11
  534.6 11.15 11
  534.7 7.93 7
  534.9 5.82 5
  535.0 7.45 7
  535.1 8.35 8
  535.2 8.42 8
  535.3 8.39 8
  535.4 8.42 8
  535.5 8.23 8
  535.6 7.82 7
  535.7 7.47 7
  535.8 7.17 7
  535.9 6.54 6
  536.2 5.42 5
  536.3 7.51 7
  536.4 9.57 9
  536.5 10.29 10
  536.6 9.76 9
  536.7 9.13 9
  536.8 9.11 9
  536.9 9.25 9
  537.0 9.32 9
  537.1 9.19 9
  537.2 8.56 8
  537.3 7.13 7
  537.6 5.48 5
  537.7 8.22 8
  537.8 10.96 10
  537.9 12.14 12
  538.0 11.45 11
  538.1 9.48 9
  538.2 6.91 6
  538.3 4.23 4
  538.5 2.26 2
  538.6 4.36 4
  538.7 7.42 7
  538.8 9.65 9
  538.9 10.24 10
  539.0 9.72 9
  539.1 8.9 8
  539.4 7.95 7
  539.5 9.34 9
  539.6 11.2 11
  539.7 11.62 11
  539.8 10.16 10
  540.3 8.32 8
  540.4 9.92 9
  540.5 14.2 14
  540.6 17.99 17
  540.7 18.11 18
  540.8 15.14 15
  540.9 12.02 12
  541.0 10.53 10
  541.1 10.17 10
  541.2 9.89 9
  541.3 9.31 9
  541.6 7.98 7
  541.7 9.03 9
  541.8 9.92 9
  541.9 10.24 10
  542.0 10.59 10
  542.1 11.21 11
  542.2 11.38 11
  542.3 10.49 10
  542.4 8.91 8
  542.6 8.12 8
  542.7 9.43 9
  542.8 10.26 10
  542.9 9.94 9
  543.0 9.42 9
  543.1 10.09 10
  543.2 11.71 11
  543.3 12.69 12
  543.4 12.34 12
  543.5 11.27 11
  543.6 10.1 10
  543.9 7.77 7
  544.0 9.65 9
  544.1 12.16 12
  544.2 13.43 13
  544.3 12.28 12
  544.4 9.29 9
  545.1 7.54 7
  545.2 10.18 10
  545.3 11.72 11
  545.4 10.92 10
  545.5 8.74 8
  545.8 7.12 7
  545.9 8.26 8
  546.0 9.12 9
  546.1 9.47 9
  546.2 9.48 9
  546.3 9.15 9
  547.2 6.03 6
  547.3 7.81 7
  547.4 11.33 11
  547.5 14.23 14
  547.6 14.4 14
  547.7 11.73 11
  547.8 7.97 7
  548.1 5.39 5
  548.2 7.6 7
  548.3 9.4 9
  548.4 9.64 9
  548.7 8.65 8
  548.8 9.78 9
  548.9 10.29 10
  549.0 10.0 9
  549.1 9.86 9
  549.2 10.06 10
  549.3 9.09 9
  549.4 6.04 6
  549.6 2.59 2
  549.7 5.41 5
  549.8 8.97 8
  549.9 11.09 11
  550.0 11.53 11
  550.1 10.49 10
  550.4 7.22 7
  550.5 10.95 10
  550.6 14.49 14
  550.7 14.25 14
  550.8 10.09 10
  551.7 6.27 6
  551.8 7.41 7
  551.9 8.42 8
  552.0 8.03 8
  552.1 6.02 6
  552.2 3.27 3
  552.4 0.48 0
  552.5 3.11 3
  552.6 8.33 8
  552.7 13.22 13
  552.8 14.86 14
  552.9 12.99 12
  553.0 9.57 9
  553.1 6.28 6
  553.3 4.26 4
  553.4 6.47 6
  553.5 8.97 8
  553.6 9.49 9
  553.7 7.87 7
  554.5 5.57 5
  554.6 7.24 7
  554.7 9.17 9
  554.8 9.82 9
  554.9 8.72 8
  555.2 6.25 6
  555.3 8.1 8
  555.4 9.77 9
  555.5 9.63 9
  555.6 7.34 7
  555.8 4.04 4
  555.9 7.56 7
  556.0 12.96 12
  556.1 16.22 16
  556.2 15.67 15
  556.3 13.52 13
  557.4 8.65 8
  557.5 9.23 9
  557.6 11.59 11
  557.7 13.69 13
  557.8 13.68 13
  557.9 11.73 11
  558.0 9.2 9
  558.7 7.56 7
  558.8 9.86 9
  558.9 11.36 11
  559.0 10.51 10
  560.0 6.95 6
  560.1 8.28 8
  560.2 9.54 9
  560.3 9.5 9
  560.4 8.2 8
  560.7 7.54 7
  560.8 8.95 8
  560.9 10.42 10
  561.0 10.84 10
  561.1 9.37 9
  561.2 6.8 6
  561.4 5.78 5
  561.5 7.0 6
  561.6 7.62 7
  561.7 7.69 7
  561.8 7.68 7
  561.9 7.22 7
  562.0 5.97 5
  562.1 4.46 4
  562.4 2.63 2
  562.5 4.87 4
  562.6 8.08 8
  562.7 10.15 10
  562.8 10.33 10
  562.9 9.66 9
  563.0 9.08 9
  563.1 8.17 8
  563.9 6.67 6
  564.0 9.23 9
  564.1 11.66 11
  564.2 11.72 11
  564.3 9.7 9
  564.4 7.65 7
  564.6 6.47 6
  564.7 7.36 7
  564.8 9.13 9
  564.9 10.76 10
  565.0 10.76 10
  565.1 8.88 8
  565.2 6.49 6
  565.4 5.76 5
  565.5 6.82 6
  565.6 7.29 7
  565.7 6.9 6
  565.8 6.03 6
  565.9 5.12 5
  566.2 4.31 4
  566.3 5.48 5
  566.4 6.96 6
  566.5 7.64 7
  566.6 7.17 7
  567.0 6.37 6
  567.1 6.89 6
  567.2 8.69 8
  567.3 10.62 10
  567.4 10.79 10
  567.5 8.75 8
  567.6 5.96 5
  567.9 4.4 4
  568.0 5.71 5
  568.1 7.05 7
  568.2 7.72 7
  568.3 7.41 7
  569.2 3.09 3
  569.3 6.21 6
  569.4 9.01 9
  569.5 9.06 9
  569.6 6.72 6
  570.2 3.84 3
  570.3 5.9 5
  570.4 9.3 9
  570.5 12.11 12
  570.6 12.9 12
  570.7 11.54 11
  571.0 10.27 10
  571.1 12.25 12
  571.2 13.85 13
  571.3 14.89 14
  571.4 15.1 15
  571.5 14.03 14
  572.3 10.06 10
  572.4 11.51 11
  572.5 12.53 12
  572.6 11.7 11
  572.7 9.64 9
  572.8 8.23 8
  572.9 8.31 8
  573.0 8.54 8
  573.1 7.76 7
  573.4 6.41 6
  573.5 8.34 8
  573.6 10.87 10
  573.7 12.68 12
  573.8 12.62 12
  573.9 10.76 10
  574.0 8.35 8
  574.2 7.39 7
  574.3 8.89 8
  574.4 9.95 9
  574.5 9.49 9
  574.8 7.41 7
  574.9 9.18 9
  575.0 11.35 11
  575.1 13.1 13
  575.2 13.34 13
  575.3 11.24 11
  575.4 7.71 7
  575.6 4.88 4
  575.7 6.59 6
  575.8 8.55 8
  575.9 9.73 9
  576.0 10.53 10
  576.1 11.33 11
  576.2 11.45 11
  576.3 10.33 10
  576.4 8.89 8
  576.5 8.2 8
  576.6 7.63 7
  576.7 6.31 6
  577.2 4.81 4
  577.3 5.61 5
  577.4 9.06 9
  577.5 12.7 12
  577.6 13.14 13
  577.7 10.16 10
  578.0 6.8 6
  578.1 9.0 8
  578.2 10.47 10
  578.3 10.64 10
  578.4 9.44 9
  578.5 7.53 7
  578.6 6.05 6
  579.8 2.17 2
  579.9 4.43 4
  580.0 9.15 9
  580.1 12.65 12
  580.2 13.16 13
  580.3 11.65 11
  580.4 9.55 9
  580.7 8.32 8
  580.8 10.19 10
  580.9 11.39 11
  581.0 10.78 10
  581.7 7.12 7
  581.8 9.02 9
  581.9 11.15 11
  582.0 10.99 10
  582.1 8.05 8
  582.4 4.48 4
  582.5 7.86 7
  582.6 10.76 10
  582.7 12.05 12
  582.8 11.2 11
  582.9 8.44 8
  583.2 6.36 6
  583.3 9.01 9
  583.4 10.4 10
  583.5 10.18 10
  583.6 9.32 9
  585.4 6.05 6
  585.5 6.49 6
  585.6 6.84 6
  585.7 7.64 7
  585.8 9.4 9
  585.9 11.71 11
  586.0 13.57 13
  586.1 14.29 14
  586.2 13.63 13
  586.3 11.51 11
  586.4 8.45 8
  586.6 6.49 6
  586.7 9.17 9
  586.8 11.73 11
  586.9 12.66 12
  587.0 12.64 12
  587.1 12.8 12
  587.2 12.85 12
  587.3 11.71 11
  587.6 9.15 9
  587.7 11.89 11
  587.8 14.65 14
  587.9 15.75 15
  588.0 14.67 14
  588.1 12.2 12
  588.2 10.0 9
  588.3 9.17 9
  588.4 9.23 9
  588.5 9.09 9
  588.8 7.62 7
  588.9 8.66 8
  589.0 10.39 10
  589.1 11.53 11
  589.2 11.47 11
  589.3 11.24 11
  589.4 11.55 11
  589.5 11.22 11
  589.6 9.35 9
  590.3 5.21 5
  590.4 7.94 7
  590.5 11.79 11
  590.6 13.63 13
  590.7 11.73 11
  590.8 7.93 7
  591.0 6.59 6
  591.1 8.8 8
  591.2 10.05 10
  591.3 10.01 9
  591.4 9.78 9
  591.5 9.94 9
  591.6 10.05 10
  591.7 9.88 9
  591.8 9.49 9
  591.9 8.67 8
  592.0 7.03 7
  592.2 5.21 5
  592.3 6.96 6
  592.4 9.6 9
  592.5 11.67 11
  592.6 12.64 12
  592.7 12.91 12
  592.8 12.81 12
  592.9 12.05 12
  593.0 10.3 10
  593.1 8.04 8
  593.7 2.4 2
  593.8 4.12 4
  593.9 8.71 8
  594.0 12.28 12
  594.1 12.7 12
  594.2 11.41 11
  594.3 10.4 10
  594.4 9.77 9
  595.2 6.7 6
  595.3 8.4 8
  595.4 10.1 10
  595.5 9.24 9
  595.6 6.25 6
  596.2 2.83 2
  596.3 5.24 5
  596.4 8.29 8
  596.5 10.03 10
  596.6 10.59 10
  596.7 10.57 10
  596.8 9.57 9
  596.9 6.95 6
  597.2 2.86 2
  597.3 6.53 6
  597.4 9.78 9
  597.5 10.21 10
  597.6 7.86 7
  597.8 4.99 4
  597.9 6.95 6
  598.0 9.17 9
  598.1 10.06 10
  598.2 9.9 9
  598.3 9.66 9
  598.4 9.06 9
  598.5 7.39 7
  598.6 5.4 5
  598.9 5.42 5
  599.0 6.01 6
  599.1 6.74 6
  599.2 7.72 7
  599.3 8.21 8
  599.4 7.63 7
  599.7 7.18 7
  599.8 8.0 7
  599.9 8.67 8
  600.0 9.66 9
  600.1 10.58 10
  600.2 10.09 10
  600.3 7.6 7
  600.5 4.86 4
  600.6 8.02 8
  600.7 12.02 12
  600.8 13.71 13
  600.9 12.36 12
  601.0 9.31 9
  601.1 6.2 6
  601.3 3.29 3
  601.4 5.29 5
  601.5 9.31 9
  601.6 13.21 13
  601.7 14.78 14
  601.8 13.83 13
  601.9 11.64 11
  602.0 9.43 9
  602.3 7.19 7
  602.4 8.79 8
  602.5 11.44 11
  602.6 14.53 14
  602.7 16.91 16
  602.8 17.19 17
  602.9 15.1 15
  603.0 12.18 12
  603.2 11.1 11
  603.3 12.57 12
  603.4 13.57 13
  603.5 13.49 13
  603.6 12.5 12
  603.7 11.26 11
  603.8 10.39 10
  603.9 9.82 9
  604.0 8.74 8
  604.3 7.07 7
  604.4 9.14 9
  604.5 10.96 10
  604.6 12.0 11
  604.7 11.87 11
  604.8 9.83 9
  605.1 5.35 5
  605.2 9.32 9
  605.3 12.36 12
  605.4 12.07 12
  605.5 9.19 9
  605.6 6.24 6
  605.8 4.79 4
  605.9 6.34 6
  606.0 8.67 8
  606.1 10.86 10
  606.2 12.19 12
  606.3 12.31 12
  606.4 10.73 10
  606.5 7.53 7
  606.8 4.27 4
  606.9 7.54 7
  607.0 10.66 10
  607.1 11.89 11
  607.2 10.97 10
  607.3 9.17 9
  607.6 8.37 8
  607.7 9.44 9
  607.8 10.53 10
  607.9 11.02 11
  608.0 10.57 10
  608.1 10.0 9
  608.2 10.42 10
  608.3 11.45 11
  608.4 11.7 11
  608.5 10.38 10
  608.6 8.52 8
  608.9 7.07 7
  609.0 7.35 7
  609.1 8.86 8
  609.2 11.68 11
  609.3 14.55 14
  609.4 15.28 15
  609.5 12.85 12
  609.6 8.8 8
  609.8 7.71 7
  609.9 10.46 10
  610.0 12.08 12
  610.1 11.83 11
  610.2 10.64 10
  610.3 9.14 9
  610.5 7.16 7
  610.6 8.42 8
  610.7 10.61 10
  610.8 11.59 11
  610.9 10.32 10
  611.0 7.89 7
  611.4 6.7 6
  611.5 7.13 7
  611.6 8.15 8
  611.7 9.59 9
  611.8 10.79 10
  611.9 11.37 11
  612.0 11.24 11
  612.1 10.45 10
  612.2 9.2 9
  612.3 7.97 7
  612.4 6.93 6
  613.8 6.5 6
  613.9 7.91 7
  614.0 8.88 8
  614.1 8.52 8
  614.2 6.85 6
  614.3 4.73 4
  614.5 2.63 2
  614.6 3.71 3
  614.7 6.25 6
  614.8 9.35 9
  614.9 11.9 11
  615.0 13.15 13
  615.1 12.87 12
  615.2 11.35 11
  615.3 9.25 9
  615.6 6.8 6
  615.7 9.13 9
  615.8 10.46 10
  615.9 9.2 9
  616.2 7.99 7
  616.3 9.78 9
  616.4 11.62 11
  616.5 13.0 12
  616.6 12.54 12
  616.7 9.88 9
  616.9 6.99 6
  617.0 9.6 9
  617.1 12.79 12
  617.2 13.97 13
  617.3 12.33 12
  617.4 9.14 9
  617.7 7.26 7
  617.8 9.17 9
  617.9 10.42 10
  618.0 10.46 10
  618.1 9.2 9
  618.3 6.7 6
  618.4 9.3 9
  618.5 13.78 13
  618.6 16.24 16
  618.7 14.97 14
  618.8 12.34 12
  619.5 10.23 10
  619.6 10.99 10
  619.7 12.43 12
  619.8 13.51 13
  619.9 13.45 13
  620.0 12.28 12
  620.1 10.35 10
  620.2 8.2 8
  620.4 6.87 6
  620.5 8.6 8
  620.6 10.45 10
  620.7 10.91 10
  620.8 10.21 10
  620.9 9.83 9
  621.0 10.39 10
  621.1 11.31 11
  621.2 11.45 11
  621.3 10.27 10
  621.4 7.94 7
  621.6 5.86 5
  621.7 7.56 7
  621.8 9.55 9
  621.9 10.8 10
  622.0 11.3 11
  622.1 11.19 11
  622.2 10.98 10
  622.3 11.67 11
  622.4 13.39 13
  622.5 14.53 14
  622.6 13.94 13
  622.7 12.56 12
  622.8 11.95 11
  622.9 11.89 11
  623.0 11.05 11
  623.1 8.9 8
  623.2 6.16 6
  623.4 4.24 4
  623.5 6.53 6
  623.6 9.94 9
  623.7 12.34 12
  623.8 12.11 12
  623.9 9.7 9
  624.0 7.16 7
  624.9 7.71 7
  625.0 8.26 8
  625.1 8.74 8
  625.2 8.92 8
  625.3 9.17 9
  625.4 9.63 9
  625.5 10.13 10
  625.6 11.08 11
  625.7 12.68 12
  625.8 13.56 13
  625.9 12.05 12
  626.0 9.04 9
  626.1 7.2 7
  626.2 7.41 7
  626.3 7.72 7
  626.4 6.11 6
  626.7 2.65 2
  626.8 7.42 7
  626.9 11.55 11
  627.0 11.71 11
  627.1 8.54 8
  627.9 6.83 6
  628.0 7.77 7
  628.1 9.02 9
  628.2 8.9 8
  628.3 6.79 6
  628.6 4.61 4
  628.7 5.5 5
  628.8 5.85 5
  628.9 6.31 6
  629.0 7.28 7
  629.1 8.22 8
  629.2 8.85 8
  629.3 9.34 9
  629.4 9.63 9
  629.5 9.32 9
  629.6 8.34 8
  630.2 6.84 6
  630.3 8.0 7
  630.4 9.57 9
  630.5 10.16 10
  630.6 9.32 9
  630.7 7.85 7
  630.8 6.61 6
  631.1 5.9 5
  631.2 7.76 7
  631.3 9.99 9
  631.4 10.79 10
  631.5 9.19 9
  631.6 6.1 6
  631.8 2.91 2
  631.9 4.6 4
  632.0 7.33 7
  632.1 8.77 8
  632.2 7.42 7
  632.3 4.13 4
  632.5 2.32 2
  632.6 6.27 6
  632.7 11.21 11
  632.8 14.29 14
  632.9 14.2 14
  633.0 12.41 12
  633.1 11.28 11
  633.2 11.05 11
  633.3 10.09 10
  633.6 8.11 8
  633.7 10.34 10
  633.8 12.06 12
  633.9 13.22 13
  634.0 14.02 14
  634.1 13.91 13
  634.2 12.57 12
  634.3 10.85 10
  634.4 9.81 9
  634.5 9.53 9
  634.8 8.33 8
  634.9 9.88 9
  635.0 12.3 12
  635.1 13.36 13
  635.2 11.9 11
  635.3 9.32 9
  635.4 7.66 7
  635.7 7.12 7
  635.8 7.87 7
  635.9 9.52 9
  636.0 10.38 10
  636.3 8.05 8
  636.4 10.21 10
  636.5 11.68 11
  636.6 11.08 11
  637.5 4.72 4
  637.6 7.53 7
  637.7 10.17 10
  637.8 11.43 11
  637.9 11.14 11
  638.0 10.13 10
  638.1 9.57 9
  638.2 9.73 9
  638.3 9.66 9
  638.4 8.52 8
  639.1 5.59 5
  639.2 7.88 7
  639.3 9.83 9
  639.4 9.81 9
  639.7 7.0 6
  639.8 10.21 10
  639.9 13.54 13
  640.0 14.32 14
  640.1 11.95 11
  640.2 8.11 8
  640.4 5.59 5
  640.5 7.64 7
  640.6 9.86 9
  640.7 11.07 11
  640.8 11.03 11
  640.9 9.59 9
  641.0 6.79 6
  641.1 3.69 3
  641.4 3.16 3
  641.5 4.47 4
  641.6 6.42 6
  641.7 8.38 8
  641.8 8.71 8
  641.9 7.05 7
  642.2 5.24 5
  642.3 6.91 6
  642.4 8.71 8
  642.5 9.53 9
  642.6 8.5 8
  642.9 7.1 7
  643.0 9.5 9
  643.1 11.48 11
  643.2 12.29 12
  643.3 11.83 11
  643.4 10.1 10
  643.5 7.81 7
  644.1 6.48 6
  644.2 6.68 6
  644.3 8.05 8
  644.4 10.07 10
  644.5 11.39 11
  644.6 11.04 11
  644.7 9.11 9
  644.8 6.55 6
  645.0 4.65 4
  645.1 6.37 6
  645.2 8.08 8
  645.3 7.68 7
  645.4 5.39 5
  645.6 3.51 3
  645.7 5.35 5
  645.8 6.8 6
  645.9 6.51 6
  646.0 5.41 5
  646.1 5.63 5
  646.2 7.59 7
  646.3 9.57 9
  646.4 10.18 10
  646.5 9.69 9
  646.6 8.81 8
  646.7 7.46 7
  646.8 5.55 5
  647.0 3.6 3
  647.1 5.05 5
  647.2 6.9 6
  647.3 7.64 7
  647.4 7.51 7
  647.5 7.92 7
  647.6 8.98 8
  647.7 8.84 8
  647.8 6.37 6
  647.9 3.03 3
  648.1 2.49 2
  648.2 4.89 4
  648.3 6.87 6
  648.4 7.99 7
  648.5 9.01 9
  648.6 10.29 10
  648.7 11.04 11
  648.8 10.3 10
  648.9 8.48 8
  649.1 7.2 7
  649.2 9.04 9
  649.3 11.66 11
  649.4 13.73 13
  649.5 14.11 14
  650.8 6.11 6
  650.9 7.39 7
  651.0 8.39 8
  651.1 8.9 8
  651.2 8.73 8
  651.3 7.86 7
  652.1 4.63 4
  652.2 5.96 5
  652.3 7.31 7
  652.4 8.33 8
  652.5 9.17 9
  652.6 9.36 9
  652.7 8.55 8
  652.8 7.87 7
  652.9 8.57 8
  653.0 10.15 10
  653.1 11.05 11
  653.2 11.14 11
  653.3 11.47 11
  653.4 12.19 12
  653.5 12.11 12
  653.6 10.24 10
  653.8 6.99 6
  653.9 8.9 8
  654.0 11.59 11
  654.1 12.56 12
  654.2 11.36 11
  654.3 9.15 9
  654.4 6.89 6
  654.7 4.75 4
  654.8 6.68 6
  654.9 8.34 8
  655.0 9.2 9
  655.1 9.7 9
  655.2 9.67 9
  656.5 4.33 4
  656.6 6.72 6
  656.7 8.92 8
  656.8 8.94 8
  656.9 7.35 7
  657.0 5.85 5
  657.3 5.12 5
  657.4 6.22 6
  657.5 7.2 7
  657.6 7.42 7
  657.7 7.19 7
  657.8 7.26 7
  657.9 8.11 8
  658.0 8.9 8
  658.1 8.27 8
  658.2 6.16 6
  658.5 4.53 4
  658.6 6.13 6
  658.7 7.76 7
  658.8 9.01 9
  658.9 9.42 9
  659.0 8.85 8
  659.1 7.7 7
  659.2 6.62 6
  659.3 5.63 5
  659.4 4.29 4
  659.7 2.03 2
  659.8 4.58 4
  659.9 8.31 8
  660.0 11.02 11
  660.1 10.76 10
  660.2 7.89 7
  660.4 3.84 3
  660.5 6.14 6
  660.6 10.16 10
  660.7 13.06 13
  660.8 13.27 13
  660.9 11.38 11
  661.0 8.96 8
  661.1 7.05 7
  661.5 5.95 5
  661.6 6.13 6
  661.7 7.35 7
  661.8 9.07 9
  661.9 9.4 9
  662.0 7.36 7
  662.1 4.41 4
  662.3 4.09 4
  662.4 6.09 6
  662.5 7.99 7
  662.6 9.7 9
  662.7 10.84 10
  662.8 10.41 10
  662.9 8.2 8
  663.2 5.3 5
  663.3 8.08 8
  663.4 11.03 11
  663.5 12.6 12
  663.6 12.02 12
  663.7 10.17 10
  664.3 7.01 7
  664.4 9.15 9
  664.5 11.77 11
  664.6 12.82 12
  664.7 12.39 12
  664.8 11.87 11
  664.9 11.89 11
  665.0 11.97 11
  665.1 11.65 11
  665.2 11.12 11
  665.3 10.41 10
  665.4 9.27 9
  665.6 7.13 7
  665.7 8.29 8
  665.8 11.07 11
  665.9 13.39 13
  666.0 13.13 13
  666.1 10.62 10
  666.3 8.51 8
  666.4 10.92 10
  666.5 13.56 13
  666.6 14.2 14
  666.7 12.45 12
  666.8 9.69 9
  667.1 7.24 7
  667.2 8.62 8
  667.3 9.93 9
  667.4 10.34 10
  667.5 9.71 9
  667.6 8.48 8
  667.8 7.11 7
  667.9 8.91 8
  668.0 11.97 11
  668.1 14.29 14
  668.2 14.14 14
  668.3 12.04 12
  668.6 10.42 10
  668.7 11.03 11
  668.8 11.58 11
  668.9 12.92 12
  669.0 14.59 14
  669.1 15.12 15
  669.2 13.65 13
  669.3 10.84 10
  669.6 8.35 8
  669.7 10.04 10
  669.8 10.91 10
  669.9 10.29 10
  670.0 8.46 8
  670.2 6.53 6
  670.3 8.22 8
  670.4 10.07 10
  670.5 9.96 9
  670.6 7.87 7
  670.8 5.96 5
  670.9 7.69 7
  671.0 9.65 9
  671.1 10.59 10
  671.2 10.1 10
  671.3 8.8 8
  671.5 7.93 7
  671.6 9.12 9
  671.7 10.35 10
  671.8 10.47 10
  671.9 9.48 9
  672.0 8.44 8
  672.1 7.98 7
  672.2 7.81 7
  672.3 7.58 7
  672.4 6.87 6
  672.7 5.32 5
  672.8 8.1 8
  672.9 9.86 9
  673.0 8.62 8
  673.1 5.16 5
  673.3 0.96 0
  673.4 3.35 3
  673.5 7.63 7
  673.6 10.76 10
  673.7 11.45 11
  673.8 11.43 11
  673.9 12.29 12
  674.0 12.66 12
  674.1 10.36 10
  674.2 6.28 6
  674.4 5.23 5
  674.5 8.65 8
  674.6 11.55 11
  674.7 12.04 12
  674.8 9.75 9
  675.1 6.37 6
  675.2 8.95 8
  675.3 9.94 9
  675.4 9.01 9
  675.5 7.99 7
  675.6 8.63 8
  675.7 10.4 10
  675.8 11.44 11
  675.9 11.08 11
  676.0 10.78 10
  676.1 11.33 11
  676.2 11.51 11
  676.3 10.15 10
  676.4 8.31 8
  677.1 6.88 6
  677.2 8.58 8
  677.3 10.78 10
  677.4 12.27 12
  677.5 12.51 12
  677.6 11.6 11
  677.7 10.04 10
  677.8 8.39 8
  677.9 7.52 7
  678.4 7.0 6
  678.5 8.32 8
  678.6 9.37 9
  678.7 9.36 9
  678.8 8.43 8
  679.9 8.46 8
  680.0 9.36 9
  680.1 11.82 11
  680.2 13.89 13
  680.3 14.21 14
  680.4 13.92 13
  680.5 14.23 14
  680.6 14.53 14
  680.7 13.82 13
  681.6 8.74 8
  681.7 11.79 11
  681.8 14.06 14
  681.9 13.82 13
  682.0 11.61 11
  682.1 9.48 9
  682.3 9.29 9
  682.4 9.95 9
  682.5 10.4 10
  682.6 10.67 10
  682.7 10.3 10
  682.8 9.04 9
  683.0 7.42 7
  683.1 8.58 8
  683.2 10.39 10
  683.3 11.95 11
  683.4 12.79 12
  683.5 12.77 12
  683.6 11.93 11
  683.7 10.38 10
  683.8 8.56 8
  684.0 7.59 7
  684.1 9.11 9
  684.2 10.79 10
  684.3 11.6 11
  684.4 11.16 11
  684.5 9.64 9
  684.8 7.03 7
  684.9 9.48 9
  685.0 11.55 11
  685.1 11.36 11
  685.2 8.66 8
  685.3 5.02 5
  685.5 2.02 2
  685.6 3.61 3
  685.7 5.98 5
  685.8 7.97 7
  685.9 8.98 8
  686.0 9.13 9
  686.1 8.81 8
  686.2 8.56 8
  686.3 8.46 8
  686.4 8.29 8
  686.5 7.7 7
  686.8 6.41 6
  686.9 7.54 7
  687.0 8.65 8
  687.1 8.66 8
  687.4 7.18 7
  687.5 8.86 8
  687.6 10.21 10
  687.7 9.81 9
  687.8 7.49 7
  688.0 4.24 4
  688.1 7.03 7
  688.2 11.19 11
  688.3 13.52 13
  688.4 12.69 12
  688.5 10.21 10
  688.6 8.1 8
  688.7 6.89 6
  689.0 3.92 3
  689.1 6.73 6
  689.2 11.22 11
  689.3 13.57 13
  689.4 11.49 11
  689.5 6.6 6
  689.7 3.49 3
  689.8 7.26 7
  689.9 10.91 10
  690.0 11.64 11
  690.1 9.4 9
  691.2 6.78 6
  691.3 7.8 7
  691.4 9.77 9
  691.5 11.41 11
  691.6 11.62 11
  691.7 10.11 10
  691.8 7.7 7
  692.5 6.28 6
  692.6 8.11 8
  692.7 9.3 9
  692.8 8.55 8
  692.9 6.5 6
  693.1 5.15 5
  693.2 6.59 6
  693.3 7.95 7
  693.4 8.25 8
  693.5 7.37 7
  693.6 5.75 5
  693.7 3.97 3
  693.9 2.82 2
  694.0 4.4 4
  694.1 6.79 6
  694.2 8.45 8
  694.3 8.38 8
  694.4 7.64 7
  694.5 8.11 8
  694.6 9.93 9
  694.7 11.2 11
  694.8 10.87 10
  694.9 9.65 9
  695.7 3.26 3
  695.8 7.06 7
  695.9 11.43 11
  696.0 13.34 13
  696.1 13.1 13
  696.2 13.61 13
  696.3 16.31 16
  696.4 18.97 18
  696.5 18.69 18
  696.6 15.43 15
  696.7 11.82 11
  696.8 9.89 9
  696.9 9.13 9
  697.6 7.41 7
  697.7 8.65 8
  697.8 11.74 11
  697.9 14.12 14
  698.0 13.42 13
  698.1 10.07 10
  698.2 6.77 6
  698.6 7.29 7
  698.7 7.2 7
  698.8 8.09 8
  698.9 9.35 9
  699.0 9.81 9
  699.1 9.38 9
  699.2 9.25 9
  699.3 10.17 10
  699.4 11.76 11
  699.5 13.14 13
  699.6 13.6 13
  699.7 13.11 13
  699.8 12.27 12
  699.9 10.97 10
  700.0 8.72 8
  700.1 5.87 5
  700.4 5.55 5
  700.5 6.33 6
  700.6 6.68 6
  700.7 7.77 7
  700.8 10.09 10
  700.9 11.91 11
  701.0 11.33 11
  701.1 8.86 8
  701.8 7.02 7
  701.9 7.89 7
  702.0 8.4 8
  702.1 8.25 8
  702.2 7.64 7
  702.3 7.41 7
  702.4 8.46 8
  702.5 10.1 10
  702.6 10.47 10
  702.7 8.71 8
  702.8 6.19 6
  702.9 4.76 4
  703.3 4.02 4
  703.4 4.56 4
  703.5 6.05 6
  703.6 8.19 8
  703.7 10.44 10
  703.8 11.78 11
  703.9 11.02 11
  704.0 8.8 8
  704.1 7.01 7
  704.2 6.24 6
  704.3 5.3 5
  704.5 2.99 2
  704.6 4.87 4
  704.7 8.5 8
  704.8 11.55 11
  704.9 12.5 12
  705.0 11.53 11
  705.1 10.05 10
  705.2 9.34 9
  706.0 4.73 4
  706.1 7.43 7
  706.2 10.33 10
  706.3 10.49 10
  706.8 9.18 9
  706.9 9.5 9
  707.0 10.4 10
  707.1 10.29 10
  707.2 8.63 8
  707.4 7.13 7
  707.5 8.91 8
  707.6 10.51 10
  707.7 10.59 10
  707.8 9.84 9
  707.9 9.73 9
  708.0 10.1 10
  708.1 9.31 9
  708.2 7.05 7
  708.4 5.48 5
  708.5 8.02 8
  708.6 10.3 10
  708.7 10.05 10
  708.8 6.87 6
  709.0 1.57 1
  709.1 3.71 3
  709.2 7.99 7
  709.3 11.65 11
  709.4 12.52 12
  709.5 10.53 10
  709.6 7.93 7
  710.0 6.55 6
  710.1 7.11 7
  710.2 10.56 10
  710.3 14.09 14
  710.4 14.23 14
  710.5 11.1 11
  710.6 8.14 8
  710.8 8.8 8
  710.9 9.13 9
  711.0 8.85 8
  711.1 9.76 9
  711.2 12.13 12
  711.3 13.84 13
  711.4 13.4 13
  711.5 11.24 11
  711.7 8.51 8
  711.8 10.34 10
  711.9 13.25 13
  712.0 15.28 15
  712.1 15.35 15
  712.2 13.89 13
  712.3 12.04 12
  714.0 9.93 9
  714.1 10.51 10
  714.2 11.38 11
  714.3 11.48 11
  714.4 9.99 9
  714.5 7.53 7
  714.7 5.74 5
  714.8 7.19 7
  714.9 9.43 9
  715.0 11.81 11
  715.1 13.42 13
  715.2 13.61 13
  715.3 12.39 12
  715.4 10.51 10
  716.9 3.0 2
  717.0 4.41 4
  717.1 5.82 5
  717.2 6.87 6
  717.3 8.08 8
  717.4 9.7 9
  717.5 10.75 10
  717.6 9.66 9
  717.7 6.6 6
  717.9 5.39 5
  718.0 8.62 8
  718.1 10.58 10
  718.2 9.83 9
  718.3 8.02 8
  718.4 6.74 6
  718.7 5.17 5
  718.8 6.61 6
  718.9 8.05 8
  719.0 8.34 8
  719.1 8.05 8
  719.2 8.19 8
  719.3 8.94 8
  719.4 9.52 9
  719.5 9.12 9
  720.7 4.26 4
  720.8 5.17 5
  720.9 7.17 7
  721.0 9.53 9
  721.1 10.74 10
  721.2 10.05 10
  721.4 8.22 8
  721.5 9.64 9
  721.6 11.55 11
  721.7 12.5 12
  721.8 11.83 11
  721.9 9.73 9
  722.0 6.8 6
  722.3 4.81 4
  722.4 6.1 6
  722.5 6.53 6
  722.6 6.54 6
  722.7 6.59 6
  722.8 5.97 5
  723.0 3.39 3
  723.1 4.96 4
  723.2 8.35 8
  723.3 10.84 10
  723.4 10.44 10
  723.5 8.19 8
  723.7 7.34 7
  723.8 9.19 9
  723.9 10.22 10
  724.0 9.78 9
  724.1 8.89 8
  724.2 8.52 8
  724.3 8.1 8
  724.4 6.25 6
  724.5 2.92 2
  724.7 0.3 0
  724.8 3.01 3
  724.9 5.79 5
  725.0 7.06 7
  725.1 7.6 7
  725.2 9.23 9
  725.3 12.18 12
  725.4 14.48 14
  725.5 13.75 13
  725.6 10.06 10
  725.9 6.84 6
  726.0 8.72 8
  726.1 10.16 10
  726.2 11.21 11
  726.3 11.45 11
  726.4 10.64 10
  726.5 9.44 9
  726.7 8.5 8
  726.8 8.98 8
  726.9 10.72 10
  727.0 13.23 13
  727.1 14.97 14
  727.2 14.9 14
  727.3 13.44 13
  727.4 11.68 11
  727.6 10.66 10
  727.7 11.96 11
  727.8 13.32 13
  727.9 13.16 13
  728.0 11.14 11
  728.9 5.81 5
  729.0 7.6 7
  729.1 10.55 10
  729.2 12.3 12
  729.3 11.59 11
  730.4 6.96 6
  730.5 6.99 6
  730.6 8.14 8
  730.7 9.92 9
  730.8 10.9 10
  730.9 10.56 10
  731.0 9.78 9
  731.1 9.02 9
  731.4 7.08 7
  731.5 10.05 10
  731.6 12.75 12
  731.7 12.64 12
  731.8 10.44 10
  731.9 8.49 8
  733.0 6.15 6
  733.1 9.02 9
  733.2 11.27 11
  733.3 10.79 10
  733.4 8.5 8
  733.5 6.56 6
  733.6 6.05 6
  733.7 6.41 6
  733.8 6.22 6
  733.9 4.72 4
  734.1 3.21 3
  734.2 5.32 5
  734.3 8.03 8
  734.4 9.86 9
  734.5 10.12 10
  734.6 8.52 8
  734.7 5.64 5
  735.0 4.58 4
  735.1 5.38 5
  735.2 5.41 5
  735.3 6.32 6
  735.4 8.71 8
  735.5 11.02 11
  735.6 11.18 11
  735.7 9.23 9
  735.9 6.85 6
  736.0 8.8 8
  736.1 10.66 10
  736.2 10.04 10
  736.3 7.56 7
  736.4 5.61 5
  736.6 5.04 5
  736.7 5.56 5
  736.8 7.49 7
  736.9 10.16 10
  737.0 11.21 11
  737.1 9.43 9
  737.2 6.13 6
  737.4 4.56 4
  737.5 7.42 7
  737.6 9.83 9
  737.7 10.13 10
  737.8 9.01 9
  737.9 8.08 8
  738.0 7.41 7
  738.1 6.33 6
  738.3 4.77 4
  738.4 5.93 5
  738.5 7.8 7
  738.6 9.09 9
  738.7 9.18 9
  738.8 8.42 8
  738.9 7.31 7
  739.7 2.72 2
  739.8 5.5 5
  739.9 8.84 8
  740.0 10.01 9
  740.1 8.8 8
  740.2 7.77 7
  740.3 8.86 8
  740.4 10.59 10
  740.5 10.28 10
  740.6 7.28 7
  740.8 2.71 2
  740.9 4.95 4
  741.0 9.25 9
  741.1 12.82 12
  741.2 13.46 13
  741.3 10.92 10
  741.4 7.2 7
  741.7 5.68 5
  741.8 6.7 6
  741.9 7.45 7
  742.0 8.49 8
  742.1 10.1 10
  742.2 11.72 11
  742.3 12.79 12
  742.4 13.56 13
  742.5 14.54 14
  742.6 14.86 14
  742.7 13.02 13
  742.9 8.54 8
  743.0 10.91 10
  743.1 14.58 14
  743.2 15.46 15
  743.3 12.53 12
  743.4 8.14 8
  743.6 5.56 5
  743.7 8.08 8
  743.8 10.7 10
  743.9 11.05 11
  744.0 9.03 9
  744.2 6.62 6
  744.3 8.33 8
  744.4 10.68 10
  744.5 12.52 12
  744.6 12.93 12
  744.7 11.44 11
  745.0 9.52 9
  745.1 11.66 11
  745.2 12.56 12
  745.3 12.29 12
  745.4 12.13 12
  745.5 11.82 11
  745.6 10.12 10
  745.8 7.08 7
  745.9 9.07 9
  746.0 11.68 11
  746.1 12.68 12
  746.2 12.13 12
  746.3 11.41 11
  746.4 10.76 10
  746.5 9.67 9
  746.8 7.48 7
  746.9 9.03 9
  747.0 10.86 10
  747.1 11.22 11
  747.2 9.67 9
  747.3 7.66 7
  747.6 5.56 5
  747.7 6.79 6
  747.8 9.37 9
  747.9 11.42 11
  748.0 11.13 11
  748.1 8.69 8
  748.4 5.38 5
  748.5 8.14 8
  748.6 10.73 10
  748.7 11.07 11
  749.0 8.14 8
  749.1 10.69 10
  749.2 13.39 13
  749.3 14.3 14
  749.4 12.63 12
  749.5 9.43 9
//
