ACCESSION: MSBNK-RIKEN_NPDepo-NGA02551
RECORD_TITLE: Emamectin; LC-ESI-QQQ; MS2; Frag=135.0V CID@10.0; [M+H]+
DATE: 2018.04.04
AUTHORS: Nogawa T, Okano A, CSRS, RIKEN
LICENSE: CC BY
COMMENT: Origin: Microbe
CH$NAME: Emamectin
CH$COMPOUND_CLASS: Polyketides
CH$FORMULA: C49H75NO13
CH$EXACT_MASS: 886.143
CH$SMILES: CC[C@H](C)[C@H]1O[C@]2(C=C[C@@H]1C)C[C@@H]1C[C@@H](C/C=C(\C)[C@@H](O[C@H]3C[C@H](OC)[C@@H](O[C@H]4C[C@H](OC)[C@H](NC)[C@H](C)O4)[C@H](C)O3)[C@@H](C)/C=C/C=C3\CO[C@@H]4[C@H](O)C(C)=C[C@@H](C(=O)O1)[C@]34O)O2
CH$IUPAC: InChI=1S/C49H75NO13/c1-12-26(2)44-29(5)18-19-48(63-44)24-35-21-34(62-48)17-16-28(4)43(27(3)14-13-15-33-25-56-46-42(51)30(6)20-36(47(52)59-35)49(33,46)53)60-40-23-38(55-11)45(32(8)58-40)61-39-22-37(54-10)41(50-9)31(7)57-39/h13-16,18-20,26-27,29,31-32,34-46,50-51,53H,12,17,21-25H2,1-11H3/b14-13+,28-16+,33-15+/t26-,27-,29-,31-,32-,34+,35-,36-,37-,38-,39-,40-,41+,42+,43-,44+,45-,46+,48+,49+/m0/s1
CH$LINK: CAS 119791-41-2
CH$LINK: CHEMSPIDER 21442048
CH$LINK: INCHIKEY CXEGAUYXQAKHKJ-COFQVFHOSA-N
CH$LINK: COMPTOX DTXSID80153164
CH$LINK: PUBCHEM CID:11136686
AC$INSTRUMENT: Agilent 6410 Triple Quadrupole LC/MS system
AC$INSTRUMENT_TYPE: LC-ESI-QQQ
AC$MASS_SPECTROMETRY: MS_TYPE MS2
AC$MASS_SPECTROMETRY: ION_MODE POSITIVE
MS$FOCUSED_ION: PRECURSOR_TYPE [M+H]+
PK$SPLASH: splash10-000i-0000000090-659795ab5e9f90c85bda
PK$NUM_PEAK: 28
PK$PEAK: m/z int. rel.int.
  157.5 2.14 2
  157.6 3.21 3
  157.7 4.39 4
  157.8 5.38 5
  157.9 6.08 6
  158.0 6.47 6
  158.1 6.18 6
  158.2 4.76 4
  158.3 2.57 2
  885.2 1.18 1
  885.3 2.22 2
  885.4 4.42 4
  885.5 8.3 8
  885.6 14.02 14
  885.7 21.85 21
  885.8 32.76 32
  885.9 47.7 47
  886.0 65.85 65
  886.1 83.64 83
  886.2 96.17 96
  886.3 100.0 99
  886.4 94.84 94
  886.5 82.49 82
  886.6 64.68 64
  886.7 43.18 43
  886.8 21.78 21
  886.9 5.85 5
  887.0 0.0 0
//
