ACCESSION: MSBNK-RIKEN_NPDepo-NGA03759
RECORD_TITLE: Podophyllotoxin; LC-ESI-QQQ; MS2; Frag=135.0V CID@15.0; [M+HCOO]-
DATE: 2018.04.04
AUTHORS: Nogawa T, Okano A, CSRS, RIKEN
LICENSE: CC BY
COMMENT: Origin: Plant, Organic chemicals, Polycyclic compounds, Naphthalenes
CH$NAME: Podophyllotoxin
CH$COMPOUND_CLASS: Polycyclic aromatic natural products
CH$FORMULA: C22H22O8
CH$EXACT_MASS: 414.4158
CH$SMILES: COc1cc([C@@H]2c3cc4c(cc3[C@H](O)C3COC(=O)[C@@H]32)OCO4)cc(OC)c1OC
CH$IUPAC: InChI=1S/C22H22O8/c1-25-16-4-10(5-17(26-2)21(16)27-3)18-11-6-14-15(30-9-29-14)7-12(11)20(23)13-8-28-22(24)19(13)18/h4-7,13,18-20,23H,8-9H2,1-3H3/t13?,18-,19+,20+/m1/s1
CH$LINK: CAS 518-28-5
CH$LINK: CHEMSPIDER 10162 4699 24774779 25027419
CH$LINK: INCHIKEY YJGVMLPVUAXIQN-DPUNPDONSA-N
CH$LINK: PUBCHEM CID:6610290
AC$INSTRUMENT: Agilent 6410 Triple Quadrupole LC/MS system
AC$INSTRUMENT_TYPE: LC-ESI-QQQ
AC$MASS_SPECTROMETRY: MS_TYPE MS2
AC$MASS_SPECTROMETRY: ION_MODE NEGATIVE
MS$FOCUSED_ION: PRECURSOR_TYPE [M+HCOO]-
PK$SPLASH: splash10-01ri-4888890000-34c56bf093f554dc11a3
PK$NUM_PEAK: 4175
PK$PEAK: m/z int. rel.int.
  50.6 8.15 8
  50.7 15.24 15
  50.8 22.62 22
  50.9 23.77 23
  51.0 18.08 18
  51.9 11.08 11
  52.0 17.6 17
  52.1 21.79 21
  52.2 19.88 19
  52.3 14.0 13
  52.5 10.85 10
  52.6 16.03 16
  52.7 20.8 20
  52.8 21.23 21
  52.9 16.68 16
  53.2 10.58 10
  53.3 17.65 17
  53.4 22.42 22
  53.5 21.09 21
  53.6 15.11 15
  53.9 9.52 9
  54.0 16.32 16
  54.1 21.23 21
  54.2 20.06 20
  54.5 13.91 13
  54.6 18.98 18
  54.7 21.36 21
  54.8 18.64 18
  54.9 13.48 13
  55.1 12.4 12
  55.2 16.59 16
  55.3 19.47 19
  55.4 18.39 18
  55.5 13.51 13
  55.7 7.38 7
  55.8 12.4 12
  55.9 18.87 18
  56.0 20.55 20
  56.1 15.85 15
  57.0 9.34 9
  57.1 17.02 17
  57.2 23.17 23
  57.3 23.12 23
  57.4 17.09 17
  57.6 8.96 8
  57.7 14.45 14
  57.8 21.86 21
  57.9 24.13 24
  58.0 18.82 18
  58.3 9.77 9
  58.4 18.24 18
  58.5 24.49 24
  58.6 22.96 22
  58.7 14.54 14
  58.9 5.79 5
  59.0 12.72 12
  59.1 20.67 20
  59.2 22.94 22
  59.3 18.26 18
  59.4 10.85 10
  59.6 8.42 8
  59.7 14.66 14
  59.8 19.92 19
  59.9 19.59 19
  60.0 14.18 14
  60.2 9.91 9
  60.3 15.92 15
  60.4 21.68 21
  60.5 21.5 21
  60.6 14.81 14
  60.8 4.55 4
  60.9 10.67 10
  61.0 20.53 20
  61.1 25.55 25
  61.2 21.03 21
  61.3 10.63 10
  61.5 3.62 3
  61.6 11.73 11
  61.7 20.4 20
  61.8 22.85 22
  61.9 17.56 17
  62.0 9.52 9
  62.2 8.53 8
  62.3 14.66 14
  62.4 17.94 17
  62.5 15.17 15
  62.8 8.06 8
  62.9 16.46 16
  63.0 22.42 22
  63.1 20.4 20
  63.2 12.52 12
  63.4 8.01 8
  63.5 15.24 15
  63.6 22.11 22
  63.7 23.17 23
  63.8 17.85 17
  64.1 10.24 10
  64.2 16.03 16
  64.3 18.78 18
  64.4 16.3 16
  64.6 9.64 9
  64.7 13.12 13
  64.8 19.5 19
  64.9 23.26 23
  65.0 20.87 20
  65.1 14.09 14
  65.3 7.11 7
  65.4 10.72 10
  65.5 15.56 15
  65.6 17.6 17
  65.7 15.24 15
  66.0 10.65 10
  66.1 16.82 16
  66.2 21.36 21
  66.3 19.92 19
  66.4 13.69 13
  66.6 9.61 9
  66.7 15.71 15
  66.8 21.09 21
  66.9 20.8 20
  67.0 15.2 15
  67.2 8.1 8
  67.3 12.04 12
  67.4 16.75 16
  67.5 17.45 17
  67.6 13.39 13
  67.8 7.9 7
  67.9 12.63 12
  68.0 19.47 19
  68.1 23.55 23
  68.2 22.22 22
  68.3 16.73 16
  68.5 10.92 10
  68.6 16.19 16
  68.7 23.26 23
  68.8 25.53 25
  68.9 19.77 19
  69.0 9.91 9
  69.2 8.19 8
  69.3 17.6 17
  69.4 24.09 24
  69.5 21.95 21
  69.6 13.12 13
  69.8 4.05 4
  69.9 10.9 10
  70.0 19.68 19
  70.1 22.76 22
  70.2 18.12 18
  71.1 7.27 7
  71.2 14.23 14
  71.3 21.63 21
  71.4 23.59 23
  71.5 18.28 18
  71.7 8.13 8
  71.8 13.03 13
  71.9 20.82 20
  72.0 24.56 24
  72.1 20.8 20
  72.2 12.31 12
  72.4 8.69 8
  72.5 16.97 16
  72.6 23.66 23
  72.7 23.03 23
  72.8 16.79 16
  73.0 10.69 10
  73.1 14.3 14
  73.2 17.51 17
  73.3 16.57 16
  73.4 11.89 11
  73.6 8.91 8
  73.7 15.11 15
  73.8 21.9 21
  73.9 23.64 23
  74.0 18.69 18
  74.1 10.76 10
  74.3 7.32 7
  74.4 12.72 12
  74.5 17.09 17
  74.6 16.52 16
  74.7 11.14 11
  74.9 4.89 4
  75.0 11.3 11
  75.1 20.1 20
  75.2 24.0 23
  75.3 19.77 19
  75.4 11.17 11
  75.6 7.56 7
  75.7 14.23 14
  75.8 18.28 18
  75.9 15.24 15
  76.2 8.01 8
  76.3 15.11 15
  76.4 20.26 20
  76.5 19.63 19
  76.6 13.91 13
  76.8 6.78 6
  76.9 11.71 11
  77.0 18.01 17
  77.1 19.97 19
  77.2 16.32 16
  77.3 10.78 10
  77.5 9.57 9
  77.6 13.62 13
  77.7 16.64 16
  77.8 15.92 15
  78.1 10.74 10
  78.2 17.29 17
  78.3 22.85 22
  78.4 21.99 21
  78.5 14.5 14
  78.8 6.35 6
  78.9 15.58 15
  79.0 23.12 23
  79.1 23.35 23
  79.2 16.37 16
  79.4 6.89 6
  79.5 12.83 12
  79.6 20.19 20
  79.7 21.52 21
  79.8 15.42 15
  80.0 6.46 6
  80.1 12.16 12
  80.2 20.1 20
  80.3 24.34 24
  80.4 22.62 22
  80.5 17.13 17
  80.7 11.17 11
  80.8 14.66 14
  80.9 18.96 18
  81.0 19.56 19
  81.1 15.02 15
  81.3 6.17 6
  81.4 10.47 10
  81.5 18.05 18
  81.6 21.81 21
  81.7 18.03 18
  81.9 8.51 8
  82.0 13.85 13
  82.1 22.22 22
  82.2 25.78 25
  82.3 21.0 20
  82.4 11.75 11
  82.6 6.69 6
  82.7 13.26 13
  82.8 19.34 19
  82.9 20.17 20
  83.0 15.35 15
  83.2 6.96 6
  83.3 11.3 11
  83.4 19.07 19
  83.5 23.91 23
  83.6 21.39 21
  83.7 13.26 13
  83.9 5.99 5
  84.0 13.01 12
  84.1 21.03 21
  84.2 23.08 23
  84.3 17.2 17
  85.2 8.78 8
  85.3 15.35 15
  85.4 19.7 19
  85.5 17.69 17
  85.8 9.77 9
  85.9 16.59 16
  86.0 22.81 22
  86.1 23.17 23
  86.2 16.64 16
  86.4 5.2 5
  86.5 10.36 10
  86.6 19.14 19
  86.7 24.09 24
  86.8 21.45 21
  86.9 13.71 13
  87.1 6.8 6
  87.2 13.1 13
  87.3 20.89 20
  87.4 23.5 23
  87.5 19.05 19
  88.3 10.49 10
  88.4 14.18 14
  88.5 20.01 19
  88.6 23.23 23
  88.7 20.46 20
  88.8 13.1 13
  89.0 7.99 7
  89.1 15.02 15
  89.2 22.02 21
  89.3 22.9 22
  89.4 17.02 17
  90.3 9.19 9
  90.4 14.93 14
  90.5 19.7 19
  90.6 19.97 19
  90.7 15.76 15
  90.9 10.22 10
  91.0 15.33 15
  91.1 22.04 22
  91.2 23.82 23
  91.3 18.55 18
  91.6 10.78 10
  91.7 17.33 17
  91.8 21.68 21
  91.9 20.44 20
  92.0 14.81 14
  92.2 9.79 9
  92.3 15.17 15
  92.4 21.36 21
  92.5 22.2 22
  92.6 15.58 15
  92.8 3.62 3
  92.9 9.5 9
  93.0 18.39 18
  93.1 21.86 21
  93.2 17.15 17
  93.5 7.5 7
  93.6 16.05 16
  93.7 23.23 23
  93.8 22.9 22
  93.9 15.24 15
  94.1 6.55 6
  94.2 13.76 13
  94.3 22.24 22
  94.4 24.18 24
  94.5 17.9 17
  95.4 8.44 8
  95.5 16.66 16
  95.6 22.87 22
  95.7 21.95 21
  95.8 15.33 15
  96.0 8.33 8
  96.1 12.74 12
  96.2 18.17 18
  96.3 20.28 20
  96.4 17.78 17
  96.6 12.4 12
  96.7 16.32 16
  96.8 22.02 21
  96.9 23.8 23
  97.0 19.27 19
  97.1 11.37 11
  97.3 6.55 6
  97.4 13.39 13
  97.5 21.54 21
  97.6 24.54 24
  97.7 19.29 19
  97.8 9.82 9
  98.0 7.63 7
  98.1 15.96 15
  98.2 21.63 21
  98.3 19.9 19
  98.4 12.65 12
  98.6 7.32 7
  98.7 14.16 14
  98.8 21.27 21
  98.9 21.97 21
  99.0 15.24 15
  99.2 6.28 6
  99.3 13.3 13
  99.4 21.99 21
  99.5 24.85 24
  99.6 20.06 20
  99.7 12.31 12
  99.9 10.04 10
  100.0 16.07 16
  100.1 21.34 21
  100.2 21.86 21
  100.3 17.18 17
  100.6 10.78 10
  100.7 17.18 17
  100.8 21.05 21
  100.9 18.66 18
  101.8 10.04 10
  101.9 15.49 15
  102.0 20.71 20
  102.1 22.29 22
  102.2 18.75 18
  103.1 9.7 9
  103.2 16.48 16
  103.3 20.58 20
  103.4 17.87 17
  103.5 10.76 10
  103.7 6.71 6
  103.8 14.45 14
  103.9 23.55 23
  104.0 27.01 26
  104.1 21.66 21
  104.2 11.59 11
  104.4 8.69 8
  104.5 17.99 17
  104.6 24.81 24
  104.7 22.92 22
  104.8 14.18 14
  105.0 6.96 6
  105.1 14.34 14
  105.2 21.99 21
  105.3 23.32 23
  105.4 17.65 17
  105.7 11.64 11
  105.8 18.33 18
  105.9 22.58 22
  106.0 20.82 20
  106.1 13.76 13
  106.3 6.48 6
  106.4 12.4 12
  106.5 18.93 18
  106.6 20.19 20
  106.7 15.76 15
  106.9 8.62 8
  107.0 12.65 12
  107.1 18.87 18
  107.2 21.66 21
  107.3 17.99 17
  107.6 9.05 9
  107.7 16.77 16
  107.8 23.01 22
  107.9 22.85 22
  108.0 16.64 16
  108.9 11.14 11
  109.0 16.1 16
  109.1 19.05 19
  109.2 16.86 16
  109.5 11.08 11
  109.6 16.86 16
  109.7 20.4 20
  109.8 18.62 18
  109.9 13.33 13
  110.1 9.61 9
  110.2 13.46 13
  110.3 17.67 17
  110.4 19.16 19
  110.5 16.61 16
  110.6 11.37 11
  110.8 8.78 8
  110.9 15.78 15
  111.0 23.26 23
  111.1 24.49 24
  111.2 17.74 17
  111.3 8.53 8
  111.5 8.35 8
  111.6 15.69 15
  111.7 19.97 19
  111.8 18.55 18
  112.0 12.0 11
  112.1 14.99 14
  112.2 21.27 21
  112.3 24.52 24
  112.4 19.68 19
  112.5 9.59 9
  112.7 6.87 6
  112.8 15.98 15
  112.9 21.52 21
  113.0 18.55 18
  113.1 10.63 10
  113.3 7.47 7
  113.4 14.99 14
  113.5 21.9 21
  113.6 23.32 23
  113.7 18.62 18
  113.8 11.75 11
  114.0 9.95 9
  114.1 15.13 15
  114.2 18.91 18
  114.3 18.24 18
  114.6 12.81 12
  114.7 17.85 17
  114.8 22.67 22
  114.9 23.44 23
  115.0 18.96 18
  115.1 12.25 12
  115.3 10.36 10
  115.4 15.69 15
  115.5 19.25 19
  115.6 17.81 17
  115.9 11.77 11
  116.0 17.38 17
  116.1 21.61 21
  116.2 20.08 20
  116.3 13.73 13
  116.5 8.62 8
  116.6 15.44 15
  116.7 23.14 23
  116.8 24.99 24
  116.9 18.96 18
  117.0 9.64 9
  117.2 6.55 6
  117.3 13.57 13
  117.4 18.93 18
  117.5 18.14 18
  117.6 12.47 12
  117.8 7.9 7
  117.9 14.14 14
  118.0 21.05 21
  118.1 22.42 22
  118.2 16.66 16
  118.4 5.99 5
  118.5 11.12 11
  118.6 19.88 19
  118.7 24.99 24
  118.8 22.4 22
  118.9 14.84 14
  119.1 9.93 9
  119.2 16.73 16
  119.3 23.21 23
  119.4 23.28 23
  119.5 16.73 16
  119.7 7.38 7
  119.8 12.18 12
  119.9 19.05 19
  120.0 21.7 21
  120.1 17.87 17
  120.3 8.85 8
  120.4 13.39 13
  120.5 21.25 21
  120.6 25.46 25
  120.7 22.29 22
  120.8 14.45 14
  121.0 10.11 10
  121.1 17.0 16
  121.2 22.58 22
  121.3 21.0 20
  121.4 13.35 13
  121.6 7.36 7
  121.7 14.84 14
  121.8 22.69 22
  121.9 24.47 24
  122.0 19.18 19
  122.9 5.45 5
  123.0 11.08 11
  123.1 17.81 17
  123.2 20.44 20
  123.3 17.15 17
  123.5 10.42 10
  123.6 14.95 14
  123.7 21.36 21
  123.8 23.8 23
  123.9 19.65 19
  124.0 11.57 11
  124.2 5.81 5
  124.3 12.58 12
  124.4 19.92 19
  124.5 21.18 21
  124.6 15.13 15
  124.8 5.36 5
  124.9 10.69 10
  125.0 18.35 18
  125.1 21.48 21
  125.2 17.78 17
  125.3 10.67 10
  125.5 7.99 7
  125.6 15.53 15
  125.7 23.23 23
  125.8 25.3 25
  125.9 20.4 20
  126.0 12.88 12
  126.2 10.63 10
  126.3 15.78 15
  126.4 18.82 18
  126.5 16.59 16
  126.7 8.55 8
  126.8 12.18 12
  126.9 19.5 19
  127.0 23.48 23
  127.1 19.7 19
  127.4 9.75 9
  127.5 18.48 18
  127.6 25.24 25
  127.7 24.99 24
  127.8 18.89 18
  127.9 12.09 12
  128.6 6.93 6
  128.7 10.02 10
  128.8 16.55 16
  128.9 21.86 21
  129.0 22.24 22
  129.1 17.2 17
  129.4 10.02 10
  129.5 16.97 16
  129.6 20.69 20
  129.7 17.49 17
  130.0 9.73 9
  130.1 16.01 15
  130.2 20.24 20
  130.3 19.2 19
  130.4 14.61 14
  130.6 11.91 11
  130.7 16.79 16
  130.8 22.22 22
  130.9 23.57 23
  131.0 18.66 18
  131.1 10.6 10
  131.3 8.87 8
  131.4 16.25 16
  131.5 20.96 20
  131.6 18.39 18
  131.7 10.63 10
  131.9 5.72 5
  132.0 14.23 14
  132.1 23.55 23
  132.2 26.07 26
  132.3 20.13 20
  132.4 11.44 11
  132.6 10.09 10
  132.7 15.8 15
  132.8 18.82 18
  132.9 16.52 16
  133.2 11.59 11
  133.3 17.83 17
  133.4 21.36 21
  133.5 18.53 18
  133.6 11.82 11
  133.8 8.67 8
  133.9 14.97 14
  134.0 20.6 20
  134.1 20.17 20
  134.2 13.1 13
  134.4 2.3 2
  134.5 7.95 7
  134.6 17.81 17
  134.7 24.79 24
  134.8 23.71 23
  134.9 15.58 15
  135.1 7.79 7
  135.2 15.87 15
  135.3 24.31 24
  135.4 25.24 25
  135.5 18.21 18
  135.7 8.76 8
  135.8 14.32 14
  135.9 21.54 21
  136.0 23.91 23
  136.1 19.61 19
  136.2 12.61 12
  136.4 10.74 10
  136.5 16.16 16
  136.6 20.15 20
  136.7 18.84 18
  136.8 12.76 12
  137.0 7.56 7
  137.1 14.57 14
  137.2 21.99 21
  137.3 22.81 22
  137.4 16.25 16
  137.6 7.61 7
  137.7 14.12 14
  137.8 22.22 22
  137.9 24.67 24
  138.0 19.36 19
  138.1 10.67 10
  138.3 7.81 7
  138.4 15.6 15
  138.5 21.97 21
  138.6 21.07 21
  138.7 13.42 13
  138.9 4.3 4
  139.0 10.18 10
  139.1 17.4 17
  139.2 19.36 19
  139.3 14.43 14
  139.5 3.85 3
  139.6 8.78 8
  139.7 18.66 18
  139.8 25.48 25
  139.9 23.64 23
  140.0 15.58 15
  140.8 10.4 10
  140.9 12.92 12
  141.0 17.94 17
  141.1 20.73 20
  141.2 17.92 17
  141.4 11.91 11
  141.5 18.98 18
  141.6 27.78 27
  141.7 29.99 29
  141.8 23.46 23
  141.9 13.6 13
  142.1 8.28 8
  142.2 14.14 14
  142.3 20.22 20
  142.4 22.2 22
  142.5 18.71 18
  142.6 12.31 12
  142.8 9.73 9
  142.9 16.34 16
  143.0 22.4 22
  143.1 22.4 22
  143.2 16.19 16
  143.4 8.85 8
  143.5 15.29 15
  143.6 22.74 22
  143.7 23.93 23
  143.8 17.74 17
  144.0 7.81 7
  144.1 12.99 12
  144.2 20.55 20
  144.3 23.46 23
  144.4 18.71 18
  144.5 9.66 9
  144.7 5.02 5
  144.8 13.06 13
  144.9 20.46 20
  145.0 20.8 20
  145.1 14.27 14
  145.3 6.82 6
  145.4 13.01 12
  145.5 20.94 20
  145.6 23.75 23
  145.7 19.02 19
  146.0 10.65 10
  146.1 18.73 18
  146.2 23.95 23
  146.3 21.3 21
  146.4 12.88 12
  146.6 7.68 7
  146.7 15.92 15
  146.8 23.84 23
  146.9 24.56 24
  147.0 17.56 17
  147.3 9.0 8
  147.4 16.39 16
  147.5 20.85 20
  147.6 18.66 18
  147.7 12.11 12
  147.9 7.95 7
  148.0 13.94 13
  148.1 20.13 20
  148.2 21.7 21
  148.3 17.81 17
  149.1 10.27 10
  149.2 14.77 14
  149.3 21.48 21
  149.4 24.38 24
  149.5 20.46 20
  149.6 12.79 12
  149.8 7.74 7
  149.9 12.09 12
  150.0 16.59 16
  150.1 17.78 17
  150.2 14.95 14
  150.4 9.77 9
  150.5 14.12 14
  150.6 20.69 20
  150.7 23.93 23
  150.8 21.03 21
  150.9 14.61 14
  151.1 10.56 10
  151.2 15.53 15
  151.3 21.03 21
  151.4 22.35 22
  151.5 17.65 17
  151.8 11.17 11
  151.9 18.75 18
  152.0 22.83 22
  152.1 19.86 19
  152.2 13.01 12
  152.4 11.32 11
  152.5 17.04 17
  152.6 20.01 19
  152.7 16.77 16
  152.8 9.7 9
  153.0 6.8 6
  153.1 14.5 14
  153.2 22.4 22
  153.3 24.61 24
  153.4 19.52 19
  154.3 9.82 9
  154.4 17.29 17
  154.5 23.08 23
  154.6 21.81 21
  154.7 14.63 14
  154.9 8.49 8
  155.0 15.26 15
  155.1 22.02 21
  155.2 22.17 22
  155.3 15.2 15
  155.5 5.7 5
  155.6 11.71 11
  155.7 20.31 20
  155.8 24.36 24
  155.9 20.49 20
  156.0 11.93 11
  156.2 6.35 6
  156.3 12.63 12
  156.4 18.44 18
  156.5 18.66 18
  156.6 13.46 13
  156.8 7.59 7
  156.9 13.15 13
  157.0 20.04 20
  157.1 22.56 22
  157.2 18.87 18
  157.3 12.13 12
  157.5 9.82 9
  157.6 16.97 16
  157.7 23.64 23
  157.8 23.66 23
  157.9 16.37 16
  158.1 6.75 6
  158.2 13.37 13
  158.3 22.11 22
  158.4 25.1 25
  158.5 19.61 19
  158.7 7.5 7
  158.8 12.67 12
  158.9 21.36 21
  159.0 25.8 25
  159.1 23.01 22
  159.2 15.69 15
  159.4 7.95 7
  159.5 13.28 13
  159.6 21.0 20
  159.7 23.82 23
  159.8 18.64 18
  160.0 8.04 8
  160.1 13.01 12
  160.2 19.9 19
  160.3 21.45 21
  160.4 15.87 15
  160.7 7.65 7
  160.8 15.96 15
  160.9 22.62 22
  161.0 22.6 22
  161.1 16.21 16
  161.3 7.56 7
  161.4 13.03 13
  161.5 20.91 20
  161.6 24.7 24
  161.7 21.18 21
  161.8 13.08 13
  162.0 8.49 8
  162.1 16.41 16
  162.2 23.14 23
  162.3 21.57 21
  162.4 12.67 12
  162.6 5.04 5
  162.7 13.08 13
  162.8 22.08 22
  162.9 25.08 25
  163.0 20.26 20
  163.3 11.26 11
  163.4 18.82 18
  163.5 24.0 23
  163.6 21.86 21
  163.7 13.71 13
  163.9 5.16 5
  164.0 11.66 11
  164.1 19.43 19
  164.2 20.76 20
  164.3 14.21 14
  164.5 5.88 5
  164.6 12.83 12
  164.7 20.73 20
  164.8 22.33 22
  164.9 16.77 16
  165.1 8.4 8
  165.2 13.44 13
  165.3 20.28 20
  165.4 23.26 23
  165.5 20.15 20
  165.6 13.19 13
  165.8 6.71 6
  165.9 12.72 12
  166.0 20.8 20
  166.1 23.95 23
  166.2 18.91 18
  166.3 10.04 10
  166.5 9.12 9
  166.6 16.68 16
  166.7 20.94 20
  166.8 18.44 18
  167.1 10.49 10
  167.2 17.42 17
  167.3 23.77 23
  167.4 24.52 24
  167.5 18.98 18
  167.6 11.37 11
  167.8 10.29 10
  167.9 16.7 16
  168.0 20.67 20
  168.1 18.55 18
  168.2 12.52 12
  168.4 10.02 10
  168.5 15.76 15
  168.6 20.31 20
  168.7 19.54 19
  168.8 14.5 14
  169.0 11.35 11
  169.1 16.7 16
  169.2 21.68 21
  169.3 21.86 21
  169.4 16.43 16
  169.6 6.89 6
  169.7 11.08 11
  169.8 17.85 17
  169.9 20.31 20
  170.0 15.76 15
  170.3 8.24 8
  170.4 16.64 16
  170.5 22.69 22
  170.6 21.09 21
  170.7 13.37 13
  170.9 5.97 5
  171.0 12.18 12
  171.1 19.72 19
  171.2 22.31 22
  171.3 17.56 17
  171.6 8.31 8
  171.7 16.66 16
  171.8 22.2 22
  171.9 20.06 20
  172.0 12.34 12
  172.2 5.54 5
  172.3 11.37 11
  172.4 17.9 17
  172.5 20.19 20
  172.6 17.81 17
  173.5 9.0 8
  173.6 16.82 16
  173.7 23.28 23
  173.8 22.62 22
  173.9 15.02 15
  174.1 5.67 5
  174.2 12.4 12
  174.3 21.66 21
  174.4 26.02 25
  174.5 22.2 22
  174.6 13.53 13
  174.8 9.43 9
  174.9 16.93 16
  175.0 21.61 21
  175.1 17.81 17
  175.2 8.8 8
  175.4 5.04 5
  175.5 12.76 12
  175.6 19.83 19
  175.7 20.96 20
  175.8 15.4 15
  176.7 8.19 8
  176.8 16.37 16
  176.9 23.19 23
  177.0 22.42 22
  177.1 15.31 15
  177.3 10.78 10
  177.4 17.72 17
  177.5 23.32 23
  177.6 22.29 22
  177.7 15.38 15
  177.9 7.16 7
  178.0 12.38 12
  178.1 19.16 19
  178.2 21.27 21
  178.3 16.68 16
  178.4 9.09 9
  178.6 6.06 6
  178.7 12.18 12
  178.8 18.17 18
  178.9 20.01 19
  179.0 17.13 17
  179.8 4.25 4
  179.9 8.89 8
  180.0 16.95 16
  180.1 21.45 21
  180.2 18.89 18
  180.3 12.4 12
  180.5 10.06 10
  180.6 15.78 15
  180.7 20.49 20
  180.8 20.24 20
  180.9 15.22 15
  181.1 7.54 7
  181.2 12.09 12
  181.3 19.99 19
  181.4 24.9 24
  181.5 22.65 22
  181.6 15.33 15
  181.8 9.82 9
  181.9 15.22 15
  182.0 20.15 20
  182.1 19.9 19
  182.2 14.86 14
  182.4 10.85 10
  182.5 16.34 16
  182.6 21.57 21
  182.7 21.9 21
  182.8 17.24 17
  183.1 10.78 10
  183.2 17.36 17
  183.3 23.8 23
  183.4 24.4 24
  183.5 17.63 17
  183.7 6.55 6
  183.8 11.8 11
  183.9 18.91 18
  184.0 20.91 20
  184.1 16.28 16
  184.4 8.85 8
  184.5 15.62 15
  184.6 20.49 20
  184.7 19.18 19
  184.8 13.19 13
  185.0 7.74 7
  185.1 12.97 12
  185.2 19.07 19
  185.3 20.96 20
  185.4 17.06 17
  185.5 10.78 10
  185.7 8.85 8
  185.8 13.85 13
  185.9 17.6 17
  186.0 16.55 16
  186.1 11.37 11
  186.3 6.53 6
  186.4 11.37 11
  186.5 17.02 17
  186.6 18.96 18
  186.7 16.25 16
  187.5 4.39 4
  187.6 8.22 8
  187.7 16.19 16
  187.8 22.96 22
  187.9 23.37 23
  188.0 16.66 16
  188.8 6.82 6
  188.9 10.72 10
  189.0 17.31 17
  189.1 21.34 21
  189.2 19.54 19
  189.3 13.39 13
  189.5 8.22 8
  189.6 14.03 14
  189.7 20.24 20
  189.8 21.07 21
  189.9 15.78 15
  190.1 7.86 7
  190.2 12.43 12
  190.3 19.61 19
  190.4 23.39 23
  190.5 20.08 20
  190.6 12.16 12
  190.8 7.7 7
  190.9 14.36 14
  191.0 20.53 20
  191.1 21.09 21
  191.2 15.67 15
  191.4 8.26 8
  191.5 14.41 14
  191.6 21.86 21
  191.7 22.78 22
  191.8 15.58 15
  192.0 4.82 4
  192.1 11.53 11
  192.2 20.33 20
  192.3 23.14 23
  192.4 18.39 18
  192.5 11.44 11
  192.7 10.31 10
  192.8 15.49 15
  192.9 19.63 19
  193.0 19.14 19
  193.1 13.71 13
  193.3 7.38 7
  193.4 13.37 13
  193.5 20.53 20
  193.6 22.15 22
  193.7 16.79 16
  193.9 7.27 7
  194.0 11.73 11
  194.1 18.35 18
  194.2 20.94 20
  194.3 17.42 17
  194.6 10.51 10
  194.7 16.73 16
  194.8 22.26 22
  194.9 22.31 22
  195.0 15.83 15
  195.2 5.47 5
  195.3 11.26 11
  195.4 19.92 19
  195.5 23.53 23
  195.6 19.02 19
  195.8 7.52 7
  195.9 12.13 12
  196.0 21.09 21
  196.1 26.5 26
  196.2 23.3 23
  196.3 13.94 13
  196.5 6.33 6
  196.6 13.82 13
  196.7 22.35 22
  196.8 25.12 25
  196.9 20.44 20
  197.0 13.01 12
  197.2 12.2 12
  197.3 18.37 18
  197.4 22.49 22
  197.5 20.94 20
  197.6 14.75 14
  197.8 9.32 9
  197.9 15.13 15
  198.0 20.33 20
  198.1 19.05 19
  198.2 11.73 11
  198.4 3.85 3
  198.5 10.22 10
  198.6 18.82 18
  198.7 22.58 22
  198.8 18.57 18
  199.1 10.13 10
  199.2 19.02 19
  199.3 26.07 26
  199.4 25.26 25
  199.5 16.91 16
  199.7 5.13 5
  199.8 10.31 10
  199.9 18.19 18
  200.0 22.04 22
  200.1 19.27 19
  200.3 10.9 10
  200.4 14.7 14
  200.5 21.72 21
  200.6 25.24 25
  200.7 21.48 21
  200.8 13.03 13
  201.0 7.77 7
  201.1 14.79 14
  201.2 21.27 21
  201.3 21.27 21
  201.4 15.17 15
  201.6 7.32 7
  201.7 11.55 11
  201.8 18.28 18
  201.9 22.9 22
  202.0 22.02 21
  202.1 16.01 15
  202.3 9.59 9
  202.4 14.66 14
  202.5 19.52 19
  202.6 18.75 18
  202.7 12.9 12
  202.9 9.0 8
  203.0 15.83 15
  203.1 22.94 22
  203.2 24.0 23
  203.3 17.0 16
  203.6 7.29 7
  203.7 18.12 18
  203.8 25.24 25
  203.9 22.92 22
  204.0 14.14 14
  204.2 8.51 8
  204.3 16.32 16
  204.4 23.84 23
  204.5 24.7 24
  204.6 18.66 18
  204.8 9.64 9
  204.9 13.91 13
  205.0 20.1 20
  205.1 22.47 22
  205.2 18.48 18
  205.3 11.17 11
  205.5 9.05 9
  205.6 15.85 15
  205.7 21.66 21
  205.8 22.44 22
  205.9 18.44 18
  206.1 11.98 11
  206.2 15.89 15
  206.3 22.06 22
  206.4 24.61 24
  206.5 19.92 19
  206.6 10.76 10
  206.8 5.49 5
  206.9 13.1 13
  207.0 19.7 19
  207.1 19.59 19
  207.2 13.94 13
  207.4 8.13 8
  207.5 12.7 12
  207.6 18.78 18
  207.7 21.54 21
  207.8 18.53 18
  207.9 12.16 12
  208.1 10.33 10
  208.2 16.88 16
  208.3 22.13 22
  208.4 21.36 21
  208.5 15.06 15
  208.7 9.86 9
  208.8 17.11 17
  208.9 24.16 24
  209.0 24.2 24
  209.1 17.09 17
  209.3 9.05 9
  209.4 16.07 16
  209.5 23.64 23
  209.6 23.98 23
  209.7 16.52 16
  209.9 6.28 6
  210.0 11.68 11
  210.1 19.81 19
  210.2 24.61 24
  210.3 22.69 22
  210.4 15.65 15
  210.6 10.49 10
  210.7 17.45 17
  210.8 23.55 23
  210.9 22.62 22
  211.0 15.94 15
  211.2 10.02 10
  211.3 15.35 15
  211.4 21.84 21
  211.5 24.47 24
  211.6 20.6 20
  211.7 12.61 12
  211.9 8.96 8
  212.0 17.27 17
  212.1 24.97 24
  212.2 25.35 25
  212.3 17.78 17
  212.5 7.56 7
  212.6 15.13 15
  212.7 24.18 24
  212.8 25.62 25
  212.9 18.89 18
  213.1 10.49 10
  213.2 15.76 15
  213.3 21.9 21
  213.4 23.35 23
  213.5 18.44 18
  213.6 10.54 10
  213.8 7.47 7
  213.9 14.34 14
  214.0 20.46 20
  214.1 20.96 20
  214.2 16.14 16
  214.4 10.02 10
  214.5 13.91 13
  214.6 18.87 18
  214.7 20.08 20
  214.8 15.96 15
  215.1 9.95 9
  215.2 15.33 15
  215.3 18.93 18
  215.4 18.44 18
  215.7 13.82 13
  215.8 18.28 18
  215.9 22.6 22
  216.0 22.02 21
  216.1 14.86 14
  216.4 6.73 6
  216.5 15.8 15
  216.6 20.51 20
  216.7 17.06 17
  216.8 9.19 9
  217.0 5.02 5
  217.1 11.48 11
  217.2 18.19 18
  217.3 20.19 20
  217.4 16.12 16
  217.6 6.87 6
  217.7 11.19 11
  217.8 19.68 19
  217.9 25.21 25
  218.0 22.94 22
  218.1 14.86 14
  218.3 7.92 7
  218.4 13.26 13
  218.5 18.03 18
  218.6 17.24 17
  218.7 11.23 11
  218.9 4.14 4
  219.0 9.5 9
  219.1 16.73 16
  219.2 19.77 19
  219.3 16.34 16
  219.5 8.33 8
  219.6 12.85 12
  219.7 20.46 20
  219.8 24.22 24
  219.9 19.99 19
  220.0 10.72 10
  220.2 5.61 5
  220.3 14.16 14
  220.4 23.23 23
  220.5 25.75 25
  220.6 19.41 19
  220.9 9.64 9
  221.0 19.68 19
  221.1 25.12 25
  221.2 21.39 21
  221.3 12.47 12
  221.5 8.4 8
  221.6 15.65 15
  221.7 21.21 21
  221.8 19.92 19
  221.9 13.1 13
  222.1 8.26 8
  222.2 15.04 15
  222.3 21.88 21
  222.4 23.35 23
  222.5 18.35 18
  222.6 10.65 10
  222.8 7.86 7
  222.9 14.45 14
  223.0 19.83 19
  223.1 19.5 19
  223.2 14.14 14
  223.4 6.93 6
  223.5 10.85 10
  223.6 17.33 17
  223.7 21.18 21
  223.8 19.63 19
  224.6 7.65 7
  224.7 11.35 11
  224.8 18.46 18
  224.9 22.62 22
  225.0 19.54 19
  225.1 11.35 11
  225.3 6.87 6
  225.4 15.15 15
  225.5 22.51 22
  225.6 21.88 21
  225.7 13.46 13
  225.9 3.98 3
  226.0 11.86 11
  226.1 22.47 22
  226.2 28.12 28
  226.3 25.28 25
  226.4 16.5 16
  227.3 7.45 7
  227.4 12.97 12
  227.5 17.4 17
  227.6 17.4 17
  227.9 11.35 11
  228.0 17.0 16
  228.1 21.88 21
  228.2 20.64 20
  228.3 13.78 13
  228.5 8.76 8
  228.6 16.7 16
  228.7 24.83 24
  228.8 26.18 26
  228.9 19.92 19
  229.2 13.19 13
  229.3 20.46 20
  229.4 24.76 24
  229.5 22.26 22
  229.6 14.48 14
  229.8 7.02 7
  229.9 14.23 14
  230.0 22.56 22
  230.1 23.91 23
  230.2 16.07 16
  230.4 1.26 1
  230.5 7.65 7
  230.6 19.11 19
  230.7 25.6 25
  230.8 22.24 22
  230.9 14.14 14
  231.1 11.62 11
  231.2 15.49 15
  231.3 16.73 16
  231.4 14.3 14
  231.6 8.44 8
  231.7 10.67 10
  231.8 16.39 16
  231.9 21.61 21
  232.0 21.75 21
  232.1 15.6 15
  232.4 7.18 7
  232.5 14.88 14
  232.6 18.93 18
  232.7 15.65 15
  232.9 5.92 5
  233.0 10.99 10
  233.1 20.71 20
  233.2 27.53 27
  233.3 25.98 25
  233.4 17.02 17
  233.7 8.8 8
  233.8 15.47 15
  233.9 18.55 18
  234.0 16.28 16
  234.1 11.28 11
  234.3 9.16 9
  234.4 15.06 15
  234.5 21.18 21
  234.6 21.84 21
  234.7 15.47 15
  234.9 5.18 5
  235.0 11.28 11
  235.1 20.51 20
  235.2 24.81 24
  235.3 20.55 20
  235.4 11.57 11
  235.6 7.56 7
  235.7 14.48 14
  235.8 19.34 19
  235.9 17.15 17
  236.2 7.83 7
  236.3 16.21 16
  236.4 23.21 23
  236.5 23.08 23
  236.6 16.5 16
  236.8 7.79 7
  236.9 11.95 11
  237.0 18.1 18
  237.1 21.0 20
  237.2 18.39 18
  237.3 12.31 12
  237.5 9.41 9
  237.6 16.12 16
  237.7 22.11 22
  237.8 21.07 21
  237.9 12.83 12
  238.1 4.23 4
  238.2 12.67 12
  238.3 22.29 22
  238.4 24.09 24
  238.5 16.75 16
  238.7 4.66 4
  238.8 10.15 10
  238.9 18.46 18
  239.0 22.15 22
  239.1 18.19 18
  239.2 10.2 10
  239.4 8.06 8
  239.5 16.01 15
  239.6 22.15 22
  239.7 21.57 21
  239.8 15.51 15
  240.0 8.01 8
  240.1 12.74 12
  240.2 19.2 19
  240.3 20.71 20
  240.4 14.93 14
  240.6 3.94 3
  240.7 9.12 9
  240.8 17.94 17
  240.9 23.08 23
  241.0 20.24 20
  241.1 11.89 11
  241.3 5.0 4
  241.4 11.71 11
  241.5 19.7 19
  241.6 22.76 22
  241.7 18.69 18
  241.8 11.3 11
  242.0 9.95 9
  242.1 16.59 16
  242.2 21.32 21
  242.3 20.33 20
  242.6 13.91 13
  242.7 19.38 19
  242.8 23.26 23
  242.9 21.52 21
  243.0 15.02 15
  243.2 6.64 6
  243.3 10.92 10
  243.4 18.33 18
  243.5 23.3 23
  243.6 21.59 21
  243.7 14.18 14
  243.9 7.02 7
  244.0 13.15 13
  244.1 20.28 20
  244.2 22.85 22
  244.3 19.36 19
  245.1 8.04 8
  245.2 11.05 11
  245.3 17.74 17
  245.4 23.32 23
  245.5 23.57 23
  245.6 18.08 18
  245.8 9.09 9
  245.9 14.34 14
  246.0 22.26 22
  246.1 24.92 24
  246.2 18.78 18
  246.3 8.62 8
  246.5 6.15 6
  246.6 15.74 15
  246.7 23.75 23
  246.8 23.71 23
  246.9 16.34 16
  247.1 8.76 8
  247.2 15.02 15
  247.3 21.32 21
  247.4 21.9 21
  247.5 17.11 17
  247.7 11.35 11
  247.8 15.33 15
  247.9 20.51 20
  248.0 22.17 22
  248.1 18.24 18
  248.4 10.45 10
  248.5 17.58 17
  248.6 22.65 22
  248.7 21.05 21
  248.8 14.03 14
  249.0 6.69 6
  249.1 12.29 12
  249.2 19.7 19
  249.3 22.29 22
  249.4 17.33 17
  249.6 5.47 5
  249.7 10.15 10
  249.8 19.0 18
  249.9 24.0 23
  250.0 20.94 20
  250.1 12.74 12
  250.3 7.36 7
  250.4 13.67 13
  250.5 19.61 19
  250.6 20.15 20
  250.7 15.6 15
  250.9 10.54 10
  251.0 15.38 15
  251.1 21.27 21
  251.2 23.32 23
  251.3 19.77 19
  251.4 13.39 13
  251.6 11.59 11
  251.7 18.19 18
  251.8 23.57 23
  251.9 23.28 23
  252.0 18.39 18
  252.2 14.21 14
  252.3 18.01 17
  252.4 21.25 21
  252.5 20.01 19
  252.6 14.57 14
  252.8 9.91 9
  252.9 15.53 15
  253.0 22.17 22
  253.1 24.31 24
  253.2 19.38 19
  253.3 10.51 10
  253.5 7.11 7
  253.6 14.9 14
  253.7 21.23 21
  253.8 21.14 21
  253.9 15.51 15
  254.1 9.12 9
  254.2 13.69 13
  254.3 18.91 18
  254.4 19.83 19
  254.5 15.94 15
  254.8 10.18 10
  254.9 15.44 15
  255.0 19.43 19
  255.1 18.48 18
  255.2 13.26 13
  255.4 8.71 8
  255.5 13.71 13
  255.6 18.87 18
  255.7 19.74 19
  255.8 15.96 15
  256.0 10.63 10
  256.1 14.9 14
  256.2 20.87 20
  256.3 23.03 23
  256.4 19.23 19
  256.7 12.88 12
  256.8 17.67 17
  256.9 20.37 20
  257.0 18.48 18
  257.1 13.03 13
  257.3 8.15 8
  257.4 13.28 13
  257.5 19.9 19
  257.6 22.51 22
  257.7 18.35 18
  257.9 6.69 6
  258.0 11.03 11
  258.1 20.28 20
  258.2 25.84 25
  258.3 22.31 22
  258.4 12.83 12
  258.6 6.1 6
  258.7 12.72 12
  258.8 19.07 19
  258.9 19.86 19
  259.0 15.15 15
  259.2 9.19 9
  259.3 13.98 13
  259.4 19.97 19
  259.5 21.43 21
  259.6 16.59 16
  259.9 10.27 10
  260.0 16.28 16
  260.1 19.52 19
  260.4 15.67 15
  260.5 22.35 22
  260.6 28.73 28
  260.7 28.77 28
  260.8 22.94 22
  260.9 15.96 15
  261.2 11.86 11
  261.3 15.4 15
  261.4 17.65 17
  261.5 16.59 16
  261.6 13.06 13
  261.8 9.95 9
  261.9 13.55 13
  262.0 18.35 18
  262.1 20.1 20
  262.2 16.5 16
  262.5 10.24 10
  262.6 17.02 17
  262.7 21.68 21
  262.8 20.35 20
  262.9 14.5 14
  263.1 8.98 8
  263.2 13.53 13
  263.3 18.33 18
  263.4 18.26 18
  263.5 12.02 12
  263.7 3.13 3
  263.8 10.18 10
  263.9 19.86 19
  264.0 23.44 23
  264.1 17.85 17
  264.2 8.67 8
  264.4 7.81 7
  264.5 16.12 16
  264.6 21.97 21
  264.7 20.91 20
  264.8 14.59 14
  265.0 9.3 9
  265.1 14.32 14
  265.2 19.23 19
  265.3 19.79 19
  265.4 16.23 16
  266.3 8.17 8
  266.4 14.41 14
  266.5 19.97 19
  266.6 19.74 19
  266.7 14.39 14
  266.9 10.54 10
  267.0 17.09 17
  267.1 23.57 23
  267.2 23.64 23
  267.3 16.66 16
  267.6 9.5 9
  267.7 17.74 17
  267.8 23.55 23
  267.9 22.71 22
  268.0 16.73 16
  268.8 6.46 6
  268.9 12.54 12
  269.0 19.34 19
  269.1 21.7 21
  269.2 17.9 17
  269.3 11.1 11
  269.5 8.96 8
  269.6 15.29 15
  269.7 20.87 20
  269.8 21.5 21
  269.9 17.33 17
  270.7 7.47 7
  270.8 11.44 11
  270.9 17.92 17
  271.0 22.08 22
  271.1 20.67 20
  271.2 14.86 14
  271.4 8.64 8
  271.5 13.51 13
  271.6 19.92 19
  271.7 22.04 22
  271.8 17.45 17
  272.6 2.5 2
  272.7 6.8 6
  272.8 16.73 16
  272.9 25.6 25
  273.0 27.08 27
  273.1 20.53 20
  274.0 9.41 9
  274.1 15.24 15
  274.2 19.29 19
  274.3 17.85 17
  274.4 12.0 11
  274.6 6.66 6
  274.7 12.43 12
  274.8 20.13 20
  274.9 24.25 24
  275.0 21.84 21
  275.1 15.11 15
  275.3 11.14 11
  275.4 16.77 16
  275.5 20.58 20
  275.6 18.01 17
  275.9 11.86 11
  276.0 19.34 19
  276.1 23.77 23
  276.2 20.82 20
  276.3 12.83 12
  276.5 7.54 7
  276.6 14.41 14
  276.7 21.52 21
  276.8 23.14 23
  276.9 18.03 18
  277.0 10.42 10
  277.2 9.43 9
  277.3 15.71 15
  277.4 19.86 19
  277.5 18.73 18
  277.6 13.8 13
  277.8 9.14 9
  277.9 13.17 13
  278.0 17.96 17
  278.1 18.71 18
  278.2 13.85 13
  278.4 6.26 6
  278.5 12.34 12
  278.6 20.4 20
  278.7 22.71 22
  278.8 17.09 17
  278.9 8.15 8
  279.1 3.67 3
  279.2 9.77 9
  279.3 15.98 15
  279.4 17.78 17
  279.7 11.8 11
  279.8 17.87 17
  279.9 24.13 24
  280.0 24.47 24
  280.1 17.51 17
  281.0 5.85 5
  281.1 14.32 14
  281.2 21.61 21
  281.3 21.81 21
  281.4 15.24 15
  281.6 7.34 7
  281.7 13.73 13
  281.8 21.77 21
  281.9 24.2 24
  282.0 18.55 18
  282.1 9.73 9
  282.3 7.81 7
  282.4 14.95 14
  282.5 21.52 21
  282.6 23.75 23
  282.7 20.51 20
  282.8 14.16 14
  283.0 11.26 11
  283.1 17.29 17
  283.2 21.75 21
  283.3 19.34 19
  283.4 11.71 11
  283.6 9.28 9
  283.7 18.21 18
  283.8 24.88 24
  283.9 23.03 23
  284.0 14.54 14
  284.2 7.95 7
  284.3 14.63 14
  284.4 20.35 20
  284.5 19.25 19
  284.6 12.36 12
  284.8 8.22 8
  284.9 15.78 15
  285.0 22.4 22
  285.1 21.79 21
  285.2 14.05 14
  285.4 2.5 2
  285.5 7.7 7
  285.6 17.02 17
  285.7 23.71 23
  285.8 22.85 22
  285.9 15.38 15
  286.1 7.77 7
  286.2 14.25 14
  286.3 21.39 21
  286.4 23.1 23
  286.5 18.64 18
  286.8 11.95 11
  286.9 16.93 16
  287.0 20.33 20
  287.1 19.59 19
  287.2 15.53 15
  287.4 11.53 11
  287.5 15.24 15
  287.6 19.47 19
  287.7 20.08 20
  287.8 16.3 16
  288.1 11.19 11
  288.2 15.92 15
  288.3 19.54 19
  288.4 19.2 19
  288.5 14.97 14
  288.7 11.8 11
  288.8 17.72 17
  288.9 23.32 23
  289.0 22.71 22
  289.1 15.62 15
  289.3 5.43 5
  289.4 10.15 10
  289.5 17.38 17
  289.6 20.85 20
  289.7 17.87 17
  289.8 11.17 11
  290.0 8.85 8
  290.1 15.89 15
  290.2 21.57 21
  290.3 20.94 20
  290.4 15.6 15
  290.6 13.57 13
  290.7 19.63 19
  290.8 24.29 24
  290.9 23.35 23
  291.0 17.22 17
  291.2 9.14 9
  291.3 13.6 13
  291.4 20.19 20
  291.5 22.71 22
  291.6 18.51 18
  291.9 9.37 9
  292.0 17.45 17
  292.1 24.34 24
  292.2 24.67 24
  292.3 19.05 19
  293.1 8.51 8
  293.2 12.04 12
  293.3 18.37 18
  293.4 21.99 21
  293.5 19.43 19
  293.6 12.31 12
  293.8 7.18 7
  293.9 14.57 14
  294.0 22.4 22
  294.1 23.37 23
  294.2 16.41 16
  294.5 8.73 8
  294.6 15.83 15
  294.7 20.24 20
  294.8 18.53 18
  294.9 12.11 12
  295.1 7.05 7
  295.2 13.89 13
  295.3 21.77 21
  295.4 23.95 23
  295.5 18.14 18
  296.3 3.87 3
  296.4 8.76 8
  296.5 18.78 18
  296.6 26.2 26
  296.7 25.15 25
  296.8 16.66 16
  297.0 5.83 5
  297.1 11.3 11
  297.2 18.91 18
  297.3 21.68 21
  297.4 17.33 17
  297.6 8.55 8
  297.7 13.06 13
  297.8 19.61 19
  297.9 22.02 21
  298.0 18.46 18
  298.3 12.13 12
  298.4 19.47 19
  298.5 25.35 25
  298.6 24.34 24
  298.7 16.97 16
  298.9 8.69 8
  299.0 14.43 14
  299.1 21.52 21
  299.2 23.28 23
  299.3 17.13 17
  299.6 6.93 6
  299.7 17.27 17
  299.8 23.62 23
  299.9 19.92 19
  300.0 9.41 9
  300.2 3.6 3
  300.3 13.98 13
  300.4 24.38 24
  300.5 26.86 26
  300.6 20.58 20
  300.8 10.0 9
  300.9 15.51 15
  301.0 22.96 22
  301.1 24.43 24
  301.2 17.74 17
  301.5 8.78 8
  301.6 16.88 16
  301.7 21.9 21
  301.8 19.86 19
  301.9 13.42 13
  302.1 10.42 10
  302.2 16.37 16
  302.3 21.9 21
  302.4 22.4 22
  302.5 16.68 16
  302.7 4.75 4
  302.8 9.23 9
  302.9 18.66 18
  303.0 25.03 25
  303.1 22.74 22
  303.2 14.03 14
  303.4 6.12 6
  303.5 12.65 12
  303.6 19.88 19
  303.7 21.59 21
  303.8 16.66 16
  304.0 7.38 7
  304.1 11.41 11
  304.2 18.55 18
  304.3 22.83 22
  304.4 20.49 20
  304.5 13.67 13
  304.7 10.22 10
  304.8 16.86 16
  304.9 22.33 22
  305.0 21.23 21
  305.1 14.03 14
  305.3 5.18 5
  305.4 10.22 10
  305.5 17.51 17
  305.6 21.05 21
  305.7 18.03 18
  306.0 12.0 11
  306.1 19.59 19
  306.2 24.36 24
  306.3 21.95 21
  306.4 14.16 14
  306.6 7.68 7
  306.7 13.78 13
  306.8 20.33 20
  306.9 21.84 21
  307.0 17.33 17
  307.3 11.64 11
  307.4 18.62 18
  307.5 22.51 22
  307.6 19.59 19
  307.7 12.76 12
  307.9 10.09 10
  308.0 14.93 14
  308.1 18.24 18
  308.2 17.09 17
  308.3 12.47 12
  308.5 8.53 8
  308.6 13.46 13
  308.7 19.25 19
  308.8 21.21 21
  308.9 17.76 17
  309.2 11.14 11
  309.3 17.36 17
  309.4 21.5 21
  309.5 19.45 19
  309.6 13.17 13
  309.8 8.94 8
  309.9 13.42 13
  310.0 17.58 17
  310.1 17.96 17
  310.2 13.71 13
  310.4 5.92 5
  310.5 10.92 10
  310.6 19.92 19
  310.7 25.39 25
  310.8 22.08 22
  310.9 12.58 12
  311.1 6.8 6
  311.2 14.23 14
  311.3 19.56 19
  311.4 17.36 17
  311.5 10.0 9
  311.7 5.63 5
  311.8 12.92 12
  311.9 21.45 21
  312.0 25.82 25
  312.1 23.57 23
  312.2 16.84 16
  312.4 10.67 10
  312.5 14.68 14
  312.6 18.98 18
  312.7 19.45 19
  312.8 15.47 15
  313.0 9.73 9
  313.1 14.03 14
  313.2 18.82 18
  313.3 18.35 18
  313.4 12.25 12
  313.6 4.57 4
  313.7 9.12 9
  313.8 15.96 15
  313.9 20.4 20
  314.0 20.33 20
  314.1 17.24 17
  314.3 15.26 15
  314.4 18.55 18
  314.5 21.41 21
  314.6 20.71 20
  314.7 16.19 16
  314.9 9.34 9
  315.0 12.63 12
  315.1 18.01 17
  315.2 20.08 20
  315.3 15.92 15
  315.6 9.5 9
  315.7 16.91 16
  315.8 21.88 21
  315.9 20.58 20
  316.0 13.98 13
  316.2 5.22 5
  316.3 10.06 10
  316.4 17.49 17
  316.5 20.73 20
  316.6 16.66 16
  316.8 6.15 6
  316.9 10.65 10
  317.0 18.64 18
  317.1 22.56 22
  317.2 18.8 18
  317.3 10.83 10
  317.5 7.27 7
  317.6 14.81 14
  317.7 22.11 22
  317.8 22.9 22
  317.9 16.3 16
  318.2 9.09 9
  318.3 17.24 17
  318.4 21.68 21
  318.5 18.78 18
  318.6 11.75 11
  318.8 9.59 9
  318.9 15.65 15
  319.0 19.59 19
  319.1 17.74 17
  319.2 12.16 12
  319.4 9.39 9
  319.5 14.93 14
  319.6 20.64 20
  319.7 22.69 22
  319.8 20.04 20
  320.7 8.28 8
  320.8 15.62 15
  320.9 20.96 20
  321.0 19.83 19
  321.1 13.91 13
  321.3 10.63 10
  321.4 16.39 16
  321.5 21.72 21
  321.6 22.96 22
  321.7 19.92 19
  322.0 14.5 14
  322.1 19.41 19
  322.2 22.51 22
  322.3 19.92 19
  322.4 12.92 12
  322.6 6.17 6
  322.7 10.74 10
  322.8 16.57 16
  322.9 19.32 19
  323.0 17.63 17
  323.2 12.38 12
  323.3 15.47 15
  323.4 20.8 20
  323.5 23.3 23
  323.6 20.01 19
  323.7 13.42 13
  323.9 10.47 10
  324.0 16.68 16
  324.1 23.17 23
  324.2 25.1 25
  324.3 21.0 20
  324.4 14.63 14
  325.2 9.93 9
  325.3 17.76 17
  325.4 22.96 22
  325.5 19.79 19
  325.6 10.6 10
  325.8 6.44 6
  325.9 15.2 15
  326.0 21.88 21
  326.1 19.77 19
  326.3 4.01 4
  326.4 9.39 9
  326.5 23.86 23
  326.6 34.71 34
  326.7 33.12 33
  326.8 22.29 22
  326.9 11.17 11
  327.1 8.44 8
  327.2 15.49 15
  327.3 21.09 21
  327.4 19.92 19
  327.5 12.94 12
  327.7 8.22 8
  327.8 16.03 16
  327.9 23.64 23
  328.0 24.18 24
  328.1 17.2 17
  328.3 6.46 6
  328.4 11.41 11
  328.5 19.61 19
  328.6 24.81 24
  328.7 23.1 23
  328.8 15.87 15
  329.0 8.46 8
  329.1 14.52 14
  329.2 21.0 20
  329.3 21.54 21
  329.4 15.26 15
  329.6 5.18 5
  329.7 11.55 11
  329.8 22.08 22
  329.9 27.71 27
  330.0 23.48 23
  330.1 13.62 13
  330.3 9.57 9
  330.4 16.86 16
  330.5 21.99 21
  330.6 20.64 20
  330.7 14.39 14
  330.9 7.83 7
  331.0 12.0 11
  331.1 16.32 16
  331.2 15.85 15
  331.3 10.49 10
  331.5 4.84 4
  331.6 10.36 10
  331.7 17.9 17
  331.8 21.95 21
  331.9 19.32 19
  332.0 11.71 11
  332.2 5.88 5
  332.3 13.26 13
  332.4 21.39 21
  332.5 23.5 23
  332.6 17.92 17
  332.9 8.6 8
  333.0 16.7 16
  333.1 22.02 21
  333.2 19.5 19
  333.3 11.48 11
  333.5 7.97 7
  333.6 16.05 16
  333.7 23.17 23
  333.8 24.02 23
  333.9 18.78 18
  334.8 7.02 7
  334.9 14.93 14
  335.0 21.48 21
  335.1 20.19 20
  335.2 12.92 12
  335.4 10.67 10
  335.5 19.07 19
  335.6 25.66 25
  335.7 24.61 24
  335.8 16.03 16
  336.1 6.82 6
  336.2 15.17 15
  336.3 19.5 19
  336.4 16.14 16
  336.7 9.14 9
  336.8 17.94 17
  336.9 24.29 24
  337.0 23.19 23
  337.1 16.41 16
  337.3 9.0 8
  337.4 12.83 12
  337.5 17.63 17
  337.6 19.18 19
  337.7 15.89 15
  338.0 8.6 8
  338.1 15.94 15
  338.2 22.62 22
  338.3 23.12 23
  338.4 16.77 16
  338.6 4.46 4
  338.7 8.64 8
  338.8 19.25 19
  338.9 28.46 28
  339.0 28.59 28
  339.1 20.8 20
  339.3 15.44 15
  339.4 21.77 21
  339.5 25.21 25
  339.6 21.86 21
  339.7 15.24 15
  340.5 7.5 7
  340.6 13.67 13
  340.7 19.79 19
  340.8 21.23 21
  340.9 16.7 16
  341.0 9.48 9
  341.2 7.65 7
  341.3 14.27 14
  341.4 18.26 18
  341.5 15.15 15
  341.7 5.16 5
  341.8 10.04 10
  341.9 19.11 19
  342.0 25.01 24
  342.1 23.53 23
  342.2 16.5 16
  343.0 6.3 6
  343.1 10.11 10
  343.2 15.87 15
  343.3 19.25 19
  343.4 18.19 18
  343.7 12.81 12
  343.8 17.45 17
  343.9 22.22 22
  344.0 22.81 22
  344.1 17.94 17
  344.4 11.12 11
  344.5 17.94 17
  344.6 22.11 22
  344.7 19.54 19
  344.8 12.36 12
  345.0 7.18 7
  345.1 12.79 12
  345.2 18.35 18
  345.3 19.02 19
  345.4 14.57 14
  345.6 8.4 8
  345.7 13.01 12
  345.8 19.32 19
  345.9 21.81 21
  346.0 18.1 18
  346.3 11.26 11
  346.4 18.44 18
  346.5 23.77 23
  346.6 23.28 23
  346.7 17.4 17
  347.5 9.21 9
  347.6 12.2 12
  347.7 18.46 18
  347.8 22.53 22
  347.9 20.04 20
  348.0 12.43 12
  348.2 6.84 6
  348.3 13.78 13
  348.4 21.07 21
  348.5 22.69 22
  348.6 17.45 17
  348.7 9.7 9
  348.9 8.33 8
  349.0 14.9 14
  349.1 19.43 19
  349.2 17.96 17
  349.3 11.98 11
  349.5 8.35 8
  349.6 14.88 14
  349.7 21.21 21
  349.8 21.52 21
  349.9 15.53 15
  350.1 8.24 8
  350.2 13.08 13
  350.3 18.51 18
  350.4 19.0 18
  350.5 13.69 13
  350.7 6.48 6
  350.8 12.49 12
  350.9 20.55 20
  351.0 23.95 23
  351.1 20.53 20
  351.2 13.96 13
  351.4 9.77 9
  351.5 12.99 12
  351.6 16.05 16
  351.7 16.23 16
  351.8 12.81 12
  352.0 7.65 7
  352.1 12.85 12
  352.2 21.21 21
  352.3 26.92 26
  352.4 25.69 25
  352.5 18.33 18
  352.7 8.98 8
  352.8 14.48 14
  352.9 21.75 21
  353.0 23.71 23
  353.1 18.46 18
  354.0 9.41 9
  354.1 17.65 17
  354.2 23.28 23
  354.3 21.39 21
  354.4 13.1 13
  354.6 4.25 4
  354.7 10.87 10
  354.8 18.51 18
  354.9 20.1 20
  355.0 15.24 15
  355.2 11.53 11
  355.3 19.11 19
  355.4 26.92 26
  355.5 28.25 28
  355.6 21.63 21
  355.7 12.13 12
  355.9 9.19 9
  356.0 16.75 16
  356.1 23.59 23
  356.2 24.49 24
  356.3 18.62 18
  356.4 10.51 10
  356.6 9.55 9
  356.7 15.65 15
  356.8 18.69 18
  356.9 15.87 15
  357.1 9.3 9
  357.2 13.8 13
  357.3 20.35 20
  357.4 23.19 23
  357.5 20.15 20
  357.6 13.69 13
  357.8 9.23 9
  357.9 15.04 15
  358.0 21.39 21
  358.1 22.49 22
  358.2 17.24 17
  358.4 8.4 8
  358.5 12.58 12
  358.6 19.02 19
  358.7 21.7 21
  358.8 17.96 17
  358.9 10.74 10
  359.1 8.8 8
  359.2 16.68 16
  359.3 22.87 22
  359.4 21.41 21
  359.5 13.3 13
  359.7 5.67 5
  359.8 12.09 12
  359.9 19.52 19
  360.0 22.11 22
  360.1 18.19 18
  360.3 7.9 7
  360.4 11.8 11
  360.5 20.8 20
  360.6 27.51 27
  360.7 25.89 25
  360.8 16.88 16
  361.0 6.87 6
  361.1 14.05 14
  361.2 23.23 23
  361.3 26.32 26
  361.4 20.82 20
  362.3 8.33 8
  362.4 17.02 17
  362.5 24.02 23
  362.6 23.19 23
  362.7 15.53 15
  362.9 8.06 8
  363.0 14.86 14
  363.1 22.13 22
  363.2 23.17 23
  363.3 17.33 17
  363.6 11.59 11
  363.7 18.3 18
  363.8 22.51 22
  363.9 21.57 21
  364.0 16.91 16
  364.8 5.65 5
  364.9 10.45 10
  365.0 18.19 18
  365.1 22.56 22
  365.2 19.79 19
  365.3 12.27 12
  365.5 6.93 6
  365.6 13.44 13
  365.7 19.92 19
  365.8 20.64 20
  365.9 15.08 15
  366.1 7.27 7
  366.2 14.86 14
  366.3 25.96 25
  366.4 31.27 31
  366.5 26.52 26
  366.6 17.02 17
  366.8 12.38 12
  366.9 17.15 17
  367.0 20.26 20
  367.1 18.75 18
  367.2 13.85 13
  367.4 9.7 9
  367.5 14.54 14
  367.6 20.64 20
  367.7 23.01 22
  367.8 19.36 19
  368.1 12.63 12
  368.2 20.06 20
  368.3 24.45 24
  368.4 20.67 20
  368.5 11.01 10
  368.7 5.2 5
  368.8 13.21 13
  368.9 20.28 20
  369.0 20.78 20
  369.1 15.65 15
  369.3 9.48 9
  369.4 13.73 13
  369.5 19.54 19
  369.6 21.93 21
  369.7 18.33 18
  369.8 10.96 10
  370.0 6.82 6
  370.1 12.99 12
  370.2 18.53 18
  370.3 18.57 18
  370.4 13.51 13
  370.6 9.52 9
  370.7 15.87 15
  370.8 22.67 22
  370.9 24.0 23
  371.0 18.3 18
  371.1 10.0 9
  371.3 6.91 6
  371.4 12.27 12
  371.5 15.92 15
  371.6 14.5 14
  371.8 7.99 7
  371.9 11.44 11
  372.0 17.27 17
  372.1 19.47 19
  372.2 15.49 15
  372.3 8.62 8
  372.5 5.18 5
  372.6 10.15 10
  372.7 15.87 15
  372.8 18.98 18
  372.9 17.36 17
  373.0 11.91 11
  373.2 7.74 7
  373.3 13.46 13
  373.4 18.71 18
  373.5 18.1 18
  373.6 11.75 11
  373.8 4.41 4
  373.9 9.86 9
  374.0 16.93 16
  374.1 19.32 19
  374.2 14.81 14
  374.4 5.45 5
  374.5 10.63 10
  374.6 19.54 19
  374.7 25.28 25
  374.8 23.57 23
  374.9 15.83 15
  375.1 5.97 5
  375.2 10.65 10
  375.3 17.22 17
  375.4 19.65 19
  375.5 16.37 16
  375.7 10.4 10
  375.8 14.34 14
  375.9 19.65 19
  376.0 21.52 21
  376.1 18.08 18
  376.4 11.93 11
  376.5 18.26 18
  376.6 22.69 22
  376.7 21.07 21
  376.8 14.52 14
  377.0 7.74 7
  377.1 12.97 12
  377.2 19.41 19
  377.3 21.14 21
  377.4 16.39 16
  377.7 8.98 8
  377.8 15.69 15
  377.9 19.7 19
  378.0 17.18 17
  378.3 9.57 9
  378.4 15.98 15
  378.5 19.86 19
  378.6 17.24 17
  378.7 10.69 10
  378.9 8.15 8
  379.0 14.32 14
  379.1 20.01 19
  379.2 21.61 21
  379.3 18.75 18
  379.4 13.57 13
  379.6 10.56 10
  379.7 15.51 15
  379.8 19.72 19
  379.9 18.19 18
  380.0 11.66 11
  380.2 8.04 8
  380.3 16.1 16
  380.4 24.11 24
  380.5 25.33 25
  380.6 18.39 18
  380.9 9.64 9
  381.0 17.65 17
  381.1 21.77 21
  381.2 18.62 18
  381.3 11.37 11
  381.5 7.68 7
  381.6 13.87 13
  381.7 19.52 19
  381.8 19.9 19
  381.9 15.04 15
  382.1 8.94 8
  382.2 13.39 13
  382.3 18.71 18
  382.4 19.72 19
  382.5 14.97 14
  382.8 6.26 6
  382.9 14.32 14
  383.0 21.5 21
  383.1 21.23 21
  383.2 13.48 13
  383.4 3.87 3
  383.5 10.67 10
  383.6 19.88 19
  383.7 23.86 23
  383.8 19.9 19
  383.9 12.54 12
  384.1 11.89 11
  384.2 17.63 17
  384.3 20.35 20
  384.4 17.51 17
  384.7 11.14 11
  384.8 18.05 18
  384.9 23.53 23
  385.0 22.71 22
  385.1 16.07 16
  385.3 7.77 7
  385.4 12.92 12
  385.5 19.83 19
  385.6 21.72 21
  385.7 16.28 16
  385.9 5.22 5
  386.0 10.15 10
  386.1 19.14 19
  386.2 24.99 24
  386.3 23.41 23
  386.4 16.23 16
  386.6 9.3 9
  386.7 13.78 13
  386.8 17.49 17
  386.9 16.23 16
  387.0 11.1 11
  387.2 5.2 5
  387.3 8.19 8
  387.4 14.12 14
  387.5 19.56 19
  387.6 20.51 20
  387.7 16.32 16
  387.9 11.55 11
  388.0 15.98 15
  388.1 19.88 19
  388.2 18.71 18
  388.3 12.56 12
  388.5 3.04 3
  388.6 6.93 6
  388.7 14.34 14
  388.8 18.73 18
  388.9 16.37 16
  389.1 7.99 7
  389.2 12.04 12
  389.3 18.66 18
  389.4 21.88 21
  389.5 19.43 19
  389.6 13.91 13
  389.8 9.93 9
  389.9 14.21 14
  390.0 19.5 19
  390.1 21.3 21
  390.2 17.49 17
  390.3 10.72 10
  390.5 8.91 8
  390.6 15.51 15
  390.7 20.24 20
  390.8 18.24 18
  391.1 10.67 10
  391.2 18.62 18
  391.3 24.18 24
  391.4 22.4 22
  391.5 14.97 14
  391.7 9.12 9
  391.8 16.48 16
  391.9 24.02 23
  392.0 24.0 23
  392.1 14.88 14
  392.3 0.0 0
  392.4 6.84 6
  392.5 18.28 18
  392.6 24.81 24
  392.7 21.68 21
  392.8 12.49 12
  393.0 7.61 7
  393.1 15.42 15
  393.2 21.79 21
  393.3 21.03 21
  393.4 14.03 14
  393.6 5.43 5
  393.7 10.94 10
  393.8 19.29 19
  393.9 24.25 24
  394.0 22.4 22
  394.1 15.58 15
  394.3 7.99 7
  394.4 11.93 11
  394.5 17.42 17
  394.6 20.22 20
  394.7 18.57 18
  395.6 6.1 6
  395.7 12.67 12
  395.8 18.12 18
  395.9 17.78 17
  396.0 12.72 12
  396.2 9.32 9
  396.3 14.54 14
  396.4 19.32 19
  396.5 19.36 19
  396.6 14.84 14
  396.8 9.77 9
  396.9 13.98 13
  397.0 18.91 18
  397.1 19.74 19
  397.2 14.95 14
  397.4 5.34 5
  397.5 10.51 10
  397.6 20.37 20
  397.7 27.22 27
  397.8 25.19 25
  397.9 15.24 15
  398.1 1.35 1
  398.2 8.15 8
  398.3 19.34 19
  398.4 25.51 25
  398.5 21.93 21
  398.6 12.85 12
  398.8 9.48 9
  398.9 16.95 16
  399.0 22.49 22
  399.1 21.81 21
  399.2 16.43 16
  399.4 11.01 10
  399.5 14.99 14
  399.6 19.34 19
  399.7 19.11 19
  399.8 13.06 13
  400.0 5.13 5
  400.1 12.58 12
  400.2 22.74 22
  400.3 27.29 27
  400.4 23.26 23
  400.5 14.97 14
  400.7 10.06 10
  400.8 14.9 14
  400.9 18.53 18
  401.0 16.61 16
  401.3 8.78 8
  401.4 16.77 16
  401.5 24.22 24
  401.6 25.44 25
  401.7 19.61 19
  401.9 8.31 8
  402.0 13.67 13
  402.1 23.39 23
  402.2 29.11 29
  402.3 25.64 25
  402.4 15.76 15
  402.6 7.79 7
  402.7 14.52 14
  402.8 20.69 20
  402.9 20.4 20
  403.0 14.34 14
  403.2 8.51 8
  403.3 14.12 14
  403.4 20.76 20
  403.5 22.96 22
  403.6 18.91 18
  403.9 12.4 12
  404.0 18.78 18
  404.1 22.08 22
  404.2 19.27 19
  404.3 12.45 12
  404.5 6.3 6
  404.6 12.25 12
  404.7 20.26 20
  404.8 23.37 23
  404.9 17.99 17
  405.2 7.27 7
  405.3 17.6 17
  405.4 24.9 24
  405.5 23.1 23
  405.6 14.61 14
  405.8 8.55 8
  405.9 15.89 15
  406.0 22.58 22
  406.1 22.71 22
  406.2 16.61 16
  406.5 9.7 9
  406.6 15.62 15
  406.7 20.26 20
  406.8 20.98 20
  406.9 18.37 18
  407.1 15.8 15
  407.2 19.02 19
  407.3 21.45 21
  407.4 19.43 19
  407.5 13.78 13
  407.7 10.67 10
  407.8 15.13 15
  407.9 19.07 19
  408.0 19.77 19
  408.1 16.97 16
  408.4 11.44 11
  408.5 17.51 17
  408.6 23.1 23
  408.7 22.85 22
  408.8 16.23 16
  409.0 7.47 7
  409.1 13.01 12
  409.2 19.9 19
  409.3 21.77 21
  409.4 17.51 17
  409.5 11.32 11
  409.7 8.51 8
  409.8 12.09 12
  409.9 15.89 15
  410.0 17.47 17
  410.1 16.41 16
  410.2 14.84 14
  410.3 15.26 15
  410.4 18.28 18
  410.5 21.75 21
  410.6 22.17 22
  410.7 17.74 17
  411.0 11.05 11
  411.1 17.31 17
  411.2 20.13 20
  411.3 17.22 17
  411.5 10.76 10
  411.6 14.43 14
  411.7 20.6 20
  411.8 24.04 24
  411.9 21.45 21
  412.0 14.79 14
  412.2 10.27 10
  412.3 15.33 15
  412.4 20.49 20
  412.5 21.52 21
  412.6 17.72 17
  412.8 11.14 11
  412.9 14.61 14
  413.0 19.45 19
  413.1 20.71 20
  413.2 17.02 17
  413.5 12.45 12
  413.6 17.56 17
  413.7 21.14 21
  413.8 20.06 20
  413.9 14.59 14
  414.1 8.78 8
  414.2 14.07 14
  414.3 20.22 20
  414.4 21.72 21
  414.5 17.63 17
  414.8 11.05 11
  414.9 16.55 16
  415.0 20.82 20
  415.1 20.17 20
  415.2 14.84 14
  415.4 9.77 9
  415.5 15.31 15
  415.6 20.91 20
  415.7 21.32 21
  415.8 16.52 16
  416.0 9.61 9
  416.1 13.42 13
  416.2 19.45 19
  416.3 22.29 22
  416.4 18.44 18
  416.5 10.31 10
  416.7 7.88 7
  416.8 16.77 16
  416.9 23.91 23
  417.0 23.03 23
  417.1 14.81 14
  417.3 4.66 4
  417.4 10.9 10
  417.5 19.16 19
  417.6 22.44 22
  417.7 18.87 18
  417.8 12.76 12
  418.0 11.95 11
  418.1 16.88 16
  418.2 19.88 19
  418.3 17.83 17
  418.4 11.66 11
  418.6 7.34 7
  418.7 14.86 14
  418.8 22.9 22
  418.9 24.13 24
  419.0 17.4 17
  419.3 9.61 9
  419.4 15.85 15
  419.5 19.02 19
  419.6 16.84 16
  419.7 11.17 11
  419.9 7.38 7
  420.0 12.99 12
  420.1 17.96 17
  420.2 16.97 16
  420.3 10.69 10
  420.5 7.02 7
  420.6 15.29 15
  420.7 23.64 23
  420.8 24.9 24
  420.9 17.65 17
  421.1 5.34 5
  421.2 11.21 11
  421.3 20.44 20
  421.4 24.72 24
  421.5 20.28 20
  421.6 10.99 10
  421.8 7.59 7
  421.9 16.43 16
  422.0 23.75 23
  422.1 23.73 23
  422.2 17.45 17
  422.4 9.23 9
  422.5 14.12 14
  422.6 21.9 21
  422.7 26.23 26
  422.8 22.99 22
  422.9 14.72 14
  423.1 8.28 8
  423.2 13.57 13
  423.3 19.18 19
  423.4 20.13 20
  423.5 15.47 15
  423.7 8.67 8
  423.8 13.51 13
  423.9 19.65 19
  424.0 21.18 21
  424.1 16.23 16
  424.4 7.86 7
  424.5 15.56 15
  424.6 20.85 20
  424.7 19.34 19
  424.8 12.76 12
  425.0 7.14 7
  425.1 13.44 13
  425.2 20.69 20
  425.3 22.22 22
  425.4 15.96 15
  425.6 4.41 4
  425.7 10.54 10
  425.8 20.49 20
  425.9 25.53 25
  426.0 21.5 21
  426.1 12.29 12
  426.3 7.27 7
  426.4 13.89 13
  426.5 19.61 19
  426.6 19.65 19
  426.7 14.0 13
  426.9 5.18 5
  427.0 10.09 10
  427.1 17.78 17
  427.2 21.34 21
  427.3 17.9 17
  427.6 11.44 11
  427.7 16.82 16
  427.8 20.01 19
  427.9 18.6 18
  428.0 13.73 13
  428.2 8.98 8
  428.3 13.98 13
  428.4 20.6 20
  428.5 23.35 23
  428.6 19.7 19
  429.5 8.53 8
  429.6 15.65 15
  429.7 20.94 20
  429.8 19.92 19
  429.9 13.48 13
  430.1 7.79 7
  430.2 14.05 14
  430.3 20.4 20
  430.4 21.34 21
  430.5 16.82 16
  430.7 9.97 9
  430.8 13.15 13
  430.9 18.17 18
  431.0 20.96 20
  431.1 19.29 19
  431.2 14.14 14
  431.4 8.98 8
  431.5 13.96 13
  431.6 19.61 19
  431.7 19.92 19
  431.8 14.05 14
  432.0 6.71 6
  432.1 12.79 12
  432.2 20.98 20
  432.3 24.76 24
  432.4 21.48 21
  432.7 14.88 14
  432.8 22.24 22
  432.9 26.41 26
  433.0 22.71 22
  433.1 13.48 13
  433.3 5.97 5
  433.4 12.4 12
  433.5 19.16 19
  433.6 20.28 20
  433.7 14.52 14
  434.0 5.7 5
  434.1 14.93 14
  434.2 21.86 21
  434.3 20.17 20
  434.4 11.44 11
  434.6 4.39 4
  434.7 11.89 11
  434.8 19.59 19
  434.9 21.25 21
  435.0 15.89 15
  435.8 5.13 5
  435.9 9.7 9
  436.0 17.6 17
  436.1 22.31 22
  436.2 19.79 19
  436.3 11.66 11
  436.5 4.64 4
  436.6 12.94 12
  436.7 22.85 22
  436.8 25.62 25
  436.9 18.42 18
  437.0 7.32 7
  437.2 5.83 5
  437.3 15.11 15
  437.4 20.96 20
  437.5 18.82 18
  437.6 11.5 11
  437.8 8.28 8
  437.9 16.79 16
  438.0 25.33 25
  438.1 26.77 26
  438.2 19.74 19
  439.1 6.37 6
  439.2 14.25 14
  439.3 20.53 20
  439.4 19.95 19
  439.5 14.03 14
  439.7 8.69 8
  439.8 13.17 13
  439.9 18.17 18
  440.0 19.27 19
  440.1 14.97 14
  440.4 9.3 9
  440.5 16.32 16
  440.6 21.16 21
  440.7 19.88 19
  440.8 13.1 13
  441.0 5.52 5
  441.1 11.75 11
  441.2 19.09 19
  441.3 20.6 20
  441.4 15.65 15
  441.6 8.6 8
  441.7 12.74 12
  441.8 18.69 18
  441.9 21.57 21
  442.0 18.53 18
  442.1 11.01 10
  442.3 5.34 5
  442.4 12.49 12
  442.5 20.1 20
  442.6 21.48 21
  442.7 16.07 16
  442.9 8.19 8
  443.0 12.81 12
  443.1 19.29 19
  443.2 22.15 22
  443.3 18.39 18
  443.6 10.74 10
  443.7 19.61 19
  443.8 25.48 25
  443.9 23.5 23
  444.0 16.16 16
  444.2 11.68 11
  444.3 18.37 18
  444.4 23.91 23
  444.5 22.65 22
  444.6 15.29 15
  444.8 7.54 7
  444.9 12.74 12
  445.0 18.6 18
  445.1 20.08 20
  445.2 16.55 16
  445.5 11.39 11
  445.6 17.54 17
  445.7 22.87 22
  445.8 22.94 22
  445.9 17.49 17
  446.1 9.25 9
  446.2 13.1 13
  446.3 19.0 18
  446.4 21.54 21
  446.5 18.51 18
  447.4 8.53 8
  447.5 15.11 15
  447.6 20.44 20
  447.7 20.58 20
  447.8 16.07 16
  448.0 10.65 10
  448.1 14.77 14
  448.2 20.51 20
  448.3 23.21 23
  448.4 20.44 20
  448.5 14.21 14
  448.7 10.42 10
  448.8 15.76 15
  448.9 20.89 20
  449.0 20.96 20
  449.1 15.62 15
  449.3 7.63 7
  449.4 12.34 12
  449.5 19.95 19
  449.6 23.86 23
  449.7 20.04 20
  449.8 10.87 10
  450.0 5.9 5
  450.1 14.97 14
  450.2 23.71 23
  450.3 24.85 24
  450.4 17.96 17
  451.2 7.02 7
  451.3 11.62 11
  451.4 19.61 19
  451.5 24.38 24
  451.6 21.72 21
  451.7 13.57 13
  451.9 6.71 6
  452.0 13.24 13
  452.1 19.97 19
  452.2 20.67 20
  452.3 15.35 15
  452.5 8.96 8
  452.6 13.51 13
  452.7 19.63 19
  452.8 22.83 22
  452.9 20.55 20
  453.0 14.66 14
  453.2 11.55 11
  453.3 17.49 17
  453.4 22.29 22
  453.5 20.91 20
  453.6 14.32 14
  453.8 9.48 9
  453.9 16.14 16
  454.0 22.47 22
  454.1 22.35 22
  454.2 15.49 15
  454.4 5.83 5
  454.5 12.07 12
  454.6 21.57 21
  454.7 26.5 26
  454.8 22.78 22
  454.9 13.94 13
  455.1 9.0 8
  455.2 15.53 15
  455.3 20.91 20
  455.4 19.97 19
  455.5 13.28 13
  455.7 6.39 6
  455.8 12.52 12
  455.9 19.92 19
  456.0 22.65 22
  456.1 19.2 19
  457.0 11.12 11
  457.1 18.62 18
  457.2 25.75 25
  457.3 26.09 26
  457.4 18.37 18
  457.7 8.51 8
  457.8 17.63 17
  457.9 23.03 23
  458.0 20.87 20
  458.1 14.36 14
  458.3 12.36 12
  458.4 19.14 19
  458.5 24.22 24
  458.6 22.24 22
  458.7 13.98 13
  458.9 4.39 4
  459.0 11.01 10
  459.1 20.42 20
  459.2 25.19 25
  459.3 21.95 21
  459.4 14.21 14
  459.6 10.15 10
  459.7 16.66 16
  459.8 22.62 22
  459.9 23.21 23
  460.0 18.84 18
  460.2 13.3 13
  460.3 16.52 16
  460.4 20.15 20
  460.5 19.47 19
  460.6 13.55 13
  460.8 5.63 5
  460.9 11.08 11
  461.0 18.05 18
  461.1 20.62 20
  461.2 17.18 17
  461.5 11.1 11
  461.6 18.89 18
  461.7 25.44 25
  461.8 25.33 25
  461.9 18.93 18
  462.1 10.38 10
  462.2 14.9 14
  462.3 21.12 21
  462.4 23.1 23
  462.5 18.42 18
  462.8 10.33 10
  462.9 18.26 18
  463.0 23.73 23
  463.1 22.17 22
  463.2 15.11 15
  463.4 7.47 7
  463.5 12.72 12
  463.6 18.87 18
  463.7 19.11 19
  463.8 12.45 12
  464.0 6.82 6
  464.1 15.33 15
  464.2 23.46 23
  464.3 24.31 24
  464.4 18.28 18
  464.5 11.14 11
  464.7 9.97 9
  464.8 14.45 14
  464.9 17.54 17
  465.0 16.59 16
  465.1 12.2 12
  465.3 9.0 8
  465.4 14.3 14
  465.5 20.13 20
  465.6 22.15 22
  465.7 18.75 18
  465.8 12.43 12
  466.0 10.09 10
  466.1 16.84 16
  466.2 21.95 21
  466.3 19.47 19
  466.4 10.76 10
  466.6 5.07 5
  466.7 13.01 12
  466.8 19.56 19
  466.9 18.98 18
  467.0 13.17 13
  467.2 10.22 10
  467.3 16.12 16
  467.4 21.63 21
  467.5 22.29 22
  467.6 17.27 17
  467.7 10.36 10
  467.9 8.53 8
  468.0 13.57 13
  468.1 17.94 17
  468.2 18.39 18
  468.3 14.63 14
  468.5 7.54 7
  468.6 10.81 10
  468.7 16.86 16
  468.8 20.31 20
  468.9 17.74 17
  469.2 10.22 10
  469.3 17.0 16
  469.4 21.0 20
  469.5 17.87 17
  469.6 9.91 9
  469.8 6.12 6
  469.9 13.78 13
  470.0 20.49 20
  470.1 20.8 20
  470.2 15.29 15
  470.4 8.04 8
  470.5 12.79 12
  470.6 19.72 19
  470.7 23.23 23
  470.8 20.87 20
  470.9 15.26 15
  471.1 10.56 10
  471.2 13.64 13
  471.3 17.24 17
  471.4 17.83 17
  471.5 14.43 14
  471.7 9.16 9
  471.8 12.99 12
  471.9 18.46 18
  472.0 20.73 20
  472.1 17.54 17
  472.9 9.68 9
  473.0 12.58 12
  473.1 18.1 18
  473.2 22.6 22
  473.3 22.29 22
  473.4 16.39 16
  473.6 6.78 6
  473.7 11.46 11
  473.8 18.71 18
  473.9 21.5 21
  474.0 17.15 17
  474.3 9.86 9
  474.4 17.85 17
  474.5 23.35 23
  474.6 21.66 21
  474.7 14.21 14
  474.9 6.66 6
  475.0 12.56 12
  475.1 19.27 19
  475.2 20.67 20
  475.3 15.94 15
  475.5 7.38 7
  475.6 11.14 11
  475.7 18.24 18
  475.8 22.71 22
  475.9 20.42 20
  476.0 13.19 13
  476.2 9.57 9
  476.3 16.34 16
  476.4 22.2 22
  476.5 22.15 22
  476.6 16.1 16
  476.8 6.69 6
  476.9 12.07 12
  477.0 20.8 20
  477.1 25.21 25
  477.2 21.05 21
  477.3 11.68 11
  477.5 6.89 6
  477.6 14.97 14
  477.7 21.99 21
  477.8 21.7 21
  477.9 14.36 14
  478.1 6.33 6
  478.2 13.24 13
  478.3 21.12 21
  478.4 23.03 23
  478.5 17.78 17
  478.8 10.99 10
  478.9 17.87 17
  479.0 22.49 22
  479.1 21.21 21
  479.2 14.95 14
  479.4 8.8 8
  479.5 15.29 15
  479.6 22.71 22
  479.7 23.84 23
  479.8 17.09 17
  480.0 6.8 6
  480.1 12.76 12
  480.2 20.71 20
  480.3 23.03 23
  480.4 17.78 17
  480.5 9.66 9
  480.7 7.0 6
  480.8 12.52 12
  480.9 16.59 16
  481.0 15.76 15
  481.1 10.87 10
  481.3 7.72 7
  481.4 13.82 13
  481.5 19.95 19
  481.6 20.78 20
  481.7 15.2 15
  482.0 6.62 6
  482.1 14.66 14
  482.2 20.58 20
  482.3 19.0 18
  482.4 11.21 11
  482.6 5.18 5
  482.7 12.81 12
  482.8 21.16 21
  482.9 24.09 24
  483.0 20.06 20
  483.1 12.7 12
  483.3 9.88 9
  483.4 16.1 16
  483.5 20.31 20
  483.6 18.37 18
  483.7 12.31 12
  483.9 9.46 9
  484.0 15.96 15
  484.1 22.62 22
  484.2 23.64 23
  484.3 17.72 17
  484.6 10.69 10
  484.7 16.07 16
  484.8 18.42 18
  484.9 16.48 16
  485.1 11.3 11
  485.2 13.76 13
  485.3 18.87 18
  485.4 22.47 22
  485.5 21.21 21
  485.6 16.1 16
  485.8 13.71 13
  485.9 19.25 19
  486.0 23.75 23
  486.1 22.65 22
  486.2 15.89 15
  486.4 6.44 6
  486.5 12.07 12
  486.6 20.31 20
  486.7 23.12 23
  486.8 17.49 17
  487.1 7.92 7
  487.2 17.13 17
  487.3 24.54 24
  487.4 24.54 24
  487.5 17.04 17
  487.8 9.3 9
  487.9 15.62 15
  488.0 18.37 18
  488.1 16.39 16
  488.3 11.59 11
  488.4 14.09 14
  488.5 18.51 18
  488.6 20.64 20
  488.7 17.42 17
  489.0 8.87 8
  489.1 16.55 16
  489.2 23.77 23
  489.3 25.53 25
  489.4 20.91 20
  490.3 10.02 10
  490.4 17.76 17
  490.5 24.58 24
  490.6 24.65 24
  490.7 17.42 17
  491.0 9.97 9
  491.1 16.66 16
  491.2 20.04 20
  491.3 17.9 17
  491.6 12.13 12
  491.7 16.91 16
  491.8 19.74 19
  491.9 17.49 17
  492.0 11.48 11
  492.2 6.44 6
  492.3 10.94 10
  492.4 16.48 16
  492.5 18.96 18
  492.6 16.5 16
  492.8 8.94 8
  492.9 12.79 12
  493.0 20.71 20
  493.1 25.48 25
  493.2 21.63 21
  493.3 11.84 11
  493.5 6.87 6
  493.6 16.28 16
  493.7 24.74 24
  493.8 25.08 25
  493.9 17.09 17
  494.1 5.72 5
  494.2 12.04 12
  494.3 21.0 20
  494.4 24.43 24
  494.5 19.2 19
  494.8 9.43 9
  494.9 17.9 17
  495.0 23.8 23
  495.1 22.92 22
  495.2 17.27 17
  495.4 13.26 13
  495.5 18.3 18
  495.6 23.05 23
  495.7 22.42 22
  495.8 15.4 15
  496.0 4.82 4
  496.1 10.45 10
  496.2 18.51 18
  496.3 21.45 21
  496.4 17.29 17
  497.3 2.68 2
  497.4 8.6 8
  497.5 17.42 17
  497.6 22.06 22
  497.7 18.8 18
  497.8 10.58 10
  498.0 6.96 6
  498.1 14.68 14
  498.2 21.16 21
  498.3 21.23 21
  498.4 15.76 15
  498.6 9.12 9
  498.7 13.57 13
  498.8 19.7 19
  498.9 22.53 22
  499.0 19.65 19
  499.1 13.44 13
  499.3 11.28 11
  499.4 16.88 16
  499.5 20.1 20
  499.6 17.42 17
  499.9 11.89 11
  500.0 18.33 18
  500.1 23.57 23
  500.2 23.62 23
  500.3 18.33 18
  500.5 10.11 10
  500.6 14.23 14
  500.7 20.28 20
  500.8 22.17 22
  500.9 17.87 17
  501.1 9.21 9
  501.2 13.62 13
  501.3 20.62 20
  501.4 23.53 23
  501.5 19.74 19
  501.6 12.99 12
  501.8 10.24 10
  501.9 15.08 15
  502.0 19.09 19
  502.1 18.69 18
  502.2 13.51 13
  502.4 3.58 3
  502.5 7.27 7
  502.6 15.69 15
  502.7 21.41 21
  502.8 18.71 18
  502.9 10.47 10
  503.1 8.82 8
  503.2 16.79 16
  503.3 22.47 22
  503.4 22.2 22
  503.5 17.22 17
  503.7 11.01 10
  503.8 15.65 15
  503.9 21.45 21
  504.0 22.02 21
  504.1 16.19 16
  504.3 8.08 8
  504.4 12.9 12
  504.5 19.77 19
  504.6 23.35 23
  504.7 20.8 20
  504.8 13.76 13
  505.0 7.0 6
  505.1 13.33 13
  505.2 21.72 21
  505.3 24.79 24
  505.4 18.98 18
  505.7 8.06 8
  505.8 17.94 17
  505.9 24.4 24
  506.0 22.17 22
  506.1 14.3 14
  506.3 10.49 10
  506.4 16.66 16
  506.5 20.51 20
  506.6 18.03 18
  506.7 11.62 11
  506.9 8.82 8
  507.0 14.68 14
  507.1 19.86 19
  507.2 20.08 20
  507.3 14.99 14
  507.5 6.15 6
  507.6 10.18 10
  507.7 17.4 17
  507.8 21.72 21
  507.9 19.72 19
  508.0 13.6 13
  508.2 10.22 10
  508.3 16.14 16
  508.4 21.52 21
  508.5 21.12 21
  508.6 14.88 14
  508.8 6.6 6
  508.9 11.23 11
  509.0 18.01 17
  509.1 21.52 21
  509.2 19.23 19
  509.3 13.46 13
  509.5 10.04 10
  509.6 14.32 14
  509.7 18.14 18
  509.8 18.21 18
  509.9 14.52 14
  510.1 10.65 10
  510.2 15.29 15
  510.3 20.64 20
  510.4 21.59 21
  510.5 16.73 16
  510.8 9.12 9
  510.9 17.0 16
  511.0 23.3 23
  511.1 22.71 22
  511.2 15.78 15
  511.4 8.42 8
  511.5 14.97 14
  511.6 22.06 22
  511.7 22.6 22
  511.8 15.98 15
  512.0 7.11 7
  512.1 12.38 12
  512.2 19.07 19
  512.3 21.25 21
  512.4 17.58 17
  513.3 7.2 7
  513.4 14.27 14
  513.5 21.54 21
  513.6 24.09 24
  513.7 20.08 20
  513.8 12.04 12
  514.0 6.69 6
  514.1 13.26 13
  514.2 19.38 19
  514.3 19.52 19
  514.4 14.3 14
  514.6 9.75 9
  514.7 15.87 15
  514.8 22.6 22
  514.9 23.5 23
  515.0 17.27 17
  515.2 7.41 7
  515.3 12.7 12
  515.4 20.6 20
  515.5 24.58 24
  515.6 21.5 21
  515.7 13.87 13
  515.9 7.9 7
  516.0 14.03 14
  516.1 20.22 20
  516.2 20.49 20
  516.3 14.75 14
  516.5 9.57 9
  516.6 16.55 16
  516.7 23.98 23
  516.8 25.15 25
  516.9 18.78 18
  517.1 8.1 8
  517.2 13.37 13
  517.3 20.91 20
  517.4 23.8 23
  517.5 19.7 19
  517.6 12.27 12
  517.8 8.87 8
  517.9 14.68 14
  518.0 19.83 19
  518.1 20.44 20
  518.2 16.39 16
  518.5 11.21 11
  518.6 17.58 17
  518.7 21.66 21
  518.8 19.61 19
  518.9 13.91 13
  519.1 12.31 12
  519.2 16.59 16
  519.3 18.57 18
  519.4 16.43 16
  519.5 12.09 12
  519.7 9.73 9
  519.8 13.94 13
  519.9 17.99 17
  520.0 17.36 17
  520.1 11.55 11
  520.3 6.1 6
  520.4 12.83 12
  520.5 21.34 21
  520.6 26.0 25
  520.7 23.89 23
  520.8 16.68 16
  521.0 8.1 8
  521.1 12.7 12
  521.2 18.98 18
  521.3 21.07 21
  521.4 17.13 17
  521.6 9.93 9
  521.7 14.77 14
  521.8 21.52 21
  521.9 24.09 24
  522.0 20.22 20
  522.1 12.97 12
  522.3 9.93 9
  522.4 16.61 16
  522.5 21.86 21
  522.6 20.44 20
  522.7 13.71 13
  522.9 10.29 10
  523.0 17.4 17
  523.1 23.89 23
  523.2 24.34 24
  523.3 17.87 17
  523.6 8.17 8
  523.7 17.4 17
  523.8 24.9 24
  523.9 24.97 24
  524.0 18.08 18
  524.2 7.68 7
  524.3 12.45 12
  524.4 19.45 19
  524.5 21.39 21
  524.6 15.69 15
  524.8 4.57 4
  524.9 10.67 10
  525.0 20.37 20
  525.1 25.19 25
  525.2 21.54 21
  525.3 13.35 13
  525.5 10.72 10
  525.6 18.62 18
  525.7 23.84 23
  525.8 20.19 20
  525.9 9.93 9
  526.1 4.77 4
  526.2 15.74 15
  526.3 26.05 26
  526.4 27.04 27
  526.5 18.26 18
  526.6 7.47 7
  526.8 7.09 7
  526.9 15.4 15
  527.0 21.84 21
  527.1 22.31 22
  527.2 17.02 17
  527.4 8.89 8
  527.5 13.6 13
  527.6 20.06 20
  527.7 21.57 21
  527.8 16.12 16
  528.7 6.75 6
  528.8 14.66 14
  528.9 21.84 21
  529.0 22.6 22
  529.1 16.59 16
  529.3 5.63 5
  529.4 9.97 9
  529.5 18.17 18
  529.6 22.83 22
  529.7 19.47 19
  529.8 11.08 11
  530.0 5.72 5
  530.1 11.55 11
  530.2 16.46 16
  530.3 16.05 16
  530.6 9.52 9
  530.7 15.56 15
  530.8 21.34 21
  530.9 22.56 22
  531.0 18.6 18
  532.5 5.29 5
  532.6 12.11 12
  532.7 20.01 19
  532.8 22.47 22
  532.9 17.56 17
  533.1 7.18 7
  533.2 11.73 11
  533.3 19.92 19
  533.4 24.36 24
  533.5 20.6 20
  533.6 11.35 11
  533.8 4.59 4
  533.9 11.5 11
  534.0 18.21 18
  534.1 18.62 18
  534.2 12.56 12
  534.4 5.13 5
  534.5 11.68 11
  534.6 20.33 20
  534.7 23.5 23
  534.8 18.01 17
  534.9 8.62 8
  535.1 7.41 7
  535.2 15.87 15
  535.3 21.52 21
  535.4 19.83 19
  535.5 12.9 12
  535.7 6.89 6
  535.8 13.19 13
  535.9 21.39 21
  536.0 25.08 25
  536.1 20.58 20
  536.2 10.87 10
  536.4 6.08 6
  536.5 14.57 14
  536.6 21.68 21
  536.7 21.79 21
  536.8 16.41 16
  537.0 10.99 10
  537.1 14.12 14
  537.2 17.49 17
  537.3 17.94 17
  537.4 14.72 14
  537.6 9.16 9
  537.7 13.21 13
  537.8 19.61 19
  537.9 22.42 22
  538.0 18.51 18
  538.1 11.23 11
  538.3 9.97 9
  538.4 16.48 16
  538.5 20.42 20
  538.6 17.6 17
  538.7 9.88 9
  538.9 6.19 6
  539.0 14.5 14
  539.1 22.08 22
  539.2 22.4 22
  539.3 15.15 15
  539.5 4.07 4
  539.6 9.19 9
  539.7 17.42 17
  539.8 22.47 22
  539.9 20.87 20
  540.0 14.39 14
  540.2 8.51 8
  540.3 14.36 14
  540.4 21.61 21
  540.5 24.79 24
  540.6 21.57 21
  540.7 14.41 14
  540.9 10.4 10
  541.0 16.61 16
  541.1 20.73 20
  541.2 17.29 17
  541.5 8.78 8
  541.6 18.66 18
  541.7 25.21 25
  541.8 23.03 23
  541.9 14.84 14
  542.1 8.55 8
  542.2 15.58 15
  542.3 23.48 23
  542.4 25.91 25
  542.5 21.07 21
  542.6 12.97 12
  542.8 9.3 9
  542.9 14.48 14
  543.0 18.33 18
  543.1 17.27 17
  543.2 12.31 12
  543.4 9.64 9
  543.5 15.92 15
  543.6 21.5 21
  543.7 20.87 20
  543.8 14.57 14
  544.7 10.36 10
  544.8 16.07 16
  544.9 20.98 20
  545.0 21.3 21
  545.1 17.27 17
  545.3 11.71 11
  545.4 15.02 15
  545.5 19.14 19
  545.6 19.74 19
  545.7 15.74 15
  546.0 11.08 11
  546.1 16.84 16
  546.2 20.33 20
  546.3 18.28 18
  546.4 12.18 12
  546.6 8.78 8
  546.7 14.86 14
  546.8 20.15 20
  546.9 19.99 19
  547.0 14.72 14
  547.2 7.09 7
  547.3 11.1 11
  547.4 17.51 17
  547.5 20.76 20
  547.6 17.51 17
  547.7 10.33 10
  547.9 7.99 7
  548.0 15.56 15
  548.1 21.63 21
  548.2 21.0 20
  548.3 14.61 14
  548.5 7.65 7
  548.6 12.52 12
  548.7 18.53 18
  548.8 20.46 20
  548.9 16.84 16
  549.2 12.02 12
  549.3 17.4 17
  549.4 20.33 20
  549.5 18.17 18
  549.6 12.31 12
  549.8 6.24 6
  549.9 10.81 10
  550.0 17.09 17
  550.1 19.63 19
  550.2 16.05 16
  550.4 7.61 7
  550.5 11.93 11
  550.6 18.57 18
  550.7 20.8 20
  550.8 16.1 16
  551.1 7.25 7
  551.2 14.99 14
  551.3 22.15 22
  551.4 23.53 23
  551.5 18.21 18
  552.3 4.25 4
  552.4 9.41 9
  552.5 19.09 19
  552.6 25.3 25
  552.7 23.1 23
  552.8 14.57 14
  553.0 6.91 6
  553.1 12.92 12
  553.2 19.11 19
  553.3 20.53 20
  553.4 17.49 17
  553.6 13.42 13
  553.7 16.41 16
  553.8 20.53 20
  553.9 22.04 22
  554.0 18.48 18
  554.1 10.83 10
  554.3 5.07 5
  554.4 13.21 13
  554.5 22.22 22
  554.6 24.47 24
  554.7 18.57 18
  554.9 8.51 8
  555.0 13.87 13
  555.1 21.72 21
  555.2 25.19 25
  555.3 21.57 21
  555.4 14.3 14
  555.6 12.0 11
  555.7 17.87 17
  555.8 21.34 21
  555.9 18.98 18
  556.0 13.6 13
  556.2 11.66 11
  556.3 14.95 14
  556.4 17.33 17
  556.5 17.06 17
  556.6 14.18 14
  556.8 9.77 9
  556.9 14.16 14
  557.0 21.34 21
  557.1 25.55 25
  557.2 22.78 22
  557.3 15.06 15
  557.5 9.73 9
  557.6 16.3 16
  557.7 21.84 21
  557.8 20.71 20
  557.9 14.03 14
  558.1 8.42 8
  558.2 13.91 13
  558.3 19.79 19
  558.4 20.69 20
  558.5 15.15 15
  558.7 4.91 4
  558.8 9.95 9
  558.9 18.3 18
  559.0 23.21 23
  559.1 21.57 21
  559.2 15.38 15
  559.4 9.23 9
  559.5 14.05 14
  559.6 19.65 19
  559.7 20.55 20
  559.8 15.87 15
  560.1 10.13 10
  560.2 15.49 15
  560.3 19.0 18
  560.4 17.99 17
  560.7 11.98 11
  560.8 16.86 16
  560.9 21.39 21
  561.0 21.68 21
  561.1 17.2 17
  561.9 5.99 5
  562.0 9.88 9
  562.1 18.78 18
  562.2 26.11 26
  562.3 26.23 26
  562.4 19.47 19
  562.6 10.56 10
  562.7 15.2 15
  562.8 20.89 20
  562.9 21.72 21
  563.0 16.34 16
  563.2 7.07 7
  563.3 12.45 12
  563.4 21.75 21
  563.5 27.51 27
  563.6 24.61 24
  563.7 15.53 15
  563.9 8.6 8
  564.0 14.79 14
  564.1 20.33 20
  564.2 20.33 20
  564.3 15.53 15
  564.5 9.39 9
  564.6 12.85 12
  564.7 18.12 18
  564.8 20.69 20
  564.9 18.01 17
  565.0 11.89 11
  565.2 8.82 8
  565.3 14.77 14
  565.4 19.68 19
  565.5 18.17 18
  565.6 10.76 10
  565.8 4.01 4
  565.9 11.5 11
  566.0 20.87 20
  566.1 24.94 24
  566.2 20.44 20
  566.3 11.17 11
  566.5 8.62 8
  566.6 17.54 17
  566.7 23.86 23
  566.8 22.47 22
  566.9 15.67 15
  567.1 10.09 10
  567.2 14.57 14
  567.3 19.34 19
  567.4 20.44 20
  567.5 16.84 16
  567.7 8.04 8
  567.8 11.48 11
  567.9 19.54 19
  568.0 25.57 25
  568.1 24.29 24
  568.2 17.2 17
  568.4 11.23 11
  568.5 16.68 16
  568.6 21.86 21
  568.7 21.63 21
  568.8 15.49 15
  569.0 5.52 5
  569.1 10.22 10
  569.2 17.94 17
  569.3 21.54 21
  569.4 18.19 18
  569.7 11.12 11
  569.8 16.86 16
  569.9 21.27 21
  570.0 20.82 20
  570.1 16.25 16
  570.3 13.48 13
  570.4 19.47 19
  570.5 24.83 24
  570.6 23.5 23
  570.7 15.31 15
  570.9 5.94 5
  571.0 12.67 12
  571.1 21.16 21
  571.2 24.47 24
  571.3 19.97 19
  571.4 10.94 10
  571.6 6.06 6
  571.7 13.87 13
  571.8 20.1 20
  571.9 19.2 19
  572.0 13.42 13
  572.2 10.18 10
  572.3 15.74 15
  572.4 21.88 21
  572.5 24.02 23
  572.6 20.1 20
  572.9 12.85 12
  573.0 20.87 20
  573.1 26.0 25
  573.2 22.78 22
  573.3 13.35 13
  573.5 7.41 7
  573.6 15.47 15
  573.7 22.6 22
  573.8 22.33 22
  573.9 14.75 14
  574.1 3.85 3
  574.2 9.41 9
  574.3 17.31 17
  574.4 20.44 20
  574.5 16.93 16
  574.6 11.14 11
  574.8 10.2 10
  574.9 14.21 14
  575.0 16.79 16
  575.1 15.62 15
  575.4 9.88 9
  575.5 15.53 15
  575.6 20.78 20
  575.7 20.98 20
  575.8 15.85 15
  576.0 8.98 8
  576.1 14.41 14
  576.2 21.61 21
  576.3 23.95 23
  576.4 18.87 18
  576.5 10.13 10
  576.7 5.56 5
  576.8 12.4 12
  576.9 20.26 20
  577.0 24.07 24
  577.1 21.45 21
  577.2 15.02 15
  577.4 12.79 12
  577.5 18.82 18
  577.6 22.08 22
  577.7 18.03 18
  578.0 9.23 9
  578.1 18.21 18
  578.2 24.31 24
  578.3 22.67 22
  578.4 15.31 15
  578.6 8.06 8
  578.7 13.62 13
  578.8 20.28 20
  578.9 22.11 22
  579.0 17.4 17
  579.2 7.72 7
  579.3 11.75 11
  579.4 19.02 19
  579.5 22.9 22
  579.6 19.52 19
  579.7 11.37 11
  579.9 6.08 6
  580.0 12.99 12
  580.1 19.38 19
  580.2 19.54 19
  580.3 13.91 13
  580.5 7.9 7
  580.6 13.21 13
  580.7 19.86 19
  580.8 22.26 22
  580.9 18.17 18
  581.0 10.85 10
  581.2 8.24 8
  581.3 13.57 13
  581.4 17.27 17
  581.5 16.46 16
  581.6 12.58 12
  581.8 10.18 10
  581.9 14.68 14
  582.0 19.7 19
  582.1 20.69 20
  582.2 16.21 16
  582.4 7.54 7
  582.5 11.62 11
  582.6 18.44 18
  582.7 21.81 21
  582.8 19.0 18
  582.9 12.72 12
  583.1 8.58 8
  583.2 13.24 13
  583.3 18.35 18
  583.4 19.81 19
  583.5 16.59 16
  583.7 11.1 11
  583.8 15.51 15
  583.9 21.45 21
  584.0 23.5 23
  584.1 20.22 20
  584.2 14.84 14
  584.4 11.98 11
  584.5 14.9 14
  584.6 17.24 17
  584.7 16.19 16
  584.8 11.68 11
  585.0 8.01 8
  585.1 13.1 13
  585.2 18.19 18
  585.3 18.37 18
  585.4 13.06 13
  585.6 6.37 6
  585.7 13.57 13
  585.8 23.77 23
  585.9 28.39 28
  586.0 22.92 22
  586.1 11.89 11
  586.3 7.36 7
  586.4 15.74 15
  586.5 21.99 21
  586.6 21.16 21
  586.7 14.81 14
  586.9 7.34 7
  587.0 11.8 11
  587.1 17.87 17
  587.2 19.88 19
  587.3 15.87 15
  587.5 8.01 8
  587.6 12.38 12
  587.7 19.2 19
  587.8 22.76 22
  587.9 20.35 20
  588.0 14.16 14
  588.2 9.05 9
  588.3 13.71 13
  588.4 19.36 19
  588.5 21.18 21
  588.6 17.56 17
  589.4 6.89 6
  589.5 10.56 10
  589.6 17.92 17
  589.7 22.51 22
  589.8 20.28 20
  589.9 12.99 12
  590.1 5.74 5
  590.2 10.54 10
  590.3 16.73 16
  590.4 19.14 19
  590.5 15.6 15
  590.6 8.73 8
  590.8 6.46 6
  590.9 14.27 14
  591.0 20.51 20
  591.1 18.71 18
  591.2 10.04 10
  591.4 3.13 3
  591.5 11.44 11
  591.6 20.94 20
  591.7 24.81 24
  591.8 21.03 21
  591.9 13.48 13
  592.1 8.44 8
  592.2 12.58 12
  592.3 15.71 15
  592.4 14.32 14
  592.6 7.63 7
  592.7 10.69 10
  592.8 16.21 16
  592.9 18.48 18
  593.0 15.26 15
  593.2 7.34 7
  593.3 10.92 10
  593.4 18.37 18
  593.5 24.16 24
  593.6 23.62 23
  593.7 17.06 17
  593.9 7.45 7
  594.0 11.86 11
  594.1 19.45 19
  594.2 24.13 24
  594.3 21.9 21
  594.4 14.57 14
  594.6 8.76 8
  594.7 15.67 15
  594.8 23.26 23
  594.9 24.74 24
  595.0 18.55 18
  595.9 10.67 10
  596.0 18.35 18
  596.1 23.3 23
  596.2 21.72 21
  596.3 15.13 15
  596.5 7.36 7
  596.6 12.18 12
  596.7 18.8 18
  596.8 21.12 21
  596.9 16.88 16
  597.1 8.22 8
  597.2 13.19 13
  597.3 20.64 20
  597.4 23.55 23
  597.5 18.84 18
  597.6 10.11 10
  597.8 6.98 6
  597.9 14.99 14
  598.0 22.02 21
  598.1 22.81 22
  598.2 17.74 17
  598.5 12.07 12
  598.6 18.26 18
  598.7 22.11 22
  598.8 20.26 20
  598.9 14.39 14
  599.1 10.72 10
  599.2 16.77 16
  599.3 22.94 22
  599.4 23.32 23
  599.5 16.88 16
//
