ACCESSION: MSBNK-RIKEN_NPDepo-NGA00444
RECORD_TITLE: Kopsinine; LC-ESI-QQQ; MS2; Frag=135.0V CID@5.0; [M+H]+
DATE: 2018.04.04
AUTHORS: Nogawa T, Okano A, CSRS, RIKEN
LICENSE: CC BY
COMMENT: Origin: Plant
COMMENT: Formula(Parent): C21H26N2O2
COMMENT: Bottle Name:Kopsinine
COMMENT: PRIME Parent Name:Kopsinine
COMMENT: PRIME in-house No.:V0259
COMMENT: SubCategory_DNP: Monoterpenoid indole alkaloids, Aspidosperma alkaloids, Indole alkaloids
CH$NAME: methyl(2|A,3|A,5|A)-aspidofractinine-3-carboxylate
CH$NAME: Aspidofractinine-3-carboxylic acid, methyl ester, (2alpha,3beta,5alpha)-
CH$NAME: Kopsinine
CH$COMPOUND_CLASS: Alkaloids
CH$FORMULA: C21H26N2O2
CH$EXACT_MASS: 338.4536
CH$SMILES: COC(=O)C1CC23CCCN4CCC5(c6ccccc6NC15CC2)[C@@H]43
CH$IUPAC: InChI=1S/C21H26N2O2/c1-25-17(24)15-13-19-7-4-11-23-12-10-20(18(19)23)14-5-2-3-6-16(14)22-21(15,20)9-8-19/h2-3,5-6,15,18,22H,4,7-13H2,1H3/t15?,18-,19?,20?,21?/m0/s1
CH$LINK: CAS 559-51-3
CH$LINK: CHEMSPIDER 10254846
CH$LINK: INCHIKEY IYLRRIUNGGQRTN-GNONBNCHSA-N
AC$INSTRUMENT: Agilent 6410 Triple Quadrupole LC/MS system
AC$INSTRUMENT_TYPE: LC-ESI-QQQ
AC$MASS_SPECTROMETRY: MS_TYPE MS2
AC$MASS_SPECTROMETRY: ION_MODE POSITIVE
MS$FOCUSED_ION: PRECURSOR_TYPE [M+H]+
PK$SPLASH: splash10-000i-0009000000-8b65825fc9343f88b5d8
PK$NUM_PEAK: 16
PK$PEAK: m/z int. rel.int.
  338.3 0.89 0
  338.4 2.68 2
  338.5 5.57 5
  338.6 9.39 9
  338.7 15.77 15
  338.8 27.97 27
  338.9 47.12 47
  339.0 69.43 69
  339.1 88.46 88
  339.2 99.45 99
  339.3 100.0 99
  339.4 88.29 88
  339.5 64.68 64
  339.6 35.38 35
  339.7 10.93 10
  339.8 0.0 0
//
