ACCESSION: MSBNK-RIKEN_NPDepo-NGA02229
RECORD_TITLE: Aconifine; LC-ESI-QQQ; MS2; Frag=135.0V CID@25.0; [M+H]+
DATE: 2018.04.04
AUTHORS: Nogawa T, Okano A, CSRS, RIKEN
LICENSE: CC BY
COMMENT: Origin: Plant
COMMENT: SubCategory_DNP: Terpenoid alkaloids, Diterpene alkaloid, Aconitum alkaloid
CH$NAME: Aconifine
CH$COMPOUND_CLASS: Alkaloids
CH$FORMULA: C34H47NO12
CH$EXACT_MASS: 661.7532
CH$SMILES: CCN1C[C@@]2(COC)C3[C@@H](OC)[C@H]4[C@@H]1[C@]3([C@@H](OC)C[C@H]2O)[C@]1(O)C[C@]2(O)[C@@H](OC)[C@H](O)[C@@]4(OC(C)=O)C1[C@H]2OC(=O)c1ccccc1
CH$IUPAC: InChI=1S/C34H47NO12/c1-7-35-15-30(16-42-3)19(37)13-20(43-4)33-23(30)22(44-5)21(25(33)35)34(47-17(2)36)24-27(46-29(39)18-11-9-8-10-12-18)31(40,14-32(24,33)41)28(45-6)26(34)38/h8-12,19-28,37-38,40-41H,7,13-16H2,1-6H3/t19-,20+,21+,22+,23?,24?,25-,26+,27-,28+,30+,31-,32+,33-,34+/m1/s1
CH$LINK: CAS 41849-35-8
CH$LINK: CHEMSPIDER 390310 2302257
CH$LINK: INCHIKEY GMSKTJVHWUUOMY-GHBKSVICSA-N
CH$LINK: PUBCHEM CID:44661613
AC$INSTRUMENT: Agilent 6410 Triple Quadrupole LC/MS system
AC$INSTRUMENT_TYPE: LC-ESI-QQQ
AC$MASS_SPECTROMETRY: MS_TYPE MS2
AC$MASS_SPECTROMETRY: ION_MODE POSITIVE
MS$FOCUSED_ION: PRECURSOR_TYPE [M+H]+
PK$SPLASH: splash10-03di-0000009000-58d029547d8a3b740632
PK$NUM_PEAK: 28
PK$PEAK: m/z int. rel.int.
  601.7 1.28 1
  601.8 2.22 2
  601.9 3.54 3
  602.0 5.11 5
  602.1 6.64 6
  602.2 7.86 7
  602.3 8.52 8
  602.4 8.27 8
  602.5 6.82 6
  602.6 4.35 4
  602.7 1.8 1
  661.3 0.81 0
  661.4 2.24 2
  661.5 5.04 5
  661.6 9.87 9
  661.7 17.82 17
  661.8 29.78 29
  661.9 45.09 45
  662.0 61.47 61
  662.1 76.91 76
  662.2 90.15 90
  662.3 99.12 99
  662.4 100.0 99
  662.5 88.94 88
  662.6 65.8 65
  662.7 36.84 36
  662.8 12.3 12
  662.9 0.07 0
//
