ACCESSION: MSBNK-RIKEN_NPDepo-NGA02824
RECORD_TITLE: alloyohimbine; LC-ESI-QQQ; MS2; Frag=135.0V CID@5.0; [M+H]+
DATE: 2018.04.04
AUTHORS: Nogawa T, Okano A, CSRS, RIKEN
LICENSE: CC BY
COMMENT: Origin: Plant
COMMENT: SubCategory_DNP: Monoterpenoid indole alkaloids, Yohimbinoid alkaloids, Indole alkaloids
CH$NAME: alloyohimbine
CH$COMPOUND_CLASS: Alkaloids
CH$FORMULA: C21H26N2O3
CH$EXACT_MASS: 354.453
CH$SMILES: COC(=O)[C@H]1[C@@H](O)CC[C@@H]2CN3CCc4c([nH]c5ccccc45)[C@@H]3C[C@@H]21
CH$IUPAC: InChI=1S/C21H26N2O3/c1-26-21(25)19-15-10-17-20-14(13-4-2-3-5-16(13)22-20)8-9-23(17)11-12(15)6-7-18(19)24/h2-5,12,15,17-19,22,24H,6-11H2,1H3/t12-,15+,17+,18+,19-/m1/s1
CH$LINK: CAS 522-94-1
CH$LINK: CHEMSPIDER 107761
CH$LINK: INCHIKEY BLGXFZZNTVWLAY-FJDMERLMSA-N
CH$LINK: PUBCHEM CID:120716
AC$INSTRUMENT: Agilent 6410 Triple Quadrupole LC/MS system
AC$INSTRUMENT_TYPE: LC-ESI-QQQ
AC$MASS_SPECTROMETRY: MS_TYPE MS2
AC$MASS_SPECTROMETRY: ION_MODE POSITIVE
MS$FOCUSED_ION: PRECURSOR_TYPE [M+H]+
PK$SPLASH: splash10-0a4i-0009000000-ca85c5f07ba9e81b0a27
PK$NUM_PEAK: 15
PK$PEAK: m/z int. rel.int.
  354.4 0.86 0
  354.5 3.05 3
  354.6 7.37 7
  354.7 14.85 14
  354.8 27.02 26
  354.9 44.53 44
  355.0 65.1 65
  355.1 83.82 83
  355.2 96.21 96
  355.3 100.0 99
  355.4 93.08 92
  355.5 73.47 73
  355.6 44.39 44
  355.7 16.4 16
  355.8 0.77 0
//
