ACCESSION: MSBNK-RIKEN_NPDepo-NGA02994
RECORD_TITLE: isoverticine; LC-ESI-QQQ; MS2; Frag=135.0V CID@10.0; [M+H]+
DATE: 2018.04.04
AUTHORS: Nogawa T, Okano A, CSRS, RIKEN
LICENSE: CC BY
COMMENT: Origin: Plant
COMMENT: SubCategory_DNP: Steroidal alkaloids, Veratrum alkaloids
CH$NAME: isoverticine
CH$COMPOUND_CLASS: Alkaloids
CH$FORMULA: C27H45NO3
CH$EXACT_MASS: 431.6646
CH$SMILES: CC1CC[C@@H]2N(C1)CC1[C@H](CC[C@H]3C4CC(O)[C@H]5CC(O)CCC5(C)[C@H]4C[C@@H]13)[C@]2(C)O
CH$IUPAC: InChI=1S/C27H45NO3/c1-15-4-7-25-27(3,31)21-6-5-17-18(20(21)14-28(25)13-15)11-22-19(17)12-24(30)23-10-16(29)8-9-26(22,23)2/h15-25,29-31H,4-14H2,1-3H3/t15?,16?,17-,18-,19?,20?,21+,22+,23-,24?,25+,26?,27+/m1/s1
CH$LINK: CAS 23496-43-7
CH$LINK: INCHIKEY IUKLSMSEHKDIIP-HJNHJIHISA-N
AC$INSTRUMENT: Agilent 6410 Triple Quadrupole LC/MS system
AC$INSTRUMENT_TYPE: LC-ESI-QQQ
AC$MASS_SPECTROMETRY: MS_TYPE MS2
AC$MASS_SPECTROMETRY: ION_MODE POSITIVE
MS$FOCUSED_ION: PRECURSOR_TYPE [M+H]+
PK$SPLASH: splash10-001i-0000900000-5dd10d0f236363e1c6e1
PK$NUM_PEAK: 15
PK$PEAK: m/z int. rel.int.
  431.5 1.2 1
  431.6 3.38 3
  431.7 7.96 7
  431.8 16.13 16
  431.9 28.9 28
  432.0 46.36 46
  432.1 66.58 66
  432.2 85.26 85
  432.3 97.51 97
  432.4 100.0 99
  432.5 91.1 91
  432.6 70.78 70
  432.7 43.07 43
  432.8 16.97 16
  432.9 1.36 1
//
