ACCESSION: MSBNK-RIKEN_NPDepo-NGA00157
RECORD_TITLE: Alloside B; LC-ESI-QQQ; MS2; Frag=135.0V CID@25.0; [M+Na]+
DATE: 2018.04.04
AUTHORS: Nogawa T, Okano A, CSRS, RIKEN
LICENSE: CC BY
COMMENT: Origin: Plant
COMMENT: SubCategory_DNP: The sterols, Cholestanes
CH$NAME: Alloside B
CH$COMPOUND_CLASS: Steroids
CH$FORMULA: C39H66O14
CH$EXACT_MASS: 758.9525
CH$SMILES: CC(C)CCC(O)[C@@H](C)C1C(O[C@@H]2OC(CO)[C@@H](O)C(O)C2O)CC2C3CC=C4C[C@@H](O)CC(O[C@@H]5OC(CO)[C@@H](O)C(O)C5O)[C@]4(C)C3CC[C@@]21C
CH$IUPAC: InChI=1S/C39H66O14/c1-17(2)6-9-24(43)18(3)29-25(50-36-34(48)32(46)30(44)26(15-40)51-36)14-23-21-8-7-19-12-20(42)13-28(39(19,5)22(21)10-11-38(23,29)4)53-37-35(49)33(47)31(45)27(16-41)52-37/h7,17-18,20-37,40-49H,6,8-16H2,1-5H3/t18-,20-,21?,22?,23?,24?,25?,26?,27?,28?,29?,30-,31-,32?,33?,34?,35?,36-,37+,38+,39+/m1/s1
CH$LINK: CAS 142735-55-5
CH$LINK: CHEMSPIDER 2331841
CH$LINK: INCHIKEY JPJDIOVDAAVUNF-JCBACFEVSA-N
AC$INSTRUMENT: Agilent 6410 Triple Quadrupole LC/MS system
AC$INSTRUMENT_TYPE: LC-ESI-QQQ
AC$MASS_SPECTROMETRY: MS_TYPE MS2
AC$MASS_SPECTROMETRY: ION_MODE POSITIVE
MS$FOCUSED_ION: PRECURSOR_TYPE [M+Na]+
PK$SPLASH: splash10-001i-5576569560-ca5931c3ac55c6732342
PK$NUM_PEAK: 2460
PK$PEAK: m/z int. rel.int.
  55.4 3.26 3
  55.5 4.17 4
  55.6 5.03 5
  55.7 5.57 5
  55.8 5.69 5
  55.9 5.4 5
  56.0 4.89 4
  56.1 4.43 4
  56.2 4.2 4
  56.3 4.19 4
  56.4 4.37 4
  56.5 4.79 4
  56.6 5.48 5
  56.7 6.25 6
  56.8 6.81 6
  56.9 7.07 7
  57.0 7.07 7
  57.1 6.82 6
  57.2 6.28 6
  57.3 5.57 5
  57.7 4.22 4
  57.8 5.17 5
  57.9 6.35 6
  58.0 7.12 7
  58.1 7.07 7
  58.2 6.27 6
  58.3 5.21 5
  60.1 4.64 4
  60.2 5.52 5
  60.3 6.3 6
  60.4 6.79 6
  60.5 6.77 6
  60.6 6.02 6
  60.7 4.74 4
  65.7 4.34 4
  65.8 5.25 5
  65.9 6.35 6
  66.0 6.96 6
  66.1 6.75 6
  66.2 5.94 5
  66.3 5.06 5
  67.8 4.92 4
  67.9 5.87 5
  68.0 6.64 6
  68.1 6.78 6
  68.2 6.21 6
  68.3 5.23 5
  70.0 4.44 4
  70.1 5.36 5
  70.2 6.26 6
  70.3 6.94 6
  70.4 7.31 7
  70.5 7.29 7
  70.6 6.87 6
  70.7 6.05 6
  70.8 4.96 4
  71.2 3.75 3
  71.3 4.81 4
  71.4 5.86 5
  71.5 6.54 6
  71.6 6.61 6
  71.7 6.03 6
  71.8 4.94 4
  72.2 4.28 4
  72.3 5.37 5
  72.4 6.19 6
  72.5 6.65 6
  72.6 6.78 6
  72.7 6.44 6
  77.8 3.78 3
  77.9 4.54 4
  78.0 5.28 5
  78.1 5.87 5
  78.2 6.13 6
  78.3 5.94 5
  78.4 5.34 5
  78.5 4.63 4
  78.6 4.08 4
  78.7 3.87 3
  78.8 3.98 3
  78.9 4.16 4
  79.0 4.28 4
  79.1 4.42 4
  79.2 4.7 4
  79.3 5.05 5
  79.4 5.42 5
  79.5 5.87 5
  79.6 6.32 6
  79.7 6.48 6
  79.8 6.21 6
  79.9 5.64 5
  80.0 5.05 5
  80.1 4.65 4
  80.2 4.59 4
  80.3 4.85 4
  80.4 5.3 5
  80.5 5.74 5
  80.6 5.92 5
  80.7 5.68 5
  80.8 5.06 5
  80.9 4.45 4
  81.0 4.2 4
  81.1 4.32 4
  81.2 4.58 4
  81.3 4.86 4
  81.4 5.21 5
  81.5 5.64 5
  81.6 6.01 6
  81.7 6.01 6
  81.8 5.62 5
  81.9 5.19 5
  82.0 5.06 5
  82.1 5.01 5
  82.2 4.62 4
  82.3 3.93 3
  82.4 3.48 3
  82.5 3.66 3
  82.6 4.28 4
  82.7 4.86 4
  82.8 5.14 5
  82.9 5.28 5
  83.0 5.47 5
  83.1 5.57 5
  83.2 5.33 5
  83.3 4.75 4
  83.4 4.22 4
  83.5 4.21 4
  83.6 4.91 4
  83.7 6.02 6
  83.8 6.85 6
  83.9 6.94 6
  84.0 6.42 6
  84.1 5.83 5
  84.2 5.41 5
  84.3 4.98 4
  84.4 4.34 4
  84.5 3.69 3
  84.6 3.5 3
  84.7 3.95 3
  84.8 4.76 4
  84.9 5.54 5
  85.0 6.04 6
  85.1 6.26 6
  85.2 6.26 6
  85.3 6.12 6
  85.4 6.0 5
  85.5 6.03 6
  85.6 6.19 6
  85.7 6.35 6
  85.8 6.46 6
  85.9 6.57 6
  86.0 6.57 6
  86.1 6.24 6
  86.2 5.61 5
  86.3 4.98 4
  86.4 4.64 4
  86.5 4.64 4
  86.6 4.8 4
  86.7 4.99 4
  86.8 5.11 5
  86.9 5.17 5
  87.0 5.31 5
  87.1 5.73 5
  87.2 6.26 6
  87.3 6.42 6
  87.4 6.04 6
  87.5 5.42 5
  87.6 5.03 5
  87.7 4.97 4
  87.8 5.05 5
  87.9 5.06 5
  88.0 4.92 4
  88.1 4.73 4
  88.2 4.62 4
  88.3 4.59 4
  88.4 4.59 4
  88.5 4.64 4
  88.6 4.76 4
  88.7 4.8 4
  88.8 4.66 4
  88.9 4.48 4
  89.0 4.59 4
  89.1 5.13 5
  89.2 5.87 5
  89.3 6.32 6
  89.4 6.13 6
  89.5 5.44 5
  89.6 4.77 4
  89.7 4.57 4
  89.8 4.84 4
  89.9 5.2 5
  90.0 5.36 5
  90.1 5.36 5
  90.2 5.47 5
  90.3 5.81 5
  90.4 6.36 6
  90.5 6.85 6
  90.6 6.92 6
  90.7 6.38 6
  95.8 4.14 4
  95.9 5.19 5
  96.0 6.27 6
  96.1 6.95 6
  96.2 7.15 7
  96.3 6.96 6
  96.4 6.55 6
  96.5 6.13 6
  96.6 5.86 5
  96.7 5.72 5
  96.8 5.64 5
  96.9 5.59 5
  97.0 5.63 5
  97.1 5.9 5
  97.2 6.35 6
  97.3 6.73 6
  97.4 6.77 6
  97.5 6.55 6
  97.6 6.3 6
  97.7 6.18 6
  97.8 6.12 6
  97.9 6.11 6
  98.0 6.24 6
  98.1 6.59 6
  98.2 7.06 7
  98.3 7.32 7
  98.4 7.18 7
  98.5 6.78 6
  98.6 6.26 6
  98.7 5.69 5
  98.8 5.15 5
  98.9 4.9 4
  99.0 5.13 5
  99.1 5.69 5
  99.2 6.2 6
  99.3 6.39 6
  99.4 6.28 6
  99.5 6.12 6
  99.6 6.13 6
  99.7 6.21 6
  99.8 6.15 6
  99.9 5.88 5
  100.0 5.56 5
  100.1 5.33 5
  100.2 5.3 5
  100.3 5.49 5
  100.4 5.87 5
  100.5 6.32 6
  100.6 6.7 6
  100.7 6.82 6
  100.8 6.55 6
  100.9 5.84 5
  109.2 4.33 4
  109.3 5.21 5
  109.4 6.09 6
  109.5 6.65 6
  109.6 6.76 6
  109.7 6.41 6
  109.8 5.59 5
  110.2 4.52 4
  110.3 5.61 5
  110.4 6.43 6
  110.5 6.7 6
  110.6 6.54 6
  110.7 6.26 6
  110.8 6.04 6
  110.9 5.74 5
  111.0 5.31 5
  111.1 4.91 4
  111.2 4.82 4
  111.3 5.08 5
  111.4 5.68 5
  111.5 6.44 6
  111.6 7.05 7
  111.7 7.18 7
  111.8 6.85 6
  111.9 6.4 6
  112.0 6.02 6
  112.1 5.62 5
  112.2 5.23 5
  112.3 5.07 5
  112.4 5.32 5
  112.5 5.78 5
  112.6 6.19 6
  112.7 6.45 6
  112.8 6.51 6
  112.9 6.34 6
  113.0 6.11 6
  113.1 6.02 6
  113.2 6.08 6
  113.3 6.11 6
  113.4 6.02 6
  113.5 5.87 5
  113.6 5.7 5
  113.7 5.53 5
  113.8 5.44 5
  113.9 5.59 5
  114.0 5.88 5
  114.1 6.01 6
  114.2 5.73 5
  114.3 5.19 5
  114.4 4.74 4
  114.5 4.61 4
  114.6 4.75 4
  114.7 5.02 5
  114.8 5.36 5
  114.9 5.78 5
  115.0 6.23 6
  115.1 6.69 6
  115.2 7.16 7
  115.3 7.47 7
  115.4 7.31 7
  115.5 6.57 6
  115.6 5.45 5
  116.1 4.87 4
  116.2 5.9 5
  116.3 7.04 7
  116.4 7.58 7
  116.5 7.21 7
  122.8 5.28 5
  122.9 6.25 6
  123.0 7.1 7
  123.1 7.43 7
  123.2 7.05 7
  123.3 6.02 6
  123.7 5.05 5
  123.8 6.32 6
  123.9 7.25 7
  124.0 7.46 7
  124.1 6.96 6
  152.8 4.42 4
  152.9 5.0 4
  153.0 5.86 5
  153.1 6.84 6
  153.2 7.38 7
  153.3 7.09 7
  153.4 6.13 6
  153.5 4.92 4
  158.4 3.28 3
  158.5 4.22 4
  158.6 5.06 5
  158.7 5.63 5
  158.8 5.96 5
  158.9 6.1 6
  159.0 5.94 5
  159.1 5.47 5
  159.2 4.92 4
  159.3 4.6 4
  159.4 4.69 4
  159.5 5.14 5
  159.6 5.68 5
  159.7 5.98 5
  159.8 5.85 5
  159.9 5.23 5
  160.3 4.1 4
  160.4 4.93 4
  160.5 5.66 5
  160.6 6.08 6
  160.7 6.07 6
  160.8 5.57 5
  160.9 4.98 4
  161.0 4.8 4
  161.1 5.05 5
  161.2 5.22 5
  161.3 4.88 4
  161.4 4.3 4
  161.5 3.99 3
  161.6 4.2 4
  161.7 4.66 4
  161.8 4.93 4
  161.9 4.92 4
  162.0 4.87 4
  162.1 5.03 5
  162.2 5.3 5
  162.3 5.31 5
  162.4 4.92 4
  162.5 4.3 4
  162.6 3.78 3
  162.7 3.61 3
  162.8 3.83 3
  162.9 4.37 4
  163.0 5.04 5
  163.1 5.66 5
  163.2 6.0 5
  163.3 5.94 5
  163.4 5.53 5
  163.5 5.07 5
  163.6 4.84 4
  163.7 4.87 4
  163.8 4.97 4
  163.9 5.07 5
  164.0 5.23 5
  164.1 5.44 5
  164.2 5.5 5
  164.3 5.34 5
  164.4 5.21 5
  164.5 5.36 5
  164.6 5.63 5
  164.7 5.56 5
  164.8 5.01 5
  164.9 4.4 4
  165.0 4.25 4
  165.1 4.5 4
  165.2 4.7 4
  165.3 4.64 4
  165.4 4.52 4
  165.5 4.58 4
  165.6 4.85 4
  165.7 5.17 5
  165.8 5.31 5
  165.9 5.16 5
  166.0 4.81 4
  166.1 4.53 4
  166.2 4.43 4
  166.3 4.44 4
  166.4 4.5 4
  166.5 4.76 4
  166.6 5.3 5
  166.7 5.89 5
  166.8 6.17 6
  166.9 6.04 6
  167.0 5.58 5
  168.5 3.88 3
  168.6 4.93 4
  168.7 6.3 6
  168.8 7.39 7
  168.9 7.76 7
  169.0 7.33 7
  169.1 6.3 6
  169.2 5.14 5
  172.0 4.65 4
  172.1 5.61 5
  172.2 6.5 6
  172.3 6.91 6
  172.4 6.58 6
  172.5 5.71 5
  172.6 4.69 4
  173.1 4.43 4
  173.2 5.1 5
  173.3 5.7 5
  173.4 6.07 6
  173.5 6.11 6
  173.6 5.76 5
  177.6 4.8 4
  177.7 5.72 5
  177.8 6.52 6
  177.9 6.68 6
  178.0 6.01 6
  186.4 4.45 4
  186.5 5.43 5
  186.6 6.49 6
  186.7 7.09 7
  186.8 7.06 7
  186.9 6.55 6
  187.0 5.87 5
  188.6 4.16 4
  188.7 5.03 5
  188.8 5.98 5
  188.9 6.61 6
  189.0 6.86 6
  189.1 6.87 6
  189.2 6.66 6
  189.3 6.16 6
  189.4 5.41 5
  194.2 5.0 4
  194.3 5.58 5
  194.4 6.4 6
  194.5 7.05 7
  194.6 6.94 6
  194.7 5.98 5
  204.2 4.94 4
  204.3 6.0 5
  204.4 6.88 6
  204.5 7.32 7
  204.6 7.22 7
  204.7 6.64 6
  210.0 5.04 5
  210.1 5.87 5
  210.2 6.56 6
  210.3 6.95 6
  210.4 7.02 7
  210.5 6.82 6
  210.6 6.42 6
  210.7 5.86 5
  210.8 5.27 5
  210.9 4.86 4
  211.0 4.81 4
  211.1 5.05 5
  211.2 5.46 5
  211.3 5.95 5
  211.4 6.45 6
  211.5 6.69 6
  211.6 6.31 6
  211.7 5.48 5
  211.8 4.81 4
  211.9 4.74 4
  212.0 5.09 5
  212.1 5.41 5
  212.2 5.5 5
  212.3 5.45 5
  212.4 5.47 5
  212.5 5.55 5
  212.6 5.54 5
  212.7 5.37 5
  212.8 5.17 5
  212.9 5.07 5
  213.0 5.05 5
  213.1 5.08 5
  213.2 5.2 5
  213.3 5.35 5
  213.4 5.52 5
  213.5 5.74 5
  213.6 5.95 5
  213.7 5.91 5
  213.8 5.5 5
  213.9 4.9 4
  214.0 4.41 4
  214.1 4.09 4
  214.2 3.92 3
  214.3 3.97 3
  214.4 4.35 4
  214.5 4.96 4
  214.6 5.64 5
  214.7 6.16 6
  214.8 6.32 6
  214.9 6.11 6
  215.0 5.76 5
  215.1 5.51 5
  215.2 5.44 5
  215.3 5.47 5
  215.4 5.51 5
  215.5 5.54 5
  215.6 5.62 5
  215.7 5.88 5
  215.8 6.2 6
  215.9 6.3 6
  216.0 6.09 6
  216.1 5.79 5
  216.2 5.66 5
  216.3 5.75 5
  216.4 5.95 5
  216.5 6.25 6
  216.6 6.62 6
  216.7 6.97 6
  216.8 7.09 7
  216.9 6.83 6
  217.0 6.36 6
  217.1 5.94 5
  217.2 5.71 5
  217.3 5.57 5
  217.4 5.33 5
  217.5 5.0 4
  217.6 4.67 4
  217.7 4.43 4
  217.8 4.45 4
  217.9 4.87 4
  218.0 5.69 5
  218.1 6.56 6
  218.2 7.04 7
  218.3 6.96 6
  218.4 6.45 6
  218.5 5.81 5
  218.6 5.35 5
  218.7 5.27 5
  218.8 5.49 5
  218.9 5.75 5
  219.0 5.86 5
  219.1 5.8 5
  219.2 5.72 5
  219.3 5.76 5
  219.4 5.93 5
  219.5 6.16 6
  219.6 6.3 6
  219.7 6.27 6
  219.8 6.06 6
  219.9 5.86 5
  220.0 5.89 5
  220.1 6.19 6
  220.2 6.44 6
  220.3 6.28 6
  220.4 5.7 5
  220.5 5.12 5
  220.6 4.89 4
  220.7 4.96 4
  220.8 5.03 5
  220.9 4.96 4
  221.0 4.93 4
  221.1 5.15 5
  221.2 5.64 5
  221.3 6.14 6
  221.4 6.28 6
  221.5 5.85 5
  225.5 4.35 4
  225.6 5.32 5
  225.7 6.37 6
  225.8 6.99 6
  225.9 6.98 6
  226.0 6.54 6
  226.1 6.07 6
  226.2 5.71 5
  226.3 5.46 5
  226.4 5.38 5
  226.5 5.59 5
  226.6 6.0 5
  226.7 6.21 6
  226.8 6.05 6
  226.9 5.71 5
  227.0 5.47 5
  227.1 5.41 5
  227.2 5.41 5
  227.3 5.47 5
  227.4 5.6 5
  227.5 5.64 5
  227.6 5.34 5
  227.7 4.85 4
  227.8 4.57 4
  227.9 4.72 4
  228.0 5.1 5
  228.1 5.42 5
  228.2 5.65 5
  228.3 5.89 5
  228.4 6.1 6
  228.5 6.12 6
  228.6 5.89 5
  228.7 5.5 5
  228.8 5.1 5
  228.9 4.89 4
  229.0 4.94 4
  229.1 5.27 5
  229.2 5.68 5
  229.3 5.99 5
  229.4 6.19 6
  229.5 6.35 6
  229.6 6.33 6
  229.7 5.95 5
  229.8 5.34 5
  229.9 4.85 4
  230.0 4.67 4
  230.1 4.74 4
  230.2 5.06 5
  230.3 5.63 5
  230.4 6.34 6
  230.5 6.96 6
  230.6 7.27 7
  230.7 7.12 7
  230.8 6.61 6
  230.9 6.09 6
  231.0 5.96 5
  231.1 6.28 6
  231.2 6.65 6
  231.3 6.68 6
  231.4 6.42 6
  231.5 6.23 6
  231.6 6.24 6
  231.7 6.14 6
  231.8 5.66 5
  231.9 4.94 4
  232.0 4.4 4
  232.1 4.31 4
  232.2 4.72 4
  232.3 5.56 5
  232.4 6.58 6
  232.5 7.29 7
  232.6 7.36 7
  232.7 6.9 6
  232.8 6.21 6
  235.8 4.8 4
  235.9 5.48 5
  236.0 6.31 6
  236.1 7.06 7
  236.2 7.25 7
  236.3 6.66 6
  244.6 4.11 4
  244.7 5.18 5
  244.8 6.27 6
  244.9 6.8 6
  245.0 6.51 6
  245.1 5.72 5
  245.2 5.06 5
  245.3 4.84 4
  245.4 4.82 4
  245.5 4.65 4
  245.6 4.29 4
  245.7 3.97 3
  245.8 3.93 3
  245.9 4.36 4
  246.0 5.26 5
  246.1 6.22 6
  246.2 6.66 6
  246.3 6.37 6
  246.4 5.55 5
  253.7 3.86 3
  253.8 5.02 5
  253.9 6.44 6
  254.0 7.37 7
  254.1 7.4 7
  254.2 6.79 6
  254.3 6.11 6
  254.4 5.72 5
  254.5 5.63 5
  254.6 5.66 5
  254.7 5.71 5
  254.8 5.78 5
  254.9 5.87 5
  255.0 5.92 5
  255.1 5.8 5
  255.2 5.45 5
  255.3 4.95 4
  255.4 4.43 4
  255.5 4.06 4
  255.6 3.88 3
  255.7 3.88 3
  255.8 4.04 4
  255.9 4.47 4
  256.0 5.13 5
  256.1 5.79 5
  256.2 6.18 6
  256.3 6.21 6
  256.4 6.02 6
  256.5 5.74 5
  256.6 5.34 5
  256.7 4.82 4
  256.8 4.41 4
  256.9 4.41 4
  257.0 4.82 4
  257.1 5.2 5
  257.2 5.15 5
  257.3 4.68 4
  257.4 4.17 4
  257.5 3.93 3
  257.6 3.96 3
  257.7 4.24 4
  257.8 4.76 4
  257.9 5.52 5
  258.0 6.34 6
  258.1 6.88 6
  258.2 6.93 6
  258.3 6.45 6
  258.4 5.65 5
  260.2 4.37 4
  260.3 5.18 5
  260.4 5.83 5
  260.5 6.16 6
  260.6 6.16 6
  260.7 5.9 5
  260.8 5.5 5
  260.9 5.18 5
  261.0 5.08 5
  261.1 5.16 5
  261.2 5.35 5
  261.3 5.6 5
  261.4 5.79 5
  261.5 5.84 5
  261.6 5.85 5
  261.7 5.94 5
  261.8 6.0 5
  261.9 5.71 5
  268.0 4.65 4
  268.1 5.7 5
  268.2 6.72 6
  268.3 7.22 7
  268.4 6.95 6
  268.5 6.1 6
  270.4 3.91 3
  270.5 4.88 4
  270.6 5.94 5
  270.7 6.8 6
  270.8 7.07 7
  270.9 6.49 6
  283.6 4.75 4
  283.7 5.71 5
  283.8 6.65 6
  283.9 7.23 7
  284.0 7.21 7
  284.1 6.71 6
  284.2 6.09 6
  284.3 5.65 5
  284.4 5.28 5
  284.5 4.81 4
  284.6 4.23 4
  284.7 3.81 3
  284.8 3.76 3
  284.9 4.11 4
  285.0 4.65 4
  285.1 5.19 5
  285.2 5.61 5
  285.3 5.93 5
  285.4 6.2 6
  285.5 6.34 6
  285.6 6.17 6
  285.7 5.55 5
  291.6 4.43 4
  291.7 5.17 5
  291.8 5.96 5
  291.9 6.43 6
  292.0 6.37 6
  292.1 5.85 5
  296.1 4.95 4
  296.2 5.69 5
  296.3 6.43 6
  296.4 6.8 6
  296.5 6.51 6
  296.6 5.65 5
  299.5 4.69 4
  299.6 5.44 5
  299.7 6.16 6
  299.8 6.43 6
  299.9 6.13 6
  300.0 5.63 5
  300.1 5.3 5
  300.2 5.18 5
  300.3 5.07 5
  300.4 4.97 4
  300.5 5.02 5
  300.6 5.22 5
  300.7 5.38 5
  300.8 5.36 5
  300.9 5.24 5
  301.0 5.29 5
  301.1 5.56 5
  301.2 5.82 5
  301.3 5.82 5
  301.4 5.54 5
  301.5 5.23 5
  301.6 5.09 5
  301.7 5.17 5
  301.8 5.32 5
  301.9 5.41 5
  302.0 5.41 5
  302.1 5.43 5
  302.2 5.53 5
  302.3 5.67 5
  302.4 5.63 5
  302.5 5.3 5
  302.6 4.84 4
  302.7 4.6 4
  302.8 4.76 4
  302.9 5.24 5
  303.0 5.74 5
  303.1 6.15 6
  303.2 6.45 6
  303.3 6.61 6
  303.4 6.51 6
  303.5 6.06 6
  305.2 5.04 5
  305.3 5.83 5
  305.4 6.43 6
  305.5 6.71 6
  305.6 6.78 6
  305.7 6.64 6
  305.8 6.31 6
  305.9 6.06 6
  306.0 6.01 6
  306.1 6.05 6
  306.2 5.98 5
  306.3 5.87 5
  306.4 6.02 6
  306.5 6.4 6
  306.6 6.56 6
  306.7 6.12 6
  316.1 4.86 4
  316.2 5.64 5
  316.3 6.34 6
  316.4 6.84 6
  316.5 7.1 7
  316.6 7.03 7
  316.7 6.54 6
  316.8 5.69 5
  317.2 4.22 4
  317.3 5.15 5
  317.4 5.94 5
  317.5 6.36 6
  317.6 6.61 6
  317.7 6.87 6
  317.8 6.87 6
  317.9 6.24 6
  322.9 4.23 4
  323.0 5.36 5
  323.1 6.34 6
  323.2 6.86 6
  323.3 6.88 6
  323.4 6.54 6
  323.5 6.1 6
  323.6 5.71 5
  323.7 5.3 5
  323.8 4.92 4
  323.9 4.85 4
  324.0 5.28 5
  324.1 6.12 6
  324.2 7.02 7
  324.3 7.58 7
  324.4 7.4 7
  324.5 6.48 6
  324.6 5.26 5
  329.6 5.18 5
  329.7 6.21 6
  329.8 7.31 7
  329.9 7.94 7
  330.0 7.9 7
  330.1 7.19 7
  330.2 6.01 6
  335.1 4.37 4
  335.2 5.39 5
  335.3 6.45 6
  335.4 7.2 7
  335.5 7.58 7
  335.6 7.6 7
  335.7 7.29 7
  335.8 6.72 6
  335.9 6.15 6
  336.0 5.85 5
  336.1 5.96 5
  336.2 6.34 6
  336.3 6.65 6
  336.4 6.64 6
  336.5 6.36 6
  336.6 6.03 6
  336.7 5.79 5
  336.8 5.48 5
  336.9 4.93 4
  337.3 3.71 3
  337.4 4.56 4
  337.5 5.82 5
  337.6 7.06 7
  337.7 7.78 7
  337.8 7.67 7
  337.9 6.9 6
  339.8 5.09 5
  339.9 5.92 5
  340.0 6.64 6
  340.1 6.93 6
  340.2 6.62 6
  346.5 4.73 4
  346.6 5.58 5
  346.7 6.52 6
  346.8 7.0 6
  346.9 6.74 6
  347.0 5.81 5
  347.1 4.6 4
  347.5 4.42 4
  347.6 5.44 5
  347.7 6.38 6
  347.8 6.98 6
  347.9 7.1 7
  348.0 6.72 6
  348.1 6.07 6
  348.2 5.43 5
  348.3 5.02 5
  348.4 4.82 4
  348.5 4.76 4
  348.6 4.79 4
  348.7 4.87 4
  348.8 4.89 4
  348.9 4.78 4
  349.0 4.57 4
  349.1 4.48 4
  349.2 4.76 4
  349.3 5.37 5
  349.4 5.83 5
  349.5 5.66 5
  349.6 4.91 4
  349.7 4.31 4
  349.8 4.53 4
  349.9 5.42 5
  350.0 6.14 6
  350.1 6.22 6
  350.2 5.98 5
  350.3 5.9 5
  350.4 5.9 5
  350.5 5.59 5
  350.6 4.95 4
  350.7 4.33 4
  350.8 4.06 4
  350.9 4.24 4
  351.0 4.83 4
  351.1 5.63 5
  351.2 6.26 6
  351.3 6.3 6
  351.4 5.73 5
  351.5 4.97 4
  351.6 4.5 4
  351.7 4.44 4
  351.8 4.54 4
  351.9 4.61 4
  352.0 4.55 4
  352.1 4.39 4
  352.2 4.22 4
  352.3 4.27 4
  352.4 4.66 4
  352.5 5.27 5
  352.6 5.75 5
  352.7 5.87 5
  352.8 5.71 5
  352.9 5.67 5
  353.0 5.97 5
  353.1 6.33 6
  353.2 6.32 6
  353.3 5.95 5
  353.4 5.55 5
  353.5 5.23 5
  353.6 4.82 4
  353.7 4.31 4
  353.8 4.07 4
  353.9 4.37 4
  354.0 5.04 5
  354.1 5.74 5
  354.2 6.18 6
  354.3 6.27 6
  354.4 6.11 6
  354.5 5.85 5
  354.6 5.55 5
  354.7 5.14 5
  354.8 4.6 4
  354.9 4.15 4
  355.0 4.17 4
  355.1 4.82 4
  355.2 5.72 5
  355.3 6.28 6
  355.4 6.23 6
  355.5 5.83 5
  355.6 5.63 5
  355.7 5.86 5
  355.8 6.22 6
  355.9 6.28 6
  356.0 5.91 5
  356.1 5.34 5
  364.4 3.76 3
  364.5 4.63 4
  364.6 5.37 5
  364.7 5.54 5
  364.8 5.24 5
  364.9 4.81 4
  365.0 4.43 4
  365.1 4.05 4
  365.2 3.8 3
  365.3 3.92 3
  365.4 4.51 4
  365.5 5.24 5
  365.6 5.72 5
  365.7 5.83 5
  365.8 5.67 5
  365.9 5.27 5
  366.0 4.63 4
  366.1 4.1 4
  366.2 4.12 4
  366.3 4.71 4
  366.4 5.41 5
  366.5 5.86 5
  366.6 6.07 6
  366.7 6.19 6
  366.8 6.3 6
  366.9 6.5 6
  367.0 6.81 6
  367.1 7.07 7
  367.2 6.86 6
  367.3 6.05 6
  368.8 4.39 4
  368.9 5.22 5
  369.0 6.28 6
  369.1 7.05 7
  369.2 7.03 7
  369.3 6.22 6
  369.4 5.17 5
  372.0 4.69 4
  372.1 5.69 5
  372.2 6.47 6
  372.3 6.73 6
  372.4 6.51 6
  372.5 6.11 6
  372.6 5.67 5
  382.1 4.04 4
  382.2 5.05 5
  382.3 5.91 5
  382.4 6.43 6
  382.5 6.57 6
  382.6 6.2 6
  387.6 4.35 4
  387.7 5.43 5
  387.8 6.64 6
  387.9 7.35 7
  388.0 7.37 7
  388.1 6.95 6
  388.2 6.28 6
  388.3 5.41 5
  390.0 5.12 5
  390.1 6.08 6
  390.2 6.84 6
  390.3 7.08 7
  390.4 6.93 6
  390.5 6.57 6
  390.6 6.03 6
  390.7 5.27 5
  394.4 3.26 3
  394.5 4.21 4
  394.6 5.3 5
  394.7 6.09 6
  394.8 6.37 6
  394.9 6.08 6
  395.0 5.32 5
  410.2 4.52 4
  410.3 5.47 5
  410.4 6.24 6
  410.5 6.69 6
  410.6 6.83 6
  410.7 6.65 6
  410.8 6.19 6
  410.9 5.62 5
  411.0 5.12 5
  411.1 4.91 4
  411.2 5.13 5
  411.3 5.62 5
  411.4 6.04 6
  411.5 6.15 6
  411.6 6.0 5
  411.7 5.61 5
  411.8 5.03 5
  411.9 4.4 4
  412.0 4.01 4
  412.1 3.99 3
  412.2 4.31 4
  412.3 4.84 4
  412.4 5.45 5
  412.5 5.93 5
  412.6 6.09 6
  412.7 5.91 5
  412.8 5.64 5
  412.9 5.61 5
  413.0 5.83 5
  413.1 5.92 5
  413.2 5.55 5
  413.7 4.46 4
  413.8 5.46 5
  413.9 6.28 6
  414.0 6.66 6
  414.1 6.63 6
  414.2 6.45 6
  414.3 6.25 6
  414.4 6.12 6
  414.5 6.26 6
  414.6 6.74 6
  414.7 7.25 7
  414.8 7.27 7
  414.9 6.74 6
  415.0 6.04 6
  415.1 5.61 5
  415.2 5.59 5
  415.3 5.76 5
  415.4 5.75 5
  415.5 5.39 5
  415.6 4.92 4
  415.7 4.74 4
  415.8 5.03 5
  415.9 5.59 5
  416.0 6.1 6
  416.1 6.28 6
  416.2 6.07 6
  416.3 5.58 5
  416.4 4.98 4
  416.5 4.4 4
  416.6 4.04 4
  416.7 4.14 4
  416.8 4.79 4
  416.9 5.75 5
  417.0 6.69 6
  417.1 7.32 7
  417.2 7.49 7
  417.3 7.18 7
  417.4 6.51 6
  417.9 5.29 5
  418.0 6.11 6
  418.1 7.05 7
  418.2 7.58 7
  418.3 7.34 7
  432.5 3.65 3
  432.6 4.6 4
  432.7 5.89 5
  432.8 6.87 6
  432.9 7.11 7
  433.0 6.72 6
  433.1 6.07 6
  433.2 5.32 5
  433.7 5.04 5
  433.8 6.0 5
  433.9 6.89 6
  434.0 7.46 7
  434.1 7.51 7
  434.2 7.12 7
  434.3 6.64 6
  434.4 6.34 6
  434.5 6.16 6
  434.6 5.95 5
  434.7 5.88 5
  434.8 6.21 6
  434.9 6.78 6
  435.0 7.07 7
  435.1 6.81 6
  435.2 6.29 6
  435.3 5.89 5
  435.4 5.75 5
  435.5 5.73 5
  435.6 5.76 5
  435.7 5.74 5
  435.8 5.63 5
  435.9 5.46 5
  436.0 5.43 5
  436.1 5.7 5
  436.2 6.2 6
  436.3 6.62 6
  436.4 6.68 6
  436.5 6.37 6
  436.6 5.87 5
  436.7 5.35 5
  436.8 4.85 4
  436.9 4.46 4
  437.0 4.24 4
  437.1 4.31 4
  437.2 4.77 4
  437.3 5.66 5
  437.4 6.63 6
  437.5 7.13 7
  437.6 6.9 6
  437.7 6.24 6
  437.8 5.71 5
  437.9 5.59 5
  438.0 5.83 5
  438.1 6.29 6
  438.2 6.77 6
  438.3 7.01 7
  438.4 6.82 6
  438.5 6.3 6
  438.6 5.8 5
  438.7 5.57 5
  438.8 5.52 5
  438.9 5.34 5
  439.0 4.89 4
  439.1 4.52 4
  439.2 4.65 4
  439.3 5.33 5
  439.4 6.19 6
  439.5 6.85 6
  439.6 7.2 7
  439.7 7.21 7
  439.8 6.81 6
  440.3 5.41 5
  440.4 6.21 6
  440.5 7.13 7
  440.6 7.68 7
  440.7 7.54 7
  440.8 6.92 6
  440.9 6.31 6
  441.0 5.95 5
  441.1 5.64 5
  441.2 5.25 5
  441.3 4.9 4
  441.4 4.88 4
  441.5 5.26 5
  441.6 5.75 5
  441.7 6.02 6
  441.8 6.07 6
  441.9 6.11 6
  442.0 6.19 6
  442.1 6.07 6
  442.2 5.54 5
  442.3 4.83 4
  442.4 4.45 4
  442.5 4.82 4
  442.6 5.79 5
  442.7 6.74 6
  442.8 7.11 7
  442.9 6.92 6
  443.0 6.47 6
  443.1 5.89 5
  443.2 5.28 5
  443.3 4.91 4
  443.4 5.01 5
  443.5 5.39 5
  443.6 5.67 5
  443.7 5.7 5
  443.8 5.74 5
  443.9 6.0 5
  444.0 6.3 6
  444.1 6.31 6
  444.2 5.97 5
  444.3 5.54 5
  444.4 5.37 5
  444.5 5.43 5
  444.6 5.46 5
  444.7 5.35 5
  444.8 5.27 5
  444.9 5.46 5
  445.0 6.03 6
  445.1 6.78 6
  445.2 7.34 7
  445.3 7.42 7
  445.4 6.99 6
  445.5 6.28 6
  452.7 4.66 4
  452.8 5.68 5
  452.9 6.55 6
  453.0 6.95 6
  453.1 6.67 6
  453.2 5.75 5
  453.3 4.53 4
  453.7 3.58 3
  453.8 4.39 4
  453.9 5.46 5
  454.0 6.55 6
  454.1 7.42 7
  454.2 7.82 7
  454.3 7.63 7
  454.4 6.97 6
  466.2 4.69 4
  466.3 5.68 5
  466.4 6.37 6
  466.5 6.5 6
  466.6 6.07 6
  496.5 4.6 4
  496.6 5.57 5
  496.7 6.39 6
  496.8 6.6 6
  496.9 6.15 6
  497.0 5.36 5
  497.1 4.74 4
  497.2 4.6 4
  497.3 4.79 4
  497.4 5.03 5
  497.5 5.25 5
  497.6 5.62 5
  497.7 6.22 6
  497.8 6.65 6
  497.9 6.45 6
  498.0 5.57 5
  514.3 4.26 4
  514.4 5.11 5
  514.5 5.85 5
  514.6 6.14 6
  514.7 5.93 5
  514.8 5.4 5
  514.9 4.89 4
  515.0 4.65 4
  515.1 4.65 4
  515.2 4.73 4
  515.3 4.88 4
  515.4 5.12 5
  515.5 5.52 5
  515.6 6.05 6
  515.7 6.54 6
  515.8 6.71 6
  515.9 6.35 6
  516.0 5.57 5
  516.1 4.66 4
  516.6 3.77 3
  516.7 4.72 4
  516.8 5.54 5
  516.9 6.04 6
  517.0 6.4 6
  517.1 6.68 6
  517.2 6.71 6
  517.3 6.37 6
  517.4 5.8 5
  517.5 5.29 5
  517.6 5.16 5
  517.7 5.53 5
  517.8 6.13 6
  517.9 6.44 6
  518.0 6.18 6
  518.1 5.58 5
  518.2 5.07 5
  518.3 4.83 4
  518.4 4.7 4
  518.5 4.61 4
  518.6 4.65 4
  518.7 5.0 4
  518.8 5.62 5
  518.9 6.23 6
  519.0 6.53 6
  519.1 6.34 6
  519.2 5.79 5
  519.3 5.22 5
  519.4 4.9 4
  519.5 4.74 4
  519.6 4.52 4
  519.7 4.17 4
  519.8 3.94 3
  519.9 4.12 4
  520.0 4.71 4
  520.1 5.37 5
  520.2 5.66 5
  520.3 5.49 5
  520.4 5.17 5
  520.5 5.1 5
  520.6 5.29 5
  520.7 5.28 5
  520.8 4.74 4
  520.9 4.0 3
  521.0 3.79 3
  521.1 4.53 4
  521.2 5.85 5
  521.3 6.95 6
  521.4 7.29 7
  521.5 6.78 6
  521.6 5.7 5
  522.0 3.9 3
  522.1 5.09 5
  522.2 6.26 6
  522.3 6.93 6
  522.4 7.03 7
  522.5 6.7 6
  522.6 6.14 6
  534.5 4.61 4
  534.6 5.56 5
  534.7 6.43 6
  534.8 6.85 6
  534.9 6.9 6
  535.0 6.88 6
  535.1 6.84 6
  535.2 6.52 6
  535.3 5.82 5
  537.9 4.37 4
  538.0 5.28 5
  538.1 6.2 6
  538.2 6.88 6
  538.3 7.09 7
  538.4 6.7 6
  538.5 5.82 5
  539.0 4.29 4
  539.1 5.12 5
  539.2 5.98 5
  539.3 6.55 6
  539.4 6.59 6
  539.5 6.2 6
  539.6 5.72 5
  539.7 5.45 5
  539.8 5.4 5
  539.9 5.41 5
  540.0 5.45 5
  540.1 5.56 5
  540.2 5.79 5
  540.3 6.14 6
  540.4 6.45 6
  540.5 6.51 6
  540.6 6.21 6
  540.7 5.73 5
  540.8 5.32 5
  540.9 5.16 5
  541.0 5.24 5
  541.1 5.54 5
  541.2 6.02 6
  541.3 6.61 6
  541.4 7.14 7
  541.5 7.36 7
  541.6 7.1 7
  541.7 6.35 6
  541.8 5.27 5
  548.7 5.44 5
  548.8 6.36 6
  548.9 7.04 7
  549.0 7.46 7
  549.1 7.59 7
  549.2 7.25 7
  549.3 6.45 6
  550.0 4.74 4
  550.1 5.81 5
  550.2 6.76 6
  550.3 7.11 7
  550.4 6.82 6
  550.5 6.26 6
  550.6 5.78 5
  550.7 5.49 5
  550.8 5.26 5
  550.9 5.0 4
  551.0 4.84 4
  551.1 4.99 4
  551.2 5.44 5
  551.3 5.94 5
  551.4 6.26 6
  551.5 6.36 6
  551.6 6.28 6
  551.7 5.95 5
  551.8 5.47 5
  551.9 5.11 5
  552.0 5.1 5
  552.1 5.36 5
  552.2 5.59 5
  552.3 5.65 5
  552.4 5.64 5
  552.5 5.9 5
  552.6 6.62 6
  552.7 7.51 7
  552.8 7.94 7
  552.9 7.59 7
  560.4 4.75 4
  560.5 5.65 5
  560.6 6.48 6
  560.7 6.82 6
  560.8 6.54 6
  560.9 5.87 5
  561.5 4.29 4
  561.6 5.32 5
  561.7 6.03 6
  561.8 5.94 5
  561.9 5.34 5
  562.0 4.9 4
  562.1 4.89 4
  562.2 5.17 5
  562.3 5.55 5
  562.4 6.0 5
  562.5 6.26 6
  562.6 6.21 6
  562.7 5.94 5
  562.8 5.68 5
  562.9 5.5 5
  563.0 5.35 5
  563.1 5.19 5
  563.2 4.99 4
  563.3 4.64 4
  563.4 4.17 4
  563.5 3.89 3
  563.6 4.13 4
  563.7 5.01 5
  563.8 6.17 6
  563.9 6.96 6
  564.0 6.95 6
  564.1 6.25 6
  565.8 4.78 4
  565.9 5.71 5
  566.0 6.65 6
  566.1 7.21 7
  566.2 7.19 7
  566.3 6.71 6
  577.0 4.34 4
  577.1 5.19 5
  577.2 5.83 5
  577.3 6.13 6
  577.4 6.14 6
  577.5 5.88 5
  577.6 5.33 5
  577.7 4.65 4
  577.8 4.27 4
  577.9 4.39 4
  578.0 4.82 4
  578.1 5.19 5
  578.2 5.41 5
  578.3 5.57 5
  578.4 5.62 5
  578.5 5.4 5
  578.6 4.91 4
  578.7 4.48 4
  578.8 4.39 4
  578.9 4.63 4
  579.0 4.85 4
  579.1 4.88 4
  579.2 4.87 4
  579.3 5.13 5
  579.4 5.61 5
  579.5 5.91 5
  579.6 5.62 5
  579.7 4.95 4
  579.8 4.55 4
  579.9 4.78 4
  580.0 5.19 5
  580.1 5.21 5
  580.2 4.91 4
  580.3 4.77 4
  580.4 4.93 4
  580.5 5.23 5
  580.6 5.57 5
  580.7 5.93 5
  580.8 6.07 6
  580.9 5.75 5
  596.4 4.09 4
  596.5 4.86 4
  596.6 5.71 5
  596.7 6.39 6
  596.8 6.54 6
  596.9 6.1 6
  597.0 5.5 5
  597.1 5.15 5
  597.2 5.03 5
  597.3 4.88 4
  597.4 4.67 4
  597.5 4.6 4
  597.6 4.8 4
  597.7 5.08 5
  597.8 5.19 5
  597.9 5.15 5
  598.0 5.09 5
  598.1 5.02 5
  598.2 4.83 4
  598.3 4.69 4
  598.4 4.95 4
  598.5 5.65 5
  598.6 6.3 6
  598.7 6.4 6
  598.8 6.06 6
  598.9 5.85 5
  599.0 6.04 6
  599.1 6.34 6
  599.2 6.34 6
  599.3 5.97 5
  599.4 5.44 5
  599.5 5.02 5
  599.6 4.83 4
  599.7 4.88 4
  599.8 5.1 5
  599.9 5.42 5
  600.0 5.74 5
  600.1 5.92 5
  600.2 5.83 5
  600.3 5.54 5
  600.4 5.26 5
  600.5 5.14 5
  600.6 5.1 5
  600.7 5.08 5
  600.8 5.04 5
  600.9 4.97 4
  601.0 4.89 4
  601.1 4.86 4
  601.2 4.96 4
  601.3 5.06 5
  601.4 4.98 4
  601.5 4.68 4
  601.6 4.44 4
  601.7 4.58 4
  601.8 5.05 5
  601.9 5.57 5
  602.0 5.88 5
  602.1 5.98 5
  602.2 6.01 6
  602.3 6.09 6
  602.4 6.28 6
  602.5 6.52 6
  602.6 6.68 6
  602.7 6.56 6
  602.8 6.07 6
  602.9 5.4 5
  603.0 4.92 4
  603.1 4.9 4
  603.2 5.23 5
  603.3 5.56 5
  603.4 5.54 5
  603.5 5.15 5
  603.6 4.72 4
  603.7 4.66 4
  603.8 4.95 4
  603.9 5.12 5
  604.0 4.93 4
  604.1 4.71 4
  604.2 4.82 4
  604.3 5.12 5
  604.4 5.27 5
  604.5 5.12 5
  604.6 4.85 4
  604.7 4.63 4
  604.8 4.38 4
  604.9 4.0 3
  605.0 3.65 3
  605.1 3.73 3
  605.2 4.41 4
  605.3 5.42 5
  605.4 6.27 6
  605.5 6.61 6
  605.6 6.39 6
  605.7 5.91 5
  605.8 5.52 5
  605.9 5.29 5
  606.0 5.16 5
  606.1 5.11 5
  606.2 5.19 5
  606.3 5.39 5
  606.4 5.62 5
  606.5 5.77 5
  606.6 5.83 5
  606.7 5.83 5
  606.8 5.83 5
  606.9 5.76 5
  607.0 5.59 5
  607.1 5.33 5
  607.2 4.96 4
  607.3 4.49 4
  607.4 4.12 4
  607.5 4.16 4
  607.6 4.66 4
  607.7 5.28 5
  607.8 5.64 5
  607.9 5.75 5
  608.0 5.93 5
  608.1 6.3 6
  608.2 6.6 6
  608.3 6.46 6
  608.4 5.82 5
  608.5 5.05 5
  608.6 4.59 4
  608.7 4.67 4
  608.8 5.14 5
  608.9 5.62 5
  609.0 5.73 5
  609.1 5.36 5
  609.2 4.74 4
  609.3 4.2 4
  609.4 3.99 3
  609.5 4.18 4
  609.6 4.63 4
  609.7 5.04 5
  609.8 5.3 5
  609.9 5.48 5
  610.0 5.71 5
  610.1 5.89 5
  610.2 5.84 5
  610.3 5.43 5
  610.4 4.75 4
  610.5 4.17 4
  610.6 4.09 4
  610.7 4.58 4
  610.8 5.26 5
  610.9 5.77 5
  611.0 6.13 6
  611.1 6.42 6
  611.2 6.53 6
  611.3 6.26 6
  611.4 5.68 5
  611.5 5.05 5
  611.6 4.57 4
  611.7 4.33 4
  611.8 4.41 4
  611.9 4.73 4
  612.0 5.09 5
  612.1 5.32 5
  612.2 5.38 5
  612.3 5.32 5
  612.4 5.2 5
  612.5 5.1 5
  612.6 4.98 4
  612.7 4.79 4
  612.8 4.61 4
  612.9 4.57 4
  613.0 4.69 4
  613.1 4.95 4
  613.2 5.24 5
  613.3 5.45 5
  613.4 5.4 5
  613.5 5.13 5
  613.6 4.88 4
  613.7 4.78 4
  613.8 4.64 4
  613.9 4.4 4
  614.0 4.28 4
  614.1 4.52 4
  614.2 4.96 4
  614.3 5.21 5
  614.4 5.14 5
  614.5 5.01 5
  614.6 5.18 5
  614.7 5.6 5
  614.8 5.89 5
  614.9 5.81 5
  615.0 5.43 5
  615.1 5.0 4
  615.2 4.74 4
  615.3 4.73 4
  615.4 4.86 4
  615.5 4.93 4
  615.6 4.94 4
  615.7 5.03 5
  615.8 5.32 5
  615.9 5.61 5
  616.0 5.67 5
  616.1 5.51 5
  616.2 5.36 5
  616.3 5.39 5
  616.4 5.55 5
  616.5 5.74 5
  616.6 5.85 5
  616.7 5.74 5
  616.8 5.33 5
  616.9 4.64 4
  617.4 3.76 3
  617.5 4.54 4
  617.6 5.32 5
  617.7 5.96 5
  617.8 6.3 6
  617.9 6.18 6
  618.0 5.73 5
  618.1 5.25 5
  618.2 4.92 4
  618.3 4.67 4
  618.4 4.46 4
  618.5 4.48 4
  618.6 5.0 4
  618.7 5.96 5
  618.8 6.84 6
  618.9 7.21 7
  619.0 6.98 6
  619.1 6.4 6
  619.2 5.61 5
  625.5 4.91 4
  625.6 5.9 5
  625.7 6.92 6
  625.8 7.21 7
  625.9 6.67 6
  626.0 5.94 5
  626.1 5.59 5
  626.2 5.51 5
  626.3 5.35 5
  626.4 5.02 5
  626.5 4.69 4
  626.6 4.48 4
  626.7 4.37 4
  626.8 4.32 4
  626.9 4.37 4
  627.0 4.55 4
  627.1 4.84 4
  627.2 5.11 5
  627.3 5.27 5
  627.4 5.38 5
  627.5 5.52 5
  627.6 5.66 5
  627.7 5.74 5
  627.8 5.73 5
  627.9 5.56 5
  628.0 5.14 5
  628.1 4.49 4
  628.2 3.89 3
  628.3 3.64 3
  628.4 3.74 3
  628.5 3.92 3
  628.6 4.05 4
  628.7 4.17 4
  628.8 4.44 4
  628.9 4.86 4
  629.0 5.19 5
  629.1 5.29 5
  629.2 5.37 5
  629.3 5.64 5
  629.4 5.95 5
  629.5 5.96 5
  629.6 5.65 5
  629.7 5.32 5
  629.8 5.23 5
  629.9 5.45 5
  630.0 5.92 5
  630.1 6.4 6
  630.2 6.51 6
  630.3 5.99 5
  630.4 5.18 5
  630.5 4.7 4
  630.6 4.86 4
  630.7 5.42 5
  630.8 5.9 5
  630.9 5.95 5
  631.0 5.67 5
  631.1 5.32 5
  631.2 5.21 5
  631.3 5.48 5
  631.4 5.91 5
  631.5 6.13 6
  631.6 5.93 5
  631.7 5.47 5
  631.8 5.04 5
  631.9 4.82 4
  632.0 4.88 4
  632.1 5.19 5
  632.2 5.55 5
  632.3 5.75 5
  632.4 5.77 5
  632.5 5.71 5
  632.6 5.62 5
  632.7 5.47 5
  632.8 5.19 5
  632.9 4.89 4
  633.0 4.73 4
  633.1 4.82 4
  633.2 5.17 5
  633.3 5.71 5
  633.4 6.23 6
  633.5 6.52 6
  633.6 6.45 6
  633.7 6.08 6
  633.8 5.61 5
  633.9 5.16 5
  634.0 4.71 4
  634.1 4.41 4
  634.2 4.51 4
  634.3 5.08 5
  634.4 5.84 5
  634.5 6.44 6
  634.6 6.71 6
  634.7 6.58 6
  634.8 6.02 6
  634.9 5.28 5
  635.0 4.84 4
  635.1 4.96 4
  635.2 5.3 5
  635.3 5.25 5
  635.4 4.64 4
  635.5 3.88 3
  635.6 3.57 3
  635.7 3.94 3
  635.8 4.9 4
  635.9 6.1 6
  636.0 7.07 7
  636.1 7.39 7
  636.2 6.99 6
  639.8 4.49 4
  639.9 5.42 5
  640.0 6.5 6
  640.1 7.34 7
  640.2 7.9 7
  640.3 8.24 8
  640.4 8.33 8
  640.5 7.9 7
  640.6 6.92 6
  645.3 4.7 4
  645.4 5.77 5
  645.5 6.75 6
  645.6 7.36 7
  645.7 7.54 7
  645.8 7.38 7
  645.9 7.03 7
  646.0 6.53 6
  646.1 5.91 5
  646.2 5.36 5
  646.3 5.08 5
  646.4 5.08 5
  646.5 5.23 5
  646.6 5.38 5
  646.7 5.33 5
  646.8 5.05 5
  646.9 4.75 4
  647.0 4.71 4
  647.1 4.92 4
  647.2 5.1 5
  647.3 5.18 5
  647.4 5.3 5
  647.5 5.45 5
  647.6 5.42 5
  647.7 5.18 5
  647.8 5.07 5
  647.9 5.41 5
  648.0 6.13 6
  648.1 6.84 6
  648.2 7.05 7
  648.3 6.55 6
  648.4 5.58 5
  663.4 4.32 4
  663.5 5.58 5
  663.6 6.79 6
  663.7 7.54 7
  663.8 7.72 7
  663.9 7.41 7
  664.0 6.73 6
  664.1 5.82 5
  672.4 4.11 4
  672.5 5.24 5
  672.6 6.47 6
  672.7 7.27 7
  672.8 7.35 7
  672.9 6.83 6
  673.0 6.03 6
  683.5 4.04 4
  683.6 4.84 4
  683.7 5.81 5
  683.8 6.64 6
  683.9 6.99 6
  684.0 6.74 6
  684.1 6.11 6
  684.2 5.45 5
  684.3 5.06 5
  684.4 5.02 5
  684.5 5.16 5
  684.6 5.23 5
  684.7 5.14 5
  684.8 4.98 4
  684.9 4.85 4
  685.0 4.76 4
  685.1 4.64 4
  685.2 4.49 4
  685.3 4.48 4
  685.4 4.71 4
  685.5 4.99 4
  685.6 5.04 5
  685.7 4.84 4
  685.8 4.75 4
  685.9 5.1 5
  686.0 5.77 5
  686.1 6.39 6
  686.2 6.7 6
  686.3 6.65 6
  686.4 6.21 6
  689.5 4.3 4
  689.6 5.54 5
  689.7 6.79 6
  689.8 7.35 7
  689.9 7.01 7
  690.0 6.06 6
  690.1 5.06 5
  697.2 3.98 3
  697.3 4.87 4
  697.4 6.12 6
  697.5 6.98 6
  697.6 6.95 6
  697.7 6.16 6
  697.8 5.13 5
  698.2 3.42 3
  698.3 4.47 4
  698.4 5.75 5
  698.5 6.92 6
  698.6 7.69 7
  698.7 7.74 7
  698.8 6.87 6
  698.9 5.35 5
  710.8 5.15 5
  710.9 5.92 5
  711.0 6.66 6
  711.1 7.12 7
  711.2 6.93 6
  711.3 6.08 6
  711.4 5.0 4
  717.4 5.3 5
  717.5 6.06 6
  717.6 6.93 6
  717.7 7.44 7
  717.8 7.35 7
  717.9 6.91 6
  718.0 6.42 6
  718.1 5.81 5
  723.0 3.95 3
  723.1 5.34 5
  723.2 6.75 6
  723.3 7.77 7
  723.4 8.05 8
  723.5 7.51 7
  723.6 6.34 6
  723.7 4.97 4
  727.6 4.49 4
  727.7 5.34 5
  727.8 6.2 6
  727.9 6.59 6
  728.0 6.31 6
  736.5 3.52 3
  736.6 4.46 4
  736.7 5.73 5
  736.8 6.89 6
  736.9 7.52 7
  737.0 7.44 7
  737.1 6.75 6
  742.1 5.44 5
  742.2 6.24 6
  742.3 7.16 7
  742.4 7.83 7
  742.5 7.88 7
  742.6 7.19 7
  742.7 6.0 5
  742.8 4.82 4
  744.4 5.23 5
  744.5 6.11 6
  744.6 6.7 6
  744.7 6.93 6
  744.8 6.75 6
  744.9 6.07 6
  762.5 5.07 5
  762.6 5.99 5
  762.7 6.83 6
  762.8 7.4 7
  762.9 7.6 7
  763.0 7.36 7
  763.1 6.78 6
  763.2 6.07 6
  769.1 5.72 5
  769.2 6.54 6
  769.3 7.29 7
  769.4 7.78 7
  769.5 7.75 7
  769.6 7.2 7
  769.7 6.42 6
  771.5 5.41 5
  771.6 6.17 6
  771.7 7.01 7
  771.8 7.66 7
  771.9 7.81 7
  772.0 7.4 7
  772.1 6.67 6
  774.9 4.01 4
  775.0 5.0 4
  775.1 6.04 6
  775.2 6.94 6
  775.3 7.48 7
  775.4 7.48 7
  775.5 6.96 6
  775.6 6.12 6
  779.4 6.55 6
  779.5 7.38 7
  779.6 8.66 8
  779.7 9.54 9
  779.8 8.92 8
  780.1 5.44 5
  780.2 7.47 7
  780.3 11.67 11
  780.4 17.34 17
  780.5 23.02 22
  780.6 28.83 28
  780.7 35.43 35
  780.8 40.93 40
  780.9 45.75 45
  781.0 56.81 56
  781.1 74.31 74
  781.2 81.1 81
  781.3 61.87 61
  781.4 27.61 27
  781.5 3.51 3
  781.7 3.01 3
  781.8 6.12 6
  781.9 6.52 6
  782.0 5.73 5
  784.0 4.66 4
  784.1 5.62 5
  784.2 6.51 6
  784.3 6.9 6
  784.4 6.78 6
  784.5 6.39 6
  784.6 5.97 5
  784.7 5.58 5
  784.8 5.23 5
  784.9 4.99 4
  785.0 5.01 5
  785.1 5.38 5
  785.2 5.89 5
  785.3 6.19 6
  785.4 6.13 6
  785.5 5.93 5
  785.6 5.79 5
  785.7 5.67 5
  785.8 5.45 5
  785.9 5.17 5
  786.0 4.95 4
  786.1 4.9 4
  786.2 4.99 4
  786.3 5.22 5
  786.4 5.54 5
  786.5 5.8 5
  786.6 5.71 5
  786.7 5.18 5
  786.8 4.5 4
  786.9 4.04 4
  787.0 3.91 3
  787.1 4.01 4
  787.2 4.39 4
  787.3 5.11 5
  787.4 5.97 5
  787.5 6.66 6
  787.6 7.03 7
  787.7 7.01 7
  787.8 6.53 6
  793.9 4.46 4
  794.0 5.16 5
  794.1 5.75 5
  794.2 6.12 6
  794.3 6.22 6
  794.4 6.02 6
  794.5 5.49 5
  817.5 5.09 5
  817.6 5.92 5
  817.7 6.63 6
  817.8 7.12 7
  817.9 7.32 7
  818.0 7.11 7
  818.1 6.37 6
  818.2 5.21 5
  824.4 4.22 4
  824.5 5.06 5
  824.6 5.79 5
  824.7 6.17 6
  824.8 6.08 6
  824.9 5.51 5
  825.5 4.5 4
  825.6 5.14 5
  825.7 5.72 5
  825.8 6.19 6
  825.9 6.49 6
  826.0 6.44 6
  826.1 5.94 5
  826.2 5.25 5
  826.3 4.75 4
  826.4 4.64 4
  826.5 4.82 4
  826.6 4.98 4
  826.7 4.89 4
  826.8 4.7 4
  826.9 4.76 4
  827.0 5.02 5
  827.1 5.12 5
  827.2 4.87 4
  827.3 4.49 4
  827.4 4.29 4
  827.5 4.35 4
  827.6 4.58 4
  827.7 4.87 4
  827.8 5.1 5
  827.9 5.17 5
  828.0 5.09 5
  828.1 4.95 4
  828.2 4.85 4
  828.3 4.8 4
  828.4 4.8 4
  828.5 4.81 4
  828.6 4.75 4
  828.7 4.64 4
  828.8 4.57 4
  828.9 4.59 4
  829.0 4.61 4
  829.1 4.65 4
  829.2 4.84 4
  829.3 5.27 5
  829.4 5.75 5
  829.5 6.01 6
  829.6 6.01 6
  829.7 5.89 5
  829.8 5.7 5
  829.9 5.29 5
  830.0 4.69 4
  830.1 4.28 4
  830.2 4.43 4
  830.3 5.11 5
  830.4 5.9 5
  830.5 6.35 6
  830.6 6.4 6
  830.7 6.23 6
  830.8 5.88 5
  830.9 5.29 5
  831.0 4.64 4
  831.1 4.29 4
  831.2 4.41 4
  831.3 4.83 4
  831.4 5.25 5
  831.5 5.46 5
  831.6 5.45 5
  831.7 5.38 5
  831.8 5.43 5
  831.9 5.61 5
  832.0 5.76 5
  832.1 5.72 5
  832.2 5.54 5
  832.3 5.42 5
  832.4 5.53 5
  832.5 5.84 5
  832.6 6.15 6
  832.7 6.18 6
  832.8 5.79 5
  836.9 4.18 4
  837.0 5.24 5
  837.1 6.22 6
  837.2 6.68 6
  837.3 6.41 6
  837.4 5.62 5
  837.5 4.94 4
  837.6 4.86 4
  837.7 5.25 5
  837.8 5.63 5
  837.9 5.62 5
  838.0 5.31 5
  838.1 4.99 4
  838.2 4.87 4
  838.3 4.88 4
  838.4 4.84 4
  838.5 4.63 4
  838.6 4.28 4
  838.7 3.98 3
  838.8 3.85 3
  838.9 3.89 3
  839.0 4.05 4
  839.1 4.4 4
  839.2 5.06 5
  839.3 5.87 5
  839.4 6.41 6
  839.5 6.39 6
  839.6 6.0 5
  839.7 5.62 5
  839.8 5.43 5
  839.9 5.23 5
  840.0 4.78 4
  840.1 4.26 4
  840.2 4.12 4
  840.3 4.56 4
  840.4 5.32 5
  840.5 5.94 5
  840.6 6.24 6
  840.7 6.27 6
  840.8 6.11 6
  840.9 5.77 5
  841.0 5.28 5
  841.1 4.8 4
  841.2 4.48 4
  841.3 4.4 4
  841.4 4.51 4
  841.5 4.79 4
  841.6 5.26 5
  841.7 5.85 5
  841.8 6.14 6
  841.9 5.87 5
  842.0 5.21 5
  842.1 4.67 4
  842.2 4.54 4
  842.3 4.67 4
  842.4 4.88 4
  842.5 5.15 5
  842.6 5.55 5
  842.7 6.01 6
  842.8 6.41 6
  842.9 6.57 6
  843.0 6.44 6
  843.1 6.03 6
  843.2 5.52 5
  843.3 5.15 5
  843.4 5.05 5
  843.5 5.17 5
  843.6 5.29 5
  843.7 5.22 5
  843.8 4.96 4
  843.9 4.69 4
  844.0 4.55 4
  844.1 4.5 4
  844.2 4.42 4
  844.3 4.23 4
  844.4 4.04 4
  844.5 4.14 4
  844.6 4.65 4
  844.7 5.34 5
  844.8 5.83 5
  844.9 6.06 6
  845.0 6.26 6
  845.1 6.44 6
  845.2 6.44 6
  845.3 6.2 6
  845.4 5.85 5
  845.5 5.64 5
  845.6 5.66 5
  845.7 5.86 5
  845.8 5.95 5
  845.9 5.73 5
  846.0 5.32 5
  846.1 5.08 5
  846.2 5.14 5
  846.3 5.27 5
  846.4 5.23 5
  846.5 4.95 4
  846.6 4.62 4
  846.7 4.49 4
  846.8 4.61 4
  846.9 4.86 4
  847.0 5.12 5
  847.1 5.48 5
  847.2 6.02 6
  847.3 6.61 6
  847.4 7.04 7
  847.5 7.13 7
  847.6 6.76 6
  847.7 5.98 5
  862.8 4.84 4
  862.9 5.73 5
  863.0 6.4 6
  863.1 6.56 6
  863.2 6.28 6
  863.3 5.79 5
  863.4 5.37 5
  863.5 5.18 5
  863.6 5.2 5
  863.7 5.24 5
  863.8 5.19 5
  863.9 5.17 5
  864.0 5.38 5
  864.1 5.89 5
  864.2 6.47 6
  864.3 6.78 6
  864.4 6.57 6
  881.0 4.65 4
  881.1 5.71 5
  881.2 6.82 6
  881.3 7.62 7
  881.4 7.85 7
  881.5 7.63 7
  881.6 7.18 7
  881.7 6.59 6
  885.4 5.04 5
  885.5 5.84 5
  885.6 6.8 6
  885.7 7.63 7
  885.8 7.95 7
  885.9 7.64 7
  892.3 4.2 4
  892.4 5.11 5
  892.5 5.75 5
  892.6 5.93 5
  892.7 5.92 5
  892.8 6.04 6
  892.9 6.22 6
  893.0 6.23 6
  893.1 6.12 6
  893.2 6.11 6
  893.3 6.28 6
  893.4 6.41 6
  893.5 6.36 6
  893.6 6.16 6
  893.7 5.89 5
  893.8 5.55 5
  893.9 5.13 5
  894.0 4.67 4
  894.1 4.21 4
  894.2 3.91 3
  894.3 3.99 3
  894.4 4.55 4
  894.5 5.31 5
  894.6 5.84 5
  894.7 6.01 6
  894.8 6.02 6
  894.9 6.01 6
  895.0 5.99 5
  895.1 5.84 5
  895.2 5.47 5
  895.3 4.92 4
  895.4 4.43 4
  895.5 4.27 4
  895.6 4.56 4
  895.7 5.1 5
  895.8 5.66 5
  895.9 6.17 6
  896.0 6.57 6
  896.1 6.63 6
  896.2 6.2 6
  896.3 5.64 5
  896.4 5.46 5
  896.5 5.69 5
  896.6 6.01 6
  896.7 6.25 6
  896.8 6.57 6
  896.9 6.93 6
  897.0 7.08 7
  897.1 6.83 6
  897.2 6.26 6
  897.3 5.65 5
  897.4 5.36 5
  897.5 5.77 5
  897.6 6.75 6
  897.7 7.61 7
  897.8 7.71 7
  897.9 7.17 7
  898.0 6.62 6
  898.1 6.46 6
  898.2 6.54 6
  898.3 6.46 6
  898.4 6.04 6
  898.5 5.47 5
  898.6 5.16 5
  898.7 5.39 5
  898.8 6.11 6
  898.9 6.93 6
  899.0 7.48 7
  899.1 7.77 7
  899.2 8.03 8
  899.3 8.27 8
  899.4 8.17 8
  899.5 7.47 7
//
