ACCESSION: MSBNK-RIKEN_NPDepo-NGA05085
RECORD_TITLE: Periplocin; LC-ESI-QQQ; MS2; Frag=135.0V CID@10.0; [M+HCOO]-
DATE: 2018.04.04
AUTHORS: Nogawa T, Okano A, CSRS, RIKEN
LICENSE: CC BY
COMMENT: Origin: Plant
COMMENT: SubCategory_DNP: Triterpenoids
CH$NAME: Periplocin
CH$COMPOUND_CLASS: Terpenoids
CH$FORMULA: C36H56O13
CH$EXACT_MASS: 696.8399
CH$SMILES: CO[C@H]1C[C@H](OC2CC[C@]3(C)C4CC[C@]5(C)C(C6=CC(=O)OC6)CCC5(O)C4CCC3(O)C2)O[C@H](C)C1OC1O[C@H](CO)[C@@H](O)[C@H](O)[C@H]1O
CH$IUPAC: InChI=1S/C36H56O13/c1-18-31(49-32-30(41)29(40)28(39)25(16-37)48-32)24(44-4)14-27(46-18)47-20-5-9-33(2)22-6-10-34(3)21(19-13-26(38)45-17-19)8-12-36(34,43)23(22)7-11-35(33,42)15-20/h13,18,20-25,27-32,37,39-43H,5-12,14-17H2,1-4H3/t18-,20?,21?,22?,23?,24+,25-,27+,28-,29+,30-,31?,32?,33-,34-,35?,36?/m1/s1
CH$LINK: CAS 13137-64-9
CH$LINK: CHEMSPIDER 23975 16739442
CH$LINK: INCHIKEY KWBPKUMWVXUSCA-YCUSOVAHSA-N
AC$INSTRUMENT: Agilent 6410 Triple Quadrupole LC/MS system
AC$INSTRUMENT_TYPE: LC-ESI-QQQ
AC$MASS_SPECTROMETRY: MS_TYPE MS2
AC$MASS_SPECTROMETRY: ION_MODE NEGATIVE
MS$FOCUSED_ION: PRECURSOR_TYPE [M+HCOO]-
PK$SPLASH: splash10-0006-0000001900-632c2a50cc7611337df6
PK$NUM_PEAK: 34
PK$PEAK: m/z int. rel.int.
  694.3 1.34 1
  694.4 2.53 2
  694.5 4.4 4
  694.6 6.76 6
  694.7 9.12 9
  694.8 11.41 11
  694.9 13.95 13
  695.0 16.38 16
  695.1 17.57 17
  695.2 17.14 17
  695.3 15.87 15
  695.4 14.12 14
  695.5 11.08 11
  695.6 6.62 6
  695.7 2.43 2
  740.1 0.69 0
  740.2 1.44 1
  740.3 3.0 2
  740.4 6.11 6
  740.5 11.65 11
  740.6 19.81 19
  740.7 29.42 29
  740.8 38.83 38
  740.9 47.66 47
  741.0 57.56 57
  741.1 70.17 70
  741.2 84.22 84
  741.3 95.76 95
  741.4 100.0 99
  741.5 91.99 91
  741.6 69.32 69
  741.7 37.7 37
  741.8 10.27 10
  741.9 0.16 0
//
