ACCESSION: MSBNK-RIKEN_NPDepo-NGA00928
RECORD_TITLE: 3-Hydroxy-12-ursen-28-oic acid; LC-ESI-QQQ; MS2; Frag=135.0V CID@25.0; [M+Na]+
DATE: 2018.04.04
AUTHORS: Nogawa T, Okano A, CSRS, RIKEN
LICENSE: CC BY
COMMENT: Origin: Plant
COMMENT: SubCategory_DNP: Triterpenoids
CH$NAME: 3-Hydroxy-12-ursen-28-oic acid
CH$COMPOUND_CLASS: Terpenoids
CH$FORMULA: C30H48O3
CH$EXACT_MASS: 456.7153
CH$SMILES: C[C@@H]1C2C3=CC[C@@H]4[C@@]5(C)CCC(O)C(C)(C)[C@@H]5CC[C@@]4(C)[C@]3(C)CCC2(C(=O)O)CC[C@H]1C
CH$IUPAC: InChI=1S/C30H48O3/c1-18-10-15-30(25(32)33)17-16-28(6)20(24(30)19(18)2)8-9-22-27(5)13-12-23(31)26(3,4)21(27)11-14-29(22,28)7/h8,18-19,21-24,31H,9-17H2,1-7H3,(H,32,33)/t18-,19+,21+,22-,23?,24?,27+,28-,29-,30?/m1/s1
CH$LINK: CAS 77-52-1
CH$LINK: CHEMSPIDER 58472
CH$LINK: INCHIKEY WCGUUGGRBIKTOS-MUVOVJNASA-N
AC$INSTRUMENT: Agilent 6410 Triple Quadrupole LC/MS system
AC$INSTRUMENT_TYPE: LC-ESI-QQQ
AC$MASS_SPECTROMETRY: MS_TYPE MS2
AC$MASS_SPECTROMETRY: ION_MODE POSITIVE
MS$FOCUSED_ION: PRECURSOR_TYPE [M+Na]+
PK$SPLASH: splash10-004r-4889880000-f7c8891e237b8b46088a
PK$NUM_PEAK: 3788
PK$PEAK: m/z int. rel.int.
  50.9 5.64 5
  51.0 9.71 9
  51.1 13.79 13
  51.2 15.08 15
  51.3 13.06 13
  52.1 8.08 8
  52.2 10.11 10
  52.3 13.28 13
  52.4 15.31 15
  52.5 14.21 14
  52.6 10.23 10
  52.8 6.3 6
  52.9 10.05 10
  53.0 14.42 14
  53.1 15.84 15
  53.2 13.47 13
  53.3 9.47 9
  53.5 7.62 7
  53.6 10.11 10
  53.7 11.89 11
  53.8 11.74 11
  53.9 10.54 10
  54.0 10.28 10
  54.1 11.99 11
  54.2 14.47 14
  54.3 15.34 15
  54.4 13.17 13
  54.7 9.15 9
  54.8 14.12 14
  54.9 18.01 17
  55.0 16.97 16
  55.1 11.15 11
  55.3 4.08 4
  55.4 9.36 9
  55.5 16.73 16
  55.6 19.89 19
  55.7 16.29 16
  55.8 9.73 9
  56.0 8.92 8
  56.1 13.76 13
  56.2 15.95 15
  56.3 13.51 13
  56.5 6.83 6
  56.6 9.66 9
  56.7 15.59 15
  56.8 19.74 19
  56.9 18.71 18
  57.0 13.76 13
  57.2 8.43 8
  57.3 11.91 11
  57.4 16.59 16
  57.5 18.23 18
  57.6 14.8 14
  57.7 8.64 8
  57.9 5.1 5
  58.0 9.92 9
  58.1 15.11 15
  58.2 16.88 16
  58.3 14.31 14
  58.6 9.38 9
  58.7 12.86 12
  58.8 14.58 14
  58.9 13.18 13
  59.8 6.46 6
  59.9 9.15 9
  60.0 11.88 11
  60.1 12.28 12
  60.2 10.39 10
  60.4 7.72 7
  60.5 10.15 10
  60.6 14.0 13
  60.7 15.94 15
  60.8 13.9 13
  61.7 6.43 6
  61.8 9.26 9
  61.9 12.55 12
  62.0 13.15 13
  62.1 10.02 10
  62.3 5.94 5
  62.4 11.21 11
  62.5 18.56 18
  62.6 22.41 22
  62.7 19.61 19
  62.8 12.05 12
  63.1 6.74 6
  63.2 12.42 12
  63.3 15.55 15
  63.4 13.93 13
  63.5 9.68 9
  64.2 5.38 5
  64.3 8.84 8
  64.4 13.86 13
  64.5 17.05 17
  64.6 16.66 16
  64.7 13.36 13
  64.9 8.7 8
  65.0 11.53 11
  65.1 15.49 15
  65.2 16.37 16
  65.3 13.07 13
  66.2 7.02 7
  66.3 11.15 11
  66.4 15.73 15
  66.5 17.08 17
  66.6 13.73 13
  66.9 7.41 7
  67.0 12.8 12
  67.1 16.3 16
  67.2 14.71 14
  67.3 9.9 9
  67.5 7.41 7
  67.6 11.33 11
  67.7 14.79 14
  67.8 15.37 15
  67.9 13.0 12
  68.0 9.62 9
  68.2 8.54 8
  68.3 11.15 11
  68.4 13.01 12
  68.5 12.45 12
  68.7 9.7 9
  68.8 12.11 12
  68.9 16.19 16
  69.0 18.21 18
  69.1 15.94 15
  69.2 10.92 10
  69.4 6.3 6
  69.5 9.5 9
  69.6 13.69 13
  69.7 15.31 15
  69.8 13.04 13
  70.7 10.94 10
  70.8 12.72 12
  70.9 13.53 13
  71.0 12.58 12
  71.3 10.01 9
  71.4 13.59 13
  71.5 18.0 17
  71.6 19.6 19
  71.7 16.51 16
  72.0 11.27 11
  72.1 16.56 16
  72.2 19.62 19
  72.3 17.59 17
  72.4 12.29 12
  72.6 9.14 9
  72.7 13.31 13
  72.8 17.08 17
  72.9 17.1 17
  73.0 13.13 13
  73.3 7.44 7
  73.4 12.55 12
  73.5 16.87 16
  73.6 17.34 17
  73.7 13.86 13
  73.9 8.47 8
  74.0 11.47 11
  74.1 15.05 15
  74.2 15.1 15
  74.3 11.2 11
  74.5 5.81 5
  74.6 8.66 8
  74.7 12.59 12
  74.8 13.79 13
  74.9 10.61 10
  75.2 5.93 5
  75.3 12.26 12
  75.4 17.05 17
  75.5 16.72 16
  75.6 11.83 11
  75.7 6.25 6
  75.9 5.21 5
  76.0 8.84 8
  76.1 11.19 11
  76.2 10.79 10
  76.3 9.25 9
  76.4 9.32 9
  76.5 11.53 11
  76.6 13.69 13
  76.7 13.43 13
  76.8 10.86 10
  77.1 8.81 8
  77.2 11.93 11
  77.3 15.05 15
  77.4 15.64 15
  77.5 12.58 12
  77.7 6.88 6
  77.8 10.7 10
  77.9 16.07 16
  78.0 17.46 17
  78.1 13.23 13
  78.2 7.11 7
  78.4 5.63 5
  78.5 10.13 10
  78.6 13.99 13
  78.7 14.69 14
  78.8 12.23 12
  79.0 8.25 8
  79.1 10.34 10
  79.2 13.53 13
  79.3 15.15 15
  79.4 13.51 13
  79.7 8.47 8
  79.8 12.74 12
  79.9 15.63 15
  80.0 14.09 14
  80.1 9.54 9
  80.3 7.73 7
  80.4 12.49 12
  80.5 16.24 16
  80.6 14.91 14
  80.7 9.01 9
  80.9 3.79 3
  81.0 9.26 9
  81.1 14.87 14
  81.2 15.9 15
  81.3 12.08 12
  81.6 7.36 7
  81.7 11.1 11
  81.8 13.44 13
  81.9 12.84 12
  82.0 10.07 10
  82.2 8.3 8
  82.3 11.77 11
  82.4 15.04 15
  82.5 14.69 14
  82.6 10.27 10
  82.8 4.06 4
  82.9 8.02 8
  83.0 14.01 13
  83.1 17.44 17
  83.2 16.19 16
  83.3 11.86 11
  84.0 6.97 6
  84.1 10.14 10
  84.2 15.69 15
  84.3 19.51 19
  84.4 18.57 18
  84.5 13.75 13
  84.7 9.39 9
  84.8 14.01 13
  84.9 19.68 19
  85.0 21.75 21
  85.1 18.24 18
  85.2 11.45 11
  85.4 5.32 5
  85.5 8.85 8
  85.6 13.66 13
  85.7 16.29 16
  85.8 14.81 14
  85.9 10.78 10
  86.1 9.63 9
  86.2 13.15 13
  86.3 14.55 14
  86.4 12.31 12
  86.6 8.05 8
  86.7 10.84 10
  86.8 14.68 14
  86.9 15.74 15
  87.0 12.7 12
  87.3 7.13 7
  87.4 12.34 12
  87.5 17.67 17
  87.6 19.28 19
  87.7 16.2 16
  88.0 11.6 11
  88.1 14.75 14
  88.2 16.31 16
  88.3 15.24 15
  88.4 12.58 12
  88.5 10.3 10
  89.1 6.82 6
  89.2 9.82 9
  89.3 14.27 14
  89.4 17.01 16
  89.5 16.08 16
  89.6 11.83 11
  89.9 7.73 7
  90.0 13.09 13
  90.1 16.52 16
  90.2 15.03 15
  90.3 9.96 9
  90.5 7.12 7
  90.6 12.51 12
  90.7 17.23 17
  90.8 16.75 16
  90.9 11.5 11
  91.1 5.08 5
  91.2 8.86 8
  91.3 14.57 14
  91.4 18.11 18
  91.5 16.94 16
  91.6 12.36 12
  92.4 5.1 5
  92.5 9.9 9
  92.6 15.22 15
  92.7 16.72 16
  92.8 13.61 13
  93.1 9.83 9
  93.2 14.19 14
  93.3 16.59 16
  93.4 14.96 14
  93.5 10.69 10
  93.7 6.8 6
  93.8 10.49 10
  93.9 15.59 15
  94.0 17.75 17
  94.1 14.86 14
  95.0 7.71 7
  95.1 11.11 11
  95.2 13.92 13
  95.3 13.99 13
  95.4 11.5 11
  95.6 8.12 8
  95.7 11.0 10
  95.8 14.86 14
  95.9 15.66 15
  96.0 12.16 12
  96.2 7.23 7
  96.3 10.53 10
  96.4 14.68 14
  96.5 16.46 16
  96.6 14.87 14
  96.7 10.98 10
  97.6 5.42 5
  97.7 9.91 9
  97.8 14.17 14
  97.9 14.25 14
  98.0 11.04 11
  98.2 9.51 9
  98.3 12.04 12
  98.4 13.66 13
  98.5 13.5 13
  98.6 12.26 12
  99.5 7.49 7
  99.6 10.83 10
  99.7 13.87 13
  99.8 13.3 13
  100.0 8.07 8
  100.1 10.43 10
  100.2 14.97 14
  100.3 17.59 17
  100.4 16.4 16
  100.5 12.57 12
  100.8 8.47 8
  100.9 11.99 11
  101.0 14.83 14
  101.1 14.67 14
  101.2 11.86 11
  101.4 9.25 9
  101.5 12.28 12
  101.6 16.12 16
  101.7 17.75 17
  101.8 15.64 15
  102.7 6.92 6
  102.8 13.51 13
  102.9 17.59 17
  103.0 16.5 16
  103.1 11.36 11
  103.3 5.19 5
  103.4 9.7 9
  103.5 16.27 16
  103.6 19.7 19
  103.7 17.78 17
  103.8 12.92 12
  104.0 10.54 10
  104.1 14.78 14
  104.2 17.83 17
  104.3 15.9 15
  104.4 9.95 9
  104.6 4.87 4
  104.7 8.29 8
  104.8 11.48 11
  104.9 12.39 12
  105.0 11.65 11
  105.1 10.73 10
  105.2 10.81 10
  105.3 12.22 12
  105.4 14.42 14
  105.5 15.39 15
  105.6 13.24 13
  105.7 8.8 8
  105.9 5.85 5
  106.0 9.24 9
  106.1 12.6 12
  106.2 13.46 13
  106.3 11.6 11
  106.5 8.47 8
  106.6 10.9 10
  106.7 14.16 14
  106.8 14.55 14
  106.9 10.51 10
  107.1 2.68 2
  107.2 5.97 5
  107.3 12.59 12
  107.4 17.83 17
  107.5 18.24 18
  107.6 14.24 14
  107.8 10.76 10
  107.9 15.46 15
  108.0 19.24 19
  108.1 17.82 17
  108.2 12.35 12
  108.4 7.13 7
  108.5 10.03 10
  108.6 13.3 13
  108.7 13.99 13
  108.8 11.24 11
  109.1 6.89 6
  109.2 11.43 11
  109.3 14.09 14
  109.4 12.48 12
  109.6 7.47 7
  109.7 10.04 10
  109.8 14.09 14
  109.9 16.16 16
  110.0 14.74 14
  110.1 10.47 10
  110.3 4.05 4
  110.4 6.81 6
  110.5 11.85 11
  110.6 14.89 14
  110.7 13.88 13
  110.8 10.73 10
  111.5 6.13 6
  111.6 7.36 7
  111.7 11.74 11
  111.8 16.67 16
  111.9 18.09 18
  112.0 14.71 14
  112.1 9.45 9
  112.3 8.12 8
  112.4 12.51 12
  112.5 15.78 15
  112.6 14.62 14
  112.7 9.15 9
  112.9 2.03 2
  113.0 6.07 6
  113.1 12.16 12
  113.2 15.34 15
  113.3 13.7 13
  114.1 5.57 5
  114.2 8.21 8
  114.3 12.56 12
  114.4 15.2 15
  114.5 14.45 14
  114.6 11.22 11
  114.8 8.28 8
  114.9 10.81 10
  115.0 13.35 13
  115.1 13.38 13
  115.2 10.69 10
  115.4 6.04 6
  115.5 8.08 8
  115.6 12.71 12
  115.7 17.13 17
  115.8 18.43 18
  115.9 15.66 15
  116.0 10.65 10
  116.2 6.07 6
  116.3 9.75 9
  116.4 14.46 14
  116.5 15.64 15
  116.6 12.14 12
  116.8 6.96 6
  116.9 10.35 10
  117.0 14.01 13
  117.1 14.82 14
  117.2 13.42 13
  117.9 5.82 5
  118.0 7.39 7
  118.1 11.16 11
  118.2 15.73 15
  118.3 18.56 18
  118.4 17.56 17
  118.5 13.07 13
  118.7 8.31 8
  118.8 13.08 13
  118.9 18.78 18
  119.0 19.88 19
  119.1 15.37 15
  119.2 9.72 9
  119.9 5.98 5
  120.0 8.63 8
  120.1 14.14 14
  120.2 18.14 18
  120.3 17.09 17
  120.4 12.17 12
  120.6 8.56 8
  120.7 12.29 12
  120.8 15.91 15
  120.9 16.78 16
  121.0 14.68 14
  121.3 10.13 10
  121.4 14.46 14
  121.5 17.93 17
  121.6 16.55 16
  121.7 11.13 11
  121.9 7.35 7
  122.0 11.27 11
  122.1 13.89 13
  122.2 12.4 12
  122.3 7.96 7
  122.5 5.78 5
  122.6 10.18 10
  122.7 14.37 14
  122.8 15.75 15
  122.9 14.47 14
  123.0 11.97 11
  123.2 9.37 9
  123.3 11.86 11
  123.4 15.29 15
  123.5 16.01 15
  123.6 12.72 12
  123.8 7.54 7
  123.9 10.59 10
  124.0 14.36 14
  124.1 15.44 15
  124.2 13.12 13
  124.3 9.37 9
  124.5 7.47 7
  124.6 10.72 10
  124.7 13.74 13
  124.8 13.63 13
  125.1 9.16 9
  125.2 14.24 14
  125.3 19.52 19
  125.4 20.2 20
  125.5 14.89 14
  125.8 6.77 6
  125.9 13.74 13
  126.0 18.39 18
  126.1 16.37 16
  126.2 9.52 9
  126.4 5.66 5
  126.5 12.19 12
  126.6 18.04 18
  126.7 18.51 18
  126.8 13.71 13
  127.0 6.26 6
  127.1 9.8 9
  127.2 14.98 14
  127.3 16.41 16
  127.4 12.24 12
  127.6 4.18 4
  127.7 7.94 7
  127.8 13.82 13
  127.9 16.19 16
  128.0 13.2 13
  128.1 7.98 7
  128.3 6.88 6
  128.4 10.66 10
  128.5 13.06 13
  128.6 12.31 12
  128.7 9.5 9
  128.9 6.92 6
  129.0 8.99 8
  129.1 11.7 11
  129.2 12.54 12
  129.3 10.36 10
  129.5 6.33 6
  129.6 9.37 9
  129.7 13.95 13
  129.8 16.25 16
  129.9 14.18 14
  130.0 9.01 9
  130.2 3.19 3
  130.3 6.11 6
  130.4 10.49 10
  130.5 12.75 12
  130.8 9.79 9
  130.9 13.62 13
  131.0 18.54 18
  131.1 20.42 20
  131.2 17.34 17
  131.3 11.52 11
  131.5 7.98 7
  131.6 11.94 11
  131.7 15.51 15
  131.8 15.34 15
  131.9 11.39 11
  132.1 6.79 6
  132.2 11.05 11
  132.3 16.48 16
  132.4 18.46 18
  132.5 15.43 15
  133.4 8.46 8
  133.5 13.55 13
  133.6 17.2 17
  133.7 16.67 16
  133.8 12.55 12
  134.0 7.92 7
  134.1 11.96 11
  134.2 17.51 17
  134.3 20.02 19
  134.4 17.43 17
  134.5 12.01 11
  134.7 9.01 9
  134.8 12.66 12
  134.9 15.66 15
  135.0 15.22 15
  135.1 11.48 11
  135.3 6.48 6
  135.4 9.71 9
  135.5 14.17 14
  135.6 15.41 15
  135.7 12.14 12
  135.9 7.21 7
  136.0 11.29 11
  136.1 16.41 16
  136.2 18.26 18
  136.3 15.8 15
  136.4 11.52 11
  136.6 8.47 8
  136.7 10.7 10
  136.8 12.77 12
  136.9 12.35 12
  137.0 9.37 9
  137.2 6.25 6
  137.3 9.37 9
  137.4 13.26 13
  137.5 14.29 14
  137.6 11.45 11
  138.5 6.83 6
  138.6 9.16 9
  138.7 11.87 11
  138.8 13.33 13
  138.9 11.94 11
  139.1 6.48 6
  139.2 8.93 8
  139.3 14.09 14
  139.4 17.27 17
  139.5 15.58 15
  139.6 10.43 10
  139.8 6.03 6
  139.9 10.95 10
  140.0 17.06 17
  140.1 19.17 19
  140.2 15.43 15
  140.3 9.25 9
  140.5 8.44 8
  140.6 13.47 13
  140.7 16.18 16
  140.8 13.92 13
  140.9 8.96 8
  141.1 6.69 6
  141.2 10.38 10
  141.3 13.48 13
  141.4 13.12 13
  141.5 9.19 9
  141.7 4.35 4
  141.8 8.15 8
  141.9 13.08 13
  142.0 14.87 14
  142.1 12.14 12
  142.3 7.17 7
  142.4 11.39 11
  142.5 16.79 16
  142.6 17.75 17
  142.7 12.86 12
  143.0 6.32 6
  143.1 11.89 11
  143.2 15.87 15
  143.3 15.23 15
  143.4 10.7 10
  143.6 5.56 5
  143.7 8.7 8
  143.8 12.59 12
  143.9 13.78 13
  144.0 11.21 11
  144.3 6.66 6
  144.4 11.58 11
  144.5 15.48 15
  144.6 15.01 14
  144.7 10.88 10
  144.9 7.59 7
  145.0 12.2 12
  145.1 17.76 17
  145.2 20.02 19
  145.3 16.77 16
  145.4 9.82 9
  145.6 4.11 4
  145.7 9.07 9
  145.8 14.14 14
  145.9 14.59 14
  146.0 10.51 10
  146.2 6.16 6
  146.3 10.59 10
  146.4 16.21 16
  146.5 19.04 19
  146.6 17.5 17
  146.7 13.43 13
  147.4 5.38 5
  147.5 9.22 9
  147.6 15.78 15
  147.7 19.41 19
  147.8 17.09 17
  147.9 11.1 11
  148.1 6.93 6
  148.2 11.91 11
  148.3 17.75 17
  148.4 20.48 20
  148.5 19.16 19
  148.6 16.05 16
  149.4 9.05 9
  149.5 12.4 12
  149.6 16.53 16
  149.7 17.36 17
  149.8 13.84 13
  150.0 9.27 9
  150.1 13.08 13
  150.2 17.11 17
  150.3 16.83 16
  150.4 11.45 11
  150.7 5.05 5
  150.8 13.09 13
  150.9 19.68 19
  151.0 19.79 19
  151.1 14.04 14
  151.9 10.89 10
  152.0 12.87 12
  152.1 15.33 15
  152.2 15.79 15
  152.3 13.16 13
  152.4 8.77 8
  152.6 5.48 5
  152.7 8.66 8
  152.8 12.45 12
  152.9 13.19 13
  153.0 10.0 9
  153.2 7.12 7
  153.3 12.74 12
  153.4 18.27 18
  153.5 18.28 18
  153.6 12.25 12
  153.9 6.11 6
  154.0 13.41 13
  154.1 18.35 18
  154.2 17.44 17
  154.3 12.4 12
  154.5 8.96 8
  154.6 13.27 13
  154.7 17.28 17
  154.8 17.77 17
  154.9 14.76 14
  155.0 10.71 10
  155.2 9.24 9
  155.3 12.5 12
  155.4 15.4 15
  155.5 15.13 15
  155.6 11.65 11
  155.8 7.89 7
  155.9 11.62 11
  156.0 15.98 15
  156.1 16.97 16
  156.2 13.46 13
  157.0 5.71 5
  157.1 8.52 8
  157.2 13.69 13
  157.3 17.09 17
  157.4 16.04 16
  157.5 11.47 11
  158.3 2.77 2
  158.4 6.53 6
  158.5 13.09 13
  158.6 18.17 18
  158.7 17.95 17
  158.8 13.14 13
  159.0 8.89 8
  159.1 13.37 13
  159.2 17.86 17
  159.3 18.38 18
  159.4 14.66 14
  159.5 9.61 9
  159.7 8.29 8
  159.8 11.93 11
  159.9 14.12 14
  160.0 12.46 12
  160.1 8.16 8
  160.3 5.77 5
  160.4 10.6 10
  160.5 15.46 15
  160.6 16.13 16
  160.7 12.14 12
  161.5 7.36 7
  161.6 10.0 9
  161.7 13.59 13
  161.8 15.57 15
  161.9 14.77 14
  162.8 7.66 7
  162.9 10.52 10
  163.0 13.51 13
  163.1 14.78 14
  163.2 13.27 13
  163.5 8.81 8
  163.6 14.25 14
  163.7 19.44 19
  163.8 19.5 19
  163.9 13.71 13
  164.2 6.11 6
  164.3 12.06 12
  164.4 16.75 16
  164.5 17.39 17
  164.6 14.68 14
  165.3 10.46 10
  165.4 12.5 12
  165.5 16.37 16
  165.6 18.95 18
  165.7 17.85 17
  165.8 13.44 13
  166.7 8.44 8
  166.8 13.16 13
  166.9 16.01 15
  167.0 14.71 14
  167.1 10.64 10
  167.3 6.82 6
  167.4 9.93 9
  167.5 14.45 14
  167.6 17.34 17
  167.7 16.51 16
  167.8 12.7 12
  168.6 7.93 7
  168.7 11.52 11
  168.8 14.42 14
  168.9 13.5 13
  169.0 9.69 9
  169.2 6.97 6
  169.3 10.13 10
  169.4 14.16 14
  169.5 17.27 17
  169.6 18.11 18
  169.7 16.06 16
  169.8 11.89 11
  170.0 7.99 7
  170.1 10.94 10
  170.2 13.23 13
  170.3 11.3 11
  171.1 7.63 7
  171.2 10.41 10
  171.3 13.37 13
  171.4 13.27 13
  171.5 9.93 9
  171.8 5.13 5
  171.9 9.07 9
  172.0 13.23 13
  172.1 14.87 14
  172.2 13.12 13
  173.0 7.41 7
  173.1 10.03 10
  173.2 13.98 13
  173.3 16.04 16
  173.4 14.54 14
  173.5 10.92 10
  174.3 4.6 4
  174.4 9.93 9
  174.5 16.73 16
  174.6 20.36 20
  174.7 18.5 18
  174.8 12.79 12
  174.9 7.15 7
  175.1 6.2 6
  175.2 10.04 10
  175.3 12.87 12
  175.4 11.86 11
  175.7 5.63 5
  175.8 11.06 11
  175.9 16.01 15
  176.0 16.68 16
  176.1 13.4 13
  176.9 5.27 5
  177.0 9.24 9
  177.1 14.57 14
  177.2 16.71 16
  177.3 14.79 14
  178.1 7.4 7
  178.2 9.75 9
  178.3 14.79 14
  178.4 19.22 19
  178.5 19.55 19
  178.6 15.01 14
  179.5 3.83 3
  179.6 9.25 9
  179.7 16.03 16
  179.8 19.24 19
  179.9 16.91 16
  180.8 7.62 7
  180.9 13.97 13
  181.0 19.27 19
  181.1 19.27 19
  181.2 14.34 14
  181.4 9.8 9
  181.5 14.06 14
  181.6 17.31 17
  181.7 16.04 16
  181.8 11.71 11
  182.0 8.1 8
  182.1 10.42 10
  182.2 13.5 13
  182.3 15.29 15
  182.4 14.31 14
  182.5 10.69 10
  182.7 6.12 6
  182.8 8.94 8
  182.9 13.23 13
  183.0 15.33 15
  183.1 13.54 13
  183.4 9.67 9
  183.5 14.74 14
  183.6 18.54 18
  183.7 17.57 17
  183.8 12.96 12
  184.5 4.57 4
  184.6 7.25 7
  184.7 12.72 12
  184.8 16.38 16
  184.9 14.92 14
  185.0 9.55 9
  185.2 4.4 4
  185.3 8.8 8
  185.4 14.62 14
  185.5 17.0 16
  185.6 13.75 13
  185.7 7.62 7
  185.9 6.48 6
  186.0 11.75 11
  186.1 14.59 14
  186.2 12.56 12
  186.5 7.93 7
  186.6 11.47 11
  186.7 14.13 14
  186.8 14.14 14
  186.9 11.42 11
  187.1 7.26 7
  187.2 11.08 11
  187.3 16.64 16
  187.4 19.01 18
  187.5 16.26 16
  187.6 11.21 11
  187.8 8.68 8
  187.9 12.2 12
  188.0 15.38 15
  188.1 15.34 15
  188.2 11.8 11
  188.4 6.79 6
  188.5 9.58 9
  188.6 13.85 13
  188.7 15.87 15
  188.8 13.53 13
  189.1 8.3 8
  189.2 13.69 13
  189.3 17.36 17
  189.4 16.52 16
  189.5 12.62 12
  190.3 7.32 7
  190.4 9.35 9
  190.5 13.93 13
  190.6 16.88 16
  190.7 15.29 15
  190.8 10.47 10
  191.6 5.44 5
  191.7 8.65 8
  191.8 13.3 13
  191.9 15.54 15
  192.0 13.17 13
  192.3 7.64 7
  192.4 12.9 12
  192.5 16.88 16
  192.6 16.7 16
  192.7 13.37 13
  192.9 10.81 10
  193.0 13.99 13
  193.1 16.98 16
  193.2 16.76 16
  193.3 12.84 12
  193.4 7.63 7
  193.6 6.24 6
  193.7 11.65 11
  193.8 17.04 17
  193.9 18.63 18
  194.0 15.91 15
  194.1 11.77 11
  194.8 6.88 6
  194.9 10.7 10
  195.0 15.08 15
  195.1 16.75 16
  195.2 14.82 14
  196.1 8.71 8
  196.2 12.5 12
  196.3 15.74 15
  196.4 15.41 15
  196.5 11.73 11
  196.7 7.05 7
  196.8 9.57 9
  196.9 13.31 13
  197.0 15.35 15
  197.1 13.9 13
  197.2 9.95 9
  197.4 7.77 7
  197.5 12.43 12
  197.6 16.66 16
  197.7 16.31 16
  197.8 11.46 11
  198.0 6.01 6
  198.1 10.55 10
  198.2 16.16 16
  198.3 17.88 17
  198.4 14.33 14
  199.3 4.88 4
  199.4 8.63 8
  199.5 12.95 12
  199.6 14.69 14
  199.7 12.52 12
  199.9 6.54 6
  200.0 9.22 9
  200.1 14.37 14
  200.2 17.4 17
  200.3 15.67 15
  200.4 10.94 10
  200.6 7.71 7
  200.7 11.21 11
  200.8 14.34 14
  200.9 14.28 14
  201.0 11.33 11
  201.2 8.41 8
  201.3 10.65 10
  201.4 12.91 12
  201.5 13.06 13
  201.6 10.71 10
  201.8 5.74 5
  201.9 7.95 7
  202.0 12.72 12
  202.1 15.72 15
  202.2 13.53 13
  202.3 7.72 7
  202.5 4.47 4
  202.6 9.74 9
  202.7 14.81 14
  202.8 15.87 15
  202.9 12.83 12
  203.8 7.19 7
  203.9 10.96 10
  204.0 14.79 14
  204.1 15.75 15
  204.2 13.26 13
  205.1 7.23 7
  205.2 11.43 11
  205.3 13.81 13
  205.4 12.27 12
  205.7 8.51 8
  205.8 13.71 13
  205.9 17.78 17
  206.0 17.25 17
  206.1 12.54 12
  206.9 4.43 4
  207.0 7.07 7
  207.1 11.93 11
  207.2 15.55 15
  207.3 15.32 15
  207.4 11.64 11
  207.6 7.95 7
  207.7 11.39 11
  207.8 14.97 14
  207.9 15.39 15
  208.0 12.42 12
  208.2 7.32 7
  208.3 10.13 10
  208.4 15.6 15
  208.5 20.09 20
  208.6 20.29 20
  208.7 15.82 15
  208.8 9.79 9
  209.0 8.27 8
  209.1 12.14 12
  209.2 14.13 14
  209.3 12.52 12
  209.6 8.76 8
  209.7 11.53 11
  209.8 13.96 13
  209.9 14.63 14
  210.2 12.28 12
  210.3 15.08 15
  210.4 17.52 17
  210.5 16.48 16
  210.6 12.06 12
  210.9 8.51 8
  211.0 12.34 12
  211.1 14.93 14
  211.2 14.48 14
  212.1 8.13 8
  212.2 12.02 12
  212.3 15.67 15
  212.4 15.74 15
  212.5 11.65 11
  212.8 4.65 4
  212.9 11.08 11
  213.0 16.64 16
  213.1 17.19 17
  213.2 13.4 13
  213.4 9.22 9
  213.5 11.91 11
  213.6 14.63 14
  213.7 14.57 14
  213.8 11.48 11
  214.0 6.8 6
  214.1 9.52 9
  214.2 13.42 13
  214.3 14.6 14
  214.4 11.79 11
  214.7 7.52 7
  214.8 11.33 11
  214.9 14.5 14
  215.0 14.7 14
  215.1 11.47 11
  215.4 6.8 6
  215.5 10.23 10
  215.6 12.7 12
  215.7 12.95 12
  215.8 11.41 11
  216.0 9.35 9
  216.1 11.09 11
  216.2 13.03 13
  216.3 12.62 12
  216.6 8.07 8
  216.7 12.28 12
  216.8 15.7 15
  216.9 14.94 14
  217.0 10.77 10
  217.2 7.09 7
  217.3 10.58 10
  217.4 14.63 14
  217.5 15.9 15
  217.6 13.32 13
  217.7 8.73 8
  217.9 6.38 6
  218.0 10.29 10
  218.1 14.18 14
  218.2 15.01 14
  218.3 12.04 12
  218.6 6.79 6
  218.7 10.81 10
  218.8 12.46 12
  219.1 8.46 8
  219.2 12.95 12
  219.3 16.77 16
  219.4 16.68 16
  219.5 13.14 13
  219.8 8.1 8
  219.9 12.17 12
  220.0 15.83 15
  220.1 16.06 16
  220.2 12.52 12
  220.3 7.8 7
  220.5 6.57 6
  220.6 9.93 9
  220.7 12.08 12
  220.8 10.72 10
  221.1 5.42 5
  221.2 11.6 11
  221.3 17.18 17
  221.4 17.62 17
  221.5 13.36 13
  222.4 6.83 6
  222.5 11.36 11
  222.6 15.33 15
  222.7 15.74 15
  222.8 12.6 12
  223.0 8.15 8
  223.1 10.63 10
  223.2 13.66 13
  223.3 13.49 13
  223.4 9.32 9
  223.6 5.52 5
  223.7 11.85 11
  223.8 18.83 18
  223.9 20.43 20
  224.0 15.49 15
  224.1 8.57 8
  224.3 6.94 6
  224.4 11.38 11
  224.5 14.59 14
  224.6 14.19 14
  224.7 10.76 10
  224.9 6.93 6
  225.0 10.97 10
  225.1 16.66 16
  225.2 18.89 18
  225.3 14.81 14
  225.4 7.49 7
  225.6 6.28 6
  225.7 12.65 12
  225.8 16.43 16
  225.9 14.66 14
  226.0 9.74 9
  226.2 7.65 7
  226.3 12.79 12
  226.4 18.06 18
  226.5 19.44 19
  226.6 15.52 15
  226.7 9.15 9
  226.9 7.11 7
  227.0 12.91 12
  227.1 18.09 18
  227.2 19.1 19
  227.3 15.98 15
  227.4 11.74 11
  228.0 8.47 8
  228.1 10.62 10
  228.2 14.78 14
  228.3 17.75 17
  228.4 17.5 17
  228.5 13.98 13
  228.6 9.2 9
  228.8 7.9 7
  228.9 12.61 12
  229.0 16.26 16
  229.1 15.47 15
  229.2 10.94 10
  229.4 7.09 7
  229.5 10.72 10
  229.6 13.92 13
  229.7 13.73 13
  229.8 10.7 10
  230.0 7.11 7
  230.1 9.33 9
  230.2 12.96 12
  230.3 15.57 15
  230.4 15.26 15
  230.5 12.61 12
  231.3 11.48 11
  231.4 13.36 13
  231.5 15.06 15
  231.6 14.39 14
  231.7 10.92 10
  232.6 4.57 4
  232.7 9.01 9
  232.8 13.67 13
  232.9 14.24 14
  233.0 9.91 9
  233.2 4.92 4
  233.3 10.69 10
  233.4 17.36 17
  233.5 19.1 19
  233.6 14.77 14
  233.7 8.84 8
  233.9 8.56 8
  234.0 12.39 12
  234.1 14.59 14
  234.2 13.5 13
  234.3 9.46 9
  234.5 3.56 3
  234.6 7.25 7
  234.7 13.84 13
  234.8 18.38 18
  234.9 17.87 17
  235.0 14.1 14
  235.7 8.16 8
  235.8 9.93 9
  235.9 13.4 13
  236.0 16.27 16
  236.1 16.26 16
  236.2 13.12 13
  236.4 7.69 7
  236.5 10.24 10
  236.6 14.5 14
  236.7 16.49 16
  236.8 14.25 14
  236.9 9.79 9
  237.1 8.53 8
  237.2 12.19 12
  237.3 14.04 14
  237.4 11.92 11
  237.7 8.05 8
  237.8 11.68 11
  237.9 13.54 13
  238.0 11.93 11
  238.1 8.07 8
  238.3 3.4 3
  238.4 5.54 5
  238.5 9.84 9
  238.6 13.81 13
  238.7 14.88 14
  238.8 12.84 12
  239.0 10.47 10
  239.1 13.5 13
  239.2 16.17 16
  239.3 15.06 15
  239.4 10.55 10
  239.6 6.37 6
  239.7 9.73 9
  239.8 13.39 13
  239.9 14.22 14
  240.0 12.0 11
  240.3 10.02 10
  240.4 13.21 13
  240.5 15.4 15
  240.6 14.52 14
  240.7 10.93 10
  240.9 6.9 6
  241.0 10.03 10
  241.1 14.41 14
  241.2 16.27 16
  241.3 13.84 13
  241.6 9.42 9
  241.7 14.09 14
  241.8 17.07 17
  241.9 15.87 15
  242.0 11.66 11
  242.3 8.82 8
  242.4 12.16 12
  242.5 14.54 14
  242.6 14.64 14
  244.1 5.26 5
  244.2 8.0 7
  244.3 11.75 11
  244.4 13.66 13
  244.5 12.38 12
  244.7 8.44 8
  244.8 10.67 10
  244.9 14.57 14
  245.0 16.78 16
  245.1 15.05 15
  245.2 10.24 10
  245.4 5.29 5
  245.5 8.98 8
  245.6 13.92 13
  245.7 15.85 15
  245.8 12.9 12
  246.1 7.92 7
  246.2 13.47 13
  246.3 16.3 16
  246.4 13.94 13
  246.7 7.62 7
  246.8 13.14 13
  246.9 17.53 17
  247.0 16.78 16
  247.1 11.6 11
  247.3 7.15 7
  247.4 11.43 11
  247.5 15.71 15
  247.6 16.63 16
  247.7 13.75 13
  247.8 9.27 9
  248.0 7.13 7
  248.1 9.88 9
  248.2 11.2 11
  248.3 9.39 9
  248.5 5.51 5
  248.6 8.17 8
  248.7 12.93 12
  248.8 16.68 16
  248.9 16.6 16
  249.0 12.5 12
  249.8 9.33 9
  249.9 12.27 12
  250.0 15.83 15
  250.1 17.01 16
  250.2 14.4 14
  250.3 9.46 9
  250.5 6.79 6
  250.6 12.44 12
  250.7 18.72 18
  250.8 19.84 19
  250.9 14.0 13
  251.2 7.36 7
  251.3 13.51 13
  251.4 16.5 16
  251.5 14.86 14
  251.6 10.63 10
  251.8 6.62 6
  251.9 9.1 9
  252.0 11.85 11
  252.1 11.89 11
  252.2 9.07 9
  252.4 6.49 6
  252.5 9.49 9
  252.6 13.07 13
  252.7 14.97 14
  252.8 14.18 14
  253.1 10.31 10
  253.2 13.04 13
  253.3 14.59 14
  253.4 12.56 12
  253.5 7.9 7
  253.7 3.43 3
  253.8 6.78 6
  253.9 11.41 11
  254.0 13.48 13
  254.1 11.52 11
  254.3 7.11 7
  254.4 10.13 10
  254.5 14.45 14
  254.6 16.25 16
  254.7 14.43 14
  254.9 11.31 11
  255.0 13.74 13
  255.1 16.32 16
  255.2 16.64 16
  255.3 14.46 14
  255.4 11.25 11
  255.6 8.43 8
  255.7 11.2 11
  255.8 15.75 15
  255.9 18.98 18
  256.0 18.26 18
  256.1 14.39 14
  256.3 11.42 11
  256.4 14.39 14
  256.5 16.46 16
  256.6 15.0 14
  256.7 10.83 10
  256.9 7.6 7
  257.0 11.33 11
  257.1 15.4 15
  257.2 16.71 16
  257.3 14.82 14
  258.2 11.41 11
  258.3 15.67 15
  258.4 18.56 18
  258.5 17.91 17
  258.6 14.28 14
  258.7 9.85 9
  258.9 8.8 8
  259.0 12.85 12
  259.1 16.0 15
  259.2 14.99 14
  259.3 10.25 10
  259.5 6.48 6
  259.6 11.45 11
  259.7 16.12 16
  259.8 15.96 15
  259.9 11.46 11
  260.1 7.36 7
  260.2 11.32 11
  260.3 15.39 15
  260.4 15.86 15
  260.5 12.28 12
  260.7 6.19 6
  260.8 8.9 8
  260.9 13.83 13
  261.0 16.62 16
  261.1 14.48 14
  261.2 9.02 9
  261.4 6.23 6
  261.5 11.62 11
  261.6 16.65 16
  261.7 17.05 17
  261.8 12.42 12
  262.0 5.07 5
  262.1 9.15 9
  262.2 15.66 15
  262.3 19.08 19
  262.4 16.77 16
  262.5 11.09 11
  262.7 6.49 6
  262.8 9.59 9
  262.9 12.7 12
  263.0 13.16 13
  263.3 9.63 9
  263.4 12.62 12
  263.5 15.75 15
  263.6 15.72 15
  263.7 11.62 11
  263.9 5.18 5
  264.0 8.54 8
  264.1 13.98 13
  264.2 17.48 17
  264.3 16.72 16
  264.4 12.78 12
  264.6 8.94 8
  264.7 12.2 12
  264.8 15.68 15
  264.9 16.1 16
  265.0 13.05 13
  265.1 9.13 9
  265.3 8.47 8
  265.4 11.19 11
  265.5 12.92 12
  265.6 11.66 11
  265.9 5.22 5
  266.0 11.23 11
  266.1 17.43 17
  266.2 18.47 18
  266.3 13.54 13
  267.2 7.86 7
  267.3 11.45 11
  267.4 13.73 13
  267.5 12.58 12
  267.6 8.66 8
  267.8 5.3 5
  267.9 9.43 9
  268.0 14.07 14
  268.1 14.77 14
  268.2 10.75 10
  268.4 6.0 5
  268.5 10.26 10
  268.6 14.56 14
  268.7 14.66 14
  268.8 10.6 10
  269.0 5.78 5
  269.1 9.62 9
  269.2 15.24 15
  269.3 18.45 18
  269.4 16.78 16
  269.5 11.86 11
  271.0 10.75 10
  271.1 13.28 13
  271.2 14.79 14
  271.3 13.74 13
  271.4 10.89 10
  271.6 8.54 8
  271.7 11.38 11
  271.8 15.14 15
  271.9 16.67 16
  272.0 14.13 14
  272.2 8.22 8
  272.3 11.96 11
  272.4 17.86 17
  272.5 20.63 20
  272.6 17.97 17
  272.7 12.02 12
  272.9 6.09 6
  273.0 8.99 8
  273.1 12.97 12
  273.2 14.89 14
  273.3 13.96 13
  273.5 11.9 11
  273.6 13.53 13
  273.7 16.19 16
  273.8 18.11 18
  273.9 17.3 17
  274.0 13.31 13
  274.2 8.05 8
  274.3 11.34 11
  274.4 15.48 15
  274.5 16.09 16
  274.6 11.94 11
  274.8 3.51 3
  274.9 6.9 6
  275.0 13.51 13
  275.1 17.69 17
  275.2 16.06 16
  275.3 10.55 10
  275.5 5.94 5
  275.6 9.52 9
  275.7 13.17 13
  275.8 13.75 13
  275.9 11.13 11
  276.1 7.58 7
  276.2 10.55 10
  276.3 13.98 13
  276.4 14.37 14
  276.5 11.35 11
  277.4 5.23 5
  277.5 10.94 10
  277.6 16.88 16
  277.7 18.08 18
  277.8 13.82 13
  278.0 6.77 6
  278.1 10.6 10
  278.2 16.27 16
  278.3 18.32 18
  278.4 14.44 14
  278.5 7.41 7
  278.7 2.98 2
  278.8 7.98 7
  278.9 13.36 13
  279.0 14.98 14
  279.1 12.42 12
  279.3 8.61 8
  279.4 11.59 11
  279.5 14.65 14
  279.6 14.14 14
  279.7 10.14 10
  279.9 6.85 6
  280.0 10.71 10
  280.1 14.42 14
  280.2 14.46 14
  280.3 10.28 10
  280.5 3.01 3
  280.6 6.46 6
  280.7 12.33 12
  280.8 15.57 15
  280.9 14.08 14
  281.0 10.24 10
  281.2 9.02 9
  281.3 11.86 11
  281.4 13.75 13
  281.5 13.2 13
  281.8 9.75 9
  281.9 12.37 12
  282.0 15.35 15
  282.1 16.35 16
  282.2 13.95 13
  282.3 9.17 9
  282.5 5.76 5
  282.6 9.71 9
  282.7 13.77 13
  282.8 14.88 14
  282.9 12.67 12
  283.2 7.95 7
  283.3 11.9 11
  283.4 15.63 15
  283.5 15.71 15
  283.6 11.8 11
  284.3 2.45 2
  284.4 5.96 5
  284.5 13.04 13
  284.6 17.94 17
  284.7 16.7 16
  284.8 11.21 11
  285.0 9.01 9
  285.1 14.32 14
  285.2 18.22 18
  285.3 17.81 17
  285.4 14.27 14
  285.6 9.94 9
  285.7 12.68 12
  285.8 16.85 16
  285.9 18.74 18
  286.0 16.65 16
  286.1 12.61 12
  287.0 8.28 8
  287.1 11.96 11
  287.2 15.2 15
  287.3 15.29 15
  287.4 12.26 12
  287.7 8.47 8
  287.8 12.6 12
  287.9 16.33 16
  288.0 16.91 16
  288.1 13.87 13
  288.3 8.75 8
  288.4 11.59 11
  288.5 15.85 15
  288.6 17.58 17
  288.7 15.55 15
  288.8 11.99 11
  289.0 10.55 10
  289.1 12.75 12
  289.2 14.28 14
  289.3 13.88 13
  290.1 12.69 12
  290.2 13.85 13
  290.3 15.22 15
  290.4 15.84 15
  290.5 14.62 14
  290.6 11.16 11
  290.8 5.85 5
  290.9 8.84 8
  291.0 13.88 13
  291.1 16.52 16
  291.2 14.47 14
  291.3 10.08 10
  291.5 8.97 8
  291.6 12.85 12
  291.7 15.69 15
  291.8 14.8 14
  291.9 10.72 10
  292.1 7.15 7
  292.2 11.48 11
  292.3 16.68 16
  292.4 18.46 18
  292.5 14.96 14
  292.6 8.39 8
  292.8 4.08 4
  292.9 9.47 9
  293.0 15.33 15
  293.1 17.5 17
  293.2 15.69 15
  294.0 7.05 7
  294.1 11.87 11
  294.2 16.01 15
  294.3 15.45 15
  294.4 10.6 10
  294.6 5.09 5
  294.7 8.82 8
  294.8 13.6 13
  294.9 15.35 15
  295.0 12.37 12
  295.1 6.77 6
  295.3 4.64 4
  295.4 10.85 10
  295.5 16.99 16
  295.6 18.38 18
  295.7 14.33 14
  296.0 8.73 8
  296.1 13.38 13
  296.2 15.81 15
  296.3 14.31 14
  296.4 11.01 10
  296.6 9.71 9
  296.7 11.65 11
  296.8 13.02 13
  296.9 12.81 12
  297.0 11.05 11
  297.2 8.46 8
  297.3 11.3 11
  297.4 15.58 15
  297.5 17.47 17
  297.6 14.93 14
  297.7 9.96 9
  297.9 6.62 6
  298.0 10.14 10
  298.1 13.72 13
  298.2 13.82 13
  298.3 9.91 9
  298.5 6.74 6
  298.6 11.76 11
  298.7 16.51 16
  298.8 16.51 16
  298.9 11.45 11
  299.2 6.43 6
  299.3 12.32 12
  299.4 16.06 16
  299.5 14.8 14
  299.6 9.75 9
  299.8 5.46 5
  299.9 10.15 10
  300.0 15.05 15
  300.1 15.21 15
  300.2 9.81 9
  300.4 1.77 1
  300.5 6.53 6
  300.6 13.67 13
  300.7 17.75 17
  300.8 16.75 16
  301.1 12.35 12
  301.2 15.39 15
  301.3 17.34 17
  301.4 16.1 16
  301.5 12.14 12
  301.8 8.4 8
  301.9 12.48 12
  302.0 15.17 15
  302.1 14.35 14
  302.4 10.87 10
  302.5 14.98 14
  302.6 18.05 18
  302.7 16.59 16
  302.8 10.71 10
  303.0 3.94 3
  303.1 8.4 8
  303.2 14.37 14
  303.3 17.34 17
  303.4 15.7 15
  303.7 11.35 11
  303.8 15.54 15
  303.9 17.81 17
  304.0 15.67 15
  304.1 10.81 10
  304.3 8.35 8
  304.4 12.98 12
  304.5 17.35 17
  304.6 17.79 17
  304.7 14.47 14
  304.9 10.86 10
  305.0 13.36 13
  305.1 15.47 15
  305.2 14.88 14
  305.3 11.89 11
  305.5 8.69 8
  305.6 11.75 11
  305.7 15.96 15
  305.8 17.66 17
  305.9 14.76 14
  306.0 9.12 9
  306.2 6.47 6
  306.3 11.66 11
  306.4 16.39 16
  306.5 16.68 16
  306.6 12.67 12
  307.4 7.19 7
  307.5 10.04 10
  307.6 13.7 13
  307.7 14.97 14
  307.8 13.26 13
  307.9 10.35 10
  308.1 8.4 8
  308.2 10.07 10
  308.3 11.6 11
  308.4 11.4 11
  308.7 9.4 9
  308.8 11.78 11
  308.9 14.52 14
  309.0 15.1 15
  309.1 12.33 12
  309.9 11.16 11
  310.0 13.48 13
  310.1 15.96 15
  310.2 15.84 15
  310.3 12.68 12
  310.4 8.36 8
  310.6 5.19 5
  310.7 8.4 8
  310.8 13.18 13
  310.9 15.72 15
  311.0 13.42 13
  311.1 8.06 8
  311.3 6.39 6
  311.4 11.97 11
  311.5 16.73 16
  311.6 16.87 16
  311.7 12.45 12
  311.9 6.62 6
  312.0 10.04 10
  312.1 13.93 13
  312.2 14.18 14
  312.3 10.44 10
  312.5 4.43 4
  312.6 6.94 6
  312.7 12.05 12
  312.8 16.91 16
  312.9 18.63 18
  313.0 16.27 16
  313.8 5.56 5
  313.9 8.08 8
  314.0 12.66 12
  314.1 16.18 16
  314.2 16.04 16
  314.3 12.71 12
  315.1 6.04 6
  315.2 9.45 9
  315.3 14.68 14
  315.4 17.24 17
  315.5 14.44 14
  315.8 8.55 8
  315.9 13.33 13
  316.0 15.63 15
  316.1 13.85 13
  316.2 9.98 9
  316.4 7.23 7
  316.5 10.18 10
  316.6 13.63 13
  316.7 14.59 14
  316.8 12.05 12
  317.0 6.5 6
  317.1 8.97 8
  317.2 14.1 14
  317.3 17.99 17
  317.4 17.32 17
  317.5 12.68 12
  317.7 7.25 7
  317.8 10.84 10
  317.9 15.66 15
  318.0 17.66 17
  318.1 15.28 15
  318.2 10.7 10
  318.4 9.23 9
  318.5 13.36 13
  318.6 16.42 16
  318.7 15.61 15
  319.0 10.67 10
  319.1 15.49 15
  319.2 19.54 19
  319.3 18.87 18
  319.4 13.59 13
  319.6 7.23 7
  319.7 11.73 11
  319.8 17.43 17
  319.9 19.1 19
  320.0 15.01 14
  320.3 8.78 8
  320.4 15.47 15
  320.5 18.92 18
  320.6 16.27 16
  320.7 10.5 10
  320.9 6.88 6
  321.0 10.6 10
  321.1 14.75 14
  321.2 15.94 15
  321.3 13.06 13
  321.4 8.63 8
  321.6 7.8 7
  321.7 10.82 10
  321.8 12.46 12
  321.9 11.11 11
  322.0 7.61 7
  322.2 4.98 4
  322.3 8.57 8
  322.4 12.4 12
  322.5 13.19 13
  322.8 9.5 9
  322.9 13.51 13
  323.0 17.18 17
  323.1 17.35 17
  323.2 13.53 13
  323.3 8.39 8
  323.5 7.46 7
  323.6 11.74 11
  323.7 14.17 14
  323.8 12.17 12
  324.0 6.5 6
  324.1 10.24 10
  324.2 16.38 16
  324.3 19.79 19
  324.4 17.94 17
  324.5 12.81 12
  325.4 5.9 5
  325.5 10.7 10
  325.6 15.8 15
  325.7 16.62 16
  325.8 12.82 12
  326.1 8.04 8
  326.2 11.59 11
  326.3 13.46 13
  326.4 11.64 11
  326.6 6.54 6
  326.7 9.08 9
  326.8 13.81 13
  326.9 16.94 16
  327.0 16.35 16
  327.1 12.71 12
  327.4 7.99 7
  327.5 11.77 11
  327.6 14.44 14
  327.7 13.42 13
  328.6 5.47 5
  328.7 10.17 10
  328.8 14.56 14
  328.9 15.68 15
  329.0 13.76 13
  330.5 5.71 5
  330.6 9.5 9
  330.7 13.69 13
  330.8 15.26 15
  330.9 13.04 13
  331.0 8.94 8
  331.2 6.85 6
  331.3 9.33 9
  331.4 11.3 11
  331.5 11.16 11
  331.8 6.96 6
  331.9 10.82 10
  332.0 16.06 16
  332.1 18.98 18
  332.2 17.57 17
  332.3 13.32 13
  332.5 9.91 9
  332.6 12.95 12
  332.7 15.49 15
  332.8 14.46 14
  332.9 10.7 10
  333.1 9.13 9
  333.2 13.0 12
  333.3 15.72 15
  333.4 14.81 14
  333.5 11.33 11
  333.7 9.54 9
  333.8 12.94 12
  333.9 16.17 16
  334.0 16.35 16
  334.1 12.94 12
  334.3 7.92 7
  334.4 11.86 11
  334.5 17.46 17
  334.6 20.12 20
  334.7 17.99 17
  334.8 13.12 13
  335.0 10.04 10
  335.1 13.48 13
  335.2 16.12 16
  335.3 14.94 14
  335.4 10.74 10
  335.6 8.05 8
  335.7 12.67 12
  335.8 17.57 17
  335.9 18.68 18
  336.0 14.76 14
  336.1 8.8 8
  336.3 7.25 7
  336.4 12.13 12
  336.5 16.2 16
  336.6 16.36 16
  336.7 12.83 12
  337.5 9.47 9
  337.6 14.36 14
  337.7 17.83 17
  337.8 16.26 16
  337.9 10.82 10
  338.1 5.89 5
  338.2 10.01 9
  338.3 15.1 15
  338.4 17.67 17
  338.5 16.27 16
  338.6 11.66 11
  338.7 6.25 6
  338.9 4.94 4
  339.0 9.6 9
  339.1 12.89 12
  339.2 11.7 11
  339.4 5.91 5
  339.5 8.99 8
  339.6 14.59 14
  339.7 17.85 17
  339.8 16.05 16
  339.9 10.84 10
  340.1 5.75 5
  340.2 9.07 9
  340.3 13.36 13
  340.4 14.74 14
  340.5 11.66 11
  340.8 7.54 7
  340.9 13.1 13
  341.0 16.77 16
  341.1 16.19 16
  341.2 12.51 12
  342.0 4.13 4
  342.1 8.86 8
  342.2 14.2 14
  342.3 16.35 16
  342.4 14.56 14
  342.5 11.0 10
  342.7 9.22 9
  342.8 12.02 12
  342.9 14.34 14
  343.0 13.88 13
  343.1 11.34 11
  343.3 10.09 10
  343.4 11.88 11
  343.5 12.58 12
  343.6 11.05 11
  343.9 8.38 8
  344.0 12.31 12
  344.1 16.3 16
  344.2 17.58 17
  344.3 15.13 15
  344.4 10.82 10
  344.6 9.6 9
  344.7 13.01 12
  344.8 14.83 14
  344.9 13.28 13
  345.0 10.18 10
  345.2 9.45 9
  345.3 11.68 11
  345.4 13.63 13
  345.5 13.92 13
  345.6 11.51 11
  345.9 6.55 6
  346.0 12.1 12
  346.1 16.68 16
  346.2 16.59 16
  346.3 12.12 12
  346.6 8.25 8
  346.7 12.68 12
  346.8 15.1 15
  346.9 14.07 14
  347.2 10.28 10
  347.3 13.76 13
  347.4 16.0 15
  347.5 14.17 14
  347.8 9.58 9
  347.9 13.76 13
  348.0 15.85 15
  348.1 14.19 14
  348.2 10.55 10
  348.4 8.9 8
  348.5 11.76 11
  348.6 14.35 14
  348.7 14.79 14
  348.8 12.9 12
  348.9 9.83 9
  349.1 7.8 7
  349.2 10.71 10
  349.3 14.16 14
  349.4 15.01 14
  349.5 12.04 12
  350.3 6.86 6
  350.4 9.86 9
  350.5 14.06 14
  350.6 16.23 16
  350.7 15.21 15
  351.0 11.11 11
  351.1 14.3 14
  351.2 17.16 17
  351.3 16.78 16
  351.4 13.17 13
  351.6 9.85 9
  351.7 13.65 13
  351.8 17.42 17
  351.9 17.64 17
  352.0 13.99 13
  352.3 9.01 9
  352.4 12.7 12
  352.5 15.05 15
  352.6 14.17 14
  352.9 10.69 10
  353.0 13.66 13
  353.1 16.21 16
  353.2 16.59 16
  353.3 14.29 14
  353.4 10.39 10
  353.6 7.6 7
  353.7 10.62 10
  353.8 13.55 13
  353.9 13.28 13
  354.0 9.92 9
  354.2 7.54 7
  354.3 12.15 12
  354.4 16.89 16
  354.5 17.44 17
  354.6 12.74 12
  354.8 4.57 4
  354.9 9.13 9
  355.0 15.98 15
  355.1 18.27 18
  355.2 14.02 14
  355.4 6.42 6
  355.5 10.11 10
  355.6 15.27 15
  355.7 17.34 17
  355.8 14.48 14
  355.9 9.05 9
  356.1 6.02 6
  356.2 9.74 9
  356.3 13.3 13
  356.4 14.28 14
  356.5 12.12 12
  356.8 7.86 7
  356.9 11.73 11
  357.0 14.93 14
  357.1 14.78 14
  357.2 11.41 11
  358.0 6.43 6
  358.1 8.71 8
  358.2 12.21 12
  358.3 14.35 14
  358.4 13.26 13
  358.5 9.57 9
  358.7 6.69 6
  358.8 10.19 10
  358.9 13.69 13
  359.0 13.95 13
  359.1 10.88 10
  359.3 7.65 7
  359.4 11.1 11
  359.5 14.36 14
  359.6 13.94 13
  359.7 10.14 10
  359.9 7.23 7
  360.0 10.79 10
  360.1 14.17 14
  360.2 14.68 14
  360.3 12.34 12
  360.4 8.84 8
  360.6 5.66 5
  360.7 7.96 7
  360.8 11.4 11
  360.9 13.09 13
  361.0 11.4 11
  361.3 8.58 8
  361.4 12.83 12
  361.5 15.52 15
  361.6 14.46 14
  361.7 10.96 10
  361.9 8.73 8
  362.0 11.32 11
  362.1 13.29 13
  362.2 12.27 12
  362.3 8.8 8
  362.5 6.92 6
  362.6 10.92 10
  362.7 14.34 14
  362.8 14.34 14
  362.9 11.57 11
  363.7 8.06 8
  363.8 9.82 9
  363.9 13.59 13
  364.0 16.82 16
  364.1 16.66 16
  364.2 12.9 12
  364.4 7.19 7
  364.5 10.12 10
  364.6 14.44 14
  364.7 16.26 16
  364.8 14.27 14
  365.1 10.64 10
  365.2 14.01 13
  365.3 15.97 15
  365.4 14.66 14
  365.7 10.59 10
  365.8 15.43 15
  365.9 19.09 19
  366.0 18.01 17
  366.1 13.1 13
  366.3 8.68 8
  366.4 12.78 12
  366.5 17.9 17
  366.6 19.96 19
  366.7 17.07 17
  366.8 11.28 11
  367.0 7.61 7
  367.1 12.47 12
  367.2 17.85 17
  367.3 19.33 19
  367.4 15.45 15
  367.7 10.02 10
  367.8 15.06 15
  367.9 17.51 17
  368.0 15.26 15
  368.1 10.49 10
  368.3 8.97 8
  368.4 12.68 12
  368.5 14.64 14
  368.6 13.2 13
  369.5 5.53 5
  369.6 9.01 9
  369.7 13.05 13
  369.8 14.46 14
  369.9 12.36 12
  370.7 10.16 10
  370.8 13.05 13
  370.9 16.63 16
  371.0 17.72 17
  371.1 15.05 15
  371.2 10.14 10
  371.4 5.35 5
  371.5 8.19 8
  371.6 12.38 12
  371.7 14.82 14
  371.8 14.05 14
  372.1 10.18 10
  372.2 12.94 12
  372.3 15.23 15
  372.4 15.15 15
  372.5 13.13 13
  373.3 8.2 8
  373.4 10.35 10
  373.5 14.25 14
  373.6 16.91 16
  373.7 16.29 16
  373.8 13.08 13
  374.7 8.62 8
  374.8 12.56 12
  374.9 15.94 15
  375.0 15.81 15
  375.1 12.12 12
  375.9 8.63 8
  376.0 12.03 12
  376.1 16.21 16
  376.2 16.61 16
  376.3 11.83 11
  376.5 3.56 3
  376.6 7.15 7
  376.7 13.15 13
  376.8 16.5 16
  376.9 14.73 14
  377.0 9.88 9
  377.2 5.68 5
  377.3 8.44 8
  377.4 12.06 12
  377.5 14.08 14
  377.6 12.9 12
  377.9 7.51 7
  378.0 12.32 12
  378.1 17.42 17
  378.2 18.94 18
  378.3 15.77 15
  378.4 10.21 10
  378.6 6.58 6
  378.7 9.89 9
  378.8 12.37 12
  378.9 11.27 11
  379.1 6.21 6
  379.2 8.64 8
  379.3 13.48 13
  379.4 16.73 16
  379.5 16.07 16
  379.6 12.55 12
  379.8 9.59 9
  379.9 12.6 12
  380.0 15.94 15
  380.1 16.73 16
  380.2 14.09 14
  380.5 9.69 9
  380.6 13.25 13
  380.7 14.82 14
  380.8 13.17 13
  381.0 10.05 10
  381.1 11.93 11
  381.2 14.81 14
  381.3 16.59 16
  381.4 15.83 15
  381.5 12.87 12
  381.7 10.44 10
  381.8 13.59 13
  381.9 17.08 17
  382.0 18.02 18
  382.1 15.62 15
  383.0 8.42 8
  383.1 14.16 14
  383.2 17.92 17
  383.3 15.66 15
  383.4 8.78 8
  383.6 1.6 1
  383.7 5.71 5
  383.8 11.62 11
  383.9 15.28 15
  384.0 14.79 14
  384.1 11.53 11
  384.3 8.63 8
  384.4 10.77 10
  384.5 12.43 12
  384.6 11.65 11
  384.9 8.89 8
  385.0 11.98 11
  385.1 14.46 14
  385.2 13.78 13
  385.3 10.16 10
  385.5 6.34 6
  385.6 9.32 9
  385.7 13.35 13
  385.8 15.48 15
  385.9 14.02 14
  386.2 9.61 9
  386.3 14.57 14
  386.4 18.72 18
  386.5 18.57 18
  386.6 13.86 13
  386.9 8.3 8
  387.0 13.7 13
  387.1 16.74 16
  387.2 15.26 15
  387.3 11.53 11
  388.1 8.01 8
  388.2 10.82 10
  388.3 12.71 12
  388.4 11.34 11
  388.5 7.78 7
  388.7 5.17 5
  388.8 7.15 7
  388.9 9.59 9
  389.0 11.16 11
  389.1 11.04 11
  389.2 9.68 9
  389.3 9.13 9
  389.4 11.11 11
  389.5 14.91 14
  389.6 17.83 17
  389.7 17.36 17
  389.8 13.56 13
  389.9 9.12 9
  390.7 5.96 5
  390.8 10.62 10
  390.9 15.44 15
  391.0 16.26 16
  391.1 12.63 12
  391.3 9.81 9
  391.4 14.27 14
  391.5 17.94 17
  391.6 17.47 17
  391.7 13.1 13
  392.0 8.32 8
  392.1 14.23 14
  392.2 18.22 18
  392.3 16.49 16
  392.4 10.77 10
  392.6 8.22 8
  392.7 12.89 12
  392.8 15.6 15
  392.9 13.52 13
  393.0 8.5 8
  393.2 4.99 4
  393.3 8.52 8
  393.4 12.06 12
  393.5 12.6 12
  393.8 8.51 8
  393.9 12.46 12
  394.0 16.85 16
  394.1 18.43 18
  394.2 16.01 15
  394.3 11.31 11
  395.1 8.53 8
  395.2 10.44 10
  395.3 14.78 14
  395.4 18.33 18
  395.5 17.76 17
  395.6 13.17 13
  395.8 8.7 8
  395.9 13.05 13
  396.0 17.01 16
  396.1 16.49 16
  396.2 12.23 12
  396.4 10.01 9
  396.5 14.79 14
  396.6 18.96 18
  396.7 19.03 19
  396.8 15.09 15
  397.1 10.9 10
  397.2 14.8 14
  397.3 17.11 17
  397.4 16.35 16
  397.5 13.59 13
  397.7 11.06 11
  397.8 12.85 12
  397.9 15.22 15
  398.0 16.27 16
  398.1 14.92 14
  398.2 11.97 11
  398.4 10.07 10
  398.5 12.95 12
  398.6 15.79 15
  398.7 15.56 15
  398.8 11.74 11
  399.1 7.49 7
  399.2 11.76 11
  399.3 14.18 14
  399.4 12.66 12
  399.6 7.57 7
  399.7 10.6 10
  399.8 15.71 15
  399.9 17.68 17
  400.0 14.16 14
  400.1 8.25 8
  400.3 7.02 7
  400.4 11.66 11
  400.5 15.01 14
  400.6 14.7 14
  400.7 11.55 11
  400.9 7.86 7
  401.0 10.4 10
  401.1 14.17 14
  401.2 16.19 16
  401.3 14.86 14
  401.6 10.51 10
  401.7 14.02 14
  401.8 16.64 16
  401.9 15.41 15
  402.0 10.79 10
  402.2 6.82 6
  402.3 11.34 11
  402.4 16.19 16
  402.5 16.71 16
  402.6 11.9 11
  403.5 9.19 9
  403.6 11.75 11
  403.7 13.72 13
  403.8 13.47 13
  403.9 11.16 11
  404.1 9.43 9
  404.2 11.76 11
  404.3 13.41 13
  404.4 12.71 12
  404.5 10.53 10
  404.7 9.26 9
  404.8 11.27 11
  404.9 13.84 13
  405.0 15.06 15
  405.1 13.81 13
  405.2 11.01 10
  406.0 6.55 6
  406.1 11.16 11
  406.2 17.08 17
  406.3 19.21 19
  406.4 15.73 15
  406.5 9.81 9
  406.7 7.95 7
  406.8 12.39 12
  406.9 15.73 15
  407.0 15.29 15
  407.1 11.86 11
  408.0 7.62 7
  408.1 10.6 10
  408.2 12.96 12
  408.3 12.2 12
  408.4 8.65 8
  408.6 5.92 5
  408.7 9.9 9
  408.8 14.56 14
  408.9 16.42 16
  409.0 14.58 14
  409.1 11.05 11
  409.3 9.84 9
  409.4 13.21 13
  409.5 15.85 15
  409.6 14.87 14
  409.7 10.72 10
  409.9 7.19 7
  410.0 10.63 10
  410.1 14.16 14
  410.2 14.68 14
  410.3 12.08 12
  410.5 8.89 8
  410.6 11.42 11
  410.7 14.08 14
  410.8 14.52 14
  410.9 12.84 12
  411.2 11.9 11
  411.3 14.23 14
  411.4 16.08 16
  411.5 16.07 16
  411.6 13.71 13
  411.8 8.74 8
  411.9 11.18 11
  412.0 15.64 15
  412.1 17.53 17
  412.2 14.42 14
  412.3 8.82 8
  412.5 6.39 6
  412.6 10.54 10
  412.7 13.99 13
  412.8 13.82 13
  413.1 10.93 10
  413.2 15.11 15
  413.3 17.72 17
  413.4 16.48 16
  413.5 12.48 12
  413.7 9.49 9
  413.8 13.38 13
  413.9 17.27 17
  414.0 17.25 17
  414.1 13.28 13
  414.3 8.23 8
  414.4 11.21 11
  414.5 15.16 15
  414.6 16.75 16
  414.7 14.54 14
  414.8 10.24 10
  415.0 8.67 8
  415.1 12.92 12
  415.2 16.43 16
  415.3 15.83 15
  415.4 11.46 11
  415.7 7.51 7
  415.8 10.97 10
  415.9 13.07 13
  416.0 12.46 12
  416.8 7.43 7
  416.9 9.77 9
  417.0 14.85 14
  417.1 19.2 19
  417.2 19.26 19
  417.3 14.25 14
  418.2 5.97 5
  418.3 10.36 10
  418.4 13.74 13
  418.5 13.14 13
  418.6 9.14 9
  418.8 6.91 6
  418.9 12.05 12
  419.0 17.2 17
  419.1 18.2 18
  419.2 14.41 14
  419.3 9.14 9
  419.5 8.01 8
  419.6 11.9 11
  419.7 14.66 14
  419.8 14.18 14
  419.9 11.08 11
  420.1 7.21 7
  420.2 9.57 9
  420.3 13.41 13
  420.4 15.38 15
  420.5 13.14 13
  420.8 8.21 8
  420.9 12.66 12
  421.0 15.03 15
  421.1 13.73 13
  421.4 10.06 10
  421.5 13.09 13
  421.6 15.51 15
  421.7 15.01 14
  421.8 11.67 11
  422.1 9.13 9
  422.2 12.92 12
  422.3 15.37 15
  422.4 14.24 14
  422.5 10.02 10
  422.7 7.46 7
  422.8 12.75 12
  422.9 17.9 17
  423.0 18.33 18
  423.1 13.87 13
  423.2 8.52 8
  423.4 7.59 7
  423.5 10.36 10
  423.6 11.67 11
  423.7 9.93 9
  423.9 4.09 4
  424.0 6.54 6
  424.1 12.5 12
  424.2 17.23 17
  424.3 16.41 16
  424.4 10.7 10
  424.6 5.67 5
  424.7 11.64 11
  424.8 18.23 18
  424.9 19.82 19
  425.0 15.38 15
  425.1 8.93 8
  425.3 7.14 7
  425.4 11.67 11
  425.5 15.45 15
  425.6 15.58 15
  425.7 12.05 12
  425.9 7.97 7
  426.0 11.58 11
  426.1 15.01 14
  426.2 14.47 14
  426.3 10.34 10
  426.5 5.55 5
  426.6 8.53 8
  426.7 12.74 12
  426.8 14.88 14
  426.9 13.38 13
  427.2 9.75 9
  427.3 14.22 14
  427.4 17.77 17
  427.5 17.22 17
  427.6 12.98 12
  427.8 9.6 9
  427.9 13.67 13
  428.0 17.0 16
  428.1 16.03 16
  428.2 11.66 11
  428.4 7.67 7
  428.5 11.85 11
  428.6 17.65 17
  428.7 20.87 20
  428.8 18.94 18
  428.9 13.39 13
  429.1 9.45 9
  429.2 13.79 13
  429.3 17.45 17
  429.4 16.68 16
  429.5 11.91 11
  429.7 6.83 6
  429.8 10.74 10
  429.9 15.28 15
  430.0 16.48 16
  430.1 13.53 13
  430.4 8.34 8
  430.5 12.34 12
  430.6 15.36 15
  430.7 15.21 15
  430.8 12.44 12
  431.6 9.79 9
  431.7 11.66 11
  431.8 12.54 12
  431.9 10.72 10
  432.0 6.97 6
  432.2 3.88 3
  432.3 7.38 7
  432.4 12.58 12
  432.5 16.79 16
  432.6 18.08 18
  432.7 16.21 16
  432.9 11.58 11
  433.0 13.71 13
  433.1 17.86 17
  433.2 19.86 19
  433.3 17.04 17
  433.4 11.07 11
  433.6 6.63 6
  433.7 10.42 10
  433.8 13.72 13
  433.9 13.24 13
  434.2 8.46 8
  434.3 12.44 12
  434.4 15.27 15
  434.5 14.36 14
  434.6 10.79 10
  434.8 8.01 8
  434.9 10.63 10
  435.0 12.91 12
  435.1 12.15 12
  435.2 8.54 8
  435.4 5.51 5
  435.5 9.89 9
  435.6 15.01 14
  435.7 16.88 16
  435.8 14.21 14
  435.9 9.39 9
  436.1 6.61 6
  436.2 10.14 10
  436.3 14.37 14
  436.4 16.58 16
  436.5 14.99 14
  436.6 10.48 10
  436.8 6.65 6
  436.9 9.92 9
  437.0 13.28 13
  437.1 14.19 14
  437.2 12.72 12
  438.1 7.17 7
  438.2 12.48 12
  438.3 16.41 16
  438.4 15.71 15
  438.5 11.7 11
  438.7 7.66 7
  438.8 10.76 10
  438.9 14.7 14
  439.0 15.75 15
  439.1 12.78 12
  439.2 8.67 8
  439.9 7.25 7
  440.0 10.46 10
  440.1 14.02 14
  440.2 15.0 14
  440.3 12.57 12
  440.4 8.5 8
  440.6 6.62 6
  440.7 10.21 10
  440.8 13.9 13
  440.9 15.01 14
  441.0 12.77 12
  441.3 7.59 7
  441.4 11.64 11
  441.5 14.78 14
  441.6 14.14 14
  441.7 10.98 10
  442.4 5.82 5
  442.5 7.65 7
  442.6 12.97 12
  442.7 18.74 18
  442.8 20.76 20
  442.9 17.29 17
  443.0 11.35 11
  443.2 10.39 10
  443.3 15.55 15
  443.4 18.57 18
  443.5 16.68 16
  443.6 11.97 11
  443.8 9.7 9
  443.9 13.4 13
  444.0 16.41 16
  444.1 16.2 16
  444.4 12.51 12
  444.5 15.85 15
  444.6 17.75 17
  444.7 16.17 16
  444.8 12.35 12
  445.0 8.39 8
  445.1 10.3 10
  445.2 13.79 13
  445.3 16.35 16
  445.4 15.45 15
  445.5 11.19 11
  445.7 6.24 6
  445.8 9.29 9
  445.9 12.85 12
  446.0 13.27 13
  446.1 9.96 9
  446.3 5.17 5
  446.4 8.61 8
  446.5 13.9 13
  446.6 17.14 17
  446.7 15.94 15
  446.8 11.65 11
  447.0 8.09 8
  447.1 10.73 10
  447.2 13.38 13
  447.3 13.98 13
  447.4 12.46 12
  447.7 10.56 10
  447.8 13.54 13
  447.9 15.46 15
  448.0 14.56 14
  448.1 11.79 11
  448.3 10.36 10
  448.4 12.95 12
  448.5 14.79 14
  448.6 13.96 13
  448.7 11.5 11
  449.5 4.34 4
  449.6 7.71 7
  449.7 12.93 12
  449.8 16.04 16
  449.9 14.57 14
  450.0 10.24 10
  450.2 8.05 8
  450.3 11.52 11
  450.4 14.13 14
  450.5 13.39 13
  450.6 9.77 9
  450.8 6.39 6
  450.9 9.71 9
  451.0 13.07 13
  451.1 13.0 12
  451.2 8.9 8
  451.4 3.08 3
  451.5 7.15 7
  451.6 13.17 13
  451.7 16.3 16
  451.8 14.09 14
  451.9 8.35 8
  452.1 3.33 3
  452.2 7.97 7
  452.3 13.87 13
  452.4 16.46 16
  452.5 14.05 14
  453.4 4.73 4
  453.5 9.97 9
  453.6 14.21 14
  453.7 14.81 14
  453.8 12.75 12
  454.7 7.81 7
  454.8 12.39 12
  454.9 16.44 16
  455.0 17.04 17
  455.1 14.22 14
  455.4 10.08 10
  455.5 12.79 12
  455.6 14.67 14
  455.7 14.18 14
  456.6 7.85 7
  456.7 11.71 11
  456.8 16.08 16
  456.9 17.01 16
  457.0 13.1 13
  457.2 5.54 5
  457.3 9.34 9
  457.4 15.8 15
  457.5 18.95 18
  457.6 15.55 15
  457.7 8.46 8
  457.9 6.35 6
  458.0 13.07 13
  458.1 18.6 18
  458.2 19.17 19
  458.3 15.58 15
  459.1 6.91 6
  459.2 9.8 9
  459.3 14.86 14
  459.4 18.64 18
  459.5 18.36 18
  459.6 13.99 13
  459.8 7.66 7
  459.9 11.17 11
  460.0 15.83 15
  460.1 17.52 17
  460.2 15.47 15
  460.3 12.09 12
  460.4 9.68 9
  460.9 7.54 7
  461.0 8.51 8
  461.1 11.18 11
  461.2 14.56 14
  461.3 16.6 16
  461.4 15.51 15
  461.5 11.96 11
  461.7 8.85 8
  461.8 11.22 11
  461.9 13.61 13
  462.0 13.79 13
  462.1 11.32 11
  463.0 7.35 7
  463.1 12.29 12
  463.2 16.14 16
  463.3 15.63 15
  463.4 11.27 11
  463.6 6.34 6
  463.7 9.74 9
  463.8 14.48 14
  463.9 17.02 17
  464.0 15.48 15
  464.1 11.63 11
  464.8 5.41 5
  464.9 8.01 8
  465.0 13.18 13
  465.1 16.82 16
  465.2 15.4 15
  465.3 9.39 9
  465.5 1.81 1
  465.6 6.05 6
  465.7 12.56 12
  465.8 16.5 16
  465.9 15.39 15
  466.0 10.67 10
  466.2 4.96 4
  466.3 7.71 7
  466.4 12.02 12
  466.5 14.37 14
  466.6 12.84 12
  467.5 5.68 5
  467.6 10.32 10
  467.7 13.9 13
  467.8 12.16 12
  468.1 6.97 6
  468.2 13.16 13
  468.3 17.16 17
  468.4 16.35 16
  468.5 12.48 12
  469.4 10.0 9
  469.5 13.53 13
  469.6 16.42 16
  469.7 15.73 15
  469.8 11.64 11
  470.7 7.64 7
  470.8 12.24 12
  470.9 15.8 15
  471.0 15.62 15
  471.1 11.97 11
  471.3 7.97 7
  471.4 10.84 10
  471.5 13.58 13
  471.6 13.63 13
  471.7 11.78 11
  472.6 9.83 9
  472.7 11.93 11
  472.8 13.64 13
  472.9 13.12 13
  473.0 10.03 10
  473.2 6.36 6
  473.3 10.18 10
  473.4 14.97 14
  473.5 16.21 16
  473.6 12.97 12
  473.9 9.61 9
  474.0 14.29 14
  474.1 18.23 18
  474.2 19.12 19
  474.3 16.99 16
  475.1 9.94 9
  475.2 13.01 12
  475.3 13.96 13
  475.4 11.87 11
  475.7 9.5 9
  475.8 12.06 12
  475.9 15.46 15
  476.0 18.02 18
  476.1 17.39 17
  476.2 13.18 13
  477.1 5.91 5
  477.2 10.29 10
  477.3 13.66 13
  477.4 14.52 14
  477.5 13.6 13
  478.3 6.45 6
  478.4 9.15 9
  478.5 12.7 12
  478.6 13.55 13
  478.9 5.81 5
  479.0 14.51 14
  479.1 26.67 26
  479.2 32.7 32
  479.3 27.36 27
  479.4 15.22 15
  479.6 5.66 5
  479.7 11.13 11
  479.8 16.14 16
  479.9 16.6 16
  480.0 12.65 12
  480.3 7.49 7
  480.4 12.81 12
  480.5 16.5 16
  480.6 15.48 15
  480.7 10.74 10
  480.9 5.53 5
  481.0 8.63 8
  481.1 13.0 12
  481.2 15.01 14
  481.3 12.57 12
  481.6 6.78 6
  481.7 13.02 13
  481.8 16.83 16
  481.9 14.5 14
  482.0 8.64 8
  482.2 6.54 6
  482.3 12.52 12
  482.4 18.2 18
  482.5 19.01 18
  482.6 14.04 14
  482.7 7.09 7
  482.9 5.84 5
  483.0 11.67 11
  483.1 16.19 16
  483.2 15.91 15
  483.3 11.79 11
  483.5 8.68 8
  483.6 11.96 11
  483.7 14.4 14
  483.8 13.6 13
  483.9 10.2 10
  484.1 6.85 6
  484.2 10.59 10
  484.3 15.47 15
  484.4 17.41 17
  484.5 14.92 14
  484.6 10.84 10
  485.3 9.98 9
  485.4 12.42 12
  485.5 14.4 14
  485.6 14.76 14
  485.7 12.89 12
  485.8 9.27 9
  486.0 5.76 5
  486.1 8.85 8
  486.2 12.86 12
  486.3 14.4 14
  486.4 12.05 12
  486.6 6.22 6
  486.7 8.78 8
  486.8 14.19 14
  486.9 18.05 18
  487.0 16.79 16
  487.1 11.08 11
  487.3 5.2 5
  487.4 9.07 9
  487.5 13.06 13
  487.6 13.47 13
  487.7 10.48 10
  487.9 7.65 7
  488.0 10.99 10
  488.1 14.96 14
  488.2 16.5 16
  488.3 14.27 14
  488.6 8.89 8
  488.7 13.75 13
  488.8 17.19 17
  488.9 15.84 15
  489.0 10.44 10
  489.2 4.06 4
  489.3 7.58 7
  489.4 12.92 12
  489.5 16.25 16
  489.6 15.55 15
  489.7 12.26 12
  489.9 11.11 11
  490.0 13.86 13
  490.1 14.73 14
  490.2 12.6 12
  490.4 8.89 8
  490.5 11.24 11
  490.6 15.68 15
  490.7 19.43 19
  490.8 19.42 19
  490.9 14.98 14
  491.2 9.35 9
  491.3 14.93 14
  491.4 18.39 18
  491.5 16.55 16
  491.6 10.65 10
  491.8 4.05 4
  491.9 7.74 7
  492.0 12.72 12
  492.1 14.47 14
  492.2 11.77 11
  492.4 7.3 7
  492.5 10.13 10
  492.6 13.07 13
  492.7 13.04 13
  492.8 9.77 9
  492.9 5.36 5
  493.1 3.79 3
  493.2 8.0 7
  493.3 12.04 12
  493.4 13.04 13
  493.7 10.53 10
  493.8 12.6 12
  493.9 14.3 14
  494.0 13.78 13
  494.1 10.93 10
  494.3 7.09 7
  494.4 9.9 9
  494.5 13.92 13
  494.6 15.73 15
  494.7 13.84 13
  494.8 9.56 9
  495.0 5.03 5
  495.1 8.17 8
  495.2 13.14 13
  495.3 15.75 15
  495.4 13.55 13
  495.7 8.11 8
  495.8 12.84 12
  495.9 15.81 15
  496.0 14.48 14
  496.1 10.4 10
  496.3 7.77 7
  496.4 11.12 11
  496.5 13.89 13
  496.6 12.96 12
  496.9 6.42 6
  497.0 12.34 12
  497.1 18.43 18
  497.2 20.01 19
  497.3 16.32 16
  497.4 10.48 10
  497.6 6.35 6
  497.7 9.43 9
  497.8 12.51 12
  497.9 12.47 12
  498.0 9.15 9
  498.2 6.45 6
  498.3 10.82 10
  498.4 14.94 14
  498.5 14.9 14
  498.6 10.84 10
  498.8 5.64 5
  498.9 8.88 8
  499.0 13.84 13
  499.1 16.71 16
  499.2 14.63 14
  499.3 8.84 8
  499.5 5.99 5
  499.6 11.96 11
  499.7 16.97 16
  499.8 17.04 17
  499.9 13.0 12
  500.1 8.51 8
  500.2 11.39 11
  500.3 14.44 14
  500.4 14.65 14
  500.5 11.83 11
  500.7 7.17 7
  500.8 9.48 9
  500.9 14.04 14
  501.0 17.12 17
  501.1 15.4 15
  501.2 9.65 9
  501.4 4.96 4
  501.5 10.56 10
  501.6 16.66 16
  501.7 18.39 18
  501.8 14.99 14
  501.9 9.93 9
  502.1 8.48 8
  502.2 11.73 11
  502.3 13.75 13
  502.4 12.58 12
  502.7 9.17 9
  502.8 13.28 13
  502.9 15.78 15
  503.0 13.81 13
  503.1 8.56 8
  503.3 5.41 5
  503.4 10.48 10
  503.5 15.78 15
  503.6 17.56 17
  503.7 15.28 15
  503.8 11.11 11
  504.0 8.21 8
  504.1 10.78 10
  504.2 13.36 13
  504.3 13.1 13
  504.4 9.6 9
  504.6 6.25 6
  504.7 11.05 11
  504.8 16.36 16
  504.9 18.13 18
  505.0 16.27 16
  505.9 9.33 9
  506.0 11.7 11
  506.1 14.28 14
  506.2 15.01 14
  506.3 13.67 13
  507.1 9.52 9
  507.2 12.39 12
  507.3 17.37 17
  507.4 20.09 20
  507.5 17.04 17
  507.6 10.29 10
  507.8 8.01 8
  507.9 14.0 13
  508.0 18.62 18
  508.1 18.61 18
  508.2 14.54 14
  508.3 9.33 9
  508.5 6.97 6
  508.6 10.53 10
  508.7 13.41 13
  508.8 12.98 12
  508.9 9.98 9
  509.1 8.42 8
  509.2 11.46 11
  509.3 13.56 13
  509.4 12.59 12
  509.5 9.47 9
  509.7 7.08 7
  509.8 9.27 9
  509.9 12.33 12
  510.0 14.69 14
  510.1 14.92 14
  510.4 11.39 11
  510.5 14.83 14
  510.6 17.14 17
  510.7 15.33 15
  510.8 10.83 10
  511.0 8.13 8
  511.1 11.4 11
  511.2 14.63 14
  511.3 15.17 15
  511.4 12.4 12
  511.6 7.08 7
  511.7 9.73 9
  511.8 14.35 14
  511.9 16.77 16
  512.0 14.69 14
  512.9 5.16 5
  513.0 9.67 9
  513.1 14.71 14
  513.2 16.48 16
  513.3 13.82 13
  514.2 6.73 6
  514.3 12.1 12
  514.4 16.7 16
  514.5 17.16 17
  514.6 13.62 13
  514.7 9.24 9
  514.9 8.06 8
  515.0 10.93 10
  515.1 13.93 13
  515.2 15.22 15
  515.3 13.9 13
  516.1 9.91 9
  516.2 13.1 13
  516.3 15.54 15
  516.4 15.33 15
  516.5 12.79 12
  517.3 7.31 7
  517.4 11.46 11
  517.5 16.26 16
  517.6 17.35 17
  517.7 13.86 13
  517.8 8.79 8
  518.0 7.61 7
  518.1 11.29 11
  518.2 13.78 13
  518.3 13.33 13
  518.4 10.76 10
  518.6 7.42 7
  518.7 9.67 9
  518.8 14.33 14
  518.9 18.49 18
  519.0 19.09 19
  519.1 15.98 15
  519.2 12.09 12
  519.9 8.99 8
  520.0 11.2 11
  520.1 13.87 13
  520.2 15.54 15
  520.3 14.71 14
  520.4 11.55 11
  520.6 8.56 8
  520.7 11.86 11
  520.8 16.18 16
  520.9 18.5 18
  521.0 17.42 17
  521.1 14.13 14
  521.3 11.58 11
  521.4 13.92 13
  521.5 15.74 15
  521.6 14.58 14
  521.7 10.95 10
  521.9 9.08 9
  522.0 12.71 12
  522.1 15.72 15
  522.2 15.43 15
  522.3 11.71 11
  523.1 8.44 8
  523.2 10.62 10
  523.3 13.37 13
  523.4 14.53 14
  523.5 13.27 13
  523.6 10.5 10
  523.8 8.28 8
  523.9 11.09 11
  524.0 14.17 14
  524.1 14.1 14
  524.2 10.16 10
  524.4 4.67 4
  524.5 7.89 7
  524.6 12.35 12
  524.7 14.28 14
  524.8 12.46 12
  525.1 8.57 8
  525.2 12.39 12
  525.3 15.22 15
  525.4 14.32 14
  525.7 9.17 9
  525.8 13.46 13
  525.9 16.49 16
  526.0 15.01 14
  526.1 9.88 9
  526.3 5.2 5
  526.4 10.19 10
  526.5 16.3 16
  526.6 18.17 18
  526.7 13.58 13
  527.0 5.66 5
  527.1 12.55 12
  527.2 17.19 17
  527.3 16.51 16
  527.4 12.39 12
  528.3 8.19 8
  528.4 10.73 10
  528.5 13.19 13
  528.6 13.62 13
  528.7 11.65 11
  528.9 9.92 9
  529.0 12.13 12
  529.1 13.08 13
  529.2 10.95 10
  529.5 7.87 7
  529.6 11.53 11
  529.7 14.37 14
  529.8 14.43 14
  529.9 11.28 11
  530.2 5.96 5
  530.3 11.44 11
  530.4 15.6 15
  530.5 14.71 14
  530.6 9.69 9
  530.8 4.28 4
  530.9 8.02 8
  531.0 13.27 13
  531.1 16.19 16
  531.2 14.97 14
  531.3 11.15 11
  531.5 8.62 8
  531.6 11.65 11
  531.7 14.13 14
  531.8 13.25 13
  531.9 9.1 9
  532.1 5.06 5
  532.2 9.74 9
  532.3 15.55 15
  532.4 17.72 17
  532.5 14.7 14
  533.4 8.28 8
  533.5 13.16 13
  533.6 16.27 16
  533.7 14.97 14
  533.8 10.34 10
  534.0 6.77 6
  534.1 11.36 11
  534.2 16.43 16
  534.3 17.57 17
  534.4 13.55 13
  534.7 7.58 7
  534.8 12.1 12
  534.9 14.94 14
  535.0 14.17 14
  535.1 10.9 10
  535.3 8.65 8
  535.4 12.06 12
  535.5 15.82 15
  535.6 16.85 16
  535.7 14.22 14
  536.0 10.26 10
  536.1 13.63 13
  536.2 15.12 15
  536.3 13.71 13
  536.5 10.42 10
  536.6 12.16 12
  536.7 16.03 16
  536.8 19.88 19
  536.9 20.62 20
  537.0 16.66 16
  537.9 9.57 9
  538.0 15.37 15
  538.1 18.8 18
  538.2 16.98 16
  538.3 12.02 12
  538.5 8.16 8
  538.6 10.85 10
  538.7 13.6 13
  538.8 14.22 14
  538.9 12.31 12
  539.2 9.55 9
  539.3 14.02 14
  539.4 17.09 17
  539.5 15.29 15
  539.6 9.56 9
  539.8 3.66 3
  539.9 7.8 7
  540.0 13.09 13
  540.1 14.87 14
  540.2 11.78 11
  540.4 5.92 5
  540.5 9.62 9
  540.6 15.44 15
  540.7 18.59 18
  540.8 16.56 16
  540.9 11.32 11
  541.7 7.66 7
  541.8 9.85 9
  541.9 12.24 12
  542.0 13.33 13
  542.1 13.03 13
  542.2 12.4 12
  542.3 12.44 12
  542.4 13.25 13
  542.5 14.01 13
  542.6 13.71 13
  542.7 11.88 11
  542.9 8.47 8
  543.0 10.39 10
  543.1 14.32 14
  543.2 17.25 17
  543.3 16.48 16
  543.4 12.16 12
  543.7 7.26 7
  543.8 11.78 11
  543.9 15.31 15
  544.0 15.29 15
  544.3 11.45 11
  544.4 15.39 15
  544.5 17.81 17
  544.6 15.22 15
  544.7 8.74 8
  544.9 2.99 2
  545.0 7.27 7
  545.1 12.17 12
  545.2 14.23 14
  545.3 12.74 12
  545.6 9.42 9
  545.7 13.82 13
  545.8 17.07 17
  545.9 16.0 15
  546.0 11.21 11
  546.2 6.58 6
  546.3 10.49 10
  546.4 15.09 15
  546.5 16.89 16
  546.6 14.94 14
  546.7 11.13 11
  546.9 9.68 9
  547.0 13.64 13
  547.1 16.58 16
  547.2 14.92 14
  547.3 9.84 9
  547.5 7.17 7
  547.6 11.21 11
  547.7 14.08 14
  547.8 12.96 12
  547.9 8.65 8
  548.1 4.41 4
  548.2 8.55 8
  548.3 13.87 13
  548.4 16.15 16
  548.5 13.71 13
  548.7 7.06 7
  548.8 10.05 10
  548.9 15.66 15
  549.0 18.48 18
  549.1 15.4 15
  549.2 9.24 9
  549.4 8.19 8
  549.5 13.07 13
  549.6 15.56 15
  549.7 13.25 13
  549.8 7.28 7
  550.0 0.0 0
  550.1 4.05 4
  550.2 10.44 10
  550.3 14.48 14
  550.4 14.2 14
  551.3 8.57 8
  551.4 11.97 11
  551.5 15.22 15
  551.6 16.16 16
  551.7 14.23 14
  552.0 10.24 10
  552.1 14.91 14
  552.2 18.52 18
  552.3 17.51 17
  552.4 13.09 13
  552.6 11.86 11
  552.7 16.08 16
  552.8 18.38 18
  552.9 16.56 16
  553.0 12.31 12
  553.2 8.33 8
  553.3 10.82 10
  553.4 14.59 14
  553.5 16.63 16
  553.6 14.77 14
  553.7 10.14 10
  553.9 7.77 7
  554.0 12.84 12
  554.1 17.92 17
  554.2 18.73 18
  554.3 14.27 14
  554.4 7.98 7
  554.6 6.97 6
  554.7 11.99 11
  554.8 15.2 15
  554.9 13.59 13
  555.0 8.75 8
  555.2 6.96 6
  555.3 11.62 11
  555.4 15.2 15
  555.5 14.81 14
  555.6 11.04 11
  555.8 7.01 7
  555.9 10.18 10
  556.0 13.53 13
  556.1 13.75 13
  556.4 9.79 9
  556.5 12.86 12
  556.6 15.7 15
  556.7 15.89 15
  556.8 12.63 12
  557.1 6.92 6
  557.2 11.62 11
  557.3 15.79 15
  557.4 16.37 16
  557.5 12.93 12
  557.7 5.85 5
  557.8 8.74 8
  557.9 14.68 14
  558.0 17.94 17
  558.1 14.87 14
  558.2 8.3 8
  558.4 6.57 6
  558.5 11.33 11
  558.6 13.65 13
  558.7 11.35 11
  559.0 7.01 7
  559.1 11.8 11
  559.2 15.17 15
  559.3 14.42 14
  559.4 10.5 10
  559.6 7.06 7
  559.7 10.83 10
  559.8 14.86 14
  559.9 15.09 15
  560.0 11.0 10
  560.3 6.95 6
  560.4 12.08 12
  560.5 15.78 15
  560.6 15.15 15
  560.7 10.67 10
  561.5 5.35 5
  561.6 7.57 7
  561.7 12.36 12
  561.8 16.38 16
  561.9 16.5 16
  562.0 12.4 12
  562.2 6.34 6
  562.3 10.44 10
  562.4 16.0 15
  562.5 17.64 17
  562.6 13.63 13
  562.7 7.54 7
  562.9 6.8 6
  563.0 11.57 11
  563.1 14.05 14
  563.2 11.92 11
  563.5 8.06 8
  563.6 13.4 13
  563.7 16.74 16
  563.8 15.14 15
  563.9 10.52 10
  564.1 8.2 8
  564.2 12.19 12
  564.3 15.93 15
  564.4 16.25 16
  564.5 12.69 12
  564.7 7.09 7
  564.8 10.25 10
  564.9 14.85 14
  565.0 16.78 16
  565.1 14.68 14
  565.4 10.37 10
  565.5 13.55 13
  565.6 15.86 15
  565.7 15.45 15
  565.8 12.26 12
  566.0 7.34 7
  566.1 10.59 10
  566.2 15.62 15
  566.3 17.64 17
  566.4 14.77 14
  566.5 10.14 10
  566.7 9.56 9
  566.8 12.89 12
  566.9 15.0 14
  567.0 14.29 14
  567.1 11.59 11
  567.3 10.24 10
  567.4 12.63 12
  567.5 14.41 14
  567.6 13.94 13
  567.7 11.66 11
  567.9 8.85 8
  568.0 11.51 11
  568.1 16.53 16
  568.2 20.33 20
  568.3 19.19 19
  568.4 13.42 13
  569.2 4.43 4
  569.3 8.89 8
  569.4 14.68 14
  569.5 17.29 17
  569.6 14.53 14
  569.7 8.97 8
  569.9 7.16 7
  570.0 12.1 12
  570.1 15.89 15
  570.2 15.05 15
  570.3 10.44 10
  570.5 7.82 7
  570.6 12.28 12
  570.7 15.43 15
  570.8 14.06 14
  570.9 9.25 9
  571.1 3.25 3
  571.2 6.13 6
  571.3 11.59 11
  571.4 15.98 15
  571.5 16.31 16
  571.6 13.03 13
  572.5 6.26 6
  572.6 10.07 10
  572.7 12.15 12
  572.8 11.21 11
  573.7 5.9 5
  573.8 10.28 10
  573.9 16.35 16
  574.0 18.06 18
  574.1 13.78 13
  575.0 4.95 4
  575.1 11.53 11
  575.2 16.81 16
  575.3 16.41 16
  575.4 11.21 11
  575.6 6.38 6
  575.7 11.04 11
  575.8 15.59 15
  575.9 15.49 15
  576.0 10.95 10
  576.2 6.26 6
  576.3 10.43 10
  576.4 15.85 15
  576.5 18.9 18
  576.6 17.88 17
  576.7 13.76 13
  576.8 9.05 9
  577.0 6.72 6
  577.1 9.29 9
  577.2 11.48 11
  577.3 11.21 11
  577.6 9.02 9
  577.7 12.96 12
  577.8 16.14 16
  577.9 15.64 15
  578.0 11.56 11
  578.2 5.55 5
  578.3 8.43 8
  578.4 13.08 13
  578.5 15.5 15
  578.6 13.94 13
  578.9 9.74 9
  579.0 13.28 13
  579.1 15.92 15
  579.2 15.23 15
  579.3 11.69 11
  579.5 7.57 7
  579.6 10.61 10
  579.7 15.2 15
  579.8 17.39 17
  579.9 14.54 14
  580.7 5.22 5
  580.8 9.31 9
  580.9 14.77 14
  581.0 17.18 17
  581.1 15.36 15
  581.2 11.36 11
  581.4 8.31 8
  581.5 11.11 11
  581.6 14.46 14
  581.7 15.39 15
  581.8 12.8 12
  581.9 8.33 8
  582.1 6.57 6
  582.2 11.3 11
  582.3 15.82 15
  582.4 16.76 16
  582.5 14.52 14
  583.3 8.0 7
  583.4 12.03 12
  583.5 17.37 17
  583.6 19.19 19
  583.7 15.77 15
  584.5 5.36 5
  584.6 9.15 9
  584.7 15.15 15
  584.8 19.17 19
  584.9 18.33 18
  585.0 13.31 13
  585.2 6.68 6
  585.3 9.82 9
  585.4 14.39 14
  585.5 16.01 15
  585.6 12.71 12
  585.7 6.69 6
  585.9 4.59 4
  586.0 10.65 10
  586.1 16.04 16
  586.2 16.89 16
  586.3 13.4 13
  586.5 7.27 7
  586.6 10.25 10
  586.7 15.69 15
  586.8 18.27 18
  586.9 14.42 14
  587.2 6.8 6
  587.3 16.1 16
  587.4 22.1 22
  587.5 19.65 19
  587.6 11.68 11
  587.8 5.21 5
  587.9 9.74 9
  588.0 14.14 14
  588.1 14.77 14
  588.2 11.73 11
  588.5 7.92 7
  588.6 11.08 11
  588.7 13.12 13
  588.8 12.67 12
  589.7 6.56 6
  589.8 9.9 9
  589.9 13.56 13
  590.0 14.11 14
  590.1 11.1 11
  590.4 8.34 8
  590.5 11.44 11
  590.6 13.48 13
  590.7 12.94 12
  590.8 10.04 10
  591.1 6.81 6
  591.2 9.89 9
  591.3 12.92 12
  591.4 14.1 14
  591.5 13.01 12
  591.6 11.68 11
  591.7 12.47 12
  591.8 14.98 14
  591.9 15.92 15
  592.0 12.94 12
  592.3 6.78 6
  592.4 12.51 12
  592.5 17.36 17
  592.6 18.15 18
  592.7 15.27 15
  593.5 6.33 6
  593.6 9.65 9
  593.7 14.52 14
  593.8 17.29 17
  593.9 16.41 16
  594.0 13.07 13
  594.2 10.06 10
  594.3 12.71 12
  594.4 16.23 16
  594.5 17.65 17
  594.6 15.5 15
  594.7 11.13 11
  594.9 8.64 8
  595.0 11.78 11
  595.1 14.28 14
  595.2 13.82 13
  595.3 10.82 10
  595.5 7.97 7
  595.6 10.78 10
  595.7 13.96 13
  595.8 14.42 14
  595.9 11.54 11
  596.1 8.3 8
  596.2 11.87 11
  596.3 15.19 15
  596.4 14.39 14
  596.5 9.31 9
  596.7 3.2 3
  596.8 8.3 8
  596.9 15.36 15
  597.0 18.24 18
  597.1 14.51 14
  597.4 8.82 8
  597.5 14.9 14
  597.6 17.97 17
  597.7 15.75 15
  597.8 11.16 11
  598.0 10.19 10
  598.1 13.95 13
  598.2 17.13 17
  598.3 17.83 17
  598.4 15.68 15
  598.7 11.39 11
  598.8 14.91 14
  598.9 17.05 17
  599.0 15.83 15
  599.2 12.67 12
  599.3 15.11 15
  599.4 17.82 17
  599.5 17.69 17
  599.6 14.22 14
//
