ACCESSION: MSBNK-RIKEN_NPDepo-NGA00617
RECORD_TITLE: Fagarine I; LC-ESI-QQQ; MS2; Frag=135.0V CID@5.0; [M+H]+
DATE: 2018.04.04
AUTHORS: Nogawa T, Okano A, CSRS, RIKEN
LICENSE: CC BY
COMMENT: Origin: Plant
COMMENT: SubCategory_DNP: Isoquinoline alkaloids, Morphine alkaloids, Cryptopine alkaloids
CH$NAME: Fagarine I
CH$COMPOUND_CLASS: Alkaloids
CH$FORMULA: C21H23NO5
CH$EXACT_MASS: 369.4212
CH$SMILES: COc1ccc2c(c1OC)CN(C)CCc1cc3c(cc1C(=O)C2)OCO3
CH$IUPAC: InChI=1S/C21H23NO5/c1-22-7-6-14-9-19-20(27-12-26-19)10-15(14)17(23)8-13-4-5-18(24-2)21(25-3)16(13)11-22/h4-5,9-10H,6-8,11-12H2,1-3H3
CH$LINK: CAS 24240-04-8
CH$LINK: CHEMSPIDER 89017
CH$LINK: INCHIKEY HYBRYAPKQCZIAE-UHFFFAOYSA-N
CH$LINK: PUBCHEM CID:98570
AC$INSTRUMENT: Agilent 6410 Triple Quadrupole LC/MS system
AC$INSTRUMENT_TYPE: LC-ESI-QQQ
AC$MASS_SPECTROMETRY: MS_TYPE MS2
AC$MASS_SPECTROMETRY: ION_MODE POSITIVE
MS$FOCUSED_ION: PRECURSOR_TYPE [M+H]+
PK$SPLASH: splash10-00di-0009000000-25c2bf2a83631be69cf9
PK$NUM_PEAK: 16
PK$PEAK: m/z int. rel.int.
  369.2 0.65 0
  369.3 1.96 1
  369.4 4.08 4
  369.5 6.91 6
  369.6 11.65 11
  369.7 21.31 21
  369.8 38.3 38
  369.9 60.61 60
  370.0 81.9 81
  370.1 95.93 95
  370.2 100.0 99
  370.3 93.41 93
  370.4 75.67 75
  370.5 49.24 49
  370.6 22.16 22
  370.7 3.69 3
//
