ACCESSION: MSBNK-RIKEN_NPDepo-NGA02459
RECORD_TITLE: Veratroylzygadenine; LC-ESI-QQQ; MS2; Frag=135.0V CID@10.0; [M+H]+
DATE: 2018.04.04
AUTHORS: Nogawa T, Okano A, CSRS, RIKEN
LICENSE: CC BY
COMMENT: Origin: Plant
COMMENT: SubCategory_DNP: Steroidal alkaloids, Veratrum alkaloids
CH$NAME: Veratroylzygadenine
CH$COMPOUND_CLASS: Alkaloids
CH$FORMULA: C36H51NO10
CH$EXACT_MASS: 657.8086
CH$SMILES: COc1ccc(C(=O)OC2CCC3(C)C4CCC5[C@]6(O)[C@@H](O)C(O)[C@H]7C(CN8CC(C)CC[C@H]8[C@@]7(C)O)[C@@H]6C[C@@]53O[C@]24O)cc1OC
CH$IUPAC: InChI=1S/C36H51NO10/c1-18-6-11-26-33(3,41)28-20(17-37(26)16-18)21-15-34-25(35(21,42)30(39)29(28)38)10-9-24-32(34,2)13-12-27(36(24,43)47-34)46-31(40)19-7-8-22(44-4)23(14-19)45-5/h7-8,14,18,20-21,24-30,38-39,41-43H,6,9-13,15-17H2,1-5H3/t18?,20?,21-,24?,25?,26-,27?,28+,29?,30-,32?,33+,34+,35-,36-/m0/s1
CH$LINK: CAS 31329-58-5
CH$LINK: CHEMSPIDER 32904
CH$LINK: INCHIKEY LQZYJVWXEFXUJG-ALBSXIIMSA-N
AC$INSTRUMENT: Agilent 6410 Triple Quadrupole LC/MS system
AC$INSTRUMENT_TYPE: LC-ESI-QQQ
AC$MASS_SPECTROMETRY: MS_TYPE MS2
AC$MASS_SPECTROMETRY: ION_MODE POSITIVE
MS$FOCUSED_ION: PRECURSOR_TYPE [M+H]+
PK$SPLASH: splash10-0a4i-0000009000-3c50bae0bd31761c0d94
PK$NUM_PEAK: 17
PK$PEAK: m/z int. rel.int.
  657.3 0.19 0
  657.4 1.23 1
  657.5 4.0 3
  657.6 8.84 8
  657.7 15.91 15
  657.8 25.76 25
  657.9 38.94 38
  658.0 54.91 54
  658.1 71.75 71
  658.2 86.83 86
  658.3 97.28 97
  658.4 100.0 99
  658.5 92.08 91
  658.6 72.67 72
  658.7 45.64 45
  658.8 19.58 19
  658.9 2.67 2
//
