ACCESSION: MSBNK-RIKEN_NPDepo-NGA02212
RECORD_TITLE: Delsoline; LC-ESI-QQQ; MS2; Frag=135.0V CID@25.0; [M+H]+
DATE: 2018.04.04
AUTHORS: Nogawa T, Okano A, CSRS, RIKEN
LICENSE: CC BY
COMMENT: Origin: Plant
COMMENT: SubCategory_DNP: Terpenoid alkaloids, Diterpene alkaloid, Aconitum alkaloid
CH$NAME: Delsoline
CH$COMPOUND_CLASS: Alkaloids
CH$FORMULA: C25H41NO7
CH$EXACT_MASS: 467.608
CH$SMILES: CCN1C[C@]2(COC)CC[C@H](O)[C@@]34C5C[C@@H]6[C@@H](OC)C[C@@](O)(C5[C@H]6OC)[C@@](O)([C@@H](OC)C23)[C@@H]14
CH$IUPAC: InChI=1S/C25H41NO7/c1-6-26-11-22(12-30-2)8-7-16(27)24-14-9-13-15(31-3)10-23(28,17(14)18(13)32-4)25(29,21(24)26)20(33-5)19(22)24/h13-21,27-29H,6-12H2,1-5H3/t13-,14?,15+,16+,17?,18+,19?,20+,21+,22+,23-,24+,25-/m1/s1
CH$LINK: CAS 509-18-2
CH$LINK: CHEMSPIDER 16735764
CH$LINK: INCHIKEY JVBLTQQBEQQLEV-LPHVGPHASA-N
CH$LINK: PUBCHEM CID:44655937
AC$INSTRUMENT: Agilent 6410 Triple Quadrupole LC/MS system
AC$INSTRUMENT_TYPE: LC-ESI-QQQ
AC$MASS_SPECTROMETRY: MS_TYPE MS2
AC$MASS_SPECTROMETRY: ION_MODE POSITIVE
MS$FOCUSED_ION: PRECURSOR_TYPE [M+H]+
PK$SPLASH: splash10-014i-0000900000-07a9235035aecfb1fc68
PK$NUM_PEAK: 24
PK$PEAK: m/z int. rel.int.
  417.9 2.08 2
  418.0 3.19 3
  418.1 4.52 4
  418.2 5.7 5
  418.3 6.24 6
  418.4 5.8 5
  418.5 4.43 4
  418.6 2.59 2
  467.4 0.52 0
  467.5 1.76 1
  467.6 4.56 4
  467.7 9.55 9
  467.8 17.58 17
  467.9 29.89 29
  468.0 46.96 46
  468.1 66.85 66
  468.2 85.2 85
  468.3 97.39 97
  468.4 100.0 99
  468.5 90.48 90
  468.6 68.45 68
  468.7 39.29 39
  468.8 13.5 13
  468.9 0.36 0
//
