ACCESSION: MSBNK-RIKEN_NPDepo-NGA03486
RECORD_TITLE: 9,13-Epoxy-3,18-dihydroxy-15,16-labdanolide; LC-ESI-QQQ; MS2; Frag=135.0V CID@15.0; [M+HCOO]-
DATE: 2018.04.04
AUTHORS: Nogawa T, Okano A, CSRS, RIKEN
LICENSE: CC BY
COMMENT: Origin: Plant
COMMENT: SubCategory_DNP: Diterpenoids, Labdane diterpenoids
CH$NAME: 9,13-Epoxy-3,18-dihydroxy-15,16-labdanolide
CH$COMPOUND_CLASS: Terpenoids
CH$FORMULA: C20H32O5
CH$EXACT_MASS: 352.475
CH$SMILES: C[C@@H]1CCC2[C@](C)(CC[C@H](O)[C@@]2(C)CO)[C@@]12CC1(COC(=O)C1)CO2
CH$IUPAC: InChI=1S/C20H32O5/c1-13-4-5-14-17(2,10-21)15(22)6-7-18(14,3)20(13)9-19(12-25-20)8-16(23)24-11-19/h13-15,21-22H,4-12H2,1-3H3/t13-,14?,15+,17+,18+,19?,20-/m1/s1
CH$LINK: INCHIKEY QHYFPLAXWXWDJP-GNQMFGHGSA-N
CH$LINK: PUBCHEM CID:16408478
AC$INSTRUMENT: Agilent 6410 Triple Quadrupole LC/MS system
AC$INSTRUMENT_TYPE: LC-ESI-QQQ
AC$MASS_SPECTROMETRY: MS_TYPE MS2
AC$MASS_SPECTROMETRY: ION_MODE NEGATIVE
MS$FOCUSED_ION: PRECURSOR_TYPE [M+HCOO]-
PK$SPLASH: splash10-0ik9-4888890000-d51d39a1efe3004d2fe5
PK$NUM_PEAK: 4126
PK$PEAK: m/z int. rel.int.
  50.8 5.59 5
  50.9 10.96 10
  51.0 17.89 17
  51.1 21.16 21
  51.2 18.43 18
  51.3 12.44 12
  51.5 10.61 10
  51.6 15.36 15
  51.7 18.51 18
  51.8 17.86 17
  51.9 14.3 14
  52.1 9.69 9
  52.2 13.0 12
  52.3 17.92 17
  52.4 19.97 19
  52.5 17.25 17
  52.6 12.42 12
  52.8 11.0 10
  52.9 14.75 14
  53.0 17.76 17
  53.1 17.53 17
  53.2 13.84 13
  54.0 7.75 7
  54.1 11.02 11
  54.2 15.57 15
  54.3 17.48 17
  54.4 15.42 15
  54.5 11.19 11
  54.7 9.06 9
  54.8 12.88 12
  54.9 15.77 15
  55.0 14.56 14
  55.3 7.96 7
  55.4 14.29 14
  55.5 21.16 21
  55.6 23.41 23
  55.7 19.18 19
  55.8 11.49 11
  56.0 8.02 8
  56.1 13.89 13
  56.2 17.19 17
  56.3 14.23 14
  56.6 9.15 9
  56.7 13.6 13
  56.8 16.15 16
  56.9 15.39 15
  57.2 10.57 10
  57.3 15.04 15
  57.4 18.38 18
  57.5 16.81 16
  57.6 11.43 11
  57.8 6.27 6
  57.9 10.21 10
  58.0 15.5 15
  58.1 17.89 17
  58.2 15.36 15
  58.3 9.8 9
  58.5 6.04 6
  58.6 10.48 10
  58.7 15.56 15
  58.8 17.53 17
  58.9 15.25 15
  59.2 10.44 10
  59.3 15.08 15
  59.4 18.55 18
  59.5 17.39 17
  59.6 11.87 11
  59.8 6.86 6
  59.9 12.94 12
  60.0 19.73 19
  60.1 21.35 21
  60.2 16.67 16
  60.5 9.69 9
  60.6 15.57 15
  60.7 19.67 19
  60.8 18.28 18
  60.9 12.44 12
  61.1 8.68 8
  61.2 14.35 14
  61.3 19.13 19
  61.4 18.72 18
  61.5 14.36 14
  61.7 11.34 11
  61.8 14.59 14
  61.9 16.86 16
  62.0 16.09 16
  62.1 12.94 12
  62.3 7.43 7
  62.4 9.49 9
  62.5 15.17 15
  62.6 20.31 20
  62.7 19.91 19
  62.8 13.57 13
  63.0 6.6 6
  63.1 13.1 13
  63.2 20.14 20
  63.3 21.12 21
  63.4 15.91 15
  63.6 9.89 9
  63.7 14.03 14
  63.8 17.96 17
  63.9 17.44 17
  64.0 12.45 12
  64.2 5.06 5
  64.3 8.24 8
  64.4 14.07 14
  64.5 18.61 18
  64.6 19.09 19
  64.7 15.14 15
  65.0 7.63 7
  65.1 14.69 14
  65.2 20.94 20
  65.3 20.43 20
  65.4 13.58 13
  65.6 7.67 7
  65.7 14.1 14
  65.8 19.85 19
  65.9 19.32 19
  66.0 13.26 13
  66.2 7.47 7
  66.3 12.39 12
  66.4 17.13 17
  66.5 17.11 17
  66.6 12.79 12
  66.8 8.25 8
  66.9 12.26 12
  67.0 16.7 16
  67.1 17.24 17
  67.2 13.4 13
  67.4 9.35 9
  67.5 14.09 14
  67.6 19.48 19
  67.7 20.66 20
  67.8 16.26 16
  68.1 10.28 10
  68.2 16.32 16
  68.3 20.08 20
  68.4 18.72 18
  68.5 13.4 13
  68.8 8.97 8
  68.9 14.38 14
  69.0 18.15 18
  69.1 17.7 17
  70.0 10.09 10
  70.1 14.61 14
  70.2 18.96 18
  70.3 19.71 19
  70.4 15.82 15
  70.7 9.98 9
  70.8 14.9 14
  70.9 17.51 17
  71.0 15.77 15
  71.3 11.67 11
  71.4 15.1 15
  71.5 16.79 16
  71.6 14.93 14
  71.7 10.67 10
  71.9 7.32 7
  72.0 10.94 10
  72.1 14.81 14
  72.2 15.36 15
  72.3 12.27 12
  72.5 7.41 7
  72.6 10.31 10
  72.7 15.95 15
  72.8 20.81 20
  72.9 20.72 20
  73.0 14.81 14
  73.2 6.11 6
  73.3 11.38 11
  73.4 17.97 17
  73.5 19.21 19
  73.6 14.2 14
  73.8 6.95 6
  73.9 11.35 11
  74.0 16.76 16
  74.1 18.12 18
  74.2 14.47 14
  74.3 9.2 9
  74.5 8.25 8
  74.6 12.58 12
  74.7 16.15 16
  74.8 16.41 16
  74.9 13.14 13
  75.2 8.18 8
  75.3 13.13 13
  75.4 17.45 17
  75.5 17.67 17
  75.6 14.3 14
  75.8 11.9 11
  75.9 14.72 14
  76.0 16.44 16
  76.1 15.42 15
  76.2 12.39 12
  76.4 9.31 9
  76.5 12.5 12
  76.6 16.66 16
  76.7 17.76 17
  76.8 14.24 14
  77.0 7.18 7
  77.1 10.33 10
  77.2 15.82 15
  77.3 18.81 18
  77.4 16.93 16
  77.5 12.07 12
  77.7 9.5 9
  77.8 14.23 14
  77.9 18.52 18
  78.0 18.2 18
  78.1 13.48 13
  78.3 10.06 10
  78.4 15.45 15
  78.5 20.6 20
  78.6 21.29 21
  78.7 17.22 17
  78.8 11.61 11
  79.0 9.14 9
  79.1 12.97 12
  79.2 16.79 16
  79.3 17.48 17
  79.4 14.56 14
  79.6 9.57 9
  79.7 12.32 12
  79.8 16.29 16
  79.9 17.54 17
  80.0 14.35 14
  80.3 8.92 8
  80.4 14.3 14
  80.5 17.5 17
  80.6 15.65 15
  80.7 10.28 10
  80.9 5.94 5
  81.0 10.83 10
  81.1 16.63 16
  81.2 18.6 18
  81.3 15.05 15
  81.5 6.94 6
  81.6 10.42 10
  81.7 17.02 17
  81.8 20.95 20
  81.9 19.09 19
  82.0 13.28 13
  82.2 8.27 8
  82.3 11.77 11
  82.4 15.51 15
  82.5 16.46 16
  82.6 14.24 14
  82.8 9.9 9
  82.9 12.22 12
  83.0 16.05 16
  83.1 17.89 17
  83.2 16.11 16
  83.3 12.52 12
  83.5 11.37 11
  83.6 14.56 14
  83.7 17.25 17
  83.8 17.22 17
  83.9 14.47 14
  84.1 10.96 10
  84.2 14.0 13
  84.3 18.2 18
  84.4 19.58 19
  84.5 16.37 16
  85.4 1.97 1
  85.5 10.31 10
  85.6 18.29 18
  85.7 20.31 20
  85.8 15.85 15
  86.7 9.23 9
  86.8 15.19 15
  86.9 20.29 20
  87.0 20.48 20
  87.1 15.66 15
  87.3 8.04 8
  87.4 11.48 11
  87.5 16.67 16
  87.6 18.43 18
  87.7 14.99 14
  88.0 10.27 10
  88.1 16.2 16
  88.2 19.47 19
  88.3 17.71 17
  89.2 3.74 3
  89.3 11.03 11
  89.4 19.91 19
  89.5 23.78 23
  89.6 19.42 19
  89.7 9.96 9
  89.9 4.34 4
  90.0 11.83 11
  90.1 18.0 17
  90.2 17.65 17
  90.3 12.61 12
  90.5 10.33 10
  90.6 14.98 14
  90.7 17.77 17
  90.8 15.54 15
  90.9 10.09 10
  91.1 7.27 7
  91.2 12.35 12
  91.3 17.27 17
  91.4 18.12 18
  91.5 14.67 14
  91.7 9.21 9
  91.8 12.35 12
  91.9 18.02 18
  92.0 22.57 22
  92.1 22.69 22
  92.2 17.92 17
  92.5 11.03 11
  92.6 16.76 16
  92.7 20.81 20
  92.8 19.59 19
  92.9 14.18 14
  93.1 9.38 9
  93.2 13.69 13
  93.3 18.08 18
  93.4 18.23 18
  93.5 13.84 13
  93.7 8.65 8
  93.8 13.48 13
  93.9 19.44 19
  94.0 20.86 20
  94.1 15.77 15
  94.4 8.4 8
  94.5 15.13 15
  94.6 19.28 19
  94.7 18.06 18
  94.8 13.03 13
  95.0 9.0 8
  95.1 14.49 14
  95.2 20.31 20
  95.3 21.01 20
  95.4 15.97 15
  95.6 8.66 8
  95.7 12.93 12
  95.8 18.55 18
  95.9 19.88 19
  96.0 15.57 15
  96.9 8.27 8
  97.0 14.61 14
  97.1 19.97 19
  97.2 19.82 19
  97.3 14.15 14
  97.6 6.69 6
  97.7 14.03 14
  97.8 19.64 19
  97.9 19.04 19
  98.8 10.41 10
  98.9 14.46 14
  99.0 16.05 16
  99.1 14.15 14
  99.2 10.61 10
  99.4 6.37 6
  99.5 8.99 8
  99.6 14.52 14
  99.7 19.1 19
  99.8 18.69 18
  99.9 13.49 13
  100.1 7.66 7
  100.2 11.92 11
  100.3 16.72 16
  100.4 17.56 17
  100.5 14.09 14
  100.7 9.2 9
  100.8 12.06 12
  100.9 15.62 15
  101.0 16.96 16
  101.1 15.43 15
  101.2 12.16 12
  101.4 9.52 9
  101.5 12.88 12
  101.6 16.14 16
  101.7 15.2 15
  101.8 9.78 9
  102.0 3.9 3
  102.1 9.25 9
  102.2 16.43 16
  102.3 20.32 20
  102.4 18.6 18
  102.5 13.54 13
  102.7 11.64 11
  102.8 15.77 15
  102.9 18.25 18
  103.0 16.72 16
  103.1 12.79 12
  103.3 10.38 10
  103.4 14.87 14
  103.5 20.06 20
  103.6 21.44 21
  103.7 17.45 17
  103.8 11.22 11
  104.0 7.06 7
  104.1 10.45 10
  104.2 14.04 14
  104.3 14.32 14
  104.4 10.76 10
  104.6 7.4 7
  104.7 11.6 11
  104.8 15.63 15
  104.9 16.18 16
  105.0 13.2 13
  105.2 8.4 8
  105.3 11.37 11
  105.4 16.23 16
  105.5 18.84 18
  105.6 17.28 17
  105.9 13.58 13
  106.0 16.43 16
  106.1 17.7 17
  106.2 16.34 16
  106.3 13.2 13
  106.5 10.18 10
  106.6 13.16 13
  106.7 17.47 17
  106.8 19.83 19
  106.9 18.03 18
  107.0 13.23 13
  107.2 9.49 9
  107.3 12.73 12
  107.4 14.96 14
  107.5 13.29 13
  107.8 7.32 7
  107.9 12.41 12
  108.0 17.36 17
  108.1 18.25 18
  108.2 14.78 14
  108.4 9.75 9
  108.5 13.55 13
  108.6 18.64 18
  108.7 20.32 20
  108.8 16.67 16
  108.9 10.19 10
  109.1 6.65 6
  109.2 12.52 12
  109.3 18.52 18
  109.4 19.61 19
  109.5 15.37 15
  110.3 6.07 6
  110.4 10.62 10
  110.5 19.91 19
  110.6 28.85 28
  110.7 31.72 31
  110.8 26.44 26
  110.9 17.7 17
  111.1 14.88 14
  111.2 19.51 19
  111.3 21.03 21
  111.4 17.36 17
  111.5 11.52 11
  111.7 10.54 10
  111.8 14.84 14
  111.9 16.64 16
  112.0 14.3 14
  112.2 9.47 9
  112.3 12.64 12
  112.4 16.99 16
  112.5 18.12 18
  112.6 14.27 14
  112.7 7.82 7
  112.9 4.74 4
  113.0 11.37 11
  113.1 18.95 18
  113.2 21.93 21
  113.3 18.44 18
  113.4 12.15 12
  113.6 11.25 11
  113.7 16.09 16
  113.8 18.92 18
  113.9 17.42 17
  114.0 12.71 12
  114.2 7.47 7
  114.3 11.08 11
  114.4 16.11 16
  114.5 18.49 18
  114.6 16.61 16
  115.5 9.93 9
  115.6 14.98 14
  115.7 17.63 17
  115.8 14.73 14
  116.1 8.42 8
  116.2 15.01 14
  116.3 20.81 20
  116.4 22.13 22
  116.5 18.58 18
  117.4 8.21 8
  117.5 14.93 14
  117.6 19.93 19
  117.7 18.93 18
  117.8 12.96 12
  118.0 6.25 6
  118.1 10.45 10
  118.2 15.86 15
  118.3 17.3 17
  118.4 12.82 12
  118.6 3.16 3
  118.7 7.46 7
  118.8 15.48 15
  118.9 21.13 21
  119.0 20.95 20
  119.1 15.92 15
  119.9 8.89 8
  120.0 11.78 11
  120.1 16.44 16
  120.2 18.87 18
  120.3 16.55 16
  120.4 11.02 11
  120.6 8.28 8
  120.7 13.77 13
  120.8 18.99 18
  120.9 19.68 19
  121.0 15.31 15
  121.8 6.31 6
  121.9 10.3 10
  122.0 17.5 17
  122.1 21.96 21
  122.2 20.02 19
  122.3 13.8 13
  122.5 9.26 9
  122.6 12.87 12
  122.7 15.8 15
  122.8 15.83 15
  122.9 13.52 13
  123.1 9.9 9
  123.2 11.83 11
  123.3 15.51 15
  123.4 18.12 18
  123.5 17.56 17
  123.7 12.53 12
  123.8 14.56 14
  123.9 19.79 19
  124.0 23.11 23
  124.1 20.42 20
  124.2 13.34 13
  124.4 8.27 8
  124.5 14.07 14
  124.6 20.17 20
  124.7 21.32 21
  124.8 16.49 16
  125.1 10.01 9
  125.2 16.0 15
  125.3 19.45 19
  125.4 17.24 17
  125.5 11.37 11
  125.7 8.73 8
  125.8 14.59 14
  125.9 20.06 20
  126.0 20.8 20
  126.1 16.08 16
  126.2 9.49 9
  126.4 8.63 8
  126.5 14.15 14
  126.6 17.36 17
  126.7 14.56 14
  127.0 5.53 5
  127.1 14.85 14
  127.2 23.3 23
  127.3 23.41 23
  127.4 15.08 15
  128.3 9.6 9
  128.4 12.16 12
  128.5 15.31 15
  128.6 16.21 16
  128.7 13.72 13
  128.9 8.51 8
  129.0 11.0 10
  129.1 15.16 15
  129.2 17.04 17
  129.3 14.9 14
  129.5 9.75 9
  129.6 12.62 12
  129.7 17.33 17
  129.8 19.88 19
  129.9 18.18 18
  130.0 13.89 13
  130.2 11.78 11
  130.3 15.42 15
  130.4 17.82 17
  130.5 15.97 15
  130.6 10.77 10
  130.8 7.64 7
  130.9 12.9 12
  131.0 17.79 17
  131.1 18.08 18
  131.2 14.04 14
  131.3 9.34 9
  131.5 8.25 8
  131.6 11.05 11
  131.7 13.55 13
  131.8 13.8 13
  131.9 11.35 11
  132.2 8.42 8
  132.3 12.0 11
  132.4 14.78 14
  132.5 14.67 14
  132.6 11.81 11
  132.8 9.58 9
  132.9 14.0 13
  133.0 17.67 17
  133.1 16.27 16
  133.4 10.22 10
  133.5 16.03 16
  133.6 20.05 20
  133.7 18.8 18
  133.8 13.42 13
  134.0 8.92 8
  134.1 13.8 13
  134.2 19.36 19
  134.3 21.3 21
  134.4 18.02 18
  134.5 11.35 11
  134.7 4.63 4
  134.8 8.85 8
  134.9 14.2 14
  135.0 15.72 15
  135.1 12.3 12
  135.3 6.45 6
  135.4 9.92 9
  135.5 14.47 14
  135.6 15.88 15
  135.7 13.46 13
  135.9 9.76 9
  136.0 12.84 12
  136.1 16.69 16
  136.2 17.71 17
  136.3 14.67 14
  136.5 8.24 8
  136.6 11.17 11
  136.7 16.78 16
  136.8 20.03 20
  136.9 17.67 17
  137.0 11.31 11
  137.2 5.06 5
  137.3 9.02 9
  137.4 14.72 14
  137.5 18.38 18
  137.6 17.67 17
  137.7 13.66 13
  137.9 11.02 11
  138.0 14.55 14
  138.1 16.79 16
  138.2 15.1 15
  138.3 10.59 10
  138.5 6.97 6
  138.6 10.94 10
  138.7 15.79 15
  138.8 17.7 17
  138.9 15.71 15
  139.1 10.9 10
  139.2 13.33 13
  139.3 18.0 17
  139.4 20.9 20
  139.5 18.96 18
  139.6 13.29 13
  139.8 9.26 9
  139.9 14.09 14
  140.0 18.8 18
  140.1 19.39 19
  140.2 14.9 14
  140.4 6.08 6
  140.5 10.54 10
  140.6 18.29 18
  140.7 21.82 21
  140.8 18.0 17
  140.9 11.31 11
  141.1 10.97 10
  141.2 16.01 15
  141.3 18.96 18
  141.4 17.44 17
  141.5 12.39 12
  141.7 7.38 7
  141.8 12.53 12
  141.9 19.16 19
  142.0 21.36 21
  142.1 16.64 16
  142.4 8.44 8
  142.5 15.68 15
  142.6 19.79 19
  142.7 17.56 17
  142.8 11.95 11
  143.0 8.57 8
  143.1 11.22 11
  143.2 12.84 12
  143.3 11.63 11
  143.5 7.18 7
  143.6 9.17 9
  143.7 14.18 14
  143.8 19.41 19
  143.9 21.75 21
  144.0 19.64 19
  144.9 9.76 9
  145.0 18.49 18
  145.1 24.42 24
  145.2 22.49 22
  145.3 14.76 14
  145.5 6.69 6
  145.6 11.29 11
  145.7 17.31 17
  145.8 20.0 19
  145.9 17.18 17
  146.0 11.11 11
  146.2 9.29 9
  146.3 16.17 16
  146.4 22.39 22
  146.5 23.2 23
  146.6 18.37 18
  146.7 11.64 11
  146.9 9.92 9
  147.0 15.82 15
  147.1 20.28 20
  147.2 18.96 18
  147.3 13.02 13
  147.5 7.64 7
  147.6 11.49 11
  147.7 15.45 15
  147.8 16.15 16
  147.9 13.23 13
  148.1 8.8 8
  148.2 12.16 12
  148.3 16.03 16
  148.4 16.18 16
  148.5 12.71 12
  148.7 9.8 9
  148.8 13.07 13
  148.9 16.6 16
  149.0 17.76 17
  149.1 15.36 15
  149.4 9.49 9
  149.5 14.72 14
  149.6 19.3 19
  149.7 19.62 19
  149.8 15.88 15
  150.0 11.31 11
  150.1 14.36 14
  150.2 17.71 17
  150.3 17.71 17
  150.4 13.84 13
  150.6 7.41 7
  150.7 10.71 10
  150.8 16.81 16
  150.9 20.87 20
  151.0 19.65 19
  151.1 14.7 14
  151.9 8.68 8
  152.0 13.17 13
  152.1 17.1 17
  152.2 17.53 17
  152.3 15.04 15
  152.6 12.52 12
  152.7 15.86 15
  152.8 18.28 18
  152.9 16.79 16
  153.0 12.01 11
  153.2 8.19 8
  153.3 12.38 12
  153.4 16.98 16
  153.5 18.08 18
  153.6 14.2 14
  153.7 7.76 7
  153.9 6.19 6
  154.0 12.73 12
  154.1 18.26 18
  154.2 18.73 18
  154.3 14.85 14
  154.5 11.34 11
  154.6 15.48 15
  154.7 20.09 20
  154.8 21.19 21
  154.9 17.45 17
  155.8 8.76 8
  155.9 15.36 15
  156.0 20.08 20
  156.1 19.21 19
  156.2 13.57 13
  156.4 6.92 6
  156.5 11.46 11
  156.6 17.65 17
  156.7 20.37 20
  156.8 17.53 17
  156.9 11.64 11
  157.1 9.17 9
  157.2 14.93 14
  157.3 19.53 19
  157.4 18.28 18
  157.5 11.95 11
  157.7 6.05 6
  157.8 11.11 11
  157.9 16.9 16
  158.0 18.72 18
  158.1 15.42 15
  158.3 8.89 8
  158.4 12.33 12
  158.5 17.45 17
  158.6 19.53 19
  158.7 16.6 16
  158.8 10.74 10
  159.0 6.6 6
  159.1 10.54 10
  159.2 14.27 14
  159.3 14.39 14
  159.4 10.99 10
  159.6 6.39 6
  159.7 10.44 10
  159.8 16.79 16
  159.9 20.45 20
  160.0 18.17 18
  160.1 12.12 12
  160.3 10.06 10
  160.4 15.72 15
  160.5 19.64 19
  160.6 18.63 18
  160.7 14.36 14
  160.9 10.77 10
  161.0 13.51 13
  161.1 16.4 16
  161.2 16.92 16
  161.3 14.59 14
  161.4 10.91 10
  161.6 9.06 9
  161.7 12.21 12
  161.8 15.28 15
  161.9 15.6 15
  162.0 13.16 13
  162.2 10.96 10
  162.3 14.55 14
  162.4 17.86 17
  162.5 16.84 16
  162.6 11.58 11
  162.8 6.83 6
  162.9 11.32 11
  163.0 16.44 16
  163.1 18.63 18
  163.2 16.86 16
  163.3 12.64 12
  163.5 10.31 10
  163.6 14.5 14
  163.7 18.2 18
  163.8 17.82 17
  163.9 13.42 13
  164.7 10.01 9
  164.8 13.58 13
  164.9 18.02 18
  165.0 19.74 19
  165.1 17.42 17
  165.2 12.52 12
  165.4 7.47 7
  165.5 10.94 10
  165.6 15.88 15
  165.7 17.73 17
  165.8 14.23 14
  166.1 8.42 8
  166.2 13.95 13
  166.3 16.9 16
  166.4 14.61 14
  166.5 9.46 9
  166.7 8.47 8
  166.8 13.16 13
  166.9 15.79 15
  167.0 14.12 14
  167.3 8.89 8
  167.4 14.49 14
  167.5 19.88 19
  167.6 19.93 19
  167.7 13.8 13
  167.9 4.45 4
  168.0 9.0 8
  168.1 16.0 15
  168.2 19.93 19
  168.3 18.44 18
  168.4 13.43 13
  168.6 10.01 9
  168.7 14.99 14
  168.8 19.47 19
  168.9 18.38 18
  169.0 11.69 11
  169.2 5.07 5
  169.3 11.43 11
  169.4 18.81 18
  169.5 21.32 21
  169.6 17.73 17
  170.5 7.47 7
  170.6 13.95 13
  170.7 19.88 19
  170.8 20.86 20
  170.9 16.03 16
  171.0 8.86 8
  171.2 6.23 6
  171.3 11.6 11
  171.4 16.11 16
  171.5 16.84 16
  171.6 14.29 14
  171.8 11.9 11
  171.9 14.73 14
  172.0 17.08 17
  172.1 16.6 16
  172.2 13.49 13
  172.4 9.32 9
  172.5 12.19 12
  172.6 16.66 16
  172.7 18.46 18
  172.8 15.57 15
  172.9 10.36 10
  173.1 8.08 8
  173.2 10.71 10
  173.3 11.55 11
  173.6 7.44 7
  173.7 12.65 12
  173.8 19.19 19
  173.9 22.54 22
  174.0 20.39 20
  174.1 14.55 14
  174.9 7.14 7
  175.0 10.28 10
  175.1 17.56 17
  175.2 23.07 23
  175.3 22.14 22
  175.4 16.24 16
  176.3 9.25 9
  176.4 13.95 13
  176.5 17.83 17
  176.6 16.82 16
  176.9 9.73 9
  177.0 16.53 16
  177.1 22.39 22
  177.2 22.39 22
  177.3 16.79 16
  177.6 10.44 10
  177.7 15.65 15
  177.8 19.39 19
  177.9 18.95 18
  178.0 15.01 14
  178.8 9.35 9
  178.9 13.11 13
  179.0 17.85 17
  179.1 19.24 19
  179.2 15.98 15
  179.5 11.61 11
  179.6 15.05 15
  179.7 17.59 17
  179.8 17.22 17
  179.9 13.86 13
  180.1 8.59 8
  180.2 11.54 11
  180.3 16.29 16
  180.4 18.54 18
  180.5 16.09 16
  180.8 10.56 10
  180.9 15.22 15
  181.0 17.79 17
  181.1 15.98 15
  181.2 11.43 11
  181.4 7.58 7
  181.5 11.2 11
  181.6 15.51 15
  181.7 16.66 16
  181.8 13.75 13
  182.0 9.44 9
  182.1 12.93 12
  182.2 17.56 17
  182.3 19.38 19
  182.4 16.63 16
  182.5 11.16 11
  182.7 7.5 7
  182.8 12.06 12
  182.9 16.32 16
  183.0 15.85 15
  183.1 10.7 10
  183.3 5.06 5
  183.4 9.72 9
  183.5 15.4 15
  183.6 17.24 17
  183.7 14.23 14
  183.9 9.2 9
  184.0 12.12 12
  184.1 15.48 15
  184.2 16.12 16
  184.3 14.0 13
  184.4 11.0 10
  184.6 9.64 9
  184.7 11.45 11
  184.8 13.03 13
  184.9 13.28 13
  185.2 12.0 11
  185.3 14.44 14
  185.4 17.31 17
  185.5 18.0 17
  185.6 15.33 15
  185.9 11.11 11
  186.0 15.22 15
  186.1 17.89 17
  186.2 16.99 16
  186.3 13.43 13
  186.5 9.35 9
  186.6 12.53 12
  186.7 17.08 17
  186.8 18.57 18
  186.9 14.73 14
  187.1 7.56 7
  187.2 12.29 12
  187.3 18.49 18
  187.4 19.99 19
  187.5 15.51 15
  187.8 10.33 10
  187.9 16.56 16
  188.0 20.8 20
  188.1 19.65 19
  188.2 14.1 14
  188.4 8.68 8
  188.5 13.6 13
  188.6 19.47 19
  188.7 20.75 20
  188.8 15.62 15
  188.9 8.04 8
  189.1 6.46 6
  189.2 12.0 11
  189.3 15.65 15
  189.4 14.94 14
  189.5 11.28 11
  189.7 8.76 8
  189.8 13.16 13
  189.9 17.59 17
  190.0 16.92 16
  190.1 10.38 10
  190.3 3.01 3
  190.4 9.4 9
  190.5 17.31 17
  190.6 20.83 20
  190.7 17.86 17
  190.8 10.99 10
  191.0 4.98 4
  191.1 10.5 10
  191.2 17.56 17
  191.3 20.52 20
  191.4 17.21 17
  191.5 11.12 11
  191.7 10.48 10
  191.8 15.48 15
  191.9 17.79 17
  192.0 15.16 15
  192.1 9.55 9
  192.3 5.67 5
  192.4 11.12 11
  192.5 18.08 18
  192.6 20.94 20
  192.7 17.41 17
  192.9 9.34 9
  193.0 13.22 13
  193.1 18.38 18
  193.2 18.99 18
  193.3 14.2 14
  193.6 9.0 8
  193.7 14.98 14
  193.8 19.33 19
  193.9 19.04 19
  194.0 14.55 14
  195.3 10.15 10
  195.4 12.7 12
  195.5 17.01 16
  195.6 20.43 20
  195.7 20.28 20
  195.8 15.89 15
  195.9 9.69 9
  196.1 7.98 7
  196.2 13.13 13
  196.3 17.33 17
  196.4 17.77 17
  196.5 14.61 14
  196.7 8.53 8
  196.8 11.2 11
  196.9 16.41 16
  197.0 18.95 18
  197.1 15.42 15
  197.2 8.13 8
  197.4 5.68 5
  197.5 13.37 13
  197.6 20.71 20
  197.7 22.42 22
  197.8 17.73 17
  197.9 10.8 10
  198.1 9.2 9
  198.2 14.24 14
  198.3 17.44 17
  198.4 16.34 16
  198.5 12.42 12
  198.7 8.5 8
  198.8 11.29 11
  198.9 14.87 14
  199.0 15.91 15
  199.3 13.08 13
  199.4 16.98 16
  199.5 19.47 19
  199.6 17.51 17
  199.7 12.03 12
  199.9 7.03 7
  200.0 11.64 11
  200.1 17.33 17
  200.2 19.32 19
  200.3 15.6 15
  200.4 8.94 8
  200.6 6.95 6
  200.7 14.12 14
  200.8 21.15 21
  200.9 23.5 23
  201.0 20.39 20
  201.1 14.93 14
  201.3 12.03 12
  201.4 15.71 15
  201.5 18.75 18
  201.6 18.29 18
  201.7 14.85 14
  201.9 12.26 12
  202.0 15.86 15
  202.1 19.15 19
  202.2 18.8 18
  202.3 15.22 15
  202.5 11.63 11
  202.6 14.59 14
  202.7 17.53 17
  202.8 16.93 16
  202.9 12.21 12
  203.1 5.46 5
  203.2 8.56 8
  203.3 13.78 13
  203.4 17.59 17
  203.5 17.45 17
  203.6 13.51 13
  203.8 8.83 8
  203.9 12.87 12
  204.0 17.67 17
  204.1 18.77 18
  204.2 15.71 15
  204.4 12.22 12
  204.5 15.43 15
  204.6 18.72 18
  204.7 18.83 18
  204.8 14.96 14
  205.0 7.87 7
  205.1 11.6 11
  205.2 17.36 17
  205.3 19.12 19
  205.4 14.91 14
  205.7 8.74 8
  205.8 15.27 15
  205.9 20.02 19
  206.0 19.77 19
  206.1 15.66 15
  206.3 11.34 11
  206.4 14.56 14
  206.5 18.57 18
  206.6 19.54 19
  206.7 16.14 16
  206.8 10.91 10
  207.0 8.68 8
  207.1 12.13 12
  207.2 15.34 15
  207.3 15.31 15
  207.4 11.4 11
  207.6 5.73 5
  207.7 10.53 10
  207.8 17.27 17
  207.9 20.14 20
  208.0 16.99 16
  208.1 11.06 11
  208.3 9.66 9
  208.4 15.13 15
  208.5 19.47 19
  208.6 18.92 18
  208.7 13.74 13
  208.9 7.5 7
  209.0 11.95 11
  209.1 17.27 17
  209.2 18.37 18
  209.3 14.47 14
  210.2 10.44 10
  210.3 14.15 14
  210.4 17.3 17
  210.5 16.86 16
  210.6 12.47 12
  210.8 7.44 7
  210.9 12.19 12
  211.0 17.6 17
  211.1 18.58 18
  211.2 14.23 14
  211.5 8.01 8
  211.6 13.42 13
  211.7 17.42 17
  211.8 16.95 16
  211.9 12.62 12
  212.1 7.67 7
  212.2 11.09 11
  212.3 15.28 15
  212.4 16.17 16
  212.5 12.33 12
  212.8 6.57 6
  212.9 13.42 13
  213.0 19.06 19
  213.1 19.12 19
  213.2 13.62 13
  214.0 5.85 5
  214.1 11.38 11
  214.2 18.17 18
  214.3 21.42 21
  214.4 19.38 19
  214.5 14.29 14
  214.7 11.64 11
  214.8 16.14 16
  214.9 19.68 19
  215.0 18.63 18
  215.1 13.63 13
  215.3 8.36 8
  215.4 11.71 11
  215.5 15.48 15
  215.6 16.12 16
  215.7 13.29 13
  215.9 9.32 9
  216.0 12.18 12
  216.1 15.94 15
  216.2 17.36 17
  216.3 15.62 15
  216.4 12.91 12
  216.6 12.01 11
  216.7 13.23 13
  216.8 14.1 14
  216.9 13.58 13
  217.0 11.46 11
  217.2 9.02 9
  217.3 11.31 11
  217.4 13.98 13
  217.5 14.93 14
  217.6 13.58 13
  217.8 10.74 10
  217.9 13.33 13
  218.0 17.65 17
  218.1 19.87 19
  218.2 17.57 17
  218.3 12.55 12
  218.5 8.54 8
  218.6 11.57 11
  218.7 15.22 15
  218.8 16.61 16
  218.9 14.39 14
  219.1 8.1 8
  219.2 10.86 10
  219.3 16.43 16
  219.4 19.53 19
  219.5 16.76 16
  219.6 10.22 10
  219.8 7.2 7
  219.9 12.59 12
  220.0 16.43 16
  220.1 15.57 15
  220.2 11.42 11
  220.4 7.03 7
  220.5 10.76 10
  220.6 16.89 16
  220.7 20.61 20
  220.8 18.46 18
  220.9 12.04 12
  221.1 8.25 8
  221.2 13.84 13
  221.3 18.75 18
  221.4 18.73 18
  221.5 14.01 13
  221.8 9.2 9
  221.9 13.98 13
  222.0 16.63 16
  222.1 15.02 15
  222.2 10.77 10
  222.4 9.06 9
  222.5 13.51 13
  222.6 16.87 16
  222.7 15.74 15
  223.0 10.24 10
  223.1 14.94 14
  223.2 17.88 17
  223.3 17.16 17
  223.6 14.0 13
  223.7 16.49 16
  223.8 18.72 18
  223.9 17.79 17
  224.0 12.76 12
  224.2 4.75 4
  224.3 8.39 8
  224.4 14.24 14
  224.5 17.37 17
  224.6 15.46 15
  224.7 10.56 10
  224.9 6.17 6
  225.0 9.69 9
  225.1 14.64 14
  225.2 17.65 17
  225.3 16.64 16
  225.4 12.68 12
  225.6 9.63 9
  225.7 13.57 13
  225.8 18.54 18
  225.9 20.78 20
  226.0 18.18 18
  226.1 12.59 12
  226.3 9.28 9
  226.4 13.02 13
  226.5 15.56 15
  226.6 14.3 14
  226.8 9.87 9
  226.9 12.21 12
  227.0 15.69 15
  227.1 16.47 16
  227.2 13.28 13
  227.4 7.73 7
  227.5 10.88 10
  227.6 15.72 15
  227.7 18.22 18
  227.8 16.55 16
  227.9 12.04 12
  228.1 7.32 7
  228.2 11.22 11
  228.3 16.64 16
  228.4 18.61 18
  228.5 15.01 14
  228.8 9.37 9
  228.9 16.52 16
  229.0 21.96 21
  229.1 21.3 21
  229.2 15.25 15
  229.4 9.23 9
  229.5 14.62 14
  229.6 20.32 20
  229.7 20.57 20
  229.8 14.76 14
  230.0 6.53 6
  230.1 11.74 11
  230.2 18.83 18
  230.3 21.61 21
  230.4 18.51 18
  230.5 13.36 13
  230.7 12.39 12
  230.8 15.69 15
  230.9 17.1 17
  231.0 14.75 14
  231.3 9.46 9
  231.4 14.5 14
  231.5 18.75 18
  231.6 19.06 19
  231.7 15.46 15
  232.0 10.86 10
  232.1 15.89 15
  232.2 19.85 19
  232.3 19.41 19
  232.4 15.33 15
  232.6 11.67 11
  232.7 14.75 14
  232.8 17.63 17
  232.9 17.48 17
  233.0 13.84 13
  233.2 8.21 8
  233.3 11.64 11
  233.4 16.76 16
  233.5 18.89 18
  233.6 16.84 16
  233.8 13.34 13
  233.9 16.06 16
  234.0 19.28 19
  234.1 19.93 19
  234.2 16.98 16
  234.3 12.24 12
  234.5 10.54 10
  234.6 15.66 15
  234.7 20.63 20
  234.8 20.8 20
  234.9 14.64 14
  235.1 3.73 3
  235.2 8.76 8
  235.3 17.11 17
  235.4 21.58 21
  235.5 19.3 19
  235.6 13.55 13
  235.8 10.8 10
  235.9 14.21 14
  236.0 16.09 16
  236.1 14.29 14
  236.2 9.96 9
  236.4 5.1 5
  236.5 8.88 8
  236.6 15.97 15
  236.7 21.32 21
  236.8 20.11 20
  236.9 13.13 13
  237.1 6.36 6
  237.2 12.0 11
  237.3 18.41 18
  237.4 20.4 20
  237.5 16.61 16
  237.8 11.37 11
  237.9 17.44 17
  238.0 20.43 20
  238.1 18.03 18
  238.2 13.28 13
  238.4 11.17 11
  238.5 13.49 13
  238.6 15.16 15
  238.7 15.17 15
  238.8 14.15 14
  238.9 13.94 13
  239.0 16.0 15
  239.1 19.32 19
  239.2 20.6 20
  239.3 17.71 17
  239.4 12.12 12
  239.6 7.27 7
  239.7 10.35 10
  239.8 14.15 14
  239.9 15.45 15
  240.0 13.07 13
  240.2 9.25 9
  240.3 13.65 13
  240.4 19.53 19
  240.5 22.16 22
  240.6 19.51 19
  240.7 13.37 13
  241.0 7.99 7
  241.1 12.16 12
  241.2 14.24 14
  241.3 12.71 12
  241.5 8.86 8
  241.6 12.55 12
  241.7 18.38 18
  241.8 21.35 21
  241.9 18.87 18
  242.0 13.2 13
  242.2 8.77 8
  242.3 12.45 12
  242.4 16.79 16
  242.5 17.99 17
  242.6 14.43 14
  242.9 8.4 8
  243.0 14.17 14
  243.1 17.86 17
  243.2 16.2 16
  243.5 10.44 10
  243.6 15.72 15
  243.7 18.9 18
  243.8 16.92 16
  243.9 11.34 11
  244.1 7.58 7
  244.2 12.74 12
  244.3 18.03 18
  244.4 18.96 18
  244.5 15.07 15
  244.7 8.37 8
  244.8 11.35 11
  244.9 16.49 16
  245.0 19.54 19
  245.1 18.17 18
  245.2 13.86 13
  245.4 11.34 11
  245.5 14.84 14
  245.6 17.44 17
  245.7 16.11 16
  245.8 11.29 11
  246.0 5.72 5
  246.1 9.73 9
  246.2 16.03 16
  246.3 19.96 19
  246.4 18.32 18
  246.5 12.21 12
  246.7 6.85 6
  246.8 11.81 11
  246.9 16.53 16
  247.0 16.58 16
  247.3 10.48 10
  247.4 16.43 16
  247.5 21.26 21
  247.6 20.0 19
  247.7 13.94 13
  247.9 10.18 10
  248.0 14.43 14
  248.1 17.28 17
  248.2 16.34 16
  248.3 12.56 12
  248.6 7.93 7
  248.7 13.57 13
  248.8 19.79 19
  248.9 22.02 21
  249.0 18.6 18
  249.1 12.87 12
  249.3 11.19 11
  249.4 13.89 13
  249.5 14.61 14
  249.6 12.71 12
  249.8 9.21 9
  249.9 11.28 11
  250.0 15.42 15
  250.1 18.52 18
  250.2 17.57 17
  250.3 12.61 12
  250.5 6.45 6
  250.6 10.5 10
  250.7 15.34 15
  250.8 16.2 16
  250.9 12.81 12
  251.1 9.18 9
  251.2 12.39 12
  251.3 15.19 15
  251.4 14.49 14
  251.5 10.82 10
  251.7 7.12 7
  251.8 9.61 9
  251.9 12.74 12
  252.0 14.17 14
  252.1 12.97 12
  252.4 9.29 9
  252.5 12.76 12
  252.6 16.24 16
  252.7 17.22 17
  252.8 15.27 15
  252.9 12.29 12
  253.1 11.48 11
  253.2 13.92 13
  253.3 16.46 16
  253.4 17.56 17
  253.5 16.6 16
  253.6 14.17 14
  253.7 11.66 11
  254.2 10.01 9
  254.3 10.71 10
  254.4 13.8 13
  254.5 17.54 17
  254.6 19.04 19
  254.7 17.01 16
  254.8 13.07 13
  255.0 9.76 9
  255.1 11.83 11
  255.2 14.17 14
  255.3 14.96 14
  255.4 13.68 13
  256.2 9.63 9
  256.3 12.15 12
  256.4 17.34 17
  256.5 20.52 20
  256.6 18.58 18
  256.7 13.19 13
  256.9 9.87 9
  257.0 14.38 14
  257.1 18.46 18
  257.2 18.17 18
  257.3 13.11 13
  257.6 7.66 7
  257.7 13.92 13
  257.8 17.99 17
  257.9 16.66 16
  258.0 11.52 11
  258.2 7.17 7
  258.3 11.78 11
  258.4 17.56 17
  258.5 19.97 19
  258.6 17.28 17
  258.7 12.18 12
  258.9 11.16 11
  259.0 15.4 15
  259.1 17.86 17
  259.2 15.83 15
  259.3 10.91 10
  259.5 9.78 9
  259.6 14.47 14
  259.7 17.18 17
  259.8 15.95 15
  259.9 13.07 13
  260.1 12.38 12
  260.2 14.47 14
  260.3 16.37 16
  260.4 16.06 16
  260.5 12.47 12
  260.7 6.22 6
  260.8 10.25 10
  260.9 17.22 17
  261.0 21.91 21
  261.1 21.24 21
  261.2 16.79 16
  261.4 12.47 12
  261.5 15.28 15
  261.6 17.88 17
  261.7 16.96 16
  261.8 12.3 12
  262.0 6.46 6
  262.1 10.42 10
  262.2 15.65 15
  262.3 17.82 17
  262.4 15.89 15
  262.6 12.39 12
  262.7 14.82 14
  262.8 17.62 17
  262.9 18.02 18
  263.0 15.48 15
  263.1 11.97 11
  263.3 10.79 10
  263.4 13.88 13
  263.5 16.67 16
  263.6 16.5 16
  263.7 13.02 13
  264.0 9.54 9
  264.1 13.05 13
  264.2 15.94 15
  264.3 16.99 16
  264.4 15.85 15
  264.5 13.07 13
  264.7 11.16 11
  264.8 13.6 13
  264.9 15.16 15
  265.0 13.71 13
  265.2 10.04 10
  265.3 13.19 13
  265.4 17.83 17
  265.5 19.64 19
  265.6 16.55 16
  265.7 11.42 11
  265.9 10.19 10
  266.0 13.89 13
  266.1 16.35 16
  266.2 15.68 15
  266.3 12.62 12
  266.5 10.27 10
  266.6 12.79 12
  266.7 15.25 15
  266.8 15.69 15
  266.9 13.81 13
  267.2 11.29 11
  267.3 14.1 14
  267.4 15.94 15
  267.5 15.25 15
  267.6 12.59 12
  267.9 9.49 9
  268.0 12.44 12
  268.1 14.79 14
  268.2 14.01 13
  268.5 9.57 9
  268.6 14.18 14
  268.7 17.33 17
  268.8 16.75 16
  268.9 14.07 14
  269.1 12.65 12
  269.2 15.39 15
  269.3 18.08 18
  269.4 17.5 17
  269.5 12.87 12
  269.7 8.63 8
  269.8 14.82 14
  269.9 21.39 21
  270.0 22.62 22
  270.1 17.63 17
  270.2 10.5 10
  270.4 9.0 8
  270.5 14.44 14
  270.6 17.71 17
  270.7 15.69 15
  270.8 10.25 10
  271.0 7.67 7
  271.1 13.17 13
  271.2 17.96 17
  271.3 17.73 17
  271.4 13.33 13
  271.6 9.05 9
  271.7 12.48 12
  271.8 16.06 16
  271.9 16.2 16
  272.0 12.27 12
  272.2 7.38 7
  272.3 12.3 12
  272.4 18.73 18
  272.5 21.35 21
  272.6 18.0 17
  272.7 11.46 11
  272.9 7.52 7
  273.0 12.32 12
  273.1 16.86 16
  273.2 17.19 17
  273.3 12.9 12
  273.5 4.84 4
  273.6 8.33 8
  273.7 15.69 15
  273.8 21.21 21
  273.9 20.37 20
  274.0 14.46 14
  274.2 10.02 10
  274.3 14.41 14
  274.4 17.85 17
  274.5 17.02 17
  274.6 12.55 12
  274.8 7.49 7
  274.9 11.54 11
  275.0 16.93 16
  275.1 19.06 19
  275.2 16.2 16
  275.3 10.65 10
  275.5 7.67 7
  275.6 12.87 12
  275.7 18.15 18
  275.8 18.89 18
  275.9 14.0 13
  276.1 5.38 5
  276.2 9.37 9
  276.3 15.54 15
  276.4 18.23 18
  276.5 15.83 15
  276.8 11.22 11
  276.9 14.33 14
  277.0 15.82 15
  277.1 14.09 14
  277.4 10.61 10
  277.5 15.25 15
  277.6 19.51 19
  277.7 20.35 20
  277.8 16.87 16
  277.9 10.85 10
  278.1 6.68 6
  278.2 11.34 11
  278.3 15.75 15
  278.4 15.68 15
  278.7 10.33 10
  278.8 14.78 14
  278.9 17.47 17
  279.0 15.53 15
  279.1 10.61 10
  279.3 8.14 8
  279.4 13.8 13
  279.5 19.93 19
  279.6 21.61 21
  279.7 17.47 17
  279.8 11.25 11
  280.0 10.36 10
  280.1 14.99 14
  280.2 17.68 17
  280.3 16.32 16
  281.2 9.06 9
  281.3 13.26 13
  281.4 18.02 18
  281.5 19.58 19
  281.6 16.5 16
  281.7 11.28 11
  281.9 8.88 8
  282.0 12.82 12
  282.1 15.72 15
  282.2 14.24 14
  282.5 8.95 8
  282.6 15.1 15
  282.7 20.0 19
  282.8 19.82 19
  282.9 14.53 14
  283.0 7.7 7
  283.2 4.95 4
  283.3 10.53 10
  283.4 16.82 16
  283.5 20.06 20
  283.6 18.89 18
  284.5 11.95 11
  284.6 15.82 15
  284.7 17.16 17
  284.8 15.2 15
  285.1 13.49 13
  285.2 15.71 15
  285.3 17.16 17
  285.4 16.75 16
  285.5 14.27 14
  285.8 11.17 11
  285.9 15.56 15
  286.0 18.64 18
  286.1 17.11 17
  286.2 12.12 12
  286.4 10.33 10
  286.5 15.4 15
  286.6 18.28 18
  286.7 15.5 15
  287.0 8.5 8
  287.1 14.93 14
  287.2 20.8 20
  287.3 22.05 22
  287.4 18.06 18
  288.2 8.25 8
  288.3 11.43 11
  288.4 17.37 17
  288.5 21.76 21
  288.6 20.74 20
  288.7 14.41 14
  288.9 5.44 5
  289.0 9.84 9
  289.1 16.14 16
  289.2 18.03 18
  289.3 13.37 13
  289.5 4.28 4
  289.6 8.74 8
  289.7 15.74 15
  289.8 18.81 18
  289.9 15.53 15
  290.2 9.43 9
  290.3 16.06 16
  290.4 20.49 20
  290.5 19.01 18
  290.6 13.13 13
  290.8 7.75 7
  290.9 12.84 12
  291.0 18.87 18
  291.1 20.75 20
  291.2 16.78 16
  291.3 10.18 10
  291.5 8.33 8
  291.6 14.84 14
  291.7 20.71 20
  291.8 21.26 21
  291.9 16.37 16
  292.0 10.22 10
  292.2 9.55 9
  292.3 13.88 13
  292.4 16.73 16
  292.5 15.68 15
  292.7 9.81 9
  292.8 12.73 12
  292.9 18.43 18
  293.0 20.89 20
  293.1 16.96 16
  293.2 9.87 9
  293.4 7.67 7
  293.5 13.77 13
  293.6 19.39 19
  293.7 20.51 20
  293.8 16.27 16
  294.1 10.24 10
  294.2 15.4 15
  294.3 17.89 17
  294.4 16.0 15
  294.5 11.77 11
  294.7 8.89 8
  294.8 13.45 13
  294.9 19.38 19
  295.0 21.45 21
  295.1 16.93 16
  295.9 6.42 6
  296.0 10.27 10
  296.1 17.05 17
  296.2 21.26 21
  296.3 19.5 19
  296.4 13.71 13
  296.6 10.19 10
  296.7 15.36 15
  296.8 20.13 20
  296.9 20.2 20
  297.0 15.19 15
  297.3 9.05 9
  297.4 14.55 14
  297.5 18.9 18
  297.6 19.56 19
  297.7 16.5 16
  297.8 12.01 11
  298.5 8.3 8
  298.6 11.48 11
  298.7 15.75 15
  298.8 17.54 17
  298.9 15.24 15
  299.0 10.82 10
  299.2 8.11 8
  299.3 11.49 11
  299.4 15.72 15
  299.5 18.4 18
  299.6 18.06 18
  300.4 9.57 9
  300.5 13.23 13
  300.6 18.32 18
  300.7 20.46 20
  300.8 17.77 17
  300.9 12.18 12
  301.1 9.17 9
  301.2 14.53 14
  301.3 19.21 19
  301.4 18.6 18
  301.5 13.29 13
  301.7 9.21 9
  301.8 14.49 14
  301.9 20.05 20
  302.0 21.41 21
  302.1 16.99 16
  302.2 9.84 9
  302.4 8.82 8
  302.5 15.37 15
  302.6 18.8 18
  302.7 16.17 16
  302.9 8.53 8
  303.0 12.04 12
  303.1 18.34 18
  303.2 21.41 21
  303.3 17.76 17
  303.4 9.86 9
  303.6 4.87 4
  303.7 11.57 11
  303.8 18.58 18
  303.9 20.87 20
  304.0 17.5 17
  304.1 11.52 11
  304.3 7.3 7
  304.4 10.47 10
  304.5 13.36 13
  304.6 13.74 13
  304.7 12.48 12
  304.8 12.06 12
  304.9 13.36 13
  305.0 15.02 15
  305.1 15.31 15
  305.2 13.88 13
  305.3 11.93 11
  305.5 11.16 11
  305.6 12.39 12
  305.7 13.91 13
  305.8 14.43 14
  305.9 12.42 12
  306.2 6.05 6
  306.3 12.19 12
  306.4 17.7 17
  306.5 17.13 17
  306.6 10.85 10
  306.8 4.1 4
  306.9 9.78 9
  307.0 17.24 17
  307.1 21.03 21
  307.2 18.9 18
  307.5 13.08 13
  307.6 18.73 18
  307.7 21.9 21
  307.8 18.64 18
  307.9 11.23 11
  308.1 8.36 8
  308.2 15.39 15
  308.3 20.9 20
  308.4 19.97 19
  308.5 13.1 13
  308.8 6.42 6
  308.9 12.15 12
  309.0 15.75 15
  309.1 15.17 15
  309.2 12.0 11
  309.4 10.59 10
  309.5 13.74 13
  309.6 15.71 15
  309.7 13.39 13
  309.8 7.15 7
  310.0 2.32 2
  310.1 10.1 10
  310.2 19.1 19
  310.3 22.19 22
  310.4 17.7 17
  310.5 10.61 10
  310.7 9.81 9
  310.8 15.63 15
  310.9 19.67 19
  311.0 18.84 18
  311.1 14.36 14
  312.0 8.31 8
  312.1 14.21 14
  312.2 17.54 17
  312.3 14.85 14
  312.5 5.17 5
  312.6 8.79 8
  312.7 16.55 16
  312.8 21.12 21
  312.9 18.25 18
  313.0 11.08 11
  313.2 8.53 8
  313.3 14.59 14
  313.4 19.44 19
  313.5 19.74 19
  313.6 16.35 16
  314.5 6.92 6
  314.6 13.97 13
  314.7 20.75 20
  314.8 22.26 22
  314.9 18.32 18
  315.8 5.9 5
  315.9 13.4 13
  316.0 21.85 21
  316.1 24.43 24
  316.2 19.56 19
  316.3 12.07 12
  316.5 10.13 10
  316.6 15.05 15
  316.7 17.79 17
  316.8 15.59 15
  317.1 11.06 11
  317.2 16.24 16
  317.3 19.51 19
  317.4 18.57 18
  317.5 14.65 14
  318.4 9.31 9
  318.5 15.39 15
  318.6 20.05 20
  318.7 19.58 19
  318.8 14.85 14
  319.0 11.14 11
  319.1 16.03 16
  319.2 21.0 20
  319.3 21.73 21
  319.4 17.83 17
  319.5 12.36 12
  319.6 8.76 8
  319.7 8.42 8
  319.8 9.81 9
  319.9 9.67 9
  320.0 6.08 6
  320.2 1.22 1
  320.3 6.94 6
  320.4 14.43 14
  320.5 17.5 17
  320.6 14.27 14
  320.9 7.98 7
  321.0 12.97 12
  321.1 16.78 16
  321.2 16.93 16
  321.3 13.77 13
  321.5 8.08 8
  321.6 10.36 10
  321.7 15.28 15
  321.8 18.8 18
  321.9 17.22 17
  322.0 11.03 11
  322.2 6.62 6
  322.3 13.55 13
  322.4 20.72 20
  322.5 22.56 22
  322.6 18.43 18
  322.7 11.98 11
  322.9 8.34 8
  323.0 11.95 11
  323.1 14.61 14
  323.2 13.55 13
  323.5 8.63 8
  323.6 13.97 13
  323.7 18.66 18
  323.8 18.37 18
  323.9 13.28 13
  324.1 9.0 8
  324.2 14.62 14
  324.3 20.09 20
  324.4 20.06 20
  324.5 14.47 14
  324.7 7.87 7
  324.8 13.1 13
  324.9 19.28 19
  325.0 20.42 20
  325.1 15.05 15
  325.4 7.37 7
  325.5 14.39 14
  325.6 19.73 19
  325.7 20.13 20
  325.8 16.32 16
  326.0 10.99 10
  326.1 13.83 13
  326.2 17.62 17
  326.3 18.43 18
  326.4 14.75 14
  326.6 6.75 6
  326.7 10.04 10
  326.8 16.56 16
  326.9 20.57 20
  327.0 18.52 18
  327.1 12.48 12
  327.3 8.36 8
  327.4 13.07 13
  327.5 17.91 17
  327.6 19.1 19
  327.7 15.86 15
  328.0 10.71 10
  328.1 14.93 14
  328.2 17.47 17
  328.3 16.2 16
  328.6 11.81 11
  328.7 16.99 16
  328.8 20.58 20
  328.9 18.35 18
  329.0 11.23 11
  329.2 4.26 4
  329.3 9.67 9
  329.4 17.01 16
  329.5 20.89 20
  329.6 18.9 18
  329.7 13.43 13
  329.9 9.55 9
  330.0 12.97 12
  330.1 16.26 16
  330.2 16.6 16
  330.3 13.95 13
  331.1 8.07 8
  331.2 14.94 14
  331.3 22.22 22
  331.4 23.99 23
  331.5 19.47 19
  331.6 12.74 12
  331.8 8.27 8
  331.9 13.29 13
  332.0 19.64 19
  332.1 21.45 21
  332.2 16.03 16
  332.5 7.98 7
  332.6 15.57 15
  332.7 19.99 19
  332.8 18.54 18
  332.9 14.17 14
  333.2 11.29 11
  333.3 12.65 12
  333.4 13.55 13
  333.5 13.22 13
  333.6 12.29 12
  333.7 13.0 12
  333.8 16.32 16
  333.9 19.58 19
  334.0 18.77 18
  334.1 13.28 13
  334.3 6.94 6
  334.4 11.64 11
  334.5 16.96 16
  334.6 18.06 18
  334.7 14.26 14
  334.8 8.82 8
  335.0 7.29 7
  335.1 12.21 12
  335.2 16.92 16
  335.3 17.68 17
  335.4 14.04 14
  335.6 9.72 9
  335.7 13.6 13
  335.8 17.76 17
  335.9 18.2 18
  336.0 14.67 14
  336.3 9.78 9
  336.4 13.16 13
  336.5 14.73 14
  336.6 12.76 12
  336.8 7.96 7
  336.9 10.45 10
  337.0 14.75 14
  337.1 17.59 17
  337.2 17.13 17
  337.3 13.86 13
  337.5 8.97 8
  337.6 11.63 11
  337.7 16.89 16
  337.8 20.92 20
  337.9 20.26 20
  338.0 15.05 15
  338.2 8.1 8
  338.3 12.67 12
  338.4 19.41 19
  338.5 22.33 22
  338.6 18.41 18
  338.7 10.9 10
  338.9 7.89 7
  339.0 12.44 12
  339.1 14.59 14
  339.2 12.87 12
  339.4 9.26 9
  339.5 11.45 11
  339.6 14.96 14
  339.7 17.04 17
  339.8 15.54 15
  339.9 11.37 11
  340.1 9.21 9
  340.2 13.29 13
  340.3 16.66 16
  340.4 16.43 16
  340.7 11.74 11
  340.8 15.85 15
  340.9 19.56 19
  341.0 18.95 18
  341.1 13.36 13
  341.3 4.42 4
  341.4 8.13 8
  341.5 14.73 14
  341.6 19.13 19
  341.7 18.34 18
  341.8 13.14 13
  342.0 6.07 6
  342.1 10.21 10
  342.2 16.26 16
  342.3 18.54 18
  342.4 14.93 14
  342.6 7.61 7
  342.7 11.37 11
  342.8 16.99 16
  342.9 20.06 20
  343.0 19.18 19
  343.1 15.83 15
  343.3 11.89 11
  343.4 14.35 14
  343.5 17.88 17
  343.6 18.9 18
  343.7 15.95 15
  343.8 11.38 11
  344.0 10.16 10
  344.1 13.16 13
  344.2 15.13 15
  344.3 14.65 14
  344.4 12.5 12
  344.6 10.97 10
  344.7 13.08 13
  344.8 15.24 15
  344.9 15.4 15
  345.2 10.67 10
  345.3 14.91 14
  345.4 20.39 20
  345.5 21.9 21
  345.6 17.05 17
  345.7 9.12 9
  345.9 6.39 6
  346.0 12.32 12
  346.1 16.7 16
  346.2 16.44 16
  346.3 12.85 12
  346.5 9.38 9
  346.6 12.47 12
  346.7 16.06 16
  346.8 16.7 16
  346.9 13.83 13
  347.1 10.15 10
  347.2 13.57 13
  347.3 18.18 18
  347.4 20.17 20
  347.5 17.16 17
  347.6 10.71 10
  347.8 6.85 6
  347.9 12.56 12
  348.0 17.5 17
  348.1 17.48 17
  348.2 13.52 13
  348.4 9.66 9
  348.5 12.65 12
  348.6 16.95 16
  348.7 19.87 19
  348.8 18.6 18
  348.9 13.16 13
  349.1 7.79 7
  349.2 13.14 13
  349.3 18.43 18
  349.4 18.25 18
  349.5 12.5 12
  349.7 5.62 5
  349.8 11.06 11
  349.9 17.47 17
  350.0 18.66 18
  350.1 13.51 13
  350.4 6.31 6
  350.5 12.7 12
  350.6 17.31 17
  350.7 16.4 16
  350.8 11.28 11
  351.0 8.01 8
  351.1 11.83 11
  351.2 14.18 14
  351.3 12.45 12
  351.6 7.66 7
  351.7 12.53 12
  351.8 17.21 17
  351.9 18.34 18
  352.0 14.93 14
  352.3 9.99 9
  352.4 15.95 15
  352.5 19.3 19
  352.6 16.63 16
  352.7 9.8 9
  352.9 4.55 4
  353.0 10.31 10
  353.1 17.24 17
  353.2 20.13 20
  353.3 16.99 16
  353.6 8.99 8
  353.7 16.46 16
  353.8 21.9 21
  353.9 20.4 20
  354.0 14.14 14
  354.2 9.37 9
  354.3 12.42 12
  354.4 14.72 14
  354.5 14.59 14
  354.6 13.33 13
  354.7 13.16 13
  354.8 14.59 14
  354.9 16.31 16
  355.0 16.53 16
  355.1 14.64 14
  355.2 11.4 11
  355.4 9.02 9
  355.5 12.67 12
  355.6 17.79 17
  355.7 20.6 20
  355.8 18.32 18
  355.9 12.24 12
  356.1 8.8 8
  356.2 14.29 14
  356.3 18.63 18
  356.4 18.12 18
  356.5 13.97 13
  356.7 9.47 9
  356.8 12.65 12
  356.9 17.13 17
  357.0 19.13 19
  357.1 16.64 16
  357.4 10.47 10
  357.5 16.06 16
  357.6 20.23 20
  357.7 19.38 19
  357.8 14.2 14
  358.0 8.25 8
  358.1 12.32 12
  358.2 17.47 17
  358.3 19.07 19
  358.4 15.77 15
  358.7 9.64 9
  358.8 14.99 14
  358.9 19.45 19
  359.0 19.51 19
  359.1 15.25 15
  359.9 12.0 11
  360.0 14.38 14
  360.1 16.46 16
  360.2 15.65 15
  360.3 12.22 12
  360.6 9.41 9
  360.7 13.4 13
  360.8 17.02 17
  360.9 17.71 17
  361.0 14.65 14
  361.3 9.4 9
  361.4 13.88 13
  361.5 17.88 17
  361.6 18.89 18
  361.7 16.93 16
  362.5 9.61 9
  362.6 14.87 14
  362.7 19.74 19
  362.8 19.39 19
  362.9 13.98 13
  363.1 7.52 7
  363.2 11.17 11
  363.3 15.22 15
  363.4 15.66 15
  363.5 12.04 12
  363.8 7.78 7
  363.9 11.84 11
  364.0 14.88 14
  364.1 14.99 14
  364.2 12.45 12
  364.4 9.12 9
  364.5 12.12 12
  364.6 16.38 16
  364.7 18.12 18
  364.8 15.66 15
  365.1 11.55 11
  365.2 16.93 16
  365.3 21.41 21
  365.4 21.52 21
  365.5 17.22 17
  366.4 9.29 9
  366.5 14.72 14
  366.6 18.22 18
  366.7 15.57 15
  366.8 9.15 9
  367.0 7.79 7
  367.1 13.45 13
  367.2 17.76 17
  367.3 18.14 18
  367.4 15.24 15
  367.6 11.52 11
  367.7 14.82 14
  367.8 18.83 18
  367.9 19.39 19
  368.0 15.39 15
  368.9 6.11 6
  369.0 12.06 12
  369.1 17.31 17
  369.2 17.42 17
  369.5 12.59 12
  369.6 17.08 17
  369.7 20.29 20
  369.8 19.67 19
  369.9 15.74 15
  370.2 11.55 11
  370.3 16.35 16
  370.4 19.73 19
  370.5 18.18 18
  370.6 12.1 12
  370.8 5.41 5
  370.9 10.51 10
  371.0 16.84 16
  371.1 19.33 19
  371.2 17.15 17
  371.3 13.03 13
  371.5 10.1 10
  371.6 12.38 12
  371.7 14.88 14
  371.8 15.02 15
  371.9 12.38 12
  372.1 10.31 10
  372.2 14.15 14
  372.3 17.86 17
  372.4 18.08 18
  372.5 14.3 14
  372.7 7.43 7
  372.8 11.06 11
  372.9 17.62 17
  373.0 21.36 21
  373.1 19.36 19
  373.2 14.14 14
  373.4 10.86 10
  373.5 13.78 13
  373.6 15.75 15
  373.7 14.72 14
  373.8 11.57 11
  374.0 8.91 8
  374.1 11.49 11
  374.2 14.41 14
  374.3 14.59 14
  374.4 11.34 11
  374.6 6.66 6
  374.7 10.04 10
  374.8 14.75 14
  374.9 16.82 16
  375.0 14.82 14
  375.1 10.77 10
  375.3 8.85 8
  375.4 12.27 12
  375.5 15.79 15
  375.6 16.73 16
  375.7 14.43 14
  375.9 10.16 10
  376.0 13.2 13
  376.1 17.71 17
  376.2 19.59 19
  376.3 16.86 16
  376.6 10.59 10
  376.7 16.24 16
  376.8 21.04 21
  376.9 20.69 20
  377.0 14.96 14
  377.2 6.63 6
  377.3 10.53 10
  377.4 15.89 15
  377.5 17.63 17
  377.6 14.43 14
  377.8 6.62 6
  377.9 9.44 9
  378.0 16.24 16
  378.1 22.05 22
  378.2 22.31 22
  378.3 16.76 16
  378.6 10.16 10
  378.7 15.46 15
  378.8 17.76 17
  378.9 15.39 15
  379.1 11.03 11
  379.2 14.17 14
  379.3 17.86 17
  379.4 18.35 18
  379.5 14.56 14
  379.8 9.54 9
  379.9 16.03 16
  380.0 20.08 20
  380.1 17.85 17
  380.2 11.43 11
  380.4 6.94 6
  380.5 11.46 11
  380.6 15.92 15
  380.7 16.98 16
  380.8 14.26 14
  381.1 10.77 10
  381.2 14.99 14
  381.3 17.7 17
  381.4 16.52 16
  381.5 12.84 12
  381.7 10.5 10
  381.8 13.65 13
  381.9 16.79 16
  382.0 17.22 17
  382.1 14.27 14
  382.3 8.27 8
  382.4 10.96 10
  382.5 15.95 15
  382.6 18.54 18
  382.7 16.03 16
  382.8 10.56 10
  383.0 7.98 7
  383.1 12.56 12
  383.2 16.72 16
  383.3 17.21 17
  383.4 14.2 14
  383.6 11.11 11
  383.7 14.27 14
  383.8 17.18 17
  383.9 16.66 16
  384.0 12.68 12
  384.2 6.98 6
  384.3 10.53 10
  384.4 16.92 16
  384.5 21.41 21
  384.6 20.2 20
  384.7 14.21 14
  384.9 7.5 7
  385.0 10.91 10
  385.1 15.1 15
  385.2 16.66 16
  385.3 14.61 14
  385.4 10.54 10
  385.6 8.76 8
  385.7 13.29 13
  385.8 17.42 17
  385.9 17.59 17
  386.0 14.21 14
  386.2 11.42 11
  386.3 14.84 14
  386.4 18.26 18
  386.5 18.38 18
  386.6 14.65 14
  386.8 9.49 9
  386.9 13.25 13
  387.0 17.74 17
  387.1 18.41 18
  387.2 14.64 14
  388.1 8.94 8
  388.2 12.7 12
  388.3 16.73 16
  388.4 17.85 17
  388.5 14.78 14
  388.8 7.95 7
  388.9 14.14 14
  389.0 20.0 19
  389.1 20.92 20
  389.2 16.41 16
  389.4 9.38 9
  389.5 12.99 12
  389.6 17.76 17
  389.7 18.66 18
  389.8 14.53 14
  390.0 8.77 8
  390.1 13.13 13
  390.2 18.25 18
  390.3 19.03 19
  390.4 14.78 14
  390.7 9.66 9
  390.8 14.96 14
  390.9 19.22 19
  391.0 19.35 19
  391.1 14.87 14
  391.2 8.86 8
  391.4 7.67 7
  391.5 12.19 12
  391.6 15.04 15
  391.7 14.03 14
  391.9 10.16 10
  392.0 12.99 12
  392.1 17.86 17
  392.2 21.03 21
  392.3 19.79 19
  392.4 14.88 14
  392.6 9.57 9
  392.7 13.58 13
  392.8 18.14 18
  392.9 18.26 18
  393.0 13.1 13
  393.2 5.93 5
  393.3 11.06 11
  393.4 18.86 18
  393.5 23.56 23
  393.6 21.81 21
  393.7 15.4 15
  393.9 9.25 9
  394.0 12.88 12
  394.1 16.32 16
  394.2 15.91 15
  394.3 11.84 11
  394.5 7.56 7
  394.6 11.45 11
  394.7 16.18 16
  394.8 18.02 18
  394.9 15.92 15
  395.1 11.02 11
  395.2 14.12 14
  395.3 19.1 19
  395.4 21.0 20
  395.5 17.41 17
  395.8 10.61 10
  395.9 16.46 16
  396.0 20.28 20
  396.1 18.84 18
  396.2 13.42 13
  396.4 6.86 6
  396.5 10.41 10
  396.6 15.89 15
  396.7 18.83 18
  396.8 16.63 16
  396.9 11.26 11
  397.1 7.5 7
  397.2 11.11 11
  397.3 14.55 14
  397.4 14.85 14
  397.5 12.12 12
  397.7 9.83 9
  397.8 13.55 13
  397.9 17.11 17
  398.0 16.99 16
  398.1 12.97 12
  398.3 7.23 7
  398.4 10.82 10
  398.5 16.18 16
  398.6 18.49 18
  398.7 15.4 15
  399.0 9.38 9
  399.1 15.37 15
  399.2 19.07 19
  399.3 17.21 17
  399.4 11.38 11
  399.6 6.8 6
  399.7 12.32 12
  399.8 19.03 19
  399.9 21.5 21
  400.0 17.73 17
  400.9 9.98 9
  401.0 13.39 13
  401.1 14.64 14
  401.2 13.03 13
  401.5 9.54 9
  401.6 12.07 12
  401.7 15.46 15
  401.8 17.39 17
  401.9 16.17 16
  402.0 12.81 12
  402.2 11.03 11
  402.3 14.27 14
  402.4 16.87 16
  402.5 16.26 16
  402.6 12.59 12
  402.8 7.32 7
  402.9 10.28 10
  403.0 15.65 15
  403.1 19.12 19
  403.2 17.36 17
  403.3 11.83 11
  403.5 9.89 9
  403.6 15.4 15
  403.7 19.12 19
  403.8 17.74 17
  403.9 12.59 12
  404.1 6.48 6
  404.2 10.06 10
  404.3 15.16 15
  404.4 17.01 16
  404.5 14.2 14
  404.7 9.43 9
  404.8 12.47 12
  404.9 16.12 16
  405.0 16.84 16
  405.1 13.86 13
  405.2 9.47 9
  405.4 8.22 8
  405.5 12.55 12
  405.6 16.84 16
  405.7 17.76 17
  405.8 14.32 14
  406.1 9.81 9
  406.2 15.48 15
  406.3 18.58 18
  406.4 16.43 16
  407.3 8.3 8
  407.4 12.81 12
  407.5 17.6 17
  407.6 18.08 18
  407.7 13.36 13
  407.9 6.33 6
  408.0 10.82 10
  408.1 17.6 17
  408.2 21.23 21
  408.3 19.06 19
  408.4 13.22 13
  408.6 8.22 8
  408.7 12.33 12
  408.8 17.13 17
  408.9 18.23 18
  409.0 14.27 14
  409.2 5.82 5
  409.3 9.14 9
  409.4 15.85 15
  409.5 20.63 20
  409.6 19.91 19
  409.7 14.67 14
  410.6 9.96 9
  410.7 14.84 14
  410.8 18.12 18
  410.9 17.01 16
  411.0 12.99 12
  411.2 11.19 11
  411.3 14.58 14
  411.4 16.23 16
  411.5 13.86 13
  411.7 8.53 8
  411.8 11.22 11
  411.9 15.19 15
  412.0 16.95 16
  412.1 15.4 15
  412.2 12.16 12
  412.4 8.95 8
  412.5 11.92 11
  412.6 16.76 16
  412.7 19.3 19
  412.8 16.11 16
  413.1 8.37 8
  413.2 14.96 14
  413.3 18.52 18
  413.4 15.48 15
  413.5 8.5 8
  413.7 4.58 4
  413.8 10.5 10
  413.9 16.29 16
  414.0 17.94 17
  414.1 15.4 15
  414.3 11.16 11
  414.4 14.36 14
  414.5 19.09 19
  414.6 21.03 21
  414.7 17.92 17
  414.8 12.01 11
  415.0 9.66 9
  415.1 14.9 14
  415.2 18.69 18
  415.3 17.41 17
  415.4 12.39 12
  415.6 7.9 7
  415.7 11.89 11
  415.8 16.82 16
  415.9 18.69 18
  416.0 15.86 15
  416.2 8.95 8
  416.3 12.01 11
  416.4 17.39 17
  416.5 19.87 19
  416.6 16.92 16
  416.9 9.8 9
  417.0 15.79 15
  417.1 19.99 19
  417.2 18.63 18
  417.3 13.07 13
  417.5 8.65 8
  417.6 14.12 14
  417.7 20.54 20
  417.8 22.81 22
  417.9 19.13 19
  418.0 12.32 12
  418.2 7.44 7
  418.3 11.48 11
  418.4 15.34 15
  418.5 15.72 15
  418.6 13.08 13
  418.8 10.88 10
  418.9 13.57 13
  419.0 16.27 16
  419.1 17.19 17
  419.2 16.34 16
  419.4 14.47 14
  419.5 15.68 15
  419.6 17.79 17
  419.7 18.54 18
  419.8 15.89 15
  419.9 10.33 10
  420.1 6.1 6
  420.2 12.53 12
  420.3 20.66 20
  420.4 24.14 24
  420.5 20.03 20
  420.6 11.63 11
  420.8 6.75 6
  420.9 12.87 12
  421.0 18.28 18
  421.1 18.32 18
  421.2 13.52 13
  422.0 12.42 12
  422.1 15.33 15
  422.2 18.02 18
  422.3 18.22 18
  422.4 15.3 15
  422.6 9.98 9
  422.7 13.43 13
  422.8 19.73 19
  422.9 23.41 23
  423.0 20.55 20
  423.1 13.08 13
  423.3 6.77 6
  423.4 11.9 11
  423.5 18.0 17
  423.6 20.89 20
  423.7 18.92 18
  423.8 14.21 14
  424.0 12.3 12
  424.1 16.64 16
  424.2 19.59 19
  424.3 18.25 18
  424.4 14.38 14
  424.6 12.87 12
  424.7 15.3 15
  424.8 16.52 16
  424.9 15.19 15
  425.0 11.81 11
  425.2 7.93 7
  425.3 11.52 11
  425.4 16.53 16
  425.5 18.25 18
  425.6 15.16 15
  425.8 9.17 9
  425.9 12.16 12
  426.0 17.68 17
  426.1 22.04 22
  426.2 21.62 21
  426.3 15.92 15
  426.5 6.48 6
  426.6 10.53 10
  426.7 17.42 17
  426.8 21.03 21
  426.9 18.25 18
  427.0 11.49 11
  427.2 7.38 7
  427.3 12.79 12
  427.4 17.94 17
  427.5 18.84 18
  427.6 15.75 15
  427.8 13.0 12
  427.9 16.82 16
  428.0 20.0 19
  428.1 18.87 18
  428.2 13.55 13
  428.3 7.38 7
  428.5 6.57 6
  428.6 11.84 11
  428.7 15.75 15
  428.8 15.27 15
  428.9 11.6 11
  429.1 9.83 9
  429.2 13.66 13
  429.3 16.46 16
  429.4 15.17 15
  429.5 10.51 10
  429.7 6.97 6
  429.8 12.03 12
  429.9 17.73 17
  430.0 19.04 19
  430.1 14.7 14
  430.3 7.4 7
  430.4 10.94 10
  430.5 16.09 16
  430.6 19.04 19
  430.7 18.72 18
  430.8 16.4 16
  431.6 7.12 7
  431.7 9.67 9
  431.8 14.55 14
  431.9 18.37 18
  432.0 19.04 19
  432.1 16.96 16
  432.2 14.06 14
  432.4 12.68 12
  432.5 14.3 14
  432.6 15.1 15
  432.9 13.28 13
  433.0 16.73 16
  433.1 20.31 20
  433.2 20.06 20
  433.3 14.88 14
  433.6 8.34 8
  433.7 15.56 15
  433.8 20.2 20
  433.9 18.09 18
  434.0 11.55 11
  434.2 9.02 9
  434.3 15.07 15
  434.4 20.03 20
  434.5 20.32 20
  434.6 16.12 16
  434.7 10.7 10
  434.9 8.19 8
  435.0 10.62 10
  435.1 12.56 12
  435.2 12.64 12
  435.3 11.49 11
  435.4 11.14 11
  435.5 13.28 13
  435.6 17.05 17
  435.7 19.12 19
  435.8 16.79 16
  435.9 11.38 11
  436.1 8.95 8
  436.2 13.75 13
  436.3 16.98 16
  436.4 15.13 15
  436.5 9.4 9
  436.7 4.65 4
  436.8 9.31 9
  436.9 14.94 14
  437.0 17.63 17
  437.1 15.88 15
  437.4 11.0 10
  437.5 15.42 15
  437.6 18.4 18
  437.7 17.21 17
  437.8 12.99 12
  438.0 10.56 10
  438.1 15.5 15
  438.2 20.19 20
  438.3 20.23 20
  438.4 15.24 15
  438.5 9.03 9
  438.7 7.93 7
  438.8 12.3 12
  438.9 15.4 15
  439.0 14.64 14
  439.3 9.58 9
  439.4 14.88 14
  439.5 19.33 19
  439.6 19.18 19
  439.7 14.5 14
  440.0 8.47 8
  440.1 14.96 14
  440.2 20.32 20
  440.3 20.09 20
  440.4 14.62 14
  440.6 8.01 8
  440.7 11.72 11
  440.8 16.06 16
  440.9 17.05 17
  441.0 14.32 14
  441.2 10.44 10
  441.3 13.0 12
  441.4 16.35 16
  441.5 17.89 17
  441.6 16.55 16
  441.7 12.97 12
  441.9 9.31 9
  442.0 12.58 12
  442.1 16.93 16
  442.2 18.81 18
  442.3 16.76 16
  442.4 12.55 12
  442.6 10.15 10
  442.7 12.45 12
  442.8 13.29 13
  442.9 11.16 11
  443.1 5.99 5
  443.2 8.04 8
  443.3 12.97 12
  443.4 17.22 17
  443.5 16.93 16
  443.6 11.81 11
  443.8 4.97 4
  443.9 9.23 9
  444.0 14.94 14
  444.1 17.27 17
  444.2 14.85 14
  444.3 10.21 10
  444.5 8.11 8
  444.6 12.32 12
  444.7 16.0 15
  444.8 15.3 15
  444.9 10.3 10
  445.1 5.68 5
  445.2 9.49 9
  445.3 12.47 12
  445.4 11.61 11
  445.6 7.7 7
  445.7 10.25 10
  445.8 14.75 14
  445.9 18.34 18
  446.0 18.77 18
  446.1 15.34 15
  446.4 8.97 8
  446.5 14.94 14
  446.6 19.18 19
  446.7 18.49 18
  446.8 14.96 14
  447.6 6.57 6
  447.7 11.2 11
  447.8 17.42 17
  447.9 19.88 19
  448.0 16.4 16
  448.3 11.93 11
  448.4 17.33 17
  448.5 20.55 20
  448.6 18.83 18
  448.7 12.71 12
  448.9 5.56 5
  449.0 10.45 10
  449.1 16.72 16
  449.2 18.7 18
  449.3 14.58 14
  449.5 4.51 4
  449.6 8.66 8
  449.7 17.44 17
  449.8 23.04 23
  449.9 20.26 20
  450.0 11.9 11
  450.2 6.53 6
  450.3 12.44 12
  450.4 17.21 17
  450.5 16.47 16
  450.6 11.54 11
  450.8 8.56 8
  450.9 14.17 14
  451.0 19.68 19
  451.1 20.09 20
  451.2 14.62 14
  451.5 8.3 8
  451.6 14.62 14
  451.7 18.18 18
  451.8 16.24 16
  452.1 10.83 10
  452.2 16.0 15
  452.3 19.59 19
  452.4 18.87 18
  452.5 14.65 14
  452.7 9.64 9
  452.8 12.93 12
  452.9 16.98 16
  453.0 17.68 17
  453.1 14.06 14
  453.3 6.45 6
  453.4 9.81 9
  453.5 17.47 17
  453.6 24.01 23
  453.7 24.24 24
  453.8 18.2 18
  453.9 11.31 11
  454.6 8.39 8
  454.7 12.38 12
  454.8 18.34 18
  454.9 21.56 21
  455.0 19.01 18
  455.1 12.04 12
  455.3 3.68 3
  455.4 7.4 7
  455.5 13.2 13
  455.6 16.72 16
  455.7 15.98 15
  455.9 11.45 11
  456.0 14.12 14
  456.1 19.32 19
  456.2 22.39 22
  456.3 20.52 20
  456.4 15.27 15
  456.6 10.71 10
  456.7 13.83 13
  456.8 16.79 16
  456.9 16.37 16
  457.0 12.68 12
  457.2 9.67 9
  457.3 13.57 13
  457.4 17.71 17
  457.5 18.73 18
  457.6 16.17 16
  457.8 11.89 11
  457.9 14.12 14
  458.0 17.31 17
  458.1 18.38 18
  458.2 15.66 15
  458.3 10.39 10
  458.5 6.86 6
  458.6 12.42 12
  458.7 18.31 18
  458.8 18.81 18
  458.9 13.17 13
  459.1 5.62 5
  459.2 10.09 10
  459.3 15.56 15
  459.4 17.25 17
  459.5 14.12 14
  459.8 8.97 8
  459.9 14.43 14
  460.0 18.22 18
  460.1 17.1 17
  460.2 11.92 11
  460.4 6.8 6
  460.5 11.55 11
  460.6 17.42 17
  460.7 19.54 19
  460.8 16.47 16
  460.9 11.2 11
  461.1 8.94 8
  461.2 12.16 12
  461.3 14.67 14
  461.4 14.88 14
  461.7 12.07 12
  461.8 14.17 14
  461.9 16.41 16
  462.0 16.21 16
  462.1 12.84 12
  462.3 8.34 8
  462.4 11.57 11
  462.5 15.69 15
  462.6 17.13 17
  462.7 14.53 14
  463.0 10.02 10
  463.1 15.16 15
  463.2 19.53 19
  463.3 20.17 20
  463.4 16.7 16
  463.7 10.74 10
  463.8 16.34 16
  463.9 19.85 19
  464.0 17.33 17
  464.1 11.08 11
  464.3 9.75 9
  464.4 15.54 15
  464.5 18.67 18
  464.6 15.68 15
  464.7 9.11 9
  464.9 7.49 7
  465.0 14.55 14
  465.1 20.03 20
  465.2 19.07 19
  465.3 12.81 12
  465.5 8.24 8
  465.6 14.61 14
  465.7 20.81 20
  465.8 21.7 21
  465.9 16.89 16
  466.0 10.02 10
  466.2 6.13 6
  466.3 10.06 10
  466.4 13.42 13
  466.5 13.29 13
  466.8 10.22 10
  466.9 12.94 12
  467.0 15.25 15
  467.1 15.53 15
  467.2 12.68 12
  467.5 7.2 7
  467.6 14.2 14
  467.7 19.7 19
  467.8 18.78 18
  467.9 12.7 12
  468.1 6.59 6
  468.2 10.35 10
  468.3 14.81 14
  468.4 16.78 16
  468.5 15.57 15
  468.7 12.48 12
  468.8 14.96 14
  468.9 18.2 18
  469.0 18.98 18
  469.1 16.61 16
  469.4 13.4 13
  469.5 16.17 16
  469.6 18.15 18
  469.7 17.62 17
  469.8 14.59 14
  470.1 10.9 10
  470.2 15.2 15
  470.3 18.66 18
  470.4 18.31 18
  470.5 14.65 14
  470.7 11.95 11
  470.8 15.75 15
  470.9 19.22 19
  471.0 18.63 18
  471.1 13.88 13
  471.3 8.39 8
  471.4 12.3 12
  471.5 17.05 17
  471.6 18.78 18
  471.7 16.17 16
  471.8 11.4 11
  472.0 9.86 9
  472.1 13.2 13
  472.2 14.47 14
  472.3 12.56 12
  472.5 10.39 10
  472.6 13.49 13
  472.7 16.87 16
  472.8 17.5 17
  472.9 14.21 14
  473.0 9.25 9
  473.2 7.63 7
  473.3 12.29 12
  473.4 17.86 17
  473.5 21.52 21
  473.6 21.19 21
  473.7 17.15 17
  473.8 12.32 12
  474.5 9.86 9
  474.6 13.13 13
  474.7 15.85 15
  474.8 15.66 15
  474.9 13.11 13
  475.1 11.02 11
  475.2 13.34 13
  475.3 15.75 15
  475.4 16.03 16
  475.5 13.33 13
  475.8 9.02 9
  475.9 13.39 13
  476.0 16.67 16
  476.1 15.59 15
  476.2 10.73 10
  476.4 7.95 7
  476.5 13.83 13
  476.6 19.27 19
  476.7 19.7 19
  476.8 15.14 15
  477.0 8.71 8
  477.1 12.04 12
  477.2 16.56 16
  477.3 18.61 18
  477.4 17.08 17
  477.5 13.51 13
  477.7 10.13 10
  477.8 12.97 12
  477.9 16.96 16
  478.0 18.98 18
  478.1 17.34 17
  478.2 13.34 13
  478.4 10.53 10
  478.5 13.54 13
  478.6 15.95 15
  478.7 14.96 14
  478.8 11.09 11
  479.0 9.11 9
  479.1 14.14 14
  479.2 19.59 19
  479.3 21.29 21
  479.4 17.48 17
  479.5 10.77 10
  479.7 9.02 9
  479.8 14.99 14
  479.9 18.69 18
  480.0 17.24 17
  480.1 13.36 13
  480.3 12.45 12
  480.4 15.02 15
  480.5 15.97 15
  480.6 14.04 14
  480.7 10.59 10
  480.9 8.86 8
  481.0 11.71 11
  481.1 14.7 14
  481.2 15.4 15
  481.3 12.85 12
  481.5 8.33 8
  481.6 12.07 12
  481.7 17.27 17
  481.8 18.9 18
  481.9 15.57 15
  482.8 6.56 6
  482.9 9.96 9
  483.0 14.69 14
  483.1 16.61 16
  483.2 13.77 13
  483.5 9.17 9
  483.6 13.63 13
  483.7 16.05 16
  483.8 14.56 14
  484.1 10.04 10
  484.2 14.76 14
  484.3 19.21 19
  484.4 20.0 19
  484.5 16.73 16
  484.6 12.1 12
  484.8 11.03 11
  484.9 14.85 14
  485.0 17.45 17
  485.1 16.12 16
  485.2 11.84 11
  485.4 9.05 9
  485.5 13.29 13
  485.6 18.0 17
  485.7 19.51 19
  485.8 16.32 16
  486.6 9.14 9
  486.7 12.68 12
  486.8 17.1 17
  486.9 18.0 17
  487.0 14.59 14
  487.3 10.97 10
  487.4 15.68 15
  487.5 19.65 19
  487.6 19.71 19
  487.7 15.25 15
  487.9 8.85 8
  488.0 12.62 12
  488.1 17.08 17
  488.2 17.99 17
  488.3 14.46 14
  488.6 8.02 8
  488.7 14.2 14
  488.8 19.71 19
  488.9 19.62 19
  489.0 13.74 13
  489.2 6.02 6
  489.3 10.42 10
  489.4 15.91 15
  489.5 16.9 16
  489.6 11.92 11
  489.8 2.52 2
  489.9 6.92 6
  490.0 14.47 14
  490.1 19.13 19
  490.2 18.23 18
  490.3 13.68 13
  491.1 9.76 9
  491.2 14.59 14
  491.3 18.72 18
  491.4 18.63 18
  491.5 14.01 13
  491.8 7.89 7
  491.9 13.48 13
  492.0 17.91 17
  492.1 17.7 17
  492.2 12.85 12
  492.4 7.66 7
  492.5 13.81 13
  492.6 21.03 21
  492.7 23.26 23
  492.8 19.35 19
  492.9 13.16 13
  493.6 9.93 9
  493.7 11.35 11
  493.8 15.4 15
  493.9 19.04 19
  494.0 19.19 19
  494.1 15.48 15
  494.2 10.56 10
  494.4 9.34 9
  494.5 13.78 13
  494.6 17.7 17
  494.7 18.02 18
  494.8 14.64 14
  494.9 10.24 10
  495.6 7.2 7
  495.7 10.9 10
  495.8 15.31 15
  495.9 16.84 16
  496.0 14.39 14
  496.3 10.18 10
  496.4 13.74 13
  496.5 16.56 16
  496.6 16.95 16
  496.7 14.36 14
  498.2 10.82 10
  498.3 14.27 14
  498.4 17.5 17
  498.5 17.24 17
  498.6 13.0 12
  498.8 7.59 7
  498.9 12.1 12
  499.0 17.83 17
  499.1 19.73 19
  499.2 16.75 16
  499.3 12.35 12
  499.5 11.9 11
  499.6 14.76 14
  499.7 16.17 16
  499.8 15.05 15
  500.6 8.54 8
  500.7 10.28 10
  500.8 14.82 14
  500.9 19.56 19
  501.0 21.26 21
  501.1 18.28 18
  501.2 11.9 11
  501.4 6.25 6
  501.5 12.16 12
  501.6 19.44 19
  501.7 22.25 22
  501.8 19.3 19
  501.9 14.38 14
  502.7 6.25 6
  502.8 11.98 11
  502.9 16.66 16
  503.0 16.32 16
  503.1 11.67 11
  503.3 8.02 8
  503.4 13.22 13
  503.5 18.75 18
  503.6 20.14 20
  503.7 16.84 16
  504.0 12.03 12
  504.1 15.62 15
  504.2 18.18 18
  504.3 17.54 17
  504.4 13.65 13
  504.6 8.24 8
  504.7 12.12 12
  504.8 17.5 17
  504.9 19.24 19
  505.0 15.72 15
  505.2 9.15 9
  505.3 12.59 12
  505.4 16.93 16
  505.5 16.66 16
  505.6 10.65 10
  505.8 2.83 2
  505.9 8.77 8
  506.0 17.1 17
  506.1 21.56 21
  506.2 19.41 19
  506.3 13.36 13
  506.5 9.58 9
  506.6 13.05 13
  506.7 14.75 14
  506.8 12.7 12
  507.1 8.82 8
  507.2 12.15 12
  507.3 15.22 15
  507.4 16.27 16
  507.5 14.56 14
  507.8 9.9 9
  507.9 13.86 13
  508.0 17.83 17
  508.1 19.19 19
  508.2 17.37 17
  508.3 13.75 13
  508.5 11.75 11
  508.6 14.38 14
  508.7 15.39 15
  508.8 12.79 12
  509.0 8.24 8
  509.1 12.36 12
  509.2 18.81 18
  509.3 22.86 22
  509.4 21.53 21
  509.5 16.15 16
  509.7 10.07 10
  509.8 13.49 13
  509.9 18.02 18
  510.0 19.67 19
  510.1 17.25 17
  511.0 9.7 9
  511.1 12.32 12
  511.2 14.17 14
  511.3 14.53 14
  511.4 13.42 13
  511.6 10.68 10
  511.7 13.05 13
  511.8 17.85 17
  511.9 20.9 20
  512.0 18.49 18
  512.1 11.72 11
  512.3 6.83 6
  512.4 11.92 11
  512.5 16.08 16
  512.6 15.6 15
  512.7 11.55 11
  512.9 8.4 8
  513.0 13.19 13
  513.1 18.95 18
  513.2 20.57 20
  513.3 15.94 15
  513.6 8.31 8
  513.7 14.64 14
  513.8 18.26 18
  513.9 16.58 16
  514.2 11.52 11
  514.3 16.14 16
  514.4 18.46 18
  514.5 16.29 16
  514.8 12.48 12
  514.9 17.07 17
  515.0 20.86 20
  515.1 21.23 21
  515.2 17.24 17
  515.5 10.12 10
  515.6 16.9 16
  515.7 21.56 21
  515.8 20.32 20
  515.9 14.84 14
  516.1 8.8 8
  516.2 12.1 12
  516.3 16.17 16
  516.4 17.08 17
  516.5 14.15 14
  516.7 8.82 8
  516.8 11.31 11
  516.9 15.54 15
  517.0 18.25 18
  517.1 17.92 17
  517.2 15.08 15
  517.5 10.97 10
  517.6 16.17 16
  517.7 20.52 20
  517.8 19.45 19
  517.9 13.36 13
  518.1 7.92 7
  518.2 13.36 13
  518.3 17.83 17
  518.4 16.06 16
  518.6 6.83 6
  518.7 10.74 10
  518.8 18.2 18
  518.9 22.46 22
  519.0 20.66 20
  519.1 15.46 15
  519.3 11.09 11
  519.4 13.65 13
  519.5 16.4 16
  519.6 16.7 16
  519.7 13.71 13
  519.9 7.76 7
  520.0 10.62 10
  520.1 16.01 15
  520.2 18.95 18
  520.3 16.29 16
  520.4 9.96 9
  520.6 5.03 5
  520.7 8.77 8
  520.8 12.64 12
  520.9 13.75 13
  521.2 11.11 11
  521.3 13.71 13
  521.4 16.43 16
  521.5 16.7 16
  521.6 13.58 13
  521.9 8.22 8
  522.0 12.74 12
  522.1 15.75 15
  522.2 14.7 14
  522.3 10.9 10
  522.5 7.9 7
  522.6 11.22 11
  522.7 15.86 15
  522.8 18.96 18
  522.9 18.23 18
  523.0 14.01 13
  523.2 9.75 9
  523.3 13.51 13
  523.4 17.11 17
  523.5 16.26 16
  523.6 11.02 11
  523.8 5.33 5
  523.9 10.13 10
  524.0 16.18 16
  524.1 18.35 18
  524.2 15.17 15
  525.1 9.6 9
  525.2 15.95 15
  525.3 20.09 20
  525.4 18.44 18
  525.5 13.0 12
  525.7 10.96 10
  525.8 16.26 16
  525.9 20.22 20
  526.0 19.39 19
  526.1 14.82 14
  526.3 9.43 9
  526.4 12.52 12
  526.5 16.92 16
  526.6 18.31 18
  526.7 14.27 14
  527.0 6.66 6
  527.1 14.23 14
  527.2 20.2 20
  527.3 20.26 20
  527.4 15.33 15
  527.6 9.92 9
  527.7 13.52 13
  527.8 16.87 16
  527.9 16.17 16
  528.0 11.89 11
  528.2 7.67 7
  528.3 11.8 11
  528.4 17.34 17
  528.5 20.4 20
  528.6 18.98 18
  528.7 14.72 14
  528.9 11.28 11
  529.0 13.88 13
  529.1 16.15 16
  529.2 15.62 15
  529.3 12.18 12
  529.5 5.64 5
  529.6 7.98 7
  529.7 14.2 14
  529.8 20.08 20
  529.9 20.75 20
  530.0 15.46 15
  530.2 7.81 7
  530.3 12.53 12
  530.4 18.11 18
  530.5 18.54 18
  530.6 13.16 13
  530.8 5.26 5
  530.9 9.06 9
  531.0 14.64 14
  531.1 17.24 17
  531.2 15.45 15
  531.4 10.97 10
  531.5 13.95 13
  531.6 19.04 19
  531.7 22.25 22
  531.8 20.71 20
  531.9 15.39 15
  532.1 10.73 10
  532.2 15.63 15
  532.3 20.51 20
  532.4 20.25 20
  532.5 14.93 14
  532.7 8.25 8
  532.8 11.93 11
  532.9 17.08 17
  533.0 19.51 19
  533.1 16.95 16
  533.2 10.8 10
  533.4 5.67 5
  533.5 10.82 10
  533.6 16.95 16
  533.7 19.58 19
  533.8 17.41 17
  533.9 12.81 12
  534.1 10.82 10
  534.2 14.2 14
  534.3 15.83 15
  534.4 13.36 13
  534.6 8.47 8
  534.7 12.39 12
  534.8 17.96 17
  534.9 20.52 20
  535.0 17.89 17
  535.1 12.03 12
  535.3 8.77 8
  535.4 14.99 14
  535.5 21.33 21
  535.6 21.73 21
  535.7 14.87 14
  536.6 7.87 7
  536.7 14.24 14
  536.8 18.78 18
  536.9 17.76 17
  537.0 12.16 12
  537.2 4.71 4
  537.3 8.36 8
  537.4 15.45 15
  537.5 20.97 20
  537.6 20.39 20
  537.7 14.24 14
  537.9 8.82 8
  538.0 14.06 14
  538.1 18.23 18
  538.2 17.04 17
  538.3 11.93 11
  538.5 8.37 8
  538.6 12.73 12
  538.7 17.31 17
  538.8 18.46 18
  538.9 15.1 15
  539.1 8.01 8
  539.2 11.14 11
  539.3 16.73 16
  539.4 19.48 19
  539.5 16.79 16
  539.8 9.8 9
  539.9 15.89 15
  540.0 20.71 20
  540.1 20.11 20
  540.2 14.7 14
  540.4 7.55 7
  540.5 11.55 11
  540.6 17.42 17
  540.7 19.91 19
  540.8 17.08 17
  541.1 11.34 11
  541.2 15.98 15
  541.3 18.84 18
  541.4 17.21 17
  541.5 12.16 12
  541.7 6.68 6
  541.8 10.44 10
  541.9 15.43 15
  542.0 17.68 17
  542.1 16.08 16
  542.4 12.74 12
  542.5 15.39 15
  542.6 16.95 16
  542.7 15.66 15
  542.8 11.97 11
  543.0 7.26 7
  543.1 10.53 10
  543.2 16.12 16
  543.3 19.39 19
  543.4 17.22 17
  543.5 11.61 11
  543.7 9.46 9
  543.8 13.71 13
  543.9 15.71 15
  544.0 13.02 13
  544.2 6.43 6
  544.3 9.95 9
  544.4 16.23 16
  544.5 20.14 20
  544.6 18.64 18
  544.7 13.1 13
  544.9 7.03 7
  545.0 10.57 10
  545.1 15.43 15
  545.2 17.73 17
  545.3 15.72 15
  546.1 8.16 8
  546.2 11.75 11
  546.3 16.6 16
  546.4 18.95 18
  546.5 18.11 18
  546.6 15.45 15
  546.8 12.32 12
  546.9 14.56 14
  547.0 18.2 18
  547.1 19.9 19
  547.2 17.37 17
  547.3 12.15 12
  547.5 9.89 9
  547.6 14.75 14
  547.7 18.99 18
  547.8 19.21 19
  547.9 15.51 15
  548.1 11.16 11
  548.2 15.05 15
  548.3 20.03 20
  548.4 21.56 21
  548.5 17.36 17
  548.6 9.75 9
  548.8 5.42 5
  548.9 11.31 11
  549.0 16.61 16
  549.1 17.07 17
  549.2 13.36 13
  549.4 9.95 9
  549.5 13.49 13
  549.6 16.73 16
  549.7 16.31 16
  549.8 12.41 12
  550.0 8.65 8
  550.1 13.08 13
  550.2 18.46 18
  550.3 20.43 20
  550.4 17.19 17
  550.5 11.52 11
  550.7 10.31 10
  550.8 14.96 14
  550.9 17.59 17
  551.0 15.92 15
  551.1 11.95 11
  551.3 10.45 10
  551.4 14.72 14
  551.5 18.93 18
  551.6 19.35 19
  551.7 14.88 14
  551.8 8.3 8
  552.0 6.34 6
  552.1 12.29 12
  552.2 17.15 17
  552.3 16.64 16
  552.4 11.6 11
  552.6 8.02 8
  552.7 13.42 13
  552.8 18.51 18
  552.9 18.95 18
  553.0 14.94 14
  553.1 10.61 10
  553.8 7.56 7
  553.9 10.24 10
  554.0 15.36 15
  554.1 18.34 18
  554.2 15.6 15
  554.3 9.03 9
  554.5 6.27 6
  554.6 12.82 12
  554.7 18.96 18
  554.8 20.28 20
  554.9 16.38 16
  555.1 7.93 7
  555.2 11.35 11
  555.3 19.35 19
  555.4 25.52 25
  555.5 23.93 23
  555.6 15.31 15
  555.8 4.75 4
  555.9 9.89 9
  556.0 16.81 16
  556.1 19.9 19
  556.2 17.57 17
  556.4 11.35 11
  556.5 14.06 14
  556.6 19.01 18
  556.7 21.45 21
  556.8 18.41 18
  556.9 11.8 11
  557.1 8.95 8
  557.2 15.2 15
  557.3 20.09 20
  557.4 19.06 19
  557.5 13.23 13
  557.7 8.04 8
  557.8 12.39 12
  557.9 16.5 16
  558.0 16.72 16
  558.1 12.76 12
  558.3 5.82 5
  558.4 9.2 9
  558.5 15.53 15
  558.6 19.44 19
  558.7 17.6 17
  558.8 11.8 11
  559.0 7.38 7
  559.1 11.37 11
  559.2 14.62 14
  559.3 13.92 13
  559.6 9.46 9
  559.7 13.65 13
  559.8 17.18 17
  559.9 17.25 17
  560.0 13.6 13
  560.2 7.23 7
  560.3 10.45 10
  560.4 16.49 16
  560.5 20.16 20
  560.6 17.96 17
  560.7 11.84 11
  560.9 8.42 8
  561.0 13.83 13
  561.1 18.93 18
  561.2 19.24 19
  561.3 14.24 14
  561.5 5.85 5
  561.6 9.95 9
  561.7 16.6 16
  561.8 19.85 19
  561.9 17.08 17
  562.0 11.22 11
  562.2 10.02 10
  562.3 15.13 15
  562.4 18.64 18
  562.5 17.96 17
  562.6 14.0 13
  562.8 10.13 10
  562.9 14.04 14
  563.0 18.75 18
  563.1 20.09 20
  563.2 16.87 16
  563.5 12.88 12
  563.6 17.22 17
  563.7 20.0 19
  563.8 19.07 19
  563.9 14.82 14
  564.2 10.01 9
  564.3 14.12 14
  564.4 16.31 16
  564.5 14.35 14
  564.8 9.4 9
  564.9 15.08 15
  565.0 19.82 19
  565.1 19.77 19
  565.2 15.17 15
  565.4 8.04 8
  565.5 11.14 11
  565.6 16.7 16
  565.7 20.06 20
  565.8 18.05 18
  565.9 12.26 12
  566.1 9.23 9
  566.2 14.87 14
  566.3 19.62 19
  566.4 19.24 19
  566.5 14.61 14
  566.7 10.74 10
  566.8 14.75 14
  566.9 17.74 17
  567.0 16.06 16
  567.3 10.83 10
  567.4 15.95 15
  567.5 18.73 18
  567.6 16.41 16
  567.7 10.93 10
  567.9 7.26 7
  568.0 12.24 12
  568.1 18.35 18
  568.2 21.09 21
  568.3 18.37 18
  568.4 12.64 12
  568.6 8.8 8
  568.7 11.34 11
  568.8 13.49 13
  568.9 14.2 14
  569.0 13.97 13
  569.1 13.78 13
  569.2 14.62 14
  569.3 16.92 16
  569.4 19.56 19
  569.5 20.52 20
  569.6 18.46 18
  569.7 14.14 14
  569.9 9.64 9
  570.0 12.78 12
  570.1 16.87 16
  570.2 17.88 17
  570.3 14.62 14
  570.5 9.38 9
  570.6 12.67 12
  570.7 16.96 16
  570.8 18.23 18
  570.9 15.19 15
  571.0 10.22 10
  571.2 8.68 8
  571.3 13.6 13
  571.4 18.31 18
  571.5 19.41 19
  571.6 16.49 16
  571.8 11.75 11
  571.9 14.47 14
  572.0 17.89 17
  572.1 18.14 18
  572.2 14.35 14
  572.4 9.18 9
  572.5 12.36 12
  572.6 16.11 16
  572.7 16.78 16
  572.8 13.83 13
  573.0 9.11 9
  573.1 12.84 12
  573.2 18.84 18
  573.3 22.04 22
  573.4 19.32 19
  573.5 12.68 12
  573.7 8.3 8
  573.8 14.26 14
  573.9 20.25 20
  574.0 21.1 21
  574.1 16.26 16
  574.2 9.89 9
  574.4 9.4 9
  574.5 14.39 14
  574.6 17.42 17
  574.7 16.12 16
  574.9 11.14 11
  575.0 13.66 13
  575.1 17.73 17
  575.2 18.73 18
  575.3 14.61 14
  575.4 8.24 8
  575.6 6.63 6
  575.7 12.24 12
  575.8 18.09 18
  575.9 20.81 20
  576.0 18.12 18
  576.1 11.45 11
  576.3 7.35 7
  576.4 13.29 13
  576.5 17.82 17
  576.6 16.29 16
  576.7 10.48 10
  576.9 6.89 6
  577.0 11.43 11
  577.1 16.18 16
  577.2 18.51 18
  577.3 17.57 17
  577.4 14.75 14
  577.6 13.26 13
  577.7 16.43 16
  577.8 19.42 19
  577.9 19.67 19
  578.0 16.99 16
  578.1 13.84 13
  578.7 7.84 7
  578.8 10.13 10
  578.9 15.24 15
  579.0 19.59 19
  579.1 19.82 19
  579.2 15.36 15
  579.3 9.32 9
  579.5 8.21 8
  579.6 12.93 12
  579.7 16.29 16
  579.8 15.98 15
  579.9 13.03 13
  580.1 10.48 10
  580.2 13.62 13
  580.3 17.89 17
  580.4 19.67 19
  580.5 16.87 16
  580.7 10.13 10
  580.8 13.78 13
  580.9 19.33 19
  581.0 21.41 21
  581.1 18.23 18
  581.2 12.58 12
  581.4 9.15 9
  581.5 12.76 12
  581.6 15.85 15
  581.7 15.31 15
  581.8 11.14 11
  582.0 4.63 4
  582.1 7.52 7
  582.2 13.11 13
  582.3 16.9 16
  582.4 15.27 15
  582.7 8.1 8
  582.8 14.98 14
  582.9 19.25 19
  583.0 17.27 17
  583.1 11.89 11
  583.3 10.62 10
  583.4 14.41 14
  583.5 16.14 16
  583.6 14.23 14
  583.8 9.32 9
  583.9 11.8 11
  584.0 16.41 16
  584.1 19.03 19
  584.2 17.1 17
  584.3 11.78 11
  584.5 5.53 5
  584.6 8.36 8
  584.7 13.54 13
  584.8 17.88 17
  584.9 18.69 18
  585.0 15.66 15
  585.8 7.72 7
  585.9 12.5 12
  586.0 19.28 19
  586.1 22.22 22
  586.2 18.9 18
  586.3 12.22 12
  586.5 8.05 8
  586.6 12.96 12
  586.7 17.96 17
  586.8 18.69 18
  586.9 14.18 14
  587.1 6.85 6
  587.2 11.58 11
  587.3 18.29 18
  587.4 20.75 20
  587.5 16.81 16
  587.6 9.9 9
  587.8 7.61 7
  587.9 13.63 13
  588.0 19.09 19
  588.1 20.0 19
  588.2 16.01 15
  588.5 10.07 10
  588.6 15.34 15
  588.7 18.51 18
  588.8 16.5 16
  588.9 10.99 10
  589.1 6.27 6
  589.2 9.43 9
  589.3 12.91 12
  589.4 13.66 13
  589.5 11.08 11
  589.7 7.04 7
  589.8 10.74 10
  589.9 15.46 15
  590.0 16.7 16
  590.1 13.34 13
  590.2 8.44 8
  590.4 7.43 7
  590.5 11.64 11
  590.6 15.07 15
  590.7 14.46 14
  590.8 9.89 9
  591.0 5.64 5
  591.1 10.77 10
  591.2 16.84 16
  591.3 19.24 19
  591.4 16.31 16
  591.7 9.43 9
  591.8 15.92 15
  591.9 20.08 20
  592.0 17.62 17
  592.1 10.82 10
  592.3 6.33 6
  592.4 10.36 10
  592.5 13.83 13
  592.6 14.49 14
  592.9 12.53 12
  593.0 15.48 15
  593.1 18.02 18
  593.2 17.47 17
  593.3 13.91 13
  593.5 11.4 11
  593.6 15.94 15
  593.7 20.8 20
  593.8 21.91 21
  593.9 18.23 18
  594.0 12.3 12
  594.2 8.42 8
  594.3 12.07 12
  594.4 16.17 16
  594.5 17.91 17
  594.6 16.44 16
  594.7 13.31 13
  595.4 3.91 3
  595.5 7.78 7
  595.6 15.31 15
  595.7 21.24 21
  595.8 21.79 21
  595.9 17.47 17
  596.0 12.12 12
  596.2 10.91 10
  596.3 14.55 14
  596.4 17.44 17
  596.5 17.01 16
  596.6 13.31 13
  596.8 10.74 10
  596.9 15.2 15
  597.0 18.43 18
  597.1 16.64 16
  597.4 11.77 11
  597.5 17.57 17
  597.6 21.07 21
  597.7 19.41 19
  597.8 13.88 13
  597.9 7.85 7
  598.1 6.63 6
  598.2 12.53 12
  598.3 17.56 17
  598.4 17.48 17
  598.5 13.37 13
  598.7 11.78 11
  598.8 15.42 15
  598.9 17.15 17
  599.0 15.2 15
  599.1 11.08 11
  599.3 8.5 8
  599.4 12.97 12
  599.5 18.17 18
  599.6 19.48 19
//
