ACCESSION: MSBNK-RIKEN_IMS-LQB00243
RECORD_TITLE: PG 34:2; LC-ESI-QTOF; MS2
DATE: 2023.12.21 (Created 2016.10.03)
AUTHORS: Kazutaka Ikeda, Hiroshi Tsugawa, Makoto Arita, RIKEN Center for Integrative Medical Sciences, Japan
LICENSE: CC BY
COPYRIGHT: Copyright(C) 2017 RIKEN IMS
COMMENT: Found in mouse spleen; TwoDicalId=624; MgfFile=160729_spleen_normal_02_Neg_never; MgfId=672
CH$NAME: PG 34:2
CH$COMPOUND_CLASS: PG
CH$FORMULA: C40H75O10P
CH$EXACT_MASS: 746.509787
CH$SMILES: CCCCCCCCCCCCCCCC(=O)OCC(COP(O)(=O)OCC(O)CO)OC(=O)CCCCCCC\C=C/C\C=C/CCCCC
CH$IUPAC: InChI=1S/C40H75O10P/c1-3-5-7-9-11-13-15-17-18-20-22-24-26-28-30-32-40(44)50-38(36-49-51(45,46)48-34-37(42)33-41)35-47-39(43)31-29-27-25-23-21-19-16-14-12-10-8-6-4-2/h11,13,17-18,37-38,41-42H,3-10,12,14-16,19-36H2,1-2H3,(H,45,46)/b13-11-,18-17-
CH$LINK: INCHIKEY ATBOMIWRCZXYSZ-BCTRXSSUSA-N
CH$LINK: PUBCHEM CID:138121875
AC$INSTRUMENT: AB Sciex TripleTOF 5600+ system (Q-TOF) equipped with a DuoSpray ion source
AC$INSTRUMENT_TYPE: LC-ESI-QTOF
AC$MASS_SPECTROMETRY: MS_TYPE MS2
AC$MASS_SPECTROMETRY: ION_MODE NEGATIVE
AC$MASS_SPECTROMETRY: COLLISION_ENERGY 45V
AC$CHROMATOGRAPHY: COLUMN_NAME Acquity UPLC Peptide BEH C18 column (50*2.1 mm; 1.7 um; 130A)(Waters Co.,Milford, MA, USA)
AC$CHROMATOGRAPHY: COLUMN_TEMPERATURE 45 C
AC$CHROMATOGRAPHY: FLOW_GRADIENT 0 min 0% B; 1 min 0% B; 5 min 40% B; 7.5 min 64% B; 12.0 min 64% B; 12.5 min 82.5% B, 19 min 85% B; 20 min 95% B; 20.1 min 0% B; 25 min 0% B.
AC$CHROMATOGRAPHY: FLOW_RATE 0.3 mL/min
AC$CHROMATOGRAPHY: RETENTION_TIME 8.10702
AC$CHROMATOGRAPHY: SOLVENT A 1:1:3 acetonitrile:methanol:water (v/v/v) with 5 mM ammonium acetate and 10 nM EDTA.
AC$CHROMATOGRAPHY: SOLVENT B 100% isopropanol with 5 mM ammonium acetate and 10 nM EDTA.
MS$FOCUSED_ION: PRECURSOR_TYPE [M-H]-
MS$FOCUSED_ION: PRECURSOR_M/Z 745.5016
PK$SPLASH: splash10-0f7k-0090000400-79cc8fe6e9de17823b3f
PK$NUM_PEAK: 19
PK$PEAK: m/z int. rel.int.
  152.997 94 32
  253.215 1946 675
  255.232 1113 386
  279.232 1121 389
  280.359 31 10
  280.764 21 7
  281.233 559 194
  281.249 2233 775
  393.155 23 7
  463.243 73 25
  481.253 20 6
  497.285 20 6
  509.265 20 6
  588.468 82 28
  743.134 20 6
  745.453 145 50
  745.473 420 145
  745.5 2880 999
  745.568 101 35
//
