ACCESSION: MSBNK-RIKEN_IMS-LQA00226
RECORD_TITLE: PE(16:1e/8-HETE); LC-ESI-QTOF; MS2
DATE: 2023.12.21 (Created 2017.09.05)
AUTHORS: Ryohei Aoyagi, Kazutaka Ikeda, Yosuke Isobe, Makoto Arita; RIKEN Center for Integrative Medical Sciences, Japan
LICENSE: CC BY
COMMENT: RIKEN oxidized phospholipids
CH$NAME: PE(16:1e/8-HETE)
CH$COMPOUND_CLASS: Oxidized Phospholipid
CH$FORMULA: C41H74NO8P
CH$EXACT_MASS: 739.515202
CH$SMILES: CCCCCCCCCCCCCC\C=C/OCC(COP(O)(=O)OCCN)OC(=O)CCC\C=C/CC(O)\C=C/C=C\C\C=C/CCCCC
CH$IUPAC: InChI=1S/C41H74NO8P/c1-3-5-7-9-11-13-15-16-17-18-20-22-26-30-35-47-37-40(38-49-51(45,46)48-36-34-42)50-41(44)33-29-25-24-28-32-39(43)31-27-23-21-19-14-12-10-8-6-4-2/h12,14,21,23-24,27-28,30-31,35,39-40,43H,3-11,13,15-20,22,25-26,29,32-34,36-38,42H2,1-2H3,(H,45,46)/b14-12-,23-21-,28-24-,31-27-,35-30-
CH$LINK: INCHIKEY NJTPXIVRIMQPFB-LHBRILSUSA-N
CH$LINK: PUBCHEM CID:134752550
AC$INSTRUMENT: Acquity UPLC Peptide BEH C18 column (50 x 2.1 mm; 1.7 um), Sciex TripleTOF5600
AC$INSTRUMENT_TYPE: LC-ESI-QTOF
AC$MASS_SPECTROMETRY: MS_TYPE MS2
AC$MASS_SPECTROMETRY: ION_MODE NEGATIVE
AC$MASS_SPECTROMETRY: COLLISION_ENERGY 30-50
MS$FOCUSED_ION: PRECURSOR_M/Z 738.5079288
MS$FOCUSED_ION: PRECURSOR_TYPE [M-H]-
PK$SPLASH: splash10-000i-0238400900-ec48d67ec8f73cc53865
PK$NUM_PEAK: 677
PK$PEAK: m/z int. rel.int.
  78.9553 31 10
  78.95655 61 19
  78.9578 20 6
  78.95906 112 35
  78.96031 61 19
  78.96156 112 35
  78.96282 82 26
  78.96407 82 26
  78.96533 51 16
  78.96658 20 6
  78.96909 20 6
  93.07488 20 6
  105.0715 20 6
  107.0827 20 6
  109.0659 20 6
  109.0688 41 13
  111.0434 20 6
  111.0746 20 6
  111.0776 41 13
  111.0791 51 16
  111.0806 51 16
  111.0821 61 19
  111.0835 61 19
  111.085 71 22
  111.0865 31 10
  111.0895 20 6
  111.0925 20 6
  117.0704 20 6
  119.0865 20 6
  125.0947 20 6
  126.6873 21 7
  127.0687 31 10
  127.0703 72 23
  127.0719 123 39
  127.0735 73 23
  127.0751 134 42
  127.0767 165 52
  127.0782 166 52
  127.0798 146 46
  127.0814 124 39
  127.083 62 19
  127.0846 31 10
  127.0878 32 10
  127.0894 31 10
  127.091 21 7
  137.0601 20 6
  137.0634 20 6
  137.0667 20 6
  137.0981 20 6
  137.1361 20 6
  140.0028 51 16
  140.0045 20 6
  140.0061 61 19
  140.0078 122 38
  140.0095 102 32
  140.0111 82 26
  140.0128 82 26
  140.0145 61 19
  140.0161 51 16
  140.0178 61 19
  140.0195 51 16
  151.1533 20 6
  151.1637 20 6
  154.0501 21 7
  154.5882 32 10
  154.5935 21 7
  154.7883 21 7
  155.0552 11 3
  155.057 55 17
  155.0587 56 18
  155.0605 67 21
  155.0622 190 60
  155.064 314 98
  155.0658 573 180
  155.0675 654 205
  155.0693 639 200
  155.071 802 251
  155.0728 696 218
  155.0745 686 215
  155.0763 403 126
  155.078 382 120
  155.0798 212 66
  155.0816 112 35
  155.0833 79 25
  155.0851 69 22
  155.0868 57 18
  155.0886 90 28
  155.0903 45 14
  155.0921 34 11
  155.0939 11 3
  155.0974 11 3
  155.1026 11 3
  155.7271 11 3
  156.0706 20 6
  163.0083 20 6
  163.0209 20 6
  163.0245 21 7
  163.0803 20 6
  163.0875 21 7
  163.1127 21 7
  163.1362 31 10
  163.138 63 20
  163.1398 52 16
  163.1416 125 39
  163.1434 220 69
  163.1452 178 56
  163.147 305 96
  163.1488 295 92
  163.1506 222 70
  163.1524 241 76
  163.1542 179 56
  163.156 84 26
  163.1578 84 26
  163.1596 74 23
  163.1614 42 13
  163.1632 11 3
  163.1668 11 3
  163.1686 11 3
  163.1704 20 6
  163.2029 11 3
  165.1626 20 6
  165.1663 41 13
  171.1066 31 10
  177.1276 20 6
  177.1614 20 6
  177.1651 31 10
  179.0274 31 10
  179.0312 20 6
  179.033 20 6
  179.0368 20 6
  179.0425 20 6
  180.035 20 6
  180.0388 20 6
  180.0407 31 10
  180.0426 20 6
  180.0445 41 13
  181.0854 20 6
  181.0892 20 6
  181.6821 20 6
  191.1323 31 10
  191.1382 31 10
  191.1401 41 13
  191.1421 41 13
  191.144 20 6
  191.1479 41 13
  191.1499 31 10
  192.1402 20 6
  192.15 20 6
  192.1519 20 6
  192.1539 20 6
  192.1558 51 16
  192.1617 20 6
  196.0243 31 10
  196.0263 51 16
  196.0282 112 35
  196.0302 112 35
  196.0322 92 29
  196.0342 122 38
  196.0361 255 80
  196.0381 286 90
  196.0401 184 58
  196.0421 143 45
  196.0441 143 45
  196.046 61 19
  196.048 92 29
  196.05 20 6
  196.052 61 19
  196.0539 20 6
  199.164 20 6
  199.1719 31 10
  201.1762 20 6
  203.1643 31 10
  203.1663 31 10
  203.1683 41 13
  203.1703 51 16
  203.1724 102 32
  203.1744 112 35
  203.1764 255 80
  203.1784 122 38
  203.1804 173 54
  203.1824 184 58
  203.1844 112 35
  203.1864 184 58
  203.1884 71 22
  203.1905 51 16
  203.1925 20 6
  203.1945 41 13
  203.1965 20 6
  203.2025 20 6
  204.0038 20 6
  207.1699 20 6
  207.174 20 6
  207.1842 20 6
  221.2016 20 6
  223.1765 21 7
  224.0795 20 6
  226.0651 21 7
  226.9272 21 7
  227.1781 21 7
  227.1802 20 6
  227.1823 31 10
  227.1845 52 16
  227.1887 52 16
  227.1909 155 49
  227.193 177 56
  227.1951 251 79
  227.1972 229 72
  227.1994 251 79
  227.2015 248 78
  227.2036 373 117
  227.2057 298 93
  227.2079 196 61
  227.21 134 42
  227.2121 83 26
  227.2142 93 29
  227.2164 52 16
  227.2185 31 10
  227.2228 20 6
  227.2249 20 6
  227.4951 20 6
  228.1212 21 7
  228.1873 51 16
  228.1894 62 19
  228.1915 103 32
  228.1936 62 19
  228.1958 82 26
  228.1979 154 48
  228.2 330 103
  228.2022 257 81
  228.2043 216 68
  228.2064 267 84
  228.2086 206 65
  228.2107 225 71
  228.2128 123 39
  228.215 123 39
  228.2171 61 19
  228.2192 82 26
  228.2214 31 10
  228.2235 41 13
  229.188 11 3
  229.1901 20 6
  229.1922 51 16
  229.1944 20 6
  229.1965 41 13
  229.1987 51 16
  229.2008 51 16
  229.2029 92 29
  229.2051 82 26
  229.2072 41 13
  229.2093 71 22
  229.2115 41 13
  229.2136 61 19
  229.2157 61 19
  229.2179 31 10
  239.2217 20 6
  239.2239 31 10
  239.2261 20 6
  239.2283 92 29
  239.2305 61 19
  239.2326 61 19
  239.2348 112 35
  239.237 112 35
  239.2392 92 29
  239.2414 133 42
  239.2435 133 42
  239.2457 82 26
  239.2479 92 29
  239.2501 61 19
  239.2523 20 6
  240.3863 20 6
  247.2047 20 6
  250.0926 20 6
  255.2262 20 6
  255.2307 41 13
  255.233 31 10
  255.242 31 10
  255.2443 31 10
  256.2348 21 7
  256.2371 20 6
  256.2439 31 10
  256.4156 21 7
  256.4178 21 7
  256.4291 21 7
  256.68 21 7
  257.2024 32 10
  257.2047 21 7
  257.2069 85 27
  257.2092 169 53
  257.2115 128 40
  257.2137 281 88
  257.216 368 115
  257.2183 446 140
  257.2205 460 144
  257.2228 722 226
  257.225 852 267
  257.2273 765 240
  257.2296 852 267
  257.2318 951 298
  257.2341 765 240
  257.2364 578 181
  257.2386 328 103
  257.2409 329 103
  257.2432 185 58
  257.2454 87 27
  257.2477 54 17
  257.2499 66 21
  257.2522 32 10
  257.2545 33 10
  257.2567 33 10
  257.259 11 3
  257.3631 11 3
  258.2331 22 7
  260.3255 11 3
  261.4331 11 3
  273.2279 20 6
  275.1929 20 6
  275.2046 51 16
  275.2116 20 6
  275.2233 20 6
  275.2256 41 13
  275.228 61 19
  275.2303 82 26
  275.2327 31 10
  275.235 61 19
  275.2374 204 64
  275.2397 163 51
  275.242 51 16
  275.2444 92 29
  275.2467 102 32
  275.2491 92 29
  275.2514 41 13
  275.2538 31 10
  283.2015 31 10
  283.2086 20 6
  283.211 31 10
  290.3336 20 6
  291.2335 20 6
  291.2359 41 13
  291.2383 20 6
  291.2407 20 6
  291.2431 31 10
  292.7621 22 7
  300.3893 22 7
  300.4798 20 6
  300.7783 22 7
  300.9349 22 7
  301.1675 21 7
  301.1773 22 7
  301.1822 21 7
  301.1846 21 7
  301.1871 32 10
  301.1895 11 3
  301.192 66 21
  301.1944 126 40
  301.1969 112 35
  301.1993 155 49
  301.2018 458 144
  301.2042 494 155
  301.2067 697 219
  301.2091 1263 396
  301.2116 1209 379
  301.214 1257 394
  301.2165 1570 492
  301.2189 1563 490
  301.2214 1471 461
  301.2238 1539 483
  301.2263 990 310
  301.2287 793 249
  301.2312 520 163
  301.2336 403 126
  301.2361 267 84
  301.2385 160 50
  301.241 150 47
  301.2434 91 29
  301.2458 58 18
  301.2483 12 4
  301.2508 20 6
  301.2532 34 11
  301.2654 11 3
  301.3732 11 3
  301.7677 12 4
  301.8315 11 3
  302.214 20 6
  302.2164 20 6
  302.2189 44 14
  302.2262 31 10
  302.2311 20 6
  303.2278 20 6
  317.2134 31 10
  317.2234 20 6
  318.2068 20 6
  318.2219 31 10
  318.2269 20 6
  318.2446 22 7
  318.2597 22 7
  318.2647 23 7
  318.3176 21 7
  319.0077 23 7
  319.1917 11 3
  319.1967 33 10
  319.1992 59 18
  319.2018 82 26
  319.2043 173 54
  319.2068 263 82
  319.2094 249 78
  319.2119 528 166
  319.2144 861 270
  319.2169 1065 334
  319.2194 1732 543
  319.222 1577 494
  319.2245 1899 595
  319.227 2453 769
  319.2295 2127 667
  319.232 2449 768
  319.2346 1888 592
  319.2371 1764 553
  319.2396 1171 367
  319.2421 883 277
  319.2446 641 201
  319.2472 376 118
  319.2497 295 92
  319.2522 122 38
  319.2547 124 39
  319.2572 72 23
  319.2598 11 3
  319.2623 12 4
  319.2648 12 4
  319.2673 25 8
  319.2925 13 4
  319.343 12 4
  319.6733 12 4
  320.009 11 3
  320.2185 20 6
  320.2235 31 10
  320.2261 20 6
  320.2311 12 4
  320.2336 41 13
  320.2362 41 13
  320.2387 31 10
  320.2412 31 10
  375.2063 20 6
  375.2117 20 6
  375.2172 31 10
  375.2199 31 10
  375.2227 31 10
  375.2254 71 22
  375.2281 61 19
  375.2309 71 22
  375.2336 51 16
  375.2363 41 13
  375.2391 20 6
  375.2418 41 13
  375.2445 31 10
  375.2473 31 10
  375.2527 20 6
  391.2507 21 7
  393.2515 21 7
  414.9363 21 7
  417.8183 31 10
  418.2308 31 10
  418.2337 31 10
  418.2395 20 6
  418.2452 51 16
  418.2481 74 23
  418.251 126 40
  418.2539 95 30
  418.2568 158 50
  418.2597 272 85
  418.2625 180 56
  418.2654 297 93
  418.2683 454 142
  418.2712 307 96
  418.2741 507 159
  418.277 381 119
  418.2798 318 100
  418.2827 338 106
  418.2856 201 63
  418.2885 179 56
  418.2914 232 73
  418.2943 169 53
  418.2972 64 20
  418.3 64 20
  418.3029 53 17
  418.3058 11 3
  418.3087 42 13
  418.3116 11 3
  418.3289 11 3
  419.2616 20 6
  419.2645 11 3
  419.2847 20 6
  434.2665 20 6
  434.9018 20 6
  434.9165 20 6
  434.9254 20 6
  435.9117 22 7
  436.2446 34 11
  436.2476 22 7
  436.2505 44 14
  436.2535 147 46
  436.2564 213 67
  436.2594 237 74
  436.2623 400 125
  436.2653 479 150
  436.2682 435 136
  436.2711 862 270
  436.2741 972 305
  436.277 1016 319
  436.28 1282 402
  436.2829 1337 419
  436.2859 1451 455
  436.2888 1327 416
  436.2918 1231 386
  436.2947 1186 372
  436.2977 1023 321
  436.3006 894 280
  436.3036 535 168
  436.3065 361 113
  436.3094 314 98
  436.3124 152 48
  436.3154 81 25
  436.3183 94 29
  436.3213 80 25
  436.3242 59 18
  436.3271 68 21
  436.3301 33 10
  436.333 12 4
  436.336 24 8
  436.3419 20 6
  436.7281 12 4
  437.2737 12 4
  437.2767 31 10
  437.2914 20 6
  437.2944 41 13
  437.2974 12 4
  452.2856 20 6
  453.2854 20 6
  454.2923 31 10
  462.494 20 6
  481.6286 20 6
  490.2754 20 6
  498.2587 20 6
  498.2681 31 10
  498.2713 31 10
  529.3391 20 6
  545.3191 20 6
  545.3323 20 6
  545.3356 31 10
  545.3389 61 19
  545.3422 20 6
  545.3488 41 13
  545.3521 41 13
  545.3553 41 13
  545.3652 31 10
  662.4456 20 6
  662.4747 20 6
  662.5037 20 6
  663.441 20 6
  663.4556 20 6
  663.4664 31 10
  663.481 51 16
  663.4846 51 16
  663.4883 20 6
  663.4955 51 16
  663.4991 31 10
  663.5101 31 10
  663.5246 20 6
  663.561 21 7
  664.4445 31 10
  664.4481 103 32
  664.4517 31 10
  664.4554 135 42
  664.459 134 42
  664.4626 156 49
  664.4663 136 43
  664.4699 146 46
  664.4736 136 43
  664.4772 167 52
  664.4808 253 79
  664.4845 262 82
  664.4881 241 76
  664.4918 219 69
  664.4954 188 59
  664.499 209 66
  664.5027 187 59
  664.5063 134 42
  664.5099 115 36
  664.5135 147 46
  664.5172 83 26
  664.5208 104 33
  664.5245 73 23
  664.5281 41 13
  664.5317 31 10
  664.5354 31 10
  736.1677 20 6
  736.1714 20 6
  736.1753 31 10
  736.1791 20 6
  736.1829 31 10
  736.1868 20 6
  736.1982 20 6
  736.2021 51 16
  736.2174 20 6
  736.2213 20 6
  736.2289 31 10
  737.4468 24 8
  737.5388 20 6
  738.4243 31 10
  738.4357 20 6
  738.4396 12 4
  738.4434 12 4
  738.4473 24 8
  738.451 72 23
  738.4549 86 27
  738.4587 136 43
  738.4626 189 59
  738.4664 263 82
  738.4702 393 123
  738.4741 547 172
  738.4779 807 253
  738.4818 980 307
  738.4856 1212 380
  738.4894 1266 397
  738.4932 1990 624
  738.4971 2299 721
  738.5009 2441 765
  738.5048 2619 821
  738.5086 2780 872
  738.5124 2855 895
  738.5162 3186 999
  738.5201 3040 953
  738.5239 2869 900
  738.5278 2987 937
  738.5316 2242 703
  738.5354 2107 661
  738.5392 1641 515
  738.5431 1309 410
  738.5469 904 283
  738.5508 573 180
  738.5546 354 111
  738.5584 251 79
  738.5623 137 43
  738.5661 95 30
  738.5699 67 21
  738.5738 41 13
  738.5776 27 8
  738.5853 24 8
  738.5891 28 9
  738.6236 13 4
  738.662 14 4
  738.8767 15 5
  739.4483 20 6
  739.4598 20 6
  739.4637 20 6
  739.4713 20 6
  739.479 61 19
  739.4828 20 6
  739.4867 20 6
  739.4905 102 32
  739.4943 31 10
  739.4982 82 26
  739.502 71 22
  739.5059 92 29
  739.5097 102 32
  739.5135 61 19
  739.5174 112 35
  739.5212 102 32
  739.525 122 38
  739.5289 71 22
  739.5327 82 26
  739.5366 102 32
  739.5404 61 19
  739.5443 92 29
  739.5481 61 19
  739.5519 20 6
  739.5557 31 10
  739.5596 31 10
  739.5634 20 6
//
