ACCESSION: MSBNK-RIKEN_IMS-LQA00077
RECORD_TITLE: PC(16:1/12-HETE); LC-ESI-QTOF; MS2
DATE: 2023.12.21 (Created 2017.09.05)
AUTHORS: Ryohei Aoyagi, Kazutaka Ikeda, Yosuke Isobe, Makoto Arita; RIKEN Center for Integrative Medical Sciences, Japan
LICENSE: CC BY
COMMENT: RIKEN oxidized phospholipids
CH$NAME: PC(16:1/12-HETE)
CH$COMPOUND_CLASS: Oxidized Phospholipid
CH$FORMULA: C44H78NO9P
CH$EXACT_MASS: 795.541417
CH$SMILES: CCCCCC\C=C/CCCCCCCC(=O)OCC(COP([O-])(=O)OCC[N+](C)(C)C)OC(=O)CCC\C=C/C\C=C/C=C/C(O)C\C=C/CCCCC
CH$IUPAC: InChI=1S/C44H78NO9P/c1-6-8-10-12-14-15-16-17-18-19-23-27-31-35-43(47)51-39-42(40-53-55(49,50)52-38-37-45(3,4)5)54-44(48)36-32-28-24-21-20-22-26-30-34-41(46)33-29-25-13-11-9-7-2/h15-16,21-22,24-26,29-30,34,41-42,46H,6-14,17-20,23,27-28,31-33,35-40H2,1-5H3/b16-15-,24-21-,26-22-,29-25-,34-30+
CH$LINK: INCHIKEY SQZMKYNIGLLCBB-VNDLAWFHSA-N
CH$LINK: PUBCHEM CID:134767704
AC$INSTRUMENT: Acquity UPLC Peptide BEH C18 column (50 x 2.1 mm; 1.7 um), Sciex TripleTOF5600
AC$INSTRUMENT_TYPE: LC-ESI-QTOF
AC$MASS_SPECTROMETRY: MS_TYPE MS2
AC$MASS_SPECTROMETRY: ION_MODE NEGATIVE
AC$MASS_SPECTROMETRY: COLLISION_ENERGY 30-50
MS$FOCUSED_ION: PRECURSOR_M/Z 854.5552726
MS$FOCUSED_ION: PRECURSOR_TYPE [M+CH3COOH-H]-
PK$SPLASH: splash10-001i-0041000900-bf0244b96cdcc145375c
PK$NUM_PEAK: 534
PK$PEAK: m/z int. rel.int.
  78.95889 6 7
  78.9614 4 4
  78.96265 4 4
  78.9639 6 7
  135.1176 4 4
  163.1036 4 4
  168.029 4 4
  168.0308 4 4
  168.0363 4 4
  168.0381 6 7
  168.0399 12 13
  168.0418 6 7
  168.0454 12 13
  168.0473 6 7
  168.0491 12 13
  168.0509 8 9
  168.0527 6 7
  179.0952 8 9
  179.0971 8 9
  179.099 4 4
  179.1008 16 18
  179.1027 33 36
  179.1046 27 30
  179.1065 20 22
  179.1084 33 36
  179.1103 29 32
  179.1122 24 26
  179.1141 18 20
  179.116 16 18
  179.1197 4 4
  180.1201 6 7
  198.3899 4 4
  202.0956 4 4
  203.1802 10 11
  203.1823 4 4
  207.1007 4 4
  208.101 8 9
  208.105 6 7
  208.1071 8 9
  208.1091 6 7
  208.1111 12 13
  208.1132 8 9
  208.1172 4 4
  224.0604 10 11
  224.0625 6 7
  224.0646 8 9
  224.0667 20 22
  224.0688 18 20
  224.0709 18 20
  224.073 6 7
  224.0752 16 18
  224.0773 6 7
  224.0794 4 4
  224.0836 6 7
  224.0857 6 7
  224.0899 4 4
  242.0692 4 4
  242.0736 4 4
  242.078 4 4
  242.0824 4 4
  252.4207 4 4
  252.4319 8 9
  252.4364 4 4
  252.4431 4 4
  252.4453 8 9
  252.858 4 4
  252.9814 4 4
  253.1879 6 7
  253.1902 6 7
  253.1924 8 9
  253.1947 45 50
  253.1969 56 62
  253.1991 82 90
  253.2014 149 164
  253.2036 199 219
  253.2059 293 322
  253.2081 466 513
  253.2104 587 646
  253.2126 562 618
  253.2149 671 738
  253.2171 697 767
  253.2194 650 715
  253.2216 606 667
  253.2238 492 541
  253.2261 436 480
  253.2283 284 312
  253.2306 155 171
  253.2328 103 113
  253.2351 73 80
  253.2373 62 68
  253.2396 47 52
  253.2418 48 53
  253.2441 7 8
  253.2463 13 14
  253.2486 9 10
  253.2553 4 4
  254.1992 4 4
  254.2105 4 4
  254.215 6 7
  254.2172 8 9
  254.2195 10 11
  254.2217 8 9
  254.224 6 7
  257.2113 4 4
  257.2136 6 7
  257.2159 10 11
  257.2181 16 18
  257.2204 18 20
  257.2226 8 9
  257.2249 18 20
  257.2272 22 24
  257.2294 14 15
  257.2317 8 9
  257.2339 10 11
  257.2362 14 15
  257.2408 4 4
  257.2475 4 4
  275.2349 4 4
  275.2372 6 7
  275.2396 4 4
  275.2419 6 7
  279.2145 6 7
  279.2169 6 7
  279.2192 10 11
  279.2216 8 9
  279.2239 20 22
  279.2263 18 20
  279.2287 27 30
  279.231 18 20
  279.2334 43 47
  279.2357 33 36
  279.2381 18 20
  279.2404 24 26
  279.2428 16 18
  279.2452 8 9
  279.2475 4 4
  279.2523 4 4
  279.2546 4 4
  283.2607 4 4
  283.2631 6 7
  283.2702 4 4
  283.275 4 4
  293.1967 4 4
  293.2015 6 7
  293.2039 4 4
  293.2063 6 7
  293.2087 12 13
  293.2112 8 9
  293.2136 8 9
  293.216 12 13
  293.2184 10 11
  293.2208 4 4
  293.2305 4 4
  301.1967 8 9
  301.1992 10 11
  301.2016 10 11
  301.2041 10 11
  301.2065 18 20
  301.209 27 30
  301.2114 35 39
  301.2139 37 41
  301.2163 31 34
  301.2188 27 30
  301.2212 29 32
  301.2237 33 36
  301.2261 14 15
  301.2286 16 18
  301.231 18 20
  301.2335 4 4
  301.2359 8 9
  301.2433 4 4
  301.2482 4 4
  318.2117 4 4
  318.2646 6 7
  319.1941 4 4
  319.1966 4 4
  319.1991 4 4
  319.2017 10 11
  319.2042 8 9
  319.2067 20 22
  319.2092 29 32
  319.2117 55 61
  319.2143 78 86
  319.2168 94 103
  319.2193 137 151
  319.2218 155 171
  319.2243 157 173
  319.2269 137 151
  319.2294 139 153
  319.2319 161 177
  319.2344 153 168
  319.2369 120 132
  319.2395 82 90
  319.242 51 56
  319.2445 43 47
  319.247 24 26
  319.2495 24 26
  319.2521 18 20
  319.2546 16 18
  319.2571 4 4
  319.2596 10 11
  320.2184 4 4
  320.2285 4 4
  333.2376 6 7
  333.2453 4 4
  355.1715 4 4
  389.1964 4 4
  389.2159 4 4
  389.2215 4 4
  404.2593 6 7
  435.2373 4 4
  455.213 4 4
  455.2281 8 9
  455.2401 4 4
  455.2461 4 4
  460.2634 4 4
  460.2694 6 7
  460.2755 6 7
  460.2815 4 4
  460.2876 8 9
  460.2906 6 7
  460.2936 4 4
  460.2967 4 4
  460.3027 4 4
  478.2654 4 4
  478.2685 4 4
  478.2716 4 4
  478.2747 12 13
  478.2778 6 7
  478.2809 10 11
  478.2839 27 30
  478.287 12 13
  478.2901 29 32
  478.2932 18 20
  478.2963 24 26
  478.2993 33 36
  478.3024 22 24
  478.3055 27 30
  478.3086 8 9
  478.3117 22 24
  478.3148 16 18
  478.3271 6 7
  480.3165 4 4
  480.3289 4 4
  504.3146 4 4
  504.3241 4 4
  518.295 4 4
  518.3014 4 4
  526.2693 6 7
  526.2758 6 7
  526.2855 10 11
  526.2887 10 11
  526.2919 16 18
  526.2952 16 18
  526.3016 8 9
  526.3049 12 13
  526.3081 14 15
  526.3113 8 9
  544.2554 4 4
  544.2653 4 4
  544.2686 4 4
  544.2719 4 4
  544.2751 4 4
  544.2784 10 11
  544.2817 12 13
  544.285 22 24
  544.2883 6 7
  544.2916 16 18
  544.2949 35 39
  544.2982 41 45
  544.3015 24 26
  544.3047 33 36
  544.308 35 39
  544.3113 27 30
  544.3146 39 43
  544.3179 18 20
  544.3212 31 34
  544.3245 33 36
  544.3278 10 11
  544.3311 6 7
  544.3344 12 13
  544.3377 4 4
  544.3508 6 7
  587.3413 4 4
  587.3481 4 4
  587.3652 6 7
  587.3755 4 4
  587.3857 8 9
  625.3393 4 4
  625.3428 4 4
  625.3464 4 4
  625.3499 6 7
  640.4248 4 4
  641.4036 4 4
  668.3747 4 4
  668.3784 6 7
  668.3929 6 7
  668.3966 4 4
  668.4039 4 4
  668.4112 8 9
  668.4221 6 7
  668.4258 6 7
  669.3636 4 4
  669.4038 6 7
  669.4074 4 4
  669.4111 4 4
  669.4147 4 4
  669.4293 4 4
  683.3921 4 4
  683.4032 8 9
  683.4069 6 7
  683.418 6 7
  683.4253 4 4
  683.429 4 4
  683.4401 6 7
  709.3918 4 4
  709.4106 6 7
  709.4144 4 4
  709.4181 6 7
  709.4219 8 9
  709.4256 4 4
  709.4294 16 18
  709.4332 14 15
  709.4369 29 32
  709.4407 10 11
  709.4444 20 22
  709.4482 14 15
  709.4519 18 20
  709.4557 22 24
  709.4595 12 13
  709.4632 16 18
  709.467 16 18
  709.4707 20 22
  709.4745 10 11
  709.4782 6 7
  709.482 16 18
  709.4858 6 7
  709.4895 6 7
  709.4933 4 4
  709.497 4 4
  709.5008 4 4
  735.4444 8 9
  735.4559 8 9
  735.4597 6 7
  735.4712 8 9
  735.4827 12 13
  735.4904 6 7
  735.4941 4 4
  735.498 4 4
  736.4703 4 4
  767.5075 4 4
  767.5153 4 4
  778.0389 4 4
  778.0428 4 4
  778.0468 4 4
  778.0625 8 9
  778.0665 4 4
  778.0782 4 4
  778.0901 4 4
  778.094 6 7
  778.0979 4 4
  778.1097 4 4
  778.1176 6 7
  780.41 6 7
  780.4257 4 4
  780.4336 10 11
  780.4376 10 11
  780.4415 10 11
  780.4454 6 7
  780.4494 6 7
  780.4533 27 30
  780.4573 24 26
  780.4612 54 59
  780.4651 19 21
  780.4691 58 64
  780.473 141 155
  780.477 153 168
  780.4809 207 228
  780.4849 286 315
  780.4888 282 310
  780.4927 369 406
  780.4967 466 513
  780.5006 522 574
  780.5046 589 648
  780.5085 727 800
  780.5125 739 813
  780.5164 787 866
  780.5203 853 938
  780.5243 908 999
  780.5283 876 964
  780.5322 841 925
  780.5361 742 816
  780.54 810 891
  780.544 689 758
  780.5479 637 701
  780.5519 480 528
  780.5558 429 472
  780.5598 346 381
  780.5637 265 292
  780.5676 204 224
  780.5716 120 132
  780.5755 106 117
  780.5795 77 85
  780.5834 85 94
  780.5873 47 52
  780.5913 48 53
  780.5952 22 24
  780.5992 20 22
  780.6031 10 11
  780.6071 10 11
  780.611 12 13
  780.6149 4 4
  780.6426 4 4
  780.7332 4 4
  780.8712 4 4
  781.2734 4 4
  781.4785 4 4
  781.4825 4 4
  781.4865 10 11
  781.4904 6 7
  781.4943 12 13
  781.4982 10 11
  781.5022 14 15
  781.5062 18 20
  781.5101 6 7
  781.514 14 15
  781.5179 12 13
  781.5219 14 15
  781.5259 24 26
  781.5298 10 11
  781.5338 24 26
  781.5377 24 26
  781.5416 8 9
  781.5456 29 32
  781.5495 22 24
  781.5535 12 13
  781.5574 10 11
  781.5613 6 7
  781.5653 4 4
  781.5693 4 4
  781.5732 10 11
  781.5771 6 7
  781.5811 6 7
  781.589 6 7
  781.6008 4 4
  785.242 4 4
  794.5014 8 9
  794.5054 4 4
  794.5133 8 9
  794.5173 4 4
  794.5213 4 4
  794.5253 8 9
  794.5292 6 7
  794.5332 6 7
  794.5372 16 18
  794.5411 4 4
  794.5452 12 13
  794.5491 12 13
  794.5531 6 7
  794.5571 10 11
  794.561 6 7
  794.565 6 7
  794.569 6 7
  794.573 6 7
  795.4442 4 4
  795.4522 8 9
  795.4562 4 4
  795.4601 6 7
  795.4641 12 13
  795.4681 8 9
  795.4721 8 9
  795.4761 14 15
  795.48 20 22
  795.484 10 11
  795.488 4 4
  795.492 16 18
  795.496 6 7
  795.4999 8 9
  795.5039 6 7
  795.5079 8 9
  795.5119 20 22
  795.5198 8 9
  795.5238 4 4
  795.5278 8 9
  836.5157 6 7
  836.5239 4 4
  836.528 4 4
  836.5443 4 4
  854.4525 4 4
  854.4608 4 4
  854.469 4 4
  854.4772 8 9
  854.4814 4 4
  854.4937 8 9
  854.4979 12 13
  854.502 16 18
  854.5061 10 11
  854.5103 12 13
  854.5143 27 30
  854.5185 22 24
  854.5226 20 22
  854.5267 35 39
  854.5308 41 45
  854.535 37 41
  854.5391 49 54
  854.5432 65 72
  854.5474 57 63
  854.5515 57 63
  854.5556 69 76
  854.5598 57 63
  854.5638 73 80
  854.568 61 67
  854.5721 55 61
  854.5762 63 69
  854.5803 41 45
  854.5845 43 47
  854.5886 53 58
  854.5927 45 50
  854.5969 35 39
  854.601 27 30
  854.6051 22 24
  854.6092 14 15
  854.6133 12 13
  854.6175 8 9
  854.6216 8 9
  854.6257 6 7
  854.634 4 4
  854.6381 8 9
  854.6422 4 4
  854.6464 4 4
  855.5417 4 4
  855.5499 4 4
  855.5541 4 4
  855.5871 4 4
//
