ACCESSION: MSBNK-RIKEN_IMS-LQA00337
RECORD_TITLE: PI(18:0/14,15-EET); LC-ESI-QTOF; MS2
DATE: 2023.12.21 (Created 2017.09.05)
AUTHORS: Ryohei Aoyagi, Kazutaka Ikeda, Yosuke Isobe, Makoto Arita; RIKEN Center for Integrative Medical Sciences, Japan
LICENSE: CC BY
COMMENT: RIKEN oxidized phospholipids
CH$NAME: PI(18:0/14,15-EET)
CH$COMPOUND_CLASS: Oxidized Phospholipid
CH$FORMULA: C47H83O14P
CH$EXACT_MASS: 902.552047
CH$SMILES: CCCCCCCCCCCCCCCCCC(=O)OCC(COP(O)(=O)OC1C(O)C(O)C(O)C(O)C1O)OC(=O)CCC\C=C/C\C=C/C\C=C/CC1OC1CCCCC
CH$IUPAC: InChI=1S/C47H83O14P/c1-3-5-7-8-9-10-11-12-13-14-15-19-22-25-29-33-40(48)57-35-37(36-58-62(55,56)61-47-45(53)43(51)42(50)44(52)46(47)54)59-41(49)34-30-26-23-20-17-16-18-21-24-28-32-39-38(60-39)31-27-6-4-2/h16,18,20,23-24,28,37-39,42-47,50-54H,3-15,17,19,21-22,25-27,29-36H2,1-2H3,(H,55,56)/b18-16-,23-20-,28-24-
CH$LINK: INCHIKEY PJAUYMUVXITNMD-MDXJTCNISA-N
CH$LINK: PUBCHEM CID:134758151
AC$INSTRUMENT: Acquity UPLC Peptide BEH C18 column (50 x 2.1 mm; 1.7 um), Sciex TripleTOF5600
AC$INSTRUMENT_TYPE: LC-ESI-QTOF
AC$MASS_SPECTROMETRY: MS_TYPE MS2
AC$MASS_SPECTROMETRY: ION_MODE NEGATIVE
AC$MASS_SPECTROMETRY: COLLISION_ENERGY 30-50
MS$FOCUSED_ION: PRECURSOR_M/Z 901.5447679
MS$FOCUSED_ION: PRECURSOR_TYPE [M-H]-
PK$SPLASH: splash10-0udi-0010000009-ba13ae5618a72718e3df
PK$NUM_PEAK: 496
PK$PEAK: m/z int. rel.int.
  78.9553 20 3
  78.95655 41 5
  78.95906 61 8
  78.96031 31 4
  78.96157 51 6
  78.96282 31 4
  96.97121 20 3
  96.97399 20 3
  96.97677 31 4
  99.08482 20 3
  113.0912 20 3
  113.0972 31 4
  113.0987 31 4
  113.1017 31 4
  121.0966 20 3
  121.1028 20 3
  152.9872 20 3
  152.9889 41 5
  152.9906 61 8
  152.9924 133 17
  152.9941 82 10
  152.9959 82 10
  152.9976 173 22
  152.9994 61 8
  153.0011 82 10
  153.0029 51 6
  153.0064 20 3
  175.1445 31 4
  175.1463 20 3
  175.1482 31 4
  175.1501 51 6
  175.1538 51 6
  177.7534 20 3
  203.1683 20 3
  203.1723 20 3
  203.1763 20 3
  203.1804 31 4
  203.1904 20 3
  203.1924 20 3
  205.1177 20 3
  207.1333 20 3
  207.1374 20 3
  219.1226 20 3
  219.1268 20 3
  219.1289 41 5
  219.131 51 6
  219.133 82 10
  219.1351 31 4
  219.1372 71 9
  219.1393 61 8
  219.1414 102 13
  219.1435 92 12
  219.1456 71 9
  219.1518 20 3
  221.1574 20 3
  222.9804 20 3
  222.9888 31 4
  222.991 82 10
  222.9931 51 6
  222.9952 122 15
  222.9973 112 14
  222.9994 143 18
  223.0015 133 17
  223.0036 153 19
  223.0057 102 13
  223.0078 92 12
  223.0099 61 8
  223.012 31 4
  223.0141 20 3
  229.2007 21 3
  239.3897 21 3
  240.2681 21 3
  240.3075 21 3
  240.9357 21 3
  240.9882 11 1
  240.9926 11 1
  240.9948 73 9
  240.997 170 21
  240.9992 170 21
  241.0014 318 40
  241.0036 268 34
  241.0057 535 67
  241.0079 611 77
  241.0101 624 78
  241.0123 598 75
  241.0145 677 85
  241.0167 535 67
  241.0189 397 50
  241.0211 463 58
  241.0233 203 25
  241.0255 106 13
  241.0276 118 15
  241.0298 43 5
  241.032 22 3
  241.0342 11 1
  241.0386 11 1
  241.0408 11 1
  241.2402 11 1
  242.0056 21 3
  242.0232 11 1
  242.9284 11 1
  257.2159 31 4
  257.2182 51 6
  257.2204 82 10
  257.2227 112 14
  257.225 92 12
  257.2272 71 9
  257.2295 61 8
  257.2318 41 5
  257.234 51 6
  257.2363 20 3
  257.2386 20 3
  257.2408 51 6
  259.0045 31 4
  259.0067 31 4
  259.009 20 3
  259.0135 61 8
  259.0158 61 8
  259.0181 61 8
  259.0204 41 5
  259.0226 31 4
  259.0249 51 6
  259.0272 31 4
  259.0294 20 3
  259.0317 20 3
  259.034 31 4
  275.2232 20 3
  275.2256 20 3
  275.2279 20 3
  275.2349 31 4
  275.2396 31 4
  275.2419 31 4
  275.2443 31 4
  282.3804 31 4
  282.4872 21 3
  282.5607 21 3
  283.1539 21 3
  283.2133 21 3
  283.2275 21 3
  283.2394 42 5
  283.2418 114 14
  283.2441 84 11
  283.2465 137 17
  283.2489 172 22
  283.2513 259 32
  283.2537 313 39
  283.256 412 52
  283.2584 453 57
  283.2608 693 87
  283.2632 510 64
  283.2655 958 120
  283.2679 836 105
  283.2703 642 80
  283.2726 565 71
  283.275 412 52
  283.2774 268 34
  283.2798 206 26
  283.2821 97 12
  283.2845 87 11
  283.2869 22 3
  283.2893 33 4
  283.2916 53 7
  283.294 11 1
  283.2964 11 1
  283.2988 11 1
  283.3201 11 1
  283.3273 11 1
  284.2709 20 3
  284.2828 31 4
  286.0054 11 1
  297.0264 31 4
  297.0288 51 6
  297.0313 82 10
  297.0337 82 10
  297.0361 51 6
  297.0386 92 12
  297.041 102 13
  297.0434 82 10
  297.0459 51 6
  297.0483 20 3
  297.0507 20 3
  297.0556 20 3
  297.058 20 3
  297.0629 20 3
  301.1968 20 3
  301.2041 61 8
  301.2066 71 9
  301.209 102 13
  301.2115 163 20
  301.2139 82 10
  301.2164 133 17
  301.2188 153 19
  301.2213 143 18
  301.2237 102 13
  301.2262 61 8
  301.2286 92 12
  301.236 31 4
  301.2384 31 4
  301.2458 20 3
  315.0357 41 5
  315.0382 20 3
  315.0407 20 3
  315.0433 20 3
  315.0457 51 6
  315.0483 31 4
  315.0508 20 3
  315.0533 61 8
  315.0558 31 4
  315.0583 20 3
  315.0608 31 4
  315.0633 41 5
  317.2158 21 3
  318.6523 21 3
  318.8539 21 3
  319.1916 31 4
  319.2017 31 4
  319.2067 62 8
  319.2092 105 13
  319.2118 168 21
  319.2143 251 31
  319.2168 148 19
  319.2193 296 37
  319.2218 369 46
  319.2244 307 38
  319.2269 486 61
  319.2294 392 49
  319.2319 402 50
  319.2344 328 41
  319.237 147 18
  319.2395 233 29
  319.242 169 21
  319.2445 117 15
  319.247 74 9
  319.2496 11 1
  319.2521 11 1
  319.2546 31 4
  319.2571 11 1
  319.2622 11 1
  320.2108 11 1
  320.2133 21 3
  399.1971 21 3
  399.2169 21 3
  417.9335 21 3
  417.9594 21 3
  419.1661 21 3
  419.218 20 3
  419.2267 20 3
  419.2296 62 8
  419.2325 104 13
  419.2354 104 13
  419.2383 210 26
  419.2412 127 16
  419.2441 211 26
  419.2469 261 33
  419.2498 254 32
  419.2527 403 50
  419.2556 381 48
  419.2585 425 53
  419.2614 424 53
  419.2643 339 42
  419.2672 296 37
  419.2701 360 45
  419.2729 255 32
  419.2758 191 24
  419.2787 85 11
  419.2816 85 11
  419.2845 42 5
  419.2874 64 8
  419.2903 20 3
  419.3047 11 1
  420.2732 11 1
  420.279 20 3
  420.2848 11 1
  437.244 20 3
  437.2529 31 4
  437.2559 41 5
  437.2617 41 5
  437.2647 31 4
  437.2677 51 6
  437.2706 31 4
  437.2765 20 3
  437.2794 20 3
  437.2824 41 5
  437.2854 31 4
  437.2883 20 3
  437.2913 20 3
  455.1978 20 3
  455.2068 31 4
  455.2099 51 6
  455.2129 51 6
  455.2159 71 9
  455.2189 41 5
  455.2219 41 5
  455.2249 51 6
  455.2279 20 3
  455.2309 82 10
  455.2339 31 4
  455.2369 20 3
  455.24 31 4
  509.7281 20 3
  543.2747 21 3
  558.8849 20 3
  560.1232 20 3
  561.2692 21 3
  562.9451 21 3
  579.8048 21 3
  581.253 31 4
  581.2666 51 6
  581.2734 22 3
  581.2769 63 8
  581.2802 74 9
  581.2836 73 9
  581.287 199 25
  581.2905 159 20
  581.2938 286 36
  581.2972 332 42
  581.3007 351 44
  581.3041 418 52
  581.3074 398 50
  581.3109 418 52
  581.3143 352 44
  581.3177 385 48
  581.321 330 41
  581.3245 404 51
  581.3279 246 31
  581.3313 235 29
  581.3347 298 37
  581.3381 148 19
  581.3415 86 11
  581.3449 54 7
  581.3483 74 9
  581.3517 42 5
  581.3551 21 3
  581.3619 31 4
  581.3653 22 3
  581.3755 11 1
  581.4061 11 1
  599.27 20 3
  599.2873 31 4
  599.2908 41 5
  599.2942 41 5
  599.2977 61 8
  599.3011 71 9
  599.3046 112 14
  599.308 133 17
  599.3115 112 14
  599.3149 61 8
  599.3184 133 17
  599.3218 184 23
  599.3253 92 12
  599.3287 112 14
  599.3322 41 5
  599.3356 122 15
  599.3391 51 6
  599.3426 61 8
  599.3495 82 10
  599.3529 20 3
  599.3598 31 4
  600.3344 20 3
  617.236 31 4
  617.2394 20 3
  617.2465 20 3
  617.25 61 8
  617.2535 51 6
  617.257 51 6
  617.2605 51 6
  617.264 71 9
  617.2675 102 13
  617.271 71 9
  617.2745 92 12
  617.278 61 8
  617.2816 112 14
  617.285 61 8
  617.2885 41 5
  617.2921 41 5
  617.2955 61 8
  617.2991 51 6
  617.3026 20 3
  617.3096 41 5
  617.3131 20 3
  635.2716 20 3
  635.2823 20 3
  635.3107 20 3
  739.4748 20 3
  739.4863 20 3
  739.4978 20 3
  739.5016 20 3
  739.5247 20 3
  898.6155 31 4
  898.6663 41 5
  898.6705 31 4
  898.6747 20 3
  898.6959 20 3
  898.7001 31 4
  898.7043 31 4
  898.7086 51 6
  898.717 20 3
  898.7213 51 6
  898.7255 31 4
  898.7297 20 3
  898.7339 71 9
  898.7424 41 5
  898.7466 20 3
  898.7509 20 3
  898.7551 31 4
  898.7678 41 5
  900.6553 20 3
  901.0365 20 3
  901.2483 20 3
  901.3584 20 3
  901.3711 20 3
  901.4008 20 3
  901.4219 20 3
  901.4347 20 3
  901.4431 31 4
  901.4813 50 6
  901.4855 188 24
  901.4897 321 40
  901.494 589 74
  901.4982 708 89
  901.5024 1051 132
  901.5067 1412 177
  901.5109 1717 215
  901.5151 2158 270
  901.5194 2841 356
  901.5236 3652 457
  901.5279 5171 648
  901.5321 5688 713
  901.5363 6871 861
  901.5406 7115 891
  901.5448 7199 902
  901.5491 7195 901
  901.5533 7557 947
  901.5575 7975 999
  901.5618 6968 873
  901.566 7662 960
  901.5703 7002 877
  901.5745 5478 686
  901.5787 4335 543
  901.5829 3476 435
  901.5872 2991 375
  901.5914 1783 223
  901.5956 1584 198
  901.5999 1102 138
  901.6041 508 64
  901.6083 540 68
  901.6126 187 23
  901.6168 337 42
  901.6211 220 28
  901.6253 77 10
  901.6296 58 7
  901.6338 110 14
  901.638 27 3
  901.6677 22 3
  901.71 19 2
  902.1253 24 3
  902.2482 31 4
  902.2567 21 3
  902.3839 20 3
  902.4474 25 3
  902.4771 21 3
  902.4898 52 7
  902.4941 31 4
  902.4983 83 10
  902.5025 51 6
  902.5068 72 9
  902.511 53 7
  902.5153 73 9
  902.5195 229 29
  902.5237 177 22
  902.528 197 25
  902.5322 207 26
  902.5364 253 32
  902.5407 179 22
  902.5449 209 26
  902.5491 157 20
  902.5534 201 25
  902.5576 210 26
  902.5619 251 31
  902.5661 198 25
  902.5704 199 25
  902.5746 219 27
  902.5789 166 21
  902.5831 115 14
  902.5873 126 16
  902.5916 82 10
  902.5958 84 11
  902.6 31 4
  902.6042 72 9
  902.6085 11 1
  902.6127 41 5
  902.6212 31 4
  902.6339 20 3
  904.5086 20 3
  908.387 20 3
  910.8765 20 3
//
