ACCESSION: MSBNK-RIKEN_IMS-LQA00130
RECORD_TITLE: PC(18:1/12-HEPE); LC-ESI-QTOF; MS2
DATE: 2023.12.21 (Created 2017.09.05)
AUTHORS: Ryohei Aoyagi, Kazutaka Ikeda, Yosuke Isobe, Makoto Arita; RIKEN Center for Integrative Medical Sciences, Japan
LICENSE: CC BY
COMMENT: RIKEN oxidized phospholipids
CH$NAME: PC(18:1/12-HEPE)
CH$COMPOUND_CLASS: Oxidized Phospholipid
CH$FORMULA: C46H80NO9P
CH$EXACT_MASS: 821.557067
CH$SMILES: CCCCCCCC\C=C/CCCCCCCC(=O)OCC(COP([O-])(=O)OCC[N+](C)(C)C)OC(=O)CCC\C=C/C\C=C/C=C/C(O)C\C=C/C\C=C/CC
CH$IUPAC: InChI=1S/C46H80NO9P/c1-6-8-10-12-14-15-16-17-18-19-20-21-25-29-33-37-45(49)53-41-44(42-55-57(51,52)54-40-39-47(3,4)5)56-46(50)38-34-30-26-23-22-24-28-32-36-43(48)35-31-27-13-11-9-7-2/h9,11,17-18,23-24,26-28,31-32,36,43-44,48H,6-8,10,12-16,19-22,25,29-30,33-35,37-42H2,1-5H3/b11-9-,18-17-,26-23-,28-24-,31-27-,36-32+
CH$LINK: INCHIKEY RBQXRFUMGLEXMW-KFCLTFNGSA-N
CH$LINK: PUBCHEM CID:134763142
AC$INSTRUMENT: Acquity UPLC Peptide BEH C18 column (50 x 2.1 mm; 1.7 um), Sciex TripleTOF5600
AC$INSTRUMENT_TYPE: LC-ESI-QTOF
AC$MASS_SPECTROMETRY: MS_TYPE MS2
AC$MASS_SPECTROMETRY: ION_MODE NEGATIVE
AC$MASS_SPECTROMETRY: COLLISION_ENERGY 30-50
MS$FOCUSED_ION: PRECURSOR_M/Z 880.5709227
MS$FOCUSED_ION: PRECURSOR_TYPE [M+CH3COOH-H]-
PK$SPLASH: splash10-0a4i-0022000090-46706c54271256606023
PK$NUM_PEAK: 640
PK$PEAK: m/z int. rel.int.
  78.95772 31 5
  78.96274 51 9
  78.96399 20 3
  78.9665 61 10
  107.0883 41 7
  107.0927 20 3
  109.098 41 7
  109.0995 41 7
  109.101 41 7
  109.1025 51 9
  109.1039 31 5
  109.1054 61 10
  109.1069 20 3
  135.1125 20 3
  135.1141 41 7
  135.1158 31 5
  135.1174 82 14
  135.119 41 7
  135.1207 61 10
  135.1223 41 7
  135.1256 20 3
  135.1272 20 3
  137.0976 20 3
  137.101 51 9
  149.13 20 3
  149.1334 20 3
  152.9901 20 3
  152.9971 41 7
  152.9989 20 3
  153.0024 20 3
  163.1049 31 5
  163.1086 31 5
  163.1122 31 5
  163.114 20 3
  163.1158 31 5
  163.1176 31 5
  163.1194 41 7
  168.0322 20 3
  168.0358 20 3
  168.0377 41 7
  168.0395 102 18
  168.0413 71 12
  168.0432 102 18
  168.045 51 9
  168.0468 61 10
  168.0486 31 5
  168.0505 61 10
  168.0523 61 10
  168.0541 20 3
  176.1986 21 4
  177.125 21 4
  179.0437 21 4
  179.0928 31 5
  179.0947 21 4
  179.0965 62 11
  179.0984 95 16
  179.1003 104 18
  179.1022 249 43
  179.1041 354 61
  179.106 356 61
  179.1079 480 83
  179.1098 396 68
  179.1116 344 59
  179.1135 281 48
  179.1154 188 32
  179.1173 167 29
  179.1192 104 18
  179.1211 104 18
  179.123 42 7
  179.1249 42 7
  179.1268 21 4
  179.1305 20 3
  179.1438 11 2
  179.1513 21 4
  180.1082 20 3
  180.1139 20 3
  182.0562 20 3
  201.1573 20 3
  201.1593 20 3
  201.1633 31 5
  201.1673 41 7
  201.1693 20 3
  201.1733 20 3
  201.1753 20 3
  207.0959 31 5
  207.098 31 5
  207.1 61 10
  207.102 82 14
  207.1041 102 18
  207.1061 20 3
  207.1081 71 12
  207.1102 51 9
  207.1122 20 3
  208.0961 31 5
  208.1002 41 7
  208.1023 92 16
  208.1043 122 21
  208.1063 173 30
  208.1084 112 19
  208.1104 245 42
  208.1124 163 28
  208.1145 265 46
  208.1165 112 19
  208.1185 82 14
  208.1206 102 18
  208.1226 82 14
  208.1246 71 12
  208.1267 20 3
  208.1287 20 3
  208.1348 20 3
  209.1212 20 3
  224.0574 20 3
  224.0616 41 7
  224.0637 51 9
  224.0659 82 14
  224.068 102 18
  224.0701 133 23
  224.0722 133 23
  224.0743 133 23
  224.0764 82 14
  224.0785 41 7
  224.0827 61 10
  227.1813 20 3
  253.1577 21 4
  255.1889 41 7
  255.198 51 9
  255.2002 113 19
  255.2025 123 21
  255.2047 154 27
  255.207 205 35
  255.2092 319 55
  255.2115 339 58
  255.2137 236 41
  255.216 246 42
  255.2182 235 40
  255.2205 143 25
  255.2227 72 12
  255.225 51 9
  255.2273 51 9
  255.2295 31 5
  255.2318 20 3
  273.2032 20 3
  273.2126 20 3
  273.2172 31 5
  273.2196 20 3
  273.2219 51 9
  273.2242 31 5
  273.2266 71 12
  273.2289 31 5
  280.3296 21 4
  280.3626 20 3
  280.3721 22 4
  280.3744 20 3
  280.3815 42 7
  280.3981 22 4
  280.658 22 4
  280.9157 23 4
  281.1404 22 4
  281.2138 21 4
  281.2209 11 2
  281.2232 11 2
  281.2256 55 9
  281.228 149 26
  281.2303 116 20
  281.2327 313 54
  281.2351 571 98
  281.2374 790 136
  281.2398 1386 239
  281.2422 1283 221
  281.2445 1796 309
  281.2469 2173 374
  281.2493 2048 353
  281.2516 1951 336
  281.254 2014 347
  281.2563 1328 229
  281.2587 1185 204
  281.2611 891 153
  281.2635 617 106
  281.2658 321 55
  281.2682 131 23
  281.2706 153 26
  281.2729 107 18
  281.2753 108 19
  281.2776 60 10
  281.2824 36 6
  281.2848 13 2
  281.2942 12 2
  281.3534 12 2
  281.7796 12 2
  282.1041 12 2
  282.1231 21 4
  282.2416 11 2
  282.2511 31 5
  282.2534 20 3
  282.2558 24 4
  289.2249 21 4
  293.3185 20 3
  298.32 21 4
  298.3785 21 4
  299.1175 21 4
  299.1785 20 3
  299.1809 21 4
  299.1834 52 9
  299.1858 186 32
  299.1883 145 25
  299.1907 73 13
  299.1931 230 40
  299.1956 292 50
  299.198 261 45
  299.2005 313 54
  299.2029 303 52
  299.2054 219 38
  299.2078 292 50
  299.2102 333 57
  299.2126 209 36
  299.2151 156 27
  299.2176 145 25
  299.22 52 9
  299.2224 42 7
  299.2273 31 5
  299.2297 11 2
  299.2322 20 3
  299.2346 31 5
  316.2073 31 5
  316.2123 20 3
  316.2198 20 3
  316.2374 20 3
  317.0459 22 4
  317.1765 11 2
  317.179 59 10
  317.1815 44 8
  317.1841 22 4
  317.1866 68 12
  317.1891 150 26
  317.1916 203 35
  317.1941 243 42
  317.1966 579 100
  317.1991 937 161
  317.2017 1386 239
  317.2042 1661 286
  317.2067 1719 296
  317.2092 2468 425
  317.2117 2286 393
  317.2142 2266 390
  317.2167 2277 392
  317.2192 1960 337
  317.2218 1410 243
  317.2243 1003 173
  317.2268 871 150
  317.2293 460 79
  317.2318 383 66
  317.2343 172 30
  317.2368 172 30
  317.2393 61 10
  317.2419 49 8
  317.2444 72 12
  317.2469 25 4
  317.2494 37 6
  317.2519 23 4
  317.3474 13 2
  317.5008 12 2
  318.2026 20 3
  318.2051 20 3
  318.2076 41 7
  318.2126 20 3
  318.2152 54 9
  318.2303 20 3
  331.2196 41 7
  331.2222 31 5
  331.2248 41 7
  331.2273 51 9
  331.2299 31 5
  331.235 41 7
  331.2376 61 10
  331.2402 31 5
  331.2427 20 3
  417.219 20 3
  417.2306 31 5
  417.2363 41 7
  417.2392 82 14
  417.2421 31 5
  417.245 71 12
  417.2478 41 7
  417.2507 41 7
  417.2536 20 3
  417.2565 20 3
  417.268 20 3
  432.2873 31 5
  432.2903 20 3
  432.302 31 5
  435.2347 20 3
  435.2465 51 9
  435.2612 20 3
  435.2671 20 3
  435.2701 20 3
  435.273 20 3
  445.235 20 3
  445.2707 20 3
  447.0291 20 3
  449.1227 20 3
  453.2076 20 3
  453.2106 41 7
  453.2136 31 5
  453.2196 20 3
  463.2805 20 3
  488.2905 20 3
  488.2936 20 3
  488.2967 51 9
  488.2998 20 3
  488.3029 51 9
  488.3061 71 12
  488.3092 92 16
  488.3123 112 19
  488.3154 51 9
  488.3185 92 16
  488.3217 153 26
  488.3248 92 16
  488.3279 71 12
  488.331 41 7
  488.3341 41 7
  488.3372 41 7
  488.3404 61 10
  496.0031 21 4
  505.3132 21 4
  506.2589 21 4
  506.2811 21 4
  506.2842 31 5
  506.2874 62 11
  506.2906 84 14
  506.2938 136 23
  506.2969 85 15
  506.3001 168 29
  506.3033 171 29
  506.3065 286 49
  506.3096 257 44
  506.3128 330 57
  506.316 289 50
  506.3192 480 83
  506.3223 354 61
  506.3255 460 79
  506.3287 493 85
  506.3318 514 88
  506.335 354 61
  506.3382 289 50
  506.3414 246 42
  506.3446 236 41
  506.3477 193 33
  506.3509 215 37
  506.3541 149 26
  506.3573 32 6
  506.3604 43 7
  506.3636 42 7
  506.3668 46 8
  506.3763 11 2
  506.3795 11 2
  507.3452 11 2
  520.3335 20 3
  521.2834 20 3
  521.2866 20 3
  521.306 31 5
  524.2513 41 7
  524.2578 41 7
  524.261 51 9
  524.2643 51 9
  524.2675 82 14
  524.2708 31 5
  524.274 31 5
  524.2772 51 9
  524.2836 61 10
  524.2869 41 7
  524.2901 20 3
  524.2933 31 5
  524.2998 31 5
  532.3329 20 3
  542.259 20 3
  542.2722 51 9
  542.2755 20 3
  542.2787 20 3
  542.2853 41 7
  542.2886 51 9
  542.2919 31 5
  542.2984 31 5
  542.3083 41 7
  615.3582 41 7
  615.3687 31 5
  615.3757 20 3
  615.3897 20 3
  615.4002 41 7
  615.4072 41 7
  615.4107 31 5
  615.4142 31 5
  615.4213 31 5
  615.4282 20 3
  696.3953 20 3
  696.4065 20 3
  696.4103 20 3
  696.4139 20 3
  696.4214 20 3
  696.4251 20 3
  696.4326 31 5
  696.4438 31 5
  696.4736 20 3
  697.4271 31 5
  697.4308 31 5
  697.4383 31 5
  697.4532 20 3
  711.4177 20 3
  711.4327 20 3
  711.4402 20 3
  711.4478 20 3
  711.4741 20 3
  711.4891 21 4
  721.4597 21 4
  734.1885 21 4
  735.401 20 3
  735.4086 62 11
  735.4163 82 14
  735.4201 41 7
  735.424 41 7
  735.4278 144 25
  735.4316 125 22
  735.4354 124 21
  735.4393 178 31
  735.4431 187 32
  735.4469 125 22
  735.4507 262 45
  735.4546 199 34
  735.4584 229 39
  735.4622 273 47
  735.4661 271 47
  735.4698 189 33
  735.4737 230 40
  735.4775 177 30
  735.4813 189 33
  735.4852 145 25
  735.489 156 27
  735.4928 52 9
  735.4966 155 27
  735.5005 41 7
  735.5043 31 5
  735.512 31 5
  743.4466 20 3
  761.463 51 9
  761.4669 20 3
  761.4708 41 7
  761.4747 31 5
  761.4786 31 5
  761.4863 61 10
  761.4902 31 5
  761.4941 51 9
  761.498 51 9
  761.5058 20 3
  761.5097 20 3
  761.5214 20 3
  762.4678 31 5
  762.4951 20 3
  762.499 20 3
  762.5224 20 3
  803.9133 20 3
  803.9573 31 5
  803.9612 20 3
  803.9692 31 5
  803.9772 31 5
  803.9933 31 5
  804.0052 41 7
  804.0132 31 5
  804.0173 20 3
  804.0293 31 5
  804.0333 20 3
  805.5223 20 3
  805.5383 20 3
  805.5503 20 3
  805.5984 20 3
  805.6104 20 3
  806.3875 20 3
  806.4636 20 3
  806.4756 39 7
  806.4797 234 40
  806.4836 285 49
  806.4877 594 102
  806.4917 866 149
  806.4957 797 137
  806.4997 1351 233
  806.5037 1391 239
  806.5077 1942 334
  806.5117 2317 399
  806.5157 3232 556
  806.5197 4717 812
  806.5237 4510 776
  806.5277 5608 965
  806.5317 5078 874
  806.5358 5765 992
  806.5397 5694 980
  806.5438 5672 976
  806.5478 5617 967
  806.5518 5804 999
  806.5558 4741 816
  806.5598 3599 619
  806.5638 2952 508
  806.5678 2347 404
  806.5718 1354 233
  806.5758 1250 215
  806.5798 593 102
  806.5839 628 108
  806.5878 415 71
  806.5919 448 77
  806.5959 110 19
  806.5999 111 19
  806.6039 85 15
  806.6079 104 18
  806.6119 60 10
  806.6359 18 3
  806.6559 17 3
  806.8844 18 3
  806.9084 20 3
  807.0126 20 3
  807.3774 15 3
  807.4697 20 3
  807.4857 20 3
  807.4937 41 7
  807.4977 20 3
  807.5018 31 5
  807.5057 51 9
  807.5138 71 12
  807.5178 92 16
  807.5218 92 16
  807.5258 51 9
  807.5298 82 14
  807.5338 102 18
  807.5378 102 18
  807.5419 122 21
  807.5458 133 23
  807.5499 102 18
  807.5539 173 30
  807.5579 112 19
  807.5619 61 10
  807.5659 92 16
  807.5699 41 7
  807.5739 71 12
  807.5779 51 9
  807.582 31 5
  807.5859 20 3
  807.59 31 5
  807.9669 20 3
  815.8267 20 3
  818.5856 20 3
  820.48 20 3
  820.4881 20 3
  820.5002 20 3
  820.5123 20 3
  820.5164 41 7
  820.5204 71 12
  820.5245 41 7
  820.5285 51 9
  820.5325 71 12
  820.5366 51 9
  820.5406 71 12
  820.5447 82 14
  820.5487 112 19
  820.5528 71 12
  820.5568 41 7
  820.5609 102 18
  820.5649 71 12
  820.569 51 9
  820.573 71 12
  820.577 41 7
  820.5811 71 12
  820.5851 102 18
  820.5892 31 5
  820.5932 20 3
  820.5972 31 5
  820.6053 41 7
  821.4382 31 5
  821.4422 31 5
  821.4543 20 3
  821.4584 20 3
  821.4664 41 7
  821.4705 41 7
  821.4745 102 18
  821.4786 41 7
  821.4826 41 7
  821.4867 61 10
  821.4907 82 14
  821.4948 31 5
  821.4988 51 9
  821.5029 61 10
  821.5069 122 21
  821.5109 102 18
  821.515 71 12
  821.519 102 18
  821.5271 71 12
  821.5312 82 14
  821.5352 41 7
  821.5392 51 9
  821.5433 31 5
  821.5554 20 3
  821.5594 20 3
  821.5635 20 3
  877.8284 21 4
  880.485 20 3
  880.4891 20 3
  880.4933 52 9
  880.5017 41 7
  880.5101 93 16
  880.5143 105 18
  880.5185 62 11
  880.5226 73 13
  880.5269 139 24
  880.531 151 26
  880.5352 236 41
  880.5394 151 26
  880.5436 141 24
  880.5478 270 46
  880.5519 313 54
  880.5562 423 73
  880.5604 412 71
  880.5645 489 84
  880.5687 369 64
  880.5729 436 75
  880.5771 480 83
  880.5813 402 69
  880.5854 391 67
  880.5897 532 92
  880.5938 337 58
  880.598 323 56
  880.6022 349 60
  880.6064 247 43
  880.6106 205 35
  880.6147 184 32
  880.619 152 26
  880.6232 120 21
  880.6273 87 15
  880.6315 32 6
  880.6357 55 9
  880.6399 66 11
  880.6441 23 4
  881.1718 11 2
  881.5613 20 3
  881.5739 20 3
  881.5864 20 3
//
