ACCESSION: MSBNK-RIKEN_IMS-LQB00749
RECORD_TITLE: SM d40:1; LC-ESI-QTOF; MS2
DATE: 2023.12.21 (Created 2016.10.03)
AUTHORS: Kazutaka Ikeda, Hiroshi Tsugawa, Makoto Arita, RIKEN Center for Integrative Medical Sciences, Japan
LICENSE: CC BY
COPYRIGHT: Copyright(C) 2017 RIKEN IMS
COMMENT: Found in mouse kidney; TwoDicalId=200; MgfFile=160827_Kidney_normal_Neg_03; MgfId=1956
CH$NAME: SM d40:1
CH$COMPOUND_CLASS: SM
CH$FORMULA: C45H91N2O6P
CH$EXACT_MASS: 786.661467
CH$SMILES: CCCCCCCCCCCCCCCCCCCCCC(=O)NC(COP([O-])(=O)OCC[N+](C)(C)C)C(O)\C=C\CCCCCCCCCCCCC
CH$IUPAC: InChI=1S/C45H91N2O6P/c1-6-8-10-12-14-16-18-20-21-22-23-24-25-27-29-31-33-35-37-39-45(49)46-43(42-53-54(50,51)52-41-40-47(3,4)5)44(48)38-36-34-32-30-28-26-19-17-15-13-11-9-7-2/h36,38,43-44,48H,6-35,37,39-42H2,1-5H3,(H-,46,49,50,51)/b38-36+
CH$LINK: INCHIKEY FJJANLYCZUNFSE-BSKJHSHCSA-N
CH$LINK: PUBCHEM CID:13832231
AC$INSTRUMENT: AB Sciex TripleTOF 5600+ system (Q-TOF) equipped with a DuoSpray ion source
AC$INSTRUMENT_TYPE: LC-ESI-QTOF
AC$MASS_SPECTROMETRY: MS_TYPE MS2
AC$MASS_SPECTROMETRY: ION_MODE NEGATIVE
AC$MASS_SPECTROMETRY: COLLISION_ENERGY 45V
AC$CHROMATOGRAPHY: COLUMN_NAME Acquity UPLC Peptide BEH C18 column (50*2.1 mm; 1.7 um; 130A)(Waters Co.,Milford, MA, USA)
AC$CHROMATOGRAPHY: COLUMN_TEMPERATURE 45 C
AC$CHROMATOGRAPHY: FLOW_GRADIENT 0 min 0% B; 1 min 0% B; 5 min 40% B; 7.5 min 64% B; 12.0 min 64% B; 12.5 min 82.5% B, 19 min 85% B; 20 min 95% B; 20.1 min 0% B; 25 min 0% B.
AC$CHROMATOGRAPHY: FLOW_RATE 0.3 mL/min
AC$CHROMATOGRAPHY: RETENTION_TIME 12.20563
AC$CHROMATOGRAPHY: SOLVENT A 1:1:3 acetonitrile:methanol:water (v/v/v) with 5 mM ammonium acetate and 10 nM EDTA.
AC$CHROMATOGRAPHY: SOLVENT B 100% isopropanol with 5 mM ammonium acetate and 10 nM EDTA.
MS$FOCUSED_ION: PRECURSOR_TYPE [M+CH3COOH-H]-
MS$FOCUSED_ION: PRECURSOR_M/Z 845.6702
PK$SPLASH: splash10-00di-0000000900-8912d31ca8b7b786b499
PK$NUM_PEAK: 46
PK$PEAK: m/z int. rel.int.
  78.959 1089 11
  89.027 30 0
  96.97 50 0
  113.025 20 0
  119.04 20 0
  122.702 20 0
  122.986 101 1
  130.001 21 0
  161.047 21 0
  167.525 21 0
  167.678 21 0
  168.043 3563 37
  339.333 30 0
  381.361 30 0
  431.299 53 0
  449.293 111 1
  449.315 152 1
  500.502 20 0
  504.875 20 0
  512.14 20 0
  618.565 90 0
  619.564 141 1
  636.573 30 0
  637.592 41 0
  682.532 74 0
  700.539 214 2
  700.572 101 1
  726.56 110 1
  769.119 70 0
  769.19 255 2
  769.228 63 0
  771.378 75 0
  771.621 95196 999
  772.603 172 1
  772.643 131 1
  786.571 623 6
  786.602 265 2
  798.642 100 1
  799.591 154 1
  799.627 479 5
  799.666 152 1
  845.622 321 3
  845.633 588 6
  845.66 2247 23
  845.694 416 4
  845.725 144 1
//
