ACCESSION: MSBNK-RIKEN_IMS-LQB00558
RECORD_TITLE: PE 32:0; LC-ESI-QTOF; MS2
DATE: 2023.12.21 (Created 2016.10.03)
AUTHORS: Kazutaka Ikeda, Hiroshi Tsugawa, Makoto Arita, RIKEN Center for Integrative Medical Sciences, Japan
LICENSE: CC BY
COPYRIGHT: Copyright(C) 2017 RIKEN IMS
COMMENT: Found in mouse spleen; TwoDicalId=317; MgfFile=160729_spleen_AA_16_Neg; MgfId=1135
CH$NAME: PE 32:0
CH$COMPOUND_CLASS: PE
CH$FORMULA: C37H74NO8P
CH$EXACT_MASS: 691.515202
CH$SMILES: CCCCCCCCCCCCCCCC(=O)OCC(COP(O)(=O)OCCN)OC(=O)CCCCCCCCCCCCCCC
CH$IUPAC: InChI=1S/C37H74NO8P/c1-3-5-7-9-11-13-15-17-19-21-23-25-27-29-36(39)43-33-35(34-45-47(41,42)44-32-31-38)46-37(40)30-28-26-24-22-20-18-16-14-12-10-8-6-4-2/h35H,3-34,38H2,1-2H3,(H,41,42)
CH$LINK: INCHIKEY SLKDGVPOSSLUAI-UHFFFAOYSA-N
CH$LINK: PUBCHEM CID:65109
AC$INSTRUMENT: AB Sciex TripleTOF 5600+ system (Q-TOF) equipped with a DuoSpray ion source
AC$INSTRUMENT_TYPE: LC-ESI-QTOF
AC$MASS_SPECTROMETRY: MS_TYPE MS2
AC$MASS_SPECTROMETRY: ION_MODE NEGATIVE
AC$MASS_SPECTROMETRY: COLLISION_ENERGY 45V
AC$CHROMATOGRAPHY: COLUMN_NAME Acquity UPLC Peptide BEH C18 column (50*2.1 mm; 1.7 um; 130A)(Waters Co.,Milford, MA, USA)
AC$CHROMATOGRAPHY: COLUMN_TEMPERATURE 45 C
AC$CHROMATOGRAPHY: FLOW_GRADIENT 0 min 0% B; 1 min 0% B; 5 min 40% B; 7.5 min 64% B; 12.0 min 64% B; 12.5 min 82.5% B, 19 min 85% B; 20 min 95% B; 20.1 min 0% B; 25 min 0% B.
AC$CHROMATOGRAPHY: FLOW_RATE 0.3 mL/min
AC$CHROMATOGRAPHY: RETENTION_TIME 9.916547
AC$CHROMATOGRAPHY: SOLVENT A 1:1:3 acetonitrile:methanol:water (v/v/v) with 5 mM ammonium acetate and 10 nM EDTA.
AC$CHROMATOGRAPHY: SOLVENT B 100% isopropanol with 5 mM ammonium acetate and 10 nM EDTA.
MS$FOCUSED_ION: PRECURSOR_TYPE [M-H]-
MS$FOCUSED_ION: PRECURSOR_M/Z 690.5115
PK$SPLASH: splash10-0a4i-0090002000-eef003c210add4b26f1c
PK$NUM_PEAK: 17
PK$PEAK: m/z int. rel.int.
  140.009 62 8
  196.037 112 14
  207.354 21 2
  214.049 21 2
  227.202 143 19
  254.448 30 4
  255.234 7479 999
  256.234 24 3
  283.259 65 8
  390.449 20 2
  434.261 60 8
  452.272 267 35
  452.303 40 5
  690.453 70 9
  690.48 429 57
  690.508 938 125
  690.527 735 98
//
