ACCESSION: MSBNK-RIKEN_IMS-LQA00341
RECORD_TITLE: PI(18:0/15-HETE); LC-ESI-QTOF; MS2
DATE: 2023.12.21 (Created 2017.09.05)
AUTHORS: Ryohei Aoyagi, Kazutaka Ikeda, Yosuke Isobe, Makoto Arita; RIKEN Center for Integrative Medical Sciences, Japan
LICENSE: CC BY
COMMENT: RIKEN oxidized phospholipids
CH$NAME: PI(18:0/15-HETE)
CH$COMPOUND_CLASS: Oxidized Phospholipid
CH$FORMULA: C47H83O14P
CH$EXACT_MASS: 902.552047
CH$SMILES: CCCCCCCCCCCCCCCCCC(=O)OCC(COP(O)(=O)OC1C(O)C(O)C(O)C(O)C1O)OC(=O)CCC\C=C/C\C=C/C\C=C/C=C/C(O)CCCCC
CH$IUPAC: InChI=1S/C47H83O14P/c1-3-5-7-8-9-10-11-12-13-14-17-20-23-26-30-34-40(49)58-36-39(37-59-62(56,57)61-47-45(54)43(52)42(51)44(53)46(47)55)60-41(50)35-31-27-24-21-18-15-16-19-22-25-29-33-38(48)32-28-6-4-2/h15-16,21-22,24-25,29,33,38-39,42-48,51-55H,3-14,17-20,23,26-28,30-32,34-37H2,1-2H3,(H,56,57)/b16-15-,24-21-,25-22-,33-29+
CH$LINK: INCHIKEY HNBUAJVKBGPCHT-RROHPHJISA-N
CH$LINK: PUBCHEM CID:134735825
AC$INSTRUMENT: Acquity UPLC Peptide BEH C18 column (50 x 2.1 mm; 1.7 um), Sciex TripleTOF5600
AC$INSTRUMENT_TYPE: LC-ESI-QTOF
AC$MASS_SPECTROMETRY: MS_TYPE MS2
AC$MASS_SPECTROMETRY: ION_MODE NEGATIVE
AC$MASS_SPECTROMETRY: COLLISION_ENERGY 30-50
MS$FOCUSED_ION: PRECURSOR_M/Z 901.5447679
MS$FOCUSED_ION: PRECURSOR_TYPE [M-H]-
PK$SPLASH: splash10-0udi-0021000009-18a25b022dd4311f4ffe
PK$NUM_PEAK: 1108
PK$PEAK: m/z int. rel.int.
  70.31281 21 1
  78.95393 62 2
  78.95518 73 3
  78.95644 72 3
  78.95769 146 6
  78.95894 238 10
  78.9602 227 9
  78.96145 82 3
  78.9627 176 7
  78.96396 123 5
  78.96521 125 5
  78.96647 83 3
  78.96772 73 3
  78.96897 21 1
  78.97023 41 2
  78.97274 31 1
  78.97524 20 1
  93.07065 20 1
  93.0761 20 1
  96.96411 20 1
  96.96689 51 2
  96.96828 31 1
  96.96967 82 3
  96.97106 82 3
  96.97245 92 4
  96.97384 41 2
  96.97523 31 1
  99.08046 31 1
  99.08467 20 1
  107.084 20 1
  107.0899 20 1
  113.0925 20 1
  113.094 20 1
  113.0955 41 2
  113.097 51 2
  113.0985 41 2
  113.1 71 3
  113.1015 31 1
  113.103 41 2
  113.1045 20 1
  119.0848 20 1
  121.0949 20 1
  121.0964 51 2
  121.098 31 1
  121.0995 61 2
  121.1011 92 4
  121.1026 61 2
  121.1042 122 5
  121.1057 61 2
  121.1073 61 2
  121.1088 20 1
  123.1218 20 1
  134.9798 20 1
  134.9848 31 1
  139.1108 20 1
  139.1141 20 1
  147.1176 20 1
  149.1285 20 1
  149.1354 41 2
  149.1371 20 1
  149.1406 20 1
  151.1461 20 1
  151.1478 20 1
  151.1513 31 1
  151.1548 31 1
  152.5248 21 1
  152.9799 21 1
  152.9834 62 2
  152.9852 42 2
  152.9869 106 4
  152.9887 223 9
  152.9904 180 7
  152.9922 319 13
  152.9939 245 10
  152.9956 244 10
  152.9974 308 12
  152.9991 170 7
  153.0009 160 6
  153.0026 139 6
  153.0044 53 2
  153.0061 64 3
  153.0079 11 0
  153.0096 32 1
  153.0114 11 0
  153.0131 11 0
  153.1283 11 0
  153.1335 11 0
  159.1258 20 1
  161.1327 20 1
  163.0674 20 1
  170.0596 21 1
  174.6031 21 1
  175.1218 21 1
  175.1237 21 1
  175.1293 21 1
  175.133 20 1
  175.1349 21 1
  175.1367 103 4
  175.1386 31 1
  175.1405 249 10
  175.1423 156 6
  175.1442 366 15
  175.1461 490 20
  175.1479 354 14
  175.1498 461 18
  175.1517 376 15
  175.1535 219 9
  175.1554 187 8
  175.1573 115 5
  175.1591 52 2
  175.161 73 3
  175.1629 42 2
  175.1647 21 1
  175.1666 31 1
  176.154 11 0
  176.1596 20 1
  177.0897 20 1
  177.1648 31 1
  181.123 20 1
  183.1147 20 1
  183.1167 20 1
  183.1205 20 1
  193.119 61 2
  193.1229 31 1
  196.8486 20 1
  201.1398 20 1
  203.1398 20 1
  203.1418 20 1
  203.168 41 2
  203.17 71 3
  203.172 92 4
  203.174 92 4
  203.176 143 6
  203.178 143 6
  203.18 133 5
  203.182 92 4
  203.1841 143 6
  203.1861 82 3
  203.1881 51 2
  203.1901 41 2
  203.1921 20 1
  203.1941 41 2
  203.1961 20 1
  204.9921 20 1
  205.1174 41 2
  205.1214 31 1
  205.1235 92 4
  205.1255 20 1
  205.1295 31 1
  215.472 21 1
  217.9688 21 1
  218.4711 21 1
  218.5149 21 1
  218.9656 21 1
  219.0596 21 1
  219.1097 31 1
  219.1139 21 1
  219.1181 22 1
  219.1201 42 2
  219.1222 66 3
  219.1243 160 6
  219.1264 281 11
  219.1285 362 15
  219.1306 522 21
  219.1327 855 34
  219.1348 875 35
  219.1369 890 36
  219.1389 955 38
  219.141 854 34
  219.1431 852 34
  219.1452 655 26
  219.1473 327 13
  219.1494 251 10
  219.1515 218 9
  219.1536 153 6
  219.1557 67 3
  219.1577 88 4
  219.1598 22 1
  219.1661 11 0
  219.2162 11 0
  219.4524 11 0
  219.8748 11 0
  219.9104 11 0
  220.1259 11 0
  220.1364 31 1
  221.1445 20 1
  221.1487 61 2
  221.1571 20 1
  221.1613 20 1
  221.1907 20 1
  221.1928 20 1
  222.4599 21 1
  222.7694 21 1
  222.7926 21 1
  222.9758 21 1
  222.9801 11 0
  222.9822 41 2
  222.9843 31 1
  222.9864 73 3
  222.9885 116 5
  222.9906 231 9
  222.9927 281 11
  222.9948 230 9
  222.9969 431 17
  222.999 326 13
  223.0011 343 14
  223.0032 365 15
  223.0053 342 14
  223.0074 249 10
  223.0096 207 8
  223.0117 114 5
  223.0138 93 4
  223.0159 51 2
  223.018 20 1
  223.0222 31 1
  223.1613 21 1
  223.1655 11 0
  223.1803 20 1
  223.9967 20 1
  240.2546 20 1
  240.259 20 1
  240.2612 20 1
  240.2634 87 3
  240.2677 34 1
  240.2721 20 1
  240.2787 23 1
  240.3377 22 1
  240.4121 23 1
  240.5937 23 1
  240.9681 21 1
  240.9813 23 1
  240.9834 26 1
  240.9878 34 1
  240.99 119 5
  240.9922 115 5
  240.9944 197 8
  240.9966 424 17
  240.9988 794 32
  241.001 1324 53
  241.0032 1708 69
  241.0054 2346 94
  241.0075 2839 114
  241.0097 3075 123
  241.0119 3642 146
  241.0141 2987 120
  241.0163 2554 102
  241.0185 2192 88
  241.0207 1380 55
  241.0229 896 36
  241.0251 470 19
  241.0273 291 12
  241.0294 142 6
  241.0316 179 7
  241.0338 117 5
  241.036 51 2
  241.0382 39 2
  241.047 11 0
  241.0492 24 1
  241.4415 13 1
  241.4809 13 1
  241.6015 12 0
  241.6256 13 1
  241.8231 13 1
  242.0096 31 1
  242.0118 31 1
  242.014 20 1
  242.0162 20 1
  242.0206 20 1
  245.1476 20 1
  247.202 20 1
  247.6947 21 1
  252.8644 21 1
  253.2168 21 1
  255.2235 20 1
  256.2253 21 1
  256.4196 42 2
  256.8083 21 1
  257.1273 21 1
  257.2019 31 1
  257.2042 32 1
  257.2065 73 3
  257.2087 74 3
  257.211 128 5
  257.2132 214 9
  257.2155 355 14
  257.2178 291 12
  257.22 399 16
  257.2223 647 26
  257.2245 757 30
  257.2268 810 32
  257.2291 798 32
  257.2314 700 28
  257.2336 593 24
  257.2359 290 12
  257.2381 269 11
  257.2404 162 6
  257.2426 119 5
  257.2449 53 2
  257.2472 43 2
  257.2495 22 1
  257.2517 32 1
  257.2562 11 0
  257.3128 11 0
  257.7861 11 0
  258.2212 20 1
  258.2371 11 0
  258.2416 11 0
  258.262 21 1
  258.5092 21 1
  258.9995 20 1
  259.0018 41 2
  259.004 31 1
  259.0063 72 3
  259.0086 31 1
  259.0108 83 3
  259.0131 186 7
  259.0154 197 8
  259.0176 259 10
  259.0199 269 11
  259.0222 280 11
  259.0245 311 12
  259.0267 331 13
  259.029 176 7
  259.0313 186 7
  259.0335 82 3
  259.0358 93 4
  259.0404 31 1
  259.0449 20 1
  259.0472 21 1
  273.2087 20 1
  273.2227 20 1
  273.2274 20 1
  275.2181 20 1
  275.2204 20 1
  275.2228 31 1
  275.2251 31 1
  275.2274 20 1
  275.2298 31 1
  275.2321 51 2
  275.2345 71 3
  275.2368 133 5
  275.2392 61 2
  275.2415 51 2
  275.2438 102 4
  275.2462 31 1
  275.2485 71 3
  275.2556 20 1
  282.3847 20 1
  282.3871 20 1
  282.4227 46 2
  282.9588 22 1
  283.1487 22 1
  283.2057 23 1
  283.2176 23 1
  283.2271 32 1
  283.2318 23 1
  283.2342 46 2
  283.2366 24 1
  283.239 106 4
  283.2413 95 4
  283.2437 189 8
  283.2461 407 16
  283.2484 495 20
  283.2508 700 28
  283.2532 1465 59
  283.2556 1746 70
  283.2579 2290 92
  283.2603 2572 103
  283.2627 2686 108
  283.265 2695 108
  283.2674 2585 104
  283.2698 2282 92
  283.2722 1948 78
  283.2746 1282 51
  283.2769 799 32
  283.2793 512 21
  283.2817 273 11
  283.2841 219 9
  283.2864 173 7
  283.2888 50 2
  283.2912 113 5
  283.2935 24 1
  283.2983 13 1
  283.4646 13 1
  283.4978 13 1
  283.6333 13 1
  283.7949 12 0
  284.2538 31 1
  284.2585 31 1
  284.2609 51 2
  284.2633 41 2
  284.2657 20 1
  284.2681 53 2
  284.2704 31 1
  284.2728 41 2
  284.2752 41 2
  284.2776 20 1
  285.2633 20 1
  286.7356 20 1
  290.7371 21 1
  291.4978 21 1
  296.1123 21 1
  296.3552 21 1
  297.0114 31 1
  297.0138 31 1
  297.0162 52 2
  297.0186 41 2
  297.0211 83 3
  297.0235 62 2
  297.0259 146 6
  297.0284 197 8
  297.0308 282 11
  297.0332 240 10
  297.0356 313 13
  297.0381 354 14
  297.0405 292 12
  297.0429 311 12
  297.0454 228 9
  297.0478 175 7
  297.0502 103 4
  297.0527 63 3
  297.0551 42 2
  297.0575 31 1
  297.0624 32 1
  300.2762 42 2
  300.2934 32 1
  300.33 32 1
  301.162 22 1
  301.1791 21 1
  301.1816 21 1
  301.1865 11 0
  301.1889 65 3
  301.1914 55 2
  301.1938 90 4
  301.1963 100 4
  301.1987 236 9
  301.2012 367 15
  301.2036 321 13
  301.2061 755 30
  301.2085 1124 45
  301.211 1194 48
  301.2134 1687 68
  301.2159 1471 59
  301.2183 1704 68
  301.2208 1398 56
  301.2232 1261 51
  301.2256 857 34
  301.2281 863 35
  301.2306 592 24
  301.233 356 14
  301.2355 195 8
  301.2379 171 7
  301.2404 70 3
  301.2428 67 3
  301.2453 45 2
  301.2477 34 1
  301.2502 22 1
  301.2526 12 0
  301.255 20 1
  301.2624 12 0
  301.3138 11 0
  301.9804 11 0
  302.2085 22 1
  302.2133 20 1
  302.2158 20 1
  302.2207 31 1
  302.2232 41 2
  302.2256 31 1
  302.233 31 1
  302.2354 20 1
  315.0227 20 1
  315.0302 71 3
  315.0327 61 2
  315.0352 92 4
  315.0377 122 5
  315.0403 122 5
  315.0428 112 4
  315.0452 173 7
  315.0478 214 9
  315.0503 184 7
  315.0528 184 7
  315.0553 153 6
  315.0578 133 5
  315.0603 61 2
  315.0628 51 2
  315.0653 31 1
  315.0678 31 1
  315.0728 20 1
  317.2102 31 1
  318.2137 20 1
  318.2162 31 1
  318.2238 34 1
  318.2263 31 1
  318.2288 20 1
  318.2389 31 1
  318.2792 23 1
  318.2867 23 1
  318.8937 24 1
  319.1835 24 1
  319.186 32 1
  319.191 23 1
  319.1961 12 0
  319.1986 84 3
  319.2011 70 3
  319.2037 183 7
  319.2062 188 8
  319.2087 487 20
  319.2112 717 29
  319.2137 1142 46
  319.2162 1847 74
  319.2188 2136 86
  319.2213 2313 93
  319.2238 3129 126
  319.2263 3147 126
  319.2289 3215 129
  319.2314 2875 115
  319.2339 2817 113
  319.2364 2284 92
  319.239 1599 64
  319.2415 1068 43
  319.244 475 19
  319.2465 621 25
  319.2491 349 14
  319.2516 315 13
  319.2541 116 5
  319.2566 103 4
  319.2591 14 1
  319.2616 52 2
  319.2642 26 1
  319.2667 13 1
  319.3272 12 0
  319.3398 13 1
  319.7232 14 1
  320.2103 20 1
  320.2153 41 2
  320.2179 33 1
  320.2204 61 2
  320.2229 20 1
  320.2279 31 1
  320.2305 67 3
  320.233 51 2
  320.2355 71 3
  320.238 51 2
  320.2406 31 1
  320.2456 20 1
  320.2532 20 1
  320.2582 20 1
  350.7837 20 1
  405.8915 32 1
  417.9414 20 1
  418.2444 22 1
  418.6744 22 1
  419.2087 21 1
  419.2202 55 2
  419.2231 65 3
  419.226 66 3
  419.2289 126 5
  419.2318 192 8
  419.2347 348 14
  419.2376 431 17
  419.2405 539 22
  419.2434 606 24
  419.2462 772 31
  419.2491 945 38
  419.252 1171 47
  419.2549 1166 47
  419.2578 1094 44
  419.2607 1218 49
  419.2636 1035 42
  419.2665 945 38
  419.2694 649 26
  419.2722 749 30
  419.2751 489 20
  419.278 285 11
  419.2809 159 6
  419.2838 102 4
  419.2867 114 5
  419.2896 56 2
  419.2925 35 1
  419.2982 21 1
  419.304 12 0
  419.3705 11 0
  420.2378 20 1
  420.2436 20 1
  420.2465 12 0
  420.258 31 1
  420.2638 42 2
  420.2667 31 1
  420.2696 21 1
  420.2725 20 1
  420.2812 31 1
  437.1991 20 1
  437.202 20 1
  437.2138 20 1
  437.2345 20 1
  437.2374 31 1
  437.2404 41 2
  437.2433 31 1
  437.2492 20 1
  437.2522 51 2
  437.2551 82 3
  437.2581 82 3
  437.261 92 4
  437.264 122 5
  437.2669 71 3
  437.2699 143 6
  437.2728 92 4
  437.2758 71 3
  437.2787 92 4
  437.2817 143 6
  437.2846 61 2
  437.2876 20 1
  437.2905 31 1
  437.2935 31 1
  437.3023 20 1
  442.1042 21 1
  454.8088 21 1
  455.182 51 2
  455.185 63 3
  455.191 83 3
  455.1941 177 7
  455.1971 125 5
  455.2001 114 5
  455.2031 138 6
  455.2061 296 12
  455.2091 307 12
  455.2121 373 15
  455.2151 351 14
  455.2181 341 14
  455.2211 490 20
  455.2242 523 21
  455.2272 438 18
  455.2302 460 18
  455.2332 427 17
  455.2362 193 8
  455.2392 150 6
  455.2422 161 6
  455.2452 118 5
  455.2482 43 2
  455.2513 42 2
  455.2543 11 0
  455.2573 22 1
  455.2603 11 0
  455.2633 21 1
  455.2784 11 0
  456.0283 20 1
  456.2362 20 1
  458.2184 11 0
  463.255 20 1
  473.2142 20 1
  488.8663 20 1
  490.2899 20 1
  490.6649 20 1
  498.7837 31 1
  502.2339 31 1
  508.7466 20 1
  511.1554 20 1
  511.5829 20 1
  514.8209 31 1
  524.6413 20 1
  525.2846 41 2
  525.2975 20 1
  531.4468 20 1
  536.2685 20 1
  548.5088 20 1
  579.4981 20 1
  579.532 32 1
  581.252 20 1
  581.2554 20 1
  581.2589 11 0
  581.2623 65 3
  581.2656 67 3
  581.269 100 4
  581.2725 112 4
  581.2759 253 10
  581.2792 260 10
  581.2827 456 18
  581.2861 519 21
  581.2895 608 24
  581.2928 762 31
  581.2963 789 32
  581.2997 1076 43
  581.303 1165 47
  581.3065 1298 52
  581.3099 1055 42
  581.3133 1098 44
  581.3167 1100 44
  581.3201 1132 45
  581.3235 1060 43
  581.3269 968 39
  581.3303 760 30
  581.3337 614 25
  581.3371 326 13
  581.3405 277 11
  581.3439 208 8
  581.3473 219 9
  581.3507 93 4
  581.3541 140 6
  581.3575 47 2
  581.3609 56 2
  581.3643 35 1
  581.3677 11 0
  581.3779 11 0
  581.4664 20 1
  582.0381 11 0
  582.2866 20 1
  582.29 20 1
  582.3002 20 1
  582.3036 32 1
  582.3071 31 1
  582.3105 20 1
  582.3138 31 1
  582.3173 20 1
  582.3207 53 2
  582.3241 61 2
  582.3377 20 1
  587.7744 20 1
  593.9375 21 1
  594.9833 21 1
  597.4019 21 1
  597.5329 21 1
  599.269 31 1
  599.2725 74 3
  599.2759 128 5
  599.2794 64 3
  599.2828 105 4
  599.2863 95 4
  599.2897 193 8
  599.2932 152 6
  599.2966 218 9
  599.3001 372 15
  599.3035 401 16
  599.307 349 14
  599.3105 538 22
  599.3139 672 27
  599.3174 659 26
  599.3208 648 26
  599.3243 625 25
  599.3278 668 27
  599.3312 511 20
  599.3347 558 22
  599.3381 469 19
  599.3416 426 17
  599.345 275 11
  599.3484 228 9
  599.3519 228 9
  599.3553 77 3
  599.3588 44 2
  599.3622 44 2
  599.3657 42 2
  599.3692 44 2
  599.7769 11 0
  600.2988 42 2
  600.316 20 1
  600.3229 11 0
  600.3333 31 1
  600.3368 20 1
  600.3472 20 1
  615.2979 21 1
  615.3539 31 1
  615.858 21 1
  617.2209 20 1
  617.2244 103 4
  617.2279 125 5
  617.2314 73 3
  617.2349 52 2
  617.2384 44 2
  617.2419 160 6
  617.2454 158 6
  617.249 235 9
  617.2524 192 8
  617.2559 183 7
  617.2595 280 11
  617.2629 497 20
  617.2665 563 23
  617.27 411 16
  617.2735 497 20
  617.277 442 18
  617.2805 474 19
  617.284 495 20
  617.2875 571 23
  617.291 343 14
  617.2945 301 12
  617.298 280 11
  617.3015 193 8
  617.3051 86 3
  617.3085 96 4
  617.312 76 3
  617.3156 85 3
  617.319 21 1
  617.3226 21 1
  617.326 32 1
  618.2554 20 1
  618.2695 21 1
  618.2729 11 0
  618.287 21 1
  635.2421 20 1
  635.2492 31 1
  635.2599 20 1
  635.267 20 1
  635.2706 51 2
  635.2741 31 1
  635.2776 20 1
  635.2848 31 1
  635.2883 41 2
  635.2919 31 1
  635.2955 41 2
  635.299 31 1
  635.3026 41 2
  635.3061 41 2
  739.4582 31 1
  739.462 20 1
  739.4659 41 2
  739.4697 51 2
  739.4735 31 1
  739.4774 92 4
  739.4812 61 2
  739.485 102 4
  739.4889 51 2
  739.4927 82 3
  739.4966 112 4
  739.5004 122 5
  739.5042 61 2
  739.5081 61 2
  739.5119 92 4
  739.5157 31 1
  739.5196 61 2
  739.5234 61 2
  739.5273 51 2
  739.5311 20 1
  739.5349 41 2
  739.5388 20 1
  740.5137 20 1
  747.4025 20 1
  898.6097 20 1
  898.6266 41 2
  898.6309 41 2
  898.6436 82 3
  898.652 61 2
  898.6563 113 5
  898.6605 41 2
  898.6647 134 5
  898.6689 72 3
  898.6732 31 1
  898.6774 63 3
  898.6816 135 5
  898.6859 157 6
  898.6901 145 6
  898.6943 188 8
  898.6985 135 5
  898.7028 251 10
  898.707 240 10
  898.7112 125 5
  898.7155 260 10
  898.7197 346 14
  898.7239 248 10
  898.7282 179 7
  898.7324 167 7
  898.7366 63 3
  898.7408 136 5
  898.7451 103 4
  898.7493 134 5
  898.7535 133 5
  898.7578 92 4
  898.762 103 4
  898.7662 92 4
  898.7705 71 3
  898.7747 61 2
  898.7789 41 2
  898.7831 61 2
  898.7874 82 3
  898.7916 31 1
  898.7958 31 1
  898.8001 20 1
  898.817 41 2
  898.8339 51 2
  898.8678 20 1
  899.0285 20 1
  899.3162 20 1
  899.422 20 1
  899.6971 31 1
  899.7098 20 1
  899.7902 20 1
  900.1077 20 1
  900.2008 20 1
  900.2262 20 1
  900.2558 20 1
  900.3066 20 1
  900.3235 20 1
  900.3447 20 1
  900.3616 20 1
  900.3744 31 1
  900.3871 20 1
  900.4125 20 1
  900.4252 20 1
  900.4337 20 1
  900.4464 20 1
  900.459 20 1
  900.4971 20 1
  900.5268 20 1
  900.5353 31 1
  900.5649 20 1
  900.5692 20 1
  900.5734 31 1
  900.5861 20 1
  900.5903 20 1
  900.603 31 1
  900.6115 20 1
  900.6157 31 1
  900.6453 20 1
  900.6496 41 2
  900.6538 31 1
  900.6792 20 1
  900.747 20 1
  900.8275 20 1
  900.8613 20 1
  900.8994 20 1
  901.035 20 1
  901.0519 20 1
  901.0731 20 1
  901.1112 20 1
  901.1493 20 1
  901.1874 20 1
  901.2086 20 1
  901.2383 20 1
  901.2468 20 1
  901.251 20 1
  901.2595 41 2
  901.2637 20 1
  901.2806 20 1
  901.2849 31 1
  901.2891 31 1
  901.3526 20 1
  901.3696 90 4
  901.3907 20 1
  901.3992 47 2
  901.4034 47 2
  901.4077 68 3
  901.4374 68 3
  901.4797 243 10
  901.4839 251 10
  901.4882 264 11
  901.4924 674 27
  901.4966 966 39
  901.5009 1581 63
  901.5051 2381 96
  901.5094 3262 131
  901.5136 5644 226
  901.5178 8435 338
  901.5221 11100 445
  901.5263 14504 582
  901.5306 19989 802
  901.5348 24903 999
  901.539 22348 897
  901.5433 17189 690
  901.5475 14773 593
  901.5518 18752 752
  901.556 21180 850
  901.5602 20276 813
  901.5645 22001 883
  901.5687 21527 864
  901.5729 18236 732
  901.5771 11418 458
  901.5814 5420 217
  901.5856 2556 103
  901.5898 930 37
  901.5941 370 15
  901.5983 276 11
  901.6026 130 5
  901.6068 36 1
  901.611 94 4
  901.6153 36 1
  901.6195 36 1
  901.789 43 2
  901.9458 69 3
  902.0645 58 2
  902.0898 20 1
  902.1704 36 1
  902.3145 68 3
  902.3229 47 2
  902.3865 20 1
  902.4289 22 1
  902.4628 41 2
  902.467 20 1
  902.4713 31 1
  902.4755 20 1
  902.4883 56 2
  902.4925 34 1
  902.4968 153 6
  902.501 91 4
  902.5052 188 8
  902.5095 240 10
  902.5137 395 16
  902.5179 497 20
  902.5222 700 28
  902.5264 654 26
  902.5306 1090 44
  902.5349 1018 41
  902.5391 1438 58
  902.5434 1322 53
  902.5476 1300 52
  902.5518 1280 51
  902.5561 1531 61
  902.5603 1783 72
  902.5646 1330 53
  902.5688 1374 55
  902.5731 1118 45
  902.5773 1080 43
  902.5815 788 32
  902.5858 685 27
  902.59 512 21
  902.5942 485 19
  902.5984 396 16
  902.6027 182 7
  902.6069 300 12
  902.6112 190 8
  902.6154 155 6
  902.6197 105 4
  902.6239 13 1
  902.6282 23 1
  902.6324 44 2
  902.6366 23 1
  902.6409 61 2
  902.6494 22 1
  902.6536 31 1
  902.8019 43 2
  902.8062 20 1
  902.8189 43 2
  902.8359 20 1
  902.8783 20 1
  902.8825 20 1
  902.908 31 1
  902.9122 25 1
  903.0182 20 1
  903.0352 31 1
  903.0479 31 1
  903.0563 31 1
  903.0606 20 1
  903.069 20 1
  903.0733 20 1
  903.0945 31 1
  903.0988 20 1
  903.1284 20 1
  903.226 20 1
  903.2387 31 1
  903.2684 20 1
  903.2769 20 1
  903.2853 31 1
  903.3023 20 1
  903.3108 20 1
  903.4253 20 1
  903.438 20 1
  903.4931 20 1
  903.527 20 1
  903.5398 51 2
  903.5652 20 1
  903.5779 31 1
  903.5822 20 1
  903.7009 20 1
  903.7858 20 1
  903.7943 20 1
  903.9215 20 1
  903.9512 20 1
  904.0106 20 1
  904.0615 20 1
  904.0743 20 1
  904.0912 20 1
  904.2015 20 1
  904.21 20 1
  904.2142 20 1
  904.4688 20 1
  904.4943 20 1
  904.4985 20 1
  904.5325 20 1
  904.5834 20 1
  904.6513 20 1
  904.6895 20 1
  904.7065 20 1
  904.8211 20 1
  905.1522 20 1
  905.2116 20 1
  905.2201 20 1
  905.254 31 1
  905.3474 20 1
  905.6531 20 1
  906.3157 20 1
  906.3242 20 1
  907.0209 20 1
  907.1697 20 1
  907.6882 20 1
  907.8965 20 1
  907.9433 31 1
  908.0113 20 1
  908.0751 20 1
  908.5471 20 1
  908.8065 20 1
  908.8533 20 1
  910.0065 20 1
  911.3221 20 1
  911.4329 20 1
  911.7652 20 1
  911.8802 20 1
  912.9628 20 1
  913.0906 20 1
  913.5469 20 1
  915.7659 20 1
  922.6146 20 1
  949.9603 20 1
//
