ACCESSION: MSBNK-RIKEN_IMS-LQB00652
RECORD_TITLE: PG 38:5; LC-ESI-QTOF; MS2
DATE: 2023.12.21 (Created 2016.10.03)
AUTHORS: Kazutaka Ikeda, Hiroshi Tsugawa, Makoto Arita, RIKEN Center for Integrative Medical Sciences, Japan
LICENSE: CC BY
COPYRIGHT: Copyright(C) 2017 RIKEN IMS
COMMENT: Found in mouse lung; TwoDicalId=317; MgfFile=160901_Lung_AA_Neg_17_never; MgfId=639
CH$NAME: PG 38:5
CH$COMPOUND_CLASS: PG
CH$FORMULA: C44H77O10P
CH$EXACT_MASS: 796.525437
CH$SMILES: CCCCCCCC\C=C/CCCCCCCC(=O)OCC(COP(O)(=O)OCC(O)CO)OC(=O)CCCCCC\C=C/C\C=C/C\C=C/C\C=C/CC
CH$IUPAC: InChI=1S/C44H77O10P/c1-3-5-7-9-11-13-15-17-19-20-22-24-26-28-30-32-34-36-44(48)54-42(40-53-55(49,50)52-38-41(46)37-45)39-51-43(47)35-33-31-29-27-25-23-21-18-16-14-12-10-8-6-4-2/h5,7,11,13,17-19,21-22,24,41-42,45-46H,3-4,6,8-10,12,14-16,20,23,25-40H2,1-2H3,(H,49,50)/b7-5-,13-11-,19-17-,21-18-,24-22-
CH$LINK: INCHIKEY ODHQFFNXKQCMPG-HAGCXRLMSA-N
CH$LINK: PUBCHEM CID:138225719
AC$INSTRUMENT: AB Sciex TripleTOF 5600+ system (Q-TOF) equipped with a DuoSpray ion source
AC$INSTRUMENT_TYPE: LC-ESI-QTOF
AC$MASS_SPECTROMETRY: MS_TYPE MS2
AC$MASS_SPECTROMETRY: ION_MODE NEGATIVE
AC$MASS_SPECTROMETRY: COLLISION_ENERGY 45V
AC$CHROMATOGRAPHY: COLUMN_NAME Acquity UPLC Peptide BEH C18 column (50*2.1 mm; 1.7 um; 130A)(Waters Co.,Milford, MA, USA)
AC$CHROMATOGRAPHY: COLUMN_TEMPERATURE 45 C
AC$CHROMATOGRAPHY: FLOW_GRADIENT 0 min 0% B; 1 min 0% B; 5 min 40% B; 7.5 min 64% B; 12.0 min 64% B; 12.5 min 82.5% B, 19 min 85% B; 20 min 95% B; 20.1 min 0% B; 25 min 0% B.
AC$CHROMATOGRAPHY: FLOW_RATE 0.3 mL/min
AC$CHROMATOGRAPHY: RETENTION_TIME 8.140212
AC$CHROMATOGRAPHY: SOLVENT A 1:1:3 acetonitrile:methanol:water (v/v/v) with 5 mM ammonium acetate and 10 nM EDTA.
AC$CHROMATOGRAPHY: SOLVENT B 100% isopropanol with 5 mM ammonium acetate and 10 nM EDTA.
MS$FOCUSED_ION: PRECURSOR_TYPE [M-H]-
MS$FOCUSED_ION: PRECURSOR_M/Z 795.5126
PK$SPLASH: splash10-0f7k-0086000900-972001e6788d26f30f8b
PK$NUM_PEAK: 27
PK$PEAK: m/z int. rel.int.
  152.996 101 12
  205.194 60 7
  255.228 63 7
  259.245 512 61
  279.24 60 7
  280.232 50 5
  280.368 107 12
  281.248 8366 999
  285.218 62 7
  301.216 21 2
  302.276 78 9
  303.231 6407 765
  305.26 30 3
  329.25 40 4
  435.25 40 4
  439.217 30 3
  491.274 40 4
  509.289 154 18
  513.268 60 7
  531.273 75 8
  603.911 20 2
  793.021 44 5
  795.512 8089 966
  795.547 973 116
  795.576 236 28
  795.861 23 2
  796.492 20 2
//
