ACCESSION: MSBNK-RIKEN_IMS-LQB00373
RECORD_TITLE: SM d42:2; LC-ESI-QTOF; MS2
DATE: 2023.12.21 (Created 2016.10.03)
AUTHORS: Kazutaka Ikeda, Hiroshi Tsugawa, Makoto Arita, RIKEN Center for Integrative Medical Sciences, Japan
LICENSE: CC BY
COPYRIGHT: Copyright(C) 2017 RIKEN IMS
COMMENT: Found in mouse small intestine; TwoDicalId=410; MgfFile=160907_Small_Intestine_EPA_Neg_06; MgfId=1827
CH$NAME: SM d42:2
CH$COMPOUND_CLASS: SM
CH$FORMULA: C47H93N2O6P
CH$EXACT_MASS: 812.677117
CH$SMILES: CCCCCCCCCCCCC\C=C\C(O)C(COP([O-])(=O)OCC[N+](C)(C)C)NC(=O)CCCCCCCCC\C=C/CCCCCCCCCCCC
CH$IUPAC: InChI=1S/C47H93N2O6P/c1-6-8-10-12-14-16-18-20-21-22-23-24-25-26-27-29-31-33-35-37-39-41-47(51)48-45(44-55-56(52,53)54-43-42-49(3,4)5)46(50)40-38-36-34-32-30-28-19-17-15-13-11-9-7-2/h24-25,38,40,45-46,50H,6-23,26-37,39,41-44H2,1-5H3,(H-,48,51,52,53)/b25-24-,40-38+
CH$LINK: INCHIKEY SUTDVWUQTJGTCQ-IMMYYDDQSA-N
CH$LINK: PUBCHEM CID:138265057
AC$INSTRUMENT: AB Sciex TripleTOF 5600+ system (Q-TOF) equipped with a DuoSpray ion source
AC$INSTRUMENT_TYPE: LC-ESI-QTOF
AC$MASS_SPECTROMETRY: MS_TYPE MS2
AC$MASS_SPECTROMETRY: ION_MODE NEGATIVE
AC$MASS_SPECTROMETRY: COLLISION_ENERGY 45V
AC$CHROMATOGRAPHY: COLUMN_NAME Acquity UPLC Peptide BEH C18 column (50*2.1 mm; 1.7 um; 130A)(Waters Co.,Milford, MA, USA)
AC$CHROMATOGRAPHY: COLUMN_TEMPERATURE 45 C
AC$CHROMATOGRAPHY: FLOW_GRADIENT 0 min 0% B; 1 min 0% B; 5 min 40% B; 7.5 min 64% B; 12.0 min 64% B; 12.5 min 82.5% B, 19 min 85% B; 20 min 95% B; 20.1 min 0% B; 25 min 0% B.
AC$CHROMATOGRAPHY: FLOW_RATE 0.3 mL/min
AC$CHROMATOGRAPHY: RETENTION_TIME 12.22345
AC$CHROMATOGRAPHY: SOLVENT A 1:1:3 acetonitrile:methanol:water (v/v/v) with 5 mM ammonium acetate and 10 nM EDTA.
AC$CHROMATOGRAPHY: SOLVENT B 100% isopropanol with 5 mM ammonium acetate and 10 nM EDTA.
MS$FOCUSED_ION: PRECURSOR_TYPE [M+CH3COOH-H]-
MS$FOCUSED_ION: PRECURSOR_M/Z 871.6881
PK$SPLASH: splash10-0002-0000000900-0b44d6fdde85673de256
PK$NUM_PEAK: 27
PK$PEAK: m/z int. rel.int.
  78.958 136 8
  119.037 10 0
  122.987 45 2
  168.043 494 31
  255.231 10 0
  365.335 11 0
  428.608 10 0
  449.31 36 2
  470.71 10 0
  481.31 10 0
  618.586 20 1
  645.595 11 0
  663.615 20 1
  708.56 15 0
  726.573 55 3
  752.589 30 1
  795.145 75 4
  796.706 13 0
  797.464 11 0
  797.565 25 1
  797.649 15529 999
  798.65 55 3
  811.651 15 0
  812.599 80 5
  812.626 110 7
  825.65 46 2
  871.69 689 44
//
