ACCESSION: MSBNK-RIKEN_IMS-LQA00352
RECORD_TITLE: PI(18:0/9-HODE); LC-ESI-QTOF; MS2
DATE: 2023.12.21 (Created 2017.09.05)
AUTHORS: Ryohei Aoyagi, Kazutaka Ikeda, Yosuke Isobe, Makoto Arita; RIKEN Center for Integrative Medical Sciences, Japan
LICENSE: CC BY
COMMENT: RIKEN oxidized phospholipids
CH$NAME: PI(18:0/9-HODE)
CH$COMPOUND_CLASS: Oxidized Phospholipid
CH$FORMULA: C45H83O14P
CH$EXACT_MASS: 878.552047
CH$SMILES: CCCCCCCCCCCCCCCCCC(=O)OCC(COP(O)(=O)OC1C(O)C(O)C(O)C(O)C1O)OC(=O)CCCCCCCC(O)\C=C\C=C/CCCCC
CH$IUPAC: InChI=1S/C45H83O14P/c1-3-5-7-9-11-12-13-14-15-16-17-18-20-24-28-32-38(47)56-34-37(35-57-60(54,55)59-45-43(52)41(50)40(49)42(51)44(45)53)58-39(48)33-29-25-21-23-27-31-36(46)30-26-22-19-10-8-6-4-2/h19,22,26,30,36-37,40-46,49-53H,3-18,20-21,23-25,27-29,31-35H2,1-2H3,(H,54,55)/b22-19-,30-26+
CH$LINK: INCHIKEY INDMOGBRINIYGQ-FHHGPMHOSA-N
CH$LINK: PUBCHEM CID:134738657
AC$INSTRUMENT: Acquity UPLC Peptide BEH C18 column (50 x 2.1 mm; 1.7 um), Sciex TripleTOF5600
AC$INSTRUMENT_TYPE: LC-ESI-QTOF
AC$MASS_SPECTROMETRY: MS_TYPE MS2
AC$MASS_SPECTROMETRY: ION_MODE NEGATIVE
AC$MASS_SPECTROMETRY: COLLISION_ENERGY 30-50
MS$FOCUSED_ION: PRECURSOR_M/Z 877.5447679
MS$FOCUSED_ION: PRECURSOR_TYPE [M-H]-
PK$SPLASH: splash10-004i-0010000090-28aec89cfa79e54a8990
PK$NUM_PEAK: 397
PK$PEAK: m/z int. rel.int.
  78.95506 31 4
  78.95631 20 3
  78.95756 51 7
  78.95882 20 3
  78.96007 41 6
  78.96132 20 3
  78.96258 20 3
  78.96383 31 4
  78.96509 20 3
  78.96634 31 4
  96.97127 41 6
  123.1194 20 3
  152.9866 20 3
  152.9883 31 4
  152.9901 41 6
  152.9918 61 8
  152.9936 82 11
  152.9953 61 8
  152.9971 112 16
  152.9988 41 6
  153.0005 41 6
  153.0023 61 8
  153.004 31 4
  153.0093 20 3
  171.0916 20 3
  171.0934 20 3
  171.0953 51 7
  171.0971 71 10
  171.099 82 11
  171.1008 71 10
  171.1026 92 13
  171.1045 61 8
  171.1063 41 6
  171.1082 71 10
  171.11 41 6
  171.1119 20 3
  171.1156 20 3
  222.9853 20 3
  222.9874 20 3
  222.9895 31 4
  222.9916 61 8
  222.9937 41 6
  222.9958 41 6
  222.9979 82 11
  223 102 14
  223.0021 155 21
  223.0042 92 13
  223.0063 82 11
  223.0085 20 3
  223.0106 61 8
  223.0211 31 4
  236.2964 21 3
  240.1051 21 3
  240.2625 21 3
  240.2647 21 3
  240.9848 21 3
  240.987 21 3
  240.9914 31 4
  240.9936 21 3
  240.9958 52 7
  240.998 73 10
  241.0002 146 20
  241.0024 190 26
  241.0045 369 51
  241.0067 456 63
  241.0089 635 88
  241.0111 488 68
  241.0133 350 48
  241.0155 457 63
  241.0177 307 42
  241.0199 244 34
  241.0221 138 19
  241.0243 105 15
  241.0265 75 10
  241.0286 63 9
  241.0308 32 4
  241.033 11 2
  241.0374 11 2
  241.7016 11 2
  241.8618 11 2
  241.8662 11 2
  242.6524 11 2
  255.241 20 3
  259.0194 41 6
  259.0217 51 7
  259.024 41 6
  259.0262 61 8
  259.0285 41 6
  259.0308 20 3
  277.2018 31 4
  277.2041 41 6
  277.2065 71 10
  277.2088 122 17
  277.2112 204 28
  277.2135 102 14
  277.2159 102 14
  277.2182 235 33
  277.2206 102 14
  277.2229 92 13
  277.2253 61 8
  277.2276 82 11
  277.2299 20 3
  277.2346 52 7
  277.2393 52 7
  282.3657 21 3
  282.3846 21 3
  282.4107 21 3
  282.4155 21 3
  283.2412 20 3
  283.2436 42 6
  283.246 31 4
  283.2484 104 14
  283.2508 242 33
  283.2531 211 29
  283.2555 460 64
  283.2579 385 53
  283.2603 524 73
  283.2626 699 97
  283.265 634 88
  283.2674 504 70
  283.2697 513 71
  283.2721 268 37
  283.2745 333 46
  283.2769 139 19
  283.2792 129 18
  283.2816 129 18
  283.284 53 7
  283.2864 97 13
  283.2888 32 4
  283.2935 11 2
  283.2959 11 2
  284.2609 31 4
  286.695 11 2
  287.4911 21 3
  292.5323 21 3
  293.2205 11 2
  294.425 21 3
  294.8803 21 3
  294.9603 21 3
  295.2002 42 6
  295.2075 32 4
  295.2099 53 7
  295.2124 179 25
  295.2148 160 22
  295.2172 329 46
  295.2196 404 56
  295.222 414 57
  295.2245 555 77
  295.2269 711 98
  295.2293 552 76
  295.2318 469 65
  295.2342 404 56
  295.2366 289 40
  295.239 117 16
  295.2415 254 35
  295.2439 96 13
  295.2463 32 4
  295.2487 53 7
  295.2512 85 12
  295.256 11 2
  295.2875 11 2
  295.2924 11 2
  295.5422 11 2
  296.2339 21 3
  297.0115 21 3
  297.0261 31 4
  297.0286 20 3
  297.031 31 4
  297.0334 82 11
  297.0359 51 7
  297.0383 102 14
  297.0407 71 10
  297.0432 51 7
  297.0456 71 10
  297.048 31 4
  297.0529 20 3
  297.0553 31 4
  315.0283 20 3
  315.0383 41 6
  315.0433 41 6
  315.0458 51 7
  315.0483 31 4
  315.0508 20 3
  315.0533 20 3
  315.0558 20 3
  315.0583 31 4
  417.947 20 3
  417.9787 21 3
  419.2287 41 6
  419.2316 51 7
  419.2345 82 11
  419.2374 92 13
  419.2403 93 13
  419.2432 93 13
  419.246 134 19
  419.2489 247 34
  419.2518 237 33
  419.2547 349 48
  419.2576 217 30
  419.2605 144 20
  419.2634 187 26
  419.2663 144 20
  419.2692 144 20
  419.2721 122 17
  419.2749 112 16
  419.2778 20 3
  419.2807 61 8
  419.2836 31 4
  419.2952 20 3
  431.1984 31 4
  431.2013 41 6
  431.2043 41 6
  431.2072 61 8
  431.2101 41 6
  431.213 41 6
  431.216 82 11
  431.2189 61 8
  431.2218 122 17
  431.2248 82 11
  431.2277 143 20
  431.2306 102 14
  431.2336 92 13
  431.2365 51 7
  431.2394 20 3
  431.2423 31 4
  437.2494 20 3
  437.2552 20 3
  437.2582 31 4
  437.2611 20 3
  437.2641 20 3
  437.27 20 3
  437.2788 31 4
  437.2818 31 4
  437.2848 20 3
  482.1891 20 3
  521.3034 20 3
  571.2091 21 3
  579.4976 20 3
  581.2686 31 4
  581.272 72 10
  581.2755 41 6
  581.2789 31 4
  581.2822 52 7
  581.2856 72 10
  581.2891 157 22
  581.2924 136 19
  581.2958 144 20
  581.2993 238 33
  581.3027 209 29
  581.306 229 32
  581.3094 236 33
  581.3129 291 40
  581.3163 289 40
  581.3196 206 29
  581.3231 186 26
  581.3265 113 16
  581.3299 186 26
  581.3333 123 17
  581.3367 72 10
  581.3401 20 3
  581.3434 31 4
  581.3469 61 8
  581.3503 41 6
  581.3537 20 3
  581.3571 31 4
  581.3639 20 3
  590.8842 20 3
  593.2463 41 6
  593.2532 20 3
  593.2567 51 7
  593.2635 71 10
  593.267 82 11
  593.2704 61 8
  593.2739 133 18
  593.2773 102 14
  593.2807 41 6
  593.2842 102 14
  593.2876 41 6
  593.291 71 10
  593.2944 41 6
  593.2979 31 4
  593.3013 31 4
  593.3047 20 3
  593.3082 20 3
  593.3116 31 4
  593.3151 20 3
  593.3323 20 3
  599.2931 31 4
  599.2966 31 4
  599.3 20 3
  599.3035 20 3
  599.3069 51 7
  599.3104 31 4
  599.3138 61 8
  599.3173 71 10
  599.3207 51 7
  599.3242 102 14
  599.3276 31 4
  599.3311 102 14
  599.3345 20 3
  599.338 31 4
  599.3414 31 4
  599.3449 20 3
  599.3484 20 3
  599.3622 31 4
  600.316 20 3
  611.2762 20 3
  715.4631 31 4
  715.4706 31 4
  715.4744 20 3
  715.482 20 3
  715.4896 20 3
  715.5084 41 6
  715.5122 20 3
  715.5159 31 4
  874.739 20 3
  874.7431 20 3
  874.7473 20 3
  874.7515 20 3
  874.7556 31 4
  874.7598 20 3
  874.7806 20 3
  874.7849 61 8
  874.789 41 6
  874.7932 51 7
  874.7974 31 4
  874.8057 31 4
  874.8182 31 4
  874.8224 41 6
  874.8349 20 3
  877.2906 20 3
  877.3992 20 3
  877.4243 20 3
  877.4369 20 3
  877.4619 20 3
  877.487 145 20
  877.4912 174 24
  877.4954 395 55
  877.4996 554 77
  877.5037 774 107
  877.5079 1125 156
  877.5121 1249 173
  877.5163 1991 276
  877.5204 2783 385
  877.5247 3443 477
  877.5288 3905 540
  877.533 4540 628
  877.5372 4968 688
  877.5413 5051 699
  877.5455 5606 776
  877.5497 6233 863
  877.5539 7218 999
  877.558 6170 854
  877.5623 5781 800
  877.5664 5001 692
  877.5706 4699 650
  877.5748 3811 527
  877.579 3336 462
  877.5831 2225 308
  877.5873 1576 218
  877.5915 1218 169
  877.5957 951 132
  877.5999 543 75
  877.6041 389 54
  877.6082 288 40
  877.6124 185 26
  877.6166 153 21
  877.6208 140 19
  877.6249 119 16
  877.6292 98 14
  877.6333 27 4
  877.6375 76 11
  877.6417 44 6
  877.6459 34 5
  877.7211 18 2
  877.8047 20 3
  878.5114 51 7
  878.5155 41 6
  878.5281 61 8
  878.5322 51 7
  878.5364 92 13
  878.5406 61 8
  878.5448 61 8
  878.549 112 16
  878.5532 82 11
  878.5574 92 13
  878.5615 51 7
  878.5657 61 8
  878.5699 41 6
  878.5741 71 10
  878.5782 41 6
  878.5825 51 7
  878.5866 20 3
  878.5908 31 4
  878.595 31 4
  878.6033 41 6
  879.5613 20 3
//
