ACCESSION: MSBNK-RIKEN_IMS-LQB00149
RECORD_TITLE: PC 40:6; LC-ESI-QTOF; MS2
DATE: 2023.12.21 (Created 2016.10.03)
AUTHORS: Kazutaka Ikeda, Hiroshi Tsugawa, Makoto Arita, RIKEN Center for Integrative Medical Sciences, Japan
LICENSE: CC BY
COPYRIGHT: Copyright(C) 2017 RIKEN IMS
COMMENT: Found in mouse muscle; TwoDicalId=302; MgfFile=160824_Muscle_EPA_Neg_07_never; MgfId=878
CH$NAME: PC 40:6
CH$COMPOUND_CLASS: PC
CH$FORMULA: C48H84NO8P
CH$EXACT_MASS: 833.593452
CH$SMILES: CCCCCCCC\C=C/CCCCCCCC(=O)OCC(COP([O-])(=O)OCC[N+](C)(C)C)OC(=O)CCCCC\C=C/C\C=C/C\C=C/C\C=C/C\C=C/CC
CH$IUPAC: InChI=1S/C48H84NO8P/c1-6-8-10-12-14-16-18-20-22-23-24-25-27-29-31-33-35-37-39-41-48(51)57-46(45-56-58(52,53)55-43-42-49(3,4)5)44-54-47(50)40-38-36-34-32-30-28-26-21-19-17-15-13-11-9-7-2/h8,10,14,16,20-22,24-26,29,31,46H,6-7,9,11-13,15,17-19,23,27-28,30,32-45H2,1-5H3/b10-8-,16-14-,22-20-,25-24-,26-21-,31-29-
CH$LINK: INCHIKEY LQILTFYUCKNMSR-RAGHUBLNSA-N
CH$LINK: PUBCHEM CID:24778954
AC$INSTRUMENT: AB Sciex TripleTOF 5600+ system (Q-TOF) equipped with a DuoSpray ion source
AC$INSTRUMENT_TYPE: LC-ESI-QTOF
AC$MASS_SPECTROMETRY: MS_TYPE MS2
AC$MASS_SPECTROMETRY: ION_MODE NEGATIVE
AC$MASS_SPECTROMETRY: COLLISION_ENERGY 45V
AC$CHROMATOGRAPHY: COLUMN_NAME Acquity UPLC Peptide BEH C18 column (50*2.1 mm; 1.7 um; 130A)(Waters Co.,Milford, MA, USA)
AC$CHROMATOGRAPHY: COLUMN_TEMPERATURE 45 C
AC$CHROMATOGRAPHY: FLOW_GRADIENT 0 min 0% B; 1 min 0% B; 5 min 40% B; 7.5 min 64% B; 12.0 min 64% B; 12.5 min 82.5% B, 19 min 85% B; 20 min 95% B; 20.1 min 0% B; 25 min 0% B.
AC$CHROMATOGRAPHY: FLOW_RATE 0.3 mL/min
AC$CHROMATOGRAPHY: RETENTION_TIME 9.500834
AC$CHROMATOGRAPHY: SOLVENT A 1:1:3 acetonitrile:methanol:water (v/v/v) with 5 mM ammonium acetate and 10 nM EDTA.
AC$CHROMATOGRAPHY: SOLVENT B 100% isopropanol with 5 mM ammonium acetate and 10 nM EDTA.
MS$FOCUSED_ION: PRECURSOR_TYPE [M+CH3COOH-H]-
MS$FOCUSED_ION: PRECURSOR_M/Z 892.6064
PK$SPLASH: splash10-016r-0024000090-f0cc7bbb94f1f6470175
PK$NUM_PEAK: 33
PK$PEAK: m/z int. rel.int.
  224.069 91 11
  279.245 31 4
  281.233 236 30
  281.238 440 57
  281.247 1874 245
  285.248 71 9
  285.26 234 30
  285.277 41 5
  329.244 4611 603
  488.309 121 15
  506.303 102 13
  506.312 92 12
  506.318 60 7
  506.325 122 15
  506.331 82 10
  506.347 50 6
  506.363 30 3
  536.32 63 8
  554.291 30 3
  703.47 30 3
  810.477 20 2
  815.966 20 2
  818.487 81 10
  818.503 143 18
  818.527 506 66
  818.563 7642 999
  818.656 40 5
  833.527 80 10
  892.567 102 13
  892.575 154 20
  892.588 164 21
  892.596 184 24
  892.627 408 53
//
