ACCESSION: MSBNK-RIKEN_IMS-LQB00472
RECORD_TITLE: PC 32:2; LC-ESI-QTOF; MS2
DATE: 2023.12.21 (Created 2016.10.03)
AUTHORS: Kazutaka Ikeda, Hiroshi Tsugawa, Makoto Arita, RIKEN Center for Integrative Medical Sciences, Japan
LICENSE: CC BY
COPYRIGHT: Copyright(C) 2017 RIKEN IMS
COMMENT: Found in mouse small intestine; TwoDicalId=863; MgfFile=160907_Small_Intestine_normal_Neg_01_2; MgfId=918
CH$NAME: PC 32:2
CH$COMPOUND_CLASS: PC
CH$FORMULA: C40H76NO8P
CH$EXACT_MASS: 729.530852
CH$SMILES: CCCCCCCCCCCCCC(=O)OCC(COP([O-])(=O)OCC[N+](C)(C)C)OC(=O)CCCCCCC\C=C/C\C=C/CCCCC
CH$IUPAC: InChI=1S/C40H76NO8P/c1-6-8-10-12-14-16-18-19-20-21-23-25-27-29-31-33-40(43)49-38(37-48-50(44,45)47-35-34-41(3,4)5)36-46-39(42)32-30-28-26-24-22-17-15-13-11-9-7-2/h14,16,19-20,38H,6-13,15,17-18,21-37H2,1-5H3/b16-14-,20-19-
CH$LINK: INCHIKEY IWXJKHSPEQSQMD-YPRCPECBSA-N
CH$LINK: PUBCHEM CID:15151380
AC$INSTRUMENT: AB Sciex TripleTOF 5600+ system (Q-TOF) equipped with a DuoSpray ion source
AC$INSTRUMENT_TYPE: LC-ESI-QTOF
AC$MASS_SPECTROMETRY: MS_TYPE MS2
AC$MASS_SPECTROMETRY: ION_MODE NEGATIVE
AC$MASS_SPECTROMETRY: COLLISION_ENERGY 45V
AC$CHROMATOGRAPHY: COLUMN_NAME Acquity UPLC Peptide BEH C18 column (50*2.1 mm; 1.7 um; 130A)(Waters Co.,Milford, MA, USA)
AC$CHROMATOGRAPHY: COLUMN_TEMPERATURE 45 C
AC$CHROMATOGRAPHY: FLOW_GRADIENT 0 min 0% B; 1 min 0% B; 5 min 40% B; 7.5 min 64% B; 12.0 min 64% B; 12.5 min 82.5% B, 19 min 85% B; 20 min 95% B; 20.1 min 0% B; 25 min 0% B.
AC$CHROMATOGRAPHY: FLOW_RATE 0.3 mL/min
AC$CHROMATOGRAPHY: RETENTION_TIME 8.706791
AC$CHROMATOGRAPHY: SOLVENT A 1:1:3 acetonitrile:methanol:water (v/v/v) with 5 mM ammonium acetate and 10 nM EDTA.
AC$CHROMATOGRAPHY: SOLVENT B 100% isopropanol with 5 mM ammonium acetate and 10 nM EDTA.
MS$FOCUSED_ION: PRECURSOR_TYPE [M+CH3COOH-H]-
MS$FOCUSED_ION: PRECURSOR_M/Z 788.5442
PK$SPLASH: splash10-03fr-0070000900-0528d069d9d9e89a488d
PK$NUM_PEAK: 17
PK$PEAK: m/z int. rel.int.
  168.043 20 19
  227.202 335 324
  253.22 162 157
  279.231 846 820
  283.26 40 38
  419.262 20 19
  452.274 90 87
  478.29 35 33
  486.29 20 19
  504.313 30 29
  673.529 20 19
  701.517 40 38
  714.499 1031 999
  714.526 398 386
  715.514 20 19
  788.494 60 58
  788.543 144 139
//
