ACCESSION: MSBNK-RIKEN_IMS-LQB00643
RECORD_TITLE: PG 36:2; LC-ESI-QTOF; MS2
DATE: 2023.12.21 (Created 2016.10.03)
AUTHORS: Kazutaka Ikeda, Hiroshi Tsugawa, Makoto Arita, RIKEN Center for Integrative Medical Sciences, Japan
LICENSE: CC BY
COPYRIGHT: Copyright(C) 2017 RIKEN IMS
COMMENT: Found in mouse heart; TwoDicalId=143; MgfFile=160902_Heart_Control_Neg_01_sute; MgfId=705
CH$NAME: PG 36:2
CH$COMPOUND_CLASS: PG
CH$FORMULA: C42H79O10P
CH$EXACT_MASS: 774.541087
CH$SMILES: CCCCCCCCCCCCCCCCCC(=O)OCC(COP(O)(=O)OCC(O)CO)OC(=O)CCCCCCC\C=C/C\C=C/CCCCC
CH$IUPAC: InChI=1S/C42H79O10P/c1-3-5-7-9-11-13-15-17-19-21-23-25-27-29-31-33-41(45)49-37-40(38-51-53(47,48)50-36-39(44)35-43)52-42(46)34-32-30-28-26-24-22-20-18-16-14-12-10-8-6-4-2/h12,14,18,20,39-40,43-44H,3-11,13,15-17,19,21-38H2,1-2H3,(H,47,48)/b14-12-,20-18-
CH$LINK: INCHIKEY JPRWHUSRRGNLOV-MLWYYCKJSA-N
CH$LINK: PUBCHEM CID:138187875
AC$INSTRUMENT: AB Sciex TripleTOF 5600+ system (Q-TOF) equipped with a DuoSpray ion source
AC$INSTRUMENT_TYPE: LC-ESI-QTOF
AC$MASS_SPECTROMETRY: MS_TYPE MS2
AC$MASS_SPECTROMETRY: ION_MODE NEGATIVE
AC$MASS_SPECTROMETRY: COLLISION_ENERGY 45V
AC$CHROMATOGRAPHY: COLUMN_NAME Acquity UPLC Peptide BEH C18 column (50*2.1 mm; 1.7 um; 130A)(Waters Co.,Milford, MA, USA)
AC$CHROMATOGRAPHY: COLUMN_TEMPERATURE 45 C
AC$CHROMATOGRAPHY: FLOW_GRADIENT 0 min 0% B; 1 min 0% B; 5 min 40% B; 7.5 min 64% B; 12.0 min 64% B; 12.5 min 82.5% B, 19 min 85% B; 20 min 95% B; 20.1 min 0% B; 25 min 0% B.
AC$CHROMATOGRAPHY: FLOW_RATE 0.3 mL/min
AC$CHROMATOGRAPHY: RETENTION_TIME 8.796352
AC$CHROMATOGRAPHY: SOLVENT A 1:1:3 acetonitrile:methanol:water (v/v/v) with 5 mM ammonium acetate and 10 nM EDTA.
AC$CHROMATOGRAPHY: SOLVENT B 100% isopropanol with 5 mM ammonium acetate and 10 nM EDTA.
MS$FOCUSED_ION: PRECURSOR_TYPE [M-H]-
MS$FOCUSED_ION: PRECURSOR_M/Z 773.5282
PK$SPLASH: splash10-00fr-0090000800-f5e92ce7093e7a88ab5e
PK$NUM_PEAK: 31
PK$PEAK: m/z int. rel.int.
  152.996 142 20
  171.007 60 8
  209.02 20 2
  227.03 63 9
  255.232 245 35
  261.217 30 4
  269.249 48 6
  278.359 54 7
  279.231 5224 752
  281.245 74 10
  283.262 2235 322
  307.262 633 91
  309.274 20 2
  415.218 20 2
  419.25 212 30
  441.908 20 2
  461.59 20 2
  483.262 23 3
  489.253 60 8
  493.29 163 23
  507.261 20 2
  511.297 234 33
  699.478 20 2
  699.54 30 4
  741.494 153 22
  741.526 70 10
  771.088 51 7
  773.428 31 4
  773.472 104 14
  773.525 6939 999
  774.533 40 5
//
