ACCESSION: MSBNK-RIKEN_IMS-LQB00640
RECORD_TITLE: PG 34:3; LC-ESI-QTOF; MS2
DATE: 2023.12.21 (Created 2016.10.03)
AUTHORS: Kazutaka Ikeda, Hiroshi Tsugawa, Makoto Arita, RIKEN Center for Integrative Medical Sciences, Japan
LICENSE: CC BY
COPYRIGHT: Copyright(C) 2017 RIKEN IMS
COMMENT: Found in mouse spleen; TwoDicalId=1266; MgfFile=160729_spleen_normal_01_Neg; MgfId=498
CH$NAME: PG 34:3
CH$COMPOUND_CLASS: PG
CH$FORMULA: C40H73O10P
CH$EXACT_MASS: 744.494137
CH$SMILES: CCCCCC\C=C/CCCCCCCC(=O)OCC(COP(O)(=O)OCC(O)CO)OC(=O)CCCCCCC\C=C/C\C=C/CCCCC
CH$IUPAC: InChI=1S/C40H73O10P/c1-3-5-7-9-11-13-15-17-18-20-22-24-26-28-30-32-40(44)50-38(36-49-51(45,46)48-34-37(42)33-41)35-47-39(43)31-29-27-25-23-21-19-16-14-12-10-8-6-4-2/h11,13-14,16-18,37-38,41-42H,3-10,12,15,19-36H2,1-2H3,(H,45,46)/b13-11-,16-14-,18-17-
CH$LINK: INCHIKEY PTJBFPPEYDFAAQ-RUGCENDASA-N
CH$LINK: PUBCHEM CID:138239342
AC$INSTRUMENT: AB Sciex TripleTOF 5600+ system (Q-TOF) equipped with a DuoSpray ion source
AC$INSTRUMENT_TYPE: LC-ESI-QTOF
AC$MASS_SPECTROMETRY: MS_TYPE MS2
AC$MASS_SPECTROMETRY: ION_MODE NEGATIVE
AC$MASS_SPECTROMETRY: COLLISION_ENERGY 45V
AC$CHROMATOGRAPHY: COLUMN_NAME Acquity UPLC Peptide BEH C18 column (50*2.1 mm; 1.7 um; 130A)(Waters Co.,Milford, MA, USA)
AC$CHROMATOGRAPHY: COLUMN_TEMPERATURE 45 C
AC$CHROMATOGRAPHY: FLOW_GRADIENT 0 min 0% B; 1 min 0% B; 5 min 40% B; 7.5 min 64% B; 12.0 min 64% B; 12.5 min 82.5% B, 19 min 85% B; 20 min 95% B; 20.1 min 0% B; 25 min 0% B.
AC$CHROMATOGRAPHY: FLOW_RATE 0.3 mL/min
AC$CHROMATOGRAPHY: RETENTION_TIME 7.859131
AC$CHROMATOGRAPHY: SOLVENT A 1:1:3 acetonitrile:methanol:water (v/v/v) with 5 mM ammonium acetate and 10 nM EDTA.
AC$CHROMATOGRAPHY: SOLVENT B 100% isopropanol with 5 mM ammonium acetate and 10 nM EDTA.
MS$FOCUSED_ION: PRECURSOR_TYPE [M-H]-
MS$FOCUSED_ION: PRECURSOR_M/Z 743.4879
PK$SPLASH: splash10-0f96-0090000400-edc58f2f24d7db410347
PK$NUM_PEAK: 29
PK$PEAK: m/z int. rel.int.
  152.997 10 12
  204.681 7 8
  251.2 26 31
  253.217 833 999
  277.18 6 7
  279.23 816 979
  279.258 20 24
  281.251 27 32
  283.263 15 18
  297.247 6 7
  303.2 6 7
  369.015 6 7
  415.23 6 7
  431.157 11 13
  433.264 6 7
  460.257 7 8
  463.234 9 10
  475.134 6 7
  481.247 11 13
  489.265 17 20
  507.266 18 21
  574.423 6 7
  681.412 6 7
  743.451 116 139
  743.487 759 911
  743.532 41 49
  743.559 17 20
  743.633 12 14
  744.483 6 7
//
