ACCESSION: MSBNK-RIKEN_IMS-LQA00146
RECORD_TITLE: PC(18:1/9-HODE); LC-ESI-QTOF; MS2
DATE: 2023.12.21 (Created 2017.09.05)
AUTHORS: Ryohei Aoyagi, Kazutaka Ikeda, Yosuke Isobe, Makoto Arita; RIKEN Center for Integrative Medical Sciences, Japan
LICENSE: CC BY
COMMENT: RIKEN oxidized phospholipids
CH$NAME: PC(18:1/9-HODE)
CH$COMPOUND_CLASS: Oxidized Phospholipid
CH$FORMULA: C44H82NO9P
CH$EXACT_MASS: 799.572717
CH$SMILES: CCCCCCCC\C=C/CCCCCCCC(=O)OCC(COP([O-])(=O)OCC[N+](C)(C)C)OC(=O)CCCCCCCC(O)\C=C\C=C/CCCCC
CH$IUPAC: InChI=1S/C44H82NO9P/c1-6-8-10-12-14-15-16-17-18-19-20-21-23-27-31-35-43(47)51-39-42(40-53-55(49,50)52-38-37-45(3,4)5)54-44(48)36-32-28-24-26-30-34-41(46)33-29-25-22-13-11-9-7-2/h17-18,22,25,29,33,41-42,46H,6-16,19-21,23-24,26-28,30-32,34-40H2,1-5H3/b18-17-,25-22-,33-29+
CH$LINK: INCHIKEY XTSWUMQLWCFGGN-REQILXKFSA-N
CH$LINK: PUBCHEM CID:134779823
AC$INSTRUMENT: Acquity UPLC Peptide BEH C18 column (50 x 2.1 mm; 1.7 um), Sciex TripleTOF5600
AC$INSTRUMENT_TYPE: LC-ESI-QTOF
AC$MASS_SPECTROMETRY: MS_TYPE MS2
AC$MASS_SPECTROMETRY: ION_MODE NEGATIVE
AC$MASS_SPECTROMETRY: COLLISION_ENERGY 30-50
MS$FOCUSED_ION: PRECURSOR_M/Z 858.5865727
MS$FOCUSED_ION: PRECURSOR_TYPE [M+CH3COOH-H]-
PK$SPLASH: splash10-001i-0070000900-4652a43d34b21e165aea
PK$NUM_PEAK: 435
PK$PEAK: m/z int. rel.int.
  78.96038 51 8
  78.96163 20 3
  168.0344 20 3
  168.0362 41 7
  168.0399 41 7
  168.0417 61 10
  168.0435 92 15
  168.0454 71 11
  168.0472 41 7
  168.049 102 16
  168.0509 20 3
  171.0862 20 3
  171.088 20 3
  171.0917 31 5
  171.0935 41 7
  171.0954 92 15
  171.0972 31 5
  171.0991 133 21
  171.1009 102 16
  171.1028 122 19
  171.1046 102 16
  171.1065 102 16
  171.1083 51 8
  171.1102 41 7
  171.112 20 3
  184.0346 20 3
  224.059 41 7
  224.0611 31 5
  224.0632 41 7
  224.0653 112 18
  224.0674 71 11
  224.0695 112 18
  224.0717 92 15
  224.0738 41 7
  224.0759 31 5
  224.078 31 5
  224.0801 31 5
  224.0843 31 5
  233.2285 20 3
  242.0724 20 3
  242.0746 20 3
  242.0834 20 3
  255.216 20 3
  255.2251 31 5
  255.2273 20 3
  255.2341 41 7
  255.2408 41 7
  276.3588 21 3
  277.1828 21 3
  277.1968 41 7
  277.1992 31 5
  277.2015 61 10
  277.2039 61 10
  277.2062 146 23
  277.2086 239 38
  277.2109 156 25
  277.2133 320 51
  277.2156 383 61
  277.218 322 51
  277.2203 362 58
  277.2227 218 35
  277.225 216 35
  277.2274 165 26
  277.2297 62 10
  277.2321 62 10
  277.2344 31 5
  277.2368 41 7
  277.2438 20 3
  280.3632 31 5
  280.3655 41 7
  280.3679 31 5
  280.3702 31 5
  280.375 20 3
  280.3773 20 3
  280.382 41 7
  280.3891 20 3
  280.3986 23 4
  280.4033 33 5
  281.0629 25 4
  281.1126 24 4
  281.2049 25 4
  281.2143 12 2
  281.2191 26 4
  281.2214 98 16
  281.2238 86 14
  281.2261 165 26
  281.2285 376 60
  281.2309 498 80
  281.2332 872 139
  281.2356 1347 215
  281.238 2228 356
  281.2404 3334 533
  281.2427 4028 644
  281.2451 4688 749
  281.2474 5095 814
  281.2498 5091 813
  281.2522 4678 747
  281.2545 3718 594
  281.2569 2215 354
  281.2593 1591 254
  281.2617 959 153
  281.264 595 95
  281.2664 293 47
  281.2687 324 52
  281.2711 101 16
  281.2735 169 27
  281.2758 40 6
  281.2782 26 4
  281.2806 42 7
  281.2829 15 2
  281.2853 24 4
  281.3042 25 4
  281.4676 13 2
  281.6949 15 2
  281.8559 14 2
  281.863 20 3
  281.8891 15 2
  281.9862 22 4
  282.2516 20 3
  282.2611 20 3
  282.2777 20 3
  282.4271 31 5
  282.5006 20 3
  282.6809 20 3
  283.2505 20 3
  283.2529 31 5
  283.2576 31 5
  283.26 31 5
  283.2672 20 3
  283.2695 41 7
  283.2719 20 3
  284.2607 20 3
  284.2702 41 7
  284.2797 20 3
  291.3194 22 4
  294.294 31 5
  294.3012 22 4
  294.3037 22 4
  294.6281 22 4
  294.7468 21 3
  295.1903 21 3
  295.1951 21 3
  295.1975 33 5
  295.2 12 2
  295.2024 11 2
  295.2048 67 11
  295.2072 202 32
  295.2097 290 46
  295.2121 284 45
  295.2145 603 96
  295.2169 1080 173
  295.2194 991 158
  295.2218 1467 234
  295.2242 1566 250
  295.2267 1687 270
  295.2291 1607 257
  295.2315 1566 250
  295.2339 993 159
  295.2363 840 134
  295.2388 539 86
  295.2412 470 75
  295.2436 183 29
  295.246 193 31
  295.2485 126 20
  295.2509 93 15
  295.2533 92 15
  295.2557 23 4
  295.2606 12 2
  295.2897 11 2
  295.6899 11 2
  296.0515 12 2
  296.2288 20 3
  296.2312 20 3
  297.2496 11 2
  303.215 11 2
  417.2427 20 3
  431.2064 20 3
  431.2093 31 5
  431.2122 41 7
  431.2152 41 7
  431.2181 41 7
  431.221 51 8
  431.224 20 3
  431.2269 41 7
  431.2298 20 3
  431.2328 41 7
  488.3019 41 7
  488.3081 20 3
  488.3112 61 10
  488.3144 41 7
  488.3175 41 7
  488.3237 31 5
  488.3331 20 3
  488.3362 31 5
  502.2658 41 7
  502.269 51 8
  502.2722 20 3
  502.2785 71 11
  502.2816 41 7
  502.2848 41 7
  502.288 51 8
  502.2911 92 15
  502.2943 41 7
  502.2975 61 10
  502.3006 41 7
  502.3038 51 8
  502.3069 31 5
  502.3101 61 10
  502.3133 31 5
  502.3196 20 3
  502.3259 20 3
  506.2962 31 5
  506.3026 20 3
  506.3089 51 8
  506.3121 51 8
  506.3152 61 10
  506.3184 51 8
  506.3216 82 13
  506.3248 122 19
  506.328 61 10
  506.3311 133 21
  506.3343 61 10
  506.3375 41 7
  506.3407 51 8
  506.3438 51 8
  506.347 31 5
  511.0314 21 3
  520.2654 41 7
  520.2687 31 5
  520.2719 113 18
  520.2751 51 8
  520.2783 134 21
  520.2816 134 21
  520.2848 103 16
  520.288 146 23
  520.2912 361 58
  520.2944 200 32
  520.2976 291 46
  520.3008 179 29
  520.3041 262 42
  520.3073 251 40
  520.3105 321 51
  520.3137 219 35
  520.317 221 35
  520.3202 136 22
  520.3234 165 26
  520.3266 92 15
  520.3298 61 10
  520.3331 20 3
  520.3362 62 10
  520.3459 51 8
  520.3524 20 3
  608.1739 20 3
  713.4321 20 3
  713.4359 20 3
  713.4396 20 3
  713.4434 20 3
  713.4472 31 5
  713.4509 41 7
  713.4547 41 7
  713.4585 20 3
  713.4623 51 8
  713.466 71 11
  713.4698 133 21
  713.4736 133 21
  713.4774 82 13
  713.4811 112 18
  713.4849 71 11
  713.4886 102 16
  713.4924 122 19
  713.4962 92 15
  713.4999 92 15
  713.5037 92 15
  713.5075 20 3
  713.5112 31 5
  713.515 41 7
  713.5188 41 7
  713.5226 20 3
  713.5263 20 3
  739.4702 20 3
  739.4741 31 5
  739.4779 20 3
  739.4856 31 5
  739.4894 20 3
  739.5009 41 7
  739.5086 20 3
  740.5066 20 3
  740.5258 20 3
  758.5384 20 3
  782.0183 20 3
  782.0262 20 3
  782.042 20 3
  782.0459 20 3
  782.0617 20 3
  782.0657 20 3
  782.0735 41 7
  782.0775 51 8
  782.0814 41 7
  782.0854 51 8
  782.0894 31 5
  782.0933 31 5
  782.1011 20 3
  782.1051 31 5
  782.1091 20 3
  782.1169 20 3
  782.1328 20 3
  782.1367 20 3
  782.1446 20 3
  782.6813 20 3
  783.4987 20 3
  784.4705 27 4
  784.4943 81 13
  784.4982 281 45
  784.5021 273 44
  784.5061 458 73
  784.5101 803 128
  784.514 1069 171
  784.5179 1324 212
  784.5219 1664 266
  784.5259 2323 371
  784.5298 2827 452
  784.5338 3495 558
  784.5377 4654 744
  784.5417 5020 802
  784.5457 4896 782
  784.5496 5427 867
  784.5535 5396 862
  784.5575 6198 990
  784.5615 6253 999
  784.5654 4323 691
  784.5693 4067 650
  784.5733 3490 558
  784.5773 2237 357
  784.5812 1896 303
  784.5851 1568 251
  784.5891 936 150
  784.5931 581 93
  784.597 335 54
  784.601 275 44
  784.6049 214 34
  784.6089 181 29
  784.6128 89 14
  784.6168 84 13
  784.6207 67 11
  784.6247 33 5
  784.6286 44 7
  784.6326 51 8
  784.6365 19 3
  785.4905 29 5
  785.5221 41 7
  785.5261 20 3
  785.53 51 8
  785.534 51 8
  785.538 51 8
  785.5419 27 4
  785.5458 51 8
  785.5498 51 8
  785.5538 102 16
  785.5577 31 5
  785.5616 82 13
  785.5656 51 8
  785.5696 51 8
  785.5735 20 3
  785.5775 51 8
  785.5814 41 7
  785.5894 20 3
  785.5973 20 3
  785.6012 20 3
  785.6526 20 3
  798.5308 31 5
  798.5428 20 3
  798.5468 20 3
  798.5508 20 3
  798.5707 31 5
  799.4601 41 7
  799.4641 20 3
  799.4761 51 8
  799.488 71 11
  799.492 61 10
  799.496 102 16
  799.5 71 11
  799.504 71 11
  799.508 71 11
  799.512 102 16
  799.5159 82 13
  799.52 41 7
  799.5239 82 13
  799.528 133 21
  799.5319 61 10
  799.5359 71 11
  799.5399 51 8
  799.5439 51 8
  799.5479 41 7
  799.5638 31 5
  808.4457 21 3
  858.4457 20 3
  858.5037 41 7
  858.5161 41 7
  858.5202 52 8
  858.5284 82 13
  858.5326 41 7
  858.5367 41 7
  858.5408 107 17
  858.545 107 17
  858.5491 127 20
  858.5533 268 43
  858.5574 130 21
  858.5615 314 50
  858.5657 346 55
  858.5698 348 56
  858.5739 435 69
  858.5781 391 62
  858.5822 634 101
  858.5863 315 50
  858.5905 619 99
  858.5946 501 80
  858.5988 469 75
  858.6028 610 97
  858.607 500 80
  858.6111 381 61
  858.6153 228 36
  858.6194 227 36
  858.6235 217 35
  858.6277 239 38
  858.6318 195 31
  858.6359 109 17
  858.6401 100 16
  858.6442 76 12
  858.6484 54 9
  858.6525 32 5
  858.6566 21 3
  858.669 21 3
  858.8303 11 2
  859.5623 20 3
  859.5748 20 3
//
