ACCESSION: MSBNK-RIKEN_IMS-LQA00268
RECORD_TITLE: PE(18:1/9-HODE); LC-ESI-QTOF; MS2
DATE: 2023.12.21 (Created 2017.09.05)
AUTHORS: Ryohei Aoyagi, Kazutaka Ikeda, Yosuke Isobe, Makoto Arita; RIKEN Center for Integrative Medical Sciences, Japan
LICENSE: CC BY
COMMENT: RIKEN oxidized phospholipids
CH$NAME: PE(18:1/9-HODE)
CH$COMPOUND_CLASS: Oxidized Phospholipid
CH$FORMULA: C41H76NO9P
CH$EXACT_MASS: 757.525767
CH$SMILES: CCCCCCCC\C=C/CCCCCCCC(=O)OCC(COP(O)(=O)OCCN)OC(=O)CCCCCCCC(O)\C=C\C=C/CCCCC
CH$IUPAC: InChI=1S/C41H76NO9P/c1-3-5-7-9-11-12-13-14-15-16-17-18-20-24-28-32-40(44)48-36-39(37-50-52(46,47)49-35-34-42)51-41(45)33-29-25-21-23-27-31-38(43)30-26-22-19-10-8-6-4-2/h14-15,19,22,26,30,38-39,43H,3-13,16-18,20-21,23-25,27-29,31-37,42H2,1-2H3,(H,46,47)/b15-14-,22-19-,30-26+
CH$LINK: INCHIKEY YGGNZIGOWDYFPI-LMWOETAFSA-N
CH$LINK: PUBCHEM CID:134781122
AC$INSTRUMENT: Acquity UPLC Peptide BEH C18 column (50 x 2.1 mm; 1.7 um), Sciex TripleTOF5600
AC$INSTRUMENT_TYPE: LC-ESI-QTOF
AC$MASS_SPECTROMETRY: MS_TYPE MS2
AC$MASS_SPECTROMETRY: ION_MODE NEGATIVE
AC$MASS_SPECTROMETRY: COLLISION_ENERGY 30-50
MS$FOCUSED_ION: PRECURSOR_M/Z 756.5184935
MS$FOCUSED_ION: PRECURSOR_TYPE [M-H]-
PK$SPLASH: splash10-001i-0090000500-50dae9258f8bda68082f
PK$NUM_PEAK: 243
PK$PEAK: m/z int. rel.int.
  78.95675 20 8
  78.958 20 8
  78.95926 20 8
  78.96051 20 8
  123.1198 31 13
  140.0058 20 8
  140.0108 71 30
  140.0125 41 17
  140.0141 20 8
  140.0158 51 21
  171.092 41 17
  171.0957 61 25
  171.0975 112 47
  171.0994 173 72
  171.1012 235 98
  171.103 265 111
  171.1049 163 68
  171.1067 102 43
  171.1086 71 30
  171.1104 31 13
  171.1123 20 8
  171.1141 51 21
  188.1888 20 8
  196.0267 20 8
  196.0287 31 13
  196.0307 51 21
  196.0327 51 21
  196.0366 41 17
  196.0386 82 34
  196.0406 61 25
  196.0426 41 17
  233.2311 21 9
  253.2097 20 8
  276.3593 21 9
  277.0211 21 9
  277.1879 20 8
  277.195 72 30
  277.1973 41 17
  277.1997 72 30
  277.202 93 39
  277.2044 83 35
  277.2067 198 83
  277.209 314 131
  277.2114 325 136
  277.2137 325 136
  277.2161 209 87
  277.2184 345 144
  277.2208 356 149
  277.2232 355 148
  277.2255 229 96
  277.2279 156 65
  277.2302 73 30
  277.2326 42 18
  277.2349 52 22
  277.2373 42 18
  277.2396 21 9
  277.2513 21 9
  278.2178 11 5
  278.2225 22 9
  279.2284 21 9
  280.3731 21 9
  280.392 22 9
  280.8293 22 9
  281.0019 23 10
  281.1817 22 9
  281.2077 21 9
  281.2195 11 5
  281.2219 34 14
  281.2243 58 24
  281.2266 95 40
  281.229 164 68
  281.2314 301 126
  281.2337 553 231
  281.2361 823 344
  281.2385 1189 497
  281.2408 1564 653
  281.2432 1651 690
  281.2456 2022 844
  281.2479 2392 999
  281.2503 2257 943
  281.2527 1909 797
  281.255 1373 573
  281.2574 1159 484
  281.2598 756 316
  281.2621 489 204
  281.2645 418 175
  281.2668 298 124
  281.2692 135 56
  281.2716 86 36
  281.274 79 33
  281.2763 70 29
  281.281 12 5
  281.2834 12 5
  281.2929 34 14
  281.3544 13 5
  282.0104 12 5
  282.1573 12 5
  282.245 31 13
  282.2545 20 8
  282.2616 31 13
  293.2111 31 13
  293.2232 20 8
  294.0767 21 9
  294.3114 52 22
  294.3163 31 13
  294.7546 21 9
  294.9969 21 9
  295.0599 21 9
  295.1884 21 9
  295.1981 43 18
  295.2005 11 5
  295.2029 34 14
  295.2053 66 28
  295.2077 108 45
  295.2102 186 78
  295.2126 210 88
  295.215 440 184
  295.2174 596 249
  295.2199 669 279
  295.2223 833 348
  295.2247 1106 462
  295.2271 1217 508
  295.2296 1154 482
  295.232 1017 425
  295.2344 621 259
  295.2368 530 221
  295.2393 475 198
  295.2417 310 129
  295.2441 166 69
  295.2465 67 28
  295.249 110 46
  295.2514 89 37
  295.2538 45 19
  295.2562 33 14
  295.2587 34 14
  295.2611 11 5
  295.2926 11 5
  295.6321 11 5
  295.984 11 5
  296.2341 20 8
  296.2438 20 8
  299.0091 11 5
  415.2226 20 8
  460.2598 20 8
  460.281 31 13
  460.2841 41 17
  460.2871 20 8
  460.2932 31 13
  460.2962 20 8
  474.256 31 13
  474.2591 20 8
  474.2621 31 13
  474.2652 31 13
  474.2683 31 13
  474.2714 31 13
  474.2744 31 13
  474.2775 20 8
  474.2806 20 8
  474.2836 20 8
  478.2652 20 8
  478.2682 20 8
  478.2744 41 17
  478.2806 31 13
  478.2837 41 17
  478.2868 20 8
  478.2899 112 47
  478.2929 41 17
  478.296 31 13
  478.2991 51 21
  478.3022 92 38
  478.3084 41 17
  478.3145 20 8
  478.3176 20 8
  492.2393 31 13
  492.2424 31 13
  492.2455 31 13
  492.2518 31 13
  492.2549 31 13
  492.258 20 8
  492.2612 41 17
  492.2643 82 34
  492.2674 71 30
  492.2705 61 25
  492.2737 51 21
  492.2768 82 34
  492.2799 92 38
  492.2831 31 13
  492.2862 31 13
  492.2893 41 17
  492.2925 31 13
  492.2956 41 17
  492.2987 31 13
  492.305 20 8
  754.1354 20 8
  754.147 20 8
  754.1702 22 9
  756.4504 31 13
  756.4659 56 23
  756.4698 69 29
  756.4736 240 100
  756.4775 102 43
  756.4814 358 150
  756.4853 255 106
  756.4892 279 117
  756.493 508 212
  756.4969 705 294
  756.5009 889 371
  756.5047 1044 436
  756.5086 825 345
  756.5125 997 416
  756.5164 1320 551
  756.5202 1199 501
  756.5241 1500 626
  756.528 1352 565
  756.5319 1493 624
  756.5358 1305 545
  756.5396 1027 429
  756.5435 723 302
  756.5474 826 345
  756.5513 600 251
  756.5552 520 217
  756.559 345 144
  756.5629 131 55
  756.5668 272 114
  756.5707 83 35
  756.5746 59 25
  756.5784 24 10
  756.5823 84 35
  756.5862 57 24
  756.5901 41 17
  756.5978 12 5
  756.7181 12 5
  756.7842 12 5
  757.351 12 5
  757.4946 31 13
  757.4985 20 8
  757.5102 21 9
  757.5141 20 8
  757.5219 32 13
  757.5257 20 8
  757.5296 31 13
  757.5568 31 13
  761.6089 20 8
//
