ACCESSION: MSBNK-RIKEN_IMS-LQA00326
RECORD_TITLE: PI(16:0e/20-HETE); LC-ESI-QTOF; MS2
DATE: 2023.12.21 (Created 2017.09.05)
AUTHORS: Ryohei Aoyagi, Kazutaka Ikeda, Yosuke Isobe, Makoto Arita; RIKEN Center for Integrative Medical Sciences, Japan
LICENSE: CC BY
COMMENT: RIKEN oxidized phospholipids
CH$NAME: PI(16:0e/20-HETE)
CH$COMPOUND_CLASS: Oxidized Phospholipid
CH$FORMULA: C45H81O13P
CH$EXACT_MASS: 860.541482
CH$SMILES: CCCCCCCCCCCCCCCCOCC(COP(O)(=O)OC1C(O)C(O)C(O)C(O)C1O)OC(=O)CCC\C=C/C\C=C/C\C=C/C\C=C/CCCCCO
CH$IUPAC: InChI=1S/C45H81O13P/c1-2-3-4-5-6-7-8-9-17-20-23-26-29-32-35-55-36-38(37-56-59(53,54)58-45-43(51)41(49)40(48)42(50)44(45)52)57-39(47)33-30-27-24-21-18-15-13-11-10-12-14-16-19-22-25-28-31-34-46/h10,12-13,15-16,19,21,24,38,40-46,48-52H,2-9,11,14,17-18,20,22-23,25-37H2,1H3,(H,53,54)/b12-10-,15-13-,19-16-,24-21-
CH$LINK: INCHIKEY KIKHEDXETIJZRU-KRYFGHCNSA-N
CH$LINK: PUBCHEM CID:134743861
AC$INSTRUMENT: Acquity UPLC Peptide BEH C18 column (50 x 2.1 mm; 1.7 um), Sciex TripleTOF5600
AC$INSTRUMENT_TYPE: LC-ESI-QTOF
AC$MASS_SPECTROMETRY: MS_TYPE MS2
AC$MASS_SPECTROMETRY: ION_MODE NEGATIVE
AC$MASS_SPECTROMETRY: COLLISION_ENERGY 30-50
MS$FOCUSED_ION: PRECURSOR_M/Z 859.5342032
MS$FOCUSED_ION: PRECURSOR_TYPE [M-H]-
PK$SPLASH: splash10-0a4i-0039010070-7e10a33c1b67fbc78f71
PK$NUM_PEAK: 413
PK$PEAK: m/z int. rel.int.
  78.95181 36 27
  78.95306 24 18
  78.95431 48 35
  78.95555 60 44
  78.9568 130 96
  78.95804 73 54
  78.95929 117 86
  78.96054 48 35
  78.96178 36 27
  78.96428 12 9
  78.96552 12 9
  81.06692 12 9
  81.06818 12 9
  81.07071 12 9
  96.95909 12 9
  96.96047 24 18
  96.96185 12 9
  96.96323 24 18
  96.96461 12 9
  96.96599 12 9
  96.96737 24 18
  96.96875 36 27
  96.97014 12 9
  96.97152 12 9
  96.9729 36 27
  96.97566 12 9
  119.0872 24 18
  121.0945 12 9
  121.1037 12 9
  121.1052 12 9
  135.1109 36 27
  135.1158 12 9
  135.1174 12 9
  141.0852 12 9
  141.0919 12 9
  141.0936 12 9
  163.0732 12 9
  163.075 12 9
  163.0768 12 9
  163.1449 12 9
  163.1503 12 9
  163.1521 24 18
  163.1556 12 9
  163.1574 12 9
  167.4001 12 9
  167.4055 12 9
  167.4128 12 9
  177.1315 12 9
  177.1539 12 9
  177.1558 12 9
  177.167 12 9
  177.1707 12 9
  177.4901 12 9
  177.492 12 9
  186.444 12 9
  186.4479 12 9
  189.1579 12 9
  189.1695 12 9
  189.1714 12 9
  191.1694 12 9
  191.1752 12 9
  191.1791 12 9
  191.181 12 9
  193.1174 12 9
  193.1544 12 9
  206.0565 12 9
  206.0585 12 9
  210.3549 12 9
  210.3569 24 18
  210.7986 12 9
  210.8006 12 9
  217.1894 12 9
  217.1936 12 9
  219.2655 24 18
  222.7286 12 9
  222.7349 12 9
  222.9883 12 9
  222.9904 12 9
  222.9924 12 9
  222.9966 24 18
  222.9987 48 35
  223.0008 60 44
  223.0029 36 27
  223.005 12 9
  223.0071 12 9
  223.0113 12 9
  223.0134 12 9
  223.1705 12 9
  223.1747 12 9
  223.1768 12 9
  223.181 12 9
  223.6338 12 9
  223.638 12 9
  240.9911 12 9
  240.9933 12 9
  240.9955 12 9
  240.9977 24 18
  240.9999 85 63
  241.002 143 105
  241.0042 224 165
  241.0064 324 239
  241.0086 351 259
  241.0107 282 208
  241.0129 282 208
  241.0151 228 168
  241.0173 138 102
  241.0195 111 82
  241.0216 36 27
  241.0238 81 60
  241.026 24 18
  241.0282 12 9
  241.0347 12 9
  245.1897 24 18
  245.2072 12 9
  245.2116 12 9
  245.2138 12 9
  245.216 12 9
  245.2182 24 18
  245.2204 24 18
  245.2226 48 35
  245.2248 36 27
  245.227 24 18
  245.2292 24 18
  245.2314 36 27
  245.2336 12 9
  245.2358 12 9
  245.238 12 9
  245.2402 12 9
  245.8687 12 9
  245.8797 12 9
  253.2109 24 18
  253.2221 24 18
  257.2103 12 9
  257.2171 24 18
  257.2193 12 9
  257.2238 12 9
  257.2261 12 9
  257.2396 12 9
  259.0062 12 9
  259.0085 36 27
  259.0107 12 9
  259.013 12 9
  259.0197 12 9
  259.022 24 18
  259.0243 12 9
  259.0265 12 9
  259.0287 24 18
  259.031 12 9
  259.0333 24 18
  273.2014 12 9
  273.2037 12 9
  273.2084 12 9
  273.213 24 18
  273.2153 12 9
  273.2177 12 9
  273.22 24 18
  273.2223 24 18
  273.2246 60 44
  273.2269 12 9
  273.2315 24 18
  275.222 12 9
  275.2243 12 9
  275.2267 12 9
  275.229 12 9
  275.2336 48 35
  275.236 83 61
  275.2383 68 50
  275.2406 60 44
  275.2429 24 18
  275.2453 12 9
  275.2476 24 18
  275.2499 12 9
  275.2522 12 9
  275.2545 12 9
  283.1923 24 18
  283.2017 12 9
  283.204 12 9
  283.2583 12 9
  283.2701 12 9
  287.1856 12 9
  287.207 12 9
  288.3181 12 9
  288.3228 12 9
  288.3466 12 9
  289.2023 12 9
  289.2047 12 9
  289.207 36 27
  289.2094 36 27
  289.2118 65 48
  289.2142 108 80
  289.2166 36 27
  289.219 36 27
  289.2213 12 9
  289.2237 12 9
  289.2261 24 18
  289.2285 12 9
  291.226 12 9
  291.2332 12 9
  291.2404 12 9
  301.1974 24 18
  301.1998 12 9
  301.2022 12 9
  301.2047 73 54
  301.2071 70 52
  301.2095 110 81
  301.212 163 120
  301.2144 123 91
  301.2168 173 127
  301.2193 89 66
  301.2217 74 55
  301.2242 60 44
  301.2266 77 57
  301.229 64 47
  301.2314 12 9
  301.2339 24 18
  315.3685 12 9
  315.371 12 9
  317.1968 12 9
  317.2068 12 9
  317.2093 12 9
  317.2118 12 9
  317.2568 12 9
  317.5791 12 9
  317.5941 12 9
  318.2118 24 18
  318.2168 12 9
  318.2293 12 9
  318.2468 12 9
  318.2493 12 9
  319.2008 12 9
  319.2033 59 43
  319.2058 59 43
  319.2083 59 43
  319.2108 102 75
  319.2133 144 106
  319.2159 394 290
  319.2184 517 381
  319.2209 851 627
  319.2234 931 686
  319.2259 1356 999
  319.2284 924 681
  319.2309 817 602
  319.2334 642 473
  319.2359 423 312
  319.2384 248 183
  319.2409 168 124
  319.2434 71 52
  319.2459 59 43
  319.2484 47 35
  319.2509 47 35
  319.256 12 9
  319.2635 12 9
  319.266 12 9
  319.8351 12 9
  319.8577 12 9
  320.1989 12 9
  320.2215 12 9
  320.2441 12 9
  321.8122 12 9
  321.8373 12 9
  322.3584 12 9
  322.4037 12 9
  323.6868 12 9
  323.7045 12 9
  323.7449 12 9
  324.6338 12 9
  324.6439 12 9
  325.4303 12 9
  325.448 12 9
  326.4127 12 9
  326.4178 12 9
  328.7812 12 9
  328.8117 12 9
  377.2177 24 18
  377.2205 36 27
  377.2232 47 35
  377.2259 67 49
  377.2286 90 66
  377.2314 139 102
  377.2341 235 173
  377.2368 333 245
  377.2395 354 261
  377.2422 519 382
  377.245 509 375
  377.2477 398 293
  377.2504 401 295
  377.2531 193 142
  377.2559 192 141
  377.2586 175 129
  377.2613 116 85
  377.264 24 18
  377.2668 59 43
  377.2695 24 18
  377.2749 12 9
  395.2459 36 27
  395.2487 24 18
  395.2515 12 9
  395.2543 12 9
  395.2571 24 18
  395.2599 24 18
  395.2627 12 9
  395.2654 12 9
  395.2682 12 9
  395.3017 12 9
  395.3101 12 9
  429.0075 12 9
  429.0133 12 9
  467.646 12 9
  467.6491 12 9
  472.3072 12 9
  472.3163 12 9
  477.0894 12 9
  477.1048 12 9
  483.5259 24 18
  483.5444 12 9
  507.3531 12 9
  507.3563 12 9
  519.3074 12 9
  519.3202 12 9
  539.2669 24 18
  539.2734 24 18
  539.2767 67 49
  539.28 36 27
  539.2832 79 58
  539.2864 89 66
  539.2897 106 78
  539.293 80 59
  539.2962 76 56
  539.2995 82 60
  539.3027 113 83
  539.306 88 65
  539.3093 72 53
  539.3125 60 44
  539.3157 24 18
  539.319 12 9
  539.3223 12 9
  539.3288 12 9
  539.332 12 9
  539.3549 12 9
  539.8337 24 18
  557.2562 12 9
  557.2695 24 18
  557.2728 24 18
  557.2794 12 9
  557.2827 12 9
  557.2894 48 35
  557.2927 12 9
  557.296 48 35
  557.2993 69 51
  557.3026 60 44
  557.3059 100 74
  557.3092 68 50
  557.3125 48 35
  557.3159 48 35
  557.3192 60 44
  557.3224 12 9
  557.329 36 27
  557.3357 12 9
  557.3423 36 27
  576.1465 12 9
  576.1499 12 9
  697.4591 24 18
  697.4739 12 9
  697.4813 12 9
  697.4924 36 27
  697.5184 12 9
  856.8021 12 9
  856.8103 36 27
  856.8267 12 9
  856.8391 12 9
  859.337 12 9
  859.4193 12 9
  859.4562 12 9
  859.4645 23 17
  859.4727 12 9
  859.4768 12 9
  859.4809 12 9
  859.485 58 43
  859.4891 23 17
  859.4932 97 71
  859.4974 94 69
  859.5015 121 89
  859.5056 154 113
  859.5097 351 259
  859.5138 347 256
  859.5179 654 482
  859.522 888 654
  859.5261 1191 877
  859.5303 1317 970
  859.5344 1203 886
  859.5385 1249 920
  859.5426 1051 774
  859.5467 870 641
  859.5508 855 630
  859.5549 512 377
  859.559 247 182
  859.5632 196 144
  859.5673 77 57
  859.5714 130 96
  859.5755 46 34
  859.5796 46 34
  859.5837 23 17
  859.5878 12 9
  859.5961 35 26
  859.6002 23 17
  859.6331 12 9
  860.5339 12 9
  860.5873 12 9
  862.4645 12 9
  862.4934 12 9
  865.4905 12 9
  865.5029 12 9
  865.5153 12 9
//
