ACCESSION: MSBNK-RIKEN_IMS-LQA00087
RECORD_TITLE: PC(16:1/18-HETE); LC-ESI-QTOF; MS2
DATE: 2023.12.21 (Created 2017.09.05)
AUTHORS: Ryohei Aoyagi, Kazutaka Ikeda, Yosuke Isobe, Makoto Arita; RIKEN Center for Integrative Medical Sciences, Japan
LICENSE: CC BY
COMMENT: RIKEN oxidized phospholipids
CH$NAME: PC(16:1/18-HETE)
CH$COMPOUND_CLASS: Oxidized Phospholipid
CH$FORMULA: C44H78NO9P
CH$EXACT_MASS: 795.541417
CH$SMILES: CCCCCC\C=C/CCCCCCCC(=O)OCC(COP([O-])(=O)OCC[N+](C)(C)C)OC(=O)CCC\C=C/C\C=C/C\C=C/C\C=C/CCC(O)CC
CH$IUPAC: InChI=1S/C44H78NO9P/c1-6-8-9-10-11-12-13-16-20-23-26-29-32-35-43(47)51-39-42(40-53-55(49,50)52-38-37-45(3,4)5)54-44(48)36-33-30-27-24-21-18-15-14-17-19-22-25-28-31-34-41(46)7-2/h12-13,15,17-19,24-25,27-28,41-42,46H,6-11,14,16,20-23,26,29-40H2,1-5H3/b13-12-,18-15-,19-17-,27-24-,28-25-
CH$LINK: INCHIKEY NAQIZKKJUBBGIH-WAFHXWQLSA-N
CH$LINK: PUBCHEM CID:134751556
AC$INSTRUMENT: Acquity UPLC Peptide BEH C18 column (50 x 2.1 mm; 1.7 um), Sciex TripleTOF5600
AC$INSTRUMENT_TYPE: LC-ESI-QTOF
AC$MASS_SPECTROMETRY: MS_TYPE MS2
AC$MASS_SPECTROMETRY: ION_MODE NEGATIVE
AC$MASS_SPECTROMETRY: COLLISION_ENERGY 30-50
MS$FOCUSED_ION: PRECURSOR_M/Z 854.5552726
MS$FOCUSED_ION: PRECURSOR_TYPE [M+CH3COOH-H]-
PK$SPLASH: splash10-001i-0024000900-0fe9af620b63dad458f7
PK$NUM_PEAK: 547
PK$PEAK: m/z int. rel.int.
  78.95748 4 3
  78.96124 10 7
  78.96249 8 5
  81.07276 4 3
  83.05648 4 3
  163.08 4 3
  163.1485 8 5
  163.1503 4 3
  168.0325 4 3
  168.0343 6 4
  168.0361 12 8
  168.038 6 4
  168.0398 8 5
  168.0416 12 8
  168.0435 33 22
  168.0453 12 8
  168.0471 16 11
  168.049 16 11
  168.0508 12 8
  168.0526 4 3
  168.0618 4 3
  177.0897 4 3
  177.0991 4 3
  189.1611 4 3
  203.1781 4 3
  203.1821 4 3
  206.0562 4 3
  217.1822 14 9
  217.1843 14 9
  217.1863 14 9
  217.1884 18 12
  217.1905 22 14
  217.1926 18 12
  217.1947 35 23
  217.1967 27 18
  217.1988 24 16
  217.2009 29 19
  217.203 18 12
  217.2051 14 9
  217.2071 14 9
  217.2092 8 5
  224.0476 4 3
  224.0539 6 4
  224.0582 10 7
  224.0603 20 13
  224.0624 12 8
  224.0645 29 19
  224.0666 29 19
  224.0687 24 16
  224.0708 41 27
  224.0729 14 9
  224.075 27 18
  224.0772 18 12
  224.0793 4 3
  224.0814 22 14
  231.14 4 3
  242.0757 4 3
  242.0779 4 3
  242.0801 4 3
  242.0823 14 9
  242.0889 8 5
  243.168 4 3
  245.2008 4 3
  250.253 4 3
  252.4251 4 3
  252.4296 4 3
  252.4677 4 3
  253.1856 4 3
  253.1901 8 5
  253.1923 16 11
  253.1946 21 14
  253.1968 33 22
  253.1991 44 29
  253.2013 76 50
  253.2036 136 90
  253.2058 172 113
  253.2081 260 171
  253.2103 297 195
  253.2125 381 251
  253.2148 454 299
  253.217 423 278
  253.2193 469 309
  253.2215 427 281
  253.2238 387 255
  253.226 264 174
  253.2283 158 104
  253.2305 139 91
  253.2328 87 57
  253.235 57 38
  253.2372 50 33
  253.2395 34 22
  253.2417 19 13
  253.244 10 7
  253.2462 6 4
  253.2485 12 8
  253.3271 4 3
  254.1272 4 3
  254.2149 4 3
  254.2171 6 4
  254.2216 4 3
  254.2284 6 4
  257.2067 4 3
  257.209 4 3
  257.2135 8 5
  257.2158 8 5
  257.218 4 3
  257.2203 8 5
  257.2226 6 4
  257.2248 22 14
  257.2271 14 9
  257.2293 20 13
  257.2316 24 16
  257.2339 8 5
  257.2361 18 12
  257.2384 4 3
  257.2407 6 4
  257.2429 4 3
  260.3686 4 3
  261.1592 6 4
  261.166 8 5
  261.1683 12 8
  261.1706 33 22
  261.1729 31 20
  261.1751 49 32
  261.1774 82 54
  261.1797 86 57
  261.182 98 64
  261.1843 102 67
  261.1866 120 79
  261.1888 104 68
  261.1911 90 59
  261.1934 86 57
  261.1956 59 39
  261.1979 65 43
  261.2002 35 23
  261.2025 24 16
  261.2048 10 7
  261.2071 14 9
  261.2094 12 8
  261.2116 4 3
  261.2139 4 3
  262.1908 4 3
  273.2184 4 3
  273.2277 4 3
  273.2324 4 3
  275.2184 6 4
  275.2231 8 5
  275.2254 6 4
  275.2278 6 4
  275.2301 10 7
  275.2325 6 4
  275.2348 10 7
  275.2372 10 7
  275.2395 8 5
  275.2418 10 7
  275.2442 14 9
  275.2465 14 9
  275.2488 4 3
  283.1847 4 3
  283.1989 4 3
  283.2013 6 4
  283.263 4 3
  283.2726 4 3
  294.946 4 3
  300.2962 4 3
  301.1918 8 5
  301.1942 10 7
  301.1967 12 8
  301.1992 8 5
  301.2016 39 26
  301.204 33 22
  301.2065 53 35
  301.209 73 48
  301.2114 80 53
  301.2138 108 71
  301.2163 106 70
  301.2188 88 58
  301.2212 126 83
  301.2236 88 58
  301.2261 63 41
  301.2285 75 49
  301.231 47 31
  301.2334 29 19
  301.2359 16 11
  301.2383 10 7
  301.2408 20 13
  301.2432 6 4
  301.2457 6 4
  301.2481 4 3
  301.253 4 3
  317.2007 6 4
  317.2057 6 4
  317.2082 6 4
  317.2107 6 4
  317.2132 4 3
  317.2158 8 5
  317.2183 4 3
  317.2208 4 3
  317.2283 4 3
  318.2067 4 3
  318.2217 8 5
  318.2243 4 3
  318.2268 6 4
  318.2318 6 4
  318.2394 6 4
  318.2419 4 3
  318.2444 4 3
  318.2469 4 3
  318.2645 4 3
  319.0277 4 3
  319.0781 4 3
  319.189 10 7
  319.1915 4 3
  319.1941 10 7
  319.1966 8 5
  319.1991 34 22
  319.2016 42 28
  319.2041 77 51
  319.2067 142 93
  319.2092 213 140
  319.2117 309 203
  319.2142 405 267
  319.2167 540 355
  319.2193 643 423
  319.2218 791 521
  319.2243 937 617
  319.2268 968 637
  319.2293 968 637
  319.2319 931 613
  319.2344 873 575
  319.2369 747 492
  319.2394 458 301
  319.242 394 259
  319.2445 265 174
  319.247 219 144
  319.2495 108 71
  319.252 97 64
  319.2545 71 47
  319.2571 49 32
  319.2596 35 23
  319.2621 21 14
  319.2646 4 3
  319.2672 4 3
  319.2747 4 3
  320.2108 4 3
  320.2133 4 3
  320.2184 4 3
  320.2209 10 7
  320.2259 4 3
  320.2285 10 7
  320.231 10 7
  320.2335 12 8
  320.236 12 8
  320.2385 8 5
  320.2411 4 3
  320.2436 8 5
  320.2537 4 3
  320.577 4 3
  321.4643 4 3
  389.202 6 4
  389.2076 6 4
  389.2131 6 4
  389.2159 4 3
  407.2209 4 3
  433.9019 4 3
  455.2161 4 3
  460.2483 4 3
  460.2574 4 3
  460.2604 8 5
  460.2635 6 4
  460.2665 4 3
  460.2695 8 5
  460.2726 14 9
  460.2756 18 12
  460.2786 14 9
  460.2816 27 18
  460.2846 24 16
  460.2877 16 11
  460.2907 8 5
  460.2937 22 14
  460.2968 10 7
  460.2998 14 9
  460.3028 8 5
  460.3058 4 3
  460.3089 6 4
  460.3119 6 4
  470.2641 6 4
  478.2408 4 3
  478.247 4 3
  478.2501 4 3
  478.2594 10 7
  478.2625 10 7
  478.2655 10 7
  478.2686 27 18
  478.2717 20 13
  478.2748 18 12
  478.2779 45 30
  478.2809 69 45
  478.284 84 55
  478.2871 88 58
  478.2902 98 64
  478.2933 112 74
  478.2964 151 99
  478.2995 118 78
  478.3026 96 63
  478.3056 98 64
  478.3087 78 51
  478.3118 59 39
  478.3149 57 38
  478.318 53 35
  478.3211 24 16
  478.3242 16 11
  478.3272 22 14
  478.3303 12 8
  478.3334 6 4
  478.3365 10 7
  478.4414 4 3
  479.3091 4 3
  491.5072 4 3
  526.25 4 3
  526.2759 4 3
  526.2792 6 4
  526.2824 10 7
  526.2856 12 8
  526.2889 8 5
  526.2921 10 7
  526.2953 8 5
  526.3018 4 3
  526.3051 10 7
  526.3083 8 5
  526.3115 14 9
  526.3148 4 3
  526.318 4 3
  526.3212 4 3
  526.3406 4 3
  533.0302 4 3
  544.2852 4 3
  544.2885 8 5
  544.2918 4 3
  544.2951 12 8
  544.2983 12 8
  544.3016 12 8
  544.3049 6 4
  544.3082 14 9
  544.3115 10 7
  544.3148 10 7
  544.3181 6 4
  544.3214 10 7
  544.3247 8 5
  544.3313 4 3
  709.4109 4 3
  709.426 4 3
  709.4297 12 8
  709.4335 6 4
  709.4373 12 8
  709.441 8 5
  709.4448 4 3
  709.4485 12 8
  709.4523 8 5
  709.4561 10 7
  709.4598 4 3
  709.4636 10 7
  709.4673 4 3
  709.4711 6 4
  709.4749 10 7
  709.4861 8 5
  709.4899 6 4
  735.4525 6 4
  735.4563 6 4
  735.4716 4 3
  735.4754 4 3
  736.4936 4 3
  778.0157 4 3
  778.0433 6 4
  778.059 6 4
  778.0629 6 4
  778.0669 10 7
  778.0708 6 4
  778.0748 4 3
  778.0787 12 8
  778.0826 4 3
  778.0865 4 3
  778.0905 10 7
  778.0944 10 7
  778.0984 16 11
  778.1023 4 3
  778.1063 6 4
  779.4726 4 3
  779.5317 4 3
  779.5947 6 4
  780.3276 4 3
  780.4222 6 4
  780.4301 4 3
  780.4341 6 4
  780.438 14 9
  780.442 14 9
  780.4459 14 9
  780.4498 29 19
  780.4538 8 5
  780.4656 27 18
  780.4695 76 50
  780.4734 131 86
  780.4774 225 148
  780.4814 231 152
  780.4853 329 217
  780.4893 418 275
  780.4932 626 412
  780.4971 719 473
  780.5011 839 552
  780.505 1039 684
  780.509 1195 786
  780.5129 1332 877
  780.5168 1314 865
  780.5208 1499 986
  780.5247 1518 999
  780.5287 1427 939
  780.5326 1435 944
  780.5366 1355 892
  780.5405 1453 956
  780.5444 1278 841
  780.5484 1050 691
  780.5523 918 604
  780.5563 749 493
  780.5602 577 380
  780.5641 475 313
  780.5681 345 227
  780.572 235 155
  780.576 184 121
  780.5799 177 116
  780.5839 75 49
  780.5878 67 44
  780.5917 59 39
  780.5957 39 26
  780.5996 30 20
  780.6036 24 16
  780.6075 16 11
  780.6115 9 6
  780.6154 4 3
  780.6193 4 3
  780.6312 6 4
  780.6469 4 3
  780.9899 4 3
  781.0215 4 3
  781.1279 4 3
  781.1359 4 3
  781.1793 4 3
  781.4672 4 3
  781.4789 8 5
  781.4829 10 7
  781.4908 16 11
  781.4948 18 12
  781.4987 12 8
  781.5026 14 9
  781.5066 18 12
  781.5106 31 20
  781.5145 20 13
  781.5184 37 24
  781.5223 49 32
  781.5263 31 20
  781.5303 35 23
  781.5342 27 18
  781.5381 27 18
  781.5421 33 22
  781.546 35 23
  781.55 12 8
  781.5539 6 4
  781.5579 20 13
  781.5618 8 5
  781.5657 12 8
  781.5697 6 4
  781.5737 4 3
  781.5776 8 5
  781.5815 6 4
  781.5934 4 3
  781.8972 4 3
  783.4642 4 3
  794.5576 4 3
  795.4049 4 3
  795.4487 6 4
  795.4526 6 4
  795.4567 10 7
  795.4606 12 8
  795.4646 4 3
  795.4686 16 11
  795.4725 20 13
  795.4766 22 14
  795.4805 10 7
  795.4845 22 14
  795.4885 22 14
  795.4924 14 9
  795.4965 22 14
  795.5004 27 18
  795.5044 10 7
  795.5084 12 8
  795.5123 16 11
  795.5164 12 8
  795.5203 4 3
  795.5322 12 8
  795.5363 18 12
  795.5402 4 3
  818.5113 4 3
  836.4591 4 3
  854.4654 8 5
  854.4778 6 4
  854.4819 4 3
  854.486 10 7
  854.4901 8 5
  854.4943 16 11
  854.4984 10 7
  854.5025 6 4
  854.5067 33 22
  854.5107 18 12
  854.5149 24 16
  854.519 35 23
  854.5231 43 28
  854.5273 53 35
  854.5314 37 24
  854.5355 71 47
  854.5396 73 48
  854.5438 71 47
  854.5479 67 44
  854.552 88 58
  854.5562 98 64
  854.5602 102 67
  854.5644 106 70
  854.5685 122 80
  854.5726 82 54
  854.5768 139 91
  854.5809 112 74
  854.585 104 68
  854.5891 75 49
  854.5933 63 41
  854.5974 67 44
  854.6015 53 35
  854.6057 45 30
  854.6097 33 22
  854.6139 35 23
  854.618 20 13
  854.6221 8 5
  854.6262 4 3
  854.6304 4 3
  854.6428 8 5
  855.5298 6 4
  855.567 6 4
  855.5711 4 3
  855.5835 8 5
  855.6 8 5
//
