ACCESSION: MSBNK-RIKEN_IMS-LQA00342
RECORD_TITLE: PI(18:0/16,17-EpDPE); LC-ESI-QTOF; MS2
DATE: 2023.12.21 (Created 2017.09.05)
AUTHORS: Ryohei Aoyagi, Kazutaka Ikeda, Yosuke Isobe, Makoto Arita; RIKEN Center for Integrative Medical Sciences, Japan
LICENSE: CC BY
COMMENT: RIKEN oxidized phospholipids
CH$NAME: PI(18:0/16,17-EpDPE)
CH$COMPOUND_CLASS: Oxidized Phospholipid
CH$FORMULA: C49H83O14P
CH$EXACT_MASS: 926.552047
CH$SMILES: CCCCCCCCCCCCCCCCCC(=O)OCC(COP(O)(=O)OC1C(O)C(O)C(O)C(O)C1O)OC(=O)CC\C=C/C\C=C/C\C=C/C\C=C/CC1OC1C\C=C/CC
CH$IUPAC: InChI=1S/C49H83O14P/c1-3-5-7-8-9-10-11-12-13-14-18-21-24-27-31-35-42(50)59-37-39(38-60-64(57,58)63-49-47(55)45(53)44(52)46(54)48(49)56)61-43(51)36-32-28-25-22-19-16-15-17-20-23-26-30-34-41-40(62-41)33-29-6-4-2/h6,16-17,19-20,25-26,28-30,39-41,44-49,52-56H,3-5,7-15,18,21-24,27,31-38H2,1-2H3,(H,57,58)/b19-16-,20-17-,28-25-,29-6-,30-26-
CH$LINK: INCHIKEY WJBAVHUIDSLIOW-FLEGWXGLSA-N
CH$LINK: PUBCHEM CID:134775989
AC$INSTRUMENT: Acquity UPLC Peptide BEH C18 column (50 x 2.1 mm; 1.7 um), Sciex TripleTOF5600
AC$INSTRUMENT_TYPE: LC-ESI-QTOF
AC$MASS_SPECTROMETRY: MS_TYPE MS2
AC$MASS_SPECTROMETRY: ION_MODE NEGATIVE
AC$MASS_SPECTROMETRY: COLLISION_ENERGY 30-50
MS$FOCUSED_ION: PRECURSOR_M/Z 925.5447679
MS$FOCUSED_ION: PRECURSOR_TYPE [M-H]-
PK$SPLASH: splash10-004i-0000000009-401b661bf71b247926e9
PK$NUM_PEAK: 1586
PK$PEAK: m/z int. rel.int.
  78.95101 6 0
  78.95226 6 0
  78.95475 18 1
  78.956 30 2
  78.95724 66 3
  78.95849 24 1
  78.95973 18 1
  78.96098 12 1
  78.96223 18 1
  78.96347 6 0
  78.96472 6 0
  78.96596 6 0
  93.06078 6 0
  93.06349 6 0
  94.73923 6 0
  94.75425 6 0
  95.08219 6 0
  95.08629 6 0
  96.96366 6 0
  96.96504 6 0
  96.96643 12 1
  96.97195 6 0
  97.06727 6 0
  97.07833 6 0
  106.043 6 0
  106.0444 6 0
  107.0796 6 0
  107.0825 6 0
  107.0854 6 0
  111.0739 6 0
  111.0784 6 0
  113.7446 12 1
  114.5507 6 0
  114.5522 6 0
  114.5567 6 0
  120.774 6 0
  120.7787 6 0
  121.0624 12 1
  121.064 6 0
  121.0717 6 0
  125.0938 6 0
  125.097 6 0
  125.1033 6 0
  127.0766 6 0
  127.0782 6 0
  133.0666 6 0
  133.0957 6 0
  133.1006 6 0
  133.1038 6 0
  133.1103 6 0
  134.9809 12 1
  134.9858 6 0
  135.0852 6 0
  135.1129 6 0
  135.1146 6 0
  135.1178 6 0
  137.6895 6 0
  137.701 6 0
  145.0615 6 0
  145.075 6 0
  145.0986 6 0
  147.0854 6 0
  147.1092 6 0
  147.116 6 0
  147.1178 6 0
  147.1194 6 0
  147.1228 6 0
  149.0909 6 0
  149.0943 6 0
  152.9845 12 1
  152.9863 6 0
  152.988 33 2
  152.9898 39 2
  152.9915 50 3
  152.9932 56 3
  152.995 51 3
  152.9967 74 4
  152.9984 60 3
  153.0002 57 3
  153.0019 24 1
  153.0054 6 0
  153.0071 12 1
  153.8132 6 0
  153.8445 6 0
  154.2814 6 0
  154.2936 6 0
  155.1065 6 0
  155.1135 6 0
  155.1275 6 0
  155.9583 12 1
  163.07 12 1
  163.0754 6 0
  163.0986 6 0
  163.1148 6 0
  163.1166 6 0
  163.1488 6 0
  166.2935 6 0
  166.2989 6 0
  170.9962 6 0
  170.998 6 0
  171.0016 6 0
  171.0127 6 0
  172.6379 6 0
  172.6452 6 0
  173.1302 6 0
  173.1339 6 0
  173.1358 6 0
  173.1395 6 0
  173.1432 6 0
  175.1439 6 0
  175.1495 6 0
  175.1532 6 0
  187.1421 6 0
  187.144 6 0
  187.1478 6 0
  187.1498 6 0
  189.1544 12 1
  189.1582 18 1
  189.1602 24 1
  189.1621 24 1
  189.164 6 0
  189.166 18 1
  189.1679 6 0
  189.1698 12 1
  189.1717 12 1
  189.1737 6 0
  189.1775 6 0
  198.1395 6 0
  198.1474 6 0
  201.1318 6 0
  201.1477 6 0
  201.1517 12 1
  201.1537 6 0
  201.1557 6 0
  201.1577 6 0
  201.1616 50 3
  201.1636 24 1
  201.1656 18 1
  201.1676 18 1
  201.1696 12 1
  201.1716 18 1
  201.1736 24 1
  203.1758 6 0
  203.1778 12 1
  205.1176 6 0
  205.1196 6 0
  205.1296 6 0
  215.1358 6 0
  215.1379 6 0
  215.1585 6 0
  217.0967 6 0
  217.1173 6 0
  217.1235 6 0
  219.139 6 0
  219.1411 12 1
  219.1806 6 0
  221.1159 6 0
  221.1242 6 0
  221.1534 6 0
  222.9864 6 0
  222.9885 18 1
  222.9906 18 1
  222.9927 40 2
  222.9948 36 2
  222.9969 34 2
  222.9989 49 3
  223.001 40 2
  223.0031 77 4
  223.0052 18 1
  223.0073 30 2
  223.0094 12 1
  223.0115 18 1
  223.0136 12 1
  223.0199 6 0
  227.0299 6 0
  227.0341 6 0
  227.144 6 0
  227.1461 12 1
  227.1673 6 0
  227.18 6 0
  227.1821 6 0
  227.1842 6 0
  227.1863 6 0
  227.1884 6 0
  229.1502 6 0
  229.1545 6 0
  229.1587 6 0
  229.1608 18 1
  229.1693 6 0
  229.2012 6 0
  230.1258 6 0
  230.1598 6 0
  231.129 6 0
  231.1311 6 0
  231.1332 12 1
  231.1375 6 0
  233.1376 6 0
  233.1398 12 1
  233.1419 12 1
  233.144 6 0
  233.1462 12 1
  233.1483 33 2
  233.1505 32 2
  233.1526 48 2
  233.1548 37 2
  233.1569 33 2
  233.159 6 0
  233.1612 18 1
  233.1633 12 1
  233.1655 18 1
  233.1676 6 0
  233.1719 6 0
  240.2429 6 0
  240.2516 6 0
  240.2581 6 0
  240.2625 6 0
  240.3016 6 0
  240.9913 12 1
  240.9935 24 1
  240.9957 30 2
  240.9978 49 3
  241 55 3
  241.0022 116 6
  241.0044 157 8
  241.0066 253 13
  241.0087 336 17
  241.0109 265 14
  241.0131 326 17
  241.0153 232 12
  241.0175 185 10
  241.0196 108 6
  241.0218 51 3
  241.024 30 2
  241.0262 30 2
  241.0283 12 1
  241.0305 6 0
  241.0545 6 0
  245.1415 6 0
  245.1459 33 2
  245.1481 30 2
  245.1503 12 1
  245.1525 24 1
  245.1547 38 2
  245.1569 12 1
  245.1591 18 1
  245.1613 18 1
  245.1656 6 0
  245.1678 6 0
  245.1766 6 0
  246.1505 6 0
  246.1549 6 0
  246.1615 6 0
  246.1703 6 0
  246.1725 6 0
  246.1747 6 0
  247.1593 6 0
  247.1637 12 1
  247.1659 12 1
  247.1681 6 0
  247.1703 6 0
  247.177 6 0
  247.1858 6 0
  248.3647 6 0
  248.3669 6 0
  248.9773 6 0
  248.9795 6 0
  255.1407 6 0
  255.1497 6 0
  259.0018 6 0
  259.0086 6 0
  259.0108 18 1
  259.0131 6 0
  259.0154 18 1
  259.0176 32 2
  259.0199 34 2
  259.0221 44 2
  259.0244 12 1
  259.0266 6 0
  259.0289 33 2
  259.0311 18 1
  259.0357 6 0
  261.1392 6 0
  261.1415 6 0
  261.1437 6 0
  261.1483 6 0
  261.1505 6 0
  261.1551 24 1
  261.1619 6 0
  272.5042 6 0
  272.5134 6 0
  273.1459 12 1
  273.1528 6 0
  273.1551 18 1
  274.1389 6 0
  274.1435 6 0
  274.1458 6 0
  274.1482 24 1
  274.1505 35 2
  274.1528 47 2
  274.1551 52 3
  274.1574 30 2
  274.1598 35 2
  274.1621 12 1
  274.1644 12 1
  274.1667 6 0
  274.169 18 1
  274.3943 6 0
  274.4106 6 0
  279.0301 6 0
  279.0442 6 0
  281.2085 12 1
  281.2108 12 1
  281.2132 6 0
  281.2155 6 0
  281.2179 24 1
  281.2202 44 2
  281.2226 37 2
  281.2249 30 2
  281.2273 39 2
  281.2296 24 1
  281.232 24 1
  281.2367 12 1
  281.2391 30 2
  281.2438 6 0
  281.2461 12 1
  281.2649 6 0
  282.355 6 0
  282.3668 6 0
  282.3739 6 0
  282.3763 12 1
  282.3951 6 0
  283.2301 6 0
  283.2395 6 0
  283.2419 6 0
  283.2442 6 0
  283.2466 30 2
  283.249 46 2
  283.2513 39 2
  283.2537 110 6
  283.256 181 9
  283.2584 245 13
  283.2607 285 15
  283.2631 288 15
  283.2655 226 12
  283.2678 167 9
  283.2702 151 8
  283.2726 87 5
  283.2749 53 3
  283.2773 37 2
  283.2796 18 1
  283.282 12 1
  283.2844 6 0
  283.2867 12 1
  283.2891 6 0
  286.0743 6 0
  286.0838 6 0
  286.6819 12 1
  286.6843 6 0
  287.0858 6 0
  287.1024 6 0
  290.9197 6 0
  290.9437 6 0
  297.0204 12 1
  297.0229 30 2
  297.0253 18 1
  297.0277 30 2
  297.0301 51 3
  297.0325 50 3
  297.0349 56 3
  297.0374 36 2
  297.0398 18 1
  297.0422 24 1
  297.0446 18 1
  297.047 12 1
  297.0494 6 0
  297.0518 6 0
  297.0543 6 0
  297.0567 6 0
  299.2217 6 0
  299.2241 6 0
  299.2266 18 1
  299.229 24 1
  299.2314 18 1
  299.2338 18 1
  299.2363 18 1
  299.2387 12 1
  299.2411 18 1
  299.2435 12 1
  299.246 6 0
  299.2484 12 1
  304.5119 6 0
  304.5217 6 0
  304.5266 6 0
  307.1904 6 0
  307.215 6 0
  307.2617 6 0
  315.0074 6 0
  315.0323 6 0
  315.0348 6 0
  315.0373 24 1
  315.0398 12 1
  315.0423 24 1
  315.0448 24 1
  315.0473 6 0
  315.0497 18 1
  315.0522 6 0
  315.0547 6 0
  315.0572 12 1
  315.0597 12 1
  315.0622 6 0
  315.0746 6 0
  315.234 6 0
  315.239 6 0
  318.0717 6 0
  318.0767 6 0
  322.968 6 0
  322.9806 6 0
  324.894 6 0
  324.9117 6 0
  325.1975 6 0
  325.2 6 0
  325.2025 6 0
  325.205 6 0
  325.2076 32 2
  325.2101 30 2
  325.2126 18 1
  325.2152 46 2
  325.2177 24 1
  325.2202 30 2
  325.2227 12 1
  325.2253 30 2
  325.2278 6 0
  325.2303 6 0
  325.2329 6 0
  325.2455 6 0
  325.7516 6 0
  325.7946 6 0
  327.4752 6 0
  327.4955 6 0
  327.498 6 0
  328.4023 6 0
  328.448 6 0
  329.239 6 0
  329.2466 6 0
  329.2619 6 0
  334.3792 6 0
  334.4305 6 0
  334.4792 6 0
  342.1642 6 0
  342.1797 6 0
  343.2027 12 1
  343.2053 12 1
  343.2079 12 1
  343.2105 50 3
  343.2131 53 3
  343.2157 58 3
  343.2183 127 7
  343.2209 130 7
  343.2235 185 10
  343.2261 145 8
  343.2287 129 7
  343.2313 148 8
  343.2339 101 5
  343.2365 72 4
  343.2391 92 5
  343.2417 32 2
  343.2443 39 2
  343.2495 12 1
  343.2521 12 1
  343.2703 6 0
  344.2298 12 1
  346.393 6 0
  346.44 6 0
  347.498 12 1
  356.1636 6 0
  356.2059 12 1
  366.9749 6 0
  366.9857 6 0
  388.2364 6 0
  388.2558 6 0
  409.8411 6 0
  409.8496 6 0
  415.2108 6 0
  415.2279 6 0
  415.2307 6 0
  417.9216 6 0
  417.933 12 1
  419.2243 6 0
  419.2272 6 0
  419.23 18 1
  419.2329 12 1
  419.2358 35 2
  419.2386 47 2
  419.2415 123 6
  419.2444 156 8
  419.2473 141 7
  419.2502 226 12
  419.253 235 12
  419.2559 286 15
  419.2588 231 12
  419.2616 132 7
  419.2645 121 6
  419.2674 63 3
  419.2703 81 4
  419.2731 58 3
  419.276 42 2
  419.2789 12 1
  419.2817 12 1
  419.2875 6 0
  419.2903 6 0
  419.2961 12 1
  419.3018 12 1
  424.4006 6 0
  424.4497 6 0
  425.5774 6 0
  425.586 6 0
  435.217 6 0
  435.2492 6 0
  437.2441 6 0
  437.25 6 0
  437.2529 18 1
  437.2559 24 1
  437.2588 18 1
  437.2617 18 1
  437.2646 34 2
  437.2676 24 1
  437.2705 18 1
  437.2735 12 1
  437.2764 6 0
  437.2793 6 0
  437.2852 6 0
  437.2881 6 0
  437.291 6 0
  441.6749 6 0
  441.7162 6 0
  446.2199 6 0
  446.2347 6 0
  479.1897 12 1
  479.1958 12 1
  479.1989 6 0
  479.2019 30 2
  479.205 12 1
  479.2081 24 1
  479.2112 36 2
  479.2142 60 3
  479.2173 52 3
  479.2204 45 2
  479.2234 41 2
  479.2265 24 1
  479.2296 24 1
  479.2327 30 2
  479.2357 18 1
  479.2388 24 1
  479.2449 6 0
  479.2511 6 0
  497.1779 6 0
  497.2123 6 0
  497.2404 6 0
  497.2436 6 0
  502.1407 12 1
  503.0368 6 0
  503.062 6 0
  503.1878 6 0
  503.2413 6 0
  503.2759 6 0
  504.1289 6 0
  504.1415 12 1
  505.629 6 0
  505.6353 6 0
  506.7776 6 0
  506.8187 6 0
  507.2766 6 0
  507.3082 6 0
  507.4662 6 0
  507.5041 6 0
  507.542 6 0
  507.5704 6 0
  507.5768 6 0
  507.6178 6 0
  507.6621 6 0
  508.0256 12 1
  508.035 6 0
  508.1078 6 0
  508.1204 6 0
  508.1678 6 0
  508.987 12 1
  509.2813 6 0
  509.3351 12 1
  509.3383 6 0
  509.4111 12 1
  509.4143 6 0
  509.6232 6 0
  509.6834 6 0
  509.7499 6 0
  509.7721 6 0
  510.2852 6 0
  510.2915 6 0
  510.3105 6 0
  510.3232 6 0
  510.5355 6 0
  510.5482 12 1
  510.751 6 0
  510.7574 6 0
  511.0648 6 0
  511.0807 6 0
  511.1029 6 0
  511.198 6 0
  511.2202 6 0
  511.2456 6 0
  511.252 6 0
  511.5438 6 0
  511.5469 6 0
  512.0831 6 0
  512.788 12 1
  512.8102 6 0
  513.951 6 0
  513.967 6 0
  514.3995 6 0
  514.4599 6 0
  514.8768 6 0
  514.8926 6 0
  514.9213 6 0
  514.9818 6 0
  515.5516 6 0
  515.6026 6 0
  516.6732 6 0
  516.7019 6 0
  516.7083 6 0
  516.7593 6 0
  516.8517 6 0
  516.8837 6 0
  517.0654 6 0
  517.0686 6 0
  517.0973 6 0
  517.1005 6 0
  517.11 6 0
  517.378 6 0
  517.394 6 0
  517.4642 6 0
  517.5152 6 0
  518.4824 6 0
  518.5016 6 0
  518.559 6 0
  518.5654 6 0
  518.6198 6 0
  518.7571 6 0
  518.7635 6 0
  519.4825 6 0
  519.4857 6 0
  519.5112 6 0
  519.9141 6 0
  519.9301 6 0
  519.9685 6 0
  520.2212 6 0
  520.2339 6 0
  520.5443 6 0
  520.5859 6 0
  520.8868 6 0
  520.9316 6 0
  520.9412 6 0
  520.9476 6 0
  521.0917 6 0
  521.1365 6 0
  521.3062 6 0
  521.319 6 0
  521.3254 6 0
  521.7034 6 0
  521.7065 6 0
  521.7674 12 1
  521.8187 6 0
  522.0878 6 0
  522.1071 6 0
  522.1199 6 0
  522.1391 6 0
  522.1455 6 0
  522.3346 6 0
  522.341 6 0
  522.3859 6 0
  522.418 6 0
  522.543 6 0
  522.6007 6 0
  522.8893 6 0
  522.915 6 0
  522.9214 6 0
  522.9503 6 0
  522.9727 6 0
  523.1202 6 0
  523.1235 12 1
  523.1716 6 0
  523.3577 6 0
  523.3673 6 0
  523.3801 6 0
  523.4122 12 1
  525.0242 6 0
  525.0306 6 0
  525.1913 6 0
  525.2524 6 0
  525.2685 6 0
  525.3038 6 0
  525.3424 6 0
  525.4485 6 0
  525.455 6 0
  525.5096 6 0
  525.6382 6 0
  525.6447 6 0
  525.7057 6 0
  525.8826 6 0
  525.8923 6 0
  526.1979 6 0
  526.2011 6 0
  526.6774 6 0
  526.7224 6 0
  526.7288 6 0
  526.7353 6 0
  527.0894 6 0
  527.1152 6 0
  527.1538 6 0
  527.244 6 0
  527.2633 6 0
  527.376 6 0
  527.3793 6 0
  527.6595 6 0
  527.666 6 0
  527.6692 6 0
  528.2719 6 0
  528.275 6 0
  528.2847 6 0
  528.2944 6 0
  528.3105 6 0
  528.3267 6 0
  528.3943 6 0
  528.4556 6 0
  528.6974 6 0
  528.7006 6 0
  528.7168 6 0
  528.7619 6 0
  528.9103 6 0
  528.9167 6 0
  529.0812 6 0
  529.0845 6 0
  529.2361 6 0
  529.2523 6 0
  529.2555 6 0
  529.5879 6 0
  529.604 6 0
  529.7073 6 0
  529.717 6 0
  529.7622 6 0
  529.7654 6 0
  530.3983 6 0
  530.4468 6 0
  530.4758 6 0
  530.6083 6 0
  530.6277 6 0
  530.7666 6 0
  530.828 6 0
  531.4001 6 0
  531.4163 6 0
  532.5129 6 0
  532.5291 6 0
  533.264 6 0
  533.3094 6 0
  533.3191 6 0
  533.3709 6 0
  533.5394 6 0
  533.5815 6 0
  533.5912 6 0
  534.4112 6 0
  534.4241 6 0
  534.4695 6 0
  536.0076 6 0
  536.053 12 1
  536.0725 6 0
  536.0823 6 0
  536.3876 6 0
  536.4135 6 0
  536.7092 6 0
  536.7676 6 0
  536.8132 6 0
  536.8326 12 1
  536.8456 6 0
  537.2617 6 0
  537.3104 6 0
  538.1105 6 0
  538.1756 6 0
  538.2374 6 0
  538.5205 6 0
  538.5238 6 0
  538.6507 6 0
  539.0316 6 0
  539.0381 6 0
  540.0905 6 0
  540.1459 6 0
  540.1524 6 0
  540.436 6 0
  540.449 6 0
  540.7914 6 0
  540.8273 6 0
  540.8535 6 0
  541.1242 12 1
  541.1862 6 0
  541.2808 6 0
  541.2841 6 0
  541.3983 6 0
  541.4407 6 0
  542.025 6 0
  542.0283 6 0
  542.5836 6 0
  542.6227 6 0
  542.6783 6 0
  542.7012 6 0
  542.8678 6 0
  542.8809 6 0
  544.1724 6 0
  544.2183 6 0
  544.2444 6 0
  544.3197 6 0
  544.3262 6 0
  544.696 6 0
  544.7386 6 0
  544.7484 6 0
  544.7517 6 0
  545.03 6 0
  545.0398 6 0
  545.4066 6 0
  545.4197 6 0
  545.4688 6 0
  545.9898 6 0
  546.0193 6 0
  546.2979 6 0
  546.3044 6 0
  546.3143 6 0
  546.7339 6 0
  546.7635 6 0
  547.7971 6 0
  547.8036 6 0
  548.0104 6 0
  548.0203 6 0
  548.0826 6 0
  548.0892 6 0
  549.6171 6 0
  549.627 6 0
  549.7585 6 0
  549.8079 6 0
  550.5579 6 0
  550.5875 6 0
  551.0615 6 0
  551.0714 6 0
  552.0563 12 1
  553.2136 6 0
  553.2432 6 0
  553.2532 6 0
  553.2828 6 0
  553.7448 6 0
  553.758 6 0
  553.8735 6 0
  553.8867 6 0
  553.9131 6 0
  553.9263 6 0
  554.4943 12 1
  556.1435 6 0
  556.1567 6 0
  556.3949 6 0
  556.4048 6 0
  557.0005 6 0
  557.0336 6 0
  557.2753 6 0
  557.2852 6 0
  557.7753 6 0
  557.7852 6 0
  558.7993 12 1
  558.8093 6 0
  558.8126 6 0
  561.0361 12 1
  561.2023 12 1
  562.3192 6 0
  562.3524 6 0
  563.7169 6 0
  563.7402 6 0
  568.1879 6 0
  568.2013 6 0
  568.2314 6 0
  568.6226 6 0
  569.9177 6 0
  569.9445 6 0
  570.0952 6 0
  570.0984 6 0
  570.4736 6 0
  570.5037 6 0
  570.8354 6 0
  570.8388 6 0
  570.8422 6 0
  571.7607 6 0
  571.7674 6 0
  573.9796 6 0
  573.9863 6 0
  574.7662 6 0
  574.8132 6 0
  576.5934 6 0
  576.6136 6 0
  576.7652 6 0
  576.8056 6 0
  577.0381 12 1
  579.2739 6 0
  579.2908 6 0
  579.8918 6 0
  579.8986 6 0
  579.9121 6 0
  581.2402 6 0
  581.2537 6 0
  581.2673 6 0
  581.2706 18 1
  581.274 6 0
  581.2774 60 3
  581.2808 55 3
  581.2842 31 2
  581.2875 52 3
  581.291 109 6
  581.2943 107 6
  581.2977 195 10
  581.3011 253 13
  581.3044 237 12
  581.3079 247 13
  581.3112 278 14
  581.3146 206 11
  581.318 129 7
  581.3214 135 7
  581.3248 55 3
  581.3281 95 5
  581.3315 75 4
  581.3349 24 1
  581.3383 18 1
  581.3417 12 1
  581.345 12 1
  581.3484 12 1
  581.3586 6 0
  581.4059 6 0
  583.0947 6 0
  583.0981 6 0
  583.1963 6 0
  583.2098 6 0
  585.0945 6 0
  585.1319 6 0
  585.1692 6 0
  585.2336 6 0
  585.2642 6 0
  587.5466 6 0
  587.5499 6 0
  587.9478 6 0
  587.9648 6 0
  592.5922 6 0
  592.6093 6 0
  592.6298 6 0
  592.92 6 0
  592.9473 6 0
  593.9108 6 0
  593.9484 6 0
  594.2219 6 0
  594.2288 6 0
  599.1793 6 0
  599.2205 6 0
  599.2823 6 0
  599.2858 12 1
  599.2892 12 1
  599.2927 18 1
  599.2961 24 1
  599.2995 50 3
  599.3029 41 2
  599.3064 101 5
  599.3098 76 4
  599.3132 57 3
  599.3167 56 3
  599.3201 73 4
  599.3235 57 3
  599.327 18 1
  599.3304 40 2
  599.3339 36 2
  599.3373 30 2
  599.3407 31 2
  599.3442 18 1
  599.3476 12 1
  599.351 6 0
  599.3544 6 0
  599.3647 6 0
  599.3716 6 0
  601.5643 6 0
  601.5746 6 0
  601.7879 6 0
  601.8189 6 0
  603.9402 12 1
  607.4403 6 0
  607.4921 6 0
  608.1595 6 0
  608.1802 6 0
  613.6679 6 0
  613.6818 6 0
  616.8127 6 0
  616.8232 12 1
  616.8754 6 0
  616.966 6 0
  616.9765 6 0
  619.229 6 0
  619.2779 6 0
  619.6095 6 0
  619.613 6 0
  623.7604 6 0
  623.764 6 0
  625.0958 6 0
  625.1098 6 0
  632.2662 6 0
  632.2803 6 0
  634.2214 6 0
  634.2673 6 0
  641.2378 6 0
  641.2449 32 2
  641.2485 30 2
  641.252 32 2
  641.2556 30 2
  641.2591 39 2
  641.2627 79 4
  641.2662 61 3
  641.2698 71 4
  641.2733 40 2
  641.2769 54 3
  641.2805 35 2
  641.284 38 2
  641.2875 24 1
  641.2911 36 2
  641.2946 24 1
  641.2982 6 0
  641.3018 12 1
  641.3053 6 0
  641.3124 6 0
  641.3195 6 0
  641.3266 6 0
  649.3753 6 0
  649.3824 6 0
  649.386 6 0
  650.9417 6 0
  650.9631 6 0
  652.2233 6 0
  652.2305 6 0
  652.9865 6 0
  653.0367 6 0
  656.676 6 0
  656.6796 6 0
  656.7479 6 0
  659.1259 6 0
  659.1979 6 0
  659.2663 6 0
  659.2735 6 0
  659.2807 6 0
  659.2843 6 0
  659.2879 12 1
  659.2951 6 0
  659.3023 12 1
  659.3131 6 0
  672.1197 6 0
  672.1342 6 0
  679.1447 12 1
  679.1556 6 0
  689.5131 6 0
  689.5721 6 0
  692.8575 12 1
  697.4688 6 0
  697.4874 12 1
  714.9714 6 0
  714.9752 6 0
  736.4541 6 0
  736.4998 6 0
  757.0774 6 0
  757.0812 6 0
  757.089 6 0
  763.4583 6 0
  763.4738 6 0
  763.4893 6 0
  763.497 6 0
  763.5048 12 1
  763.5125 12 1
  763.5203 6 0
  763.5319 6 0
  765.89 6 0
  765.9521 6 0
  789.4109 6 0
  789.4149 6 0
  803.816 6 0
  803.8756 6 0
  807.4785 6 0
  807.5262 6 0
  841.5555 6 0
  841.5758 6 0
  843.1756 6 0
  843.2448 6 0
  843.2937 6 0
  843.4892 6 0
  843.5055 6 0
  851.5369 6 0
  851.541 6 0
  851.5574 6 0
  851.5656 6 0
  851.5696 6 0
  851.5942 6 0
  851.6024 6 0
  922.1982 6 0
  922.2535 6 0
  922.2621 6 0
  922.458 6 0
  922.4836 6 0
  922.5091 6 0
  922.5262 6 0
  922.5432 6 0
  922.5475 6 0
  922.556 12 1
  922.5602 18 1
  922.5645 12 1
  922.5688 24 1
  922.573 12 1
  922.5773 18 1
  922.5815 30 2
  922.5858 30 2
  922.5901 32 2
  922.5943 12 1
  922.5986 41 2
  922.6028 33 2
  922.6071 48 2
  922.6114 39 2
  922.6156 32 2
  922.6199 24 1
  922.6241 33 2
  922.6284 30 2
  922.6327 43 2
  922.6369 6 0
  922.6412 18 1
  922.6454 31 2
  922.6497 30 2
  922.6539 12 1
  922.6582 12 1
  922.6625 12 1
  922.6667 6 0
  922.671 12 1
  922.6752 6 0
  922.6838 24 1
  922.688 12 1
  922.6923 18 1
  922.7008 6 0
  922.7179 6 0
  922.7349 6 0
  922.9905 6 0
  923.0374 6 0
  923.1866 6 0
  923.2462 6 0
  923.7875 6 0
  923.8344 6 0
  923.8813 6 0
  923.8856 6 0
  923.9495 6 0
  923.9623 6 0
  923.9751 6 0
  924.0092 6 0
  924.0135 6 0
  924.0476 6 0
  924.0902 6 0
  924.1371 6 0
  924.1669 6 0
  924.2523 6 0
  924.2864 6 0
  924.3034 6 0
  924.3588 6 0
  924.4142 6 0
  924.4228 6 0
  924.4313 6 0
  924.4356 6 0
  924.4655 18 1
  924.4697 6 0
  924.4825 6 0
  924.491 6 0
  924.4996 6 0
  924.5209 6 0
  924.538 6 0
  924.5422 12 1
  924.5464 6 0
  924.555 6 0
  924.5635 12 1
  924.5763 6 0
  924.6147 6 0
  924.619 12 1
  924.636 6 0
  924.6616 6 0
  924.8279 12 1
  924.8706 6 0
  924.9815 6 0
  924.9858 6 0
  925.0455 6 0
  925.0626 6 0
  925.0754 6 0
  925.0796 6 0
  925.0924 6 0
  925.1265 12 1
  925.1479 6 0
  925.182 6 0
  925.199 6 0
  925.2204 6 0
  925.2247 6 0
  925.2588 6 0
  925.2673 6 0
  925.2759 6 0
  925.2844 6 0
  925.3015 6 0
  925.327 6 0
  925.3398 6 0
  925.3441 6 0
  925.3484 6 0
  925.3527 6 0
  925.3953 6 0
  925.4039 6 0
  925.4294 12 1
  925.4337 12 1
  925.438 6 0
  925.4465 6 0
  925.4551 16 1
  925.4593 11 1
  925.4636 11 1
  925.4678 10 1
  925.4721 26 1
  925.4764 10 1
  925.4807 10 1
  925.4849 21 1
  925.4892 35 2
  925.4935 72 4
  925.4977 154 8
  925.502 163 8
  925.5062 458 24
  925.5105 417 22
  925.5148 908 47
  925.519 1415 73
  925.5233 2828 147
  925.5276 4124 214
  925.5319 8210 425
  925.5361 13101 679
  925.5404 15583 807
  925.5447 19284 999
  925.549 18655 966
  925.5532 15746 816
  925.5574 11550 598
  925.5617 9070 470
  925.566 5275 273
  925.5703 2562 133
  925.5745 1654 86
  925.5788 1077 56
  925.5831 467 24
  925.5873 379 20
  925.5916 304 16
  925.5958 119 6
  925.6001 66 3
  925.6044 61 3
  925.6086 60 3
  925.6129 21 1
  925.6172 10 1
  925.6215 21 1
  925.6257 11 1
  925.6428 6 0
  925.647 12 1
  925.6513 6 0
  925.6556 6 0
  925.7111 6 0
  925.8135 6 0
  925.822 6 0
  925.8348 6 0
  925.8732 6 0
  925.886 6 0
  925.9031 6 0
  925.9116 6 0
  925.9202 6 0
  925.9244 6 0
  925.9415 6 0
  925.9927 6 0
  926.0056 6 0
  926.0952 6 0
  926.1165 6 0
  926.1378 6 0
  926.1805 6 0
  926.1891 6 0
  926.2189 6 0
  926.2446 6 0
  926.3342 6 0
  926.3427 6 0
  926.3641 6 0
  926.4366 6 0
  926.4537 6 0
  926.475 6 0
  926.5178 6 0
  926.5263 12 1
  926.5306 12 1
  926.5349 6 0
  926.5391 18 1
  926.5434 12 1
  926.5477 6 0
  926.5519 6 0
  926.5562 12 1
  926.5647 18 1
  926.569 24 1
  926.5732 12 1
  926.5818 12 1
  926.5946 6 0
  926.6757 6 0
  926.68 6 0
  926.6885 6 0
  926.7397 6 0
  926.7996 6 0
  926.8337 6 0
  926.9149 6 0
  927.1155 6 0
  927.1753 12 1
  927.2009 6 0
  927.2351 12 1
  927.2821 6 0
  927.3889 6 0
  927.4102 6 0
  927.4273 6 0
  927.4401 6 0
  927.4615 6 0
  927.4786 6 0
  927.4828 6 0
  927.4957 6 0
  927.5042 6 0
  927.5085 6 0
  927.5212 6 0
  927.5255 6 0
  927.5469 6 0
  927.5511 6 0
  927.5554 6 0
  927.5939 12 1
  927.5981 6 0
  927.6409 6 0
  927.705 6 0
  927.7605 6 0
  927.7947 6 0
  927.8289 6 0
  927.8972 6 0
  927.9058 6 0
  927.91 6 0
  927.9143 6 0
  927.9656 6 0
  927.9912 6 0
  928.0297 6 0
  928.051 6 0
  928.0553 6 0
  928.0596 6 0
  928.0638 6 0
  928.1578 6 0
  928.2134 12 1
  928.2518 6 0
  928.3202 6 0
  928.333 6 0
  928.3501 6 0
  928.4271 6 0
  928.4612 6 0
  928.551 6 0
  928.5552 6 0
  928.5638 6 0
  928.6151 6 0
  928.6237 6 0
  928.6322 6 0
  928.6749 6 0
  928.7903 6 0
  928.8245 12 1
  928.91 6 0
  928.9656 6 0
  929.0554 6 0
  929.0596 6 0
  929.1024 6 0
  929.1879 6 0
  929.1921 6 0
  929.2007 6 0
  929.2435 6 0
  929.2819 6 0
  929.5385 6 0
  929.5471 6 0
  929.5556 6 0
  929.6539 6 0
  929.6625 6 0
  929.6667 6 0
  929.6796 6 0
  929.6924 6 0
  929.6967 6 0
  929.7352 6 0
  929.7694 6 0
  929.8506 6 0
  929.9319 6 0
  929.9961 6 0
  930.0004 6 0
  930.0217 6 0
  930.0303 6 0
  930.0389 6 0
  930.0432 6 0
  930.0517 6 0
  930.0602 6 0
  930.0645 6 0
  930.0688 6 0
  930.0816 6 0
  930.1073 6 0
  930.1629 6 0
  930.2057 6 0
  930.2271 12 1
  930.2527 6 0
  930.2656 12 1
  930.2784 6 0
  930.3254 6 0
  930.3383 6 0
  930.364 6 0
  930.4495 6 0
  930.4581 6 0
  930.5436 6 0
  930.5693 6 0
  930.6078 12 1
  930.6292 6 0
  930.7148 6 0
  930.7961 12 1
  930.8046 6 0
  930.8474 6 0
  930.8945 6 0
  931.0956 6 0
  931.1256 12 1
  931.1727 6 0
  931.2069 6 0
  931.3267 6 0
  931.3353 6 0
  931.3481 6 0
  931.3524 6 0
  931.3653 6 0
  931.4252 6 0
  931.4551 6 0
  931.498 6 0
  931.5493 6 0
  931.5793 6 0
  931.5878 6 0
  931.6307 6 0
  931.7034 6 0
  931.819 6 0
  931.8362 6 0
  931.8447 6 0
  931.8575 6 0
  931.8619 6 0
  931.9047 6 0
  931.9175 6 0
  931.9261 6 0
  931.9389 6 0
  932.0074 6 0
  932.046 6 0
  932.0588 6 0
  932.1658 6 0
  932.1915 6 0
  932.2258 6 0
  932.2301 6 0
  932.2472 6 0
  932.2643 6 0
  932.2986 6 0
  932.3072 6 0
  932.3157 6 0
  932.3928 6 0
  932.41 6 0
  932.4399 6 0
  932.4871 6 0
  932.4999 6 0
  932.5513 6 0
  932.5641 6 0
  932.577 6 0
  932.6455 6 0
  933.4424 6 0
  933.4467 6 0
  933.6909 6 0
  933.7209 6 0
  933.7295 6 0
  933.7338 6 0
  933.8452 6 0
  933.8538 12 1
  934.0724 6 0
  934.0809 6 0
  934.1453 6 0
  934.1881 6 0
  934.2653 6 0
  934.351 6 0
  934.3768 6 0
  934.3982 6 0
  934.5182 6 0
  934.5225 6 0
  934.5354 6 0
  934.5568 6 0
  934.6083 6 0
  934.6597 6 0
  934.7026 6 0
  934.7112 6 0
  934.7669 6 0
  934.8098 6 0
  934.9299 6 0
  934.9642 6 0
  934.9942 6 0
  935.0242 6 0
  935.273 6 0
  935.3373 6 0
  935.5303 6 0
  935.5518 6 0
  935.6505 6 0
  935.6548 6 0
  935.9551 6 0
  936.0409 6 0
  936.0881 6 0
  936.1653 6 0
  936.4315 6 0
  936.4744 6 0
  937.3458 6 0
  937.3544 6 0
  937.6207 6 0
  937.6937 6 0
  937.7495 6 0
  937.7925 6 0
  937.96 6 0
  938.0072 6 0
  938.0717 6 0
  938.1275 6 0
  938.2048 12 1
  938.265 6 0
  938.8708 6 0
  938.8966 6 0
  939.3135 6 0
  939.3436 6 0
  939.3952 6 0
  939.4425 6 0
  939.5629 6 0
  939.6187 6 0
  939.6746 6 0
  939.9498 6 0
  939.967 6 0
  940.41 6 0
  940.4831 6 0
  940.5218 6 0
  941.0681 6 0
  941.0897 6 0
  941.1327 6 0
  941.4339 6 0
  941.5027 6 0
  942.2258 6 0
  942.2302 6 0
  942.4842 6 0
  942.5272 6 0
  942.777 6 0
  942.7856 6 0
  944.7547 6 0
  944.8064 6 0
  945.7249 6 0
  945.7292 6 0
  945.8715 6 0
  945.8802 6 0
  946.4712 6 0
  946.4971 6 0
  947.4509 6 0
  947.4553 6 0
  947.6668 6 0
  947.6797 6 0
  948.1591 6 0
  948.2152 6 0
  949.0317 6 0
  949.049 6 0
  949.4854 6 0
  949.52 6 0
  949.6669 6 0
  949.6928 6 0
  949.8484 6 0
  949.9089 6 0
  950.0646 6 0
  950.1121 6 0
  950.1337 6 0
  952.8074 6 0
  952.816 6 0
  952.842 6 0
  953.5218 6 0
  953.5955 6 0
  979.6667 6 0
  979.6798 6 0
  979.7194 6 0
  991.0429 6 0
  991.1136 6 0
  1082.515 6 0
  1082.584 6 0
  1144.479 6 0
  1144.493 6 0
//
