ACCESSION: MSBNK-RIKEN_IMS-LQB00369
RECORD_TITLE: SM d42:1; LC-ESI-QTOF; MS2
DATE: 2023.12.21 (Created 2016.10.03)
AUTHORS: Kazutaka Ikeda, Hiroshi Tsugawa, Makoto Arita, RIKEN Center for Integrative Medical Sciences, Japan
LICENSE: CC BY
COPYRIGHT: Copyright(C) 2017 RIKEN IMS
COMMENT: Found in mouse kidney; TwoDicalId=5; MgfFile=160827_Kidney_DHA_Neg_14; MgfId=2091
CH$NAME: SM d42:1
CH$COMPOUND_CLASS: SM
CH$FORMULA: C47H95N2O6P
CH$EXACT_MASS: 814.692767
CH$SMILES: CCCCCCCCCCCCCCCCCCCCCCCC(=O)NC(COP([O-])(=O)OCC[N+](C)(C)C)C(O)\C=C\CCCCCCCCCCCCC
CH$IUPAC: InChI=1S/C47H95N2O6P/c1-6-8-10-12-14-16-18-20-21-22-23-24-25-26-27-29-31-33-35-37-39-41-47(51)48-45(44-55-56(52,53)54-43-42-49(3,4)5)46(50)40-38-36-34-32-30-28-19-17-15-13-11-9-7-2/h38,40,45-46,50H,6-37,39,41-44H2,1-5H3,(H-,48,51,52,53)/b40-38+
CH$LINK: INCHIKEY QEDPUVGSSDPBMD-OGSMZCTISA-N
CH$LINK: PUBCHEM CID:13832235
AC$INSTRUMENT: AB Sciex TripleTOF 5600+ system (Q-TOF) equipped with a DuoSpray ion source
AC$INSTRUMENT_TYPE: LC-ESI-QTOF
AC$MASS_SPECTROMETRY: MS_TYPE MS2
AC$MASS_SPECTROMETRY: ION_MODE NEGATIVE
AC$MASS_SPECTROMETRY: COLLISION_ENERGY 45V
AC$CHROMATOGRAPHY: COLUMN_NAME Acquity UPLC Peptide BEH C18 column (50*2.1 mm; 1.7 um; 130A)(Waters Co.,Milford, MA, USA)
AC$CHROMATOGRAPHY: COLUMN_TEMPERATURE 45 C
AC$CHROMATOGRAPHY: FLOW_GRADIENT 0 min 0% B; 1 min 0% B; 5 min 40% B; 7.5 min 64% B; 12.0 min 64% B; 12.5 min 82.5% B, 19 min 85% B; 20 min 95% B; 20.1 min 0% B; 25 min 0% B.
AC$CHROMATOGRAPHY: FLOW_RATE 0.3 mL/min
AC$CHROMATOGRAPHY: RETENTION_TIME 13.06347
AC$CHROMATOGRAPHY: SOLVENT A 1:1:3 acetonitrile:methanol:water (v/v/v) with 5 mM ammonium acetate and 10 nM EDTA.
AC$CHROMATOGRAPHY: SOLVENT B 100% isopropanol with 5 mM ammonium acetate and 10 nM EDTA.
MS$FOCUSED_ION: PRECURSOR_TYPE [M+CH3COOH-H]-
MS$FOCUSED_ION: PRECURSOR_M/Z 873.7017
PK$SPLASH: splash10-0002-0000000900-07bffcc215432ae6c502
PK$NUM_PEAK: 102
PK$PEAK: m/z int. rel.int.
  78.717 43 0
  78.958 5847 19
  89.025 40 0
  96.969 183 0
  122.986 1040 3
  124.997 40 0
  141.015 50 0
  167.528 85 0
  167.885 54 0
  168.042 18710 62
  367.343 142 0
  367.363 141 0
  431.301 115 0
  434.829 74 0
  439.749 65 0
  440.866 43 0
  441.722 60 0
  442.765 43 0
  444.885 46 0
  446.66 43 0
  447.877 50 0
  448.618 53 0
  449.309 1428 4
  450.176 50 0
  453.663 83 0
  453.764 63 0
  455.147 43 0
  456.265 43 0
  459.882 53 0
  470.833 56 0
  473.216 64 0
  478.525 43 0
  493.843 40 0
  514.928 50 0
  516.375 163 0
  562.065 49 0
  646.605 40 0
  647.615 50 0
  649.646 43 0
  710.558 183 0
  710.578 102 0
  710.605 142 0
  728.537 153 0
  728.57 901 3
  728.589 430 1
  728.61 717 2
  728.627 143 0
  741.608 93 0
  751.605 73 0
  754.558 121 0
  754.594 286 0
  754.618 489 1
  772.615 120 0
  781.616 113 0
  797.063 112 0
  797.12 1776 5
  797.168 910 3
  797.221 144 0
  797.8 81 0
  798.288 78 0
  798.523 72 0
  798.637 142 0
  798.747 80 0
  799.057 59 0
  799.36 80 0
  799.383 81 0
  799.426 144 0
  799.482 138 0
  799.523 367 1
  799.66 298187 999
  800.468 82 0
  800.58 99 0
  800.604 133 0
  800.655 1260 4
  800.686 396 1
  801.063 80 0
  801.133 70 0
  801.293 85 0
  801.528 80 0
  801.931 118 0
  802.008 70 0
  802.378 93 0
  809.593 204 0
  813.68 316 1
  813.723 111 0
  814.564 267 0
  814.605 1155 3
  814.634 4276 14
  866.146 43 0
  870.899 70 0
  870.948 70 0
  872.599 20 0
  872.741 30 0
  872.824 20 0
  873.137 20 0
  873.584 30 0
  873.7 15947 53
  874.673 60 0
  874.727 77 0
  876.212 53 0
  878.031 63 0
  878.229 63 0
//
