ACCESSION: MSBNK-RIKEN_IMS-LQB00261
RECORD_TITLE: PG 36:2; LC-ESI-QTOF; MS2
DATE: 2023.12.21 (Created 2016.10.03)
AUTHORS: Kazutaka Ikeda, Hiroshi Tsugawa, Makoto Arita, RIKEN Center for Integrative Medical Sciences, Japan
LICENSE: CC BY
COPYRIGHT: Copyright(C) 2017 RIKEN IMS
COMMENT: Found in mouse spleen; TwoDicalId=162; MgfFile=160729_spleen_normal_02_Neg_never; MgfId=759
CH$NAME: PG 36:2
CH$COMPOUND_CLASS: PG
CH$FORMULA: C42H79O10P
CH$EXACT_MASS: 774.541087
CH$SMILES: CCCCCCCC\C=C/CCCCCCCC(=O)OCC(COP(O)(=O)OCC(O)CO)OC(=O)CCCCCCC\C=C/CCCCCCCC
CH$IUPAC: InChI=1S/C42H79O10P/c1-3-5-7-9-11-13-15-17-19-21-23-25-27-29-31-33-41(45)49-37-40(38-51-53(47,48)50-36-39(44)35-43)52-42(46)34-32-30-28-26-24-22-20-18-16-14-12-10-8-6-4-2/h17-20,39-40,43-44H,3-16,21-38H2,1-2H3,(H,47,48)/b19-17-,20-18-
CH$LINK: INCHIKEY DSNRWDQKZIEDDB-CLFAGFIQSA-N
CH$LINK: PUBCHEM CID:13921353
AC$INSTRUMENT: AB Sciex TripleTOF 5600+ system (Q-TOF) equipped with a DuoSpray ion source
AC$INSTRUMENT_TYPE: LC-ESI-QTOF
AC$MASS_SPECTROMETRY: MS_TYPE MS2
AC$MASS_SPECTROMETRY: ION_MODE NEGATIVE
AC$MASS_SPECTROMETRY: COLLISION_ENERGY 45V
AC$CHROMATOGRAPHY: COLUMN_NAME Acquity UPLC Peptide BEH C18 column (50*2.1 mm; 1.7 um; 130A)(Waters Co.,Milford, MA, USA)
AC$CHROMATOGRAPHY: COLUMN_TEMPERATURE 45 C
AC$CHROMATOGRAPHY: FLOW_GRADIENT 0 min 0% B; 1 min 0% B; 5 min 40% B; 7.5 min 64% B; 12.0 min 64% B; 12.5 min 82.5% B, 19 min 85% B; 20 min 95% B; 20.1 min 0% B; 25 min 0% B.
AC$CHROMATOGRAPHY: FLOW_RATE 0.3 mL/min
AC$CHROMATOGRAPHY: RETENTION_TIME 8.413065
AC$CHROMATOGRAPHY: SOLVENT A 1:1:3 acetonitrile:methanol:water (v/v/v) with 5 mM ammonium acetate and 10 nM EDTA.
AC$CHROMATOGRAPHY: SOLVENT B 100% isopropanol with 5 mM ammonium acetate and 10 nM EDTA.
MS$FOCUSED_ION: PRECURSOR_TYPE [M-H]-
MS$FOCUSED_ION: PRECURSOR_M/Z 773.5363
PK$SPLASH: splash10-001i-0090000300-ca86875ba145c9d6f042
PK$NUM_PEAK: 32
PK$PEAK: m/z int. rel.int.
  78.953 20 0
  152.991 112 3
  153.005 50 1
  166.897 20 0
  171.009 20 0
  227.026 20 0
  253.211 40 1
  255.229 40 1
  279.229 81 2
  280.231 50 1
  280.355 83 2
  280.381 80 2
  281.165 31 1
  281.249 30721 999
  281.493 34 1
  282.243 71 2
  283.26 62 2
  307.265 101 3
  309.274 50 1
  417.235 75 2
  491.271 183 5
  491.288 81 2
  509.285 296 9
  509.308 41 1
  713.481 20 0
  771.122 53 1
  773.268 20 0
  773.457 121 3
  773.535 12105 394
  773.616 116 3
  773.786 34 1
  774.534 60 1
//
