ACCESSION: MSBNK-RIKEN_IMS-LQB00507
RECORD_TITLE: PC 34:3; LC-ESI-QTOF; MS2
DATE: 2023.12.21 (Created 2016.10.03)
AUTHORS: Kazutaka Ikeda, Hiroshi Tsugawa, Makoto Arita, RIKEN Center for Integrative Medical Sciences, Japan
LICENSE: CC BY
COPYRIGHT: Copyright(C) 2017 RIKEN IMS
COMMENT: Found in mouse heart; TwoDicalId=468; MgfFile=160902_Heart_Control_Neg_05; MgfId=576
CH$NAME: PC 34:3
CH$COMPOUND_CLASS: PC
CH$FORMULA: C42H78NO8P
CH$EXACT_MASS: 755.546502
CH$SMILES: CCCCCC\C=C/CCCCCCCC(=O)OCC(COP([O-])(=O)OCC[N+](C)(C)C)OC(=O)CCCCCCC\C=C/C\C=C/CCCCC
CH$IUPAC: InChI=1S/C42H78NO8P/c1-6-8-10-12-14-16-18-20-21-23-25-27-29-31-33-35-42(45)51-40(39-50-52(46,47)49-37-36-43(3,4)5)38-48-41(44)34-32-30-28-26-24-22-19-17-15-13-11-9-7-2/h14,16-17,19-21,40H,6-13,15,18,22-39H2,1-5H3/b16-14-,19-17-,21-20-
CH$LINK: INCHIKEY QJWDAOSZZYVBJZ-BOAYSYCPSA-N
CH$LINK: PUBCHEM CID:15151379
AC$INSTRUMENT: AB Sciex TripleTOF 5600+ system (Q-TOF) equipped with a DuoSpray ion source
AC$INSTRUMENT_TYPE: LC-ESI-QTOF
AC$MASS_SPECTROMETRY: MS_TYPE MS2
AC$MASS_SPECTROMETRY: ION_MODE NEGATIVE
AC$MASS_SPECTROMETRY: COLLISION_ENERGY 45V
AC$CHROMATOGRAPHY: COLUMN_NAME Acquity UPLC Peptide BEH C18 column (50*2.1 mm; 1.7 um; 130A)(Waters Co.,Milford, MA, USA)
AC$CHROMATOGRAPHY: COLUMN_TEMPERATURE 45 C
AC$CHROMATOGRAPHY: FLOW_GRADIENT 0 min 0% B; 1 min 0% B; 5 min 40% B; 7.5 min 64% B; 12.0 min 64% B; 12.5 min 82.5% B, 19 min 85% B; 20 min 95% B; 20.1 min 0% B; 25 min 0% B.
AC$CHROMATOGRAPHY: FLOW_RATE 0.3 mL/min
AC$CHROMATOGRAPHY: RETENTION_TIME 8.864018
AC$CHROMATOGRAPHY: SOLVENT A 1:1:3 acetonitrile:methanol:water (v/v/v) with 5 mM ammonium acetate and 10 nM EDTA.
AC$CHROMATOGRAPHY: SOLVENT B 100% isopropanol with 5 mM ammonium acetate and 10 nM EDTA.
MS$FOCUSED_ION: PRECURSOR_TYPE [M+CH3COOH-H]-
MS$FOCUSED_ION: PRECURSOR_M/Z 814.5577
PK$SPLASH: splash10-002f-0090000510-06c89ad84c2dda863be6
PK$NUM_PEAK: 19
PK$PEAK: m/z int. rel.int.
  168.04 30 26
  176.651 20 17
  253.215 449 392
  255.232 30 26
  279.231 1133 991
  279.254 61 53
  281.246 30 26
  283.246 70 61
  305.243 23 20
  327.233 60 52
  415.219 20 17
  466.246 20 17
  478.291 111 97
  504.294 40 34
  504.317 81 70
  740.517 1143 999
  814.524 153 133
  814.553 112 97
  814.596 40 34
//
