ACCESSION: MSBNK-RIKEN_IMS-LQA00273
RECORD_TITLE: PE(18:1e/17,18-EpETE); LC-ESI-QTOF; MS2
DATE: 2023.12.21 (Created 2017.09.05)
AUTHORS: Ryohei Aoyagi, Kazutaka Ikeda, Yosuke Isobe, Makoto Arita; RIKEN Center for Integrative Medical Sciences, Japan
LICENSE: CC BY
COMMENT: RIKEN oxidized phospholipids
CH$NAME: PE(18:1e/17,18-EpETE)
CH$COMPOUND_CLASS: Oxidized Phospholipid
CH$FORMULA: C43H76NO8P
CH$EXACT_MASS: 765.530852
CH$SMILES: CCCCCCCCCCCCCCCC\C=C/OCC(COP(O)(=O)OCCN)OC(=O)CCC\C=C/C\C=C/C\C=C/C\C=C/CC1OC1CC
CH$IUPAC: InChI=1S/C43H76NO8P/c1-3-5-6-7-8-9-10-11-12-13-17-20-23-26-29-32-36-48-38-40(39-50-53(46,47)49-37-35-44)51-43(45)34-31-28-25-22-19-16-14-15-18-21-24-27-30-33-42-41(4-2)52-42/h14,16,18,21-22,25,27,30,32,36,40-42H,3-13,15,17,19-20,23-24,26,28-29,31,33-35,37-39,44H2,1-2H3,(H,46,47)/b16-14-,21-18-,25-22-,30-27-,36-32-
CH$LINK: INCHIKEY YJOKKZDVARXRKS-LYCOSWHASA-N
CH$LINK: PUBCHEM CID:134781461
AC$INSTRUMENT: Acquity UPLC Peptide BEH C18 column (50 x 2.1 mm; 1.7 um), Sciex TripleTOF5600
AC$INSTRUMENT_TYPE: LC-ESI-QTOF
AC$MASS_SPECTROMETRY: MS_TYPE MS2
AC$MASS_SPECTROMETRY: ION_MODE NEGATIVE
AC$MASS_SPECTROMETRY: COLLISION_ENERGY 30-50
MS$FOCUSED_ION: PRECURSOR_M/Z 764.5235789
MS$FOCUSED_ION: PRECURSOR_TYPE [M-H]-
PK$SPLASH: splash10-03di-0012200900-fd14b6626090683c6ecf
PK$NUM_PEAK: 78
PK$PEAK: m/z int. rel.int.
  215.1768 31 202
  215.183 20 131
  239.2352 20 131
  245.1948 20 131
  255.2018 31 202
  255.2041 20 131
  255.2108 31 202
  255.2131 20 131
  255.2176 20 131
  255.2311 20 131
  259.1638 20 131
  259.1707 31 202
  259.1729 20 131
  273.2259 20 131
  299.1828 20 131
  299.1999 20 131
  317.1986 71 464
  317.2011 61 398
  317.2036 61 398
  317.2086 41 268
  317.2112 71 464
  317.2137 20 131
  317.2162 41 268
  317.2187 71 464
  317.2212 41 268
  317.2237 20 131
  317.2262 20 131
  317.2363 20 131
  345.2386 20 131
  345.2491 20 131
  446.2774 20 131
  446.2803 20 131
  446.2953 31 202
  446.2982 20 131
  446.3042 20 131
  446.3072 20 131
  446.3131 20 131
  446.3161 20 131
  464.2982 41 268
  464.3013 20 131
  464.3043 20 131
  464.3104 31 202
  464.3134 41 268
  464.3165 20 131
  464.3195 61 398
  464.3225 31 202
  464.3256 20 131
  464.3286 20 131
  464.3377 31 202
  464.3469 20 131
  764.4568 20 131
  764.4647 41 268
  764.4725 20 131
  764.4803 41 268
  764.4842 31 202
  764.4881 41 268
  764.4919 61 398
  764.4958 82 535
  764.4998 82 535
  764.5037 82 535
  764.5076 51 333
  764.5115 61 398
  764.5154 102 666
  764.5193 92 601
  764.5232 153 999
  764.5271 102 666
  764.531 133 868
  764.5349 133 868
  764.5388 143 934
  764.5427 92 601
  764.5466 61 398
  764.5505 61 398
  764.5544 71 464
  764.5583 20 131
  764.5622 31 202
  764.5661 20 131
  764.5778 31 202
  764.5817 20 131
//
