ACCESSION: MSBNK-Metabolon-MT000115
RECORD_TITLE: N-Acetylalanine; LC-ESI-IT; MS2; m/z: 130.1; [M-H]-
DATE: 2016.01.19 (Created 2009.08.07, modified 2012.10.30)
AUTHORS: Evans A M, Mitchell M, DeHaven C D, Barrett T, Milgram E, Metabolon Inc.
LICENSE: CC BY-NC-ND
COPYRIGHT: Copyright (C) 2003-2009 Metabolon, Inc.
CH$NAME: N-Acetylalanine
CH$COMPOUND_CLASS: Natural Product; Amino acids
CH$FORMULA: C5H9NO3
CH$EXACT_MASS: 131.05824
CH$SMILES: CC(=O)NC([H])(C)C(O)=O
CH$IUPAC: InChI=1S/C5H9NO3/c1-3(5(8)9)6-4(2)7/h3H,1-2H3,(H,6,7)(H,8,9)/t3-/m0/s1
CH$LINK: CAS 97-69-8
CH$LINK: HMDB HMDB00766
CH$LINK: KEGG C02847
CH$LINK: INCHIKEY KTHDTJVBEPMMGL-VKHMYHEASA-N
CH$LINK: COMPTOX DTXSID50861704
AC$INSTRUMENT: LTQ XL, Thermo Finnigan
AC$INSTRUMENT_TYPE: LC-ESI-IT
AC$MASS_SPECTROMETRY: MS_TYPE MS2
AC$MASS_SPECTROMETRY: ION_MODE NEGATIVE
AC$MASS_SPECTROMETRY: COLLISION_ENERGY 40
AC$MASS_SPECTROMETRY: IONIZATION ESI
MS$FOCUSED_ION: PRECURSOR_M/Z 130.1
MS$FOCUSED_ION: PRECURSOR_TYPE [M-H]-
MS$DATA_PROCESSING: WHOLE MLIMS VERSION 5
PK$SPLASH: splash10-000i-9000000000-e6becb5f8b8bbb53304a
PK$NUM_PEAK: 2
PK$PEAK: m/z int. rel.int.
  88.1 100.0 999
  130.1 6.3 63
//
