ACCESSION: MSBNK-Metabolon-MT000009
RECORD_TITLE: Sebacic acid; LC-ESI-IT; MS2; m/z: 201.2; [M-H]-
DATE: 2016.01.19 (Created 2009.08.07, modified 2012.10.30)
AUTHORS: Evans A M, Mitchell M, DeHaven C D, Barrett T, Milgram E, Metabolon Inc.
LICENSE: CC BY-NC-ND
COPYRIGHT: Copyright (C) 2003-2009 Metabolon, Inc.
CH$NAME: Sebacic acid
CH$NAME: sebacate
CH$COMPOUND_CLASS: Natural Product; Fatty Acyls; Fatty Acids and Conjugates; Dicarboxylic acids
CH$FORMULA: C10H18O4
CH$EXACT_MASS: 202.12051
CH$SMILES: OC(=O)CCCCCCCCC(O)=O
CH$IUPAC: InChI=1S/C10H18O4/c11-9(12)7-5-3-1-2-4-6-8-10(13)14/h1-8H2,(H,11,12)(H,13,14)
CH$LINK: CAS 111-20-6
CH$LINK: HMDB HMDB00792
CH$LINK: KEGG C08277
CH$LINK: LIPIDMAPS LMFA01170006
CH$LINK: INCHIKEY CXMXRPHRNRROMY-UHFFFAOYSA-N
CH$LINK: COMPTOX DTXSID7026867
AC$INSTRUMENT: LTQ XL, Thermo Finnigan
AC$INSTRUMENT_TYPE: LC-ESI-IT
AC$MASS_SPECTROMETRY: MS_TYPE MS2
AC$MASS_SPECTROMETRY: ION_MODE NEGATIVE
AC$MASS_SPECTROMETRY: COLLISION_ENERGY 40
AC$MASS_SPECTROMETRY: IONIZATION ESI
MS$FOCUSED_ION: PRECURSOR_M/Z 201.2
MS$FOCUSED_ION: PRECURSOR_TYPE [M-H]-
MS$DATA_PROCESSING: WHOLE MLIMS VERSION 5
PK$SPLASH: splash10-0019-0900000000-e9711749ce4f183c8c63
PK$NUM_PEAK: 7
PK$PEAK: m/z int. rel.int.
  111.3 0.2 2
  139.2 100.0 999
  140.2 2.5 25
  157.2 0.3 3
  183.1 56.8 567
  184.2 1.6 16
  201.2 0.4 4
//
