ACCESSION: MSBNK-Metabolon-MT000044
RECORD_TITLE: Citric acid; LC-ESI-IT; MS2; m/z: 191.1; [M-H]-
DATE: 2016.01.19 (Created 2009.08.07, modified 2012.10.30)
AUTHORS: Evans A M, Mitchell M, DeHaven C D, Barrett T, Milgram E, Metabolon Inc.
LICENSE: CC BY-NC-ND
COPYRIGHT: Copyright (C) 2003-2009 Metabolon, Inc.
CH$NAME: Citric acid
CH$NAME: citrate
CH$COMPOUND_CLASS: Natural Product; Tricarboxylic acids
CH$FORMULA: C6H8O7
CH$EXACT_MASS: 192.02700
CH$SMILES: OC(=O)CC(O)(CC(O)=O)C(O)=O
CH$IUPAC: InChI=1S/C6H8O7/c7-3(8)1-6(13,5(11)12)2-4(9)10/h13H,1-2H2,(H,7,8)(H,9,10)(H,11,12)
CH$LINK: CAS 77-92-9
CH$LINK: HMDB HMDB00094
CH$LINK: KEGG C00158
CH$LINK: INCHIKEY KRKNYBCHXYNGOX-UHFFFAOYSA-N
CH$LINK: COMPTOX DTXSID3020332
AC$INSTRUMENT: LTQ XL, Thermo Finnigan
AC$INSTRUMENT_TYPE: LC-ESI-IT
AC$MASS_SPECTROMETRY: MS_TYPE MS2
AC$MASS_SPECTROMETRY: ION_MODE NEGATIVE
AC$MASS_SPECTROMETRY: COLLISION_ENERGY 40
AC$MASS_SPECTROMETRY: IONIZATION ESI
MS$FOCUSED_ION: PRECURSOR_M/Z 191.1
MS$FOCUSED_ION: PRECURSOR_TYPE [M-H]-
MS$DATA_PROCESSING: WHOLE MLIMS VERSION 5
PK$SPLASH: splash10-03di-0900000000-32af4c1bf55ea1563e53
PK$NUM_PEAK: 10
PK$PEAK: m/z int. rel.int.
  85.2 1.4 14
  87.2 1.1 11
  111.1 100.0 999
  112.0 0.3 3
  129.1 2.2 22
  131.0 1.0 10
  147.1 0.3 3
  155.1 0.3 3
  173.0 19.6 196
  174.1 0.1 1
//
