ACCESSION: MSBNK-RIKEN-PR303418
RECORD_TITLE: Isovitexin(4); LC-ESI-QTOF; MS2
DATE: 2019.03.28
AUTHORS: Tetsuya Mori, Center for Sustainable Resource Science, RIKEN
LICENSE: CC BY-NC-SA
PUBLICATION: Tsugawa H., Nakabayashi R., Mori T., Yamada Y., Takahashi M., Rai A., Sugiyama R., Yamamoto H., Nakaya T., Yamazaki M., Kooke R., Bac-Molenaar JA., Oztolan-Erol N., Keurentjes JJB., Arita M., Saito K. (2019) "A cheminformatics approach to characterize metabolomes in stable-isotope-labeled organisms" Nature Methods 16(4):295-298. [doi:10.1038/s41592-019-0358-2]
COMMENT: registered in RIKEN PlaSMA
CH$NAME: Isovitexin(4)
CH$COMPOUND_CLASS: Flavonoid C-glycosides
CH$FORMULA: C21H20O10
CH$EXACT_MASS: 432.381
CH$SMILES: OC[C@H]1O[C@H]([C@H](O)[C@@H](O)[C@@H]1O)C1=C(O)C2=C(OC(=CC2=O)C2=CC=C(O)C=C2)C=C1O
CH$IUPAC: InChI=1S/C21H20O10/c22-7-14-17(26)19(28)20(29)21(31-14)16-11(25)6-13-15(18(16)27)10(24)5-12(30-13)8-1-3-9(23)4-2-8/h1-6,14,17,19-23,25-29H,7H2/t14-,17-,19+,20-,21+/m1/s1
CH$LINK: INCHIKEY MYXNWGACZJSMBT-VJXVFPJBSA-N
AC$INSTRUMENT: LC, Waters Acquity UPLC System; MS, Waters Xevo G2 Q-Tof
AC$INSTRUMENT_TYPE: LC-ESI-QTOF
AC$MASS_SPECTROMETRY: MS_TYPE MS2
AC$MASS_SPECTROMETRY: ION_MODE POSITIVE
AC$MASS_SPECTROMETRY: COLLISION_ENERGY 6V
AC$MASS_SPECTROMETRY: DESOLVATION_GAS_FLOW 800/h
AC$MASS_SPECTROMETRY: DESOLVATION_TEMPERATURE 450 C
AC$MASS_SPECTROMETRY: IONIZATION ESI
AC$CHROMATOGRAPHY: CAPILLARY_VOLTAGE +3.00 kV
AC$CHROMATOGRAPHY: COLUMN_NAME Acquity bridged ethyl hybrid C18 (1.7 um, 2.1 mm * 100 mm, Waters)
AC$CHROMATOGRAPHY: COLUMN_TEMPERATURE 40 C
AC$CHROMATOGRAPHY: FLOW_GRADIENT A/B = (99.5%/0.5% at 0 min, 99.5%/0.5% at 0.1 min, 20%/80% at 10 min, 0.5%/99.5% at 10.1 min, 0.5%/99.5% at 12.0 min, 99.5%/0.5% at 12.1 min, 99.5%/0.5% at 15.0 min)
AC$CHROMATOGRAPHY: FLOW_RATE 0.3 ml/min at 0 min, 0.3 ml/min at 10 min, 0.4 ml/min at 10.1 min, 0.4 ml/min at 14.4 min, 0.3 ml/min at 14.5 min
AC$CHROMATOGRAPHY: RETENTION_TIME 3.9478
AC$CHROMATOGRAPHY: SOLVENT A water including 0.1% formic acid
AC$CHROMATOGRAPHY: SOLVENT B acetonitrile including 0.1% formic acid
MS$FOCUSED_ION: PRECURSOR_TYPE [M+H]+
MS$FOCUSED_ION: PRECURSOR_M/Z 433.1129233
PK$SPLASH: splash10-015a-0960000000-4be5e30ad89fa0e98df5
PK$NUM_PEAK: 209
PK$PEAK: m/z int. rel.int.
  65.03759 43.0 43
  68.99581 51.0 51
  69.00112 22.0 22
  69.99352 9.0 9
  79.05505 16.0 16
  81.03237 27.0 27
  90.04359 14.0 14
  91.04647 15.0 15
  91.05378 18.0 18
  92.05035 10.0 10
  93.02502 16.0 16
  93.03214 111.0 111
  97.02977 9.0 9
  102.8072 10.0 10
  103.05141 17.0 17
  105.03416 20.0 20
  105.07409 10.0 10
  107.04826 13.0 13
  109.02533 9.0 9
  110.03091 25.0 25
  111.0083 9.0 9
  111.6863 11.0 11
  115.05502 14.0 14
  118.04753 10.0 10
  119.04618 31.0 31
  119.05266 46.0 46
  120.04792 10.0 10
  120.05701 23.0 23
  121.01853 10.0 10
  121.02834 231.0 231
  121.03489 82.0 82
  121.06567 12.0 12
  122.03345 12.0 12
  122.99504 12.0 12
  123.00575 113.0 113
  123.03746 15.0 15
  123.95097 10.0 10
  129.03209 10.0 10
  131.04892 28.0 28
  131.85773 9.0 9
  133.0244 16.0 16
  135.00813 16.0 16
  135.03279 15.0 15
  135.04268 16.0 16
  137.01981 10.0 10
  138.02646 51.0 51
  142.04965 9.0 9
  145.02101 46.0 46
  145.02715 124.0 124
  145.03801 10.0 10
  147.00623 11.0 11
  147.04106 11.0 11
  149.00533 20.0 20
  149.0155 23.0 23
  149.02657 278.0 278
  153.01485 28.0 28
  153.0708 9.0 9
  155.04742 10.0 10
  159.04491 16.0 16
  159.05612 24.0 24
  159.08388 11.0 11
  159.11588 10.0 10
  163.03781 80.0 80
  163.05168 12.0 12
  164.04803 35.0 35
  164.85881 9.0 9
  165.00204 68.0 68
  165.01781 1000.0 999
  165.06996 35.0 35
  165.83765 9.0 9
  166.01971 156.0 156
  166.02995 27.0 27
  167.03302 12.0 12
  168.08913 14.0 14
  169.02278 14.0 14
  169.02985 13.0 13
  171.04736 10.0 10
  172.05278 19.0 19
  173.01602 13.0 13
  173.02277 15.0 15
  173.05841 12.0 12
  174.033 16.0 16
  174.99181 14.0 14
  175.03555 25.0 25
  176.04904 14.0 14
  177.01425 14.0 14
  177.02782 15.0 15
  177.04648 10.0 10
  178.0202 14.0 14
  178.03227 12.0 12
  178.99377 23.0 23
  179.03885 23.0 23
  179.08871 12.0 12
  180.12555 9.0 9
  181.05652 10.0 10
  181.08246 11.0 11
  183.04829 15.0 15
  185.01942 9.0 9
  185.24429 12.0 12
  187.0439 66.0 66
  189.01054 13.0 13
  189.02191 16.0 16
  190.01164 15.0 15
  190.0257 47.0 47
  190.06741 10.0 10
  190.99223 11.0 11
  191.02969 32.0 32
  191.03748 88.0 88
  193.02019 13.0 13
  197.05803 11.0 11
  198.0528 21.0 21
  201.01805 9.0 9
  201.07886 15.0 15
  202.03125 15.0 15
  203.02428 12.0 12
  203.03444 39.0 39
  203.04494 17.0 17
  204.03691 19.0 19
  206.04648 12.0 12
  209.61884 12.0 12
  211.07884 22.0 22
  213.01726 9.0 9
  213.04689 14.0 14
  213.05417 13.0 13
  213.09421 12.0 12
  214.01112 16.0 16
  214.06625 17.0 17
  215.01561 20.0 20
  215.03059 46.0 46
  215.04431 15.0 15
  218.07887 27.0 27
  220.02029 12.0 12
  224.21324 9.0 9
  226.05244 10.0 10
  226.08641 14.0 14
  227.04892 14.0 14
  228.07645 24.0 24
  229.0472 126.0 126
  231.02869 9.0 9
  235.07611 18.0 18
  238.06229 11.0 11
  239.07385 62.0 62
  239.14262 11.0 11
  239.2056 12.0 12
  239.85722 9.0 9
  240.06296 13.0 13
  241.04404 15.0 15
  242.04295 10.0 10
  242.05179 24.0 24
  242.06883 11.0 11
  245.40385 17.0 17
  252.0817 11.0 11
  253.06049 9.0 9
  255.04951 34.0 34
  255.05928 62.0 62
  255.07228 20.0 20
  256.05551 26.0 26
  256.0723 47.0 47
  264.86716 9.0 9
  265.05075 11.0 11
  267.04846 9.0 9
  267.06268 77.0 77
  268.07394 12.0 12
  269.04773 50.0 50
  269.07266 11.0 11
  270.04541 45.0 45
  270.06073 10.0 10
  271.05865 79.0 79
  276.08279 9.0 9
  276.60953 9.0 9
  278.08401 10.0 10
  279.06232 42.0 42
  279.0701 24.0 24
  280.06088 15.0 15
  280.08353 15.0 15
  281.03625 13.0 13
  281.06693 41.0 41
  281.08307 71.0 71
  283.03601 22.0 22
  283.05774 493.0 493
  283.07797 61.0 61
  284.05273 23.0 23
  284.06903 148.0 148
  285.07449 15.0 15
  291.05368 12.0 12
  293.06717 16.0 16
  294.03708 11.0 11
  295.04239 12.0 12
  295.0618 196.0 196
  296.05396 12.0 12
  296.06842 43.0 43
  297.05856 17.0 17
  297.08008 25.0 25
  298.08521 12.0 12
  306.06781 11.0 11
  307.06039 19.0 19
  308.05557 16.0 16
  308.79034 10.0 10
  309.06915 155.0 155
  310.0654 14.0 14
  310.07825 24.0 24
  313.0889 13.0 13
  314.07019 12.0 12
  315.09195 9.0 9
  319.07013 16.0 16
  321.05972 20.0 20
  321.07996 30.0 30
  323.10461 12.0 12
  354.53986 9.0 9
//
