ACCESSION: MSBNK-RIKEN-PR310970
RECORD_TITLE: Flavone base + 3O, 2MeO, O-Hex-dHex; LC-ESI-QTOF; MS2
DATE: 2019.03.28
AUTHORS: Tetsuya Mori, Center for Sustainable Resource Science, RIKEN
LICENSE: CC BY-NC-SA
PUBLICATION: Tsugawa H., Nakabayashi R., Mori T., Yamada Y., Takahashi M., Rai A., Sugiyama R., Yamamoto H., Nakaya T., Yamazaki M., Kooke R., Bac-Molenaar JA., Oztolan-Erol N., Keurentjes JJB., Arita M., Saito K. (2019) "A cheminformatics approach to characterize metabolomes in stable-isotope-labeled organisms" Nature Methods 16(4):295-298. [doi:10.1038/s41592-019-0358-2]
COMMENT: Annotation level-3
CH$NAME: Flavone base + 3O, 2MeO, O-Hex-dHex
CH$COMPOUND_CLASS: Flavone O-glycosides
CH$FORMULA: C29H34O16
CH$EXACT_MASS: 638.575
CH$SMILES: O=C3C=C(OC4=CC(OC2OC(CO)C(O)C(O)C2(OC1OC(C)C(O)C(O)C1(O)))=CC(O)=C34)C=5C=C(OC)C(O)=C(OC)C=5
CH$IUPAC: InChI=1S/C29H34O16/c1-10-21(33)24(36)26(38)28(41-10)45-27-25(37)23(35)19(9-30)44-29(27)42-12-6-13(31)20-14(32)8-15(43-16(20)7-12)11-4-17(39-2)22(34)18(5-11)40-3/h4-8,10,19,21,23-31,33-38H,9H2,1-3H3
CH$LINK: INCHIKEY AIBMPOJXBGZIPQ-UHFFFAOYSA-N
AC$INSTRUMENT: LC, Waters Acquity UPLC System; MS, Waters Xevo G2 Q-Tof
AC$INSTRUMENT_TYPE: LC-ESI-QTOF
AC$MASS_SPECTROMETRY: MS_TYPE MS2
AC$MASS_SPECTROMETRY: ION_MODE POSITIVE
AC$MASS_SPECTROMETRY: COLLISION_ENERGY 6V
AC$MASS_SPECTROMETRY: DESOLVATION_GAS_FLOW 800/h
AC$MASS_SPECTROMETRY: DESOLVATION_TEMPERATURE 450 C
AC$MASS_SPECTROMETRY: IONIZATION ESI
AC$CHROMATOGRAPHY: CAPILLARY_VOLTAGE +3.00 kV
AC$CHROMATOGRAPHY: COLUMN_NAME Acquity bridged ethyl hybrid C18 (1.7 um, 2.1 mm * 100 mm, Waters)
AC$CHROMATOGRAPHY: COLUMN_TEMPERATURE 40 C
AC$CHROMATOGRAPHY: FLOW_GRADIENT A/B = (99.5%/0.5% at 0 min, 99.5%/0.5% at 0.1 min, 20%/80% at 10 min, 0.5%/99.5% at 10.1 min, 0.5%/99.5% at 12.0 min, 99.5%/0.5% at 12.1 min, 99.5%/0.5% at 15.0 min)
AC$CHROMATOGRAPHY: FLOW_RATE 0.3 ml/min at 0 min, 0.3 ml/min at 10 min, 0.4 ml/min at 10.1 min, 0.4 ml/min at 14.4 min, 0.3 ml/min at 14.5 min
AC$CHROMATOGRAPHY: RETENTION_TIME 4.36
AC$CHROMATOGRAPHY: SOLVENT A water including 0.1% formic acid
AC$CHROMATOGRAPHY: SOLVENT B acetonitrile including 0.1% formic acid
MS$FOCUSED_ION: PRECURSOR_TYPE [M+H]+
MS$FOCUSED_ION: PRECURSOR_M/Z 639.1913
PK$SPLASH: splash10-001u-0009408000-8da2e41ae84c1f24a55c
PK$NUM_PEAK: 11
PK$PEAK: m/z int. rel.int.
  291.06314 30.0 126
  317.06781 60.0 252
  318.07437 16.0 67
  331.0856 214.0 898
  332.08582 50.0 210
  493.13541 115.0 483
  494.15271 38.0 160
  616.56281 21.0 88
  639.14642 22.0 92
  639.18475 238.0 999
  639.24695 22.0 92
//
