ACCESSION: MSBNK-RIKEN-PR310639
RECORD_TITLE: 7-Hydroxymitragynine; LC-ESI-QTOF; MS2
DATE: 2019.03.28
AUTHORS: Tetsuya Mori, Center for Sustainable Resource Science, RIKEN
LICENSE: CC BY-NC-SA
PUBLICATION: Tsugawa H., Nakabayashi R., Mori T., Yamada Y., Takahashi M., Rai A., Sugiyama R., Yamamoto H., Nakaya T., Yamazaki M., Kooke R., Bac-Molenaar JA., Oztolan-Erol N., Keurentjes JJB., Arita M., Saito K. (2019) "A cheminformatics approach to characterize metabolomes in stable-isotope-labeled organisms" Nature Methods 16(4):295-298. [doi:10.1038/s41592-019-0358-2]
COMMENT: Annotation level-1
CH$NAME: 7-Hydroxymitragynine
CH$COMPOUND_CLASS: Alkaloids
CH$FORMULA: C23H30N2O5
CH$EXACT_MASS: 414.502
CH$SMILES: CCC1CN2CCC3(O)C(=NC4=C3C(OC)=CC=C4)C2CC1C(=COC)C(=O)OC
CH$IUPAC: InChI=1S/C23H30N2O5/c1-5-14-12-25-10-9-23(27)20-17(7-6-8-19(20)29-3)24-21(23)18(25)11-15(14)16(13-28-2)22(26)30-4/h6-8,13-15,18,27H,5,9-12H2,1-4H3
CH$LINK: INCHIKEY RYENLSMHLCNXJT-UHFFFAOYSA-N
AC$INSTRUMENT: LC, Waters Acquity UPLC System; MS, Waters Xevo G2 Q-Tof
AC$INSTRUMENT_TYPE: LC-ESI-QTOF
AC$MASS_SPECTROMETRY: MS_TYPE MS2
AC$MASS_SPECTROMETRY: ION_MODE POSITIVE
AC$MASS_SPECTROMETRY: COLLISION_ENERGY 6V
AC$MASS_SPECTROMETRY: DESOLVATION_GAS_FLOW 800/h
AC$MASS_SPECTROMETRY: DESOLVATION_TEMPERATURE 450 C
AC$MASS_SPECTROMETRY: IONIZATION ESI
AC$CHROMATOGRAPHY: CAPILLARY_VOLTAGE +3.00 kV
AC$CHROMATOGRAPHY: COLUMN_NAME Acquity bridged ethyl hybrid C18 (1.7 um, 2.1 mm * 100 mm, Waters)
AC$CHROMATOGRAPHY: COLUMN_TEMPERATURE 40 C
AC$CHROMATOGRAPHY: FLOW_GRADIENT A/B = (99.5%/0.5% at 0 min, 99.5%/0.5% at 0.1 min, 20%/80% at 10 min, 0.5%/99.5% at 10.1 min, 0.5%/99.5% at 12.0 min, 99.5%/0.5% at 12.1 min, 99.5%/0.5% at 15.0 min)
AC$CHROMATOGRAPHY: FLOW_RATE 0.3 ml/min at 0 min, 0.3 ml/min at 10 min, 0.4 ml/min at 10.1 min, 0.4 ml/min at 14.4 min, 0.3 ml/min at 14.5 min
AC$CHROMATOGRAPHY: RETENTION_TIME 4.26
AC$CHROMATOGRAPHY: SOLVENT A water including 0.1% formic acid
AC$CHROMATOGRAPHY: SOLVENT B acetonitrile including 0.1% formic acid
MS$FOCUSED_ION: PRECURSOR_TYPE [M+H]+
MS$FOCUSED_ION: PRECURSOR_M/Z 415.22275
PK$SPLASH: splash10-014i-0521900000-3aec9da69dd84903add0
PK$NUM_PEAK: 226
PK$PEAK: m/z int. rel.int.
  56.05183 44.0 3
  59.05204 18.0 1
  75.04429 18.0 1
  79.5152 17.0 1
  79.90983 20.0 1
  84.08281 22.0 2
  106.06842 18.0 1
  108.08623 30.0 2
  109.06244 27.0 2
  110.0975 400.0 27
  110.14826 17.0 1
  111.10307 25.0 2
  115.0423 46.0 3
  116.0495 48.0 3
  117.05864 44.0 3
  119.05563 17.0 1
  121.06004 27.0 2
  122.09548 19.0 1
  124.09332 30.0 2
  124.11469 61.0 4
  126.05327 32.0 2
  129.05186 64.0 4
  129.0594 98.0 7
  130.06506 54.0 4
  131.06749 18.0 1
  132.04645 32.0 2
  132.43512 19.0 1
  133.04329 19.0 1
  133.05254 20.0 1
  134.05556 65.0 4
  134.06328 62.0 4
  135.09999 20.0 1
  136.10997 19.0 1
  138.0575 69.0 5
  138.15901 21.0 1
  139.05501 27.0 2
  139.07191 39.0 3
  144.08156 67.0 5
  145.0672 18.0 1
  145.08389 93.0 6
  146.07109 38.0 3
  146.08749 22.0 2
  147.06856 81.0 6
  148.06396 22.0 2
  148.07399 19.0 1
  149.08162 17.0 1
  150.05264 17.0 1
  150.0946 21.0 1
  151.07933 27.0 2
  152.54922 17.0 1
  153.07622 18.0 1
  157.84288 25.0 2
  158.06477 24.0 2
  159.0421 18.0 1
  159.06473 20.0 1
  161.08134 19.0 1
  162.04796 126.0 9
  162.05807 87.0 6
  162.08081 16.0 1
  162.09224 170.0 12
  162.80595 18.0 1
  164.07121 17.0 1
  165.09258 17.0 1
  166.09122 21.0 1
  168.10159 76.0 5
  170.06445 26.0 2
  170.11653 24.0 2
  171.09967 20.0 1
  171.11462 30.0 2
  171.23378 20.0 1
  172.07687 60.0 4
  172.08496 24.0 2
  172.10382 21.0 1
  173.07574 87.0 6
  174.05894 18.0 1
  174.0853 70.0 5
  174.09229 67.0 5
  174.10271 30.0 2
  175.04195 36.0 2
  175.06131 461.0 32
  175.06963 151.0 10
  175.09715 18.0 1
  176.05769 24.0 2
  176.0685 80.0 5
  176.08304 24.0 2
  180.10225 18.0 1
  184.10266 24.0 2
  184.11897 25.0 2
  186.08618 48.0 3
  186.10042 20.0 1
  189.9668 22.0 2
  190.08693 3990.0 274
  191.09071 370.0 25
  191.10092 98.0 7
  192.09264 18.0 1
  192.4481 17.0 1
  193.62367 20.0 1
  193.73634 38.0 3
  194.12238 78.0 5
  197.11829 62.0 4
  198.09679 63.0 4
  199.08643 18.0 1
  202.07492 54.0 4
  202.08701 62.0 4
  203.09546 20.0 1
  204.11485 20.0 1
  206.09604 24.0 2
  206.11479 19.0 1
  208.13731 39.0 3
  210.10606 19.0 1
  211.086 34.0 2
  212.08194 18.0 1
  212.08813 59.0 4
  212.12302 25.0 2
  214.10513 17.0 1
  216.1089 20.0 1
  219.44318 39.0 3
  223.08858 24.0 2
  223.09618 21.0 1
  226.10411 20.0 1
  226.13698 254.0 17
  226.14484 666.0 46
  226.32422 29.0 2
  227.11247 143.0 10
  227.12456 94.0 6
  227.13869 36.0 2
  227.15193 79.0 5
  228.12436 46.0 3
  228.14514 18.0 1
  228.16162 23.0 2
  229.06754 20.0 1
  230.12836 35.0 2
  237.0947 20.0 1
  237.14333 41.0 3
  238.1055 20.0 1
  238.11494 24.0 2
  238.14557 607.0 42
  238.1703 20.0 1
  239.11092 17.0 1
  239.13719 22.0 2
  239.15109 65.0 4
  239.16789 17.0 1
  240.14571 75.0 5
  240.15697 362.0 25
  240.17494 33.0 2
  241.09647 18.0 1
  241.16002 65.0 4
  242.16237 41.0 3
  244.1026 20.0 1
  245.10266 21.0 1
  245.13036 100.0 7
  252.00702 18.0 1
  252.12627 28.0 2
  252.16547 29.0 2
  253.12149 59.0 4
  254.0831 19.0 1
  259.66626 20.0 1
  259.98212 18.0 1
  264.04767 18.0 1
  265.12698 19.0 1
  265.13684 35.0 2
  266.11426 17.0 1
  266.14771 19.0 1
  271.13821 19.0 1
  271.15182 43.0 3
  271.21722 20.0 1
  279.14609 58.0 4
  281.12408 17.0 1
  281.1442 24.0 2
  281.16415 126.0 9
  282.172 43.0 3
  282.27444 17.0 1
  283.10184 26.0 2
  283.49982 19.0 1
  293.07117 37.0 3
  297.15125 18.0 1
  297.17331 22.0 2
  298.17346 21.0 1
  299.16025 41.0 3
  299.17886 228.0 16
  300.17566 17.0 1
  304.13562 18.0 1
  305.16656 21.0 1
  305.72809 17.0 1
  308.74048 20.0 1
  309.12958 21.0 1
  322.17075 20.0 1
  323.17426 24.0 2
  324.20322 35.0 2
  326.01987 25.0 2
  330.1286 24.0 2
  337.17694 21.0 1
  339.08551 17.0 1
  339.16489 20.0 1
  344.75122 25.0 2
  348.16125 21.0 1
  349.16797 18.0 1
  351.16028 47.0 3
  353.17795 21.0 1
  365.16226 26.0 2
  372.16049 18.0 1
  380.02655 17.0 1
  381.18246 318.0 22
  382.15701 32.0 2
  382.18271 136.0 9
  382.20761 21.0 1
  383.17297 22.0 2
  383.20993 74.0 5
  384.20551 49.0 3
  387.59503 19.0 1
  397.19955 248.0 17
  397.2135 1058.0 73
  397.43246 31.0 2
  398.20221 169.0 12
  398.21933 267.0 18
  399.1998 42.0 3
  399.2243 119.0 8
  414.11807 28.0 2
  414.20886 23.0 2
  414.77191 17.0 1
  415.10538 21.0 1
  415.12241 17.0 1
  415.14594 21.0 1
  415.16809 92.0 6
  415.2236 14532.0 999
  415.28726 38.0 3
//
