ACCESSION: MSBNK-RIKEN-PR303308
RECORD_TITLE: NP-000062(6); LC-ESI-QTOF; MS2
DATE: 2019.03.28
AUTHORS: Tetsuya Mori, Center for Sustainable Resource Science, RIKEN
LICENSE: CC BY-NC-SA
PUBLICATION: Tsugawa H., Nakabayashi R., Mori T., Yamada Y., Takahashi M., Rai A., Sugiyama R., Yamamoto H., Nakaya T., Yamazaki M., Kooke R., Bac-Molenaar JA., Oztolan-Erol N., Keurentjes JJB., Arita M., Saito K. (2019) "A cheminformatics approach to characterize metabolomes in stable-isotope-labeled organisms" Nature Methods 16(4):295-298. [doi:10.1038/s41592-019-0358-2]
COMMENT: registered in RIKEN PlaSMA
CH$NAME: NP-000062(6)
CH$COMPOUND_CLASS: Flavonoid 8-C-glycosides
CH$FORMULA: C26H28O14
CH$EXACT_MASS: 564.496
CH$SMILES: OC[C@@H]1OC([C@H](O)[C@H]1O)C1=C(O)C(C2O[C@H](CO)[C@@H](O)[C@H](O)[C@H]2O)=C2OC(=CC(=O)C2=C1O)C1=CC=C(O)C=C1
CH$IUPAC: InChI=1S/C26H28O14/c27-6-12-17(31)21(35)23(37)26(40-12)16-20(34)15(25-22(36)18(32)13(7-28)39-25)19(33)14-10(30)5-11(38-24(14)16)8-1-3-9(29)4-2-8/h1-5,12-13,17-18,21-23,25-29,31-37H,6-7H2/t12-,13+,17-,18+,21+,22-,23-,25?,26?/m1/s1
CH$LINK: INCHIKEY DRLZZQRQMWQRLZ-FBMRRHFKSA-N
AC$INSTRUMENT: LC, Waters Acquity UPLC System; MS, Waters Xevo G2 Q-Tof
AC$INSTRUMENT_TYPE: LC-ESI-QTOF
AC$MASS_SPECTROMETRY: MS_TYPE MS2
AC$MASS_SPECTROMETRY: ION_MODE POSITIVE
AC$MASS_SPECTROMETRY: COLLISION_ENERGY 6V
AC$MASS_SPECTROMETRY: DESOLVATION_GAS_FLOW 800/h
AC$MASS_SPECTROMETRY: DESOLVATION_TEMPERATURE 450 C
AC$MASS_SPECTROMETRY: IONIZATION ESI
AC$CHROMATOGRAPHY: CAPILLARY_VOLTAGE +3.00 kV
AC$CHROMATOGRAPHY: COLUMN_NAME Acquity bridged ethyl hybrid C18 (1.7 um, 2.1 mm * 100 mm, Waters)
AC$CHROMATOGRAPHY: COLUMN_TEMPERATURE 40 C
AC$CHROMATOGRAPHY: FLOW_GRADIENT A/B = (99.5%/0.5% at 0 min, 99.5%/0.5% at 0.1 min, 20%/80% at 10 min, 0.5%/99.5% at 10.1 min, 0.5%/99.5% at 12.0 min, 99.5%/0.5% at 12.1 min, 99.5%/0.5% at 15.0 min)
AC$CHROMATOGRAPHY: FLOW_RATE 0.3 ml/min at 0 min, 0.3 ml/min at 10 min, 0.4 ml/min at 10.1 min, 0.4 ml/min at 14.4 min, 0.3 ml/min at 14.5 min
AC$CHROMATOGRAPHY: RETENTION_TIME 3.6386
AC$CHROMATOGRAPHY: SOLVENT A water including 0.1% formic acid
AC$CHROMATOGRAPHY: SOLVENT B acetonitrile including 0.1% formic acid
MS$FOCUSED_ION: PRECURSOR_TYPE [M+H]+
MS$FOCUSED_ION: PRECURSOR_M/Z 565.155182
PK$SPLASH: splash10-004j-0009500000-f6b707b366d990023b23
PK$NUM_PEAK: 283
PK$PEAK: m/z int. rel.int.
  83.07969 8.0 8
  85.03062 15.0 15
  100.97406 10.0 10
  121.02567 9.0 9
  167.44389 5.0 5
  191.03506 10.0 10
  219.02719 8.0 8
  233.83878 7.0 7
  235.18382 14.0 14
  242.32069 7.0 7
  248.41425 7.0 7
  252.63327 7.0 7
  253.98569 11.0 11
  258.0553 10.0 10
  277.9137 10.0 10
  291.07541 6.0 6
  294.05408 6.0 6
  295.01678 6.0 6
  295.03305 38.0 38
  295.05698 143.0 143
  296.04285 11.0 11
  296.05823 67.0 67
  297.07565 11.0 11
  304.06927 9.0 9
  307.06024 286.0 286
  307.70114 7.0 7
  308.01599 14.0 14
  308.0657 27.0 27
  309.02322 13.0 13
  309.06329 7.0 7
  309.08047 8.0 8
  311.07413 6.0 6
  311.10477 7.0 7
  315.04422 17.0 17
  319.06616 7.0 7
  319.07553 7.0 7
  321.0676 18.0 18
  321.0788 8.0 8
  322.04099 6.0 6
  322.09076 15.0 15
  323.05054 12.0 12
  323.07843 10.0 10
  323.09079 9.0 9
  324.06351 7.0 7
  324.33661 11.0 11
  324.57425 7.0 7
  325.07272 446.0 446
  326.06406 20.0 20
  326.07632 70.0 70
  326.09814 18.0 18
  326.4938 6.0 6
  327.06381 14.0 14
  327.0835 12.0 12
  328.8483 6.0 6
  329.0787 10.0 10
  332.19046 7.0 7
  333.07648 25.0 25
  334.04626 7.0 7
  335.04971 7.0 7
  335.0914 13.0 13
  336.07379 7.0 7
  337.06229 154.0 154
  337.07434 249.0 249
  338.05731 8.0 8
  338.07324 46.0 46
  338.08841 9.0 9
  339.05786 14.0 14
  339.08594 10.0 10
  342.14923 6.0 6
  345.07883 11.0 11
  348.09012 10.0 10
  348.1073 7.0 7
  348.18188 14.0 14
  349.06824 272.0 272
  350.06061 16.0 16
  350.0755 60.0 60
  351.07657 76.0 76
  351.09534 7.0 7
  351.73441 10.0 10
  351.88049 6.0 6
  355.06113 18.0 18
  355.08121 96.0 96
  356.07767 24.0 24
  356.09399 11.0 11
  356.62888 7.0 7
  361.06824 74.0 74
  361.09216 17.0 17
  361.17654 8.0 8
  361.75378 7.0 7
  362.02411 5.0 5
  362.07034 20.0 20
  362.0928 17.0 17
  363.08475 26.0 26
  364.09567 6.0 6
  365.09036 10.0 10
  365.10715 57.0 57
  366.06824 8.0 8
  366.10971 12.0 12
  367.052 21.0 21
  367.07642 37.0 37
  368.0712 6.0 6
  368.09421 8.0 8
  371.08527 14.0 14
  373.05746 15.0 15
  373.0722 7.0 7
  374.03217 7.0 7
  374.07135 7.0 7
  374.0874 9.0 9
  375.05984 10.0 10
  375.0766 42.0 42
  375.0943 11.0 11
  376.07562 7.0 7
  376.08606 8.0 8
  377.09927 33.0 33
  378.74863 10.0 10
  378.94089 9.0 9
  379.00668 17.0 17
  379.08124 1000.0 999
  379.12152 7.0 7
  379.37939 6.0 6
  380.0592 12.0 12
  380.08063 120.0 120
  380.10077 36.0 36
  381.01282 12.0 12
  381.05688 9.0 9
  381.0834 47.0 47
  381.1026 11.0 11
  381.12131 9.0 9
  385.07654 47.0 47
  386.07108 6.0 6
  386.08261 7.0 7
  387.03586 11.0 11
  387.0827 18.0 18
  387.7713 8.0 8
  389.07172 19.0 19
  389.09183 6.0 6
  389.10397 7.0 7
  390.65521 6.0 6
  391.03448 7.0 7
  391.05548 62.0 62
  391.08157 234.0 234
  391.31909 7.0 7
  392.06085 9.0 9
  392.09125 52.0 52
  392.10922 6.0 6
  393.03952 11.0 11
  393.07281 29.0 29
  393.0943 9.0 9
  395.07724 15.0 15
  395.9147 7.0 7
  396.91742 7.0 7
  397.04831 23.0 23
  397.09012 455.0 455
  397.86301 6.0 6
  398.06482 14.0 14
  398.09058 50.0 50
  398.10062 103.0 103
  399.07196 7.0 7
  399.09296 11.0 11
  400.10651 7.0 7
  400.38437 7.0 7
  401.10959 14.0 14
  402.08334 6.0 6
  403.07855 205.0 205
  404.05014 6.0 6
  404.0834 64.0 64
  404.11163 11.0 11
  405.07675 19.0 19
  405.1076 24.0 24
  406.08423 7.0 7
  406.10547 30.0 30
  407.07297 7.0 7
  409.04129 8.0 8
  409.07248 33.0 33
  409.09259 208.0 208
  409.11908 7.0 7
  410.08932 34.0 34
  410.11078 20.0 20
  411.09686 19.0 19
  412.07297 6.0 6
  412.09875 15.0 15
  413.05478 7.0 7
  413.0871 6.0 6
  414.06793 10.0 10
  414.11487 6.0 6
  415.07495 30.0 30
  415.10474 51.0 51
  416.08722 14.0 14
  416.11157 19.0 19
  417.06982 7.0 7
  417.09384 25.0 25
  419.07944 11.0 11
  419.10956 38.0 38
  420.116 14.0 14
  420.87158 5.0 5
  421.09229 166.0 166
  422.06888 11.0 11
  422.09274 39.0 39
  422.10831 17.0 17
  423.08655 6.0 6
  427.06857 26.0 26
  427.10446 172.0 172
  428.08127 17.0 17
  428.11087 42.0 42
  429.05786 6.0 6
  429.08228 9.0 9
  429.10037 38.0 38
  430.0838 12.0 12
  432.07904 7.0 7
  433.08932 290.0 290
  433.18384 6.0 6
  433.2605 6.0 6
  434.08344 51.0 51
  434.10364 8.0 8
  435.09506 19.0 19
  435.11224 7.0 7
  436.11047 9.0 9
  437.10294 6.0 6
  437.12314 31.0 31
  439.07303 9.0 9
  439.10529 94.0 94
  440.09628 29.0 29
  440.11508 6.0 6
  442.09232 13.0 13
  442.69238 6.0 6
  445.04395 6.0 6
  445.07336 89.0 89
  445.10678 43.0 43
  446.0715 11.0 11
  446.08862 58.0 58
  447.10596 65.0 65
  448.09253 11.0 11
  449.09332 6.0 6
  449.10681 7.0 7
  450.98019 8.0 8
  451.07111 7.0 7
  451.10312 193.0 193
  451.133 7.0 7
  452.08954 13.0 13
  452.11111 37.0 37
  453.07874 10.0 10
  454.09894 11.0 11
  457.02042 5.0 5
  457.07266 63.0 63
  457.10037 85.0 85
  457.11713 25.0 25
  458.10046 48.0 48
  463.09778 39.0 39
  463.11761 9.0 9
  464.10165 16.0 16
  464.12131 8.0 8
  465.1004 9.0 9
  465.13547 10.0 10
  469.10269 84.0 84
  469.13385 6.0 6
  470.10889 11.0 11
  470.12442 13.0 13
  475.07162 6.0 6
  475.08353 13.0 13
  475.10919 83.0 83
  475.13565 8.0 8
  476.09344 7.0 7
  476.11768 8.0 8
  477.10944 12.0 12
  481.10349 26.0 26
  481.12418 7.0 7
  482.12637 27.0 27
  484.12567 7.0 7
  493.02765 6.0 6
  493.08313 14.0 14
  493.11679 101.0 101
  494.1116 25.0 25
  494.13297 7.0 7
  495.10931 9.0 9
  500.13269 7.0 7
  511.1066 32.0 32
  511.12604 42.0 42
  512.13562 53.0 53
  520.19092 7.0 7
  529.11969 24.0 24
  529.14856 34.0 34
  530.14185 11.0 11
  547.1297 7.0 7
//
