ACCESSION: MSBNK-RIKEN-PR302504
RECORD_TITLE: Eriodictyol-7-O-glucoside; LC-ESI-QTOF; MS2
DATE: 2019.03.28
AUTHORS: Tetsuya Mori, Center for Sustainable Resource Science, RIKEN
LICENSE: CC BY-NC-SA
PUBLICATION: Tsugawa H., Nakabayashi R., Mori T., Yamada Y., Takahashi M., Rai A., Sugiyama R., Yamamoto H., Nakaya T., Yamazaki M., Kooke R., Bac-Molenaar JA., Oztolan-Erol N., Keurentjes JJB., Arita M., Saito K. (2019) "A cheminformatics approach to characterize metabolomes in stable-isotope-labeled organisms" Nature Methods 16(4):295-298. [doi:10.1038/s41592-019-0358-2]
COMMENT: registered in RIKEN PlaSMA
CH$NAME: Eriodictyol-7-O-glucoside
CH$COMPOUND_CLASS: Flavonoid-7-O-glycosides
CH$FORMULA: C21H22O11
CH$EXACT_MASS: 450.396
CH$SMILES: OC[C@H]1O[C@@H](OC2=CC(O)=C3C(=O)CC(OC3=C2)C2=CC(O)=C(O)C=C2)[C@H](O)[C@@H](O)[C@@H]1O
CH$IUPAC: InChI=1S/C21H22O11/c22-7-16-18(27)19(28)20(29)21(32-16)30-9-4-12(25)17-13(26)6-14(31-15(17)5-9)8-1-2-10(23)11(24)3-8/h1-5,14,16,18-25,27-29H,6-7H2/t14?,16-,18-,19+,20-,21-/m1/s1
CH$LINK: INCHIKEY RAFHNDRXYHOLSH-RGHIGTIISA-N
AC$INSTRUMENT: LC, Waters Acquity UPLC System; MS, Waters Xevo G2 Q-Tof
AC$INSTRUMENT_TYPE: LC-ESI-QTOF
AC$MASS_SPECTROMETRY: MS_TYPE MS2
AC$MASS_SPECTROMETRY: ION_MODE POSITIVE
AC$MASS_SPECTROMETRY: COLLISION_ENERGY 6V
AC$MASS_SPECTROMETRY: DESOLVATION_GAS_FLOW 800/h
AC$MASS_SPECTROMETRY: DESOLVATION_TEMPERATURE 450 C
AC$MASS_SPECTROMETRY: IONIZATION ESI
AC$CHROMATOGRAPHY: CAPILLARY_VOLTAGE +3.00 kV
AC$CHROMATOGRAPHY: COLUMN_NAME Acquity bridged ethyl hybrid C18 (1.7 um, 2.1 mm * 100 mm, Waters)
AC$CHROMATOGRAPHY: COLUMN_TEMPERATURE 40 C
AC$CHROMATOGRAPHY: FLOW_GRADIENT A/B = (99.5%/0.5% at 0 min, 99.5%/0.5% at 0.1 min, 20%/80% at 10 min, 0.5%/99.5% at 10.1 min, 0.5%/99.5% at 12.0 min, 99.5%/0.5% at 12.1 min, 99.5%/0.5% at 15.0 min)
AC$CHROMATOGRAPHY: FLOW_RATE 0.3 ml/min at 0 min, 0.3 ml/min at 10 min, 0.4 ml/min at 10.1 min, 0.4 ml/min at 14.4 min, 0.3 ml/min at 14.5 min
AC$CHROMATOGRAPHY: RETENTION_TIME 4.092834
AC$CHROMATOGRAPHY: SOLVENT A water including 0.1% formic acid
AC$CHROMATOGRAPHY: SOLVENT B acetonitrile including 0.1% formic acid
MS$FOCUSED_ION: PRECURSOR_TYPE [M+H]+
MS$FOCUSED_ION: PRECURSOR_M/Z 451.123488
PK$SPLASH: splash10-000i-0490000000-a820837d698601faa148
PK$NUM_PEAK: 41
PK$PEAK: m/z int. rel.int.
  97.36543 5.0 5
  123.04612 9.0 9
  135.0238 7.0 7
  135.04503 19.0 19
  137.02415 6.0 6
  137.0609 6.0 6
  145.05836 8.0 8
  152.98706 5.0 5
  153.00693 14.0 14
  153.01787 239.0 239
  154.01872 12.0 12
  154.02664 20.0 20
  163.03035 43.0 43
  163.03722 163.0 163
  164.04332 12.0 12
  178.43956 12.0 12
  179.03041 18.0 18
  187.03915 13.0 13
  195.02979 7.0 7
  199.69629 6.0 6
  214.70587 10.0 10
  219.02029 5.0 5
  228.72353 7.0 7
  261.03384 6.0 6
  271.03857 9.0 9
  271.05011 6.0 6
  287.05011 14.0 14
  288.04675 5.0 5
  288.97568 6.0 6
  289.02066 6.0 6
  289.03677 7.0 7
  289.0686 1000.0 999
  289.91437 10.0 10
  290.06766 71.0 71
  290.08029 119.0 119
  291.07486 57.0 57
  291.0932 12.0 12
  292.07523 5.0 5
  293.7074 6.0 6
  451.11475 58.0 58
  451.13928 40.0 40
//
