ACCESSION: MSBNK-RIKEN-PR302205
RECORD_TITLE: Kaempferol; LC-ESI-QTOF; MS2
DATE: 2019.03.28
AUTHORS: Tetsuya Mori, Center for Sustainable Resource Science, RIKEN
LICENSE: CC BY-NC-SA
PUBLICATION: Tsugawa H., Nakabayashi R., Mori T., Yamada Y., Takahashi M., Rai A., Sugiyama R., Yamamoto H., Nakaya T., Yamazaki M., Kooke R., Bac-Molenaar JA., Oztolan-Erol N., Keurentjes JJB., Arita M., Saito K. (2019) "A cheminformatics approach to characterize metabolomes in stable-isotope-labeled organisms" Nature Methods 16(4):295-298. [doi:10.1038/s41592-019-0358-2]
COMMENT: registered in RIKEN PlaSMA
CH$NAME: Kaempferol
CH$COMPOUND_CLASS: Flavonols
CH$FORMULA: C15H10O6
CH$EXACT_MASS: 286.239
CH$SMILES: OC1=CC=C(C=C1)C1=C(O)C(=O)C2=C(O)C=C(O)C=C2O1
CH$IUPAC: InChI=1S/C15H10O6/c16-8-3-1-7(2-4-8)15-14(20)13(19)12-10(18)5-9(17)6-11(12)21-15/h1-6,16-18,20H
CH$LINK: INCHIKEY IYRMWMYZSQPJKC-UHFFFAOYSA-N
AC$INSTRUMENT: LC, Waters Acquity UPLC System; MS, Waters Xevo G2 Q-Tof
AC$INSTRUMENT_TYPE: LC-ESI-QTOF
AC$MASS_SPECTROMETRY: MS_TYPE MS2
AC$MASS_SPECTROMETRY: ION_MODE POSITIVE
AC$MASS_SPECTROMETRY: COLLISION_ENERGY 6V
AC$MASS_SPECTROMETRY: DESOLVATION_GAS_FLOW 800/h
AC$MASS_SPECTROMETRY: DESOLVATION_TEMPERATURE 450 C
AC$MASS_SPECTROMETRY: IONIZATION ESI
AC$CHROMATOGRAPHY: CAPILLARY_VOLTAGE +3.00 kV
AC$CHROMATOGRAPHY: COLUMN_NAME Acquity bridged ethyl hybrid C18 (1.7 um, 2.1 mm * 100 mm, Waters)
AC$CHROMATOGRAPHY: COLUMN_TEMPERATURE 40 C
AC$CHROMATOGRAPHY: FLOW_GRADIENT A/B = (99.5%/0.5% at 0 min, 99.5%/0.5% at 0.1 min, 20%/80% at 10 min, 0.5%/99.5% at 10.1 min, 0.5%/99.5% at 12.0 min, 99.5%/0.5% at 12.1 min, 99.5%/0.5% at 15.0 min)
AC$CHROMATOGRAPHY: FLOW_RATE 0.3 ml/min at 0 min, 0.3 ml/min at 10 min, 0.4 ml/min at 10.1 min, 0.4 ml/min at 14.4 min, 0.3 ml/min at 14.5 min
AC$CHROMATOGRAPHY: RETENTION_TIME 6.01355
AC$CHROMATOGRAPHY: SOLVENT A water including 0.1% formic acid
AC$CHROMATOGRAPHY: SOLVENT B acetonitrile including 0.1% formic acid
MS$FOCUSED_ION: PRECURSOR_TYPE [M+H]+
MS$FOCUSED_ION: PRECURSOR_M/Z 287.0550145
PK$SPLASH: splash10-0f79-0950000000-4b3da068010c6051deeb
PK$NUM_PEAK: 215
PK$PEAK: m/z int. rel.int.
  68.99739 71.0 71
  69.00446 12.0 12
  69.03353 17.0 17
  71.01738 13.0 13
  71.50169 7.0 7
  77.03838 12.0 12
  79.04843 8.0 8
  79.05225 8.0 8
  79.05756 15.0 15
  81.03284 9.0 9
  82.02217 10.0 10
  85.02808 6.0 6
  91.05495 7.0 7
  92.04845 6.0 6
  93.01647 6.0 6
  93.03619 40.0 40
  95.03757 5.0 5
  101.68992 7.0 7
  103.03568 5.0 5
  103.05564 8.0 8
  104.35239 5.0 5
  105.03112 34.0 34
  105.03734 24.0 24
  105.07494 5.0 5
  107.02373 8.0 8
  107.04784 78.0 78
  107.05687 16.0 16
  108.05117 9.0 9
  109.02608 83.0 83
  110.99065 6.0 6
  111.00094 22.0 22
  111.00823 85.0 85
  112.00746 7.0 7
  115.05956 5.0 5
  116.14905 8.0 8
  118.07211 8.0 8
  119.04814 15.0 15
  120.96919 14.0 14
  120.998 6.0 6
  121.02861 448.0 448
  122.02896 20.0 20
  122.03788 15.0 15
  123.03735 15.0 15
  123.20736 5.0 5
  125.62672 6.0 6
  127.04096 15.0 15
  127.05424 17.0 17
  127.11944 13.0 13
  127.24672 7.0 7
  128.0569 16.0 16
  129.0694 33.0 33
  130.07085 14.0 14
  132.04086 5.0 5
  132.05028 11.0 11
  133.02719 64.0 64
  133.06401 14.0 14
  135.04111 19.0 19
  136.01122 6.0 6
  137.02159 150.0 150
  138.02545 8.0 8
  139.05138 7.0 7
  140.05862 8.0 8
  141.06583 48.0 48
  142.07928 13.0 13
  142.19362 8.0 8
  143.05145 27.0 27
  144.04427 5.0 5
  145.06212 21.0 21
  145.07416 7.0 7
  146.03383 8.0 8
  146.06876 5.0 5
  147.04219 148.0 148
  147.07674 8.0 8
  148.05122 8.0 8
  148.05754 7.0 7
  148.08449 8.0 8
  150.02602 6.0 6
  150.51509 5.0 5
  150.78983 8.0 8
  151.05817 5.0 5
  152.01204 7.0 7
  152.99629 53.0 53
  153.01849 964.0 963
  154.01257 15.0 15
  154.02055 44.0 44
  155.0544 7.0 7
  157.06303 110.0 110
  158.06639 26.0 26
  158.07759 7.0 7
  159.04521 7.0 7
  160.04936 24.0 24
  160.12834 5.0 5
  161.01675 17.0 17
  161.05899 52.0 52
  161.11493 8.0 8
  161.85968 7.0 7
  162.0499 7.0 7
  162.06372 7.0 7
  163.0381 6.0 6
  165.01793 407.0 407
  165.99194 8.0 8
  166.0063 6.0 6
  166.0222 60.0 60
  167.02356 10.0 10
  167.04387 9.0 9
  167.05289 6.0 6
  167.05952 5.0 5
  168.02197 6.0 6
  168.06198 8.0 8
  169.05037 8.0 8
  169.06079 13.0 13
  169.07401 5.0 5
  171.0032 7.0 7
  171.04181 49.0 49
  171.05199 28.0 28
  173.06056 12.0 12
  175.04855 9.0 9
  175.07709 16.0 16
  176.04434 17.0 17
  177.04976 9.0 9
  178.49823 6.0 6
  179.03925 6.0 6
  179.43802 8.0 8
  181.02477 5.0 5
  184.0508 27.0 27
  184.06111 9.0 9
  185.01918 5.0 5
  185.05219 24.0 24
  185.06169 98.0 98
  188.0451 29.0 29
  189.05399 30.0 30
  189.26285 5.0 5
  190.05655 9.0 9
  191.27267 6.0 6
  194.96907 6.0 6
  196.43233 8.0 8
  197.0463 13.0 13
  197.06299 21.0 21
  197.07216 15.0 15
  198.06885 8.0 8
  199.02979 12.0 12
  199.04265 31.0 31
  201.05597 6.0 6
  201.06453 7.0 7
  202.95792 6.0 6
  203.03368 10.0 10
  203.04741 16.0 16
  203.06158 15.0 15
  203.07248 64.0 64
  204.99754 5.0 5
  207.0789 5.0 5
  208.18799 6.0 6
  212.03532 7.0 7
  212.15504 6.0 6
  213.03116 13.0 13
  213.04341 59.0 59
  213.05539 306.0 306
  213.7291 6.0 6
  214.05934 27.0 27
  216.03085 6.0 6
  216.04115 13.0 13
  216.04919 16.0 16
  216.05899 6.0 6
  217.03867 13.0 13
  217.04813 25.0 25
  218.03517 24.0 24
  223.02943 9.0 9
  224.64281 8.0 8
  228.92383 5.0 5
  229.04532 25.0 25
  229.05994 12.0 12
  230.06548 8.0 8
  231.03647 7.0 7
  231.0567 14.0 14
  231.06784 66.0 66
  232.06967 6.0 6
  240.03555 7.0 7
  240.04541 16.0 16
  241.03676 9.0 9
  241.04816 52.0 52
  241.06236 18.0 18
  242.01489 7.0 7
  242.05322 27.0 27
  243.03763 6.0 6
  243.05394 7.0 7
  243.06818 20.0 20
  244.04089 12.0 12
  244.05957 11.0 11
  245.04553 24.0 24
  250.27832 6.0 6
  254.2363 13.0 13
  257.0108 6.0 6
  257.02682 5.0 5
  257.04352 7.0 7
  258.01929 13.0 13
  258.03461 25.0 25
  258.05585 228.0 228
  258.07596 20.0 20
  259.04938 20.0 20
  259.06686 45.0 45
  260.06229 11.0 11
  260.0704 6.0 6
  260.44308 5.0 5
  261.61334 6.0 6
  268.79095 5.0 5
  269.03076 7.0 7
  269.04605 10.0 10
  270.04837 18.0 18
  271.05695 6.0 6
  285.03955 11.0 11
  285.05179 6.0 6
  286.96909 6.0 6
  287.00882 26.0 26
  287.05377 1000.0 999
  287.08356 13.0 13
//
