ACCESSION: MSBNK-RIKEN-PR310599
RECORD_TITLE: Palmatine; LC-ESI-QTOF; MS2
DATE: 2019.03.28
AUTHORS: Tetsuya Mori, Center for Sustainable Resource Science, RIKEN
LICENSE: CC BY-NC-SA
PUBLICATION: Tsugawa H., Nakabayashi R., Mori T., Yamada Y., Takahashi M., Rai A., Sugiyama R., Yamamoto H., Nakaya T., Yamazaki M., Kooke R., Bac-Molenaar JA., Oztolan-Erol N., Keurentjes JJB., Arita M., Saito K. (2019) "A cheminformatics approach to characterize metabolomes in stable-isotope-labeled organisms" Nature Methods 16(4):295-298. [doi:10.1038/s41592-019-0358-2]
COMMENT: Annotation level-1
CH$NAME: Palmatine
CH$COMPOUND_CLASS: Alkaloids
CH$FORMULA: [C21H22NO4]+
CH$EXACT_MASS: 352.41
CH$SMILES: COC1=CC2=C(C=C1OC)C1=CC3=CC=C(OC)C(OC)=C3C=[N+]1CC2
CH$IUPAC: InChI=1S/C21H22NO4/c1-23-18-6-5-13-9-17-15-11-20(25-3)19(24-2)10-14(15)7-8-22(17)12-16(13)21(18)26-4/h5-6,9-12H,7-8H2,1-4H3/q+1
CH$LINK: INCHIKEY QUCQEUCGKKTEBI-UHFFFAOYSA-N
AC$INSTRUMENT: LC, Waters Acquity UPLC System; MS, Waters Xevo G2 Q-Tof
AC$INSTRUMENT_TYPE: LC-ESI-QTOF
AC$MASS_SPECTROMETRY: MS_TYPE MS2
AC$MASS_SPECTROMETRY: ION_MODE POSITIVE
AC$MASS_SPECTROMETRY: COLLISION_ENERGY 6V
AC$MASS_SPECTROMETRY: DESOLVATION_GAS_FLOW 800/h
AC$MASS_SPECTROMETRY: DESOLVATION_TEMPERATURE 450 C
AC$MASS_SPECTROMETRY: IONIZATION ESI
AC$CHROMATOGRAPHY: CAPILLARY_VOLTAGE +3.00 kV
AC$CHROMATOGRAPHY: COLUMN_NAME Acquity bridged ethyl hybrid C18 (1.7 um, 2.1 mm * 100 mm, Waters)
AC$CHROMATOGRAPHY: COLUMN_TEMPERATURE 40 C
AC$CHROMATOGRAPHY: FLOW_GRADIENT A/B = (99.5%/0.5% at 0 min, 99.5%/0.5% at 0.1 min, 20%/80% at 10 min, 0.5%/99.5% at 10.1 min, 0.5%/99.5% at 12.0 min, 99.5%/0.5% at 12.1 min, 99.5%/0.5% at 15.0 min)
AC$CHROMATOGRAPHY: FLOW_RATE 0.3 ml/min at 0 min, 0.3 ml/min at 10 min, 0.4 ml/min at 10.1 min, 0.4 ml/min at 14.4 min, 0.3 ml/min at 14.5 min
AC$CHROMATOGRAPHY: RETENTION_TIME 4.96
AC$CHROMATOGRAPHY: SOLVENT A water including 0.1% formic acid
AC$CHROMATOGRAPHY: SOLVENT B acetonitrile including 0.1% formic acid
MS$FOCUSED_ION: PRECURSOR_TYPE [M]+
MS$FOCUSED_ION: PRECURSOR_M/Z 352.15379
PK$SPLASH: splash10-0udi-0019000000-c75b24c5f323e83e85de
PK$NUM_PEAK: 376
PK$PEAK: m/z int. rel.int.
  56.56496 20.0 0
  62.78182 32.0 0
  72.74011 37.0 1
  96.65725 20.0 0
  122.86726 21.0 0
  143.56848 18.0 0
  153.03447 52.0 1
  157.47337 22.0 0
  175.40489 17.0 0
  179.91614 27.0 0
  183.78915 34.0 1
  187.18684 67.0 1
  192.61528 39.0 1
  192.69708 18.0 0
  206.36946 56.0 1
  206.96184 17.0 0
  208.40067 40.0 1
  208.95033 33.0 0
  209.52788 17.0 0
  211.02345 19.0 0
  214.3792 20.0 0
  216.2915 45.0 1
  217.03549 29.0 0
  217.1073 22.0 0
  217.33041 22.0 0
  218.04675 52.0 1
  220.07626 61.0 1
  220.8705 24.0 0
  221.08636 23.0 0
  224.24207 26.0 0
  225.5388 34.0 1
  225.64192 28.0 0
  226.74474 25.0 0
  227.40799 17.0 0
  227.81561 17.0 0
  227.9165 27.0 0
  228.2916 20.0 0
  228.41786 33.0 0
  229.91443 31.0 0
  231.60815 27.0 0
  231.86995 23.0 0
  232.07089 36.0 1
  233.04318 31.0 0
  233.08345 128.0 2
  233.0923 51.0 1
  233.20151 18.0 0
  234.08653 185.0 3
  234.10193 51.0 1
  234.20038 17.0 0
  234.5387 30.0 0
  234.96895 18.0 0
  235.08281 24.0 0
  235.0965 159.0 2
  235.11641 21.0 0
  235.86163 39.0 1
  237.43074 27.0 0
  238.26984 17.0 0
  239.96538 23.0 0
  240.53362 21.0 0
  241.61508 22.0 0
  242.33411 18.0 0
  244.91309 21.0 0
  245.12128 53.0 1
  245.1958 17.0 0
  245.89494 23.0 0
  246.09491 43.0 1
  246.10632 48.0 1
  247.09276 210.0 3
  247.10097 162.0 2
  248.07175 17.0 0
  248.1106 44.0 1
  249.07663 71.0 1
  249.08495 88.0 1
  249.10225 25.0 0
  250.03117 52.0 1
  250.04588 17.0 0
  250.05507 21.0 0
  250.06961 63.0 1
  250.08339 186.0 3
  250.09169 125.0 2
  251.08827 47.0 1
  251.10342 65.0 1
  252.09428 20.0 0
  252.11223 33.0 0
  254.23647 54.0 1
  256.00781 30.0 0
  258.6106 26.0 0
  259.0354 38.0 1
  259.07333 20.0 0
  259.10376 47.0 1
  260.08014 25.0 0
  260.10217 37.0 1
  261.08817 43.0 1
  262.08078 44.0 1
  262.10223 72.0 1
  263.08932 112.0 2
  263.09631 214.0 3
  263.12558 44.0 1
  263.81616 18.0 0
  264.08224 120.0 2
  264.10358 579.0 9
  265.07196 25.0 0
  265.09381 24.0 0
  265.10416 139.0 2
  265.13239 33.0 0
  265.60974 18.0 0
  266.11792 19.0 0
  266.4509 18.0 0
  267.11658 36.0 1
  271.21942 20.0 0
  271.26843 49.0 1
  273.06619 28.0 0
  273.07928 22.0 0
  274.02707 19.0 0
  274.08725 101.0 2
  274.09695 25.0 0
  275.04764 45.0 1
  275.08734 204.0 3
  275.099 547.0 8
  275.5495 24.0 0
  276.05383 26.0 0
  276.07675 21.0 0
  276.09467 213.0 3
  276.10623 421.0 6
  276.58191 29.0 0
  277.07416 46.0 1
  277.09961 95.0 1
  277.12085 58.0 1
  278.03171 22.0 0
  278.06302 78.0 1
  278.08463 1570.0 24
  278.12546 24.0 0
  278.28513 18.0 0
  278.51465 20.0 0
  278.87509 51.0 1
  278.94 20.0 0
  279.04584 27.0 0
  279.06302 27.0 0
  279.08621 654.0 10
  279.10168 98.0 1
  279.12457 62.0 1
  279.3382 20.0 0
  279.45471 24.0 0
  280.08908 49.0 1
  280.13766 146.0 2
  284.20004 19.0 0
  285.14575 20.0 0
  285.5704 23.0 0
  286.80099 18.0 0
  287.07874 22.0 0
  289.24329 20.0 0
  290.073 155.0 2
  290.09009 72.0 1
  290.1156 54.0 1
  290.73895 27.0 0
  291.09009 204.0 3
  291.12354 803.0 12
  291.14008 165.0 2
  291.19897 24.0 0
  291.50882 21.0 0
  291.64749 20.0 0
  291.80164 33.0 0
  292.05695 85.0 1
  292.09921 4173.0 63
  292.13452 135.0 2
  292.17206 25.0 0
  292.39954 17.0 0
  293.05283 45.0 1
  293.10489 2230.0 34
  293.14163 23.0 0
  293.49246 19.0 0
  294.05695 25.0 0
  294.07227 107.0 2
  294.11368 5667.0 86
  294.17355 18.0 0
  295.07593 50.0 1
  295.1188 779.0 12
  295.27878 25.0 0
  295.51819 30.0 0
  295.58545 25.0 0
  296.12271 155.0 2
  296.24326 24.0 0
  297.21307 19.0 0
  297.94708 17.0 0
  298.92441 24.0 0
  302.72363 46.0 1
  303.17865 35.0 1
  303.2002 30.0 0
  303.5643 49.0 1
  304.01715 19.0 0
  304.06183 35.0 1
  304.0701 74.0 1
  304.09763 993.0 15
  304.84567 17.0 0
  305.04132 21.0 0
  305.10211 545.0 8
  305.63849 18.0 0
  305.85739 61.0 1
  306.07687 152.0 2
  306.09131 134.0 2
  306.11133 69.0 1
  306.12634 17.0 0
  306.52222 20.0 0
  306.88721 38.0 1
  307.04425 76.0 1
  307.07574 71.0 1
  307.10834 124.0 2
  307.11774 358.0 5
  307.13324 93.0 1
  307.33994 27.0 0
  307.96912 30.0 0
  308.056 58.0 1
  308.06781 50.0 1
  308.09604 118.0 2
  308.12936 9946.0 150
  308.17365 17.0 0
  308.33957 23.0 0
  308.54382 17.0 0
  308.72156 25.0 0
  308.77386 21.0 0
  308.79602 25.0 0
  309.06696 38.0 1
  309.09375 26.0 0
  309.1322 2655.0 40
  309.17139 20.0 0
  309.19073 20.0 0
  309.29807 18.0 0
  309.39996 17.0 0
  309.51016 40.0 1
  309.73007 18.0 0
  310.08685 44.0 1
  310.10034 58.0 1
  310.12482 124.0 2
  310.14001 138.0 2
  310.64301 30.0 0
  311.13547 20.0 0
  311.14725 30.0 0
  314.01682 17.0 0
  315.05777 23.0 0
  315.97943 25.0 0
  316.76401 17.0 0
  317.2442 18.0 0
  317.86508 23.0 0
  318.05362 48.0 1
  318.07394 367.0 6
  318.08801 84.0 1
  318.39059 17.0 0
  318.67221 25.0 0
  318.71191 17.0 0
  319.05096 41.0 1
  319.06546 105.0 2
  319.09528 95.0 1
  319.12411 113.0 2
  319.35501 22.0 0
  319.41898 28.0 0
  319.81558 20.0 0
  320.00638 20.0 0
  320.03177 50.0 1
  320.05789 158.0 2
  320.09219 3323.0 50
  320.12714 2992.0 45
  320.24249 20.0 0
  320.72626 24.0 0
  321.00928 18.0 0
  321.05469 19.0 0
  321.0784 169.0 3
  321.10065 2119.0 32
  321.13306 373.0 6
  321.14536 269.0 4
  321.73001 21.0 0
  321.81012 19.0 0
  321.87744 46.0 1
  321.92102 21.0 0
  321.98987 37.0 1
  322.05795 42.0 1
  322.06824 75.0 1
  322.10992 4348.0 66
  322.13306 52.0 1
  322.16 44.0 1
  322.22491 17.0 0
  322.65488 21.0 0
  322.81976 32.0 0
  322.8551 20.0 0
  323.06198 30.0 0
  323.08374 45.0 1
  323.11258 1144.0 17
  323.22092 19.0 0
  323.9516 20.0 0
  324.08954 20.0 0
  324.10495 46.0 1
  324.11826 69.0 1
  325.11664 24.0 0
  325.61673 17.0 0
  326.53305 31.0 0
  326.76608 17.0 0
  327.60312 23.0 0
  327.91757 42.0 1
  329.32709 22.0 0
  329.60568 17.0 0
  332.17746 22.0 0
  333.36447 17.0 0
  333.55246 18.0 0
  334.08133 18.0 0
  334.09909 273.0 4
  334.10883 692.0 10
  334.20465 23.0 0
  335.1041 31.0 0
  335.11801 87.0 1
  335.13156 51.0 1
  335.37854 18.0 0
  335.40845 18.0 0
  335.52386 20.0 0
  335.77832 26.0 0
  336.02023 25.0 0
  336.06415 49.0 1
  336.09155 192.0 3
  336.12521 15791.0 238
  336.18307 139.0 2
  336.24573 41.0 1
  336.39322 23.0 0
  336.41287 19.0 0
  336.42767 26.0 0
  336.72446 20.0 0
  336.9346 28.0 0
  337.07962 147.0 2
  337.13144 12973.0 196
  337.18484 228.0 3
  337.26883 17.0 0
  337.65601 27.0 0
  337.85544 20.0 0
  337.92944 58.0 1
  337.98355 20.0 0
  338.06396 25.0 0
  338.09805 66.0 1
  338.12109 494.0 7
  338.13632 2227.0 34
  339.12543 65.0 1
  339.1434 345.0 5
  339.65561 17.0 0
  339.77646 19.0 0
  340.13669 149.0 2
  340.15073 44.0 1
  340.55673 23.0 0
  340.66144 20.0 0
  342.86893 17.0 0
  342.97073 17.0 0
  343.41425 17.0 0
  344.05951 26.0 0
  344.80762 17.0 0
  345.30185 23.0 0
  345.34061 22.0 0
  345.44235 21.0 0
  346.0817 19.0 0
  346.9537 71.0 1
  347.40378 17.0 0
  347.59042 20.0 0
  347.87308 17.0 0
  349.02615 28.0 0
  349.98285 21.0 0
  350.38504 17.0 0
  350.93652 17.0 0
  351.59256 19.0 0
  351.73129 20.0 0
  351.9053 44.0 1
  351.98651 25.0 0
  352.03052 20.0 0
  352.07346 32.0 0
  352.0954 500.0 8
  352.12625 71.0 1
  352.1546 66164.0 999
  352.2085 1952.0 29
  352.25641 151.0 2
  352.27594 22.0 0
  352.2991 42.0 1
  352.31161 61.0 1
  352.32968 17.0 0
//
