ACCESSION: MSBNK-RIKEN-PR303026
RECORD_TITLE: Quercetin-3,4'-O-di-beta-glucoside; LC-ESI-QTOF; MS2
DATE: 2019.03.28
AUTHORS: Tetsuya Mori, Center for Sustainable Resource Science, RIKEN
LICENSE: CC BY-NC-SA
PUBLICATION: Tsugawa H., Nakabayashi R., Mori T., Yamada Y., Takahashi M., Rai A., Sugiyama R., Yamamoto H., Nakaya T., Yamazaki M., Kooke R., Bac-Molenaar JA., Oztolan-Erol N., Keurentjes JJB., Arita M., Saito K. (2019) "A cheminformatics approach to characterize metabolomes in stable-isotope-labeled organisms" Nature Methods 16(4):295-298. [doi:10.1038/s41592-019-0358-2]
COMMENT: registered in RIKEN PlaSMA
CH$NAME: Quercetin-3,4'-O-di-beta-glucoside
CH$COMPOUND_CLASS: Flavonoid-3-O-glycosides
CH$FORMULA: C27H30O17
CH$EXACT_MASS: 626.52
CH$SMILES: OC[C@H]1O[C@@H](OC2=C(O)C=C(C=C2)C2=C(O[C@@H]3O[C@H](CO)[C@@H](O)[C@H](O)[C@H]3O)C(=O)C3=C(O)C=C(O)C=C3O2)[C@H](O)[C@@H](O)[C@@H]1O
CH$IUPAC: InChI=1S/C27H30O17/c28-6-14-17(33)20(36)22(38)26(42-14)41-12-2-1-8(3-10(12)31)24-25(19(35)16-11(32)4-9(30)5-13(16)40-24)44-27-23(39)21(37)18(34)15(7-29)43-27/h1-5,14-15,17-18,20-23,26-34,36-39H,6-7H2/t14-,15-,17-,18-,20+,21+,22-,23-,26-,27+/m1/s1
CH$LINK: INCHIKEY RPVIQWDFJPYNJM-DEFKTLOSSA-N
AC$INSTRUMENT: LC, Waters Acquity UPLC System; MS, Waters Xevo G2 Q-Tof
AC$INSTRUMENT_TYPE: LC-ESI-QTOF
AC$MASS_SPECTROMETRY: MS_TYPE MS2
AC$MASS_SPECTROMETRY: ION_MODE POSITIVE
AC$MASS_SPECTROMETRY: COLLISION_ENERGY 6V
AC$MASS_SPECTROMETRY: DESOLVATION_GAS_FLOW 800/h
AC$MASS_SPECTROMETRY: DESOLVATION_TEMPERATURE 450 C
AC$MASS_SPECTROMETRY: IONIZATION ESI
AC$CHROMATOGRAPHY: CAPILLARY_VOLTAGE +3.00 kV
AC$CHROMATOGRAPHY: COLUMN_NAME Acquity bridged ethyl hybrid C18 (1.7 um, 2.1 mm * 100 mm, Waters)
AC$CHROMATOGRAPHY: COLUMN_TEMPERATURE 40 C
AC$CHROMATOGRAPHY: FLOW_GRADIENT A/B = (99.5%/0.5% at 0 min, 99.5%/0.5% at 0.1 min, 20%/80% at 10 min, 0.5%/99.5% at 10.1 min, 0.5%/99.5% at 12.0 min, 99.5%/0.5% at 12.1 min, 99.5%/0.5% at 15.0 min)
AC$CHROMATOGRAPHY: FLOW_RATE 0.3 ml/min at 0 min, 0.3 ml/min at 10 min, 0.4 ml/min at 10.1 min, 0.4 ml/min at 14.4 min, 0.3 ml/min at 14.5 min
AC$CHROMATOGRAPHY: RETENTION_TIME 3.53515
AC$CHROMATOGRAPHY: SOLVENT A water including 0.1% formic acid
AC$CHROMATOGRAPHY: SOLVENT B acetonitrile including 0.1% formic acid
MS$FOCUSED_ION: PRECURSOR_TYPE [M+H]+
MS$FOCUSED_ION: PRECURSOR_M/Z 627.155576
PK$SPLASH: splash10-0udi-0129000000-af81980b15d8cac4817d
PK$NUM_PEAK: 51
PK$PEAK: m/z int. rel.int.
  69.03564 11.0 11
  84.98106 8.0 8
  85.02947 9.0 9
  85.03589 13.0 13
  85.73173 13.0 13
  91.04276 12.0 12
  97.02486 16.0 16
  97.03275 41.0 41
  109.02485 9.0 9
  122.2315 11.0 11
  137.02588 25.0 25
  149.0255 11.0 11
  153.01907 28.0 28
  163.04416 11.0 11
  165.02553 9.0 9
  166.02777 15.0 15
  169.5817 11.0 11
  173.03255 10.0 10
  173.05328 8.0 8
  181.52679 9.0 9
  188.04095 10.0 10
  201.05794 35.0 35
  204.26723 11.0 11
  217.06256 10.0 10
  217.58488 27.0 27
  229.00131 16.0 16
  229.04776 99.0 99
  247.06143 11.0 11
  248.06711 10.0 10
  256.03186 8.0 8
  257.01617 11.0 11
  257.035 54.0 54
  257.06116 8.0 8
  267.02072 10.0 10
  274.04297 9.0 9
  285.0441 8.0 8
  302.97717 11.0 11
  302.99567 13.0 13
  303.00919 17.0 17
  303.05084 1000.0 999
  303.07037 126.0 126
  303.09433 8.0 8
  303.38879 10.0 10
  303.62848 11.0 11
  304.03891 46.0 46
  304.05801 109.0 109
  304.39706 8.0 8
  305.01596 22.0 22
  305.05722 11.0 11
  305.06799 13.0 13
  356.40295 9.0 9
//
