ACCESSION: MSBNK-RIKEN-PR310619
RECORD_TITLE: Mitraphylline; LC-ESI-QTOF; MS2
DATE: 2019.03.28
AUTHORS: Tetsuya Mori, Center for Sustainable Resource Science, RIKEN
LICENSE: CC BY-NC-SA
PUBLICATION: Tsugawa H., Nakabayashi R., Mori T., Yamada Y., Takahashi M., Rai A., Sugiyama R., Yamamoto H., Nakaya T., Yamazaki M., Kooke R., Bac-Molenaar JA., Oztolan-Erol N., Keurentjes JJB., Arita M., Saito K. (2019) "A cheminformatics approach to characterize metabolomes in stable-isotope-labeled organisms" Nature Methods 16(4):295-298. [doi:10.1038/s41592-019-0358-2]
COMMENT: Annotation level-1
CH$NAME: Mitraphylline
CH$COMPOUND_CLASS: Alkaloids
CH$FORMULA: C21H24N2O4
CH$EXACT_MASS: 368.433
CH$SMILES: COC(=O)C1=COC(C)C2CN3CCC4(C3CC12)C(=O)NC1=C4C=CC=C1
CH$IUPAC: InChI=1S/C21H24N2O4/c1-12-14-10-23-8-7-21(16-5-3-4-6-17(16)22-20(21)25)18(23)9-13(14)15(11-27-12)19(24)26-2/h3-6,11-14,18H,7-10H2,1-2H3,(H,22,25)
CH$LINK: INCHIKEY JMIAZDVHNCCPDM-UHFFFAOYSA-N
AC$INSTRUMENT: LC, Waters Acquity UPLC System; MS, Waters Xevo G2 Q-Tof
AC$INSTRUMENT_TYPE: LC-ESI-QTOF
AC$MASS_SPECTROMETRY: MS_TYPE MS2
AC$MASS_SPECTROMETRY: ION_MODE POSITIVE
AC$MASS_SPECTROMETRY: COLLISION_ENERGY 6V
AC$MASS_SPECTROMETRY: DESOLVATION_GAS_FLOW 800/h
AC$MASS_SPECTROMETRY: DESOLVATION_TEMPERATURE 450 C
AC$MASS_SPECTROMETRY: IONIZATION ESI
AC$CHROMATOGRAPHY: CAPILLARY_VOLTAGE +3.00 kV
AC$CHROMATOGRAPHY: COLUMN_NAME Acquity bridged ethyl hybrid C18 (1.7 um, 2.1 mm * 100 mm, Waters)
AC$CHROMATOGRAPHY: COLUMN_TEMPERATURE 40 C
AC$CHROMATOGRAPHY: FLOW_GRADIENT A/B = (99.5%/0.5% at 0 min, 99.5%/0.5% at 0.1 min, 20%/80% at 10 min, 0.5%/99.5% at 10.1 min, 0.5%/99.5% at 12.0 min, 99.5%/0.5% at 12.1 min, 99.5%/0.5% at 15.0 min)
AC$CHROMATOGRAPHY: FLOW_RATE 0.3 ml/min at 0 min, 0.3 ml/min at 10 min, 0.4 ml/min at 10.1 min, 0.4 ml/min at 14.4 min, 0.3 ml/min at 14.5 min
AC$CHROMATOGRAPHY: RETENTION_TIME 4.37
AC$CHROMATOGRAPHY: SOLVENT A water including 0.1% formic acid
AC$CHROMATOGRAPHY: SOLVENT B acetonitrile including 0.1% formic acid
MS$FOCUSED_ION: PRECURSOR_TYPE [M+H]+
MS$FOCUSED_ION: PRECURSOR_M/Z 369.18088
PK$SPLASH: splash10-014i-0419000000-7bafa424b67fba1639f6
PK$NUM_PEAK: 527
PK$PEAK: m/z int. rel.int.
  56.04924 23.0 0
  68.04769 26.0 0
  77.0344 20.0 0
  79.05524 22.0 0
  80.04249 20.0 0
  80.79046 31.0 0
  81.05434 51.0 0
  81.06865 117.0 1
  81.07655 26.0 0
  82.06118 83.0 1
  83.01443 88.0 1
  91.05489 27.0 0
  95.04831 22.0 0
  96.07994 18.0 0
  97.06156 20.0 0
  99.12279 21.0 0
  104.04102 25.0 0
  104.45237 25.0 0
  105.03063 28.0 0
  105.06763 133.0 1
  106.05518 18.0 0
  106.06103 54.0 1
  107.0872 36.0 0
  108.00933 20.0 0
  108.04395 97.0 1
  108.06786 31.0 0
  108.08131 793.0 8
  108.74556 22.0 0
  108.95233 22.0 0
  109.04356 66.0 1
  109.05109 21.0 0
  109.06558 28.0 0
  109.07713 43.0 0
  109.08253 70.0 1
  110.05929 25.0 0
  110.06786 18.0 0
  110.09421 27.0 0
  111.09378 21.0 0
  111.85056 19.0 0
  115.03315 84.0 1
  115.0546 655.0 6
  115.08275 30.0 0
  116.04956 51.0 0
  116.05504 35.0 0
  116.05944 30.0 0
  116.88726 31.0 0
  117.04228 32.0 0
  117.05708 499.0 5
  117.06803 58.0 1
  117.35652 18.0 0
  118.01115 20.0 0
  118.04185 36.0 0
  118.0646 469.0 4
  119.05724 18.0 0
  120.28798 22.0 0
  120.48316 33.0 0
  121.02937 20.0 0
  122.02547 40.0 0
  122.0334 30.0 0
  123.03899 26.0 0
  123.08684 22.0 0
  123.1028 21.0 0
  123.92477 24.0 0
  124.02354 43.0 0
  124.03807 1178.0 11
  124.37746 17.0 0
  125.04753 88.0 1
  126.05113 19.0 0
  128.04842 21.0 0
  130.05782 30.0 0
  130.06757 165.0 2
  131.07149 24.0 0
  131.16049 30.0 0
  131.99348 23.0 0
  132.04465 1470.0 14
  132.0797 3997.0 38
  132.12769 20.0 0
  132.25183 39.0 0
  132.45277 23.0 0
  132.52324 17.0 0
  132.69577 31.0 0
  132.88858 25.0 0
  133.04721 99.0 1
  133.06213 55.0 1
  133.08647 668.0 6
  133.81956 17.0 0
  134.06009 24.0 0
  134.09367 53.0 1
  134.10149 33.0 0
  134.20349 17.0 0
  135.06676 20.0 0
  135.79636 38.0 0
  136.09755 27.0 0
  136.11108 44.0 0
  136.12161 39.0 0
  137.05754 59.0 1
  139.03723 44.0 0
  140.05028 105.0 1
  141.04587 25.0 0
  141.05177 30.0 0
  141.41405 35.0 0
  141.85797 29.0 0
  142.04118 49.0 0
  142.06438 3802.0 36
  142.16838 26.0 0
  142.18872 21.0 0
  142.23265 17.0 0
  142.54294 20.0 0
  142.83841 27.0 0
  143.0605 199.0 2
  143.06953 321.0 3
  143.19133 30.0 0
  143.32253 21.0 0
  143.73314 18.0 0
  144.07867 29.0 0
  144.08606 23.0 0
  144.90323 18.0 0
  145.05045 86.0 1
  145.06271 21.0 0
  146.56029 64.0 1
  146.64774 32.0 0
  147.93559 17.0 0
  148.07283 52.0 0
  148.10745 26.0 0
  148.28693 21.0 0
  148.89052 29.0 0
  149.52095 21.0 0
  149.97107 26.0 0
  150.09106 997.0 10
  150.36563 35.0 0
  151.08313 44.0 0
  151.09584 118.0 1
  151.75169 20.0 0
  152.07486 26.0 0
  152.09361 20.0 0
  152.10623 60.0 1
  153.06134 17.0 0
  154.05913 26.0 0
  155.66737 22.0 0
  156.98311 18.0 0
  158.05388 223.0 2
  158.0629 953.0 9
  158.92673 20.0 0
  158.94402 28.0 0
  159.06505 158.0 2
  159.08942 45.0 0
  159.1201 30.0 0
  159.23494 20.0 0
  159.98836 32.0 0
  160.03276 138.0 1
  160.04242 171.0 2
  160.05371 46.0 0
  160.07527 34795.0 332
  160.11208 816.0 8
  160.13988 20.0 0
  160.14713 18.0 0
  160.1555 20.0 0
  160.16417 23.0 0
  160.18018 17.0 0
  160.22293 73.0 1
  160.27069 17.0 0
  160.30344 123.0 1
  160.37187 27.0 0
  160.47086 28.0 0
  160.55714 32.0 0
  160.90877 21.0 0
  160.96599 28.0 0
  161.04341 82.0 1
  161.07806 3822.0 36
  161.25415 30.0 0
  161.28261 17.0 0
  161.63603 20.0 0
  161.8418 21.0 0
  161.86089 31.0 0
  162.0365 18.0 0
  162.07103 35.0 0
  162.0759 85.0 1
  162.08566 99.0 1
  162.62479 43.0 0
  163.05838 24.0 0
  163.07805 17.0 0
  163.37799 18.0 0
  164.09917 23.0 0
  164.11455 39.0 0
  164.60963 18.0 0
  165.67131 20.0 0
  166.09109 23.0 0
  166.7851 25.0 0
  168.09621 94.0 1
  169.09366 18.0 0
  170.0601 24.0 0
  170.08789 40.0 0
  172.07555 45.0 0
  173.06712 43.0 0
  173.10893 49.0 0
  175.08337 36.0 0
  176.06612 38.0 0
  178.04489 19.0 0
  178.05313 24.0 0
  178.08629 5339.0 51
  178.57123 25.0 0
  179.07634 125.0 1
  179.09021 511.0 5
  179.28801 20.0 0
  179.41628 18.0 0
  180.07945 22.0 0
  180.09135 99.0 1
  180.10078 50.0 0
  180.34436 26.0 0
  181.19528 18.0 0
  182.09442 29.0 0
  182.18892 22.0 0
  183.09808 28.0 0
  184.07111 18.0 0
  184.11627 61.0 1
  184.75264 20.0 0
  185.07257 20.0 0
  186.08017 106.0 1
  186.09151 46.0 0
  186.74516 20.0 0
  186.95358 17.0 0
  187.05823 59.0 1
  187.08496 1290.0 12
  188.09161 279.0 3
  190.03871 31.0 0
  190.69286 31.0 0
  195.0755 23.0 0
  195.22792 29.0 0
  195.50032 30.0 0
  196.07239 40.0 0
  197.06445 54.0 1
  197.07924 71.0 1
  197.10884 25.0 0
  197.36819 35.0 0
  197.3828 17.0 0
  197.74223 38.0 0
  198.05341 20.0 0
  198.07634 26.0 0
  199.07863 87.0 1
  199.08856 353.0 3
  200.07016 20.0 0
  200.09154 58.0 1
  201.06241 93.0 1
  201.07646 82.0 1
  201.10248 3691.0 35
  201.78629 39.0 0
  202.08611 49.0 0
  202.10286 651.0 6
  202.11201 186.0 2
  202.29759 25.0 0
  203.10719 19.0 0
  203.14143 27.0 0
  204.08975 24.0 0
  207.09239 19.0 0
  208.09871 21.0 0
  209.07253 23.0 0
  210.069 22.0 0
  210.08609 53.0 1
  210.11295 2055.0 20
  210.3324 20.0 0
  210.45203 18.0 0
  211.00987 28.0 0
  211.09006 17.0 0
  211.10361 44.0 0
  211.11714 184.0 2
  211.13365 51.0 0
  212.96327 18.0 0
  213.10663 363.0 3
  213.18797 17.0 0
  214.02843 19.0 0
  214.10292 170.0 2
  215.08351 39.0 0
  215.12396 20.0 0
  216.12608 35.0 0
  217.07693 33.0 0
  217.89696 20.0 0
  219.56569 20.0 0
  221.34686 26.0 0
  222.1692 17.0 0
  223.06038 24.0 0
  223.1154 35.0 0
  223.29648 23.0 0
  224.00906 24.0 0
  224.12004 21.0 0
  224.15157 28.0 0
  226.08824 20.0 0
  226.3732 17.0 0
  227.07881 24.0 0
  227.12364 20.0 0
  227.9763 39.0 0
  229.10153 20.0 0
  229.75339 42.0 0
  230.10683 27.0 0
  230.13257 17.0 0
  231.09407 33.0 0
  231.63136 21.0 0
  232.78792 44.0 0
  233.46594 17.0 0
  233.5506 27.0 0
  233.84909 24.0 0
  234.10712 17.0 0
  235.05699 19.0 0
  236.11986 90.0 1
  237.07933 33.0 0
  238.09819 34.0 0
  238.43176 20.0 0
  239.11375 282.0 3
  239.12698 69.0 1
  240.11688 42.0 0
  240.38878 21.0 0
  240.77269 30.0 0
  241.10609 41.0 0
  241.13222 1127.0 11
  242.13489 228.0 2
  242.25955 29.0 0
  243.68036 17.0 0
  246.10985 21.0 0
  247.51991 35.0 0
  248.11166 18.0 0
  249.09459 18.0 0
  249.11476 23.0 0
  249.13507 21.0 0
  249.44133 17.0 0
  250.12848 24.0 0
  250.34929 18.0 0
  250.36137 24.0 0
  251.11632 65.0 1
  251.26419 17.0 0
  251.86649 28.0 0
  252.92067 19.0 0
  252.9696 35.0 0
  253.09001 34.0 0
  253.12791 125.0 1
  253.14516 27.0 0
  254.10052 31.0 0
  254.13374 18.0 0
  255.11661 21.0 0
  255.15901 21.0 0
  255.99654 27.0 0
  256.02859 21.0 0
  256.11945 79.0 1
  258.21927 21.0 0
  258.39154 30.0 0
  259.44571 27.0 0
  261.93771 29.0 0
  263.06567 23.0 0
  263.77689 17.0 0
  265.09344 111.0 1
  265.12494 203.0 2
  265.13712 250.0 2
  265.17804 21.0 0
  266.06512 22.0 0
  266.08881 40.0 0
  266.14566 70.0 1
  267.10822 112.0 1
  267.12137 204.0 2
  267.15021 607.0 6
  268.11661 44.0 0
  268.13266 18.0 0
  268.14664 47.0 0
  269.09683 202.0 2
  269.14478 20.0 0
  269.27921 17.0 0
  270.09192 19.0 0
  271.26031 36.0 0
  272.14655 33.0 0
  273.97211 25.0 0
  274.97186 37.0 0
  275.6557 38.0 0
  276.0874 23.0 0
  276.11118 21.0 0
  276.14948 21.0 0
  277.17358 29.0 0
  279.09396 41.0 0
  279.1626 40.0 0
  281.07034 22.0 0
  281.08884 104.0 1
  281.09827 132.0 1
  281.14584 40.0 0
  281.16437 403.0 4
  282.08914 21.0 0
  282.15643 34.0 0
  282.17719 25.0 0
  283.09991 52.0 0
  283.12329 30.0 0
  283.15198 18.0 0
  285.15714 30.0 0
  290.45782 22.0 0
  291.14114 47.0 0
  291.15292 249.0 2
  291.28482 20.0 0
  292.13309 27.0 0
  292.1568 108.0 1
  293.13297 134.0 1
  293.14569 36.0 0
  293.16226 18.0 0
  294.14127 30.0 0
  297.12753 21.0 0
  298.06879 32.0 0
  302.56357 20.0 0
  302.84174 28.0 0
  303.65411 21.0 0
  304.33365 44.0 0
  304.73279 18.0 0
  304.86038 20.0 0
  305.15692 17.0 0
  307.13812 25.0 0
  307.14764 17.0 0
  308.13458 24.0 0
  308.1615 24.0 0
  308.92328 25.0 0
  308.9379 24.0 0
  309.01495 30.0 0
  309.06216 28.0 0
  309.11365 85.0 1
  309.15915 8913.0 85
  309.21249 36.0 0
  309.22684 36.0 0
  309.36063 17.0 0
  310.10196 37.0 0
  310.116 27.0 0
  310.13342 82.0 1
  310.16223 1764.0 17
  310.21304 47.0 0
  310.63831 25.0 0
  310.87039 17.0 0
  311.1655 291.0 3
  311.17462 115.0 1
  311.39761 20.0 0
  312.16605 23.0 0
  314.15497 17.0 0
  314.17596 42.0 0
  314.77902 22.0 0
  315.13901 23.0 0
  318.80368 17.0 0
  319.07126 18.0 0
  319.10684 35.0 0
  319.13712 109.0 1
  319.15341 40.0 0
  319.16803 28.0 0
  320.14218 20.0 0
  320.16037 75.0 1
  323.13541 44.0 0
  323.37677 18.0 0
  324.07498 17.0 0
  324.26312 17.0 0
  324.62045 22.0 0
  325.25211 28.0 0
  325.42868 34.0 0
  327.14716 19.0 0
  328.85547 33.0 0
  329.0881 25.0 0
  329.14896 68.0 1
  329.16681 30.0 0
  330.30048 19.0 0
  330.48846 20.0 0
  333.33408 23.0 0
  333.52914 20.0 0
  335.59506 20.0 0
  335.99664 37.0 0
  336.51019 17.0 0
  336.7359 23.0 0
  336.83997 36.0 0
  337.07706 25.0 0
  337.11539 281.0 3
  337.15479 10126.0 97
  337.19025 47.0 0
  337.21152 78.0 1
  337.23346 24.0 0
  337.26608 42.0 0
  337.50302 18.0 0
  337.70502 22.0 0
  338.15796 2922.0 28
  338.33893 24.0 0
  339.10516 27.0 0
  339.15536 336.0 3
  339.16956 144.0 1
  339.35208 20.0 0
  339.70474 17.0 0
  339.95706 50.0 0
  340.14536 23.0 0
  340.15707 22.0 0
  341.18201 107.0 1
  341.203 23.0 0
  342.18564 25.0 0
  346.24872 37.0 0
  347.65961 20.0 0
  351.16833 25.0 0
  352.16003 25.0 0
  353.17493 17.0 0
  353.18875 55.0 1
  354.68784 33.0 0
  355.57785 33.0 0
  355.84378 28.0 0
  356.01843 20.0 0
  360.78992 33.0 0
  364.21069 30.0 0
  366.05875 35.0 0
  366.53854 17.0 0
  366.98547 17.0 0
  367.15173 316.0 3
  367.17413 229.0 2
  367.35217 28.0 0
  367.48737 39.0 0
  367.74231 25.0 0
  367.89029 18.0 0
  368.14832 45.0 0
  368.1705 177.0 2
  368.19025 20.0 0
  368.31973 17.0 0
  368.66235 18.0 0
  368.68857 26.0 0
  368.70078 20.0 0
  368.7923 30.0 0
  368.88251 18.0 0
  368.93665 22.0 0
  368.97955 20.0 0
  369.01907 22.0 0
  369.03082 23.0 0
  369.05017 65.0 1
  369.08392 213.0 2
  369.1138 481.0 5
  369.13251 370.0 4
  369.18124 104798.0 999
  369.2363 3322.0 32
  369.2894 397.0 4
  369.34149 27.0 0
//
