ACCESSION: MSBNK-RIKEN-PR100320
RECORD_TITLE: L-Carnitine; LC-ESI-QTOF; MS2; CE:Ramp 5-60 V; [M+H]+
DATE: 2016.01.19 (Created 2009.09.10, modified 2011.05.06)
AUTHORS: Matsuda F, Suzuki M, Sawada Y, Plant Science Center, RIKEN.
LICENSE: CC BY-SA
COMMENT: Acquisition and generation of the data is financially supported in part by CREST/JST.
CH$NAME: L-Carnitine
CH$NAME: Vitamin BT
CH$NAME: (-)-beta-Hydroxy-gamma-(trimethylammonio)butyrate
CH$NAME: Levocarnitine
CH$NAME: L-gamma-Trimethyl-beta-hydroxybutyrobetaine
CH$COMPOUND_CLASS: Carnitine
CH$FORMULA: C7H15NO3
CH$EXACT_MASS: 161.10519
CH$SMILES: [O-1]C(=O)C[C@H](O)C[N+1](C)(C)C
CH$IUPAC: InChI=1S/C7H15NO3/c1-8(2,3)5-6(9)4-7(10)11/h6,9H,4-5H2,1-3H3/t6-/m1/s1
CH$LINK: CAS 541-15-1
CH$LINK: CHEMSPIDER 10455
CH$LINK: KEGG C00318
CH$LINK: PUBCHEM CID:10917
CH$LINK: INCHIKEY PHIQHXFUZVPYII-ZCFIWIBFSA-N
CH$LINK: COMPTOX DTXSID4023208
AC$INSTRUMENT: UPLC Q-Tof Premier, Waters
AC$INSTRUMENT_TYPE: LC-ESI-QTOF
AC$MASS_SPECTROMETRY: MS_TYPE MS2
AC$MASS_SPECTROMETRY: ION_MODE POSITIVE
AC$MASS_SPECTROMETRY: COLLISION_ENERGY Ramp 5-60 V
AC$MASS_SPECTROMETRY: DATAFORMAT Continuum
AC$MASS_SPECTROMETRY: DESOLVATION_GAS_FLOW 600.0 L/Hr
AC$MASS_SPECTROMETRY: DESOLVATION_TEMPERATURE 400 C
AC$MASS_SPECTROMETRY: FRAGMENTATION_METHOD LOW-ENERGY CID
AC$MASS_SPECTROMETRY: IONIZATION ESI
AC$MASS_SPECTROMETRY: SOURCE_TEMPERATURE 120 C
AC$CHROMATOGRAPHY: CAPILLARY_VOLTAGE 3.0 kV
AC$CHROMATOGRAPHY: SAMPLING_CONE 23.0 V
AC$CHROMATOGRAPHY: SOLVENT A CH3CN(0.1%HCOOH)
AC$CHROMATOGRAPHY: SOLVENT B H2O(0.1%HCOOH)
MS$FOCUSED_ION: DERIVATIVE_FORM C7H15NO3
MS$FOCUSED_ION: DERIVATIVE_MASS 161.20
MS$FOCUSED_ION: PRECURSOR_M/Z 162.11299
MS$FOCUSED_ION: PRECURSOR_TYPE [M+H]+
PK$SPLASH: splash10-0ik9-2900000000-ee79f10dce9fc09246ec
PK$NUM_PEAK: 5
PK$PEAK: m/z int. rel.int.
  60.0829 354 133
  85.0306 693.7 260
  102.0938 526.1 198
  103.0412 1261 473
  162.1130 2661 999
//
