ACCESSION: MSBNK-RIKEN-PR310452
RECORD_TITLE: Gelsenicine; LC-ESI-QTOF; MS2
DATE: 2019.03.28
AUTHORS: Tetsuya Mori, Center for Sustainable Resource Science, RIKEN
LICENSE: CC BY-NC-SA
PUBLICATION: Tsugawa H., Nakabayashi R., Mori T., Yamada Y., Takahashi M., Rai A., Sugiyama R., Yamamoto H., Nakaya T., Yamazaki M., Kooke R., Bac-Molenaar JA., Oztolan-Erol N., Keurentjes JJB., Arita M., Saito K. (2019) "A cheminformatics approach to characterize metabolomes in stable-isotope-labeled organisms" Nature Methods 16(4):295-298. [doi:10.1038/s41592-019-0358-2]
COMMENT: Annotation level-1
CH$NAME: Gelsenicine
CH$COMPOUND_CLASS: Indole and derivatives
CH$FORMULA: C19H22N2O3
CH$EXACT_MASS: 326.396
CH$SMILES: CCC1=NC2CC3(C4CC1C2CO4)C(=O)N(OC)C1=C3C=CC=C1
CH$IUPAC: InChI=1S/C19H22N2O3/c1-3-14-11-8-17-19(9-15(20-14)12(11)10-24-17)13-6-4-5-7-16(13)21(23-2)18(19)22/h4-7,11-12,15,17H,3,8-10H2,1-2H3
CH$LINK: INCHIKEY BIGABVPVCRHEES-UHFFFAOYSA-N
AC$INSTRUMENT: LC, Waters Acquity UPLC System; MS, Waters Xevo G2 Q-Tof
AC$INSTRUMENT_TYPE: LC-ESI-QTOF
AC$MASS_SPECTROMETRY: MS_TYPE MS2
AC$MASS_SPECTROMETRY: ION_MODE POSITIVE
AC$MASS_SPECTROMETRY: COLLISION_ENERGY 6V
AC$MASS_SPECTROMETRY: DESOLVATION_GAS_FLOW 800/h
AC$MASS_SPECTROMETRY: DESOLVATION_TEMPERATURE 450 C
AC$MASS_SPECTROMETRY: IONIZATION ESI
AC$CHROMATOGRAPHY: CAPILLARY_VOLTAGE +3.00 kV
AC$CHROMATOGRAPHY: COLUMN_NAME Acquity bridged ethyl hybrid C18 (1.7 um, 2.1 mm * 100 mm, Waters)
AC$CHROMATOGRAPHY: COLUMN_TEMPERATURE 40 C
AC$CHROMATOGRAPHY: FLOW_GRADIENT A/B = (99.5%/0.5% at 0 min, 99.5%/0.5% at 0.1 min, 20%/80% at 10 min, 0.5%/99.5% at 10.1 min, 0.5%/99.5% at 12.0 min, 99.5%/0.5% at 12.1 min, 99.5%/0.5% at 15.0 min)
AC$CHROMATOGRAPHY: FLOW_RATE 0.3 ml/min at 0 min, 0.3 ml/min at 10 min, 0.4 ml/min at 10.1 min, 0.4 ml/min at 14.4 min, 0.3 ml/min at 14.5 min
AC$CHROMATOGRAPHY: RETENTION_TIME 3.99
AC$CHROMATOGRAPHY: SOLVENT A water including 0.1% formic acid
AC$CHROMATOGRAPHY: SOLVENT B acetonitrile including 0.1% formic acid
MS$FOCUSED_ION: PRECURSOR_TYPE [M+H]+
MS$FOCUSED_ION: PRECURSOR_M/Z 327.17032
PK$SPLASH: splash10-004j-0295000000-c2ab2e3e8ed149b29353
PK$NUM_PEAK: 620
PK$PEAK: m/z int. rel.int.
  56.05025 146.0 3
  69.07312 44.0 1
  70.06432 36.0 1
  70.06775 86.0 2
  71.06207 57.0 1
  71.07359 601.0 14
  72.03873 45.0 1
  72.04647 55.0 1
  72.07881 45.0 1
  73.05286 130.0 3
  73.05923 43.0 1
  79.05161 18.0 0
  80.04962 157.0 4
  80.86915 17.0 0
  81.03513 55.0 1
  81.04772 22.0 1
  81.05267 23.0 1
  82.05934 49.0 1
  82.0654 58.0 1
  84.07951 124.0 3
  85.07648 32.0 1
  85.08996 333.0 8
  86.08478 37.0 1
  86.09768 47.0 1
  87.09388 42.0 1
  90.03533 33.0 1
  92.05272 26.0 1
  93.04094 17.0 0
  93.05174 57.0 1
  94.06637 170.0 4
  94.07458 20.0 0
  95.07169 367.0 8
  96.04486 109.0 2
  96.07034 53.0 1
  96.07992 307.0 7
  96.08433 97.0 2
  100.07304 21.0 0
  104.04548 21.0 0
  104.06472 20.0 0
  104.18024 18.0 0
  104.22556 23.0 1
  106.06574 37.0 1
  107.04757 20.0 0
  108.0397 29.0 1
  108.08002 1928.0 44
  108.09048 72.0 2
  108.92683 18.0 0
  109.08315 394.0 9
  109.09197 333.0 8
  110.08244 38.0 1
  110.09117 123.0 3
  110.09872 31.0 1
  110.52653 22.0 1
  111.01333 20.0 0
  111.04335 24.0 1
  111.04976 20.0 0
  111.06239 72.0 2
  111.06929 264.0 6
  111.09798 62.0 1
  111.8811 18.0 0
  112.06572 27.0 1
  112.07313 76.0 2
  112.0834 41.0 1
  112.1067 19.0 0
  115.03761 25.0 1
  115.05907 28.0 1
  119.17827 19.0 0
  120.07332 53.0 1
  120.08113 56.0 1
  121.0666 26.0 1
  121.08872 129.0 3
  121.16325 26.0 1
  122.04328 49.0 1
  122.05573 364.0 8
  122.06535 81.0 2
  122.09512 286.0 7
  123.05608 20.0 0
  123.06556 21.0 0
  123.0993 70.0 2
  124.06528 18.0 0
  124.11372 27.0 1
  125.05142 64.0 1
  125.08533 211.0 5
  125.09135 121.0 3
  126.08417 19.0 0
  126.09293 29.0 1
  127.05554 20.0 0
  128.05101 33.0 1
  129.06793 25.0 1
  130.06152 70.0 2
  131.07239 20.0 0
  132.04393 102.0 2
  132.06686 52.0 1
  132.08458 79.0 2
  132.09538 18.0 0
  134.09645 147.0 3
  135.07341 22.0 1
  135.1013 38.0 1
  136.07556 65.0 1
  136.10484 74.0 2
  136.11131 231.0 5
  137.07135 31.0 1
  137.1183 49.0 1
  137.983 26.0 1
  138.08823 212.0 5
  140.99023 21.0 0
  141.05272 19.0 0
  141.05865 26.0 1
  142.06534 51.0 1
  143.04395 24.0 1
  143.07327 634.0 15
  143.08662 23.0 1
  144.07396 192.0 4
  144.08437 107.0 2
  145.06259 32.0 1
  145.08943 58.0 1
  146.01605 57.0 1
  146.02899 32.0 1
  146.05391 22.0 1
  146.0656 28.0 1
  146.08369 20.0 0
  146.09212 21.0 0
  146.40018 17.0 0
  147.05205 37.0 1
  148.0656 41.0 1
  148.10861 39.0 1
  148.13593 20.0 0
  149.05907 29.0 1
  149.08395 21.0 0
  149.09619 52.0 1
  149.17061 18.0 0
  150.04494 27.0 1
  150.08682 59.0 1
  150.09364 64.0 1
  150.12323 39.0 1
  150.83836 31.0 1
  151.004 23.0 1
  151.09418 65.0 1
  151.12457 27.0 1
  152.06157 26.0 1
  152.10735 24.0 1
  153.07269 33.0 1
  154.04654 17.0 0
  154.06584 62.0 1
  155.04514 25.0 1
  155.90495 47.0 1
  156.08197 57.0 1
  156.30487 27.0 1
  158.06084 55.0 1
  158.0834 18.0 0
  158.09776 71.0 2
  159.06445 70.0 2
  159.104 37.0 1
  160.06435 39.0 1
  160.07773 43.0 1
  160.11467 38.0 1
  160.51285 17.0 0
  161.08112 33.0 1
  162.13985 38.0 1
  163.33739 18.0 0
  163.55884 25.0 1
  164.10704 68.0 2
  164.11314 69.0 2
  165.05644 210.0 5
  165.06793 39.0 1
  165.07576 58.0 1
  165.08182 42.0 1
  165.13963 45.0 1
  165.90721 24.0 1
  166.00089 28.0 1
  166.06483 86.0 2
  166.08488 20.0 0
  166.77676 17.0 0
  167.0665 72.0 2
  167.07704 191.0 4
  167.51364 33.0 1
  168.07932 139.0 3
  168.74858 25.0 1
  169.07549 49.0 1
  169.08643 121.0 3
  170.05498 116.0 3
  170.06371 189.0 4
  170.0735 34.0 1
  170.09615 46.0 1
  171.06367 23.0 1
  171.78821 26.0 1
  172.06491 39.0 1
  172.0752 99.0 2
  173.03366 23.0 1
  173.06947 27.0 1
  173.07738 37.0 1
  173.0955 43.0 1
  174.06911 20.0 0
  174.08226 18.0 0
  177.76389 26.0 1
  178.06615 467.0 11
  178.07918 94.0 2
  178.12263 60.0 1
  179.02902 32.0 1
  179.0629 23.0 1
  179.06915 27.0 1
  179.07727 40.0 1
  179.08351 47.0 1
  179.09123 66.0 2
  179.32462 35.0 1
  179.43872 22.0 1
  180.08084 321.0 7
  180.09277 31.0 1
  180.78973 20.0 0
  181.06879 107.0 2
  181.08658 128.0 3
  181.6091 20.0 0
  181.89345 24.0 1
  182.02481 28.0 1
  182.04596 18.0 0
  182.06584 162.0 4
  182.08191 110.0 3
  182.11285 17.0 0
  183.04715 52.0 1
  183.06029 141.0 3
  183.07002 487.0 11
  183.08957 38.0 1
  183.38817 17.0 0
  183.7681 77.0 2
  184.06085 73.0 2
  184.07336 158.0 4
  184.08456 60.0 1
  184.78319 32.0 1
  184.84959 35.0 1
  185.07971 51.0 1
  185.088 44.0 1
  185.37505 20.0 0
  186.08371 23.0 1
  186.0943 19.0 0
  186.12958 40.0 1
  187.61014 20.0 0
  188.09262 46.0 1
  188.77292 23.0 1
  189.06596 42.0 1
  190.04839 24.0 1
  190.05748 50.0 1
  190.06441 54.0 1
  190.0766 45.0 1
  190.67204 17.0 0
  190.82146 23.0 1
  191.06657 24.0 1
  191.07611 26.0 1
  191.08978 21.0 0
  191.44221 18.0 0
  192.06055 26.0 1
  192.07631 94.0 2
  192.08723 158.0 4
  192.10658 40.0 1
  193.09068 63.0 1
  194.06236 54.0 1
  194.07387 84.0 2
  194.09729 185.0 4
  194.11763 20.0 0
  195.0697 95.0 2
  195.10042 129.0 3
  195.11401 47.0 1
  196.00394 17.0 0
  196.07584 939.0 21
  196.10924 403.0 9
  196.13225 36.0 1
  196.82419 21.0 0
  197.07256 226.0 5
  197.08597 211.0 5
  197.10301 102.0 2
  197.12204 29.0 1
  197.38795 18.0 0
  198.06064 20.0 0
  198.06921 29.0 1
  198.07751 19.0 0
  198.09505 31.0 1
  198.10745 29.0 1
  198.36011 21.0 0
  199.08517 64.0 1
  199.09425 35.0 1
  199.25235 27.0 1
  199.94821 21.0 0
  200.0365 20.0 0
  200.12189 33.0 1
  200.13081 17.0 0
  201.0179 37.0 1
  201.1275 38.0 1
  202.04146 33.0 1
  202.06029 17.0 0
  202.08084 39.0 1
  202.1156 33.0 1
  203.06801 17.0 0
  203.08688 24.0 1
  204.08241 85.0 2
  204.11111 32.0 1
  204.30319 23.0 1
  204.88062 18.0 0
  205.06525 48.0 1
  205.08702 125.0 3
  205.11986 38.0 1
  205.55707 20.0 0
  206.07088 19.0 0
  206.09657 783.0 18
  206.12015 23.0 1
  206.75876 22.0 1
  207.05966 21.0 0
  207.09023 58.0 1
  207.10214 37.0 1
  207.11049 34.0 1
  207.66162 36.0 1
  208.0493 40.0 1
  208.06781 125.0 3
  208.07721 342.0 8
  208.09402 115.0 3
  208.10745 42.0 1
  208.49228 34.0 1
  209.07979 107.0 2
  209.0889 174.0 4
  209.09843 100.0 2
  209.11015 33.0 1
  209.63354 18.0 0
  209.70557 29.0 1
  210.07494 67.0 2
  210.0856 296.0 7
  210.09695 64.0 1
  210.10942 18.0 0
  210.13045 65.0 1
  211.05963 36.0 1
  211.08224 105.0 2
  211.09787 79.0 2
  211.1277 126.0 3
  211.74217 37.0 1
  212.06395 116.0 3
  212.07523 163.0 4
  212.08824 77.0 2
  212.10336 50.0 1
  213.07307 78.0 2
  213.09369 73.0 2
  213.10643 202.0 5
  214.07356 59.0 1
  214.09004 60.0 1
  214.10049 65.0 1
  214.88713 25.0 1
  215.04625 21.0 0
  215.07599 83.0 2
  215.88255 24.0 1
  217.08659 25.0 1
  218.0845 19.0 0
  218.09518 68.0 2
  218.30122 18.0 0
  218.53809 21.0 0
  219.05791 74.0 2
  219.08871 104.0 2
  219.10149 113.0 3
  220.07196 118.0 3
  220.0818 112.0 3
  220.09312 28.0 1
  220.11623 177.0 4
  220.82477 17.0 0
  221.06416 28.0 1
  221.07433 91.0 2
  221.09793 60.0 1
  221.1089 128.0 3
  221.11981 97.0 2
  221.64639 21.0 0
  222.05788 23.0 1
  222.07068 22.0 1
  222.08189 83.0 2
  222.09407 284.0 6
  222.11691 118.0 3
  222.13115 46.0 1
  222.63445 27.0 1
  223.08249 147.0 3
  223.092 269.0 6
  223.09999 350.0 8
  223.11832 40.0 1
  223.12485 98.0 2
  223.13892 56.0 1
  223.58987 24.0 1
  224.0536 22.0 1
  224.06261 38.0 1
  224.07365 52.0 1
  224.10683 1526.0 35
  224.12317 118.0 3
  224.14542 17.0 0
  224.81465 18.0 0
  225.06436 28.0 1
  225.10522 2745.0 63
  225.77513 17.0 0
  226.09406 94.0 2
  226.10736 350.0 8
  226.11813 62.0 1
  226.15469 50.0 1
  226.16551 41.0 1
  226.87944 21.0 0
  227.07381 55.0 1
  227.11118 51.0 1
  227.12498 170.0 4
  227.30263 24.0 1
  228.07474 39.0 1
  228.08472 18.0 0
  228.54147 29.0 1
  228.67682 18.0 0
  229.08916 67.0 2
  229.13591 17.0 0
  230.05066 31.0 1
  230.0596 19.0 0
  230.09277 478.0 11
  230.10182 451.0 10
  230.20076 25.0 1
  230.25764 18.0 0
  230.36017 23.0 1
  231.03554 17.0 0
  231.09137 304.0 7
  231.10684 66.0 2
  231.17236 28.0 1
  231.48004 26.0 1
  232.03712 18.0 0
  232.07536 25.0 1
  232.0959 241.0 6
  232.12164 38.0 1
  233.04916 20.0 0
  233.0715 103.0 2
  233.08545 495.0 11
  233.09286 202.0 5
  233.10381 44.0 1
  233.67116 17.0 0
  234.07031 86.0 2
  234.08807 216.0 5
  235.07133 30.0 1
  235.09023 318.0 7
  235.11583 29.0 1
  235.13379 20.0 0
  235.33813 35.0 1
  236.08788 175.0 4
  236.10143 225.0 5
  236.12753 42.0 1
  236.14006 84.0 2
  236.14894 75.0 2
  237.07599 28.0 1
  237.09821 240.0 5
  237.12962 105.0 2
  237.14462 145.0 3
  237.24733 21.0 0
  238.00102 19.0 0
  238.09406 68.0 2
  238.11119 124.0 3
  239.05518 20.0 0
  239.09167 25.0 1
  239.10416 119.0 3
  239.1188 954.0 22
  239.13464 98.0 2
  240.11978 304.0 7
  240.16121 57.0 1
  240.77876 44.0 1
  241.12704 21.0 0
  241.15875 21.0 0
  241.17772 22.0 1
  244.12421 29.0 1
  244.13594 46.0 1
  245.23325 40.0 1
  247.08829 184.0 4
  247.10834 146.0 3
  247.13077 52.0 1
  248.08055 54.0 1
  248.10713 1331.0 30
  248.14639 27.0 1
  248.94899 23.0 1
  249.06828 26.0 1
  249.09923 279.0 6
  249.1109 330.0 8
  249.13463 52.0 1
  250.10194 235.0 5
  250.11592 60.0 1
  250.13997 90.0 2
  251.09689 47.0 1
  251.11934 248.0 6
  251.14088 63.0 1
  252.07394 31.0 1
  252.12012 63.0 1
  252.13681 18.0 0
  252.15244 27.0 1
  252.1685 19.0 0
  253.09198 23.0 1
  253.10529 23.0 1
  253.12671 162.0 4
  253.13867 48.0 1
  253.23857 33.0 1
  253.3465 28.0 1
  254.11687 24.0 1
  254.13843 27.0 1
  254.15407 80.0 2
  255.09154 24.0 1
  255.10928 49.0 1
  255.12018 70.0 2
  255.16667 31.0 1
  256.13773 23.0 1
  256.41599 18.0 0
  260.11502 40.0 1
  261.08319 18.0 0
  262.13492 20.0 0
  263.09482 73.0 2
  263.11331 66.0 2
  263.12646 110.0 3
  263.94861 19.0 0
  264.13385 18.0 0
  264.81198 24.0 1
  265.01675 17.0 0
  265.08661 47.0 1
  265.1022 223.0 5
  265.13425 7688.0 176
  265.2218 24.0 1
  266.07629 48.0 1
  266.1384 1300.0 30
  266.29965 28.0 1
  267.02924 41.0 1
  267.0834 31.0 1
  267.1123 729.0 17
  267.1481 441.0 10
  267.1644 66.0 2
  267.21002 23.0 1
  267.26028 46.0 1
  267.27356 27.0 1
  268.07025 17.0 0
  268.10699 22.0 1
  268.11673 74.0 2
  268.1582 1546.0 35
  268.50952 20.0 0
  269.15634 310.0 7
  269.18246 72.0 2
  270.17142 20.0 0
  270.45184 63.0 1
  275.22864 33.0 1
  276.16956 24.0 1
  277.03619 42.0 1
  277.13983 98.0 2
  278.10947 19.0 0
  278.12988 17.0 0
  278.1445 132.0 3
  279.13931 241.0 6
  279.15143 1097.0 25
  279.9006 21.0 0
  280.13354 68.0 2
  280.14841 106.0 2
  280.16208 86.0 2
  281.07599 17.0 0
  281.09311 22.0 1
  281.13077 66.0 2
  281.16162 27.0 1
  281.31265 17.0 0
  282.13715 35.0 1
  282.14908 37.0 1
  282.39035 18.0 0
  283.14456 17.0 0
  286.97504 37.0 1
  287.05151 18.0 0
  291.83902 17.0 0
  292.76947 17.0 0
  293.13132 27.0 1
  294.88651 20.0 0
  295.12476 21.0 0
  295.14377 148.0 3
  295.1553 79.0 2
  295.16693 33.0 1
  295.48209 20.0 0
  295.54749 20.0 0
  295.83527 18.0 0
  295.91678 50.0 1
  295.93674 23.0 1
  296.00296 22.0 1
  296.02863 28.0 1
  296.05627 28.0 1
  296.07471 182.0 4
  296.08975 97.0 2
  296.10294 150.0 3
  296.11725 94.0 2
  296.15256 31598.0 723
  296.2019 644.0 15
  296.23569 20.0 0
  296.3595 104.0 2
  296.3942 17.0 0
  296.46463 51.0 1
  296.6543 63.0 1
  297.04956 18.0 0
  297.07779 17.0 0
  297.10626 48.0 1
  297.1557 7169.0 164
  297.20828 17.0 0
  298.09134 20.0 0
  298.09979 36.0 1
  298.14093 82.0 2
  298.15936 869.0 20
  298.31381 17.0 0
  298.74588 37.0 1
  298.95731 17.0 0
  299.10214 17.0 0
  299.15033 44.0 1
  299.16196 197.0 5
  299.17645 52.0 1
  299.43549 20.0 0
  300.63849 26.0 1
  301.79291 20.0 0
  302.51608 19.0 0
  305.02695 17.0 0
  307.51117 21.0 0
  309.15778 56.0 1
  310.9946 18.0 0
  313.18066 20.0 0
  313.69562 38.0 1
  319.95383 35.0 1
  320.85864 20.0 0
  324.1156 18.0 0
  326.21405 17.0 0
  326.8905 17.0 0
  326.90707 30.0 1
  326.99863 44.0 1
  327.0939 116.0 3
  327.12006 302.0 7
  327.17184 43650.0 999
  327.22433 1216.0 28
  327.2731 86.0 2
//
