ACCESSION: MSBNK-RIKEN-PR306542
RECORD_TITLE: Quercetin; LC-ESI-QTOF; MS2
DATE: 2019.03.28
AUTHORS: Tetsuya Mori, Center for Sustainable Resource Science, RIKEN
LICENSE: CC BY-NC-SA
PUBLICATION: Tsugawa H., Nakabayashi R., Mori T., Yamada Y., Takahashi M., Rai A., Sugiyama R., Yamamoto H., Nakaya T., Yamazaki M., Kooke R., Bac-Molenaar JA., Oztolan-Erol N., Keurentjes JJB., Arita M., Saito K. (2019) "A cheminformatics approach to characterize metabolomes in stable-isotope-labeled organisms" Nature Methods 16(4):295-298. [doi:10.1038/s41592-019-0358-2]
COMMENT: registered in RIKEN PlaSMA
CH$NAME: Quercetin
CH$COMPOUND_CLASS: Flavonols
CH$FORMULA: C15H10O7
CH$EXACT_MASS: 302.238
CH$SMILES: OC1=CC(O)=C2C(OC(=C(O)C2=O)C2=CC(O)=C(O)C=C2)=C1
CH$IUPAC: InChI=1S/C15H10O7/c16-7-4-10(19)12-11(5-7)22-15(14(21)13(12)20)6-1-2-8(17)9(18)3-6/h1-5,16-19,21H
CH$LINK: INCHIKEY REFJWTPEDVJJIY-UHFFFAOYSA-N
AC$INSTRUMENT: LC, Waters Acquity UPLC System; MS, Waters Xevo G2 Q-Tof
AC$INSTRUMENT_TYPE: LC-ESI-QTOF
AC$MASS_SPECTROMETRY: MS_TYPE MS2
AC$MASS_SPECTROMETRY: ION_MODE NEGATIVE
AC$MASS_SPECTROMETRY: COLLISION_ENERGY 6V
AC$MASS_SPECTROMETRY: DESOLVATION_GAS_FLOW 800/h
AC$MASS_SPECTROMETRY: DESOLVATION_TEMPERATURE 450 C
AC$MASS_SPECTROMETRY: IONIZATION ESI
AC$CHROMATOGRAPHY: CAPILLARY_VOLTAGE -2.75 kV
AC$CHROMATOGRAPHY: COLUMN_NAME Acquity bridged ethyl hybrid C18 (1.7 um, 2.1 mm * 100 mm, Waters)
AC$CHROMATOGRAPHY: COLUMN_TEMPERATURE 40 C
AC$CHROMATOGRAPHY: FLOW_GRADIENT A/B = (99.5%/0.5% at 0 min, 99.5%/0.5% at 0.1 min, 20%/80% at 10 min, 0.5%/99.5% at 10.1 min, 0.5%/99.5% at 12.0 min, 99.5%/0.5% at 12.1 min, 99.5%/0.5% at 15.0 min)
AC$CHROMATOGRAPHY: FLOW_RATE 0.3 ml/min at 0 min, 0.3 ml/min at 10 min, 0.4 ml/min at 10.1 min, 0.4 ml/min at 14.4 min, 0.3 ml/min at 14.5 min
AC$CHROMATOGRAPHY: RETENTION_TIME 5.374467
AC$CHROMATOGRAPHY: SOLVENT A water including 0.1% formic acid
AC$CHROMATOGRAPHY: SOLVENT B acetonitrile including 0.1% formic acid
MS$FOCUSED_ION: PRECURSOR_TYPE [M-H]-
MS$FOCUSED_ION: PRECURSOR_M/Z 301.03537624783
PK$SPLASH: splash10-0zfr-0910000000-4c5a8fa14d88bcd2bdb7
PK$NUM_PEAK: 162
PK$PEAK: m/z int. rel.int.
  63.02256 73.0 73
  65.00098 102.0 102
  68.99493 7.0 7
  83.01397 83.0 83
  84.01497 14.0 14
  91.01525 7.0 7
  93.03374 100.0 100
  94.03765 12.0 12
  96.01704 38.0 38
  96.02428 7.0 7
  106.21169 7.0 7
  107.01199 650.0 649
  108.01923 57.0 57
  108.29037 10.0 10
  109.02864 40.0 40
  110.0331 6.0 6
  110.90323 7.0 7
  113.03548 6.0 6
  116.06335 11.0 11
  117.03605 17.0 17
  118.14885 9.0 9
  119.04784 29.0 29
  120.01804 12.0 12
  120.99529 10.0 10
  121.02744 434.0 434
  121.03911 8.0 8
  121.06422 10.0 10
  122.02802 7.0 7
  122.03316 6.0 6
  123.01375 7.0 7
  124.0109 20.0 20
  124.01694 12.0 12
  125.0218 18.0 18
  127.04985 11.0 11
  129.02809 7.0 7
  130.03729 20.0 20
  131.04671 18.0 18
  132.02237 8.0 8
  133.02852 90.0 90
  133.06255 14.0 14
  134.03021 7.0 7
  135.00334 28.0 28
  135.04384 58.0 58
  136.01511 24.0 24
  137.02333 8.0 8
  139.03833 7.0 7
  141.02948 8.0 8
  141.03682 8.0 8
  141.06381 7.0 7
  142.03963 8.0 8
  143.04109 7.0 7
  143.04848 25.0 25
  144.0524 22.0 22
  144.78015 6.0 6
  145.02805 24.0 24
  145.03343 18.0 18
  145.06451 9.0 9
  146.02654 9.0 9
  146.03571 7.0 7
  148.01416 12.0 12
  149.02078 94.0 94
  149.03139 14.0 14
  150.0256 9.0 9
  151.0014 1000.0 999
  151.0181 12.0 12
  151.99628 14.0 14
  152.00391 54.0 54
  152.01234 15.0 15
  153.03113 13.0 13
  154.00293 8.0 8
  154.03334 16.0 16
  155.03426 9.0 9
  155.05212 8.0 8
  157.02444 18.0 18
  157.03349 10.0 10
  157.06194 20.0 20
  158.03151 42.0 42
  158.03957 12.0 12
  159.03571 12.0 12
  159.04465 66.0 66
  160.04977 10.0 10
  160.68132 7.0 7
  161.02277 39.0 39
  161.03323 8.0 8
  162.02765 23.0 23
  163.00134 15.0 15
  163.0312 8.0 8
  163.04115 20.0 20
  164.00148 16.0 16
  164.0116 24.0 24
  165.01251 14.0 14
  165.02037 18.0 18
  167.04482 19.0 19
  169.02104 8.0 8
  169.03307 9.0 9
  170.03531 6.0 6
  171.04488 28.0 28
  172.05772 12.0 12
  173.024 28.0 28
  173.05716 9.0 9
  174.03395 15.0 15
  174.998 6.0 6
  175.03746 35.0 35
  176.03526 9.0 9
  178.05016 9.0 9
  178.99628 24.0 24
  179.00615 13.0 13
  180.00589 10.0 10
  182.03839 17.0 17
  183.03998 36.0 36
  184.04865 7.0 7
  185.01692 8.0 8
  185.0287 10.0 10
  185.0567 14.0 14
  187.03525 43.0 43
  187.0417 24.0 24
  188.03142 9.0 9
  188.04147 27.0 27
  189.01762 8.0 8
  198.02681 7.0 7
  198.03844 8.0 8
  199.0352 47.0 47
  199.04376 13.0 13
  200.0414 9.0 9
  201.05293 41.0 41
  202.01456 8.0 8
  202.04501 7.0 7
  203.79216 6.0 6
  205.95518 7.0 7
  210.32652 10.0 10
  211.04172 25.0 25
  212.04422 9.0 9
  213.01747 16.0 16
  215.02763 10.0 10
  215.03906 19.0 19
  217.0051 9.0 9
  217.04793 9.0 9
  225.02113 7.0 7
  226.0258 22.0 22
  226.63896 8.0 8
  227.02486 24.0 24
  227.03293 46.0 46
  228.03804 10.0 10
  229.04611 41.0 41
  231.02844 24.0 24
  232.02119 11.0 11
  239.03848 7.0 7
  242.01256 7.0 7
  243.017 9.0 9
  243.02977 64.0 64
  244.03636 11.0 11
  245.04256 53.0 53
  246.04744 6.0 6
  255.02652 7.0 7
  255.03592 17.0 17
  256.02908 8.0 8
  256.03946 18.0 18
  257.03299 7.0 7
  257.59769 7.0 7
  271.01392 15.0 15
  273.02356 7.0 7
  284.03217 7.0 7
//
