ACCESSION: MSBNK-RIKEN-PR310577
RECORD_TITLE: Tubotaiwine; LC-ESI-QTOF; MS2
DATE: 2019.03.28
AUTHORS: Tetsuya Mori, Center for Sustainable Resource Science, RIKEN
LICENSE: CC BY-NC-SA
PUBLICATION: Tsugawa H., Nakabayashi R., Mori T., Yamada Y., Takahashi M., Rai A., Sugiyama R., Yamamoto H., Nakaya T., Yamazaki M., Kooke R., Bac-Molenaar JA., Oztolan-Erol N., Keurentjes JJB., Arita M., Saito K. (2019) "A cheminformatics approach to characterize metabolomes in stable-isotope-labeled organisms" Nature Methods 16(4):295-298. [doi:10.1038/s41592-019-0358-2]
COMMENT: Annotation level-1
CH$NAME: Tubotaiwine
CH$COMPOUND_CLASS: Alkaloids
CH$FORMULA: C20H24N2O2
CH$EXACT_MASS: 324.424
CH$SMILES: CCC1C2N3CCC22C(NC4=C2C=CC=C4)=C(C1CC3)C(=O)OC
CH$IUPAC: InChI=1S/C20H24N2O2/c1-3-12-13-8-10-22-11-9-20(18(12)22)14-6-4-5-7-15(14)21-17(20)16(13)19(23)24-2/h4-7,12-13,18,21H,3,8-11H2,1-2H3
CH$LINK: INCHIKEY RLAKWLFUMAABBE-UHFFFAOYSA-N
AC$INSTRUMENT: LC, Waters Acquity UPLC System; MS, Waters Xevo G2 Q-Tof
AC$INSTRUMENT_TYPE: LC-ESI-QTOF
AC$MASS_SPECTROMETRY: MS_TYPE MS2
AC$MASS_SPECTROMETRY: ION_MODE POSITIVE
AC$MASS_SPECTROMETRY: COLLISION_ENERGY 6V
AC$MASS_SPECTROMETRY: DESOLVATION_GAS_FLOW 800/h
AC$MASS_SPECTROMETRY: DESOLVATION_TEMPERATURE 450 C
AC$MASS_SPECTROMETRY: IONIZATION ESI
AC$CHROMATOGRAPHY: CAPILLARY_VOLTAGE +3.00 kV
AC$CHROMATOGRAPHY: COLUMN_NAME Acquity bridged ethyl hybrid C18 (1.7 um, 2.1 mm * 100 mm, Waters)
AC$CHROMATOGRAPHY: COLUMN_TEMPERATURE 40 C
AC$CHROMATOGRAPHY: FLOW_GRADIENT A/B = (99.5%/0.5% at 0 min, 99.5%/0.5% at 0.1 min, 20%/80% at 10 min, 0.5%/99.5% at 10.1 min, 0.5%/99.5% at 12.0 min, 99.5%/0.5% at 12.1 min, 99.5%/0.5% at 15.0 min)
AC$CHROMATOGRAPHY: FLOW_RATE 0.3 ml/min at 0 min, 0.3 ml/min at 10 min, 0.4 ml/min at 10.1 min, 0.4 ml/min at 14.4 min, 0.3 ml/min at 14.5 min
AC$CHROMATOGRAPHY: RETENTION_TIME 4.92
AC$CHROMATOGRAPHY: SOLVENT A water including 0.1% formic acid
AC$CHROMATOGRAPHY: SOLVENT B acetonitrile including 0.1% formic acid
MS$FOCUSED_ION: PRECURSOR_TYPE [M+H]+
MS$FOCUSED_ION: PRECURSOR_M/Z 325.19105
PK$SPLASH: splash10-002f-0194000000-c3c4a49c093fe6e5146a
PK$NUM_PEAK: 300
PK$PEAK: m/z int. rel.int.
  61.6959 24.0 1
  67.51641 23.0 1
  77.03731 27.0 1
  84.04292 34.0 1
  94.06477 29.0 1
  106.17815 17.0 1
  108.08423 26.0 1
  111.10316 55.0 2
  112.11189 17.0 1
  117.0657 21.0 1
  120.0796 25.0 1
  120.76804 17.0 1
  130.05533 51.0 2
  130.06569 219.0 8
  132.07025 26.0 1
  136.11189 30.0 1
  143.07552 27.0 1
  144.08148 113.0 4
  145.08473 65.0 2
  146.08516 18.0 1
  154.06293 105.0 4
  155.05489 18.0 1
  155.07016 63.0 2
  156.09248 20.0 1
  158.09644 47.0 2
  159.09058 56.0 2
  165.06548 25.0 1
  165.85959 24.0 1
  167.07327 112.0 4
  167.07901 54.0 2
  168.07788 93.0 3
  168.08847 30.0 1
  168.28481 17.0 1
  168.70715 23.0 1
  169.07793 195.0 7
  169.08496 76.0 3
  170.06747 36.0 1
  170.09911 93.0 3
  171.09036 42.0 1
  174.09151 21.0 1
  179.07588 20.0 1
  180.05266 51.0 2
  180.07079 87.0 3
  180.08049 405.0 14
  181.06923 42.0 1
  181.08072 321.0 11
  181.10103 96.0 3
  182.04799 17.0 1
  182.07826 18.0 1
  182.09186 142.0 5
  182.09991 96.0 3
  182.12059 18.0 1
  183.04051 42.0 1
  183.08908 93.0 3
  184.10788 17.0 1
  185.81987 31.0 1
  186.06796 20.0 1
  191.07463 48.0 2
  192.07111 109.0 4
  192.08449 134.0 5
  193.08455 531.0 18
  193.10104 30.0 1
  193.87675 34.0 1
  194.06363 20.0 1
  194.09637 920.0 32
  195.04156 23.0 1
  195.09137 220.0 8
  195.1022 200.0 7
  195.45291 21.0 1
  196.0916 137.0 5
  196.117 23.0 1
  196.93768 17.0 1
  197.08604 33.0 1
  197.11559 34.0 1
  197.12695 25.0 1
  197.13419 28.0 1
  198.11526 29.0 1
  200.64192 39.0 1
  203.19633 20.0 1
  204.07155 27.0 1
  204.0858 65.0 2
  204.09677 29.0 1
  205.08072 78.0 3
  205.09863 23.0 1
  205.10742 22.0 1
  206.07523 20.0 1
  206.09283 369.0 13
  206.12 18.0 1
  207.06407 54.0 2
  207.07251 55.0 2
  207.09041 294.0 10
  207.10477 564.0 20
  208.0569 28.0 1
  208.07349 180.0 6
  208.09293 218.0 8
  208.1075 698.0 24
  208.11699 234.0 8
  208.69473 17.0 1
  209.06285 72.0 2
  209.07571 89.0 3
  209.09325 60.0 2
  209.10583 236.0 8
  209.11954 238.0 8
  209.12932 103.0 4
  209.2093 19.0 1
  210.10939 63.0 2
  210.12041 180.0 6
  210.12988 111.0 4
  210.99286 21.0 1
  211.10344 28.0 1
  211.11549 36.0 1
  211.12668 73.0 3
  211.13638 70.0 2
  211.23598 20.0 1
  211.79225 17.0 1
  212.12303 29.0 1
  213.3075 20.0 1
  213.59161 17.0 1
  213.9454 36.0 1
  214.07376 26.0 1
  214.08281 49.0 2
  214.09174 28.0 1
  215.06787 18.0 1
  215.08975 30.0 1
  216.09731 42.0 1
  217.08383 22.0 1
  217.60727 32.0 1
  218.09821 52.0 2
  218.69984 28.0 1
  219.01144 32.0 1
  219.07085 20.0 1
  219.10393 118.0 4
  219.20862 17.0 1
  220.07289 24.0 1
  220.1066 184.0 6
  220.11546 37.0 1
  220.26131 17.0 1
  220.81319 28.0 1
  220.86972 21.0 1
  221.08797 23.0 1
  221.10767 230.0 8
  221.12303 236.0 8
  222.08992 458.0 16
  222.10864 198.0 7
  222.11993 575.0 20
  222.13023 728.0 25
  223.07939 311.0 11
  223.09357 106.0 4
  223.1011 35.0 1
  223.11652 62.0 2
  223.13478 134.0 5
  223.15237 18.0 1
  223.17696 17.0 1
  224.07986 39.0 1
  224.09721 27.0 1
  224.10689 34.0 1
  224.13174 52.0 2
  224.14522 61.0 2
  225.14737 26.0 1
  226.08519 39.0 1
  226.71397 32.0 1
  227.63379 18.0 1
  230.23918 34.0 1
  232.08002 17.0 1
  233.1067 53.0 2
  233.11563 39.0 1
  234.08449 114.0 4
  234.09697 49.0 2
  234.11386 17.0 1
  234.12984 89.0 3
  235.07556 30.0 1
  235.08665 57.0 2
  235.10934 36.0 1
  235.12486 203.0 7
  236.0818 36.0 1
  236.0925 89.0 3
  236.11212 111.0 4
  236.14032 827.0 29
  236.15396 218.0 8
  236.75769 19.0 1
  237.10815 85.0 3
  237.121 108.0 4
  237.13939 500.0 17
  237.15195 110.0 4
  237.26796 25.0 1
  238.08858 23.0 1
  238.10895 81.0 3
  238.12532 175.0 6
  238.14537 62.0 2
  238.1631 18.0 1
  238.26819 29.0 1
  239.09586 41.0 1
  239.11256 20.0 1
  239.12482 25.0 1
  240.55565 40.0 1
  241.35796 33.0 1
  246.11099 20.0 1
  246.1232 18.0 1
  246.13663 33.0 1
  246.87547 25.0 1
  247.10432 27.0 1
  247.12326 18.0 1
  248.09108 56.0 2
  248.10526 17.0 1
  248.11713 33.0 1
  248.12952 32.0 1
  249.10403 102.0 4
  249.12219 46.0 2
  249.13289 26.0 1
  249.14351 18.0 1
  250.10019 28.0 1
  250.11794 137.0 5
  250.13545 33.0 1
  250.16298 34.0 1
  251.1152 21.0 1
  252.10376 57.0 2
  252.11316 39.0 1
  254.08531 18.0 1
  254.10736 49.0 2
  254.12367 100.0 3
  255.12946 21.0 1
  263.12088 42.0 1
  263.14691 28.0 1
  264.12445 66.0 2
  264.1394 130.0 5
  264.32382 18.0 1
  265.09988 20.0 1
  265.12622 192.0 7
  265.13416 450.0 16
  265.17206 242.0 8
  265.22202 21.0 1
  265.37527 17.0 1
  265.50183 23.0 1
  265.83536 22.0 1
  266.13223 65.0 2
  266.14514 76.0 3
  266.16248 22.0 1
  266.29111 20.0 1
  268.09567 31.0 1
  268.1394 20.0 1
  269.19858 31.0 1
  274.69098 24.0 1
  276.20712 17.0 1
  277.12909 20.0 1
  278.12869 27.0 1
  280.67325 20.0 1
  289.51794 27.0 1
  290.04422 25.0 1
  292.12439 21.0 1
  292.44995 28.0 1
  292.70023 24.0 1
  293.08371 26.0 1
  293.09995 62.0 2
  293.12335 264.0 9
  293.16492 28831.0 999
  293.21365 298.0 10
  293.25177 19.0 1
  293.29459 18.0 1
  293.31918 21.0 1
  293.46552 17.0 1
  293.48987 19.0 1
  293.65817 17.0 1
  293.98462 17.0 1
  294.12024 73.0 3
  294.13992 200.0 7
  294.16873 5090.0 176
  294.21457 38.0 1
  294.28119 22.0 1
  294.40826 18.0 1
  294.67075 20.0 1
  294.72256 21.0 1
  294.96124 28.0 1
  295.11166 17.0 1
  295.13821 89.0 3
  295.15973 228.0 8
  295.17029 536.0 19
  295.49054 18.0 1
  295.52313 18.0 1
  295.54684 18.0 1
  296.13193 22.0 1
  296.17236 48.0 2
  296.73828 19.0 1
  297.13916 24.0 1
  297.15768 17.0 1
  297.93735 20.0 1
  298.44757 18.0 1
  300.45767 30.0 1
  304.70755 22.0 1
  306.28836 19.0 1
  310.50699 21.0 1
  323.18161 30.0 1
  324.84274 17.0 1
  325.00897 21.0 1
  325.06894 65.0 2
  325.10095 17.0 1
  325.11847 220.0 8
  325.14075 302.0 10
  325.19104 24977.0 865
  325.24265 445.0 15
  325.29858 20.0 1
//
