ACCESSION: MSBNK-RIKEN-PR309177
RECORD_TITLE: S(8-8)S hexoside; LC-ESI-QTOF; MS2
DATE: 2019.03.28
AUTHORS: Tetsuya Mori, Center for Sustainable Resource Science, RIKEN
LICENSE: CC BY-NC-SA
PUBLICATION: Tsugawa H., Nakabayashi R., Mori T., Yamada Y., Takahashi M., Rai A., Sugiyama R., Yamamoto H., Nakaya T., Yamazaki M., Kooke R., Bac-Molenaar JA., Oztolan-Erol N., Keurentjes JJB., Arita M., Saito K. (2019) "A cheminformatics approach to characterize metabolomes in stable-isotope-labeled organisms" Nature Methods 16(4):295-298. [doi:10.1038/s41592-019-0358-2]
COMMENT: Annotation level-3
CH$NAME: S(8-8)S hexoside
CH$COMPOUND_CLASS: Lignols
CH$FORMULA: C28H36O13
CH$EXACT_MASS: 580.583
CH$SMILES: OC=1C(OC)=CC(=CC=1(OC))C2OCC3C(OCC23)C5=CC(OC)=C(OC4OC(CO)C(O)C(O)C4(O))C(OC)=C5
CH$IUPAC: InChI=1S/C28H36O13/c1-34-16-5-12(6-17(35-2)21(16)30)25-14-10-39-26(15(14)11-38-25)13-7-18(36-3)27(19(8-13)37-4)41-28-24(33)23(32)22(31)20(9-29)40-28/h5-8,14-15,20,22-26,28-33H,9-11H2,1-4H3
CH$LINK: INCHIKEY WEKCEGQSIIQPAQ-UHFFFAOYSA-N
AC$INSTRUMENT: LC, Waters Acquity UPLC System; MS, Waters Xevo G2 Q-Tof
AC$INSTRUMENT_TYPE: LC-ESI-QTOF
AC$MASS_SPECTROMETRY: MS_TYPE MS2
AC$MASS_SPECTROMETRY: ION_MODE NEGATIVE
AC$MASS_SPECTROMETRY: COLLISION_ENERGY 6V
AC$MASS_SPECTROMETRY: DESOLVATION_GAS_FLOW 800/h
AC$MASS_SPECTROMETRY: DESOLVATION_TEMPERATURE 450 C
AC$MASS_SPECTROMETRY: IONIZATION ESI
AC$CHROMATOGRAPHY: CAPILLARY_VOLTAGE +3.00 kV
AC$CHROMATOGRAPHY: COLUMN_NAME Acquity bridged ethyl hybrid C18 (1.7 um, 2.1 mm * 100 mm, Waters)
AC$CHROMATOGRAPHY: COLUMN_TEMPERATURE 40 C
AC$CHROMATOGRAPHY: FLOW_GRADIENT A/B = (99.5%/0.5% at 0 min, 99.5%/0.5% at 0.1 min, 20%/80% at 10 min, 0.5%/99.5% at 10.1 min, 0.5%/99.5% at 12.0 min, 99.5%/0.5% at 12.1 min, 99.5%/0.5% at 15.0 min)
AC$CHROMATOGRAPHY: FLOW_RATE 0.3 ml/min at 0 min, 0.3 ml/min at 10 min, 0.4 ml/min at 10.1 min, 0.4 ml/min at 14.4 min, 0.3 ml/min at 14.5 min
AC$CHROMATOGRAPHY: RETENTION_TIME 4.4
AC$CHROMATOGRAPHY: SOLVENT A water including 0.1% formic acid
AC$CHROMATOGRAPHY: SOLVENT B acetonitrile including 0.1% formic acid
MS$FOCUSED_ION: PRECURSOR_TYPE [M-H]-
MS$FOCUSED_ION: PRECURSOR_M/Z 579.209
PK$SPLASH: splash10-014i-0210900000-b74844f010eba0afa7d7
PK$NUM_PEAK: 16
PK$PEAK: m/z int. rel.int.
  101.02494 16.0 55
  166.02708 35.0 120
  181.04791 16.0 55
  182.05072 18.0 62
  209.0873 24.0 82
  212.99767 17.0 58
  224.07092 17.0 58
  353.09531 17.0 58
  387.11099 19.0 65
  402.1319 20.0 69
  403.14078 17.0 58
  417.15659 291.0 999
  418.14194 16.0 55
  418.16983 37.0 127
  579.14313 16.0 55
  579.21228 16.0 55
//
