ACCESSION: MSBNK-RIKEN-PR300034
RECORD_TITLE: Voacristine; LC-ESI-QTOF; MS2
DATE: 2019.03.28
AUTHORS: Tetsuya Mori, Center for Sustainable Resource Science, RIKEN
LICENSE: CC BY-NC-SA
PUBLICATION: Tsugawa H., Nakabayashi R., Mori T., Yamada Y., Takahashi M., Rai A., Sugiyama R., Yamamoto H., Nakaya T., Yamazaki M., Kooke R., Bac-Molenaar JA., Oztolan-Erol N., Keurentjes JJB., Arita M., Saito K. (2019) "A cheminformatics approach to characterize metabolomes in stable-isotope-labeled organisms" Nature Methods 16(4):295-298. [doi:10.1038/s41592-019-0358-2]
COMMENT: registered in RIKEN PlaSMA
CH$NAME: Voacristine
CH$COMPOUND_CLASS: Ibogan-type alkaloids
CH$FORMULA: C22H28N2O4
CH$EXACT_MASS: 384.476
CH$SMILES: COC(=O)[C@@]12C[C@H]3C[C@H]([C@H](C)O)[C@@H]1N(C3)CCC1=C2NC2=C1C=C(OC)C=C2
CH$IUPAC: InChI=1S/C22H28N2O4/c1-12(25)16-8-13-10-22(21(26)28-3)19-15(6-7-24(11-13)20(16)22)17-9-14(27-2)4-5-18(17)23-19/h4-5,9,12-13,16,20,23,25H,6-8,10-11H2,1-3H3/t12-,13+,16+,20-,22+/m0/s1
CH$LINK: INCHIKEY OYMQKBZMKFJPMH-VJMPXSKLSA-N
AC$INSTRUMENT: LC, Waters Acquity UPLC System; MS, Waters Xevo G2 Q-Tof
AC$INSTRUMENT_TYPE: LC-ESI-QTOF
AC$MASS_SPECTROMETRY: MS_TYPE MS2
AC$MASS_SPECTROMETRY: ION_MODE POSITIVE
AC$MASS_SPECTROMETRY: COLLISION_ENERGY 6V
AC$MASS_SPECTROMETRY: DESOLVATION_GAS_FLOW 800/h
AC$MASS_SPECTROMETRY: DESOLVATION_TEMPERATURE 450 C
AC$MASS_SPECTROMETRY: IONIZATION ESI
AC$CHROMATOGRAPHY: CAPILLARY_VOLTAGE +3.00 kV
AC$CHROMATOGRAPHY: COLUMN_NAME Acquity bridged ethyl hybrid C18 (1.7 um, 2.1 mm * 100 mm, Waters)
AC$CHROMATOGRAPHY: COLUMN_TEMPERATURE 40 C
AC$CHROMATOGRAPHY: FLOW_GRADIENT A/B = (99.5%/0.5% at 0 min, 99.5%/0.5% at 0.1 min, 20%/80% at 10 min, 0.5%/99.5% at 10.1 min, 0.5%/99.5% at 12.0 min, 99.5%/0.5% at 12.1 min, 99.5%/0.5% at 15.0 min)
AC$CHROMATOGRAPHY: FLOW_RATE 0.3 ml/min at 0 min, 0.3 ml/min at 10 min, 0.4 ml/min at 10.1 min, 0.4 ml/min at 14.4 min, 0.3 ml/min at 14.5 min
AC$CHROMATOGRAPHY: RETENTION_TIME 4.611467
AC$CHROMATOGRAPHY: SOLVENT A water including 0.1% formic acid
AC$CHROMATOGRAPHY: SOLVENT B acetonitrile including 0.1% formic acid
MS$FOCUSED_ION: PRECURSOR_TYPE [M+H]+
MS$FOCUSED_ION: PRECURSOR_M/Z 385.2121838
PK$SPLASH: splash10-00kr-0339000000-2e4400bf4da40c4a711d
PK$NUM_PEAK: 169
PK$PEAK: m/z int. rel.int.
  91.05503 5.0 5
  93.07268 13.0 13
  98.09859 12.0 12
  107.0829 8.0 8
  107.08748 5.0 5
  108.08012 14.0 14
  110.09735 17.0 17
  112.11242 7.0 7
  119.08889 11.0 11
  120.08655 6.0 6
  122.09721 111.0 111
  123.09887 7.0 7
  134.09869 16.0 16
  135.10466 34.0 34
  136.07677 7.0 7
  136.11165 298.0 298
  137.10855 15.0 15
  137.11633 34.0 34
  146.10036 6.0 6
  147.07977 13.0 13
  148.07498 7.0 7
  148.11334 52.0 52
  158.09618 35.0 35
  160.07654 30.0 30
  162.09535 6.0 6
  172.07658 17.0 17
  174.09099 222.0 222
  175.07916 5.0 5
  175.09642 30.0 30
  177.09009 14.0 14
  180.10791 9.0 9
  184.08064 15.0 15
  185.08218 5.0 5
  186.09137 107.0 107
  187.0858 10.0 10
  187.09637 17.0 17
  188.09164 11.0 11
  188.10866 25.0 25
  189.1028 35.0 35
  192.10281 8.0 8
  194.12086 18.0 18
  197.0872 8.0 8
  198.07793 7.0 7
  198.09111 47.0 47
  199.0954 11.0 11
  200.07471 10.0 10
  200.10855 81.0 81
  201.10057 39.0 39
  201.11003 30.0 30
  202.1097 14.0 14
  203.11656 7.0 7
  206.12303 15.0 15
  207.12433 5.0 5
  210.09218 81.0 81
  211.09315 18.0 18
  212.07338 7.0 7
  212.09229 8.0 8
  212.10658 13.0 13
  213.10934 6.0 6
  214.07281 5.0 5
  214.08675 46.0 46
  215.09615 14.0 14
  215.12093 12.0 12
  218.08102 10.0 10
  224.10826 28.0 28
  225.10484 12.0 12
  226.08682 32.0 32
  227.09128 5.0 5
  228.10489 22.0 22
  232.0977 29.0 29
  233.10083 8.0 8
  236.10687 16.0 16
  237.10625 18.0 18
  238.08861 41.0 41
  239.09036 6.0 6
  239.11836 5.0 5
  240.11243 11.0 11
  240.1311 9.0 9
  244.09576 32.0 32
  245.1026 6.0 6
  246.11339 85.0 85
  249.11288 8.0 8
  250.11954 8.0 8
  251.12068 24.0 24
  252.10773 12.0 12
  252.12862 19.0 19
  253.13448 22.0 22
  254.14343 6.0 6
  258.11328 98.0 98
  259.11758 13.0 13
  260.12961 10.0 10
  261.11807 6.0 6
  264.10086 5.0 5
  264.13986 27.0 27
  264.15875 5.0 5
  265.09531 28.0 28
  265.14313 9.0 9
  266.10901 10.0 10
  266.15369 6.0 6
  268.09583 6.0 6
  268.10898 6.0 6
  269.10608 6.0 6
  270.1138 62.0 62
  271.11826 9.0 9
  272.12265 7.0 7
  272.13608 7.0 7
  276.14133 17.0 17
  277.12744 5.0 5
  277.13956 15.0 15
  278.12708 9.0 9
  278.15445 60.0 60
  279.12085 5.0 5
  279.13849 9.0 9
  279.15274 56.0 56
  280.15369 19.0 19
  281.16177 15.0 15
  282.11356 5.0 5
  284.12775 35.0 35
  285.13348 8.0 8
  290.14862 10.0 10
  291.14413 6.0 6
  291.15897 7.0 7
  292.1235 12.0 12
  292.15939 31.0 31
  293.14972 7.0 7
  293.16223 21.0 21
  294.1633 6.0 6
  295.17737 5.0 5
  296.12732 12.0 12
  298.1348 6.0 6
  306.13644 7.0 7
  307.13187 6.0 6
  307.14771 18.0 18
  307.18167 445.0 445
  308.18594 161.0 161
  309.1795 16.0 16
  309.20081 8.0 8
  311.1351 12.0 12
  311.14822 7.0 7
  312.15201 30.0 30
  313.15527 7.0 7
  317.1629 5.0 5
  320.14377 11.0 11
  320.16196 16.0 16
  321.14178 6.0 6
  324.16092 11.0 11
  335.13837 8.0 8
  335.17627 590.0 589
  336.17844 163.0 163
  337.15524 9.0 9
  337.17047 9.0 9
  337.1857 13.0 13
  338.1655 7.0 7
  338.18225 8.0 8
  339.17911 8.0 8
  339.21332 11.0 11
  352.18344 35.0 35
  353.19019 6.0 6
  365.18317 6.0 6
  367.14755 12.0 12
  367.16977 11.0 11
  367.20215 1000.0 999
  368.14212 5.0 5
  368.16318 10.0 10
  368.20688 272.0 272
  369.20709 32.0 32
  369.22382 8.0 8
  385.17316 14.0 14
  385.21353 642.0 641
//
