ACCESSION: MSBNK-RIKEN-PR300289
RECORD_TITLE: Gelsemine; LC-ESI-QTOF; MS2
DATE: 2019.03.28
AUTHORS: Tetsuya Mori, Center for Sustainable Resource Science, RIKEN
LICENSE: CC BY-NC-SA
PUBLICATION: Tsugawa H., Nakabayashi R., Mori T., Yamada Y., Takahashi M., Rai A., Sugiyama R., Yamamoto H., Nakaya T., Yamazaki M., Kooke R., Bac-Molenaar JA., Oztolan-Erol N., Keurentjes JJB., Arita M., Saito K. (2019) "A cheminformatics approach to characterize metabolomes in stable-isotope-labeled organisms" Nature Methods 16(4):295-298. [doi:10.1038/s41592-019-0358-2]
COMMENT: registered in RIKEN PlaSMA
CH$NAME: Gelsemine
CH$COMPOUND_CLASS: Gelsemium alkaloids
CH$FORMULA: C20H22N2O2
CH$EXACT_MASS: 322.408
CH$SMILES: CN1C[C@@]2(C=C)C3C[C@H]4OC[C@@H]3[C@@H]1[C@@H]2[C@@]41C(O)=NC2=CC=CC=C12
CH$IUPAC: InChI=1S/C20H22N2O2/c1-3-19-10-22(2)16-11-9-24-15(8-13(11)19)20(17(16)19)12-6-4-5-7-14(12)21-18(20)23/h3-7,11,13,15-17H,1,8-10H2,2H3,(H,21,23)/t11-,13?,15+,16+,17-,19-,20-/m0/s1
CH$LINK: INCHIKEY NFYYATWFXNPTRM-ICFOCEFXSA-N
AC$INSTRUMENT: LC, Waters Acquity UPLC System; MS, Waters Xevo G2 Q-Tof
AC$INSTRUMENT_TYPE: LC-ESI-QTOF
AC$MASS_SPECTROMETRY: MS_TYPE MS2
AC$MASS_SPECTROMETRY: ION_MODE POSITIVE
AC$MASS_SPECTROMETRY: COLLISION_ENERGY 6V
AC$MASS_SPECTROMETRY: DESOLVATION_GAS_FLOW 800/h
AC$MASS_SPECTROMETRY: DESOLVATION_TEMPERATURE 450 C
AC$MASS_SPECTROMETRY: IONIZATION ESI
AC$CHROMATOGRAPHY: CAPILLARY_VOLTAGE +3.00 kV
AC$CHROMATOGRAPHY: COLUMN_NAME Acquity bridged ethyl hybrid C18 (1.7 um, 2.1 mm * 100 mm, Waters)
AC$CHROMATOGRAPHY: COLUMN_TEMPERATURE 40 C
AC$CHROMATOGRAPHY: FLOW_GRADIENT A/B = (99.5%/0.5% at 0 min, 99.5%/0.5% at 0.1 min, 20%/80% at 10 min, 0.5%/99.5% at 10.1 min, 0.5%/99.5% at 12.0 min, 99.5%/0.5% at 12.1 min, 99.5%/0.5% at 15.0 min)
AC$CHROMATOGRAPHY: FLOW_RATE 0.3 ml/min at 0 min, 0.3 ml/min at 10 min, 0.4 ml/min at 10.1 min, 0.4 ml/min at 14.4 min, 0.3 ml/min at 14.5 min
AC$CHROMATOGRAPHY: RETENTION_TIME 3.21075
AC$CHROMATOGRAPHY: SOLVENT A water including 0.1% formic acid
AC$CHROMATOGRAPHY: SOLVENT B acetonitrile including 0.1% formic acid
MS$FOCUSED_ION: PRECURSOR_TYPE [M+H]+
MS$FOCUSED_ION: PRECURSOR_M/Z 323.1754044
PK$SPLASH: splash10-00dr-3983000000-ff75742e74105408a77c
PK$NUM_PEAK: 222
PK$PEAK: m/z int. rel.int.
  58.06597 14.0 14
  68.04923 6.0 6
  70.04436 5.0 5
  70.04887 11.0 11
  70.06516 680.0 679
  71.0698 40.0 40
  72.08224 12.0 12
  86.04195 6.0 6
  86.05954 58.0 58
  87.06461 5.0 5
  88.0724 22.0 22
  91.05506 41.0 41
  91.05997 11.0 11
  93.07076 10.0 10
  94.06704 12.0 12
  94.0777 6.0 6
  96.08199 20.0 20
  97.08844 8.0 8
  97.81821 6.0 6
  105.06789 31.0 31
  105.07608 8.0 8
  107.07266 13.0 13
  108.08386 12.0 12
  110.08426 8.0 8
  115.05441 10.0 10
  116.06157 10.0 10
  117.066 46.0 46
  117.07166 83.0 83
  118.06503 13.0 13
  118.07481 12.0 12
  120.07917 12.0 12
  122.09289 7.0 7
  123.06885 6.0 6
  128.0481 5.0 5
  129.0518 6.0 6
  129.05988 5.0 5
  129.07195 20.0 20
  130.06238 14.0 14
  130.06984 11.0 11
  131.04651 7.0 7
  131.07098 18.0 18
  131.08435 131.0 131
  132.04289 67.0 67
  132.08441 24.0 24
  133.05417 6.0 6
  133.06375 8.0 8
  133.0851 12.0 12
  134.05241 7.0 7
  134.0598 20.0 20
  134.06703 11.0 11
  134.09294 54.0 54
  134.09909 33.0 33
  135.05742 8.0 8
  135.10042 10.0 10
  136.11128 9.0 9
  144.06091 14.0 14
  146.03999 10.0 10
  146.06044 147.0 147
  146.09232 22.0 22
  147.06511 5.0 5
  147.08392 5.0 5
  147.1022 17.0 17
  148.06827 7.0 7
  148.07936 10.0 10
  148.11154 52.0 52
  148.12274 6.0 6
  149.08327 10.0 10
  149.08961 5.0 5
  149.1077 6.0 6
  150.08133 12.0 12
  150.08978 29.0 29
  154.06972 7.0 7
  158.03934 6.0 6
  158.06024 161.0 161
  159.07297 65.0 65
  159.08237 78.0 78
  160.06276 8.0 8
  160.07097 12.0 12
  160.08069 17.0 17
  160.10355 8.0 8
  160.1151 18.0 18
  161.0883 8.0 8
  161.10706 8.0 8
  161.12057 7.0 7
  162.05461 10.0 10
  162.11534 8.0 8
  162.12643 23.0 23
  163.10147 7.0 7
  164.10069 6.0 6
  165.11484 12.0 12
  166.06509 13.0 13
  166.07861 5.0 5
  167.07542 7.0 7
  170.05688 8.0 8
  172.07278 10.0 10
  176.06088 5.0 5
  176.11145 8.0 8
  176.12608 5.0 5
  178.06308 70.0 70
  178.11699 7.0 7
  178.12166 18.0 18
  179.07031 14.0 14
  180.08003 18.0 18
  180.08928 6.0 6
  181.08762 9.0 9
  182.05466 9.0 9
  183.06725 21.0 21
  183.10715 8.0 8
  184.07112 44.0 44
  184.08287 28.0 28
  184.09361 6.0 6
  185.07336 12.0 12
  190.06429 8.0 8
  190.12024 75.0 75
  191.08052 5.0 5
  191.11693 6.0 6
  191.12775 31.0 31
  191.13675 10.0 10
  192.07024 10.0 10
  192.07974 7.0 7
  193.07207 5.0 5
  193.08981 9.0 9
  194.09119 8.0 8
  195.06738 338.0 338
  195.1077 6.0 6
  196.07506 231.0 231
  197.06662 16.0 16
  197.07695 26.0 26
  197.0899 19.0 19
  198.08841 26.0 26
  198.09871 6.0 6
  202.08293 5.0 5
  203.07356 16.0 16
  204.0808 8.0 8
  205.08766 7.0 7
  208.05946 5.0 5
  208.07516 75.0 75
  208.12688 6.0 6
  209.08121 30.0 30
  210.0688 8.0 8
  210.09151 203.0 203
  210.12823 8.0 8
  211.09854 19.0 19
  216.08286 12.0 12
  217.08423 12.0 12
  217.09296 15.0 15
  218.06319 8.0 8
  218.09581 228.0 228
  219.08203 19.0 19
  219.09306 14.0 14
  219.10263 20.0 20
  220.09331 24.0 24
  220.11429 35.0 35
  221.07988 7.0 7
  221.11507 11.0 11
  221.12363 9.0 9
  222.09117 30.0 30
  224.10269 8.0 8
  224.23395 5.0 5
  225.10513 11.0 11
  229.92856 6.0 6
  230.09401 8.0 8
  232.08484 6.0 6
  233.08498 22.0 22
  234.07671 6.0 6
  234.09134 27.0 27
  234.10149 7.0 7
  234.13062 7.0 7
  234.99756 5.0 5
  235.08835 8.0 8
  236.06554 6.0 6
  236.10674 868.0 867
  237.09253 13.0 13
  237.11087 132.0 132
  238.07271 6.0 6
  238.10167 32.0 32
  238.1218 219.0 219
  239.12439 28.0 28
  241.08447 9.0 9
  244.10359 12.0 12
  244.11382 14.0 14
  245.08264 10.0 10
  246.07692 12.0 12
  246.08998 6.0 6
  246.13205 24.0 24
  247.09996 18.0 18
  248.10503 41.0 41
  248.11659 7.0 7
  249.10573 19.0 19
  250.1236 20.0 20
  251.08386 7.0 7
  251.09856 10.0 10
  251.11514 21.0 21
  253.11935 7.0 7
  253.13324 6.0 6
  254.10593 8.0 8
  256.11377 22.0 22
  257.10394 6.0 6
  258.09045 7.0 7
  260.10547 10.0 10
  261.09644 7.0 7
  262.12311 37.0 37
  263.10233 7.0 7
  263.12592 5.0 5
  264.14719 6.0 6
  266.12363 5.0 5
  274.10736 5.0 5
  274.12189 27.0 27
  279.14301 7.0 7
  280.13983 7.0 7
  281.13037 6.0 6
  281.17148 6.0 6
  291.15906 5.0 5
  292.12537 17.0 17
  293.16074 12.0 12
  294.16168 7.0 7
  295.14511 7.0 7
  295.16644 7.0 7
  308.14954 5.0 5
  323.12039 5.0 5
  323.1745 1000.0 999
  323.35635 5.0 5
//
