ACCESSION: MSBNK-RIKEN-PR310852
RECORD_TITLE: Hexose + C4H5N3O2; LC-ESI-QTOF; MS2
DATE: 2019.03.28
AUTHORS: Tetsuya Mori, Center for Sustainable Resource Science, RIKEN
LICENSE: CC BY-NC-SA
PUBLICATION: Tsugawa H., Nakabayashi R., Mori T., Yamada Y., Takahashi M., Rai A., Sugiyama R., Yamamoto H., Nakaya T., Yamazaki M., Kooke R., Bac-Molenaar JA., Oztolan-Erol N., Keurentjes JJB., Arita M., Saito K. (2019) "A cheminformatics approach to characterize metabolomes in stable-isotope-labeled organisms" Nature Methods 16(4):295-298. [doi:10.1038/s41592-019-0358-2]
COMMENT: Annotation level-3
CH$NAME: Hexose + C4H5N3O2
CH$COMPOUND_CLASS: Isouramil O-glycosides
CH$FORMULA: C10H15N3O8
CH$EXACT_MASS: 305.243
CH$SMILES: O=C2NC(=O)C(OC1OC(CO)C(O)C(O)C1(O))=C(N)N2
CH$IUPAC: InChI=1S/C10H15N3O8/c11-7-6(8(18)13-10(19)12-7)21-9-5(17)4(16)3(15)2(1-14)20-9/h2-5,9,14-17H,1H2,(H4,11,12,13,18,19)
CH$LINK: INCHIKEY JJWYIMQKLTVAGZ-UHFFFAOYSA-N
AC$INSTRUMENT: LC, Waters Acquity UPLC System; MS, Waters Xevo G2 Q-Tof
AC$INSTRUMENT_TYPE: LC-ESI-QTOF
AC$MASS_SPECTROMETRY: MS_TYPE MS2
AC$MASS_SPECTROMETRY: ION_MODE POSITIVE
AC$MASS_SPECTROMETRY: COLLISION_ENERGY 6V
AC$MASS_SPECTROMETRY: DESOLVATION_GAS_FLOW 800/h
AC$MASS_SPECTROMETRY: DESOLVATION_TEMPERATURE 450 C
AC$MASS_SPECTROMETRY: IONIZATION ESI
AC$CHROMATOGRAPHY: CAPILLARY_VOLTAGE +3.00 kV
AC$CHROMATOGRAPHY: COLUMN_NAME Acquity bridged ethyl hybrid C18 (1.7 um, 2.1 mm * 100 mm, Waters)
AC$CHROMATOGRAPHY: COLUMN_TEMPERATURE 40 C
AC$CHROMATOGRAPHY: FLOW_GRADIENT A/B = (99.5%/0.5% at 0 min, 99.5%/0.5% at 0.1 min, 20%/80% at 10 min, 0.5%/99.5% at 10.1 min, 0.5%/99.5% at 12.0 min, 99.5%/0.5% at 12.1 min, 99.5%/0.5% at 15.0 min)
AC$CHROMATOGRAPHY: FLOW_RATE 0.3 ml/min at 0 min, 0.3 ml/min at 10 min, 0.4 ml/min at 10.1 min, 0.4 ml/min at 14.4 min, 0.3 ml/min at 14.5 min
AC$CHROMATOGRAPHY: RETENTION_TIME 2.01
AC$CHROMATOGRAPHY: SOLVENT A water including 0.1% formic acid
AC$CHROMATOGRAPHY: SOLVENT B acetonitrile including 0.1% formic acid
MS$FOCUSED_ION: PRECURSOR_TYPE [M+H]+
MS$FOCUSED_ION: PRECURSOR_M/Z 306.1012
PK$SPLASH: splash10-0a4l-0906000000-6a078d4aa3525259f38d
PK$NUM_PEAK: 18
PK$PEAK: m/z int. rel.int.
  69.02895 21.0 25
  69.03559 20.0 23
  85.03021 49.0 57
  126.03477 249.0 291
  127.03532 50.0 58
  127.04935 16.0 19
  129.03316 18.0 21
  144.04893 784.0 916
  145.04263 17.0 20
  145.05266 20.0 23
  146.04129 41.0 48
  146.04922 27.0 32
  186.06496 16.0 19
  186.07321 17.0 20
  201.95633 18.0 21
  215.9668 17.0 20
  228.30536 17.0 20
  306.1011 855.0 999
//
