ACCESSION: MSBNK-RIKEN-PR304203
RECORD_TITLE: Triacetyl resveratrol; LC-ESI-QTOF; MS2
DATE: 2019.03.28
AUTHORS: Tetsuya Mori, Center for Sustainable Resource Science, RIKEN
LICENSE: CC BY-NC-SA
PUBLICATION: Tsugawa H., Nakabayashi R., Mori T., Yamada Y., Takahashi M., Rai A., Sugiyama R., Yamamoto H., Nakaya T., Yamazaki M., Kooke R., Bac-Molenaar JA., Oztolan-Erol N., Keurentjes JJB., Arita M., Saito K. (2019) "A cheminformatics approach to characterize metabolomes in stable-isotope-labeled organisms" Nature Methods 16(4):295-298. [doi:10.1038/s41592-019-0358-2]
COMMENT: registered in RIKEN PlaSMA
CH$NAME: Triacetyl resveratrol
CH$COMPOUND_CLASS: Stilbenes
CH$FORMULA: C20H18O6
CH$EXACT_MASS: 354.358
CH$SMILES: CC(=O)OC1=CC=C(\C=C\C2=CC(OC(C)=O)=CC(OC(C)=O)=C2)C=C1
CH$IUPAC: InChI=1S/C20H18O6/c1-13(21)24-18-8-6-16(7-9-18)4-5-17-10-19(25-14(2)22)12-20(11-17)26-15(3)23/h4-12H,1-3H3/b5-4+
CH$LINK: INCHIKEY PDAYUJSOJIMKIS-SNAWJCMRSA-N
AC$INSTRUMENT: LC, Waters Acquity UPLC System; MS, Waters Xevo G2 Q-Tof
AC$INSTRUMENT_TYPE: LC-ESI-QTOF
AC$MASS_SPECTROMETRY: MS_TYPE MS2
AC$MASS_SPECTROMETRY: ION_MODE POSITIVE
AC$MASS_SPECTROMETRY: COLLISION_ENERGY 6V
AC$MASS_SPECTROMETRY: DESOLVATION_GAS_FLOW 800/h
AC$MASS_SPECTROMETRY: DESOLVATION_TEMPERATURE 450 C
AC$MASS_SPECTROMETRY: IONIZATION ESI
AC$CHROMATOGRAPHY: CAPILLARY_VOLTAGE +3.00 kV
AC$CHROMATOGRAPHY: COLUMN_NAME Acquity bridged ethyl hybrid C18 (1.7 um, 2.1 mm * 100 mm, Waters)
AC$CHROMATOGRAPHY: COLUMN_TEMPERATURE 40 C
AC$CHROMATOGRAPHY: FLOW_GRADIENT A/B = (99.5%/0.5% at 0 min, 99.5%/0.5% at 0.1 min, 20%/80% at 10 min, 0.5%/99.5% at 10.1 min, 0.5%/99.5% at 12.0 min, 99.5%/0.5% at 12.1 min, 99.5%/0.5% at 15.0 min)
AC$CHROMATOGRAPHY: FLOW_RATE 0.3 ml/min at 0 min, 0.3 ml/min at 10 min, 0.4 ml/min at 10.1 min, 0.4 ml/min at 14.4 min, 0.3 ml/min at 14.5 min
AC$CHROMATOGRAPHY: RETENTION_TIME 8.4558
AC$CHROMATOGRAPHY: SOLVENT A water including 0.1% formic acid
AC$CHROMATOGRAPHY: SOLVENT B acetonitrile including 0.1% formic acid
MS$FOCUSED_ION: PRECURSOR_TYPE [M+H]+
MS$FOCUSED_ION: PRECURSOR_M/Z 355.1176148
PK$SPLASH: splash10-0aor-1900000000-ed3872f0debf1c088b0c
PK$NUM_PEAK: 99
PK$PEAK: m/z int. rel.int.
  67.05283 7.0 7
  68.99541 6.0 6
  77.03835 43.0 43
  77.04253 11.0 11
  79.04919 11.0 11
  79.05476 31.0 31
  91.05482 301.0 301
  92.05923 15.0 15
  93.03352 19.0 19
  94.03535 7.0 7
  95.04717 7.0 7
  105.06911 10.0 10
  106.75839 6.0 6
  107.04888 1000.0 999
  108.04867 30.0 30
  108.05363 92.0 92
  109.03065 16.0 16
  111.03961 23.0 23
  111.04516 17.0 17
  115.0328 5.0 5
  115.0529 23.0 23
  116.06149 7.0 7
  117.06993 8.0 8
  119.0499 130.0 130
  120.05736 136.0 136
  121.0271 95.0 95
  121.05944 22.0 22
  122.02533 6.0 6
  123.03871 17.0 17
  123.04543 35.0 35
  127.05416 15.0 15
  128.0611 9.0 9
  129.06636 31.0 31
  131.05009 15.0 15
  131.0862 14.0 14
  132.06093 6.0 6
  133.06465 10.0 10
  134.03195 6.0 6
  134.04608 6.0 6
  135.03909 48.0 48
  135.04544 160.0 160
  136.03149 7.0 7
  136.05171 112.0 112
  137.01665 7.0 7
  141.07082 69.0 69
  142.07344 12.0 12
  143.04904 7.0 7
  143.23967 5.0 5
  144.05829 9.0 9
  145.06088 42.0 42
  145.0672 15.0 15
  145.09912 6.0 6
  146.06821 8.0 8
  149.05757 6.0 6
  152.06157 8.0 8
  152.06757 9.0 9
  152.07603 5.0 5
  153.06938 119.0 119
  154.0755 39.0 39
  155.08574 82.0 82
  156.08173 5.0 5
  156.08757 16.0 16
  157.06741 29.0 29
  158.07036 10.0 10
  159.07957 9.0 9
  160.05022 15.0 15
  161.05817 19.0 19
  161.09436 8.0 8
  165.0703 382.0 382
  166.07051 46.0 46
  166.07964 26.0 26
  168.05707 41.0 41
  169.05853 16.0 16
  169.06647 6.0 6
  171.03685 8.0 8
  178.07362 6.0 6
  181.06155 53.0 53
  181.07155 25.0 25
  182.0654 13.0 13
  182.07568 15.0 15
  183.06932 15.0 15
  183.08095 63.0 63
  186.06973 7.0 7
  187.06827 7.0 7
  193.0609 11.0 11
  193.0685 12.0 12
  193.08214 7.0 7
  194.07242 13.0 13
  197.05545 9.0 9
  197.0634 13.0 13
  199.07462 24.0 24
  200.07454 6.0 6
  210.06172 12.0 12
  211.06496 15.0 15
  211.07436 39.0 39
  212.0834 9.0 9
  213.04639 12.0 12
  214.05215 5.0 5
  227.0697 34.0 34
//
