ACCESSION: MSBNK-RIKEN-PR300617
RECORD_TITLE: Mesaconitine; LC-ESI-QTOF; MS2
DATE: 2019.03.28
AUTHORS: Tetsuya Mori, Center for Sustainable Resource Science, RIKEN
LICENSE: CC BY-NC-SA
PUBLICATION: Tsugawa H., Nakabayashi R., Mori T., Yamada Y., Takahashi M., Rai A., Sugiyama R., Yamamoto H., Nakaya T., Yamazaki M., Kooke R., Bac-Molenaar JA., Oztolan-Erol N., Keurentjes JJB., Arita M., Saito K. (2019) "A cheminformatics approach to characterize metabolomes in stable-isotope-labeled organisms" Nature Methods 16(4):295-298. [doi:10.1038/s41592-019-0358-2]
COMMENT: registered in RIKEN PlaSMA
CH$NAME: Mesaconitine
CH$COMPOUND_CLASS: Aconitane-type diterpenoid alkaloids
CH$FORMULA: C33H45NO11
CH$EXACT_MASS: 631.719
CH$SMILES: COC[C@]12CN(C)C3[C@@H]4[C@H](OC)[C@H]1[C@]3([C@@H]1C[C@@]3(O)[C@H](OC(=O)C5=CC=CC=C5)[C@@H]1[C@]4(OC(C)=O)[C@@H](O)[C@@H]3OC)[C@H](C[C@H]2O)OC
CH$IUPAC: InChI=1S/C33H45NO11/c1-16(35)45-33-21-18(13-31(39,28(43-6)26(33)37)27(21)44-29(38)17-10-8-7-9-11-17)32-20(41-4)12-19(36)30(15-40-3)14-34(2)25(32)22(33)23(42-5)24(30)32/h7-11,18-28,36-37,39H,12-15H2,1-6H3/t18-,19-,20+,21-,22+,23+,24-,25?,26+,27-,28+,30+,31-,32+,33-/m1/s1
CH$LINK: INCHIKEY XUHJBXVYNBQQBD-TUWOXVOMSA-N
AC$INSTRUMENT: LC, Waters Acquity UPLC System; MS, Waters Xevo G2 Q-Tof
AC$INSTRUMENT_TYPE: LC-ESI-QTOF
AC$MASS_SPECTROMETRY: MS_TYPE MS2
AC$MASS_SPECTROMETRY: ION_MODE POSITIVE
AC$MASS_SPECTROMETRY: COLLISION_ENERGY 6V
AC$MASS_SPECTROMETRY: DESOLVATION_GAS_FLOW 800/h
AC$MASS_SPECTROMETRY: DESOLVATION_TEMPERATURE 450 C
AC$MASS_SPECTROMETRY: IONIZATION ESI
AC$CHROMATOGRAPHY: CAPILLARY_VOLTAGE +3.00 kV
AC$CHROMATOGRAPHY: COLUMN_NAME Acquity bridged ethyl hybrid C18 (1.7 um, 2.1 mm * 100 mm, Waters)
AC$CHROMATOGRAPHY: COLUMN_TEMPERATURE 40 C
AC$CHROMATOGRAPHY: FLOW_GRADIENT A/B = (99.5%/0.5% at 0 min, 99.5%/0.5% at 0.1 min, 20%/80% at 10 min, 0.5%/99.5% at 10.1 min, 0.5%/99.5% at 12.0 min, 99.5%/0.5% at 12.1 min, 99.5%/0.5% at 15.0 min)
AC$CHROMATOGRAPHY: FLOW_RATE 0.3 ml/min at 0 min, 0.3 ml/min at 10 min, 0.4 ml/min at 10.1 min, 0.4 ml/min at 14.4 min, 0.3 ml/min at 14.5 min
AC$CHROMATOGRAPHY: RETENTION_TIME 5.611533
AC$CHROMATOGRAPHY: SOLVENT A water including 0.1% formic acid
AC$CHROMATOGRAPHY: SOLVENT B acetonitrile including 0.1% formic acid
MS$FOCUSED_ION: PRECURSOR_TYPE [M+H]+
MS$FOCUSED_ION: PRECURSOR_M/Z 632.3065377
PK$SPLASH: splash10-0a4i-0973220000-a7e5ba35777e503e1311
PK$NUM_PEAK: 555
PK$PEAK: m/z int. rel.int.
  58.06709 14.0 14
  71.05003 10.0 10
  75.04423 25.0 25
  77.03718 11.0 11
  77.04121 14.0 14
  79.05754 10.0 10
  81.06901 7.0 7
  82.06581 13.0 13
  84.05103 5.0 5
  85.02736 11.0 11
  87.04931 8.0 8
  88.07278 7.0 7
  88.07787 11.0 11
  91.05111 10.0 10
  91.05709 10.0 10
  94.06516 15.0 15
  96.08102 19.0 19
  100.07711 8.0 8
  104.06051 5.0 5
  105.03382 1000.0 999
  105.07023 24.0 24
  106.03677 84.0 84
  107.03985 8.0 8
  107.04898 8.0 8
  108.07935 25.0 25
  109.05981 9.0 9
  109.06506 26.0 26
  109.0721 6.0 6
  109.08636 6.0 6
  110.06989 5.0 5
  111.04532 9.0 9
  111.08177 68.0 68
  113.08487 9.0 9
  113.09258 7.0 7
  115.05322 5.0 5
  117.072 53.0 53
  118.07705 5.0 5
  119.05046 10.0 10
  119.07661 7.0 7
  121.06503 15.0 15
  122.07072 5.0 5
  123.04471 8.0 8
  123.04964 10.0 10
  123.07328 7.0 7
  124.07151 13.0 13
  126.09187 19.0 19
  129.06569 13.0 13
  129.07401 18.0 18
  130.06807 6.0 6
  131.08389 25.0 25
  132.077 12.0 12
  132.08804 15.0 15
  132.09352 5.0 5
  133.02985 8.0 8
  133.10394 6.0 6
  134.10028 9.0 9
  135.04422 8.0 8
  135.08078 18.0 18
  137.04973 7.0 7
  137.06055 22.0 22
  138.0699 11.0 11
  138.08876 44.0 44
  139.09549 9.0 9
  141.07118 20.0 20
  141.0938 7.0 7
  143.07628 6.0 6
  144.0773 12.0 12
  144.08447 21.0 21
  145.05763 7.0 7
  145.06303 23.0 23
  145.08521 8.0 8
  145.09235 6.0 6
  146.03592 8.0 8
  146.06046 9.0 9
  146.09225 13.0 13
  147.03813 21.0 21
  147.04993 7.0 7
  147.06123 6.0 6
  147.08282 27.0 27
  148.06783 7.0 7
  148.07536 25.0 25
  149.06355 8.0 8
  150.09235 11.0 11
  152.10127 8.0 8
  153.05264 5.0 5
  153.06772 15.0 15
  153.07332 9.0 9
  154.07187 13.0 13
  155.04515 6.0 6
  155.08018 9.0 9
  155.08807 5.0 5
  156.09087 7.0 7
  157.092 12.0 12
  157.10501 5.0 5
  158.07149 11.0 11
  158.09489 25.0 25
  159.04762 5.0 5
  159.08279 29.0 29
  159.09911 5.0 5
  160.07385 90.0 90
  160.11099 6.0 6
  161.02063 6.0 6
  161.07167 11.0 11
  161.08195 24.0 24
  161.09589 18.0 18
  163.07632 13.0 13
  164.10172 9.0 9
  164.10805 36.0 36
  165.0444 8.0 8
  165.05202 7.0 7
  165.06992 34.0 34
  165.08817 5.0 5
  165.09531 8.0 8
  165.11086 9.0 9
  166.06937 6.0 6
  166.07874 11.0 11
  167.07611 6.0 6
  167.08459 21.0 21
  167.09679 8.0 8
  168.08943 6.0 6
  169.0647 21.0 21
  169.08937 7.0 7
  170.07018 7.0 7
  170.09003 9.0 9
  170.09846 20.0 20
  171.07553 26.0 26
  171.08836 8.0 8
  171.10489 18.0 18
  172.07892 9.0 9
  172.11353 43.0 43
  173.06053 18.0 18
  173.07524 6.0 6
  173.09602 6.0 6
  173.11174 5.0 5
  174.05124 28.0 28
  174.07071 9.0 9
  175.05118 10.0 10
  175.06564 15.0 15
  175.07962 5.0 5
  176.06685 10.0 10
  176.07674 32.0 32
  176.11374 15.0 15
  177.05315 6.0 6
  177.06297 11.0 11
  177.11928 8.0 8
  178.06932 6.0 6
  178.07761 7.0 7
  178.09366 7.0 7
  178.11977 7.0 7
  179.08334 35.0 35
  179.10515 6.0 6
  180.09579 5.0 5
  180.10956 6.0 6
  181.06696 6.0 6
  181.09113 15.0 15
  181.10332 10.0 10
  182.08983 11.0 11
  182.10147 20.0 20
  183.04279 5.0 5
  183.08383 9.0 9
  183.10356 8.0 8
  184.11751 7.0 7
  185.05966 12.0 12
  185.0914 7.0 7
  186.09277 13.0 13
  187.07124 11.0 11
  187.10175 7.0 7
  188.07568 6.0 6
  188.10628 29.0 29
  189.069 14.0 14
  189.08861 7.0 7
  190.07954 19.0 19
  190.08992 13.0 13
  190.11963 15.0 15
  191.07442 7.0 7
  191.08023 13.0 13
  191.08928 16.0 16
  192.09132 21.0 21
  193.05859 9.0 9
  193.06929 6.0 6
  193.10451 28.0 28
  193.11414 8.0 8
  194.06995 5.0 5
  194.09586 10.0 10
  194.10849 9.0 9
  195.08026 31.0 31
  195.10738 14.0 14
  195.12462 8.0 8
  196.08228 11.0 11
  196.09196 7.0 7
  196.11009 5.0 5
  197.06517 9.0 9
  197.09929 23.0 23
  197.11859 7.0 7
  197.12682 5.0 5
  199.07143 13.0 13
  200.08946 10.0 10
  200.11435 8.0 8
  201.07289 9.0 9
  202.05527 8.0 8
  202.06856 10.0 10
  202.08017 24.0 24
  202.09163 18.0 18
  202.10968 6.0 6
  202.11995 9.0 9
  202.99538 5.0 5
  203.06686 7.0 7
  203.07648 13.0 13
  203.08833 28.0 28
  203.12764 10.0 10
  204.0856 18.0 18
  204.09509 20.0 20
  204.1367 52.0 52
  204.14711 37.0 37
  205.0943 27.0 27
  205.10481 42.0 42
  205.13921 10.0 10
  206.06895 8.0 8
  206.08522 9.0 9
  206.09776 14.0 14
  206.11577 18.0 18
  206.72382 5.0 5
  207.07529 11.0 11
  207.08374 23.0 23
  207.12061 24.0 24
  208.0891 10.0 10
  208.11504 24.0 24
  209.08813 15.0 15
  209.09787 11.0 11
  209.11755 9.0 9
  211.10162 10.0 10
  212.12532 5.0 5
  213.09572 10.0 10
  213.11562 5.0 5
  214.06853 6.0 6
  214.1218 8.0 8
  214.12993 7.0 7
  215.07153 10.0 10
  215.08467 23.0 23
  215.09404 11.0 11
  216.09134 14.0 14
  216.10419 7.0 7
  216.1149 8.0 8
  217.07195 6.0 6
  217.08101 13.0 13
  217.0977 29.0 29
  217.11058 12.0 12
  218.06813 11.0 11
  218.09697 7.0 7
  218.10721 10.0 10
  219.07437 20.0 20
  219.09122 6.0 6
  220.08383 18.0 18
  220.13286 6.0 6
  221.05571 6.0 6
  221.09502 17.0 17
  221.10593 8.0 8
  221.12473 8.0 8
  222.06207 11.0 11
  222.07358 8.0 8
  222.09621 5.0 5
  222.12346 7.0 7
  222.14127 7.0 7
  223.06796 8.0 8
  223.11177 31.0 31
  223.1235 12.0 12
  223.15604 6.0 6
  224.10741 8.0 8
  224.11855 10.0 10
  225.08362 5.0 5
  225.09377 5.0 5
  225.11642 10.0 10
  226.09433 9.0 9
  226.12302 16.0 16
  227.07692 7.0 7
  227.11078 11.0 11
  227.12801 7.0 7
  229.10919 6.0 6
  230.12117 11.0 11
  231.08345 20.0 20
  232.08136 7.0 7
  232.09293 11.0 11
  232.10951 5.0 5
  233.09464 69.0 69
  233.11427 12.0 12
  234.09288 16.0 16
  234.10686 12.0 12
  234.13383 10.0 10
  234.14272 6.0 6
  235.07434 37.0 37
  235.10252 8.0 8
  235.1143 19.0 19
  235.12579 11.0 11
  236.08864 13.0 13
  236.1127 19.0 19
  236.1424 10.0 10
  237.09314 26.0 26
  237.12448 16.0 16
  237.13319 15.0 15
  238.09883 9.0 9
  238.11115 17.0 17
  238.12073 8.0 8
  239.10269 10.0 10
  239.12788 5.0 5
  240.12515 6.0 6
  240.14085 9.0 9
  241.08798 9.0 9
  241.14565 8.0 8
  244.08308 6.0 6
  245.0975 24.0 24
  246.06824 7.0 7
  246.10364 7.0 7
  246.12814 8.0 8
  247.06378 7.0 7
  247.07599 17.0 17
  247.08501 9.0 9
  247.1124 17.0 17
  247.12076 9.0 9
  248.08553 12.0 12
  248.11119 9.0 9
  248.15236 11.0 11
  249.09163 21.0 21
  249.10222 12.0 12
  249.12875 19.0 19
  250.08577 5.0 5
  250.0981 19.0 19
  250.10835 8.0 8
  250.12305 15.0 15
  251.10202 66.0 66
  251.13838 9.0 9
  252.10909 7.0 7
  252.1321 19.0 19
  253.1106 8.0 8
  253.123 13.0 13
  253.1351 7.0 7
  254.10825 6.0 6
  254.84549 6.0 6
  255.1662 7.0 7
  257.09061 6.0 6
  259.0777 6.0 6
  259.0892 9.0 9
  259.10052 17.0 17
  260.07895 8.0 8
  260.11969 9.0 9
  261.08878 78.0 78
  261.10764 13.0 13
  262.09573 11.0 11
  262.11267 9.0 9
  262.1228 8.0 8
  263.10803 32.0 32
  263.13138 8.0 8
  264.08212 5.0 5
  264.10312 17.0 17
  265.10358 10.0 10
  265.12549 30.0 30
  266.12204 30.0 30
  266.13879 5.0 5
  267.09613 9.0 9
  267.10913 8.0 8
  267.12451 6.0 6
  267.13925 6.0 6
  268.1073 10.0 10
  268.16437 5.0 5
  269.11401 7.0 7
  269.1235 6.0 6
  270.11932 8.0 8
  270.14868 9.0 9
  273.0788 6.0 6
  274.11478 5.0 5
  275.10556 14.0 14
  276.12897 21.0 21
  276.15237 11.0 11
  277.11285 11.0 11
  277.13666 12.0 12
  277.14874 9.0 9
  279.10245 26.0 26
  279.13403 11.0 11
  280.10138 6.0 6
  280.11905 9.0 9
  280.13248 20.0 20
  281.11411 9.0 9
  282.14764 26.0 26
  283.12006 7.0 7
  284.15607 10.0 10
  284.16785 8.0 8
  286.12335 11.0 11
  287.12259 7.0 7
  290.08072 7.0 7
  290.10382 5.0 5
  291.10483 12.0 12
  291.13184 9.0 9
  292.12265 15.0 15
  292.13803 23.0 23
  293.11829 36.0 36
  294.11789 7.0 7
  294.12933 19.0 19
  294.14801 18.0 18
  294.15723 13.0 13
  295.11456 6.0 6
  295.13608 15.0 15
  295.15378 25.0 25
  296.10062 5.0 5
  296.13913 9.0 9
  296.17377 7.0 7
  298.16232 12.0 12
  304.12799 21.0 21
  304.14407 5.0 5
  305.13266 8.0 8
  306.12415 8.0 8
  308.15451 9.0 9
  308.16345 28.0 28
  309.13449 8.0 8
  310.14621 13.0 13
  310.16779 5.0 5
  311.1189 5.0 5
  311.14423 5.0 5
  312.19199 14.0 14
  314.18137 8.0 8
  322.14206 15.0 15
  324.12122 10.0 10
  324.16226 10.0 10
  325.13922 18.0 18
  325.17032 8.0 8
  326.15781 24.0 24
  326.17749 67.0 67
  326.19031 22.0 22
  327.15485 6.0 6
  327.16977 12.0 12
  327.18585 7.0 7
  330.20367 8.0 8
  330.2186 6.0 6
  334.14301 8.0 8
  336.15689 30.0 30
  336.16754 16.0 16
  337.13766 7.0 7
  337.15839 8.0 8
  337.16995 10.0 10
  339.14972 5.0 5
  340.16476 14.0 14
  340.18365 71.0 71
  340.19684 36.0 36
  340.20776 19.0 19
  341.17953 8.0 8
  341.19949 16.0 16
  342.18732 7.0 7
  344.2149 12.0 12
  354.03876 5.0 5
  354.17117 407.0 407
  355.13535 6.0 6
  355.16788 90.0 90
  355.18558 34.0 34
  356.17691 27.0 27
  356.19052 16.0 16
  358.19806 38.0 38
  359.20337 8.0 8
  360.16809 9.0 9
  362.22577 9.0 9
  362.24146 22.0 22
  364.23273 7.0 7
  368.17816 6.0 6
  368.2106 5.0 5
  372.17642 8.0 8
  372.20828 18.0 18
  372.22299 14.0 14
  372.23883 8.0 8
  374.22058 7.0 7
  386.19086 15.0 15
  387.1926 5.0 5
  390.20511 13.0 13
  390.22702 64.0 64
  391.21066 5.0 5
  391.2338 23.0 23
  400.19635 8.0 8
  403.18811 8.0 8
  404.20953 14.0 14
  416.17444 6.0 6
  416.18698 5.0 5
  417.20554 10.0 10
  418.17075 5.0 5
  418.2139 13.0 13
  419.20428 8.0 8
  422.20609 5.0 5
  426.16095 15.0 15
  430.20554 23.0 23
  433.18845 6.0 6
  447.19934 12.0 12
  448.18854 18.0 18
  448.21429 25.0 25
  449.19965 6.0 6
  449.22165 10.0 10
  458.19562 8.0 8
  458.21356 10.0 10
  462.17065 11.0 11
  462.2294 114.0 114
  463.20654 8.0 8
  463.22528 28.0 28
  464.15079 5.0 5
  464.20752 31.0 31
  464.2515 11.0 11
  465.20355 26.0 26
  466.22025 8.0 8
  466.23801 12.0 12
  476.21063 40.0 40
  477.23282 6.0 6
  478.20721 10.0 10
  480.19064 8.0 8
  480.22638 35.0 35
  480.2536 52.0 52
  481.23889 23.0 23
  481.26617 13.0 13
  482.24866 6.0 6
  490.19565 20.0 20
  490.22354 33.0 33
  491.19821 7.0 7
  491.22375 6.0 6
  494.21576 6.0 6
  494.24655 11.0 11
  494.26984 10.0 10
  495.24561 5.0 5
  495.27512 10.0 10
  496.22864 25.0 25
  496.24734 10.0 10
  497.24338 14.0 14
  508.20053 10.0 10
  508.21906 12.0 12
  508.23953 41.0 41
  508.2551 17.0 17
  509.21533 7.0 7
  509.23877 21.0 21
  510.24207 5.0 5
  512.2663 105.0 105
  513.24219 6.0 6
  513.26965 22.0 22
  514.26947 7.0 7
  522.22882 7.0 7
  522.25415 51.0 51
  523.25476 27.0 27
  540.22223 8.0 8
  540.26373 57.0 57
  540.28253 15.0 15
  541.26434 22.0 22
  541.29352 10.0 10
  554.26935 12.0 12
  572.24658 13.0 13
  572.28589 166.0 166
  572.30933 35.0 35
  573.24359 6.0 6
  573.2804 58.0 58
  573.30511 34.0 34
  573.32782 7.0 7
  574.28217 11.0 11
  582.25934 6.0 6
  632.28821 8.0 8
  632.3114 19.0 19
  632.34381 8.0 8
//
