ACCESSION: MSBNK-RIKEN-PR300906
RECORD_TITLE: Anthranoyllycoctonine; LC-ESI-QTOF; MS2
DATE: 2019.03.28
AUTHORS: Tetsuya Mori, Center for Sustainable Resource Science, RIKEN
LICENSE: CC BY-NC-SA
PUBLICATION: Tsugawa H., Nakabayashi R., Mori T., Yamada Y., Takahashi M., Rai A., Sugiyama R., Yamamoto H., Nakaya T., Yamazaki M., Kooke R., Bac-Molenaar JA., Oztolan-Erol N., Keurentjes JJB., Arita M., Saito K. (2019) "A cheminformatics approach to characterize metabolomes in stable-isotope-labeled organisms" Nature Methods 16(4):295-298. [doi:10.1038/s41592-019-0358-2]
COMMENT: registered in RIKEN PlaSMA
CH$NAME: Anthranoyllycoctonine
CH$COMPOUND_CLASS: Aconitane-type diterpenoid alkaloids
CH$FORMULA: C32H46N2O8
CH$EXACT_MASS: 586.726
CH$SMILES: CCN1C[C@]2(COC(=O)C3=CC=CC=C3N)CC[C@H](OC)[C@@]34[C@@H]5C[C@H]6[C@H](OC)[C@@H]5[C@](O)(C[C@@H]6OC)[C@@](O)([C@@H](OC)[C@H]23)C14
CH$IUPAC: InChI=1S/C32H46N2O8/c1-6-34-15-29(16-42-27(35)17-9-7-8-10-20(17)33)12-11-22(39-3)31-19-13-18-21(38-2)14-30(36,23(19)24(18)40-4)32(37,28(31)34)26(41-5)25(29)31/h7-10,18-19,21-26,28,36-37H,6,11-16,33H2,1-5H3/t18-,19-,21+,22+,23-,24+,25-,26+,28?,29+,30-,31+,32-/m1/s1
CH$LINK: INCHIKEY NNDHDYDFEDRMGH-CAEIVAEBSA-N
AC$INSTRUMENT: LC, Waters Acquity UPLC System; MS, Waters Xevo G2 Q-Tof
AC$INSTRUMENT_TYPE: LC-ESI-QTOF
AC$MASS_SPECTROMETRY: MS_TYPE MS2
AC$MASS_SPECTROMETRY: ION_MODE POSITIVE
AC$MASS_SPECTROMETRY: COLLISION_ENERGY 6V
AC$MASS_SPECTROMETRY: DESOLVATION_GAS_FLOW 800/h
AC$MASS_SPECTROMETRY: DESOLVATION_TEMPERATURE 450 C
AC$MASS_SPECTROMETRY: IONIZATION ESI
AC$CHROMATOGRAPHY: CAPILLARY_VOLTAGE +3.00 kV
AC$CHROMATOGRAPHY: COLUMN_NAME Acquity bridged ethyl hybrid C18 (1.7 um, 2.1 mm * 100 mm, Waters)
AC$CHROMATOGRAPHY: COLUMN_TEMPERATURE 40 C
AC$CHROMATOGRAPHY: FLOW_GRADIENT A/B = (99.5%/0.5% at 0 min, 99.5%/0.5% at 0.1 min, 20%/80% at 10 min, 0.5%/99.5% at 10.1 min, 0.5%/99.5% at 12.0 min, 99.5%/0.5% at 12.1 min, 99.5%/0.5% at 15.0 min)
AC$CHROMATOGRAPHY: FLOW_RATE 0.3 ml/min at 0 min, 0.3 ml/min at 10 min, 0.4 ml/min at 10.1 min, 0.4 ml/min at 14.4 min, 0.3 ml/min at 14.5 min
AC$CHROMATOGRAPHY: RETENTION_TIME 5.499933
AC$CHROMATOGRAPHY: SOLVENT A water including 0.1% formic acid
AC$CHROMATOGRAPHY: SOLVENT B acetonitrile including 0.1% formic acid
MS$FOCUSED_ION: PRECURSOR_TYPE [M+H]+
MS$FOCUSED_ION: PRECURSOR_M/Z 587.3326929
PK$SPLASH: splash10-00di-0932100000-3d4425219d577ef4fc1b
PK$NUM_PEAK: 420
PK$PEAK: m/z int. rel.int.
  71.05096 18.0 18
  72.08214 12.0 12
  75.03992 15.0 15
  75.04437 60.0 60
  79.05456 5.0 5
  81.07021 7.0 7
  82.06243 6.0 6
  84.08282 25.0 25
  85.02773 9.0 9
  87.04604 11.0 11
  91.04865 6.0 6
  91.05262 19.0 19
  91.05782 9.0 9
  92.04927 15.0 15
  92.0548 8.0 8
  93.05683 5.0 5
  96.07944 19.0 19
  97.0643 7.0 7
  98.06157 5.0 5
  98.0965 21.0 21
  105.07169 14.0 14
  108.06738 7.0 7
  108.08152 422.0 422
  109.06526 21.0 21
  109.08354 29.0 29
  110.09669 23.0 23
  110.10235 7.0 7
  112.07968 7.0 7
  114.09065 22.0 22
  115.05387 11.0 11
  115.07988 5.0 5
  117.06958 19.0 19
  119.05095 18.0 18
  119.08624 14.0 14
  120.0452 1000.0 999
  121.04968 117.0 117
  121.06733 25.0 25
  121.0871 15.0 15
  121.09309 15.0 15
  122.05454 7.0 7
  122.09693 227.0 227
  123.10078 38.0 38
  123.10886 8.0 8
  124.07743 8.0 8
  124.11174 39.0 39
  125.11561 7.0 7
  126.08977 22.0 22
  126.09644 23.0 23
  129.07176 32.0 32
  130.07196 6.0 6
  131.07957 8.0 8
  131.0876 20.0 20
  132.08755 6.0 6
  133.06458 10.0 10
  134.05891 13.0 13
  134.09727 19.0 19
  134.1041 6.0 6
  135.08171 14.0 14
  136.07611 19.0 19
  136.11127 9.0 9
  137.0565 13.0 13
  137.08315 7.0 7
  138.09219 54.0 54
  138.09875 15.0 15
  139.05901 6.0 6
  140.10875 41.0 41
  141.06152 10.0 10
  141.07014 34.0 34
  142.0891 5.0 5
  143.08665 51.0 51
  145.06639 12.0 12
  145.09406 12.0 12
  145.10425 8.0 8
  146.0605 6.0 6
  146.10106 9.0 9
  147.08336 17.0 17
  147.10365 7.0 7
  148.07843 7.0 7
  148.11456 18.0 18
  149.11084 5.0 5
  151.07393 17.0 17
  153.06847 6.0 6
  154.08609 6.0 6
  154.12315 12.0 12
  155.07649 7.0 7
  155.08647 19.0 19
  157.06462 22.0 22
  157.09784 11.0 11
  157.10838 8.0 8
  158.06572 8.0 8
  158.0741 8.0 8
  158.08083 7.0 7
  158.09085 9.0 9
  158.09976 10.0 10
  159.07977 24.0 24
  160.10841 5.0 5
  160.11842 25.0 25
  161.06058 5.0 5
  161.10129 14.0 14
  161.12207 9.0 9
  162.08768 9.0 9
  162.09912 6.0 6
  162.12956 9.0 9
  163.10172 7.0 7
  164.1095 7.0 7
  165.06335 6.0 6
  165.07321 11.0 11
  165.08682 10.0 10
  167.08453 33.0 33
  168.07565 6.0 6
  168.0865 11.0 11
  169.0659 7.0 7
  169.09854 32.0 32
  169.10527 10.0 10
  170.11089 6.0 6
  171.08221 20.0 20
  172.07635 6.0 6
  172.08563 10.0 10
  172.11217 15.0 15
  173.09766 19.0 19
  173.1113 5.0 5
  174.09514 18.0 18
  174.12616 16.0 16
  175.10283 7.0 7
  175.13692 10.0 10
  176.14282 6.0 6
  178.07788 7.0 7
  178.11409 6.0 6
  178.12617 6.0 6
  179.08099 9.0 9
  179.0941 10.0 10
  180.08842 6.0 6
  180.101 10.0 10
  181.06551 10.0 10
  181.10176 44.0 44
  182.06755 7.0 7
  183.08105 26.0 26
  185.09505 12.0 12
  185.11287 6.0 6
  186.09633 10.0 10
  186.12177 6.0 6
  186.12955 9.0 9
  188.10982 9.0 9
  188.14278 8.0 8
  188.15305 6.0 6
  190.07651 5.0 5
  190.12468 13.0 13
  191.0856 14.0 14
  192.09296 26.0 26
  192.10815 6.0 6
  192.13628 7.0 7
  193.10115 46.0 46
  194.11089 8.0 8
  195.08237 15.0 15
  195.11775 26.0 26
  196.10776 6.0 6
  196.12041 12.0 12
  197.09789 12.0 12
  197.10825 7.0 7
  197.12775 9.0 9
  197.14053 7.0 7
  198.09312 8.0 8
  198.11801 8.0 8
  198.12784 11.0 11
  199.06335 7.0 7
  199.07414 7.0 7
  199.11244 14.0 14
  199.12706 5.0 5
  200.10628 17.0 17
  200.14796 9.0 9
  201.09396 24.0 24
  202.0732 6.0 6
  202.08427 5.0 5
  202.12598 18.0 18
  203.08673 10.0 10
  203.11281 8.0 8
  203.12897 16.0 16
  204.09605 13.0 13
  204.13496 16.0 16
  205.09262 10.0 10
  205.1053 23.0 23
  206.10597 15.0 15
  207.11897 19.0 19
  208.11629 8.0 8
  209.10081 28.0 28
  209.12038 6.0 6
  209.13142 9.0 9
  209.1403 10.0 10
  210.09398 6.0 6
  211.09012 6.0 6
  211.11559 7.0 7
  211.13142 7.0 7
  212.10745 6.0 6
  212.12794 7.0 7
  213.11688 7.0 7
  214.12939 8.0 8
  216.09555 19.0 19
  216.14014 8.0 8
  217.10112 12.0 12
  217.11407 5.0 5
  218.11823 18.0 18
  218.1564 7.0 7
  219.07858 7.0 7
  219.11891 56.0 56
  220.11168 9.0 9
  220.12216 10.0 10
  221.09041 5.0 5
  221.10254 9.0 9
  221.13229 19.0 19
  221.14632 8.0 8
  222.10901 10.0 10
  223.10049 9.0 9
  223.11479 12.0 12
  223.13945 14.0 14
  224.10226 7.0 7
  224.11598 8.0 8
  224.14426 8.0 8
  224.16263 6.0 6
  225.12395 10.0 10
  225.13457 6.0 6
  226.1254 18.0 18
  227.13019 7.0 7
  228.1373 8.0 8
  229.11072 6.0 6
  229.12076 6.0 6
  229.14876 10.0 10
  230.1371 5.0 5
  230.15248 8.0 8
  231.11896 16.0 16
  232.08827 12.0 12
  232.12218 7.0 7
  233.09357 7.0 7
  233.13097 9.0 9
  233.14047 8.0 8
  234.13394 14.0 14
  234.15413 7.0 7
  235.10307 16.0 16
  235.11882 10.0 10
  236.11966 7.0 7
  236.13184 7.0 7
  237.1255 24.0 24
  237.13568 9.0 9
  237.1468 5.0 5
  238.15543 10.0 10
  239.11163 8.0 8
  239.1409 14.0 14
  239.16422 7.0 7
  240.13681 10.0 10
  241.11064 8.0 8
  241.14549 5.0 5
  241.15784 6.0 6
  242.15291 8.0 8
  244.12552 6.0 6
  244.1413 7.0 7
  246.09915 7.0 7
  246.12335 9.0 9
  247.10643 14.0 14
  247.11754 7.0 7
  247.15123 6.0 6
  248.1153 6.0 6
  248.12596 8.0 8
  248.14244 6.0 6
  249.1226 13.0 13
  249.13727 14.0 14
  249.14542 10.0 10
  250.12016 7.0 7
  250.15288 7.0 7
  250.16249 5.0 5
  251.10909 5.0 5
  251.13611 5.0 5
  251.14777 9.0 9
  252.14389 18.0 18
  252.18268 8.0 8
  254.16187 9.0 9
  256.17288 15.0 15
  257.11539 6.0 6
  257.14139 6.0 6
  258.16196 9.0 9
  260.14484 20.0 20
  261.1344 8.0 8
  261.15872 7.0 7
  262.13208 7.0 7
  262.14951 7.0 7
  264.14206 11.0 11
  264.16901 9.0 9
  265.13202 14.0 14
  266.15207 12.0 12
  268.17322 18.0 18
  270.16122 15.0 15
  270.18729 9.0 9
  276.1329 11.0 11
  276.17249 23.0 23
  277.1835 14.0 14
  278.15073 15.0 15
  279.13919 15.0 15
  279.1618 9.0 9
  280.14053 7.0 7
  280.16672 20.0 20
  281.16766 7.0 7
  282.1517 5.0 5
  282.17877 7.0 7
  284.19562 5.0 5
  286.16919 6.0 6
  289.15182 7.0 7
  290.15967 8.0 8
  291.14966 5.0 5
  292.18274 10.0 10
  294.15179 7.0 7
  294.17386 15.0 15
  294.19296 22.0 22
  296.15134 9.0 9
  296.20633 9.0 9
  298.16989 10.0 10
  298.18921 10.0 10
  301.2001 6.0 6
  304.16113 7.0 7
  306.1904 7.0 7
  308.16132 6.0 6
  308.17294 5.0 5
  308.19846 22.0 22
  308.21194 10.0 10
  310.18265 8.0 8
  311.16458 5.0 5
  312.16217 6.0 6
  312.19846 42.0 42
  313.19522 9.0 9
  314.16644 12.0 12
  314.21603 7.0 7
  316.20316 6.0 6
  322.16974 14.0 14
  322.18008 18.0 18
  324.1861 5.0 5
  324.20282 7.0 7
  326.1503 8.0 8
  326.18375 17.0 17
  326.21436 47.0 47
  327.20343 7.0 7
  327.21805 21.0 21
  328.18073 6.0 6
  328.19391 9.0 9
  328.22849 11.0 11
  329.23517 6.0 6
  330.21271 6.0 6
  336.18845 15.0 15
  336.2059 14.0 14
  338.18149 5.0 5
  338.20935 6.0 6
  339.18604 5.0 5
  340.18198 9.0 9
  340.19803 16.0 16
  340.22015 12.0 12
  340.2355 15.0 15
  342.19373 6.0 6
  342.21085 11.0 11
  344.2226 52.0 52
  354.17441 5.0 5
  354.18878 9.0 9
  354.20865 80.0 80
  355.18991 5.0 5
  355.20657 15.0 15
  356.2196 19.0 19
  358.20776 6.0 6
  358.2345 37.0 37
  358.25006 23.0 23
  359.23178 8.0 8
  360.22568 8.0 8
  368.22244 10.0 10
  368.23709 6.0 6
  372.21741 84.0 84
  373.20856 14.0 14
  373.22458 21.0 21
  374.22116 5.0 5
  376.22275 5.0 5
  376.25214 25.0 25
  386.23962 117.0 117
  387.21619 6.0 6
  387.23959 28.0 28
  389.18878 9.0 9
  390.2612 10.0 10
  391.27557 9.0 9
  404.21487 8.0 8
  404.2438 117.0 117
  404.26685 26.0 26
  405.23734 13.0 13
  405.25183 31.0 31
  405.27023 7.0 7
  413.21072 5.0 5
  418.25211 12.0 12
  418.26816 21.0 21
  419.2565 8.0 8
  434.24905 6.0 6
  435.25137 6.0 6
  436.2645 33.0 33
  436.28195 11.0 11
  437.27103 19.0 19
  445.26611 10.0 10
  463.25699 10.0 10
  465.2395 9.0 9
  468.27747 14.0 14
  468.29861 29.0 29
  468.32407 8.0 8
  469.30856 9.0 9
  477.27502 15.0 15
  477.29257 6.0 6
  478.27121 5.0 5
  481.26047 7.0 7
  491.2421 6.0 6
  491.26172 7.0 7
  493.26926 5.0 5
  495.29428 6.0 6
  505.27344 13.0 13
  506.2998 5.0 5
  509.3002 14.0 14
  510.31619 6.0 6
  523.27771 11.0 11
  537.29193 16.0 16
  555.31787 5.0 5
  569.31702 6.0 6
  587.32031 22.0 22
  587.33417 44.0 44
//
