ACCESSION: MSBNK-RIKEN-PR100645
RECORD_TITLE: Pelargonin; LC-ESI-QTOF; MS2; CE:Ramp 5-60 V; [M-2H]-
DATE: 2016.01.19 (Created 2009.09.10, modified 2011.05.06)
AUTHORS: Matsuda F, Suzuki M, Sawada Y, Plant Science Center, RIKEN.
LICENSE: CC BY-SA
COMMENT: Acquisition and generation of the data is financially supported in part by CREST/JST.
CH$NAME: Pelargonin
CH$NAME: Pelargonidin 3,5-di-beta-D-glucoside
CH$NAME: Monardin
CH$NAME: 3,5-Bis(glucosyloxy)-4',7-dihydroxyflavylium
CH$COMPOUND_CLASS: Anthocyanidin
CH$FORMULA: [C27H31O15]+
CH$EXACT_MASS: 595.16630
CH$SMILES: O(C5CO)C(C(C(C5O)O)O)Oc(c4)c(c1)c(cc4O)[o+1]c(c(c3)ccc(O)c3)c(OC(O2)C(C(C(C2CO)O)O)O)1
CH$IUPAC: InChI=1S/C27H30O15/c28-8-17-19(32)21(34)23(36)26(41-17)39-15-6-12(31)5-14-13(15)7-16(25(38-14)10-1-3-11(30)4-2-10)40-27-24(37)22(35)20(33)18(9-29)42-27/h1-7,17-24,26-29,32-37H,8-9H2,(H-,30,31)/p+1/t17-,18-,19-,20-,21+,22+,23-,24-,26-,27-/m1/s1
CH$LINK: CAS 58751-31-8
CH$LINK: CHEMSPIDER 390369
CH$LINK: KEGG C08725
CH$LINK: KNAPSACK C00002387
CH$LINK: PUBCHEM CID:441772
CH$LINK: INCHIKEY SLCKJKWFULXZBD-ZOTFFYTFSA-O
AC$INSTRUMENT: UPLC Q-Tof Premier, Waters
AC$INSTRUMENT_TYPE: LC-ESI-QTOF
AC$MASS_SPECTROMETRY: MS_TYPE MS2
AC$MASS_SPECTROMETRY: ION_MODE NEGATIVE
AC$MASS_SPECTROMETRY: COLLISION_ENERGY Ramp 5-60 V
AC$MASS_SPECTROMETRY: DATAFORMAT Continuum
AC$MASS_SPECTROMETRY: DATE 2008.07.28
AC$MASS_SPECTROMETRY: DESOLVATION_GAS_FLOW 600.0 L/Hr
AC$MASS_SPECTROMETRY: DESOLVATION_TEMPERATURE 420 C
AC$MASS_SPECTROMETRY: FRAGMENTATION_METHOD LOW-ENERGY CID
AC$MASS_SPECTROMETRY: IONIZATION ESI
AC$MASS_SPECTROMETRY: SCANNING 1.0 sec/scan (m/z = 50-1000)
AC$MASS_SPECTROMETRY: SOURCE_TEMPERATURE 120 C
AC$CHROMATOGRAPHY: CAPILLARY_VOLTAGE 3.0 kV
AC$CHROMATOGRAPHY: SAMPLING_CONE 23.0 V
AC$CHROMATOGRAPHY: SOLVENT A CH3CN(0.1%HCOOH)
AC$CHROMATOGRAPHY: SOLVENT B H2O(0.1%HCOOH)
MS$FOCUSED_ION: PRECURSOR_M/Z 593.15066
MS$FOCUSED_ION: PRECURSOR_TYPE [M-2H]-
PK$SPLASH: splash10-0159-0090410000-fcd51f7a3badce528641
PK$NUM_PEAK: 8
PK$PEAK: m/z int. rel.int.
  147.0095 62.36 174
  239.0372 33.4 93
  267.0312 124.4 347
  268.0381 57.95 161
  269.0470 358.6 999
  430.0922 41.55 116
  431.1004 233.4 650
  593.1506 92.93 259
//
