ACCESSION: MSBNK-RIKEN-PR310560
RECORD_TITLE: Convolidine; LC-ESI-QTOF; MS2
DATE: 2019.03.28
AUTHORS: Tetsuya Mori, Center for Sustainable Resource Science, RIKEN
LICENSE: CC BY-NC-SA
PUBLICATION: Tsugawa H., Nakabayashi R., Mori T., Yamada Y., Takahashi M., Rai A., Sugiyama R., Yamamoto H., Nakaya T., Yamazaki M., Kooke R., Bac-Molenaar JA., Oztolan-Erol N., Keurentjes JJB., Arita M., Saito K. (2019) "A cheminformatics approach to characterize metabolomes in stable-isotope-labeled organisms" Nature Methods 16(4):295-298. [doi:10.1038/s41592-019-0358-2]
COMMENT: Annotation level-1
CH$NAME: Convolidine
CH$COMPOUND_CLASS: Alkaloids
CH$FORMULA: C15H19NO4
CH$EXACT_MASS: 277.32
CH$SMILES: COC1=C(O)C=CC(=C1)C(=O)OC1CC2CCC(C1)N2
CH$IUPAC: InChI=1S/C15H19NO4/c1-19-14-6-9(2-5-13(14)17)15(18)20-12-7-10-3-4-11(8-12)16-10/h2,5-6,10-12,16-17H,3-4,7-8H2,1H3
CH$LINK: INCHIKEY GWWGRYGNRKFSSX-UHFFFAOYSA-N
AC$INSTRUMENT: LC, Waters Acquity UPLC System; MS, Waters Xevo G2 Q-Tof
AC$INSTRUMENT_TYPE: LC-ESI-QTOF
AC$MASS_SPECTROMETRY: MS_TYPE MS2
AC$MASS_SPECTROMETRY: ION_MODE POSITIVE
AC$MASS_SPECTROMETRY: COLLISION_ENERGY 6V
AC$MASS_SPECTROMETRY: DESOLVATION_GAS_FLOW 800/h
AC$MASS_SPECTROMETRY: DESOLVATION_TEMPERATURE 450 C
AC$MASS_SPECTROMETRY: IONIZATION ESI
AC$CHROMATOGRAPHY: CAPILLARY_VOLTAGE +3.00 kV
AC$CHROMATOGRAPHY: COLUMN_NAME Acquity bridged ethyl hybrid C18 (1.7 um, 2.1 mm * 100 mm, Waters)
AC$CHROMATOGRAPHY: COLUMN_TEMPERATURE 40 C
AC$CHROMATOGRAPHY: FLOW_GRADIENT A/B = (99.5%/0.5% at 0 min, 99.5%/0.5% at 0.1 min, 20%/80% at 10 min, 0.5%/99.5% at 10.1 min, 0.5%/99.5% at 12.0 min, 99.5%/0.5% at 12.1 min, 99.5%/0.5% at 15.0 min)
AC$CHROMATOGRAPHY: FLOW_RATE 0.3 ml/min at 0 min, 0.3 ml/min at 10 min, 0.4 ml/min at 10.1 min, 0.4 ml/min at 14.4 min, 0.3 ml/min at 14.5 min
AC$CHROMATOGRAPHY: RETENTION_TIME 3.27
AC$CHROMATOGRAPHY: SOLVENT A water including 0.1% formic acid
AC$CHROMATOGRAPHY: SOLVENT B acetonitrile including 0.1% formic acid
MS$FOCUSED_ION: PRECURSOR_TYPE [M+H]+
MS$FOCUSED_ION: PRECURSOR_M/Z 278.13868
PK$SPLASH: splash10-004i-2290000000-594ac6a65cf25f13a5f6
PK$NUM_PEAK: 81
PK$PEAK: m/z int. rel.int.
  55.01847 18.0 1
  56.04664 24.0 1
  65.03602 18.0 1
  65.0423 19.0 1
  67.04725 18.0 1
  67.05672 106.0 4
  77.03947 475.0 17
  80.02797 23.0 1
  81.06599 24.0 1
  82.02876 27.0 1
  82.43488 40.0 1
  84.07896 24.0 1
  91.05424 852.0 30
  92.0583 137.0 5
  92.84402 18.0 1
  93.03051 35.0 1
  93.03558 59.0 2
  93.07001 4916.0 171
  93.39956 28.0 1
  94.03717 20.0 1
  94.04479 25.0 1
  94.07491 508.0 18
  95.04874 17.0 1
  96.81488 37.0 1
  105.60443 17.0 1
  108.02375 49.0 2
  108.91814 18.0 1
  109.0211 49.0 2
  109.02786 28.0 1
  109.06826 30.0 1
  110.09623 3947.0 138
  111.07777 23.0 1
  111.08407 26.0 1
  111.10028 317.0 11
  111.10516 97.0 3
  111.36684 21.0 1
  111.81629 20.0 1
  123.04584 535.0 19
  124.04978 24.0 1
  125.05907 17.0 1
  137.01152 22.0 1
  151.00824 23.0 1
  151.01747 20.0 1
  151.03954 2866.0 100
  151.54982 19.0 1
  152.02939 41.0 1
  152.04239 119.0 4
  152.05353 92.0 3
  153.03375 18.0 1
  153.04703 22.0 1
  162.09682 24.0 1
  164.96919 21.0 1
  176.64545 18.0 1
  176.65285 17.0 1
  184.58432 20.0 1
  187.32448 20.0 1
  189.32082 33.0 1
  203.59209 43.0 1
  209.62796 24.0 1
  209.70349 20.0 1
  210.66006 20.0 1
  215.46318 29.0 1
  219.97447 18.0 1
  239.64461 34.0 1
  272.7905 20.0 1
  276.11856 18.0 1
  276.16705 22.0 1
  276.54901 18.0 1
  277.47086 17.0 1
  277.58939 18.0 1
  277.89658 23.0 1
  277.94159 17.0 1
  278.06613 31.0 1
  278.0762 77.0 3
  278.09637 133.0 5
  278.11041 51.0 2
  278.13916 28657.0 999
  278.18692 731.0 25
  278.22397 18.0 1
  278.3201 20.0 1
  278.33759 68.0 2
//
