ACCESSION: MSBNK-RIKEN-PR310652
RECORD_TITLE: Aconitine; LC-ESI-QTOF; MS2
DATE: 2019.03.28
AUTHORS: Tetsuya Mori, Center for Sustainable Resource Science, RIKEN
LICENSE: CC BY-NC-SA
PUBLICATION: Tsugawa H., Nakabayashi R., Mori T., Yamada Y., Takahashi M., Rai A., Sugiyama R., Yamamoto H., Nakaya T., Yamazaki M., Kooke R., Bac-Molenaar JA., Oztolan-Erol N., Keurentjes JJB., Arita M., Saito K. (2019) "A cheminformatics approach to characterize metabolomes in stable-isotope-labeled organisms" Nature Methods 16(4):295-298. [doi:10.1038/s41592-019-0358-2]
COMMENT: Annotation level-1
CH$NAME: Aconitine
CH$COMPOUND_CLASS: Alkaloids
CH$FORMULA: C34H47NO11
CH$EXACT_MASS: 645.746
CH$SMILES: CCN1CC2(COC)C3C(OC)C4C1C3(C1CC3(O)C(OC(=O)C5=CC=CC=C5)C1C4(OC(C)=O)C(O)C3OC)C(CC2O)OC
CH$IUPAC: InChI=1S/C34H47NO11/c1-7-35-15-31(16-41-3)20(37)13-21(42-4)33-19-14-32(40)28(45-30(39)18-11-9-8-10-12-18)22(19)34(46-17(2)36,27(38)29(32)44-6)23(26(33)35)24(43-5)25(31)33/h8-12,19-29,37-38,40H,7,13-16H2,1-6H3
CH$LINK: INCHIKEY XFSBVAOIAHNAPC-UHFFFAOYSA-N
AC$INSTRUMENT: LC, Waters Acquity UPLC System; MS, Waters Xevo G2 Q-Tof
AC$INSTRUMENT_TYPE: LC-ESI-QTOF
AC$MASS_SPECTROMETRY: MS_TYPE MS2
AC$MASS_SPECTROMETRY: ION_MODE POSITIVE
AC$MASS_SPECTROMETRY: COLLISION_ENERGY 6V
AC$MASS_SPECTROMETRY: DESOLVATION_GAS_FLOW 800/h
AC$MASS_SPECTROMETRY: DESOLVATION_TEMPERATURE 450 C
AC$MASS_SPECTROMETRY: IONIZATION ESI
AC$CHROMATOGRAPHY: CAPILLARY_VOLTAGE +3.00 kV
AC$CHROMATOGRAPHY: COLUMN_NAME Acquity bridged ethyl hybrid C18 (1.7 um, 2.1 mm * 100 mm, Waters)
AC$CHROMATOGRAPHY: COLUMN_TEMPERATURE 40 C
AC$CHROMATOGRAPHY: FLOW_GRADIENT A/B = (99.5%/0.5% at 0 min, 99.5%/0.5% at 0.1 min, 20%/80% at 10 min, 0.5%/99.5% at 10.1 min, 0.5%/99.5% at 12.0 min, 99.5%/0.5% at 12.1 min, 99.5%/0.5% at 15.0 min)
AC$CHROMATOGRAPHY: FLOW_RATE 0.3 ml/min at 0 min, 0.3 ml/min at 10 min, 0.4 ml/min at 10.1 min, 0.4 ml/min at 14.4 min, 0.3 ml/min at 14.5 min
AC$CHROMATOGRAPHY: RETENTION_TIME 5.97
AC$CHROMATOGRAPHY: SOLVENT A water including 0.1% formic acid
AC$CHROMATOGRAPHY: SOLVENT B acetonitrile including 0.1% formic acid
MS$FOCUSED_ION: PRECURSOR_TYPE [M+H]+
MS$FOCUSED_ION: PRECURSOR_M/Z 646.32219
PK$SPLASH: splash10-0002-0000039000-2c62e2d09bdf4bb7706c
PK$NUM_PEAK: 438
PK$PEAK: m/z int. rel.int.
  58.06814 49.0 1
  60.06051 18.0 0
  73.0857 37.0 1
  75.03448 23.0 1
  99.86422 20.0 0
  101.31124 41.0 1
  105.03416 306.0 7
  106.03153 28.0 1
  106.03857 73.0 2
  108.05874 29.0 1
  108.19719 24.0 1
  111.07502 18.0 0
  112.07646 19.0 0
  115.46974 27.0 1
  115.54713 26.0 1
  117.06377 48.0 1
  119.06441 19.0 0
  133.10023 50.0 1
  136.11061 21.0 0
  137.05992 41.0 1
  140.10362 39.0 1
  142.12163 74.0 2
  143.12959 26.0 1
  149.10403 22.0 0
  151.06688 23.0 1
  153.11063 44.0 1
  159.11377 30.0 1
  163.07463 20.0 0
  167.0843 63.0 1
  168.09479 35.0 1
  169.06915 28.0 1
  171.08267 17.0 0
  173.12576 27.0 1
  174.10542 35.0 1
  183.06346 28.0 1
  189.08144 43.0 1
  191.96056 19.0 0
  192.14351 68.0 2
  192.83185 38.0 1
  193.06506 29.0 1
  195.10632 34.0 1
  197.08981 27.0 1
  197.10799 25.0 1
  198.10303 26.0 1
  203.09254 22.0 0
  204.08421 31.0 1
  204.09512 42.0 1
  204.10568 26.0 1
  204.13432 21.0 0
  205.05948 19.0 0
  206.10399 20.0 0
  207.11569 21.0 0
  208.08249 21.0 0
  208.13976 31.0 1
  209.06155 21.0 0
  214.12384 38.0 1
  215.08325 20.0 0
  216.0051 19.0 0
  216.12253 33.0 1
  216.13182 20.0 0
  217.08377 52.0 1
  218.13597 18.0 0
  218.15334 107.0 2
  219.10663 43.0 1
  221.0477 17.0 0
  230.12622 20.0 0
  231.08325 22.0 0
  233.07811 19.0 0
  233.1033 17.0 0
  235.11205 25.0 1
  236.1655 28.0 1
  237.60475 49.0 1
  239.08655 25.0 1
  240.0807 21.0 0
  240.99113 31.0 1
  241.09467 41.0 1
  242.1144 25.0 1
  245.06757 18.0 0
  247.07121 17.0 0
  247.09872 24.0 1
  247.11086 24.0 1
  249.12459 23.0 1
  249.1393 45.0 1
  249.61163 35.0 1
  250.12021 33.0 1
  250.18361 41.0 1
  251.10005 32.0 1
  252.10173 20.0 0
  253.11211 23.0 1
  254.07806 22.0 0
  254.15329 18.0 0
  255.14191 25.0 1
  259.09259 24.0 1
  259.10199 19.0 0
  260.14499 18.0 0
  260.51614 49.0 1
  263.10605 25.0 1
  263.11621 31.0 1
  265.12946 20.0 0
  266.12863 29.0 1
  268.12283 34.0 1
  270.12939 25.0 1
  273.10361 31.0 1
  273.19696 28.0 1
  275.09894 45.0 1
  279.0947 30.0 1
  279.12122 46.0 1
  280.17578 23.0 1
  281.1152 28.0 1
  283.13223 26.0 1
  288.13837 36.0 1
  290.69168 26.0 1
  291.10129 18.0 0
  291.1669 29.0 1
  292.16266 17.0 0
  293.10818 20.0 0
  293.1243 23.0 1
  293.164 24.0 1
  294.2157 17.0 0
  295.11624 22.0 0
  303.17673 27.0 1
  305.23648 31.0 1
  305.57227 17.0 0
  305.74442 36.0 1
  306.13788 17.0 0
  307.15204 17.0 0
  308.15598 78.0 2
  308.16766 17.0 0
  309.13553 32.0 1
  310.09952 24.0 1
  311.12177 25.0 1
  311.2251 30.0 1
  313.18787 19.0 0
  320.16119 17.0 0
  321.30573 39.0 1
  322.38416 41.0 1
  323.11841 33.0 1
  324.15057 31.0 1
  325.14169 17.0 0
  326.14975 27.0 1
  326.19391 22.0 0
  326.21597 17.0 0
  329.85596 23.0 1
  335.61459 17.0 0
  336.15768 18.0 0
  337.14597 45.0 1
  338.29285 34.0 1
  339.18933 20.0 0
  340.18494 23.0 1
  341.17648 24.0 1
  342.54373 20.0 0
  344.18204 21.0 0
  344.21466 29.0 1
  345.16986 22.0 0
  347.87653 20.0 0
  350.17282 20.0 0
  350.18204 44.0 1
  351.57074 19.0 0
  353.14536 25.0 1
  353.6293 30.0 1
  354.06705 24.0 1
  354.15668 21.0 0
  354.18729 23.0 1
  354.20157 22.0 0
  355.19046 50.0 1
  356.78461 19.0 0
  356.98325 30.0 1
  357.1626 66.0 1
  357.17896 19.0 0
  359.11179 27.0 1
  362.69513 39.0 1
  364.16995 24.0 1
  367.03436 46.0 1
  368.17172 157.0 4
  368.18326 518.0 12
  368.22678 17.0 0
  368.27789 19.0 0
  369.15259 44.0 1
  369.18024 198.0 4
  369.19745 161.0 4
  370.1825 25.0 1
  370.20718 61.0 1
  371.82831 36.0 1
  372.20712 17.0 0
  373.21191 36.0 1
  373.23035 25.0 1
  373.57462 21.0 0
  374.1998 21.0 0
  375.35556 50.0 1
  376.25333 130.0 3
  378.11578 21.0 0
  384.11496 24.0 1
  385.18002 20.0 0
  386.23315 20.0 0
  386.8576 21.0 0
  387.16721 29.0 1
  387.23068 27.0 1
  387.80441 18.0 0
  387.99762 18.0 0
  389.28632 18.0 0
  390.83527 17.0 0
  393.33334 35.0 1
  397.30582 19.0 0
  399.34271 31.0 1
  400.2139 73.0 2
  401.18246 49.0 1
  404.19891 23.0 1
  404.22961 65.0 1
  404.24783 175.0 4
  404.26611 25.0 1
  404.36853 22.0 0
  406.30026 24.0 1
  407.25687 20.0 0
  409.43713 19.0 0
  412.56958 17.0 0
  413.86694 28.0 1
  416.89444 30.0 1
  418.05499 20.0 0
  418.18991 23.0 1
  418.21613 44.0 1
  419.14905 31.0 1
  419.21844 22.0 0
  426.19159 20.0 0
  428.52792 30.0 1
  430.60107 50.0 1
  430.69287 27.0 1
  434.17511 17.0 0
  436.68124 20.0 0
  444.21997 24.0 1
  446.15366 21.0 0
  448.67978 24.0 1
  450.23291 24.0 1
  452.19806 30.0 1
  458.19199 20.0 0
  459.20197 24.0 1
  459.63379 30.0 1
  460.21671 30.0 1
  460.43744 20.0 0
  462.23993 18.0 0
  463.14969 51.0 1
  467.34814 26.0 1
  469.80142 24.0 1
  472.22504 18.0 0
  472.26596 17.0 0
  473.22229 21.0 0
  474.76846 17.0 0
  474.90604 23.0 1
  476.20795 74.0 2
  476.22809 183.0 4
  476.24646 162.0 4
  476.2681 50.0 1
  477.01389 22.0 0
  477.23148 55.0 1
  478.03275 24.0 1
  478.27191 21.0 0
  478.41702 18.0 0
  478.87805 32.0 1
  479.13446 21.0 0
  479.21478 20.0 0
  483.29953 20.0 0
  490.20865 43.0 1
  490.22842 33.0 1
  491.21393 29.0 1
  491.97366 28.0 1
  494.23352 55.0 1
  494.24451 140.0 3
  494.27179 216.0 5
  495.03238 20.0 0
  495.21902 20.0 0
  495.25327 56.0 1
  495.28848 27.0 1
  495.77719 19.0 0
  495.96405 17.0 0
  496.22971 56.0 1
  497.03323 20.0 0
  498.57971 18.0 0
  504.189 41.0 1
  504.20959 39.0 1
  504.24814 113.0 3
  504.27097 33.0 1
  504.96802 27.0 1
  505.20029 30.0 1
  505.22525 20.0 0
  505.24854 37.0 1
  506.25388 24.0 1
  508.25375 42.0 1
  508.80246 18.0 0
  508.88055 39.0 1
  509.25665 23.0 1
  510.14511 70.0 2
  512.26056 18.0 0
  513.01471 23.0 1
  515.0744 20.0 0
  517.11523 17.0 0
  518.23224 17.0 0
  521.22284 17.0 0
  521.41779 43.0 1
  522.24017 114.0 3
  522.26312 57.0 1
  523.22437 39.0 1
  523.24982 24.0 1
  523.45801 17.0 0
  524.26855 40.0 1
  524.45581 19.0 0
  524.67633 28.0 1
  526.18524 31.0 1
  526.23755 40.0 1
  526.28271 1066.0 24
  526.31689 80.0 2
  526.43982 20.0 0
  527.07355 21.0 0
  527.25122 39.0 1
  527.27655 159.0 4
  527.29901 129.0 3
  527.33734 20.0 0
  528.29108 174.0 4
  529.26312 25.0 1
  529.27936 23.0 1
  529.31073 18.0 0
  536.1319 19.0 0
  536.16528 23.0 1
  536.26483 437.0 10
  537.08313 20.0 0
  537.26813 203.0 5
  539.9281 18.0 0
  540.18378 22.0 0
  543.78729 21.0 0
  551.4389 17.0 0
  552.24451 40.0 1
  553.8064 33.0 1
  554.21973 19.0 0
  554.24561 97.0 2
  554.26788 581.0 13
  554.29175 349.0 8
  554.3111 157.0 4
  555.18036 21.0 0
  555.24756 31.0 1
  555.28137 260.0 6
  555.30347 114.0 3
  555.51538 27.0 1
  555.57916 28.0 1
  555.88055 24.0 1
  556.23315 38.0 1
  556.26904 38.0 1
  556.28986 35.0 1
  556.3067 36.0 1
  556.49365 20.0 0
  556.67371 35.0 1
  557.2746 22.0 0
  557.30469 61.0 1
  558.14117 25.0 1
  559.73431 36.0 1
  561.49274 36.0 1
  566.83136 42.0 1
  568.27863 112.0 3
  569.2785 30.0 1
  569.32288 40.0 1
  569.72412 18.0 0
  571.95209 17.0 0
  578.90729 24.0 1
  582.11426 25.0 1
  583.12378 20.0 0
  583.66797 17.0 0
  584.31079 19.0 0
  585.9729 18.0 0
  586.16357 18.0 0
  586.20184 67.0 1
  586.22662 38.0 1
  586.25189 97.0 2
  586.29999 5383.0 120
  586.39557 34.0 1
  586.4342 24.0 1
  587.21295 37.0 1
  587.25238 102.0 2
  587.30493 2525.0 56
  587.36145 31.0 1
  587.58997 17.0 0
  587.9126 29.0 1
  588.14069 17.0 0
  588.25024 27.0 1
  588.27759 65.0 1
  588.3147 557.0 12
  588.39417 20.0 0
  588.70538 21.0 0
  588.82031 22.0 0
  588.86035 17.0 0
  588.98004 20.0 0
  589.08325 25.0 1
  589.28546 25.0 1
  589.30273 27.0 1
  589.6377 20.0 0
  589.78912 37.0 1
  589.86365 17.0 0
  590.11084 27.0 1
  592.01251 19.0 0
  595.36304 17.0 0
  596.25201 22.0 0
  596.27618 62.0 1
  596.30511 136.0 3
  596.62982 25.0 1
  597.07739 39.0 1
  597.28552 23.0 1
  598.758 31.0 1
  601.79608 23.0 1
  602.08484 20.0 0
  605.35938 18.0 0
  611.65833 21.0 0
  614.1673 17.0 0
  614.28333 100.0 2
  614.30432 71.0 2
  615.89081 25.0 1
  616.52008 24.0 1
  617.35388 20.0 0
  619.2439 19.0 0
  622.5376 17.0 0
  623.36493 17.0 0
  633.81152 18.0 0
  633.88104 18.0 0
  633.92328 22.0 0
  634.15253 20.0 0
  634.83508 25.0 1
  636.45007 20.0 0
  640.31946 25.0 1
  641.78375 19.0 0
  643.81201 22.0 0
  644.04584 28.0 1
  644.69513 17.0 0
  645.31305 32.0 1
  645.93268 20.0 0
  646.0047 20.0 0
  646.11017 18.0 0
  646.17767 103.0 2
  646.22498 524.0 12
  646.25708 555.0 12
  646.32263 44693.0 999
  646.39758 573.0 13
  646.45209 43.0 1
  646.51489 32.0 1
//
