ACCESSION: MSBNK-RIKEN-PR100017
RECORD_TITLE: 5-Methylcytosine; LC-ESI-QTOF; MS2; CE:30 V; [M+H]+
DATE: 2016.01.19 (Created 2009.09.10, modified 2011.05.06)
AUTHORS: Matsuda F, Suzuki M, Sawada Y, Plant Science Center, RIKEN.
LICENSE: CC BY-SA
COMMENT: Acquisition and generation of the data is financially supported in part by CREST/JST.
CH$NAME: 5-Methylcytosine
CH$NAME: 4-Amino-2-hydroxy-5-methylpyrimidine
CH$COMPOUND_CLASS: Cytosine
CH$FORMULA: C5H7N3O
CH$EXACT_MASS: 125.05891
CH$SMILES: CC(=C1)C(N)=NC(=O)N1
CH$IUPAC: InChI=1S/C5H7N3O/c1-3-2-7-5(9)8-4(3)6/h2H,1H3,(H3,6,7,8,9)
CH$LINK: CAS 554-01-8
CH$LINK: CHEMSPIDER 58551
CH$LINK: KEGG C02376
CH$LINK: PUBCHEM CID:65040
CH$LINK: INCHIKEY LRSASMSXMSNRBT-UHFFFAOYSA-N
CH$LINK: COMPTOX DTXSID50203948
AC$INSTRUMENT: UPLC Q-Tof Premier, Waters
AC$INSTRUMENT_TYPE: LC-ESI-QTOF
AC$MASS_SPECTROMETRY: MS_TYPE MS2
AC$MASS_SPECTROMETRY: ION_MODE POSITIVE
AC$MASS_SPECTROMETRY: COLLISION_ENERGY 30 V
AC$MASS_SPECTROMETRY: DATAFORMAT Continuum
AC$MASS_SPECTROMETRY: DATE 2008.07.24
AC$MASS_SPECTROMETRY: DESOLVATION_GAS_FLOW 600.0 L/Hr
AC$MASS_SPECTROMETRY: DESOLVATION_TEMPERATURE 420 C
AC$MASS_SPECTROMETRY: FRAGMENTATION_METHOD LOW-ENERGY CID
AC$MASS_SPECTROMETRY: IONIZATION ESI
AC$MASS_SPECTROMETRY: SCANNING 1.0 sec/scan (m/z = 50-1000)
AC$MASS_SPECTROMETRY: SOURCE_TEMPERATURE 120 C
AC$CHROMATOGRAPHY: CAPILLARY_VOLTAGE 3.0 kV
AC$CHROMATOGRAPHY: SAMPLING_CONE 23.0 V
AC$CHROMATOGRAPHY: SOLVENT A CH3CN(0.1%HCOOH)
AC$CHROMATOGRAPHY: SOLVENT B H2O(0.1%HCOOH)
MS$FOCUSED_ION: PRECURSOR_M/Z 126.06671
MS$FOCUSED_ION: PRECURSOR_TYPE [M+H]+
PK$SPLASH: splash10-004i-1900000000-e85c44ed5cd560d17d60
PK$NUM_PEAK: 3
PK$PEAK: m/z int. rel.int.
  83.0570 1.829 160
  109.0347 1.41 124
  126.0643 11.39 999
//
