ACCESSION: MSBNK-RIKEN-PR100497
RECORD_TITLE: L-(-)-Phenylalanine; LC-ESI-QTOF; MS2; CE:Ramp 5-60 V; [M-H]-
DATE: 2016.01.19 (Created 2010.06.21, modified 2011.05.06)
AUTHORS: Matsuda F, Suzuki M, Sawada Y, Plant Science Center, RIKEN.
LICENSE: CC BY-SA
COMMENT: Acquisition and generation of the data is financially supported in part by CREST/JST.
CH$NAME: L-(-)-Phenylalanine
CH$NAME: L-Phe
CH$NAME: L-2-Amino-3-phenylpropionic acid
CH$NAME: (S)-alpha-Amino-benzenepropanoic acid
CH$NAME: (S)-a-Aminohydrocinnamic acid
CH$COMPOUND_CLASS: Amino acids
CH$FORMULA: C9H11NO2
CH$EXACT_MASS: 165.07898
CH$SMILES: C1=CC=C(C=C1)C[C@@H](C(=O)O)N
CH$IUPAC: InChI=1S/C9H11NO2/c10-8(9(11)12)6-7-4-2-1-3-5-7/h1-5,8H,6,10H2,(H,11,12)/t8-/m0/s1
CH$LINK: CAS 63-91-2
CH$LINK: CHEMSPIDER 5910
CH$LINK: KAPPAVIEW KPC00729
CH$LINK: KEGG C00079
CH$LINK: KNAPSACK C00001386
CH$LINK: PUBCHEM CID:6140
CH$LINK: INCHIKEY COLNVLDHVKWLRT-QMMMGPOBSA-N
CH$LINK: COMPTOX DTXSID4040763
AC$INSTRUMENT: UPLC Q-Tof Premier, Waters
AC$INSTRUMENT_TYPE: LC-ESI-QTOF
AC$MASS_SPECTROMETRY: MS_TYPE MS2
AC$MASS_SPECTROMETRY: ION_MODE NEGATIVE
AC$MASS_SPECTROMETRY: COLLISION_ENERGY Ramp 5-60 V
AC$MASS_SPECTROMETRY: DATAFORMAT Continuum
AC$MASS_SPECTROMETRY: DESOLVATION_GAS_FLOW 600.0 L/Hr
AC$MASS_SPECTROMETRY: DESOLVATION_TEMPERATURE 400 C
AC$MASS_SPECTROMETRY: FRAGMENTATION_METHOD LOW-ENERGY CID
AC$MASS_SPECTROMETRY: IONIZATION ESI
AC$MASS_SPECTROMETRY: SOURCE_TEMPERATURE 120 C
AC$CHROMATOGRAPHY: CAPILLARY_VOLTAGE 3.0 kV
AC$CHROMATOGRAPHY: SAMPLING_CONE 23.0 V
AC$CHROMATOGRAPHY: SOLVENT A CH3CN(0.1%HCOOH)
AC$CHROMATOGRAPHY: SOLVENT B H2O(0.1%HCOOH)
MS$FOCUSED_ION: PRECURSOR_M/Z 164.07117
MS$FOCUSED_ION: PRECURSOR_TYPE [M-H]-
PK$SPLASH: splash10-01ot-1900000000-8dbbc0673f81b8e1de2a
PK$NUM_PEAK: 5
PK$PEAK: m/z int. rel.int.
  72.0099 91.81 252
  91.0555 19.44 53
  103.0554 145.6 400
  147.0448 363.6 999
  164.0712 333.4 916
//
