ACCESSION: MSBNK-RIKEN-PR303628
RECORD_TITLE: Honokiol; LC-ESI-QTOF; MS2
DATE: 2019.03.28
AUTHORS: Tetsuya Mori, Center for Sustainable Resource Science, RIKEN
LICENSE: CC BY-NC-SA
PUBLICATION: Tsugawa H., Nakabayashi R., Mori T., Yamada Y., Takahashi M., Rai A., Sugiyama R., Yamamoto H., Nakaya T., Yamazaki M., Kooke R., Bac-Molenaar JA., Oztolan-Erol N., Keurentjes JJB., Arita M., Saito K. (2019) "A cheminformatics approach to characterize metabolomes in stable-isotope-labeled organisms" Nature Methods 16(4):295-298. [doi:10.1038/s41592-019-0358-2]
COMMENT: registered in RIKEN PlaSMA
CH$NAME: Honokiol
CH$COMPOUND_CLASS: Biphenyls and derivatives
CH$FORMULA: C18H18O2
CH$EXACT_MASS: 266.34
CH$SMILES: OC1=C(CC=C)C=C(C=C1)C1=C(O)C=CC(CC=C)=C1
CH$IUPAC: InChI=1S/C18H18O2/c1-3-5-13-7-9-18(20)16(11-13)14-8-10-17(19)15(12-14)6-4-2/h3-4,7-12,19-20H,1-2,5-6H2
CH$LINK: INCHIKEY FVYXIJYOAGAUQK-UHFFFAOYSA-N
AC$INSTRUMENT: LC, Waters Acquity UPLC System; MS, Waters Xevo G2 Q-Tof
AC$INSTRUMENT_TYPE: LC-ESI-QTOF
AC$MASS_SPECTROMETRY: MS_TYPE MS2
AC$MASS_SPECTROMETRY: ION_MODE POSITIVE
AC$MASS_SPECTROMETRY: COLLISION_ENERGY 6V
AC$MASS_SPECTROMETRY: DESOLVATION_GAS_FLOW 800/h
AC$MASS_SPECTROMETRY: DESOLVATION_TEMPERATURE 450 C
AC$MASS_SPECTROMETRY: IONIZATION ESI
AC$CHROMATOGRAPHY: CAPILLARY_VOLTAGE +3.00 kV
AC$CHROMATOGRAPHY: COLUMN_NAME Acquity bridged ethyl hybrid C18 (1.7 um, 2.1 mm * 100 mm, Waters)
AC$CHROMATOGRAPHY: COLUMN_TEMPERATURE 40 C
AC$CHROMATOGRAPHY: FLOW_GRADIENT A/B = (99.5%/0.5% at 0 min, 99.5%/0.5% at 0.1 min, 20%/80% at 10 min, 0.5%/99.5% at 10.1 min, 0.5%/99.5% at 12.0 min, 99.5%/0.5% at 12.1 min, 99.5%/0.5% at 15.0 min)
AC$CHROMATOGRAPHY: FLOW_RATE 0.3 ml/min at 0 min, 0.3 ml/min at 10 min, 0.4 ml/min at 10.1 min, 0.4 ml/min at 14.4 min, 0.3 ml/min at 14.5 min
AC$CHROMATOGRAPHY: RETENTION_TIME 8.6288
AC$CHROMATOGRAPHY: SOLVENT A water including 0.1% formic acid
AC$CHROMATOGRAPHY: SOLVENT B acetonitrile including 0.1% formic acid
MS$FOCUSED_ION: PRECURSOR_TYPE [M+H]+
MS$FOCUSED_ION: PRECURSOR_M/Z 267.1379563
PK$SPLASH: splash10-0002-0950000000-2bf739b304ed4c3161d5
PK$NUM_PEAK: 42
PK$PEAK: m/z int. rel.int.
  105.07035 68.0 68
  116.0619 71.0 71
  135.06882 83.0 83
  142.07733 58.0 58
  144.06728 129.0 129
  157.06252 55.0 55
  166.07756 148.0 148
  167.08102 52.0 52
  171.06549 77.0 77
  178.07822 114.0 114
  179.09097 120.0 120
  182.06955 135.0 135
  184.04451 111.0 111
  190.0769 65.0 65
  191.08821 83.0 83
  193.05566 62.0 62
  193.06473 80.0 80
  193.09718 268.0 268
  195.08672 77.0 77
  197.05823 1000.0 999
  197.09135 89.0 89
  198.06438 129.0 129
  198.07616 80.0 80
  207.0755 58.0 58
  207.08173 151.0 151
  208.08934 65.0 65
  209.09818 157.0 157
  210.06004 86.0 86
  210.07266 55.0 55
  211.06992 98.0 98
  211.08006 255.0 255
  215.07571 142.0 142
  216.09315 71.0 71
  217.097 71.0 71
  223.08514 55.0 55
  224.07727 105.0 105
  224.09044 55.0 55
  227.08862 123.0 123
  235.07385 62.0 62
  239.0974 71.0 71
  239.12042 102.0 102
  251.11227 77.0 77
//
