ACCESSION: MSBNK-RIKEN-PR309031
RECORD_TITLE: Isoflavone base + 2O + 1MeO + 1Prenyl; LC-ESI-QTOF; MS2
DATE: 2019.03.28
AUTHORS: Tetsuya Mori, Center for Sustainable Resource Science, RIKEN
LICENSE: CC BY-NC-SA
PUBLICATION: Tsugawa H., Nakabayashi R., Mori T., Yamada Y., Takahashi M., Rai A., Sugiyama R., Yamamoto H., Nakaya T., Yamazaki M., Kooke R., Bac-Molenaar JA., Oztolan-Erol N., Keurentjes JJB., Arita M., Saito K. (2019) "A cheminformatics approach to characterize metabolomes in stable-isotope-labeled organisms" Nature Methods 16(4):295-298. [doi:10.1038/s41592-019-0358-2]
COMMENT: Annotation level-3
CH$NAME: Isoflavone base + 2O + 1MeO + 1Prenyl
CH$COMPOUND_CLASS: Prenylated isoflavones
CH$FORMULA: C21H20O5
CH$EXACT_MASS: 352.386
CH$SMILES: O=C1C(=COC=2C=C(O)C(=C(O)C1=2)CC=C(C)C)C3=CC=C(OC)C=C3
CH$IUPAC: InChI=1S/C21H20O5/c1-12(2)4-9-15-17(22)10-18-19(20(15)23)21(24)16(11-26-18)13-5-7-14(25-3)8-6-13/h4-8,10-11,22-23H,9H2,1-3H3
CH$LINK: INCHIKEY JQNSUDIGIIGIOL-UHFFFAOYSA-N
AC$INSTRUMENT: LC, Waters Acquity UPLC System; MS, Waters Xevo G2 Q-Tof
AC$INSTRUMENT_TYPE: LC-ESI-QTOF
AC$MASS_SPECTROMETRY: MS_TYPE MS2
AC$MASS_SPECTROMETRY: ION_MODE NEGATIVE
AC$MASS_SPECTROMETRY: COLLISION_ENERGY 6V
AC$MASS_SPECTROMETRY: DESOLVATION_GAS_FLOW 800/h
AC$MASS_SPECTROMETRY: DESOLVATION_TEMPERATURE 450 C
AC$MASS_SPECTROMETRY: IONIZATION ESI
AC$CHROMATOGRAPHY: CAPILLARY_VOLTAGE +3.00 kV
AC$CHROMATOGRAPHY: COLUMN_NAME Acquity bridged ethyl hybrid C18 (1.7 um, 2.1 mm * 100 mm, Waters)
AC$CHROMATOGRAPHY: COLUMN_TEMPERATURE 40 C
AC$CHROMATOGRAPHY: FLOW_GRADIENT A/B = (99.5%/0.5% at 0 min, 99.5%/0.5% at 0.1 min, 20%/80% at 10 min, 0.5%/99.5% at 10.1 min, 0.5%/99.5% at 12.0 min, 99.5%/0.5% at 12.1 min, 99.5%/0.5% at 15.0 min)
AC$CHROMATOGRAPHY: FLOW_RATE 0.3 ml/min at 0 min, 0.3 ml/min at 10 min, 0.4 ml/min at 10.1 min, 0.4 ml/min at 14.4 min, 0.3 ml/min at 14.5 min
AC$CHROMATOGRAPHY: RETENTION_TIME 8.02
AC$CHROMATOGRAPHY: SOLVENT A water including 0.1% formic acid
AC$CHROMATOGRAPHY: SOLVENT B acetonitrile including 0.1% formic acid
MS$FOCUSED_ION: PRECURSOR_TYPE [M-H]-
MS$FOCUSED_ION: PRECURSOR_M/Z 351.1218
PK$SPLASH: splash10-0udi-0159000000-76dea80c11f8d03053f6
PK$NUM_PEAK: 19
PK$PEAK: m/z int. rel.int.
  57.86712 19.0 60
  108.01427 21.0 66
  177.02011 23.0 72
  184.04918 19.0 60
  184.87833 21.0 66
  201.0947 23.0 72
  221.06615 19.0 60
  231.08183 21.0 66
  233.06891 28.0 88
  237.05698 107.0 336
  243.06053 18.0 57
  267.03259 22.0 69
  281.04913 21.0 66
  293.02982 24.0 75
  293.05591 20.0 63
  336.10098 91.0 286
  336.11066 26.0 82
  351.12457 318.0 999
  351.13431 95.0 298
//
