ACCESSION: MSBNK-RIKEN-PR300310
RECORD_TITLE: 14,15-Dehydro-16-epi-vincamine; LC-ESI-QTOF; MS2
DATE: 2019.03.28
AUTHORS: Tetsuya Mori, Center for Sustainable Resource Science, RIKEN
LICENSE: CC BY-NC-SA
PUBLICATION: Tsugawa H., Nakabayashi R., Mori T., Yamada Y., Takahashi M., Rai A., Sugiyama R., Yamamoto H., Nakaya T., Yamazaki M., Kooke R., Bac-Molenaar JA., Oztolan-Erol N., Keurentjes JJB., Arita M., Saito K. (2019) "A cheminformatics approach to characterize metabolomes in stable-isotope-labeled organisms" Nature Methods 16(4):295-298. [doi:10.1038/s41592-019-0358-2]
COMMENT: registered in RIKEN PlaSMA
CH$NAME: 14,15-Dehydro-16-epi-vincamine
CH$COMPOUND_CLASS: Eburnan-type alkaloids
CH$FORMULA: C21H24N2O3
CH$EXACT_MASS: 352.434
CH$SMILES: CC[C@]12C[C@](O)(N3C4=CC=CC=C4C4=C3[C@H]1N(CC4)CC=C2)C(=O)OC
CH$IUPAC: InChI=1S/C21H24N2O3/c1-3-20-10-6-11-22-12-9-15-14-7-4-5-8-16(14)23(17(15)18(20)22)21(25,13-20)19(24)26-2/h4-8,10,18,25H,3,9,11-13H2,1-2H3/t18-,20+,21-/m1/s1
CH$LINK: INCHIKEY BQGJXFQCMYJENQ-HLAWJBBLSA-N
AC$INSTRUMENT: LC, Waters Acquity UPLC System; MS, Waters Xevo G2 Q-Tof
AC$INSTRUMENT_TYPE: LC-ESI-QTOF
AC$MASS_SPECTROMETRY: MS_TYPE MS2
AC$MASS_SPECTROMETRY: ION_MODE POSITIVE
AC$MASS_SPECTROMETRY: COLLISION_ENERGY 6V
AC$MASS_SPECTROMETRY: DESOLVATION_GAS_FLOW 800/h
AC$MASS_SPECTROMETRY: DESOLVATION_TEMPERATURE 450 C
AC$MASS_SPECTROMETRY: IONIZATION ESI
AC$CHROMATOGRAPHY: CAPILLARY_VOLTAGE +3.00 kV
AC$CHROMATOGRAPHY: COLUMN_NAME Acquity bridged ethyl hybrid C18 (1.7 um, 2.1 mm * 100 mm, Waters)
AC$CHROMATOGRAPHY: COLUMN_TEMPERATURE 40 C
AC$CHROMATOGRAPHY: FLOW_GRADIENT A/B = (99.5%/0.5% at 0 min, 99.5%/0.5% at 0.1 min, 20%/80% at 10 min, 0.5%/99.5% at 10.1 min, 0.5%/99.5% at 12.0 min, 99.5%/0.5% at 12.1 min, 99.5%/0.5% at 15.0 min)
AC$CHROMATOGRAPHY: FLOW_RATE 0.3 ml/min at 0 min, 0.3 ml/min at 10 min, 0.4 ml/min at 10.1 min, 0.4 ml/min at 14.4 min, 0.3 ml/min at 14.5 min
AC$CHROMATOGRAPHY: RETENTION_TIME 4.255667
AC$CHROMATOGRAPHY: SOLVENT A water including 0.1% formic acid
AC$CHROMATOGRAPHY: SOLVENT B acetonitrile including 0.1% formic acid
MS$FOCUSED_ION: PRECURSOR_TYPE [M+H]+
MS$FOCUSED_ION: PRECURSOR_M/Z 353.1859691
PK$SPLASH: splash10-0006-0982000000-7c9791559f1361ac0a9a
PK$NUM_PEAK: 200
PK$PEAK: m/z int. rel.int.
  69.0742 8.0 8
  70.06496 7.0 7
  79.05476 17.0 17
  80.05115 12.0 12
  93.06955 13.0 13
  94.06487 25.0 25
  96.08056 29.0 29
  107.08756 5.0 5
  108.07633 15.0 15
  108.08365 6.0 6
  109.08532 5.0 5
  118.06429 10.0 10
  120.07874 11.0 11
  121.06377 13.0 13
  122.09667 6.0 6
  130.06601 29.0 29
  131.07155 6.0 6
  132.08366 12.0 12
  133.06363 8.0 8
  134.09453 7.0 7
  136.07892 9.0 9
  138.05475 6.0 6
  142.06529 8.0 8
  143.07486 5.0 5
  144.04161 5.0 5
  144.05043 10.0 10
  144.08057 1000.0 999
  144.11597 7.0 7
  145.08395 127.0 127
  146.0901 9.0 9
  146.10098 11.0 11
  148.0739 27.0 27
  148.08282 5.0 5
  150.09047 44.0 44
  154.06218 11.0 11
  154.0679 20.0 20
  155.07173 9.0 9
  156.08234 22.0 22
  157.08711 6.0 6
  158.09552 29.0 29
  159.09616 7.0 7
  160.07404 10.0 10
  162.09886 6.0 6
  166.06902 5.0 5
  167.06908 9.0 9
  167.08347 7.0 7
  168.08116 118.0 118
  169.0733 6.0 6
  169.08553 23.0 23
  170.08838 14.0 14
  171.09175 187.0 187
  172.06853 6.0 6
  172.07927 9.0 9
  172.08873 13.0 13
  172.09973 5.0 5
  180.0793 30.0 30
  180.08688 10.0 10
  181.06903 7.0 7
  181.08653 21.0 21
  181.09921 7.0 7
  182.09857 44.0 44
  183.08742 7.0 7
  183.09415 7.0 7
  184.10034 5.0 5
  184.1105 9.0 9
  192.075 5.0 5
  193.08272 9.0 9
  193.09015 10.0 10
  194.05966 6.0 6
  194.09052 16.0 16
  194.10121 7.0 7
  196.1008 6.0 6
  196.11412 24.0 24
  197.10834 11.0 11
  197.11812 16.0 16
  198.12846 5.0 5
  200.09309 5.0 5
  204.09312 8.0 8
  205.08435 6.0 6
  206.092 6.0 6
  207.10454 17.0 17
  208.07732 6.0 6
  208.09969 24.0 24
  208.11272 46.0 46
  209.10986 9.0 9
  209.11932 22.0 22
  210.05789 6.0 6
  210.09219 92.0 92
  210.11469 39.0 39
  210.13147 11.0 11
  211.08652 9.0 9
  211.09793 13.0 13
  211.12968 9.0 9
  217.08264 8.0 8
  217.09456 11.0 11
  218.09351 18.0 18
  218.10182 11.0 11
  219.10527 17.0 17
  220.11212 16.0 16
  220.12274 8.0 8
  221.11763 24.0 24
  222.08954 6.0 6
  222.11301 24.0 24
  222.12906 92.0 92
  223.12672 62.0 62
  223.14049 8.0 8
  224.12579 7.0 7
  226.12415 6.0 6
  228.09999 44.0 44
  228.1095 23.0 23
  229.10799 11.0 11
  231.10556 13.0 13
  232.11012 12.0 12
  234.12437 17.0 17
  234.13608 5.0 5
  236.10759 12.0 12
  236.11684 10.0 10
  236.14177 24.0 24
  237.13756 13.0 13
  238.09685 6.0 6
  238.12192 36.0 36
  239.08185 5.0 5
  239.09648 21.0 21
  239.12738 7.0 7
  240.10068 13.0 13
  244.10843 17.0 17
  245.11269 8.0 8
  246.10815 5.0 5
  246.12546 75.0 75
  247.11382 7.0 7
  247.13153 79.0 79
  248.12311 8.0 8
  248.13844 24.0 24
  248.15201 8.0 8
  250.1245 11.0 11
  250.14035 7.0 7
  251.1523 40.0 40
  252.10262 152.0 152
  252.15877 10.0 10
  253.10387 36.0 36
  253.16763 5.0 5
  254.11404 13.0 13
  259.1467 6.0 6
  261.14136 8.0 8
  262.0863 10.0 10
  262.12454 14.0 14
  263.10992 7.0 7
  263.12531 16.0 16
  264.11899 8.0 8
  264.1402 62.0 62
  265.14642 13.0 13
  266.12744 9.0 9
  267.12079 7.0 7
  268.13159 48.0 48
  269.13065 9.0 9
  270.11481 75.0 75
  271.11252 11.0 11
  274.116 9.0 9
  274.12524 27.0 27
  275.14679 10.0 10
  275.15979 18.0 18
  276.10477 23.0 23
  276.15073 20.0 20
  276.16556 12.0 12
  277.10922 53.0 53
  277.12985 6.0 6
  277.15042 10.0 10
  278.11703 10.0 10
  280.13077 31.0 31
  289.10822 7.0 7
  290.11945 11.0 11
  291.11429 7.0 7
  291.14349 8.0 8
  292.12979 13.0 13
  292.14975 6.0 6
  293.12271 6.0 6
  293.13745 14.0 14
  293.1665 95.0 95
  294.14297 6.0 6
  294.15631 15.0 15
  294.17233 19.0 19
  296.16394 7.0 7
  298.14697 15.0 15
  303.12668 6.0 6
  303.15161 7.0 7
  304.12854 11.0 11
  305.12787 42.0 42
  306.1311 30.0 30
  306.14871 140.0 140
  307.14581 36.0 36
  307.16141 11.0 11
  308.16022 8.0 8
  323.14102 6.0 6
  324.14938 9.0 9
  324.16537 30.0 30
  325.15973 8.0 8
  335.17703 60.0 60
  336.18106 15.0 15
  337.17392 7.0 7
  353.18518 108.0 108
//
