ACCESSION: MSBNK-RIKEN-PR310616
RECORD_TITLE: Dehydrocorydaline; LC-ESI-QTOF; MS2
DATE: 2019.03.28
AUTHORS: Tetsuya Mori, Center for Sustainable Resource Science, RIKEN
LICENSE: CC BY-NC-SA
PUBLICATION: Tsugawa H., Nakabayashi R., Mori T., Yamada Y., Takahashi M., Rai A., Sugiyama R., Yamamoto H., Nakaya T., Yamazaki M., Kooke R., Bac-Molenaar JA., Oztolan-Erol N., Keurentjes JJB., Arita M., Saito K. (2019) "A cheminformatics approach to characterize metabolomes in stable-isotope-labeled organisms" Nature Methods 16(4):295-298. [doi:10.1038/s41592-019-0358-2]
COMMENT: Annotation level-1
CH$NAME: Dehydrocorydaline
CH$COMPOUND_CLASS: Alkaloids
CH$FORMULA: [C22H24NO4]+
CH$EXACT_MASS: 366.437
CH$SMILES: COC1=CC2=C(C=C1OC)C1=C(C)C3=C(C=[N+]1CC2)C(OC)=C(OC)C=C3
CH$IUPAC: InChI=1S/C22H24NO4/c1-13-15-6-7-18(24-2)22(27-5)17(15)12-23-9-8-14-10-19(25-3)20(26-4)11-16(14)21(13)23/h6-7,10-12H,8-9H2,1-5H3/q+1
CH$LINK: INCHIKEY RFKQJTRWODZPHF-UHFFFAOYSA-N
AC$INSTRUMENT: LC, Waters Acquity UPLC System; MS, Waters Xevo G2 Q-Tof
AC$INSTRUMENT_TYPE: LC-ESI-QTOF
AC$MASS_SPECTROMETRY: MS_TYPE MS2
AC$MASS_SPECTROMETRY: ION_MODE POSITIVE
AC$MASS_SPECTROMETRY: COLLISION_ENERGY 6V
AC$MASS_SPECTROMETRY: DESOLVATION_GAS_FLOW 800/h
AC$MASS_SPECTROMETRY: DESOLVATION_TEMPERATURE 450 C
AC$MASS_SPECTROMETRY: IONIZATION ESI
AC$CHROMATOGRAPHY: CAPILLARY_VOLTAGE +3.00 kV
AC$CHROMATOGRAPHY: COLUMN_NAME Acquity bridged ethyl hybrid C18 (1.7 um, 2.1 mm * 100 mm, Waters)
AC$CHROMATOGRAPHY: COLUMN_TEMPERATURE 40 C
AC$CHROMATOGRAPHY: FLOW_GRADIENT A/B = (99.5%/0.5% at 0 min, 99.5%/0.5% at 0.1 min, 20%/80% at 10 min, 0.5%/99.5% at 10.1 min, 0.5%/99.5% at 12.0 min, 99.5%/0.5% at 12.1 min, 99.5%/0.5% at 15.0 min)
AC$CHROMATOGRAPHY: FLOW_RATE 0.3 ml/min at 0 min, 0.3 ml/min at 10 min, 0.4 ml/min at 10.1 min, 0.4 ml/min at 14.4 min, 0.3 ml/min at 14.5 min
AC$CHROMATOGRAPHY: RETENTION_TIME 5.19
AC$CHROMATOGRAPHY: SOLVENT A water including 0.1% formic acid
AC$CHROMATOGRAPHY: SOLVENT B acetonitrile including 0.1% formic acid
MS$FOCUSED_ION: PRECURSOR_TYPE [M]+
MS$FOCUSED_ION: PRECURSOR_M/Z 366.16944
PK$SPLASH: splash10-014i-0009000000-8cd745bab3752528a8cd
PK$NUM_PEAK: 307
PK$PEAK: m/z int. rel.int.
  54.32251 18.0 0
  67.9939 17.0 0
  102.68539 17.0 0
  103.48095 23.0 1
  118.88863 21.0 0
  120.06147 44.0 1
  155.04654 17.0 0
  158.31856 32.0 1
  172.45609 17.0 0
  182.31258 28.0 1
  190.35146 22.0 0
  191.94077 17.0 0
  198.11528 18.0 0
  203.90736 24.0 1
  209.66805 49.0 1
  211.45241 27.0 1
  212.91464 36.0 1
  212.93398 19.0 0
  216.08363 30.0 1
  217.46663 17.0 0
  219.82353 19.0 0
  221.89836 26.0 1
  222.929 33.0 1
  224.00266 17.0 0
  229.20836 17.0 0
  231.53128 21.0 0
  231.59042 17.0 0
  234.71797 17.0 0
  236.0724 34.0 1
  236.58488 30.0 1
  237.61784 20.0 0
  238.3777 30.0 1
  238.44373 36.0 1
  238.87538 18.0 0
  239.00735 17.0 0
  245.09406 24.0 1
  247.09799 105.0 2
  247.11957 55.0 1
  248.05757 18.0 0
  248.09546 66.0 1
  248.11391 18.0 0
  249.07057 18.0 0
  249.08246 44.0 1
  249.10963 29.0 1
  249.12651 50.0 1
  249.5197 21.0 0
  250.07878 33.0 1
  250.09518 53.0 1
  250.12416 40.0 1
  250.3568 34.0 1
  251.08917 41.0 1
  252.15373 58.0 1
  253.72961 24.0 1
  255.93054 19.0 0
  257.07062 21.0 0
  258.09305 21.0 0
  258.58313 18.0 0
  259.01434 27.0 1
  259.09595 21.0 0
  260.10895 48.0 1
  260.29169 33.0 1
  260.37384 40.0 1
  261.08905 21.0 0
  261.11407 68.0 2
  261.17914 33.0 1
  263.10886 18.0 0
  264.06998 23.0 1
  264.08478 28.0 1
  264.09924 254.0 6
  264.11319 19.0 0
  264.12808 32.0 1
  265.12143 34.0 1
  266.17886 25.0 1
  273.95654 24.0 1
  274.10916 19.0 0
  275.05182 19.0 0
  275.08362 30.0 1
  276.08878 32.0 1
  276.09821 48.0 1
  276.11316 54.0 1
  277.07996 28.0 1
  277.11392 98.0 2
  278.10812 184.0 4
  278.12299 355.0 8
  278.65759 23.0 1
  278.79758 19.0 0
  279.00201 26.0 1
  279.1098 67.0 2
  280.11926 58.0 1
  286.08789 40.0 1
  288.0571 17.0 0
  288.08649 30.0 1
  288.11029 26.0 1
  289.06085 21.0 0
  289.08936 17.0 0
  289.10419 72.0 2
  289.11908 100.0 2
  289.13068 65.0 1
  290.07513 20.0 0
  290.08838 25.0 1
  290.11212 182.0 4
  291.0759 38.0 1
  291.1174 31.0 1
  291.12747 40.0 1
  292.05063 17.0 0
  292.06461 28.0 1
  292.103 647.0 15
  292.13199 22.0 0
  292.99579 17.0 0
  293.09412 144.0 3
  293.10593 279.0 6
  293.12564 34.0 1
  293.13773 25.0 1
  293.16336 34.0 1
  293.54343 18.0 0
  293.79312 28.0 1
  293.93317 25.0 1
  294.10629 123.0 3
  294.13171 23.0 1
  294.67587 25.0 1
  295.16226 48.0 1
  299.27289 34.0 1
  302.27637 17.0 0
  302.97589 32.0 1
  303.07785 20.0 0
  304.08783 90.0 2
  304.12961 59.0 1
  304.5575 17.0 0
  305.07385 48.0 1
  305.09116 58.0 1
  305.10352 186.0 4
  305.142 527.0 12
  305.15155 216.0 5
  305.24631 18.0 0
  305.72379 27.0 1
  305.78989 18.0 0
  306.03226 28.0 1
  306.05035 24.0 1
  306.0618 73.0 2
  306.11505 2434.0 55
  306.1514 126.0 3
  306.17053 50.0 1
  306.35651 21.0 0
  306.81863 23.0 1
  307.10364 144.0 3
  307.12241 1153.0 26
  307.27048 24.0 1
  307.51819 23.0 1
  307.71808 18.0 0
  307.99869 22.0 0
  308.06583 63.0 1
  308.10074 155.0 4
  308.12802 2707.0 61
  308.16629 29.0 1
  308.18066 29.0 1
  308.32239 17.0 0
  308.34769 17.0 0
  308.46225 17.0 0
  308.49298 20.0 0
  308.58826 17.0 0
  309.05392 20.0 0
  309.13013 620.0 14
  309.14597 122.0 3
  310.10565 35.0 1
  310.13373 59.0 1
  310.15134 18.0 0
  310.2811 41.0 1
  310.98349 17.0 0
  313.70642 17.0 0
  314.67035 18.0 0
  316.38306 24.0 1
  317.09302 22.0 0
  317.86633 22.0 0
  318.09631 85.0 2
  318.11411 298.0 7
  318.13037 113.0 3
  318.17197 26.0 1
  318.40817 24.0 1
  318.4502 17.0 0
  318.82269 25.0 1
  319.09872 24.0 1
  319.11649 256.0 6
  320.08224 36.0 1
  320.09583 150.0 3
  320.11749 70.0 2
  320.13669 39.0 1
  321.06653 22.0 0
  321.09845 117.0 3
  321.13086 217.0 5
  321.14651 229.0 5
  321.45099 20.0 0
  321.85233 31.0 1
  322.02957 20.0 0
  322.0777 29.0 1
  322.10458 20.0 0
  322.1214 191.0 4
  322.14487 5869.0 133
  322.18961 21.0 0
  322.37732 26.0 1
  323.0961 48.0 1
  323.14642 1122.0 25
  323.3985 20.0 0
  324.11267 25.0 1
  324.1243 20.0 0
  324.14236 20.0 0
  324.15601 64.0 1
  324.16763 25.0 1
  324.7374 20.0 0
  325.20935 21.0 0
  325.67447 21.0 0
  328.20053 19.0 0
  330.17545 17.0 0
  331.79849 19.0 0
  332.03271 24.0 1
  332.07877 37.0 1
  332.0957 253.0 6
  333.08942 27.0 1
  333.10687 69.0 2
  333.14435 21.0 0
  334.02893 29.0 1
  334.05368 26.0 1
  334.10794 2230.0 51
  334.13196 610.0 14
  334.14792 769.0 17
  334.16006 346.0 8
  334.44168 21.0 0
  334.73828 28.0 1
  334.81708 17.0 0
  335.08316 45.0 1
  335.11526 1430.0 32
  335.15112 422.0 10
  335.42905 30.0 1
  335.46973 18.0 0
  335.61789 18.0 0
  335.90872 41.0 1
  335.91965 18.0 0
  336.12259 2373.0 54
  336.20029 24.0 1
  336.30978 18.0 0
  337.04938 21.0 0
  337.12622 623.0 14
  338.13065 81.0 2
  338.26871 20.0 0
  338.76086 23.0 1
  340.02682 21.0 0
  342.3009 18.0 0
  344.79758 19.0 0
  345.4136 22.0 0
  347.0278 22.0 0
  347.98117 17.0 0
  348.11102 133.0 3
  348.12439 112.0 3
  348.14072 18.0 0
  348.73657 36.0 1
  349.12213 77.0 2
  350.06082 20.0 0
  350.07983 50.0 1
  350.09933 229.0 5
  350.13968 9856.0 223
  350.24084 17.0 0
  350.39993 28.0 1
  350.72919 20.0 0
  350.74255 26.0 1
  351.03519 21.0 0
  351.05576 18.0 0
  351.08362 48.0 1
  351.10452 71.0 2
  351.14569 6573.0 149
  351.46359 24.0 1
  351.58295 22.0 0
  351.78687 34.0 1
  351.82996 20.0 0
  351.92862 22.0 0
  352.10037 20.0 0
  352.11783 198.0 4
  352.15164 1554.0 35
  352.23376 26.0 1
  353.10388 25.0 1
  353.15457 403.0 9
  353.18237 20.0 0
  353.22815 34.0 1
  353.71112 17.0 0
  354.14349 46.0 1
  354.15833 30.0 1
  355.42249 34.0 1
  355.44214 18.0 0
  355.85971 26.0 1
  357.55899 20.0 0
  359.02646 20.0 0
  362.7869 32.0 1
  363.13022 26.0 1
  363.93723 21.0 0
  364.31305 24.0 1
  365.1572 32.0 1
  365.1915 18.0 0
  365.61575 21.0 0
  365.92178 25.0 1
  366.08401 106.0 2
  366.10779 241.0 5
  366.12378 278.0 6
  366.1694 44108.0 999
  366.22406 1390.0 31
  366.25464 17.0 0
  366.27106 46.0 1
  366.28552 15.0 0
  366.31653 18.0 0
  366.33319 17.0 0
//
