ACCESSION: MSBNK-RIKEN-PR303888
RECORD_TITLE: Ginkgolide C; LC-ESI-QTOF; MS2
DATE: 2019.03.28
AUTHORS: Tetsuya Mori, Center for Sustainable Resource Science, RIKEN
LICENSE: CC BY-NC-SA
PUBLICATION: Tsugawa H., Nakabayashi R., Mori T., Yamada Y., Takahashi M., Rai A., Sugiyama R., Yamamoto H., Nakaya T., Yamazaki M., Kooke R., Bac-Molenaar JA., Oztolan-Erol N., Keurentjes JJB., Arita M., Saito K. (2019) "A cheminformatics approach to characterize metabolomes in stable-isotope-labeled organisms" Nature Methods 16(4):295-298. [doi:10.1038/s41592-019-0358-2]
COMMENT: registered in RIKEN PlaSMA
CH$NAME: Ginkgolide C
CH$COMPOUND_CLASS: Ginkgolides and bilobalides
CH$FORMULA: C20H24O11
CH$EXACT_MASS: 440.401
CH$SMILES: CC1C(=O)OC2C(O)C34C5OC(=O)C3(OC3OC(=O)C(O)C43C(C5O)C(C)(C)C)C12O
CH$IUPAC: InChI=1S/C20H24O11/c1-5-12(24)28-11-8(22)18-10-6(21)7(16(2,3)4)17(18)9(23)13(25)30-15(17)31-20(18,14(26)29-10)19(5,11)27/h5-11,15,21-23,27H,1-4H3
CH$LINK: INCHIKEY AMOGMTLMADGEOQ-UHFFFAOYSA-N
AC$INSTRUMENT: LC, Waters Acquity UPLC System; MS, Waters Xevo G2 Q-Tof
AC$INSTRUMENT_TYPE: LC-ESI-QTOF
AC$MASS_SPECTROMETRY: MS_TYPE MS2
AC$MASS_SPECTROMETRY: ION_MODE POSITIVE
AC$MASS_SPECTROMETRY: COLLISION_ENERGY 6V
AC$MASS_SPECTROMETRY: DESOLVATION_GAS_FLOW 800/h
AC$MASS_SPECTROMETRY: DESOLVATION_TEMPERATURE 450 C
AC$MASS_SPECTROMETRY: IONIZATION ESI
AC$CHROMATOGRAPHY: CAPILLARY_VOLTAGE +3.00 kV
AC$CHROMATOGRAPHY: COLUMN_NAME Acquity bridged ethyl hybrid C18 (1.7 um, 2.1 mm * 100 mm, Waters)
AC$CHROMATOGRAPHY: COLUMN_TEMPERATURE 40 C
AC$CHROMATOGRAPHY: FLOW_GRADIENT A/B = (99.5%/0.5% at 0 min, 99.5%/0.5% at 0.1 min, 20%/80% at 10 min, 0.5%/99.5% at 10.1 min, 0.5%/99.5% at 12.0 min, 99.5%/0.5% at 12.1 min, 99.5%/0.5% at 15.0 min)
AC$CHROMATOGRAPHY: FLOW_RATE 0.3 ml/min at 0 min, 0.3 ml/min at 10 min, 0.4 ml/min at 10.1 min, 0.4 ml/min at 14.4 min, 0.3 ml/min at 14.5 min
AC$CHROMATOGRAPHY: RETENTION_TIME 4.33045
AC$CHROMATOGRAPHY: SOLVENT A water including 0.1% formic acid
AC$CHROMATOGRAPHY: SOLVENT B acetonitrile including 0.1% formic acid
MS$FOCUSED_ION: PRECURSOR_TYPE [M+H]+
MS$FOCUSED_ION: PRECURSOR_M/Z 441.139138
PK$SPLASH: splash10-0006-0464900000-af5e2e023138cc7f6674
PK$NUM_PEAK: 186
PK$PEAK: m/z int. rel.int.
  69.03712 5.0 5
  79.05427 8.0 8
  83.01222 11.0 11
  83.08539 5.0 5
  95.01032 9.0 9
  104.18375 5.0 5
  105.07021 6.0 6
  109.09884 5.0 5
  121.07565 6.0 6
  124.11196 6.0 6
  128.00352 6.0 6
  129.07089 7.0 7
  131.04527 6.0 6
  135.03853 6.0 6
  135.07907 9.0 9
  141.05992 7.0 7
  144.05771 7.0 7
  147.04613 6.0 6
  149.06557 9.0 9
  156.09962 6.0 6
  157.03804 8.0 8
  157.10344 10.0 10
  159.04089 7.0 7
  159.08469 5.0 5
  160.08223 6.0 6
  167.24466 6.0 6
  170.10924 6.0 6
  171.0262 6.0 6
  171.04138 6.0 6
  173.05933 14.0 14
  175.04233 9.0 9
  175.06546 10.0 10
  175.07298 10.0 10
  176.07997 5.0 5
  177.03578 6.0 6
  177.05359 80.0 80
  178.03032 9.0 9
  178.07671 9.0 9
  182.08101 8.0 8
  183.04544 6.0 6
  187.03682 7.0 7
  188.03317 7.0 7
  189.05315 12.0 12
  189.06409 10.0 10
  190.09677 6.0 6
  191.07007 6.0 6
  193.06343 7.0 7
  193.08463 7.0 7
  195.01709 6.0 6
  195.02841 48.0 48
  195.06363 6.0 6
  196.02946 6.0 6
  196.07928 5.0 5
  197.03464 7.0 7
  197.14105 5.0 5
  199.0318 6.0 6
  199.04982 5.0 5
  199.0739 16.0 16
  201.05434 22.0 22
  201.09622 7.0 7
  202.05936 5.0 5
  202.10188 7.0 7
  203.07002 9.0 9
  203.14374 6.0 6
  203.23837 8.0 8
  205.05081 48.0 48
  205.11189 5.0 5
  209.04539 6.0 6
  209.05568 8.0 8
  211.0518 6.0 6
  211.10207 6.0 6
  213.0601 6.0 6
  213.09566 10.0 10
  215.0352 5.0 5
  219.03177 6.0 6
  219.06841 10.0 10
  220.0795 5.0 5
  223.10716 7.0 7
  223.11667 7.0 7
  225.0663 6.0 6
  226.04189 6.0 6
  227.05928 5.0 5
  227.82976 6.0 6
  228.06905 8.0 8
  229.05339 22.0 22
  230.04907 10.0 10
  231.06613 10.0 10
  231.12221 6.0 6
  231.13467 11.0 11
  233.04501 35.0 35
  235.02161 5.0 5
  235.05696 7.0 7
  235.07718 6.0 6
  238.05171 6.0 6
  241.13361 8.0 8
  242.08212 5.0 5
  243.03094 6.0 6
  246.9581 6.0 6
  247.0463 6.0 6
  247.05864 17.0 17
  247.06427 7.0 7
  249.03723 6.0 6
  249.14536 7.0 7
  250.08011 7.0 7
  251.05334 90.0 90
  251.0647 20.0 20
  252.06319 6.0 6
  252.10353 6.0 6
  254.03175 7.0 7
  257.03687 5.0 5
  257.10593 6.0 6
  259.06268 6.0 6
  261.05545 8.0 8
  262.60818 6.0 6
  265.06427 6.0 6
  268.89236 6.0 6
  271.21643 9.0 9
  273.11041 6.0 6
  275.04715 19.0 19
  276.12143 6.0 6
  277.07465 6.0 6
  279.04141 20.0 20
  279.0502 6.0 6
  280.04224 5.0 5
  280.43771 12.0 12
  282.06512 6.0 6
  287.0755 6.0 6
  287.12003 5.0 5
  288.12326 6.0 6
  291.76187 5.0 5
  293.06644 7.0 7
  294.14325 7.0 7
  297.052 7.0 7
  297.13351 7.0 7
  298.06183 6.0 6
  298.10864 5.0 5
  303.13492 7.0 7
  307.04147 56.0 56
  308.05719 6.0 6
  309.05136 7.0 7
  311.06979 8.0 8
  321.05847 7.0 7
  321.10593 10.0 10
  321.12985 20.0 20
  323.10934 8.0 8
  323.12796 7.0 7
  324.72519 6.0 6
  325.03619 6.0 6
  325.05362 114.0 114
  326.06262 7.0 7
  327.08679 5.0 5
  331.11929 12.0 12
  332.02847 7.0 7
  335.06958 5.0 5
  339.07092 10.0 10
  341.10452 5.0 5
  342.09973 10.0 10
  349.11453 6.0 6
  349.13788 6.0 6
  350.12738 5.0 5
  353.03784 8.0 8
  353.05319 40.0 40
  353.49838 6.0 6
  359.10504 27.0 27
  366.13101 7.0 7
  367.06064 6.0 6
  367.07443 12.0 12
  367.1228 8.0 8
  367.1395 6.0 6
  377.11176 11.0 11
  377.13391 6.0 6
  378.1153 10.0 10
  378.13794 10.0 10
  379.10587 6.0 6
  395.10568 5.0 5
  395.12686 15.0 15
  395.14157 19.0 19
  396.15378 11.0 11
  405.10971 6.0 6
  405.12793 7.0 7
  423.11249 7.0 7
  423.13086 16.0 16
  441.06369 6.0 6
  441.08746 10.0 10
  441.13916 1000.0 999
  441.17111 12.0 12
//
