ACCESSION: MSBNK-RIKEN-PR303338
RECORD_TITLE: NP-000004(11); LC-ESI-QTOF; MS2
DATE: 2019.03.28
AUTHORS: Tetsuya Mori, Center for Sustainable Resource Science, RIKEN
LICENSE: CC BY-NC-SA
PUBLICATION: Tsugawa H., Nakabayashi R., Mori T., Yamada Y., Takahashi M., Rai A., Sugiyama R., Yamamoto H., Nakaya T., Yamazaki M., Kooke R., Bac-Molenaar JA., Oztolan-Erol N., Keurentjes JJB., Arita M., Saito K. (2019) "A cheminformatics approach to characterize metabolomes in stable-isotope-labeled organisms" Nature Methods 16(4):295-298. [doi:10.1038/s41592-019-0358-2]
COMMENT: registered in RIKEN PlaSMA
CH$NAME: NP-000004(11)
CH$COMPOUND_CLASS: Flavonoid 8-C-glycosides
CH$FORMULA: C26H28O14
CH$EXACT_MASS: 564.496
CH$SMILES: OC[C@@H]1OC([C@H](O)[C@H]1O)C1=C2OC(=CC(=O)C2=C(O)C(C2O[C@H](CO)[C@@H](O)[C@H](O)[C@H]2O)=C1O)C1=CC=C(O)C=C1
CH$IUPAC: InChI=1S/C26H28O14/c27-6-12-17(31)21(35)23(37)25(39-12)15-19(33)14-10(30)5-11(8-1-3-9(29)4-2-8)38-24(14)16(20(15)34)26-22(36)18(32)13(7-28)40-26/h1-5,12-13,17-18,21-23,25-29,31-37H,6-7H2/t12-,13+,17-,18+,21+,22-,23-,25?,26?/m1/s1
CH$LINK: INCHIKEY TUIJPUWSXVFWSH-FBMRRHFKSA-N
AC$INSTRUMENT: LC, Waters Acquity UPLC System; MS, Waters Xevo G2 Q-Tof
AC$INSTRUMENT_TYPE: LC-ESI-QTOF
AC$MASS_SPECTROMETRY: MS_TYPE MS2
AC$MASS_SPECTROMETRY: ION_MODE POSITIVE
AC$MASS_SPECTROMETRY: COLLISION_ENERGY 6V
AC$MASS_SPECTROMETRY: DESOLVATION_GAS_FLOW 800/h
AC$MASS_SPECTROMETRY: DESOLVATION_TEMPERATURE 450 C
AC$MASS_SPECTROMETRY: IONIZATION ESI
AC$CHROMATOGRAPHY: CAPILLARY_VOLTAGE +3.00 kV
AC$CHROMATOGRAPHY: COLUMN_NAME Acquity bridged ethyl hybrid C18 (1.7 um, 2.1 mm * 100 mm, Waters)
AC$CHROMATOGRAPHY: COLUMN_TEMPERATURE 40 C
AC$CHROMATOGRAPHY: FLOW_GRADIENT A/B = (99.5%/0.5% at 0 min, 99.5%/0.5% at 0.1 min, 20%/80% at 10 min, 0.5%/99.5% at 10.1 min, 0.5%/99.5% at 12.0 min, 99.5%/0.5% at 12.1 min, 99.5%/0.5% at 15.0 min)
AC$CHROMATOGRAPHY: FLOW_RATE 0.3 ml/min at 0 min, 0.3 ml/min at 10 min, 0.4 ml/min at 10.1 min, 0.4 ml/min at 14.4 min, 0.3 ml/min at 14.5 min
AC$CHROMATOGRAPHY: RETENTION_TIME 3.55055
AC$CHROMATOGRAPHY: SOLVENT A water including 0.1% formic acid
AC$CHROMATOGRAPHY: SOLVENT B acetonitrile including 0.1% formic acid
MS$FOCUSED_ION: PRECURSOR_TYPE [M+H]+
MS$FOCUSED_ION: PRECURSOR_M/Z 565.155182
PK$SPLASH: splash10-056r-0009800000-689fab73cbf24d3e0905
PK$NUM_PEAK: 258
PK$PEAK: m/z int. rel.int.
  218.80121 13.0 13
  234.76329 11.0 11
  261.60043 16.0 16
  283.05496 25.0 25
  284.07077 8.0 8
  288.30081 23.0 23
  291.07205 9.0 9
  294.06155 12.0 12
  295.05399 205.0 205
  295.07135 66.0 66
  295.08417 12.0 12
  296.04785 20.0 20
  296.0654 10.0 10
  297.03226 11.0 11
  297.06271 11.0 11
  299.10712 9.0 9
  301.07886 10.0 10
  302.53287 8.0 8
  305.23038 11.0 11
  307.03125 43.0 43
  307.06036 194.0 194
  308.06519 71.0 71
  309.0639 13.0 13
  309.07715 17.0 17
  310.06177 12.0 12
  315.58365 18.0 18
  316.71112 14.0 14
  319.0578 27.0 27
  321.03726 11.0 11
  321.06833 22.0 22
  323.0694 14.0 14
  323.07986 14.0 14
  325.04013 24.0 24
  325.06381 290.0 290
  325.07648 273.0 273
  326.03995 14.0 14
  326.05212 42.0 42
  326.07828 60.0 60
  327.06613 24.0 24
  327.0816 12.0 12
  329.04962 12.0 12
  329.08319 29.0 29
  331.06363 11.0 11
  332.17883 8.0 8
  332.19263 9.0 9
  333.06134 10.0 10
  333.08569 15.0 15
  335.07077 32.0 32
  335.10248 13.0 13
  336.04105 17.0 17
  336.05969 24.0 24
  337.07114 278.0 278
  338.07199 39.0 39
  338.09195 22.0 22
  339.07266 32.0 32
  344.05695 8.0 8
  345.08014 27.0 27
  345.09012 38.0 38
  345.10159 25.0 25
  347.08801 13.0 13
  347.1019 13.0 13
  349.06702 317.0 317
  349.08179 123.0 123
  350.05212 9.0 9
  350.06885 60.0 60
  350.08099 78.0 78
  350.98328 28.0 28
  351.04022 17.0 17
  351.07251 19.0 19
  351.09235 44.0 44
  353.04559 11.0 11
  353.0842 8.0 8
  354.0997 11.0 11
  354.55411 8.0 8
  355.06122 26.0 26
  355.0795 51.0 51
  355.09787 13.0 13
  356.09079 28.0 28
  357.07855 9.0 9
  358.09106 12.0 12
  359.05325 21.0 21
  361.07346 136.0 136
  361.09424 15.0 15
  362.04398 10.0 10
  362.06311 29.0 29
  362.08362 40.0 40
  363.06985 27.0 27
  363.08218 52.0 52
  363.10452 12.0 12
  364.09274 36.0 36
  365.07291 15.0 15
  365.08777 31.0 31
  366.06644 12.0 12
  367.0809 61.0 61
  368.0719 13.0 13
  368.08542 13.0 13
  370.92337 14.0 14
  373.02118 11.0 11
  373.0643 16.0 16
  373.07971 21.0 21
  373.09338 28.0 28
  374.07068 23.0 23
  375.05853 17.0 17
  375.07288 14.0 14
  375.09882 16.0 16
  375.72986 9.0 9
  378.78458 11.0 11
  379.03729 8.0 8
  379.05167 44.0 44
  379.08075 791.0 790
  379.69751 10.0 10
  380.07397 29.0 29
  380.09052 157.0 157
  381.07968 33.0 33
  381.10193 14.0 14
  382.09644 10.0 10
  385.07312 50.0 50
  387.07181 12.0 12
  389.08551 18.0 18
  390.05847 17.0 17
  390.11108 12.0 12
  391.00864 12.0 12
  391.03848 58.0 58
  391.07904 698.0 697
  391.54605 11.0 11
  392.08405 178.0 178
  393.04636 13.0 13
  393.09485 39.0 39
  395.60641 8.0 8
  397.07922 34.0 34
  397.09683 131.0 131
  398.08902 12.0 12
  398.10516 17.0 17
  398.21762 11.0 11
  398.91278 9.0 9
  399.12628 8.0 8
  400.25409 12.0 12
  401.04816 14.0 14
  401.0939 37.0 37
  402.10385 18.0 18
  402.6438 10.0 10
  403.06018 37.0 37
  403.08261 104.0 104
  404.08533 93.0 93
  405.05954 10.0 10
  405.0813 29.0 29
  405.09787 29.0 29
  405.11642 14.0 14
  406.11563 9.0 9
  406.25247 10.0 10
  406.31512 17.0 17
  409.02325 10.0 10
  409.08899 1000.0 999
  410.06134 11.0 11
  410.0842 76.0 76
  410.1084 77.0 77
  410.83093 12.0 12
  411.07828 21.0 21
  411.10428 9.0 9
  412.09793 30.0 30
  415.06885 54.0 54
  415.08261 137.0 137
  415.10214 24.0 24
  415.12433 22.0 22
  416.09021 20.0 20
  417.01471 20.0 20
  417.10062 46.0 46
  419.0946 8.0 8
  419.10916 21.0 21
  420.09262 28.0 28
  420.12241 26.0 26
  421.06165 8.0 8
  421.09314 109.0 109
  422.09985 42.0 42
  423.42038 8.0 8
  426.35104 16.0 16
  427.06622 10.0 10
  427.09109 211.0 211
  427.10919 319.0 319
  428.06494 19.0 19
  428.08536 50.0 50
  428.10324 134.0 134
  428.12799 8.0 8
  429.07901 55.0 55
  429.10526 16.0 16
  430.10269 16.0 16
  431.10056 15.0 15
  431.13129 14.0 14
  433.09119 186.0 186
  433.12589 11.0 11
  434.08157 25.0 25
  434.09821 46.0 46
  435.09958 12.0 12
  435.11472 15.0 15
  436.11908 10.0 10
  437.10812 9.0 9
  437.12531 10.0 10
  437.98444 10.0 10
  438.08936 13.0 13
  438.11569 10.0 10
  439.07666 12.0 12
  439.09598 32.0 32
  439.10901 21.0 21
  440.10126 25.0 25
  445.07486 87.0 87
  445.09122 133.0 133
  445.11844 46.0 46
  446.08456 37.0 37
  447.1113 20.0 20
  451.05728 13.0 13
  451.09564 29.0 29
  451.10825 37.0 37
  452.06735 22.0 22
  457.05743 20.0 20
  457.09073 76.0 76
  457.11481 50.0 50
  457.13333 12.0 12
  458.07642 8.0 8
  458.10172 24.0 24
  463.10089 158.0 158
  463.125 34.0 34
  463.1532 9.0 9
  463.19724 10.0 10
  464.10904 53.0 53
  464.129 12.0 12
  465.10233 25.0 25
  466.1058 25.0 25
  469.10181 28.0 28
  469.1239 23.0 23
  470.10153 12.0 12
  475.0968 34.0 34
  475.10995 81.0 81
  475.146 10.0 10
  476.10867 64.0 64
  478.10892 13.0 13
  480.28412 12.0 12
  481.06464 13.0 13
  481.08655 28.0 28
  481.1178 277.0 277
  482.1026 21.0 21
  482.11569 18.0 18
  482.49802 10.0 10
  483.13196 13.0 13
  484.12677 12.0 12
  493.11615 99.0 99
  493.13605 41.0 41
  494.0694 19.0 19
  494.11197 31.0 31
  495.1203 19.0 19
  499.12186 63.0 63
  499.27621 8.0 8
  511.11145 80.0 80
  511.1373 99.0 99
  511.18347 8.0 8
  512.14124 45.0 45
  529.15088 35.0 35
  530.14795 11.0 11
  565.1723 8.0 8
//
