ACCESSION: MSBNK-RIKEN-PR020159
RECORD_TITLE: Gibberellin A24; LC-ESI-QQ; MS2; CE:20.0 eV; [M-H]-
DATE: 2016.01.19 (Created 2007.08.31, modified 2011.05.06)
AUTHORS: Kojima M, Sakakibara H, Plant Science Center, RIKEN.
LICENSE: CC BY-SA
CH$NAME: Gibberellin A24
CH$COMPOUND_CLASS: N/A
CH$FORMULA: C20H26O5
CH$EXACT_MASS: 346.17802
CH$SMILES: OC(=O)[C@](C)(C4)[C@@]([H])([C@H](C(O)=O)1)[C@@](C=O)(CC4)[C@]([H])(C3)[C@](C2)(C[C@@H](C3)C(=C)2)1
CH$IUPAC: InChI=1S/C20H26O5/c1-11-8-20-9-12(11)4-5-13(20)19(10-21)7-3-6-18(2,17(24)25)15(19)14(20)16(22)23/h10,12-15H,1,3-9H2,2H3,(H,22,23)(H,24,25)/t12-,13+,14-,15-,18-,19-,20+/m1/s1
CH$LINK: CAS 19427-32-8
CH$LINK: KEGG C11861
CH$LINK: NIKKAJI J4.752J
CH$LINK: PUBCHEM SID:14023 CID:443454
CH$LINK: INCHIKEY QQRSSHFHXYSOMF-CXXOJBQZSA-N
CH$LINK: COMPTOX DTXSID90941155
AC$INSTRUMENT: UPLC Waters, Quattro Ultima Pt Micromass
AC$INSTRUMENT_TYPE: LC-ESI-QQ
AC$MASS_SPECTROMETRY: MS_TYPE MS2
AC$MASS_SPECTROMETRY: ION_MODE NEGATIVE
AC$MASS_SPECTROMETRY: COLLISION_ENERGY 20.0 eV
AC$MASS_SPECTROMETRY: DATAFORMAT Centroid
AC$MASS_SPECTROMETRY: DESOLVATION_GAS_FLOW 565 L/Hr
AC$MASS_SPECTROMETRY: DESOLVATION_TEMPERATURE 400 C
AC$MASS_SPECTROMETRY: FRAGMENTATION_METHOD LOW-ENERGY CID
AC$MASS_SPECTROMETRY: IONIZATION ESI
AC$MASS_SPECTROMETRY: SCANNING 0.2 sec/scan (m/z=50-500)
AC$MASS_SPECTROMETRY: SOURCE_TEMPERATURE 140 C
AC$CHROMATOGRAPHY: CAPILLARY_VOLTAGE 3.1 kV
AC$CHROMATOGRAPHY: COLUMN_NAME ACQUITY UPLC BEH C18 2.1 by 50 mm (Waters, Milford, MA, USA)
AC$CHROMATOGRAPHY: COLUMN_TEMPERATURE 40 C
AC$CHROMATOGRAPHY: FLOW_GRADIENT 0.1/99.9 at 0 min, 9.0/91.0 at 2 min, 12.5/87.5 at 7 min, 30/70 at 10 min, 50/50 at 12 min, 50/50 at 13 min, 99.9/0.1 at 15 min
AC$CHROMATOGRAPHY: FLOW_RATE 0.25 ml/min
AC$CHROMATOGRAPHY: RETENTION_TIME 10.09 min
AC$CHROMATOGRAPHY: SAMPLING_CONE 53 V
AC$CHROMATOGRAPHY: SOLVENT A CH3CN(0.05% HCOOH)
AC$CHROMATOGRAPHY: SOLVENT B HCOOH(0.05% CH3CN)
MS$FOCUSED_ION: FULL_SCAN_FRAGMENT_ION_PEAK 346
MS$FOCUSED_ION: PRECURSOR_M/Z 345
MS$FOCUSED_ION: PRECURSOR_TYPE [M-H]-
MS$DATA_PROCESSING: WHOLE MassLynx 4.0
PK$SPLASH: splash10-0002-0009000000-9bffd98935375366d5ac
PK$NUM_PEAK: 7
PK$PEAK: m/z int. rel.int.
  213.147 103000 28
  257.179 292500 80
  300.521 65000 18
  301.277 166200 46
  327.002 84520 23
  344.417 410900 113
  345.107 3642000 999
//
