ACCESSION: MSBNK-RIKEN-PR305719
RECORD_TITLE: Rosmarinic acid; LC-ESI-QTOF; MS2
DATE: 2019.03.28
AUTHORS: Tetsuya Mori, Center for Sustainable Resource Science, RIKEN
LICENSE: CC BY-NC-SA
PUBLICATION: Tsugawa H., Nakabayashi R., Mori T., Yamada Y., Takahashi M., Rai A., Sugiyama R., Yamamoto H., Nakaya T., Yamazaki M., Kooke R., Bac-Molenaar JA., Oztolan-Erol N., Keurentjes JJB., Arita M., Saito K. (2019) "A cheminformatics approach to characterize metabolomes in stable-isotope-labeled organisms" Nature Methods 16(4):295-298. [doi:10.1038/s41592-019-0358-2]
COMMENT: registered in RIKEN PlaSMA
CH$NAME: Rosmarinic acid
CH$COMPOUND_CLASS: Coumaric acids and derivatives
CH$FORMULA: C18H16O8
CH$EXACT_MASS: 360.318
CH$SMILES: OC(=O)C(CC1=CC(O)=C(O)C=C1)OC(=O)C=CC1=CC(O)=C(O)C=C1
CH$IUPAC: InChI=1S/C18H16O8/c19-12-4-1-10(7-14(12)21)3-6-17(23)26-16(18(24)25)9-11-2-5-13(20)15(22)8-11/h1-8,16,19-22H,9H2,(H,24,25)
CH$LINK: INCHIKEY DOUMFZQKYFQNTF-UHFFFAOYSA-N
AC$INSTRUMENT: LC, Waters Acquity UPLC System; MS, Waters Xevo G2 Q-Tof
AC$INSTRUMENT_TYPE: LC-ESI-QTOF
AC$MASS_SPECTROMETRY: MS_TYPE MS2
AC$MASS_SPECTROMETRY: ION_MODE NEGATIVE
AC$MASS_SPECTROMETRY: COLLISION_ENERGY 6V
AC$MASS_SPECTROMETRY: DESOLVATION_GAS_FLOW 800/h
AC$MASS_SPECTROMETRY: DESOLVATION_TEMPERATURE 450 C
AC$MASS_SPECTROMETRY: IONIZATION ESI
AC$CHROMATOGRAPHY: CAPILLARY_VOLTAGE -2.75 kV
AC$CHROMATOGRAPHY: COLUMN_NAME Acquity bridged ethyl hybrid C18 (1.7 um, 2.1 mm * 100 mm, Waters)
AC$CHROMATOGRAPHY: COLUMN_TEMPERATURE 40 C
AC$CHROMATOGRAPHY: FLOW_GRADIENT A/B = (99.5%/0.5% at 0 min, 99.5%/0.5% at 0.1 min, 20%/80% at 10 min, 0.5%/99.5% at 10.1 min, 0.5%/99.5% at 12.0 min, 99.5%/0.5% at 12.1 min, 99.5%/0.5% at 15.0 min)
AC$CHROMATOGRAPHY: FLOW_RATE 0.3 ml/min at 0 min, 0.3 ml/min at 10 min, 0.4 ml/min at 10.1 min, 0.4 ml/min at 14.4 min, 0.3 ml/min at 14.5 min
AC$CHROMATOGRAPHY: RETENTION_TIME 4.6334
AC$CHROMATOGRAPHY: SOLVENT A water including 0.1% formic acid
AC$CHROMATOGRAPHY: SOLVENT B acetonitrile including 0.1% formic acid
MS$FOCUSED_ION: PRECURSOR_TYPE [M-H]-
MS$FOCUSED_ION: PRECURSOR_M/Z 359.07724104783
PK$SPLASH: splash10-03di-0900000000-3d9eb298fa4a40e4ffbf
PK$NUM_PEAK: 21
PK$PEAK: m/z int. rel.int.
  72.98974 22.0 22
  108.02027 9.0 9
  123.04415 59.0 59
  124.04554 9.0 9
  133.02907 71.0 71
  135.04285 126.0 126
  136.04962 9.0 9
  136.0567 6.0 6
  151.03889 6.0 6
  161.02307 1000.0 999
  162.02455 66.0 66
  163.02675 18.0 18
  179.03252 129.0 129
  180.04073 17.0 17
  197.04399 308.0 308
  198.04286 10.0 10
  223.02477 14.0 14
  236.02573 5.0 5
  333.05234 8.0 8
  358.04889 5.0 5
  359.07446 147.0 147
//
