ACCESSION: MSBNK-RIKEN-PR300855
RECORD_TITLE: Speciosine; LC-ESI-QTOF; MS2
DATE: 2019.03.28
AUTHORS: Tetsuya Mori, Center for Sustainable Resource Science, RIKEN
LICENSE: CC BY-NC-SA
PUBLICATION: Tsugawa H., Nakabayashi R., Mori T., Yamada Y., Takahashi M., Rai A., Sugiyama R., Yamamoto H., Nakaya T., Yamazaki M., Kooke R., Bac-Molenaar JA., Oztolan-Erol N., Keurentjes JJB., Arita M., Saito K. (2019) "A cheminformatics approach to characterize metabolomes in stable-isotope-labeled organisms" Nature Methods 16(4):295-298. [doi:10.1038/s41592-019-0358-2]
COMMENT: registered in RIKEN PlaSMA
CH$NAME: Speciosine
CH$COMPOUND_CLASS: Tropones
CH$FORMULA: C28H31NO6
CH$EXACT_MASS: 477.557
CH$SMILES: COC1=C(OC)C(OC)=C2C(CCC(N(C)CC3=CC=CC=C3O)C3=CC(=O)C(OC)=CC=C23)=C1
CH$IUPAC: InChI=1S/C28H31NO6/c1-29(16-18-8-6-7-9-22(18)30)21-12-10-17-14-25(33-3)27(34-4)28(35-5)26(17)19-11-13-24(32-2)23(31)15-20(19)21/h6-9,11,13-15,21,30H,10,12,16H2,1-5H3
CH$LINK: INCHIKEY SOFSXTKPGSIDCI-UHFFFAOYSA-N
AC$INSTRUMENT: LC, Waters Acquity UPLC System; MS, Waters Xevo G2 Q-Tof
AC$INSTRUMENT_TYPE: LC-ESI-QTOF
AC$MASS_SPECTROMETRY: MS_TYPE MS2
AC$MASS_SPECTROMETRY: ION_MODE POSITIVE
AC$MASS_SPECTROMETRY: COLLISION_ENERGY 6V
AC$MASS_SPECTROMETRY: DESOLVATION_GAS_FLOW 800/h
AC$MASS_SPECTROMETRY: DESOLVATION_TEMPERATURE 450 C
AC$MASS_SPECTROMETRY: IONIZATION ESI
AC$CHROMATOGRAPHY: CAPILLARY_VOLTAGE +3.00 kV
AC$CHROMATOGRAPHY: COLUMN_NAME Acquity bridged ethyl hybrid C18 (1.7 um, 2.1 mm * 100 mm, Waters)
AC$CHROMATOGRAPHY: COLUMN_TEMPERATURE 40 C
AC$CHROMATOGRAPHY: FLOW_GRADIENT A/B = (99.5%/0.5% at 0 min, 99.5%/0.5% at 0.1 min, 20%/80% at 10 min, 0.5%/99.5% at 10.1 min, 0.5%/99.5% at 12.0 min, 99.5%/0.5% at 12.1 min, 99.5%/0.5% at 15.0 min)
AC$CHROMATOGRAPHY: FLOW_RATE 0.3 ml/min at 0 min, 0.3 ml/min at 10 min, 0.4 ml/min at 10.1 min, 0.4 ml/min at 14.4 min, 0.3 ml/min at 14.5 min
AC$CHROMATOGRAPHY: RETENTION_TIME 5.032233
AC$CHROMATOGRAPHY: SOLVENT A water including 0.1% formic acid
AC$CHROMATOGRAPHY: SOLVENT B acetonitrile including 0.1% formic acid
MS$FOCUSED_ION: PRECURSOR_TYPE [M+H]+
MS$FOCUSED_ION: PRECURSOR_M/Z 478.2224142
PK$SPLASH: splash10-022c-0029000000-51f5ee2728a203f95abe
PK$NUM_PEAK: 208
PK$PEAK: m/z int. rel.int.
  70.06516 11.0 11
  72.04606 39.0 39
  107.04832 24.0 24
  136.07504 39.0 39
  137.06447 10.0 10
  148.07179 5.0 5
  150.09421 8.0 8
  151.07584 15.0 15
  181.08084 9.0 9
  181.09035 16.0 16
  188.08418 11.0 11
  192.09012 6.0 6
  193.11218 6.0 6
  204.07629 9.0 9
  204.10207 8.0 8
  207.09494 7.0 7
  207.11028 11.0 11
  217.10832 6.0 6
  219.10249 8.0 8
  220.09489 6.0 6
  221.09628 5.0 5
  225.08557 6.0 6
  237.09856 6.0 6
  241.08107 11.0 11
  242.095 7.0 7
  243.09734 5.0 5
  248.10948 12.0 12
  248.12662 19.0 19
  249.08347 9.0 9
  249.09473 5.0 5
  249.11238 7.0 7
  250.09395 11.0 11
  251.11768 9.0 9
  251.1329 11.0 11
  252.11479 13.0 13
  252.12929 7.0 7
  253.08765 5.0 5
  254.09019 10.0 10
  255.09595 14.0 14
  255.10989 12.0 12
  256.09464 14.0 14
  256.10873 54.0 54
  256.11859 25.0 25
  257.11636 22.0 22
  258.09616 7.0 7
  265.10056 7.0 7
  266.09323 18.0 18
  266.10608 13.0 13
  267.09781 15.0 15
  267.10715 35.0 35
  268.10931 25.0 25
  269.0759 15.0 15
  269.09589 6.0 6
  269.12277 9.0 9
  270.12585 25.0 25
  272.08273 6.0 6
  272.09705 20.0 20
  272.11169 25.0 25
  273.11252 19.0 19
  273.12189 7.0 7
  274.09305 5.0 5
  276.09955 6.0 6
  277.1041 60.0 60
  278.08734 44.0 44
  278.10065 31.0 31
  278.11679 9.0 9
  279.0657 10.0 10
  279.10016 29.0 29
  279.12833 48.0 48
  280.1084 29.0 29
  280.13614 14.0 14
  281.11673 45.0 45
  281.13962 10.0 10
  282.10074 13.0 13
  282.12576 73.0 73
  282.14395 9.0 9
  283.09036 12.0 12
  283.11343 18.0 18
  283.13153 8.0 8
  283.14166 10.0 10
  284.10416 53.0 53
  284.12103 12.0 12
  284.1369 16.0 16
  285.06631 6.0 6
  285.10965 66.0 66
  286.10947 19.0 19
  286.12555 8.0 8
  287.08054 5.0 5
  287.09619 17.0 17
  287.12894 55.0 55
  287.14059 20.0 20
  288.12604 18.0 18
  292.10724 8.0 8
  293.10422 15.0 15
  293.11807 8.0 8
  294.08844 19.0 19
  294.10217 26.0 26
  294.1181 11.0 11
  295.09729 95.0 95
  296.09204 12.0 12
  296.10172 31.0 31
  296.12448 30.0 30
  296.14001 20.0 20
  297.09897 7.0 7
  297.10913 7.0 7
  297.133 33.0 33
  298.1062 9.0 9
  298.11887 31.0 31
  298.13367 11.0 11
  299.12274 43.0 43
  299.14102 17.0 17
  300.08521 12.0 12
  300.10464 29.0 29
  300.13449 13.0 13
  300.15173 5.0 5
  301.08862 9.0 9
  301.10782 8.0 8
  301.125 7.0 7
  301.14346 38.0 38
  301.16214 6.0 6
  302.11551 21.0 21
  302.13409 15.0 15
  303.1257 11.0 11
  306.11331 8.0 8
  307.11316 15.0 15
  307.12982 5.0 5
  308.1228 39.0 39
  308.13986 41.0 41
  309.11984 152.0 152
  309.14236 64.0 64
  310.11847 720.0 719
  311.06219 6.0 6
  311.0802 23.0 23
  311.09494 56.0 56
  311.12369 216.0 216
  311.13803 66.0 66
  312.09125 24.0 24
  312.10837 14.0 14
  312.1221 25.0 25
  312.13782 57.0 57
  312.15448 92.0 92
  312.16843 84.0 84
  313.09906 15.0 15
  313.11432 35.0 35
  313.13223 44.0 44
  313.14963 72.0 72
  313.16483 29.0 29
  314.0939 10.0 10
  314.1123 20.0 20
  314.13678 32.0 32
  314.16086 9.0 9
  315.11868 146.0 146
  315.13599 47.0 47
  316.11459 12.0 12
  316.13562 40.0 40
  317.12277 8.0 8
  323.1261 7.0 7
  323.13773 13.0 13
  323.1506 26.0 26
  324.1026 7.0 7
  324.12216 55.0 55
  324.1366 35.0 35
  325.12247 66.0 66
  325.13956 50.0 50
  326.10986 122.0 122
  326.12445 130.0 130
  326.15125 9.0 9
  327.10645 24.0 24
  327.12552 30.0 30
  327.14246 18.0 18
  328.11096 6.0 6
  328.12433 13.0 13
  328.14166 17.0 17
  328.15622 15.0 15
  329.1236 16.0 16
  329.14334 18.0 18
  338.12881 13.0 13
  338.14987 11.0 11
  339.12518 13.0 13
  339.14706 35.0 35
  340.14789 224.0 224
  340.1619 192.0 192
  341.14218 327.0 327
  341.16492 49.0 49
  341.18225 11.0 11
  342.13147 90.0 90
  342.15012 59.0 59
  342.18579 10.0 10
  343.13953 39.0 39
  343.15714 20.0 20
  344.14471 67.0 67
  344.16019 39.0 39
  344.16968 17.0 17
  345.14755 11.0 11
  345.16071 12.0 12
  354.16626 27.0 27
  355.1734 6.0 6
  356.14178 18.0 18
  357.14615 47.0 47
  357.1636 32.0 32
  357.17368 19.0 19
  358.15768 11.0 11
  358.17514 5.0 5
  372.10825 5.0 5
  372.17899 1000.0 999
  373.18304 274.0 274
  374.1803 34.0 34
  374.20688 11.0 11
//
