ACCESSION: MSBNK-RIKEN-PR309362
RECORD_TITLE: Dicoumaroyl Spermidine; LC-ESI-QTOF; MS2
DATE: 2019.03.28
AUTHORS: Tetsuya Mori, Center for Sustainable Resource Science, RIKEN
LICENSE: CC BY-NC-SA
PUBLICATION: Tsugawa H., Nakabayashi R., Mori T., Yamada Y., Takahashi M., Rai A., Sugiyama R., Yamamoto H., Nakaya T., Yamazaki M., Kooke R., Bac-Molenaar JA., Oztolan-Erol N., Keurentjes JJB., Arita M., Saito K. (2019) "A cheminformatics approach to characterize metabolomes in stable-isotope-labeled organisms" Nature Methods 16(4):295-298. [doi:10.1038/s41592-019-0358-2]
COMMENT: Annotation level-3
CH$NAME: Dicoumaroyl Spermidine
CH$COMPOUND_CLASS: Coumaric acid and derivatives
CH$FORMULA: C25H31N3O4
CH$EXACT_MASS: 437.54
CH$SMILES: O=C(C=CC1=CC=C(O)C=C1)NCCCNCCCCNC(=O)C=CC2=CC=C(O)C=C2
CH$IUPAC: InChI=1S/C25H31N3O4/c29-22-10-4-20(5-11-22)8-14-24(31)27-18-2-1-16-26-17-3-19-28-25(32)15-9-21-6-12-23(30)13-7-21/h4-15,26,29-30H,1-3,16-19H2,(H,27,31)(H,28,32)
CH$LINK: INCHIKEY QYBCBMVQSCJMSA-UHFFFAOYSA-N
AC$INSTRUMENT: LC, Waters Acquity UPLC System; MS, Waters Xevo G2 Q-Tof
AC$INSTRUMENT_TYPE: LC-ESI-QTOF
AC$MASS_SPECTROMETRY: MS_TYPE MS2
AC$MASS_SPECTROMETRY: ION_MODE NEGATIVE
AC$MASS_SPECTROMETRY: COLLISION_ENERGY 6V
AC$MASS_SPECTROMETRY: DESOLVATION_GAS_FLOW 800/h
AC$MASS_SPECTROMETRY: DESOLVATION_TEMPERATURE 450 C
AC$MASS_SPECTROMETRY: IONIZATION ESI
AC$CHROMATOGRAPHY: CAPILLARY_VOLTAGE +3.00 kV
AC$CHROMATOGRAPHY: COLUMN_NAME Acquity bridged ethyl hybrid C18 (1.7 um, 2.1 mm * 100 mm, Waters)
AC$CHROMATOGRAPHY: COLUMN_TEMPERATURE 40 C
AC$CHROMATOGRAPHY: FLOW_GRADIENT A/B = (99.5%/0.5% at 0 min, 99.5%/0.5% at 0.1 min, 20%/80% at 10 min, 0.5%/99.5% at 10.1 min, 0.5%/99.5% at 12.0 min, 99.5%/0.5% at 12.1 min, 99.5%/0.5% at 15.0 min)
AC$CHROMATOGRAPHY: FLOW_RATE 0.3 ml/min at 0 min, 0.3 ml/min at 10 min, 0.4 ml/min at 10.1 min, 0.4 ml/min at 14.4 min, 0.3 ml/min at 14.5 min
AC$CHROMATOGRAPHY: RETENTION_TIME 3.82
AC$CHROMATOGRAPHY: SOLVENT A water including 0.1% formic acid
AC$CHROMATOGRAPHY: SOLVENT B acetonitrile including 0.1% formic acid
MS$FOCUSED_ION: PRECURSOR_TYPE [M-H]-
MS$FOCUSED_ION: PRECURSOR_M/Z 436.2234
PK$SPLASH: splash10-00kr-0534900000-ae860b169fe070954fa3
PK$NUM_PEAK: 19
PK$PEAK: m/z int. rel.int.
  119.04947 413.0 392
  120.05931 16.0 15
  145.02177 58.0 55
  145.03204 99.0 94
  146.03331 16.0 15
  203.09227 16.0 15
  231.15091 18.0 17
  248.17505 16.0 15
  273.17227 54.0 51
  290.172 36.0 34
  290.19003 201.0 191
  291.17853 16.0 15
  291.19244 55.0 52
  316.16397 388.0 368
  316.1824 86.0 82
  317.16641 17.0 16
  317.17914 48.0 46
  436.2225 1052.0 999
  436.31741 25.0 24
//
