ACCESSION: MSBNK-RIKEN-PR302439
RECORD_TITLE: Eriodictyol-7-O-neohesperidoside; LC-ESI-QTOF; MS2
DATE: 2019.03.28
AUTHORS: Tetsuya Mori, Center for Sustainable Resource Science, RIKEN
LICENSE: CC BY-NC-SA
PUBLICATION: Tsugawa H., Nakabayashi R., Mori T., Yamada Y., Takahashi M., Rai A., Sugiyama R., Yamamoto H., Nakaya T., Yamazaki M., Kooke R., Bac-Molenaar JA., Oztolan-Erol N., Keurentjes JJB., Arita M., Saito K. (2019) "A cheminformatics approach to characterize metabolomes in stable-isotope-labeled organisms" Nature Methods 16(4):295-298. [doi:10.1038/s41592-019-0358-2]
COMMENT: registered in RIKEN PlaSMA
CH$NAME: Eriodictyol-7-O-neohesperidoside
CH$COMPOUND_CLASS: Flavonoid-7-O-glycosides
CH$FORMULA: C27H32O15
CH$EXACT_MASS: 596.538
CH$SMILES: C[C@@H]1O[C@@H](O[C@@H]2[C@@H](O)[C@H](O)[C@@H](CO)O[C@H]2OC2=CC(O)=C3C(=O)C[C@H](OC3=C2)C2=CC(O)=C(O)C=C2)[C@H](O)[C@H](O)[C@H]1O
CH$IUPAC: InChI=1S/C27H32O15/c1-9-20(33)22(35)24(37)26(38-9)42-25-23(36)21(34)18(8-28)41-27(25)39-11-5-14(31)19-15(32)7-16(40-17(19)6-11)10-2-3-12(29)13(30)4-10/h2-6,9,16,18,20-31,33-37H,7-8H2,1H3/t9-,16-,18+,20-,21+,22+,23-,24+,25+,26-,27+/m0/s1
CH$LINK: INCHIKEY OBKKEZLIABHSGY-DOYQYKRZSA-N
AC$INSTRUMENT: LC, Waters Acquity UPLC System; MS, Waters Xevo G2 Q-Tof
AC$INSTRUMENT_TYPE: LC-ESI-QTOF
AC$MASS_SPECTROMETRY: MS_TYPE MS2
AC$MASS_SPECTROMETRY: ION_MODE POSITIVE
AC$MASS_SPECTROMETRY: COLLISION_ENERGY 6V
AC$MASS_SPECTROMETRY: DESOLVATION_GAS_FLOW 800/h
AC$MASS_SPECTROMETRY: DESOLVATION_TEMPERATURE 450 C
AC$MASS_SPECTROMETRY: IONIZATION ESI
AC$CHROMATOGRAPHY: CAPILLARY_VOLTAGE +3.00 kV
AC$CHROMATOGRAPHY: COLUMN_NAME Acquity bridged ethyl hybrid C18 (1.7 um, 2.1 mm * 100 mm, Waters)
AC$CHROMATOGRAPHY: COLUMN_TEMPERATURE 40 C
AC$CHROMATOGRAPHY: FLOW_GRADIENT A/B = (99.5%/0.5% at 0 min, 99.5%/0.5% at 0.1 min, 20%/80% at 10 min, 0.5%/99.5% at 10.1 min, 0.5%/99.5% at 12.0 min, 99.5%/0.5% at 12.1 min, 99.5%/0.5% at 15.0 min)
AC$CHROMATOGRAPHY: FLOW_RATE 0.3 ml/min at 0 min, 0.3 ml/min at 10 min, 0.4 ml/min at 10.1 min, 0.4 ml/min at 14.4 min, 0.3 ml/min at 14.5 min
AC$CHROMATOGRAPHY: RETENTION_TIME 4.043083
AC$CHROMATOGRAPHY: SOLVENT A water including 0.1% formic acid
AC$CHROMATOGRAPHY: SOLVENT B acetonitrile including 0.1% formic acid
MS$FOCUSED_ION: PRECURSOR_TYPE [M+H]+
MS$FOCUSED_ION: PRECURSOR_M/Z 597.1813968
PK$SPLASH: splash10-000b-0022960000-d003568f3eb4cea1d351
PK$NUM_PEAK: 46
PK$PEAK: m/z int. rel.int.
  196.03506 33.0 33
  273.09625 31.0 31
  281.0278 52.0 52
  289.07059 633.0 632
  290.07919 72.0 72
  291.05737 65.0 65
  307.73022 44.0 44
  309.10718 39.0 39
  310.11884 39.0 39
  331.07797 212.0 212
  331.09619 77.0 77
  354.06754 52.0 52
  355.08374 70.0 70
  399.10764 76.0 76
  399.12787 39.0 39
  403.15207 46.0 46
  417.10419 105.0 105
  417.12747 166.0 166
  433.11838 138.0 138
  435.09219 72.0 72
  435.13013 644.0 643
  435.86169 39.0 39
  436.11865 33.0 33
  436.14587 196.0 196
  437.14297 41.0 41
  450.93213 35.0 35
  451.06262 37.0 37
  451.10388 77.0 77
  451.12305 315.0 315
  451.14368 155.0 155
  452.11218 149.0 149
  452.13495 100.0 100
  452.15344 31.0 31
  465.13547 59.0 59
  475.12021 79.0 79
  477.12445 35.0 35
  493.11087 39.0 39
  525.1427 61.0 61
  561.17139 41.0 41
  562.16132 50.0 50
  579.16919 120.0 120
  579.19965 57.0 57
  581.19043 81.0 81
  597.05823 42.0 42
  597.16791 504.0 503
  597.19543 1000.0 999
//
