ACCESSION: MSBNK-RIKEN-PR310458
RECORD_TITLE: 1-Methylsulfinylbutenyl isothiocyante; LC-ESI-QTOF; MS2
DATE: 2019.03.28
AUTHORS: Tetsuya Mori, Center for Sustainable Resource Science, RIKEN
LICENSE: CC BY-NC-SA
PUBLICATION: Tsugawa H., Nakabayashi R., Mori T., Yamada Y., Takahashi M., Rai A., Sugiyama R., Yamamoto H., Nakaya T., Yamazaki M., Kooke R., Bac-Molenaar JA., Oztolan-Erol N., Keurentjes JJB., Arita M., Saito K. (2019) "A cheminformatics approach to characterize metabolomes in stable-isotope-labeled organisms" Nature Methods 16(4):295-298. [doi:10.1038/s41592-019-0358-2]
COMMENT: Annotation level-1
CH$NAME: 1-Methylsulfinylbutenyl isothiocyante
CH$COMPOUND_CLASS: Glucosinolate breakdown metabolites
CH$FORMULA: C6H9NOS2
CH$EXACT_MASS: 175.274
CH$SMILES: CS(=O)C=CCCN=C=S
CH$IUPAC: InChI=1S/C6H9NOS2/c1-10(8)5-3-2-4-7-6-9/h3,5H,2,4H2,1H3
CH$LINK: INCHIKEY QKGJFQMGPDVOQE-UHFFFAOYSA-N
AC$INSTRUMENT: LC, Waters Acquity UPLC System; MS, Waters Xevo G2 Q-Tof
AC$INSTRUMENT_TYPE: LC-ESI-QTOF
AC$MASS_SPECTROMETRY: MS_TYPE MS2
AC$MASS_SPECTROMETRY: ION_MODE POSITIVE
AC$MASS_SPECTROMETRY: COLLISION_ENERGY 6V
AC$MASS_SPECTROMETRY: DESOLVATION_GAS_FLOW 800/h
AC$MASS_SPECTROMETRY: DESOLVATION_TEMPERATURE 450 C
AC$MASS_SPECTROMETRY: IONIZATION ESI
AC$CHROMATOGRAPHY: CAPILLARY_VOLTAGE +3.00 kV
AC$CHROMATOGRAPHY: COLUMN_NAME Acquity bridged ethyl hybrid C18 (1.7 um, 2.1 mm * 100 mm, Waters)
AC$CHROMATOGRAPHY: COLUMN_TEMPERATURE 40 C
AC$CHROMATOGRAPHY: FLOW_GRADIENT A/B = (99.5%/0.5% at 0 min, 99.5%/0.5% at 0.1 min, 20%/80% at 10 min, 0.5%/99.5% at 10.1 min, 0.5%/99.5% at 12.0 min, 99.5%/0.5% at 12.1 min, 99.5%/0.5% at 15.0 min)
AC$CHROMATOGRAPHY: FLOW_RATE 0.3 ml/min at 0 min, 0.3 ml/min at 10 min, 0.4 ml/min at 10.1 min, 0.4 ml/min at 14.4 min, 0.3 ml/min at 14.5 min
AC$CHROMATOGRAPHY: RETENTION_TIME 3.77
AC$CHROMATOGRAPHY: SOLVENT A water including 0.1% formic acid
AC$CHROMATOGRAPHY: SOLVENT B acetonitrile including 0.1% formic acid
MS$FOCUSED_ION: PRECURSOR_TYPE [M+H]+
MS$FOCUSED_ION: PRECURSOR_M/Z 176.01983
PK$SPLASH: splash10-00kr-9800000000-e21cd9381cbde935bc8c
PK$NUM_PEAK: 25
PK$PEAK: m/z int. rel.int.
  55.05802 18.0 28
  68.05186 25.0 39
  69.06183 145.0 228
  70.06158 20.0 31
  76.03079 27.0 42
  78.03498 36.0 57
  85.00949 49.0 77
  85.014 55.0 87
  87.02646 635.0 999
  88.02996 17.0 27
  100.01804 24.0 38
  101.03152 88.0 138
  101.04579 40.0 63
  102.03497 18.0 28
  112.00995 28.0 44
  112.01676 53.0 83
  112.02892 31.0 49
  114.10908 19.0 30
  115.47083 23.0 36
  116.04927 21.0 33
  116.05737 72.0 113
  117.03402 109.0 171
  133.02171 25.0 39
  143.0412 96.0 151
  176.02167 312.0 491
//
