ACCESSION: MSBNK-RIKEN-PR307321
RECORD_TITLE: Arbutin; LC-ESI-QTOF; MS2
DATE: 2019.03.28
AUTHORS: Tetsuya Mori, Center for Sustainable Resource Science, RIKEN
LICENSE: CC BY-NC-SA
PUBLICATION: Tsugawa H., Nakabayashi R., Mori T., Yamada Y., Takahashi M., Rai A., Sugiyama R., Yamamoto H., Nakaya T., Yamazaki M., Kooke R., Bac-Molenaar JA., Oztolan-Erol N., Keurentjes JJB., Arita M., Saito K. (2019) "A cheminformatics approach to characterize metabolomes in stable-isotope-labeled organisms" Nature Methods 16(4):295-298. [doi:10.1038/s41592-019-0358-2]
COMMENT: registered in RIKEN PlaSMA
CH$NAME: Arbutin
CH$COMPOUND_CLASS: Phenolic glycosides
CH$FORMULA: C12H16O7
CH$EXACT_MASS: 272.253
CH$SMILES: OCC1OC(OC2=CC=C(O)C=C2)C(O)C(O)C1O
CH$IUPAC: InChI=1S/C12H16O7/c13-5-8-9(15)10(16)11(17)12(19-8)18-7-3-1-6(14)2-4-7/h1-4,8-17H,5H2
CH$LINK: INCHIKEY BJRNKVDFDLYUGJ-UHFFFAOYSA-N
AC$INSTRUMENT: LC, Waters Acquity UPLC System; MS, Waters Xevo G2 Q-Tof
AC$INSTRUMENT_TYPE: LC-ESI-QTOF
AC$MASS_SPECTROMETRY: MS_TYPE MS2
AC$MASS_SPECTROMETRY: ION_MODE NEGATIVE
AC$MASS_SPECTROMETRY: COLLISION_ENERGY 6V
AC$MASS_SPECTROMETRY: DESOLVATION_GAS_FLOW 800/h
AC$MASS_SPECTROMETRY: DESOLVATION_TEMPERATURE 450 C
AC$MASS_SPECTROMETRY: IONIZATION ESI
AC$CHROMATOGRAPHY: CAPILLARY_VOLTAGE -2.75 kV
AC$CHROMATOGRAPHY: COLUMN_NAME Acquity bridged ethyl hybrid C18 (1.7 um, 2.1 mm * 100 mm, Waters)
AC$CHROMATOGRAPHY: COLUMN_TEMPERATURE 40 C
AC$CHROMATOGRAPHY: FLOW_GRADIENT A/B = (99.5%/0.5% at 0 min, 99.5%/0.5% at 0.1 min, 20%/80% at 10 min, 0.5%/99.5% at 10.1 min, 0.5%/99.5% at 12.0 min, 99.5%/0.5% at 12.1 min, 99.5%/0.5% at 15.0 min)
AC$CHROMATOGRAPHY: FLOW_RATE 0.3 ml/min at 0 min, 0.3 ml/min at 10 min, 0.4 ml/min at 10.1 min, 0.4 ml/min at 14.4 min, 0.3 ml/min at 14.5 min
AC$CHROMATOGRAPHY: RETENTION_TIME 1.877767
AC$CHROMATOGRAPHY: SOLVENT A water including 0.1% formic acid
AC$CHROMATOGRAPHY: SOLVENT B acetonitrile including 0.1% formic acid
MS$FOCUSED_ION: PRECURSOR_TYPE [M-H]-
MS$FOCUSED_ION: PRECURSOR_M/Z 271.08232644783
PK$SPLASH: splash10-03di-1900000000-9c7b1bb1c4fa6fe7524b
PK$NUM_PEAK: 25
PK$PEAK: m/z int. rel.int.
  71.01107 112.0 112
  73.02599 54.0 54
  81.03374 26.0 26
  85.029 54.0 54
  89.02319 22.0 22
  97.0293 61.0 61
  99.00578 56.0 56
  100.01098 27.0 27
  101.02348 158.0 158
  107.05137 32.0 32
  108.01959 294.0 294
  109.02914 249.0 249
  110.02184 26.0 26
  113.02389 74.0 74
  114.03384 25.0 25
  121.03034 31.0 31
  125.02573 24.0 24
  151.02869 40.0 40
  151.03946 107.0 107
  159.03052 94.0 94
  161.04518 1000.0 999
  162.03922 24.0 24
  162.04875 100.0 100
  163.03181 39.0 39
  271.08731 103.0 103
//
