ACCESSION: MSBNK-RIKEN-PR302783
RECORD_TITLE: Kaempferol-4'-methyl ether; LC-ESI-QTOF; MS2
DATE: 2019.03.28
AUTHORS: Tetsuya Mori, Center for Sustainable Resource Science, RIKEN
LICENSE: CC BY-NC-SA
PUBLICATION: Tsugawa H., Nakabayashi R., Mori T., Yamada Y., Takahashi M., Rai A., Sugiyama R., Yamamoto H., Nakaya T., Yamazaki M., Kooke R., Bac-Molenaar JA., Oztolan-Erol N., Keurentjes JJB., Arita M., Saito K. (2019) "A cheminformatics approach to characterize metabolomes in stable-isotope-labeled organisms" Nature Methods 16(4):295-298. [doi:10.1038/s41592-019-0358-2]
COMMENT: registered in RIKEN PlaSMA
CH$NAME: Kaempferol-4'-methyl ether
CH$COMPOUND_CLASS: Flavonols
CH$FORMULA: C16H12O6
CH$EXACT_MASS: 300.266
CH$SMILES: COC1=CC=C(C=C1)C1=C(O)C(=O)C2=C(O)C=C(O)C=C2O1
CH$IUPAC: InChI=1S/C16H12O6/c1-21-10-4-2-8(3-5-10)16-15(20)14(19)13-11(18)6-9(17)7-12(13)22-16/h2-7,17-18,20H,1H3
CH$LINK: INCHIKEY SQFSKOYWJBQGKQ-UHFFFAOYSA-N
AC$INSTRUMENT: LC, Waters Acquity UPLC System; MS, Waters Xevo G2 Q-Tof
AC$INSTRUMENT_TYPE: LC-ESI-QTOF
AC$MASS_SPECTROMETRY: MS_TYPE MS2
AC$MASS_SPECTROMETRY: ION_MODE POSITIVE
AC$MASS_SPECTROMETRY: COLLISION_ENERGY 6V
AC$MASS_SPECTROMETRY: DESOLVATION_GAS_FLOW 800/h
AC$MASS_SPECTROMETRY: DESOLVATION_TEMPERATURE 450 C
AC$MASS_SPECTROMETRY: IONIZATION ESI
AC$CHROMATOGRAPHY: CAPILLARY_VOLTAGE +3.00 kV
AC$CHROMATOGRAPHY: COLUMN_NAME Acquity bridged ethyl hybrid C18 (1.7 um, 2.1 mm * 100 mm, Waters)
AC$CHROMATOGRAPHY: COLUMN_TEMPERATURE 40 C
AC$CHROMATOGRAPHY: FLOW_GRADIENT A/B = (99.5%/0.5% at 0 min, 99.5%/0.5% at 0.1 min, 20%/80% at 10 min, 0.5%/99.5% at 10.1 min, 0.5%/99.5% at 12.0 min, 99.5%/0.5% at 12.1 min, 99.5%/0.5% at 15.0 min)
AC$CHROMATOGRAPHY: FLOW_RATE 0.3 ml/min at 0 min, 0.3 ml/min at 10 min, 0.4 ml/min at 10.1 min, 0.4 ml/min at 14.4 min, 0.3 ml/min at 14.5 min
AC$CHROMATOGRAPHY: RETENTION_TIME 7.544483
AC$CHROMATOGRAPHY: SOLVENT A water including 0.1% formic acid
AC$CHROMATOGRAPHY: SOLVENT B acetonitrile including 0.1% formic acid
MS$FOCUSED_ION: PRECURSOR_TYPE [M+H]+
MS$FOCUSED_ION: PRECURSOR_M/Z 301.0706646
PK$SPLASH: splash10-0fb9-1940000000-7abfb4374fe463e74d56
PK$NUM_PEAK: 225
PK$PEAK: m/z int. rel.int.
  65.03643 43.0 43
  65.04291 16.0 16
  66.02769 13.0 13
  67.01373 22.0 22
  67.01871 57.0 57
  68.02609 18.0 18
  68.99135 13.0 13
  68.99797 156.0 156
  69.02859 20.0 20
  69.03442 66.0 66
  69.41398 14.0 14
  70.04051 17.0 17
  74.13857 16.0 16
  77.00227 16.0 16
  77.03258 38.0 38
  77.03825 65.0 65
  77.04317 19.0 19
  78.01149 30.0 30
  78.03631 12.0 12
  78.04747 197.0 197
  78.65704 14.0 14
  79.05739 22.0 22
  79.76115 11.0 11
  83.01382 53.0 53
  85.02803 11.0 11
  89.03661 26.0 26
  90.03947 16.0 16
  90.05093 30.0 30
  91.01833 17.0 17
  91.0537 41.0 41
  91.05915 26.0 26
  92.02203 24.0 24
  92.02876 27.0 27
  92.04645 22.0 22
  92.06085 16.0 16
  92.99761 12.0 12
  93.03358 13.0 13
  93.55048 12.0 12
  96.01626 28.0 28
  96.0205 80.0 80
  97.01915 25.0 25
  98.02605 11.0 11
  102.05161 22.0 22
  104.03294 30.0 30
  104.58475 16.0 16
  105.02637 15.0 15
  105.03439 119.0 119
  105.0434 15.0 15
  105.06205 20.0 20
  105.07076 24.0 24
  105.07926 14.0 14
  105.30582 15.0 15
  105.846 29.0 29
  106.04185 178.0 178
  107.04961 91.0 91
  108.02028 84.0 84
  109.02571 50.0 50
  109.03156 37.0 37
  111.00848 26.0 26
  111.04842 22.0 22
  115.05218 47.0 47
  116.05797 83.0 83
  116.0665 20.0 20
  118.04216 89.0 89
  118.0789 33.0 33
  119.05038 28.0 28
  120.05905 24.0 24
  121.02619 114.0 114
  121.03275 79.0 79
  121.06025 34.0 34
  121.36577 12.0 12
  122.06 16.0 16
  123.99364 13.0 13
  124.00173 27.0 27
  124.0138 348.0 348
  124.03806 14.0 14
  125.01666 18.0 18
  125.0252 62.0 62
  126.00495 12.0 12
  126.02168 20.0 20
  127.05567 67.0 67
  128.06027 188.0 188
  128.06778 79.0 79
  129.00017 24.0 24
  129.06519 15.0 15
  129.07259 41.0 41
  131.04527 57.0 57
  131.05136 55.0 55
  132.02481 14.0 14
  132.04308 32.0 32
  132.05968 15.0 15
  135.00676 69.0 69
  135.04488 127.0 127
  135.99486 18.0 18
  136.01999 24.0 24
  137.01221 16.0 16
  137.02061 66.0 66
  137.06004 13.0 13
  138.04028 14.0 14
  138.05412 12.0 12
  139.05681 45.0 45
  139.06638 12.0 12
  140.05997 14.0 14
  142.69324 19.0 19
  144.05177 17.0 17
  145.03246 16.0 16
  145.0416 17.0 17
  145.06259 65.0 65
  146.03264 47.0 47
  147.04454 26.0 26
  147.97855 20.0 20
  149.15395 22.0 22
  150.03671 17.0 17
  151.03763 22.0 22
  151.99995 32.0 32
  152.00883 132.0 132
  152.02048 48.0 48
  153.0056 99.0 99
  153.01852 737.0 736
  154.01424 16.0 16
  154.02275 16.0 16
  154.02847 31.0 31
  155.04179 66.0 66
  155.04953 282.0 282
  156.02859 18.0 18
  156.05394 139.0 139
  157.06306 94.0 94
  157.98941 14.0 14
  158.04126 13.0 13
  159.03873 35.0 35
  159.05164 12.0 12
  160.05507 13.0 13
  161.06348 166.0 166
  161.09615 11.0 11
  161.76117 12.0 12
  162.02632 24.0 24
  162.06496 38.0 38
  163.013 20.0 20
  165.02341 22.0 22
  167.04497 12.0 12
  171.07973 37.0 37
  172.04137 11.0 11
  172.04994 14.0 14
  173.04364 12.0 12
  173.06133 137.0 137
  174.02707 34.0 34
  174.0938 13.0 13
  174.30922 14.0 14
  175.04161 12.0 12
  176.04308 27.0 27
  176.05807 22.0 22
  177.01262 13.0 13
  178.10567 17.0 17
  179.03003 20.0 20
  181.06247 18.0 18
  183.02707 20.0 20
  183.04553 192.0 192
  184.04823 240.0 240
  185.05377 32.0 32
  185.06529 29.0 29
  187.0211 15.0 15
  187.03542 138.0 138
  187.04257 66.0 66
  188.0218 20.0 20
  188.04166 16.0 16
  188.05093 24.0 24
  188.06975 12.0 12
  194.04567 11.0 11
  200.03416 16.0 16
  201.05609 450.0 450
  201.11981 16.0 16
  202.05455 48.0 48
  202.0683 73.0 73
  203.02841 28.0 28
  203.04185 27.0 27
  203.06261 42.0 42
  209.02678 22.0 22
  211.02214 13.0 13
  211.03513 74.0 74
  211.04721 53.0 53
  212.0282 17.0 17
  212.03952 26.0 26
  213.03676 23.0 23
  213.05072 53.0 53
  213.06078 35.0 35
  215.03249 18.0 18
  215.68413 12.0 12
  216.04266 20.0 20
  217.15688 11.0 11
  219.03156 13.0 13
  227.03389 57.0 57
  228.75752 13.0 13
  229.02332 18.0 18
  229.03589 214.0 214
  229.04807 1000.0 999
  229.07353 46.0 46
  229.13011 27.0 27
  229.31548 12.0 12
  230.0491 164.0 164
  230.0625 153.0 153
  230.10881 33.0 33
  231.05486 53.0 53
  231.06877 18.0 18
  235.61575 12.0 12
  240.03938 50.0 50
  242.97707 19.0 19
  243.01338 19.0 19
  243.02773 55.0 55
  243.0423 26.0 26
  243.06836 18.0 18
  244.0233 11.0 11
  245.05786 16.0 16
  252.03897 17.0 17
  255.05447 13.0 13
  257.03549 29.0 29
  257.04645 66.0 66
  257.0621 32.0 32
  257.50797 18.0 18
  258.05228 46.0 46
  258.05917 20.0 20
  259.04147 14.0 14
  269.03998 16.0 16
  271.02902 14.0 14
  295.64993 12.0 12
  301.06604 49.0 49
//
