ACCESSION: MSBNK-RIKEN-PR300447
RECORD_TITLE: Sinomenine; LC-ESI-QTOF; MS2
DATE: 2019.03.28
AUTHORS: Tetsuya Mori, Center for Sustainable Resource Science, RIKEN
LICENSE: CC BY-NC-SA
PUBLICATION: Tsugawa H., Nakabayashi R., Mori T., Yamada Y., Takahashi M., Rai A., Sugiyama R., Yamamoto H., Nakaya T., Yamazaki M., Kooke R., Bac-Molenaar JA., Oztolan-Erol N., Keurentjes JJB., Arita M., Saito K. (2019) "A cheminformatics approach to characterize metabolomes in stable-isotope-labeled organisms" Nature Methods 16(4):295-298. [doi:10.1038/s41592-019-0358-2]
COMMENT: registered in RIKEN PlaSMA
CH$NAME: Sinomenine
CH$COMPOUND_CLASS: Morphinans
CH$FORMULA: C19H23NO4
CH$EXACT_MASS: 329.396
CH$SMILES: COC1=C[C@@H]2[C@@H]3CC4=C(C(O)=C(OC)C=C4)[C@]2(CCN3C)CC1=O
CH$IUPAC: InChI=1S/C19H23NO4/c1-20-7-6-19-10-14(21)16(24-3)9-12(19)13(20)8-11-4-5-15(23-2)18(22)17(11)19/h4-5,9,12-13,22H,6-8,10H2,1-3H3/t12-,13+,19-/m1/s1
CH$LINK: INCHIKEY INYYVPJSBIVGPH-QHRIQVFBSA-N
AC$INSTRUMENT: LC, Waters Acquity UPLC System; MS, Waters Xevo G2 Q-Tof
AC$INSTRUMENT_TYPE: LC-ESI-QTOF
AC$MASS_SPECTROMETRY: MS_TYPE MS2
AC$MASS_SPECTROMETRY: ION_MODE POSITIVE
AC$MASS_SPECTROMETRY: COLLISION_ENERGY 6V
AC$MASS_SPECTROMETRY: DESOLVATION_GAS_FLOW 800/h
AC$MASS_SPECTROMETRY: DESOLVATION_TEMPERATURE 450 C
AC$MASS_SPECTROMETRY: IONIZATION ESI
AC$CHROMATOGRAPHY: CAPILLARY_VOLTAGE +3.00 kV
AC$CHROMATOGRAPHY: COLUMN_NAME Acquity bridged ethyl hybrid C18 (1.7 um, 2.1 mm * 100 mm, Waters)
AC$CHROMATOGRAPHY: COLUMN_TEMPERATURE 40 C
AC$CHROMATOGRAPHY: FLOW_GRADIENT A/B = (99.5%/0.5% at 0 min, 99.5%/0.5% at 0.1 min, 20%/80% at 10 min, 0.5%/99.5% at 10.1 min, 0.5%/99.5% at 12.0 min, 99.5%/0.5% at 12.1 min, 99.5%/0.5% at 15.0 min)
AC$CHROMATOGRAPHY: FLOW_RATE 0.3 ml/min at 0 min, 0.3 ml/min at 10 min, 0.4 ml/min at 10.1 min, 0.4 ml/min at 14.4 min, 0.3 ml/min at 14.5 min
AC$CHROMATOGRAPHY: RETENTION_TIME 3.033383
AC$CHROMATOGRAPHY: SOLVENT A water including 0.1% formic acid
AC$CHROMATOGRAPHY: SOLVENT B acetonitrile including 0.1% formic acid
MS$FOCUSED_ION: PRECURSOR_TYPE [M+H]+
MS$FOCUSED_ION: PRECURSOR_M/Z 330.1699847
PK$SPLASH: splash10-053r-0691000000-a3d578a9074051ef3d59
PK$NUM_PEAK: 285
PK$PEAK: m/z int. rel.int.
  58.06556 39.0 39
  58.07034 21.0 21
  71.05558 7.0 7
  86.02646 6.0 6
  91.05399 38.0 38
  92.0605 6.0 6
  93.06804 10.0 10
  96.0803 15.0 15
  99.04883 8.0 8
  102.09212 6.0 6
  108.05848 6.0 6
  111.04224 14.0 14
  114.2469 7.0 7
  119.04809 28.0 28
  122.03988 7.0 7
  123.07022 15.0 15
  123.08108 120.0 120
  123.09262 9.0 9
  124.07957 7.0 7
  125.05664 9.0 9
  127.32658 8.0 8
  129.07196 10.0 10
  131.04622 25.0 25
  135.10188 10.0 10
  137.05972 225.0 225
  138.06061 16.0 16
  138.06741 16.0 16
  143.04927 6.0 6
  144.05403 6.0 6
  150.09383 56.0 56
  151.07169 67.0 67
  151.07716 167.0 167
  151.0941 5.0 5
  151.10324 5.0 5
  151.29778 5.0 5
  152.05875 15.0 15
  152.06668 24.0 24
  152.97504 5.0 5
  153.06613 92.0 92
  153.07338 148.0 148
  153.08653 6.0 6
  154.07428 35.0 35
  155.02448 5.0 5
  155.07646 7.0 7
  155.08754 9.0 9
  159.07939 9.0 9
  160.07512 16.0 16
  161.05974 28.0 28
  162.05603 7.0 7
  163.07857 15.0 15
  164.10284 8.0 8
  165.06166 16.0 16
  165.07303 46.0 46
  165.11307 19.0 19
  166.07999 10.0 10
  167.04771 12.0 12
  167.08417 106.0 106
  168.04727 19.0 19
  168.05756 55.0 55
  168.08292 10.0 10
  169.05714 11.0 11
  169.06541 23.0 23
  170.08261 9.0 9
  171.08252 17.0 17
  172.05847 7.0 7
  172.08293 7.0 7
  173.04839 8.0 8
  173.06429 14.0 14
  174.06517 12.0 12
  174.07323 8.0 8
  174.99571 6.0 6
  175.077 30.0 30
  177.07094 53.0 53
  178.07475 36.0 36
  178.08537 35.0 35
  179.03226 5.0 5
  179.04829 11.0 11
  179.0672 20.0 20
  179.07724 32.0 32
  179.08734 63.0 63
  180.05136 13.0 13
  180.05946 27.0 27
  180.07797 11.0 11
  180.08839 9.0 9
  180.09743 9.0 9
  181.06516 976.0 975
  182.06949 225.0 225
  182.09949 13.0 13
  183.04332 15.0 15
  183.05678 6.0 6
  183.07527 79.0 79
  184.09016 8.0 8
  185.08794 14.0 14
  185.09645 14.0 14
  185.10777 10.0 10
  186.0636 12.0 12
  187.05803 5.0 5
  187.07727 126.0 126
  188.07983 17.0 17
  189.07419 6.0 6
  190.08531 8.0 8
  191.07309 7.0 7
  191.08572 24.0 24
  191.09714 11.0 11
  192.09993 54.0 54
  193.06021 64.0 64
  193.07034 48.0 48
  193.07861 15.0 15
  193.10748 94.0 94
  193.11783 22.0 22
  194.06421 16.0 16
  194.0706 43.0 43
  194.11481 23.0 23
  195.07863 281.0 281
  195.08682 128.0 128
  196.05959 13.0 13
  196.07895 30.0 30
  196.08762 20.0 20
  196.09534 6.0 6
  197.05843 33.0 33
  197.09036 23.0 23
  197.10004 28.0 28
  198.06616 79.0 79
  198.08609 8.0 8
  198.10129 10.0 10
  199.06937 25.0 25
  199.0778 98.0 98
  199.09885 11.0 11
  200.08073 10.0 10
  201.05814 7.0 7
  201.08627 18.0 18
  202.09131 6.0 6
  205.0564 8.0 8
  206.06258 5.0 5
  206.07463 23.0 23
  207.01193 9.0 9
  207.04521 724.0 723
  207.0786 125.0 125
  208.04247 83.0 83
  208.05305 99.0 99
  208.08694 28.0 28
  209.03632 7.0 7
  209.05937 397.0 397
  209.0988 24.0 24
  210.06105 48.0 48
  210.0703 55.0 55
  210.08543 11.0 11
  210.09688 8.0 8
  211.07602 278.0 278
  211.10313 7.0 7
  211.11978 9.0 9
  212.07166 29.0 29
  212.08264 68.0 68
  213.06235 8.0 8
  213.09401 325.0 325
  214.06328 17.0 17
  214.09036 47.0 47
  214.10115 12.0 12
  215.06567 18.0 18
  215.10246 20.0 20
  216.09949 14.0 14
  219.08499 19.0 19
  219.27423 5.0 5
  221.04874 8.0 8
  222.09225 10.0 10
  222.57303 7.0 7
  223.04369 7.0 7
  223.07565 679.0 678
  224.04141 10.0 10
  224.05464 22.0 22
  224.08006 191.0 191
  224.0898 42.0 42
  225.04924 6.0 6
  225.08778 69.0 69
  225.10284 15.0 15
  225.11165 5.0 5
  226.05849 25.0 25
  226.06758 24.0 24
  226.08151 7.0 7
  226.09445 16.0 16
  226.10489 9.0 9
  227.06357 28.0 28
  227.0753 97.0 97
  227.10809 46.0 46
  228.07742 19.0 19
  228.10097 14.0 14
  229.08276 6.0 6
  229.10818 26.0 26
  229.11873 16.0 16
  230.09302 16.0 16
  230.11879 30.0 30
  231.10184 25.0 25
  232.09953 10.0 10
  233.09377 5.0 5
  234.064 5.0 5
  234.07416 7.0 7
  235.07755 67.0 67
  236.082 12.0 12
  237.06023 6.0 6
  237.09103 42.0 42
  238.09424 11.0 11
  239.04449 16.0 16
  239.07056 737.0 736
  239.11154 37.0 37
  240.0528 14.0 14
  240.0769 137.0 137
  240.10828 47.0 47
  241.03049 6.0 6
  241.08667 379.0 379
  241.11005 12.0 12
  242.08339 32.0 32
  242.09891 24.0 24
  242.11584 48.0 48
  243.10654 14.0 14
  243.12369 7.0 7
  244.11772 10.0 10
  245.10086 11.0 11
  245.11702 97.0 97
  245.13429 15.0 15
  246.12315 9.0 9
  249.08524 7.0 7
  249.09727 7.0 7
  251.04468 5.0 5
  251.06915 5.0 5
  251.08778 7.0 7
  251.10526 20.0 20
  252.075 17.0 17
  252.08653 7.0 7
  254.09258 16.0 16
  254.11673 13.0 13
  255.06207 14.0 14
  255.09349 76.0 76
  255.11194 107.0 107
  255.13214 9.0 9
  256.0697 5.0 5
  256.09378 7.0 7
  256.1033 30.0 30
  256.11688 18.0 18
  257.07513 9.0 9
  257.08658 18.0 18
  257.10095 16.0 16
  257.11346 25.0 25
  257.12067 12.0 12
  258.08636 6.0 6
  259.08316 6.0 6
  259.09659 14.0 14
  259.14075 8.0 8
  263.94412 6.0 6
  265.11279 14.0 14
  266.07925 6.0 6
  266.09244 18.0 18
  267.09744 13.0 13
  267.10785 18.0 18
  268.0983 7.0 7
  268.10959 9.0 9
  269.07822 12.0 12
  269.09967 13.0 13
  269.11545 14.0 14
  270.08838 6.0 6
  270.09909 12.0 12
  270.14844 76.0 76
  271.08926 14.0 14
  271.10107 9.0 9
  271.12881 5.0 5
  271.15359 7.0 7
  272.11728 9.0 9
  273.10812 22.0 22
  273.12253 17.0 17
  280.11639 7.0 7
  281.09897 11.0 11
  281.12323 31.0 31
  282.12451 7.0 7
  284.09448 14.0 14
  284.11444 17.0 17
  287.138 5.0 5
  298.14651 6.0 6
  300.11865 6.0 6
  302.18637 5.0 5
  315.13528 14.0 14
  315.15186 17.0 17
  316.15417 8.0 8
  325.56342 6.0 6
  330.04871 5.0 5
  330.11777 10.0 10
  330.17093 1000.0 999
//
