ACCESSION: MSBNK-RIKEN-PR306448
RECORD_TITLE: Hesperetin-7-O-neohesperidoside; LC-ESI-QTOF; MS2
DATE: 2019.03.28
AUTHORS: Tetsuya Mori, Center for Sustainable Resource Science, RIKEN
LICENSE: CC BY-NC-SA
PUBLICATION: Tsugawa H., Nakabayashi R., Mori T., Yamada Y., Takahashi M., Rai A., Sugiyama R., Yamamoto H., Nakaya T., Yamazaki M., Kooke R., Bac-Molenaar JA., Oztolan-Erol N., Keurentjes JJB., Arita M., Saito K. (2019) "A cheminformatics approach to characterize metabolomes in stable-isotope-labeled organisms" Nature Methods 16(4):295-298. [doi:10.1038/s41592-019-0358-2]
COMMENT: registered in RIKEN PlaSMA
CH$NAME: Hesperetin-7-O-neohesperidoside
CH$COMPOUND_CLASS: Flavonoid-7-O-glycosides
CH$FORMULA: C28H34O15
CH$EXACT_MASS: 610.565
CH$SMILES: COC1=C(O)C=C(C=C1)C1CC(=O)C2=C(O)C=C(OC3OC(CO)C(O)C(O)C3OC3OC(C)C(O)C(O)C3O)C=C2O1
CH$IUPAC: InChI=1S/C28H34O15/c1-10-21(33)23(35)25(37)27(39-10)43-26-24(36)22(34)19(9-29)42-28(26)40-12-6-14(31)20-15(32)8-17(41-18(20)7-12)11-3-4-16(38-2)13(30)5-11/h3-7,10,17,19,21-31,33-37H,8-9H2,1-2H3
CH$LINK: INCHIKEY ARGKVCXINMKCAZ-UHFFFAOYSA-N
AC$INSTRUMENT: LC, Waters Acquity UPLC System; MS, Waters Xevo G2 Q-Tof
AC$INSTRUMENT_TYPE: LC-ESI-QTOF
AC$MASS_SPECTROMETRY: MS_TYPE MS2
AC$MASS_SPECTROMETRY: ION_MODE NEGATIVE
AC$MASS_SPECTROMETRY: COLLISION_ENERGY 6V
AC$MASS_SPECTROMETRY: DESOLVATION_GAS_FLOW 800/h
AC$MASS_SPECTROMETRY: DESOLVATION_TEMPERATURE 450 C
AC$MASS_SPECTROMETRY: IONIZATION ESI
AC$CHROMATOGRAPHY: CAPILLARY_VOLTAGE -2.75 kV
AC$CHROMATOGRAPHY: COLUMN_NAME Acquity bridged ethyl hybrid C18 (1.7 um, 2.1 mm * 100 mm, Waters)
AC$CHROMATOGRAPHY: COLUMN_TEMPERATURE 40 C
AC$CHROMATOGRAPHY: FLOW_GRADIENT A/B = (99.5%/0.5% at 0 min, 99.5%/0.5% at 0.1 min, 20%/80% at 10 min, 0.5%/99.5% at 10.1 min, 0.5%/99.5% at 12.0 min, 99.5%/0.5% at 12.1 min, 99.5%/0.5% at 15.0 min)
AC$CHROMATOGRAPHY: FLOW_RATE 0.3 ml/min at 0 min, 0.3 ml/min at 10 min, 0.4 ml/min at 10.1 min, 0.4 ml/min at 14.4 min, 0.3 ml/min at 14.5 min
AC$CHROMATOGRAPHY: RETENTION_TIME 4.609183
AC$CHROMATOGRAPHY: SOLVENT A water including 0.1% formic acid
AC$CHROMATOGRAPHY: SOLVENT B acetonitrile including 0.1% formic acid
MS$FOCUSED_ION: PRECURSOR_TYPE [M-H]-
MS$FOCUSED_ION: PRECURSOR_M/Z 609.18249394783
PK$SPLASH: splash10-0w29-0971000000-358c362cdf08351d415e
PK$NUM_PEAK: 221
PK$PEAK: m/z int. rel.int.
  57.03305 14.0 14
  83.01227 27.0 27
  84.0377 14.0 14
  87.00685 6.0 6
  97.02686 7.0 7
  99.01359 6.0 6
  105.03658 7.0 7
  107.0112 61.0 61
  107.01623 23.0 23
  108.02129 17.0 17
  111.01302 10.0 10
  112.6609 8.0 8
  115.03581 10.0 10
  118.04616 6.0 6
  119.01066 8.0 8
  123.00574 6.0 6
  124.01312 8.0 8
  124.01901 16.0 16
  125.01262 10.0 10
  125.02372 166.0 166
  125.03569 8.0 8
  126.02213 7.0 7
  126.02891 6.0 6
  130.03891 8.0 8
  132.01443 8.0 8
  132.02151 6.0 6
  134.03435 167.0 167
  135.03882 19.0 19
  135.04556 29.0 29
  136.01468 163.0 163
  136.04678 18.0 18
  136.98032 11.0 11
  137.01495 8.0 8
  137.0257 7.0 7
  137.03159 10.0 10
  137.98938 16.0 16
  142.93982 6.0 6
  144.62834 6.0 6
  147.03658 6.0 6
  149.05756 82.0 82
  149.07254 11.0 11
  149.99342 11.0 11
  150.03279 6.0 6
  150.06404 6.0 6
  151.00218 587.0 586
  151.04593 8.0 8
  152.00743 59.0 59
  152.71977 8.0 8
  153.00543 12.0 12
  155.33566 12.0 12
  158.03868 63.0 63
  159.04378 15.0 15
  160.01764 25.0 25
  161.01855 8.0 8
  161.06265 12.0 12
  163.00002 9.0 9
  163.00775 6.0 6
  164.01027 1000.0 999
  165.009 53.0 53
  165.01967 54.0 54
  166.01144 10.0 10
  166.02623 9.0 9
  170.03578 8.0 8
  170.45657 6.0 6
  171.0434 6.0 6
  172.07611 10.0 10
  173.01956 17.0 17
  173.05319 42.0 42
  173.06024 30.0 30
  174.02986 223.0 223
  174.06226 7.0 7
  175.00047 23.0 23
  175.03651 69.0 69
  176.03908 14.0 14
  176.04947 6.0 6
  177.01628 24.0 24
  177.03061 6.0 6
  180.82327 6.0 6
  181.02234 7.0 7
  182.02922 7.0 7
  185.02155 31.0 31
  185.05719 20.0 20
  186.02267 7.0 7
  186.06497 9.0 9
  187.03961 11.0 11
  187.07063 8.0 8
  188.01295 9.0 9
  188.03984 19.0 19
  188.04588 31.0 31
  189.01118 6.0 6
  189.04787 6.0 6
  189.06032 8.0 8
  190.05609 14.0 14
  190.9948 6.0 6
  191.06776 62.0 62
  192.00575 9.0 9
  192.04216 12.0 12
  196.04802 40.0 40
  197.04015 8.0 8
  197.06177 8.0 8
  198.02357 17.0 17
  198.03271 11.0 11
  199.03691 231.0 231
  199.46846 8.0 8
  199.67699 7.0 7
  200.00453 57.0 57
  200.02708 9.0 9
  200.04276 167.0 167
  200.07217 11.0 11
  200.52011 7.0 7
  201.01604 219.0 219
  201.06001 11.0 11
  202.02138 26.0 26
  202.0378 6.0 6
  202.05736 12.0 12
  203.0024 18.0 18
  203.02539 6.0 6
  206.00821 6.0 6
  206.02191 7.0 7
  209.06036 6.0 6
  210.78868 7.0 7
  211.07924 6.0 6
  213.04526 16.0 16
  213.05716 46.0 46
  214.01855 7.0 7
  214.03445 18.0 18
  214.05843 55.0 55
  214.07185 16.0 16
  214.95732 7.0 7
  215.03293 137.0 137
  215.06757 58.0 58
  216.0016 6.0 6
  216.03838 103.0 103
  216.08464 15.0 15
  217.03731 14.0 14
  217.05133 64.0 64
  218.06664 11.0 11
  219.0278 26.0 26
  223.88974 11.0 11
  224.0394 17.0 17
  224.04935 23.0 23
  224.2238 7.0 7
  225.04611 37.0 37
  225.05801 5.0 5
  226.02861 9.0 9
  227.0175 11.0 11
  227.03571 75.0 75
  229.0096 6.0 6
  229.65102 10.0 10
  230.04858 11.0 11
  230.0619 19.0 19
  233.07697 16.0 16
  239.024 7.0 7
  240.03865 62.0 62
  240.05679 6.0 6
  241.04828 76.0 76
  241.0724 6.0 6
  241.11313 6.0 6
  242.03796 16.0 16
  242.05621 318.0 318
  242.07179 12.0 12
  243.05733 78.0 78
  243.07135 10.0 10
  244.03662 23.0 23
  244.06012 7.0 7
  244.07408 6.0 6
  246.91867 6.0 6
  249.03487 6.0 6
  251.06888 9.0 9
  253.05258 6.0 6
  254.0471 6.0 6
  254.05762 7.0 7
  256.07211 11.0 11
  257.03738 10.0 10
  257.0499 15.0 15
  257.07144 67.0 67
  257.08649 43.0 43
  257.09921 16.0 16
  258.04019 33.0 33
  258.05316 141.0 141
  259.05313 26.0 26
  259.06378 13.0 13
  264.03607 7.0 7
  267.02649 7.0 7
  268.02466 51.0 51
  268.04141 67.0 67
  269.03491 17.0 17
  269.04492 30.0 30
  271.05475 8.0 8
  271.06494 12.0 12
  283.05643 70.0 70
  284.03235 14.0 14
  284.05685 8.0 8
  284.06854 7.0 7
  285.03699 74.0 74
  285.05533 9.0 9
  286.04431 307.0 307
  287.04968 7.0 7
  287.05969 24.0 24
  288.04648 8.0 8
  288.05655 15.0 15
  295.04855 10.0 10
  296.07285 7.0 7
  299.04892 6.0 6
  300.01813 6.0 6
  301.02869 6.0 6
  301.06796 429.0 429
  302.05957 15.0 15
  302.07263 35.0 35
  302.08429 18.0 18
  303.07355 16.0 16
  304.06686 16.0 16
  308.06039 6.0 6
  309.04141 9.0 9
  324.06161 7.0 7
  325.0766 8.0 8
  328.0563 12.0 12
  329.95105 13.0 13
  343.0751 24.0 24
  346.09818 8.0 8
  486.11145 7.0 7
//
