ACCESSION: MSBNK-RIKEN-PR310580
RECORD_TITLE: Ajmaline; LC-ESI-QTOF; MS2
DATE: 2019.03.28
AUTHORS: Tetsuya Mori, Center for Sustainable Resource Science, RIKEN
LICENSE: CC BY-NC-SA
PUBLICATION: Tsugawa H., Nakabayashi R., Mori T., Yamada Y., Takahashi M., Rai A., Sugiyama R., Yamamoto H., Nakaya T., Yamazaki M., Kooke R., Bac-Molenaar JA., Oztolan-Erol N., Keurentjes JJB., Arita M., Saito K. (2019) "A cheminformatics approach to characterize metabolomes in stable-isotope-labeled organisms" Nature Methods 16(4):295-298. [doi:10.1038/s41592-019-0358-2]
COMMENT: Annotation level-1
CH$NAME: Ajmaline
CH$COMPOUND_CLASS: Alkaloids
CH$FORMULA: C20H26N2O2
CH$EXACT_MASS: 326.44
CH$SMILES: CCC1C2CC3C4N(C)C5=C(C=CC=C5)C44CC(C2C4O)N3C1O
CH$IUPAC: InChI=1S/C20H26N2O2/c1-3-10-11-8-14-17-20(12-6-4-5-7-13(12)21(17)2)9-15(16(11)18(20)23)22(14)19(10)24/h4-7,10-11,14-19,23-24H,3,8-9H2,1-2H3
CH$LINK: INCHIKEY CJDRUOGAGYHKKD-UHFFFAOYSA-N
AC$INSTRUMENT: LC, Waters Acquity UPLC System; MS, Waters Xevo G2 Q-Tof
AC$INSTRUMENT_TYPE: LC-ESI-QTOF
AC$MASS_SPECTROMETRY: MS_TYPE MS2
AC$MASS_SPECTROMETRY: ION_MODE POSITIVE
AC$MASS_SPECTROMETRY: COLLISION_ENERGY 6V
AC$MASS_SPECTROMETRY: DESOLVATION_GAS_FLOW 800/h
AC$MASS_SPECTROMETRY: DESOLVATION_TEMPERATURE 450 C
AC$MASS_SPECTROMETRY: IONIZATION ESI
AC$CHROMATOGRAPHY: CAPILLARY_VOLTAGE +3.00 kV
AC$CHROMATOGRAPHY: COLUMN_NAME Acquity bridged ethyl hybrid C18 (1.7 um, 2.1 mm * 100 mm, Waters)
AC$CHROMATOGRAPHY: COLUMN_TEMPERATURE 40 C
AC$CHROMATOGRAPHY: FLOW_GRADIENT A/B = (99.5%/0.5% at 0 min, 99.5%/0.5% at 0.1 min, 20%/80% at 10 min, 0.5%/99.5% at 10.1 min, 0.5%/99.5% at 12.0 min, 99.5%/0.5% at 12.1 min, 99.5%/0.5% at 15.0 min)
AC$CHROMATOGRAPHY: FLOW_RATE 0.3 ml/min at 0 min, 0.3 ml/min at 10 min, 0.4 ml/min at 10.1 min, 0.4 ml/min at 14.4 min, 0.3 ml/min at 14.5 min
AC$CHROMATOGRAPHY: RETENTION_TIME 4.13
AC$CHROMATOGRAPHY: SOLVENT A water including 0.1% formic acid
AC$CHROMATOGRAPHY: SOLVENT B acetonitrile including 0.1% formic acid
MS$FOCUSED_ION: PRECURSOR_TYPE [M+H]+
MS$FOCUSED_ION: PRECURSOR_M/Z 327.2067
PK$SPLASH: splash10-004i-0219000000-d1dc8ea67573f01071cf
PK$NUM_PEAK: 454
PK$PEAK: m/z int. rel.int.
  72.08338 28.0 1
  73.07568 26.0 1
  77.03882 19.0 0
  78.0377 30.0 1
  79.05635 57.0 1
  80.04845 18.0 0
  80.05447 20.0 0
  81.03523 63.0 1
  81.05752 64.0 1
  81.07249 56.0 1
  82.07172 19.0 0
  84.03529 17.0 0
  84.04469 76.0 2
  84.08224 19.0 0
  84.09358 36.0 1
  85.03145 24.0 0
  91.05561 25.0 0
  93.07351 95.0 2
  94.06437 36.0 1
  94.07029 19.0 0
  95.08537 20.0 0
  96.04945 21.0 0
  96.08624 22.0 0
  97.06221 18.0 0
  97.10304 19.0 0
  98.09823 43.0 1
  105.07372 20.0 0
  106.06596 36.0 1
  106.07342 24.0 0
  107.04122 21.0 0
  107.07143 23.0 0
  107.08259 41.0 1
  108.0798 61.0 1
  109.06517 56.0 1
  109.08225 42.0 1
  110.06069 126.0 2
  110.06489 40.0 1
  110.09765 474.0 9
  111.06631 24.0 0
  111.07823 49.0 1
  111.09706 21.0 0
  112.07475 17.0 0
  112.08128 17.0 0
  112.11378 17.0 0
  114.77024 17.0 0
  114.78346 17.0 0
  117.05676 46.0 1
  117.06762 42.0 1
  118.06312 34.0 1
  119.07363 17.0 0
  119.0847 17.0 0
  120.07512 84.0 2
  120.08221 58.0 1
  120.08953 27.0 1
  122.08215 17.0 0
  122.09332 74.0 1
  122.09984 16.0 0
  124.07295 24.0 0
  126.09391 21.0 0
  127.09528 17.0 0
  129.05687 20.0 0
  129.06374 21.0 0
  129.07164 29.0 1
  130.06227 179.0 4
  130.07079 116.0 2
  130.07919 51.0 1
  131.06561 23.0 0
  131.07292 39.0 1
  131.07785 48.0 1
  132.0564 24.0 0
  132.08322 143.0 3
  132.56715 24.0 0
  133.06721 21.0 0
  133.08572 65.0 1
  133.10696 55.0 1
  133.73842 17.0 0
  134.07849 27.0 1
  134.10757 22.0 0
  136.07686 50.0 1
  136.11021 19.0 0
  136.11568 18.0 0
  136.13297 20.0 0
  137.09756 23.0 0
  138.09154 272.0 5
  139.09518 37.0 1
  141.07169 28.0 1
  141.08751 31.0 1
  142.06825 17.0 0
  142.53996 18.0 0
  143.0722 123.0 2
  143.08067 65.0 1
  143.092 19.0 0
  144.0587 41.0 1
  144.06793 41.0 1
  144.08243 1776.0 35
  145.07175 36.0 1
  145.08409 237.0 5
  145.09363 116.0 2
  145.10379 17.0 0
  146.03943 19.0 0
  146.05933 40.0 1
  146.06685 24.0 0
  146.08499 34.0 1
  146.09689 381.0 8
  147.0688 24.0 0
  147.09343 54.0 1
  147.10411 18.0 0
  148.07051 32.0 1
  148.07674 21.0 0
  148.10907 45.0 1
  149.28514 20.0 0
  150.08803 17.0 0
  150.09552 27.0 1
  154.05386 27.0 1
  154.08493 22.0 0
  154.12544 47.0 1
  155.07111 22.0 0
  155.08243 17.0 0
  155.71513 28.0 1
  156.08287 42.0 1
  156.09019 52.0 1
  156.09834 20.0 0
  157.07196 18.0 0
  157.08615 210.0 4
  157.10194 26.0 1
  157.97696 21.0 0
  158.05673 36.0 1
  158.07802 22.0 0
  158.09721 1803.0 36
  159.08427 33.0 1
  159.0974 340.0 7
  159.1189 20.0 0
  159.42448 21.0 0
  160.11435 19.0 0
  160.7123 21.0 0
  161.08121 41.0 1
  161.09816 67.0 1
  162.09654 37.0 1
  162.12488 27.0 1
  163.09175 48.0 1
  164.11099 58.0 1
  167.07494 175.0 3
  167.09715 24.0 0
  168.06909 68.0 1
  168.07605 137.0 3
  168.27089 29.0 1
  169.07054 25.0 0
  169.08588 54.0 1
  169.09749 20.0 0
  170.09357 326.0 6
  170.10179 91.0 2
  171.09554 141.0 3
  171.10724 20.0 0
  172.07257 74.0 1
  172.08694 133.0 3
  172.11272 206.0 4
  173.06842 21.0 0
  173.08694 149.0 3
  173.11696 23.0 0
  173.12561 17.0 0
  174.08771 125.0 2
  174.09772 64.0 1
  175.0477 20.0 0
  175.10115 25.0 0
  175.11382 18.0 0
  178.12883 70.0 1
  179.0748 20.0 0
  180.07832 71.0 1
  180.0898 92.0 2
  180.10101 22.0 0
  181.07533 86.0 2
  181.08859 260.0 5
  181.09799 148.0 3
  181.1261 17.0 0
  182.07658 36.0 1
  182.09749 916.0 18
  182.11127 124.0 2
  182.1219 24.0 0
  183.06366 25.0 0
  183.08395 31.0 1
  183.10194 226.0 4
  183.12506 23.0 0
  184.08554 42.0 1
  184.10252 175.0 3
  184.11304 353.0 7
  185.08147 62.0 1
  185.09207 18.0 0
  185.10562 86.0 2
  185.117 124.0 2
  185.15149 34.0 1
  185.4532 20.0 0
  185.60944 17.0 0
  186.09111 48.0 1
  187.09322 22.0 0
  187.90703 25.0 0
  188.04561 19.0 0
  193.07043 21.0 0
  193.08878 64.0 1
  194.09737 667.0 13
  194.61134 30.0 1
  195.07449 29.0 1
  195.10065 177.0 3
  195.10988 125.0 2
  196.0786 85.0 2
  196.10571 239.0 5
  196.12102 93.0 2
  196.25961 17.0 0
  197.06638 24.0 0
  197.07549 76.0 2
  197.08308 41.0 1
  197.10594 39.0 1
  197.11726 186.0 4
  197.12898 17.0 0
  198.09544 29.0 1
  198.10634 18.0 0
  198.12796 91.0 2
  198.13669 27.0 1
  198.47235 41.0 1
  199.09058 17.0 0
  199.10622 19.0 0
  199.11566 65.0 1
  199.2957 20.0 0
  200.10364 47.0 1
  200.11664 35.0 1
  201.0631 24.0 0
  201.11664 21.0 0
  201.13976 17.0 0
  201.23068 24.0 0
  203.09259 18.0 0
  203.1064 23.0 0
  203.41257 20.0 0
  204.08958 21.0 0
  205.04361 18.0 0
  205.08777 23.0 0
  205.14485 27.0 1
  205.3053 20.0 0
  205.85968 19.0 0
  206.09467 25.0 0
  206.10497 53.0 1
  206.1651 28.0 1
  207.09727 79.0 2
  207.11008 74.0 1
  208.05663 18.0 0
  208.10829 155.0 3
  208.11621 249.0 5
  209.10117 18.0 0
  209.11127 72.0 1
  209.12303 58.0 1
  210.08916 83.0 2
  210.10876 46.0 1
  210.11948 141.0 3
  210.13193 665.0 13
  210.1478 17.0 0
  210.1891 17.0 0
  210.91959 43.0 1
  211.1003 18.0 0
  211.10974 25.0 0
  211.1301 261.0 5
  211.1403 125.0 2
  212.0206 25.0 0
  212.06349 30.0 1
  212.106 575.0 11
  212.12071 48.0 1
  212.14137 213.0 4
  213.10347 19.0 0
  213.11528 51.0 1
  213.14836 23.0 0
  214.12056 22.0 0
  214.38162 22.0 0
  214.47983 38.0 1
  216.74475 29.0 1
  217.08722 25.0 0
  218.06389 23.0 0
  218.08499 17.0 0
  218.31177 17.0 0
  218.41168 37.0 1
  220.08093 23.0 0
  220.09676 94.0 2
  220.11971 281.0 6
  220.133 33.0 1
  221.10136 21.0 0
  221.11624 153.0 3
  221.12704 55.0 1
  222.07965 22.0 0
  222.12875 163.0 3
  223.12775 35.0 1
  223.27686 19.0 0
  224.10817 95.0 2
  225.11227 21.0 0
  225.14388 64.0 1
  226.12436 142.0 3
  226.15152 87.0 2
  226.1611 36.0 1
  227.11296 38.0 1
  227.12186 47.0 1
  227.1398 17.0 0
  227.15547 17.0 0
  227.65912 18.0 0
  228.14026 37.0 1
  228.84804 23.0 0
  230.10057 17.0 0
  230.27499 25.0 0
  231.1122 20.0 0
  231.40935 19.0 0
  232.10492 51.0 1
  232.11655 17.0 0
  232.93762 26.0 1
  233.10292 29.0 1
  233.12048 36.0 1
  234.09116 46.0 1
  234.13597 39.0 1
  235.13023 241.0 5
  236.10123 18.0 0
  236.1241 21.0 0
  236.13196 20.0 0
  236.14964 127.0 3
  237.09682 24.0 0
  237.12082 64.0 1
  237.1338 174.0 3
  237.14613 211.0 4
  238.12383 425.0 8
  238.14362 47.0 1
  238.16547 45.0 1
  238.1722 24.0 0
  238.54201 19.0 0
  239.11095 20.0 0
  239.12904 66.0 1
  239.14705 229.0 5
  239.15698 455.0 9
  240.13512 110.0 2
  240.14635 36.0 1
  240.15843 71.0 1
  241.16588 17.0 0
  242.19041 17.0 0
  243.10747 29.0 1
  244.11653 27.0 1
  244.13354 20.0 0
  245.11903 43.0 1
  245.12871 48.0 1
  245.13989 20.0 0
  246.12677 41.0 1
  247.12039 49.0 1
  247.13284 21.0 0
  248.09659 35.0 1
  248.14125 63.0 1
  249.13684 19.0 0
  249.1521 52.0 1
  250.16237 84.0 2
  251.12144 27.0 1
  251.24518 25.0 0
  252.14439 41.0 1
  252.15459 19.0 0
  252.17775 67.0 1
  253.13852 17.0 0
  253.18559 50.0 1
  254.16148 17.0 0
  254.46431 23.0 0
  255.12904 18.0 0
  255.14799 165.0 3
  255.16107 57.0 1
  255.59155 18.0 0
  256.16565 36.0 1
  256.86975 20.0 0
  257.12534 39.0 1
  259.13504 102.0 2
  259.48022 17.0 0
  259.97235 31.0 1
  261.13947 101.0 2
  262.10739 38.0 1
  262.12396 17.0 0
  262.14468 52.0 1
  262.16199 67.0 1
  263.1387 17.0 0
  264.13312 27.0 1
  264.16336 62.0 1
  264.17746 165.0 3
  264.32523 21.0 0
  264.81427 17.0 0
  265.1604 41.0 1
  265.17407 84.0 2
  265.19839 44.0 1
  266.14886 18.0 0
  266.89542 24.0 0
  267.1579 44.0 1
  267.17044 17.0 0
  267.18713 30.0 1
  268.41614 17.0 0
  268.59781 43.0 1
  269.198 24.0 0
  269.20624 32.0 1
  273.77209 18.0 0
  274.16913 131.0 3
  274.98343 25.0 0
  276.17441 18.0 0
  276.29648 25.0 0
  277.15207 68.0 1
  279.18625 21.0 0
  280.14853 18.0 0
  280.16837 19.0 0
  280.17853 27.0 1
  281.20932 40.0 1
  281.23099 21.0 0
  283.03882 17.0 0
  283.06732 21.0 0
  283.15573 31.0 1
  283.19318 23.0 0
  283.91357 20.0 0
  284.16547 17.0 0
  290.15527 25.0 0
  291.15067 18.0 0
  291.18881 329.0 6
  292.1261 36.0 1
  292.1611 41.0 1
  292.17224 64.0 1
  292.18442 54.0 1
  292.87561 23.0 0
  294.19415 53.0 1
  297.15497 20.0 0
  298.97653 33.0 1
  300.29318 20.0 0
  304.00238 23.0 0
  304.14948 24.0 0
  304.40274 17.0 0
  306.72433 17.0 0
  309.10132 21.0 0
  309.19604 224.0 4
  309.21808 20.0 0
  310.14532 19.0 0
  310.17444 83.0 2
  310.2023 89.0 2
  311.16956 17.0 0
  311.19287 87.0 2
  311.20935 18.0 0
  311.97839 23.0 0
  312.07883 18.0 0
  312.13431 17.0 0
  312.1488 33.0 1
  317.67773 21.0 0
  323.41959 17.0 0
  324.1412 20.0 0
  325.17743 17.0 0
  325.51862 20.0 0
  326.0744 17.0 0
  326.20398 30.0 1
  326.22495 18.0 0
  326.67688 17.0 0
  326.84891 37.0 1
  327.13116 40.0 1
  327.15802 162.0 3
  327.20792 50610.0 999
  327.25955 1269.0 25
  327.30222 18.0 0
  327.31229 18.0 0
  327.35025 20.0 0
//
