ACCESSION: MSBNK-RIKEN-PR303039
RECORD_TITLE: Peonidin-3-O-alpha-arabinoside; LC-ESI-QTOF; MS2
DATE: 2019.03.28
AUTHORS: Tetsuya Mori, Center for Sustainable Resource Science, RIKEN
LICENSE: CC BY-NC-SA
PUBLICATION: Tsugawa H., Nakabayashi R., Mori T., Yamada Y., Takahashi M., Rai A., Sugiyama R., Yamamoto H., Nakaya T., Yamazaki M., Kooke R., Bac-Molenaar JA., Oztolan-Erol N., Keurentjes JJB., Arita M., Saito K. (2019) "A cheminformatics approach to characterize metabolomes in stable-isotope-labeled organisms" Nature Methods 16(4):295-298. [doi:10.1038/s41592-019-0358-2]
COMMENT: registered in RIKEN PlaSMA
CH$NAME: Peonidin-3-O-alpha-arabinoside
CH$COMPOUND_CLASS: Flavonoid-3-O-glycosides
CH$FORMULA: C21H20O10
CH$EXACT_MASS: 432.381
CH$SMILES: COC1=C(O)C=CC(=C1)C1=C(OC2OCC(O)C(O)C2O)C=C2C([O-])=CC(O)=CC2=[O+]1
CH$IUPAC: InChI=1S/C21H20O10/c1-28-16-4-9(2-3-12(16)23)20-17(31-21-19(27)18(26)14(25)8-29-21)7-11-13(24)5-10(22)6-15(11)30-20/h2-7,14,18-19,21,25-27H,8H2,1H3,(H2-,22,23,24)
CH$LINK: INCHIKEY KRUPPTWQKIEURV-UHFFFAOYSA-N
AC$INSTRUMENT: LC, Waters Acquity UPLC System; MS, Waters Xevo G2 Q-Tof
AC$INSTRUMENT_TYPE: LC-ESI-QTOF
AC$MASS_SPECTROMETRY: MS_TYPE MS2
AC$MASS_SPECTROMETRY: ION_MODE POSITIVE
AC$MASS_SPECTROMETRY: COLLISION_ENERGY 6V
AC$MASS_SPECTROMETRY: DESOLVATION_GAS_FLOW 800/h
AC$MASS_SPECTROMETRY: DESOLVATION_TEMPERATURE 450 C
AC$MASS_SPECTROMETRY: IONIZATION ESI
AC$CHROMATOGRAPHY: CAPILLARY_VOLTAGE +3.00 kV
AC$CHROMATOGRAPHY: COLUMN_NAME Acquity bridged ethyl hybrid C18 (1.7 um, 2.1 mm * 100 mm, Waters)
AC$CHROMATOGRAPHY: COLUMN_TEMPERATURE 40 C
AC$CHROMATOGRAPHY: FLOW_GRADIENT A/B = (99.5%/0.5% at 0 min, 99.5%/0.5% at 0.1 min, 20%/80% at 10 min, 0.5%/99.5% at 10.1 min, 0.5%/99.5% at 12.0 min, 99.5%/0.5% at 12.1 min, 99.5%/0.5% at 15.0 min)
AC$CHROMATOGRAPHY: FLOW_RATE 0.3 ml/min at 0 min, 0.3 ml/min at 10 min, 0.4 ml/min at 10.1 min, 0.4 ml/min at 14.4 min, 0.3 ml/min at 14.5 min
AC$CHROMATOGRAPHY: RETENTION_TIME 3.296733
AC$CHROMATOGRAPHY: SOLVENT A water including 0.1% formic acid
AC$CHROMATOGRAPHY: SOLVENT B acetonitrile including 0.1% formic acid
MS$FOCUSED_ION: PRECURSOR_TYPE [M+H]+
MS$FOCUSED_ION: PRECURSOR_M/Z 433.1129233
PK$SPLASH: splash10-0udi-0019000000-6055a6210c3bbde83f14
PK$NUM_PEAK: 8
PK$PEAK: m/z int. rel.int.
  258.04944 9.0 9
  286.04556 108.0 108
  287.04343 17.0 17
  301.0256 14.0 14
  301.06934 1000.0 999
  302.07214 155.0 155
  303.07788 10.0 10
  303.0892 6.0 6
//
