ACCESSION: MSBNK-RIKEN-PR300506
RECORD_TITLE: Puberanidine; LC-ESI-QTOF; MS2
DATE: 2019.03.28
AUTHORS: Tetsuya Mori, Center for Sustainable Resource Science, RIKEN
LICENSE: CC BY-NC-SA
PUBLICATION: Tsugawa H., Nakabayashi R., Mori T., Yamada Y., Takahashi M., Rai A., Sugiyama R., Yamamoto H., Nakaya T., Yamazaki M., Kooke R., Bac-Molenaar JA., Oztolan-Erol N., Keurentjes JJB., Arita M., Saito K. (2019) "A cheminformatics approach to characterize metabolomes in stable-isotope-labeled organisms" Nature Methods 16(4):295-298. [doi:10.1038/s41592-019-0358-2]
COMMENT: registered in RIKEN PlaSMA
CH$NAME: Puberanidine
CH$COMPOUND_CLASS: Lappaconitine-type diterpenoid alkaloids
CH$FORMULA: C30H42N2O7
CH$EXACT_MASS: 542.673
CH$SMILES: CCN1C[C@@]2(CC[C@H](OC)C34[C@@H]5C[C@H]6[C@H](OC)[C@]5(O)[C@](O)(C[C@@H]6OC)C(C[C@H]23)C14)OC(=O)C1=CC=CC=C1N
CH$IUPAC: InChI=1S/C30H42N2O7/c1-5-32-15-27(39-26(33)16-8-6-7-9-19(16)31)11-10-23(37-3)29-21(27)13-18(24(29)32)28(34)14-20(36-2)17-12-22(29)30(28,35)25(17)38-4/h6-9,17-18,20-25,34-35H,5,10-15,31H2,1-4H3/t17-,18?,20+,21-,22+,23+,24?,25+,27-,28+,29?,30+/m1/s1
CH$LINK: INCHIKEY VSUODASNSRJNCP-WGVBKJPXSA-N
AC$INSTRUMENT: LC, Waters Acquity UPLC System; MS, Waters Xevo G2 Q-Tof
AC$INSTRUMENT_TYPE: LC-ESI-QTOF
AC$MASS_SPECTROMETRY: MS_TYPE MS2
AC$MASS_SPECTROMETRY: ION_MODE POSITIVE
AC$MASS_SPECTROMETRY: COLLISION_ENERGY 6V
AC$MASS_SPECTROMETRY: DESOLVATION_GAS_FLOW 800/h
AC$MASS_SPECTROMETRY: DESOLVATION_TEMPERATURE 450 C
AC$MASS_SPECTROMETRY: IONIZATION ESI
AC$CHROMATOGRAPHY: CAPILLARY_VOLTAGE +3.00 kV
AC$CHROMATOGRAPHY: COLUMN_NAME Acquity bridged ethyl hybrid C18 (1.7 um, 2.1 mm * 100 mm, Waters)
AC$CHROMATOGRAPHY: COLUMN_TEMPERATURE 40 C
AC$CHROMATOGRAPHY: FLOW_GRADIENT A/B = (99.5%/0.5% at 0 min, 99.5%/0.5% at 0.1 min, 20%/80% at 10 min, 0.5%/99.5% at 10.1 min, 0.5%/99.5% at 12.0 min, 99.5%/0.5% at 12.1 min, 99.5%/0.5% at 15.0 min)
AC$CHROMATOGRAPHY: FLOW_RATE 0.3 ml/min at 0 min, 0.3 ml/min at 10 min, 0.4 ml/min at 10.1 min, 0.4 ml/min at 14.4 min, 0.3 ml/min at 14.5 min
AC$CHROMATOGRAPHY: RETENTION_TIME 4.951167
AC$CHROMATOGRAPHY: SOLVENT A water including 0.1% formic acid
AC$CHROMATOGRAPHY: SOLVENT B acetonitrile including 0.1% formic acid
MS$FOCUSED_ION: PRECURSOR_TYPE [M+H]+
MS$FOCUSED_ION: PRECURSOR_M/Z 543.3064782
PK$SPLASH: splash10-00di-0970000000-0bd4a867c461617bcc9d
PK$NUM_PEAK: 546
PK$PEAK: m/z int. rel.int.
  55.05757 6.0 6
  56.05167 5.0 5
  58.06271 7.0 7
  67.05636 16.0 16
  68.05357 6.0 6
  71.0513 46.0 46
  75.04493 61.0 61
  79.05425 6.0 6
  81.03433 7.0 7
  82.06445 11.0 11
  83.05116 7.0 7
  84.082 50.0 50
  85.02561 12.0 12
  85.06767 8.0 8
  87.04539 11.0 11
  88.07686 28.0 28
  91.0559 56.0 56
  92.04942 47.0 47
  93.03097 7.0 7
  94.71739 6.0 6
  95.05148 17.0 17
  96.41623 5.0 5
  97.0666 19.0 19
  101.04082 9.0 9
  101.06161 23.0 23
  101.06864 18.0 18
  103.0502 7.0 7
  103.05715 5.0 5
  105.0292 9.0 9
  105.03964 9.0 9
  105.07227 100.0 100
  107.04968 22.0 22
  107.08709 7.0 7
  108.07896 26.0 26
  108.08831 12.0 12
  109.02745 33.0 33
  109.06174 11.0 11
  109.06721 8.0 8
  110.09569 23.0 23
  111.0453 10.0 10
  111.10077 6.0 6
  112.89394 6.0 6
  113.067 9.0 9
  114.09584 14.0 14
  115.05706 10.0 10
  117.07159 46.0 46
  118.07423 6.0 6
  119.05357 7.0 7
  119.08762 34.0 34
  120.04502 1000.0 999
  120.08139 14.0 14
  121.04811 98.0 98
  121.0666 44.0 44
  122.04806 12.0 12
  122.09679 7.0 7
  123.04237 15.0 15
  123.04639 9.0 9
  123.08048 11.0 11
  125.06112 20.0 20
  125.08708 7.0 7
  127.05431 17.0 17
  127.07056 6.0 6
  128.06227 31.0 31
  128.07344 10.0 10
  129.05734 8.0 8
  129.07079 219.0 219
  130.0697 26.0 26
  130.07898 8.0 8
  131.07338 11.0 11
  131.08694 160.0 160
  132.04213 8.0 8
  132.09091 20.0 20
  133.10123 8.0 8
  134.06099 9.0 9
  134.09839 34.0 34
  135.03932 8.0 8
  135.07286 7.0 7
  135.08298 22.0 22
  135.10884 15.0 15
  136.10806 7.0 7
  137.05753 25.0 25
  137.06586 20.0 20
  137.09088 9.0 9
  138.05367 17.0 17
  138.09714 10.0 10
  139.07652 21.0 21
  141.05791 21.0 21
  141.06516 53.0 53
  141.07222 61.0 61
  142.07724 54.0 54
  143.05257 6.0 6
  143.06723 7.0 7
  143.07607 13.0 13
  143.08488 56.0 56
  143.09302 14.0 14
  143.11624 6.0 6
  144.08295 13.0 13
  145.0722 9.0 9
  145.08925 30.0 30
  145.09888 16.0 16
  145.10751 6.0 6
  146.08189 9.0 9
  146.09639 31.0 31
  147.0808 30.0 30
  147.10103 12.0 12
  148.10492 13.0 13
  148.11615 8.0 8
  150.13194 6.0 6
  152.05986 12.0 12
  152.0762 5.0 5
  152.72806 6.0 6
  153.05557 19.0 19
  153.07127 57.0 57
  154.0748 30.0 30
  154.08481 8.0 8
  155.05185 10.0 10
  155.06136 13.0 13
  155.08595 212.0 212
  156.09154 62.0 62
  157.0688 12.0 12
  157.08095 5.0 5
  157.10074 206.0 206
  158.07184 15.0 15
  158.0994 26.0 26
  158.11116 8.0 8
  159.08244 39.0 39
  159.11568 58.0 58
  160.10974 10.0 10
  160.121 8.0 8
  161.0643 24.0 24
  161.07365 6.0 6
  161.09541 79.0 79
  161.95183 6.0 6
  162.05827 6.0 6
  162.0665 8.0 8
  162.09471 10.0 10
  162.11769 6.0 6
  162.12798 9.0 9
  163.07237 9.0 9
  164.06512 6.0 6
  165.0668 42.0 42
  165.07607 26.0 26
  166.08038 17.0 17
  166.08574 8.0 8
  166.95049 7.0 7
  167.05638 10.0 10
  167.07294 34.0 34
  167.08044 58.0 58
  167.08797 81.0 81
  168.08337 29.0 29
  168.09476 27.0 27
  168.13168 5.0 5
  169.0813 15.0 15
  169.10025 90.0 90
  170.10097 34.0 34
  170.47063 7.0 7
  171.08281 52.0 52
  171.09868 10.0 10
  171.11909 9.0 9
  172.08092 18.0 18
  172.08963 9.0 9
  172.09862 6.0 6
  172.11198 43.0 43
  173.08859 14.0 14
  173.09764 20.0 20
  173.11768 38.0 38
  174.09407 10.0 10
  174.12756 76.0 76
  174.13622 27.0 27
  175.1286 29.0 29
  175.14383 11.0 11
  176.11263 7.0 7
  176.14236 5.0 5
  176.15099 8.0 8
  177.09387 5.0 5
  178.07559 34.0 34
  178.08258 46.0 46
  178.90146 6.0 6
  179.06786 7.0 7
  179.08807 132.0 132
  180.05313 6.0 6
  180.08289 20.0 20
  180.09178 43.0 43
  180.10088 22.0 22
  181.08533 40.0 40
  181.10513 79.0 79
  182.08943 14.0 14
  182.10777 57.0 57
  183.08344 57.0 57
  183.09929 12.0 12
  183.11688 51.0 51
  183.12534 18.0 18
  184.09109 17.0 17
  184.1078 25.0 25
  184.11487 54.0 54
  184.12614 8.0 8
  185.08154 7.0 7
  185.09251 38.0 38
  185.10504 21.0 21
  185.11656 20.0 20
  185.1248 7.0 7
  186.09451 8.0 8
  186.10609 15.0 15
  186.12901 36.0 36
  187.07211 12.0 12
  187.08112 7.0 7
  187.10579 22.0 22
  187.11537 27.0 27
  188.1176 20.0 20
  188.14471 12.0 12
  189.06952 11.0 11
  189.08881 7.0 7
  189.13321 18.0 18
  190.07239 20.0 20
  190.08194 34.0 34
  190.10559 10.0 10
  190.11578 7.0 7
  190.12944 6.0 6
  190.97589 5.0 5
  191.06168 9.0 9
  191.07918 29.0 29
  191.09088 94.0 94
  191.13264 11.0 11
  191.61832 6.0 6
  191.75859 6.0 6
  192.09402 87.0 87
  192.13506 12.0 12
  193.08914 31.0 31
  193.10262 213.0 213
  194.08769 25.0 25
  194.10851 74.0 74
  195.06624 12.0 12
  195.08504 37.0 37
  195.09869 20.0 20
  195.11093 54.0 54
  195.12042 73.0 73
  196.09128 37.0 37
  196.11487 111.0 111
  197.05809 10.0 10
  197.09532 49.0 49
  197.11115 6.0 6
  197.12268 15.0 15
  197.13342 14.0 14
  198.0873 8.0 8
  198.10721 9.0 9
  198.1268 27.0 27
  199.11447 26.0 26
  200.13576 11.0 11
  200.14421 43.0 43
  201.08276 10.0 10
  201.11832 6.0 6
  201.15344 10.0 10
  202.07878 54.0 54
  202.10513 6.0 6
  202.12656 5.0 5
  202.15884 35.0 35
  202.17032 8.0 8
  203.07922 43.0 43
  203.08899 111.0 111
  203.1313 10.0 10
  203.16333 10.0 10
  204.07001 7.0 7
  204.09554 223.0 223
  204.17216 7.0 7
  205.07001 10.0 10
  205.08305 11.0 11
  205.09821 85.0 85
  205.10883 47.0 47
  205.1559 7.0 7
  206.06912 8.0 8
  206.08147 17.0 17
  206.09894 19.0 19
  206.10902 50.0 50
  207.08183 30.0 30
  207.11549 105.0 105
  207.12848 13.0 13
  208.08426 19.0 19
  208.11383 11.0 11
  208.12579 16.0 16
  209.06944 6.0 6
  209.09073 22.0 22
  209.0997 30.0 30
  209.1243 67.0 67
  209.13591 51.0 51
  210.09811 17.0 17
  210.11295 44.0 44
  210.12785 136.0 136
  210.51332 5.0 5
  211.0672 6.0 6
  211.1035 7.0 7
  211.11462 45.0 45
  211.13115 32.0 32
  211.14667 35.0 35
  212.09554 30.0 30
  212.11314 11.0 11
  212.12247 9.0 9
  212.14363 180.0 180
  213.0936 15.0 15
  213.15138 44.0 44
  214.14592 12.0 12
  214.16969 9.0 9
  215.09117 12.0 12
  215.10121 9.0 9
  215.11458 11.0 11
  215.13242 6.0 6
  216.09563 18.0 18
  216.11383 9.0 9
  217.10191 32.0 32
  217.10977 12.0 12
  218.06575 7.0 7
  218.07362 13.0 13
  218.10919 40.0 40
  218.11896 10.0 10
  219.07841 13.0 13
  219.11758 263.0 263
  220.08542 76.0 76
  220.10107 12.0 12
  220.12358 40.0 40
  220.1355 9.0 9
  220.47697 7.0 7
  221.08871 14.0 14
  221.1019 58.0 58
  221.12137 20.0 20
  221.1313 36.0 36
  221.14157 18.0 18
  222.09703 10.0 10
  222.10753 54.0 54
  222.12852 37.0 37
  222.14075 13.0 13
  223.11601 80.0 80
  223.13466 24.0 24
  224.08208 9.0 9
  224.09332 15.0 15
  224.10663 11.0 11
  224.11624 24.0 24
  224.13969 14.0 14
  224.14993 22.0 22
  224.20316 5.0 5
  225.07153 5.0 5
  225.11674 13.0 13
  225.12787 17.0 17
  225.15073 17.0 17
  226.12523 6.0 6
  226.15698 28.0 28
  226.29431 6.0 6
  227.07103 6.0 6
  227.09 15.0 15
  227.10814 23.0 23
  227.13487 18.0 18
  228.09344 14.0 14
  228.1075 9.0 9
  228.13708 11.0 11
  229.10388 47.0 47
  229.12711 9.0 9
  230.10518 40.0 40
  230.14615 8.0 8
  230.15771 9.0 9
  231.0631 6.0 6
  231.088 14.0 14
  231.12077 35.0 35
  231.13809 6.0 6
  232.07719 6.0 6
  232.09203 26.0 26
  232.1048 16.0 16
  232.12161 12.0 12
  233.09665 40.0 40
  233.12659 15.0 15
  234.09442 10.0 10
  234.11394 16.0 16
  234.12845 14.0 14
  235.10284 8.0 8
  235.11661 46.0 46
  235.13478 6.0 6
  235.40353 8.0 8
  236.08513 16.0 16
  236.09483 11.0 11
  236.11079 18.0 18
  236.12447 52.0 52
  236.14372 32.0 32
  236.15814 9.0 9
  237.12816 132.0 132
  237.14983 8.0 8
  237.16045 5.0 5
  238.11867 9.0 9
  238.13252 22.0 22
  238.15973 77.0 77
  239.10399 12.0 12
  239.12321 9.0 9
  239.14241 20.0 20
  240.14613 8.0 8
  241.14224 6.0 6
  241.16139 9.0 9
  242.13403 6.0 6
  242.15869 25.0 25
  243.15793 6.0 6
  244.14859 11.0 11
  244.16713 7.0 7
  245.1826 6.0 6
  246.10622 17.0 17
  246.12514 13.0 13
  246.13477 7.0 7
  247.09125 10.0 10
  247.11063 63.0 63
  247.11922 27.0 27
  247.13431 7.0 7
  248.09851 8.0 8
  248.11151 24.0 24
  248.13138 38.0 38
  248.15474 13.0 13
  248.70186 8.0 8
  249.08455 9.0 9
  249.11652 10.0 10
  249.12804 36.0 36
  249.13657 27.0 27
  249.15135 41.0 41
  250.08939 6.0 6
  250.12041 14.0 14
  250.13506 12.0 12
  250.16365 37.0 37
  251.11998 5.0 5
  251.13823 79.0 79
  251.15068 29.0 29
  251.17529 9.0 9
  252.12292 6.0 6
  252.13907 20.0 20
  252.15439 9.0 9
  252.17932 10.0 10
  253.12535 37.0 37
  253.15448 28.0 28
  253.1664 6.0 6
  254.12198 8.0 8
  254.14156 5.0 5
  255.13887 8.0 8
  255.15265 13.0 13
  256.17685 7.0 7
  257.10666 5.0 5
  258.13693 21.0 21
  259.1337 34.0 34
  261.12775 20.0 20
  261.17072 6.0 6
  262.14133 20.0 20
  262.1514 11.0 11
  263.12708 53.0 53
  264.11127 8.0 8
  264.12045 16.0 16
  264.14008 35.0 35
  264.17566 71.0 71
  265.11569 9.0 9
  265.12991 9.0 9
  265.14026 9.0 9
  265.1601 6.0 6
  266.12811 10.0 10
  266.15353 42.0 42
  267.14752 11.0 11
  267.16525 10.0 10
  267.17627 6.0 6
  268.13345 7.0 7
  268.16428 8.0 8
  268.1817 7.0 7
  272.1489 6.0 6
  274.1622 40.0 40
  275.16486 12.0 12
  277.14233 12.0 12
  278.15311 12.0 12
  279.121 11.0 11
  279.13565 23.0 23
  279.14807 32.0 32
  280.12613 9.0 9
  280.13889 26.0 26
  280.17404 61.0 61
  281.14331 12.0 12
  281.15945 13.0 13
  281.17307 18.0 18
  282.12692 5.0 5
  282.17218 10.0 10
  283.15594 13.0 13
  284.16083 8.0 8
  288.43945 7.0 7
  290.15826 9.0 9
  290.17026 6.0 6
  292.17053 110.0 110
  293.14429 6.0 6
  293.15375 8.0 8
  293.16568 10.0 10
  293.18149 19.0 19
  294.1586 26.0 26
  294.17532 19.0 19
  295.15631 21.0 21
  296.13785 6.0 6
  296.16055 26.0 26
  296.20206 46.0 46
  297.12646 8.0 8
  297.20862 8.0 8
  298.17664 18.0 18
  298.1922 21.0 21
  299.1882 9.0 9
  301.1868 6.0 6
  302.18912 5.0 5
  306.1864 20.0 20
  308.16122 9.0 9
  309.17532 9.0 9
  310.18085 15.0 15
  311.16568 16.0 16
  312.18173 8.0 8
  312.19495 6.0 6
  314.17886 12.0 12
  314.2113 5.0 5
  316.16089 7.0 7
  316.19974 11.0 11
  323.19455 5.0 5
  324.19836 154.0 154
  324.54581 8.0 8
  325.1785 7.0 7
  325.1947 12.0 12
  325.21301 10.0 10
  328.1944 11.0 11
  328.23578 11.0 11
  330.18021 6.0 6
  330.20877 17.0 17
  338.21173 7.0 7
  340.23157 6.0 6
  342.19229 5.0 5
  342.20755 16.0 16
  343.21255 8.0 8
  346.20715 9.0 9
  349.18091 7.0 7
  356.19647 23.0 23
  356.22562 97.0 97
  356.24716 9.0 9
  360.23459 6.0 6
  374.21133 7.0 7
  374.23984 31.0 31
  375.23883 11.0 11
  388.24356 34.0 34
  389.23871 9.0 9
  389.26804 5.0 5
  392.2449 11.0 11
  394.24573 6.0 6
  415.12231 8.0 8
  424.28455 15.0 15
  425.26385 7.0 7
  448.67447 5.0 5
  465.29309 6.0 6
  493.26056 15.0 15
  493.2778 13.0 13
  526.31012 10.0 10
//
