ACCESSION: MSBNK-RIKEN-PR310726
RECORD_TITLE: Furostane base + O-Hex, O-Hex-Hex-Hex; LC-ESI-QTOF; MS2
DATE: 2019.03.28
AUTHORS: Tetsuya Mori, Center for Sustainable Resource Science, RIKEN
LICENSE: CC BY-NC-SA
PUBLICATION: Tsugawa H., Nakabayashi R., Mori T., Yamada Y., Takahashi M., Rai A., Sugiyama R., Yamamoto H., Nakaya T., Yamazaki M., Kooke R., Bac-Molenaar JA., Oztolan-Erol N., Keurentjes JJB., Arita M., Saito K. (2019) "A cheminformatics approach to characterize metabolomes in stable-isotope-labeled organisms" Nature Methods 16(4):295-298. [doi:10.1038/s41592-019-0358-2]
COMMENT: Annotation level-3
CH$NAME: Furostane base + O-Hex, O-Hex-Hex-Hex
CH$COMPOUND_CLASS: Steroidal saponins
CH$FORMULA: C51H86O24
CH$EXACT_MASS: 1083.225
CH$SMILES: OCC9OC(OCC(C)CCC7(O)(OC6CC5C8CCC4CC(OC3OC(CO)C(OC2OC(CO)C(O)C(O)C2(OC1OC(CO)C(O)C(O)C1(O)))C(O)C3(O))CCC4(C)C8(CCC5(C)C6C7(C))))C(O)C(O)C9(O)
CH$IUPAC: InChI=1S/C51H86O24/c1-20(19-67-45-40(63)36(59)33(56)28(15-52)69-45)7-12-51(66)21(2)32-27(75-51)14-26-24-6-5-22-13-23(8-10-49(22,3)25(24)9-11-50(26,32)4)68-46-42(65)39(62)43(31(18-55)72-46)73-48-44(38(61)35(58)30(17-54)71-48)74-47-41(64)37(60)34(57)29(16-53)70-47/h20-48,52-66H,5-19H2,1-4H3
CH$LINK: INCHIKEY OFEAYOYKIQKFSK-UHFFFAOYSA-N
AC$INSTRUMENT: LC, Waters Acquity UPLC System; MS, Waters Xevo G2 Q-Tof
AC$INSTRUMENT_TYPE: LC-ESI-QTOF
AC$MASS_SPECTROMETRY: MS_TYPE MS2
AC$MASS_SPECTROMETRY: ION_MODE POSITIVE
AC$MASS_SPECTROMETRY: COLLISION_ENERGY 6V
AC$MASS_SPECTROMETRY: DESOLVATION_GAS_FLOW 800/h
AC$MASS_SPECTROMETRY: DESOLVATION_TEMPERATURE 450 C
AC$MASS_SPECTROMETRY: IONIZATION ESI
AC$CHROMATOGRAPHY: CAPILLARY_VOLTAGE +3.00 kV
AC$CHROMATOGRAPHY: COLUMN_NAME Acquity bridged ethyl hybrid C18 (1.7 um, 2.1 mm * 100 mm, Waters)
AC$CHROMATOGRAPHY: COLUMN_TEMPERATURE 40 C
AC$CHROMATOGRAPHY: FLOW_GRADIENT A/B = (99.5%/0.5% at 0 min, 99.5%/0.5% at 0.1 min, 20%/80% at 10 min, 0.5%/99.5% at 10.1 min, 0.5%/99.5% at 12.0 min, 99.5%/0.5% at 12.1 min, 99.5%/0.5% at 15.0 min)
AC$CHROMATOGRAPHY: FLOW_RATE 0.3 ml/min at 0 min, 0.3 ml/min at 10 min, 0.4 ml/min at 10.1 min, 0.4 ml/min at 14.4 min, 0.3 ml/min at 14.5 min
AC$CHROMATOGRAPHY: RETENTION_TIME 4.91
AC$CHROMATOGRAPHY: SOLVENT A water including 0.1% formic acid
AC$CHROMATOGRAPHY: SOLVENT B acetonitrile including 0.1% formic acid
MS$FOCUSED_ION: PRECURSOR_TYPE [M+H-H2O]+
MS$FOCUSED_ION: PRECURSOR_M/Z 1065.5511
PK$SPLASH: splash10-014i-9121320000-78e572dd04892280bfcd
PK$NUM_PEAK: 256
PK$PEAK: m/z int. rel.int.
  57.02137 20.0 1
  57.27534 18.0 1
  85.02028 24.0 1
  85.03033 84.0 5
  91.0434 24.0 1
  97.02796 64.0 4
  98.04108 16.0 1
  103.0268 16.0 1
  105.0722 16.0 1
  109.02498 19.0 1
  109.0657 35.0 2
  109.99326 20.0 1
  110.06174 22.0 1
  115.07426 111.0 6
  120.83369 26.0 1
  121.22454 20.0 1
  127.04269 78.0 4
  128.03941 42.0 2
  131.24709 25.0 1
  145.0504 792.0 45
  145.06606 21.0 1
  147.11893 29.0 2
  154.09761 19.0 1
  157.08153 16.0 1
  157.13789 21.0 1
  159.1178 35.0 2
  163.03851 25.0 1
  163.06096 1847.0 104
  164.05693 19.0 1
  164.06599 54.0 3
  164.07362 35.0 2
  167.10776 242.0 14
  168.11388 20.0 1
  169.11449 33.0 2
  176.12044 21.0 1
  181.06216 16.0 1
  182.12508 44.0 2
  191.1467 21.0 1
  198.82536 21.0 1
  199.90741 20.0 1
  202.83727 40.0 2
  229.05823 59.0 3
  229.07385 16.0 1
  238.58957 38.0 2
  247.07521 22.0 1
  253.07114 24.0 1
  255.2162 962.0 54
  255.46703 18.0 1
  256.17007 16.0 1
  256.20596 17.0 1
  256.21915 37.0 2
  256.23557 22.0 1
  257.2251 122.0 7
  259.08661 29.0 2
  260.09973 18.0 1
  267.22269 19.0 1
  267.35745 18.0 1
  268.21716 18.0 1
  271.08014 33.0 2
  271.1972 18.0 1
  272.86191 16.0 1
  273.17361 76.0 4
  273.22427 3035.0 171
  273.24768 16.0 1
  273.3779 32.0 2
  274.22971 593.0 33
  274.26685 24.0 1
  274.33142 46.0 3
  274.47787 18.0 1
  274.64981 16.0 1
  275.22794 70.0 4
  275.85162 17.0 1
  276.23938 16.0 1
  285.25607 103.0 6
  285.27121 23.0 1
  289.08875 71.0 4
  289.10062 41.0 2
  289.19138 24.0 1
  292.99768 18.0 1
  298.86362 38.0 2
  308.10324 48.0 3
  320.96136 16.0 1
  321.22495 34.0 2
  325.06921 24.0 1
  325.10248 243.0 14
  325.11716 801.0 45
  326.09845 21.0 1
  326.11182 69.0 4
  327.11777 18.0 1
  334.13058 16.0 1
  376.26205 17.0 1
  381.26205 26.0 1
  381.30356 72.0 4
  381.33173 82.0 5
  383.31967 18.0 1
  399.23172 35.0 2
  399.25238 40.0 2
  399.28918 16.0 1
  399.31674 190.0 11
  399.33453 368.0 21
  400.26425 35.0 2
  400.33005 36.0 2
  400.34186 54.0 3
  400.48401 16.0 1
  401.3371 59.0 3
  411.32281 19.0 1
  415.3165 34.0 2
  415.49561 16.0 1
  416.16666 24.0 1
  416.32718 37.0 2
  416.96231 21.0 1
  417.2515 20.0 1
  417.26849 20.0 1
  417.28439 65.0 4
  417.33765 3251.0 183
  417.36884 75.0 4
  418.16528 17.0 1
  418.25067 18.0 1
  418.30917 54.0 3
  418.33951 940.0 53
  418.3779 32.0 2
  418.50854 17.0 1
  418.62195 16.0 1
  419.27539 16.0 1
  419.32755 60.0 3
  419.34555 188.0 11
  424.22574 30.0 2
  433.24637 17.0 1
  435.20718 18.0 1
  435.23047 32.0 2
  435.27011 334.0 19
  435.28497 276.0 16
  436.25009 64.0 4
  436.27792 155.0 9
  436.29575 58.0 3
  437.27713 20.0 1
  444.85046 34.0 2
  447.30408 22.0 1
  459.33887 36.0 2
  465.52905 41.0 2
  476.2215 47.0 3
  485.07343 22.0 1
  487.17264 49.0 3
  489.32678 43.0 2
  501.3606 30.0 2
  532.59662 22.0 1
  537.17731 23.0 1
  543.35742 36.0 2
  544.33472 19.0 1
  544.36804 16.0 1
  545.39667 39.0 2
  545.95911 23.0 1
  551.073 16.0 1
  561.38544 71.0 4
  561.86639 36.0 2
  577.65668 53.0 3
  578.02356 21.0 1
  578.3186 137.0 8
  578.37476 18.0 1
  578.7356 16.0 1
  579.26587 37.0 2
  579.39178 2473.0 139
  580.34174 16.0 1
  580.39258 1101.0 62
  580.45795 24.0 1
  581.37878 55.0 3
  581.40442 69.0 4
  582.38458 42.0 2
  593.9726 17.0 1
  594.38397 30.0 2
  597.32849 54.0 3
  598.34967 47.0 3
  599.33044 20.0 1
  609.85352 27.0 2
  621.38794 17.0 1
  621.45398 24.0 1
  622.28076 17.0 1
  622.4234 22.0 1
  634.8194 33.0 2
  642.96747 27.0 2
  643.75861 24.0 1
  649.23553 27.0 2
  651.3634 20.0 1
  662.39868 29.0 2
  672.52783 20.0 1
  675.48126 19.0 1
  682.30072 18.0 1
  682.37079 20.0 1
  703.95416 18.0 1
  705.36328 18.0 1
  736.67737 23.0 1
  740.69397 18.0 1
  741.32593 20.0 1
  741.37366 16.0 1
  741.40961 83.0 5
  741.44513 335.0 19
  741.46796 105.0 6
  742.4527 359.0 20
  743.44202 24.0 1
  743.46448 17.0 1
  759.32782 22.0 1
  759.38428 27.0 2
  759.72388 18.0 1
  760.39124 20.0 1
  763.38757 32.0 2
  781.31824 35.0 2
  783.46539 20.0 1
  811.55432 18.0 1
  845.08978 17.0 1
  846.75928 20.0 1
  868.37256 22.0 1
  870.41669 28.0 2
  872.07184 25.0 1
  875.58032 19.0 1
  879.16882 22.0 1
  885.521 16.0 1
  886.46533 24.0 1
  886.76971 17.0 1
  887.5047 58.0 3
  900.47864 17.0 1
  902.48615 18.0 1
  903.43237 95.0 5
  903.47015 312.0 18
  903.51263 569.0 32
  904.39301 18.0 1
  904.47687 180.0 10
  904.50031 238.0 13
  904.53687 153.0 9
  905.49817 101.0 6
  906.52502 17.0 1
  907.09821 31.0 2
  907.31793 40.0 2
  907.96979 25.0 1
  917.63605 28.0 2
  1010.23804 16.0 1
  1024.04834 28.0 2
  1029.50696 20.0 1
  1030.50647 18.0 1
  1030.54138 20.0 1
  1045.52234 27.0 2
  1045.57397 16.0 1
  1047.53992 22.0 1
  1063.40369 20.0 1
  1063.53235 93.0 5
  1063.65698 17.0 1
  1063.73608 17.0 1
  1064.47034 21.0 1
  1064.51831 25.0 1
  1064.56519 20.0 1
  1064.90491 16.0 1
  1065.3667 28.0 2
  1065.41455 104.0 6
  1065.45837 82.0 5
  1065.54822 17761.0 999
  1065.6261 119.0 7
  1065.71509 18.0 1
//
