ACCESSION: MSBNK-RIKEN-PR310994
RECORD_TITLE: Luteolin 6-C-glucoside 8-C-arabinoside; LC-ESI-QTOF; MS2
DATE: 2019.03.28
AUTHORS: Tetsuya Mori, Center for Sustainable Resource Science, RIKEN
LICENSE: CC BY-NC-SA
PUBLICATION: Tsugawa H., Nakabayashi R., Mori T., Yamada Y., Takahashi M., Rai A., Sugiyama R., Yamamoto H., Nakaya T., Yamazaki M., Kooke R., Bac-Molenaar JA., Oztolan-Erol N., Keurentjes JJB., Arita M., Saito K. (2019) "A cheminformatics approach to characterize metabolomes in stable-isotope-labeled organisms" Nature Methods 16(4):295-298. [doi:10.1038/s41592-019-0358-2]
COMMENT: Annotation level-1
CH$NAME: Luteolin 6-C-glucoside 8-C-arabinoside
CH$COMPOUND_CLASS: Flavone C,C-glycosides
CH$FORMULA: C27H30O16
CH$EXACT_MASS: 610.521
CH$SMILES: O=C1C=C(OC=2C1=C(O)C(=C(O)C=2C3OC(CO)C(O)C(O)C3(O))C4OC(CO)C(O)C(O)C4(O))C5=CC=C(O)C(O)=C5
CH$IUPAC: InChI=1S/C27H30O16/c28-5-12-17(33)21(37)23(39)26(42-12)15-19(35)14-10(32)4-11(7-1-2-8(30)9(31)3-7)41-25(14)16(20(15)36)27-24(40)22(38)18(34)13(6-29)43-27/h1-4,12-13,17-18,21-24,26-31,33-40H,5-6H2
CH$LINK: INCHIKEY ZLPSOQFIIQIIAX-UHFFFAOYSA-N
AC$INSTRUMENT: LC, Waters Acquity UPLC System; MS, Waters Xevo G2 Q-Tof
AC$INSTRUMENT_TYPE: LC-ESI-QTOF
AC$MASS_SPECTROMETRY: MS_TYPE MS2
AC$MASS_SPECTROMETRY: ION_MODE POSITIVE
AC$MASS_SPECTROMETRY: COLLISION_ENERGY 6V
AC$MASS_SPECTROMETRY: DESOLVATION_GAS_FLOW 800/h
AC$MASS_SPECTROMETRY: DESOLVATION_TEMPERATURE 450 C
AC$MASS_SPECTROMETRY: IONIZATION ESI
AC$CHROMATOGRAPHY: CAPILLARY_VOLTAGE +3.00 kV
AC$CHROMATOGRAPHY: COLUMN_NAME Acquity bridged ethyl hybrid C18 (1.7 um, 2.1 mm * 100 mm, Waters)
AC$CHROMATOGRAPHY: COLUMN_TEMPERATURE 40 C
AC$CHROMATOGRAPHY: FLOW_GRADIENT A/B = (99.5%/0.5% at 0 min, 99.5%/0.5% at 0.1 min, 20%/80% at 10 min, 0.5%/99.5% at 10.1 min, 0.5%/99.5% at 12.0 min, 99.5%/0.5% at 12.1 min, 99.5%/0.5% at 15.0 min)
AC$CHROMATOGRAPHY: FLOW_RATE 0.3 ml/min at 0 min, 0.3 ml/min at 10 min, 0.4 ml/min at 10.1 min, 0.4 ml/min at 14.4 min, 0.3 ml/min at 14.5 min
AC$CHROMATOGRAPHY: RETENTION_TIME 3.1
AC$CHROMATOGRAPHY: SOLVENT A water including 0.1% formic acid
AC$CHROMATOGRAPHY: SOLVENT B acetonitrile including 0.1% formic acid
MS$FOCUSED_ION: PRECURSOR_TYPE [M+H]+
MS$FOCUSED_ION: PRECURSOR_M/Z 611.16066
PK$SPLASH: splash10-03di-0007956000-a6ce18e9614b68430bc5
PK$NUM_PEAK: 327
PK$PEAK: m/z int. rel.int.
  58.52699 18.0 4
  109.02348 20.0 4
  137.02487 27.0 6
  188.39813 21.0 5
  218.85333 39.0 9
  219.03302 18.0 4
  249.74606 17.0 4
  257.03229 19.0 4
  257.05057 20.0 4
  267.07199 28.0 6
  278.92831 17.0 4
  280.35507 17.0 4
  283.03864 29.0 6
  283.06311 53.0 12
  284.53091 21.0 5
  293.29077 21.0 5
  294.04803 22.0 5
  296.06406 20.0 4
  302.0737 39.0 9
  309.03345 37.0 8
  309.90674 18.0 4
  310.03897 17.0 4
  310.04984 29.0 6
  311.01651 17.0 4
  311.03787 57.0 13
  311.05719 64.0 14
  311.07089 25.0 6
  312.06015 27.0 6
  312.08069 27.0 6
  313.05508 25.0 6
  314.0658 32.0 7
  323.01422 34.0 8
  323.0235 60.0 13
  323.04681 121.0 27
  323.05682 409.0 91
  324.05188 69.0 15
  324.06534 50.0 11
  325.05963 119.0 26
  329.07877 57.0 13
  329.54318 18.0 4
  330.06839 41.0 9
  334.09344 28.0 6
  335.05325 39.0 9
  337.01465 23.0 5
  337.073 129.0 29
  338.03757 25.0 6
  339.04257 24.0 5
  340.06631 26.0 6
  341.06412 942.0 209
  342.06485 171.0 38
  342.09399 17.0 4
  343.07327 74.0 16
  343.08514 28.0 6
  344.06888 19.0 4
  347.04623 31.0 7
  348.056 20.0 4
  349.06613 26.0 6
  349.08698 29.0 6
  351.06821 47.0 10
  351.08914 62.0 14
  352.05881 45.0 10
  352.09918 39.0 9
  353.02689 39.0 9
  353.0531 105.0 23
  353.06866 537.0 119
  354.0607 111.0 25
  355.06363 19.0 4
  355.0867 21.0 5
  359.09863 30.0 7
  360.07108 29.0 6
  363.08594 157.0 35
  364.03827 22.0 5
  364.07812 26.0 6
  364.40002 18.0 4
  365.05493 171.0 38
  365.07019 339.0 75
  366.06128 106.0 24
  366.10977 17.0 4
  366.6066 23.0 5
  367.05786 49.0 11
  367.08566 125.0 28
  367.11633 31.0 7
  368.09943 24.0 5
  368.12677 34.0 8
  369.05594 66.0 15
  370.08951 23.0 5
  370.58289 17.0 4
  371.03662 22.0 5
  371.0556 19.0 4
  371.07321 161.0 36
  371.08981 109.0 24
  371.52191 18.0 4
  372.08365 45.0 10
  372.0947 51.0 11
  376.03967 18.0 4
  377.04941 64.0 14
  377.08124 84.0 19
  377.10764 40.0 9
  378.07062 47.0 10
  379.06165 50.0 11
  379.0769 69.0 15
  379.09637 57.0 13
  381.06674 17.0 4
  381.09778 169.0 38
  381.11459 25.0 6
  382.10635 17.0 4
  384.0831 29.0 6
  387.07431 29.0 6
  389.05298 17.0 4
  389.06198 47.0 10
  389.08276 20.0 4
  389.75766 33.0 7
  391.0332 19.0 4
  391.05701 50.0 11
  391.07181 78.0 17
  391.0871 64.0 14
  392.0899 26.0 6
  393.0506 20.0 4
  393.06497 53.0 12
  394.03528 24.0 5
  394.05997 24.0 5
  394.32602 21.0 5
  395.05814 173.0 38
  395.07538 744.0 165
  396.02219 26.0 6
  396.06396 85.0 19
  396.07779 52.0 12
  397.08588 20.0 4
  397.61563 19.0 4
  401.06097 20.0 4
  404.07645 47.0 10
  404.94064 24.0 5
  405.0921 18.0 4
  407.05887 94.0 21
  407.07233 395.0 88
  408.02036 20.0 4
  408.0817 127.0 28
  408.80582 20.0 4
  410.08734 49.0 11
  410.10406 23.0 5
  413.07776 54.0 12
  417.04373 35.0 8
  417.10803 24.0 5
  419.07285 394.0 88
  419.09296 164.0 36
  419.64401 19.0 4
  420.07584 35.0 8
  420.08899 47.0 10
  421.08173 27.0 6
  422.0932 20.0 4
  425.04443 18.0 4
  425.07733 346.0 77
  425.103 229.0 51
  425.98956 33.0 7
  426.07431 72.0 16
  426.10046 83.0 18
  431.06763 28.0 6
  431.08493 67.0 15
  431.11298 18.0 4
  432.08408 66.0 15
  433.10538 20.0 4
  435.06631 48.0 11
  437.07983 370.0 82
  437.10284 174.0 39
  438.07153 83.0 18
  438.09485 112.0 25
  439.09583 17.0 4
  440.104 20.0 4
  443.03238 19.0 4
  443.05746 47.0 10
  443.08209 324.0 72
  443.10577 416.0 92
  443.11957 120.0 27
  444.08139 60.0 13
  444.10986 75.0 17
  444.99054 26.0 6
  445.05658 24.0 5
  445.08777 38.0 8
  446.09888 28.0 6
  446.11292 19.0 4
  447.13339 21.0 5
  448.10416 18.0 4
  449.07874 131.0 29
  452.07748 46.0 10
  453.08859 31.0 7
  455.0477 27.0 6
  455.08725 229.0 51
  455.10385 264.0 59
  456.06866 34.0 8
  456.0957 24.0 5
  456.11124 46.0 10
  456.12912 30.0 7
  461.09149 90.0 20
  461.11877 50.0 11
  462.06061 18.0 4
  462.07849 86.0 19
  462.09433 37.0 8
  462.13394 21.0 5
  463.09476 40.0 9
  463.25931 26.0 6
  465.11957 20.0 4
  467.07599 23.0 5
  467.09735 39.0 9
  471.06927 22.0 5
  471.11203 75.0 17
  472.07385 17.0 4
  472.10242 29.0 6
  472.11554 29.0 6
  473.05569 26.0 6
  473.07343 50.0 11
  473.10825 1066.0 237
  473.23077 38.0 8
  474.08679 75.0 17
  474.11325 280.0 62
  474.13116 139.0 31
  475.09753 23.0 5
  476.11691 20.0 4
  477.10257 20.0 4
  479.09067 66.0 15
  479.12314 37.0 8
  480.09219 17.0 4
  485.09991 52.0 12
  487.0896 21.0 5
  489.11237 34.0 8
  490.12881 23.0 5
  491.05368 27.0 6
  491.09134 65.0 14
  491.11746 515.0 114
  491.14893 25.0 6
  492.10294 45.0 10
  492.12579 45.0 10
  492.14285 27.0 6
  493.04636 22.0 5
  496.98773 18.0 4
  497.06122 46.0 10
  497.09592 272.0 60
  497.13016 75.0 17
  498.10233 21.0 5
  498.12482 113.0 25
  502.0701 22.0 5
  503.07141 82.0 18
  503.0932 26.0 6
  503.12909 26.0 6
  504.08466 38.0 8
  509.10571 56.0 12
  510.10696 28.0 6
  510.64798 24.0 5
  515.09204 24.0 5
  515.1228 244.0 54
  516.11322 88.0 20
  516.13354 88.0 20
  517.13007 41.0 9
  521.11597 43.0 10
  522.09052 17.0 4
  522.10443 43.0 10
  522.12579 20.0 4
  523.10205 32.0 7
  527.11389 199.0 44
  527.13562 76.0 17
  528.11176 104.0 23
  528.12561 40.0 9
  528.14392 24.0 5
  528.75549 17.0 4
  529.15057 19.0 4
  533.29614 28.0 6
  534.62024 17.0 4
  537.08789 22.0 5
  539.04907 22.0 5
  539.08813 50.0 11
  539.11359 152.0 34
  539.1449 65.0 14
  540.03705 25.0 6
  540.10645 67.0 15
  540.12976 74.0 16
  541.1073 21.0 5
  542.13593 17.0 4
  544.14111 46.0 10
  545.10974 52.0 12
  545.13281 190.0 42
  545.15479 75.0 17
  546.12646 49.0 11
  548.11615 26.0 6
  556.09833 22.0 5
  556.48035 22.0 5
  557.12244 521.0 116
  557.15936 33.0 7
  557.41589 60.0 13
  558.1178 27.0 6
  558.13947 145.0 32
  559.15521 55.0 12
  563.38361 25.0 6
  568.5882 17.0 4
  573.11029 25.0 6
  575.07758 29.0 6
  575.10596 58.0 13
  575.14569 415.0 92
  576.09625 42.0 9
  576.11694 22.0 5
  576.14478 67.0 15
  577.11444 17.0 4
  577.17133 24.0 5
  585.98474 20.0 4
  591.08051 51.0 11
  593.07745 29.0 6
  593.14478 1129.0 251
  593.98608 24.0 5
  594.11884 78.0 17
  594.15857 154.0 34
  595.14844 58.0 13
  595.17859 109.0 24
  596.15894 18.0 4
  597.16388 31.0 7
  602.56702 17.0 4
  602.96649 20.0 4
  608.37482 20.0 4
  609.13751 89.0 20
  609.17053 31.0 7
  609.26001 28.0 6
  610.13672 73.0 16
  610.1709 20.0 4
  610.90601 24.0 5
  611.02887 51.0 11
  611.06934 95.0 21
  611.09863 84.0 19
  611.16113 4498.0 999
  611.17749 1389.0 308
  611.22101 61.0 14
//
