ACCESSION: MSBNK-RIKEN-PR304330
RECORD_TITLE: Soyasaponin Bb; LC-ESI-QTOF; MS2
DATE: 2019.03.28
AUTHORS: Tetsuya Mori, Center for Sustainable Resource Science, RIKEN
LICENSE: CC BY-NC-SA
PUBLICATION: Tsugawa H., Nakabayashi R., Mori T., Yamada Y., Takahashi M., Rai A., Sugiyama R., Yamamoto H., Nakaya T., Yamazaki M., Kooke R., Bac-Molenaar JA., Oztolan-Erol N., Keurentjes JJB., Arita M., Saito K. (2019) "A cheminformatics approach to characterize metabolomes in stable-isotope-labeled organisms" Nature Methods 16(4):295-298. [doi:10.1038/s41592-019-0358-2]
COMMENT: registered in RIKEN PlaSMA
CH$NAME: Soyasaponin Bb
CH$COMPOUND_CLASS: Triterpene saponins
CH$FORMULA: C48H78O18
CH$EXACT_MASS: 943.134
CH$SMILES: C[C@@H]1O[C@@H](O[C@@H]2[C@@H](O)[C@@H](O)[C@@H](CO)O[C@H]2O[C@@H]2[C@@H](O)[C@H](O)[C@H](O[C@H]2O[C@H]2CC[C@@]3(C)[C@@H](CC[C@]4(C)[C@@H]3CC=C3[C@@H]5CC(C)(C)C[C@@H](O)[C@]5(C)CC[C@@]43C)[C@@]2(C)CO)C(O)=O)[C@H](O)[C@H](O)[C@H]1O
CH$IUPAC: InChI=1S/C48H78O18/c1-21-29(52)31(54)35(58)40(61-21)65-37-32(55)30(53)24(19-49)62-41(37)66-38-34(57)33(56)36(39(59)60)64-42(38)63-28-12-13-45(5)25(46(28,6)20-50)11-14-48(8)26(45)10-9-22-23-17-43(2,3)18-27(51)44(23,4)15-16-47(22,48)7/h9,21,23-38,40-42,49-58H,10-20H2,1-8H3,(H,59,60)/t21-,23-,24+,25+,26+,27+,28-,29-,30-,31+,32-,33-,34-,35+,36-,37+,38+,40-,41-,42+,44+,45-,46+,47+,48+/m0/s1
CH$LINK: INCHIKEY PTDAHAWQAGSZDD-IOVCITQVSA-N
AC$INSTRUMENT: LC, Waters Acquity UPLC System; MS, Waters Xevo G2 Q-Tof
AC$INSTRUMENT_TYPE: LC-ESI-QTOF
AC$MASS_SPECTROMETRY: MS_TYPE MS2
AC$MASS_SPECTROMETRY: ION_MODE POSITIVE
AC$MASS_SPECTROMETRY: COLLISION_ENERGY 6V
AC$MASS_SPECTROMETRY: DESOLVATION_GAS_FLOW 800/h
AC$MASS_SPECTROMETRY: DESOLVATION_TEMPERATURE 450 C
AC$MASS_SPECTROMETRY: IONIZATION ESI
AC$CHROMATOGRAPHY: CAPILLARY_VOLTAGE +3.00 kV
AC$CHROMATOGRAPHY: COLUMN_NAME Acquity bridged ethyl hybrid C18 (1.7 um, 2.1 mm * 100 mm, Waters)
AC$CHROMATOGRAPHY: COLUMN_TEMPERATURE 40 C
AC$CHROMATOGRAPHY: FLOW_GRADIENT A/B = (99.5%/0.5% at 0 min, 99.5%/0.5% at 0.1 min, 20%/80% at 10 min, 0.5%/99.5% at 10.1 min, 0.5%/99.5% at 12.0 min, 99.5%/0.5% at 12.1 min, 99.5%/0.5% at 15.0 min)
AC$CHROMATOGRAPHY: FLOW_RATE 0.3 ml/min at 0 min, 0.3 ml/min at 10 min, 0.4 ml/min at 10.1 min, 0.4 ml/min at 14.4 min, 0.3 ml/min at 14.5 min
AC$CHROMATOGRAPHY: RETENTION_TIME 7.092883
AC$CHROMATOGRAPHY: SOLVENT A water including 0.1% formic acid
AC$CHROMATOGRAPHY: SOLVENT B acetonitrile including 0.1% formic acid
MS$FOCUSED_ION: PRECURSOR_TYPE [M+H]+
MS$FOCUSED_ION: PRECURSOR_M/Z 943.5260921
PK$SPLASH: splash10-0fg6-1981200000-73d32a29e74a59c971fa
PK$NUM_PEAK: 545
PK$PEAK: m/z int. rel.int.
  57.07061 12.0 12
  69.03408 25.0 25
  69.07224 16.0 16
  71.04287 21.0 21
  71.04993 47.0 47
  71.68594 11.0 11
  73.03088 36.0 36
  75.04491 23.0 23
  75.04909 14.0 14
  79.03989 11.0 11
  81.0679 38.0 38
  81.07233 29.0 29
  81.85347 13.0 13
  83.02721 11.0 11
  83.04853 49.0 49
  83.05376 24.0 24
  84.05353 12.0 12
  84.99728 12.0 12
  85.02834 562.0 561
  85.05177 13.0 13
  86.02837 12.0 12
  87.78523 12.0 12
  88.04843 14.0 14
  91.03268 24.0 24
  91.03865 128.0 128
  91.05296 13.0 13
  92.04214 11.0 11
  93.06601 12.0 12
  95.01446 11.0 11
  95.08616 190.0 190
  96.0859 16.0 16
  97.02715 34.0 34
  97.1003 11.0 11
  99.08237 21.0 21
  101.05793 16.0 16
  102.98373 14.0 14
  105.06934 12.0 12
  107.0845 106.0 106
  107.09035 36.0 36
  108.09249 22.0 22
  109.0624 12.0 12
  109.10136 301.0 301
  109.11376 15.0 15
  110.09995 38.0 38
  110.10713 11.0 11
  111.0407 48.0 48
  111.04599 37.0 37
  111.07643 22.0 22
  111.08103 63.0 63
  111.08819 16.0 16
  111.11337 24.0 24
  112.04736 19.0 19
  112.08928 13.0 13
  112.12257 12.0 12
  113.02793 11.0 11
  113.05173 11.0 11
  113.09819 23.0 23
  113.8909 11.0 11
  115.03577 12.0 12
  117.05521 11.0 11
  118.59653 12.0 12
  119.07381 24.0 24
  119.08064 63.0 63
  119.08763 30.0 30
  120.09456 14.0 14
  121.10181 259.0 259
  122.10267 11.0 11
  122.10939 17.0 17
  123.10848 40.0 40
  123.11376 101.0 101
  123.12081 89.0 89
  124.11421 11.0 11
  125.10411 15.0 15
  127.03727 92.0 92
  127.11925 14.0 14
  128.05074 11.0 11
  129.03691 12.0 12
  129.05521 356.0 356
  130.05693 11.0 11
  131.03906 11.0 11
  131.0788 11.0 11
  131.09468 11.0 11
  132.09178 12.0 12
  133.04732 12.0 12
  133.10165 169.0 169
  134.09953 11.0 11
  134.11305 17.0 17
  135.03337 14.0 14
  135.0444 24.0 24
  135.09671 11.0 11
  135.1125 100.0 100
  135.11887 131.0 131
  136.12151 31.0 31
  136.12895 25.0 25
  137.09975 13.0 13
  137.13208 65.0 65
  139.10675 32.0 32
  139.1144 48.0 48
  139.15358 11.0 11
  140.11777 22.0 22
  141.01921 873.0 872
  142.01602 39.0 39
  142.02417 60.0 60
  143.02536 12.0 12
  143.06944 14.0 14
  143.73846 14.0 14
  145.03206 12.0 12
  145.04659 70.0 70
  145.09358 14.0 14
  145.09979 28.0 28
  146.05898 15.0 15
  146.10829 12.0 12
  146.96245 14.0 14
  146.9735 17.0 17
  147.01991 12.0 12
  147.05049 13.0 13
  147.06516 121.0 121
  147.07965 11.0 11
  147.0921 13.0 13
  147.11276 89.0 89
  147.11896 187.0 187
  148.07164 11.0 11
  148.10704 13.0 13
  148.13358 12.0 12
  149.13191 250.0 250
  149.14131 80.0 80
  150.13615 13.0 13
  151.10718 17.0 17
  151.15268 38.0 38
  153.05428 12.0 12
  153.13425 34.0 34
  157.10242 11.0 11
  158.10945 12.0 12
  159.02386 78.0 78
  159.03062 227.0 227
  159.05824 11.0 11
  159.10393 12.0 12
  159.11505 154.0 154
  159.12482 22.0 22
  160.03476 11.0 11
  160.11768 11.0 11
  161.10803 11.0 11
  161.1189 32.0 32
  161.13246 332.0 332
  162.13223 40.0 40
  162.13858 19.0 19
  162.98978 13.0 13
  163.04196 11.0 11
  163.05775 265.0 265
  163.1066 11.0 11
  163.11449 42.0 42
  163.12144 22.0 22
  163.13635 25.0 25
  163.14607 172.0 172
  163.15387 94.0 94
  164.06435 16.0 16
  164.10921 12.0 12
  164.15048 39.0 39
  164.37901 16.0 16
  164.96724 11.0 11
  165.07497 12.0 12
  165.12614 48.0 48
  165.16061 12.0 12
  166.07697 19.0 19
  166.12988 17.0 17
  169.04312 11.0 11
  169.0538 11.0 11
  170.10062 17.0 17
  171.06432 10.0 10
  171.06902 24.0 24
  171.11104 32.0 32
  173.1243 17.0 17
  173.13399 52.0 52
  173.29114 11.0 11
  174.1302 12.0 12
  175.08202 12.0 12
  175.14648 201.0 201
  176.14246 15.0 15
  176.15189 34.0 34
  176.33228 21.0 21
  177.03836 96.0 96
  177.11862 22.0 22
  177.13007 11.0 11
  177.14622 10.0 10
  177.16154 380.0 380
  177.16777 121.0 121
  178.16138 37.0 37
  178.16911 32.0 32
  179.04016 11.0 11
  179.13963 11.0 11
  179.18069 21.0 21
  180.17554 11.0 11
  180.18599 12.0 12
  181.1597 28.0 28
  182.08699 11.0 11
  185.12656 12.0 12
  185.13608 12.0 12
  185.14351 11.0 11
  187.05573 13.0 13
  187.123 16.0 16
  187.14005 53.0 53
  187.15254 104.0 104
  188.1451 11.0 11
  189.0099 35.0 35
  189.11047 14.0 14
  189.16307 411.0 411
  190.15517 29.0 29
  190.78978 16.0 16
  191.14224 48.0 48
  191.15596 27.0 27
  191.1702 78.0 78
  191.1803 139.0 139
  191.21861 22.0 22
  192.19748 11.0 11
  193.04727 11.0 11
  193.16158 73.0 73
  193.18185 11.0 11
  193.19666 12.0 12
  194.15646 12.0 12
  194.16624 16.0 16
  195.13876 25.0 25
  195.15955 14.0 14
  195.17731 88.0 88
  196.17619 11.0 11
  197.71249 11.0 11
  199.14236 57.0 57
  199.15503 31.0 31
  200.15144 11.0 11
  201.08194 12.0 12
  201.12515 11.0 11
  201.1333 11.0 11
  201.1633 232.0 232
  201.16959 96.0 96
  202.1629 11.0 11
  202.17567 29.0 29
  203.17918 1000.0 999
  203.24739 11.0 11
  204.09274 11.0 11
  204.18452 142.0 142
  205.15529 77.0 77
  205.16827 14.0 14
  205.18825 37.0 37
  205.19887 87.0 87
  206.16331 45.0 45
  206.19772 12.0 12
  207.17023 89.0 89
  207.17776 57.0 57
  207.20171 17.0 17
  208.17706 47.0 47
  209.06387 13.0 13
  209.18314 11.0 11
  210.15146 11.0 11
  211.06583 16.0 16
  211.14191 12.0 12
  211.16428 11.0 11
  213.0267 12.0 12
  213.0813 13.0 13
  213.15245 27.0 27
  213.16904 58.0 58
  214.06958 11.0 11
  214.17412 12.0 12
  215.17833 288.0 288
  215.18639 125.0 125
  216.17784 63.0 63
  216.18802 43.0 43
  217.0717 11.0 11
  217.16154 84.0 84
  217.18019 49.0 49
  217.1964 536.0 535
  218.17419 19.0 19
  218.1853 30.0 30
  218.20081 57.0 57
  218.21223 16.0 16
  219.1398 13.0 13
  219.15712 11.0 11
  219.1734 305.0 305
  220.16794 11.0 11
  220.17966 32.0 32
  220.18898 26.0 26
  220.2149 15.0 15
  221.18872 285.0 285
  222.19518 28.0 28
  222.20523 42.0 42
  223.22169 15.0 15
  225.16623 24.0 24
  227.16664 13.0 13
  227.18523 21.0 21
  228.17863 11.0 11
  228.19034 20.0 20
  228.19955 14.0 14
  229.1544 11.0 11
  229.17191 12.0 12
  229.19115 252.0 252
  229.20372 59.0 59
  230.18961 12.0 12
  230.20949 15.0 15
  231.16508 12.0 12
  231.17822 16.0 16
  231.19725 11.0 11
  231.21407 77.0 77
  231.22763 14.0 14
  232.1581 17.0 17
  232.1931 12.0 12
  232.20935 14.0 14
  233.17441 16.0 16
  233.18933 144.0 144
  233.20631 18.0 18
  234.15047 16.0 16
  234.19304 22.0 22
  235.20355 34.0 34
  235.21831 11.0 11
  237.1925 13.0 13
  240.43359 16.0 16
  241.06651 22.0 22
  241.19168 108.0 108
  241.211 22.0 22
  242.19737 22.0 22
  243.04956 19.0 19
  243.19768 35.0 35
  243.21356 161.0 161
  243.33316 13.0 13
  244.20717 11.0 11
  245.06248 34.0 34
  245.16829 12.0 12
  245.18474 30.0 30
  245.20323 21.0 21
  245.21481 50.0 50
  245.23625 30.0 30
  246.18958 23.0 23
  246.24519 11.0 11
  247.19614 68.0 68
  247.20836 221.0 221
  247.22339 45.0 45
  247.90411 15.0 15
  248.21083 47.0 47
  251.05139 11.0 11
  253.18326 16.0 16
  253.1935 11.0 11
  253.20889 11.0 11
  255.08214 23.0 23
  255.10175 12.0 12
  255.20921 86.0 86
  255.22195 44.0 44
  256.2012 22.0 22
  256.21451 21.0 21
  257.20551 11.0 11
  257.21649 27.0 27
  257.22784 81.0 81
  257.24234 47.0 47
  258.22934 13.0 13
  259.08035 22.0 22
  259.19574 60.0 60
  259.21924 40.0 40
  259.23993 21.0 21
  260.20352 14.0 14
  261.20508 21.0 21
  261.21671 81.0 81
  261.22913 41.0 41
  262.22473 11.0 11
  266.61615 14.0 14
  267.19455 11.0 11
  267.2037 35.0 35
  267.22296 12.0 12
  267.25809 11.0 11
  268.1619 12.0 12
  269.0751 29.0 29
  269.20862 11.0 11
  269.22705 164.0 164
  269.96588 12.0 12
  270.08258 17.0 17
  270.21704 13.0 13
  270.22672 16.0 16
  270.23697 12.0 12
  271.17285 12.0 12
  271.2074 37.0 37
  271.21967 10.0 10
  271.23911 30.0 30
  271.25107 51.0 51
  272.23276 14.0 14
  273.10828 17.0 17
  273.19199 11.0 11
  273.21631 70.0 70
  273.23209 40.0 40
  274.22076 48.0 48
  274.25668 15.0 15
  275.2251 12.0 12
  275.24222 58.0 58
  275.25568 12.0 12
  276.23666 11.0 11
  277.24103 13.0 13
  281.15591 11.0 11
  281.19894 13.0 13
  281.22687 42.0 42
  281.24356 17.0 17
  282.22855 19.0 19
  283.23746 50.0 50
  283.24796 39.0 39
  283.26263 27.0 27
  284.2406 11.0 11
  284.25342 12.0 12
  284.28714 11.0 11
  285.05811 11.0 11
  285.06918 11.0 11
  285.12967 11.0 11
  285.22662 40.0 40
  285.2518 24.0 24
  285.28275 11.0 11
  287.06772 25.0 25
  287.22491 37.0 37
  287.24039 48.0 48
  288.22443 11.0 11
  288.24841 23.0 23
  289.26672 13.0 13
  290.2561 14.0 14
  293.20523 12.0 12
  295.23212 23.0 23
  295.25302 45.0 45
  296.242 11.0 11
  296.25174 13.0 13
  297.24969 50.0 50
  297.27145 11.0 11
  299.2254 12.0 12
  299.25092 19.0 19
  301.25809 35.0 35
  302.24829 11.0 11
  305.2084 11.0 11
  309.14377 11.0 11
  309.25467 39.0 39
  310.25079 14.0 14
  310.26019 12.0 12
  311.27298 58.0 58
  312.26279 11.0 11
  313.2485 60.0 60
  313.26157 67.0 67
  313.28412 15.0 15
  315.2515 40.0 40
  315.26996 27.0 27
  315.3222 11.0 11
  316.27496 11.0 11
  323.10703 11.0 11
  324.27728 19.0 19
  327.2074 11.0 11
  327.27667 11.0 11
  329.26807 11.0 11
  329.29181 28.0 28
  330.30209 11.0 11
  331.194 11.0 11
  333.17813 12.0 12
  335.27307 11.0 11
  337.29211 12.0 12
  338.11963 14.0 14
  339.09158 16.0 16
  345.01385 11.0 11
  345.44351 11.0 11
  349.28821 11.0 11
  350.29358 14.0 14
  351.19128 12.0 12
  351.30219 40.0 40
  351.31735 23.0 23
  352.30011 12.0 12
  353.25345 12.0 12
  353.28745 23.0 23
  355.54962 11.0 11
  358.18604 11.0 11
  359.29166 16.0 16
  361.19 31.0 31
  361.6445 14.0 14
  363.18546 16.0 16
  363.29977 17.0 17
  365.19907 12.0 12
  365.2652 11.0 11
  365.30038 22.0 22
  365.31845 46.0 46
  365.33157 55.0 55
  366.327 39.0 39
  367.29639 36.0 36
  367.31818 14.0 14
  368.29489 12.0 12
  369.30655 71.0 71
  370.28171 13.0 13
  370.31747 30.0 30
  370.32626 11.0 11
  377.30701 11.0 11
  379.21313 12.0 12
  382.10394 11.0 11
  383.32855 71.0 71
  383.34924 12.0 12
  384.32361 30.0 30
  384.3454 19.0 19
  387.35394 12.0 12
  388.07928 12.0 12
  390.31555 11.0 11
  393.34576 11.0 11
  403.3638 11.0 11
  405.14035 13.0 13
  405.34503 190.0 190
  405.36508 170.0 170
  406.34552 31.0 31
  406.3671 69.0 69
  407.33984 12.0 12
  408.34445 16.0 16
  411.31409 13.0 13
  411.35333 81.0 81
  411.37521 13.0 13
  412.37173 12.0 12
  415.87573 12.0 12
  423.35211 543.0 542
  423.36801 660.0 659
  424.35971 307.0 307
  424.38129 114.0 114
  425.36865 106.0 106
  426.2319 16.0 16
  426.94876 12.0 12
  431.92685 13.0 13
  441.32504 11.0 11
  441.37692 370.0 370
  442.33823 26.0 26
  442.37589 70.0 70
  443.38196 24.0 24
  445.25348 11.0 11
  451.25607 14.0 14
  471.27258 11.0 11
  482.3494 13.0 13
  483.36124 14.0 14
  494.36432 11.0 11
  498.19373 17.0 17
  503.25809 16.0 16
  516.34729 17.0 17
  537.41272 12.0 12
  541.34058 12.0 12
  563.37262 35.0 35
  580.38306 12.0 12
  581.35956 11.0 11
  581.38989 55.0 55
  582.38647 12.0 12
  583.37952 14.0 14
  583.78973 12.0 12
  584.38342 12.0 12
  594.98694 12.0 12
  599.36743 14.0 14
  599.39349 57.0 57
  602.41791 12.0 12
  603.4527 18.0 18
  814.14117 12.0 12
  939.71021 16.0 16
//
