ACCESSION: MSBNK-RIKEN-PR303659
RECORD_TITLE: Resibufogenin; LC-ESI-QTOF; MS2
DATE: 2019.03.28
AUTHORS: Tetsuya Mori, Center for Sustainable Resource Science, RIKEN
LICENSE: CC BY-NC-SA
PUBLICATION: Tsugawa H., Nakabayashi R., Mori T., Yamada Y., Takahashi M., Rai A., Sugiyama R., Yamamoto H., Nakaya T., Yamazaki M., Kooke R., Bac-Molenaar JA., Oztolan-Erol N., Keurentjes JJB., Arita M., Saito K. (2019) "A cheminformatics approach to characterize metabolomes in stable-isotope-labeled organisms" Nature Methods 16(4):295-298. [doi:10.1038/s41592-019-0358-2]
COMMENT: registered in RIKEN PlaSMA
CH$NAME: Resibufogenin
CH$COMPOUND_CLASS: Bufanolides and derivatives
CH$FORMULA: C24H32O4
CH$EXACT_MASS: 384.516
CH$SMILES: C[C@]12CC[C@H]3[C@@H](CC[C@@H]4C[C@@H](O)CC[C@]34C)[C@]11O[C@@H]1C[C@@H]2C1=COC(=O)C=C1
CH$IUPAC: InChI=1S/C24H32O4/c1-22-9-7-16(25)11-15(22)4-5-18-17(22)8-10-23(2)19(12-20-24(18,23)28-20)14-3-6-21(26)27-13-14/h3,6,13,15-20,25H,4-5,7-12H2,1-2H3/t15-,16+,17+,18-,19-,20-,22+,23-,24-/m1/s1
CH$LINK: INCHIKEY ATLJNLYIJOCWJE-CWMZOUAVSA-N
AC$INSTRUMENT: LC, Waters Acquity UPLC System; MS, Waters Xevo G2 Q-Tof
AC$INSTRUMENT_TYPE: LC-ESI-QTOF
AC$MASS_SPECTROMETRY: MS_TYPE MS2
AC$MASS_SPECTROMETRY: ION_MODE POSITIVE
AC$MASS_SPECTROMETRY: COLLISION_ENERGY 6V
AC$MASS_SPECTROMETRY: DESOLVATION_GAS_FLOW 800/h
AC$MASS_SPECTROMETRY: DESOLVATION_TEMPERATURE 450 C
AC$MASS_SPECTROMETRY: IONIZATION ESI
AC$CHROMATOGRAPHY: CAPILLARY_VOLTAGE +3.00 kV
AC$CHROMATOGRAPHY: COLUMN_NAME Acquity bridged ethyl hybrid C18 (1.7 um, 2.1 mm * 100 mm, Waters)
AC$CHROMATOGRAPHY: COLUMN_TEMPERATURE 40 C
AC$CHROMATOGRAPHY: FLOW_GRADIENT A/B = (99.5%/0.5% at 0 min, 99.5%/0.5% at 0.1 min, 20%/80% at 10 min, 0.5%/99.5% at 10.1 min, 0.5%/99.5% at 12.0 min, 99.5%/0.5% at 12.1 min, 99.5%/0.5% at 15.0 min)
AC$CHROMATOGRAPHY: FLOW_RATE 0.3 ml/min at 0 min, 0.3 ml/min at 10 min, 0.4 ml/min at 10.1 min, 0.4 ml/min at 14.4 min, 0.3 ml/min at 14.5 min
AC$CHROMATOGRAPHY: RETENTION_TIME 7.5633
AC$CHROMATOGRAPHY: SOLVENT A water including 0.1% formic acid
AC$CHROMATOGRAPHY: SOLVENT B acetonitrile including 0.1% formic acid
MS$FOCUSED_ION: PRECURSOR_TYPE [M+H]+
MS$FOCUSED_ION: PRECURSOR_M/Z 385.237336
PK$SPLASH: splash10-05mo-2900000000-f2277c05c5677fe6e56e
PK$NUM_PEAK: 447
PK$PEAK: m/z int. rel.int.
  55.01674 5.0 5
  55.03468 8.0 8
  55.05052 12.0 12
  55.0564 7.0 7
  64.26163 7.0 7
  65.03732 10.0 10
  67.05325 253.0 253
  68.0545 25.0 25
  68.99758 18.0 18
  69.06866 30.0 30
  69.99829 8.0 8
  70.51273 6.0 6
  71.11454 7.0 7
  77.03699 107.0 107
  78.04961 6.0 6
  79.03341 7.0 7
  79.0396 6.0 6
  79.05386 236.0 236
  79.05788 98.0 98
  79.08154 8.0 8
  80.05754 23.0 23
  81.03602 14.0 14
  81.07082 217.0 217
  83.01414 36.0 36
  83.04443 14.0 14
  83.0535 11.0 11
  83.08521 6.0 6
  84.08791 5.0 5
  84.09216 8.0 8
  84.09705 12.0 12
  87.40301 6.0 6
  90.52528 6.0 6
  90.82275 8.0 8
  91.03876 7.0 7
  91.05486 851.0 850
  92.05786 126.0 126
  92.75089 7.0 7
  93.07039 410.0 410
  93.63152 6.0 6
  93.90657 5.0 5
  94.0703 16.0 16
  94.07457 14.0 14
  94.47003 5.0 5
  94.87811 5.0 5
  95.01105 6.0 6
  95.04552 59.0 59
  95.04987 142.0 142
  95.08483 174.0 174
  95.08968 67.0 67
  95.51494 5.0 5
  95.93489 5.0 5
  96.05289 15.0 15
  96.08682 12.0 12
  97.02914 19.0 19
  97.0531 6.0 6
  97.06997 6.0 6
  97.77152 5.0 5
  103.02474 9.0 9
  103.05462 82.0 82
  104.05861 6.0 6
  105.03837 12.0 12
  105.05314 13.0 13
  105.07008 1000.0 999
  105.42696 5.0 5
  105.73384 6.0 6
  106.06446 20.0 20
  106.07171 86.0 86
  106.08092 6.0 6
  106.50102 12.0 12
  107.0485 70.0 70
  107.08305 214.0 214
  107.08903 192.0 192
  108.05048 8.0 8
  108.09004 42.0 42
  109.0274 138.0 138
  109.06126 6.0 6
  109.06816 26.0 26
  109.10114 109.0 109
  110.03404 19.0 19
  110.06969 10.0 10
  111.0071 5.0 5
  111.04585 20.0 20
  113.00866 6.0 6
  113.01737 7.0 7
  113.03056 7.0 7
  115.00509 6.0 6
  115.05407 216.0 216
  116.03947 7.0 7
  116.0576 71.0 71
  116.06303 60.0 60
  117.06969 432.0 432
  117.15858 6.0 6
  118.06455 7.0 7
  118.07602 15.0 15
  118.40232 7.0 7
  119.04872 19.0 19
  119.07165 27.0 27
  119.08449 554.0 553
  120.04211 9.0 9
  120.06455 6.0 6
  120.08754 31.0 31
  120.09795 22.0 22
  120.18092 13.0 13
  121.02948 6.0 6
  121.06163 66.0 66
  121.06882 24.0 24
  121.10182 104.0 104
  121.11267 9.0 9
  122.03124 6.0 6
  122.06798 5.0 5
  122.10568 6.0 6
  122.64605 9.0 9
  123.02772 6.0 6
  123.03327 18.0 18
  123.04379 158.0 158
  123.08455 5.0 5
  124.04425 8.0 8
  124.0526 9.0 9
  124.05929 7.0 7
  124.32928 6.0 6
  125.02473 27.0 27
  125.05872 8.0 8
  125.89134 12.0 12
  127.03873 10.0 10
  127.04984 34.0 34
  127.05799 40.0 40
  127.147 9.0 9
  128.06276 339.0 339
  129.06914 425.0 425
  129.20645 6.0 6
  129.81621 7.0 7
  130.07678 207.0 207
  131.04703 8.0 8
  131.05476 8.0 8
  131.08485 681.0 680
  132.05605 28.0 28
  132.06268 7.0 7
  132.07634 8.0 8
  132.08774 66.0 66
  132.89119 5.0 5
  133.02792 6.0 6
  133.0663 73.0 73
  133.10175 204.0 204
  134.03328 10.0 10
  134.10155 14.0 14
  134.10629 5.0 5
  134.14458 6.0 6
  135.04184 16.0 16
  135.04881 9.0 9
  135.07687 45.0 45
  135.10564 7.0 7
  135.11887 32.0 32
  135.12584 19.0 19
  136.04956 6.0 6
  137.04543 6.0 6
  137.6059 8.0 8
  139.04591 10.0 10
  139.05533 6.0 6
  140.06223 5.0 5
  140.19284 6.0 6
  141.0538 19.0 19
  141.06996 233.0 233
  141.7673 5.0 5
  142.0623 16.0 16
  142.07819 170.0 170
  142.75453 6.0 6
  142.7655 6.0 6
  142.93604 8.0 8
  143.05 6.0 6
  143.05843 6.0 6
  143.08513 472.0 472
  143.09314 101.0 101
  144.05617 20.0 20
  144.06195 16.0 16
  144.08162 15.0 15
  144.09203 112.0 112
  144.10399 16.0 16
  145.06358 85.0 85
  145.10146 269.0 269
  145.11221 25.0 25
  145.67763 5.0 5
  146.06825 32.0 32
  146.0778 6.0 6
  146.10193 56.0 56
  146.1104 27.0 27
  147.03488 8.0 8
  147.08093 35.0 35
  147.09315 5.0 5
  147.11203 75.0 75
  147.12035 106.0 106
  148.05312 26.0 26
  148.1161 12.0 12
  148.12582 13.0 13
  149.10144 5.0 5
  150.09708 6.0 6
  150.13727 6.0 6
  151.03604 40.0 40
  151.04327 53.0 53
  151.05466 7.0 7
  152.01572 8.0 8
  152.04153 12.0 12
  152.06137 54.0 54
  152.07027 26.0 26
  152.57553 6.0 6
  153.00653 7.0 7
  153.03928 5.0 5
  153.04959 15.0 15
  153.06935 144.0 144
  153.86084 6.0 6
  154.07826 82.0 82
  154.08391 29.0 29
  154.75551 7.0 7
  155.0636 9.0 9
  155.08261 253.0 253
  155.08968 78.0 78
  155.0993 6.0 6
  156.0903 114.0 114
  157.06369 52.0 52
  157.0853 7.0 7
  157.10068 197.0 197
  158.07144 45.0 45
  158.09613 8.0 8
  158.10867 27.0 27
  158.11467 9.0 9
  159.04533 14.0 14
  159.0808 151.0 151
  159.1127 89.0 89
  159.12067 42.0 42
  160.0871 14.0 14
  160.11887 14.0 14
  161.05122 7.0 7
  161.06415 10.0 10
  161.07065 6.0 6
  161.09651 5.0 5
  161.12701 14.0 14
  161.13849 30.0 30
  162.06137 10.0 10
  163.06865 14.0 14
  163.11177 6.0 6
  164.05275 8.0 8
  164.0786 6.0 6
  165.05759 29.0 29
  165.07066 213.0 213
  165.08437 5.0 5
  166.05962 6.0 6
  166.07733 145.0 145
  167.06499 8.0 8
  167.08372 190.0 190
  167.82251 8.0 8
  168.05574 13.0 13
  168.0773 33.0 33
  168.09331 99.0 99
  169.06131 30.0 30
  169.09805 94.0 94
  169.11055 14.0 14
  170.06531 23.0 23
  170.09515 17.0 17
  170.10686 29.0 29
  170.11592 7.0 7
  171.06892 6.0 6
  171.07915 31.0 31
  171.08595 60.0 60
  171.1129 54.0 54
  171.12135 45.0 45
  172.07576 7.0 7
  172.08224 6.0 6
  172.12401 20.0 20
  173.06181 18.0 18
  173.09227 29.0 29
  173.10236 5.0 5
  173.12622 11.0 11
  173.13675 42.0 42
  174.05411 7.0 7
  174.06595 34.0 34
  174.07669 6.0 6
  175.08298 12.0 12
  175.11263 21.0 21
  176.12379 8.0 8
  177.06528 8.0 8
  177.07622 12.0 12
  178.05466 13.0 13
  178.0675 10.0 10
  178.0807 53.0 53
  179.07523 20.0 20
  179.08672 121.0 121
  180.09288 88.0 88
  181.06133 56.0 56
  181.06808 33.0 33
  181.07704 13.0 13
  181.09024 27.0 27
  181.10303 97.0 97
  181.55023 10.0 10
  182.0701 28.0 28
  182.08351 8.0 8
  182.10489 26.0 26
  182.11417 13.0 13
  182.57983 11.0 11
  183.06711 11.0 11
  183.07791 32.0 32
  183.08846 10.0 10
  183.11237 71.0 71
  184.06216 5.0 5
  184.08498 7.0 7
  184.12003 15.0 15
  184.12898 13.0 13
  185.0607 11.0 11
  185.06873 12.0 12
  185.08209 9.0 9
  185.0907 6.0 6
  185.1013 5.0 5
  185.13097 49.0 49
  185.14079 23.0 23
  186.06517 9.0 9
  186.14203 13.0 13
  186.94609 8.0 8
  187.06068 8.0 8
  187.08069 13.0 13
  187.14792 24.0 24
  189.0652 6.0 6
  189.09613 8.0 8
  190.0793 32.0 32
  191.06233 6.0 6
  191.0874 46.0 46
  191.11267 5.0 5
  192.08159 17.0 17
  192.09764 22.0 22
  192.10826 8.0 8
  193.10072 80.0 80
  193.10777 34.0 34
  194.09961 16.0 16
  194.11571 25.0 25
  195.06863 7.0 7
  195.07845 16.0 16
  195.08842 13.0 13
  195.10002 7.0 7
  195.11137 13.0 13
  195.12682 6.0 6
  196.08887 14.0 14
  196.12668 24.0 24
  196.78925 5.0 5
  197.05403 5.0 5
  197.06804 13.0 13
  197.08867 6.0 6
  197.10344 11.0 11
  197.1272 22.0 22
  197.14201 10.0 10
  197.1506 8.0 8
  198.07246 19.0 19
  198.14589 14.0 14
  199.06543 12.0 12
  199.07825 9.0 9
  199.10187 10.0 10
  199.1506 26.0 26
  200.14716 8.0 8
  200.1572 20.0 20
  201.16245 9.0 9
  201.17026 8.0 8
  201.18246 5.0 5
  202.08012 21.0 21
  203.07788 11.0 11
  203.08598 6.0 6
  204.08516 5.0 5
  205.09653 21.0 21
  205.11501 6.0 6
  206.08809 5.0 5
  206.1098 36.0 36
  207.08221 27.0 27
  207.11629 38.0 38
  208.09126 12.0 12
  208.1089 6.0 6
  209.09862 21.0 21
  209.12544 26.0 26
  209.1402 8.0 8
  210.11441 5.0 5
  210.13612 8.0 8
  211.07439 27.0 27
  211.10254 8.0 8
  211.15099 23.0 23
  212.05949 6.0 6
  212.07631 7.0 7
  212.14645 12.0 12
  213.13324 7.0 7
  213.16019 11.0 11
  214.44394 7.0 7
  215.09348 8.0 8
  215.17662 5.0 5
  217.10272 6.0 6
  217.71588 8.0 8
  218.10152 29.0 29
  218.12067 5.0 5
  219.08241 18.0 18
  219.1069 27.0 27
  219.12456 6.0 6
  220.09084 9.0 9
  220.13014 10.0 10
  221.13574 6.0 6
  222.13792 12.0 12
  223.14684 8.0 8
  223.38892 8.0 8
  224.12569 15.0 15
  225.16275 12.0 12
  227.10751 7.0 7
  228.08574 5.0 5
  228.14317 7.0 7
  229.11992 8.0 8
  231.11972 20.0 20
  232.11391 18.0 18
  232.12488 10.0 10
  233.0936 6.0 6
  233.10866 7.0 7
  233.12175 7.0 7
  233.1373 8.0 8
  234.11304 6.0 6
  234.14024 14.0 14
  236.15689 10.0 10
  237.12872 6.0 6
  237.15302 6.0 6
  238.17464 14.0 14
  239.14885 5.0 5
  240.18854 6.0 6
  241.09349 21.0 21
  241.11557 6.0 6
  244.12936 8.0 8
  245.11652 5.0 5
  245.14886 6.0 6
  247.14783 6.0 6
  250.15952 10.0 10
  250.17139 8.0 8
  252.09131 7.0 7
  254.34521 5.0 5
  256.125 9.0 9
  262.08438 5.0 5
  265.11893 7.0 7
  268.11243 8.0 8
  269.15182 5.0 5
  271.02847 8.0 8
  272.11615 14.0 14
  272.12393 5.0 5
  283.15094 8.0 8
  288.19009 6.0 6
  294.15448 7.0 7
  301.87521 12.0 12
  302.23511 5.0 5
  303.14194 6.0 6
  311.36539 5.0 5
  348.83777 6.0 6
  355.547 6.0 6
//
