ACCESSION: MSBNK-RIKEN-PR300125
RECORD_TITLE: Hydroxygardnutine; LC-ESI-QTOF; MS2
DATE: 2019.03.28
AUTHORS: Tetsuya Mori, Center for Sustainable Resource Science, RIKEN
LICENSE: CC BY-NC-SA
PUBLICATION: Tsugawa H., Nakabayashi R., Mori T., Yamada Y., Takahashi M., Rai A., Sugiyama R., Yamamoto H., Nakaya T., Yamazaki M., Kooke R., Bac-Molenaar JA., Oztolan-Erol N., Keurentjes JJB., Arita M., Saito K. (2019) "A cheminformatics approach to characterize metabolomes in stable-isotope-labeled organisms" Nature Methods 16(4):295-298. [doi:10.1038/s41592-019-0358-2]
COMMENT: registered in RIKEN PlaSMA
CH$NAME: Hydroxygardnutine
CH$COMPOUND_CLASS: Macroline alkaloids
CH$FORMULA: C20H22N2O3
CH$EXACT_MASS: 338.407
CH$SMILES: COC1=CC2=C(C=C1)C1=C(N2)[C@@H]2C[C@@H]3[C@@H]4CO[C@H]1[C@@H]4N2C\C3=C\CO
CH$IUPAC: InChI=1S/C20H22N2O3/c1-24-11-2-3-12-15(6-11)21-18-16-7-13-10(4-5-23)8-22(16)19-14(13)9-25-20(19)17(12)18/h2-4,6,13-14,16,19-21,23H,5,7-9H2,1H3/b10-4-/t13-,14-,16-,19+,20+/m0/s1
CH$LINK: INCHIKEY OUONWRIEOZGMSQ-NUUNSNFRSA-N
AC$INSTRUMENT: LC, Waters Acquity UPLC System; MS, Waters Xevo G2 Q-Tof
AC$INSTRUMENT_TYPE: LC-ESI-QTOF
AC$MASS_SPECTROMETRY: MS_TYPE MS2
AC$MASS_SPECTROMETRY: ION_MODE POSITIVE
AC$MASS_SPECTROMETRY: COLLISION_ENERGY 6V
AC$MASS_SPECTROMETRY: DESOLVATION_GAS_FLOW 800/h
AC$MASS_SPECTROMETRY: DESOLVATION_TEMPERATURE 450 C
AC$MASS_SPECTROMETRY: IONIZATION ESI
AC$CHROMATOGRAPHY: CAPILLARY_VOLTAGE +3.00 kV
AC$CHROMATOGRAPHY: COLUMN_NAME Acquity bridged ethyl hybrid C18 (1.7 um, 2.1 mm * 100 mm, Waters)
AC$CHROMATOGRAPHY: COLUMN_TEMPERATURE 40 C
AC$CHROMATOGRAPHY: FLOW_GRADIENT A/B = (99.5%/0.5% at 0 min, 99.5%/0.5% at 0.1 min, 20%/80% at 10 min, 0.5%/99.5% at 10.1 min, 0.5%/99.5% at 12.0 min, 99.5%/0.5% at 12.1 min, 99.5%/0.5% at 15.0 min)
AC$CHROMATOGRAPHY: FLOW_RATE 0.3 ml/min at 0 min, 0.3 ml/min at 10 min, 0.4 ml/min at 10.1 min, 0.4 ml/min at 14.4 min, 0.3 ml/min at 14.5 min
AC$CHROMATOGRAPHY: RETENTION_TIME 3.602583
AC$CHROMATOGRAPHY: SOLVENT A water including 0.1% formic acid
AC$CHROMATOGRAPHY: SOLVENT B acetonitrile including 0.1% formic acid
MS$FOCUSED_ION: PRECURSOR_TYPE [M+H]+
MS$FOCUSED_ION: PRECURSOR_M/Z 339.170319
PK$SPLASH: splash10-000i-0009000000-58890aba13f21f7420a8
PK$NUM_PEAK: 5
PK$PEAK: m/z int. rel.int.
  138.09157 6.0 6
  309.16071 49.0 49
  310.16046 9.0 9
  339.17053 1000.0 999
  339.22357 27.0 27
//
