ACCESSION: MSBNK-RIKEN-PR301740
RECORD_TITLE: Chelerythrine; LC-ESI-QTOF; MS2
DATE: 2019.03.28
AUTHORS: Tetsuya Mori, Center for Sustainable Resource Science, RIKEN
LICENSE: CC BY-NC-SA
PUBLICATION: Tsugawa H., Nakabayashi R., Mori T., Yamada Y., Takahashi M., Rai A., Sugiyama R., Yamamoto H., Nakaya T., Yamazaki M., Kooke R., Bac-Molenaar JA., Oztolan-Erol N., Keurentjes JJB., Arita M., Saito K. (2019) "A cheminformatics approach to characterize metabolomes in stable-isotope-labeled organisms" Nature Methods 16(4):295-298. [doi:10.1038/s41592-019-0358-2]
COMMENT: registered in RIKEN PlaSMA
CH$NAME: Chelerythrine
CH$COMPOUND_CLASS: Quaternary benzophenanthridine alkaloids
CH$FORMULA: [C21H18NO4]+
CH$EXACT_MASS: 348.378
CH$SMILES: COC1=C(OC)C2=C[N+](C)=C3C4=CC5=C(OCO5)C=C4C=CC3=C2C=C1
CH$IUPAC: InChI=1S/C21H18NO4/c1-22-10-16-13(6-7-17(23-2)21(16)24-3)14-5-4-12-8-18-19(26-11-25-18)9-15(12)20(14)22/h4-10H,11H2,1-3H3/q+1
CH$LINK: INCHIKEY LLEJIEBFSOEYIV-UHFFFAOYSA-N
AC$INSTRUMENT: LC, Waters Acquity UPLC System; MS, Waters Xevo G2 Q-Tof
AC$INSTRUMENT_TYPE: LC-ESI-QTOF
AC$MASS_SPECTROMETRY: MS_TYPE MS2
AC$MASS_SPECTROMETRY: ION_MODE POSITIVE
AC$MASS_SPECTROMETRY: COLLISION_ENERGY 6V
AC$MASS_SPECTROMETRY: DESOLVATION_GAS_FLOW 800/h
AC$MASS_SPECTROMETRY: DESOLVATION_TEMPERATURE 450 C
AC$MASS_SPECTROMETRY: IONIZATION ESI
AC$CHROMATOGRAPHY: CAPILLARY_VOLTAGE +3.00 kV
AC$CHROMATOGRAPHY: COLUMN_NAME Acquity bridged ethyl hybrid C18 (1.7 um, 2.1 mm * 100 mm, Waters)
AC$CHROMATOGRAPHY: COLUMN_TEMPERATURE 40 C
AC$CHROMATOGRAPHY: FLOW_GRADIENT A/B = (99.5%/0.5% at 0 min, 99.5%/0.5% at 0.1 min, 20%/80% at 10 min, 0.5%/99.5% at 10.1 min, 0.5%/99.5% at 12.0 min, 99.5%/0.5% at 12.1 min, 99.5%/0.5% at 15.0 min)
AC$CHROMATOGRAPHY: FLOW_RATE 0.3 ml/min at 0 min, 0.3 ml/min at 10 min, 0.4 ml/min at 10.1 min, 0.4 ml/min at 14.4 min, 0.3 ml/min at 14.5 min
AC$CHROMATOGRAPHY: RETENTION_TIME 5.30245
AC$CHROMATOGRAPHY: SOLVENT A water including 0.1% formic acid
AC$CHROMATOGRAPHY: SOLVENT B acetonitrile including 0.1% formic acid
MS$FOCUSED_ION: PRECURSOR_TYPE [M]+
MS$FOCUSED_ION: PRECURSOR_M/Z 348.1224859
PK$SPLASH: splash10-001i-0091000000-8506b3b1c3b2d2dbd91f
PK$NUM_PEAK: 366
PK$PEAK: m/z int. rel.int.
  55.02221 14.0 14
  74.00875 8.0 8
  119.05541 7.0 7
  129.44295 10.0 10
  133.03119 6.0 6
  151.05437 5.0 5
  153.0732 6.0 6
  154.20612 8.0 8
  160.04906 9.0 9
  165.07973 11.0 11
  175.0347 6.0 6
  175.05626 6.0 6
  176.05531 20.0 20
  176.06299 20.0 20
  177.04614 11.0 11
  177.05423 15.0 15
  177.07007 52.0 52
  177.74121 7.0 7
  177.99689 7.0 7
  178.01682 9.0 9
  178.04971 8.0 8
  178.0687 8.0 8
  178.08286 29.0 29
  178.65082 5.0 5
  179.06429 6.0 6
  179.07245 8.0 8
  180.04846 9.0 9
  180.078 9.0 9
  180.93018 8.0 8
  182.60616 8.0 8
  185.42012 6.0 6
  186.23744 6.0 6
  187.04807 5.0 5
  187.0614 9.0 9
  189.03302 13.0 13
  189.05568 15.0 15
  189.0713 48.0 48
  189.08525 11.0 11
  190.05963 33.0 33
  190.07811 39.0 39
  190.68672 5.0 5
  191.07219 52.0 52
  191.08406 20.0 20
  191.36029 6.0 6
  191.92682 6.0 6
  193.25543 9.0 9
  197.08026 5.0 5
  200.05614 7.0 7
  201.04451 10.0 10
  201.0616 9.0 9
  201.07782 15.0 15
  201.77405 6.0 6
  202.04184 5.0 5
  202.05171 25.0 25
  202.07056 107.0 107
  202.33475 7.0 7
  203.04007 7.0 7
  203.05139 7.0 7
  203.07512 147.0 147
  203.92963 5.0 5
  204.02348 5.0 5
  204.04427 7.0 7
  204.08011 414.0 414
  205.0647 33.0 33
  205.078 56.0 56
  205.09174 85.0 85
  205.10017 24.0 24
  205.79247 6.0 6
  206.08244 10.0 10
  206.09698 87.0 87
  206.11288 8.0 8
  206.15979 7.0 7
  207.0687 7.0 7
  207.07991 6.0 6
  207.09186 6.0 6
  207.15762 8.0 8
  207.30197 11.0 11
  211.32442 12.0 12
  213.40582 5.0 5
  214.06705 70.0 70
  214.95088 7.0 7
  215.01683 6.0 6
  215.07172 92.0 92
  215.08083 36.0 36
  215.79192 5.0 5
  216.02919 9.0 9
  216.03859 7.0 7
  216.05576 9.0 9
  216.07126 38.0 38
  216.08218 171.0 171
  216.10777 6.0 6
  216.21204 6.0 6
  217.04704 5.0 5
  217.05522 13.0 13
  217.07077 22.0 22
  217.08795 204.0 204
  217.36974 7.0 7
  217.97444 7.0 7
  218.00717 18.0 18
  218.05528 7.0 7
  218.06799 26.0 26
  218.09659 250.0 250
  218.11934 17.0 17
  219.05542 8.0 8
  219.06673 11.0 11
  219.07932 6.0 6
  219.09706 38.0 38
  219.114 6.0 6
  220.06068 14.0 14
  220.07642 22.0 22
  220.09758 9.0 9
  220.46722 13.0 13
  221.04771 5.0 5
  221.0753 12.0 12
  222.07581 10.0 10
  222.53653 7.0 7
  223.0611 8.0 8
  224.07608 6.0 6
  224.92923 6.0 6
  225.06639 10.0 10
  225.07692 7.0 7
  226.06494 6.0 6
  227.05103 6.0 6
  227.06764 41.0 41
  227.0856 22.0 22
  227.10941 13.0 13
  228.02902 8.0 8
  228.06534 33.0 33
  228.0726 76.0 76
  228.0869 144.0 144
  228.23698 12.0 12
  229.05598 7.0 7
  229.07265 20.0 20
  229.09076 61.0 61
  229.10345 12.0 12
  230.04457 9.0 9
  230.05627 44.0 44
  230.06497 39.0 39
  230.07471 28.0 28
  230.09169 112.0 112
  230.10898 43.0 43
  230.36736 6.0 6
  230.3895 9.0 9
  230.93381 7.0 7
  231.06668 49.0 49
  231.0928 47.0 47
  231.10767 37.0 37
  231.28529 6.0 6
  231.61217 6.0 6
  232.04274 11.0 11
  232.0766 1000.0 999
  232.10733 18.0 18
  232.121 14.0 14
  232.16997 6.0 6
  232.27597 9.0 9
  232.58405 6.0 6
  233.05217 33.0 33
  233.08501 406.0 406
  233.1165 8.0 8
  233.73781 6.0 6
  234.03595 10.0 10
  234.04851 6.0 6
  234.06783 20.0 20
  234.09108 154.0 154
  234.10283 47.0 47
  235.06604 6.0 6
  235.09172 26.0 26
  235.10777 8.0 8
  235.98636 9.0 9
  236.09944 6.0 6
  237.33965 7.0 7
  237.661 11.0 11
  241.07416 10.0 10
  242.05472 6.0 6
  242.07452 6.0 6
  242.12392 6.0 6
  243.03534 7.0 7
  243.0641 13.0 13
  243.07367 5.0 5
  243.16957 6.0 6
  244.02542 6.0 6
  244.05843 29.0 29
  244.07867 180.0 180
  244.43675 10.0 10
  244.97153 6.0 6
  245.04173 15.0 15
  245.06215 18.0 18
  245.07574 46.0 46
  245.0943 9.0 9
  245.10522 16.0 16
  246.05333 10.0 10
  246.07126 66.0 66
  246.09125 564.0 563
  246.11569 8.0 8
  246.21259 9.0 9
  247.05891 53.0 53
  247.07198 38.0 38
  247.09651 188.0 188
  247.12283 7.0 7
  247.13577 7.0 7
  247.15523 5.0 5
  247.23138 7.0 7
  248.06319 28.0 28
  248.08081 6.0 6
  248.10085 17.0 17
  248.11508 36.0 36
  248.12521 26.0 26
  248.50153 5.0 5
  249.04074 9.0 9
  249.11786 7.0 7
  250.12851 7.0 7
  250.14778 6.0 6
  254.24699 5.0 5
  255.07242 6.0 6
  256.03586 6.0 6
  256.069 22.0 22
  256.07831 43.0 43
  256.09384 6.0 6
  256.11371 6.0 6
  257.08356 32.0 32
  257.0928 22.0 22
  257.99033 7.0 7
  258.04324 39.0 39
  258.09012 41.0 41
  258.10172 16.0 16
  259.05264 25.0 25
  259.06375 63.0 63
  259.09244 6.0 6
  260.06064 68.0 68
  260.0719 319.0 319
  260.08417 93.0 93
  260.10757 13.0 13
  260.17947 8.0 8
  260.21838 6.0 6
  260.43106 6.0 6
  260.84518 6.0 6
  261.06631 33.0 33
  261.07785 138.0 138
  261.64862 7.0 7
  262.05435 7.0 7
  262.07663 13.0 13
  262.08923 65.0 65
  262.10699 13.0 13
  263.0433 6.0 6
  263.06274 6.0 6
  263.08392 6.0 6
  263.13785 6.0 6
  270.04962 17.0 17
  270.65091 5.0 5
  271.06653 11.0 11
  272.07379 127.0 127
  273.07083 16.0 16
  273.08548 41.0 41
  273.65549 5.0 5
  273.8999 6.0 6
  274.02136 16.0 16
  274.04932 70.0 70
  274.06049 70.0 70
  274.08582 462.0 462
  274.12274 6.0 6
  275.01749 6.0 6
  275.06143 279.0 279
  275.08121 78.0 78
  275.09467 79.0 79
  275.10593 29.0 29
  275.1806 5.0 5
  276.04639 30.0 30
  276.06519 76.0 76
  276.08383 20.0 20
  276.09982 31.0 31
  276.10928 47.0 47
  277.07123 6.0 6
  277.09406 7.0 7
  277.10529 7.0 7
  278.67456 5.0 5
  279.12195 6.0 6
  284.08136 7.0 7
  285.04166 6.0 6
  285.07513 14.0 14
  286.04617 11.0 11
  286.08966 56.0 56
  286.1116 25.0 25
  286.14914 6.0 6
  286.33005 5.0 5
  287.05933 17.0 17
  287.07623 25.0 25
  287.09613 46.0 46
  288.06363 141.0 141
  288.09262 70.0 70
  288.10596 53.0 53
  288.11945 17.0 17
  288.3479 6.0 6
  289.03891 10.0 10
  289.07031 103.0 103
  289.09299 24.0 24
  289.11694 5.0 5
  290.02646 6.0 6
  290.04675 7.0 7
  290.08078 724.0 723
  290.18643 7.0 7
  290.37784 6.0 6
  291.06403 18.0 18
  291.0834 115.0 115
  292.08707 40.0 40
  292.10339 8.0 8
  296.64532 13.0 13
  297.02423 6.0 6
  299.59982 9.0 9
  300.03885 5.0 5
  300.10196 7.0 7
  301.06964 6.0 6
  301.83505 5.0 5
  302.0592 7.0 7
  302.07974 93.0 93
  302.09094 52.0 52
  302.46732 7.0 7
  303.05124 7.0 7
  303.07916 31.0 31
  303.09045 61.0 61
  303.16626 5.0 5
  303.9845 6.0 6
  304.04492 11.0 11
  304.09271 147.0 147
  304.10437 66.0 66
  305.05399 7.0 7
  305.09091 29.0 29
  305.11133 7.0 7
  306.11981 6.0 6
  313.80038 6.0 6
  314.03662 12.0 12
  314.06375 8.0 8
  314.0892 27.0 27
  315.0419 7.0 7
  315.05405 17.0 17
  315.08276 24.0 24
  316.03015 6.0 6
  316.05676 90.0 90
  316.0755 52.0 52
  316.0986 14.0 14
  316.11075 8.0 8
  317.06531 59.0 59
  317.08072 32.0 32
  318.04126 7.0 7
  318.07401 11.0 11
  318.0925 13.0 13
  318.73502 6.0 6
  319.06927 7.0 7
  320.78052 6.0 6
  330.04877 6.0 6
  330.07645 291.0 291
  330.09915 21.0 21
  331.08398 60.0 60
  331.58957 7.0 7
  332.06888 16.0 16
  332.08807 72.0 72
  332.10287 31.0 31
  332.11691 9.0 9
  332.2309 5.0 5
  333.0788 11.0 11
  333.09598 20.0 20
  333.11002 8.0 8
  333.58966 5.0 5
  334.1012 11.0 11
  343.96927 6.0 6
  348.12012 13.0 13
  348.13391 17.0 17
//
