ACCESSION: MSBNK-RIKEN-PR301775
RECORD_TITLE: Reserpic acid; LC-ESI-QTOF; MS2
DATE: 2019.03.28
AUTHORS: Tetsuya Mori, Center for Sustainable Resource Science, RIKEN
LICENSE: CC BY-NC-SA
PUBLICATION: Tsugawa H., Nakabayashi R., Mori T., Yamada Y., Takahashi M., Rai A., Sugiyama R., Yamamoto H., Nakaya T., Yamazaki M., Kooke R., Bac-Molenaar JA., Oztolan-Erol N., Keurentjes JJB., Arita M., Saito K. (2019) "A cheminformatics approach to characterize metabolomes in stable-isotope-labeled organisms" Nature Methods 16(4):295-298. [doi:10.1038/s41592-019-0358-2]
COMMENT: registered in RIKEN PlaSMA
CH$NAME: Reserpic acid
CH$COMPOUND_CLASS: Corynanthean-type alkaloids
CH$FORMULA: C22H28N2O5
CH$EXACT_MASS: 400.475
CH$SMILES: CO[C@H]1[C@H](O)C[C@@H]2CN3CCC4=C(NC5=C4C=CC(OC)=C5)[C@H]3C[C@@H]2[C@@H]1C(O)=O
CH$IUPAC: InChI=1S/C22H28N2O5/c1-28-12-3-4-13-14-5-6-24-10-11-7-18(25)21(29-2)19(22(26)27)15(11)9-17(24)20(14)23-16(13)8-12/h3-4,8,11,15,17-19,21,23,25H,5-7,9-10H2,1-2H3,(H,26,27)/t11-,15+,17-,18-,19+,21+/m1/s1
CH$LINK: INCHIKEY JVHNBFFHWQQPLL-WOXROFTLSA-N
AC$INSTRUMENT: LC, Waters Acquity UPLC System; MS, Waters Xevo G2 Q-Tof
AC$INSTRUMENT_TYPE: LC-ESI-QTOF
AC$MASS_SPECTROMETRY: MS_TYPE MS2
AC$MASS_SPECTROMETRY: ION_MODE POSITIVE
AC$MASS_SPECTROMETRY: COLLISION_ENERGY 6V
AC$MASS_SPECTROMETRY: DESOLVATION_GAS_FLOW 800/h
AC$MASS_SPECTROMETRY: DESOLVATION_TEMPERATURE 450 C
AC$MASS_SPECTROMETRY: IONIZATION ESI
AC$CHROMATOGRAPHY: CAPILLARY_VOLTAGE +3.00 kV
AC$CHROMATOGRAPHY: COLUMN_NAME Acquity bridged ethyl hybrid C18 (1.7 um, 2.1 mm * 100 mm, Waters)
AC$CHROMATOGRAPHY: COLUMN_TEMPERATURE 40 C
AC$CHROMATOGRAPHY: FLOW_GRADIENT A/B = (99.5%/0.5% at 0 min, 99.5%/0.5% at 0.1 min, 20%/80% at 10 min, 0.5%/99.5% at 10.1 min, 0.5%/99.5% at 12.0 min, 99.5%/0.5% at 12.1 min, 99.5%/0.5% at 15.0 min)
AC$CHROMATOGRAPHY: FLOW_RATE 0.3 ml/min at 0 min, 0.3 ml/min at 10 min, 0.4 ml/min at 10.1 min, 0.4 ml/min at 14.4 min, 0.3 ml/min at 14.5 min
AC$CHROMATOGRAPHY: RETENTION_TIME 3.889867
AC$CHROMATOGRAPHY: SOLVENT A water including 0.1% formic acid
AC$CHROMATOGRAPHY: SOLVENT B acetonitrile including 0.1% formic acid
MS$FOCUSED_ION: PRECURSOR_TYPE [M+H]+
MS$FOCUSED_ION: PRECURSOR_M/Z 401.2070985
PK$SPLASH: splash10-05fr-0910000000-098e5035dc9da0f2c887
PK$NUM_PEAK: 213
PK$PEAK: m/z int. rel.int.
  79.0563 5.0 5
  82.06515 5.0 5
  83.04544 6.0 6
  83.05682 6.0 6
  91.04964 6.0 6
  91.05626 31.0 31
  93.05411 9.0 9
  93.06593 6.0 6
  93.07618 7.0 7
  94.06118 34.0 34
  94.06954 7.0 7
  95.07159 6.0 6
  97.03102 5.0 5
  105.0527 5.0 5
  105.06823 14.0 14
  105.07512 6.0 6
  106.06554 14.0 14
  107.04869 14.0 14
  107.0661 9.0 9
  107.07635 15.0 15
  108.05296 5.0 5
  108.08172 6.0 6
  109.05865 10.0 10
  115.04464 14.0 14
  115.05672 31.0 31
  117.05282 7.0 7
  117.06537 24.0 24
  117.07236 18.0 18
  117.07818 10.0 10
  118.06374 22.0 22
  118.0777 5.0 5
  119.04651 8.0 8
  119.08535 6.0 6
  120.07228 6.0 6
  120.08277 22.0 22
  121.06481 10.0 10
  127.06277 12.0 12
  129.0674 8.0 8
  129.07623 6.0 6
  130.0412 7.0 7
  130.06589 138.0 138
  130.08025 10.0 10
  131.04872 28.0 28
  131.06956 171.0 171
  131.0759 253.0 253
  132.03975 10.0 10
  132.07201 51.0 51
  132.08386 56.0 56
  133.06163 17.0 17
  133.07579 7.0 7
  134.05812 7.0 7
  134.06441 6.0 6
  134.10144 13.0 13
  135.04739 8.0 8
  135.08113 15.0 15
  142.05174 7.0 7
  142.06625 64.0 64
  142.07324 18.0 18
  143.06752 102.0 102
  143.07388 211.0 211
  144.05371 5.0 5
  144.06731 17.0 17
  144.07735 53.0 53
  144.08452 21.0 21
  145.04785 25.0 25
  145.08791 25.0 25
  146.05498 16.0 16
  146.06535 40.0 40
  146.07207 14.0 14
  146.09898 18.0 18
  147.06256 12.0 12
  147.07143 52.0 52
  147.08316 28.0 28
  148.06648 9.0 9
  148.07516 21.0 21
  148.08328 11.0 11
  149.06276 9.0 9
  150.09058 19.0 19
  152.12804 6.0 6
  154.06747 5.0 5
  154.07826 6.0 6
  155.0739 10.0 10
  157.09172 21.0 21
  158.06125 49.0 49
  159.04269 6.0 6
  159.06886 689.0 688
  160.07071 113.0 113
  160.07919 62.0 62
  161.07094 12.0 12
  161.08157 31.0 31
  161.09062 15.0 15
  162.06847 5.0 5
  162.08331 17.0 17
  162.09406 36.0 36
  163.09793 6.0 6
  164.09705 6.0 6
  164.10651 7.0 7
  166.06322 8.0 8
  168.0816 9.0 9
  169.09332 12.0 12
  170.0562 13.0 13
  170.07051 6.0 6
  172.08006 28.0 28
  173.08273 129.0 129
  174.05455 8.0 8
  174.09169 1000.0 999
  175.05841 8.0 8
  175.09488 134.0 134
  176.06625 10.0 10
  177.09183 5.0 5
  178.07889 10.0 10
  178.09607 28.0 28
  179.09018 9.0 9
  180.08757 6.0 6
  182.05913 13.0 13
  183.06432 19.0 19
  183.1116 6.0 6
  184.06432 6.0 6
  184.07565 26.0 26
  185.08311 13.0 13
  185.09662 7.0 7
  186.09116 22.0 22
  187.09396 11.0 11
  187.10687 10.0 10
  188.10574 31.0 31
  189.11444 6.0 6
  192.08289 6.0 6
  192.09445 5.0 5
  193.08824 18.0 18
  193.09862 10.0 10
  194.09348 9.0 9
  196.06895 13.0 13
  196.09169 10.0 10
  196.10294 6.0 6
  197.08066 21.0 21
  198.10381 5.0 5
  199.09187 16.0 16
  200.10774 7.0 7
  200.11827 7.0 7
  201.10623 7.0 7
  204.08099 8.0 8
  204.09119 8.0 8
  205.08257 18.0 18
  206.08612 6.0 6
  206.10519 7.0 7
  208.07686 12.0 12
  208.08827 10.0 10
  208.10324 6.0 6
  209.09143 5.0 5
  210.07043 8.0 8
  210.09274 30.0 30
  210.10994 11.0 11
  211.08803 6.0 6
  211.09657 13.0 13
  212.10478 15.0 15
  212.11647 11.0 11
  214.07959 6.0 6
  217.09671 9.0 9
  218.10158 12.0 12
  220.06723 11.0 11
  220.08783 5.0 5
  220.11101 6.0 6
  220.12398 7.0 7
  221.08798 7.0 7
  222.08063 9.0 9
  222.09137 25.0 25
  222.10475 6.0 6
  222.11841 9.0 9
  223.10373 23.0 23
  224.10376 49.0 49
  224.13055 7.0 7
  225.11069 17.0 17
  225.12608 10.0 10
  226.11118 9.0 9
  226.12265 10.0 10
  227.13799 7.0 7
  230.1082 8.0 8
  231.0981 10.0 10
  232.10437 10.0 10
  234.09254 18.0 18
  235.07826 8.0 8
  235.09584 21.0 21
  236.10039 9.0 9
  236.11255 35.0 35
  237.1216 10.0 10
  238.11626 27.0 27
  241.08945 5.0 5
  245.10231 8.0 8
  246.08797 17.0 17
  247.09792 8.0 8
  248.10837 13.0 13
  248.12007 11.0 11
  249.09238 5.0 5
  249.10327 5.0 5
  249.12061 8.0 8
  250.11754 18.0 18
  251.11281 8.0 8
  251.12384 10.0 10
  251.1403 6.0 6
  252.1398 7.0 7
  253.08855 6.0 6
  258.08502 7.0 7
  260.09265 8.0 8
  260.11829 8.0 8
  261.10931 12.0 12
  262.10757 12.0 12
  262.1214 11.0 11
  262.14362 7.0 7
  273.10483 5.0 5
  274.11383 6.0 6
  288.0993 6.0 6
  289.1145 8.0 8
  292.14062 6.0 6
//
