ACCESSION: MSBNK-RIKEN-PR303395
RECORD_TITLE: NP-006989(12); LC-ESI-QTOF; MS2
DATE: 2019.03.28
AUTHORS: Tetsuya Mori, Center for Sustainable Resource Science, RIKEN
LICENSE: CC BY-NC-SA
PUBLICATION: Tsugawa H., Nakabayashi R., Mori T., Yamada Y., Takahashi M., Rai A., Sugiyama R., Yamamoto H., Nakaya T., Yamazaki M., Kooke R., Bac-Molenaar JA., Oztolan-Erol N., Keurentjes JJB., Arita M., Saito K. (2019) "A cheminformatics approach to characterize metabolomes in stable-isotope-labeled organisms" Nature Methods 16(4):295-298. [doi:10.1038/s41592-019-0358-2]
COMMENT: registered in RIKEN PlaSMA
CH$NAME: NP-006989(12)
CH$COMPOUND_CLASS: Flavonoid 8-C-glycosides
CH$FORMULA: C27H30O16
CH$EXACT_MASS: 610.521
CH$SMILES: OC[C@H]1O[C@H]([C@H](O)[C@@H](O)[C@@H]1O)C1=C(O)C(C2OC(CO)C(O)C(O)C2O)=C2OC(=CC(=O)C2=C1O)C1=CC(O)=C(O)C=C1
CH$IUPAC: InChI=1S/C27H30O16/c28-5-12-17(33)21(37)23(39)26(42-12)15-19(35)14-10(32)4-11(7-1-2-8(30)9(31)3-7)41-25(14)16(20(15)36)27-24(40)22(38)18(34)13(6-29)43-27/h1-4,12-13,17-18,21-24,26-31,33-40H,5-6H2/t12-,13?,17-,18?,21+,22?,23-,24?,26+,27?/m1/s1
CH$LINK: INCHIKEY ZLPSOQFIIQIIAX-FCSQLNSJSA-N
AC$INSTRUMENT: LC, Waters Acquity UPLC System; MS, Waters Xevo G2 Q-Tof
AC$INSTRUMENT_TYPE: LC-ESI-QTOF
AC$MASS_SPECTROMETRY: MS_TYPE MS2
AC$MASS_SPECTROMETRY: ION_MODE POSITIVE
AC$MASS_SPECTROMETRY: COLLISION_ENERGY 6V
AC$MASS_SPECTROMETRY: DESOLVATION_GAS_FLOW 800/h
AC$MASS_SPECTROMETRY: DESOLVATION_TEMPERATURE 450 C
AC$MASS_SPECTROMETRY: IONIZATION ESI
AC$CHROMATOGRAPHY: CAPILLARY_VOLTAGE +3.00 kV
AC$CHROMATOGRAPHY: COLUMN_NAME Acquity bridged ethyl hybrid C18 (1.7 um, 2.1 mm * 100 mm, Waters)
AC$CHROMATOGRAPHY: COLUMN_TEMPERATURE 40 C
AC$CHROMATOGRAPHY: FLOW_GRADIENT A/B = (99.5%/0.5% at 0 min, 99.5%/0.5% at 0.1 min, 20%/80% at 10 min, 0.5%/99.5% at 10.1 min, 0.5%/99.5% at 12.0 min, 99.5%/0.5% at 12.1 min, 99.5%/0.5% at 15.0 min)
AC$CHROMATOGRAPHY: FLOW_RATE 0.3 ml/min at 0 min, 0.3 ml/min at 10 min, 0.4 ml/min at 10.1 min, 0.4 ml/min at 14.4 min, 0.3 ml/min at 14.5 min
AC$CHROMATOGRAPHY: RETENTION_TIME 3.100167
AC$CHROMATOGRAPHY: SOLVENT A water including 0.1% formic acid
AC$CHROMATOGRAPHY: SOLVENT B acetonitrile including 0.1% formic acid
MS$FOCUSED_ION: PRECURSOR_TYPE [M+H]+
MS$FOCUSED_ION: PRECURSOR_M/Z 611.1606613
PK$SPLASH: splash10-0006-0008910000-3866ac116990c0a730c3
PK$NUM_PEAK: 328
PK$PEAK: m/z int. rel.int.
  103.03899 42.0 42
  130.06009 10.0 10
  152.50591 11.0 11
  172.51302 9.0 9
  212.02283 22.0 22
  229.04927 9.0 9
  232.38882 8.0 8
  261.77298 9.0 9
  279.6665 12.0 12
  290.72122 8.0 8
  293.47595 9.0 9
  299.05865 7.0 7
  300.05991 24.0 24
  301.08267 10.0 10
  310.05685 23.0 23
  311.02615 15.0 15
  311.03656 37.0 37
  311.05548 146.0 146
  311.06433 52.0 52
  312.06079 71.0 71
  312.08081 9.0 9
  313.07327 8.0 8
  316.11484 10.0 10
  323.0527 219.0 219
  323.25528 7.0 7
  324.04538 20.0 20
  324.05869 91.0 91
  325.06488 12.0 12
  326.07755 9.0 9
  326.6347 8.0 8
  327.01987 13.0 13
  327.04285 10.0 10
  327.08926 12.0 12
  329.07019 17.0 17
  330.07693 9.0 9
  331.66772 8.0 8
  332.87527 8.0 8
  333.39923 11.0 11
  336.06082 11.0 11
  337.06644 12.0 12
  338.0321 8.0 8
  338.05536 8.0 8
  338.07645 20.0 20
  338.08951 12.0 12
  339.02283 12.0 12
  339.05307 39.0 39
  339.06839 9.0 9
  339.0871 15.0 15
  339.89041 10.0 10
  341.06622 1000.0 999
  341.68442 9.0 9
  342.0614 87.0 87
  342.08862 8.0 8
  343.06644 13.0 13
  351.04779 23.0 23
  351.07254 20.0 20
  351.10764 11.0 11
  352.05826 23.0 23
  352.07678 8.0 8
  353.02982 27.0 27
  353.06436 386.0 386
  353.08066 99.0 99
  353.58829 23.0 23
  354.06146 68.0 68
  354.0759 21.0 21
  355.06781 32.0 32
  355.08569 15.0 15
  355.22629 10.0 10
  361.07584 9.0 9
  362.06287 13.0 13
  363.07669 8.0 8
  363.56042 10.0 10
  364.07181 14.0 14
  365.04013 46.0 46
  365.0527 98.0 98
  365.0676 158.0 158
  365.08527 54.0 54
  366.06317 106.0 106
  366.08319 16.0 16
  367.03729 14.0 14
  367.06631 44.0 44
  367.08032 37.0 37
  367.26917 9.0 9
  368.09564 13.0 13
  369.05237 8.0 8
  369.82645 13.0 13
  370.05402 14.0 14
  370.06509 18.0 18
  371.04727 33.0 33
  371.0755 256.0 256
  372.06586 32.0 32
  372.08142 19.0 19
  373.08536 10.0 10
  373.09915 11.0 11
  374.07693 8.0 8
  374.96741 12.0 12
  375.85257 10.0 10
  377.04504 56.0 56
  377.06439 54.0 54
  377.07825 48.0 48
  377.0968 28.0 28
  378.07184 96.0 96
  379.04355 7.0 7
  379.07111 34.0 34
  380.07919 14.0 14
  381.04678 23.0 23
  381.06876 25.0 25
  381.08954 43.0 43
  381.10382 22.0 22
  382.09793 10.0 10
  382.23291 14.0 14
  383.06747 27.0 27
  383.08698 23.0 23
  384.23987 20.0 20
  389.03979 10.0 10
  389.06863 12.0 12
  390.07489 14.0 14
  391.07309 28.0 28
  391.08914 60.0 60
  392.0983 21.0 21
  393.06201 10.0 10
  393.10242 10.0 10
  394.04501 15.0 15
  394.11319 12.0 12
  395.01663 23.0 23
  395.05441 107.0 107
  395.07755 574.0 573
  395.9274 17.0 17
  396.03738 10.0 10
  396.08002 233.0 233
  396.19565 9.0 9
  397.07895 48.0 48
  398.07367 16.0 16
  398.41876 14.0 14
  399.07635 10.0 10
  400.30655 8.0 8
  401.05725 10.0 10
  401.07812 21.0 21
  402.06223 8.0 8
  405.05286 14.0 14
  405.06564 16.0 16
  405.08743 7.0 7
  405.10229 21.0 21
  406.07617 18.0 18
  406.74216 9.0 9
  407.07504 337.0 337
  407.15884 11.0 11
  407.21518 14.0 14
  408.01678 9.0 9
  408.03455 8.0 8
  408.06982 54.0 54
  408.08267 44.0 44
  409.07162 22.0 22
  409.09555 68.0 68
  411.07199 13.0 13
  413.08261 25.0 25
  414.0863 13.0 13
  414.21817 24.0 24
  415.05664 10.0 10
  417.07043 24.0 24
  417.08337 10.0 10
  418.0719 27.0 27
  418.36496 10.0 10
  419.00934 10.0 10
  419.03931 7.0 7
  419.07635 378.0 378
  419.33664 7.0 7
  419.37848 7.0 7
  420.06699 37.0 37
  420.07941 68.0 68
  421.0571 30.0 30
  421.08792 11.0 11
  421.29868 8.0 8
  422.59186 9.0 9
  423.07199 10.0 10
  423.54694 8.0 8
  424.0538 12.0 12
  425.0083 10.0 10
  425.03824 10.0 10
  425.08691 524.0 523
  425.14722 7.0 7
  425.95569 9.0 9
  426.01706 13.0 13
  426.03772 10.0 10
  426.07922 55.0 55
  426.1001 63.0 63
  426.12466 14.0 14
  427.10577 31.0 31
  428.80881 10.0 10
  429.09723 7.0 7
  429.8306 7.0 7
  430.1149 8.0 8
  431.04141 9.0 9
  431.08298 10.0 10
  431.09558 11.0 11
  432.0712 10.0 10
  433.09937 19.0 19
  433.71115 8.0 8
  434.11316 10.0 10
  435.07275 8.0 8
  435.09644 10.0 10
  436.12637 8.0 8
  437.03409 13.0 13
  437.05154 57.0 57
  437.08896 509.0 508
  437.23517 7.0 7
  438.09454 50.0 50
  439.10062 9.0 9
  441.09866 9.0 9
  443.05182 12.0 12
  443.07068 79.0 79
  443.09103 350.0 350
  443.1069 168.0 168
  444.0379 9.0 9
  444.10504 102.0 102
  444.21033 12.0 12
  445.10806 42.0 42
  445.29184 11.0 11
  446.08063 14.0 14
  446.10681 7.0 7
  447.10632 55.0 55
  447.1228 16.0 16
  448.0795 11.0 11
  448.11563 13.0 13
  449.08698 26.0 26
  450.08923 29.0 29
  454.99881 11.0 11
  455.05081 29.0 29
  455.09375 248.0 248
  455.12057 24.0 24
  456.06845 14.0 14
  456.11014 82.0 82
  456.9155 7.0 7
  457.10519 11.0 11
  457.11755 12.0 12
  458.12982 11.0 11
  458.70056 12.0 12
  459.1124 13.0 13
  461.02493 12.0 12
  461.04221 14.0 14
  461.07864 49.0 49
  461.09787 117.0 117
  462.05112 10.0 10
  462.07947 13.0 13
  462.09497 11.0 11
  462.11316 7.0 7
  465.10922 21.0 21
  465.13852 8.0 8
  467.09061 28.0 28
  468.1293 8.0 8
  469.10553 10.0 10
  470.07043 9.0 9
  471.03622 9.0 9
  471.10522 11.0 11
  472.10196 13.0 13
  473.09708 175.0 175
  473.11499 240.0 240
  474.10617 138.0 138
  475.09991 9.0 9
  475.11713 46.0 46
  476.06351 8.0 8
  476.83176 8.0 8
  477.06665 11.0 11
  479.0712 27.0 27
  479.09128 118.0 118
  479.10754 119.0 119
  479.93475 8.0 8
  480.08353 11.0 11
  480.10248 17.0 17
  480.11606 16.0 16
  483.11978 8.0 8
  484.07095 7.0 7
  485.01395 11.0 11
  485.06631 17.0 17
  485.10101 9.0 9
  486.06747 9.0 9
  486.09177 27.0 27
  491.10461 107.0 107
  491.12161 34.0 34
  492.11111 42.0 42
  492.1398 9.0 9
  493.06683 10.0 10
  493.85345 12.0 12
  495.81308 12.0 12
  497.10156 129.0 129
  497.11652 149.0 149
  497.15625 8.0 8
  498.06479 11.0 11
  498.11481 131.0 131
  499.12466 12.0 12
  503.09131 71.0 71
  503.11545 34.0 34
  504.11203 14.0 14
  505.67911 10.0 10
  509.09949 34.0 34
  510.09659 25.0 25
  510.11719 12.0 12
  515.10754 75.0 75
  515.12274 29.0 29
  516.11591 11.0 11
  516.14319 10.0 10
  521.06915 9.0 9
  521.09686 22.0 22
  521.11346 51.0 51
  522.07849 7.0 7
  522.12006 16.0 16
  523.09131 9.0 9
  527.09497 17.0 17
  527.11993 34.0 34
  528.11694 24.0 24
  539.06934 12.0 12
  539.1084 72.0 72
  539.13312 100.0 100
  540.12231 49.0 49
  540.14417 15.0 15
  541.12787 21.0 21
  545.11157 9.0 9
  557.09613 24.0 24
  557.12433 45.0 45
  557.14587 75.0 75
  557.841 9.0 9
  558.08264 10.0 10
  558.13586 25.0 25
  575.11499 40.0 40
  575.16168 30.0 30
  576.11652 9.0 9
  577.12836 10.0 10
  594.16876 12.0 12
//
