ACCESSION: MSBNK-RIKEN-PR301901
RECORD_TITLE: isorhamnetin; LC-ESI-QTOF; MS2
DATE: 2019.03.28
AUTHORS: Tetsuya Mori, Center for Sustainable Resource Science, RIKEN
LICENSE: CC BY-NC-SA
PUBLICATION: Tsugawa H., Nakabayashi R., Mori T., Yamada Y., Takahashi M., Rai A., Sugiyama R., Yamamoto H., Nakaya T., Yamazaki M., Kooke R., Bac-Molenaar JA., Oztolan-Erol N., Keurentjes JJB., Arita M., Saito K. (2019) "A cheminformatics approach to characterize metabolomes in stable-isotope-labeled organisms" Nature Methods 16(4):295-298. [doi:10.1038/s41592-019-0358-2]
COMMENT: registered in RIKEN PlaSMA
CH$NAME: isorhamnetin
CH$COMPOUND_CLASS: Flavonols
CH$FORMULA: C16H12O7
CH$EXACT_MASS: 316.265
CH$SMILES: COC1=C(O)C=CC(=C1)C1=C(O)C(=O)C2=C(O)C=C(O)C=C2O1
CH$IUPAC: InChI=1S/C16H12O7/c1-22-11-4-7(2-3-9(11)18)16-15(21)14(20)13-10(19)5-8(17)6-12(13)23-16/h2-6,17-19,21H,1H3
CH$LINK: INCHIKEY IZQSVPBOUDKVDZ-UHFFFAOYSA-N
AC$INSTRUMENT: LC, Waters Acquity UPLC System; MS, Waters Xevo G2 Q-Tof
AC$INSTRUMENT_TYPE: LC-ESI-QTOF
AC$MASS_SPECTROMETRY: MS_TYPE MS2
AC$MASS_SPECTROMETRY: ION_MODE POSITIVE
AC$MASS_SPECTROMETRY: COLLISION_ENERGY 6V
AC$MASS_SPECTROMETRY: DESOLVATION_GAS_FLOW 800/h
AC$MASS_SPECTROMETRY: DESOLVATION_TEMPERATURE 450 C
AC$MASS_SPECTROMETRY: IONIZATION ESI
AC$CHROMATOGRAPHY: CAPILLARY_VOLTAGE +3.00 kV
AC$CHROMATOGRAPHY: COLUMN_NAME Acquity bridged ethyl hybrid C18 (1.7 um, 2.1 mm * 100 mm, Waters)
AC$CHROMATOGRAPHY: COLUMN_TEMPERATURE 40 C
AC$CHROMATOGRAPHY: FLOW_GRADIENT A/B = (99.5%/0.5% at 0 min, 99.5%/0.5% at 0.1 min, 20%/80% at 10 min, 0.5%/99.5% at 10.1 min, 0.5%/99.5% at 12.0 min, 99.5%/0.5% at 12.1 min, 99.5%/0.5% at 15.0 min)
AC$CHROMATOGRAPHY: FLOW_RATE 0.3 ml/min at 0 min, 0.3 ml/min at 10 min, 0.4 ml/min at 10.1 min, 0.4 ml/min at 14.4 min, 0.3 ml/min at 14.5 min
AC$CHROMATOGRAPHY: RETENTION_TIME 6.135867
AC$CHROMATOGRAPHY: SOLVENT A water including 0.1% formic acid
AC$CHROMATOGRAPHY: SOLVENT B acetonitrile including 0.1% formic acid
MS$FOCUSED_ION: PRECURSOR_TYPE [M+H]+
MS$FOCUSED_ION: PRECURSOR_M/Z 317.0655792
PK$SPLASH: splash10-014i-0129000000-201234cc0551ca5e8c58
PK$NUM_PEAK: 34
PK$PEAK: m/z int. rel.int.
  93.03191 9.0 9
  121.03009 11.0 11
  122.03285 5.0 5
  139.03683 7.0 7
  153.00751 21.0 21
  153.01868 90.0 90
  154.02438 6.0 6
  165.01802 5.0 5
  173.05641 7.0 7
  183.05614 6.0 6
  203.04092 5.0 5
  217.05571 22.0 22
  218.05125 11.0 11
  228.03714 16.0 16
  228.04617 10.0 10
  229.05042 43.0 43
  230.04704 11.0 11
  231.02774 12.0 12
  245.04297 17.0 17
  246.05231 12.0 12
  246.0643 6.0 6
  257.04349 28.0 28
  258.05057 7.0 7
  273.03986 15.0 15
  274.04828 23.0 23
  275.04239 7.0 7
  284.0239 9.0 9
  285.03952 51.0 51
  286.04584 7.0 7
  287.01926 6.0 6
  302.04318 123.0 123
  303.04706 13.0 13
  317.06647 1000.0 999
  317.11874 8.0 8
//
