ACCESSION: MSBNK-RIKEN-PR302086
RECORD_TITLE: Biochanin A; LC-ESI-QTOF; MS2
DATE: 2019.03.28
AUTHORS: Tetsuya Mori, Center for Sustainable Resource Science, RIKEN
LICENSE: CC BY-NC-SA
PUBLICATION: Tsugawa H., Nakabayashi R., Mori T., Yamada Y., Takahashi M., Rai A., Sugiyama R., Yamamoto H., Nakaya T., Yamazaki M., Kooke R., Bac-Molenaar JA., Oztolan-Erol N., Keurentjes JJB., Arita M., Saito K. (2019) "A cheminformatics approach to characterize metabolomes in stable-isotope-labeled organisms" Nature Methods 16(4):295-298. [doi:10.1038/s41592-019-0358-2]
COMMENT: registered in RIKEN PlaSMA
CH$NAME: Biochanin A
CH$COMPOUND_CLASS: 4'-O-methylisoflavones
CH$FORMULA: C16H12O5
CH$EXACT_MASS: 284.267
CH$SMILES: COC1=CC=C(C=C1)C1=COC2=CC(O)=CC(O)=C2C1=O
CH$IUPAC: InChI=1S/C16H12O5/c1-20-11-4-2-9(3-5-11)12-8-21-14-7-10(17)6-13(18)15(14)16(12)19/h2-8,17-18H,1H3
CH$LINK: INCHIKEY WUADCCWRTIWANL-UHFFFAOYSA-N
AC$INSTRUMENT: LC, Waters Acquity UPLC System; MS, Waters Xevo G2 Q-Tof
AC$INSTRUMENT_TYPE: LC-ESI-QTOF
AC$MASS_SPECTROMETRY: MS_TYPE MS2
AC$MASS_SPECTROMETRY: ION_MODE POSITIVE
AC$MASS_SPECTROMETRY: COLLISION_ENERGY 6V
AC$MASS_SPECTROMETRY: DESOLVATION_GAS_FLOW 800/h
AC$MASS_SPECTROMETRY: DESOLVATION_TEMPERATURE 450 C
AC$MASS_SPECTROMETRY: IONIZATION ESI
AC$CHROMATOGRAPHY: CAPILLARY_VOLTAGE +3.00 kV
AC$CHROMATOGRAPHY: COLUMN_NAME Acquity bridged ethyl hybrid C18 (1.7 um, 2.1 mm * 100 mm, Waters)
AC$CHROMATOGRAPHY: COLUMN_TEMPERATURE 40 C
AC$CHROMATOGRAPHY: FLOW_GRADIENT A/B = (99.5%/0.5% at 0 min, 99.5%/0.5% at 0.1 min, 20%/80% at 10 min, 0.5%/99.5% at 10.1 min, 0.5%/99.5% at 12.0 min, 99.5%/0.5% at 12.1 min, 99.5%/0.5% at 15.0 min)
AC$CHROMATOGRAPHY: FLOW_RATE 0.3 ml/min at 0 min, 0.3 ml/min at 10 min, 0.4 ml/min at 10.1 min, 0.4 ml/min at 14.4 min, 0.3 ml/min at 14.5 min
AC$CHROMATOGRAPHY: RETENTION_TIME 7.6348
AC$CHROMATOGRAPHY: SOLVENT A water including 0.1% formic acid
AC$CHROMATOGRAPHY: SOLVENT B acetonitrile including 0.1% formic acid
MS$FOCUSED_ION: PRECURSOR_TYPE [M+H]+
MS$FOCUSED_ION: PRECURSOR_M/Z 285.0757499
PK$SPLASH: splash10-02tl-2920000000-1d21d589c6a27965259d
PK$NUM_PEAK: 189
PK$PEAK: m/z int. rel.int.
  65.03906 67.0 67
  67.00425 18.0 18
  67.01693 71.0 71
  67.05267 17.0 17
  68.02589 27.0 27
  68.9974 211.0 211
  71.38145 12.0 12
  77.03836 93.0 93
  78.01095 68.0 68
  79.05496 102.0 102
  89.03767 178.0 178
  90.04361 137.0 137
  90.04742 362.0 362
  91.05277 50.0 50
  91.29637 12.0 12
  92.0134 12.0 12
  92.02506 35.0 35
  93.0349 15.0 15
  94.72852 13.0 13
  95.01006 24.0 24
  95.01691 36.0 36
  95.05098 18.0 18
  96.01082 25.0 25
  96.02024 189.0 189
  97.02557 48.0 48
  97.03694 18.0 18
  102.0433 155.0 155
  102.05176 15.0 15
  103.04018 14.0 14
  103.0545 19.0 19
  104.02498 20.0 20
  105.03455 27.0 27
  105.05697 18.0 18
  105.06921 21.0 21
  106.03204 21.0 21
  108.01 21.0 21
  108.01833 43.0 43
  109.60111 12.0 12
  110.03861 35.0 35
  114.91328 15.0 15
  115.03676 24.0 24
  115.05301 568.0 567
  116.01526 13.0 13
  116.0534 24.0 24
  116.0602 106.0 106
  117.03989 24.0 24
  117.05858 36.0 36
  117.07258 43.0 43
  118.03835 294.0 294
  118.04285 104.0 104
  118.05084 20.0 20
  119.03975 17.0 17
  119.05107 13.0 13
  121.02993 40.0 40
  121.07062 24.0 24
  124.01369 242.0 242
  124.01961 104.0 104
  124.99069 13.0 13
  125.021 35.0 35
  125.08446 17.0 17
  126.04025 17.0 17
  127.04375 17.0 17
  127.05302 115.0 115
  127.06111 122.0 122
  128.05846 119.0 119
  129.03084 20.0 20
  129.05984 40.0 40
  129.06761 54.0 54
  129.076 112.0 112
  130.04025 75.0 75
  130.0733 33.0 33
  130.08539 15.0 15
  131.04337 42.0 42
  131.05232 40.0 40
  132.05228 49.0 49
  132.05873 39.0 39
  133.03163 31.0 31
  133.05872 17.0 17
  134.03816 14.0 14
  134.07341 19.0 19
  135.00787 24.0 24
  135.04709 16.0 16
  136.01863 21.0 21
  137.02618 41.0 41
  139.04105 18.0 18
  139.0567 310.0 310
  140.0345 28.0 28
  140.05827 69.0 69
  140.06418 29.0 29
  141.03023 23.0 23
  141.07146 35.0 35
  141.0762 74.0 74
  142.02219 19.0 19
  142.07266 13.0 13
  143.04164 48.0 48
  143.05019 210.0 210
  143.80896 18.0 18
  144.05174 40.0 40
  144.05943 16.0 16
  145.02116 13.0 13
  145.05151 15.0 15
  145.0656 46.0 46
  146.0309 18.0 18
  147.03403 13.0 13
  147.04646 40.0 40
  149.01894 13.0 13
  150.03024 24.0 24
  151.05556 51.0 51
  152.00188 28.0 28
  152.0132 156.0 156
  152.05939 21.0 21
  152.07092 18.0 18
  152.12735 13.0 13
  153.01068 52.0 52
  153.01884 122.0 122
  155.05037 22.0 22
  157.03442 21.0 21
  157.06445 215.0 215
  158.02422 18.0 18
  158.03708 141.0 141
  158.0621 24.0 24
  158.06981 65.0 65
  159.04652 72.0 72
  159.23529 15.0 15
  160.03841 22.0 22
  160.05215 18.0 18
  164.83379 12.0 12
  168.04315 13.0 13
  168.05524 90.0 90
  169.01669 13.0 13
  169.06294 24.0 24
  169.64639 26.0 26
  170.0385 13.0 13
  171.0365 66.0 66
  171.04642 71.0 71
  171.05368 70.0 70
  172.01923 15.0 15
  172.05147 15.0 15
  173.02205 20.0 20
  179.03233 13.0 13
  179.04578 17.0 17
  179.23759 20.0 20
  183.04086 40.0 40
  184.03569 15.0 15
  184.05417 46.0 46
  185.03641 43.0 43
  185.04822 85.0 85
  185.06274 290.0 290
  186.04518 19.0 19
  186.06503 12.0 12
  186.0751 29.0 29
  187.04326 15.0 15
  187.06313 15.0 15
  188.04834 41.0 41
  195.04266 59.0 59
  195.04857 21.0 21
  196.0537 40.0 40
  197.05942 174.0 174
  197.06813 41.0 41
  198.02182 18.0 18
  198.07011 23.0 23
  199.03264 105.0 105
  199.04674 40.0 40
  200.04688 85.0 85
  211.0405 32.0 32
  212.0432 18.0 18
  212.06635 17.0 17
  213.02359 12.0 12
  213.05475 1000.0 999
  214.05212 103.0 103
  214.06992 30.0 30
  215.032 17.0 17
  215.05797 42.0 42
  218.14937 12.0 12
  223.03299 12.0 12
  225.05743 33.0 33
  227.02937 15.0 15
  241.04596 146.0 146
  241.05629 57.0 57
  241.06857 76.0 76
  242.05385 20.0 20
  242.06306 24.0 24
  253.04092 27.0 27
  254.05411 49.0 49
  269.03748 42.0 42
  269.05112 89.0 89
  270.03668 18.0 18
  271.05438 12.0 12
  282.8699 18.0 18
//
