ACCESSION: MSBNK-RIKEN-PR301631
RECORD_TITLE: Harmol; LC-ESI-QTOF; MS2
DATE: 2019.03.28
AUTHORS: Tetsuya Mori, Center for Sustainable Resource Science, RIKEN
LICENSE: CC BY-NC-SA
PUBLICATION: Tsugawa H., Nakabayashi R., Mori T., Yamada Y., Takahashi M., Rai A., Sugiyama R., Yamamoto H., Nakaya T., Yamazaki M., Kooke R., Bac-Molenaar JA., Oztolan-Erol N., Keurentjes JJB., Arita M., Saito K. (2019) "A cheminformatics approach to characterize metabolomes in stable-isotope-labeled organisms" Nature Methods 16(4):295-298. [doi:10.1038/s41592-019-0358-2]
COMMENT: registered in RIKEN PlaSMA
CH$NAME: Harmol
CH$COMPOUND_CLASS: Harmala alkaloids
CH$FORMULA: C12H10N2O
CH$EXACT_MASS: 198.225
CH$SMILES: CC1=C2NC3=C(C=CC(O)=C3)C2=CC=N1
CH$IUPAC: InChI=1S/C12H10N2O/c1-7-12-10(4-5-13-7)9-3-2-8(15)6-11(9)14-12/h2-6,14-15H,1H3
CH$LINK: INCHIKEY SATMZMMKDDTOSQ-UHFFFAOYSA-N
AC$INSTRUMENT: LC, Waters Acquity UPLC System; MS, Waters Xevo G2 Q-Tof
AC$INSTRUMENT_TYPE: LC-ESI-QTOF
AC$MASS_SPECTROMETRY: MS_TYPE MS2
AC$MASS_SPECTROMETRY: ION_MODE POSITIVE
AC$MASS_SPECTROMETRY: COLLISION_ENERGY 6V
AC$MASS_SPECTROMETRY: DESOLVATION_GAS_FLOW 800/h
AC$MASS_SPECTROMETRY: DESOLVATION_TEMPERATURE 450 C
AC$MASS_SPECTROMETRY: IONIZATION ESI
AC$CHROMATOGRAPHY: CAPILLARY_VOLTAGE +3.00 kV
AC$CHROMATOGRAPHY: COLUMN_NAME Acquity bridged ethyl hybrid C18 (1.7 um, 2.1 mm * 100 mm, Waters)
AC$CHROMATOGRAPHY: COLUMN_TEMPERATURE 40 C
AC$CHROMATOGRAPHY: FLOW_GRADIENT A/B = (99.5%/0.5% at 0 min, 99.5%/0.5% at 0.1 min, 20%/80% at 10 min, 0.5%/99.5% at 10.1 min, 0.5%/99.5% at 12.0 min, 99.5%/0.5% at 12.1 min, 99.5%/0.5% at 15.0 min)
AC$CHROMATOGRAPHY: FLOW_RATE 0.3 ml/min at 0 min, 0.3 ml/min at 10 min, 0.4 ml/min at 10.1 min, 0.4 ml/min at 14.4 min, 0.3 ml/min at 14.5 min
AC$CHROMATOGRAPHY: RETENTION_TIME 3.1771
AC$CHROMATOGRAPHY: SOLVENT A water including 0.1% formic acid
AC$CHROMATOGRAPHY: SOLVENT B acetonitrile including 0.1% formic acid
MS$FOCUSED_ION: PRECURSOR_TYPE [M+H]+
MS$FOCUSED_ION: PRECURSOR_M/Z 199.0865894
PK$SPLASH: splash10-0ufr-1900000000-d492e9482375373a1cad
PK$NUM_PEAK: 40
PK$PEAK: m/z int. rel.int.
  65.04079 77.0 77
  76.03006 88.0 88
  77.04266 475.0 475
  87.02187 62.0 62
  101.03835 53.0 53
  102.0315 86.0 86
  102.04519 195.0 195
  103.05318 1000.0 999
  105.03068 59.0 59
  113.03215 74.0 74
  116.06429 153.0 153
  117.05395 56.0 56
  118.76934 56.0 56
  127.056 80.0 80
  128.04552 177.0 177
  129.04892 50.0 50
  129.06294 50.0 50
  130.06671 121.0 121
  131.04163 97.0 97
  131.04944 522.0 521
  131.07674 77.0 77
  141.04956 209.0 209
  142.06689 53.0 53
  146.05832 77.0 77
  152.04877 53.0 53
  154.06691 142.0 142
  155.06223 59.0 59
  156.05164 80.0 80
  156.06618 245.0 245
  157.05515 59.0 59
  169.07831 336.0 336
  170.05864 100.0 100
  170.07982 127.0 127
  170.08743 71.0 71
  171.08273 206.0 206
  171.09633 239.0 239
  181.08505 53.0 53
  197.06929 94.0 94
  198.07986 133.0 133
  199.09586 56.0 56
//
