ACCESSION: MSBNK-RIKEN-PR305840
RECORD_TITLE: Daidzein-8-C-glucoside; LC-ESI-QTOF; MS2
DATE: 2019.03.28
AUTHORS: Tetsuya Mori, Center for Sustainable Resource Science, RIKEN
LICENSE: CC BY-NC-SA
PUBLICATION: Tsugawa H., Nakabayashi R., Mori T., Yamada Y., Takahashi M., Rai A., Sugiyama R., Yamamoto H., Nakaya T., Yamazaki M., Kooke R., Bac-Molenaar JA., Oztolan-Erol N., Keurentjes JJB., Arita M., Saito K. (2019) "A cheminformatics approach to characterize metabolomes in stable-isotope-labeled organisms" Nature Methods 16(4):295-298. [doi:10.1038/s41592-019-0358-2]
COMMENT: registered in RIKEN PlaSMA
CH$NAME: Daidzein-8-C-glucoside
CH$COMPOUND_CLASS: Isoflavonoid C-glycosides
CH$FORMULA: C21H20O9
CH$EXACT_MASS: 416.382
CH$SMILES: C1=CC(=CC=C1C2=COC3=C(C2=O)C=CC(=C3[C@H]4[C@@H]([C@H]([C@@H]([C@H](O4)CO)O)O)O)O)O
CH$IUPAC: InChI=1S/C21H20O9/c22-7-14-17(26)18(27)19(28)21(30-14)15-13(24)6-5-11-16(25)12(8-29-20(11)15)9-1-3-10(23)4-2-9/h1-6,8,14,17-19,21-24,26-28H,7H2/t14-,17-,18+,19-,21+/m1/s1
CH$LINK: INCHIKEY HKEAFJYKMMKDOR-VPRICQMDSA-N
AC$INSTRUMENT: LC, Waters Acquity UPLC System; MS, Waters Xevo G2 Q-Tof
AC$INSTRUMENT_TYPE: LC-ESI-QTOF
AC$MASS_SPECTROMETRY: MS_TYPE MS2
AC$MASS_SPECTROMETRY: ION_MODE NEGATIVE
AC$MASS_SPECTROMETRY: COLLISION_ENERGY 6V
AC$MASS_SPECTROMETRY: DESOLVATION_GAS_FLOW 800/h
AC$MASS_SPECTROMETRY: DESOLVATION_TEMPERATURE 450 C
AC$MASS_SPECTROMETRY: IONIZATION ESI
AC$CHROMATOGRAPHY: CAPILLARY_VOLTAGE -2.75 kV
AC$CHROMATOGRAPHY: COLUMN_NAME Acquity bridged ethyl hybrid C18 (1.7 um, 2.1 mm * 100 mm, Waters)
AC$CHROMATOGRAPHY: COLUMN_TEMPERATURE 40 C
AC$CHROMATOGRAPHY: FLOW_GRADIENT A/B = (99.5%/0.5% at 0 min, 99.5%/0.5% at 0.1 min, 20%/80% at 10 min, 0.5%/99.5% at 10.1 min, 0.5%/99.5% at 12.0 min, 99.5%/0.5% at 12.1 min, 99.5%/0.5% at 15.0 min)
AC$CHROMATOGRAPHY: FLOW_RATE 0.3 ml/min at 0 min, 0.3 ml/min at 10 min, 0.4 ml/min at 10.1 min, 0.4 ml/min at 14.4 min, 0.3 ml/min at 14.5 min
AC$CHROMATOGRAPHY: RETENTION_TIME 3.2688
AC$CHROMATOGRAPHY: SOLVENT A water including 0.1% formic acid
AC$CHROMATOGRAPHY: SOLVENT B acetonitrile including 0.1% formic acid
MS$FOCUSED_ION: PRECURSOR_TYPE [M-H]-
MS$FOCUSED_ION: PRECURSOR_M/Z 415.10345574783
PK$SPLASH: splash10-060r-0590000000-8e1975eda8d9bb972421
PK$NUM_PEAK: 179
PK$PEAK: m/z int. rel.int.
  59.01371 42.0 42
  67.84115 12.0 12
  69.70445 14.0 14
  71.01007 10.0 10
  77.03429 16.0 16
  77.04077 58.0 58
  82.59642 13.0 13
  89.03709 68.0 68
  91.01784 59.0 59
  92.0248 14.0 14
  93.03166 76.0 76
  94.03522 15.0 15
  103.01643 13.0 13
  103.02258 17.0 17
  104.02709 31.0 31
  105.03336 252.0 252
  107.03642 13.0 13
  109.78358 16.0 16
  115.01329 10.0 10
  116.02422 13.0 13
  117.03409 206.0 206
  118.0344 11.0 11
  119.04233 23.0 23
  119.05158 57.0 57
  130.03809 12.0 12
  131.04552 12.0 12
  131.05406 15.0 15
  132.0204 394.0 394
  132.05362 19.0 19
  133.02855 618.0 617
  134.02763 91.0 91
  134.03546 44.0 44
  134.83842 12.0 12
  134.99782 14.0 14
  135.04308 13.0 13
  135.84473 10.0 10
  139.0537 14.0 14
  141.07622 19.0 19
  142.04733 18.0 18
  145.03087 92.0 92
  146.02985 26.0 26
  147.03734 28.0 28
  147.04547 24.0 24
  149.02122 209.0 209
  149.84569 14.0 14
  150.03374 12.0 12
  151.0546 25.0 25
  152.0556 17.0 17
  154.04225 13.0 13
  157.60294 17.0 17
  158.03792 25.0 25
  160.01666 17.0 17
  163.03603 16.0 16
  167.04749 18.0 18
  168.05452 12.0 12
  169.0666 50.0 50
  170.8557 12.0 12
  171.04475 12.0 12
  173.02397 25.0 25
  174.03375 14.0 14
  179.04674 39.0 39
  179.09335 12.0 12
  180.05368 72.0 72
  181.06204 12.0 12
  182.04216 14.0 14
  182.07158 12.0 12
  183.04207 21.0 21
  183.07983 39.0 39
  184.04076 17.0 17
  185.02151 16.0 16
  189.01645 16.0 16
  192.05249 16.0 16
  193.06458 219.0 219
  193.07214 64.0 64
  194.05873 11.0 11
  194.07336 119.0 119
  195.04517 127.0 127
  195.06694 31.0 31
  195.07753 104.0 104
  196.04814 28.0 28
  196.05775 27.0 27
  197.05255 30.0 30
  197.065 19.0 19
  203.05496 14.0 14
  204.05351 16.0 16
  204.06467 14.0 14
  205.06192 40.0 40
  205.07016 86.0 86
  205.08694 12.0 12
  206.04079 12.0 12
  206.07321 26.0 26
  208.05287 256.0 256
  208.06862 14.0 14
  209.05862 271.0 271
  209.06897 45.0 45
  210.03456 31.0 31
  210.07219 13.0 13
  211.03525 13.0 13
  211.07762 82.0 82
  211.08749 23.0 23
  213.0471 15.0 15
  217.06648 14.0 14
  218.33083 12.0 12
  219.04668 29.0 29
  220.0509 12.0 12
  220.06032 12.0 12
  221.04555 12.0 12
  221.0607 79.0 79
  221.22395 12.0 12
  221.60498 16.0 16
  222.06691 701.0 700
  223.03656 326.0 326
  223.07292 329.0 329
  223.09412 12.0 12
  223.23438 14.0 14
  223.59813 10.0 10
  223.8801 10.0 10
  224.04294 252.0 252
  224.05185 100.0 100
  224.0681 14.0 14
  224.08189 21.0 21
  225.04956 80.0 80
  225.06235 16.0 16
  225.07806 28.0 28
  227.83675 18.0 18
  228.06227 24.0 24
  229.07957 12.0 12
  231.07671 16.0 16
  232.05138 13.0 13
  234.0631 66.0 66
  235.03613 22.0 22
  235.04745 32.0 32
  235.07404 28.0 28
  236.04242 52.0 52
  236.05145 41.0 41
  237.05507 367.0 367
  238.05872 163.0 163
  238.07254 34.0 34
  239.06773 154.0 154
  239.08279 25.0 25
  239.23885 13.0 13
  240.06367 11.0 11
  240.07619 32.0 32
  241.03294 13.0 13
  241.3492 14.0 14
  247.04425 31.0 31
  248.04659 106.0 106
  249.05374 70.0 70
  250.06747 13.0 13
  251.02493 38.0 38
  251.04501 19.0 19
  252.03728 14.0 14
  253.01727 13.0 13
  253.04927 146.0 146
  254.04842 18.0 18
  255.05457 13.0 13
  263.03638 38.0 38
  265.04968 12.0 12
  266.04724 12.0 12
  266.06369 37.0 37
  266.08313 10.0 10
  267.06525 1000.0 999
  267.26791 11.0 11
  268.06943 167.0 167
  269.06329 16.0 16
  269.07755 55.0 55
  270.07401 10.0 10
  273.04752 15.0 15
  274.0683 12.0 12
  276.04233 14.0 14
  277.04236 38.0 38
  277.05551 40.0 40
  279.06189 45.0 45
  279.07492 10.0 10
  279.18021 14.0 14
  291.02798 10.0 10
  293.03592 12.0 12
  293.04703 16.0 16
  303.0788 12.0 12
//
