ACCESSION: MSBNK-RIKEN-PR306522
RECORD_TITLE: Quercetin; LC-ESI-QTOF; MS2
DATE: 2019.03.28
AUTHORS: Tetsuya Mori, Center for Sustainable Resource Science, RIKEN
LICENSE: CC BY-NC-SA
PUBLICATION: Tsugawa H., Nakabayashi R., Mori T., Yamada Y., Takahashi M., Rai A., Sugiyama R., Yamamoto H., Nakaya T., Yamazaki M., Kooke R., Bac-Molenaar JA., Oztolan-Erol N., Keurentjes JJB., Arita M., Saito K. (2019) "A cheminformatics approach to characterize metabolomes in stable-isotope-labeled organisms" Nature Methods 16(4):295-298. [doi:10.1038/s41592-019-0358-2]
COMMENT: registered in RIKEN PlaSMA
CH$NAME: Quercetin
CH$COMPOUND_CLASS: Flavonols
CH$FORMULA: C15H10O7
CH$EXACT_MASS: 302.238
CH$SMILES: OC1=CC(O)=C2C(OC(=C(O)C2=O)C2=CC(O)=C(O)C=C2)=C1
CH$IUPAC: InChI=1S/C15H10O7/c16-7-4-10(19)12-11(5-7)22-15(14(21)13(12)20)6-1-2-8(17)9(18)3-6/h1-5,16-19,21H
CH$LINK: INCHIKEY REFJWTPEDVJJIY-UHFFFAOYSA-N
AC$INSTRUMENT: LC, Waters Acquity UPLC System; MS, Waters Xevo G2 Q-Tof
AC$INSTRUMENT_TYPE: LC-ESI-QTOF
AC$MASS_SPECTROMETRY: MS_TYPE MS2
AC$MASS_SPECTROMETRY: ION_MODE NEGATIVE
AC$MASS_SPECTROMETRY: COLLISION_ENERGY 6V
AC$MASS_SPECTROMETRY: DESOLVATION_GAS_FLOW 800/h
AC$MASS_SPECTROMETRY: DESOLVATION_TEMPERATURE 450 C
AC$MASS_SPECTROMETRY: IONIZATION ESI
AC$CHROMATOGRAPHY: CAPILLARY_VOLTAGE -2.75 kV
AC$CHROMATOGRAPHY: COLUMN_NAME Acquity bridged ethyl hybrid C18 (1.7 um, 2.1 mm * 100 mm, Waters)
AC$CHROMATOGRAPHY: COLUMN_TEMPERATURE 40 C
AC$CHROMATOGRAPHY: FLOW_GRADIENT A/B = (99.5%/0.5% at 0 min, 99.5%/0.5% at 0.1 min, 20%/80% at 10 min, 0.5%/99.5% at 10.1 min, 0.5%/99.5% at 12.0 min, 99.5%/0.5% at 12.1 min, 99.5%/0.5% at 15.0 min)
AC$CHROMATOGRAPHY: FLOW_RATE 0.3 ml/min at 0 min, 0.3 ml/min at 10 min, 0.4 ml/min at 10.1 min, 0.4 ml/min at 14.4 min, 0.3 ml/min at 14.5 min
AC$CHROMATOGRAPHY: RETENTION_TIME 5.374467
AC$CHROMATOGRAPHY: SOLVENT A water including 0.1% formic acid
AC$CHROMATOGRAPHY: SOLVENT B acetonitrile including 0.1% formic acid
MS$FOCUSED_ION: PRECURSOR_TYPE [M-H]-
MS$FOCUSED_ION: PRECURSOR_M/Z 301.03537624783
PK$SPLASH: splash10-0zmi-1910000000-9690ddacae6252857a4b
PK$NUM_PEAK: 137
PK$PEAK: m/z int. rel.int.
  60.18378 11.0 11
  63.02283 35.0 35
  65.00118 88.0 88
  70.13764 9.0 9
  83.01222 174.0 174
  84.02055 9.0 9
  84.99045 10.0 10
  93.03126 51.0 51
  93.03874 26.0 26
  94.03983 11.0 11
  95.01215 37.0 37
  96.02058 20.0 20
  104.02625 10.0 10
  107.0118 567.0 566
  107.46201 9.0 9
  107.88513 11.0 11
  108.01411 27.0 27
  108.01963 20.0 20
  108.02581 23.0 23
  109.02593 100.0 100
  115.01293 12.0 12
  116.05275 9.0 9
  117.02978 22.0 22
  119.05241 9.0 9
  120.02252 23.0 23
  121.02694 551.0 550
  121.57562 8.0 8
  121.86597 8.0 8
  121.99889 13.0 13
  122.02361 9.0 9
  122.0326 28.0 28
  123.04012 9.0 9
  124.00501 9.0 9
  125.01975 10.0 10
  125.02717 14.0 14
  128.06276 12.0 12
  131.04521 9.0 9
  133.02002 17.0 17
  134.02675 33.0 33
  135.00203 11.0 11
  135.04686 8.0 8
  137.01949 26.0 26
  141.04001 12.0 12
  143.04695 8.0 8
  145.02122 9.0 9
  145.02663 24.0 24
  146.03581 17.0 17
  147.00128 9.0 9
  147.04895 35.0 35
  148.0179 10.0 10
  149.01247 8.0 8
  149.02322 91.0 91
  151.00117 1000.0 999
  152.00537 83.0 83
  153.00668 14.0 14
  155.04448 11.0 11
  155.04999 11.0 11
  158.03464 9.0 9
  159.03732 10.0 10
  159.05673 10.0 10
  160.04362 9.0 9
  160.05206 15.0 15
  161.01485 9.0 9
  161.02313 25.0 25
  161.05736 8.0 8
  162.02499 13.0 13
  163.00259 12.0 12
  163.04002 46.0 46
  164.00159 14.0 14
  164.01028 35.0 35
  165.01425 9.0 9
  165.02148 9.0 9
  168.0619 10.0 10
  169.02792 26.0 26
  170.0275 10.0 10
  170.03653 16.0 16
  170.04332 8.0 8
  171.04167 9.0 9
  171.05045 26.0 26
  172.04691 26.0 26
  172.0555 11.0 11
  173.024 11.0 11
  173.06194 32.0 32
  174.01723 14.0 14
  174.0621 8.0 8
  175.03864 17.0 17
  176.03979 23.0 23
  178.02249 13.0 13
  178.06349 9.0 9
  178.99522 32.0 32
  179.99965 14.0 14
  182.03157 9.0 9
  183.0403 34.0 34
  183.04712 9.0 9
  184.02118 8.0 8
  185.02457 9.0 9
  185.05212 7.0 7
  185.05783 15.0 15
  186.02513 29.0 29
  187.04044 44.0 44
  193.00449 12.0 12
  195.04077 16.0 16
  196.0636 13.0 13
  198.02425 25.0 25
  199.03773 22.0 22
  200.04234 39.0 39
  200.05101 12.0 12
  201.01727 12.0 12
  201.05374 29.0 29
  203.03378 24.0 24
  205.04053 15.0 15
  206.05701 14.0 14
  211.03673 60.0 60
  212.02776 10.0 10
  212.05096 9.0 9
  213.01572 10.0 10
  214.0213 12.0 12
  215.02927 16.0 16
  216.03162 12.0 12
  218.04265 20.0 20
  227.02827 36.0 36
  229.03375 8.0 8
  229.04239 9.0 9
  230.02332 10.0 10
  231.0213 9.0 9
  240.04538 9.0 9
  243.01466 9.0 9
  245.04726 17.0 17
  245.05672 14.0 14
  255.02927 44.0 44
  256.02716 21.0 21
  256.04782 26.0 26
  271.01529 20.0 20
  272.02594 19.0 19
  274.03351 15.0 15
  299.01395 9.0 9
  301.03458 9.0 9
//
