ACCESSION: MSBNK-RIKEN-PR300018
RECORD_TITLE: 19S-Methoxytubotaiwine; LC-ESI-QTOF; MS2
DATE: 2019.03.28
AUTHORS: Tetsuya Mori, Center for Sustainable Resource Science, RIKEN
LICENSE: CC BY-NC-SA
PUBLICATION: Tsugawa H., Nakabayashi R., Mori T., Yamada Y., Takahashi M., Rai A., Sugiyama R., Yamamoto H., Nakaya T., Yamazaki M., Kooke R., Bac-Molenaar JA., Oztolan-Erol N., Keurentjes JJB., Arita M., Saito K. (2019) "A cheminformatics approach to characterize metabolomes in stable-isotope-labeled organisms" Nature Methods 16(4):295-298. [doi:10.1038/s41592-019-0358-2]
COMMENT: registered in RIKEN PlaSMA
CH$NAME: 19S-Methoxytubotaiwine
CH$COMPOUND_CLASS: Strychnos alkaloids
CH$FORMULA: C21H26N2O3
CH$EXACT_MASS: 354.45
CH$SMILES: CO[C@H](C)C1[C@H]2N3CC[C@@]22C(NC4=CC=CC=C24)=C([C@H]1CC3)C(=O)OC
CH$IUPAC: InChI=1S/C21H26N2O3/c1-12(25-2)16-13-8-10-23-11-9-21(19(16)23)14-6-4-5-7-15(14)22-18(21)17(13)20(24)26-3/h4-7,12-13,16,19,22H,8-11H2,1-3H3/t12-,13+,16?,19-,21-/m1/s1
CH$LINK: INCHIKEY LTOOPESWVADEAE-JHOCLNBPSA-N
AC$INSTRUMENT: LC, Waters Acquity UPLC System; MS, Waters Xevo G2 Q-Tof
AC$INSTRUMENT_TYPE: LC-ESI-QTOF
AC$MASS_SPECTROMETRY: MS_TYPE MS2
AC$MASS_SPECTROMETRY: ION_MODE POSITIVE
AC$MASS_SPECTROMETRY: COLLISION_ENERGY 6V
AC$MASS_SPECTROMETRY: DESOLVATION_GAS_FLOW 800/h
AC$MASS_SPECTROMETRY: DESOLVATION_TEMPERATURE 450 C
AC$MASS_SPECTROMETRY: IONIZATION ESI
AC$CHROMATOGRAPHY: CAPILLARY_VOLTAGE +3.00 kV
AC$CHROMATOGRAPHY: COLUMN_NAME Acquity bridged ethyl hybrid C18 (1.7 um, 2.1 mm * 100 mm, Waters)
AC$CHROMATOGRAPHY: COLUMN_TEMPERATURE 40 C
AC$CHROMATOGRAPHY: FLOW_GRADIENT A/B = (99.5%/0.5% at 0 min, 99.5%/0.5% at 0.1 min, 20%/80% at 10 min, 0.5%/99.5% at 10.1 min, 0.5%/99.5% at 12.0 min, 99.5%/0.5% at 12.1 min, 99.5%/0.5% at 15.0 min)
AC$CHROMATOGRAPHY: FLOW_RATE 0.3 ml/min at 0 min, 0.3 ml/min at 10 min, 0.4 ml/min at 10.1 min, 0.4 ml/min at 14.4 min, 0.3 ml/min at 14.5 min
AC$CHROMATOGRAPHY: RETENTION_TIME 4.5546
AC$CHROMATOGRAPHY: SOLVENT A water including 0.1% formic acid
AC$CHROMATOGRAPHY: SOLVENT B acetonitrile including 0.1% formic acid
MS$FOCUSED_ION: PRECURSOR_TYPE [M+H]+
MS$FOCUSED_ION: PRECURSOR_M/Z 355.2016192
PK$SPLASH: splash10-0006-0890000000-d47b69c77b4b3d1016cf
PK$NUM_PEAK: 346
PK$PEAK: m/z int. rel.int.
  55.05704 11.0 11
  59.04077 26.0 26
  59.04905 243.0 243
  59.75015 8.0 8
  60.05278 5.0 5
  60.05666 11.0 11
  68.04776 9.0 9
  70.06093 5.0 5
  70.06609 19.0 19
  82.05653 6.0 6
  85.07268 13.0 13
  85.47691 7.0 7
  86.30881 6.0 6
  91.05254 25.0 25
  91.05924 8.0 8
  93.05653 8.0 8
  93.06181 15.0 15
  93.06771 7.0 7
  93.57091 6.0 6
  94.06565 8.0 8
  96.07858 12.0 12
  106.05847 12.0 12
  106.06402 17.0 17
  108.04654 16.0 16
  108.0869 5.0 5
  110.05882 7.0 7
  116.05418 31.0 31
  117.0564 24.0 24
  117.25733 15.0 15
  118.04858 6.0 6
  118.0607 11.0 11
  118.0688 14.0 14
  119.04768 8.0 8
  119.07131 11.0 11
  122.31402 8.0 8
  128.0582 18.0 18
  129.05762 8.0 8
  130.058 16.0 16
  130.06706 54.0 54
  130.5825 6.0 6
  131.06938 8.0 8
  132.08302 17.0 17
  134.06023 7.0 7
  136.11584 11.0 11
  140.04768 9.0 9
  141.05232 6.0 6
  142.06508 19.0 19
  143.07141 39.0 39
  144.04654 25.0 25
  144.0816 9.0 9
  144.08853 8.0 8
  145.45856 7.0 7
  151.05678 6.0 6
  152.05313 31.0 31
  152.06689 32.0 32
  153.05627 10.0 10
  153.63225 5.0 5
  154.05846 19.0 19
  154.06573 22.0 22
  154.07196 17.0 17
  154.11903 7.0 7
  155.06557 6.0 6
  155.07419 8.0 8
  155.08055 6.0 6
  156.07207 7.0 7
  156.08379 19.0 19
  157.04839 17.0 17
  157.07362 11.0 11
  157.0798 7.0 7
  157.09367 13.0 13
  157.36708 29.0 29
  158.07562 5.0 5
  158.09494 9.0 9
  159.09955 5.0 5
  160.07466 6.0 6
  160.90727 8.0 8
  164.04713 8.0 8
  165.06389 45.0 45
  165.07243 36.0 36
  165.07811 15.0 15
  165.09645 14.0 14
  166.05475 38.0 38
  166.06596 52.0 52
  166.07971 13.0 13
  166.0903 8.0 8
  167.04602 8.0 8
  167.0692 219.0 219
  167.07655 164.0 164
  167.1086 15.0 15
  168.06407 26.0 26
  168.08006 419.0 419
  169.07651 58.0 58
  169.09065 33.0 33
  170.05675 5.0 5
  170.06555 6.0 6
  170.08551 11.0 11
  170.73343 5.0 5
  171.10921 6.0 6
  172.07011 7.0 7
  172.20451 6.0 6
  174.35957 16.0 16
  175.86951 5.0 5
  176.06648 14.0 14
  176.07791 6.0 6
  176.69603 6.0 6
  177.05862 17.0 17
  177.06879 25.0 25
  178.04747 6.0 6
  178.05618 11.0 11
  178.06686 25.0 25
  178.07915 6.0 6
  179.02037 5.0 5
  179.05247 25.0 25
  179.06827 57.0 57
  179.07713 99.0 99
  179.74872 7.0 7
  180.06216 26.0 26
  180.08105 451.0 451
  180.10663 6.0 6
  180.90686 5.0 5
  181.07639 99.0 99
  181.08612 131.0 131
  181.097 23.0 23
  181.11554 17.0 17
  182.07848 6.0 6
  182.08681 17.0 17
  182.09491 33.0 33
  182.1041 16.0 16
  183.08524 6.0 6
  183.09464 6.0 6
  183.11166 13.0 13
  183.78877 16.0 16
  184.05125 11.0 11
  184.10162 17.0 17
  186.07912 5.0 5
  186.09511 7.0 7
  189.05794 6.0 6
  189.06908 9.0 9
  190.05266 17.0 17
  190.06461 29.0 29
  190.08791 15.0 15
  191.05403 21.0 21
  191.07231 247.0 247
  191.09489 5.0 5
  191.17351 7.0 7
  192.05182 15.0 15
  192.06374 40.0 40
  192.08142 334.0 334
  193.03204 7.0 7
  193.04752 14.0 14
  193.05838 21.0 21
  193.08685 592.0 591
  193.0945 203.0 203
  193.12556 5.0 5
  193.14238 20.0 20
  193.22601 8.0 8
  193.36732 6.0 6
  194.03133 16.0 16
  194.06383 46.0 46
  194.07208 25.0 25
  194.09731 1000.0 999
  194.11681 9.0 9
  195.0701 50.0 50
  195.10075 125.0 125
  195.12225 13.0 13
  195.56076 5.0 5
  196.05539 11.0 11
  196.07683 7.0 7
  196.10619 26.0 26
  196.11705 7.0 7
  196.83397 5.0 5
  197.09187 21.0 21
  197.11127 11.0 11
  197.36288 7.0 7
  198.11945 5.0 5
  200.30847 10.0 10
  202.08476 8.0 8
  203.04871 6.0 6
  203.06828 36.0 36
  203.07948 44.0 44
  203.08995 12.0 12
  203.2444 10.0 10
  204.02737 7.0 7
  204.04813 5.0 5
  204.08156 400.0 400
  204.12914 6.0 6
  204.26385 8.0 8
  205.03984 7.0 7
  205.07494 82.0 82
  205.08812 189.0 189
  205.13019 11.0 11
  206.04289 9.0 9
  206.05226 5.0 5
  206.07651 33.0 33
  206.09561 254.0 254
  206.82487 8.0 8
  207.05243 10.0 10
  207.06799 52.0 52
  207.09193 94.0 94
  207.10596 91.0 91
  208.07285 75.0 75
  208.10941 491.0 491
  208.23647 6.0 6
  209.05702 10.0 10
  209.06792 10.0 10
  209.0769 5.0 5
  209.1104 125.0 125
  209.12532 8.0 8
  209.4292 6.0 6
  210.07237 5.0 5
  210.09377 37.0 37
  210.12245 12.0 12
  211.09694 6.0 6
  211.11835 7.0 7
  212.11171 8.0 8
  216.08385 5.0 5
  217.07445 38.0 38
  217.0864 94.0 94
  217.09688 73.0 73
  218.0876 96.0 96
  218.09758 359.0 359
  218.12241 20.0 20
  219.02383 6.0 6
  219.05437 24.0 24
  219.06491 39.0 39
  219.07332 25.0 25
  219.09015 67.0 67
  219.10693 79.0 79
  219.11758 11.0 11
  220.0482 5.0 5
  220.07402 385.0 385
  220.09976 117.0 117
  220.11174 134.0 134
  220.12299 34.0 34
  221.08298 103.0 103
  221.10323 38.0 38
  221.11639 90.0 90
  221.7758 6.0 6
  222.06374 8.0 8
  222.0867 58.0 58
  222.10431 55.0 55
  222.12799 68.0 68
  223.04831 8.0 8
  223.093 21.0 21
  224.0551 11.0 11
  224.0885 6.0 6
  224.13571 8.0 8
  225.11584 5.0 5
  226.09041 7.0 7
  227.34402 5.0 5
  228.07927 8.0 8
  228.09842 14.0 14
  228.10999 6.0 6
  229.09245 7.0 7
  230.07631 6.0 6
  230.08615 9.0 9
  230.09973 60.0 60
  230.11684 15.0 15
  231.0614 5.0 5
  231.10202 44.0 44
  232.07658 6.0 6
  232.10066 29.0 29
  232.11665 36.0 36
  232.74908 7.0 7
  233.05443 33.0 33
  233.0735 43.0 43
  233.10652 39.0 39
  233.11716 49.0 49
  234.07721 26.0 26
  234.09349 141.0 141
  234.1208 83.0 83
  234.13361 35.0 35
  235.09282 18.0 18
  235.11372 65.0 65
  235.12543 35.0 35
  235.16837 6.0 6
  235.27496 6.0 6
  236.08618 5.0 5
  236.10034 44.0 44
  236.11528 36.0 36
  237.10709 9.0 9
  237.92601 12.0 12
  238.08931 11.0 11
  238.10275 5.0 5
  239.82164 7.0 7
  243.09273 15.0 15
  244.05121 6.0 6
  244.06203 8.0 8
  244.07983 40.0 40
  244.11513 6.0 6
  244.12613 6.0 6
  245.07492 11.0 11
  245.11841 27.0 27
  245.16612 8.0 8
  246.07979 52.0 52
  246.09402 196.0 196
  246.11807 15.0 15
  246.55441 9.0 9
  247.05212 6.0 6
  247.06177 9.0 9
  247.08998 82.0 82
  247.11229 42.0 42
  247.12399 22.0 22
  247.13272 21.0 21
  248.07938 16.0 16
  248.0947 18.0 18
  248.10873 26.0 26
  248.12912 18.0 18
  248.16266 10.0 10
  248.81789 7.0 7
  249.11583 10.0 10
  249.13484 18.0 18
  250.11484 15.0 15
  250.13025 15.0 15
  251.15013 8.0 8
  254.16971 12.0 12
  257.1033 6.0 6
  260.10455 7.0 7
  261.09903 19.0 19
  261.10809 15.0 15
  262.10489 13.0 13
  262.14114 5.0 5
  262.15237 12.0 12
  263.1174 53.0 53
  263.15594 6.0 6
  264.14636 14.0 14
  264.16492 9.0 9
  265.08566 5.0 5
  265.12302 6.0 6
  265.14139 9.0 9
  268.14212 8.0 8
  268.89294 7.0 7
  272.10303 10.0 10
  273.1113 8.0 8
  275.13132 14.0 14
  276.12524 9.0 9
  280.13705 5.0 5
  295.13779 10.0 10
  295.17673 5.0 5
  323.14047 7.0 7
  323.17233 69.0 69
  324.17416 19.0 19
  355.17334 5.0 5
  355.18381 22.0 22
  355.20078 17.0 17
  355.21555 19.0 19
//
