ACCESSION: MSBNK-RIKEN-PR300055
RECORD_TITLE: Gelsenicine; LC-ESI-QTOF; MS2
DATE: 2019.03.28
AUTHORS: Tetsuya Mori, Center for Sustainable Resource Science, RIKEN
LICENSE: CC BY-NC-SA
PUBLICATION: Tsugawa H., Nakabayashi R., Mori T., Yamada Y., Takahashi M., Rai A., Sugiyama R., Yamamoto H., Nakaya T., Yamazaki M., Kooke R., Bac-Molenaar JA., Oztolan-Erol N., Keurentjes JJB., Arita M., Saito K. (2019) "A cheminformatics approach to characterize metabolomes in stable-isotope-labeled organisms" Nature Methods 16(4):295-298. [doi:10.1038/s41592-019-0358-2]
COMMENT: registered in RIKEN PlaSMA
CH$NAME: Gelsenicine
CH$COMPOUND_CLASS: Indoles and derivatives
CH$FORMULA: C19H22N2O3
CH$EXACT_MASS: 326.396
CH$SMILES: CCC1=N[C@H]2C[C@]3([C@H]4C[C@@H]1[C@@H]2CO4)C(=O)N(OC)C1=CC=CC=C31
CH$IUPAC: InChI=1S/C19H22N2O3/c1-3-14-11-8-17-19(9-15(20-14)12(11)10-24-17)13-6-4-5-7-16(13)21(23-2)18(19)22/h4-7,11-12,15,17H,3,8-10H2,1-2H3/t11-,12+,15+,17-,19+/m1/s1
CH$LINK: INCHIKEY BIGABVPVCRHEES-NWPJSNQLSA-N
AC$INSTRUMENT: LC, Waters Acquity UPLC System; MS, Waters Xevo G2 Q-Tof
AC$INSTRUMENT_TYPE: LC-ESI-QTOF
AC$MASS_SPECTROMETRY: MS_TYPE MS2
AC$MASS_SPECTROMETRY: ION_MODE POSITIVE
AC$MASS_SPECTROMETRY: COLLISION_ENERGY 6V
AC$MASS_SPECTROMETRY: DESOLVATION_GAS_FLOW 800/h
AC$MASS_SPECTROMETRY: DESOLVATION_TEMPERATURE 450 C
AC$MASS_SPECTROMETRY: IONIZATION ESI
AC$CHROMATOGRAPHY: CAPILLARY_VOLTAGE +3.00 kV
AC$CHROMATOGRAPHY: COLUMN_NAME Acquity bridged ethyl hybrid C18 (1.7 um, 2.1 mm * 100 mm, Waters)
AC$CHROMATOGRAPHY: COLUMN_TEMPERATURE 40 C
AC$CHROMATOGRAPHY: FLOW_GRADIENT A/B = (99.5%/0.5% at 0 min, 99.5%/0.5% at 0.1 min, 20%/80% at 10 min, 0.5%/99.5% at 10.1 min, 0.5%/99.5% at 12.0 min, 99.5%/0.5% at 12.1 min, 99.5%/0.5% at 15.0 min)
AC$CHROMATOGRAPHY: FLOW_RATE 0.3 ml/min at 0 min, 0.3 ml/min at 10 min, 0.4 ml/min at 10.1 min, 0.4 ml/min at 14.4 min, 0.3 ml/min at 14.5 min
AC$CHROMATOGRAPHY: RETENTION_TIME 3.986933
AC$CHROMATOGRAPHY: SOLVENT A water including 0.1% formic acid
AC$CHROMATOGRAPHY: SOLVENT B acetonitrile including 0.1% formic acid
MS$FOCUSED_ION: PRECURSOR_TYPE [M+H]+
MS$FOCUSED_ION: PRECURSOR_M/Z 327.170319
PK$SPLASH: splash10-0a7i-1960000000-9120f6eeb6ddf8bd19bf
PK$NUM_PEAK: 527
PK$PEAK: m/z int. rel.int.
  56.04193 12.0 12
  56.04884 19.0 19
  58.06559 28.0 28
  63.02606 7.0 7
  66.04271 7.0 7
  66.50645 9.0 9
  67.04221 23.0 23
  68.04669 19.0 19
  69.06978 15.0 15
  70.06364 31.0 31
  70.06872 31.0 31
  71.06957 28.0 28
  71.07539 37.0 37
  71.68278 6.0 6
  72.07223 6.0 6
  77.04063 9.0 9
  77.04398 6.0 6
  78.04537 9.0 9
  78.35327 12.0 12
  79.05392 19.0 19
  79.06064 8.0 8
  80.03884 22.0 22
  80.04944 279.0 279
  80.94024 7.0 7
  81.04749 17.0 17
  81.0582 24.0 24
  81.07056 7.0 7
  82.06182 6.0 6
  82.06643 28.0 28
  84.0409 6.0 6
  84.07092 5.0 5
  84.08084 36.0 36
  84.42913 5.0 5
  85.09048 7.0 7
  86.08549 7.0 7
  89.37628 6.0 6
  90.03375 15.0 15
  91.05068 41.0 41
  91.05605 50.0 50
  92.05312 14.0 14
  93.05872 135.0 135
  94.05526 19.0 19
  94.06568 141.0 141
  95.06855 68.0 68
  95.075 91.0 91
  96.04424 89.0 89
  96.07114 15.0 15
  96.07746 38.0 38
  96.08408 29.0 29
  96.7225 6.0 6
  97.04218 5.0 5
  97.04986 15.0 15
  97.08601 17.0 17
  98.05692 6.0 6
  101.0396 26.0 26
  102.03522 6.0 6
  102.26613 7.0 7
  103.04228 5.0 5
  104.04221 14.0 14
  104.04804 44.0 44
  104.06218 9.0 9
  104.93679 7.0 7
  105.04374 8.0 8
  105.05767 15.0 15
  105.06665 42.0 42
  106.06322 84.0 84
  106.06807 28.0 28
  107.07247 78.0 78
  108.04138 5.0 5
  108.08026 1000.0 999
  109.08378 51.0 51
  109.09193 25.0 25
  109.09834 9.0 9
  110.09594 52.0 52
  110.41301 6.0 6
  112.07789 8.0 8
  112.46 14.0 14
  113.42891 7.0 7
  115.05419 108.0 108
  116.04279 11.0 11
  116.0475 30.0 30
  116.06236 24.0 24
  117.04049 10.0 10
  117.05792 111.0 111
  117.06937 28.0 28
  117.2028 6.0 6
  118.05835 56.0 56
  118.06841 85.0 85
  119.06476 9.0 9
  120.04209 7.0 7
  120.07699 26.0 26
  120.08286 29.0 29
  121.04839 6.0 6
  121.05749 6.0 6
  121.07893 52.0 52
  121.09187 20.0 20
  122.05878 161.0 161
  122.09196 74.0 74
  122.09909 64.0 64
  122.57111 5.0 5
  123.05912 18.0 18
  123.06599 12.0 12
  123.0965 10.0 10
  124.07882 13.0 13
  125.02092 5.0 5
  126.09224 6.0 6
  127.03691 6.0 6
  127.04635 10.0 10
  127.05265 25.0 25
  127.06037 6.0 6
  127.70664 5.0 5
  128.01035 12.0 12
  128.04694 46.0 46
  128.0565 14.0 14
  128.06366 23.0 23
  129.05122 24.0 24
  129.06488 44.0 44
  129.07451 32.0 32
  130.01331 12.0 12
  130.05336 29.0 29
  130.06451 170.0 170
  131.06993 32.0 32
  132.02744 11.0 11
  132.04173 56.0 56
  132.04834 90.0 90
  132.05835 12.0 12
  132.06995 11.0 11
  132.08138 76.0 76
  132.66704 6.0 6
  132.82185 6.0 6
  133.03348 6.0 6
  133.04408 23.0 23
  133.05484 16.0 16
  133.07803 12.0 12
  133.08585 16.0 16
  134.02426 8.0 8
  134.05504 8.0 8
  134.09535 23.0 23
  135.0851 7.0 7
  136.07129 52.0 52
  136.09712 8.0 8
  136.1096 6.0 6
  136.11674 6.0 6
  138.0419 11.0 11
  138.0867 24.0 24
  138.09868 32.0 32
  139.04964 13.0 13
  139.0582 13.0 13
  139.09146 5.0 5
  139.56432 5.0 5
  140.03122 7.0 7
  140.05162 50.0 50
  141.05319 8.0 8
  141.06772 43.0 43
  141.07515 37.0 37
  142.05933 22.0 22
  142.06598 76.0 76
  143.06593 32.0 32
  143.07344 58.0 58
  144.0472 49.0 49
  144.0714 20.0 20
  144.07928 102.0 102
  144.09254 5.0 5
  145.06448 17.0 17
  145.08401 21.0 21
  146.01549 15.0 15
  146.02766 65.0 65
  146.05838 19.0 19
  146.09338 6.0 6
  146.10796 5.0 5
  147.02458 6.0 6
  147.06735 10.0 10
  148.07535 39.0 39
  150.08807 5.0 5
  151.03902 11.0 11
  151.05385 80.0 80
  151.12944 7.0 7
  151.97771 5.0 5
  152.04428 60.0 60
  152.05701 139.0 139
  152.09953 6.0 6
  153.05011 23.0 23
  153.05643 19.0 19
  153.06609 17.0 17
  153.07198 28.0 28
  154.04555 16.0 16
  154.06526 193.0 193
  154.07715 17.0 17
  154.11743 7.0 7
  155.0695 43.0 43
  155.07803 41.0 41
  155.08678 6.0 6
  155.61972 10.0 10
  156.04388 40.0 40
  156.05356 19.0 19
  156.07344 10.0 10
  156.08363 12.0 12
  157.07323 8.0 8
  158.05688 6.0 6
  158.06444 10.0 10
  158.08963 6.0 6
  158.09631 19.0 19
  159.0731 13.0 13
  160.06844 15.0 15
  160.08514 6.0 6
  160.09271 9.0 9
  162.08441 8.0 8
  163.05806 9.0 9
  163.61024 6.0 6
  164.05457 60.0 60
  165.02002 10.0 10
  165.03979 6.0 6
  165.05063 72.0 72
  165.0591 161.0 161
  165.06859 137.0 137
  166.03217 6.0 6
  166.04597 16.0 16
  166.06555 278.0 278
  167.03264 8.0 8
  167.04295 22.0 22
  167.07306 295.0 295
  167.57149 6.0 6
  167.59108 6.0 6
  168.05995 52.0 52
  168.07919 137.0 137
  169.0527 25.0 25
  169.06769 19.0 19
  169.07536 21.0 21
  169.08386 30.0 30
  169.09401 11.0 11
  169.92546 7.0 7
  170.04666 10.0 10
  170.05942 81.0 81
  171.04022 7.0 7
  171.07681 11.0 11
  171.09549 13.0 13
  172.07118 6.0 6
  175.07968 12.0 12
  176.05135 13.0 13
  176.06117 12.0 12
  176.07356 19.0 19
  177.02049 8.0 8
  177.04515 22.0 22
  177.0623 78.0 78
  178.04532 33.0 33
  178.06535 721.0 720
  178.09239 6.0 6
  179.02643 12.0 12
  179.05138 17.0 17
  179.07289 275.0 275
  179.08875 85.0 85
  179.23036 7.0 7
  180.05055 14.0 14
  180.06612 67.0 67
  180.08104 343.0 343
  180.47603 6.0 6
  181.0618 16.0 16
  181.06769 39.0 39
  181.07887 88.0 88
  181.08978 119.0 119
  181.10245 8.0 8
  182.02739 8.0 8
  182.05742 102.0 102
  182.08577 171.0 171
  182.09779 33.0 33
  182.1057 8.0 8
  183.06631 260.0 260
  183.09473 27.0 27
  183.35056 11.0 11
  183.54309 6.0 6
  184.01196 8.0 8
  184.01884 7.0 7
  184.07127 117.0 117
  184.08768 10.0 10
  184.10294 9.0 9
  184.53413 10.0 10
  185.06905 5.0 5
  185.08107 7.0 7
  186.08926 8.0 8
  186.59949 7.0 7
  187.03484 10.0 10
  188.07021 8.0 8
  189.07878 16.0 16
  189.72423 8.0 8
  190.00333 6.0 6
  190.02922 9.0 9
  190.04524 6.0 6
  190.06277 146.0 146
  190.07153 95.0 95
  190.47339 5.0 5
  191.073 259.0 259
  191.08429 46.0 46
  191.09808 6.0 6
  192.06706 35.0 35
  192.08055 160.0 160
  193.05037 18.0 18
  193.07343 99.0 99
  193.0842 77.0 77
  193.09581 8.0 8
  193.17769 7.0 7
  194.05426 30.0 30
  194.06682 39.0 39
  194.07973 47.0 47
  194.08992 68.0 68
  194.10251 40.0 40
  194.85651 6.0 6
  195.06662 116.0 116
  195.08849 121.0 121
  195.10583 23.0 23
  195.31184 5.0 5
  195.6171 9.0 9
  196.07372 288.0 288
  196.10368 21.0 21
  197.04504 6.0 6
  197.05301 23.0 23
  197.07124 54.0 54
  197.08391 69.0 69
  197.09929 15.0 15
  198.05246 16.0 16
  198.0656 8.0 8
  198.08238 21.0 21
  198.09586 12.0 12
  199.08743 6.0 6
  199.09479 9.0 9
  199.77753 11.0 11
  201.06561 24.0 24
  201.07484 16.0 16
  202.02917 7.0 7
  202.06247 80.0 80
  202.07295 125.0 125
  202.41872 6.0 6
  203.06667 69.0 69
  203.07738 80.0 80
  203.08852 36.0 36
  204.05814 17.0 17
  204.08057 389.0 389
  204.80428 13.0 13
  205.0611 19.0 19
  205.07579 80.0 80
  205.08499 49.0 49
  205.09172 58.0 58
  206.05916 31.0 31
  206.07452 54.0 54
  206.09151 296.0 296
  206.1041 71.0 71
  206.83411 5.0 5
  207.05814 8.0 8
  207.0679 34.0 34
  207.07887 51.0 51
  207.0896 121.0 121
  207.09993 138.0 138
  207.70901 8.0 8
  208.07709 256.0 256
  208.10219 112.0 112
  208.11322 23.0 23
  208.1433 6.0 6
  209.06189 28.0 28
  209.07272 88.0 88
  209.08841 41.0 41
  209.10623 22.0 22
  210.05338 10.0 10
  210.06985 67.0 67
  210.07898 245.0 245
  210.10526 9.0 9
  210.11731 5.0 5
  211.08171 58.0 58
  211.09711 12.0 12
  211.11967 12.0 12
  212.10187 7.0 7
  213.06425 11.0 11
  213.20888 6.0 6
  214.05037 18.0 18
  214.06172 74.0 74
  214.07037 68.0 68
  215.07132 245.0 245
  215.09087 6.0 6
  216.06923 28.0 28
  216.08084 47.0 47
  217.04216 10.0 10
  217.06075 21.0 21
  217.07799 131.0 131
  217.08905 30.0 30
  218.07578 16.0 16
  218.08875 29.0 29
  218.1114 9.0 9
  218.13731 9.0 9
  218.66611 10.0 10
  219.07048 110.0 110
  219.09134 125.0 125
  220.05431 6.0 6
  220.06355 16.0 16
  220.07681 46.0 46
  220.0865 54.0 54
  220.10497 75.0 75
  221.04811 6.0 6
  221.06178 7.0 7
  221.07324 68.0 68
  221.10583 47.0 47
  222.06703 22.0 22
  222.08319 26.0 26
  222.09441 44.0 44
  222.10902 56.0 56
  222.12628 6.0 6
  222.69829 8.0 8
  222.73186 6.0 6
  223.08728 102.0 102
  223.10304 17.0 17
  223.13258 15.0 15
  223.6989 5.0 5
  224.07181 25.0 25
  224.09268 32.0 32
  224.10876 67.0 67
  224.13603 11.0 11
  225.06845 8.0 8
  225.08212 26.0 26
  225.10124 220.0 220
  225.84532 6.0 6
  226.06076 8.0 8
  226.1064 36.0 36
  227.0555 10.0 10
  227.07037 28.0 28
  227.12349 7.0 7
  228.06235 8.0 8
  228.08366 109.0 109
  228.5544 5.0 5
  228.85698 7.0 7
  229.0627 17.0 17
  229.08971 116.0 116
  229.99722 8.0 8
  230.04866 6.0 6
  230.06898 6.0 6
  230.08841 146.0 146
  230.09758 177.0 177
  231.0865 73.0 73
  231.10132 126.0 126
  231.66426 6.0 6
  232.05473 27.0 27
  232.07428 57.0 57
  232.10095 95.0 95
  232.12384 8.0 8
  233.04547 6.0 6
  233.08455 339.0 339
  233.10239 40.0 40
  233.16714 5.0 5
  233.2892 5.0 5
  234.04305 6.0 6
  234.08167 127.0 127
  234.10931 30.0 30
  234.12762 8.0 8
  234.84604 10.0 10
  235.04274 9.0 9
  235.06078 8.0 8
  235.08838 373.0 373
  235.12852 19.0 19
  236.06647 6.0 6
  236.08517 34.0 34
  236.09753 35.0 35
  236.11388 14.0 14
  236.14191 13.0 13
  236.27328 8.0 8
  236.99245 12.0 12
  237.07367 6.0 6
  237.08609 10.0 10
  237.10368 49.0 49
  237.12709 7.0 7
  237.14626 36.0 36
  238.112 22.0 22
  238.14375 13.0 13
  238.51564 6.0 6
  239.10939 32.0 32
  239.12456 11.0 11
  240.07849 5.0 5
  241.40646 5.0 5
  242.75024 6.0 6
  243.08659 11.0 11
  243.09734 7.0 7
  244.09097 6.0 6
  244.12585 9.0 9
  244.90442 5.0 5
  245.10184 6.0 6
  245.11989 13.0 13
  246.09076 18.0 18
  246.11795 10.0 10
  247.06651 5.0 5
  247.08932 119.0 119
  247.1283 36.0 36
  248.08073 9.0 9
  248.10583 89.0 89
  248.13255 7.0 7
  249.08472 10.0 10
  249.09657 27.0 27
  249.10826 64.0 64
  249.12555 6.0 6
  249.1371 12.0 12
  249.43626 5.0 5
  250.07782 8.0 8
  250.1095 33.0 33
  250.13293 10.0 10
  251.10231 10.0 10
  251.11945 7.0 7
  252.09323 6.0 6
  252.11726 7.0 7
  260.39359 10.0 10
  261.10165 8.0 8
  262.11035 6.0 6
  263.11426 19.0 19
  264.11462 7.0 7
  264.1239 24.0 24
  265.0636 9.0 9
  265.0831 6.0 6
  265.09976 5.0 5
  265.13269 121.0 121
  266.13043 13.0 13
  266.142 34.0 34
  267.11295 14.0 14
  267.12271 6.0 6
  267.15588 6.0 6
  277.12402 12.0 12
  277.13586 12.0 12
  279.13568 8.0 8
  279.15143 27.0 27
  287.18396 14.0 14
  295.13568 8.0 8
  296.15155 5.0 5
  297.15903 13.0 13
  327.15701 6.0 6
  327.17664 41.0 41
//
