ACCESSION: MSBNK-RIKEN-PR302812
RECORD_TITLE: Quercetin; LC-ESI-QTOF; MS2
DATE: 2019.03.28
AUTHORS: Tetsuya Mori, Center for Sustainable Resource Science, RIKEN
LICENSE: CC BY-NC-SA
PUBLICATION: Tsugawa H., Nakabayashi R., Mori T., Yamada Y., Takahashi M., Rai A., Sugiyama R., Yamamoto H., Nakaya T., Yamazaki M., Kooke R., Bac-Molenaar JA., Oztolan-Erol N., Keurentjes JJB., Arita M., Saito K. (2019) "A cheminformatics approach to characterize metabolomes in stable-isotope-labeled organisms" Nature Methods 16(4):295-298. [doi:10.1038/s41592-019-0358-2]
COMMENT: registered in RIKEN PlaSMA
CH$NAME: Quercetin
CH$COMPOUND_CLASS: Flavonols
CH$FORMULA: C15H10O7
CH$EXACT_MASS: 302.238
CH$SMILES: OC1=CC(O)=C2C(OC(=C(O)C2=O)C2=CC(O)=C(O)C=C2)=C1
CH$IUPAC: InChI=1S/C15H10O7/c16-7-4-10(19)12-11(5-7)22-15(14(21)13(12)20)6-1-2-8(17)9(18)3-6/h1-5,16-19,21H
CH$LINK: INCHIKEY REFJWTPEDVJJIY-UHFFFAOYSA-N
AC$INSTRUMENT: LC, Waters Acquity UPLC System; MS, Waters Xevo G2 Q-Tof
AC$INSTRUMENT_TYPE: LC-ESI-QTOF
AC$MASS_SPECTROMETRY: MS_TYPE MS2
AC$MASS_SPECTROMETRY: ION_MODE POSITIVE
AC$MASS_SPECTROMETRY: COLLISION_ENERGY 6V
AC$MASS_SPECTROMETRY: DESOLVATION_GAS_FLOW 800/h
AC$MASS_SPECTROMETRY: DESOLVATION_TEMPERATURE 450 C
AC$MASS_SPECTROMETRY: IONIZATION ESI
AC$CHROMATOGRAPHY: CAPILLARY_VOLTAGE +3.00 kV
AC$CHROMATOGRAPHY: COLUMN_NAME Acquity bridged ethyl hybrid C18 (1.7 um, 2.1 mm * 100 mm, Waters)
AC$CHROMATOGRAPHY: COLUMN_TEMPERATURE 40 C
AC$CHROMATOGRAPHY: FLOW_GRADIENT A/B = (99.5%/0.5% at 0 min, 99.5%/0.5% at 0.1 min, 20%/80% at 10 min, 0.5%/99.5% at 10.1 min, 0.5%/99.5% at 12.0 min, 99.5%/0.5% at 12.1 min, 99.5%/0.5% at 15.0 min)
AC$CHROMATOGRAPHY: FLOW_RATE 0.3 ml/min at 0 min, 0.3 ml/min at 10 min, 0.4 ml/min at 10.1 min, 0.4 ml/min at 14.4 min, 0.3 ml/min at 14.5 min
AC$CHROMATOGRAPHY: RETENTION_TIME 5.3665
AC$CHROMATOGRAPHY: SOLVENT A water including 0.1% formic acid
AC$CHROMATOGRAPHY: SOLVENT B acetonitrile including 0.1% formic acid
MS$FOCUSED_ION: PRECURSOR_TYPE [M+H]+
MS$FOCUSED_ION: PRECURSOR_M/Z 303.0499291
PK$SPLASH: splash10-0ufr-0971000000-3b0cb0c638ef7b267a37
PK$NUM_PEAK: 217
PK$PEAK: m/z int. rel.int.
  65.03495 26.0 26
  67.01376 10.0 10
  67.01954 15.0 15
  67.05567 12.0 12
  68.99142 55.0 55
  68.99694 48.0 48
  69.26312 9.0 9
  81.02994 24.0 24
  81.03371 59.0 59
  81.07034 12.0 12
  82.03872 18.0 18
  85.02674 11.0 11
  93.0345 90.0 90
  95.04113 12.0 12
  95.04884 55.0 55
  95.40752 13.0 13
  105.02795 11.0 11
  106.25535 10.0 10
  107.011 25.0 25
  107.05124 26.0 26
  109.02773 111.0 111
  109.03664 18.0 18
  110.03821 9.0 9
  111.00397 53.0 53
  111.00949 46.0 46
  111.03701 11.0 11
  113.90272 13.0 13
  115.05295 20.0 20
  115.52299 10.0 10
  116.20184 12.0 12
  117.07044 84.0 84
  119.05532 13.0 13
  121.02952 128.0 128
  123.00297 9.0 9
  123.0382 11.0 11
  123.04468 18.0 18
  123.84927 13.0 13
  124.0431 14.0 14
  127.0349 11.0 11
  127.05511 67.0 67
  128.05785 13.0 13
  131.04776 36.0 36
  133.02397 17.0 17
  133.0619 15.0 15
  135.04068 63.0 63
  135.04939 13.0 13
  136.01155 12.0 12
  136.03755 17.0 17
  137.00952 42.0 42
  137.02225 706.0 705
  137.78578 13.0 13
  138.02516 62.0 62
  138.03528 18.0 18
  138.69531 9.0 9
  139.0256 15.0 15
  143.05455 32.0 32
  145.0567 33.0 33
  145.07437 13.0 13
  149.01872 13.0 13
  149.02628 42.0 42
  149.05624 16.0 16
  150.028 26.0 26
  153.00595 123.0 123
  153.01781 1000.0 999
  153.42215 10.0 10
  154.01399 57.0 57
  154.02394 99.0 99
  155.03192 20.0 20
  155.04662 177.0 177
  157.06076 32.0 32
  157.07043 16.0 16
  158.06219 15.0 15
  159.03981 29.0 29
  160.03142 14.0 14
  161.05513 24.0 24
  161.06409 60.0 60
  163.039 130.0 130
  163.0489 19.0 19
  164.03622 12.0 12
  165.01855 525.0 524
  166.02122 79.0 79
  166.02971 44.0 44
  167.01842 13.0 13
  167.04848 10.0 10
  173.02278 20.0 20
  173.03836 9.0 9
  173.04781 39.0 39
  173.06001 147.0 147
  174.05984 34.0 34
  174.7791 11.0 11
  175.04417 17.0 17
  175.06161 18.0 18
  177.01273 26.0 26
  177.02312 39.0 39
  177.05537 31.0 31
  179.01907 9.0 9
  179.03084 75.0 75
  180.01299 12.0 12
  180.03365 10.0 10
  183.04097 170.0 170
  183.05156 54.0 54
  183.70337 10.0 10
  184.04347 10.0 10
  184.05724 13.0 13
  185.04721 20.0 20
  187.03687 134.0 134
  187.04391 57.0 57
  188.04285 16.0 16
  189.05028 27.0 27
  190.91708 10.0 10
  190.95688 11.0 11
  191.02951 28.0 28
  191.03839 34.0 34
  191.06148 44.0 44
  192.03836 14.0 14
  192.73221 13.0 13
  192.99565 17.0 17
  195.02467 12.0 12
  195.03313 28.0 28
  197.02119 10.0 10
  199.04297 18.0 18
  200.04564 18.0 18
  201.02341 13.0 13
  201.05455 554.0 553
  202.05298 21.0 21
  202.07286 18.0 18
  202.94916 15.0 15
  203.02495 15.0 15
  204.04042 42.0 42
  205.01982 32.0 32
  205.04887 60.0 60
  208.03653 12.0 12
  208.2021 14.0 14
  209.36107 9.0 9
  210.93919 20.0 20
  211.04294 16.0 16
  212.04318 12.0 12
  212.25476 11.0 11
  212.39059 17.0 17
  213.04591 31.0 31
  213.05992 30.0 30
  214.06213 10.0 10
  215.02136 10.0 10
  215.02994 10.0 10
  216.04604 11.0 11
  216.0544 12.0 12
  217.01718 9.0 9
  217.03603 14.0 14
  217.05431 18.0 18
  219.02101 14.0 14
  219.03072 18.0 18
  219.06119 45.0 45
  221.00604 11.0 11
  221.06007 17.0 17
  222.87587 13.0 13
  227.02785 24.0 24
  228.04395 98.0 98
  228.98595 16.0 16
  229.03804 252.0 252
  229.0491 995.0 994
  229.15375 11.0 11
  229.87218 9.0 9
  230.05283 73.0 73
  230.0652 47.0 47
  230.11424 23.0 23
  230.78694 10.0 10
  230.87698 14.0 14
  231.05948 45.0 45
  231.07735 13.0 13
  231.26138 15.0 15
  232.04073 70.0 70
  233.05164 26.0 26
  233.22572 11.0 11
  234.05029 26.0 26
  239.03201 103.0 103
  239.04704 31.0 31
  240.02783 9.0 9
  243.03122 21.0 21
  245.04347 22.0 22
  245.05675 15.0 15
  246.03442 11.0 11
  246.05266 51.0 51
  247.0296 12.0 12
  247.06136 89.0 89
  247.07607 9.0 9
  248.06863 15.0 15
  256.89694 14.0 14
  257.01434 9.0 9
  257.0271 45.0 45
  257.04453 559.0 558
  257.06396 16.0 16
  257.94431 13.0 13
  258.02625 22.0 22
  258.04651 33.0 33
  272.13785 10.0 10
  273.04535 22.0 22
  274.01404 11.0 11
  274.04358 122.0 122
  274.05472 66.0 66
  275.04593 16.0 16
  275.06125 16.0 16
  276.68304 9.0 9
  284.02686 10.0 10
  285.0181 9.0 9
  285.04099 142.0 142
  285.05511 23.0 23
  286.0235 10.0 10
  286.03995 51.0 51
  286.05634 11.0 11
  292.24637 15.0 15
  294.48697 13.0 13
  300.49258 9.0 9
  302.03253 13.0 13
  302.05835 15.0 15
  303.01459 11.0 11
  303.05252 751.0 750
  303.19461 10.0 10
//
