ACCESSION: MSBNK-RIKEN-PR310921
RECORD_TITLE: Quercetin-3-O-rutinoside; LC-ESI-QTOF; MS2
DATE: 2019.03.28
AUTHORS: Tetsuya Mori, Center for Sustainable Resource Science, RIKEN
LICENSE: CC BY-NC-SA
PUBLICATION: Tsugawa H., Nakabayashi R., Mori T., Yamada Y., Takahashi M., Rai A., Sugiyama R., Yamamoto H., Nakaya T., Yamazaki M., Kooke R., Bac-Molenaar JA., Oztolan-Erol N., Keurentjes JJB., Arita M., Saito K. (2019) "A cheminformatics approach to characterize metabolomes in stable-isotope-labeled organisms" Nature Methods 16(4):295-298. [doi:10.1038/s41592-019-0358-2]
COMMENT: Annotation level-1
CH$NAME: Quercetin-3-O-rutinoside
CH$COMPOUND_CLASS: Flavonol O-glycosides
CH$FORMULA: C27H30O16
CH$EXACT_MASS: 610.521
CH$SMILES: C[C@H]1[C@@H]([C@H]([C@H]([C@@H](O1)OC[C@@H]2[C@H]([C@@H]([C@H]([C@@H](O2)OC3=C(OC4=CC(=CC(=C4C3=O)O)O)C5=CC(=C(C=C5)O)O)O)O)O)O)O)O
CH$IUPAC: InChI=1S/C27H30O16/c1-8-17(32)20(35)22(37)26(40-8)39-7-15-18(33)21(36)23(38)27(42-15)43-25-19(34)16-13(31)5-10(28)6-14(16)41-24(25)9-2-3-11(29)12(30)4-9/h2-6,8,15,17-18,20-23,26-33,35-38H,7H2,1H3/t8-,15+,17-,18+,20+,21-,22+,23+,26+,27-/m0/s1
CH$LINK: INCHIKEY IKGXIBQEEMLURG-NVPNHPEKSA-N
AC$INSTRUMENT: LC, Waters Acquity UPLC System; MS, Waters Xevo G2 Q-Tof
AC$INSTRUMENT_TYPE: LC-ESI-QTOF
AC$MASS_SPECTROMETRY: MS_TYPE MS2
AC$MASS_SPECTROMETRY: ION_MODE POSITIVE
AC$MASS_SPECTROMETRY: COLLISION_ENERGY 6V
AC$MASS_SPECTROMETRY: DESOLVATION_GAS_FLOW 800/h
AC$MASS_SPECTROMETRY: DESOLVATION_TEMPERATURE 450 C
AC$MASS_SPECTROMETRY: IONIZATION ESI
AC$CHROMATOGRAPHY: CAPILLARY_VOLTAGE +3.00 kV
AC$CHROMATOGRAPHY: COLUMN_NAME Acquity bridged ethyl hybrid C18 (1.7 um, 2.1 mm * 100 mm, Waters)
AC$CHROMATOGRAPHY: COLUMN_TEMPERATURE 40 C
AC$CHROMATOGRAPHY: FLOW_GRADIENT A/B = (99.5%/0.5% at 0 min, 99.5%/0.5% at 0.1 min, 20%/80% at 10 min, 0.5%/99.5% at 10.1 min, 0.5%/99.5% at 12.0 min, 99.5%/0.5% at 12.1 min, 99.5%/0.5% at 15.0 min)
AC$CHROMATOGRAPHY: FLOW_RATE 0.3 ml/min at 0 min, 0.3 ml/min at 10 min, 0.4 ml/min at 10.1 min, 0.4 ml/min at 14.4 min, 0.3 ml/min at 14.5 min
AC$CHROMATOGRAPHY: RETENTION_TIME 3.86
AC$CHROMATOGRAPHY: SOLVENT A water including 0.1% formic acid
AC$CHROMATOGRAPHY: SOLVENT B acetonitrile including 0.1% formic acid
MS$FOCUSED_ION: PRECURSOR_TYPE [M+H]+
MS$FOCUSED_ION: PRECURSOR_M/Z 611.16066
PK$SPLASH: splash10-0udi-0009100000-4e479b9e97223d5809f8
PK$NUM_PEAK: 50
PK$PEAK: m/z int. rel.int.
  57.03718 28.0 5
  57.14699 21.0 4
  57.51094 35.0 7
  71.05189 33.0 6
  85.02436 109.0 21
  85.03169 24.0 5
  97.02445 28.0 5
  129.04881 39.0 8
  129.05679 18.0 3
  147.06386 63.0 12
  148.06905 28.0 5
  163.05814 25.0 5
  200.17714 21.0 4
  233.81766 18.0 3
  243.08061 29.0 6
  266.33762 33.0 6
  273.03613 35.0 7
  273.0871 20.0 4
  292.57874 23.0 4
  301.2623 25.0 5
  301.6532 24.0 5
  302.65948 17.0 3
  303.04816 5183.0 999
  303.07181 373.0 72
  304.03033 167.0 32
  304.05341 1075.0 207
  304.08661 52.0 10
  305.04767 85.0 16
  305.07455 33.0 6
  305.51669 18.0 3
  310.12375 25.0 5
  345.0386 21.0 4
  345.0488 28.0 5
  345.06702 20.0 4
  368.95782 18.0 3
  369.05313 24.0 5
  370.89111 64.0 12
  380.96631 29.0 6
  449.07834 28.0 5
  465.05319 24.0 5
  465.10471 586.0 113
  465.15021 20.0 4
  466.08841 20.0 4
  466.11343 216.0 42
  467.11172 17.0 3
  467.1293 21.0 4
  611.09778 18.0 3
  611.16211 518.0 100
  611.19678 56.0 11
  611.35559 17.0 3
//
