ACCESSION: MSBNK-RIKEN-PR301864
RECORD_TITLE: Chrysanthellin B; LC-ESI-QTOF; MS2
DATE: 2019.03.28
AUTHORS: Tetsuya Mori, Center for Sustainable Resource Science, RIKEN
LICENSE: CC BY-NC-SA
PUBLICATION: Tsugawa H., Nakabayashi R., Mori T., Yamada Y., Takahashi M., Rai A., Sugiyama R., Yamamoto H., Nakaya T., Yamazaki M., Kooke R., Bac-Molenaar JA., Oztolan-Erol N., Keurentjes JJB., Arita M., Saito K. (2019) "A cheminformatics approach to characterize metabolomes in stable-isotope-labeled organisms" Nature Methods 16(4):295-298. [doi:10.1038/s41592-019-0358-2]
COMMENT: registered in RIKEN PlaSMA
CH$NAME: Chrysanthellin B
CH$COMPOUND_CLASS: Triterpene saponins
CH$FORMULA: C58H94O26
CH$EXACT_MASS: 1207.364
CH$SMILES: CC1OC(OC2C(O)COC(OC3C(C)OC(OC4C(O)C(O)COC4OC(=O)C45CCC(C)(C)CC4C4=CCC6C7(C)CCC(OC8OC(CO)C(O)C(O)C8O)C(C)(CO)C7CCC6(C)C4(C)CC5O)C(O)C3O)C2O)C(O)C(O)C1O
CH$IUPAC: InChI=1S/C58H94O26/c1-23-34(64)37(67)40(70)48(77-23)82-45-28(62)21-75-47(43(45)73)81-44-24(2)78-49(42(72)39(44)69)83-46-35(65)27(61)20-76-51(46)84-52(74)58-16-15-53(3,4)17-26(58)25-9-10-31-54(5)13-12-33(80-50-41(71)38(68)36(66)29(19-59)79-50)55(6,22-60)30(54)11-14-56(31,7)57(25,8)18-32(58)63/h9,23-24,26-51,59-73H,10-22H2,1-8H3
CH$LINK: INCHIKEY WNGIVKPPGCCJNP-UHFFFAOYSA-N
AC$INSTRUMENT: LC, Waters Acquity UPLC System; MS, Waters Xevo G2 Q-Tof
AC$INSTRUMENT_TYPE: LC-ESI-QTOF
AC$MASS_SPECTROMETRY: MS_TYPE MS2
AC$MASS_SPECTROMETRY: ION_MODE POSITIVE
AC$MASS_SPECTROMETRY: COLLISION_ENERGY 6V
AC$MASS_SPECTROMETRY: DESOLVATION_GAS_FLOW 800/h
AC$MASS_SPECTROMETRY: DESOLVATION_TEMPERATURE 450 C
AC$MASS_SPECTROMETRY: IONIZATION ESI
AC$CHROMATOGRAPHY: CAPILLARY_VOLTAGE +3.00 kV
AC$CHROMATOGRAPHY: COLUMN_NAME Acquity bridged ethyl hybrid C18 (1.7 um, 2.1 mm * 100 mm, Waters)
AC$CHROMATOGRAPHY: COLUMN_TEMPERATURE 40 C
AC$CHROMATOGRAPHY: FLOW_GRADIENT A/B = (99.5%/0.5% at 0 min, 99.5%/0.5% at 0.1 min, 20%/80% at 10 min, 0.5%/99.5% at 10.1 min, 0.5%/99.5% at 12.0 min, 99.5%/0.5% at 12.1 min, 99.5%/0.5% at 15.0 min)
AC$CHROMATOGRAPHY: FLOW_RATE 0.3 ml/min at 0 min, 0.3 ml/min at 10 min, 0.4 ml/min at 10.1 min, 0.4 ml/min at 14.4 min, 0.3 ml/min at 14.5 min
AC$CHROMATOGRAPHY: RETENTION_TIME 5.791234
AC$CHROMATOGRAPHY: SOLVENT A water including 0.1% formic acid
AC$CHROMATOGRAPHY: SOLVENT B acetonitrile including 0.1% formic acid
MS$FOCUSED_ION: PRECURSOR_TYPE [M+H]+
MS$FOCUSED_ION: PRECURSOR_M/Z 1207.61061
PK$SPLASH: splash10-0ufr-0582900000-5d5e97ce9e106a35c194
PK$NUM_PEAK: 391
PK$PEAK: m/z int. rel.int.
  71.04436 16.0 16
  72.88526 15.0 15
  75.04651 21.0 21
  83.04884 25.0 25
  84.67725 10.0 10
  85.02654 55.0 55
  85.03683 28.0 28
  87.03873 12.0 12
  95.04898 18.0 18
  95.08688 10.0 10
  97.01814 16.0 16
  97.02702 39.0 39
  97.03146 41.0 41
  107.08742 12.0 12
  109.0984 17.0 17
  109.10596 47.0 47
  111.04069 80.0 80
  111.04726 95.0 95
  112.04684 59.0 59
  115.03701 73.0 73
  115.04485 12.0 12
  116.04271 15.0 15
  119.08737 22.0 22
  124.34963 13.0 13
  126.02141 13.0 13
  127.03147 10.0 10
  127.0387 24.0 24
  129.0042 13.0 13
  129.03882 20.0 20
  129.05412 201.0 201
  130.02423 12.0 12
  130.05569 40.0 40
  130.06491 12.0 12
  131.07153 13.0 13
  133.04567 12.0 12
  133.10345 13.0 13
  135.04091 11.0 11
  135.0558 13.0 13
  135.12256 16.0 16
  136.04465 20.0 20
  139.04218 26.0 26
  139.0468 12.0 12
  146.0459 10.0 10
  147.0652 250.0 250
  147.11546 37.0 37
  148.0688 18.0 18
  149.13226 93.0 93
  150.1322 12.0 12
  150.69449 10.0 10
  151.14703 11.0 11
  151.15271 11.0 11
  153.05305 43.0 43
  153.06227 10.0 10
  153.20604 11.0 11
  157.04904 26.0 26
  159.06253 22.0 22
  159.11343 14.0 14
  160.0699 13.0 13
  161.12587 26.0 26
  161.13412 23.0 23
  161.14349 13.0 13
  163.05403 38.0 38
  163.06274 37.0 37
  163.14742 12.0 12
  164.53828 10.0 10
  165.05396 13.0 13
  165.06873 13.0 13
  165.07938 13.0 13
  165.08748 21.0 21
  169.05161 17.0 17
  169.06326 11.0 11
  171.06836 40.0 40
  171.11957 13.0 13
  175.05952 11.0 11
  175.13998 12.0 12
  175.14804 17.0 17
  177.05707 12.0 12
  177.13336 13.0 13
  177.15997 11.0 11
  177.16628 10.0 10
  179.06841 12.0 12
  185.13301 29.0 29
  186.45293 12.0 12
  187.05054 28.0 28
  187.06258 10.0 10
  187.12538 12.0 12
  187.14626 45.0 45
  187.15294 47.0 47
  188.15538 12.0 12
  189.0596 11.0 11
  189.0775 23.0 23
  189.14995 12.0 12
  189.15741 29.0 29
  189.16734 12.0 12
  190.17636 12.0 12
  191.16788 12.0 12
  191.17598 30.0 30
  191.19 13.0 13
  192.14267 10.0 10
  193.04738 17.0 17
  193.19075 12.0 12
  195.07242 15.0 15
  197.0667 24.0 24
  198.1317 13.0 13
  199.06836 15.0 15
  201.06447 21.0 21
  201.07695 25.0 25
  201.15868 69.0 69
  201.17009 15.0 15
  201.17842 13.0 13
  202.08786 15.0 15
  203.05801 20.0 20
  203.13385 17.0 17
  203.1416 59.0 59
  203.17436 35.0 35
  203.18797 59.0 59
  204.1445 46.0 46
  204.15651 11.0 11
  204.19191 15.0 15
  205.13626 15.0 15
  205.15747 91.0 91
  205.19775 12.0 12
  206.16042 13.0 13
  206.1687 14.0 14
  207.06631 13.0 13
  207.16302 18.0 18
  207.17311 71.0 71
  207.1843 10.0 10
  208.15598 24.0 24
  208.17525 13.0 13
  208.18715 12.0 12
  211.04773 19.0 19
  213.16771 12.0 12
  215.18433 77.0 77
  216.15004 11.0 11
  216.18098 12.0 12
  217.07411 12.0 12
  217.15089 23.0 23
  217.18951 27.0 27
  217.20067 29.0 29
  219.13441 34.0 34
  219.1637 20.0 20
  219.17297 10.0 10
  221.06747 10.0 10
  221.15263 24.0 24
  221.19034 15.0 15
  223.05165 11.0 11
  223.16541 11.0 11
  224.06264 14.0 14
  225.07602 241.0 241
  225.09535 13.0 13
  226.07175 23.0 23
  227.16977 13.0 13
  227.17886 22.0 22
  229.0672 10.0 10
  229.07646 24.0 24
  229.14638 15.0 15
  229.15869 45.0 45
  229.18921 13.0 13
  229.2041 13.0 13
  231.09633 43.0 43
  231.17714 25.0 25
  231.18607 13.0 13
  232.19337 10.0 10
  233.15126 31.0 31
  233.16739 16.0 16
  233.18729 35.0 35
  235.1687 12.0 12
  235.19949 12.0 12
  236.47012 11.0 11
  237.06422 22.0 22
  237.83507 15.0 15
  239.09274 245.0 245
  239.18932 13.0 13
  240.09532 17.0 17
  241.05783 13.0 13
  241.10567 11.0 11
  242.43163 10.0 10
  243.07532 42.0 42
  243.08553 99.0 99
  243.09555 105.0 105
  244.07613 11.0 11
  244.0882 12.0 12
  245.16428 11.0 11
  247.07863 17.0 17
  247.16121 23.0 23
  247.17484 26.0 26
  248.20685 10.0 10
  249.15018 47.0 47
  249.19626 22.0 22
  253.06828 13.0 13
  253.18765 12.0 12
  253.19827 24.0 24
  255.07153 11.0 11
  255.08931 71.0 71
  257.09241 28.0 28
  257.15433 13.0 13
  257.18173 12.0 12
  258.10455 15.0 15
  259.21921 11.0 11
  259.92358 21.0 21
  261.05225 25.0 25
  261.08447 40.0 40
  261.18713 10.0 10
  261.58414 12.0 12
  265.1915 28.0 28
  267.20657 11.0 11
  273.09836 49.0 49
  273.1821 27.0 27
  274.09494 10.0 10
  275.09229 16.0 16
  275.10849 94.0 94
  275.12198 34.0 34
  275.17032 15.0 15
  277.2063 11.0 11
  279.10977 252.0 252
  279.76801 15.0 15
  280.10947 34.0 34
  280.21997 13.0 13
  281.125 12.0 12
  281.23163 10.0 10
  282.2244 14.0 14
  283.1593 11.0 11
  287.20306 12.0 12
  288.15686 13.0 13
  288.21277 21.0 21
  293.11688 115.0 115
  293.12903 117.0 117
  294.12656 22.0 22
  295.0975 13.0 13
  295.12488 13.0 13
  295.23108 27.0 27
  297.10736 11.0 11
  297.17307 13.0 13
  298.18057 11.0 11
  299.20102 11.0 11
  300.03583 13.0 13
  309.09741 14.0 14
  309.11398 102.0 102
  310.11673 18.0 18
  315.26007 10.0 10
  317.23669 13.0 13
  321.2467 13.0 13
  321.2753 11.0 11
  325.22406 10.0 10
  325.23392 11.0 11
  327.12726 14.0 14
  327.22122 15.0 15
  335.11755 10.0 10
  338.21616 13.0 13
  340.30698 10.0 10
  341.21155 18.0 18
  345.22946 28.0 28
  345.25412 13.0 13
  347.2254 12.0 12
  348.29608 12.0 12
  349.27411 10.0 10
  349.29495 37.0 37
  350.28854 38.0 38
  351.18619 13.0 13
  353.12811 10.0 10
  356.27374 13.0 13
  359.25238 23.0 23
  359.26465 12.0 12
  363.36838 10.0 10
  367.25705 13.0 13
  367.29117 10.0 10
  367.75339 16.0 16
  368.31189 10.0 10
  369.3187 11.0 11
  371.14481 12.0 12
  371.33179 12.0 12
  373.26196 13.0 13
  375.30334 13.0 13
  377.31387 12.0 12
  378.32437 12.0 12
  379.25815 29.0 29
  379.32196 17.0 17
  379.33807 12.0 12
  381.32916 15.0 15
  389.31976 67.0 67
  389.3428 18.0 18
  390.30945 37.0 37
  391.14948 13.0 13
  391.30411 12.0 12
  391.32312 66.0 66
  391.34531 15.0 15
  392.34055 12.0 12
  395.28201 32.0 32
  395.31055 15.0 15
  395.33752 24.0 24
  396.29535 31.0 31
  397.25156 21.0 21
  397.32553 24.0 24
  401.14404 14.0 14
  401.16251 12.0 12
  405.14459 17.0 17
  406.1188 10.0 10
  407.2919 27.0 27
  407.33179 242.0 242
  408.31558 21.0 21
  408.33572 113.0 113
  409.33929 78.0 78
  409.35529 73.0 73
  410.33179 10.0 10
  410.34384 13.0 13
  410.36047 12.0 12
  411.28967 10.0 10
  413.21524 12.0 12
  413.30035 61.0 61
  413.31967 26.0 26
  414.28275 24.0 24
  414.30688 35.0 35
  414.33847 23.0 23
  417.30063 14.0 14
  417.31342 11.0 11
  423.32458 47.0 47
  423.36069 15.0 15
  423.86792 12.0 12
  424.32864 23.0 23
  425.32935 140.0 140
  425.34644 102.0 102
  425.35928 62.0 62
  426.32291 14.0 14
  426.35727 55.0 55
  427.3331 10.0 10
  427.35345 74.0 74
  427.36774 24.0 24
  428.35742 10.0 10
  429.21811 13.0 13
  434.30719 26.0 26
  435.32794 231.0 231
  436.32077 63.0 63
  436.33536 83.0 83
  437.36591 12.0 12
  439.29385 18.0 18
  441.3251 46.0 46
  441.34302 26.0 26
  441.72018 10.0 10
  442.31406 13.0 13
  442.3356 15.0 15
  443.36551 12.0 12
  443.52969 11.0 11
  444.34259 17.0 17
  451.32214 27.0 27
  453.28937 16.0 16
  453.33344 1000.0 999
  453.42242 14.0 14
  454.32214 151.0 151
  454.34076 64.0 64
  454.45053 12.0 12
  455.28409 12.0 12
  455.31418 25.0 25
  455.34717 13.0 13
  456.35886 14.0 14
  460.34143 15.0 15
  466.36386 20.0 20
  468.93307 21.0 21
  469.34543 44.0 44
  471.3497 409.0 409
  472.34848 105.0 105
  473.36246 38.0 38
  475.327 12.0 12
  478.34091 12.0 12
  479.36606 18.0 18
  481.28613 12.0 12
  487.36758 10.0 10
  494.35406 10.0 10
  496.34137 24.0 24
  518.32361 12.0 12
  524.35529 10.0 10
  528.36218 12.0 12
  531.35846 15.0 15
  535.37701 15.0 15
  537.36737 15.0 15
  562.34186 17.0 17
  563.37549 12.0 12
  564.36841 15.0 15
  569.36316 15.0 15
  571.40314 10.0 10
  581.35468 15.0 15
  581.38953 40.0 40
  581.42029 10.0 10
  599.38104 22.0 22
  599.41376 22.0 22
  600.39459 40.0 40
  600.42621 24.0 24
  617.41663 52.0 52
  633.40881 13.0 13
  690.64264 13.0 13
  743.41315 12.0 12
//
