ACCESSION: MSBNK-RIKEN-PR310720
RECORD_TITLE: Solasodine base + 2H, O-Hex-Hex-Hex-Pen; LC-ESI-QTOF; MS2
DATE: 2019.03.28
AUTHORS: Tetsuya Mori, Center for Sustainable Resource Science, RIKEN
LICENSE: CC BY-NC-SA
PUBLICATION: Tsugawa H., Nakabayashi R., Mori T., Yamada Y., Takahashi M., Rai A., Sugiyama R., Yamamoto H., Nakaya T., Yamazaki M., Kooke R., Bac-Molenaar JA., Oztolan-Erol N., Keurentjes JJB., Arita M., Saito K. (2019) "A cheminformatics approach to characterize metabolomes in stable-isotope-labeled organisms" Nature Methods 16(4):295-298. [doi:10.1038/s41592-019-0358-2]
COMMENT: Annotation level-3
CH$NAME: Solasodine base + 2H, O-Hex-Hex-Hex-Pen
CH$COMPOUND_CLASS: Steroidal saponins
CH$FORMULA: C50H83NO21
CH$EXACT_MASS: 1034.2
CH$SMILES: OCC%10OC(OC2C(OC(CO)C(O)C2(OC1OCC(O)C(O)C1(O)))OC9C(O)C(O)C(OC8CCC7(C)(C(CCC6C7(CCC5(C)(C6(CC4OC3(NCC(C)CC3)C(C)C45))))C8))OC9(CO))C(O)C(O)C%10(O)
CH$IUPAC: InChI=1S/C50H83NO21/c1-20-7-12-50(51-15-20)21(2)32-28(72-50)14-26-24-6-5-22-13-23(8-10-48(22,3)25(24)9-11-49(26,32)4)65-45-40(63)37(60)41(31(18-54)68-45)69-47-43(71-46-39(62)36(59)34(57)29(16-52)66-46)42(35(58)30(17-53)67-47)70-44-38(61)33(56)27(55)19-64-44/h20-47,51-63H,5-19H2,1-4H3
CH$LINK: INCHIKEY REJLGAUYTKNVJM-UHFFFAOYSA-N
AC$INSTRUMENT: LC, Waters Acquity UPLC System; MS, Waters Xevo G2 Q-Tof
AC$INSTRUMENT_TYPE: LC-ESI-QTOF
AC$MASS_SPECTROMETRY: MS_TYPE MS2
AC$MASS_SPECTROMETRY: ION_MODE POSITIVE
AC$MASS_SPECTROMETRY: COLLISION_ENERGY 6V
AC$MASS_SPECTROMETRY: DESOLVATION_GAS_FLOW 800/h
AC$MASS_SPECTROMETRY: DESOLVATION_TEMPERATURE 450 C
AC$MASS_SPECTROMETRY: IONIZATION ESI
AC$CHROMATOGRAPHY: CAPILLARY_VOLTAGE +3.00 kV
AC$CHROMATOGRAPHY: COLUMN_NAME Acquity bridged ethyl hybrid C18 (1.7 um, 2.1 mm * 100 mm, Waters)
AC$CHROMATOGRAPHY: COLUMN_TEMPERATURE 40 C
AC$CHROMATOGRAPHY: FLOW_GRADIENT A/B = (99.5%/0.5% at 0 min, 99.5%/0.5% at 0.1 min, 20%/80% at 10 min, 0.5%/99.5% at 10.1 min, 0.5%/99.5% at 12.0 min, 99.5%/0.5% at 12.1 min, 99.5%/0.5% at 15.0 min)
AC$CHROMATOGRAPHY: FLOW_RATE 0.3 ml/min at 0 min, 0.3 ml/min at 10 min, 0.4 ml/min at 10.1 min, 0.4 ml/min at 14.4 min, 0.3 ml/min at 14.5 min
AC$CHROMATOGRAPHY: RETENTION_TIME 4.81
AC$CHROMATOGRAPHY: SOLVENT A water including 0.1% formic acid
AC$CHROMATOGRAPHY: SOLVENT B acetonitrile including 0.1% formic acid
MS$FOCUSED_ION: PRECURSOR_TYPE [M+H]+
MS$FOCUSED_ION: PRECURSOR_M/Z 1034.5559
PK$SPLASH: splash10-001i-9000000000-846e951bb91ddb3beeaf
PK$NUM_PEAK: 287
PK$PEAK: m/z int. rel.int.
  67.98167 29.0 0
  68.49098 27.0 0
  72.51281 22.0 0
  73.03124 16.0 0
  82.30791 43.0 0
  84.60125 20.0 0
  85.02818 45.0 0
  93.07702 22.0 0
  99.29263 16.0 0
  115.04363 81.0 1
  116.04555 36.0 0
  123.85358 16.0 0
  126.13219 114.0 1
  127.03949 17.0 0
  127.1133 16.0 0
  133.03462 18.0 0
  133.0546 45.0 0
  145.04382 62.0 1
  145.05246 77.0 1
  147.06032 18.0 0
  152.41937 17.0 0
  156.31195 16.0 0
  159.11037 20.0 0
  163.05614 118.0 1
  163.06461 206.0 2
  164.07137 82.0 1
  166.99019 18.0 0
  194.10562 19.0 0
  223.08649 20.0 0
  224.22014 17.0 0
  231.26237 25.0 0
  237.76363 16.0 0
  241.06682 51.0 1
  249.64006 16.0 0
  255.19319 19.0 0
  255.211 99.0 1
  255.21944 40.0 0
  257.6803 17.0 0
  259.06888 40.0 0
  259.08475 20.0 0
  259.12451 16.0 0
  260.09061 17.0 0
  264.59811 17.0 0
  272.92804 16.0 0
  273.04965 16.0 0
  273.21527 44.0 0
  273.22617 155.0 2
  274.21179 18.0 0
  274.23465 16.0 0
  281.60574 21.0 0
  284.64084 28.0 0
  285.89139 16.0 0
  289.09399 19.0 0
  290.09332 17.0 0
  295.10175 90.0 1
  296.09958 46.0 0
  301.98288 17.0 0
  321.25623 24.0 0
  325.09692 20.0 0
  325.12897 27.0 0
  326.09607 25.0 0
  342.91562 16.0 0
  354.77155 29.0 0
  356.1575 21.0 0
  359.6138 27.0 0
  360.04419 20.0 0
  363.41864 16.0 0
  364.61282 83.0 1
  383.44232 16.0 0
  385.43256 29.0 0
  387.2424 16.0 0
  388.25845 34.0 0
  396.31552 16.0 0
  397.34634 17.0 0
  398.29233 18.0 0
  398.33981 144.0 1
  398.35544 98.0 1
  398.52692 44.0 0
  399.35742 45.0 0
  405.02771 24.0 0
  406.11826 35.0 0
  414.30493 33.0 0
  414.34204 55.0 1
  414.35953 28.0 0
  416.18991 17.0 0
  416.30566 18.0 0
  416.33191 85.0 1
  416.35504 1242.0 12
  417.0816 29.0 0
  417.35971 558.0 6
  417.3902 30.0 0
  418.36566 83.0 1
  419.35208 21.0 0
  435.26974 97.0 1
  435.28976 27.0 0
  435.94403 16.0 0
  436.27298 101.0 1
  441.86044 17.0 0
  449.22928 16.0 0
  488.20316 24.0 0
  494.78589 16.0 0
  496.6261 34.0 0
  497.71243 17.0 0
  503.35507 30.0 0
  511.53955 16.0 0
  513.39258 18.0 0
  519.99286 20.0 0
  521.29584 16.0 0
  523.8031 18.0 0
  525.37781 16.0 0
  532.16833 19.0 0
  539.23883 37.0 0
  544.76453 33.0 0
  548.39215 17.0 0
  549.39172 20.0 0
  551.92004 19.0 0
  556.43683 51.0 1
  557.05676 19.0 0
  560.37732 29.0 0
  560.40527 18.0 0
  574.88202 35.0 0
  574.95276 25.0 0
  574.99182 21.0 0
  577.38763 29.0 0
  578.27936 16.0 0
  578.36292 42.0 0
  578.38269 114.0 1
  578.41266 323.0 3
  578.43207 74.0 1
  579.39197 16.0 0
  579.41821 99.0 1
  580.09644 22.0 0
  580.41327 18.0 0
  580.4339 39.0 0
  581.43933 21.0 0
  586.52826 20.0 0
  587.2403 16.0 0
  590.61072 18.0 0
  590.65399 26.0 0
  597.51453 40.0 0
  603.08533 16.0 0
  605.07214 24.0 0
  605.33618 46.0 0
  605.58167 22.0 0
  612.73218 16.0 0
  614.63824 20.0 0
  620.64191 20.0 0
  623.38617 45.0 0
  623.93024 18.0 0
  632.65179 21.0 0
  633.26038 27.0 0
  633.41382 23.0 0
  635.22791 17.0 0
  637.66522 20.0 0
  638.70612 29.0 0
  644.4494 20.0 0
  645.41864 23.0 0
  645.73578 17.0 0
  646.07489 18.0 0
  655.05121 17.0 0
  659.98474 26.0 0
  661.80206 28.0 0
  661.96918 31.0 0
  664.51147 18.0 0
  670.14325 31.0 0
  672.62366 38.0 0
  676.67804 27.0 0
  677.86182 38.0 0
  678.15985 20.0 0
  680.52295 16.0 0
  681.23047 53.0 1
  690.96265 23.0 0
  697.68665 26.0 0
  698.57074 38.0 0
  705.48163 18.0 0
  711.45129 18.0 0
  714.44763 35.0 0
  717.39551 27.0 0
  717.85571 16.0 0
  722.63367 16.0 0
  723.43152 17.0 0
  724.64838 47.0 0
  731.03424 18.0 0
  733.37531 20.0 0
  734.83478 18.0 0
  740.44421 16.0 0
  743.57697 16.0 0
  746.0791 28.0 0
  760.0957 20.0 0
  761.98682 17.0 0
  780.16449 30.0 0
  780.45038 17.0 0
  785.44916 17.0 0
  787.44629 17.0 0
  793.27393 16.0 0
  802.52271 16.0 0
  807.49249 21.0 0
  820.56512 17.0 0
  821.91388 17.0 0
  823.14679 20.0 0
  823.229 29.0 0
  827.24359 21.0 0
  836.50299 23.0 0
  842.31384 20.0 0
  849.59979 22.0 0
  852.47687 22.0 0
  854.77155 45.0 0
  855.23364 16.0 0
  856.91669 20.0 0
  857.41956 17.0 0
  873.51428 93.0 1
  874.53351 55.0 1
  875.82336 17.0 0
  878.07159 19.0 0
  879.26807 27.0 0
  887.38397 21.0 0
  888.88434 18.0 0
  894.92444 31.0 0
  896.08331 33.0 0
  902.37762 16.0 0
  902.45184 41.0 0
  902.49628 37.0 0
  902.52948 93.0 1
  903.50281 38.0 0
  906.50079 16.0 0
  906.57483 16.0 0
  932.06921 19.0 0
  933.67584 28.0 0
  949.18445 16.0 0
  964.28687 16.0 0
  989.0036 17.0 0
  997.60565 21.0 0
  999.54138 39.0 0
  1001.57068 24.0 0
  1002.23456 16.0 0
  1014.18567 76.0 1
  1014.55481 16.0 0
  1016.33215 20.0 0
  1016.53998 300.0 3
  1016.57568 78.0 1
  1016.63092 53.0 1
  1016.78546 16.0 0
  1017.57001 183.0 2
  1018.53418 36.0 0
  1018.57379 17.0 0
  1019.87469 17.0 0
  1020.18176 16.0 0
  1021.03265 29.0 0
  1021.68585 16.0 0
  1028.01843 18.0 0
  1028.75513 22.0 0
  1029.18164 16.0 0
  1030.60718 19.0 0
  1030.6958 20.0 0
  1030.78369 35.0 0
  1031.52002 17.0 0
  1031.83142 21.0 0
  1031.92737 33.0 0
  1032.0116 18.0 0
  1032.3457 20.0 0
  1032.427 37.0 0
  1032.51318 227.0 2
  1032.56824 208.0 2
  1032.81226 20.0 0
  1033.2738 71.0 1
  1033.4231 63.0 1
  1033.46777 55.0 1
  1033.53174 484.0 5
  1033.56604 289.0 3
  1033.7334 20.0 0
  1033.80969 23.0 0
  1033.8949 19.0 0
  1033.93176 41.0 0
  1034.01782 122.0 1
  1034.05994 183.0 2
  1034.09778 76.0 1
  1034.13159 50.0 1
  1034.16394 16.0 0
  1034.22144 28.0 0
  1034.25293 109.0 1
  1034.33362 251.0 3
  1034.44189 988.0 10
  1034.48645 272.0 3
  1034.55908 99880.0 999
  1034.62671 267.0 3
  1034.66113 405.0 4
  1034.73706 113.0 1
//
