ACCESSION: MSBNK-RIKEN-PR310980
RECORD_TITLE: Flavone base + 4O, C-Hex-dHex; LC-ESI-QTOF; MS2
DATE: 2019.03.28
AUTHORS: Tetsuya Mori, Center for Sustainable Resource Science, RIKEN
LICENSE: CC BY-NC-SA
PUBLICATION: Tsugawa H., Nakabayashi R., Mori T., Yamada Y., Takahashi M., Rai A., Sugiyama R., Yamamoto H., Nakaya T., Yamazaki M., Kooke R., Bac-Molenaar JA., Oztolan-Erol N., Keurentjes JJB., Arita M., Saito K. (2019) "A cheminformatics approach to characterize metabolomes in stable-isotope-labeled organisms" Nature Methods 16(4):295-298. [doi:10.1038/s41592-019-0358-2]
COMMENT: Annotation level-3
CH$NAME: Flavone base + 4O, C-Hex-dHex
CH$COMPOUND_CLASS: Flavone C-glycosides
CH$FORMULA: C27H30O15
CH$EXACT_MASS: 594.522
CH$SMILES: O=C1C=C(OC=2C=C(O)C(=C(O)C1=2)C4OC(CO)C(O)C(O)C4(OC3OC(C)C(O)C(O)C3(O)))C=5C=CC(O)=C(O)C=5
CH$IUPAC: InChI=1S/C27H30O15/c1-8-19(33)22(36)24(38)27(39-8)42-26-23(37)20(34)16(7-28)41-25(26)18-13(32)6-15-17(21(18)35)12(31)5-14(40-15)9-2-3-10(29)11(30)4-9/h2-6,8,16,19-20,22-30,32-38H,7H2,1H3
CH$LINK: INCHIKEY IUYFTHKQEWZTHY-UHFFFAOYSA-N
AC$INSTRUMENT: LC, Waters Acquity UPLC System; MS, Waters Xevo G2 Q-Tof
AC$INSTRUMENT_TYPE: LC-ESI-QTOF
AC$MASS_SPECTROMETRY: MS_TYPE MS2
AC$MASS_SPECTROMETRY: ION_MODE POSITIVE
AC$MASS_SPECTROMETRY: COLLISION_ENERGY 6V
AC$MASS_SPECTROMETRY: DESOLVATION_GAS_FLOW 800/h
AC$MASS_SPECTROMETRY: DESOLVATION_TEMPERATURE 450 C
AC$MASS_SPECTROMETRY: IONIZATION ESI
AC$CHROMATOGRAPHY: CAPILLARY_VOLTAGE +3.00 kV
AC$CHROMATOGRAPHY: COLUMN_NAME Acquity bridged ethyl hybrid C18 (1.7 um, 2.1 mm * 100 mm, Waters)
AC$CHROMATOGRAPHY: COLUMN_TEMPERATURE 40 C
AC$CHROMATOGRAPHY: FLOW_GRADIENT A/B = (99.5%/0.5% at 0 min, 99.5%/0.5% at 0.1 min, 20%/80% at 10 min, 0.5%/99.5% at 10.1 min, 0.5%/99.5% at 12.0 min, 99.5%/0.5% at 12.1 min, 99.5%/0.5% at 15.0 min)
AC$CHROMATOGRAPHY: FLOW_RATE 0.3 ml/min at 0 min, 0.3 ml/min at 10 min, 0.4 ml/min at 10.1 min, 0.4 ml/min at 14.4 min, 0.3 ml/min at 14.5 min
AC$CHROMATOGRAPHY: RETENTION_TIME 4.48
AC$CHROMATOGRAPHY: SOLVENT A water including 0.1% formic acid
AC$CHROMATOGRAPHY: SOLVENT B acetonitrile including 0.1% formic acid
MS$FOCUSED_ION: PRECURSOR_TYPE [M+H]+
MS$FOCUSED_ION: PRECURSOR_M/Z 595.1675
PK$SPLASH: splash10-0002-0018930000-2525668450792b51e7eb
PK$NUM_PEAK: 92
PK$PEAK: m/z int. rel.int.
  85.0192 18.0 23
  85.02837 42.0 53
  127.04858 16.0 20
  129.05635 48.0 61
  191.06096 31.0 39
  283.68451 17.0 21
  286.98883 20.0 25
  287.04349 55.0 69
  287.0592 38.0 48
  298.05518 21.0 26
  299.04352 33.0 42
  299.05643 263.0 332
  300.06302 98.0 124
  301.06656 18.0 23
  311.05646 41.0 52
  312.05762 19.0 24
  312.0722 42.0 53
  312.87915 24.0 30
  313.06342 17.0 21
  316.05133 66.0 83
  322.03757 16.0 20
  323.03708 17.0 21
  323.05191 17.0 21
  323.06668 16.0 20
  324.0304 31.0 39
  325.05939 20.0 25
  325.07263 33.0 42
  327.03812 25.0 32
  327.05103 46.0 58
  327.06757 47.0 59
  327.10336 24.0 30
  329.06964 160.0 202
  330.00864 29.0 37
  337.01062 19.0 24
  339.0614 17.0 21
  339.0853 65.0 82
  340.09531 22.0 28
  340.11417 18.0 23
  341.05811 38.0 48
  349.02805 37.0 47
  349.0762 26.0 33
  351.05994 52.0 66
  352.07437 21.0 26
  352.09332 17.0 21
  352.94638 16.0 20
  353.05023 20.0 25
  353.07016 42.0 53
  354.10651 68.0 86
  358.11658 27.0 34
  364.52222 18.0 23
  367.05551 16.0 20
  367.0791 52.0 66
  367.10037 35.0 44
  368.08762 55.0 69
  369.04196 16.0 20
  370.11505 36.0 45
  374.05933 16.0 20
  377.87613 17.0 21
  385.03857 17.0 21
  385.09055 19.0 24
  393.04935 18.0 23
  395.07852 362.0 457
  395.15076 18.0 23
  396.03809 16.0 20
  396.07062 17.0 21
  396.08679 27.0 34
  397.06882 19.0 24
  404.71207 20.0 25
  413.07635 193.0 243
  413.09549 212.0 267
  414.06924 43.0 54
  414.09766 107.0 135
  415.08755 102.0 129
  431.09683 393.0 496
  431.13943 20.0 25
  432.07288 24.0 30
  432.10187 57.0 72
  432.11542 23.0 29
  433.10312 41.0 52
  443.39725 20.0 25
  448.11063 16.0 20
  449.11038 782.0 986
  450.1008 147.0 185
  452.12204 16.0 20
  524.12567 19.0 24
  577.13739 17.0 21
  577.17328 61.0 77
  577.19653 16.0 20
  594.14282 17.0 21
  594.18768 17.0 21
  595.10089 17.0 21
  595.16779 792.0 999
//
