ACCESSION: MSBNK-RIKEN-PR310714
RECORD_TITLE: Furostane base -2H + 1O, O-Hex, O-Hex-dHex; LC-ESI-QTOF; MS2
DATE: 2019.03.28
AUTHORS: Tetsuya Mori, Center for Sustainable Resource Science, RIKEN
LICENSE: CC BY-NC-SA
PUBLICATION: Tsugawa H., Nakabayashi R., Mori T., Yamada Y., Takahashi M., Rai A., Sugiyama R., Yamamoto H., Nakaya T., Yamazaki M., Kooke R., Bac-Molenaar JA., Oztolan-Erol N., Keurentjes JJB., Arita M., Saito K. (2019) "A cheminformatics approach to characterize metabolomes in stable-isotope-labeled organisms" Nature Methods 16(4):295-298. [doi:10.1038/s41592-019-0358-2]
COMMENT: Annotation level-3
CH$NAME: Furostane base -2H + 1O, O-Hex, O-Hex-dHex
CH$COMPOUND_CLASS: Steroidal saponins
CH$FORMULA: C45H74O19
CH$EXACT_MASS: 919.068
CH$SMILES: OCC8OC(OCC(C)CCC5(O)(OC4CC3C6CC=C2CC(O)CC(OC1OC(CO)C(O)C(O)C1(O))C2(C)C6(CCC3(C)C4C5(C))))C(OC7OC(C)C(O)C(O)C7(O))C(O)C8(O)
CH$IUPAC: InChI=1S/C45H74O19/c1-18(17-58-42-39(36(54)33(51)28(16-47)61-42)63-40-37(55)34(52)31(49)20(3)59-40)8-11-45(57)19(2)30-26(64-45)14-25-23-7-6-21-12-22(48)13-29(44(21,5)24(23)9-10-43(25,30)4)62-41-38(56)35(53)32(50)27(15-46)60-41/h6,18-20,22-42,46-57H,7-17H2,1-5H3
CH$LINK: INCHIKEY MYVJSVSGFJDUAQ-UHFFFAOYSA-N
AC$INSTRUMENT: LC, Waters Acquity UPLC System; MS, Waters Xevo G2 Q-Tof
AC$INSTRUMENT_TYPE: LC-ESI-QTOF
AC$MASS_SPECTROMETRY: MS_TYPE MS2
AC$MASS_SPECTROMETRY: ION_MODE POSITIVE
AC$MASS_SPECTROMETRY: COLLISION_ENERGY 6V
AC$MASS_SPECTROMETRY: DESOLVATION_GAS_FLOW 800/h
AC$MASS_SPECTROMETRY: DESOLVATION_TEMPERATURE 450 C
AC$MASS_SPECTROMETRY: IONIZATION ESI
AC$CHROMATOGRAPHY: CAPILLARY_VOLTAGE +3.00 kV
AC$CHROMATOGRAPHY: COLUMN_NAME Acquity bridged ethyl hybrid C18 (1.7 um, 2.1 mm * 100 mm, Waters)
AC$CHROMATOGRAPHY: COLUMN_TEMPERATURE 40 C
AC$CHROMATOGRAPHY: FLOW_GRADIENT A/B = (99.5%/0.5% at 0 min, 99.5%/0.5% at 0.1 min, 20%/80% at 10 min, 0.5%/99.5% at 10.1 min, 0.5%/99.5% at 12.0 min, 99.5%/0.5% at 12.1 min, 99.5%/0.5% at 15.0 min)
AC$CHROMATOGRAPHY: FLOW_RATE 0.3 ml/min at 0 min, 0.3 ml/min at 10 min, 0.4 ml/min at 10.1 min, 0.4 ml/min at 14.4 min, 0.3 ml/min at 14.5 min
AC$CHROMATOGRAPHY: RETENTION_TIME 4.34
AC$CHROMATOGRAPHY: SOLVENT A water including 0.1% formic acid
AC$CHROMATOGRAPHY: SOLVENT B acetonitrile including 0.1% formic acid
MS$FOCUSED_ION: PRECURSOR_TYPE [M-H2O+H]+
MS$FOCUSED_ION: PRECURSOR_M/Z 901.4794
PK$SPLASH: splash10-0udi-0271310109-6b3d8c9b279ae67b06ce
PK$NUM_PEAK: 113
PK$PEAK: m/z int. rel.int.
  71.32563 25.0 14
  75.0453 16.0 9
  98.51673 25.0 14
  109.06248 19.0 11
  125.08898 18.0 10
  129.05505 43.0 24
  145.12134 23.0 13
  147.06131 84.0 47
  149.10304 18.0 10
  149.13492 16.0 9
  157.04794 20.0 11
  157.103 17.0 10
  159.11263 17.0 10
  164.05804 26.0 15
  167.10754 18.0 10
  169.09631 31.0 17
  170.12277 16.0 9
  171.1252 24.0 13
  185.13087 17.0 10
  195.12715 25.0 14
  210.13728 18.0 10
  213.59009 16.0 9
  215.18045 18.0 10
  223.13614 17.0 10
  227.18413 18.0 10
  239.19563 25.0 14
  241.18391 49.0 27
  251.1655 69.0 39
  251.18643 53.0 30
  251.95103 18.0 10
  252.99382 45.0 25
  253.18431 20.0 11
  255.16429 25.0 14
  267.17328 25.0 14
  269.16727 17.0 10
  269.18723 398.0 223
  270.18411 26.0 15
  270.19934 62.0 35
  271.1926 52.0 29
  271.20578 17.0 10
  274.0983 16.0 9
  277.1319 19.0 11
  281.23169 16.0 9
  287.20547 415.0 233
  288.19992 70.0 39
  291.09384 19.0 11
  300.24112 18.0 10
  312.19098 27.0 15
  314.25916 23.0 13
  317.13879 23.0 13
  362.19785 25.0 14
  367.27478 23.0 13
  377.26733 19.0 11
  380.21832 17.0 10
  395.2757 21.0 12
  395.31131 36.0 20
  395.33105 20.0 11
  395.66571 18.0 10
  396.31622 20.0 11
  397.25168 16.0 9
  397.30045 16.0 9
  404.7753 21.0 12
  411.30423 24.0 13
  413.28418 16.0 9
  413.31332 113.0 63
  414.32104 73.0 41
  415.23648 58.0 33
  415.25839 55.0 31
  419.28513 18.0 10
  431.2218 17.0 10
  431.25119 20.0 11
  431.30701 53.0 30
  432.27301 18.0 10
  432.31265 55.0 31
  433.31918 22.0 12
  434.32706 20.0 11
  449.22336 17.0 10
  449.24832 38.0 21
  449.26587 18.0 10
  509.8989 24.0 13
  524.35297 27.0 15
  541.34985 16.0 9
  557.35992 23.0 13
  561.36658 16.0 9
  575.36798 16.0 9
  578.29706 17.0 10
  586.1579 16.0 9
  590.80444 16.0 9
  593.3338 16.0 9
  593.38379 16.0 9
  594.36609 17.0 10
  594.39716 18.0 10
  595.28455 17.0 10
  595.30347 43.0 24
  595.34393 20.0 11
  596.31836 16.0 9
  596.39331 30.0 17
  597.32837 16.0 9
  667.39117 20.0 11
  669.6264 22.0 12
  686.71838 26.0 15
  694.48993 24.0 13
  720.39435 17.0 10
  722.40045 16.0 9
  739.42297 56.0 31
  739.45502 25.0 14
  740.41962 143.0 80
  741.43353 17.0 10
  817.71899 30.0 17
  883.45557 16.0 9
  900.80212 16.0 9
  901.40411 16.0 9
  901.46979 1782.0 999
//
