ACCESSION: MSBNK-RIKEN-PR306336
RECORD_TITLE: (+)-Epicatechin; LC-ESI-QTOF; MS2
DATE: 2019.03.28
AUTHORS: Tetsuya Mori, Center for Sustainable Resource Science, RIKEN
LICENSE: CC BY-NC-SA
PUBLICATION: Tsugawa H., Nakabayashi R., Mori T., Yamada Y., Takahashi M., Rai A., Sugiyama R., Yamamoto H., Nakaya T., Yamazaki M., Kooke R., Bac-Molenaar JA., Oztolan-Erol N., Keurentjes JJB., Arita M., Saito K. (2019) "A cheminformatics approach to characterize metabolomes in stable-isotope-labeled organisms" Nature Methods 16(4):295-298. [doi:10.1038/s41592-019-0358-2]
COMMENT: registered in RIKEN PlaSMA
CH$NAME: (+)-Epicatechin
CH$COMPOUND_CLASS: Catechins
CH$FORMULA: C15H14O6
CH$EXACT_MASS: 290.271
CH$SMILES: C1[C@@H]([C@@H](OC2=CC(=CC(=C21)O)O)C3=CC(=C(C=C3)O)O)O
CH$IUPAC: InChI=1S/C15H14O6/c16-8-4-11(18)9-6-13(20)15(21-14(9)5-8)7-1-2-10(17)12(19)3-7/h1-5,13,15-20H,6H2/t13-,15-/m0/s1
CH$LINK: INCHIKEY PFTAWBLQPZVEMU-ZFWWWQNUSA-N
AC$INSTRUMENT: LC, Waters Acquity UPLC System; MS, Waters Xevo G2 Q-Tof
AC$INSTRUMENT_TYPE: LC-ESI-QTOF
AC$MASS_SPECTROMETRY: MS_TYPE MS2
AC$MASS_SPECTROMETRY: ION_MODE NEGATIVE
AC$MASS_SPECTROMETRY: COLLISION_ENERGY 6V
AC$MASS_SPECTROMETRY: DESOLVATION_GAS_FLOW 800/h
AC$MASS_SPECTROMETRY: DESOLVATION_TEMPERATURE 450 C
AC$MASS_SPECTROMETRY: IONIZATION ESI
AC$CHROMATOGRAPHY: CAPILLARY_VOLTAGE -2.75 kV
AC$CHROMATOGRAPHY: COLUMN_NAME Acquity bridged ethyl hybrid C18 (1.7 um, 2.1 mm * 100 mm, Waters)
AC$CHROMATOGRAPHY: COLUMN_TEMPERATURE 40 C
AC$CHROMATOGRAPHY: FLOW_GRADIENT A/B = (99.5%/0.5% at 0 min, 99.5%/0.5% at 0.1 min, 20%/80% at 10 min, 0.5%/99.5% at 10.1 min, 0.5%/99.5% at 12.0 min, 99.5%/0.5% at 12.1 min, 99.5%/0.5% at 15.0 min)
AC$CHROMATOGRAPHY: FLOW_RATE 0.3 ml/min at 0 min, 0.3 ml/min at 10 min, 0.4 ml/min at 10.1 min, 0.4 ml/min at 14.4 min, 0.3 ml/min at 14.5 min
AC$CHROMATOGRAPHY: RETENTION_TIME 3.43465
AC$CHROMATOGRAPHY: SOLVENT A water including 0.1% formic acid
AC$CHROMATOGRAPHY: SOLVENT B acetonitrile including 0.1% formic acid
MS$FOCUSED_ION: PRECURSOR_TYPE [M-H]-
MS$FOCUSED_ION: PRECURSOR_M/Z 289.07176174783
PK$SPLASH: splash10-000i-0970000000-b1ba04000544e1822b48
PK$NUM_PEAK: 118
PK$PEAK: m/z int. rel.int.
  68.09118 11.0 11
  69.0342 16.0 16
  81.03045 15.0 15
  81.03629 18.0 18
  83.01133 19.0 19
  95.04803 31.0 31
  96.02171 18.0 18
  97.02769 62.0 62
  97.03769 9.0 9
  98.03179 21.0 21
  105.02579 18.0 18
  105.03341 17.0 17
  107.04573 9.0 9
  109.02741 237.0 237
  113.06303 12.0 12
  119.14948 8.0 8
  121.02666 81.0 81
  122.03688 53.0 53
  123.0406 150.0 150
  123.04688 100.0 100
  124.04909 9.0 9
  125.02152 231.0 231
  125.34844 9.0 9
  126.02691 46.0 46
  129.02948 11.0 11
  129.0672 10.0 10
  131.06311 10.0 10
  133.03267 9.0 9
  133.06342 13.0 13
  135.04453 92.0 92
  137.01631 35.0 35
  137.02408 180.0 180
  138.02106 10.0 10
  138.03436 17.0 17
  139.03059 12.0 12
  139.03856 21.0 21
  143.04248 11.0 11
  145.0237 26.0 26
  146.03271 52.0 52
  147.03729 43.0 43
  148.01277 11.0 11
  148.05217 12.0 12
  149.02176 74.0 74
  150.02817 18.0 18
  150.03407 12.0 12
  151.033 110.0 110
  151.03891 211.0 211
  152.04234 35.0 35
  158.03586 12.0 12
  159.041 41.0 41
  159.04874 24.0 24
  160.05067 11.0 11
  161.01662 26.0 26
  161.05762 149.0 149
  162.02812 23.0 23
  162.05676 13.0 13
  162.06325 15.0 15
  163.03751 50.0 50
  164.00851 99.0 99
  164.49304 8.0 8
  165.017 87.0 87
  166.01511 25.0 25
  167.02943 12.0 12
  168.03891 16.0 16
  173.05771 19.0 19
  174.03587 9.0 9
  175.03835 42.0 42
  175.07008 50.0 50
  176.0417 8.0 8
  176.07379 11.0 11
  177.01669 15.0 15
  177.05772 34.0 34
  179.0323 87.0 87
  179.04204 17.0 17
  181.06133 8.0 8
  183.07999 21.0 21
  184.04007 11.0 11
  185.0574 66.0 66
  186.07117 12.0 12
  187.03474 103.0 103
  187.04503 45.0 45
  188.04265 55.0 55
  189.02786 10.0 10
  189.04935 59.0 59
  190.0518 9.0 9
  199.07103 10.0 10
  199.08228 13.0 13
  200.04634 9.0 9
  200.0807 11.0 11
  201.04904 30.0 30
  201.08551 21.0 21
  202.06479 14.0 14
  203.067 374.0 374
  204.07932 30.0 30
  205.0479 266.0 266
  206.05353 41.0 41
  207.16484 8.0 8
  211.04008 9.0 9
  212.17888 9.0 9
  217.08865 18.0 18
  221.08 66.0 66
  222.07651 12.0 12
  224.05029 16.0 16
  224.71011 10.0 10
  226.07542 9.0 9
  227.06863 50.0 50
  228.06354 12.0 12
  230.049 9.0 9
  231.02138 33.0 33
  245.07968 557.0 556
  246.04875 11.0 11
  246.07965 114.0 114
  246.09515 30.0 30
  247.05508 55.0 55
  271.05508 18.0 18
  287.04782 12.0 12
  289.06757 1000.0 999
  289.09518 9.0 9
//
