ACCESSION: MSBNK-RIKEN-PR309395
RECORD_TITLE: Anthraquinone base + 2O, MeOH, O-Hex; LC-ESI-QTOF; MS2
DATE: 2019.03.28
AUTHORS: Tetsuya Mori, Center for Sustainable Resource Science, RIKEN
LICENSE: CC BY-NC-SA
PUBLICATION: Tsugawa H., Nakabayashi R., Mori T., Yamada Y., Takahashi M., Rai A., Sugiyama R., Yamamoto H., Nakaya T., Yamazaki M., Kooke R., Bac-Molenaar JA., Oztolan-Erol N., Keurentjes JJB., Arita M., Saito K. (2019) "A cheminformatics approach to characterize metabolomes in stable-isotope-labeled organisms" Nature Methods 16(4):295-298. [doi:10.1038/s41592-019-0358-2]
COMMENT: Annotation level-3
CH$NAME: Anthraquinone base + 2O, MeOH, O-Hex
CH$COMPOUND_CLASS: Anthraquinones
CH$FORMULA: C21H20O10
CH$EXACT_MASS: 432.381
CH$SMILES: O=C1C=4C=CC=C(O)C=4(C(=O)C=2C(O)=CC(=CC1=2)COC3OC(CO)C(O)C(O)C3(O))
CH$IUPAC: InChI=1S/C21H20O10/c22-6-13-17(26)19(28)20(29)21(31-13)30-7-8-4-10-15(12(24)5-8)18(27)14-9(16(10)25)2-1-3-11(14)23/h1-5,13,17,19-24,26,28-29H,6-7H2
CH$LINK: INCHIKEY ASQHVCDULHERIH-UHFFFAOYSA-N
AC$INSTRUMENT: LC, Waters Acquity UPLC System; MS, Waters Xevo G2 Q-Tof
AC$INSTRUMENT_TYPE: LC-ESI-QTOF
AC$MASS_SPECTROMETRY: MS_TYPE MS2
AC$MASS_SPECTROMETRY: ION_MODE NEGATIVE
AC$MASS_SPECTROMETRY: COLLISION_ENERGY 6V
AC$MASS_SPECTROMETRY: DESOLVATION_GAS_FLOW 800/h
AC$MASS_SPECTROMETRY: DESOLVATION_TEMPERATURE 450 C
AC$MASS_SPECTROMETRY: IONIZATION ESI
AC$CHROMATOGRAPHY: CAPILLARY_VOLTAGE +3.00 kV
AC$CHROMATOGRAPHY: COLUMN_NAME Acquity bridged ethyl hybrid C18 (1.7 um, 2.1 mm * 100 mm, Waters)
AC$CHROMATOGRAPHY: COLUMN_TEMPERATURE 40 C
AC$CHROMATOGRAPHY: FLOW_GRADIENT A/B = (99.5%/0.5% at 0 min, 99.5%/0.5% at 0.1 min, 20%/80% at 10 min, 0.5%/99.5% at 10.1 min, 0.5%/99.5% at 12.0 min, 99.5%/0.5% at 12.1 min, 99.5%/0.5% at 15.0 min)
AC$CHROMATOGRAPHY: FLOW_RATE 0.3 ml/min at 0 min, 0.3 ml/min at 10 min, 0.4 ml/min at 10.1 min, 0.4 ml/min at 14.4 min, 0.3 ml/min at 14.5 min
AC$CHROMATOGRAPHY: RETENTION_TIME 5.27
AC$CHROMATOGRAPHY: SOLVENT A water including 0.1% formic acid
AC$CHROMATOGRAPHY: SOLVENT B acetonitrile including 0.1% formic acid
MS$FOCUSED_ION: PRECURSOR_TYPE [M-H]-
MS$FOCUSED_ION: PRECURSOR_M/Z 431.09837
PK$SPLASH: splash10-0udi-0190000000-31c7df183804f9a34646
PK$NUM_PEAK: 21
PK$PEAK: m/z int. rel.int.
  59.01288 30.0 22
  59.0157 16.0 12
  67.0687 24.0 18
  71.01347 50.0 37
  89.01743 26.0 19
  101.01965 44.0 33
  101.02489 17.0 13
  113.02246 60.0 45
  119.03178 25.0 19
  131.03337 17.0 13
  150.04381 16.0 12
  185.71408 22.0 16
  224.05128 18.0 13
  225.0528 19.0 14
  237.4146 16.0 12
  251.03398 1340.0 999
  252.03604 140.0 104
  252.04683 71.0 53
  253.05132 81.0 60
  268.03659 16.0 12
  431.06516 27.0 20
//
