ACCESSION: MSBNK-RIKEN-PR300318
RECORD_TITLE: 14,15-Dehydro-16-epi-vincamine; LC-ESI-QTOF; MS2
DATE: 2019.03.28
AUTHORS: Tetsuya Mori, Center for Sustainable Resource Science, RIKEN
LICENSE: CC BY-NC-SA
PUBLICATION: Tsugawa H., Nakabayashi R., Mori T., Yamada Y., Takahashi M., Rai A., Sugiyama R., Yamamoto H., Nakaya T., Yamazaki M., Kooke R., Bac-Molenaar JA., Oztolan-Erol N., Keurentjes JJB., Arita M., Saito K. (2019) "A cheminformatics approach to characterize metabolomes in stable-isotope-labeled organisms" Nature Methods 16(4):295-298. [doi:10.1038/s41592-019-0358-2]
COMMENT: registered in RIKEN PlaSMA
CH$NAME: 14,15-Dehydro-16-epi-vincamine
CH$COMPOUND_CLASS: Eburnan-type alkaloids
CH$FORMULA: C21H24N2O3
CH$EXACT_MASS: 352.434
CH$SMILES: CC[C@]12C[C@](O)(N3C4=CC=CC=C4C4=C3[C@H]1N(CC4)CC=C2)C(=O)OC
CH$IUPAC: InChI=1S/C21H24N2O3/c1-3-20-10-6-11-22-12-9-15-14-7-4-5-8-16(14)23(17(15)18(20)22)21(25,13-20)19(24)26-2/h4-8,10,18,25H,3,9,11-13H2,1-2H3/t18-,20+,21-/m1/s1
CH$LINK: INCHIKEY BQGJXFQCMYJENQ-HLAWJBBLSA-N
AC$INSTRUMENT: LC, Waters Acquity UPLC System; MS, Waters Xevo G2 Q-Tof
AC$INSTRUMENT_TYPE: LC-ESI-QTOF
AC$MASS_SPECTROMETRY: MS_TYPE MS2
AC$MASS_SPECTROMETRY: ION_MODE POSITIVE
AC$MASS_SPECTROMETRY: COLLISION_ENERGY 6V
AC$MASS_SPECTROMETRY: DESOLVATION_GAS_FLOW 800/h
AC$MASS_SPECTROMETRY: DESOLVATION_TEMPERATURE 450 C
AC$MASS_SPECTROMETRY: IONIZATION ESI
AC$CHROMATOGRAPHY: CAPILLARY_VOLTAGE +3.00 kV
AC$CHROMATOGRAPHY: COLUMN_NAME Acquity bridged ethyl hybrid C18 (1.7 um, 2.1 mm * 100 mm, Waters)
AC$CHROMATOGRAPHY: COLUMN_TEMPERATURE 40 C
AC$CHROMATOGRAPHY: FLOW_GRADIENT A/B = (99.5%/0.5% at 0 min, 99.5%/0.5% at 0.1 min, 20%/80% at 10 min, 0.5%/99.5% at 10.1 min, 0.5%/99.5% at 12.0 min, 99.5%/0.5% at 12.1 min, 99.5%/0.5% at 15.0 min)
AC$CHROMATOGRAPHY: FLOW_RATE 0.3 ml/min at 0 min, 0.3 ml/min at 10 min, 0.4 ml/min at 10.1 min, 0.4 ml/min at 14.4 min, 0.3 ml/min at 14.5 min
AC$CHROMATOGRAPHY: RETENTION_TIME 4.255667
AC$CHROMATOGRAPHY: SOLVENT A water including 0.1% formic acid
AC$CHROMATOGRAPHY: SOLVENT B acetonitrile including 0.1% formic acid
MS$FOCUSED_ION: PRECURSOR_TYPE [M+H]+
MS$FOCUSED_ION: PRECURSOR_M/Z 353.1859691
PK$SPLASH: splash10-0006-0892000000-180fc356cb5ed28db6ca
PK$NUM_PEAK: 200
PK$PEAK: m/z int. rel.int.
  70.06412 12.0 12
  80.0501 14.0 14
  93.06775 8.0 8
  94.06256 6.0 6
  95.08671 6.0 6
  96.08046 26.0 26
  105.07427 7.0 7
  108.07782 5.0 5
  108.08157 11.0 11
  114.09304 5.0 5
  117.07037 7.0 7
  120.07638 7.0 7
  121.0656 14.0 14
  121.08736 8.0 8
  130.06326 38.0 38
  132.08101 7.0 7
  133.06607 6.0 6
  144.05461 9.0 9
  144.08047 1000.0 999
  145.08412 130.0 130
  146.08597 9.0 9
  146.09584 12.0 12
  148.07545 33.0 33
  150.09186 42.0 42
  154.06239 11.0 11
  154.0719 10.0 10
  155.07574 6.0 6
  156.07483 7.0 7
  158.05865 7.0 7
  158.0983 31.0 31
  160.07649 9.0 9
  167.07195 10.0 10
  168.08046 95.0 95
  169.0802 20.0 20
  169.09155 7.0 7
  170.09828 9.0 9
  171.09239 201.0 201
  172.07542 12.0 12
  172.08609 9.0 9
  172.09712 31.0 31
  180.07782 9.0 9
  180.08673 9.0 9
  180.10481 5.0 5
  181.08647 6.0 6
  181.09412 11.0 11
  182.09697 38.0 38
  183.09903 16.0 16
  183.11028 6.0 6
  184.10214 8.0 8
  184.11353 10.0 10
  185.106 5.0 5
  190.08786 6.0 6
  192.07405 6.0 6
  192.10295 7.0 7
  193.08699 23.0 23
  194.06076 8.0 8
  194.08875 7.0 7
  194.09642 16.0 16
  195.10138 9.0 9
  196.11122 27.0 27
  197.10735 9.0 9
  197.11815 10.0 10
  202.09572 6.0 6
  204.08838 7.0 7
  204.10794 7.0 7
  206.09569 7.0 7
  207.10364 20.0 20
  208.10356 23.0 23
  208.11084 58.0 58
  208.12503 6.0 6
  209.11055 17.0 17
  209.12344 16.0 16
  210.0894 78.0 78
  210.09766 38.0 38
  210.11584 33.0 33
  210.13109 19.0 19
  211.09544 14.0 14
  211.1266 6.0 6
  217.0894 14.0 14
  218.0979 15.0 15
  219.10255 6.0 6
  219.1149 5.0 5
  220.1093 7.0 7
  221.11902 27.0 27
  222.08852 6.0 6
  222.11546 23.0 23
  222.1274 74.0 74
  223.12428 39.0 39
  223.13824 23.0 23
  224.10097 6.0 6
  224.12694 6.0 6
  228.10362 70.0 70
  229.10663 12.0 12
  231.10809 7.0 7
  232.10709 19.0 19
  232.11754 7.0 7
  233.11208 11.0 11
  234.12474 15.0 15
  235.09605 11.0 11
  235.12558 6.0 6
  235.13655 6.0 6
  236.10167 10.0 10
  236.11884 6.0 6
  236.13864 17.0 17
  237.10983 8.0 8
  237.15683 9.0 9
  238.0867 12.0 12
  238.11224 9.0 9
  238.12161 21.0 21
  239.0923 25.0 25
  239.12061 5.0 5
  240.09476 7.0 7
  240.10982 5.0 5
  244.11163 12.0 12
  245.11842 6.0 6
  246.10962 6.0 6
  246.13043 48.0 48
  247.11623 13.0 13
  247.13399 100.0 100
  248.10724 10.0 10
  248.13231 26.0 26
  248.1492 11.0 11
  249.10655 11.0 11
  250.11122 6.0 6
  250.13072 5.0 5
  251.15187 27.0 27
  251.16574 7.0 7
  252.09599 72.0 72
  252.10861 61.0 61
  252.14162 6.0 6
  252.16273 9.0 9
  253.09691 10.0 10
  253.11131 10.0 10
  257.09113 5.0 5
  259.13498 7.0 7
  260.13852 6.0 6
  261.14093 6.0 6
  262.07941 5.0 5
  262.11993 8.0 8
  262.13602 7.0 7
  263.09473 7.0 7
  263.12213 9.0 9
  264.11969 11.0 11
  264.13669 72.0 72
  265.12674 10.0 10
  265.14059 15.0 15
  266.11984 7.0 7
  267.11578 5.0 5
  268.12042 11.0 11
  268.13293 54.0 54
  269.13721 13.0 13
  270.11499 58.0 58
  271.11902 7.0 7
  274.12097 30.0 30
  274.13348 5.0 5
  275.15457 21.0 21
  276.0932 9.0 9
  276.10913 13.0 13
  276.15176 15.0 15
  276.17081 11.0 11
  277.09683 15.0 15
  277.11209 38.0 38
  277.13821 7.0 7
  277.16809 6.0 6
  278.1091 7.0 7
  278.12625 11.0 11
  280.12506 11.0 11
  280.13422 22.0 22
  280.14438 14.0 14
  281.12527 6.0 6
  290.11127 10.0 10
  291.11923 18.0 18
  292.13342 9.0 9
  292.14822 6.0 6
  293.11658 6.0 6
  293.13373 6.0 6
  293.15338 25.0 25
  293.16827 56.0 56
  294.14288 5.0 5
  294.16754 24.0 24
  295.12051 10.0 10
  298.14658 23.0 23
  299.14343 7.0 7
  303.13629 10.0 10
  305.12839 43.0 43
  306.14642 138.0 138
  307.15262 38.0 38
  308.14719 9.0 9
  318.15411 5.0 5
  323.12576 9.0 9
  323.14612 10.0 10
  324.15024 11.0 11
  324.16312 19.0 19
  333.15814 7.0 7
  335.15549 9.0 9
  335.17554 83.0 83
  336.17642 19.0 19
  336.19119 5.0 5
  353.14404 8.0 8
  353.18536 109.0 109
//
