ACCESSION: MSBNK-RIKEN-PR310668
RECORD_TITLE: Soyasapogenol B base + O-HexA-dHex-Pen; LC-ESI-QTOF; MS2
DATE: 2019.03.28
AUTHORS: Tetsuya Mori, Center for Sustainable Resource Science, RIKEN
LICENSE: CC BY-NC-SA
PUBLICATION: Tsugawa H., Nakabayashi R., Mori T., Yamada Y., Takahashi M., Rai A., Sugiyama R., Yamamoto H., Nakaya T., Yamazaki M., Kooke R., Bac-Molenaar JA., Oztolan-Erol N., Keurentjes JJB., Arita M., Saito K. (2019) "A cheminformatics approach to characterize metabolomes in stable-isotope-labeled organisms" Nature Methods 16(4):295-298. [doi:10.1038/s41592-019-0358-2]
COMMENT: Annotation level-3
CH$NAME: Soyasapogenol B base + O-HexA-dHex-Pen
CH$COMPOUND_CLASS: Triterpene saponins
CH$FORMULA: C47H74O17
CH$EXACT_MASS: 911.092
CH$SMILES: O=C(O)C8OC(OC2CCC3(C)(C4CC=C1C5CC(C)(C)CC(=O)C5(C)(CCC1(C)C4(C)(CCC3(C2(C)(CO))))))C(OC7OCC(O)C(O)C7(OC6OC(C)C(O)C(O)C6(O)))C(O)C8(O)
CH$IUPAC: InChI=1S/C47H74O17/c1-21-29(51)31(53)34(56)39(60-21)63-36-30(52)24(49)19-59-40(36)64-37-33(55)32(54)35(38(57)58)62-41(37)61-28-12-13-44(5)25(45(28,6)20-48)11-14-47(8)26(44)10-9-22-23-17-42(2,3)18-27(50)43(23,4)15-16-46(22,47)7/h9,21,23-26,28-37,39-41,48-49,51-56H,10-20H2,1-8H3,(H,57,58)
CH$LINK: INCHIKEY ZNWGBWWXJAYIOM-UHFFFAOYSA-N
AC$INSTRUMENT: LC, Waters Acquity UPLC System; MS, Waters Xevo G2 Q-Tof
AC$INSTRUMENT_TYPE: LC-ESI-QTOF
AC$MASS_SPECTROMETRY: MS_TYPE MS2
AC$MASS_SPECTROMETRY: ION_MODE POSITIVE
AC$MASS_SPECTROMETRY: COLLISION_ENERGY 6V
AC$MASS_SPECTROMETRY: DESOLVATION_GAS_FLOW 800/h
AC$MASS_SPECTROMETRY: DESOLVATION_TEMPERATURE 450 C
AC$MASS_SPECTROMETRY: IONIZATION ESI
AC$CHROMATOGRAPHY: CAPILLARY_VOLTAGE +3.00 kV
AC$CHROMATOGRAPHY: COLUMN_NAME Acquity bridged ethyl hybrid C18 (1.7 um, 2.1 mm * 100 mm, Waters)
AC$CHROMATOGRAPHY: COLUMN_TEMPERATURE 40 C
AC$CHROMATOGRAPHY: FLOW_GRADIENT A/B = (99.5%/0.5% at 0 min, 99.5%/0.5% at 0.1 min, 20%/80% at 10 min, 0.5%/99.5% at 10.1 min, 0.5%/99.5% at 12.0 min, 99.5%/0.5% at 12.1 min, 99.5%/0.5% at 15.0 min)
AC$CHROMATOGRAPHY: FLOW_RATE 0.3 ml/min at 0 min, 0.3 ml/min at 10 min, 0.4 ml/min at 10.1 min, 0.4 ml/min at 14.4 min, 0.3 ml/min at 14.5 min
AC$CHROMATOGRAPHY: RETENTION_TIME 7.85
AC$CHROMATOGRAPHY: SOLVENT A water including 0.1% formic acid
AC$CHROMATOGRAPHY: SOLVENT B acetonitrile including 0.1% formic acid
MS$FOCUSED_ION: PRECURSOR_TYPE [M+H]+
MS$FOCUSED_ION: PRECURSOR_M/Z 911.4986
PK$SPLASH: splash10-000i-0132912202-891b04555319b0e5f07a
PK$NUM_PEAK: 85
PK$PEAK: m/z int. rel.int.
  82.07124 20.0 33
  90.44397 20.0 33
  109.10896 21.0 34
  129.05392 20.0 33
  147.06322 23.0 37
  149.1368 20.0 33
  177.16331 40.0 65
  191.17946 18.0 29
  207.17433 42.0 68
  213.16527 20.0 33
  215.18086 29.0 47
  219.17247 48.0 78
  224.16817 17.0 28
  225.06755 21.0 34
  227.18846 20.0 33
  231.18074 21.0 34
  233.15067 19.0 31
  243.08986 34.0 55
  245.19495 45.0 73
  274.06198 18.0 29
  279.09668 22.0 36
  279.20526 17.0 28
  287.08401 45.0 73
  301.26108 38.0 62
  305.07993 41.0 67
  305.09012 20.0 33
  305.35059 30.0 49
  309.08707 18.0 29
  323.08453 17.0 28
  350.97919 36.0 59
  366.21716 18.0 29
  381.31039 43.0 70
  382.29791 17.0 28
  403.33652 26.0 42
  421.28381 18.0 29
  421.33545 37.0 60
  421.34525 93.0 152
  422.34274 67.0 109
  439.32196 19.0 31
  439.3559 613.0 999
  440.36383 137.0 223
  441.3551 26.0 42
  455.10858 18.0 29
  457.38022 20.0 33
  457.40222 24.0 39
  458.36771 20.0 33
  531.36902 17.0 28
  551.4032 17.0 28
  561.37189 32.0 52
  590.41046 21.0 34
  597.2489 21.0 34
  597.4137 27.0 44
  598.34595 17.0 28
  598.40106 24.0 39
  599.37561 24.0 39
  599.39459 25.0 41
  604.41284 21.0 34
  615.38391 17.0 28
  616.39471 84.0 137
  633.35608 22.0 36
  633.40741 115.0 187
  634.3656 21.0 34
  634.39825 18.0 29
  634.4278 20.0 33
  658.78894 30.0 49
  735.43536 20.0 33
  736.45636 19.0 31
  748.44391 21.0 34
  761.4201 21.0 34
  765.42987 35.0 57
  766.40277 17.0 28
  767.44244 20.0 33
  779.41278 22.0 36
  779.43829 61.0 99
  779.50482 41.0 67
  780.46991 74.0 121
  781.48254 17.0 28
  857.45758 20.0 33
  893.44952 48.0 78
  893.52087 20.0 33
  909.22888 20.0 33
  911.44574 37.0 60
  911.48096 143.0 233
  911.5047 143.0 233
  911.57074 18.0 29
//
