ACCESSION: MSBNK-RIKEN-PR304546
RECORD_TITLE: Lyalosidic acid; LC-ESI-QTOF; MS2
DATE: 2019.03.28
AUTHORS: Tetsuya Mori, Center for Sustainable Resource Science, RIKEN
LICENSE: CC BY-NC-SA
PUBLICATION: Tsugawa H., Nakabayashi R., Mori T., Yamada Y., Takahashi M., Rai A., Sugiyama R., Yamamoto H., Nakaya T., Yamazaki M., Kooke R., Bac-Molenaar JA., Oztolan-Erol N., Keurentjes JJB., Arita M., Saito K. (2019) "A cheminformatics approach to characterize metabolomes in stable-isotope-labeled organisms" Nature Methods 16(4):295-298. [doi:10.1038/s41592-019-0358-2]
COMMENT: registered in RIKEN PlaSMA
CH$NAME: Lyalosidic acid
CH$COMPOUND_CLASS: Terpene glycosides
CH$FORMULA: C26H28N2O9
CH$EXACT_MASS: 512.515
CH$SMILES: OCC1OC(OC2OC=C(C(CC3=NC=CC4=C3NC3=CC=CC=C43)C2C=C)C(O)=O)C(O)C(O)C1O
CH$IUPAC: InChI=1S/C26H28N2O9/c1-2-12-15(9-18-20-14(7-8-27-18)13-5-3-4-6-17(13)28-20)16(24(33)34)11-35-25(12)37-26-23(32)22(31)21(30)19(10-29)36-26/h2-8,11-12,15,19,21-23,25-26,28-32H,1,9-10H2,(H,33,34)
CH$LINK: INCHIKEY UZLBTLIRYSYTRG-UHFFFAOYSA-N
AC$INSTRUMENT: LC, Waters Acquity UPLC System; MS, Waters Xevo G2 Q-Tof
AC$INSTRUMENT_TYPE: LC-ESI-QTOF
AC$MASS_SPECTROMETRY: MS_TYPE MS2
AC$MASS_SPECTROMETRY: ION_MODE NEGATIVE
AC$MASS_SPECTROMETRY: COLLISION_ENERGY 6V
AC$MASS_SPECTROMETRY: DESOLVATION_GAS_FLOW 800/h
AC$MASS_SPECTROMETRY: DESOLVATION_TEMPERATURE 450 C
AC$MASS_SPECTROMETRY: IONIZATION ESI
AC$CHROMATOGRAPHY: CAPILLARY_VOLTAGE -2.75 kV
AC$CHROMATOGRAPHY: COLUMN_NAME Acquity bridged ethyl hybrid C18 (1.7 um, 2.1 mm * 100 mm, Waters)
AC$CHROMATOGRAPHY: COLUMN_TEMPERATURE 40 C
AC$CHROMATOGRAPHY: FLOW_GRADIENT A/B = (99.5%/0.5% at 0 min, 99.5%/0.5% at 0.1 min, 20%/80% at 10 min, 0.5%/99.5% at 10.1 min, 0.5%/99.5% at 12.0 min, 99.5%/0.5% at 12.1 min, 99.5%/0.5% at 15.0 min)
AC$CHROMATOGRAPHY: FLOW_RATE 0.3 ml/min at 0 min, 0.3 ml/min at 10 min, 0.4 ml/min at 10.1 min, 0.4 ml/min at 14.4 min, 0.3 ml/min at 14.5 min
AC$CHROMATOGRAPHY: RETENTION_TIME 3.708817
AC$CHROMATOGRAPHY: SOLVENT A water including 0.1% formic acid
AC$CHROMATOGRAPHY: SOLVENT B acetonitrile including 0.1% formic acid
MS$FOCUSED_ION: PRECURSOR_TYPE [M-H]-
MS$FOCUSED_ION: PRECURSOR_M/Z 511.17220404783
PK$SPLASH: splash10-000i-0291020000-b14e171a22227a947465
PK$NUM_PEAK: 94
PK$PEAK: m/z int. rel.int.
  59.01202 6.0 6
  71.01345 12.0 12
  85.02753 17.0 17
  89.02102 16.0 16
  101.02349 35.0 35
  113.01784 7.0 7
  113.0228 7.0 7
  114.02647 16.0 16
  119.03425 17.0 17
  120.03461 7.0 7
  123.03998 10.0 10
  142.21883 7.0 7
  143.02991 14.0 14
  151.3278 6.0 6
  161.04774 18.0 18
  162.04958 8.0 8
  167.04707 15.0 15
  167.05722 9.0 9
  176.54533 7.0 7
  177.99504 7.0 7
  179.05038 9.0 9
  179.6644 8.0 8
  180.06703 86.0 86
  181.04411 6.0 6
  181.07651 257.0 257
  182.06915 22.0 22
  205.07051 7.0 7
  207.09438 72.0 72
  208.09952 7.0 7
  209.3363 6.0 6
  217.07291 12.0 12
  217.78342 7.0 7
  218.07591 20.0 20
  223.48512 7.0 7
  229.07393 6.0 6
  233.10869 46.0 46
  233.11732 26.0 26
  235.07808 27.0 27
  235.08717 101.0 101
  236.07387 7.0 7
  236.08765 10.0 10
  243.0871 21.0 21
  243.09814 14.0 14
  244.09183 16.0 16
  246.07275 24.0 24
  246.08264 6.0 6
  249.14133 9.0 9
  249.15346 9.0 9
  250.13474 6.0 6
  250.8425 6.0 6
  251.36743 7.0 7
  257.10486 9.0 9
  258.76047 6.0 6
  259.07858 6.0 6
  259.11801 63.0 63
  259.12909 23.0 23
  260.1265 6.0 6
  261.09421 15.0 15
  261.10492 69.0 69
  262.099 7.0 7
  267.09262 7.0 7
  268.10205 6.0 6
  269.10397 153.0 153
  269.11377 36.0 36
  270.10675 12.0 12
  270.11966 20.0 20
  271.07568 10.0 10
  271.09537 6.0 6
  272.09723 7.0 7
  273.09912 9.0 9
  277.12457 6.0 6
  277.13516 9.0 9
  285.09695 8.0 8
  286.66806 10.0 10
  287.11798 1000.0 999
  288.11588 145.0 145
  288.12781 66.0 66
  289.12085 19.0 19
  289.13232 7.0 7
  302.13516 8.0 8
  303.11426 6.0 6
  303.13016 7.0 7
  304.18817 6.0 6
  305.12741 50.0 50
  306.12088 6.0 6
  306.13495 15.0 15
  312.1376 7.0 7
  331.10773 257.0 257
  332.11124 44.0 44
  332.12341 26.0 26
  467.18344 18.0 18
  467.21112 6.0 6
  468.16388 7.0 7
  511.17221 538.0 537
//
