ACCESSION: MSBNK-RIKEN-PR301338
RECORD_TITLE: Mitragynine; LC-ESI-QTOF; MS2
DATE: 2019.03.28
AUTHORS: Tetsuya Mori, Center for Sustainable Resource Science, RIKEN
LICENSE: CC BY-NC-SA
PUBLICATION: Tsugawa H., Nakabayashi R., Mori T., Yamada Y., Takahashi M., Rai A., Sugiyama R., Yamamoto H., Nakaya T., Yamazaki M., Kooke R., Bac-Molenaar JA., Oztolan-Erol N., Keurentjes JJB., Arita M., Saito K. (2019) "A cheminformatics approach to characterize metabolomes in stable-isotope-labeled organisms" Nature Methods 16(4):295-298. [doi:10.1038/s41592-019-0358-2]
COMMENT: registered in RIKEN PlaSMA
CH$NAME: Mitragynine
CH$COMPOUND_CLASS: Corynanthean-type alkaloids
CH$FORMULA: C23H30N2O4
CH$EXACT_MASS: 398.503
CH$SMILES: CC[C@@H]1CN2CCC3=C(NC4=C3C(OC)=CC=C4)[C@@H]2C[C@@H]1\C(=C/OC)C(=O)OC
CH$IUPAC: InChI=1S/C23H30N2O4/c1-5-14-12-25-10-9-15-21-18(7-6-8-20(21)28-3)24-22(15)19(25)11-16(14)17(13-27-2)23(26)29-4/h6-8,13-14,16,19,24H,5,9-12H2,1-4H3/b17-13+/t14-,16+,19+/m1/s1
CH$LINK: INCHIKEY LELBFTMXCIIKKX-QVRQZEMUSA-N
AC$INSTRUMENT: LC, Waters Acquity UPLC System; MS, Waters Xevo G2 Q-Tof
AC$INSTRUMENT_TYPE: LC-ESI-QTOF
AC$MASS_SPECTROMETRY: MS_TYPE MS2
AC$MASS_SPECTROMETRY: ION_MODE POSITIVE
AC$MASS_SPECTROMETRY: COLLISION_ENERGY 6V
AC$MASS_SPECTROMETRY: DESOLVATION_GAS_FLOW 800/h
AC$MASS_SPECTROMETRY: DESOLVATION_TEMPERATURE 450 C
AC$MASS_SPECTROMETRY: IONIZATION ESI
AC$CHROMATOGRAPHY: CAPILLARY_VOLTAGE +3.00 kV
AC$CHROMATOGRAPHY: COLUMN_NAME Acquity bridged ethyl hybrid C18 (1.7 um, 2.1 mm * 100 mm, Waters)
AC$CHROMATOGRAPHY: COLUMN_TEMPERATURE 40 C
AC$CHROMATOGRAPHY: FLOW_GRADIENT A/B = (99.5%/0.5% at 0 min, 99.5%/0.5% at 0.1 min, 20%/80% at 10 min, 0.5%/99.5% at 10.1 min, 0.5%/99.5% at 12.0 min, 99.5%/0.5% at 12.1 min, 99.5%/0.5% at 15.0 min)
AC$CHROMATOGRAPHY: FLOW_RATE 0.3 ml/min at 0 min, 0.3 ml/min at 10 min, 0.4 ml/min at 10.1 min, 0.4 ml/min at 14.4 min, 0.3 ml/min at 14.5 min
AC$CHROMATOGRAPHY: RETENTION_TIME 5.539417
AC$CHROMATOGRAPHY: SOLVENT A water including 0.1% formic acid
AC$CHROMATOGRAPHY: SOLVENT B acetonitrile including 0.1% formic acid
MS$FOCUSED_ION: PRECURSOR_TYPE [M+H]+
MS$FOCUSED_ION: PRECURSOR_M/Z 399.2278339
PK$SPLASH: splash10-0abc-0910000000-e22f5f2f0b20e616d36f
PK$NUM_PEAK: 236
PK$PEAK: m/z int. rel.int.
  55.05903 6.0 6
  56.05035 11.0 11
  71.04238 6.0 6
  75.0442 119.0 119
  76.04694 8.0 8
  77.03658 5.0 5
  79.05695 18.0 18
  80.05279 7.0 7
  81.06973 5.0 5
  82.06587 10.0 10
  84.08247 14.0 14
  85.0295 8.0 8
  91.05548 37.0 37
  91.06421 8.0 8
  92.05651 16.0 16
  93.05329 5.0 5
  93.05859 6.0 6
  93.07052 13.0 13
  94.06372 8.0 8
  95.04649 15.0 15
  95.07257 6.0 6
  96.05375 10.0 10
  99.04377 5.0 5
  103.05251 7.0 7
  103.05932 10.0 10
  104.05171 10.0 10
  105.06757 11.0 11
  107.07292 6.0 6
  108.08179 21.0 21
  109.08569 9.0 9
  110.06323 5.0 5
  110.09712 174.0 174
  111.07569 6.0 6
  111.08305 15.0 15
  111.09921 22.0 22
  115.05428 101.0 101
  116.04443 5.0 5
  116.05666 19.0 19
  117.05177 15.0 15
  117.05851 40.0 40
  117.06927 191.0 191
  118.06565 91.0 91
  119.08906 7.0 7
  120.08011 11.0 11
  122.097 53.0 53
  123.07891 11.0 11
  123.10122 7.0 7
  127.05422 105.0 105
  128.04944 36.0 36
  128.06264 32.0 32
  129.0463 8.0 8
  129.05803 85.0 85
  129.07088 20.0 20
  130.05724 17.0 17
  130.06598 89.0 89
  131.0472 6.0 6
  131.07201 178.0 178
  132.0788 41.0 41
  133.05141 8.0 8
  135.09639 8.0 8
  136.07787 7.0 7
  138.0545 16.0 16
  139.07263 21.0 21
  139.07957 23.0 23
  140.07744 10.0 10
  142.06537 22.0 22
  143.07263 270.0 270
  144.04292 11.0 11
  144.08051 283.0 283
  145.05368 19.0 19
  145.08525 60.0 60
  146.05914 37.0 37
  146.09595 79.0 79
  147.06641 22.0 22
  147.07416 11.0 11
  148.07643 20.0 20
  150.09 11.0 11
  151.07481 11.0 11
  152.06189 9.0 9
  152.07108 26.0 26
  152.07964 11.0 11
  153.06761 6.0 6
  154.06912 21.0 21
  154.12227 11.0 11
  155.05394 7.0 7
  155.06422 5.0 5
  155.07457 13.0 13
  156.08394 25.0 25
  157.05399 9.0 9
  157.08363 16.0 16
  158.0605 65.0 65
  158.09933 8.0 8
  159.06833 1000.0 999
  159.10345 5.0 5
  160.07263 169.0 169
  161.07356 11.0 11
  161.08034 15.0 15
  162.09258 22.0 22
  166.06599 10.0 10
  166.08263 9.0 9
  166.09047 9.0 9
  167.07539 27.0 27
  168.05824 5.0 5
  168.06569 15.0 15
  168.08095 26.0 26
  169.08084 9.0 9
  169.08969 25.0 25
  170.06174 46.0 46
  170.08955 11.0 11
  171.05312 6.0 6
  171.06308 28.0 28
  171.07256 16.0 16
  172.07655 36.0 36
  172.10703 9.0 9
  173.08321 39.0 39
  174.09099 697.0 696
  175.09482 100.0 100
  176.06918 8.0 8
  176.10077 20.0 20
  179.07477 5.0 5
  180.07503 10.0 10
  180.10429 10.0 10
  181.07127 6.0 6
  181.08568 10.0 10
  182.1028 9.0 9
  183.06642 24.0 24
  184.06332 12.0 12
  184.07677 72.0 72
  185.07793 50.0 50
  185.08659 47.0 47
  186.08891 55.0 55
  187.09688 13.0 13
  188.10497 11.0 11
  189.06985 8.0 8
  189.07919 6.0 6
  191.07199 9.0 9
  192.08005 12.0 12
  193.08884 20.0 20
  194.07059 9.0 9
  194.09196 14.0 14
  194.10434 6.0 6
  195.06729 29.0 29
  196.0665 6.0 6
  196.07716 21.0 21
  197.07207 17.0 17
  197.08446 10.0 10
  198.05354 5.0 5
  198.08037 28.0 28
  198.09065 32.0 32
  199.10318 20.0 20
  200.10144 18.0 18
  200.11087 20.0 20
  201.1115 14.0 14
  202.11314 10.0 10
  204.07315 18.0 18
  204.08777 7.0 7
  205.08781 14.0 14
  206.08739 9.0 9
  206.10172 13.0 13
  206.12126 9.0 9
  208.07303 6.0 6
  208.08662 9.0 9
  209.08293 28.0 28
  209.09239 6.0 6
  210.09085 74.0 74
  210.10484 8.0 8
  211.09151 13.0 13
  211.10085 9.0 9
  212.10785 11.0 11
  213.11613 6.0 6
  217.09227 11.0 11
  218.08862 9.0 9
  218.10529 6.0 6
  219.11244 10.0 10
  220.07402 36.0 36
  220.09842 9.0 9
  220.11964 14.0 14
  221.07976 26.0 26
  221.09566 11.0 11
  222.07663 5.0 5
  222.0905 15.0 15
  223.06468 5.0 5
  223.08943 10.0 10
  223.09984 14.0 14
  224.06886 14.0 14
  224.10304 31.0 31
  224.11333 8.0 8
  226.08559 11.0 11
  226.12743 6.0 6
  232.07881 6.0 6
  232.11479 6.0 6
  233.0824 11.0 11
  233.0921 7.0 7
  234.08392 17.0 17
  234.09396 19.0 19
  235.09958 21.0 21
  236.07263 11.0 11
  236.10529 31.0 31
  237.08018 7.0 7
  237.10709 14.0 14
  237.1208 5.0 5
  238.08438 7.0 7
  238.11894 6.0 6
  239.09575 7.0 7
  239.11403 17.0 17
  239.13361 12.0 12
  240.10094 6.0 6
  240.12503 7.0 7
  240.13745 7.0 7
  246.13306 7.0 7
  247.09512 10.0 10
  248.08426 9.0 9
  248.10817 23.0 23
  249.11739 6.0 6
  250.08942 9.0 9
  250.11925 5.0 5
  251.09732 7.0 7
  262.09253 9.0 9
  262.11441 6.0 6
  262.1301 6.0 6
  263.08978 9.0 9
  263.1257 21.0 21
  264.12225 7.0 7
  264.13641 9.0 9
  265.06912 5.0 5
  265.09167 6.0 6
  265.13779 13.0 13
  266.11057 8.0 8
  267.15955 6.0 6
  276.09665 14.0 14
  277.10773 8.0 8
  277.14066 11.0 11
  279.1236 7.0 7
  280.14035 6.0 6
  289.09406 6.0 6
  291.14893 9.0 9
//
