ACCESSION: MSBNK-RIKEN-PR302909
RECORD_TITLE: Kaempferol-3-O-glucoside-6''-p-coumaroyl; LC-ESI-QTOF; MS2
DATE: 2019.03.28
AUTHORS: Tetsuya Mori, Center for Sustainable Resource Science, RIKEN
LICENSE: CC BY-NC-SA
PUBLICATION: Tsugawa H., Nakabayashi R., Mori T., Yamada Y., Takahashi M., Rai A., Sugiyama R., Yamamoto H., Nakaya T., Yamazaki M., Kooke R., Bac-Molenaar JA., Oztolan-Erol N., Keurentjes JJB., Arita M., Saito K. (2019) "A cheminformatics approach to characterize metabolomes in stable-isotope-labeled organisms" Nature Methods 16(4):295-298. [doi:10.1038/s41592-019-0358-2]
COMMENT: registered in RIKEN PlaSMA
CH$NAME: Kaempferol-3-O-glucoside-6''-p-coumaroyl
CH$COMPOUND_CLASS: Flavonoid 3-O-p-coumaroyl glycosides
CH$FORMULA: C30H26O13
CH$EXACT_MASS: 594.525
CH$SMILES: O[C@@H]1[C@@H](COC(=O)\C=C\C2=CC=C(O)C=C2)O[C@@H](OC2=C(OC3=CC(O)=CC(O)=C3C2=O)C2=CC=C(O)C=C2)[C@H](O)[C@H]1O
CH$IUPAC: InChI=1S/C30H26O13/c31-16-6-1-14(2-7-16)3-10-22(35)40-13-21-24(36)26(38)27(39)30(42-21)43-29-25(37)23-19(34)11-18(33)12-20(23)41-28(29)15-4-8-17(32)9-5-15/h1-12,21,24,26-27,30-34,36,38-39H,13H2/b10-3+/t21-,24-,26+,27-,30+/m1/s1
CH$LINK: INCHIKEY DVGGLGXQSFURLP-VWMSDXGPSA-N
AC$INSTRUMENT: LC, Waters Acquity UPLC System; MS, Waters Xevo G2 Q-Tof
AC$INSTRUMENT_TYPE: LC-ESI-QTOF
AC$MASS_SPECTROMETRY: MS_TYPE MS2
AC$MASS_SPECTROMETRY: ION_MODE POSITIVE
AC$MASS_SPECTROMETRY: COLLISION_ENERGY 6V
AC$MASS_SPECTROMETRY: DESOLVATION_GAS_FLOW 800/h
AC$MASS_SPECTROMETRY: DESOLVATION_TEMPERATURE 450 C
AC$MASS_SPECTROMETRY: IONIZATION ESI
AC$CHROMATOGRAPHY: CAPILLARY_VOLTAGE +3.00 kV
AC$CHROMATOGRAPHY: COLUMN_NAME Acquity bridged ethyl hybrid C18 (1.7 um, 2.1 mm * 100 mm, Waters)
AC$CHROMATOGRAPHY: COLUMN_TEMPERATURE 40 C
AC$CHROMATOGRAPHY: FLOW_GRADIENT A/B = (99.5%/0.5% at 0 min, 99.5%/0.5% at 0.1 min, 20%/80% at 10 min, 0.5%/99.5% at 10.1 min, 0.5%/99.5% at 12.0 min, 99.5%/0.5% at 12.1 min, 99.5%/0.5% at 15.0 min)
AC$CHROMATOGRAPHY: FLOW_RATE 0.3 ml/min at 0 min, 0.3 ml/min at 10 min, 0.4 ml/min at 10.1 min, 0.4 ml/min at 14.4 min, 0.3 ml/min at 14.5 min
AC$CHROMATOGRAPHY: RETENTION_TIME 5.209317
AC$CHROMATOGRAPHY: SOLVENT A water including 0.1% formic acid
AC$CHROMATOGRAPHY: SOLVENT B acetonitrile including 0.1% formic acid
MS$FOCUSED_ION: PRECURSOR_TYPE [M+H]+
MS$FOCUSED_ION: PRECURSOR_M/Z 595.1446173
PK$SPLASH: splash10-0002-0931010000-f2dbd8b17aee800282db
PK$NUM_PEAK: 35
PK$PEAK: m/z int. rel.int.
  61.72623 5.0 5
  106.88099 6.0 6
  109.02358 7.0 7
  109.50861 7.0 7
  119.04707 11.0 11
  147.0432 1000.0 999
  148.04524 78.0 78
  148.05103 26.0 26
  149.04482 11.0 11
  165.05066 70.0 70
  165.06056 35.0 35
  166.04652 6.0 6
  166.05547 8.0 8
  287.0517 273.0 273
  287.06628 81.0 81
  288.03787 24.0 24
  288.06732 11.0 11
  289.0527 15.0 15
  289.06989 12.0 12
  291.08563 76.0 76
  291.89429 8.0 8
  292.09583 6.0 6
  293.08466 11.0 11
  309.09152 127.0 127
  309.10291 58.0 58
  310.09348 36.0 36
  310.11349 5.0 5
  311.10352 11.0 11
  329.06802 13.0 13
  344.99915 7.0 7
  383.39691 8.0 8
  402.83853 7.0 7
  595.08032 8.0 8
  595.14056 119.0 119
  595.16943 23.0 23
//
