ACCESSION: MSBNK-RIKEN-PR301182
RECORD_TITLE: Hetisine; LC-ESI-QTOF; MS2
DATE: 2019.03.28
AUTHORS: Tetsuya Mori, Center for Sustainable Resource Science, RIKEN
LICENSE: CC BY-NC-SA
PUBLICATION: Tsugawa H., Nakabayashi R., Mori T., Yamada Y., Takahashi M., Rai A., Sugiyama R., Yamamoto H., Nakaya T., Yamazaki M., Kooke R., Bac-Molenaar JA., Oztolan-Erol N., Keurentjes JJB., Arita M., Saito K. (2019) "A cheminformatics approach to characterize metabolomes in stable-isotope-labeled organisms" Nature Methods 16(4):295-298. [doi:10.1038/s41592-019-0358-2]
COMMENT: registered in RIKEN PlaSMA
CH$NAME: Hetisine
CH$COMPOUND_CLASS: Atisane diterpenoids
CH$FORMULA: C20H27NO3
CH$EXACT_MASS: 329.44
CH$SMILES: CC12CN3C4CC56CC(=C)C7C(O)C5C3C(CC(O)C1)(C24)C6C7O
CH$IUPAC: InChI=1S/C20H27NO3/c1-8-3-19-6-10-15-18(2)4-9(22)5-20(15)16(19)14(24)11(8)13(23)12(19)17(20)21(10)7-18/h9-17,22-24H,1,3-7H2,2H3
CH$LINK: INCHIKEY PIWJSAMCEMZIDO-UHFFFAOYSA-N
AC$INSTRUMENT: LC, Waters Acquity UPLC System; MS, Waters Xevo G2 Q-Tof
AC$INSTRUMENT_TYPE: LC-ESI-QTOF
AC$MASS_SPECTROMETRY: MS_TYPE MS2
AC$MASS_SPECTROMETRY: ION_MODE POSITIVE
AC$MASS_SPECTROMETRY: COLLISION_ENERGY 6V
AC$MASS_SPECTROMETRY: DESOLVATION_GAS_FLOW 800/h
AC$MASS_SPECTROMETRY: DESOLVATION_TEMPERATURE 450 C
AC$MASS_SPECTROMETRY: IONIZATION ESI
AC$CHROMATOGRAPHY: CAPILLARY_VOLTAGE +3.00 kV
AC$CHROMATOGRAPHY: COLUMN_NAME Acquity bridged ethyl hybrid C18 (1.7 um, 2.1 mm * 100 mm, Waters)
AC$CHROMATOGRAPHY: COLUMN_TEMPERATURE 40 C
AC$CHROMATOGRAPHY: FLOW_GRADIENT A/B = (99.5%/0.5% at 0 min, 99.5%/0.5% at 0.1 min, 20%/80% at 10 min, 0.5%/99.5% at 10.1 min, 0.5%/99.5% at 12.0 min, 99.5%/0.5% at 12.1 min, 99.5%/0.5% at 15.0 min)
AC$CHROMATOGRAPHY: FLOW_RATE 0.3 ml/min at 0 min, 0.3 ml/min at 10 min, 0.4 ml/min at 10.1 min, 0.4 ml/min at 14.4 min, 0.3 ml/min at 14.5 min
AC$CHROMATOGRAPHY: RETENTION_TIME 3.0671
AC$CHROMATOGRAPHY: SOLVENT A water including 0.1% formic acid
AC$CHROMATOGRAPHY: SOLVENT B acetonitrile including 0.1% formic acid
MS$FOCUSED_ION: PRECURSOR_TYPE [M+H]+
MS$FOCUSED_ION: PRECURSOR_M/Z 330.2063702
PK$SPLASH: splash10-001i-1921000000-d1d7c1fd7244fe5b5e01
PK$NUM_PEAK: 386
PK$PEAK: m/z int. rel.int.
  53.8364 10.0 10
  54.88103 6.0 6
  67.05151 11.0 11
  69.03596 5.0 5
  69.07348 12.0 12
  70.0595 7.0 7
  70.0645 5.0 5
  72.08176 6.0 6
  77.03499 9.0 9
  77.04093 15.0 15
  77.04482 20.0 20
  79.05566 54.0 54
  79.06229 7.0 7
  80.05331 11.0 11
  80.05791 9.0 9
  81.03481 6.0 6
  81.06715 45.0 45
  82.0638 30.0 30
  82.06956 38.0 38
  83.08671 5.0 5
  84.04122 13.0 13
  85.06438 6.0 6
  90.04841 10.0 10
  91.05563 180.0 180
  92.04579 10.0 10
  93.06277 17.0 17
  93.06911 55.0 55
  94.06264 52.0 52
  94.07947 7.0 7
  95.04554 14.0 14
  95.05054 6.0 6
  95.07249 10.0 10
  95.08601 30.0 30
  96.05114 9.0 9
  96.07523 11.0 11
  96.08281 6.0 6
  100.07039 6.0 6
  102.04782 7.0 7
  103.05202 33.0 33
  105.07037 202.0 202
  105.44755 11.0 11
  106.06161 14.0 14
  106.07928 10.0 10
  107.08627 35.0 35
  108.06874 7.0 7
  108.08134 63.0 63
  109.06141 6.0 6
  109.0669 5.0 5
  109.09185 10.0 10
  110.08722 6.0 6
  111.08241 6.0 6
  115.03775 5.0 5
  115.05336 68.0 68
  115.06367 7.0 7
  116.05807 45.0 45
  117.05498 5.0 5
  117.07042 99.0 99
  118.06886 24.0 24
  118.08395 6.0 6
  119.04886 7.0 7
  119.07872 8.0 8
  119.08768 38.0 38
  120.04559 10.0 10
  120.07777 67.0 67
  120.08487 46.0 46
  121.06569 15.0 15
  121.07067 11.0 11
  121.08752 11.0 11
  122.05817 9.0 9
  122.09659 20.0 20
  122.10014 8.0 8
  123.07738 10.0 10
  123.08337 7.0 7
  127.06149 10.0 10
  128.01128 6.0 6
  128.06122 89.0 89
  128.0708 28.0 28
  129.06902 197.0 197
  129.16251 5.0 5
  130.05388 11.0 11
  130.07042 56.0 56
  130.08214 15.0 15
  131.04428 8.0 8
  131.07005 27.0 27
  131.08549 168.0 168
  132.08221 54.0 54
  133.00291 6.0 6
  133.06024 5.0 5
  133.08574 10.0 10
  133.0985 10.0 10
  133.10367 6.0 6
  134.07507 6.0 6
  134.09727 16.0 16
  134.105 8.0 8
  135.076 9.0 9
  135.08313 13.0 13
  135.10103 6.0 6
  138.09146 7.0 7
  139.05467 6.0 6
  141.03589 6.0 6
  141.05159 12.0 12
  141.07085 87.0 87
  141.08446 7.0 7
  142.06313 12.0 12
  142.07368 91.0 91
  143.06993 12.0 12
  143.08121 94.0 94
  143.08939 35.0 35
  144.06274 6.0 6
  144.07898 66.0 66
  144.09268 25.0 25
  145.06927 60.0 60
  145.08098 10.0 10
  145.08708 13.0 13
  145.09959 106.0 106
  146.08607 7.0 7
  146.09927 45.0 45
  146.11076 6.0 6
  147.08217 12.0 12
  147.08955 5.0 5
  147.10081 6.0 6
  148.07149 5.0 5
  148.21661 5.0 5
  148.72807 6.0 6
  150.09264 5.0 5
  150.09979 9.0 9
  150.72604 5.0 5
  152.05431 8.0 8
  152.06447 29.0 29
  152.10104 10.0 10
  153.06024 8.0 8
  153.07266 69.0 69
  154.06633 17.0 17
  154.0726 30.0 30
  154.0811 45.0 45
  154.0912 6.0 6
  155.03259 13.0 13
  155.08629 150.0 150
  155.09911 11.0 11
  155.5423 8.0 8
  156.07173 9.0 9
  156.08745 30.0 30
  157.05925 11.0 11
  157.07552 14.0 14
  157.08122 11.0 11
  157.10164 69.0 69
  157.11447 7.0 7
  158.06241 10.0 10
  158.07127 10.0 10
  158.08243 7.0 7
  158.09819 49.0 49
  158.10826 11.0 11
  159.07928 23.0 23
  159.1176 65.0 65
  160.06741 6.0 6
  160.11661 11.0 11
  161.09015 13.0 13
  161.0968 12.0 12
  162.10097 5.0 5
  162.11136 8.0 8
  164.0593 6.0 6
  164.10297 5.0 5
  165.06093 31.0 31
  165.07278 147.0 147
  166.06084 8.0 8
  166.08076 87.0 87
  166.11673 6.0 6
  167.07816 64.0 64
  167.08606 110.0 110
  168.06813 7.0 7
  168.08922 32.0 32
  168.10358 6.0 6
  169.07936 13.0 13
  169.09406 32.0 32
  169.10291 84.0 84
  170.07076 13.0 13
  170.08244 6.0 6
  170.09343 15.0 15
  171.07872 19.0 19
  171.09932 38.0 38
  171.12212 16.0 16
  172.08575 24.0 24
  172.11467 27.0 27
  173.08272 22.0 22
  173.09633 25.0 25
  175.07814 7.0 7
  175.10381 5.0 5
  176.11687 6.0 6
  177.06789 6.0 6
  178.07983 110.0 110
  178.09309 8.0 8
  178.12399 6.0 6
  178.1344 9.0 9
  179.02536 6.0 6
  179.06778 13.0 13
  179.07742 34.0 34
  179.08672 63.0 63
  179.13118 6.0 6
  180.08981 60.0 60
  180.1008 31.0 31
  181.07135 15.0 15
  181.07883 16.0 16
  181.09947 146.0 146
  181.11067 65.0 65
  181.77805 7.0 7
  182.10072 70.0 70
  182.11183 14.0 14
  183.10437 9.0 9
  183.11902 44.0 44
  184.11426 43.0 43
  185.10066 11.0 11
  185.11871 21.0 21
  186.12967 9.0 9
  188.1133 15.0 15
  190.0715 7.0 7
  190.08298 11.0 11
  190.2827 6.0 6
  191.07994 28.0 28
  192.08939 59.0 59
  192.09984 39.0 39
  193.05887 5.0 5
  193.09575 91.0 91
  193.10535 48.0 48
  194.05829 6.0 6
  194.08882 11.0 11
  194.09648 12.0 12
  194.11093 83.0 83
  195.06229 9.0 9
  195.07799 21.0 21
  195.09796 24.0 24
  195.1127 101.0 101
  195.12613 26.0 26
  196.10115 23.0 23
  196.1152 62.0 62
  197.08868 10.0 10
  197.10698 12.0 12
  197.11937 5.0 5
  197.1329 15.0 15
  198.08598 13.0 13
  198.1082 6.0 6
  198.12524 7.0 7
  198.13162 15.0 15
  199.11615 8.0 8
  199.13583 8.0 8
  200.15497 10.0 10
  202.06706 9.0 9
  202.12444 6.0 6
  203.08527 37.0 37
  203.09691 6.0 6
  203.11986 5.0 5
  204.07698 9.0 9
  204.08984 29.0 29
  205.08687 15.0 15
  205.10204 32.0 32
  206.06711 7.0 7
  206.08707 10.0 10
  206.09763 14.0 14
  206.11208 61.0 61
  206.12222 13.0 13
  206.3353 5.0 5
  206.98248 6.0 6
  207.04936 5.0 5
  207.09178 6.0 6
  207.11116 57.0 57
  207.12193 14.0 14
  208.09633 21.0 21
  208.12241 63.0 63
  209.09352 7.0 7
  209.11084 16.0 16
  209.12215 27.0 27
  209.13881 22.0 22
  210.09918 16.0 16
  210.10733 13.0 13
  210.13036 15.0 15
  211.13322 19.0 19
  211.15175 5.0 5
  212.10323 12.0 12
  212.14659 10.0 10
  213.12112 6.0 6
  213.15871 6.0 6
  213.67422 6.0 6
  214.09315 6.0 6
  215.07675 17.0 17
  215.08824 10.0 10
  215.10255 6.0 6
  216.0889 9.0 9
  216.13977 7.0 7
  217.10013 43.0 43
  217.11086 13.0 13
  218.10286 18.0 18
  218.1154 14.0 14
  218.85104 6.0 6
  219.09691 9.0 9
  219.10687 10.0 10
  219.12126 27.0 27
  220.09879 14.0 14
  220.11964 45.0 45
  221.09683 7.0 7
  221.11453 7.0 7
  221.13339 39.0 39
  222.10817 11.0 11
  222.12697 30.0 30
  222.13898 8.0 8
  224.07524 6.0 6
  224.11118 11.0 11
  224.13287 6.0 6
  224.1488 27.0 27
  224.15749 10.0 10
  225.13326 6.0 6
  225.16054 19.0 19
  229.09764 32.0 32
  231.11006 17.0 17
  232.10832 12.0 12
  232.13182 7.0 7
  232.33385 8.0 8
  233.10738 23.0 23
  233.13191 17.0 17
  234.13391 24.0 24
  234.15396 7.0 7
  235.08072 7.0 7
  235.12172 7.0 7
  235.13445 8.0 8
  235.14481 24.0 24
  235.66481 7.0 7
  236.12396 6.0 6
  236.13609 9.0 9
  236.15518 6.0 6
  237.13222 6.0 6
  237.14946 18.0 18
  237.16438 15.0 15
  237.17545 6.0 6
  238.15607 25.0 25
  239.17261 13.0 13
  241.16875 6.0 6
  244.11789 5.0 5
  248.13676 7.0 7
  248.15172 6.0 6
  249.15738 6.0 6
  250.12589 5.0 5
  252.15111 18.0 18
  253.14755 7.0 7
  254.15553 17.0 17
  255.11298 6.0 6
  256.13519 5.0 5
  261.14758 6.0 6
  262.16684 8.0 8
  263.15402 13.0 13
  266.15585 14.0 14
  266.18359 17.0 17
  266.19498 19.0 19
  266.20297 10.0 10
  267.1897 20.0 20
  268.12906 6.0 6
  268.16217 18.0 18
  268.17877 26.0 26
  269.14352 5.0 5
  270.14505 6.0 6
  272.21741 12.0 12
  273.09735 6.0 6
  273.15106 5.0 5
  274.155 6.0 6
  275.16412 9.0 9
  277.16843 7.0 7
  278.16592 6.0 6
  281.1593 5.0 5
  282.14648 5.0 5
  283.19934 7.0 7
  284.20502 27.0 27
  285.21136 9.0 9
  294.17764 28.0 28
  294.19507 35.0 35
  295.17459 15.0 15
  295.18994 9.0 9
  303.22232 15.0 15
  304.21701 6.0 6
  312.1395 6.0 6
  312.17722 12.0 12
  312.19754 120.0 120
  312.22388 6.0 6
  313.08813 6.0 6
  313.19626 26.0 26
  313.20825 31.0 31
  330.08124 6.0 6
  330.20456 1000.0 999
  330.2439 8.0 8
  330.25882 5.0 5
//
