ACCESSION: MSBNK-RIKEN-PR300295
RECORD_TITLE: 5(S)-5-carboxystrictosidine; LC-ESI-QTOF; MS2
DATE: 2019.03.28
AUTHORS: Tetsuya Mori, Center for Sustainable Resource Science, RIKEN
LICENSE: CC BY-NC-SA
PUBLICATION: Tsugawa H., Nakabayashi R., Mori T., Yamada Y., Takahashi M., Rai A., Sugiyama R., Yamamoto H., Nakaya T., Yamazaki M., Kooke R., Bac-Molenaar JA., Oztolan-Erol N., Keurentjes JJB., Arita M., Saito K. (2019) "A cheminformatics approach to characterize metabolomes in stable-isotope-labeled organisms" Nature Methods 16(4):295-298. [doi:10.1038/s41592-019-0358-2]
COMMENT: registered in RIKEN PlaSMA
CH$NAME: 5(S)-5-carboxystrictosidine
CH$COMPOUND_CLASS: Terpene glycosides
CH$FORMULA: C28H34N2O11
CH$EXACT_MASS: 574.583
CH$SMILES: COC(=O)C1=CO[C@@H](O[C@@H]2O[C@H](CO)[C@@H](O)[C@H](O)[C@H]2O)[C@H](C=C)[C@@H]1C[C@@H]1N[C@@H](CC2=C1NC1=CC=CC=C21)C(O)=O
CH$IUPAC: InChI=1S/C28H34N2O11/c1-3-12-14(8-18-21-15(9-19(29-18)25(35)36)13-6-4-5-7-17(13)30-21)16(26(37)38-2)11-39-27(12)41-28-24(34)23(33)22(32)20(10-31)40-28/h3-7,11-12,14,18-20,22-24,27-34H,1,8-10H2,2H3,(H,35,36)/t12-,14+,18+,19+,20-,22-,23+,24-,27+,28+/m1/s1
CH$LINK: INCHIKEY LHKZIVMTXZLOTP-RMKGEEGASA-N
AC$INSTRUMENT: LC, Waters Acquity UPLC System; MS, Waters Xevo G2 Q-Tof
AC$INSTRUMENT_TYPE: LC-ESI-QTOF
AC$MASS_SPECTROMETRY: MS_TYPE MS2
AC$MASS_SPECTROMETRY: ION_MODE POSITIVE
AC$MASS_SPECTROMETRY: COLLISION_ENERGY 6V
AC$MASS_SPECTROMETRY: DESOLVATION_GAS_FLOW 800/h
AC$MASS_SPECTROMETRY: DESOLVATION_TEMPERATURE 450 C
AC$MASS_SPECTROMETRY: IONIZATION ESI
AC$CHROMATOGRAPHY: CAPILLARY_VOLTAGE +3.00 kV
AC$CHROMATOGRAPHY: COLUMN_NAME Acquity bridged ethyl hybrid C18 (1.7 um, 2.1 mm * 100 mm, Waters)
AC$CHROMATOGRAPHY: COLUMN_TEMPERATURE 40 C
AC$CHROMATOGRAPHY: FLOW_GRADIENT A/B = (99.5%/0.5% at 0 min, 99.5%/0.5% at 0.1 min, 20%/80% at 10 min, 0.5%/99.5% at 10.1 min, 0.5%/99.5% at 12.0 min, 99.5%/0.5% at 12.1 min, 99.5%/0.5% at 15.0 min)
AC$CHROMATOGRAPHY: FLOW_RATE 0.3 ml/min at 0 min, 0.3 ml/min at 10 min, 0.4 ml/min at 10.1 min, 0.4 ml/min at 14.4 min, 0.3 ml/min at 14.5 min
AC$CHROMATOGRAPHY: RETENTION_TIME 4.13255
AC$CHROMATOGRAPHY: SOLVENT A water including 0.1% formic acid
AC$CHROMATOGRAPHY: SOLVENT B acetonitrile including 0.1% formic acid
MS$FOCUSED_ION: PRECURSOR_TYPE [M+H]+
MS$FOCUSED_ION: PRECURSOR_M/Z 575.2235364
PK$SPLASH: splash10-014i-0980000000-7c661ddb3dbaf6c3ee6b
PK$NUM_PEAK: 746
PK$PEAK: m/z int. rel.int.
  55.01371 8.0 8
  58.93357 12.0 12
  61.0277 8.0 8
  63.38211 7.0 7
  67.05517 6.0 6
  68.28393 7.0 7
  68.55479 6.0 6
  69.0164 7.0 7
  69.02301 14.0 14
  69.03494 61.0 61
  69.06054 8.0 8
  69.06551 9.0 9
  69.43358 12.0 12
  71.04727 7.0 7
  73.02782 32.0 32
  77.03901 16.0 16
  77.93259 7.0 7
  79.05042 27.0 27
  80.05202 11.0 11
  81.01648 10.0 10
  81.03175 52.0 52
  81.03955 17.0 17
  81.07612 11.0 11
  82.03725 31.0 31
  82.06676 6.0 6
  84.0415 6.0 6
  84.04676 9.0 9
  84.48631 7.0 7
  84.91235 6.0 6
  85.02744 257.0 257
  85.80977 6.0 6
  87.03556 7.0 7
  87.04101 12.0 12
  91.04124 20.0 20
  91.05016 24.0 24
  91.05811 24.0 24
  92.05106 7.0 7
  93.03102 7.0 7
  93.04587 6.0 6
  93.06996 25.0 25
  94.04564 9.0 9
  94.99634 9.0 9
  95.04628 65.0 65
  96.09023 8.0 8
  97.02086 33.0 33
  97.02941 115.0 115
  99.04105 8.0 8
  101.02204 7.0 7
  101.34535 6.0 6
  102.04897 9.0 9
  103.04676 7.0 7
  103.05479 42.0 42
  103.05978 11.0 11
  105.03272 22.0 22
  105.05813 11.0 11
  105.06951 21.0 21
  106.0639 33.0 33
  107.01186 8.0 8
  107.05005 8.0 8
  108.03974 8.0 8
  108.05074 17.0 17
  108.08467 6.0 6
  109.01703 12.0 12
  109.02956 123.0 123
  109.06384 41.0 41
  110.09096 9.0 9
  111.03913 10.0 10
  111.07058 7.0 7
  115.03867 39.0 39
  115.05244 8.0 8
  116.04415 7.0 7
  117.0507 24.0 24
  117.06131 28.0 28
  118.05042 14.0 14
  118.06168 97.0 97
  118.06871 83.0 83
  118.73999 9.0 9
  119.08302 7.0 7
  119.65154 6.0 6
  120.04356 7.0 7
  121.02855 14.0 14
  121.06164 48.0 48
  121.06848 21.0 21
  123.02737 12.0 12
  123.04379 107.0 107
  123.29355 6.0 6
  124.03765 23.0 23
  124.05642 22.0 22
  127.02732 15.0 15
  127.04129 77.0 77
  127.06022 24.0 24
  127.08041 13.0 13
  128.05167 19.0 19
  128.5603 7.0 7
  129.05322 15.0 15
  129.0587 19.0 19
  129.07124 70.0 70
  130.06363 518.0 517
  130.07738 26.0 26
  131.04918 51.0 51
  131.06628 91.0 91
  131.07533 32.0 32
  132.06691 8.0 8
  132.08064 51.0 51
  133.02655 67.0 67
  133.06224 29.0 29
  134.15475 12.0 12
  135.03596 9.0 9
  135.04344 43.0 43
  136.04396 16.0 16
  137.06044 51.0 51
  138.01816 15.0 15
  139.0374 64.0 64
  139.04524 22.0 22
  139.07132 7.0 7
  140.07219 29.0 29
  141.04964 7.0 7
  141.06488 23.0 23
  141.0766 10.0 10
  142.0573 6.0 6
  142.06638 16.0 16
  142.07431 19.0 19
  142.78983 6.0 6
  143.04944 11.0 11
  143.05966 7.0 7
  143.07025 78.0 78
  143.41428 7.0 7
  144.04042 12.0 12
  144.05902 14.0 14
  144.08122 980.0 979
  144.11476 9.0 9
  145.04675 21.0 21
  145.06305 7.0 7
  145.07622 25.0 25
  145.08446 94.0 94
  145.73666 8.0 8
  146.02583 14.0 14
  146.03445 24.0 24
  146.06058 982.0 981
  147.04424 65.0 65
  147.06113 111.0 111
  147.91611 6.0 6
  148.05045 7.0 7
  148.07114 15.0 15
  148.08051 16.0 16
  148.57314 6.0 6
  149.05006 7.0 7
  149.05852 20.0 20
  150.02402 14.0 14
  150.0562 22.0 22
  151.03894 96.0 96
  151.57207 6.0 6
  152.0437 11.0 11
  152.07339 18.0 18
  152.10954 7.0 7
  153.05971 36.0 36
  154.06482 270.0 270
  155.03516 6.0 6
  155.05814 6.0 6
  155.06747 39.0 39
  155.07474 52.0 52
  156.02797 7.0 7
  156.04582 15.0 15
  156.06804 33.0 33
  156.07857 293.0 293
  157.06265 17.0 17
  157.07773 24.0 24
  157.09384 16.0 16
  157.1263 7.0 7
  158.0574 18.0 18
  158.09564 335.0 335
  159.03864 13.0 13
  159.04694 57.0 57
  159.07927 6.0 6
  159.09526 99.0 99
  159.10741 12.0 12
  160.04956 15.0 15
  160.06068 6.0 6
  160.07762 44.0 44
  160.69392 7.0 7
  161.05791 7.0 7
  161.07721 13.0 13
  163.08649 7.0 7
  164.03412 11.0 11
  164.04619 7.0 7
  164.98657 7.0 7
  165.02544 24.0 24
  165.05431 761.0 760
  165.12831 6.0 6
  166.00664 11.0 11
  166.02631 12.0 12
  166.04413 12.0 12
  166.05769 97.0 97
  166.07408 23.0 23
  166.6783 6.0 6
  166.82082 6.0 6
  166.94254 9.0 9
  167.00142 6.0 6
  167.07294 260.0 260
  167.27313 6.0 6
  168.03548 7.0 7
  168.05228 6.0 6
  168.08118 1000.0 999
  169.03304 6.0 6
  169.05379 7.0 7
  169.07664 759.0 758
  169.2659 6.0 6
  170.04364 13.0 13
  170.05798 139.0 139
  170.06821 52.0 52
  170.07861 132.0 132
  170.09872 75.0 75
  171.06836 21.0 21
  171.08948 34.0 34
  171.11047 9.0 9
  172.06047 9.0 9
  172.07494 94.0 94
  172.0923 6.0 6
  172.11868 8.0 8
  172.74529 6.0 6
  173.07201 17.0 17
  173.1131 9.0 9
  174.04518 16.0 16
  175.02711 7.0 7
  175.04161 11.0 11
  176.0479 7.0 7
  176.0607 9.0 9
  176.0715 30.0 30
  176.16418 6.0 6
  177.05321 30.0 30
  178.06488 6.0 6
  178.07877 16.0 16
  178.19249 6.0 6
  178.40564 7.0 7
  179.07382 13.0 13
  179.09093 6.0 6
  179.765 9.0 9
  180.07378 117.0 117
  180.08391 252.0 252
  180.18442 6.0 6
  181.05095 6.0 6
  181.07912 73.0 73
  181.09482 58.0 58
  182.02609 6.0 6
  182.03775 6.0 6
  182.05588 44.0 44
  182.06648 70.0 70
  182.09534 484.0 484
  182.11418 6.0 6
  183.04195 16.0 16
  183.05333 11.0 11
  183.06985 60.0 60
  183.09816 98.0 98
  183.49913 6.0 6
  183.98997 12.0 12
  184.06175 26.0 26
  184.07617 46.0 46
  184.09007 26.0 26
  184.10722 14.0 14
  184.11983 7.0 7
  185.06328 10.0 10
  185.07889 12.0 12
  185.10399 8.0 8
  186.08957 17.0 17
  186.11617 7.0 7
  187.06081 9.0 9
  187.07829 7.0 7
  188.00819 9.0 9
  188.0405 8.0 8
  188.07047 632.0 631
  188.09026 15.0 15
  188.24097 9.0 9
  188.29143 6.0 6
  188.3941 8.0 8
  189.04933 28.0 28
  189.07504 166.0 166
  190.06593 22.0 22
  190.07861 13.0 13
  190.08907 9.0 9
  190.81212 7.0 7
  191.06656 46.0 46
  191.07437 37.0 37
  191.09293 8.0 8
  192.03008 9.0 9
  192.04781 21.0 21
  192.06493 31.0 31
  192.07777 190.0 190
  193.05548 9.0 9
  193.08476 141.0 141
  193.0934 28.0 28
  194.05333 16.0 16
  194.05986 54.0 54
  194.09444 162.0 162
  194.10464 30.0 30
  195.06906 30.0 30
  195.09055 39.0 39
  195.10272 16.0 16
  195.16702 9.0 9
  196.07205 53.0 53
  196.07877 110.0 110
  196.11928 9.0 9
  197.06177 9.0 9
  197.07808 54.0 54
  197.08992 42.0 42
  197.10803 6.0 6
  197.74687 6.0 6
  198.06876 9.0 9
  198.09006 25.0 25
  198.09738 7.0 7
  198.71814 8.0 8
  199.05826 17.0 17
  199.07486 11.0 11
  200.04312 7.0 7
  200.05214 11.0 11
  200.06668 133.0 133
  200.07791 56.0 56
  200.09822 10.0 10
  201.06644 8.0 8
  201.0807 7.0 7
  202.07109 8.0 8
  202.08284 26.0 26
  202.09395 12.0 12
  203.06934 8.0 8
  203.0788 17.0 17
  203.08784 10.0 10
  204.05788 7.0 7
  204.08057 107.0 107
  204.09575 35.0 35
  204.10616 14.0 14
  205.0681 12.0 12
  205.08832 117.0 117
  205.1106 6.0 6
  206.07246 19.0 19
  206.08099 60.0 60
  206.09793 179.0 179
  207.06425 6.0 6
  207.07217 6.0 6
  207.09663 49.0 49
  207.12001 6.0 6
  208.05527 18.0 18
  208.0751 159.0 159
  208.08781 31.0 31
  208.10265 36.0 36
  208.11736 64.0 64
  208.12889 17.0 17
  209.08168 56.0 56
  209.10132 17.0 17
  210.05469 10.0 10
  210.08891 461.0 461
  210.12805 33.0 33
  211.05867 24.0 24
  211.08261 14.0 14
  211.0966 111.0 111
  211.14015 18.0 18
  212.06325 30.0 30
  212.08202 14.0 14
  212.10568 19.0 19
  213.07759 71.0 71
  213.09286 6.0 6
  214.08354 125.0 125
  214.09233 34.0 34
  215.05673 7.0 7
  215.07961 97.0 97
  215.09081 32.0 32
  216.088 7.0 7
  216.10005 24.0 24
  216.49731 6.0 6
  217.05643 15.0 15
  217.078 28.0 28
  217.09164 90.0 90
  217.8847 9.0 9
  218.08087 14.0 14
  218.09662 115.0 115
  218.10742 23.0 23
  218.89694 10.0 10
  219.08521 64.0 64
  219.099 105.0 105
  219.81587 6.0 6
  220.05055 22.0 22
  220.07582 356.0 356
  220.10843 148.0 148
  220.11772 135.0 135
  221.04146 11.0 11
  221.06276 33.0 33
  221.0833 193.0 193
  221.10721 27.0 27
  221.1154 90.0 90
  221.12831 13.0 13
  221.4985 8.0 8
  222.0605 12.0 12
  222.07687 64.0 64
  222.09283 118.0 118
  222.11842 8.0 8
  223.04639 6.0 6
  223.05899 10.0 10
  223.09151 14.0 14
  223.10928 31.0 31
  224.07286 125.0 125
  224.09926 7.0 7
  224.1358 8.0 8
  224.15097 6.0 6
  225.06502 13.0 13
  225.08051 77.0 77
  225.10794 9.0 9
  226.08031 20.0 20
  226.09172 51.0 51
  226.26982 11.0 11
  227.08215 8.0 8
  227.09572 8.0 8
  227.10378 8.0 8
  228.09268 13.0 13
  229.07986 8.0 8
  229.08636 19.0 19
  229.98161 7.0 7
  230.05019 8.0 8
  230.07472 9.0 9
  230.08728 76.0 76
  230.0994 91.0 91
  231.08244 6.0 6
  231.10226 70.0 70
  231.11279 29.0 29
  231.15634 8.0 8
  232.04854 11.0 11
  232.06516 7.0 7
  232.0762 50.0 50
  232.11337 100.0 100
  232.13518 11.0 11
  233.07135 31.0 31
  233.08452 53.0 53
  233.09517 14.0 14
  233.11406 12.0 12
  233.13176 9.0 9
  233.24791 12.0 12
  233.50464 8.0 8
  233.575 11.0 11
  234.09244 108.0 108
  234.12349 90.0 90
  234.38042 9.0 9
  235.04268 6.0 6
  235.05418 28.0 28
  235.07072 36.0 36
  235.0834 16.0 16
  235.10361 11.0 11
  235.13144 47.0 47
  235.27518 7.0 7
  236.06267 43.0 43
  236.07802 49.0 49
  236.10306 34.0 34
  236.11522 7.0 7
  236.14632 8.0 8
  236.21193 6.0 6
  237.05788 6.0 6
  237.07797 75.0 75
  237.10495 60.0 60
  237.11967 11.0 11
  238.05142 13.0 13
  238.06465 38.0 38
  238.08269 446.0 446
  238.09058 249.0 249
  238.10818 20.0 20
  238.11998 18.0 18
  239.05321 10.0 10
  239.07553 28.0 28
  239.08719 109.0 109
  239.09718 79.0 79
  239.11969 12.0 12
  240.08511 19.0 19
  240.10252 39.0 39
  241.08859 54.0 54
  242.05783 7.0 7
  242.07162 7.0 7
  242.08549 18.0 18
  242.12146 13.0 13
  242.17731 7.0 7
  242.52542 12.0 12
  243.08163 7.0 7
  243.10538 43.0 43
  243.12178 22.0 22
  244.06612 16.0 16
  244.0966 44.0 44
  244.11464 287.0 287
  244.70729 22.0 22
  245.08128 7.0 7
  245.09938 26.0 26
  245.12425 112.0 112
  245.82782 7.0 7
  246.05656 48.0 48
  246.07051 10.0 10
  246.08752 37.0 37
  246.09938 47.0 47
  246.11063 26.0 26
  246.12688 27.0 27
  246.13882 21.0 21
  246.1902 6.0 6
  247.07123 23.0 23
  247.08331 40.0 40
  247.10138 79.0 79
  247.12073 8.0 8
  247.13672 28.0 28
  247.65355 10.0 10
  248.04556 8.0 8
  248.06972 228.0 228
  248.09074 14.0 14
  248.10999 89.0 89
  248.14781 12.0 12
  248.71375 6.0 6
  249.07248 107.0 107
  249.08496 87.0 87
  249.09625 34.0 34
  249.11212 36.0 36
  249.14528 13.0 13
  249.65221 8.0 8
  249.9604 10.0 10
  249.99873 8.0 8
  250.04898 7.0 7
  250.07837 91.0 91
  250.09009 207.0 207
  250.10689 8.0 8
  250.1239 18.0 18
  250.24577 6.0 6
  251.05562 6.0 6
  251.07986 34.0 34
  251.09413 111.0 111
  251.11217 13.0 13
  252.08617 38.0 38
  252.09752 25.0 25
  252.10814 21.0 21
  252.1161 17.0 17
  252.13861 7.0 7
  252.15532 15.0 15
  253.0625 11.0 11
  253.08661 14.0 14
  254.09056 86.0 86
  254.1057 24.0 24
  254.12848 17.0 17
  255.08862 15.0 15
  255.10382 65.0 65
  256.07275 26.0 26
  256.10428 33.0 33
  256.11874 8.0 8
  257.06647 9.0 9
  257.08694 67.0 67
  257.11511 8.0 8
  257.1246 9.0 9
  258.06699 22.0 22
  258.08588 36.0 36
  258.09784 45.0 45
  259.01807 9.0 9
  259.06363 15.0 15
  259.0834 15.0 15
  259.09622 58.0 58
  259.10745 21.0 21
  259.12369 12.0 12
  260.05969 14.0 14
  260.1041 73.0 73
  260.12653 16.0 16
  261.07346 14.0 14
  261.08279 13.0 13
  261.09726 13.0 13
  261.12659 7.0 7
  262.07333 7.0 7
  262.08698 40.0 40
  262.0936 15.0 15
  262.12485 137.0 137
  262.21042 7.0 7
  263.07639 109.0 109
  263.12131 8.0 8
  263.16016 6.0 6
  264.08127 9.0 9
  264.12256 31.0 31
  264.13705 42.0 42
  264.5307 7.0 7
  265.07916 20.0 20
  265.09775 196.0 196
  266.08521 130.0 130
  266.10788 45.0 45
  266.14847 8.0 8
  267.0791 20.0 20
  267.09573 28.0 28
  267.12292 9.0 9
  268.09366 6.0 6
  269.09296 13.0 13
  270.08664 21.0 21
  270.12363 29.0 29
  271.04642 7.0 7
  271.09283 59.0 59
  271.10419 34.0 34
  271.13098 11.0 11
  271.1734 9.0 9
  271.97733 6.0 6
  272.08566 20.0 20
  272.10635 144.0 144
  272.9895 7.0 7
  273.05148 8.0 8
  273.06641 13.0 13
  273.09155 17.0 17
  273.11499 60.0 60
  273.97086 6.0 6
  274.07776 23.0 23
  274.0946 21.0 21
  274.12213 47.0 47
  275.06003 7.0 7
  275.07736 18.0 18
  275.09079 9.0 9
  275.11615 44.0 44
  275.96332 10.0 10
  276.03583 12.0 12
  276.0582 8.0 8
  276.06644 7.0 7
  276.10184 45.0 45
  276.11188 18.0 18
  277.04199 7.0 7
  277.07431 56.0 56
  277.09329 11.0 11
  278.07852 20.0 20
  278.0896 18.0 18
  278.10556 10.0 10
  279.07587 15.0 15
  279.0864 9.0 9
  279.10678 9.0 9
  279.11713 13.0 13
  280.08862 7.0 7
  280.10794 9.0 9
  280.12268 9.0 9
  280.13989 9.0 9
  281.09924 20.0 20
  281.13412 9.0 9
  281.49524 6.0 6
  282.07507 14.0 14
  282.09833 51.0 51
  282.11603 7.0 7
  283.09735 18.0 18
  284.09756 20.0 20
  284.11264 9.0 9
  285.07364 17.0 17
  285.09967 13.0 13
  285.11157 6.0 6
  286.06165 8.0 8
  286.0835 14.0 14
  286.09607 17.0 17
  287.01904 11.0 11
  287.07327 8.0 8
  287.08948 17.0 17
  288.09738 30.0 30
  288.21494 7.0 7
  289.09286 23.0 23
  289.11188 10.0 10
  289.13968 20.0 20
  290.10724 74.0 74
  290.12369 61.0 61
  291.08908 41.0 41
  291.10214 10.0 10
  292.0769 6.0 6
  292.09674 12.0 12
  292.12277 15.0 15
  292.77417 7.0 7
  293.07407 11.0 11
  293.09766 26.0 26
  293.13303 28.0 28
  293.40717 7.0 7
  294.06155 15.0 15
  294.0827 29.0 29
  294.10907 13.0 13
  294.12268 10.0 10
  294.142 7.0 7
  295.05383 8.0 8
  295.0809 64.0 64
  295.1171 8.0 8
  295.13425 6.0 6
  296.08643 13.0 13
  296.14044 8.0 8
  298.09113 11.0 11
  298.12256 7.0 7
  299.07703 7.0 7
  299.103 17.0 17
  299.12167 15.0 15
  299.7327 6.0 6
  300.0582 7.0 7
  300.08136 15.0 15
  300.1048 70.0 70
  301.1124 8.0 8
  302.11682 9.0 9
  302.1301 10.0 10
  302.14478 16.0 16
  303.12042 12.0 12
  304.08914 21.0 21
  304.10648 45.0 45
  304.13049 26.0 26
  304.1423 30.0 30
  305.11273 10.0 10
  305.12967 20.0 20
  306.12155 6.0 6
  308.09149 12.0 12
  308.1181 6.0 6
  309.09805 18.0 18
  309.12173 9.0 9
  310.08691 13.0 13
  310.16248 8.0 8
  311.09995 15.0 15
  313.0755 15.0 15
  313.86734 6.0 6
  315.11929 9.0 9
  316.09689 12.0 12
  317.1272 18.0 18
  317.77563 6.0 6
  318.08112 7.0 7
  318.11978 59.0 59
  319.12259 24.0 24
  320.10043 6.0 6
  322.11499 11.0 11
  322.14648 7.0 7
  323.11148 18.0 18
  323.24487 11.0 11
  324.1459 7.0 7
  325.08749 9.0 9
  325.10077 7.0 7
  325.1174 9.0 9
  326.08466 7.0 7
  332.12613 13.0 13
  333.11893 11.0 11
  333.13568 21.0 21
  333.44559 6.0 6
  335.15787 8.0 8
  336.07718 8.0 8
  336.14053 6.0 6
  342.10538 13.0 13
  347.10141 10.0 10
  350.15021 7.0 7
  359.70236 9.0 9
  361.1366 9.0 9
  365.17285 10.0 10
  366.11035 10.0 10
  378.11877 8.0 8
  378.13043 10.0 10
  378.30951 7.0 7
  382.16342 8.0 8
  396.14493 7.0 7
  403.27573 8.0 8
  421.59818 7.0 7
  453.58368 14.0 14
  455.85666 13.0 13
  456.08414 13.0 13
  478.08606 12.0 12
  552.34192 19.0 19
  567.96167 7.0 7
  575.22498 289.0 289
//
