ACCESSION: MSBNK-RIKEN-PR300333
RECORD_TITLE: Gelsevirine; LC-ESI-QTOF; MS2
DATE: 2019.03.28
AUTHORS: Tetsuya Mori, Center for Sustainable Resource Science, RIKEN
LICENSE: CC BY-NC-SA
PUBLICATION: Tsugawa H., Nakabayashi R., Mori T., Yamada Y., Takahashi M., Rai A., Sugiyama R., Yamamoto H., Nakaya T., Yamazaki M., Kooke R., Bac-Molenaar JA., Oztolan-Erol N., Keurentjes JJB., Arita M., Saito K. (2019) "A cheminformatics approach to characterize metabolomes in stable-isotope-labeled organisms" Nature Methods 16(4):295-298. [doi:10.1038/s41592-019-0358-2]
COMMENT: registered in RIKEN PlaSMA
CH$NAME: Gelsevirine
CH$COMPOUND_CLASS: Gelsemium alkaloids
CH$FORMULA: C21H24N2O3
CH$EXACT_MASS: 352.434
CH$SMILES: CON1C(=O)[C@@]2([C@H]3[C@H]4[C@H]5CO[C@@H]2C[C@H]5[C@@]3(CN4C)C=C)C2=CC=CC=C12
CH$IUPAC: InChI=1S/C21H24N2O3/c1-4-20-11-22(2)17-12-10-26-16(9-14(12)20)21(18(17)20)13-7-5-6-8-15(13)23(25-3)19(21)24/h4-8,12,14,16-18H,1,9-11H2,2-3H3/t12-,14+,16+,17+,18-,20-,21-/m0/s1
CH$LINK: INCHIKEY SSSCMFCWHWCCEH-MTYPYGCKSA-N
AC$INSTRUMENT: LC, Waters Acquity UPLC System; MS, Waters Xevo G2 Q-Tof
AC$INSTRUMENT_TYPE: LC-ESI-QTOF
AC$MASS_SPECTROMETRY: MS_TYPE MS2
AC$MASS_SPECTROMETRY: ION_MODE POSITIVE
AC$MASS_SPECTROMETRY: COLLISION_ENERGY 6V
AC$MASS_SPECTROMETRY: DESOLVATION_GAS_FLOW 800/h
AC$MASS_SPECTROMETRY: DESOLVATION_TEMPERATURE 450 C
AC$MASS_SPECTROMETRY: IONIZATION ESI
AC$CHROMATOGRAPHY: CAPILLARY_VOLTAGE +3.00 kV
AC$CHROMATOGRAPHY: COLUMN_NAME Acquity bridged ethyl hybrid C18 (1.7 um, 2.1 mm * 100 mm, Waters)
AC$CHROMATOGRAPHY: COLUMN_TEMPERATURE 40 C
AC$CHROMATOGRAPHY: FLOW_GRADIENT A/B = (99.5%/0.5% at 0 min, 99.5%/0.5% at 0.1 min, 20%/80% at 10 min, 0.5%/99.5% at 10.1 min, 0.5%/99.5% at 12.0 min, 99.5%/0.5% at 12.1 min, 99.5%/0.5% at 15.0 min)
AC$CHROMATOGRAPHY: FLOW_RATE 0.3 ml/min at 0 min, 0.3 ml/min at 10 min, 0.4 ml/min at 10.1 min, 0.4 ml/min at 14.4 min, 0.3 ml/min at 14.5 min
AC$CHROMATOGRAPHY: RETENTION_TIME 4.0535
AC$CHROMATOGRAPHY: SOLVENT A water including 0.1% formic acid
AC$CHROMATOGRAPHY: SOLVENT B acetonitrile including 0.1% formic acid
MS$FOCUSED_ION: PRECURSOR_TYPE [M+H]+
MS$FOCUSED_ION: PRECURSOR_M/Z 353.1859691
PK$SPLASH: splash10-03k9-0491000000-8235d9545f5f745aa987
PK$NUM_PEAK: 577
PK$PEAK: m/z int. rel.int.
  57.0534 12.0 12
  57.05811 15.0 15
  57.06485 6.0 6
  68.05181 31.0 31
  70.04366 20.0 20
  70.05235 6.0 6
  70.05927 6.0 6
  70.06567 47.0 47
  70.07138 13.0 13
  71.07185 16.0 16
  71.07675 6.0 6
  73.05212 8.0 8
  78.45602 5.0 5
  79.05511 9.0 9
  79.06124 8.0 8
  80.0517 16.0 16
  80.06625 8.0 8
  82.06653 97.0 97
  83.07353 32.0 32
  84.08047 20.0 20
  84.08307 8.0 8
  85.07777 6.0 6
  86.04716 11.0 11
  86.05875 52.0 52
  86.0932 7.0 7
  87.06764 46.0 46
  88.07397 12.0 12
  90.10455 5.0 5
  91.04753 6.0 6
  91.0573 16.0 16
  93.07571 7.0 7
  94.06033 33.0 33
  94.06594 39.0 39
  95.0688 34.0 34
  95.07809 10.0 10
  96.06209 6.0 6
  96.07237 5.0 5
  96.07999 63.0 63
  96.08631 14.0 14
  97.04655 7.0 7
  97.05643 7.0 7
  97.08193 10.0 10
  97.09333 12.0 12
  98.09656 5.0 5
  98.93118 7.0 7
  100.07431 65.0 65
  104.05968 6.0 6
  105.06984 7.0 7
  106.05706 6.0 6
  106.06845 8.0 8
  107.06312 15.0 15
  108.0799 271.0 271
  108.09117 6.0 6
  108.43595 5.0 5
  109.08556 100.0 100
  109.89663 5.0 5
  110.03346 6.0 6
  110.05299 7.0 7
  110.06031 7.0 7
  110.09527 508.0 507
  111.09412 14.0 14
  111.10094 42.0 42
  112.0825 10.0 10
  113.0956 6.0 6
  114.09922 11.0 11
  115.05199 10.0 10
  116.03291 7.0 7
  118.07699 14.0 14
  118.08291 7.0 7
  119.0426 6.0 6
  119.0913 7.0 7
  120.04348 7.0 7
  120.0802 222.0 222
  121.08772 139.0 139
  122.06335 7.0 7
  122.09705 84.0 84
  122.10332 23.0 23
  123.05534 6.0 6
  123.10165 15.0 15
  124.0745 30.0 30
  124.08492 7.0 7
  125.00107 5.0 5
  126.09175 39.0 39
  127.10194 6.0 6
  128.05032 15.0 15
  129.05759 7.0 7
  129.07082 27.0 27
  131.08397 54.0 54
  131.59909 7.0 7
  132.04523 27.0 27
  132.0797 92.0 92
  133.03996 7.0 7
  133.05727 28.0 28
  133.08751 179.0 179
  134.04239 10.0 10
  134.0589 8.0 8
  134.09386 86.0 86
  135.0768 7.0 7
  135.09966 6.0 6
  136.11824 14.0 14
  138.09026 19.0 19
  139.09534 21.0 21
  139.10176 45.0 45
  141.07208 11.0 11
  143.07895 13.0 13
  144.07451 12.0 12
  144.08362 10.0 10
  145.04997 29.0 29
  145.06299 17.0 17
  145.09015 20.0 20
  146.058 42.0 42
  146.09364 101.0 101
  147.09441 27.0 27
  147.10181 16.0 16
  148.07887 6.0 6
  148.11243 6.0 6
  149.08759 6.0 6
  149.11522 13.0 13
  149.12259 15.0 15
  150.08577 61.0 61
  150.09206 37.0 37
  151.0988 189.0 189
  152.09137 5.0 5
  152.10301 38.0 38
  155.08301 13.0 13
  156.07932 13.0 13
  156.08577 10.0 10
  157.08127 6.0 6
  158.04556 7.0 7
  158.05614 13.0 13
  158.0648 25.0 25
  158.08426 10.0 10
  158.09607 53.0 53
  158.1041 17.0 17
  159.06027 13.0 13
  159.06754 19.0 19
  159.09207 22.0 22
  159.10439 78.0 78
  160.06593 10.0 10
  160.07918 25.0 25
  160.11108 17.0 17
  160.12328 6.0 6
  161.08759 8.0 8
  161.11617 13.0 13
  161.84206 10.0 10
  162.05606 13.0 13
  162.08731 16.0 16
  162.12811 9.0 9
  163.05704 10.0 10
  163.09315 6.0 6
  164.104 8.0 8
  164.11194 18.0 18
  165.0692 7.0 7
  165.09119 8.0 8
  165.37376 15.0 15
  166.02739 8.0 8
  167.06709 13.0 13
  167.07463 20.0 20
  168.07416 8.0 8
  168.0831 15.0 15
  170.05949 20.0 20
  170.08434 5.0 5
  172.09512 27.0 27
  172.10254 16.0 16
  172.11209 24.0 24
  173.07477 7.0 7
  174.01517 8.0 8
  174.07668 22.0 22
  174.08888 5.0 5
  174.1058 7.0 7
  174.12724 15.0 15
  175.10001 15.0 15
  176.06001 5.0 5
  176.10825 23.0 23
  177.15036 9.0 9
  177.19682 6.0 6
  178.07657 6.0 6
  178.08575 6.0 6
  179.04283 6.0 6
  179.07288 14.0 14
  179.08621 17.0 17
  180.08084 54.0 54
  180.09305 10.0 10
  181.07654 7.0 7
  181.08488 8.0 8
  181.09674 6.0 6
  181.10593 10.0 10
  182.05086 9.0 9
  182.06018 14.0 14
  182.08675 7.0 7
  182.09512 7.0 7
  182.11415 6.0 6
  182.45793 8.0 8
  183.05171 7.0 7
  183.06651 56.0 56
  184.07567 138.0 138
  184.08865 12.0 12
  185.0663 7.0 7
  185.08116 8.0 8
  185.91617 8.0 8
  186.05934 7.0 7
  186.12532 24.0 24
  186.31064 6.0 6
  187.08891 37.0 37
  188.07477 24.0 24
  189.07021 5.0 5
  190.06831 6.0 6
  190.10313 11.0 11
  190.12895 30.0 30
  191.04021 7.0 7
  191.08655 11.0 11
  191.12177 7.0 7
  191.12895 8.0 8
  192.07898 10.0 10
  192.08867 11.0 11
  192.10318 15.0 15
  193.08241 8.0 8
  193.10278 5.0 5
  194.07845 9.0 9
  194.09586 24.0 24
  195.05286 13.0 13
  195.06758 129.0 129
  195.07576 33.0 33
  195.08902 24.0 24
  195.10176 34.0 34
  195.1129 14.0 14
  196.05766 6.0 6
  196.07112 23.0 23
  196.07805 32.0 32
  196.11134 35.0 35
  197.05421 13.0 13
  197.06871 15.0 15
  197.08682 28.0 28
  197.11185 12.0 12
  197.12407 8.0 8
  198.06198 15.0 15
  198.08179 5.0 5
  198.09813 13.0 13
  199.07617 18.0 18
  199.08617 11.0 11
  200.09624 25.0 25
  200.69983 5.0 5
  203.08389 8.0 8
  204.07352 43.0 43
  204.08348 25.0 25
  204.0968 7.0 7
  204.14554 15.0 15
  204.87408 8.0 8
  205.091 22.0 22
  205.10274 23.0 23
  205.14496 7.0 7
  205.74799 9.0 9
  206.08842 30.0 30
  206.1012 23.0 23
  207.05139 7.0 7
  207.0612 6.0 6
  207.08846 16.0 16
  207.12193 6.0 6
  208.04869 11.0 11
  208.07304 61.0 61
  208.08842 15.0 15
  208.11298 15.0 15
  209.07321 13.0 13
  209.08615 50.0 50
  209.09822 14.0 14
  209.10745 17.0 17
  210.06866 7.0 7
  210.09103 40.0 40
  210.09827 26.0 26
  210.12085 6.0 6
  211.04012 6.0 6
  211.05096 18.0 18
  211.06335 5.0 5
  211.08479 279.0 279
  211.10472 7.0 7
  212.05219 7.0 7
  212.07455 46.0 46
  212.09497 45.0 45
  213.10161 86.0 86
  213.12994 10.0 10
  214.07565 8.0 8
  214.08749 5.0 5
  214.11032 13.0 13
  216.06064 8.0 8
  216.08054 9.0 9
  216.09108 29.0 29
  217.08315 25.0 25
  217.09892 13.0 13
  217.11337 7.0 7
  218.07022 12.0 12
  218.08559 17.0 17
  218.10536 65.0 65
  219.07494 7.0 7
  219.10237 31.0 31
  219.11351 16.0 16
  219.12375 21.0 21
  220.06065 9.0 9
  220.07283 58.0 58
  220.08873 12.0 12
  220.10872 51.0 51
  220.12755 19.0 19
  221.06653 6.0 6
  221.08505 41.0 41
  221.12529 12.0 12
  221.13808 15.0 15
  221.1485 7.0 7
  222.05029 7.0 7
  222.08966 107.0 107
  222.1181 13.0 13
  223.0546 6.0 6
  223.09091 51.0 51
  223.10277 38.0 38
  223.13394 7.0 7
  224.09068 28.0 28
  224.10716 24.0 24
  225.10336 30.0 30
  225.11876 5.0 5
  226.05743 7.0 7
  226.07603 6.0 6
  226.08699 6.0 6
  226.1073 20.0 20
  227.07843 14.0 14
  227.1068 7.0 7
  227.13867 8.0 8
  228.07515 14.0 14
  229.07828 15.0 15
  229.08951 17.0 17
  230.07367 23.0 23
  230.09962 49.0 49
  230.50845 6.0 6
  230.99986 7.0 7
  231.08006 9.0 9
  231.10194 47.0 47
  231.11781 47.0 47
  231.19597 8.0 8
  232.076 30.0 30
  232.09544 13.0 13
  232.10342 26.0 26
  232.11353 36.0 36
  232.12663 7.0 7
  233.07422 18.0 18
  233.0869 37.0 37
  233.10806 27.0 27
  233.11676 16.0 16
  234.06645 5.0 5
  234.09004 129.0 129
  234.11076 15.0 15
  234.13252 47.0 47
  234.38998 7.0 7
  235.07401 6.0 6
  235.08974 47.0 47
  235.0993 51.0 51
  235.12065 27.0 27
  235.13499 45.0 45
  236.06494 7.0 7
  236.07538 14.0 14
  236.08821 22.0 22
  236.10304 58.0 58
  236.11734 21.0 21
  236.14034 7.0 7
  236.50838 7.0 7
  237.08041 31.0 31
  237.10677 267.0 267
  238.05913 6.0 6
  238.0735 15.0 15
  238.0863 49.0 49
  238.11278 86.0 86
  239.09343 5.0 5
  239.11041 46.0 46
  239.15587 10.0 10
  240.11964 20.0 20
  240.14522 8.0 8
  240.53479 5.0 5
  241.09747 8.0 8
  241.1217 7.0 7
  242.07083 11.0 11
  242.08725 72.0 72
  242.09929 110.0 110
  242.59402 9.0 9
  243.09712 54.0 54
  243.11818 11.0 11
  244.10794 54.0 54
  244.11841 25.0 25
  245.07602 11.0 11
  245.10585 30.0 30
  245.1261 19.0 19
  246.0152 8.0 8
  246.0497 6.0 6
  246.09218 152.0 152
  246.12865 51.0 51
  247.05685 11.0 11
  247.08109 18.0 18
  247.09216 42.0 42
  247.10138 68.0 68
  247.11855 21.0 21
  247.1313 13.0 13
  247.33672 7.0 7
  247.68637 7.0 7
  248.08253 23.0 23
  248.10162 113.0 113
  248.11168 128.0 128
  248.13107 12.0 12
  248.14107 8.0 8
  248.99417 8.0 8
  249.07219 14.0 14
  249.08594 9.0 9
  249.10373 82.0 82
  249.11661 101.0 101
  249.13591 16.0 16
  249.99863 6.0 6
  250.0797 8.0 8
  250.10611 25.0 25
  250.11974 34.0 34
  250.13309 10.0 10
  250.16039 39.0 39
  250.16829 16.0 16
  251.1011 16.0 16
  251.11864 90.0 90
  251.13467 25.0 25
  251.14992 10.0 10
  252.12259 12.0 12
  252.13493 22.0 22
  252.17233 7.0 7
  253.03795 5.0 5
  253.10587 29.0 29
  253.13562 12.0 12
  254.09015 7.0 7
  254.13106 8.0 8
  255.09988 17.0 17
  256.10455 7.0 7
  256.11807 16.0 16
  257.0592 6.0 6
  257.10977 5.0 5
  258.07404 32.0 32
  258.09412 124.0 124
  258.1123 13.0 13
  259.08325 12.0 12
  259.09543 7.0 7
  260.06735 6.0 6
  260.1066 585.0 584
  260.14081 10.0 10
  260.16037 5.0 5
  261.08987 27.0 27
  261.11551 227.0 227
  261.14017 37.0 37
  261.15292 19.0 19
  262.03564 6.0 6
  262.08627 16.0 16
  262.09763 14.0 14
  262.11188 42.0 42
  262.13184 74.0 74
  262.14563 26.0 26
  262.16522 13.0 13
  262.17572 10.0 10
  262.31549 8.0 8
  263.09125 6.0 6
  263.10071 18.0 18
  263.12051 164.0 164
  263.1431 69.0 69
  263.82047 7.0 7
  264.08585 8.0 8
  264.10953 15.0 15
  264.12183 41.0 41
  264.13559 43.0 43
  264.14813 14.0 14
  264.16498 15.0 15
  265.11459 8.0 8
  265.13318 74.0 74
  265.14645 16.0 16
  265.32147 10.0 10
  265.62793 9.0 9
  266.12167 8.0 8
  266.17984 14.0 14
  267.11978 13.0 13
  267.16098 5.0 5
  267.18198 6.0 6
  268.09824 7.0 7
  270.10278 8.0 8
  270.1459 9.0 9
  271.09592 11.0 11
  271.11804 7.0 7
  272.09753 48.0 48
  272.10721 154.0 154
  272.12985 13.0 13
  272.44772 13.0 13
  273.10544 63.0 63
  273.11557 89.0 89
  273.12396 34.0 34
  273.1442 7.0 7
  273.65118 12.0 12
  274.09225 16.0 16
  274.10898 31.0 31
  274.12415 59.0 59
  274.14273 18.0 18
  275.12 12.0 12
  275.15591 20.0 20
  276.10953 6.0 6
  276.12558 39.0 39
  276.15063 27.0 27
  276.16766 46.0 46
  276.18066 13.0 13
  277.11865 10.0 10
  277.13269 47.0 47
  277.15286 10.0 10
  277.1763 10.0 10
  278.05255 7.0 7
  278.10016 5.0 5
  278.12448 6.0 6
  278.13403 21.0 21
  278.15305 20.0 20
  279.1239 60.0 60
  279.15424 46.0 46
  280.14255 16.0 16
  280.16873 138.0 138
  280.19095 6.0 6
  281.11844 6.0 6
  281.13959 11.0 11
  281.17834 40.0 40
  285.14301 6.0 6
  287.11264 6.0 6
  287.14709 5.0 5
  288.11658 12.0 12
  289.12903 201.0 201
  289.14203 146.0 146
  289.39865 6.0 6
  290.11023 14.0 14
  290.13174 105.0 105
  290.80914 6.0 6
  290.9462 5.0 5
  291.121 47.0 47
  291.14639 529.0 528
  292.13284 18.0 18
  292.14862 77.0 77
  292.15845 65.0 65
  292.1759 12.0 12
  292.70789 5.0 5
  293.11401 6.0 6
  293.16681 69.0 69
  293.24469 8.0 8
  294.13574 8.0 8
  294.16339 50.0 50
  294.17947 82.0 82
  296.15268 15.0 15
  296.17432 8.0 8
  301.14157 6.0 6
  303.1348 33.0 33
  303.14737 150.0 150
  303.16061 36.0 36
  304.1525 133.0 133
  304.16595 22.0 22
  305.12482 5.0 5
  305.15097 18.0 18
  305.1651 25.0 25
  305.17892 24.0 24
  306.14941 6.0 6
  306.17017 20.0 20
  307.13052 48.0 48
  307.14221 32.0 32
  307.15735 30.0 30
  308.09857 5.0 5
  308.13464 15.0 15
  310.14209 7.0 7
  318.69745 5.0 5
  321.15906 42.0 42
  322.11124 14.0 14
  322.12845 19.0 19
  322.16757 1000.0 999
  323.1366 7.0 7
  323.17139 234.0 234
  323.18851 39.0 39
  324.16339 17.0 17
  324.17972 55.0 55
  333.15616 6.0 6
  335.32935 6.0 6
  339.16513 6.0 6
  353.17377 26.0 26
  353.19308 33.0 33
//
