ACCESSION: MSBNK-RIKEN-PR300320
RECORD_TITLE: 14,15-Dehydro-16-epi-vincamine; LC-ESI-QTOF; MS2
DATE: 2019.03.28
AUTHORS: Tetsuya Mori, Center for Sustainable Resource Science, RIKEN
LICENSE: CC BY-NC-SA
PUBLICATION: Tsugawa H., Nakabayashi R., Mori T., Yamada Y., Takahashi M., Rai A., Sugiyama R., Yamamoto H., Nakaya T., Yamazaki M., Kooke R., Bac-Molenaar JA., Oztolan-Erol N., Keurentjes JJB., Arita M., Saito K. (2019) "A cheminformatics approach to characterize metabolomes in stable-isotope-labeled organisms" Nature Methods 16(4):295-298. [doi:10.1038/s41592-019-0358-2]
COMMENT: registered in RIKEN PlaSMA
CH$NAME: 14,15-Dehydro-16-epi-vincamine
CH$COMPOUND_CLASS: Eburnan-type alkaloids
CH$FORMULA: C21H24N2O3
CH$EXACT_MASS: 352.434
CH$SMILES: CC[C@]12C[C@](O)(N3C4=CC=CC=C4C4=C3[C@H]1N(CC4)CC=C2)C(=O)OC
CH$IUPAC: InChI=1S/C21H24N2O3/c1-3-20-10-6-11-22-12-9-15-14-7-4-5-8-16(14)23(17(15)18(20)22)21(25,13-20)19(24)26-2/h4-8,10,18,25H,3,9,11-13H2,1-2H3/t18-,20+,21-/m1/s1
CH$LINK: INCHIKEY BQGJXFQCMYJENQ-HLAWJBBLSA-N
AC$INSTRUMENT: LC, Waters Acquity UPLC System; MS, Waters Xevo G2 Q-Tof
AC$INSTRUMENT_TYPE: LC-ESI-QTOF
AC$MASS_SPECTROMETRY: MS_TYPE MS2
AC$MASS_SPECTROMETRY: ION_MODE POSITIVE
AC$MASS_SPECTROMETRY: COLLISION_ENERGY 6V
AC$MASS_SPECTROMETRY: DESOLVATION_GAS_FLOW 800/h
AC$MASS_SPECTROMETRY: DESOLVATION_TEMPERATURE 450 C
AC$MASS_SPECTROMETRY: IONIZATION ESI
AC$CHROMATOGRAPHY: CAPILLARY_VOLTAGE +3.00 kV
AC$CHROMATOGRAPHY: COLUMN_NAME Acquity bridged ethyl hybrid C18 (1.7 um, 2.1 mm * 100 mm, Waters)
AC$CHROMATOGRAPHY: COLUMN_TEMPERATURE 40 C
AC$CHROMATOGRAPHY: FLOW_GRADIENT A/B = (99.5%/0.5% at 0 min, 99.5%/0.5% at 0.1 min, 20%/80% at 10 min, 0.5%/99.5% at 10.1 min, 0.5%/99.5% at 12.0 min, 99.5%/0.5% at 12.1 min, 99.5%/0.5% at 15.0 min)
AC$CHROMATOGRAPHY: FLOW_RATE 0.3 ml/min at 0 min, 0.3 ml/min at 10 min, 0.4 ml/min at 10.1 min, 0.4 ml/min at 14.4 min, 0.3 ml/min at 14.5 min
AC$CHROMATOGRAPHY: RETENTION_TIME 4.255667
AC$CHROMATOGRAPHY: SOLVENT A water including 0.1% formic acid
AC$CHROMATOGRAPHY: SOLVENT B acetonitrile including 0.1% formic acid
MS$FOCUSED_ION: PRECURSOR_TYPE [M+H]+
MS$FOCUSED_ION: PRECURSOR_M/Z 353.1859691
PK$SPLASH: splash10-00kf-0960000000-d36c3ee137e591e1c8dd
PK$NUM_PEAK: 312
PK$PEAK: m/z int. rel.int.
  67.05421 16.0 16
  68.0491 14.0 14
  70.06299 11.0 11
  77.0387 38.0 38
  77.04308 9.0 9
  78.03326 7.0 7
  79.05135 22.0 22
  80.05038 37.0 37
  80.05795 7.0 7
  81.05973 28.0 28
  83.04449 13.0 13
  88.94136 7.0 7
  91.0466 10.0 10
  91.05717 55.0 55
  92.0451 15.0 15
  93.05199 7.0 7
  93.05946 25.0 25
  93.06827 17.0 17
  93.07176 9.0 9
  94.05954 15.0 15
  94.06556 12.0 12
  95.04637 5.0 5
  96.08646 6.0 6
  101.03088 7.0 7
  103.05333 30.0 30
  104.05306 8.0 8
  105.02677 5.0 5
  105.07052 19.0 19
  106.06637 10.0 10
  107.06606 7.0 7
  107.07402 18.0 18
  108.08015 36.0 36
  109.05925 6.0 6
  109.08951 12.0 12
  111.04766 5.0 5
  115.01806 5.0 5
  115.03699 7.0 7
  115.04368 5.0 5
  115.05206 17.0 17
  115.05747 29.0 29
  116.05519 17.0 17
  117.05757 67.0 67
  117.07069 78.0 78
  118.066 60.0 60
  118.07825 6.0 6
  119.04571 6.0 6
  120.0779 19.0 19
  120.08464 6.0 6
  121.08865 9.0 9
  122.07461 5.0 5
  122.09427 18.0 18
  122.10152 6.0 6
  123.08724 5.0 5
  123.09866 7.0 7
  123.11003 6.0 6
  127.05398 99.0 99
  128.04935 93.0 93
  128.05969 33.0 33
  129.05902 14.0 14
  129.07359 27.0 27
  130.06654 129.0 129
  131.06882 37.0 37
  131.0778 16.0 16
  132.0719 6.0 6
  132.07976 27.0 27
  133.05037 9.0 9
  133.05977 11.0 11
  134.05971 10.0 10
  136.07962 13.0 13
  139.05446 11.0 11
  140.06483 5.0 5
  141.06969 18.0 18
  142.06361 23.0 23
  142.25066 6.0 6
  143.05792 7.0 7
  143.07346 185.0 185
  143.75246 9.0 9
  144.02106 7.0 7
  144.06458 21.0 21
  144.0799 1000.0 999
  145.00912 8.0 8
  145.06912 6.0 6
  145.08441 81.0 81
  147.06421 7.0 7
  148.07701 23.0 23
  148.89867 8.0 8
  150.0891 11.0 11
  152.06146 37.0 37
  153.05305 9.0 9
  153.06601 39.0 39
  154.06192 92.0 92
  154.06984 80.0 80
  154.98567 8.0 8
  155.06046 12.0 12
  155.07193 62.0 62
  155.08284 22.0 22
  156.06421 13.0 13
  156.07411 57.0 57
  156.08455 23.0 23
  157.07419 14.0 14
  157.08646 20.0 20
  158.05678 9.0 9
  158.08537 13.0 13
  158.0945 24.0 24
  159.0905 9.0 9
  159.10201 7.0 7
  163.07329 11.0 11
  165.05409 12.0 12
  165.0676 53.0 53
  166.06114 35.0 35
  166.06895 21.0 21
  166.07796 12.0 12
  167.06636 110.0 110
  167.07321 322.0 322
  168.05081 12.0 12
  168.0631 16.0 16
  168.07976 366.0 366
  169.07011 24.0 24
  169.07898 41.0 41
  169.08681 58.0 58
  170.06192 15.0 15
  170.09076 29.0 29
  170.10263 11.0 11
  171.08871 43.0 43
  171.09621 40.0 40
  177.07361 8.0 8
  178.05388 11.0 11
  178.06494 27.0 27
  178.07408 9.0 9
  179.0609 15.0 15
  179.0791 33.0 33
  180.08159 337.0 337
  180.99223 8.0 8
  181.04874 6.0 6
  181.08601 176.0 176
  181.09322 64.0 64
  182.09404 165.0 165
  183.08907 16.0 16
  183.1008 19.0 19
  184.08472 9.0 9
  184.10893 7.0 7
  185.10974 7.0 7
  190.05977 7.0 7
  190.0733 25.0 25
  191.06302 13.0 13
  191.07692 50.0 50
  192.08234 115.0 115
  193.06126 15.0 15
  193.08899 315.0 315
  194.05649 7.0 7
  194.06976 15.0 15
  194.07648 12.0 12
  194.09508 149.0 149
  195.10068 40.0 40
  196.06717 13.0 13
  196.07462 21.0 21
  196.10539 14.0 14
  196.11462 20.0 20
  197.07938 21.0 21
  202.07181 5.0 5
  203.07034 17.0 17
  203.09016 5.0 5
  204.05365 12.0 12
  204.07347 61.0 61
  204.08461 93.0 93
  205.08827 67.0 67
  205.10252 10.0 10
  205.89754 6.0 6
  206.09669 226.0 226
  207.06422 6.0 6
  207.10077 141.0 141
  207.11844 6.0 6
  208.07242 20.0 20
  208.08922 5.0 5
  208.11058 198.0 198
  209.08037 10.0 10
  209.09468 33.0 33
  209.11998 58.0 58
  210.08405 8.0 8
  210.09543 37.0 37
  210.11449 11.0 11
  210.1292 9.0 9
  211.06876 12.0 12
  211.09711 30.0 30
  211.51118 5.0 5
  216.07892 57.0 57
  217.06419 7.0 7
  217.08665 315.0 315
  218.07133 14.0 14
  218.09361 322.0 322
  219.07385 10.0 10
  219.08559 22.0 22
  219.10268 93.0 93
  219.12094 6.0 6
  220.07404 47.0 47
  220.08391 21.0 21
  220.10338 30.0 30
  220.11404 38.0 38
  221.07881 15.0 15
  221.10571 51.0 51
  221.12183 31.0 31
  222.07559 5.0 5
  222.08855 5.0 5
  222.09515 11.0 11
  222.11589 55.0 55
  222.12912 28.0 28
  222.35788 5.0 5
  223.11218 7.0 7
  223.12297 19.0 19
  223.14386 8.0 8
  228.08139 7.0 7
  228.98582 5.0 5
  230.09007 47.0 47
  230.09927 46.0 46
  231.07616 8.0 8
  231.09225 30.0 30
  231.10568 70.0 70
  232.06851 5.0 5
  232.10193 61.0 61
  232.11401 92.0 92
  233.07043 6.0 6
  233.0845 14.0 14
  233.10954 55.0 55
  234.07933 14.0 14
  234.09198 71.0 71
  234.11099 21.0 21
  234.12837 11.0 11
  235.07181 5.0 5
  235.08824 8.0 8
  235.09676 14.0 14
  235.11049 7.0 7
  235.12256 12.0 12
  235.1313 9.0 9
  236.09323 8.0 8
  236.10437 20.0 20
  236.12747 9.0 9
  236.14134 15.0 15
  237.0722 7.0 7
  237.10971 26.0 26
  237.13867 12.0 12
  238.08536 60.0 60
  238.09599 21.0 21
  238.1212 7.0 7
  238.15005 5.0 5
  239.09448 18.0 18
  239.50113 8.0 8
  243.08722 10.0 10
  244.09775 19.0 19
  244.11182 18.0 18
  245.08984 12.0 12
  245.11209 71.0 71
  246.08807 12.0 12
  246.11038 21.0 21
  246.1205 28.0 28
  246.1293 28.0 28
  246.14275 11.0 11
  247.11011 16.0 16
  247.12254 9.0 9
  247.13962 29.0 29
  248.10667 14.0 14
  248.11578 15.0 15
  248.12975 5.0 5
  249.09772 10.0 10
  249.12787 8.0 8
  249.14703 5.0 5
  250.09259 7.0 7
  251.08109 9.0 9
  251.0937 50.0 50
  252.09544 42.0 42
  252.10767 31.0 31
  252.14308 5.0 5
  253.10977 12.0 12
  258.08426 7.0 7
  259.12769 15.0 15
  260.10437 8.0 8
  261.07419 7.0 7
  261.08884 8.0 8
  261.10553 11.0 11
  261.1322 7.0 7
  262.08743 41.0 41
  262.13138 7.0 7
  263.08615 12.0 12
  263.09995 19.0 19
  263.11172 23.0 23
  263.12646 19.0 19
  264.08813 22.0 22
  264.11041 25.0 25
  265.10461 10.0 10
  265.1232 7.0 7
  265.13394 10.0 10
  266.11694 15.0 15
  274.09113 5.0 5
  274.54761 5.0 5
  275.09998 27.0 27
  276.09692 50.0 50
  276.1088 60.0 60
  277.09412 17.0 17
  277.10587 47.0 47
  279.13474 5.0 5
  289.10413 15.0 15
  289.11597 9.0 9
  290.09891 12.0 12
  290.11139 26.0 26
  290.12149 52.0 52
  291.11536 14.0 14
  291.14459 5.0 5
  292.14188 7.0 7
  305.12476 20.0 20
  306.11975 9.0 9
  306.13794 8.0 8
  353.17206 5.0 5
  353.18903 26.0 26
//
