ACCESSION: MSBNK-RIKEN-PR310600
RECORD_TITLE: Retrorsine; LC-ESI-QTOF; MS2
DATE: 2019.03.28
AUTHORS: Tetsuya Mori, Center for Sustainable Resource Science, RIKEN
LICENSE: CC BY-NC-SA
PUBLICATION: Tsugawa H., Nakabayashi R., Mori T., Yamada Y., Takahashi M., Rai A., Sugiyama R., Yamamoto H., Nakaya T., Yamazaki M., Kooke R., Bac-Molenaar JA., Oztolan-Erol N., Keurentjes JJB., Arita M., Saito K. (2019) "A cheminformatics approach to characterize metabolomes in stable-isotope-labeled organisms" Nature Methods 16(4):295-298. [doi:10.1038/s41592-019-0358-2]
COMMENT: Annotation level-1
CH$NAME: Retrorsine
CH$COMPOUND_CLASS: Alkaloids
CH$FORMULA: C18H25NO6
CH$EXACT_MASS: 351.399
CH$SMILES: CC=C1CC(C)C(O)(CO)C(=O)OCC2=CCN3CCC(OC1=O)C23
CH$IUPAC: InChI=1S/C18H25NO6/c1-3-12-8-11(2)18(23,10-20)17(22)24-9-13-4-6-19-7-5-14(15(13)19)25-16(12)21/h3-4,11,14-15,20,23H,5-10H2,1-2H3
CH$LINK: INCHIKEY BCJMNZRQJAVDLD-UHFFFAOYSA-N
AC$INSTRUMENT: LC, Waters Acquity UPLC System; MS, Waters Xevo G2 Q-Tof
AC$INSTRUMENT_TYPE: LC-ESI-QTOF
AC$MASS_SPECTROMETRY: MS_TYPE MS2
AC$MASS_SPECTROMETRY: ION_MODE POSITIVE
AC$MASS_SPECTROMETRY: COLLISION_ENERGY 6V
AC$MASS_SPECTROMETRY: DESOLVATION_GAS_FLOW 800/h
AC$MASS_SPECTROMETRY: DESOLVATION_TEMPERATURE 450 C
AC$MASS_SPECTROMETRY: IONIZATION ESI
AC$CHROMATOGRAPHY: CAPILLARY_VOLTAGE +3.00 kV
AC$CHROMATOGRAPHY: COLUMN_NAME Acquity bridged ethyl hybrid C18 (1.7 um, 2.1 mm * 100 mm, Waters)
AC$CHROMATOGRAPHY: COLUMN_TEMPERATURE 40 C
AC$CHROMATOGRAPHY: FLOW_GRADIENT A/B = (99.5%/0.5% at 0 min, 99.5%/0.5% at 0.1 min, 20%/80% at 10 min, 0.5%/99.5% at 10.1 min, 0.5%/99.5% at 12.0 min, 99.5%/0.5% at 12.1 min, 99.5%/0.5% at 15.0 min)
AC$CHROMATOGRAPHY: FLOW_RATE 0.3 ml/min at 0 min, 0.3 ml/min at 10 min, 0.4 ml/min at 10.1 min, 0.4 ml/min at 14.4 min, 0.3 ml/min at 14.5 min
AC$CHROMATOGRAPHY: RETENTION_TIME 3.23
AC$CHROMATOGRAPHY: SOLVENT A water including 0.1% formic acid
AC$CHROMATOGRAPHY: SOLVENT B acetonitrile including 0.1% formic acid
MS$FOCUSED_ION: PRECURSOR_TYPE [M+H]+
MS$FOCUSED_ION: PRECURSOR_M/Z 352.17546
PK$SPLASH: splash10-0udi-0109000000-5e076a5663b63619ba23
PK$NUM_PEAK: 182
PK$PEAK: m/z int. rel.int.
  55.05653 29.0 1
  67.0547 56.0 2
  68.0442 17.0 1
  68.06122 29.0 1
  77.03921 18.0 1
  79.05269 41.0 1
  80.04794 72.0 2
  80.05699 20.0 1
  81.05076 20.0 1
  81.07027 69.0 2
  81.37701 17.0 1
  82.06886 19.0 1
  83.05357 35.0 1
  84.04624 22.0 1
  84.07886 21.0 1
  91.04575 24.0 1
  91.0531 227.0 7
  91.06331 17.0 1
  92.04756 87.0 3
  92.05599 51.0 2
  93.05795 19.0 1
  93.06347 54.0 2
  93.07138 127.0 4
  94.06563 575.0 17
  94.07365 60.0 2
  95.04449 17.0 1
  95.05027 28.0 1
  95.07226 54.0 2
  95.08738 124.0 4
  95.09626 20.0 1
  96.07135 102.0 3
  96.08222 137.0 4
  103.04576 25.0 1
  103.05305 163.0 5
  103.05684 89.0 3
  104.06367 18.0 1
  105.05644 50.0 2
  105.07323 85.0 3
  106.06038 18.0 1
  106.06927 49.0 1
  107.07944 16.0 0
  107.08472 54.0 2
  107.09316 21.0 1
  107.82127 20.0 1
  108.0819 188.0 6
  109.09148 24.0 1
  110.05991 77.0 2
  110.07103 21.0 1
  110.09605 215.0 7
  111.06712 18.0 1
  111.07951 21.0 1
  118.06264 68.0 2
  118.06806 93.0 3
  119.07497 35.0 1
  120.05706 20.0 1
  120.06186 20.0 1
  120.08138 1579.0 48
  120.12991 25.0 1
  121.06941 28.0 1
  121.08329 195.0 6
  121.09308 49.0 1
  122.09682 300.0 9
  123.07293 66.0 2
  123.08118 273.0 8
  123.10292 99.0 3
  124.08244 74.0 2
  125.05878 23.0 1
  125.08816 39.0 1
  126.08736 24.0 1
  129.17223 17.0 1
  135.10402 21.0 1
  137.08446 20.0 1
  138.09021 1788.0 54
  138.50729 17.0 1
  139.07185 43.0 1
  139.08646 80.0 2
  139.09532 91.0 3
  139.99101 20.0 1
  140.09401 17.0 1
  141.03531 19.0 1
  141.09845 19.0 1
  141.1106 20.0 1
  144.07635 23.0 1
  145.08566 27.0 1
  148.56046 20.0 1
  151.07037 226.0 7
  151.07965 80.0 2
  151.09395 23.0 1
  156.09355 55.0 2
  156.10638 42.0 1
  157.10683 43.0 1
  159.08495 21.0 1
  169.08537 160.0 5
  170.09045 26.0 1
  170.20808 17.0 1
  175.13138 20.0 1
  176.14005 19.0 1
  178.78152 17.0 1
  181.10092 20.0 1
  183.61195 23.0 1
  184.10999 18.0 1
  199.41306 35.0 1
  200.97086 19.0 1
  212.49101 19.0 1
  214.65631 17.0 1
  216.13695 27.0 1
  220.10147 23.0 1
  220.12926 85.0 3
  220.14021 64.0 2
  221.13594 37.0 1
  221.15326 30.0 1
  221.41289 18.0 1
  224.11415 29.0 1
  224.52255 41.0 1
  225.11447 25.0 1
  229.12054 21.0 1
  232.40923 26.0 1
  236.13075 18.0 1
  237.50902 17.0 1
  238.13947 63.0 2
  238.14665 19.0 1
  241.38164 20.0 1
  244.12953 27.0 1
  245.07367 17.0 1
  248.63629 20.0 1
  249.08878 18.0 1
  249.1711 18.0 1
  252.728 17.0 1
  260.17618 21.0 1
  272.15906 21.0 1
  275.12012 20.0 1
  275.94809 18.0 1
  276.16074 275.0 8
  276.85196 17.0 1
  277.14572 19.0 1
  277.16367 225.0 7
  278.17105 25.0 1
  278.18237 18.0 1
  290.17441 17.0 1
  294.16684 74.0 2
  294.18646 21.0 1
  303.40558 24.0 1
  304.13867 22.0 1
  304.15021 26.0 1
  304.19666 18.0 1
  306.16885 19.0 1
  308.17023 17.0 1
  308.18939 41.0 1
  310.18604 25.0 1
  315.64233 27.0 1
  321.39935 35.0 1
  322.12537 21.0 1
  322.16992 305.0 9
  322.48264 21.0 1
  323.16513 40.0 1
  324.11908 21.0 1
  324.17972 1364.0 41
  325.16641 20.0 1
  325.1835 97.0 3
  325.194 68.0 2
  325.26239 28.0 1
  325.66818 24.0 1
  326.17767 25.0 1
  326.18997 48.0 1
  331.87924 17.0 1
  333.6189 26.0 1
  333.71933 33.0 1
  343.04276 19.0 1
  343.59842 28.0 1
  344.55167 18.0 1
  345.33658 18.0 1
  345.51056 17.0 1
  347.13083 20.0 1
  348.03323 17.0 1
  351.68643 20.0 1
  351.87787 25.0 1
  352.01447 19.0 1
  352.08334 17.0 1
  352.10757 34.0 1
  352.12677 280.0 8
  352.17706 33024.0 999
  352.23096 669.0 20
//
