ACCESSION: MSBNK-RIKEN-PR301048
RECORD_TITLE: Ajmaline; LC-ESI-QTOF; MS2
DATE: 2019.03.28
AUTHORS: Tetsuya Mori, Center for Sustainable Resource Science, RIKEN
LICENSE: CC BY-NC-SA
PUBLICATION: Tsugawa H., Nakabayashi R., Mori T., Yamada Y., Takahashi M., Rai A., Sugiyama R., Yamamoto H., Nakaya T., Yamazaki M., Kooke R., Bac-Molenaar JA., Oztolan-Erol N., Keurentjes JJB., Arita M., Saito K. (2019) "A cheminformatics approach to characterize metabolomes in stable-isotope-labeled organisms" Nature Methods 16(4):295-298. [doi:10.1038/s41592-019-0358-2]
COMMENT: registered in RIKEN PlaSMA
CH$NAME: Ajmaline
CH$COMPOUND_CLASS: Ajmaline-sarpagine alkaloids
CH$FORMULA: C20H26N2O2
CH$EXACT_MASS: 326.44
CH$SMILES: CC[C@H]1[C@@H]2CC3[C@@H]4N(C)C5=CC=CC=C5[C@]44C[C@@H](C2[C@H]4O)N3[C@@H]1O
CH$IUPAC: InChI=1S/C20H26N2O2/c1-3-10-11-8-14-17-20(12-6-4-5-7-13(12)21(17)2)9-15(16(11)18(20)23)22(14)19(10)24/h4-7,10-11,14-19,23-24H,3,8-9H2,1-2H3/t10-,11-,14?,15-,16?,17-,18+,19+,20+/m0/s1
CH$LINK: INCHIKEY CJDRUOGAGYHKKD-UORGRDHFSA-N
AC$INSTRUMENT: LC, Waters Acquity UPLC System; MS, Waters Xevo G2 Q-Tof
AC$INSTRUMENT_TYPE: LC-ESI-QTOF
AC$MASS_SPECTROMETRY: MS_TYPE MS2
AC$MASS_SPECTROMETRY: ION_MODE POSITIVE
AC$MASS_SPECTROMETRY: COLLISION_ENERGY 6V
AC$MASS_SPECTROMETRY: DESOLVATION_GAS_FLOW 800/h
AC$MASS_SPECTROMETRY: DESOLVATION_TEMPERATURE 450 C
AC$MASS_SPECTROMETRY: IONIZATION ESI
AC$CHROMATOGRAPHY: CAPILLARY_VOLTAGE +3.00 kV
AC$CHROMATOGRAPHY: COLUMN_NAME Acquity bridged ethyl hybrid C18 (1.7 um, 2.1 mm * 100 mm, Waters)
AC$CHROMATOGRAPHY: COLUMN_TEMPERATURE 40 C
AC$CHROMATOGRAPHY: FLOW_GRADIENT A/B = (99.5%/0.5% at 0 min, 99.5%/0.5% at 0.1 min, 20%/80% at 10 min, 0.5%/99.5% at 10.1 min, 0.5%/99.5% at 12.0 min, 99.5%/0.5% at 12.1 min, 99.5%/0.5% at 15.0 min)
AC$CHROMATOGRAPHY: FLOW_RATE 0.3 ml/min at 0 min, 0.3 ml/min at 10 min, 0.4 ml/min at 10.1 min, 0.4 ml/min at 14.4 min, 0.3 ml/min at 14.5 min
AC$CHROMATOGRAPHY: RETENTION_TIME 4.126867
AC$CHROMATOGRAPHY: SOLVENT A water including 0.1% formic acid
AC$CHROMATOGRAPHY: SOLVENT B acetonitrile including 0.1% formic acid
MS$FOCUSED_ION: PRECURSOR_TYPE [M+H]+
MS$FOCUSED_ION: PRECURSOR_M/Z 327.2067045
PK$SPLASH: splash10-052f-0920000000-f3769b264e337318f747
PK$NUM_PEAK: 404
PK$PEAK: m/z int. rel.int.
  55.91993 9.0 9
  66.27417 8.0 8
  67.04923 15.0 15
  67.06093 6.0 6
  71.05308 5.0 5
  72.04269 6.0 6
  72.08123 7.0 7
  73.52888 10.0 10
  77.03742 17.0 17
  78.04381 7.0 7
  79.0537 36.0 36
  80.04685 26.0 26
  80.05273 55.0 55
  81.02981 10.0 10
  81.03453 8.0 8
  81.06417 5.0 5
  81.07094 23.0 23
  81.07705 6.0 6
  82.06343 23.0 23
  82.07314 17.0 17
  84.07893 6.0 6
  84.08671 17.0 17
  91.05483 127.0 127
  92.04847 12.0 12
  93.05743 11.0 11
  93.06408 23.0 23
  93.07764 7.0 7
  93.81842 7.0 7
  94.061 32.0 32
  94.06823 12.0 12
  96.08443 6.0 6
  97.06429 23.0 23
  98.06161 8.0 8
  98.09016 8.0 8
  98.09519 5.0 5
  101.24104 6.0 6
  103.04416 8.0 8
  103.05231 14.0 14
  103.05927 8.0 8
  104.02775 8.0 8
  104.04566 8.0 8
  104.05663 25.0 25
  104.87022 12.0 12
  104.87874 6.0 6
  105.05412 7.0 7
  105.0668 13.0 13
  105.07266 31.0 31
  105.07922 6.0 6
  106.06734 48.0 48
  107.04551 8.0 8
  107.0653 32.0 32
  107.07588 28.0 28
  107.24546 8.0 8
  108.04009 6.0 6
  108.04552 6.0 6
  108.0704 7.0 7
  108.0794 39.0 39
  109.0636 14.0 14
  109.0835 14.0 14
  110.05913 16.0 16
  110.09015 11.0 11
  110.10162 22.0 22
  111.0668 5.0 5
  112.07369 7.0 7
  113.05527 9.0 9
  115.05352 59.0 59
  115.05945 22.0 22
  115.06713 10.0 10
  116.05199 6.0 6
  116.06525 32.0 32
  117.05819 101.0 101
  117.06736 59.0 59
  118.03477 5.0 5
  118.05487 7.0 7
  118.067 114.0 114
  119.07082 6.0 6
  119.08293 33.0 33
  120.06904 10.0 10
  120.08154 52.0 52
  121.05669 8.0 8
  121.09677 6.0 6
  122.07161 7.0 7
  122.09512 18.0 18
  123.0836 6.0 6
  124.08432 12.0 12
  124.11585 6.0 6
  126.05106 6.0 6
  127.0517 14.0 14
  127.05777 7.0 7
  128.04167 9.0 9
  128.05234 57.0 57
  128.06413 37.0 37
  129.05122 6.0 6
  129.06812 48.0 48
  129.07826 14.0 14
  130.05219 30.0 30
  130.06572 198.0 198
  131.06398 45.0 45
  131.07446 176.0 176
  132.04625 5.0 5
  132.06778 12.0 12
  132.08005 94.0 94
  132.81335 7.0 7
  133.08472 18.0 18
  133.09851 8.0 8
  134.06213 8.0 8
  134.0976 55.0 55
  136.06425 5.0 5
  136.0714 12.0 12
  136.07773 20.0 20
  137.07829 5.0 5
  138.09468 36.0 36
  138.10208 9.0 9
  139.05687 7.0 7
  139.07149 7.0 7
  139.07822 7.0 7
  139.09801 6.0 6
  140.06947 13.0 13
  141.07304 8.0 8
  141.07919 9.0 9
  142.05029 6.0 6
  142.06535 91.0 91
  142.07677 7.0 7
  142.59035 7.0 7
  143.06114 27.0 27
  143.07401 256.0 256
  143.0856 34.0 34
  143.12799 6.0 6
  143.52254 5.0 5
  144.06361 12.0 12
  144.08154 1000.0 999
  145.06534 29.0 29
  145.07545 62.0 62
  145.08498 131.0 131
  146.06424 13.0 13
  146.0705 9.0 9
  146.08885 12.0 12
  146.0999 38.0 38
  147.0947 15.0 15
  148.08357 6.0 6
  148.82239 9.0 9
  149.09145 8.0 8
  149.12234 8.0 8
  150.08653 6.0 6
  150.09233 10.0 10
  152.04617 8.0 8
  152.05656 13.0 13
  153.07008 46.0 46
  153.0979 5.0 5
  154.06639 57.0 57
  154.07796 6.0 6
  155.05109 6.0 6
  155.07518 38.0 38
  155.9938 9.0 9
  156.07654 49.0 49
  156.08443 89.0 89
  157.07129 5.0 5
  157.08887 298.0 298
  157.24239 6.0 6
  157.46538 5.0 5
  158.0553 8.0 8
  158.06607 20.0 20
  158.09561 615.0 614
  159.06755 35.0 35
  159.09143 9.0 9
  159.10104 51.0 51
  159.1084 14.0 14
  160.07152 7.0 7
  160.11024 29.0 29
  161.08603 7.0 7
  161.09654 8.0 8
  162.10632 6.0 6
  163.86662 6.0 6
  164.10306 7.0 7
  165.02393 13.0 13
  165.05638 8.0 8
  165.063 5.0 5
  165.0755 14.0 14
  165.90553 5.0 5
  166.05814 6.0 6
  166.06305 15.0 15
  166.07387 15.0 15
  167.05711 19.0 19
  167.07458 394.0 394
  167.08627 46.0 46
  168.06769 31.0 31
  168.08087 252.0 252
  169.05128 5.0 5
  169.07454 12.0 12
  169.08528 106.0 106
  169.0928 133.0 133
  170.07184 26.0 26
  170.09052 85.0 85
  170.10323 42.0 42
  170.89191 5.0 5
  171.06688 23.0 23
  171.08963 50.0 50
  171.10094 49.0 49
  171.11508 12.0 12
  172.06523 7.0 7
  172.07578 89.0 89
  172.0872 13.0 13
  172.09911 18.0 18
  172.11409 57.0 57
  173.06021 6.0 6
  173.071 15.0 15
  173.0799 16.0 16
  173.09027 7.0 7
  173.52876 6.0 6
  173.76935 7.0 7
  174.09178 60.0 60
  174.43105 6.0 6
  178.05574 9.0 9
  178.07039 16.0 16
  178.07866 9.0 9
  178.86349 10.0 10
  179.07838 49.0 49
  179.59052 10.0 10
  180.07021 25.0 25
  180.08324 85.0 85
  180.09404 16.0 16
  180.78444 7.0 7
  180.82169 6.0 6
  181.08919 199.0 199
  181.10085 25.0 25
  182.06963 8.0 8
  182.07681 9.0 9
  182.09273 173.0 173
  182.09998 186.0 186
  182.17041 5.0 5
  183.04779 6.0 6
  183.07156 13.0 13
  183.09976 98.0 98
  183.11754 9.0 9
  184.07112 6.0 6
  184.0799 13.0 13
  184.09206 17.0 17
  184.10185 35.0 35
  184.11505 99.0 99
  184.92355 5.0 5
  185.08223 32.0 32
  185.10899 89.0 89
  186.07918 7.0 7
  186.09679 6.0 6
  186.10516 7.0 7
  186.12161 6.0 6
  191.07394 6.0 6
  191.54887 8.0 8
  192.07825 32.0 32
  192.08737 24.0 24
  192.50974 10.0 10
  193.07834 30.0 30
  193.09015 124.0 124
  193.10773 8.0 8
  193.53282 7.0 7
  194.07091 6.0 6
  194.08517 95.0 95
  194.09764 475.0 475
  195.02214 7.0 7
  195.07742 8.0 8
  195.09161 99.0 99
  195.10629 183.0 183
  196.06577 23.0 23
  196.07639 36.0 36
  196.10358 88.0 88
  196.11284 77.0 77
  196.12152 16.0 16
  197.07674 17.0 17
  197.09196 22.0 22
  197.10252 10.0 10
  197.11957 6.0 6
  198.07729 5.0 5
  198.10316 10.0 10
  199.07481 5.0 5
  199.10518 6.0 6
  199.13112 6.0 6
  201.96094 7.0 7
  202.68765 6.0 6
  203.09073 6.0 6
  203.69495 8.0 8
  204.07187 6.0 6
  204.08354 27.0 27
  204.09233 23.0 23
  205.05031 8.0 8
  205.09224 65.0 65
  205.11708 10.0 10
  206.07318 11.0 11
  206.09091 68.0 68
  206.09981 65.0 65
  207.08177 6.0 6
  207.09322 42.0 42
  207.10263 52.0 52
  207.11417 34.0 34
  208.06535 11.0 11
  208.0815 8.0 8
  208.08995 6.0 6
  208.11159 72.0 72
  208.12505 21.0 21
  209.10521 14.0 14
  209.11984 20.0 20
  209.13608 6.0 6
  210.06212 6.0 6
  210.09015 5.0 5
  210.12639 195.0 195
  211.09711 5.0 5
  211.10873 14.0 14
  211.12039 12.0 12
  211.87315 7.0 7
  212.10849 24.0 24
  212.118 7.0 7
  212.1357 6.0 6
  213.93393 5.0 5
  216.78568 6.0 6
  217.08803 39.0 39
  217.10353 7.0 7
  218.09415 90.0 90
  219.09297 28.0 28
  219.10582 33.0 33
  219.11574 6.0 6
  220.09731 18.0 18
  220.10791 62.0 62
  220.11751 52.0 52
  221.10246 40.0 40
  221.11362 28.0 28
  221.12796 19.0 19
  222.07294 8.0 8
  222.10313 24.0 24
  222.11508 26.0 26
  222.12733 23.0 23
  223.08907 8.0 8
  223.09682 36.0 36
  223.12024 14.0 14
  223.13626 18.0 18
  224.1028 6.0 6
  224.11346 6.0 6
  224.1357 6.0 6
  225.09796 7.0 7
  228.13271 8.0 8
  230.11737 9.0 9
  231.10934 22.0 22
  232.09361 5.0 5
  232.10768 8.0 8
  232.11905 22.0 22
  233.09653 8.0 8
  233.11609 17.0 17
  233.12634 5.0 5
  234.11479 5.0 5
  234.12956 16.0 16
  235.1218 55.0 55
  235.13811 6.0 6
  236.10101 5.0 5
  236.11342 5.0 5
  236.12315 8.0 8
  236.13441 22.0 22
  236.14886 9.0 9
  237.10405 7.0 7
  237.13441 8.0 8
  237.1489 23.0 23
  238.1172 6.0 6
  238.13177 11.0 11
  238.14842 7.0 7
  239.11917 6.0 6
  239.12907 7.0 7
  239.1548 21.0 21
  240.15623 9.0 9
  241.09158 7.0 7
  241.16714 15.0 15
  243.08858 6.0 6
  243.11333 6.0 6
  244.08412 6.0 6
  244.10025 6.0 6
  244.11209 20.0 20
  245.10571 12.0 12
  245.12476 11.0 11
  245.13409 5.0 5
  246.12804 21.0 21
  247.11208 7.0 7
  247.12955 36.0 36
  248.10962 15.0 15
  248.12038 6.0 6
  248.12904 5.0 5
  249.12321 7.0 7
  249.13963 7.0 7
  249.15498 7.0 7
  250.15575 11.0 11
  251.12758 8.0 8
  251.14108 6.0 6
  251.7122 6.0 6
  255.15347 13.0 13
  258.12857 14.0 14
  261.13779 31.0 31
  263.13101 6.0 6
  263.15466 7.0 7
  264.17419 5.0 5
  265.18265 11.0 11
  266.16278 8.0 8
  273.12839 5.0 5
  275.13544 10.0 10
  276.16141 8.0 8
  293.17627 7.0 7
  299.08365 8.0 8
  309.17859 6.0 6
  327.19971 6.0 6
  327.21008 8.0 8
//
