ACCESSION: MSBNK-RIKEN-PR100093
RECORD_TITLE: Sinapic acid; LC-ESI-QTOF; MS2; CE:Ramp 5-60 V; [M+H]+
DATE: 2016.01.19 (Created 2009.09.10, modified 2011.05.06)
AUTHORS: Matsuda F, Suzuki M, Sawada Y, Plant Science Center, RIKEN.
LICENSE: CC BY-SA
COMMENT: Acquisition and generation of the data is financially supported in part by CREST/JST.
CH$NAME: Sinapic acid
CH$NAME: 3,5-dimethoxy-4-hydroxycinnamic acid
CH$NAME: 3-(4-hydroxy-3,5-dimethoxy-phenyl)prop-2-enoic acid
CH$COMPOUND_CLASS: Carboxylic acids
CH$FORMULA: C11H12O5
CH$EXACT_MASS: 224.06847
CH$SMILES: COC1=CC(=CC(=C1O)OC)/C=C/C(=O)O
CH$IUPAC: InChI=1S/C11H12O5/c1-15-8-5-7(3-4-10(12)13)6-9(16-2)11(8)14/h3-6,14H,1-2H3,(H,12,13)/b4-3+
CH$LINK: CAS 530-59-6
CH$LINK: CHEBI CHEBI:15714
CH$LINK: CHEMSPIDER 553361
CH$LINK: COMPTOX DTXSID40862129
CH$LINK: INCHIKEY PCMORTLOPMLEFB-ONEGZZNKSA-N
CH$LINK: KAPPAVIEW KPC00975
CH$LINK: KEGG C00482
CH$LINK: KNAPSACK C00002776
CH$LINK: NIKKAJI J11.713G
CH$LINK: PUBCHEM CID:637775
AC$INSTRUMENT: UPLC Q-Tof Premier, Waters
AC$INSTRUMENT_TYPE: LC-ESI-QTOF
AC$MASS_SPECTROMETRY: MS_TYPE MS2
AC$MASS_SPECTROMETRY: ION_MODE POSITIVE
AC$MASS_SPECTROMETRY: COLLISION_ENERGY Ramp 5-60 V
AC$MASS_SPECTROMETRY: DATAFORMAT Continuum
AC$MASS_SPECTROMETRY: DESOLVATION_GAS_FLOW 600.0 L/Hr
AC$MASS_SPECTROMETRY: DESOLVATION_TEMPERATURE 400 C
AC$MASS_SPECTROMETRY: FRAGMENTATION_MODE LOW-ENERGY CID
AC$MASS_SPECTROMETRY: IONIZATION ESI
AC$MASS_SPECTROMETRY: SOURCE_TEMPERATURE 120 C
AC$CHROMATOGRAPHY: CAPILLARY_VOLTAGE 3.0 kV
AC$CHROMATOGRAPHY: SAMPLING_CONE 23.0 V
AC$CHROMATOGRAPHY: SOLVENT A CH3CN(0.1%HCOOH)
AC$CHROMATOGRAPHY: SOLVENT B H2O(0.1%HCOOH)
MS$FOCUSED_ION: PRECURSOR_M/Z 225.07627
MS$FOCUSED_ION: PRECURSOR_TYPE [M+H]+
PK$SPLASH: splash10-0a4i-1590000000-f69ac29a002b25accd73
PK$NUM_PEAK: 9
PK$PEAK: m/z int. rel.int.
  91.0603 258.4 274
  119.0575 198.6 210
  147.0534 159.4 169
  175.0498 239.1 253
  193.0111 444.7 471
  207.0767 334.9 355
  208.0458 193.9 206
  209.0432 942.6 999
  225.0763 176.8 187
//
