ACCESSION: MSBNK-RIKEN-PR302293
RECORD_TITLE: Formononetin-7-O-glucoside; LC-ESI-QTOF; MS2
DATE: 2019.03.28
AUTHORS: Tetsuya Mori, Center for Sustainable Resource Science, RIKEN
LICENSE: CC BY-NC-SA
PUBLICATION: Tsugawa H., Nakabayashi R., Mori T., Yamada Y., Takahashi M., Rai A., Sugiyama R., Yamamoto H., Nakaya T., Yamazaki M., Kooke R., Bac-Molenaar JA., Oztolan-Erol N., Keurentjes JJB., Arita M., Saito K. (2019) "A cheminformatics approach to characterize metabolomes in stable-isotope-labeled organisms" Nature Methods 16(4):295-298. [doi:10.1038/s41592-019-0358-2]
COMMENT: registered in RIKEN PlaSMA
CH$NAME: Formononetin-7-O-glucoside
CH$COMPOUND_CLASS: Isoflavonoid O-glycosides
CH$FORMULA: C22H22O9
CH$EXACT_MASS: 430.409
CH$SMILES: COC1=CC=C(C=C1)C1=COC2=C(C=CC(O[C@@H]3O[C@H](CO)[C@@H](O)[C@H](O)[C@H]3O)=C2)C1=O
CH$IUPAC: InChI=1S/C22H22O9/c1-28-12-4-2-11(3-5-12)15-10-29-16-8-13(6-7-14(16)18(15)24)30-22-21(27)20(26)19(25)17(9-23)31-22/h2-8,10,17,19-23,25-27H,9H2,1H3/t17-,19-,20+,21-,22-/m1/s1
CH$LINK: INCHIKEY MGJLSBDCWOSMHL-MIUGBVLSSA-N
AC$INSTRUMENT: LC, Waters Acquity UPLC System; MS, Waters Xevo G2 Q-Tof
AC$INSTRUMENT_TYPE: LC-ESI-QTOF
AC$MASS_SPECTROMETRY: MS_TYPE MS2
AC$MASS_SPECTROMETRY: ION_MODE POSITIVE
AC$MASS_SPECTROMETRY: COLLISION_ENERGY 6V
AC$MASS_SPECTROMETRY: DESOLVATION_GAS_FLOW 800/h
AC$MASS_SPECTROMETRY: DESOLVATION_TEMPERATURE 450 C
AC$MASS_SPECTROMETRY: IONIZATION ESI
AC$CHROMATOGRAPHY: CAPILLARY_VOLTAGE +3.00 kV
AC$CHROMATOGRAPHY: COLUMN_NAME Acquity bridged ethyl hybrid C18 (1.7 um, 2.1 mm * 100 mm, Waters)
AC$CHROMATOGRAPHY: COLUMN_TEMPERATURE 40 C
AC$CHROMATOGRAPHY: FLOW_GRADIENT A/B = (99.5%/0.5% at 0 min, 99.5%/0.5% at 0.1 min, 20%/80% at 10 min, 0.5%/99.5% at 10.1 min, 0.5%/99.5% at 12.0 min, 99.5%/0.5% at 12.1 min, 99.5%/0.5% at 15.0 min)
AC$CHROMATOGRAPHY: FLOW_RATE 0.3 ml/min at 0 min, 0.3 ml/min at 10 min, 0.4 ml/min at 10.1 min, 0.4 ml/min at 14.4 min, 0.3 ml/min at 14.5 min
AC$CHROMATOGRAPHY: RETENTION_TIME 5.035634
AC$CHROMATOGRAPHY: SOLVENT A water including 0.1% formic acid
AC$CHROMATOGRAPHY: SOLVENT B acetonitrile including 0.1% formic acid
MS$FOCUSED_ION: PRECURSOR_TYPE [M+H]+
MS$FOCUSED_ION: PRECURSOR_M/Z 431.1336587
PK$SPLASH: splash10-0v00-0590000000-c7e78669c8c71dc77e97
PK$NUM_PEAK: 181
PK$PEAK: m/z int. rel.int.
  77.04481 15.0 15
  81.01636 20.0 20
  81.03449 14.0 14
  87.29591 8.0 8
  90.04669 22.0 22
  93.03281 8.0 8
  95.04845 11.0 11
  103.05658 8.0 8
  105.02674 9.0 9
  107.04423 31.0 31
  107.05147 62.0 62
  108.0171 10.0 10
  115.05677 10.0 10
  118.02625 8.0 8
  118.03722 127.0 127
  118.04408 345.0 345
  119.03705 14.0 14
  119.04748 68.0 68
  123.04 12.0 12
  127.05146 18.0 18
  128.06595 12.0 12
  129.0677 26.0 26
  131.93185 9.0 9
  132.02463 8.0 8
  133.02119 27.0 27
  133.03165 24.0 24
  133.06247 130.0 130
  136.00189 19.0 19
  136.01053 55.0 55
  136.01646 180.0 180
  136.97586 11.0 11
  137.02194 205.0 205
  138.03093 19.0 19
  141.0451 13.0 13
  141.06931 20.0 20
  142.07767 16.0 16
  144.0593 11.0 11
  145.06412 17.0 17
  147.04608 35.0 35
  147.20758 8.0 8
  151.0446 11.0 11
  151.05563 31.0 31
  152.03717 16.0 16
  152.06009 13.0 13
  153.06668 10.0 10
  153.07471 33.0 33
  155.01157 13.0 13
  155.04288 13.0 13
  156.03413 25.0 25
  156.04393 30.0 30
  156.05186 37.0 37
  156.05919 51.0 51
  156.06625 33.0 33
  157.06528 55.0 55
  158.01228 11.0 11
  158.07477 50.0 50
  158.46469 8.0 8
  161.06201 13.0 13
  163.03391 11.0 11
  163.03976 16.0 16
  165.06697 35.0 35
  166.07326 8.0 8
  167.07137 31.0 31
  168.05424 10.0 10
  168.64371 10.0 10
  169.04256 8.0 8
  169.07277 24.0 24
  169.0802 14.0 14
  170.02937 12.0 12
  170.06911 114.0 114
  170.078 26.0 26
  171.06525 13.0 13
  171.07817 67.0 67
  172.08968 8.0 8
  173.09433 8.0 8
  177.06889 11.0 11
  178.06973 8.0 8
  178.60648 9.0 9
  180.0529 19.0 19
  180.06831 21.0 21
  181.06366 293.0 293
  182.03149 9.0 9
  182.06551 34.0 34
  182.07666 91.0 91
  182.14732 10.0 10
  183.05457 10.0 10
  183.07561 12.0 12
  184.05156 50.0 50
  185.05859 10.0 10
  185.0784 14.0 14
  185.09013 29.0 29
  186.1011 9.0 9
  192.19678 9.0 9
  195.06784 20.0 20
  195.0869 12.0 12
  196.04459 8.0 8
  196.05853 47.0 47
  196.08246 48.0 48
  196.09404 39.0 39
  197.05109 147.0 147
  197.06137 453.0 453
  198.04173 8.0 8
  198.0659 329.0 329
  198.08342 12.0 12
  198.38721 8.0 8
  198.66695 13.0 13
  199.05579 10.0 10
  199.07108 46.0 46
  199.0825 9.0 9
  200.04669 41.0 41
  205.49341 12.0 12
  208.03969 13.0 13
  208.05096 46.0 46
  209.03827 28.0 28
  209.05428 47.0 47
  209.06258 49.0 49
  210.07324 12.0 12
  211.05981 9.0 9
  211.07042 14.0 14
  211.07797 9.0 9
  213.06261 23.0 23
  213.09366 534.0 533
  214.09485 126.0 126
  214.10536 46.0 46
  214.14853 10.0 10
  215.09976 11.0 11
  219.02902 9.0 9
  219.04453 17.0 17
  220.85019 8.0 8
  223.06267 13.0 13
  223.07556 8.0 8
  225.05437 341.0 341
  225.62474 8.0 8
  226.03136 20.0 20
  226.06155 628.0 627
  226.06972 303.0 303
  226.11758 10.0 10
  227.05653 20.0 20
  227.06841 83.0 83
  228.07294 9.0 9
  236.07425 14.0 14
  236.87068 14.0 14
  236.9269 10.0 10
  237.01149 14.0 14
  237.02162 14.0 14
  237.0385 66.0 66
  237.05565 704.0 703
  237.27652 9.0 9
  237.40419 9.0 9
  238.02507 26.0 26
  238.03987 18.0 18
  238.05568 217.0 217
  238.20015 8.0 8
  239.04355 11.0 11
  239.07083 14.0 14
  244.13986 8.0 8
  246.45059 15.0 15
  253.02347 74.0 74
  253.04961 1000.0 999
  253.06914 50.0 50
  253.89458 14.0 14
  254.03041 37.0 37
  254.0573 742.0 741
  254.09251 11.0 11
  254.30684 15.0 15
  255.03993 39.0 39
  255.06119 48.0 48
  256.05399 21.0 21
  256.07019 14.0 14
  261.90546 15.0 15
  263.58023 9.0 9
  268.99387 8.0 8
  269.04306 8.0 8
  269.08115 704.0 703
  269.0932 216.0 216
  270.06561 20.0 20
  270.08142 116.0 116
  270.09601 64.0 64
  271.08365 33.0 33
  271.80005 8.0 8
  276.03925 14.0 14
//
