ACCESSION: MSBNK-RIKEN-PR310869
RECORD_TITLE: Isoflavone base + 2O, O-MalonylHex; LC-ESI-QTOF; MS2
DATE: 2019.03.28
AUTHORS: Tetsuya Mori, Center for Sustainable Resource Science, RIKEN
LICENSE: CC BY-NC-SA
PUBLICATION: Tsugawa H., Nakabayashi R., Mori T., Yamada Y., Takahashi M., Rai A., Sugiyama R., Yamamoto H., Nakaya T., Yamazaki M., Kooke R., Bac-Molenaar JA., Oztolan-Erol N., Keurentjes JJB., Arita M., Saito K. (2019) "A cheminformatics approach to characterize metabolomes in stable-isotope-labeled organisms" Nature Methods 16(4):295-298. [doi:10.1038/s41592-019-0358-2]
COMMENT: Annotation level-3
CH$NAME: Isoflavone base + 2O, O-MalonylHex
CH$COMPOUND_CLASS: Isoflavone O-glycosides
CH$FORMULA: C24H22O12
CH$EXACT_MASS: 502.428
CH$SMILES: O=C(O)CC(=O)OCC4OC(OC=1C=CC=2C(=O)C(=COC=2(C=1))C3=CC=C(O)C=C3)C(O)C(O)C4(O)
CH$IUPAC: InChI=1S/C24H22O12/c25-12-3-1-11(2-4-12)15-9-33-16-7-13(5-6-14(16)20(15)29)35-24-23(32)22(31)21(30)17(36-24)10-34-19(28)8-18(26)27/h1-7,9,17,21-25,30-32H,8,10H2,(H,26,27)
CH$LINK: INCHIKEY MTXMHWSVSZKYBT-UHFFFAOYSA-N
AC$INSTRUMENT: LC, Waters Acquity UPLC System; MS, Waters Xevo G2 Q-Tof
AC$INSTRUMENT_TYPE: LC-ESI-QTOF
AC$MASS_SPECTROMETRY: MS_TYPE MS2
AC$MASS_SPECTROMETRY: ION_MODE POSITIVE
AC$MASS_SPECTROMETRY: COLLISION_ENERGY 6V
AC$MASS_SPECTROMETRY: DESOLVATION_GAS_FLOW 800/h
AC$MASS_SPECTROMETRY: DESOLVATION_TEMPERATURE 450 C
AC$MASS_SPECTROMETRY: IONIZATION ESI
AC$CHROMATOGRAPHY: CAPILLARY_VOLTAGE +3.00 kV
AC$CHROMATOGRAPHY: COLUMN_NAME Acquity bridged ethyl hybrid C18 (1.7 um, 2.1 mm * 100 mm, Waters)
AC$CHROMATOGRAPHY: COLUMN_TEMPERATURE 40 C
AC$CHROMATOGRAPHY: FLOW_GRADIENT A/B = (99.5%/0.5% at 0 min, 99.5%/0.5% at 0.1 min, 20%/80% at 10 min, 0.5%/99.5% at 10.1 min, 0.5%/99.5% at 12.0 min, 99.5%/0.5% at 12.1 min, 99.5%/0.5% at 15.0 min)
AC$CHROMATOGRAPHY: FLOW_RATE 0.3 ml/min at 0 min, 0.3 ml/min at 10 min, 0.4 ml/min at 10.1 min, 0.4 ml/min at 14.4 min, 0.3 ml/min at 14.5 min
AC$CHROMATOGRAPHY: RETENTION_TIME 4.1
AC$CHROMATOGRAPHY: SOLVENT A water including 0.1% formic acid
AC$CHROMATOGRAPHY: SOLVENT B acetonitrile including 0.1% formic acid
MS$FOCUSED_ION: PRECURSOR_TYPE [M+H]+
MS$FOCUSED_ION: PRECURSOR_M/Z 503.119
PK$SPLASH: splash10-0a4i-0090010000-83416127636dee4032de
PK$NUM_PEAK: 27
PK$PEAK: m/z int. rel.int.
  129.06929 30.0 10
  129.07874 24.0 8
  137.02838 23.0 8
  182.0708 30.0 10
  193.82265 20.0 7
  195.0939 17.0 6
  199.0291 19.0 6
  199.06668 30.0 10
  199.0896 41.0 14
  209.06703 18.0 6
  219.14702 17.0 6
  227.07843 17.0 6
  237.05934 26.0 9
  255.01482 17.0 6
  255.06494 2989.0 999
  256.06931 583.0 195
  256.09857 18.0 6
  257.05829 21.0 7
  257.06781 19.0 6
  282.61292 28.0 9
  302.164 23.0 8
  361.03885 20.0 7
  383.11469 32.0 11
  501.68921 34.0 11
  503.08322 65.0 22
  503.11765 455.0 152
  503.13544 116.0 39
//
