ACCESSION: MSBNK-RIKEN-PR304390
RECORD_TITLE: Saikosaponin C; LC-ESI-QTOF; MS2
DATE: 2019.03.28
AUTHORS: Tetsuya Mori, Center for Sustainable Resource Science, RIKEN
LICENSE: CC BY-NC-SA
PUBLICATION: Tsugawa H., Nakabayashi R., Mori T., Yamada Y., Takahashi M., Rai A., Sugiyama R., Yamamoto H., Nakaya T., Yamazaki M., Kooke R., Bac-Molenaar JA., Oztolan-Erol N., Keurentjes JJB., Arita M., Saito K. (2019) "A cheminformatics approach to characterize metabolomes in stable-isotope-labeled organisms" Nature Methods 16(4):295-298. [doi:10.1038/s41592-019-0358-2]
COMMENT: registered in RIKEN PlaSMA
CH$NAME: Saikosaponin C
CH$COMPOUND_CLASS: Triterpene saponins
CH$FORMULA: C48H78O17
CH$EXACT_MASS: 927.135
CH$SMILES: CC1OC(OC2C(COC3OC(CO)C(O)C(O)C3O)OC(OC3CCC4(C)C(CCC5(C)C4C=CC4=C6CC(C)(C)CCC6(CO)C(O)CC54C)C3(C)C)C(O)C2O)C(O)C(O)C1O
CH$IUPAC: InChI=1S/C48H78O17/c1-22-31(52)33(54)37(58)41(61-22)65-39-26(20-60-40-36(57)34(55)32(53)25(19-49)62-40)63-42(38(59)35(39)56)64-30-12-13-45(6)27(44(30,4)5)11-14-46(7)28(45)10-9-23-24-17-43(2,3)15-16-48(24,21-50)29(51)18-47(23,46)8/h9-10,22,25-42,49-59H,11-21H2,1-8H3
CH$LINK: INCHIKEY PYJMYPPFWASOJX-UHFFFAOYSA-N
AC$INSTRUMENT: LC, Waters Acquity UPLC System; MS, Waters Xevo G2 Q-Tof
AC$INSTRUMENT_TYPE: LC-ESI-QTOF
AC$MASS_SPECTROMETRY: MS_TYPE MS2
AC$MASS_SPECTROMETRY: ION_MODE POSITIVE
AC$MASS_SPECTROMETRY: COLLISION_ENERGY 6V
AC$MASS_SPECTROMETRY: DESOLVATION_GAS_FLOW 800/h
AC$MASS_SPECTROMETRY: DESOLVATION_TEMPERATURE 450 C
AC$MASS_SPECTROMETRY: IONIZATION ESI
AC$CHROMATOGRAPHY: CAPILLARY_VOLTAGE +3.00 kV
AC$CHROMATOGRAPHY: COLUMN_NAME Acquity bridged ethyl hybrid C18 (1.7 um, 2.1 mm * 100 mm, Waters)
AC$CHROMATOGRAPHY: COLUMN_TEMPERATURE 40 C
AC$CHROMATOGRAPHY: FLOW_GRADIENT A/B = (99.5%/0.5% at 0 min, 99.5%/0.5% at 0.1 min, 20%/80% at 10 min, 0.5%/99.5% at 10.1 min, 0.5%/99.5% at 12.0 min, 99.5%/0.5% at 12.1 min, 99.5%/0.5% at 15.0 min)
AC$CHROMATOGRAPHY: FLOW_RATE 0.3 ml/min at 0 min, 0.3 ml/min at 10 min, 0.4 ml/min at 10.1 min, 0.4 ml/min at 14.4 min, 0.3 ml/min at 14.5 min
AC$CHROMATOGRAPHY: RETENTION_TIME 6.286016
AC$CHROMATOGRAPHY: SOLVENT A water including 0.1% formic acid
AC$CHROMATOGRAPHY: SOLVENT B acetonitrile including 0.1% formic acid
MS$FOCUSED_ION: PRECURSOR_TYPE [M+H]+
MS$FOCUSED_ION: PRECURSOR_M/Z 927.5311775
PK$SPLASH: splash10-0pi9-3951600000-26207139bcddadc21333
PK$NUM_PEAK: 36
PK$PEAK: m/z int. rel.int.
  57.03693 383.0 383
  85.00381 157.0 157
  85.02695 304.0 304
  97.02326 270.0 270
  111.03653 174.0 174
  121.08661 148.0 148
  124.118 165.0 165
  127.04166 139.0 139
  129.0471 139.0 139
  130.05791 139.0 139
  145.09892 148.0 148
  146.05444 139.0 139
  149.13217 148.0 148
  165.08031 313.0 313
  167.14551 148.0 148
  169.05269 217.0 217
  187.14755 235.0 235
  189.14996 174.0 174
  189.16862 443.0 443
  200.15305 139.0 139
  201.16042 209.0 209
  209.07671 313.0 313
  227.18111 209.0 209
  233.19615 139.0 139
  245.18642 191.0 191
  255.09073 313.0 313
  281.21808 148.0 148
  287.98276 191.0 191
  307.26019 148.0 148
  309.12363 183.0 183
  391.35562 191.0 191
  403.32095 374.0 374
  403.33386 426.0 426
  404.3634 139.0 139
  421.3486 1000.0 999
  649.88275 183.0 183
//
