ACCESSION: MSBNK-RIKEN-PR300666
RECORD_TITLE: Vincanidine; LC-ESI-QTOF; MS2
DATE: 2019.03.28
AUTHORS: Tetsuya Mori, Center for Sustainable Resource Science, RIKEN
LICENSE: CC BY-NC-SA
PUBLICATION: Tsugawa H., Nakabayashi R., Mori T., Yamada Y., Takahashi M., Rai A., Sugiyama R., Yamamoto H., Nakaya T., Yamazaki M., Kooke R., Bac-Molenaar JA., Oztolan-Erol N., Keurentjes JJB., Arita M., Saito K. (2019) "A cheminformatics approach to characterize metabolomes in stable-isotope-labeled organisms" Nature Methods 16(4):295-298. [doi:10.1038/s41592-019-0358-2]
COMMENT: registered in RIKEN PlaSMA
CH$NAME: Vincanidine
CH$COMPOUND_CLASS: Strychnos alkaloids
CH$FORMULA: C19H20N2O2
CH$EXACT_MASS: 308.381
CH$SMILES: C\C=C1\CN2CC[C@@]34[C@@H]2C[C@@H]1C(C=O)=C3NC1=C4C=CC=C1O
CH$IUPAC: InChI=1S/C19H20N2O2/c1-2-11-9-21-7-6-19-14-4-3-5-15(23)17(14)20-18(19)13(10-22)12(11)8-16(19)21/h2-5,10,12,16,20,23H,6-9H2,1H3/b11-2-/t12-,16-,19+/m0/s1
CH$LINK: INCHIKEY JDOFCMASVRMYJU-JYTRXFNOSA-N
AC$INSTRUMENT: LC, Waters Acquity UPLC System; MS, Waters Xevo G2 Q-Tof
AC$INSTRUMENT_TYPE: LC-ESI-QTOF
AC$MASS_SPECTROMETRY: MS_TYPE MS2
AC$MASS_SPECTROMETRY: ION_MODE POSITIVE
AC$MASS_SPECTROMETRY: COLLISION_ENERGY 6V
AC$MASS_SPECTROMETRY: DESOLVATION_GAS_FLOW 800/h
AC$MASS_SPECTROMETRY: DESOLVATION_TEMPERATURE 450 C
AC$MASS_SPECTROMETRY: IONIZATION ESI
AC$CHROMATOGRAPHY: CAPILLARY_VOLTAGE +3.00 kV
AC$CHROMATOGRAPHY: COLUMN_NAME Acquity bridged ethyl hybrid C18 (1.7 um, 2.1 mm * 100 mm, Waters)
AC$CHROMATOGRAPHY: COLUMN_TEMPERATURE 40 C
AC$CHROMATOGRAPHY: FLOW_GRADIENT A/B = (99.5%/0.5% at 0 min, 99.5%/0.5% at 0.1 min, 20%/80% at 10 min, 0.5%/99.5% at 10.1 min, 0.5%/99.5% at 12.0 min, 99.5%/0.5% at 12.1 min, 99.5%/0.5% at 15.0 min)
AC$CHROMATOGRAPHY: FLOW_RATE 0.3 ml/min at 0 min, 0.3 ml/min at 10 min, 0.4 ml/min at 10.1 min, 0.4 ml/min at 14.4 min, 0.3 ml/min at 14.5 min
AC$CHROMATOGRAPHY: RETENTION_TIME 3.37885
AC$CHROMATOGRAPHY: SOLVENT A water including 0.1% formic acid
AC$CHROMATOGRAPHY: SOLVENT B acetonitrile including 0.1% formic acid
MS$FOCUSED_ION: PRECURSOR_TYPE [M+H]+
MS$FOCUSED_ION: PRECURSOR_M/Z 309.1597543
PK$SPLASH: splash10-0012-0590000000-b738926f8e6592b46cee
PK$NUM_PEAK: 316
PK$PEAK: m/z int. rel.int.
  68.04862 35.0 35
  70.06727 38.0 38
  79.04348 35.0 35
  79.05105 41.0 41
  85.06498 42.0 42
  91.05685 132.0 132
  93.05566 52.0 52
  95.05105 61.0 61
  96.07763 41.0 41
  96.08255 64.0 64
  106.06544 85.0 85
  106.07081 50.0 50
  108.04193 33.0 33
  108.08033 153.0 153
  109.06319 52.0 52
  110.09554 35.0 35
  118.06945 41.0 41
  120.03428 26.0 26
  122.06258 55.0 55
  122.09108 134.0 134
  123.10692 33.0 33
  127.0554 47.0 47
  132.09489 30.0 30
  133.06563 26.0 26
  133.09161 30.0 30
  134.05634 32.0 32
  136.07886 36.0 36
  136.1134 58.0 58
  139.04948 52.0 52
  143.05373 41.0 41
  144.04486 27.0 27
  146.05186 74.0 74
  146.06195 385.0 385
  146.09952 80.0 80
  147.06642 140.0 140
  147.99294 29.0 29
  148.04283 62.0 62
  148.07516 33.0 33
  148.10368 30.0 30
  148.10986 35.0 35
  150.09889 38.0 38
  150.16515 36.0 36
  154.06578 30.0 30
  155.07892 27.0 27
  156.07872 33.0 33
  157.09006 32.0 32
  159.06371 77.0 77
  160.07086 162.0 162
  160.0789 322.0 322
  161.07811 27.0 27
  162.00784 27.0 27
  162.09473 36.0 36
  163.01654 33.0 33
  166.04684 30.0 30
  166.05733 77.0 77
  166.06502 77.0 77
  167.07683 56.0 56
  167.08463 27.0 27
  168.07278 46.0 46
  168.07967 58.0 58
  170.03357 32.0 32
  170.06206 134.0 134
  171.06502 73.0 73
  171.07222 83.0 83
  172.0589 35.0 35
  172.08185 86.0 86
  173.07539 42.0 42
  174.08536 162.0 162
  174.09409 115.0 115
  175.08884 32.0 32
  175.09697 27.0 27
  179.08636 35.0 35
  181.07336 38.0 38
  182.05406 29.0 29
  182.06149 38.0 38
  182.08694 36.0 36
  182.09721 46.0 46
  183.06883 376.0 376
  183.08185 65.0 65
  183.12204 33.0 33
  184.06331 162.0 162
  184.07434 809.0 808
  184.08199 287.0 287
  184.09514 88.0 88
  185.06419 208.0 208
  185.0721 290.0 290
  185.08591 96.0 96
  186.05397 93.0 93
  186.06241 27.0 27
  186.07585 85.0 85
  186.08498 30.0 30
  186.10172 38.0 38
  186.12663 49.0 49
  187.047 32.0 32
  187.08238 222.0 222
  187.09135 402.0 402
  188.03528 35.0 35
  188.07509 127.0 127
  188.08888 26.0 26
  192.0862 115.0 115
  192.66887 27.0 27
  193.08464 59.0 59
  193.9684 74.0 74
  194.0723 55.0 55
  195.07265 38.0 38
  195.08694 38.0 38
  196.07762 1000.0 999
  196.26355 35.0 35
  197.02988 38.0 38
  197.07748 514.0 513
  197.08885 322.0 322
  197.48459 39.0 39
  198.05669 96.0 96
  198.07118 83.0 83
  198.08223 137.0 137
  198.09476 158.0 158
  199.05486 32.0 32
  199.06714 121.0 121
  199.09373 134.0 134
  200.06699 129.0 129
  200.09192 29.0 29
  200.10736 38.0 38
  201.11278 32.0 32
  202.0777 82.0 82
  202.08797 206.0 206
  203.08925 50.0 50
  203.38876 68.0 68
  205.07797 41.0 41
  206.02554 35.0 35
  206.07323 27.0 27
  206.09085 27.0 27
  206.10497 44.0 44
  207.06627 294.0 294
  207.08145 55.0 55
  207.38155 39.0 39
  208.06972 68.0 68
  208.07964 357.0 357
  208.10396 30.0 30
  209.07057 26.0 26
  209.08638 114.0 114
  210.05743 65.0 65
  210.06587 41.0 41
  210.08849 390.0 390
  210.10083 111.0 111
  210.13663 46.0 46
  211.05109 35.0 35
  211.06876 108.0 108
  211.08344 111.0 111
  211.09967 179.0 179
  212.06586 70.0 70
  212.07576 29.0 29
  212.0974 170.0 170
  213.12529 46.0 46
  215.08066 153.0 153
  215.09055 202.0 202
  216.06064 33.0 33
  216.08395 77.0 77
  216.09329 26.0 26
  217.08951 41.0 41
  218.09427 58.0 58
  218.10208 52.0 52
  218.11343 38.0 38
  219.11717 41.0 41
  220.07588 197.0 197
  220.08424 77.0 77
  220.10948 109.0 109
  220.1201 32.0 32
  220.93533 27.0 27
  221.06227 36.0 36
  221.07977 370.0 370
  221.09424 159.0 159
  221.1125 49.0 49
  222.0692 74.0 74
  222.09082 640.0 639
  223.06316 88.0 88
  223.08473 281.0 281
  223.09486 261.0 261
  223.10434 202.0 202
  224.07381 90.0 90
  224.08301 140.0 140
  224.09927 372.0 372
  224.11046 258.0 258
  225.05789 39.0 39
  225.08125 36.0 36
  225.10054 272.0 272
  226.07236 27.0 27
  226.09747 138.0 138
  226.1228 120.0 120
  226.12971 41.0 41
  227.07426 27.0 27
  232.10229 33.0 33
  232.56389 26.0 26
  233.05965 35.0 35
  233.08688 196.0 196
  233.16377 30.0 30
  234.05403 35.0 35
  234.08833 454.0 454
  234.11038 35.0 35
  234.13615 50.0 50
  234.32399 47.0 47
  235.09796 241.0 241
  235.93594 32.0 32
  236.07159 102.0 102
  236.10596 731.0 730
  236.12196 153.0 153
  237.07365 99.0 99
  237.08662 206.0 206
  237.11028 246.0 246
  237.1236 49.0 49
  238.08621 36.0 36
  238.10129 261.0 261
  238.12137 284.0 284
  238.13112 275.0 275
  239.07397 61.0 61
  239.09766 61.0 61
  239.12822 187.0 187
  240.0882 80.0 80
  240.09857 64.0 64
  240.13489 35.0 35
  241.10078 42.0 42
  242.03546 26.0 26
  243.0784 58.0 58
  244.10173 30.0 30
  244.12131 65.0 65
  245.10156 50.0 50
  245.1142 26.0 26
  246.07384 41.0 41
  246.09062 52.0 52
  246.10197 42.0 42
  246.11385 32.0 32
  247.09662 64.0 64
  247.10619 223.0 223
  247.11421 68.0 68
  248.08961 73.0 73
  248.10629 219.0 219
  249.07362 33.0 33
  249.08882 62.0 62
  249.09906 52.0 52
  249.11554 241.0 241
  249.13139 30.0 30
  250.08138 27.0 27
  250.09431 27.0 27
  250.10336 58.0 58
  250.12715 144.0 144
  251.07552 46.0 46
  251.09479 44.0 44
  251.12018 231.0 231
  251.12886 90.0 90
  252.09964 222.0 222
  252.11781 53.0 53
  252.131 76.0 76
  252.13849 134.0 134
  253.08838 39.0 39
  253.10155 27.0 27
  253.12366 36.0 36
  253.13467 88.0 88
  253.14787 167.0 167
  254.09309 42.0 42
  254.12581 123.0 123
  255.11031 138.0 138
  258.09457 36.0 36
  259.07504 30.0 30
  259.09125 79.0 79
  259.10513 38.0 38
  260.10199 29.0 29
  261.09286 41.0 41
  261.10742 90.0 90
  262.06244 36.0 36
  262.08334 32.0 32
  262.11496 35.0 35
  262.12296 33.0 33
  262.13638 50.0 50
  262.1897 38.0 38
  262.3876 41.0 41
  263.10483 124.0 124
  263.12744 79.0 79
  264.11832 38.0 38
  264.13586 62.0 62
  264.14783 126.0 126
  265.08743 58.0 58
  265.10547 59.0 59
  265.11923 26.0 26
  265.13361 153.0 153
  266.09073 85.0 85
  266.11584 335.0 335
  266.13196 56.0 56
  267.12527 109.0 109
  267.15701 91.0 91
  268.13519 27.0 27
  272.11591 38.0 38
  274.11969 53.0 53
  275.11475 74.0 74
  276.12503 35.0 35
  277.12552 96.0 96
  279.11389 38.0 38
  279.14572 32.0 32
  279.16324 35.0 35
  280.11484 32.0 32
  280.13644 83.0 83
  280.15286 164.0 164
  280.17151 68.0 68
  281.11255 26.0 26
  281.13181 46.0 46
  281.16245 226.0 226
  282.13962 30.0 30
  289.00052 27.0 27
  289.13174 33.0 33
  290.1246 46.0 46
  291.1543 103.0 103
  292.15454 36.0 36
  293.13794 82.0 82
  307.14789 27.0 27
  309.12503 39.0 39
  309.15091 241.0 241
  309.1619 455.0 455
  309.18478 55.0 55
//
