ACCESSION: MSBNK-RIKEN-PR302838
RECORD_TITLE: Formononetin; LC-ESI-QTOF; MS2
DATE: 2019.03.28
AUTHORS: Tetsuya Mori, Center for Sustainable Resource Science, RIKEN
LICENSE: CC BY-NC-SA
PUBLICATION: Tsugawa H., Nakabayashi R., Mori T., Yamada Y., Takahashi M., Rai A., Sugiyama R., Yamamoto H., Nakaya T., Yamazaki M., Kooke R., Bac-Molenaar JA., Oztolan-Erol N., Keurentjes JJB., Arita M., Saito K. (2019) "A cheminformatics approach to characterize metabolomes in stable-isotope-labeled organisms" Nature Methods 16(4):295-298. [doi:10.1038/s41592-019-0358-2]
COMMENT: registered in RIKEN PlaSMA
CH$NAME: Formononetin
CH$COMPOUND_CLASS: 4'-O-methylisoflavones
CH$FORMULA: C16H12O4
CH$EXACT_MASS: 268.268
CH$SMILES: COC1=CC=C(C=C1)C1=COC2=C(C=CC(O)=C2)C1=O
CH$IUPAC: InChI=1S/C16H12O4/c1-19-12-5-2-10(3-6-12)14-9-20-15-8-11(17)4-7-13(15)16(14)18/h2-9,17H,1H3
CH$LINK: INCHIKEY HKQYGTCOTHHOMP-UHFFFAOYSA-N
AC$INSTRUMENT: LC, Waters Acquity UPLC System; MS, Waters Xevo G2 Q-Tof
AC$INSTRUMENT_TYPE: LC-ESI-QTOF
AC$MASS_SPECTROMETRY: MS_TYPE MS2
AC$MASS_SPECTROMETRY: ION_MODE POSITIVE
AC$MASS_SPECTROMETRY: COLLISION_ENERGY 6V
AC$MASS_SPECTROMETRY: DESOLVATION_GAS_FLOW 800/h
AC$MASS_SPECTROMETRY: DESOLVATION_TEMPERATURE 450 C
AC$MASS_SPECTROMETRY: IONIZATION ESI
AC$CHROMATOGRAPHY: CAPILLARY_VOLTAGE +3.00 kV
AC$CHROMATOGRAPHY: COLUMN_NAME Acquity bridged ethyl hybrid C18 (1.7 um, 2.1 mm * 100 mm, Waters)
AC$CHROMATOGRAPHY: COLUMN_TEMPERATURE 40 C
AC$CHROMATOGRAPHY: FLOW_GRADIENT A/B = (99.5%/0.5% at 0 min, 99.5%/0.5% at 0.1 min, 20%/80% at 10 min, 0.5%/99.5% at 10.1 min, 0.5%/99.5% at 12.0 min, 99.5%/0.5% at 12.1 min, 99.5%/0.5% at 15.0 min)
AC$CHROMATOGRAPHY: FLOW_RATE 0.3 ml/min at 0 min, 0.3 ml/min at 10 min, 0.4 ml/min at 10.1 min, 0.4 ml/min at 14.4 min, 0.3 ml/min at 14.5 min
AC$CHROMATOGRAPHY: RETENTION_TIME 6.685184
AC$CHROMATOGRAPHY: SOLVENT A water including 0.1% formic acid
AC$CHROMATOGRAPHY: SOLVENT B acetonitrile including 0.1% formic acid
MS$FOCUSED_ION: PRECURSOR_TYPE [M+H]+
MS$FOCUSED_ION: PRECURSOR_M/Z 269.0808353
PK$SPLASH: splash10-0fr5-0910000000-ab883f615bfa07ed0bcf
PK$NUM_PEAK: 212
PK$PEAK: m/z int. rel.int.
  63.02588 12.0 12
  65.03403 39.0 39
  65.04028 7.0 7
  66.1522 9.0 9
  68.99983 7.0 7
  73.5576 14.0 14
  77.0367 37.0 37
  78.03906 37.0 37
  80.0205 32.0 32
  80.03158 10.0 10
  80.9918 7.0 7
  81.02399 11.0 11
  81.02834 20.0 20
  81.03583 9.0 9
  81.16879 6.0 6
  89.03754 123.0 123
  89.6318 7.0 7
  90.03438 20.0 20
  90.04542 151.0 151
  90.04978 67.0 67
  91.02637 9.0 9
  91.04976 19.0 19
  92.02266 19.0 19
  93.02692 22.0 22
  94.74332 7.0 7
  96.28067 7.0 7
  101.03272 11.0 11
  102.04942 22.0 22
  103.04333 12.0 12
  103.05109 10.0 10
  105.0369 7.0 7
  106.03419 12.0 12
  107.04497 17.0 17
  107.05347 7.0 7
  108.00555 13.0 13
  108.01434 10.0 10
  108.02192 45.0 45
  108.0258 20.0 20
  109.02502 14.0 14
  115.0319 9.0 9
  115.03944 9.0 9
  115.05225 291.0 291
  115.05887 137.0 137
  115.14388 9.0 9
  116.0603 40.0 40
  117.03324 13.0 13
  118.03386 49.0 49
  118.0421 77.0 77
  118.04731 42.0 42
  119.04205 28.0 28
  119.76325 7.0 7
  120.01674 10.0 10
  121.0265 36.0 36
  126.04153 7.0 7
  126.06142 14.0 14
  127.05328 57.0 57
  127.06117 29.0 29
  127.90088 10.0 10
  128.05879 162.0 162
  129.06543 71.0 71
  129.07613 20.0 20
  131.0455 9.0 9
  133.06801 29.0 29
  136.01024 9.0 9
  137.00887 11.0 11
  137.01898 23.0 23
  137.02841 46.0 46
  139.02345 23.0 23
  139.05644 30.0 30
  139.06541 9.0 9
  139.89243 7.0 7
  140.04327 7.0 7
  140.06422 19.0 19
  140.33319 7.0 7
  141.03 6.0 6
  141.0569 47.0 47
  141.07172 569.0 568
  141.27538 7.0 7
  142.03981 9.0 9
  142.06648 61.0 61
  142.07433 58.0 58
  142.09027 9.0 9
  142.18709 7.0 7
  143.04024 11.0 11
  143.75453 9.0 9
  144.01321 7.0 7
  144.05072 33.0 33
  144.0598 33.0 33
  144.08119 13.0 13
  145.06538 19.0 19
  146.04996 9.0 9
  147.06868 9.0 9
  151.05319 54.0 54
  151.06126 32.0 32
  151.4203 12.0 12
  152.03532 9.0 9
  152.05562 240.0 240
  152.0658 265.0 265
  152.07172 85.0 85
  152.49771 8.0 8
  153.02626 6.0 6
  153.04518 13.0 13
  153.06664 172.0 172
  153.08583 26.0 26
  153.71323 7.0 7
  154.06868 26.0 26
  155.01204 11.0 11
  155.04509 15.0 15
  155.05806 10.0 10
  156.05103 39.0 39
  156.06393 26.0 26
  156.63931 6.0 6
  157.05058 9.0 9
  157.06984 8.0 8
  158.02881 9.0 9
  158.07957 36.0 36
  159.06346 12.0 12
  165.06122 21.0 21
  165.07547 16.0 16
  167.04855 20.0 20
  168.01439 11.0 11
  168.02831 9.0 9
  168.05478 59.0 59
  168.06537 29.0 29
  168.33839 8.0 8
  169.00882 13.0 13
  169.03186 7.0 7
  169.04706 30.0 30
  169.05684 221.0 221
  169.06645 366.0 366
  169.08531 10.0 10
  170.03094 7.0 7
  170.0558 14.0 14
  170.07024 135.0 135
  170.08711 12.0 12
  171.03847 13.0 13
  171.04521 29.0 29
  172.04558 10.0 10
  172.05817 7.0 7
  173.05344 7.0 7
  176.04912 9.0 9
  177.71735 9.0 9
  179.05383 44.0 44
  179.06244 12.0 12
  180.03046 7.0 7
  180.05035 8.0 8
  180.06029 10.0 10
  181.05603 96.0 96
  181.06961 96.0 96
  181.09096 7.0 7
  181.47179 21.0 21
  182.05096 14.0 14
  182.06831 26.0 26
  183.04724 11.0 11
  183.07153 13.0 13
  184.05225 22.0 22
  185.07016 14.0 14
  187.0296 15.0 15
  195.08469 9.0 9
  196.01186 8.0 8
  196.04675 39.0 39
  196.06096 35.0 35
  197.04091 75.0 75
  197.05855 1000.0 999
  197.58742 8.0 8
  198.05794 78.0 78
  198.06677 62.0 62
  199.03938 9.0 9
  199.06808 24.0 24
  199.99734 7.0 7
  200.02286 11.0 11
  200.04262 35.0 35
  200.05977 13.0 13
  200.07161 11.0 11
  201.05904 11.0 11
  201.8177 6.0 6
  202.22623 7.0 7
  207.53836 10.0 10
  208.03612 14.0 14
  208.06953 8.0 8
  209.05273 21.0 21
  209.06464 8.0 8
  209.07643 16.0 16
  210.05397 7.0 7
  210.06505 7.0 7
  211.03282 24.0 24
  211.04808 32.0 32
  213.01965 7.0 7
  219.0273 10.0 10
  219.04987 10.0 10
  224.07867 13.0 13
  225.03503 15.0 15
  225.0529 137.0 137
  225.06377 75.0 75
  225.29907 7.0 7
  226.06371 112.0 112
  226.0975 7.0 7
  227.04733 9.0 9
  229.18423 7.0 7
  235.02676 7.0 7
  237.0544 44.0 44
  238.02495 6.0 6
  253.00093 11.0 11
  253.02211 17.0 17
  253.04114 107.0 107
  253.05238 54.0 54
  253.06454 19.0 19
  254.04779 20.0 20
  269.05099 21.0 21
  269.0704 27.0 27
  269.08017 20.0 20
  269.09464 17.0 17
//
