ACCESSION: MSBNK-RIKEN-PR300562
RECORD_TITLE: Hypaconitine; LC-ESI-QTOF; MS2
DATE: 2019.03.28
AUTHORS: Tetsuya Mori, Center for Sustainable Resource Science, RIKEN
LICENSE: CC BY-NC-SA
PUBLICATION: Tsugawa H., Nakabayashi R., Mori T., Yamada Y., Takahashi M., Rai A., Sugiyama R., Yamamoto H., Nakaya T., Yamazaki M., Kooke R., Bac-Molenaar JA., Oztolan-Erol N., Keurentjes JJB., Arita M., Saito K. (2019) "A cheminformatics approach to characterize metabolomes in stable-isotope-labeled organisms" Nature Methods 16(4):295-298. [doi:10.1038/s41592-019-0358-2]
COMMENT: registered in RIKEN PlaSMA
CH$NAME: Hypaconitine
CH$COMPOUND_CLASS: Aconitane-type diterpenoid alkaloids
CH$FORMULA: C33H45NO10
CH$EXACT_MASS: 615.72
CH$SMILES: COC[C@@]12CC[C@H](OC)[C@@]34[C@@H]5C[C@@]6(O)[C@H](OC(=O)C7=CC=CC=C7)[C@@H]5[C@@](OC(C)=O)([C@@H]([C@H](OC)[C@H]13)C4N(C)C2)[C@@H](O)[C@@H]6OC
CH$IUPAC: InChI=1S/C33H45NO10/c1-17(35)44-33-21-19(14-31(38,28(42-6)26(33)36)27(21)43-29(37)18-10-8-7-9-11-18)32-20(40-4)12-13-30(16-39-3)15-34(2)25(32)22(33)23(41-5)24(30)32/h7-11,19-28,36,38H,12-16H2,1-6H3/t19-,20+,21-,22+,23+,24-,25?,26+,27-,28+,30+,31-,32+,33-/m1/s1
CH$LINK: INCHIKEY FIDOCHXHMJHKRW-VHQVDBNASA-N
AC$INSTRUMENT: LC, Waters Acquity UPLC System; MS, Waters Xevo G2 Q-Tof
AC$INSTRUMENT_TYPE: LC-ESI-QTOF
AC$MASS_SPECTROMETRY: MS_TYPE MS2
AC$MASS_SPECTROMETRY: ION_MODE POSITIVE
AC$MASS_SPECTROMETRY: COLLISION_ENERGY 6V
AC$MASS_SPECTROMETRY: DESOLVATION_GAS_FLOW 800/h
AC$MASS_SPECTROMETRY: DESOLVATION_TEMPERATURE 450 C
AC$MASS_SPECTROMETRY: IONIZATION ESI
AC$CHROMATOGRAPHY: CAPILLARY_VOLTAGE +3.00 kV
AC$CHROMATOGRAPHY: COLUMN_NAME Acquity bridged ethyl hybrid C18 (1.7 um, 2.1 mm * 100 mm, Waters)
AC$CHROMATOGRAPHY: COLUMN_TEMPERATURE 40 C
AC$CHROMATOGRAPHY: FLOW_GRADIENT A/B = (99.5%/0.5% at 0 min, 99.5%/0.5% at 0.1 min, 20%/80% at 10 min, 0.5%/99.5% at 10.1 min, 0.5%/99.5% at 12.0 min, 99.5%/0.5% at 12.1 min, 99.5%/0.5% at 15.0 min)
AC$CHROMATOGRAPHY: FLOW_RATE 0.3 ml/min at 0 min, 0.3 ml/min at 10 min, 0.4 ml/min at 10.1 min, 0.4 ml/min at 14.4 min, 0.3 ml/min at 14.5 min
AC$CHROMATOGRAPHY: RETENTION_TIME 5.970783
AC$CHROMATOGRAPHY: SOLVENT A water including 0.1% formic acid
AC$CHROMATOGRAPHY: SOLVENT B acetonitrile including 0.1% formic acid
MS$FOCUSED_ION: PRECURSOR_TYPE [M+H]+
MS$FOCUSED_ION: PRECURSOR_M/Z 616.3116231
PK$SPLASH: splash10-06ri-0966310000-8f300773c10aaf7d91f2
PK$NUM_PEAK: 590
PK$PEAK: m/z int. rel.int.
  71.05014 27.0 27
  75.04787 5.0 5
  77.03932 24.0 24
  79.05798 6.0 6
  82.06579 14.0 14
  84.08213 5.0 5
  85.02613 13.0 13
  88.06875 11.0 11
  88.07791 50.0 50
  88.61486 6.0 6
  91.05744 17.0 17
  93.06927 6.0 6
  94.0613 23.0 23
  94.06792 38.0 38
  96.08019 8.0 8
  100.07634 18.0 18
  105.03411 1000.0 999
  105.06777 15.0 15
  106.03649 63.0 63
  107.05093 15.0 15
  107.07014 8.0 8
  108.08033 37.0 37
  109.06433 8.0 8
  109.0907 8.0 8
  110.09726 30.0 30
  111.04424 5.0 5
  111.10101 7.0 7
  112.08175 6.0 6
  114.0915 19.0 19
  114.09644 7.0 7
  117.05896 6.0 6
  117.07085 44.0 44
  118.07907 6.0 6
  119.05095 7.0 7
  119.08606 7.0 7
  120.08144 28.0 28
  121.06553 12.0 12
  122.09523 5.0 5
  123.08274 6.0 6
  124.07062 6.0 6
  126.08297 6.0 6
  126.09511 6.0 6
  128.06244 16.0 16
  129.06145 5.0 5
  129.07095 28.0 28
  130.06787 7.0 7
  131.04976 11.0 11
  131.07271 7.0 7
  131.08736 69.0 69
  132.07535 9.0 9
  132.08617 21.0 21
  133.02975 9.0 9
  133.07103 5.0 5
  133.09225 12.0 12
  134.0966 24.0 24
  134.10472 15.0 15
  135.02974 9.0 9
  135.0434 12.0 12
  136.0742 9.0 9
  137.06331 17.0 17
  138.08708 19.0 19
  138.09477 28.0 28
  139.09926 7.0 7
  140.09567 5.0 5
  140.10797 98.0 98
  140.11613 20.0 20
  141.05994 7.0 7
  141.07095 35.0 35
  141.10802 6.0 6
  143.0874 42.0 42
  144.07828 6.0 6
  146.03429 21.0 21
  146.06625 23.0 23
  146.07248 6.0 6
  146.0901 6.0 6
  146.09853 12.0 12
  147.03212 14.0 14
  147.04384 92.0 92
  147.07501 13.0 13
  147.08214 18.0 18
  147.1012 7.0 7
  148.04721 21.0 21
  148.07819 22.0 22
  148.0854 17.0 17
  148.09523 13.0 13
  148.11401 7.0 7
  149.08961 7.0 7
  149.09929 20.0 20
  150.09387 11.0 11
  151.09383 10.0 10
  152.11082 20.0 20
  153.05603 9.0 9
  153.07056 20.0 20
  153.07724 12.0 12
  154.0751 23.0 23
  155.08473 46.0 46
  156.08794 9.0 9
  156.09529 8.0 8
  157.06552 21.0 21
  157.09364 16.0 16
  158.06664 8.0 8
  158.09175 8.0 8
  158.10182 18.0 18
  159.1067 9.0 9
  160.07954 40.0 40
  160.10915 24.0 24
  160.1198 7.0 7
  161.05403 6.0 6
  161.07756 13.0 13
  161.0957 14.0 14
  162.05969 5.0 5
  162.0966 6.0 6
  163.09575 9.0 9
  164.08849 7.0 7
  164.10367 6.0 6
  164.11398 7.0 7
  165.06409 17.0 17
  165.07144 32.0 32
  166.12228 14.0 14
  167.08839 57.0 57
  168.08569 7.0 7
  169.06349 16.0 16
  169.07132 9.0 9
  169.09517 6.0 6
  170.06093 6.0 6
  170.09961 16.0 16
  171.08054 23.0 23
  171.09978 7.0 7
  172.04691 6.0 6
  172.11157 32.0 32
  173.0988 24.0 24
  174.04732 10.0 10
  174.05318 26.0 26
  174.09328 7.0 7
  174.10207 5.0 5
  174.11572 6.0 6
  174.12981 22.0 22
  175.06854 14.0 14
  175.10361 7.0 7
  176.07237 25.0 25
  176.1078 9.0 9
  176.52876 6.0 6
  177.05301 35.0 35
  178.07977 19.0 19
  178.12059 6.0 6
  178.12709 8.0 8
  179.08801 26.0 26
  180.08932 12.0 12
  181.06126 8.0 8
  181.09564 12.0 12
  181.10338 13.0 13
  182.07466 10.0 10
  182.0993 17.0 17
  183.07857 16.0 16
  183.11176 6.0 6
  184.10796 7.0 7
  184.11769 18.0 18
  186.07057 5.0 5
  186.0938 20.0 20
  186.10466 12.0 12
  186.12624 26.0 26
  186.14114 6.0 6
  187.06712 8.0 8
  187.13051 13.0 13
  188.07132 21.0 21
  188.10612 17.0 17
  189.06404 11.0 11
  189.07887 54.0 54
  189.0889 19.0 19
  190.08073 17.0 17
  190.0881 14.0 14
  190.09946 7.0 7
  191.07211 8.0 8
  191.09361 18.0 18
  192.08365 6.0 6
  192.09778 17.0 17
  192.14391 9.0 9
  193.063 12.0 12
  193.1057 43.0 43
  195.07962 19.0 19
  195.10504 18.0 18
  195.11781 12.0 12
  196.14006 5.0 5
  197.05052 6.0 6
  197.06973 8.0 8
  197.08447 11.0 11
  197.09673 16.0 16
  197.11209 8.0 8
  197.12022 8.0 8
  198.12498 9.0 9
  198.13293 6.0 6
  199.08234 14.0 14
  199.10834 13.0 13
  201.07854 11.0 11
  202.07205 7.0 7
  203.07266 8.0 8
  203.08449 9.0 9
  203.09468 15.0 15
  203.13449 5.0 5
  204.09755 11.0 11
  204.14064 36.0 36
  205.05811 5.0 5
  205.09749 40.0 40
  205.11595 25.0 25
  206.1127 8.0 8
  206.12431 7.0 7
  206.15334 50.0 50
  206.1657 9.0 9
  207.07826 21.0 21
  207.09229 7.0 7
  207.11386 37.0 37
  207.71494 6.0 6
  208.08536 12.0 12
  208.10242 5.0 5
  209.05975 14.0 14
  209.09781 12.0 12
  209.12451 6.0 6
  210.10352 9.0 9
  210.14424 6.0 6
  211.07201 12.0 12
  211.08292 10.0 10
  211.10901 8.0 8
  212.11481 7.0 7
  213.09122 14.0 14
  213.12987 5.0 5
  214.08737 9.0 9
  214.12108 12.0 12
  215.08553 11.0 11
  215.09485 20.0 20
  216.09137 13.0 13
  216.13445 7.0 7
  217.07408 7.0 7
  217.10205 34.0 34
  217.14708 5.0 5
  218.1369 6.0 6
  219.08641 14.0 14
  219.10609 13.0 13
  219.12021 21.0 21
  220.08975 22.0 22
  220.10342 17.0 17
  220.11426 14.0 14
  221.09402 22.0 22
  221.1057 20.0 20
  221.12816 34.0 34
  222.10095 7.0 7
  222.12473 12.0 12
  223.0578 6.0 6
  223.1069 9.0 9
  223.12146 14.0 14
  224.08867 10.0 10
  224.1386 15.0 15
  225.11742 7.0 7
  226.09364 10.0 10
  228.10684 5.0 5
  229.08603 6.0 6
  229.10326 31.0 31
  229.14896 9.0 9
  230.1067 15.0 15
  230.15234 8.0 8
  231.06789 5.0 5
  231.08037 12.0 12
  231.10124 7.0 7
  232.06683 7.0 7
  232.09346 11.0 11
  232.18073 12.0 12
  233.08618 13.0 13
  233.10132 13.0 13
  234.06754 12.0 12
  234.10252 11.0 11
  234.12935 6.0 6
  235.06776 14.0 14
  235.07919 16.0 16
  235.10744 60.0 60
  235.1225 12.0 12
  235.13181 9.0 9
  235.94601 7.0 7
  236.11374 20.0 20
  237.07877 5.0 5
  237.09306 25.0 25
  237.10745 5.0 5
  237.12669 18.0 18
  237.14038 15.0 15
  237.16966 5.0 5
  238.09531 9.0 9
  238.13074 13.0 13
  238.14671 10.0 10
  239.08194 6.0 6
  239.11586 7.0 7
  239.14099 8.0 8
  240.17761 5.0 5
  241.13005 6.0 6
  242.11238 9.0 9
  243.12697 10.0 10
  243.14752 5.0 5
  244.09593 10.0 10
  245.09151 8.0 8
  245.10233 12.0 12
  245.11316 10.0 10
  246.10905 18.0 18
  246.14366 8.0 8
  247.07117 6.0 6
  247.10129 6.0 6
  247.11247 19.0 19
  248.08411 17.0 17
  248.11638 19.0 19
  248.13213 12.0 12
  248.14322 8.0 8
  249.08624 36.0 36
  249.11646 12.0 12
  249.13144 15.0 15
  250.1263 17.0 17
  250.14412 13.0 13
  251.084 5.0 5
  251.09372 7.0 7
  251.11182 16.0 16
  251.13968 7.0 7
  252.10233 9.0 9
  252.12392 5.0 5
  252.14206 8.0 8
  252.15601 7.0 7
  253.12158 7.0 7
  253.14742 6.0 6
  254.10278 6.0 6
  254.11644 10.0 10
  255.11292 6.0 6
  257.1192 7.0 7
  257.14328 7.0 7
  257.15845 11.0 11
  258.11429 7.0 7
  258.13507 6.0 6
  260.13812 6.0 6
  260.14935 5.0 5
  260.16739 7.0 7
  261.10861 5.0 5
  261.12711 8.0 8
  262.12582 8.0 8
  262.19205 6.0 6
  262.41504 6.0 6
  263.06628 7.0 7
  263.08475 8.0 8
  263.11057 163.0 163
  263.13754 7.0 7
  264.10767 41.0 41
  264.13364 21.0 21
  264.15863 14.0 14
  265.1196 40.0 40
  265.1492 10.0 10
  266.13693 16.0 16
  266.15674 12.0 12
  267.0679 14.0 14
  267.10129 7.0 7
  267.13239 8.0 8
  267.14581 14.0 14
  268.13004 12.0 12
  268.14185 14.0 14
  268.17657 7.0 7
  269.16162 13.0 13
  269.17776 8.0 8
  270.13528 10.0 10
  271.09711 7.0 7
  271.16058 5.0 5
  275.08597 9.0 9
  275.09674 12.0 12
  275.11099 26.0 26
  276.13129 12.0 12
  277.11606 13.0 13
  278.10477 9.0 9
  278.12469 35.0 35
  278.14334 11.0 11
  278.1575 6.0 6
  278.16794 8.0 8
  279.10178 11.0 11
  279.13232 8.0 8
  279.14523 7.0 7
  279.16336 12.0 12
  280.13071 15.0 15
  281.09888 8.0 8
  281.15302 11.0 11
  282.02896 5.0 5
  282.13605 8.0 8
  282.15198 33.0 33
  282.17999 12.0 12
  282.19315 18.0 18
  283.15781 25.0 25
  283.19049 11.0 11
  286.177 5.0 5
  287.14871 6.0 6
  288.12741 7.0 7
  289.21539 5.0 5
  291.12897 14.0 14
  292.12122 19.0 19
  293.14069 55.0 55
  293.1575 13.0 13
  294.09686 5.0 5
  294.13083 9.0 9
  294.14908 30.0 30
  294.16833 12.0 12
  295.0563 8.0 8
  295.12466 12.0 12
  295.13519 30.0 30
  295.15625 10.0 10
  296.13702 17.0 17
  296.16547 34.0 34
  297.14697 11.0 11
  297.17584 14.0 14
  298.18552 13.0 13
  299.14249 9.0 9
  299.17215 6.0 6
  301.16388 6.0 6
  301.18152 6.0 6
  302.19138 7.0 7
  303.13449 8.0 8
  306.14688 40.0 40
  306.1731 6.0 6
  307.12317 7.0 7
  307.1478 16.0 16
  308.12112 10.0 10
  309.17099 5.0 5
  310.14737 31.0 31
  310.17865 130.0 130
  310.19095 57.0 57
  310.21997 8.0 8
  311.13882 6.0 6
  311.15652 17.0 17
  311.17346 10.0 10
  311.18896 22.0 22
  312.16043 6.0 6
  312.19046 16.0 16
  313.14905 8.0 8
  313.1601 8.0 8
  313.17764 6.0 6
  314.17093 14.0 14
  314.18494 23.0 23
  314.21387 66.0 66
  315.16623 5.0 5
  315.18692 7.0 7
  315.20502 16.0 16
  315.22089 9.0 9
  320.16028 5.0 5
  324.14905 7.0 7
  324.1629 9.0 9
  324.17865 5.0 5
  326.16379 14.0 14
  327.16574 9.0 9
  328.20145 11.0 11
  332.17218 24.0 24
  332.20471 6.0 6
  338.08609 6.0 6
  338.10684 5.0 5
  338.12479 13.0 13
  338.17496 858.0 857
  338.9968 6.0 6
  339.12363 5.0 5
  339.15085 7.0 7
  339.17953 157.0 157
  339.19427 42.0 42
  340.17627 9.0 9
  340.19849 16.0 16
  342.16214 7.0 7
  342.19147 82.0 82
  342.20789 197.0 197
  342.22095 74.0 74
  342.39825 7.0 7
  343.19955 24.0 24
  343.21451 63.0 63
  343.23364 7.0 7
  344.14053 6.0 6
  344.16797 13.0 13
  344.18576 9.0 9
  344.20715 12.0 12
  344.22363 10.0 10
  346.2468 5.0 5
  348.23788 7.0 7
  352.19308 6.0 6
  354.17325 6.0 6
  355.12097 9.0 9
  355.18759 7.0 7
  356.19202 11.0 11
  356.21478 14.0 14
  357.14841 8.0 8
  357.22064 8.0 8
  359.18723 10.0 10
  362.2301 6.0 6
  365.11731 6.0 6
  370.17374 5.0 5
  370.18872 17.0 17
  370.19952 27.0 27
  370.21576 28.0 28
  371.13568 5.0 5
  371.17081 8.0 8
  371.19418 5.0 5
  371.20609 7.0 7
  372.17517 15.0 15
  374.19165 13.0 13
  374.22522 31.0 31
  374.24136 31.0 31
  374.25867 8.0 8
  375.23688 14.0 14
  376.21573 5.0 5
  376.24286 5.0 5
  386.19791 7.0 7
  388.1944 9.0 9
  388.22818 9.0 9
  400.13727 6.0 6
  400.1871 7.0 7
  400.21051 5.0 5
  401.18591 6.0 6
  402.2218 16.0 16
  402.2413 15.0 15
  404.18921 5.0 5
  404.20361 5.0 5
  405.21237 7.0 7
  406.17789 7.0 7
  406.20413 9.0 9
  414.22141 6.0 6
  416.17163 5.0 5
  416.19458 12.0 12
  418.20135 23.0 23
  418.21533 9.0 9
  419.21133 7.0 7
  419.23145 10.0 10
  420.1763 7.0 7
  422.17877 11.0 11
  428.18295 15.0 15
  429.19824 7.0 7
  432.17828 10.0 10
  432.20264 36.0 36
  432.2233 29.0 29
  432.35962 6.0 6
  433.21378 9.0 9
  433.22766 15.0 15
  436.22073 15.0 15
  445.7193 6.0 6
  448.19513 7.0 7
  452.20792 5.0 5
  460.1582 6.0 6
  460.19772 23.0 23
  460.21713 46.0 46
  461.20325 16.0 16
  461.22537 13.0 13
  462.2287 5.0 5
  464.17542 16.0 16
  464.20776 115.0 115
  464.24301 263.0 263
  465.19864 18.0 18
  465.22034 35.0 35
  465.24817 25.0 25
  465.267 13.0 13
  465.28152 5.0 5
  466.20062 8.0 8
  466.24399 16.0 16
  466.26379 11.0 11
  467.25375 7.0 7
  492.21652 21.0 21
  492.24023 121.0 121
  493.16315 6.0 6
  493.18155 5.0 5
  493.21268 7.0 7
  493.23727 46.0 46
  493.26309 17.0 17
  494.23862 10.0 10
  494.28326 6.0 6
  496.20984 22.0 22
  496.23618 55.0 55
  496.25693 95.0 95
  496.29111 22.0 22
  496.31195 13.0 13
  497.23755 31.0 31
  497.2724 49.0 49
  498.26633 14.0 14
  506.23532 9.0 9
  524.16504 5.0 5
  524.22705 27.0 27
  524.24823 93.0 93
  524.26947 192.0 192
  524.3009 19.0 19
  525.22784 10.0 10
  525.25781 54.0 54
  525.28497 45.0 45
  526.25671 11.0 11
  526.28613 16.0 16
  556.22662 7.0 7
  556.28668 105.0 105
  556.3244 29.0 29
  557.28076 14.0 14
  557.29681 35.0 35
  584.30579 6.0 6
  616.28589 20.0 20
  616.31244 20.0 20
  616.33472 9.0 9
//
