ACCESSION: MSBNK-RIKEN-PR306681
RECORD_TITLE: Quercetin-3-O-glucuronide; LC-ESI-QTOF; MS2
DATE: 2019.03.28
AUTHORS: Tetsuya Mori, Center for Sustainable Resource Science, RIKEN
LICENSE: CC BY-NC-SA
PUBLICATION: Tsugawa H., Nakabayashi R., Mori T., Yamada Y., Takahashi M., Rai A., Sugiyama R., Yamamoto H., Nakaya T., Yamazaki M., Kooke R., Bac-Molenaar JA., Oztolan-Erol N., Keurentjes JJB., Arita M., Saito K. (2019) "A cheminformatics approach to characterize metabolomes in stable-isotope-labeled organisms" Nature Methods 16(4):295-298. [doi:10.1038/s41592-019-0358-2]
COMMENT: registered in RIKEN PlaSMA
CH$NAME: Quercetin-3-O-glucuronide
CH$COMPOUND_CLASS: Flavonoid-3-O-glucuronides
CH$FORMULA: C21H18O13
CH$EXACT_MASS: 478.362
CH$SMILES: OC1C(O)C(OC2=C(OC3=CC(O)=CC(O)=C3C2=O)C2=CC(O)=C(O)C=C2)OC(C1O)C(O)=O
CH$IUPAC: InChI=1S/C21H18O13/c22-7-4-10(25)12-11(5-7)32-17(6-1-2-8(23)9(24)3-6)18(13(12)26)33-21-16(29)14(27)15(28)19(34-21)20(30)31/h1-5,14-16,19,21-25,27-29H,(H,30,31)
CH$LINK: INCHIKEY DUBCCGAQYVUYEU-UHFFFAOYSA-N
AC$INSTRUMENT: LC, Waters Acquity UPLC System; MS, Waters Xevo G2 Q-Tof
AC$INSTRUMENT_TYPE: LC-ESI-QTOF
AC$MASS_SPECTROMETRY: MS_TYPE MS2
AC$MASS_SPECTROMETRY: ION_MODE NEGATIVE
AC$MASS_SPECTROMETRY: COLLISION_ENERGY 6V
AC$MASS_SPECTROMETRY: DESOLVATION_GAS_FLOW 800/h
AC$MASS_SPECTROMETRY: DESOLVATION_TEMPERATURE 450 C
AC$MASS_SPECTROMETRY: IONIZATION ESI
AC$CHROMATOGRAPHY: CAPILLARY_VOLTAGE -2.75 kV
AC$CHROMATOGRAPHY: COLUMN_NAME Acquity bridged ethyl hybrid C18 (1.7 um, 2.1 mm * 100 mm, Waters)
AC$CHROMATOGRAPHY: COLUMN_TEMPERATURE 40 C
AC$CHROMATOGRAPHY: FLOW_GRADIENT A/B = (99.5%/0.5% at 0 min, 99.5%/0.5% at 0.1 min, 20%/80% at 10 min, 0.5%/99.5% at 10.1 min, 0.5%/99.5% at 12.0 min, 99.5%/0.5% at 12.1 min, 99.5%/0.5% at 15.0 min)
AC$CHROMATOGRAPHY: FLOW_RATE 0.3 ml/min at 0 min, 0.3 ml/min at 10 min, 0.4 ml/min at 10.1 min, 0.4 ml/min at 14.4 min, 0.3 ml/min at 14.5 min
AC$CHROMATOGRAPHY: RETENTION_TIME 4.013533
AC$CHROMATOGRAPHY: SOLVENT A water including 0.1% formic acid
AC$CHROMATOGRAPHY: SOLVENT B acetonitrile including 0.1% formic acid
MS$FOCUSED_ION: PRECURSOR_TYPE [M-H]-
MS$FOCUSED_ION: PRECURSOR_M/Z 477.06746414783
PK$SPLASH: splash10-0fb9-0017900000-b25b3799fe5aea1623cb
PK$NUM_PEAK: 25
PK$PEAK: m/z int. rel.int.
  146.73994 6.0 6
  151.00755 8.0 8
  178.99554 12.0 12
  188.63527 6.0 6
  236.28853 5.0 5
  271.02954 5.0 5
  293.40726 6.0 6
  299.01617 140.0 140
  299.03174 22.0 22
  300.01947 89.0 89
  300.27225 11.0 11
  301.03571 580.0 579
  302.02747 30.0 30
  302.0408 121.0 121
  303.0386 36.0 36
  306.48987 5.0 5
  323.08347 7.0 7
  334.83218 7.0 7
  339.84302 8.0 8
  388.09616 5.0 5
  471.67273 5.0 5
  476.03934 5.0 5
  477.06848 1000.0 999
  477.10895 6.0 6
  477.13342 11.0 11
//
