ACCESSION: MSBNK-RIKEN-PR307047
RECORD_TITLE: NP-000004(11); LC-ESI-QTOF; MS2
DATE: 2019.03.28
AUTHORS: Tetsuya Mori, Center for Sustainable Resource Science, RIKEN
LICENSE: CC BY-NC-SA
PUBLICATION: Tsugawa H., Nakabayashi R., Mori T., Yamada Y., Takahashi M., Rai A., Sugiyama R., Yamamoto H., Nakaya T., Yamazaki M., Kooke R., Bac-Molenaar JA., Oztolan-Erol N., Keurentjes JJB., Arita M., Saito K. (2019) "A cheminformatics approach to characterize metabolomes in stable-isotope-labeled organisms" Nature Methods 16(4):295-298. [doi:10.1038/s41592-019-0358-2]
COMMENT: registered in RIKEN PlaSMA
CH$NAME: NP-000004(11)
CH$COMPOUND_CLASS: Flavonoid 8-C-glycosides
CH$FORMULA: C26H28O14
CH$EXACT_MASS: 564.496
CH$SMILES: OCC1OC(C(O)C1O)C1=C2OC(=CC(=O)C2=C(O)C(C2OC(CO)C(O)C(O)C2O)=C1O)C1=CC=C(O)C=C1
CH$IUPAC: InChI=1S/C26H28O14/c27-6-12-17(31)21(35)23(37)25(39-12)15-19(33)14-10(30)5-11(8-1-3-9(29)4-2-8)38-24(14)16(20(15)34)26-22(36)18(32)13(7-28)40-26/h1-5,12-13,17-18,21-23,25-29,31-37H,6-7H2
CH$LINK: INCHIKEY TUIJPUWSXVFWSH-UHFFFAOYSA-N
AC$INSTRUMENT: LC, Waters Acquity UPLC System; MS, Waters Xevo G2 Q-Tof
AC$INSTRUMENT_TYPE: LC-ESI-QTOF
AC$MASS_SPECTROMETRY: MS_TYPE MS2
AC$MASS_SPECTROMETRY: ION_MODE NEGATIVE
AC$MASS_SPECTROMETRY: COLLISION_ENERGY 6V
AC$MASS_SPECTROMETRY: DESOLVATION_GAS_FLOW 800/h
AC$MASS_SPECTROMETRY: DESOLVATION_TEMPERATURE 450 C
AC$MASS_SPECTROMETRY: IONIZATION ESI
AC$CHROMATOGRAPHY: CAPILLARY_VOLTAGE -2.75 kV
AC$CHROMATOGRAPHY: COLUMN_NAME Acquity bridged ethyl hybrid C18 (1.7 um, 2.1 mm * 100 mm, Waters)
AC$CHROMATOGRAPHY: COLUMN_TEMPERATURE 40 C
AC$CHROMATOGRAPHY: FLOW_GRADIENT A/B = (99.5%/0.5% at 0 min, 99.5%/0.5% at 0.1 min, 20%/80% at 10 min, 0.5%/99.5% at 10.1 min, 0.5%/99.5% at 12.0 min, 99.5%/0.5% at 12.1 min, 99.5%/0.5% at 15.0 min)
AC$CHROMATOGRAPHY: FLOW_RATE 0.3 ml/min at 0 min, 0.3 ml/min at 10 min, 0.4 ml/min at 10.1 min, 0.4 ml/min at 14.4 min, 0.3 ml/min at 14.5 min
AC$CHROMATOGRAPHY: RETENTION_TIME 3.550883
AC$CHROMATOGRAPHY: SOLVENT A water including 0.1% formic acid
AC$CHROMATOGRAPHY: SOLVENT B acetonitrile including 0.1% formic acid
MS$FOCUSED_ION: PRECURSOR_TYPE [M-H]-
MS$FOCUSED_ION: PRECURSOR_M/Z 563.14062914783
PK$SPLASH: splash10-0002-0494000000-4633525217163d0e9233
PK$NUM_PEAK: 196
PK$PEAK: m/z int. rel.int.
  60.66198 12.0 12
  71.01038 14.0 14
  81.03379 15.0 15
  93.03309 31.0 31
  103.06128 21.0 21
  105.07327 11.0 11
  107.01391 15.0 15
  108.04831 11.0 11
  109.02772 14.0 14
  111.04553 11.0 11
  117.02769 42.0 42
  117.03583 70.0 70
  118.02883 22.0 22
  118.03698 15.0 15
  119.04577 23.0 23
  119.05463 14.0 14
  119.95757 12.0 12
  121.03651 14.0 14
  121.04279 19.0 19
  129.02408 11.0 11
  130.04224 10.0 10
  133.06424 29.0 29
  135.0421 44.0 44
  135.05092 38.0 38
  137.01865 14.0 14
  137.0248 14.0 14
  144.05161 16.0 16
  145.03203 18.0 18
  146.03526 15.0 15
  147.04161 37.0 37
  148.01865 11.0 11
  148.05515 12.0 12
  149.02591 67.0 67
  151.02747 12.0 12
  151.03917 23.0 23
  157.07295 12.0 12
  159.04187 22.0 22
  160.04509 33.0 33
  161.02473 29.0 29
  161.03143 17.0 17
  162.032 48.0 48
  163.04185 40.0 40
  163.07965 11.0 11
  164.00981 13.0 13
  169.06438 12.0 12
  171.04485 24.0 24
  173.05487 29.0 29
  174.03151 34.0 34
  175.03569 13.0 13
  175.04398 42.0 42
  177.01582 50.0 50
  177.04991 15.0 15
  177.05836 55.0 55
  178.02591 13.0 13
  179.03705 11.0 11
  182.07536 13.0 13
  183.07733 12.0 12
  185.03302 10.0 10
  187.00473 11.0 11
  188.01227 12.0 12
  188.04489 44.0 44
  189.0173 45.0 45
  189.05634 12.0 12
  190.43788 14.0 14
  191.02945 15.0 15
  193.05109 14.0 14
  197.05753 37.0 37
  199.02814 18.0 18
  199.03619 23.0 23
  201.02068 14.0 14
  201.05161 16.0 16
  201.06143 13.0 13
  202.02486 10.0 10
  203.02441 12.0 12
  203.0414 23.0 23
  205.01625 12.0 12
  205.04741 25.0 25
  205.06052 19.0 19
  210.06227 11.0 11
  211.07779 10.0 10
  215.03271 13.0 13
  217.01645 57.0 57
  217.0472 27.0 27
  217.05717 11.0 11
  219.02856 34.0 34
  219.06894 11.0 11
  220.03986 16.0 16
  221.071 17.0 17
  222.05954 13.0 13
  223.07463 43.0 43
  224.03572 17.0 17
  224.05165 19.0 19
  224.08424 35.0 35
  225.09399 12.0 12
  229.01485 10.0 10
  232.6792 13.0 13
  233.04774 51.0 51
  233.58786 10.0 10
  234.05051 15.0 15
  236.07309 13.0 13
  237.05513 49.0 49
  239.03093 17.0 17
  239.04063 12.0 12
  239.06508 10.0 10
  243.06697 12.0 12
  246.05853 12.0 12
  249.06071 14.0 14
  250.05644 12.0 12
  251.0545 14.0 14
  251.08095 12.0 12
  252.06917 14.0 14
  254.09807 35.0 35
  259.07065 14.0 14
  261.05292 10.0 10
  262.0705 14.0 14
  264.0354 18.0 18
  265.03949 25.0 25
  265.05197 19.0 19
  267.07465 23.0 23
  268.04303 11.0 11
  268.06482 27.0 27
  268.07553 39.0 39
  269.03586 10.0 10
  270.72925 16.0 16
  277.05331 25.0 25
  278.04099 13.0 13
  279.08276 15.0 15
  281.08914 11.0 11
  282.05148 48.0 48
  282.06879 13.0 13
  282.19931 16.0 16
  283.05865 165.0 165
  283.33231 12.0 12
  284.06055 11.0 11
  290.05896 11.0 11
  292.07376 11.0 11
  294.05389 15.0 15
  295.06186 266.0 266
  296.06943 131.0 131
  297.07761 1000.0 999
  298.08279 159.0 159
  299.07312 10.0 10
  299.08655 11.0 11
  302.05374 10.0 10
  306.04556 27.0 27
  306.05673 9.0 9
  307.04483 25.0 25
  307.05798 30.0 30
  307.07169 25.0 25
  307.09717 17.0 17
  308.05829 11.0 11
  308.07626 36.0 36
  309.07059 115.0 115
  309.09363 12.0 12
  310.09088 13.0 13
  311.05841 32.0 32
  311.08008 14.0 14
  312.04575 13.0 13
  312.06915 23.0 23
  313.06488 11.0 11
  319.05661 15.0 15
  321.03592 29.0 29
  322.05945 13.0 13
  323.05182 46.0 46
  323.06329 68.0 68
  324.04224 19.0 19
  324.06836 61.0 61
  324.19949 11.0 11
  325.07425 162.0 162
  326.06226 10.0 10
  326.07996 22.0 22
  335.03635 16.0 16
  335.0535 27.0 27
  336.05673 13.0 13
  337.07584 82.0 82
  337.35019 10.0 10
  338.4725 10.0 10
  339.07294 12.0 12
  339.0896 13.0 13
  341.58929 13.0 13
  347.05814 12.0 12
  348.05042 10.0 10
  349.08145 11.0 11
  353.06424 125.0 125
  354.06616 53.0 53
  355.0697 14.0 14
  355.08328 14.0 14
  365.06406 50.0 50
  377.06741 22.0 22
  378.06979 13.0 13
  381.06323 10.0 10
  383.07831 76.0 76
  384.08334 13.0 13
  389.38443 13.0 13
  395.08176 12.0 12
  409.11575 11.0 11
//
