ACCESSION: MSBNK-RIKEN-PR307511
RECORD_TITLE: Quercetin 3-O-[2''-O-(6'''-O-p-coumaroyl)-b-D-glucopyranosyl]-a-L-rhamnopyranoside; LC-ESI-QTOF; MS2
DATE: 2019.03.28
AUTHORS: Tetsuya Mori, Center for Sustainable Resource Science, RIKEN
LICENSE: CC BY-NC-SA
PUBLICATION: Tsugawa H., Nakabayashi R., Mori T., Yamada Y., Takahashi M., Rai A., Sugiyama R., Yamamoto H., Nakaya T., Yamazaki M., Kooke R., Bac-Molenaar JA., Oztolan-Erol N., Keurentjes JJB., Arita M., Saito K. (2019) "A cheminformatics approach to characterize metabolomes in stable-isotope-labeled organisms" Nature Methods 16(4):295-298. [doi:10.1038/s41592-019-0358-2]
COMMENT: registered in RIKEN PlaSMA
CH$NAME: Quercetin 3-O-[2''-O-(6'''-O-p-coumaroyl)-b-D-glucopyranosyl]-a-L-rhamnopyranoside
CH$COMPOUND_CLASS: Flavonoid-3-O-glycosides
CH$FORMULA: C36H36O18
CH$EXACT_MASS: 756.666
CH$SMILES: CC1OC(OC2=C(OC3=CC(O)=CC(O)=C3C2=O)C2=CC(O)=C(O)C=C2)C(OC2OC(COC(=O)C=CC3=CC=C(O)C=C3)C(O)C(O)C2O)C(O)C1O
CH$IUPAC: InChI=1S/C36H36O18/c1-14-26(43)30(47)34(54-35-31(48)29(46)27(44)23(52-35)13-49-24(42)9-4-15-2-6-17(37)7-3-15)36(50-14)53-33-28(45)25-21(41)11-18(38)12-22(25)51-32(33)16-5-8-19(39)20(40)10-16/h2-12,14,23,26-27,29-31,34-41,43-44,46-48H,13H2,1H3
CH$LINK: INCHIKEY LSMKTLJKBSXMMR-UHFFFAOYSA-N
AC$INSTRUMENT: LC, Waters Acquity UPLC System; MS, Waters Xevo G2 Q-Tof
AC$INSTRUMENT_TYPE: LC-ESI-QTOF
AC$MASS_SPECTROMETRY: MS_TYPE MS2
AC$MASS_SPECTROMETRY: ION_MODE NEGATIVE
AC$MASS_SPECTROMETRY: COLLISION_ENERGY 6V
AC$MASS_SPECTROMETRY: DESOLVATION_GAS_FLOW 800/h
AC$MASS_SPECTROMETRY: DESOLVATION_TEMPERATURE 450 C
AC$MASS_SPECTROMETRY: IONIZATION ESI
AC$CHROMATOGRAPHY: CAPILLARY_VOLTAGE -2.75 kV
AC$CHROMATOGRAPHY: COLUMN_NAME Acquity bridged ethyl hybrid C18 (1.7 um, 2.1 mm * 100 mm, Waters)
AC$CHROMATOGRAPHY: COLUMN_TEMPERATURE 40 C
AC$CHROMATOGRAPHY: FLOW_GRADIENT A/B = (99.5%/0.5% at 0 min, 99.5%/0.5% at 0.1 min, 20%/80% at 10 min, 0.5%/99.5% at 10.1 min, 0.5%/99.5% at 12.0 min, 99.5%/0.5% at 12.1 min, 99.5%/0.5% at 15.0 min)
AC$CHROMATOGRAPHY: FLOW_RATE 0.3 ml/min at 0 min, 0.3 ml/min at 10 min, 0.4 ml/min at 10.1 min, 0.4 ml/min at 14.4 min, 0.3 ml/min at 14.5 min
AC$CHROMATOGRAPHY: RETENTION_TIME 4.676867
AC$CHROMATOGRAPHY: SOLVENT A water including 0.1% formic acid
AC$CHROMATOGRAPHY: SOLVENT B acetonitrile including 0.1% formic acid
MS$FOCUSED_ION: PRECURSOR_TYPE [M-H]-
MS$FOCUSED_ION: PRECURSOR_M/Z 755.18288784783
PK$SPLASH: splash10-0a4i-0002009100-f1362a741dcadad3f9b9
PK$NUM_PEAK: 18
PK$PEAK: m/z int. rel.int.
  145.03001 5.0 5
  151.00148 6.0 6
  178.99248 13.0 13
  179.00127 23.0 23
  299.01852 35.0 35
  300.02487 283.0 283
  301.01337 7.0 7
  301.03284 76.0 76
  302.02628 6.0 6
  302.0412 14.0 14
  429.07095 8.0 8
  591.11047 6.0 6
  591.14496 24.0 24
  609.14642 1000.0 999
  610.14923 298.0 298
  611.15063 57.0 57
  612.1568 15.0 15
  755.18207 183.0 183
//
