ACCESSION: MSBNK-RIKEN-PR100895
RECORD_TITLE: 4-Coumaric acid; LC-ESI-QTOF; MS2; CE:30 V; [M-H]-
DATE: 2016.01.19 (Created 2010.06.21, modified 2011.05.06)
AUTHORS: Matsuda F, Suzuki M, Sawada Y, Plant Science Center, RIKEN.
LICENSE: CC BY-SA
COMMENT: Acquisition and generation of the data is financially supported in part by CREST/JST.
CH$NAME: 4-Coumaric acid
CH$NAME: p-Coumaric acid
CH$NAME: trans-4-Hydroxycinnamic acid
CH$COMPOUND_CLASS: Carboxylic acids
CH$FORMULA: C9H8O3
CH$EXACT_MASS: 164.04734
CH$SMILES: OC(=O)C=Cc(c1)ccc(O)c1
CH$IUPAC: InChI=1S/C9H8O3/c10-8-4-1-7(2-5-8)3-6-9(11)12/h1-6,10H,(H,11,12)/b6-3+
CH$LINK: CAS 501-98-4
CH$LINK: CHEMSPIDER 553148
CH$LINK: KAPPAVIEW KPC00195
CH$LINK: KEGG C00811
CH$LINK: KNAPSACK C00000580;C00000152
CH$LINK: PUBCHEM CID:637542
CH$LINK: INCHIKEY NGSWKAQJJWESNS-ZZXKWVIFSA-N
CH$LINK: COMPTOX DTXSID30901076
AC$INSTRUMENT: UPLC Q-Tof Premier, Waters
AC$INSTRUMENT_TYPE: LC-ESI-QTOF
AC$MASS_SPECTROMETRY: MS_TYPE MS2
AC$MASS_SPECTROMETRY: ION_MODE NEGATIVE
AC$MASS_SPECTROMETRY: COLLISION_ENERGY 30 V
AC$MASS_SPECTROMETRY: DATAFORMAT Continuum
AC$MASS_SPECTROMETRY: DESOLVATION_GAS_FLOW 600.0 L/Hr
AC$MASS_SPECTROMETRY: DESOLVATION_TEMPERATURE 400 C
AC$MASS_SPECTROMETRY: FRAGMENTATION_METHOD LOW-ENERGY CID
AC$MASS_SPECTROMETRY: IONIZATION ESI
AC$MASS_SPECTROMETRY: SOURCE_TEMPERATURE 120 C
AC$CHROMATOGRAPHY: CAPILLARY_VOLTAGE 3.0 kV
AC$CHROMATOGRAPHY: SAMPLING_CONE 23.0 V
AC$CHROMATOGRAPHY: SOLVENT A CH3CN(0.1%HCOOH)
AC$CHROMATOGRAPHY: SOLVENT B H2O(0.1%HCOOH)
MS$FOCUSED_ION: PRECURSOR_M/Z 163.03954
MS$FOCUSED_ION: PRECURSOR_TYPE [M-H]-
PK$SPLASH: splash10-0002-0900000000-9e18d43a8d86f9b9e72b
PK$NUM_PEAK: 2
PK$PEAK: m/z int. rel.int.
  145.9019 149.3 999
  162.9058 14.73 99
//
