ACCESSION: MSBNK-RIKEN-PR308418
RECORD_TITLE: Ginsenoside F3; LC-ESI-QTOF; MS2
DATE: 2019.03.28
AUTHORS: Tetsuya Mori, Center for Sustainable Resource Science, RIKEN
LICENSE: CC BY-NC-SA
PUBLICATION: Tsugawa H., Nakabayashi R., Mori T., Yamada Y., Takahashi M., Rai A., Sugiyama R., Yamamoto H., Nakaya T., Yamazaki M., Kooke R., Bac-Molenaar JA., Oztolan-Erol N., Keurentjes JJB., Arita M., Saito K. (2019) "A cheminformatics approach to characterize metabolomes in stable-isotope-labeled organisms" Nature Methods 16(4):295-298. [doi:10.1038/s41592-019-0358-2]
COMMENT: registered in RIKEN PlaSMA
CH$NAME: Ginsenoside F3
CH$COMPOUND_CLASS: Triterpenoids
CH$FORMULA: C41H70O13
CH$EXACT_MASS: 770.998
CH$SMILES: CC(C)=CCCC(C)(OC1OC(COC2OCC(O)C(O)C2O)C(O)C(O)C1O)C1CCC2(C)C1C(O)CC1C3(C)CCC(O)C(C)(C)C3C(O)CC21C
CH$IUPAC: InChI=1S/C41H70O13/c1-20(2)10-9-13-41(8,54-36-33(50)31(48)30(47)25(53-36)19-52-35-32(49)29(46)24(44)18-51-35)21-11-15-39(6)28(21)22(42)16-26-38(5)14-12-27(45)37(3,4)34(38)23(43)17-40(26,39)7/h10,21-36,42-50H,9,11-19H2,1-8H3
CH$LINK: INCHIKEY HJRVLGWTJSLQIG-UHFFFAOYSA-N
AC$INSTRUMENT: LC, Waters Acquity UPLC System; MS, Waters Xevo G2 Q-Tof
AC$INSTRUMENT_TYPE: LC-ESI-QTOF
AC$MASS_SPECTROMETRY: MS_TYPE MS2
AC$MASS_SPECTROMETRY: ION_MODE NEGATIVE
AC$MASS_SPECTROMETRY: COLLISION_ENERGY 6V
AC$MASS_SPECTROMETRY: DESOLVATION_GAS_FLOW 800/h
AC$MASS_SPECTROMETRY: DESOLVATION_TEMPERATURE 450 C
AC$MASS_SPECTROMETRY: IONIZATION ESI
AC$CHROMATOGRAPHY: CAPILLARY_VOLTAGE -2.75 kV
AC$CHROMATOGRAPHY: COLUMN_NAME Acquity bridged ethyl hybrid C18 (1.7 um, 2.1 mm * 100 mm, Waters)
AC$CHROMATOGRAPHY: COLUMN_TEMPERATURE 40 C
AC$CHROMATOGRAPHY: FLOW_GRADIENT A/B = (99.5%/0.5% at 0 min, 99.5%/0.5% at 0.1 min, 20%/80% at 10 min, 0.5%/99.5% at 10.1 min, 0.5%/99.5% at 12.0 min, 99.5%/0.5% at 12.1 min, 99.5%/0.5% at 15.0 min)
AC$CHROMATOGRAPHY: FLOW_RATE 0.3 ml/min at 0 min, 0.3 ml/min at 10 min, 0.4 ml/min at 10.1 min, 0.4 ml/min at 14.4 min, 0.3 ml/min at 14.5 min
AC$CHROMATOGRAPHY: RETENTION_TIME 6.1149
AC$CHROMATOGRAPHY: SOLVENT A water including 0.1% formic acid
AC$CHROMATOGRAPHY: SOLVENT B acetonitrile including 0.1% formic acid
MS$FOCUSED_ION: PRECURSOR_TYPE [M+HCOO]-
MS$FOCUSED_ION: PRECURSOR_M/Z 815.479845104
PK$SPLASH: splash10-001a-5900000010-c01ff7a92415065a442f
PK$NUM_PEAK: 60
PK$PEAK: m/z int. rel.int.
  59.01234 125.0 125
  60.0174 6.0 6
  71.01337 214.0 214
  72.01559 9.0 9
  73.02805 25.0 25
  77.02412 8.0 8
  81.035 15.0 15
  85.02932 37.0 37
  87.00833 14.0 14
  89.02312 1000.0 999
  90.02881 49.0 49
  91.02969 17.0 17
  95.013 10.0 10
  97.02679 17.0 17
  101.02333 296.0 296
  101.03577 8.0 8
  102.0284 16.0 16
  103.03321 9.0 9
  109.02811 5.0 5
  111.0098 15.0 15
  112.01393 10.0 10
  113.02431 178.0 178
  114.02811 9.0 9
  119.02945 28.0 28
  119.03594 46.0 46
  120.0373 6.0 6
  121.03594 7.0 7
  125.0246 48.0 48
  127.03179 7.0 7
  131.03432 637.0 636
  132.03162 6.0 6
  132.03801 19.0 19
  142.03165 11.0 11
  143.03459 32.0 32
  143.04036 9.0 9
  149.04416 613.0 612
  149.1705 8.0 8
  150.049 46.0 46
  151.04819 11.0 11
  161.03836 6.0 6
  161.04639 13.0 13
  162.04811 13.0 13
  167.64745 10.0 10
  191.05437 398.0 398
  192.06088 28.0 28
  221.06837 5.0 5
  233.05659 9.0 9
  233.06929 28.0 28
  250.81734 5.0 5
  284.06293 6.0 6
  293.08875 34.0 34
  390.29047 13.0 13
  457.36249 13.0 13
  458.37317 14.0 14
  475.367 34.0 34
  475.39548 10.0 10
  476.3743 15.0 15
  476.39194 8.0 8
  805.46136 13.0 13
  815.47626 344.0 344
//
