ACCESSION: MSBNK-RIKEN-PR306953
RECORD_TITLE: Cyanidin-3-O-sambubioside-5-O-glucoside; LC-ESI-QTOF; MS2
DATE: 2019.03.28
AUTHORS: Tetsuya Mori, Center for Sustainable Resource Science, RIKEN
LICENSE: CC BY-NC-SA
PUBLICATION: Tsugawa H., Nakabayashi R., Mori T., Yamada Y., Takahashi M., Rai A., Sugiyama R., Yamamoto H., Nakaya T., Yamazaki M., Kooke R., Bac-Molenaar JA., Oztolan-Erol N., Keurentjes JJB., Arita M., Saito K. (2019) "A cheminformatics approach to characterize metabolomes in stable-isotope-labeled organisms" Nature Methods 16(4):295-298. [doi:10.1038/s41592-019-0358-2]
COMMENT: registered in RIKEN PlaSMA
CH$NAME: Cyanidin-3-O-sambubioside-5-O-glucoside
CH$COMPOUND_CLASS: Anthocyanidin-5-O-glycosides
CH$FORMULA: [C32H39O20]+
CH$EXACT_MASS: 743.644
CH$SMILES: OCC1OC(OC2=CC(O)=CC3=[O+]C(=C(OC4OC(CO)C(O)C(O)C4OC4OCC(O)C(O)C4O)C=C23)C2=CC(O)=C(O)C=C2)C(O)C(O)C1O
CH$IUPAC: InChI=1S/C32H38O20/c33-7-19-22(40)24(42)27(45)31(50-19)48-17-5-11(35)4-16-12(17)6-18(28(47-16)10-1-2-13(36)14(37)3-10)49-32-29(25(43)23(41)20(8-34)51-32)52-30-26(44)21(39)15(38)9-46-30/h1-6,15,19-27,29-34,38-45H,7-9H2,(H2-,35,36,37)/p+1
CH$LINK: INCHIKEY OLBLWNPOURNBCY-UHFFFAOYSA-O
AC$INSTRUMENT: LC, Waters Acquity UPLC System; MS, Waters Xevo G2 Q-Tof
AC$INSTRUMENT_TYPE: LC-ESI-QTOF
AC$MASS_SPECTROMETRY: MS_TYPE MS2
AC$MASS_SPECTROMETRY: ION_MODE NEGATIVE
AC$MASS_SPECTROMETRY: COLLISION_ENERGY 6V
AC$MASS_SPECTROMETRY: DESOLVATION_GAS_FLOW 800/h
AC$MASS_SPECTROMETRY: DESOLVATION_TEMPERATURE 450 C
AC$MASS_SPECTROMETRY: IONIZATION ESI
AC$CHROMATOGRAPHY: CAPILLARY_VOLTAGE -2.75 kV
AC$CHROMATOGRAPHY: COLUMN_NAME Acquity bridged ethyl hybrid C18 (1.7 um, 2.1 mm * 100 mm, Waters)
AC$CHROMATOGRAPHY: COLUMN_TEMPERATURE 40 C
AC$CHROMATOGRAPHY: FLOW_GRADIENT A/B = (99.5%/0.5% at 0 min, 99.5%/0.5% at 0.1 min, 20%/80% at 10 min, 0.5%/99.5% at 10.1 min, 0.5%/99.5% at 12.0 min, 99.5%/0.5% at 12.1 min, 99.5%/0.5% at 15.0 min)
AC$CHROMATOGRAPHY: FLOW_RATE 0.3 ml/min at 0 min, 0.3 ml/min at 10 min, 0.4 ml/min at 10.1 min, 0.4 ml/min at 14.4 min, 0.3 ml/min at 14.5 min
AC$CHROMATOGRAPHY: RETENTION_TIME 2.486433
AC$CHROMATOGRAPHY: SOLVENT A water including 0.1% formic acid
AC$CHROMATOGRAPHY: SOLVENT B acetonitrile including 0.1% formic acid
MS$FOCUSED_ION: PRECURSOR_TYPE [M-2H]-
MS$FOCUSED_ION: PRECURSOR_M/Z 741.18781861576
PK$SPLASH: splash10-0002-0043920000-6cea9807417ecb0ae0f0
PK$NUM_PEAK: 29
PK$PEAK: m/z int. rel.int.
  179.0374 43.0 43
  271.91992 57.0 57
  283.02335 38.0 38
  283.03708 43.0 43
  284.02859 433.0 433
  285.03448 90.0 90
  285.04959 45.0 45
  287.06061 49.0 49
  309.03262 104.0 104
  310.0495 35.0 35
  339.05341 117.0 117
  340.0575 33.0 33
  340.07321 45.0 45
  340.13657 49.0 49
  350.04248 64.0 64
  352.04788 61.0 61
  383.05661 49.0 49
  446.06531 223.0 223
  446.08682 1000.0 999
  447.08246 167.0 167
  461.11432 57.0 57
  578.52899 35.0 35
  579.10052 35.0 35
  579.12549 115.0 115
  579.15344 122.0 122
  580.11304 31.0 31
  580.13245 31.0 31
  580.16162 37.0 37
  741.21021 31.0 31
//
