ACCESSION: MSBNK-RIKEN-PR310480
RECORD_TITLE: Acacetin-7-O-neohesperidoside; LC-ESI-QTOF; MS2
DATE: 2019.03.28
AUTHORS: Tetsuya Mori, Center for Sustainable Resource Science, RIKEN
LICENSE: CC BY-NC-SA
PUBLICATION: Tsugawa H., Nakabayashi R., Mori T., Yamada Y., Takahashi M., Rai A., Sugiyama R., Yamamoto H., Nakaya T., Yamazaki M., Kooke R., Bac-Molenaar JA., Oztolan-Erol N., Keurentjes JJB., Arita M., Saito K. (2019) "A cheminformatics approach to characterize metabolomes in stable-isotope-labeled organisms" Nature Methods 16(4):295-298. [doi:10.1038/s41592-019-0358-2]
COMMENT: Annotation level-1
CH$NAME: Fortunellin
CH$NAME: Acacetin-7-O-neohesperidoside
CH$NAME: 5-hydroxy-2-(4-methoxyphenyl)-7-[3,4,5-trihydroxy-6-[(3,4,5-trihydroxy-6-methyl-oxan-2-yl)oxymethyl]oxan-2-yl]oxy-chromen-4-one
CH$NAME: 7-[[2-O-(6-Deoxy-alpha-L-mannopyranosyl)-beta-D-glucopyranosyl]oxy]-5-hydroxy-2-(4-methoxyphenyl)-4H-1-benzopyran-4-one
CH$NAME: Acac-7-Glc-2pp-Man
CH$COMPOUND_CLASS: Flavone O-glycosides
CH$FORMULA: C28H32O14
CH$EXACT_MASS: 592.17921
CH$SMILES: C[C@H]1[C@@H]([C@H]([C@H]([C@@H](O1)O[C@@H]2[C@H]([C@@H]([C@H](O[C@H]2OC3=CC(=C4C(=C3)OC(=CC4=O)C5=CC=C(C=C5)OC)O)CO)O)O)O)O)O
CH$IUPAC: InChI=1S/C28H32O14/c1-11-21(32)23(34)25(36)27(38-11)42-26-24(35)22(33)19(10-29)41-28(26)39-14-7-15(30)20-16(31)9-17(40-18(20)8-14)12-3-5-13(37-2)6-4-12/h3-9,11,19,21-30,32-36H,10H2,1-2H3/t11-,19+,21-,22+,23+,24-,25+,26+,27-,28+/m0/s1
CH$LINK: CAS 20633-93-6
CH$LINK: CHEMSPIDER 16498777
CH$LINK: INCHIKEY MLWDGPFGTFOLRJ-CUVHLRMHSA-N
CH$LINK: KNAPSACK C00004206
CH$LINK: PUBCHEM CID:5317385
AC$INSTRUMENT: LC, Waters Acquity UPLC System; MS, Waters Xevo G2 Q-Tof
AC$INSTRUMENT_TYPE: LC-ESI-QTOF
AC$MASS_SPECTROMETRY: MS_TYPE MS2
AC$MASS_SPECTROMETRY: ION_MODE POSITIVE
AC$MASS_SPECTROMETRY: COLLISION_ENERGY 6V
AC$MASS_SPECTROMETRY: DESOLVATION_GAS_FLOW 800/h
AC$MASS_SPECTROMETRY: DESOLVATION_TEMPERATURE 450 C
AC$MASS_SPECTROMETRY: IONIZATION ESI
AC$CHROMATOGRAPHY: CAPILLARY_VOLTAGE +3.00 kV
AC$CHROMATOGRAPHY: COLUMN_NAME Acquity bridged ethyl hybrid C18 (1.7 um, 2.1 mm * 100 mm, Waters)
AC$CHROMATOGRAPHY: COLUMN_TEMPERATURE 40 C
AC$CHROMATOGRAPHY: FLOW_GRADIENT A/B = (99.5%/0.5% at 0 min, 99.5%/0.5% at 0.1 min, 20%/80% at 10 min, 0.5%/99.5% at 10.1 min, 0.5%/99.5% at 12.0 min, 99.5%/0.5% at 12.1 min, 99.5%/0.5% at 15.0 min)
AC$CHROMATOGRAPHY: FLOW_RATE 0.3 ml/min at 0 min, 0.3 ml/min at 10 min, 0.4 ml/min at 10.1 min, 0.4 ml/min at 14.4 min, 0.3 ml/min at 14.5 min
AC$CHROMATOGRAPHY: RETENTION_TIME 5.26
AC$CHROMATOGRAPHY: SOLVENT A water including 0.1% formic acid
AC$CHROMATOGRAPHY: SOLVENT B acetonitrile including 0.1% formic acid
MS$FOCUSED_ION: PRECURSOR_TYPE [M+H]+
MS$FOCUSED_ION: PRECURSOR_M/Z 593.18648
PK$SPLASH: splash10-000i-0090020000-33eeed14c859466a4951
PK$NUM_PEAK: 97
PK$PEAK: m/z int. rel.int.
  57.65273 18.0 1
  57.67692 23.0 1
  57.68968 17.0 1
  57.91463 25.0 1
  57.96189 17.0 1
  61.64672 23.0 1
  70.2692 20.0 1
  81.54765 25.0 1
  85.02622 49.0 2
  87.55165 17.0 1
  87.69922 25.0 1
  103.03294 27.0 1
  129.05023 22.0 1
  147.06873 30.0 1
  153.01733 44.0 1
  156.39189 17.0 1
  176.70554 17.0 1
  181.71547 29.0 1
  189.15486 20.0 1
  195.56265 33.0 1
  225.93401 33.0 1
  230.89728 17.0 1
  242.05615 20.0 1
  242.0706 29.0 1
  243.07428 22.0 1
  244.05872 24.0 1
  244.0779 21.0 1
  261.72684 23.0 1
  270.05078 262.0 8
  270.0629 125.0 4
  271.05591 27.0 1
  282.46823 17.0 1
  284.73203 20.0 1
  284.81857 17.0 1
  284.89484 27.0 1
  284.99454 20.0 1
  285.02408 125.0 4
  285.03583 120.0 4
  285.07562 30925.0 999
  285.12451 379.0 12
  285.202 21.0 1
  285.28314 24.0 1
  285.54071 17.0 1
  285.58313 18.0 1
  286.03091 172.0 6
  286.0788 5654.0 183
  286.50296 19.0 1
  286.56183 17.0 1
  286.64481 21.0 1
  287.08185 1042.0 34
  287.3277 22.0 1
  288.07727 25.0 1
  288.09509 49.0 2
  288.15799 22.0 1
  288.96707 17.0 1
  289.08542 50.0 2
  290.66974 44.0 1
  292.06842 28.0 1
  293.52588 20.0 1
  293.57568 18.0 1
  298.11597 18.0 1
  303.56775 20.0 1
  319.94843 18.0 1
  327.0853 113.0 4
  327.10233 17.0 1
  333.27609 20.0 1
  349.50748 24.0 1
  351.07864 27.0 1
  352.27234 53.0 2
  398.6575 22.0 1
  404.71503 35.0 1
  411.38226 29.0 1
  417.01196 43.0 1
  419.84119 31.0 1
  425.71347 18.0 1
  430.93494 21.0 1
  431.06369 42.0 1
  431.14859 37.0 1
  432.13892 22.0 1
  432.53796 18.0 1
  447.09244 25.0 1
  447.12927 390.0 13
  448.10709 23.0 1
  448.12711 24.0 1
  448.14487 67.0 2
  468.00998 27.0 1
  480.45071 20.0 1
  509.88382 17.0 1
  575.15015 20.0 1
  582.66003 20.0 1
  592.57556 18.0 1
  592.68042 20.0 1
  592.98969 20.0 1
  593.0849 45.0 1
  593.12769 174.0 6
  593.18835 9174.0 296
  593.24695 55.0 2
//
