ACCESSION: MSBNK-RIKEN-PR307029
RECORD_TITLE: NP-000062(6); LC-ESI-QTOF; MS2
DATE: 2019.03.28
AUTHORS: Tetsuya Mori, Center for Sustainable Resource Science, RIKEN
LICENSE: CC BY-NC-SA
PUBLICATION: Tsugawa H., Nakabayashi R., Mori T., Yamada Y., Takahashi M., Rai A., Sugiyama R., Yamamoto H., Nakaya T., Yamazaki M., Kooke R., Bac-Molenaar JA., Oztolan-Erol N., Keurentjes JJB., Arita M., Saito K. (2019) "A cheminformatics approach to characterize metabolomes in stable-isotope-labeled organisms" Nature Methods 16(4):295-298. [doi:10.1038/s41592-019-0358-2]
COMMENT: registered in RIKEN PlaSMA
CH$NAME: NP-000062(6)
CH$COMPOUND_CLASS: Flavonoid 8-C-glycosides
CH$FORMULA: C26H28O14
CH$EXACT_MASS: 564.496
CH$SMILES: OCC1OC(C(O)C1O)C1=C(O)C(C2OC(CO)C(O)C(O)C2O)=C2OC(=CC(=O)C2=C1O)C1=CC=C(O)C=C1
CH$IUPAC: InChI=1S/C26H28O14/c27-6-12-17(31)21(35)23(37)26(40-12)16-20(34)15(25-22(36)18(32)13(7-28)39-25)19(33)14-10(30)5-11(38-24(14)16)8-1-3-9(29)4-2-8/h1-5,12-13,17-18,21-23,25-29,31-37H,6-7H2
CH$LINK: INCHIKEY DRLZZQRQMWQRLZ-UHFFFAOYSA-N
AC$INSTRUMENT: LC, Waters Acquity UPLC System; MS, Waters Xevo G2 Q-Tof
AC$INSTRUMENT_TYPE: LC-ESI-QTOF
AC$MASS_SPECTROMETRY: MS_TYPE MS2
AC$MASS_SPECTROMETRY: ION_MODE NEGATIVE
AC$MASS_SPECTROMETRY: COLLISION_ENERGY 6V
AC$MASS_SPECTROMETRY: DESOLVATION_GAS_FLOW 800/h
AC$MASS_SPECTROMETRY: DESOLVATION_TEMPERATURE 450 C
AC$MASS_SPECTROMETRY: IONIZATION ESI
AC$CHROMATOGRAPHY: CAPILLARY_VOLTAGE -2.75 kV
AC$CHROMATOGRAPHY: COLUMN_NAME Acquity bridged ethyl hybrid C18 (1.7 um, 2.1 mm * 100 mm, Waters)
AC$CHROMATOGRAPHY: COLUMN_TEMPERATURE 40 C
AC$CHROMATOGRAPHY: FLOW_GRADIENT A/B = (99.5%/0.5% at 0 min, 99.5%/0.5% at 0.1 min, 20%/80% at 10 min, 0.5%/99.5% at 10.1 min, 0.5%/99.5% at 12.0 min, 99.5%/0.5% at 12.1 min, 99.5%/0.5% at 15.0 min)
AC$CHROMATOGRAPHY: FLOW_RATE 0.3 ml/min at 0 min, 0.3 ml/min at 10 min, 0.4 ml/min at 10.1 min, 0.4 ml/min at 14.4 min, 0.3 ml/min at 14.5 min
AC$CHROMATOGRAPHY: RETENTION_TIME 3.638367
AC$CHROMATOGRAPHY: SOLVENT A water including 0.1% formic acid
AC$CHROMATOGRAPHY: SOLVENT B acetonitrile including 0.1% formic acid
MS$FOCUSED_ION: PRECURSOR_TYPE [M-H]-
MS$FOCUSED_ION: PRECURSOR_M/Z 563.14062914783
PK$SPLASH: splash10-03di-0015390000-dc648cf9f636b0e47cf8
PK$NUM_PEAK: 44
PK$PEAK: m/z int. rel.int.
  163.03792 6.0 6
  268.07111 6.0 6
  282.05191 6.0 6
  283.05957 15.0 15
  295.05975 6.0 6
  296.06689 22.0 22
  297.06839 24.0 24
  297.07895 38.0 38
  298.07971 11.0 11
  307.05832 5.0 5
  311.05576 15.0 15
  323.05081 8.0 8
  324.05743 17.0 17
  325.06769 26.0 26
  325.07684 11.0 11
  326.07755 9.0 9
  337.07339 12.0 12
  353.06369 228.0 228
  354.06662 48.0 48
  354.08347 9.0 9
  355.07156 16.0 16
  365.06308 27.0 27
  365.07236 12.0 12
  383.07623 132.0 132
  384.06699 17.0 17
  384.08084 13.0 13
  395.07663 23.0 23
  397.07959 8.0 8
  397.09811 8.0 8
  413.08905 19.0 19
  419.07312 5.0 5
  425.0806 8.0 8
  425.09787 7.0 7
  443.09421 134.0 134
  444.09894 56.0 56
  455.08334 12.0 12
  469.11307 6.0 6
  473.10898 74.0 74
  474.1037 15.0 15
  474.11469 40.0 40
  485.0986 9.0 9
  503.11816 6.0 6
  545.1347 7.0 7
  563.13794 1000.0 999
//
