ACCESSION: MSBNK-RIKEN-PR301913
RECORD_TITLE: isorhamnetin; LC-ESI-QTOF; MS2
DATE: 2019.03.28
AUTHORS: Tetsuya Mori, Center for Sustainable Resource Science, RIKEN
LICENSE: CC BY-NC-SA
PUBLICATION: Tsugawa H., Nakabayashi R., Mori T., Yamada Y., Takahashi M., Rai A., Sugiyama R., Yamamoto H., Nakaya T., Yamazaki M., Kooke R., Bac-Molenaar JA., Oztolan-Erol N., Keurentjes JJB., Arita M., Saito K. (2019) "A cheminformatics approach to characterize metabolomes in stable-isotope-labeled organisms" Nature Methods 16(4):295-298. [doi:10.1038/s41592-019-0358-2]
COMMENT: registered in RIKEN PlaSMA
CH$NAME: isorhamnetin
CH$COMPOUND_CLASS: Flavonols
CH$FORMULA: C16H12O7
CH$EXACT_MASS: 316.265
CH$SMILES: COC1=C(O)C=CC(=C1)C1=C(O)C(=O)C2=C(O)C=C(O)C=C2O1
CH$IUPAC: InChI=1S/C16H12O7/c1-22-11-4-7(2-3-9(11)18)16-15(21)14(20)13-10(19)5-8(17)6-12(13)23-16/h2-6,17-19,21H,1H3
CH$LINK: INCHIKEY IZQSVPBOUDKVDZ-UHFFFAOYSA-N
AC$INSTRUMENT: LC, Waters Acquity UPLC System; MS, Waters Xevo G2 Q-Tof
AC$INSTRUMENT_TYPE: LC-ESI-QTOF
AC$MASS_SPECTROMETRY: MS_TYPE MS2
AC$MASS_SPECTROMETRY: ION_MODE POSITIVE
AC$MASS_SPECTROMETRY: COLLISION_ENERGY 6V
AC$MASS_SPECTROMETRY: DESOLVATION_GAS_FLOW 800/h
AC$MASS_SPECTROMETRY: DESOLVATION_TEMPERATURE 450 C
AC$MASS_SPECTROMETRY: IONIZATION ESI
AC$CHROMATOGRAPHY: CAPILLARY_VOLTAGE +3.00 kV
AC$CHROMATOGRAPHY: COLUMN_NAME Acquity bridged ethyl hybrid C18 (1.7 um, 2.1 mm * 100 mm, Waters)
AC$CHROMATOGRAPHY: COLUMN_TEMPERATURE 40 C
AC$CHROMATOGRAPHY: FLOW_GRADIENT A/B = (99.5%/0.5% at 0 min, 99.5%/0.5% at 0.1 min, 20%/80% at 10 min, 0.5%/99.5% at 10.1 min, 0.5%/99.5% at 12.0 min, 99.5%/0.5% at 12.1 min, 99.5%/0.5% at 15.0 min)
AC$CHROMATOGRAPHY: FLOW_RATE 0.3 ml/min at 0 min, 0.3 ml/min at 10 min, 0.4 ml/min at 10.1 min, 0.4 ml/min at 14.4 min, 0.3 ml/min at 14.5 min
AC$CHROMATOGRAPHY: RETENTION_TIME 6.135867
AC$CHROMATOGRAPHY: SOLVENT A water including 0.1% formic acid
AC$CHROMATOGRAPHY: SOLVENT B acetonitrile including 0.1% formic acid
MS$FOCUSED_ION: PRECURSOR_TYPE [M+H]+
MS$FOCUSED_ION: PRECURSOR_M/Z 317.0655792
PK$SPLASH: splash10-0udi-0392000000-089782034cf4c771cc00
PK$NUM_PEAK: 233
PK$PEAK: m/z int. rel.int.
  65.03362 5.0 5
  72.90242 6.0 6
  80.98769 9.0 9
  92.02621 55.0 55
  92.0314 25.0 25
  93.02457 8.0 8
  93.0341 119.0 119
  94.03372 12.0 12
  94.68354 5.0 5
  94.7788 14.0 14
  108.01405 6.0 6
  109.02384 10.0 10
  111.01059 16.0 16
  120.02099 20.0 20
  121.0282 120.0 120
  121.06362 6.0 6
  122.03471 6.0 6
  124.04785 10.0 10
  124.05541 6.0 6
  126.01677 5.0 5
  129.06863 16.0 16
  130.07365 7.0 7
  131.05287 6.0 6
  134.03546 5.0 5
  134.04259 9.0 9
  134.6848 7.0 7
  135.04605 10.0 10
  136.00891 7.0 7
  136.01665 22.0 22
  137.02426 7.0 7
  139.03935 74.0 74
  143.04411 9.0 9
  147.05246 10.0 10
  147.17035 5.0 5
  149.05931 6.0 6
  151.02815 11.0 11
  151.04147 90.0 90
  152.00366 7.0 7
  152.011 14.0 14
  152.99306 14.0 14
  153.01709 842.0 841
  154.01332 6.0 6
  154.02469 41.0 41
  155.02475 6.0 6
  155.04477 27.0 27
  155.39966 5.0 5
  155.72362 7.0 7
  155.94975 6.0 6
  156.3647 9.0 9
  158.95255 5.0 5
  161.05206 6.0 6
  161.06187 21.0 21
  163.04114 11.0 11
  165.0186 44.0 44
  166.00343 9.0 9
  166.01308 18.0 18
  166.02638 12.0 12
  168.05313 6.0 6
  171.04771 6.0 6
  173.04822 18.0 18
  175.03568 7.0 7
  175.0762 18.0 18
  177.05009 7.0 7
  178.03011 8.0 8
  179.03928 15.0 15
  183.03047 7.0 7
  183.0475 10.0 10
  184.42747 8.0 8
  185.06372 9.0 9
  187.0352 6.0 6
  188.0464 12.0 12
  189.01894 8.0 8
  189.04553 6.0 6
  189.05533 13.0 13
  190.02769 7.0 7
  190.05547 12.0 12
  190.06459 21.0 21
  191.02635 6.0 6
  192.03595 9.0 9
  193.00642 6.0 6
  194.0282 15.0 15
  198.57811 8.0 8
  200.0491 73.0 73
  200.06563 8.0 8
  201.04456 26.0 26
  201.05455 108.0 108
  201.06609 15.0 15
  203.02945 36.0 36
  203.03929 17.0 17
  204.03754 15.0 15
  204.04649 14.0 14
  204.69983 5.0 5
  205.049 10.0 10
  209.74245 5.0 5
  213.04781 5.0 5
  213.24515 5.0 5
  214.05957 11.0 11
  215.03261 9.0 9
  217.03682 18.0 18
  217.05276 157.0 157
  217.06906 6.0 6
  218.05554 117.0 117
  218.07378 9.0 9
  219.02002 6.0 6
  219.03267 12.0 12
  220.03032 9.0 9
  223.66324 5.0 5
  224.9996 10.0 10
  225.05417 17.0 17
  226.20207 6.0 6
  227.02063 6.0 6
  228.02675 12.0 12
  228.04253 220.0 220
  228.59261 5.0 5
  228.99843 21.0 21
  229.03139 43.0 43
  229.05115 513.0 512
  229.79437 5.0 5
  229.9751 7.0 7
  230.02908 8.0 8
  230.05299 47.0 47
  231.03143 89.0 89
  231.06113 7.0 7
  231.06683 13.0 13
  232.0363 14.0 14
  234.01688 13.0 13
  234.93501 5.0 5
  235.69151 5.0 5
  236.51595 6.0 6
  239.03983 46.0 46
  240.03807 6.0 6
  240.0491 10.0 10
  242.02266 6.0 6
  243.06364 10.0 10
  244.02971 12.0 12
  244.03824 6.0 6
  245.0054 11.0 11
  245.04497 336.0 336
  246.01108 11.0 11
  246.03937 69.0 69
  246.0529 260.0 260
  246.62424 7.0 7
  247.01872 6.0 6
  247.03099 26.0 26
  247.04799 47.0 47
  247.06113 26.0 26
  247.16847 6.0 6
  247.25874 6.0 6
  247.30261 6.0 6
  249.82634 5.0 5
  255.02397 7.0 7
  255.78645 11.0 11
  256.02228 10.0 10
  256.04199 60.0 60
  257.00446 7.0 7
  257.01666 13.0 13
  257.0318 60.0 60
  257.04593 231.0 231
  257.05627 59.0 59
  257.10703 10.0 10
  258.04724 16.0 16
  258.06012 20.0 20
  259.02762 7.0 7
  259.04361 10.0 10
  259.05292 7.0 7
  260.01611 14.0 14
  260.02979 65.0 65
  261.01059 9.0 9
  261.02792 9.0 9
  261.08228 6.0 6
  261.78043 5.0 5
  262.07217 5.0 5
  267.02551 11.0 11
  268.02823 6.0 6
  271.06949 29.0 29
  271.0824 6.0 6
  272.07605 31.0 31
  272.28925 7.0 7
  272.78293 6.0 6
  273.00259 6.0 6
  273.02902 111.0 111
  273.03894 279.0 279
  273.79849 6.0 6
  274.04617 551.0 550
  274.21231 8.0 8
  274.28891 5.0 5
  274.35904 6.0 6
  275.01877 7.0 7
  275.0462 78.0 78
  275.07208 7.0 7
  275.31702 8.0 8
  276.16599 6.0 6
  279.82663 6.0 6
  284.03915 80.0 80
  284.1286 12.0 12
  284.71863 7.0 7
  284.99899 9.0 9
  285.03937 411.0 411
  286.02823 13.0 13
  286.04208 58.0 58
  286.19867 6.0 6
  286.65601 9.0 9
  287.01508 6.0 6
  287.02585 20.0 20
  287.04712 9.0 9
  287.06094 8.0 8
  288.02258 14.0 14
  288.05679 22.0 22
  288.07071 11.0 11
  288.81326 9.0 9
  289.01022 7.0 7
  290.25952 10.0 10
  292.05765 5.0 5
  295.24475 8.0 8
  299.05084 12.0 12
  300.02444 5.0 5
  300.06076 9.0 9
  301.02951 26.0 26
  301.04285 12.0 12
  301.56354 6.0 6
  301.81744 14.0 14
  302.04343 1000.0 999
  302.173 6.0 6
  302.59424 8.0 8
  302.81177 15.0 15
  303.01227 10.0 10
  303.0376 64.0 64
  303.0499 100.0 100
  304.04984 22.0 22
  304.72498 7.0 7
  317.02411 9.0 9
  317.06772 280.0 280
  317.12469 7.0 7
//
