ACCESSION: MSBNK-RIKEN-PR310992
RECORD_TITLE: Flavone base + 4O, C-Pen, C-Hex; LC-ESI-QTOF; MS2
DATE: 2019.03.28
AUTHORS: Tetsuya Mori, Center for Sustainable Resource Science, RIKEN
LICENSE: CC BY-NC-SA
PUBLICATION: Tsugawa H., Nakabayashi R., Mori T., Yamada Y., Takahashi M., Rai A., Sugiyama R., Yamamoto H., Nakaya T., Yamazaki M., Kooke R., Bac-Molenaar JA., Oztolan-Erol N., Keurentjes JJB., Arita M., Saito K. (2019) "A cheminformatics approach to characterize metabolomes in stable-isotope-labeled organisms" Nature Methods 16(4):295-298. [doi:10.1038/s41592-019-0358-2]
COMMENT: Annotation level-3
CH$NAME: Flavone base + 4O, C-Pen, C-Hex
CH$COMPOUND_CLASS: Flavone C,C-glycosides
CH$FORMULA: C26H28O15
CH$EXACT_MASS: 580.495
CH$SMILES: O=C1C=C(OC=2C1=C(O)C(=C(O)C=2C3OCC(O)C(O)C3(O))C4OC(CO)C(O)C(O)C4(O))C=5C=CC(O)=C(O)C=5
CH$IUPAC: InChI=1S/C26H28O15/c27-5-13-18(33)21(36)23(38)26(41-13)15-19(34)14-10(30)4-12(7-1-2-8(28)9(29)3-7)40-24(14)16(20(15)35)25-22(37)17(32)11(31)6-39-25/h1-4,11,13,17-18,21-23,25-29,31-38H,5-6H2
CH$LINK: INCHIKEY XBGYTZHKGMCEGE-UHFFFAOYSA-N
AC$INSTRUMENT: LC, Waters Acquity UPLC System; MS, Waters Xevo G2 Q-Tof
AC$INSTRUMENT_TYPE: LC-ESI-QTOF
AC$MASS_SPECTROMETRY: MS_TYPE MS2
AC$MASS_SPECTROMETRY: ION_MODE POSITIVE
AC$MASS_SPECTROMETRY: COLLISION_ENERGY 6V
AC$MASS_SPECTROMETRY: DESOLVATION_GAS_FLOW 800/h
AC$MASS_SPECTROMETRY: DESOLVATION_TEMPERATURE 450 C
AC$MASS_SPECTROMETRY: IONIZATION ESI
AC$CHROMATOGRAPHY: CAPILLARY_VOLTAGE +3.00 kV
AC$CHROMATOGRAPHY: COLUMN_NAME Acquity bridged ethyl hybrid C18 (1.7 um, 2.1 mm * 100 mm, Waters)
AC$CHROMATOGRAPHY: COLUMN_TEMPERATURE 40 C
AC$CHROMATOGRAPHY: FLOW_GRADIENT A/B = (99.5%/0.5% at 0 min, 99.5%/0.5% at 0.1 min, 20%/80% at 10 min, 0.5%/99.5% at 10.1 min, 0.5%/99.5% at 12.0 min, 99.5%/0.5% at 12.1 min, 99.5%/0.5% at 15.0 min)
AC$CHROMATOGRAPHY: FLOW_RATE 0.3 ml/min at 0 min, 0.3 ml/min at 10 min, 0.4 ml/min at 10.1 min, 0.4 ml/min at 14.4 min, 0.3 ml/min at 14.5 min
AC$CHROMATOGRAPHY: RETENTION_TIME 3.35
AC$CHROMATOGRAPHY: SOLVENT A water including 0.1% formic acid
AC$CHROMATOGRAPHY: SOLVENT B acetonitrile including 0.1% formic acid
MS$FOCUSED_ION: PRECURSOR_TYPE [M+H]+
MS$FOCUSED_ION: PRECURSOR_M/Z 581.1505
PK$SPLASH: splash10-001i-0005690000-33c1214a1748acd45064
PK$NUM_PEAK: 196
PK$PEAK: m/z int. rel.int.
  139.02522 27.0 10
  206.52986 16.0 6
  227.04037 18.0 7
  251.04422 20.0 7
  264.06442 26.0 10
  272.979 22.0 8
  292.0318 22.0 8
  297.29358 22.0 8
  300.05142 16.0 6
  307.0578 20.0 7
  311.04993 53.0 19
  311.06284 36.0 13
  311.19849 16.0 6
  312.0383 20.0 7
  312.05872 30.0 11
  318.33246 39.0 14
  323.03967 36.0 13
  323.05078 45.0 17
  323.06592 72.0 26
  323.08441 21.0 8
  324.05362 77.0 28
  328.05246 80.0 29
  329.05969 18.0 7
  334.0722 16.0 6
  336.09924 20.0 7
  337.06662 41.0 15
  338.07123 16.0 6
  340.03824 16.0 6
  340.09851 24.0 9
  341.06894 166.0 61
  342.0676 17.0 6
  342.07889 16.0 6
  349.05157 22.0 8
  349.08618 72.0 26
  351.05801 22.0 8
  351.07019 21.0 8
  351.10181 45.0 17
  352.04758 20.0 7
  353.05957 36.0 13
  353.07266 60.0 22
  353.08569 35.0 13
  354.0238 24.0 9
  355.11456 16.0 6
  362.07458 28.0 10
  363.10284 20.0 7
  365.05469 69.0 25
  365.08307 62.0 23
  366.67538 28.0 10
  366.96094 42.0 15
  367.06177 34.0 12
  367.08374 52.0 19
  369.07227 18.0 7
  369.39496 18.0 7
  371.04245 29.0 11
  371.07739 16.0 6
  371.09897 20.0 7
  371.15787 28.0 10
  375.57703 16.0 6
  377.05844 38.0 14
  377.0733 19.0 7
  379.08438 29.0 11
  380.0614 30.0 11
  380.08362 21.0 8
  381.07712 34.0 12
  381.09039 18.0 7
  382.06812 23.0 8
  383.08044 98.0 36
  384.05927 24.0 9
  389.06415 21.0 8
  391.01547 21.0 8
  391.08109 38.0 14
  391.10959 19.0 7
  395.03476 30.0 11
  395.07092 386.0 142
  395.09125 133.0 49
  396.05603 34.0 12
  396.07291 65.0 24
  396.08682 36.0 13
  397.05847 26.0 10
  397.08875 20.0 7
  400.77176 16.0 6
  401.06299 19.0 7
  403.03659 45.0 17
  403.0816 19.0 7
  404.07703 20.0 7
  407.05743 44.0 16
  407.08405 59.0 22
  409.07773 32.0 12
  411.04669 22.0 8
  412.97101 20.0 7
  413.07806 261.0 96
  413.10144 94.0 35
  413.19116 20.0 7
  414.07397 34.0 12
  414.09732 22.0 8
  414.11008 23.0 8
  414.5004 17.0 6
  415.10483 16.0 6
  417.10422 20.0 7
  418.10764 46.0 17
  419.07086 19.0 7
  419.08646 53.0 19
  420.08191 46.0 17
  421.10114 44.0 16
  425.07373 71.0 26
  425.09201 122.0 45
  426.07657 47.0 17
  426.09329 59.0 22
  427.08041 17.0 6
  431.07532 82.0 30
  431.0947 145.0 53
  432.06845 31.0 11
  432.09683 25.0 9
  432.37039 17.0 6
  434.06143 16.0 6
  435.10657 26.0 10
  437.06839 37.0 14
  437.09305 23.0 8
  438.07837 48.0 18
  438.09558 17.0 6
  443.07391 32.0 12
  443.09625 42.0 15
  443.11929 20.0 7
  444.10379 17.0 6
  444.12082 16.0 6
  449.09647 49.0 18
  450.0954 18.0 7
  450.94333 17.0 6
  455.05908 19.0 7
  455.09949 76.0 28
  457.11215 18.0 7
  461.09653 156.0 57
  461.12308 30.0 11
  462.10858 47.0 17
  463.1022 20.0 7
  463.1225 17.0 6
  467.08719 65.0 24
  467.1055 55.0 20
  467.15161 17.0 6
  467.23291 18.0 7
  469.65817 83.0 30
  473.0871 21.0 8
  473.11438 197.0 72
  474.08963 31.0 11
  474.12576 16.0 6
  479.09103 35.0 13
  479.11176 17.0 6
  480.08838 28.0 10
  485.09195 27.0 10
  485.11816 88.0 32
  486.11285 29.0 11
  486.12964 20.0 7
  491.09595 44.0 16
  493.11566 16.0 6
  497.10757 239.0 88
  498.10852 16.0 6
  500.09274 16.0 6
  508.29016 17.0 6
  508.5199 47.0 17
  509.06558 16.0 6
  509.10107 58.0 21
  509.11603 40.0 15
  509.13397 20.0 7
  510.11194 65.0 24
  515.13184 59.0 22
  516.11224 44.0 16
  516.14917 21.0 8
  517.1087 18.0 7
  517.15869 16.0 6
  518.12341 18.0 7
  527.08997 16.0 6
  527.1181 121.0 44
  527.14429 64.0 24
  528.11487 32.0 12
  529.12933 25.0 9
  530.33698 16.0 6
  540.95044 22.0 8
  545.09393 34.0 12
  545.14008 249.0 91
  546.13385 93.0 34
  547.12799 33.0 12
  547.14948 32.0 12
  555.3053 29.0 11
  561.13892 17.0 6
  563.11261 66.0 24
  563.14209 472.0 173
  563.26422 21.0 8
  564.13245 97.0 36
  564.17084 56.0 21
  565.07721 22.0 8
  579.13422 26.0 10
  580.12427 32.0 12
  580.14905 35.0 13
  580.17365 24.0 9
  581.08783 42.0 15
  581.15192 2719.0 999
//
