ACCESSION: MSBNK-RIKEN-PR300543
RECORD_TITLE: Strychnine; LC-ESI-QTOF; MS2
DATE: 2019.03.28
AUTHORS: Tetsuya Mori, Center for Sustainable Resource Science, RIKEN
LICENSE: CC BY-NC-SA
PUBLICATION: Tsugawa H., Nakabayashi R., Mori T., Yamada Y., Takahashi M., Rai A., Sugiyama R., Yamamoto H., Nakaya T., Yamazaki M., Kooke R., Bac-Molenaar JA., Oztolan-Erol N., Keurentjes JJB., Arita M., Saito K. (2019) "A cheminformatics approach to characterize metabolomes in stable-isotope-labeled organisms" Nature Methods 16(4):295-298. [doi:10.1038/s41592-019-0358-2]
COMMENT: registered in RIKEN PlaSMA
CH$NAME: Strychnine
CH$COMPOUND_CLASS: Strychnos alkaloids
CH$FORMULA: C21H22N2O2
CH$EXACT_MASS: 334.419
CH$SMILES: O=C1C[C@@H]2OCC=C3CN4CC[C@@]56[C@@H]4C[C@@H]3[C@@H]2[C@@H]5N1C1=CC=CC=C61
CH$IUPAC: InChI=1S/C21H22N2O2/c24-18-10-16-19-13-9-17-21(6-7-22(17)11-12(13)5-8-25-16)14-3-1-2-4-15(14)23(18)20(19)21/h1-5,13,16-17,19-20H,6-11H2/t13-,16-,17-,19-,20-,21+/m0/s1
CH$LINK: INCHIKEY QMGVPVSNSZLJIA-FVWCLLPLSA-N
AC$INSTRUMENT: LC, Waters Acquity UPLC System; MS, Waters Xevo G2 Q-Tof
AC$INSTRUMENT_TYPE: LC-ESI-QTOF
AC$MASS_SPECTROMETRY: MS_TYPE MS2
AC$MASS_SPECTROMETRY: ION_MODE POSITIVE
AC$MASS_SPECTROMETRY: COLLISION_ENERGY 6V
AC$MASS_SPECTROMETRY: DESOLVATION_GAS_FLOW 800/h
AC$MASS_SPECTROMETRY: DESOLVATION_TEMPERATURE 450 C
AC$MASS_SPECTROMETRY: IONIZATION ESI
AC$CHROMATOGRAPHY: CAPILLARY_VOLTAGE +3.00 kV
AC$CHROMATOGRAPHY: COLUMN_NAME Acquity bridged ethyl hybrid C18 (1.7 um, 2.1 mm * 100 mm, Waters)
AC$CHROMATOGRAPHY: COLUMN_TEMPERATURE 40 C
AC$CHROMATOGRAPHY: FLOW_GRADIENT A/B = (99.5%/0.5% at 0 min, 99.5%/0.5% at 0.1 min, 20%/80% at 10 min, 0.5%/99.5% at 10.1 min, 0.5%/99.5% at 12.0 min, 99.5%/0.5% at 12.1 min, 99.5%/0.5% at 15.0 min)
AC$CHROMATOGRAPHY: FLOW_RATE 0.3 ml/min at 0 min, 0.3 ml/min at 10 min, 0.4 ml/min at 10.1 min, 0.4 ml/min at 14.4 min, 0.3 ml/min at 14.5 min
AC$CHROMATOGRAPHY: RETENTION_TIME 3.456917
AC$CHROMATOGRAPHY: SOLVENT A water including 0.1% formic acid
AC$CHROMATOGRAPHY: SOLVENT B acetonitrile including 0.1% formic acid
MS$FOCUSED_ION: PRECURSOR_TYPE [M+H]+
MS$FOCUSED_ION: PRECURSOR_M/Z 335.1754044
PK$SPLASH: splash10-0a59-0940000000-1fc391acd96d13b257cf
PK$NUM_PEAK: 313
PK$PEAK: m/z int. rel.int.
  53.03273 7.0 7
  55.0182 8.0 8
  66.04156 5.0 5
  67.05507 6.0 6
  68.05219 7.0 7
  77.03916 7.0 7
  78.03786 8.0 8
  78.80363 5.0 5
  79.05441 41.0 41
  81.02898 6.0 6
  81.07024 20.0 20
  84.04531 6.0 6
  86.66777 7.0 7
  91.0509 35.0 35
  91.05714 16.0 16
  92.04885 12.0 12
  92.72975 8.0 8
  93.05692 32.0 32
  93.06239 31.0 31
  93.0722 13.0 13
  94.05672 17.0 17
  94.0625 30.0 30
  95.04621 23.0 23
  95.07351 10.0 10
  96.24273 6.0 6
  98.06095 6.0 6
  103.05418 12.0 12
  104.04776 16.0 16
  105.06595 28.0 28
  105.07122 19.0 19
  105.07619 11.0 11
  106.05093 5.0 5
  106.0673 83.0 83
  107.04722 20.0 20
  107.06304 7.0 7
  107.08553 11.0 11
  108.08205 10.0 10
  109.06303 6.0 6
  110.1041 8.0 8
  115.04897 20.0 20
  115.05733 52.0 52
  116.04716 11.0 11
  117.05558 19.0 19
  117.07317 57.0 57
  118.03514 7.0 7
  118.06858 43.0 43
  118.39275 5.0 5
  118.83543 7.0 7
  119.04742 6.0 6
  119.07415 9.0 9
  119.08362 6.0 6
  120.08465 17.0 17
  120.98875 7.0 7
  122.06033 22.0 22
  123.06647 6.0 6
  124.07806 18.0 18
  126.0829 6.0 6
  127.04757 9.0 9
  127.05845 25.0 25
  128.04286 7.0 7
  128.05806 61.0 61
  128.06789 14.0 14
  129.05212 19.0 19
  129.06949 493.0 493
  130.03764 6.0 6
  130.06471 158.0 158
  130.07538 67.0 67
  131.06961 11.0 11
  132.03738 9.0 9
  132.04416 23.0 23
  132.084 33.0 33
  133.33659 7.0 7
  134.06055 7.0 7
  134.09528 5.0 5
  138.0956 11.0 11
  139.05579 6.0 6
  140.0477 11.0 11
  140.3909 6.0 6
  141.05612 6.0 6
  141.06438 7.0 7
  141.07562 6.0 6
  142.05669 6.0 6
  142.06595 26.0 26
  143.07329 64.0 64
  144.03168 6.0 6
  144.05048 16.0 16
  144.0657 21.0 21
  144.0816 229.0 229
  146.00406 5.0 5
  146.08698 6.0 6
  152.0527 6.0 6
  152.06004 11.0 11
  152.06631 12.0 12
  153.06859 16.0 16
  153.1524 5.0 5
  154.06564 113.0 113
  155.03848 5.0 5
  155.06758 30.0 30
  155.0759 108.0 108
  156.08113 1000.0 999
  157.0864 206.0 206
  158.05719 30.0 30
  158.06573 7.0 7
  158.08131 8.0 8
  158.08669 20.0 20
  158.09657 10.0 10
  159.10036 6.0 6
  162.09294 16.0 16
  163.55008 6.0 6
  165.05972 15.0 15
  165.07224 29.0 29
  166.06451 174.0 174
  166.08012 15.0 15
  167.07076 158.0 158
  167.0809 102.0 102
  168.08197 242.0 242
  169.06357 11.0 11
  169.07182 13.0 13
  169.08302 44.0 44
  169.09169 21.0 21
  170.05896 21.0 21
  170.07878 15.0 15
  170.08971 49.0 49
  170.10312 24.0 24
  170.41698 7.0 7
  171.09882 47.0 47
  172.08884 8.0 8
  176.10628 6.0 6
  176.60176 5.0 5
  178.063 15.0 15
  178.08588 7.0 7
  179.06334 6.0 6
  179.07608 20.0 20
  179.08435 13.0 13
  179.39777 5.0 5
  180.0715 33.0 33
  180.08224 61.0 61
  181.06088 9.0 9
  181.08189 32.0 32
  181.09491 31.0 31
  182.05812 18.0 18
  182.09663 66.0 66
  183.06587 66.0 66
  183.08868 14.0 14
  184.05234 14.0 14
  184.07695 542.0 541
  184.11354 12.0 12
  185.07881 97.0 97
  185.11224 11.0 11
  186.07889 6.0 6
  186.11337 5.0 5
  186.12349 6.0 6
  190.06104 5.0 5
  190.07909 5.0 5
  191.0741 80.0 80
  191.08374 15.0 15
  192.07962 117.0 117
  193.04167 6.0 6
  193.0876 106.0 106
  194.0508 12.0 12
  194.06509 34.0 34
  194.09589 193.0 193
  194.10239 92.0 92
  195.06133 10.0 10
  195.07208 12.0 12
  195.09331 19.0 19
  195.10445 28.0 28
  196.05232 5.0 5
  196.07285 35.0 35
  196.10274 6.0 6
  197.08368 12.0 12
  197.10979 7.0 7
  198.09067 11.0 11
  198.09798 10.0 10
  199.08725 11.0 11
  199.09674 14.0 14
  200.05685 6.0 6
  200.57388 6.0 6
  200.64185 5.0 5
  202.07611 10.0 10
  202.11575 6.0 6
  202.51712 6.0 6
  203.08095 5.0 5
  203.11293 6.0 6
  204.05177 5.0 5
  204.0808 156.0 156
  205.08688 134.0 134
  206.07413 9.0 9
  206.09328 127.0 127
  207.06348 8.0 8
  207.07437 8.0 8
  207.0995 42.0 42
  207.10799 37.0 37
  208.05113 10.0 10
  208.06654 13.0 13
  208.10468 26.0 26
  208.11639 13.0 13
  209.11205 17.0 17
  210.07759 6.0 6
  210.09505 5.0 5
  210.11305 12.0 12
  211.08139 5.0 5
  212.06905 18.0 18
  214.08533 5.0 5
  215.07428 11.0 11
  216.0717 15.0 15
  216.08159 56.0 56
  216.09862 11.0 11
  217.0892 98.0 98
  217.10417 20.0 20
  217.15915 6.0 6
  218.08328 33.0 33
  218.09627 157.0 157
  219.04179 6.0 6
  219.09515 27.0 27
  219.10674 51.0 51
  220.05748 19.0 19
  220.06697 56.0 56
  220.08131 120.0 120
  220.08861 50.0 50
  220.11243 113.0 113
  221.07407 60.0 60
  221.08626 42.0 42
  221.10519 13.0 13
  221.11766 23.0 23
  221.12766 5.0 5
  222.08852 95.0 95
  222.11975 6.0 6
  222.13341 13.0 13
  223.08942 9.0 9
  224.09651 17.0 17
  224.13321 5.0 5
  226.07596 12.0 12
  228.07855 25.0 25
  228.30357 10.0 10
  229.07254 5.0 5
  229.08194 5.0 5
  229.09605 7.0 7
  229.10646 9.0 9
  230.07442 13.0 13
  230.09839 63.0 63
  231.10263 51.0 51
  231.63147 11.0 11
  232.07634 33.0 33
  232.10916 15.0 15
  232.12422 8.0 8
  233.07217 14.0 14
  233.08865 19.0 19
  233.10466 21.0 21
  234.08582 46.0 46
  234.09335 93.0 93
  234.11813 20.0 20
  234.13116 5.0 5
  235.08455 11.0 11
  235.10358 17.0 17
  236.10579 17.0 17
  236.12898 29.0 29
  237.10353 14.0 14
  238.11737 7.0 7
  241.08734 16.0 16
  242.10446 12.0 12
  243.09956 6.0 6
  244.11513 35.0 35
  245.08583 5.0 5
  245.10776 17.0 17
  245.11855 12.0 12
  246.08862 51.0 51
  246.11336 8.0 8
  246.12183 15.0 15
  246.13184 9.0 9
  246.14328 7.0 7
  247.09785 5.0 5
  247.1105 6.0 6
  248.10982 13.0 13
  251.15839 11.0 11
  252.2787 5.0 5
  254.0885 12.0 12
  255.10295 11.0 11
  256.11163 9.0 9
  257.08508 15.0 15
  257.12012 6.0 6
  258.10529 11.0 11
  258.85129 6.0 6
  260.07211 6.0 6
  260.11725 12.0 12
  261.11539 20.0 20
  262.12808 24.0 24
  264.08987 18.0 18
  264.09903 23.0 23
  264.1109 13.0 13
  266.10599 8.0 8
  266.12308 6.0 6
  267.11807 7.0 7
  268.82001 5.0 5
  271.12531 6.0 6
  271.13623 6.0 6
  273.09729 9.0 9
  273.11487 9.0 9
  273.1347 9.0 9
  274.11279 9.0 9
  275.09521 9.0 9
  277.13235 9.0 9
  278.16342 6.0 6
  280.13672 6.0 6
  281.15311 11.0 11
  282.1254 6.0 6
  283.12274 6.0 6
  287.12039 15.0 15
  290.11319 6.0 6
  292.14487 11.0 11
  306.14902 8.0 8
  335.17044 58.0 58
  335.1825 42.0 42
//
