ACCESSION: MSBNK-RIKEN-PR310552
RECORD_TITLE: Neocuproine; LC-ESI-QTOF; MS2
DATE: 2019.03.28
AUTHORS: Tetsuya Mori, Center for Sustainable Resource Science, RIKEN
LICENSE: CC BY-NC-SA
PUBLICATION: Tsugawa H., Nakabayashi R., Mori T., Yamada Y., Takahashi M., Rai A., Sugiyama R., Yamamoto H., Nakaya T., Yamazaki M., Kooke R., Bac-Molenaar JA., Oztolan-Erol N., Keurentjes JJB., Arita M., Saito K. (2019) "A cheminformatics approach to characterize metabolomes in stable-isotope-labeled organisms" Nature Methods 16(4):295-298. [doi:10.1038/s41592-019-0358-2]
COMMENT: Annotation level-1
CH$NAME: Neocuproine
CH$COMPOUND_CLASS: Alkaloids
CH$FORMULA: C14H12N2
CH$EXACT_MASS: 208.264
CH$SMILES: CC1=NC2=C(C=C1)C=CC1=C2N=C(C)C=C1
CH$IUPAC: InChI=1S/C14H12N2/c1-9-3-5-11-7-8-12-6-4-10(2)16-14(12)13(11)15-9/h3-8H,1-2H3
CH$LINK: INCHIKEY IYRGXJIJGHOCFS-UHFFFAOYSA-N
AC$INSTRUMENT: LC, Waters Acquity UPLC System; MS, Waters Xevo G2 Q-Tof
AC$INSTRUMENT_TYPE: LC-ESI-QTOF
AC$MASS_SPECTROMETRY: MS_TYPE MS2
AC$MASS_SPECTROMETRY: ION_MODE POSITIVE
AC$MASS_SPECTROMETRY: COLLISION_ENERGY 6V
AC$MASS_SPECTROMETRY: DESOLVATION_GAS_FLOW 800/h
AC$MASS_SPECTROMETRY: DESOLVATION_TEMPERATURE 450 C
AC$MASS_SPECTROMETRY: IONIZATION ESI
AC$CHROMATOGRAPHY: CAPILLARY_VOLTAGE +3.00 kV
AC$CHROMATOGRAPHY: COLUMN_NAME Acquity bridged ethyl hybrid C18 (1.7 um, 2.1 mm * 100 mm, Waters)
AC$CHROMATOGRAPHY: COLUMN_TEMPERATURE 40 C
AC$CHROMATOGRAPHY: FLOW_GRADIENT A/B = (99.5%/0.5% at 0 min, 99.5%/0.5% at 0.1 min, 20%/80% at 10 min, 0.5%/99.5% at 10.1 min, 0.5%/99.5% at 12.0 min, 99.5%/0.5% at 12.1 min, 99.5%/0.5% at 15.0 min)
AC$CHROMATOGRAPHY: FLOW_RATE 0.3 ml/min at 0 min, 0.3 ml/min at 10 min, 0.4 ml/min at 10.1 min, 0.4 ml/min at 14.4 min, 0.3 ml/min at 14.5 min
AC$CHROMATOGRAPHY: RETENTION_TIME 3.47
AC$CHROMATOGRAPHY: SOLVENT A water including 0.1% formic acid
AC$CHROMATOGRAPHY: SOLVENT B acetonitrile including 0.1% formic acid
MS$FOCUSED_ION: PRECURSOR_TYPE [M+H]+
MS$FOCUSED_ION: PRECURSOR_M/Z 209.10732
PK$SPLASH: splash10-0a4i-0190000000-10dd379c5a9b6fdee327
PK$NUM_PEAK: 119
PK$PEAK: m/z int. rel.int.
  60.24256 18.0 0
  79.38717 17.0 0
  107.33484 38.0 1
  114.04967 23.0 1
  115.0582 76.0 2
  117.05926 21.0 0
  123.79465 37.0 1
  125.04301 17.0 0
  128.06589 61.0 1
  129.07133 24.0 1
  131.07774 18.0 0
  131.33484 17.0 0
  132.22751 33.0 1
  138.04785 27.0 1
  139.05733 107.0 2
  139.06908 35.0 1
  139.67003 18.0 0
  140.0518 101.0 2
  140.0616 35.0 1
  141.06496 43.0 1
  142.07181 89.0 2
  143.07077 193.0 4
  144.20009 19.0 0
  145.12785 23.0 1
  145.94255 37.0 1
  146.32582 21.0 0
  151.05138 21.0 0
  151.06136 22.0 1
  152.05391 19.0 0
  153.06796 41.0 1
  153.77956 20.0 0
  154.06259 19.0 0
  154.06898 22.0 1
  156.07262 18.0 0
  156.08723 21.0 0
  157.08452 52.0 1
  164.0578 20.0 0
  165.12085 20.0 0
  166.06522 115.0 3
  166.07417 18.0 0
  167.02617 20.0 0
  167.07372 580.0 13
  167.66292 36.0 1
  168.06906 143.0 3
  168.08063 173.0 4
  169.0672 17.0 0
  169.07553 35.0 1
  169.0834 21.0 0
  169.0965 26.0 1
  176.02863 19.0 0
  177.11194 32.0 1
  178.05171 24.0 1
  178.06859 21.0 0
  180.06874 107.0 2
  180.0797 136.0 3
  181.05186 27.0 1
  181.06297 32.0 1
  181.08347 159.0 4
  181.09558 244.0 6
  181.3446 26.0 1
  182.05818 18.0 0
  182.08156 194.0 4
  182.09622 325.0 7
  182.11 20.0 0
  182.80084 17.0 0
  183.08833 68.0 2
  184.09789 17.0 0
  184.12564 34.0 1
  186.8569 41.0 1
  190.0648 30.0 1
  191.05234 26.0 1
  191.06111 18.0 0
  191.07494 140.0 3
  191.08078 64.0 1
  192.05873 25.0 1
  192.06897 131.0 3
  192.07802 361.0 8
  193.04413 19.0 0
  193.05457 39.0 1
  193.07602 787.0 18
  194.08397 913.0 21
  195.08905 142.0 3
  201.11279 24.0 1
  205.06924 23.0 1
  205.07974 67.0 2
  205.16368 19.0 0
  205.23228 22.0 1
  206.02632 28.0 1
  206.08406 280.0 6
  206.10124 24.0 1
  206.61137 19.0 0
  207.0549 23.0 1
  207.08972 1356.0 31
  207.18295 18.0 0
  207.20328 23.0 1
  207.49174 17.0 0
  207.59547 18.0 0
  207.72583 20.0 0
  207.95625 29.0 1
  208.06435 22.0 1
  208.07512 51.0 1
  208.10008 3131.0 71
  208.12654 18.0 0
  208.13991 41.0 1
  208.14984 69.0 2
  208.17375 18.0 0
  208.46829 19.0 0
  208.53932 19.0 0
  208.57387 18.0 0
  208.64545 17.0 0
  209.03795 33.0 1
  209.05353 20.0 0
  209.06502 92.0 2
  209.07268 90.0 2
  209.10809 43949.0 999
  209.14906 1180.0 27
  209.24312 17.0 0
  209.25783 23.0 1
  209.28069 70.0 2
//
