ACCESSION: MSBNK-RIKEN-PR310683
RECORD_TITLE: Soyasapogenol B base + O-HexA-Pen-dHex, O-C6H7O3(DDMP); LC-ESI-QTOF; MS2
DATE: 2019.03.28
AUTHORS: Tetsuya Mori, Center for Sustainable Resource Science, RIKEN
LICENSE: CC BY-NC-SA
PUBLICATION: Tsugawa H., Nakabayashi R., Mori T., Yamada Y., Takahashi M., Rai A., Sugiyama R., Yamamoto H., Nakaya T., Yamazaki M., Kooke R., Bac-Molenaar JA., Oztolan-Erol N., Keurentjes JJB., Arita M., Saito K. (2019) "A cheminformatics approach to characterize metabolomes in stable-isotope-labeled organisms" Nature Methods 16(4):295-298. [doi:10.1038/s41592-019-0358-2]
COMMENT: Annotation level-3
CH$NAME: Soyasapogenol B base + O-HexA-Pen-dHex, O-C6H7O3(DDMP)
CH$COMPOUND_CLASS: Triterpene saponins
CH$FORMULA: C53H82O20
CH$EXACT_MASS: 1039.219
CH$SMILES: O=C(O)C9OC(OC3CCC4(C)(C5CC=C2C6CC(C)(C)CC(OC1OC(=C(O)C(=O)C1)C)C6(C)(CCC2(C)C5(C)(CCC4(C3(C)(CO))))))C(OC8OCC(O)C(O)C8(OC7OC(C)C(O)C(O)C7(O)))C(O)C9(O)
CH$IUPAC: InChI=1S/C53H82O20/c1-23-34(57)27(55)18-33(67-23)69-32-20-48(3,4)19-26-25-10-11-30-50(6)14-13-31(51(7,22-54)29(50)12-15-53(30,9)52(25,8)17-16-49(26,32)5)70-47-43(39(62)38(61)41(71-47)44(64)65)73-46-42(36(59)28(56)21-66-46)72-45-40(63)37(60)35(58)24(2)68-45/h10,24,26,28-33,35-43,45-47,54,56-63H,11-22H2,1-9H3,(H,64,65)
CH$LINK: INCHIKEY VWKBHQGCNGULAZ-UHFFFAOYSA-N
AC$INSTRUMENT: LC, Waters Acquity UPLC System; MS, Waters Xevo G2 Q-Tof
AC$INSTRUMENT_TYPE: LC-ESI-QTOF
AC$MASS_SPECTROMETRY: MS_TYPE MS2
AC$MASS_SPECTROMETRY: ION_MODE POSITIVE
AC$MASS_SPECTROMETRY: COLLISION_ENERGY 6V
AC$MASS_SPECTROMETRY: DESOLVATION_GAS_FLOW 800/h
AC$MASS_SPECTROMETRY: DESOLVATION_TEMPERATURE 450 C
AC$MASS_SPECTROMETRY: IONIZATION ESI
AC$CHROMATOGRAPHY: CAPILLARY_VOLTAGE +3.00 kV
AC$CHROMATOGRAPHY: COLUMN_NAME Acquity bridged ethyl hybrid C18 (1.7 um, 2.1 mm * 100 mm, Waters)
AC$CHROMATOGRAPHY: COLUMN_TEMPERATURE 40 C
AC$CHROMATOGRAPHY: FLOW_GRADIENT A/B = (99.5%/0.5% at 0 min, 99.5%/0.5% at 0.1 min, 20%/80% at 10 min, 0.5%/99.5% at 10.1 min, 0.5%/99.5% at 12.0 min, 99.5%/0.5% at 12.1 min, 99.5%/0.5% at 15.0 min)
AC$CHROMATOGRAPHY: FLOW_RATE 0.3 ml/min at 0 min, 0.3 ml/min at 10 min, 0.4 ml/min at 10.1 min, 0.4 ml/min at 14.4 min, 0.3 ml/min at 14.5 min
AC$CHROMATOGRAPHY: RETENTION_TIME 7.79
AC$CHROMATOGRAPHY: SOLVENT A water including 0.1% formic acid
AC$CHROMATOGRAPHY: SOLVENT B acetonitrile including 0.1% formic acid
MS$FOCUSED_ION: PRECURSOR_TYPE [M+H]+
MS$FOCUSED_ION: PRECURSOR_M/Z 1039.5475
PK$SPLASH: splash10-00dr-5241980721-23f6a3bb80e7e16adf80
PK$NUM_PEAK: 218
PK$PEAK: m/z int. rel.int.
  87.03788 19.0 14
  109.10456 23.0 17
  111.08479 33.0 24
  115.03496 24.0 18
  127.04215 18.0 13
  133.05368 20.0 15
  139.12137 20.0 15
  141.02216 25.0 18
  145.03804 17.0 12
  145.05086 290.0 212
  147.06345 67.0 49
  149.13545 51.0 37
  159.02762 48.0 35
  175.14453 34.0 25
  179.17555 17.0 12
  181.15744 42.0 31
  189.16354 20.0 15
  193.15477 23.0 17
  195.13405 17.0 12
  201.16579 44.0 32
  203.17595 35.0 26
  205.16452 17.0 12
  213.5213 47.0 34
  215.15483 19.0 14
  215.17831 74.0 54
  215.19466 49.0 36
  217.14061 20.0 15
  217.16179 44.0 32
  217.19682 78.0 57
  218.16208 26.0 19
  219.21631 23.0 17
  225.07874 21.0 15
  226.07155 20.0 15
  229.19568 19.0 14
  231.09572 30.0 22
  231.17377 53.0 39
  237.07863 45.0 33
  241.01094 29.0 21
  243.19827 17.0 12
  244.56612 17.0 12
  245.18884 36.0 26
  254.71367 31.0 23
  255.07103 22.0 16
  259.08636 17.0 12
  261.10245 19.0 14
  268.12595 30.0 22
  269.05176 17.0 12
  269.21939 20.0 15
  270.22455 25.0 18
  273.05957 18.0 13
  279.10239 168.0 123
  280.11447 48.0 35
  282.22964 21.0 15
  284.24045 22.0 16
  284.84055 27.0 20
  287.06702 43.0 31
  287.08545 21.0 15
  291.06622 17.0 12
  297.24918 21.0 15
  305.09799 17.0 12
  305.8855 37.0 27
  306.08728 20.0 15
  323.09479 79.0 58
  323.28351 18.0 13
  325.3121 28.0 20
  352.99011 28.0 20
  353.28494 18.0 13
  357.72229 31.0 23
  358.21094 19.0 14
  363.16953 21.0 15
  365.19446 32.0 23
  365.26733 25.0 18
  365.30579 76.0 56
  365.32446 18.0 13
  366.30969 20.0 15
  374.00833 17.0 12
  393.34399 20.0 15
  393.36246 17.0 12
  394.36572 20.0 15
  405.35074 186.0 136
  406.33102 24.0 18
  406.35822 57.0 42
  406.3783 17.0 12
  407.3595 21.0 15
  423.32932 36.0 26
  423.35074 291.0 213
  423.36383 944.0 689
  424.04837 17.0 12
  424.31146 32.0 23
  424.36642 411.0 300
  424.3895 35.0 26
  424.51376 24.0 18
  424.65103 21.0 15
  425.3725 142.0 104
  439.34912 17.0 12
  441.11584 22.0 16
  441.36215 126.0 92
  442.36874 23.0 17
  442.39505 20.0 15
  443.37189 18.0 13
  455.14767 42.0 31
  457.16382 18.0 13
  509.38052 18.0 13
  517.35376 20.0 15
  529.35114 21.0 15
  537.38599 23.0 17
  549.3938 98.0 72
  550.40338 17.0 12
  551.39758 19.0 14
  553.40784 22.0 16
  567.1438 19.0 14
  567.36224 41.0 30
  567.40295 391.0 286
  567.42566 89.0 65
  567.58234 19.0 14
  568.31232 18.0 13
  568.33331 17.0 12
  568.40082 212.0 155
  568.42297 63.0 46
  569.4101 74.0 54
  569.45117 17.0 12
  570.39532 18.0 13
  570.42334 17.0 12
  573.43274 17.0 12
  576.45416 21.0 15
  581.38141 243.0 177
  581.40625 56.0 41
  582.33942 18.0 13
  582.38721 113.0 83
  582.41577 33.0 24
  583.39343 21.0 15
  583.42792 17.0 12
  585.40155 152.0 111
  585.42834 48.0 35
  586.39606 66.0 48
  586.43402 120.0 88
  587.39905 20.0 15
  587.42767 56.0 41
  593.43689 25.0 18
  599.37091 26.0 19
  599.39203 76.0 56
  600.37988 38.0 28
  600.40295 38.0 28
  601.37866 32.0 23
  619.41473 17.0 12
  658.69171 23.0 17
  675.54718 25.0 18
  676.36084 19.0 14
  677.39624 20.0 15
  700.46796 18.0 13
  713.44659 18.0 13
  713.47089 18.0 13
  714.04456 22.0 16
  718.95374 25.0 18
  725.39471 21.0 15
  725.43237 162.0 118
  726.38855 29.0 21
  726.44147 144.0 105
  727.44287 37.0 27
  728.43604 21.0 15
  729.45099 18.0 13
  731.43243 17.0 12
  731.45471 50.0 37
  731.48022 192.0 140
  732.47235 118.0 86
  732.50647 24.0 18
  733.47296 49.0 36
  733.51477 17.0 12
  741.40833 20.0 15
  742.22198 20.0 15
  743.43762 175.0 128
  743.48517 43.0 31
  743.92578 20.0 15
  744.39459 20.0 15
  744.42444 21.0 15
  744.4483 20.0 15
  745.41156 43.0 31
  745.43372 19.0 14
  746.48676 25.0 18
  759.39301 20.0 15
  761.30426 18.0 13
  761.44275 232.0 169
  761.47333 91.0 66
  761.50714 37.0 27
  761.54474 25.0 18
  762.46252 211.0 154
  763.44342 62.0 45
  827.44885 20.0 15
  835.42596 17.0 12
  840.46759 20.0 15
  854.44757 17.0 12
  863.45972 24.0 18
  863.53418 69.0 50
  864.50189 17.0 12
  864.526 17.0 12
  865.55426 28.0 20
  875.51874 18.0 13
  876.46185 17.0 12
  889.47565 57.0 42
  891.48877 17.0 12
  893.47583 128.0 93
  893.51569 118.0 86
  894.47437 75.0 55
  894.52014 18.0 13
  894.54816 18.0 13
  901.5094 20.0 15
  907.48285 97.0 71
  907.51556 86.0 63
  908.49597 73.0 53
  908.52594 55.0 40
  909.5484 17.0 12
  973.52051 30.0 22
  995.57422 18.0 13
  1021.53949 52.0 38
  1022.51355 18.0 13
  1025.60327 28.0 20
  1031.52563 24.0 18
  1039.5542 1368.0 999
//
