ACCESSION: MSBNK-RIKEN-PR307985
RECORD_TITLE: Secoisolariciresinol; LC-ESI-QTOF; MS2
DATE: 2019.03.28
AUTHORS: Tetsuya Mori, Center for Sustainable Resource Science, RIKEN
LICENSE: CC BY-NC-SA
PUBLICATION: Tsugawa H., Nakabayashi R., Mori T., Yamada Y., Takahashi M., Rai A., Sugiyama R., Yamamoto H., Nakaya T., Yamazaki M., Kooke R., Bac-Molenaar JA., Oztolan-Erol N., Keurentjes JJB., Arita M., Saito K. (2019) "A cheminformatics approach to characterize metabolomes in stable-isotope-labeled organisms" Nature Methods 16(4):295-298. [doi:10.1038/s41592-019-0358-2]
COMMENT: registered in RIKEN PlaSMA
CH$NAME: Secoisolariciresinol
CH$COMPOUND_CLASS: Dibenzylbutanediol lignans
CH$FORMULA: C20H26O6
CH$EXACT_MASS: 362.422
CH$SMILES: COC1=C(O)C=CC(CC(CO)C(CO)CC2=CC(OC)=C(O)C=C2)=C1
CH$IUPAC: InChI=1S/C20H26O6/c1-25-19-9-13(3-5-17(19)23)7-15(11-21)16(12-22)8-14-4-6-18(24)20(10-14)26-2/h3-6,9-10,15-16,21-24H,7-8,11-12H2,1-2H3
CH$LINK: INCHIKEY PUETUDUXMCLALY-UHFFFAOYSA-N
AC$INSTRUMENT: LC, Waters Acquity UPLC System; MS, Waters Xevo G2 Q-Tof
AC$INSTRUMENT_TYPE: LC-ESI-QTOF
AC$MASS_SPECTROMETRY: MS_TYPE MS2
AC$MASS_SPECTROMETRY: ION_MODE NEGATIVE
AC$MASS_SPECTROMETRY: COLLISION_ENERGY 6V
AC$MASS_SPECTROMETRY: DESOLVATION_GAS_FLOW 800/h
AC$MASS_SPECTROMETRY: DESOLVATION_TEMPERATURE 450 C
AC$MASS_SPECTROMETRY: IONIZATION ESI
AC$CHROMATOGRAPHY: CAPILLARY_VOLTAGE -2.75 kV
AC$CHROMATOGRAPHY: COLUMN_NAME Acquity bridged ethyl hybrid C18 (1.7 um, 2.1 mm * 100 mm, Waters)
AC$CHROMATOGRAPHY: COLUMN_TEMPERATURE 40 C
AC$CHROMATOGRAPHY: FLOW_GRADIENT A/B = (99.5%/0.5% at 0 min, 99.5%/0.5% at 0.1 min, 20%/80% at 10 min, 0.5%/99.5% at 10.1 min, 0.5%/99.5% at 12.0 min, 99.5%/0.5% at 12.1 min, 99.5%/0.5% at 15.0 min)
AC$CHROMATOGRAPHY: FLOW_RATE 0.3 ml/min at 0 min, 0.3 ml/min at 10 min, 0.4 ml/min at 10.1 min, 0.4 ml/min at 14.4 min, 0.3 ml/min at 14.5 min
AC$CHROMATOGRAPHY: RETENTION_TIME 4.77005
AC$CHROMATOGRAPHY: SOLVENT A water including 0.1% formic acid
AC$CHROMATOGRAPHY: SOLVENT B acetonitrile including 0.1% formic acid
MS$FOCUSED_ION: PRECURSOR_TYPE [M+HCOO]-
MS$FOCUSED_ION: PRECURSOR_M/Z 407.17114145183
PK$SPLASH: splash10-00dj-0900000000-40ed0f78b100455aaba5
PK$NUM_PEAK: 28
PK$PEAK: m/z int. rel.int.
  93.03204 105.0 105
  101.04427 86.0 86
  102.40009 120.0 120
  109.02806 134.0 134
  121.02724 1000.0 999
  122.02426 115.0 115
  122.0364 263.0 263
  123.03808 110.0 110
  129.03415 86.0 86
  129.03944 96.0 96
  131.03964 163.0 163
  131.04825 96.0 96
  135.08342 86.0 86
  146.03798 201.0 201
  146.04646 124.0 124
  147.04195 392.0 392
  147.04933 258.0 258
  148.05588 96.0 96
  159.04773 144.0 144
  160.04849 100.0 100
  161.05101 86.0 86
  161.06354 311.0 311
  164.04832 105.0 105
  165.05582 435.0 435
  179.06868 493.0 493
  181.07953 96.0 96
  251.07561 105.0 105
  281.0809 187.0 187
//
