ACCESSION: MSBNK-RIKEN-PR305530
RECORD_TITLE: Luteolin-6-C-glucoside; LC-ESI-QTOF; MS2
DATE: 2019.03.28
AUTHORS: Tetsuya Mori, Center for Sustainable Resource Science, RIKEN
LICENSE: CC BY-NC-SA
PUBLICATION: Tsugawa H., Nakabayashi R., Mori T., Yamada Y., Takahashi M., Rai A., Sugiyama R., Yamamoto H., Nakaya T., Yamazaki M., Kooke R., Bac-Molenaar JA., Oztolan-Erol N., Keurentjes JJB., Arita M., Saito K. (2019) "A cheminformatics approach to characterize metabolomes in stable-isotope-labeled organisms" Nature Methods 16(4):295-298. [doi:10.1038/s41592-019-0358-2]
COMMENT: registered in RIKEN PlaSMA
CH$NAME: Luteolin-6-C-glucoside
CH$COMPOUND_CLASS: Flavonoid C-glycosides
CH$FORMULA: C21H20O11
CH$EXACT_MASS: 448.38
CH$SMILES: OCC1OC(C(O)C(O)C1O)C1=C(O)C2=C(OC(=CC2=O)C2=CC(O)=C(O)C=C2)C=C1O
CH$IUPAC: InChI=1S/C21H20O11/c22-6-14-17(27)19(29)20(30)21(32-14)16-11(26)5-13-15(18(16)28)10(25)4-12(31-13)7-1-2-8(23)9(24)3-7/h1-5,14,17,19-24,26-30H,6H2
CH$LINK: INCHIKEY ODBRNZZJSYPIDI-UHFFFAOYSA-N
AC$INSTRUMENT: LC, Waters Acquity UPLC System; MS, Waters Xevo G2 Q-Tof
AC$INSTRUMENT_TYPE: LC-ESI-QTOF
AC$MASS_SPECTROMETRY: MS_TYPE MS2
AC$MASS_SPECTROMETRY: ION_MODE NEGATIVE
AC$MASS_SPECTROMETRY: COLLISION_ENERGY 6V
AC$MASS_SPECTROMETRY: DESOLVATION_GAS_FLOW 800/h
AC$MASS_SPECTROMETRY: DESOLVATION_TEMPERATURE 450 C
AC$MASS_SPECTROMETRY: IONIZATION ESI
AC$CHROMATOGRAPHY: CAPILLARY_VOLTAGE -2.75 kV
AC$CHROMATOGRAPHY: COLUMN_NAME Acquity bridged ethyl hybrid C18 (1.7 um, 2.1 mm * 100 mm, Waters)
AC$CHROMATOGRAPHY: COLUMN_TEMPERATURE 40 C
AC$CHROMATOGRAPHY: FLOW_GRADIENT A/B = (99.5%/0.5% at 0 min, 99.5%/0.5% at 0.1 min, 20%/80% at 10 min, 0.5%/99.5% at 10.1 min, 0.5%/99.5% at 12.0 min, 99.5%/0.5% at 12.1 min, 99.5%/0.5% at 15.0 min)
AC$CHROMATOGRAPHY: FLOW_RATE 0.3 ml/min at 0 min, 0.3 ml/min at 10 min, 0.4 ml/min at 10.1 min, 0.4 ml/min at 14.4 min, 0.3 ml/min at 14.5 min
AC$CHROMATOGRAPHY: RETENTION_TIME 3.594683
AC$CHROMATOGRAPHY: SOLVENT A water including 0.1% formic acid
AC$CHROMATOGRAPHY: SOLVENT B acetonitrile including 0.1% formic acid
MS$FOCUSED_ION: PRECURSOR_TYPE [M-H]-
MS$FOCUSED_ION: PRECURSOR_M/Z 447.09328504783
PK$SPLASH: splash10-002b-0197000000-f4bc8bbe40a2519742a0
PK$NUM_PEAK: 170
PK$PEAK: m/z int. rel.int.
  75.00432 6.0 6
  109.02661 18.0 18
  133.02452 66.0 66
  134.03958 7.0 7
  135.04503 13.0 13
  139.04143 6.0 6
  149.02711 11.0 11
  150.0219 6.0 6
  151.00378 10.0 10
  155.03377 9.0 9
  157.04085 7.0 7
  161.02394 6.0 6
  162.9976 8.0 8
  163.00671 16.0 16
  163.03854 34.0 34
  165.01654 48.0 48
  171.42119 8.0 8
  175.02925 7.0 7
  175.03751 26.0 26
  176.04848 12.0 12
  177.00793 8.0 8
  177.02138 9.0 9
  178.01939 8.0 8
  179.03146 6.0 6
  185.02135 10.0 10
  185.06442 6.0 6
  191.03017 8.0 8
  193.00882 11.0 11
  193.01797 23.0 23
  193.05562 6.0 6
  195.04143 6.0 6
  196.04849 9.0 9
  196.08713 6.0 6
  197.06473 6.0 6
  198.02652 6.0 6
  199.04248 14.0 14
  199.06534 6.0 6
  199.07695 6.0 6
  201.01057 8.0 8
  201.02333 33.0 33
  201.04637 6.0 6
  203.03644 30.0 30
  207.03706 6.0 6
  211.03763 15.0 15
  211.05666 10.0 10
  211.07547 13.0 13
  213.0519 35.0 35
  214.05609 8.0 8
  215.03746 21.0 21
  217.04358 13.0 13
  217.14757 7.0 7
  217.95461 6.0 6
  223.00966 8.0 8
  224.04547 8.0 8
  225.05791 10.0 10
  228.03375 15.0 15
  229.05391 7.0 7
  230.01979 9.0 9
  231.06667 8.0 8
  231.2731 8.0 8
  231.99968 7.0 7
  237.04439 6.0 6
  237.05699 6.0 6
  237.49704 6.0 6
  240.03961 19.0 19
  240.04869 8.0 8
  240.32684 13.0 13
  241.04659 6.0 6
  243.02826 6.0 6
  246.0489 6.0 6
  249.05174 15.0 15
  251.02629 25.0 25
  253.04568 32.0 32
  253.51405 8.0 8
  255.02602 12.0 12
  255.07199 7.0 7
  256.03894 14.0 14
  256.05765 6.0 6
  256.06891 8.0 8
  257.04428 27.0 27
  257.99875 6.0 6
  259.02557 8.0 8
  259.38193 13.0 13
  259.48199 6.0 6
  263.02945 12.0 12
  265.04391 11.0 11
  268.03339 6.0 6
  268.88153 6.0 6
  269.03479 55.0 55
  269.04678 36.0 36
  269.06039 6.0 6
  270.02661 6.0 6
  270.04858 83.0 83
  270.06976 23.0 23
  271.04153 14.0 14
  282.03275 6.0 6
  282.04803 10.0 10
  283.0592 9.0 9
  284.0311 84.0 84
  285.02258 40.0 40
  285.03983 295.0 295
  286.03229 22.0 22
  286.043 64.0 64
  287.0267 9.0 9
  287.04065 7.0 7
  287.05176 17.0 17
  295.02371 9.0 9
  296.02411 6.0 6
  297.03818 629.0 628
  297.90656 6.0 6
  298.04495 589.0 588
  299.05319 607.0 606
  299.39252 6.0 6
  300.05527 80.0 80
  301.06165 13.0 13
  303.74982 7.0 7
  308.5563 6.0 6
  309.04349 31.0 31
  310.03159 8.0 8
  310.04092 6.0 6
  311.05298 164.0 164
  312.05984 47.0 47
  313.0282 27.0 27
  313.04205 13.0 13
  313.06326 6.0 6
  321.07053 8.0 8
  324.01352 11.0 11
  324.02335 22.0 22
  325.03906 37.0 37
  326.03064 8.0 8
  327.00159 6.0 6
  327.04913 1000.0 999
  328.05188 253.0 253
  329.05948 15.0 15
  335.26166 6.0 6
  337.026 10.0 10
  337.04129 6.0 6
  337.07736 15.0 15
  338.09116 6.0 6
  339.05087 220.0 220
  339.07611 8.0 8
  340.04871 33.0 33
  341.06552 79.0 79
  341.0863 6.0 6
  342.07227 6.0 6
  351.04086 7.0 7
  351.05609 9.0 9
  353.0661 8.0 8
  357.06091 366.0 366
  358.05859 64.0 64
  358.07111 60.0 60
  358.09601 6.0 6
  359.07349 8.0 8
  364.05093 6.0 6
  365.06491 17.0 17
  368.0593 6.0 6
  369.04346 19.0 19
  369.06198 7.0 7
  369.08362 8.0 8
  370.06201 8.0 8
  371.04971 6.0 6
  381.0293 8.0 8
  381.05585 8.0 8
  382.07248 7.0 7
  387.07013 9.0 9
  393.05811 17.0 17
  399.08218 7.0 7
  431.07953 8.0 8
  431.10513 7.0 7
  447.09048 8.0 8
//
