ACCESSION: MSBNK-RIKEN-PR100010
RECORD_TITLE: o-Phenanthroline; LC-ESI-QTOF; MS2; CE:Ramp 5-60 V; [M+H]+
DATE: 2016.01.19 (Created 2009.09.10, modified 2011.05.06)
AUTHORS: Matsuda F, Suzuki M, Sawada Y, Plant Science Center, RIKEN.
LICENSE: CC BY-SA
COMMENT: Acquisition and generation of the data is financially supported in part by CREST/JST.
CH$NAME: 1,10-Phenanthroline
CH$NAME: o-Phenanthroline
CH$COMPOUND_CLASS: Phenanthroline
CH$FORMULA: C12H8N2
CH$EXACT_MASS: 180.06875
CH$SMILES: c(c3)cc(c1)c(n3)c(n2)c(ccc2)c1
CH$IUPAC: InChI=1S/C12H8N2/c1-3-9-5-6-10-4-2-8-14-12(10)11(9)13-7-1/h1-8H
CH$LINK: CAS 66-71-7
CH$LINK: CHEMSPIDER 1278
CH$LINK: KEGG C00604
CH$LINK: PUBCHEM CID:1318
CH$LINK: INCHIKEY DGEZNRSVGBDHLK-UHFFFAOYSA-N
CH$LINK: COMPTOX DTXSID1025857
AC$INSTRUMENT: UPLC Q-Tof Premier, Waters
AC$INSTRUMENT_TYPE: LC-ESI-QTOF
AC$MASS_SPECTROMETRY: MS_TYPE MS2
AC$MASS_SPECTROMETRY: ION_MODE POSITIVE
AC$MASS_SPECTROMETRY: COLLISION_ENERGY Ramp 5-60 V
AC$MASS_SPECTROMETRY: DATAFORMAT Continuum
AC$MASS_SPECTROMETRY: DATE 2008.07.24
AC$MASS_SPECTROMETRY: DESOLVATION_GAS_FLOW 600.0 L/Hr
AC$MASS_SPECTROMETRY: DESOLVATION_TEMPERATURE 420 C
AC$MASS_SPECTROMETRY: FRAGMENTATION_METHOD LOW-ENERGY CID
AC$MASS_SPECTROMETRY: IONIZATION ESI
AC$MASS_SPECTROMETRY: SCANNING 1.0 sec/scan (m/z = 50-1000)
AC$MASS_SPECTROMETRY: SOURCE_TEMPERATURE 120 C
AC$CHROMATOGRAPHY: CAPILLARY_VOLTAGE 3.0 kV
AC$CHROMATOGRAPHY: SAMPLING_CONE 23.0 V
AC$CHROMATOGRAPHY: SOLVENT A CH3CN(0.1%HCOOH)
AC$CHROMATOGRAPHY: SOLVENT B H2O(0.1%HCOOH)
MS$FOCUSED_ION: PRECURSOR_M/Z 181.07654
MS$FOCUSED_ION: PRECURSOR_TYPE [M+H]+
PK$SPLASH: splash10-001i-0900000000-94a0600a96f48f8aa145
PK$NUM_PEAK: 3
PK$PEAK: m/z int. rel.int.
  127.0552 116.4 51
  154.0660 231.1 102
  181.0765 2264 999
//
