ACCESSION: MSBNK-RIKEN-PR309339
RECORD_TITLE: 12:4+3O fatty acyl hexoside; LC-ESI-QTOF; MS2
DATE: 2019.03.28
AUTHORS: Tetsuya Mori, Center for Sustainable Resource Science, RIKEN
LICENSE: CC BY-NC-SA
PUBLICATION: Tsugawa H., Nakabayashi R., Mori T., Yamada Y., Takahashi M., Rai A., Sugiyama R., Yamamoto H., Nakaya T., Yamazaki M., Kooke R., Bac-Molenaar JA., Oztolan-Erol N., Keurentjes JJB., Arita M., Saito K. (2019) "A cheminformatics approach to characterize metabolomes in stable-isotope-labeled organisms" Nature Methods 16(4):295-298. [doi:10.1038/s41592-019-0358-2]
COMMENT: Annotation level-3
CH$NAME: 12:4+3O fatty acyl hexoside
CH$COMPOUND_CLASS: Fatty acyl hexosides
CH$FORMULA: C18H28O9
CH$EXACT_MASS: 388.413
CH$SMILES: O=C(O)CC2CCC(=O)C2(CC=CCCOC1OC(CO)C(O)C(O)C1(O))
CH$IUPAC: InChI=1S/C18H28O9/c19-9-13-15(23)16(24)17(25)18(27-13)26-7-3-1-2-4-11-10(8-14(21)22)5-6-12(11)20/h1-2,10-11,13,15-19,23-25H,3-9H2,(H,21,22)
CH$LINK: INCHIKEY JFDNMLUPLXZXGV-UHFFFAOYSA-N
AC$INSTRUMENT: LC, Waters Acquity UPLC System; MS, Waters Xevo G2 Q-Tof
AC$INSTRUMENT_TYPE: LC-ESI-QTOF
AC$MASS_SPECTROMETRY: MS_TYPE MS2
AC$MASS_SPECTROMETRY: ION_MODE NEGATIVE
AC$MASS_SPECTROMETRY: COLLISION_ENERGY 6V
AC$MASS_SPECTROMETRY: DESOLVATION_GAS_FLOW 800/h
AC$MASS_SPECTROMETRY: DESOLVATION_TEMPERATURE 450 C
AC$MASS_SPECTROMETRY: IONIZATION ESI
AC$CHROMATOGRAPHY: CAPILLARY_VOLTAGE +3.00 kV
AC$CHROMATOGRAPHY: COLUMN_NAME Acquity bridged ethyl hybrid C18 (1.7 um, 2.1 mm * 100 mm, Waters)
AC$CHROMATOGRAPHY: COLUMN_TEMPERATURE 40 C
AC$CHROMATOGRAPHY: FLOW_GRADIENT A/B = (99.5%/0.5% at 0 min, 99.5%/0.5% at 0.1 min, 20%/80% at 10 min, 0.5%/99.5% at 10.1 min, 0.5%/99.5% at 12.0 min, 99.5%/0.5% at 12.1 min, 99.5%/0.5% at 15.0 min)
AC$CHROMATOGRAPHY: FLOW_RATE 0.3 ml/min at 0 min, 0.3 ml/min at 10 min, 0.4 ml/min at 10.1 min, 0.4 ml/min at 14.4 min, 0.3 ml/min at 14.5 min
AC$CHROMATOGRAPHY: RETENTION_TIME 3.28
AC$CHROMATOGRAPHY: SOLVENT A water including 0.1% formic acid
AC$CHROMATOGRAPHY: SOLVENT B acetonitrile including 0.1% formic acid
MS$FOCUSED_ION: PRECURSOR_TYPE [M-H]-
MS$FOCUSED_ION: PRECURSOR_M/Z 387.165
PK$SPLASH: splash10-000i-0209000000-aa868f6ee21cb5837244
PK$NUM_PEAK: 17
PK$PEAK: m/z int. rel.int.
  59.01432 24.0 13
  85.0279 16.0 9
  89.02538 33.0 18
  95.01374 16.0 9
  101.01998 38.0 21
  113.02459 25.0 14
  119.03492 76.0 41
  148.12001 21.0 11
  161.05113 21.0 11
  163.10194 65.0 35
  163.11018 259.0 140
  163.12431 17.0 9
  179.05132 16.0 9
  229.12042 27.0 15
  369.15671 25.0 14
  380.78696 37.0 20
  387.16452 1846.0 999
//
