ACCESSION: MSBNK-RIKEN-PR304034
RECORD_TITLE: Schisandrin; LC-ESI-QTOF; MS2
DATE: 2019.03.28
AUTHORS: Tetsuya Mori, Center for Sustainable Resource Science, RIKEN
LICENSE: CC BY-NC-SA
PUBLICATION: Tsugawa H., Nakabayashi R., Mori T., Yamada Y., Takahashi M., Rai A., Sugiyama R., Yamamoto H., Nakaya T., Yamazaki M., Kooke R., Bac-Molenaar JA., Oztolan-Erol N., Keurentjes JJB., Arita M., Saito K. (2019) "A cheminformatics approach to characterize metabolomes in stable-isotope-labeled organisms" Nature Methods 16(4):295-298. [doi:10.1038/s41592-019-0358-2]
COMMENT: registered in RIKEN PlaSMA
CH$NAME: Schisandrin
CH$COMPOUND_CLASS: Hydrolyzable tannins
CH$FORMULA: C24H32O7
CH$EXACT_MASS: 432.513
CH$SMILES: COC1=C(OC)C(OC)=C2C(CC(C)C(C)(O)CC3=CC(OC)=C(OC)C(OC)=C23)=C1
CH$IUPAC: InChI=1S/C24H32O7/c1-13-9-14-10-16(26-3)20(28-5)22(30-7)18(14)19-15(12-24(13,2)25)11-17(27-4)21(29-6)23(19)31-8/h10-11,13,25H,9,12H2,1-8H3
CH$LINK: INCHIKEY YEFOAORQXAOVJQ-UHFFFAOYSA-N
AC$INSTRUMENT: LC, Waters Acquity UPLC System; MS, Waters Xevo G2 Q-Tof
AC$INSTRUMENT_TYPE: LC-ESI-QTOF
AC$MASS_SPECTROMETRY: MS_TYPE MS2
AC$MASS_SPECTROMETRY: ION_MODE POSITIVE
AC$MASS_SPECTROMETRY: COLLISION_ENERGY 6V
AC$MASS_SPECTROMETRY: DESOLVATION_GAS_FLOW 800/h
AC$MASS_SPECTROMETRY: DESOLVATION_TEMPERATURE 450 C
AC$MASS_SPECTROMETRY: IONIZATION ESI
AC$CHROMATOGRAPHY: CAPILLARY_VOLTAGE +3.00 kV
AC$CHROMATOGRAPHY: COLUMN_NAME Acquity bridged ethyl hybrid C18 (1.7 um, 2.1 mm * 100 mm, Waters)
AC$CHROMATOGRAPHY: COLUMN_TEMPERATURE 40 C
AC$CHROMATOGRAPHY: FLOW_GRADIENT A/B = (99.5%/0.5% at 0 min, 99.5%/0.5% at 0.1 min, 20%/80% at 10 min, 0.5%/99.5% at 10.1 min, 0.5%/99.5% at 12.0 min, 99.5%/0.5% at 12.1 min, 99.5%/0.5% at 15.0 min)
AC$CHROMATOGRAPHY: FLOW_RATE 0.3 ml/min at 0 min, 0.3 ml/min at 10 min, 0.4 ml/min at 10.1 min, 0.4 ml/min at 14.4 min, 0.3 ml/min at 14.5 min
AC$CHROMATOGRAPHY: RETENTION_TIME 7.655766
AC$CHROMATOGRAPHY: SOLVENT A water including 0.1% formic acid
AC$CHROMATOGRAPHY: SOLVENT B acetonitrile including 0.1% formic acid
MS$FOCUSED_ION: PRECURSOR_TYPE [M+H]+
MS$FOCUSED_ION: PRECURSOR_M/Z 433.2220798
PK$SPLASH: splash10-0abc-0192000000-00f57ce53acb2b63779c
PK$NUM_PEAK: 350
PK$PEAK: m/z int. rel.int.
  119.05296 54.0 54
  127.03494 40.0 40
  143.08995 40.0 40
  144.05597 42.0 42
  153.07123 47.0 47
  157.06622 49.0 49
  158.06747 47.0 47
  160.05345 38.0 38
  165.07582 47.0 47
  166.05246 42.0 42
  167.05327 40.0 40
  167.0639 52.0 52
  169.07222 38.0 38
  169.0829 38.0 38
  171.08807 80.0 80
  174.06401 47.0 47
  174.60028 45.0 45
  175.07594 49.0 49
  181.06497 38.0 38
  182.07812 61.0 61
  183.07359 47.0 47
  183.08583 40.0 40
  184.04532 38.0 38
  184.06068 56.0 56
  185.05443 52.0 52
  187.03886 38.0 38
  187.0735 47.0 47
  187.52521 47.0 47
  189.0874 38.0 38
  191.08214 61.0 61
  192.09183 47.0 47
  192.09903 38.0 38
  195.08679 164.0 164
  196.08739 77.0 77
  197.05489 82.0 82
  197.06261 101.0 101
  198.07739 54.0 54
  198.10023 63.0 63
  198.11577 47.0 47
  199.01796 38.0 38
  199.0468 38.0 38
  199.07733 221.0 221
  201.07303 38.0 38
  202.04332 38.0 38
  202.06377 54.0 54
  203.0714 52.0 52
  204.04948 40.0 40
  206.06529 38.0 38
  206.0742 40.0 40
  207.79926 45.0 45
  209.06657 141.0 141
  209.08447 52.0 52
  210.07979 38.0 38
  210.10046 68.0 68
  210.77744 47.0 47
  211.07161 38.0 38
  211.08719 42.0 42
  212.07773 38.0 38
  212.08934 40.0 40
  212.11317 40.0 40
  213.05586 136.0 136
  213.07857 47.0 47
  213.08823 42.0 42
  214.06238 169.0 169
  214.08492 38.0 38
  215.04393 38.0 38
  215.07742 89.0 89
  217.07518 42.0 42
  218.09157 38.0 38
  218.11497 63.0 63
  218.76616 45.0 45
  219.07562 42.0 42
  221.09804 61.0 61
  221.11171 38.0 38
  223.0392 42.0 42
  223.07567 56.0 56
  223.1201 47.0 47
  224.034 68.0 68
  224.08803 174.0 174
  224.41022 40.0 40
  225.05296 164.0 164
  225.08824 92.0 92
  225.09769 38.0 38
  225.13081 54.0 54
  226.06551 77.0 77
  226.08716 40.0 40
  227.06328 47.0 47
  227.07799 155.0 155
  227.50079 49.0 49
  228.0327 40.0 40
  228.07932 146.0 146
  229.05061 38.0 38
  229.08159 85.0 85
  229.09384 38.0 38
  230.05353 77.0 77
  230.06734 38.0 38
  230.08389 42.0 42
  231.10553 40.0 40
  232.07927 42.0 42
  232.09271 75.0 75
  233.06313 38.0 38
  235.06531 47.0 47
  235.08261 61.0 61
  235.11749 96.0 96
  236.0844 38.0 38
  236.11566 38.0 38
  236.98109 40.0 40
  237.05701 75.0 75
  238.06311 40.0 40
  239.05762 108.0 108
  239.0862 80.0 80
  239.10519 197.0 197
  240.04671 54.0 54
  240.07732 92.0 92
  240.08965 129.0 129
  240.47758 73.0 73
  241.05936 120.0 120
  241.08601 373.0 373
  241.11203 66.0 66
  242.05772 38.0 38
  242.09409 167.0 167
  243.05856 38.0 38
  243.06818 40.0 40
  243.08336 54.0 54
  243.16698 38.0 38
  244.04196 49.0 49
  244.07698 47.0 47
  245.06328 77.0 77
  245.10141 40.0 40
  245.11162 54.0 54
  247.07797 42.0 42
  247.10793 40.0 40
  248.06747 38.0 38
  248.08017 38.0 38
  248.10263 47.0 47
  249.09982 153.0 153
  249.12253 127.0 127
  250.09204 40.0 40
  251.06421 40.0 40
  251.08664 38.0 38
  251.09991 40.0 40
  251.11606 45.0 45
  252.07918 106.0 106
  252.11798 89.0 89
  253.08847 221.0 221
  253.11501 63.0 63
  254.07559 49.0 49
  254.08504 94.0 94
  254.09819 38.0 38
  254.10719 42.0 42
  254.12439 38.0 38
  255.05359 87.0 87
  255.06827 228.0 228
  255.09338 127.0 127
  255.10628 42.0 42
  256.03873 54.0 54
  256.06775 108.0 108
  256.10773 176.0 176
  257.08325 676.0 675
  257.11707 85.0 85
  257.16333 54.0 54
  258.06708 38.0 38
  258.08044 38.0 38
  258.09338 38.0 38
  259.07755 77.0 77
  259.09668 80.0 80
  259.68454 42.0 42
  260.13251 40.0 40
  261.10599 49.0 49
  262.09982 38.0 38
  264.08136 235.0 235
  264.1012 45.0 45
  264.11697 134.0 134
  264.12906 94.0 94
  265.07663 162.0 162
  265.1235 89.0 89
  266.05029 40.0 40
  266.09137 169.0 169
  266.11981 87.0 87
  266.17035 40.0 40
  267.06683 164.0 164
  267.08591 38.0 38
  267.10242 171.0 171
  267.11227 56.0 56
  268.04315 38.0 38
  268.09961 85.0 85
  269.0892 293.0 293
  269.11313 56.0 56
  269.15833 47.0 47
  270.04367 38.0 38
  270.05704 38.0 38
  270.0834 110.0 110
  270.09964 80.0 80
  270.1207 138.0 138
  271.01971 38.0 38
  271.04837 157.0 157
  271.06516 124.0 124
  271.08209 85.0 85
  271.09717 106.0 106
  271.10797 146.0 146
  271.15579 80.0 80
  272.06485 49.0 49
  272.0853 40.0 40
  272.10156 188.0 188
  272.29135 40.0 40
  273.06152 66.0 66
  273.07834 167.0 167
  273.10889 40.0 40
  274.09045 59.0 59
  274.1008 38.0 38
  275.07071 38.0 38
  275.11984 47.0 47
  276.12698 45.0 45
  277.07651 77.0 77
  277.0936 45.0 45
  278.10416 87.0 87
  278.13699 49.0 49
  279.07278 52.0 52
  279.09656 256.0 256
  279.11578 92.0 92
  279.13791 75.0 75
  280.07193 45.0 45
  280.10886 272.0 272
  280.11777 85.0 85
  280.15079 38.0 38
  281.07574 195.0 195
  281.11719 38.0 38
  281.13959 56.0 56
  282.02374 61.0 61
  282.09232 38.0 38
  282.12689 40.0 40
  283.06506 127.0 127
  283.10086 85.0 85
  284.05511 40.0 40
  284.0755 38.0 38
  284.09848 228.0 228
  284.11029 317.0 317
  285.06641 103.0 103
  285.0788 284.0 284
  285.10422 181.0 181
  285.11362 136.0 136
  285.92374 40.0 40
  286.00085 42.0 42
  286.07401 115.0 115
  286.09088 138.0 138
  287.05417 148.0 148
  287.33377 38.0 38
  288.09222 153.0 153
  288.10623 77.0 77
  288.12527 38.0 38
  289.11972 38.0 38
  290.08759 38.0 38
  291.10532 54.0 54
  291.13312 82.0 82
  291.95859 38.0 38
  292.07541 99.0 99
  292.11041 157.0 157
  292.15704 49.0 49
  293.11453 305.0 305
  293.13809 40.0 40
  294.0769 42.0 42
  294.11636 59.0 59
  294.14023 42.0 42
  295.08154 42.0 42
  295.10764 178.0 178
  295.12833 38.0 38
  295.14001 94.0 94
  296.06415 38.0 38
  296.09229 38.0 38
  296.13776 56.0 56
  297.06476 77.0 77
  297.08057 80.0 80
  297.12814 38.0 38
  298.07785 87.0 87
  299.082 45.0 45
  299.09628 75.0 75
  299.10703 40.0 40
  299.12787 40.0 40
  300.05609 38.0 38
  300.10428 223.0 223
  301.06683 45.0 45
  301.10669 120.0 120
  301.12997 42.0 42
  302.07278 38.0 38
  302.08704 40.0 40
  303.10477 40.0 40
  303.1333 38.0 38
  304.09613 38.0 38
  304.11032 38.0 38
  305.11249 82.0 82
  306.13364 38.0 38
  307.0968 221.0 221
  307.13202 279.0 279
  307.14233 317.0 317
  308.11694 77.0 77
  308.13098 45.0 45
  308.14526 45.0 45
  309.12326 52.0 52
  309.14133 38.0 38
  309.87592 38.0 38
  310.12341 117.0 117
  310.62155 40.0 40
  311.08734 38.0 38
  311.11481 101.0 101
  311.13022 129.0 129
  312.1076 47.0 47
  313.07355 47.0 47
  313.10184 42.0 42
  313.13315 38.0 38
  315.0918 92.0 92
  315.11823 258.0 258
  316.10226 40.0 40
  316.13535 40.0 40
  317.10019 49.0 49
  317.11185 42.0 42
  321.11743 54.0 54
  322.11261 54.0 54
  322.12405 108.0 108
  322.15869 42.0 42
  322.58957 38.0 38
  323.12573 1000.0 999
  323.1633 40.0 40
  324.08588 42.0 42
  324.10339 80.0 80
  324.13058 270.0 270
  325.1463 63.0 63
  327.08148 38.0 38
  327.11844 40.0 40
  328.13824 42.0 42
  329.09778 38.0 38
  331.10358 47.0 47
  331.11606 157.0 157
  332.15643 40.0 40
  338.11282 38.0 38
  338.12756 38.0 38
  338.16046 127.0 127
  339.13287 70.0 70
  339.15332 124.0 124
  340.13223 38.0 38
  341.12158 40.0 40
  345.13242 38.0 38
  347.57623 70.0 70
  354.14673 38.0 38
  355.08316 40.0 40
  357.11841 38.0 38
  369.16714 38.0 38
  369.18634 47.0 47
  370.1387 40.0 40
  380.91263 38.0 38
  412.5593 38.0 38
//
