ACCESSION: MSBNK-RIKEN-PR100605
RECORD_TITLE: Sebacic acid; LC-ESI-QTOF; MS2; CE:Ramp 5-60 V; [M-H]-
DATE: 2016.01.19 (Created 2010.06.21, modified 2011.05.06)
AUTHORS: Matsuda F, Suzuki M, Sawada Y, Plant Science Center, RIKEN.
LICENSE: CC BY-SA
COMMENT: Acquisition and generation of the data is financially supported in part by CREST/JST.
CH$NAME: Sebacic acid
CH$NAME: Decanedioic acid
CH$NAME: 1,8-Octanedicarboxylic acid
CH$NAME: 1,10-Decanedioic acid
CH$COMPOUND_CLASS: Carboxylic acids
CH$FORMULA: C10H18O4
CH$EXACT_MASS: 202.12051
CH$SMILES: OC(=O)CCCCCCCCC(O)=O
CH$IUPAC: InChI=1S/C10H18O4/c11-9(12)7-5-3-1-2-4-6-8-10(13)14/h1-8H2,(H,11,12)(H,13,14)
CH$LINK: CAS 111-20-6
CH$LINK: CHEMSPIDER 5004
CH$LINK: KEGG C08277
CH$LINK: KNAPSACK C00001202
CH$LINK: LIPIDMAPS LMFA01170006
CH$LINK: PUBCHEM CID:5192
CH$LINK: INCHIKEY CXMXRPHRNRROMY-UHFFFAOYSA-N
CH$LINK: COMPTOX DTXSID7026867
AC$INSTRUMENT: UPLC Q-Tof Premier, Waters
AC$INSTRUMENT_TYPE: LC-ESI-QTOF
AC$MASS_SPECTROMETRY: MS_TYPE MS2
AC$MASS_SPECTROMETRY: ION_MODE NEGATIVE
AC$MASS_SPECTROMETRY: COLLISION_ENERGY Ramp 5-60 V
AC$MASS_SPECTROMETRY: DATAFORMAT Continuum
AC$MASS_SPECTROMETRY: DESOLVATION_GAS_FLOW 600.0 L/Hr
AC$MASS_SPECTROMETRY: DESOLVATION_TEMPERATURE 400 C
AC$MASS_SPECTROMETRY: FRAGMENTATION_METHOD LOW-ENERGY CID
AC$MASS_SPECTROMETRY: IONIZATION ESI
AC$MASS_SPECTROMETRY: SOURCE_TEMPERATURE 120 C
AC$CHROMATOGRAPHY: CAPILLARY_VOLTAGE 3.0 kV
AC$CHROMATOGRAPHY: SAMPLING_CONE 23.0 V
AC$CHROMATOGRAPHY: SOLVENT A CH3CN(0.1%HCOOH)
AC$CHROMATOGRAPHY: SOLVENT B H2O(0.1%HCOOH)
MS$FOCUSED_ION: PRECURSOR_M/Z 201.1127
MS$FOCUSED_ION: PRECURSOR_TYPE [M-H]-
PK$SPLASH: splash10-0f80-0950000000-e264d8b786405e562fd4
PK$NUM_PEAK: 4
PK$PEAK: m/z int. rel.int.
  111.0821 105.3 65
  139.1134 1625 999
  183.1038 845 519
  201.1127 1530 941
//
