ACCESSION: MSBNK-RIKEN-PR308825
RECORD_TITLE: Maritimetin-6-O-glucoside; LC-ESI-QTOF; MS2
DATE: 2019.03.28
AUTHORS: Tetsuya Mori, Center for Sustainable Resource Science, RIKEN
LICENSE: CC BY-NC-SA
PUBLICATION: Tsugawa H., Nakabayashi R., Mori T., Yamada Y., Takahashi M., Rai A., Sugiyama R., Yamamoto H., Nakaya T., Yamazaki M., Kooke R., Bac-Molenaar JA., Oztolan-Erol N., Keurentjes JJB., Arita M., Saito K. (2019) "A cheminformatics approach to characterize metabolomes in stable-isotope-labeled organisms" Nature Methods 16(4):295-298. [doi:10.1038/s41592-019-0358-2]
COMMENT: Annotation level-1
CH$NAME: Maritimetin-6-O-glucoside
CH$COMPOUND_CLASS: Arylbenzofuran flavonoids
CH$FORMULA: C21H20O11
CH$EXACT_MASS: 448.38
CH$SMILES: OCC1OC(OC2=C(O)C3=C(C=C2)C(=O)C(O3)=CC2=CC=C(O)C(O)=C2)C(O)C(O)C1O
CH$IUPAC: InChI=1S/C21H20O11/c22-7-14-16(26)18(28)19(29)21(32-14)31-12-4-2-9-15(25)13(30-20(9)17(12)27)6-8-1-3-10(23)11(24)5-8/h1-6,14,16,18-19,21-24,26-29H,7H2
CH$LINK: INCHIKEY SYRURBPRFQUYQS-UHFFFAOYSA-N
AC$INSTRUMENT: LC, Waters Acquity UPLC System; MS, Waters Xevo G2 Q-Tof
AC$INSTRUMENT_TYPE: LC-ESI-QTOF
AC$MASS_SPECTROMETRY: MS_TYPE MS2
AC$MASS_SPECTROMETRY: ION_MODE NEGATIVE
AC$MASS_SPECTROMETRY: COLLISION_ENERGY 6V
AC$MASS_SPECTROMETRY: DESOLVATION_GAS_FLOW 800/h
AC$MASS_SPECTROMETRY: DESOLVATION_TEMPERATURE 450 C
AC$MASS_SPECTROMETRY: IONIZATION ESI
AC$CHROMATOGRAPHY: CAPILLARY_VOLTAGE +3.00 kV
AC$CHROMATOGRAPHY: COLUMN_NAME Acquity bridged ethyl hybrid C18 (1.7 um, 2.1 mm * 100 mm, Waters)
AC$CHROMATOGRAPHY: COLUMN_TEMPERATURE 40 C
AC$CHROMATOGRAPHY: FLOW_GRADIENT A/B = (99.5%/0.5% at 0 min, 99.5%/0.5% at 0.1 min, 20%/80% at 10 min, 0.5%/99.5% at 10.1 min, 0.5%/99.5% at 12.0 min, 99.5%/0.5% at 12.1 min, 99.5%/0.5% at 15.0 min)
AC$CHROMATOGRAPHY: FLOW_RATE 0.3 ml/min at 0 min, 0.3 ml/min at 10 min, 0.4 ml/min at 10.1 min, 0.4 ml/min at 14.4 min, 0.3 ml/min at 14.5 min
AC$CHROMATOGRAPHY: RETENTION_TIME 4
AC$CHROMATOGRAPHY: SOLVENT A water including 0.1% formic acid
AC$CHROMATOGRAPHY: SOLVENT B acetonitrile including 0.1% formic acid
MS$FOCUSED_ION: PRECURSOR_TYPE [M-H]-
MS$FOCUSED_ION: PRECURSOR_M/Z 447.09328
PK$SPLASH: splash10-000i-0190100000-2f3b3a8506e9785b604d
PK$NUM_PEAK: 64
PK$PEAK: m/z int. rel.int.
  95.01196 29.0 6
  111.02911 20.0 4
  123.00774 42.0 9
  125.02379 47.0 10
  133.02521 262.0 54
  133.03278 46.0 9
  135.04042 197.0 41
  135.04605 110.0 23
  136.04903 20.0 4
  140.80914 18.0 4
  149.0224 75.0 15
  150.9969 28.0 6
  151.00421 55.0 11
  161.02605 40.0 8
  167.04271 20.0 4
  176.00717 52.0 11
  177.01927 25.0 5
  185.06088 23.0 5
  195.04501 27.0 6
  196.04752 26.0 5
  198.04126 29.0 6
  200.04277 24.0 5
  201.05055 25.0 5
  201.06483 32.0 7
  201.26122 23.0 5
  211.03853 59.0 12
  212.03992 49.0 10
  213.05122 39.0 8
  213.05975 38.0 8
  218.71814 28.0 6
  223.04085 40.0 8
  226.02426 39.0 8
  227.0323 26.0 5
  228.02582 25.0 5
  229.04567 64.0 13
  236.56007 25.0 5
  239.03639 58.0 12
  240.04893 18.0 4
  241.04547 21.0 4
  255.01875 24.0 5
  255.0312 119.0 24
  256.02606 53.0 11
  257.03137 24.0 5
  257.04437 20.0 4
  257.05545 26.0 5
  259.04688 20.0 4
  264.46313 39.0 8
  267.01974 28.0 6
  267.04321 21.0 4
  283.00555 20.0 4
  283.02985 239.0 49
  284.01987 108.0 22
  284.02942 332.0 68
  285.0386 4853.0 999
  286.04254 901.0 185
  287.03867 108.0 22
  287.05145 73.0 15
  288.04956 27.0 6
  327.06064 18.0 4
  339.92056 25.0 5
  445.07254 46.0 9
  446.08133 78.0 16
  446.22165 25.0 5
  447.09268 975.0 201
//
