ACCESSION: MSBNK-RIKEN-PR100283
RECORD_TITLE: (R)-3-Amino-4-phenylbutyric acid; LC-ESI-QTOF; MS2; CE:Ramp 5-60 V; [M+H]+
DATE: 2016.01.19 (Created 2009.09.10, modified 2012.10.22)
AUTHORS: Matsuda F, Suzuki M, Sawada Y, Plant Science Center, RIKEN.
LICENSE: CC BY-SA
COMMENT: Acquisition and generation of the data is financially supported in part by CREST/JST.
CH$NAME: D-beta-Homophenylalanine
CH$NAME: (R)-3-Amino-4-phenylbutyric acid
CH$COMPOUND_CLASS: Amino acids
CH$FORMULA: C10H13NO2
CH$EXACT_MASS: 179.09463
CH$SMILES: OC(=O)CC(N)Cc(c1)cccc1
CH$IUPAC: InChI=1S/C10H13NO2/c11-9(7-10(12)13)6-8-4-2-1-3-5-8/h1-5,9H,6-7,11H2,(H,12,13)/t9-/m1/s1
CH$LINK: CAS 145149-50-4
CH$LINK: INCHIKEY OFVBLKINTLPEGH-SECBINFHSA-N
AC$INSTRUMENT: UPLC Q-Tof Premier, Waters
AC$INSTRUMENT_TYPE: LC-ESI-QTOF
AC$MASS_SPECTROMETRY: MS_TYPE MS2
AC$MASS_SPECTROMETRY: ION_MODE POSITIVE
AC$MASS_SPECTROMETRY: COLLISION_ENERGY Ramp 5-60 V
AC$MASS_SPECTROMETRY: DATAFORMAT Continuum
AC$MASS_SPECTROMETRY: DATE 2008.07.28
AC$MASS_SPECTROMETRY: DESOLVATION_GAS_FLOW 600.0 L/Hr
AC$MASS_SPECTROMETRY: DESOLVATION_TEMPERATURE 420 C
AC$MASS_SPECTROMETRY: FRAGMENTATION_METHOD LOW-ENERGY CID
AC$MASS_SPECTROMETRY: IONIZATION ESI
AC$MASS_SPECTROMETRY: SCANNING 1.0 sec/scan (m/z = 50-1000)
AC$MASS_SPECTROMETRY: SOURCE_TEMPERATURE 120 C
AC$CHROMATOGRAPHY: CAPILLARY_VOLTAGE 3.0 kV
AC$CHROMATOGRAPHY: SAMPLING_CONE 23.0 V
AC$CHROMATOGRAPHY: SOLVENT A CH3CN(0.1%HCOOH)
AC$CHROMATOGRAPHY: SOLVENT B H2O(0.1%HCOOH)
MS$FOCUSED_ION: PRECURSOR_M/Z 180.10242
MS$FOCUSED_ION: PRECURSOR_TYPE [M+H]+
PK$SPLASH: splash10-00xr-0900000000-e86eefea78d902b2e731
PK$NUM_PEAK: 8
PK$PEAK: m/z int. rel.int.
  91.0559 843.6 133
  103.0561 1400 221
  115.0565 1094 173
  117.0711 3650 576
  120.0805 6325 999
  145.0676 773.9 122
  163.0783 593.7 94
  180.1024 1046 165
//
