ACCESSION: MSBNK-RIKEN-PR100285
RECORD_TITLE: L-beta-Homoproline; LC-ESI-QTOF; MS2; CE:30 V; [M+H]+
DATE: 2016.01.19 (Created 2009.09.10, modified 2011.05.06)
AUTHORS: Matsuda F, Suzuki M, Sawada Y, Plant Science Center, RIKEN.
LICENSE: CC BY-SA
COMMENT: Acquisition and generation of the data is financially supported in part by CREST/JST.
CH$NAME: L-beta-Homoproline
CH$NAME: (S)-2-(2-Pyrrolidinyl)acetic acid
CH$COMPOUND_CLASS: Amino acids
CH$FORMULA: C6H11NO2
CH$EXACT_MASS: 129.07898
CH$SMILES: OC(=O)CC(C1)NCC1
CH$IUPAC: InChI=1S/C6H11NO2/c8-6(9)4-5-2-1-3-7-5/h5,7H,1-4H2,(H,8,9)/t5-/m0/s1
CH$LINK: CAS 56633-75-1
CH$LINK: CHEMSPIDER 2042269
CH$LINK: PUBCHEM CID:2761541
CH$LINK: INCHIKEY ADSALMJPJUKESW-YFKPBYRVSA-N
AC$INSTRUMENT: UPLC Q-Tof Premier, Waters
AC$INSTRUMENT_TYPE: LC-ESI-QTOF
AC$MASS_SPECTROMETRY: MS_TYPE MS2
AC$MASS_SPECTROMETRY: ION_MODE POSITIVE
AC$MASS_SPECTROMETRY: COLLISION_ENERGY 30 V
AC$MASS_SPECTROMETRY: DATAFORMAT Continuum
AC$MASS_SPECTROMETRY: DATE 2008.07.28
AC$MASS_SPECTROMETRY: DESOLVATION_GAS_FLOW 600.0 L/Hr
AC$MASS_SPECTROMETRY: DESOLVATION_TEMPERATURE 420 C
AC$MASS_SPECTROMETRY: FRAGMENTATION_METHOD LOW-ENERGY CID
AC$MASS_SPECTROMETRY: IONIZATION ESI
AC$MASS_SPECTROMETRY: SCANNING 1.0 sec/scan (m/z = 50-1000)
AC$MASS_SPECTROMETRY: SOURCE_TEMPERATURE 120 C
AC$CHROMATOGRAPHY: CAPILLARY_VOLTAGE 3.0 kV
AC$CHROMATOGRAPHY: SAMPLING_CONE 23.0 V
AC$CHROMATOGRAPHY: SOLVENT A CH3CN(0.1%HCOOH)
AC$CHROMATOGRAPHY: SOLVENT B H2O(0.1%HCOOH)
MS$FOCUSED_ION: PRECURSOR_M/Z 130.08677
MS$FOCUSED_ION: PRECURSOR_TYPE [M+H]+
PK$SPLASH: splash10-00di-9000000000-cacf970aa27b5aa759d1
PK$NUM_PEAK: 3
PK$PEAK: m/z int. rel.int.
  70.0658 460.5 999
  71.0487 6.061 13
  130.0868 5.582 12
//
