ACCESSION: MSBNK-RIKEN-PR303721
RECORD_TITLE: Ginsenoside Rb1; LC-ESI-QTOF; MS2
DATE: 2019.03.28
AUTHORS: Tetsuya Mori, Center for Sustainable Resource Science, RIKEN
LICENSE: CC BY-NC-SA
PUBLICATION: Tsugawa H., Nakabayashi R., Mori T., Yamada Y., Takahashi M., Rai A., Sugiyama R., Yamamoto H., Nakaya T., Yamazaki M., Kooke R., Bac-Molenaar JA., Oztolan-Erol N., Keurentjes JJB., Arita M., Saito K. (2019) "A cheminformatics approach to characterize metabolomes in stable-isotope-labeled organisms" Nature Methods 16(4):295-298. [doi:10.1038/s41592-019-0358-2]
COMMENT: registered in RIKEN PlaSMA
CH$NAME: Ginsenoside Rb1
CH$COMPOUND_CLASS: Triterpene saponins
CH$FORMULA: C54H92O23
CH$EXACT_MASS: 1109.307
CH$SMILES: CC(C)=CCC[C@](C)(O[C@@H]1O[C@H](CO[C@@H]2O[C@H](CO)[C@@H](O)[C@H](O)[C@H]2O)[C@@H](O)[C@H](O)[C@H]1O)[C@H]1CC[C@]2(C)[C@@H]1[C@H](O)C[C@@H]1[C@@]3(C)CC[C@H](O[C@@H]4O[C@H](CO)[C@@H](O)[C@H](O)[C@H]4O[C@@H]4O[C@H](CO)[C@@H](O)[C@H](O)[C@H]4O)C(C)(C)[C@@H]3CC[C@@]21C
CH$IUPAC: InChI=1S/C54H92O23/c1-23(2)10-9-14-54(8,77-48-44(69)40(65)37(62)29(74-48)22-70-46-42(67)38(63)34(59)26(19-55)71-46)24-11-16-53(7)33(24)25(58)18-31-51(5)15-13-32(50(3,4)30(51)12-17-52(31,53)6)75-49-45(41(66)36(61)28(21-57)73-49)76-47-43(68)39(64)35(60)27(20-56)72-47/h10,24-49,55-69H,9,11-22H2,1-8H3/t24-,25+,26+,27+,28+,29+,30-,31+,32-,33-,34+,35+,36+,37+,38-,39-,40-,41-,42+,43+,44+,45+,46+,47-,48-,49-,51-,52+,53+,54-/m0/s1
CH$LINK: INCHIKEY GZYPWOGIYAIIPV-JBDTYSNRSA-N
AC$INSTRUMENT: LC, Waters Acquity UPLC System; MS, Waters Xevo G2 Q-Tof
AC$INSTRUMENT_TYPE: LC-ESI-QTOF
AC$MASS_SPECTROMETRY: MS_TYPE MS2
AC$MASS_SPECTROMETRY: ION_MODE POSITIVE
AC$MASS_SPECTROMETRY: COLLISION_ENERGY 6V
AC$MASS_SPECTROMETRY: DESOLVATION_GAS_FLOW 800/h
AC$MASS_SPECTROMETRY: DESOLVATION_TEMPERATURE 450 C
AC$MASS_SPECTROMETRY: IONIZATION ESI
AC$CHROMATOGRAPHY: CAPILLARY_VOLTAGE +3.00 kV
AC$CHROMATOGRAPHY: COLUMN_NAME Acquity bridged ethyl hybrid C18 (1.7 um, 2.1 mm * 100 mm, Waters)
AC$CHROMATOGRAPHY: COLUMN_TEMPERATURE 40 C
AC$CHROMATOGRAPHY: FLOW_GRADIENT A/B = (99.5%/0.5% at 0 min, 99.5%/0.5% at 0.1 min, 20%/80% at 10 min, 0.5%/99.5% at 10.1 min, 0.5%/99.5% at 12.0 min, 99.5%/0.5% at 12.1 min, 99.5%/0.5% at 15.0 min)
AC$CHROMATOGRAPHY: FLOW_RATE 0.3 ml/min at 0 min, 0.3 ml/min at 10 min, 0.4 ml/min at 10.1 min, 0.4 ml/min at 14.4 min, 0.3 ml/min at 14.5 min
AC$CHROMATOGRAPHY: RETENTION_TIME 5.875216
AC$CHROMATOGRAPHY: SOLVENT A water including 0.1% formic acid
AC$CHROMATOGRAPHY: SOLVENT B acetonitrile including 0.1% formic acid
MS$FOCUSED_ION: PRECURSOR_TYPE [M+H]+
MS$FOCUSED_ION: PRECURSOR_M/Z 1109.610216
PK$SPLASH: splash10-004i-1419613201-8ee0ff0b773c92720afe
PK$NUM_PEAK: 97
PK$PEAK: m/z int. rel.int.
  95.08483 29.0 29
  99.08069 18.0 18
  127.02763 22.0 22
  145.04573 39.0 39
  163.05701 109.0 109
  163.06636 78.0 78
  164.06334 40.0 40
  165.06444 15.0 15
  179.06265 34.0 34
  179.25903 16.0 16
  181.07823 17.0 17
  189.16309 17.0 17
  191.17787 17.0 17
  217.19727 20.0 20
  228.29831 31.0 31
  256.74991 21.0 21
  259.25662 30.0 30
  271.23831 15.0 15
  289.09109 15.0 15
  290.10117 21.0 21
  308.02298 15.0 15
  308.10168 17.0 17
  325.05835 22.0 22
  325.11279 1000.0 999
  326.11255 33.0 33
  326.12454 80.0 80
  326.14432 16.0 16
  343.129 39.0 39
  350.24277 17.0 17
  363.28876 17.0 17
  407.36383 168.0 168
  407.38461 17.0 17
  408.35388 50.0 50
  408.37619 41.0 41
  408.40073 15.0 15
  409.34503 16.0 16
  425.36621 47.0 47
  425.3855 90.0 90
  426.37173 15.0 15
  426.39215 71.0 71
  443.38538 46.0 46
  444.37299 20.0 20
  476.91501 18.0 18
  487.14764 54.0 54
  487.1687 207.0 207
  488.15262 15.0 15
  504.62131 17.0 17
  505.17096 19.0 19
  506.16953 15.0 15
  509.3902 17.0 17
  533.39374 17.0 17
  539.40741 17.0 17
  570.43445 19.0 19
  587.37982 21.0 21
  587.42297 16.0 16
  587.43945 20.0 20
  588.4245 17.0 17
  605.42834 29.0 29
  605.48511 18.0 18
  606.4364 20.0 20
  607.44025 24.0 24
  649.19305 19.0 19
  649.2226 114.0 114
  650.24548 32.0 32
  667.21936 153.0 153
  668.20837 15.0 15
  668.2348 15.0 15
  685.23157 15.0 15
  749.47083 15.0 15
  749.51001 15.0 15
  750.48383 18.0 18
  767.49628 66.0 66
  767.52393 58.0 58
  768.46167 20.0 20
  768.48541 34.0 34
  768.51636 32.0 32
  769.49823 21.0 21
  785.5072 19.0 19
  786.47595 45.0 45
  859.53094 16.0 16
  929.5224 48.0 48
  929.59125 15.0 15
  930.50214 15.0 15
  930.55206 15.0 15
  930.59424 25.0 25
  947.53278 15.0 15
  947.58313 15.0 15
  948.50385 22.0 22
  948.55457 41.0 41
  948.65625 24.0 24
  949.54089 37.0 37
  1091.59106 16.0 16
  1092.58911 50.0 50
  1093.58411 15.0 15
  1094.62012 15.0 15
  1109.53809 15.0 15
  1109.61682 149.0 149
//
