ACCESSION: MSBNK-RIKEN-PR310393
RECORD_TITLE: Ginsenoside Rh3; LC-ESI-QTOF; MS2
DATE: 2019.03.28
AUTHORS: Tetsuya Mori, Center for Sustainable Resource Science, RIKEN
LICENSE: CC BY-NC-SA
PUBLICATION: Tsugawa H., Nakabayashi R., Mori T., Yamada Y., Takahashi M., Rai A., Sugiyama R., Yamamoto H., Nakaya T., Yamazaki M., Kooke R., Bac-Molenaar JA., Oztolan-Erol N., Keurentjes JJB., Arita M., Saito K. (2019) "A cheminformatics approach to characterize metabolomes in stable-isotope-labeled organisms" Nature Methods 16(4):295-298. [doi:10.1038/s41592-019-0358-2]
COMMENT: Annotation level-1
CH$NAME: Ginsenoside Rh3
CH$COMPOUND_CLASS: Triterpenoids
CH$FORMULA: C36H60O7
CH$EXACT_MASS: 604.869
CH$SMILES: CC(C)=CCC=C(C)C1CCC2(C)C1C(O)CC1C3(C)CCC(OC4OC(CO)C(O)C(O)C4O)C(C)(C)C3CCC21C
CH$IUPAC: InChI=1S/C36H60O7/c1-20(2)10-9-11-21(3)22-12-16-36(8)28(22)23(38)18-26-34(6)15-14-27(33(4,5)25(34)13-17-35(26,36)7)43-32-31(41)30(40)29(39)24(19-37)42-32/h10-11,22-32,37-41H,9,12-19H2,1-8H3
CH$LINK: INCHIKEY PHLXREOMFNVWOH-UHFFFAOYSA-N
AC$INSTRUMENT: LC, Waters Acquity UPLC System; MS, Waters Xevo G2 Q-Tof
AC$INSTRUMENT_TYPE: LC-ESI-QTOF
AC$MASS_SPECTROMETRY: MS_TYPE MS2
AC$MASS_SPECTROMETRY: ION_MODE POSITIVE
AC$MASS_SPECTROMETRY: COLLISION_ENERGY 6V
AC$MASS_SPECTROMETRY: DESOLVATION_GAS_FLOW 800/h
AC$MASS_SPECTROMETRY: DESOLVATION_TEMPERATURE 450 C
AC$MASS_SPECTROMETRY: IONIZATION ESI
AC$CHROMATOGRAPHY: CAPILLARY_VOLTAGE +3.00 kV
AC$CHROMATOGRAPHY: COLUMN_NAME Acquity bridged ethyl hybrid C18 (1.7 um, 2.1 mm * 100 mm, Waters)
AC$CHROMATOGRAPHY: COLUMN_TEMPERATURE 40 C
AC$CHROMATOGRAPHY: FLOW_GRADIENT A/B = (99.5%/0.5% at 0 min, 99.5%/0.5% at 0.1 min, 20%/80% at 10 min, 0.5%/99.5% at 10.1 min, 0.5%/99.5% at 12.0 min, 99.5%/0.5% at 12.1 min, 99.5%/0.5% at 15.0 min)
AC$CHROMATOGRAPHY: FLOW_RATE 0.3 ml/min at 0 min, 0.3 ml/min at 10 min, 0.4 ml/min at 10.1 min, 0.4 ml/min at 14.4 min, 0.3 ml/min at 14.5 min
AC$CHROMATOGRAPHY: RETENTION_TIME 7.63
AC$CHROMATOGRAPHY: SOLVENT A water including 0.1% formic acid
AC$CHROMATOGRAPHY: SOLVENT B acetonitrile including 0.1% formic acid
MS$FOCUSED_ION: PRECURSOR_TYPE [M+H]+
MS$FOCUSED_ION: PRECURSOR_M/Z 605.44118
PK$SPLASH: splash10-0a4i-0421119000-a85be6e87bcef5c849bb
PK$NUM_PEAK: 41
PK$PEAK: m/z int. rel.int.
  109.10517 54.0 86
  121.09922 23.0 37
  135.11354 16.0 25
  149.13222 16.0 25
  163.14728 20.0 32
  175.15578 19.0 30
  177.17346 16.0 25
  178.16997 18.0 29
  189.16418 17.0 27
  189.17552 16.0 25
  190.16765 17.0 27
  191.18257 47.0 75
  192.18864 20.0 32
  193.12511 16.0 25
  193.18208 29.0 46
  203.17439 17.0 27
  203.18541 18.0 29
  205.19136 18.0 29
  217.203 22.0 35
  219.20689 20.0 32
  221.20323 20.0 32
  227.17641 16.0 25
  259.22699 25.0 40
  304.26096 16.0 25
  310.259 23.0 37
  322.25949 17.0 27
  322.31326 26.0 41
  343.31131 27.0 43
  407.367 16.0 25
  407.37924 19.0 30
  408.36316 19.0 30
  425.37302 82.0 130
  493.32178 16.0 25
  587.40118 36.0 57
  587.42291 41.0 65
  588.41113 16.0 25
  588.43182 28.0 45
  593.78784 18.0 29
  605.43268 628.0 999
  605.47375 42.0 67
  605.48492 17.0 27
//
