ACCESSION: MSBNK-RIKEN-PR300979
RECORD_TITLE: Pseudojervine; LC-ESI-QTOF; MS2
DATE: 2019.03.28
AUTHORS: Tetsuya Mori, Center for Sustainable Resource Science, RIKEN
LICENSE: CC BY-NC-SA
PUBLICATION: Tsugawa H., Nakabayashi R., Mori T., Yamada Y., Takahashi M., Rai A., Sugiyama R., Yamamoto H., Nakaya T., Yamazaki M., Kooke R., Bac-Molenaar JA., Oztolan-Erol N., Keurentjes JJB., Arita M., Saito K. (2019) "A cheminformatics approach to characterize metabolomes in stable-isotope-labeled organisms" Nature Methods 16(4):295-298. [doi:10.1038/s41592-019-0358-2]
COMMENT: registered in RIKEN PlaSMA
CH$NAME: Pseudojervine
CH$COMPOUND_CLASS: Steroidal saponins
CH$FORMULA: C33H49NO8
CH$EXACT_MASS: 587.754
CH$SMILES: CC1[C@@H]2NCC(C)C[C@H]2O[C@]11CCC2C3CC=C4C[C@H](CCC4(C)C3C(=O)C2=C1C)O[C@@H]1OC(CO)[C@@H](O)C(O)C1O
CH$IUPAC: InChI=1S/C33H49NO8/c1-15-11-22-26(34-13-15)17(3)33(42-22)10-8-20-21-6-5-18-12-19(40-31-30(39)29(38)27(36)23(14-35)41-31)7-9-32(18,4)25(21)28(37)24(20)16(33)2/h5,15,17,19-23,25-27,29-31,34-36,38-39H,6-14H2,1-4H3/t15?,17?,19-,20?,21?,22+,23?,25?,26-,27+,29?,30?,31+,32?,33-/m0/s1
CH$LINK: INCHIKEY HYDDDNUKNMMWBD-WJWSUNTISA-N
AC$INSTRUMENT: LC, Waters Acquity UPLC System; MS, Waters Xevo G2 Q-Tof
AC$INSTRUMENT_TYPE: LC-ESI-QTOF
AC$MASS_SPECTROMETRY: MS_TYPE MS2
AC$MASS_SPECTROMETRY: ION_MODE POSITIVE
AC$MASS_SPECTROMETRY: COLLISION_ENERGY 6V
AC$MASS_SPECTROMETRY: DESOLVATION_GAS_FLOW 800/h
AC$MASS_SPECTROMETRY: DESOLVATION_TEMPERATURE 450 C
AC$MASS_SPECTROMETRY: IONIZATION ESI
AC$CHROMATOGRAPHY: CAPILLARY_VOLTAGE +3.00 kV
AC$CHROMATOGRAPHY: COLUMN_NAME Acquity bridged ethyl hybrid C18 (1.7 um, 2.1 mm * 100 mm, Waters)
AC$CHROMATOGRAPHY: COLUMN_TEMPERATURE 40 C
AC$CHROMATOGRAPHY: FLOW_GRADIENT A/B = (99.5%/0.5% at 0 min, 99.5%/0.5% at 0.1 min, 20%/80% at 10 min, 0.5%/99.5% at 10.1 min, 0.5%/99.5% at 12.0 min, 99.5%/0.5% at 12.1 min, 99.5%/0.5% at 15.0 min)
AC$CHROMATOGRAPHY: FLOW_RATE 0.3 ml/min at 0 min, 0.3 ml/min at 10 min, 0.4 ml/min at 10.1 min, 0.4 ml/min at 14.4 min, 0.3 ml/min at 14.5 min
AC$CHROMATOGRAPHY: RETENTION_TIME 4.009517
AC$CHROMATOGRAPHY: SOLVENT A water including 0.1% formic acid
AC$CHROMATOGRAPHY: SOLVENT B acetonitrile including 0.1% formic acid
MS$FOCUSED_ION: PRECURSOR_TYPE [M+H]+
MS$FOCUSED_ION: PRECURSOR_M/Z 588.353094
PK$SPLASH: splash10-0c01-2920000000-28641dfddd90c9c7a1aa
PK$NUM_PEAK: 629
PK$PEAK: m/z int. rel.int.
  53.03962 6.0 6
  55.05231 7.0 7
  57.06842 7.0 7
  57.07276 10.0 10
  57.4919 6.0 6
  61.03295 18.0 18
  63.80653 7.0 7
  65.79367 5.0 5
  67.02246 10.0 10
  67.04719 21.0 21
  67.05407 92.0 92
  67.05826 132.0 132
  67.07093 6.0 6
  68.05204 17.0 17
  68.05576 11.0 11
  69.02059 7.0 7
  69.03432 48.0 48
  69.04104 8.0 8
  69.06184 6.0 6
  69.06984 6.0 6
  69.07618 17.0 17
  70.06304 5.0 5
  70.06752 13.0 13
  71.04134 12.0 12
  72.0477 11.0 11
  74.02987 7.0 7
  74.67938 5.0 5
  79.05258 51.0 51
  79.06125 7.0 7
  80.05378 11.0 11
  81.03009 11.0 11
  81.03377 31.0 31
  81.06952 103.0 103
  81.07413 110.0 110
  82.06568 8.0 8
  82.075 19.0 19
  83.05071 38.0 38
  83.08099 10.0 10
  83.08915 12.0 12
  84.05375 8.0 8
  84.08152 260.0 260
  85.02104 14.0 14
  85.03046 77.0 77
  85.0527 9.0 9
  85.06488 152.0 152
  85.07033 86.0 86
  85.08377 41.0 41
  85.09067 17.0 17
  85.09778 8.0 8
  85.3619 5.0 5
  86.03144 7.0 7
  86.07615 14.0 14
  86.08629 5.0 5
  86.09709 5.0 5
  87.04198 32.0 32
  91.03828 12.0 12
  91.05227 41.0 41
  91.05766 41.0 41
  92.02119 9.0 9
  92.05997 12.0 12
  92.21169 10.0 10
  93.05594 5.0 5
  93.07171 169.0 169
  93.49121 7.0 7
  93.59425 6.0 6
  94.07424 26.0 26
  95.05095 8.0 8
  95.06275 8.0 8
  95.07224 8.0 8
  95.08714 53.0 53
  95.09257 19.0 19
  95.57271 5.0 5
  96.0778 65.0 65
  96.08609 116.0 116
  97.00939 5.0 5
  97.0255 32.0 32
  97.03208 58.0 58
  97.03786 14.0 14
  97.06345 20.0 20
  97.07642 9.0 9
  97.08245 7.0 7
  97.66203 5.0 5
  98.01163 5.0 5
  98.03844 9.0 9
  98.10157 29.0 29
  99.03235 8.0 8
  99.03883 7.0 7
  99.04433 7.0 7
  99.08032 13.0 13
  99.09791 7.0 7
  100.07484 24.0 24
  100.11374 6.0 6
  101.0267 9.0 9
  101.06022 7.0 7
  101.07441 11.0 11
  102.08951 51.0 51
  102.1019 5.0 5
  103.03606 6.0 6
  103.04213 6.0 6
  103.11163 9.0 9
  104.06667 6.0 6
  105.06056 8.0 8
  105.07253 160.0 160
  106.07331 34.0 34
  106.33866 6.0 6
  107.08647 149.0 149
  107.09485 20.0 20
  108.09228 23.0 23
  108.09643 9.0 9
  109.02863 27.0 27
  109.06403 8.0 8
  109.10082 666.0 665
  109.10762 166.0 166
  109.16444 5.0 5
  110.09393 19.0 19
  110.10732 53.0 53
  110.30914 11.0 11
  111.08365 20.0 20
  112.07576 166.0 166
  112.92293 6.0 6
  113.08071 30.0 30
  114.0922 1000.0 999
  114.54626 5.0 5
  115.05685 7.0 7
  115.09277 97.0 97
  115.10527 20.0 20
  115.85648 8.0 8
  116.08658 11.0 11
  116.09762 5.0 5
  117.07217 59.0 59
  118.09724 6.0 6
  119.08697 157.0 157
  119.09321 33.0 33
  119.89393 5.0 5
  120.08376 14.0 14
  120.09119 6.0 6
  121.06863 27.0 27
  121.08466 18.0 18
  121.09982 289.0 289
  121.10626 281.0 281
  122.0883 6.0 6
  122.09977 20.0 20
  122.10594 20.0 20
  122.52691 7.0 7
  122.82423 5.0 5
  123.0648 14.0 14
  123.07584 15.0 15
  123.08369 7.0 7
  123.11307 6.0 6
  123.1229 11.0 11
  124.08541 10.0 10
  124.11087 37.0 37
  124.48838 6.0 6
  124.52583 5.0 5
  125.10032 28.0 28
  125.12088 6.0 6
  126.08746 11.0 11
  126.11388 6.0 6
  126.12111 23.0 23
  126.131 83.0 83
  126.16354 7.0 7
  126.33161 5.0 5
  127.04007 85.0 85
  127.96726 9.0 9
  128.05104 8.0 8
  128.14442 8.0 8
  129.06851 32.0 32
  129.07703 9.0 9
  130.0723 5.0 5
  131.08617 110.0 110
  131.09564 15.0 15
  132.07941 5.0 5
  132.09517 5.0 5
  133.05602 12.0 12
  133.0871 6.0 6
  133.10297 100.0 100
  133.90341 5.0 5
  134.0811 8.0 8
  134.11671 6.0 6
  135.11009 8.0 8
  135.12262 5.0 5
  140.10168 22.0 22
  140.11063 37.0 37
  141.11768 7.0 7
  142.07922 16.0 16
  143.07767 26.0 26
  143.0853 105.0 105
  144.08788 54.0 54
  144.66223 9.0 9
  144.85135 7.0 7
  145.04936 8.0 8
  145.06029 8.0 8
  145.06969 19.0 19
  145.0816 5.0 5
  145.10181 304.0 304
  146.10368 21.0 21
  146.11113 6.0 6
  147.07167 11.0 11
  147.07872 27.0 27
  147.08868 27.0 27
  147.11391 89.0 89
  147.12459 46.0 46
  148.08102 7.0 7
  148.10648 6.0 6
  148.12361 23.0 23
  149.02888 5.0 5
  149.04622 7.0 7
  149.06844 14.0 14
  149.0782 11.0 11
  149.09679 458.0 458
  149.11378 20.0 20
  150.08736 9.0 9
  150.09924 52.0 52
  150.11429 21.0 21
  150.12732 7.0 7
  151.0714 5.0 5
  151.11476 7.0 7
  151.21356 6.0 6
  152.11214 8.0 8
  152.14259 16.0 16
  152.15228 9.0 9
  152.87772 6.0 6
  154.08424 8.0 8
  154.09192 5.0 5
  154.13271 5.0 5
  155.08963 45.0 45
  156.0872 5.0 5
  156.09554 11.0 11
  157.04926 5.0 5
  157.07042 13.0 13
  157.10139 188.0 188
  157.11115 32.0 32
  157.28584 6.0 6
  158.10518 20.0 20
  158.11835 6.0 6
  158.9975 12.0 12
  159.06168 5.0 5
  159.07466 15.0 15
  159.08499 39.0 39
  159.11301 81.0 81
  159.12027 35.0 35
  160.1125 7.0 7
  160.11996 12.0 12
  161.09216 16.0 16
  161.13638 9.0 9
  161.24216 6.0 6
  162.08511 5.0 5
  162.12387 8.0 8
  162.13187 5.0 5
  163.08014 9.0 9
  163.10545 18.0 18
  163.11673 9.0 9
  163.14456 9.0 9
  164.03618 8.0 8
  164.15419 14.0 14
  165.1236 5.0 5
  165.15456 6.0 6
  166.07951 7.0 7
  167.07901 7.0 7
  167.08566 6.0 6
  167.09921 8.0 8
  168.08311 7.0 7
  168.09758 10.0 10
  169.06572 13.0 13
  169.07632 6.0 6
  169.09808 80.0 80
  169.11331 13.0 13
  170.10829 38.0 38
  170.11734 9.0 9
  171.07802 10.0 10
  171.0928 20.0 20
  171.11148 107.0 107
  171.12119 55.0 55
  171.12788 20.0 20
  172.11926 26.0 26
  173.08688 37.0 37
  173.10243 64.0 64
  173.1274 53.0 53
  173.1411 13.0 13
  174.10571 5.0 5
  174.119 6.0 6
  174.12793 5.0 5
  174.85612 9.0 9
  175.07925 8.0 8
  175.10834 68.0 68
  175.12163 45.0 45
  175.16028 5.0 5
  176.09904 6.0 6
  176.11217 30.0 30
  176.14053 13.0 13
  177.12968 10.0 10
  177.14131 16.0 16
  178.16904 7.0 7
  178.94484 5.0 5
  179.08058 34.0 34
  179.09071 9.0 9
  180.09821 8.0 8
  180.31946 10.0 10
  181.099 64.0 64
  181.11116 40.0 40
  182.07547 6.0 6
  182.11417 27.0 27
  183.07817 11.0 11
  183.11101 38.0 38
  183.11856 70.0 70
  183.134 20.0 20
  184.08455 17.0 17
  184.12286 29.0 29
  185.08871 13.0 13
  185.0995 32.0 32
  185.13148 15.0 15
  185.13748 44.0 44
  186.09416 6.0 6
  186.13898 6.0 6
  186.14877 8.0 8
  187.08858 17.0 17
  187.11496 114.0 114
  187.14426 17.0 17
  188.10503 6.0 6
  188.11365 8.0 8
  188.1283 11.0 11
  188.15007 6.0 6
  188.86542 9.0 9
  189.12135 21.0 21
  189.13129 28.0 28
  189.15613 7.0 7
  190.09607 7.0 7
  190.16641 5.0 5
  191.09566 18.0 18
  191.11215 6.0 6
  193.08746 14.0 14
  193.10277 23.0 23
  194.06883 8.0 8
  194.11734 5.0 5
  194.12419 7.0 7
  195.06851 20.0 20
  195.08414 8.0 8
  195.09984 7.0 7
  195.11876 55.0 55
  195.13367 11.0 11
  196.08531 17.0 17
  196.11259 5.0 5
  196.13336 17.0 17
  197.08556 12.0 12
  197.09781 32.0 32
  197.10779 13.0 13
  197.12912 53.0 53
  197.14044 5.0 5
  197.15402 15.0 15
  198.1058 47.0 47
  198.13913 40.0 40
  198.84982 7.0 7
  199.08969 7.0 7
  199.1114 31.0 31
  199.12102 23.0 23
  199.1356 7.0 7
  199.14641 34.0 34
  199.15765 48.0 48
  200.10762 7.0 7
  200.11809 7.0 7
  200.15045 6.0 6
  201.12061 30.0 30
  201.12898 42.0 42
  202.15869 7.0 7
  204.98784 10.0 10
  205.09433 11.0 11
  205.10817 7.0 7
  206.10373 13.0 13
  207.12216 26.0 26
  207.13611 8.0 8
  207.87268 5.0 5
  208.11841 6.0 6
  208.1788 7.0 7
  209.09204 5.0 5
  209.10414 8.0 8
  209.13118 69.0 69
  209.14645 52.0 52
  210.10616 8.0 8
  210.14003 8.0 8
  211.09435 6.0 6
  211.1124 46.0 46
  211.12416 6.0 6
  211.14189 33.0 33
  211.15192 25.0 25
  211.16049 26.0 26
  212.01651 6.0 6
  212.12125 6.0 6
  212.1436 29.0 29
  212.15845 7.0 7
  212.17154 11.0 11
  213.0939 7.0 7
  213.10654 11.0 11
  213.12971 78.0 78
  213.13734 29.0 29
  213.16512 11.0 11
  213.17195 7.0 7
  214.12993 10.0 10
  214.15527 5.0 5
  214.16762 5.0 5
  215.10353 5.0 5
  215.14098 10.0 10
  215.14854 10.0 10
  216.14857 5.0 5
  216.18747 6.0 6
  218.10187 6.0 6
  218.11319 8.0 8
  219.11656 33.0 33
  219.1321 11.0 11
  220.12126 28.0 28
  221.11417 6.0 6
  221.12927 12.0 12
  221.14044 25.0 25
  222.13693 8.0 8
  222.15009 26.0 26
  223.09242 7.0 7
  223.10495 6.0 6
  223.12053 7.0 7
  223.13676 6.0 6
  223.14888 32.0 32
  223.15747 11.0 11
  224.14516 5.0 5
  225.12079 12.0 12
  225.12958 6.0 6
  225.16353 26.0 26
  226.12839 7.0 7
  226.16527 6.0 6
  226.28819 6.0 6
  227.12329 5.0 5
  227.14977 30.0 30
  228.13895 6.0 6
  228.15273 26.0 26
  231.14058 7.0 7
  233.11414 5.0 5
  233.1274 19.0 19
  233.14093 37.0 37
  234.13031 6.0 6
  234.14618 8.0 8
  235.14647 67.0 67
  235.15854 16.0 16
  235.24048 6.0 6
  236.15254 14.0 14
  237.15543 53.0 53
  237.17262 22.0 22
  238.13322 6.0 6
  239.14709 45.0 45
  239.16324 20.0 20
  239.1759 13.0 13
  240.1076 8.0 8
  240.14912 9.0 9
  240.19228 8.0 8
  242.16635 9.0 9
  242.18822 5.0 5
  242.59685 7.0 7
  243.1161 7.0 7
  243.13559 6.0 6
  243.14893 8.0 8
  244.11266 16.0 16
  244.12575 9.0 9
  244.14833 6.0 6
  244.17392 6.0 6
  245.13 8.0 8
  245.13921 12.0 12
  246.11539 7.0 7
  246.12698 21.0 21
  246.145 20.0 20
  247.14395 7.0 7
  247.1559 34.0 34
  248.11751 9.0 9
  248.13852 6.0 6
  248.15649 26.0 26
  248.17943 8.0 8
  249.11964 6.0 6
  249.13408 7.0 7
  249.16339 14.0 14
  249.17615 16.0 16
  251.13904 5.0 5
  251.15175 11.0 11
  251.17787 18.0 18
  251.19261 14.0 14
  252.14177 7.0 7
  252.15344 8.0 8
  252.17354 5.0 5
  252.19055 7.0 7
  252.65591 6.0 6
  253.14777 12.0 12
  253.1631 6.0 6
  253.19363 9.0 9
  255.1203 6.0 6
  255.18275 8.0 8
  256.13702 8.0 8
  256.1683 8.0 8
  258.13907 11.0 11
  258.15607 12.0 12
  259.14856 18.0 18
  259.48502 5.0 5
  259.68933 5.0 5
  259.974 6.0 6
  260.15234 18.0 18
  261.13977 7.0 7
  261.16275 32.0 32
  262.17426 12.0 12
  262.18747 8.0 8
  263.00909 6.0 6
  263.13599 6.0 6
  263.16815 9.0 9
  263.18033 7.0 7
  264.1395 7.0 7
  264.19632 6.0 6
  265.16757 36.0 36
  265.19275 20.0 20
  265.19974 7.0 7
  266.1637 6.0 6
  267.16843 8.0 8
  268.22107 14.0 14
  269.11951 5.0 5
  269.13931 6.0 6
  269.17996 5.0 5
  269.19156 6.0 6
  270.14822 14.0 14
  270.19476 5.0 5
  270.39224 6.0 6
  271.20422 6.0 6
  272.16159 5.0 5
  273.13269 7.0 7
  273.16681 6.0 6
  274.1713 5.0 5
  274.18686 9.0 9
  275.16821 15.0 15
  275.18332 22.0 22
  275.19519 23.0 23
  276.18088 7.0 7
  276.20807 5.0 5
  277.15768 5.0 5
  277.16696 5.0 5
  277.18756 63.0 63
  277.21875 8.0 8
  278.18533 26.0 26
  278.1976 8.0 8
  278.21545 32.0 32
  279.17795 5.0 5
  279.2175 11.0 11
  280.19138 7.0 7
  280.80341 5.0 5
  281.18155 5.0 5
  283.20648 5.0 5
  284.15265 11.0 11
  284.16373 13.0 13
  284.18161 6.0 6
  284.21051 8.0 8
  285.16125 5.0 5
  287.19431 7.0 7
  288.18576 6.0 6
  289.19415 12.0 12
  290.18381 8.0 8
  290.20493 8.0 8
  292.19894 9.0 9
  293.17389 7.0 7
  293.19608 9.0 9
  295.20911 50.0 50
  296.16129 6.0 6
  297.21646 11.0 11
  298.16113 6.0 6
  298.17542 6.0 6
  298.18567 7.0 7
  299.15826 6.0 6
  299.18698 13.0 13
  302.21582 5.0 5
  303.16788 8.0 8
  303.18875 6.0 6
  303.20679 6.0 6
  303.22183 5.0 5
  304.2048 6.0 6
  310.22342 6.0 6
  311.17627 5.0 5
  312.19766 10.0 10
  313.18552 6.0 6
  314.18787 9.0 9
  314.20645 6.0 6
  317.18906 5.0 5
  319.78973 8.0 8
  322.2305 5.0 5
  331.20966 5.0 5
  331.23297 6.0 6
  333.21692 6.0 6
  333.23495 13.0 13
  339.32291 11.0 11
  340.21982 5.0 5
  345.21527 6.0 6
  352.23935 6.0 6
  355.25775 7.0 7
  361.23441 7.0 7
  362.10809 11.0 11
  363.20139 7.0 7
  375.25479 5.0 5
  376.2533 5.0 5
  376.28485 6.0 6
  377.67569 5.0 5
  380.29669 5.0 5
  391.2897 8.0 8
  394.27957 7.0 7
  408.29346 6.0 6
  408.306 9.0 9
  409.28012 5.0 5
  409.54535 8.0 8
  420.80179 6.0 6
  461.2406 5.0 5
  474.2453 6.0 6
  497.27289 5.0 5
  500.21936 6.0 6
  509.28021 6.0 6
  511.26318 13.0 13
  526.23682 6.0 6
  528.30414 6.0 6
  531.28967 6.0 6
  540.31317 11.0 11
  541.26007 6.0 6
  541.31665 8.0 8
  552.36938 5.0 5
  555.35852 7.0 7
  567.19995 7.0 7
  568.30554 6.0 6
  568.35559 8.0 8
  570.30682 8.0 8
  570.33661 7.0 7
  570.36639 26.0 26
  571.34454 16.0 16
  572.34052 8.0 8
  588.3244 8.0 8
  588.36273 99.0 99
//
