ACCESSION: MSBNK-RIKEN-PR100251
RECORD_TITLE: Puerarin; LC-ESI-QTOF; MS2; CE:Ramp 5-60 V; [M+H]+
DATE: 2016.01.19 (Created 2009.09.10, modified 2011.05.06)
AUTHORS: Matsuda F, Suzuki M, Sawada Y, Plant Science Center, RIKEN.
LICENSE: CC BY-SA
COMMENT: Acquisition and generation of the data is financially supported in part by CREST/JST.
CH$NAME: Puerarin
CH$NAME: Ddze-8-C-Glc
CH$NAME: daidzein-8-C-glucoside
CH$NAME: kakonein
CH$NAME: 8-Glucosyldaidzein
CH$NAME: 4',7-dihydroxy-8-C-glucosylisoflavone
CH$NAME: 8-(beta-D-Glucopyranosyl-7-hydroxy-3- (4-hydroxyphenyl)-4H-1-benzopyran-4-one
CH$COMPOUND_CLASS: Flavonoid
CH$FORMULA: C21H20O9
CH$EXACT_MASS: 416.11073
CH$SMILES: OC[C@H]([C@@H](O)4)O[C@H]([C@H](O)[C@@H](O)4)c(c(O)3)c(O2)c(cc3)C(=O)C(=C2)c(c1)ccc(O)c1
CH$IUPAC: InChI=1S/C21H20O9/c22-7-14-17(26)18(27)19(28)21(30-14)15-13(24)6-5-11-16(25)12(8-29-20(11)15)9-1-3-10(23)4-2-9/h1-6,8,14,17-19,21-24,26-28H,7H2/t14-,17-,18+,19-,21+/m1/s1
CH$LINK: CAS 3681-99-0
CH$LINK: CHEMSPIDER 4445119
CH$LINK: KEGG C10524
CH$LINK: KNAPSACK C00006094
CH$LINK: PUBCHEM CID:5281807
CH$LINK: INCHIKEY HKEAFJYKMMKDOR-VPRICQMDSA-N
CH$LINK: COMPTOX DTXSID30958020
AC$INSTRUMENT: UPLC Q-Tof Premier, Waters
AC$INSTRUMENT_TYPE: LC-ESI-QTOF
AC$MASS_SPECTROMETRY: MS_TYPE MS2
AC$MASS_SPECTROMETRY: ION_MODE POSITIVE
AC$MASS_SPECTROMETRY: COLLISION_ENERGY Ramp 5-60 V
AC$MASS_SPECTROMETRY: DATAFORMAT Continuum
AC$MASS_SPECTROMETRY: DESOLVATION_GAS_FLOW 600.0 L/Hr
AC$MASS_SPECTROMETRY: DESOLVATION_TEMPERATURE 400 C
AC$MASS_SPECTROMETRY: FRAGMENTATION_METHOD LOW-ENERGY CID
AC$MASS_SPECTROMETRY: IONIZATION ESI
AC$MASS_SPECTROMETRY: SOURCE_TEMPERATURE 120 C
AC$CHROMATOGRAPHY: CAPILLARY_VOLTAGE 3.0 kV
AC$CHROMATOGRAPHY: SAMPLING_CONE 23.0 V
AC$CHROMATOGRAPHY: SOLVENT A CH3CN(0.1%HCOOH)
AC$CHROMATOGRAPHY: SOLVENT B H2O(0.1%HCOOH)
MS$FOCUSED_ION: PRECURSOR_M/Z 417.11853
MS$FOCUSED_ION: PRECURSOR_TYPE [M+H]+
PK$SPLASH: splash10-014j-0094300000-4b73ac74f54128ae757c
PK$NUM_PEAK: 10
PK$PEAK: m/z int. rel.int.
  239.0742 984 438
  267.0695 1831 816
  268.0779 966.9 431
  297.0803 2243 999
  307.1005 514.1 229
  321.0810 609.5 271
  351.0912 536.8 239
  381.1027 619.3 276
  399.1123 675.9 301
  417.1185 2186 974
//
