ACCESSION: MSBNK-RIKEN-PR309428
RECORD_TITLE: Biochanin A; LC-ESI-QTOF; MS2
DATE: 2019.03.28
AUTHORS: Tetsuya Mori, Center for Sustainable Resource Science, RIKEN
LICENSE: CC BY-NC-SA
PUBLICATION: Tsugawa H., Nakabayashi R., Mori T., Yamada Y., Takahashi M., Rai A., Sugiyama R., Yamamoto H., Nakaya T., Yamazaki M., Kooke R., Bac-Molenaar JA., Oztolan-Erol N., Keurentjes JJB., Arita M., Saito K. (2019) "A cheminformatics approach to characterize metabolomes in stable-isotope-labeled organisms" Nature Methods 16(4):295-298. [doi:10.1038/s41592-019-0358-2]
COMMENT: Annotation level-1
CH$NAME: Biochanin A
CH$COMPOUND_CLASS: Isoflavone O-glycosides
CH$FORMULA: C16H12O5
CH$EXACT_MASS: 284.267
CH$SMILES: COC1=CC=C(C=C1)C1=COC2=C(C(O)=CC(O)=C2)C1=O
CH$IUPAC: InChI=1S/C16H12O5/c1-20-11-4-2-9(3-5-11)12-8-21-14-7-10(17)6-13(18)15(14)16(12)19/h2-8,17-18H,1H3
CH$LINK: INCHIKEY WUADCCWRTIWANL-UHFFFAOYSA-N
AC$INSTRUMENT: LC, Waters Acquity UPLC System; MS, Waters Xevo G2 Q-Tof
AC$INSTRUMENT_TYPE: LC-ESI-QTOF
AC$MASS_SPECTROMETRY: MS_TYPE MS2
AC$MASS_SPECTROMETRY: ION_MODE NEGATIVE
AC$MASS_SPECTROMETRY: COLLISION_ENERGY 6V
AC$MASS_SPECTROMETRY: DESOLVATION_GAS_FLOW 800/h
AC$MASS_SPECTROMETRY: DESOLVATION_TEMPERATURE 450 C
AC$MASS_SPECTROMETRY: IONIZATION ESI
AC$CHROMATOGRAPHY: CAPILLARY_VOLTAGE +3.00 kV
AC$CHROMATOGRAPHY: COLUMN_NAME Acquity bridged ethyl hybrid C18 (1.7 um, 2.1 mm * 100 mm, Waters)
AC$CHROMATOGRAPHY: COLUMN_TEMPERATURE 40 C
AC$CHROMATOGRAPHY: FLOW_GRADIENT A/B = (99.5%/0.5% at 0 min, 99.5%/0.5% at 0.1 min, 20%/80% at 10 min, 0.5%/99.5% at 10.1 min, 0.5%/99.5% at 12.0 min, 99.5%/0.5% at 12.1 min, 99.5%/0.5% at 15.0 min)
AC$CHROMATOGRAPHY: FLOW_RATE 0.3 ml/min at 0 min, 0.3 ml/min at 10 min, 0.4 ml/min at 10.1 min, 0.4 ml/min at 14.4 min, 0.3 ml/min at 14.5 min
AC$CHROMATOGRAPHY: RETENTION_TIME 7.61
AC$CHROMATOGRAPHY: SOLVENT A water including 0.1% formic acid
AC$CHROMATOGRAPHY: SOLVENT B acetonitrile including 0.1% formic acid
MS$FOCUSED_ION: PRECURSOR_TYPE [M-H]-
MS$FOCUSED_ION: PRECURSOR_M/Z 283.0612
PK$SPLASH: splash10-0159-0190000000-ba8c8a745a30c74e065e
PK$NUM_PEAK: 128
PK$PEAK: m/z int. rel.int.
  63.01993 32.0 2
  64.99887 22.0 1
  84.33158 22.0 1
  91.01841 45.0 2
  92.02186 34.0 2
  104.02243 141.0 8
  104.02713 164.0 9
  106.0385 26.0 1
  107.00497 22.0 1
  107.01385 48.0 3
  112.69342 24.0 1
  115.64176 18.0 1
  119.03597 19.0 1
  123.004 20.0 1
  128.02153 25.0 1
  130.03943 25.0 1
  132.02057 1300.0 71
  133.02048 23.0 1
  133.02753 36.0 2
  134.03729 44.0 2
  135.00676 165.0 9
  142.03401 32.0 2
  142.04684 36.0 2
  143.04616 35.0 2
  143.05403 20.0 1
  147.00314 46.0 3
  147.03642 18.0 1
  150.6868 24.0 1
  150.99763 55.0 3
  151.00374 54.0 3
  151.04761 38.0 2
  152.00278 33.0 2
  153.03047 24.0 1
  154.03447 82.0 4
  154.04353 76.0 4
  154.04944 23.0 1
  155.03638 28.0 2
  155.05263 57.0 3
  156.05051 49.0 3
  160.10135 24.0 1
  163.5079 19.0 1
  164.00392 21.0 1
  167.05019 595.0 33
  169.02579 27.0 1
  169.05157 25.0 1
  170.04263 36.0 2
  171.03641 23.0 1
  172.05032 21.0 1
  173.18196 20.0 1
  179.04904 178.0 10
  180.05074 20.0 1
  180.06358 24.0 1
  180.65549 30.0 2
  182.03177 67.0 4
  183.04398 369.0 20
  184.04962 348.0 19
  184.98135 18.0 1
  185.02745 21.0 1
  185.06215 21.0 1
  192.10837 26.0 1
  194.0314 46.0 3
  195.04387 796.0 44
  195.07748 28.0 2
  195.75984 20.0 1
  196.04921 327.0 18
  196.43712 23.0 1
  197.02859 19.0 1
  197.05128 44.0 2
  198.03659 141.0 8
  199.03183 39.0 2
  201.17603 22.0 1
  204.54411 37.0 2
  210.03055 223.0 12
  210.57585 20.0 1
  211.03838 2365.0 129
  212.03816 424.0 23
  212.04829 566.0 31
  213.04573 40.0 2
  214.05345 58.0 3
  221.01927 20.0 1
  222.01929 24.0 1
  222.03531 81.0 4
  223.03572 782.0 43
  224.04352 704.0 39
  224.42229 18.0 1
  224.67802 27.0 1
  225.01341 18.0 1
  225.0399 25.0 1
  225.04796 24.0 1
  225.24089 18.0 1
  226.02522 395.0 22
  226.06213 22.0 1
  227.03499 21.0 1
  231.28864 29.0 2
  233.58055 20.0 1
  238.96169 28.0 2
  239.0336 2526.0 138
  239.07654 20.0 1
  239.32422 20.0 1
  240.03931 976.0 53
  241.03424 49.0 3
  241.04999 65.0 4
  241.44556 22.0 1
  241.92136 24.0 1
  243.86374 20.0 1
  250.02791 72.0 4
  251.0327 18.0 1
  251.19016 40.0 2
  256.05307 27.0 1
  267.02805 3033.0 166
  267.93381 24.0 1
  268.03552 15380.0 842
  268.08124 19.0 1
  268.12253 18.0 1
  268.65839 19.0 1
  269.0408 2474.0 135
  269.1499 18.0 1
  270.0264 26.0 1
  270.04407 252.0 14
  271.02649 18.0 1
  271.05231 46.0 3
  274.58209 33.0 2
  280.72333 20.0 1
  283.01364 20.0 1
  283.05887 18254.0 999
  283.0881 18.0 1
  283.10477 185.0 10
  283.14517 18.0 1
//
