ACCESSION: MSBNK-RIKEN-PR300142
RECORD_TITLE: Hirsutine; LC-ESI-QTOF; MS2
DATE: 2019.03.28
AUTHORS: Tetsuya Mori, Center for Sustainable Resource Science, RIKEN
LICENSE: CC BY-NC-SA
PUBLICATION: Tsugawa H., Nakabayashi R., Mori T., Yamada Y., Takahashi M., Rai A., Sugiyama R., Yamamoto H., Nakaya T., Yamazaki M., Kooke R., Bac-Molenaar JA., Oztolan-Erol N., Keurentjes JJB., Arita M., Saito K. (2019) "A cheminformatics approach to characterize metabolomes in stable-isotope-labeled organisms" Nature Methods 16(4):295-298. [doi:10.1038/s41592-019-0358-2]
COMMENT: registered in RIKEN PlaSMA
CH$NAME: Hirsutine
CH$COMPOUND_CLASS: Corynanthean-type alkaloids
CH$FORMULA: C22H28N2O3
CH$EXACT_MASS: 368.477
CH$SMILES: CC[C@H]1CN2CCC3=C(NC4=CC=CC=C34)[C@H]2C[C@@H]1\C(=C/OC)C(=O)OC
CH$IUPAC: InChI=1S/C22H28N2O3/c1-4-14-12-24-10-9-16-15-7-5-6-8-19(15)23-21(16)20(24)11-17(14)18(13-26-2)22(25)27-3/h5-8,13-14,17,20,23H,4,9-12H2,1-3H3/b18-13+/t14-,17-,20+/m0/s1
CH$LINK: INCHIKEY NMLUOJBSAYAYEM-AZQGJTAVSA-N
AC$INSTRUMENT: LC, Waters Acquity UPLC System; MS, Waters Xevo G2 Q-Tof
AC$INSTRUMENT_TYPE: LC-ESI-QTOF
AC$MASS_SPECTROMETRY: MS_TYPE MS2
AC$MASS_SPECTROMETRY: ION_MODE POSITIVE
AC$MASS_SPECTROMETRY: COLLISION_ENERGY 6V
AC$MASS_SPECTROMETRY: DESOLVATION_GAS_FLOW 800/h
AC$MASS_SPECTROMETRY: DESOLVATION_TEMPERATURE 450 C
AC$MASS_SPECTROMETRY: IONIZATION ESI
AC$CHROMATOGRAPHY: CAPILLARY_VOLTAGE +3.00 kV
AC$CHROMATOGRAPHY: COLUMN_NAME Acquity bridged ethyl hybrid C18 (1.7 um, 2.1 mm * 100 mm, Waters)
AC$CHROMATOGRAPHY: COLUMN_TEMPERATURE 40 C
AC$CHROMATOGRAPHY: FLOW_GRADIENT A/B = (99.5%/0.5% at 0 min, 99.5%/0.5% at 0.1 min, 20%/80% at 10 min, 0.5%/99.5% at 10.1 min, 0.5%/99.5% at 12.0 min, 99.5%/0.5% at 12.1 min, 99.5%/0.5% at 15.0 min)
AC$CHROMATOGRAPHY: FLOW_RATE 0.3 ml/min at 0 min, 0.3 ml/min at 10 min, 0.4 ml/min at 10.1 min, 0.4 ml/min at 14.4 min, 0.3 ml/min at 14.5 min
AC$CHROMATOGRAPHY: RETENTION_TIME 5.850083
AC$CHROMATOGRAPHY: SOLVENT A water including 0.1% formic acid
AC$CHROMATOGRAPHY: SOLVENT B acetonitrile including 0.1% formic acid
MS$FOCUSED_ION: PRECURSOR_TYPE [M+H]+
MS$FOCUSED_ION: PRECURSOR_M/Z 369.2172692
PK$SPLASH: splash10-014i-0219000000-1d9ea9eb6419dd53082d
PK$NUM_PEAK: 28
PK$PEAK: m/z int. rel.int.
  110.09436 14.0 14
  129.05428 10.0 10
  130.06326 7.0 7
  144.08005 120.0 120
  145.08424 18.0 18
  158.09494 11.0 11
  158.10098 5.0 5
  166.08546 9.0 9
  170.0959 35.0 35
  171.1008 14.0 14
  172.10728 6.0 6
  182.09593 6.0 6
  194.11893 7.0 7
  199.12274 6.0 6
  226.14378 44.0 44
  227.14864 11.0 11
  236.14006 7.0 7
  238.14465 33.0 33
  239.14632 6.0 6
  251.15625 11.0 11
  253.16998 8.0 8
  266.11615 6.0 6
  298.14572 14.0 14
  337.18817 16.0 16
  352.189 6.0 6
  369.16705 6.0 6
  369.21716 1000.0 999
  369.27301 31.0 31
//
