ACCESSION: MSBNK-RIKEN-PR304819
RECORD_TITLE: Kainic acid; LC-ESI-QTOF; MS2
DATE: 2019.03.28
AUTHORS: Tetsuya Mori, Center for Sustainable Resource Science, RIKEN
LICENSE: CC BY-NC-SA
PUBLICATION: Tsugawa H., Nakabayashi R., Mori T., Yamada Y., Takahashi M., Rai A., Sugiyama R., Yamamoto H., Nakaya T., Yamazaki M., Kooke R., Bac-Molenaar JA., Oztolan-Erol N., Keurentjes JJB., Arita M., Saito K. (2019) "A cheminformatics approach to characterize metabolomes in stable-isotope-labeled organisms" Nature Methods 16(4):295-298. [doi:10.1038/s41592-019-0358-2]
COMMENT: registered in RIKEN PlaSMA
CH$NAME: Kainic acid
CH$COMPOUND_CLASS: Kainoids
CH$FORMULA: C10H15NO4
CH$EXACT_MASS: 213.233
CH$SMILES: CC(=C)C1CNC(C1CC(O)=O)C(O)=O
CH$IUPAC: InChI=1S/C10H15NO4/c1-5(2)7-4-11-9(10(14)15)6(7)3-8(12)13/h6-7,9,11H,1,3-4H2,2H3,(H,12,13)(H,14,15)
CH$LINK: INCHIKEY VLSMHEGGTFMBBZ-UHFFFAOYSA-N
AC$INSTRUMENT: LC, Waters Acquity UPLC System; MS, Waters Xevo G2 Q-Tof
AC$INSTRUMENT_TYPE: LC-ESI-QTOF
AC$MASS_SPECTROMETRY: MS_TYPE MS2
AC$MASS_SPECTROMETRY: ION_MODE NEGATIVE
AC$MASS_SPECTROMETRY: COLLISION_ENERGY 6V
AC$MASS_SPECTROMETRY: DESOLVATION_GAS_FLOW 800/h
AC$MASS_SPECTROMETRY: DESOLVATION_TEMPERATURE 450 C
AC$MASS_SPECTROMETRY: IONIZATION ESI
AC$CHROMATOGRAPHY: CAPILLARY_VOLTAGE -2.75 kV
AC$CHROMATOGRAPHY: COLUMN_NAME Acquity bridged ethyl hybrid C18 (1.7 um, 2.1 mm * 100 mm, Waters)
AC$CHROMATOGRAPHY: COLUMN_TEMPERATURE 40 C
AC$CHROMATOGRAPHY: FLOW_GRADIENT A/B = (99.5%/0.5% at 0 min, 99.5%/0.5% at 0.1 min, 20%/80% at 10 min, 0.5%/99.5% at 10.1 min, 0.5%/99.5% at 12.0 min, 99.5%/0.5% at 12.1 min, 99.5%/0.5% at 15.0 min)
AC$CHROMATOGRAPHY: FLOW_RATE 0.3 ml/min at 0 min, 0.3 ml/min at 10 min, 0.4 ml/min at 10.1 min, 0.4 ml/min at 14.4 min, 0.3 ml/min at 14.5 min
AC$CHROMATOGRAPHY: RETENTION_TIME 2.445
AC$CHROMATOGRAPHY: SOLVENT A water including 0.1% formic acid
AC$CHROMATOGRAPHY: SOLVENT B acetonitrile including 0.1% formic acid
MS$FOCUSED_ION: PRECURSOR_TYPE [M-H]-
MS$FOCUSED_ION: PRECURSOR_M/Z 212.09283154783
PK$SPLASH: splash10-02t9-0940000000-093c7343d5af587c5fe5
PK$NUM_PEAK: 39
PK$PEAK: m/z int. rel.int.
  74.02417 9.0 9
  78.03527 8.0 8
  80.0526 8.0 8
  82.0255 32.0 32
  82.02923 80.0 80
  86.02066 13.0 13
  86.02546 8.0 8
  93.03419 10.0 10
  94.02573 10.0 10
  95.03842 10.0 10
  106.06613 126.0 126
  107.04618 10.0 10
  108.04012 8.0 8
  108.07993 8.0 8
  120.08539 15.0 15
  122.10046 10.0 10
  126.01337 13.0 13
  130.06021 18.0 18
  132.08134 88.0 88
  135.0708 8.0 8
  148.07475 34.0 34
  150.05043 10.0 10
  150.088 90.0 90
  150.099 53.0 53
  150.98911 8.0 8
  151.09366 8.0 8
  167.09418 16.0 16
  168.06277 15.0 15
  168.10298 1000.0 999
  168.26984 8.0 8
  168.52045 10.0 10
  169.10582 61.0 61
  169.11552 21.0 21
  169.26645 9.0 9
  181.02504 9.0 9
  194.08113 192.0 192
  195.09277 15.0 15
  196.08389 8.0 8
  212.09315 956.0 955
//
