ACCESSION: MSBNK-RIKEN-PR300454
RECORD_TITLE: Speciofiline; LC-ESI-QTOF; MS2
DATE: 2019.03.28
AUTHORS: Tetsuya Mori, Center for Sustainable Resource Science, RIKEN
LICENSE: CC BY-NC-SA
PUBLICATION: Tsugawa H., Nakabayashi R., Mori T., Yamada Y., Takahashi M., Rai A., Sugiyama R., Yamamoto H., Nakaya T., Yamazaki M., Kooke R., Bac-Molenaar JA., Oztolan-Erol N., Keurentjes JJB., Arita M., Saito K. (2019) "A cheminformatics approach to characterize metabolomes in stable-isotope-labeled organisms" Nature Methods 16(4):295-298. [doi:10.1038/s41592-019-0358-2]
COMMENT: registered in RIKEN PlaSMA
CH$NAME: Speciofiline
CH$COMPOUND_CLASS: Indolizidines
CH$FORMULA: C21H24N2O4
CH$EXACT_MASS: 368.433
CH$SMILES: COC(=O)C1=CO[C@@H](C)[C@@H]2CN3CC[C@@]4([C@H]3C[C@H]12)C(O)=NC1=CC=CC=C41
CH$IUPAC: InChI=1S/C21H24N2O4/c1-12-14-10-23-8-7-21(16-5-3-4-6-17(16)22-20(21)25)18(23)9-13(14)15(11-27-12)19(24)26-2/h3-6,11-14,18H,7-10H2,1-2H3,(H,22,25)/t12-,13-,14-,18+,21+/m0/s1
CH$LINK: INCHIKEY JMIAZDVHNCCPDM-PMJXBNNDSA-N
AC$INSTRUMENT: LC, Waters Acquity UPLC System; MS, Waters Xevo G2 Q-Tof
AC$INSTRUMENT_TYPE: LC-ESI-QTOF
AC$MASS_SPECTROMETRY: MS_TYPE MS2
AC$MASS_SPECTROMETRY: ION_MODE POSITIVE
AC$MASS_SPECTROMETRY: COLLISION_ENERGY 6V
AC$MASS_SPECTROMETRY: DESOLVATION_GAS_FLOW 800/h
AC$MASS_SPECTROMETRY: DESOLVATION_TEMPERATURE 450 C
AC$MASS_SPECTROMETRY: IONIZATION ESI
AC$CHROMATOGRAPHY: CAPILLARY_VOLTAGE +3.00 kV
AC$CHROMATOGRAPHY: COLUMN_NAME Acquity bridged ethyl hybrid C18 (1.7 um, 2.1 mm * 100 mm, Waters)
AC$CHROMATOGRAPHY: COLUMN_TEMPERATURE 40 C
AC$CHROMATOGRAPHY: FLOW_GRADIENT A/B = (99.5%/0.5% at 0 min, 99.5%/0.5% at 0.1 min, 20%/80% at 10 min, 0.5%/99.5% at 10.1 min, 0.5%/99.5% at 12.0 min, 99.5%/0.5% at 12.1 min, 99.5%/0.5% at 15.0 min)
AC$CHROMATOGRAPHY: FLOW_RATE 0.3 ml/min at 0 min, 0.3 ml/min at 10 min, 0.4 ml/min at 10.1 min, 0.4 ml/min at 14.4 min, 0.3 ml/min at 14.5 min
AC$CHROMATOGRAPHY: RETENTION_TIME 4.094467
AC$CHROMATOGRAPHY: SOLVENT A water including 0.1% formic acid
AC$CHROMATOGRAPHY: SOLVENT B acetonitrile including 0.1% formic acid
MS$FOCUSED_ION: PRECURSOR_TYPE [M+H]+
MS$FOCUSED_ION: PRECURSOR_M/Z 369.1808837
PK$SPLASH: splash10-00lu-0900000000-571268d2c0fb4ab28f72
PK$NUM_PEAK: 241
PK$PEAK: m/z int. rel.int.
  55.05182 14.0 14
  56.04974 16.0 16
  56.06277 8.0 8
  68.02341 7.0 7
  68.05014 6.0 6
  68.05493 6.0 6
  70.05949 9.0 9
  70.06804 9.0 9
  77.04343 5.0 5
  78.03156 12.0 12
  78.03912 12.0 12
  79.05247 6.0 6
  79.05589 13.0 13
  80.01775 5.0 5
  80.04675 18.0 18
  80.05223 17.0 17
  81.05472 6.0 6
  81.07018 14.0 14
  82.06537 17.0 17
  83.01385 19.0 19
  83.04904 10.0 10
  84.92718 7.0 7
  87.04298 5.0 5
  87.04756 6.0 6
  91.0547 51.0 51
  92.04865 9.0 9
  93.02898 6.0 6
  93.05845 9.0 9
  94.06498 18.0 18
  94.07336 7.0 7
  96.08047 11.0 11
  103.04567 11.0 11
  103.05608 20.0 20
  104.02784 6.0 6
  104.05104 29.0 29
  105.05168 5.0 5
  105.06696 11.0 11
  105.07452 23.0 23
  105.11691 10.0 10
  106.03291 8.0 8
  106.06618 24.0 24
  107.04898 7.0 7
  108.03941 19.0 19
  108.04532 23.0 23
  108.08028 49.0 49
  108.08575 25.0 25
  109.03967 9.0 9
  109.05218 55.0 55
  110.03505 7.0 7
  110.0596 16.0 16
  111.04631 15.0 15
  115.02862 8.0 8
  115.05488 515.0 514
  116.05239 134.0 134
  117.05748 456.0 456
  117.07214 16.0 16
  117.19329 7.0 7
  118.04924 7.0 7
  118.06567 281.0 281
  119.04967 9.0 9
  119.06986 20.0 20
  120.04968 17.0 17
  120.08149 15.0 15
  121.06493 11.0 11
  122.01785 5.0 5
  122.02491 29.0 29
  122.09782 23.0 23
  123.02808 10.0 10
  124.03265 31.0 31
  124.04084 100.0 100
  125.04227 11.0 11
  126.05381 8.0 8
  127.05387 42.0 42
  128.04921 105.0 105
  129.0495 7.0 7
  129.07024 7.0 7
  130.06131 145.0 145
  130.06703 446.0 446
  131.0553 8.0 8
  131.06078 25.0 25
  131.07182 52.0 52
  132.00833 9.0 9
  132.04506 684.0 683
  132.06042 39.0 39
  132.08122 953.0 952
  132.16983 6.0 6
  133.04344 30.0 30
  133.05017 38.0 38
  133.07959 52.0 52
  133.0854 61.0 61
  134.05838 18.0 18
  135.04288 6.0 6
  136.04417 6.0 6
  137.05453 6.0 6
  137.0601 6.0 6
  138.06155 19.0 19
  139.03967 53.0 53
  139.05435 7.0 7
  140.04277 16.0 16
  140.05148 81.0 81
  141.05676 17.0 17
  141.07454 8.0 8
  142.0654 1000.0 999
  143.06622 44.0 44
  143.07228 81.0 81
  143.59108 5.0 5
  144.04665 75.0 75
  144.05693 16.0 16
  144.08214 149.0 149
  145.04552 17.0 17
  145.05286 29.0 29
  145.08733 11.0 11
  146.05981 46.0 46
  150.08714 6.0 6
  150.09474 7.0 7
  152.04959 19.0 19
  152.06866 8.0 8
  153.0553 10.0 10
  154.05713 19.0 19
  154.06599 74.0 74
  155.0685 28.0 28
  156.04564 25.0 25
  156.08875 12.0 12
  157.0529 9.0 9
  157.08931 14.0 14
  158.04599 8.0 8
  158.05977 178.0 178
  158.07451 7.0 7
  158.09363 15.0 15
  158.10161 14.0 14
  159.06773 104.0 104
  159.07492 35.0 35
  159.0869 11.0 11
  159.09659 23.0 23
  159.11319 10.0 10
  160.05431 8.0 8
  160.07645 786.0 785
  161.07072 20.0 20
  161.08063 72.0 72
  162.08394 6.0 6
  165.0603 5.0 5
  165.07347 9.0 9
  166.06534 50.0 50
  166.30096 6.0 6
  167.05862 39.0 39
  167.07159 121.0 121
  168.07236 26.0 26
  168.08266 17.0 17
  168.08961 17.0 17
  169.06375 5.0 5
  169.07767 46.0 46
  169.08864 8.0 8
  170.05676 19.0 19
  170.08228 12.0 12
  170.09573 10.0 10
  172.07515 84.0 84
  172.10323 7.0 7
  172.12367 6.0 6
  173.06125 8.0 8
  173.07213 18.0 18
  173.08173 19.0 19
  174.0925 12.0 12
  174.10785 9.0 9
  178.05759 5.0 5
  178.08969 25.0 25
  180.06404 9.0 9
  180.084 7.0 7
  182.09241 15.0 15
  183.06467 7.0 7
  183.08917 15.0 15
  184.07663 14.0 14
  185.07359 32.0 32
  186.07834 22.0 22
  186.08932 37.0 37
  187.0826 108.0 108
  187.0938 76.0 76
  188.08884 23.0 23
  192.07898 10.0 10
  193.08449 28.0 28
  194.09709 6.0 6
  195.06511 7.0 7
  195.08905 6.0 6
  196.07727 10.0 10
  197.07185 13.0 13
  198.08961 8.0 8
  198.11546 6.0 6
  199.08237 14.0 14
  201.10248 35.0 35
  201.11401 10.0 10
  204.07524 10.0 10
  206.08284 5.0 5
  206.09377 14.0 14
  206.10292 6.0 6
  207.06476 6.0 6
  207.09859 7.0 7
  208.08253 17.0 17
  209.07076 7.0 7
  209.07947 6.0 6
  209.09084 9.0 9
  209.12137 7.0 7
  210.04961 7.0 7
  210.05902 9.0 9
  210.07675 19.0 19
  210.10176 6.0 6
  211.12573 12.0 12
  213.10074 25.0 25
  213.10936 17.0 17
  214.10779 6.0 6
  214.74547 6.0 6
  216.06898 6.0 6
  217.07492 6.0 6
  218.07068 6.0 6
  218.08417 6.0 6
  218.09358 7.0 7
  222.08588 9.0 9
  223.09418 15.0 15
  224.0629 6.0 6
  225.06798 13.0 13
  226.09807 8.0 8
  234.09343 6.0 6
  235.07721 11.0 11
  235.08859 12.0 12
  236.06892 15.0 15
  237.08331 7.0 7
  237.10486 13.0 13
  238.09396 9.0 9
  238.11359 10.0 10
  245.07419 8.0 8
  251.08167 15.0 15
  253.09557 8.0 8
  261.15485 6.0 6
  265.09756 28.0 28
  266.09821 9.0 9
  279.07852 15.0 15
  279.08847 25.0 25
  280.07742 6.0 6
  281.08725 9.0 9
  282.08713 6.0 6
  285.2775 6.0 6
  349.93097 6.0 6
  363.23608 6.0 6
//
