ACCESSION: MSBNK-RIKEN-PR310973
RECORD_TITLE: Flavone base + 3O, 2MeO, O-HexA-CoumaroylHex; LC-ESI-QTOF; MS2
DATE: 2019.03.28
AUTHORS: Tetsuya Mori, Center for Sustainable Resource Science, RIKEN
LICENSE: CC BY-NC-SA
PUBLICATION: Tsugawa H., Nakabayashi R., Mori T., Yamada Y., Takahashi M., Rai A., Sugiyama R., Yamamoto H., Nakaya T., Yamazaki M., Kooke R., Bac-Molenaar JA., Oztolan-Erol N., Keurentjes JJB., Arita M., Saito K. (2019) "A cheminformatics approach to characterize metabolomes in stable-isotope-labeled organisms" Nature Methods 16(4):295-298. [doi:10.1038/s41592-019-0358-2]
COMMENT: Annotation level-3
CH$NAME: Flavone base + 3O, 2MeO, O-HexA-CoumaroylHex
CH$COMPOUND_CLASS: Flavone O-glycosides
CH$FORMULA: C38H38O20
CH$EXACT_MASS: 814.702
CH$SMILES: COC1=CC(=CC(OC)=C1O)C1=CC(=O)C2=C(O)C=C(OC3OC(C(O)C(O)C3OC3OC(COC(=O)\C=C\C4=CC=C(O)C=C4)C(O)C(O)C3O)C(O)=O)C=C2O1
CH$IUPAC: InChI=1S/C38H38O20/c1-51-23-9-16(10-24(52-2)28(23)43)21-13-20(41)27-19(40)11-18(12-22(27)55-21)54-38-35(32(47)31(46)34(57-38)36(49)50)58-37-33(48)30(45)29(44)25(56-37)14-53-26(42)8-5-15-3-6-17(39)7-4-15/h3-13,25,29-35,37-40,43-48H,14H2,1-2H3,(H,49,50)/b8-5+
CH$LINK: INCHIKEY BGFPUQODHQFMFB-VMPITWQZSA-N
AC$INSTRUMENT: LC, Waters Acquity UPLC System; MS, Waters Xevo G2 Q-Tof
AC$INSTRUMENT_TYPE: LC-ESI-QTOF
AC$MASS_SPECTROMETRY: MS_TYPE MS2
AC$MASS_SPECTROMETRY: ION_MODE POSITIVE
AC$MASS_SPECTROMETRY: COLLISION_ENERGY 6V
AC$MASS_SPECTROMETRY: DESOLVATION_GAS_FLOW 800/h
AC$MASS_SPECTROMETRY: DESOLVATION_TEMPERATURE 450 C
AC$MASS_SPECTROMETRY: IONIZATION ESI
AC$CHROMATOGRAPHY: CAPILLARY_VOLTAGE +3.00 kV
AC$CHROMATOGRAPHY: COLUMN_NAME Acquity bridged ethyl hybrid C18 (1.7 um, 2.1 mm * 100 mm, Waters)
AC$CHROMATOGRAPHY: COLUMN_TEMPERATURE 40 C
AC$CHROMATOGRAPHY: FLOW_GRADIENT A/B = (99.5%/0.5% at 0 min, 99.5%/0.5% at 0.1 min, 20%/80% at 10 min, 0.5%/99.5% at 10.1 min, 0.5%/99.5% at 12.0 min, 99.5%/0.5% at 12.1 min, 99.5%/0.5% at 15.0 min)
AC$CHROMATOGRAPHY: FLOW_RATE 0.3 ml/min at 0 min, 0.3 ml/min at 10 min, 0.4 ml/min at 10.1 min, 0.4 ml/min at 14.4 min, 0.3 ml/min at 14.5 min
AC$CHROMATOGRAPHY: RETENTION_TIME 4.9
AC$CHROMATOGRAPHY: SOLVENT A water including 0.1% formic acid
AC$CHROMATOGRAPHY: SOLVENT B acetonitrile including 0.1% formic acid
MS$FOCUSED_ION: PRECURSOR_TYPE [M+H]+
MS$FOCUSED_ION: PRECURSOR_M/Z 815.2009
PK$SPLASH: splash10-001i-0129030020-2eee792d5dbdffb76649
PK$NUM_PEAK: 10
PK$PEAK: m/z int. rel.int.
  177.05972 39.0 225
  245.07498 24.0 139
  291.08551 35.0 202
  309.09152 19.0 110
  315.0527 16.0 92
  331.08704 173.0 999
  383.07465 20.0 115
  507.11514 61.0 352
  539.19293 19.0 110
  815.21399 59.0 341
//
