ACCESSION: MSBNK-RIKEN-PR302853
RECORD_TITLE: Formononetin; LC-ESI-QTOF; MS2
DATE: 2019.03.28
AUTHORS: Tetsuya Mori, Center for Sustainable Resource Science, RIKEN
LICENSE: CC BY-NC-SA
PUBLICATION: Tsugawa H., Nakabayashi R., Mori T., Yamada Y., Takahashi M., Rai A., Sugiyama R., Yamamoto H., Nakaya T., Yamazaki M., Kooke R., Bac-Molenaar JA., Oztolan-Erol N., Keurentjes JJB., Arita M., Saito K. (2019) "A cheminformatics approach to characterize metabolomes in stable-isotope-labeled organisms" Nature Methods 16(4):295-298. [doi:10.1038/s41592-019-0358-2]
COMMENT: registered in RIKEN PlaSMA
CH$NAME: Formononetin
CH$COMPOUND_CLASS: 4'-O-methylisoflavones
CH$FORMULA: C16H12O4
CH$EXACT_MASS: 268.268
CH$SMILES: COC1=CC=C(C=C1)C1=COC2=C(C=CC(O)=C2)C1=O
CH$IUPAC: InChI=1S/C16H12O4/c1-19-12-5-2-10(3-6-12)14-9-20-15-8-11(17)4-7-13(15)16(14)18/h2-9,17H,1H3
CH$LINK: INCHIKEY HKQYGTCOTHHOMP-UHFFFAOYSA-N
AC$INSTRUMENT: LC, Waters Acquity UPLC System; MS, Waters Xevo G2 Q-Tof
AC$INSTRUMENT_TYPE: LC-ESI-QTOF
AC$MASS_SPECTROMETRY: MS_TYPE MS2
AC$MASS_SPECTROMETRY: ION_MODE POSITIVE
AC$MASS_SPECTROMETRY: COLLISION_ENERGY 6V
AC$MASS_SPECTROMETRY: DESOLVATION_GAS_FLOW 800/h
AC$MASS_SPECTROMETRY: DESOLVATION_TEMPERATURE 450 C
AC$MASS_SPECTROMETRY: IONIZATION ESI
AC$CHROMATOGRAPHY: CAPILLARY_VOLTAGE +3.00 kV
AC$CHROMATOGRAPHY: COLUMN_NAME Acquity bridged ethyl hybrid C18 (1.7 um, 2.1 mm * 100 mm, Waters)
AC$CHROMATOGRAPHY: COLUMN_TEMPERATURE 40 C
AC$CHROMATOGRAPHY: FLOW_GRADIENT A/B = (99.5%/0.5% at 0 min, 99.5%/0.5% at 0.1 min, 20%/80% at 10 min, 0.5%/99.5% at 10.1 min, 0.5%/99.5% at 12.0 min, 99.5%/0.5% at 12.1 min, 99.5%/0.5% at 15.0 min)
AC$CHROMATOGRAPHY: FLOW_RATE 0.3 ml/min at 0 min, 0.3 ml/min at 10 min, 0.4 ml/min at 10.1 min, 0.4 ml/min at 14.4 min, 0.3 ml/min at 14.5 min
AC$CHROMATOGRAPHY: RETENTION_TIME 6.685184
AC$CHROMATOGRAPHY: SOLVENT A water including 0.1% formic acid
AC$CHROMATOGRAPHY: SOLVENT B acetonitrile including 0.1% formic acid
MS$FOCUSED_ION: PRECURSOR_TYPE [M+H]+
MS$FOCUSED_ION: PRECURSOR_M/Z 269.0808353
PK$SPLASH: splash10-0v0a-0890000000-d7f50d36c4c3fd3f01bb
PK$NUM_PEAK: 154
PK$PEAK: m/z int. rel.int.
  65.04121 5.0 5
  68.99741 5.0 5
  79.05573 11.0 11
  90.04527 20.0 20
  90.05277 5.0 5
  91.05946 5.0 5
  105.03667 12.0 12
  105.06701 15.0 15
  105.07232 13.0 13
  106.07384 6.0 6
  107.03556 8.0 8
  107.04856 128.0 128
  107.06464 5.0 5
  108.01326 13.0 13
  108.02017 47.0 47
  108.04923 5.0 5
  115.04979 6.0 6
  118.02596 20.0 20
  118.04067 375.0 375
  119.02464 7.0 7
  119.0456 39.0 39
  120.01726 11.0 11
  121.0265 15.0 15
  123.03985 6.0 6
  124.04673 6.0 6
  127.05181 6.0 6
  128.06119 12.0 12
  129.06186 9.0 9
  129.07224 32.0 32
  130.07314 20.0 20
  132.01723 5.0 5
  132.05742 12.0 12
  132.06354 7.0 7
  133.01923 8.0 8
  133.03046 32.0 32
  133.05498 14.0 14
  133.06615 79.0 79
  134.07188 7.0 7
  135.04436 11.0 11
  135.05463 6.0 6
  135.9903 6.0 6
  136.0152 225.0 225
  136.67177 5.0 5
  137.02223 229.0 229
  138.02187 18.0 18
  138.03036 17.0 17
  141.06859 34.0 34
  141.07829 7.0 7
  142.04356 6.0 6
  142.07143 8.0 8
  145.06015 7.0 7
  145.06885 12.0 12
  147.04491 8.0 8
  151.05438 9.0 9
  152.05049 7.0 7
  152.06297 97.0 97
  153.06946 98.0 98
  154.07289 17.0 17
  156.04108 11.0 11
  156.05759 152.0 152
  157.05556 22.0 22
  157.06525 40.0 40
  157.07454 7.0 7
  158.06885 29.0 29
  158.07742 28.0 28
  159.07759 21.0 21
  163.03796 53.0 53
  165.07104 82.0 82
  166.07132 11.0 11
  167.09277 5.0 5
  168.05212 7.0 7
  169.06566 92.0 92
  170.03705 7.0 7
  170.07199 225.0 225
  171.0435 5.0 5
  171.07257 23.0 23
  171.08025 38.0 38
  172.05457 7.0 7
  176.05147 8.0 8
  180.0542 19.0 19
  180.06288 20.0 20
  181.04936 16.0 16
  181.0648 303.0 303
  182.06578 69.0 69
  182.07536 129.0 129
  183.0321 6.0 6
  183.0475 6.0 6
  183.06638 11.0 11
  183.07584 40.0 40
  184.05124 36.0 36
  185.05975 15.0 15
  185.08899 12.0 12
  186.06128 18.0 18
  193.05696 8.0 8
  195.08084 64.0 64
  196.05038 34.0 34
  196.06203 24.0 24
  196.0869 12.0 12
  196.09743 9.0 9
  197.01665 7.0 7
  197.02797 12.0 12
  197.05992 878.0 877
  197.09628 6.0 6
  198.0322 7.0 7
  198.06622 505.0 504
  199.0554 11.0 11
  199.07072 76.0 76
  200.04863 44.0 44
  200.07053 5.0 5
  201.05614 7.0 7
  202.05464 5.0 5
  202.98952 5.0 5
  208.03531 13.0 13
  208.05278 8.0 8
  209.05042 15.0 15
  209.0593 60.0 60
  210.06631 8.0 8
  210.07338 7.0 7
  211.07376 18.0 18
  212.03841 6.0 6
  212.07236 14.0 14
  212.08371 7.0 7
  213.09085 559.0 558
  213.10861 18.0 18
  214.09401 93.0 93
  215.09813 7.0 7
  224.05463 6.0 6
  224.91251 7.0 7
  225.03276 17.0 17
  225.05447 391.0 391
  226.02425 5.0 5
  226.06258 867.0 866
  227.0665 117.0 117
  228.0654 25.0 25
  228.08083 6.0 6
  236.04196 13.0 13
  237.00922 9.0 9
  237.02115 11.0 11
  237.05435 857.0 856
  238.05937 131.0 131
  239.05344 5.0 5
  239.06526 8.0 8
  241.08447 14.0 14
  243.77731 5.0 5
  252.68367 7.0 7
  253.01895 44.0 44
  253.05106 1000.0 999
  254.05659 590.0 589
  255.03221 6.0 6
  255.06044 64.0 64
  256.04639 5.0 5
  256.0658 14.0 14
  269.05231 12.0 12
  269.08102 450.0 450
//
