ACCESSION: MSBNK-RIKEN-PR305993
RECORD_TITLE: Cyanidin-3-O-glucoside; LC-ESI-QTOF; MS2
DATE: 2019.03.28
AUTHORS: Tetsuya Mori, Center for Sustainable Resource Science, RIKEN
LICENSE: CC BY-NC-SA
PUBLICATION: Tsugawa H., Nakabayashi R., Mori T., Yamada Y., Takahashi M., Rai A., Sugiyama R., Yamamoto H., Nakaya T., Yamazaki M., Kooke R., Bac-Molenaar JA., Oztolan-Erol N., Keurentjes JJB., Arita M., Saito K. (2019) "A cheminformatics approach to characterize metabolomes in stable-isotope-labeled organisms" Nature Methods 16(4):295-298. [doi:10.1038/s41592-019-0358-2]
COMMENT: registered in RIKEN PlaSMA
CH$NAME: Cyanidin-3-O-glucoside
CH$COMPOUND_CLASS: Anthocyanidin-3-O-glycosides
CH$FORMULA: [C21H21O11]+
CH$EXACT_MASS: 449.388
CH$SMILES: OCC1OC(OC2=C([O+]=C3C=C(O)C=C(O)C3=C2)C2=CC(O)=C(O)C=C2)C(O)C(O)C1O
CH$IUPAC: InChI=1S/C21H20O11/c22-7-16-17(27)18(28)19(29)21(32-16)31-15-6-10-12(25)4-9(23)5-14(10)30-20(15)8-1-2-11(24)13(26)3-8/h1-6,16-19,21-22,27-29H,7H2,(H3-,23,24,25,26)/p+1
CH$LINK: INCHIKEY RKWHWFONKJEUEF-UHFFFAOYSA-O
AC$INSTRUMENT: LC, Waters Acquity UPLC System; MS, Waters Xevo G2 Q-Tof
AC$INSTRUMENT_TYPE: LC-ESI-QTOF
AC$MASS_SPECTROMETRY: MS_TYPE MS2
AC$MASS_SPECTROMETRY: ION_MODE NEGATIVE
AC$MASS_SPECTROMETRY: COLLISION_ENERGY 6V
AC$MASS_SPECTROMETRY: DESOLVATION_GAS_FLOW 800/h
AC$MASS_SPECTROMETRY: DESOLVATION_TEMPERATURE 450 C
AC$MASS_SPECTROMETRY: IONIZATION ESI
AC$CHROMATOGRAPHY: CAPILLARY_VOLTAGE -2.75 kV
AC$CHROMATOGRAPHY: COLUMN_NAME Acquity bridged ethyl hybrid C18 (1.7 um, 2.1 mm * 100 mm, Waters)
AC$CHROMATOGRAPHY: COLUMN_TEMPERATURE 40 C
AC$CHROMATOGRAPHY: FLOW_GRADIENT A/B = (99.5%/0.5% at 0 min, 99.5%/0.5% at 0.1 min, 20%/80% at 10 min, 0.5%/99.5% at 10.1 min, 0.5%/99.5% at 12.0 min, 99.5%/0.5% at 12.1 min, 99.5%/0.5% at 15.0 min)
AC$CHROMATOGRAPHY: FLOW_RATE 0.3 ml/min at 0 min, 0.3 ml/min at 10 min, 0.4 ml/min at 10.1 min, 0.4 ml/min at 14.4 min, 0.3 ml/min at 14.5 min
AC$CHROMATOGRAPHY: RETENTION_TIME 2.925433
AC$CHROMATOGRAPHY: SOLVENT A water including 0.1% formic acid
AC$CHROMATOGRAPHY: SOLVENT B acetonitrile including 0.1% formic acid
MS$FOCUSED_ION: PRECURSOR_TYPE [M-2H]-
MS$FOCUSED_ION: PRECURSOR_M/Z 447.09273641576
PK$SPLASH: splash10-001r-0290000000-2601fae5e7d92c4c5d15
PK$NUM_PEAK: 45
PK$PEAK: m/z int. rel.int.
  125.02267 25.0 25
  129.03363 22.0 22
  146.0316 52.0 52
  147.0085 93.0 93
  148.02367 21.0 21
  149.01195 23.0 23
  149.02449 22.0 22
  150.02968 20.0 20
  170.07372 38.0 38
  171.04462 42.0 42
  172.04794 22.0 22
  172.05898 21.0 21
  177.01624 47.0 47
  184.04512 24.0 24
  188.04176 66.0 66
  190.05696 26.0 26
  195.06017 47.0 47
  198.03406 24.0 24
  199.0428 27.0 27
  207.06499 22.0 22
  211.03587 59.0 59
  212.04927 23.0 23
  213.05914 24.0 24
  215.02779 67.0 67
  217.05179 35.0 35
  223.0412 27.0 27
  228.04129 27.0 27
  239.03271 105.0 105
  240.04083 225.0 225
  255.02394 61.0 61
  256.03085 29.0 29
  256.0415 83.0 83
  257.03653 78.0 78
  257.048 110.0 110
  258.052 22.0 22
  269.01453 22.0 22
  269.03342 34.0 34
  283.02295 112.0 112
  284.03131 1000.0 999
  284.37119 22.0 22
  285.00314 27.0 27
  285.04071 350.0 350
  285.05566 149.0 149
  287.03232 42.0 42
  332.7709 36.0 36
//
