ACCESSION: MSBNK-RIKEN-PR305835
RECORD_TITLE: Luteolin-8-C-glucoside; LC-ESI-QTOF; MS2
DATE: 2019.03.28
AUTHORS: Tetsuya Mori, Center for Sustainable Resource Science, RIKEN
LICENSE: CC BY-NC-SA
PUBLICATION: Tsugawa H., Nakabayashi R., Mori T., Yamada Y., Takahashi M., Rai A., Sugiyama R., Yamamoto H., Nakaya T., Yamazaki M., Kooke R., Bac-Molenaar JA., Oztolan-Erol N., Keurentjes JJB., Arita M., Saito K. (2019) "A cheminformatics approach to characterize metabolomes in stable-isotope-labeled organisms" Nature Methods 16(4):295-298. [doi:10.1038/s41592-019-0358-2]
COMMENT: registered in RIKEN PlaSMA
CH$NAME: Luteolin-8-C-glucoside
CH$COMPOUND_CLASS: Flavonoid 8-C-glycosides
CH$FORMULA: C21H20O11
CH$EXACT_MASS: 448.38
CH$SMILES: OCC1OC(C(O)C(O)C1O)C1=C(O)C=C(O)C2=C1OC(=CC2=O)C1=CC(O)=C(O)C=C1
CH$IUPAC: InChI=1S/C21H20O11/c22-6-14-17(28)18(29)19(30)21(32-14)16-11(26)4-10(25)15-12(27)5-13(31-20(15)16)7-1-2-8(23)9(24)3-7/h1-5,14,17-19,21-26,28-30H,6H2
CH$LINK: INCHIKEY PLAPMLGJVGLZOV-UHFFFAOYSA-N
AC$INSTRUMENT: LC, Waters Acquity UPLC System; MS, Waters Xevo G2 Q-Tof
AC$INSTRUMENT_TYPE: LC-ESI-QTOF
AC$MASS_SPECTROMETRY: MS_TYPE MS2
AC$MASS_SPECTROMETRY: ION_MODE NEGATIVE
AC$MASS_SPECTROMETRY: COLLISION_ENERGY 6V
AC$MASS_SPECTROMETRY: DESOLVATION_GAS_FLOW 800/h
AC$MASS_SPECTROMETRY: DESOLVATION_TEMPERATURE 450 C
AC$MASS_SPECTROMETRY: IONIZATION ESI
AC$CHROMATOGRAPHY: CAPILLARY_VOLTAGE -2.75 kV
AC$CHROMATOGRAPHY: COLUMN_NAME Acquity bridged ethyl hybrid C18 (1.7 um, 2.1 mm * 100 mm, Waters)
AC$CHROMATOGRAPHY: COLUMN_TEMPERATURE 40 C
AC$CHROMATOGRAPHY: FLOW_GRADIENT A/B = (99.5%/0.5% at 0 min, 99.5%/0.5% at 0.1 min, 20%/80% at 10 min, 0.5%/99.5% at 10.1 min, 0.5%/99.5% at 12.0 min, 99.5%/0.5% at 12.1 min, 99.5%/0.5% at 15.0 min)
AC$CHROMATOGRAPHY: FLOW_RATE 0.3 ml/min at 0 min, 0.3 ml/min at 10 min, 0.4 ml/min at 10.1 min, 0.4 ml/min at 14.4 min, 0.3 ml/min at 14.5 min
AC$CHROMATOGRAPHY: RETENTION_TIME 3.7038
AC$CHROMATOGRAPHY: SOLVENT A water including 0.1% formic acid
AC$CHROMATOGRAPHY: SOLVENT B acetonitrile including 0.1% formic acid
MS$FOCUSED_ION: PRECURSOR_TYPE [M-H]-
MS$FOCUSED_ION: PRECURSOR_M/Z 447.09328504783
PK$SPLASH: splash10-004j-0297000000-b2f6bc54b6123956fce4
PK$NUM_PEAK: 142
PK$PEAK: m/z int. rel.int.
  107.01186 11.0 11
  109.02636 12.0 12
  117.03165 5.0 5
  119.04965 6.0 6
  121.02659 13.0 13
  124.05758 6.0 6
  125.025 7.0 7
  133.02615 88.0 88
  134.02946 11.0 11
  135.04333 14.0 14
  138.36574 5.0 5
  145.03627 12.0 12
  147.04076 9.0 9
  147.0462 13.0 13
  148.04443 6.0 6
  149.02071 24.0 24
  152.91122 5.0 5
  158.02916 6.0 6
  161.0244 31.0 31
  162.02643 6.0 6
  162.99614 8.0 8
  163.00584 7.0 7
  163.03514 21.0 21
  163.04472 13.0 13
  163.05376 7.0 7
  163.09674 5.0 5
  164.00732 6.0 6
  164.04607 11.0 11
  165.01749 7.0 7
  173.022 11.0 11
  173.05545 6.0 6
  174.03566 5.0 5
  175.05154 10.0 10
  176.03758 6.0 6
  178.02396 8.0 8
  186.0697 8.0 8
  188.01392 7.0 7
  189.01736 9.0 9
  189.99469 6.0 6
  191.03075 58.0 58
  193.00229 7.0 7
  193.01154 16.0 16
  193.01826 19.0 19
  193.11539 5.0 5
  194.00607 6.0 6
  194.01619 9.0 9
  196.04405 5.0 5
  197.06017 11.0 11
  199.02722 7.0 7
  199.03856 30.0 30
  200.03993 11.0 11
  201.01213 32.0 32
  201.02882 7.0 7
  203.03021 6.0 6
  213.01338 5.0 5
  213.04434 16.0 16
  213.05609 28.0 28
  213.08774 8.0 8
  215.04652 5.0 5
  217.06062 6.0 6
  219.02396 7.0 7
  221.04283 6.0 6
  222.0482 7.0 7
  224.04875 13.0 13
  226.05287 9.0 9
  227.0383 5.0 5
  227.06342 13.0 13
  229.01274 27.0 27
  229.02122 10.0 10
  231.07109 6.0 6
  237.05331 5.0 5
  238.05121 5.0 5
  239.06116 5.0 5
  240.03627 6.0 6
  240.04446 6.0 6
  241.03999 14.0 14
  241.05722 11.0 11
  242.04346 6.0 6
  243.06422 6.0 6
  253.04559 24.0 24
  255.02956 40.0 40
  255.06592 20.0 20
  257.04132 16.0 16
  257.0722 9.0 9
  266.02649 12.0 12
  267.04205 6.0 6
  267.056 5.0 5
  269.04294 24.0 24
  270.03906 12.0 12
  270.06168 5.0 5
  271.04907 11.0 11
  272.06619 5.0 5
  273.33179 5.0 5
  281.04861 15.0 15
  283.05432 6.0 6
  284.01144 10.0 10
  284.03278 194.0 194
  285.03729 184.0 184
  285.07053 5.0 5
  286.04318 13.0 13
  286.05313 19.0 19
  297.03961 350.0 350
  298.04694 215.0 215
  299.02939 14.0 14
  299.05472 556.0 555
  299.08514 7.0 7
  300.052 72.0 72
  301.0589 9.0 9
  301.08289 6.0 6
  309.04041 26.0 26
  311.04834 66.0 66
  311.06262 23.0 23
  312.05807 10.0 10
  313.0361 31.0 31
  314.04004 24.0 24
  321.03717 7.0 7
  323.06592 6.0 6
  324.0264 23.0 23
  325.02667 6.0 6
  325.039 6.0 6
  326.02029 5.0 5
  327.04877 1000.0 999
  328.04767 138.0 138
  329.03204 10.0 10
  329.05679 16.0 16
  329.07086 15.0 15
  338.08597 7.0 7
  338.34637 5.0 5
  339.0437 64.0 64
  340.04642 6.0 6
  341.06656 11.0 11
  341.08603 6.0 6
  342.06735 8.0 8
  349.07251 7.0 7
  355.04471 5.0 5
  357.06522 85.0 85
  358.06158 6.0 6
  358.07349 8.0 8
  365.06839 8.0 8
  370.06924 7.0 7
  393.07138 5.0 5
  418.07291 6.0 6
//
