ACCESSION: MSBNK-RIKEN-PR100482
RECORD_TITLE: trans-4-Hydroxy-3-methoxycinnamate; LC-ESI-QTOF; MS2; CE:Ramp 5-60 V; [M-H]-
DATE: 2016.01.19 (Created 2010.06.21, modified 2012.10.22)
AUTHORS: Matsuda F, Suzuki M, Sawada Y, Plant Science Center, RIKEN.
LICENSE: CC BY-SA
COMMENT: Acquisition and generation of the data is financially supported in part by CREST/JST.
CH$NAME: trans-4-Hydroxy-3-methoxycinnamate
CH$NAME: 4-Hydroxy-3-methoxycinnamic acid
CH$NAME: Ferulic acid
CH$NAME: trans-ferulate
CH$NAME: 3-Methoxy-4-hydroxy-trans-cinnamate
CH$COMPOUND_CLASS: Carboxylic acids
CH$FORMULA: C10H10O4
CH$EXACT_MASS: 194.05791
CH$SMILES: COc(c1)c(O)ccc(C=CC(O)=O)1
CH$IUPAC: InChI=1S/C10H10O4/c1-14-9-6-7(2-4-8(9)11)3-5-10(12)13/h2-6,11H,1H3,(H,12,13)/b5-3+
CH$LINK: CAS 1135-24-6
CH$LINK: CHEMSPIDER 393368
CH$LINK: KAPPAVIEW KPC00522
CH$LINK: KEGG C01494
CH$LINK: KNAPSACK C00002743
CH$LINK: PUBCHEM CID:445858
CH$LINK: INCHIKEY KSEBMYQBYZTDHS-HWKANZROSA-N
CH$LINK: COMPTOX DTXSID70892035
AC$INSTRUMENT: UPLC Q-Tof Premier, Waters
AC$INSTRUMENT_TYPE: LC-ESI-QTOF
AC$MASS_SPECTROMETRY: MS_TYPE MS2
AC$MASS_SPECTROMETRY: ION_MODE NEGATIVE
AC$MASS_SPECTROMETRY: COLLISION_ENERGY Ramp 5-60 V
AC$MASS_SPECTROMETRY: DATAFORMAT Continuum
AC$MASS_SPECTROMETRY: DESOLVATION_GAS_FLOW 600.0 L/Hr
AC$MASS_SPECTROMETRY: DESOLVATION_TEMPERATURE 400 C
AC$MASS_SPECTROMETRY: FRAGMENTATION_METHOD LOW-ENERGY CID
AC$MASS_SPECTROMETRY: IONIZATION ESI
AC$MASS_SPECTROMETRY: SOURCE_TEMPERATURE 120 C
AC$CHROMATOGRAPHY: CAPILLARY_VOLTAGE 3.0 kV
AC$CHROMATOGRAPHY: SAMPLING_CONE 23.0 V
AC$CHROMATOGRAPHY: SOLVENT A CH3CN(0.1%HCOOH)
AC$CHROMATOGRAPHY: SOLVENT B H2O(0.1%HCOOH)
MS$FOCUSED_ION: PRECURSOR_M/Z 193.05011
MS$FOCUSED_ION: PRECURSOR_TYPE [M-H]-
PK$SPLASH: splash10-001i-0900000000-a7cded21e6010eb8bce2
PK$NUM_PEAK: 4
PK$PEAK: m/z int. rel.int.
  134.0369 1318 999
  149.0610 159.4 121
  178.0264 354.7 269
  193.0501 445.7 338
//
