ACCESSION: MSBNK-RIKEN-PR309434
RECORD_TITLE: isorhamnetin-3-glucoside-4'-glucoside (Isorhamnetin 3,4'-diglucoside); LC-ESI-QTOF; MS2
DATE: 2019.03.28
AUTHORS: Tetsuya Mori, Center for Sustainable Resource Science, RIKEN
LICENSE: CC BY-NC-SA
PUBLICATION: Tsugawa H., Nakabayashi R., Mori T., Yamada Y., Takahashi M., Rai A., Sugiyama R., Yamamoto H., Nakaya T., Yamazaki M., Kooke R., Bac-Molenaar JA., Oztolan-Erol N., Keurentjes JJB., Arita M., Saito K. (2019) "A cheminformatics approach to characterize metabolomes in stable-isotope-labeled organisms" Nature Methods 16(4):295-298. [doi:10.1038/s41592-019-0358-2]
COMMENT: Annotation level-1
CH$NAME: isorhamnetin-3-glucoside-4'-glucoside (Isorhamnetin 3,4'-diglucoside)
CH$COMPOUND_CLASS: Flavonol O-glycosides
CH$FORMULA: C28H32O17
CH$EXACT_MASS: 640.547
CH$SMILES: COC1=C(OC2OC(CO)C(O)C(O)C2O)C=CC(=C1)C1=C(OC2OC(CO)C(O)C(O)C2O)C(=O)C2=C(O)C=C(O)C=C2O1
CH$IUPAC: InChI=1S/C28H32O17/c1-40-13-4-9(2-3-12(13)42-27-23(38)21(36)18(33)15(7-29)43-27)25-26(20(35)17-11(32)5-10(31)6-14(17)41-25)45-28-24(39)22(37)19(34)16(8-30)44-28/h2-6,15-16,18-19,21-24,27-34,36-39H,7-8H2,1H3
CH$LINK: INCHIKEY VKVBSQRURLRCHO-UHFFFAOYSA-N
AC$INSTRUMENT: LC, Waters Acquity UPLC System; MS, Waters Xevo G2 Q-Tof
AC$INSTRUMENT_TYPE: LC-ESI-QTOF
AC$MASS_SPECTROMETRY: MS_TYPE MS2
AC$MASS_SPECTROMETRY: ION_MODE NEGATIVE
AC$MASS_SPECTROMETRY: COLLISION_ENERGY 6V
AC$MASS_SPECTROMETRY: DESOLVATION_GAS_FLOW 800/h
AC$MASS_SPECTROMETRY: DESOLVATION_TEMPERATURE 450 C
AC$MASS_SPECTROMETRY: IONIZATION ESI
AC$CHROMATOGRAPHY: CAPILLARY_VOLTAGE +3.00 kV
AC$CHROMATOGRAPHY: COLUMN_NAME Acquity bridged ethyl hybrid C18 (1.7 um, 2.1 mm * 100 mm, Waters)
AC$CHROMATOGRAPHY: COLUMN_TEMPERATURE 40 C
AC$CHROMATOGRAPHY: FLOW_GRADIENT A/B = (99.5%/0.5% at 0 min, 99.5%/0.5% at 0.1 min, 20%/80% at 10 min, 0.5%/99.5% at 10.1 min, 0.5%/99.5% at 12.0 min, 99.5%/0.5% at 12.1 min, 99.5%/0.5% at 15.0 min)
AC$CHROMATOGRAPHY: FLOW_RATE 0.3 ml/min at 0 min, 0.3 ml/min at 10 min, 0.4 ml/min at 10.1 min, 0.4 ml/min at 14.4 min, 0.3 ml/min at 14.5 min
AC$CHROMATOGRAPHY: RETENTION_TIME 3.23
AC$CHROMATOGRAPHY: SOLVENT A water including 0.1% formic acid
AC$CHROMATOGRAPHY: SOLVENT B acetonitrile including 0.1% formic acid
MS$FOCUSED_ION: PRECURSOR_TYPE [M-H]-
MS$FOCUSED_ION: PRECURSOR_M/Z 639.15667
PK$SPLASH: splash10-02dr-0009605000-6b42b86a369400caa8a7
PK$NUM_PEAK: 69
PK$PEAK: m/z int. rel.int.
  59.01384 20.0 5
  80.26408 19.0 5
  150.9994 22.0 6
  167.48669 30.0 8
  178.99396 20.0 5
  200.95668 21.0 5
  242.00739 25.0 6
  243.03236 45.0 12
  246.86517 23.0 6
  255.02299 27.0 7
  270.01312 82.0 21
  285.03876 58.0 15
  285.05023 25.0 6
  287.39856 20.0 5
  292.83847 33.0 8
  295.02502 20.0 5
  298.00375 26.0 7
  299.01865 171.0 44
  300.02576 168.0 43
  303.06561 20.0 5
  306.84302 22.0 6
  311.04114 27.0 7
  313.03296 1699.0 436
  313.29178 19.0 5
  314.03983 683.0 175
  314.96237 20.0 5
  315.04813 2486.0 638
  315.10294 28.0 7
  316.05414 430.0 110
  317.05185 29.0 7
  320.12299 20.0 5
  322.05484 18.0 5
  328.05753 18.0 5
  329.0571 39.0 10
  356.05576 47.0 12
  357.05786 140.0 36
  359.07294 52.0 13
  368.10052 25.0 6
  374.80002 24.0 6
  379.07767 23.0 6
  381.05075 46.0 12
  402.07068 26.0 7
  413.27902 22.0 6
  442.07938 23.0 6
  461.08191 124.0 32
  461.89111 18.0 5
  462.05118 23.0 6
  462.07407 23.0 6
  476.09122 480.0 123
  477.10156 2901.0 745
  478.10541 716.0 184
  479.10052 109.0 28
  479.11526 69.0 18
  490.09839 18.0 5
  491.06525 35.0 9
  504.21948 18.0 5
  514.98004 24.0 6
  519.11737 140.0 36
  520.10248 75.0 19
  520.12695 105.0 27
  521.12732 23.0 6
  549.11713 18.0 5
  611.11554 33.0 8
  625.63184 24.0 6
  626.69586 35.0 9
  631.56604 20.0 5
  636.91547 26.0 7
  638.73187 25.0 6
  639.15497 3890.0 999
//
