ACCESSION: MSBNK-RIKEN-PR307139
RECORD_TITLE: Isovitexin(4); LC-ESI-QTOF; MS2
DATE: 2019.03.28
AUTHORS: Tetsuya Mori, Center for Sustainable Resource Science, RIKEN
LICENSE: CC BY-NC-SA
PUBLICATION: Tsugawa H., Nakabayashi R., Mori T., Yamada Y., Takahashi M., Rai A., Sugiyama R., Yamamoto H., Nakaya T., Yamazaki M., Kooke R., Bac-Molenaar JA., Oztolan-Erol N., Keurentjes JJB., Arita M., Saito K. (2019) "A cheminformatics approach to characterize metabolomes in stable-isotope-labeled organisms" Nature Methods 16(4):295-298. [doi:10.1038/s41592-019-0358-2]
COMMENT: registered in RIKEN PlaSMA
CH$NAME: Isovitexin(4)
CH$COMPOUND_CLASS: Flavonoid C-glycosides
CH$FORMULA: C21H20O10
CH$EXACT_MASS: 432.381
CH$SMILES: OCC1OC(C(O)C(O)C1O)C1=C(O)C2=C(OC(=CC2=O)C2=CC=C(O)C=C2)C=C1O
CH$IUPAC: InChI=1S/C21H20O10/c22-7-14-17(26)19(28)20(29)21(31-14)16-11(25)6-13-15(18(16)27)10(24)5-12(30-13)8-1-3-9(23)4-2-8/h1-6,14,17,19-23,25-29H,7H2
CH$LINK: INCHIKEY MYXNWGACZJSMBT-UHFFFAOYSA-N
AC$INSTRUMENT: LC, Waters Acquity UPLC System; MS, Waters Xevo G2 Q-Tof
AC$INSTRUMENT_TYPE: LC-ESI-QTOF
AC$MASS_SPECTROMETRY: MS_TYPE MS2
AC$MASS_SPECTROMETRY: ION_MODE NEGATIVE
AC$MASS_SPECTROMETRY: COLLISION_ENERGY 6V
AC$MASS_SPECTROMETRY: DESOLVATION_GAS_FLOW 800/h
AC$MASS_SPECTROMETRY: DESOLVATION_TEMPERATURE 450 C
AC$MASS_SPECTROMETRY: IONIZATION ESI
AC$CHROMATOGRAPHY: CAPILLARY_VOLTAGE -2.75 kV
AC$CHROMATOGRAPHY: COLUMN_NAME Acquity bridged ethyl hybrid C18 (1.7 um, 2.1 mm * 100 mm, Waters)
AC$CHROMATOGRAPHY: COLUMN_TEMPERATURE 40 C
AC$CHROMATOGRAPHY: FLOW_GRADIENT A/B = (99.5%/0.5% at 0 min, 99.5%/0.5% at 0.1 min, 20%/80% at 10 min, 0.5%/99.5% at 10.1 min, 0.5%/99.5% at 12.0 min, 99.5%/0.5% at 12.1 min, 99.5%/0.5% at 15.0 min)
AC$CHROMATOGRAPHY: FLOW_RATE 0.3 ml/min at 0 min, 0.3 ml/min at 10 min, 0.4 ml/min at 10.1 min, 0.4 ml/min at 14.4 min, 0.3 ml/min at 14.5 min
AC$CHROMATOGRAPHY: RETENTION_TIME 3.945533
AC$CHROMATOGRAPHY: SOLVENT A water including 0.1% formic acid
AC$CHROMATOGRAPHY: SOLVENT B acetonitrile including 0.1% formic acid
MS$FOCUSED_ION: PRECURSOR_TYPE [M-H]-
MS$FOCUSED_ION: PRECURSOR_M/Z 431.09837034783
PK$SPLASH: splash10-02u0-1940000000-c631bb3e41089a5ffbfe
PK$NUM_PEAK: 203
PK$PEAK: m/z int. rel.int.
  52.8539 10.0 10
  59.06099 10.0 10
  63.02246 13.0 13
  64.99962 13.0 13
  65.72576 12.0 12
  67.02059 11.0 11
  77.03611 78.0 78
  77.04066 113.0 113
  79.01492 28.0 28
  79.02297 27.0 27
  89.00105 12.0 12
  89.03667 28.0 28
  90.04174 11.0 11
  91.01782 13.0 13
  93.03535 75.0 75
  94.00587 14.0 14
  94.03377 18.0 18
  95.01089 40.0 40
  95.01704 30.0 30
  97.02351 19.0 19
  101.03688 22.0 22
  103.01728 15.0 15
  105.03435 32.0 32
  106.35545 14.0 14
  108.01704 40.0 40
  108.02375 14.0 14
  109.03145 21.0 21
  117.03452 1000.0 999
  118.03086 24.0 24
  118.03655 19.0 19
  119.01359 12.0 12
  119.0493 101.0 101
  120.01911 38.0 38
  120.05399 24.0 24
  121.02584 89.0 89
  121.03369 14.0 14
  123.0491 18.0 18
  125.02265 21.0 21
  129.03137 16.0 16
  131.01369 112.0 112
  131.04692 16.0 16
  132.02742 23.0 23
  133.01582 11.0 11
  133.02875 95.0 95
  134.00169 13.0 13
  134.03406 31.0 31
  135.00774 70.0 70
  135.04376 149.0 149
  139.04837 12.0 12
  141.02553 21.0 21
  143.01744 14.0 14
  143.04799 14.0 14
  143.0592 21.0 21
  145.03276 13.0 13
  145.06653 11.0 11
  146.03644 24.0 24
  147.04701 27.0 27
  148.0161 12.0 12
  149.02078 21.0 21
  149.02646 18.0 18
  150.02887 12.0 12
  151.00143 37.0 37
  152.05714 12.0 12
  152.07051 11.0 11
  153.92766 11.0 11
  155.04266 17.0 17
  155.05078 14.0 14
  157.06419 11.0 11
  157.99968 14.0 14
  159.00681 13.0 13
  159.04588 203.0 203
  160.04391 41.0 41
  160.05028 31.0 31
  160.92003 11.0 11
  161.0215 204.0 204
  161.03006 144.0 144
  161.99487 18.0 18
  162.02666 68.0 68
  163.00276 272.0 272
  163.03604 45.0 45
  163.04581 25.0 25
  164.00708 40.0 40
  165.01405 145.0 145
  166.07956 14.0 14
  167.05116 24.0 24
  168.04924 17.0 17
  168.05797 33.0 33
  168.06535 22.0 22
  169.03336 16.0 16
  169.06139 62.0 62
  170.07005 12.0 12
  171.04417 42.0 42
  171.05232 18.0 18
  173.01915 12.0 12
  173.02702 12.0 12
  173.05554 11.0 11
  174.03876 11.0 11
  174.05998 10.0 10
  175.00188 67.0 67
  175.01349 12.0 12
  175.03488 18.0 18
  176.01115 10.0 10
  177.02133 47.0 47
  180.0582 25.0 25
  181.06026 31.0 31
  181.06885 13.0 13
  181.46263 16.0 16
  182.03497 67.0 67
  182.07703 30.0 30
  182.08302 13.0 13
  183.04164 77.0 77
  183.05135 17.0 17
  183.07928 85.0 85
  184.04152 51.0 51
  185.02174 26.0 26
  185.05115 12.0 12
  186.02985 11.0 11
  186.03979 11.0 11
  187.00212 16.0 16
  187.03766 10.0 10
  188.00031 14.0 14
  188.04562 15.0 15
  189.02374 13.0 13
  189.98836 13.0 13
  192.04065 11.0 11
  194.07382 55.0 55
  195.04721 24.0 24
  196.0211 13.0 13
  196.05518 44.0 44
  197.06129 144.0 144
  198.06435 66.0 66
  199.03291 15.0 15
  200.04482 11.0 11
  201.019 17.0 17
  201.05643 43.0 43
  205.06758 11.0 11
  207.08723 17.0 17
  208.05608 30.0 30
  209.05331 28.0 28
  209.06221 32.0 32
  210.03011 10.0 10
  210.07233 101.0 101
  210.21103 11.0 11
  211.0441 41.0 41
  211.07686 11.0 11
  212.04239 12.0 12
  212.05617 13.0 13
  213.05402 40.0 40
  213.08319 13.0 13
  222.06203 17.0 17
  223.0752 12.0 12
  224.04491 41.0 41
  224.05504 12.0 12
  224.58429 11.0 11
  225.05045 50.0 50
  227.02994 11.0 11
  227.03885 12.0 12
  233.04884 13.0 13
  235.03311 10.0 10
  235.06618 10.0 10
  237.04799 20.0 20
  237.06268 14.0 14
  238.0553 16.0 16
  238.06538 10.0 10
  239.03566 51.0 51
  239.06683 38.0 38
  239.08255 18.0 18
  240.06023 14.0 14
  240.07434 29.0 29
  240.6489 16.0 16
  241.04427 11.0 11
  242.05054 11.0 11
  248.03535 16.0 16
  251.06212 12.0 12
  252.02705 17.0 17
  252.03632 11.0 11
  252.07571 14.0 14
  253.04582 100.0 100
  254.06148 32.0 32
  255.07678 18.0 18
  263.03134 12.0 12
  265.03882 29.0 29
  265.06525 15.0 15
  267.06979 12.0 12
  268.03912 87.0 87
  269.03589 26.0 26
  270.05164 14.0 14
  280.0394 17.0 17
  281.03851 126.0 126
  281.05072 266.0 266
  282.0484 76.0 76
  282.07306 14.0 14
  283.06042 332.0 332
  284.05673 68.0 68
  284.0665 27.0 27
  285.0502 13.0 13
  292.04697 17.0 17
  293.03842 17.0 17
  295.05826 53.0 53
  305.03015 17.0 17
  307.0675 10.0 10
  308.02307 12.0 12
  311.0473 13.0 13
//
