ACCESSION: MSBNK-RIKEN-PR020141
RECORD_TITLE: Gibberellin A4; LC-ESI-QQ; MS2; CE:10.0 eV; [M-H]-
DATE: 2016.01.19 (Created 2007.08.31, modified 2011.05.06)
AUTHORS: Kojima M, Sakakibara H, Plant Science Center, RIKEN.
LICENSE: CC BY-SA
CH$NAME: Gibberellin A4
CH$COMPOUND_CLASS: N/A
CH$FORMULA: C19H24O5
CH$EXACT_MASS: 332.16237
CH$SMILES: C=C([C@H]45)C[C@@](C5)([C@@H](C(O)=O)1)[C@@]([H])(CC4)[C@@](C3)(O2)[C@]([H])([C@@](C)([C@@H](O)C3)C(=O)2)1
CH$IUPAC: InChI=1S/C19H24O5/c1-9-7-18-8-10(9)3-4-11(18)19-6-5-12(20)17(2,16(23)24-19)14(19)13(18)15(21)22/h10-14,20H,1,3-8H2,2H3,(H,21,22)/t10-,11-,12+,13-,14-,17-,18+,19-/m1/s1
CH$LINK: CAS 468-44-0
CH$LINK: CHEBI CHEBI:32902
CH$LINK: CHEMPDB GA4
CH$LINK: KEGG C11864
CH$LINK: NIKKAJI J4.736H
CH$LINK: PUBCHEM SID:14026 CID:443460
CH$LINK: INCHIKEY RSQSQJNRHICNNH-NFMPGMCNSA-N
CH$LINK: COMPTOX DTXSID20896861
AC$INSTRUMENT: UPLC Waters, Quattro Ultima Pt Micromass
AC$INSTRUMENT_TYPE: LC-ESI-QQ
AC$MASS_SPECTROMETRY: MS_TYPE MS2
AC$MASS_SPECTROMETRY: ION_MODE NEGATIVE
AC$MASS_SPECTROMETRY: COLLISION_ENERGY 10.0 eV
AC$MASS_SPECTROMETRY: DATAFORMAT Centroid
AC$MASS_SPECTROMETRY: DESOLVATION_GAS_FLOW 565 L/Hr
AC$MASS_SPECTROMETRY: DESOLVATION_TEMPERATURE 400 C
AC$MASS_SPECTROMETRY: FRAGMENTATION_MODE LOW-ENERGY CID
AC$MASS_SPECTROMETRY: IONIZATION ESI
AC$MASS_SPECTROMETRY: SCANNING 0.2 sec/scan (m/z=50-500)
AC$MASS_SPECTROMETRY: SOURCE_TEMPERATURE 140 C
AC$CHROMATOGRAPHY: CAPILLARY_VOLTAGE 3.1 kV
AC$CHROMATOGRAPHY: COLUMN_NAME ACQUITY UPLC BEH C18 2.1 by 50 mm (Waters, Milford, MA, USA)
AC$CHROMATOGRAPHY: COLUMN_TEMPERATURE 40 C
AC$CHROMATOGRAPHY: FLOW_GRADIENT 0.1/99.9 at 0 min, 9.0/91.0 at 2 min, 12.5/87.5 at 7 min, 30/70 at 10 min, 50/50 at 12 min, 50/50 at 13 min, 99.9/0.1 at 15 min
AC$CHROMATOGRAPHY: FLOW_RATE 0.25 ml/min
AC$CHROMATOGRAPHY: RETENTION_TIME 9.75 min
AC$CHROMATOGRAPHY: SAMPLING_CONE 53 V
AC$CHROMATOGRAPHY: SOLVENT A CH3CN(0.05% HCOOH)
AC$CHROMATOGRAPHY: SOLVENT B HCOOH(0.05% CH3CN)
MS$FOCUSED_ION: FULL_SCAN_FRAGMENT_ION_PEAK 332
MS$FOCUSED_ION: PRECURSOR_M/Z 331
MS$FOCUSED_ION: PRECURSOR_TYPE [M-H]-
MS$DATA_PROCESSING: WHOLE MassLynx 4.0
PK$SPLASH: splash10-001i-0009000000-c616a14a6ded5f8b4fab
PK$NUM_PEAK: 7
PK$PEAK: m/z int. rel.int.
  225.226 43920 25
  242.979 30240 18
  269.221 20360 12
  286.885 28340 16
  287.613 18010 10
  330.940 1726000 999
  331.557 489500 283
//
