ACCESSION: MSBNK-RIKEN-PR303903
RECORD_TITLE: Silychrystin; LC-ESI-QTOF; MS2
DATE: 2019.03.28
AUTHORS: Tetsuya Mori, Center for Sustainable Resource Science, RIKEN
LICENSE: CC BY-NC-SA
PUBLICATION: Tsugawa H., Nakabayashi R., Mori T., Yamada Y., Takahashi M., Rai A., Sugiyama R., Yamamoto H., Nakaya T., Yamazaki M., Kooke R., Bac-Molenaar JA., Oztolan-Erol N., Keurentjes JJB., Arita M., Saito K. (2019) "A cheminformatics approach to characterize metabolomes in stable-isotope-labeled organisms" Nature Methods 16(4):295-298. [doi:10.1038/s41592-019-0358-2]
COMMENT: registered in RIKEN PlaSMA
CH$NAME: Silychrystin
CH$COMPOUND_CLASS: 2-arylbenzofuran flavonoids
CH$FORMULA: C25H22O10
CH$EXACT_MASS: 482.441
CH$SMILES: COC1=C(O)C=CC(=C1)[C@@H]1OC2=C(C=C(C=C2O)[C@H]2OC3=CC(O)=CC(O)=C3C(=O)[C@@H]2O)[C@H]1CO
CH$IUPAC: InChI=1S/C25H22O10/c1-33-18-6-10(2-3-15(18)28)23-14(9-26)13-4-11(5-17(30)25(13)35-23)24-22(32)21(31)20-16(29)7-12(27)8-19(20)34-24/h2-8,14,22-24,26-30,32H,9H2,1H3/t14-,22+,23+,24-/m1/s1
CH$LINK: INCHIKEY BMLIIPOXVWESJG-LMBCONBSSA-N
AC$INSTRUMENT: LC, Waters Acquity UPLC System; MS, Waters Xevo G2 Q-Tof
AC$INSTRUMENT_TYPE: LC-ESI-QTOF
AC$MASS_SPECTROMETRY: MS_TYPE MS2
AC$MASS_SPECTROMETRY: ION_MODE POSITIVE
AC$MASS_SPECTROMETRY: COLLISION_ENERGY 6V
AC$MASS_SPECTROMETRY: DESOLVATION_GAS_FLOW 800/h
AC$MASS_SPECTROMETRY: DESOLVATION_TEMPERATURE 450 C
AC$MASS_SPECTROMETRY: IONIZATION ESI
AC$CHROMATOGRAPHY: CAPILLARY_VOLTAGE +3.00 kV
AC$CHROMATOGRAPHY: COLUMN_NAME Acquity bridged ethyl hybrid C18 (1.7 um, 2.1 mm * 100 mm, Waters)
AC$CHROMATOGRAPHY: COLUMN_TEMPERATURE 40 C
AC$CHROMATOGRAPHY: FLOW_GRADIENT A/B = (99.5%/0.5% at 0 min, 99.5%/0.5% at 0.1 min, 20%/80% at 10 min, 0.5%/99.5% at 10.1 min, 0.5%/99.5% at 12.0 min, 99.5%/0.5% at 12.1 min, 99.5%/0.5% at 15.0 min)
AC$CHROMATOGRAPHY: FLOW_RATE 0.3 ml/min at 0 min, 0.3 ml/min at 10 min, 0.4 ml/min at 10.1 min, 0.4 ml/min at 14.4 min, 0.3 ml/min at 14.5 min
AC$CHROMATOGRAPHY: RETENTION_TIME 4.95995
AC$CHROMATOGRAPHY: SOLVENT A water including 0.1% formic acid
AC$CHROMATOGRAPHY: SOLVENT B acetonitrile including 0.1% formic acid
MS$FOCUSED_ION: PRECURSOR_TYPE [M+H]+
MS$FOCUSED_ION: PRECURSOR_M/Z 483.1285734
PK$SPLASH: splash10-0zg0-0984100000-a27ba5233a6e084a5db0
PK$NUM_PEAK: 262
PK$PEAK: m/z int. rel.int.
  107.04872 34.0 34
  111.04609 11.0 11
  121.06631 13.0 13
  122.03986 11.0 11
  127.0331 16.0 16
  127.04003 13.0 13
  129.06868 11.0 11
  131.04686 11.0 11
  135.04935 20.0 20
  137.02434 25.0 25
  137.04118 11.0 11
  137.05998 524.0 523
  137.19916 11.0 11
  138.06099 29.0 29
  138.06784 51.0 51
  139.03523 28.0 28
  146.76738 13.0 13
  146.85028 15.0 15
  147.04028 24.0 24
  149.01048 25.0 25
  149.02654 167.0 167
  149.06017 44.0 44
  149.06796 11.0 11
  150.02118 13.0 13
  150.03377 11.0 11
  150.07291 15.0 15
  151.03645 25.0 25
  151.0724 29.0 29
  152.99416 13.0 13
  153.01836 1000.0 999
  154.02345 80.0 80
  155.02234 11.0 11
  161.05742 52.0 52
  161.07011 11.0 11
  163.03336 21.0 21
  163.07681 11.0 11
  165.06496 32.0 32
  167.01476 11.0 11
  167.02812 19.0 19
  167.03731 91.0 91
  171.79819 11.0 11
  175.04025 34.0 34
  175.04834 17.0 17
  177.05525 36.0 36
  179.02931 15.0 15
  181.03496 11.0 11
  181.06995 37.0 37
  186.07323 16.0 16
  187.0392 11.0 11
  193.05913 12.0 12
  193.07324 18.0 18
  194.0762 13.0 13
  194.99304 18.0 18
  195.00891 11.0 11
  195.02856 315.0 315
  196.01848 16.0 16
  196.03395 46.0 46
  197.04593 11.0 11
  198.06683 14.0 14
  200.07848 13.0 13
  201.04855 13.0 13
  201.05733 13.0 13
  203.04166 13.0 13
  204.04074 13.0 13
  207.05656 16.0 16
  209.05499 14.0 14
  210.07306 29.0 29
  211.05017 13.0 13
  211.07845 42.0 42
  212.0838 21.0 21
  213.0545 13.0 13
  213.08632 11.0 11
  221.06046 34.0 34
  222.08084 15.0 15
  222.4471 13.0 13
  223.06102 26.0 26
  223.08122 24.0 24
  225.06006 11.0 11
  225.09221 53.0 53
  226.05347 11.0 11
  227.03773 46.0 46
  227.06984 20.0 20
  227.07921 26.0 26
  228.02774 23.0 23
  229.04773 28.0 28
  229.06157 13.0 13
  229.08896 31.0 31
  229.87204 14.0 14
  233.05408 11.0 11
  235.0858 14.0 14
  237.04753 11.0 11
  237.0601 14.0 14
  237.07269 13.0 13
  238.06956 11.0 11
  239.03362 12.0 12
  239.06958 68.0 68
  240.0666 19.0 19
  240.09119 11.0 11
  245.04735 13.0 13
  245.07887 13.0 13
  251.06952 66.0 66
  251.08318 28.0 28
  252.08086 37.0 37
  253.08246 34.0 34
  253.09418 62.0 62
  254.09016 54.0 54
  254.54987 16.0 16
  255.07523 19.0 19
  255.10747 11.0 11
  256.0657 14.0 14
  256.07574 11.0 11
  257.04413 187.0 187
  257.05566 65.0 65
  257.07867 11.0 11
  258.08966 39.0 39
  259.02954 13.0 13
  259.08493 29.0 29
  259.10034 12.0 12
  261.05585 15.0 15
  261.07718 21.0 21
  263.07794 21.0 21
  265.05005 15.0 15
  265.08835 16.0 16
  266.05237 16.0 16
  267.07635 19.0 19
  269.07062 26.0 26
  269.08545 66.0 66
  270.0769 44.0 44
  270.09604 90.0 90
  271.05685 11.0 11
  271.0665 12.0 12
  271.09097 33.0 33
  271.1019 81.0 81
  272.09216 12.0 12
  272.10043 33.0 33
  273.09985 11.0 11
  273.11237 11.0 11
  277.0452 23.0 23
  277.59488 19.0 19
  278.06357 13.0 13
  279.04791 11.0 11
  279.07022 67.0 67
  280.06174 12.0 12
  280.07892 26.0 26
  281.06339 13.0 13
  281.08304 116.0 116
  281.10925 16.0 16
  282.07773 29.0 29
  282.08563 12.0 12
  283.04245 17.0 17
  283.06268 99.0 99
  283.09674 12.0 12
  283.11392 21.0 21
  283.12518 20.0 20
  283.13577 13.0 13
  284.05704 21.0 21
  284.07465 13.0 13
  285.10437 14.0 14
  286.03195 11.0 11
  287.05035 11.0 11
  287.07547 15.0 15
  287.18961 21.0 21
  289.03778 20.0 20
  289.06177 16.0 16
  291.05496 27.0 27
  291.37494 15.0 15
  292.06702 13.0 13
  293.02036 19.0 19
  293.04446 11.0 11
  293.08481 11.0 11
  293.09366 11.0 11
  295.05176 11.0 11
  295.06271 26.0 26
  295.0896 11.0 11
  296.06213 13.0 13
  296.09225 18.0 18
  297.07864 14.0 14
  297.11746 11.0 11
  298.03717 15.0 15
  298.04929 11.0 11
  298.09543 12.0 12
  299.05096 13.0 13
  299.06192 17.0 17
  299.9534 17.0 17
  305.05316 12.0 12
  307.09775 17.0 17
  308.08783 16.0 16
  309.07281 115.0 115
  311.03842 45.0 45
  311.05844 94.0 94
  312.04575 31.0 31
  312.06042 51.0 51
  313.06555 35.0 35
  313.08615 14.0 14
  315.09714 13.0 13
  317.07825 11.0 11
  321.08426 11.0 11
  323.06708 11.0 11
  323.08228 22.0 22
  324.07901 14.0 14
  326.57477 11.0 11
  329.06613 15.0 15
  331.06052 12.0 12
  331.08273 13.0 13
  333.07816 36.0 36
  335.10504 38.0 38
  339.11008 16.0 16
  340.07071 13.0 13
  344.05676 11.0 11
  347.09625 11.0 11
  347.12305 14.0 14
  351.08939 41.0 41
  351.10538 51.0 51
  353.38333 11.0 11
  354.04651 16.0 16
  358.06967 13.0 13
  358.0834 41.0 41
  358.10327 13.0 13
  359.09311 37.0 37
  361.10217 47.0 47
  362.10522 13.0 13
  364.0957 26.0 26
  364.11029 13.0 13
  365.10889 11.0 11
  367.05844 11.0 11
  368.06088 13.0 13
  373.09399 11.0 11
  375.07758 33.0 33
  376.08975 32.0 32
  377.08005 13.0 13
  379.02734 20.0 20
  379.10895 67.0 67
  379.12274 100.0 100
  380.11502 11.0 11
  380.13373 24.0 24
  381.14008 25.0 25
  385.06808 11.0 11
  387.10431 16.0 16
  389.08279 11.0 11
  389.11105 12.0 12
  391.07617 11.0 11
  391.11414 24.0 24
  392.11514 22.0 22
  397.07184 13.0 13
  400.08578 15.0 15
  403.09561 14.0 14
  405.09662 21.0 21
  407.09863 49.0 49
  407.11722 237.0 237
  408.10675 13.0 13
  408.11514 34.0 34
  408.13309 50.0 50
  417.09134 52.0 52
  417.10898 37.0 37
  417.21774 11.0 11
  418.07608 12.0 12
  418.12195 11.0 11
  419.12061 13.0 13
  435.10428 46.0 46
  435.12549 34.0 34
  436.13693 18.0 18
  437.12265 13.0 13
//
