ACCESSION: MSBNK-RIKEN-PR310474
RECORD_TITLE: Flavone; LC-ESI-QTOF; MS2
DATE: 2019.03.28
AUTHORS: Tetsuya Mori, Center for Sustainable Resource Science, RIKEN
LICENSE: CC BY-NC-SA
PUBLICATION: Tsugawa H., Nakabayashi R., Mori T., Yamada Y., Takahashi M., Rai A., Sugiyama R., Yamamoto H., Nakaya T., Yamazaki M., Kooke R., Bac-Molenaar JA., Oztolan-Erol N., Keurentjes JJB., Arita M., Saito K. (2019) "A cheminformatics approach to characterize metabolomes in stable-isotope-labeled organisms" Nature Methods 16(4):295-298. [doi:10.1038/s41592-019-0358-2]
COMMENT: Annotation level-1
CH$NAME: Flavone
CH$COMPOUND_CLASS: Flavone O-glycosides
CH$FORMULA: C15H10O2
CH$EXACT_MASS: 222.243
CH$SMILES: O=C1C=C(OC2=C1C=CC=C2)C1=CC=CC=C1
CH$IUPAC: InChI=1S/C15H10O2/c16-13-10-15(11-6-2-1-3-7-11)17-14-9-5-4-8-12(13)14/h1-10H
CH$LINK: INCHIKEY VHBFFQKBGNRLFZ-UHFFFAOYSA-N
AC$INSTRUMENT: LC, Waters Acquity UPLC System; MS, Waters Xevo G2 Q-Tof
AC$INSTRUMENT_TYPE: LC-ESI-QTOF
AC$MASS_SPECTROMETRY: MS_TYPE MS2
AC$MASS_SPECTROMETRY: ION_MODE POSITIVE
AC$MASS_SPECTROMETRY: COLLISION_ENERGY 6V
AC$MASS_SPECTROMETRY: DESOLVATION_GAS_FLOW 800/h
AC$MASS_SPECTROMETRY: DESOLVATION_TEMPERATURE 450 C
AC$MASS_SPECTROMETRY: IONIZATION ESI
AC$CHROMATOGRAPHY: CAPILLARY_VOLTAGE +3.00 kV
AC$CHROMATOGRAPHY: COLUMN_NAME Acquity bridged ethyl hybrid C18 (1.7 um, 2.1 mm * 100 mm, Waters)
AC$CHROMATOGRAPHY: COLUMN_TEMPERATURE 40 C
AC$CHROMATOGRAPHY: FLOW_GRADIENT A/B = (99.5%/0.5% at 0 min, 99.5%/0.5% at 0.1 min, 20%/80% at 10 min, 0.5%/99.5% at 10.1 min, 0.5%/99.5% at 12.0 min, 99.5%/0.5% at 12.1 min, 99.5%/0.5% at 15.0 min)
AC$CHROMATOGRAPHY: FLOW_RATE 0.3 ml/min at 0 min, 0.3 ml/min at 10 min, 0.4 ml/min at 10.1 min, 0.4 ml/min at 14.4 min, 0.3 ml/min at 14.5 min
AC$CHROMATOGRAPHY: RETENTION_TIME 7.75
AC$CHROMATOGRAPHY: SOLVENT A water including 0.1% formic acid
AC$CHROMATOGRAPHY: SOLVENT B acetonitrile including 0.1% formic acid
MS$FOCUSED_ION: PRECURSOR_TYPE [M+H]+
MS$FOCUSED_ION: PRECURSOR_M/Z 223.07536
PK$SPLASH: splash10-00di-0290000000-da8152913d1febec002d
PK$NUM_PEAK: 196
PK$PEAK: m/z int. rel.int.
  51.02671 23.0 0
  56.7919 28.0 0
  65.03477 150.0 1
  65.04017 339.0 3
  66.0424 20.0 0
  67.04478 38.0 0
  68.99693 187.0 2
  75.02614 26.0 0
  76.33099 17.0 0
  77.01196 27.0 0
  77.02639 22.0 0
  77.03832 1701.0 16
  77.32192 20.0 0
  77.37871 17.0 0
  77.97189 23.0 0
  78.03903 159.0 2
  78.04596 27.0 0
  78.201 18.0 0
  78.57435 18.0 0
  78.66857 18.0 0
  86.2328 19.0 0
  93.03419 1624.0 16
  94.03162 73.0 1
  94.04037 40.0 0
  94.2489 17.0 0
  101.03717 96.0 1
  102.03349 44.0 0
  102.04581 45.0 0
  103.05363 2431.0 23
  103.06763 24.0 0
  104.05399 222.0 2
  105.03387 442.0 4
  105.77144 18.0 0
  106.56223 20.0 0
  115.05287 19.0 0
  118.03723 33.0 0
  118.06403 39.0 0
  118.07094 23.0 0
  120.15128 18.0 0
  120.45483 17.0 0
  120.8128 18.0 0
  120.9778 25.0 0
  121.01442 56.0 1
  121.02832 5631.0 54
  121.16571 21.0 0
  121.81069 17.0 0
  122.0217 78.0 1
  122.03252 423.0 4
  122.83508 18.0 0
  123.03324 21.0 0
  123.04086 29.0 0
  124.41698 17.0 0
  126.6224 55.0 1
  128.98184 29.0 0
  129.00055 29.0 0
  129.01775 95.0 1
  129.03284 2704.0 26
  129.68837 20.0 0
  129.86572 33.0 0
  130.02039 17.0 0
  130.04063 247.0 2
  130.68925 27.0 0
  133.97662 25.0 0
  137.87724 33.0 0
  138.40385 22.0 0
  138.60396 52.0 0
  139.02077 21.0 0
  139.28879 29.0 0
  139.41911 17.0 0
  141.07478 20.0 0
  141.08163 71.0 1
  141.62874 20.0 0
  141.94688 24.0 0
  141.95541 23.0 0
  142.31271 38.0 0
  142.69324 18.0 0
  145.93506 21.0 0
  146.70526 18.0 0
  147.04869 42.0 0
  147.78729 39.0 0
  147.85342 29.0 0
  148.46181 40.0 0
  149.10196 35.0 0
  150.02673 43.0 0
  150.04549 22.0 0
  150.17551 18.0 0
  151.0481 96.0 1
  151.05586 100.0 1
  151.82115 21.0 0
  152.03502 41.0 0
  152.04585 72.0 1
  152.05516 370.0 4
  152.06166 1142.0 11
  153.05722 22.0 0
  153.06802 227.0 2
  153.91899 20.0 0
  155.07907 17.0 0
  155.08929 66.0 1
  155.49979 33.0 0
  156.24573 17.0 0
  156.40897 41.0 0
  156.44542 39.0 0
  156.76692 33.0 0
  158.46939 20.0 0
  164.06848 49.0 0
  165.03938 23.0 0
  165.0565 138.0 1
  165.06859 1212.0 12
  165.10744 30.0 0
  165.31804 30.0 0
  166.07016 228.0 2
  166.07924 339.0 3
  167.04579 40.0 0
  167.08498 1453.0 14
  167.09213 501.0 5
  168.06192 20.0 0
  168.07552 45.0 0
  168.08707 148.0 1
  168.09753 27.0 0
  169.06383 18.0 0
  170.09555 41.0 0
  173.96483 33.0 0
  174.17009 21.0 0
  174.73177 20.0 0
  175.05521 30.0 0
  175.72443 18.0 0
  176.04988 52.0 0
  176.05687 104.0 1
  176.06549 140.0 1
  176.11539 29.0 0
  176.67099 20.0 0
  177.01517 24.0 0
  177.04843 37.0 0
  177.06549 572.0 5
  177.87637 22.0 0
  178.0137 18.0 0
  178.078 3190.0 31
  178.99181 21.0 0
  179.07106 61.0 1
  179.0827 561.0 5
  179.85713 18.0 0
  179.88812 33.0 0
  180.07266 18.0 0
  180.09097 26.0 0
  180.32198 18.0 0
  181.05231 24.0 0
  181.06519 145.0 1
  182.04039 33.0 0
  183.03702 37.0 0
  184.44649 40.0 0
  184.92297 17.0 0
  186.46642 20.0 0
  194.07402 19.0 0
  194.76196 25.0 0
  195.08052 83.0 1
  195.09027 23.0 0
  196.29849 34.0 0
  196.81389 27.0 0
  197.53224 18.0 0
  198.66205 21.0 0
  198.67061 42.0 0
  198.84256 20.0 0
  199.47845 23.0 0
  199.96277 27.0 0
  202.70409 20.0 0
  205.06351 26.0 0
  205.07886 27.0 0
  208.13399 31.0 0
  211.77187 17.0 0
  211.94386 28.0 0
  215.37498 20.0 0
  216.32828 48.0 0
  216.99371 19.0 0
  218.86688 17.0 0
  218.8968 17.0 0
  219.14835 27.0 0
  221.06097 27.0 0
  222.06293 24.0 0
  222.19707 23.0 0
  222.45634 17.0 0
  222.62149 17.0 0
  222.70697 17.0 0
  222.79691 20.0 0
  222.83119 18.0 0
  222.91574 38.0 0
  222.95058 23.0 0
  222.98389 18.0 0
  223.01199 198.0 2
  223.02467 297.0 3
  223.03941 353.0 3
  223.07585 104332.0 999
  223.11842 3822.0 37
  223.15791 578.0 6
  223.20186 17.0 0
  223.2247 20.0 0
  223.25154 1268.0 12
//
