ACCESSION: MSBNK-RIKEN-PR303334
RECORD_TITLE: NP-000004(11); LC-ESI-QTOF; MS2
DATE: 2019.03.28
AUTHORS: Tetsuya Mori, Center for Sustainable Resource Science, RIKEN
LICENSE: CC BY-NC-SA
PUBLICATION: Tsugawa H., Nakabayashi R., Mori T., Yamada Y., Takahashi M., Rai A., Sugiyama R., Yamamoto H., Nakaya T., Yamazaki M., Kooke R., Bac-Molenaar JA., Oztolan-Erol N., Keurentjes JJB., Arita M., Saito K. (2019) "A cheminformatics approach to characterize metabolomes in stable-isotope-labeled organisms" Nature Methods 16(4):295-298. [doi:10.1038/s41592-019-0358-2]
COMMENT: registered in RIKEN PlaSMA
CH$NAME: NP-000004(11)
CH$COMPOUND_CLASS: Flavonoid 8-C-glycosides
CH$FORMULA: C26H28O14
CH$EXACT_MASS: 564.496
CH$SMILES: OC[C@@H]1OC([C@H](O)[C@H]1O)C1=C2OC(=CC(=O)C2=C(O)C(C2O[C@H](CO)[C@@H](O)[C@H](O)[C@H]2O)=C1O)C1=CC=C(O)C=C1
CH$IUPAC: InChI=1S/C26H28O14/c27-6-12-17(31)21(35)23(37)25(39-12)15-19(33)14-10(30)5-11(8-1-3-9(29)4-2-8)38-24(14)16(20(15)34)26-22(36)18(32)13(7-28)40-26/h1-5,12-13,17-18,21-23,25-29,31-37H,6-7H2/t12-,13+,17-,18+,21+,22-,23-,25?,26?/m1/s1
CH$LINK: INCHIKEY TUIJPUWSXVFWSH-FBMRRHFKSA-N
AC$INSTRUMENT: LC, Waters Acquity UPLC System; MS, Waters Xevo G2 Q-Tof
AC$INSTRUMENT_TYPE: LC-ESI-QTOF
AC$MASS_SPECTROMETRY: MS_TYPE MS2
AC$MASS_SPECTROMETRY: ION_MODE POSITIVE
AC$MASS_SPECTROMETRY: COLLISION_ENERGY 6V
AC$MASS_SPECTROMETRY: DESOLVATION_GAS_FLOW 800/h
AC$MASS_SPECTROMETRY: DESOLVATION_TEMPERATURE 450 C
AC$MASS_SPECTROMETRY: IONIZATION ESI
AC$CHROMATOGRAPHY: CAPILLARY_VOLTAGE +3.00 kV
AC$CHROMATOGRAPHY: COLUMN_NAME Acquity bridged ethyl hybrid C18 (1.7 um, 2.1 mm * 100 mm, Waters)
AC$CHROMATOGRAPHY: COLUMN_TEMPERATURE 40 C
AC$CHROMATOGRAPHY: FLOW_GRADIENT A/B = (99.5%/0.5% at 0 min, 99.5%/0.5% at 0.1 min, 20%/80% at 10 min, 0.5%/99.5% at 10.1 min, 0.5%/99.5% at 12.0 min, 99.5%/0.5% at 12.1 min, 99.5%/0.5% at 15.0 min)
AC$CHROMATOGRAPHY: FLOW_RATE 0.3 ml/min at 0 min, 0.3 ml/min at 10 min, 0.4 ml/min at 10.1 min, 0.4 ml/min at 14.4 min, 0.3 ml/min at 14.5 min
AC$CHROMATOGRAPHY: RETENTION_TIME 3.55055
AC$CHROMATOGRAPHY: SOLVENT A water including 0.1% formic acid
AC$CHROMATOGRAPHY: SOLVENT B acetonitrile including 0.1% formic acid
MS$FOCUSED_ION: PRECURSOR_TYPE [M+H]+
MS$FOCUSED_ION: PRECURSOR_M/Z 565.155182
PK$SPLASH: splash10-014i-0009780000-302128cfb126aa331599
PK$NUM_PEAK: 180
PK$PEAK: m/z int. rel.int.
  145.02406 5.0 5
  177.03062 6.0 6
  189.02231 21.0 21
  191.04135 6.0 6
  218.34224 9.0 9
  226.87981 7.0 7
  241.90628 8.0 8
  243.03523 6.0 6
  267.07098 9.0 9
  277.04297 5.0 5
  281.05634 6.0 6
  283.05481 5.0 5
  283.06485 9.0 9
  295.03513 5.0 5
  295.05371 41.0 41
  295.07056 51.0 51
  296.06491 13.0 13
  301.07306 6.0 6
  307.05783 83.0 83
  307.06992 31.0 31
  307.09601 6.0 6
  307.12415 7.0 7
  308.06622 24.0 24
  309.03952 5.0 5
  309.06613 7.0 7
  313.08392 18.0 18
  313.09708 5.0 5
  319.06259 10.0 10
  320.07086 5.0 5
  321.0748 48.0 48
  322.07291 6.0 6
  322.09982 6.0 6
  322.65802 6.0 6
  323.09494 11.0 11
  325.01941 11.0 11
  325.06534 86.0 86
  325.07773 67.0 67
  326.07544 44.0 44
  328.02292 7.0 7
  333.03577 8.0 8
  335.08337 11.0 11
  335.09805 30.0 30
  335.11359 18.0 18
  336.07254 5.0 5
  337.04807 9.0 9
  337.07053 104.0 104
  337.08203 47.0 47
  338.05899 5.0 5
  338.08267 14.0 14
  339.09308 9.0 9
  340.09641 6.0 6
  343.07687 5.0 5
  345.04364 5.0 5
  345.05743 5.0 5
  345.08545 16.0 16
  345.85309 6.0 6
  346.09985 5.0 5
  347.09888 6.0 6
  349.05328 9.0 9
  349.07126 75.0 75
  349.08585 15.0 15
  350.05887 11.0 11
  350.073 43.0 43
  351.05563 16.0 16
  351.08826 27.0 27
  355.08212 19.0 19
  356.06714 5.0 5
  356.07825 18.0 18
  361.06979 65.0 65
  362.04053 5.0 5
  362.11795 7.0 7
  363.06586 13.0 13
  363.07953 22.0 22
  363.09161 21.0 21
  364.09613 15.0 15
  365.08392 7.0 7
  367.08109 11.0 11
  373.0705 35.0 35
  373.10443 7.0 7
  374.0777 11.0 11
  375.06107 5.0 5
  375.08109 17.0 17
  377.06647 6.0 6
  377.4158 6.0 6
  379.04993 5.0 5
  379.06949 43.0 43
  379.08136 131.0 131
  379.09592 60.0 60
  380.07416 13.0 13
  380.09186 36.0 36
  385.07196 8.0 8
  387.08994 6.0 6
  389.10126 5.0 5
  391.04428 11.0 11
  391.06122 34.0 34
  391.08057 143.0 143
  391.12234 5.0 5
  392.08521 58.0 58
  393.08682 5.0 5
  397.07901 5.0 5
  397.10208 17.0 17
  398.09137 15.0 15
  401.05917 5.0 5
  403.05551 21.0 21
  403.08167 9.0 9
  404.08121 9.0 9
  405.09787 14.0 14
  407.06091 6.0 6
  407.08585 8.0 8
  409.0553 9.0 9
  409.08954 173.0 173
  410.09756 72.0 72
  411.09988 8.0 8
  412.09991 12.0 12
  415.08392 17.0 17
  415.10803 7.0 7
  416.08475 5.0 5
  416.10214 10.0 10
  417.08774 7.0 7
  421.09549 25.0 25
  427.10168 260.0 260
  428.07895 24.0 24
  428.10934 68.0 68
  429.10754 19.0 19
  433.09097 31.0 31
  439.09586 16.0 16
  440.11392 11.0 11
  445.08838 59.0 59
  445.10815 51.0 51
  451.10779 25.0 25
  457.09076 28.0 28
  457.10855 33.0 33
  457.12302 17.0 17
  458.10782 13.0 13
  458.12607 22.0 22
  463.09695 18.0 18
  466.11816 6.0 6
  466.47809 6.0 6
  475.09668 28.0 28
  475.11935 35.0 35
  475.13925 9.0 9
  475.55286 5.0 5
  476.07935 13.0 13
  476.09561 13.0 13
  476.11301 9.0 9
  476.13394 18.0 18
  481.07626 8.0 8
  481.11588 75.0 75
  482.13904 18.0 18
  493.07587 8.0 8
  493.10617 35.0 35
  494.10876 20.0 20
  499.12067 62.0 62
  499.14291 26.0 26
  500.0881 11.0 11
  500.13773 43.0 43
  501.09836 6.0 6
  511.09253 13.0 13
  511.11365 46.0 46
  511.13083 52.0 52
  511.29071 6.0 6
  512.07349 12.0 12
  512.13226 52.0 52
  529.10388 21.0 21
  529.11938 79.0 79
  529.14594 42.0 42
  530.13184 58.0 58
  531.14093 5.0 5
  547.01093 5.0 5
  547.13867 225.0 225
  547.70575 7.0 7
  548.11707 13.0 13
  548.14539 36.0 36
  549.14587 23.0 23
  550.13141 6.0 6
  556.71173 6.0 6
  564.79431 5.0 5
  565.05316 5.0 5
  565.10767 15.0 15
  565.1554 1000.0 999
//
