ACCESSION: MSBNK-RIKEN-PR100875
RECORD_TITLE: L-(-)-Mandelic acid; LC-ESI-QTOF; MS2; CE:Ramp 5-60 V; [M-H]-
DATE: 2016.01.19 (Created 2010.06.21, modified 2011.05.06)
AUTHORS: Matsuda F, Suzuki M, Sawada Y, Plant Science Center, RIKEN.
LICENSE: CC BY-SA
COMMENT: Acquisition and generation of the data is financially supported in part by CREST/JST.
CH$NAME: (R)-(-)-mandelic acid
CH$NAME: D(-)-Mandelic acid
CH$NAME: (R)-Mandelate
CH$NAME: (R)-2-Hydroxy-2-phenylacetic acid
CH$NAME: (R)-2-Hydroxy-2-phenylacetate
CH$NAME: D-2-Phenylglycolic acid
CH$NAME: D-(-)-Amygdalic Acid
CH$NAME: L-(-)-Mandelic acid
CH$COMPOUND_CLASS: Carboxylic acids
CH$FORMULA: C8H8O3
CH$EXACT_MASS: 152.04734
CH$SMILES: OC(=O)[C@H](O)c(c1)cccc1
CH$IUPAC: InChI=1S/C8H8O3/c9-7(8(10)11)6-4-2-1-3-5-6/h1-5,7,9H,(H,10,11)/t7-/m1/s1
CH$LINK: CAS 611-71-2
CH$LINK: CHEMSPIDER 11420
CH$LINK: KEGG C01983
CH$LINK: PUBCHEM CID:11914
CH$LINK: INCHIKEY IWYDHOAUDWTVEP-SSDOTTSWSA-N
CH$LINK: COMPTOX DTXSID4046523
AC$INSTRUMENT: UPLC Q-Tof Premier, Waters
AC$INSTRUMENT_TYPE: LC-ESI-QTOF
AC$MASS_SPECTROMETRY: MS_TYPE MS2
AC$MASS_SPECTROMETRY: ION_MODE NEGATIVE
AC$MASS_SPECTROMETRY: COLLISION_ENERGY Ramp 5-60 V
AC$MASS_SPECTROMETRY: DATAFORMAT Continuum
AC$MASS_SPECTROMETRY: DESOLVATION_GAS_FLOW 600.0 L/Hr
AC$MASS_SPECTROMETRY: DESOLVATION_TEMPERATURE 400 C
AC$MASS_SPECTROMETRY: FRAGMENTATION_METHOD LOW-ENERGY CID
AC$MASS_SPECTROMETRY: IONIZATION ESI
AC$MASS_SPECTROMETRY: SOURCE_TEMPERATURE 120 C
AC$CHROMATOGRAPHY: CAPILLARY_VOLTAGE 3.0 kV
AC$CHROMATOGRAPHY: SAMPLING_CONE 23.0 V
AC$CHROMATOGRAPHY: SOLVENT A CH3CN(0.1%HCOOH)
AC$CHROMATOGRAPHY: SOLVENT B H2O(0.1%HCOOH)
MS$FOCUSED_ION: PRECURSOR_M/Z 151.03954
MS$FOCUSED_ION: PRECURSOR_TYPE [M-H]-
PK$SPLASH: splash10-0udi-0900000000-26a5fcf7f098faa99c2d
PK$NUM_PEAK: 2
PK$PEAK: m/z int. rel.int.
  107.0502 27.68 416
  151.0395 66.54 999
//
