ACCESSION: MSBNK-RIKEN-PR301997
RECORD_TITLE: Kaempferol-3-O-glucoside-7-O-rhamnoside; LC-ESI-QTOF; MS2
DATE: 2019.03.28
AUTHORS: Tetsuya Mori, Center for Sustainable Resource Science, RIKEN
LICENSE: CC BY-NC-SA
PUBLICATION: Tsugawa H., Nakabayashi R., Mori T., Yamada Y., Takahashi M., Rai A., Sugiyama R., Yamamoto H., Nakaya T., Yamazaki M., Kooke R., Bac-Molenaar JA., Oztolan-Erol N., Keurentjes JJB., Arita M., Saito K. (2019) "A cheminformatics approach to characterize metabolomes in stable-isotope-labeled organisms" Nature Methods 16(4):295-298. [doi:10.1038/s41592-019-0358-2]
COMMENT: registered in RIKEN PlaSMA
CH$NAME: Kaempferol-3-O-glucoside-7-O-rhamnoside
CH$COMPOUND_CLASS: Flavonoid-7-O-glycosides
CH$FORMULA: C27H30O15
CH$EXACT_MASS: 594.522
CH$SMILES: CC1OC(OC2=CC(O)=C3C(=O)C(OC4OC(CO)C(O)C(O)C4O)=C(OC3=C2)C2=CC=C(O)C=C2)C(O)C(O)C1O
CH$IUPAC: InChI=1S/C27H30O15/c1-9-17(31)20(34)22(36)26(38-9)39-12-6-13(30)16-14(7-12)40-24(10-2-4-11(29)5-3-10)25(19(16)33)42-27-23(37)21(35)18(32)15(8-28)41-27/h2-7,9,15,17-18,20-23,26-32,34-37H,8H2,1H3
CH$LINK: INCHIKEY JYXSWDCPHRTYGU-UHFFFAOYSA-N
AC$INSTRUMENT: LC, Waters Acquity UPLC System; MS, Waters Xevo G2 Q-Tof
AC$INSTRUMENT_TYPE: LC-ESI-QTOF
AC$MASS_SPECTROMETRY: MS_TYPE MS2
AC$MASS_SPECTROMETRY: ION_MODE POSITIVE
AC$MASS_SPECTROMETRY: COLLISION_ENERGY 6V
AC$MASS_SPECTROMETRY: DESOLVATION_GAS_FLOW 800/h
AC$MASS_SPECTROMETRY: DESOLVATION_TEMPERATURE 450 C
AC$MASS_SPECTROMETRY: IONIZATION ESI
AC$CHROMATOGRAPHY: CAPILLARY_VOLTAGE +3.00 kV
AC$CHROMATOGRAPHY: COLUMN_NAME Acquity bridged ethyl hybrid C18 (1.7 um, 2.1 mm * 100 mm, Waters)
AC$CHROMATOGRAPHY: COLUMN_TEMPERATURE 40 C
AC$CHROMATOGRAPHY: FLOW_GRADIENT A/B = (99.5%/0.5% at 0 min, 99.5%/0.5% at 0.1 min, 20%/80% at 10 min, 0.5%/99.5% at 10.1 min, 0.5%/99.5% at 12.0 min, 99.5%/0.5% at 12.1 min, 99.5%/0.5% at 15.0 min)
AC$CHROMATOGRAPHY: FLOW_RATE 0.3 ml/min at 0 min, 0.3 ml/min at 10 min, 0.4 ml/min at 10.1 min, 0.4 ml/min at 14.4 min, 0.3 ml/min at 14.5 min
AC$CHROMATOGRAPHY: RETENTION_TIME 3.699467
AC$CHROMATOGRAPHY: SOLVENT A water including 0.1% formic acid
AC$CHROMATOGRAPHY: SOLVENT B acetonitrile including 0.1% formic acid
MS$FOCUSED_ION: PRECURSOR_TYPE [M+H]+
MS$FOCUSED_ION: PRECURSOR_M/Z 595.1657467
PK$SPLASH: splash10-000i-0090000000-5a5992a099bd0f7545bd
PK$NUM_PEAK: 10
PK$PEAK: m/z int. rel.int.
  73.03111 7.0 7
  85.02666 6.0 6
  109.02762 6.0 6
  287.01889 9.0 9
  287.05545 1000.0 999
  288.02014 5.0 5
  288.0567 131.0 131
  288.07175 44.0 44
  289.05984 7.0 7
  373.16318 7.0 7
//
