ACCESSION: MSBNK-RIKEN-PR100572
RECORD_TITLE: Inosine-5'-diphosphate; LC-ESI-QTOF; MS2; CE:Ramp 5-60 V; [M-H]-
DATE: 2016.01.19 (Created 2009.09.10, modified 2011.05.06)
AUTHORS: Matsuda F, Suzuki M, Sawada Y, Plant Science Center, RIKEN.
LICENSE: CC BY-SA
COMMENT: Acquisition and generation of the data is financially supported in part by CREST/JST.
CH$NAME: Inosine-5'-diphosphate
CH$NAME: IDP
CH$NAME: 5'-IDP
CH$COMPOUND_CLASS: Natural Product; Nucleoside; Phosphates
CH$FORMULA: C10H14N4O11P2
CH$EXACT_MASS: 428.01343
CH$SMILES: O=C(N3)c(n2)c(N=C3)n(c2)[C@H](O1)[C@H](O)[C@H](O)[C@@H](COP(O)(=O)OP(O)(O)=O)1
CH$IUPAC: InChI=1S/C10H14N4O11P2/c15-6-4(1-23-27(21,22)25-26(18,19)20)24-10(7(6)16)14-3-13-5-8(14)11-2-12-9(5)17/h2-4,6-7,10,15-16H,1H2,(H,21,22)(H,11,12,17)(H2,18,19,20)/t4-,6-,7-,10-/m1/s1
CH$LINK: CAS 86-04-4
CH$LINK: CHEMSPIDER 6570
CH$LINK: COMPTOX DTXSID90235329
CH$LINK: INCHIKEY JPXZQMKKFWMMGK-KQYNXXCUSA-N
CH$LINK: KEGG C00104
CH$LINK: PUBCHEM CID:135398651
AC$INSTRUMENT: UPLC Q-Tof Premier, Waters
AC$INSTRUMENT_TYPE: LC-ESI-QTOF
AC$MASS_SPECTROMETRY: MS_TYPE MS2
AC$MASS_SPECTROMETRY: ION_MODE NEGATIVE
AC$MASS_SPECTROMETRY: COLLISION_ENERGY Ramp 5-60 V
AC$MASS_SPECTROMETRY: DATAFORMAT Continuum
AC$MASS_SPECTROMETRY: DATE 2008.07.28
AC$MASS_SPECTROMETRY: DESOLVATION_GAS_FLOW 600.0 L/Hr
AC$MASS_SPECTROMETRY: DESOLVATION_TEMPERATURE 420 C
AC$MASS_SPECTROMETRY: FRAGMENTATION_METHOD LOW-ENERGY CID
AC$MASS_SPECTROMETRY: IONIZATION ESI
AC$MASS_SPECTROMETRY: SCANNING 1.0 sec/scan (m/z = 50-1000)
AC$MASS_SPECTROMETRY: SOURCE_TEMPERATURE 120 C
AC$CHROMATOGRAPHY: CAPILLARY_VOLTAGE 3.0 kV
AC$CHROMATOGRAPHY: SAMPLING_CONE 23.0 V
AC$CHROMATOGRAPHY: SOLVENT A CH3CN(0.1%HCOOH)
AC$CHROMATOGRAPHY: SOLVENT B H2O(0.1%HCOOH)
MS$FOCUSED_ION: PRECURSOR_M/Z 427.00563
MS$FOCUSED_ION: PRECURSOR_TYPE [M-H]-
PK$SPLASH: splash10-004i-5901500000-94dcb5867e9c2cd7e41b
PK$NUM_PEAK: 10
PK$PEAK: m/z int. rel.int.
  78.9602 76.03 988
  92.0267 5.061 66
  96.9711 5.173 67
  135.0320 69.79 907
  158.9256 67.59 879
  272.9583 7.739 101
  329.0290 23.88 310
  369.0252 5.741 75
  408.9914 9.839 128
  427.0056 76.86 999
//
