ACCESSION: MSBNK-RIKEN-PR305580
RECORD_TITLE: Kaempferol-3-O-robinoside-7-O-rhamnoside; LC-ESI-QTOF; MS2
DATE: 2019.03.28
AUTHORS: Tetsuya Mori, Center for Sustainable Resource Science, RIKEN
LICENSE: CC BY-NC-SA
PUBLICATION: Tsugawa H., Nakabayashi R., Mori T., Yamada Y., Takahashi M., Rai A., Sugiyama R., Yamamoto H., Nakaya T., Yamazaki M., Kooke R., Bac-Molenaar JA., Oztolan-Erol N., Keurentjes JJB., Arita M., Saito K. (2019) "A cheminformatics approach to characterize metabolomes in stable-isotope-labeled organisms" Nature Methods 16(4):295-298. [doi:10.1038/s41592-019-0358-2]
COMMENT: registered in RIKEN PlaSMA
CH$NAME: Kaempferol-3-O-robinoside-7-O-rhamnoside
CH$COMPOUND_CLASS: Flavonoid-7-O-glycosides
CH$FORMULA: C33H40O19
CH$EXACT_MASS: 740.664
CH$SMILES: CC1OC(OCC2OC(OC3=C(OC4=CC(OC5OC(C)C(O)C(O)C5O)=CC(O)=C4C3=O)C3=CC=C(O)C=C3)C(O)C(O)C2O)C(O)C(O)C1O
CH$IUPAC: InChI=1S/C33H40O19/c1-10-19(36)23(40)26(43)31(47-10)46-9-17-21(38)25(42)28(45)33(51-17)52-30-22(39)18-15(35)7-14(49-32-27(44)24(41)20(37)11(2)48-32)8-16(18)50-29(30)12-3-5-13(34)6-4-12/h3-8,10-11,17,19-21,23-28,31-38,40-45H,9H2,1-2H3
CH$LINK: INCHIKEY PEFASEPMJYRQBW-UHFFFAOYSA-N
AC$INSTRUMENT: LC, Waters Acquity UPLC System; MS, Waters Xevo G2 Q-Tof
AC$INSTRUMENT_TYPE: LC-ESI-QTOF
AC$MASS_SPECTROMETRY: MS_TYPE MS2
AC$MASS_SPECTROMETRY: ION_MODE NEGATIVE
AC$MASS_SPECTROMETRY: COLLISION_ENERGY 6V
AC$MASS_SPECTROMETRY: DESOLVATION_GAS_FLOW 800/h
AC$MASS_SPECTROMETRY: DESOLVATION_TEMPERATURE 450 C
AC$MASS_SPECTROMETRY: IONIZATION ESI
AC$CHROMATOGRAPHY: CAPILLARY_VOLTAGE -2.75 kV
AC$CHROMATOGRAPHY: COLUMN_NAME Acquity bridged ethyl hybrid C18 (1.7 um, 2.1 mm * 100 mm, Waters)
AC$CHROMATOGRAPHY: COLUMN_TEMPERATURE 40 C
AC$CHROMATOGRAPHY: FLOW_GRADIENT A/B = (99.5%/0.5% at 0 min, 99.5%/0.5% at 0.1 min, 20%/80% at 10 min, 0.5%/99.5% at 10.1 min, 0.5%/99.5% at 12.0 min, 99.5%/0.5% at 12.1 min, 99.5%/0.5% at 15.0 min)
AC$CHROMATOGRAPHY: FLOW_RATE 0.3 ml/min at 0 min, 0.3 ml/min at 10 min, 0.4 ml/min at 10.1 min, 0.4 ml/min at 14.4 min, 0.3 ml/min at 14.5 min
AC$CHROMATOGRAPHY: RETENTION_TIME 3.57605
AC$CHROMATOGRAPHY: SOLVENT A water including 0.1% formic acid
AC$CHROMATOGRAPHY: SOLVENT B acetonitrile including 0.1% formic acid
MS$FOCUSED_ION: PRECURSOR_TYPE [M-H]-
MS$FOCUSED_ION: PRECURSOR_M/Z 739.20910264783
PK$SPLASH: splash10-001i-0090000000-c50f21fba493b7c668e9
PK$NUM_PEAK: 44
PK$PEAK: m/z int. rel.int.
  151.00194 49.0 49
  192.00482 8.0 8
  193.01663 7.0 7
  197.0643 6.0 6
  212.06473 6.0 6
  213.05431 13.0 13
  227.02437 10.0 10
  227.0396 54.0 54
  228.03522 16.0 16
  229.04153 18.0 18
  239.03719 7.0 7
  241.04608 12.0 12
  255.00717 6.0 6
  255.03047 291.0 291
  256.02597 16.0 16
  256.03754 50.0 50
  257.04172 28.0 28
  257.06134 5.0 5
  258.05786 11.0 11
  261.60687 7.0 7
  267.01248 7.0 7
  267.02802 6.0 6
  271.05923 9.0 9
  281.04684 9.0 9
  283.02448 821.0 820
  284.03168 1000.0 999
  285.03906 712.0 711
  286.04156 102.0 102
  286.05298 31.0 31
  287.03922 21.0 21
  287.46765 5.0 5
  299.05637 8.0 8
  327.04535 13.0 13
  327.05945 10.0 10
  391.39493 7.0 7
  430.08389 20.0 20
  430.10126 21.0 21
  430.11609 12.0 12
  431.07864 6.0 6
  431.09506 6.0 6
  432.10406 7.0 7
  593.14838 8.0 8
  593.16412 12.0 12
  594.15735 9.0 9
//
