ACCESSION: MSBNK-RIKEN-PR303603
RECORD_TITLE: Scoparone; LC-ESI-QTOF; MS2
DATE: 2019.03.28
AUTHORS: Tetsuya Mori, Center for Sustainable Resource Science, RIKEN
LICENSE: CC BY-NC-SA
PUBLICATION: Tsugawa H., Nakabayashi R., Mori T., Yamada Y., Takahashi M., Rai A., Sugiyama R., Yamamoto H., Nakaya T., Yamazaki M., Kooke R., Bac-Molenaar JA., Oztolan-Erol N., Keurentjes JJB., Arita M., Saito K. (2019) "A cheminformatics approach to characterize metabolomes in stable-isotope-labeled organisms" Nature Methods 16(4):295-298. [doi:10.1038/s41592-019-0358-2]
COMMENT: registered in RIKEN PlaSMA
CH$NAME: Scoparone
CH$COMPOUND_CLASS: Coumarins and derivatives
CH$FORMULA: C11H10O4
CH$EXACT_MASS: 206.197
CH$SMILES: COC1=C(OC)C=C2C=CC(=O)OC2=C1
CH$IUPAC: InChI=1S/C11H10O4/c1-13-9-5-7-3-4-11(12)15-8(7)6-10(9)14-2/h3-6H,1-2H3
CH$LINK: INCHIKEY GUAFOGOEJLSQBT-UHFFFAOYSA-N
AC$INSTRUMENT: LC, Waters Acquity UPLC System; MS, Waters Xevo G2 Q-Tof
AC$INSTRUMENT_TYPE: LC-ESI-QTOF
AC$MASS_SPECTROMETRY: MS_TYPE MS2
AC$MASS_SPECTROMETRY: ION_MODE POSITIVE
AC$MASS_SPECTROMETRY: COLLISION_ENERGY 6V
AC$MASS_SPECTROMETRY: DESOLVATION_GAS_FLOW 800/h
AC$MASS_SPECTROMETRY: DESOLVATION_TEMPERATURE 450 C
AC$MASS_SPECTROMETRY: IONIZATION ESI
AC$CHROMATOGRAPHY: CAPILLARY_VOLTAGE +3.00 kV
AC$CHROMATOGRAPHY: COLUMN_NAME Acquity bridged ethyl hybrid C18 (1.7 um, 2.1 mm * 100 mm, Waters)
AC$CHROMATOGRAPHY: COLUMN_TEMPERATURE 40 C
AC$CHROMATOGRAPHY: FLOW_GRADIENT A/B = (99.5%/0.5% at 0 min, 99.5%/0.5% at 0.1 min, 20%/80% at 10 min, 0.5%/99.5% at 10.1 min, 0.5%/99.5% at 12.0 min, 99.5%/0.5% at 12.1 min, 99.5%/0.5% at 15.0 min)
AC$CHROMATOGRAPHY: FLOW_RATE 0.3 ml/min at 0 min, 0.3 ml/min at 10 min, 0.4 ml/min at 10.1 min, 0.4 ml/min at 14.4 min, 0.3 ml/min at 14.5 min
AC$CHROMATOGRAPHY: RETENTION_TIME 5.000916
AC$CHROMATOGRAPHY: SOLVENT A water including 0.1% formic acid
AC$CHROMATOGRAPHY: SOLVENT B acetonitrile including 0.1% formic acid
MS$FOCUSED_ION: PRECURSOR_TYPE [M+H]+
MS$FOCUSED_ION: PRECURSOR_M/Z 207.0651853
PK$SPLASH: splash10-0a4i-0590000000-70acc6d13b4a60a12fa9
PK$NUM_PEAK: 28
PK$PEAK: m/z int. rel.int.
  90.04605 5.0 5
  91.05066 5.0 5
  91.05542 12.0 12
  107.04811 31.0 31
  108.05539 10.0 10
  118.03847 8.0 8
  119.04708 9.0 9
  121.06589 16.0 16
  135.04181 7.0 7
  136.05241 26.0 26
  145.02531 8.0 8
  146.03664 33.0 33
  147.04066 10.0 10
  148.05125 31.0 31
  151.07449 137.0 137
  152.07787 15.0 15
  152.08563 7.0 7
  163.03923 63.0 63
  164.04358 9.0 9
  174.03275 6.0 6
  179.0699 42.0 42
  191.03375 74.0 74
  192.03 7.0 7
  192.04395 32.0 32
  193.04521 5.0 5
  206.05835 18.0 18
  207.06483 1000.0 999
  207.10616 21.0 21
//
