ACCESSION: MSBNK-RIKEN-PR310596
RECORD_TITLE: Isocorydine; LC-ESI-QTOF; MS2
DATE: 2019.03.28
AUTHORS: Tetsuya Mori, Center for Sustainable Resource Science, RIKEN
LICENSE: CC BY-NC-SA
PUBLICATION: Tsugawa H., Nakabayashi R., Mori T., Yamada Y., Takahashi M., Rai A., Sugiyama R., Yamamoto H., Nakaya T., Yamazaki M., Kooke R., Bac-Molenaar JA., Oztolan-Erol N., Keurentjes JJB., Arita M., Saito K. (2019) "A cheminformatics approach to characterize metabolomes in stable-isotope-labeled organisms" Nature Methods 16(4):295-298. [doi:10.1038/s41592-019-0358-2]
COMMENT: Annotation level-1
CH$NAME: Isocorydine
CH$COMPOUND_CLASS: Alkaloids
CH$FORMULA: C20H23NO4
CH$EXACT_MASS: 341.407
CH$SMILES: COC1=CC=C2CC3N(C)CCC4=C3C(=C(OC)C(OC)=C4)C2=C1O
CH$IUPAC: InChI=1S/C20H23NO4/c1-21-8-7-12-10-15(24-3)20(25-4)18-16(12)13(21)9-11-5-6-14(23-2)19(22)17(11)18/h5-6,10,13,22H,7-9H2,1-4H3
CH$LINK: INCHIKEY QELDJEKNFOQJOY-UHFFFAOYSA-N
AC$INSTRUMENT: LC, Waters Acquity UPLC System; MS, Waters Xevo G2 Q-Tof
AC$INSTRUMENT_TYPE: LC-ESI-QTOF
AC$MASS_SPECTROMETRY: MS_TYPE MS2
AC$MASS_SPECTROMETRY: ION_MODE POSITIVE
AC$MASS_SPECTROMETRY: COLLISION_ENERGY 6V
AC$MASS_SPECTROMETRY: DESOLVATION_GAS_FLOW 800/h
AC$MASS_SPECTROMETRY: DESOLVATION_TEMPERATURE 450 C
AC$MASS_SPECTROMETRY: IONIZATION ESI
AC$CHROMATOGRAPHY: CAPILLARY_VOLTAGE +3.00 kV
AC$CHROMATOGRAPHY: COLUMN_NAME Acquity bridged ethyl hybrid C18 (1.7 um, 2.1 mm * 100 mm, Waters)
AC$CHROMATOGRAPHY: COLUMN_TEMPERATURE 40 C
AC$CHROMATOGRAPHY: FLOW_GRADIENT A/B = (99.5%/0.5% at 0 min, 99.5%/0.5% at 0.1 min, 20%/80% at 10 min, 0.5%/99.5% at 10.1 min, 0.5%/99.5% at 12.0 min, 99.5%/0.5% at 12.1 min, 99.5%/0.5% at 15.0 min)
AC$CHROMATOGRAPHY: FLOW_RATE 0.3 ml/min at 0 min, 0.3 ml/min at 10 min, 0.4 ml/min at 10.1 min, 0.4 ml/min at 14.4 min, 0.3 ml/min at 14.5 min
AC$CHROMATOGRAPHY: RETENTION_TIME 3.92
AC$CHROMATOGRAPHY: SOLVENT A water including 0.1% formic acid
AC$CHROMATOGRAPHY: SOLVENT B acetonitrile including 0.1% formic acid
MS$FOCUSED_ION: PRECURSOR_TYPE [M+H]+
MS$FOCUSED_ION: PRECURSOR_M/Z 342.16998
PK$SPLASH: splash10-0006-0094000000-7395f271dfd41d3459d3
PK$NUM_PEAK: 497
PK$PEAK: m/z int. rel.int.
  88.33728 18.0 1
  90.92408 17.0 0
  91.22727 18.0 1
  115.05899 25.0 1
  123.51135 20.0 1
  136.03145 27.0 1
  138.18829 25.0 1
  140.05533 24.0 1
  147.05563 17.0 0
  152.04749 20.0 1
  152.06271 24.0 1
  153.06488 24.0 1
  153.13702 21.0 1
  154.08113 18.0 1
  160.97102 23.0 1
  161.8078 17.0 0
  162.85486 21.0 1
  164.05908 20.0 1
  164.36072 19.0 1
  165.07173 383.0 11
  165.11163 19.0 1
  166.07866 63.0 2
  166.09073 21.0 1
  167.06039 25.0 1
  167.08772 46.0 1
  167.79376 32.0 1
  168.05315 18.0 1
  168.85966 37.0 1
  169.06403 18.0 1
  170.29999 20.0 1
  173.54662 17.0 0
  175.10826 21.0 1
  177.06778 64.0 2
  177.0748 84.0 2
  177.08705 19.0 1
  177.89667 18.0 1
  178.07744 438.0 12
  178.33766 28.0 1
  179.03438 17.0 0
  179.08798 345.0 10
  179.09734 90.0 3
  179.81023 25.0 1
  179.87616 17.0 0
  180.06473 21.0 1
  180.09016 208.0 6
  180.09892 107.0 3
  181.05328 27.0 1
  181.08963 24.0 1
  181.10486 49.0 1
  181.8105 17.0 0
  182.06921 18.0 1
  183.03212 22.0 1
  183.05336 21.0 1
  183.07848 27.0 1
  185.70563 18.0 1
  185.83328 21.0 1
  186.54813 21.0 1
  188.91425 17.0 0
  189.06021 33.0 1
  189.0648 82.0 2
  189.07529 122.0 3
  189.35622 18.0 1
  190.05788 38.0 1
  190.08054 408.0 12
  191.05093 30.0 1
  191.06273 57.0 2
  191.0873 1579.0 45
  191.53595 25.0 1
  191.60124 21.0 1
  192.09377 263.0 7
  192.16982 24.0 1
  193.06277 287.0 8
  193.07938 50.0 1
  193.10387 56.0 2
  193.29027 33.0 1
  193.66733 20.0 1
  194.07001 528.0 15
  194.14645 25.0 1
  194.40312 25.0 1
  195.07881 110.0 3
  195.08858 25.0 1
  195.83614 29.0 1
  197.06584 18.0 1
  197.09604 109.0 3
  197.49588 34.0 1
  198.21223 18.0 1
  200.78876 18.0 1
  201.07416 133.0 4
  202.07727 351.0 10
  202.87592 18.0 1
  203.06287 53.0 2
  203.08693 373.0 11
  203.60114 18.0 1
  204.09464 144.0 4
  204.19635 17.0 0
  204.84003 19.0 1
  205.06433 237.0 7
  205.08041 95.0 3
  205.0947 87.0 2
  205.11917 27.0 1
  205.29526 35.0 1
  205.65497 19.0 1
  205.7049 17.0 0
  206.05153 17.0 0
  206.07301 827.0 23
  206.10371 46.0 1
  207.01967 21.0 1
  207.06308 30.0 1
  207.07806 558.0 16
  207.08635 388.0 11
  207.98718 20.0 1
  208.02126 22.0 1
  208.08467 572.0 16
  208.09586 449.0 13
  208.45305 18.0 1
  208.83658 21.0 1
  209.05106 80.0 2
  209.06316 42.0 1
  209.08981 79.0 2
  209.09825 214.0 6
  209.17378 19.0 1
  209.23146 20.0 1
  210.06816 138.0 4
  210.11572 17.0 0
  211.1008 25.0 1
  212.62163 24.0 1
  213.1866 20.0 1
  213.54379 17.0 0
  217.06509 59.0 2
  218.02086 32.0 1
  218.0643 121.0 3
  218.07544 260.0 7
  218.09099 92.0 3
  218.16068 23.0 1
  218.17027 17.0 0
  218.41084 20.0 1
  218.86 19.0 1
  218.96007 24.0 1
  218.99689 22.0 1
  219.05151 19.0 1
  219.08252 1412.0 40
  219.66757 20.0 1
  220.03009 17.0 0
  220.0573 54.0 2
  220.08806 529.0 15
  221.03741 20.0 1
  221.05984 520.0 15
  221.09149 326.0 9
  221.10291 149.0 4
  221.11153 93.0 3
  222.05327 26.0 1
  222.06752 333.0 9
  222.08995 23.0 1
  222.10196 50.0 1
  222.17529 17.0 0
  222.28488 26.0 1
  223.06853 139.0 4
  223.11337 372.0 11
  224.08202 97.0 3
  224.08884 279.0 8
  224.10973 20.0 1
  224.12514 56.0 2
  225.07892 68.0 2
  225.08847 47.0 1
  225.10002 55.0 2
  226.06247 17.0 0
  226.09543 48.0 1
  226.21223 26.0 1
  231.0619 55.0 2
  231.07681 259.0 7
  231.08614 140.0 4
  231.29202 20.0 1
  232.08281 49.0 1
  232.0952 43.0 1
  233.05725 307.0 9
  233.09436 207.0 6
  233.10902 21.0 1
  233.28467 17.0 0
  234.05972 77.0 2
  234.07124 428.0 12
  234.09756 30.0 1
  234.44025 18.0 1
  234.97629 21.0 1
  235.05396 21.0 1
  235.07129 800.0 23
  235.08113 1130.0 32
  235.10577 28.0 1
  235.68175 19.0 1
  235.78777 18.0 1
  236.00774 18.0 1
  236.03049 17.0 0
  236.03844 24.0 1
  236.05566 34.0 1
  236.0849 5062.0 144
  236.24123 19.0 1
  236.45497 30.0 1
  236.84851 25.0 1
  236.9762 32.0 1
  237.04556 34.0 1
  237.0591 64.0 2
  237.09041 2174.0 62
  237.12502 21.0 1
  237.75328 17.0 0
  238.05998 557.0 16
  238.07127 570.0 16
  238.0872 96.0 3
  238.10602 131.0 4
  238.12369 28.0 1
  238.24881 17.0 0
  238.43523 22.0 1
  239.0486 17.0 0
  239.06134 96.0 3
  239.07152 87.0 2
  239.09138 20.0 1
  239.10344 40.0 1
  239.11523 17.0 0
  239.54051 29.0 1
  240.05586 19.0 1
  240.06857 17.0 0
  240.85631 18.0 1
  241.073 20.0 1
  241.08783 23.0 1
  243.04205 17.0 0
  243.09605 27.0 1
  243.20319 24.0 1
  245.0751 21.0 1
  246.03098 49.0 1
  246.06689 112.0 3
  246.08376 43.0 1
  246.10367 21.0 1
  246.91411 17.0 0
  247.03537 69.0 2
  247.05197 67.0 2
  247.07628 3066.0 87
  247.10585 25.0 1
  247.26059 18.0 1
  247.52948 21.0 1
  248.03392 72.0 2
  248.08513 6328.0 180
  248.88904 20.0 1
  249.05426 259.0 7
  249.07329 195.0 6
  249.09018 1561.0 44
  249.32028 20.0 1
  249.56978 18.0 1
  249.92622 23.0 1
  250.02966 17.0 0
  250.04915 22.0 1
  250.06137 18.0 1
  250.07201 17.0 0
  250.09724 427.0 12
  250.96376 25.0 1
  251.05986 34.0 1
  251.0733 62.0 2
  251.10928 2329.0 66
  251.14505 18.0 1
  252.08134 77.0 2
  252.09607 43.0 1
  252.11967 325.0 9
  252.99266 37.0 1
  253.02289 18.0 1
  253.04964 24.0 1
  253.07001 81.0 2
  253.08534 648.0 18
  253.10175 73.0 2
  253.13251 20.0 1
  253.45819 22.0 1
  254.07439 34.0 1
  254.09731 128.0 4
  254.10414 48.0 1
  254.12329 19.0 1
  255.09009 54.0 2
  255.1145 26.0 1
  255.14125 18.0 1
  255.35875 18.0 1
  256.07855 18.0 1
  256.50034 20.0 1
  257.40884 21.0 1
  257.92953 32.0 1
  258.08398 20.0 1
  258.11169 19.0 1
  259.13828 48.0 1
  259.6925 17.0 0
  259.99893 17.0 0
  260.50919 26.0 1
  260.69373 29.0 1
  261.06628 20.0 1
  261.08145 83.0 2
  261.09818 96.0 3
  261.11179 63.0 2
  262.099 252.0 7
  262.11444 56.0 2
  263.05258 55.0 2
  263.06894 575.0 16
  263.07974 591.0 17
  263.11734 34.0 1
  263.1297 18.0 1
  263.72729 30.0 1
  263.95856 24.0 1
  264.02298 64.0 2
  264.04361 65.0 2
  264.07993 6410.0 182
  264.18964 17.0 0
  264.2659 17.0 0
  264.55875 28.0 1
  264.80481 53.0 2
  264.88922 43.0 1
  264.91428 18.0 1
  265.01157 31.0 1
  265.04892 70.0 2
  265.08896 5214.0 148
  265.13589 59.0 2
  265.45667 20.0 1
  265.95654 25.0 1
  266.06183 105.0 3
  266.09454 1078.0 31
  266.13461 27.0 1
  266.14868 34.0 1
  266.32605 28.0 1
  266.41296 25.0 1
  266.79333 26.0 1
  266.86469 18.0 1
  266.9632 18.0 1
  267.03854 18.0 1
  267.06421 96.0 3
  267.10468 815.0 23
  267.1257 80.0 2
  267.73441 18.0 1
  267.99478 19.0 1
  268.08469 34.0 1
  268.1041 289.0 8
  268.12115 18.0 1
  268.40448 18.0 1
  268.57806 17.0 0
  268.65866 22.0 1
  268.8765 17.0 0
  268.97742 19.0 1
  269.08112 21.0 1
  269.08966 75.0 2
  269.11462 20.0 1
  269.63861 35.0 1
  270.10095 24.0 1
  270.13034 18.0 1
  270.14725 32.0 1
  270.97189 18.0 1
  272.13409 17.0 0
  273.69843 18.0 1
  275.58813 19.0 1
  277.09091 97.0 3
  277.55731 25.0 1
  278.06439 34.0 1
  278.08624 153.0 4
  278.0993 195.0 6
  278.11337 53.0 2
  278.1279 40.0 1
  279.00259 27.0 1
  279.05524 83.0 2
  279.06979 42.0 1
  279.10361 14755.0 419
  279.15573 73.0 2
  279.16296 34.0 1
  279.17703 20.0 1
  279.38858 17.0 0
  280.04068 42.0 1
  280.05499 30.0 1
  280.0665 37.0 1
  280.10974 6757.0 192
  280.22986 18.0 1
  280.34387 22.0 1
  280.40921 29.0 1
  280.74884 22.0 1
  280.79773 25.0 1
  280.81 17.0 0
  281.03271 22.0 1
  281.05103 71.0 2
  281.07971 1817.0 52
  281.0918 1020.0 29
  281.11789 760.0 22
  281.242 23.0 1
  281.35638 18.0 1
  281.5285 29.0 1
  281.85526 33.0 1
  281.88425 23.0 1
  281.90472 20.0 1
  282.05612 22.0 1
  282.0864 643.0 18
  282.1077 37.0 1
  282.12457 22.0 1
  282.26901 20.0 1
  282.34149 17.0 0
  282.75397 18.0 1
  283.08408 68.0 2
  283.09885 63.0 2
  283.12503 23.0 1
  284.0752 20.0 1
  284.09836 44.0 1
  284.11182 39.0 1
  285.10175 34.0 1
  285.13699 40.0 1
  286.10504 17.0 0
  286.12247 17.0 0
  286.66614 22.0 1
  288.3555 22.0 1
  289.97717 37.0 1
  290.33624 17.0 0
  291.09344 17.0 0
  291.58475 18.0 1
  291.91446 17.0 0
  292.11386 20.0 1
  293.08917 18.0 1
  293.12537 42.0 1
  293.28116 28.0 1
  294.10596 18.0 1
  294.12277 106.0 3
  294.13742 24.0 1
  295.10223 69.0 2
  295.11151 19.0 1
  296.00504 17.0 0
  296.05881 83.0 2
  296.10611 3915.0 111
  296.13174 67.0 2
  296.16013 28.0 1
  297.08157 57.0 2
  297.11014 875.0 25
  297.13608 23.0 1
  297.61612 22.0 1
  297.6293 21.0 1
  298.1059 83.0 2
  298.12299 52.0 1
  298.33133 20.0 1
  298.75018 31.0 1
  299.09369 17.0 0
  299.11322 94.0 3
  299.12875 196.0 6
  300.05853 24.0 1
  300.1481 21.0 1
  300.15683 23.0 1
  301.43353 25.0 1
  304.12021 22.0 1
  307.3768 18.0 1
  308.82159 21.0 1
  309.6503 18.0 1
  310.08334 20.0 1
  310.12479 20.0 1
  310.13528 17.0 0
  310.15137 38.0 1
  310.67252 22.0 1
  311.0416 18.0 1
  311.05905 25.0 1
  311.09479 33.0 1
  311.12915 10295.0 292
  311.17114 46.0 1
  311.17874 18.0 1
  311.41434 20.0 1
  311.71332 46.0 1
  311.89615 25.0 1
  312.00854 17.0 0
  312.03665 27.0 1
  312.07816 21.0 1
  312.10254 17.0 0
  312.13312 2396.0 68
  312.35477 18.0 1
  312.67032 26.0 1
  313.0051 20.0 1
  313.1145 18.0 1
  313.13663 172.0 5
  313.15482 48.0 1
  313.26645 25.0 1
  313.43451 21.0 1
  314.13391 35.0 1
  314.34409 17.0 0
  315.0596 19.0 1
  316.12106 31.0 1
  316.26981 20.0 1
  316.79147 21.0 1
  321.66031 19.0 1
  324.11655 17.0 0
  324.14401 24.0 1
  325.13803 25.0 1
  326.14624 20.0 1
  327.15717 24.0 1
  328.12216 17.0 0
  333.81033 17.0 0
  336.49554 31.0 1
  336.68741 17.0 0
  337.81036 24.0 1
  338.87628 19.0 1
  341.13651 18.0 1
  341.97974 19.0 1
  342.05518 17.0 0
  342.09302 34.0 1
  342.10785 44.0 1
  342.13489 53.0 2
  342.17178 35190.0 999
  342.22498 1091.0 31
  342.26971 41.0 1
  342.35489 22.0 1
//
