ACCESSION: MSBNK-RIKEN-PR303853
RECORD_TITLE: Asiaticoside; LC-ESI-QTOF; MS2
DATE: 2019.03.28
AUTHORS: Tetsuya Mori, Center for Sustainable Resource Science, RIKEN
LICENSE: CC BY-NC-SA
PUBLICATION: Tsugawa H., Nakabayashi R., Mori T., Yamada Y., Takahashi M., Rai A., Sugiyama R., Yamamoto H., Nakaya T., Yamazaki M., Kooke R., Bac-Molenaar JA., Oztolan-Erol N., Keurentjes JJB., Arita M., Saito K. (2019) "A cheminformatics approach to characterize metabolomes in stable-isotope-labeled organisms" Nature Methods 16(4):295-298. [doi:10.1038/s41592-019-0358-2]
COMMENT: registered in RIKEN PlaSMA
CH$NAME: Asiaticoside
CH$COMPOUND_CLASS: Triterpene saponins
CH$FORMULA: C48H78O19
CH$EXACT_MASS: 959.133
CH$SMILES: CC1CCC2(CCC3(C)C(=CCC4C5(C)CC(O)C(O)C(C)(CO)C5CCC34C)C2C1C)C(=O)OC1OC(COC2OC(CO)C(OC3OC(C)C(O)C(O)C3O)C(O)C2O)C(O)C(O)C1O
CH$IUPAC: InChI=1S/C48H78O19/c1-20-10-13-48(15-14-46(6)23(29(48)21(20)2)8-9-28-44(4)16-24(51)39(60)45(5,19-50)27(44)11-12-47(28,46)7)43(61)67-42-36(58)33(55)31(53)26(65-42)18-62-40-37(59)34(56)38(25(17-49)64-40)66-41-35(57)32(54)30(52)22(3)63-41/h8,20-22,24-42,49-60H,9-19H2,1-7H3
CH$LINK: INCHIKEY WYQVAPGDARQUBT-UHFFFAOYSA-N
AC$INSTRUMENT: LC, Waters Acquity UPLC System; MS, Waters Xevo G2 Q-Tof
AC$INSTRUMENT_TYPE: LC-ESI-QTOF
AC$MASS_SPECTROMETRY: MS_TYPE MS2
AC$MASS_SPECTROMETRY: ION_MODE POSITIVE
AC$MASS_SPECTROMETRY: COLLISION_ENERGY 6V
AC$MASS_SPECTROMETRY: DESOLVATION_GAS_FLOW 800/h
AC$MASS_SPECTROMETRY: DESOLVATION_TEMPERATURE 450 C
AC$MASS_SPECTROMETRY: IONIZATION ESI
AC$CHROMATOGRAPHY: CAPILLARY_VOLTAGE +3.00 kV
AC$CHROMATOGRAPHY: COLUMN_NAME Acquity bridged ethyl hybrid C18 (1.7 um, 2.1 mm * 100 mm, Waters)
AC$CHROMATOGRAPHY: COLUMN_TEMPERATURE 40 C
AC$CHROMATOGRAPHY: FLOW_GRADIENT A/B = (99.5%/0.5% at 0 min, 99.5%/0.5% at 0.1 min, 20%/80% at 10 min, 0.5%/99.5% at 10.1 min, 0.5%/99.5% at 12.0 min, 99.5%/0.5% at 12.1 min, 99.5%/0.5% at 15.0 min)
AC$CHROMATOGRAPHY: FLOW_RATE 0.3 ml/min at 0 min, 0.3 ml/min at 10 min, 0.4 ml/min at 10.1 min, 0.4 ml/min at 14.4 min, 0.3 ml/min at 14.5 min
AC$CHROMATOGRAPHY: RETENTION_TIME 5.20985
AC$CHROMATOGRAPHY: SOLVENT A water including 0.1% formic acid
AC$CHROMATOGRAPHY: SOLVENT B acetonitrile including 0.1% formic acid
MS$FOCUSED_ION: PRECURSOR_TYPE [M+H]+
MS$FOCUSED_ION: PRECURSOR_M/Z 959.5210067
PK$SPLASH: splash10-0f79-1971300000-c425a513befc42a52189
PK$NUM_PEAK: 174
PK$PEAK: m/z int. rel.int.
  50.44747 68.0 68
  55.5822 47.0 47
  63.65924 47.0 47
  69.03518 68.0 68
  81.56944 47.0 47
  82.81056 82.0 82
  83.0453 47.0 47
  83.04966 79.0 79
  85.02777 874.0 873
  87.03407 55.0 55
  91.03758 66.0 66
  91.27873 47.0 47
  93.06287 71.0 71
  99.24893 68.0 68
  103.0423 77.0 77
  107.07147 55.0 55
  107.09038 129.0 129
  109.09708 112.0 112
  109.10384 112.0 112
  111.03717 118.0 118
  111.04702 307.0 307
  111.07933 205.0 205
  112.08822 60.0 60
  119.08653 66.0 66
  121.10189 63.0 63
  125.0985 323.0 323
  126.10211 107.0 107
  127.00844 55.0 55
  127.0333 115.0 115
  129.0527 1000.0 999
  129.06149 142.0 142
  129.50237 55.0 55
  131.08585 60.0 60
  134.10591 82.0 82
  139.10751 68.0 68
  145.04951 222.0 222
  145.05444 88.0 88
  145.09683 99.0 99
  145.10803 58.0 58
  147.06107 337.0 337
  147.06897 167.0 167
  149.09193 49.0 49
  149.13245 66.0 66
  153.09776 63.0 63
  156.78894 47.0 47
  159.07253 52.0 52
  159.11188 145.0 145
  161.12854 55.0 55
  163.05969 55.0 55
  163.0726 49.0 49
  163.10988 99.0 99
  163.14055 49.0 49
  165.16388 63.0 63
  166.08031 60.0 60
  173.12793 58.0 58
  173.1367 47.0 47
  175.15129 145.0 145
  176.15007 49.0 49
  177.12314 60.0 60
  177.13918 178.0 178
  177.16933 66.0 66
  179.17407 77.0 77
  179.33578 52.0 52
  185.13663 52.0 52
  187.14725 499.0 499
  187.15594 104.0 104
  188.11551 68.0 68
  188.15396 126.0 126
  189.16568 510.0 509
  191.10982 49.0 49
  191.14299 63.0 63
  191.17453 90.0 90
  191.1828 47.0 47
  193.12932 49.0 49
  194.15651 55.0 55
  199.06255 71.0 71
  199.14709 208.0 208
  200.14688 55.0 55
  201.16072 597.0 596
  201.1714 186.0 186
  202.16605 181.0 181
  203.14082 49.0 49
  203.17122 107.0 107
  203.18073 389.0 389
  205.14867 58.0 58
  205.16318 110.0 110
  206.19736 68.0 68
  208.18423 104.0 104
  209.07037 74.0 74
  211.1472 96.0 96
  213.16177 170.0 170
  213.17201 129.0 129
  214.14848 74.0 74
  215.14156 47.0 47
  215.17168 52.0 52
  215.17949 107.0 107
  215.18945 60.0 60
  217.16048 47.0 47
  217.19539 178.0 178
  219.15578 60.0 60
  219.17487 504.0 503
  221.14583 82.0 82
  223.17741 74.0 74
  225.16933 104.0 104
  229.16359 85.0 85
  231.08606 58.0 58
  233.18718 238.0 238
  235.15923 96.0 96
  235.18057 49.0 49
  236.18001 55.0 55
  243.07491 79.0 79
  243.22208 96.0 96
  247.14568 58.0 58
  247.16397 181.0 181
  247.17349 142.0 142
  256.08289 99.0 99
  260.16864 55.0 55
  261.18683 189.0 189
  262.17529 49.0 49
  262.18771 47.0 47
  267.21149 47.0 47
  268.20401 55.0 55
  273.1011 170.0 170
  275.18866 49.0 49
  281.21335 153.0 153
  281.22864 47.0 47
  283.20508 85.0 85
  283.24664 47.0 47
  290.21506 58.0 58
  291.11392 49.0 49
  293.22073 47.0 47
  296.19247 47.0 47
  305.21948 47.0 47
  309.11792 47.0 47
  318.22757 90.0 90
  319.24631 55.0 55
  327.23969 49.0 49
  333.26337 66.0 66
  343.25116 82.0 82
  349.30307 93.0 93
  351.26999 47.0 47
  352.2554 49.0 49
  355.2627 118.0 118
  359.2738 55.0 55
  369.27142 55.0 55
  378.31491 52.0 52
  389.31271 216.0 216
  389.32721 47.0 47
  390.32635 227.0 227
  407.27097 110.0 110
  407.31012 140.0 140
  407.33521 638.0 637
  408.31174 85.0 85
  408.34302 153.0 153
  409.0527 60.0 60
  409.33426 47.0 47
  410.33463 77.0 77
  410.34659 68.0 68
  423.31784 225.0 225
  424.60583 47.0 47
  435.32086 351.0 351
  435.34052 82.0 82
  436.3063 47.0 47
  436.3331 90.0 90
  437.3187 66.0 66
  443.32675 55.0 55
  453.3338 411.0 411
  453.35721 104.0 104
  454.33118 104.0 104
  579.36932 71.0 71
  643.42517 47.0 47
  812.52185 68.0 68
  873.65759 88.0 88
  953.1983 49.0 49
//
