ACCESSION: MSBNK-RIKEN-PR301364
RECORD_TITLE: Vasicinone; LC-ESI-QTOF; MS2
DATE: 2019.03.28
AUTHORS: Tetsuya Mori, Center for Sustainable Resource Science, RIKEN
LICENSE: CC BY-NC-SA
PUBLICATION: Tsugawa H., Nakabayashi R., Mori T., Yamada Y., Takahashi M., Rai A., Sugiyama R., Yamamoto H., Nakaya T., Yamazaki M., Kooke R., Bac-Molenaar JA., Oztolan-Erol N., Keurentjes JJB., Arita M., Saito K. (2019) "A cheminformatics approach to characterize metabolomes in stable-isotope-labeled organisms" Nature Methods 16(4):295-298. [doi:10.1038/s41592-019-0358-2]
COMMENT: registered in RIKEN PlaSMA
CH$NAME: Vasicinone
CH$COMPOUND_CLASS: Quinazolines
CH$FORMULA: C11H10N2O2
CH$EXACT_MASS: 202.213
CH$SMILES: OC1CCN2C1=NC1=CC=CC=C1C2=O
CH$IUPAC: InChI=1S/C11H10N2O2/c14-9-5-6-13-10(9)12-8-4-2-1-3-7(8)11(13)15/h1-4,9,14H,5-6H2
CH$LINK: INCHIKEY SDIVYZXRQHWCKF-UHFFFAOYSA-N
AC$INSTRUMENT: LC, Waters Acquity UPLC System; MS, Waters Xevo G2 Q-Tof
AC$INSTRUMENT_TYPE: LC-ESI-QTOF
AC$MASS_SPECTROMETRY: MS_TYPE MS2
AC$MASS_SPECTROMETRY: ION_MODE POSITIVE
AC$MASS_SPECTROMETRY: COLLISION_ENERGY 6V
AC$MASS_SPECTROMETRY: DESOLVATION_GAS_FLOW 800/h
AC$MASS_SPECTROMETRY: DESOLVATION_TEMPERATURE 450 C
AC$MASS_SPECTROMETRY: IONIZATION ESI
AC$CHROMATOGRAPHY: CAPILLARY_VOLTAGE +3.00 kV
AC$CHROMATOGRAPHY: COLUMN_NAME Acquity bridged ethyl hybrid C18 (1.7 um, 2.1 mm * 100 mm, Waters)
AC$CHROMATOGRAPHY: COLUMN_TEMPERATURE 40 C
AC$CHROMATOGRAPHY: FLOW_GRADIENT A/B = (99.5%/0.5% at 0 min, 99.5%/0.5% at 0.1 min, 20%/80% at 10 min, 0.5%/99.5% at 10.1 min, 0.5%/99.5% at 12.0 min, 99.5%/0.5% at 12.1 min, 99.5%/0.5% at 15.0 min)
AC$CHROMATOGRAPHY: FLOW_RATE 0.3 ml/min at 0 min, 0.3 ml/min at 10 min, 0.4 ml/min at 10.1 min, 0.4 ml/min at 14.4 min, 0.3 ml/min at 14.5 min
AC$CHROMATOGRAPHY: RETENTION_TIME 3.423867
AC$CHROMATOGRAPHY: SOLVENT A water including 0.1% formic acid
AC$CHROMATOGRAPHY: SOLVENT B acetonitrile including 0.1% formic acid
MS$FOCUSED_ION: PRECURSOR_TYPE [M+H]+
MS$FOCUSED_ION: PRECURSOR_M/Z 203.081504
PK$SPLASH: splash10-0f89-2900000000-01bb4575c7b6464c040e
PK$NUM_PEAK: 38
PK$PEAK: m/z int. rel.int.
  55.03968 74.0 74
  65.03027 70.0 70
  65.0385 62.0 62
  75.02379 147.0 147
  76.03014 74.0 74
  77.04515 140.0 140
  79.05901 74.0 74
  82.03072 147.0 147
  92.04538 92.0 92
  94.85142 103.0 103
  101.03543 224.0 224
  102.03075 228.0 228
  103.04403 213.0 213
  104.04862 213.0 213
  105.03335 272.0 272
  117.0477 74.0 74
  118.05051 62.0 62
  118.05934 85.0 85
  128.03903 107.0 107
  128.05096 169.0 169
  128.06566 114.0 114
  129.05388 77.0 77
  130.03598 66.0 66
  130.06427 1000.0 999
  131.0672 176.0 176
  140.03867 99.0 99
  140.04593 70.0 70
  144.07243 81.0 81
  155.06166 114.0 114
  156.07138 125.0 125
  157.07353 62.0 62
  158.08025 77.0 77
  168.0708 66.0 66
  183.05054 103.0 103
  185.07149 232.0 232
  186.07054 125.0 125
  203.07573 136.0 136
  203.08992 81.0 81
//
