ACCESSION: MSBNK-RIKEN-PR310428
RECORD_TITLE: Iso-gamma-fagarine; LC-ESI-QTOF; MS2
DATE: 2019.03.28
AUTHORS: Tetsuya Mori, Center for Sustainable Resource Science, RIKEN
LICENSE: CC BY-NC-SA
PUBLICATION: Tsugawa H., Nakabayashi R., Mori T., Yamada Y., Takahashi M., Rai A., Sugiyama R., Yamamoto H., Nakaya T., Yamazaki M., Kooke R., Bac-Molenaar JA., Oztolan-Erol N., Keurentjes JJB., Arita M., Saito K. (2019) "A cheminformatics approach to characterize metabolomes in stable-isotope-labeled organisms" Nature Methods 16(4):295-298. [doi:10.1038/s41592-019-0358-2]
COMMENT: Annotation level-1
CH$NAME: Iso-gamma-fagarine
CH$COMPOUND_CLASS: Others
CH$FORMULA: C13H11NO3
CH$EXACT_MASS: 229.235
CH$SMILES: COC1=CC=CC2=C1N(C)C1=C(C=CO1)C2=O
CH$IUPAC: InChI=1S/C13H11NO3/c1-14-11-8(4-3-5-10(11)16-2)12(15)9-6-7-17-13(9)14/h3-7H,1-2H3
CH$LINK: INCHIKEY VNBUMBNLPGLBML-UHFFFAOYSA-N
AC$INSTRUMENT: LC, Waters Acquity UPLC System; MS, Waters Xevo G2 Q-Tof
AC$INSTRUMENT_TYPE: LC-ESI-QTOF
AC$MASS_SPECTROMETRY: MS_TYPE MS2
AC$MASS_SPECTROMETRY: ION_MODE POSITIVE
AC$MASS_SPECTROMETRY: COLLISION_ENERGY 6V
AC$MASS_SPECTROMETRY: DESOLVATION_GAS_FLOW 800/h
AC$MASS_SPECTROMETRY: DESOLVATION_TEMPERATURE 450 C
AC$MASS_SPECTROMETRY: IONIZATION ESI
AC$CHROMATOGRAPHY: CAPILLARY_VOLTAGE +3.00 kV
AC$CHROMATOGRAPHY: COLUMN_NAME Acquity bridged ethyl hybrid C18 (1.7 um, 2.1 mm * 100 mm, Waters)
AC$CHROMATOGRAPHY: COLUMN_TEMPERATURE 40 C
AC$CHROMATOGRAPHY: FLOW_GRADIENT A/B = (99.5%/0.5% at 0 min, 99.5%/0.5% at 0.1 min, 20%/80% at 10 min, 0.5%/99.5% at 10.1 min, 0.5%/99.5% at 12.0 min, 99.5%/0.5% at 12.1 min, 99.5%/0.5% at 15.0 min)
AC$CHROMATOGRAPHY: FLOW_RATE 0.3 ml/min at 0 min, 0.3 ml/min at 10 min, 0.4 ml/min at 10.1 min, 0.4 ml/min at 14.4 min, 0.3 ml/min at 14.5 min
AC$CHROMATOGRAPHY: RETENTION_TIME 5.59
AC$CHROMATOGRAPHY: SOLVENT A water including 0.1% formic acid
AC$CHROMATOGRAPHY: SOLVENT B acetonitrile including 0.1% formic acid
MS$FOCUSED_ION: PRECURSOR_TYPE [M+H]+
MS$FOCUSED_ION: PRECURSOR_M/Z 230.08117
PK$SPLASH: splash10-001i-0290000000-5f88a98a2fcf1418e509
PK$NUM_PEAK: 382
PK$PEAK: m/z int. rel.int.
  68.02527 29.0 0
  68.50278 32.0 0
  78.04748 24.0 0
  79.05551 17.0 0
  89.03438 59.0 1
  89.03932 70.0 1
  90.03191 24.0 0
  90.04342 22.0 0
  93.03271 54.0 1
  94.07638 18.0 0
  95.00652 29.0 0
  95.63419 17.0 0
  100.33721 38.0 0
  102.04592 256.0 3
  103.05132 169.0 2
  103.05774 121.0 1
  104.03613 18.0 0
  104.04598 29.0 0
  104.05092 68.0 1
  104.05855 27.0 0
  105.02762 18.0 0
  105.03544 22.0 0
  105.05427 28.0 0
  106.03197 21.0 0
  107.04337 92.0 1
  107.05314 178.0 2
  114.0416 93.0 1
  114.04744 20.0 0
  114.30789 23.0 0
  115.04684 82.0 1
  115.0538 110.0 1
  115.05962 87.0 1
  116.04064 20.0 0
  116.05192 275.0 3
  116.05948 93.0 1
  117.03853 33.0 0
  117.04486 50.0 1
  117.05392 100.0 1
  117.06322 67.0 1
  118.00855 17.0 0
  118.03098 42.0 0
  118.0381 112.0 1
  118.04504 22.0 0
  118.06561 29.0 0
  119.03995 79.0 1
  120.04031 40.0 0
  120.04665 150.0 2
  122.66363 17.0 0
  125.25858 17.0 0
  125.36019 29.0 0
  126.92545 20.0 0
  127.96608 25.0 0
  128.01703 20.0 0
  128.04958 999.0 11
  128.58101 18.0 0
  129.04305 27.0 0
  129.05891 250.0 3
  129.0658 55.0 1
  129.11385 18.0 0
  129.50554 17.0 0
  129.77048 18.0 0
  130.03577 37.0 0
  130.06189 973.0 11
  130.06935 904.0 10
  130.99078 24.0 0
  131.04781 796.0 9
  131.05888 256.0 3
  131.07158 792.0 9
  131.08926 25.0 0
  131.8019 23.0 0
  132.04416 47.0 1
  132.05548 296.0 3
  132.07886 164.0 2
  132.09741 24.0 0
  132.28256 18.0 0
  132.32858 29.0 0
  133.04332 24.0 0
  133.05037 63.0 1
  133.05663 129.0 1
  134.03548 29.0 0
  134.04631 39.0 0
  134.05484 23.0 0
  134.65613 18.0 0
  134.78551 21.0 0
  135.03729 27.0 0
  136.87529 19.0 0
  139.47768 27.0 0
  140.04422 107.0 1
  140.05266 211.0 2
  140.74208 17.0 0
  141.03287 27.0 0
  141.04573 21.0 0
  141.05473 18.0 0
  141.06584 61.0 1
  142.03607 99.0 1
  142.04562 141.0 2
  142.06 67.0 1
  142.06944 60.0 1
  142.07532 25.0 0
  142.26492 36.0 0
  143.03798 41.0 0
  143.04643 120.0 1
  143.05714 74.0 1
  143.06564 18.0 0
  143.08038 43.0 0
  144.04144 125.0 1
  144.0479 152.0 2
  144.05589 130.0 1
  144.0667 28.0 0
  144.23251 19.0 0
  144.4155 28.0 0
  144.96306 30.0 0
  145.04892 83.0 1
  145.06361 72.0 1
  145.09067 21.0 0
  145.74515 17.0 0
  146.01973 155.0 2
  146.02986 166.0 2
  146.04305 24.0 0
  146.05327 38.0 0
  146.0609 52.0 1
  146.08807 21.0 0
  146.40344 23.0 0
  147.03761 64.0 1
  148.07269 47.0 1
  148.08301 33.0 0
  149.09114 27.0 0
  149.49994 21.0 0
  150.09288 38.0 0
  153.37898 21.0 0
  153.84862 20.0 0
  155.07858 20.0 0
  156.04507 316.0 3
  156.07381 28.0 0
  157.04567 25.0 0
  157.05704 160.0 2
  157.09113 28.0 0
  157.94698 19.0 0
  157.97006 29.0 0
  157.98262 20.0 0
  158.04239 35.0 0
  158.06038 3051.0 33
  158.0954 18.0 0
  158.19464 18.0 0
  158.88354 18.0 0
  158.91609 18.0 0
  158.93857 34.0 0
  159.00937 45.0 0
  159.02576 43.0 0
  159.03716 334.0 4
  159.04306 695.0 8
  159.06607 1855.0 20
  159.08643 29.0 0
  159.30511 21.0 0
  159.40715 20.0 0
  159.54025 17.0 0
  159.76253 17.0 0
  159.88211 18.0 0
  159.9469 21.0 0
  160.04733 335.0 4
  160.056 244.0 3
  160.06857 18.0 0
  160.88828 30.0 0
  161.04726 164.0 2
  161.29463 23.0 0
  161.48061 20.0 0
  161.92409 25.0 0
  162.2075 18.0 0
  163.55826 54.0 1
  164.07211 30.0 0
  165.20998 20.0 0
  166.21873 20.0 0
  167.53455 21.0 0
  168.02419 29.0 0
  168.04025 243.0 3
  168.05186 227.0 2
  168.99573 18.0 0
  169.00697 19.0 0
  169.04762 109.0 1
  169.05719 30.0 0
  169.32362 17.0 0
  170.0202 27.0 0
  170.03577 414.0 4
  170.05562 741.0 8
  170.06464 542.0 6
  170.18745 19.0 0
  170.46968 34.0 0
  170.50534 22.0 0
  170.63358 21.0 0
  170.67708 18.0 0
  171.03349 138.0 1
  171.04538 53.0 1
  171.06389 143.0 2
  171.21677 24.0 0
  171.28177 24.0 0
  171.9919 31.0 0
  172.01172 56.0 1
  172.02263 136.0 1
  172.04018 3142.0 34
  172.07483 19.0 0
  172.2043 18.0 0
  172.38889 30.0 0
  172.46408 17.0 0
  173.04279 385.0 4
  173.08444 35.0 0
  173.59888 24.0 0
  174.04849 42.0 0
  174.08562 23.0 0
  174.09654 53.0 1
  175.41389 17.0 0
  176.45328 33.0 0
  177.32472 36.0 0
  178.05878 18.0 0
  178.63173 51.0 1
  178.72749 17.0 0
  178.79094 29.0 0
  179.47501 19.0 0
  180.25372 18.0 0
  181.10834 22.0 0
  181.43777 21.0 0
  183.90454 20.0 0
  184.03879 165.0 2
  185.04509 1260.0 14
  185.0542 497.0 5
  185.20656 18.0 0
  185.92221 25.0 0
  186.00894 125.0 1
  186.02187 211.0 2
  186.03717 179.0 2
  186.05458 7635.0 83
  186.08656 17.0 0
  186.70973 35.0 0
  186.98694 20.0 0
  187.02927 52.0 1
  187.06204 8048.0 87
  187.1035 49.0 1
  187.1404 27.0 0
  187.16435 20.0 0
  187.22041 20.0 0
  187.48991 18.0 0
  187.5582 20.0 0
  187.69736 42.0 0
  188.03497 56.0 1
  188.04846 43.0 0
  188.06818 1233.0 13
  188.36021 31.0 0
  188.38354 18.0 0
  188.49982 18.0 0
  188.77049 17.0 0
  189.02208 20.0 0
  189.04912 56.0 1
  189.06944 153.0 2
  189.07961 33.0 0
  189.64589 24.0 0
  190.85588 18.0 0
  191.04124 32.0 0
  191.44179 23.0 0
  192.58412 18.0 0
  192.8846 24.0 0
  193.45496 45.0 0
  195.91875 45.0 0
  196.0275 33.0 0
  196.04008 68.0 1
  196.86813 19.0 0
  197.04631 89.0 1
  197.06181 28.0 0
  197.17593 36.0 0
  197.96777 20.0 0
  198.03055 21.0 0
  198.04523 177.0 2
  198.0583 1081.0 12
  198.15623 17.0 0
  199.03389 34.0 0
  199.05109 18.0 0
  199.0663 129.0 1
  199.14351 21.0 0
  199.66562 17.0 0
  199.99219 51.0 1
  200.03873 199.0 2
  200.05035 27.0 0
  200.38638 38.0 0
  201.02412 21.0 0
  201.04176 20.0 0
  201.06476 25.0 0
  202.078 124.0 1
  202.08667 223.0 2
  202.0943 128.0 1
  203.0443 29.0 0
  203.08218 59.0 1
  203.09023 63.0 1
  203.69708 18.0 0
  205.94617 27.0 0
  211.09604 30.0 0
  211.73511 17.0 0
  212.01526 42.0 0
  212.03706 814.0 9
  212.68912 17.0 0
  213.02267 24.0 0
  213.0412 224.0 2
  213.05455 54.0 1
  213.56761 22.0 0
  213.59721 27.0 0
  213.86574 18.0 0
  213.87283 20.0 0
  213.8864 25.0 0
  213.98982 36.0 0
  214.02386 29.0 0
  214.04976 5633.0 61
  214.08101 35.0 0
  214.13579 19.0 0
  214.17415 41.0 0
  214.57787 30.0 0
  214.60112 21.0 0
  214.6814 17.0 0
  214.79527 17.0 0
  214.86116 17.0 0
  214.89209 18.0 0
  214.95639 18.0 0
  214.99162 32.0 0
  215.01717 130.0 1
  215.02922 69.0 1
  215.05821 38069.0 413
  215.1003 1077.0 12
  215.13957 35.0 0
  215.23482 65.0 1
  215.32343 123.0 1
  215.37457 17.0 0
  215.64165 23.0 0
  215.71078 34.0 0
  215.79056 54.0 1
  215.82187 23.0 0
  215.87939 28.0 0
  216.03215 135.0 1
  216.06055 5069.0 55
  216.10483 17.0 0
  216.13779 17.0 0
  216.23792 18.0 0
  216.2699 40.0 0
  216.45085 33.0 0
  216.48996 19.0 0
  216.67052 20.0 0
  216.68652 38.0 0
  216.75578 18.0 0
  217.06248 488.0 5
  217.38954 20.0 0
  217.44638 26.0 0
  218.01306 20.0 0
  218.05272 30.0 0
  218.07668 17.0 0
  218.13377 25.0 0
  218.57233 17.0 0
  219.237 35.0 0
  219.31642 18.0 0
  220.47615 21.0 0
  221.51666 21.0 0
  222.06503 20.0 0
  222.82832 19.0 0
  225.5112 18.0 0
  225.6501 20.0 0
  226.05847 18.0 0
  226.2193 25.0 0
  226.57339 23.0 0
  227.10707 23.0 0
  227.75156 18.0 0
  228.45322 17.0 0
  228.72444 21.0 0
  228.85213 20.0 0
  228.91408 20.0 0
  229.07455 62.0 1
  229.15494 23.0 0
  229.23926 17.0 0
  229.75926 18.0 0
  229.79196 21.0 0
  229.82834 23.0 0
  230.01196 67.0 1
  230.03047 89.0 1
  230.04472 154.0 2
  230.08243 92061.0 999
  230.12532 3568.0 39
  230.16458 553.0 6
  230.21259 75.0 1
  230.26086 1679.0 18
//
