ACCESSION: MSBNK-RIKEN-PR301853
RECORD_TITLE: Protopine; LC-ESI-QTOF; MS2
DATE: 2019.03.28
AUTHORS: Tetsuya Mori, Center for Sustainable Resource Science, RIKEN
LICENSE: CC BY-NC-SA
PUBLICATION: Tsugawa H., Nakabayashi R., Mori T., Yamada Y., Takahashi M., Rai A., Sugiyama R., Yamamoto H., Nakaya T., Yamazaki M., Kooke R., Bac-Molenaar JA., Oztolan-Erol N., Keurentjes JJB., Arita M., Saito K. (2019) "A cheminformatics approach to characterize metabolomes in stable-isotope-labeled organisms" Nature Methods 16(4):295-298. [doi:10.1038/s41592-019-0358-2]
COMMENT: registered in RIKEN PlaSMA
CH$NAME: Protopine
CH$COMPOUND_CLASS: Protopine alkaloids
CH$FORMULA: C20H19NO5
CH$EXACT_MASS: 353.374
CH$SMILES: CN1CCC2=CC3=C(OCO3)C=C2C(=O)CC2=C(C1)C1=C(OCO1)C=C2
CH$IUPAC: InChI=1S/C20H19NO5/c1-21-5-4-13-7-18-19(25-10-24-18)8-14(13)16(22)6-12-2-3-17-20(15(12)9-21)26-11-23-17/h2-3,7-8H,4-6,9-11H2,1H3
CH$LINK: INCHIKEY GPTFURBXHJWNHR-UHFFFAOYSA-N
AC$INSTRUMENT: LC, Waters Acquity UPLC System; MS, Waters Xevo G2 Q-Tof
AC$INSTRUMENT_TYPE: LC-ESI-QTOF
AC$MASS_SPECTROMETRY: MS_TYPE MS2
AC$MASS_SPECTROMETRY: ION_MODE POSITIVE
AC$MASS_SPECTROMETRY: COLLISION_ENERGY 6V
AC$MASS_SPECTROMETRY: DESOLVATION_GAS_FLOW 800/h
AC$MASS_SPECTROMETRY: DESOLVATION_TEMPERATURE 450 C
AC$MASS_SPECTROMETRY: IONIZATION ESI
AC$CHROMATOGRAPHY: CAPILLARY_VOLTAGE +3.00 kV
AC$CHROMATOGRAPHY: COLUMN_NAME Acquity bridged ethyl hybrid C18 (1.7 um, 2.1 mm * 100 mm, Waters)
AC$CHROMATOGRAPHY: COLUMN_TEMPERATURE 40 C
AC$CHROMATOGRAPHY: FLOW_GRADIENT A/B = (99.5%/0.5% at 0 min, 99.5%/0.5% at 0.1 min, 20%/80% at 10 min, 0.5%/99.5% at 10.1 min, 0.5%/99.5% at 12.0 min, 99.5%/0.5% at 12.1 min, 99.5%/0.5% at 15.0 min)
AC$CHROMATOGRAPHY: FLOW_RATE 0.3 ml/min at 0 min, 0.3 ml/min at 10 min, 0.4 ml/min at 10.1 min, 0.4 ml/min at 14.4 min, 0.3 ml/min at 14.5 min
AC$CHROMATOGRAPHY: RETENTION_TIME 4.362817
AC$CHROMATOGRAPHY: SOLVENT A water including 0.1% formic acid
AC$CHROMATOGRAPHY: SOLVENT B acetonitrile including 0.1% formic acid
MS$FOCUSED_ION: PRECURSOR_TYPE [M+H]+
MS$FOCUSED_ION: PRECURSOR_M/Z 354.1335992
PK$SPLASH: splash10-000i-0920000000-9b1e3532c7ffabb8d67e
PK$NUM_PEAK: 211
PK$PEAK: m/z int. rel.int.
  77.03883 40.0 40
  78.0405 10.0 10
  79.01822 5.0 5
  79.05605 76.0 76
  89.02725 5.0 5
  89.0359 7.0 7
  89.04041 6.0 6
  91.05647 192.0 192
  92.05503 17.0 17
  92.06194 11.0 11
  94.07377 8.0 8
  101.03685 6.0 6
  102.04549 13.0 13
  102.05178 8.0 8
  103.05328 41.0 41
  104.06261 11.0 11
  105.07289 9.0 9
  107.04969 98.0 98
  117.03387 22.0 22
  117.06293 21.0 21
  117.80174 10.0 10
  118.04265 12.0 12
  118.06465 9.0 9
  119.04836 77.0 77
  119.0657 6.0 6
  119.07293 10.0 10
  120.05222 26.0 26
  120.12919 6.0 6
  127.0535 7.0 7
  129.07472 6.0 6
  130.065 120.0 120
  130.07042 36.0 36
  131.0489 28.0 28
  131.07373 254.0 254
  131.08549 14.0 14
  132.04799 6.0 6
  132.0567 11.0 11
  132.08003 42.0 42
  132.08664 14.0 14
  133.03914 6.0 6
  133.05807 6.0 6
  133.07887 16.0 16
  134.05722 6.0 6
  135.00175 6.0 6
  135.02574 6.0 6
  135.04562 108.0 108
  136.05095 19.0 19
  143.07507 6.0 6
  144.04759 13.0 13
  144.08221 15.0 15
  146.05396 11.0 11
  146.06352 11.0 11
  147.04591 124.0 124
  148.05113 30.0 30
  149.05466 54.0 54
  149.06291 121.0 121
  150.05006 5.0 5
  150.05708 15.0 15
  150.06616 10.0 10
  151.04979 10.0 10
  151.05849 19.0 19
  152.05083 12.0 12
  152.0583 27.0 27
  152.06445 59.0 59
  153.05998 10.0 10
  153.06874 9.0 9
  153.07918 13.0 13
  153.55966 7.0 7
  155.04474 6.0 6
  158.00711 6.0 6
  158.03046 7.0 7
  159.03746 27.0 27
  159.04761 19.0 19
  159.06857 163.0 163
  159.07909 29.0 29
  159.088 10.0 10
  160.07507 185.0 185
  161.05682 19.0 19
  161.08243 31.0 31
  163.03731 36.0 36
  164.04666 8.0 8
  164.06548 18.0 18
  164.90717 6.0 6
  165.04338 9.0 9
  165.07091 85.0 85
  165.08192 12.0 12
  166.07565 58.0 58
  167.0421 5.0 5
  167.0621 7.0 7
  167.08572 57.0 57
  167.09171 17.0 17
  168.09335 12.0 12
  171.04359 7.0 7
  173.04446 5.0 5
  174.05597 92.0 92
  175.03349 8.0 8
  176.06212 31.0 31
  176.07402 8.0 8
  177.06752 42.0 42
  177.08325 21.0 21
  177.10844 5.0 5
  178.04962 11.0 11
  178.06404 7.0 7
  178.07791 190.0 190
  179.03903 5.0 5
  179.0463 6.0 6
  179.06248 15.0 15
  179.08565 209.0 209
  180.08644 19.0 19
  180.21809 7.0 7
  180.93028 10.0 10
  181.09222 11.0 11
  181.10666 7.0 7
  186.05612 5.0 5
  188.04161 14.0 14
  188.07056 874.0 873
  189.04251 10.0 10
  189.0731 1000.0 999
  189.09427 30.0 30
  190.07297 126.0 126
  190.08313 81.0 81
  190.81506 7.0 7
  191.05952 9.0 9
  191.07852 53.0 53
  191.0923 25.0 25
  192.04352 10.0 10
  192.05144 16.0 16
  192.06027 15.0 15
  192.08138 18.0 18
  192.09093 9.0 9
  193.06219 19.0 19
  194.0761 7.0 7
  194.10756 6.0 6
  195.0822 32.0 32
  196.08725 5.0 5
  201.07761 13.0 13
  202.0694 9.0 9
  202.07898 10.0 10
  203.08633 20.0 20
  204.05437 7.0 7
  204.06232 5.0 5
  204.07831 6.0 6
  205.06502 102.0 102
  205.08752 5.0 5
  206.0719 21.0 21
  206.07982 19.0 19
  207.08258 109.0 109
  208.03873 11.0 11
  208.06705 9.0 9
  208.08549 27.0 27
  209.061 163.0 163
  209.07922 8.0 8
  210.0791 5.0 5
  216.05406 5.0 5
  217.06433 140.0 140
  218.03909 8.0 8
  218.06995 40.0 40
  218.07986 16.0 16
  218.09474 9.0 9
  219.08464 31.0 31
  220.05914 5.0 5
  220.12428 5.0 5
  221.05652 14.0 14
  222.06062 13.0 13
  222.06979 9.0 9
  223.08768 11.0 11
  224.08862 5.0 5
  227.07188 7.0 7
  228.08444 6.0 6
  233.06445 8.0 8
  233.07881 11.0 11
  235.06856 27.0 27
  235.0786 25.0 25
  236.08691 21.0 21
  237.05219 8.0 8
  237.08751 16.0 16
  240.4781 6.0 6
  245.07938 5.0 5
  246.03262 5.0 5
  246.06401 8.0 8
  246.07684 37.0 37
  247.06927 45.0 45
  247.08427 36.0 36
  248.06912 8.0 8
  248.08029 10.0 10
  248.10341 25.0 25
  249.0528 6.0 6
  251.09448 11.0 11
  261.06143 8.0 8
  261.08609 27.0 27
  262.05847 8.0 8
  262.08588 29.0 29
  263.07706 18.0 18
  263.09631 14.0 14
  263.10889 7.0 7
  265.09213 8.0 8
  266.06793 8.0 8
  275.06744 36.0 36
  277.07864 10.0 10
  279.07123 7.0 7
  290.04614 5.0 5
  290.07568 13.0 13
  290.08691 11.0 11
  291.06653 9.0 9
  293.10202 8.0 8
  294.0849 6.0 6
  318.07288 5.0 5
  318.08209 6.0 6
  320.08365 22.0 22
  320.10178 22.0 22
  322.09421 5.0 5
//
