ACCESSION: MSBNK-RIKEN-PR301504
RECORD_TITLE: (-)-Eburnamonine; LC-ESI-QTOF; MS2
DATE: 2019.03.28
AUTHORS: Tetsuya Mori, Center for Sustainable Resource Science, RIKEN
LICENSE: CC BY-NC-SA
PUBLICATION: Tsugawa H., Nakabayashi R., Mori T., Yamada Y., Takahashi M., Rai A., Sugiyama R., Yamamoto H., Nakaya T., Yamazaki M., Kooke R., Bac-Molenaar JA., Oztolan-Erol N., Keurentjes JJB., Arita M., Saito K. (2019) "A cheminformatics approach to characterize metabolomes in stable-isotope-labeled organisms" Nature Methods 16(4):295-298. [doi:10.1038/s41592-019-0358-2]
COMMENT: registered in RIKEN PlaSMA
CH$NAME: (-)-Eburnamonine
CH$COMPOUND_CLASS: Eburnan-type alkaloids
CH$FORMULA: C19H22N2O
CH$EXACT_MASS: 294.398
CH$SMILES: CCC12CCCN3CCC4=C(C13)N(C1=CC=CC=C41)C(=O)C2
CH$IUPAC: InChI=1S/C19H22N2O/c1-2-19-9-5-10-20-11-8-14-13-6-3-4-7-15(13)21(16(22)12-19)17(14)18(19)20/h3-4,6-7,18H,2,5,8-12H2,1H3
CH$LINK: INCHIKEY WYJAPUKIYAZSEM-UHFFFAOYSA-N
AC$INSTRUMENT: LC, Waters Acquity UPLC System; MS, Waters Xevo G2 Q-Tof
AC$INSTRUMENT_TYPE: LC-ESI-QTOF
AC$MASS_SPECTROMETRY: MS_TYPE MS2
AC$MASS_SPECTROMETRY: ION_MODE POSITIVE
AC$MASS_SPECTROMETRY: COLLISION_ENERGY 6V
AC$MASS_SPECTROMETRY: DESOLVATION_GAS_FLOW 800/h
AC$MASS_SPECTROMETRY: DESOLVATION_TEMPERATURE 450 C
AC$MASS_SPECTROMETRY: IONIZATION ESI
AC$CHROMATOGRAPHY: CAPILLARY_VOLTAGE +3.00 kV
AC$CHROMATOGRAPHY: COLUMN_NAME Acquity bridged ethyl hybrid C18 (1.7 um, 2.1 mm * 100 mm, Waters)
AC$CHROMATOGRAPHY: COLUMN_TEMPERATURE 40 C
AC$CHROMATOGRAPHY: FLOW_GRADIENT A/B = (99.5%/0.5% at 0 min, 99.5%/0.5% at 0.1 min, 20%/80% at 10 min, 0.5%/99.5% at 10.1 min, 0.5%/99.5% at 12.0 min, 99.5%/0.5% at 12.1 min, 99.5%/0.5% at 15.0 min)
AC$CHROMATOGRAPHY: FLOW_RATE 0.3 ml/min at 0 min, 0.3 ml/min at 10 min, 0.4 ml/min at 10.1 min, 0.4 ml/min at 14.4 min, 0.3 ml/min at 14.5 min
AC$CHROMATOGRAPHY: RETENTION_TIME 4.648283
AC$CHROMATOGRAPHY: SOLVENT A water including 0.1% formic acid
AC$CHROMATOGRAPHY: SOLVENT B acetonitrile including 0.1% formic acid
MS$FOCUSED_ION: PRECURSOR_TYPE [M+H]+
MS$FOCUSED_ION: PRECURSOR_M/Z 295.1804898
PK$SPLASH: splash10-000i-0390000000-02d1fe6c7a2ed7ba48ec
PK$NUM_PEAK: 220
PK$PEAK: m/z int. rel.int.
  67.05554 7.0 7
  70.06562 61.0 61
  79.05104 6.0 6
  81.07069 11.0 11
  82.06647 16.0 16
  83.07338 19.0 19
  84.08162 128.0 128
  85.08539 9.0 9
  91.05286 7.0 7
  93.07021 11.0 11
  95.08608 19.0 19
  96.08025 6.0 6
  98.09721 12.0 12
  105.06788 11.0 11
  107.07124 8.0 8
  107.08715 16.0 16
  108.08321 7.0 7
  109.06747 19.0 19
  109.07977 6.0 6
  111.069 6.0 6
  111.07453 8.0 8
  111.10361 5.0 5
  117.06509 11.0 11
  119.0891 10.0 10
  120.07844 7.0 7
  121.06703 29.0 29
  121.09087 7.0 7
  122.05506 10.0 10
  122.06979 5.0 5
  122.09665 36.0 36
  123.07785 11.0 11
  123.08356 8.0 8
  124.07603 45.0 45
  124.11381 27.0 27
  129.06683 8.0 8
  129.07292 6.0 6
  130.06503 31.0 31
  131.05888 7.0 7
  131.07635 27.0 27
  132.07089 7.0 7
  132.08403 27.0 27
  132.09149 6.0 6
  133.06677 22.0 22
  134.06281 5.0 5
  134.09596 7.0 7
  134.10263 8.0 8
  135.08374 10.0 10
  138.08771 13.0 13
  139.09135 6.0 6
  141.07173 7.0 7
  143.07504 7.0 7
  144.04401 6.0 6
  144.08157 229.0 229
  145.08473 21.0 21
  146.09305 12.0 12
  146.10016 11.0 11
  147.08 10.0 10
  150.09268 33.0 33
  151.09668 8.0 8
  152.10545 73.0 73
  152.11571 14.0 14
  153.11482 5.0 5
  154.06609 18.0 18
  156.08345 10.0 10
  158.05559 18.0 18
  158.09193 21.0 21
  158.1002 17.0 17
  159.10396 6.0 6
  164.11322 6.0 6
  167.06754 15.0 15
  167.07585 10.0 10
  168.07529 30.0 30
  168.08301 57.0 57
  168.08955 17.0 17
  169.07912 11.0 11
  169.08722 9.0 9
  169.09454 9.0 9
  169.10237 6.0 6
  170.06129 11.0 11
  170.0809 8.0 8
  170.09227 10.0 10
  170.10263 14.0 14
  171.09132 9.0 9
  171.10818 6.0 6
  172.07759 5.0 5
  172.09195 7.0 7
  172.11028 16.0 16
  172.11687 9.0 9
  180.0791 43.0 43
  181.08421 20.0 20
  181.09282 48.0 48
  182.06654 10.0 10
  182.09065 32.0 32
  182.10042 52.0 52
  183.10143 23.0 23
  183.11084 6.0 6
  184.06799 11.0 11
  184.07849 41.0 41
  184.10843 38.0 38
  185.08759 6.0 6
  185.10545 5.0 5
  185.11662 5.0 5
  186.09665 7.0 7
  193.08243 11.0 11
  193.09029 14.0 14
  194.09639 73.0 73
  195.1022 74.0 74
  196.07278 24.0 24
  196.08128 55.0 55
  196.10507 34.0 34
  196.11833 43.0 43
  197.07414 58.0 58
  197.08414 208.0 208
  197.11502 20.0 20
  198.0899 56.0 56
  198.10313 12.0 12
  198.13004 62.0 62
  198.13858 15.0 15
  199.08636 14.0 14
  199.12848 12.0 12
  199.14034 8.0 8
  206.09682 20.0 20
  207.10338 38.0 38
  207.11542 9.0 9
  208.0732 14.0 14
  208.10016 26.0 26
  208.11209 61.0 61
  209.07574 6.0 6
  209.08707 10.0 10
  209.09851 12.0 12
  209.10976 14.0 14
  209.12555 42.0 42
  210.09035 107.0 107
  210.12833 70.0 70
  211.08748 5.0 5
  211.10187 56.0 56
  211.12727 7.0 7
  212.09464 6.0 6
  212.1089 43.0 43
  212.11963 13.0 13
  213.10841 7.0 7
  220.06281 6.0 6
  220.07762 12.0 12
  220.12206 6.0 6
  221.12222 15.0 15
  222.08904 89.0 89
  222.11331 8.0 8
  222.1328 40.0 40
  223.09808 270.0 270
  223.11203 56.0 56
  223.14119 6.0 6
  224.07722 7.0 7
  224.0872 16.0 16
  224.10573 85.0 85
  224.13292 232.0 232
  225.11473 172.0 172
  225.13315 54.0 54
  225.15604 7.0 7
  226.12268 242.0 242
  226.15701 5.0 5
  227.11073 6.0 6
  227.12712 47.0 47
  229.14206 5.0 5
  234.09113 30.0 30
  234.11699 6.0 6
  235.0903 27.0 27
  235.10117 60.0 60
  236.09212 13.0 13
  236.10994 76.0 76
  236.13148 17.0 17
  236.13864 34.0 34
  236.15007 49.0 49
  237.09882 21.0 21
  237.11377 191.0 191
  237.13103 22.0 22
  237.14883 6.0 6
  238.08685 7.0 7
  238.09895 23.0 23
  238.12347 1000.0 999
  238.1613 50.0 50
  239.1223 150.0 150
  239.13614 51.0 51
  239.16032 9.0 9
  239.17328 12.0 12
  240.12532 18.0 18
  240.13994 15.0 15
  248.11156 47.0 47
  248.12862 11.0 11
  248.14082 11.0 11
  248.1564 5.0 5
  249.11591 157.0 157
  250.12186 31.0 31
  250.15387 17.0 17
  251.11972 21.0 21
  251.13608 15.0 15
  252.11017 8.0 8
  252.13832 235.0 235
  253.11511 5.0 5
  253.1463 39.0 39
  253.16318 61.0 61
  253.17549 68.0 68
  254.17363 12.0 12
  254.18549 6.0 6
  263.13101 15.0 15
  263.142 6.0 6
  264.1283 44.0 44
  264.14328 78.0 78
  265.13202 21.0 21
  265.15247 16.0 16
  266.14783 207.0 207
  266.16098 107.0 107
  266.17752 5.0 5
  267.15128 27.0 27
  267.16135 55.0 55
  268.17014 8.0 8
  268.17886 6.0 6
  278.14343 15.0 15
  278.159 22.0 22
  279.16791 5.0 5
  295.18042 334.0 334
//
