ACCESSION: MSBNK-RIKEN-PR301430
RECORD_TITLE: Petiline; LC-ESI-QTOF; MS2
DATE: 2019.03.28
AUTHORS: Tetsuya Mori, Center for Sustainable Resource Science, RIKEN
LICENSE: CC BY-NC-SA
PUBLICATION: Tsugawa H., Nakabayashi R., Mori T., Yamada Y., Takahashi M., Rai A., Sugiyama R., Yamamoto H., Nakaya T., Yamazaki M., Kooke R., Bac-Molenaar JA., Oztolan-Erol N., Keurentjes JJB., Arita M., Saito K. (2019) "A cheminformatics approach to characterize metabolomes in stable-isotope-labeled organisms" Nature Methods 16(4):295-298. [doi:10.1038/s41592-019-0358-2]
COMMENT: registered in RIKEN PlaSMA
CH$NAME: Petiline
CH$COMPOUND_CLASS: 22,26-epiminocholestanes
CH$FORMULA: C27H43NO2
CH$EXACT_MASS: 413.646
CH$SMILES: C[C@@H]([C@H]1CC[C@H]2[C@@H]3CC(=O)[C@H]4C[C@@H](O)CC[C@]4(C)[C@H]3CC[C@]12C)C1=NC[C@@H](C)CC1
CH$IUPAC: InChI=1S/C27H43NO2/c1-16-5-8-24(28-15-16)17(2)20-6-7-21-19-14-25(30)23-13-18(29)9-11-27(23,4)22(19)10-12-26(20,21)3/h16-23,29H,5-15H2,1-4H3/t16-,17-,18-,19-,20+,21-,22-,23+,26+,27+/m0/s1
CH$LINK: INCHIKEY QAGPPGDCPAPQLW-HAQROMNMSA-N
AC$INSTRUMENT: LC, Waters Acquity UPLC System; MS, Waters Xevo G2 Q-Tof
AC$INSTRUMENT_TYPE: LC-ESI-QTOF
AC$MASS_SPECTROMETRY: MS_TYPE MS2
AC$MASS_SPECTROMETRY: ION_MODE POSITIVE
AC$MASS_SPECTROMETRY: COLLISION_ENERGY 6V
AC$MASS_SPECTROMETRY: DESOLVATION_GAS_FLOW 800/h
AC$MASS_SPECTROMETRY: DESOLVATION_TEMPERATURE 450 C
AC$MASS_SPECTROMETRY: IONIZATION ESI
AC$CHROMATOGRAPHY: CAPILLARY_VOLTAGE +3.00 kV
AC$CHROMATOGRAPHY: COLUMN_NAME Acquity bridged ethyl hybrid C18 (1.7 um, 2.1 mm * 100 mm, Waters)
AC$CHROMATOGRAPHY: COLUMN_TEMPERATURE 40 C
AC$CHROMATOGRAPHY: FLOW_GRADIENT A/B = (99.5%/0.5% at 0 min, 99.5%/0.5% at 0.1 min, 20%/80% at 10 min, 0.5%/99.5% at 10.1 min, 0.5%/99.5% at 12.0 min, 99.5%/0.5% at 12.1 min, 99.5%/0.5% at 15.0 min)
AC$CHROMATOGRAPHY: FLOW_RATE 0.3 ml/min at 0 min, 0.3 ml/min at 10 min, 0.4 ml/min at 10.1 min, 0.4 ml/min at 14.4 min, 0.3 ml/min at 14.5 min
AC$CHROMATOGRAPHY: RETENTION_TIME 4.94645
AC$CHROMATOGRAPHY: SOLVENT A water including 0.1% formic acid
AC$CHROMATOGRAPHY: SOLVENT B acetonitrile including 0.1% formic acid
MS$FOCUSED_ION: PRECURSOR_TYPE [M+H]+
MS$FOCUSED_ION: PRECURSOR_M/Z 414.3366561
PK$SPLASH: splash10-054n-5900000000-e3ee396014d924cdff66
PK$NUM_PEAK: 192
PK$PEAK: m/z int. rel.int.
  55.04863 11.0 11
  55.0554 17.0 17
  55.05957 7.0 7
  56.05151 8.0 8
  67.05493 182.0 182
  68.05445 9.0 9
  69.07046 72.0 72
  70.06624 40.0 40
  70.07009 13.0 13
  77.03854 52.0 52
  78.04974 5.0 5
  79.05552 391.0 391
  80.05332 18.0 18
  80.05817 25.0 25
  81.03596 16.0 16
  81.07057 489.0 489
  82.07292 20.0 20
  83.05138 16.0 16
  83.08737 64.0 64
  84.08224 71.0 71
  85.08835 8.0 8
  91.04276 8.0 8
  91.05499 216.0 216
  92.0524 7.0 7
  92.05741 10.0 10
  93.05261 6.0 6
  93.05642 13.0 13
  93.07072 1000.0 999
  94.06894 31.0 31
  94.07586 52.0 52
  95.04226 9.0 9
  95.04902 11.0 11
  95.05392 12.0 12
  95.08698 435.0 435
  96.08396 146.0 146
  97.06655 63.0 63
  97.08992 11.0 11
  97.10428 13.0 13
  98.06901 8.0 8
  98.09818 428.0 428
  99.09868 21.0 21
  103.05284 8.0 8
  105.0713 285.0 285
  106.06432 6.0 6
  106.07524 15.0 15
  107.03544 7.0 7
  107.05026 51.0 51
  107.06827 7.0 7
  107.08665 750.0 749
  108.09126 116.0 116
  109.06429 29.0 29
  109.0917 27.0 27
  109.102 153.0 153
  110.0728 6.0 6
  110.0983 138.0 138
  111.07642 14.0 14
  111.08511 9.0 9
  111.09793 18.0 18
  112.11349 85.0 85
  113.11035 6.0 6
  115.05523 5.0 5
  117.0493 8.0 8
  117.07047 36.0 36
  118.12704 8.0 8
  118.95747 6.0 6
  119.08655 150.0 150
  119.36445 5.0 5
  120.08989 13.0 13
  121.04898 7.0 7
  121.06661 62.0 62
  121.07953 5.0 5
  121.10239 385.0 385
  122.09772 31.0 31
  123.08119 51.0 51
  123.11446 6.0 6
  124.11346 112.0 112
  125.06019 28.0 28
  125.12106 105.0 105
  126.06844 6.0 6
  126.11464 14.0 14
  126.12857 847.0 846
  127.13142 70.0 70
  127.14221 6.0 6
  128.06224 11.0 11
  129.06975 51.0 51
  129.07576 15.0 15
  129.12813 6.0 6
  130.07666 22.0 22
  131.07156 7.0 7
  131.08604 132.0 132
  132.08449 6.0 6
  132.09251 7.0 7
  133.0238 7.0 7
  133.06824 7.0 7
  133.10107 126.0 126
  134.09912 7.0 7
  134.10602 12.0 12
  135.08115 23.0 23
  135.11877 267.0 267
  135.13098 6.0 6
  136.08638 10.0 10
  136.10732 8.0 8
  136.1167 21.0 21
  136.1261 23.0 23
  137.12115 12.0 12
  137.64497 5.0 5
  138.12839 21.0 21
  139.07156 11.0 11
  141.06699 7.0 7
  141.07515 8.0 8
  142.07809 22.0 22
  143.08688 104.0 104
  144.09438 7.0 7
  145.06477 7.0 7
  145.07407 11.0 11
  145.0992 110.0 110
  146.07179 6.0 6
  146.1075 13.0 13
  147.07265 6.0 6
  147.08836 13.0 13
  147.11894 104.0 104
  148.08385 10.0 10
  148.12399 15.0 15
  149.09517 37.0 37
  149.13309 379.0 379
  149.15173 8.0 8
  150.0983 11.0 11
  150.11568 7.0 7
  150.12927 133.0 133
  150.14056 21.0 21
  151.13063 15.0 15
  151.13622 8.0 8
  152.14296 65.0 65
  152.15179 17.0 17
  154.08197 6.0 6
  155.08752 32.0 32
  156.08237 7.0 7
  156.09846 6.0 6
  157.09073 5.0 5
  157.10309 51.0 51
  158.10393 14.0 14
  159.07573 12.0 12
  159.11795 63.0 63
  160.0851 7.0 7
  160.12297 5.0 5
  161.06252 7.0 7
  161.09724 40.0 40
  161.11885 8.0 8
  161.13194 20.0 20
  162.12854 7.0 7
  163.11087 15.0 15
  163.14778 23.0 23
  164.11406 7.0 7
  166.15749 17.0 17
  167.08409 8.0 8
  169.0955 7.0 7
  170.11507 8.0 8
  171.11734 46.0 46
  173.09238 15.0 15
  173.11931 12.0 12
  173.13255 39.0 39
  175.11163 44.0 44
  177.10669 5.0 5
  182.11028 6.0 6
  183.11465 23.0 23
  184.12888 8.0 8
  185.12808 6.0 6
  185.14053 6.0 6
  187.14612 32.0 32
  188.14954 7.0 7
  190.16132 5.0 5
  196.12483 10.0 10
  197.13072 18.0 18
  197.13797 14.0 14
  197.14714 5.0 5
  199.11099 7.0 7
  199.15038 11.0 11
  205.16672 7.0 7
  211.15318 24.0 24
  212.15215 8.0 8
  214.16722 8.0 8
  215.14638 8.0 8
  221.13199 6.0 6
  225.1644 9.0 9
  229.16837 8.0 8
  253.00485 6.0 6
  276.26208 6.0 6
  277.19479 6.0 6
  384.28799 10.0 10
  414.32306 88.0 88
  414.34 185.0 185
  414.35284 59.0 59
//
