ACCESSION: MSBNK-RIKEN-PR308689
RECORD_TITLE: Ginsenoside Rb3; LC-ESI-QTOF; MS2
DATE: 2019.03.28
AUTHORS: Tetsuya Mori, Center for Sustainable Resource Science, RIKEN
LICENSE: CC BY-NC-SA
PUBLICATION: Tsugawa H., Nakabayashi R., Mori T., Yamada Y., Takahashi M., Rai A., Sugiyama R., Yamamoto H., Nakaya T., Yamazaki M., Kooke R., Bac-Molenaar JA., Oztolan-Erol N., Keurentjes JJB., Arita M., Saito K. (2019) "A cheminformatics approach to characterize metabolomes in stable-isotope-labeled organisms" Nature Methods 16(4):295-298. [doi:10.1038/s41592-019-0358-2]
COMMENT: Annotation level-1
CH$NAME: Ginsenoside Rb3
CH$COMPOUND_CLASS: Triterpenoids
CH$FORMULA: C53H90O22
CH$EXACT_MASS: 1079.281
CH$SMILES: CCC(C)=CCCC(C)(OC1OC(COC2OCC(O)C(O)C2O)C(O)C(O)C1O)C1CCC2(C)C1C(O)CC1C2CCC2C(C)(C)C(CCC12C)OC1OC(CO)C(O)C(O)C1OC1OC(CO)C(O)C(O)C1O
CH$IUPAC: InChI=1S/C53H90O22/c1-8-23(2)10-9-15-53(7,75-48-44(67)40(63)38(61)31(72-48)22-69-46-42(65)35(58)28(57)21-68-46)25-13-16-52(6)24-11-12-32-50(3,4)33(14-17-51(32,5)26(24)18-27(56)34(25)52)73-49-45(41(64)37(60)30(20-55)71-49)74-47-43(66)39(62)36(59)29(19-54)70-47/h10,24-49,54-67H,8-9,11-22H2,1-7H3
CH$LINK: INCHIKEY SNPYJWZTTUVUIS-UHFFFAOYSA-N
AC$INSTRUMENT: LC, Waters Acquity UPLC System; MS, Waters Xevo G2 Q-Tof
AC$INSTRUMENT_TYPE: LC-ESI-QTOF
AC$MASS_SPECTROMETRY: MS_TYPE MS2
AC$MASS_SPECTROMETRY: ION_MODE NEGATIVE
AC$MASS_SPECTROMETRY: COLLISION_ENERGY 6V
AC$MASS_SPECTROMETRY: DESOLVATION_GAS_FLOW 800/h
AC$MASS_SPECTROMETRY: DESOLVATION_TEMPERATURE 450 C
AC$MASS_SPECTROMETRY: IONIZATION ESI
AC$CHROMATOGRAPHY: CAPILLARY_VOLTAGE +3.00 kV
AC$CHROMATOGRAPHY: COLUMN_NAME Acquity bridged ethyl hybrid C18 (1.7 um, 2.1 mm * 100 mm, Waters)
AC$CHROMATOGRAPHY: COLUMN_TEMPERATURE 40 C
AC$CHROMATOGRAPHY: FLOW_GRADIENT A/B = (99.5%/0.5% at 0 min, 99.5%/0.5% at 0.1 min, 20%/80% at 10 min, 0.5%/99.5% at 10.1 min, 0.5%/99.5% at 12.0 min, 99.5%/0.5% at 12.1 min, 99.5%/0.5% at 15.0 min)
AC$CHROMATOGRAPHY: FLOW_RATE 0.3 ml/min at 0 min, 0.3 ml/min at 10 min, 0.4 ml/min at 10.1 min, 0.4 ml/min at 14.4 min, 0.3 ml/min at 14.5 min
AC$CHROMATOGRAPHY: RETENTION_TIME 6.19
AC$CHROMATOGRAPHY: SOLVENT A water including 0.1% formic acid
AC$CHROMATOGRAPHY: SOLVENT B acetonitrile including 0.1% formic acid
MS$FOCUSED_ION: PRECURSOR_TYPE [M+HCOO]-
MS$FOCUSED_ION: PRECURSOR_M/Z 1123.59058
PK$SPLASH: splash10-004i-9200000000-8869c9ccdd434499b66b
PK$NUM_PEAK: 90
PK$PEAK: m/z int. rel.int.
  125.02622 20.0 3
  138.39641 30.0 4
  149.0417 56.0 7
  150.04602 28.0 4
  187.31947 16.0 2
  191.06691 17.0 2
  221.07494 33.0 4
  277.26074 18.0 2
  293.08728 28.0 4
  443.83664 17.0 2
  461.15576 16.0 2
  471.40439 17.0 2
  499.49045 25.0 3
  528.17059 20.0 3
  543.61377 18.0 2
  583.3642 21.0 3
  586.86896 19.0 2
  591.41199 18.0 2
  603.41846 20.0 3
  621.45587 24.0 3
  629.24927 18.0 2
  642.17737 16.0 2
  653.59198 34.0 4
  662.12769 16.0 2
  672.70062 17.0 2
  687.0921 36.0 5
  704.75873 17.0 2
  723.95966 21.0 3
  738.87158 25.0 3
  740.6488 27.0 3
  743.94653 19.0 2
  755.60803 23.0 3
  756.04645 17.0 2
  756.95667 24.0 3
  757.20721 16.0 2
  765.46594 18.0 2
  766.47388 22.0 3
  783.45117 20.0 3
  783.49231 45.0 6
  784.5014 110.0 14
  788.26099 16.0 2
  804.13971 18.0 2
  813.14026 20.0 3
  827.54633 16.0 2
  880.52527 25.0 3
  915.47968 35.0 4
  915.95618 22.0 3
  916.24127 17.0 2
  916.526 61.0 8
  916.56403 17.0 2
  917.54456 20.0 3
  937.58337 18.0 2
  945.52899 53.0 7
  945.5647 19.0 2
  946.51605 17.0 2
  946.56177 18.0 2
  1077.41443 18.0 2
  1077.58362 7771.0 999
  1077.68457 17.0 2
  1077.74976 18.0 2
  1078.04773 28.0 4
  1078.09326 215.0 28
  1078.13696 42.0 5
  1078.41785 16.0 2
  1078.59253 5121.0 658
  1078.69336 21.0 3
  1078.88196 17.0 2
  1078.94202 16.0 2
  1078.97644 22.0 3
  1079.0979 86.0 11
  1079.13855 40.0 5
  1079.59229 1765.0 227
  1079.96521 17.0 2
  1080.1134 25.0 3
  1080.59534 338.0 43
  1081.54248 23.0 3
  1081.59753 73.0 9
  1083.71179 16.0 2
  1098.94019 20.0 3
  1101.06995 17.0 2
  1102.09009 16.0 2
  1104.47815 22.0 3
  1104.54248 20.0 3
  1105.04895 20.0 3
  1105.11169 16.0 2
  1106.05359 25.0 3
  1121.01367 17.0 2
  1123.11987 16.0 2
  1123.59155 4241.0 545
  1123.68018 43.0 6
//
