ACCESSION: MSBNK-RIKEN-PR310408
RECORD_TITLE: Hederacoside C; LC-ESI-QTOF; MS2
DATE: 2019.03.28
AUTHORS: Tetsuya Mori, Center for Sustainable Resource Science, RIKEN
LICENSE: CC BY-NC-SA
PUBLICATION: Tsugawa H., Nakabayashi R., Mori T., Yamada Y., Takahashi M., Rai A., Sugiyama R., Yamamoto H., Nakaya T., Yamazaki M., Kooke R., Bac-Molenaar JA., Oztolan-Erol N., Keurentjes JJB., Arita M., Saito K. (2019) "A cheminformatics approach to characterize metabolomes in stable-isotope-labeled organisms" Nature Methods 16(4):295-298. [doi:10.1038/s41592-019-0358-2]
COMMENT: Annotation level-1
CH$NAME: Hederacoside C
CH$COMPOUND_CLASS: Triterpene saponins
CH$FORMULA: C59H96O26
CH$EXACT_MASS: 1221.391
CH$SMILES: CC1OC(OC2C(O)C(O)C(OCC3OC(OC(=O)C45CCC(C)(C)CC4C4=CCC6C7(C)CCC(OC8OCC(O)C(O)C8OC8OC(C)C(O)C(O)C8O)C(C)(CO)C7CCC6(C)C4(C)CC5)C(O)C(O)C3O)OC2CO)C(O)C(O)C1O
CH$IUPAC: InChI=1S/C59H96O26/c1-24-34(63)38(67)42(71)49(78-24)83-46-29(20-60)80-48(45(74)41(46)70)77-22-30-37(66)40(69)44(73)51(81-30)85-53(75)59-17-15-54(3,4)19-27(59)26-9-10-32-55(5)13-12-33(56(6,23-61)31(55)11-14-58(32,8)57(26,7)16-18-59)82-52-47(36(65)28(62)21-76-52)84-50-43(72)39(68)35(64)25(2)79-50/h9,24-25,27-52,60-74H,10-23H2,1-8H3
CH$LINK: INCHIKEY RYHDIBJJJRNDSX-UHFFFAOYSA-N
AC$INSTRUMENT: LC, Waters Acquity UPLC System; MS, Waters Xevo G2 Q-Tof
AC$INSTRUMENT_TYPE: LC-ESI-QTOF
AC$MASS_SPECTROMETRY: MS_TYPE MS2
AC$MASS_SPECTROMETRY: ION_MODE POSITIVE
AC$MASS_SPECTROMETRY: COLLISION_ENERGY 6V
AC$MASS_SPECTROMETRY: DESOLVATION_GAS_FLOW 800/h
AC$MASS_SPECTROMETRY: DESOLVATION_TEMPERATURE 450 C
AC$MASS_SPECTROMETRY: IONIZATION ESI
AC$CHROMATOGRAPHY: CAPILLARY_VOLTAGE +3.00 kV
AC$CHROMATOGRAPHY: COLUMN_NAME Acquity bridged ethyl hybrid C18 (1.7 um, 2.1 mm * 100 mm, Waters)
AC$CHROMATOGRAPHY: COLUMN_TEMPERATURE 40 C
AC$CHROMATOGRAPHY: FLOW_GRADIENT A/B = (99.5%/0.5% at 0 min, 99.5%/0.5% at 0.1 min, 20%/80% at 10 min, 0.5%/99.5% at 10.1 min, 0.5%/99.5% at 12.0 min, 99.5%/0.5% at 12.1 min, 99.5%/0.5% at 15.0 min)
AC$CHROMATOGRAPHY: FLOW_RATE 0.3 ml/min at 0 min, 0.3 ml/min at 10 min, 0.4 ml/min at 10.1 min, 0.4 ml/min at 14.4 min, 0.3 ml/min at 14.5 min
AC$CHROMATOGRAPHY: RETENTION_TIME 5.38
AC$CHROMATOGRAPHY: SOLVENT A water including 0.1% formic acid
AC$CHROMATOGRAPHY: SOLVENT B acetonitrile including 0.1% formic acid
MS$FOCUSED_ION: PRECURSOR_TYPE [M+H]+
MS$FOCUSED_ION: PRECURSOR_M/Z 1221.62626
PK$SPLASH: splash10-05fu-2181912302-4a682626412bb0f4c65c
PK$NUM_PEAK: 183
PK$PEAK: m/z int. rel.int.
  63.89187 20.0 45
  69.03982 21.0 47
  111.04583 17.0 38
  122.60077 19.0 43
  129.0 18.0 40
  129.05518 20.0 45
  129.11142 30.0 67
  129.93747 17.0 38
  130.05708 21.0 47
  145.0507 21.0 47
  147.0632 21.0 47
  147.06812 32.0 72
  163.06128 37.0 83
  179.07237 20.0 45
  207.16322 17.0 38
  237.06056 20.0 45
  239.10048 19.0 43
  241.06953 17.0 38
  243.09138 25.0 56
  249.19115 21.0 47
  255.09183 19.0 43
  256.83319 19.0 43
  257.08871 23.0 52
  257.09879 40.0 90
  258.1098 23.0 52
  259.08041 21.0 47
  261.07617 20.0 45
  261.0975 41.0 92
  261.17706 23.0 52
  269.67795 20.0 45
  273.08731 41.0 92
  273.09933 41.0 92
  279.09366 38.0 85
  279.11304 125.0 280
  280.11099 40.0 90
  285.27118 19.0 43
  293.07434 24.0 54
  293.12607 352.0 788
  294.13846 22.0 49
  295.09454 62.0 139
  309.1131 57.0 128
  309.12476 82.0 184
  310.11737 42.0 94
  311.14114 21.0 47
  349.24332 21.0 47
  352.63968 17.0 38
  359.01422 20.0 45
  388.13187 17.0 38
  390.16251 23.0 52
  397.30444 40.0 90
  398.31873 20.0 45
  399.13696 18.0 40
  401.09631 20.0 45
  405.13104 20.0 45
  408.14954 17.0 38
  409.33575 69.0 155
  409.35019 27.0 60
  410.34753 19.0 43
  411.3833 37.0 83
  419.14294 22.0 49
  419.16159 91.0 204
  423.30457 20.0 45
  425.13852 18.0 40
  425.16437 18.0 40
  425.34964 18.0 40
  426.35474 18.0 40
  427.34082 17.0 38
  436.05719 29.0 65
  437.173 27.0 60
  437.30942 22.0 49
  437.32239 29.0 65
  437.35028 166.0 372
  438.34952 85.0 190
  439.17328 24.0 54
  439.35376 22.0 49
  441.12796 21.0 47
  441.14368 45.0 101
  441.17215 81.0 181
  454.1655 18.0 40
  455.17392 160.0 358
  455.20215 28.0 63
  455.34689 229.0 513
  456.35748 82.0 184
  457.14581 20.0 45
  457.38599 27.0 60
  458.36703 17.0 38
  459.16638 25.0 56
  471.16086 64.0 143
  471.17673 96.0 215
  473.34338 17.0 38
  473.36111 39.0 87
  541.44629 25.0 56
  567.37738 41.0 92
  567.41309 17.0 38
  569.18384 21.0 47
  581.25354 25.0 56
  582.21863 34.0 76
  583.40277 42.0 94
  587.19159 24.0 54
  587.2182 102.0 228
  587.36188 18.0 40
  588.22375 19.0 43
  588.23853 17.0 38
  601.3797 18.0 40
  601.42291 43.0 96
  603.42828 20.0 45
  606.36542 18.0 40
  606.39716 17.0 38
  607.40259 20.0 45
  617.21454 70.0 157
  617.39264 18.0 40
  618.38013 20.0 45
  618.4278 23.0 52
  619.43182 48.0 108
  619.48773 17.0 38
  620.40851 58.0 130
  620.44202 38.0 85
  621.46533 17.0 38
  635.38751 49.0 110
  635.42841 19.0 43
  636.44031 46.0 103
  679.51306 23.0 52
  711.43524 19.0 43
  714.25696 25.0 56
  731.2334 20.0 45
  749.26154 134.0 300
  749.29504 40.0 90
  750.28302 21.0 47
  751.27551 17.0 38
  751.44104 25.0 56
  751.4668 113.0 253
  752.44263 20.0 45
  752.48468 37.0 83
  763.48376 26.0 58
  765.45905 21.0 47
  765.49677 50.0 112
  767.41913 17.0 38
  768.42285 23.0 52
  781.4549 23.0 52
  781.4917 65.0 146
  782.28711 18.0 40
  782.48895 60.0 134
  862.54718 23.0 52
  897.50177 41.0 92
  897.53009 57.0 128
  898.51892 43.0 96
  913.49347 28.0 63
  913.53766 31.0 69
  913.55695 17.0 38
  914.52997 18.0 40
  914.55914 23.0 52
  915.50665 20.0 45
  920.2113 17.0 38
  927.52246 48.0 108
  927.54657 18.0 40
  928.53845 37.0 83
  931.54224 23.0 52
  941.32971 18.0 40
  943.47333 17.0 38
  943.5506 45.0 101
  944.52673 24.0 54
  944.57178 18.0 40
  945.5882 27.0 60
  1028.35364 20.0 45
  1059.56226 85.0 190
  1059.60083 38.0 85
  1059.62976 17.0 38
  1060.01953 20.0 45
  1060.60864 20.0 45
  1060.64954 21.0 47
  1075.56873 25.0 56
  1075.59631 17.0 38
  1077.56323 17.0 38
  1077.75061 20.0 45
  1089.56836 43.0 96
  1089.62244 18.0 40
  1090.60034 17.0 38
  1091.56702 43.0 96
  1131.50525 18.0 40
  1186.56421 26.0 58
  1221.56067 69.0 155
  1221.62695 446.0 999
  1221.70422 17.0 38
//
