ACCESSION: MSBNK-RIKEN-PR308507
RECORD_TITLE: Ginsenoside Rb3; LC-ESI-QTOF; MS2
DATE: 2019.03.28
AUTHORS: Tetsuya Mori, Center for Sustainable Resource Science, RIKEN
LICENSE: CC BY-NC-SA
PUBLICATION: Tsugawa H., Nakabayashi R., Mori T., Yamada Y., Takahashi M., Rai A., Sugiyama R., Yamamoto H., Nakaya T., Yamazaki M., Kooke R., Bac-Molenaar JA., Oztolan-Erol N., Keurentjes JJB., Arita M., Saito K. (2019) "A cheminformatics approach to characterize metabolomes in stable-isotope-labeled organisms" Nature Methods 16(4):295-298. [doi:10.1038/s41592-019-0358-2]
COMMENT: registered in RIKEN PlaSMA
CH$NAME: Ginsenoside Rb3
CH$COMPOUND_CLASS: Triterpenoids
CH$FORMULA: C53H90O22
CH$EXACT_MASS: 1079.281
CH$SMILES: CCC(C)=CCCC(C)(OC1OC(COC2OCC(O)C(O)C2O)C(O)C(O)C1O)C1CCC2(C)C1C(O)CC1C2CCC2C(C)(C)C(CCC12C)OC1OC(CO)C(O)C(O)C1OC1OC(CO)C(O)C(O)C1O
CH$IUPAC: InChI=1S/C53H90O22/c1-8-23(2)10-9-15-53(7,75-48-44(67)40(63)38(61)31(72-48)22-69-46-42(65)35(58)28(57)21-68-46)25-13-16-52(6)24-11-12-32-50(3,4)33(14-17-51(32,5)26(24)18-27(56)34(25)52)73-49-45(41(64)37(60)30(20-55)71-49)74-47-43(66)39(62)36(59)29(19-54)70-47/h10,24-49,54-67H,8-9,11-22H2,1-7H3
CH$LINK: INCHIKEY SNPYJWZTTUVUIS-UHFFFAOYSA-N
AC$INSTRUMENT: LC, Waters Acquity UPLC System; MS, Waters Xevo G2 Q-Tof
AC$INSTRUMENT_TYPE: LC-ESI-QTOF
AC$MASS_SPECTROMETRY: MS_TYPE MS2
AC$MASS_SPECTROMETRY: ION_MODE NEGATIVE
AC$MASS_SPECTROMETRY: COLLISION_ENERGY 6V
AC$MASS_SPECTROMETRY: DESOLVATION_GAS_FLOW 800/h
AC$MASS_SPECTROMETRY: DESOLVATION_TEMPERATURE 450 C
AC$MASS_SPECTROMETRY: IONIZATION ESI
AC$CHROMATOGRAPHY: CAPILLARY_VOLTAGE -2.75 kV
AC$CHROMATOGRAPHY: COLUMN_NAME Acquity bridged ethyl hybrid C18 (1.7 um, 2.1 mm * 100 mm, Waters)
AC$CHROMATOGRAPHY: COLUMN_TEMPERATURE 40 C
AC$CHROMATOGRAPHY: FLOW_GRADIENT A/B = (99.5%/0.5% at 0 min, 99.5%/0.5% at 0.1 min, 20%/80% at 10 min, 0.5%/99.5% at 10.1 min, 0.5%/99.5% at 12.0 min, 99.5%/0.5% at 12.1 min, 99.5%/0.5% at 15.0 min)
AC$CHROMATOGRAPHY: FLOW_RATE 0.3 ml/min at 0 min, 0.3 ml/min at 10 min, 0.4 ml/min at 10.1 min, 0.4 ml/min at 14.4 min, 0.3 ml/min at 14.5 min
AC$CHROMATOGRAPHY: RETENTION_TIME 6.186333
AC$CHROMATOGRAPHY: SOLVENT A water including 0.1% formic acid
AC$CHROMATOGRAPHY: SOLVENT B acetonitrile including 0.1% formic acid
MS$FOCUSED_ION: PRECURSOR_TYPE [M+HCOO]-
MS$FOCUSED_ION: PRECURSOR_M/Z 1123.59057785183
PK$SPLASH: splash10-004i-9000000000-cf412f63f0291acbd20e
PK$NUM_PEAK: 8
PK$PEAK: m/z int. rel.int.
  915.52991 7.0 7
  1077.58264 1000.0 999
  1077.69189 8.0 8
  1078.58447 593.0 592
  1079.58899 202.0 202
  1080.56372 15.0 15
  1080.60059 24.0 24
  1080.63574 7.0 7
//
