ACCESSION: MSBNK-RIKEN-PR310674
RECORD_TITLE: Soyasapogenol E base + O-HexA-Hex-dHex; LC-ESI-QTOF; MS2
DATE: 2019.03.28
AUTHORS: Tetsuya Mori, Center for Sustainable Resource Science, RIKEN
LICENSE: CC BY-NC-SA
PUBLICATION: Tsugawa H., Nakabayashi R., Mori T., Yamada Y., Takahashi M., Rai A., Sugiyama R., Yamamoto H., Nakaya T., Yamazaki M., Kooke R., Bac-Molenaar JA., Oztolan-Erol N., Keurentjes JJB., Arita M., Saito K. (2019) "A cheminformatics approach to characterize metabolomes in stable-isotope-labeled organisms" Nature Methods 16(4):295-298. [doi:10.1038/s41592-019-0358-2]
COMMENT: Annotation level-3
CH$NAME: Soyasapogenol E base + O-HexA-Hex-dHex
CH$COMPOUND_CLASS: Triterpene saponins
CH$FORMULA: C48H76O18
CH$EXACT_MASS: 941.118
CH$SMILES: O=C(O)C8OC(OC2CCC3(C)(C4CC=C1C5CC(C)(C)CC(=O)C5(C)(CCC1(C)C4(C)(CCC3(C2(C)(CO))))))C(OC7OC(CO)C(O)C(O)C7(OC6OC(C)C(O)C(O)C6(O)))C(O)C8(O)
CH$IUPAC: InChI=1S/C48H76O18/c1-21-29(52)31(54)35(58)40(61-21)65-37-32(55)30(53)24(19-49)62-41(37)66-38-34(57)33(56)36(39(59)60)64-42(38)63-28-12-13-45(5)25(46(28,6)20-50)11-14-48(8)26(45)10-9-22-23-17-43(2,3)18-27(51)44(23,4)15-16-47(22,48)7/h9,21,23-26,28-38,40-42,49-50,52-58H,10-20H2,1-8H3,(H,59,60)
CH$LINK: INCHIKEY CROUPKILZUPLQA-UHFFFAOYSA-N
AC$INSTRUMENT: LC, Waters Acquity UPLC System; MS, Waters Xevo G2 Q-Tof
AC$INSTRUMENT_TYPE: LC-ESI-QTOF
AC$MASS_SPECTROMETRY: MS_TYPE MS2
AC$MASS_SPECTROMETRY: ION_MODE POSITIVE
AC$MASS_SPECTROMETRY: COLLISION_ENERGY 6V
AC$MASS_SPECTROMETRY: DESOLVATION_GAS_FLOW 800/h
AC$MASS_SPECTROMETRY: DESOLVATION_TEMPERATURE 450 C
AC$MASS_SPECTROMETRY: IONIZATION ESI
AC$CHROMATOGRAPHY: CAPILLARY_VOLTAGE +3.00 kV
AC$CHROMATOGRAPHY: COLUMN_NAME Acquity bridged ethyl hybrid C18 (1.7 um, 2.1 mm * 100 mm, Waters)
AC$CHROMATOGRAPHY: COLUMN_TEMPERATURE 40 C
AC$CHROMATOGRAPHY: FLOW_GRADIENT A/B = (99.5%/0.5% at 0 min, 99.5%/0.5% at 0.1 min, 20%/80% at 10 min, 0.5%/99.5% at 10.1 min, 0.5%/99.5% at 12.0 min, 99.5%/0.5% at 12.1 min, 99.5%/0.5% at 15.0 min)
AC$CHROMATOGRAPHY: FLOW_RATE 0.3 ml/min at 0 min, 0.3 ml/min at 10 min, 0.4 ml/min at 10.1 min, 0.4 ml/min at 14.4 min, 0.3 ml/min at 14.5 min
AC$CHROMATOGRAPHY: RETENTION_TIME 7.62
AC$CHROMATOGRAPHY: SOLVENT A water including 0.1% formic acid
AC$CHROMATOGRAPHY: SOLVENT B acetonitrile including 0.1% formic acid
MS$FOCUSED_ION: PRECURSOR_TYPE [M+H]+
MS$FOCUSED_ION: PRECURSOR_M/Z 941.5114
PK$SPLASH: splash10-0006-0231922207-32fb793b23f3b4b3252c
PK$NUM_PEAK: 164
PK$PEAK: m/z int. rel.int.
  83.05009 22.0 9
  98.38913 28.0 12
  111.0455 59.0 25
  113.09171 23.0 10
  118.68069 33.0 14
  121.09924 20.0 9
  129.05042 22.0 9
  131.06525 21.0 9
  135.10913 23.0 10
  135.12639 17.0 7
  141.02324 40.0 17
  145.04984 40.0 17
  147.05804 22.0 9
  147.07082 38.0 16
  149.62292 22.0 9
  159.03384 46.0 20
  163.06248 24.0 10
  163.06993 15.0 6
  165.07014 17.0 7
  165.0808 17.0 7
  175.14616 23.0 10
  177.03749 41.0 18
  177.16353 47.0 20
  184.12567 18.0 8
  187.15334 17.0 7
  189.16266 44.0 19
  193.15944 54.0 23
  195.16524 17.0 7
  201.02629 21.0 9
  202.16385 33.0 14
  203.18088 46.0 20
  204.11989 27.0 12
  204.19273 22.0 9
  205.16121 17.0 7
  207.17696 60.0 26
  215.1748 27.0 12
  215.19319 23.0 10
  217.20105 75.0 32
  219.16809 20.0 9
  221.19443 57.0 24
  230.19722 17.0 7
  231.08621 37.0 16
  231.16069 17.0 7
  232.1825 17.0 7
  243.2236 19.0 8
  245.19106 154.0 66
  245.79161 20.0 9
  246.18634 20.0 9
  246.20168 86.0 37
  255.08347 22.0 9
  255.21419 21.0 9
  257.05829 24.0 10
  257.19284 24.0 10
  259.20081 60.0 26
  260.22385 17.0 7
  261.22421 18.0 8
  269.06308 32.0 14
  269.22867 18.0 8
  271.20731 19.0 8
  272.20468 25.0 11
  273.18921 20.0 9
  273.22528 40.0 17
  287.07629 17.0 7
  291.11826 18.0 8
  293.22021 21.0 9
  295.24365 23.0 10
  299.23911 18.0 8
  305.08115 64.0 27
  306.09988 41.0 18
  310.12585 18.0 8
  311.1059 20.0 9
  313.22925 23.0 10
  321.08316 21.0 9
  323.09171 21.0 9
  323.10507 29.0 12
  324.10757 38.0 16
  325.24527 20.0 9
  339.09018 66.0 28
  352.18381 17.0 7
  365.29031 18.0 8
  366.20441 20.0 9
  381.31039 17.0 7
  381.32736 38.0 16
  382.26862 18.0 8
  382.31897 18.0 8
  404.33191 20.0 9
  404.35245 19.0 8
  404.63641 28.0 12
  406.32202 19.0 8
  409.33752 18.0 8
  421.29895 43.0 18
  421.34747 420.0 180
  421.37082 46.0 20
  422.341 44.0 19
  422.35501 56.0 24
  423.35327 53.0 23
  423.37708 18.0 8
  430.05838 18.0 8
  439.10184 39.0 17
  439.25958 21.0 9
  439.32849 80.0 34
  439.35501 976.0 418
  439.38037 173.0 74
  440.35687 229.0 98
  440.37869 158.0 68
  441.33029 17.0 7
  441.36407 37.0 16
  443.5899 24.0 10
  451.35211 18.0 8
  457.36456 109.0 47
  458.36804 88.0 38
  458.39053 34.0 15
  485.13928 21.0 9
  485.15985 20.0 9
  529.30475 18.0 8
  545.36285 22.0 9
  550.29761 26.0 11
  567.40326 18.0 8
  579.36139 18.0 8
  586.44971 17.0 7
  588.62433 25.0 11
  597.34399 29.0 12
  597.37708 203.0 87
  597.39313 225.0 96
  598.38892 228.0 98
  599.36987 20.0 9
  603.40204 33.0 14
  603.44025 49.0 21
  615.36536 17.0 7
  615.40356 97.0 42
  616.39612 105.0 45
  616.40881 44.0 19
  617.38702 37.0 16
  622.44659 17.0 7
  633.35278 19.0 8
  633.39642 122.0 52
  633.41821 34.0 15
  634.39349 21.0 9
  634.42285 18.0 8
  635.39142 24.0 10
  635.40912 17.0 7
  650.45294 20.0 9
  671.94421 27.0 12
  725.43207 18.0 8
  761.43445 17.0 7
  762.45105 20.0 9
  763.42737 18.0 8
  763.45184 22.0 9
  767.45117 20.0 9
  779.43616 20.0 9
  779.4823 24.0 10
  780.44177 35.0 15
  780.46375 21.0 9
  780.49634 17.0 7
  795.45648 293.0 125
  796.42816 23.0 10
  796.48615 96.0 41
  797.45197 21.0 9
  797.47516 17.0 7
  836.39563 18.0 8
  845.71637 28.0 12
  850.03186 20.0 9
  941.37067 23.0 10
  941.51373 2333.0 999
//
