ACCESSION: MSBNK-RIKEN-PR305545
RECORD_TITLE: Luteolin-6-C-glucoside; LC-ESI-QTOF; MS2
DATE: 2019.03.28
AUTHORS: Tetsuya Mori, Center for Sustainable Resource Science, RIKEN
LICENSE: CC BY-NC-SA
PUBLICATION: Tsugawa H., Nakabayashi R., Mori T., Yamada Y., Takahashi M., Rai A., Sugiyama R., Yamamoto H., Nakaya T., Yamazaki M., Kooke R., Bac-Molenaar JA., Oztolan-Erol N., Keurentjes JJB., Arita M., Saito K. (2019) "A cheminformatics approach to characterize metabolomes in stable-isotope-labeled organisms" Nature Methods 16(4):295-298. [doi:10.1038/s41592-019-0358-2]
COMMENT: registered in RIKEN PlaSMA
CH$NAME: Luteolin-6-C-glucoside
CH$COMPOUND_CLASS: Flavonoid C-glycosides
CH$FORMULA: C21H20O11
CH$EXACT_MASS: 448.38
CH$SMILES: OCC1OC(C(O)C(O)C1O)C1=C(O)C2=C(OC(=CC2=O)C2=CC(O)=C(O)C=C2)C=C1O
CH$IUPAC: InChI=1S/C21H20O11/c22-6-14-17(27)19(29)20(30)21(32-14)16-11(26)5-13-15(18(16)28)10(25)4-12(31-13)7-1-2-8(23)9(24)3-7/h1-5,14,17,19-24,26-30H,6H2
CH$LINK: INCHIKEY ODBRNZZJSYPIDI-UHFFFAOYSA-N
AC$INSTRUMENT: LC, Waters Acquity UPLC System; MS, Waters Xevo G2 Q-Tof
AC$INSTRUMENT_TYPE: LC-ESI-QTOF
AC$MASS_SPECTROMETRY: MS_TYPE MS2
AC$MASS_SPECTROMETRY: ION_MODE NEGATIVE
AC$MASS_SPECTROMETRY: COLLISION_ENERGY 6V
AC$MASS_SPECTROMETRY: DESOLVATION_GAS_FLOW 800/h
AC$MASS_SPECTROMETRY: DESOLVATION_TEMPERATURE 450 C
AC$MASS_SPECTROMETRY: IONIZATION ESI
AC$CHROMATOGRAPHY: CAPILLARY_VOLTAGE -2.75 kV
AC$CHROMATOGRAPHY: COLUMN_NAME Acquity bridged ethyl hybrid C18 (1.7 um, 2.1 mm * 100 mm, Waters)
AC$CHROMATOGRAPHY: COLUMN_TEMPERATURE 40 C
AC$CHROMATOGRAPHY: FLOW_GRADIENT A/B = (99.5%/0.5% at 0 min, 99.5%/0.5% at 0.1 min, 20%/80% at 10 min, 0.5%/99.5% at 10.1 min, 0.5%/99.5% at 12.0 min, 99.5%/0.5% at 12.1 min, 99.5%/0.5% at 15.0 min)
AC$CHROMATOGRAPHY: FLOW_RATE 0.3 ml/min at 0 min, 0.3 ml/min at 10 min, 0.4 ml/min at 10.1 min, 0.4 ml/min at 14.4 min, 0.3 ml/min at 14.5 min
AC$CHROMATOGRAPHY: RETENTION_TIME 3.594683
AC$CHROMATOGRAPHY: SOLVENT A water including 0.1% formic acid
AC$CHROMATOGRAPHY: SOLVENT B acetonitrile including 0.1% formic acid
MS$FOCUSED_ION: PRECURSOR_TYPE [M-H]-
MS$FOCUSED_ION: PRECURSOR_M/Z 447.09328504783
PK$SPLASH: splash10-001i-0950000000-e7cdaa435e3eff8d6aaf
PK$NUM_PEAK: 212
PK$PEAK: m/z int. rel.int.
  63.0254 20.0 20
  65.00014 17.0 17
  65.03646 11.0 11
  67.01698 12.0 12
  75.01943 12.0 12
  77.03651 13.0 13
  79.01949 17.0 17
  80.0248 11.0 11
  81.03474 15.0 15
  83.01087 10.0 10
  91.01703 19.0 19
  91.02093 27.0 27
  91.0552 12.0 12
  93.03641 12.0 12
  95.01457 13.0 13
  97.02769 56.0 56
  103.01994 11.0 11
  105.03266 15.0 15
  106.0408 11.0 11
  107.00679 12.0 12
  107.01501 31.0 31
  108.02449 16.0 16
  109.02054 12.0 12
  109.02795 79.0 79
  109.03156 37.0 37
  115.01894 11.0 11
  117.03112 15.0 15
  119.00912 12.0 12
  119.04714 57.0 57
  120.02589 14.0 14
  121.01972 11.0 11
  121.02911 130.0 130
  123.04381 11.0 11
  124.02278 11.0 11
  125.02666 19.0 19
  126.02537 19.0 19
  130.03447 16.0 16
  131.00943 28.0 28
  131.05119 13.0 13
  132.01389 15.0 15
  132.02289 10.0 10
  133.02844 1000.0 999
  134.03287 143.0 143
  134.04039 46.0 46
  135.00633 24.0 24
  135.03569 24.0 24
  135.0468 57.0 57
  136.01176 12.0 12
  137.01971 44.0 44
  143.0546 20.0 20
  144.02382 23.0 23
  144.05336 12.0 12
  145.02795 22.0 22
  145.03305 10.0 10
  145.06317 14.0 14
  147.04814 35.0 35
  148.02277 19.0 19
  149.01218 11.0 11
  149.02129 42.0 42
  149.0585 17.0 17
  149.15237 11.0 11
  150.99335 29.0 29
  151.00449 36.0 36
  151.01051 12.0 12
  151.03706 22.0 22
  152.0378 11.0 11
  153.06888 11.0 11
  156.0174 14.0 14
  156.06003 11.0 11
  156.19798 11.0 11
  158.03571 10.0 10
  159.03969 11.0 11
  161.01921 97.0 97
  161.0293 43.0 43
  162.03207 32.0 32
  163.00275 242.0 242
  163.04068 110.0 110
  163.99873 12.0 12
  164.01221 13.0 13
  165.0155 74.0 74
  165.04182 12.0 12
  167.05276 28.0 28
  168.05513 26.0 26
  169.05992 13.0 13
  169.06851 12.0 12
  171.03 14.0 14
  171.0826 11.0 11
  173.0197 17.0 17
  173.05946 10.0 10
  175.00133 18.0 18
  175.04187 115.0 115
  176.04774 11.0 11
  176.98172 12.0 12
  177.01546 60.0 60
  177.98485 13.0 13
  178.01212 13.0 13
  179.0462 16.0 16
  181.05714 29.0 29
  181.07866 11.0 11
  181.13768 18.0 18
  182.03583 42.0 42
  182.06665 12.0 12
  183.03534 12.0 12
  184.04559 41.0 41
  185.03212 19.0 19
  185.05814 13.0 13
  187.04123 51.0 51
  187.04994 39.0 39
  187.08136 14.0 14
  188.00409 15.0 15
  189.01576 12.0 12
  190.02049 11.0 11
  190.03372 14.0 14
  193.00804 35.0 35
  193.01703 18.0 18
  193.04764 14.0 14
  195.03726 38.0 38
  195.04433 109.0 109
  196.05042 11.0 11
  197.02118 22.0 22
  197.05569 38.0 38
  198.02884 33.0 33
  198.04263 25.0 25
  199.03122 57.0 57
  199.04784 14.0 14
  200.03888 29.0 29
  201.01776 67.0 67
  201.03716 12.0 12
  201.05753 44.0 44
  202.015 14.0 14
  203.03082 11.0 11
  203.04015 10.0 10
  209.06854 11.0 11
  210.02608 17.0 17
  210.06003 18.0 18
  211.03294 70.0 70
  211.04492 14.0 14
  211.06644 17.0 17
  212.04375 32.0 32
  213.02168 11.0 11
  213.05057 51.0 51
  213.06183 10.0 10
  214.05894 13.0 13
  215.02664 20.0 20
  215.05794 12.0 12
  216.04036 12.0 12
  217.05452 23.0 23
  219.03191 12.0 12
  221.03758 15.0 15
  222.03967 10.0 10
  223.04022 12.0 12
  224.04308 32.0 32
  225.0446 14.0 14
  225.05547 24.0 24
  226.02426 46.0 46
  226.05768 49.0 49
  227.03143 41.0 41
  227.07628 28.0 28
  228.07466 12.0 12
  229.03235 12.0 12
  229.05296 20.0 20
  235.03215 12.0 12
  236.04626 16.0 16
  237.0619 27.0 27
  239.03159 73.0 73
  240.03574 25.0 25
  241.04623 51.0 51
  241.05753 32.0 32
  242.01665 11.0 11
  242.06789 14.0 14
  243.03436 16.0 16
  243.06354 13.0 13
  251.04597 29.0 29
  253.00194 10.0 10
  253.04262 20.0 20
  253.05382 54.0 54
  254.0231 13.0 13
  255.02582 40.0 40
  257.04251 10.0 10
  263.07211 10.0 10
  268.04666 11.0 11
  269.04538 66.0 66
  270.04791 48.0 48
  270.07101 14.0 14
  271.05997 11.0 11
  277.04865 13.0 13
  279.01736 19.0 19
  279.02905 14.0 14
  281.03104 14.0 14
  282.06696 14.0 14
  283.01834 16.0 16
  283.05029 25.0 25
  284.02396 114.0 114
  284.03629 40.0 40
  285.03409 12.0 12
  285.04477 23.0 23
  285.05719 26.0 26
  286.06137 16.0 16
  295.0199 11.0 11
  296.02866 11.0 11
  297.01294 11.0 11
  297.03601 230.0 230
  297.06003 33.0 33
  298.03479 55.0 55
  298.04962 109.0 109
  299.04303 10.0 10
  299.06433 112.0 112
  310.03757 13.0 13
  311.05234 46.0 46
  311.35172 12.0 12
  341.70914 12.0 12
  350.03751 10.0 10
//
