ACCESSION: MSBNK-RIKEN-PR100441
RECORD_TITLE: Zearalenone; LC-ESI-QTOF; MS2; CE:Ramp 5-60 V; [M+H]+
DATE: 2016.01.19 (Created 2009.09.10, modified 2011.05.06)
AUTHORS: Matsuda F, Suzuki M, Sawada Y, Plant Science Center, RIKEN.
LICENSE: CC BY-SA
COMMENT: Acquisition and generation of the data is financially supported in part by CREST/JST.
CH$NAME: Zearalenone
CH$NAME: FES
CH$NAME: Fusarium toxin
CH$NAME: Mycotoxin F2
CH$NAME: Benzoxacyclotetradecin-1,7(8H)-dione
CH$NAME: Zenone
CH$NAME: 6-(10-Hydroxy-6-oxo-trans-1-undecenyl)-beta-resorcylic acid-N-lactone
CH$COMPOUND_CLASS: Polyketides
CH$FORMULA: C18H22O5
CH$EXACT_MASS: 318.14672
CH$SMILES: O=C(C2)CCC[C@H](C)OC(=O)c(c(O)1)c(C=CCC2)cc(O)c1
CH$IUPAC: InChI=1S/C18H22O5/c1-12-6-5-9-14(19)8-4-2-3-7-13-10-15(20)11-16(21)17(13)18(22)23-12/h3,7,10-12,20-21H,2,4-6,8-9H2,1H3/b7-3+/t12-/m0/s1
CH$LINK: CAS 17924-92-4
CH$LINK: CHEMSPIDER 4444897
CH$LINK: KEGG C09981
CH$LINK: KNAPSACK C00003025
CH$LINK: LIPIDMAPS LMPK04000016
CH$LINK: PUBCHEM CID:5281576
CH$LINK: INCHIKEY MBMQEIFVQACCCH-QBODLPLBSA-N
CH$LINK: COMPTOX DTXSID0021460
AC$INSTRUMENT: UPLC Q-Tof Premier, Waters
AC$INSTRUMENT_TYPE: LC-ESI-QTOF
AC$MASS_SPECTROMETRY: MS_TYPE MS2
AC$MASS_SPECTROMETRY: ION_MODE POSITIVE
AC$MASS_SPECTROMETRY: COLLISION_ENERGY Ramp 5-60 V
AC$MASS_SPECTROMETRY: DATAFORMAT Continuum
AC$MASS_SPECTROMETRY: DESOLVATION_GAS_FLOW 600.0 L/Hr
AC$MASS_SPECTROMETRY: DESOLVATION_TEMPERATURE 400 C
AC$MASS_SPECTROMETRY: FRAGMENTATION_METHOD LOW-ENERGY CID
AC$MASS_SPECTROMETRY: IONIZATION ESI
AC$MASS_SPECTROMETRY: SOURCE_TEMPERATURE 120 C
AC$CHROMATOGRAPHY: CAPILLARY_VOLTAGE 3.0 kV
AC$CHROMATOGRAPHY: SAMPLING_CONE 23.0 V
AC$CHROMATOGRAPHY: SOLVENT A CH3CN(0.1%HCOOH)
AC$CHROMATOGRAPHY: SOLVENT B H2O(0.1%HCOOH)
MS$FOCUSED_ION: PRECURSOR_M/Z 319.15452
MS$FOCUSED_ION: PRECURSOR_TYPE [M+H]+
PK$SPLASH: splash10-0fs9-1954000000-34a8eee810cf73c4ac78
PK$NUM_PEAK: 8
PK$PEAK: m/z int. rel.int.
  69.0717 326.6 510
  157.0669 371 579
  185.0621 597.1 932
  187.0773 635.2 992
  203.0729 419.6 655
  283.1345 639.9 999
  301.1449 457.6 714
  319.1545 390.2 609
//
