ACCESSION: MSBNK-RIKEN-PR300031
RECORD_TITLE: Gelsenicine; LC-ESI-QTOF; MS2
DATE: 2019.03.28
AUTHORS: Tetsuya Mori, Center for Sustainable Resource Science, RIKEN
LICENSE: CC BY-NC-SA
PUBLICATION: Tsugawa H., Nakabayashi R., Mori T., Yamada Y., Takahashi M., Rai A., Sugiyama R., Yamamoto H., Nakaya T., Yamazaki M., Kooke R., Bac-Molenaar JA., Oztolan-Erol N., Keurentjes JJB., Arita M., Saito K. (2019) "A cheminformatics approach to characterize metabolomes in stable-isotope-labeled organisms" Nature Methods 16(4):295-298. [doi:10.1038/s41592-019-0358-2]
COMMENT: registered in RIKEN PlaSMA
CH$NAME: Gelsenicine
CH$COMPOUND_CLASS: Indoles and derivatives
CH$FORMULA: C19H22N2O3
CH$EXACT_MASS: 326.396
CH$SMILES: CCC1=N[C@H]2C[C@]3([C@H]4C[C@@H]1[C@@H]2CO4)C(=O)N(OC)C1=CC=CC=C31
CH$IUPAC: InChI=1S/C19H22N2O3/c1-3-14-11-8-17-19(9-15(20-14)12(11)10-24-17)13-6-4-5-7-16(13)21(23-2)18(19)22/h4-7,11-12,15,17H,3,8-10H2,1-2H3/t11-,12+,15+,17-,19+/m1/s1
CH$LINK: INCHIKEY BIGABVPVCRHEES-NWPJSNQLSA-N
AC$INSTRUMENT: LC, Waters Acquity UPLC System; MS, Waters Xevo G2 Q-Tof
AC$INSTRUMENT_TYPE: LC-ESI-QTOF
AC$MASS_SPECTROMETRY: MS_TYPE MS2
AC$MASS_SPECTROMETRY: ION_MODE POSITIVE
AC$MASS_SPECTROMETRY: COLLISION_ENERGY 6V
AC$MASS_SPECTROMETRY: DESOLVATION_GAS_FLOW 800/h
AC$MASS_SPECTROMETRY: DESOLVATION_TEMPERATURE 450 C
AC$MASS_SPECTROMETRY: IONIZATION ESI
AC$CHROMATOGRAPHY: CAPILLARY_VOLTAGE +3.00 kV
AC$CHROMATOGRAPHY: COLUMN_NAME Acquity bridged ethyl hybrid C18 (1.7 um, 2.1 mm * 100 mm, Waters)
AC$CHROMATOGRAPHY: COLUMN_TEMPERATURE 40 C
AC$CHROMATOGRAPHY: FLOW_GRADIENT A/B = (99.5%/0.5% at 0 min, 99.5%/0.5% at 0.1 min, 20%/80% at 10 min, 0.5%/99.5% at 10.1 min, 0.5%/99.5% at 12.0 min, 99.5%/0.5% at 12.1 min, 99.5%/0.5% at 15.0 min)
AC$CHROMATOGRAPHY: FLOW_RATE 0.3 ml/min at 0 min, 0.3 ml/min at 10 min, 0.4 ml/min at 10.1 min, 0.4 ml/min at 14.4 min, 0.3 ml/min at 14.5 min
AC$CHROMATOGRAPHY: RETENTION_TIME 3.986933
AC$CHROMATOGRAPHY: SOLVENT A water including 0.1% formic acid
AC$CHROMATOGRAPHY: SOLVENT B acetonitrile including 0.1% formic acid
MS$FOCUSED_ION: PRECURSOR_TYPE [M+H]+
MS$FOCUSED_ION: PRECURSOR_M/Z 327.170319
PK$SPLASH: splash10-014j-0290000000-7264d8b8f123e4844ae4
PK$NUM_PEAK: 193
PK$PEAK: m/z int. rel.int.
  70.06432 10.0 10
  71.07283 76.0 76
  72.0774 6.0 6
  73.05094 22.0 22
  80.05116 19.0 19
  84.08206 20.0 20
  85.08993 40.0 40
  94.06353 17.0 17
  95.07348 72.0 72
  96.04121 8.0 8
  96.04648 9.0 9
  96.0817 31.0 31
  108.08038 268.0 268
  109.0874 88.0 88
  110.09241 16.0 16
  110.09897 17.0 17
  111.06758 52.0 52
  112.07412 17.0 17
  120.0826 13.0 13
  121.08765 7.0 7
  122.05954 30.0 30
  122.08649 6.0 6
  122.09616 45.0 45
  123.07069 6.0 6
  124.07762 5.0 5
  125.08363 19.0 19
  130.0667 12.0 12
  132.04507 21.0 21
  132.08366 8.0 8
  134.09605 16.0 16
  136.07634 10.0 10
  136.11302 38.0 38
  138.08574 16.0 16
  138.09573 11.0 11
  143.07368 49.0 49
  144.06743 6.0 6
  144.08159 38.0 38
  145.08946 10.0 10
  146.02669 7.0 7
  146.05585 5.0 5
  146.06177 11.0 11
  146.09581 9.0 9
  148.0733 5.0 5
  150.08795 15.0 15
  150.12669 7.0 7
  151.09705 7.0 7
  151.10266 8.0 8
  152.10437 6.0 6
  158.05501 6.0 6
  164.10385 16.0 16
  165.06241 7.0 7
  167.07072 6.0 6
  168.08217 36.0 36
  169.08937 6.0 6
  170.0585 20.0 20
  170.06639 6.0 6
  172.07425 15.0 15
  178.05823 7.0 7
  178.06674 10.0 10
  179.08418 7.0 7
  180.07977 13.0 13
  180.09033 6.0 6
  181.08829 6.0 6
  182.05896 11.0 11
  182.10086 10.0 10
  183.06755 71.0 71
  184.07364 23.0 23
  184.08029 10.0 10
  192.08157 19.0 19
  194.06299 13.0 13
  195.06804 13.0 13
  195.10217 17.0 17
  196.06464 16.0 16
  196.07649 43.0 43
  196.08762 22.0 22
  196.11334 24.0 24
  197.07784 25.0 25
  197.08862 11.0 11
  197.11038 11.0 11
  199.06551 8.0 8
  204.07997 8.0 8
  205.08556 5.0 5
  206.09592 68.0 68
  207.0952 11.0 11
  208.07855 44.0 44
  208.10603 6.0 6
  208.11755 5.0 5
  209.08121 11.0 11
  209.10515 15.0 15
  210.08858 33.0 33
  210.10895 12.0 12
  211.08836 15.0 15
  211.12173 7.0 7
  212.07071 40.0 40
  212.09509 28.0 28
  213.07954 10.0 10
  214.09129 5.0 5
  219.07047 5.0 5
  219.09277 8.0 8
  220.07483 9.0 9
  220.08643 6.0 6
  220.09816 6.0 6
  220.11162 7.0 7
  221.10837 12.0 12
  222.0883 24.0 24
  222.10056 12.0 12
  222.1255 12.0 12
  223.08553 36.0 36
  223.10114 20.0 20
  223.12358 10.0 10
  224.0743 13.0 13
  224.10649 239.0 239
  224.13892 8.0 8
  225.06664 6.0 6
  225.07698 13.0 13
  225.10257 297.0 297
  226.08119 7.0 7
  226.09265 13.0 13
  226.10806 55.0 55
  226.11844 11.0 11
  226.16417 5.0 5
  227.10379 6.0 6
  227.11975 10.0 10
  230.09711 65.0 65
  231.09508 13.0 13
  231.10597 9.0 9
  232.08302 8.0 8
  233.07785 22.0 22
  233.08737 20.0 20
  233.09508 12.0 12
  234.08243 6.0 6
  234.09351 11.0 11
  235.08633 8.0 8
  235.12167 7.0 7
  236.09959 28.0 28
  236.14462 14.0 14
  237.09993 18.0 18
  237.11115 11.0 11
  237.14244 33.0 33
  238.10606 6.0 6
  238.14928 8.0 8
  239.08566 8.0 8
  239.11916 127.0 127
  240.12083 43.0 43
  240.13406 7.0 7
  241.16553 6.0 6
  246.08632 7.0 7
  247.08611 9.0 9
  247.12416 14.0 14
  247.1338 6.0 6
  248.08492 5.0 5
  248.10811 153.0 153
  249.10335 115.0 115
  249.14197 9.0 9
  250.10364 13.0 13
  250.11198 17.0 17
  250.12589 5.0 5
  250.14137 6.0 6
  250.15479 8.0 8
  251.12019 43.0 43
  251.15503 10.0 10
  252.11943 14.0 14
  253.09436 7.0 7
  253.13194 12.0 12
  254.15442 11.0 11
  255.11365 8.0 8
  263.11896 24.0 24
  265.09363 6.0 6
  265.10416 10.0 10
  265.1344 1000.0 999
  266.1084 14.0 14
  266.1376 232.0 232
  267.11301 83.0 83
  267.14685 46.0 46
  268.12891 11.0 11
  268.15921 129.0 129
  269.15784 9.0 9
  269.16684 12.0 12
  277.12256 8.0 8
  277.13623 29.0 29
  278.14075 25.0 25
  279.15015 136.0 136
  280.13641 5.0 5
  280.1507 22.0 22
  281.12503 9.0 9
  281.13461 12.0 12
  295.14981 19.0 19
  296.15289 579.0 578
  297.14377 32.0 32
  297.15643 131.0 131
  298.16165 22.0 22
  327.15402 7.0 7
  327.17136 24.0 24
//
