ACCESSION: MSBNK-RIKEN-PR305033
RECORD_TITLE: 9-Nitro-20(S)-camptothecin; LC-ESI-QTOF; MS2
DATE: 2019.03.28
AUTHORS: Tetsuya Mori, Center for Sustainable Resource Science, RIKEN
LICENSE: CC BY-NC-SA
PUBLICATION: Tsugawa H., Nakabayashi R., Mori T., Yamada Y., Takahashi M., Rai A., Sugiyama R., Yamamoto H., Nakaya T., Yamazaki M., Kooke R., Bac-Molenaar JA., Oztolan-Erol N., Keurentjes JJB., Arita M., Saito K. (2019) "A cheminformatics approach to characterize metabolomes in stable-isotope-labeled organisms" Nature Methods 16(4):295-298. [doi:10.1038/s41592-019-0358-2]
COMMENT: registered in RIKEN PlaSMA
CH$NAME: 9-Nitro-20(S)-camptothecin
CH$COMPOUND_CLASS: Camptothecins
CH$FORMULA: C20H15N3O6
CH$EXACT_MASS: 393.355
CH$SMILES: CCC1(O)C(=O)OCC2=C1C=C1N(CC3=CC4=C(C=CC=C4N(=O)=O)N=C13)C2=O
CH$IUPAC: InChI=1S/C20H15N3O6/c1-2-20(26)13-7-16-17-10(8-22(16)18(24)12(13)9-29-19(20)25)6-11-14(21-17)4-3-5-15(11)23(27)28/h3-7,26H,2,8-9H2,1H3
CH$LINK: INCHIKEY VHXNKPBCCMUMSW-UHFFFAOYSA-N
AC$INSTRUMENT: LC, Waters Acquity UPLC System; MS, Waters Xevo G2 Q-Tof
AC$INSTRUMENT_TYPE: LC-ESI-QTOF
AC$MASS_SPECTROMETRY: MS_TYPE MS2
AC$MASS_SPECTROMETRY: ION_MODE NEGATIVE
AC$MASS_SPECTROMETRY: COLLISION_ENERGY 6V
AC$MASS_SPECTROMETRY: DESOLVATION_GAS_FLOW 800/h
AC$MASS_SPECTROMETRY: DESOLVATION_TEMPERATURE 450 C
AC$MASS_SPECTROMETRY: IONIZATION ESI
AC$CHROMATOGRAPHY: CAPILLARY_VOLTAGE -2.75 kV
AC$CHROMATOGRAPHY: COLUMN_NAME Acquity bridged ethyl hybrid C18 (1.7 um, 2.1 mm * 100 mm, Waters)
AC$CHROMATOGRAPHY: COLUMN_TEMPERATURE 40 C
AC$CHROMATOGRAPHY: FLOW_GRADIENT A/B = (99.5%/0.5% at 0 min, 99.5%/0.5% at 0.1 min, 20%/80% at 10 min, 0.5%/99.5% at 10.1 min, 0.5%/99.5% at 12.0 min, 99.5%/0.5% at 12.1 min, 99.5%/0.5% at 15.0 min)
AC$CHROMATOGRAPHY: FLOW_RATE 0.3 ml/min at 0 min, 0.3 ml/min at 10 min, 0.4 ml/min at 10.1 min, 0.4 ml/min at 14.4 min, 0.3 ml/min at 14.5 min
AC$CHROMATOGRAPHY: RETENTION_TIME 5.862317
AC$CHROMATOGRAPHY: SOLVENT A water including 0.1% formic acid
AC$CHROMATOGRAPHY: SOLVENT B acetonitrile including 0.1% formic acid
MS$FOCUSED_ION: PRECURSOR_TYPE [M-H]-
MS$FOCUSED_ION: PRECURSOR_M/Z 392.08880874783
PK$SPLASH: splash10-001i-0590000000-60d547f6bf865369b040
PK$NUM_PEAK: 27
PK$PEAK: m/z int. rel.int.
  108.02349 427.0 427
  123.04089 202.0 202
  165.0383 247.0 247
  167.05962 315.0 315
  167.07182 247.0 247
  182.04698 494.0 494
  182.05644 236.0 236
  193.0778 281.0 281
  195.04388 337.0 337
  195.0527 258.0 258
  204.06554 236.0 236
  208.07726 247.0 247
  230.08311 247.0 247
  230.09888 213.0 213
  231.05659 213.0 213
  232.05872 1000.0 999
  233.05916 202.0 202
  233.06871 517.0 516
  234.06328 225.0 225
  243.0909 270.0 270
  245.06052 270.0 270
  257.1062 303.0 303
  258.08167 236.0 236
  273.08585 213.0 213
  273.84088 225.0 225
  274.07547 258.0 258
  286.06891 258.0 258
//
