ACCESSION: MSBNK-RIKEN-PR300160
RECORD_TITLE: Gardneramine; LC-ESI-QTOF; MS2
DATE: 2019.03.28
AUTHORS: Tetsuya Mori, Center for Sustainable Resource Science, RIKEN
LICENSE: CC BY-NC-SA
PUBLICATION: Tsugawa H., Nakabayashi R., Mori T., Yamada Y., Takahashi M., Rai A., Sugiyama R., Yamamoto H., Nakaya T., Yamazaki M., Kooke R., Bac-Molenaar JA., Oztolan-Erol N., Keurentjes JJB., Arita M., Saito K. (2019) "A cheminformatics approach to characterize metabolomes in stable-isotope-labeled organisms" Nature Methods 16(4):295-298. [doi:10.1038/s41592-019-0358-2]
COMMENT: registered in RIKEN PlaSMA
CH$NAME: Gardneramine
CH$COMPOUND_CLASS: 3-alkylindoles
CH$FORMULA: C23H28N2O5
CH$EXACT_MASS: 412.486
CH$SMILES: COC\C=C1/CN2[C@H]3CC45C2C[C@H]1[C@@H]3COC4=NC1=C5C(OC)=C(OC)C=C1OC
CH$IUPAC: InChI=1S/C23H28N2O5/c1-26-6-5-12-10-25-15-9-23-18(25)7-13(12)14(15)11-30-22(23)24-20-16(27-2)8-17(28-3)21(29-4)19(20)23/h5,8,13-15,18H,6-7,9-11H2,1-4H3/b12-5+/t13-,14+,15+,18?,23?/m1/s1
CH$LINK: INCHIKEY RIMDDIPKIZTBHU-KPDHXFAYSA-N
AC$INSTRUMENT: LC, Waters Acquity UPLC System; MS, Waters Xevo G2 Q-Tof
AC$INSTRUMENT_TYPE: LC-ESI-QTOF
AC$MASS_SPECTROMETRY: MS_TYPE MS2
AC$MASS_SPECTROMETRY: ION_MODE POSITIVE
AC$MASS_SPECTROMETRY: COLLISION_ENERGY 6V
AC$MASS_SPECTROMETRY: DESOLVATION_GAS_FLOW 800/h
AC$MASS_SPECTROMETRY: DESOLVATION_TEMPERATURE 450 C
AC$MASS_SPECTROMETRY: IONIZATION ESI
AC$CHROMATOGRAPHY: CAPILLARY_VOLTAGE +3.00 kV
AC$CHROMATOGRAPHY: COLUMN_NAME Acquity bridged ethyl hybrid C18 (1.7 um, 2.1 mm * 100 mm, Waters)
AC$CHROMATOGRAPHY: COLUMN_TEMPERATURE 40 C
AC$CHROMATOGRAPHY: FLOW_GRADIENT A/B = (99.5%/0.5% at 0 min, 99.5%/0.5% at 0.1 min, 20%/80% at 10 min, 0.5%/99.5% at 10.1 min, 0.5%/99.5% at 12.0 min, 99.5%/0.5% at 12.1 min, 99.5%/0.5% at 15.0 min)
AC$CHROMATOGRAPHY: FLOW_RATE 0.3 ml/min at 0 min, 0.3 ml/min at 10 min, 0.4 ml/min at 10.1 min, 0.4 ml/min at 14.4 min, 0.3 ml/min at 14.5 min
AC$CHROMATOGRAPHY: RETENTION_TIME 3.822467
AC$CHROMATOGRAPHY: SOLVENT A water including 0.1% formic acid
AC$CHROMATOGRAPHY: SOLVENT B acetonitrile including 0.1% formic acid
MS$FOCUSED_ION: PRECURSOR_TYPE [M+H]+
MS$FOCUSED_ION: PRECURSOR_M/Z 413.2070985
PK$SPLASH: splash10-03di-0001900000-5fc5597f141f0880fe8c
PK$NUM_PEAK: 29
PK$PEAK: m/z int. rel.int.
  120.08044 5.0 5
  132.07863 5.0 5
  146.0955 6.0 6
  218.04408 11.0 11
  233.05817 11.0 11
  233.06955 24.0 24
  234.07719 6.0 6
  245.05359 6.0 6
  248.09012 17.0 17
  261.08469 5.0 5
  273.08453 9.0 9
  325.11899 5.0 5
  337.11566 7.0 7
  351.13562 14.0 14
  353.14438 9.0 9
  353.15756 10.0 10
  365.15155 13.0 13
  366.15656 16.0 16
  367.15881 21.0 21
  367.17276 16.0 16
  368.17322 6.0 6
  383.15955 30.0 30
  397.17563 6.0 6
  398.18283 21.0 21
  398.19714 9.0 9
  399.18405 7.0 7
  413.14972 11.0 11
  413.2074 1000.0 999
  413.26596 23.0 23
//
