ACCESSION: MSBNK-RIKEN-PR300547
RECORD_TITLE: Isomajdine; LC-ESI-QTOF; MS2
DATE: 2019.03.28
AUTHORS: Tetsuya Mori, Center for Sustainable Resource Science, RIKEN
LICENSE: CC BY-NC-SA
PUBLICATION: Tsugawa H., Nakabayashi R., Mori T., Yamada Y., Takahashi M., Rai A., Sugiyama R., Yamamoto H., Nakaya T., Yamazaki M., Kooke R., Bac-Molenaar JA., Oztolan-Erol N., Keurentjes JJB., Arita M., Saito K. (2019) "A cheminformatics approach to characterize metabolomes in stable-isotope-labeled organisms" Nature Methods 16(4):295-298. [doi:10.1038/s41592-019-0358-2]
COMMENT: registered in RIKEN PlaSMA
CH$NAME: Isomajdine
CH$COMPOUND_CLASS: Indolizidines
CH$FORMULA: C23H28N2O6
CH$EXACT_MASS: 428.485
CH$SMILES: COC(=O)C1=CO[C@@H](C)[C@@H]2CN3CC[C@@]4([C@@H]3C[C@H]12)C(O)=NC1=C4C=CC(OC)=C1OC
CH$IUPAC: InChI=1S/C23H28N2O6/c1-12-14-10-25-8-7-23(18(25)9-13(14)15(11-31-12)21(26)30-4)16-5-6-17(28-2)20(29-3)19(16)24-22(23)27/h5-6,11-14,18H,7-10H2,1-4H3,(H,24,27)/t12-,13-,14-,18-,23+/m0/s1
CH$LINK: INCHIKEY TTZWEOINXHJHCY-UHJVZONPSA-N
AC$INSTRUMENT: LC, Waters Acquity UPLC System; MS, Waters Xevo G2 Q-Tof
AC$INSTRUMENT_TYPE: LC-ESI-QTOF
AC$MASS_SPECTROMETRY: MS_TYPE MS2
AC$MASS_SPECTROMETRY: ION_MODE POSITIVE
AC$MASS_SPECTROMETRY: COLLISION_ENERGY 6V
AC$MASS_SPECTROMETRY: DESOLVATION_GAS_FLOW 800/h
AC$MASS_SPECTROMETRY: DESOLVATION_TEMPERATURE 450 C
AC$MASS_SPECTROMETRY: IONIZATION ESI
AC$CHROMATOGRAPHY: CAPILLARY_VOLTAGE +3.00 kV
AC$CHROMATOGRAPHY: COLUMN_NAME Acquity bridged ethyl hybrid C18 (1.7 um, 2.1 mm * 100 mm, Waters)
AC$CHROMATOGRAPHY: COLUMN_TEMPERATURE 40 C
AC$CHROMATOGRAPHY: FLOW_GRADIENT A/B = (99.5%/0.5% at 0 min, 99.5%/0.5% at 0.1 min, 20%/80% at 10 min, 0.5%/99.5% at 10.1 min, 0.5%/99.5% at 12.0 min, 99.5%/0.5% at 12.1 min, 99.5%/0.5% at 15.0 min)
AC$CHROMATOGRAPHY: FLOW_RATE 0.3 ml/min at 0 min, 0.3 ml/min at 10 min, 0.4 ml/min at 10.1 min, 0.4 ml/min at 14.4 min, 0.3 ml/min at 14.5 min
AC$CHROMATOGRAPHY: RETENTION_TIME 4.47865
AC$CHROMATOGRAPHY: SOLVENT A water including 0.1% formic acid
AC$CHROMATOGRAPHY: SOLVENT B acetonitrile including 0.1% formic acid
MS$FOCUSED_ION: PRECURSOR_TYPE [M+H]+
MS$FOCUSED_ION: PRECURSOR_M/Z 429.2020131
PK$SPLASH: splash10-004i-0122900000-173189703e52ba52cfa2
PK$NUM_PEAK: 35
PK$PEAK: m/z int. rel.int.
  108.08318 5.0 5
  160.07712 8.0 8
  161.08577 6.0 6
  178.08691 17.0 17
  187.06267 16.0 16
  188.07138 10.0 10
  189.07866 46.0 46
  190.08588 9.0 9
  192.06628 11.0 11
  192.10059 8.0 8
  205.07457 12.0 12
  210.1151 8.0 8
  218.08112 29.0 29
  220.09727 149.0 149
  221.10213 21.0 21
  230.10478 14.0 14
  261.12424 35.0 35
  262.12665 6.0 6
  273.12534 37.0 37
  274.12659 5.0 5
  297.12402 5.0 5
  299.13809 15.0 15
  301.15573 5.0 5
  325.11664 15.0 15
  325.12811 11.0 11
  327.17157 10.0 10
  353.151 11.0 11
  369.17792 12.0 12
  397.17545 220.0 220
  398.17926 55.0 55
  399.17886 9.0 9
  429.13385 7.0 7
  429.20193 1000.0 999
  429.26215 32.0 32
  429.31549 6.0 6
//
