ACCESSION: MSBNK-RIKEN-PR310601
RECORD_TITLE: 14,15-Dehydro-16-epi-vincamine; LC-ESI-QTOF; MS2
DATE: 2019.03.28
AUTHORS: Tetsuya Mori, Center for Sustainable Resource Science, RIKEN
LICENSE: CC BY-NC-SA
PUBLICATION: Tsugawa H., Nakabayashi R., Mori T., Yamada Y., Takahashi M., Rai A., Sugiyama R., Yamamoto H., Nakaya T., Yamazaki M., Kooke R., Bac-Molenaar JA., Oztolan-Erol N., Keurentjes JJB., Arita M., Saito K. (2019) "A cheminformatics approach to characterize metabolomes in stable-isotope-labeled organisms" Nature Methods 16(4):295-298. [doi:10.1038/s41592-019-0358-2]
COMMENT: Annotation level-1
CH$NAME: 14,15-Dehydro-16-epi-vincamine
CH$COMPOUND_CLASS: Alkaloids
CH$FORMULA: C21H24N2O3
CH$EXACT_MASS: 352.434
CH$SMILES: CCC12CC(O)(N3C4=CC=CC=C4C4=C3C1N(CC4)CC=C2)C(=O)OC
CH$IUPAC: InChI=1S/C21H24N2O3/c1-3-20-10-6-11-22-12-9-15-14-7-4-5-8-16(14)23(17(15)18(20)22)21(25,13-20)19(24)26-2/h4-8,10,18,25H,3,9,11-13H2,1-2H3
CH$LINK: INCHIKEY BQGJXFQCMYJENQ-UHFFFAOYSA-N
AC$INSTRUMENT: LC, Waters Acquity UPLC System; MS, Waters Xevo G2 Q-Tof
AC$INSTRUMENT_TYPE: LC-ESI-QTOF
AC$MASS_SPECTROMETRY: MS_TYPE MS2
AC$MASS_SPECTROMETRY: ION_MODE POSITIVE
AC$MASS_SPECTROMETRY: COLLISION_ENERGY 6V
AC$MASS_SPECTROMETRY: DESOLVATION_GAS_FLOW 800/h
AC$MASS_SPECTROMETRY: DESOLVATION_TEMPERATURE 450 C
AC$MASS_SPECTROMETRY: IONIZATION ESI
AC$CHROMATOGRAPHY: CAPILLARY_VOLTAGE +3.00 kV
AC$CHROMATOGRAPHY: COLUMN_NAME Acquity bridged ethyl hybrid C18 (1.7 um, 2.1 mm * 100 mm, Waters)
AC$CHROMATOGRAPHY: COLUMN_TEMPERATURE 40 C
AC$CHROMATOGRAPHY: FLOW_GRADIENT A/B = (99.5%/0.5% at 0 min, 99.5%/0.5% at 0.1 min, 20%/80% at 10 min, 0.5%/99.5% at 10.1 min, 0.5%/99.5% at 12.0 min, 99.5%/0.5% at 12.1 min, 99.5%/0.5% at 15.0 min)
AC$CHROMATOGRAPHY: FLOW_RATE 0.3 ml/min at 0 min, 0.3 ml/min at 10 min, 0.4 ml/min at 10.1 min, 0.4 ml/min at 14.4 min, 0.3 ml/min at 14.5 min
AC$CHROMATOGRAPHY: RETENTION_TIME 4.26
AC$CHROMATOGRAPHY: SOLVENT A water including 0.1% formic acid
AC$CHROMATOGRAPHY: SOLVENT B acetonitrile including 0.1% formic acid
MS$FOCUSED_ION: PRECURSOR_TYPE [M+H]+
MS$FOCUSED_ION: PRECURSOR_M/Z 353.18597
PK$SPLASH: splash10-0udi-0339000000-c3fce8e829434ca8ec5f
PK$NUM_PEAK: 670
PK$PEAK: m/z int. rel.int.
  57.05041 20.0 0
  67.04392 25.0 0
  67.05667 18.0 0
  69.07159 76.0 1
  70.06301 51.0 1
  70.06808 69.0 1
  77.03923 42.0 1
  78.35932 19.0 0
  79.0554 71.0 1
  80.04558 37.0 1
  80.05167 100.0 2
  81.04373 32.0 0
  83.04781 28.0 0
  84.32619 52.0 1
  91.05422 104.0 2
  92.04957 22.0 0
  93.06339 34.0 1
  93.06927 39.0 1
  94.06346 166.0 3
  94.06983 25.0 0
  94.48907 24.0 0
  95.08782 25.0 0
  96.08051 228.0 3
  97.08926 26.0 0
  103.05153 19.0 0
  105.06899 48.0 1
  106.06908 29.0 0
  107.07224 50.0 1
  108.04472 67.0 1
  108.07925 85.0 1
  108.08517 135.0 2
  109.07171 49.0 1
  110.09588 84.0 1
  110.46154 49.0 1
  112.07243 18.0 0
  112.14061 22.0 0
  114.08808 21.0 0
  115.05175 19.0 0
  115.05806 44.0 1
  117.05565 27.0 0
  117.06728 34.0 1
  117.07554 105.0 2
  118.06226 35.0 1
  118.07662 39.0 1
  119.0496 21.0 0
  119.08876 28.0 0
  120.06538 17.0 0
  120.07331 28.0 0
  121.05834 102.0 2
  121.06644 55.0 1
  121.07652 21.0 0
  121.08318 39.0 1
  121.09444 20.0 0
  121.90435 17.0 0
  122.07619 36.0 1
  122.10563 44.0 1
  123.08138 48.0 1
  123.10261 20.0 0
  127.03827 22.0 0
  127.05128 66.0 1
  127.31183 24.0 0
  128.04681 40.0 1
  128.05444 49.0 1
  129.06543 28.0 0
  129.07243 26.0 0
  129.08134 36.0 1
  129.0898 27.0 0
  130.06017 112.0 2
  130.06718 341.0 5
  131.07329 126.0 2
  131.08377 60.0 1
  131.24467 17.0 0
  131.84082 38.0 1
  132.08165 180.0 3
  133.04936 38.0 1
  133.05685 65.0 1
  133.0636 72.0 1
  133.53789 36.0 1
  133.61852 43.0 1
  134.05893 19.0 0
  134.06645 72.0 1
  134.07303 25.0 0
  134.09625 46.0 1
  136.08093 20.0 0
  137.11568 26.0 0
  139.06099 27.0 0
  139.70355 17.0 0
  141.38812 20.0 0
  142.05534 29.0 0
  142.06721 18.0 0
  142.1353 23.0 0
  143.06931 68.0 1
  143.07684 200.0 3
  143.0947 23.0 0
  144.056 68.0 1
  144.08052 12714.0 193
  144.11545 34.0 1
  144.1806 20.0 0
  145.0838 1545.0 23
  145.09691 53.0 1
  146.06003 17.0 0
  146.08279 88.0 1
  146.10002 137.0 2
  146.34276 18.0 0
  147.03351 17.0 0
  147.42537 23.0 0
  148.03523 24.0 0
  148.04596 18.0 0
  148.07431 236.0 4
  148.08298 149.0 2
  149.06308 21.0 0
  149.07129 64.0 1
  149.08664 22.0 0
  150.08929 474.0 7
  150.09526 163.0 2
  150.10391 39.0 1
  152.06242 36.0 1
  152.10622 20.0 0
  152.13327 23.0 0
  152.19287 26.0 0
  154.03021 39.0 1
  154.05295 42.0 1
  154.06567 259.0 4
  154.07332 66.0 1
  154.51282 21.0 0
  155.07185 213.0 3
  155.08078 34.0 1
  156.06223 38.0 1
  156.07616 81.0 1
  156.08257 131.0 2
  156.94632 17.0 0
  157.07225 30.0 0
  157.08327 64.0 1
  157.09589 21.0 0
  158.05319 22.0 0
  158.06116 82.0 1
  158.0787 20.0 0
  158.09465 282.0 4
  159.06709 32.0 0
  159.09477 23.0 0
  160.07446 62.0 1
  162.08771 56.0 1
  162.09691 20.0 0
  163.09657 28.0 0
  165.07257 33.0 1
  165.09265 24.0 0
  165.70438 34.0 1
  166.05632 29.0 0
  166.08891 43.0 1
  167.04381 36.0 1
  167.05115 36.0 1
  167.06433 52.0 1
  167.07529 332.0 5
  167.70416 23.0 0
  168.05582 24.0 0
  168.06841 116.0 2
  168.08212 1362.0 21
  169.06931 20.0 0
  169.08658 229.0 3
  169.09427 59.0 1
  169.6925 28.0 0
  169.823 19.0 0
  169.84959 29.0 0
  170.06427 42.0 1
  170.08331 39.0 1
  170.09766 55.0 1
  171.09132 2038.0 31
  171.10809 20.0 0
  172.04068 22.0 0
  172.06583 71.0 1
  172.08009 275.0 4
  172.09772 194.0 3
  172.12193 33.0 1
  173.07124 30.0 0
  173.08623 17.0 0
  173.09698 37.0 1
  174.09413 23.0 0
  176.06708 20.0 0
  176.07907 70.0 1
  177.09267 30.0 0
  178.07382 30.0 0
  178.08405 21.0 0
  179.07103 31.0 0
  179.08922 74.0 1
  180.07947 416.0 6
  180.1013 143.0 2
  181.06389 24.0 0
  181.07242 20.0 0
  181.0887 414.0 6
  181.10641 39.0 1
  181.78352 30.0 0
  182.07849 45.0 1
  182.08546 80.0 1
  182.10034 359.0 5
  182.12561 17.0 0
  182.59052 18.0 0
  182.8136 35.0 1
  183.0914 97.0 1
  183.10735 132.0 2
  184.07869 29.0 0
  184.09904 70.0 1
  184.11226 195.0 3
  185.07573 19.0 0
  185.10509 29.0 0
  186.12943 61.0 1
  188.06554 18.0 0
  188.765 21.0 0
  190.08701 41.0 1
  190.95943 44.0 1
  191.0791 61.0 1
  192.08389 162.0 2
  192.10132 63.0 1
  192.58026 18.0 0
  193.08937 461.0 7
  193.10172 92.0 1
  194.05408 24.0 0
  194.0659 130.0 2
  194.0804 82.0 1
  194.08717 188.0 3
  194.09911 342.0 5
  194.81223 23.0 0
  195.06453 101.0 2
  195.08025 50.0 1
  195.10014 33.0 1
  195.11478 49.0 1
  196.07259 140.0 2
  196.08928 28.0 0
  196.11278 307.0 5
  196.12903 25.0 0
  197.08031 71.0 1
  197.09654 18.0 0
  197.11258 190.0 3
  197.12553 75.0 1
  197.31206 21.0 0
  197.98154 26.0 0
  198.07951 21.0 0
  198.08832 34.0 1
  198.11218 76.0 1
  198.12959 214.0 3
  198.57515 17.0 0
  199.13257 28.0 0
  199.92967 17.0 0
  200.09552 21.0 0
  200.12088 27.0 0
  201.56387 30.0 0
  202.08533 26.0 0
  203.07819 30.0 0
  204.0752 37.0 1
  204.08385 152.0 2
  204.09843 192.0 3
  205.07855 82.0 1
  205.09056 168.0 3
  206.06932 57.0 1
  206.084 28.0 0
  206.09697 150.0 2
  206.10802 74.0 1
  207.07257 62.0 1
  207.09709 119.0 2
  207.10962 250.0 4
  207.12523 20.0 0
  207.32562 17.0 0
  207.85719 18.0 0
  208.03055 17.0 0
  208.04224 24.0 0
  208.07466 53.0 1
  208.08571 42.0 1
  208.10414 509.0 8
  208.11571 540.0 8
  208.73923 17.0 0
  209.07146 34.0 1
  209.07993 44.0 1
  209.10124 110.0 2
  209.12207 122.0 2
  210.05124 26.0 0
  210.08731 326.0 5
  210.09808 349.0 5
  210.11411 527.0 8
  210.13214 45.0 1
  211.08696 91.0 1
  211.09883 172.0 3
  211.11452 83.0 1
  211.13124 18.0 0
  211.46266 23.0 0
  212.09949 17.0 0
  212.10789 23.0 0
  212.94823 20.0 0
  213.10252 28.0 0
  213.12798 52.0 1
  214.0833 79.0 1
  214.1299 34.0 1
  215.0712 27.0 0
  215.78839 26.0 0
  216.06932 18.0 0
  217.08664 141.0 2
  217.09612 42.0 1
  217.58658 44.0 1
  217.78149 47.0 1
  218.0934 257.0 4
  218.10756 150.0 2
  218.60655 19.0 0
  219.07129 26.0 0
  219.08214 41.0 1
  219.09489 60.0 1
  219.10681 187.0 3
  219.20601 21.0 0
  220.0744 99.0 2
  220.1086 159.0 2
  220.12631 20.0 0
  221.10516 94.0 1
  221.11971 66.0 1
  221.25859 19.0 0
  221.99593 20.0 0
  222.10449 209.0 3
  222.12396 713.0 11
  222.13304 628.0 10
  222.77705 22.0 0
  223.09804 69.0 1
  223.1201 275.0 4
  223.12988 426.0 6
  223.1434 56.0 1
  223.29663 22.0 0
  223.32709 59.0 1
  224.09859 22.0 0
  224.12694 31.0 0
  224.13702 43.0 1
  225.08104 26.0 0
  225.11676 59.0 1
  225.13893 46.0 1
  225.15355 19.0 0
  226.07246 21.0 0
  226.11238 19.0 0
  226.40698 27.0 0
  227.12967 18.0 0
  227.16898 21.0 0
  227.29555 51.0 1
  228.07671 31.0 0
  228.09355 130.0 2
  228.10284 559.0 9
  229.09641 57.0 1
  229.11125 82.0 1
  229.66805 30.0 0
  230.07901 31.0 0
  230.09166 113.0 2
  230.1021 124.0 2
  230.79463 25.0 0
  231.07047 20.0 0
  231.09872 142.0 2
  231.118 20.0 0
  231.61635 30.0 0
  232.06444 23.0 0
  232.09947 40.0 1
  232.11658 254.0 4
  232.24895 17.0 0
  233.08464 41.0 1
  233.11122 38.0 1
  233.32509 21.0 0
  234.08418 26.0 0
  234.09334 79.0 1
  234.10693 82.0 1
  234.12772 148.0 2
  234.13531 80.0 1
  234.15416 21.0 0
  234.91977 33.0 1
  235.07253 61.0 1
  235.10046 167.0 3
  235.11255 152.0 2
  235.13251 114.0 2
  235.56735 25.0 0
  236.08473 35.0 1
  236.10858 272.0 4
  236.13199 113.0 2
  236.14838 102.0 2
  237.09364 50.0 1
  237.10944 63.0 1
  237.13239 53.0 1
  237.14304 114.0 2
  238.07886 28.0 0
  238.08888 88.0 1
  238.10103 84.0 1
  238.12202 159.0 2
  238.13824 48.0 1
  238.8421 20.0 0
  239.09198 24.0 0
  239.10631 20.0 0
  239.12201 30.0 0
  239.13481 35.0 1
  240.08099 50.0 1
  240.09959 230.0 3
  240.13098 20.0 0
  240.64241 27.0 0
  241.08415 31.0 0
  241.09261 62.0 1
  241.10648 64.0 1
  242.12166 19.0 0
  243.07007 49.0 1
  243.09389 30.0 0
  243.12233 22.0 0
  243.48961 25.0 0
  244.06778 21.0 0
  244.0965 17.0 0
  244.1221 69.0 1
  244.55157 37.0 1
  245.07735 20.0 0
  245.11923 97.0 1
  245.91418 24.0 0
  246.06625 40.0 1
  246.07881 26.0 0
  246.11789 129.0 2
  246.12775 588.0 9
  246.41162 28.0 0
  247.10419 76.0 1
  247.11668 250.0 4
  247.13515 802.0 12
  248.10553 69.0 1
  248.12741 164.0 2
  248.14481 193.0 3
  249.11333 18.0 0
  249.12871 17.0 0
  250.09999 41.0 1
  250.12021 18.0 0
  250.13495 90.0 1
  250.1633 22.0 0
  251.05402 19.0 0
  251.08296 35.0 1
  251.0934 81.0 1
  251.10588 27.0 0
  251.13556 169.0 3
  251.15694 266.0 4
  251.1657 76.0 1
  252.05994 17.0 0
  252.06841 24.0 0
  252.08008 56.0 1
  252.0992 666.0 10
  252.11279 450.0 7
  252.13489 17.0 0
  252.15985 232.0 4
  253.08447 52.0 1
  253.1037 267.0 4
  253.49927 22.0 0
  254.09329 34.0 1
  254.10524 86.0 1
  254.11731 151.0 2
  254.12723 49.0 1
  255.09709 26.0 0
  255.12984 24.0 0
  255.15138 20.0 0
  256.12738 29.0 0
  256.14374 56.0 1
  256.15381 35.0 1
  257.07468 25.0 0
  257.09033 21.0 0
  257.10074 20.0 0
  257.10846 18.0 0
  257.6582 18.0 0
  258.09924 17.0 0
  258.12231 45.0 1
  258.13361 53.0 1
  259.0788 28.0 0
  259.12042 18.0 0
  259.13266 21.0 0
  259.14188 23.0 0
  260.1218 52.0 1
  260.13467 20.0 0
  261.09796 38.0 1
  261.1304 95.0 1
  261.1492 46.0 1
  261.90302 23.0 0
  262.02298 20.0 0
  262.07684 21.0 0
  262.09518 31.0 0
  262.10825 23.0 0
  262.12512 96.0 1
  262.1488 51.0 1
  262.15726 25.0 0
  263.04648 21.0 0
  263.11826 201.0 3
  263.13602 33.0 1
  263.15372 40.0 1
  264.10126 80.0 1
  264.11423 89.0 1
  264.13315 412.0 6
  264.14349 484.0 7
  264.17044 22.0 0
  264.18213 30.0 0
  264.41818 20.0 0
  265.10498 36.0 1
  265.12048 73.0 1
  265.13977 272.0 4
  265.17023 25.0 0
  266.11868 131.0 2
  266.14539 62.0 1
  266.16626 20.0 0
  266.17609 17.0 0
  266.20941 17.0 0
  267.12558 112.0 2
  267.46136 46.0 1
  267.81879 21.0 0
  268.05188 30.0 0
  268.08878 26.0 0
  268.10278 90.0 1
  268.13358 703.0 11
  269.08313 25.0 0
  269.12225 17.0 0
  270.05704 18.0 0
  270.10803 632.0 10
  270.12003 494.0 8
  270.14182 88.0 1
  271.11426 113.0 2
  271.12924 82.0 1
  271.15341 24.0 0
  271.8696 22.0 0
  272.09802 25.0 0
  273.09702 29.0 0
  273.11005 51.0 1
  274.1066 88.0 1
  274.12805 146.0 2
  274.16089 20.0 0
  275.12247 49.0 1
  275.14371 143.0 2
  275.1571 232.0 4
  275.17133 19.0 0
  275.79114 20.0 0
  276.09973 161.0 2
  276.13538 29.0 0
  276.16254 287.0 4
  277.10852 906.0 14
  277.14606 27.0 0
  277.16391 50.0 1
  277.17749 46.0 1
  277.46692 34.0 1
  278.07486 23.0 0
  278.11249 110.0 2
  278.12213 63.0 1
  278.14267 27.0 0
  278.63074 22.0 0
  279.12302 187.0 3
  280.10104 30.0 0
  280.13199 438.0 7
  280.17676 23.0 0
  280.48389 28.0 0
  281.09576 20.0 0
  281.11948 21.0 0
  281.14136 85.0 1
  282.14951 20.0 0
  282.44403 20.0 0
  283.39853 17.0 0
  284.50793 21.0 0
  286.11765 25.0 0
  286.14374 45.0 1
  286.16013 18.0 0
  286.62775 21.0 0
  287.12769 26.0 0
  287.13953 62.0 1
  287.79724 27.0 0
  288.00357 25.0 0
  288.10275 21.0 0
  288.12283 29.0 0
  289.10547 88.0 1
  290.11215 259.0 4
  290.13815 24.0 0
  291.09799 42.0 1
  291.12192 131.0 2
  291.15146 139.0 2
  291.60175 22.0 0
  292.13644 188.0 3
  293.08163 20.0 0
  293.11243 25.0 0
  293.13141 26.0 0
  293.14404 61.0 1
  293.16873 1196.0 18
  294.1286 22.0 0
  294.15854 129.0 2
  294.17404 173.0 3
  295.01111 28.0 0
  295.12305 60.0 1
  295.15839 49.0 1
  295.17371 49.0 1
  295.73132 19.0 0
  296.13409 45.0 1
  296.16162 114.0 2
  297.4707 25.0 0
  297.49313 64.0 1
  297.74982 37.0 1
  298.10873 27.0 0
  298.12305 67.0 1
  298.14523 612.0 9
  299.14026 43.0 1
  299.16129 19.0 0
  300.15552 35.0 1
  301.13235 21.0 0
  303.14725 249.0 4
  304.11572 41.0 1
  304.13266 125.0 2
  304.15942 68.0 1
  305.08771 18.0 0
  305.10876 85.0 1
  305.11877 192.0 3
  305.13733 191.0 3
  305.1622 27.0 0
  306.08841 76.0 1
  306.104 41.0 1
  306.14841 2768.0 42
  307.11169 54.0 1
  307.14554 254.0 4
  307.16028 186.0 3
  307.17316 58.0 1
  307.76242 30.0 0
  308.15057 65.0 1
  308.17206 56.0 1
  310.12451 24.0 0
  311.38785 20.0 0
  313.17996 26.0 0
  314.14935 17.0 0
  315.16306 34.0 1
  316.19067 52.0 1
  316.66043 17.0 0
  318.15509 73.0 1
  319.15787 33.0 1
  319.86453 21.0 0
  320.15295 24.0 0
  321.14764 20.0 0
  321.16422 66.0 1
  322.13437 38.0 1
  323.13724 21.0 0
  323.19135 35.0 1
  323.20041 17.0 0
  324.0434 17.0 0
  324.12827 53.0 1
  324.14682 377.0 6
  324.15811 434.0 7
  324.17426 98.0 1
  325.16953 153.0 2
  325.1976 29.0 0
  325.43008 21.0 0
  326.16107 20.0 0
  326.17139 27.0 0
  327.18564 17.0 0
  328.94748 25.0 0
  331.40884 18.0 0
  335.11789 22.0 0
  335.13855 122.0 2
  335.17569 3207.0 49
  336.12527 17.0 0
  336.16345 201.0 3
  336.18164 575.0 9
  337.17661 150.0 2
  340.73853 20.0 0
  343.21713 24.0 0
  344.09976 22.0 0
  344.26413 32.0 0
  347.66507 24.0 0
  349.87173 20.0 0
  350.93042 20.0 0
  351.16379 163.0 2
  351.1734 72.0 1
  351.75925 17.0 0
  352.17523 196.0 3
  352.19662 27.0 0
  352.25049 21.0 0
  352.40421 17.0 0
  352.77344 20.0 0
  352.81924 22.0 0
  352.90573 38.0 1
  352.92877 34.0 1
  353.06519 65.0 1
  353.10245 284.0 4
  353.12912 410.0 6
  353.18753 65687.0 999
  353.24249 1773.0 27
  353.29562 206.0 3
//
