ACCESSION: MSBNK-RIKEN-PR300441
RECORD_TITLE: Emetine; LC-ESI-QTOF; MS2
DATE: 2019.03.28
AUTHORS: Tetsuya Mori, Center for Sustainable Resource Science, RIKEN
LICENSE: CC BY-NC-SA
PUBLICATION: Tsugawa H., Nakabayashi R., Mori T., Yamada Y., Takahashi M., Rai A., Sugiyama R., Yamamoto H., Nakaya T., Yamazaki M., Kooke R., Bac-Molenaar JA., Oztolan-Erol N., Keurentjes JJB., Arita M., Saito K. (2019) "A cheminformatics approach to characterize metabolomes in stable-isotope-labeled organisms" Nature Methods 16(4):295-298. [doi:10.1038/s41592-019-0358-2]
COMMENT: registered in RIKEN PlaSMA
CH$NAME: Emetine
CH$COMPOUND_CLASS: Emetine alkaloids
CH$FORMULA: C29H40N2O4
CH$EXACT_MASS: 480.649
CH$SMILES: CC[C@H]1CN2CCC3=CC(OC)=C(OC)C=C3[C@@H]2C[C@@H]1C[C@H]1NCCC2=CC(OC)=C(OC)C=C12
CH$IUPAC: InChI=1S/C29H40N2O4/c1-6-18-17-31-10-8-20-14-27(33-3)29(35-5)16-23(20)25(31)12-21(18)11-24-22-15-28(34-4)26(32-2)13-19(22)7-9-30-24/h13-16,18,21,24-25,30H,6-12,17H2,1-5H3/t18-,21-,24+,25-/m0/s1
CH$LINK: INCHIKEY AUVVAXYIELKVAI-CKBKHPSWSA-N
AC$INSTRUMENT: LC, Waters Acquity UPLC System; MS, Waters Xevo G2 Q-Tof
AC$INSTRUMENT_TYPE: LC-ESI-QTOF
AC$MASS_SPECTROMETRY: MS_TYPE MS2
AC$MASS_SPECTROMETRY: ION_MODE POSITIVE
AC$MASS_SPECTROMETRY: COLLISION_ENERGY 6V
AC$MASS_SPECTROMETRY: DESOLVATION_GAS_FLOW 800/h
AC$MASS_SPECTROMETRY: DESOLVATION_TEMPERATURE 450 C
AC$MASS_SPECTROMETRY: IONIZATION ESI
AC$CHROMATOGRAPHY: CAPILLARY_VOLTAGE +3.00 kV
AC$CHROMATOGRAPHY: COLUMN_NAME Acquity bridged ethyl hybrid C18 (1.7 um, 2.1 mm * 100 mm, Waters)
AC$CHROMATOGRAPHY: COLUMN_TEMPERATURE 40 C
AC$CHROMATOGRAPHY: FLOW_GRADIENT A/B = (99.5%/0.5% at 0 min, 99.5%/0.5% at 0.1 min, 20%/80% at 10 min, 0.5%/99.5% at 10.1 min, 0.5%/99.5% at 12.0 min, 99.5%/0.5% at 12.1 min, 99.5%/0.5% at 15.0 min)
AC$CHROMATOGRAPHY: FLOW_RATE 0.3 ml/min at 0 min, 0.3 ml/min at 10 min, 0.4 ml/min at 10.1 min, 0.4 ml/min at 14.4 min, 0.3 ml/min at 14.5 min
AC$CHROMATOGRAPHY: RETENTION_TIME 3.412183
AC$CHROMATOGRAPHY: SOLVENT A water including 0.1% formic acid
AC$CHROMATOGRAPHY: SOLVENT B acetonitrile including 0.1% formic acid
MS$FOCUSED_ION: PRECURSOR_TYPE [M+H]+
MS$FOCUSED_ION: PRECURSOR_M/Z 481.3060842
PK$SPLASH: splash10-001i-0130900000-65d44e3173b6d9f41e68
PK$NUM_PEAK: 56
PK$PEAK: m/z int. rel.int.
  68.05539 6.0 6
  141.06505 11.0 11
  161.09021 5.0 5
  164.07384 6.0 6
  165.08885 8.0 8
  177.08397 22.0 22
  177.09377 17.0 17
  178.09534 5.0 5
  179.10577 10.0 10
  189.09641 12.0 12
  191.09589 10.0 10
  191.10684 15.0 15
  192.105 55.0 55
  195.12517 6.0 6
  203.10553 16.0 16
  204.10297 7.0 7
  205.11104 17.0 17
  206.10753 10.0 10
  206.11969 10.0 10
  219.13292 7.0 7
  226.14426 6.0 6
  230.11536 6.0 6
  240.14645 8.0 8
  244.13635 9.0 9
  246.15102 131.0 131
  247.14436 15.0 15
  247.15555 6.0 6
  247.16711 5.0 5
  259.17804 6.0 6
  270.09677 6.0 6
  272.15894 45.0 45
  272.17477 16.0 16
  273.15942 17.0 17
  274.18051 103.0 103
  275.19794 9.0 9
  286.16928 8.0 8
  300.19705 16.0 16
  304.13925 6.0 6
  395.23969 7.0 7
  434.24527 9.0 9
  436.2168 5.0 5
  436.25598 15.0 15
  447.23865 7.0 7
  452.29337 5.0 5
  455.80539 6.0 6
  464.27264 57.0 57
  464.29706 10.0 10
  465.2562 10.0 10
  465.27634 10.0 10
  465.302 10.0 10
  466.25259 5.0 5
  466.28064 14.0 14
  479.28806 35.0 35
  480.28812 20.0 20
  481.25583 16.0 16
  481.30795 1000.0 999
//
