ACCESSION: MSBNK-RIKEN-PR304954
RECORD_TITLE: Isoreserpin; LC-ESI-QTOF; MS2
DATE: 2019.03.28
AUTHORS: Tetsuya Mori, Center for Sustainable Resource Science, RIKEN
LICENSE: CC BY-NC-SA
PUBLICATION: Tsugawa H., Nakabayashi R., Mori T., Yamada Y., Takahashi M., Rai A., Sugiyama R., Yamamoto H., Nakaya T., Yamazaki M., Kooke R., Bac-Molenaar JA., Oztolan-Erol N., Keurentjes JJB., Arita M., Saito K. (2019) "A cheminformatics approach to characterize metabolomes in stable-isotope-labeled organisms" Nature Methods 16(4):295-298. [doi:10.1038/s41592-019-0358-2]
COMMENT: registered in RIKEN PlaSMA
CH$NAME: Isoreserpin
CH$COMPOUND_CLASS: Yohimbine alkaloids
CH$FORMULA: C33H40N2O9
CH$EXACT_MASS: 608.688
CH$SMILES: CO[C@H]1[C@@H](C[C@@H]2CN3CCC4=C([C@@H]3C[C@@H]2[C@@H]1C(=O)OC)NC5=C4C=CC(=C5)OC)OC(=O)C6=CC(=C(C(=C6)OC)OC)OC
CH$IUPAC: InChI=1S/C33H40N2O9/c1-38-19-7-8-20-21-9-10-35-16-18-13-27(44-32(36)17-11-25(39-2)30(41-4)26(12-17)40-3)31(42-5)28(33(37)43-6)22(18)15-24(35)29(21)34-23(20)14-19/h7-8,11-12,14,18,22,24,27-28,31,34H,9-10,13,15-16H2,1-6H3/t18-,22+,24+,27-,28+,31+/m1/s1
CH$LINK: INCHIKEY QEVHRUUCFGRFIF-VPHNHGCZSA-N
AC$INSTRUMENT: LC, Waters Acquity UPLC System; MS, Waters Xevo G2 Q-Tof
AC$INSTRUMENT_TYPE: LC-ESI-QTOF
AC$MASS_SPECTROMETRY: MS_TYPE MS2
AC$MASS_SPECTROMETRY: ION_MODE NEGATIVE
AC$MASS_SPECTROMETRY: COLLISION_ENERGY 6V
AC$MASS_SPECTROMETRY: DESOLVATION_GAS_FLOW 800/h
AC$MASS_SPECTROMETRY: DESOLVATION_TEMPERATURE 450 C
AC$MASS_SPECTROMETRY: IONIZATION ESI
AC$CHROMATOGRAPHY: CAPILLARY_VOLTAGE -2.75 kV
AC$CHROMATOGRAPHY: COLUMN_NAME Acquity bridged ethyl hybrid C18 (1.7 um, 2.1 mm * 100 mm, Waters)
AC$CHROMATOGRAPHY: COLUMN_TEMPERATURE 40 C
AC$CHROMATOGRAPHY: FLOW_GRADIENT A/B = (99.5%/0.5% at 0 min, 99.5%/0.5% at 0.1 min, 20%/80% at 10 min, 0.5%/99.5% at 10.1 min, 0.5%/99.5% at 12.0 min, 99.5%/0.5% at 12.1 min, 99.5%/0.5% at 15.0 min)
AC$CHROMATOGRAPHY: FLOW_RATE 0.3 ml/min at 0 min, 0.3 ml/min at 10 min, 0.4 ml/min at 10.1 min, 0.4 ml/min at 14.4 min, 0.3 ml/min at 14.5 min
AC$CHROMATOGRAPHY: RETENTION_TIME 6.098567
AC$CHROMATOGRAPHY: SOLVENT A water including 0.1% formic acid
AC$CHROMATOGRAPHY: SOLVENT B acetonitrile including 0.1% formic acid
MS$FOCUSED_ION: PRECURSOR_TYPE [M+HCOO]-
MS$FOCUSED_ION: PRECURSOR_M/Z 653.27158375183
PK$SPLASH: splash10-03e9-0954010000-d015ecffad79dfb40c1c
PK$NUM_PEAK: 40
PK$PEAK: m/z int. rel.int.
  95.01474 63.0 63
  137.02356 320.0 320
  137.99631 59.0 59
  138.03404 63.0 63
  138.99985 165.0 165
  152.05078 238.0 238
  153.05823 59.0 59
  154.04765 79.0 79
  166.02359 63.0 63
  167.06531 76.0 76
  167.07454 393.0 393
  168.01711 142.0 142
  176.0802 59.0 59
  179.03275 73.0 73
  180.04295 66.0 66
  181.0157 145.0 145
  182.0269 66.0 66
  196.03293 66.0 66
  197.0363 66.0 66
  197.04926 69.0 69
  211.06042 1000.0 999
  211.08099 66.0 66
  212.05763 135.0 135
  212.07039 102.0 102
  249.09904 66.0 66
  256.07599 59.0 59
  296.056 66.0 66
  333.12534 218.0 218
  350.10779 83.0 83
  365.11166 63.0 63
  379.16498 109.0 109
  380.17105 416.0 416
  380.19666 132.0 132
  381.16022 59.0 59
  381.19125 63.0 63
  408.17603 59.0 59
  530.15747 59.0 59
  547.16998 83.0 83
  561.17578 66.0 66
  577.21472 59.0 59
//
