ACCESSION: MSBNK-RIKEN-PR301477
RECORD_TITLE: 7-Hydroxymitragynine; LC-ESI-QTOF; MS2
DATE: 2019.03.28
AUTHORS: Tetsuya Mori, Center for Sustainable Resource Science, RIKEN
LICENSE: CC BY-NC-SA
PUBLICATION: Tsugawa H., Nakabayashi R., Mori T., Yamada Y., Takahashi M., Rai A., Sugiyama R., Yamamoto H., Nakaya T., Yamazaki M., Kooke R., Bac-Molenaar JA., Oztolan-Erol N., Keurentjes JJB., Arita M., Saito K. (2019) "A cheminformatics approach to characterize metabolomes in stable-isotope-labeled organisms" Nature Methods 16(4):295-298. [doi:10.1038/s41592-019-0358-2]
COMMENT: registered in RIKEN PlaSMA
CH$NAME: 7-Hydroxymitragynine
CH$COMPOUND_CLASS: Corynanthean-type alkaloids
CH$FORMULA: C23H30N2O5
CH$EXACT_MASS: 414.502
CH$SMILES: CC[C@H]1CN2CC[C@@]3(O)C(=NC4=C3C(OC)=CC=C4)[C@@H]2C[C@@H]1\C(=C/OC)C(=O)OC
CH$IUPAC: InChI=1S/C23H30N2O5/c1-5-14-12-25-10-9-23(27)20-17(7-6-8-19(20)29-3)24-21(23)18(25)11-15(14)16(13-28-2)22(26)30-4/h6-8,13-15,18,27H,5,9-12H2,1-4H3/b16-13+/t14-,15-,18-,23-/m0/s1
CH$LINK: INCHIKEY RYENLSMHLCNXJT-ZHOKILCHSA-N
AC$INSTRUMENT: LC, Waters Acquity UPLC System; MS, Waters Xevo G2 Q-Tof
AC$INSTRUMENT_TYPE: LC-ESI-QTOF
AC$MASS_SPECTROMETRY: MS_TYPE MS2
AC$MASS_SPECTROMETRY: ION_MODE POSITIVE
AC$MASS_SPECTROMETRY: COLLISION_ENERGY 6V
AC$MASS_SPECTROMETRY: DESOLVATION_GAS_FLOW 800/h
AC$MASS_SPECTROMETRY: DESOLVATION_TEMPERATURE 450 C
AC$MASS_SPECTROMETRY: IONIZATION ESI
AC$CHROMATOGRAPHY: CAPILLARY_VOLTAGE +3.00 kV
AC$CHROMATOGRAPHY: COLUMN_NAME Acquity bridged ethyl hybrid C18 (1.7 um, 2.1 mm * 100 mm, Waters)
AC$CHROMATOGRAPHY: COLUMN_TEMPERATURE 40 C
AC$CHROMATOGRAPHY: FLOW_GRADIENT A/B = (99.5%/0.5% at 0 min, 99.5%/0.5% at 0.1 min, 20%/80% at 10 min, 0.5%/99.5% at 10.1 min, 0.5%/99.5% at 12.0 min, 99.5%/0.5% at 12.1 min, 99.5%/0.5% at 15.0 min)
AC$CHROMATOGRAPHY: FLOW_RATE 0.3 ml/min at 0 min, 0.3 ml/min at 10 min, 0.4 ml/min at 10.1 min, 0.4 ml/min at 14.4 min, 0.3 ml/min at 14.5 min
AC$CHROMATOGRAPHY: RETENTION_TIME 4.260783
AC$CHROMATOGRAPHY: SOLVENT A water including 0.1% formic acid
AC$CHROMATOGRAPHY: SOLVENT B acetonitrile including 0.1% formic acid
MS$FOCUSED_ION: PRECURSOR_TYPE [M+H]+
MS$FOCUSED_ION: PRECURSOR_M/Z 415.2227485
PK$SPLASH: splash10-004i-0910000000-d995a98afb1417187390
PK$NUM_PEAK: 278
PK$PEAK: m/z int. rel.int.
  56.04774 7.0 7
  56.05261 6.0 6
  66.42787 5.0 5
  68.04623 7.0 7
  70.06861 8.0 8
  75.04397 41.0 41
  79.05361 6.0 6
  85.02668 13.0 13
  89.03551 6.0 6
  91.05167 20.0 20
  91.06289 14.0 14
  92.02535 9.0 9
  93.06323 5.0 5
  93.07133 5.0 5
  94.03686 5.0 5
  95.0505 7.0 7
  95.08762 6.0 6
  98.09405 11.0 11
  102.04448 5.0 5
  104.02589 7.0 7
  104.04218 16.0 16
  104.04949 37.0 37
  104.05742 7.0 7
  105.03226 17.0 17
  106.06124 20.0 20
  106.06779 24.0 24
  107.03391 6.0 6
  107.04037 10.0 10
  108.08311 11.0 11
  109.0567 10.0 10
  110.09708 103.0 103
  111.094 6.0 6
  111.09718 16.0 16
  114.7969 6.0 6
  115.05637 19.0 19
  116.02617 6.0 6
  116.0395 14.0 14
  116.05035 66.0 66
  117.0468 6.0 6
  117.05233 11.0 11
  117.06591 36.0 36
  117.99388 6.0 6
  118.06171 8.0 8
  118.07383 11.0 11
  119.04549 7.0 7
  119.07262 31.0 31
  119.08405 7.0 7
  120.04641 8.0 8
  120.05596 25.0 25
  121.06281 12.0 12
  121.06842 11.0 11
  122.09875 10.0 10
  123.07541 7.0 7
  123.08218 7.0 7
  124.07858 5.0 5
  124.18378 6.0 6
  125.09977 6.0 6
  126.05326 9.0 9
  127.05598 12.0 12
  129.03957 8.0 8
  129.05492 27.0 27
  129.88069 5.0 5
  130.04041 12.0 12
  130.04727 5.0 5
  130.06767 76.0 76
  131.06821 20.0 20
  131.07617 41.0 41
  132.04466 47.0 47
  132.07428 5.0 5
  132.08328 28.0 28
  133.05077 53.0 53
  133.05791 42.0 42
  133.07735 7.0 7
  134.04018 5.0 5
  134.0493 5.0 5
  134.05765 19.0 19
  134.06546 17.0 17
  134.09671 6.0 6
  134.29967 7.0 7
  135.03671 5.0 5
  136.08095 6.0 6
  137.05856 7.0 7
  138.06134 15.0 15
  139.07547 5.0 5
  142.05841 5.0 5
  143.0652 17.0 17
  143.07446 36.0 36
  144.07564 60.0 60
  144.08914 22.0 22
  144.36639 5.0 5
  145.04561 12.0 12
  145.06775 20.0 20
  146.05557 47.0 47
  146.06285 68.0 68
  146.08878 6.0 6
  147.06689 340.0 340
  148.06802 6.0 6
  148.07843 15.0 15
  148.10901 5.0 5
  148.84613 7.0 7
  149.05954 8.0 8
  149.08553 6.0 6
  150.0537 8.0 8
  150.08112 8.0 8
  150.09018 5.0 5
  151.05577 6.0 6
  152.0677 18.0 18
  154.06378 15.0 15
  155.06796 8.0 8
  156.04576 9.0 9
  156.07663 6.0 6
  157.04988 67.0 67
  158.06252 8.0 8
  158.07732 14.0 14
  158.09756 7.0 7
  159.02699 6.0 6
  159.03787 5.0 5
  159.06116 7.0 7
  159.06888 20.0 20
  159.0786 6.0 6
  160.03839 18.0 18
  160.07466 55.0 55
  160.68161 7.0 7
  161.0882 7.0 7
  162.04482 16.0 16
  162.05406 71.0 71
  162.09174 118.0 118
  162.10669 8.0 8
  162.86166 6.0 6
  163.08684 6.0 6
  163.0997 33.0 33
  164.10657 14.0 14
  165.09445 15.0 15
  167.01521 5.0 5
  167.05302 9.0 9
  167.06224 7.0 7
  167.12216 9.0 9
  168.07776 7.0 7
  170.02899 9.0 9
  172.06172 11.0 11
  172.07558 105.0 105
  173.07605 12.0 12
  173.08405 19.0 19
  174.05798 32.0 32
  174.07434 7.0 7
  174.08934 20.0 20
  175.02328 10.0 10
  175.04153 6.0 6
  175.06326 1000.0 999
  175.08859 15.0 15
  176.06625 106.0 106
  176.07794 33.0 33
  177.06581 15.0 15
  178.08063 8.0 8
  180.509 6.0 6
  182.06012 13.0 13
  183.07126 11.0 11
  184.06749 5.0 5
  184.08211 8.0 8
  184.09499 7.0 7
  184.16856 7.0 7
  185.05975 6.0 6
  185.08162 11.0 11
  185.10176 5.0 5
  185.11247 8.0 8
  186.05466 6.0 6
  186.08542 10.0 10
  186.09813 5.0 5
  186.38417 5.0 5
  187.0885 11.0 11
  187.09882 5.0 5
  189.08369 6.0 6
  190.06815 11.0 11
  190.08704 259.0 259
  190.16205 7.0 7
  191.08438 43.0 43
  191.09425 12.0 12
  192.08162 9.0 9
  193.07533 6.0 6
  195.08818 5.0 5
  197.07176 22.0 22
  198.06909 7.0 7
  198.0863 17.0 17
  199.08253 30.0 30
  199.09334 30.0 30
  200.06364 5.0 5
  200.0891 7.0 7
  200.11026 5.0 5
  201.07153 8.0 8
  202.08618 8.0 8
  203.11539 7.0 7
  210.08655 6.0 6
  211.091 75.0 75
  212.08873 18.0 18
  213.06458 12.0 12
  213.09061 13.0 13
  213.10384 15.0 15
  214.10199 6.0 6
  215.07312 8.0 8
  222.08833 7.0 7
  223.04416 6.0 6
  223.08145 35.0 35
  224.09312 7.0 7
  225.09183 6.0 6
  226.09813 5.0 5
  226.11778 7.0 7
  227.10533 9.0 9
  227.11604 40.0 40
  228.12434 5.0 5
  234.1031 7.0 7
  235.09007 6.0 6
  236.10086 16.0 16
  236.12383 6.0 6
  237.106 22.0 22
  238.1031 18.0 18
  238.11859 5.0 5
  238.14188 6.0 6
  239.1264 6.0 6
  241.10219 6.0 6
  242.08917 6.0 6
  245.14169 5.0 5
  247.1414 5.0 5
  249.09532 7.0 7
  249.12363 11.0 11
  251.11479 38.0 38
  251.12732 15.0 15
  252.10545 10.0 10
  252.12073 6.0 6
  252.12956 12.0 12
  252.14352 10.0 10
  253.13364 26.0 26
  253.15279 5.0 5
  263.12128 7.0 7
  264.05731 5.0 5
  265.10727 19.0 19
  265.13113 99.0 99
  266.12558 7.0 7
  266.14313 16.0 16
  267.15375 5.0 5
  268.11789 7.0 7
  269.13925 6.0 6
  269.44308 8.0 8
  274.07449 6.0 6
  275.10437 7.0 7
  276.12073 5.0 5
  277.0813 6.0 6
  277.12173 6.0 6
  278.12006 7.0 7
  279.15094 11.0 11
  281.1557 13.0 13
  281.16641 42.0 42
  282.16162 7.0 7
  282.17548 8.0 8
  289.11652 5.0 5
  289.22778 5.0 5
  293.08267 6.0 6
  293.0983 6.0 6
  293.15973 5.0 5
  295.14069 5.0 5
  296.18127 6.0 6
  301.12051 6.0 6
  305.11423 6.0 6
  309.11676 11.0 11
  318.11255 6.0 6
  321.15186 5.0 5
  327.13498 11.0 11
  337.15677 14.0 14
  347.15048 7.0 7
  349.15814 6.0 6
  351.1825 6.0 6
  381.17474 62.0 62
  381.19064 25.0 25
  382.12576 6.0 6
  382.15485 7.0 7
  382.17166 9.0 9
  382.20117 5.0 5
  383.17084 5.0 5
  397.20383 5.0 5
//
