ACCESSION: MSBNK-RIKEN-PR304317
RECORD_TITLE: Soyasaponin Bb; LC-ESI-QTOF; MS2
DATE: 2019.03.28
AUTHORS: Tetsuya Mori, Center for Sustainable Resource Science, RIKEN
LICENSE: CC BY-NC-SA
PUBLICATION: Tsugawa H., Nakabayashi R., Mori T., Yamada Y., Takahashi M., Rai A., Sugiyama R., Yamamoto H., Nakaya T., Yamazaki M., Kooke R., Bac-Molenaar JA., Oztolan-Erol N., Keurentjes JJB., Arita M., Saito K. (2019) "A cheminformatics approach to characterize metabolomes in stable-isotope-labeled organisms" Nature Methods 16(4):295-298. [doi:10.1038/s41592-019-0358-2]
COMMENT: registered in RIKEN PlaSMA
CH$NAME: Soyasaponin Bb
CH$COMPOUND_CLASS: Triterpene saponins
CH$FORMULA: C48H78O18
CH$EXACT_MASS: 943.134
CH$SMILES: C[C@@H]1O[C@@H](O[C@@H]2[C@@H](O)[C@@H](O)[C@@H](CO)O[C@H]2O[C@@H]2[C@@H](O)[C@H](O)[C@H](O[C@H]2O[C@H]2CC[C@@]3(C)[C@@H](CC[C@]4(C)[C@@H]3CC=C3[C@@H]5CC(C)(C)C[C@@H](O)[C@]5(C)CC[C@@]43C)[C@@]2(C)CO)C(O)=O)[C@H](O)[C@H](O)[C@H]1O
CH$IUPAC: InChI=1S/C48H78O18/c1-21-29(52)31(54)35(58)40(61-21)65-37-32(55)30(53)24(19-49)62-41(37)66-38-34(57)33(56)36(39(59)60)64-42(38)63-28-12-13-45(5)25(46(28,6)20-50)11-14-48(8)26(45)10-9-22-23-17-43(2,3)18-27(51)44(23,4)15-16-47(22,48)7/h9,21,23-38,40-42,49-58H,10-20H2,1-8H3,(H,59,60)/t21-,23-,24+,25+,26+,27+,28-,29-,30-,31+,32-,33-,34-,35+,36-,37+,38+,40-,41-,42+,44+,45-,46+,47+,48+/m0/s1
CH$LINK: INCHIKEY PTDAHAWQAGSZDD-IOVCITQVSA-N
AC$INSTRUMENT: LC, Waters Acquity UPLC System; MS, Waters Xevo G2 Q-Tof
AC$INSTRUMENT_TYPE: LC-ESI-QTOF
AC$MASS_SPECTROMETRY: MS_TYPE MS2
AC$MASS_SPECTROMETRY: ION_MODE POSITIVE
AC$MASS_SPECTROMETRY: COLLISION_ENERGY 6V
AC$MASS_SPECTROMETRY: DESOLVATION_GAS_FLOW 800/h
AC$MASS_SPECTROMETRY: DESOLVATION_TEMPERATURE 450 C
AC$MASS_SPECTROMETRY: IONIZATION ESI
AC$CHROMATOGRAPHY: CAPILLARY_VOLTAGE +3.00 kV
AC$CHROMATOGRAPHY: COLUMN_NAME Acquity bridged ethyl hybrid C18 (1.7 um, 2.1 mm * 100 mm, Waters)
AC$CHROMATOGRAPHY: COLUMN_TEMPERATURE 40 C
AC$CHROMATOGRAPHY: FLOW_GRADIENT A/B = (99.5%/0.5% at 0 min, 99.5%/0.5% at 0.1 min, 20%/80% at 10 min, 0.5%/99.5% at 10.1 min, 0.5%/99.5% at 12.0 min, 99.5%/0.5% at 12.1 min, 99.5%/0.5% at 15.0 min)
AC$CHROMATOGRAPHY: FLOW_RATE 0.3 ml/min at 0 min, 0.3 ml/min at 10 min, 0.4 ml/min at 10.1 min, 0.4 ml/min at 14.4 min, 0.3 ml/min at 14.5 min
AC$CHROMATOGRAPHY: RETENTION_TIME 7.092883
AC$CHROMATOGRAPHY: SOLVENT A water including 0.1% formic acid
AC$CHROMATOGRAPHY: SOLVENT B acetonitrile including 0.1% formic acid
MS$FOCUSED_ION: PRECURSOR_TYPE [M+H]+
MS$FOCUSED_ION: PRECURSOR_M/Z 943.5260921
PK$SPLASH: splash10-0fml-1971200000-f8bdae5c8506460ca137
PK$NUM_PEAK: 467
PK$PEAK: m/z int. rel.int.
  56.34466 27.0 27
  57.0341 11.0 11
  61.02612 21.0 21
  71.04806 102.0 102
  73.02686 13.0 13
  81.06675 73.0 73
  81.07365 20.0 20
  82.0717 10.0 10
  85.00417 9.0 9
  85.02785 455.0 455
  87.04261 12.0 12
  91.03942 89.0 89
  91.05077 20.0 20
  93.06947 10.0 10
  93.07726 10.0 10
  95.01008 20.0 20
  95.08604 185.0 185
  96.08218 9.0 9
  96.10979 10.0 10
  97.02988 45.0 45
  97.06519 22.0 22
  97.09653 10.0 10
  99.07246 11.0 11
  99.08244 11.0 11
  101.05742 14.0 14
  103.03854 55.0 55
  105.07156 47.0 47
  106.94641 11.0 11
  107.08514 93.0 93
  107.12524 10.0 10
  107.32176 11.0 11
  109.06977 10.0 10
  109.10168 297.0 297
  109.11324 12.0 12
  110.10273 46.0 46
  110.34679 17.0 17
  111.04285 116.0 116
  111.04955 38.0 38
  111.07939 54.0 54
  111.11455 10.0 10
  112.04977 30.0 30
  112.08286 34.0 34
  113.06001 9.0 9
  113.09539 10.0 10
  117.05148 15.0 15
  119.08588 94.0 94
  121.09978 157.0 157
  122.0978 20.0 20
  123.08405 17.0 17
  123.11947 149.0 149
  124.11604 25.0 25
  124.12219 17.0 17
  125.09893 12.0 12
  127.02223 12.0 12
  127.03583 30.0 30
  127.04395 51.0 51
  127.11406 9.0 9
  129.05334 420.0 420
  130.05861 18.0 18
  130.62122 10.0 10
  131.0349 20.0 20
  131.06163 11.0 11
  132.51813 11.0 11
  132.63596 11.0 11
  133.09422 28.0 28
  133.10051 78.0 78
  133.10881 21.0 21
  134.10477 23.0 23
  135.10626 21.0 21
  135.11736 218.0 218
  136.11594 12.0 12
  136.12332 11.0 11
  137.0199 9.0 9
  137.09846 19.0 19
  137.1147 13.0 13
  137.13408 54.0 54
  137.14465 9.0 9
  138.1319 27.0 27
  139.11006 88.0 88
  139.13858 11.0 11
  140.11636 22.0 22
  141.01863 708.0 707
  141.12927 15.0 15
  142.00368 10.0 10
  142.01227 20.0 20
  142.02321 17.0 17
  142.02805 9.0 9
  145.05142 60.0 60
  145.09998 76.0 76
  145.6555 9.0 9
  146.10335 10.0 10
  147.06456 243.0 243
  147.10571 32.0 32
  147.11681 84.0 84
  148.07349 19.0 19
  149.13298 254.0 254
  150.01686 9.0 9
  150.13416 40.0 40
  151.03391 9.0 9
  151.11411 20.0 20
  151.15143 31.0 31
  153.13016 32.0 32
  159.02814 224.0 224
  159.09972 38.0 38
  159.10982 48.0 48
  159.11903 52.0 52
  160.10718 10.0 10
  160.1176 10.0 10
  160.90941 10.0 10
  161.13425 216.0 216
  161.16997 11.0 11
  162.13507 20.0 20
  162.14099 28.0 28
  163.03525 9.0 9
  163.05659 97.0 97
  163.06665 53.0 53
  163.10437 19.0 19
  163.14679 353.0 353
  163.93002 9.0 9
  164.15044 37.0 37
  164.37653 10.0 10
  165.06828 13.0 13
  165.12627 89.0 89
  165.85379 15.0 15
  166.12436 23.0 23
  166.13435 13.0 13
  166.15668 9.0 9
  167.13699 12.0 12
  171.06174 9.0 9
  171.11127 11.0 11
  171.4527 11.0 11
  172.28488 12.0 12
  173.03929 10.0 10
  173.06816 11.0 11
  173.12842 53.0 53
  173.13789 22.0 22
  175.11024 12.0 12
  175.13101 16.0 16
  175.14487 160.0 160
  175.15338 129.0 129
  175.34903 9.0 9
  176.14745 32.0 32
  176.15891 11.0 11
  177.03967 41.0 41
  177.05154 10.0 10
  177.12575 30.0 30
  177.16046 332.0 332
  177.16795 173.0 173
  178.04486 20.0 20
  178.16428 14.0 14
  178.70531 13.0 13
  179.02911 9.0 9
  179.12819 19.0 19
  179.14256 34.0 34
  179.17181 21.0 21
  179.17937 42.0 42
  179.94479 10.0 10
  180.15369 10.0 10
  180.17628 22.0 22
  180.18732 10.0 10
  181.15424 22.0 22
  181.16283 9.0 9
  185.12489 17.0 17
  185.13449 33.0 33
  186.13513 9.0 9
  187.12335 26.0 26
  187.14755 141.0 141
  187.30937 13.0 13
  188.14644 18.0 18
  189.05733 14.0 14
  189.14571 10.0 10
  189.16272 298.0 298
  190.05011 20.0 20
  190.14861 11.0 11
  190.16536 55.0 55
  191.03134 12.0 12
  191.13545 12.0 12
  191.14349 10.0 10
  191.16705 29.0 29
  191.18117 206.0 206
  192.15126 11.0 11
  192.1779 44.0 44
  192.18741 22.0 22
  193.14111 10.0 10
  193.15384 38.0 38
  194.1683 9.0 9
  195.05696 10.0 10
  195.17645 155.0 155
  196.06654 10.0 10
  196.17825 10.0 10
  197.12617 13.0 13
  199.15291 10.0 10
  200.1237 10.0 10
  200.1442 22.0 22
  200.16429 10.0 10
  200.28958 9.0 9
  201.16458 426.0 426
  202.15909 11.0 11
  202.16977 26.0 26
  203.06218 13.0 13
  203.13528 15.0 15
  203.17958 688.0 687
  203.20114 11.0 11
  204.17674 124.0 124
  204.18843 67.0 67
  205.04933 27.0 27
  205.14879 43.0 43
  205.1602 97.0 97
  205.17868 18.0 18
  205.18944 72.0 72
  205.19925 47.0 47
  206.05237 12.0 12
  206.20432 13.0 13
  207.03827 11.0 11
  207.15916 21.0 21
  207.17653 202.0 202
  207.18239 71.0 71
  209.17842 9.0 9
  209.18553 21.0 21
  211.06204 10.0 10
  211.14754 21.0 21
  213.04674 9.0 9
  213.16216 88.0 88
  215.16066 22.0 22
  215.17841 209.0 209
  215.19299 26.0 26
  216.18022 29.0 29
  216.70314 9.0 9
  217.15526 13.0 13
  217.16461 28.0 28
  217.17345 27.0 27
  217.19406 471.0 471
  217.65015 9.0 9
  218.19366 10.0 10
  218.20288 25.0 25
  219.15933 12.0 12
  219.17136 76.0 76
  219.18172 83.0 83
  219.20882 49.0 49
  219.75644 9.0 9
  220.1756 38.0 38
  220.18716 18.0 18
  221.17209 9.0 9
  221.18355 79.0 79
  221.19403 126.0 126
  221.20557 17.0 17
  222.18991 37.0 37
  222.20494 11.0 11
  225.06088 12.0 12
  225.16159 21.0 21
  227.03574 9.0 9
  227.08777 9.0 9
  227.17068 21.0 21
  227.17943 94.0 94
  227.19981 9.0 9
  227.66174 9.0 9
  228.17461 10.0 10
  229.19124 196.0 196
  229.20284 82.0 82
  230.19485 70.0 70
  231.09178 14.0 14
  231.17386 40.0 40
  231.20184 11.0 11
  231.2195 20.0 20
  233.18779 153.0 153
  234.18529 20.0 20
  234.92543 12.0 12
  235.20769 49.0 49
  239.1823 34.0 34
  240.17984 11.0 11
  241.06248 11.0 11
  241.19221 64.0 64
  241.7066 11.0 11
  242.18535 9.0 9
  242.19791 10.0 10
  243.21138 204.0 204
  243.42386 11.0 11
  244.21313 24.0 24
  245.05986 9.0 9
  245.15179 10.0 10
  245.18578 55.0 55
  245.22003 19.0 19
  246.19191 9.0 9
  246.20064 11.0 11
  246.22734 13.0 13
  247.20796 225.0 225
  248.21072 31.0 31
  251.04625 11.0 11
  253.18256 9.0 9
  253.20438 21.0 21
  255.05505 9.0 9
  255.0773 16.0 16
  255.20163 32.0 32
  255.2137 114.0 114
  256.1705 11.0 11
  256.20993 9.0 9
  257.22144 115.0 115
  258.22198 9.0 9
  259.20914 19.0 19
  260.81967 9.0 9
  261.04919 11.0 11
  261.19638 13.0 13
  261.22525 136.0 136
  262.21597 9.0 9
  262.22577 10.0 10
  262.23495 10.0 10
  267.20428 10.0 10
  267.21359 9.0 9
  268.21658 19.0 19
  269.06961 9.0 9
  269.17041 14.0 14
  269.20737 11.0 11
  269.23499 39.0 39
  269.24323 13.0 13
  270.22562 9.0 9
  270.23416 31.0 31
  271.14459 11.0 11
  271.20316 28.0 28
  271.24396 22.0 22
  271.25452 24.0 24
  273.10236 11.0 11
  273.19836 10.0 10
  273.21448 36.0 36
  273.22351 42.0 42
  274.22653 12.0 12
  274.86234 11.0 11
  275.19995 11.0 11
  275.23166 52.0 52
  276.23819 29.0 29
  277.10431 9.0 9
  277.21338 10.0 10
  279.1767 10.0 10
  279.75705 11.0 11
  281.21829 27.0 27
  281.23172 27.0 27
  282.20663 10.0 10
  282.22562 23.0 23
  283.15262 9.0 9
  283.19739 9.0 9
  283.23605 47.0 47
  283.24692 46.0 46
  285.06696 10.0 10
  285.18439 9.0 9
  285.21857 20.0 20
  285.25027 23.0 23
  285.26212 35.0 35
  285.27524 10.0 10
  287.07623 18.0 18
  287.22653 28.0 28
  293.24078 13.0 13
  295.16098 15.0 15
  295.24042 60.0 60
  297.25766 35.0 35
  299.23471 20.0 20
  301.23624 19.0 19
  301.25348 15.0 15
  301.78217 9.0 9
  302.2681 15.0 15
  303.26276 12.0 12
  305.09308 20.0 20
  309.11346 9.0 9
  309.25684 29.0 29
  311.26157 28.0 28
  312.2735 9.0 9
  313.22403 10.0 10
  313.25546 40.0 40
  314.24106 10.0 10
  314.25555 13.0 13
  315.2529 11.0 11
  315.26355 11.0 11
  315.27469 11.0 11
  316.27463 10.0 10
  317.28717 9.0 9
  318.29285 10.0 10
  321.07019 12.0 12
  321.22113 9.0 9
  321.25912 11.0 11
  321.27328 12.0 12
  322.16843 10.0 10
  322.26016 9.0 9
  325.16272 13.0 13
  325.25708 28.0 28
  325.29547 22.0 22
  326.28674 10.0 10
  327.27197 9.0 9
  329.17355 9.0 9
  329.28461 20.0 20
  330.26971 9.0 9
  335.25873 11.0 11
  335.27609 28.0 28
  339.23376 10.0 10
  339.26926 10.0 10
  341.28229 9.0 9
  349.2767 15.0 15
  351.25793 12.0 12
  351.28571 11.0 11
  351.30493 14.0 14
  352.30835 11.0 11
  353.20563 12.0 12
  355.28656 10.0 10
  356.65256 9.0 9
  357.17819 10.0 10
  365.30209 31.0 31
  365.32776 93.0 93
  365.90057 10.0 10
  366.28525 11.0 11
  366.32822 12.0 12
  367.33179 11.0 11
  367.36569 10.0 10
  369.30698 27.0 27
  371.2897 11.0 11
  375.08167 12.0 12
  377.20502 10.0 10
  379.20334 12.0 12
  379.98413 10.0 10
  381.32016 31.0 31
  381.36655 14.0 14
  382.32642 9.0 9
  383.32626 56.0 56
  383.34326 38.0 38
  385.97192 9.0 9
  393.3335 20.0 20
  395.36856 32.0 32
  395.40961 10.0 10
  405.27972 9.0 9
  405.33521 67.0 67
  405.35324 206.0 206
  406.34824 40.0 40
  406.36255 28.0 28
  409.34079 10.0 10
  411.36584 81.0 81
  411.38116 32.0 32
  419.34839 9.0 9
  421.34283 10.0 10
  421.35815 10.0 10
  422.35425 10.0 10
  423.34702 239.0 239
  423.36209 1000.0 999
  424.31638 15.0 15
  424.37045 359.0 359
  425.34781 19.0 19
  425.37772 30.0 30
  431.50192 11.0 11
  439.3576 11.0 11
  440.36002 12.0 12
  441.36319 191.0 191
  441.38974 80.0 80
  442.37106 92.0 92
  442.39645 15.0 15
  444.37344 12.0 12
  454.1597 11.0 11
  458.34424 15.0 15
  465.35876 9.0 9
  471.26196 11.0 11
  523.31763 13.0 13
  545.37653 17.0 17
  563.36615 9.0 9
  564.38525 14.0 14
  570.39606 11.0 11
  581.383 27.0 27
  582.38257 10.0 10
  599.38458 11.0 11
  599.40521 10.0 10
  601.41699 11.0 11
  693.62781 14.0 14
  929.46277 19.0 19
  935.20453 9.0 9
//
