ACCESSION: MSBNK-RIKEN-PR302279
RECORD_TITLE: Procyanidin B2; LC-ESI-QTOF; MS2
DATE: 2019.03.28
AUTHORS: Tetsuya Mori, Center for Sustainable Resource Science, RIKEN
LICENSE: CC BY-NC-SA
PUBLICATION: Tsugawa H., Nakabayashi R., Mori T., Yamada Y., Takahashi M., Rai A., Sugiyama R., Yamamoto H., Nakaya T., Yamazaki M., Kooke R., Bac-Molenaar JA., Oztolan-Erol N., Keurentjes JJB., Arita M., Saito K. (2019) "A cheminformatics approach to characterize metabolomes in stable-isotope-labeled organisms" Nature Methods 16(4):295-298. [doi:10.1038/s41592-019-0358-2]
COMMENT: registered in RIKEN PlaSMA
CH$NAME: Procyanidin B2
CH$NAME: 4,8'-Bi((+)-epicatechin))
CH$NAME: cis,cis'-4,8'-Bi(3,3',4',5,7-pentahydroxyflavane)
CH$NAME: (-)-Epicatechin-(4-beta-8)-(-)-epicatechin
CH$COMPOUND_CLASS: Biflavonoids and polyflavonoids
CH$FORMULA: C30H26O12
CH$EXACT_MASS: 578.14243
CH$SMILES: C1[C@H]([C@H](OC2=C1C(=CC(=C2[C@@H]3[C@H]([C@H](OC4=CC(=CC(=C34)O)O)C5=CC(=C(C=C5)O)O)O)O)O)C6=CC(=C(C=C6)O)O)O
CH$IUPAC: InChI=1S/C30H26O12/c31-13-7-20(37)24-23(8-13)41-29(12-2-4-16(33)19(36)6-12)27(40)26(24)25-21(38)10-17(34)14-9-22(39)28(42-30(14)25)11-1-3-15(32)18(35)5-11/h1-8,10,22,26-29,31-40H,9H2/t22-,26-,27-,28-,29-/m1/s1
CH$LINK: CAS 29106-49-8
CH$LINK: CHEMSPIDER 109417
CH$LINK: INCHIKEY XFZJEEAOWLFHDH-NFJBMHMQSA-N
CH$LINK: KNAPSACK C00009077
CH$LINK: PUBCHEM CID:122738
AC$INSTRUMENT: LC, Waters Acquity UPLC System; MS, Waters Xevo G2 Q-Tof
AC$INSTRUMENT_TYPE: LC-ESI-QTOF
AC$MASS_SPECTROMETRY: MS_TYPE MS2
AC$MASS_SPECTROMETRY: ION_MODE POSITIVE
AC$MASS_SPECTROMETRY: COLLISION_ENERGY 6V
AC$MASS_SPECTROMETRY: DESOLVATION_GAS_FLOW 800/h
AC$MASS_SPECTROMETRY: DESOLVATION_TEMPERATURE 450 C
AC$MASS_SPECTROMETRY: IONIZATION ESI
AC$CHROMATOGRAPHY: CAPILLARY_VOLTAGE +3.00 kV
AC$CHROMATOGRAPHY: COLUMN_NAME Acquity bridged ethyl hybrid C18 (1.7 um, 2.1 mm * 100 mm, Waters)
AC$CHROMATOGRAPHY: COLUMN_TEMPERATURE 40 C
AC$CHROMATOGRAPHY: FLOW_GRADIENT A/B = (99.5%/0.5% at 0 min, 99.5%/0.5% at 0.1 min, 20%/80% at 10 min, 0.5%/99.5% at 10.1 min, 0.5%/99.5% at 12.0 min, 99.5%/0.5% at 12.1 min, 99.5%/0.5% at 15.0 min)
AC$CHROMATOGRAPHY: FLOW_RATE 0.3 ml/min at 0 min, 0.3 ml/min at 10 min, 0.4 ml/min at 10.1 min, 0.4 ml/min at 14.4 min, 0.3 ml/min at 14.5 min
AC$CHROMATOGRAPHY: RETENTION_TIME 3.23915
AC$CHROMATOGRAPHY: SOLVENT A water including 0.1% formic acid
AC$CHROMATOGRAPHY: SOLVENT B acetonitrile including 0.1% formic acid
MS$FOCUSED_ION: PRECURSOR_TYPE [M+H]+
MS$FOCUSED_ION: PRECURSOR_M/Z 579.1497027
PK$SPLASH: splash10-004i-0020190000-6272d54073a003a4b6c9
PK$NUM_PEAK: 26
PK$PEAK: m/z int. rel.int.
  247.04544 16.0 16
  247.05772 15.0 15
  259.0607 20.0 20
  260.5206 14.0 14
  289.04837 32.0 32
  289.06943 54.0 54
  290.0741 23.0 23
  291.07141 38.0 38
  291.08563 61.0 61
  291.09976 18.0 18
  302.07278 14.0 14
  409.09158 33.0 33
  409.1152 17.0 17
  411.12634 23.0 23
  426.09317 17.0 17
  427.073 27.0 27
  427.11047 61.0 61
  428.11423 20.0 20
  435.08066 15.0 15
  453.12619 18.0 18
  561.14441 15.0 15
  578.08453 24.0 24
  578.12988 16.0 16
  578.15271 36.0 36
  579.14581 1000.0 999
  579.18237 108.0 108
//
