ACCESSION: MSBNK-RIKEN-PR301961
RECORD_TITLE: isorhamnetin; LC-ESI-QTOF; MS2
DATE: 2019.03.28
AUTHORS: Tetsuya Mori, Center for Sustainable Resource Science, RIKEN
LICENSE: CC BY-NC-SA
PUBLICATION: Tsugawa H., Nakabayashi R., Mori T., Yamada Y., Takahashi M., Rai A., Sugiyama R., Yamamoto H., Nakaya T., Yamazaki M., Kooke R., Bac-Molenaar JA., Oztolan-Erol N., Keurentjes JJB., Arita M., Saito K. (2019) "A cheminformatics approach to characterize metabolomes in stable-isotope-labeled organisms" Nature Methods 16(4):295-298. [doi:10.1038/s41592-019-0358-2]
COMMENT: registered in RIKEN PlaSMA
CH$NAME: isorhamnetin
CH$COMPOUND_CLASS: Flavonols
CH$FORMULA: C16H12O7
CH$EXACT_MASS: 316.265
CH$SMILES: COC1=C(O)C=CC(=C1)C1=C(O)C(=O)C2=C(O)C=C(O)C=C2O1
CH$IUPAC: InChI=1S/C16H12O7/c1-22-11-4-7(2-3-9(11)18)16-15(21)14(20)13-10(19)5-8(17)6-12(13)23-16/h2-6,17-19,21H,1H3
CH$LINK: INCHIKEY IZQSVPBOUDKVDZ-UHFFFAOYSA-N
AC$INSTRUMENT: LC, Waters Acquity UPLC System; MS, Waters Xevo G2 Q-Tof
AC$INSTRUMENT_TYPE: LC-ESI-QTOF
AC$MASS_SPECTROMETRY: MS_TYPE MS2
AC$MASS_SPECTROMETRY: ION_MODE POSITIVE
AC$MASS_SPECTROMETRY: COLLISION_ENERGY 6V
AC$MASS_SPECTROMETRY: DESOLVATION_GAS_FLOW 800/h
AC$MASS_SPECTROMETRY: DESOLVATION_TEMPERATURE 450 C
AC$MASS_SPECTROMETRY: IONIZATION ESI
AC$CHROMATOGRAPHY: CAPILLARY_VOLTAGE +3.00 kV
AC$CHROMATOGRAPHY: COLUMN_NAME Acquity bridged ethyl hybrid C18 (1.7 um, 2.1 mm * 100 mm, Waters)
AC$CHROMATOGRAPHY: COLUMN_TEMPERATURE 40 C
AC$CHROMATOGRAPHY: FLOW_GRADIENT A/B = (99.5%/0.5% at 0 min, 99.5%/0.5% at 0.1 min, 20%/80% at 10 min, 0.5%/99.5% at 10.1 min, 0.5%/99.5% at 12.0 min, 99.5%/0.5% at 12.1 min, 99.5%/0.5% at 15.0 min)
AC$CHROMATOGRAPHY: FLOW_RATE 0.3 ml/min at 0 min, 0.3 ml/min at 10 min, 0.4 ml/min at 10.1 min, 0.4 ml/min at 14.4 min, 0.3 ml/min at 14.5 min
AC$CHROMATOGRAPHY: RETENTION_TIME 6.135867
AC$CHROMATOGRAPHY: SOLVENT A water including 0.1% formic acid
AC$CHROMATOGRAPHY: SOLVENT B acetonitrile including 0.1% formic acid
MS$FOCUSED_ION: PRECURSOR_TYPE [M+H]+
MS$FOCUSED_ION: PRECURSOR_M/Z 317.0655792
PK$SPLASH: splash10-0udi-0492000000-5f2570ce1c3e7371ef29
PK$NUM_PEAK: 242
PK$PEAK: m/z int. rel.int.
  65.03995 8.0 8
  65.88286 11.0 11
  67.0248 7.0 7
  71.7207 10.0 10
  92.01861 9.0 9
  92.02368 15.0 15
  92.02968 25.0 25
  93.0321 92.0 92
  94.04098 6.0 6
  95.26341 7.0 7
  107.05074 7.0 7
  109.02123 7.0 7
  109.03302 15.0 15
  111.00877 7.0 7
  112.00964 5.0 5
  117.03313 7.0 7
  119.43495 6.0 6
  120.02583 21.0 21
  121.02672 88.0 88
  122.0342 7.0 7
  123.02272 5.0 5
  123.03187 6.0 6
  125.99995 6.0 6
  126.02301 11.0 11
  126.03553 9.0 9
  126.2994 5.0 5
  127.05017 20.0 20
  127.05898 6.0 6
  128.06422 8.0 8
  130.07497 8.0 8
  131.0428 6.0 6
  133.02989 10.0 10
  134.03273 9.0 9
  135.03609 5.0 5
  136.01358 5.0 5
  137.02597 5.0 5
  137.063 8.0 8
  139.02917 19.0 19
  139.03835 48.0 48
  140.037 7.0 7
  140.04417 11.0 11
  143.49672 5.0 5
  145.06075 12.0 12
  149.01778 21.0 21
  149.05531 11.0 11
  150.02623 5.0 5
  151.03879 47.0 47
  151.04866 9.0 9
  152.00941 10.0 10
  153.01678 1000.0 999
  153.6678 6.0 6
  154.01955 106.0 106
  155.04019 6.0 6
  155.05182 23.0 23
  155.05872 8.0 8
  156.01669 13.0 13
  157.07199 11.0 11
  160.0448 7.0 7
  162.06238 8.0 8
  163.03371 19.0 19
  163.0435 6.0 6
  165.01682 32.0 32
  165.02478 12.0 12
  165.99356 6.0 6
  166.01443 16.0 16
  166.02335 26.0 26
  167.03899 6.0 6
  173.02211 13.0 13
  173.06552 21.0 21
  174.02898 6.0 6
  175.07664 7.0 7
  175.60329 9.0 9
  177.01102 7.0 7
  177.02106 12.0 12
  177.04695 8.0 8
  177.0573 21.0 21
  178.01901 5.0 5
  179.03418 10.0 10
  180.70743 6.0 6
  181.01381 6.0 6
  183.03435 10.0 10
  183.48114 10.0 10
  185.05386 6.0 6
  186.03189 13.0 13
  187.03641 15.0 15
  187.0432 17.0 17
  188.03741 13.0 13
  189.03108 8.0 8
  189.04315 9.0 9
  190.02704 11.0 11
  190.06265 7.0 7
  190.2466 6.0 6
  191.03229 7.0 7
  191.0573 9.0 9
  192.03424 5.0 5
  194.02478 7.0 7
  197.06155 6.0 6
  199.0443 7.0 7
  200.02699 6.0 6
  200.03537 17.0 17
  200.04807 25.0 25
  201.05217 83.0 83
  202.02577 10.0 10
  202.0547 12.0 12
  202.06653 9.0 9
  203.00949 8.0 8
  203.02217 32.0 32
  203.03317 25.0 25
  203.04208 19.0 19
  204.02753 6.0 6
  204.03893 18.0 18
  204.09467 6.0 6
  205.01527 7.0 7
  207.01508 5.0 5
  207.03368 5.0 5
  207.07561 7.0 7
  211.02528 6.0 6
  212.04938 13.0 13
  213.0553 21.0 21
  214.00948 7.0 7
  215.03174 8.0 8
  217.04308 94.0 94
  217.05482 78.0 78
  218.01086 17.0 17
  218.02699 18.0 18
  218.05577 34.0 34
  218.06683 9.0 9
  219.02809 44.0 44
  219.04143 6.0 6
  219.05824 14.0 14
  219.06834 7.0 7
  219.21977 7.0 7
  221.04648 6.0 6
  221.51524 5.0 5
  227.50977 5.0 5
  227.99985 13.0 13
  228.04143 204.0 204
  228.67485 7.0 7
  228.9482 5.0 5
  229.04778 544.0 543
  229.98596 11.0 11
  230.02306 7.0 7
  230.04195 30.0 30
  230.05591 12.0 12
  230.06546 9.0 9
  231.02635 65.0 65
  231.0432 12.0 12
  232.0312 23.0 23
  232.04149 5.0 5
  236.55153 6.0 6
  239.02539 7.0 7
  239.03729 8.0 8
  239.04765 6.0 6
  239.49867 6.0 6
  243.03076 29.0 29
  243.06712 20.0 20
  244.03738 6.0 6
  244.21638 6.0 6
  245.03752 155.0 155
  245.05077 66.0 66
  245.81927 9.0 9
  245.96069 7.0 7
  246.02081 7.0 7
  246.03246 35.0 35
  246.05214 235.0 235
  246.07217 6.0 6
  246.52998 7.0 7
  247.05171 35.0 35
  247.06317 15.0 15
  248.0484 8.0 8
  249.03648 7.0 7
  256.01126 10.0 10
  256.02249 21.0 21
  256.03995 24.0 24
  256.97467 8.0 8
  256.99176 5.0 5
  257.04221 249.0 249
  257.06604 13.0 13
  258.04431 98.0 98
  259.01923 13.0 13
  259.71146 9.0 9
  260.02924 56.0 56
  260.6969 5.0 5
  261.03003 7.0 7
  261.05249 19.0 19
  261.07166 13.0 13
  261.31168 5.0 5
  266.96408 7.0 7
  268.01306 10.0 10
  271.05362 11.0 11
  272.96741 11.0 11
  273.00763 11.0 11
  273.03085 101.0 101
  273.03998 201.0 201
  274.00522 17.0 17
  274.03629 208.0 208
  274.05161 378.0 378
  275.04611 80.0 80
  275.06335 13.0 13
  275.10474 6.0 6
  276.05737 12.0 12
  283.56537 6.0 6
  283.96152 9.0 9
  284.00638 7.0 7
  284.02701 28.0 28
  284.04349 32.0 32
  284.99991 11.0 11
  285.0246 87.0 87
  285.03619 326.0 326
  285.05524 42.0 42
  285.26285 6.0 6
  285.99115 7.0 7
  286.0145 14.0 14
  286.03818 47.0 47
  286.06131 15.0 15
  286.60538 6.0 6
  287.00146 5.0 5
  287.01736 17.0 17
  287.03531 6.0 6
  287.0448 6.0 6
  288.02386 7.0 7
  288.06354 16.0 16
  294.76315 9.0 9
  295.81296 7.0 7
  297.07147 6.0 6
  299.04584 7.0 7
  300.69519 7.0 7
  301.02673 9.0 9
  301.9509 11.0 11
  302.04175 846.0 845
  302.32553 8.0 8
  302.8121 5.0 5
  303.00995 20.0 20
  303.03391 26.0 26
  303.0481 143.0 143
  304.0368 23.0 23
  304.05692 13.0 13
  304.07376 6.0 6
  305.05191 6.0 6
  308.59338 8.0 8
  317.05765 326.0 326
  317.07364 90.0 90
//
