ACCESSION: MSBNK-RIKEN-PR300222
RECORD_TITLE: Hirsuteine; LC-ESI-QTOF; MS2
DATE: 2019.03.28
AUTHORS: Tetsuya Mori, Center for Sustainable Resource Science, RIKEN
LICENSE: CC BY-NC-SA
PUBLICATION: Tsugawa H., Nakabayashi R., Mori T., Yamada Y., Takahashi M., Rai A., Sugiyama R., Yamamoto H., Nakaya T., Yamazaki M., Kooke R., Bac-Molenaar JA., Oztolan-Erol N., Keurentjes JJB., Arita M., Saito K. (2019) "A cheminformatics approach to characterize metabolomes in stable-isotope-labeled organisms" Nature Methods 16(4):295-298. [doi:10.1038/s41592-019-0358-2]
COMMENT: registered in RIKEN PlaSMA
CH$NAME: Hirsuteine
CH$COMPOUND_CLASS: Corynanthean-type alkaloids
CH$FORMULA: C22H26N2O3
CH$EXACT_MASS: 366.461
CH$SMILES: CO\C=C(/[C@H]1C[C@H]2N(CCC3=C2NC2=CC=CC=C32)C[C@@H]1C=C)C(=O)OC
CH$IUPAC: InChI=1S/C22H26N2O3/c1-4-14-12-24-10-9-16-15-7-5-6-8-19(15)23-21(16)20(24)11-17(14)18(13-26-2)22(25)27-3/h4-8,13-14,17,20,23H,1,9-12H2,2-3H3/b18-13+/t14-,17-,20+/m0/s1
CH$LINK: INCHIKEY TZUGIFAYWNNSAO-AZQGJTAVSA-N
AC$INSTRUMENT: LC, Waters Acquity UPLC System; MS, Waters Xevo G2 Q-Tof
AC$INSTRUMENT_TYPE: LC-ESI-QTOF
AC$MASS_SPECTROMETRY: MS_TYPE MS2
AC$MASS_SPECTROMETRY: ION_MODE POSITIVE
AC$MASS_SPECTROMETRY: COLLISION_ENERGY 6V
AC$MASS_SPECTROMETRY: DESOLVATION_GAS_FLOW 800/h
AC$MASS_SPECTROMETRY: DESOLVATION_TEMPERATURE 450 C
AC$MASS_SPECTROMETRY: IONIZATION ESI
AC$CHROMATOGRAPHY: CAPILLARY_VOLTAGE +3.00 kV
AC$CHROMATOGRAPHY: COLUMN_NAME Acquity bridged ethyl hybrid C18 (1.7 um, 2.1 mm * 100 mm, Waters)
AC$CHROMATOGRAPHY: COLUMN_TEMPERATURE 40 C
AC$CHROMATOGRAPHY: FLOW_GRADIENT A/B = (99.5%/0.5% at 0 min, 99.5%/0.5% at 0.1 min, 20%/80% at 10 min, 0.5%/99.5% at 10.1 min, 0.5%/99.5% at 12.0 min, 99.5%/0.5% at 12.1 min, 99.5%/0.5% at 15.0 min)
AC$CHROMATOGRAPHY: FLOW_RATE 0.3 ml/min at 0 min, 0.3 ml/min at 10 min, 0.4 ml/min at 10.1 min, 0.4 ml/min at 14.4 min, 0.3 ml/min at 14.5 min
AC$CHROMATOGRAPHY: RETENTION_TIME 5.6757
AC$CHROMATOGRAPHY: SOLVENT A water including 0.1% formic acid
AC$CHROMATOGRAPHY: SOLVENT B acetonitrile including 0.1% formic acid
MS$FOCUSED_ION: PRECURSOR_TYPE [M+H]+
MS$FOCUSED_ION: PRECURSOR_M/Z 367.2016192
PK$SPLASH: splash10-014i-0319000000-b3c04008b0f7351840fc
PK$NUM_PEAK: 38
PK$PEAK: m/z int. rel.int.
  108.08142 8.0 8
  109.0649 8.0 8
  126.09025 9.0 9
  129.05434 5.0 5
  130.06514 9.0 9
  144.08083 144.0 144
  145.08463 18.0 18
  149.05997 6.0 6
  156.08182 14.0 14
  158.09595 22.0 22
  168.0798 5.0 5
  169.08649 9.0 9
  170.0963 51.0 51
  171.09827 10.0 10
  178.08481 8.0 8
  180.08046 6.0 6
  181.0873 11.0 11
  182.09673 21.0 21
  192.10115 14.0 14
  199.12346 19.0 19
  204.10297 10.0 10
  206.09981 6.0 6
  210.11322 12.0 12
  222.11945 7.0 7
  224.12817 40.0 40
  225.13521 7.0 7
  226.08861 6.0 6
  236.12852 20.0 20
  238.12216 6.0 6
  240.10005 6.0 6
  251.15285 11.0 11
  266.11356 6.0 6
  298.14359 21.0 21
  335.18011 13.0 13
  367.14175 8.0 8
  367.20303 1000.0 999
  367.25824 33.0 33
  367.30884 5.0 5
//
