ACCESSION: MSBNK-RIKEN-PR309193
RECORD_TITLE: Deoxyloganic acid (Not validated); LC-ESI-QTOF; MS2
DATE: 2019.03.28
AUTHORS: Tetsuya Mori, Center for Sustainable Resource Science, RIKEN
LICENSE: CC BY-NC-SA
PUBLICATION: Tsugawa H., Nakabayashi R., Mori T., Yamada Y., Takahashi M., Rai A., Sugiyama R., Yamamoto H., Nakaya T., Yamazaki M., Kooke R., Bac-Molenaar JA., Oztolan-Erol N., Keurentjes JJB., Arita M., Saito K. (2019) "A cheminformatics approach to characterize metabolomes in stable-isotope-labeled organisms" Nature Methods 16(4):295-298. [doi:10.1038/s41592-019-0358-2]
COMMENT: Annotation level-3
CH$NAME: Deoxyloganic acid (Not validated)
CH$COMPOUND_CLASS: Iridoid glycosides
CH$FORMULA: C16H24O9
CH$EXACT_MASS: 360.359
CH$SMILES: O=C(O)C2=COC(OC1OC(CO)C(O)C(O)C1(O))C3C2CCC3(C)
CH$IUPAC: InChI=1S/C16H24O9/c1-6-2-3-7-8(14(21)22)5-23-15(10(6)7)25-16-13(20)12(19)11(18)9(4-17)24-16/h5-7,9-13,15-20H,2-4H2,1H3,(H,21,22)
CH$LINK: INCHIKEY DSXFHNSGLYXPNG-UHFFFAOYSA-N
AC$INSTRUMENT: LC, Waters Acquity UPLC System; MS, Waters Xevo G2 Q-Tof
AC$INSTRUMENT_TYPE: LC-ESI-QTOF
AC$MASS_SPECTROMETRY: MS_TYPE MS2
AC$MASS_SPECTROMETRY: ION_MODE NEGATIVE
AC$MASS_SPECTROMETRY: COLLISION_ENERGY 6V
AC$MASS_SPECTROMETRY: DESOLVATION_GAS_FLOW 800/h
AC$MASS_SPECTROMETRY: DESOLVATION_TEMPERATURE 450 C
AC$MASS_SPECTROMETRY: IONIZATION ESI
AC$CHROMATOGRAPHY: CAPILLARY_VOLTAGE +3.00 kV
AC$CHROMATOGRAPHY: COLUMN_NAME Acquity bridged ethyl hybrid C18 (1.7 um, 2.1 mm * 100 mm, Waters)
AC$CHROMATOGRAPHY: COLUMN_TEMPERATURE 40 C
AC$CHROMATOGRAPHY: FLOW_GRADIENT A/B = (99.5%/0.5% at 0 min, 99.5%/0.5% at 0.1 min, 20%/80% at 10 min, 0.5%/99.5% at 10.1 min, 0.5%/99.5% at 12.0 min, 99.5%/0.5% at 12.1 min, 99.5%/0.5% at 15.0 min)
AC$CHROMATOGRAPHY: FLOW_RATE 0.3 ml/min at 0 min, 0.3 ml/min at 10 min, 0.4 ml/min at 10.1 min, 0.4 ml/min at 14.4 min, 0.3 ml/min at 14.5 min
AC$CHROMATOGRAPHY: RETENTION_TIME 3.97
AC$CHROMATOGRAPHY: SOLVENT A water including 0.1% formic acid
AC$CHROMATOGRAPHY: SOLVENT B acetonitrile including 0.1% formic acid
MS$FOCUSED_ION: PRECURSOR_TYPE [M-H]-
MS$FOCUSED_ION: PRECURSOR_M/Z 359.1326
PK$SPLASH: splash10-052b-0902000000-dbce89c4b6f3a415f81f
PK$NUM_PEAK: 21
PK$PEAK: m/z int. rel.int.
  71.01506 37.0 39
  87.00391 21.0 22
  89.01833 24.0 25
  89.02374 23.0 24
  93.06776 16.0 17
  101.02065 53.0 55
  109.06485 103.0 108
  117.83308 21.0 22
  119.03239 40.0 42
  135.0804 201.0 210
  136.07922 18.0 19
  144.03305 16.0 17
  153.08916 277.0 289
  154.09135 20.0 21
  154.22247 16.0 17
  197.07959 956.0 999
  198.08063 69.0 72
  198.09 43.0 45
  199.08595 16.0 17
  226.07677 16.0 17
  359.13095 538.0 562
//
