ACCESSION: MSBNK-RIKEN-PR308263
RECORD_TITLE: Indole-3-acetyl-L-tryptophan; LC-ESI-QTOF; MS2
DATE: 2019.03.28
AUTHORS: Tetsuya Mori, Center for Sustainable Resource Science, RIKEN
LICENSE: CC BY-NC-SA
PUBLICATION: Tsugawa H., Nakabayashi R., Mori T., Yamada Y., Takahashi M., Rai A., Sugiyama R., Yamamoto H., Nakaya T., Yamazaki M., Kooke R., Bac-Molenaar JA., Oztolan-Erol N., Keurentjes JJB., Arita M., Saito K. (2019) "A cheminformatics approach to characterize metabolomes in stable-isotope-labeled organisms" Nature Methods 16(4):295-298. [doi:10.1038/s41592-019-0358-2]
COMMENT: registered in RIKEN PlaSMA
CH$NAME: Indole-3-acetyl-L-tryptophan
CH$COMPOUND_CLASS: N-acyl-alpha amino acids
CH$FORMULA: C21H19N3O3
CH$EXACT_MASS: 361.401
CH$SMILES: OC(CC1=CNC2=CC=CC=C12)=NC(CC1=CNC2=CC=CC=C12)C(O)=O
CH$IUPAC: InChI=1S/C21H19N3O3/c25-20(10-14-12-23-18-8-4-2-6-16(14)18)24-19(21(26)27)9-13-11-22-17-7-3-1-5-15(13)17/h1-8,11-12,19,22-23H,9-10H2,(H,24,25)(H,26,27)
CH$LINK: INCHIKEY FOSPCYZZRVNHJS-UHFFFAOYSA-N
AC$INSTRUMENT: LC, Waters Acquity UPLC System; MS, Waters Xevo G2 Q-Tof
AC$INSTRUMENT_TYPE: LC-ESI-QTOF
AC$MASS_SPECTROMETRY: MS_TYPE MS2
AC$MASS_SPECTROMETRY: ION_MODE NEGATIVE
AC$MASS_SPECTROMETRY: COLLISION_ENERGY 6V
AC$MASS_SPECTROMETRY: DESOLVATION_GAS_FLOW 800/h
AC$MASS_SPECTROMETRY: DESOLVATION_TEMPERATURE 450 C
AC$MASS_SPECTROMETRY: IONIZATION ESI
AC$CHROMATOGRAPHY: CAPILLARY_VOLTAGE -2.75 kV
AC$CHROMATOGRAPHY: COLUMN_NAME Acquity bridged ethyl hybrid C18 (1.7 um, 2.1 mm * 100 mm, Waters)
AC$CHROMATOGRAPHY: COLUMN_TEMPERATURE 40 C
AC$CHROMATOGRAPHY: FLOW_GRADIENT A/B = (99.5%/0.5% at 0 min, 99.5%/0.5% at 0.1 min, 20%/80% at 10 min, 0.5%/99.5% at 10.1 min, 0.5%/99.5% at 12.0 min, 99.5%/0.5% at 12.1 min, 99.5%/0.5% at 15.0 min)
AC$CHROMATOGRAPHY: FLOW_RATE 0.3 ml/min at 0 min, 0.3 ml/min at 10 min, 0.4 ml/min at 10.1 min, 0.4 ml/min at 14.4 min, 0.3 ml/min at 14.5 min
AC$CHROMATOGRAPHY: RETENTION_TIME 6.190633
AC$CHROMATOGRAPHY: SOLVENT A water including 0.1% formic acid
AC$CHROMATOGRAPHY: SOLVENT B acetonitrile including 0.1% formic acid
MS$FOCUSED_ION: PRECURSOR_TYPE [M-H]-
MS$FOCUSED_ION: PRECURSOR_M/Z 360.13536504783
PK$SPLASH: splash10-0w29-0295000000-1644ff987b58dac6873f
PK$NUM_PEAK: 17
PK$PEAK: m/z int. rel.int.
  74.02296 33.0 33
  116.04919 80.0 80
  128.04156 5.0 5
  142.06488 51.0 51
  156.04355 14.0 14
  159.09282 84.0 84
  160.09148 7.0 7
  160.09772 11.0 11
  186.05956 7.0 7
  203.08159 1000.0 999
  204.08424 113.0 113
  205.08925 13.0 13
  231.07341 18.0 18
  231.08612 8.0 8
  316.1405 7.0 7
  316.15561 10.0 10
  360.13397 680.0 679
//
