ACCESSION: MSBNK-RIKEN-PR310645
RECORD_TITLE: Puberanidine; LC-ESI-QTOF; MS2
DATE: 2019.03.28
AUTHORS: Tetsuya Mori, Center for Sustainable Resource Science, RIKEN
LICENSE: CC BY-NC-SA
PUBLICATION: Tsugawa H., Nakabayashi R., Mori T., Yamada Y., Takahashi M., Rai A., Sugiyama R., Yamamoto H., Nakaya T., Yamazaki M., Kooke R., Bac-Molenaar JA., Oztolan-Erol N., Keurentjes JJB., Arita M., Saito K. (2019) "A cheminformatics approach to characterize metabolomes in stable-isotope-labeled organisms" Nature Methods 16(4):295-298. [doi:10.1038/s41592-019-0358-2]
COMMENT: Annotation level-1
CH$NAME: Puberanidine
CH$COMPOUND_CLASS: Alkaloids
CH$FORMULA: C30H42N2O7
CH$EXACT_MASS: 542.673
CH$SMILES: CCN1CC2(CCC(OC)C34C5CC6C(OC)C5(O)C(O)(CC6OC)C(CC23)C14)OC(=O)C1=C(N)C=CC=C1
CH$IUPAC: InChI=1S/C30H42N2O7/c1-5-32-15-27(39-26(33)16-8-6-7-9-19(16)31)11-10-23(37-3)29-21(27)13-18(24(29)32)28(34)14-20(36-2)17-12-22(29)30(28,35)25(17)38-4/h6-9,17-18,20-25,34-35H,5,10-15,31H2,1-4H3
CH$LINK: INCHIKEY VSUODASNSRJNCP-UHFFFAOYSA-N
AC$INSTRUMENT: LC, Waters Acquity UPLC System; MS, Waters Xevo G2 Q-Tof
AC$INSTRUMENT_TYPE: LC-ESI-QTOF
AC$MASS_SPECTROMETRY: MS_TYPE MS2
AC$MASS_SPECTROMETRY: ION_MODE POSITIVE
AC$MASS_SPECTROMETRY: COLLISION_ENERGY 6V
AC$MASS_SPECTROMETRY: DESOLVATION_GAS_FLOW 800/h
AC$MASS_SPECTROMETRY: DESOLVATION_TEMPERATURE 450 C
AC$MASS_SPECTROMETRY: IONIZATION ESI
AC$CHROMATOGRAPHY: CAPILLARY_VOLTAGE +3.00 kV
AC$CHROMATOGRAPHY: COLUMN_NAME Acquity bridged ethyl hybrid C18 (1.7 um, 2.1 mm * 100 mm, Waters)
AC$CHROMATOGRAPHY: COLUMN_TEMPERATURE 40 C
AC$CHROMATOGRAPHY: FLOW_GRADIENT A/B = (99.5%/0.5% at 0 min, 99.5%/0.5% at 0.1 min, 20%/80% at 10 min, 0.5%/99.5% at 10.1 min, 0.5%/99.5% at 12.0 min, 99.5%/0.5% at 12.1 min, 99.5%/0.5% at 15.0 min)
AC$CHROMATOGRAPHY: FLOW_RATE 0.3 ml/min at 0 min, 0.3 ml/min at 10 min, 0.4 ml/min at 10.1 min, 0.4 ml/min at 14.4 min, 0.3 ml/min at 14.5 min
AC$CHROMATOGRAPHY: RETENTION_TIME 4.95
AC$CHROMATOGRAPHY: SOLVENT A water including 0.1% formic acid
AC$CHROMATOGRAPHY: SOLVENT B acetonitrile including 0.1% formic acid
MS$FOCUSED_ION: PRECURSOR_TYPE [M+H]+
MS$FOCUSED_ION: PRECURSOR_M/Z 543.30648
PK$SPLASH: splash10-0006-0122190000-1571578068d4e147f467
PK$NUM_PEAK: 869
PK$PEAK: m/z int. rel.int.
  58.06581 144.0 2
  60.53289 19.0 0
  70.82323 18.0 0
  71.04686 43.0 1
  72.08241 37.0 1
  75.04724 106.0 2
  75.2021 18.0 0
  76.52938 39.0 1
  79.05453 30.0 0
  79.84616 27.0 0
  84.08272 28.0 0
  85.06101 19.0 0
  85.27053 17.0 0
  87.0502 39.0 1
  88.0722 44.0 1
  92.05628 24.0 0
  93.06959 26.0 0
  95.06812 33.0 0
  96.07681 20.0 0
  97.08721 20.0 0
  98.06221 25.0 0
  101.06055 124.0 2
  105.06783 33.0 0
  105.33647 22.0 0
  107.05141 54.0 1
  108.07734 21.0 0
  109.05576 26.0 0
  109.06245 23.0 0
  113.0573 53.0 1
  115.05249 30.0 0
  117.04927 24.0 0
  117.06987 69.0 1
  120.04417 1230.0 18
  120.07192 56.0 1
  120.66241 17.0 0
  121.04313 110.0 2
  121.04922 83.0 1
  121.0633 32.0 0
  123.04851 35.0 1
  123.07812 57.0 1
  123.08503 33.0 0
  125.05901 24.0 0
  125.07034 25.0 0
  127.06805 23.0 0
  127.07491 31.0 0
  128.06316 24.0 0
  128.94028 18.0 0
  129.0553 31.0 0
  129.06909 173.0 3
  130.07506 40.0 1
  131.07031 49.0 1
  131.08714 179.0 3
  132.04916 46.0 1
  132.08823 18.0 0
  133.04582 33.0 0
  133.05826 21.0 0
  133.10231 21.0 0
  134.09378 20.0 0
  135.03148 17.0 0
  135.10751 43.0 1
  135.11734 47.0 1
  137.03195 28.0 0
  137.05991 80.0 1
  137.14824 18.0 0
  138.05125 20.0 0
  138.06104 17.0 0
  138.08452 18.0 0
  139.07874 24.0 0
  141.05208 45.0 1
  141.07486 27.0 0
  143.03133 24.0 0
  143.07808 20.0 0
  143.08636 36.0 1
  144.04602 24.0 0
  144.08267 33.0 0
  145.08092 42.0 1
  145.10526 40.0 1
  146.10173 20.0 0
  147.04333 27.0 0
  147.07065 17.0 0
  147.08061 26.0 0
  148.08365 26.0 0
  148.11069 70.0 1
  151.07768 19.0 0
  153.05057 23.0 0
  153.06563 44.0 1
  153.75299 22.0 0
  154.08043 19.0 0
  154.48505 23.0 0
  155.0498 33.0 0
  155.06668 42.0 1
  155.08667 175.0 3
  155.09926 26.0 0
  156.08755 55.0 1
  157.05573 27.0 0
  157.10402 464.0 7
  158.08829 18.0 0
  158.1028 73.0 1
  158.11212 45.0 1
  159.08058 62.0 1
  159.10172 17.0 0
  159.11639 168.0 2
  159.20222 17.0 0
  160.08109 28.0 0
  160.12434 34.0 0
  161.03317 86.0 1
  161.05983 20.0 0
  161.09395 186.0 3
  161.10481 58.0 1
  162.09164 21.0 0
  162.1306 29.0 0
  163.1098 18.0 0
  165.05644 26.0 0
  165.071 87.0 1
  165.08759 21.0 0
  165.09871 17.0 0
  165.10744 38.0 1
  165.80936 17.0 0
  167.06853 44.0 1
  167.07877 54.0 1
  167.08673 154.0 2
  167.09648 71.0 1
  167.1058 24.0 0
  168.08633 18.0 0
  168.09512 57.0 1
  169.09381 51.0 1
  169.10269 76.0 1
  169.86276 19.0 0
  170.50867 21.0 0
  171.08371 54.0 1
  171.10579 27.0 0
  172.11034 18.0 0
  172.11607 45.0 1
  173.09914 65.0 1
  174.12643 140.0 2
  176.13857 20.0 0
  177.07285 70.0 1
  177.14777 38.0 1
  178.07468 122.0 2
  179.05112 31.0 0
  179.07394 54.0 1
  179.08127 121.0 2
  179.09259 58.0 1
  180.0945 115.0 2
  181.0708 52.0 1
  181.10587 218.0 3
  182.09595 25.0 0
  182.10652 71.0 1
  183.07207 25.0 0
  183.0892 46.0 1
  183.11792 33.0 0
  184.07846 35.0 1
  184.10083 71.0 1
  184.12172 66.0 1
  185.09084 40.0 1
  185.10048 60.0 1
  185.12132 87.0 1
  186.09566 63.0 1
  186.12144 81.0 1
  186.12943 106.0 2
  187.09584 31.0 0
  187.11345 100.0 1
  188.14658 21.0 0
  189.09563 46.0 1
  189.10545 19.0 0
  189.1241 24.0 0
  190.08899 41.0 1
  190.12001 22.0 0
  190.12868 30.0 0
  190.8912 42.0 1
  191.05402 34.0 0
  191.0826 88.0 1
  191.0961 60.0 1
  191.1167 23.0 0
  191.12727 28.0 0
  192.09001 72.0 1
  192.10318 37.0 1
  192.13188 22.0 0
  193.06485 21.0 0
  193.08231 49.0 1
  193.10081 469.0 7
  193.11243 100.0 1
  194.10272 18.0 0
  194.11201 20.0 0
  195.05779 33.0 0
  195.08397 38.0 1
  195.10376 82.0 1
  195.11081 120.0 2
  195.12035 75.0 1
  195.1279 41.0 1
  196.09509 34.0 0
  196.1049 23.0 0
  196.12216 129.0 2
  197.09639 107.0 2
  197.10674 17.0 0
  198.09071 24.0 0
  198.12904 147.0 2
  199.11331 127.0 2
  199.13184 25.0 0
  199.92726 18.0 0
  200.07491 26.0 0
  200.10089 18.0 0
  200.11182 31.0 0
  200.14417 55.0 1
  200.15427 21.0 0
  201.08467 18.0 0
  201.3553 33.0 0
  202.07619 29.0 0
  202.11548 20.0 0
  202.15901 20.0 0
  202.1694 17.0 0
  203.08237 20.0 0
  203.09023 24.0 0
  203.11284 27.0 0
  204.06763 25.0 0
  204.0968 91.0 1
  204.14455 21.0 0
  205.09062 104.0 2
  205.10123 201.0 3
  205.11263 41.0 1
  205.33252 22.0 0
  205.46759 17.0 0
  206.09244 20.0 0
  206.09962 31.0 0
  206.11606 39.0 1
  207.07541 39.0 1
  207.11185 128.0 2
  207.12247 137.0 2
  207.13988 18.0 0
  208.08794 49.0 1
  208.11168 41.0 1
  208.12526 43.0 1
  209.05565 21.0 0
  209.0843 18.0 0
  209.0999 22.0 0
  209.11542 42.0 1
  209.12859 208.0 3
  209.14212 49.0 1
  210.10428 23.0 0
  210.13019 598.0 9
  211.07811 23.0 0
  211.09903 28.0 0
  211.11356 122.0 2
  211.12891 111.0 2
  211.14024 214.0 3
  211.23785 18.0 0
  211.75331 23.0 0
  212.12074 96.0 1
  212.13579 277.0 4
  212.14781 490.0 7
  213.09006 22.0 0
  213.12218 20.0 0
  213.15007 206.0 3
  213.20967 28.0 0
  214.07954 19.0 0
  214.15421 22.0 0
  215.1266 54.0 1
  215.15569 27.0 0
  215.32069 17.0 0
  216.09689 71.0 1
  216.10806 41.0 1
  216.96338 20.0 0
  217.10519 33.0 0
  218.08372 21.0 0
  218.10385 26.0 0
  218.98569 25.0 0
  219.07664 37.0 1
  219.09343 27.0 0
  219.11774 1286.0 19
  219.84465 30.0 0
  220.09811 73.0 1
  220.11674 186.0 3
  220.92947 21.0 0
  221.02615 27.0 0
  221.08887 75.0 1
  221.09891 112.0 2
  221.12677 333.0 5
  221.13547 362.0 5
  221.8246 22.0 0
  222.09932 30.0 0
  222.12378 47.0 1
  222.13838 191.0 3
  222.56912 22.0 0
  223.10168 66.0 1
  223.12029 43.0 1
  223.13953 23.0 0
  223.15048 40.0 1
  223.16162 21.0 0
  224.1156 79.0 1
  224.12889 28.0 0
  224.14377 27.0 0
  224.15257 33.0 0
  225.09929 45.0 1
  225.12637 299.0 4
  225.15291 27.0 0
  226.12416 17.0 0
  226.15579 24.0 0
  226.16479 22.0 0
  226.80702 27.0 0
  227.0874 33.0 0
  227.11575 73.0 1
  227.13002 45.0 1
  227.14464 40.0 1
  228.09666 25.0 0
  228.1402 101.0 1
  229.10359 123.0 2
  229.12233 40.0 1
  229.36267 21.0 0
  230.10471 50.0 1
  231.10481 58.0 1
  231.12086 216.0 3
  231.15198 30.0 0
  231.16125 58.0 1
  232.08112 25.0 0
  232.09573 17.0 0
  232.12675 23.0 0
  232.13916 39.0 1
  233.09795 28.0 0
  233.1227 87.0 1
  233.14142 39.0 1
  234.06065 38.0 1
  234.1118 78.0 1
  235.11232 71.0 1
  235.12367 32.0 0
  235.1358 17.0 0
  235.68175 22.0 0
  236.12 110.0 2
  236.13614 113.0 2
  236.15034 99.0 1
  237.03777 17.0 0
  237.08209 33.0 0
  237.10397 33.0 0
  237.12852 681.0 10
  238.09052 55.0 1
  238.12614 151.0 2
  238.15816 55.0 1
  239.06792 48.0 1
  239.09669 86.0 1
  239.10895 17.0 0
  239.14401 56.0 1
  240.14465 82.0 1
  240.9678 53.0 1
  241.0842 17.0 0
  241.12425 49.0 1
  241.1628 33.0 0
  241.6692 17.0 0
  242.15405 240.0 3
  242.55872 34.0 0
  242.58299 32.0 0
  243.12529 40.0 1
  243.13464 17.0 0
  243.16902 36.0 1
  243.21765 19.0 0
  244.12083 23.0 0
  244.33397 25.0 0
  245.12019 20.0 0
  246.12563 71.0 1
  246.14948 24.0 0
  247.0995 108.0 2
  247.11101 336.0 5
  247.12582 166.0 2
  247.13921 19.0 0
  248.01825 17.0 0
  248.11765 125.0 2
  248.14346 64.0 1
  249.12665 385.0 6
  249.14789 47.0 1
  250.10794 67.0 1
  250.12053 36.0 1
  250.1344 47.0 1
  250.14972 19.0 0
  250.16179 33.0 0
  250.38942 20.0 0
  251.10376 34.0 0
  251.14272 632.0 9
  251.16235 37.0 1
  251.21126 26.0 0
  251.79634 20.0 0
  252.146 207.0 3
  252.1586 56.0 1
  253.12524 43.0 1
  253.15666 58.0 1
  253.16875 25.0 0
  254.13126 57.0 1
  254.15402 46.0 1
  254.16542 56.0 1
  255.11916 17.0 0
  255.13545 19.0 0
  255.67216 17.0 0
  256.13007 49.0 1
  257.16904 26.0 0
  258.55942 27.0 0
  259.11435 30.0 0
  259.12997 198.0 3
  260.13773 36.0 1
  260.1615 31.0 0
  260.17407 22.0 0
  261.10666 40.0 1
  261.13428 321.0 5
  261.15359 28.0 0
  262.09341 26.0 0
  262.12689 83.0 1
  262.14398 40.0 1
  262.168 35.0 1
  263.13504 57.0 1
  263.14551 50.0 1
  263.1788 18.0 0
  263.21957 19.0 0
  264.11743 68.0 1
  264.13528 25.0 0
  264.15186 53.0 1
  264.1712 262.0 4
  265.10825 26.0 0
  265.12582 65.0 1
  265.13693 107.0 2
  265.15424 30.0 0
  265.18503 47.0 1
  266.03467 18.0 0
  266.11307 47.0 1
  266.129 23.0 0
  266.15878 124.0 2
  266.97098 17.0 0
  267.07095 19.0 0
  267.14395 121.0 2
  267.16275 25.0 0
  268.13593 23.0 0
  268.14569 28.0 0
  269.13531 49.0 1
  269.14279 133.0 2
  269.15747 41.0 1
  269.16959 18.0 0
  270.15094 54.0 1
  270.16211 37.0 1
  270.18292 63.0 1
  270.19595 18.0 0
  271.12283 24.0 0
  271.14261 27.0 0
  271.15384 18.0 0
  271.17001 30.0 0
  271.19473 22.0 0
  272.14548 18.0 0
  272.1586 73.0 1
  272.64749 29.0 0
  272.66193 22.0 0
  272.85471 18.0 0
  274.1579 196.0 3
  274.16983 49.0 1
  275.12622 26.0 0
  275.14816 40.0 1
  275.17001 80.0 1
  276.14252 33.0 0
  278.00677 39.0 1
  278.13443 23.0 0
  278.15582 61.0 1
  279.12894 186.0 3
  279.13843 697.0 10
  279.17029 19.0 0
  279.23264 21.0 0
  279.67972 33.0 0
  280.11923 29.0 0
  280.14697 201.0 3
  280.16986 346.0 5
  280.71725 20.0 0
  281.13678 76.0 1
  281.15549 132.0 2
  281.16629 118.0 2
  282.13867 23.0 0
  282.14926 47.0 1
  282.15976 31.0 0
  282.18158 26.0 0
  283.12451 38.0 1
  283.1658 56.0 1
  283.18378 56.0 1
  284.13333 32.0 0
  284.17947 68.0 1
  285.1524 64.0 1
  286.18497 31.0 0
  287.03842 25.0 0
  287.22089 30.0 0
  288.8945 17.0 0
  289.15341 25.0 0
  289.31638 30.0 0
  290.16803 27.0 0
  291.14957 17.0 0
  292.13708 44.0 1
  292.16693 698.0 10
  292.17892 294.0 4
  292.96417 17.0 0
  293.13959 28.0 0
  293.16037 98.0 1
  293.17719 406.0 6
  294.11044 17.0 0
  294.13086 35.0 1
  294.17734 67.0 1
  294.19745 84.0 1
  295.09393 37.0 1
  295.13168 36.0 1
  295.15753 27.0 0
  295.18967 70.0 1
  296.15289 22.0 0
  296.16388 52.0 1
  296.18771 116.0 2
  296.20676 188.0 3
  296.21777 66.0 1
  297.13147 70.0 1
  297.15063 115.0 2
  297.16391 193.0 3
  297.19467 33.0 0
  297.21143 18.0 0
  298.10806 59.0 1
  298.15213 29.0 0
  298.16068 89.0 1
  298.1813 41.0 1
  298.19913 63.0 1
  298.81744 19.0 0
  299.15823 165.0 2
  299.18344 50.0 1
  299.19788 37.0 1
  299.26169 24.0 0
  299.39926 20.0 0
  300.18704 24.0 0
  301.19949 17.0 0
  303.16687 39.0 1
  304.16998 37.0 1
  304.91492 20.0 0
  306.05807 24.0 0
  306.18552 228.0 3
  306.20383 40.0 1
  306.35638 40.0 1
  306.43008 22.0 0
  307.93112 26.0 0
  308.1716 41.0 1
  309.2139 28.0 0
  309.92111 25.0 0
  310.09967 19.0 0
  310.17642 18.0 0
  310.18616 28.0 0
  311.03415 20.0 0
  311.15897 432.0 6
  311.17523 105.0 2
  311.20322 17.0 0
  312.13159 41.0 1
  312.16196 97.0 1
  313.16714 66.0 1
  313.18588 46.0 1
  313.52515 18.0 0
  314.18839 17.0 0
  314.20453 46.0 1
  314.86978 18.0 0
  315.15945 24.0 0
  316.18188 33.0 0
  316.19769 24.0 0
  317.17328 39.0 1
  317.80222 24.0 0
  317.93881 25.0 0
  319.20898 36.0 1
  322.18182 19.0 0
  322.94711 18.0 0
  323.17413 22.0 0
  323.18338 20.0 0
  323.83786 18.0 0
  324.11072 25.0 0
  324.15366 19.0 0
  324.16882 74.0 1
  324.19821 3398.0 49
  324.72101 17.0 0
  325.19 400.0 6
  325.20212 647.0 9
  325.41205 47.0 1
  325.5564 25.0 0
  325.60461 36.0 1
  325.65378 23.0 0
  325.73114 18.0 0
  326.16907 50.0 1
  326.19037 77.0 1
  326.20639 72.0 1
  326.35349 57.0 1
  326.71716 28.0 0
  326.82303 22.0 0
  327.17319 61.0 1
  327.20184 28.0 0
  327.7074 33.0 0
  328.14029 30.0 0
  328.17661 39.0 1
  328.18652 90.0 1
  328.20325 23.0 0
  328.22418 20.0 0
  328.5755 27.0 0
  329.18597 63.0 1
  329.23505 25.0 0
  330.17865 19.0 0
  330.2027 112.0 2
  330.2139 73.0 1
  331.21469 70.0 1
  333.9346 21.0 0
  334.1915 54.0 1
  335.15393 28.0 0
  335.71954 35.0 1
  337.21329 17.0 0
  338.17606 44.0 1
  338.20432 196.0 3
  338.22034 209.0 3
  338.24762 20.0 0
  339.11639 18.0 0
  339.20776 69.0 1
  339.91696 30.0 0
  340.00769 20.0 0
  340.20312 26.0 0
  340.23175 32.0 0
  340.6593 42.0 1
  342.19556 65.0 1
  342.21432 208.0 3
  342.22662 55.0 1
  342.91223 18.0 0
  343.16904 29.0 0
  343.1832 141.0 2
  343.19751 132.0 2
  343.22015 44.0 1
  343.45981 21.0 0
  344.21732 25.0 0
  345.14954 24.0 0
  345.19623 25.0 0
  345.59662 27.0 0
  346.19492 55.0 1
  346.21951 35.0 1
  346.57764 19.0 0
  346.73291 18.0 0
  347.08365 39.0 1
  348.21399 21.0 0
  348.73737 24.0 0
  349.14609 33.0 0
  349.3959 21.0 0
  349.41382 17.0 0
  350.29794 34.0 0
  350.6669 27.0 0
  354.44644 17.0 0
  354.75714 18.0 0
  355.86023 39.0 1
  356.16589 181.0 3
  356.22235 3213.0 47
  356.51804 42.0 1
  357.09741 36.0 1
  357.13342 21.0 0
  357.17365 25.0 0
  357.22089 773.0 11
  357.64731 17.0 0
  357.67798 22.0 0
  357.81686 27.0 0
  357.92679 18.0 0
  358.10773 33.0 0
  358.19308 37.0 1
  358.21133 27.0 0
  358.23431 115.0 2
  358.25104 39.0 1
  358.715 18.0 0
  358.81546 18.0 0
  358.97064 18.0 0
  359.19174 28.0 0
  359.69315 17.0 0
  360.20554 19.0 0
  361.20627 46.0 1
  362.20868 27.0 0
  363.63394 27.0 0
  364.15308 21.0 0
  364.60886 29.0 0
  364.71478 20.0 0
  367.02481 39.0 1
  367.03757 24.0 0
  367.13953 24.0 0
  367.17575 29.0 0
  370.09052 20.0 0
  370.23373 165.0 2
  370.24463 56.0 1
  370.26245 18.0 0
  370.41168 25.0 0
  371.1658 25.0 0
  371.23904 62.0 1
  371.56409 19.0 0
  371.6348 23.0 0
  373.63907 25.0 0
  373.81165 30.0 0
  374.16776 33.0 0
  374.21341 176.0 3
  374.23309 1461.0 21
  374.2706 17.0 0
  374.36258 18.0 0
  375.20779 94.0 1
  375.224 291.0 4
  375.2428 200.0 3
  376.20975 42.0 1
  376.24869 17.0 0
  376.98306 34.0 0
  377.62216 18.0 0
  379.1272 23.0 0
  380.78552 34.0 0
  381.31506 18.0 0
  383.57782 25.0 0
  384.52527 17.0 0
  385.16412 27.0 0
  386.15225 17.0 0
  388.082 18.0 0
  388.15308 20.0 0
  388.17334 30.0 0
  388.19699 79.0 1
  388.24979 2633.0 38
  388.33737 18.0 0
  388.48788 20.0 0
  388.74203 21.0 0
  389.08093 19.0 0
  389.12283 18.0 0
  389.1918 29.0 0
  389.21185 51.0 1
  389.23926 394.0 6
  389.26334 322.0 5
  389.29495 34.0 0
  389.93311 17.0 0
  390.22098 29.0 0
  390.23676 23.0 0
  390.25998 150.0 2
  391.26172 24.0 0
  392.46124 18.0 0
  393.23022 22.0 0
  393.41217 23.0 0
  393.69986 21.0 0
  394.77933 20.0 0
  398.07236 17.0 0
  399.00494 21.0 0
  399.34579 20.0 0
  402.40869 18.0 0
  403.61548 22.0 0
  406.05981 18.0 0
  406.18793 33.0 0
  406.23224 208.0 3
  406.25247 1053.0 15
  406.26279 2269.0 33
  406.77667 20.0 0
  407.00162 19.0 0
  407.14899 18.0 0
  407.22873 50.0 1
  407.25699 833.0 12
  407.41452 19.0 0
  408.26074 86.0 1
  408.98151 17.0 0
  411.01581 17.0 0
  411.09042 22.0 0
  413.46005 18.0 0
  416.20117 19.0 0
  416.54117 24.0 0
  417.22021 19.0 0
  418.2529 25.0 0
  418.98813 20.0 0
  421.60345 17.0 0
  421.83054 21.0 0
  422.24869 40.0 1
  423.9501 27.0 0
  424.22931 17.0 0
  424.2702 662.0 10
  425.25583 49.0 1
  425.28156 170.0 2
  425.2923 52.0 1
  425.31595 21.0 0
  426.28876 21.0 0
  426.41101 24.0 0
  427.87006 63.0 1
  429.21802 18.0 0
  430.22253 38.0 1
  430.52371 17.0 0
  431.91528 26.0 0
  434.21167 23.0 0
  435.30054 17.0 0
  443.57196 25.0 0
  446.01379 20.0 0
  446.36911 32.0 0
  448.9567 30.0 0
  454.23975 17.0 0
  458.33249 27.0 0
  459.04947 25.0 0
  461.17401 19.0 0
  461.20465 17.0 0
  461.24344 485.0 7
  461.58728 24.0 0
  462.2226 24.0 0
  462.24677 36.0 1
  462.26031 50.0 1
  463.25482 30.0 0
  465.23737 18.0 0
  465.27783 79.0 1
  467.16953 23.0 0
  473.4689 20.0 0
  474.66324 26.0 0
  475.23532 30.0 0
  475.25381 36.0 1
  476.24506 31.0 0
  476.84845 18.0 0
  482.26889 20.0 0
  483.90326 39.0 1
  493.21436 17.0 0
  493.26923 1616.0 23
  493.32507 41.0 1
  494.25406 239.0 3
  494.27914 395.0 6
  494.3107 22.0 0
  494.46161 18.0 0
  495.29767 19.0 0
  496.26819 17.0 0
  501.74393 30.0 0
  507.28873 47.0 1
  507.311 18.0 0
  511.25558 67.0 1
  511.29089 96.0 1
  511.8934 18.0 0
  512.25867 71.0 1
  512.46796 37.0 1
  512.98547 17.0 0
  513.60724 45.0 1
  515.52045 25.0 0
  520.47748 27.0 0
  521.8241 28.0 0
  522.03247 26.0 0
  524.43115 19.0 0
  524.8717 17.0 0
  525.24335 38.0 1
  525.28217 322.0 5
  525.30396 671.0 10
  525.34412 27.0 0
  525.39203 24.0 0
  525.46698 20.0 0
  525.78247 27.0 0
  526.20709 47.0 1
  526.30157 319.0 5
  526.33325 97.0 1
  527.28381 32.0 0
  527.30402 18.0 0
  527.32153 17.0 0
  528.01202 30.0 0
  528.04987 18.0 0
  528.30029 18.0 0
  530.64349 23.0 0
  532.09875 30.0 0
  532.89069 35.0 1
  532.90857 20.0 0
  533.79492 25.0 0
  533.96448 21.0 0
  533.98541 18.0 0
  535.07452 17.0 0
  536.40192 24.0 0
  539.13379 17.0 0
  539.77917 21.0 0
  541.27655 36.0 1
  541.30731 17.0 0
  542.03491 18.0 0
  542.2757 18.0 0
  542.30475 32.0 0
  542.48871 34.0 0
  542.62537 18.0 0
  542.78046 18.0 0
  542.8335 21.0 0
  543.03027 74.0 1
  543.07513 17.0 0
  543.12408 56.0 1
  543.16968 54.0 1
  543.18976 46.0 1
  543.23102 497.0 7
  543.25793 462.0 7
  543.30585 68767.0 999
  543.37561 1302.0 19
  543.43134 75.0 1
  543.45026 27.0 0
  543.50476 57.0 1
//
