ACCESSION: MSBNK-RIKEN-PR301152
RECORD_TITLE: Isohernandezine; LC-ESI-QTOF; MS2
DATE: 2019.03.28
AUTHORS: Tetsuya Mori, Center for Sustainable Resource Science, RIKEN
LICENSE: CC BY-NC-SA
PUBLICATION: Tsugawa H., Nakabayashi R., Mori T., Yamada Y., Takahashi M., Rai A., Sugiyama R., Yamamoto H., Nakaya T., Yamazaki M., Kooke R., Bac-Molenaar JA., Oztolan-Erol N., Keurentjes JJB., Arita M., Saito K. (2019) "A cheminformatics approach to characterize metabolomes in stable-isotope-labeled organisms" Nature Methods 16(4):295-298. [doi:10.1038/s41592-019-0358-2]
COMMENT: registered in RIKEN PlaSMA
CH$NAME: Isohernandezine
CH$COMPOUND_CLASS: Tannins
CH$FORMULA: C39H44N2O7
CH$EXACT_MASS: 652.788
CH$SMILES: COC1=C2OC3=CC=C(C[C@H]4N(C)CCC5=CC(OC)=C(OC6=C(OC)C(OC)=C(OC)C7=C6[C@H](CC(C=C1)=C2)N(C)CC7)C=C45)C=C3
CH$IUPAC: InChI=1S/C39H44N2O7/c1-40-16-14-25-21-32(43-4)34-22-28(25)29(40)18-23-8-11-26(12-9-23)47-33-20-24(10-13-31(33)42-3)19-30-35-27(15-17-41(30)2)36(44-5)38(45-6)39(46-7)37(35)48-34/h8-13,20-22,29-30H,14-19H2,1-7H3/t29-,30+/m1/s1
CH$LINK: INCHIKEY FUZMQNZACIFDBL-IHLOFXLRSA-N
AC$INSTRUMENT: LC, Waters Acquity UPLC System; MS, Waters Xevo G2 Q-Tof
AC$INSTRUMENT_TYPE: LC-ESI-QTOF
AC$MASS_SPECTROMETRY: MS_TYPE MS2
AC$MASS_SPECTROMETRY: ION_MODE POSITIVE
AC$MASS_SPECTROMETRY: COLLISION_ENERGY 6V
AC$MASS_SPECTROMETRY: DESOLVATION_GAS_FLOW 800/h
AC$MASS_SPECTROMETRY: DESOLVATION_TEMPERATURE 450 C
AC$MASS_SPECTROMETRY: IONIZATION ESI
AC$CHROMATOGRAPHY: CAPILLARY_VOLTAGE +3.00 kV
AC$CHROMATOGRAPHY: COLUMN_NAME Acquity bridged ethyl hybrid C18 (1.7 um, 2.1 mm * 100 mm, Waters)
AC$CHROMATOGRAPHY: COLUMN_TEMPERATURE 40 C
AC$CHROMATOGRAPHY: FLOW_GRADIENT A/B = (99.5%/0.5% at 0 min, 99.5%/0.5% at 0.1 min, 20%/80% at 10 min, 0.5%/99.5% at 10.1 min, 0.5%/99.5% at 12.0 min, 99.5%/0.5% at 12.1 min, 99.5%/0.5% at 15.0 min)
AC$CHROMATOGRAPHY: FLOW_RATE 0.3 ml/min at 0 min, 0.3 ml/min at 10 min, 0.4 ml/min at 10.1 min, 0.4 ml/min at 14.4 min, 0.3 ml/min at 14.5 min
AC$CHROMATOGRAPHY: RETENTION_TIME 4.412416
AC$CHROMATOGRAPHY: SOLVENT A water including 0.1% formic acid
AC$CHROMATOGRAPHY: SOLVENT B acetonitrile including 0.1% formic acid
MS$FOCUSED_ION: PRECURSOR_TYPE [M+H]+
MS$FOCUSED_ION: PRECURSOR_M/Z 653.3221282
PK$SPLASH: splash10-03kc-0923410000-f81b9530f7f071c46d91
PK$NUM_PEAK: 325
PK$PEAK: m/z int. rel.int.
  77.04227 16.0 16
  105.07359 34.0 34
  108.08591 20.0 20
  109.05814 12.0 12
  117.073 15.0 15
  121.06284 13.0 13
  123.07835 13.0 13
  133.08115 15.0 15
  133.09773 18.0 18
  134.10031 19.0 19
  137.54877 14.0 14
  143.05032 45.0 45
  145.09023 98.0 98
  146.09418 98.0 98
  146.10127 42.0 42
  147.09721 14.0 14
  148.08076 51.0 51
  149.054 27.0 27
  149.09724 13.0 13
  151.07317 17.0 17
  151.08128 13.0 13
  160.08365 28.0 28
  160.10776 41.0 41
  162.07219 36.0 36
  162.08192 76.0 76
  162.09178 293.0 293
  162.60681 14.0 14
  163.07629 13.0 13
  163.09035 17.0 17
  163.0992 65.0 65
  164.08119 13.0 13
  166.06424 24.0 24
  171.07655 15.0 15
  173.08275 43.0 43
  173.70773 14.0 14
  173.83171 12.0 12
  174.07349 80.0 80
  174.09134 989.0 988
  174.10851 43.0 43
  175.07027 26.0 26
  175.09464 76.0 76
  175.10753 14.0 14
  176.03856 14.0 14
  176.07193 36.0 36
  176.09474 11.0 11
  176.10475 95.0 95
  177.07935 13.0 13
  177.11385 31.0 31
  178.08066 44.0 44
  179.08012 16.0 16
  180.08652 12.0 12
  181.0663 13.0 13
  186.21738 14.0 14
  188.09853 12.0 12
  189.0954 46.0 46
  189.10892 37.0 37
  189.11757 31.0 31
  190.06125 14.0 14
  190.07257 33.0 33
  190.08746 209.0 209
  191.06927 62.0 62
  191.09673 447.0 447
  192.06836 38.0 38
  192.09822 253.0 253
  192.10854 98.0 98
  192.17033 18.0 18
  193.09378 13.0 13
  193.11028 41.0 41
  194.09442 19.0 19
  194.10696 14.0 14
  195.07932 20.0 20
  202.08611 16.0 16
  203.57962 19.0 19
  204.08409 16.0 16
  204.09615 12.0 12
  204.104 46.0 46
  205.07349 16.0 16
  205.10968 21.0 21
  206.08034 16.0 16
  208.10262 14.0 14
  209.08684 12.0 12
  211.08046 16.0 16
  217.10403 14.0 14
  218.08472 14.0 14
  218.12793 13.0 13
  219.10719 12.0 12
  220.08575 32.0 32
  220.09605 30.0 30
  221.33479 14.0 14
  223.08481 15.0 15
  225.08339 13.0 13
  225.0936 14.0 14
  225.10797 15.0 15
  228.06622 16.0 16
  232.0835 17.0 17
  234.0782 12.0 12
  234.10928 16.0 16
  236.08307 12.0 12
  236.11108 22.0 22
  236.12866 54.0 54
  237.09474 26.0 26
  237.1358 14.0 14
  238.08357 20.0 20
  238.12383 13.0 13
  239.11411 12.0 12
  240.11176 12.0 12
  249.11209 21.0 21
  250.10646 16.0 16
  251.10246 20.0 20
  252.09947 37.0 37
  253.092 14.0 14
  253.11 30.0 30
  264.07886 14.0 14
  264.11563 20.0 20
  266.1311 20.0 20
  267.09967 21.0 21
  267.11569 19.0 19
  268.09741 12.0 12
  268.14078 14.0 14
  274.20978 12.0 12
  277.08142 18.0 18
  277.11417 14.0 14
  278.07474 13.0 13
  280.13068 16.0 16
  281.11487 13.0 13
  282.14328 13.0 13
  291.09351 29.0 29
  292.09482 14.0 14
  293.12878 18.0 18
  294.10779 24.0 24
  294.12939 28.0 28
  298.15192 18.0 18
  298.9054 13.0 13
  299.13013 13.0 13
  305.09546 29.0 29
  305.13651 14.0 14
  307.14572 15.0 15
  308.09207 21.0 21
  309.12204 14.0 14
  311.10779 17.0 17
  311.12939 12.0 12
  312.08582 13.0 13
  312.1384 13.0 13
  313.13495 13.0 13
  314.11078 12.0 12
  315.13593 14.0 14
  315.18771 13.0 13
  319.09158 17.0 17
  320.08997 14.0 14
  323.10986 12.0 12
  323.12933 13.0 13
  325.0961 19.0 19
  325.13245 12.0 12
  326.181 14.0 14
  330.09912 14.0 14
  334.09369 13.0 13
  337.1554 18.0 18
  339.13858 15.0 15
  339.80264 19.0 19
  340.0968 14.0 14
  340.11908 16.0 16
  341.16473 16.0 16
  342.15094 15.0 15
  345.11279 17.0 17
  345.14996 13.0 13
  346.12277 18.0 18
  348.15109 14.0 14
  349.12881 12.0 12
  351.11353 13.0 13
  351.13815 15.0 15
  351.98706 12.0 12
  352.13303 26.0 26
  352.15561 36.0 36
  353.12885 26.0 26
  354.13879 31.0 31
  354.17322 17.0 17
  356.61664 12.0 12
  361.08615 19.0 19
  361.14786 12.0 12
  363.11423 34.0 34
  363.1499 16.0 16
  364.10504 14.0 14
  364.13708 22.0 22
  365.12357 31.0 31
  365.15186 13.0 13
  365.16397 37.0 37
  366.13098 14.0 14
  367.95013 12.0 12
  368.13916 59.0 59
  368.16571 53.0 53
  368.17902 16.0 16
  369.14819 12.0 12
  370.14581 21.0 21
  370.16107 32.0 32
  370.18298 12.0 12
  373.12695 18.0 18
  375.15778 17.0 17
  377.16098 13.0 13
  379.15668 21.0 21
  379.17361 16.0 16
  380.11774 16.0 16
  380.13535 16.0 16
  380.14948 15.0 15
  380.17661 24.0 24
  381.12753 13.0 13
  381.13644 24.0 24
  381.15445 64.0 64
  381.1843 14.0 14
  382.14404 15.0 15
  385.14978 12.0 12
  386.55228 14.0 14
  387.10373 16.0 16
  393.14981 16.0 16
  394.15384 29.0 29
  394.18454 41.0 41
  395.15549 20.0 20
  395.18121 26.0 26
  395.19559 78.0 78
  396.17014 12.0 12
  397.16882 12.0 12
  398.16202 18.0 18
  399.09467 13.0 13
  400.13495 27.0 27
  401.11819 14.0 14
  401.14233 12.0 12
  401.15903 12.0 12
  402.11401 18.0 18
  402.17062 33.0 33
  402.22559 14.0 14
  407.98056 17.0 17
  409.15005 15.0 15
  411.12177 14.0 14
  411.16125 78.0 78
  411.19104 1000.0 999
  412.03909 18.0 18
  412.13556 13.0 13
  412.15527 29.0 29
  412.18121 95.0 95
  412.19882 130.0 130
  413.16931 14.0 14
  413.19449 13.0 13
  413.20712 16.0 16
  414.13528 13.0 13
  414.19104 16.0 16
  415.15573 14.0 14
  415.23834 13.0 13
  416.15842 32.0 32
  424.06842 16.0 16
  427.16135 14.0 14
  428.14166 19.0 19
  428.17261 14.0 14
  430.20743 17.0 17
  432.20453 16.0 16
  444.18622 19.0 19
  446.18787 12.0 12
  452.1684 16.0 16
  454.17545 20.0 20
  455.14923 14.0 14
  456.15274 13.0 13
  461.22427 20.0 20
  473.19568 17.0 17
  473.2103 12.0 12
  474.19431 14.0 14
  478.21811 22.0 22
  486.18863 16.0 16
  494.17407 13.0 13
  495.16721 14.0 14
  514.16766 14.0 14
  514.41956 13.0 13
  516.07501 13.0 13
  516.20471 14.0 14
  516.2337 13.0 13
  520.20062 14.0 14
  530.18927 19.0 19
  530.21564 15.0 15
  532.21228 17.0 17
  533.12823 16.0 16
  538.26697 16.0 16
  548.19604 12.0 12
  549.22626 26.0 26
  549.25604 16.0 16
  560.17657 20.0 20
  561.12067 14.0 14
  562.18359 16.0 16
  562.2464 22.0 22
  562.2652 20.0 20
  563.23322 14.0 14
  563.263 20.0 20
  564.19055 32.0 32
  565.26935 18.0 18
  574.21399 19.0 19
  574.24744 17.0 17
  575.26526 16.0 16
  576.16968 15.0 15
  576.20276 48.0 48
  576.23792 14.0 14
  577.2019 16.0 16
  577.2403 14.0 14
  578.20319 14.0 14
  578.22211 13.0 13
  579.21771 15.0 15
  580.24738 36.0 36
  590.24652 16.0 16
  591.21686 14.0 14
  592.23181 16.0 16
  592.25464 27.0 27
  593.22675 15.0 15
  593.23895 36.0 36
  594.21051 14.0 14
  594.2464 19.0 19
  594.26392 28.0 28
  606.23529 88.0 88
  606.26233 83.0 83
  607.18433 14.0 14
  607.24835 21.0 21
  607.26495 30.0 30
  607.30524 12.0 12
  608.25104 14.0 14
  609.29517 13.0 13
  619.26361 14.0 14
  619.28223 14.0 14
  620.19244 13.0 13
  621.2771 12.0 12
  621.31781 28.0 28
  623.27789 12.0 12
//
