ACCESSION: MSBNK-RIKEN-PR305705
RECORD_TITLE: Rosmarinic acid; LC-ESI-QTOF; MS2
DATE: 2019.03.28
AUTHORS: Tetsuya Mori, Center for Sustainable Resource Science, RIKEN
LICENSE: CC BY-NC-SA
PUBLICATION: Tsugawa H., Nakabayashi R., Mori T., Yamada Y., Takahashi M., Rai A., Sugiyama R., Yamamoto H., Nakaya T., Yamazaki M., Kooke R., Bac-Molenaar JA., Oztolan-Erol N., Keurentjes JJB., Arita M., Saito K. (2019) "A cheminformatics approach to characterize metabolomes in stable-isotope-labeled organisms" Nature Methods 16(4):295-298. [doi:10.1038/s41592-019-0358-2]
COMMENT: registered in RIKEN PlaSMA
CH$NAME: Rosmarinic acid
CH$COMPOUND_CLASS: Coumaric acids and derivatives
CH$FORMULA: C18H16O8
CH$EXACT_MASS: 360.318
CH$SMILES: OC(=O)C(CC1=CC(O)=C(O)C=C1)OC(=O)C=CC1=CC(O)=C(O)C=C1
CH$IUPAC: InChI=1S/C18H16O8/c19-12-4-1-10(7-14(12)21)3-6-17(23)26-16(18(24)25)9-11-2-5-13(20)15(22)8-11/h1-8,16,19-22H,9H2,(H,24,25)
CH$LINK: INCHIKEY DOUMFZQKYFQNTF-UHFFFAOYSA-N
AC$INSTRUMENT: LC, Waters Acquity UPLC System; MS, Waters Xevo G2 Q-Tof
AC$INSTRUMENT_TYPE: LC-ESI-QTOF
AC$MASS_SPECTROMETRY: MS_TYPE MS2
AC$MASS_SPECTROMETRY: ION_MODE NEGATIVE
AC$MASS_SPECTROMETRY: COLLISION_ENERGY 6V
AC$MASS_SPECTROMETRY: DESOLVATION_GAS_FLOW 800/h
AC$MASS_SPECTROMETRY: DESOLVATION_TEMPERATURE 450 C
AC$MASS_SPECTROMETRY: IONIZATION ESI
AC$CHROMATOGRAPHY: CAPILLARY_VOLTAGE -2.75 kV
AC$CHROMATOGRAPHY: COLUMN_NAME Acquity bridged ethyl hybrid C18 (1.7 um, 2.1 mm * 100 mm, Waters)
AC$CHROMATOGRAPHY: COLUMN_TEMPERATURE 40 C
AC$CHROMATOGRAPHY: FLOW_GRADIENT A/B = (99.5%/0.5% at 0 min, 99.5%/0.5% at 0.1 min, 20%/80% at 10 min, 0.5%/99.5% at 10.1 min, 0.5%/99.5% at 12.0 min, 99.5%/0.5% at 12.1 min, 99.5%/0.5% at 15.0 min)
AC$CHROMATOGRAPHY: FLOW_RATE 0.3 ml/min at 0 min, 0.3 ml/min at 10 min, 0.4 ml/min at 10.1 min, 0.4 ml/min at 14.4 min, 0.3 ml/min at 14.5 min
AC$CHROMATOGRAPHY: RETENTION_TIME 4.6334
AC$CHROMATOGRAPHY: SOLVENT A water including 0.1% formic acid
AC$CHROMATOGRAPHY: SOLVENT B acetonitrile including 0.1% formic acid
MS$FOCUSED_ION: PRECURSOR_TYPE [M-H]-
MS$FOCUSED_ION: PRECURSOR_M/Z 359.07724104783
PK$SPLASH: splash10-03di-0900000000-598fc25dd6bcdf474c6c
PK$NUM_PEAK: 47
PK$PEAK: m/z int. rel.int.
  62.89938 5.0 5
  72.99168 47.0 47
  72.9996 9.0 9
  77.55309 11.0 11
  82.0376 7.0 7
  89.03502 5.0 5
  95.05097 6.0 6
  96.99276 9.0 9
  106.03154 7.0 7
  108.02008 7.0 7
  109.02894 17.0 17
  115.59412 6.0 6
  121.02962 5.0 5
  123.04354 151.0 151
  124.04359 27.0 27
  125.04687 6.0 6
  131.05925 6.0 6
  131.40189 6.0 6
  132.01744 26.0 26
  133.0269 482.0 482
  134.03398 65.0 65
  135.04373 416.0 416
  135.06113 5.0 5
  136.04758 71.0 71
  138.03369 8.0 8
  150.03159 9.0 9
  151.03828 6.0 6
  152.04622 5.0 5
  153.05264 13.0 13
  161.02252 1000.0 999
  162.02498 105.0 105
  162.03615 6.0 6
  163.02686 18.0 18
  163.0414 6.0 6
  178.02475 9.0 9
  179.03348 261.0 261
  179.05968 5.0 5
  179.06987 5.0 5
  180.03484 49.0 49
  181.03522 21.0 21
  197.04527 55.0 55
  198.05339 8.0 8
  251.82614 5.0 5
  254.05992 6.0 6
  257.00778 5.0 5
  269.00476 6.0 6
  307.26816 11.0 11
//
