ACCESSION: MSBNK-RIKEN-PR307072
RECORD_TITLE: NP-000002(10); LC-ESI-QTOF; MS2
DATE: 2019.03.28
AUTHORS: Tetsuya Mori, Center for Sustainable Resource Science, RIKEN
LICENSE: CC BY-NC-SA
PUBLICATION: Tsugawa H., Nakabayashi R., Mori T., Yamada Y., Takahashi M., Rai A., Sugiyama R., Yamamoto H., Nakaya T., Yamazaki M., Kooke R., Bac-Molenaar JA., Oztolan-Erol N., Keurentjes JJB., Arita M., Saito K. (2019) "A cheminformatics approach to characterize metabolomes in stable-isotope-labeled organisms" Nature Methods 16(4):295-298. [doi:10.1038/s41592-019-0358-2]
COMMENT: registered in RIKEN PlaSMA
CH$NAME: NP-000002(10)
CH$COMPOUND_CLASS: Flavonoid 8-C-glycosides
CH$FORMULA: C27H30O15
CH$EXACT_MASS: 594.522
CH$SMILES: OCC1OC(C(O)C(O)C1O)C1=C(O)C(C2OC(CO)C(O)C(O)C2O)=C2OC(=CC(=O)C2=C1O)C1=CC=C(O)C=C1
CH$IUPAC: InChI=1S/C27H30O15/c28-6-12-17(32)21(36)23(38)26(41-12)15-19(34)14-10(31)5-11(8-1-3-9(30)4-2-8)40-25(14)16(20(15)35)27-24(39)22(37)18(33)13(7-29)42-27/h1-5,12-13,17-18,21-24,26-30,32-39H,6-7H2
CH$LINK: INCHIKEY FIAAVMJLAGNUKW-UHFFFAOYSA-N
AC$INSTRUMENT: LC, Waters Acquity UPLC System; MS, Waters Xevo G2 Q-Tof
AC$INSTRUMENT_TYPE: LC-ESI-QTOF
AC$MASS_SPECTROMETRY: MS_TYPE MS2
AC$MASS_SPECTROMETRY: ION_MODE NEGATIVE
AC$MASS_SPECTROMETRY: COLLISION_ENERGY 6V
AC$MASS_SPECTROMETRY: DESOLVATION_GAS_FLOW 800/h
AC$MASS_SPECTROMETRY: DESOLVATION_TEMPERATURE 450 C
AC$MASS_SPECTROMETRY: IONIZATION ESI
AC$CHROMATOGRAPHY: CAPILLARY_VOLTAGE -2.75 kV
AC$CHROMATOGRAPHY: COLUMN_NAME Acquity bridged ethyl hybrid C18 (1.7 um, 2.1 mm * 100 mm, Waters)
AC$CHROMATOGRAPHY: COLUMN_TEMPERATURE 40 C
AC$CHROMATOGRAPHY: FLOW_GRADIENT A/B = (99.5%/0.5% at 0 min, 99.5%/0.5% at 0.1 min, 20%/80% at 10 min, 0.5%/99.5% at 10.1 min, 0.5%/99.5% at 12.0 min, 99.5%/0.5% at 12.1 min, 99.5%/0.5% at 15.0 min)
AC$CHROMATOGRAPHY: FLOW_RATE 0.3 ml/min at 0 min, 0.3 ml/min at 10 min, 0.4 ml/min at 10.1 min, 0.4 ml/min at 14.4 min, 0.3 ml/min at 14.5 min
AC$CHROMATOGRAPHY: RETENTION_TIME 3.3031
AC$CHROMATOGRAPHY: SOLVENT A water including 0.1% formic acid
AC$CHROMATOGRAPHY: SOLVENT B acetonitrile including 0.1% formic acid
MS$FOCUSED_ION: PRECURSOR_TYPE [M-H]-
MS$FOCUSED_ION: PRECURSOR_M/Z 593.15119384783
PK$SPLASH: splash10-0006-0006290000-86aa20c1373033fb98e5
PK$NUM_PEAK: 50
PK$PEAK: m/z int. rel.int.
  191.03181 7.0 7
  260.60965 6.0 6
  279.04608 6.0 6
  282.05444 11.0 11
  283.05423 8.0 8
  297.07303 64.0 64
  298.07852 9.0 9
  303.8338 5.0 5
  311.05878 6.0 6
  323.05154 13.0 13
  323.06314 14.0 14
  324.06561 15.0 15
  325.06998 27.0 27
  325.08521 9.0 9
  336.0712 6.0 6
  337.05734 11.0 11
  337.07556 15.0 15
  338.0755 8.0 8
  339.082 5.0 5
  353.0654 246.0 246
  354.06815 59.0 59
  355.07162 12.0 12
  359.11041 6.0 6
  365.06171 36.0 36
  383.05246 11.0 11
  383.07104 108.0 108
  383.08417 55.0 55
  384.06586 13.0 13
  384.08124 30.0 30
  385.09082 17.0 17
  395.07895 17.0 17
  396.09143 7.0 7
  408.08264 6.0 6
  413.0885 16.0 16
  414.09793 7.0 7
  425.07837 9.0 9
  443.09949 6.0 6
  455.0986 9.0 9
  473.10657 163.0 163
  474.11115 45.0 45
  474.12979 10.0 10
  474.15405 5.0 5
  503.104 23.0 23
  503.12189 32.0 32
  504.1225 10.0 10
  517.12787 6.0 6
  575.13495 8.0 8
  575.17419 7.0 7
  593.14929 1000.0 999
  593.19617 8.0 8
//
