ACCESSION: MSBNK-RIKEN-PR310990
RECORD_TITLE: Apigenin 6-C-glucoside 8-C-arabinoside; LC-ESI-QTOF; MS2
DATE: 2019.03.28
AUTHORS: Tetsuya Mori, Center for Sustainable Resource Science, RIKEN
LICENSE: CC BY-NC-SA
PUBLICATION: Tsugawa H., Nakabayashi R., Mori T., Yamada Y., Takahashi M., Rai A., Sugiyama R., Yamamoto H., Nakaya T., Yamazaki M., Kooke R., Bac-Molenaar JA., Oztolan-Erol N., Keurentjes JJB., Arita M., Saito K. (2019) "A cheminformatics approach to characterize metabolomes in stable-isotope-labeled organisms" Nature Methods 16(4):295-298. [doi:10.1038/s41592-019-0358-2]
COMMENT: Annotation level-1
CH$NAME: Apigenin 6-C-glucoside 8-C-arabinoside
CH$COMPOUND_CLASS: Flavone C,C-glycosides
CH$FORMULA: C26H28O14
CH$EXACT_MASS: 564.496
CH$SMILES: O=C1C=C(OC=2C1=C(O)C(=C(O)C=2C3OC(CO)C(O)C3(O))C4OC(CO)C(O)C(O)C4(O))C5=CC=C(O)C=C5
CH$IUPAC: InChI=1S/C26H28O14/c27-6-12-17(31)21(35)23(37)25(39-12)15-19(33)14-10(30)5-11(8-1-3-9(29)4-2-8)38-24(14)16(20(15)34)26-22(36)18(32)13(7-28)40-26/h1-5,12-13,17-18,21-23,25-29,31-37H,6-7H2
CH$LINK: INCHIKEY TUIJPUWSXVFWSH-UHFFFAOYSA-N
AC$INSTRUMENT: LC, Waters Acquity UPLC System; MS, Waters Xevo G2 Q-Tof
AC$INSTRUMENT_TYPE: LC-ESI-QTOF
AC$MASS_SPECTROMETRY: MS_TYPE MS2
AC$MASS_SPECTROMETRY: ION_MODE POSITIVE
AC$MASS_SPECTROMETRY: COLLISION_ENERGY 6V
AC$MASS_SPECTROMETRY: DESOLVATION_GAS_FLOW 800/h
AC$MASS_SPECTROMETRY: DESOLVATION_TEMPERATURE 450 C
AC$MASS_SPECTROMETRY: IONIZATION ESI
AC$CHROMATOGRAPHY: CAPILLARY_VOLTAGE +3.00 kV
AC$CHROMATOGRAPHY: COLUMN_NAME Acquity bridged ethyl hybrid C18 (1.7 um, 2.1 mm * 100 mm, Waters)
AC$CHROMATOGRAPHY: COLUMN_TEMPERATURE 40 C
AC$CHROMATOGRAPHY: FLOW_GRADIENT A/B = (99.5%/0.5% at 0 min, 99.5%/0.5% at 0.1 min, 20%/80% at 10 min, 0.5%/99.5% at 10.1 min, 0.5%/99.5% at 12.0 min, 99.5%/0.5% at 12.1 min, 99.5%/0.5% at 15.0 min)
AC$CHROMATOGRAPHY: FLOW_RATE 0.3 ml/min at 0 min, 0.3 ml/min at 10 min, 0.4 ml/min at 10.1 min, 0.4 ml/min at 14.4 min, 0.3 ml/min at 14.5 min
AC$CHROMATOGRAPHY: RETENTION_TIME 3.55
AC$CHROMATOGRAPHY: SOLVENT A water including 0.1% formic acid
AC$CHROMATOGRAPHY: SOLVENT B acetonitrile including 0.1% formic acid
MS$FOCUSED_ION: PRECURSOR_TYPE [M+H]+
MS$FOCUSED_ION: PRECURSOR_M/Z 565.15518
PK$SPLASH: splash10-014i-0008890000-98fe236954b616e86a7e
PK$NUM_PEAK: 257
PK$PEAK: m/z int. rel.int.
  103.04012 27.0 6
  121.02818 55.0 12
  192.06245 56.0 12
  203.03177 33.0 7
  214.78952 33.0 7
  223.18742 23.0 5
  227.03006 33.0 7
  234.61014 29.0 6
  237.0374 32.0 7
  253.04614 17.0 4
  255.02464 26.0 6
  255.04185 20.0 4
  268.08249 23.0 5
  273.04263 20.0 4
  282.04968 21.0 5
  282.49442 20.0 4
  283.06183 36.0 8
  286.57932 33.0 7
  287.05377 20.0 4
  294.04968 57.0 13
  295.06189 398.0 87
  296.0603 66.0 15
  301.07849 35.0 8
  304.79776 17.0 4
  307.03143 41.0 9
  307.05386 57.0 13
  307.07428 148.0 33
  308.06888 118.0 26
  308.08121 38.0 8
  309.06635 26.0 6
  309.08493 26.0 6
  312.133 22.0 5
  312.95056 17.0 4
  313.06155 18.0 4
  314.05917 28.0 6
  321.07208 212.0 47
  322.0842 82.0 18
  324.08362 43.0 9
  325.05853 130.0 29
  325.06857 131.0 29
  325.08069 275.0 60
  326.08441 49.0 11
  329.07291 32.0 7
  333.0621 24.0 5
  333.0864 42.0 9
  334.08267 115.0 25
  335.08212 24.0 5
  335.0947 19.0 4
  335.10904 21.0 5
  336.08109 29.0 6
  336.09918 20.0 4
  337.05994 155.0 34
  337.07404 221.0 49
  337.09009 30.0 7
  338.06592 46.0 10
  338.07867 60.0 13
  338.09076 29.0 6
  339.0582 28.0 6
  339.07883 52.0 11
  339.10641 21.0 5
  340.08511 39.0 9
  342.08307 21.0 5
  345.07437 35.0 8
  345.0986 27.0 6
  345.69138 36.0 8
  346.07608 19.0 4
  347.09677 22.0 5
  347.10742 23.0 5
  349.03635 22.0 5
  349.06995 228.0 50
  349.08459 224.0 49
  350.06992 65.0 14
  350.08447 22.0 5
  351.05118 18.0 4
  351.08603 189.0 42
  352.07761 20.0 4
  354.06595 24.0 5
  354.31134 23.0 5
  355.07089 104.0 23
  355.87042 27.0 6
  356.03049 33.0 7
  356.08618 28.0 6
  359.09042 68.0 15
  361.07196 155.0 34
  361.10513 58.0 13
  362.05496 18.0 4
  362.0824 88.0 19
  363.0733 204.0 45
  363.08755 190.0 42
  364.08899 49.0 11
  365.08664 34.0 7
  366.05554 20.0 4
  367.02963 18.0 4
  367.07147 35.0 8
  367.08881 23.0 5
  367.1954 30.0 7
  368.0668 19.0 4
  368.08612 25.0 5
  370.11264 20.0 4
  373.04977 26.0 6
  373.0708 95.0 21
  373.0885 28.0 6
  373.11041 76.0 17
  375.07175 69.0 15
  376.08258 25.0 5
  377.05643 55.0 12
  377.07239 23.0 5
  377.10919 25.0 5
  379.04477 32.0 7
  379.07275 438.0 96
  379.09265 238.0 52
  380.04126 27.0 6
  380.07846 142.0 31
  380.09332 71.0 16
  381.08136 65.0 14
  382.51669 46.0 10
  385.07614 36.0 8
  385.96036 22.0 5
  386.04868 17.0 4
  387.06152 18.0 4
  387.08472 56.0 12
  387.10703 35.0 8
  389.07684 18.0 4
  389.11136 21.0 5
  391.07187 294.0 65
  391.08688 436.0 96
  392.08075 199.0 44
  393.06876 18.0 4
  393.09995 33.0 7
  394.09454 27.0 6
  397.08658 205.0 45
  398.10013 45.0 10
  399.07419 30.0 7
  399.0896 74.0 16
  401.1217 27.0 6
  402.09668 37.0 8
  403.0596 38.0 8
  403.08511 67.0 15
  404.09238 23.0 5
  405.04807 17.0 4
  405.06305 34.0 7
  405.08627 18.0 4
  405.53622 25.0 5
  407.07053 65.0 14
  407.10944 30.0 7
  408.87692 20.0 4
  409.00601 18.0 4
  409.05994 45.0 10
  409.08966 864.0 190
  409.10208 394.0 87
  410.08746 185.0 41
  411.09494 76.0 17
  411.49796 23.0 5
  415.08044 140.0 31
  415.11261 75.0 16
  416.07269 61.0 13
  417.03506 24.0 5
  417.08841 22.0 5
  418.09912 17.0 4
  421.07455 97.0 21
  421.10754 36.0 8
  421.28079 17.0 4
  422.10971 21.0 5
  424.85422 17.0 4
  427.09589 821.0 180
  427.11536 231.0 51
  427.17383 26.0 6
  428.03833 20.0 4
  428.08218 36.0 8
  428.10638 292.0 64
  428.12943 112.0 25
  429.05246 17.0 4
  429.10254 181.0 40
  433.09189 125.0 27
  434.10498 113.0 25
  439.10056 122.0 27
  440.00293 20.0 4
  445.07019 37.0 8
  445.10175 299.0 66
  446.49976 25.0 5
  447.13599 26.0 6
  449.11655 21.0 5
  451.11047 132.0 29
  451.12772 24.0 5
  452.10239 35.0 8
  453.53436 21.0 5
  457.04016 17.0 4
  457.10297 244.0 54
  457.11789 149.0 33
  457.16861 18.0 4
  458.08688 81.0 18
  458.1301 41.0 9
  459.09763 36.0 8
  463.07849 28.0 6
  463.10175 180.0 40
  463.12595 49.0 11
  464.0578 22.0 5
  464.08917 27.0 6
  464.11655 66.0 15
  465.06317 24.0 5
  469.1087 51.0 11
  470.14148 52.0 11
  470.72394 19.0 4
  473.2547 21.0 5
  475.10388 140.0 31
  475.12244 65.0 14
  476.11768 62.0 14
  476.14905 29.0 6
  477.12054 21.0 5
  478.09116 17.0 4
  481.08618 57.0 13
  481.11511 324.0 71
  482.06998 26.0 6
  482.10895 125.0 27
  482.13953 47.0 10
  483.11984 52.0 11
  484.12527 49.0 11
  487.91074 21.0 5
  493.01523 29.0 6
  493.09976 118.0 26
  493.11438 178.0 39
  494.1105 22.0 5
  495.10754 23.0 5
  495.14374 17.0 4
  499.10803 59.0 13
  499.12433 138.0 30
  499.13901 116.0 25
  500.08932 28.0 6
  500.11475 24.0 5
  500.13544 130.0 29
  501.12949 18.0 4
  506.242 21.0 5
  510.98593 30.0 7
  511.06369 31.0 7
  511.12497 760.0 167
  511.99014 19.0 4
  512.12793 215.0 47
  513.10229 20.0 4
  513.14838 17.0 4
  529.1347 650.0 143
  529.159 101.0 22
  530.11444 57.0 13
  530.13989 191.0 42
  531.11603 17.0 4
  531.1449 56.0 12
  532.16791 22.0 5
  547.14636 1059.0 233
  548.07184 31.0 7
  548.1416 308.0 68
  548.17065 18.0 4
  549.14832 52.0 11
  549.24481 23.0 5
  556.98712 22.0 5
  562.8736 18.0 4
  565.04694 20.0 4
  565.10468 35.0 8
  565.15521 4545.0 999
//
