ACCESSION: MSBNK-RIKEN-PR300483
RECORD_TITLE: Sinomenine; LC-ESI-QTOF; MS2
DATE: 2019.03.28
AUTHORS: Tetsuya Mori, Center for Sustainable Resource Science, RIKEN
LICENSE: CC BY-NC-SA
PUBLICATION: Tsugawa H., Nakabayashi R., Mori T., Yamada Y., Takahashi M., Rai A., Sugiyama R., Yamamoto H., Nakaya T., Yamazaki M., Kooke R., Bac-Molenaar JA., Oztolan-Erol N., Keurentjes JJB., Arita M., Saito K. (2019) "A cheminformatics approach to characterize metabolomes in stable-isotope-labeled organisms" Nature Methods 16(4):295-298. [doi:10.1038/s41592-019-0358-2]
COMMENT: registered in RIKEN PlaSMA
CH$NAME: Sinomenine
CH$COMPOUND_CLASS: Morphinans
CH$FORMULA: C19H23NO4
CH$EXACT_MASS: 329.396
CH$SMILES: COC1=C[C@@H]2[C@@H]3CC4=C(C(O)=C(OC)C=C4)[C@]2(CCN3C)CC1=O
CH$IUPAC: InChI=1S/C19H23NO4/c1-20-7-6-19-10-14(21)16(24-3)9-12(19)13(20)8-11-4-5-15(23-2)18(22)17(11)19/h4-5,9,12-13,22H,6-8,10H2,1-3H3/t12-,13+,19-/m1/s1
CH$LINK: INCHIKEY INYYVPJSBIVGPH-QHRIQVFBSA-N
AC$INSTRUMENT: LC, Waters Acquity UPLC System; MS, Waters Xevo G2 Q-Tof
AC$INSTRUMENT_TYPE: LC-ESI-QTOF
AC$MASS_SPECTROMETRY: MS_TYPE MS2
AC$MASS_SPECTROMETRY: ION_MODE POSITIVE
AC$MASS_SPECTROMETRY: COLLISION_ENERGY 6V
AC$MASS_SPECTROMETRY: DESOLVATION_GAS_FLOW 800/h
AC$MASS_SPECTROMETRY: DESOLVATION_TEMPERATURE 450 C
AC$MASS_SPECTROMETRY: IONIZATION ESI
AC$CHROMATOGRAPHY: CAPILLARY_VOLTAGE +3.00 kV
AC$CHROMATOGRAPHY: COLUMN_NAME Acquity bridged ethyl hybrid C18 (1.7 um, 2.1 mm * 100 mm, Waters)
AC$CHROMATOGRAPHY: COLUMN_TEMPERATURE 40 C
AC$CHROMATOGRAPHY: FLOW_GRADIENT A/B = (99.5%/0.5% at 0 min, 99.5%/0.5% at 0.1 min, 20%/80% at 10 min, 0.5%/99.5% at 10.1 min, 0.5%/99.5% at 12.0 min, 99.5%/0.5% at 12.1 min, 99.5%/0.5% at 15.0 min)
AC$CHROMATOGRAPHY: FLOW_RATE 0.3 ml/min at 0 min, 0.3 ml/min at 10 min, 0.4 ml/min at 10.1 min, 0.4 ml/min at 14.4 min, 0.3 ml/min at 14.5 min
AC$CHROMATOGRAPHY: RETENTION_TIME 3.033383
AC$CHROMATOGRAPHY: SOLVENT A water including 0.1% formic acid
AC$CHROMATOGRAPHY: SOLVENT B acetonitrile including 0.1% formic acid
MS$FOCUSED_ION: PRECURSOR_TYPE [M+H]+
MS$FOCUSED_ION: PRECURSOR_M/Z 330.1699847
PK$SPLASH: splash10-0udi-0910000000-28cb2e19b2f377822b6d
PK$NUM_PEAK: 259
PK$PEAK: m/z int. rel.int.
  58.06132 6.0 6
  58.06588 16.0 16
  58.06898 12.0 12
  67.05358 5.0 5
  69.03092 5.0 5
  77.03768 7.0 7
  81.06522 6.0 6
  83.04568 8.0 8
  83.05304 7.0 7
  85.02236 5.0 5
  87.04378 7.0 7
  91.04654 23.0 23
  91.05509 66.0 66
  92.0631 6.0 6
  93.06895 8.0 8
  94.04193 21.0 21
  94.08107 6.0 6
  100.18652 6.0 6
  103.05544 21.0 21
  103.23038 6.0 6
  103.30897 7.0 7
  105.84593 5.0 5
  108.05371 8.0 8
  108.06083 5.0 5
  108.0794 13.0 13
  110.05972 7.0 7
  111.04768 8.0 8
  111.90243 6.0 6
  115.01918 7.0 7
  115.05327 42.0 42
  117.05881 13.0 13
  118.03521 6.0 6
  119.05465 9.0 9
  122.03801 25.0 25
  122.04727 9.0 9
  122.08658 9.0 9
  122.09447 6.0 6
  122.10758 5.0 5
  123.0438 5.0 5
  123.06893 13.0 13
  123.07924 32.0 32
  123.48234 7.0 7
  125.08646 8.0 8
  127.05721 45.0 45
  128.06372 67.0 67
  128.07532 13.0 13
  128.88588 6.0 6
  129.0658 17.0 17
  129.07439 29.0 29
  129.07977 8.0 8
  130.04301 9.0 9
  131.04359 16.0 16
  131.05196 9.0 9
  132.05505 9.0 9
  132.08058 12.0 12
  137.05951 53.0 53
  137.07048 6.0 6
  139.04176 10.0 10
  139.05486 32.0 32
  140.05144 23.0 23
  140.06274 176.0 176
  140.51945 5.0 5
  141.05342 16.0 16
  141.06766 126.0 126
  142.0639 6.0 6
  142.0752 42.0 42
  142.08919 5.0 5
  143.04761 26.0 26
  144.05753 54.0 54
  145.05888 10.0 10
  145.06772 8.0 8
  146.03439 30.0 30
  147.0453 11.0 11
  150.04488 27.0 27
  150.05424 8.0 8
  150.09082 68.0 68
  151.03662 9.0 9
  151.04961 170.0 170
  151.05705 324.0 324
  151.07164 10.0 10
  151.79617 9.0 9
  152.06276 1000.0 999
  152.10695 8.0 8
  153.03714 10.0 10
  153.05464 81.0 81
  153.07054 835.0 834
  153.3882 6.0 6
  154.07315 195.0 195
  154.14854 6.0 6
  155.04738 23.0 23
  155.05435 33.0 33
  155.06659 10.0 10
  155.07784 19.0 19
  155.08691 18.0 18
  156.05429 40.0 40
  157.05263 18.0 18
  157.06502 11.0 11
  158.07619 5.0 5
  159.04211 11.0 11
  159.06735 10.0 10
  159.08151 18.0 18
  159.09006 22.0 22
  160.05493 9.0 9
  161.06226 18.0 18
  163.05406 23.0 23
  164.05222 8.0 8
  164.06223 40.0 40
  165.07262 393.0 393
  166.06903 74.0 74
  166.0791 59.0 59
  166.09064 10.0 10
  167.05626 13.0 13
  167.08331 53.0 53
  167.09364 14.0 14
  168.05786 457.0 457
  168.07867 6.0 6
  168.08759 10.0 10
  168.69446 7.0 7
  169.06232 132.0 132
  169.07851 16.0 16
  170.06093 7.0 7
  170.06552 14.0 14
  170.07771 46.0 46
  170.21719 5.0 5
  171.04707 18.0 18
  171.08186 14.0 14
  171.09282 8.0 8
  172.04199 15.0 15
  172.04805 40.0 40
  172.06311 10.0 10
  173.04929 11.0 11
  173.06429 20.0 20
  175.07387 9.0 9
  176.04433 8.0 8
  176.0591 52.0 52
  176.07294 11.0 11
  177.06107 16.0 16
  177.07033 53.0 53
  177.07761 22.0 22
  178.06276 17.0 17
  178.07938 191.0 191
  179.02791 9.0 9
  179.03758 25.0 25
  179.05038 197.0 197
  179.08522 102.0 102
  179.13139 6.0 6
  180.04958 38.0 38
  180.05728 153.0 153
  180.07774 5.0 5
  180.08801 10.0 10
  180.74402 6.0 6
  181.06538 565.0 564
  182.06071 33.0 33
  182.07153 166.0 166
  182.08725 11.0 11
  182.10077 9.0 9
  183.03873 9.0 9
  183.05048 17.0 17
  183.06868 29.0 29
  183.07799 30.0 30
  184.05267 15.0 15
  185.05811 69.0 69
  185.07095 9.0 9
  186.07098 7.0 7
  186.10661 10.0 10
  187.07405 59.0 59
  189.0692 32.0 32
  189.08673 5.0 5
  190.06978 23.0 23
  191.04701 11.0 11
  191.08348 17.0 17
  192.05455 23.0 23
  192.06166 19.0 19
  192.08194 5.0 5
  192.09766 10.0 10
  192.10843 5.0 5
  192.67278 5.0 5
  193.06499 24.0 24
  193.1106 11.0 11
  193.36734 6.0 6
  194.05473 8.0 8
  194.07339 35.0 35
  194.09952 11.0 11
  195.04146 9.0 9
  195.04932 11.0 11
  195.08246 112.0 112
  195.11642 6.0 6
  196.04597 48.0 48
  196.05409 145.0 145
  196.07422 6.0 6
  197.04449 8.0 8
  197.05354 38.0 38
  197.0621 57.0 57
  197.07545 17.0 17
  197.09477 21.0 21
  198.06648 102.0 102
  199.02312 8.0 8
  199.03992 11.0 11
  199.07167 32.0 32
  199.08246 22.0 22
  200.05185 7.0 7
  200.05981 6.0 6
  200.07965 8.0 8
  200.11279 6.0 6
  201.05223 11.0 11
  201.06508 14.0 14
  201.55663 6.0 6
  204.06662 5.0 5
  205.05263 6.0 6
  205.0697 49.0 49
  206.03563 6.0 6
  206.06172 11.0 11
  206.07298 18.0 18
  207.04565 343.0 343
  207.07814 20.0 20
  207.09097 6.0 6
  208.0506 125.0 125
  208.06679 22.0 22
  209.0578 60.0 60
  210.06483 23.0 23
  210.0957 7.0 7
  211.07202 65.0 65
  211.08076 61.0 61
  212.04704 23.0 23
  212.0835 32.0 32
  213.04507 11.0 11
  213.05847 17.0 17
  213.07895 6.0 6
  213.09685 29.0 29
  214.05975 15.0 15
  214.08723 5.0 5
  215.07797 11.0 11
  221.0582 18.0 18
  221.0692 16.0 16
  221.08667 5.0 5
  223.07657 29.0 29
  224.03973 12.0 12
  224.05475 8.0 8
  224.07391 15.0 15
  224.08864 12.0 12
  225.03163 5.0 5
  225.05176 17.0 17
  225.10072 14.0 14
  226.0612 21.0 21
  226.0735 6.0 6
  227.06783 38.0 38
  227.09579 7.0 7
  228.07735 16.0 16
  236.11076 9.0 9
  237.06116 11.0 11
  238.07884 11.0 11
  239.06773 8.0 8
  239.07857 6.0 6
  241.076 9.0 9
  245.1183 8.0 8
  254.05711 5.0 5
  254.11719 16.0 16
  313.12259 6.0 6
  330.17413 17.0 17
//
