ACCESSION: MSBNK-RIKEN-PR306349
RECORD_TITLE: Peonidin-3-O-glucoside; LC-ESI-QTOF; MS2
DATE: 2019.03.28
AUTHORS: Tetsuya Mori, Center for Sustainable Resource Science, RIKEN
LICENSE: CC BY-NC-SA
PUBLICATION: Tsugawa H., Nakabayashi R., Mori T., Yamada Y., Takahashi M., Rai A., Sugiyama R., Yamamoto H., Nakaya T., Yamazaki M., Kooke R., Bac-Molenaar JA., Oztolan-Erol N., Keurentjes JJB., Arita M., Saito K. (2019) "A cheminformatics approach to characterize metabolomes in stable-isotope-labeled organisms" Nature Methods 16(4):295-298. [doi:10.1038/s41592-019-0358-2]
COMMENT: registered in RIKEN PlaSMA
CH$NAME: Peonidin-3-O-glucoside
CH$COMPOUND_CLASS: Anthocyanidin-3-O-glycosides
CH$FORMULA: [C22H23O11]+
CH$EXACT_MASS: 463.415
CH$SMILES: COC1=C(O)C=CC(=C1)C1=C(OC2OC(CO)C(O)C(O)C2O)C=C2C(O)=CC(O)=CC2=[O+]1
CH$IUPAC: InChI=1S/C22H22O11/c1-30-15-4-9(2-3-12(15)25)21-16(7-11-13(26)5-10(24)6-14(11)31-21)32-22-20(29)19(28)18(27)17(8-23)33-22/h2-7,17-20,22-23,27-29H,8H2,1H3,(H2-,24,25,26)/p+1
CH$LINK: INCHIKEY ZZWPMFROUHHAKY-UHFFFAOYSA-O
AC$INSTRUMENT: LC, Waters Acquity UPLC System; MS, Waters Xevo G2 Q-Tof
AC$INSTRUMENT_TYPE: LC-ESI-QTOF
AC$MASS_SPECTROMETRY: MS_TYPE MS2
AC$MASS_SPECTROMETRY: ION_MODE NEGATIVE
AC$MASS_SPECTROMETRY: COLLISION_ENERGY 6V
AC$MASS_SPECTROMETRY: DESOLVATION_GAS_FLOW 800/h
AC$MASS_SPECTROMETRY: DESOLVATION_TEMPERATURE 450 C
AC$MASS_SPECTROMETRY: IONIZATION ESI
AC$CHROMATOGRAPHY: CAPILLARY_VOLTAGE -2.75 kV
AC$CHROMATOGRAPHY: COLUMN_NAME Acquity bridged ethyl hybrid C18 (1.7 um, 2.1 mm * 100 mm, Waters)
AC$CHROMATOGRAPHY: COLUMN_TEMPERATURE 40 C
AC$CHROMATOGRAPHY: FLOW_GRADIENT A/B = (99.5%/0.5% at 0 min, 99.5%/0.5% at 0.1 min, 20%/80% at 10 min, 0.5%/99.5% at 10.1 min, 0.5%/99.5% at 12.0 min, 99.5%/0.5% at 12.1 min, 99.5%/0.5% at 15.0 min)
AC$CHROMATOGRAPHY: FLOW_RATE 0.3 ml/min at 0 min, 0.3 ml/min at 10 min, 0.4 ml/min at 10.1 min, 0.4 ml/min at 14.4 min, 0.3 ml/min at 14.5 min
AC$CHROMATOGRAPHY: RETENTION_TIME 3.20225
AC$CHROMATOGRAPHY: SOLVENT A water including 0.1% formic acid
AC$CHROMATOGRAPHY: SOLVENT B acetonitrile including 0.1% formic acid
MS$FOCUSED_ION: PRECURSOR_TYPE [M-2H]-
MS$FOCUSED_ION: PRECURSOR_M/Z 461.10838651576
PK$SPLASH: splash10-001j-0090000000-02580328afd251df1f92
PK$NUM_PEAK: 46
PK$PEAK: m/z int. rel.int.
  108.02105 21.0 21
  147.00555 83.0 83
  147.01228 26.0 26
  153.04147 23.0 23
  164.00941 18.0 18
  165.01965 23.0 23
  182.03412 33.0 33
  187.04271 26.0 26
  198.07147 21.0 21
  210.03745 32.0 32
  211.03291 30.0 30
  214.03287 24.0 24
  227.03081 20.0 20
  230.69357 20.0 20
  239.02975 79.0 79
  239.04008 47.0 47
  240.04274 42.0 42
  240.05417 20.0 20
  241.03603 29.0 29
  241.04677 25.0 25
  242.02583 61.0 61
  243.03059 22.0 22
  244.03908 25.0 25
  254.01828 23.0 23
  255.0238 118.0 118
  255.03378 56.0 56
  255.04451 38.0 38
  256.03976 231.0 231
  256.99829 44.0 44
  257.03998 18.0 18
  266.0224 32.0 32
  267.922 46.0 46
  271.05698 44.0 44
  272.03149 35.0 35
  283.02429 1000.0 999
  283.06299 18.0 18
  283.08539 24.0 24
  284.02533 651.0 650
  284.0383 221.0 221
  285.03165 131.0 131
  285.05508 28.0 28
  298.04504 533.0 532
  299.05347 429.0 429
  300.0441 69.0 69
  300.06067 80.0 80
  301.06604 28.0 28
//
