ACCESSION: MSBNK-RIKEN-PR301569
RECORD_TITLE: Vincamine; LC-ESI-QTOF; MS2
DATE: 2019.03.28
AUTHORS: Tetsuya Mori, Center for Sustainable Resource Science, RIKEN
LICENSE: CC BY-NC-SA
PUBLICATION: Tsugawa H., Nakabayashi R., Mori T., Yamada Y., Takahashi M., Rai A., Sugiyama R., Yamamoto H., Nakaya T., Yamazaki M., Kooke R., Bac-Molenaar JA., Oztolan-Erol N., Keurentjes JJB., Arita M., Saito K. (2019) "A cheminformatics approach to characterize metabolomes in stable-isotope-labeled organisms" Nature Methods 16(4):295-298. [doi:10.1038/s41592-019-0358-2]
COMMENT: registered in RIKEN PlaSMA
CH$NAME: Vincamine
CH$COMPOUND_CLASS: Eburnan-type alkaloids
CH$FORMULA: C21H26N2O3
CH$EXACT_MASS: 354.45
CH$SMILES: CCC12CCCN3CCC4=C(C13)N(C1=CC=CC=C41)C(O)(C2)C(=O)OC
CH$IUPAC: InChI=1S/C21H26N2O3/c1-3-20-10-6-11-22-12-9-15-14-7-4-5-8-16(14)23(17(15)18(20)22)21(25,13-20)19(24)26-2/h4-5,7-8,18,25H,3,6,9-13H2,1-2H3
CH$LINK: INCHIKEY RXPRRQLKFXBCSJ-UHFFFAOYSA-N
AC$INSTRUMENT: LC, Waters Acquity UPLC System; MS, Waters Xevo G2 Q-Tof
AC$INSTRUMENT_TYPE: LC-ESI-QTOF
AC$MASS_SPECTROMETRY: MS_TYPE MS2
AC$MASS_SPECTROMETRY: ION_MODE POSITIVE
AC$MASS_SPECTROMETRY: COLLISION_ENERGY 6V
AC$MASS_SPECTROMETRY: DESOLVATION_GAS_FLOW 800/h
AC$MASS_SPECTROMETRY: DESOLVATION_TEMPERATURE 450 C
AC$MASS_SPECTROMETRY: IONIZATION ESI
AC$CHROMATOGRAPHY: CAPILLARY_VOLTAGE +3.00 kV
AC$CHROMATOGRAPHY: COLUMN_NAME Acquity bridged ethyl hybrid C18 (1.7 um, 2.1 mm * 100 mm, Waters)
AC$CHROMATOGRAPHY: COLUMN_TEMPERATURE 40 C
AC$CHROMATOGRAPHY: FLOW_GRADIENT A/B = (99.5%/0.5% at 0 min, 99.5%/0.5% at 0.1 min, 20%/80% at 10 min, 0.5%/99.5% at 10.1 min, 0.5%/99.5% at 12.0 min, 99.5%/0.5% at 12.1 min, 99.5%/0.5% at 15.0 min)
AC$CHROMATOGRAPHY: FLOW_RATE 0.3 ml/min at 0 min, 0.3 ml/min at 10 min, 0.4 ml/min at 10.1 min, 0.4 ml/min at 14.4 min, 0.3 ml/min at 14.5 min
AC$CHROMATOGRAPHY: RETENTION_TIME 4.50125
AC$CHROMATOGRAPHY: SOLVENT A water including 0.1% formic acid
AC$CHROMATOGRAPHY: SOLVENT B acetonitrile including 0.1% formic acid
MS$FOCUSED_ION: PRECURSOR_TYPE [M+H]+
MS$FOCUSED_ION: PRECURSOR_M/Z 355.2016192
PK$SPLASH: splash10-0i03-0490000000-42ec8ea1628dc1d199a1
PK$NUM_PEAK: 511
PK$PEAK: m/z int. rel.int.
  55.01939 7.0 7
  55.05347 6.0 6
  56.0477 6.0 6
  56.06236 6.0 6
  67.04908 7.0 7
  67.05511 22.0 22
  68.27584 9.0 9
  69.93452 9.0 9
  70.06621 42.0 42
  77.03379 14.0 14
  77.04321 8.0 8
  79.05671 31.0 31
  81.03548 7.0 7
  81.04742 8.0 8
  81.0678 8.0 8
  81.0724 19.0 19
  82.06152 5.0 5
  83.04437 10.0 10
  83.04807 25.0 25
  83.05454 13.0 13
  83.09013 5.0 5
  84.0536 7.0 7
  86.3008 6.0 6
  90.0507 15.0 15
  91.0457 8.0 8
  91.05429 98.0 98
  91.06173 13.0 13
  92.05157 8.0 8
  92.0578 15.0 15
  93.04024 7.0 7
  93.07153 71.0 71
  94.05601 13.0 13
  95.04882 6.0 6
  95.07121 14.0 14
  95.07995 7.0 7
  95.08844 84.0 84
  96.07524 12.0 12
  96.08134 32.0 32
  96.09206 10.0 10
  98.09737 8.0 8
  99.06589 8.0 8
  102.57563 6.0 6
  103.0543 20.0 20
  104.05621 15.0 15
  104.5873 8.0 8
  105.06162 17.0 17
  105.07034 62.0 62
  106.06815 40.0 40
  107.04697 12.0 12
  107.07976 13.0 13
  107.08906 30.0 30
  108.0388 6.0 6
  108.08267 34.0 34
  109.06317 18.0 18
  109.08994 27.0 27
  110.09769 77.0 77
  111.0817 6.0 6
  111.09689 9.0 9
  111.10806 8.0 8
  112.10687 5.0 5
  112.11323 6.0 6
  115.03709 6.0 6
  115.0509 24.0 24
  115.05913 46.0 46
  116.03188 9.0 9
  116.04714 7.0 7
  116.05616 26.0 26
  117.07024 169.0 169
  118.06705 27.0 27
  118.07388 35.0 35
  119.07779 6.0 6
  119.08676 20.0 20
  120.04742 10.0 10
  120.05727 8.0 8
  120.08383 28.0 28
  121.06886 13.0 13
  122.05315 5.0 5
  122.09614 17.0 17
  123.06754 20.0 20
  123.08339 13.0 13
  123.10416 12.0 12
  123.86391 5.0 5
  124.07799 27.0 27
  124.11237 123.0 123
  124.51823 6.0 6
  125.07682 7.0 7
  125.11429 7.0 7
  125.12073 7.0 7
  127.05186 30.0 30
  127.05867 46.0 46
  128.04993 46.0 46
  128.05978 11.0 11
  128.06725 14.0 14
  129.04951 5.0 5
  129.06578 13.0 13
  129.0728 31.0 31
  130.0654 107.0 107
  131.07349 40.0 40
  132.05621 6.0 6
  132.06371 8.0 8
  132.08287 74.0 74
  133.06467 5.0 5
  133.08345 6.0 6
  134.05371 5.0 5
  134.06813 12.0 12
  134.09265 65.0 65
  134.10149 12.0 12
  135.05025 9.0 9
  135.08318 11.0 11
  136.05467 5.0 5
  136.0696 7.0 7
  136.07674 10.0 10
  136.08623 10.0 10
  138.0965 6.0 6
  138.12242 7.0 7
  138.12944 26.0 26
  139.04305 6.0 6
  141.02148 8.0 8
  141.04128 7.0 7
  142.05838 9.0 9
  142.06709 29.0 29
  143.07368 163.0 163
  143.25851 8.0 8
  144.0336 7.0 7
  144.05678 7.0 7
  144.08076 795.0 794
  145.04445 5.0 5
  145.05373 12.0 12
  145.06419 6.0 6
  145.07224 23.0 23
  145.08525 73.0 73
  146.09401 12.0 12
  146.75011 7.0 7
  147.07509 7.0 7
  148.07162 6.0 6
  149.06441 11.0 11
  149.08682 6.0 6
  150.06152 7.0 7
  150.12173 6.0 6
  152.07365 13.0 13
  152.09607 6.0 6
  152.10927 57.0 57
  153.06158 24.0 24
  153.07285 19.0 19
  153.10852 20.0 20
  153.12138 8.0 8
  154.03682 5.0 5
  154.06207 12.0 12
  154.07005 24.0 24
  154.08623 6.0 6
  155.07573 46.0 46
  156.08017 30.0 30
  156.08664 22.0 22
  156.10254 6.0 6
  157.07899 7.0 7
  157.08832 24.0 24
  158.08084 17.0 17
  158.09732 22.0 22
  161.11819 5.0 5
  161.16298 5.0 5
  162.08302 6.0 6
  162.09361 7.0 7
  163.14534 7.0 7
  165.06737 23.0 23
  165.07851 17.0 17
  166.06134 32.0 32
  166.07214 37.0 37
  166.08209 23.0 23
  167.0672 60.0 60
  167.08191 36.0 36
  168.06671 7.0 7
  168.08635 73.0 73
  169.05234 7.0 7
  169.08624 52.0 52
  170.05461 10.0 10
  170.06203 32.0 32
  170.07822 9.0 9
  170.08574 6.0 6
  170.09726 9.0 9
  170.10617 18.0 18
  170.11066 7.0 7
  171.10222 13.0 13
  172.12035 9.0 9
  173.10727 6.0 6
  176.04852 5.0 5
  177.10188 6.0 6
  178.04875 12.0 12
  178.06621 7.0 7
  178.07693 41.0 41
  178.09506 12.0 12
  179.0683 19.0 19
  179.0802 33.0 33
  179.08644 15.0 15
  180.08153 246.0 246
  180.09875 17.0 17
  180.27026 13.0 13
  180.77306 7.0 7
  181.08682 98.0 98
  181.09789 33.0 33
  182.07716 14.0 14
  182.09998 52.0 52
  183.07852 22.0 22
  183.10428 12.0 12
  183.11757 5.0 5
  184.09944 12.0 12
  184.11346 14.0 14
  185.11758 13.0 13
  188.07953 8.0 8
  189.06314 6.0 6
  189.07571 11.0 11
  190.05548 22.0 22
  190.06464 17.0 17
  190.07187 16.0 16
  190.0798 14.0 14
  190.9948 7.0 7
  191.03751 6.0 6
  191.04539 8.0 8
  191.0746 133.0 133
  191.12083 7.0 7
  191.14529 5.0 5
  192.05252 11.0 11
  192.08438 171.0 171
  192.09227 52.0 52
  192.86482 10.0 10
  193.07158 28.0 28
  193.08365 91.0 91
  193.09143 197.0 197
  193.11215 6.0 6
  193.92485 5.0 5
  194.05878 5.0 5
  194.07422 12.0 12
  194.08282 23.0 23
  194.10063 167.0 167
  194.66595 9.0 9
  195.07698 13.0 13
  195.08937 8.0 8
  195.10115 52.0 52
  195.11765 9.0 9
  196.06987 5.0 5
  196.08754 8.0 8
  196.11104 22.0 22
  196.12009 16.0 16
  197.07703 7.0 7
  197.09779 11.0 11
  197.10921 5.0 5
  197.3266 10.0 10
  198.13235 8.0 8
  199.08792 9.0 9
  200.06485 7.0 7
  202.08667 5.0 5
  202.10127 6.0 6
  203.06322 8.0 8
  203.07179 11.0 11
  203.0856 20.0 20
  203.09358 20.0 20
  204.08081 499.0 499
  204.12608 7.0 7
  204.9776 5.0 5
  205.02121 10.0 10
  205.06534 13.0 13
  205.07887 77.0 77
  205.08949 330.0 330
  205.13609 6.0 6
  205.54051 6.0 6
  205.78111 8.0 8
  206.06004 10.0 10
  206.08514 77.0 77
  206.09862 270.0 270
  207.09125 29.0 29
  207.10495 248.0 248
  207.94041 5.0 5
  208.06598 5.0 5
  208.07689 6.0 6
  208.11195 226.0 226
  208.53255 5.0 5
  209.07704 16.0 16
  209.10463 59.0 59
  209.11729 141.0 141
  210.08971 18.0 18
  210.11554 39.0 39
  210.13109 10.0 10
  211.1172 7.0 7
  211.12837 10.0 10
  211.13681 9.0 9
  212.10292 8.0 8
  212.1264 8.0 8
  213.07736 5.0 5
  214.08107 7.0 7
  214.45351 6.0 6
  215.07806 16.0 16
  216.08232 12.0 12
  216.09216 35.0 35
  216.10077 12.0 12
  217.08429 134.0 134
  217.11378 8.0 8
  218.06647 12.0 12
  218.08006 34.0 34
  218.08984 92.0 92
  218.10051 247.0 247
  218.71074 5.0 5
  219.10474 365.0 365
  219.2991 6.0 6
  220.0706 21.0 21
  220.11012 335.0 335
  220.13255 12.0 12
  220.15971 5.0 5
  220.34386 11.0 11
  221.08304 10.0 10
  221.11562 169.0 169
  222.08192 7.0 7
  222.09285 7.0 7
  222.10619 7.0 7
  222.11803 52.0 52
  222.12971 96.0 96
  222.87715 6.0 6
  222.98705 7.0 7
  223.06657 11.0 11
  223.09579 6.0 6
  223.10448 9.0 9
  223.12137 29.0 29
  223.1347 24.0 24
  223.16518 6.0 6
  224.11629 7.0 7
  224.12546 13.0 13
  224.14867 13.0 13
  224.15854 9.0 9
  225.07544 13.0 13
  225.11826 17.0 17
  225.1284 12.0 12
  228.08801 6.0 6
  229.12865 5.0 5
  230.09502 23.0 23
  231.05934 5.0 5
  231.11345 29.0 29
  232.0777 49.0 49
  232.11223 101.0 101
  232.28473 5.0 5
  233.08633 30.0 30
  233.09709 22.0 22
  233.11909 47.0 47
  234.09311 16.0 16
  234.1089 17.0 17
  234.12683 181.0 181
  234.13976 37.0 37
  234.52698 11.0 11
  235.08154 7.0 7
  235.0997 14.0 14
  235.13216 82.0 82
  236.06898 27.0 27
  236.08022 6.0 6
  236.10887 28.0 28
  236.12764 16.0 16
  236.14125 17.0 17
  236.15085 7.0 7
  237.08258 26.0 26
  237.10773 5.0 5
  237.13579 20.0 20
  237.14252 53.0 53
  238.06009 15.0 15
  238.08627 211.0 211
  238.10001 36.0 36
  238.1237 14.0 14
  238.13852 8.0 8
  238.16835 6.0 6
  238.62512 7.0 7
  239.08591 28.0 28
  239.09927 55.0 55
  239.12694 9.0 9
  239.1618 24.0 24
  240.08179 16.0 16
  240.10098 16.0 16
  242.0986 6.0 6
  244.06851 7.0 7
  244.11502 6.0 6
  245.10745 6.0 6
  246.09084 6.0 6
  246.09871 6.0 6
  246.12206 17.0 17
  246.13614 16.0 16
  247.09642 36.0 36
  247.10835 43.0 43
  247.13469 59.0 59
  247.7467 5.0 5
  248.07283 9.0 9
  248.09415 6.0 6
  248.12135 21.0 21
  248.13359 29.0 29
  248.15244 13.0 13
  248.44289 5.0 5
  249.01265 5.0 5
  249.07327 12.0 12
  249.08498 18.0 18
  249.10991 6.0 6
  249.13463 22.0 22
  249.14465 20.0 20
  249.1557 9.0 9
  249.98048 5.0 5
  250.05891 9.0 9
  250.0842 184.0 184
  250.12177 12.0 12
  250.13985 9.0 9
  250.16177 12.0 12
  250.27353 5.0 5
  251.05693 8.0 8
  251.09454 342.0 342
  251.14423 9.0 9
  251.15746 11.0 11
  251.19975 6.0 6
  251.5571 5.0 5
  252.07472 15.0 15
  252.10016 269.0 269
  252.11957 18.0 18
  252.16669 5.0 5
  252.21025 8.0 8
  253.07298 7.0 7
  253.10226 66.0 66
  253.11966 49.0 49
  254.07211 6.0 6
  254.11259 23.0 23
  254.12387 21.0 21
  255.12474 14.0 14
  256.10699 7.0 7
  258.1308 6.0 6
  260.10001 8.0 8
  260.14529 5.0 5
  261.12967 6.0 6
  262.07251 9.0 9
  262.08694 35.0 35
  262.09659 23.0 23
  262.1134 6.0 6
  262.1579 7.0 7
  262.17383 5.0 5
  263.07675 7.0 7
  263.09604 59.0 59
  263.12469 20.0 20
  264.06058 7.0 7
  264.1044 1000.0 999
  264.98853 7.0 7
  265.07425 13.0 13
  265.09476 83.0 83
  265.10818 337.0 337
  265.11929 121.0 121
  265.3627 9.0 9
  266.07578 9.0 9
  266.1185 431.0 431
  267.10419 24.0 24
  267.12189 99.0 99
  267.13565 26.0 26
  267.14987 5.0 5
  268.12073 14.0 14
  268.13156 20.0 20
  268.14899 9.0 9
  268.16934 6.0 6
  270.12961 7.0 7
  270.16495 6.0 6
  275.08774 15.0 15
  275.1051 18.0 18
  275.12677 25.0 25
  276.08664 11.0 11
  276.10507 53.0 53
  276.13565 15.0 15
  276.79196 6.0 6
  277.06641 6.0 6
  277.09561 7.0 7
  277.10492 13.0 13
  277.1185 12.0 12
  277.14285 11.0 11
  277.18076 12.0 12
  278.04132 6.0 6
  278.08493 18.0 18
  278.11609 372.0 372
  278.12656 169.0 169
  278.17017 5.0 5
  278.31171 5.0 5
  279.12253 181.0 181
  279.5499 6.0 6
  280.11255 24.0 24
  280.13318 212.0 212
  280.15027 31.0 31
  280.16595 5.0 5
  281.14215 78.0 78
  281.16013 8.0 8
  282.13559 5.0 5
  282.14862 17.0 17
  285.77631 6.0 6
  290.11313 24.0 24
  290.12622 35.0 35
  291.05966 5.0 5
  291.11554 28.0 28
  291.13348 15.0 15
  292.12097 101.0 101
  292.14273 68.0 68
  293.12161 13.0 13
  293.14371 30.0 30
  294.10898 10.0 10
  294.14505 78.0 78
  294.16327 26.0 26
  295.13602 6.0 6
  300.15768 6.0 6
  301.37985 6.0 6
  304.12958 23.0 23
  305.14038 8.0 8
  306.1394 6.0 6
  307.13763 58.0 58
  307.15012 58.0 58
  308.14459 6.0 6
  308.15762 6.0 6
  308.177 6.0 6
  310.11801 8.0 8
  335.16513 7.0 7
  337.19321 7.0 7
//
