ACCESSION: MSBNK-RIKEN-PR300092
RECORD_TITLE: Kopsinoline; LC-ESI-QTOF; MS2
DATE: 2019.03.28
AUTHORS: Tetsuya Mori, Center for Sustainable Resource Science, RIKEN
LICENSE: CC BY-NC-SA
PUBLICATION: Tsugawa H., Nakabayashi R., Mori T., Yamada Y., Takahashi M., Rai A., Sugiyama R., Yamamoto H., Nakaya T., Yamazaki M., Kooke R., Bac-Molenaar JA., Oztolan-Erol N., Keurentjes JJB., Arita M., Saito K. (2019) "A cheminformatics approach to characterize metabolomes in stable-isotope-labeled organisms" Nature Methods 16(4):295-298. [doi:10.1038/s41592-019-0358-2]
COMMENT: registered in RIKEN PlaSMA
CH$NAME: Kopsinoline
CH$COMPOUND_CLASS: Aspidofractine alkaloids
CH$FORMULA: C21H26N2O3
CH$EXACT_MASS: 354.45
CH$SMILES: COC(=O)[C@@H]1C[C@@]23CCC[N@@]4(=O)CC[C@@]5([C@@H]24)C2=CC=CC=C2N[C@@]15CC3
CH$IUPAC: InChI=1S/C21H26N2O3/c1-26-17(24)15-13-19-7-4-11-23(25)12-10-20(18(19)23)14-5-2-3-6-16(14)22-21(15,20)9-8-19/h2-3,5-6,15,18,22H,4,7-13H2,1H3/t15-,18+,19-,20-,21-,23+/m0/s1
CH$LINK: INCHIKEY KWXHCCIXBUPHTG-ICLMVOIRSA-N
AC$INSTRUMENT: LC, Waters Acquity UPLC System; MS, Waters Xevo G2 Q-Tof
AC$INSTRUMENT_TYPE: LC-ESI-QTOF
AC$MASS_SPECTROMETRY: MS_TYPE MS2
AC$MASS_SPECTROMETRY: ION_MODE POSITIVE
AC$MASS_SPECTROMETRY: COLLISION_ENERGY 6V
AC$MASS_SPECTROMETRY: DESOLVATION_GAS_FLOW 800/h
AC$MASS_SPECTROMETRY: DESOLVATION_TEMPERATURE 450 C
AC$MASS_SPECTROMETRY: IONIZATION ESI
AC$CHROMATOGRAPHY: CAPILLARY_VOLTAGE +3.00 kV
AC$CHROMATOGRAPHY: COLUMN_NAME Acquity bridged ethyl hybrid C18 (1.7 um, 2.1 mm * 100 mm, Waters)
AC$CHROMATOGRAPHY: COLUMN_TEMPERATURE 40 C
AC$CHROMATOGRAPHY: FLOW_GRADIENT A/B = (99.5%/0.5% at 0 min, 99.5%/0.5% at 0.1 min, 20%/80% at 10 min, 0.5%/99.5% at 10.1 min, 0.5%/99.5% at 12.0 min, 99.5%/0.5% at 12.1 min, 99.5%/0.5% at 15.0 min)
AC$CHROMATOGRAPHY: FLOW_RATE 0.3 ml/min at 0 min, 0.3 ml/min at 10 min, 0.4 ml/min at 10.1 min, 0.4 ml/min at 14.4 min, 0.3 ml/min at 14.5 min
AC$CHROMATOGRAPHY: RETENTION_TIME 4.177267
AC$CHROMATOGRAPHY: SOLVENT A water including 0.1% formic acid
AC$CHROMATOGRAPHY: SOLVENT B acetonitrile including 0.1% formic acid
MS$FOCUSED_ION: PRECURSOR_TYPE [M+H]+
MS$FOCUSED_ION: PRECURSOR_M/Z 355.2016192
PK$SPLASH: splash10-00di-0913000000-e640856b851e2380f388
PK$NUM_PEAK: 39
PK$PEAK: m/z int. rel.int.
  108.08095 10.0 10
  109.08829 89.0 89
  110.09312 7.0 7
  122.09464 6.0 6
  124.08294 6.0 6
  124.11126 1000.0 999
  124.14269 13.0 13
  125.11407 106.0 106
  135.09854 6.0 6
  135.1071 5.0 5
  136.11125 19.0 19
  156.07607 6.0 6
  209.10014 5.0 5
  209.10938 12.0 12
  215.09511 12.0 12
  216.10208 5.0 5
  223.12572 10.0 10
  224.12601 9.0 9
  237.13953 7.0 7
  250.15366 6.0 6
  251.1532 36.0 36
  252.14908 6.0 6
  252.16254 16.0 16
  253.10896 7.0 7
  253.16669 5.0 5
  265.17459 9.0 9
  279.18912 10.0 10
  305.16434 29.0 29
  306.1622 12.0 12
  309.16248 9.0 9
  310.16766 85.0 85
  311.168 15.0 15
  337.17319 10.0 10
  337.19327 26.0 26
  338.19916 184.0 184
  339.19208 15.0 15
  339.2034 35.0 35
  340.20978 7.0 7
  355.19974 111.0 111
//
