ACCESSION: MSBNK-RIKEN-PR301819
RECORD_TITLE: Cinchonidine; LC-ESI-QTOF; MS2
DATE: 2019.03.28
AUTHORS: Tetsuya Mori, Center for Sustainable Resource Science, RIKEN
LICENSE: CC BY-NC-SA
PUBLICATION: Tsugawa H., Nakabayashi R., Mori T., Yamada Y., Takahashi M., Rai A., Sugiyama R., Yamamoto H., Nakaya T., Yamazaki M., Kooke R., Bac-Molenaar JA., Oztolan-Erol N., Keurentjes JJB., Arita M., Saito K. (2019) "A cheminformatics approach to characterize metabolomes in stable-isotope-labeled organisms" Nature Methods 16(4):295-298. [doi:10.1038/s41592-019-0358-2]
COMMENT: registered in RIKEN PlaSMA
CH$NAME: Cinchonidine
CH$COMPOUND_CLASS: Cinchona alkaloids
CH$FORMULA: C19H22N2O
CH$EXACT_MASS: 294.398
CH$SMILES: C=C[C@H]1CN2CC[C@H]1C[C@H]2[C@@H](C3=CC=NC4=CC=CC=C34)O
CH$IUPAC: InChI=1S/C19H22N2O/c1-2-13-12-21-10-8-14(13)11-18(21)19(22)16-7-9-20-17-6-4-3-5-15(16)17/h2-7,9,13-14,18-19,22H,1,8,10-12H2/t13-,14-,18-,19+/m0/s1
CH$LINK: INCHIKEY KMPWYEUPVWOPIM-KODHJQJWSA-N
AC$INSTRUMENT: LC, Waters Acquity UPLC System; MS, Waters Xevo G2 Q-Tof
AC$INSTRUMENT_TYPE: LC-ESI-QTOF
AC$MASS_SPECTROMETRY: MS_TYPE MS2
AC$MASS_SPECTROMETRY: ION_MODE POSITIVE
AC$MASS_SPECTROMETRY: COLLISION_ENERGY 6V
AC$MASS_SPECTROMETRY: DESOLVATION_GAS_FLOW 800/h
AC$MASS_SPECTROMETRY: DESOLVATION_TEMPERATURE 450 C
AC$MASS_SPECTROMETRY: IONIZATION ESI
AC$CHROMATOGRAPHY: CAPILLARY_VOLTAGE +3.00 kV
AC$CHROMATOGRAPHY: COLUMN_NAME Acquity bridged ethyl hybrid C18 (1.7 um, 2.1 mm * 100 mm, Waters)
AC$CHROMATOGRAPHY: COLUMN_TEMPERATURE 40 C
AC$CHROMATOGRAPHY: FLOW_GRADIENT A/B = (99.5%/0.5% at 0 min, 99.5%/0.5% at 0.1 min, 20%/80% at 10 min, 0.5%/99.5% at 10.1 min, 0.5%/99.5% at 12.0 min, 99.5%/0.5% at 12.1 min, 99.5%/0.5% at 15.0 min)
AC$CHROMATOGRAPHY: FLOW_RATE 0.3 ml/min at 0 min, 0.3 ml/min at 10 min, 0.4 ml/min at 10.1 min, 0.4 ml/min at 14.4 min, 0.3 ml/min at 14.5 min
AC$CHROMATOGRAPHY: RETENTION_TIME 3.1463
AC$CHROMATOGRAPHY: SOLVENT A water including 0.1% formic acid
AC$CHROMATOGRAPHY: SOLVENT B acetonitrile including 0.1% formic acid
MS$FOCUSED_ION: PRECURSOR_TYPE [M+H]+
MS$FOCUSED_ION: PRECURSOR_M/Z 295.1804898
PK$SPLASH: splash10-001j-1940000000-ffe779748f0105e6bf84
PK$NUM_PEAK: 189
PK$PEAK: m/z int. rel.int.
  55.05395 27.0 27
  67.04797 19.0 19
  67.05505 25.0 25
  70.06603 23.0 23
  79.05547 176.0 176
  80.04736 29.0 29
  81.07064 389.0 389
  82.0643 182.0 182
  82.07543 22.0 22
  82.08083 24.0 24
  83.07486 30.0 30
  84.04649 29.0 29
  86.06287 34.0 34
  92.06248 24.0 24
  93.05635 30.0 30
  93.06686 25.0 25
  95.04561 27.0 27
  95.07389 139.0 139
  96.08168 27.0 27
  105.06734 22.0 22
  106.06236 22.0 22
  106.07001 19.0 19
  107.06706 24.0 24
  107.08421 22.0 22
  107.09057 21.0 21
  108.07664 65.0 65
  108.69247 28.0 28
  110.08337 18.0 18
  110.09425 92.0 92
  115.06187 27.0 27
  117.05089 22.0 22
  117.05766 26.0 26
  117.0724 74.0 74
  121.08488 51.0 51
  121.09452 18.0 18
  122.09535 97.0 97
  123.09492 17.0 17
  124.11066 25.0 25
  125.07503 22.0 22
  128.0499 21.0 21
  129.05313 21.0 21
  130.06467 565.0 564
  131.06349 41.0 41
  132.08385 59.0 59
  133.07297 25.0 25
  134.09065 75.0 75
  134.09933 116.0 116
  134.30797 21.0 21
  135.10062 18.0 18
  136.10887 92.0 92
  136.11771 68.0 68
  138.12582 42.0 42
  138.13509 34.0 34
  142.05971 76.0 76
  142.06769 128.0 128
  143.06213 47.0 47
  143.07135 96.0 96
  143.0782 68.0 68
  144.07683 69.0 69
  144.08575 106.0 106
  144.70348 21.0 21
  145.08145 42.0 42
  146.35106 19.0 19
  147.11031 18.0 18
  154.05673 76.0 76
  154.06557 39.0 39
  154.07619 42.0 42
  154.27861 18.0 18
  155.06772 22.0 22
  156.07632 115.0 115
  156.08461 142.0 142
  157.05881 29.0 29
  157.07375 17.0 17
  157.08595 126.0 126
  158.05682 70.0 70
  159.04462 23.0 23
  159.05965 29.0 29
  159.0668 57.0 57
  166.06506 82.0 82
  166.10898 17.0 17
  166.11707 39.0 39
  166.12328 44.0 44
  167.07283 134.0 134
  167.0836 17.0 17
  167.12128 55.0 55
  168.077 326.0 326
  168.08473 295.0 295
  169.08246 45.0 45
  169.09297 66.0 66
  170.08841 19.0 19
  170.10138 68.0 68
  170.53311 21.0 21
  171.08284 28.0 28
  171.09465 38.0 38
  172.06572 18.0 18
  172.0755 64.0 64
  179.07466 24.0 24
  180.07845 147.0 147
  180.10605 26.0 26
  181.07494 72.0 72
  181.09358 27.0 27
  182.07457 26.0 26
  182.09126 22.0 22
  182.10498 38.0 38
  183.05974 18.0 18
  183.07298 22.0 22
  183.0914 18.0 18
  184.0153 33.0 33
  184.06961 72.0 72
  184.10464 24.0 24
  185.05579 28.0 28
  185.06485 21.0 21
  186.0912 22.0 22
  188.7364 33.0 33
  192.07106 17.0 17
  193.08641 66.0 66
  193.09866 17.0 17
  194.04988 19.0 19
  194.08464 22.0 22
  194.0952 45.0 45
  194.10204 45.0 45
  195.00859 17.0 17
  195.08507 22.0 22
  195.09181 26.0 26
  195.1116 26.0 26
  196.10968 63.0 63
  196.11523 157.0 157
  197.10977 48.0 48
  198.55952 17.0 17
  204.07785 30.0 30
  205.07094 41.0 41
  206.07408 25.0 25
  206.09178 38.0 38
  206.10361 27.0 27
  207.09689 24.0 24
  207.10394 23.0 23
  208.09695 37.0 37
  208.11145 49.0 49
  208.12346 17.0 17
  209.10936 29.0 29
  210.13257 21.0 21
  211.11583 17.0 17
  212.11137 25.0 25
  217.08302 23.0 23
  218.09047 24.0 24
  218.10411 26.0 26
  219.10751 37.0 37
  220.1142 53.0 53
  222.11208 67.0 67
  223.11679 84.0 84
  223.12848 89.0 89
  224.08687 22.0 22
  224.1335 17.0 17
  224.15814 22.0 22
  226.13228 27.0 27
  232.10687 21.0 21
  232.11954 43.0 43
  233.12148 22.0 22
  234.11748 39.0 39
  235.11201 31.0 31
  235.12689 125.0 125
  236.11481 56.0 56
  236.12836 85.0 85
  236.13705 35.0 35
  236.15207 62.0 62
  244.11652 38.0 38
  246.11938 17.0 17
  246.13515 21.0 21
  247.1342 24.0 24
  249.12975 21.0 21
  249.14005 19.0 19
  250.13559 28.0 28
  250.15179 23.0 23
  250.17001 56.0 56
  251.15295 25.0 25
  252.14951 30.0 30
  266.14444 39.0 39
  266.17093 17.0 17
  273.13077 18.0 18
  277.1452 21.0 21
  277.17136 235.0 235
  278.16666 21.0 21
  278.18747 29.0 29
  278.75775 18.0 18
  279.17068 29.0 29
  288.08353 27.0 27
  294.1727 28.0 28
  295.14575 21.0 21
  295.18262 1000.0 999
//
