ACCESSION: MSBNK-RIKEN-PR301763
RECORD_TITLE: Reserpic acid; LC-ESI-QTOF; MS2
DATE: 2019.03.28
AUTHORS: Tetsuya Mori, Center for Sustainable Resource Science, RIKEN
LICENSE: CC BY-NC-SA
PUBLICATION: Tsugawa H., Nakabayashi R., Mori T., Yamada Y., Takahashi M., Rai A., Sugiyama R., Yamamoto H., Nakaya T., Yamazaki M., Kooke R., Bac-Molenaar JA., Oztolan-Erol N., Keurentjes JJB., Arita M., Saito K. (2019) "A cheminformatics approach to characterize metabolomes in stable-isotope-labeled organisms" Nature Methods 16(4):295-298. [doi:10.1038/s41592-019-0358-2]
COMMENT: registered in RIKEN PlaSMA
CH$NAME: Reserpic acid
CH$COMPOUND_CLASS: Corynanthean-type alkaloids
CH$FORMULA: C22H28N2O5
CH$EXACT_MASS: 400.475
CH$SMILES: CO[C@H]1[C@H](O)C[C@@H]2CN3CCC4=C(NC5=C4C=CC(OC)=C5)[C@H]3C[C@@H]2[C@@H]1C(O)=O
CH$IUPAC: InChI=1S/C22H28N2O5/c1-28-12-3-4-13-14-5-6-24-10-11-7-18(25)21(29-2)19(22(26)27)15(11)9-17(24)20(14)23-16(13)8-12/h3-4,8,11,15,17-19,21,23,25H,5-7,9-10H2,1-2H3,(H,26,27)/t11-,15+,17-,18-,19+,21+/m1/s1
CH$LINK: INCHIKEY JVHNBFFHWQQPLL-WOXROFTLSA-N
AC$INSTRUMENT: LC, Waters Acquity UPLC System; MS, Waters Xevo G2 Q-Tof
AC$INSTRUMENT_TYPE: LC-ESI-QTOF
AC$MASS_SPECTROMETRY: MS_TYPE MS2
AC$MASS_SPECTROMETRY: ION_MODE POSITIVE
AC$MASS_SPECTROMETRY: COLLISION_ENERGY 6V
AC$MASS_SPECTROMETRY: DESOLVATION_GAS_FLOW 800/h
AC$MASS_SPECTROMETRY: DESOLVATION_TEMPERATURE 450 C
AC$MASS_SPECTROMETRY: IONIZATION ESI
AC$CHROMATOGRAPHY: CAPILLARY_VOLTAGE +3.00 kV
AC$CHROMATOGRAPHY: COLUMN_NAME Acquity bridged ethyl hybrid C18 (1.7 um, 2.1 mm * 100 mm, Waters)
AC$CHROMATOGRAPHY: COLUMN_TEMPERATURE 40 C
AC$CHROMATOGRAPHY: FLOW_GRADIENT A/B = (99.5%/0.5% at 0 min, 99.5%/0.5% at 0.1 min, 20%/80% at 10 min, 0.5%/99.5% at 10.1 min, 0.5%/99.5% at 12.0 min, 99.5%/0.5% at 12.1 min, 99.5%/0.5% at 15.0 min)
AC$CHROMATOGRAPHY: FLOW_RATE 0.3 ml/min at 0 min, 0.3 ml/min at 10 min, 0.4 ml/min at 10.1 min, 0.4 ml/min at 14.4 min, 0.3 ml/min at 14.5 min
AC$CHROMATOGRAPHY: RETENTION_TIME 3.889867
AC$CHROMATOGRAPHY: SOLVENT A water including 0.1% formic acid
AC$CHROMATOGRAPHY: SOLVENT B acetonitrile including 0.1% formic acid
MS$FOCUSED_ION: PRECURSOR_TYPE [M+H]+
MS$FOCUSED_ION: PRECURSOR_M/Z 401.2070985
PK$SPLASH: splash10-05fr-0910000000-f72dfebccf09c5e557ab
PK$NUM_PEAK: 213
PK$PEAK: m/z int. rel.int.
  70.06564 6.0 6
  79.05401 6.0 6
  80.05026 7.0 7
  81.07014 5.0 5
  82.06486 8.0 8
  91.05439 42.0 42
  91.05982 22.0 22
  93.06142 5.0 5
  93.07321 5.0 5
  94.06507 27.0 27
  94.06948 8.0 8
  95.04962 8.0 8
  95.08566 5.0 5
  96.08405 7.0 7
  103.05775 16.0 16
  105.03926 6.0 6
  105.07137 32.0 32
  105.07726 8.0 8
  106.06811 20.0 20
  106.07452 5.0 5
  107.05028 29.0 29
  107.0734 31.0 31
  108.04332 6.0 6
  108.08113 6.0 6
  109.0612 6.0 6
  115.04696 10.0 10
  115.05474 60.0 60
  116.06043 13.0 13
  117.04848 13.0 13
  117.05484 11.0 11
  117.06336 21.0 21
  117.07229 41.0 41
  118.06051 10.0 10
  118.0697 8.0 8
  119.08681 17.0 17
  120.08026 15.0 15
  121.06529 19.0 19
  122.06787 6.0 6
  127.05716 6.0 6
  130.05017 7.0 7
  130.06471 110.0 110
  130.07753 14.0 14
  131.04831 9.0 9
  131.06004 24.0 24
  131.07445 390.0 390
  132.05278 26.0 26
  132.07515 62.0 62
  132.08437 35.0 35
  133.04555 7.0 7
  133.06714 12.0 12
  133.08237 10.0 10
  134.10149 8.0 8
  136.07935 9.0 9
  138.08928 8.0 8
  142.05533 12.0 12
  142.06285 55.0 55
  142.07054 27.0 27
  143.07327 307.0 307
  144.04843 8.0 8
  144.07397 34.0 34
  144.08121 41.0 41
  145.04556 7.0 7
  145.05501 6.0 6
  145.06215 6.0 6
  145.06903 9.0 9
  145.0787 26.0 26
  145.09039 11.0 11
  146.06039 80.0 80
  146.09509 23.0 23
  147.06882 27.0 27
  147.07921 46.0 46
  147.08987 5.0 5
  148.07161 21.0 21
  148.08481 6.0 6
  149.08435 10.0 10
  150.09088 27.0 27
  150.10014 6.0 6
  151.09468 6.0 6
  152.06847 7.0 7
  154.0657 9.0 9
  154.07475 7.0 7
  156.08531 9.0 9
  157.08597 9.0 9
  158.05513 25.0 25
  158.06313 23.0 23
  159.06848 685.0 684
  160.06068 16.0 16
  160.07455 156.0 156
  161.08353 52.0 52
  161.10071 10.0 10
  162.08582 28.0 28
  162.10004 16.0 16
  163.10243 7.0 7
  164.06847 11.0 11
  164.10501 5.0 5
  170.06287 20.0 20
  172.05905 5.0 5
  172.07323 30.0 30
  172.08183 20.0 20
  173.08441 152.0 152
  173.1026 6.0 6
  174.05571 8.0 8
  174.06902 7.0 7
  174.09244 1000.0 999
  175.08603 29.0 29
  175.09656 115.0 115
  176.08147 9.0 9
  176.101 9.0 9
  178.07045 8.0 8
  178.09055 18.0 18
  179.09052 7.0 7
  180.09071 9.0 9
  182.08125 8.0 8
  182.0925 6.0 6
  183.0658 8.0 8
  184.08073 12.0 12
  185.09116 6.0 6
  186.08969 18.0 18
  186.10391 9.0 9
  187.09943 17.0 17
  188.06677 6.0 6
  188.10806 59.0 59
  189.10147 9.0 9
  189.11035 9.0 9
  192.0769 7.0 7
  192.08821 6.0 6
  193.08975 15.0 15
  194.07407 6.0 6
  194.09189 10.0 10
  196.07455 12.0 12
  196.0831 7.0 7
  196.09708 9.0 9
  197.07866 9.0 9
  197.09193 13.0 13
  198.09305 22.0 22
  199.08421 9.0 9
  199.09581 9.0 9
  200.08199 7.0 7
  200.10777 21.0 21
  201.11253 6.0 6
  204.08018 15.0 15
  205.08768 12.0 12
  206.09816 22.0 22
  207.08823 9.0 9
  207.10593 5.0 5
  208.08051 16.0 16
  208.11092 8.0 8
  210.0928 43.0 43
  210.1165 12.0 12
  211.0981 22.0 22
  211.11009 6.0 6
  212.10831 12.0 12
  213.10658 7.0 7
  218.10194 8.0 8
  220.08099 10.0 10
  221.07968 15.0 15
  221.09204 6.0 6
  221.11646 5.0 5
  222.09132 38.0 38
  222.10788 7.0 7
  223.09639 34.0 34
  223.11575 6.0 6
  224.10423 36.0 36
  224.12016 12.0 12
  225.12029 13.0 13
  226.11035 7.0 7
  226.12486 21.0 21
  232.10712 7.0 7
  233.08884 10.0 10
  234.08093 12.0 12
  234.09608 17.0 17
  235.09013 7.0 7
  235.10092 13.0 13
  236.10262 15.0 15
  236.10925 36.0 36
  237.10435 19.0 19
  237.11481 7.0 7
  238.12027 21.0 21
  238.12996 8.0 8
  240.12384 17.0 17
  240.14355 7.0 7
  242.09253 14.0 14
  244.10437 8.0 8
  245.12671 7.0 7
  246.0822 6.0 6
  246.09531 5.0 5
  246.10789 5.0 5
  248.10011 14.0 14
  248.1125 10.0 10
  249.1181 14.0 14
  250.08743 8.0 8
  250.09894 8.0 8
  250.12457 18.0 18
  250.13797 6.0 6
  251.12206 19.0 19
  252.14218 7.0 7
  259.11542 7.0 7
  260.10687 9.0 9
  260.11752 7.0 7
  261.11475 8.0 8
  262.11148 12.0 12
  262.12543 14.0 14
  263.12253 9.0 9
  264.13641 19.0 19
  265.13455 7.0 7
  266.1405 5.0 5
  274.13171 22.0 22
  276.09741 6.0 6
  276.13672 9.0 9
  278.15955 8.0 8
  288.13986 8.0 8
  292.09607 5.0 5
  294.15533 7.0 7
//
