ACCESSION: MSBNK-RIKEN-PR304339
RECORD_TITLE: Ginsenoside F3; LC-ESI-QTOF; MS2
DATE: 2019.03.28
AUTHORS: Tetsuya Mori, Center for Sustainable Resource Science, RIKEN
LICENSE: CC BY-NC-SA
PUBLICATION: Tsugawa H., Nakabayashi R., Mori T., Yamada Y., Takahashi M., Rai A., Sugiyama R., Yamamoto H., Nakaya T., Yamazaki M., Kooke R., Bac-Molenaar JA., Oztolan-Erol N., Keurentjes JJB., Arita M., Saito K. (2019) "A cheminformatics approach to characterize metabolomes in stable-isotope-labeled organisms" Nature Methods 16(4):295-298. [doi:10.1038/s41592-019-0358-2]
COMMENT: registered in RIKEN PlaSMA
CH$NAME: Ginsenoside F3
CH$COMPOUND_CLASS: Triterpenoids
CH$FORMULA: C41H70O13
CH$EXACT_MASS: 770.998
CH$SMILES: CC(C)=CCC[C@@](C)(O[C@H]1O[C@@H](CO[C@H]2OC[C@H](O)[C@H](O)[C@H]2O)[C@H](O)[C@@H](O)[C@@H]1O)[C@H]1CC[C@@]2(C)[C@@H]1[C@@H](O)C[C@H]1[C@]3(C)CC[C@@H](O)C(C)(C)[C@@H]3[C@H](O)C[C@]21C
CH$IUPAC: InChI=1S/C41H70O13/c1-20(2)10-9-13-41(8,54-36-33(50)31(48)30(47)25(53-36)19-52-35-32(49)29(46)24(44)18-51-35)21-11-15-39(6)28(21)22(42)16-26-38(5)14-12-27(45)37(3,4)34(38)23(43)17-40(26,39)7/h10,21-36,42-50H,9,11-19H2,1-8H3/t21-,22-,23+,24-,25-,26-,27+,28-,29-,30-,31+,32+,33-,34-,35+,36+,38-,39-,40-,41+/m0/s1
CH$LINK: INCHIKEY HJRVLGWTJSLQIG-TVOOLRDFSA-N
AC$INSTRUMENT: LC, Waters Acquity UPLC System; MS, Waters Xevo G2 Q-Tof
AC$INSTRUMENT_TYPE: LC-ESI-QTOF
AC$MASS_SPECTROMETRY: MS_TYPE MS2
AC$MASS_SPECTROMETRY: ION_MODE POSITIVE
AC$MASS_SPECTROMETRY: COLLISION_ENERGY 6V
AC$MASS_SPECTROMETRY: DESOLVATION_GAS_FLOW 800/h
AC$MASS_SPECTROMETRY: DESOLVATION_TEMPERATURE 450 C
AC$MASS_SPECTROMETRY: IONIZATION ESI
AC$CHROMATOGRAPHY: CAPILLARY_VOLTAGE +3.00 kV
AC$CHROMATOGRAPHY: COLUMN_NAME Acquity bridged ethyl hybrid C18 (1.7 um, 2.1 mm * 100 mm, Waters)
AC$CHROMATOGRAPHY: COLUMN_TEMPERATURE 40 C
AC$CHROMATOGRAPHY: FLOW_GRADIENT A/B = (99.5%/0.5% at 0 min, 99.5%/0.5% at 0.1 min, 20%/80% at 10 min, 0.5%/99.5% at 10.1 min, 0.5%/99.5% at 12.0 min, 99.5%/0.5% at 12.1 min, 99.5%/0.5% at 15.0 min)
AC$CHROMATOGRAPHY: FLOW_RATE 0.3 ml/min at 0 min, 0.3 ml/min at 10 min, 0.4 ml/min at 10.1 min, 0.4 ml/min at 14.4 min, 0.3 ml/min at 14.5 min
AC$CHROMATOGRAPHY: RETENTION_TIME 6.1149
AC$CHROMATOGRAPHY: SOLVENT A water including 0.1% formic acid
AC$CHROMATOGRAPHY: SOLVENT B acetonitrile including 0.1% formic acid
MS$FOCUSED_ION: PRECURSOR_TYPE [M+H]+
MS$FOCUSED_ION: PRECURSOR_M/Z 771.4889188
PK$SPLASH: splash10-01vk-0094510600-27ea2ae28f8b0df83037
PK$NUM_PEAK: 47
PK$PEAK: m/z int. rel.int.
  109.10051 42.0 42
  133.04901 52.0 52
  189.16191 42.0 42
  207.18094 60.0 60
  241.07111 71.0 71
  247.07425 52.0 52
  259.08966 188.0 188
  260.94318 45.0 45
  277.07993 52.0 52
  277.09021 99.0 99
  295.09277 275.0 275
  295.10455 1000.0 999
  296.11481 105.0 105
  313.11444 764.0 763
  314.08093 45.0 45
  314.12155 120.0 120
  405.35593 47.0 47
  423.35764 267.0 267
  424.36163 105.0 105
  425.37888 58.0 58
  425.4122 42.0 42
  441.36404 168.0 168
  441.38293 76.0 76
  442.38138 45.0 45
  442.3967 175.0 175
  459.37747 84.0 84
  459.39514 65.0 65
  555.38995 89.0 89
  555.42151 52.0 52
  574.4231 42.0 42
  591.41248 52.0 52
  591.44781 42.0 42
  592.42352 52.0 52
  592.44446 60.0 60
  603.41144 45.0 45
  603.43164 42.0 42
  604.35236 52.0 52
  622.45447 45.0 45
  718.46039 42.0 42
  718.48236 42.0 42
  735.45337 45.0 45
  753.48486 215.0 215
  754.41992 42.0 42
  754.49866 42.0 42
  756.47284 55.0 55
  771.48932 759.0 758
  771.521 105.0 105
//
