ACCESSION: MSBNK-RIKEN-PR301912
RECORD_TITLE: Genistein; LC-ESI-QTOF; MS2
DATE: 2019.03.28
AUTHORS: Tetsuya Mori, Center for Sustainable Resource Science, RIKEN
LICENSE: CC BY-NC-SA
PUBLICATION: Tsugawa H., Nakabayashi R., Mori T., Yamada Y., Takahashi M., Rai A., Sugiyama R., Yamamoto H., Nakaya T., Yamazaki M., Kooke R., Bac-Molenaar JA., Oztolan-Erol N., Keurentjes JJB., Arita M., Saito K. (2019) "A cheminformatics approach to characterize metabolomes in stable-isotope-labeled organisms" Nature Methods 16(4):295-298. [doi:10.1038/s41592-019-0358-2]
COMMENT: registered in RIKEN PlaSMA
CH$NAME: Genistein
CH$COMPOUND_CLASS: Isoflavones
CH$FORMULA: C15H10O5
CH$EXACT_MASS: 270.24
CH$SMILES: OC1=CC=C(C=C1)C1=COC2=CC(O)=CC(O)=C2C1=O
CH$IUPAC: InChI=1S/C15H10O5/c16-9-3-1-8(2-4-9)11-7-20-13-6-10(17)5-12(18)14(13)15(11)19/h1-7,16-18H
CH$LINK: INCHIKEY TZBJGXHYKVUXJN-UHFFFAOYSA-N
AC$INSTRUMENT: LC, Waters Acquity UPLC System; MS, Waters Xevo G2 Q-Tof
AC$INSTRUMENT_TYPE: LC-ESI-QTOF
AC$MASS_SPECTROMETRY: MS_TYPE MS2
AC$MASS_SPECTROMETRY: ION_MODE POSITIVE
AC$MASS_SPECTROMETRY: COLLISION_ENERGY 6V
AC$MASS_SPECTROMETRY: DESOLVATION_GAS_FLOW 800/h
AC$MASS_SPECTROMETRY: DESOLVATION_TEMPERATURE 450 C
AC$MASS_SPECTROMETRY: IONIZATION ESI
AC$CHROMATOGRAPHY: CAPILLARY_VOLTAGE +3.00 kV
AC$CHROMATOGRAPHY: COLUMN_NAME Acquity bridged ethyl hybrid C18 (1.7 um, 2.1 mm * 100 mm, Waters)
AC$CHROMATOGRAPHY: COLUMN_TEMPERATURE 40 C
AC$CHROMATOGRAPHY: FLOW_GRADIENT A/B = (99.5%/0.5% at 0 min, 99.5%/0.5% at 0.1 min, 20%/80% at 10 min, 0.5%/99.5% at 10.1 min, 0.5%/99.5% at 12.0 min, 99.5%/0.5% at 12.1 min, 99.5%/0.5% at 15.0 min)
AC$CHROMATOGRAPHY: FLOW_RATE 0.3 ml/min at 0 min, 0.3 ml/min at 10 min, 0.4 ml/min at 10.1 min, 0.4 ml/min at 14.4 min, 0.3 ml/min at 14.5 min
AC$CHROMATOGRAPHY: RETENTION_TIME 5.923517
AC$CHROMATOGRAPHY: SOLVENT A water including 0.1% formic acid
AC$CHROMATOGRAPHY: SOLVENT B acetonitrile including 0.1% formic acid
MS$FOCUSED_ION: PRECURSOR_TYPE [M+H]+
MS$FOCUSED_ION: PRECURSOR_M/Z 271.0600999
PK$SPLASH: splash10-0uxv-1930000000-7e43d548426efd0b8b22
PK$NUM_PEAK: 223
PK$PEAK: m/z int. rel.int.
  55.01708 6.0 6
  61.28444 12.0 12
  63.02308 8.0 8
  67.01377 10.0 10
  68.99434 34.0 34
  69.00166 11.0 11
  69.03442 13.0 13
  77.0363 7.0 7
  79.04794 6.0 6
  81.02914 21.0 21
  89.03834 20.0 20
  91.03796 5.0 5
  91.0551 413.0 413
  91.08014 6.0 6
  92.05791 19.0 19
  92.70426 5.0 5
  93.03533 8.0 8
  94.03761 6.0 6
  95.01055 8.0 8
  96.66188 9.0 9
  97.01735 7.0 7
  97.03152 7.0 7
  97.95325 5.0 5
  103.04755 14.0 14
  105.03134 7.0 7
  106.03982 10.0 10
  107.04763 33.0 33
  109.02639 9.0 9
  109.42093 10.0 10
  110.03362 8.0 8
  111.00633 29.0 29
  113.01698 6.0 6
  115.05176 30.0 30
  116.05951 12.0 12
  117.03343 8.0 8
  117.05821 7.0 7
  117.06825 10.0 10
  118.04087 5.0 5
  119.00386 8.0 8
  119.04038 25.0 25
  119.04927 80.0 80
  119.08031 6.0 6
  120.04588 6.0 6
  120.05132 11.0 11
  121.02918 85.0 85
  122.02915 5.0 5
  123.00964 6.0 6
  123.04531 12.0 12
  124.03788 7.0 7
  124.33343 5.0 5
  126.0255 9.0 9
  126.03161 6.0 6
  127.04298 15.0 15
  127.05775 7.0 7
  128.05789 6.0 6
  128.66063 5.0 5
  129.07211 25.0 25
  129.08186 19.0 19
  129.9872 7.0 7
  131.03647 12.0 12
  131.04996 51.0 51
  131.07178 10.0 10
  131.08327 30.0 30
  132.04321 7.0 7
  133.02736 16.0 16
  133.03732 6.0 6
  135.04283 33.0 33
  135.7774 9.0 9
  136.04799 9.0 9
  137.01949 35.0 35
  137.2079 6.0 6
  141.01363 7.0 7
  141.04587 6.0 6
  141.06863 271.0 271
  142.07159 37.0 37
  142.07764 19.0 19
  144.05162 31.0 31
  144.0607 13.0 13
  145.02452 52.0 52
  145.0313 88.0 88
  145.05991 32.0 32
  145.06822 25.0 25
  146.02356 6.0 6
  146.03082 14.0 14
  146.04303 5.0 5
  146.07329 5.0 5
  147.04671 59.0 59
  147.08369 35.0 35
  148.0508 22.0 22
  148.99184 9.0 9
  149.02368 377.0 377
  150.02658 42.0 42
  150.03462 14.0 14
  151.05618 17.0 17
  152.05923 35.0 35
  153.01756 1000.0 999
  153.0658 6.0 6
  154.00233 9.0 9
  154.01483 71.0 71
  154.02473 35.0 35
  155.03906 6.0 6
  155.05463 13.0 13
  156.04956 6.0 6
  156.05699 10.0 10
  157.05687 12.0 12
  157.065 10.0 10
  158.06848 8.0 8
  159.03026 15.0 15
  159.04362 118.0 118
  159.06598 6.0 6
  159.07941 41.0 41
  159.08429 19.0 19
  161.04672 6.0 6
  161.0535 11.0 11
  161.0631 10.0 10
  163.0204 8.0 8
  163.05466 6.0 6
  164.10425 8.0 8
  165.01819 106.0 106
  165.02437 37.0 37
  166.02403 20.0 20
  167.21588 6.0 6
  168.13654 7.0 7
  169.05986 141.0 141
  169.067 190.0 190
  170.06261 24.0 24
  170.07504 11.0 11
  171.03595 8.0 8
  171.07347 9.0 9
  171.08408 10.0 10
  173.05568 65.0 65
  173.39877 6.0 6
  173.99754 5.0 5
  174.064 27.0 27
  174.07565 6.0 6
  175.07207 50.0 50
  178.02887 7.0 7
  178.302 8.0 8
  179.04335 8.0 8
  183.03401 10.0 10
  183.04431 28.0 28
  183.16313 6.0 6
  183.73068 6.0 6
  184.05148 6.0 6
  184.33598 7.0 7
  184.98671 10.0 10
  185.00624 6.0 6
  185.02821 5.0 5
  185.05617 5.0 5
  187.04005 19.0 19
  187.04887 7.0 7
  187.06567 43.0 43
  187.07877 17.0 17
  187.08769 21.0 21
  187.35693 6.0 6
  188.14302 9.0 9
  196.05698 6.0 6
  197.04112 10.0 10
  197.06035 300.0 300
  198.06255 40.0 40
  198.07655 6.0 6
  199.03685 6.0 6
  199.1889 7.0 7
  200.04494 39.0 39
  201.02158 8.0 8
  201.04713 26.0 26
  201.05602 27.0 27
  202.05107 8.0 8
  202.06195 11.0 11
  202.32898 6.0 6
  203.00549 7.0 7
  203.0667 12.0 12
  204.04451 13.0 13
  207.04564 6.0 6
  208.05022 7.0 7
  209.02071 8.0 8
  211.02788 8.0 8
  212.05109 8.0 8
  213.05383 53.0 53
  213.07471 7.0 7
  214.06335 8.0 8
  215.02599 14.0 14
  215.0704 432.0 432
  215.0849 48.0 48
  215.45226 5.0 5
  216.05475 5.0 5
  216.07088 81.0 81
  216.08705 5.0 5
  219.43585 8.0 8
  220.51762 6.0 6
  224.06352 7.0 7
  225.03278 6.0 6
  225.05305 28.0 28
  225.08917 6.0 6
  226.06049 18.0 18
  226.07491 12.0 12
  227.06921 13.0 13
  227.07726 11.0 11
  228.03555 20.0 20
  228.04518 10.0 10
  229.04918 20.0 20
  235.04294 7.0 7
  236.02957 6.0 6
  241.04973 11.0 11
  242.05435 20.0 20
  242.0634 39.0 39
  243.05052 29.0 29
  243.06433 161.0 161
  243.0782 80.0 80
  244.06537 33.0 33
  244.07777 32.0 32
  250.65497 5.0 5
  252.02223 8.0 8
  252.99168 7.0 7
  253.02789 14.0 14
  253.04817 90.0 90
  253.06786 6.0 6
  254.04958 30.0 30
  254.06659 10.0 10
  270.72897 5.0 5
  271.01349 7.0 7
  271.02734 5.0 5
  271.05994 466.0 466
//
