ACCESSION: MSBNK-RIKEN-PR302520
RECORD_TITLE: Apigenin-8-C-glucoside-2'-rhamnoside; LC-ESI-QTOF; MS2
DATE: 2019.03.28
AUTHORS: Tetsuya Mori, Center for Sustainable Resource Science, RIKEN
LICENSE: CC BY-NC-SA
PUBLICATION: Tsugawa H., Nakabayashi R., Mori T., Yamada Y., Takahashi M., Rai A., Sugiyama R., Yamamoto H., Nakaya T., Yamazaki M., Kooke R., Bac-Molenaar JA., Oztolan-Erol N., Keurentjes JJB., Arita M., Saito K. (2019) "A cheminformatics approach to characterize metabolomes in stable-isotope-labeled organisms" Nature Methods 16(4):295-298. [doi:10.1038/s41592-019-0358-2]
COMMENT: registered in RIKEN PlaSMA
CH$NAME: Apigenin-8-C-glucoside-2'-rhamnoside
CH$COMPOUND_CLASS: Flavonoid 8-C-glycosides
CH$FORMULA: C27H30O14
CH$EXACT_MASS: 578.523
CH$SMILES: C[C@H]1[C@@H]([C@H]([C@H]([C@@H](O1)O[C@@H]2[C@H]([C@@H]([C@H](O[C@H]2C3=C(C=C(C4=C3OC(=CC4=O)C5=CC=C(C=C5)O)O)O)CO)O)O)O)O)O
CH$IUPAC: InChI=1S/C27H30O14/c1-9-19(33)21(35)23(37)27(38-9)41-26-22(36)20(34)16(8-28)40-25(26)18-13(31)6-12(30)17-14(32)7-15(39-24(17)18)10-2-4-11(29)5-3-10/h2-7,9,16,19-23,25-31,33-37H,8H2,1H3/t9-,16+,19-,20+,21+,22-,23+,25-,26+,27-/m0/s1
CH$LINK: INCHIKEY LYGPBZVKGHHTIE-HUBYJIGHSA-N
AC$INSTRUMENT: LC, Waters Acquity UPLC System; MS, Waters Xevo G2 Q-Tof
AC$INSTRUMENT_TYPE: LC-ESI-QTOF
AC$MASS_SPECTROMETRY: MS_TYPE MS2
AC$MASS_SPECTROMETRY: ION_MODE POSITIVE
AC$MASS_SPECTROMETRY: COLLISION_ENERGY 6V
AC$MASS_SPECTROMETRY: DESOLVATION_GAS_FLOW 800/h
AC$MASS_SPECTROMETRY: DESOLVATION_TEMPERATURE 450 C
AC$MASS_SPECTROMETRY: IONIZATION ESI
AC$CHROMATOGRAPHY: CAPILLARY_VOLTAGE +3.00 kV
AC$CHROMATOGRAPHY: COLUMN_NAME Acquity bridged ethyl hybrid C18 (1.7 um, 2.1 mm * 100 mm, Waters)
AC$CHROMATOGRAPHY: COLUMN_TEMPERATURE 40 C
AC$CHROMATOGRAPHY: FLOW_GRADIENT A/B = (99.5%/0.5% at 0 min, 99.5%/0.5% at 0.1 min, 20%/80% at 10 min, 0.5%/99.5% at 10.1 min, 0.5%/99.5% at 12.0 min, 99.5%/0.5% at 12.1 min, 99.5%/0.5% at 15.0 min)
AC$CHROMATOGRAPHY: FLOW_RATE 0.3 ml/min at 0 min, 0.3 ml/min at 10 min, 0.4 ml/min at 10.1 min, 0.4 ml/min at 14.4 min, 0.3 ml/min at 14.5 min
AC$CHROMATOGRAPHY: RETENTION_TIME 3.8372
AC$CHROMATOGRAPHY: SOLVENT A water including 0.1% formic acid
AC$CHROMATOGRAPHY: SOLVENT B acetonitrile including 0.1% formic acid
MS$FOCUSED_ION: PRECURSOR_TYPE [M+H]+
MS$FOCUSED_ION: PRECURSOR_M/Z 579.1708321
PK$SPLASH: splash10-01q9-0198000000-3b30e2325cac0d19eae6
PK$NUM_PEAK: 151
PK$PEAK: m/z int. rel.int.
  65.0391 7.0 7
  71.05407 7.0 7
  85.02534 6.0 6
  103.01834 6.0 6
  107.04454 5.0 5
  109.03252 9.0 9
  119.05288 14.0 14
  121.02677 101.0 101
  139.0387 7.0 7
  145.02837 10.0 10
  147.03413 5.0 5
  153.01666 24.0 24
  157.06366 6.0 6
  159.05319 6.0 6
  160.01933 6.0 6
  163.03802 11.0 11
  165.01843 30.0 30
  173.01712 5.0 5
  173.05347 6.0 6
  177.01933 19.0 19
  177.04675 7.0 7
  183.04192 6.0 6
  185.04347 5.0 5
  187.04182 10.0 10
  189.05853 9.0 9
  190.02657 7.0 7
  191.02563 5.0 5
  195.02332 15.0 15
  205.01082 8.0 8
  205.05292 29.0 29
  213.05888 20.0 20
  215.03601 21.0 21
  217.00299 7.0 7
  217.03661 5.0 5
  217.05252 74.0 74
  218.05669 9.0 9
  218.06787 8.0 8
  219.05161 7.0 7
  225.05711 8.0 8
  227.07301 8.0 8
  228.07391 12.0 12
  229.04721 13.0 13
  231.04077 9.0 9
  232.07597 5.0 5
  235.05634 5.0 5
  235.07433 5.0 5
  236.07654 9.0 9
  241.05157 18.0 18
  243.03273 36.0 36
  243.07005 22.0 22
  244.02443 10.0 10
  247.04173 6.0 6
  248.54077 5.0 5
  249.03972 6.0 6
  250.0343 6.0 6
  252.70934 5.0 5
  254.05466 6.0 6
  255.05743 5.0 5
  255.07054 9.0 9
  256.04358 5.0 5
  256.0658 13.0 13
  256.07538 22.0 22
  256.49014 7.0 7
  257.07379 13.0 13
  259.061 10.0 10
  261.03357 12.0 12
  262.06433 6.0 6
  266.05518 16.0 16
  266.46625 5.0 5
  267.06277 11.0 11
  271.05405 35.0 35
  271.06738 38.0 38
  272.06216 17.0 17
  279.07117 10.0 10
  282.8732 5.0 5
  283.01517 12.0 12
  283.03296 45.0 45
  283.06216 896.0 895
  283.56339 6.0 6
  284.01187 8.0 8
  284.03589 31.0 31
  284.06982 440.0 440
  285.06851 82.0 82
  285.08154 42.0 42
  286.07108 18.0 18
  291.06067 5.0 5
  292.06808 7.0 7
  293.07999 18.0 18
  295.05856 160.0 160
  295.10324 7.0 7
  296.0574 35.0 35
  296.078 10.0 10
  296.21829 5.0 5
  297.03293 8.0 8
  297.0773 201.0 201
  298.08368 61.0 61
  299.10437 5.0 5
  305.08582 9.0 9
  307.05505 19.0 19
  308.06641 63.0 63
  309.07458 70.0 70
  309.09131 26.0 26
  310.07666 8.0 8
  310.08676 11.0 11
  311.05731 24.0 24
  311.08276 7.0 7
  312.06534 13.0 13
  313.01627 6.0 6
  313.02768 12.0 12
  313.04608 64.0 64
  313.07147 1000.0 999
  313.57983 8.0 8
  314.07608 219.0 219
  315.07773 20.0 20
  321.03394 9.0 9
  321.07797 10.0 10
  323.04941 27.0 27
  323.0607 20.0 20
  323.09125 282.0 282
  324.07336 8.0 8
  324.08282 21.0 21
  324.09711 53.0 53
  325.05768 20.0 20
  325.0686 25.0 25
  325.08844 37.0 37
  326.05701 8.0 8
  326.10724 5.0 5
  327.06955 11.0 11
  327.08212 18.0 18
  335.05261 11.0 11
  335.09113 9.0 9
  336.06076 14.0 14
  337.04041 11.0 11
  337.06543 98.0 98
  337.07971 99.0 99
  338.06702 27.0 27
  338.09262 10.0 10
  343.08176 32.0 32
  350.08118 7.0 7
  351.07675 15.0 15
  351.08963 23.0 23
  352.15915 5.0 5
  355.07916 6.0 6
  367.05118 6.0 6
  367.08334 26.0 26
  379.0802 28.0 28
  381.09473 7.0 7
  397.06244 7.0 7
  397.08658 9.0 9
  397.10574 24.0 24
  398.09418 17.0 17
//
