ACCESSION: MSBNK-RIKEN-PR303893
RECORD_TITLE: Ginkgolide C; LC-ESI-QTOF; MS2
DATE: 2019.03.28
AUTHORS: Tetsuya Mori, Center for Sustainable Resource Science, RIKEN
LICENSE: CC BY-NC-SA
PUBLICATION: Tsugawa H., Nakabayashi R., Mori T., Yamada Y., Takahashi M., Rai A., Sugiyama R., Yamamoto H., Nakaya T., Yamazaki M., Kooke R., Bac-Molenaar JA., Oztolan-Erol N., Keurentjes JJB., Arita M., Saito K. (2019) "A cheminformatics approach to characterize metabolomes in stable-isotope-labeled organisms" Nature Methods 16(4):295-298. [doi:10.1038/s41592-019-0358-2]
COMMENT: registered in RIKEN PlaSMA
CH$NAME: Ginkgolide C
CH$COMPOUND_CLASS: Ginkgolides and bilobalides
CH$FORMULA: C20H24O11
CH$EXACT_MASS: 440.401
CH$SMILES: CC1C(=O)OC2C(O)C34C5OC(=O)C3(OC3OC(=O)C(O)C43C(C5O)C(C)(C)C)C12O
CH$IUPAC: InChI=1S/C20H24O11/c1-5-12(24)28-11-8(22)18-10-6(21)7(16(2,3)4)17(18)9(23)13(25)30-15(17)31-20(18,14(26)29-10)19(5,11)27/h5-11,15,21-23,27H,1-4H3
CH$LINK: INCHIKEY AMOGMTLMADGEOQ-UHFFFAOYSA-N
AC$INSTRUMENT: LC, Waters Acquity UPLC System; MS, Waters Xevo G2 Q-Tof
AC$INSTRUMENT_TYPE: LC-ESI-QTOF
AC$MASS_SPECTROMETRY: MS_TYPE MS2
AC$MASS_SPECTROMETRY: ION_MODE POSITIVE
AC$MASS_SPECTROMETRY: COLLISION_ENERGY 6V
AC$MASS_SPECTROMETRY: DESOLVATION_GAS_FLOW 800/h
AC$MASS_SPECTROMETRY: DESOLVATION_TEMPERATURE 450 C
AC$MASS_SPECTROMETRY: IONIZATION ESI
AC$CHROMATOGRAPHY: CAPILLARY_VOLTAGE +3.00 kV
AC$CHROMATOGRAPHY: COLUMN_NAME Acquity bridged ethyl hybrid C18 (1.7 um, 2.1 mm * 100 mm, Waters)
AC$CHROMATOGRAPHY: COLUMN_TEMPERATURE 40 C
AC$CHROMATOGRAPHY: FLOW_GRADIENT A/B = (99.5%/0.5% at 0 min, 99.5%/0.5% at 0.1 min, 20%/80% at 10 min, 0.5%/99.5% at 10.1 min, 0.5%/99.5% at 12.0 min, 99.5%/0.5% at 12.1 min, 99.5%/0.5% at 15.0 min)
AC$CHROMATOGRAPHY: FLOW_RATE 0.3 ml/min at 0 min, 0.3 ml/min at 10 min, 0.4 ml/min at 10.1 min, 0.4 ml/min at 14.4 min, 0.3 ml/min at 14.5 min
AC$CHROMATOGRAPHY: RETENTION_TIME 4.33045
AC$CHROMATOGRAPHY: SOLVENT A water including 0.1% formic acid
AC$CHROMATOGRAPHY: SOLVENT B acetonitrile including 0.1% formic acid
MS$FOCUSED_ION: PRECURSOR_TYPE [M+H]+
MS$FOCUSED_ION: PRECURSOR_M/Z 441.139138
PK$SPLASH: splash10-0a6r-0393000000-dbd33f2e7d01bba38dec
PK$NUM_PEAK: 251
PK$PEAK: m/z int. rel.int.
  71.01232 27.0 27
  83.08593 22.0 22
  111.04727 36.0 36
  113.02967 27.0 27
  115.05321 29.0 29
  121.0648 27.0 27
  125.02564 22.0 22
  126.02293 22.0 22
  127.03341 62.0 62
  131.08716 39.0 39
  135.04568 61.0 61
  135.05777 22.0 22
  135.07567 26.0 26
  137.0251 52.0 52
  143.03403 32.0 32
  145.07007 26.0 26
  145.09489 32.0 32
  147.08725 26.0 26
  149.05092 53.0 53
  149.05972 69.0 69
  150.0616 35.0 35
  151.03073 25.0 25
  151.03987 115.0 115
  152.4169 25.0 25
  159.08157 70.0 70
  162.09715 27.0 27
  163.03467 34.0 34
  163.04031 27.0 27
  163.08076 23.0 23
  163.11667 31.0 31
  165.02365 62.0 62
  167.0369 61.0 61
  169.04482 26.0 26
  171.1178 23.0 23
  175.04475 31.0 31
  175.0719 35.0 35
  175.08008 22.0 22
  176.04707 27.0 27
  176.07341 32.0 32
  177.01562 31.0 31
  177.04126 61.0 61
  177.0493 97.0 97
  177.05858 127.0 127
  178.03813 25.0 25
  179.02332 23.0 23
  182.07367 23.0 23
  184.0556 26.0 26
  185.05153 78.0 78
  185.06393 53.0 53
  186.0675 23.0 23
  187.04439 74.0 74
  187.0784 25.0 25
  187.22417 25.0 25
  189.0537 58.0 58
  189.06227 73.0 73
  189.12436 26.0 26
  190.07332 48.0 48
  190.07979 25.0 25
  191.06487 57.0 57
  193.06508 32.0 32
  193.10127 30.0 30
  195.01796 29.0 29
  195.02823 30.0 30
  195.03827 66.0 66
  195.07257 23.0 23
  196.10753 31.0 31
  196.54932 22.0 22
  200.70041 32.0 32
  201.04846 53.0 53
  201.0601 78.0 78
  201.13452 22.0 22
  202.06381 34.0 34
  202.12663 26.0 26
  203.02808 25.0 25
  203.05745 25.0 25
  203.07057 135.0 135
  204.07225 64.0 64
  205.05037 344.0 344
  205.08376 27.0 27
  206.0489 53.0 53
  206.06673 23.0 23
  207.01544 32.0 32
  207.02686 30.0 30
  207.05772 97.0 97
  209.05434 27.0 27
  211.05719 26.0 26
  211.07657 34.0 34
  212.05402 22.0 22
  213.05603 69.0 69
  213.06818 26.0 26
  213.08997 29.0 29
  213.10892 26.0 26
  213.12306 23.0 23
  215.00529 35.0 35
  216.08696 26.0 26
  216.12022 22.0 22
  217.04198 19.0 19
  217.05431 112.0 112
  217.53307 25.0 25
  219.03125 26.0 26
  219.06554 96.0 96
  219.10248 27.0 27
  219.14044 38.0 38
  220.06723 56.0 56
  220.86281 29.0 29
  221.04086 125.0 125
  221.05371 78.0 78
  221.9803 22.0 22
  222.99251 26.0 26
  223.01422 23.0 23
  223.03046 23.0 23
  223.05258 34.0 34
  223.06174 42.0 42
  223.07024 22.0 22
  223.1035 22.0 22
  223.11748 26.0 26
  224.06755 25.0 25
  225.09392 27.0 27
  225.12569 22.0 22
  227.14746 27.0 27
  227.89569 43.0 43
  229.04874 222.0 222
  229.08176 27.0 27
  229.13042 36.0 36
  230.06023 45.0 45
  230.11427 27.0 27
  231.03651 23.0 23
  231.0631 91.0 91
  231.07466 22.0 22
  231.12807 29.0 29
  231.14955 48.0 48
  232.06818 27.0 27
  233.01353 49.0 49
  233.0475 571.0 570
  233.0786 40.0 40
  234.03032 29.0 29
  234.13713 27.0 27
  235.07047 22.0 22
  237.02917 61.0 61
  237.04321 93.0 93
  237.09206 27.0 27
  239.10397 49.0 49
  240.11847 31.0 31
  241.11668 25.0 25
  242.12743 23.0 23
  243.09706 34.0 34
  243.13213 22.0 22
  245.05678 32.0 32
  245.101 30.0 30
  245.12743 23.0 23
  246.07649 22.0 22
  247.05217 57.0 57
  247.06297 279.0 279
  248.07675 40.0 40
  248.09262 38.0 38
  249.07156 53.0 53
  249.11287 29.0 29
  251.03841 30.0 30
  251.05244 147.0 147
  251.06094 140.0 140
  252.05014 48.0 48
  252.06602 66.0 66
  256.07559 48.0 48
  257.04471 161.0 161
  257.05511 70.0 70
  257.08194 30.0 30
  257.11783 57.0 57
  259.05789 26.0 26
  259.06763 22.0 22
  259.10736 22.0 22
  259.12384 26.0 26
  260.13257 75.0 75
  261.04263 44.0 44
  261.10544 31.0 31
  261.13263 23.0 23
  262.05457 23.0 23
  263.04562 62.0 62
  265.07333 54.0 54
  265.08514 26.0 26
  267.09433 34.0 34
  267.10446 58.0 58
  269.09637 25.0 25
  269.12027 36.0 36
  270.1203 27.0 27
  274.14935 23.0 23
  275.05469 54.0 54
  275.11136 25.0 25
  275.13693 65.0 65
  275.14529 27.0 27
  276.05569 26.0 26
  276.07452 26.0 26
  277.07434 27.0 27
  277.1254 47.0 47
  279.05429 132.0 132
  279.16522 22.0 22
  280.05835 47.0 47
  285.07953 30.0 30
  285.11188 74.0 74
  285.12204 74.0 74
  286.03125 25.0 25
  287.12137 75.0 75
  287.12924 36.0 36
  287.14664 29.0 29
  288.12665 38.0 38
  289.0397 26.0 26
  289.10394 47.0 47
  289.87161 25.0 25
  290.03912 53.0 53
  290.79239 22.0 22
  291.05078 25.0 25
  291.45038 31.0 31
  293.07898 30.0 30
  293.14182 29.0 29
  294.61438 27.0 27
  295.09653 23.0 23
  295.10614 22.0 22
  296.09967 26.0 26
  299.05304 30.0 30
  302.07278 29.0 29
  303.04922 23.0 23
  303.12115 49.0 49
  307.04245 612.0 611
  307.05612 319.0 319
  307.81152 22.0 22
  308.04968 279.0 279
  308.06366 66.0 66
  309.04401 22.0 22
  314.13181 26.0 26
  318.78494 23.0 23
  321.05521 22.0 22
  321.13678 54.0 54
  323.06726 29.0 29
  325.02939 26.0 26
  325.05695 1000.0 999
  326.06491 110.0 110
  327.06592 40.0 40
  328.06909 51.0 51
  332.11282 23.0 23
  334.12869 26.0 26
  335.09866 69.0 69
  339.09625 27.0 27
  349.13428 96.0 96
  350.12854 49.0 49
  352.2164 25.0 25
  361.12778 38.0 38
  366.12558 30.0 30
  367.14526 26.0 26
  368.13403 32.0 32
  377.116 22.0 22
  395.13272 26.0 26
  418.16214 34.0 34
//
