ACCESSION: MSBNK-RIKEN-PR307617
RECORD_TITLE: Naringin; LC-ESI-QTOF; MS2
DATE: 2019.03.28
AUTHORS: Tetsuya Mori, Center for Sustainable Resource Science, RIKEN
LICENSE: CC BY-NC-SA
PUBLICATION: Tsugawa H., Nakabayashi R., Mori T., Yamada Y., Takahashi M., Rai A., Sugiyama R., Yamamoto H., Nakaya T., Yamazaki M., Kooke R., Bac-Molenaar JA., Oztolan-Erol N., Keurentjes JJB., Arita M., Saito K. (2019) "A cheminformatics approach to characterize metabolomes in stable-isotope-labeled organisms" Nature Methods 16(4):295-298. [doi:10.1038/s41592-019-0358-2]
COMMENT: registered in RIKEN PlaSMA
CH$NAME: Naringin
CH$COMPOUND_CLASS: Flavonoid-7-O-glycosides
CH$FORMULA: C27H32O14
CH$EXACT_MASS: 580.539
CH$SMILES: C[C@H]1[C@@H]([C@H]([C@H]([C@@H](O1)O[C@@H]2[C@H]([C@@H]([C@H](O[C@H]2OC3=CC(=C4C(=O)C[C@H](OC4=C3)C5=CC=C(C=C5)O)O)CO)O)O)O)O)O
CH$IUPAC: InChI=1S/C27H32O14/c1-10-20(32)22(34)24(36)26(37-10)41-25-23(35)21(33)18(9-28)40-27(25)38-13-6-14(30)19-15(31)8-16(39-17(19)7-13)11-2-4-12(29)5-3-11/h2-7,10,16,18,20-30,32-36H,8-9H2,1H3/t10-,16-,18+,20-,21+,22+,23-,24+,25+,26-,27+/m0/s1
CH$LINK: INCHIKEY DFPMSGMNTNDNHN-ZPHOTFPESA-N
AC$INSTRUMENT: LC, Waters Acquity UPLC System; MS, Waters Xevo G2 Q-Tof
AC$INSTRUMENT_TYPE: LC-ESI-QTOF
AC$MASS_SPECTROMETRY: MS_TYPE MS2
AC$MASS_SPECTROMETRY: ION_MODE NEGATIVE
AC$MASS_SPECTROMETRY: COLLISION_ENERGY 6V
AC$MASS_SPECTROMETRY: DESOLVATION_GAS_FLOW 800/h
AC$MASS_SPECTROMETRY: DESOLVATION_TEMPERATURE 450 C
AC$MASS_SPECTROMETRY: IONIZATION ESI
AC$CHROMATOGRAPHY: CAPILLARY_VOLTAGE -2.75 kV
AC$CHROMATOGRAPHY: COLUMN_NAME Acquity bridged ethyl hybrid C18 (1.7 um, 2.1 mm * 100 mm, Waters)
AC$CHROMATOGRAPHY: COLUMN_TEMPERATURE 40 C
AC$CHROMATOGRAPHY: FLOW_GRADIENT A/B = (99.5%/0.5% at 0 min, 99.5%/0.5% at 0.1 min, 20%/80% at 10 min, 0.5%/99.5% at 10.1 min, 0.5%/99.5% at 12.0 min, 99.5%/0.5% at 12.1 min, 99.5%/0.5% at 15.0 min)
AC$CHROMATOGRAPHY: FLOW_RATE 0.3 ml/min at 0 min, 0.3 ml/min at 10 min, 0.4 ml/min at 10.1 min, 0.4 ml/min at 14.4 min, 0.3 ml/min at 14.5 min
AC$CHROMATOGRAPHY: RETENTION_TIME 4.378117
AC$CHROMATOGRAPHY: SOLVENT A water including 0.1% formic acid
AC$CHROMATOGRAPHY: SOLVENT B acetonitrile including 0.1% formic acid
MS$FOCUSED_ION: PRECURSOR_TYPE [M-H]-
MS$FOCUSED_ION: PRECURSOR_M/Z 579.17192924783
PK$SPLASH: splash10-0udi-0910000000-6d2d93ca61d2cee4f1b9
PK$NUM_PEAK: 34
PK$PEAK: m/z int. rel.int.
  63.02685 6.0 6
  65.00301 11.0 11
  83.0135 21.0 21
  93.0351 25.0 25
  107.01358 153.0 153
  108.01253 6.0 6
  119.04918 279.0 279
  120.05028 23.0 23
  120.06368 6.0 6
  121.03195 6.0 6
  125.02504 31.0 31
  136.01787 31.0 31
  145.02852 17.0 17
  151.00281 1000.0 999
  152.00664 53.0 53
  153.0078 7.0 7
  163.03679 6.0 6
  164.01169 30.0 30
  165.01756 56.0 56
  177.01869 53.0 53
  185.06384 10.0 10
  187.03864 27.0 27
  213.99498 7.0 7
  227.07072 56.0 56
  228.06889 8.0 8
  229.04541 16.0 16
  229.07111 6.0 6
  269.03848 12.0 12
  271.06302 120.0 120
  272.06653 12.0 12
  285.08066 6.0 6
  295.04761 6.0 6
  579.15515 6.0 6
  579.17249 10.0 10
//
