ACCESSION: MSBNK-RIKEN-PR310603
RECORD_TITLE: Tetrahydroalstonine; LC-ESI-QTOF; MS2
DATE: 2019.03.28
AUTHORS: Tetsuya Mori, Center for Sustainable Resource Science, RIKEN
LICENSE: CC BY-NC-SA
PUBLICATION: Tsugawa H., Nakabayashi R., Mori T., Yamada Y., Takahashi M., Rai A., Sugiyama R., Yamamoto H., Nakaya T., Yamazaki M., Kooke R., Bac-Molenaar JA., Oztolan-Erol N., Keurentjes JJB., Arita M., Saito K. (2019) "A cheminformatics approach to characterize metabolomes in stable-isotope-labeled organisms" Nature Methods 16(4):295-298. [doi:10.1038/s41592-019-0358-2]
COMMENT: Annotation level-1
CH$NAME: Tetrahydroalstonine
CH$COMPOUND_CLASS: Alkaloids
CH$FORMULA: C21H24N2O3
CH$EXACT_MASS: 352.434
CH$SMILES: COC(=O)C1=COC(C)C2CN3CCC4=C(NC5=C4C=CC=C5)C3CC12
CH$IUPAC: InChI=1S/C21H24N2O3/c1-12-16-10-23-8-7-14-13-5-3-4-6-18(13)22-20(14)19(23)9-15(16)17(11-26-12)21(24)25-2/h3-6,11-12,15-16,19,22H,7-10H2,1-2H3
CH$LINK: INCHIKEY GRTOGORTSDXSFK-UHFFFAOYSA-N
AC$INSTRUMENT: LC, Waters Acquity UPLC System; MS, Waters Xevo G2 Q-Tof
AC$INSTRUMENT_TYPE: LC-ESI-QTOF
AC$MASS_SPECTROMETRY: MS_TYPE MS2
AC$MASS_SPECTROMETRY: ION_MODE POSITIVE
AC$MASS_SPECTROMETRY: COLLISION_ENERGY 6V
AC$MASS_SPECTROMETRY: DESOLVATION_GAS_FLOW 800/h
AC$MASS_SPECTROMETRY: DESOLVATION_TEMPERATURE 450 C
AC$MASS_SPECTROMETRY: IONIZATION ESI
AC$CHROMATOGRAPHY: CAPILLARY_VOLTAGE +3.00 kV
AC$CHROMATOGRAPHY: COLUMN_NAME Acquity bridged ethyl hybrid C18 (1.7 um, 2.1 mm * 100 mm, Waters)
AC$CHROMATOGRAPHY: COLUMN_TEMPERATURE 40 C
AC$CHROMATOGRAPHY: FLOW_GRADIENT A/B = (99.5%/0.5% at 0 min, 99.5%/0.5% at 0.1 min, 20%/80% at 10 min, 0.5%/99.5% at 10.1 min, 0.5%/99.5% at 12.0 min, 99.5%/0.5% at 12.1 min, 99.5%/0.5% at 15.0 min)
AC$CHROMATOGRAPHY: FLOW_RATE 0.3 ml/min at 0 min, 0.3 ml/min at 10 min, 0.4 ml/min at 10.1 min, 0.4 ml/min at 14.4 min, 0.3 ml/min at 14.5 min
AC$CHROMATOGRAPHY: RETENTION_TIME 4.87
AC$CHROMATOGRAPHY: SOLVENT A water including 0.1% formic acid
AC$CHROMATOGRAPHY: SOLVENT B acetonitrile including 0.1% formic acid
MS$FOCUSED_ION: PRECURSOR_TYPE [M+H]+
MS$FOCUSED_ION: PRECURSOR_M/Z 353.18597
PK$SPLASH: splash10-0udl-0729000000-db7fbdad6ba8e03cd38b
PK$NUM_PEAK: 377
PK$PEAK: m/z int. rel.int.
  52.25431 25.0 1
  56.05177 42.0 1
  56.72569 17.0 0
  60.56416 17.0 0
  61.24913 24.0 1
  70.06441 24.0 1
  77.04017 18.0 0
  81.06493 45.0 1
  81.07213 25.0 1
  91.03819 25.0 1
  91.05387 48.0 1
  91.26866 20.0 0
  94.06378 17.0 0
  95.05267 17.0 0
  96.04285 27.0 1
  96.07487 54.0 1
  97.06268 18.0 0
  97.17518 30.0 1
  103.05247 24.0 1
  103.05704 30.0 1
  104.04453 24.0 1
  105.06789 48.0 1
  107.0667 24.0 1
  108.08282 266.0 6
  109.02769 17.0 0
  109.05327 21.0 1
  109.06126 21.0 1
  109.07544 25.0 1
  109.69309 22.0 1
  115.03159 29.0 1
  115.05202 117.0 3
  116.05271 18.0 0
  116.30908 20.0 0
  117.05911 75.0 2
  117.07227 456.0 11
  118.07014 17.0 0
  118.07501 22.0 1
  119.29288 28.0 1
  120.08617 34.0 1
  121.06467 30.0 1
  121.20807 44.0 1
  121.81132 20.0 0
  122.02374 41.0 1
  124.03899 96.0 2
  125.03808 20.0 0
  127.05338 307.0 7
  128.05573 61.0 1
  128.06578 60.0 1
  128.10263 22.0 1
  129.06528 22.0 1
  129.07204 25.0 1
  129.08136 26.0 1
  130.06213 43.0 1
  130.07391 25.0 1
  131.04599 23.0 1
  131.0769 19.0 0
  132.0786 23.0 1
  132.51196 37.0 1
  133.0007 18.0 0
  133.01013 21.0 1
  133.06401 20.0 0
  134.09737 43.0 1
  135.02179 24.0 1
  135.04332 36.0 1
  136.5029 21.0 1
  136.88716 21.0 1
  137.78329 19.0 0
  141.30376 20.0 0
  142.06065 18.0 0
  142.06972 40.0 1
  143.05437 17.0 0
  143.07379 521.0 13
  143.09109 17.0 0
  143.12962 18.0 0
  143.71844 19.0 0
  144.02364 42.0 1
  144.03752 23.0 1
  144.05373 183.0 4
  144.08141 23639.0 575
  144.11568 293.0 7
  144.19087 25.0 1
  144.22682 17.0 0
  144.54868 21.0 1
  144.63672 18.0 0
  144.67683 19.0 0
  144.71501 20.0 0
  144.90816 19.0 0
  145.04895 33.0 1
  145.08537 2914.0 71
  145.22623 17.0 0
  145.69748 17.0 0
  146.06879 18.0 0
  146.08388 140.0 3
  146.09213 74.0 2
  147.04216 23.0 1
  147.08162 37.0 1
  148.5873 18.0 0
  149.06352 56.0 1
  149.86644 22.0 1
  150.08961 41.0 1
  150.10146 18.0 0
  150.56349 20.0 0
  151.08705 53.0 1
  152.33652 24.0 1
  153.05522 18.0 0
  153.07452 43.0 1
  154.05859 21.0 1
  155.0603 18.0 0
  155.07159 105.0 3
  155.77321 22.0 1
  156.0648 62.0 2
  156.07968 213.0 5
  157.08946 100.0 2
  158.0564 21.0 1
  158.09564 585.0 14
  158.10693 86.0 2
  159.09685 57.0 1
  159.10439 54.0 1
  160.07475 17.0 0
  161.23399 27.0 1
  162.09355 262.0 6
  163.06308 18.0 0
  163.09644 18.0 0
  164.07341 25.0 1
  165.0751 25.0 1
  166.08134 43.0 1
  167.07283 406.0 10
  168.07312 104.0 3
  168.08424 127.0 3
  169.0777 22.0 1
  169.0905 74.0 2
  170.09181 280.0 7
  170.10381 152.0 4
  171.08873 54.0 1
  171.09628 54.0 1
  172.07358 36.0 1
  172.08247 25.0 1
  173.08058 28.0 1
  174.0549 29.0 1
  174.08719 19.0 0
  176.07181 22.0 1
  178.05948 21.0 1
  178.08878 1444.0 35
  179.07922 30.0 1
  179.09424 189.0 5
  179.85097 20.0 0
  180.07068 75.0 2
  180.07816 133.0 3
  180.08754 136.0 3
  180.26712 35.0 1
  181.07022 21.0 1
  181.0824 20.0 0
  181.09286 18.0 0
  181.9772 41.0 1
  182.09322 281.0 7
  182.10184 157.0 4
  183.05225 22.0 1
  183.09846 46.0 1
  183.11205 32.0 1
  184.10727 37.0 1
  185.10555 123.0 3
  185.11345 80.0 2
  187.08334 17.0 0
  187.12137 40.0 1
  188.9545 38.0 1
  190.07172 33.0 1
  190.08664 175.0 4
  190.09363 117.0 3
  190.4391 18.0 0
  191.07471 41.0 1
  191.08907 18.0 0
  192.07542 35.0 1
  193.0956 67.0 2
  194.09003 24.0 1
  194.10001 45.0 1
  194.11031 48.0 1
  194.60985 21.0 1
  195.11641 41.0 1
  196.10066 17.0 0
  196.11429 21.0 1
  197.0885 18.0 0
  197.11261 46.0 1
  199.09224 17.0 0
  199.12045 449.0 11
  199.13449 63.0 2
  200.12445 57.0 1
  200.1322 48.0 1
  201.22876 22.0 1
  204.08295 20.0 0
  204.10304 96.0 2
  205.37711 20.0 0
  205.75284 19.0 0
  206.07295 17.0 0
  206.09641 50.0 1
  206.69829 29.0 1
  207.10312 43.0 1
  208.04135 24.0 1
  208.078 21.0 1
  208.08957 116.0 3
  208.1006 142.0 3
  208.1122 87.0 2
  209.08624 38.0 1
  209.10281 184.0 4
  209.11581 116.0 3
  209.13034 23.0 1
  209.75729 30.0 1
  210.09172 99.0 2
  210.1142 2229.0 54
  210.19968 25.0 1
  210.49522 20.0 0
  211.09163 42.0 1
  211.10953 110.0 3
  211.11722 248.0 6
  211.12933 59.0 1
  212.11163 17.0 0
  213.11949 18.0 0
  215.54021 26.0 1
  217.08195 20.0 0
  218.09297 19.0 0
  218.10292 25.0 1
  219.09259 55.0 1
  219.10547 106.0 3
  220.10004 27.0 1
  220.11308 19.0 0
  220.26843 29.0 1
  221.06651 18.0 0
  221.10614 46.0 1
  221.11879 49.0 1
  222.03365 50.0 1
  222.0849 34.0 1
  222.11371 2357.0 57
  222.144 37.0 1
  222.69217 27.0 1
  223.11543 590.0 14
  223.13647 110.0 3
  223.68518 21.0 1
  224.07195 18.0 0
  224.10155 20.0 0
  224.12036 17.0 0
  224.13185 63.0 2
  224.1422 37.0 1
  225.08574 31.0 1
  225.12602 22.0 1
  225.13159 54.0 1
  225.1469 23.0 1
  225.65495 26.0 1
  226.08803 20.0 0
  226.83319 29.0 1
  229.08836 23.0 1
  230.09541 18.0 0
  231.29504 18.0 0
  231.41437 19.0 0
  231.75035 20.0 0
  232.1093 23.0 1
  232.47989 17.0 0
  232.50504 17.0 0
  233.08455 25.0 1
  233.5209 21.0 1
  234.09578 20.0 0
  234.12239 78.0 2
  234.13464 38.0 1
  235.12703 20.0 0
  236.13123 24.0 1
  237.09532 17.0 0
  237.88271 18.0 0
  238.11697 19.0 0
  239.09233 24.0 1
  239.12898 20.0 0
  239.7357 18.0 0
  240.10663 36.0 1
  240.1205 31.0 1
  240.90936 18.0 0
  241.09537 18.0 0
  241.11957 20.0 0
  241.54814 33.0 1
  242.11859 26.0 1
  243.81631 18.0 0
  244.08772 22.0 1
  246.09573 24.0 1
  249.13905 23.0 1
  249.15643 24.0 1
  250.11723 21.0 1
  250.13408 21.0 1
  250.14755 43.0 1
  251.14691 112.0 3
  251.15894 195.0 5
  251.82625 23.0 1
  252.07329 27.0 1
  252.10338 139.0 3
  252.16013 102.0 2
  253.108 96.0 2
  254.11597 57.0 1
  255.10025 17.0 0
  256.09662 24.0 1
  258.09 20.0 0
  258.57263 24.0 1
  260.10858 36.0 1
  260.12784 23.0 1
  260.59598 29.0 1
  262.11884 53.0 1
  262.14212 19.0 0
  264.08719 22.0 1
  264.11389 17.0 0
  264.14661 57.0 1
  265.10489 18.0 0
  265.1127 21.0 1
  265.15182 23.0 1
  267.05893 22.0 1
  267.14841 22.0 1
  268.1254 27.0 1
  272.11453 25.0 1
  275.16263 27.0 1
  275.1745 20.0 0
  276.10522 20.0 0
  276.15149 56.0 1
  277.12198 26.0 1
  277.13428 18.0 0
  277.17407 20.0 0
  278.13806 40.0 1
  278.81903 20.0 0
  279.11322 26.0 1
  280.12204 17.0 0
  280.14679 57.0 1
  284.13211 125.0 3
  286.12503 44.0 1
  291.11502 33.0 1
  291.17969 24.0 1
  292.12131 17.0 0
  292.14215 22.0 1
  293.15732 45.0 1
  293.34653 24.0 1
  293.70871 21.0 1
  294.11029 18.0 0
  294.15042 22.0 1
  294.62564 41.0 1
  295.32132 20.0 0
  297.96643 17.0 0
  303.14767 74.0 2
  304.12149 28.0 1
  304.14032 17.0 0
  306.14935 24.0 1
  307.15042 25.0 1
  309.16672 105.0 3
  310.12784 18.0 0
  310.15305 66.0 2
  319.15536 17.0 0
  321.16058 780.0 19
  321.91782 21.0 1
  322.15884 177.0 4
  322.17419 37.0 1
  323.5094 19.0 0
  324.13919 28.0 1
  324.16434 96.0 2
  325.12515 26.0 1
  325.18994 17.0 0
  337.155 25.0 1
  338.17371 18.0 0
  344.85245 20.0 0
  346.52457 17.0 0
  351.16016 17.0 0
  351.17166 23.0 1
  351.6131 17.0 0
  351.77048 17.0 0
  352.1597 44.0 1
  352.18015 46.0 1
  352.19775 26.0 1
  352.82144 18.0 0
  352.85349 17.0 0
  353.04944 35.0 1
  353.06677 41.0 1
  353.12585 337.0 8
  353.15219 57.0 1
  353.18414 41069.0 999
  353.23834 1147.0 28
  353.28061 42.0 1
  353.29297 18.0 0
  353.37054 20.0 0
//
