ACCESSION: MSBNK-RIKEN-PR303670
RECORD_TITLE: Quercetin 3-O-[2''-O-b-D-glucopyranosyl]-a-L-rhamnopyranoside; LC-ESI-QTOF; MS2
DATE: 2019.03.28
AUTHORS: Tetsuya Mori, Center for Sustainable Resource Science, RIKEN
LICENSE: CC BY-NC-SA
PUBLICATION: Tsugawa H., Nakabayashi R., Mori T., Yamada Y., Takahashi M., Rai A., Sugiyama R., Yamamoto H., Nakaya T., Yamazaki M., Kooke R., Bac-Molenaar JA., Oztolan-Erol N., Keurentjes JJB., Arita M., Saito K. (2019) "A cheminformatics approach to characterize metabolomes in stable-isotope-labeled organisms" Nature Methods 16(4):295-298. [doi:10.1038/s41592-019-0358-2]
COMMENT: registered in RIKEN PlaSMA
CH$NAME: Quercetin 3-O-[2''-O-b-D-glucopyranosyl]-a-L-rhamnopyranoside
CH$COMPOUND_CLASS: Flavonoid-3-O-glycosides
CH$FORMULA: C27H30O16
CH$EXACT_MASS: 610.521
CH$SMILES: CC1OC(OC2=C(OC3=CC(O)=CC(O)=C3C2=O)C2=CC(O)=C(O)C=C2)C(OC2OC(CO)C(O)C(O)C2O)C(O)C1O
CH$IUPAC: InChI=1S/C27H30O16/c1-8-17(33)21(37)25(43-26-22(38)20(36)18(34)15(7-28)41-26)27(39-8)42-24-19(35)16-13(32)5-10(29)6-14(16)40-23(24)9-2-3-11(30)12(31)4-9/h2-6,8,15,17-18,20-22,25-34,36-38H,7H2,1H3
CH$LINK: INCHIKEY DFNXNCCYQRPZMD-UHFFFAOYSA-N
AC$INSTRUMENT: LC, Waters Acquity UPLC System; MS, Waters Xevo G2 Q-Tof
AC$INSTRUMENT_TYPE: LC-ESI-QTOF
AC$MASS_SPECTROMETRY: MS_TYPE MS2
AC$MASS_SPECTROMETRY: ION_MODE POSITIVE
AC$MASS_SPECTROMETRY: COLLISION_ENERGY 6V
AC$MASS_SPECTROMETRY: DESOLVATION_GAS_FLOW 800/h
AC$MASS_SPECTROMETRY: DESOLVATION_TEMPERATURE 450 C
AC$MASS_SPECTROMETRY: IONIZATION ESI
AC$CHROMATOGRAPHY: CAPILLARY_VOLTAGE +3.00 kV
AC$CHROMATOGRAPHY: COLUMN_NAME Acquity bridged ethyl hybrid C18 (1.7 um, 2.1 mm * 100 mm, Waters)
AC$CHROMATOGRAPHY: COLUMN_TEMPERATURE 40 C
AC$CHROMATOGRAPHY: FLOW_GRADIENT A/B = (99.5%/0.5% at 0 min, 99.5%/0.5% at 0.1 min, 20%/80% at 10 min, 0.5%/99.5% at 10.1 min, 0.5%/99.5% at 12.0 min, 99.5%/0.5% at 12.1 min, 99.5%/0.5% at 15.0 min)
AC$CHROMATOGRAPHY: FLOW_RATE 0.3 ml/min at 0 min, 0.3 ml/min at 10 min, 0.4 ml/min at 10.1 min, 0.4 ml/min at 14.4 min, 0.3 ml/min at 14.5 min
AC$CHROMATOGRAPHY: RETENTION_TIME 4.1478
AC$CHROMATOGRAPHY: SOLVENT A water including 0.1% formic acid
AC$CHROMATOGRAPHY: SOLVENT B acetonitrile including 0.1% formic acid
MS$FOCUSED_ION: PRECURSOR_TYPE [M+H]+
MS$FOCUSED_ION: PRECURSOR_M/Z 611.1606613
PK$SPLASH: splash10-0udi-1109100000-ccb236ff40d15afc1451
PK$NUM_PEAK: 89
PK$PEAK: m/z int. rel.int.
  71.04607 14.0 14
  71.05169 32.0 32
  75.04504 8.0 8
  83.0349 10.0 10
  83.04875 14.0 14
  85.01942 6.0 6
  85.02783 115.0 115
  87.0472 17.0 17
  97.03681 6.0 6
  99.04185 9.0 9
  102.27122 6.0 6
  109.02726 14.0 14
  111.03677 8.0 8
  111.04829 15.0 15
  127.03224 11.0 11
  127.03811 9.0 9
  129.04167 13.0 13
  129.05424 142.0 142
  131.04605 5.0 5
  135.08479 8.0 8
  137.05405 10.0 10
  137.0592 7.0 7
  145.04596 28.0 28
  147.06464 13.0 13
  147.07042 18.0 18
  148.06851 5.0 5
  179.97192 8.0 8
  183.0076 8.0 8
  191.05719 9.0 9
  204.75394 7.0 7
  218.65482 6.0 6
  255.07886 9.0 9
  255.09068 10.0 10
  256.0947 8.0 8
  259.05997 5.0 5
  260.06131 6.0 6
  291.25497 5.0 5
  302.97467 9.0 9
  302.98865 10.0 10
  303.05124 1000.0 999
  304.05527 126.0 126
  304.06638 32.0 32
  305.05121 6.0 6
  305.07126 11.0 11
  315.04324 42.0 42
  315.06616 6.0 6
  316.04932 16.0 16
  324.56122 6.0 6
  327.00412 6.0 6
  327.03357 13.0 13
  327.05106 26.0 26
  341.04376 6.0 6
  345.04584 63.0 63
  345.06232 86.0 86
  345.08295 22.0 22
  345.10275 7.0 7
  346.05585 75.0 75
  347.06076 14.0 14
  348.07944 6.0 6
  355.03024 8.0 8
  369.04819 17.0 17
  369.06766 58.0 58
  371.07083 7.0 7
  372.0394 5.0 5
  375.09195 7.0 7
  381.05313 6.0 6
  387.06821 10.0 10
  387.67618 5.0 5
  395.06799 8.0 8
  395.08493 23.0 23
  395.38168 8.0 8
  396.08234 21.0 21
  413.0625 5.0 5
  413.08362 47.0 47
  413.1012 69.0 69
  414.0788 56.0 56
  414.10681 10.0 10
  415.08472 7.0 7
  415.10373 6.0 6
  416.1167 13.0 13
  429.05936 7.0 7
  431.06818 20.0 20
  431.09515 40.0 40
  432.09561 13.0 13
  449.09116 20.0 20
  449.12579 45.0 45
  450.10135 5.0 5
  507.10297 6.0 6
  551.29694 6.0 6
//
