ACCESSION: MSBNK-RIKEN-PR100485
RECORD_TITLE: (-)-Shikimic acid; LC-ESI-QTOF; MS2; CE:Ramp 5-60 V; [M-H]-
DATE: 2016.01.19 (Created 2010.06.21, modified 2011.05.06)
AUTHORS: Matsuda F, Suzuki M, Sawada Y, Plant Science Center, RIKEN.
LICENSE: CC BY-SA
COMMENT: Acquisition and generation of the data is financially supported in part by CREST/JST.
CH$NAME: (-)Shikimic acid
CH$NAME: shikimate
CH$NAME: 3,4,5-Trihydroxy-1-cyclohexene-1-carboxylic acid
CH$NAME: (3R,4S,5R)-(?)-3,4,5-Trihydroxy-1-cyclohexenecarboxylic acid
CH$NAME: (-)-Shikimic acid
CH$COMPOUND_CLASS: Carboxylic acids
CH$FORMULA: C7H10O5
CH$EXACT_MASS: 174.05282
CH$SMILES: OC(=O)C(C1)=CC([H])(O)C([H])(O)C([H])(O)1
CH$IUPAC: InChI=1S/C7H10O5/c8-4-1-3(7(11)12)2-5(9)6(4)10/h1,4-6,8-10H,2H2,(H,11,12)/t4-,5-,6-/m1/s1
CH$LINK: CAS 138-59-0
CH$LINK: CHEMSPIDER 8412
CH$LINK: KAPPAVIEW KPC00972
CH$LINK: KEGG C00493
CH$LINK: KNAPSACK C00001203
CH$LINK: PUBCHEM CID:8742
CH$LINK: INCHIKEY JXOHGGNKMLTUBP-HSUXUTPPSA-N
CH$LINK: COMPTOX DTXSID4032039
AC$INSTRUMENT: UPLC Q-Tof Premier, Waters
AC$INSTRUMENT_TYPE: LC-ESI-QTOF
AC$MASS_SPECTROMETRY: MS_TYPE MS2
AC$MASS_SPECTROMETRY: ION_MODE NEGATIVE
AC$MASS_SPECTROMETRY: COLLISION_ENERGY Ramp 5-60 V
AC$MASS_SPECTROMETRY: DATAFORMAT Continuum
AC$MASS_SPECTROMETRY: DESOLVATION_GAS_FLOW 600.0 L/Hr
AC$MASS_SPECTROMETRY: DESOLVATION_TEMPERATURE 400 C
AC$MASS_SPECTROMETRY: FRAGMENTATION_METHOD LOW-ENERGY CID
AC$MASS_SPECTROMETRY: IONIZATION ESI
AC$MASS_SPECTROMETRY: SOURCE_TEMPERATURE 120 C
AC$CHROMATOGRAPHY: CAPILLARY_VOLTAGE 3.0 kV
AC$CHROMATOGRAPHY: SAMPLING_CONE 23.0 V
AC$CHROMATOGRAPHY: SOLVENT A CH3CN(0.1%HCOOH)
AC$CHROMATOGRAPHY: SOLVENT B H2O(0.1%HCOOH)
MS$FOCUSED_ION: PRECURSOR_M/Z 173.04502
MS$FOCUSED_ION: PRECURSOR_TYPE [M-H]-
PK$SPLASH: splash10-006x-9600000000-3a5ab91754d9d837d8b4
PK$NUM_PEAK: 8
PK$PEAK: m/z int. rel.int.
  73.0301 64.72 287
  83.0500 34.27 152
  93.0348 225.3 999
  99.0450 28.41 126
  111.0439 73.48 326
  137.0236 57.73 256
  155.0348 36.25 161
  173.0450 82.09 364
//
