ACCESSION: MSBNK-RIKEN-PR302798
RECORD_TITLE: Kaempferol-4'-methyl ether; LC-ESI-QTOF; MS2
DATE: 2019.03.28
AUTHORS: Tetsuya Mori, Center for Sustainable Resource Science, RIKEN
LICENSE: CC BY-NC-SA
PUBLICATION: Tsugawa H., Nakabayashi R., Mori T., Yamada Y., Takahashi M., Rai A., Sugiyama R., Yamamoto H., Nakaya T., Yamazaki M., Kooke R., Bac-Molenaar JA., Oztolan-Erol N., Keurentjes JJB., Arita M., Saito K. (2019) "A cheminformatics approach to characterize metabolomes in stable-isotope-labeled organisms" Nature Methods 16(4):295-298. [doi:10.1038/s41592-019-0358-2]
COMMENT: registered in RIKEN PlaSMA
CH$NAME: Kaempferol-4'-methyl ether
CH$COMPOUND_CLASS: Flavonols
CH$FORMULA: C16H12O6
CH$EXACT_MASS: 300.266
CH$SMILES: COC1=CC=C(C=C1)C1=C(O)C(=O)C2=C(O)C=C(O)C=C2O1
CH$IUPAC: InChI=1S/C16H12O6/c1-21-10-4-2-8(3-5-10)16-15(20)14(19)13-11(18)6-9(17)7-12(13)22-16/h2-7,17-18,20H,1H3
CH$LINK: INCHIKEY SQFSKOYWJBQGKQ-UHFFFAOYSA-N
AC$INSTRUMENT: LC, Waters Acquity UPLC System; MS, Waters Xevo G2 Q-Tof
AC$INSTRUMENT_TYPE: LC-ESI-QTOF
AC$MASS_SPECTROMETRY: MS_TYPE MS2
AC$MASS_SPECTROMETRY: ION_MODE POSITIVE
AC$MASS_SPECTROMETRY: COLLISION_ENERGY 6V
AC$MASS_SPECTROMETRY: DESOLVATION_GAS_FLOW 800/h
AC$MASS_SPECTROMETRY: DESOLVATION_TEMPERATURE 450 C
AC$MASS_SPECTROMETRY: IONIZATION ESI
AC$CHROMATOGRAPHY: CAPILLARY_VOLTAGE +3.00 kV
AC$CHROMATOGRAPHY: COLUMN_NAME Acquity bridged ethyl hybrid C18 (1.7 um, 2.1 mm * 100 mm, Waters)
AC$CHROMATOGRAPHY: COLUMN_TEMPERATURE 40 C
AC$CHROMATOGRAPHY: FLOW_GRADIENT A/B = (99.5%/0.5% at 0 min, 99.5%/0.5% at 0.1 min, 20%/80% at 10 min, 0.5%/99.5% at 10.1 min, 0.5%/99.5% at 12.0 min, 99.5%/0.5% at 12.1 min, 99.5%/0.5% at 15.0 min)
AC$CHROMATOGRAPHY: FLOW_RATE 0.3 ml/min at 0 min, 0.3 ml/min at 10 min, 0.4 ml/min at 10.1 min, 0.4 ml/min at 14.4 min, 0.3 ml/min at 14.5 min
AC$CHROMATOGRAPHY: RETENTION_TIME 7.544483
AC$CHROMATOGRAPHY: SOLVENT A water including 0.1% formic acid
AC$CHROMATOGRAPHY: SOLVENT B acetonitrile including 0.1% formic acid
MS$FOCUSED_ION: PRECURSOR_TYPE [M+H]+
MS$FOCUSED_ION: PRECURSOR_M/Z 301.0706646
PK$SPLASH: splash10-0fb9-1930000000-de2aa7b94c2f3d4c5731
PK$NUM_PEAK: 197
PK$PEAK: m/z int. rel.int.
  65.03333 26.0 26
  66.04777 24.0 24
  66.76282 16.0 16
  67.02053 26.0 26
  68.99306 72.0 72
  68.99784 182.0 182
  70.04191 17.0 17
  77.03776 123.0 123
  78.00732 19.0 19
  78.04269 154.0 154
  78.04886 72.0 72
  78.24858 22.0 22
  79.05038 83.0 83
  79.05644 22.0 22
  80.06474 12.0 12
  81.03304 18.0 18
  83.00787 29.0 29
  85.03012 17.0 17
  86.42411 15.0 15
  87.06748 19.0 19
  89.03817 16.0 16
  90.04168 26.0 26
  90.05139 15.0 15
  91.05364 14.0 14
  92.017 15.0 15
  93.02992 50.0 50
  95.96054 15.0 15
  96.0124 12.0 12
  96.0195 143.0 143
  102.05144 20.0 20
  105.02804 40.0 40
  105.03268 114.0 114
  105.73399 13.0 13
  106.01936 15.0 15
  106.04174 189.0 189
  106.05003 11.0 11
  107.04426 36.0 36
  107.05141 19.0 19
  107.83826 12.0 12
  108.01972 122.0 122
  109.02531 36.0 36
  110.03647 13.0 13
  110.57067 26.0 26
  111.0083 21.0 21
  111.04763 15.0 15
  115.05391 26.0 26
  115.05861 49.0 49
  118.03427 12.0 12
  118.69128 15.0 15
  120.05348 21.0 21
  120.84306 22.0 22
  121.02975 14.0 14
  121.06235 18.0 18
  121.07008 26.0 26
  122.02927 16.0 16
  123.04178 14.0 14
  124.01327 383.0 383
  124.01962 118.0 118
  125.0196 51.0 51
  126.0302 20.0 20
  127.03657 27.0 27
  127.05152 91.0 91
  128.02109 15.0 15
  128.06198 302.0 302
  131.04604 78.0 78
  131.05548 71.0 71
  131.067 15.0 15
  131.40927 15.0 15
  133.06163 82.0 82
  134.03514 17.0 17
  134.9136 15.0 15
  135.00612 18.0 18
  135.03584 89.0 89
  135.05009 84.0 84
  136.01059 79.0 79
  137.01833 55.0 55
  137.02989 21.0 21
  137.56232 25.0 25
  138.04849 15.0 15
  139.04541 18.0 18
  139.05635 79.0 79
  140.05992 71.0 71
  140.06696 17.0 17
  141.07384 15.0 15
  142.03841 20.0 20
  143.04182 12.0 12
  145.03848 29.0 29
  145.05833 39.0 39
  145.06377 115.0 115
  147.04733 49.0 49
  148.3445 27.0 27
  149.0251 21.0 21
  149.77359 12.0 12
  150.00703 34.0 34
  150.02657 44.0 44
  150.03557 34.0 34
  151.05711 18.0 18
  151.38538 21.0 21
  152.01041 88.0 88
  153.00659 19.0 19
  153.01984 407.0 407
  154.02466 78.0 78
  155.01985 14.0 14
  155.03767 26.0 26
  155.04739 146.0 146
  155.05293 298.0 298
  155.07106 46.0 46
  156.03932 23.0 23
  156.05154 114.0 114
  156.66998 12.0 12
  160.03812 22.0 22
  160.04689 50.0 50
  161.05782 167.0 167
  161.06703 53.0 53
  162.04016 20.0 20
  162.07379 15.0 15
  163.0359 28.0 28
  165.0273 31.0 31
  167.04935 26.0 26
  168.03964 22.0 22
  171.04872 89.0 89
  172.05167 18.0 18
  172.39006 33.0 33
  173.06024 99.0 99
  173.07187 26.0 26
  174.03148 18.0 18
  174.05714 16.0 16
  175.04498 21.0 21
  176.0329 68.0 68
  176.04884 57.0 57
  176.97919 31.0 31
  183.03745 62.0 62
  183.0464 67.0 67
  184.05353 233.0 233
  184.9895 15.0 15
  185.02832 27.0 27
  185.04829 38.0 38
  185.05649 67.0 67
  185.06303 69.0 69
  185.07353 23.0 23
  186.21545 13.0 13
  186.62285 19.0 19
  186.98759 15.0 15
  187.0378 236.0 236
  187.04523 124.0 124
  188.03217 29.0 29
  188.05009 31.0 31
  188.65889 15.0 15
  190.90834 15.0 15
  199.03389 26.0 26
  201.04817 128.0 128
  201.05664 460.0 460
  201.07428 40.0 40
  202.00674 16.0 16
  202.05704 38.0 38
  203.03456 89.0 89
  204.03691 13.0 13
  204.05255 39.0 39
  205.04591 12.0 12
  211.0285 17.0 17
  211.04742 30.0 30
  212.04929 94.0 94
  212.83936 15.0 15
  213.05101 15.0 15
  213.05803 51.0 51
  214.05431 15.0 15
  215.03351 16.0 16
  219.03012 13.0 13
  220.04297 21.0 21
  227.0161 22.0 22
  227.04436 45.0 45
  227.81091 19.0 19
  228.9901 34.0 34
  229.01695 29.0 29
  229.03094 20.0 20
  229.05098 1000.0 999
  229.15958 26.0 26
  230.0522 214.0 214
  231.05484 18.0 18
  231.06499 36.0 36
  231.46823 18.0 18
  243.02673 83.0 83
  243.04233 24.0 24
  243.07613 26.0 26
  245.02464 15.0 15
  246.05687 12.0 12
  257.02316 18.0 18
  257.04913 15.0 15
  258.04309 12.0 12
  261.09601 17.0 17
  269.05142 33.0 33
  284.03558 17.0 17
  285.05685 17.0 17
  286.04398 15.0 15
  301.03613 18.0 18
  301.05704 14.0 14
  301.07388 34.0 34
//
