ACCESSION: MSBNK-RIKEN-PR100220
RECORD_TITLE: GABA; LC-ESI-QTOF; MS2; CE:Ramp 5-60 V; [M+H]+
DATE: 2016.01.19 (Created 2009.09.10, modified 2011.05.06)
AUTHORS: Matsuda F, Suzuki M, Sawada Y, Plant Science Center, RIKEN.
LICENSE: CC BY-SA
COMMENT: Acquisition and generation of the data is financially supported in part by CREST/JST.
CH$NAME: gamma-Amino-n-butyric acid
CH$NAME: GABA
CH$NAME: 4-Aminobutyric acid
CH$NAME: 4-Aminobutylate
CH$NAME: 4-Aminobutanoic acid
CH$NAME: Piperidic acid
CH$NAME: Piperidinic acid
CH$NAME: Aminalon
CH$COMPOUND_CLASS: Amino acids
CH$FORMULA: C4H9NO2
CH$EXACT_MASS: 103.06333
CH$SMILES: NCCCC(O)=O
CH$IUPAC: InChI=1S/C4H9NO2/c5-3-1-2-4(6)7/h1-3,5H2,(H,6,7)
CH$LINK: CAS 56-12-2
CH$LINK: CHEMSPIDER 116
CH$LINK: KAPPAVIEW KPC00193
CH$LINK: KEGG C00334
CH$LINK: KNAPSACK C00001337
CH$LINK: LIPIDMAPS LMFA01100039
CH$LINK: PUBCHEM CID:119
CH$LINK: INCHIKEY BTCSSZJGUNDROE-UHFFFAOYSA-N
CH$LINK: COMPTOX DTXSID6035106
AC$INSTRUMENT: UPLC Q-Tof Premier, Waters
AC$INSTRUMENT_TYPE: LC-ESI-QTOF
AC$MASS_SPECTROMETRY: MS_TYPE MS2
AC$MASS_SPECTROMETRY: ION_MODE POSITIVE
AC$MASS_SPECTROMETRY: COLLISION_ENERGY Ramp 5-60 V
AC$MASS_SPECTROMETRY: DATAFORMAT Continuum
AC$MASS_SPECTROMETRY: DESOLVATION_GAS_FLOW 600.0 L/Hr
AC$MASS_SPECTROMETRY: DESOLVATION_TEMPERATURE 400 C
AC$MASS_SPECTROMETRY: FRAGMENTATION_METHOD LOW-ENERGY CID
AC$MASS_SPECTROMETRY: IONIZATION ESI
AC$MASS_SPECTROMETRY: SOURCE_TEMPERATURE 120 C
AC$CHROMATOGRAPHY: CAPILLARY_VOLTAGE 3.0 kV
AC$CHROMATOGRAPHY: SAMPLING_CONE 23.0 V
AC$CHROMATOGRAPHY: SOLVENT A CH3CN(0.1%HCOOH)
AC$CHROMATOGRAPHY: SOLVENT B H2O(0.1%HCOOH)
MS$FOCUSED_ION: PRECURSOR_M/Z 104.07113
MS$FOCUSED_ION: PRECURSOR_TYPE [M+H]+
PK$SPLASH: splash10-000i-9000000000-7d4636efbc4e5d75872e
PK$NUM_PEAK: 4
PK$PEAK: m/z int. rel.int.
  69.0348 60.77 195
  86.0609 73.8 237
  87.0450 311.5 999
  104.0711 46.37 149
//
