ACCESSION: MSBNK-RIKEN-PR305554
RECORD_TITLE: Luteolin-6-C-glucoside; LC-ESI-QTOF; MS2
DATE: 2019.03.28
AUTHORS: Tetsuya Mori, Center for Sustainable Resource Science, RIKEN
LICENSE: CC BY-NC-SA
PUBLICATION: Tsugawa H., Nakabayashi R., Mori T., Yamada Y., Takahashi M., Rai A., Sugiyama R., Yamamoto H., Nakaya T., Yamazaki M., Kooke R., Bac-Molenaar JA., Oztolan-Erol N., Keurentjes JJB., Arita M., Saito K. (2019) "A cheminformatics approach to characterize metabolomes in stable-isotope-labeled organisms" Nature Methods 16(4):295-298. [doi:10.1038/s41592-019-0358-2]
COMMENT: registered in RIKEN PlaSMA
CH$NAME: Luteolin-6-C-glucoside
CH$COMPOUND_CLASS: Flavonoid C-glycosides
CH$FORMULA: C21H20O11
CH$EXACT_MASS: 448.38
CH$SMILES: OCC1OC(C(O)C(O)C1O)C1=C(O)C2=C(OC(=CC2=O)C2=CC(O)=C(O)C=C2)C=C1O
CH$IUPAC: InChI=1S/C21H20O11/c22-6-14-17(27)19(29)20(30)21(32-14)16-11(26)5-13-15(18(16)28)10(25)4-12(31-13)7-1-2-8(23)9(24)3-7/h1-5,14,17,19-24,26-30H,6H2
CH$LINK: INCHIKEY ODBRNZZJSYPIDI-UHFFFAOYSA-N
AC$INSTRUMENT: LC, Waters Acquity UPLC System; MS, Waters Xevo G2 Q-Tof
AC$INSTRUMENT_TYPE: LC-ESI-QTOF
AC$MASS_SPECTROMETRY: MS_TYPE MS2
AC$MASS_SPECTROMETRY: ION_MODE NEGATIVE
AC$MASS_SPECTROMETRY: COLLISION_ENERGY 6V
AC$MASS_SPECTROMETRY: DESOLVATION_GAS_FLOW 800/h
AC$MASS_SPECTROMETRY: DESOLVATION_TEMPERATURE 450 C
AC$MASS_SPECTROMETRY: IONIZATION ESI
AC$CHROMATOGRAPHY: CAPILLARY_VOLTAGE -2.75 kV
AC$CHROMATOGRAPHY: COLUMN_NAME Acquity bridged ethyl hybrid C18 (1.7 um, 2.1 mm * 100 mm, Waters)
AC$CHROMATOGRAPHY: COLUMN_TEMPERATURE 40 C
AC$CHROMATOGRAPHY: FLOW_GRADIENT A/B = (99.5%/0.5% at 0 min, 99.5%/0.5% at 0.1 min, 20%/80% at 10 min, 0.5%/99.5% at 10.1 min, 0.5%/99.5% at 12.0 min, 99.5%/0.5% at 12.1 min, 99.5%/0.5% at 15.0 min)
AC$CHROMATOGRAPHY: FLOW_RATE 0.3 ml/min at 0 min, 0.3 ml/min at 10 min, 0.4 ml/min at 10.1 min, 0.4 ml/min at 14.4 min, 0.3 ml/min at 14.5 min
AC$CHROMATOGRAPHY: RETENTION_TIME 3.594683
AC$CHROMATOGRAPHY: SOLVENT A water including 0.1% formic acid
AC$CHROMATOGRAPHY: SOLVENT B acetonitrile including 0.1% formic acid
MS$FOCUSED_ION: PRECURSOR_TYPE [M-H]-
MS$FOCUSED_ION: PRECURSOR_M/Z 447.09328504783
PK$SPLASH: splash10-002b-0198000000-93f35398650c3b752bc3
PK$NUM_PEAK: 216
PK$PEAK: m/z int. rel.int.
  57.48208 6.0 6
  57.74049 5.0 5
  105.02924 6.0 6
  109.02574 8.0 8
  109.0322 9.0 9
  111.93671 6.0 6
  119.05058 7.0 7
  125.02247 6.0 6
  132.02188 7.0 7
  132.99336 9.0 9
  133.02036 6.0 6
  133.03143 38.0 38
  134.03166 22.0 22
  135.03897 8.0 8
  135.05151 5.0 5
  137.02007 6.0 6
  143.0441 7.0 7
  145.03204 8.0 8
  147.04161 6.0 6
  149.02382 22.0 22
  151.03668 8.0 8
  157.06709 5.0 5
  159.00478 5.0 5
  159.05983 6.0 6
  159.08005 8.0 8
  161.02249 9.0 9
  161.05103 6.0 6
  162.99858 13.0 13
  163.00545 21.0 21
  163.03658 24.0 24
  164.03358 8.0 8
  165.0094 7.0 7
  168.05505 6.0 6
  172.01152 10.0 10
  174.03909 10.0 10
  174.99802 6.0 6
  175.03062 15.0 15
  175.04056 61.0 61
  175.08202 9.0 9
  176.04288 10.0 10
  177.01721 10.0 10
  179.0014 6.0 6
  179.02858 15.0 15
  183.32649 7.0 7
  185.02237 6.0 6
  185.02991 10.0 10
  189.01994 8.0 8
  191.03445 14.0 14
  191.0432 7.0 7
  193.01088 22.0 22
  194.01321 10.0 10
  194.76549 9.0 9
  196.63615 9.0 9
  199.03149 5.0 5
  199.04451 8.0 8
  200.38826 8.0 8
  201.01003 6.0 6
  201.0191 10.0 10
  202.99854 5.0 5
  203.02902 28.0 28
  203.03802 25.0 25
  204.59273 7.0 7
  206.02544 7.0 7
  210.73367 7.0 7
  211.07962 9.0 9
  213.015 6.0 6
  213.05698 9.0 9
  213.06386 6.0 6
  214.02269 7.0 7
  214.05634 5.0 5
  215.04025 10.0 10
  216.07784 7.0 7
  217.04587 6.0 6
  217.05769 8.0 8
  218.0575 6.0 6
  218.81892 6.0 6
  220.02419 7.0 7
  221.04166 10.0 10
  223.03094 7.0 7
  224.89743 9.0 9
  225.05885 12.0 12
  226.01729 6.0 6
  227.03285 9.0 9
  227.06796 9.0 9
  228.04633 6.0 6
  229.0155 25.0 25
  238.01567 6.0 6
  239.02779 6.0 6
  240.0433 7.0 7
  240.83392 6.0 6
  241.01479 6.0 6
  241.03976 19.0 19
  242.05083 7.0 7
  243.02971 43.0 43
  243.06145 21.0 21
  248.05229 8.0 8
  249.04941 6.0 6
  251.03169 8.0 8
  251.08411 7.0 7
  253.05101 5.0 5
  253.21309 7.0 7
  254.06584 7.0 7
  255.0314 14.0 14
  255.0724 12.0 12
  256.02707 5.0 5
  265.03177 7.0 7
  266.41104 8.0 8
  267.06384 10.0 10
  268.03421 13.0 13
  268.56662 5.0 5
  269.04434 110.0 110
  270.04056 40.0 40
  270.05057 50.0 50
  271.05518 22.0 22
  272.06296 11.0 11
  273.077 6.0 6
  274.06879 7.0 7
  277.83664 7.0 7
  280.04272 8.0 8
  280.06 5.0 5
  281.04349 24.0 24
  282.04373 5.0 5
  284.03134 139.0 139
  284.05807 6.0 6
  285.03915 414.0 414
  286.03839 83.0 83
  287.03598 10.0 10
  287.04785 7.0 7
  287.08936 6.0 6
  291.1008 10.0 10
  293.0412 7.0 7
  295.03894 13.0 13
  295.05197 10.0 10
  296.03467 5.0 5
  296.06732 8.0 8
  296.99521 5.0 5
  297.01321 7.0 7
  297.03903 614.0 613
  297.99316 6.0 6
  298.04608 569.0 568
  298.06555 32.0 32
  298.15839 6.0 6
  299.05576 588.0 587
  300.05856 129.0 129
  300.08127 5.0 5
  301.05038 16.0 16
  301.06262 12.0 12
  301.07458 5.0 5
  301.33862 8.0 8
  304.81061 14.0 14
  308.04544 9.0 9
  309.0423 7.0 7
  309.92917 8.0 8
  310.04691 5.0 5
  310.34283 6.0 6
  310.63626 7.0 7
  311.05511 183.0 183
  312.01233 5.0 5
  312.05679 25.0 25
  312.07788 9.0 9
  313.03677 25.0 25
  321.02496 10.0 10
  321.03595 6.0 6
  322.05606 5.0 5
  323.05554 7.0 7
  324.02499 65.0 65
  325.02151 11.0 11
  325.03342 37.0 37
  325.07849 7.0 7
  326.02127 6.0 6
  326.03891 7.0 7
  326.05066 7.0 7
  327.0502 1000.0 999
  328.04532 84.0 84
  328.05789 89.0 89
  328.0737 20.0 20
  329.0459 21.0 21
  329.08282 9.0 9
  329.64386 6.0 6
  330.06042 6.0 6
  331.05145 5.0 5
  337.06281 5.0 5
  338.02713 6.0 6
  338.07111 8.0 8
  338.66098 10.0 10
  339.05222 257.0 257
  340.04657 64.0 64
  340.06262 26.0 26
  341.06256 41.0 41
  342.05637 9.0 9
  352.07953 13.0 13
  352.86758 7.0 7
  354.07669 6.0 6
  355.04129 7.0 7
  356.04373 6.0 6
  357.0593 463.0 463
  357.87894 5.0 5
  358.06586 121.0 121
  358.08676 14.0 14
  359.05679 7.0 7
  359.06802 7.0 7
  363.05399 6.0 6
  365.06531 13.0 13
  366.0668 7.0 7
  369.06094 18.0 18
  370.05679 7.0 7
  371.07025 6.0 6
  371.0918 6.0 6
  381.06146 36.0 36
  381.08289 10.0 10
  382.06512 7.0 7
  383.07965 11.0 11
  392.13049 6.0 6
  399.06976 9.0 9
  411.05945 8.0 8
  430.07852 7.0 7
//
