ACCESSION: MSBNK-RIKEN-PR302185
RECORD_TITLE: Kaempferol; LC-ESI-QTOF; MS2
DATE: 2019.03.28
AUTHORS: Tetsuya Mori, Center for Sustainable Resource Science, RIKEN
LICENSE: CC BY-NC-SA
PUBLICATION: Tsugawa H., Nakabayashi R., Mori T., Yamada Y., Takahashi M., Rai A., Sugiyama R., Yamamoto H., Nakaya T., Yamazaki M., Kooke R., Bac-Molenaar JA., Oztolan-Erol N., Keurentjes JJB., Arita M., Saito K. (2019) "A cheminformatics approach to characterize metabolomes in stable-isotope-labeled organisms" Nature Methods 16(4):295-298. [doi:10.1038/s41592-019-0358-2]
COMMENT: registered in RIKEN PlaSMA
CH$NAME: Kaempferol
CH$COMPOUND_CLASS: Flavonols
CH$FORMULA: C15H10O6
CH$EXACT_MASS: 286.239
CH$SMILES: OC1=CC=C(C=C1)C1=C(O)C(=O)C2=C(O)C=C(O)C=C2O1
CH$IUPAC: InChI=1S/C15H10O6/c16-8-3-1-7(2-4-8)15-14(20)13(19)12-10(18)5-9(17)6-11(12)21-15/h1-6,16-18,20H
CH$LINK: INCHIKEY IYRMWMYZSQPJKC-UHFFFAOYSA-N
AC$INSTRUMENT: LC, Waters Acquity UPLC System; MS, Waters Xevo G2 Q-Tof
AC$INSTRUMENT_TYPE: LC-ESI-QTOF
AC$MASS_SPECTROMETRY: MS_TYPE MS2
AC$MASS_SPECTROMETRY: ION_MODE POSITIVE
AC$MASS_SPECTROMETRY: COLLISION_ENERGY 6V
AC$MASS_SPECTROMETRY: DESOLVATION_GAS_FLOW 800/h
AC$MASS_SPECTROMETRY: DESOLVATION_TEMPERATURE 450 C
AC$MASS_SPECTROMETRY: IONIZATION ESI
AC$CHROMATOGRAPHY: CAPILLARY_VOLTAGE +3.00 kV
AC$CHROMATOGRAPHY: COLUMN_NAME Acquity bridged ethyl hybrid C18 (1.7 um, 2.1 mm * 100 mm, Waters)
AC$CHROMATOGRAPHY: COLUMN_TEMPERATURE 40 C
AC$CHROMATOGRAPHY: FLOW_GRADIENT A/B = (99.5%/0.5% at 0 min, 99.5%/0.5% at 0.1 min, 20%/80% at 10 min, 0.5%/99.5% at 10.1 min, 0.5%/99.5% at 12.0 min, 99.5%/0.5% at 12.1 min, 99.5%/0.5% at 15.0 min)
AC$CHROMATOGRAPHY: FLOW_RATE 0.3 ml/min at 0 min, 0.3 ml/min at 10 min, 0.4 ml/min at 10.1 min, 0.4 ml/min at 14.4 min, 0.3 ml/min at 14.5 min
AC$CHROMATOGRAPHY: RETENTION_TIME 6.01355
AC$CHROMATOGRAPHY: SOLVENT A water including 0.1% formic acid
AC$CHROMATOGRAPHY: SOLVENT B acetonitrile including 0.1% formic acid
MS$FOCUSED_ION: PRECURSOR_TYPE [M+H]+
MS$FOCUSED_ION: PRECURSOR_M/Z 287.0550145
PK$SPLASH: splash10-0f79-0950000000-c54e2b614baa389bb7b9
PK$NUM_PEAK: 236
PK$PEAK: m/z int. rel.int.
  51.98529 9.0 9
  52.37992 6.0 6
  65.03459 12.0 12
  67.0191 14.0 14
  68.98921 11.0 11
  68.99662 58.0 58
  69.00744 8.0 8
  69.03403 6.0 6
  70.00141 7.0 7
  71.77319 5.0 5
  77.03941 7.0 7
  78.04117 7.0 7
  79.05054 23.0 23
  79.0564 14.0 14
  81.03709 5.0 5
  85.02795 6.0 6
  91.06146 9.0 9
  93.03127 7.0 7
  93.03554 21.0 21
  94.03582 5.0 5
  94.04214 5.0 5
  95.04235 9.0 9
  96.03241 10.0 10
  97.03158 11.0 11
  103.04987 25.0 25
  103.06138 6.0 6
  105.03516 54.0 54
  106.03717 8.0 8
  106.04226 18.0 18
  107.04742 82.0 82
  107.05613 19.0 19
  109.02512 30.0 30
  109.02976 67.0 67
  110.03629 10.0 10
  111.00463 92.0 92
  111.03188 6.0 6
  112.00845 7.0 7
  112.02139 10.0 10
  115.05647 14.0 14
  115.06228 5.0 5
  116.05061 9.0 9
  117.03481 8.0 8
  117.05393 8.0 8
  117.06992 8.0 8
  119.0398 5.0 5
  119.05116 18.0 18
  121.01834 52.0 52
  121.02715 423.0 423
  121.06266 21.0 21
  122.02825 30.0 30
  122.03436 32.0 32
  123.51173 5.0 5
  125.02292 8.0 8
  127.03964 12.0 12
  127.04589 25.0 25
  127.0564 19.0 19
  128.05635 13.0 13
  128.06253 20.0 20
  129.04657 5.0 5
  129.06876 47.0 47
  130.06592 6.0 6
  131.0519 5.0 5
  131.05869 11.0 11
  133.0231 24.0 24
  133.03105 43.0 43
  133.0394 10.0 10
  134.03513 12.0 12
  135.03395 11.0 11
  135.03885 13.0 13
  135.04666 16.0 16
  135.05412 21.0 21
  135.07301 10.0 10
  136.01169 21.0 21
  136.01894 34.0 34
  136.99799 8.0 8
  137.006 8.0 8
  137.02065 143.0 143
  137.02599 145.0 145
  138.03029 20.0 20
  138.03853 9.0 9
  139.04712 18.0 18
  139.06068 5.0 5
  140.06638 5.0 5
  141.06569 41.0 41
  141.07214 32.0 32
  141.62524 6.0 6
  142.07616 5.0 5
  143.04848 5.0 5
  143.72226 13.0 13
  144.05414 6.0 6
  145.05684 8.0 8
  145.06377 12.0 12
  145.06969 6.0 6
  147.02612 7.0 7
  147.03867 55.0 55
  147.04652 38.0 38
  147.07281 7.0 7
  147.08791 9.0 9
  148.05133 6.0 6
  149.01537 8.0 8
  149.06679 5.0 5
  150.02943 5.0 5
  151.05255 7.0 7
  152.9855 6.0 6
  152.99214 9.0 9
  153.0182 909.0 908
  154.02203 88.0 88
  157.05573 33.0 33
  157.06421 81.0 81
  157.07349 50.0 50
  157.13309 6.0 6
  158.06873 30.0 30
  159.07553 7.0 7
  160.05357 8.0 8
  161.01923 11.0 11
  161.05241 6.0 6
  161.06558 24.0 24
  161.92439 5.0 5
  162.05464 6.0 6
  164.9989 6.0 6
  165.01276 158.0 158
  165.01936 152.0 152
  165.03224 28.0 28
  166.01553 9.0 9
  166.02962 48.0 48
  167.02122 7.0 7
  167.04173 10.0 10
  167.55215 6.0 6
  168.06094 6.0 6
  169.05438 14.0 14
  169.05948 31.0 31
  171.03619 29.0 29
  171.04683 34.0 34
  171.0536 17.0 17
  173.01678 7.0 7
  173.05699 18.0 18
  173.06947 9.0 9
  175.02927 5.0 5
  175.0475 5.0 5
  176.05939 7.0 7
  177.04074 5.0 5
  178.05531 5.0 5
  179.02692 5.0 5
  179.03503 8.0 8
  181.0078 13.0 13
  183.05101 9.0 9
  183.80945 9.0 9
  184.05638 18.0 18
  185.05049 8.0 8
  185.06049 38.0 38
  186.06531 17.0 17
  187.02701 16.0 16
  187.06413 6.0 6
  187.07101 7.0 7
  188.05394 8.0 8
  189.04022 14.0 14
  189.05551 33.0 33
  191.03442 5.0 5
  194.01558 16.0 16
  195.01779 7.0 7
  195.04865 11.0 11
  197.05011 6.0 6
  197.06305 12.0 12
  198.05289 11.0 11
  199.0372 9.0 9
  201.05557 13.0 13
  203.04999 5.0 5
  203.07175 20.0 20
  203.29294 5.0 5
  204.06671 6.0 6
  204.08727 9.0 9
  213.03389 27.0 27
  213.05186 206.0 206
  213.06247 109.0 109
  213.23637 14.0 14
  214.02711 7.0 7
  214.05907 55.0 55
  216.0309 7.0 7
  216.0406 7.0 7
  217.0434 19.0 19
  217.05525 14.0 14
  217.51271 10.0 10
  219.07292 9.0 9
  229.01352 5.0 5
  229.03825 26.0 26
  229.05145 70.0 70
  230.04718 9.0 9
  230.05753 15.0 15
  230.06807 6.0 6
  231.04149 9.0 9
  231.05951 88.0 88
  231.07874 20.0 20
  232.05159 12.0 12
  233.32341 8.0 8
  233.41142 5.0 5
  234.769 7.0 7
  240.05399 14.0 14
  240.70535 5.0 5
  241.01741 5.0 5
  241.03587 46.0 46
  241.04816 63.0 63
  241.06021 54.0 54
  241.34038 8.0 8
  241.45761 5.0 5
  241.99515 10.0 10
  242.04822 22.0 22
  242.06725 20.0 20
  243.06902 22.0 22
  243.13777 7.0 7
  243.53146 7.0 7
  244.0497 9.0 9
  245.03171 7.0 7
  245.05095 7.0 7
  245.68788 7.0 7
  258.02432 15.0 15
  258.04459 96.0 96
  258.06146 99.0 99
  258.82687 7.0 7
  259.02353 9.0 9
  259.04523 13.0 13
  259.05569 39.0 39
  259.0712 19.0 19
  259.09967 6.0 6
  260.07236 9.0 9
  265.49619 6.0 6
  269.02493 10.0 10
  269.04535 5.0 5
  270.0546 9.0 9
  281.28073 8.0 8
  285.03024 5.0 5
  285.05832 5.0 5
  286.02994 7.0 7
  286.05063 15.0 15
  286.98071 7.0 7
  287.0224 34.0 34
  287.05539 1000.0 999
//
