ACCESSION: MSBNK-RIKEN-PR301010
RECORD_TITLE: Laudanosine; LC-ESI-QTOF; MS2
DATE: 2019.03.28
AUTHORS: Tetsuya Mori, Center for Sustainable Resource Science, RIKEN
LICENSE: CC BY-NC-SA
PUBLICATION: Tsugawa H., Nakabayashi R., Mori T., Yamada Y., Takahashi M., Rai A., Sugiyama R., Yamamoto H., Nakaya T., Yamazaki M., Kooke R., Bac-Molenaar JA., Oztolan-Erol N., Keurentjes JJB., Arita M., Saito K. (2019) "A cheminformatics approach to characterize metabolomes in stable-isotope-labeled organisms" Nature Methods 16(4):295-298. [doi:10.1038/s41592-019-0358-2]
COMMENT: registered in RIKEN PlaSMA
CH$NAME: Laudanosine
CH$COMPOUND_CLASS: Benzylisoquinolines
CH$FORMULA: C21H27NO4
CH$EXACT_MASS: 357.45
CH$SMILES: COC1=C(OC)C=C(CC2N(C)CCC3=CC(OC)=C(OC)C=C23)C=C1
CH$IUPAC: InChI=1S/C21H27NO4/c1-22-9-8-15-12-20(25-4)21(26-5)13-16(15)17(22)10-14-6-7-18(23-2)19(11-14)24-3/h6-7,11-13,17H,8-10H2,1-5H3
CH$LINK: INCHIKEY KGPAYJZAMGEDIQ-UHFFFAOYSA-N
AC$INSTRUMENT: LC, Waters Acquity UPLC System; MS, Waters Xevo G2 Q-Tof
AC$INSTRUMENT_TYPE: LC-ESI-QTOF
AC$MASS_SPECTROMETRY: MS_TYPE MS2
AC$MASS_SPECTROMETRY: ION_MODE POSITIVE
AC$MASS_SPECTROMETRY: COLLISION_ENERGY 6V
AC$MASS_SPECTROMETRY: DESOLVATION_GAS_FLOW 800/h
AC$MASS_SPECTROMETRY: DESOLVATION_TEMPERATURE 450 C
AC$MASS_SPECTROMETRY: IONIZATION ESI
AC$CHROMATOGRAPHY: CAPILLARY_VOLTAGE +3.00 kV
AC$CHROMATOGRAPHY: COLUMN_NAME Acquity bridged ethyl hybrid C18 (1.7 um, 2.1 mm * 100 mm, Waters)
AC$CHROMATOGRAPHY: COLUMN_TEMPERATURE 40 C
AC$CHROMATOGRAPHY: FLOW_GRADIENT A/B = (99.5%/0.5% at 0 min, 99.5%/0.5% at 0.1 min, 20%/80% at 10 min, 0.5%/99.5% at 10.1 min, 0.5%/99.5% at 12.0 min, 99.5%/0.5% at 12.1 min, 99.5%/0.5% at 15.0 min)
AC$CHROMATOGRAPHY: FLOW_RATE 0.3 ml/min at 0 min, 0.3 ml/min at 10 min, 0.4 ml/min at 10.1 min, 0.4 ml/min at 14.4 min, 0.3 ml/min at 14.5 min
AC$CHROMATOGRAPHY: RETENTION_TIME 4.2568
AC$CHROMATOGRAPHY: SOLVENT A water including 0.1% formic acid
AC$CHROMATOGRAPHY: SOLVENT B acetonitrile including 0.1% formic acid
MS$FOCUSED_ION: PRECURSOR_TYPE [M+H]+
MS$FOCUSED_ION: PRECURSOR_M/Z 358.2012848
PK$SPLASH: splash10-0k96-0910000000-e0e79dcb007d1146b056
PK$NUM_PEAK: 355
PK$PEAK: m/z int. rel.int.
  71.04623 6.0 6
  77.03461 6.0 6
  78.04552 10.0 10
  79.05225 18.0 18
  79.05671 28.0 28
  80.05391 7.0 7
  80.06304 23.0 23
  82.07217 8.0 8
  89.03652 7.0 7
  90.04457 21.0 21
  91.03196 10.0 10
  91.0527 101.0 101
  91.05801 33.0 33
  92.06133 12.0 12
  93.0345 5.0 5
  93.07415 8.0 8
  93.42765 6.0 6
  94.04389 5.0 5
  95.04452 6.0 6
  95.05461 7.0 7
  97.0667 5.0 5
  103.05558 46.0 46
  103.09592 5.0 5
  104.0577 18.0 18
  104.06641 6.0 6
  104.87791 6.0 6
  104.93819 6.0 6
  105.03426 20.0 20
  105.06342 13.0 13
  105.07205 27.0 27
  105.0768 11.0 11
  105.1424 9.0 9
  106.04038 44.0 44
  106.04611 13.0 13
  106.07169 6.0 6
  106.70037 6.0 6
  107.04288 70.0 70
  107.0507 357.0 357
  107.07788 7.0 7
  107.55136 5.0 5
  108.05747 128.0 128
  109.06691 22.0 22
  109.76068 7.0 7
  114.04388 6.0 6
  115.03535 12.0 12
  115.05302 48.0 48
  115.05751 109.0 109
  115.18873 7.0 7
  116.05022 10.0 10
  116.05727 26.0 26
  116.06395 77.0 77
  116.50964 7.0 7
  117.05267 13.0 13
  117.06178 20.0 20
  117.06841 28.0 28
  117.07804 8.0 8
  118.04258 39.0 39
  119.04256 14.0 14
  119.04782 29.0 29
  119.05468 31.0 31
  119.09258 9.0 9
  120.05895 18.0 18
  120.73546 10.0 10
  121.06322 96.0 96
  121.07697 34.0 34
  121.96893 5.0 5
  122.02702 6.0 6
  122.06274 5.0 5
  122.07288 22.0 22
  123.04827 10.0 10
  123.08219 6.0 6
  124.04989 11.0 11
  127.05624 82.0 82
  128.06133 199.0 199
  129.06766 79.0 79
  130.03618 6.0 6
  130.06181 6.0 6
  130.07121 15.0 15
  130.08134 5.0 5
  131.04988 121.0 121
  131.06798 5.0 5
  131.0766 16.0 16
  132.04129 5.0 5
  132.04848 23.0 23
  132.05441 29.0 29
  132.08075 66.0 66
  133.02538 10.0 10
  133.03784 6.0 6
  133.06206 7.0 7
  133.06769 24.0 24
  133.08101 5.0 5
  133.09045 15.0 15
  133.31316 8.0 8
  134.05933 5.0 5
  134.06906 22.0 22
  134.07991 6.0 6
  134.7247 6.0 6
  135.02336 8.0 8
  135.03346 14.0 14
  135.04449 155.0 155
  135.08226 19.0 19
  136.05122 108.0 108
  136.05655 34.0 34
  136.07115 6.0 6
  137.0618 24.0 24
  137.42567 6.0 6
  138.06856 5.0 5
  141.07343 7.0 7
  141.75415 7.0 7
  142.03372 6.0 6
  142.04591 5.0 5
  143.04384 96.0 96
  143.05098 54.0 54
  143.0634 6.0 6
  143.07257 12.0 12
  143.0912 6.0 6
  144.05025 36.0 36
  144.05878 62.0 62
  144.07999 13.0 13
  145.03618 6.0 6
  145.06184 124.0 124
  145.07256 66.0 66
  145.089 280.0 280
  145.83569 7.0 7
  146.05568 7.0 7
  146.06454 16.0 16
  146.0726 31.0 31
  146.08353 8.0 8
  146.09369 38.0 38
  147.06386 11.0 11
  147.07849 23.0 23
  148.05704 6.0 6
  148.21768 5.0 5
  149.05484 21.0 21
  149.06593 11.0 11
  149.08759 11.0 11
  150.02686 6.0 6
  150.0545 7.0 7
  150.06827 59.0 59
  150.07819 9.0 9
  150.09404 9.0 9
  151.0578 23.0 23
  151.07558 656.0 655
  152.05284 5.0 5
  152.061 8.0 8
  152.07823 39.0 39
  152.08884 9.0 9
  153.07147 6.0 6
  153.08371 10.0 10
  155.48421 5.0 5
  156.05348 11.0 11
  156.08681 6.0 6
  157.06288 26.0 26
  157.07355 10.0 10
  158.07401 222.0 222
  159.02988 22.0 22
  159.04636 126.0 126
  159.0722 55.0 55
  159.08218 26.0 26
  160.05745 7.0 7
  160.06854 25.0 25
  160.077 47.0 47
  160.85454 6.0 6
  161.05399 16.0 16
  161.06087 14.0 14
  161.07915 54.0 54
  161.08937 30.0 30
  162.04918 8.0 8
  162.0703 13.0 13
  162.08403 65.0 65
  162.09161 317.0 317
  163.03108 8.0 8
  163.07275 17.0 17
  163.08234 11.0 11
  163.09099 21.0 21
  163.10469 6.0 6
  164.08066 12.0 12
  164.09793 19.0 19
  165.05888 14.0 14
  165.07109 63.0 63
  165.08376 6.0 6
  165.09494 29.0 29
  166.08249 25.0 25
  168.05466 6.0 6
  171.07892 8.0 8
  172.07196 17.0 17
  173.0585 31.0 31
  173.08339 23.0 23
  174.02464 6.0 6
  174.05502 17.0 17
  174.06952 119.0 119
  174.08894 107.0 107
  174.09645 25.0 25
  175.06926 15.0 15
  175.07925 10.0 10
  175.09544 13.0 13
  176.07162 8.0 8
  176.0813 23.0 23
  176.09343 14.0 14
  176.99936 8.0 8
  177.0694 33.0 33
  177.86565 7.0 7
  178.07243 42.0 42
  178.08894 15.0 15
  179.08647 99.0 99
  180.0972 17.0 17
  181.06375 39.0 39
  181.1078 5.0 5
  182.06271 28.0 28
  182.07632 13.0 13
  183.07719 26.0 26
  183.70055 7.0 7
  186.08623 8.0 8
  186.09842 5.0 5
  187.27623 8.0 8
  188.05527 7.0 7
  188.06709 9.0 9
  188.07599 26.0 26
  188.09743 5.0 5
  189.06584 6.0 6
  189.07301 16.0 16
  189.09499 7.0 7
  189.84872 7.0 7
  190.03635 8.0 8
  190.05307 12.0 12
  190.08563 1000.0 999
  191.05795 16.0 16
  191.08737 180.0 180
  191.09599 101.0 101
  192.09587 48.0 48
  192.11217 5.0 5
  192.47496 11.0 11
  193.06108 12.0 12
  193.10699 8.0 8
  193.97427 8.0 8
  194.07022 14.0 14
  194.08128 32.0 32
  195.05399 5.0 5
  195.07243 12.0 12
  195.08101 25.0 25
  196.04245 5.0 5
  196.07549 22.0 22
  196.08617 20.0 20
  197.06406 9.0 9
  197.09409 18.0 18
  198.10362 12.0 12
  199.10777 7.0 7
  200.5737 5.0 5
  200.79243 5.0 5
  201.06883 14.0 14
  202.08334 15.0 15
  203.08215 6.0 6
  205.06148 12.0 12
  206.0815 6.0 6
  206.11823 148.0 148
  206.67827 10.0 10
  207.06104 8.0 8
  207.07539 11.0 11
  207.08611 13.0 13
  207.10724 6.0 6
  207.11708 8.0 8
  207.1241 6.0 6
  208.06306 8.0 8
  208.07309 9.0 9
  208.08945 59.0 59
  208.11214 6.0 6
  209.03033 5.0 5
  209.05983 5.0 5
  209.08675 27.0 27
  209.09888 40.0 40
  210.0603 9.0 9
  210.06944 22.0 22
  211.08141 27.0 27
  211.09927 18.0 18
  212.08163 11.0 11
  213.08481 11.0 11
  217.06502 20.0 20
  218.07738 5.0 5
  218.08656 7.0 7
  219.07059 5.0 5
  219.08713 5.0 5
  220.08617 5.0 5
  220.10374 10.0 10
  221.06297 10.0 10
  221.09708 20.0 20
  222.09201 8.0 8
  222.10896 5.0 5
  223.06569 29.0 29
  223.07771 32.0 32
  223.1116 17.0 17
  223.65758 9.0 9
  224.08337 10.0 10
  225.05458 7.0 7
  225.09645 34.0 34
  226.09634 29.0 29
  227.06316 7.0 7
  227.09512 5.0 5
  227.11639 7.0 7
  228.09935 8.0 8
  230.18211 5.0 5
  231.05898 10.0 10
  231.07088 5.0 5
  233.06659 7.0 7
  233.10388 6.0 6
  234.0361 6.0 6
  234.07448 5.0 5
  235.08678 6.0 6
  235.12198 6.0 6
  236.06511 7.0 7
  236.09151 6.0 6
  237.08432 13.0 13
  237.10117 20.0 20
  238.03819 8.0 8
  238.08661 11.0 11
  238.10043 56.0 56
  239.10638 33.0 33
  241.10416 15.0 15
  241.1311 11.0 11
  242.09302 5.0 5
  242.31503 5.0 5
  246.22011 7.0 7
  249.09138 17.0 17
  249.10312 6.0 6
  250.10399 18.0 18
  251.06534 7.0 7
  251.07631 6.0 6
  251.09538 15.0 15
  251.10611 5.0 5
  252.09706 6.0 6
  252.11559 11.0 11
  253.08536 5.0 5
  253.12506 9.0 9
  254.07831 7.0 7
  254.0974 15.0 15
  255.1001 7.0 7
  256.06265 8.0 8
  257.11716 8.0 8
  264.57779 6.0 6
  265.08969 12.0 12
  265.12903 5.0 5
  266.08853 7.0 7
  267.11078 8.0 8
  269.10736 6.0 6
  269.11676 8.0 8
  270.12921 7.0 7
  280.10489 6.0 6
  280.1185 7.0 7
  281.10214 8.0 8
  282.11154 7.0 7
  285.11673 7.0 7
  296.14188 5.0 5
  297.79056 8.0 8
  303.10864 6.0 6
  311.13116 6.0 6
  358.18909 6.0 6
//
