ACCESSION: MSBNK-RIKEN-PR306888
RECORD_TITLE: Cyanidine-3-O-sambubioside; LC-ESI-QTOF; MS2
DATE: 2019.03.28
AUTHORS: Tetsuya Mori, Center for Sustainable Resource Science, RIKEN
LICENSE: CC BY-NC-SA
PUBLICATION: Tsugawa H., Nakabayashi R., Mori T., Yamada Y., Takahashi M., Rai A., Sugiyama R., Yamamoto H., Nakaya T., Yamazaki M., Kooke R., Bac-Molenaar JA., Oztolan-Erol N., Keurentjes JJB., Arita M., Saito K. (2019) "A cheminformatics approach to characterize metabolomes in stable-isotope-labeled organisms" Nature Methods 16(4):295-298. [doi:10.1038/s41592-019-0358-2]
COMMENT: registered in RIKEN PlaSMA
CH$NAME: Cyanidine-3-O-sambubioside
CH$COMPOUND_CLASS: Anthocyanidin-3-O-glycosides
CH$FORMULA: [C26H29O15]+
CH$EXACT_MASS: 581.503
CH$SMILES: OCC1OC(OC2=C([O+]=C3C=C(O)C=C(O)C3=C2)C2=CC(O)=C(O)C=C2)C(OC2OCC(O)C(O)C2O)C(O)C1O
CH$IUPAC: InChI=1S/C26H28O15/c27-7-18-20(34)21(35)24(41-25-22(36)19(33)15(32)8-37-25)26(40-18)39-17-6-11-13(30)4-10(28)5-16(11)38-23(17)9-1-2-12(29)14(31)3-9/h1-6,15,18-22,24-27,32-36H,7-8H2,(H3-,28,29,30,31)/p+1
CH$LINK: INCHIKEY ZPPQIOUITZSYAO-UHFFFAOYSA-O
AC$INSTRUMENT: LC, Waters Acquity UPLC System; MS, Waters Xevo G2 Q-Tof
AC$INSTRUMENT_TYPE: LC-ESI-QTOF
AC$MASS_SPECTROMETRY: MS_TYPE MS2
AC$MASS_SPECTROMETRY: ION_MODE NEGATIVE
AC$MASS_SPECTROMETRY: COLLISION_ENERGY 6V
AC$MASS_SPECTROMETRY: DESOLVATION_GAS_FLOW 800/h
AC$MASS_SPECTROMETRY: DESOLVATION_TEMPERATURE 450 C
AC$MASS_SPECTROMETRY: IONIZATION ESI
AC$CHROMATOGRAPHY: CAPILLARY_VOLTAGE -2.75 kV
AC$CHROMATOGRAPHY: COLUMN_NAME Acquity bridged ethyl hybrid C18 (1.7 um, 2.1 mm * 100 mm, Waters)
AC$CHROMATOGRAPHY: COLUMN_TEMPERATURE 40 C
AC$CHROMATOGRAPHY: FLOW_GRADIENT A/B = (99.5%/0.5% at 0 min, 99.5%/0.5% at 0.1 min, 20%/80% at 10 min, 0.5%/99.5% at 10.1 min, 0.5%/99.5% at 12.0 min, 99.5%/0.5% at 12.1 min, 99.5%/0.5% at 15.0 min)
AC$CHROMATOGRAPHY: FLOW_RATE 0.3 ml/min at 0 min, 0.3 ml/min at 10 min, 0.4 ml/min at 10.1 min, 0.4 ml/min at 14.4 min, 0.3 ml/min at 14.5 min
AC$CHROMATOGRAPHY: RETENTION_TIME 2.87875
AC$CHROMATOGRAPHY: SOLVENT A water including 0.1% formic acid
AC$CHROMATOGRAPHY: SOLVENT B acetonitrile including 0.1% formic acid
MS$FOCUSED_ION: PRECURSOR_TYPE [M-2H]-
MS$FOCUSED_ION: PRECURSOR_M/Z 579.13499521576
PK$SPLASH: splash10-003r-0091030000-c03604f62a6a9ca80c7c
PK$NUM_PEAK: 44
PK$PEAK: m/z int. rel.int.
  55.00427 10.0 10
  147.0042 29.0 29
  148.17123 13.0 13
  163.00438 14.0 14
  166.39227 12.0 12
  177.01772 14.0 14
  187.03377 12.0 12
  188.04755 17.0 17
  189.01637 36.0 36
  202.10406 13.0 13
  212.03915 13.0 13
  212.04677 14.0 14
  217.01567 11.0 11
  223.03793 13.0 13
  228.04071 33.0 33
  235.77551 10.0 10
  239.03081 29.0 29
  255.02837 103.0 103
  256.0347 35.0 35
  267.02448 11.0 11
  268.02859 11.0 11
  279.68756 16.0 16
  281.04077 12.0 12
  283.00916 13.0 13
  283.03149 58.0 58
  283.05396 11.0 11
  284.03137 1000.0 999
  285.03159 151.0 151
  285.04333 81.0 81
  286.03436 23.0 23
  293.03854 16.0 16
  293.05695 12.0 12
  309.03888 14.0 14
  311.0441 10.0 10
  324.0549 12.0 12
  339.047 129.0 129
  339.056 56.0 56
  340.05191 14.0 14
  351.05368 10.0 10
  429.08093 38.0 38
  460.09964 9.0 9
  579.13275 681.0 680
  579.17719 17.0 17
  579.19849 23.0 23
//
