ACCESSION: MSBNK-RIKEN-PR307152
RECORD_TITLE: NP-000286(7); LC-ESI-QTOF; MS2
DATE: 2019.03.28
AUTHORS: Tetsuya Mori, Center for Sustainable Resource Science, RIKEN
LICENSE: CC BY-NC-SA
PUBLICATION: Tsugawa H., Nakabayashi R., Mori T., Yamada Y., Takahashi M., Rai A., Sugiyama R., Yamamoto H., Nakaya T., Yamazaki M., Kooke R., Bac-Molenaar JA., Oztolan-Erol N., Keurentjes JJB., Arita M., Saito K. (2019) "A cheminformatics approach to characterize metabolomes in stable-isotope-labeled organisms" Nature Methods 16(4):295-298. [doi:10.1038/s41592-019-0358-2]
COMMENT: registered in RIKEN PlaSMA
CH$NAME: NP-000286(7)
CH$COMPOUND_CLASS: Flavonoid C-glycosides
CH$FORMULA: C21H20O11
CH$EXACT_MASS: 448.38
CH$SMILES: OCC1OC(C(O)C(O)C1O)C1=C(O)C2=C(OC(=CC2=O)C2=CC(O)=C(O)C=C2)C=C1O
CH$IUPAC: InChI=1S/C21H20O11/c22-6-14-17(27)19(29)20(30)21(32-14)16-11(26)5-13-15(18(16)28)10(25)4-12(31-13)7-1-2-8(23)9(24)3-7/h1-5,14,17,19-24,26-30H,6H2
CH$LINK: INCHIKEY ODBRNZZJSYPIDI-UHFFFAOYSA-N
AC$INSTRUMENT: LC, Waters Acquity UPLC System; MS, Waters Xevo G2 Q-Tof
AC$INSTRUMENT_TYPE: LC-ESI-QTOF
AC$MASS_SPECTROMETRY: MS_TYPE MS2
AC$MASS_SPECTROMETRY: ION_MODE NEGATIVE
AC$MASS_SPECTROMETRY: COLLISION_ENERGY 6V
AC$MASS_SPECTROMETRY: DESOLVATION_GAS_FLOW 800/h
AC$MASS_SPECTROMETRY: DESOLVATION_TEMPERATURE 450 C
AC$MASS_SPECTROMETRY: IONIZATION ESI
AC$CHROMATOGRAPHY: CAPILLARY_VOLTAGE -2.75 kV
AC$CHROMATOGRAPHY: COLUMN_NAME Acquity bridged ethyl hybrid C18 (1.7 um, 2.1 mm * 100 mm, Waters)
AC$CHROMATOGRAPHY: COLUMN_TEMPERATURE 40 C
AC$CHROMATOGRAPHY: FLOW_GRADIENT A/B = (99.5%/0.5% at 0 min, 99.5%/0.5% at 0.1 min, 20%/80% at 10 min, 0.5%/99.5% at 10.1 min, 0.5%/99.5% at 12.0 min, 99.5%/0.5% at 12.1 min, 99.5%/0.5% at 15.0 min)
AC$CHROMATOGRAPHY: FLOW_RATE 0.3 ml/min at 0 min, 0.3 ml/min at 10 min, 0.4 ml/min at 10.1 min, 0.4 ml/min at 14.4 min, 0.3 ml/min at 14.5 min
AC$CHROMATOGRAPHY: RETENTION_TIME 3.582367
AC$CHROMATOGRAPHY: SOLVENT A water including 0.1% formic acid
AC$CHROMATOGRAPHY: SOLVENT B acetonitrile including 0.1% formic acid
MS$FOCUSED_ION: PRECURSOR_TYPE [M-H]-
MS$FOCUSED_ION: PRECURSOR_M/Z 447.09328504783
PK$SPLASH: splash10-002b-0189000000-b2e878ec6955580c3bba
PK$NUM_PEAK: 162
PK$PEAK: m/z int. rel.int.
  66.0957 15.0 15
  101.02449 18.0 18
  109.03124 12.0 12
  121.02697 12.0 12
  122.11707 22.0 22
  125.03387 12.0 12
  133.01988 13.0 13
  133.02884 94.0 94
  134.02904 23.0 23
  146.8577 32.0 32
  148.0099 16.0 16
  152.0087 16.0 16
  161.01836 18.0 18
  163.00769 18.0 18
  163.0345 17.0 17
  163.04636 16.0 16
  164.00888 12.0 12
  165.01193 29.0 29
  166.02248 30.0 30
  170.07114 15.0 15
  171.15236 23.0 23
  175.0027 20.0 20
  175.02711 16.0 16
  175.03464 23.0 23
  177.01546 47.0 47
  178.02629 12.0 12
  179.03937 35.0 35
  182.58009 16.0 16
  185.08986 18.0 18
  191.03717 14.0 14
  197.06125 13.0 13
  199.0442 17.0 17
  200.04759 14.0 14
  201.01753 34.0 34
  204.0401 19.0 19
  209.0562 19.0 19
  211.04268 22.0 22
  211.05333 14.0 14
  212.05225 16.0 16
  214.02762 18.0 18
  214.05556 13.0 13
  217.04454 36.0 36
  217.05649 15.0 15
  218.05115 14.0 14
  219.02715 16.0 16
  223.02994 12.0 12
  225.06082 36.0 36
  226.03268 12.0 12
  227.0721 16.0 16
  229.01657 16.0 16
  229.04204 23.0 23
  231.05496 19.0 19
  240.04158 25.0 25
  242.05482 22.0 22
  243.0311 14.0 14
  243.05817 16.0 16
  253.04799 29.0 29
  254.06146 18.0 18
  255.03343 29.0 29
  255.06328 16.0 16
  255.07802 22.0 22
  256.03223 16.0 16
  256.07416 17.0 17
  263.07419 13.0 13
  267.02441 16.0 16
  268.02567 12.0 12
  268.03925 25.0 25
  269.04449 157.0 157
  269.07898 12.0 12
  270.04938 423.0 423
  270.11255 18.0 18
  271.05695 65.0 65
  274.3735 17.0 17
  279.02161 27.0 27
  280.07138 16.0 16
  281.0387 13.0 13
  281.86844 12.0 12
  283.02866 16.0 16
  283.0629 17.0 17
  283.49719 16.0 16
  284.02676 59.0 59
  284.04001 12.0 12
  285.03958 389.0 389
  286.02457 13.0 13
  286.0437 151.0 151
  287.05276 17.0 17
  287.9115 13.0 13
  295.02505 18.0 18
  295.05292 31.0 31
  295.06332 17.0 17
  297.03854 405.0 405
  298.04767 630.0 629
  298.87665 13.0 13
  299.05255 1000.0 999
  299.67188 12.0 12
  300.06104 410.0 410
  301.0448 35.0 35
  301.06741 45.0 45
  301.08139 43.0 43
  308.03522 15.0 15
  309.02637 16.0 16
  309.03903 18.0 18
  310.03958 16.0 16
  310.05957 16.0 16
  311.01846 28.0 28
  311.05103 138.0 138
  311.06754 56.0 56
  311.13364 13.0 13
  312.05493 111.0 111
  312.0744 27.0 27
  313.02798 16.0 16
  313.04559 47.0 47
  313.07477 12.0 12
  313.43976 15.0 15
  314.04123 14.0 14
  314.05087 35.0 35
  315.03998 20.0 20
  316.65738 28.0 28
  321.07184 31.0 31
  323.06259 16.0 16
  323.71005 12.0 12
  324.02777 48.0 48
  324.05902 14.0 14
  325.02707 34.0 34
  325.03748 41.0 41
  325.07422 18.0 18
  326.07544 17.0 17
  327.05081 888.0 887
  327.08594 33.0 33
  328.05753 618.0 617
  329.04187 14.0 14
  329.05847 47.0 47
  329.06641 84.0 84
  337.02939 14.0 14
  338.02731 14.0 14
  339.02518 29.0 29
  339.05219 125.0 125
  339.08368 21.0 21
  340.04358 42.0 42
  340.0564 56.0 56
  340.06784 12.0 12
  341.05408 16.0 16
  341.06625 33.0 33
  342.06226 44.0 44
  343.08447 22.0 22
  349.06796 31.0 31
  351.04715 46.0 46
  355.0437 12.0 12
  357.05862 389.0 389
  357.08008 35.0 35
  358.03922 22.0 22
  358.05762 60.0 60
  358.07025 95.0 95
  358.08157 35.0 35
  365.06653 20.0 20
  369.03757 16.0 16
  369.0499 13.0 13
  369.07666 23.0 23
  370.0733 12.0 12
  382.0571 16.0 16
  399.07999 18.0 18
  431.09512 16.0 16
//
