ACCESSION: MSBNK-RIKEN-PR300859
RECORD_TITLE: Speciosine; LC-ESI-QTOF; MS2
DATE: 2019.03.28
AUTHORS: Tetsuya Mori, Center for Sustainable Resource Science, RIKEN
LICENSE: CC BY-NC-SA
PUBLICATION: Tsugawa H., Nakabayashi R., Mori T., Yamada Y., Takahashi M., Rai A., Sugiyama R., Yamamoto H., Nakaya T., Yamazaki M., Kooke R., Bac-Molenaar JA., Oztolan-Erol N., Keurentjes JJB., Arita M., Saito K. (2019) "A cheminformatics approach to characterize metabolomes in stable-isotope-labeled organisms" Nature Methods 16(4):295-298. [doi:10.1038/s41592-019-0358-2]
COMMENT: registered in RIKEN PlaSMA
CH$NAME: Speciosine
CH$COMPOUND_CLASS: Tropones
CH$FORMULA: C28H31NO6
CH$EXACT_MASS: 477.557
CH$SMILES: COC1=C(OC)C(OC)=C2C(CCC(N(C)CC3=CC=CC=C3O)C3=CC(=O)C(OC)=CC=C23)=C1
CH$IUPAC: InChI=1S/C28H31NO6/c1-29(16-18-8-6-7-9-22(18)30)21-12-10-17-14-25(33-3)27(34-4)28(35-5)26(17)19-11-13-24(32-2)23(31)15-20(19)21/h6-9,11,13-15,21,30H,10,12,16H2,1-5H3
CH$LINK: INCHIKEY SOFSXTKPGSIDCI-UHFFFAOYSA-N
AC$INSTRUMENT: LC, Waters Acquity UPLC System; MS, Waters Xevo G2 Q-Tof
AC$INSTRUMENT_TYPE: LC-ESI-QTOF
AC$MASS_SPECTROMETRY: MS_TYPE MS2
AC$MASS_SPECTROMETRY: ION_MODE POSITIVE
AC$MASS_SPECTROMETRY: COLLISION_ENERGY 6V
AC$MASS_SPECTROMETRY: DESOLVATION_GAS_FLOW 800/h
AC$MASS_SPECTROMETRY: DESOLVATION_TEMPERATURE 450 C
AC$MASS_SPECTROMETRY: IONIZATION ESI
AC$CHROMATOGRAPHY: CAPILLARY_VOLTAGE +3.00 kV
AC$CHROMATOGRAPHY: COLUMN_NAME Acquity bridged ethyl hybrid C18 (1.7 um, 2.1 mm * 100 mm, Waters)
AC$CHROMATOGRAPHY: COLUMN_TEMPERATURE 40 C
AC$CHROMATOGRAPHY: FLOW_GRADIENT A/B = (99.5%/0.5% at 0 min, 99.5%/0.5% at 0.1 min, 20%/80% at 10 min, 0.5%/99.5% at 10.1 min, 0.5%/99.5% at 12.0 min, 99.5%/0.5% at 12.1 min, 99.5%/0.5% at 15.0 min)
AC$CHROMATOGRAPHY: FLOW_RATE 0.3 ml/min at 0 min, 0.3 ml/min at 10 min, 0.4 ml/min at 10.1 min, 0.4 ml/min at 14.4 min, 0.3 ml/min at 14.5 min
AC$CHROMATOGRAPHY: RETENTION_TIME 5.032233
AC$CHROMATOGRAPHY: SOLVENT A water including 0.1% formic acid
AC$CHROMATOGRAPHY: SOLVENT B acetonitrile including 0.1% formic acid
MS$FOCUSED_ION: PRECURSOR_TYPE [M+H]+
MS$FOCUSED_ION: PRECURSOR_M/Z 478.2224142
PK$SPLASH: splash10-0gba-0191000000-8b27d8bbaa10388feebb
PK$NUM_PEAK: 909
PK$PEAK: m/z int. rel.int.
  56.05164 10.0 10
  58.02441 14.0 14
  62.91492 8.0 8
  70.06647 73.0 73
  70.07465 12.0 12
  71.038 12.0 12
  71.07221 10.0 10
  72.04166 13.0 13
  72.0462 38.0 38
  74.06004 8.0 8
  77.03164 10.0 10
  77.0347 23.0 23
  78.04538 10.0 10
  79.0519 14.0 14
  79.05991 7.0 7
  79.07261 22.0 22
  81.05368 11.0 11
  83.99426 8.0 8
  84.04588 29.0 29
  85.02731 12.0 12
  86.06464 10.0 10
  87.06577 22.0 22
  88.06528 11.0 11
  91.05462 7.0 7
  94.02543 9.0 9
  94.04211 10.0 10
  94.06593 7.0 7
  95.0745 12.0 12
  97.06509 10.0 10
  103.05436 13.0 13
  105.06685 10.0 10
  107.04909 315.0 315
  107.05794 32.0 32
  108.05411 44.0 44
  110.03505 9.0 9
  110.06783 7.0 7
  111.0834 7.0 7
  115.04166 10.0 10
  115.05346 12.0 12
  115.05838 23.0 23
  117.9696 13.0 13
  118.04221 16.0 16
  119.04473 25.0 25
  120.05845 11.0 11
  121.05098 22.0 22
  122.03035 8.0 8
  124.08002 10.0 10
  125.06215 9.0 9
  127.06033 7.0 7
  128.05537 7.0 7
  129.06636 17.0 17
  129.07486 18.0 18
  130.65718 11.0 11
  131.04759 10.0 10
  134.02869 8.0 8
  134.0547 13.0 13
  134.06186 16.0 16
  135.04552 7.0 7
  135.07651 7.0 7
  136.05269 11.0 11
  136.07535 73.0 73
  136.08435 17.0 17
  137.04327 7.0 7
  137.05522 27.0 27
  137.06616 87.0 87
  137.07928 7.0 7
  138.05534 7.0 7
  138.06094 8.0 8
  139.06503 11.0 11
  140.0676 25.0 25
  141.06755 10.0 10
  141.9684 8.0 8
  142.07585 7.0 7
  143.04573 13.0 13
  144.05769 9.0 9
  144.08801 15.0 15
  145.04639 10.0 10
  145.0656 59.0 59
  146.06381 29.0 29
  147.05045 9.0 9
  147.06653 31.0 31
  147.08162 20.0 20
  148.04579 18.0 18
  148.05632 11.0 11
  148.06894 7.0 7
  148.07649 10.0 10
  149.04741 33.0 33
  149.06036 9.0 9
  151.04169 9.0 9
  151.07481 19.0 19
  152.0479 20.0 20
  152.05818 15.0 15
  152.07643 10.0 10
  153.0695 34.0 34
  154.06238 8.0 8
  155.05206 22.0 22
  155.08237 21.0 21
  155.0907 9.0 9
  156.08441 8.0 8
  157.05708 10.0 10
  160.05251 12.0 12
  160.06036 10.0 10
  160.07724 19.0 19
  160.08467 18.0 18
  160.57431 10.0 10
  161.05804 18.0 18
  161.06636 22.0 22
  161.08557 29.0 29
  161.13776 10.0 10
  161.51616 10.0 10
  162.0598 12.0 12
  162.08905 13.0 13
  163.07401 19.0 19
  163.09868 18.0 18
  163.81165 11.0 11
  163.91998 15.0 15
  164.06009 16.0 16
  164.07231 94.0 94
  165.05386 8.0 8
  165.06248 19.0 19
  165.07336 74.0 74
  165.74846 9.0 9
  165.94331 10.0 10
  166.05887 17.0 17
  166.07352 32.0 32
  166.08415 67.0 67
  166.87933 10.0 10
  167.04913 27.0 27
  167.06682 13.0 13
  167.07596 41.0 41
  167.08705 30.0 30
  167.09677 10.0 10
  168.07024 7.0 7
  168.08253 16.0 16
  169.04724 15.0 15
  169.0611 9.0 9
  169.07199 16.0 16
  170.07306 10.0 10
  170.11177 8.0 8
  171.07793 32.0 32
  171.09048 11.0 11
  172.08824 9.0 9
  172.19286 10.0 10
  173.06215 37.0 37
  173.10522 9.0 9
  174.06194 19.0 19
  174.90222 8.0 8
  175.02675 12.0 12
  175.03772 8.0 8
  175.04439 12.0 12
  175.07552 30.0 30
  176.04318 9.0 9
  176.06966 19.0 19
  176.08464 30.0 30
  176.78793 13.0 13
  177.06285 57.0 57
  177.06868 22.0 22
  177.08194 9.0 9
  177.09547 7.0 7
  178.05623 7.0 7
  178.0817 122.0 122
  179.05077 7.0 7
  179.06746 20.0 20
  179.08012 28.0 28
  179.08917 77.0 77
  179.43968 7.0 7
  180.04742 12.0 12
  180.16684 11.0 11
  181.04144 11.0 11
  181.05568 27.0 27
  181.06625 116.0 116
  181.08592 70.0 70
  181.1051 55.0 55
  181.41933 9.0 9
  182.06982 72.0 72
  182.08228 21.0 21
  182.09169 15.0 15
  182.5173 10.0 10
  183.07776 54.0 54
  183.09825 9.0 9
  183.10606 17.0 17
  183.28917 10.0 10
  184.08977 26.0 26
  185.05347 7.0 7
  185.06364 19.0 19
  185.08315 8.0 8
  185.09943 10.0 10
  186.0569 7.0 7
  186.07025 11.0 11
  186.10098 7.0 7
  187.05602 7.0 7
  187.07245 37.0 37
  188.05699 15.0 15
  188.0721 36.0 36
  188.08197 31.0 31
  188.09528 17.0 17
  188.25923 7.0 7
  188.29016 10.0 10
  188.42006 7.0 7
  188.43321 14.0 14
  188.78734 7.0 7
  189.04611 7.0 7
  189.06244 10.0 10
  189.07382 70.0 70
  189.09138 22.0 22
  189.17557 7.0 7
  189.63167 9.0 9
  190.00685 8.0 8
  190.06329 22.0 22
  190.07407 16.0 16
  190.08501 7.0 7
  190.53175 8.0 8
  191.05771 8.0 8
  191.0717 18.0 18
  191.08014 22.0 22
  191.0918 26.0 26
  191.51683 7.0 7
  192.06342 46.0 46
  192.07994 10.0 10
  192.09296 42.0 42
  192.49706 7.0 7
  193.06004 11.0 11
  193.07333 20.0 20
  193.08791 28.0 28
  193.0975 8.0 8
  194.06924 50.0 50
  194.08186 57.0 57
  194.09488 7.0 7
  194.11308 11.0 11
  195.03772 7.0 7
  195.04655 23.0 23
  195.06316 27.0 27
  195.08047 276.0 276
  196.05302 34.0 34
  196.07848 17.0 17
  196.09378 35.0 35
  196.48213 8.0 8
  196.94676 16.0 16
  197.04164 7.0 7
  197.06099 157.0 157
  197.07297 23.0 23
  197.09734 73.0 73
  197.79999 9.0 9
  198.05688 23.0 23
  198.06912 71.0 71
  198.09125 9.0 9
  199.03899 7.0 7
  199.07329 149.0 149
  199.0946 23.0 23
  199.11392 16.0 16
  200.00638 7.0 7
  200.04678 7.0 7
  200.07066 7.0 7
  200.09114 9.0 9
  201.05551 42.0 42
  202.06702 9.0 9
  202.08081 27.0 27
  203.05994 7.0 7
  203.08315 17.0 17
  203.10193 22.0 22
  203.87526 7.0 7
  204.05704 8.0 8
  204.07678 19.0 19
  204.093 10.0 10
  205.05783 84.0 84
  205.06693 30.0 30
  205.08595 34.0 34
  206.04213 8.0 8
  206.05882 20.0 20
  206.07332 62.0 62
  206.09343 17.0 17
  206.50368 9.0 9
  207.04329 10.0 10
  207.06429 23.0 23
  207.08125 336.0 336
  207.11307 12.0 12
  207.20337 10.0 10
  208.04166 7.0 7
  208.05519 50.0 50
  208.08562 136.0 136
  208.10779 20.0 20
  208.12785 7.0 7
  208.17291 19.0 19
  208.30107 8.0 8
  209.05754 108.0 108
  209.07434 19.0 19
  209.09961 229.0 229
  209.13211 10.0 10
  209.51309 11.0 11
  210.05629 23.0 23
  210.06819 148.0 148
  210.09647 44.0 44
  210.10809 73.0 73
  211.0455 9.0 9
  211.06723 56.0 56
  211.07838 187.0 187
  211.09898 62.0 62
  211.11099 25.0 25
  211.12241 7.0 7
  212.03979 11.0 11
  212.05109 10.0 10
  212.08243 156.0 156
  212.12558 8.0 8
  212.15802 7.0 7
  213.05875 15.0 15
  213.07437 56.0 56
  213.09497 216.0 216
  213.11551 31.0 31
  213.13394 7.0 7
  213.45828 12.0 12
  213.51131 9.0 9
  213.66013 9.0 9
  213.67813 9.0 9
  214.05458 19.0 19
  214.06213 19.0 19
  214.07381 9.0 9
  214.09654 58.0 58
  214.3376 10.0 10
  215.0705 74.0 74
  215.09361 18.0 18
  215.09908 7.0 7
  215.71701 12.0 12
  215.75896 9.0 9
  216.06366 8.0 8
  216.08479 10.0 10
  216.98061 8.0 8
  217.05542 24.0 24
  217.06822 58.0 58
  217.08865 10.0 10
  217.10158 9.0 9
  217.72569 17.0 17
  218.06882 18.0 18
  218.08743 46.0 46
  218.18826 7.0 7
  219.03564 8.0 8
  219.04761 22.0 22
  219.06937 57.0 57
  219.07887 115.0 115
  219.10078 19.0 19
  219.11208 21.0 21
  219.22397 7.0 7
  220.05258 31.0 31
  220.07791 78.0 78
  220.0921 74.0 74
  220.10706 25.0 25
  220.11684 12.0 12
  220.80127 7.0 7
  221.05722 60.0 60
  221.06479 27.0 27
  221.07901 39.0 39
  221.09563 215.0 215
  221.12189 10.0 10
  221.23627 7.0 7
  221.30128 14.0 14
  221.99478 7.0 7
  222.05585 21.0 21
  222.06744 51.0 51
  222.07744 56.0 56
  222.09006 87.0 87
  222.11028 10.0 10
  222.12993 7.0 7
  222.26033 8.0 8
  223.036 7.0 7
  223.05637 7.0 7
  223.07393 195.0 195
  223.08386 183.0 183
  223.10493 93.0 93
  223.13271 67.0 67
  223.61464 7.0 7
  224.04759 21.0 21
  224.06511 17.0 17
  224.0847 227.0 227
  224.11584 8.0 8
  224.13095 12.0 12
  225.01762 17.0 17
  225.04668 43.0 43
  225.05862 105.0 105
  225.08594 77.0 77
  225.09491 223.0 223
  225.12395 9.0 9
  225.60426 10.0 10
  226.06232 97.0 97
  226.10036 158.0 158
  226.14302 7.0 7
  226.24083 9.0 9
  226.87158 10.0 10
  227.03439 16.0 16
  227.07217 223.0 223
  227.1088 60.0 60
  227.12158 9.0 9
  227.70276 7.0 7
  228.04561 9.0 9
  228.07927 56.0 56
  228.10934 59.0 59
  229.06252 9.0 9
  229.07237 9.0 9
  229.0887 68.0 68
  229.10295 7.0 7
  229.22728 12.0 12
  229.77011 7.0 7
  230.07642 7.0 7
  230.09297 36.0 36
  231.00835 10.0 10
  231.07283 22.0 22
  231.08434 10.0 10
  231.10231 19.0 19
  231.69019 8.0 8
  232.04408 19.0 19
  232.07561 7.0 7
  232.99362 10.0 10
  233.03755 8.0 8
  233.04692 9.0 9
  233.05873 33.0 33
  233.07025 74.0 74
  233.08926 17.0 17
  233.10545 7.0 7
  234.06482 16.0 16
  234.07758 39.0 39
  234.0972 41.0 41
  234.1212 10.0 10
  235.0547 61.0 61
  235.07809 459.0 459
  235.11653 12.0 12
  235.18127 16.0 16
  235.2261 14.0 14
  236.0377 12.0 12
  236.05211 25.0 25
  236.06003 50.0 50
  236.07986 114.0 114
  236.08965 197.0 197
  236.30052 8.0 8
  236.50539 7.0 7
  237.05627 122.0 122
  237.08073 145.0 145
  237.09113 182.0 182
  237.09805 105.0 105
  237.11453 25.0 25
  237.90413 8.0 8
  238.01778 8.0 8
  238.05524 59.0 59
  238.06895 37.0 37
  238.08656 48.0 48
  238.09885 117.0 117
  238.11176 54.0 54
  238.12903 26.0 26
  238.79681 8.0 8
  239.00697 14.0 14
  239.02414 17.0 17
  239.05556 19.0 19
  239.06909 147.0 147
  239.08878 137.0 137
  239.10684 297.0 297
  239.13533 10.0 10
  240.03873 24.0 24
  240.06071 18.0 18
  240.07434 148.0 148
  240.08456 228.0 228
  240.10962 65.0 65
  240.12144 57.0 57
  240.1451 10.0 10
  240.98584 12.0 12
  241.03937 7.0 7
  241.05252 41.0 41
  241.06577 50.0 50
  241.0874 673.0 672
  241.11505 19.0 19
  241.12819 9.0 9
  242.04114 7.0 7
  242.06125 34.0 34
  242.09384 179.0 179
  242.10223 69.0 69
  243.05122 7.0 7
  243.06483 68.0 68
  243.09299 19.0 19
  243.10231 38.0 38
  243.14378 14.0 14
  244.06427 18.0 18
  244.0829 17.0 17
  244.09898 10.0 10
  244.10663 8.0 8
  244.117 7.0 7
  245.05191 8.0 8
  245.08244 25.0 25
  245.11661 7.0 7
  246.09146 8.0 8
  246.10329 9.0 9
  246.68901 8.0 8
  247.04178 15.0 15
  247.0654 70.0 70
  247.09454 41.0 41
  247.10498 53.0 53
  247.41231 7.0 7
  248.04832 8.0 8
  248.07376 33.0 33
  248.08383 97.0 97
  248.10283 12.0 12
  248.11685 7.0 7
  249.0462 27.0 27
  249.05658 59.0 59
  249.09056 215.0 215
  249.11757 85.0 85
  249.3506 8.0 8
  249.86375 10.0 10
  250.06026 42.0 42
  250.07994 189.0 189
  250.10367 75.0 75
  250.12531 73.0 73
  250.42458 8.0 8
  250.66966 7.0 7
  251.04187 14.0 14
  251.0701 354.0 354
  251.08792 83.0 83
  251.10141 189.0 189
  251.11525 46.0 46
  251.1342 27.0 27
  251.17534 7.0 7
  251.20378 10.0 10
  251.37711 9.0 9
  252.02248 24.0 24
  252.0784 530.0 529
  252.10258 73.0 73
  252.11568 30.0 30
  252.12537 51.0 51
  252.15239 11.0 11
  252.27914 7.0 7
  252.8279 12.0 12
  252.85612 9.0 9
  253.04448 51.0 51
  253.0563 49.0 49
  253.07623 127.0 127
  253.09023 186.0 186
  253.11385 65.0 65
  253.12924 22.0 22
  253.14069 10.0 10
  253.3546 7.0 7
  254.043 22.0 22
  254.05602 37.0 37
  254.06934 31.0 31
  254.09302 159.0 159
  254.11096 116.0 116
  254.13364 28.0 28
  254.50803 10.0 10
  254.55876 12.0 12
  254.88013 7.0 7
  255.05475 51.0 51
  255.06674 148.0 148
  255.09566 140.0 140
  255.10669 198.0 198
  255.12582 21.0 21
  255.23741 11.0 11
  256.02487 8.0 8
  256.06476 61.0 61
  256.08414 37.0 37
  256.10812 205.0 205
  256.11639 97.0 97
  256.77365 10.0 10
  257.03583 16.0 16
  257.08203 211.0 211
  257.09412 99.0 99
  257.11322 26.0 26
  257.12494 14.0 14
  257.55606 8.0 8
  258.00061 7.0 7
  258.03281 8.0 8
  258.08533 17.0 17
  258.09311 42.0 42
  258.11819 10.0 10
  258.1264 12.0 12
  258.25934 15.0 15
  259.06241 8.0 8
  259.07657 9.0 9
  259.10843 17.0 17
  259.11932 7.0 7
  260.04791 11.0 11
  260.06961 27.0 27
  260.09427 7.0 7
  260.59958 11.0 11
  261.02844 10.0 10
  261.05106 18.0 18
  261.05878 7.0 7
  261.07532 7.0 7
  261.09872 30.0 30
  262.06149 26.0 26
  262.07919 71.0 71
  262.09061 38.0 38
  262.10715 24.0 24
  262.12143 54.0 54
  262.34119 8.0 8
  262.42191 7.0 7
  263.00662 8.0 8
  263.0665 145.0 145
  263.07681 89.0 89
  263.08771 49.0 49
  263.10159 15.0 15
  263.11752 19.0 19
  263.13693 11.0 11
  264.03613 7.0 7
  264.05441 17.0 17
  264.07166 97.0 97
  264.08282 75.0 75
  264.10126 272.0 272
  264.11887 35.0 35
  264.29559 8.0 8
  264.90228 7.0 7
  265.03818 7.0 7
  265.05264 12.0 12
  265.0784 207.0 207
  265.08939 191.0 191
  265.1084 119.0 119
  265.12466 27.0 27
  265.17798 10.0 10
  265.51453 7.0 7
  265.84158 7.0 7
  265.95505 8.0 8
  266.04752 7.0 7
  266.06381 34.0 34
  266.08322 53.0 53
  266.09671 64.0 64
  266.10446 137.0 137
  266.11584 197.0 197
  266.14166 10.0 10
  266.38202 12.0 12
  267.05045 15.0 15
  267.06259 86.0 86
  267.10175 1000.0 999
  267.13312 23.0 23
  268.04443 7.0 7
  268.0777 390.0 390
  268.09683 169.0 169
  268.10977 183.0 183
  268.12872 29.0 29
  268.14307 10.0 10
  268.16544 12.0 12
  269.03217 10.0 10
  269.08109 264.0 264
  269.10727 54.0 54
  269.12573 93.0 93
  269.83228 7.0 7
  270.04755 9.0 9
  270.08823 178.0 178
  270.1235 16.0 16
  270.13544 8.0 8
  270.22 10.0 10
  270.26462 7.0 7
  270.50238 16.0 16
  270.81903 10.0 10
  271.0567 22.0 22
  271.07498 46.0 46
  271.09064 136.0 136
  271.10669 55.0 55
  271.12643 19.0 19
  271.14865 10.0 10
  271.67502 7.0 7
  272.0675 34.0 34
  272.08206 29.0 29
  272.10767 65.0 65
  272.12375 24.0 24
  272.31497 11.0 11
  273.11115 48.0 48
  273.12408 9.0 9
  273.86835 9.0 9
  274.08478 24.0 24
  274.10855 16.0 16
  274.12656 7.0 7
  274.46439 8.0 8
  275.06839 8.0 8
  275.09094 19.0 19
  275.10178 7.0 7
  275.1228 10.0 10
  275.948 7.0 7
  276.05331 11.0 11
  276.06995 13.0 13
  276.10504 57.0 57
  277.03329 7.0 7
  277.05469 7.0 7
  277.06894 11.0 11
  277.08563 85.0 85
  277.10977 127.0 127
  278.03552 7.0 7
  278.05466 61.0 61
  278.07733 109.0 109
  278.09741 87.0 87
  278.11972 264.0 264
  279.04102 12.0 12
  279.06223 211.0 211
  279.09372 199.0 199
  279.11526 42.0 42
  279.12634 44.0 44
  279.14056 24.0 24
  279.21838 11.0 11
  279.70538 11.0 11
  280.00757 7.0 7
  280.06616 80.0 80
  280.07965 97.0 97
  280.09845 214.0 214
  280.13742 73.0 73
  281.04526 7.0 7
  281.06006 48.0 48
  281.08536 145.0 145
  281.10126 203.0 203
  281.13193 36.0 36
  281.14462 41.0 41
  281.15964 7.0 7
  281.88382 7.0 7
  282.05371 11.0 11
  282.06937 33.0 33
  282.08344 119.0 119
  282.11505 672.0 671
  282.79062 11.0 11
  282.8537 10.0 10
  283.06375 15.0 15
  283.08023 34.0 34
  283.09656 287.0 287
  283.12082 127.0 127
  283.64539 8.0 8
  283.81091 7.0 7
  284.08264 41.0 41
  284.10263 109.0 109
  284.11508 56.0 56
  284.75626 8.0 8
  285.05963 31.0 31
  285.06845 34.0 34
  285.08521 87.0 87
  285.10919 96.0 96
  285.92117 8.0 8
  286.05814 10.0 10
  286.08276 89.0 89
  286.10544 56.0 56
  286.11734 42.0 42
  286.12881 22.0 22
  286.65527 7.0 7
  286.77625 9.0 9
  287.0394 8.0 8
  287.06662 7.0 7
  287.0882 79.0 79
  287.1037 38.0 38
  287.13132 17.0 17
  287.21225 7.0 7
  287.40762 8.0 8
  287.69797 11.0 11
  288.08215 20.0 20
  288.09723 34.0 34
  288.13205 33.0 33
  289.11081 7.0 7
  290.08746 9.0 9
  290.11682 17.0 17
  290.29404 8.0 8
  291.095 44.0 44
  291.12122 11.0 11
  291.4668 8.0 8
  291.64404 10.0 10
  292.06442 17.0 17
  292.08844 58.0 58
  292.10001 94.0 94
  292.13821 16.0 16
  293.07953 109.0 109
  293.11075 74.0 74
  293.14999 10.0 10
  293.36313 9.0 9
  294.05746 7.0 7
  294.08319 51.0 51
  294.09708 91.0 91
  294.1167 238.0 238
  294.59631 8.0 8
  294.91327 9.0 9
  295.04736 11.0 11
  295.06543 34.0 34
  295.0864 208.0 208
  295.09955 767.0 766
  295.12509 67.0 67
  295.14883 9.0 9
  295.84088 10.0 10
  296.03647 8.0 8
  296.07559 76.0 76
  296.09012 93.0 93
  296.10172 178.0 178
  296.12607 503.0 502
  296.16364 12.0 12
  296.84201 7.0 7
  297.07883 29.0 29
  297.10373 105.0 105
  297.13928 68.0 68
  298.06287 17.0 17
  298.08026 27.0 27
  298.1124 174.0 174
  298.13409 27.0 27
  298.14874 8.0 8
  298.284 16.0 16
  299.07599 39.0 39
  299.08981 43.0 43
  299.11649 109.0 109
  299.14615 9.0 9
  300.10379 44.0 44
  300.13193 19.0 19
  301.09738 39.0 39
  301.1105 17.0 17
  301.12201 8.0 8
  301.87567 8.0 8
  302.1123 23.0 23
  303.10898 8.0 8
  303.66824 7.0 7
  304.09912 7.0 7
  304.13937 10.0 10
  304.1499 8.0 8
  305.10019 8.0 8
  305.11145 9.0 9
  306.1015 17.0 17
  306.11761 51.0 51
  306.61722 8.0 8
  307.07935 11.0 11
  307.09683 31.0 31
  307.12073 35.0 35
  307.17307 7.0 7
  308.07553 16.0 16
  308.08557 22.0 22
  308.09961 25.0 25
  308.12686 167.0 167
  308.99942 11.0 11
  309.04797 7.0 7
  309.09988 163.0 163
  309.13586 46.0 46
  310.0816 33.0 33
  310.09723 98.0 98
  310.10938 268.0 268
  310.12387 118.0 118
  310.14774 36.0 36
  311.06201 18.0 18
  311.09293 320.0 320
  311.11249 96.0 96
  311.13553 66.0 66
  311.24741 10.0 10
  312.0704 9.0 9
  312.08786 76.0 76
  312.09915 127.0 127
  312.1384 18.0 18
  312.15579 29.0 29
  313.10495 26.0 26
  313.11966 28.0 28
  313.13452 78.0 78
  313.1488 21.0 21
  313.16608 7.0 7
  313.97375 7.0 7
  314.10345 93.0 93
  314.12964 54.0 54
  314.13834 23.0 23
  314.29837 13.0 13
  315.09906 7.0 7
  315.14584 8.0 8
  315.15936 12.0 12
  315.74829 11.0 11
  316.09827 8.0 8
  320.09479 9.0 9
  320.12738 8.0 8
  322.11227 16.0 16
  323.08908 14.0 14
  323.14636 29.0 29
  323.16422 10.0 10
  324.09619 29.0 29
  324.12381 146.0 146
  324.18958 7.0 7
  325.11215 53.0 53
  325.13144 27.0 27
  325.14441 10.0 10
  326.09106 8.0 8
  326.10092 10.0 10
  326.12219 63.0 63
  326.14163 8.0 8
  327.02142 7.0 7
  327.09207 9.0 9
  327.10568 17.0 17
  327.12079 38.0 38
  327.13559 34.0 34
  327.15488 7.0 7
  328.08667 10.0 10
  328.10074 24.0 24
  328.12164 7.0 7
  328.14127 16.0 16
  328.15497 7.0 7
  329.14905 7.0 7
  329.15982 12.0 12
  331.13062 7.0 7
  333.09784 10.0 10
  337.9657 7.0 7
  338.13373 11.0 11
  339.13199 9.0 9
  339.14694 7.0 7
  340.09406 9.0 9
  340.11441 26.0 26
  340.13754 17.0 17
  340.15472 20.0 20
  341.10229 10.0 10
  341.15125 18.0 18
  342.12671 57.0 57
  343.1441 21.0 21
  344.12402 8.0 8
  344.13855 7.0 7
  354.49435 7.0 7
  356.12274 8.0 8
  356.13968 10.0 10
  356.16132 16.0 16
  357.14255 7.0 7
  372.18781 7.0 7
  393.79276 15.0 15
  398.10855 14.0 14
  427.64923 7.0 7
  428.4024 7.0 7
  441.4873 7.0 7
  461.8851 7.0 7
  465.7774 7.0 7
//
