ACCESSION: MSBNK-RIKEN-PR301444
RECORD_TITLE: Papaverine; LC-ESI-QTOF; MS2
DATE: 2019.03.28
AUTHORS: Tetsuya Mori, Center for Sustainable Resource Science, RIKEN
LICENSE: CC BY-NC-SA
PUBLICATION: Tsugawa H., Nakabayashi R., Mori T., Yamada Y., Takahashi M., Rai A., Sugiyama R., Yamamoto H., Nakaya T., Yamazaki M., Kooke R., Bac-Molenaar JA., Oztolan-Erol N., Keurentjes JJB., Arita M., Saito K. (2019) "A cheminformatics approach to characterize metabolomes in stable-isotope-labeled organisms" Nature Methods 16(4):295-298. [doi:10.1038/s41592-019-0358-2]
COMMENT: registered in RIKEN PlaSMA
CH$NAME: Papaverine
CH$COMPOUND_CLASS: Benzylisoquinolines
CH$FORMULA: C20H21NO4
CH$EXACT_MASS: 339.391
CH$SMILES: COC1=C(OC)C=C(CC2=NC=CC3=CC(OC)=C(OC)C=C23)C=C1
CH$IUPAC: InChI=1S/C20H21NO4/c1-22-17-6-5-13(10-18(17)23-2)9-16-15-12-20(25-4)19(24-3)11-14(15)7-8-21-16/h5-8,10-12H,9H2,1-4H3
CH$LINK: INCHIKEY XQYZDYMELSJDRZ-UHFFFAOYSA-N
AC$INSTRUMENT: LC, Waters Acquity UPLC System; MS, Waters Xevo G2 Q-Tof
AC$INSTRUMENT_TYPE: LC-ESI-QTOF
AC$MASS_SPECTROMETRY: MS_TYPE MS2
AC$MASS_SPECTROMETRY: ION_MODE POSITIVE
AC$MASS_SPECTROMETRY: COLLISION_ENERGY 6V
AC$MASS_SPECTROMETRY: DESOLVATION_GAS_FLOW 800/h
AC$MASS_SPECTROMETRY: DESOLVATION_TEMPERATURE 450 C
AC$MASS_SPECTROMETRY: IONIZATION ESI
AC$CHROMATOGRAPHY: CAPILLARY_VOLTAGE +3.00 kV
AC$CHROMATOGRAPHY: COLUMN_NAME Acquity bridged ethyl hybrid C18 (1.7 um, 2.1 mm * 100 mm, Waters)
AC$CHROMATOGRAPHY: COLUMN_TEMPERATURE 40 C
AC$CHROMATOGRAPHY: FLOW_GRADIENT A/B = (99.5%/0.5% at 0 min, 99.5%/0.5% at 0.1 min, 20%/80% at 10 min, 0.5%/99.5% at 10.1 min, 0.5%/99.5% at 12.0 min, 99.5%/0.5% at 12.1 min, 99.5%/0.5% at 15.0 min)
AC$CHROMATOGRAPHY: FLOW_RATE 0.3 ml/min at 0 min, 0.3 ml/min at 10 min, 0.4 ml/min at 10.1 min, 0.4 ml/min at 14.4 min, 0.3 ml/min at 14.5 min
AC$CHROMATOGRAPHY: RETENTION_TIME 4.491683
AC$CHROMATOGRAPHY: SOLVENT A water including 0.1% formic acid
AC$CHROMATOGRAPHY: SOLVENT B acetonitrile including 0.1% formic acid
MS$FOCUSED_ION: PRECURSOR_TYPE [M+H]+
MS$FOCUSED_ION: PRECURSOR_M/Z 340.1543346
PK$SPLASH: splash10-0ab9-0951000000-652d0d5b5e95a62d733e
PK$NUM_PEAK: 300
PK$PEAK: m/z int. rel.int.
  77.03963 48.0 48
  77.04877 6.0 6
  78.0429 7.0 7
  89.03737 9.0 9
  90.43478 7.0 7
  91.05395 48.0 48
  95.04816 58.0 58
  95.05427 28.0 28
  101.04008 21.0 21
  102.041 18.0 18
  102.04971 8.0 8
  103.03398 12.0 12
  103.05518 185.0 185
  104.05096 6.0 6
  104.05898 8.0 8
  104.06375 10.0 10
  105.07191 5.0 5
  107.04577 25.0 25
  108.06164 10.0 10
  114.04582 24.0 24
  114.05074 18.0 18
  115.05579 138.0 138
  116.05066 64.0 64
  116.06334 31.0 31
  118.04285 37.0 37
  118.06618 26.0 26
  118.07352 7.0 7
  119.0516 7.0 7
  119.07047 9.0 9
  121.06808 7.0 7
  123.04244 90.0 90
  123.04807 40.0 40
  124.0408 9.0 9
  124.05233 6.0 6
  127.02108 8.0 8
  127.03876 5.0 5
  127.0514 48.0 48
  128.04984 464.0 464
  128.0643 7.0 7
  128.13136 7.0 7
  129.04077 6.0 6
  129.05679 94.0 94
  130.04482 7.0 7
  130.06664 207.0 207
  131.04997 194.0 194
  131.05682 60.0 60
  131.0741 86.0 86
  132.05205 36.0 36
  133.02139 6.0 6
  133.02898 12.0 12
  133.05745 7.0 7
  133.07306 10.0 10
  135.03799 6.0 6
  135.04662 15.0 15
  135.05637 11.0 11
  136.05125 6.0 6
  138.06889 14.0 14
  140.04689 99.0 99
  140.05405 80.0 80
  141.03368 7.0 7
  141.05849 75.0 75
  142.06667 67.0 67
  142.07643 7.0 7
  143.04761 17.0 17
  143.06012 5.0 5
  143.07199 58.0 58
  144.04492 122.0 122
  144.07596 7.0 7
  144.08513 13.0 13
  145.05809 23.0 23
  145.06654 21.0 21
  145.07356 9.0 9
  146.05466 31.0 31
  146.06355 36.0 36
  146.07848 9.0 9
  146.09294 9.0 9
  147.0466 12.0 12
  147.08705 8.0 8
  148.043 11.0 11
  148.05167 19.0 19
  148.06142 7.0 7
  149.06059 7.0 7
  151.07504 15.0 15
  153.05492 5.0 5
  154.033 18.0 18
  154.05925 6.0 6
  154.06445 17.0 17
  154.64941 6.0 6
  155.03596 14.0 14
  155.06863 6.0 6
  156.04521 463.0 463
  156.07509 8.0 8
  157.04665 64.0 64
  157.05701 56.0 56
  158.02078 6.0 6
  158.06161 533.0 532
  159.03372 6.0 6
  159.04869 41.0 41
  159.06815 227.0 227
  160.03799 6.0 6
  160.05305 14.0 14
  160.06868 13.0 13
  160.07823 17.0 17
  161.05418 20.0 20
  161.06628 17.0 17
  162.06718 7.0 7
  164.45456 7.0 7
  165.06776 7.0 7
  166.05898 8.0 8
  167.07289 8.0 8
  168.04797 5.0 5
  169.09425 6.0 6
  170.04689 6.0 6
  170.06197 74.0 74
  171.02736 9.0 9
  171.06789 1000.0 999
  172.04131 41.0 41
  172.07433 172.0 172
  173.04547 6.0 6
  173.05858 15.0 15
  173.07884 18.0 18
  174.05614 46.0 46
  174.06795 18.0 18
  174.13477 6.0 6
  175.05644 8.0 8
  175.06445 20.0 20
  175.0751 47.0 47
  176.05733 9.0 9
  177.07202 7.0 7
  179.07874 7.0 7
  180.08127 18.0 18
  181.0587 9.0 9
  181.08725 7.0 7
  183.06416 34.0 34
  183.07356 17.0 17
  184.04048 9.0 9
  184.07384 9.0 9
  185.05215 7.0 7
  186.03046 20.0 20
  186.05595 434.0 434
  186.07396 10.0 10
  187.06168 238.0 238
  188.06572 31.0 31
  189.06961 10.0 10
  189.07892 36.0 36
  190.06129 6.0 6
  190.0818 9.0 9
  190.0882 18.0 18
  191.07172 11.0 11
  191.07942 15.0 15
  192.06477 7.0 7
  192.07672 14.0 14
  192.08533 23.0 23
  193.08919 23.0 23
  194.07825 7.0 7
  194.08943 20.0 20
  194.09958 14.0 14
  195.06122 6.0 6
  196.07329 34.0 34
  197.08443 16.0 16
  200.06891 11.0 11
  202.08865 362.0 362
  203.09113 81.0 81
  204.07906 17.0 17
  204.08649 41.0 41
  205.08858 37.0 37
  206.06123 6.0 6
  206.09477 33.0 33
  207.0687 20.0 20
  207.09108 12.0 12
  207.10805 6.0 6
  208.07721 38.0 38
  208.08447 16.0 16
  209.08446 45.0 45
  210.09193 59.0 59
  211.09473 11.0 11
  212.0686 6.0 6
  213.07806 10.0 10
  216.07643 5.0 5
  216.0899 9.0 9
  217.06519 7.0 7
  217.09273 32.0 32
  218.09929 28.0 28
  219.07297 6.0 6
  220.07191 87.0 87
  220.08698 33.0 33
  221.06853 10.0 10
  221.07962 47.0 47
  221.0921 45.0 45
  222.09364 165.0 165
  222.12134 6.0 6
  223.0983 35.0 35
  223.10733 45.0 45
  224.06999 60.0 60
  224.10229 8.0 8
  224.11659 17.0 17
  225.07506 18.0 18
  225.08585 10.0 10
  225.10825 10.0 10
  226.08537 29.0 29
  227.09114 20.0 20
  232.07819 38.0 38
  233.08614 60.0 60
  233.10585 10.0 10
  234.08881 74.0 74
  234.09801 31.0 31
  235.09848 74.0 74
  236.06622 30.0 30
  236.07944 39.0 39
  236.09009 9.0 9
  236.10475 9.0 9
  237.07178 9.0 9
  237.07896 27.0 27
  238.07736 30.0 30
  238.08685 44.0 44
  238.09723 28.0 28
  239.09499 15.0 15
  239.10466 11.0 11
  240.07852 7.0 7
  240.0948 15.0 15
  240.10849 54.0 54
  240.72946 6.0 6
  241.10635 10.0 10
  246.09688 7.0 7
  246.10542 6.0 6
  248.06779 20.0 20
  248.08591 10.0 10
  249.0755 29.0 29
  249.09259 10.0 10
  250.0717 30.0 30
  250.08745 250.0 250
  250.93817 5.0 5
  251.07422 40.0 40
  251.09802 50.0 50
  252.101 147.0 147
  252.11455 38.0 38
  253.10068 6.0 6
  253.11548 9.0 9
  254.11075 7.0 7
  254.12308 8.0 8
  260.07474 9.0 9
  261.07504 10.0 10
  262.08868 69.0 69
  263.07446 5.0 5
  263.08667 27.0 27
  263.09949 47.0 47
  264.05731 7.0 7
  264.10263 78.0 78
  264.12085 16.0 16
  265.06345 9.0 9
  265.10223 11.0 11
  265.11829 16.0 16
  266.08148 37.0 37
  266.10403 15.0 15
  266.12366 39.0 39
  267.08835 10.0 10
  267.11957 9.0 9
  274.08295 9.0 9
  277.06531 9.0 9
  277.07977 6.0 6
  277.31537 6.0 6
  278.07547 50.0 50
  278.08765 79.0 79
  278.12228 10.0 10
  279.08936 114.0 114
  280.06317 12.0 12
  280.07883 53.0 53
  280.09921 562.0 561
  280.18484 8.0 8
  281.07663 10.0 10
  281.10095 117.0 117
  281.11945 21.0 21
  282.11481 10.0 10
  283.11499 6.0 6
  290.0769 9.0 9
  290.09 10.0 10
  292.10657 15.0 15
  293.11252 11.0 11
  294.11362 44.0 44
  295.11154 7.0 7
  296.11734 8.0 8
  296.12836 10.0 10
  306.05948 7.0 7
  306.08557 29.0 29
  308.06729 34.0 34
  308.09412 698.0 697
  308.12418 9.0 9
  309.06519 10.0 10
  309.08969 55.0 55
  309.10388 128.0 128
  310.09317 7.0 7
  310.10675 29.0 29
  311.08508 5.0 5
  322.09613 11.0 11
  324.10132 7.0 7
  324.12604 144.0 144
  325.12335 31.0 31
  325.13727 11.0 11
  326.1337 6.0 6
  340.15326 17.0 17
//
