ACCESSION: MSBNK-RIKEN-PR100281
RECORD_TITLE: (3S)-3,7-diaminoheptanoic acid; LC-ESI-QTOF; MS2; CE:Ramp 5-60 V; [M+H]+
DATE: 2016.01.19 (Created 2009.09.10, modified 2012.10.22)
AUTHORS: Matsuda F, Suzuki M, Sawada Y, Plant Science Center, RIKEN.
LICENSE: CC BY-SA
COMMENT: Acquisition and generation of the data is financially supported in part by CREST/JST.
CH$NAME: L-beta-Homolysine
CH$NAME: (3S)-3,7-diaminoheptanoic acid
CH$COMPOUND_CLASS: Amino acids
CH$FORMULA: C7H16N2O2
CH$EXACT_MASS: 160.12118
CH$SMILES: NCCCCC(N)CC(O)=O
CH$IUPAC: InChI=1S/C7H16N2O2/c8-4-2-1-3-6(9)5-7(10)11/h6H,1-5,8-9H2,(H,10,11)/t6-/m0/s1
CH$LINK: CAS 13184-41-3
CH$LINK: CHEMSPIDER 2042257
CH$LINK: PUBCHEM CID:2761529
CH$LINK: INCHIKEY PJDINCOFOROBQW-LURJTMIESA-N
CH$LINK: COMPTOX DTXSID50375816
AC$INSTRUMENT: UPLC Q-Tof Premier, Waters
AC$INSTRUMENT_TYPE: LC-ESI-QTOF
AC$MASS_SPECTROMETRY: MS_TYPE MS2
AC$MASS_SPECTROMETRY: ION_MODE POSITIVE
AC$MASS_SPECTROMETRY: COLLISION_ENERGY Ramp 5-60 V
AC$MASS_SPECTROMETRY: DATAFORMAT Continuum
AC$MASS_SPECTROMETRY: DATE 2008.07.28
AC$MASS_SPECTROMETRY: DESOLVATION_GAS_FLOW 600.0 L/Hr
AC$MASS_SPECTROMETRY: DESOLVATION_TEMPERATURE 420 C
AC$MASS_SPECTROMETRY: FRAGMENTATION_METHOD LOW-ENERGY CID
AC$MASS_SPECTROMETRY: IONIZATION ESI
AC$MASS_SPECTROMETRY: SCANNING 1.0 sec/scan (m/z = 50-1000)
AC$MASS_SPECTROMETRY: SOURCE_TEMPERATURE 120 C
AC$CHROMATOGRAPHY: CAPILLARY_VOLTAGE 3.0 kV
AC$CHROMATOGRAPHY: SAMPLING_CONE 23.0 V
AC$CHROMATOGRAPHY: SOLVENT A CH3CN(0.1%HCOOH)
AC$CHROMATOGRAPHY: SOLVENT B H2O(0.1%HCOOH)
MS$FOCUSED_ION: PRECURSOR_M/Z 161.12897
MS$FOCUSED_ION: PRECURSOR_TYPE [M+H]+
PK$SPLASH: splash10-001i-9400000000-92f84698241be5fc584c
PK$NUM_PEAK: 3
PK$PEAK: m/z int. rel.int.
  84.0814 705.1 999
  144.1032 266.1 377
  161.1290 73.81 105
//
