ACCESSION: MSBNK-RIKEN-PR309351
RECORD_TITLE: Coumestan base + 2O, O-Hex; LC-ESI-QTOF; MS2
DATE: 2019.03.28
AUTHORS: Tetsuya Mori, Center for Sustainable Resource Science, RIKEN
LICENSE: CC BY-NC-SA
PUBLICATION: Tsugawa H., Nakabayashi R., Mori T., Yamada Y., Takahashi M., Rai A., Sugiyama R., Yamamoto H., Nakaya T., Yamazaki M., Kooke R., Bac-Molenaar JA., Oztolan-Erol N., Keurentjes JJB., Arita M., Saito K. (2019) "A cheminformatics approach to characterize metabolomes in stable-isotope-labeled organisms" Nature Methods 16(4):295-298. [doi:10.1038/s41592-019-0358-2]
COMMENT: Annotation level-3
CH$NAME: Coumestan base + 2O, O-Hex
CH$COMPOUND_CLASS: Coumarin and derivatives
CH$FORMULA: C21H18O10
CH$EXACT_MASS: 430.365
CH$SMILES: O=C4OC=2C=C(OC1OC(CO)C(O)C(O)C1(O))C=CC=2C=5OC=3C=C(O)C=CC=3C4=5
CH$IUPAC: InChI=1S/C21H18O10/c22-7-14-16(24)17(25)18(26)21(31-14)28-9-2-4-11-13(6-9)30-20(27)15-10-3-1-8(23)5-12(10)29-19(11)15/h1-6,14,16-18,21-26H,7H2
CH$LINK: INCHIKEY JSKGNHCHUPJTOQ-UHFFFAOYSA-N
AC$INSTRUMENT: LC, Waters Acquity UPLC System; MS, Waters Xevo G2 Q-Tof
AC$INSTRUMENT_TYPE: LC-ESI-QTOF
AC$MASS_SPECTROMETRY: MS_TYPE MS2
AC$MASS_SPECTROMETRY: ION_MODE NEGATIVE
AC$MASS_SPECTROMETRY: COLLISION_ENERGY 6V
AC$MASS_SPECTROMETRY: DESOLVATION_GAS_FLOW 800/h
AC$MASS_SPECTROMETRY: DESOLVATION_TEMPERATURE 450 C
AC$MASS_SPECTROMETRY: IONIZATION ESI
AC$CHROMATOGRAPHY: CAPILLARY_VOLTAGE +3.00 kV
AC$CHROMATOGRAPHY: COLUMN_NAME Acquity bridged ethyl hybrid C18 (1.7 um, 2.1 mm * 100 mm, Waters)
AC$CHROMATOGRAPHY: COLUMN_TEMPERATURE 40 C
AC$CHROMATOGRAPHY: FLOW_GRADIENT A/B = (99.5%/0.5% at 0 min, 99.5%/0.5% at 0.1 min, 20%/80% at 10 min, 0.5%/99.5% at 10.1 min, 0.5%/99.5% at 12.0 min, 99.5%/0.5% at 12.1 min, 99.5%/0.5% at 15.0 min)
AC$CHROMATOGRAPHY: FLOW_RATE 0.3 ml/min at 0 min, 0.3 ml/min at 10 min, 0.4 ml/min at 10.1 min, 0.4 ml/min at 14.4 min, 0.3 ml/min at 14.5 min
AC$CHROMATOGRAPHY: RETENTION_TIME 4.37
AC$CHROMATOGRAPHY: SOLVENT A water including 0.1% formic acid
AC$CHROMATOGRAPHY: SOLVENT B acetonitrile including 0.1% formic acid
MS$FOCUSED_ION: PRECURSOR_TYPE [M-H]-
MS$FOCUSED_ION: PRECURSOR_M/Z 429.0825
PK$SPLASH: splash10-014i-0090200000-6e71b66bd1fe5d6a9e50
PK$NUM_PEAK: 7
PK$PEAK: m/z int. rel.int.
  194.0399 25.0 45
  211.33952 20.0 36
  266.02136 555.0 999
  267.02515 43.0 77
  281.9404 20.0 36
  429.07306 58.0 104
  429.08774 97.0 175
//
