ACCESSION: MSBNK-RIKEN-PR310465
RECORD_TITLE: Kaempferol-3-O-glucoside-6''-p-coumaroyl; LC-ESI-QTOF; MS2
DATE: 2019.03.28
AUTHORS: Tetsuya Mori, Center for Sustainable Resource Science, RIKEN
LICENSE: CC BY-NC-SA
PUBLICATION: Tsugawa H., Nakabayashi R., Mori T., Yamada Y., Takahashi M., Rai A., Sugiyama R., Yamamoto H., Nakaya T., Yamazaki M., Kooke R., Bac-Molenaar JA., Oztolan-Erol N., Keurentjes JJB., Arita M., Saito K. (2019) "A cheminformatics approach to characterize metabolomes in stable-isotope-labeled organisms" Nature Methods 16(4):295-298. [doi:10.1038/s41592-019-0358-2]
COMMENT: Annotation level-1
CH$NAME: Kaempferol-3-O-glucoside-6''-p-coumaroyl
CH$COMPOUND_CLASS: Flavonol O-glycosides
CH$FORMULA: C30H26O13
CH$EXACT_MASS: 594.525
CH$SMILES: OC1C(COC(=O)C=CC2=CC=C(O)C=C2)OC(OC2=C(OC3=C(C(O)=CC(O)=C3)C2=O)C2=CC=C(O)C=C2)C(O)C1O
CH$IUPAC: InChI=1S/C30H26O13/c31-16-6-1-14(2-7-16)3-10-22(35)40-13-21-24(36)26(38)27(39)30(42-21)43-29-25(37)23-19(34)11-18(33)12-20(23)41-28(29)15-4-8-17(32)9-5-15/h1-12,21,24,26-27,30-34,36,38-39H,13H2
CH$LINK: INCHIKEY DVGGLGXQSFURLP-UHFFFAOYSA-N
AC$INSTRUMENT: LC, Waters Acquity UPLC System; MS, Waters Xevo G2 Q-Tof
AC$INSTRUMENT_TYPE: LC-ESI-QTOF
AC$MASS_SPECTROMETRY: MS_TYPE MS2
AC$MASS_SPECTROMETRY: ION_MODE POSITIVE
AC$MASS_SPECTROMETRY: COLLISION_ENERGY 6V
AC$MASS_SPECTROMETRY: DESOLVATION_GAS_FLOW 800/h
AC$MASS_SPECTROMETRY: DESOLVATION_TEMPERATURE 450 C
AC$MASS_SPECTROMETRY: IONIZATION ESI
AC$CHROMATOGRAPHY: CAPILLARY_VOLTAGE +3.00 kV
AC$CHROMATOGRAPHY: COLUMN_NAME Acquity bridged ethyl hybrid C18 (1.7 um, 2.1 mm * 100 mm, Waters)
AC$CHROMATOGRAPHY: COLUMN_TEMPERATURE 40 C
AC$CHROMATOGRAPHY: FLOW_GRADIENT A/B = (99.5%/0.5% at 0 min, 99.5%/0.5% at 0.1 min, 20%/80% at 10 min, 0.5%/99.5% at 10.1 min, 0.5%/99.5% at 12.0 min, 99.5%/0.5% at 12.1 min, 99.5%/0.5% at 15.0 min)
AC$CHROMATOGRAPHY: FLOW_RATE 0.3 ml/min at 0 min, 0.3 ml/min at 10 min, 0.4 ml/min at 10.1 min, 0.4 ml/min at 14.4 min, 0.3 ml/min at 14.5 min
AC$CHROMATOGRAPHY: RETENTION_TIME 5.21
AC$CHROMATOGRAPHY: SOLVENT A water including 0.1% formic acid
AC$CHROMATOGRAPHY: SOLVENT B acetonitrile including 0.1% formic acid
MS$FOCUSED_ION: PRECURSOR_TYPE [M+H]+
MS$FOCUSED_ION: PRECURSOR_M/Z 595.14462
PK$SPLASH: splash10-0002-0942010000-9017482220d9366e5348
PK$NUM_PEAK: 59
PK$PEAK: m/z int. rel.int.
  81.031 23.0 4
  84.26169 23.0 4
  86.40439 25.0 5
  89.52584 26.0 5
  99.04186 19.0 4
  109.02752 33.0 6
  111.91833 19.0 4
  119.0451 26.0 5
  120.0463 30.0 6
  125.47523 18.0 3
  126.03173 18.0 3
  127.03923 39.0 7
  146.06807 18.0 3
  146.70453 20.0 4
  146.97049 30.0 6
  147.01205 75.0 14
  147.04253 5413.0 999
  147.09406 42.0 8
  147.34836 20.0 4
  148.04477 585.0 108
  148.05759 41.0 8
  148.16017 17.0 3
  148.437 17.0 3
  150.02505 25.0 5
  150.47433 36.0 7
  157.2097 28.0 5
  165.04878 473.0 87
  165.05974 168.0 31
  166.05247 52.0 10
  166.05795 94.0 17
  175.48804 17.0 3
  213.05696 25.0 5
  236.02823 18.0 3
  251.36253 25.0 5
  287.01062 71.0 13
  287.04224 543.0 100
  287.05493 1786.0 330
  288.03888 36.0 7
  288.05801 461.0 85
  288.07983 24.0 4
  291.07248 149.0 27
  291.08618 448.0 83
  292.07669 26.0 5
  292.09283 137.0 25
  293.09253 45.0 8
  309.09326 1100.0 203
  309.10544 252.0 47
  310.08765 73.0 13
  310.09729 222.0 41
  311.09729 19.0 4
  311.1059 46.0 8
  329.04831 31.0 6
  330.06216 22.0 4
  396.06787 27.0 5
  431.09433 41.0 8
  469.53033 27.0 5
  476.11862 23.0 4
  595.04956 20.0 4
  595.1441 933.0 172
//
