ACCESSION: MSBNK-RIKEN-PR301869
RECORD_TITLE: Hederacoside C; LC-ESI-QTOF; MS2
DATE: 2019.03.28
AUTHORS: Tetsuya Mori, Center for Sustainable Resource Science, RIKEN
LICENSE: CC BY-NC-SA
PUBLICATION: Tsugawa H., Nakabayashi R., Mori T., Yamada Y., Takahashi M., Rai A., Sugiyama R., Yamamoto H., Nakaya T., Yamazaki M., Kooke R., Bac-Molenaar JA., Oztolan-Erol N., Keurentjes JJB., Arita M., Saito K. (2019) "A cheminformatics approach to characterize metabolomes in stable-isotope-labeled organisms" Nature Methods 16(4):295-298. [doi:10.1038/s41592-019-0358-2]
COMMENT: registered in RIKEN PlaSMA
CH$NAME: Hederacoside C
CH$COMPOUND_CLASS: Triterpene saponins
CH$FORMULA: C59H96O26
CH$EXACT_MASS: 1221.391
CH$SMILES: C[C@@H]1O[C@@H](O[C@H]2[C@H](O)[C@@H](O)[C@H](OC[C@H]3O[C@@H](OC(=O)[C@]45CCC(C)(C)C[C@H]4C4=CC[C@@H]6[C@@]7(C)CC[C@H](O[C@@H]8OC[C@H](O)[C@H](O)[C@H]8O[C@@H]8O[C@@H](C)[C@H](O)[C@@H](O)[C@H]8O)[C@@](C)(CO)[C@@H]7CC[C@@]6(C)[C@]4(C)CC5)[C@H](O)[C@@H](O)[C@@H]3O)O[C@@H]2CO)[C@H](O)[C@H](O)[C@H]1O
CH$IUPAC: InChI=1S/C59H96O26/c1-24-34(63)38(67)42(71)49(78-24)83-46-29(20-60)80-48(45(74)41(46)70)77-22-30-37(66)40(69)44(73)51(81-30)85-53(75)59-17-15-54(3,4)19-27(59)26-9-10-32-55(5)13-12-33(56(6,23-61)31(55)11-14-58(32,8)57(26,7)16-18-59)82-52-47(36(65)28(62)21-76-52)84-50-43(72)39(68)35(64)25(2)79-50/h9,24-25,27-52,60-74H,10-23H2,1-8H3/t24-,25-,27-,28-,29+,30+,31+,32+,33-,34-,35-,36-,37+,38+,39+,40-,41+,42+,43+,44+,45+,46+,47+,48+,49-,50-,51-,52-,55-,56-,57+,58+,59-/m0/s1
CH$LINK: INCHIKEY RYHDIBJJJRNDSX-MCGLQMIESA-N
AC$INSTRUMENT: LC, Waters Acquity UPLC System; MS, Waters Xevo G2 Q-Tof
AC$INSTRUMENT_TYPE: LC-ESI-QTOF
AC$MASS_SPECTROMETRY: MS_TYPE MS2
AC$MASS_SPECTROMETRY: ION_MODE POSITIVE
AC$MASS_SPECTROMETRY: COLLISION_ENERGY 6V
AC$MASS_SPECTROMETRY: DESOLVATION_GAS_FLOW 800/h
AC$MASS_SPECTROMETRY: DESOLVATION_TEMPERATURE 450 C
AC$MASS_SPECTROMETRY: IONIZATION ESI
AC$CHROMATOGRAPHY: CAPILLARY_VOLTAGE +3.00 kV
AC$CHROMATOGRAPHY: COLUMN_NAME Acquity bridged ethyl hybrid C18 (1.7 um, 2.1 mm * 100 mm, Waters)
AC$CHROMATOGRAPHY: COLUMN_TEMPERATURE 40 C
AC$CHROMATOGRAPHY: FLOW_GRADIENT A/B = (99.5%/0.5% at 0 min, 99.5%/0.5% at 0.1 min, 20%/80% at 10 min, 0.5%/99.5% at 10.1 min, 0.5%/99.5% at 12.0 min, 99.5%/0.5% at 12.1 min, 99.5%/0.5% at 15.0 min)
AC$CHROMATOGRAPHY: FLOW_RATE 0.3 ml/min at 0 min, 0.3 ml/min at 10 min, 0.4 ml/min at 10.1 min, 0.4 ml/min at 14.4 min, 0.3 ml/min at 14.5 min
AC$CHROMATOGRAPHY: RETENTION_TIME 5.37805
AC$CHROMATOGRAPHY: SOLVENT A water including 0.1% formic acid
AC$CHROMATOGRAPHY: SOLVENT B acetonitrile including 0.1% formic acid
MS$FOCUSED_ION: PRECURSOR_TYPE [M+H]+
MS$FOCUSED_ION: PRECURSOR_M/Z 1221.62626
PK$SPLASH: splash10-00di-2091401201-991c00b7f1a998aa2639
PK$NUM_PEAK: 167
PK$PEAK: m/z int. rel.int.
  71.05067 29.0 29
  111.04643 35.0 35
  115.03696 26.0 26
  145.04045 12.0 12
  147.03741 14.0 14
  147.06464 18.0 18
  173.07777 14.0 14
  205.19743 14.0 14
  223.06024 22.0 22
  225.07423 43.0 43
  226.08585 19.0 19
  243.09206 26.0 26
  244.08792 13.0 13
  255.07819 14.0 14
  255.09186 13.0 13
  257.09061 18.0 18
  258.10913 16.0 16
  258.11975 15.0 15
  267.08502 13.0 13
  273.08188 15.0 15
  273.0943 33.0 33
  273.10709 20.0 20
  274.09988 13.0 13
  275.07834 13.0 13
  275.09946 40.0 40
  275.11151 26.0 26
  279.07535 13.0 13
  279.08548 15.0 15
  279.10184 17.0 17
  279.11478 40.0 40
  280.11313 32.0 32
  291.10443 14.0 14
  293.10602 28.0 28
  293.12653 73.0 73
  294.13159 37.0 37
  295.10263 28.0 28
  295.11996 13.0 13
  308.42758 15.0 15
  309.11801 244.0 244
  310.11514 25.0 25
  310.1264 16.0 16
  380.30106 16.0 16
  387.13483 18.0 18
  389.12534 14.0 14
  389.14365 12.0 12
  401.14664 14.0 14
  407.16119 19.0 19
  409.3335 14.0 14
  419.1488 16.0 16
  420.16541 13.0 13
  425.1445 28.0 28
  425.16779 21.0 21
  425.34 13.0 13
  427.36938 24.0 24
  434.33432 13.0 13
  436.32501 12.0 12
  437.32956 70.0 70
  437.34402 82.0 82
  437.35904 42.0 42
  438.34207 39.0 39
  441.15515 72.0 72
  442.15289 12.0 12
  451.14838 12.0 12
  453.3371 12.0 12
  455.16455 40.0 40
  455.18185 48.0 48
  455.3522 132.0 132
  455.36902 50.0 50
  456.32959 13.0 13
  456.36447 61.0 61
  457.16168 12.0 12
  457.36292 15.0 15
  471.14209 19.0 19
  471.1713 14.0 14
  472.17191 14.0 14
  473.37561 14.0 14
  533.16559 18.0 18
  545.18231 12.0 12
  549.19849 12.0 12
  565.38013 14.0 14
  565.39703 20.0 20
  569.18237 12.0 12
  574.27234 13.0 13
  581.21161 16.0 16
  581.22913 16.0 16
  582.20764 24.0 24
  587.35944 14.0 14
  601.41266 17.0 17
  603.17987 12.0 12
  603.21979 28.0 28
  605.40991 13.0 13
  607.40381 13.0 13
  609.41754 12.0 12
  617.19531 13.0 13
  617.22614 14.0 14
  617.25507 26.0 26
  619.40479 32.0 32
  619.42749 24.0 24
  620.40393 26.0 26
  621.44305 14.0 14
  635.43207 14.0 14
  708.50842 17.0 17
  715.23804 16.0 16
  717.44434 12.0 12
  730.43774 12.0 12
  731.27063 17.0 17
  745.47852 15.0 15
  749.26129 40.0 40
  749.29224 26.0 26
  750.2251 13.0 13
  750.26746 27.0 27
  751.42938 30.0 30
  751.4765 63.0 63
  752.45752 12.0 12
  755.19354 12.0 12
  765.46863 17.0 17
  765.51038 39.0 39
  768.47192 13.0 13
  781.48273 13.0 13
  782.474 15.0 15
  783.4632 12.0 12
  797.45471 13.0 13
  798.46045 12.0 12
  849.47412 14.0 14
  861.90088 17.0 17
  881.35559 13.0 13
  897.52081 54.0 54
  899.53796 12.0 12
  900.51855 13.0 13
  908.52722 12.0 12
  913.3692 12.0 12
  913.49951 14.0 14
  913.53473 20.0 20
  914.48889 12.0 12
  914.52271 14.0 14
  915.48663 19.0 19
  916.46985 17.0 17
  927.49249 12.0 12
  927.53625 38.0 38
  929.51343 14.0 14
  944.40802 12.0 12
  945.51495 12.0 12
  945.5368 14.0 14
  961.17743 14.0 14
  962.21729 17.0 17
  994.76685 14.0 14
  1035.60144 14.0 14
  1059.54089 38.0 38
  1059.60754 23.0 23
  1060.58948 109.0 109
  1061.56812 19.0 19
  1067.54895 23.0 23
  1071.3877 13.0 13
  1075.55237 17.0 17
  1077.57202 13.0 13
  1078.58545 17.0 17
  1089.53857 13.0 13
  1089.57983 39.0 39
  1090.57971 51.0 51
  1091.59729 29.0 29
  1092.5531 13.0 13
  1187.64539 15.0 15
  1220.4353 13.0 13
  1221.13354 13.0 13
  1221.53333 28.0 28
  1221.61353 1000.0 999
  1221.66467 255.0 255
//
