ACCESSION: MSBNK-RIKEN-PR303343
RECORD_TITLE: Coniferyl aldehyde; LC-ESI-QTOF; MS2
DATE: 2019.03.28
AUTHORS: Tetsuya Mori, Center for Sustainable Resource Science, RIKEN
LICENSE: CC BY-NC-SA
PUBLICATION: Tsugawa H., Nakabayashi R., Mori T., Yamada Y., Takahashi M., Rai A., Sugiyama R., Yamamoto H., Nakaya T., Yamazaki M., Kooke R., Bac-Molenaar JA., Oztolan-Erol N., Keurentjes JJB., Arita M., Saito K. (2019) "A cheminformatics approach to characterize metabolomes in stable-isotope-labeled organisms" Nature Methods 16(4):295-298. [doi:10.1038/s41592-019-0358-2]
COMMENT: registered in RIKEN PlaSMA
CH$NAME: Coniferyl aldehyde
CH$COMPOUND_CLASS: Methoxyphenols
CH$FORMULA: C10H10O3
CH$EXACT_MASS: 178.187
CH$SMILES: COC1=C(O)C=CC(\C=C\C=O)=C1
CH$IUPAC: InChI=1S/C10H10O3/c1-13-10-7-8(3-2-6-11)4-5-9(10)12/h2-7,12H,1H3/b3-2+
CH$LINK: INCHIKEY DKZBBWMURDFHNE-NSCUHMNNSA-N
AC$INSTRUMENT: LC, Waters Acquity UPLC System; MS, Waters Xevo G2 Q-Tof
AC$INSTRUMENT_TYPE: LC-ESI-QTOF
AC$MASS_SPECTROMETRY: MS_TYPE MS2
AC$MASS_SPECTROMETRY: ION_MODE POSITIVE
AC$MASS_SPECTROMETRY: COLLISION_ENERGY 6V
AC$MASS_SPECTROMETRY: DESOLVATION_GAS_FLOW 800/h
AC$MASS_SPECTROMETRY: DESOLVATION_TEMPERATURE 450 C
AC$MASS_SPECTROMETRY: IONIZATION ESI
AC$CHROMATOGRAPHY: CAPILLARY_VOLTAGE +3.00 kV
AC$CHROMATOGRAPHY: COLUMN_NAME Acquity bridged ethyl hybrid C18 (1.7 um, 2.1 mm * 100 mm, Waters)
AC$CHROMATOGRAPHY: COLUMN_TEMPERATURE 40 C
AC$CHROMATOGRAPHY: FLOW_GRADIENT A/B = (99.5%/0.5% at 0 min, 99.5%/0.5% at 0.1 min, 20%/80% at 10 min, 0.5%/99.5% at 10.1 min, 0.5%/99.5% at 12.0 min, 99.5%/0.5% at 12.1 min, 99.5%/0.5% at 15.0 min)
AC$CHROMATOGRAPHY: FLOW_RATE 0.3 ml/min at 0 min, 0.3 ml/min at 10 min, 0.4 ml/min at 10.1 min, 0.4 ml/min at 14.4 min, 0.3 ml/min at 14.5 min
AC$CHROMATOGRAPHY: RETENTION_TIME 4.763333
AC$CHROMATOGRAPHY: SOLVENT A water including 0.1% formic acid
AC$CHROMATOGRAPHY: SOLVENT B acetonitrile including 0.1% formic acid
MS$FOCUSED_ION: PRECURSOR_TYPE [M+H]+
MS$FOCUSED_ION: PRECURSOR_M/Z 179.0702706
PK$SPLASH: splash10-004j-0900000000-067fb1f2ed86ee35eb53
PK$NUM_PEAK: 59
PK$PEAK: m/z int. rel.int.
  65.03403 7.0 7
  65.04173 15.0 15
  69.50214 13.0 13
  77.04279 7.0 7
  79.05217 13.0 13
  90.05513 7.0 7
  91.0442 6.0 6
  91.0542 83.0 83
  91.061 9.0 9
  92.06094 22.0 22
  96.42075 5.0 5
  103.05104 7.0 7
  103.05982 10.0 10
  105.06851 50.0 50
  105.32812 6.0 6
  107.04716 20.0 20
  107.86728 5.0 5
  108.05367 14.0 14
  110.88818 5.0 5
  115.05416 12.0 12
  118.03509 10.0 10
  118.04382 38.0 38
  119.04994 216.0 216
  120.04849 7.0 7
  120.06213 9.0 9
  121.51036 6.0 6
  123.0405 11.0 11
  123.04846 20.0 20
  131.0542 14.0 14
  133.06509 82.0 82
  133.07335 18.0 18
  135.04124 16.0 16
  136.04298 6.0 6
  136.05458 51.0 51
  137.05688 8.0 8
  139.95073 7.0 7
  139.99002 6.0 6
  142.59978 5.0 5
  146.03076 26.0 26
  146.03778 83.0 83
  147.04272 423.0 423
  147.04953 149.0 149
  148.04774 72.0 72
  150.06561 10.0 10
  151.04385 7.0 7
  161.03409 7.0 7
  161.04538 11.0 11
  161.06012 344.0 344
  161.30324 6.0 6
  162.06267 39.0 39
  162.07484 7.0 7
  163.03839 15.0 15
  163.06296 7.0 7
  164.05022 10.0 10
  169.69855 6.0 6
  178.98425 5.0 5
  179.07138 1000.0 999
  179.10072 7.0 7
  179.11252 7.0 7
//
