ACCESSION: MSBNK-RIKEN-PR300376
RECORD_TITLE: Gardnerine; LC-ESI-QTOF; MS2
DATE: 2019.03.28
AUTHORS: Tetsuya Mori, Center for Sustainable Resource Science, RIKEN
LICENSE: CC BY-NC-SA
PUBLICATION: Tsugawa H., Nakabayashi R., Mori T., Yamada Y., Takahashi M., Rai A., Sugiyama R., Yamamoto H., Nakaya T., Yamazaki M., Kooke R., Bac-Molenaar JA., Oztolan-Erol N., Keurentjes JJB., Arita M., Saito K. (2019) "A cheminformatics approach to characterize metabolomes in stable-isotope-labeled organisms" Nature Methods 16(4):295-298. [doi:10.1038/s41592-019-0358-2]
COMMENT: registered in RIKEN PlaSMA
CH$NAME: Gardnerine
CH$COMPOUND_CLASS: Macroline alkaloids
CH$FORMULA: C20H24N2O2
CH$EXACT_MASS: 324.424
CH$SMILES: COC1=CC2=C(C=C1)C1=C(N2)[C@@H]2CC3C(CO)C(C1)N2C\C3=C\C
CH$IUPAC: InChI=1S/C20H24N2O2/c1-3-11-9-22-18-8-15-13-5-4-12(24-2)6-17(13)21-20(15)19(22)7-14(11)16(18)10-23/h3-6,14,16,18-19,21,23H,7-10H2,1-2H3/b11-3-/t14?,16?,18?,19-/m0/s1
CH$LINK: INCHIKEY RBALEJFQJCAPLN-RFEOFLAMSA-N
AC$INSTRUMENT: LC, Waters Acquity UPLC System; MS, Waters Xevo G2 Q-Tof
AC$INSTRUMENT_TYPE: LC-ESI-QTOF
AC$MASS_SPECTROMETRY: MS_TYPE MS2
AC$MASS_SPECTROMETRY: ION_MODE POSITIVE
AC$MASS_SPECTROMETRY: COLLISION_ENERGY 6V
AC$MASS_SPECTROMETRY: DESOLVATION_GAS_FLOW 800/h
AC$MASS_SPECTROMETRY: DESOLVATION_TEMPERATURE 450 C
AC$MASS_SPECTROMETRY: IONIZATION ESI
AC$CHROMATOGRAPHY: CAPILLARY_VOLTAGE +3.00 kV
AC$CHROMATOGRAPHY: COLUMN_NAME Acquity bridged ethyl hybrid C18 (1.7 um, 2.1 mm * 100 mm, Waters)
AC$CHROMATOGRAPHY: COLUMN_TEMPERATURE 40 C
AC$CHROMATOGRAPHY: FLOW_GRADIENT A/B = (99.5%/0.5% at 0 min, 99.5%/0.5% at 0.1 min, 20%/80% at 10 min, 0.5%/99.5% at 10.1 min, 0.5%/99.5% at 12.0 min, 99.5%/0.5% at 12.1 min, 99.5%/0.5% at 15.0 min)
AC$CHROMATOGRAPHY: FLOW_RATE 0.3 ml/min at 0 min, 0.3 ml/min at 10 min, 0.4 ml/min at 10.1 min, 0.4 ml/min at 14.4 min, 0.3 ml/min at 14.5 min
AC$CHROMATOGRAPHY: RETENTION_TIME 3.679583
AC$CHROMATOGRAPHY: SOLVENT A water including 0.1% formic acid
AC$CHROMATOGRAPHY: SOLVENT B acetonitrile including 0.1% formic acid
MS$FOCUSED_ION: PRECURSOR_TYPE [M+H]+
MS$FOCUSED_ION: PRECURSOR_M/Z 325.1910545
PK$SPLASH: splash10-00dl-0930000000-199abdce4f64a3ca1628
PK$NUM_PEAK: 513
PK$PEAK: m/z int. rel.int.
  55.05398 24.0 24
  60.9838 10.0 10
  62.63373 6.0 6
  67.05737 13.0 13
  77.03868 50.0 50
  78.01369 6.0 6
  78.03409 14.0 14
  78.04665 11.0 11
  79.05489 30.0 30
  80.04988 27.0 27
  81.0585 8.0 8
  82.03464 11.0 11
  82.06544 8.0 8
  84.08052 23.0 23
  86.64308 7.0 7
  88.56912 18.0 18
  91.05299 81.0 81
  91.06181 12.0 12
  92.0373 7.0 7
  92.05139 20.0 20
  92.05833 18.0 18
  93.0202 15.0 15
  93.05689 299.0 299
  93.0765 12.0 12
  94.02606 11.0 11
  94.05147 6.0 6
  94.06175 9.0 9
  94.06738 19.0 19
  96.07269 8.0 8
  96.082 11.0 11
  97.06232 7.0 7
  101.04218 8.0 8
  102.04566 10.0 10
  103.0518 18.0 18
  104.0451 41.0 41
  104.05743 25.0 25
  105.05459 11.0 11
  105.07347 24.0 24
  106.04935 29.0 29
  106.05813 51.0 51
  106.06693 61.0 61
  107.0647 6.0 6
  107.07282 48.0 48
  107.94431 14.0 14
  108.0562 6.0 6
  108.06429 7.0 7
  108.08178 355.0 355
  108.66273 6.0 6
  109.06197 8.0 8
  109.06813 7.0 7
  109.08656 25.0 25
  109.60012 6.0 6
  109.972 6.0 6
  110.0975 18.0 18
  111.08324 7.0 7
  115.05199 105.0 105
  116.04728 6.0 6
  116.05955 89.0 89
  116.06731 18.0 18
  117.01505 7.0 7
  117.05633 100.0 100
  117.06599 32.0 32
  117.07147 64.0 64
  118.0442 7.0 7
  118.06108 116.0 116
  118.06844 48.0 48
  119.07714 16.0 16
  120.0627 17.0 17
  120.08076 69.0 69
  120.08917 13.0 13
  120.95468 7.0 7
  121.09099 25.0 25
  121.19938 7.0 7
  122.09257 18.0 18
  122.09882 23.0 23
  123.05601 8.0 8
  123.06718 33.0 33
  123.07429 18.0 18
  126.68246 6.0 6
  127.05518 29.0 29
  127.0614 20.0 20
  127.72567 11.0 11
  127.84447 13.0 13
  128.04503 26.0 26
  128.05699 48.0 48
  128.06442 18.0 18
  129.04694 18.0 18
  129.05792 20.0 20
  129.0665 50.0 50
  129.0759 15.0 15
  130.03915 9.0 9
  130.06381 298.0 298
  130.07594 15.0 15
  130.14647 6.0 6
  131.05156 8.0 8
  131.07115 356.0 356
  131.08347 12.0 12
  132.03416 9.0 9
  132.04501 61.0 61
  132.06158 27.0 27
  132.07867 81.0 81
  133.05046 11.0 11
  133.05753 12.0 12
  133.08408 6.0 6
  133.27684 6.0 6
  134.07057 12.0 12
  134.09456 20.0 20
  134.10031 32.0 32
  134.51361 6.0 6
  136.07437 41.0 41
  136.10757 7.0 7
  138.08908 191.0 191
  139.09364 7.0 7
  139.10089 38.0 38
  141.01273 8.0 8
  141.05232 7.0 7
  141.06111 8.0 8
  141.0719 19.0 19
  142.0654 100.0 100
  142.68665 9.0 9
  143.0596 30.0 30
  143.07204 317.0 317
  143.23877 6.0 6
  143.30588 7.0 7
  143.87361 7.0 7
  144.05717 141.0 141
  144.07207 181.0 181
  144.07939 410.0 410
  144.13165 6.0 6
  144.15306 6.0 6
  144.73424 12.0 12
  145.01546 6.0 6
  145.05171 30.0 30
  145.06531 10.0 10
  145.08826 176.0 176
  145.10974 10.0 10
  145.39967 6.0 6
  146.03928 6.0 6
  146.05826 176.0 176
  146.07031 7.0 7
  146.08125 11.0 11
  146.08942 33.0 33
  146.0959 51.0 51
  147.03001 7.0 7
  147.05501 18.0 18
  147.06892 72.0 72
  147.10005 10.0 10
  147.10716 7.0 7
  148.06171 6.0 6
  148.06836 12.0 12
  149.69432 8.0 8
  152.05318 8.0 8
  152.06387 16.0 16
  153.05557 8.0 8
  154.01131 7.0 7
  154.06509 315.0 315
  154.07834 12.0 12
  154.11028 9.0 9
  155.03397 6.0 6
  155.04718 11.0 11
  155.07198 228.0 228
  156.07585 139.0 139
  156.08626 31.0 31
  156.09734 11.0 11
  157.04076 12.0 12
  157.06856 7.0 7
  157.08142 86.0 86
  157.09187 51.0 51
  158.05797 256.0 256
  158.0685 55.0 55
  158.09334 12.0 12
  158.10234 12.0 12
  158.63161 10.0 10
  159.04785 31.0 31
  159.0619 89.0 89
  159.06882 191.0 191
  159.08195 42.0 42
  159.21198 12.0 12
  159.65788 13.0 13
  159.90977 6.0 6
  160.05522 23.0 23
  160.06705 55.0 55
  160.07582 146.0 146
  160.93068 10.0 10
  161.0719 38.0 38
  161.08165 63.0 63
  161.09439 6.0 6
  162.06343 6.0 6
  162.08844 6.0 6
  165.06187 6.0 6
  165.07265 22.0 22
  166.0504 9.0 9
  166.06181 39.0 39
  166.06985 49.0 49
  166.07993 9.0 9
  167.0432 18.0 18
  167.06554 61.0 61
  167.07689 128.0 128
  167.09677 6.0 6
  167.14326 6.0 6
  167.41438 10.0 10
  167.76421 7.0 7
  168.07317 77.0 77
  168.08456 93.0 93
  169.04704 14.0 14
  169.05623 33.0 33
  169.07599 18.0 18
  169.08925 25.0 25
  170.02437 14.0 14
  170.05182 77.0 77
  170.06 164.0 164
  170.08122 14.0 14
  170.09134 10.0 10
  171.05078 7.0 7
  171.06549 114.0 114
  171.08694 6.0 6
  172.03992 6.0 6
  172.05681 27.0 27
  172.07451 1000.0 999
  172.0986 8.0 8
  172.11218 8.0 8
  172.82838 8.0 8
  172.99379 12.0 12
  173.04607 10.0 10
  173.05676 29.0 29
  173.08086 365.0 365
  173.08781 127.0 127
  174.05983 10.0 10
  174.07904 37.0 37
  174.08914 141.0 141
  174.09683 56.0 56
  175.08353 15.0 15
  175.09689 10.0 10
  175.63525 6.0 6
  175.81857 7.0 7
  176.54312 6.0 6
  177.05832 8.0 8
  177.18044 6.0 6
  178.0768 33.0 33
  179.06941 18.0 18
  179.08104 31.0 31
  179.24193 8.0 8
  180.06142 17.0 17
  180.07895 171.0 171
  180.73355 6.0 6
  181.06491 11.0 11
  181.07669 39.0 39
  181.0894 85.0 85
  181.09804 18.0 18
  181.56445 10.0 10
  182.06094 77.0 77
  182.07472 10.0 10
  182.09035 27.0 27
  182.09702 23.0 23
  183.03941 7.0 7
  183.06639 238.0 238
  183.09253 12.0 12
  183.10289 9.0 9
  184.02985 11.0 11
  184.05273 18.0 18
  184.07076 104.0 104
  184.07968 54.0 54
  184.10999 6.0 6
  185.07111 32.0 32
  185.08081 73.0 73
  185.11951 6.0 6
  185.19429 6.0 6
  186.07144 24.0 24
  186.0918 187.0 187
  187.08194 10.0 10
  187.09859 62.0 62
  187.10809 30.0 30
  188.09552 34.0 34
  188.10689 49.0 49
  189.03239 7.0 7
  189.06778 13.0 13
  190.0687 9.0 9
  190.07729 6.0 6
  190.11687 8.0 8
  191.06795 17.0 17
  191.07541 58.0 58
  191.08699 39.0 39
  191.73657 10.0 10
  192.05424 18.0 18
  192.08119 128.0 128
  192.69853 11.0 11
  193.07477 54.0 54
  193.0891 116.0 116
  193.0972 64.0 64
  194.05879 8.0 8
  194.07037 10.0 10
  194.0948 196.0 196
  194.10658 57.0 57
  194.94319 6.0 6
  195.06023 8.0 8
  195.07755 12.0 12
  195.09059 15.0 15
  195.101 30.0 30
  195.20201 6.0 6
  196.07162 82.0 82
  196.10831 20.0 20
  197.06529 9.0 9
  197.08432 32.0 32
  198.07784 7.0 7
  198.08768 36.0 36
  198.0994 23.0 23
  198.71555 6.0 6
  199.08559 37.0 37
  199.10306 9.0 9
  199.11098 10.0 10
  199.33917 6.0 6
  200.08949 20.0 20
  200.1113 9.0 9
  201.01199 7.0 7
  201.10445 20.0 20
  203.08936 10.0 10
  204.06984 17.0 17
  204.08411 46.0 46
  204.09938 7.0 7
  205.0757 17.0 17
  205.09029 125.0 125
  205.82124 6.0 6
  206.05118 7.0 7
  206.08876 158.0 158
  206.09503 63.0 63
  206.10628 13.0 13
  206.12076 6.0 6
  206.78021 6.0 6
  207.06169 8.0 8
  207.07594 6.0 6
  207.0921 87.0 87
  207.10986 36.0 36
  207.1924 7.0 7
  207.298 6.0 6
  208.01089 9.0 9
  208.03641 6.0 6
  208.07083 62.0 62
  208.07986 95.0 95
  208.09593 8.0 8
  208.1064 7.0 7
  208.1214 17.0 17
  208.60265 6.0 6
  209.06197 11.0 11
  209.07935 32.0 32
  209.10518 11.0 11
  209.12086 19.0 19
  209.62048 6.0 6
  210.06268 7.0 7
  210.08286 88.0 88
  210.09685 149.0 149
  210.72481 12.0 12
  211.07182 6.0 6
  211.08981 46.0 46
  211.10417 7.0 7
  212.089 12.0 12
  212.11009 20.0 20
  213.10091 6.0 6
  214.07005 8.0 8
  216.08087 7.0 7
  217.08887 103.0 103
  217.96173 7.0 7
  218.07556 15.0 15
  218.09409 127.0 127
  219.03291 7.0 7
  219.06625 9.0 9
  219.09023 45.0 45
  219.10016 65.0 65
  219.42992 9.0 9
  219.9957 6.0 6
  220.06668 24.0 24
  220.08202 24.0 24
  220.10237 61.0 61
  220.11389 23.0 23
  221.01933 6.0 6
  221.05565 15.0 15
  221.07555 77.0 77
  221.08804 16.0 16
  221.09984 28.0 28
  221.11792 14.0 14
  221.12534 19.0 19
  222.06058 9.0 9
  222.09012 202.0 202
  222.11182 73.0 73
  222.40434 9.0 9
  223.07336 6.0 6
  223.08693 18.0 18
  223.1032 68.0 68
  224.08633 9.0 9
  224.10532 28.0 28
  224.54201 7.0 7
  225.10376 13.0 13
  225.11266 36.0 36
  225.12657 12.0 12
  226.08823 18.0 18
  226.11655 15.0 15
  227.12411 6.0 6
  227.7885 7.0 7
  230.09128 15.0 15
  230.10394 19.0 19
  231.07393 14.0 14
  231.08598 8.0 8
  231.10135 55.0 55
  231.11121 34.0 34
  232.07259 18.0 18
  232.08904 11.0 11
  232.11299 72.0 72
  232.1248 21.0 21
  232.1358 7.0 7
  233.05014 16.0 16
  233.06255 28.0 28
  233.07744 60.0 60
  233.08549 28.0 28
  233.10226 66.0 66
  233.12532 6.0 6
  233.40334 7.0 7
  234.062 8.0 8
  234.08965 65.0 65
  234.11157 53.0 53
  234.12547 26.0 26
  234.14122 14.0 14
  235.06232 17.0 17
  235.08023 44.0 44
  235.0945 57.0 57
  235.10974 30.0 30
  235.12694 9.0 9
  236.08371 16.0 16
  236.10115 89.0 89
  236.10986 28.0 28
  236.13402 12.0 12
  236.14366 8.0 8
  237.0907 9.0 9
  237.10266 58.0 58
  237.12271 6.0 6
  238.11343 29.0 29
  239.08806 10.0 10
  239.10815 8.0 8
  239.12744 6.0 6
  239.53291 6.0 6
  241.07761 12.0 12
  242.10013 6.0 6
  243.10345 15.0 15
  245.07176 7.0 7
  245.08604 35.0 35
  245.11899 6.0 6
  246.08665 16.0 16
  246.10114 8.0 8
  247.07457 6.0 6
  247.09203 48.0 48
  247.10172 13.0 13
  247.12323 11.0 11
  248.0294 6.0 6
  248.09993 121.0 121
  248.11446 46.0 46
  248.12701 25.0 25
  248.13788 11.0 11
  249.08153 23.0 23
  249.10512 62.0 62
  249.11964 30.0 30
  249.89896 8.0 8
  250.10941 19.0 19
  250.12328 60.0 60
  250.14487 8.0 8
  251.114 6.0 6
  251.12933 10.0 10
  251.15292 8.0 8
  252.10722 6.0 6
  252.1252 15.0 15
  253.1391 9.0 9
  259.08252 22.0 22
  259.10507 29.0 29
  260.01843 8.0 8
  260.10852 83.0 83
  260.12787 7.0 7
  261.09467 27.0 27
  261.10919 35.0 35
  261.13882 9.0 9
  262.10645 38.0 38
  262.11493 96.0 96
  262.99707 6.0 6
  263.11005 6.0 6
  263.12045 17.0 17
  263.13629 6.0 6
  263.15692 23.0 23
  263.17297 14.0 14
  263.24573 6.0 6
  263.32401 6.0 6
  264.11945 41.0 41
  264.13712 12.0 12
  264.15988 8.0 8
  265.10162 10.0 10
  265.11798 13.0 13
  265.14117 16.0 16
  266.10553 10.0 10
  266.12872 11.0 11
  267.15372 9.0 9
  273.03992 6.0 6
  275.12231 17.0 17
  276.13528 6.0 6
  277.10895 7.0 7
  277.13312 54.0 54
  277.14923 11.0 11
  278.11627 8.0 8
  278.14124 53.0 53
  279.14615 6.0 6
  284.62399 6.0 6
  293.15594 6.0 6
  294.16681 6.0 6
  295.14322 7.0 7
  296.14404 8.0 8
  304.4147 6.0 6
  322.79019 6.0 6
  325.18384 36.0 36
  325.19452 19.0 19
//
