ACCESSION: MSBNK-RIKEN-PR300470
RECORD_TITLE: Speciofiline; LC-ESI-QTOF; MS2
DATE: 2019.03.28
AUTHORS: Tetsuya Mori, Center for Sustainable Resource Science, RIKEN
LICENSE: CC BY-NC-SA
PUBLICATION: Tsugawa H., Nakabayashi R., Mori T., Yamada Y., Takahashi M., Rai A., Sugiyama R., Yamamoto H., Nakaya T., Yamazaki M., Kooke R., Bac-Molenaar JA., Oztolan-Erol N., Keurentjes JJB., Arita M., Saito K. (2019) "A cheminformatics approach to characterize metabolomes in stable-isotope-labeled organisms" Nature Methods 16(4):295-298. [doi:10.1038/s41592-019-0358-2]
COMMENT: registered in RIKEN PlaSMA
CH$NAME: Speciofiline
CH$COMPOUND_CLASS: Indolizidines
CH$FORMULA: C21H24N2O4
CH$EXACT_MASS: 368.433
CH$SMILES: COC(=O)C1=CO[C@@H](C)[C@@H]2CN3CC[C@@]4([C@H]3C[C@H]12)C(O)=NC1=CC=CC=C41
CH$IUPAC: InChI=1S/C21H24N2O4/c1-12-14-10-23-8-7-21(16-5-3-4-6-17(16)22-20(21)25)18(23)9-13(14)15(11-27-12)19(24)26-2/h3-6,11-14,18H,7-10H2,1-2H3,(H,22,25)/t12-,13-,14-,18+,21+/m0/s1
CH$LINK: INCHIKEY JMIAZDVHNCCPDM-PMJXBNNDSA-N
AC$INSTRUMENT: LC, Waters Acquity UPLC System; MS, Waters Xevo G2 Q-Tof
AC$INSTRUMENT_TYPE: LC-ESI-QTOF
AC$MASS_SPECTROMETRY: MS_TYPE MS2
AC$MASS_SPECTROMETRY: ION_MODE POSITIVE
AC$MASS_SPECTROMETRY: COLLISION_ENERGY 6V
AC$MASS_SPECTROMETRY: DESOLVATION_GAS_FLOW 800/h
AC$MASS_SPECTROMETRY: DESOLVATION_TEMPERATURE 450 C
AC$MASS_SPECTROMETRY: IONIZATION ESI
AC$CHROMATOGRAPHY: CAPILLARY_VOLTAGE +3.00 kV
AC$CHROMATOGRAPHY: COLUMN_NAME Acquity bridged ethyl hybrid C18 (1.7 um, 2.1 mm * 100 mm, Waters)
AC$CHROMATOGRAPHY: COLUMN_TEMPERATURE 40 C
AC$CHROMATOGRAPHY: FLOW_GRADIENT A/B = (99.5%/0.5% at 0 min, 99.5%/0.5% at 0.1 min, 20%/80% at 10 min, 0.5%/99.5% at 10.1 min, 0.5%/99.5% at 12.0 min, 99.5%/0.5% at 12.1 min, 99.5%/0.5% at 15.0 min)
AC$CHROMATOGRAPHY: FLOW_RATE 0.3 ml/min at 0 min, 0.3 ml/min at 10 min, 0.4 ml/min at 10.1 min, 0.4 ml/min at 14.4 min, 0.3 ml/min at 14.5 min
AC$CHROMATOGRAPHY: RETENTION_TIME 4.094467
AC$CHROMATOGRAPHY: SOLVENT A water including 0.1% formic acid
AC$CHROMATOGRAPHY: SOLVENT B acetonitrile including 0.1% formic acid
MS$FOCUSED_ION: PRECURSOR_TYPE [M+H]+
MS$FOCUSED_ION: PRECURSOR_M/Z 369.1808837
PK$SPLASH: splash10-00lr-0900000000-68fd7627b194c6d3493c
PK$NUM_PEAK: 205
PK$PEAK: m/z int. rel.int.
  55.04938 5.0 5
  55.05579 13.0 13
  56.05255 14.0 14
  67.04916 7.0 7
  68.04843 14.0 14
  70.06504 10.0 10
  77.04018 22.0 22
  78.03251 15.0 15
  79.05482 17.0 17
  80.05409 19.0 19
  80.05764 7.0 7
  81.05148 10.0 10
  81.05894 27.0 27
  81.07201 11.0 11
  82.06335 7.0 7
  83.05017 10.0 10
  84.08498 5.0 5
  90.04461 6.0 6
  91.05548 52.0 52
  92.04423 5.0 5
  93.05308 6.0 6
  93.06109 5.0 5
  95.0518 9.0 9
  95.08796 6.0 6
  96.04608 9.0 9
  97.0672 7.0 7
  103.05741 15.0 15
  104.04938 73.0 73
  105.07182 61.0 61
  106.06669 29.0 29
  108.04509 23.0 23
  108.05406 6.0 6
  108.0826 44.0 44
  109.02999 10.0 10
  109.05422 70.0 70
  109.08203 9.0 9
  110.0593 6.0 6
  111.04091 30.0 30
  112.03935 6.0 6
  115.05528 501.0 500
  116.04967 56.0 56
  116.05847 85.0 85
  117.05769 390.0 390
  118.06561 280.0 280
  119.06954 13.0 13
  119.07952 7.0 7
  120.04292 12.0 12
  121.04581 6.0 6
  121.07034 7.0 7
  122.01826 11.0 11
  122.02528 26.0 26
  122.05711 10.0 10
  124.04095 156.0 156
  125.03838 16.0 16
  125.04529 10.0 10
  127.05473 51.0 51
  128.04192 8.0 8
  128.05009 68.0 68
  128.05952 22.0 22
  128.70731 8.0 8
  129.05817 7.0 7
  129.07234 7.0 7
  130.06673 498.0 498
  131.06935 81.0 81
  132.0457 781.0 780
  132.08125 1000.0 999
  133.05045 65.0 65
  133.07056 5.0 5
  133.08569 103.0 103
  134.06361 7.0 7
  135.04472 6.0 6
  139.03984 96.0 96
  139.07115 5.0 5
  140.04362 21.0 21
  140.05183 94.0 94
  140.06253 11.0 11
  141.05263 13.0 13
  141.05893 10.0 10
  142.06593 897.0 896
  143.02698 6.0 6
  143.06953 136.0 136
  144.04599 74.0 74
  144.07063 19.0 19
  144.08112 103.0 103
  145.05296 53.0 53
  145.07234 15.0 15
  145.08006 14.0 14
  145.0873 23.0 23
  145.91008 5.0 5
  146.05829 68.0 68
  146.09784 6.0 6
  147.07153 15.0 15
  151.06534 8.0 8
  153.05414 8.0 8
  153.06085 23.0 23
  153.07344 7.0 7
  154.06572 117.0 117
  155.06494 5.0 5
  155.0712 14.0 14
  156.04604 20.0 20
  156.08263 16.0 16
  158.06068 175.0 175
  158.07962 8.0 8
  158.09077 17.0 17
  158.09941 6.0 6
  159.05806 20.0 20
  159.0666 54.0 54
  159.09283 66.0 66
  160.04671 10.0 10
  160.07677 795.0 794
  161.08032 102.0 102
  162.08087 10.0 10
  165.07848 8.0 8
  166.06258 8.0 8
  166.07147 10.0 10
  167.0507 10.0 10
  167.06401 53.0 53
  167.07567 29.0 29
  168.0631 9.0 9
  168.07971 31.0 31
  169.07611 53.0 53
  169.08728 5.0 5
  169.97571 7.0 7
  170.05241 7.0 7
  170.0647 15.0 15
  170.08936 6.0 6
  171.05481 5.0 5
  171.06616 6.0 6
  171.0981 5.0 5
  172.06804 10.0 10
  172.07777 43.0 43
  173.06566 10.0 10
  173.07605 17.0 17
  173.10178 6.0 6
  173.10873 5.0 5
  178.08849 20.0 20
  180.07457 17.0 17
  180.08211 25.0 25
  181.08032 8.0 8
  181.08754 6.0 6
  182.06186 23.0 23
  183.07072 6.0 6
  183.08745 7.0 7
  184.06169 8.0 8
  184.07309 21.0 21
  184.08499 9.0 9
  185.07419 33.0 33
  185.08162 10.0 10
  185.10559 16.0 16
  185.31345 5.0 5
  186.07805 23.0 23
  186.0934 9.0 9
  187.08678 203.0 203
  188.05956 6.0 6
  188.0923 26.0 26
  190.05603 9.0 9
  192.08537 11.0 11
  193.08432 12.0 12
  194.05829 8.0 8
  194.10382 8.0 8
  195.09219 12.0 12
  196.07977 12.0 12
  196.09184 6.0 6
  197.06987 6.0 6
  199.08542 19.0 19
  201.09851 14.0 14
  201.10994 17.0 17
  202.11838 9.0 9
  206.08521 5.0 5
  208.07645 25.0 25
  209.07115 17.0 17
  209.08315 8.0 8
  209.10143 10.0 10
  209.11617 11.0 11
  210.09738 11.0 11
  211.09201 19.0 19
  211.10913 6.0 6
  211.12079 12.0 12
  213.10608 15.0 15
  217.08452 6.0 6
  219.07602 11.0 11
  219.09229 13.0 13
  223.10016 9.0 9
  225.07225 16.0 16
  227.07281 6.0 6
  227.12798 6.0 6
  235.09468 5.0 5
  236.05699 6.0 6
  236.07457 13.0 13
  237.10159 18.0 18
  237.14618 7.0 7
  238.08073 5.0 5
  239.11134 6.0 6
  245.07535 6.0 6
  247.08937 5.0 5
  250.07321 6.0 6
  254.1087 5.0 5
  265.10257 28.0 28
  267.15869 5.0 5
  275.12277 5.0 5
  279.07593 21.0 21
  281.08221 6.0 6
  281.09412 21.0 21
  282.09244 8.0 8
  293.13086 6.0 6
//
