ACCESSION: MSBNK-RIKEN-PR303887
RECORD_TITLE: Schizandrin; LC-ESI-QTOF; MS2
DATE: 2019.03.28
AUTHORS: Tetsuya Mori, Center for Sustainable Resource Science, RIKEN
LICENSE: CC BY-NC-SA
PUBLICATION: Tsugawa H., Nakabayashi R., Mori T., Yamada Y., Takahashi M., Rai A., Sugiyama R., Yamamoto H., Nakaya T., Yamazaki M., Kooke R., Bac-Molenaar JA., Oztolan-Erol N., Keurentjes JJB., Arita M., Saito K. (2019) "A cheminformatics approach to characterize metabolomes in stable-isotope-labeled organisms" Nature Methods 16(4):295-298. [doi:10.1038/s41592-019-0358-2]
COMMENT: registered in RIKEN PlaSMA
CH$NAME: Schizandrin
CH$COMPOUND_CLASS: Hydrolyzable tannins
CH$FORMULA: C24H32O7
CH$EXACT_MASS: 432.513
CH$SMILES: COC1=C(OC)C(OC)=C2C(CC(C)C(C)(O)CC3=CC(OC)=C(OC)C(OC)=C23)=C1
CH$IUPAC: InChI=1S/C24H32O7/c1-13-9-14-10-16(26-3)20(28-5)22(30-7)18(14)19-15(12-24(13,2)25)11-17(27-4)21(29-6)23(19)31-8/h10-11,13,25H,9,12H2,1-8H3
CH$LINK: INCHIKEY YEFOAORQXAOVJQ-UHFFFAOYSA-N
AC$INSTRUMENT: LC, Waters Acquity UPLC System; MS, Waters Xevo G2 Q-Tof
AC$INSTRUMENT_TYPE: LC-ESI-QTOF
AC$MASS_SPECTROMETRY: MS_TYPE MS2
AC$MASS_SPECTROMETRY: ION_MODE POSITIVE
AC$MASS_SPECTROMETRY: COLLISION_ENERGY 6V
AC$MASS_SPECTROMETRY: DESOLVATION_GAS_FLOW 800/h
AC$MASS_SPECTROMETRY: DESOLVATION_TEMPERATURE 450 C
AC$MASS_SPECTROMETRY: IONIZATION ESI
AC$CHROMATOGRAPHY: CAPILLARY_VOLTAGE +3.00 kV
AC$CHROMATOGRAPHY: COLUMN_NAME Acquity bridged ethyl hybrid C18 (1.7 um, 2.1 mm * 100 mm, Waters)
AC$CHROMATOGRAPHY: COLUMN_TEMPERATURE 40 C
AC$CHROMATOGRAPHY: FLOW_GRADIENT A/B = (99.5%/0.5% at 0 min, 99.5%/0.5% at 0.1 min, 20%/80% at 10 min, 0.5%/99.5% at 10.1 min, 0.5%/99.5% at 12.0 min, 99.5%/0.5% at 12.1 min, 99.5%/0.5% at 15.0 min)
AC$CHROMATOGRAPHY: FLOW_RATE 0.3 ml/min at 0 min, 0.3 ml/min at 10 min, 0.4 ml/min at 10.1 min, 0.4 ml/min at 14.4 min, 0.3 ml/min at 14.5 min
AC$CHROMATOGRAPHY: RETENTION_TIME 7.59405
AC$CHROMATOGRAPHY: SOLVENT A water including 0.1% formic acid
AC$CHROMATOGRAPHY: SOLVENT B acetonitrile including 0.1% formic acid
MS$FOCUSED_ION: PRECURSOR_TYPE [M+H]+
MS$FOCUSED_ION: PRECURSOR_M/Z 433.2220798
PK$SPLASH: splash10-0abl-0192000000-86c3830580e3c6e895e8
PK$NUM_PEAK: 520
PK$PEAK: m/z int. rel.int.
  75.04333 45.0 45
  83.05068 35.0 35
  105.07008 37.0 37
  116.06841 39.0 39
  117.06694 53.0 53
  119.09103 64.0 64
  119.2757 39.0 39
  121.06239 49.0 49
  129.06552 39.0 39
  140.06799 47.0 47
  141.06285 55.0 55
  145.10126 41.0 41
  147.05513 55.0 55
  148.04951 37.0 37
  152.05983 37.0 37
  153.07394 43.0 43
  155.04689 41.0 41
  157.05972 86.0 86
  158.06302 37.0 37
  158.07503 64.0 64
  160.12157 43.0 43
  161.06264 96.0 96
  161.14197 33.0 33
  165.04431 35.0 35
  165.07291 104.0 104
  167.05569 80.0 80
  167.06621 33.0 33
  168.05421 45.0 45
  168.07791 33.0 33
  169.0524 35.0 35
  169.06863 45.0 45
  170.07106 33.0 33
  172.04758 64.0 64
  173.06738 39.0 39
  175.01381 35.0 35
  175.07082 37.0 37
  177.07755 39.0 39
  180.088 39.0 39
  181.06601 217.0 217
  181.08263 64.0 64
  181.10558 37.0 37
  182.02124 37.0 37
  182.028 47.0 47
  182.08109 41.0 41
  182.11203 41.0 41
  183.06326 39.0 39
  183.07906 82.0 82
  183.08772 107.0 107
  183.79221 41.0 41
  184.08482 64.0 64
  185.05115 33.0 33
  185.05948 109.0 109
  186.04916 33.0 33
  186.06282 33.0 33
  186.07404 39.0 39
  186.5126 33.0 33
  188.06114 39.0 39
  188.09222 47.0 47
  188.32858 43.0 43
  189.09183 41.0 41
  190.07016 39.0 39
  191.08588 105.0 105
  192.10202 35.0 35
  193.08957 37.0 37
  194.05765 45.0 45
  195.08212 94.0 94
  196.05151 35.0 35
  196.08667 68.0 68
  196.67896 39.0 39
  197.05101 57.0 57
  197.06206 191.0 191
  197.13077 84.0 84
  197.47365 64.0 64
  198.06812 184.0 184
  198.11479 39.0 39
  199.06949 33.0 33
  199.08096 244.0 244
  200.05237 41.0 41
  200.08011 94.0 94
  201.07822 88.0 88
  201.09677 100.0 100
  202.05132 39.0 39
  202.09805 49.0 49
  202.82576 39.0 39
  203.08255 33.0 33
  205.08488 33.0 33
  207.07819 47.0 47
  207.12379 47.0 47
  208.08499 47.0 47
  208.09206 49.0 49
  209.06174 88.0 88
  209.08685 41.0 41
  209.09869 33.0 33
  210.05016 43.0 43
  210.06749 33.0 33
  211.03856 33.0 33
  211.07292 213.0 213
  211.08304 39.0 39
  211.11557 47.0 47
  212.04453 55.0 55
  212.06004 80.0 80
  212.08037 273.0 273
  213.04259 139.0 139
  213.07961 37.0 37
  214.03963 59.0 59
  214.04999 47.0 47
  214.06877 346.0 346
  214.09639 68.0 68
  215.06281 113.0 113
  215.10851 59.0 59
  216.08908 33.0 33
  216.11319 33.0 33
  217.05502 35.0 35
  217.08508 35.0 35
  217.09276 35.0 35
  218.0631 41.0 41
  218.10634 33.0 33
  219.07777 76.0 76
  220.08676 119.0 119
  220.88312 96.0 96
  221.05713 74.0 74
  222.0619 33.0 33
  222.09509 41.0 41
  222.62634 41.0 41
  223.04091 100.0 100
  223.08072 96.0 96
  223.10527 135.0 135
  223.57132 55.0 55
  224.04601 35.0 35
  224.06966 43.0 43
  224.07629 96.0 96
  224.08936 148.0 148
  224.12233 59.0 59
  225.06696 39.0 39
  225.0771 121.0 121
  225.0916 219.0 219
  225.10771 59.0 59
  226.05205 35.0 35
  226.06352 137.0 137
  226.08372 39.0 39
  227.07069 312.0 312
  227.10323 33.0 33
  228.03513 74.0 74
  228.08243 369.0 369
  228.11136 111.0 111
  229.06241 33.0 33
  229.07719 41.0 41
  229.0907 238.0 238
  230.04933 64.0 64
  231.06531 53.0 53
  231.08197 49.0 49
  232.06085 41.0 41
  233.09659 109.0 109
  235.06949 80.0 80
  235.08162 49.0 49
  235.09474 90.0 90
  236.07126 39.0 39
  236.0901 35.0 35
  236.13188 35.0 35
  237.0578 68.0 68
  237.07895 139.0 139
  237.09132 76.0 76
  237.12892 53.0 53
  238.05101 109.0 109
  238.05925 33.0 33
  238.09714 33.0 33
  239.06792 314.0 314
  239.08339 55.0 55
  239.09618 109.0 109
  239.11017 115.0 115
  240.0632 107.0 107
  240.07625 98.0 98
  240.09792 35.0 35
  241.04915 344.0 344
  241.08006 521.0 520
  241.09198 307.0 307
  241.73508 41.0 41
  242.03593 35.0 35
  242.06012 125.0 125
  242.08694 35.0 35
  242.09854 39.0 39
  242.10677 47.0 47
  242.99086 39.0 39
  243.0634 236.0 236
  243.09451 205.0 205
  243.11243 49.0 49
  243.17612 41.0 41
  244.04404 35.0 35
  244.07698 33.0 33
  244.10797 107.0 107
  245.0304 37.0 37
  245.05946 33.0 33
  245.08015 428.0 428
  245.11392 33.0 33
  246.08208 43.0 43
  247.07011 109.0 109
  247.08308 76.0 76
  247.10085 35.0 35
  247.1167 39.0 39
  247.12663 33.0 33
  248.05043 39.0 39
  248.07965 72.0 72
  248.11293 62.0 62
  249.03793 33.0 33
  249.09407 254.0 254
  249.10896 45.0 45
  249.13068 53.0 53
  250.09247 145.0 145
  250.10474 43.0 43
  250.14023 49.0 49
  250.85204 45.0 45
  251.04391 33.0 33
  251.0585 35.0 35
  251.06946 215.0 215
  251.10379 174.0 174
  251.1152 41.0 41
  251.14696 35.0 35
  252.06332 70.0 70
  252.07623 84.0 84
  252.08681 53.0 53
  253.05078 119.0 119
  253.08336 162.0 162
  253.10295 35.0 35
  253.11693 33.0 33
  253.96429 33.0 33
  254.00626 33.0 33
  254.0237 35.0 35
  254.06538 76.0 76
  254.09464 436.0 436
  254.98897 39.0 39
  255.05441 41.0 41
  255.07269 207.0 207
  255.10341 314.0 314
  255.12033 51.0 51
  255.75508 35.0 35
  256.02945 33.0 33
  256.04236 37.0 37
  256.05963 133.0 133
  256.07852 350.0 350
  256.10736 137.0 137
  256.11819 98.0 98
  256.13095 33.0 33
  257.03952 35.0 35
  257.0813 963.0 962
  257.11172 193.0 193
  258.05515 39.0 39
  258.064 59.0 59
  258.08374 250.0 250
  259.05026 37.0 37
  259.07019 33.0 33
  259.09341 39.0 39
  259.10654 51.0 51
  259.13605 33.0 33
  260.0228 49.0 49
  260.12845 33.0 33
  260.15173 39.0 39
  261.08154 39.0 39
  261.10089 104.0 104
  261.12271 33.0 33
  262.08853 113.0 113
  262.10315 189.0 189
  263.06882 84.0 84
  263.09387 72.0 72
  263.11267 219.0 219
  264.06436 51.0 51
  264.07367 41.0 41
  264.11383 39.0 39
  264.12363 45.0 45
  265.03391 49.0 49
  265.05618 33.0 33
  265.07986 82.0 82
  265.09171 70.0 70
  265.12506 35.0 35
  266.09305 293.0 293
  266.11111 68.0 68
  266.12317 33.0 33
  266.37012 72.0 72
  267.03625 35.0 35
  267.06851 219.0 219
  267.09509 64.0 64
  267.10532 47.0 47
  267.13184 84.0 84
  268.06165 107.0 107
  268.07626 174.0 174
  268.11029 236.0 236
  269.04272 86.0 86
  269.052 92.0 92
  269.06921 217.0 217
  269.08862 379.0 379
  269.11053 72.0 72
  269.12213 107.0 107
  270.04306 154.0 154
  270.07864 188.0 188
  270.09143 320.0 320
  270.11029 49.0 49
  271.04092 49.0 49
  271.06213 225.0 225
  271.08878 281.0 281
  271.10928 105.0 105
  272.04001 41.0 41
  272.0712 45.0 45
  272.08487 57.0 57
  272.10663 150.0 150
  273.0704 449.0 449
  273.116 51.0 51
  274.06641 82.0 82
  274.08255 35.0 35
  274.09671 47.0 47
  275.06406 43.0 43
  275.09903 191.0 191
  275.1145 39.0 39
  276.09274 33.0 33
  276.10815 74.0 74
  276.11896 107.0 107
  276.26166 35.0 35
  277.06927 39.0 39
  277.08633 74.0 74
  277.10889 113.0 113
  277.12399 162.0 162
  278.0842 70.0 70
  278.10403 88.0 88
  278.12283 80.0 80
  278.13815 66.0 66
  278.20511 39.0 39
  279.08282 62.0 62
  279.10025 730.0 729
  279.13666 160.0 160
  279.15485 107.0 107
  279.19131 45.0 45
  280.10431 244.0 244
  280.12106 80.0 80
  280.1434 33.0 33
  281.07098 109.0 109
  281.08228 127.0 127
  281.10678 43.0 43
  281.12381 225.0 225
  281.14728 61.0 61
  282.07877 47.0 47
  282.09015 141.0 141
  282.10437 57.0 57
  282.12341 39.0 39
  282.37039 33.0 33
  283.03903 35.0 35
  283.06573 37.0 37
  283.09274 299.0 299
  283.11362 33.0 33
  284.06149 82.0 82
  284.0762 53.0 53
  284.09958 580.0 579
  284.11319 78.0 78
  284.85196 39.0 39
  285.02725 47.0 47
  285.0759 879.0 878
  285.10156 80.0 80
  285.1232 82.0 82
  285.99951 33.0 33
  286.03467 84.0 84
  286.08194 119.0 119
  286.09659 170.0 170
  286.11261 145.0 145
  287.08682 105.0 105
  287.12982 35.0 35
  288.09619 107.0 107
  289.07285 35.0 35
  289.09644 47.0 47
  289.14029 68.0 68
  290.09824 57.0 57
  291.09924 316.0 316
  291.11459 35.0 35
  291.13632 35.0 35
  291.34494 39.0 39
  292.10593 477.0 477
  292.13699 39.0 39
  293.0679 80.0 80
  293.08347 47.0 47
  293.11081 201.0 201
  293.1232 213.0 213
  294.08447 104.0 104
  294.11804 260.0 260
  294.13892 47.0 47
  295.03903 45.0 45
  295.09378 357.0 357
  295.11053 121.0 121
  295.12604 131.0 131
  295.13837 268.0 268
  296.09491 51.0 51
  296.10544 139.0 139
  296.12891 129.0 129
  296.14554 35.0 35
  297.06766 43.0 43
  297.08163 39.0 39
  297.09464 113.0 113
  297.10559 104.0 104
  297.13928 35.0 35
  297.21176 45.0 45
  298.03671 47.0 47
  298.05017 35.0 35
  298.06641 51.0 51
  298.08432 217.0 217
  298.11316 49.0 49
  298.12628 49.0 49
  298.64493 47.0 47
  299.08472 627.0 626
  299.1235 166.0 166
  299.13733 35.0 35
  300.08328 82.0 82
  300.09683 250.0 250
  300.1095 72.0 72
  300.1261 51.0 51
  301.07349 201.0 201
  301.09845 92.0 92
  301.1192 45.0 45
  302.07135 76.0 76
  302.08618 45.0 45
  302.11475 33.0 33
  302.5419 33.0 33
  302.927 47.0 47
  303.11023 72.0 72
  303.12952 80.0 80
  304.08609 35.0 35
  304.12988 74.0 74
  305.11487 143.0 143
  306.08298 33.0 33
  306.11581 98.0 98
  306.12604 55.0 55
  306.14038 35.0 35
  307.10001 193.0 193
  307.12204 311.0 311
  307.13959 506.0 505
  308.05872 37.0 37
  308.08524 72.0 72
  308.10437 170.0 170
  308.13992 369.0 369
  309.10907 72.0 72
  309.14273 72.0 72
  309.15863 39.0 39
  310.07687 37.0 37
  310.09512 37.0 37
  310.11206 119.0 119
  310.15259 76.0 76
  311.07822 92.0 92
  311.09427 55.0 55
  311.12839 221.0 221
  311.15167 39.0 39
  312.08368 33.0 33
  312.10184 43.0 43
  312.11185 104.0 104
  312.13083 33.0 33
  312.14078 45.0 45
  313.07346 47.0 47
  313.10126 35.0 35
  313.11459 39.0 39
  314.11429 123.0 123
  315.08765 43.0 43
  315.09854 64.0 64
  315.12222 100.0 100
  315.13214 35.0 35
  316.09009 74.0 74
  316.10669 35.0 35
  316.12381 121.0 121
  317.09958 74.0 74
  317.12872 33.0 33
  321.09439 51.0 51
  321.12155 74.0 74
  321.15244 41.0 41
  321.35403 49.0 49
  322.11423 57.0 57
  322.15897 205.0 205
  322.17368 37.0 37
  322.35132 35.0 35
  323.08548 39.0 39
  323.10739 139.0 139
  323.13196 1000.0 999
  323.14597 338.0 338
  323.16742 105.0 105
  323.18124 33.0 33
  323.8324 33.0 33
  324.09299 35.0 35
  324.10498 100.0 100
  324.1221 113.0 113
  324.14029 275.0 275
  324.7981 33.0 33
  325.11856 174.0 174
  325.13818 43.0 43
  325.19254 33.0 33
  326.12549 74.0 74
  326.15121 57.0 57
  327.09473 41.0 41
  327.11679 139.0 139
  329.09354 33.0 33
  329.13452 33.0 33
  329.15118 39.0 39
  330.11157 98.0 98
  330.19971 35.0 35
  332.11295 39.0 39
  336.13913 51.0 51
  337.14597 41.0 41
  338.12817 68.0 68
  338.14563 320.0 320
  338.16077 184.0 184
  339.1109 98.0 98
  339.12088 135.0 135
  339.13705 90.0 90
  339.15472 145.0 145
  339.16476 45.0 45
  340.13086 70.0 70
  341.10913 35.0 35
  341.13412 62.0 62
  341.19327 41.0 41
  342.15375 47.0 47
  343.13312 39.0 39
  343.14545 35.0 35
  345.13382 68.0 68
  354.12717 39.0 39
  354.13855 33.0 33
  354.19281 33.0 33
  355.12228 35.0 35
  355.15244 33.0 33
  356.15924 33.0 33
  358.13608 39.0 39
//
