ACCESSION: MSBNK-RIKEN-PR301664
RECORD_TITLE: Quinidine; LC-ESI-QTOF; MS2
DATE: 2019.03.28
AUTHORS: Tetsuya Mori, Center for Sustainable Resource Science, RIKEN
LICENSE: CC BY-NC-SA
PUBLICATION: Tsugawa H., Nakabayashi R., Mori T., Yamada Y., Takahashi M., Rai A., Sugiyama R., Yamamoto H., Nakaya T., Yamazaki M., Kooke R., Bac-Molenaar JA., Oztolan-Erol N., Keurentjes JJB., Arita M., Saito K. (2019) "A cheminformatics approach to characterize metabolomes in stable-isotope-labeled organisms" Nature Methods 16(4):295-298. [doi:10.1038/s41592-019-0358-2]
COMMENT: registered in RIKEN PlaSMA
CH$NAME: Quinidine
CH$COMPOUND_CLASS: Cinchona alkaloids
CH$FORMULA: C20H24N2O2
CH$EXACT_MASS: 324.424
CH$SMILES: COC1=CC2=C(C=CN=C2C=C1)[C@@H](O)[C@@H]1C[C@H]2CCN1C[C@H]2C=C
CH$IUPAC: InChI=1S/C20H24N2O2/c1-3-13-12-22-9-7-14(13)10-19(22)20(23)16-6-8-21-18-5-4-15(24-2)11-17(16)18/h3-6,8,11,13-14,19-20,23H,1,7,9-10,12H2,2H3/t13-,14-,19+,20-/m1/s1
CH$LINK: INCHIKEY LOUPRKONTZGTKE-VPCNSNALSA-N
AC$INSTRUMENT: LC, Waters Acquity UPLC System; MS, Waters Xevo G2 Q-Tof
AC$INSTRUMENT_TYPE: LC-ESI-QTOF
AC$MASS_SPECTROMETRY: MS_TYPE MS2
AC$MASS_SPECTROMETRY: ION_MODE POSITIVE
AC$MASS_SPECTROMETRY: COLLISION_ENERGY 6V
AC$MASS_SPECTROMETRY: DESOLVATION_GAS_FLOW 800/h
AC$MASS_SPECTROMETRY: DESOLVATION_TEMPERATURE 450 C
AC$MASS_SPECTROMETRY: IONIZATION ESI
AC$CHROMATOGRAPHY: CAPILLARY_VOLTAGE +3.00 kV
AC$CHROMATOGRAPHY: COLUMN_NAME Acquity bridged ethyl hybrid C18 (1.7 um, 2.1 mm * 100 mm, Waters)
AC$CHROMATOGRAPHY: COLUMN_TEMPERATURE 40 C
AC$CHROMATOGRAPHY: FLOW_GRADIENT A/B = (99.5%/0.5% at 0 min, 99.5%/0.5% at 0.1 min, 20%/80% at 10 min, 0.5%/99.5% at 10.1 min, 0.5%/99.5% at 12.0 min, 99.5%/0.5% at 12.1 min, 99.5%/0.5% at 15.0 min)
AC$CHROMATOGRAPHY: FLOW_RATE 0.3 ml/min at 0 min, 0.3 ml/min at 10 min, 0.4 ml/min at 10.1 min, 0.4 ml/min at 14.4 min, 0.3 ml/min at 14.5 min
AC$CHROMATOGRAPHY: RETENTION_TIME 3.314
AC$CHROMATOGRAPHY: SOLVENT A water including 0.1% formic acid
AC$CHROMATOGRAPHY: SOLVENT B acetonitrile including 0.1% formic acid
MS$FOCUSED_ION: PRECURSOR_TYPE [M+H]+
MS$FOCUSED_ION: PRECURSOR_M/Z 325.1910545
PK$SPLASH: splash10-03di-1941000000-fe2be88d9dee272f19af
PK$NUM_PEAK: 215
PK$PEAK: m/z int. rel.int.
  67.05501 15.0 15
  69.05964 22.0 22
  70.06473 24.0 24
  79.05141 15.0 15
  79.05545 30.0 30
  80.05238 50.0 50
  80.05674 35.0 35
  81.06175 33.0 33
  81.06862 61.0 61
  81.07625 84.0 84
  82.06657 65.0 65
  82.07488 21.0 21
  83.08193 27.0 27
  84.08089 13.0 13
  86.06384 20.0 20
  90.61427 16.0 16
  91.05465 39.0 39
  92.54895 25.0 25
  93.06853 15.0 15
  94.06692 31.0 31
  95.07495 27.0 27
  96.08613 14.0 14
  106.06483 42.0 42
  107.07784 21.0 21
  107.08407 24.0 24
  107.09107 15.0 15
  108.08018 141.0 141
  109.09109 14.0 14
  110.09179 33.0 33
  110.10002 34.0 34
  111.09663 53.0 53
  112.2076 13.0 13
  117.06008 37.0 37
  118.06585 18.0 18
  119.08228 18.0 18
  120.08303 92.0 92
  122.09759 62.0 62
  123.89404 15.0 15
  124.108 20.0 20
  131.0739 13.0 13
  132.08501 21.0 21
  134.09247 86.0 86
  134.10378 13.0 13
  135.09149 13.0 13
  136.11388 77.0 77
  137.11586 14.0 14
  137.15128 22.0 22
  138.10724 22.0 22
  138.12984 35.0 35
  139.13171 13.0 13
  139.55392 18.0 18
  139.78098 20.0 20
  142.04666 13.0 13
  145.05167 31.0 31
  146.06404 24.0 24
  147.06743 18.0 18
  155.06566 20.0 20
  158.0614 48.0 48
  159.06087 35.0 35
  159.08424 13.0 13
  160.07587 1000.0 999
  160.78412 13.0 13
  161.06784 13.0 13
  161.0788 43.0 43
  161.08838 72.0 72
  161.09975 18.0 18
  162.08867 47.0 47
  163.07578 18.0 18
  163.10522 38.0 38
  164.11021 20.0 20
  166.11993 129.0 129
  167.07162 18.0 18
  167.12331 23.0 23
  167.12959 27.0 27
  168.06194 30.0 30
  169.04282 13.0 13
  169.05579 19.0 19
  170.06122 43.0 43
  172.02141 20.0 20
  172.04681 44.0 44
  172.06686 78.0 78
  172.0779 189.0 189
  173.07216 12.0 12
  173.08162 163.0 163
  174.05446 14.0 14
  174.07812 33.0 33
  174.09274 123.0 123
  175.04036 16.0 16
  175.09273 21.0 21
  180.28026 14.0 14
  183.06316 15.0 15
  184.07437 369.0 369
  185.07892 119.0 119
  186.05344 20.0 20
  186.07042 17.0 17
  186.09369 135.0 135
  186.10715 50.0 50
  187.08362 16.0 16
  187.09727 19.0 19
  188.06238 24.0 24
  188.06982 54.0 54
  188.09456 17.0 17
  189.0034 18.0 18
  189.06979 15.0 15
  189.08261 109.0 109
  193.07759 28.0 28
  193.08626 35.0 35
  195.05598 16.0 16
  195.07283 13.0 13
  196.0692 38.0 38
  196.08035 16.0 16
  196.10312 15.0 15
  197.06517 20.0 20
  197.11214 18.0 18
  197.12164 19.0 19
  198.06215 15.0 15
  198.07675 15.0 15
  198.08731 33.0 33
  198.09372 79.0 79
  198.10555 21.0 21
  198.20074 13.0 13
  199.0667 20.0 20
  199.09193 13.0 13
  199.11194 14.0 14
  200.09564 13.0 13
  201.08594 18.0 18
  201.10194 50.0 50
  202.0824 46.0 46
  202.09988 41.0 41
  204.07846 27.0 27
  209.08345 35.0 35
  210.08098 69.0 69
  210.09525 95.0 95
  211.05273 20.0 20
  211.07471 26.0 26
  212.10092 64.0 64
  212.1144 14.0 14
  213.10205 18.0 18
  214.08969 96.0 96
  220.06749 14.0 14
  221.09151 13.0 13
  221.10359 40.0 40
  222.09941 44.0 44
  223.09807 16.0 16
  223.13698 13.0 13
  224.11285 33.0 33
  225.10422 18.0 18
  226.12633 47.0 47
  227.10745 15.0 15
  227.12907 17.0 17
  231.13185 30.0 30
  234.1199 13.0 13
  236.09404 26.0 26
  236.10774 44.0 44
  236.11974 39.0 39
  238.11269 26.0 26
  238.12816 15.0 15
  239.11296 14.0 14
  239.12537 14.0 14
  245.11444 13.0 13
  247.08949 13.0 13
  248.09373 28.0 28
  248.13164 15.0 15
  249.11572 13.0 13
  250.11519 15.0 15
  250.12709 35.0 35
  251.10983 58.0 58
  252.09946 16.0 16
  252.11903 13.0 13
  252.14142 15.0 15
  253.11472 35.0 35
  253.12955 99.0 99
  253.13713 247.0 247
  254.14052 14.0 14
  260.10828 32.0 32
  261.12277 20.0 20
  263.13226 24.0 24
  264.12741 15.0 15
  264.13708 14.0 14
  264.15375 15.0 15
  265.116 14.0 14
  265.14227 74.0 74
  265.1582 21.0 21
  266.14996 13.0 13
  266.16971 16.0 16
  267.16571 16.0 16
  268.16675 15.0 15
  274.1301 24.0 24
  275.09613 19.0 19
  275.15515 47.0 47
  276.14996 13.0 13
  277.13031 15.0 15
  278.13702 41.0 41
  278.15457 52.0 52
  278.16748 20.0 20
  279.13818 56.0 56
  279.15854 58.0 58
  280.11627 16.0 16
  280.14172 13.0 13
  280.1532 15.0 15
  281.15826 13.0 13
  281.17108 24.0 24
  282.15201 32.0 32
  282.16721 16.0 16
  282.17981 13.0 13
  297.16916 14.0 14
  297.19748 16.0 16
  307.16467 44.0 44
  307.1875 143.0 143
  308.17203 18.0 18
  308.18344 15.0 15
  312.12204 20.0 20
  325.15872 16.0 16
  325.18454 146.0 146
  325.19809 173.0 173
//
