ACCESSION: MSBNK-RIKEN-PR308319
RECORD_TITLE: trans-pterostilbene; LC-ESI-QTOF; MS2
DATE: 2019.03.28
AUTHORS: Tetsuya Mori, Center for Sustainable Resource Science, RIKEN
LICENSE: CC BY-NC-SA
PUBLICATION: Tsugawa H., Nakabayashi R., Mori T., Yamada Y., Takahashi M., Rai A., Sugiyama R., Yamamoto H., Nakaya T., Yamazaki M., Kooke R., Bac-Molenaar JA., Oztolan-Erol N., Keurentjes JJB., Arita M., Saito K. (2019) "A cheminformatics approach to characterize metabolomes in stable-isotope-labeled organisms" Nature Methods 16(4):295-298. [doi:10.1038/s41592-019-0358-2]
COMMENT: registered in RIKEN PlaSMA
CH$NAME: trans-pterostilbene
CH$COMPOUND_CLASS: Stilbenes
CH$FORMULA: C16H16O3
CH$EXACT_MASS: 256.301
CH$SMILES: COC1=CC(C=CC2=CC=C(O)C=C2)=CC(OC)=C1
CH$IUPAC: InChI=1S/C16H16O3/c1-18-15-9-13(10-16(11-15)19-2)4-3-12-5-7-14(17)8-6-12/h3-11,17H,1-2H3
CH$LINK: INCHIKEY VLEUZFDZJKSGMX-UHFFFAOYSA-N
AC$INSTRUMENT: LC, Waters Acquity UPLC System; MS, Waters Xevo G2 Q-Tof
AC$INSTRUMENT_TYPE: LC-ESI-QTOF
AC$MASS_SPECTROMETRY: MS_TYPE MS2
AC$MASS_SPECTROMETRY: ION_MODE NEGATIVE
AC$MASS_SPECTROMETRY: COLLISION_ENERGY 6V
AC$MASS_SPECTROMETRY: DESOLVATION_GAS_FLOW 800/h
AC$MASS_SPECTROMETRY: DESOLVATION_TEMPERATURE 450 C
AC$MASS_SPECTROMETRY: IONIZATION ESI
AC$CHROMATOGRAPHY: CAPILLARY_VOLTAGE -2.75 kV
AC$CHROMATOGRAPHY: COLUMN_NAME Acquity bridged ethyl hybrid C18 (1.7 um, 2.1 mm * 100 mm, Waters)
AC$CHROMATOGRAPHY: COLUMN_TEMPERATURE 40 C
AC$CHROMATOGRAPHY: FLOW_GRADIENT A/B = (99.5%/0.5% at 0 min, 99.5%/0.5% at 0.1 min, 20%/80% at 10 min, 0.5%/99.5% at 10.1 min, 0.5%/99.5% at 12.0 min, 99.5%/0.5% at 12.1 min, 99.5%/0.5% at 15.0 min)
AC$CHROMATOGRAPHY: FLOW_RATE 0.3 ml/min at 0 min, 0.3 ml/min at 10 min, 0.4 ml/min at 10.1 min, 0.4 ml/min at 14.4 min, 0.3 ml/min at 14.5 min
AC$CHROMATOGRAPHY: RETENTION_TIME 8.007517
AC$CHROMATOGRAPHY: SOLVENT A water including 0.1% formic acid
AC$CHROMATOGRAPHY: SOLVENT B acetonitrile including 0.1% formic acid
MS$FOCUSED_ION: PRECURSOR_TYPE [M-H]-
MS$FOCUSED_ION: PRECURSOR_M/Z 255.10266794783
PK$SPLASH: splash10-0a4i-0290000000-941482361d77a189976e
PK$NUM_PEAK: 48
PK$PEAK: m/z int. rel.int.
  107.44619 6.0 6
  117.03654 6.0 6
  117.4306 6.0 6
  153.07417 10.0 10
  165.07449 11.0 11
  167.0419 12.0 12
  167.05345 7.0 7
  168.05627 10.0 10
  168.06424 6.0 6
  169.05762 8.0 8
  169.06816 30.0 30
  169.61214 6.0 6
  170.06259 6.0 6
  179.04523 6.0 6
  180.05794 13.0 13
  181.06624 21.0 21
  182.07268 6.0 6
  184.05299 6.0 6
  184.08284 7.0 7
  185.04974 6.0 6
  191.15578 8.0 8
  193.06851 6.0 6
  195.04678 24.0 24
  196.05228 8.0 8
  197.05937 181.0 181
  197.07446 7.0 7
  198.06064 34.0 34
  199.06757 8.0 8
  209.06226 6.0 6
  210.05595 6.0 6
  210.06778 15.0 15
  211.07733 12.0 12
  212.07887 6.0 6
  214.34302 8.0 8
  224.03581 5.0 5
  224.04752 48.0 48
  225.04031 8.0 8
  225.04871 12.0 12
  225.05745 13.0 13
  226.05574 6.0 6
  233.36438 8.0 8
  239.06844 185.0 185
  240.07664 374.0 374
  241.08043 56.0 56
  242.09457 6.0 6
  254.04347 6.0 6
  255.10123 1000.0 999
  255.123 6.0 6
//
