ACCESSION: MSBNK-RIKEN-PR305822
RECORD_TITLE: Syringetin-3-O-glucoside; LC-ESI-QTOF; MS2
DATE: 2019.03.28
AUTHORS: Tetsuya Mori, Center for Sustainable Resource Science, RIKEN
LICENSE: CC BY-NC-SA
PUBLICATION: Tsugawa H., Nakabayashi R., Mori T., Yamada Y., Takahashi M., Rai A., Sugiyama R., Yamamoto H., Nakaya T., Yamazaki M., Kooke R., Bac-Molenaar JA., Oztolan-Erol N., Keurentjes JJB., Arita M., Saito K. (2019) "A cheminformatics approach to characterize metabolomes in stable-isotope-labeled organisms" Nature Methods 16(4):295-298. [doi:10.1038/s41592-019-0358-2]
COMMENT: registered in RIKEN PlaSMA
CH$NAME: Syringetin-3-O-glucoside
CH$COMPOUND_CLASS: Flavonoid-3-O-glycosides
CH$FORMULA: C23H24O13
CH$EXACT_MASS: 508.432
CH$SMILES: COC1=CC(=CC(OC)=C1O)C1=C(OC2OC(CO)C(O)C(O)C2O)C(=O)C2=C(O)C=C(O)C=C2O1
CH$IUPAC: InChI=1S/C23H24O13/c1-32-12-3-8(4-13(33-2)16(12)27)21-22(18(29)15-10(26)5-9(25)6-11(15)34-21)36-23-20(31)19(30)17(28)14(7-24)35-23/h3-6,14,17,19-20,23-28,30-31H,7H2,1-2H3
CH$LINK: INCHIKEY JMFWYRWPJVEZPV-UHFFFAOYSA-N
AC$INSTRUMENT: LC, Waters Acquity UPLC System; MS, Waters Xevo G2 Q-Tof
AC$INSTRUMENT_TYPE: LC-ESI-QTOF
AC$MASS_SPECTROMETRY: MS_TYPE MS2
AC$MASS_SPECTROMETRY: ION_MODE NEGATIVE
AC$MASS_SPECTROMETRY: COLLISION_ENERGY 6V
AC$MASS_SPECTROMETRY: DESOLVATION_GAS_FLOW 800/h
AC$MASS_SPECTROMETRY: DESOLVATION_TEMPERATURE 450 C
AC$MASS_SPECTROMETRY: IONIZATION ESI
AC$CHROMATOGRAPHY: CAPILLARY_VOLTAGE -2.75 kV
AC$CHROMATOGRAPHY: COLUMN_NAME Acquity bridged ethyl hybrid C18 (1.7 um, 2.1 mm * 100 mm, Waters)
AC$CHROMATOGRAPHY: COLUMN_TEMPERATURE 40 C
AC$CHROMATOGRAPHY: FLOW_GRADIENT A/B = (99.5%/0.5% at 0 min, 99.5%/0.5% at 0.1 min, 20%/80% at 10 min, 0.5%/99.5% at 10.1 min, 0.5%/99.5% at 12.0 min, 99.5%/0.5% at 12.1 min, 99.5%/0.5% at 15.0 min)
AC$CHROMATOGRAPHY: FLOW_RATE 0.3 ml/min at 0 min, 0.3 ml/min at 10 min, 0.4 ml/min at 10.1 min, 0.4 ml/min at 14.4 min, 0.3 ml/min at 14.5 min
AC$CHROMATOGRAPHY: RETENTION_TIME 4.373384
AC$CHROMATOGRAPHY: SOLVENT A water including 0.1% formic acid
AC$CHROMATOGRAPHY: SOLVENT B acetonitrile including 0.1% formic acid
MS$FOCUSED_ION: PRECURSOR_TYPE [M-H]-
MS$FOCUSED_ION: PRECURSOR_M/Z 507.11441434783
PK$SPLASH: splash10-0a4i-0048090000-2653bb7823b5a0408b50
PK$NUM_PEAK: 45
PK$PEAK: m/z int. rel.int.
  125.02468 9.0 9
  151.00061 15.0 15
  178.99321 5.0 5
  219.02939 8.0 8
  241.00945 24.0 24
  241.02353 7.0 7
  242.01862 38.0 38
  243.02863 24.0 24
  257.0025 9.0 9
  258.00659 14.0 14
  258.01758 35.0 35
  269.00217 7.0 7
  270.02209 23.0 23
  271.01755 7.0 7
  272.03357 7.0 7
  273.03857 151.0 151
  274.043 17.0 17
  275.04224 9.0 9
  286.00912 54.0 54
  287.01926 7.0 7
  287.05093 30.0 30
  288.05008 5.0 5
  288.06439 7.0 7
  301.03278 122.0 122
  302.03668 12.0 12
  303.04239 7.0 7
  315.01483 34.0 34
  315.05255 14.0 14
  316.05515 39.0 39
  316.07352 9.0 9
  317.05798 9.0 9
  329.03149 48.0 48
  329.0451 19.0 19
  330.03702 24.0 24
  331.03781 9.0 9
  343.04077 14.0 14
  343.05005 5.0 5
  344.05353 372.0 372
  345.05756 176.0 176
  346.04965 5.0 5
  346.06827 19.0 19
  387.07312 8.0 8
  388.07248 5.0 5
  507.11493 1000.0 999
  507.15576 6.0 6
//
