ACCESSION: MSBNK-RIKEN-PR302880
RECORD_TITLE: Biochanin-7-O-glucoside; LC-ESI-QTOF; MS2
DATE: 2019.03.28
AUTHORS: Tetsuya Mori, Center for Sustainable Resource Science, RIKEN
LICENSE: CC BY-NC-SA
PUBLICATION: Tsugawa H., Nakabayashi R., Mori T., Yamada Y., Takahashi M., Rai A., Sugiyama R., Yamamoto H., Nakaya T., Yamazaki M., Kooke R., Bac-Molenaar JA., Oztolan-Erol N., Keurentjes JJB., Arita M., Saito K. (2019) "A cheminformatics approach to characterize metabolomes in stable-isotope-labeled organisms" Nature Methods 16(4):295-298. [doi:10.1038/s41592-019-0358-2]
COMMENT: registered in RIKEN PlaSMA
CH$NAME: Biochanin-7-O-glucoside
CH$COMPOUND_CLASS: Isoflavonoid O-glycosides
CH$FORMULA: C22H22O10
CH$EXACT_MASS: 446.408
CH$SMILES: COC1=CC=C(C=C1)C1=COC2=CC(O[C@@H]3O[C@H](CO)[C@@H](O)[C@H](O)[C@H]3O)=CC(O)=C2C1=O
CH$IUPAC: InChI=1S/C22H22O10/c1-29-11-4-2-10(3-5-11)13-9-30-15-7-12(6-14(24)17(15)18(13)25)31-22-21(28)20(27)19(26)16(8-23)32-22/h2-7,9,16,19-24,26-28H,8H2,1H3/t16-,19-,20+,21-,22-/m1/s1
CH$LINK: INCHIKEY LFEUICHQZGNOHD-RECXWPGBSA-N
AC$INSTRUMENT: LC, Waters Acquity UPLC System; MS, Waters Xevo G2 Q-Tof
AC$INSTRUMENT_TYPE: LC-ESI-QTOF
AC$MASS_SPECTROMETRY: MS_TYPE MS2
AC$MASS_SPECTROMETRY: ION_MODE POSITIVE
AC$MASS_SPECTROMETRY: COLLISION_ENERGY 6V
AC$MASS_SPECTROMETRY: DESOLVATION_GAS_FLOW 800/h
AC$MASS_SPECTROMETRY: DESOLVATION_TEMPERATURE 450 C
AC$MASS_SPECTROMETRY: IONIZATION ESI
AC$CHROMATOGRAPHY: CAPILLARY_VOLTAGE +3.00 kV
AC$CHROMATOGRAPHY: COLUMN_NAME Acquity bridged ethyl hybrid C18 (1.7 um, 2.1 mm * 100 mm, Waters)
AC$CHROMATOGRAPHY: COLUMN_TEMPERATURE 40 C
AC$CHROMATOGRAPHY: FLOW_GRADIENT A/B = (99.5%/0.5% at 0 min, 99.5%/0.5% at 0.1 min, 20%/80% at 10 min, 0.5%/99.5% at 10.1 min, 0.5%/99.5% at 12.0 min, 99.5%/0.5% at 12.1 min, 99.5%/0.5% at 15.0 min)
AC$CHROMATOGRAPHY: FLOW_RATE 0.3 ml/min at 0 min, 0.3 ml/min at 10 min, 0.4 ml/min at 10.1 min, 0.4 ml/min at 14.4 min, 0.3 ml/min at 14.5 min
AC$CHROMATOGRAPHY: RETENTION_TIME 5.73275
AC$CHROMATOGRAPHY: SOLVENT A water including 0.1% formic acid
AC$CHROMATOGRAPHY: SOLVENT B acetonitrile including 0.1% formic acid
MS$FOCUSED_ION: PRECURSOR_TYPE [M+H]+
MS$FOCUSED_ION: PRECURSOR_M/Z 447.1285734
PK$SPLASH: splash10-0udr-0590000000-2079bac2b63ac2962c0c
PK$NUM_PEAK: 215
PK$PEAK: m/z int. rel.int.
  85.02377 8.0 8
  90.04652 12.0 12
  91.0202 16.0 16
  91.04184 10.0 10
  93.04858 12.0 12
  95.01068 18.0 18
  95.01695 31.0 31
  96.01767 25.0 25
  96.02422 28.0 28
  102.0416 18.0 18
  103.05279 55.0 55
  103.73645 13.0 13
  104.02423 10.0 10
  105.06599 15.0 15
  106.07319 18.0 18
  107.03291 12.0 12
  107.0457 38.0 38
  111.00832 21.0 21
  118.04036 140.0 140
  119.04669 39.0 39
  120.93433 9.0 9
  121.02496 44.0 44
  121.03126 18.0 18
  123.02766 8.0 8
  123.04434 161.0 161
  123.04948 65.0 65
  124.01261 159.0 159
  124.0491 34.0 34
  127.05353 12.0 12
  129.0715 8.0 8
  130.0403 17.0 17
  130.07771 8.0 8
  132.01215 12.0 12
  132.02547 16.0 16
  132.94989 15.0 15
  133.05009 14.0 14
  133.05849 45.0 45
  133.06412 111.0 111
  135.04124 10.0 10
  135.78009 9.0 9
  139.02409 14.0 14
  139.04213 10.0 10
  140.05202 8.0 8
  141.06653 51.0 51
  144.0239 18.0 18
  145.0593 36.0 36
  149.02087 221.0 221
  149.0287 54.0 54
  149.59537 8.0 8
  150.01833 15.0 15
  150.03094 18.0 18
  151.02029 8.0 8
  151.04338 25.0 25
  151.96848 16.0 16
  151.98723 13.0 13
  152.00822 879.0 878
  152.03047 20.0 20
  152.98557 8.0 8
  152.99745 9.0 9
  153.00858 60.0 60
  153.01895 306.0 306
  153.06233 12.0 12
  153.07014 16.0 16
  154.01778 26.0 26
  155.04774 22.0 22
  155.08704 12.0 12
  156.92076 11.0 11
  157.02824 14.0 14
  158.03384 160.0 160
  158.04282 93.0 93
  158.071 8.0 8
  159.03981 29.0 29
  159.05023 11.0 11
  160.04526 14.0 14
  160.821 9.0 9
  161.05075 11.0 11
  161.09567 18.0 18
  161.10452 10.0 10
  162.52483 18.0 18
  163.0321 12.0 12
  163.04657 12.0 12
  164.05206 21.0 21
  165.52342 14.0 14
  167.03879 9.0 9
  168.04083 9.0 9
  168.05815 23.0 23
  169.05727 45.0 45
  169.0714 30.0 30
  170.05731 18.0 18
  171.07253 18.0 18
  172.04633 15.0 15
  172.05263 13.0 13
  173.04886 34.0 34
  174.05188 9.0 9
  176.33473 15.0 15
  179.03157 77.0 77
  179.04266 29.0 29
  180.03236 13.0 13
  182.06384 10.0 10
  183.04088 34.0 34
  183.08231 13.0 13
  183.0896 8.0 8
  183.99467 10.0 10
  184.03281 8.0 8
  185.05312 92.0 92
  185.09735 15.0 15
  186.04813 12.0 12
  186.05316 22.0 22
  186.06816 25.0 25
  187.04149 14.0 14
  187.07303 28.0 28
  187.14102 13.0 13
  188.03778 15.0 15
  188.08383 12.0 12
  188.60307 14.0 14
  196.03485 15.0 15
  196.05623 30.0 30
  197.04688 28.0 28
  197.06367 141.0 141
  197.08017 9.0 9
  197.41504 12.0 12
  198.06477 50.0 50
  199.04356 13.0 13
  200.58949 10.0 10
  201.02454 10.0 10
  201.036 9.0 9
  201.05133 26.0 26
  201.06213 14.0 14
  201.0939 9.0 9
  202.0919 10.0 10
  209.06262 10.0 10
  211.04541 14.0 14
  211.05511 22.0 22
  211.07193 22.0 22
  211.08698 9.0 9
  212.06656 11.0 11
  212.18301 10.0 10
  213.00824 15.0 15
  213.05351 673.0 672
  214.05414 67.0 67
  214.0618 143.0 143
  214.07559 19.0 19
  215.05618 11.0 11
  215.07242 29.0 29
  215.40141 8.0 8
  216.04463 14.0 14
  217.32594 10.0 10
  218.08572 19.0 19
  218.79555 9.0 9
  224.02716 11.0 11
  224.03636 10.0 10
  224.0518 8.0 8
  225.04211 10.0 10
  225.05688 66.0 66
  225.07254 35.0 35
  226.0473 55.0 55
  226.05525 20.0 20
  226.99852 18.0 18
  227.0265 9.0 9
  227.04497 16.0 16
  227.08003 12.0 12
  229.06851 61.0 61
  229.08516 422.0 422
  229.09418 158.0 158
  230.04883 13.0 13
  230.06204 12.0 12
  230.0764 50.0 50
  230.0883 13.0 13
  230.1021 33.0 33
  234.93449 8.0 8
  239.06888 10.0 10
  241.01379 19.0 19
  241.02635 14.0 14
  241.04404 109.0 109
  241.05441 96.0 96
  241.93602 21.0 21
  242.03128 14.0 14
  242.05296 642.0 641
  242.06642 207.0 207
  242.45982 10.0 10
  243.05936 119.0 119
  252.03906 63.0 63
  252.04785 52.0 52
  252.99217 9.0 9
  253.02594 81.0 81
  253.0486 571.0 570
  254.05559 115.0 115
  255.03705 18.0 18
  255.06293 20.0 20
  256.07639 13.0 13
  258.42484 28.0 28
  269.0112 15.0 15
  269.02576 96.0 96
  269.04831 698.0 697
  269.10428 14.0 14
  269.94336 11.0 11
  269.99686 9.0 9
  270.02982 80.0 80
  270.04764 441.0 441
  270.06055 213.0 213
  270.80042 12.0 12
  271.03729 31.0 31
  271.05634 203.0 203
  271.07715 16.0 16
  272.05695 10.0 10
  285.05267 34.0 34
  285.07666 1000.0 999
  285.461 9.0 9
  286.061 18.0 18
  286.08102 193.0 193
  287.04776 19.0 19
  287.06976 9.0 9
  299.79364 10.0 10
  383.15659 10.0 10
  416.78906 9.0 9
//
