ACCESSION: MSBNK-RIKEN-PR306573
RECORD_TITLE: Quercetin-4'-O-glucoside; LC-ESI-QTOF; MS2
DATE: 2019.03.28
AUTHORS: Tetsuya Mori, Center for Sustainable Resource Science, RIKEN
LICENSE: CC BY-NC-SA
PUBLICATION: Tsugawa H., Nakabayashi R., Mori T., Yamada Y., Takahashi M., Rai A., Sugiyama R., Yamamoto H., Nakaya T., Yamazaki M., Kooke R., Bac-Molenaar JA., Oztolan-Erol N., Keurentjes JJB., Arita M., Saito K. (2019) "A cheminformatics approach to characterize metabolomes in stable-isotope-labeled organisms" Nature Methods 16(4):295-298. [doi:10.1038/s41592-019-0358-2]
COMMENT: registered in RIKEN PlaSMA
CH$NAME: Quercetin-4'-O-glucoside
CH$COMPOUND_CLASS: Flavonoid O-glycosides
CH$FORMULA: C21H20O12
CH$EXACT_MASS: 464.379
CH$SMILES: OCC1OC(OC2=C(O)C=C(C=C2)C2=C(O)C(=O)C3=C(O)C=C(O)C=C3O2)C(O)C(O)C1O
CH$IUPAC: InChI=1S/C21H20O12/c22-6-13-15(26)17(28)19(30)21(33-13)32-11-2-1-7(3-9(11)24)20-18(29)16(27)14-10(25)4-8(23)5-12(14)31-20/h1-5,13,15,17,19,21-26,28-30H,6H2
CH$LINK: INCHIKEY OIUBYZLTFSLSBY-UHFFFAOYSA-N
AC$INSTRUMENT: LC, Waters Acquity UPLC System; MS, Waters Xevo G2 Q-Tof
AC$INSTRUMENT_TYPE: LC-ESI-QTOF
AC$MASS_SPECTROMETRY: MS_TYPE MS2
AC$MASS_SPECTROMETRY: ION_MODE NEGATIVE
AC$MASS_SPECTROMETRY: COLLISION_ENERGY 6V
AC$MASS_SPECTROMETRY: DESOLVATION_GAS_FLOW 800/h
AC$MASS_SPECTROMETRY: DESOLVATION_TEMPERATURE 450 C
AC$MASS_SPECTROMETRY: IONIZATION ESI
AC$CHROMATOGRAPHY: CAPILLARY_VOLTAGE -2.75 kV
AC$CHROMATOGRAPHY: COLUMN_NAME Acquity bridged ethyl hybrid C18 (1.7 um, 2.1 mm * 100 mm, Waters)
AC$CHROMATOGRAPHY: COLUMN_TEMPERATURE 40 C
AC$CHROMATOGRAPHY: FLOW_GRADIENT A/B = (99.5%/0.5% at 0 min, 99.5%/0.5% at 0.1 min, 20%/80% at 10 min, 0.5%/99.5% at 10.1 min, 0.5%/99.5% at 12.0 min, 99.5%/0.5% at 12.1 min, 99.5%/0.5% at 15.0 min)
AC$CHROMATOGRAPHY: FLOW_RATE 0.3 ml/min at 0 min, 0.3 ml/min at 10 min, 0.4 ml/min at 10.1 min, 0.4 ml/min at 14.4 min, 0.3 ml/min at 14.5 min
AC$CHROMATOGRAPHY: RETENTION_TIME 4.482217
AC$CHROMATOGRAPHY: SOLVENT A water including 0.1% formic acid
AC$CHROMATOGRAPHY: SOLVENT B acetonitrile including 0.1% formic acid
MS$FOCUSED_ION: PRECURSOR_TYPE [M-H]-
MS$FOCUSED_ION: PRECURSOR_M/Z 463.08819964783
PK$SPLASH: splash10-0udi-0209100000-6f49da9ecce0940b4e89
PK$NUM_PEAK: 43
PK$PEAK: m/z int. rel.int.
  59.38074 6.0 6
  64.99975 7.0 7
  107.0099 19.0 19
  107.01564 17.0 17
  108.01704 5.0 5
  121.02515 14.0 14
  136.01944 7.0 7
  149.02029 6.0 6
  150.99731 65.0 65
  151.00415 118.0 118
  152.00742 10.0 10
  162.99722 17.0 17
  165.02112 6.0 6
  172.05692 5.0 5
  178.99593 91.0 91
  179.9953 14.0 14
  186.44862 9.0 9
  187.0423 8.0 8
  187.05072 7.0 7
  204.02579 5.0 5
  216.04282 6.0 6
  227.04192 7.0 7
  229.04794 7.0 7
  232.0368 6.0 6
  243.02379 15.0 15
  257.05008 7.0 7
  258.05176 9.0 9
  272.02521 7.0 7
  283.02567 10.0 10
  284.02954 5.0 5
  300.00986 11.0 11
  300.02579 125.0 125
  301.03299 1000.0 999
  301.91876 6.0 6
  302.03323 109.0 109
  302.04431 45.0 45
  303.03564 16.0 16
  303.05539 14.0 14
  365.74777 5.0 5
  366.22235 6.0 6
  369.48587 10.0 10
  463.00943 6.0 6
  463.08487 188.0 188
//
