ACCESSION: MSBNK-RIKEN-PR308367
RECORD_TITLE: Soyasaponin Ba; LC-ESI-QTOF; MS2
DATE: 2019.03.28
AUTHORS: Tetsuya Mori, Center for Sustainable Resource Science, RIKEN
LICENSE: CC BY-NC-SA
PUBLICATION: Tsugawa H., Nakabayashi R., Mori T., Yamada Y., Takahashi M., Rai A., Sugiyama R., Yamamoto H., Nakaya T., Yamazaki M., Kooke R., Bac-Molenaar JA., Oztolan-Erol N., Keurentjes JJB., Arita M., Saito K. (2019) "A cheminformatics approach to characterize metabolomes in stable-isotope-labeled organisms" Nature Methods 16(4):295-298. [doi:10.1038/s41592-019-0358-2]
COMMENT: registered in RIKEN PlaSMA
CH$NAME: Soyasaponin Ba
CH$COMPOUND_CLASS: Triterpene saponins
CH$FORMULA: C48H78O19
CH$EXACT_MASS: 959.133
CH$SMILES: CC1(C)CC(O)C2(C)CCC3(C)C(=CCC4C5(C)CCC(OC6OC(C(O)C(O)C6OC6OC(CO)C(O)C(O)C6OC6OC(CO)C(O)C(O)C6O)C(O)=O)C(C)(CO)C5CCC34C)C2C1
CH$IUPAC: InChI=1S/C48H78O19/c1-43(2)16-22-21-8-9-26-45(4)12-11-28(46(5,20-51)25(45)10-13-48(26,7)47(21,6)15-14-44(22,3)27(52)17-43)64-42-38(34(58)33(57)36(65-42)39(60)61)67-41-37(32(56)30(54)24(19-50)63-41)66-40-35(59)31(55)29(53)23(18-49)62-40/h8,22-38,40-42,49-59H,9-20H2,1-7H3,(H,60,61)
CH$LINK: INCHIKEY WFRQIKSNAYYUJZ-UHFFFAOYSA-N
AC$INSTRUMENT: LC, Waters Acquity UPLC System; MS, Waters Xevo G2 Q-Tof
AC$INSTRUMENT_TYPE: LC-ESI-QTOF
AC$MASS_SPECTROMETRY: MS_TYPE MS2
AC$MASS_SPECTROMETRY: ION_MODE NEGATIVE
AC$MASS_SPECTROMETRY: COLLISION_ENERGY 6V
AC$MASS_SPECTROMETRY: DESOLVATION_GAS_FLOW 800/h
AC$MASS_SPECTROMETRY: DESOLVATION_TEMPERATURE 450 C
AC$MASS_SPECTROMETRY: IONIZATION ESI
AC$CHROMATOGRAPHY: CAPILLARY_VOLTAGE -2.75 kV
AC$CHROMATOGRAPHY: COLUMN_NAME Acquity bridged ethyl hybrid C18 (1.7 um, 2.1 mm * 100 mm, Waters)
AC$CHROMATOGRAPHY: COLUMN_TEMPERATURE 40 C
AC$CHROMATOGRAPHY: FLOW_GRADIENT A/B = (99.5%/0.5% at 0 min, 99.5%/0.5% at 0.1 min, 20%/80% at 10 min, 0.5%/99.5% at 10.1 min, 0.5%/99.5% at 12.0 min, 99.5%/0.5% at 12.1 min, 99.5%/0.5% at 15.0 min)
AC$CHROMATOGRAPHY: FLOW_RATE 0.3 ml/min at 0 min, 0.3 ml/min at 10 min, 0.4 ml/min at 10.1 min, 0.4 ml/min at 14.4 min, 0.3 ml/min at 14.5 min
AC$CHROMATOGRAPHY: RETENTION_TIME 6.953817
AC$CHROMATOGRAPHY: SOLVENT A water including 0.1% formic acid
AC$CHROMATOGRAPHY: SOLVENT B acetonitrile including 0.1% formic acid
MS$FOCUSED_ION: PRECURSOR_TYPE [M-H]-
MS$FOCUSED_ION: PRECURSOR_M/Z 957.50645384783
PK$SPLASH: splash10-0770-3940000002-eee46f4a053b4aa0939f
PK$NUM_PEAK: 176
PK$PEAK: m/z int. rel.int.
  50.60725 8.0 8
  59.01188 39.0 39
  59.01616 19.0 19
  71.01405 74.0 74
  73.03271 14.0 14
  74.1626 7.0 7
  75.00784 17.0 17
  75.01266 6.0 6
  76.00679 11.0 11
  84.99612 9.0 9
  85.02823 357.0 357
  85.99809 6.0 6
  87.00584 13.0 13
  87.0154 14.0 14
  88.01285 6.0 6
  89.0238 343.0 343
  90.02323 6.0 6
  95.01024 24.0 24
  95.01637 44.0 44
  95.02365 6.0 6
  97.03133 10.0 10
  99.00383 15.0 15
  99.00899 17.0 17
  100.40514 6.0 6
  101.02428 294.0 294
  101.10834 6.0 6
  103.03244 6.0 6
  107.0341 6.0 6
  111.00391 8.0 8
  111.04235 6.0 6
  112.01368 12.0 12
  113.02357 222.0 222
  114.02236 12.0 12
  115.00193 6.0 6
  116.11209 6.0 6
  119.03371 313.0 313
  119.05027 7.0 7
  119.49748 6.0 6
  120.03329 6.0 6
  120.03799 6.0 6
  121.03914 13.0 13
  125.79556 6.0 6
  129.02315 17.0 17
  130.02367 9.0 9
  131.03534 197.0 197
  138.99736 60.0 60
  139.0031 167.0 167
  141.01172 6.0 6
  143.03429 171.0 171
  144.03593 7.0 7
  148.53152 7.0 7
  149.04384 18.0 18
  152.04353 8.0 8
  157.01067 48.0 48
  157.01924 14.0 14
  157.02853 8.0 8
  159.02911 24.0 24
  160.9397 6.0 6
  161.04506 348.0 348
  161.86336 6.0 6
  162.04657 45.0 45
  162.06261 7.0 7
  162.26682 7.0 7
  163.04779 7.0 7
  179.05418 547.0 546
  179.07671 7.0 7
  179.66257 6.0 6
  180.0553 7.0 7
  180.0616 7.0 7
  185.19106 7.0 7
  221.06628 1000.0 999
  222.07181 81.0 81
  224.08255 6.0 6
  225.05319 6.0 6
  231.03743 11.0 11
  231.0486 22.0 22
  249.07213 7.0 7
  257.07785 18.0 18
  263.07568 87.0 87
  264.07489 8.0 8
  265.06519 6.0 6
  288.32108 11.0 11
  305.08975 17.0 17
  312.4585 7.0 7
  323.10678 13.0 13
  325.88364 7.0 7
  332.48108 10.0 10
  359.27518 6.0 6
  360.26593 8.0 8
  383.11703 7.0 7
  408.78018 9.0 9
  409.33871 6.0 6
  420.10892 8.0 8
  425.34158 12.0 12
  429.70248 12.0 12
  436.04083 8.0 8
  437.32437 15.0 15
  437.34048 22.0 22
  437.35837 8.0 8
  438.3544 7.0 7
  440.26108 8.0 8
  441.12344 6.0 6
  448.00253 7.0 7
  455.3577 6.0 6
  456.35449 6.0 6
  456.38562 6.0 6
  457.37094 79.0 79
  458.3735 18.0 18
  470.37582 6.0 6
  484.53177 8.0 8
  495.37799 7.0 7
  495.92017 6.0 6
  510.39368 6.0 6
  510.66077 7.0 7
  510.99756 7.0 7
  515.99066 7.0 7
  521.22583 11.0 11
  525.3576 6.0 6
  525.38141 27.0 27
  525.39899 25.0 25
  525.90845 6.0 6
  526.38037 18.0 18
  526.40234 13.0 13
  528.38184 7.0 7
  548.96814 6.0 6
  552.44348 11.0 11
  554.38562 6.0 6
  560.44946 6.0 6
  567.10626 8.0 8
  571.38348 6.0 6
  597.37811 41.0 41
  597.50439 8.0 8
  597.84308 8.0 8
  599.12433 6.0 6
  615.22137 6.0 6
  615.37897 31.0 31
  615.39917 95.0 95
  615.7821 7.0 7
  616.33099 6.0 6
  616.38104 48.0 48
  633.38 6.0 6
  633.40759 20.0 20
  634.39917 12.0 12
  634.41254 6.0 6
  641.87939 6.0 6
  662.71942 6.0 6
  667.29077 6.0 6
  672.08667 11.0 11
  732.82635 7.0 7
  733.42017 6.0 6
  733.46411 22.0 22
  733.50464 7.0 7
  733.79706 6.0 6
  734.45587 12.0 12
  736.16827 7.0 7
  751.46692 6.0 6
  757.52441 6.0 6
  777.43524 14.0 14
  778.46027 6.0 6
  779.44171 6.0 6
  795.4267 8.0 8
  795.45306 30.0 30
  796.4234 15.0 15
  796.46674 19.0 19
  797.43744 7.0 7
  797.48956 6.0 6
  816.2522 7.0 7
  895.53015 7.0 7
  917.91412 7.0 7
  922.31464 6.0 6
  939.50867 15.0 15
  940.47168 7.0 7
  940.51056 6.0 6
  957.27435 6.0 6
  957.4931 673.0 672
  957.53406 123.0 123
//
