ACCESSION: MSBNK-RIKEN-PR301716
RECORD_TITLE: Chelerythrine; LC-ESI-QTOF; MS2
DATE: 2019.03.28
AUTHORS: Tetsuya Mori, Center for Sustainable Resource Science, RIKEN
LICENSE: CC BY-NC-SA
PUBLICATION: Tsugawa H., Nakabayashi R., Mori T., Yamada Y., Takahashi M., Rai A., Sugiyama R., Yamamoto H., Nakaya T., Yamazaki M., Kooke R., Bac-Molenaar JA., Oztolan-Erol N., Keurentjes JJB., Arita M., Saito K. (2019) "A cheminformatics approach to characterize metabolomes in stable-isotope-labeled organisms" Nature Methods 16(4):295-298. [doi:10.1038/s41592-019-0358-2]
COMMENT: registered in RIKEN PlaSMA
CH$NAME: Chelerythrine
CH$COMPOUND_CLASS: Quaternary benzophenanthridine alkaloids
CH$FORMULA: [C21H18NO4]+
CH$EXACT_MASS: 348.378
CH$SMILES: COC1=C(OC)C2=C[N+](C)=C3C4=CC5=C(OCO5)C=C4C=CC3=C2C=C1
CH$IUPAC: InChI=1S/C21H18NO4/c1-22-10-16-13(6-7-17(23-2)21(16)24-3)14-5-4-12-8-18-19(26-11-25-18)9-15(12)20(14)22/h4-10H,11H2,1-3H3/q+1
CH$LINK: INCHIKEY LLEJIEBFSOEYIV-UHFFFAOYSA-N
AC$INSTRUMENT: LC, Waters Acquity UPLC System; MS, Waters Xevo G2 Q-Tof
AC$INSTRUMENT_TYPE: LC-ESI-QTOF
AC$MASS_SPECTROMETRY: MS_TYPE MS2
AC$MASS_SPECTROMETRY: ION_MODE POSITIVE
AC$MASS_SPECTROMETRY: COLLISION_ENERGY 6V
AC$MASS_SPECTROMETRY: DESOLVATION_GAS_FLOW 800/h
AC$MASS_SPECTROMETRY: DESOLVATION_TEMPERATURE 450 C
AC$MASS_SPECTROMETRY: IONIZATION ESI
AC$CHROMATOGRAPHY: CAPILLARY_VOLTAGE +3.00 kV
AC$CHROMATOGRAPHY: COLUMN_NAME Acquity bridged ethyl hybrid C18 (1.7 um, 2.1 mm * 100 mm, Waters)
AC$CHROMATOGRAPHY: COLUMN_TEMPERATURE 40 C
AC$CHROMATOGRAPHY: FLOW_GRADIENT A/B = (99.5%/0.5% at 0 min, 99.5%/0.5% at 0.1 min, 20%/80% at 10 min, 0.5%/99.5% at 10.1 min, 0.5%/99.5% at 12.0 min, 99.5%/0.5% at 12.1 min, 99.5%/0.5% at 15.0 min)
AC$CHROMATOGRAPHY: FLOW_RATE 0.3 ml/min at 0 min, 0.3 ml/min at 10 min, 0.4 ml/min at 10.1 min, 0.4 ml/min at 14.4 min, 0.3 ml/min at 14.5 min
AC$CHROMATOGRAPHY: RETENTION_TIME 5.30245
AC$CHROMATOGRAPHY: SOLVENT A water including 0.1% formic acid
AC$CHROMATOGRAPHY: SOLVENT B acetonitrile including 0.1% formic acid
MS$FOCUSED_ION: PRECURSOR_TYPE [M]+
MS$FOCUSED_ION: PRECURSOR_M/Z 348.1224859
PK$SPLASH: splash10-001l-0091000000-0b6a91deafc814b65035
PK$NUM_PEAK: 340
PK$PEAK: m/z int. rel.int.
  91.59175 8.0 8
  96.25489 7.0 7
  99.02293 9.0 9
  121.80373 7.0 7
  127.04805 7.0 7
  130.20874 7.0 7
  131.05132 17.0 17
  136.36293 13.0 13
  145.37117 10.0 10
  151.05411 7.0 7
  152.04147 7.0 7
  155.37268 8.0 8
  161.04283 10.0 10
  161.54591 8.0 8
  163.0531 10.0 10
  164.06381 18.0 18
  164.2921 14.0 14
  165.07059 24.0 24
  174.0451 25.0 25
  175.05081 9.0 9
  175.05966 10.0 10
  176.06459 93.0 93
  177.03847 7.0 7
  177.05659 23.0 23
  177.07243 32.0 32
  178.06516 10.0 10
  178.07489 59.0 59
  179.05911 7.0 7
  180.07843 7.0 7
  181.07672 13.0 13
  186.96648 7.0 7
  187.0535 7.0 7
  187.05878 16.0 16
  188.0652 14.0 14
  188.07326 7.0 7
  189.04286 8.0 8
  189.05872 23.0 23
  189.0701 85.0 85
  190.04289 8.0 8
  190.06393 62.0 62
  190.0762 46.0 46
  191.06355 36.0 36
  191.07648 39.0 39
  191.08803 16.0 16
  191.69089 9.0 9
  191.74722 12.0 12
  192.07932 39.0 39
  194.05273 9.0 9
  197.82773 7.0 7
  200.06464 18.0 18
  201.05025 9.0 9
  201.06725 11.0 11
  202.04591 8.0 8
  202.06665 123.0 123
  202.08049 33.0 33
  202.12466 14.0 14
  203.07085 179.0 179
  203.53433 11.0 11
  204.05295 7.0 7
  204.07993 568.0 567
  204.58603 8.0 8
  205.04129 7.0 7
  205.06464 35.0 35
  205.08429 125.0 125
  205.10294 9.0 9
  205.24678 8.0 8
  206.08978 23.0 23
  206.09839 18.0 18
  207.06602 13.0 13
  207.084 13.0 13
  207.47459 16.0 16
  207.56758 8.0 8
  208.15916 8.0 8
  208.60793 8.0 8
  214.04544 7.0 7
  214.06427 142.0 142
  215.04041 9.0 9
  215.06172 23.0 23
  215.0769 71.0 71
  216.03807 9.0 9
  216.06537 18.0 18
  216.07858 90.0 90
  216.08865 106.0 106
  216.99551 9.0 9
  217.04788 20.0 20
  217.07701 54.0 54
  217.09122 248.0 248
  217.11026 15.0 15
  218.06821 45.0 45
  218.08397 52.0 52
  218.09677 239.0 239
  218.98267 7.0 7
  219.05966 16.0 16
  219.06969 40.0 40
  219.07845 21.0 21
  219.095 19.0 19
  219.10449 27.0 27
  219.12849 8.0 8
  220.07912 17.0 17
  220.09998 7.0 7
  220.11568 18.0 18
  220.23262 7.0 7
  220.33682 7.0 7
  221.12224 16.0 16
  222.29935 7.0 7
  224.62733 9.0 9
  224.75475 22.0 22
  225.53624 9.0 9
  226.0666 25.0 25
  227.06544 12.0 12
  227.07829 16.0 16
  227.08728 7.0 7
  228.08116 224.0 224
  228.09682 19.0 19
  229.00348 7.0 7
  229.05029 9.0 9
  229.07947 20.0 20
  229.09618 24.0 24
  230.0444 18.0 18
  230.05211 26.0 26
  230.06473 102.0 102
  230.09358 118.0 118
  230.10661 24.0 24
  230.6024 9.0 9
  231.058 21.0 21
  231.07095 30.0 30
  231.07863 20.0 20
  231.10106 17.0 17
  231.11519 63.0 63
  231.74557 8.0 8
  232.01773 7.0 7
  232.03008 21.0 21
  232.04463 21.0 21
  232.07718 1000.0 999
  232.10274 13.0 13
  232.17812 7.0 7
  232.27927 9.0 9
  232.32875 8.0 8
  233.00616 8.0 8
  233.05806 48.0 48
  233.0806 241.0 241
  233.09012 170.0 170
  233.10074 34.0 34
  233.44962 11.0 11
  233.90364 17.0 17
  234.01048 7.0 7
  234.06462 9.0 9
  234.07788 43.0 43
  234.09422 150.0 150
  234.22739 12.0 12
  235.022 7.0 7
  235.08694 52.0 52
  240.56879 12.0 12
  242.0663 7.0 7
  242.08537 7.0 7
  243.05922 28.0 28
  243.10184 7.0 7
  243.22931 11.0 11
  243.37939 7.0 7
  244.05562 9.0 9
  244.07419 233.0 233
  245.05328 17.0 17
  245.06497 23.0 23
  245.08226 107.0 107
  245.30428 7.0 7
  246.01062 10.0 10
  246.03 14.0 14
  246.04303 9.0 9
  246.06116 53.0 53
  246.07657 94.0 94
  246.0916 502.0 501
  246.12628 7.0 7
  247.04913 34.0 34
  247.06128 58.0 58
  247.08192 40.0 40
  247.09683 152.0 152
  247.10995 59.0 59
  247.24786 7.0 7
  248.04669 8.0 8
  248.10829 133.0 133
  249.10146 14.0 14
  249.39203 14.0 14
  250.70264 11.0 11
  254.61464 7.0 7
  254.95277 11.0 11
  255.06924 13.0 13
  256.07794 49.0 49
  257.07761 34.0 34
  257.09344 14.0 14
  257.9899 7.0 7
  258.04681 11.0 11
  258.08105 56.0 56
  258.09351 49.0 49
  259.06198 43.0 43
  259.09076 29.0 29
  259.1048 22.0 22
  260.05334 39.0 39
  260.06729 306.0 306
  260.11707 7.0 7
  261.00735 9.0 9
  261.05368 11.0 11
  261.07672 158.0 158
  261.10626 10.0 10
  261.194 8.0 8
  261.2673 23.0 23
  261.52954 12.0 12
  262.07855 45.0 45
  262.10007 29.0 29
  263.09061 26.0 26
  264.77115 9.0 9
  270.79272 7.0 7
  271.05432 7.0 7
  271.06696 15.0 15
  272.03195 10.0 10
  272.06119 59.0 59
  272.07907 124.0 124
  272.90237 10.0 10
  273.05704 12.0 12
  273.07196 59.0 59
  273.09525 16.0 16
  274.03397 14.0 14
  274.04657 67.0 67
  274.05676 142.0 142
  274.08713 468.0 468
  274.66452 7.0 7
  274.74246 7.0 7
  274.94858 7.0 7
  275.01102 11.0 11
  275.0527 193.0 193
  275.07071 72.0 72
  275.08472 55.0 55
  275.09573 73.0 73
  275.12161 8.0 8
  275.46371 9.0 9
  275.55728 7.0 7
  275.89691 9.0 9
  276.0531 30.0 30
  276.06851 42.0 42
  276.08664 22.0 22
  276.10312 46.0 46
  276.11545 20.0 20
  277.08267 13.0 13
  277.10553 10.0 10
  278.48242 7.0 7
  280.92612 7.0 7
  283.92822 7.0 7
  284.03482 8.0 8
  285.07755 7.0 7
  286.06732 7.0 7
  286.09052 108.0 108
  286.14172 11.0 11
  287.03284 8.0 8
  287.04163 12.0 12
  287.05612 7.0 7
  287.07202 7.0 7
  287.08981 19.0 19
  287.10651 17.0 17
  288.03561 7.0 7
  288.06458 83.0 83
  288.09326 69.0 69
  288.11029 17.0 17
  288.12 13.0 13
  288.13373 7.0 7
  288.37399 11.0 11
  289.0672 128.0 128
  289.0838 15.0 15
  289.10272 19.0 19
  290.04315 14.0 14
  290.08344 805.0 804
  290.10941 13.0 13
  290.25681 10.0 10
  290.30392 8.0 8
  290.51685 10.0 10
  291.04309 11.0 11
  291.0614 9.0 9
  291.08823 226.0 226
  291.35495 7.0 7
  292.07919 7.0 7
  292.09558 34.0 34
  292.28082 8.0 8
  294.74924 7.0 7
  294.87573 7.0 7
  299.62781 7.0 7
  300.06534 19.0 19
  300.08466 8.0 8
  301.06796 25.0 25
  301.09125 7.0 7
  302.05215 8.0 8
  302.08005 138.0 138
  302.10516 8.0 8
  302.50345 7.0 7
  302.81567 11.0 11
  303.08307 22.0 22
  303.11359 10.0 10
  304.03574 7.0 7
  304.08133 33.0 33
  304.09488 162.0 162
  304.2272 8.0 8
  304.72479 7.0 7
  305.07697 14.0 14
  305.08856 14.0 14
  305.11237 38.0 38
  310.3801 7.0 7
  314.02808 8.0 8
  314.061 9.0 9
  314.08441 26.0 26
  314.09613 14.0 14
  315.04074 14.0 14
  315.06284 7.0 7
  315.81958 7.0 7
  316.04401 23.0 23
  316.06006 58.0 58
  316.08005 43.0 43
  316.09512 68.0 68
  316.10971 15.0 15
  316.1275 7.0 7
  317.05908 61.0 61
  317.07065 72.0 72
  317.08691 41.0 41
  317.10699 23.0 23
  318.01508 7.0 7
  318.05212 11.0 11
  318.07846 36.0 36
  318.10596 8.0 8
  320.06525 7.0 7
  320.08386 8.0 8
  330.03729 9.0 9
  330.0618 62.0 62
  330.07782 304.0 304
  330.11115 9.0 9
  331.04205 9.0 9
  331.08286 124.0 124
  331.11221 7.0 7
  332.08456 79.0 79
  332.10376 43.0 43
  333.08469 7.0 7
  333.09732 7.0 7
  333.11484 9.0 9
  334.09473 9.0 9
  345.11209 7.0 7
//
