ACCESSION: MSBNK-RIKEN-PR305653
RECORD_TITLE: Quercetin-3-O-rhamnoside; LC-ESI-QTOF; MS2
DATE: 2019.03.28
AUTHORS: Tetsuya Mori, Center for Sustainable Resource Science, RIKEN
LICENSE: CC BY-NC-SA
PUBLICATION: Tsugawa H., Nakabayashi R., Mori T., Yamada Y., Takahashi M., Rai A., Sugiyama R., Yamamoto H., Nakaya T., Yamazaki M., Kooke R., Bac-Molenaar JA., Oztolan-Erol N., Keurentjes JJB., Arita M., Saito K. (2019) "A cheminformatics approach to characterize metabolomes in stable-isotope-labeled organisms" Nature Methods 16(4):295-298. [doi:10.1038/s41592-019-0358-2]
COMMENT: registered in RIKEN PlaSMA
CH$NAME: Quercetin-3-O-rhamnoside
CH$COMPOUND_CLASS: Flavonoid-3-O-glycosides
CH$FORMULA: C21H20O11
CH$EXACT_MASS: 448.38
CH$SMILES: CC1OC(OC2=C(OC3=CC(O)=CC(O)=C3C2=O)C2=CC(O)=C(O)C=C2)C(O)C(O)C1O
CH$IUPAC: InChI=1S/C21H20O11/c1-7-15(26)17(28)18(29)21(30-7)32-20-16(27)14-12(25)5-9(22)6-13(14)31-19(20)8-2-3-10(23)11(24)4-8/h2-7,15,17-18,21-26,28-29H,1H3
CH$LINK: INCHIKEY OXGUCUVFOIWWQJ-UHFFFAOYSA-N
AC$INSTRUMENT: LC, Waters Acquity UPLC System; MS, Waters Xevo G2 Q-Tof
AC$INSTRUMENT_TYPE: LC-ESI-QTOF
AC$MASS_SPECTROMETRY: MS_TYPE MS2
AC$MASS_SPECTROMETRY: ION_MODE NEGATIVE
AC$MASS_SPECTROMETRY: COLLISION_ENERGY 6V
AC$MASS_SPECTROMETRY: DESOLVATION_GAS_FLOW 800/h
AC$MASS_SPECTROMETRY: DESOLVATION_TEMPERATURE 450 C
AC$MASS_SPECTROMETRY: IONIZATION ESI
AC$CHROMATOGRAPHY: CAPILLARY_VOLTAGE -2.75 kV
AC$CHROMATOGRAPHY: COLUMN_NAME Acquity bridged ethyl hybrid C18 (1.7 um, 2.1 mm * 100 mm, Waters)
AC$CHROMATOGRAPHY: COLUMN_TEMPERATURE 40 C
AC$CHROMATOGRAPHY: FLOW_GRADIENT A/B = (99.5%/0.5% at 0 min, 99.5%/0.5% at 0.1 min, 20%/80% at 10 min, 0.5%/99.5% at 10.1 min, 0.5%/99.5% at 12.0 min, 99.5%/0.5% at 12.1 min, 99.5%/0.5% at 15.0 min)
AC$CHROMATOGRAPHY: FLOW_RATE 0.3 ml/min at 0 min, 0.3 ml/min at 10 min, 0.4 ml/min at 10.1 min, 0.4 ml/min at 14.4 min, 0.3 ml/min at 14.5 min
AC$CHROMATOGRAPHY: RETENTION_TIME 4.3614
AC$CHROMATOGRAPHY: SOLVENT A water including 0.1% formic acid
AC$CHROMATOGRAPHY: SOLVENT B acetonitrile including 0.1% formic acid
MS$FOCUSED_ION: PRECURSOR_TYPE [M-H]-
MS$FOCUSED_ION: PRECURSOR_M/Z 447.09328504783
PK$SPLASH: splash10-0udj-0149500000-b0dae5fe900a5884fa29
PK$NUM_PEAK: 46
PK$PEAK: m/z int. rel.int.
  83.01632 6.0 6
  107.01382 13.0 13
  109.02757 10.0 10
  135.00864 10.0 10
  141.03033 8.0 8
  150.99985 67.0 67
  151.00682 49.0 49
  152.00612 16.0 16
  153.00818 6.0 6
  154.8457 10.0 10
  163.00491 28.0 28
  163.03464 6.0 6
  164.00577 8.0 8
  178.9994 30.0 30
  179.9986 10.0 10
  185.05087 7.0 7
  187.0383 13.0 13
  193.01675 5.0 5
  200.04292 6.0 6
  201.05171 7.0 7
  211.03505 9.0 9
  211.04424 7.0 7
  212.03836 8.0 8
  216.04387 9.0 9
  226.02422 9.0 9
  227.03641 23.0 23
  229.05557 10.0 10
  237.01239 5.0 5
  243.02484 48.0 48
  243.03752 12.0 12
  245.03926 12.0 12
  246.04466 6.0 6
  254.0199 14.0 14
  255.02858 204.0 204
  256.02673 14.0 14
  256.03638 27.0 27
  271.02438 361.0 361
  272.02023 15.0 15
  272.03207 51.0 51
  281.25925 7.0 7
  283.02557 14.0 14
  300.02695 766.0 765
  301.03513 782.0 781
  302.03647 123.0 123
  303.04309 10.0 10
  447.09314 1000.0 999
//
