ACCESSION: MSBNK-RIKEN-PR302661
RECORD_TITLE: Daidzein; LC-ESI-QTOF; MS2
DATE: 2019.03.28
AUTHORS: Tetsuya Mori, Center for Sustainable Resource Science, RIKEN
LICENSE: CC BY-NC-SA
PUBLICATION: Tsugawa H., Nakabayashi R., Mori T., Yamada Y., Takahashi M., Rai A., Sugiyama R., Yamamoto H., Nakaya T., Yamazaki M., Kooke R., Bac-Molenaar JA., Oztolan-Erol N., Keurentjes JJB., Arita M., Saito K. (2019) "A cheminformatics approach to characterize metabolomes in stable-isotope-labeled organisms" Nature Methods 16(4):295-298. [doi:10.1038/s41592-019-0358-2]
COMMENT: registered in RIKEN PlaSMA
CH$NAME: Daidzein
CH$COMPOUND_CLASS: Isoflavones
CH$FORMULA: C15H10O4
CH$EXACT_MASS: 254.241
CH$SMILES: OC1=CC=C(C=C1)C1=COC2=C(C=CC(O)=C2)C1=O
CH$IUPAC: InChI=1S/C15H10O4/c16-10-3-1-9(2-4-10)13-8-19-14-7-11(17)5-6-12(14)15(13)18/h1-8,16-17H
CH$LINK: INCHIKEY ZQSIJRDFPHDXIC-UHFFFAOYSA-N
AC$INSTRUMENT: LC, Waters Acquity UPLC System; MS, Waters Xevo G2 Q-Tof
AC$INSTRUMENT_TYPE: LC-ESI-QTOF
AC$MASS_SPECTROMETRY: MS_TYPE MS2
AC$MASS_SPECTROMETRY: ION_MODE POSITIVE
AC$MASS_SPECTROMETRY: COLLISION_ENERGY 6V
AC$MASS_SPECTROMETRY: DESOLVATION_GAS_FLOW 800/h
AC$MASS_SPECTROMETRY: DESOLVATION_TEMPERATURE 450 C
AC$MASS_SPECTROMETRY: IONIZATION ESI
AC$CHROMATOGRAPHY: CAPILLARY_VOLTAGE +3.00 kV
AC$CHROMATOGRAPHY: COLUMN_NAME Acquity bridged ethyl hybrid C18 (1.7 um, 2.1 mm * 100 mm, Waters)
AC$CHROMATOGRAPHY: COLUMN_TEMPERATURE 40 C
AC$CHROMATOGRAPHY: FLOW_GRADIENT A/B = (99.5%/0.5% at 0 min, 99.5%/0.5% at 0.1 min, 20%/80% at 10 min, 0.5%/99.5% at 10.1 min, 0.5%/99.5% at 12.0 min, 99.5%/0.5% at 12.1 min, 99.5%/0.5% at 15.0 min)
AC$CHROMATOGRAPHY: FLOW_RATE 0.3 ml/min at 0 min, 0.3 ml/min at 10 min, 0.4 ml/min at 10.1 min, 0.4 ml/min at 14.4 min, 0.3 ml/min at 14.5 min
AC$CHROMATOGRAPHY: RETENTION_TIME 5.152583
AC$CHROMATOGRAPHY: SOLVENT A water including 0.1% formic acid
AC$CHROMATOGRAPHY: SOLVENT B acetonitrile including 0.1% formic acid
MS$FOCUSED_ION: PRECURSOR_TYPE [M+H]+
MS$FOCUSED_ION: PRECURSOR_M/Z 255.0651853
PK$SPLASH: splash10-0f8j-0920000000-103098c5a31e2add5b7a
PK$NUM_PEAK: 200
PK$PEAK: m/z int. rel.int.
  53.03986 9.0 9
  65.03916 36.0 36
  66.71989 5.0 5
  68.99503 17.0 17
  69.0007 15.0 15
  69.03437 5.0 5
  79.0498 5.0 5
  81.03072 8.0 8
  81.03596 16.0 16
  82.0374 14.0 14
  85.69417 5.0 5
  87.73019 16.0 16
  89.03909 16.0 16
  90.03165 8.0 8
  91.03449 13.0 13
  91.0541 355.0 355
  91.97294 9.0 9
  92.06065 20.0 20
  92.74632 5.0 5
  93.02133 5.0 5
  93.03146 31.0 31
  94.0396 12.0 12
  102.68792 6.0 6
  103.03802 7.0 7
  105.02853 6.0 6
  105.03475 27.0 27
  105.04098 7.0 7
  106.03321 5.0 5
  106.04306 21.0 21
  108.88976 7.0 7
  108.96722 5.0 5
  109.02267 7.0 7
  109.03044 12.0 12
  109.03672 8.0 8
  110.02709 10.0 10
  110.2028 12.0 12
  115.0544 28.0 28
  115.06236 15.0 15
  118.03844 6.0 6
  119.03213 16.0 16
  119.0467 79.0 79
  119.0546 35.0 35
  119.15244 5.0 5
  120.01859 10.0 10
  120.05255 27.0 27
  120.9493 6.0 6
  121.02663 45.0 45
  121.03406 57.0 57
  122.03391 21.0 21
  127.05787 16.0 16
  128.04218 11.0 11
  128.05542 76.0 76
  128.06589 116.0 116
  128.12012 5.0 5
  129.05226 13.0 13
  129.06895 194.0 194
  129.08073 12.0 12
  130.05841 11.0 11
  130.07129 16.0 16
  130.08311 6.0 6
  131.03847 23.0 23
  131.05244 59.0 59
  131.07532 13.0 13
  131.08215 20.0 20
  131.59885 6.0 6
  132.05167 7.0 7
  132.85765 6.0 6
  133.02788 55.0 55
  134.01492 6.0 6
  134.03633 60.0 60
  135.04196 10.0 10
  135.04822 6.0 6
  136.97902 9.0 9
  136.99579 5.0 5
  137.00606 23.0 23
  137.02365 841.0 840
  137.17763 8.0 8
  138.01852 13.0 13
  138.02634 28.0 28
  138.03569 9.0 9
  138.30272 5.0 5
  140.05298 6.0 6
  141.07263 56.0 56
  142.08083 9.0 9
  142.92593 5.0 5
  143.07478 8.0 8
  143.08722 78.0 78
  143.11012 6.0 6
  144.0103 8.0 8
  144.08809 10.0 10
  145.01053 11.0 11
  145.02716 153.0 153
  146.02701 7.0 7
  146.03845 10.0 10
  147.04753 17.0 17
  149.02214 78.0 78
  150.02815 17.0 17
  151.05064 28.0 28
  151.05789 39.0 39
  152.03993 12.0 12
  152.06242 325.0 325
  152.09026 5.0 5
  152.1057 6.0 6
  153.07092 613.0 612
  153.50475 7.0 7
  153.85818 6.0 6
  154.06502 17.0 17
  154.07625 58.0 58
  155.05717 7.0 7
  155.08031 19.0 19
  155.09045 5.0 5
  157.04565 9.0 9
  157.06052 58.0 58
  157.06801 75.0 75
  158.04221 5.0 5
  158.07301 34.0 34
  159.07867 8.0 8
  163.02956 7.0 7
  165.07253 29.0 29
  167.0497 9.0 9
  168.05963 8.0 8
  169.0567 15.0 15
  169.06578 7.0 7
  170.03877 5.0 5
  170.06728 10.0 10
  171.08047 166.0 166
  171.09302 30.0 30
  172.08266 13.0 13
  173.08258 6.0 6
  173.83202 11.0 11
  180.0459 7.0 7
  180.06468 5.0 5
  180.99982 5.0 5
  181.03647 7.0 7
  181.0639 853.0 852
  181.11115 5.0 5
  181.17024 5.0 5
  181.80705 7.0 7
  181.97838 8.0 8
  182.06851 237.0 237
  183.06142 6.0 6
  183.07013 6.0 6
  184.05008 163.0 163
  185.04849 15.0 15
  185.06657 22.0 22
  185.73193 5.0 5
  186.418 5.0 5
  188.48634 9.0 9
  191.11072 10.0 10
  196.93068 9.0 9
  197.03989 7.0 7
  197.05609 134.0 134
  197.06906 25.0 25
  197.97849 6.0 6
  198.06299 68.0 68
  198.07237 18.0 18
  198.51462 7.0 7
  199.03264 9.0 9
  199.05467 43.0 43
  199.07669 1000.0 999
  200.04729 9.0 9
  200.06633 25.0 25
  200.07857 67.0 67
  200.09052 12.0 12
  200.29933 6.0 6
  201.0583 6.0 6
  205.83754 6.0 6
  209.06079 74.0 74
  210.05231 5.0 5
  210.06787 33.0 33
  210.08125 7.0 7
  211.06879 22.0 22
  211.08195 5.0 5
  212.02966 8.0 8
  212.04163 18.0 18
  212.06473 5.0 5
  213.0589 12.0 12
  225.02496 8.0 8
  225.05431 11.0 11
  225.10365 10.0 10
  226.05879 34.0 34
  227.04953 12.0 12
  227.06149 85.0 85
  227.07228 233.0 233
  228.05309 9.0 9
  228.06737 13.0 13
  228.08165 27.0 27
  229.1916 6.0 6
  237.03185 18.0 18
  237.0497 81.0 81
  237.0584 204.0 204
  237.1512 7.0 7
  238.04837 7.0 7
  238.06062 34.0 34
  239.0562 6.0 6
  254.99271 11.0 11
  255.01791 17.0 17
  255.03854 17.0 17
  255.06519 428.0 428
  255.13678 8.0 8
//
