ACCESSION: MSBNK-RIKEN-PR300269
RECORD_TITLE: Gelsemine; LC-ESI-QTOF; MS2
DATE: 2019.03.28
AUTHORS: Tetsuya Mori, Center for Sustainable Resource Science, RIKEN
LICENSE: CC BY-NC-SA
PUBLICATION: Tsugawa H., Nakabayashi R., Mori T., Yamada Y., Takahashi M., Rai A., Sugiyama R., Yamamoto H., Nakaya T., Yamazaki M., Kooke R., Bac-Molenaar JA., Oztolan-Erol N., Keurentjes JJB., Arita M., Saito K. (2019) "A cheminformatics approach to characterize metabolomes in stable-isotope-labeled organisms" Nature Methods 16(4):295-298. [doi:10.1038/s41592-019-0358-2]
COMMENT: registered in RIKEN PlaSMA
CH$NAME: Gelsemine
CH$COMPOUND_CLASS: Gelsemium alkaloids
CH$FORMULA: C20H22N2O2
CH$EXACT_MASS: 322.408
CH$SMILES: CN1C[C@@]2(C=C)C3C[C@H]4OC[C@@H]3[C@@H]1[C@@H]2[C@@]41C(O)=NC2=CC=CC=C12
CH$IUPAC: InChI=1S/C20H22N2O2/c1-3-19-10-22(2)16-11-9-24-15(8-13(11)19)20(17(16)19)12-6-4-5-7-14(12)21-18(20)23/h3-7,11,13,15-17H,1,8-10H2,2H3,(H,21,23)/t11-,13?,15+,16+,17-,19-,20-/m0/s1
CH$LINK: INCHIKEY NFYYATWFXNPTRM-ICFOCEFXSA-N
AC$INSTRUMENT: LC, Waters Acquity UPLC System; MS, Waters Xevo G2 Q-Tof
AC$INSTRUMENT_TYPE: LC-ESI-QTOF
AC$MASS_SPECTROMETRY: MS_TYPE MS2
AC$MASS_SPECTROMETRY: ION_MODE POSITIVE
AC$MASS_SPECTROMETRY: COLLISION_ENERGY 6V
AC$MASS_SPECTROMETRY: DESOLVATION_GAS_FLOW 800/h
AC$MASS_SPECTROMETRY: DESOLVATION_TEMPERATURE 450 C
AC$MASS_SPECTROMETRY: IONIZATION ESI
AC$CHROMATOGRAPHY: CAPILLARY_VOLTAGE +3.00 kV
AC$CHROMATOGRAPHY: COLUMN_NAME Acquity bridged ethyl hybrid C18 (1.7 um, 2.1 mm * 100 mm, Waters)
AC$CHROMATOGRAPHY: COLUMN_TEMPERATURE 40 C
AC$CHROMATOGRAPHY: FLOW_GRADIENT A/B = (99.5%/0.5% at 0 min, 99.5%/0.5% at 0.1 min, 20%/80% at 10 min, 0.5%/99.5% at 10.1 min, 0.5%/99.5% at 12.0 min, 99.5%/0.5% at 12.1 min, 99.5%/0.5% at 15.0 min)
AC$CHROMATOGRAPHY: FLOW_RATE 0.3 ml/min at 0 min, 0.3 ml/min at 10 min, 0.4 ml/min at 10.1 min, 0.4 ml/min at 14.4 min, 0.3 ml/min at 14.5 min
AC$CHROMATOGRAPHY: RETENTION_TIME 3.21075
AC$CHROMATOGRAPHY: SOLVENT A water including 0.1% formic acid
AC$CHROMATOGRAPHY: SOLVENT B acetonitrile including 0.1% formic acid
MS$FOCUSED_ION: PRECURSOR_TYPE [M+H]+
MS$FOCUSED_ION: PRECURSOR_M/Z 323.1754044
PK$SPLASH: splash10-00dr-2792000000-271ca5a599705d2e1499
PK$NUM_PEAK: 238
PK$PEAK: m/z int. rel.int.
  70.05162 13.0 13
  70.06481 678.0 677
  70.07504 11.0 11
  71.06843 31.0 31
  71.07584 7.0 7
  72.0807 11.0 11
  73.05249 6.0 6
  84.07529 11.0 11
  84.08332 7.0 7
  86.06113 96.0 96
  88.07073 15.0 15
  88.07656 45.0 45
  91.05614 30.0 30
  94.06563 20.0 20
  96.08085 21.0 21
  103.05316 9.0 9
  104.06081 8.0 8
  105.06991 37.0 37
  106.0554 5.0 5
  106.06716 9.0 9
  108.07697 11.0 11
  109.08302 7.0 7
  115.05612 14.0 14
  116.05943 6.0 6
  116.06464 8.0 8
  117.04628 6.0 6
  117.06962 146.0 146
  118.06082 6.0 6
  118.06864 10.0 10
  119.04462 5.0 5
  120.08382 13.0 13
  120.08884 7.0 7
  121.05823 16.0 16
  121.09549 6.0 6
  124.07302 7.0 7
  128.05923 6.0 6
  129.06146 14.0 14
  129.07108 16.0 16
  130.05388 6.0 6
  130.062 13.0 13
  131.0486 7.0 7
  131.07162 17.0 17
  131.08632 192.0 192
  132.04404 60.0 60
  132.08919 20.0 20
  132.09853 7.0 7
  133.04857 12.0 12
  133.41922 5.0 5
  134.05504 16.0 16
  134.06168 5.0 5
  134.08669 5.0 5
  134.09818 17.0 17
  134.10394 6.0 6
  135.10123 6.0 6
  135.10713 17.0 17
  136.11024 5.0 5
  141.06987 16.0 16
  142.0757 6.0 6
  146.04614 6.0 6
  146.06056 148.0 148
  146.0919 6.0 6
  146.103 14.0 14
  147.10112 15.0 15
  148.09735 6.0 6
  148.10909 17.0 17
  150.07806 9.0 9
  150.09737 12.0 12
  151.08983 7.0 7
  158.06123 122.0 122
  159.05647 10.0 10
  159.06735 43.0 43
  159.08192 96.0 96
  160.08008 21.0 21
  160.1095 25.0 25
  160.11801 7.0 7
  161.09482 9.0 9
  161.121 18.0 18
  162.0558 12.0 12
  162.06058 6.0 6
  162.11012 7.0 7
  162.12505 22.0 22
  162.1328 25.0 25
  163.13043 16.0 16
  164.10329 12.0 12
  164.112 6.0 6
  165.11531 9.0 9
  166.2935 8.0 8
  167.07079 10.0 10
  168.07664 10.0 10
  169.08344 5.0 5
  172.07307 20.0 20
  173.08057 16.0 16
  173.12141 7.0 7
  174.06644 5.0 5
  176.10481 11.0 11
  176.11319 11.0 11
  176.12474 5.0 5
  177.05609 6.0 6
  178.05698 11.0 11
  178.06657 29.0 29
  179.08348 5.0 5
  180.08299 27.0 27
  182.05771 9.0 9
  182.06393 26.0 26
  183.06409 19.0 19
  183.07127 13.0 13
  184.06929 30.0 30
  184.07773 28.0 28
  185.08286 6.0 6
  190.12189 46.0 46
  191.07841 6.0 6
  191.12784 18.0 18
  192.07718 12.0 12
  192.084 26.0 26
  193.08806 24.0 24
  194.09174 9.0 9
  194.10199 9.0 9
  195.06685 379.0 379
  196.07455 279.0 279
  196.11406 7.0 7
  197.07204 31.0 31
  197.0851 41.0 41
  198.07426 6.0 6
  198.09328 19.0 19
  202.0649 5.0 5
  203.07628 29.0 29
  204.06783 14.0 14
  205.08609 11.0 11
  206.09792 13.0 13
  206.50262 5.0 5
  207.0732 8.0 8
  208.05057 6.0 6
  208.06143 23.0 23
  208.07846 128.0 128
  208.08774 40.0 40
  208.1055 9.0 9
  208.11752 6.0 6
  209.07919 15.0 15
  209.09583 8.0 8
  209.10506 8.0 8
  210.0531 6.0 6
  210.09174 184.0 184
  210.12952 22.0 22
  211.08772 18.0 18
  211.09882 10.0 10
  216.07932 18.0 18
  216.09554 6.0 6
  217.05946 8.0 8
  217.08066 10.0 10
  217.0894 15.0 15
  218.09753 228.0 228
  219.09546 40.0 40
  219.10681 22.0 22
  220.06293 7.0 7
  220.07921 11.0 11
  220.09877 6.0 6
  220.11293 21.0 21
  220.12042 6.0 6
  221.07941 13.0 13
  221.12366 11.0 11
  222.07693 6.0 6
  222.08643 10.0 10
  222.09854 20.0 20
  222.10913 6.0 6
  223.09952 9.0 9
  224.06299 9.0 9
  224.10809 6.0 6
  227.12474 5.0 5
  228.06775 8.0 8
  228.07634 18.0 18
  228.08641 12.0 12
  230.0945 19.0 19
  230.1125 8.0 8
  231.09917 7.0 7
  231.11026 6.0 6
  232.07468 7.0 7
  232.1218 6.0 6
  233.07809 6.0 6
  233.08942 11.0 11
  234.08685 39.0 39
  234.11015 11.0 11
  234.12947 10.0 10
  235.11156 5.0 5
  235.95784 6.0 6
  236.07498 6.0 6
  236.10875 893.0 892
  237.07791 10.0 10
  237.10162 56.0 56
  237.1127 144.0 144
  237.12291 37.0 37
  238.12427 166.0 166
  238.23575 5.0 5
  239.1153 6.0 6
  239.12611 25.0 25
  240.09779 10.0 10
  240.1257 7.0 7
  241.08719 20.0 20
  241.13235 9.0 9
  244.11621 18.0 18
  246.09509 29.0 29
  246.13297 7.0 7
  247.09763 18.0 18
  247.13225 8.0 8
  248.1055 28.0 28
  249.09845 18.0 18
  249.11623 19.0 19
  251.08861 5.0 5
  251.11897 17.0 17
  252.119 5.0 5
  252.1297 7.0 7
  254.09602 9.0 9
  254.11629 8.0 8
  256.10962 15.0 15
  256.12329 6.0 6
  257.12415 7.0 7
  258.08182 5.0 5
  259.0946 11.0 11
  261.1347 5.0 5
  262.12363 60.0 60
  263.11224 7.0 7
  263.12332 17.0 17
  263.1358 10.0 10
  264.13452 8.0 8
  268.11819 6.0 6
  268.33575 6.0 6
  274.11633 33.0 33
  274.13226 23.0 23
  275.12265 7.0 7
  275.13583 16.0 16
  279.14725 11.0 11
  280.13116 17.0 17
  292.13297 19.0 19
  293.16672 38.0 38
  294.18448 10.0 10
  295.17664 8.0 8
  323.10547 6.0 6
  323.13437 5.0 5
  323.17593 1000.0 999
//
