ACCESSION: MSBNK-RIKEN-PR301808
RECORD_TITLE: Oxyacanthine; LC-ESI-QTOF; MS2
DATE: 2019.03.28
AUTHORS: Tetsuya Mori, Center for Sustainable Resource Science, RIKEN
LICENSE: CC BY-NC-SA
PUBLICATION: Tsugawa H., Nakabayashi R., Mori T., Yamada Y., Takahashi M., Rai A., Sugiyama R., Yamamoto H., Nakaya T., Yamazaki M., Kooke R., Bac-Molenaar JA., Oztolan-Erol N., Keurentjes JJB., Arita M., Saito K. (2019) "A cheminformatics approach to characterize metabolomes in stable-isotope-labeled organisms" Nature Methods 16(4):295-298. [doi:10.1038/s41592-019-0358-2]
COMMENT: registered in RIKEN PlaSMA
CH$NAME: Oxyacanthine
CH$COMPOUND_CLASS: Lignans, neolignans and related compounds
CH$FORMULA: C37H40N2O6
CH$EXACT_MASS: 608.735
CH$SMILES: COC1=C2OC3=C4C(CC5=CC=C(OC6=C(O)C=CC(C[C@H]7N(C)CCC(=C1)C7=C2)=C6)C=C5)N(C)CCC4=CC(OC)=C3OC
CH$IUPAC: InChI=1S/C37H40N2O6/c1-38-14-12-24-19-32(41-3)33-21-27(24)28(38)17-23-8-11-30(40)31(18-23)44-26-9-6-22(7-10-26)16-29-35-25(13-15-39(29)2)20-34(42-4)36(43-5)37(35)45-33/h6-11,18-21,28-29,40H,12-17H2,1-5H3/t28-,29?/m1/s1
CH$LINK: INCHIKEY HGNHIFJNOKGSKI-FICMROCWSA-N
AC$INSTRUMENT: LC, Waters Acquity UPLC System; MS, Waters Xevo G2 Q-Tof
AC$INSTRUMENT_TYPE: LC-ESI-QTOF
AC$MASS_SPECTROMETRY: MS_TYPE MS2
AC$MASS_SPECTROMETRY: ION_MODE POSITIVE
AC$MASS_SPECTROMETRY: COLLISION_ENERGY 6V
AC$MASS_SPECTROMETRY: DESOLVATION_GAS_FLOW 800/h
AC$MASS_SPECTROMETRY: DESOLVATION_TEMPERATURE 450 C
AC$MASS_SPECTROMETRY: IONIZATION ESI
AC$CHROMATOGRAPHY: CAPILLARY_VOLTAGE +3.00 kV
AC$CHROMATOGRAPHY: COLUMN_NAME Acquity bridged ethyl hybrid C18 (1.7 um, 2.1 mm * 100 mm, Waters)
AC$CHROMATOGRAPHY: COLUMN_TEMPERATURE 40 C
AC$CHROMATOGRAPHY: FLOW_GRADIENT A/B = (99.5%/0.5% at 0 min, 99.5%/0.5% at 0.1 min, 20%/80% at 10 min, 0.5%/99.5% at 10.1 min, 0.5%/99.5% at 12.0 min, 99.5%/0.5% at 12.1 min, 99.5%/0.5% at 15.0 min)
AC$CHROMATOGRAPHY: FLOW_RATE 0.3 ml/min at 0 min, 0.3 ml/min at 10 min, 0.4 ml/min at 10.1 min, 0.4 ml/min at 14.4 min, 0.3 ml/min at 14.5 min
AC$CHROMATOGRAPHY: RETENTION_TIME 3.764483
AC$CHROMATOGRAPHY: SOLVENT A water including 0.1% formic acid
AC$CHROMATOGRAPHY: SOLVENT B acetonitrile including 0.1% formic acid
MS$FOCUSED_ION: PRECURSOR_TYPE [M+H]+
MS$FOCUSED_ION: PRECURSOR_M/Z 609.2959135
PK$SPLASH: splash10-00di-0964120000-40647ff3ed4177db2132
PK$NUM_PEAK: 237
PK$PEAK: m/z int. rel.int.
  74.055 39.0 39
  105.03302 37.0 37
  107.04746 43.0 43
  107.05604 48.0 48
  116.06583 74.0 74
  117.05871 43.0 43
  119.05068 48.0 48
  120.04017 39.0 39
  121.06662 48.0 48
  127.0394 48.0 48
  128.06122 56.0 56
  133.08792 143.0 143
  139.04015 37.0 37
  144.05014 52.0 52
  144.06131 61.0 61
  144.07947 65.0 65
  145.06371 37.0 37
  146.05852 82.0 82
  146.08824 37.0 37
  146.09782 202.0 202
  147.07199 46.0 46
  149.07971 54.0 54
  149.09372 72.0 72
  150.04546 39.0 39
  159.03815 56.0 56
  159.07616 43.0 43
  159.09804 37.0 37
  160.04393 37.0 37
  160.07584 139.0 139
  161.0909 59.0 59
  161.10222 74.0 74
  162.09071 152.0 152
  164.08089 59.0 59
  165.08722 59.0 59
  167.07269 128.0 128
  173.05785 104.0 104
  174.08934 1000.0 999
  175.06458 46.0 46
  175.08023 161.0 161
  175.09062 121.0 121
  175.10168 43.0 43
  176.07019 93.0 93
  176.09964 95.0 95
  176.11588 48.0 48
  177.07414 54.0 54
  177.08391 46.0 46
  177.09279 72.0 72
  177.11133 37.0 37
  177.13771 50.0 50
  179.05743 39.0 39
  179.0799 59.0 59
  180.09935 59.0 59
  181.07065 54.0 54
  181.10249 43.0 43
  187.06152 69.0 69
  188.10448 80.0 80
  189.03348 65.0 65
  189.08745 56.0 56
  190.08208 41.0 41
  190.09492 87.0 87
  192.06499 37.0 37
  192.095 63.0 63
  192.10107 158.0 158
  194.0728 50.0 50
  195.09352 59.0 59
  197.09647 46.0 46
  199.07182 113.0 113
  199.09572 43.0 43
  203.09885 43.0 43
  204.0493 41.0 41
  204.08861 43.0 43
  204.1019 37.0 37
  206.06857 56.0 56
  206.07999 134.0 134
  207.10915 41.0 41
  210.06824 46.0 46
  211.05937 59.0 59
  211.07224 113.0 113
  211.10886 39.0 39
  213.08289 100.0 100
  213.09793 117.0 117
  217.05949 46.0 46
  217.10831 54.0 54
  218.07887 39.0 39
  219.08539 46.0 46
  220.09442 165.0 165
  222.0554 37.0 37
  222.11995 150.0 150
  223.12003 39.0 39
  224.06776 61.0 61
  225.09276 148.0 148
  226.10342 52.0 52
  226.58192 37.0 37
  228.00415 43.0 43
  232.09467 65.0 65
  235.03743 46.0 46
  235.10271 52.0 52
  235.11264 50.0 50
  237.13441 37.0 37
  239.06641 56.0 56
  240.09587 43.0 43
  242.06721 48.0 48
  246.46312 37.0 37
  248.07126 46.0 46
  250.08893 52.0 52
  251.10808 106.0 106
  252.09885 63.0 63
  253.08716 56.0 56
  255.0853 43.0 43
  262.09705 95.0 95
  263.10245 37.0 37
  263.11896 56.0 56
  264.07565 37.0 37
  265.08643 56.0 56
  265.1076 50.0 50
  266.08475 41.0 41
  268.09756 43.0 43
  268.10629 43.0 43
  269.07724 106.0 106
  271.14331 48.0 48
  272.09848 54.0 54
  278.07672 65.0 65
  279.10446 43.0 43
  280.11462 46.0 46
  280.12976 39.0 39
  281.08743 54.0 54
  281.10873 134.0 134
  283.065 43.0 43
  285.11398 85.0 85
  292.10269 37.0 37
  292.11298 46.0 46
  294.1098 37.0 37
  295.10904 43.0 43
  299.04745 61.0 61
  300.12009 63.0 63
  306.11578 95.0 95
  309.12457 87.0 87
  309.14264 108.0 108
  312.14148 48.0 48
  313.15118 56.0 56
  319.08472 43.0 43
  319.13599 37.0 37
  320.09909 59.0 59
  320.12393 41.0 41
  325.1629 37.0 37
  326.17114 46.0 46
  329.12119 52.0 52
  331.08981 41.0 41
  334.1756 65.0 65
  338.09271 59.0 59
  338.13379 82.0 82
  339.15451 80.0 80
  342.02496 67.0 67
  345.0932 37.0 37
  345.11588 41.0 41
  345.14111 93.0 93
  346.14368 39.0 39
  349.15265 91.0 91
  350.12546 52.0 52
  350.14072 67.0 67
  350.15491 54.0 54
  351.18652 37.0 37
  353.13614 65.0 65
  355.20117 37.0 37
  356.14267 48.0 48
  358.11639 54.0 54
  358.14722 106.0 106
  363.15848 37.0 37
  366.15582 56.0 56
  366.16837 39.0 39
  367.13528 46.0 46
  369.1698 65.0 65
  378.14377 50.0 50
  381.12695 39.0 39
  381.15012 41.0 41
  381.17169 74.0 74
  381.19305 139.0 139
  381.20782 52.0 52
  386.16098 130.0 130
  388.20901 50.0 50
  394.13251 106.0 106
  396.15131 61.0 61
  398.16837 48.0 48
  400.16403 39.0 39
  410.09818 39.0 39
  413.12555 50.0 50
  413.13809 52.0 52
  413.17014 39.0 39
  415.68179 54.0 54
  426.13199 41.0 41
  426.19092 41.0 41
  427.02124 43.0 43
  432.18341 76.0 76
  445.18692 39.0 39
  459.17099 39.0 39
  462.17157 37.0 37
  463.28113 72.0 72
  473.16455 46.0 46
  475.15976 37.0 37
  476.1373 41.0 41
  478.1572 43.0 43
  485.17407 43.0 43
  486.18073 39.0 39
  488.16025 37.0 37
  488.19623 54.0 54
  489.18784 50.0 50
  498.19391 41.0 41
  502.19003 59.0 59
  503.17981 37.0 37
  504.18716 39.0 39
  505.26132 41.0 41
  517.20331 48.0 48
  517.2298 76.0 76
  519.24463 52.0 52
  520.20374 59.0 59
  521.20624 39.0 39
  523.21808 46.0 46
  525.21918 54.0 54
  532.22314 39.0 39
  539.21472 37.0 37
  548.21344 37.0 37
  549.19983 39.0 39
  550.20575 167.0 167
  551.23602 54.0 54
  560.85999 43.0 43
  562.20374 39.0 39
  563.22467 37.0 37
  563.25421 43.0 43
  564.27148 43.0 43
  566.22144 54.0 54
  566.26227 50.0 50
  571.9115 41.0 41
  578.24573 54.0 54
  578.27106 50.0 50
  593.28143 67.0 67
  608.25476 43.0 43
  609.31146 46.0 46
//
