ACCESSION: MSBNK-RIKEN-PR303838
RECORD_TITLE: Ginkgolide B; LC-ESI-QTOF; MS2
DATE: 2019.03.28
AUTHORS: Tetsuya Mori, Center for Sustainable Resource Science, RIKEN
LICENSE: CC BY-NC-SA
PUBLICATION: Tsugawa H., Nakabayashi R., Mori T., Yamada Y., Takahashi M., Rai A., Sugiyama R., Yamamoto H., Nakaya T., Yamazaki M., Kooke R., Bac-Molenaar JA., Oztolan-Erol N., Keurentjes JJB., Arita M., Saito K. (2019) "A cheminformatics approach to characterize metabolomes in stable-isotope-labeled organisms" Nature Methods 16(4):295-298. [doi:10.1038/s41592-019-0358-2]
COMMENT: registered in RIKEN PlaSMA
CH$NAME: Ginkgolide B
CH$COMPOUND_CLASS: Ginkgolides and bilobalides
CH$FORMULA: C20H24O10
CH$EXACT_MASS: 424.402
CH$SMILES: C[C@@H]1C(=O)O[C@H]2[C@H](O)[C@@]34[C@H]5C[C@@H](C(C)(C)C)[C@@]33[C@@H](O)C(=O)O[C@H]3O[C@@]4(C(=O)O5)[C@@]12O
CH$IUPAC: InChI=1S/C20H24O10/c1-6-12(23)28-11-9(21)18-8-5-7(16(2,3)4)17(18)10(22)13(24)29-15(17)30-20(18,14(25)27-8)19(6,11)26/h6-11,15,21-22,26H,5H2,1-4H3/t6-,7+,8-,9+,10+,11+,15+,17+,18+,19-,20-/m1/s1
CH$LINK: INCHIKEY SQOJOAFXDQDRGF-MMQTXUMRSA-N
AC$INSTRUMENT: LC, Waters Acquity UPLC System; MS, Waters Xevo G2 Q-Tof
AC$INSTRUMENT_TYPE: LC-ESI-QTOF
AC$MASS_SPECTROMETRY: MS_TYPE MS2
AC$MASS_SPECTROMETRY: ION_MODE POSITIVE
AC$MASS_SPECTROMETRY: COLLISION_ENERGY 6V
AC$MASS_SPECTROMETRY: DESOLVATION_GAS_FLOW 800/h
AC$MASS_SPECTROMETRY: DESOLVATION_TEMPERATURE 450 C
AC$MASS_SPECTROMETRY: IONIZATION ESI
AC$CHROMATOGRAPHY: CAPILLARY_VOLTAGE +3.00 kV
AC$CHROMATOGRAPHY: COLUMN_NAME Acquity bridged ethyl hybrid C18 (1.7 um, 2.1 mm * 100 mm, Waters)
AC$CHROMATOGRAPHY: COLUMN_TEMPERATURE 40 C
AC$CHROMATOGRAPHY: FLOW_GRADIENT A/B = (99.5%/0.5% at 0 min, 99.5%/0.5% at 0.1 min, 20%/80% at 10 min, 0.5%/99.5% at 10.1 min, 0.5%/99.5% at 12.0 min, 99.5%/0.5% at 12.1 min, 99.5%/0.5% at 15.0 min)
AC$CHROMATOGRAPHY: FLOW_RATE 0.3 ml/min at 0 min, 0.3 ml/min at 10 min, 0.4 ml/min at 10.1 min, 0.4 ml/min at 14.4 min, 0.3 ml/min at 14.5 min
AC$CHROMATOGRAPHY: RETENTION_TIME 5.359533
AC$CHROMATOGRAPHY: SOLVENT A water including 0.1% formic acid
AC$CHROMATOGRAPHY: SOLVENT B acetonitrile including 0.1% formic acid
MS$FOCUSED_ION: PRECURSOR_TYPE [M+H]+
MS$FOCUSED_ION: PRECURSOR_M/Z 425.1442234
PK$SPLASH: splash10-05ox-0920000000-2a73738c4a734754f9b0
PK$NUM_PEAK: 221
PK$PEAK: m/z int. rel.int.
  67.05799 70.0 70
  79.05592 238.0 238
  83.01524 168.0 168
  83.08632 66.0 66
  91.05051 109.0 109
  93.06996 246.0 246
  94.0759 86.0 86
  95.07687 113.0 113
  95.08984 98.0 98
  96.08316 82.0 82
  97.02826 102.0 102
  101.016 78.0 78
  103.04678 78.0 78
  103.05515 141.0 141
  105.03168 74.0 74
  105.07201 86.0 86
  105.07797 82.0 82
  107.05061 129.0 129
  110.06885 70.0 70
  113.02793 105.0 105
  115.05145 66.0 66
  115.05806 66.0 66
  117.06213 121.0 121
  117.06799 70.0 70
  119.08753 86.0 86
  121.06363 234.0 234
  121.0682 82.0 82
  123.04807 66.0 66
  125.02911 70.0 70
  125.06451 70.0 70
  127.05843 262.0 262
  128.05934 406.0 406
  128.06656 156.0 156
  129.06975 988.0 987
  130.06215 70.0 70
  130.07095 66.0 66
  130.08002 168.0 168
  131.08821 242.0 242
  132.05321 211.0 211
  133.02751 270.0 270
  134.03961 70.0 70
  135.03944 117.0 117
  135.08957 78.0 78
  136.04897 82.0 82
  137.06114 82.0 82
  137.09032 102.0 102
  139.04034 82.0 82
  139.05666 74.0 74
  141.0668 148.0 148
  141.07335 242.0 242
  142.04211 78.0 78
  142.08081 621.0 620
  143.04523 309.0 309
  143.05394 62.0 62
  143.08156 1000.0 999
  144.05727 90.0 90
  144.09906 74.0 74
  144.98639 70.0 70
  145.06754 277.0 277
  145.10069 301.0 301
  147.04079 207.0 207
  147.07919 86.0 86
  148.04282 98.0 98
  149.0627 94.0 94
  150.022 74.0 74
  151.05711 70.0 70
  152.06667 66.0 66
  153.07149 199.0 199
  153.07777 125.0 125
  154.0757 94.0 94
  154.08185 66.0 66
  155.04601 78.0 78
  155.05045 164.0 164
  155.08511 367.0 367
  156.09018 301.0 301
  157.06987 230.0 230
  157.09897 574.0 573
  158.07095 246.0 246
  159.04359 172.0 172
  159.06458 66.0 66
  159.0816 227.0 227
  159.09286 78.0 78
  159.11842 102.0 102
  161.02716 270.0 270
  161.05275 102.0 102
  161.06328 74.0 74
  161.09987 168.0 168
  162.06624 98.0 98
  163.03635 203.0 203
  165.01793 297.0 297
  165.07095 418.0 418
  167.08835 477.0 477
  167.09422 148.0 148
  168.08846 219.0 219
  169.00966 74.0 74
  169.06285 74.0 74
  169.06944 78.0 78
  170.10306 234.0 234
  171.03094 102.0 102
  171.04605 160.0 160
  171.08147 164.0 164
  171.10982 74.0 74
  171.11798 145.0 145
  172.08815 141.0 141
  173.06241 98.0 98
  175.03647 305.0 305
  175.04298 152.0 152
  176.11391 191.0 191
  177.01312 70.0 70
  177.07854 82.0 82
  178.05206 90.0 90
  178.08261 74.0 74
  179.08347 82.0 82
  179.0923 86.0 86
  180.08725 86.0 86
  181.09793 145.0 145
  182.10478 152.0 152
  183.08411 316.0 316
  183.11801 90.0 90
  184.08633 70.0 70
  184.09395 66.0 66
  185.02774 102.0 102
  185.05603 434.0 434
  185.10416 172.0 172
  186.07047 105.0 105
  187.06268 86.0 86
  187.07544 340.0 340
  187.11287 66.0 66
  188.02672 86.0 86
  189.02196 70.0 70
  189.03528 66.0 66
  189.04617 90.0 90
  189.09427 82.0 82
  190.06383 78.0 78
  191.03258 66.0 66
  191.07713 90.0 90
  191.09192 86.0 86
  192.0405 152.0 152
  192.08342 109.0 109
  192.10236 156.0 156
  193.01456 74.0 74
  193.26186 70.0 70
  194.07892 195.0 195
  194.10481 66.0 66
  195.07603 117.0 117
  195.08643 137.0 137
  195.10637 113.0 113
  195.11899 176.0 176
  195.17841 152.0 152
  196.08719 133.0 133
  196.10222 70.0 70
  197.09654 414.0 414
  199.06477 70.0 70
  199.07735 82.0 82
  200.11786 74.0 74
  201.05511 180.0 180
  201.09331 188.0 188
  202.06367 113.0 113
  203.07028 242.0 242
  203.10776 66.0 66
  204.05243 113.0 113
  205.10278 160.0 160
  207.07463 199.0 199
  207.08469 78.0 78
  208.03661 66.0 66
  209.06212 82.0 82
  209.0732 70.0 70
  209.09772 86.0 86
  210.07018 70.0 70
  210.1028 301.0 301
  211.07106 219.0 219
  211.08504 66.0 66
  211.10486 129.0 129
  213.05608 78.0 78
  213.0872 78.0 78
  213.09937 66.0 66
  213.12328 66.0 66
  214.09529 66.0 66
  215.05762 78.0 78
  215.0695 285.0 285
  215.11009 277.0 277
  216.03986 168.0 168
  216.71202 70.0 70
  217.05183 66.0 66
  218.04616 78.0 78
  219.07314 66.0 66
  221.09789 78.0 78
  223.0815 98.0 98
  223.10558 82.0 82
  225.0974 78.0 78
  227.04361 74.0 74
  227.07513 70.0 70
  227.10429 105.0 105
  229.04898 70.0 70
  229.07718 78.0 78
  231.06322 74.0 74
  235.06828 74.0 74
  235.10432 145.0 145
  236.08493 70.0 70
  237.09935 74.0 74
  238.09518 215.0 215
  239.06941 78.0 78
  240.06752 66.0 66
  241.04341 113.0 113
  241.07074 86.0 86
  241.10266 109.0 109
  243.06644 82.0 82
  245.06744 66.0 66
  252.11415 78.0 78
  254.10191 164.0 164
  260.09409 66.0 66
  260.11728 74.0 74
  266.09085 70.0 70
  267.31485 66.0 66
  268.07178 66.0 66
  269.12863 109.0 109
  271.07526 90.0 90
  280.082 78.0 78
  281.13602 66.0 66
  282.07867 94.0 94
  305.0986 70.0 70
//
