ACCESSION: MSBNK-RIKEN-PR311104
RECORD_TITLE: Pumiloside; LC-ESI-QTOF; MS2
DATE: 2019.03.28
AUTHORS: Tetsuya Mori, Center for Sustainable Resource Science, RIKEN
LICENSE: CC BY-NC-SA
PUBLICATION: Tsugawa H., Nakabayashi R., Mori T., Yamada Y., Takahashi M., Rai A., Sugiyama R., Yamamoto H., Nakaya T., Yamazaki M., Kooke R., Bac-Molenaar JA., Oztolan-Erol N., Keurentjes JJB., Arita M., Saito K. (2019) "A cheminformatics approach to characterize metabolomes in stable-isotope-labeled organisms" Nature Methods 16(4):295-298. [doi:10.1038/s41592-019-0358-2]
COMMENT: Annotation level-3
CH$NAME: Pumiloside
CH$COMPOUND_CLASS: Carbolines
CH$FORMULA: C26H28N2O9
CH$EXACT_MASS: 512.515
CH$SMILES: O=C1C=6C=CC=CC=6(NC4=C1CN5C(=O)C3=COC(OC2OC(CO)C(O)C(O)C2(O))C(C=C)C3CC45)
CH$IUPAC: InChI=1S/C26H28N2O9/c1-2-11-13-7-17-19-14(20(30)12-5-3-4-6-16(12)27-19)8-28(17)24(34)15(13)10-35-25(11)37-26-23(33)22(32)21(31)18(9-29)36-26/h2-6,10-11,13,17-18,21-23,25-26,29,31-33H,1,7-9H2,(H,27,30)
CH$LINK: INCHIKEY ODQBQUXGRYBRTP-UHFFFAOYSA-N
AC$INSTRUMENT: LC, Waters Acquity UPLC System; MS, Waters Xevo G2 Q-Tof
AC$INSTRUMENT_TYPE: LC-ESI-QTOF
AC$MASS_SPECTROMETRY: MS_TYPE MS2
AC$MASS_SPECTROMETRY: ION_MODE POSITIVE
AC$MASS_SPECTROMETRY: COLLISION_ENERGY 6V
AC$MASS_SPECTROMETRY: DESOLVATION_GAS_FLOW 800/h
AC$MASS_SPECTROMETRY: DESOLVATION_TEMPERATURE 450 C
AC$MASS_SPECTROMETRY: IONIZATION ESI
AC$CHROMATOGRAPHY: CAPILLARY_VOLTAGE +3.00 kV
AC$CHROMATOGRAPHY: COLUMN_NAME Acquity bridged ethyl hybrid C18 (1.7 um, 2.1 mm * 100 mm, Waters)
AC$CHROMATOGRAPHY: COLUMN_TEMPERATURE 40 C
AC$CHROMATOGRAPHY: FLOW_GRADIENT A/B = (99.5%/0.5% at 0 min, 99.5%/0.5% at 0.1 min, 20%/80% at 10 min, 0.5%/99.5% at 10.1 min, 0.5%/99.5% at 12.0 min, 99.5%/0.5% at 12.1 min, 99.5%/0.5% at 15.0 min)
AC$CHROMATOGRAPHY: FLOW_RATE 0.3 ml/min at 0 min, 0.3 ml/min at 10 min, 0.4 ml/min at 10.1 min, 0.4 ml/min at 14.4 min, 0.3 ml/min at 14.5 min
AC$CHROMATOGRAPHY: RETENTION_TIME 4.07
AC$CHROMATOGRAPHY: SOLVENT A water including 0.1% formic acid
AC$CHROMATOGRAPHY: SOLVENT B acetonitrile including 0.1% formic acid
MS$FOCUSED_ION: PRECURSOR_TYPE [M+H]+
MS$FOCUSED_ION: PRECURSOR_M/Z 513.1911
PK$SPLASH: splash10-0il0-0259060000-091b7213f127142302ce
PK$NUM_PEAK: 203
PK$PEAK: m/z int. rel.int.
  91.05442 17.0 2
  108.12224 20.0 2
  120.04905 52.0 5
  121.04942 27.0 2
  122.07607 34.0 3
  124.03106 37.0 3
  124.04387 19.0 2
  131.08638 25.0 2
  138.41479 16.0 1
  146.06264 16.0 1
  148.07762 16.0 1
  149.05545 36.0 3
  149.06416 24.0 2
  149.07848 18.0 2
  150.06438 18.0 2
  158.02539 22.0 2
  158.06355 721.0 64
  159.0609 19.0 2
  160.07404 16.0 1
  163.04172 20.0 2
  172.07582 17.0 2
  175.05714 17.0 2
  176.06085 62.0 6
  176.07047 65.0 6
  176.07791 34.0 3
  182.06067 34.0 3
  183.07413 16.0 1
  184.0612 32.0 3
  184.07495 39.0 3
  184.08322 32.0 3
  185.04726 18.0 2
  185.07294 1445.0 129
  185.80875 16.0 1
  186.06255 138.0 12
  186.07506 445.0 40
  186.08466 406.0 36
  187.07979 119.0 11
  187.08766 78.0 7
  187.09679 17.0 2
  188.09453 17.0 2
  194.8494 18.0 2
  196.06583 58.0 5
  196.07211 35.0 3
  196.0869 18.0 2
  197.07596 41.0 4
  197.08141 18.0 2
  198.08766 23.0 2
  199.08623 121.0 11
  201.47874 21.0 2
  208.06613 52.0 5
  208.09048 21.0 2
  209.09325 24.0 2
  209.29306 17.0 2
  211.08372 45.0 4
  211.09229 23.0 2
  211.12625 22.0 2
  213.04825 16.0 1
  213.06628 16.0 1
  213.10831 16.0 1
  213.33524 16.0 1
  213.78249 29.0 3
  214.078 37.0 3
  215.97346 16.0 1
  222.07246 16.0 1
  222.09381 19.0 2
  223.04587 20.0 2
  223.17461 22.0 2
  225.09143 18.0 2
  227.08919 27.0 2
  232.11209 17.0 2
  235.0862 37.0 3
  235.0961 71.0 6
  236.05031 16.0 1
  236.06284 16.0 1
  236.07805 101.0 9
  236.08542 59.0 5
  237.0654 34.0 3
  237.07487 24.0 2
  239.08771 19.0 2
  242.97513 18.0 2
  243.64964 17.0 2
  247.07585 37.0 3
  247.37503 16.0 1
  248.00626 16.0 1
  249.09503 45.0 4
  251.08292 46.0 4
  251.09009 16.0 1
  252.07318 48.0 4
  252.09268 85.0 8
  254.09311 34.0 3
  255.55197 16.0 1
  258.10641 17.0 2
  260.12436 30.0 3
  261.10309 17.0 2
  261.50354 22.0 2
  262.11295 20.0 2
  262.13983 31.0 3
  263.07309 123.0 11
  263.08847 262.0 23
  264.06024 134.0 12
  264.08554 140.0 12
  264.11105 24.0 2
  265.06708 27.0 2
  265.07968 16.0 1
  265.08939 17.0 2
  266.06592 23.0 2
  267.08902 16.0 1
  268.74344 17.0 2
  278.14316 16.0 1
  280.078 40.0 4
  280.09015 36.0 3
  280.83838 16.0 1
  281.01376 17.0 2
  281.09247 4902.0 437
  281.17108 20.0 2
  282.08783 336.0 30
  282.10236 1072.0 95
  283.08014 25.0 2
  283.09641 125.0 11
  283.10941 38.0 3
  283.12039 17.0 2
  283.44394 17.0 2
  284.10748 20.0 2
  284.11954 17.0 2
  285.08298 20.0 2
  287.0798 20.0 2
  287.10034 20.0 2
  287.11121 30.0 3
  287.33459 20.0 2
  288.09045 21.0 2
  288.10501 20.0 2
  289.09146 18.0 2
  290.09818 38.0 3
  290.11462 84.0 7
  290.12817 41.0 4
  290.48053 16.0 1
  291.16611 20.0 2
  291.60776 20.0 2
  291.97488 17.0 2
  295.15152 16.0 1
  301.22879 16.0 1
  301.83624 22.0 2
  303.08551 16.0 1
  303.10709 65.0 6
  303.12631 89.0 8
  304.09717 21.0 2
  304.11487 76.0 7
  304.12988 43.0 4
  304.41232 17.0 2
  305.12286 228.0 20
  305.13889 304.0 27
  306.12512 81.0 7
  306.13815 113.0 10
  306.2179 20.0 2
  306.24649 17.0 2
  306.51489 16.0 1
  307.13898 17.0 2
  307.15323 17.0 2
  308.13635 16.0 1
  310.12253 16.0 1
  310.70639 17.0 2
  315.12634 19.0 2
  315.23343 26.0 2
  315.95837 26.0 2
  316.11316 20.0 2
  321.98868 17.0 2
  323.13718 35.0 3
  323.15732 16.0 1
  333.12268 1295.0 115
  333.1322 600.0 53
  333.20065 20.0 2
  333.80386 20.0 2
  333.97705 18.0 2
  334.10745 51.0 5
  334.12424 142.0 13
  334.13821 114.0 10
  335.12827 40.0 4
  346.53345 17.0 2
  349.47101 24.0 2
  350.28442 23.0 2
  351.07047 24.0 2
  351.13397 8732.0 778
  351.21344 20.0 2
  352.08228 21.0 2
  352.09375 16.0 1
  352.13409 1677.0 149
  352.1488 620.0 55
  352.17081 16.0 1
  353.12659 68.0 6
  353.14349 212.0 19
  354.14249 18.0 2
  354.15619 20.0 2
  357.77646 16.0 1
  420.97519 17.0 2
  421.29874 16.0 1
  429.14386 18.0 2
  443.1489 18.0 2
  474.03217 20.0 2
  511.22836 21.0 2
  512.82605 17.0 2
  513.10901 34.0 3
  513.12482 51.0 5
  513.18542 11217.0 999
//
