ACCESSION: MSBNK-RIKEN-PR305557
RECORD_TITLE: Luteolin-6-C-glucoside; LC-ESI-QTOF; MS2
DATE: 2019.03.28
AUTHORS: Tetsuya Mori, Center for Sustainable Resource Science, RIKEN
LICENSE: CC BY-NC-SA
PUBLICATION: Tsugawa H., Nakabayashi R., Mori T., Yamada Y., Takahashi M., Rai A., Sugiyama R., Yamamoto H., Nakaya T., Yamazaki M., Kooke R., Bac-Molenaar JA., Oztolan-Erol N., Keurentjes JJB., Arita M., Saito K. (2019) "A cheminformatics approach to characterize metabolomes in stable-isotope-labeled organisms" Nature Methods 16(4):295-298. [doi:10.1038/s41592-019-0358-2]
COMMENT: registered in RIKEN PlaSMA
CH$NAME: Luteolin-6-C-glucoside
CH$COMPOUND_CLASS: Flavonoid C-glycosides
CH$FORMULA: C21H20O11
CH$EXACT_MASS: 448.38
CH$SMILES: OCC1OC(C(O)C(O)C1O)C1=C(O)C2=C(OC(=CC2=O)C2=CC(O)=C(O)C=C2)C=C1O
CH$IUPAC: InChI=1S/C21H20O11/c22-6-14-17(27)19(29)20(30)21(32-14)16-11(26)5-13-15(18(16)28)10(25)4-12(31-13)7-1-2-8(23)9(24)3-7/h1-5,14,17,19-24,26-30H,6H2
CH$LINK: INCHIKEY ODBRNZZJSYPIDI-UHFFFAOYSA-N
AC$INSTRUMENT: LC, Waters Acquity UPLC System; MS, Waters Xevo G2 Q-Tof
AC$INSTRUMENT_TYPE: LC-ESI-QTOF
AC$MASS_SPECTROMETRY: MS_TYPE MS2
AC$MASS_SPECTROMETRY: ION_MODE NEGATIVE
AC$MASS_SPECTROMETRY: COLLISION_ENERGY 6V
AC$MASS_SPECTROMETRY: DESOLVATION_GAS_FLOW 800/h
AC$MASS_SPECTROMETRY: DESOLVATION_TEMPERATURE 450 C
AC$MASS_SPECTROMETRY: IONIZATION ESI
AC$CHROMATOGRAPHY: CAPILLARY_VOLTAGE -2.75 kV
AC$CHROMATOGRAPHY: COLUMN_NAME Acquity bridged ethyl hybrid C18 (1.7 um, 2.1 mm * 100 mm, Waters)
AC$CHROMATOGRAPHY: COLUMN_TEMPERATURE 40 C
AC$CHROMATOGRAPHY: FLOW_GRADIENT A/B = (99.5%/0.5% at 0 min, 99.5%/0.5% at 0.1 min, 20%/80% at 10 min, 0.5%/99.5% at 10.1 min, 0.5%/99.5% at 12.0 min, 99.5%/0.5% at 12.1 min, 99.5%/0.5% at 15.0 min)
AC$CHROMATOGRAPHY: FLOW_RATE 0.3 ml/min at 0 min, 0.3 ml/min at 10 min, 0.4 ml/min at 10.1 min, 0.4 ml/min at 14.4 min, 0.3 ml/min at 14.5 min
AC$CHROMATOGRAPHY: RETENTION_TIME 3.594683
AC$CHROMATOGRAPHY: SOLVENT A water including 0.1% formic acid
AC$CHROMATOGRAPHY: SOLVENT B acetonitrile including 0.1% formic acid
MS$FOCUSED_ION: PRECURSOR_TYPE [M-H]-
MS$FOCUSED_ION: PRECURSOR_M/Z 447.09328504783
PK$SPLASH: splash10-001i-0950000000-f9d70f49e53a7bbf167e
PK$NUM_PEAK: 200
PK$PEAK: m/z int. rel.int.
  66.00217 11.0 11
  67.017 20.0 20
  77.03884 49.0 49
  79.01469 13.0 13
  86.37057 19.0 19
  91.01744 10.0 10
  91.05314 13.0 13
  92.02891 23.0 23
  93.0321 10.0 10
  94.00752 11.0 11
  95.01223 12.0 12
  97.03191 10.0 10
  101.03456 11.0 11
  103.01727 10.0 10
  103.05396 17.0 17
  103.05939 26.0 26
  105.02873 25.0 25
  105.03347 36.0 36
  107.01088 111.0 111
  107.02143 11.0 11
  107.05586 40.0 40
  108.02197 23.0 23
  109.02855 136.0 136
  110.03336 43.0 43
  115.01921 10.0 10
  115.35162 19.0 19
  117.03194 23.0 23
  119.0471 12.0 12
  121.02605 37.0 37
  121.03268 33.0 33
  122.02936 13.0 13
  125.03633 13.0 13
  127.05425 11.0 11
  129.03142 11.0 11
  131.05264 13.0 13
  132.0208 60.0 60
  133.0282 1000.0 999
  134.02885 61.0 61
  134.03589 125.0 125
  135.00092 22.0 22
  135.01195 24.0 24
  135.04286 78.0 78
  136.01166 12.0 12
  136.04594 23.0 23
  136.93178 18.0 18
  137.01805 23.0 23
  139.04002 15.0 15
  141.07513 21.0 21
  142.03951 12.0 12
  144.06081 15.0 15
  145.02824 54.0 54
  147.00485 14.0 14
  147.03427 15.0 15
  147.04608 10.0 10
  148.01671 45.0 45
  149.02158 38.0 38
  149.02963 13.0 13
  150.0229 18.0 18
  150.99998 88.0 88
  151.03981 54.0 54
  153.02979 19.0 19
  153.06998 13.0 13
  157.03099 19.0 19
  157.06181 25.0 25
  157.99788 14.0 14
  158.03792 14.0 14
  159.03975 24.0 24
  159.04828 43.0 43
  161.0195 79.0 79
  161.02965 23.0 23
  162.03027 30.0 30
  163.0022 91.0 91
  163.03534 10.0 10
  163.04524 54.0 54
  164.01208 13.0 13
  165.00786 16.0 16
  165.01738 49.0 49
  167.05017 11.0 11
  168.05026 16.0 16
  169.06392 36.0 36
  169.07082 22.0 22
  170.03935 24.0 24
  170.07585 10.0 10
  171.04713 68.0 68
  173.02409 22.0 22
  173.04919 53.0 53
  174.03152 39.0 39
  174.04561 12.0 12
  175.00401 14.0 14
  175.03699 96.0 96
  176.01241 19.0 19
  176.04428 29.0 29
  177.02179 19.0 19
  177.05963 13.0 13
  178.01555 11.0 11
  181.4762 10.0 10
  182.07408 27.0 27
  183.03627 38.0 38
  183.04897 16.0 16
  184.0475 23.0 23
  184.06665 10.0 10
  185.06071 15.0 15
  186.06271 17.0 17
  187.04193 11.0 11
  188.00801 11.0 11
  188.04059 14.0 14
  189.02383 16.0 16
  189.98712 33.0 33
  191.03679 13.0 13
  192.00746 28.0 28
  195.04845 16.0 16
  196.04759 27.0 27
  197.05492 48.0 48
  198.02707 35.0 35
  199.03748 24.0 24
  199.0554 24.0 24
  200.03938 14.0 14
  200.04527 25.0 25
  201.01111 21.0 21
  201.02135 39.0 39
  201.06775 18.0 18
  202.02039 12.0 12
  203.07478 19.0 19
  205.01562 54.0 54
  208.05051 28.0 28
  209.05801 13.0 13
  211.0437 24.0 24
  212.02856 13.0 13
  212.04541 23.0 23
  213.05641 55.0 55
  215.03938 29.0 29
  221.71829 11.0 11
  222.02483 13.0 13
  223.03503 35.0 35
  224.03813 22.0 22
  225.05151 121.0 121
  226.0321 12.0 12
  226.04768 15.0 15
  226.06178 16.0 16
  227.03999 42.0 42
  227.07285 18.0 18
  228.04187 30.0 30
  228.06717 27.0 27
  229.04794 24.0 24
  231.05551 17.0 17
  236.03883 10.0 10
  237.06172 11.0 11
  239.03737 53.0 53
  239.08452 17.0 17
  240.04153 73.0 73
  240.05025 18.0 18
  241.04674 38.0 38
  241.06767 27.0 27
  242.05789 14.0 14
  242.06473 28.0 28
  243.06252 42.0 42
  251.02928 27.0 27
  251.04408 12.0 12
  253.0401 28.0 28
  253.05034 28.0 28
  254.04536 12.0 12
  255.02295 27.0 27
  255.04034 18.0 18
  255.06274 35.0 35
  264.03738 13.0 13
  267.03018 21.0 21
  267.06125 12.0 12
  268.02838 20.0 20
  268.03937 12.0 12
  269.04361 162.0 162
  270.05219 22.0 22
  270.065 18.0 18
  270.16901 10.0 10
  271.05685 12.0 12
  279.03238 23.0 23
  279.05444 13.0 13
  281.04129 22.0 22
  281.05301 13.0 13
  282.01242 12.0 12
  282.04892 29.0 29
  284.03101 111.0 111
  285.03439 57.0 57
  286.04694 14.0 14
  287.04053 11.0 11
  296.0321 11.0 11
  297.0228 52.0 52
  297.03583 170.0 170
  297.05981 26.0 26
  298.04373 73.0 73
  298.06165 48.0 48
  299.04608 22.0 22
  299.06799 22.0 22
  299.15445 16.0 16
  309.02811 13.0 13
  310.05875 11.0 11
  311.02203 13.0 13
  312.04953 22.0 22
  338.05542 11.0 11
  340.043 13.0 13
  349.30771 11.0 11
//
