ACCESSION: MSBNK-RIKEN-PR300074
RECORD_TITLE: Tabersonine; LC-ESI-QTOF; MS2
DATE: 2019.03.28
AUTHORS: Tetsuya Mori, Center for Sustainable Resource Science, RIKEN
LICENSE: CC BY-NC-SA
PUBLICATION: Tsugawa H., Nakabayashi R., Mori T., Yamada Y., Takahashi M., Rai A., Sugiyama R., Yamamoto H., Nakaya T., Yamazaki M., Kooke R., Bac-Molenaar JA., Oztolan-Erol N., Keurentjes JJB., Arita M., Saito K. (2019) "A cheminformatics approach to characterize metabolomes in stable-isotope-labeled organisms" Nature Methods 16(4):295-298. [doi:10.1038/s41592-019-0358-2]
COMMENT: registered in RIKEN PlaSMA
CH$NAME: Tabersonine
CH$COMPOUND_CLASS: Plumeran-type alkaloids
CH$FORMULA: C21H24N2O2
CH$EXACT_MASS: 336.435
CH$SMILES: CC[C@@]12CC(C(=O)OC)=C3NC4=CC=CC=C4[C@@]33CCN(CC=C1)[C@@H]23
CH$IUPAC: InChI=1S/C21H24N2O2/c1-3-20-9-6-11-23-12-10-21(19(20)23)15-7-4-5-8-16(15)22-17(21)14(13-20)18(24)25-2/h4-9,19,22H,3,10-13H2,1-2H3/t19-,20-,21-/m0/s1
CH$LINK: INCHIKEY FNGGIPWAZSFKCN-ACRUOGEOSA-N
AC$INSTRUMENT: LC, Waters Acquity UPLC System; MS, Waters Xevo G2 Q-Tof
AC$INSTRUMENT_TYPE: LC-ESI-QTOF
AC$MASS_SPECTROMETRY: MS_TYPE MS2
AC$MASS_SPECTROMETRY: ION_MODE POSITIVE
AC$MASS_SPECTROMETRY: COLLISION_ENERGY 6V
AC$MASS_SPECTROMETRY: DESOLVATION_GAS_FLOW 800/h
AC$MASS_SPECTROMETRY: DESOLVATION_TEMPERATURE 450 C
AC$MASS_SPECTROMETRY: IONIZATION ESI
AC$CHROMATOGRAPHY: CAPILLARY_VOLTAGE +3.00 kV
AC$CHROMATOGRAPHY: COLUMN_NAME Acquity bridged ethyl hybrid C18 (1.7 um, 2.1 mm * 100 mm, Waters)
AC$CHROMATOGRAPHY: COLUMN_TEMPERATURE 40 C
AC$CHROMATOGRAPHY: FLOW_GRADIENT A/B = (99.5%/0.5% at 0 min, 99.5%/0.5% at 0.1 min, 20%/80% at 10 min, 0.5%/99.5% at 10.1 min, 0.5%/99.5% at 12.0 min, 99.5%/0.5% at 12.1 min, 99.5%/0.5% at 15.0 min)
AC$CHROMATOGRAPHY: FLOW_RATE 0.3 ml/min at 0 min, 0.3 ml/min at 10 min, 0.4 ml/min at 10.1 min, 0.4 ml/min at 14.4 min, 0.3 ml/min at 14.5 min
AC$CHROMATOGRAPHY: RETENTION_TIME 5.19835
AC$CHROMATOGRAPHY: SOLVENT A water including 0.1% formic acid
AC$CHROMATOGRAPHY: SOLVENT B acetonitrile including 0.1% formic acid
MS$FOCUSED_ION: PRECURSOR_TYPE [M+H]+
MS$FOCUSED_ION: PRECURSOR_M/Z 337.1910545
PK$SPLASH: splash10-066s-0941000000-240487e8fe16af33fb5e
PK$NUM_PEAK: 190
PK$PEAK: m/z int. rel.int.
  68.05019 6.0 6
  78.03305 6.0 6
  79.05383 8.0 8
  80.04842 27.0 27
  81.05492 7.0 7
  81.07023 11.0 11
  91.05129 7.0 7
  93.06947 11.0 11
  94.06682 10.0 10
  95.08507 7.0 7
  105.07143 8.0 8
  107.07265 9.0 9
  107.08345 25.0 25
  108.08021 58.0 58
  110.09956 9.0 9
  115.05379 5.0 5
  117.06881 7.0 7
  119.06798 6.0 6
  119.08585 12.0 12
  120.07111 6.0 6
  120.07741 6.0 6
  121.08611 14.0 14
  122.08569 8.0 8
  122.09601 113.0 113
  123.09621 10.0 10
  124.11197 12.0 12
  128.06071 10.0 10
  129.06927 24.0 24
  130.06633 41.0 41
  131.07045 15.0 15
  132.08189 23.0 23
  134.08629 18.0 18
  134.09612 57.0 57
  135.10132 11.0 11
  136.11177 388.0 388
  137.08615 7.0 7
  137.11705 34.0 34
  142.06142 6.0 6
  142.06889 19.0 19
  143.06433 5.0 5
  143.07359 7.0 7
  143.08199 10.0 10
  143.0896 6.0 6
  144.08113 177.0 177
  145.0735 8.0 8
  145.08275 14.0 14
  146.09424 18.0 18
  153.06799 5.0 5
  154.06406 47.0 47
  155.07133 45.0 45
  156.05856 6.0 6
  156.07991 252.0 252
  156.09581 7.0 7
  157.0722 6.0 6
  157.08415 50.0 50
  158.08873 21.0 21
  160.07182 11.0 11
  160.11209 8.0 8
  162.0872 42.0 42
  163.09705 8.0 8
  167.07249 52.0 52
  168.04424 16.0 16
  168.05989 10.0 10
  168.07921 1000.0 999
  169.06729 14.0 14
  169.08279 195.0 195
  170.05789 26.0 26
  170.09517 311.0 311
  171.06018 5.0 5
  171.06741 5.0 5
  171.0909 26.0 26
  171.10188 41.0 41
  174.08983 10.0 10
  180.07617 5.0 5
  180.0826 7.0 7
  181.06535 6.0 6
  182.06113 7.0 7
  182.08415 8.0 8
  183.06332 9.0 9
  184.07123 58.0 58
  184.09912 15.0 15
  184.10806 8.0 8
  185.07227 5.0 5
  185.12032 6.0 6
  186.0927 5.0 5
  188.06488 10.0 10
  188.07224 8.0 8
  194.06462 5.0 5
  196.04639 9.0 9
  196.0753 400.0 400
  196.96091 6.0 6
  197.06207 9.0 9
  197.07971 72.0 72
  198.09084 46.0 46
  200.10754 37.0 37
  201.11459 9.0 9
  202.08142 37.0 37
  202.09729 5.0 5
  203.08322 6.0 6
  204.07979 8.0 8
  205.08597 5.0 5
  206.09801 21.0 21
  210.11778 5.0 5
  213.06836 5.0 5
  213.07925 5.0 5
  214.08463 12.0 12
  214.09293 5.0 5
  216.08264 8.0 8
  216.10181 43.0 43
  217.0909 8.0 8
  217.10457 8.0 8
  219.0881 19.0 19
  219.1031 25.0 25
  220.09421 19.0 19
  220.10582 9.0 9
  221.07811 7.0 7
  221.10648 21.0 21
  222.11203 13.0 13
  223.09421 9.0 9
  223.1351 5.0 5
  228.07332 5.0 5
  228.10158 300.0 300
  229.10223 41.0 41
  229.11006 18.0 18
  230.10977 11.0 11
  230.11885 23.0 23
  231.10083 10.0 10
  232.11145 20.0 20
  233.10536 21.0 21
  233.11942 16.0 16
  234.10681 13.0 13
  234.11688 26.0 26
  234.13435 8.0 8
  235.12134 62.0 62
  235.13464 11.0 11
  236.13618 22.0 22
  236.14458 39.0 39
  237.14568 13.0 13
  244.12468 7.0 7
  247.12204 35.0 35
  248.10913 8.0 8
  248.13756 43.0 43
  248.14835 20.0 20
  249.13853 330.0 330
  250.13454 46.0 46
  250.14972 32.0 32
  251.14731 26.0 26
  260.13583 10.0 10
  260.14886 8.0 8
  261.12976 13.0 13
  262.13837 20.0 20
  262.1499 16.0 16
  263.11517 11.0 11
  263.13376 8.0 8
  263.15494 39.0 39
  263.16891 8.0 8
  264.15585 15.0 15
  264.17365 11.0 11
  275.10355 7.0 7
  275.1199 33.0 33
  275.14355 8.0 8
  275.1597 28.0 28
  276.12451 22.0 22
  276.13373 11.0 11
  277.12921 41.0 41
  277.14908 22.0 22
  277.17108 150.0 150
  278.15643 23.0 23
  278.17361 46.0 46
  279.15973 5.0 5
  279.17426 8.0 8
  279.18704 6.0 6
  287.13855 8.0 8
  288.11612 7.0 7
  288.1315 9.0 9
  289.12549 5.0 5
  303.14871 96.0 96
  304.15695 12.0 12
  305.11426 6.0 6
  305.16418 416.0 416
  306.1676 115.0 115
  306.19055 5.0 5
  307.14465 17.0 17
  307.1604 9.0 9
  307.17499 9.0 9
  309.16089 10.0 10
  335.17233 7.0 7
  337.17719 29.0 29
  337.18921 90.0 90
  337.20508 18.0 18
//
