ACCESSION: MSBNK-RIKEN-PR100520
RECORD_TITLE: Ciliatine; LC-ESI-QTOF; MS2; CE:Ramp 5-60 V; [M-H]-
DATE: 2016.01.19 (Created 2010.06.21, modified 2011.05.06)
AUTHORS: Matsuda F, Suzuki M, Sawada Y, Plant Science Center, RIKEN.
LICENSE: CC BY-SA
COMMENT: Acquisition and generation of the data is financially supported in part by CREST/JST.
CH$NAME: 2-Aminoethylphosphonic acid
CH$NAME: 2-AEP
CH$NAME: Ciliatine
CH$NAME: Phosphonoethylamine
CH$COMPOUND_CLASS: Oxoacid
CH$FORMULA: C2H8NO3P
CH$EXACT_MASS: 125.02418
CH$SMILES: NCCP(O)(O)=O
CH$IUPAC: InChI=1S/C2H8NO3P/c3-1-2-7(4,5)6/h1-3H2,(H2,4,5,6)
CH$LINK: CAS 2041-14-7
CH$LINK: CHEMSPIDER 332
CH$LINK: KEGG C03557
CH$LINK: PUBCHEM CID:339
CH$LINK: INCHIKEY QQVDJLLNRSOCEL-UHFFFAOYSA-N
CH$LINK: COMPTOX DTXSID10174362
AC$INSTRUMENT: UPLC Q-Tof Premier, Waters
AC$INSTRUMENT_TYPE: LC-ESI-QTOF
AC$MASS_SPECTROMETRY: MS_TYPE MS2
AC$MASS_SPECTROMETRY: ION_MODE NEGATIVE
AC$MASS_SPECTROMETRY: COLLISION_ENERGY Ramp 5-60 V
AC$MASS_SPECTROMETRY: DATAFORMAT Continuum
AC$MASS_SPECTROMETRY: DESOLVATION_GAS_FLOW 600.0 L/Hr
AC$MASS_SPECTROMETRY: DESOLVATION_TEMPERATURE 400 C
AC$MASS_SPECTROMETRY: FRAGMENTATION_METHOD LOW-ENERGY CID
AC$MASS_SPECTROMETRY: IONIZATION ESI
AC$MASS_SPECTROMETRY: SOURCE_TEMPERATURE 120 C
AC$CHROMATOGRAPHY: CAPILLARY_VOLTAGE 3.0 kV
AC$CHROMATOGRAPHY: SAMPLING_CONE 23.0 V
AC$CHROMATOGRAPHY: SOLVENT A CH3CN(0.1%HCOOH)
AC$CHROMATOGRAPHY: SOLVENT B H2O(0.1%HCOOH)
MS$FOCUSED_ION: PRECURSOR_M/Z 124.01638
MS$FOCUSED_ION: PRECURSOR_TYPE [M-H]-
PK$SPLASH: splash10-00fr-6900000000-8b83cfaae8c27c409d02
PK$NUM_PEAK: 4
PK$PEAK: m/z int. rel.int.
  78.9595 119 777
  79.9672 8.425 55
  106.9891 12.5 82
  124.0164 153 999
//
