ACCESSION: MSBNK-RIKEN-PR303699
RECORD_TITLE: Tectorigenin; LC-ESI-QTOF; MS2
DATE: 2019.03.28
AUTHORS: Tetsuya Mori, Center for Sustainable Resource Science, RIKEN
LICENSE: CC BY-NC-SA
PUBLICATION: Tsugawa H., Nakabayashi R., Mori T., Yamada Y., Takahashi M., Rai A., Sugiyama R., Yamamoto H., Nakaya T., Yamazaki M., Kooke R., Bac-Molenaar JA., Oztolan-Erol N., Keurentjes JJB., Arita M., Saito K. (2019) "A cheminformatics approach to characterize metabolomes in stable-isotope-labeled organisms" Nature Methods 16(4):295-298. [doi:10.1038/s41592-019-0358-2]
COMMENT: registered in RIKEN PlaSMA
CH$NAME: Tectorigenin
CH$COMPOUND_CLASS: Isoflavones
CH$FORMULA: C16H12O6
CH$EXACT_MASS: 300.266
CH$SMILES: COC1=C(O)C2=C(OC=C(C2=O)C2=CC=C(O)C=C2)C=C1O
CH$IUPAC: InChI=1S/C16H12O6/c1-21-16-11(18)6-12-13(15(16)20)14(19)10(7-22-12)8-2-4-9(17)5-3-8/h2-7,17-18,20H,1H3
CH$LINK: INCHIKEY OBBCRPUNCUPUOS-UHFFFAOYSA-N
AC$INSTRUMENT: LC, Waters Acquity UPLC System; MS, Waters Xevo G2 Q-Tof
AC$INSTRUMENT_TYPE: LC-ESI-QTOF
AC$MASS_SPECTROMETRY: MS_TYPE MS2
AC$MASS_SPECTROMETRY: ION_MODE POSITIVE
AC$MASS_SPECTROMETRY: COLLISION_ENERGY 6V
AC$MASS_SPECTROMETRY: DESOLVATION_GAS_FLOW 800/h
AC$MASS_SPECTROMETRY: DESOLVATION_TEMPERATURE 450 C
AC$MASS_SPECTROMETRY: IONIZATION ESI
AC$CHROMATOGRAPHY: CAPILLARY_VOLTAGE +3.00 kV
AC$CHROMATOGRAPHY: COLUMN_NAME Acquity bridged ethyl hybrid C18 (1.7 um, 2.1 mm * 100 mm, Waters)
AC$CHROMATOGRAPHY: COLUMN_TEMPERATURE 40 C
AC$CHROMATOGRAPHY: FLOW_GRADIENT A/B = (99.5%/0.5% at 0 min, 99.5%/0.5% at 0.1 min, 20%/80% at 10 min, 0.5%/99.5% at 10.1 min, 0.5%/99.5% at 12.0 min, 99.5%/0.5% at 12.1 min, 99.5%/0.5% at 15.0 min)
AC$CHROMATOGRAPHY: FLOW_RATE 0.3 ml/min at 0 min, 0.3 ml/min at 10 min, 0.4 ml/min at 10.1 min, 0.4 ml/min at 14.4 min, 0.3 ml/min at 14.5 min
AC$CHROMATOGRAPHY: RETENTION_TIME 5.986467
AC$CHROMATOGRAPHY: SOLVENT A water including 0.1% formic acid
AC$CHROMATOGRAPHY: SOLVENT B acetonitrile including 0.1% formic acid
MS$FOCUSED_ION: PRECURSOR_TYPE [M+H]+
MS$FOCUSED_ION: PRECURSOR_M/Z 301.0706646
PK$SPLASH: splash10-014i-2920000000-ec48433db53f6d58a646
PK$NUM_PEAK: 182
PK$PEAK: m/z int. rel.int.
  55.02451 17.0 17
  57.0251 14.0 14
  65.03921 55.0 55
  66.03606 25.0 25
  67.01952 33.0 33
  68.99715 338.0 338
  69.03205 14.0 14
  69.72435 15.0 15
  70.00191 105.0 105
  70.00548 205.0 205
  70.62173 19.0 19
  71.00143 15.0 15
  71.00836 17.0 17
  71.01408 20.0 20
  75.1255 14.0 14
  79.01856 30.0 30
  81.03377 14.0 14
  84.02087 134.0 134
  85.0296 19.0 19
  87.0237 21.0 21
  88.93932 21.0 21
  89.03219 14.0 14
  89.04116 91.0 91
  90.04436 30.0 30
  91.04514 17.0 17
  91.05437 30.0 30
  94.00685 189.0 189
  95.01324 32.0 32
  98.00003 29.0 29
  100.7795 14.0 14
  101.1765 13.0 13
  102.04655 26.0 26
  102.2414 13.0 13
  103.05294 15.0 15
  103.06277 17.0 17
  104.06191 16.0 16
  105.02845 26.0 26
  107.01357 17.0 17
  108.01418 17.0 17
  108.02062 32.0 32
  111.01247 19.0 19
  111.99808 19.0 19
  112.01396 154.0 154
  113.021 45.0 45
  114.02319 18.0 18
  115.05564 83.0 83
  118.02785 16.0 16
  118.04152 1000.0 999
  118.07054 23.0 23
  118.07903 14.0 14
  118.17247 13.0 13
  119.04416 99.0 99
  119.0528 26.0 26
  120.23517 21.0 21
  121.01888 16.0 16
  121.02569 15.0 15
  121.03185 14.0 14
  122.01135 15.0 15
  123.00137 19.0 19
  124.0149 17.0 17
  126.04052 16.0 16
  126.0496 17.0 17
  127.04437 48.0 48
  127.05726 89.0 89
  127.06485 18.0 18
  128.0605 303.0 303
  128.0657 96.0 96
  129.063 50.0 50
  129.07028 13.0 13
  131.0433 68.0 68
  131.05061 123.0 123
  132.05147 15.0 15
  132.06056 15.0 15
  133.02896 15.0 15
  133.06511 14.0 14
  136.28505 14.0 14
  137.01645 25.0 25
  137.03358 21.0 21
  138.02219 23.0 23
  138.04585 15.0 15
  138.06212 14.0 14
  138.99921 64.0 64
  139.05212 49.0 49
  139.96855 15.0 15
  139.99138 26.0 26
  140.0063 331.0 331
  140.01328 413.0 413
  140.05656 14.0 14
  141.01405 64.0 64
  141.07019 15.0 15
  141.81947 17.0 17
  143.04544 13.0 13
  143.05467 44.0 44
  144.04514 16.0 16
  144.48389 14.0 14
  145.0273 67.0 67
  145.06569 49.0 49
  146.06361 21.0 21
  147.04413 18.0 18
  150.99249 17.0 17
  152.05733 17.0 17
  153.02008 34.0 34
  154.04222 16.0 16
  155.01886 17.0 17
  155.04211 82.0 82
  155.0509 406.0 406
  156.05775 123.0 123
  157.06604 99.0 99
  157.48027 14.0 14
  158.48993 17.0 17
  159.04121 56.0 56
  159.74765 15.0 15
  160.05257 15.0 15
  162.02907 16.0 16
  164.00931 15.0 15
  166.04213 104.0 104
  168.00113 294.0 294
  168.01674 14.0 14
  169.00461 57.0 57
  169.0132 70.0 70
  170.00542 15.0 15
  170.01555 19.0 19
  170.02481 14.0 14
  170.97046 19.0 19
  173.03633 24.0 24
  173.05995 12.0 12
  173.0679 35.0 35
  173.08104 15.0 15
  174.02773 16.0 16
  174.05142 17.0 17
  174.06783 15.0 15
  177.03928 20.0 20
  183.04028 39.0 39
  183.04761 128.0 128
  184.04836 196.0 196
  184.06599 14.0 14
  185.0537 23.0 23
  186.02614 15.0 15
  187.03006 19.0 19
  188.32291 14.0 14
  194.03874 33.0 33
  195.0461 36.0 36
  196.06076 13.0 13
  197.05037 14.0 14
  200.0527 14.0 14
  203.125 14.0 14
  211.04045 212.0 212
  212.03864 76.0 76
  213.04491 33.0 33
  213.06111 30.0 30
  217.21214 22.0 22
  222.02744 13.0 13
  228.04082 13.0 13
  229.04948 26.0 26
  229.05937 33.0 33
  230.04782 13.0 13
  239.0228 48.0 48
  239.03601 51.0 51
  239.05974 23.0 23
  240.05008 34.0 34
  241.00089 13.0 13
  241.04614 14.0 14
  256.0239 28.0 28
  256.0416 17.0 17
  256.05051 12.0 12
  257.03217 42.0 42
  257.04956 78.0 78
  258.04184 21.0 21
  258.05261 16.0 16
  266.0697 14.0 14
  267.03421 13.0 13
  268.03412 14.0 14
  268.04962 28.0 28
  269.04764 16.0 16
  285.01648 14.0 14
  285.03842 475.0 475
  286.02353 14.0 14
  286.03604 34.0 34
  286.04587 42.0 42
  286.48642 13.0 13
  287.05252 33.0 33
  287.85287 13.0 13
//
