ACCESSION: MSBNK-RIKEN-PR301177
RECORD_TITLE: Karakoline; LC-ESI-QTOF; MS2
DATE: 2019.03.28
AUTHORS: Tetsuya Mori, Center for Sustainable Resource Science, RIKEN
LICENSE: CC BY-NC-SA
PUBLICATION: Tsugawa H., Nakabayashi R., Mori T., Yamada Y., Takahashi M., Rai A., Sugiyama R., Yamamoto H., Nakaya T., Yamazaki M., Kooke R., Bac-Molenaar JA., Oztolan-Erol N., Keurentjes JJB., Arita M., Saito K. (2019) "A cheminformatics approach to characterize metabolomes in stable-isotope-labeled organisms" Nature Methods 16(4):295-298. [doi:10.1038/s41592-019-0358-2]
COMMENT: registered in RIKEN PlaSMA
CH$NAME: Karakoline
CH$COMPOUND_CLASS: Aconitane-type diterpenoid alkaloids
CH$FORMULA: C22H35NO4
CH$EXACT_MASS: 377.525
CH$SMILES: CCN1C[C@]2(C)CC[C@H](O)[C@@]34[C@@H]5C[C@H]6[C@H](O)[C@@H]5[C@](O)(C[C@@H]6OC)[C@@H](C[C@H]23)C14
CH$IUPAC: InChI=1S/C22H35NO4/c1-4-23-10-20(2)6-5-16(24)22-12-7-11-14(27-3)9-21(26,17(12)18(11)25)13(19(22)23)8-15(20)22/h11-19,24-26H,4-10H2,1-3H3/t11-,12-,13+,14+,15-,16+,17-,18+,19?,20+,21+,22-/m1/s1
CH$LINK: INCHIKEY HKQZUYOVMYOFIT-VHNBHZRZSA-N
AC$INSTRUMENT: LC, Waters Acquity UPLC System; MS, Waters Xevo G2 Q-Tof
AC$INSTRUMENT_TYPE: LC-ESI-QTOF
AC$MASS_SPECTROMETRY: MS_TYPE MS2
AC$MASS_SPECTROMETRY: ION_MODE POSITIVE
AC$MASS_SPECTROMETRY: COLLISION_ENERGY 6V
AC$MASS_SPECTROMETRY: DESOLVATION_GAS_FLOW 800/h
AC$MASS_SPECTROMETRY: DESOLVATION_TEMPERATURE 450 C
AC$MASS_SPECTROMETRY: IONIZATION ESI
AC$CHROMATOGRAPHY: CAPILLARY_VOLTAGE +3.00 kV
AC$CHROMATOGRAPHY: COLUMN_NAME Acquity bridged ethyl hybrid C18 (1.7 um, 2.1 mm * 100 mm, Waters)
AC$CHROMATOGRAPHY: COLUMN_TEMPERATURE 40 C
AC$CHROMATOGRAPHY: FLOW_GRADIENT A/B = (99.5%/0.5% at 0 min, 99.5%/0.5% at 0.1 min, 20%/80% at 10 min, 0.5%/99.5% at 10.1 min, 0.5%/99.5% at 12.0 min, 99.5%/0.5% at 12.1 min, 99.5%/0.5% at 15.0 min)
AC$CHROMATOGRAPHY: FLOW_RATE 0.3 ml/min at 0 min, 0.3 ml/min at 10 min, 0.4 ml/min at 10.1 min, 0.4 ml/min at 14.4 min, 0.3 ml/min at 14.5 min
AC$CHROMATOGRAPHY: RETENTION_TIME 2.889217
AC$CHROMATOGRAPHY: SOLVENT A water including 0.1% formic acid
AC$CHROMATOGRAPHY: SOLVENT B acetonitrile including 0.1% formic acid
MS$FOCUSED_ION: PRECURSOR_TYPE [M+H]+
MS$FOCUSED_ION: PRECURSOR_M/Z 378.2638851
PK$SPLASH: splash10-01t9-0009000000-ae86af0077e1abcec5eb
PK$NUM_PEAK: 33
PK$PEAK: m/z int. rel.int.
  58.06491 11.0 11
  98.09698 21.0 21
  105.07384 5.0 5
  110.09499 11.0 11
  124.11211 21.0 21
  126.12737 8.0 8
  137.06001 7.0 7
  157.10442 7.0 7
  159.11815 7.0 7
  183.11629 7.0 7
  185.13203 6.0 6
  193.099 5.0 5
  199.14804 7.0 7
  209.13463 7.0 7
  227.14594 14.0 14
  259.16779 7.0 7
  265.16083 7.0 7
  267.17749 6.0 6
  300.22809 7.0 7
  310.21381 11.0 11
  328.22668 36.0 36
  329.2312 9.0 9
  329.24414 6.0 6
  332.21786 10.0 10
  332.23303 10.0 10
  342.24118 54.0 54
  343.24591 14.0 14
  360.25287 676.0 675
  361.25656 168.0 168
  362.25522 23.0 23
  362.26947 9.0 9
  378.26367 1000.0 999
  378.32071 8.0 8
//
