ACCESSION: MSBNK-RIKEN-PR300210
RECORD_TITLE: Gardnutine; LC-ESI-QTOF; MS2
DATE: 2019.03.28
AUTHORS: Tetsuya Mori, Center for Sustainable Resource Science, RIKEN
LICENSE: CC BY-NC-SA
PUBLICATION: Tsugawa H., Nakabayashi R., Mori T., Yamada Y., Takahashi M., Rai A., Sugiyama R., Yamamoto H., Nakaya T., Yamazaki M., Kooke R., Bac-Molenaar JA., Oztolan-Erol N., Keurentjes JJB., Arita M., Saito K. (2019) "A cheminformatics approach to characterize metabolomes in stable-isotope-labeled organisms" Nature Methods 16(4):295-298. [doi:10.1038/s41592-019-0358-2]
COMMENT: registered in RIKEN PlaSMA
CH$NAME: Gardnutine
CH$COMPOUND_CLASS: Macroline alkaloids
CH$FORMULA: C20H22N2O2
CH$EXACT_MASS: 322.408
CH$SMILES: COC1=CC2=C(C=C1)C1=C(N2)[C@@H]2CC3C4CO[C@H]1[C@@H]4N2C\C3=C\C
CH$IUPAC: InChI=1S/C20H22N2O2/c1-3-10-8-22-16-7-13(10)14-9-24-20(19(14)22)17-12-5-4-11(23-2)6-15(12)21-18(16)17/h3-6,13-14,16,19-21H,7-9H2,1-2H3/b10-3-/t13?,14?,16-,19+,20+/m0/s1
CH$LINK: INCHIKEY XJTWLFBHBFSVRS-CRJBWSHOSA-N
AC$INSTRUMENT: LC, Waters Acquity UPLC System; MS, Waters Xevo G2 Q-Tof
AC$INSTRUMENT_TYPE: LC-ESI-QTOF
AC$MASS_SPECTROMETRY: MS_TYPE MS2
AC$MASS_SPECTROMETRY: ION_MODE POSITIVE
AC$MASS_SPECTROMETRY: COLLISION_ENERGY 6V
AC$MASS_SPECTROMETRY: DESOLVATION_GAS_FLOW 800/h
AC$MASS_SPECTROMETRY: DESOLVATION_TEMPERATURE 450 C
AC$MASS_SPECTROMETRY: IONIZATION ESI
AC$CHROMATOGRAPHY: CAPILLARY_VOLTAGE +3.00 kV
AC$CHROMATOGRAPHY: COLUMN_NAME Acquity bridged ethyl hybrid C18 (1.7 um, 2.1 mm * 100 mm, Waters)
AC$CHROMATOGRAPHY: COLUMN_TEMPERATURE 40 C
AC$CHROMATOGRAPHY: FLOW_GRADIENT A/B = (99.5%/0.5% at 0 min, 99.5%/0.5% at 0.1 min, 20%/80% at 10 min, 0.5%/99.5% at 10.1 min, 0.5%/99.5% at 12.0 min, 99.5%/0.5% at 12.1 min, 99.5%/0.5% at 15.0 min)
AC$CHROMATOGRAPHY: FLOW_RATE 0.3 ml/min at 0 min, 0.3 ml/min at 10 min, 0.4 ml/min at 10.1 min, 0.4 ml/min at 14.4 min, 0.3 ml/min at 14.5 min
AC$CHROMATOGRAPHY: RETENTION_TIME 4.419867
AC$CHROMATOGRAPHY: SOLVENT A water including 0.1% formic acid
AC$CHROMATOGRAPHY: SOLVENT B acetonitrile including 0.1% formic acid
MS$FOCUSED_ION: PRECURSOR_TYPE [M+H]+
MS$FOCUSED_ION: PRECURSOR_M/Z 323.1754044
PK$SPLASH: splash10-00di-1980000000-ca1e06607427df564277
PK$NUM_PEAK: 312
PK$PEAK: m/z int. rel.int.
  67.0529 10.0 10
  77.03855 17.0 17
  80.05611 8.0 8
  82.06593 11.0 11
  82.07156 6.0 6
  91.05567 48.0 48
  92.0439 5.0 5
  92.05582 7.0 7
  93.04691 6.0 6
  93.05611 44.0 44
  93.06274 81.0 81
  93.06935 131.0 131
  94.0508 9.0 9
  94.06483 409.0 409
  95.05076 15.0 15
  95.0611 11.0 11
  95.0696 23.0 23
  95.08736 5.0 5
  96.04745 7.0 7
  96.08401 8.0 8
  105.06864 15.0 15
  105.0744 6.0 6
  106.0687 19.0 19
  107.07205 48.0 48
  107.08654 5.0 5
  108.06544 5.0 5
  108.07407 17.0 17
  108.08034 70.0 70
  109.08559 11.0 11
  110.06131 6.0 6
  110.0955 22.0 22
  117.0558 27.0 27
  117.06564 5.0 5
  117.07375 6.0 6
  118.0647 7.0 7
  119.07494 7.0 7
  120.08054 575.0 574
  121.08636 80.0 80
  122.07334 10.0 10
  122.08267 23.0 23
  122.09621 1000.0 999
  123.07153 6.0 6
  123.08308 10.0 10
  123.09987 104.0 104
  130.06763 9.0 9
  131.0695 13.0 13
  131.07933 18.0 18
  131.08896 5.0 5
  132.04483 8.0 8
  132.05376 10.0 10
  132.07588 11.0 11
  132.08804 7.0 7
  133.04942 6.0 6
  133.06113 7.0 7
  133.09262 8.0 8
  134.07768 5.0 5
  134.09232 31.0 31
  134.09915 33.0 33
  136.06973 14.0 14
  136.10526 18.0 18
  138.09181 20.0 20
  142.064 7.0 7
  143.07025 16.0 16
  144.05646 6.0 6
  144.08345 19.0 19
  145.0703 11.0 11
  145.09065 24.0 24
  146.0632 9.0 9
  146.09377 79.0 79
  146.10027 52.0 52
  147.06754 46.0 46
  147.07979 10.0 10
  147.10378 12.0 12
  148.07639 90.0 90
  148.11174 89.0 89
  148.11812 26.0 26
  149.0714 13.0 13
  149.11491 13.0 13
  150.09109 90.0 90
  154.06561 7.0 7
  154.07945 7.0 7
  155.07272 29.0 29
  156.06874 6.0 6
  156.07764 8.0 8
  157.09099 7.0 7
  158.05878 246.0 246
  158.09724 6.0 6
  159.03296 6.0 6
  159.06479 54.0 54
  159.07466 15.0 15
  160.07576 123.0 123
  161.07315 9.0 9
  161.0862 23.0 23
  162.07808 10.0 10
  162.08958 20.0 20
  167.42493 7.0 7
  168.08618 6.0 6
  170.06709 6.0 6
  170.08928 10.0 10
  171.06401 14.0 14
  171.07541 11.0 11
  171.10396 8.0 8
  172.0645 6.0 6
  172.07637 29.0 29
  172.90854 7.0 7
  173.05679 10.0 10
  173.08377 686.0 685
  174.07193 9.0 9
  174.08989 315.0 315
  175.09651 24.0 24
  176.07275 9.0 9
  176.10017 9.0 9
  176.10927 14.0 14
  181.08971 19.0 19
  183.06152 7.0 7
  183.07018 10.0 10
  184.0731 18.0 18
  185.08131 22.0 22
  186.0522 6.0 6
  186.08025 29.0 29
  186.09303 119.0 119
  187.07118 6.0 6
  187.10074 43.0 43
  188.05293 7.0 7
  188.07159 70.0 70
  188.10538 110.0 110
  189.10689 6.0 6
  189.11618 18.0 18
  190.09279 8.0 8
  193.08922 65.0 65
  194.09424 9.0 9
  194.10312 8.0 8
  195.11259 5.0 5
  197.06415 18.0 18
  197.07776 24.0 24
  197.08714 41.0 41
  198.08031 15.0 15
  198.08656 37.0 37
  198.10106 17.0 17
  199.07271 6.0 6
  199.08467 40.0 40
  199.099 13.0 13
  200.0621 17.0 17
  200.0731 36.0 36
  200.10867 25.0 25
  201.07344 10.0 10
  201.09335 8.0 8
  202.08601 54.0 54
  203.08737 16.0 16
  204.09348 7.0 7
  207.099 11.0 11
  207.10832 9.0 9
  209.07857 30.0 30
  209.08894 30.0 30
  209.11707 5.0 5
  210.06436 7.0 7
  210.09167 139.0 139
  211.08258 6.0 6
  211.09818 45.0 45
  212.10411 97.0 97
  213.06244 6.0 6
  213.07628 12.0 12
  213.09921 12.0 12
  213.10509 7.0 7
  214.07846 10.0 10
  214.09012 19.0 19
  214.10242 6.0 6
  215.08247 42.0 42
  215.09166 12.0 12
  218.09357 5.0 5
  219.061 5.0 5
  219.10106 11.0 11
  220.09665 6.0 6
  220.12114 6.0 6
  221.07658 14.0 14
  222.0936 11.0 11
  223.09514 29.0 29
  223.10672 17.0 17
  224.10896 200.0 200
  225.11017 51.0 51
  226.07129 6.0 6
  226.09563 8.0 8
  226.11797 36.0 36
  226.13362 11.0 11
  227.07671 28.0 28
  227.09012 11.0 11
  227.12415 8.0 8
  228.08742 17.0 17
  228.09804 11.0 11
  229.09175 7.0 7
  232.05992 7.0 7
  232.07916 8.0 8
  233.08353 5.0 5
  233.11757 6.0 6
  234.07899 8.0 8
  234.09409 30.0 30
  234.10809 11.0 11
  235.08949 13.0 13
  235.09721 19.0 19
  235.12564 16.0 16
  236.0891 6.0 6
  236.10869 63.0 63
  236.12627 7.0 7
  237.09767 14.0 14
  237.11905 20.0 20
  238.10493 20.0 20
  238.12401 96.0 96
  239.09831 6.0 6
  239.1147 14.0 14
  239.13228 6.0 6
  240.09769 8.0 8
  240.12 9.0 9
  240.14125 18.0 18
  241.14319 9.0 9
  243.09937 6.0 6
  247.09874 35.0 35
  247.12233 59.0 59
  247.13646 25.0 25
  248.08836 10.0 10
  248.09843 21.0 21
  248.12245 12.0 12
  248.13597 9.0 9
  249.07283 8.0 8
  249.10228 114.0 114
  249.11606 62.0 62
  249.14194 28.0 28
  250.08487 16.0 16
  250.11139 55.0 55
  250.12979 38.0 38
  250.14825 35.0 35
  251.08669 11.0 11
  251.1151 33.0 33
  251.13113 15.0 15
  251.14418 10.0 10
  252.08852 10.0 10
  252.10089 29.0 29
  252.13034 30.0 30
  252.14487 31.0 31
  253.11111 23.0 23
  253.12674 19.0 19
  253.14676 15.0 15
  253.15401 5.0 5
  254.11151 8.0 8
  258.09207 8.0 8
  260.11542 12.0 12
  261.10031 23.0 23
  261.13745 159.0 159
  261.14944 46.0 46
  262.09521 12.0 12
  262.10864 23.0 23
  262.12747 22.0 22
  262.14813 74.0 74
  263.09772 24.0 24
  263.12006 113.0 113
  263.13736 15.0 15
  264.10172 11.0 11
  264.12912 75.0 75
  264.14209 27.0 27
  265.09686 10.0 10
  265.1232 9.0 9
  265.13776 30.0 30
  266.10663 7.0 7
  266.11731 13.0 13
  266.13785 30.0 30
  266.1535 15.0 15
  267.11206 9.0 9
  267.15103 8.0 8
  268.14761 9.0 9
  273.13635 6.0 6
  274.12292 6.0 6
  274.14322 8.0 8
  275.11554 12.0 12
  275.12814 10.0 10
  276.11359 10.0 10
  276.13367 51.0 51
  277.11087 15.0 15
  277.13391 232.0 232
  278.11362 10.0 10
  278.14108 336.0 336
  279.1492 93.0 93
  279.32681 6.0 6
  280.11639 11.0 11
  280.14685 12.0 12
  280.16428 6.0 6
  281.14114 9.0 9
  288.12958 7.0 7
  288.14471 7.0 7
  289.12143 6.0 6
  290.12344 8.0 8
  290.13693 14.0 14
  290.15005 10.0 10
  291.13864 26.0 26
  291.15546 21.0 21
  292.14594 10.0 10
  292.16025 10.0 10
  292.17206 10.0 10
  293.13242 19.0 19
  293.16495 673.0 672
  294.14392 17.0 17
  294.16788 145.0 145
  295.1431 5.0 5
  295.1586 9.0 9
  295.17627 31.0 31
  305.1619 19.0 19
  305.17325 8.0 8
  306.16058 6.0 6
  307.15601 5.0 5
  308.15231 25.0 25
  321.17084 5.0 5
  322.17572 6.0 6
  323.15497 12.0 12
  323.17749 109.0 109
//
