ACCESSION: MSBNK-RIKEN-PR301282
RECORD_TITLE: 9-Nitro-20(S)-camptothecin; LC-ESI-QTOF; MS2
DATE: 2019.03.28
AUTHORS: Tetsuya Mori, Center for Sustainable Resource Science, RIKEN
LICENSE: CC BY-NC-SA
PUBLICATION: Tsugawa H., Nakabayashi R., Mori T., Yamada Y., Takahashi M., Rai A., Sugiyama R., Yamamoto H., Nakaya T., Yamazaki M., Kooke R., Bac-Molenaar JA., Oztolan-Erol N., Keurentjes JJB., Arita M., Saito K. (2019) "A cheminformatics approach to characterize metabolomes in stable-isotope-labeled organisms" Nature Methods 16(4):295-298. [doi:10.1038/s41592-019-0358-2]
COMMENT: registered in RIKEN PlaSMA
CH$NAME: 9-Nitro-20(S)-camptothecin
CH$COMPOUND_CLASS: Camptothecins
CH$FORMULA: C20H15N3O6
CH$EXACT_MASS: 393.355
CH$SMILES: CC[C@@]1(O)C(=O)OCC2=C1C=C1N(CC3=CC4=C(C=CC=C4N(=O)=O)N=C13)C2=O
CH$IUPAC: InChI=1S/C20H15N3O6/c1-2-20(26)13-7-16-17-10(8-22(16)18(24)12(13)9-29-19(20)25)6-11-14(21-17)4-3-5-15(11)23(27)28/h3-7,26H,2,8-9H2,1H3/t20-/m0/s1
CH$LINK: INCHIKEY VHXNKPBCCMUMSW-FQEVSTJZSA-N
AC$INSTRUMENT: LC, Waters Acquity UPLC System; MS, Waters Xevo G2 Q-Tof
AC$INSTRUMENT_TYPE: LC-ESI-QTOF
AC$MASS_SPECTROMETRY: MS_TYPE MS2
AC$MASS_SPECTROMETRY: ION_MODE POSITIVE
AC$MASS_SPECTROMETRY: COLLISION_ENERGY 6V
AC$MASS_SPECTROMETRY: DESOLVATION_GAS_FLOW 800/h
AC$MASS_SPECTROMETRY: DESOLVATION_TEMPERATURE 450 C
AC$MASS_SPECTROMETRY: IONIZATION ESI
AC$CHROMATOGRAPHY: CAPILLARY_VOLTAGE +3.00 kV
AC$CHROMATOGRAPHY: COLUMN_NAME Acquity bridged ethyl hybrid C18 (1.7 um, 2.1 mm * 100 mm, Waters)
AC$CHROMATOGRAPHY: COLUMN_TEMPERATURE 40 C
AC$CHROMATOGRAPHY: FLOW_GRADIENT A/B = (99.5%/0.5% at 0 min, 99.5%/0.5% at 0.1 min, 20%/80% at 10 min, 0.5%/99.5% at 10.1 min, 0.5%/99.5% at 12.0 min, 99.5%/0.5% at 12.1 min, 99.5%/0.5% at 15.0 min)
AC$CHROMATOGRAPHY: FLOW_RATE 0.3 ml/min at 0 min, 0.3 ml/min at 10 min, 0.4 ml/min at 10.1 min, 0.4 ml/min at 14.4 min, 0.3 ml/min at 14.5 min
AC$CHROMATOGRAPHY: RETENTION_TIME 5.86515
AC$CHROMATOGRAPHY: SOLVENT A water including 0.1% formic acid
AC$CHROMATOGRAPHY: SOLVENT B acetonitrile including 0.1% formic acid
MS$FOCUSED_ION: PRECURSOR_TYPE [M+H]+
MS$FOCUSED_ION: PRECURSOR_M/Z 394.1033617
PK$SPLASH: splash10-014j-0190000000-27ad4a1019ed5d4def23
PK$NUM_PEAK: 241
PK$PEAK: m/z int. rel.int.
  57.03878 39.0 39
  102.04634 16.0 16
  117.05766 18.0 18
  118.05583 36.0 36
  119.06072 29.0 29
  120.06435 20.0 20
  140.05608 26.0 26
  147.07066 18.0 18
  151.04857 20.0 20
  152.06897 23.0 23
  156.06314 16.0 16
  157.05661 18.0 18
  164.05661 42.0 42
  164.48253 27.0 27
  165.05946 18.0 18
  165.07347 37.0 37
  166.05438 18.0 18
  166.06503 18.0 18
  166.0764 19.0 19
  167.03839 27.0 27
  167.05287 18.0 18
  167.06593 30.0 30
  167.07381 55.0 55
  168.08058 27.0 27
  176.05319 31.0 31
  178.04486 22.0 22
  178.06168 21.0 21
  178.07045 25.0 25
  179.06448 163.0 163
  179.07738 48.0 48
  180.05846 23.0 23
  180.06929 133.0 133
  181.07449 58.0 58
  182.05893 16.0 16
  182.08676 55.0 55
  183.06366 23.0 23
  187.62497 19.0 19
  189.03403 30.0 30
  190.05183 35.0 35
  190.06686 204.0 204
  191.06094 50.0 50
  191.07111 223.0 223
  191.08994 41.0 41
  192.05719 22.0 22
  192.07022 183.0 183
  192.08232 22.0 22
  193.03488 20.0 20
  193.05006 30.0 30
  193.06155 22.0 22
  193.07581 65.0 65
  193.08487 45.0 45
  194.04813 21.0 21
  194.05646 43.0 43
  194.09604 18.0 18
  195.10022 17.0 17
  195.41566 16.0 16
  197.04469 20.0 20
  201.07678 16.0 16
  202.05939 56.0 56
  202.07323 16.0 16
  202.20705 19.0 19
  203.0555 32.0 32
  203.07381 139.0 139
  203.51199 17.0 17
  204.0619 30.0 30
  204.07095 74.0 74
  204.08092 94.0 94
  204.08899 34.0 34
  205.07368 90.0 90
  205.08377 180.0 180
  205.09579 82.0 82
  205.10237 33.0 33
  206.04871 18.0 18
  206.06329 45.0 45
  206.08612 274.0 274
  206.1046 18.0 18
  206.22995 17.0 17
  206.26025 16.0 16
  207.0535 16.0 16
  207.05879 38.0 38
  207.08279 76.0 76
  207.0948 71.0 71
  207.10719 18.0 18
  207.33232 23.0 23
  208.0486 35.0 35
  208.0686 18.0 18
  208.08243 37.0 37
  208.09796 16.0 16
  209.07176 18.0 18
  210.08195 34.0 34
  211.08406 38.0 38
  214.1442 23.0 23
  215.0686 21.0 21
  216.05927 30.0 30
  216.07402 106.0 106
  216.34639 20.0 20
  217.06992 434.0 434
  217.07817 397.0 397
  217.08847 179.0 179
  218.05328 20.0 20
  218.08455 1000.0 999
  218.49271 26.0 26
  219.07727 121.0 121
  219.09084 525.0 524
  219.91515 18.0 18
  220.04396 18.0 18
  220.0762 112.0 112
  220.08812 102.0 102
  220.10373 187.0 187
  220.13954 16.0 16
  220.15793 16.0 16
  221.06805 18.0 18
  221.10811 38.0 38
  222.06242 20.0 20
  228.07301 28.0 28
  228.0947 27.0 27
  229.06323 20.0 20
  229.0825 19.0 19
  230.10222 80.0 80
  231.05513 36.0 36
  231.10489 91.0 91
  232.05611 36.0 36
  232.06555 33.0 33
  232.07474 19.0 19
  232.0956 20.0 20
  232.80226 18.0 18
  233.06847 185.0 185
  233.0817 17.0 17
  234.04025 22.0 22
  234.06056 43.0 43
  234.07971 199.0 199
  234.11156 19.0 19
  235.08533 95.0 95
  235.09752 59.0 59
  236.04399 35.0 35
  236.05905 16.0 16
  236.07594 31.0 31
  237.07492 21.0 21
  237.70215 17.0 17
  238.06938 90.0 90
  238.08627 66.0 66
  238.95711 21.0 21
  241.0813 27.0 27
  242.10175 18.0 18
  242.11559 17.0 17
  243.09007 18.0 18
  244.07034 36.0 36
  244.08339 18.0 18
  244.09607 16.0 16
  244.1086 28.0 28
  244.81271 16.0 16
  245.0542 57.0 57
  245.06642 288.0 288
  245.07796 252.0 252
  245.0882 62.0 62
  245.10605 18.0 18
  245.11783 17.0 17
  246.03401 28.0 28
  246.06139 130.0 130
  246.0797 740.0 739
  246.12392 27.0 27
  247.03969 23.0 23
  247.05173 53.0 53
  247.06816 50.0 50
  247.08597 446.0 446
  247.11528 21.0 21
  248.04004 17.0 17
  248.08424 135.0 135
  248.09468 327.0 327
  249.09293 18.0 18
  249.84593 25.0 25
  250.10793 18.0 18
  250.12392 18.0 18
  253.01237 16.0 16
  256.10367 18.0 18
  258.09225 24.0 24
  258.11551 81.0 81
  258.72198 23.0 23
  259.05481 22.0 22
  259.07639 22.0 22
  259.08606 20.0 20
  259.10254 16.0 16
  260.09897 98.0 98
  260.11563 17.0 17
  261.0332 18.0 18
  261.11609 22.0 22
  262.04654 17.0 17
  262.0621 30.0 30
  262.07507 28.0 28
  262.09058 42.0 42
  263.00616 17.0 17
  263.06598 39.0 39
  263.07715 154.0 154
  264.06644 23.0 23
  264.0882 82.0 82
  264.92856 16.0 16
  265.01443 17.0 17
  271.07837 30.0 30
  271.10129 18.0 18
  271.11575 42.0 42
  272.0636 20.0 20
  272.08701 16.0 16
  272.09851 23.0 23
  273.09726 18.0 18
  274.06522 37.0 37
  274.08752 22.0 22
  274.09921 18.0 18
  274.116 23.0 23
  274.12616 18.0 18
  274.44202 20.0 20
  276.08801 16.0 16
  276.09796 20.0 20
  276.11099 39.0 39
  276.12207 38.0 38
  276.13644 17.0 17
  277.13519 17.0 17
  280.07349 21.0 21
  285.0954 26.0 26
  286.10202 18.0 18
  286.11322 60.0 60
  287.08817 17.0 17
  289.09647 16.0 16
  290.03799 20.0 20
  290.07568 77.0 77
  291.05164 45.0 45
  291.07346 90.0 90
  291.10764 18.0 18
  292.05841 59.0 59
  292.0769 84.0 84
  292.13132 16.0 16
  293.07059 56.0 56
  294.07806 19.0 19
  302.07373 18.0 18
  302.11649 16.0 16
  304.12018 246.0 246
  304.49338 16.0 16
  305.09073 19.0 19
  305.10034 19.0 19
  305.13403 71.0 71
  306.08102 18.0 18
  362.03342 16.0 16
//
