ACCESSION: MSBNK-RIKEN-PR303908
RECORD_TITLE: Ginkgolide C; LC-ESI-QTOF; MS2
DATE: 2019.03.28
AUTHORS: Tetsuya Mori, Center for Sustainable Resource Science, RIKEN
LICENSE: CC BY-NC-SA
PUBLICATION: Tsugawa H., Nakabayashi R., Mori T., Yamada Y., Takahashi M., Rai A., Sugiyama R., Yamamoto H., Nakaya T., Yamazaki M., Kooke R., Bac-Molenaar JA., Oztolan-Erol N., Keurentjes JJB., Arita M., Saito K. (2019) "A cheminformatics approach to characterize metabolomes in stable-isotope-labeled organisms" Nature Methods 16(4):295-298. [doi:10.1038/s41592-019-0358-2]
COMMENT: registered in RIKEN PlaSMA
CH$NAME: Ginkgolide C
CH$COMPOUND_CLASS: Ginkgolides and bilobalides
CH$FORMULA: C20H24O11
CH$EXACT_MASS: 440.401
CH$SMILES: CC1C(=O)OC2C(O)C34C5OC(=O)C3(OC3OC(=O)C(O)C43C(C5O)C(C)(C)C)C12O
CH$IUPAC: InChI=1S/C20H24O11/c1-5-12(24)28-11-8(22)18-10-6(21)7(16(2,3)4)17(18)9(23)13(25)30-15(17)31-20(18,14(26)29-10)19(5,11)27/h5-11,15,21-23,27H,1-4H3
CH$LINK: INCHIKEY AMOGMTLMADGEOQ-UHFFFAOYSA-N
AC$INSTRUMENT: LC, Waters Acquity UPLC System; MS, Waters Xevo G2 Q-Tof
AC$INSTRUMENT_TYPE: LC-ESI-QTOF
AC$MASS_SPECTROMETRY: MS_TYPE MS2
AC$MASS_SPECTROMETRY: ION_MODE POSITIVE
AC$MASS_SPECTROMETRY: COLLISION_ENERGY 6V
AC$MASS_SPECTROMETRY: DESOLVATION_GAS_FLOW 800/h
AC$MASS_SPECTROMETRY: DESOLVATION_TEMPERATURE 450 C
AC$MASS_SPECTROMETRY: IONIZATION ESI
AC$CHROMATOGRAPHY: CAPILLARY_VOLTAGE +3.00 kV
AC$CHROMATOGRAPHY: COLUMN_NAME Acquity bridged ethyl hybrid C18 (1.7 um, 2.1 mm * 100 mm, Waters)
AC$CHROMATOGRAPHY: COLUMN_TEMPERATURE 40 C
AC$CHROMATOGRAPHY: FLOW_GRADIENT A/B = (99.5%/0.5% at 0 min, 99.5%/0.5% at 0.1 min, 20%/80% at 10 min, 0.5%/99.5% at 10.1 min, 0.5%/99.5% at 12.0 min, 99.5%/0.5% at 12.1 min, 99.5%/0.5% at 15.0 min)
AC$CHROMATOGRAPHY: FLOW_RATE 0.3 ml/min at 0 min, 0.3 ml/min at 10 min, 0.4 ml/min at 10.1 min, 0.4 ml/min at 14.4 min, 0.3 ml/min at 14.5 min
AC$CHROMATOGRAPHY: RETENTION_TIME 4.33045
AC$CHROMATOGRAPHY: SOLVENT A water including 0.1% formic acid
AC$CHROMATOGRAPHY: SOLVENT B acetonitrile including 0.1% formic acid
MS$FOCUSED_ION: PRECURSOR_TYPE [M+H]+
MS$FOCUSED_ION: PRECURSOR_M/Z 441.139138
PK$SPLASH: splash10-0006-0377900000-819478da5bb749f04595
PK$NUM_PEAK: 195
PK$PEAK: m/z int. rel.int.
  57.06542 7.0 7
  97.06351 12.0 12
  107.08733 10.0 10
  125.02083 6.0 6
  129.07317 6.0 6
  137.02003 7.0 7
  137.04825 6.0 6
  137.7726 7.0 7
  147.07841 6.0 6
  149.02225 6.0 6
  151.03311 6.0 6
  151.11098 6.0 6
  153.08202 6.0 6
  155.03667 8.0 8
  157.10332 6.0 6
  161.05861 7.0 7
  163.07343 7.0 7
  163.11517 7.0 7
  165.02629 7.0 7
  165.04985 6.0 6
  165.05765 6.0 6
  165.06812 6.0 6
  173.11977 7.0 7
  175.03407 7.0 7
  175.07806 7.0 7
  177.05194 40.0 40
  177.05983 24.0 24
  178.05667 6.0 6
  179.03365 6.0 6
  179.11844 6.0 6
  185.05571 6.0 6
  187.04222 7.0 7
  187.10883 6.0 6
  187.14757 8.0 8
  189.03448 6.0 6
  189.05737 7.0 7
  191.07133 6.0 6
  191.22351 6.0 6
  193.04659 11.0 11
  194.05443 7.0 7
  195.02266 6.0 6
  195.03448 27.0 27
  195.06706 17.0 17
  195.11455 7.0 7
  196.03558 6.0 6
  197.0345 7.0 7
  197.1058 9.0 9
  199.14777 10.0 10
  201.05486 7.0 7
  203.0343 6.0 6
  203.05618 8.0 8
  203.07632 15.0 15
  205.05132 31.0 31
  205.07172 6.0 6
  206.05098 8.0 8
  207.11894 10.0 10
  209.02876 8.0 8
  209.04153 6.0 6
  211.10501 10.0 10
  213.13475 6.0 6
  215.85725 7.0 7
  218.09465 6.0 6
  219.06505 7.0 7
  220.07626 6.0 6
  221.04715 8.0 8
  222.03827 8.0 8
  223.0262 7.0 7
  223.10712 20.0 20
  223.11955 6.0 6
  225.04002 6.0 6
  229.05151 13.0 13
  229.08853 10.0 10
  229.16595 6.0 6
  231.03519 9.0 9
  231.05363 6.0 6
  233.0421 29.0 29
  233.05199 25.0 25
  233.08675 6.0 6
  235.05833 6.0 6
  237.04523 6.0 6
  238.04623 10.0 10
  240.07683 8.0 8
  241.07942 6.0 6
  241.12686 12.0 12
  242.10622 7.0 7
  243.02361 6.0 6
  243.09167 9.0 9
  243.10745 6.0 6
  245.04799 6.0 6
  245.11539 6.0 6
  247.05855 24.0 24
  247.09273 6.0 6
  247.1347 7.0 7
  248.07481 6.0 6
  249.07191 7.0 7
  250.07401 7.0 7
  251.05553 54.0 54
  251.07161 6.0 6
  251.10393 6.0 6
  252.07083 7.0 7
  252.10385 7.0 7
  257.05359 7.0 7
  257.11475 15.0 15
  259.0639 13.0 13
  260.13321 7.0 7
  261.0365 20.0 20
  263.0607 19.0 19
  265.07309 10.0 10
  265.08429 9.0 9
  266.08051 6.0 6
  269.11511 6.0 6
  274.05084 9.0 9
  274.78149 11.0 11
  275.0603 24.0 24
  275.22427 6.0 6
  275.84927 7.0 7
  276.06711 8.0 8
  277.06381 9.0 9
  277.14932 7.0 7
  279.05005 6.0 6
  279.06165 7.0 7
  282.0629 7.0 7
  282.0766 7.0 7
  285.12015 9.0 9
  286.1189 6.0 6
  287.11334 7.0 7
  289.03027 6.0 6
  290.06436 8.0 8
  293.073 20.0 20
  293.30777 6.0 6
  294.07748 7.0 7
  295.07233 7.0 7
  301.57297 8.0 8
  303.11307 14.0 14
  304.02133 13.0 13
  305.14044 8.0 8
  306.13242 6.0 6
  307.04175 51.0 51
  307.05963 8.0 8
  308.04385 21.0 21
  308.05576 14.0 14
  309.05328 5.0 5
  309.06482 15.0 15
  311.07776 6.0 6
  313.09479 7.0 7
  316.12546 11.0 11
  321.04938 6.0 6
  321.0665 6.0 6
  321.1239 13.0 13
  322.05725 6.0 6
  325.02319 19.0 19
  325.05859 152.0 152
  325.64865 6.0 6
  326.05194 20.0 20
  326.06952 6.0 6
  331.10986 6.0 6
  331.13226 6.0 6
  332.11545 10.0 10
  332.13959 19.0 19
  339.05011 7.0 7
  339.06723 12.0 12
  340.11255 11.0 11
  349.11774 6.0 6
  349.13605 12.0 12
  349.15115 7.0 7
  350.0593 7.0 7
  353.04294 26.0 26
  353.06427 31.0 31
  354.05981 14.0 14
  356.1163 19.0 19
  359.11646 24.0 24
  360.10779 6.0 6
  366.1272 6.0 6
  367.10342 12.0 12
  367.11819 8.0 8
  367.14862 13.0 13
  368.07413 6.0 6
  368.14139 8.0 8
  369.14154 9.0 9
  370.14951 6.0 6
  377.10226 6.0 6
  377.12485 19.0 19
  378.14334 13.0 13
  382.30179 7.0 7
  383.72855 7.0 7
  384.36493 6.0 6
  385.07126 12.0 12
  395.07825 9.0 9
  395.13962 55.0 55
  405.11221 9.0 9
  405.12543 7.0 7
  422.40753 6.0 6
  441.05978 7.0 7
  441.08527 6.0 6
  441.13855 1000.0 999
//
