ACCESSION: MSBNK-RIKEN-PR310609
RECORD_TITLE: Humantenine; LC-ESI-QTOF; MS2
DATE: 2019.03.28
AUTHORS: Tetsuya Mori, Center for Sustainable Resource Science, RIKEN
LICENSE: CC BY-NC-SA
PUBLICATION: Tsugawa H., Nakabayashi R., Mori T., Yamada Y., Takahashi M., Rai A., Sugiyama R., Yamamoto H., Nakaya T., Yamazaki M., Kooke R., Bac-Molenaar JA., Oztolan-Erol N., Keurentjes JJB., Arita M., Saito K. (2019) "A cheminformatics approach to characterize metabolomes in stable-isotope-labeled organisms" Nature Methods 16(4):295-298. [doi:10.1038/s41592-019-0358-2]
COMMENT: Annotation level-1
CH$NAME: Humantenine
CH$COMPOUND_CLASS: Alkaloids
CH$FORMULA: C21H26N2O3
CH$EXACT_MASS: 354.45
CH$SMILES: CON1C(=O)C2(CC3C4COC2CC4C(CN3C)=CC)C2=C1C=CC=C2
CH$IUPAC: InChI=1S/C21H26N2O3/c1-4-13-11-22(2)18-10-21(19-9-14(13)15(18)12-26-19)16-7-5-6-8-17(16)23(25-3)20(21)24/h4-8,14-15,18-19H,9-12H2,1-3H3
CH$LINK: INCHIKEY SJKRPUOXUNOPOP-UHFFFAOYSA-N
AC$INSTRUMENT: LC, Waters Acquity UPLC System; MS, Waters Xevo G2 Q-Tof
AC$INSTRUMENT_TYPE: LC-ESI-QTOF
AC$MASS_SPECTROMETRY: MS_TYPE MS2
AC$MASS_SPECTROMETRY: ION_MODE POSITIVE
AC$MASS_SPECTROMETRY: COLLISION_ENERGY 6V
AC$MASS_SPECTROMETRY: DESOLVATION_GAS_FLOW 800/h
AC$MASS_SPECTROMETRY: DESOLVATION_TEMPERATURE 450 C
AC$MASS_SPECTROMETRY: IONIZATION ESI
AC$CHROMATOGRAPHY: CAPILLARY_VOLTAGE +3.00 kV
AC$CHROMATOGRAPHY: COLUMN_NAME Acquity bridged ethyl hybrid C18 (1.7 um, 2.1 mm * 100 mm, Waters)
AC$CHROMATOGRAPHY: COLUMN_TEMPERATURE 40 C
AC$CHROMATOGRAPHY: FLOW_GRADIENT A/B = (99.5%/0.5% at 0 min, 99.5%/0.5% at 0.1 min, 20%/80% at 10 min, 0.5%/99.5% at 10.1 min, 0.5%/99.5% at 12.0 min, 99.5%/0.5% at 12.1 min, 99.5%/0.5% at 15.0 min)
AC$CHROMATOGRAPHY: FLOW_RATE 0.3 ml/min at 0 min, 0.3 ml/min at 10 min, 0.4 ml/min at 10.1 min, 0.4 ml/min at 14.4 min, 0.3 ml/min at 14.5 min
AC$CHROMATOGRAPHY: RETENTION_TIME 4.63
AC$CHROMATOGRAPHY: SOLVENT A water including 0.1% formic acid
AC$CHROMATOGRAPHY: SOLVENT B acetonitrile including 0.1% formic acid
MS$FOCUSED_ION: PRECURSOR_TYPE [M+H]+
MS$FOCUSED_ION: PRECURSOR_M/Z 355.20162
PK$SPLASH: splash10-0a4i-0219000000-b57a6c7da86a50b3dd56
PK$NUM_PEAK: 776
PK$PEAK: m/z int. rel.int.
  57.06054 31.0 1
  68.04132 53.0 1
  68.0461 25.0 0
  68.45377 28.0 1
  69.02975 26.0 0
  70.0638 42.0 1
  70.06693 68.0 1
  71.06864 43.0 1
  72.08173 20.0 0
  72.50971 20.0 0
  75.21881 25.0 0
  76.55552 38.0 1
  77.84962 33.0 1
  79.05344 33.0 1
  79.05958 32.0 1
  80.05251 30.0 1
  81.07195 40.0 1
  82.06228 75.0 1
  84.08179 18.0 0
  84.08839 45.0 1
  85.08432 87.0 2
  86.05342 21.0 0
  86.09943 42.0 1
  87.33754 17.0 0
  91.04838 25.0 0
  92.04657 27.0 1
  92.06172 18.0 0
  93.06002 21.0 0
  93.07023 64.0 1
  94.05145 31.0 1
  94.0654 401.0 7
  95.04576 27.0 1
  95.07558 65.0 1
  95.09124 20.0 0
  96.07249 32.0 1
  96.0805 114.0 2
  96.61475 22.0 0
  96.81992 17.0 0
  97.04259 24.0 0
  97.08273 35.0 1
  97.09161 41.0 1
  97.94718 18.0 0
  98.05685 21.0 0
  98.06234 69.0 1
  98.07629 25.0 0
  98.09537 81.0 2
  99.1034 36.0 1
  100.07441 17.0 0
  105.05997 33.0 1
  105.0703 64.0 1
  105.07757 34.0 1
  106.06845 26.0 0
  106.0779 48.0 1
  107.03253 33.0 1
  107.07054 24.0 0
  107.07627 81.0 2
  107.08545 89.0 2
  108.04855 23.0 0
  108.06673 30.0 1
  108.08012 796.0 15
  109.06425 60.0 1
  109.08356 186.0 3
  109.09061 277.0 5
  110.06143 30.0 1
  110.07106 26.0 0
  110.08312 22.0 0
  110.09431 342.0 6
  111.10397 35.0 1
  112.06269 23.0 0
  112.07662 30.0 1
  112.08574 34.0 1
  113.11414 27.0 1
  115.74239 27.0 1
  116.14601 18.0 0
  117.06837 43.0 1
  117.07398 54.0 1
  118.06519 26.0 0
  118.07758 56.0 1
  119.06573 19.0 0
  119.08518 256.0 5
  120.04781 26.0 0
  120.08032 837.0 16
  120.09733 50.0 1
  121.07461 19.0 0
  121.08874 778.0 14
  122.04858 18.0 0
  122.0557 23.0 0
  122.07188 22.0 0
  122.08411 263.0 5
  122.09595 3070.0 57
  123.08228 40.0 1
  123.09763 474.0 9
  123.10301 1003.0 19
  123.11275 122.0 2
  123.2556 52.0 1
  123.39589 19.0 0
  124.06876 28.0 1
  124.07579 94.0 2
  124.10934 253.0 5
  124.12315 32.0 1
  125.07903 19.0 0
  126.08937 30.0 1
  128.03975 27.0 1
  128.07098 37.0 1
  128.08315 27.0 1
  128.22682 31.0 1
  129.04376 29.0 1
  129.06517 25.0 0
  129.07106 33.0 1
  130.04149 37.0 1
  130.06149 24.0 0
  130.06804 23.0 0
  130.07765 58.0 1
  131.07394 27.0 1
  131.08255 61.0 1
  131.83643 17.0 0
  132.04616 392.0 7
  132.0591 27.0 1
  132.07771 81.0 2
  132.09232 23.0 0
  133.04544 69.0 1
  133.06471 26.0 0
  133.08365 33.0 1
  133.10115 110.0 2
  134.05725 33.0 1
  134.07254 29.0 1
  134.09627 1094.0 20
  135.10439 339.0 6
  136.05582 18.0 0
  136.06364 21.0 0
  136.0726 101.0 2
  136.07968 44.0 1
  136.08676 39.0 1
  136.11124 3143.0 58
  137.08203 113.0 2
  137.11438 546.0 10
  137.23077 20.0 0
  138.09273 75.0 1
  138.12146 20.0 0
  138.12662 20.0 0
  138.13464 30.0 1
  139.12885 20.0 0
  140.04683 38.0 1
  142.06723 22.0 0
  142.08409 35.0 1
  143.08565 76.0 1
  143.32077 30.0 1
  144.0685 81.0 2
  144.07787 88.0 2
  144.08888 33.0 1
  144.66377 26.0 0
  145.07857 29.0 1
  145.09364 24.0 0
  146.02586 73.0 1
  146.03763 50.0 1
  146.0591 174.0 3
  146.08405 43.0 1
  146.09526 144.0 3
  147.04297 18.0 0
  147.06853 24.0 0
  147.08078 27.0 1
  147.09747 45.0 1
  147.10689 91.0 2
  148.07875 55.0 1
  148.08601 161.0 3
  148.10951 423.0 8
  148.1149 222.0 4
  149.06857 21.0 0
  149.09969 56.0 1
  149.12216 282.0 5
  150.04568 29.0 1
  150.06642 21.0 0
  150.07442 36.0 1
  150.09071 911.0 17
  150.09688 308.0 6
  150.12262 223.0 4
  150.1304 387.0 7
  150.14651 19.0 0
  151.09814 76.0 1
  151.10426 74.0 1
  151.11467 32.0 1
  151.12543 82.0 2
  151.13306 172.0 3
  151.13956 234.0 4
  151.15387 29.0 1
  152.0925 58.0 1
  152.10854 544.0 10
  152.12329 44.0 1
  152.14841 18.0 0
  153.07416 29.0 1
  153.1149 321.0 6
  153.82939 20.0 0
  154.06165 25.0 0
  155.07201 24.0 0
  155.1241 33.0 1
  156.06628 36.0 1
  156.07324 31.0 1
  156.08389 35.0 1
  157.08421 78.0 1
  157.32919 36.0 1
  158.0605 198.0 4
  158.09705 50.0 1
  159.05554 47.0 1
  159.06468 67.0 1
  159.07559 105.0 2
  159.09489 24.0 0
  159.10173 45.0 1
  159.10974 68.0 1
  160.07428 57.0 1
  160.10773 35.0 1
  160.11993 24.0 0
  161.02811 17.0 0
  161.10083 24.0 0
  161.10976 38.0 1
  161.11902 40.0 1
  162.0426 30.0 1
  162.05783 44.0 1
  162.0997 22.0 0
  162.12024 64.0 1
  162.13687 51.0 1
  162.56926 20.0 0
  163.05972 25.0 0
  163.08791 21.0 0
  163.11729 29.0 1
  163.13521 83.0 2
  164.09729 79.0 1
  164.10825 527.0 10
  164.13716 96.0 2
  164.14668 49.0 1
  164.42387 25.0 0
  165.06839 25.0 0
  165.10155 45.0 1
  165.11694 286.0 5
  165.47118 44.0 1
  165.96518 21.0 0
  165.98627 30.0 1
  166.06487 91.0 2
  166.10019 29.0 1
  166.11824 54.0 1
  167.07249 63.0 1
  167.08727 26.0 0
  168.06946 28.0 1
  168.33286 17.0 0
  169.06424 28.0 1
  169.08841 18.0 0
  169.89351 24.0 0
  170.04919 23.0 0
  170.07616 56.0 1
  170.09914 114.0 2
  170.77202 25.0 0
  171.08348 33.0 1
  171.70546 26.0 0
  172.07513 132.0 2
  172.09494 34.0 1
  172.11086 98.0 2
  173.06305 70.0 1
  173.07652 105.0 2
  174.05544 28.0 1
  174.09531 18.0 0
  174.12158 17.0 0
  174.13242 48.0 1
  174.96501 17.0 0
  175.05542 25.0 0
  175.06772 20.0 0
  175.07777 28.0 1
  175.13297 17.0 0
  176.07271 54.0 1
  176.10239 31.0 1
  176.10912 32.0 1
  176.14142 20.0 0
  177.10893 67.0 1
  177.14491 34.0 1
  177.67928 17.0 0
  178.06 44.0 1
  178.06879 31.0 1
  178.08891 54.0 1
  178.09985 35.0 1
  178.12155 2441.0 45
  178.50336 33.0 1
  179.07245 84.0 2
  179.09338 47.0 1
  179.09982 28.0 1
  179.13068 1173.0 22
  180.01913 17.0 0
  180.07454 94.0 2
  180.10889 21.0 0
  180.12314 98.0 2
  180.13957 75.0 1
  180.24716 17.0 0
  180.86031 19.0 0
  181.08853 27.0 1
  181.09631 45.0 1
  181.13916 30.0 1
  182.02078 42.0 1
  182.04819 17.0 0
  182.06343 76.0 1
  182.08897 42.0 1
  182.10002 59.0 1
  182.24638 28.0 1
  183.03996 18.0 0
  183.06848 70.0 1
  183.09628 20.0 0
  184.07964 151.0 3
  184.09932 23.0 0
  184.11919 29.0 1
  185.09489 17.0 0
  185.90326 17.0 0
  185.98698 17.0 0
  186.05696 35.0 1
  186.94278 30.0 1
  188.09296 24.0 0
  188.1055 25.0 0
  188.63617 21.0 0
  189.06915 19.0 0
  189.10007 23.0 0
  190.05524 24.0 0
  190.08475 142.0 3
  190.12776 55.0 1
  192.07466 28.0 1
  192.13066 280.0 5
  192.14087 927.0 17
  192.36914 18.0 0
  193.0654 24.0 0
  193.08066 51.0 1
  193.13432 42.0 1
  193.14035 84.0 2
  193.14786 67.0 1
  194.06798 20.0 0
  194.0965 51.0 1
  195.07138 24.0 0
  195.10422 26.0 0
  195.60464 20.0 0
  196.06602 62.0 1
  196.08015 211.0 4
  196.10179 129.0 2
  197.07268 68.0 1
  197.09224 33.0 1
  197.10318 67.0 1
  197.16083 24.0 0
  198.06189 30.0 1
  198.07997 166.0 3
  198.09229 67.0 1
  198.10442 18.0 0
  198.1317 58.0 1
  199.08282 104.0 2
  199.09676 43.0 1
  199.30235 17.0 0
  200.05956 23.0 0
  200.08627 26.0 0
  200.10219 31.0 1
  202.08054 25.0 0
  202.09126 39.0 1
  202.68837 21.0 0
  202.73407 26.0 0
  202.99345 17.0 0
  203.06947 30.0 1
  204.08037 35.0 1
  204.09128 17.0 0
  204.26976 17.0 0
  205.10248 32.0 1
  205.14282 18.0 0
  205.15369 54.0 1
  205.52303 20.0 0
  206.10127 65.0 1
  206.14862 21.0 0
  206.3766 29.0 1
  207.09705 60.0 1
  208.10022 18.0 0
  208.11533 60.0 1
  208.64908 56.0 1
  209.05437 25.0 0
  209.0685 25.0 0
  209.09203 54.0 1
  209.11436 142.0 3
  209.12396 58.0 1
  209.36642 19.0 0
  209.56476 18.0 0
  210.0878 114.0 2
  210.10133 41.0 1
  210.78082 42.0 1
  211.05734 21.0 0
  211.06429 34.0 1
  211.08636 129.0 2
  211.09558 54.0 1
  211.10779 28.0 1
  211.11584 28.0 1
  211.14133 21.0 0
  212.06648 59.0 1
  212.08415 39.0 1
  212.10193 51.0 1
  212.11711 21.0 0
  212.14133 23.0 0
  212.41499 22.0 0
  213.06564 22.0 0
  213.10213 111.0 2
  213.13692 31.0 1
  213.14928 54.0 1
  213.21211 29.0 1
  213.23077 21.0 0
  213.37784 28.0 1
  214.11699 20.0 0
  214.14482 100.0 2
  215.07848 46.0 1
  215.79852 19.0 0
  216.07213 24.0 0
  216.08363 44.0 1
  216.10893 27.0 1
  217.08145 62.0 1
  217.09291 42.0 1
  217.83961 37.0 1
  218.10184 27.0 1
  219.11165 26.0 0
  219.42813 20.0 0
  220.10455 32.0 1
  220.78343 35.0 1
  221.07936 57.0 1
  221.1066 60.0 1
  221.12311 48.0 1
  221.31584 17.0 0
  221.71823 31.0 1
  222.07152 17.0 0
  222.08936 55.0 1
  222.10249 67.0 1
  222.11156 25.0 0
  222.12358 25.0 0
  222.14439 175.0 3
  222.15918 67.0 1
  223.10966 20.0 0
  223.15811 60.0 1
  223.92953 19.0 0
  224.10333 156.0 3
  224.13753 25.0 0
  224.28659 29.0 1
  224.60382 19.0 0
  224.87361 22.0 0
  225.06607 27.0 1
  225.075 48.0 1
  225.08681 132.0 2
  225.10146 388.0 7
  225.13739 19.0 0
  225.69977 24.0 0
  226.01532 25.0 0
  226.11057 128.0 2
  227.07011 20.0 0
  227.10663 20.0 0
  227.12216 30.0 1
  228.04198 24.0 0
  228.10071 22.0 0
  228.13171 21.0 0
  229.07674 25.0 0
  229.09567 33.0 1
  229.69498 39.0 1
  230.09438 118.0 2
  230.19841 29.0 1
  230.53163 30.0 1
  230.71021 25.0 0
  231.09863 66.0 1
  231.63448 27.0 1
  232.06833 27.0 1
  232.10744 159.0 3
  232.12035 29.0 1
  232.13591 25.0 0
  233.07671 137.0 3
  233.1447 37.0 1
  233.18416 23.0 0
  234.09082 55.0 1
  234.10277 39.0 1
  234.12849 18.0 0
  234.13576 23.0 0
  234.49553 37.0 1
  235.09503 20.0 0
  235.12836 33.0 1
  236.09053 19.0 0
  236.10368 85.0 2
  236.11813 28.0 1
  236.14024 63.0 1
  237.10443 86.0 2
  237.13704 94.0 2
  237.1458 78.0 1
  237.196 18.0 0
  237.63048 64.0 1
  238.09712 24.0 0
  239.08585 52.0 1
  239.10237 17.0 0
  239.1171 230.0 4
  239.16809 28.0 1
  239.32668 23.0 0
  240.0687 20.0 0
  240.09367 17.0 0
  240.11998 97.0 2
  240.13821 30.0 1
  240.15657 23.0 0
  240.19936 18.0 0
  240.21791 46.0 1
  241.13406 163.0 3
  241.59007 35.0 1
  242.08765 92.0 2
  242.10155 74.0 1
  242.14293 20.0 0
  243.05795 28.0 1
  243.15141 53.0 1
  244.09265 29.0 1
  244.11522 17.0 0
  245.11652 37.0 1
  246.09146 73.0 1
  246.12755 41.0 1
  246.14095 30.0 1
  246.17911 18.0 0
  246.22636 27.0 1
  246.7467 17.0 0
  247.08755 17.0 0
  247.11488 81.0 2
  247.13962 50.0 1
  248.00543 19.0 0
  248.10762 169.0 3
  248.13593 46.0 1
  248.79518 17.0 0
  249.08185 21.0 0
  249.11008 221.0 4
  249.13313 63.0 1
  249.14946 59.0 1
  249.61121 29.0 1
  249.76862 27.0 1
  250.06525 25.0 0
  250.12161 113.0 2
  250.59639 30.0 1
  251.10838 66.0 1
  251.1207 42.0 1
  251.14236 30.0 1
  251.15941 46.0 1
  252.12889 141.0 3
  252.14047 74.0 1
  252.15709 25.0 0
  252.18338 28.0 1
  252.31929 33.0 1
  253.13297 240.0 4
  253.14899 28.0 1
  253.72542 43.0 1
  253.73274 91.0 2
  254.12631 33.0 1
  254.14819 51.0 1
  255.14542 19.0 0
  255.81894 19.0 0
  258.1264 55.0 1
  258.93616 33.0 1
  259.12036 20.0 0
  260.10464 80.0 1
  261.0889 22.0 0
  261.10861 27.0 1
  261.45056 20.0 0
  261.74078 23.0 0
  262.07837 29.0 1
  262.11118 40.0 1
  262.12302 160.0 3
  262.57547 26.0 0
  263.10938 23.0 0
  263.15393 62.0 1
  264.103 28.0 1
  264.12225 87.0 2
  264.14847 33.0 1
  264.81192 17.0 0
  265.13007 237.0 4
  265.15485 38.0 1
  265.71548 31.0 1
  266.12701 20.0 0
  266.14813 86.0 2
  266.15839 57.0 1
  266.17789 18.0 0
  266.70071 18.0 0
  267.11475 20.0 0
  267.12775 44.0 1
  267.15146 135.0 3
  267.16119 61.0 1
  268.12946 27.0 1
  268.14008 26.0 0
  268.15576 24.0 0
  268.19775 48.0 1
  268.20541 17.0 0
  268.81595 19.0 0
  269.12033 21.0 0
  269.19653 25.0 0
  269.44382 27.0 1
  270.78644 18.0 0
  271.13297 22.0 0
  272.48865 31.0 1
  273.17484 22.0 0
  274.1344 60.0 1
  274.16724 29.0 1
  275.12857 43.0 1
  275.14072 65.0 1
  275.73761 22.0 0
  277.11533 28.0 1
  277.13 55.0 1
  277.17288 45.0 1
  277.33771 21.0 0
  277.50693 19.0 0
  277.84256 31.0 1
  278.11472 42.0 1
  278.12933 91.0 2
  278.18005 100.0 2
  279.09802 21.0 0
  279.11179 19.0 0
  279.12094 21.0 0
  279.14224 130.0 2
  279.1535 222.0 4
  279.18851 99.0 2
  279.93945 17.0 0
  279.99246 20.0 0
  280.15869 79.0 1
  281.12497 77.0 1
  281.15836 417.0 8
  281.16852 847.0 16
  281.98193 20.0 0
  282.14423 50.0 1
  282.17297 281.0 5
  282.18671 347.0 6
  282.20035 121.0 2
  283.13245 17.0 0
  283.14532 65.0 1
  283.17102 84.0 2
  283.19144 107.0 2
  285.1571 34.0 1
  285.22964 40.0 1
  291.11102 50.0 1
  291.14514 119.0 2
  291.15778 32.0 1
  292.13419 17.0 0
  292.15073 43.0 1
  292.96823 21.0 0
  293.07224 17.0 0
  293.10376 49.0 1
  293.13766 117.0 2
  293.16382 720.0 13
  293.17432 236.0 4
  293.19461 27.0 1
  293.28958 22.0 0
  293.47266 18.0 0
  293.89175 33.0 1
  294.06696 18.0 0
  294.14301 88.0 2
  294.17133 440.0 8
  294.99854 17.0 0
  295.14264 368.0 7
  295.16241 90.0 2
  295.17889 469.0 9
  295.19662 41.0 1
  296.05038 22.0 0
  296.11908 35.0 1
  296.14542 142.0 3
  296.18964 3000.0 56
  296.77338 21.0 0
  296.84839 20.0 0
  297.16031 21.0 0
  297.18564 427.0 8
  297.20126 334.0 6
  297.95288 20.0 0
  298.17368 43.0 1
  298.19608 25.0 0
  298.94928 30.0 1
  299.6524 19.0 0
  299.88638 20.0 0
  300.12366 27.0 1
  300.62357 19.0 0
  301.18738 23.0 0
  302.74875 22.0 0
  304.86041 28.0 1
  305.13934 26.0 0
  305.16681 58.0 1
  305.17612 29.0 1
  306.18546 26.0 0
  307.1622 27.0 1
  307.17459 33.0 1
  307.20154 19.0 0
  307.75436 20.0 0
  307.91107 18.0 0
  307.94785 38.0 1
  307.99796 22.0 0
  308.92828 23.0 0
  309.08917 48.0 1
  309.11636 232.0 4
  309.16037 19724.0 365
  309.21823 29.0 1
  309.27151 31.0 1
  309.79279 17.0 0
  310.01273 19.0 0
  310.02563 37.0 1
  310.11719 115.0 2
  310.16428 4080.0 76
  310.26562 18.0 0
  310.47803 30.0 1
  310.53058 21.0 0
  310.6723 17.0 0
  310.99881 30.0 1
  311.09387 20.0 0
  311.11676 27.0 1
  311.14359 43.0 1
  311.16742 726.0 13
  311.70386 23.0 0
  312.02936 31.0 1
  312.17279 117.0 2
  312.20773 26.0 0
  313.32504 28.0 1
  313.8074 47.0 1
  315.63766 18.0 0
  315.91403 18.0 0
  316.05313 28.0 1
  316.60086 17.0 0
  317.71323 18.0 0
  322.16983 17.0 0
  323.11816 41.0 1
  323.17453 1265.0 23
  323.19461 138.0 3
  323.34271 17.0 0
  324.0802 47.0 1
  324.14371 419.0 8
  324.18311 19632.0 364
  324.23697 173.0 3
  324.37091 26.0 0
  324.41415 19.0 0
  324.60922 32.0 1
  324.91229 17.0 0
  325.08102 41.0 1
  325.13867 112.0 2
  325.15961 164.0 3
  325.18771 4573.0 85
  325.23291 20.0 0
  325.26398 25.0 0
  325.29968 37.0 1
  325.43991 22.0 0
  325.50293 22.0 0
  325.75638 18.0 0
  325.83878 20.0 0
  326.19183 1013.0 19
  326.32623 21.0 0
  326.51486 25.0 0
  326.53082 25.0 0
  326.72348 37.0 1
  326.87717 17.0 0
  327.51746 27.0 1
  329.02319 33.0 1
  329.11539 17.0 0
  329.69504 18.0 0
  329.74133 20.0 0
  330.65701 18.0 0
  331.4733 30.0 1
  333.24893 17.0 0
  333.45395 20.0 0
  335.07172 25.0 0
  336.02655 17.0 0
  337.17767 43.0 1
  337.19299 23.0 0
  338.26596 36.0 1
  339.29761 25.0 0
  340.56876 39.0 1
  345.92166 23.0 0
  347.06714 21.0 0
  348.49185 20.0 0
  351.46179 20.0 0
  352.25641 24.0 0
  353.19302 33.0 1
  353.82129 19.0 0
  353.8974 27.0 1
  354.18735 17.0 0
  354.20633 17.0 0
  354.40469 20.0 0
  354.61905 25.0 0
  354.97714 19.0 0
  355.04733 18.0 0
  355.06458 23.0 0
  355.10358 108.0 2
  355.12512 62.0 1
  355.14935 223.0 4
  355.20093 53936.0 999
  355.25534 1401.0 26
  355.30853 134.0 2
  355.37128 18.0 0
//
