ACCESSION: MSBNK-RIKEN-PR302166
RECORD_TITLE: Daidzein-8-C-glucoside; LC-ESI-QTOF; MS2
DATE: 2019.03.28
AUTHORS: Tetsuya Mori, Center for Sustainable Resource Science, RIKEN
LICENSE: CC BY-NC-SA
PUBLICATION: Tsugawa H., Nakabayashi R., Mori T., Yamada Y., Takahashi M., Rai A., Sugiyama R., Yamamoto H., Nakaya T., Yamazaki M., Kooke R., Bac-Molenaar JA., Oztolan-Erol N., Keurentjes JJB., Arita M., Saito K. (2019) "A cheminformatics approach to characterize metabolomes in stable-isotope-labeled organisms" Nature Methods 16(4):295-298. [doi:10.1038/s41592-019-0358-2]
COMMENT: registered in RIKEN PlaSMA
CH$NAME: Daidzein-8-C-glucoside
CH$COMPOUND_CLASS: Isoflavonoid C-glycosides
CH$FORMULA: C21H20O9
CH$EXACT_MASS: 416.382
CH$SMILES: OC[C@H]1O[C@H]([C@H](O)[C@@H](O)[C@@H]1O)C1=C(O)C=CC2=C1OC=C(C2=O)C1=CC=C(O)C=C1
CH$IUPAC: InChI=1S/C21H20O9/c22-7-14-17(26)18(27)19(28)21(30-14)15-13(24)6-5-11-16(25)12(8-29-20(11)15)9-1-3-10(23)4-2-9/h1-6,8,14,17-19,21-24,26-28H,7H2/t14-,17-,18+,19-,21+/m1/s1
CH$LINK: INCHIKEY HKEAFJYKMMKDOR-VPRICQMDSA-N
AC$INSTRUMENT: LC, Waters Acquity UPLC System; MS, Waters Xevo G2 Q-Tof
AC$INSTRUMENT_TYPE: LC-ESI-QTOF
AC$MASS_SPECTROMETRY: MS_TYPE MS2
AC$MASS_SPECTROMETRY: ION_MODE POSITIVE
AC$MASS_SPECTROMETRY: COLLISION_ENERGY 6V
AC$MASS_SPECTROMETRY: DESOLVATION_GAS_FLOW 800/h
AC$MASS_SPECTROMETRY: DESOLVATION_TEMPERATURE 450 C
AC$MASS_SPECTROMETRY: IONIZATION ESI
AC$CHROMATOGRAPHY: CAPILLARY_VOLTAGE +3.00 kV
AC$CHROMATOGRAPHY: COLUMN_NAME Acquity bridged ethyl hybrid C18 (1.7 um, 2.1 mm * 100 mm, Waters)
AC$CHROMATOGRAPHY: COLUMN_TEMPERATURE 40 C
AC$CHROMATOGRAPHY: FLOW_GRADIENT A/B = (99.5%/0.5% at 0 min, 99.5%/0.5% at 0.1 min, 20%/80% at 10 min, 0.5%/99.5% at 10.1 min, 0.5%/99.5% at 12.0 min, 99.5%/0.5% at 12.1 min, 99.5%/0.5% at 15.0 min)
AC$CHROMATOGRAPHY: FLOW_RATE 0.3 ml/min at 0 min, 0.3 ml/min at 10 min, 0.4 ml/min at 10.1 min, 0.4 ml/min at 14.4 min, 0.3 ml/min at 14.5 min
AC$CHROMATOGRAPHY: RETENTION_TIME 3.274983
AC$CHROMATOGRAPHY: SOLVENT A water including 0.1% formic acid
AC$CHROMATOGRAPHY: SOLVENT B acetonitrile including 0.1% formic acid
MS$FOCUSED_ION: PRECURSOR_TYPE [M+H]+
MS$FOCUSED_ION: PRECURSOR_M/Z 417.1180087
PK$SPLASH: splash10-014r-0590000000-e697d6465abb9e7c6ad5
PK$NUM_PEAK: 274
PK$PEAK: m/z int. rel.int.
  65.03571 7.0 7
  72.98771 5.0 5
  77.03862 16.0 16
  79.05746 6.0 6
  81.8295 5.0 5
  91.05144 15.0 15
  91.05887 8.0 8
  93.02676 7.0 7
  94.04171 6.0 6
  105.02649 21.0 21
  105.03345 12.0 12
  105.87919 7.0 7
  106.29061 7.0 7
  107.04638 23.0 23
  107.05321 10.0 10
  115.04342 5.0 5
  117.03455 10.0 10
  118.03454 11.0 11
  119.04636 12.0 12
  120.05363 5.0 5
  121.0213 23.0 23
  121.028 73.0 73
  123.04577 10.0 10
  124.25316 5.0 5
  127.04733 7.0 7
  127.05367 10.0 10
  128.05814 5.0 5
  129.06378 17.0 17
  129.07787 15.0 15
  131.04097 7.0 7
  131.05147 7.0 7
  133.01825 6.0 6
  133.02841 42.0 42
  134.0388 21.0 21
  135.04607 44.0 44
  137.03198 9.0 9
  139.05605 10.0 10
  141.07162 8.0 8
  141.0816 7.0 7
  142.04466 8.0 8
  143.90793 8.0 8
  144.05904 12.0 12
  144.0649 11.0 11
  145.02061 8.0 8
  145.02863 44.0 44
  145.06332 10.0 10
  145.07495 13.0 13
  146.02882 22.0 22
  146.04085 6.0 6
  147.04378 53.0 53
  147.0489 26.0 26
  148.98959 5.0 5
  149.02263 36.0 36
  149.02948 39.0 39
  152.05272 8.0 8
  152.06342 31.0 31
  152.34326 8.0 8
  153.07404 68.0 68
  153.10449 6.0 6
  153.13435 5.0 5
  154.08304 7.0 7
  155.05003 8.0 8
  155.08066 6.0 6
  155.08971 35.0 35
  155.1017 9.0 9
  156.05292 7.0 7
  157.03261 8.0 8
  157.04573 5.0 5
  157.0654 50.0 50
  157.0744 12.0 12
  158.065 26.0 26
  159.04106 19.0 19
  160.04945 28.0 28
  160.5715 5.0 5
  161.02042 15.0 15
  162.0264 10.0 10
  163.00604 5.0 5
  163.03853 23.0 23
  164.05403 5.0 5
  165.03018 6.0 6
  165.06398 58.0 58
  165.07191 153.0 153
  165.09088 7.0 7
  166.07037 28.0 28
  166.07964 29.0 29
  167.05493 7.0 7
  167.07953 30.0 30
  167.0863 71.0 71
  168.04414 8.0 8
  168.05914 9.0 9
  168.08298 7.0 7
  169.05939 18.0 18
  169.06995 33.0 33
  169.09534 6.0 6
  170.02873 14.0 14
  170.04372 18.0 18
  170.07111 18.0 18
  170.08394 5.0 5
  171.04584 23.0 23
  171.07182 12.0 12
  171.42343 5.0 5
  172.65421 5.0 5
  173.06088 17.0 17
  173.8033 9.0 9
  175.04057 6.0 6
  176.05971 8.0 8
  177.06821 57.0 57
  178.07545 21.0 21
  179.01892 11.0 11
  179.03442 8.0 8
  179.04321 6.0 6
  179.08311 23.0 23
  180.99776 5.0 5
  181.03587 8.0 8
  181.05515 16.0 16
  181.06601 27.0 27
  182.05879 5.0 5
  182.07294 16.0 16
  183.02858 9.0 9
  183.04181 10.0 10
  183.06587 20.0 20
  183.07828 38.0 38
  183.08765 92.0 92
  184.07739 7.0 7
  184.6333 6.0 6
  185.05739 19.0 19
  185.07471 9.0 9
  185.09161 10.0 10
  186.07579 7.0 7
  189.01848 5.0 5
  189.08005 5.0 5
  190.06885 20.0 20
  190.08006 9.0 9
  191.02649 7.0 7
  191.07428 21.0 21
  191.08969 7.0 7
  193.06696 16.0 16
  194.07028 37.0 37
  195.02264 10.0 10
  195.03896 64.0 64
  195.05432 29.0 29
  195.06841 5.0 5
  195.0818 112.0 112
  196.04071 5.0 5
  196.077 10.0 10
  196.0878 7.0 7
  196.12514 5.0 5
  197.04031 8.0 8
  197.05798 45.0 45
  197.09695 11.0 11
  198.06964 26.0 26
  199.03558 5.0 5
  199.0757 5.0 5
  200.04791 13.0 13
  200.6993 7.0 7
  200.96008 8.0 8
  201.07155 6.0 6
  202.07669 8.0 8
  205.06049 11.0 11
  205.103 7.0 7
  206.07848 6.0 6
  207.07906 26.0 26
  207.08839 7.0 7
  208.0849 5.0 5
  209.07924 11.0 11
  210.05466 15.0 15
  210.06892 6.0 6
  211.05936 23.0 23
  211.08249 65.0 65
  213.05397 10.0 10
  215.07755 8.0 8
  217.07318 5.0 5
  219.08066 23.0 23
  221.06189 27.0 27
  221.09395 6.0 6
  221.10791 6.0 6
  222.05864 13.0 13
  223.05472 13.0 13
  223.07562 76.0 76
  224.07263 13.0 13
  224.08421 22.0 22
  225.02933 6.0 6
  225.04944 26.0 26
  225.08601 32.0 32
  225.09895 11.0 11
  226.06831 50.0 50
  226.09651 9.0 9
  227.04408 9.0 9
  227.06508 9.0 9
  231.07306 12.0 12
  232.41617 6.0 6
  233.09038 5.0 5
  235.07852 20.0 20
  236.0439 6.0 6
  236.07033 7.0 7
  236.07918 9.0 9
  238.01547 7.0 7
  238.05977 15.0 15
  238.07344 5.0 5
  238.0891 8.0 8
  238.95096 11.0 11
  239.00636 5.0 5
  239.01871 7.0 7
  239.03131 11.0 11
  239.07018 1000.0 999
  239.10614 9.0 9
  239.41766 6.0 6
  240.00063 9.0 9
  240.04504 7.0 7
  240.07611 484.0 484
  241.04768 12.0 12
  241.07635 64.0 64
  241.08878 40.0 40
  242.06215 5.0 5
  242.07535 5.0 5
  242.0909 12.0 12
  242.94701 6.0 6
  243.09149 6.0 6
  249.09731 28.0 28
  251.01186 6.0 6
  251.07556 6.0 6
  251.11008 7.0 7
  252.05855 6.0 6
  252.07056 24.0 24
  253.04169 7.0 7
  253.07251 5.0 5
  253.08748 12.0 12
  255.07872 6.0 6
  255.24257 5.0 5
  261.03903 6.0 6
  262.05371 5.0 5
  263.0596 28.0 28
  263.07278 41.0 41
  263.09805 6.0 6
  267.03339 25.0 25
  267.06335 412.0 412
  267.20465 7.0 7
  267.5119 8.0 8
  268.07257 550.0 549
  268.35489 5.0 5
  269.07047 57.0 57
  269.08655 62.0 62
  270.07684 11.0 11
  275.07016 6.0 6
  276.06183 8.0 8
  277.08572 5.0 5
  279.05429 18.0 18
  279.07071 83.0 83
  279.09064 8.0 8
  280.05716 12.0 12
  280.07465 7.0 7
  281.06961 33.0 33
  281.08435 61.0 61
  282.07913 6.0 6
  282.0929 12.0 12
  283.04767 6.0 6
  283.82886 6.0 6
  290.09326 11.0 11
  292.10071 5.0 5
  293.05273 9.0 9
  293.07037 9.0 9
  293.08478 10.0 10
  294.08371 5.0 5
  297.06668 26.0 26
  297.07501 45.0 45
  297.09109 10.0 10
  298.08142 14.0 14
  299.08759 5.0 5
  305.07773 16.0 16
  305.09875 15.0 15
  307.09497 20.0 20
  308.08685 9.0 9
  417.10513 8.0 8
  417.13437 6.0 6
//
