ACCESSION: MSBNK-RIKEN-PR304316
RECORD_TITLE: Licoricesaponin H2; LC-ESI-QTOF; MS2
DATE: 2019.03.28
AUTHORS: Tetsuya Mori, Center for Sustainable Resource Science, RIKEN
LICENSE: CC BY-NC-SA
PUBLICATION: Tsugawa H., Nakabayashi R., Mori T., Yamada Y., Takahashi M., Rai A., Sugiyama R., Yamamoto H., Nakaya T., Yamazaki M., Kooke R., Bac-Molenaar JA., Oztolan-Erol N., Keurentjes JJB., Arita M., Saito K. (2019) "A cheminformatics approach to characterize metabolomes in stable-isotope-labeled organisms" Nature Methods 16(4):295-298. [doi:10.1038/s41592-019-0358-2]
COMMENT: registered in RIKEN PlaSMA
CH$NAME: Licoricesaponin H2
CH$COMPOUND_CLASS: Triterpene saponins
CH$FORMULA: C42H62O16
CH$EXACT_MASS: 822.942
CH$SMILES: CC1(C)C(CCC2(C)C1CCC1(C)C2C(=O)C=C2C3CC(C)(CCC3(C)CCC12C)C(O)=O)OC1OC(C(O)C(O)C1OC1OC(C(O)C(O)C1O)C(O)=O)C(O)=O
CH$IUPAC: InChI=1S/C42H62O16/c1-37(2)21-8-11-42(7)31(20(43)16-18-19-17-39(4,36(53)54)13-12-38(19,3)14-15-41(18,42)6)40(21,5)10-9-22(37)55-35-30(26(47)25(46)29(57-35)33(51)52)58-34-27(48)23(44)24(45)28(56-34)32(49)50/h16,19,21-31,34-35,44-48H,8-15,17H2,1-7H3,(H,49,50)(H,51,52)(H,53,54)
CH$LINK: INCHIKEY LPLVUJXQOOQHMX-UHFFFAOYSA-N
AC$INSTRUMENT: LC, Waters Acquity UPLC System; MS, Waters Xevo G2 Q-Tof
AC$INSTRUMENT_TYPE: LC-ESI-QTOF
AC$MASS_SPECTROMETRY: MS_TYPE MS2
AC$MASS_SPECTROMETRY: ION_MODE POSITIVE
AC$MASS_SPECTROMETRY: COLLISION_ENERGY 6V
AC$MASS_SPECTROMETRY: DESOLVATION_GAS_FLOW 800/h
AC$MASS_SPECTROMETRY: DESOLVATION_TEMPERATURE 450 C
AC$MASS_SPECTROMETRY: IONIZATION ESI
AC$CHROMATOGRAPHY: CAPILLARY_VOLTAGE +3.00 kV
AC$CHROMATOGRAPHY: COLUMN_NAME Acquity bridged ethyl hybrid C18 (1.7 um, 2.1 mm * 100 mm, Waters)
AC$CHROMATOGRAPHY: COLUMN_TEMPERATURE 40 C
AC$CHROMATOGRAPHY: FLOW_GRADIENT A/B = (99.5%/0.5% at 0 min, 99.5%/0.5% at 0.1 min, 20%/80% at 10 min, 0.5%/99.5% at 10.1 min, 0.5%/99.5% at 12.0 min, 99.5%/0.5% at 12.1 min, 99.5%/0.5% at 15.0 min)
AC$CHROMATOGRAPHY: FLOW_RATE 0.3 ml/min at 0 min, 0.3 ml/min at 10 min, 0.4 ml/min at 10.1 min, 0.4 ml/min at 14.4 min, 0.3 ml/min at 14.5 min
AC$CHROMATOGRAPHY: RETENTION_TIME 7.03275
AC$CHROMATOGRAPHY: SOLVENT A water including 0.1% formic acid
AC$CHROMATOGRAPHY: SOLVENT B acetonitrile including 0.1% formic acid
MS$FOCUSED_ION: PRECURSOR_TYPE [M+H]+
MS$FOCUSED_ION: PRECURSOR_M/Z 823.4110624
PK$SPLASH: splash10-0udi-0982700000-ca50b490de9d319a00d9
PK$NUM_PEAK: 248
PK$PEAK: m/z int. rel.int.
  81.06633 11.0 11
  83.05347 11.0 11
  83.08797 19.0 19
  93.07108 17.0 17
  95.05016 11.0 11
  95.08493 129.0 129
  97.06773 11.0 11
  99.07848 11.0 11
  105.06042 15.0 15
  107.07517 19.0 19
  107.08629 45.0 45
  109.06617 11.0 11
  109.10126 36.0 36
  110.10326 12.0 12
  119.08043 11.0 11
  119.09265 43.0 43
  121.06715 11.0 11
  121.10188 85.0 85
  121.23628 12.0 12
  123.07862 13.0 13
  123.11705 84.0 84
  124.12257 22.0 22
  125.05482 11.0 11
  125.09616 11.0 11
  133.09166 11.0 11
  135.07715 11.0 11
  135.10411 16.0 16
  135.11794 90.0 90
  136.12796 17.0 17
  137.09381 11.0 11
  139.11018 37.0 37
  141.01321 11.0 11
  141.01949 24.0 24
  141.09863 14.0 14
  141.73502 13.0 13
  142.1227 11.0 11
  145.10033 24.0 24
  147.11124 16.0 16
  147.11868 78.0 78
  149.09808 13.0 13
  149.12267 19.0 19
  149.13477 190.0 190
  150.12749 12.0 12
  150.13434 13.0 13
  151.1067 11.0 11
  151.13951 11.0 11
  152.56912 12.0 12
  157.09926 11.0 11
  157.10695 49.0 49
  159.10867 44.0 44
  161.09264 17.0 17
  161.10622 26.0 26
  161.13039 58.0 58
  162.14081 14.0 14
  163.11839 11.0 11
  163.14771 22.0 22
  163.15549 12.0 12
  163.1687 15.0 15
  165.09007 12.0 12
  171.11882 11.0 11
  173.09676 12.0 12
  173.12636 11.0 11
  175.09731 12.0 12
  175.10759 11.0 11
  175.11588 37.0 37
  175.14114 37.0 37
  175.15419 40.0 40
  177.13463 14.0 14
  177.16148 83.0 83
  178.16243 12.0 12
  178.17442 36.0 36
  180.8685 11.0 11
  181.1526 18.0 18
  183.03186 11.0 11
  185.13728 11.0 11
  187.13905 28.0 28
  187.14723 39.0 39
  187.15808 14.0 14
  188.12004 11.0 11
  189.13382 11.0 11
  189.15538 69.0 69
  189.16504 108.0 108
  190.16127 35.0 35
  190.17407 20.0 20
  190.22733 11.0 11
  190.95206 11.0 11
  191.17967 34.0 34
  192.18079 12.0 12
  197.13687 12.0 12
  199.14717 14.0 14
  200.16234 11.0 11
  201.12376 25.0 25
  201.1622 12.0 12
  202.17589 14.0 14
  203.11766 12.0 12
  203.13591 32.0 32
  203.15271 12.0 12
  204.15036 11.0 11
  205.15593 29.0 29
  205.19641 12.0 12
  206.16104 13.0 13
  207.1469 24.0 24
  211.11496 11.0 11
  213.16125 11.0 11
  213.17212 11.0 11
  214.17155 15.0 15
  214.80177 16.0 16
  215.14958 11.0 11
  215.17111 20.0 20
  215.18495 13.0 13
  216.1857 22.0 22
  217.10942 35.0 35
  217.15506 124.0 124
  217.16391 114.0 114
  217.17738 11.0 11
  218.15479 11.0 11
  218.17326 45.0 45
  219.17372 42.0 42
  225.16188 29.0 29
  225.17088 11.0 11
  227.17935 26.0 26
  228.16895 12.0 12
  229.1944 25.0 25
  231.17397 21.0 21
  232.17284 24.0 24
  233.16467 12.0 12
  233.18199 15.0 15
  234.20161 11.0 11
  234.96652 17.0 17
  235.15604 28.0 28
  235.1658 83.0 83
  235.17448 74.0 74
  236.16589 37.0 37
  238.17912 13.0 13
  240.1714 13.0 13
  240.18727 11.0 11
  241.16113 37.0 37
  241.1889 29.0 29
  241.20056 25.0 25
  241.22461 14.0 14
  242.16815 14.0 14
  243.16707 12.0 12
  244.17719 14.0 14
  245.15912 12.0 12
  245.18007 22.0 22
  245.19444 11.0 11
  247.18242 12.0 12
  253.17068 11.0 11
  253.19562 12.0 12
  254.20634 11.0 11
  257.18488 11.0 11
  257.19983 45.0 45
  259.17157 12.0 12
  259.20279 14.0 14
  260.17862 12.0 12
  261.14658 15.0 15
  261.15945 27.0 27
  261.17511 12.0 12
  265.20392 17.0 17
  266.20343 13.0 13
  267.2052 73.0 73
  267.22363 12.0 12
  268.2149 12.0 12
  271.15878 12.0 12
  271.1958 31.0 31
  271.20969 40.0 40
  276.20932 16.0 16
  279.19766 11.0 11
  279.21686 12.0 12
  283.19864 11.0 11
  285.02957 12.0 12
  285.2178 76.0 76
  286.22263 12.0 12
  286.23132 17.0 17
  289.17679 22.0 22
  293.22321 13.0 13
  295.21851 14.0 14
  299.189 14.0 14
  299.19925 17.0 17
  301.17828 11.0 11
  301.20953 11.0 11
  301.22079 11.0 11
  303.18649 12.0 12
  305.21097 14.0 14
  309.26501 14.0 14
  311.21951 27.0 27
  311.23752 11.0 11
  313.22177 11.0 11
  315.17664 11.0 11
  316.24396 12.0 12
  318.17105 11.0 11
  323.23883 35.0 35
  324.25076 11.0 11
  327.27856 11.0 11
  330.20663 16.0 16
  331.20605 12.0 12
  335.25717 11.0 11
  338.27924 13.0 13
  339.23129 16.0 16
  341.24481 11.0 11
  343.21716 37.0 37
  343.22964 13.0 13
  353.24466 11.0 11
  355.21689 15.0 15
  355.24182 27.0 27
  356.20862 12.0 12
  357.23389 24.0 24
  357.24841 11.0 11
  358.2428 12.0 12
  358.25433 13.0 13
  365.31577 24.0 24
  366.18768 11.0 11
  366.23825 12.0 12
  369.25598 11.0 11
  370.26263 14.0 14
  379.27579 11.0 11
  383.25565 12.0 12
  389.30435 11.0 11
  389.32797 42.0 42
  390.31842 11.0 11
  392.2807 11.0 11
  393.30353 11.0 11
  393.32797 11.0 11
  394.30951 11.0 11
  397.2865 24.0 24
  407.33694 157.0 157
  408.32913 20.0 20
  408.34442 37.0 37
  409.38849 11.0 11
  411.27631 14.0 14
  433.65295 21.0 21
  435.32706 153.0 153
  435.35135 12.0 12
  436.32501 59.0 59
  438.3559 12.0 12
  453.2901 13.0 13
  453.33591 1000.0 999
  453.37592 33.0 33
  454.31519 37.0 37
  454.34741 118.0 118
  454.36832 37.0 37
  455.31116 16.0 16
  455.34802 96.0 96
  471.34613 11.0 11
  471.35687 29.0 29
  472.35687 11.0 11
  574.28906 15.0 15
  698.28229 11.0 11
//
