ACCESSION: MSBNK-RIKEN-PR310669
RECORD_TITLE: Soyasapogenol B base + O-HexA-Pen-dHex; LC-ESI-QTOF; MS2
DATE: 2019.03.28
AUTHORS: Tetsuya Mori, Center for Sustainable Resource Science, RIKEN
LICENSE: CC BY-NC-SA
PUBLICATION: Tsugawa H., Nakabayashi R., Mori T., Yamada Y., Takahashi M., Rai A., Sugiyama R., Yamamoto H., Nakaya T., Yamazaki M., Kooke R., Bac-Molenaar JA., Oztolan-Erol N., Keurentjes JJB., Arita M., Saito K. (2019) "A cheminformatics approach to characterize metabolomes in stable-isotope-labeled organisms" Nature Methods 16(4):295-298. [doi:10.1038/s41592-019-0358-2]
COMMENT: Annotation level-3
CH$NAME: Soyasapogenol B base + O-HexA-Pen-dHex
CH$COMPOUND_CLASS: Triterpene saponins
CH$FORMULA: C47H76O17
CH$EXACT_MASS: 913.108
CH$SMILES: O=C(O)C8OC(OC5CCC4(C)(C(CCC2(C)(C4(CC=C1C3CC(C)(C)CC(O)C3(C)(CCC12(C)))))C5(C)(CO)))C(OC7OCC(O)C(O)C7(OC6OC(C)C(O)C(O)C6(O)))C(O)C8(O)
CH$IUPAC: InChI=1S/C47H76O17/c1-21-29(51)31(53)34(56)39(60-21)63-36-30(52)24(49)19-59-40(36)64-37-33(55)32(54)35(38(57)58)62-41(37)61-28-12-13-44(5)25(45(28,6)20-48)11-14-47(8)26(44)10-9-22-23-17-42(2,3)18-27(50)43(23,4)15-16-46(22,47)7/h9,21,23-37,39-41,48-56H,10-20H2,1-8H3,(H,57,58)
CH$LINK: INCHIKEY IBZLICPLPYSFNZ-UHFFFAOYSA-N
AC$INSTRUMENT: LC, Waters Acquity UPLC System; MS, Waters Xevo G2 Q-Tof
AC$INSTRUMENT_TYPE: LC-ESI-QTOF
AC$MASS_SPECTROMETRY: MS_TYPE MS2
AC$MASS_SPECTROMETRY: ION_MODE POSITIVE
AC$MASS_SPECTROMETRY: COLLISION_ENERGY 6V
AC$MASS_SPECTROMETRY: DESOLVATION_GAS_FLOW 800/h
AC$MASS_SPECTROMETRY: DESOLVATION_TEMPERATURE 450 C
AC$MASS_SPECTROMETRY: IONIZATION ESI
AC$CHROMATOGRAPHY: CAPILLARY_VOLTAGE +3.00 kV
AC$CHROMATOGRAPHY: COLUMN_NAME Acquity bridged ethyl hybrid C18 (1.7 um, 2.1 mm * 100 mm, Waters)
AC$CHROMATOGRAPHY: COLUMN_TEMPERATURE 40 C
AC$CHROMATOGRAPHY: FLOW_GRADIENT A/B = (99.5%/0.5% at 0 min, 99.5%/0.5% at 0.1 min, 20%/80% at 10 min, 0.5%/99.5% at 10.1 min, 0.5%/99.5% at 12.0 min, 99.5%/0.5% at 12.1 min, 99.5%/0.5% at 15.0 min)
AC$CHROMATOGRAPHY: FLOW_RATE 0.3 ml/min at 0 min, 0.3 ml/min at 10 min, 0.4 ml/min at 10.1 min, 0.4 ml/min at 14.4 min, 0.3 ml/min at 14.5 min
AC$CHROMATOGRAPHY: RETENTION_TIME 7.28
AC$CHROMATOGRAPHY: SOLVENT A water including 0.1% formic acid
AC$CHROMATOGRAPHY: SOLVENT B acetonitrile including 0.1% formic acid
MS$FOCUSED_ION: PRECURSOR_TYPE [M+H]+
MS$FOCUSED_ION: PRECURSOR_M/Z 913.5144
PK$SPLASH: splash10-006x-0221924302-be4e510c316be03c1184
PK$NUM_PEAK: 277
PK$PEAK: m/z int. rel.int.
  52.92542 22.0 11
  63.96822 23.0 11
  66.14511 19.0 9
  67.49998 17.0 8
  69.63824 19.0 9
  85.0222 24.0 12
  85.6573 22.0 11
  89.84351 24.0 12
  93.01307 23.0 11
  97.02398 17.0 8
  97.03358 18.0 9
  103.02782 17.0 8
  106.61217 17.0 8
  111.04391 69.0 34
  117.0505 17.0 8
  122.27687 19.0 9
  124.0771 27.0 13
  125.93379 18.0 9
  129.05923 26.0 13
  132.04134 30.0 15
  135.04335 19.0 9
  135.11552 18.0 9
  141.00937 18.0 9
  141.01738 17.0 8
  141.02531 27.0 13
  142.0226 17.0 8
  147.06546 118.0 59
  149.12451 28.0 14
  159.02928 35.0 17
  159.03508 24.0 12
  160.09608 25.0 12
  161.04216 18.0 9
  163.13855 17.0 8
  163.15245 18.0 9
  165.05197 24.0 12
  165.07829 46.0 23
  169.32526 20.0 10
  173.13254 19.0 9
  175.10641 17.0 8
  175.14148 17.0 8
  175.15077 25.0 12
  176.03912 17.0 8
  177.03368 23.0 11
  177.16498 110.0 55
  179.02948 21.0 10
  179.13815 25.0 12
  179.17815 23.0 11
  181.15158 24.0 12
  182.967 17.0 8
  187.0609 39.0 19
  187.14778 50.0 25
  188.93816 33.0 16
  189.15672 18.0 9
  189.16608 74.0 37
  191.17599 68.0 34
  192.18024 24.0 12
  193.14961 17.0 8
  195.18095 37.0 18
  199.01643 28.0 14
  201.16257 19.0 9
  202.17192 25.0 12
  203.16452 20.0 10
  203.18088 154.0 76
  203.18787 54.0 27
  204.15634 21.0 10
  204.18561 18.0 9
  205.16278 36.0 18
  207.1619 17.0 8
  207.17542 71.0 35
  208.1842 26.0 13
  213.03477 27.0 13
  213.16692 18.0 9
  217.04376 19.0 9
  217.15569 22.0 11
  217.18825 42.0 21
  217.20184 38.0 19
  219.06367 20.0 10
  219.09297 35.0 17
  219.16426 18.0 9
  219.90488 17.0 8
  221.19743 43.0 21
  222.19853 20.0 10
  225.01407 20.0 10
  225.07153 23.0 11
  226.07559 35.0 17
  227.18654 20.0 10
  229.19469 29.0 14
  229.20468 37.0 18
  231.05098 29.0 14
  231.05846 29.0 14
  231.20984 23.0 11
  232.21417 21.0 10
  233.17906 22.0 11
  233.19203 20.0 10
  234.98112 22.0 11
  235.20457 22.0 11
  235.21652 17.0 8
  236.22102 44.0 22
  241.07414 19.0 9
  241.19125 23.0 11
  245.06174 17.0 8
  245.19662 17.0 8
  247.20091 18.0 9
  247.21309 17.0 8
  255.05717 48.0 24
  257.23105 48.0 24
  266.24002 18.0 9
  269.23221 22.0 11
  273.05905 58.0 29
  275.22855 17.0 8
  275.24121 18.0 9
  279.08911 43.0 21
  279.11612 81.0 40
  283.24713 25.0 12
  289.94727 23.0 11
  295.22507 27.0 13
  297.88184 17.0 8
  301.24982 22.0 11
  301.56262 22.0 11
  305.09213 96.0 48
  306.09241 64.0 32
  311.28564 24.0 12
  312.35669 26.0 13
  315.26254 29.0 14
  315.28625 25.0 12
  320.82941 17.0 8
  322.9848 36.0 18
  323.09415 98.0 49
  324.08118 17.0 8
  324.09399 20.0 10
  325.29453 22.0 11
  329.25232 33.0 16
  329.29028 32.0 16
  333.27826 18.0 9
  341.1041 28.0 14
  346.72516 18.0 9
  348.0592 17.0 8
  365.30942 36.0 18
  368.29037 25.0 12
  369.32126 19.0 9
  381.31268 19.0 9
  383.21524 20.0 10
  383.32556 17.0 8
  383.33795 20.0 10
  393.36111 18.0 9
  401.11194 38.0 19
  401.59479 17.0 8
  405.33652 82.0 41
  405.35962 72.0 36
  405.38242 20.0 10
  406.3443 38.0 19
  406.36536 22.0 11
  409.22641 33.0 16
  421.34302 26.0 13
  423.36545 1046.0 519
  424.34644 75.0 37
  424.36804 437.0 217
  425.38416 20.0 10
  426.24228 27.0 13
  426.58279 18.0 9
  433.25638 26.0 13
  437.14548 18.0 9
  437.16263 18.0 9
  437.34482 18.0 9
  438.13168 30.0 15
  439.34894 30.0 15
  440.36111 21.0 10
  441.1853 18.0 9
  441.22086 17.0 8
  441.3725 2014.0 999
  442.34732 89.0 44
  442.36493 298.0 148
  442.38116 436.0 216
  443.38004 126.0 62
  443.40652 20.0 10
  444.32867 20.0 10
  444.38739 41.0 20
  449.37396 18.0 9
  455.1333 87.0 43
  456.15198 34.0 17
  457.14459 20.0 10
  458.26971 17.0 8
  459.36328 24.0 12
  459.38364 91.0 45
  459.40344 98.0 49
  460.35748 17.0 8
  460.39978 53.0 26
  477.37979 17.0 8
  497.94745 31.0 15
  523.19684 20.0 10
  533.3988 21.0 10
  538.40009 25.0 12
  551.43512 73.0 36
  555.40173 22.0 11
  564.39069 20.0 10
  569.40594 20.0 10
  569.43573 19.0 9
  570.42236 41.0 20
  581.38177 107.0 53
  581.40771 58.0 29
  582.36786 41.0 20
  582.41132 32.0 16
  590.90955 17.0 8
  591.44202 41.0 20
  592.43768 17.0 8
  599.39038 774.0 384
  600.24286 19.0 9
  600.32428 18.0 9
  600.36871 134.0 66
  600.40326 192.0 95
  601.38147 17.0 8
  601.40747 61.0 30
  603.50592 19.0 9
  605.3576 20.0 10
  605.44202 367.0 182
  606.42004 17.0 8
  606.45642 64.0 32
  607.43323 17.0 8
  607.46088 42.0 21
  617.36304 35.0 17
  617.41095 471.0 234
  617.42944 115.0 57
  618.2381 17.0 8
  618.41418 277.0 137
  619.41901 17.0 8
  620.29779 20.0 10
  631.70868 18.0 9
  635.40662 245.0 122
  635.43115 214.0 106
  636.41278 126.0 62
  636.44104 37.0 18
  637.42645 51.0 25
  638.36938 23.0 11
  638.44055 18.0 9
  668.13934 24.0 12
  701.46552 24.0 12
  713.43097 39.0 19
  719.02185 17.0 8
  720.45898 18.0 9
  721.48096 18.0 9
  727.46344 22.0 11
  728.41864 17.0 8
  732.43927 25.0 12
  737.46515 19.0 9
  737.48352 74.0 37
  737.50958 21.0 10
  738.46545 34.0 17
  738.49854 98.0 49
  738.53174 20.0 10
  745.46802 18.0 9
  749.44415 24.0 12
  763.43567 50.0 25
  763.46478 137.0 68
  763.48584 23.0 11
  764.09644 22.0 11
  764.46869 18.0 9
  765.49487 27.0 13
  766.81256 18.0 9
  767.2691 18.0 9
  767.4353 132.0 65
  767.46478 239.0 119
  768.45496 132.0 65
  768.50928 17.0 8
  769.47314 64.0 32
  778.13678 30.0 15
  781.47601 354.0 176
  781.53741 17.0 8
  782.47198 106.0 53
  782.5061 38.0 19
  841.21295 20.0 10
  878.68567 33.0 16
  895.46533 18.0 9
  895.50598 37.0 18
  896.49353 45.0 22
  913.41455 20.0 10
  913.50476 1018.0 505
  913.5481 250.0 124
//
