ACCESSION: MSBNK-RIKEN-PR310584
RECORD_TITLE: Sanguinarine; LC-ESI-QTOF; MS2
DATE: 2019.03.28
AUTHORS: Tetsuya Mori, Center for Sustainable Resource Science, RIKEN
LICENSE: CC BY-NC-SA
PUBLICATION: Tsugawa H., Nakabayashi R., Mori T., Yamada Y., Takahashi M., Rai A., Sugiyama R., Yamamoto H., Nakaya T., Yamazaki M., Kooke R., Bac-Molenaar JA., Oztolan-Erol N., Keurentjes JJB., Arita M., Saito K. (2019) "A cheminformatics approach to characterize metabolomes in stable-isotope-labeled organisms" Nature Methods 16(4):295-298. [doi:10.1038/s41592-019-0358-2]
COMMENT: Annotation level-1
CH$NAME: Sanguinarine
CH$COMPOUND_CLASS: Alkaloids
CH$FORMULA: [C20H14NO4]+
CH$EXACT_MASS: 332.335
CH$SMILES: C[N+]1=CC2=C(C=CC3=C2OCO3)C2=C1C1=C(C=C2)C=C2OCOC2=C1
CH$IUPAC: InChI=1S/C20H14NO4/c1-21-8-15-12(4-5-16-20(15)25-10-22-16)13-3-2-11-6-17-18(24-9-23-17)7-14(11)19(13)21/h2-8H,9-10H2,1H3/q+1
CH$LINK: INCHIKEY INVGWHRKADIJHF-UHFFFAOYSA-N
AC$INSTRUMENT: LC, Waters Acquity UPLC System; MS, Waters Xevo G2 Q-Tof
AC$INSTRUMENT_TYPE: LC-ESI-QTOF
AC$MASS_SPECTROMETRY: MS_TYPE MS2
AC$MASS_SPECTROMETRY: ION_MODE POSITIVE
AC$MASS_SPECTROMETRY: COLLISION_ENERGY 6V
AC$MASS_SPECTROMETRY: DESOLVATION_GAS_FLOW 800/h
AC$MASS_SPECTROMETRY: DESOLVATION_TEMPERATURE 450 C
AC$MASS_SPECTROMETRY: IONIZATION ESI
AC$CHROMATOGRAPHY: CAPILLARY_VOLTAGE +3.00 kV
AC$CHROMATOGRAPHY: COLUMN_NAME Acquity bridged ethyl hybrid C18 (1.7 um, 2.1 mm * 100 mm, Waters)
AC$CHROMATOGRAPHY: COLUMN_TEMPERATURE 40 C
AC$CHROMATOGRAPHY: FLOW_GRADIENT A/B = (99.5%/0.5% at 0 min, 99.5%/0.5% at 0.1 min, 20%/80% at 10 min, 0.5%/99.5% at 10.1 min, 0.5%/99.5% at 12.0 min, 99.5%/0.5% at 12.1 min, 99.5%/0.5% at 15.0 min)
AC$CHROMATOGRAPHY: FLOW_RATE 0.3 ml/min at 0 min, 0.3 ml/min at 10 min, 0.4 ml/min at 10.1 min, 0.4 ml/min at 14.4 min, 0.3 ml/min at 14.5 min
AC$CHROMATOGRAPHY: RETENTION_TIME 4.85
AC$CHROMATOGRAPHY: SOLVENT A water including 0.1% formic acid
AC$CHROMATOGRAPHY: SOLVENT B acetonitrile including 0.1% formic acid
MS$FOCUSED_ION: PRECURSOR_TYPE [M]+
MS$FOCUSED_ION: PRECURSOR_M/Z 332.09119
PK$SPLASH: splash10-001i-0049000000-ac95de6829522048daaa
PK$NUM_PEAK: 212
PK$PEAK: m/z int. rel.int.
  117.82425 18.0 1
  162.39693 30.0 2
  175.05878 24.0 1
  176.07195 25.0 1
  177.05441 23.0 1
  178.05991 20.0 1
  178.65575 38.0 2
  179.06894 24.0 1
  188.06516 18.0 1
  189.0666 121.0 6
  189.0752 78.0 4
  190.04585 18.0 1
  190.07217 35.0 2
  190.32332 21.0 1
  191.08795 39.0 2
  191.10078 22.0 1
  192.07892 20.0 1
  192.08669 21.0 1
  201.05222 29.0 2
  201.05954 24.0 1
  201.07022 27.0 1
  201.07758 50.0 3
  202.00269 18.0 1
  202.05899 42.0 2
  202.07361 78.0 4
  202.40353 20.0 1
  203.04024 20.0 1
  203.07079 102.0 5
  203.07864 50.0 3
  204.06776 35.0 2
  204.07803 40.0 2
  204.08801 64.0 3
  204.10002 22.0 1
  205.08618 85.0 4
  205.99947 26.0 1
  210.68816 23.0 1
  211.78625 19.0 1
  211.85773 21.0 1
  214.05579 20.0 1
  214.07448 76.0 4
  214.09056 18.0 1
  215.03543 23.0 1
  215.06001 31.0 2
  215.07492 231.0 12
  216.0667 39.0 2
  216.08038 318.0 16
  216.08971 168.0 9
  217.06526 28.0 1
  217.08987 377.0 20
  217.83971 20.0 1
  218.07385 34.0 2
  218.08961 163.0 8
  218.09818 390.0 20
  218.11319 77.0 4
  219.07751 63.0 3
  219.0972 144.0 7
  219.45798 20.0 1
  220.09625 18.0 1
  222.56271 20.0 1
  225.17769 19.0 1
  227.91563 17.0 1
  228.04982 24.0 1
  228.06308 23.0 1
  228.07979 25.0 1
  228.08904 38.0 2
  229.0415 17.0 1
  229.07997 40.0 2
  229.57199 18.0 1
  230.06593 67.0 3
  231.05937 67.0 3
  231.07123 47.0 2
  231.84613 17.0 1
  232.04562 17.0 1
  232.07422 50.0 3
  232.08617 51.0 3
  233.02121 20.0 1
  233.06277 20.0 1
  233.08405 182.0 9
  233.10448 47.0 2
  233.5193 21.0 1
  234.08868 21.0 1
  236.7881 18.0 1
  244.05244 28.0 1
  244.05933 62.0 3
  244.07767 402.0 21
  244.09482 82.0 4
  245.06476 18.0 1
  245.0751 46.0 2
  245.0849 109.0 6
  245.40558 20.0 1
  246.08937 499.0 26
  246.10051 319.0 17
  246.97617 33.0 2
  247.05899 20.0 1
  247.07584 82.0 4
  247.08978 158.0 8
  247.10117 105.0 5
  247.10872 46.0 2
  248.02495 20.0 1
  248.0665 19.0 1
  248.09135 71.0 4
  248.10532 202.0 10
  248.1424 20.0 1
  249.11032 24.0 1
  249.12158 26.0 1
  254.08136 33.0 2
  254.75359 17.0 1
  255.06465 18.0 1
  255.22386 19.0 1
  257.08371 25.0 1
  258.04794 20.0 1
  258.09885 22.0 1
  258.78226 21.0 1
  259.02679 26.0 1
  259.04562 18.0 1
  259.06189 76.0 4
  259.07101 57.0 3
  260.06195 22.0 1
  260.08179 81.0 4
  260.58536 29.0 2
  260.98672 17.0 1
  261.07953 219.0 11
  261.8324 25.0 1
  262.0654 17.0 1
  262.07971 40.0 2
  266.05392 20.0 1
  272.02982 22.0 1
  272.05588 21.0 1
  272.06833 37.0 2
  272.08057 19.0 1
  273.05655 42.0 2
  273.07007 17.0 1
  274.00067 20.0 1
  274.03113 46.0 2
  274.04169 17.0 1
  274.07111 251.0 13
  274.08716 1965.0 102
  274.11691 27.0 1
  275.04562 33.0 2
  275.06192 40.0 2
  275.07822 201.0 10
  275.09528 452.0 23
  275.11362 22.0 1
  276.10117 374.0 19
  276.12289 17.0 1
  277.04733 17.0 1
  277.08856 17.0 1
  277.1037 62.0 3
  277.46237 18.0 1
  278.11801 17.0 1
  279.61499 20.0 1
  280.4075 30.0 2
  280.99841 20.0 1
  284.0701 46.0 2
  286.0394 20.0 1
  286.05771 18.0 1
  287.02722 40.0 2
  287.04907 20.0 1
  287.06131 44.0 2
  287.09055 30.0 2
  287.78296 35.0 2
  288.06506 140.0 7
  288.08057 21.0 1
  289.04431 27.0 1
  289.07227 255.0 13
  291.06723 24.0 1
  293.14734 27.0 1
  294.26944 18.0 1
  297.72003 41.0 2
  301.06729 23.0 1
  302.08286 754.0 39
  303.04861 20.0 1
  303.06946 23.0 1
  303.08847 256.0 13
  303.90878 18.0 1
  304.04703 22.0 1
  304.09671 1483.0 77
  304.62158 17.0 1
  304.75696 20.0 1
  305.07245 42.0 2
  305.10071 287.0 15
  305.56198 20.0 1
  306.09689 24.0 1
  310.10678 17.0 1
  314.06616 18.0 1
  315.04785 23.0 1
  316.01355 24.0 1
  316.05524 131.0 7
  316.07114 18.0 1
  316.56491 19.0 1
  317.03687 45.0 2
  317.06857 1321.0 69
  318.0697 193.0 10
  318.08557 95.0 5
  319.00348 24.0 1
  320.09525 25.0 1
  324.76642 18.0 1
  330.05725 93.0 5
  330.07346 308.0 16
  330.08698 76.0 4
  331.04568 17.0 1
  331.08359 65.0 3
  331.40704 24.0 1
  331.66061 34.0 2
  331.99054 34.0 2
  332.0069 56.0 3
  332.02448 43.0 2
  332.04333 147.0 8
  332.05801 178.0 9
  332.09161 19260.0 999
  332.14111 94.0 5
  332.15225 61.0 3
//
