ACCESSION: MSBNK-RIKEN-PR307214
RECORD_TITLE: (2R)-2-Hydroxy-2-phenethylglucosinolate; LC-ESI-QTOF; MS2
DATE: 2019.03.28
AUTHORS: Tetsuya Mori, Center for Sustainable Resource Science, RIKEN
LICENSE: CC BY-NC-SA
PUBLICATION: Tsugawa H., Nakabayashi R., Mori T., Yamada Y., Takahashi M., Rai A., Sugiyama R., Yamamoto H., Nakaya T., Yamazaki M., Kooke R., Bac-Molenaar JA., Oztolan-Erol N., Keurentjes JJB., Arita M., Saito K. (2019) "A cheminformatics approach to characterize metabolomes in stable-isotope-labeled organisms" Nature Methods 16(4):295-298. [doi:10.1038/s41592-019-0358-2]
COMMENT: registered in RIKEN PlaSMA
CH$NAME: (2R)-2-Hydroxy-2-phenethylglucosinolate
CH$COMPOUND_CLASS: Alkylglucosinolates
CH$FORMULA: C15H21NO10S2
CH$EXACT_MASS: 439.46
CH$SMILES: OCC1OC(SC(CC(O)C2=CC=CC=C2)=NOS(O)(=O)=O)C(O)C(O)C1O
CH$IUPAC: InChI=1S/C15H21NO10S2/c17-7-10-12(19)13(20)14(21)15(25-10)27-11(16-26-28(22,23)24)6-9(18)8-4-2-1-3-5-8/h1-5,9-10,12-15,17-21H,6-7H2,(H,22,23,24)
CH$LINK: INCHIKEY GAPDDBFHNYHZIS-UHFFFAOYSA-N
AC$INSTRUMENT: LC, Waters Acquity UPLC System; MS, Waters Xevo G2 Q-Tof
AC$INSTRUMENT_TYPE: LC-ESI-QTOF
AC$MASS_SPECTROMETRY: MS_TYPE MS2
AC$MASS_SPECTROMETRY: ION_MODE NEGATIVE
AC$MASS_SPECTROMETRY: COLLISION_ENERGY 6V
AC$MASS_SPECTROMETRY: DESOLVATION_GAS_FLOW 800/h
AC$MASS_SPECTROMETRY: DESOLVATION_TEMPERATURE 450 C
AC$MASS_SPECTROMETRY: IONIZATION ESI
AC$CHROMATOGRAPHY: CAPILLARY_VOLTAGE -2.75 kV
AC$CHROMATOGRAPHY: COLUMN_NAME Acquity bridged ethyl hybrid C18 (1.7 um, 2.1 mm * 100 mm, Waters)
AC$CHROMATOGRAPHY: COLUMN_TEMPERATURE 40 C
AC$CHROMATOGRAPHY: FLOW_GRADIENT A/B = (99.5%/0.5% at 0 min, 99.5%/0.5% at 0.1 min, 20%/80% at 10 min, 0.5%/99.5% at 10.1 min, 0.5%/99.5% at 12.0 min, 99.5%/0.5% at 12.1 min, 99.5%/0.5% at 15.0 min)
AC$CHROMATOGRAPHY: FLOW_RATE 0.3 ml/min at 0 min, 0.3 ml/min at 10 min, 0.4 ml/min at 10.1 min, 0.4 ml/min at 14.4 min, 0.3 ml/min at 14.5 min
AC$CHROMATOGRAPHY: RETENTION_TIME 2.70645
AC$CHROMATOGRAPHY: SOLVENT A water including 0.1% formic acid
AC$CHROMATOGRAPHY: SOLVENT B acetonitrile including 0.1% formic acid
MS$FOCUSED_ION: PRECURSOR_TYPE [M-H]-
MS$FOCUSED_ION: PRECURSOR_M/Z 438.05341174783
PK$SPLASH: splash10-0002-9000000000-a7fb9b4201db2a9c0c47
PK$NUM_PEAK: 36
PK$PEAK: m/z int. rel.int.
  59.0118 9.0 9
  71.01664 22.0 22
  73.02881 9.0 9
  74.026 10.0 10
  74.99026 421.0 421
  75.99026 13.0 13
  76.98583 15.0 15
  79.53585 9.0 9
  79.95608 71.0 71
  80.95923 13.0 13
  80.96302 10.0 10
  80.97024 9.0 9
  89.0256 25.0 25
  90.0009 21.0 21
  90.00655 9.0 9
  92.00114 9.0 9
  95.95172 552.0 551
  96.95954 1000.0 999
  97.59673 13.0 13
  97.94532 11.0 11
  97.96391 18.0 18
  98.05306 14.0 14
  98.66407 10.0 10
  98.95606 98.0 98
  101.02528 22.0 22
  104.45402 17.0 17
  111.92613 24.0 24
  114.98609 12.0 12
  129.92072 10.0 10
  135.96588 34.0 34
  135.97307 45.0 45
  138.96663 25.0 25
  138.97412 44.0 44
  152.98683 10.0 10
  164.97868 17.0 17
  242.00737 17.0 17
//
