ACCESSION: MSBNK-RIKEN-PR300313
RECORD_TITLE: Tubotaiwine; LC-ESI-QTOF; MS2
DATE: 2019.03.28
AUTHORS: Tetsuya Mori, Center for Sustainable Resource Science, RIKEN
LICENSE: CC BY-NC-SA
PUBLICATION: Tsugawa H., Nakabayashi R., Mori T., Yamada Y., Takahashi M., Rai A., Sugiyama R., Yamamoto H., Nakaya T., Yamazaki M., Kooke R., Bac-Molenaar JA., Oztolan-Erol N., Keurentjes JJB., Arita M., Saito K. (2019) "A cheminformatics approach to characterize metabolomes in stable-isotope-labeled organisms" Nature Methods 16(4):295-298. [doi:10.1038/s41592-019-0358-2]
COMMENT: registered in RIKEN PlaSMA
CH$NAME: Tubotaiwine
CH$COMPOUND_CLASS: Strychnos alkaloids
CH$FORMULA: C20H24N2O2
CH$EXACT_MASS: 324.424
CH$SMILES: CCC1C2N3CCC22C(NC4=CC=CC=C24)=C(C1CC3)C(=O)OC
CH$IUPAC: InChI=1S/C20H24N2O2/c1-3-12-13-8-10-22-11-9-20(18(12)22)14-6-4-5-7-15(14)21-17(20)16(13)19(23)24-2/h4-7,12-13,18,21H,3,8-11H2,1-2H3
CH$LINK: INCHIKEY RLAKWLFUMAABBE-UHFFFAOYSA-N
AC$INSTRUMENT: LC, Waters Acquity UPLC System; MS, Waters Xevo G2 Q-Tof
AC$INSTRUMENT_TYPE: LC-ESI-QTOF
AC$MASS_SPECTROMETRY: MS_TYPE MS2
AC$MASS_SPECTROMETRY: ION_MODE POSITIVE
AC$MASS_SPECTROMETRY: COLLISION_ENERGY 6V
AC$MASS_SPECTROMETRY: DESOLVATION_GAS_FLOW 800/h
AC$MASS_SPECTROMETRY: DESOLVATION_TEMPERATURE 450 C
AC$MASS_SPECTROMETRY: IONIZATION ESI
AC$CHROMATOGRAPHY: CAPILLARY_VOLTAGE +3.00 kV
AC$CHROMATOGRAPHY: COLUMN_NAME Acquity bridged ethyl hybrid C18 (1.7 um, 2.1 mm * 100 mm, Waters)
AC$CHROMATOGRAPHY: COLUMN_TEMPERATURE 40 C
AC$CHROMATOGRAPHY: FLOW_GRADIENT A/B = (99.5%/0.5% at 0 min, 99.5%/0.5% at 0.1 min, 20%/80% at 10 min, 0.5%/99.5% at 10.1 min, 0.5%/99.5% at 12.0 min, 99.5%/0.5% at 12.1 min, 99.5%/0.5% at 15.0 min)
AC$CHROMATOGRAPHY: FLOW_RATE 0.3 ml/min at 0 min, 0.3 ml/min at 10 min, 0.4 ml/min at 10.1 min, 0.4 ml/min at 14.4 min, 0.3 ml/min at 14.5 min
AC$CHROMATOGRAPHY: RETENTION_TIME 4.920516
AC$CHROMATOGRAPHY: SOLVENT A water including 0.1% formic acid
AC$CHROMATOGRAPHY: SOLVENT B acetonitrile including 0.1% formic acid
MS$FOCUSED_ION: PRECURSOR_TYPE [M+H]+
MS$FOCUSED_ION: PRECURSOR_M/Z 325.1910545
PK$SPLASH: splash10-0536-0960000000-b0e9c7585b3cf02a521d
PK$NUM_PEAK: 295
PK$PEAK: m/z int. rel.int.
  56.05362 8.0 8
  70.06815 10.0 10
  78.73177 7.0 7
  79.05113 13.0 13
  80.0555 13.0 13
  81.06728 10.0 10
  82.06635 23.0 23
  84.08685 7.0 7
  87.25012 8.0 8
  89.04005 7.0 7
  93.05613 9.0 9
  93.06065 13.0 13
  93.07259 12.0 12
  94.06083 13.0 13
  95.0697 10.0 10
  100.47112 8.0 8
  102.03223 15.0 15
  104.04379 11.0 11
  105.06853 9.0 9
  105.07703 10.0 10
  106.06337 9.0 9
  107.07075 7.0 7
  108.0776 8.0 8
  109.0788 15.0 15
  111.09695 9.0 9
  112.95718 7.0 7
  115.0478 24.0 24
  117.03637 27.0 27
  117.06194 39.0 39
  117.07195 11.0 11
  117.37965 7.0 7
  119.07293 15.0 15
  120.07636 14.0 14
  121.08632 9.0 9
  122.07887 10.0 10
  122.09511 10.0 10
  123.02148 8.0 8
  123.91773 15.0 15
  128.04524 21.0 21
  128.06381 27.0 27
  129.03604 10.0 10
  129.05356 17.0 17
  130.04384 9.0 9
  130.06363 127.0 127
  131.06282 8.0 8
  131.08194 12.0 12
  132.06982 11.0 11
  134.09195 19.0 19
  134.10774 10.0 10
  136.07713 14.0 14
  136.11108 11.0 11
  139.05698 11.0 11
  140.05263 15.0 15
  141.06555 12.0 12
  141.07648 17.0 17
  142.06537 29.0 29
  143.06702 11.0 11
  143.07419 9.0 9
  143.09125 10.0 10
  144.07771 60.0 60
  144.08626 13.0 13
  144.09637 12.0 12
  145.0827 7.0 7
  146.06165 7.0 7
  146.09775 9.0 9
  148.11624 24.0 24
  148.57436 9.0 9
  150.11559 8.0 8
  151.05553 20.0 20
  152.04858 12.0 12
  152.06058 55.0 55
  152.07188 12.0 12
  152.21503 9.0 9
  153.06143 36.0 36
  154.04642 10.0 10
  154.06461 230.0 230
  155.06131 12.0 12
  155.07033 55.0 55
  156.08188 18.0 18
  157.04543 11.0 11
  157.08678 24.0 24
  158.05821 8.0 8
  158.08675 10.0 10
  158.09805 9.0 9
  161.07991 11.0 11
  162.10934 7.0 7
  165.05562 20.0 20
  165.06856 72.0 72
  166.06691 93.0 93
  166.07935 35.0 35
  167.04968 24.0 24
  167.07239 649.0 648
  167.09038 22.0 22
  168.05821 10.0 10
  168.07129 77.0 77
  168.07896 261.0 261
  168.08981 55.0 55
  168.10493 10.0 10
  169.07985 177.0 177
  170.07489 7.0 7
  170.09525 8.0 8
  171.09122 17.0 17
  171.88628 13.0 13
  172.04732 7.0 7
  172.10976 18.0 18
  176.06439 8.0 8
  177.06737 9.0 9
  177.99438 10.0 10
  178.04903 10.0 10
  178.05911 27.0 27
  178.06621 24.0 24
  178.0833 25.0 25
  179.05721 18.0 18
  179.06816 93.0 93
  179.09012 24.0 24
  179.22118 10.0 10
  179.9821 9.0 9
  180.08078 1000.0 999
  181.05705 9.0 9
  181.06998 40.0 40
  181.08049 112.0 112
  181.09035 336.0 336
  182.07468 18.0 18
  182.08569 76.0 76
  182.09602 131.0 131
  183.06981 46.0 46
  183.08688 22.0 22
  183.09409 79.0 79
  184.09747 11.0 11
  184.1123 20.0 20
  189.07779 19.0 19
  190.05846 13.0 13
  190.06516 10.0 10
  190.83908 7.0 7
  191.06006 21.0 21
  191.07527 86.0 86
  191.0909 29.0 29
  192.0815 543.0 542
  193.04417 9.0 9
  193.05537 37.0 37
  193.08095 247.0 247
  193.08942 853.0 852
  194.06204 24.0 24
  194.09509 717.0 716
  195.03113 13.0 13
  195.07094 37.0 37
  195.08426 70.0 70
  195.09782 334.0 334
  196.05833 15.0 15
  196.07745 11.0 11
  196.09601 58.0 58
  196.11086 160.0 160
  196.41258 9.0 9
  197.07416 7.0 7
  197.11444 7.0 7
  198.08655 17.0 17
  203.07698 19.0 19
  204.08028 262.0 262
  204.98248 9.0 9
  205.07935 28.0 28
  205.08646 42.0 42
  205.09964 10.0 10
  206.06805 17.0 17
  206.0945 622.0 621
  206.11211 14.0 14
  206.14748 10.0 10
  207.07416 51.0 51
  207.09785 642.0 641
  207.10909 202.0 202
  207.1255 10.0 10
  208.07585 23.0 23
  208.10519 470.0 470
  208.11609 155.0 155
  209.08281 18.0 18
  209.09433 63.0 63
  209.10175 54.0 54
  209.11174 85.0 85
  209.12016 48.0 48
  209.40062 7.0 7
  209.51891 8.0 8
  210.10194 38.0 38
  210.11162 14.0 14
  210.13165 60.0 60
  211.09207 7.0 7
  211.118 19.0 19
  211.13348 17.0 17
  212.08588 7.0 7
  213.10326 12.0 12
  214.20709 8.0 8
  214.243 7.0 7
  216.08009 12.0 12
  217.07178 22.0 22
  217.08356 59.0 59
  217.09534 18.0 18
  218.09761 52.0 52
  219.06055 10.0 10
  219.09706 60.0 60
  219.1082 34.0 34
  220.07399 20.0 20
  220.09813 72.0 72
  220.1149 164.0 164
  220.81892 7.0 7
  221.05302 8.0 8
  221.06905 42.0 42
  221.084 55.0 55
  221.10114 82.0 82
  221.11044 259.0 259
  221.13428 18.0 18
  222.06938 22.0 22
  222.08136 70.0 70
  222.09764 72.0 72
  222.12558 208.0 208
  222.14471 21.0 21
  222.20473 11.0 11
  222.98628 9.0 9
  223.03539 8.0 8
  223.08833 232.0 232
  223.12325 39.0 39
  223.13417 26.0 26
  224.09265 65.0 65
  224.1089 12.0 12
  224.13669 9.0 9
  224.8111 7.0 7
  225.13116 7.0 7
  231.07957 12.0 12
  231.09169 29.0 29
  231.10425 37.0 37
  232.0791 9.0 9
  232.09787 19.0 19
  232.11133 30.0 30
  233.08081 10.0 10
  233.10437 11.0 11
  233.12148 17.0 17
  233.13182 10.0 10
  234.08484 10.0 10
  234.09839 29.0 29
  234.12047 59.0 59
  235.06448 20.0 20
  235.08603 24.0 24
  235.10675 23.0 23
  235.12442 136.0 136
  235.14116 13.0 13
  235.1597 7.0 7
  236.05009 8.0 8
  236.08377 21.0 21
  236.09489 42.0 42
  236.12 10.0 10
  236.13853 51.0 51
  236.15164 31.0 31
  236.1649 7.0 7
  237.1041 72.0 72
  237.11549 24.0 24
  237.13976 28.0 28
  237.1512 47.0 47
  238.10928 8.0 8
  238.12151 15.0 15
  239.12331 13.0 13
  239.16481 7.0 7
  240.7673 8.0 8
  242.09952 11.0 11
  243.11127 8.0 8
  244.11671 9.0 9
  245.0455 12.0 12
  245.10194 17.0 17
  245.11261 9.0 9
  247.07707 8.0 8
  248.07417 14.0 14
  248.10129 7.0 7
  248.13542 23.0 23
  249.13524 36.0 36
  249.15385 8.0 8
  250.13054 20.0 20
  250.14713 8.0 8
  252.56557 8.0 8
  258.12772 17.0 17
  259.12311 15.0 15
  260.1106 9.0 9
  263.10229 10.0 10
  263.11539 10.0 10
  263.14215 9.0 9
  263.16385 11.0 11
  264.14291 14.0 14
  265.13733 36.0 36
  265.17743 9.0 9
  267.15656 26.0 26
  268.57819 12.0 12
  278.12741 13.0 13
  279.14774 15.0 15
  282.87668 17.0 17
  293.1033 8.0 8
  293.16983 76.0 76
  294.16177 22.0 22
  294.17096 23.0 23
  294.30988 7.0 7
  296.33969 7.0 7
//
