ACCESSION: MSBNK-RIKEN-PR300772
RECORD_TITLE: Remerine; LC-ESI-QTOF; MS2
DATE: 2019.03.28
AUTHORS: Tetsuya Mori, Center for Sustainable Resource Science, RIKEN
LICENSE: CC BY-NC-SA
PUBLICATION: Tsugawa H., Nakabayashi R., Mori T., Yamada Y., Takahashi M., Rai A., Sugiyama R., Yamamoto H., Nakaya T., Yamazaki M., Kooke R., Bac-Molenaar JA., Oztolan-Erol N., Keurentjes JJB., Arita M., Saito K. (2019) "A cheminformatics approach to characterize metabolomes in stable-isotope-labeled organisms" Nature Methods 16(4):295-298. [doi:10.1038/s41592-019-0358-2]
COMMENT: registered in RIKEN PlaSMA
CH$NAME: Remerine
CH$COMPOUND_CLASS: Aporphines
CH$FORMULA: C18H17NO2
CH$EXACT_MASS: 279.339
CH$SMILES: CN1CCC2=CC3=C(OCO3)C3=C2C1CC1=CC=CC=C31
CH$IUPAC: InChI=1S/C18H17NO2/c1-19-7-6-12-9-15-18(21-10-20-15)17-13-5-3-2-4-11(13)8-14(19)16(12)17/h2-5,9,14H,6-8,10H2,1H3
CH$LINK: INCHIKEY JCTYWRARKVGOBK-UHFFFAOYSA-N
AC$INSTRUMENT: LC, Waters Acquity UPLC System; MS, Waters Xevo G2 Q-Tof
AC$INSTRUMENT_TYPE: LC-ESI-QTOF
AC$MASS_SPECTROMETRY: MS_TYPE MS2
AC$MASS_SPECTROMETRY: ION_MODE POSITIVE
AC$MASS_SPECTROMETRY: COLLISION_ENERGY 6V
AC$MASS_SPECTROMETRY: DESOLVATION_GAS_FLOW 800/h
AC$MASS_SPECTROMETRY: DESOLVATION_TEMPERATURE 450 C
AC$MASS_SPECTROMETRY: IONIZATION ESI
AC$CHROMATOGRAPHY: CAPILLARY_VOLTAGE +3.00 kV
AC$CHROMATOGRAPHY: COLUMN_NAME Acquity bridged ethyl hybrid C18 (1.7 um, 2.1 mm * 100 mm, Waters)
AC$CHROMATOGRAPHY: COLUMN_TEMPERATURE 40 C
AC$CHROMATOGRAPHY: FLOW_GRADIENT A/B = (99.5%/0.5% at 0 min, 99.5%/0.5% at 0.1 min, 20%/80% at 10 min, 0.5%/99.5% at 10.1 min, 0.5%/99.5% at 12.0 min, 99.5%/0.5% at 12.1 min, 99.5%/0.5% at 15.0 min)
AC$CHROMATOGRAPHY: FLOW_RATE 0.3 ml/min at 0 min, 0.3 ml/min at 10 min, 0.4 ml/min at 10.1 min, 0.4 ml/min at 14.4 min, 0.3 ml/min at 14.5 min
AC$CHROMATOGRAPHY: RETENTION_TIME 4.893517
AC$CHROMATOGRAPHY: SOLVENT A water including 0.1% formic acid
AC$CHROMATOGRAPHY: SOLVENT B acetonitrile including 0.1% formic acid
MS$FOCUSED_ION: PRECURSOR_TYPE [M+H]+
MS$FOCUSED_ION: PRECURSOR_M/Z 280.1332052
PK$SPLASH: splash10-000w-0290000000-fcdb332dd853a5868cf0
PK$NUM_PEAK: 34
PK$PEAK: m/z int. rel.int.
  165.06914 19.0 19
  178.06468 7.0 7
  178.0773 66.0 66
  179.08583 37.0 37
  189.0712 51.0 51
  190.07796 126.0 126
  191.05751 7.0 7
  191.0856 382.0 382
  192.09023 85.0 85
  193.09535 13.0 13
  193.10492 13.0 13
  194.10573 5.0 5
  200.06639 9.0 9
  201.07065 118.0 118
  202.07693 67.0 67
  203.08513 66.0 66
  206.07072 6.0 6
  207.08012 30.0 30
  218.07341 13.0 13
  219.08049 185.0 185
  220.08591 28.0 28
  221.05733 8.0 8
  221.09186 8.0 8
  221.10008 13.0 13
  231.07579 12.0 12
  231.08542 10.0 10
  232.08327 6.0 6
  249.09171 1000.0 999
  249.13695 12.0 12
  250.09497 209.0 209
  251.08643 6.0 6
  251.1003 12.0 12
  280.13373 755.0 754
  280.18039 14.0 14
//
