ACCESSION: MSBNK-RIKEN-PR308917
RECORD_TITLE: Soyasapogenol B base + O-HexA-dHex-Pen; LC-ESI-QTOF; MS2
DATE: 2019.03.28
AUTHORS: Tetsuya Mori, Center for Sustainable Resource Science, RIKEN
LICENSE: CC BY-NC-SA
PUBLICATION: Tsugawa H., Nakabayashi R., Mori T., Yamada Y., Takahashi M., Rai A., Sugiyama R., Yamamoto H., Nakaya T., Yamazaki M., Kooke R., Bac-Molenaar JA., Oztolan-Erol N., Keurentjes JJB., Arita M., Saito K. (2019) "A cheminformatics approach to characterize metabolomes in stable-isotope-labeled organisms" Nature Methods 16(4):295-298. [doi:10.1038/s41592-019-0358-2]
COMMENT: Annotation level-3
CH$NAME: Soyasapogenol B base + O-HexA-dHex-Pen
CH$COMPOUND_CLASS: Triterpene saponins
CH$FORMULA: C47H74O17
CH$EXACT_MASS: 911.092
CH$SMILES: O=C(O)C8OC(OC2CCC3(C)(C4CC=C1C5CC(C)(C)CC(=O)C5(C)(CCC1(C)C4(C)(CCC3(C2(C)(CO))))))C(OC7OCC(O)C(O)C7(OC6OC(C)C(O)C(O)C6(O)))C(O)C8(O)
CH$IUPAC: InChI=1S/C47H74O17/c1-21-29(51)31(53)34(56)39(60-21)63-36-30(52)24(49)19-59-40(36)64-37-33(55)32(54)35(38(57)58)62-41(37)61-28-12-13-44(5)25(45(28,6)20-48)11-14-47(8)26(44)10-9-22-23-17-42(2,3)18-27(50)43(23,4)15-16-46(22,47)7/h9,21,23-26,28-37,39-41,48-49,51-56H,10-20H2,1-8H3,(H,57,58)
CH$LINK: INCHIKEY ZNWGBWWXJAYIOM-UHFFFAOYSA-N
AC$INSTRUMENT: LC, Waters Acquity UPLC System; MS, Waters Xevo G2 Q-Tof
AC$INSTRUMENT_TYPE: LC-ESI-QTOF
AC$MASS_SPECTROMETRY: MS_TYPE MS2
AC$MASS_SPECTROMETRY: ION_MODE NEGATIVE
AC$MASS_SPECTROMETRY: COLLISION_ENERGY 6V
AC$MASS_SPECTROMETRY: DESOLVATION_GAS_FLOW 800/h
AC$MASS_SPECTROMETRY: DESOLVATION_TEMPERATURE 450 C
AC$MASS_SPECTROMETRY: IONIZATION ESI
AC$CHROMATOGRAPHY: CAPILLARY_VOLTAGE +3.00 kV
AC$CHROMATOGRAPHY: COLUMN_NAME Acquity bridged ethyl hybrid C18 (1.7 um, 2.1 mm * 100 mm, Waters)
AC$CHROMATOGRAPHY: COLUMN_TEMPERATURE 40 C
AC$CHROMATOGRAPHY: FLOW_GRADIENT A/B = (99.5%/0.5% at 0 min, 99.5%/0.5% at 0.1 min, 20%/80% at 10 min, 0.5%/99.5% at 10.1 min, 0.5%/99.5% at 12.0 min, 99.5%/0.5% at 12.1 min, 99.5%/0.5% at 15.0 min)
AC$CHROMATOGRAPHY: FLOW_RATE 0.3 ml/min at 0 min, 0.3 ml/min at 10 min, 0.4 ml/min at 10.1 min, 0.4 ml/min at 14.4 min, 0.3 ml/min at 14.5 min
AC$CHROMATOGRAPHY: RETENTION_TIME 7.84
AC$CHROMATOGRAPHY: SOLVENT A water including 0.1% formic acid
AC$CHROMATOGRAPHY: SOLVENT B acetonitrile including 0.1% formic acid
MS$FOCUSED_ION: PRECURSOR_TYPE [M-H]-
MS$FOCUSED_ION: PRECURSOR_M/Z 909.4841
PK$SPLASH: splash10-0a4i-0000000009-b0027b5815cb7813e512
PK$NUM_PEAK: 17
PK$PEAK: m/z int. rel.int.
  58.81511 20.0 10
  61.23204 19.0 10
  67.42041 20.0 10
  103.04087 18.0 9
  131.03111 42.0 21
  158.01633 23.0 12
  205.07016 38.0 19
  206.07365 23.0 12
  418.90793 19.0 10
  455.37473 28.0 14
  456.36099 20.0 10
  671.64478 18.0 9
  891.48273 20.0 10
  892.47278 18.0 9
  894.88525 18.0 9
  909.48572 1974.0 999
  909.5354 108.0 55
//
