ACCESSION: MSBNK-RIKEN-PR301506
RECORD_TITLE: (S,S)-(+)-Tetrandrine; LC-ESI-QTOF; MS2
DATE: 2019.03.28
AUTHORS: Tetsuya Mori, Center for Sustainable Resource Science, RIKEN
LICENSE: CC BY-NC-SA
PUBLICATION: Tsugawa H., Nakabayashi R., Mori T., Yamada Y., Takahashi M., Rai A., Sugiyama R., Yamamoto H., Nakaya T., Yamazaki M., Kooke R., Bac-Molenaar JA., Oztolan-Erol N., Keurentjes JJB., Arita M., Saito K. (2019) "A cheminformatics approach to characterize metabolomes in stable-isotope-labeled organisms" Nature Methods 16(4):295-298. [doi:10.1038/s41592-019-0358-2]
COMMENT: registered in RIKEN PlaSMA
CH$NAME: (S,S)-(+)-Tetrandrine
CH$COMPOUND_CLASS: Lignans, neolignans and related compounds
CH$FORMULA: C38H42N2O6
CH$EXACT_MASS: 622.762
CH$SMILES: COC1=C2OC3=CC=C(C[C@@H]4N(C)CCC5=CC(OC)=C(OC6=C7[C@H](CC(C=C1)=C2)N(C)CCC7=CC(OC)=C6OC)C=C45)C=C3
CH$IUPAC: InChI=1S/C38H42N2O6/c1-39-15-13-25-20-32(42-4)34-22-28(25)29(39)17-23-7-10-27(11-8-23)45-33-19-24(9-12-31(33)41-3)18-30-36-26(14-16-40(30)2)21-35(43-5)37(44-6)38(36)46-34/h7-12,19-22,29-30H,13-18H2,1-6H3/t29-,30-/m0/s1
CH$LINK: INCHIKEY WVTKBKWTSCPRNU-KYJUHHDHSA-N
AC$INSTRUMENT: LC, Waters Acquity UPLC System; MS, Waters Xevo G2 Q-Tof
AC$INSTRUMENT_TYPE: LC-ESI-QTOF
AC$MASS_SPECTROMETRY: MS_TYPE MS2
AC$MASS_SPECTROMETRY: ION_MODE POSITIVE
AC$MASS_SPECTROMETRY: COLLISION_ENERGY 6V
AC$MASS_SPECTROMETRY: DESOLVATION_GAS_FLOW 800/h
AC$MASS_SPECTROMETRY: DESOLVATION_TEMPERATURE 450 C
AC$MASS_SPECTROMETRY: IONIZATION ESI
AC$CHROMATOGRAPHY: CAPILLARY_VOLTAGE +3.00 kV
AC$CHROMATOGRAPHY: COLUMN_NAME Acquity bridged ethyl hybrid C18 (1.7 um, 2.1 mm * 100 mm, Waters)
AC$CHROMATOGRAPHY: COLUMN_TEMPERATURE 40 C
AC$CHROMATOGRAPHY: FLOW_GRADIENT A/B = (99.5%/0.5% at 0 min, 99.5%/0.5% at 0.1 min, 20%/80% at 10 min, 0.5%/99.5% at 10.1 min, 0.5%/99.5% at 12.0 min, 99.5%/0.5% at 12.1 min, 99.5%/0.5% at 15.0 min)
AC$CHROMATOGRAPHY: FLOW_RATE 0.3 ml/min at 0 min, 0.3 ml/min at 10 min, 0.4 ml/min at 10.1 min, 0.4 ml/min at 14.4 min, 0.3 ml/min at 14.5 min
AC$CHROMATOGRAPHY: RETENTION_TIME 4.186433
AC$CHROMATOGRAPHY: SOLVENT A water including 0.1% formic acid
AC$CHROMATOGRAPHY: SOLVENT B acetonitrile including 0.1% formic acid
MS$FOCUSED_ION: PRECURSOR_TYPE [M+H]+
MS$FOCUSED_ION: PRECURSOR_M/Z 623.3115635
PK$SPLASH: splash10-00e9-0948120000-52e14cf795a0d92554ba
PK$NUM_PEAK: 299
PK$PEAK: m/z int. rel.int.
  91.05595 67.0 67
  95.04975 21.0 21
  116.05993 17.0 17
  119.08356 19.0 19
  121.06194 21.0 21
  122.07551 15.0 15
  123.04437 18.0 18
  132.05547 22.0 22
  133.06859 28.0 28
  134.07086 23.0 23
  137.05927 18.0 18
  144.08287 27.0 27
  145.09157 38.0 38
  146.06856 15.0 15
  146.09773 54.0 54
  147.06845 25.0 25
  148.07878 25.0 25
  150.09006 14.0 14
  151.07791 20.0 20
  152.05409 29.0 29
  153.07208 15.0 15
  156.09511 18.0 18
  157.06699 17.0 17
  157.07854 19.0 19
  158.10103 17.0 17
  159.05171 23.0 23
  159.0826 25.0 25
  159.0995 36.0 36
  159.11604 19.0 19
  160.05363 42.0 42
  160.08052 14.0 14
  161.08136 51.0 51
  162.08025 58.0 58
  162.09427 94.0 94
  163.10545 14.0 14
  165.06876 19.0 19
  165.09238 19.0 19
  167.07274 14.0 14
  169.03709 27.0 27
  171.07735 17.0 17
  174.07645 46.0 46
  174.09265 1000.0 999
  174.13106 14.0 14
  175.07208 35.0 35
  175.08458 30.0 30
  175.09752 190.0 190
  176.0764 22.0 22
  176.08998 31.0 31
  176.10043 58.0 58
  176.11305 57.0 57
  177.07024 17.0 17
  177.1114 20.0 20
  186.09741 19.0 19
  189.07379 16.0 16
  189.0876 36.0 36
  189.11037 25.0 25
  190.07845 17.0 17
  190.08798 76.0 76
  190.12804 25.0 25
  191.0878 109.0 109
  191.10735 38.0 38
  192.05403 29.0 29
  192.08986 25.0 25
  192.0986 41.0 41
  192.11148 33.0 33
  193.50639 15.0 15
  195.06369 15.0 15
  195.0808 15.0 15
  196.06876 22.0 22
  196.08977 26.0 26
  200.10779 16.0 16
  201.08502 19.0 19
  202.09354 15.0 15
  204.10118 52.0 52
  204.11125 51.0 51
  205.11147 17.0 17
  206.05362 28.0 28
  206.08572 19.0 19
  206.10327 17.0 17
  208.09125 14.0 14
  210.10017 16.0 16
  212.08041 19.0 19
  214.11549 17.0 17
  220.10512 14.0 14
  221.08371 19.0 19
  223.06882 23.0 23
  225.09995 29.0 29
  227.10751 116.0 116
  228.10625 25.0 25
  229.11784 28.0 28
  234.1004 14.0 14
  235.08052 15.0 15
  235.11279 32.0 32
  236.11179 17.0 17
  237.07625 17.0 17
  237.08728 14.0 14
  237.10323 19.0 19
  239.09813 55.0 55
  239.11276 39.0 39
  241.08568 15.0 15
  242.33136 22.0 22
  243.38239 20.0 20
  249.08934 15.0 15
  250.1189 33.0 33
  251.10391 30.0 30
  252.04236 18.0 18
  252.09007 50.0 50
  254.10979 23.0 23
  255.11006 21.0 21
  261.0968 24.0 24
  262.12021 25.0 25
  263.10257 30.0 30
  265.12344 15.0 15
  266.10815 17.0 17
  267.09763 19.0 19
  268.10812 19.0 19
  268.11804 15.0 15
  269.10489 18.0 18
  269.13431 24.0 24
  269.15683 15.0 15
  275.08844 14.0 14
  279.06921 18.0 18
  279.11786 19.0 19
  280.10696 16.0 16
  281.10773 20.0 20
  283.13574 20.0 20
  284.09698 14.0 14
  284.14185 20.0 20
  288.1156 30.0 30
  289.13113 26.0 26
  291.0853 17.0 17
  292.12961 18.0 18
  294.11395 26.0 26
  294.12982 24.0 24
  295.09625 50.0 50
  295.13571 30.0 30
  296.13846 14.0 14
  297.1355 14.0 14
  298.10287 19.0 19
  299.03259 14.0 14
  299.16412 26.0 26
  302.09592 32.0 32
  303.11978 17.0 17
  303.20142 20.0 20
  306.11374 58.0 58
  307.12064 69.0 69
  309.12106 33.0 33
  309.13879 27.0 27
  319.10892 17.0 17
  319.16159 33.0 33
  320.13275 21.0 21
  321.11618 29.0 29
  321.13229 19.0 19
  322.13895 17.0 17
  323.11935 15.0 15
  323.13287 30.0 30
  324.11221 18.0 18
  324.16367 20.0 20
  325.1268 24.0 24
  325.66791 15.0 15
  327.14838 15.0 15
  328.15408 15.0 15
  331.11069 22.0 22
  333.13342 30.0 30
  333.14813 18.0 18
  334.10886 14.0 14
  334.13507 16.0 16
  335.12692 14.0 14
  336.10925 18.0 18
  337.10385 14.0 14
  337.12408 21.0 21
  337.15076 22.0 22
  338.12646 45.0 45
  338.13806 19.0 19
  339.14633 31.0 31
  340.11279 14.0 14
  341.12827 17.0 17
  342.08911 18.0 18
  343.12701 18.0 18
  346.12381 14.0 14
  348.13669 14.0 14
  349.13156 18.0 18
  349.16928 19.0 19
  350.14194 28.0 28
  350.15079 14.0 14
  350.16742 17.0 17
  351.14862 45.0 45
  352.11136 21.0 21
  352.15857 36.0 36
  353.13803 15.0 15
  353.18201 63.0 63
  355.17828 14.0 14
  359.13599 17.0 17
  359.17661 19.0 19
  359.66965 17.0 17
  361.12811 17.0 17
  362.41931 15.0 15
  363.09937 19.0 19
  363.17389 127.0 127
  363.21442 25.0 25
  363.24051 14.0 14
  364.16586 30.0 30
  364.18094 24.0 24
  364.19595 15.0 15
  365.095 17.0 17
  365.13464 16.0 16
  365.15051 14.0 14
  365.19202 63.0 63
  365.20425 16.0 16
  366.16367 17.0 17
  366.18402 31.0 31
  367.0766 14.0 14
  369.11905 15.0 15
  369.15753 33.0 33
  371.14682 17.0 17
  372.1395 19.0 19
  373.10312 21.0 21
  373.14786 42.0 42
  375.16412 15.0 15
  379.17419 18.0 18
  380.16605 17.0 17
  381.13824 14.0 14
  381.16745 113.0 113
  381.18109 406.0 406
  381.20251 63.0 63
  382.16095 58.0 58
  382.19135 91.0 91
  383.1434 21.0 21
  383.17523 42.0 42
  383.19183 26.0 26
  384.16916 18.0 18
  384.186 17.0 17
  385.15128 14.0 14
  387.15765 17.0 17
  389.17465 15.0 15
  392.48453 17.0 17
  396.16101 18.0 18
  398.17465 33.0 33
  399.72464 21.0 21
  403.14246 16.0 16
  411.14038 21.0 21
  411.17334 14.0 14
  413.13046 17.0 17
  413.16302 16.0 16
  415.16415 24.0 24
  415.19089 21.0 21
  424.16614 17.0 17
  426.16162 14.0 14
  427.17548 33.0 33
  428.19571 18.0 18
  430.10315 19.0 19
  440.13486 29.0 29
  440.21133 16.0 16
  443.19971 19.0 19
  444.21259 16.0 16
  445.21536 15.0 15
  471.19308 15.0 15
  487.20563 22.0 22
  494.2406 30.0 30
  502.19345 14.0 14
  502.21979 15.0 15
  504.1911 30.0 30
  514.18695 19.0 19
  515.16321 23.0 23
  516.22473 61.0 61
  519.16119 20.0 20
  519.20471 19.0 19
  520.20825 18.0 18
  523.16718 23.0 23
  526.05756 15.0 15
  530.22021 24.0 24
  531.20532 18.0 18
  537.21088 22.0 22
  544.23016 14.0 14
  546.20331 14.0 14
  546.24628 58.0 58
  547.21631 15.0 15
  547.23682 23.0 23
  550.22589 24.0 24
  550.263 30.0 30
  551.28656 17.0 17
  560.25519 18.0 18
  562.17157 14.0 14
  562.20703 41.0 41
  564.25482 14.0 14
  565.30524 19.0 19
  575.25348 17.0 17
  576.23096 14.0 14
  577.23236 19.0 19
  578.25159 18.0 18
  580.28229 15.0 15
  591.26733 24.0 24
  593.18182 25.0 25
  593.24927 39.0 39
  605.26868 14.0 14
  607.2688 14.0 14
  608.26416 15.0 15
  623.28815 19.0 19
  623.31781 14.0 14
//
