ACCESSION: MSBNK-RIKEN-PR301194
RECORD_TITLE: (-)-B-Hydrastine; LC-ESI-QTOF; MS2
DATE: 2019.03.28
AUTHORS: Tetsuya Mori, Center for Sustainable Resource Science, RIKEN
LICENSE: CC BY-NC-SA
PUBLICATION: Tsugawa H., Nakabayashi R., Mori T., Yamada Y., Takahashi M., Rai A., Sugiyama R., Yamamoto H., Nakaya T., Yamazaki M., Kooke R., Bac-Molenaar JA., Oztolan-Erol N., Keurentjes JJB., Arita M., Saito K. (2019) "A cheminformatics approach to characterize metabolomes in stable-isotope-labeled organisms" Nature Methods 16(4):295-298. [doi:10.1038/s41592-019-0358-2]
COMMENT: registered in RIKEN PlaSMA
CH$NAME: (-)-B-Hydrastine
CH$COMPOUND_CLASS: Phthalide isoquinolines
CH$FORMULA: C21H21NO6
CH$EXACT_MASS: 383.4
CH$SMILES: COC1=C(OC)C2=C(C=C1)[C@H](OC2=O)[C@@H]1N(C)CCC2=CC3=C(OCO3)C=C12
CH$IUPAC: InChI=1S/C21H21NO6/c1-22-7-6-11-8-15-16(27-10-26-15)9-13(11)18(22)19-12-4-5-14(24-2)20(25-3)17(12)21(23)28-19/h4-5,8-9,18-19H,6-7,10H2,1-3H3/t18-,19+/m1/s1
CH$LINK: INCHIKEY JZUTXVTYJDCMDU-MOPGFXCFSA-N
AC$INSTRUMENT: LC, Waters Acquity UPLC System; MS, Waters Xevo G2 Q-Tof
AC$INSTRUMENT_TYPE: LC-ESI-QTOF
AC$MASS_SPECTROMETRY: MS_TYPE MS2
AC$MASS_SPECTROMETRY: ION_MODE POSITIVE
AC$MASS_SPECTROMETRY: COLLISION_ENERGY 6V
AC$MASS_SPECTROMETRY: DESOLVATION_GAS_FLOW 800/h
AC$MASS_SPECTROMETRY: DESOLVATION_TEMPERATURE 450 C
AC$MASS_SPECTROMETRY: IONIZATION ESI
AC$CHROMATOGRAPHY: CAPILLARY_VOLTAGE +3.00 kV
AC$CHROMATOGRAPHY: COLUMN_NAME Acquity bridged ethyl hybrid C18 (1.7 um, 2.1 mm * 100 mm, Waters)
AC$CHROMATOGRAPHY: COLUMN_TEMPERATURE 40 C
AC$CHROMATOGRAPHY: FLOW_GRADIENT A/B = (99.5%/0.5% at 0 min, 99.5%/0.5% at 0.1 min, 20%/80% at 10 min, 0.5%/99.5% at 10.1 min, 0.5%/99.5% at 12.0 min, 99.5%/0.5% at 12.1 min, 99.5%/0.5% at 15.0 min)
AC$CHROMATOGRAPHY: FLOW_RATE 0.3 ml/min at 0 min, 0.3 ml/min at 10 min, 0.4 ml/min at 10.1 min, 0.4 ml/min at 14.4 min, 0.3 ml/min at 14.5 min
AC$CHROMATOGRAPHY: RETENTION_TIME 4.211233
AC$CHROMATOGRAPHY: SOLVENT A water including 0.1% formic acid
AC$CHROMATOGRAPHY: SOLVENT B acetonitrile including 0.1% formic acid
MS$FOCUSED_ION: PRECURSOR_TYPE [M+H]+
MS$FOCUSED_ION: PRECURSOR_M/Z 384.1441639
PK$SPLASH: splash10-0006-0394000000-ac150be074cc5a8b31fe
PK$NUM_PEAK: 188
PK$PEAK: m/z int. rel.int.
  135.04378 36.0 36
  136.0533 14.0 14
  149.05295 23.0 23
  149.0621 145.0 145
  150.07228 19.0 19
  160.04803 16.0 16
  162.06142 23.0 23
  163.03984 19.0 19
  173.05556 13.0 13
  174.02753 18.0 18
  174.0448 15.0 15
  175.07298 17.0 17
  175.1116 20.0 20
  176.06125 23.0 23
  176.07172 82.0 82
  176.07838 27.0 27
  177.05446 22.0 22
  180.05023 24.0 24
  188.04619 20.0 20
  188.07001 28.0 28
  189.38129 12.0 12
  190.07988 236.0 236
  190.08894 657.0 656
  191.08705 30.0 30
  191.09677 103.0 103
  193.03719 14.0 14
  193.05492 13.0 13
  193.06465 13.0 13
  193.83974 14.0 14
  195.06232 14.0 14
  206.07483 14.0 14
  207.07965 27.0 27
  207.08823 51.0 51
  209.0746 20.0 20
  209.10568 15.0 15
  217.06259 12.0 12
  217.07066 13.0 13
  218.07091 17.0 17
  220.05125 20.0 20
  222.07269 43.0 43
  223.07266 20.0 20
  226.07013 17.0 17
  227.17056 13.0 13
  231.07768 22.0 22
  232.0519 16.0 16
  233.06122 23.0 23
  233.07841 14.0 14
  234.05801 13.0 13
  234.06667 12.0 12
  235.08153 34.0 34
  236.0768 15.0 15
  237.09093 14.0 14
  239.11588 19.0 19
  240.11275 17.0 17
  243.09676 29.0 29
  245.06386 23.0 23
  246.06247 12.0 12
  247.04276 14.0 14
  247.07816 39.0 39
  248.0849 56.0 56
  249.05289 56.0 56
  249.08685 39.0 39
  249.10857 13.0 13
  250.06239 74.0 74
  251.06783 14.0 14
  251.11304 60.0 60
  252.07504 33.0 33
  252.95656 18.0 18
  253.08531 14.0 14
  254.09711 12.0 12
  254.10779 15.0 15
  255.51126 24.0 24
  257.53259 13.0 13
  259.07507 41.0 41
  260.03854 24.0 24
  260.04718 18.0 18
  261.05093 17.0 17
  262.06448 55.0 55
  263.05777 35.0 35
  263.06964 55.0 55
  263.08667 14.0 14
  264.05814 27.0 27
  264.07632 17.0 17
  265.06143 16.0 16
  265.08047 135.0 135
  265.09171 257.0 257
  265.10846 14.0 14
  266.09177 12.0 12
  267.06549 18.0 18
  267.09613 30.0 30
  267.11212 29.0 29
  268.11197 18.0 18
  272.05655 14.0 14
  274.07428 17.0 17
  275.06107 40.0 40
  275.07632 12.0 12
  275.08606 17.0 17
  276.04996 22.0 22
  276.05832 21.0 21
  277.03662 17.0 17
  278.0531 27.0 27
  278.06342 52.0 52
  278.09009 31.0 31
  278.13846 14.0 14
  279.06888 14.0 14
  279.0842 12.0 12
  279.10919 36.0 36
  280.05157 13.0 13
  280.06708 106.0 106
  280.09485 21.0 21
  280.62228 13.0 13
  281.06714 16.0 16
  281.08334 27.0 27
  281.28769 13.0 13
  282.09058 12.0 12
  283.05334 16.0 16
  283.0863 38.0 38
  283.09891 28.0 28
  290.07019 13.0 13
  291.04761 14.0 14
  291.06262 100.0 100
  291.07852 17.0 17
  292.01382 17.0 17
  292.04367 12.0 12
  292.06088 24.0 24
  292.07721 237.0 237
  293.04633 55.0 55
  293.08347 1000.0 999
  293.11093 35.0 35
  293.17657 15.0 15
  294.06827 17.0 17
  294.08557 276.0 276
  294.1048 24.0 24
  295.05756 15.0 15
  295.09222 143.0 143
  295.10165 95.0 95
  296.10867 28.0 28
  297.05511 15.0 15
  302.05453 43.0 43
  304.05722 16.0 16
  304.07394 90.0 90
  304.98608 12.0 12
  305.04196 13.0 13
  305.08167 43.0 43
  305.099 38.0 38
  306.05173 14.0 14
  307.0535 20.0 20
  308.06689 134.0 134
  308.08493 15.0 15
  308.81659 26.0 26
  313.108 14.0 14
  318.07733 19.0 19
  319.10419 59.0 59
  320.04929 14.0 14
  320.06671 121.0 121
  320.2515 15.0 15
  320.81021 13.0 13
  321.06882 30.0 30
  322.07379 38.0 38
  322.08926 23.0 23
  322.12256 20.0 20
  322.92291 13.0 13
  323.09457 855.0 854
  323.64862 14.0 14
  324.08676 27.0 27
  324.10239 211.0 211
  325.0123 21.0 21
  325.08194 14.0 14
  325.10382 28.0 28
  325.12292 20.0 20
  326.29965 13.0 13
  327.11633 14.0 14
  332.07986 27.0 27
  333.22067 13.0 13
  334.10724 17.0 17
  334.55078 12.0 12
  335.08136 35.0 35
  335.1062 44.0 44
  336.09058 13.0 13
  337.08899 13.0 13
  337.10809 16.0 16
  339.93561 12.0 12
  349.12772 28.0 28
  351.08307 15.0 15
  367.11472 17.0 17
  384.1362 30.0 30
  384.15274 16.0 16
  384.17383 16.0 16
//
