ACCESSION: MSBNK-RIKEN-PR300215
RECORD_TITLE: Gardnutine; LC-ESI-QTOF; MS2
DATE: 2019.03.28
AUTHORS: Tetsuya Mori, Center for Sustainable Resource Science, RIKEN
LICENSE: CC BY-NC-SA
PUBLICATION: Tsugawa H., Nakabayashi R., Mori T., Yamada Y., Takahashi M., Rai A., Sugiyama R., Yamamoto H., Nakaya T., Yamazaki M., Kooke R., Bac-Molenaar JA., Oztolan-Erol N., Keurentjes JJB., Arita M., Saito K. (2019) "A cheminformatics approach to characterize metabolomes in stable-isotope-labeled organisms" Nature Methods 16(4):295-298. [doi:10.1038/s41592-019-0358-2]
COMMENT: registered in RIKEN PlaSMA
CH$NAME: Gardnutine
CH$COMPOUND_CLASS: Macroline alkaloids
CH$FORMULA: C20H22N2O2
CH$EXACT_MASS: 322.408
CH$SMILES: COC1=CC2=C(C=C1)C1=C(N2)[C@@H]2CC3C4CO[C@H]1[C@@H]4N2C\C3=C\C
CH$IUPAC: InChI=1S/C20H22N2O2/c1-3-10-8-22-16-7-13(10)14-9-24-20(19(14)22)17-12-5-4-11(23-2)6-15(12)21-18(16)17/h3-6,13-14,16,19-21H,7-9H2,1-2H3/b10-3-/t13?,14?,16-,19+,20+/m0/s1
CH$LINK: INCHIKEY XJTWLFBHBFSVRS-CRJBWSHOSA-N
AC$INSTRUMENT: LC, Waters Acquity UPLC System; MS, Waters Xevo G2 Q-Tof
AC$INSTRUMENT_TYPE: LC-ESI-QTOF
AC$MASS_SPECTROMETRY: MS_TYPE MS2
AC$MASS_SPECTROMETRY: ION_MODE POSITIVE
AC$MASS_SPECTROMETRY: COLLISION_ENERGY 6V
AC$MASS_SPECTROMETRY: DESOLVATION_GAS_FLOW 800/h
AC$MASS_SPECTROMETRY: DESOLVATION_TEMPERATURE 450 C
AC$MASS_SPECTROMETRY: IONIZATION ESI
AC$CHROMATOGRAPHY: CAPILLARY_VOLTAGE +3.00 kV
AC$CHROMATOGRAPHY: COLUMN_NAME Acquity bridged ethyl hybrid C18 (1.7 um, 2.1 mm * 100 mm, Waters)
AC$CHROMATOGRAPHY: COLUMN_TEMPERATURE 40 C
AC$CHROMATOGRAPHY: FLOW_GRADIENT A/B = (99.5%/0.5% at 0 min, 99.5%/0.5% at 0.1 min, 20%/80% at 10 min, 0.5%/99.5% at 10.1 min, 0.5%/99.5% at 12.0 min, 99.5%/0.5% at 12.1 min, 99.5%/0.5% at 15.0 min)
AC$CHROMATOGRAPHY: FLOW_RATE 0.3 ml/min at 0 min, 0.3 ml/min at 10 min, 0.4 ml/min at 10.1 min, 0.4 ml/min at 14.4 min, 0.3 ml/min at 14.5 min
AC$CHROMATOGRAPHY: RETENTION_TIME 4.419867
AC$CHROMATOGRAPHY: SOLVENT A water including 0.1% formic acid
AC$CHROMATOGRAPHY: SOLVENT B acetonitrile including 0.1% formic acid
MS$FOCUSED_ION: PRECURSOR_TYPE [M+H]+
MS$FOCUSED_ION: PRECURSOR_M/Z 323.1754044
PK$SPLASH: splash10-0a4l-1930000000-bfd4e0133c2871cde0bc
PK$NUM_PEAK: 307
PK$PEAK: m/z int. rel.int.
  66.04375 7.0 7
  67.05341 21.0 21
  69.0359 9.0 9
  70.0621 6.0 6
  77.03909 102.0 102
  78.03429 24.0 24
  78.04436 9.0 9
  79.0468 9.0 9
  79.05333 24.0 24
  80.04762 28.0 28
  82.06622 19.0 19
  90.04462 5.0 5
  91.04729 37.0 37
  91.05559 99.0 99
  92.05367 28.0 28
  93.05731 229.0 229
  93.06885 123.0 123
  94.05952 55.0 55
  94.06509 164.0 164
  95.07052 10.0 10
  102.05331 5.0 5
  103.04254 8.0 8
  103.05341 35.0 35
  103.05824 28.0 28
  104.04679 6.0 6
  104.0609 5.0 5
  105.06593 11.0 11
  106.06106 27.0 27
  106.06725 39.0 39
  107.07243 90.0 90
  108.07462 24.0 24
  108.08103 34.0 34
  109.08774 5.0 5
  115.05322 45.0 45
  115.06004 10.0 10
  115.91308 8.0 8
  116.04468 8.0 8
  116.05961 24.0 24
  117.0533 43.0 43
  117.05994 74.0 74
  117.06682 34.0 34
  118.03609 5.0 5
  118.06286 63.0 63
  119.07409 10.0 10
  120.07864 52.0 52
  120.08535 25.0 25
  120.32775 5.0 5
  121.07909 8.0 8
  121.08948 27.0 27
  122.08374 14.0 14
  122.09717 122.0 122
  127.05128 8.0 8
  127.05579 14.0 14
  128.04451 9.0 9
  128.06389 13.0 13
  129.04341 6.0 6
  129.0527 17.0 17
  130.03886 7.0 7
  130.06416 354.0 354
  131.05347 13.0 13
  131.07262 69.0 69
  132.04109 29.0 29
  132.04865 8.0 8
  132.06392 6.0 6
  132.07777 29.0 29
  133.05142 6.0 6
  134.06589 5.0 5
  134.1004 7.0 7
  136.07889 8.0 8
  136.44754 7.0 7
  139.05147 6.0 6
  141.05798 6.0 6
  141.91556 5.0 5
  142.06374 18.0 18
  142.07147 32.0 32
  143.07248 114.0 114
  144.04515 5.0 5
  144.0554 21.0 21
  144.08255 57.0 57
  145.0352 6.0 6
  145.05049 68.0 68
  145.09135 73.0 73
  146.05612 9.0 9
  146.06197 9.0 9
  146.08305 8.0 8
  146.09357 19.0 19
  147.06358 11.0 11
  147.07095 45.0 45
  147.0863 9.0 9
  148.07132 15.0 15
  148.10941 15.0 15
  152.06989 9.0 9
  153.06973 16.0 16
  154.04433 11.0 11
  154.06628 57.0 57
  154.0784 14.0 14
  154.145 7.0 7
  155.07153 58.0 58
  156.07036 12.0 12
  156.07921 21.0 21
  157.07294 14.0 14
  157.09071 21.0 21
  158.02821 6.0 6
  158.04312 14.0 14
  158.05997 1000.0 999
  158.09451 13.0 13
  158.50375 6.0 6
  159.04573 9.0 9
  159.06465 193.0 193
  160.06602 20.0 20
  160.07616 92.0 92
  161.56348 6.0 6
  162.0947 6.0 6
  165.07071 14.0 14
  165.08429 8.0 8
  166.06734 8.0 8
  167.04869 8.0 8
  167.06766 56.0 56
  167.0773 59.0 59
  167.09529 7.0 7
  167.15268 6.0 6
  168.06273 14.0 14
  168.07329 22.0 22
  168.08281 43.0 43
  168.62875 5.0 5
  169.05334 12.0 12
  169.06683 7.0 7
  169.0769 19.0 19
  169.09499 12.0 12
  170.05812 57.0 57
  170.08195 17.0 17
  170.09341 5.0 5
  171.06203 33.0 33
  171.07454 11.0 11
  171.23289 6.0 6
  172.06877 52.0 52
  172.07841 31.0 31
  172.08577 16.0 16
  173.08257 152.0 152
  174.08116 20.0 20
  174.09122 26.0 26
  175.0881 7.0 7
  176.07144 6.0 6
  178.05888 6.0 6
  178.07007 10.0 10
  178.08534 10.0 10
  179.06061 6.0 6
  179.07532 6.0 6
  180.0816 137.0 137
  181.06877 5.0 5
  181.08792 55.0 55
  182.0596 32.0 32
  182.06781 22.0 22
  182.08392 8.0 8
  182.09648 12.0 12
  183.06985 15.0 15
  183.09625 8.0 8
  184.04533 7.0 7
  184.06451 62.0 62
  185.03769 8.0 8
  185.05905 7.0 7
  185.06644 9.0 9
  185.07584 8.0 8
  185.08434 9.0 9
  186.05511 8.0 8
  186.07526 13.0 13
  186.08507 16.0 16
  186.0939 19.0 19
  187.07841 9.0 9
  188.07307 15.0 15
  188.116 10.0 10
  189.07118 9.0 9
  191.06967 41.0 41
  192.07481 19.0 19
  192.08464 22.0 22
  193.07718 37.0 37
  193.08461 47.0 47
  193.09911 18.0 18
  194.05383 10.0 10
  194.08231 7.0 7
  194.09543 50.0 50
  195.06493 14.0 14
  195.09146 29.0 29
  195.10939 6.0 6
  195.12166 8.0 8
  196.06236 21.0 21
  196.07051 28.0 28
  196.07941 26.0 26
  196.10233 8.0 8
  197.05783 5.0 5
  197.07501 24.0 24
  197.08507 37.0 37
  199.06215 8.0 8
  199.08722 21.0 21
  200.07539 20.0 20
  204.07788 46.0 46
  205.07076 10.0 10
  205.0822 12.0 12
  205.09441 19.0 19
  206.07852 14.0 14
  206.09302 43.0 43
  207.09091 24.0 24
  207.10861 15.0 15
  208.04865 14.0 14
  208.07504 51.0 51
  208.09322 10.0 10
  208.10507 19.0 19
  209.07323 24.0 24
  209.08252 14.0 14
  209.10173 7.0 7
  210.07043 6.0 6
  210.09322 62.0 62
  210.12473 7.0 7
  211.09326 12.0 12
  211.09949 7.0 7
  212.09309 12.0 12
  213.07333 10.0 10
  215.08363 9.0 9
  216.08443 10.0 10
  217.08171 10.0 10
  217.09279 26.0 26
  218.08023 14.0 14
  218.09103 14.0 14
  218.10283 13.0 13
  219.0683 10.0 10
  219.08989 20.0 20
  219.09897 45.0 45
  219.10796 19.0 19
  220.05571 8.0 8
  220.06723 8.0 8
  220.08208 30.0 30
  220.10144 86.0 86
  220.11731 26.0 26
  221.0713 12.0 12
  221.11481 14.0 14
  222.08646 34.0 34
  222.10072 14.0 14
  223.0845 15.0 15
  223.10202 21.0 21
  223.12668 12.0 12
  224.10394 10.0 10
  224.11378 5.0 5
  225.10251 14.0 14
  228.07784 9.0 9
  230.09654 11.0 11
  230.10852 7.0 7
  231.09271 12.0 12
  231.10516 16.0 16
  232.07082 21.0 21
  232.09561 29.0 29
  232.1144 12.0 12
  233.06844 8.0 8
  233.08612 13.0 13
  233.09842 23.0 23
  233.10843 38.0 38
  234.06874 13.0 13
  234.08339 39.0 39
  234.10049 39.0 39
  234.12904 9.0 9
  235.03267 8.0 8
  235.09758 16.0 16
  235.11192 15.0 15
  235.12122 16.0 16
  235.133 14.0 14
  236.09933 15.0 15
  236.1142 7.0 7
  236.1302 6.0 6
  237.11024 29.0 29
  238.11218 10.0 10
  238.1234 6.0 6
  245.08502 5.0 5
  245.10335 13.0 13
  245.12035 7.0 7
  246.08466 13.0 13
  246.12779 7.0 7
  247.09117 24.0 24
  247.11705 36.0 36
  248.07761 7.0 7
  248.08963 17.0 17
  248.10649 18.0 18
  249.08626 11.0 11
  249.09938 31.0 31
  249.11197 20.0 20
  249.13182 13.0 13
  250.11331 18.0 18
  259.09787 11.0 11
  260.09116 8.0 8
  260.12259 7.0 7
  260.13837 6.0 6
  261.09772 15.0 15
  261.11743 9.0 9
  261.1452 26.0 26
  262.10815 44.0 44
  262.12219 14.0 14
  262.13342 6.0 6
  263.1109 13.0 13
  263.12585 27.0 27
  264.10077 7.0 7
  265.13373 6.0 6
  274.14883 6.0 6
  276.12354 16.0 16
  277.12958 51.0 51
  277.15073 11.0 11
  278.14157 39.0 39
  278.96872 6.0 6
  279.13467 19.0 19
  314.78815 6.0 6
//
