ACCESSION: MSBNK-RIKEN-PR306567
RECORD_TITLE: Quercetin-4'-O-glucoside; LC-ESI-QTOF; MS2
DATE: 2019.03.28
AUTHORS: Tetsuya Mori, Center for Sustainable Resource Science, RIKEN
LICENSE: CC BY-NC-SA
PUBLICATION: Tsugawa H., Nakabayashi R., Mori T., Yamada Y., Takahashi M., Rai A., Sugiyama R., Yamamoto H., Nakaya T., Yamazaki M., Kooke R., Bac-Molenaar JA., Oztolan-Erol N., Keurentjes JJB., Arita M., Saito K. (2019) "A cheminformatics approach to characterize metabolomes in stable-isotope-labeled organisms" Nature Methods 16(4):295-298. [doi:10.1038/s41592-019-0358-2]
COMMENT: registered in RIKEN PlaSMA
CH$NAME: Quercetin-4'-O-glucoside
CH$COMPOUND_CLASS: Flavonoid O-glycosides
CH$FORMULA: C21H20O12
CH$EXACT_MASS: 464.379
CH$SMILES: OCC1OC(OC2=C(O)C=C(C=C2)C2=C(O)C(=O)C3=C(O)C=C(O)C=C3O2)C(O)C(O)C1O
CH$IUPAC: InChI=1S/C21H20O12/c22-6-13-15(26)17(28)19(30)21(33-13)32-11-2-1-7(3-9(11)24)20-18(29)16(27)14-10(25)4-8(23)5-12(14)31-20/h1-5,13,15,17,19,21-26,28-30H,6H2
CH$LINK: INCHIKEY OIUBYZLTFSLSBY-UHFFFAOYSA-N
AC$INSTRUMENT: LC, Waters Acquity UPLC System; MS, Waters Xevo G2 Q-Tof
AC$INSTRUMENT_TYPE: LC-ESI-QTOF
AC$MASS_SPECTROMETRY: MS_TYPE MS2
AC$MASS_SPECTROMETRY: ION_MODE NEGATIVE
AC$MASS_SPECTROMETRY: COLLISION_ENERGY 6V
AC$MASS_SPECTROMETRY: DESOLVATION_GAS_FLOW 800/h
AC$MASS_SPECTROMETRY: DESOLVATION_TEMPERATURE 450 C
AC$MASS_SPECTROMETRY: IONIZATION ESI
AC$CHROMATOGRAPHY: CAPILLARY_VOLTAGE -2.75 kV
AC$CHROMATOGRAPHY: COLUMN_NAME Acquity bridged ethyl hybrid C18 (1.7 um, 2.1 mm * 100 mm, Waters)
AC$CHROMATOGRAPHY: COLUMN_TEMPERATURE 40 C
AC$CHROMATOGRAPHY: FLOW_GRADIENT A/B = (99.5%/0.5% at 0 min, 99.5%/0.5% at 0.1 min, 20%/80% at 10 min, 0.5%/99.5% at 10.1 min, 0.5%/99.5% at 12.0 min, 99.5%/0.5% at 12.1 min, 99.5%/0.5% at 15.0 min)
AC$CHROMATOGRAPHY: FLOW_RATE 0.3 ml/min at 0 min, 0.3 ml/min at 10 min, 0.4 ml/min at 10.1 min, 0.4 ml/min at 14.4 min, 0.3 ml/min at 14.5 min
AC$CHROMATOGRAPHY: RETENTION_TIME 4.482217
AC$CHROMATOGRAPHY: SOLVENT A water including 0.1% formic acid
AC$CHROMATOGRAPHY: SOLVENT B acetonitrile including 0.1% formic acid
MS$FOCUSED_ION: PRECURSOR_TYPE [M-H]-
MS$FOCUSED_ION: PRECURSOR_M/Z 463.08819964783
PK$SPLASH: splash10-0udi-1910000000-76e8be2895277fb21f4c
PK$NUM_PEAK: 46
PK$PEAK: m/z int. rel.int.
  63.02422 63.0 63
  64.9988 26.0 26
  65.00362 96.0 96
  83.01142 77.0 77
  91.00677 24.0 24
  93.03272 91.0 91
  96.01654 37.0 37
  107.01167 439.0 439
  108.99419 39.0 39
  109.03008 21.0 21
  121.02737 281.0 281
  121.9973 76.0 76
  122.03081 46.0 46
  135.00812 24.0 24
  136.01285 27.0 27
  146.03073 24.0 24
  148.01369 36.0 36
  148.01901 59.0 59
  149.02396 80.0 80
  151.00276 1000.0 999
  151.99414 30.0 30
  152.00446 68.0 68
  153.00349 23.0 23
  158.03036 24.0 24
  159.04597 27.0 27
  163.00046 44.0 44
  163.00995 31.0 31
  163.03355 23.0 23
  164.00705 37.0 37
  164.01375 27.0 27
  171.03252 21.0 21
  175.0497 75.0 75
  178.99979 147.0 147
  189.01556 29.0 29
  202.05731 30.0 30
  226.02994 21.0 21
  227.02853 63.0 63
  229.07115 42.0 42
  230.01448 26.0 26
  240.03825 21.0 21
  243.03503 64.0 64
  255.02792 51.0 51
  271.0166 21.0 21
  271.03674 21.0 21
  299.02258 42.0 42
  300.0224 39.0 39
//
