ACCESSION: MSBNK-RIKEN-PR301135
RECORD_TITLE: (+)-Corydaline; LC-ESI-QTOF; MS2
DATE: 2019.03.28
AUTHORS: Tetsuya Mori, Center for Sustainable Resource Science, RIKEN
LICENSE: CC BY-NC-SA
PUBLICATION: Tsugawa H., Nakabayashi R., Mori T., Yamada Y., Takahashi M., Rai A., Sugiyama R., Yamamoto H., Nakaya T., Yamazaki M., Kooke R., Bac-Molenaar JA., Oztolan-Erol N., Keurentjes JJB., Arita M., Saito K. (2019) "A cheminformatics approach to characterize metabolomes in stable-isotope-labeled organisms" Nature Methods 16(4):295-298. [doi:10.1038/s41592-019-0358-2]
COMMENT: registered in RIKEN PlaSMA
CH$NAME: (+)-Corydaline
CH$COMPOUND_CLASS: Protoberberine alkaloids and derivatives
CH$FORMULA: C22H27NO4
CH$EXACT_MASS: 369.461
CH$SMILES: COC1=C(OC)C=C2[C@H]3[C@@H](C)C4=C(CN3CCC2=C1)C(OC)=C(OC)C=C4
CH$IUPAC: InChI=1S/C22H27NO4/c1-13-15-6-7-18(24-2)22(27-5)17(15)12-23-9-8-14-10-19(25-3)20(26-4)11-16(14)21(13)23/h6-7,10-11,13,21H,8-9,12H2,1-5H3/t13-,21+/m0/s1
CH$LINK: INCHIKEY VRSRXLJTYQVOHC-YEJXKQKISA-N
AC$INSTRUMENT: LC, Waters Acquity UPLC System; MS, Waters Xevo G2 Q-Tof
AC$INSTRUMENT_TYPE: LC-ESI-QTOF
AC$MASS_SPECTROMETRY: MS_TYPE MS2
AC$MASS_SPECTROMETRY: ION_MODE POSITIVE
AC$MASS_SPECTROMETRY: COLLISION_ENERGY 6V
AC$MASS_SPECTROMETRY: DESOLVATION_GAS_FLOW 800/h
AC$MASS_SPECTROMETRY: DESOLVATION_TEMPERATURE 450 C
AC$MASS_SPECTROMETRY: IONIZATION ESI
AC$CHROMATOGRAPHY: CAPILLARY_VOLTAGE +3.00 kV
AC$CHROMATOGRAPHY: COLUMN_NAME Acquity bridged ethyl hybrid C18 (1.7 um, 2.1 mm * 100 mm, Waters)
AC$CHROMATOGRAPHY: COLUMN_TEMPERATURE 40 C
AC$CHROMATOGRAPHY: FLOW_GRADIENT A/B = (99.5%/0.5% at 0 min, 99.5%/0.5% at 0.1 min, 20%/80% at 10 min, 0.5%/99.5% at 10.1 min, 0.5%/99.5% at 12.0 min, 99.5%/0.5% at 12.1 min, 99.5%/0.5% at 15.0 min)
AC$CHROMATOGRAPHY: FLOW_RATE 0.3 ml/min at 0 min, 0.3 ml/min at 10 min, 0.4 ml/min at 10.1 min, 0.4 ml/min at 14.4 min, 0.3 ml/min at 14.5 min
AC$CHROMATOGRAPHY: RETENTION_TIME 4.8644
AC$CHROMATOGRAPHY: SOLVENT A water including 0.1% formic acid
AC$CHROMATOGRAPHY: SOLVENT B acetonitrile including 0.1% formic acid
MS$FOCUSED_ION: PRECURSOR_TYPE [M+H]+
MS$FOCUSED_ION: PRECURSOR_M/Z 370.2012848
PK$SPLASH: splash10-004l-0910000000-ba5ff40e231b5accf49b
PK$NUM_PEAK: 264
PK$PEAK: m/z int. rel.int.
  77.03937 22.0 22
  78.04751 12.0 12
  79.05579 61.0 61
  90.0443 7.0 7
  91.05473 79.0 79
  92.06153 18.0 18
  93.07061 8.0 8
  95.04893 8.0 8
  102.04543 7.0 7
  103.05497 69.0 69
  104.05946 47.0 47
  105.0593 12.0 12
  105.07078 112.0 112
  106.03864 6.0 6
  106.04556 8.0 8
  106.07027 12.0 12
  107.05071 80.0 80
  108.05163 6.0 6
  108.05742 9.0 9
  109.06384 6.0 6
  115.05347 18.0 18
  116.0494 6.0 6
  116.05785 12.0 12
  117.06058 8.0 8
  117.0712 35.0 35
  118.04131 18.0 18
  118.06628 34.0 34
  118.07844 9.0 9
  119.04316 7.0 7
  119.04934 25.0 25
  119.0618 6.0 6
  119.07449 21.0 21
  119.08943 8.0 8
  120.05727 41.0 41
  120.06492 9.0 9
  121.06414 120.0 120
  122.06867 8.0 8
  122.07722 21.0 21
  127.05368 7.0 7
  128.0641 9.0 9
  129.07014 12.0 12
  130.065 28.0 28
  131.04703 32.0 32
  131.05516 28.0 28
  131.07301 330.0 330
  132.0542 15.0 15
  132.06647 25.0 25
  132.07866 47.0 47
  133.04729 7.0 7
  133.05496 38.0 38
  133.06416 134.0 134
  134.05513 21.0 21
  134.07051 133.0 133
  135.04414 181.0 181
  135.07982 54.0 54
  135.08727 19.0 19
  136.03737 7.0 7
  136.0519 109.0 109
  136.07613 9.0 9
  137.04987 7.0 7
  137.05925 14.0 14
  138.05614 5.0 5
  138.06462 6.0 6
  138.07051 9.0 9
  142.07172 5.0 5
  144.05478 7.0 7
  145.06415 23.0 23
  145.09082 10.0 10
  146.06212 66.0 66
  146.07805 6.0 6
  147.06531 40.0 40
  147.07121 84.0 84
  148.03136 6.0 6
  148.04924 29.0 29
  148.07576 506.0 505
  149.0592 74.0 74
  149.07823 61.0 61
  149.09776 15.0 15
  150.06729 313.0 313
  151.06728 32.0 32
  151.07498 88.0 88
  152.07529 9.0 9
  152.08356 7.0 7
  156.08479 11.0 11
  157.09599 5.0 5
  158.05923 10.0 10
  159.04179 5.0 5
  159.06743 121.0 121
  160.04779 9.0 9
  160.0659 34.0 34
  160.07645 115.0 115
  161.05737 30.0 30
  161.08115 75.0 75
  162.04733 10.0 10
  162.06024 11.0 11
  162.08575 15.0 15
  162.09306 13.0 13
  162.09833 8.0 8
  163.06256 10.0 10
  163.07243 18.0 18
  163.08308 6.0 6
  164.08226 27.0 27
  164.09209 10.0 10
  165.06938 6.0 6
  165.09135 183.0 183
  166.09251 35.0 35
  167.07542 5.0 5
  171.06274 7.0 7
  172.06554 5.0 5
  172.07494 13.0 13
  173.05838 14.0 14
  173.07712 11.0 11
  173.08841 8.0 8
  174.04984 21.0 21
  174.05627 49.0 49
  174.06934 7.0 7
  174.08829 14.0 14
  174.09718 13.0 13
  175.05455 7.0 7
  175.0631 9.0 9
  175.07648 10.0 10
  176.07062 1000.0 999
  176.10931 6.0 6
  177.07803 553.0 552
  177.10059 8.0 8
  178.06731 5.0 5
  178.08156 62.0 62
  179.07462 5.0 5
  179.08446 8.0 8
  179.11096 7.0 7
  186.08852 7.0 7
  188.06012 6.0 6
  188.07199 33.0 33
  188.08234 11.0 11
  189.07721 31.0 31
  190.08633 208.0 208
  191.08702 11.0 11
  191.09834 17.0 17
  192.10226 734.0 733
  193.10458 105.0 105
  195.07269 8.0 8
  202.08272 22.0 22
  203.08701 9.0 9
  204.09163 14.0 14
  204.10809 24.0 24
  205.0979 9.0 9
  205.10799 11.0 11
  205.1179 10.0 10
  207.08553 5.0 5
  208.07993 8.0 8
  218.07133 6.0 6
  218.11743 6.0 6
  219.07701 15.0 15
  220.07785 9.0 9
  220.09407 10.0 10
  221.09399 10.0 10
  221.1032 14.0 14
  222.10468 14.0 14
  223.10399 7.0 7
  224.07599 5.0 5
  225.08064 5.0 5
  232.09834 10.0 10
  233.09846 11.0 11
  234.09247 15.0 15
  234.10913 8.0 8
  235.06535 7.0 7
  235.07462 12.0 12
  235.09868 8.0 8
  236.07271 8.0 8
  236.089 15.0 15
  237.09355 11.0 11
  237.11476 8.0 8
  238.06317 6.0 6
  238.07715 6.0 6
  238.09291 6.0 6
  239.09886 9.0 9
  245.08511 6.0 6
  246.08661 10.0 10
  246.10851 8.0 8
  247.07372 12.0 12
  247.10661 5.0 5
  247.11638 7.0 7
  248.09521 11.0 11
  248.11221 6.0 6
  249.06219 9.0 9
  249.08414 29.0 29
  249.09566 10.0 10
  250.09384 24.0 24
  250.11867 7.0 7
  251.10083 13.0 13
  251.11391 5.0 5
  252.08255 12.0 12
  252.1042 9.0 9
  253.0923 7.0 7
  254.08759 9.0 9
  260.11615 7.0 7
  261.08203 9.0 9
  261.09622 11.0 11
  262.08917 9.0 9
  262.0986 10.0 10
  263.06253 6.0 6
  263.08035 5.0 5
  263.10043 29.0 29
  264.07541 9.0 9
  264.09702 15.0 15
  264.11005 15.0 15
  265.10382 22.0 22
  265.11417 8.0 8
  266.10638 8.0 8
  266.12451 8.0 8
  267.11288 15.0 15
  268.1398 5.0 5
  276.10919 10.0 10
  277.0928 7.0 7
  277.10764 5.0 5
  278.08298 20.0 20
  278.09525 22.0 22
  278.11865 31.0 31
  279.08289 7.0 7
  279.10092 13.0 13
  279.12018 6.0 6
  279.13065 6.0 6
  280.10672 10.0 10
  280.12607 7.0 7
  280.14377 10.0 10
  281.07681 12.0 12
  281.09998 5.0 5
  281.11548 13.0 13
  282.09601 19.0 19
  282.121 7.0 7
  290.12424 9.0 9
  291.08112 8.0 8
  292.08862 15.0 15
  292.10632 13.0 13
  293.10184 15.0 15
  293.11475 21.0 21
  294.07535 7.0 7
  294.1109 12.0 12
  295.09433 9.0 9
  295.11322 5.0 5
  296.08878 10.0 10
  296.12515 11.0 11
  296.14212 6.0 6
  297.11429 8.0 8
  306.11325 46.0 46
  307.09427 5.0 5
  307.12241 12.0 12
  308.08624 10.0 10
  308.13416 15.0 15
  309.09796 10.0 10
  309.11172 7.0 7
  310.10226 5.0 5
  310.12518 9.0 9
  310.14508 15.0 15
  320.12616 9.0 9
  322.10898 6.0 6
  322.14099 21.0 21
  324.11432 25.0 25
  324.13278 16.0 16
  325.11905 5.0 5
  325.13675 11.0 11
  338.14523 21.0 21
  354.17297 7.0 7
  370.19443 9.0 9
//
