ACCESSION: MSBNK-RIKEN-PR310581
RECORD_TITLE: Boldine; LC-ESI-QTOF; MS2
DATE: 2019.03.28
AUTHORS: Tetsuya Mori, Center for Sustainable Resource Science, RIKEN
LICENSE: CC BY-NC-SA
PUBLICATION: Tsugawa H., Nakabayashi R., Mori T., Yamada Y., Takahashi M., Rai A., Sugiyama R., Yamamoto H., Nakaya T., Yamazaki M., Kooke R., Bac-Molenaar JA., Oztolan-Erol N., Keurentjes JJB., Arita M., Saito K. (2019) "A cheminformatics approach to characterize metabolomes in stable-isotope-labeled organisms" Nature Methods 16(4):295-298. [doi:10.1038/s41592-019-0358-2]
COMMENT: Annotation level-1
CH$NAME: Boldine
CH$COMPOUND_CLASS: Alkaloids
CH$FORMULA: C19H21NO4
CH$EXACT_MASS: 327.38
CH$SMILES: CN1CCC2=CC(=C(C3=C2[C@@H]1CC4=CC(=C(C=C43)OC)O)OC)O
CH$IUPAC: InChI=1S/C19H21NO4/c1-20-5-4-10-7-15(22)19(24-3)18-12-9-16(23-2)14(21)8-11(12)6-13(20)17(10)18/h7-9,13,21-22H,4-6H2,1-3H3/t13-/m0/s1
CH$LINK: INCHIKEY LZJRNLRASBVRRX-ZDUSSCGKSA-N
AC$INSTRUMENT: LC, Waters Acquity UPLC System; MS, Waters Xevo G2 Q-Tof
AC$INSTRUMENT_TYPE: LC-ESI-QTOF
AC$MASS_SPECTROMETRY: MS_TYPE MS2
AC$MASS_SPECTROMETRY: ION_MODE POSITIVE
AC$MASS_SPECTROMETRY: COLLISION_ENERGY 6V
AC$MASS_SPECTROMETRY: DESOLVATION_GAS_FLOW 800/h
AC$MASS_SPECTROMETRY: DESOLVATION_TEMPERATURE 450 C
AC$MASS_SPECTROMETRY: IONIZATION ESI
AC$CHROMATOGRAPHY: CAPILLARY_VOLTAGE +3.00 kV
AC$CHROMATOGRAPHY: COLUMN_NAME Acquity bridged ethyl hybrid C18 (1.7 um, 2.1 mm * 100 mm, Waters)
AC$CHROMATOGRAPHY: COLUMN_TEMPERATURE 40 C
AC$CHROMATOGRAPHY: FLOW_GRADIENT A/B = (99.5%/0.5% at 0 min, 99.5%/0.5% at 0.1 min, 20%/80% at 10 min, 0.5%/99.5% at 10.1 min, 0.5%/99.5% at 12.0 min, 99.5%/0.5% at 12.1 min, 99.5%/0.5% at 15.0 min)
AC$CHROMATOGRAPHY: FLOW_RATE 0.3 ml/min at 0 min, 0.3 ml/min at 10 min, 0.4 ml/min at 10.1 min, 0.4 ml/min at 14.4 min, 0.3 ml/min at 14.5 min
AC$CHROMATOGRAPHY: RETENTION_TIME 3.35
AC$CHROMATOGRAPHY: SOLVENT A water including 0.1% formic acid
AC$CHROMATOGRAPHY: SOLVENT B acetonitrile including 0.1% formic acid
MS$FOCUSED_ION: PRECURSOR_TYPE [M+H]+
MS$FOCUSED_ION: PRECURSOR_M/Z 328.15433
PK$SPLASH: splash10-00or-0192000000-5f3cb4e07c106eeea28a
PK$NUM_PEAK: 286
PK$PEAK: m/z int. rel.int.
  68.52914 27.0 2
  120.5458 24.0 2
  137.07434 27.0 2
  138.44089 18.0 1
  139.39639 19.0 1
  139.48816 20.0 1
  141.06299 18.0 1
  141.073 28.0 2
  151.04587 30.0 2
  151.05504 22.0 2
  152.06183 20.0 1
  155.07826 30.0 2
  155.08829 22.0 2
  155.35928 18.0 1
  165.00702 19.0 1
  165.03336 21.0 2
  165.06647 95.0 7
  165.07561 140.0 10
  165.83882 20.0 1
  166.07651 182.0 13
  166.08858 71.0 5
  167.08144 68.0 5
  167.09021 25.0 2
  168.05878 18.0 1
  169.09128 37.0 3
  170.17712 18.0 1
  173.59836 41.0 3
  176.06297 300.0 22
  177.05453 52.0 4
  177.06982 1680.0 123
  177.78299 39.0 3
  177.84245 18.0 1
  178.03993 28.0 2
  178.07358 225.0 17
  178.08545 38.0 3
  179.05536 25.0 2
  179.07315 23.0 2
  179.08862 128.0 9
  179.10344 17.0 1
  179.52896 18.0 1
  180.09593 20.0 1
  180.87413 17.0 1
  181.062 18.0 1
  181.09422 31.0 2
  181.56802 20.0 1
  182.06316 42.0 3
  182.07991 52.0 4
  183.0576 25.0 2
  183.07475 94.0 7
  183.08469 34.0 2
  183.11169 24.0 2
  184.08754 41.0 3
  187.19189 19.0 1
  187.26912 31.0 2
  188.08429 22.0 2
  189.05614 18.0 1
  189.6862 27.0 2
  190.07852 75.0 6
  191.09007 42.0 3
  192.69655 17.0 1
  192.98067 22.0 2
  193.06712 110.0 8
  194.0488 57.0 4
  194.0741 1364.0 100
  194.19656 17.0 1
  194.213 31.0 2
  195.07838 202.0 15
  195.08455 85.0 6
  196.05489 22.0 2
  196.15442 21.0 2
  197.79736 24.0 2
  201.0526 42.0 3
  202.10846 17.0 1
  204.04118 23.0 2
  204.05865 88.0 6
  204.48175 25.0 2
  204.77644 20.0 1
  204.98697 23.0 2
  205.03352 33.0 2
  205.06606 3200.0 235
  205.16794 18.0 1
  205.50574 17.0 1
  205.91972 19.0 1
  206.06924 716.0 53
  207.07166 18.0 1
  207.08087 42.0 3
  207.09456 34.0 2
  208.06609 20.0 1
  208.08952 52.0 4
  209.0542 25.0 2
  209.06525 22.0 2
  209.09618 75.0 6
  210.06444 20.0 1
  210.07484 19.0 1
  210.09296 38.0 3
  210.38321 26.0 2
  211.05185 17.0 1
  211.07565 322.0 24
  211.09909 25.0 2
  212.04576 28.0 2
  212.06145 18.0 1
  212.07265 19.0 1
  213.09111 29.0 2
  213.93629 17.0 1
  217.06059 48.0 4
  217.49176 25.0 2
  218.07439 17.0 1
  218.99461 18.0 1
  219.06642 21.0 2
  219.08189 25.0 2
  219.0937 27.0 2
  221.05687 202.0 15
  221.06445 187.0 14
  221.08498 17.0 1
  221.18861 17.0 1
  222.03349 42.0 3
  222.06766 2071.0 152
  222.68178 23.0 2
  223.05193 33.0 2
  223.06862 212.0 16
  223.0762 232.0 17
  223.08842 36.0 3
  223.36687 28.0 2
  224.04916 19.0 1
  224.08902 17.0 1
  224.99968 19.0 1
  225.05809 17.0 1
  225.07761 19.0 1
  225.09013 138.0 10
  225.10507 21.0 2
  225.55962 18.0 1
  226.08736 64.0 5
  226.09698 34.0 2
  227.07356 17.0 1
  227.36035 18.0 1
  228.07343 17.0 1
  230.31633 24.0 2
  232.97588 17.0 1
  233.02571 20.0 1
  233.06097 964.0 71
  233.47618 19.0 1
  233.87936 17.0 1
  234.06192 106.0 8
  234.07056 176.0 13
  234.20107 18.0 1
  234.7 17.0 1
  235.03183 23.0 2
  235.05989 18.0 1
  235.07526 66.0 5
  235.08398 67.0 5
  235.46878 17.0 1
  236.09067 17.0 1
  236.10036 30.0 2
  236.76892 24.0 2
  237.05339 42.0 3
  237.09288 5844.0 430
  237.44765 25.0 2
  237.54179 23.0 2
  237.98621 25.0 2
  238.06659 81.0 6
  238.09558 729.0 54
  238.61267 17.0 1
  239.06847 684.0 50
  239.09767 130.0 10
  239.87804 18.0 1
  240.05382 31.0 2
  240.06758 84.0 6
  240.07555 60.0 4
  240.09731 32.0 2
  241.04657 21.0 2
  241.07516 17.0 1
  241.1046 18.0 1
  242.12778 17.0 1
  242.84798 17.0 1
  247.05946 19.0 1
  247.07687 46.0 3
  249.05475 57.0 4
  250.06178 451.0 33
  251.05429 48.0 4
  251.07253 296.0 22
  251.11266 20.0 1
  251.78932 20.0 1
  252.06926 51.0 4
  252.08409 92.0 7
  253.07542 44.0 3
  253.09056 215.0 16
  254.07603 38.0 3
  254.09105 138.0 10
  254.09938 148.0 11
  254.73489 42.0 3
  255.09201 20.0 1
  255.10728 92.0 7
  256.34 20.0 1
  257.09753 38.0 3
  262.42957 18.0 1
  263.06158 18.0 1
  263.07819 21.0 2
  263.30957 17.0 1
  264.06192 25.0 2
  264.07721 28.0 2
  264.67255 17.0 1
  264.93579 17.0 1
  265.0412 47.0 3
  265.05423 37.0 3
  265.08688 9980.0 734
  265.13257 122.0 9
  265.18573 20.0 1
  265.28546 23.0 2
  266.03616 19.0 1
  266.04517 21.0 2
  266.09122 2251.0 165
  266.17084 35.0 3
  266.23618 17.0 1
  266.2966 21.0 2
  266.46796 30.0 2
  267.06558 487.0 36
  267.0795 198.0 15
  267.09973 157.0 12
  267.12097 21.0 2
  267.13504 20.0 1
  267.7608 30.0 2
  268.07205 177.0 13
  268.10086 104.0 8
  268.51657 20.0 1
  269.10867 17.0 1
  269.12311 24.0 2
  270.56049 20.0 1
  270.70312 18.0 1
  271.06854 23.0 2
  271.09866 21.0 2
  272.54703 17.0 1
  275.18503 17.0 1
  277.9079 18.0 1
  278.10214 28.0 2
  279.10205 21.0 2
  279.11823 26.0 2
  279.73181 19.0 1
  279.7691 30.0 2
  281.07037 21.0 2
  281.08163 21.0 2
  281.30112 19.0 1
  282.09238 931.0 68
  283.0614 21.0 2
  283.08646 132.0 10
  283.09717 66.0 5
  283.38248 58.0 4
  284.10034 40.0 3
  285.11221 54.0 4
  285.7645 20.0 1
  287.63861 18.0 1
  295.08575 24.0 2
  295.73831 17.0 1
  297.06 22.0 2
  297.08218 55.0 4
  297.11298 5722.0 421
  297.16144 17.0 1
  297.36642 17.0 1
  297.67853 20.0 1
  298.09741 169.0 12
  298.11673 1337.0 98
  298.26315 17.0 1
  298.59891 36.0 3
  298.65613 28.0 2
  299.08078 22.0 2
  299.11108 59.0 4
  299.12137 68.0 5
  299.13312 33.0 2
  300.11261 24.0 2
  300.12485 17.0 1
  306.15305 22.0 2
  307.47717 20.0 1
  313.12775 35.0 3
  314.84866 40.0 3
  321.98953 20.0 1
  322.81418 17.0 1
  324.53082 27.0 2
  326.56033 17.0 1
  327.14008 39.0 3
  327.16434 22.0 2
  327.24103 17.0 1
  327.84131 17.0 1
  327.96619 18.0 1
  328.10736 99.0 7
  328.15286 13591.0 999
  328.20273 208.0 15
  328.25989 42.0 3
//
