ACCESSION: MSBNK-RIKEN-PR303815
RECORD_TITLE: Ginkgolide B; LC-ESI-QTOF; MS2
DATE: 2019.03.28
AUTHORS: Tetsuya Mori, Center for Sustainable Resource Science, RIKEN
LICENSE: CC BY-NC-SA
PUBLICATION: Tsugawa H., Nakabayashi R., Mori T., Yamada Y., Takahashi M., Rai A., Sugiyama R., Yamamoto H., Nakaya T., Yamazaki M., Kooke R., Bac-Molenaar JA., Oztolan-Erol N., Keurentjes JJB., Arita M., Saito K. (2019) "A cheminformatics approach to characterize metabolomes in stable-isotope-labeled organisms" Nature Methods 16(4):295-298. [doi:10.1038/s41592-019-0358-2]
COMMENT: registered in RIKEN PlaSMA
CH$NAME: Ginkgolide B
CH$COMPOUND_CLASS: Ginkgolides and bilobalides
CH$FORMULA: C20H24O10
CH$EXACT_MASS: 424.402
CH$SMILES: C[C@@H]1C(=O)O[C@H]2[C@H](O)[C@@]34[C@H]5C[C@@H](C(C)(C)C)[C@@]33[C@@H](O)C(=O)O[C@H]3O[C@@]4(C(=O)O5)[C@@]12O
CH$IUPAC: InChI=1S/C20H24O10/c1-6-12(23)28-11-9(21)18-8-5-7(16(2,3)4)17(18)10(22)13(24)29-15(17)30-20(18,14(25)27-8)19(6,11)26/h6-11,15,21-22,26H,5H2,1-4H3/t6-,7+,8-,9+,10+,11+,15+,17+,18+,19-,20-/m1/s1
CH$LINK: INCHIKEY SQOJOAFXDQDRGF-MMQTXUMRSA-N
AC$INSTRUMENT: LC, Waters Acquity UPLC System; MS, Waters Xevo G2 Q-Tof
AC$INSTRUMENT_TYPE: LC-ESI-QTOF
AC$MASS_SPECTROMETRY: MS_TYPE MS2
AC$MASS_SPECTROMETRY: ION_MODE POSITIVE
AC$MASS_SPECTROMETRY: COLLISION_ENERGY 6V
AC$MASS_SPECTROMETRY: DESOLVATION_GAS_FLOW 800/h
AC$MASS_SPECTROMETRY: DESOLVATION_TEMPERATURE 450 C
AC$MASS_SPECTROMETRY: IONIZATION ESI
AC$CHROMATOGRAPHY: CAPILLARY_VOLTAGE +3.00 kV
AC$CHROMATOGRAPHY: COLUMN_NAME Acquity bridged ethyl hybrid C18 (1.7 um, 2.1 mm * 100 mm, Waters)
AC$CHROMATOGRAPHY: COLUMN_TEMPERATURE 40 C
AC$CHROMATOGRAPHY: FLOW_GRADIENT A/B = (99.5%/0.5% at 0 min, 99.5%/0.5% at 0.1 min, 20%/80% at 10 min, 0.5%/99.5% at 10.1 min, 0.5%/99.5% at 12.0 min, 99.5%/0.5% at 12.1 min, 99.5%/0.5% at 15.0 min)
AC$CHROMATOGRAPHY: FLOW_RATE 0.3 ml/min at 0 min, 0.3 ml/min at 10 min, 0.4 ml/min at 10.1 min, 0.4 ml/min at 14.4 min, 0.3 ml/min at 14.5 min
AC$CHROMATOGRAPHY: RETENTION_TIME 5.359533
AC$CHROMATOGRAPHY: SOLVENT A water including 0.1% formic acid
AC$CHROMATOGRAPHY: SOLVENT B acetonitrile including 0.1% formic acid
MS$FOCUSED_ION: PRECURSOR_TYPE [M+H]+
MS$FOCUSED_ION: PRECURSOR_M/Z 425.1442234
PK$SPLASH: splash10-004i-0275900000-8c7d441db89dc87601b2
PK$NUM_PEAK: 180
PK$PEAK: m/z int. rel.int.
  95.0783 7.0 7
  95.08846 6.0 6
  98.03586 6.0 6
  107.08767 8.0 8
  113.09888 7.0 7
  117.06544 5.0 5
  133.09579 5.0 5
  145.06514 6.0 6
  145.10176 6.0 6
  148.09515 6.0 6
  149.02208 6.0 6
  153.05659 5.0 5
  153.08023 6.0 6
  155.0825 6.0 6
  156.09483 6.0 6
  159.03026 7.0 7
  159.04573 10.0 10
  159.08086 6.0 6
  159.11601 13.0 13
  163.0428 15.0 15
  167.05528 9.0 9
  171.07689 5.0 5
  171.11441 8.0 8
  173.06075 7.0 7
  173.09608 12.0 12
  175.1125 6.0 6
  177.09486 7.0 7
  178.07382 5.0 5
  179.09235 9.0 9
  182.10576 6.0 6
  183.10992 8.0 8
  184.04065 6.0 6
  184.08412 5.0 5
  185.09448 14.0 14
  186.06209 5.0 5
  186.09131 12.0 12
  187.03476 10.0 10
  187.07724 9.0 9
  187.11855 8.0 8
  191.06937 5.0 5
  192.10231 5.0 5
  195.08661 7.0 7
  196.08516 9.0 9
  197.06621 6.0 6
  197.09207 5.0 5
  197.10164 5.0 5
  197.13092 7.0 7
  198.1367 10.0 10
  199.03749 6.0 6
  199.07954 10.0 10
  199.11047 5.0 5
  201.09325 20.0 20
  203.11009 8.0 8
  205.04239 5.0 5
  207.01859 6.0 6
  210.10139 5.0 5
  211.07457 13.0 13
  212.11954 6.0 6
  213.05707 10.0 10
  213.08549 6.0 6
  213.09814 6.0 6
  215.04199 5.0 5
  215.0778 5.0 5
  215.11029 6.0 6
  216.09953 5.0 5
  217.08859 13.0 13
  219.06473 6.0 6
  219.10835 10.0 10
  220.09238 5.0 5
  221.05191 8.0 8
  222.05049 8.0 8
  223.06709 10.0 10
  223.08891 7.0 7
  223.12361 6.0 6
  227.03484 20.0 20
  227.07394 12.0 12
  227.11195 7.0 7
  229.08607 20.0 20
  230.05904 6.0 6
  231.02542 5.0 5
  231.0446 8.0 8
  231.10005 23.0 23
  231.15326 5.0 5
  233.207 5.0 5
  235.12854 6.0 6
  241.08063 7.0 7
  241.12833 14.0 14
  242.8842 5.0 5
  243.04041 7.0 7
  244.16129 5.0 5
  245.04189 14.0 14
  245.06102 8.0 8
  245.07562 24.0 24
  247.10378 6.0 6
  248.09282 7.0 7
  251.10675 9.0 9
  253.12103 10.0 10
  253.13756 6.0 6
  255.10672 6.0 6
  255.13689 16.0 16
  257.08429 44.0 44
  259.10162 11.0 11
  261.10779 7.0 7
  261.14972 11.0 11
  263.10736 9.0 9
  265.11081 5.0 5
  267.09842 12.0 12
  269.12463 11.0 11
  271.08493 5.0 5
  271.13571 17.0 17
  272.11688 5.0 5
  272.13483 15.0 15
  273.03961 6.0 6
  273.078 13.0 13
  274.05811 6.0 6
  275.08344 23.0 23
  275.09634 38.0 38
  275.12637 6.0 6
  276.08484 5.0 5
  277.09531 15.0 15
  279.09094 7.0 7
  279.10046 16.0 16
  279.11172 6.0 6
  281.12292 18.0 18
  283.10199 10.0 10
  287.10617 9.0 9
  287.18622 5.0 5
  289.06049 11.0 11
  289.11099 15.0 15
  295.59708 5.0 5
  297.1088 53.0 53
  298.10919 11.0 11
  299.13199 14.0 14
  305.09766 25.0 25
  305.11343 33.0 33
  305.13672 7.0 7
  307.09628 5.0 5
  315.09744 6.0 6
  315.11755 33.0 33
  315.13705 24.0 24
  316.08575 5.0 5
  316.13843 9.0 9
  321.09598 29.0 29
  322.09967 5.0 5
  325.08032 6.0 6
  325.10522 12.0 12
  326.11606 17.0 17
  327.13855 5.0 5
  328.12387 5.0 5
  328.56509 6.0 6
  333.10971 5.0 5
  333.12988 8.0 8
  333.14676 9.0 9
  337.05627 16.0 16
  343.12119 13.0 13
  344.1286 11.0 11
  351.07169 5.0 5
  351.14142 18.0 18
  361.11725 60.0 60
  361.13501 104.0 104
  362.12775 15.0 15
  362.1409 15.0 15
  365.1232 5.0 5
  370.55731 5.0 5
  370.80536 6.0 6
  371.09518 8.0 8
  371.13788 8.0 8
  372.12653 7.0 7
  379.15134 50.0 50
  389.11957 10.0 10
  389.14151 18.0 18
  407.11636 12.0 12
  407.14719 7.0 7
  407.16095 14.0 14
  408.13745 5.0 5
  409.14572 11.0 11
  413.86499 8.0 8
  425.06152 5.0 5
  425.07816 9.0 9
  425.14569 1000.0 999
//
