ACCESSION: MSBNK-RIKEN-PR304841
RECORD_TITLE: Vincanidine; LC-ESI-QTOF; MS2
DATE: 2019.03.28
AUTHORS: Tetsuya Mori, Center for Sustainable Resource Science, RIKEN
LICENSE: CC BY-NC-SA
PUBLICATION: Tsugawa H., Nakabayashi R., Mori T., Yamada Y., Takahashi M., Rai A., Sugiyama R., Yamamoto H., Nakaya T., Yamazaki M., Kooke R., Bac-Molenaar JA., Oztolan-Erol N., Keurentjes JJB., Arita M., Saito K. (2019) "A cheminformatics approach to characterize metabolomes in stable-isotope-labeled organisms" Nature Methods 16(4):295-298. [doi:10.1038/s41592-019-0358-2]
COMMENT: registered in RIKEN PlaSMA
CH$NAME: Vincanidine
CH$COMPOUND_CLASS: Strychnos alkaloids
CH$FORMULA: C19H20N2O2
CH$EXACT_MASS: 308.381
CH$SMILES: CC=C1CN2CCC34C2CC1C(C=O)=C3NC1=C4C=CC=C1O
CH$IUPAC: InChI=1S/C19H20N2O2/c1-2-11-9-21-7-6-19-14-4-3-5-15(23)17(14)20-18(19)13(10-22)12(11)8-16(19)21/h2-5,10,12,16,20,23H,6-9H2,1H3
CH$LINK: INCHIKEY JDOFCMASVRMYJU-UHFFFAOYSA-N
AC$INSTRUMENT: LC, Waters Acquity UPLC System; MS, Waters Xevo G2 Q-Tof
AC$INSTRUMENT_TYPE: LC-ESI-QTOF
AC$MASS_SPECTROMETRY: MS_TYPE MS2
AC$MASS_SPECTROMETRY: ION_MODE NEGATIVE
AC$MASS_SPECTROMETRY: COLLISION_ENERGY 6V
AC$MASS_SPECTROMETRY: DESOLVATION_GAS_FLOW 800/h
AC$MASS_SPECTROMETRY: DESOLVATION_TEMPERATURE 450 C
AC$MASS_SPECTROMETRY: IONIZATION ESI
AC$CHROMATOGRAPHY: CAPILLARY_VOLTAGE -2.75 kV
AC$CHROMATOGRAPHY: COLUMN_NAME Acquity bridged ethyl hybrid C18 (1.7 um, 2.1 mm * 100 mm, Waters)
AC$CHROMATOGRAPHY: COLUMN_TEMPERATURE 40 C
AC$CHROMATOGRAPHY: FLOW_GRADIENT A/B = (99.5%/0.5% at 0 min, 99.5%/0.5% at 0.1 min, 20%/80% at 10 min, 0.5%/99.5% at 10.1 min, 0.5%/99.5% at 12.0 min, 99.5%/0.5% at 12.1 min, 99.5%/0.5% at 15.0 min)
AC$CHROMATOGRAPHY: FLOW_RATE 0.3 ml/min at 0 min, 0.3 ml/min at 10 min, 0.4 ml/min at 10.1 min, 0.4 ml/min at 14.4 min, 0.3 ml/min at 14.5 min
AC$CHROMATOGRAPHY: RETENTION_TIME 3.39095
AC$CHROMATOGRAPHY: SOLVENT A water including 0.1% formic acid
AC$CHROMATOGRAPHY: SOLVENT B acetonitrile including 0.1% formic acid
MS$FOCUSED_ION: PRECURSOR_TYPE [M-H]-
MS$FOCUSED_ION: PRECURSOR_M/Z 307.14520144783
PK$SPLASH: splash10-0a4i-0019000000-d8378cf47a07280df465
PK$NUM_PEAK: 18
PK$PEAK: m/z int. rel.int.
  120.07468 5.0 5
  176.68054 5.0 5
  179.73305 6.0 6
  200.09198 9.0 9
  210.05322 11.0 11
  223.07289 7.0 7
  224.11774 7.0 7
  237.07314 9.0 9
  237.08806 22.0 22
  238.08508 6.0 6
  238.1156 19.0 19
  239.08675 10.0 10
  240.08745 5.0 5
  240.10172 6.0 6
  264.12494 6.0 6
  278.10519 6.0 6
  303.4371 7.0 7
  307.14514 1000.0 999
//
