ACCESSION: MSBNK-RIKEN-PR307297
RECORD_TITLE: Atractylenolide III; LC-ESI-QTOF; MS2
DATE: 2019.03.28
AUTHORS: Tetsuya Mori, Center for Sustainable Resource Science, RIKEN
LICENSE: CC BY-NC-SA
PUBLICATION: Tsugawa H., Nakabayashi R., Mori T., Yamada Y., Takahashi M., Rai A., Sugiyama R., Yamamoto H., Nakaya T., Yamazaki M., Kooke R., Bac-Molenaar JA., Oztolan-Erol N., Keurentjes JJB., Arita M., Saito K. (2019) "A cheminformatics approach to characterize metabolomes in stable-isotope-labeled organisms" Nature Methods 16(4):295-298. [doi:10.1038/s41592-019-0358-2]
COMMENT: registered in RIKEN PlaSMA
CH$NAME: Atractylenolide III
CH$COMPOUND_CLASS: Eudesmanolides, secoeudesmanolides, and derivatives
CH$FORMULA: C15H20O3
CH$EXACT_MASS: 248.322
CH$SMILES: CC1=C2CC3C(=C)CCCC3(C)CC2(O)OC1=O
CH$IUPAC: InChI=1S/C15H20O3/c1-9-5-4-6-14(3)8-15(17)12(7-11(9)14)10(2)13(16)18-15/h11,17H,1,4-8H2,2-3H3
CH$LINK: INCHIKEY FBMORZZOJSDNRQ-UHFFFAOYSA-N
AC$INSTRUMENT: LC, Waters Acquity UPLC System; MS, Waters Xevo G2 Q-Tof
AC$INSTRUMENT_TYPE: LC-ESI-QTOF
AC$MASS_SPECTROMETRY: MS_TYPE MS2
AC$MASS_SPECTROMETRY: ION_MODE NEGATIVE
AC$MASS_SPECTROMETRY: COLLISION_ENERGY 6V
AC$MASS_SPECTROMETRY: DESOLVATION_GAS_FLOW 800/h
AC$MASS_SPECTROMETRY: DESOLVATION_TEMPERATURE 450 C
AC$MASS_SPECTROMETRY: IONIZATION ESI
AC$CHROMATOGRAPHY: CAPILLARY_VOLTAGE -2.75 kV
AC$CHROMATOGRAPHY: COLUMN_NAME Acquity bridged ethyl hybrid C18 (1.7 um, 2.1 mm * 100 mm, Waters)
AC$CHROMATOGRAPHY: COLUMN_TEMPERATURE 40 C
AC$CHROMATOGRAPHY: FLOW_GRADIENT A/B = (99.5%/0.5% at 0 min, 99.5%/0.5% at 0.1 min, 20%/80% at 10 min, 0.5%/99.5% at 10.1 min, 0.5%/99.5% at 12.0 min, 99.5%/0.5% at 12.1 min, 99.5%/0.5% at 15.0 min)
AC$CHROMATOGRAPHY: FLOW_RATE 0.3 ml/min at 0 min, 0.3 ml/min at 10 min, 0.4 ml/min at 10.1 min, 0.4 ml/min at 14.4 min, 0.3 ml/min at 14.5 min
AC$CHROMATOGRAPHY: RETENTION_TIME 7.90965
AC$CHROMATOGRAPHY: SOLVENT A water including 0.1% formic acid
AC$CHROMATOGRAPHY: SOLVENT B acetonitrile including 0.1% formic acid
MS$FOCUSED_ION: PRECURSOR_TYPE [M-H]-
MS$FOCUSED_ION: PRECURSOR_M/Z 247.13396804783
PK$SPLASH: splash10-0f79-2930000000-c4c8e75850de47e1b80d
PK$NUM_PEAK: 20
PK$PEAK: m/z int. rel.int.
  83.04837 250.0 250
  84.0556 114.0 114
  95.04506 108.0 108
  95.05315 119.0 119
  131.08755 114.0 114
  132.05779 114.0 114
  147.07529 119.0 119
  156.05753 102.0 102
  159.07953 142.0 142
  163.1048 142.0 142
  167.32202 102.0 102
  169.10201 102.0 102
  185.09526 125.0 125
  187.11295 1000.0 999
  199.11089 114.0 114
  201.1268 193.0 193
  202.13435 108.0 108
  203.13835 239.0 239
  203.14943 233.0 233
  204.14032 125.0 125
//
