ACCESSION: MSBNK-RIKEN-PR301414
RECORD_TITLE: Petiline; LC-ESI-QTOF; MS2
DATE: 2019.03.28
AUTHORS: Tetsuya Mori, Center for Sustainable Resource Science, RIKEN
LICENSE: CC BY-NC-SA
PUBLICATION: Tsugawa H., Nakabayashi R., Mori T., Yamada Y., Takahashi M., Rai A., Sugiyama R., Yamamoto H., Nakaya T., Yamazaki M., Kooke R., Bac-Molenaar JA., Oztolan-Erol N., Keurentjes JJB., Arita M., Saito K. (2019) "A cheminformatics approach to characterize metabolomes in stable-isotope-labeled organisms" Nature Methods 16(4):295-298. [doi:10.1038/s41592-019-0358-2]
COMMENT: registered in RIKEN PlaSMA
CH$NAME: Petiline
CH$COMPOUND_CLASS: 22,26-epiminocholestanes
CH$FORMULA: C27H43NO2
CH$EXACT_MASS: 413.646
CH$SMILES: C[C@@H]([C@H]1CC[C@H]2[C@@H]3CC(=O)[C@H]4C[C@@H](O)CC[C@]4(C)[C@H]3CC[C@]12C)C1=NC[C@@H](C)CC1
CH$IUPAC: InChI=1S/C27H43NO2/c1-16-5-8-24(28-15-16)17(2)20-6-7-21-19-14-25(30)23-13-18(29)9-11-27(23,4)22(19)10-12-26(20,21)3/h16-23,29H,5-15H2,1-4H3/t16-,17-,18-,19-,20+,21-,22-,23+,26+,27+/m0/s1
CH$LINK: INCHIKEY QAGPPGDCPAPQLW-HAQROMNMSA-N
AC$INSTRUMENT: LC, Waters Acquity UPLC System; MS, Waters Xevo G2 Q-Tof
AC$INSTRUMENT_TYPE: LC-ESI-QTOF
AC$MASS_SPECTROMETRY: MS_TYPE MS2
AC$MASS_SPECTROMETRY: ION_MODE POSITIVE
AC$MASS_SPECTROMETRY: COLLISION_ENERGY 6V
AC$MASS_SPECTROMETRY: DESOLVATION_GAS_FLOW 800/h
AC$MASS_SPECTROMETRY: DESOLVATION_TEMPERATURE 450 C
AC$MASS_SPECTROMETRY: IONIZATION ESI
AC$CHROMATOGRAPHY: CAPILLARY_VOLTAGE +3.00 kV
AC$CHROMATOGRAPHY: COLUMN_NAME Acquity bridged ethyl hybrid C18 (1.7 um, 2.1 mm * 100 mm, Waters)
AC$CHROMATOGRAPHY: COLUMN_TEMPERATURE 40 C
AC$CHROMATOGRAPHY: FLOW_GRADIENT A/B = (99.5%/0.5% at 0 min, 99.5%/0.5% at 0.1 min, 20%/80% at 10 min, 0.5%/99.5% at 10.1 min, 0.5%/99.5% at 12.0 min, 99.5%/0.5% at 12.1 min, 99.5%/0.5% at 15.0 min)
AC$CHROMATOGRAPHY: FLOW_RATE 0.3 ml/min at 0 min, 0.3 ml/min at 10 min, 0.4 ml/min at 10.1 min, 0.4 ml/min at 14.4 min, 0.3 ml/min at 14.5 min
AC$CHROMATOGRAPHY: RETENTION_TIME 4.94645
AC$CHROMATOGRAPHY: SOLVENT A water including 0.1% formic acid
AC$CHROMATOGRAPHY: SOLVENT B acetonitrile including 0.1% formic acid
MS$FOCUSED_ION: PRECURSOR_TYPE [M+H]+
MS$FOCUSED_ION: PRECURSOR_M/Z 414.3366561
PK$SPLASH: splash10-054n-5900000000-a37d2950898d3e7e65a2
PK$NUM_PEAK: 204
PK$PEAK: m/z int. rel.int.
  55.05662 7.0 7
  56.04988 10.0 10
  67.05463 152.0 152
  69.06722 33.0 33
  69.07185 34.0 34
  69.07469 14.0 14
  70.06084 11.0 11
  70.06634 27.0 27
  70.07315 5.0 5
  71.08159 5.0 5
  76.94839 7.0 7
  77.0394 38.0 38
  78.04235 7.0 7
  79.05499 309.0 309
  80.04184 5.0 5
  80.05445 16.0 16
  80.06071 28.0 28
  81.05985 10.0 10
  81.07068 416.0 416
  82.06681 6.0 6
  82.07693 17.0 17
  83.08789 50.0 50
  84.08203 68.0 68
  85.07146 5.0 5
  91.05496 254.0 254
  92.05836 35.0 35
  93.07111 1000.0 999
  94.07279 57.0 57
  95.04857 27.0 27
  95.07124 6.0 6
  95.0863 393.0 393
  96.06702 5.0 5
  96.08081 52.0 52
  96.08702 28.0 28
  96.09187 32.0 32
  97.06448 80.0 80
  97.07413 13.0 13
  97.08683 20.0 20
  98.07131 8.0 8
  98.08006 8.0 8
  98.09686 470.0 470
  99.07838 7.0 7
  99.09486 6.0 6
  99.10215 30.0 30
  99.10829 7.0 7
  103.05428 12.0 12
  103.05865 5.0 5
  105.0339 5.0 5
  105.06945 294.0 294
  106.07339 25.0 25
  107.04994 82.0 82
  107.08649 784.0 783
  107.23363 5.0 5
  108.08914 80.0 80
  109.06307 10.0 10
  109.06966 8.0 8
  109.08501 5.0 5
  109.10236 170.0 170
  109.11042 19.0 19
  110.07031 5.0 5
  110.09797 112.0 112
  111.07493 5.0 5
  111.08045 23.0 23
  111.10513 17.0 17
  112.1131 103.0 103
  113.11562 23.0 23
  113.12071 6.0 6
  113.25237 5.0 5
  115.05855 7.0 7
  117.07001 80.0 80
  119.07019 7.0 7
  119.08416 135.0 135
  120.0879 10.0 10
  120.09365 5.0 5
  121.06535 79.0 79
  121.08743 10.0 10
  121.10145 391.0 391
  122.07112 15.0 15
  122.09975 23.0 23
  122.10591 23.0 23
  123.07023 9.0 9
  123.08129 55.0 55
  123.12078 16.0 16
  124.11228 80.0 80
  125.06341 10.0 10
  125.10279 18.0 18
  125.12046 94.0 94
  126.10699 12.0 12
  126.12814 623.0 622
  127.13107 105.0 105
  128.06213 7.0 7
  128.13869 6.0 6
  129.06905 26.0 26
  130.07176 15.0 15
  130.08539 8.0 8
  131.07309 7.0 7
  131.08557 101.0 101
  131.09178 30.0 30
  132.08049 10.0 10
  132.0872 18.0 18
  132.09483 10.0 10
  133.09904 96.0 96
  133.10483 55.0 55
  134.10696 21.0 21
  135.07864 42.0 42
  135.11725 209.0 209
  136.08365 10.0 10
  136.11276 15.0 15
  136.11943 20.0 20
  136.12714 21.0 21
  137.06055 5.0 5
  137.09352 9.0 9
  137.09987 6.0 6
  137.12767 8.0 8
  138.12813 30.0 30
  141.07797 7.0 7
  142.07764 50.0 50
  143.07913 20.0 20
  143.08868 69.0 69
  143.58351 7.0 7
  144.09358 24.0 24
  145.10152 130.0 130
  145.83255 5.0 5
  146.07083 9.0 9
  147.07152 8.0 8
  147.08142 12.0 12
  147.08975 10.0 10
  147.11818 136.0 136
  148.11942 19.0 19
  149.10083 19.0 19
  149.117 18.0 18
  149.13148 383.0 383
  150.11523 7.0 7
  150.13014 105.0 105
  150.14175 18.0 18
  151.13921 10.0 10
  152.12358 9.0 9
  152.14105 53.0 53
  153.12881 8.0 8
  153.14546 17.0 17
  153.30263 5.0 5
  153.88951 5.0 5
  155.08113 24.0 24
  155.09236 8.0 8
  156.09032 5.0 5
  157.09892 38.0 38
  157.10669 23.0 23
  157.11713 5.0 5
  158.11113 11.0 11
  159.0833 6.0 6
  159.12033 67.0 67
  160.12247 9.0 9
  161.09569 46.0 46
  161.13159 30.0 30
  162.10353 7.0 7
  162.13316 7.0 7
  163.15044 25.0 25
  166.08038 5.0 5
  166.16815 5.0 5
  167.08743 8.0 8
  167.16226 8.0 8
  169.10182 7.0 7
  171.11206 17.0 17
  171.11984 21.0 21
  172.07812 5.0 5
  172.12343 8.0 8
  173.12254 7.0 7
  173.13336 26.0 26
  173.14587 11.0 11
  175.10063 8.0 8
  175.11429 25.0 25
  177.12274 8.0 8
  177.132 5.0 5
  181.10281 13.0 13
  183.12323 15.0 15
  185.12845 8.0 8
  187.14174 9.0 9
  187.15422 13.0 13
  188.14685 6.0 6
  189.12761 6.0 6
  189.16248 10.0 10
  194.11821 7.0 7
  195.1098 6.0 6
  196.13213 10.0 10
  197.13174 16.0 16
  197.14449 10.0 10
  199.1088 6.0 6
  199.15674 10.0 10
  200.15482 12.0 12
  209.11852 8.0 8
  209.12675 7.0 7
  211.14165 13.0 13
  213.15776 6.0 6
  215.14149 17.0 17
  227.1524 5.0 5
  238.16875 9.0 9
  253.20807 13.0 13
  273.3508 7.0 7
  396.32376 5.0 5
  396.33609 5.0 5
  397.31998 6.0 6
  414.28912 17.0 17
  414.33322 224.0 224
  414.34821 98.0 98
//
