ACCESSION: MSBNK-RIKEN-PR306544
RECORD_TITLE: Apigenin-6-C-glucoside-7-O-glucoside; LC-ESI-QTOF; MS2
DATE: 2019.03.28
AUTHORS: Tetsuya Mori, Center for Sustainable Resource Science, RIKEN
LICENSE: CC BY-NC-SA
PUBLICATION: Tsugawa H., Nakabayashi R., Mori T., Yamada Y., Takahashi M., Rai A., Sugiyama R., Yamamoto H., Nakaya T., Yamazaki M., Kooke R., Bac-Molenaar JA., Oztolan-Erol N., Keurentjes JJB., Arita M., Saito K. (2019) "A cheminformatics approach to characterize metabolomes in stable-isotope-labeled organisms" Nature Methods 16(4):295-298. [doi:10.1038/s41592-019-0358-2]
COMMENT: registered in RIKEN PlaSMA
CH$NAME: Apigenin-6-C-glucoside-7-O-glucoside
CH$COMPOUND_CLASS: Flavonoid-7-O-glycosides
CH$FORMULA: C27H30O15
CH$EXACT_MASS: 594.522
CH$SMILES: OCC1OC(OC2=C(C3OC(CO)C(O)C(O)C3O)C(O)=C3C(=O)C=C(OC3=C2)C2=CC=C(O)C=C2)C(O)C(O)C1O
CH$IUPAC: InChI=1S/C27H30O15/c28-7-15-19(32)22(35)24(37)26(40-15)18-14(41-27-25(38)23(36)20(33)16(8-29)42-27)6-13-17(21(18)34)11(31)5-12(39-13)9-1-3-10(30)4-2-9/h1-6,15-16,19-20,22-30,32-38H,7-8H2
CH$LINK: INCHIKEY HGUVPEBGCAVWID-UHFFFAOYSA-N
AC$INSTRUMENT: LC, Waters Acquity UPLC System; MS, Waters Xevo G2 Q-Tof
AC$INSTRUMENT_TYPE: LC-ESI-QTOF
AC$MASS_SPECTROMETRY: MS_TYPE MS2
AC$MASS_SPECTROMETRY: ION_MODE NEGATIVE
AC$MASS_SPECTROMETRY: COLLISION_ENERGY 6V
AC$MASS_SPECTROMETRY: DESOLVATION_GAS_FLOW 800/h
AC$MASS_SPECTROMETRY: DESOLVATION_TEMPERATURE 450 C
AC$MASS_SPECTROMETRY: IONIZATION ESI
AC$CHROMATOGRAPHY: CAPILLARY_VOLTAGE -2.75 kV
AC$CHROMATOGRAPHY: COLUMN_NAME Acquity bridged ethyl hybrid C18 (1.7 um, 2.1 mm * 100 mm, Waters)
AC$CHROMATOGRAPHY: COLUMN_TEMPERATURE 40 C
AC$CHROMATOGRAPHY: FLOW_GRADIENT A/B = (99.5%/0.5% at 0 min, 99.5%/0.5% at 0.1 min, 20%/80% at 10 min, 0.5%/99.5% at 10.1 min, 0.5%/99.5% at 12.0 min, 99.5%/0.5% at 12.1 min, 99.5%/0.5% at 15.0 min)
AC$CHROMATOGRAPHY: FLOW_RATE 0.3 ml/min at 0 min, 0.3 ml/min at 10 min, 0.4 ml/min at 10.1 min, 0.4 ml/min at 14.4 min, 0.3 ml/min at 14.5 min
AC$CHROMATOGRAPHY: RETENTION_TIME 3.531483
AC$CHROMATOGRAPHY: SOLVENT A water including 0.1% formic acid
AC$CHROMATOGRAPHY: SOLVENT B acetonitrile including 0.1% formic acid
MS$FOCUSED_ION: PRECURSOR_TYPE [M-H]-
MS$FOCUSED_ION: PRECURSOR_M/Z 593.15119384783
PK$SPLASH: splash10-001j-0291000000-daf312b49d10ee797991
PK$NUM_PEAK: 170
PK$PEAK: m/z int. rel.int.
  63.47873 5.0 5
  77.04066 6.0 6
  77.92815 5.0 5
  93.03134 10.0 10
  97.02664 6.0 6
  97.50502 6.0 6
  105.0377 8.0 8
  107.01292 9.0 9
  107.04872 8.0 8
  117.02454 11.0 11
  117.033 55.0 55
  118.03571 14.0 14
  121.02529 26.0 26
  122.02885 16.0 16
  123.00691 6.0 6
  135.00847 8.0 8
  135.04466 29.0 29
  137.02576 31.0 31
  145.03157 6.0 6
  146.02998 6.0 6
  147.03868 6.0 6
  149.01939 12.0 12
  149.02658 23.0 23
  151.00229 6.0 6
  151.04352 12.0 12
  156.05949 8.0 8
  159.04076 25.0 25
  161.02426 50.0 50
  161.73796 6.0 6
  162.01935 6.0 6
  163.00131 30.0 30
  163.0388 48.0 48
  164.00188 8.0 8
  164.04132 5.0 5
  169.0612 6.0 6
  171.04169 6.0 6
  173.02438 21.0 21
  175.00026 20.0 20
  176.0042 11.0 11
  177.01656 66.0 66
  178.99277 74.0 74
  179.00275 12.0 12
  179.03665 24.0 24
  179.05066 11.0 11
  180.03745 10.0 10
  181.06047 10.0 10
  183.00037 6.0 6
  183.04083 6.0 6
  184.04309 7.0 7
  185.0155 9.0 9
  185.02986 13.0 13
  185.05444 6.0 6
  186.03316 7.0 7
  186.08296 9.0 9
  189.02229 6.0 6
  190.02109 6.0 6
  190.03249 9.0 9
  191.02556 12.0 12
  191.03709 17.0 17
  193.002 5.0 5
  193.01114 19.0 19
  193.01991 10.0 10
  193.34717 9.0 9
  197.05684 8.0 8
  197.06413 25.0 25
  203.04326 15.0 15
  205.01477 7.0 7
  208.04376 9.0 9
  210.062 6.0 6
  210.26085 8.0 8
  211.03926 6.0 6
  211.06075 6.0 6
  211.06802 7.0 7
  212.04012 6.0 6
  213.0531 18.0 18
  215.03725 6.0 6
  215.06389 7.0 7
  215.54283 5.0 5
  217.00909 18.0 18
  221.04672 7.0 7
  223.02153 6.0 6
  225.01404 6.0 6
  225.05005 42.0 42
  226.05237 6.0 6
  227.03175 14.0 14
  227.06848 5.0 5
  228.06721 5.0 5
  229.00768 7.0 7
  229.01547 7.0 7
  237.0556 6.0 6
  238.06725 20.0 20
  239.06812 36.0 36
  239.08447 7.0 7
  240.06448 5.0 5
  240.08977 10.0 10
  243.02423 8.0 8
  243.06114 5.0 5
  251.06944 5.0 5
  253.00821 5.0 5
  253.04852 26.0 26
  254.04733 12.0 12
  255.03447 10.0 10
  255.05196 6.0 6
  256.68466 5.0 5
  265.0593 5.0 5
  267.05984 16.0 16
  268.03256 43.0 43
  268.05133 7.0 7
  269.04416 201.0 201
  269.07037 5.0 5
  270.04507 55.0 55
  271.0528 14.0 14
  279.33649 7.0 7
  281.04349 200.0 200
  282.04987 406.0 406
  283.05875 1000.0 999
  284.05823 92.0 92
  284.07135 54.0 54
  284.12689 5.0 5
  285.06305 11.0 11
  293.04272 34.0 34
  293.40564 6.0 6
  294.05374 20.0 20
  295.02057 194.0 194
  295.04016 28.0 28
  295.06696 25.0 25
  296.02557 22.0 22
  296.07458 6.0 6
  297.03934 877.0 876
  298.03186 49.0 49
  298.04556 83.0 83
  299.03271 6.0 6
  299.04922 15.0 15
  300.04016 7.0 7
  308.09409 7.0 7
  309.02829 11.0 11
  309.04956 9.0 9
  309.0712 7.0 7
  310.03976 19.0 19
  310.05832 12.0 12
  311.05338 309.0 309
  311.08157 7.0 7
  312.05536 36.0 36
  312.06973 8.0 8
  313.04688 6.0 6
  313.06015 6.0 6
  319.07043 5.0 5
  323.05115 13.0 13
  323.06345 50.0 50
  324.04977 6.0 6
  324.07059 8.0 8
  325.30707 5.0 5
  333.0546 8.0 8
  334.03925 6.0 6
  335.05847 7.0 7
  337.05368 7.0 7
  338.07953 6.0 6
  339.04034 7.0 7
  340.06534 15.0 15
  341.03009 5.0 5
  341.0546 6.0 6
  341.07065 15.0 15
  342.06033 7.0 7
  347.0336 5.0 5
  347.04904 6.0 6
  354.06219 6.0 6
  354.07455 9.0 9
  363.33496 8.0 8
  373.25876 6.0 6
  474.72751 6.0 6
//
