ACCESSION: MSBNK-RIKEN-PR308599
RECORD_TITLE: Digitonin; LC-ESI-QTOF; MS2
DATE: 2019.03.28
AUTHORS: Tetsuya Mori, Center for Sustainable Resource Science, RIKEN
LICENSE: CC BY-NC-SA
PUBLICATION: Tsugawa H., Nakabayashi R., Mori T., Yamada Y., Takahashi M., Rai A., Sugiyama R., Yamamoto H., Nakaya T., Yamazaki M., Kooke R., Bac-Molenaar JA., Oztolan-Erol N., Keurentjes JJB., Arita M., Saito K. (2019) "A cheminformatics approach to characterize metabolomes in stable-isotope-labeled organisms" Nature Methods 16(4):295-298. [doi:10.1038/s41592-019-0358-2]
COMMENT: registered in RIKEN PlaSMA
CH$NAME: Digitonin
CH$COMPOUND_CLASS: Steroidal saponins
CH$FORMULA: C56H92O29
CH$EXACT_MASS: 1229.323
CH$SMILES: CC1C2C(OC11CCC(C)CO1)C(O)C1C3CCC4CC(OC5OC(CO)C(OC6OC(CO)C(O)C(OC7OCC(O)C(O)C7O)C6OC6OC(CO)C(O)C(OC7OC(CO)C(O)C(O)C7O)C6O)C(O)C5O)C(O)CC4(C)C3CCC21C
CH$IUPAC: InChI=1S/C56H92O29/c1-19-7-10-56(75-17-19)20(2)31-45(85-56)37(67)32-22-6-5-21-11-26(24(61)12-55(21,4)23(22)8-9-54(31,32)3)76-50-42(72)39(69)44(30(16-60)80-50)81-53-48(47(36(66)29(15-59)79-53)83-49-40(70)33(63)25(62)18-74-49)84-52-43(73)46(35(65)28(14-58)78-52)82-51-41(71)38(68)34(64)27(13-57)77-51/h19-53,57-73H,5-18H2,1-4H3
CH$LINK: INCHIKEY UVYVLBIGDKGWPX-UHFFFAOYSA-N
AC$INSTRUMENT: LC, Waters Acquity UPLC System; MS, Waters Xevo G2 Q-Tof
AC$INSTRUMENT_TYPE: LC-ESI-QTOF
AC$MASS_SPECTROMETRY: MS_TYPE MS2
AC$MASS_SPECTROMETRY: ION_MODE NEGATIVE
AC$MASS_SPECTROMETRY: COLLISION_ENERGY 6V
AC$MASS_SPECTROMETRY: DESOLVATION_GAS_FLOW 800/h
AC$MASS_SPECTROMETRY: DESOLVATION_TEMPERATURE 450 C
AC$MASS_SPECTROMETRY: IONIZATION ESI
AC$CHROMATOGRAPHY: CAPILLARY_VOLTAGE -2.75 kV
AC$CHROMATOGRAPHY: COLUMN_NAME Acquity bridged ethyl hybrid C18 (1.7 um, 2.1 mm * 100 mm, Waters)
AC$CHROMATOGRAPHY: COLUMN_TEMPERATURE 40 C
AC$CHROMATOGRAPHY: FLOW_GRADIENT A/B = (99.5%/0.5% at 0 min, 99.5%/0.5% at 0.1 min, 20%/80% at 10 min, 0.5%/99.5% at 10.1 min, 0.5%/99.5% at 12.0 min, 99.5%/0.5% at 12.1 min, 99.5%/0.5% at 15.0 min)
AC$CHROMATOGRAPHY: FLOW_RATE 0.3 ml/min at 0 min, 0.3 ml/min at 10 min, 0.4 ml/min at 10.1 min, 0.4 ml/min at 14.4 min, 0.3 ml/min at 14.5 min
AC$CHROMATOGRAPHY: RETENTION_TIME 6.9815
AC$CHROMATOGRAPHY: SOLVENT A water including 0.1% formic acid
AC$CHROMATOGRAPHY: SOLVENT B acetonitrile including 0.1% formic acid
MS$FOCUSED_ION: PRECURSOR_TYPE [M-H]-
MS$FOCUSED_ION: PRECURSOR_M/Z 1227.56515054783
PK$SPLASH: splash10-0zfs-7730007309-d0abcdea3823c7f56bc3
PK$NUM_PEAK: 169
PK$PEAK: m/z int. rel.int.
  57.2949 11.0 11
  71.01257 21.0 21
  72.96072 11.0 11
  81.03038 13.0 13
  81.76733 11.0 11
  87.0072 23.0 23
  87.01671 12.0 12
  89.02394 14.0 14
  91.66499 12.0 12
  97.02845 15.0 15
  101.02151 12.0 12
  101.02685 27.0 27
  109.1655 17.0 17
  112.00828 13.0 13
  113.02226 209.0 209
  121.02263 14.0 14
  125.02431 102.0 102
  129.98016 20.0 20
  131.03503 49.0 49
  139.03563 32.0 32
  143.02971 82.0 82
  143.03549 164.0 164
  149.04356 54.0 54
  151.07375 17.0 17
  153.05254 17.0 17
  155.02988 13.0 13
  157.28989 15.0 15
  159.03223 11.0 11
  161.04306 341.0 341
  161.05597 35.0 35
  162.04868 47.0 47
  177.04977 11.0 11
  179.05383 157.0 157
  179.07266 11.0 11
  180.07143 18.0 18
  209.04291 12.0 12
  220.52721 15.0 15
  222.06837 15.0 15
  229.63499 16.0 16
  235.07999 13.0 13
  245.07474 12.0 12
  247.07643 23.0 23
  251.05469 14.0 14
  251.07205 13.0 13
  251.27341 12.0 12
  263.06848 12.0 12
  263.08197 12.0 12
  265.08911 12.0 12
  275.07581 25.0 25
  293.08191 39.0 39
  293.09875 16.0 16
  295.08533 14.0 14
  305.08865 38.0 38
  323.03891 13.0 13
  323.09052 13.0 13
  325.11514 23.0 23
  335.62106 18.0 18
  355.12854 24.0 24
  380.7919 14.0 14
  386.89093 13.0 13
  395.07547 11.0 11
  404.68872 12.0 12
  405.07205 11.0 11
  447.31598 12.0 12
  471.28265 13.0 13
  479.20889 11.0 11
  499.07596 23.0 23
  517.31635 11.0 11
  520.62457 17.0 17
  543.33368 23.0 23
  591.39081 11.0 11
  592.37769 11.0 11
  599.99969 11.0 11
  609.26184 14.0 14
  609.36346 885.0 884
  609.38916 147.0 147
  610.33325 31.0 31
  610.36108 211.0 211
  610.38641 78.0 78
  610.4104 11.0 11
  610.56622 13.0 13
  611.36298 51.0 51
  611.39075 43.0 43
  615.55762 16.0 16
  617.17548 31.0 31
  617.21826 17.0 17
  623.90387 16.0 16
  655.84119 11.0 11
  701.99902 17.0 17
  705.35919 11.0 11
  705.40192 39.0 39
  706.4422 13.0 13
  707.39526 11.0 11
  717.36292 43.0 43
  725.62579 16.0 16
  730.09247 13.0 13
  730.35663 18.0 18
  738.0047 16.0 16
  753.3924 11.0 11
  762.25085 12.0 12
  771.41089 322.0 322
  771.44916 45.0 45
  772.42529 160.0 160
  772.48145 11.0 11
  773.43182 55.0 55
  774.51514 16.0 16
  786.3891 11.0 11
  821.91998 13.0 13
  824.95721 11.0 11
  825.92242 12.0 12
  841.198 12.0 12
  891.6532 28.0 28
  903.35455 12.0 12
  903.45673 1000.0 999
  903.60693 12.0 12
  904.05817 13.0 13
  904.43433 118.0 118
  904.47656 243.0 243
  904.54315 11.0 11
  905.44025 20.0 20
  905.48944 88.0 88
  905.52295 15.0 15
  906.30566 11.0 11
  906.47638 44.0 44
  907.47766 11.0 11
  907.67542 11.0 11
  908.54565 24.0 24
  910.0896 12.0 12
  915.47742 17.0 17
  933.3349 24.0 24
  933.39301 20.0 20
  933.4809 108.0 108
  934.20526 12.0 12
  934.47034 25.0 25
  934.53082 11.0 11
  934.64813 13.0 13
  935.46411 12.0 12
  936.45746 14.0 14
  936.48529 11.0 11
  947.44293 16.0 16
  1033.98999 23.0 23
  1041.18298 25.0 25
  1047.53088 17.0 17
  1049.53003 18.0 18
  1065.45422 16.0 16
  1065.51501 26.0 26
  1066.52478 53.0 53
  1067.55688 13.0 13
  1077.58545 16.0 16
  1078.52576 11.0 11
  1095.43433 16.0 16
  1095.50842 358.0 358
  1095.54675 278.0 278
  1096.50391 228.0 228
  1096.552 150.0 150
  1096.64233 37.0 37
  1097.51587 123.0 123
  1097.5564 59.0 59
  1097.77881 23.0 23
  1098.7196 11.0 11
  1103.8866 25.0 25
  1131.04663 15.0 15
  1141.6095 14.0 14
  1165.76868 14.0 14
  1215.12549 17.0 17
  1226.7854 11.0 11
  1227.52124 89.0 89
  1227.56091 367.0 367
  1227.62183 68.0 68
//
