ACCESSION: MSBNK-RIKEN-PR020096
RECORD_TITLE: cis-Zeatin riboside; LC-ESI-QQ; MS2; CE:10.0 eV; [M+H]+
DATE: 2016.01.19 (Created 2007.08.31, modified 2011.05.06)
AUTHORS: Kojima M, Sakakibara H, Plant Science Center, RIKEN.
LICENSE: CC BY-SA
CH$NAME: cis-Zeatin riboside
CH$COMPOUND_CLASS: N/A
CH$FORMULA: C15H21N5O5
CH$EXACT_MASS: 351.15427
CH$SMILES: OCC(C)=CCNc(n3)c(n2)c(nc3)n(c2)C(O1)C(O)C(O)C(CO)1
CH$IUPAC: InChI=1S/C15H21N5O5/c1-8(4-21)2-3-16-13-10-14(18-6-17-13)20(7-19-10)15-12(24)11(23)9(5-22)25-15/h2,6-7,9,11-12,15,21-24H,3-5H2,1H3,(H,16,17,18)/b8-2-/t9-,11-,12-,15-/m1/s1
CH$LINK: CAS 15896-46-5
CH$LINK: NIKKAJI J486.816A
CH$LINK: INCHIKEY GOSWTRUMMSCNCW-BAJUWZQUSA-N
AC$INSTRUMENT: UPLC Waters, Quattro Ultima Pt Micromass
AC$INSTRUMENT_TYPE: LC-ESI-QQ
AC$MASS_SPECTROMETRY: MS_TYPE MS2
AC$MASS_SPECTROMETRY: ION_MODE POSITIVE
AC$MASS_SPECTROMETRY: COLLISION_ENERGY 10.0 eV
AC$MASS_SPECTROMETRY: DATAFORMAT Centroid
AC$MASS_SPECTROMETRY: DESOLVATION_GAS_FLOW 565 L/Hr
AC$MASS_SPECTROMETRY: DESOLVATION_TEMPERATURE 400 C
AC$MASS_SPECTROMETRY: FRAGMENTATION_METHOD LOW-ENERGY CID
AC$MASS_SPECTROMETRY: IONIZATION ESI
AC$MASS_SPECTROMETRY: SCANNING 0.2 sec/scan (m/z=50-500)
AC$MASS_SPECTROMETRY: SOURCE_TEMPERATURE 140 C
AC$CHROMATOGRAPHY: CAPILLARY_VOLTAGE 3.1 kV
AC$CHROMATOGRAPHY: COLUMN_NAME ACQUITY UPLC BEH C18 2.1 by 50 mm (Waters, Milford, MA, USA)
AC$CHROMATOGRAPHY: COLUMN_TEMPERATURE 40 C
AC$CHROMATOGRAPHY: FLOW_GRADIENT 0.1/99.9 at 0 min, 9.0/91.0 at 2 min, 12.5/87.5 at 7 min, 30/70 at 10 min, 50/50 at 12 min, 50/50 at 13 min, 99.9/0.1 at 15 min
AC$CHROMATOGRAPHY: FLOW_RATE 0.25 ml/min
AC$CHROMATOGRAPHY: RETENTION_TIME 10.29 min
AC$CHROMATOGRAPHY: SAMPLING_CONE 53 V
AC$CHROMATOGRAPHY: SOLVENT A CH3CN(0.05% HCOOH)
AC$CHROMATOGRAPHY: SOLVENT B HCOOH(0.05% CH3CN)
MS$FOCUSED_ION: FULL_SCAN_FRAGMENT_ION_PEAK 351
MS$FOCUSED_ION: PRECURSOR_M/Z 352
MS$FOCUSED_ION: PRECURSOR_TYPE [M+H]+
MS$DATA_PROCESSING: WHOLE MassLynx 4.0
PK$SPLASH: splash10-0gb9-0096000000-f6cc6b22ed0db0287eb0
PK$NUM_PEAK: 3
PK$PEAK: m/z int. rel.int.
  135.742 1851000 14
  219.986 1.288E+8 999
  351.978 8.974E+7 696
//
