ACCESSION: MSBNK-RIKEN-PR101008
RECORD_TITLE: Kaempferol-7-O-alpha-L-rhamnoside; LC-ESI-QTOF; MS2; CE:Ramp 5-60 V; [M+H]+
DATE: 2016.01.19 (Created 2009.09.10, modified 2011.05.06)
AUTHORS: Matsuda F, Suzuki M, Sawada Y, Plant Science Center, RIKEN.
LICENSE: CC BY-SA
COMMENT: Acquisition and generation of the data is financially supported in part by CREST/JST.
CH$NAME: Kaempferol-7-O-alpha-L-rhamnoside
CH$NAME: Kaem-7-Rha
CH$COMPOUND_CLASS: Flavonoid
CH$FORMULA: C21H20O10
CH$EXACT_MASS: 432.10565
CH$SMILES: Oc(c4)ccc(c4)C(O1)=C(O)C(=O)c(c(O)2)c(cc(OC(O3)C(O)C(O)C(O)C(C)3)c2)1
CH$IUPAC: InChI=1S/C21H20O10/c1-8-15(24)17(26)19(28)21(29-8)30-11-6-12(23)14-13(7-11)31-20(18(27)16(14)25)9-2-4-10(22)5-3-9/h2-8,15,17,19,21-24,26-28H,1H3/t8-,15-,17+,19+,21-/m0/s1
CH$LINK: CAS 20196-89-8
CH$LINK: KNAPSACK C00005150
CH$LINK: INCHIKEY HQNOUCSPWAGQND-GKLNBGJFSA-N
CH$LINK: COMPTOX DTXSID60174034
AC$INSTRUMENT: UPLC Q-Tof Premier, Waters
AC$INSTRUMENT_TYPE: LC-ESI-QTOF
AC$MASS_SPECTROMETRY: MS_TYPE MS2
AC$MASS_SPECTROMETRY: ION_MODE POSITIVE
AC$MASS_SPECTROMETRY: COLLISION_ENERGY Ramp 5-60 V
AC$MASS_SPECTROMETRY: DATAFORMAT Continuum
AC$MASS_SPECTROMETRY: DESOLVATION_GAS_FLOW 600.0 L/Hr
AC$MASS_SPECTROMETRY: DESOLVATION_TEMPERATURE 400 C
AC$MASS_SPECTROMETRY: FRAGMENTATION_METHOD LOW-ENERGY CID
AC$MASS_SPECTROMETRY: IONIZATION ESI
AC$MASS_SPECTROMETRY: SOURCE_TEMPERATURE 120 C
AC$CHROMATOGRAPHY: CAPILLARY_VOLTAGE 3.0 kV
AC$CHROMATOGRAPHY: SAMPLING_CONE 23.0 V
AC$CHROMATOGRAPHY: SOLVENT A CH3CN(0.1%HCOOH)
AC$CHROMATOGRAPHY: SOLVENT B H2O(0.1%HCOOH)
MS$FOCUSED_ION: PRECURSOR_M/Z 433.11346
MS$FOCUSED_ION: PRECURSOR_TYPE [M+H]+
PK$SPLASH: splash10-000i-0090000000-bf3229a51b726d4cb146
PK$NUM_PEAK: 3
PK$PEAK: m/z int. rel.int.
  153.0190 858.8 81
  287.0543 10560 999
  433.1135 1015 96
//
