ACCESSION: MSBNK-RIKEN-PR310583
RECORD_TITLE: Hetisine; LC-ESI-QTOF; MS2
DATE: 2019.03.28
AUTHORS: Tetsuya Mori, Center for Sustainable Resource Science, RIKEN
LICENSE: CC BY-NC-SA
PUBLICATION: Tsugawa H., Nakabayashi R., Mori T., Yamada Y., Takahashi M., Rai A., Sugiyama R., Yamamoto H., Nakaya T., Yamazaki M., Kooke R., Bac-Molenaar JA., Oztolan-Erol N., Keurentjes JJB., Arita M., Saito K. (2019) "A cheminformatics approach to characterize metabolomes in stable-isotope-labeled organisms" Nature Methods 16(4):295-298. [doi:10.1038/s41592-019-0358-2]
COMMENT: Annotation level-1
CH$NAME: Hetisine
CH$COMPOUND_CLASS: Alkaloids
CH$FORMULA: C20H27NO3
CH$EXACT_MASS: 329.44
CH$SMILES: CC12CN3C4CC56CC(=C)C7C(O)C5C3C(CC(O)C1)(C24)C6C7O
CH$IUPAC: InChI=1S/C20H27NO3/c1-8-3-19-6-10-15-18(2)4-9(22)5-20(15)16(19)14(24)11(8)13(23)12(19)17(20)21(10)7-18/h9-17,22-24H,1,3-7H2,2H3
CH$LINK: INCHIKEY PIWJSAMCEMZIDO-UHFFFAOYSA-N
AC$INSTRUMENT: LC, Waters Acquity UPLC System; MS, Waters Xevo G2 Q-Tof
AC$INSTRUMENT_TYPE: LC-ESI-QTOF
AC$MASS_SPECTROMETRY: MS_TYPE MS2
AC$MASS_SPECTROMETRY: ION_MODE POSITIVE
AC$MASS_SPECTROMETRY: COLLISION_ENERGY 6V
AC$MASS_SPECTROMETRY: DESOLVATION_GAS_FLOW 800/h
AC$MASS_SPECTROMETRY: DESOLVATION_TEMPERATURE 450 C
AC$MASS_SPECTROMETRY: IONIZATION ESI
AC$CHROMATOGRAPHY: CAPILLARY_VOLTAGE +3.00 kV
AC$CHROMATOGRAPHY: COLUMN_NAME Acquity bridged ethyl hybrid C18 (1.7 um, 2.1 mm * 100 mm, Waters)
AC$CHROMATOGRAPHY: COLUMN_TEMPERATURE 40 C
AC$CHROMATOGRAPHY: FLOW_GRADIENT A/B = (99.5%/0.5% at 0 min, 99.5%/0.5% at 0.1 min, 20%/80% at 10 min, 0.5%/99.5% at 10.1 min, 0.5%/99.5% at 12.0 min, 99.5%/0.5% at 12.1 min, 99.5%/0.5% at 15.0 min)
AC$CHROMATOGRAPHY: FLOW_RATE 0.3 ml/min at 0 min, 0.3 ml/min at 10 min, 0.4 ml/min at 10.1 min, 0.4 ml/min at 14.4 min, 0.3 ml/min at 14.5 min
AC$CHROMATOGRAPHY: RETENTION_TIME 3.07
AC$CHROMATOGRAPHY: SOLVENT A water including 0.1% formic acid
AC$CHROMATOGRAPHY: SOLVENT B acetonitrile including 0.1% formic acid
MS$FOCUSED_ION: PRECURSOR_TYPE [M+H]+
MS$FOCUSED_ION: PRECURSOR_M/Z 330.20637
PK$SPLASH: splash10-001i-0009000000-89e1e59edfb59c3a16bd
PK$NUM_PEAK: 304
PK$PEAK: m/z int. rel.int.
  67.05592 22.0 0
  70.57107 24.0 0
  79.05325 21.0 0
  84.04025 22.0 0
  91.05336 45.0 1
  93.06477 20.0 0
  93.06975 17.0 0
  94.06082 43.0 1
  94.0647 72.0 1
  95.04789 49.0 1
  95.08926 25.0 0
  95.53297 18.0 0
  97.03157 20.0 0
  105.06839 19.0 0
  106.07107 17.0 0
  107.09111 60.0 1
  114.52611 21.0 0
  115.05431 20.0 0
  116.05733 24.0 0
  117.0715 35.0 0
  118.06164 44.0 1
  119.09051 20.0 0
  120.07256 26.0 0
  120.0826 104.0 1
  121.07699 31.0 0
  121.08665 24.0 0
  122.05183 20.0 0
  127.58845 19.0 0
  128.06151 20.0 0
  129.07036 54.0 1
  129.07428 20.0 0
  130.06 18.0 0
  130.07524 21.0 0
  131.08324 41.0 1
  132.07454 16.0 0
  132.0825 99.0 1
  133.08267 20.0 0
  133.09413 43.0 1
  134.05679 21.0 0
  134.09547 51.0 1
  135.0799 17.0 0
  135.08943 24.0 0
  135.11684 24.0 0
  141.0551 18.0 0
  141.0713 40.0 1
  143.07178 22.0 0
  143.08545 162.0 2
  144.08244 58.0 1
  145.07056 19.0 0
  145.09467 50.0 1
  145.10403 46.0 1
  146.10161 77.0 1
  147.06998 25.0 0
  148.10526 20.0 0
  150.10455 20.0 0
  153.06337 24.0 0
  155.08296 80.0 1
  156.08217 28.0 0
  157.062 32.0 0
  157.06981 47.0 1
  157.09956 71.0 1
  157.10941 33.0 0
  158.08987 23.0 0
  158.10335 94.0 1
  159.0769 18.0 0
  160.11116 104.0 1
  161.07866 21.0 0
  161.09361 23.0 0
  161.11122 23.0 0
  161.11961 17.0 0
  163.88435 17.0 0
  164.32903 33.0 0
  165.06805 35.0 0
  165.84764 31.0 0
  166.07605 60.0 1
  166.08884 20.0 0
  166.12125 17.0 0
  167.0739 16.0 0
  167.08148 74.0 1
  168.08414 17.0 0
  168.10255 26.0 0
  169.09923 70.0 1
  170.09338 73.0 1
  171.07661 20.0 0
  171.10129 21.0 0
  171.11934 36.0 0
  172.09026 21.0 0
  172.75572 43.0 1
  173.10039 22.0 0
  174.09265 23.0 0
  174.10883 24.0 0
  174.13232 21.0 0
  175.06606 20.0 0
  175.0901 17.0 0
  175.85202 17.0 0
  178.078 26.0 0
  179.08345 38.0 1
  179.08987 23.0 0
  180.09019 59.0 1
  180.0999 23.0 0
  181.07573 21.0 0
  181.09821 151.0 2
  181.10971 41.0 1
  182.01991 24.0 0
  182.10683 94.0 1
  182.30594 36.0 0
  183.09393 21.0 0
  183.11859 32.0 0
  184.10899 20.0 0
  185.09305 21.0 0
  186.09023 18.0 0
  186.11964 18.0 0
  188.10899 21.0 0
  189.07735 36.0 0
  191.73566 17.0 0
  192.08827 26.0 0
  192.10233 29.0 0
  192.1288 18.0 0
  193.09169 69.0 1
  193.10362 78.0 1
  193.11713 18.0 0
  193.34392 20.0 0
  194.09148 19.0 0
  194.10893 58.0 1
  194.91081 29.0 0
  195.11336 147.0 2
  196.10295 18.0 0
  196.11028 18.0 0
  196.12631 20.0 0
  197.12506 35.0 0
  197.13652 19.0 0
  198.13191 22.0 0
  198.19733 38.0 1
  198.50214 30.0 0
  199.09601 18.0 0
  199.11659 25.0 0
  199.14737 20.0 0
  203.45035 18.0 0
  204.08772 45.0 1
  204.09836 35.0 0
  205.08736 49.0 1
  205.09921 20.0 0
  206.10652 68.0 1
  206.18748 34.0 0
  207.11388 82.0 1
  207.12172 65.0 1
  208.12267 45.0 1
  209.09492 17.0 0
  209.10886 78.0 1
  209.13235 156.0 2
  209.24292 27.0 0
  209.5956 17.0 0
  210.13498 21.0 0
  210.44055 20.0 0
  210.7597 30.0 0
  211.13867 19.0 0
  212.15668 32.0 0
  212.46742 29.0 0
  216.18732 21.0 0
  217.10068 61.0 1
  217.22372 21.0 0
  218.09161 20.0 0
  218.10907 33.0 0
  218.39021 46.0 1
  218.55984 35.0 0
  219.01579 39.0 1
  219.04286 23.0 0
  219.09775 19.0 0
  219.11575 83.0 1
  219.99147 24.0 0
  220.08528 18.0 0
  220.12213 20.0 0
  220.1317 29.0 0
  221.10118 21.0 0
  221.13937 51.0 1
  222.01038 20.0 0
  222.09996 20.0 0
  222.12155 17.0 0
  222.13089 20.0 0
  223.36377 27.0 0
  223.46162 21.0 0
  224.14316 25.0 0
  225.12631 19.0 0
  225.15154 22.0 0
  227.12883 18.0 0
  227.19447 24.0 0
  231.11816 24.0 0
  231.61722 19.0 0
  232.12331 39.0 1
  232.231 20.0 0
  232.24619 33.0 0
  233.11539 25.0 0
  233.12886 92.0 1
  234.1322 20.0 0
  234.72931 17.0 0
  235.10529 21.0 0
  236.15225 60.0 1
  237.13351 18.0 0
  237.16803 17.0 0
  237.66298 20.0 0
  238.10811 20.0 0
  238.14618 19.0 0
  238.15814 70.0 1
  240.6655 18.0 0
  243.12134 25.0 0
  244.12291 37.0 1
  246.1252 17.0 0
  246.38832 19.0 0
  247.14912 52.0 1
  248.07004 43.0 1
  248.13602 25.0 0
  248.15218 20.0 0
  248.75983 28.0 0
  249.13225 20.0 0
  249.16235 23.0 0
  250.15399 72.0 1
  250.17108 78.0 1
  250.6692 20.0 0
  251.07109 20.0 0
  251.13831 18.0 0
  251.16206 20.0 0
  251.17822 19.0 0
  252.15277 18.0 0
  253.17714 22.0 0
  255.1752 45.0 1
  256.13184 22.0 0
  259.15067 22.0 0
  262.15335 28.0 0
  262.73553 18.0 0
  263.27203 25.0 0
  266.16956 18.0 0
  266.18414 37.0 1
  266.19745 95.0 1
  267.15158 25.0 0
  268.1434 20.0 0
  268.16748 41.0 1
  268.17719 34.0 0
  270.13617 20.0 0
  270.15137 19.0 0
  270.18405 29.0 0
  276.15729 39.0 1
  276.16949 57.0 1
  277.17148 32.0 0
  278.16528 42.0 1
  279.17374 47.0 1
  281.2645 30.0 0
  284.32996 20.0 0
  285.38736 17.0 0
  285.52551 19.0 0
  286.32913 21.0 0
  286.58179 22.0 0
  293.30811 18.0 0
  294.12543 23.0 0
  294.16043 27.0 0
  294.17914 56.0 1
  294.19229 47.0 1
  294.20438 26.0 0
  294.21393 17.0 0
  294.23163 33.0 0
  295.17215 23.0 0
  295.18723 17.0 0
  296.03439 26.0 0
  302.00037 19.0 0
  302.03857 21.0 0
  302.08957 17.0 0
  302.21661 179.0 2
  303.04684 22.0 0
  303.20013 19.0 0
  307.38876 24.0 0
  308.93448 52.0 1
  312.17197 45.0 1
  312.1969 983.0 14
  313.17529 21.0 0
  313.19485 229.0 3
  313.21027 114.0 2
  314.19385 23.0 0
  315.35223 20.0 0
  320.07364 45.0 1
  321.02734 25.0 0
  323.67023 18.0 0
  323.81622 17.0 0
  323.85291 17.0 0
  323.88351 18.0 0
  323.93027 17.0 0
  324.50143 21.0 0
  324.57385 25.0 0
  324.92307 24.0 0
  325.75998 17.0 0
  328.25833 18.0 0
  329.06625 17.0 0
  329.35187 20.0 0
  329.56277 18.0 0
  329.80777 18.0 0
  329.89062 19.0 0
  329.93567 22.0 0
  330.06918 20.0 0
  330.12762 60.0 1
  330.14722 238.0 3
  330.16681 123.0 2
  330.20578 72250.0 999
  330.2572 1938.0 27
  330.29456 37.0 1
  330.30533 62.0 1
  330.36023 18.0 0
//
