ACCESSION: MSBNK-RIKEN-PR304302
RECORD_TITLE: Licoricesaponin H2; LC-ESI-QTOF; MS2
DATE: 2019.03.28
AUTHORS: Tetsuya Mori, Center for Sustainable Resource Science, RIKEN
LICENSE: CC BY-NC-SA
PUBLICATION: Tsugawa H., Nakabayashi R., Mori T., Yamada Y., Takahashi M., Rai A., Sugiyama R., Yamamoto H., Nakaya T., Yamazaki M., Kooke R., Bac-Molenaar JA., Oztolan-Erol N., Keurentjes JJB., Arita M., Saito K. (2019) "A cheminformatics approach to characterize metabolomes in stable-isotope-labeled organisms" Nature Methods 16(4):295-298. [doi:10.1038/s41592-019-0358-2]
COMMENT: registered in RIKEN PlaSMA
CH$NAME: Licoricesaponin H2
CH$COMPOUND_CLASS: Triterpene saponins
CH$FORMULA: C42H62O16
CH$EXACT_MASS: 822.942
CH$SMILES: CC1(C)C(CCC2(C)C1CCC1(C)C2C(=O)C=C2C3CC(C)(CCC3(C)CCC12C)C(O)=O)OC1OC(C(O)C(O)C1OC1OC(C(O)C(O)C1O)C(O)=O)C(O)=O
CH$IUPAC: InChI=1S/C42H62O16/c1-37(2)21-8-11-42(7)31(20(43)16-18-19-17-39(4,36(53)54)13-12-38(19,3)14-15-41(18,42)6)40(21,5)10-9-22(37)55-35-30(26(47)25(46)29(57-35)33(51)52)58-34-27(48)23(44)24(45)28(56-34)32(49)50/h16,19,21-31,34-35,44-48H,8-15,17H2,1-7H3,(H,49,50)(H,51,52)(H,53,54)
CH$LINK: INCHIKEY LPLVUJXQOOQHMX-UHFFFAOYSA-N
AC$INSTRUMENT: LC, Waters Acquity UPLC System; MS, Waters Xevo G2 Q-Tof
AC$INSTRUMENT_TYPE: LC-ESI-QTOF
AC$MASS_SPECTROMETRY: MS_TYPE MS2
AC$MASS_SPECTROMETRY: ION_MODE POSITIVE
AC$MASS_SPECTROMETRY: COLLISION_ENERGY 6V
AC$MASS_SPECTROMETRY: DESOLVATION_GAS_FLOW 800/h
AC$MASS_SPECTROMETRY: DESOLVATION_TEMPERATURE 450 C
AC$MASS_SPECTROMETRY: IONIZATION ESI
AC$CHROMATOGRAPHY: CAPILLARY_VOLTAGE +3.00 kV
AC$CHROMATOGRAPHY: COLUMN_NAME Acquity bridged ethyl hybrid C18 (1.7 um, 2.1 mm * 100 mm, Waters)
AC$CHROMATOGRAPHY: COLUMN_TEMPERATURE 40 C
AC$CHROMATOGRAPHY: FLOW_GRADIENT A/B = (99.5%/0.5% at 0 min, 99.5%/0.5% at 0.1 min, 20%/80% at 10 min, 0.5%/99.5% at 10.1 min, 0.5%/99.5% at 12.0 min, 99.5%/0.5% at 12.1 min, 99.5%/0.5% at 15.0 min)
AC$CHROMATOGRAPHY: FLOW_RATE 0.3 ml/min at 0 min, 0.3 ml/min at 10 min, 0.4 ml/min at 10.1 min, 0.4 ml/min at 14.4 min, 0.3 ml/min at 14.5 min
AC$CHROMATOGRAPHY: RETENTION_TIME 7.03275
AC$CHROMATOGRAPHY: SOLVENT A water including 0.1% formic acid
AC$CHROMATOGRAPHY: SOLVENT B acetonitrile including 0.1% formic acid
MS$FOCUSED_ION: PRECURSOR_TYPE [M+H]+
MS$FOCUSED_ION: PRECURSOR_M/Z 823.4110624
PK$SPLASH: splash10-0udi-0893600000-1c2b3dcb8d518c92ac0e
PK$NUM_PEAK: 264
PK$PEAK: m/z int. rel.int.
  55.0556 12.0 12
  69.03683 18.0 18
  69.36726 12.0 12
  81.06617 15.0 15
  81.07303 13.0 13
  86.87864 13.0 13
  95.07488 30.0 30
  95.08516 81.0 81
  96.09016 42.0 42
  99.10609 12.0 12
  105.05589 15.0 15
  105.06628 45.0 45
  107.08626 43.0 43
  107.09339 19.0 19
  109.10129 123.0 123
  111.11856 12.0 12
  114.02779 12.0 12
  119.07094 14.0 14
  119.0777 14.0 14
  119.08637 89.0 89
  121.06416 29.0 29
  121.10256 15.0 15
  123.0765 14.0 14
  123.0851 32.0 32
  123.10965 28.0 28
  123.11812 45.0 45
  124.11845 14.0 14
  125.05946 12.0 12
  131.91939 20.0 20
  133.57297 15.0 15
  135.08249 43.0 43
  135.1138 27.0 27
  138.13029 13.0 13
  141.01973 58.0 58
  145.10709 19.0 19
  147.07422 13.0 13
  147.10655 26.0 26
  147.1208 26.0 26
  149.09563 12.0 12
  149.13171 99.0 99
  149.13918 39.0 39
  150.13644 19.0 19
  151.10545 15.0 15
  153.08977 15.0 15
  158.1028 12.0 12
  158.61281 12.0 12
  159.02563 15.0 15
  159.08237 15.0 15
  159.1208 58.0 58
  161.12497 23.0 23
  161.13272 77.0 77
  162.13779 13.0 13
  163.0995 17.0 17
  163.11169 27.0 27
  163.14574 25.0 25
  167.11235 12.0 12
  173.13184 58.0 58
  173.14159 14.0 14
  175.10904 15.0 15
  175.14684 166.0 166
  177.15399 25.0 25
  177.16707 58.0 58
  182.11115 13.0 13
  183.12997 20.0 20
  184.12161 12.0 12
  185.13364 37.0 37
  186.13467 15.0 15
  186.14577 32.0 32
  187.14116 15.0 15
  187.1487 18.0 18
  187.15605 15.0 15
  188.62067 15.0 15
  189.1532 37.0 37
  189.16745 272.0 272
  190.16722 33.0 33
  191.17114 16.0 16
  191.18672 41.0 41
  192.18459 64.0 64
  197.13451 27.0 27
  199.14642 15.0 15
  199.15669 15.0 15
  200.11215 14.0 14
  200.14688 15.0 15
  200.15627 22.0 22
  201.15572 12.0 12
  201.16599 26.0 26
  202.16641 39.0 39
  203.12178 13.0 13
  203.14886 20.0 20
  203.18065 14.0 14
  205.16905 15.0 15
  206.03882 21.0 21
  207.14096 28.0 28
  209.19968 16.0 16
  211.15346 12.0 12
  211.16231 15.0 15
  213.14914 20.0 20
  213.17075 47.0 47
  215.13889 29.0 29
  215.15475 13.0 13
  215.1779 15.0 15
  215.74556 12.0 12
  216.14568 14.0 14
  216.18279 18.0 18
  217.12068 31.0 31
  217.15491 210.0 210
  217.17055 52.0 52
  218.15913 13.0 13
  218.16765 18.0 18
  219.15546 12.0 12
  219.17477 77.0 77
  219.18466 50.0 50
  221.13832 27.0 27
  222.15895 15.0 15
  225.16159 43.0 43
  227.18333 46.0 46
  231.1718 61.0 61
  231.19456 20.0 20
  233.18089 15.0 15
  233.18901 16.0 16
  235.16573 117.0 117
  235.17799 84.0 84
  235.18559 31.0 31
  236.16898 17.0 17
  237.16951 14.0 14
  237.1788 33.0 33
  241.18556 12.0 12
  241.19501 28.0 28
  241.46548 20.0 20
  242.19717 15.0 15
  243.1279 15.0 15
  243.17218 28.0 28
  245.14465 13.0 13
  245.15465 48.0 48
  245.18782 76.0 76
  246.28752 14.0 14
  247.16261 13.0 13
  249.18436 18.0 18
  254.20532 15.0 15
  255.17839 27.0 27
  255.1967 16.0 16
  255.20468 15.0 15
  256.18613 15.0 15
  256.21259 12.0 12
  256.2211 19.0 19
  257.186 12.0 12
  258.16241 19.0 19
  259.16946 27.0 27
  260.60413 12.0 12
  261.13293 12.0 12
  261.19473 15.0 15
  262.15549 16.0 16
  263.16714 12.0 12
  267.21039 44.0 44
  268.20792 15.0 15
  268.21738 18.0 18
  269.1868 15.0 15
  269.23691 15.0 15
  270.215 12.0 12
  271.21167 15.0 15
  272.22162 18.0 18
  273.16122 19.0 19
  273.19421 53.0 53
  274.17477 15.0 15
  274.18533 14.0 14
  274.22058 15.0 15
  275.20172 13.0 13
  277.22971 12.0 12
  281.22855 15.0 15
  283.16254 15.0 15
  283.19653 12.0 12
  283.24524 17.0 17
  285.18008 13.0 13
  285.21777 28.0 28
  285.22852 17.0 17
  286.21698 15.0 15
  286.23715 30.0 30
  287.2002 18.0 18
  287.2175 15.0 15
  288.19635 45.0 45
  289.17862 14.0 14
  290.19229 13.0 13
  291.19235 13.0 13
  294.22891 13.0 13
  297.21628 14.0 14
  300.49551 12.0 12
  301.16641 14.0 14
  303.18921 48.0 48
  304.1972 15.0 15
  307.22498 15.0 15
  311.19824 13.0 13
  311.22928 13.0 13
  311.24612 12.0 12
  312.24429 15.0 15
  313.19888 18.0 18
  313.22372 37.0 37
  317.18307 13.0 13
  317.21722 25.0 25
  317.23737 15.0 15
  318.21381 13.0 13
  323.24371 28.0 28
  329.25058 12.0 12
  331.24405 20.0 20
  333.28693 13.0 13
  337.21851 18.0 18
  337.25198 14.0 14
  338.22217 12.0 12
  339.23621 30.0 30
  339.28046 12.0 12
  342.23068 28.0 28
  343.23093 14.0 14
  347.27182 27.0 27
  348.284 12.0 12
  351.2309 61.0 61
  351.30554 20.0 20
  353.23581 14.0 14
  357.2428 100.0 100
  358.22577 31.0 31
  363.29041 26.0 26
  369.2587 12.0 12
  371.12109 12.0 12
  371.2594 16.0 16
  371.32407 15.0 15
  375.04086 20.0 20
  379.26651 12.0 12
  379.35397 12.0 12
  380.27515 15.0 15
  383.1958 15.0 15
  383.26215 15.0 15
  383.27679 13.0 13
  385.2594 12.0 12
  389.2767 28.0 28
  389.29858 18.0 18
  389.32306 95.0 95
  390.34125 13.0 13
  394.27618 26.0 26
  395.28522 15.0 15
  398.26877 12.0 12
  407.28702 12.0 12
  407.31451 60.0 60
  407.33621 99.0 99
  408.3017 15.0 15
  408.34171 27.0 27
  409.33093 13.0 13
  411.28775 13.0 13
  417.48044 12.0 12
  425.34814 12.0 12
  435.2688 21.0 21
  435.30344 27.0 27
  435.32419 125.0 125
  435.35388 18.0 18
  436.32092 61.0 61
  436.35141 25.0 25
  446.34845 12.0 12
  453.33838 1000.0 999
  454.34167 289.0 289
  454.57846 15.0 15
  455.33224 28.0 28
  455.35568 26.0 26
  456.33862 14.0 14
  469.67981 22.0 22
  471.3345 18.0 18
  471.36087 15.0 15
  586.46313 15.0 15
//
