ACCESSION: MSBNK-RIKEN-PR309043
RECORD_TITLE: Flavanone base + 4O, 2Prenyl; LC-ESI-QTOF; MS2
DATE: 2019.03.28
AUTHORS: Tetsuya Mori, Center for Sustainable Resource Science, RIKEN
LICENSE: CC BY-NC-SA
PUBLICATION: Tsugawa H., Nakabayashi R., Mori T., Yamada Y., Takahashi M., Rai A., Sugiyama R., Yamamoto H., Nakaya T., Yamazaki M., Kooke R., Bac-Molenaar JA., Oztolan-Erol N., Keurentjes JJB., Arita M., Saito K. (2019) "A cheminformatics approach to characterize metabolomes in stable-isotope-labeled organisms" Nature Methods 16(4):295-298. [doi:10.1038/s41592-019-0358-2]
COMMENT: Annotation level-3
CH$NAME: Flavanone base + 4O, 2Prenyl
CH$COMPOUND_CLASS: Prenylated flavanones
CH$FORMULA: C25H28O6
CH$EXACT_MASS: 424.493
CH$SMILES: O=C2C3=C(O)C=C(O)C(=C3(OC(C1=CC(O)=C(O)C(=C1)CC=C(C)C)C2))CC=C(C)C
CH$IUPAC: InChI=1S/C25H28O6/c1-13(2)5-7-15-9-16(10-21(29)24(15)30)22-12-20(28)23-19(27)11-18(26)17(25(23)31-22)8-6-14(3)4/h5-6,9-11,22,26-27,29-30H,7-8,12H2,1-4H3
CH$LINK: INCHIKEY HCBKENVWCDLQOA-UHFFFAOYSA-N
AC$INSTRUMENT: LC, Waters Acquity UPLC System; MS, Waters Xevo G2 Q-Tof
AC$INSTRUMENT_TYPE: LC-ESI-QTOF
AC$MASS_SPECTROMETRY: MS_TYPE MS2
AC$MASS_SPECTROMETRY: ION_MODE NEGATIVE
AC$MASS_SPECTROMETRY: COLLISION_ENERGY 6V
AC$MASS_SPECTROMETRY: DESOLVATION_GAS_FLOW 800/h
AC$MASS_SPECTROMETRY: DESOLVATION_TEMPERATURE 450 C
AC$MASS_SPECTROMETRY: IONIZATION ESI
AC$CHROMATOGRAPHY: CAPILLARY_VOLTAGE +3.00 kV
AC$CHROMATOGRAPHY: COLUMN_NAME Acquity bridged ethyl hybrid C18 (1.7 um, 2.1 mm * 100 mm, Waters)
AC$CHROMATOGRAPHY: COLUMN_TEMPERATURE 40 C
AC$CHROMATOGRAPHY: FLOW_GRADIENT A/B = (99.5%/0.5% at 0 min, 99.5%/0.5% at 0.1 min, 20%/80% at 10 min, 0.5%/99.5% at 10.1 min, 0.5%/99.5% at 12.0 min, 99.5%/0.5% at 12.1 min, 99.5%/0.5% at 15.0 min)
AC$CHROMATOGRAPHY: FLOW_RATE 0.3 ml/min at 0 min, 0.3 ml/min at 10 min, 0.4 ml/min at 10.1 min, 0.4 ml/min at 14.4 min, 0.3 ml/min at 14.5 min
AC$CHROMATOGRAPHY: RETENTION_TIME 9.08
AC$CHROMATOGRAPHY: SOLVENT A water including 0.1% formic acid
AC$CHROMATOGRAPHY: SOLVENT B acetonitrile including 0.1% formic acid
MS$FOCUSED_ION: PRECURSOR_TYPE [M-H]-
MS$FOCUSED_ION: PRECURSOR_M/Z 423.1818
PK$SPLASH: splash10-00xr-0290700000-c3369234a1334bad0d1a
PK$NUM_PEAK: 17
PK$PEAK: m/z int. rel.int.
  65.00394 27.0 43
  123.04305 18.0 28
  131.08521 21.0 33
  133.06436 39.0 62
  148.05124 42.0 66
  149.0584 21.0 33
  175.07994 19.0 30
  176.00687 20.0 32
  191.10707 22.0 35
  203.10822 301.0 477
  205.08458 23.0 36
  219.06633 440.0 697
  220.06924 30.0 47
  379.18851 36.0 57
  381.21631 40.0 63
  423.15817 32.0 51
  423.18442 631.0 999
//
