ACCESSION: MSBNK-RIKEN-PR310901
RECORD_TITLE: Isorhamnetin; LC-ESI-QTOF; MS2
DATE: 2019.03.28
AUTHORS: Tetsuya Mori, Center for Sustainable Resource Science, RIKEN
LICENSE: CC BY-NC-SA
PUBLICATION: Tsugawa H., Nakabayashi R., Mori T., Yamada Y., Takahashi M., Rai A., Sugiyama R., Yamamoto H., Nakaya T., Yamazaki M., Kooke R., Bac-Molenaar JA., Oztolan-Erol N., Keurentjes JJB., Arita M., Saito K. (2019) "A cheminformatics approach to characterize metabolomes in stable-isotope-labeled organisms" Nature Methods 16(4):295-298. [doi:10.1038/s41592-019-0358-2]
COMMENT: Annotation level-1
CH$NAME: Isorhamnetin
CH$COMPOUND_CLASS: Flavonol O-glycosides
CH$FORMULA: C16H12O7
CH$EXACT_MASS: 316.265
CH$SMILES: O=C1C(O)=C(OC2=CC(O)=CC(O)=C12)C=3C=CC(O)=C(OC)C=3
CH$IUPAC: InChI=1S/C16H12O7/c1-22-11-4-7(2-3-9(11)18)16-15(21)14(20)13-10(19)5-8(17)6-12(13)23-16/h2-6,17-19,21H,1H3
CH$LINK: INCHIKEY IZQSVPBOUDKVDZ-UHFFFAOYSA-N
AC$INSTRUMENT: LC, Waters Acquity UPLC System; MS, Waters Xevo G2 Q-Tof
AC$INSTRUMENT_TYPE: LC-ESI-QTOF
AC$MASS_SPECTROMETRY: MS_TYPE MS2
AC$MASS_SPECTROMETRY: ION_MODE POSITIVE
AC$MASS_SPECTROMETRY: COLLISION_ENERGY 6V
AC$MASS_SPECTROMETRY: DESOLVATION_GAS_FLOW 800/h
AC$MASS_SPECTROMETRY: DESOLVATION_TEMPERATURE 450 C
AC$MASS_SPECTROMETRY: IONIZATION ESI
AC$CHROMATOGRAPHY: CAPILLARY_VOLTAGE +3.00 kV
AC$CHROMATOGRAPHY: COLUMN_NAME Acquity bridged ethyl hybrid C18 (1.7 um, 2.1 mm * 100 mm, Waters)
AC$CHROMATOGRAPHY: COLUMN_TEMPERATURE 40 C
AC$CHROMATOGRAPHY: FLOW_GRADIENT A/B = (99.5%/0.5% at 0 min, 99.5%/0.5% at 0.1 min, 20%/80% at 10 min, 0.5%/99.5% at 10.1 min, 0.5%/99.5% at 12.0 min, 99.5%/0.5% at 12.1 min, 99.5%/0.5% at 15.0 min)
AC$CHROMATOGRAPHY: FLOW_RATE 0.3 ml/min at 0 min, 0.3 ml/min at 10 min, 0.4 ml/min at 10.1 min, 0.4 ml/min at 14.4 min, 0.3 ml/min at 14.5 min
AC$CHROMATOGRAPHY: RETENTION_TIME 6.14
AC$CHROMATOGRAPHY: SOLVENT A water including 0.1% formic acid
AC$CHROMATOGRAPHY: SOLVENT B acetonitrile including 0.1% formic acid
MS$FOCUSED_ION: PRECURSOR_TYPE [M+H]+
MS$FOCUSED_ION: PRECURSOR_M/Z 317.06558
PK$SPLASH: splash10-014i-0139000000-10ad4d61a90fd3031423
PK$NUM_PEAK: 154
PK$PEAK: m/z int. rel.int.
  64.02906 56.0 5
  68.99684 57.0 5
  87.22951 31.0 3
  92.02034 21.0 2
  93.03191 105.0 9
  106.89045 23.0 2
  111.00558 20.0 2
  121.03009 133.0 11
  122.03285 65.0 5
  123.03186 22.0 2
  123.04315 27.0 2
  126.04162 21.0 2
  127.05322 20.0 2
  137.0217 20.0 2
  139.03683 83.0 7
  139.04601 46.0 4
  140.0444 17.0 1
  145.05911 27.0 2
  146.98341 19.0 2
  147.0442 47.0 4
  151.03319 22.0 2
  151.0396 48.0 4
  152.0072 17.0 1
  153.00751 253.0 21
  153.01868 1111.0 90
  154.01799 29.0 2
  154.02438 77.0 6
  154.86371 20.0 2
  155.024 24.0 2
  155.49017 23.0 2
  161.06793 33.0 3
  162.02823 36.0 3
  162.05283 27.0 2
  163.03583 24.0 2
  163.48814 53.0 4
  164.04445 38.0 3
  164.98274 24.0 2
  165.01212 37.0 3
  165.01802 65.0 5
  166.02521 22.0 2
  168.96927 18.0 1
  172.02382 58.0 5
  173.04541 25.0 2
  173.05641 84.0 7
  173.56802 20.0 2
  175.08698 27.0 2
  177.04727 49.0 4
  177.06543 19.0 2
  179.02049 17.0 1
  181.0159 45.0 4
  182.04089 30.0 2
  183.04788 23.0 2
  183.05614 68.0 6
  187.02592 25.0 2
  189.06166 43.0 3
  192.03508 27.0 2
  195.04254 21.0 2
  200.04233 40.0 3
  201.05583 34.0 3
  203.02849 56.0 5
  203.04092 64.0 5
  204.04066 24.0 2
  206.04417 18.0 1
  211.03586 17.0 1
  214.04877 17.0 1
  215.02763 31.0 3
  215.0408 22.0 2
  215.19533 20.0 2
  217.05571 274.0 22
  218.03792 29.0 2
  218.05125 133.0 11
  219.02975 38.0 3
  219.06543 28.0 2
  222.75598 33.0 3
  223.04875 42.0 3
  224.69928 36.0 3
  227.99797 17.0 1
  228.03714 195.0 16
  228.04617 120.0 10
  229.05042 534.0 43
  230.01997 22.0 2
  230.04704 136.0 11
  231.02774 145.0 12
  231.93561 23.0 2
  232.05046 30.0 2
  233.03716 40.0 3
  239.76947 39.0 3
  243.06004 17.0 1
  245.04297 209.0 17
  246.03011 15.0 1
  246.04166 58.0 5
  246.05231 143.0 12
  246.0643 69.0 6
  246.39423 30.0 2
  247.03206 49.0 4
  247.06113 20.0 2
  255.2715 26.0 2
  256.03769 33.0 3
  257.04349 344.0 28
  258.03195 25.0 2
  258.05057 85.0 7
  260.02954 61.0 5
  260.03906 25.0 2
  260.46661 20.0 2
  261.06619 25.0 2
  261.08148 19.0 2
  262.07581 36.0 3
  263.91162 18.0 1
  271.0369 21.0 2
  271.06857 53.0 4
  273.01135 24.0 2
  273.0257 45.0 4
  273.03986 182.0 15
  274.02441 20.0 2
  274.04828 289.0 23
  274.97568 21.0 2
  275.04239 83.0 7
  275.05377 34.0 3
  283.97906 34.0 3
  284.0239 114.0 9
  284.04126 17.0 1
  284.54703 26.0 2
  285.03952 627.0 51
  285.06168 42.0 3
  285.37982 18.0 1
  286.04584 88.0 7
  287.01044 23.0 2
  287.01926 73.0 6
  287.04947 26.0 2
  288.0242 33.0 3
  288.04587 22.0 2
  289.05481 20.0 2
  289.07028 23.0 2
  299.039 18.0 1
  299.04929 20.0 2
  301.6684 20.0 2
  301.98068 42.0 3
  301.99521 61.0 5
  302.0159 48.0 4
  302.04318 1511.0 122
  303.02539 47.0 4
  303.04706 164.0 13
  306.96344 27.0 2
  312.07532 27.0 2
  316.05804 29.0 2
  316.92343 17.0 1
  316.9364 25.0 2
  316.94815 23.0 2
  316.99289 41.0 3
  317.0061 46.0 4
  317.06647 12328.0 999
  317.10013 47.0 4
  317.11874 93.0 8
  317.16635 20.0 2
//
