ACCESSION: MSBNK-RIKEN-PR301987
RECORD_TITLE: Luteolin-6-C-glucoside; LC-ESI-QTOF; MS2
DATE: 2019.03.28
AUTHORS: Tetsuya Mori, Center for Sustainable Resource Science, RIKEN
LICENSE: CC BY-NC-SA
PUBLICATION: Tsugawa H., Nakabayashi R., Mori T., Yamada Y., Takahashi M., Rai A., Sugiyama R., Yamamoto H., Nakaya T., Yamazaki M., Kooke R., Bac-Molenaar JA., Oztolan-Erol N., Keurentjes JJB., Arita M., Saito K. (2019) "A cheminformatics approach to characterize metabolomes in stable-isotope-labeled organisms" Nature Methods 16(4):295-298. [doi:10.1038/s41592-019-0358-2]
COMMENT: registered in RIKEN PlaSMA
CH$NAME: Luteolin-6-C-glucoside
CH$COMPOUND_CLASS: Flavonoid C-glycosides
CH$FORMULA: C21H20O11
CH$EXACT_MASS: 448.38
CH$SMILES: OC[C@H]1O[C@H]([C@H](O)[C@@H](O)[C@@H]1O)C1=C(O)C2=C(OC(=CC2=O)C2=CC(O)=C(O)C=C2)C=C1O
CH$IUPAC: InChI=1S/C21H20O11/c22-6-14-17(27)19(29)20(30)21(32-14)16-11(26)5-13-15(18(16)28)10(25)4-12(31-13)7-1-2-8(23)9(24)3-7/h1-5,14,17,19-24,26-30H,6H2/t14-,17-,19+,20-,21+/m1/s1
CH$LINK: INCHIKEY ODBRNZZJSYPIDI-VJXVFPJBSA-N
AC$INSTRUMENT: LC, Waters Acquity UPLC System; MS, Waters Xevo G2 Q-Tof
AC$INSTRUMENT_TYPE: LC-ESI-QTOF
AC$MASS_SPECTROMETRY: MS_TYPE MS2
AC$MASS_SPECTROMETRY: ION_MODE POSITIVE
AC$MASS_SPECTROMETRY: COLLISION_ENERGY 6V
AC$MASS_SPECTROMETRY: DESOLVATION_GAS_FLOW 800/h
AC$MASS_SPECTROMETRY: DESOLVATION_TEMPERATURE 450 C
AC$MASS_SPECTROMETRY: IONIZATION ESI
AC$CHROMATOGRAPHY: CAPILLARY_VOLTAGE +3.00 kV
AC$CHROMATOGRAPHY: COLUMN_NAME Acquity bridged ethyl hybrid C18 (1.7 um, 2.1 mm * 100 mm, Waters)
AC$CHROMATOGRAPHY: COLUMN_TEMPERATURE 40 C
AC$CHROMATOGRAPHY: FLOW_GRADIENT A/B = (99.5%/0.5% at 0 min, 99.5%/0.5% at 0.1 min, 20%/80% at 10 min, 0.5%/99.5% at 10.1 min, 0.5%/99.5% at 12.0 min, 99.5%/0.5% at 12.1 min, 99.5%/0.5% at 15.0 min)
AC$CHROMATOGRAPHY: FLOW_RATE 0.3 ml/min at 0 min, 0.3 ml/min at 10 min, 0.4 ml/min at 10.1 min, 0.4 ml/min at 14.4 min, 0.3 ml/min at 14.5 min
AC$CHROMATOGRAPHY: RETENTION_TIME 3.591883
AC$CHROMATOGRAPHY: SOLVENT A water including 0.1% formic acid
AC$CHROMATOGRAPHY: SOLVENT B acetonitrile including 0.1% formic acid
MS$FOCUSED_ION: PRECURSOR_TYPE [M+H]+
MS$FOCUSED_ION: PRECURSOR_M/Z 449.1078379
PK$SPLASH: splash10-014j-0952000000-5a8e1ca47586fcfd31ff
PK$NUM_PEAK: 264
PK$PEAK: m/z int. rel.int.
  51.33245 12.0 12
  55.01653 8.0 8
  55.01982 11.0 11
  58.71135 7.0 7
  65.03963 15.0 15
  67.0237 17.0 17
  75.21275 7.0 7
  81.03116 7.0 7
  85.0323 13.0 13
  89.20773 8.0 8
  92.05899 17.0 17
  92.99303 9.0 9
  95.04575 8.0 8
  96.05144 9.0 9
  103.04076 11.0 11
  103.04996 9.0 9
  105.03694 17.0 17
  107.05612 10.0 10
  108.0145 16.0 16
  109.02549 36.0 36
  109.03333 30.0 30
  109.0651 24.0 24
  111.03794 8.0 8
  115.05558 20.0 20
  119.04737 22.0 22
  119.05344 14.0 14
  121.01959 15.0 15
  121.03067 50.0 50
  123.00659 102.0 102
  123.04723 7.0 7
  124.00789 10.0 10
  125.01071 8.0 8
  131.04904 16.0 16
  133.02745 17.0 17
  133.03676 7.0 7
  134.03996 18.0 18
  134.99582 13.0 13
  135.04378 173.0 173
  136.05052 14.0 14
  137.02376 318.0 318
  138.03311 45.0 45
  143.07698 17.0 17
  144.0553 9.0 9
  145.02557 19.0 19
  146.02863 10.0 10
  147.03944 12.0 12
  147.0448 8.0 8
  148.0466 13.0 13
  149.0224 99.0 99
  149.03172 18.0 18
  150.0182 14.0 14
  150.02969 8.0 8
  150.05246 15.0 15
  153.00049 31.0 31
  153.02975 12.0 12
  155.03899 10.0 10
  158.04173 12.0 12
  159.0412 20.0 20
  160.01932 11.0 11
  160.03889 7.0 7
  160.05595 10.0 10
  161.01842 31.0 31
  161.02812 19.0 19
  161.04503 17.0 17
  161.07014 13.0 13
  162.02838 12.0 12
  163.02945 53.0 53
  163.04028 56.0 56
  164.04037 13.0 13
  164.99805 14.0 14
  165.01836 1000.0 999
  165.03981 9.0 9
  165.07579 14.0 14
  166.00185 12.0 12
  166.02022 87.0 87
  167.03244 15.0 15
  167.0692 11.0 11
  167.08147 10.0 10
  171.04791 12.0 12
  172.12785 7.0 7
  173.02209 25.0 25
  173.06854 9.0 9
  175.04167 24.0 24
  175.05957 13.0 13
  177.02074 69.0 69
  177.07005 7.0 7
  178.36771 7.0 7
  179.00127 52.0 52
  179.03281 21.0 21
  181.05939 12.0 12
  183.04753 9.0 9
  185.4603 7.0 7
  187.03467 27.0 27
  187.04616 14.0 14
  187.19431 9.0 9
  188.04486 16.0 16
  188.80389 7.0 7
  188.91441 16.0 16
  189.00203 8.0 8
  189.01538 53.0 53
  189.02806 7.0 7
  189.05402 11.0 11
  189.20853 8.0 8
  190.01685 22.0 22
  190.78488 8.0 8
  190.97427 7.0 7
  191.00473 13.0 13
  191.02681 65.0 65
  191.04007 43.0 43
  194.14896 7.0 7
  195.03004 24.0 24
  195.31935 9.0 9
  197.05782 31.0 31
  198.06303 7.0 7
  199.07521 14.0 14
  199.08665 14.0 14
  200.03809 9.0 9
  200.063 14.0 14
  201.86006 7.0 7
  202.04547 8.0 8
  202.05983 8.0 8
  203.03662 44.0 44
  203.08815 9.0 9
  204.03917 21.0 21
  205.04846 28.0 28
  205.06406 10.0 10
  208.05571 15.0 15
  211.06812 18.0 18
  213.0965 15.0 15
  215.02086 7.0 7
  215.0417 22.0 22
  215.05142 16.0 16
  216.03587 20.0 20
  216.06706 8.0 8
  219.02292 10.0 10
  219.0361 25.0 25
  219.0506 9.0 9
  226.06685 7.0 7
  227.04256 16.0 16
  229.04225 13.0 13
  231.01614 13.0 13
  231.03079 17.0 17
  231.05939 7.0 7
  237.06082 23.0 23
  241.04535 16.0 16
  241.05667 12.0 12
  242.01363 9.0 9
  243.02686 24.0 24
  243.0708 8.0 8
  244.02934 36.0 36
  245.04437 27.0 27
  245.05363 27.0 27
  247.06595 7.0 7
  248.40253 7.0 7
  249.08092 10.0 10
  251.06805 7.0 7
  252.52168 7.0 7
  253.02266 7.0 7
  255.05139 8.0 8
  255.07111 8.0 8
  257.05444 8.0 8
  257.07211 9.0 9
  258.0585 47.0 47
  263.07312 8.0 8
  265.03705 10.0 10
  265.07748 8.0 8
  269.03839 15.0 15
  270.03937 7.0 7
  270.04959 7.0 7
  270.71948 19.0 19
  271.0123 19.0 19
  271.04904 24.0 24
  271.06094 51.0 51
  272.04892 16.0 16
  272.06577 51.0 51
  276.31631 7.0 7
  281.04636 8.0 8
  282.04489 24.0 24
  282.05917 11.0 11
  282.08603 11.0 11
  283.0578 180.0 180
  283.07895 20.0 20
  284.05008 14.0 14
  284.06259 37.0 37
  285.04037 9.0 9
  286.03391 48.0 48
  287.05356 51.0 51
  287.69901 7.0 7
  288.04706 7.0 7
  289.06195 8.0 8
  293.04285 10.0 10
  293.06714 8.0 8
  293.07986 15.0 15
  295.03281 9.0 9
  295.05139 48.0 48
  295.06732 54.0 54
  296.84039 10.0 10
  297.04385 18.0 18
  297.06436 25.0 25
  297.0784 70.0 70
  298.06943 15.0 15
  298.08078 26.0 26
  298.87268 8.0 8
  299.02145 14.0 14
  299.04843 284.0 284
  299.06317 289.0 289
  299.24686 7.0 7
  300.03857 20.0 20
  300.06024 202.0 202
  300.07458 83.0 83
  301.03281 7.0 7
  301.05527 12.0 12
  301.06805 20.0 20
  301.10718 11.0 11
  302.08496 14.0 14
  305.0835 31.0 31
  305.09305 9.0 9
  307.07382 11.0 11
  309.03024 15.0 15
  310.04187 8.0 8
  310.31512 13.0 13
  310.76926 10.0 10
  311.03012 10.0 10
  311.03986 20.0 20
  311.05597 75.0 75
  311.0889 24.0 24
  311.10522 13.0 13
  312.05228 21.0 21
  312.41968 11.0 11
  313.05051 18.0 18
  313.07941 18.0 18
  321.03665 19.0 19
  321.0773 11.0 11
  323.04089 7.0 7
  323.06369 13.0 13
  323.08017 10.0 10
  324.05231 9.0 9
  324.07455 32.0 32
  325.03845 7.0 7
  325.06662 24.0 24
  325.07751 31.0 31
  326.06824 16.0 16
  326.09573 10.0 10
  327.07071 8.0 8
  329.06036 7.0 7
  329.07892 25.0 25
  330.07919 8.0 8
  336.03223 16.0 16
  337.05542 17.0 17
  337.07458 14.0 14
  338.03766 8.0 8
  338.07825 8.0 8
  339.02567 11.0 11
  339.08051 8.0 8
  339.09662 17.0 17
  339.81964 7.0 7
  341.0719 8.0 8
  349.05432 7.0 7
  349.07092 26.0 26
  378.06024 14.0 14
  397.69928 20.0 20
  424.3522 12.0 12
  444.92972 8.0 8
  449.10779 11.0 11
//
