ACCESSION: MSBNK-RIKEN-PR100446
RECORD_TITLE: Adenosine 3'-monophosphate; LC-ESI-QTOF; MS2; CE:Ramp 5-60 V; [M+H]+
DATE: 2016.01.19 (Created 2009.09.10, modified 2011.05.06)
AUTHORS: Matsuda F, Suzuki M, Sawada Y, Plant Science Center, RIKEN.
LICENSE: CC BY-SA
COMMENT: Acquisition and generation of the data is financially supported in part by CREST/JST.
CH$NAME: Adenosine 3'-monophosphate
CH$NAME: 3'-AMP
CH$NAME: 3'-Adenylic acid
CH$NAME: Synadenylic acid
CH$NAME: 3'-Adenosine monophosphate
CH$NAME: AMP 3'-phosphate
CH$COMPOUND_CLASS: Natural Product; Nucleoside; Phosphates
CH$FORMULA: C10H14N5O7P
CH$EXACT_MASS: 347.06308
CH$SMILES: OC[C@@H](O1)[C@@H](OP(O)(O)=O)[C@@H](O)[C@@H]1n(c3)c(n2)c(n3)c(N)nc2
CH$IUPAC: InChI=1S/C10H14N5O7P/c11-8-5-9(13-2-12-8)15(3-14-5)10-6(17)7(4(1-16)21-10)22-23(18,19)20/h2-4,6-7,10,16-17H,1H2,(H2,11,12,13)(H2,18,19,20)/t4-,6-,7-,10-/m1/s1
CH$LINK: CAS 84-21-9
CH$LINK: CHEMSPIDER 37610
CH$LINK: KEGG C01367
CH$LINK: KNAPSACK C00019350
CH$LINK: PUBCHEM CID:41211
CH$LINK: INCHIKEY LNQVTSROQXJCDD-KQYNXXCUSA-N
CH$LINK: COMPTOX DTXSID40876084
AC$INSTRUMENT: UPLC Q-Tof Premier, Waters
AC$INSTRUMENT_TYPE: LC-ESI-QTOF
AC$MASS_SPECTROMETRY: MS_TYPE MS2
AC$MASS_SPECTROMETRY: ION_MODE POSITIVE
AC$MASS_SPECTROMETRY: COLLISION_ENERGY Ramp 5-60 V
AC$MASS_SPECTROMETRY: DATAFORMAT Continuum
AC$MASS_SPECTROMETRY: DATE 2008.07.28
AC$MASS_SPECTROMETRY: DESOLVATION_GAS_FLOW 600.0 L/Hr
AC$MASS_SPECTROMETRY: DESOLVATION_TEMPERATURE 420 C
AC$MASS_SPECTROMETRY: FRAGMENTATION_METHOD LOW-ENERGY CID
AC$MASS_SPECTROMETRY: IONIZATION ESI
AC$MASS_SPECTROMETRY: SCANNING 1.0 sec/scan (m/z = 50-1000)
AC$MASS_SPECTROMETRY: SOURCE_TEMPERATURE 120 C
AC$CHROMATOGRAPHY: CAPILLARY_VOLTAGE 3.0 kV
AC$CHROMATOGRAPHY: SAMPLING_CONE 23.0 V
AC$CHROMATOGRAPHY: SOLVENT A CH3CN(0.1%HCOOH)
AC$CHROMATOGRAPHY: SOLVENT B H2O(0.1%HCOOH)
MS$FOCUSED_ION: PRECURSOR_M/Z 348.07088
MS$FOCUSED_ION: PRECURSOR_TYPE [M+H]+
PK$SPLASH: splash10-000i-0901000000-01666f7ac8779350ae53
PK$NUM_PEAK: 3
PK$PEAK: m/z int. rel.int.
  119.0362 129.1 61
  136.0627 2108 999
  348.0709 368.5 175
//
