ACCESSION: MSBNK-RIKEN-PR100911
RECORD_TITLE: Peonidin-3-O-alpha-arabinopyranoside; LC-ESI-QTOF; MS2; CE:Ramp 5-60 V; [M-2H]-
DATE: 2016.01.19 (Created 2009.09.10, modified 2011.05.06)
AUTHORS: Matsuda F, Suzuki M, Sawada Y, Plant Science Center, RIKEN.
LICENSE: CC BY-SA
COMMENT: Acquisition and generation of the data is financially supported in part by CREST/JST.
CH$NAME: Peonidin-3-O-alpha-arabinopyranoside
CH$NAME: Pn 3-Ara
CH$COMPOUND_CLASS: Anthocyanidin
CH$FORMULA: [C21H21O10]+
CH$EXACT_MASS: 433.11347
CH$SMILES: COc(c(O)4)cc(cc4)c([o+1]1)c(OC(O3)C(O)C(O)C(O)C3)cc(c(O)2)c(cc(O)c2)1
CH$IUPAC: InChI=1S/C21H20O10/c1-28-16-4-9(2-3-12(16)23)20-17(31-21-19(27)18(26)14(25)8-29-21)7-11-13(24)5-10(22)6-15(11)30-20/h2-7,14,18-19,21,25-27H,8H2,1H3,(H2-,22,23,24)/p+1
CH$LINK: CAS 792124-58-4
CH$LINK: KNAPSACK C00006679
CH$LINK: INCHIKEY KRUPPTWQKIEURV-UHFFFAOYSA-O
AC$INSTRUMENT: UPLC Q-Tof Premier, Waters
AC$INSTRUMENT_TYPE: LC-ESI-QTOF
AC$MASS_SPECTROMETRY: MS_TYPE MS2
AC$MASS_SPECTROMETRY: ION_MODE NEGATIVE
AC$MASS_SPECTROMETRY: COLLISION_ENERGY Ramp 5-60 V
AC$MASS_SPECTROMETRY: DATAFORMAT Continuum
AC$MASS_SPECTROMETRY: DATE 2008.07.29
AC$MASS_SPECTROMETRY: DESOLVATION_GAS_FLOW 600.0 L/Hr
AC$MASS_SPECTROMETRY: DESOLVATION_TEMPERATURE 420 C
AC$MASS_SPECTROMETRY: FRAGMENTATION_METHOD LOW-ENERGY CID
AC$MASS_SPECTROMETRY: IONIZATION ESI
AC$MASS_SPECTROMETRY: SCANNING 1.0 sec/scan (m/z = 50-1000)
AC$MASS_SPECTROMETRY: SOURCE_TEMPERATURE 120 C
AC$CHROMATOGRAPHY: CAPILLARY_VOLTAGE 3.0 kV
AC$CHROMATOGRAPHY: SAMPLING_CONE 23.0 V
AC$CHROMATOGRAPHY: SOLVENT A CH3CN(0.1%HCOOH)
AC$CHROMATOGRAPHY: SOLVENT B H2O(0.1%HCOOH)
MS$FOCUSED_ION: DERIVATIVE_FORM C21H21O10.Cl
MS$FOCUSED_ION: DERIVATIVE_MASS 468.84
MS$FOCUSED_ION: PRECURSOR_M/Z 431.09784
MS$FOCUSED_ION: PRECURSOR_TYPE [M-2H]-
PK$SPLASH: splash10-000t-0090100000-70b25bdb9dc82b061c84
PK$NUM_PEAK: 10
PK$PEAK: m/z int. rel.int.
  183.0451 80.3 111
  199.0407 69.49 96
  211.0409 110.9 154
  227.0354 218.6 303
  255.0305 240.7 334
  283.0264 497.2 690
  284.0317 151.2 210
  298.0492 719.8 999
  299.0570 488.1 677
  431.0978 412.7 573
//
