ACCESSION: MSBNK-RIKEN-PR301383
RECORD_TITLE: Anabasamine; LC-ESI-QTOF; MS2
DATE: 2019.03.28
AUTHORS: Tetsuya Mori, Center for Sustainable Resource Science, RIKEN
LICENSE: CC BY-NC-SA
PUBLICATION: Tsugawa H., Nakabayashi R., Mori T., Yamada Y., Takahashi M., Rai A., Sugiyama R., Yamamoto H., Nakaya T., Yamazaki M., Kooke R., Bac-Molenaar JA., Oztolan-Erol N., Keurentjes JJB., Arita M., Saito K. (2019) "A cheminformatics approach to characterize metabolomes in stable-isotope-labeled organisms" Nature Methods 16(4):295-298. [doi:10.1038/s41592-019-0358-2]
COMMENT: registered in RIKEN PlaSMA
CH$NAME: Anabasamine
CH$COMPOUND_CLASS: Bipyridines and oligopyridines
CH$FORMULA: C16H19N3
CH$EXACT_MASS: 253.349
CH$SMILES: CN1CCCCC1C1=CN=C(C=C1)C1=CN=CC=C1
CH$IUPAC: InChI=1S/C16H19N3/c1-19-10-3-2-6-16(19)14-7-8-15(18-12-14)13-5-4-9-17-11-13/h4-5,7-9,11-12,16H,2-3,6,10H2,1H3
CH$LINK: INCHIKEY TZRDBHMKTWECOV-UHFFFAOYSA-N
AC$INSTRUMENT: LC, Waters Acquity UPLC System; MS, Waters Xevo G2 Q-Tof
AC$INSTRUMENT_TYPE: LC-ESI-QTOF
AC$MASS_SPECTROMETRY: MS_TYPE MS2
AC$MASS_SPECTROMETRY: ION_MODE POSITIVE
AC$MASS_SPECTROMETRY: COLLISION_ENERGY 6V
AC$MASS_SPECTROMETRY: DESOLVATION_GAS_FLOW 800/h
AC$MASS_SPECTROMETRY: DESOLVATION_TEMPERATURE 450 C
AC$MASS_SPECTROMETRY: IONIZATION ESI
AC$CHROMATOGRAPHY: CAPILLARY_VOLTAGE +3.00 kV
AC$CHROMATOGRAPHY: COLUMN_NAME Acquity bridged ethyl hybrid C18 (1.7 um, 2.1 mm * 100 mm, Waters)
AC$CHROMATOGRAPHY: COLUMN_TEMPERATURE 40 C
AC$CHROMATOGRAPHY: FLOW_GRADIENT A/B = (99.5%/0.5% at 0 min, 99.5%/0.5% at 0.1 min, 20%/80% at 10 min, 0.5%/99.5% at 10.1 min, 0.5%/99.5% at 12.0 min, 99.5%/0.5% at 12.1 min, 99.5%/0.5% at 15.0 min)
AC$CHROMATOGRAPHY: FLOW_RATE 0.3 ml/min at 0 min, 0.3 ml/min at 10 min, 0.4 ml/min at 10.1 min, 0.4 ml/min at 14.4 min, 0.3 ml/min at 14.5 min
AC$CHROMATOGRAPHY: RETENTION_TIME 2.37115
AC$CHROMATOGRAPHY: SOLVENT A water including 0.1% formic acid
AC$CHROMATOGRAPHY: SOLVENT B acetonitrile including 0.1% formic acid
MS$FOCUSED_ION: PRECURSOR_TYPE [M+H]+
MS$FOCUSED_ION: PRECURSOR_M/Z 254.1651741
PK$SPLASH: splash10-0udi-0490000000-cb4d49fa32d9d84ad91a
PK$NUM_PEAK: 36
PK$PEAK: m/z int. rel.int.
  84.08311 5.0 5
  115.0519 8.0 8
  117.05871 8.0 8
  134.09746 6.0 6
  141.05983 6.0 6
  142.0667 10.0 10
  156.08412 6.0 6
  157.0739 41.0 41
  168.07654 10.0 10
  169.07834 83.0 83
  170.08127 67.0 67
  171.09213 153.0 153
  172.08366 12.0 12
  172.09363 8.0 8
  183.09215 27.0 27
  184.08493 9.0 9
  194.07811 10.0 10
  194.08733 13.0 13
  195.09238 50.0 50
  197.11014 53.0 53
  198.11526 7.0 7
  207.09102 56.0 56
  208.09396 17.0 17
  209.0954 7.0 7
  209.10947 17.0 17
  210.09404 5.0 5
  211.11491 9.0 9
  211.13487 5.0 5
  221.11108 6.0 6
  223.11324 19.0 19
  223.12021 36.0 36
  223.13185 49.0 49
  224.12151 11.0 11
  224.13756 6.0 6
  254.1377 6.0 6
  254.16515 1000.0 999
//
