ACCESSION: MSBNK-RIKEN-PR306609
RECORD_TITLE: Biochanin-7-O-glucoside; LC-ESI-QTOF; MS2
DATE: 2019.03.28
AUTHORS: Tetsuya Mori, Center for Sustainable Resource Science, RIKEN
LICENSE: CC BY-NC-SA
PUBLICATION: Tsugawa H., Nakabayashi R., Mori T., Yamada Y., Takahashi M., Rai A., Sugiyama R., Yamamoto H., Nakaya T., Yamazaki M., Kooke R., Bac-Molenaar JA., Oztolan-Erol N., Keurentjes JJB., Arita M., Saito K. (2019) "A cheminformatics approach to characterize metabolomes in stable-isotope-labeled organisms" Nature Methods 16(4):295-298. [doi:10.1038/s41592-019-0358-2]
COMMENT: registered in RIKEN PlaSMA
CH$NAME: Biochanin-7-O-glucoside
CH$COMPOUND_CLASS: Isoflavonoid O-glycosides
CH$FORMULA: C22H22O10
CH$EXACT_MASS: 446.408
CH$SMILES: COC1=CC=C(C=C1)C1=COC2=CC(OC3OC(CO)C(O)C(O)C3O)=CC(O)=C2C1=O
CH$IUPAC: InChI=1S/C22H22O10/c1-29-11-4-2-10(3-5-11)13-9-30-15-7-12(6-14(24)17(15)18(13)25)31-22-21(28)20(27)19(26)16(8-23)32-22/h2-7,9,16,19-24,26-28H,8H2,1H3
CH$LINK: INCHIKEY LFEUICHQZGNOHD-UHFFFAOYSA-N
AC$INSTRUMENT: LC, Waters Acquity UPLC System; MS, Waters Xevo G2 Q-Tof
AC$INSTRUMENT_TYPE: LC-ESI-QTOF
AC$MASS_SPECTROMETRY: MS_TYPE MS2
AC$MASS_SPECTROMETRY: ION_MODE NEGATIVE
AC$MASS_SPECTROMETRY: COLLISION_ENERGY 6V
AC$MASS_SPECTROMETRY: DESOLVATION_GAS_FLOW 800/h
AC$MASS_SPECTROMETRY: DESOLVATION_TEMPERATURE 450 C
AC$MASS_SPECTROMETRY: IONIZATION ESI
AC$CHROMATOGRAPHY: CAPILLARY_VOLTAGE -2.75 kV
AC$CHROMATOGRAPHY: COLUMN_NAME Acquity bridged ethyl hybrid C18 (1.7 um, 2.1 mm * 100 mm, Waters)
AC$CHROMATOGRAPHY: COLUMN_TEMPERATURE 40 C
AC$CHROMATOGRAPHY: FLOW_GRADIENT A/B = (99.5%/0.5% at 0 min, 99.5%/0.5% at 0.1 min, 20%/80% at 10 min, 0.5%/99.5% at 10.1 min, 0.5%/99.5% at 12.0 min, 99.5%/0.5% at 12.1 min, 99.5%/0.5% at 15.0 min)
AC$CHROMATOGRAPHY: FLOW_RATE 0.3 ml/min at 0 min, 0.3 ml/min at 10 min, 0.4 ml/min at 10.1 min, 0.4 ml/min at 14.4 min, 0.3 ml/min at 14.5 min
AC$CHROMATOGRAPHY: RETENTION_TIME 5.755017
AC$CHROMATOGRAPHY: SOLVENT A water including 0.1% formic acid
AC$CHROMATOGRAPHY: SOLVENT B acetonitrile including 0.1% formic acid
MS$FOCUSED_ION: PRECURSOR_TYPE [M-H]-
MS$FOCUSED_ION: PRECURSOR_M/Z 445.11402044783
PK$SPLASH: splash10-0159-0090000000-5fe88bc1c716ce35f3f8
PK$NUM_PEAK: 36
PK$PEAK: m/z int. rel.int.
  149.024 14.0 14
  154.04669 14.0 14
  165.0145 9.0 9
  176.04099 19.0 19
  195.07014 9.0 9
  215.06429 9.0 9
  224.05235 24.0 24
  239.02008 12.0 12
  239.03311 25.0 25
  239.04094 12.0 12
  239.07773 9.0 9
  240.05023 8.0 8
  252.02368 17.0 17
  252.04506 19.0 19
  253.04871 18.0 18
  254.05779 13.0 13
  267.02017 11.0 11
  267.03217 15.0 15
  267.06097 21.0 21
  267.0704 12.0 12
  267.77707 8.0 8
  268.03693 981.0 980
  268.06195 17.0 17
  268.55164 18.0 18
  269.04123 149.0 149
  281.05173 12.0 12
  282.05002 9.0 9
  283.06073 1000.0 999
  284.06802 90.0 90
  284.07727 30.0 30
  285.06464 11.0 11
  296.06323 13.0 13
  306.0386 13.0 13
  307.07236 11.0 11
  335.06793 12.0 12
  373.08209 12.0 12
//
