ACCESSION: MSBNK-RIKEN-PR306701
RECORD_TITLE: Kaempferol-3-O-glucoside-3''-rhamnoside; LC-ESI-QTOF; MS2
DATE: 2019.03.28
AUTHORS: Tetsuya Mori, Center for Sustainable Resource Science, RIKEN
LICENSE: CC BY-NC-SA
PUBLICATION: Tsugawa H., Nakabayashi R., Mori T., Yamada Y., Takahashi M., Rai A., Sugiyama R., Yamamoto H., Nakaya T., Yamazaki M., Kooke R., Bac-Molenaar JA., Oztolan-Erol N., Keurentjes JJB., Arita M., Saito K. (2019) "A cheminformatics approach to characterize metabolomes in stable-isotope-labeled organisms" Nature Methods 16(4):295-298. [doi:10.1038/s41592-019-0358-2]
COMMENT: registered in RIKEN PlaSMA
CH$NAME: Kaempferol-3-O-glucoside-3''-rhamnoside
CH$COMPOUND_CLASS: Flavonoid-3-O-glycosides
CH$FORMULA: C27H30O15
CH$EXACT_MASS: 594.522
CH$SMILES: CC1OC(OC2C(O)C(CO)OC(OC3=C(OC4=CC(O)=CC(O)=C4C3=O)C3=CC=C(O)C=C3)C2O)C(O)C(O)C1O
CH$IUPAC: InChI=1S/C27H30O15/c1-9-17(32)20(35)21(36)26(38-9)41-24-18(33)15(8-28)40-27(22(24)37)42-25-19(34)16-13(31)6-12(30)7-14(16)39-23(25)10-2-4-11(29)5-3-10/h2-7,9,15,17-18,20-22,24,26-33,35-37H,8H2,1H3
CH$LINK: INCHIKEY YFPYXTNSQOUHPS-UHFFFAOYSA-N
AC$INSTRUMENT: LC, Waters Acquity UPLC System; MS, Waters Xevo G2 Q-Tof
AC$INSTRUMENT_TYPE: LC-ESI-QTOF
AC$MASS_SPECTROMETRY: MS_TYPE MS2
AC$MASS_SPECTROMETRY: ION_MODE NEGATIVE
AC$MASS_SPECTROMETRY: COLLISION_ENERGY 6V
AC$MASS_SPECTROMETRY: DESOLVATION_GAS_FLOW 800/h
AC$MASS_SPECTROMETRY: DESOLVATION_TEMPERATURE 450 C
AC$MASS_SPECTROMETRY: IONIZATION ESI
AC$CHROMATOGRAPHY: CAPILLARY_VOLTAGE -2.75 kV
AC$CHROMATOGRAPHY: COLUMN_NAME Acquity bridged ethyl hybrid C18 (1.7 um, 2.1 mm * 100 mm, Waters)
AC$CHROMATOGRAPHY: COLUMN_TEMPERATURE 40 C
AC$CHROMATOGRAPHY: FLOW_GRADIENT A/B = (99.5%/0.5% at 0 min, 99.5%/0.5% at 0.1 min, 20%/80% at 10 min, 0.5%/99.5% at 10.1 min, 0.5%/99.5% at 12.0 min, 99.5%/0.5% at 12.1 min, 99.5%/0.5% at 15.0 min)
AC$CHROMATOGRAPHY: FLOW_RATE 0.3 ml/min at 0 min, 0.3 ml/min at 10 min, 0.4 ml/min at 10.1 min, 0.4 ml/min at 14.4 min, 0.3 ml/min at 14.5 min
AC$CHROMATOGRAPHY: RETENTION_TIME 4.151183
AC$CHROMATOGRAPHY: SOLVENT A water including 0.1% formic acid
AC$CHROMATOGRAPHY: SOLVENT B acetonitrile including 0.1% formic acid
MS$FOCUSED_ION: PRECURSOR_TYPE [M-H]-
MS$FOCUSED_ION: PRECURSOR_M/Z 593.1511938
PK$SPLASH: splash10-000i-0090000000-68e04c035e1e982fbcb9
PK$NUM_PEAK: 21
PK$PEAK: m/z int. rel.int.
  151.00037 12.0 12
  151.00673 6.0 6
  153.01656 6.0 6
  213.05205 8.0 8
  227.02895 9.0 9
  227.03741 13.0 13
  229.04575 25.0 25
  240.04117 5.0 5
  241.04265 5.0 5
  255.03177 52.0 52
  256.02127 7.0 7
  256.03812 16.0 16
  257.04626 19.0 19
  284.03165 545.0 544
  285.0394 1000.0 999
  286.04428 145.0 145
  287.03848 15.0 15
  287.05453 20.0 20
  327.05707 9.0 9
  593.13965 21.0 21
  593.15497 44.0 44
//
