ACCESSION: MSBNK-RIKEN-PR100510
RECORD_TITLE: Mesaconic acid; LC-ESI-QTOF; MS2; CE:Ramp 5-60 V; [M-H]-
DATE: 2016.01.19 (Created 2010.06.21, modified 2011.05.06)
AUTHORS: Matsuda F, Suzuki M, Sawada Y, Plant Science Center, RIKEN.
LICENSE: CC BY-SA
COMMENT: Acquisition and generation of the data is financially supported in part by CREST/JST.
CH$NAME: Mesaconic acid
CH$NAME: Methylfumaric acid
CH$NAME: trans-2-Methyl-2-butenedioic acid
CH$NAME: Mesaconate
CH$COMPOUND_CLASS: Dicarboxylic acids
CH$FORMULA: C5H6O4
CH$EXACT_MASS: 130.02661
CH$SMILES: OC(=O)C=C(C)C(O)=O
CH$IUPAC: InChI=1S/C5H6O4/c1-3(5(8)9)2-4(6)7/h2H,1H3,(H,6,7)(H,8,9)/b3-2+
CH$LINK: CAS 498-24-8
CH$LINK: CHEMSPIDER 10289044
CH$LINK: KEGG C01732
CH$LINK: PUBCHEM CID:638129
CH$LINK: INCHIKEY HNEGQIOMVPPMNR-NSCUHMNNSA-N
CH$LINK: COMPTOX DTXSID10883407
AC$INSTRUMENT: UPLC Q-Tof Premier, Waters
AC$INSTRUMENT_TYPE: LC-ESI-QTOF
AC$MASS_SPECTROMETRY: MS_TYPE MS2
AC$MASS_SPECTROMETRY: ION_MODE NEGATIVE
AC$MASS_SPECTROMETRY: COLLISION_ENERGY Ramp 5-60 V
AC$MASS_SPECTROMETRY: DATAFORMAT Continuum
AC$MASS_SPECTROMETRY: DESOLVATION_GAS_FLOW 600.0 L/Hr
AC$MASS_SPECTROMETRY: DESOLVATION_TEMPERATURE 400 C
AC$MASS_SPECTROMETRY: FRAGMENTATION_METHOD LOW-ENERGY CID
AC$MASS_SPECTROMETRY: IONIZATION ESI
AC$MASS_SPECTROMETRY: SOURCE_TEMPERATURE 120 C
AC$CHROMATOGRAPHY: CAPILLARY_VOLTAGE 3.0 kV
AC$CHROMATOGRAPHY: SAMPLING_CONE 23.0 V
AC$CHROMATOGRAPHY: SOLVENT A CH3CN(0.1%HCOOH)
AC$CHROMATOGRAPHY: SOLVENT B H2O(0.1%HCOOH)
MS$FOCUSED_ION: PRECURSOR_M/Z 129.01881
MS$FOCUSED_ION: PRECURSOR_TYPE [M-H]-
PK$SPLASH: splash10-000i-9100000000-8749d95b95760456aeed
PK$NUM_PEAK: 2
PK$PEAK: m/z int. rel.int.
  85.0291 34.51 999
  129.0188 5.546 161
//
