ACCESSION: MSBNK-RIKEN-PR301581
RECORD_TITLE: Vincamine; LC-ESI-QTOF; MS2
DATE: 2019.03.28
AUTHORS: Tetsuya Mori, Center for Sustainable Resource Science, RIKEN
LICENSE: CC BY-NC-SA
PUBLICATION: Tsugawa H., Nakabayashi R., Mori T., Yamada Y., Takahashi M., Rai A., Sugiyama R., Yamamoto H., Nakaya T., Yamazaki M., Kooke R., Bac-Molenaar JA., Oztolan-Erol N., Keurentjes JJB., Arita M., Saito K. (2019) "A cheminformatics approach to characterize metabolomes in stable-isotope-labeled organisms" Nature Methods 16(4):295-298. [doi:10.1038/s41592-019-0358-2]
COMMENT: registered in RIKEN PlaSMA
CH$NAME: Vincamine
CH$COMPOUND_CLASS: Eburnan-type alkaloids
CH$FORMULA: C21H26N2O3
CH$EXACT_MASS: 354.45
CH$SMILES: CCC12CCCN3CCC4=C(C13)N(C1=CC=CC=C41)C(O)(C2)C(=O)OC
CH$IUPAC: InChI=1S/C21H26N2O3/c1-3-20-10-6-11-22-12-9-15-14-7-4-5-8-16(14)23(17(15)18(20)22)21(25,13-20)19(24)26-2/h4-5,7-8,18,25H,3,6,9-13H2,1-2H3
CH$LINK: INCHIKEY RXPRRQLKFXBCSJ-UHFFFAOYSA-N
AC$INSTRUMENT: LC, Waters Acquity UPLC System; MS, Waters Xevo G2 Q-Tof
AC$INSTRUMENT_TYPE: LC-ESI-QTOF
AC$MASS_SPECTROMETRY: MS_TYPE MS2
AC$MASS_SPECTROMETRY: ION_MODE POSITIVE
AC$MASS_SPECTROMETRY: COLLISION_ENERGY 6V
AC$MASS_SPECTROMETRY: DESOLVATION_GAS_FLOW 800/h
AC$MASS_SPECTROMETRY: DESOLVATION_TEMPERATURE 450 C
AC$MASS_SPECTROMETRY: IONIZATION ESI
AC$CHROMATOGRAPHY: CAPILLARY_VOLTAGE +3.00 kV
AC$CHROMATOGRAPHY: COLUMN_NAME Acquity bridged ethyl hybrid C18 (1.7 um, 2.1 mm * 100 mm, Waters)
AC$CHROMATOGRAPHY: COLUMN_TEMPERATURE 40 C
AC$CHROMATOGRAPHY: FLOW_GRADIENT A/B = (99.5%/0.5% at 0 min, 99.5%/0.5% at 0.1 min, 20%/80% at 10 min, 0.5%/99.5% at 10.1 min, 0.5%/99.5% at 12.0 min, 99.5%/0.5% at 12.1 min, 99.5%/0.5% at 15.0 min)
AC$CHROMATOGRAPHY: FLOW_RATE 0.3 ml/min at 0 min, 0.3 ml/min at 10 min, 0.4 ml/min at 10.1 min, 0.4 ml/min at 14.4 min, 0.3 ml/min at 14.5 min
AC$CHROMATOGRAPHY: RETENTION_TIME 4.50125
AC$CHROMATOGRAPHY: SOLVENT A water including 0.1% formic acid
AC$CHROMATOGRAPHY: SOLVENT B acetonitrile including 0.1% formic acid
MS$FOCUSED_ION: PRECURSOR_TYPE [M+H]+
MS$FOCUSED_ION: PRECURSOR_M/Z 355.2016192
PK$SPLASH: splash10-0016-0294000000-ce75ecf07adf9c236aab
PK$NUM_PEAK: 248
PK$PEAK: m/z int. rel.int.
  69.07209 6.0 6
  84.08067 10.0 10
  93.07053 6.0 6
  95.08567 9.0 9
  96.08251 10.0 10
  98.09634 8.0 8
  107.08476 12.0 12
  108.08564 9.0 9
  110.09592 25.0 25
  111.10458 10.0 10
  117.0687 11.0 11
  120.08072 8.0 8
  122.06472 9.0 9
  122.09708 8.0 8
  123.07945 7.0 7
  124.11115 27.0 27
  130.06705 23.0 23
  131.06976 5.0 5
  132.07904 17.0 17
  134.10042 21.0 21
  135.084 10.0 10
  144.08211 500.0 500
  145.07161 8.0 8
  145.08357 75.0 75
  146.09882 7.0 7
  148.07335 7.0 7
  150.09526 8.0 8
  152.10736 217.0 217
  153.10443 7.0 7
  153.11394 16.0 16
  154.0883 6.0 6
  155.07901 6.0 6
  156.06435 5.0 5
  156.08391 12.0 12
  158.08781 10.0 10
  158.09959 14.0 14
  162.08591 8.0 8
  162.09583 15.0 15
  164.10822 6.0 6
  166.07323 6.0 6
  168.08116 10.0 10
  169.08688 7.0 7
  170.06561 6.0 6
  170.09555 18.0 18
  171.08612 5.0 5
  171.09557 7.0 7
  171.10944 7.0 7
  172.09251 10.0 10
  172.11011 7.0 7
  174.08917 6.0 6
  180.07701 10.0 10
  180.09824 7.0 7
  181.09657 10.0 10
  182.09421 16.0 16
  183.10339 8.0 8
  184.10297 12.0 12
  185.10486 7.0 7
  186.08838 6.0 6
  192.07671 7.0 7
  193.10156 11.0 11
  194.11676 40.0 40
  194.1266 26.0 26
  195.10162 6.0 6
  195.11188 9.0 9
  195.12357 9.0 9
  196.09647 12.0 12
  196.10727 13.0 13
  196.11694 10.0 10
  197.10803 7.0 7
  198.10686 6.0 6
  198.12268 18.0 18
  204.082 10.0 10
  205.08965 14.0 14
  206.08353 7.0 7
  206.10004 26.0 26
  206.11691 6.0 6
  207.10205 19.0 19
  208.07312 8.0 8
  208.0984 8.0 8
  208.11314 61.0 61
  209.11453 7.0 7
  209.12558 18.0 18
  210.1179 11.0 11
  210.12798 16.0 16
  212.12892 264.0 264
  213.12172 6.0 6
  213.13464 38.0 38
  216.10896 9.0 9
  217.08931 5.0 5
  218.09697 15.0 15
  219.08827 7.0 7
  219.10349 32.0 32
  219.11511 11.0 11
  220.07875 5.0 5
  220.11649 69.0 69
  221.12106 61.0 61
  222.11681 13.0 13
  222.1273 42.0 42
  222.13559 29.0 29
  223.12958 32.0 32
  223.1414 10.0 10
  224.10396 6.0 6
  224.13498 44.0 44
  224.14873 30.0 30
  225.13239 12.0 12
  225.14821 7.0 7
  232.11975 13.0 13
  233.10794 9.0 9
  233.12126 9.0 9
  234.10913 10.0 10
  234.12675 86.0 86
  234.14133 18.0 18
  235.11964 14.0 14
  235.13647 22.0 22
  235.14545 16.0 16
  236.10118 11.0 11
  236.11229 7.0 7
  236.13348 15.0 15
  236.14172 31.0 31
  236.15305 14.0 14
  237.08051 14.0 14
  237.12498 6.0 6
  237.14267 17.0 17
  237.15579 12.0 12
  238.12474 7.0 7
  238.16275 7.0 7
  239.09346 48.0 48
  240.09148 5.0 5
  240.11237 8.0 8
  242.12285 8.0 8
  244.11227 6.0 6
  246.13197 32.0 32
  247.09148 6.0 6
  247.12338 13.0 13
  248.1104 6.0 6
  248.13223 32.0 32
  248.14346 46.0 46
  248.15532 25.0 25
  249.11253 14.0 14
  249.14522 73.0 73
  250.08296 6.0 6
  250.1194 7.0 7
  250.13049 7.0 7
  250.16029 78.0 78
  251.15302 5.0 5
  251.16078 14.0 14
  252.0867 7.0 7
  252.10275 18.0 18
  252.14143 7.0 7
  253.10344 22.0 22
  253.11671 15.0 15
  253.13698 7.0 7
  253.17101 28.0 28
  254.11536 11.0 11
  254.12819 11.0 11
  254.17459 8.0 8
  260.13931 12.0 12
  260.15643 5.0 5
  261.15317 6.0 6
  262.11658 12.0 12
  262.12894 28.0 28
  262.15054 7.0 7
  263.15451 15.0 15
  264.10431 30.0 30
  264.12735 8.0 8
  265.10477 51.0 51
  265.11539 35.0 35
  265.12753 18.0 18
  265.14282 6.0 6
  266.11545 91.0 91
  266.12982 21.0 21
  266.15567 7.0 7
  267.12674 106.0 106
  268.1329 179.0 179
  268.14624 49.0 49
  269.13367 29.0 29
  269.14948 13.0 13
  274.11234 7.0 7
  275.12543 8.0 8
  276.12888 21.0 21
  276.14087 15.0 15
  277.13373 15.0 15
  277.1441 12.0 12
  277.16406 44.0 44
  277.17514 44.0 44
  277.1864 16.0 16
  278.11029 11.0 11
  278.12531 25.0 25
  278.15875 11.0 11
  278.17715 27.0 27
  278.19296 6.0 6
  279.10635 16.0 16
  279.12622 113.0 113
  279.18024 6.0 6
  280.09644 6.0 6
  280.1344 756.0 755
  280.16898 6.0 6
  280.18521 6.0 6
  281.13672 171.0 171
  281.15005 65.0 65
  282.14346 40.0 40
  282.15625 36.0 36
  283.14468 6.0 6
  283.16006 6.0 6
  290.11517 13.0 13
  290.13229 15.0 15
  291.12573 22.0 22
  291.1413 6.0 6
  292.12494 33.0 33
  292.138 56.0 56
  293.13129 26.0 26
  293.14664 46.0 46
  294.10065 5.0 5
  294.15018 940.0 939
  295.13412 18.0 18
  295.15265 143.0 143
  295.16907 70.0 70
  295.18451 122.0 122
  296.13922 10.0 10
  296.15979 29.0 29
  296.17346 12.0 12
  296.19223 32.0 32
  305.16806 12.0 12
  306.1416 22.0 22
  306.15564 28.0 28
  306.19214 6.0 6
  307.13278 15.0 15
  307.14917 68.0 68
  307.159 33.0 33
  308.11191 9.0 9
  308.12637 12.0 12
  308.16403 536.0 535
  309.15002 32.0 32
  309.17197 138.0 138
  310.16251 23.0 23
  310.17786 28.0 28
  310.19925 11.0 11
  320.1629 42.0 42
  326.16403 7.0 7
  326.18121 10.0 10
  337.134 9.0 9
  337.14676 13.0 13
  337.19345 1000.0 999
  338.19464 308.0 308
  339.17542 10.0 10
  339.20145 50.0 50
  355.203 168.0 168
  355.22229 32.0 32
//
