ACCESSION: MSBNK-RIKEN-PR100077
RECORD_TITLE: (-)-Nicotine; LC-ESI-QTOF; MS2; CE:Ramp 5-60 V; [M+H]+
DATE: 2016.01.19 (Created 2009.09.10, modified 2011.05.06)
AUTHORS: Matsuda F, Suzuki M, Sawada Y, Plant Science Center, RIKEN.
LICENSE: CC BY-SA
COMMENT: Acquisition and generation of the data is financially supported in part by CREST/JST.
COMMENT: (-)-Nicotine ( solution 1.0 mg/mL+/-5% in methanol)
CH$NAME: (-)-Nicotine
CH$NAME: beta-Pyridyl-alpha-N-methylpyrrolidine
CH$COMPOUND_CLASS: Nicotine
CH$FORMULA: C10H14N2
CH$EXACT_MASS: 162.11570
CH$SMILES: CN(C2)C(CC2)c(c1)cncc1
CH$IUPAC: InChI=1S/C10H14N2/c1-12-7-3-5-10(12)9-4-2-6-11-8-9/h2,4,6,8,10H,3,5,7H2,1H3/t10-/m0/s1
CH$LINK: CAS 54-11-5
CH$LINK: CHEMSPIDER 80863
CH$LINK: KEGG C00745
CH$LINK: KNAPSACK C00002057
CH$LINK: PUBCHEM CID:89594
CH$LINK: INCHIKEY SNICXCGAKADSCV-JTQLQIEISA-N
CH$LINK: COMPTOX DTXSID1020930
AC$INSTRUMENT: UPLC Q-Tof Premier, Waters
AC$INSTRUMENT_TYPE: LC-ESI-QTOF
AC$MASS_SPECTROMETRY: MS_TYPE MS2
AC$MASS_SPECTROMETRY: ION_MODE POSITIVE
AC$MASS_SPECTROMETRY: COLLISION_ENERGY Ramp 5-60 V
AC$MASS_SPECTROMETRY: DATAFORMAT Continuum
AC$MASS_SPECTROMETRY: DESOLVATION_GAS_FLOW 600.0 L/Hr
AC$MASS_SPECTROMETRY: DESOLVATION_TEMPERATURE 400 C
AC$MASS_SPECTROMETRY: FRAGMENTATION_METHOD LOW-ENERGY CID
AC$MASS_SPECTROMETRY: IONIZATION ESI
AC$MASS_SPECTROMETRY: SOURCE_TEMPERATURE 120 C
AC$CHROMATOGRAPHY: CAPILLARY_VOLTAGE 3.0 kV
AC$CHROMATOGRAPHY: SAMPLING_CONE 23.0 V
AC$CHROMATOGRAPHY: SOLVENT A CH3CN(0.1%HCOOH)
AC$CHROMATOGRAPHY: SOLVENT B H2O(0.1%HCOOH)
MS$FOCUSED_ION: PRECURSOR_M/Z 163.12349
MS$FOCUSED_ION: PRECURSOR_TYPE [M+H]+
PK$SPLASH: splash10-001i-0900000000-09e9b29571abf3a52e44
PK$NUM_PEAK: 8
PK$PEAK: m/z int. rel.int.
  80.0522 333 110
  84.0835 590.7 195
  106.0683 1101 363
  117.0606 2236 738
  120.0846 515.8 170
  130.0683 3026 999
  132.0837 2315 764
  163.1235 2584 853
//
