ACCESSION: MSBNK-RIKEN-PR310602
RECORD_TITLE: Gelsevirine; LC-ESI-QTOF; MS2
DATE: 2019.03.28
AUTHORS: Tetsuya Mori, Center for Sustainable Resource Science, RIKEN
LICENSE: CC BY-NC-SA
PUBLICATION: Tsugawa H., Nakabayashi R., Mori T., Yamada Y., Takahashi M., Rai A., Sugiyama R., Yamamoto H., Nakaya T., Yamazaki M., Kooke R., Bac-Molenaar JA., Oztolan-Erol N., Keurentjes JJB., Arita M., Saito K. (2019) "A cheminformatics approach to characterize metabolomes in stable-isotope-labeled organisms" Nature Methods 16(4):295-298. [doi:10.1038/s41592-019-0358-2]
COMMENT: Annotation level-1
CH$NAME: Gelsevirine
CH$COMPOUND_CLASS: Alkaloids
CH$FORMULA: C21H24N2O3
CH$EXACT_MASS: 352.434
CH$SMILES: CON1C(=O)C2(C3C4C5COC2CC5C3(CN4C)C=C)C2=C1C=CC=C2
CH$IUPAC: InChI=1S/C21H24N2O3/c1-4-20-11-22(2)17-12-10-26-16(9-14(12)20)21(18(17)20)13-7-5-6-8-15(13)23(25-3)19(21)24/h4-8,12,14,16-18H,1,9-11H2,2-3H3
CH$LINK: INCHIKEY SSSCMFCWHWCCEH-UHFFFAOYSA-N
AC$INSTRUMENT: LC, Waters Acquity UPLC System; MS, Waters Xevo G2 Q-Tof
AC$INSTRUMENT_TYPE: LC-ESI-QTOF
AC$MASS_SPECTROMETRY: MS_TYPE MS2
AC$MASS_SPECTROMETRY: ION_MODE POSITIVE
AC$MASS_SPECTROMETRY: COLLISION_ENERGY 6V
AC$MASS_SPECTROMETRY: DESOLVATION_GAS_FLOW 800/h
AC$MASS_SPECTROMETRY: DESOLVATION_TEMPERATURE 450 C
AC$MASS_SPECTROMETRY: IONIZATION ESI
AC$CHROMATOGRAPHY: CAPILLARY_VOLTAGE +3.00 kV
AC$CHROMATOGRAPHY: COLUMN_NAME Acquity bridged ethyl hybrid C18 (1.7 um, 2.1 mm * 100 mm, Waters)
AC$CHROMATOGRAPHY: COLUMN_TEMPERATURE 40 C
AC$CHROMATOGRAPHY: FLOW_GRADIENT A/B = (99.5%/0.5% at 0 min, 99.5%/0.5% at 0.1 min, 20%/80% at 10 min, 0.5%/99.5% at 10.1 min, 0.5%/99.5% at 12.0 min, 99.5%/0.5% at 12.1 min, 99.5%/0.5% at 15.0 min)
AC$CHROMATOGRAPHY: FLOW_RATE 0.3 ml/min at 0 min, 0.3 ml/min at 10 min, 0.4 ml/min at 10.1 min, 0.4 ml/min at 14.4 min, 0.3 ml/min at 14.5 min
AC$CHROMATOGRAPHY: RETENTION_TIME 4.05
AC$CHROMATOGRAPHY: SOLVENT A water including 0.1% formic acid
AC$CHROMATOGRAPHY: SOLVENT B acetonitrile including 0.1% formic acid
MS$FOCUSED_ION: PRECURSOR_TYPE [M+H]+
MS$FOCUSED_ION: PRECURSOR_M/Z 353.18597
PK$SPLASH: splash10-0uk9-0139000000-31aeeb19c0876aa4b41f
PK$NUM_PEAK: 608
PK$PEAK: m/z int. rel.int.
  57.06076 38.0 1
  58.0636 30.0 1
  68.03913 32.0 1
  68.04841 38.0 1
  69.03091 17.0 0
  70.03762 17.0 0
  70.04263 22.0 1
  70.0604 70.0 2
  70.0647 165.0 5
  70.06935 37.0 1
  71.73114 20.0 1
  74.05323 29.0 1
  82.05951 32.0 1
  83.06446 26.0 1
  83.06994 38.0 1
  84.07928 69.0 2
  84.08325 55.0 2
  86.05504 31.0 1
  86.05946 60.0 2
  87.06699 28.0 1
  87.44157 17.0 0
  88.07347 26.0 1
  93.05479 24.0 1
  94.05954 44.0 1
  94.06741 68.0 2
  95.05804 24.0 1
  95.06906 27.0 1
  95.07323 35.0 1
  96.08318 38.0 1
  97.08851 25.0 1
  98.06396 28.0 1
  99.07318 18.0 1
  100.07468 162.0 5
  106.0631 27.0 1
  106.07827 26.0 1
  107.06892 99.0 3
  107.15394 21.0 1
  108.08038 573.0 16
  108.08603 142.0 4
  109.08412 141.0 4
  109.09186 27.0 1
  110.01233 25.0 1
  110.02878 29.0 1
  110.0476 24.0 1
  110.05817 17.0 0
  110.06655 20.0 1
  110.07642 28.0 1
  110.09589 904.0 26
  111.09631 101.0 3
  111.10509 24.0 1
  112.16155 23.0 1
  114.08982 54.0 2
  115.05302 30.0 1
  116.05499 20.0 1
  117.07442 41.0 1
  118.06513 59.0 2
  118.72926 23.0 1
  119.08459 45.0 1
  120.07973 312.0 9
  120.08518 95.0 3
  121.07702 30.0 1
  121.09115 58.0 2
  122.08916 49.0 1
  122.09733 49.0 1
  123.10194 23.0 1
  124.0702 23.0 1
  126.02293 27.0 1
  126.08783 45.0 1
  129.06761 95.0 3
  129.57523 27.0 1
  130.06474 97.0 3
  131.06793 22.0 1
  131.08867 23.0 1
  132.045 107.0 3
  132.07909 152.0 4
  133.04408 32.0 1
  133.05043 27.0 1
  133.06085 58.0 2
  133.0784 42.0 1
  133.088 100.0 3
  134.07187 22.0 1
  134.08043 35.0 1
  134.09871 234.0 7
  135.08305 34.0 1
  135.10558 52.0 1
  136.07191 24.0 1
  136.11298 56.0 2
  137.08411 55.0 2
  138.08911 29.0 1
  139.09207 25.0 1
  139.10323 126.0 4
  140.10542 35.0 1
  140.47424 18.0 1
  141.07091 25.0 1
  142.32968 18.0 1
  144.07935 130.0 4
  145.02823 20.0 1
  145.04823 74.0 2
  145.07387 24.0 1
  145.09114 24.0 1
  146.01411 23.0 1
  146.0562 45.0 1
  146.06386 38.0 1
  146.07619 36.0 1
  146.08405 30.0 1
  146.09096 49.0 1
  146.10155 60.0 2
  147.06158 33.0 1
  147.09834 24.0 1
  148.04033 30.0 1
  148.07788 22.0 1
  149.1181 69.0 2
  150.08545 63.0 2
  150.09386 128.0 4
  150.94856 17.0 0
  151.06952 39.0 1
  151.09183 76.0 2
  151.10117 386.0 11
  152.10411 118.0 3
  153.05902 30.0 1
  154.0742 31.0 1
  154.51749 18.0 1
  156.05965 28.0 1
  156.07503 17.0 0
  156.08247 41.0 1
  157.08646 22.0 1
  158.05539 170.0 5
  158.09206 22.0 1
  158.10146 28.0 1
  159.06398 108.0 3
  159.07877 30.0 1
  159.09436 50.0 1
  159.10547 79.0 2
  159.12398 17.0 0
  159.91946 45.0 1
  160.08315 27.0 1
  160.10675 108.0 3
  161.07005 76.0 2
  161.11531 28.0 1
  162.05478 27.0 1
  162.08809 55.0 2
  162.09729 20.0 1
  162.11357 60.0 2
  162.12636 18.0 1
  162.3277 44.0 1
  164.06004 35.0 1
  164.09486 28.0 1
  164.10597 117.0 3
  165.11615 17.0 0
  166.06561 118.0 3
  167.04915 24.0 1
  167.06723 116.0 3
  167.08253 35.0 1
  167.09267 52.0 1
  168.08498 20.0 1
  170.08514 64.0 2
  170.09636 19.0 1
  171.03708 17.0 0
  171.07205 38.0 1
  171.09613 20.0 1
  172.07452 55.0 2
  172.10037 40.0 1
  172.11798 27.0 1
  173.07335 55.0 2
  176.1035 53.0 2
  177.11143 55.0 2
  178.0571 123.0 3
  178.97562 23.0 1
  179.06822 21.0 1
  179.08156 109.0 3
  179.08928 42.0 1
  180.07207 48.0 1
  180.08159 120.0 3
  181.05606 49.0 1
  181.07643 36.0 1
  181.08487 24.0 1
  181.30466 32.0 1
  182.09955 28.0 1
  183.07292 115.0 3
  184.07507 277.0 8
  184.09589 25.0 1
  185.05482 17.0 0
  185.07507 46.0 1
  185.08476 27.0 1
  185.10507 37.0 1
  186.05965 32.0 1
  186.12386 111.0 3
  186.21753 17.0 0
  187.09842 41.0 1
  187.50702 17.0 0
  188.05283 18.0 1
  188.07256 38.0 1
  189.06752 31.0 1
  189.43404 23.0 1
  190.06535 28.0 1
  190.07384 30.0 1
  190.09071 19.0 1
  190.11392 29.0 1
  190.12633 106.0 3
  190.98193 33.0 1
  191.08696 67.0 2
  192.07246 41.0 1
  192.07938 64.0 2
  192.09338 22.0 1
  192.44365 36.0 1
  193.07626 38.0 1
  193.10236 21.0 1
  194.05814 17.0 0
  194.09636 268.0 8
  195.04861 21.0 1
  195.06581 269.0 8
  195.07497 125.0 4
  195.09123 17.0 0
  195.10854 47.0 1
  196.02121 22.0 1
  196.06837 74.0 2
  196.07768 181.0 5
  196.10399 23.0 1
  196.11296 89.0 3
  196.67526 17.0 0
  197.06845 59.0 2
  197.07678 61.0 2
  197.10982 56.0 2
  198.06944 20.0 1
  198.89122 25.0 1
  199.02484 25.0 1
  199.04979 29.0 1
  199.06885 47.0 1
  199.08437 76.0 2
  199.09398 25.0 1
  200.07448 66.0 2
  200.09428 48.0 1
  201.07559 28.0 1
  201.10295 33.0 1
  202.07701 65.0 2
  202.13634 40.0 1
  203.08119 95.0 3
  203.10297 19.0 1
  204.05582 34.0 1
  204.07465 127.0 4
  205.07404 71.0 2
  205.09442 48.0 1
  205.103 20.0 1
  205.19731 18.0 1
  206.08966 56.0 2
  206.10191 102.0 3
  206.27585 18.0 1
  207.07056 20.0 1
  207.09764 77.0 2
  207.11237 20.0 1
  207.87508 23.0 1
  208.06433 31.0 1
  208.07533 244.0 7
  208.09975 38.0 1
  208.11815 53.0 2
  209.08707 161.0 5
  209.40312 28.0 1
  210.07491 20.0 1
  210.08961 80.0 2
  210.10007 110.0 3
  210.30751 26.0 1
  211.00284 25.0 1
  211.08278 585.0 17
  211.09419 160.0 5
  211.11406 26.0 1
  211.12447 24.0 1
  212.05077 28.0 1
  212.07542 98.0 3
  212.08899 139.0 4
  212.10666 46.0 1
  212.12462 29.0 1
  212.51224 22.0 1
  213.06799 23.0 1
  213.08022 21.0 1
  213.09947 83.0 2
  213.10934 20.0 1
  213.36749 50.0 1
  213.53984 33.0 1
  214.06644 28.0 1
  214.10498 28.0 1
  215.03735 19.0 1
  215.08205 71.0 2
  216.06735 23.0 1
  216.08081 92.0 3
  216.09369 40.0 1
  217.07561 36.0 1
  217.0899 154.0 4
  217.10522 20.0 1
  218.09634 257.0 7
  219.08458 32.0 1
  220.05557 21.0 1
  220.0741 105.0 3
  220.08949 20.0 1
  220.10793 103.0 3
  220.12276 54.0 2
  220.13399 66.0 2
  220.22928 22.0 1
  221.06454 28.0 1
  221.08244 65.0 2
  221.09932 29.0 1
  221.11705 79.0 2
  222.04384 18.0 1
  222.06419 74.0 2
  222.08829 132.0 4
  222.11481 55.0 2
  222.13145 55.0 2
  222.23358 20.0 1
  222.47324 20.0 1
  223.08324 36.0 1
  223.09267 71.0 2
  223.10178 144.0 4
  223.12868 166.0 5
  223.83954 23.0 1
  224.0938 63.0 2
  224.10719 59.0 2
  224.13025 32.0 1
  224.14627 26.0 1
  224.71065 18.0 1
  225.05972 20.0 1
  225.09441 84.0 2
  225.12009 18.0 1
  225.39481 23.0 1
  226.12518 39.0 1
  227.06805 103.0 3
  227.08269 38.0 1
  227.12711 25.0 1
  228.07065 52.0 1
  228.08212 59.0 2
  228.09346 91.0 3
  228.30293 23.0 1
  229.09042 64.0 2
  230.08488 19.0 1
  230.10005 105.0 3
  230.11674 21.0 1
  231.08342 25.0 1
  231.10387 19.0 1
  231.11737 84.0 2
  231.13252 23.0 1
  232.06306 35.0 1
  232.08652 52.0 1
  232.10576 139.0 4
  232.12422 41.0 1
  233.08171 25.0 1
  233.09615 50.0 1
  233.1051 92.0 3
  233.11578 83.0 2
  234.07722 121.0 3
  234.08615 126.0 4
  234.09717 69.0 2
  234.1129 63.0 2
  234.1292 71.0 2
  235.06723 40.0 1
  235.07825 60.0 2
  235.10083 234.0 7
  235.11833 117.0 3
  235.13803 22.0 1
  235.21585 23.0 1
  236.07005 21.0 1
  236.0869 43.0 1
  236.10049 62.0 2
  236.11021 191.0 5
  236.12862 56.0 2
  236.13963 17.0 0
  237.05881 20.0 1
  237.07726 20.0 1
  237.10126 350.0 10
  238.09007 44.0 1
  238.1048 156.0 4
  238.11557 81.0 2
  238.13998 44.0 1
  239.09583 32.0 1
  239.11629 47.0 1
  239.45 22.0 1
  240.07368 21.0 1
  240.09152 46.0 1
  240.09985 18.0 1
  241.08313 64.0 2
  241.09587 224.0 6
  241.35953 17.0 0
  242.07986 49.0 1
  242.09929 274.0 8
  243.07289 42.0 1
  243.10448 26.0 1
  243.11427 25.0 1
  243.97334 45.0 1
  244.07784 18.0 1
  244.08954 43.0 1
  244.10857 222.0 6
  245.08243 44.0 1
  245.09091 34.0 1
  245.10448 46.0 1
  245.11687 60.0 2
  245.75352 20.0 1
  246.08601 180.0 5
  246.09601 195.0 6
  246.13846 29.0 1
  247.09389 183.0 5
  247.10858 140.0 4
  247.12498 38.0 1
  247.1409 30.0 1
  247.28343 28.0 1
  248.07385 41.0 1
  248.08708 30.0 1
  248.09381 49.0 1
  248.11223 384.0 11
  248.14273 20.0 1
  249.09685 106.0 3
  249.10777 188.0 5
  249.12961 20.0 1
  249.26566 22.0 1
  250.08052 22.0 1
  250.09967 25.0 1
  250.11424 94.0 3
  250.13068 20.0 1
  250.95186 17.0 0
  251.10521 22.0 1
  251.12944 188.0 5
  251.15428 24.0 1
  252.09712 20.0 1
  252.12048 35.0 1
  252.13271 54.0 2
  252.72878 18.0 1
  253.10887 27.0 1
  253.1265 36.0 1
  254.09557 67.0 2
  256.10696 145.0 4
  257.08841 45.0 1
  257.10733 20.0 1
  258.0939 355.0 10
  259.09116 73.0 2
  259.10147 46.0 1
  260.07971 51.0 1
  260.09485 228.0 6
  260.10925 1378.0 39
  261.02225 23.0 1
  261.08463 21.0 1
  261.1004 77.0 2
  261.11322 326.0 9
  261.13779 245.0 7
  261.81549 17.0 0
  261.92825 17.0 0
  262.06311 18.0 1
  262.09613 90.0 3
  262.1127 203.0 6
  262.12186 266.0 8
  262.15198 210.0 6
  263.04526 23.0 1
  263.09848 23.0 1
  263.11072 152.0 4
  263.12216 237.0 7
  263.13092 190.0 5
  263.15601 88.0 2
  264.09671 48.0 1
  264.10815 60.0 2
  264.12476 91.0 3
  264.13712 22.0 1
  264.17798 33.0 1
  265.08585 25.0 1
  265.14136 133.0 4
  265.17191 32.0 1
  265.1972 25.0 1
  266.17456 20.0 1
  267.1011 30.0 1
  267.12305 19.0 1
  267.17715 23.0 1
  268.1106 17.0 0
  268.12723 32.0 1
  272.10037 384.0 11
  273.11319 598.0 17
  273.27676 20.0 1
  274.09116 22.0 1
  274.10944 44.0 1
  274.12418 276.0 8
  275.03745 31.0 1
  275.11368 114.0 3
  275.13397 94.0 3
  275.1615 51.0 1
  276.08624 17.0 0
  276.10605 62.0 2
  276.12592 91.0 3
  276.15649 120.0 3
  276.16977 113.0 3
  277.13223 81.0 2
  277.14828 56.0 2
  277.16476 134.0 4
  278.04126 17.0 0
  278.10562 23.0 1
  278.11642 21.0 1
  278.14389 26.0 1
  279.10275 23.0 1
  279.11407 54.0 2
  279.12598 230.0 7
  279.14188 73.0 2
  279.16586 94.0 3
  280.12415 65.0 2
  280.13919 153.0 4
  280.16959 330.0 9
  280.18188 90.0 3
  281.09741 28.0 1
  281.12674 21.0 1
  281.17651 132.0 4
  282.13385 44.0 1
  282.68063 22.0 1
  284.87848 28.0 1
  286.66113 30.0 1
  288.8739 38.0 1
  289.02115 23.0 1
  289.07562 26.0 1
  289.09677 33.0 1
  289.10785 54.0 2
  289.13757 453.0 13
  289.15039 135.0 4
  290.12167 159.0 5
  290.74344 22.0 1
  291.11792 55.0 2
  291.12936 170.0 5
  291.15283 1150.0 33
  291.25571 20.0 1
  292.10562 27.0 1
  292.13028 87.0 2
  292.14627 165.0 5
  292.16138 214.0 6
  293.11755 64.0 2
  293.14069 48.0 1
  293.15491 159.0 5
  293.17398 56.0 2
  294.12988 27.0 1
  294.14935 32.0 1
  294.16791 171.0 5
  294.18045 258.0 7
  294.23904 21.0 1
  295.15924 21.0 1
  295.17636 92.0 3
  295.19113 51.0 1
  296.1655 36.0 1
  297.14178 17.0 0
  297.30075 17.0 0
  303.11398 18.0 1
  303.15082 357.0 10
  304.15848 864.0 24
  304.93982 20.0 1
  305.12384 17.0 0
  305.14267 45.0 1
  305.15149 126.0 4
  305.16595 84.0 2
  306.16992 25.0 1
  307.13449 47.0 1
  307.14484 165.0 5
  307.16837 17.0 0
  308.1207 29.0 1
  308.15158 36.0 1
  309.13919 28.0 1
  309.15414 26.0 1
  310.13943 20.0 1
  312.12988 24.0 1
  312.90103 28.0 1
  314.19601 24.0 1
  317.02594 17.0 0
  320.98331 20.0 1
  321.13614 48.0 1
  321.151 51.0 1
  321.16055 77.0 2
  321.18915 22.0 1
  321.20267 18.0 1
  321.58719 20.0 1
  321.7312 18.0 1
  322.01804 38.0 1
  322.07965 26.0 1
  322.12515 252.0 7
  322.16809 13812.0 391
  322.22131 75.0 2
  322.29776 17.0 0
  322.88803 20.0 1
  322.96643 19.0 1
  323.05582 18.0 1
  323.11801 42.0 1
  323.17203 4239.0 120
  323.22693 37.0 1
  323.63962 21.0 1
  323.67319 17.0 0
  323.7384 37.0 1
  324.14178 22.0 1
  324.17505 669.0 19
  324.32169 20.0 1
  324.42072 29.0 1
  324.69409 22.0 1
  325.18027 63.0 2
  325.1947 31.0 1
  326.40271 24.0 1
  326.67731 18.0 1
  327.35815 18.0 1
  330.19592 17.0 0
  337.14526 18.0 1
  337.2536 22.0 1
  344.79041 33.0 1
  349.57541 48.0 1
  352.20215 28.0 1
  352.66306 21.0 1
  352.86569 27.0 1
  353.03497 36.0 1
  353.086 17.0 0
  353.12039 204.0 6
  353.13614 280.0 8
  353.18588 35275.0 999
  353.21811 41.0 1
  353.24106 730.0 21
  353.31699 47.0 1
  353.32721 24.0 1
//
