ACCESSION: MSBNK-RIKEN-PR301785
RECORD_TITLE: Oxyacanthine; LC-ESI-QTOF; MS2
DATE: 2019.03.28
AUTHORS: Tetsuya Mori, Center for Sustainable Resource Science, RIKEN
LICENSE: CC BY-NC-SA
PUBLICATION: Tsugawa H., Nakabayashi R., Mori T., Yamada Y., Takahashi M., Rai A., Sugiyama R., Yamamoto H., Nakaya T., Yamazaki M., Kooke R., Bac-Molenaar JA., Oztolan-Erol N., Keurentjes JJB., Arita M., Saito K. (2019) "A cheminformatics approach to characterize metabolomes in stable-isotope-labeled organisms" Nature Methods 16(4):295-298. [doi:10.1038/s41592-019-0358-2]
COMMENT: registered in RIKEN PlaSMA
CH$NAME: Oxyacanthine
CH$COMPOUND_CLASS: Lignans, neolignans and related compounds
CH$FORMULA: C37H40N2O6
CH$EXACT_MASS: 608.735
CH$SMILES: COC1=C2OC3=C4C(CC5=CC=C(OC6=C(O)C=CC(C[C@H]7N(C)CCC(=C1)C7=C2)=C6)C=C5)N(C)CCC4=CC(OC)=C3OC
CH$IUPAC: InChI=1S/C37H40N2O6/c1-38-14-12-24-19-32(41-3)33-21-27(24)28(38)17-23-8-11-30(40)31(18-23)44-26-9-6-22(7-10-26)16-29-35-25(13-15-39(29)2)20-34(42-4)36(43-5)37(35)45-33/h6-11,18-21,28-29,40H,12-17H2,1-5H3/t28-,29?/m1/s1
CH$LINK: INCHIKEY HGNHIFJNOKGSKI-FICMROCWSA-N
AC$INSTRUMENT: LC, Waters Acquity UPLC System; MS, Waters Xevo G2 Q-Tof
AC$INSTRUMENT_TYPE: LC-ESI-QTOF
AC$MASS_SPECTROMETRY: MS_TYPE MS2
AC$MASS_SPECTROMETRY: ION_MODE POSITIVE
AC$MASS_SPECTROMETRY: COLLISION_ENERGY 6V
AC$MASS_SPECTROMETRY: DESOLVATION_GAS_FLOW 800/h
AC$MASS_SPECTROMETRY: DESOLVATION_TEMPERATURE 450 C
AC$MASS_SPECTROMETRY: IONIZATION ESI
AC$CHROMATOGRAPHY: CAPILLARY_VOLTAGE +3.00 kV
AC$CHROMATOGRAPHY: COLUMN_NAME Acquity bridged ethyl hybrid C18 (1.7 um, 2.1 mm * 100 mm, Waters)
AC$CHROMATOGRAPHY: COLUMN_TEMPERATURE 40 C
AC$CHROMATOGRAPHY: FLOW_GRADIENT A/B = (99.5%/0.5% at 0 min, 99.5%/0.5% at 0.1 min, 20%/80% at 10 min, 0.5%/99.5% at 10.1 min, 0.5%/99.5% at 12.0 min, 99.5%/0.5% at 12.1 min, 99.5%/0.5% at 15.0 min)
AC$CHROMATOGRAPHY: FLOW_RATE 0.3 ml/min at 0 min, 0.3 ml/min at 10 min, 0.4 ml/min at 10.1 min, 0.4 ml/min at 14.4 min, 0.3 ml/min at 14.5 min
AC$CHROMATOGRAPHY: RETENTION_TIME 3.764483
AC$CHROMATOGRAPHY: SOLVENT A water including 0.1% formic acid
AC$CHROMATOGRAPHY: SOLVENT B acetonitrile including 0.1% formic acid
MS$FOCUSED_ION: PRECURSOR_TYPE [M+H]+
MS$FOCUSED_ION: PRECURSOR_M/Z 609.2959135
PK$SPLASH: splash10-00e9-0986130000-caf10177295f9c1cc578
PK$NUM_PEAK: 279
PK$PEAK: m/z int. rel.int.
  56.04816 49.0 49
  91.06158 54.0 54
  107.04961 83.0 83
  107.05413 67.0 67
  108.05559 45.0 45
  116.06213 45.0 45
  119.03545 60.0 60
  127.04105 51.0 51
  128.05843 45.0 45
  131.04639 43.0 43
  133.07825 56.0 56
  133.08763 38.0 38
  143.06267 58.0 58
  144.082 38.0 38
  145.06786 150.0 150
  145.08351 45.0 45
  146.08832 81.0 81
  146.10075 45.0 45
  148.07797 103.0 103
  149.07639 56.0 56
  151.07367 92.0 92
  157.093 47.0 47
  158.05867 40.0 40
  159.04352 38.0 38
  159.08318 92.0 92
  159.83949 43.0 43
  160.06464 54.0 54
  161.05447 47.0 47
  161.07834 38.0 38
  161.08583 51.0 51
  161.17993 38.0 38
  167.06992 43.0 43
  167.07956 76.0 76
  167.73251 54.0 54
  172.09003 43.0 43
  173.06259 47.0 47
  174.09088 1000.0 999
  175.09828 257.0 257
  176.06964 38.0 38
  176.08032 47.0 47
  176.10004 78.0 78
  176.10951 103.0 103
  176.11841 47.0 47
  176.94818 51.0 51
  177.05533 65.0 65
  177.07497 40.0 40
  177.10063 49.0 49
  177.10815 45.0 45
  179.76443 40.0 40
  181.08438 47.0 47
  182.07019 72.0 72
  187.0762 40.0 40
  188.0654 45.0 45
  188.07291 51.0 51
  189.07423 40.0 40
  189.11761 40.0 40
  190.08594 192.0 192
  190.66872 65.0 65
  191.07629 45.0 45
  191.09262 273.0 273
  192.09023 51.0 51
  192.09894 103.0 103
  193.03316 67.0 67
  193.08653 51.0 51
  193.09583 74.0 74
  194.06857 40.0 40
  194.07359 85.0 85
  194.0844 47.0 47
  199.0762 114.0 114
  202.08659 87.0 87
  203.08264 43.0 43
  204.10664 264.0 264
  205.07324 45.0 45
  206.08023 136.0 136
  206.09373 47.0 47
  206.10965 92.0 92
  207.06874 40.0 40
  207.09155 51.0 51
  208.05168 54.0 54
  209.08966 38.0 38
  211.06818 85.0 85
  211.10365 43.0 43
  213.03032 74.0 74
  213.09079 92.0 92
  216.0867 94.0 94
  217.10893 119.0 119
  218.0733 94.0 94
  219.11185 54.0 54
  220.07779 60.0 60
  220.09135 54.0 54
  220.1163 40.0 40
  221.09792 78.0 78
  222.07367 45.0 45
  222.1102 78.0 78
  222.11873 49.0 49
  223.06891 56.0 56
  224.07207 49.0 49
  225.08403 121.0 121
  225.09502 150.0 150
  227.11259 112.0 112
  228.1156 69.0 69
  231.06482 49.0 49
  234.10867 40.0 40
  235.10556 58.0 58
  235.11572 60.0 60
  235.73401 45.0 45
  237.0764 45.0 45
  238.08679 38.0 38
  238.10239 96.0 96
  240.11755 67.0 67
  241.0862 38.0 38
  242.06494 40.0 40
  243.08238 38.0 38
  244.08539 51.0 51
  246.12593 43.0 43
  248.05577 38.0 38
  249.08829 38.0 38
  250.05475 60.0 60
  250.10538 56.0 56
  251.0936 40.0 40
  251.10867 49.0 49
  252.10081 43.0 43
  252.11182 56.0 56
  254.10004 83.0 83
  255.11505 60.0 60
  255.13254 49.0 49
  261.04147 49.0 49
  264.15298 40.0 40
  265.08572 45.0 45
  265.09729 49.0 49
  266.10938 110.0 110
  266.16464 38.0 38
  267.10474 45.0 45
  267.13199 45.0 45
  267.15698 54.0 54
  267.21036 56.0 56
  275.11865 105.0 105
  276.07678 65.0 65
  276.10367 45.0 45
  279.10385 38.0 38
  281.11075 38.0 38
  283.11444 51.0 51
  288.14282 54.0 54
  289.1189 47.0 47
  290.08807 45.0 45
  291.10919 67.0 67
  292.1304 38.0 38
  295.1189 45.0 45
  295.12817 45.0 45
  298.11777 83.0 83
  301.13464 38.0 38
  303.1246 58.0 58
  307.12573 60.0 60
  308.09836 244.0 244
  308.13971 89.0 89
  310.12051 43.0 43
  312.1488 38.0 38
  315.10931 45.0 45
  316.13065 45.0 45
  317.08215 47.0 47
  319.10199 47.0 47
  320.08783 51.0 51
  320.10669 56.0 56
  321.12363 43.0 43
  324.13428 43.0 43
  324.15179 114.0 114
  326.11914 38.0 38
  331.16043 60.0 60
  332.11975 54.0 54
  332.15149 60.0 60
  335.12466 58.0 58
  335.14215 49.0 49
  335.15674 38.0 38
  336.10126 43.0 43
  337.10736 38.0 38
  337.1196 40.0 40
  338.15567 114.0 114
  339.08292 51.0 51
  339.14108 45.0 45
  340.00391 40.0 40
  345.10025 56.0 56
  346.11188 38.0 38
  346.12732 47.0 47
  346.15005 38.0 38
  350.11694 45.0 45
  351.15353 45.0 45
  352.10361 56.0 56
  352.15671 38.0 38
  353.15421 85.0 85
  353.18268 45.0 45
  354.13693 45.0 45
  354.1524 43.0 43
  354.16531 47.0 47
  356.11545 67.0 67
  356.18112 43.0 43
  363.17078 67.0 67
  365.17444 40.0 40
  366.14893 60.0 60
  367.15005 87.0 87
  371.08313 87.0 87
  373.1304 38.0 38
  379.15662 45.0 45
  381.1127 47.0 47
  381.13901 125.0 125
  381.1618 51.0 51
  381.18146 271.0 271
  382.18347 242.0 242
  386.15536 67.0 67
  386.17569 45.0 45
  387.1138 101.0 101
  389.78305 63.0 63
  395.19049 81.0 81
  396.17551 43.0 43
  397.19876 43.0 43
  401.17337 40.0 40
  407.14758 54.0 54
  418.21042 56.0 56
  420.15875 40.0 40
  424.20688 45.0 45
  428.13544 58.0 58
  431.18277 56.0 56
  435.14206 49.0 49
  439.16641 87.0 87
  440.18378 40.0 40
  441.16702 47.0 47
  442.19614 47.0 47
  463.16187 43.0 43
  472.13977 38.0 38
  477.15973 43.0 43
  484.14496 49.0 49
  486.26822 67.0 67
  490.21307 40.0 40
  490.39478 40.0 40
  491.19476 40.0 40
  497.21503 40.0 40
  500.18506 40.0 40
  501.18774 47.0 47
  502.2251 63.0 63
  503.20654 58.0 58
  504.18475 45.0 45
  505.08511 40.0 40
  505.19199 69.0 69
  507.15314 40.0 40
  507.19879 56.0 56
  510.20416 67.0 67
  515.14703 38.0 38
  516.16711 45.0 45
  516.20178 47.0 47
  517.25842 54.0 54
  518.14996 58.0 58
  520.17969 43.0 43
  521.20697 51.0 51
  521.23053 38.0 38
  522.17932 38.0 38
  530.17456 45.0 45
  531.19073 54.0 54
  533.15411 67.0 67
  533.19751 101.0 101
  535.24939 51.0 51
  536.22021 56.0 56
  546.21722 51.0 51
  546.24207 40.0 40
  547.25171 49.0 49
  550.16418 76.0 76
  550.21179 98.0 98
  550.24023 60.0 60
  550.25427 40.0 40
  551.20673 43.0 43
  551.24567 45.0 45
  553.22888 45.0 45
  562.22919 43.0 43
  562.24854 43.0 43
  563.21918 51.0 51
  563.26782 45.0 45
  564.25549 40.0 40
  566.23889 38.0 38
  578.25055 45.0 45
  595.01581 67.0 67
  609.29675 38.0 38
//
