ACCESSION: MSBNK-RIKEN-PR301779
RECORD_TITLE: Piperine; LC-ESI-QTOF; MS2
DATE: 2019.03.28
AUTHORS: Tetsuya Mori, Center for Sustainable Resource Science, RIKEN
LICENSE: CC BY-NC-SA
PUBLICATION: Tsugawa H., Nakabayashi R., Mori T., Yamada Y., Takahashi M., Rai A., Sugiyama R., Yamamoto H., Nakaya T., Yamazaki M., Kooke R., Bac-Molenaar JA., Oztolan-Erol N., Keurentjes JJB., Arita M., Saito K. (2019) "A cheminformatics approach to characterize metabolomes in stable-isotope-labeled organisms" Nature Methods 16(4):295-298. [doi:10.1038/s41592-019-0358-2]
COMMENT: registered in RIKEN PlaSMA
CH$NAME: Piperine
CH$COMPOUND_CLASS: Alkaloids and derivatives
CH$FORMULA: C17H19NO3
CH$EXACT_MASS: 285.343
CH$SMILES: O=C(\C=C\C=C\C1=CC2=C(OCO2)C=C1)N1CCCCC1
CH$IUPAC: InChI=1S/C17H19NO3/c19-17(18-10-4-1-5-11-18)7-3-2-6-14-8-9-15-16(12-14)21-13-20-15/h2-3,6-9,12H,1,4-5,10-11,13H2/b6-2+,7-3+
CH$LINK: INCHIKEY MXXWOMGUGJBKIW-YPCIICBESA-N
AC$INSTRUMENT: LC, Waters Acquity UPLC System; MS, Waters Xevo G2 Q-Tof
AC$INSTRUMENT_TYPE: LC-ESI-QTOF
AC$MASS_SPECTROMETRY: MS_TYPE MS2
AC$MASS_SPECTROMETRY: ION_MODE POSITIVE
AC$MASS_SPECTROMETRY: COLLISION_ENERGY 6V
AC$MASS_SPECTROMETRY: DESOLVATION_GAS_FLOW 800/h
AC$MASS_SPECTROMETRY: DESOLVATION_TEMPERATURE 450 C
AC$MASS_SPECTROMETRY: IONIZATION ESI
AC$CHROMATOGRAPHY: CAPILLARY_VOLTAGE +3.00 kV
AC$CHROMATOGRAPHY: COLUMN_NAME Acquity bridged ethyl hybrid C18 (1.7 um, 2.1 mm * 100 mm, Waters)
AC$CHROMATOGRAPHY: COLUMN_TEMPERATURE 40 C
AC$CHROMATOGRAPHY: FLOW_GRADIENT A/B = (99.5%/0.5% at 0 min, 99.5%/0.5% at 0.1 min, 20%/80% at 10 min, 0.5%/99.5% at 10.1 min, 0.5%/99.5% at 12.0 min, 99.5%/0.5% at 12.1 min, 99.5%/0.5% at 15.0 min)
AC$CHROMATOGRAPHY: FLOW_RATE 0.3 ml/min at 0 min, 0.3 ml/min at 10 min, 0.4 ml/min at 10.1 min, 0.4 ml/min at 14.4 min, 0.3 ml/min at 14.5 min
AC$CHROMATOGRAPHY: RETENTION_TIME 7.8383
AC$CHROMATOGRAPHY: SOLVENT A water including 0.1% formic acid
AC$CHROMATOGRAPHY: SOLVENT B acetonitrile including 0.1% formic acid
MS$FOCUSED_ION: PRECURSOR_TYPE [M+H]+
MS$FOCUSED_ION: PRECURSOR_M/Z 286.1437699
PK$SPLASH: splash10-0f79-0390000000-b00a7af936ffa75cee6f
PK$NUM_PEAK: 29
PK$PEAK: m/z int. rel.int.
  69.07232 7.0 7
  84.08169 5.0 5
  86.09963 6.0 6
  112.07704 23.0 23
  115.05462 162.0 162
  116.05892 15.0 15
  117.07042 7.0 7
  127.05361 6.0 6
  135.04445 141.0 141
  136.04877 16.0 16
  143.04987 120.0 120
  144.0537 15.0 15
  145.06325 6.0 6
  151.09525 7.0 7
  151.10222 8.0 8
  159.04561 29.0 29
  171.04619 79.0 79
  172.04707 11.0 11
  173.06059 42.0 42
  201.02258 5.0 5
  201.05606 669.0 668
  201.09726 16.0 16
  202.05913 91.0 91
  203.05785 9.0 9
  203.07126 6.0 6
  286.1001 6.0 6
  286.14621 1000.0 999
  286.19427 35.0 35
  286.33981 7.0 7
//
