ACCESSION: MSBNK-RIKEN-PR300597
RECORD_TITLE: Isomajdine; LC-ESI-QTOF; MS2
DATE: 2019.03.28
AUTHORS: Tetsuya Mori, Center for Sustainable Resource Science, RIKEN
LICENSE: CC BY-NC-SA
PUBLICATION: Tsugawa H., Nakabayashi R., Mori T., Yamada Y., Takahashi M., Rai A., Sugiyama R., Yamamoto H., Nakaya T., Yamazaki M., Kooke R., Bac-Molenaar JA., Oztolan-Erol N., Keurentjes JJB., Arita M., Saito K. (2019) "A cheminformatics approach to characterize metabolomes in stable-isotope-labeled organisms" Nature Methods 16(4):295-298. [doi:10.1038/s41592-019-0358-2]
COMMENT: registered in RIKEN PlaSMA
CH$NAME: Isomajdine
CH$COMPOUND_CLASS: Indolizidines
CH$FORMULA: C23H28N2O6
CH$EXACT_MASS: 428.485
CH$SMILES: COC(=O)C1=CO[C@@H](C)[C@@H]2CN3CC[C@@]4([C@@H]3C[C@H]12)C(O)=NC1=C4C=CC(OC)=C1OC
CH$IUPAC: InChI=1S/C23H28N2O6/c1-12-14-10-25-8-7-23(18(25)9-13(14)15(11-31-12)21(26)30-4)16-5-6-17(28-2)20(29-3)19(16)24-22(23)27/h5-6,11-14,18H,7-10H2,1-4H3,(H,24,27)/t12-,13-,14-,18-,23+/m0/s1
CH$LINK: INCHIKEY TTZWEOINXHJHCY-UHJVZONPSA-N
AC$INSTRUMENT: LC, Waters Acquity UPLC System; MS, Waters Xevo G2 Q-Tof
AC$INSTRUMENT_TYPE: LC-ESI-QTOF
AC$MASS_SPECTROMETRY: MS_TYPE MS2
AC$MASS_SPECTROMETRY: ION_MODE POSITIVE
AC$MASS_SPECTROMETRY: COLLISION_ENERGY 6V
AC$MASS_SPECTROMETRY: DESOLVATION_GAS_FLOW 800/h
AC$MASS_SPECTROMETRY: DESOLVATION_TEMPERATURE 450 C
AC$MASS_SPECTROMETRY: IONIZATION ESI
AC$CHROMATOGRAPHY: CAPILLARY_VOLTAGE +3.00 kV
AC$CHROMATOGRAPHY: COLUMN_NAME Acquity bridged ethyl hybrid C18 (1.7 um, 2.1 mm * 100 mm, Waters)
AC$CHROMATOGRAPHY: COLUMN_TEMPERATURE 40 C
AC$CHROMATOGRAPHY: FLOW_GRADIENT A/B = (99.5%/0.5% at 0 min, 99.5%/0.5% at 0.1 min, 20%/80% at 10 min, 0.5%/99.5% at 10.1 min, 0.5%/99.5% at 12.0 min, 99.5%/0.5% at 12.1 min, 99.5%/0.5% at 15.0 min)
AC$CHROMATOGRAPHY: FLOW_RATE 0.3 ml/min at 0 min, 0.3 ml/min at 10 min, 0.4 ml/min at 10.1 min, 0.4 ml/min at 14.4 min, 0.3 ml/min at 14.5 min
AC$CHROMATOGRAPHY: RETENTION_TIME 4.47865
AC$CHROMATOGRAPHY: SOLVENT A water including 0.1% formic acid
AC$CHROMATOGRAPHY: SOLVENT B acetonitrile including 0.1% formic acid
MS$FOCUSED_ION: PRECURSOR_TYPE [M+H]+
MS$FOCUSED_ION: PRECURSOR_M/Z 429.2020131
PK$SPLASH: splash10-0079-0930000000-ce18f88a6e00f53f7bee
PK$NUM_PEAK: 343
PK$PEAK: m/z int. rel.int.
  56.04927 9.0 9
  68.04832 8.0 8
  68.05319 5.0 5
  70.06769 11.0 11
  79.05514 11.0 11
  80.04999 19.0 19
  81.05855 8.0 8
  81.06948 19.0 19
  82.0258 6.0 6
  82.06533 7.0 7
  91.05293 6.0 6
  91.05673 6.0 6
  93.05642 13.0 13
  94.06319 13.0 13
  95.05033 15.0 15
  95.07842 6.0 6
  102.04192 6.0 6
  103.05376 12.0 12
  103.06147 6.0 6
  104.04709 6.0 6
  106.06566 16.0 16
  106.07105 6.0 6
  107.06618 7.0 7
  108.04266 7.0 7
  108.05766 8.0 8
  108.08176 111.0 111
  109.06794 17.0 17
  115.05471 28.0 28
  116.05375 25.0 25
  116.06076 8.0 8
  117.0479 7.0 7
  117.05949 33.0 33
  118.06316 19.0 19
  118.07077 12.0 12
  120.04698 6.0 6
  120.08314 18.0 18
  121.05399 46.0 46
  121.06561 8.0 8
  122.0204 10.0 10
  122.09034 7.0 7
  122.09692 19.0 19
  123.0455 6.0 6
  124.04008 72.0 72
  128.05151 12.0 12
  130.04582 5.0 5
  130.06548 374.0 374
  131.04842 20.0 20
  131.07204 190.0 190
  131.0871 6.0 6
  132.04214 6.0 6
  132.05127 15.0 15
  132.07193 20.0 20
  132.08174 54.0 54
  133.05423 9.0 9
  133.06512 21.0 21
  133.08382 14.0 14
  134.05798 89.0 89
  134.09303 10.0 10
  135.03963 9.0 9
  135.08365 7.0 7
  136.03688 6.0 6
  136.07706 5.0 5
  136.10963 12.0 12
  137.05035 6.0 6
  138.02968 5.0 5
  138.05653 6.0 6
  139.03799 11.0 11
  139.05582 5.0 5
  141.05705 8.0 8
  142.05774 13.0 13
  142.06734 38.0 38
  143.03705 6.0 6
  143.07034 26.0 26
  144.04361 19.0 19
  144.0531 5.0 5
  144.0778 26.0 26
  144.08424 18.0 18
  145.05339 36.0 36
  145.06799 17.0 17
  145.08717 11.0 11
  146.06128 265.0 265
  146.07675 8.0 8
  147.04881 6.0 6
  147.06758 170.0 170
  147.10822 6.0 6
  148.04552 23.0 23
  148.07372 60.0 60
  148.08049 28.0 28
  149.04692 48.0 48
  149.0843 63.0 63
  150.04877 11.0 11
  150.09192 20.0 20
  157.0493 17.0 17
  157.05836 11.0 11
  158.05965 225.0 225
  159.06844 443.0 443
  160.03394 9.0 9
  160.054 26.0 26
  160.07553 442.0 442
  161.0455 8.0 8
  161.05698 9.0 9
  161.08313 276.0 276
  161.98715 6.0 6
  162.05544 249.0 249
  162.07741 16.0 16
  162.0912 63.0 63
  163.05331 10.0 10
  163.06168 21.0 21
  163.07693 9.0 9
  163.09543 5.0 5
  164.05663 7.0 7
  164.07323 24.0 24
  164.10634 9.0 9
  165.05981 8.0 8
  165.09033 7.0 7
  166.06108 9.0 9
  167.05934 5.0 5
  167.06876 13.0 13
  167.07661 6.0 6
  168.08131 9.0 9
  169.08051 7.0 7
  170.05692 20.0 20
  170.0871 7.0 7
  171.06184 18.0 18
  171.07031 29.0 29
  172.04037 637.0 636
  172.0723 27.0 27
  172.08138 17.0 17
  173.04407 137.0 137
  173.08272 26.0 26
  174.03035 10.0 10
  174.0542 436.0 436
  174.09465 14.0 14
  175.06297 212.0 212
  175.08844 6.0 6
  176.07063 238.0 238
  177.04247 41.0 41
  177.07788 122.0 122
  178.03841 6.0 6
  178.05293 7.0 7
  178.0871 68.0 68
  179.09306 16.0 16
  180.09502 8.0 8
  180.10309 7.0 7
  181.07076 8.0 8
  183.06531 12.0 12
  184.06581 15.0 15
  184.07558 9.0 9
  185.04817 9.0 9
  185.07014 7.0 7
  185.08211 14.0 14
  186.05135 15.0 15
  186.0598 15.0 15
  186.08046 11.0 11
  187.04414 8.0 8
  187.06361 706.0 705
  187.08849 10.0 10
  188.03514 12.0 12
  188.07027 419.0 419
  189.04346 8.0 8
  189.07884 1000.0 999
  190.02913 8.0 8
  190.05057 204.0 204
  190.06912 39.0 39
  190.08342 211.0 211
  191.04498 12.0 12
  191.05518 33.0 33
  191.07271 6.0 6
  191.0856 19.0 19
  192.06563 280.0 280
  192.10289 66.0 66
  193.05579 7.0 7
  193.06914 33.0 33
  193.08031 10.0 10
  193.10724 14.0 14
  195.06776 11.0 11
  196.05576 6.0 6
  197.06917 7.0 7
  197.08867 8.0 8
  198.05499 17.0 17
  198.06393 9.0 9
  198.07803 14.0 14
  198.09509 7.0 7
  199.06374 51.0 51
  199.08411 29.0 29
  199.0956 8.0 8
  200.05882 10.0 10
  200.06729 11.0 11
  200.0791 7.0 7
  200.09837 5.0 5
  201.05818 9.0 9
  201.06827 10.0 10
  201.08003 15.0 15
  201.11067 7.0 7
  202.08778 47.0 47
  202.11287 15.0 15
  203.04675 7.0 7
  203.05412 9.0 9
  203.07774 6.0 6
  203.0885 16.0 16
  203.09599 7.0 7
  203.10835 12.0 12
  204.06631 170.0 170
  204.092 12.0 12
  204.10204 7.0 7
  204.10876 7.0 7
  205.07356 266.0 266
  206.07822 53.0 53
  208.08102 8.0 8
  208.09772 20.0 20
  211.04562 5.0 5
  211.06348 43.0 43
  211.08185 9.0 9
  211.09186 6.0 6
  212.06059 17.0 17
  212.07982 15.0 15
  212.09416 26.0 26
  212.10445 10.0 10
  213.06203 6.0 6
  213.0687 11.0 11
  213.08496 15.0 15
  213.10074 19.0 19
  214.05307 8.0 8
  214.07133 25.0 25
  214.09 6.0 6
  214.10852 34.0 34
  215.0508 5.0 5
  215.08199 79.0 79
  215.10046 13.0 13
  215.11819 9.0 9
  216.06314 14.0 14
  216.08778 91.0 91
  217.06253 9.0 9
  217.07913 10.0 10
  217.09662 13.0 13
  217.11089 6.0 6
  218.07695 37.0 37
  218.08611 73.0 73
  218.11391 7.0 7
  219.08881 14.0 14
  220.09709 339.0 339
  221.08473 12.0 12
  221.10484 48.0 48
  222.10524 7.0 7
  223.07965 10.0 10
  224.06944 9.0 9
  225.05502 6.0 6
  225.07001 7.0 7
  226.0675 7.0 7
  226.08755 8.0 8
  227.08026 10.0 10
  227.09335 6.0 6
  228.05905 7.0 7
  228.09842 11.0 11
  229.06746 8.0 8
  229.0937 52.0 52
  229.10349 29.0 29
  229.1165 11.0 11
  230.06831 14.0 14
  230.07942 9.0 9
  230.10617 279.0 279
  231.07025 20.0 20
  231.07991 32.0 32
  231.09435 13.0 13
  231.10959 35.0 35
  232.07375 7.0 7
  232.09045 11.0 11
  232.10645 14.0 14
  233.10954 8.0 8
  233.13202 17.0 17
  235.0874 14.0 14
  235.10931 6.0 6
  236.09889 19.0 19
  237.07822 5.0 5
  239.07735 17.0 17
  239.0905 9.0 9
  240.08282 14.0 14
  240.09479 14.0 14
  241.05913 5.0 5
  241.07111 8.0 8
  241.0939 6.0 6
  242.09827 14.0 14
  243.0672 12.0 12
  243.07423 26.0 26
  243.08463 21.0 21
  244.08479 37.0 37
  244.10165 7.0 7
  245.06766 6.0 6
  245.10083 24.0 24
  245.13054 9.0 9
  246.10034 34.0 34
  247.08473 9.0 9
  247.10562 10.0 10
  252.09079 9.0 9
  253.06189 5.0 5
  253.10075 6.0 6
  255.1163 7.0 7
  257.09109 49.0 49
  258.09671 17.0 17
  259.10605 19.0 19
  260.10999 8.0 8
  261.12378 18.0 18
  263.08566 28.0 28
  263.09714 8.0 8
  264.09216 38.0 38
  265.09653 22.0 22
  266.08926 7.0 7
  266.11578 5.0 5
  267.07776 8.0 8
  269.09213 12.0 12
  273.12302 45.0 45
  274.12866 18.0 18
  277.06018 8.0 8
  279.08115 8.0 8
  280.09595 8.0 8
  281.09531 21.0 21
  282.09918 12.0 12
  283.11456 7.0 7
  291.07867 5.0 5
  292.08551 81.0 81
  292.12827 14.0 14
  293.09378 9.0 9
  294.10275 5.0 5
  295.06876 22.0 22
  295.08481 7.0 7
  296.0802 6.0 6
  297.08524 14.0 14
  297.1207 23.0 23
  298.1301 10.0 10
  309.0871 24.0 24
  309.12012 11.0 11
  310.09024 13.0 13
  310.10019 23.0 23
  310.12927 6.0 6
  323.12503 6.0 6
  325.07834 7.0 7
  325.11847 44.0 44
  325.16193 8.0 8
  326.11835 14.0 14
  335.13641 8.0 8
  349.11752 7.0 7
  353.1499 6.0 6
  363.13513 9.0 9
//
