ACCESSION: MSBNK-RIKEN-PR307265
RECORD_TITLE: (2S)-2-Hydroxy-3-butenyl-glucosinolate; LC-ESI-QTOF; MS2
DATE: 2019.03.28
AUTHORS: Tetsuya Mori, Center for Sustainable Resource Science, RIKEN
LICENSE: CC BY-NC-SA
PUBLICATION: Tsugawa H., Nakabayashi R., Mori T., Yamada Y., Takahashi M., Rai A., Sugiyama R., Yamamoto H., Nakaya T., Yamazaki M., Kooke R., Bac-Molenaar JA., Oztolan-Erol N., Keurentjes JJB., Arita M., Saito K. (2019) "A cheminformatics approach to characterize metabolomes in stable-isotope-labeled organisms" Nature Methods 16(4):295-298. [doi:10.1038/s41592-019-0358-2]
COMMENT: registered in RIKEN PlaSMA
CH$NAME: (2S)-2-Hydroxy-3-butenyl-glucosinolate
CH$COMPOUND_CLASS: Alkylglucosinolates
CH$FORMULA: C11H19NO10S2
CH$EXACT_MASS: 389.4
CH$SMILES: OCC1OC(SC(CC(O)C=C)=NOS(O)(=O)=O)C(O)C(O)C1O
CH$IUPAC: InChI=1S/C11H19NO10S2/c1-2-5(14)3-7(12-22-24(18,19)20)23-11-10(17)9(16)8(15)6(4-13)21-11/h2,5-6,8-11,13-17H,1,3-4H2,(H,18,19,20)
CH$LINK: INCHIKEY MYHSVHWQEVDFQT-UHFFFAOYSA-N
AC$INSTRUMENT: LC, Waters Acquity UPLC System; MS, Waters Xevo G2 Q-Tof
AC$INSTRUMENT_TYPE: LC-ESI-QTOF
AC$MASS_SPECTROMETRY: MS_TYPE MS2
AC$MASS_SPECTROMETRY: ION_MODE NEGATIVE
AC$MASS_SPECTROMETRY: COLLISION_ENERGY 6V
AC$MASS_SPECTROMETRY: DESOLVATION_GAS_FLOW 800/h
AC$MASS_SPECTROMETRY: DESOLVATION_TEMPERATURE 450 C
AC$MASS_SPECTROMETRY: IONIZATION ESI
AC$CHROMATOGRAPHY: CAPILLARY_VOLTAGE -2.75 kV
AC$CHROMATOGRAPHY: COLUMN_NAME Acquity bridged ethyl hybrid C18 (1.7 um, 2.1 mm * 100 mm, Waters)
AC$CHROMATOGRAPHY: COLUMN_TEMPERATURE 40 C
AC$CHROMATOGRAPHY: FLOW_GRADIENT A/B = (99.5%/0.5% at 0 min, 99.5%/0.5% at 0.1 min, 20%/80% at 10 min, 0.5%/99.5% at 10.1 min, 0.5%/99.5% at 12.0 min, 99.5%/0.5% at 12.1 min, 99.5%/0.5% at 15.0 min)
AC$CHROMATOGRAPHY: FLOW_RATE 0.3 ml/min at 0 min, 0.3 ml/min at 10 min, 0.4 ml/min at 10.1 min, 0.4 ml/min at 14.4 min, 0.3 ml/min at 14.5 min
AC$CHROMATOGRAPHY: RETENTION_TIME 1.768383
AC$CHROMATOGRAPHY: SOLVENT A water including 0.1% formic acid
AC$CHROMATOGRAPHY: SOLVENT B acetonitrile including 0.1% formic acid
MS$FOCUSED_ION: PRECURSOR_TYPE [M-H]-
MS$FOCUSED_ION: PRECURSOR_M/Z 388.03776174783
PK$SPLASH: splash10-000i-2109000000-8fd8424736c2bef3ebb3
PK$NUM_PEAK: 29
PK$PEAK: m/z int. rel.int.
  74.99003 20.0 20
  79.95836 9.0 9
  85.02655 5.0 5
  95.94554 12.0 12
  95.95256 28.0 28
  96.95992 157.0 157
  98.95459 9.0 9
  98.96404 13.0 13
  101.0325 6.0 6
  115.03926 5.0 5
  135.96568 7.0 7
  135.97231 11.0 11
  146.028 36.0 36
  153.98393 14.0 14
  168.98033 5.0 5
  191.99295 7.0 7
  193.01778 6.0 6
  195.02298 8.0 8
  195.03444 46.0 46
  210.00362 20.0 20
  225.9908 6.0 6
  241.00403 10.0 10
  259.00339 20.0 20
  259.01257 27.0 27
  274.9848 11.0 11
  301.01913 11.0 11
  332.00253 10.0 10
  332.01782 8.0 8
  388.03683 1000.0 999
//
