ACCESSION: MSBNK-RIKEN-PR300255
RECORD_TITLE: 5(S)-5-carboxystrictosidine; LC-ESI-QTOF; MS2
DATE: 2019.03.28
AUTHORS: Tetsuya Mori, Center for Sustainable Resource Science, RIKEN
LICENSE: CC BY-NC-SA
PUBLICATION: Tsugawa H., Nakabayashi R., Mori T., Yamada Y., Takahashi M., Rai A., Sugiyama R., Yamamoto H., Nakaya T., Yamazaki M., Kooke R., Bac-Molenaar JA., Oztolan-Erol N., Keurentjes JJB., Arita M., Saito K. (2019) "A cheminformatics approach to characterize metabolomes in stable-isotope-labeled organisms" Nature Methods 16(4):295-298. [doi:10.1038/s41592-019-0358-2]
COMMENT: registered in RIKEN PlaSMA
CH$NAME: 5(S)-5-carboxystrictosidine
CH$COMPOUND_CLASS: Terpene glycosides
CH$FORMULA: C28H34N2O11
CH$EXACT_MASS: 574.583
CH$SMILES: COC(=O)C1=CO[C@@H](O[C@@H]2O[C@H](CO)[C@@H](O)[C@H](O)[C@H]2O)[C@H](C=C)[C@@H]1C[C@@H]1N[C@@H](CC2=C1NC1=CC=CC=C21)C(O)=O
CH$IUPAC: InChI=1S/C28H34N2O11/c1-3-12-14(8-18-21-15(9-19(29-18)25(35)36)13-6-4-5-7-17(13)30-21)16(26(37)38-2)11-39-27(12)41-28-24(34)23(33)22(32)20(10-31)40-28/h3-7,11-12,14,18-20,22-24,27-34H,1,8-10H2,2H3,(H,35,36)/t12-,14+,18+,19+,20-,22-,23+,24-,27+,28+/m1/s1
CH$LINK: INCHIKEY LHKZIVMTXZLOTP-RMKGEEGASA-N
AC$INSTRUMENT: LC, Waters Acquity UPLC System; MS, Waters Xevo G2 Q-Tof
AC$INSTRUMENT_TYPE: LC-ESI-QTOF
AC$MASS_SPECTROMETRY: MS_TYPE MS2
AC$MASS_SPECTROMETRY: ION_MODE POSITIVE
AC$MASS_SPECTROMETRY: COLLISION_ENERGY 6V
AC$MASS_SPECTROMETRY: DESOLVATION_GAS_FLOW 800/h
AC$MASS_SPECTROMETRY: DESOLVATION_TEMPERATURE 450 C
AC$MASS_SPECTROMETRY: IONIZATION ESI
AC$CHROMATOGRAPHY: CAPILLARY_VOLTAGE +3.00 kV
AC$CHROMATOGRAPHY: COLUMN_NAME Acquity bridged ethyl hybrid C18 (1.7 um, 2.1 mm * 100 mm, Waters)
AC$CHROMATOGRAPHY: COLUMN_TEMPERATURE 40 C
AC$CHROMATOGRAPHY: FLOW_GRADIENT A/B = (99.5%/0.5% at 0 min, 99.5%/0.5% at 0.1 min, 20%/80% at 10 min, 0.5%/99.5% at 10.1 min, 0.5%/99.5% at 12.0 min, 99.5%/0.5% at 12.1 min, 99.5%/0.5% at 15.0 min)
AC$CHROMATOGRAPHY: FLOW_RATE 0.3 ml/min at 0 min, 0.3 ml/min at 10 min, 0.4 ml/min at 10.1 min, 0.4 ml/min at 14.4 min, 0.3 ml/min at 14.5 min
AC$CHROMATOGRAPHY: RETENTION_TIME 4.13255
AC$CHROMATOGRAPHY: SOLVENT A water including 0.1% formic acid
AC$CHROMATOGRAPHY: SOLVENT B acetonitrile including 0.1% formic acid
MS$FOCUSED_ION: PRECURSOR_TYPE [M+H]+
MS$FOCUSED_ION: PRECURSOR_M/Z 575.2235364
PK$SPLASH: splash10-0159-0970000000-4e1fe7400eb34af3a03b
PK$NUM_PEAK: 699
PK$PEAK: m/z int. rel.int.
  55.00603 10.0 10
  55.01271 11.0 11
  61.02906 33.0 33
  66.04828 9.0 9
  67.05389 10.0 10
  68.05025 5.0 5
  68.99586 6.0 6
  69.02243 17.0 17
  69.02944 21.0 21
  69.03278 47.0 47
  73.02499 7.0 7
  74.01926 8.0 8
  74.02429 11.0 11
  76.89146 5.0 5
  77.04456 10.0 10
  79.04091 7.0 7
  79.05348 21.0 21
  81.03003 13.0 13
  81.03384 38.0 38
  82.93771 5.0 5
  83.01425 19.0 19
  83.05025 7.0 7
  84.04476 15.0 15
  85.02699 186.0 186
  86.02628 7.0 7
  86.03434 19.0 19
  86.16589 6.0 6
  87.04171 8.0 8
  88.04414 10.0 10
  89.04717 6.0 6
  91.05232 24.0 24
  93.02985 15.0 15
  93.06184 6.0 6
  93.06714 10.0 10
  93.24518 6.0 6
  94.04474 14.0 14
  94.98409 8.0 8
  95.03532 10.0 10
  95.04697 61.0 61
  95.78374 6.0 6
  97.00694 10.0 10
  97.02785 123.0 123
  98.02595 8.0 8
  98.03039 10.0 10
  98.03554 8.0 8
  99.04352 43.0 43
  99.04953 13.0 13
  103.0535 45.0 45
  105.02825 15.0 15
  105.06302 7.0 7
  106.0659 17.0 17
  107.03661 11.0 11
  107.04916 49.0 49
  108.04952 24.0 24
  108.0788 15.0 15
  108.99979 8.0 8
  109.02716 70.0 70
  109.06258 16.0 16
  109.07127 8.0 8
  109.9224 5.0 5
  112.05305 7.0 7
  113.05882 6.0 6
  114.05317 5.0 5
  115.02098 5.0 5
  115.02973 6.0 6
  115.0374 11.0 11
  115.05025 15.0 15
  115.97021 6.0 6
  117.0535 11.0 11
  117.05881 11.0 11
  118.06245 192.0 192
  118.07442 16.0 16
  119.04755 28.0 28
  119.06266 5.0 5
  119.08402 6.0 6
  120.04651 7.0 7
  121.03601 6.0 6
  121.06357 42.0 42
  121.73164 6.0 6
  123.04351 82.0 82
  123.05038 21.0 21
  123.07806 6.0 6
  125.02627 11.0 11
  125.0514 8.0 8
  125.59792 7.0 7
  127.00497 6.0 6
  127.04002 54.0 54
  128.05528 8.0 8
  129.02815 8.0 8
  129.06946 48.0 48
  130.04028 7.0 7
  130.06406 507.0 506
  130.85597 5.0 5
  131.04623 57.0 57
  131.0654 44.0 44
  131.07384 9.0 9
  132.04092 5.0 5
  132.04776 9.0 9
  132.07373 6.0 6
  132.08199 28.0 28
  133.02568 30.0 30
  133.03172 27.0 27
  133.04922 6.0 6
  133.06165 18.0 18
  133.07513 9.0 9
  135.04285 60.0 60
  135.05305 6.0 6
  136.07877 9.0 9
  137.05502 15.0 15
  137.05983 31.0 31
  138.04698 7.0 7
  138.05716 5.0 5
  138.0899 11.0 11
  139.03217 16.0 16
  139.04201 47.0 47
  139.09756 7.0 7
  141.07594 6.0 6
  142.05034 9.0 9
  142.06683 14.0 14
  143.06572 32.0 32
  143.07742 40.0 40
  143.12633 7.0 7
  144.04218 9.0 9
  144.08084 821.0 820
  144.66635 7.0 7
  144.71716 7.0 7
  145.04849 54.0 54
  145.0578 18.0 18
  145.07661 30.0 30
  145.0874 47.0 47
  145.53043 8.0 8
  145.95998 7.0 7
  146.02254 8.0 8
  146.03036 6.0 6
  146.0585 1000.0 999
  146.09474 6.0 6
  147.04611 6.0 6
  147.05696 64.0 64
  147.06706 41.0 41
  148.03934 22.0 22
  148.05574 6.0 6
  148.06854 12.0 12
  148.08061 23.0 23
  148.22968 11.0 11
  149.02628 34.0 34
  149.06461 21.0 21
  149.07782 6.0 6
  149.37296 6.0 6
  149.46286 5.0 5
  150.03302 8.0 8
  150.05228 12.0 12
  150.90712 10.0 10
  150.97037 11.0 11
  151.01729 5.0 5
  151.03795 73.0 73
  151.04613 22.0 22
  151.05687 6.0 6
  151.97507 7.0 7
  152.04561 6.0 6
  152.06927 14.0 14
  152.12646 5.0 5
  153.0507 5.0 5
  153.0621 14.0 14
  153.66965 6.0 6
  154.03792 5.0 5
  154.06252 212.0 212
  154.19569 13.0 13
  155.04694 26.0 26
  155.073 34.0 34
  155.6115 7.0 7
  156.04716 8.0 8
  156.07916 139.0 139
  157.0636 10.0 10
  157.07562 9.0 9
  157.08603 35.0 35
  158.05743 28.0 28
  158.06351 21.0 21
  158.07748 16.0 16
  158.09285 251.0 251
  158.09978 119.0 119
  159.03998 64.0 64
  159.05038 16.0 16
  159.07634 8.0 8
  159.09769 24.0 24
  160.03918 7.0 7
  160.05099 10.0 10
  160.07527 49.0 49
  160.08667 12.0 12
  160.1078 10.0 10
  161.18417 6.0 6
  164.06773 5.0 5
  164.07527 9.0 9
  165.02563 12.0 12
  165.03911 32.0 32
  165.05379 589.0 588
  165.07649 6.0 6
  166.04236 6.0 6
  166.05475 48.0 48
  166.06088 83.0 83
  166.08023 24.0 24
  166.092 6.0 6
  166.9937 7.0 7
  167.06847 240.0 240
  167.07765 50.0 50
  167.22536 7.0 7
  167.59334 6.0 6
  167.87138 7.0 7
  168.08052 937.0 936
  168.16211 8.0 8
  169.04263 12.0 12
  169.05621 15.0 15
  169.07625 590.0 589
  170.00627 6.0 6
  170.04427 6.0 6
  170.05949 161.0 161
  170.08226 80.0 80
  170.09563 23.0 23
  170.10316 20.0 20
  170.22076 6.0 6
  170.47168 5.0 5
  171.05991 9.0 9
  171.06906 8.0 8
  171.07903 15.0 15
  171.09488 34.0 34
  171.48032 6.0 6
  172.07713 15.0 15
  172.11134 13.0 13
  172.70988 8.0 8
  173.01936 11.0 11
  173.0569 8.0 8
  173.07379 5.0 5
  174.06535 8.0 8
  175.0463 7.0 7
  175.0594 9.0 9
  175.08247 5.0 5
  176.0314 5.0 5
  176.0686 16.0 16
  176.07857 10.0 10
  176.70183 7.0 7
  176.86037 9.0 9
  177.03728 5.0 5
  177.05392 19.0 19
  178.04601 20.0 20
  178.06732 7.0 7
  178.07745 6.0 6
  179.08278 15.0 15
  180.08057 348.0 348
  180.78632 7.0 7
  181.08333 138.0 138
  182.06184 34.0 34
  182.07365 34.0 34
  182.0952 614.0 613
  183.06354 40.0 40
  183.08005 19.0 19
  183.09666 124.0 124
  183.10564 27.0 27
  184.06981 33.0 33
  184.07941 13.0 13
  184.1097 13.0 13
  185.02841 5.0 5
  185.06627 27.0 27
  185.10547 10.0 10
  185.43863 5.0 5
  185.50415 5.0 5
  186.09015 14.0 14
  186.12314 7.0 7
  186.71069 7.0 7
  187.05867 7.0 7
  187.36565 5.0 5
  187.96626 5.0 5
  188.02719 9.0 9
  188.07057 573.0 572
  189.05008 6.0 6
  189.06473 25.0 25
  189.07838 23.0 23
  189.47517 6.0 6
  190.06335 5.0 5
  190.07684 9.0 9
  190.08601 9.0 9
  190.10286 5.0 5
  191.05263 6.0 6
  191.064 21.0 21
  191.07162 76.0 76
  192.0807 137.0 137
  192.08966 38.0 38
  192.73686 6.0 6
  193.08612 109.0 109
  193.1006 17.0 17
  194.05118 7.0 7
  194.0621 13.0 13
  194.07393 11.0 11
  194.09222 124.0 124
  194.10382 64.0 64
  194.13033 5.0 5
  195.05304 6.0 6
  195.0614 5.0 5
  195.07367 19.0 19
  195.08446 12.0 12
  195.09372 21.0 21
  195.106 10.0 10
  195.99799 8.0 8
  196.0605 19.0 19
  196.06998 28.0 28
  196.07979 68.0 68
  196.10672 26.0 26
  197.04723 8.0 8
  197.073 33.0 33
  197.0899 26.0 26
  197.10527 17.0 17
  197.11369 7.0 7
  197.79756 7.0 7
  198.05081 6.0 6
  198.08131 8.0 8
  198.09198 6.0 6
  198.09962 8.0 8
  198.11989 5.0 5
  198.69116 9.0 9
  200.06995 193.0 193
  201.06018 7.0 7
  201.07214 11.0 11
  201.08092 17.0 17
  202.05363 10.0 10
  202.08066 15.0 15
  202.08897 10.0 10
  203.07442 25.0 25
  203.0903 8.0 8
  204.05591 8.0 8
  204.07964 125.0 125
  205.08087 77.0 77
  205.09067 50.0 50
  205.1044 7.0 7
  206.05403 17.0 17
  206.07928 13.0 13
  206.09274 93.0 93
  206.10022 41.0 41
  207.05035 12.0 12
  207.05962 9.0 9
  207.07927 16.0 16
  207.09988 58.0 58
  208.05458 6.0 6
  208.07137 133.0 133
  208.08789 33.0 33
  208.09386 20.0 20
  208.11238 67.0 67
  209.07143 9.0 9
  209.08733 43.0 43
  209.11038 12.0 12
  210.03957 26.0 26
  210.06528 21.0 21
  210.09067 312.0 312
  210.1165 21.0 21
  210.12868 15.0 15
  211.06398 11.0 11
  211.08939 39.0 39
  211.22816 5.0 5
  212.07628 24.0 24
  212.10852 9.0 9
  213.06851 21.0 21
  213.08144 28.0 28
  213.2912 7.0 7
  214.08632 59.0 59
  214.78799 5.0 5
  215.08363 146.0 146
  216.04701 12.0 12
  216.0731 49.0 49
  216.09055 15.0 15
  216.98198 6.0 6
  217.04211 7.0 7
  217.06946 8.0 8
  217.07884 12.0 12
  217.08952 47.0 47
  217.09938 40.0 40
  218.03474 7.0 7
  218.08784 30.0 30
  218.09656 63.0 63
  219.03119 8.0 8
  219.05748 11.0 11
  219.08427 29.0 29
  219.10388 82.0 82
  219.11217 27.0 27
  220.05431 33.0 33
  220.07443 142.0 142
  220.08662 70.0 70
  220.11435 197.0 197
  221.02773 7.0 7
  221.05826 6.0 6
  221.08266 158.0 158
  221.10544 62.0 62
  221.11902 53.0 53
  222.05173 21.0 21
  222.08536 77.0 77
  222.09398 176.0 176
  222.11853 28.0 28
  223.05595 11.0 11
  223.07367 8.0 8
  223.08876 33.0 33
  223.10327 34.0 34
  223.12134 18.0 18
  224.06027 31.0 31
  224.06958 83.0 83
  224.08005 38.0 38
  224.09525 23.0 23
  224.11171 7.0 7
  224.53683 6.0 6
  225.07175 65.0 65
  225.09387 19.0 19
  225.1217 8.0 8
  225.12906 8.0 8
  226.08337 29.0 29
  226.11061 8.0 8
  227.08194 13.0 13
  227.7455 11.0 11
  228.07529 6.0 6
  228.08603 5.0 5
  228.09763 7.0 7
  229.08476 17.0 17
  229.10098 10.0 10
  230.04324 6.0 6
  230.09424 97.0 97
  230.10509 19.0 19
  231.05956 8.0 8
  231.0916 15.0 15
  231.1046 67.0 67
  231.11916 11.0 11
  232.04358 9.0 9
  232.06456 15.0 15
  232.07637 71.0 71
  232.11301 92.0 92
  233.05553 8.0 8
  233.07845 32.0 32
  233.09703 13.0 13
  233.10614 19.0 19
  233.11552 32.0 32
  233.39027 6.0 6
  234.08118 19.0 19
  234.09009 32.0 32
  234.12518 86.0 86
  234.13507 33.0 33
  235.05887 18.0 18
  235.0708 37.0 37
  235.08421 7.0 7
  235.11783 10.0 10
  235.13286 27.0 27
  235.92468 7.0 7
  236.06406 47.0 47
  236.07339 69.0 69
  236.10182 17.0 17
  236.1163 6.0 6
  236.14461 5.0 5
  236.15247 6.0 6
  237.07343 40.0 40
  237.09137 31.0 31
  237.10588 34.0 34
  238.03769 8.0 8
  238.08641 428.0 428
  238.11401 7.0 7
  238.12465 10.0 10
  238.20157 5.0 5
  239.0257 8.0 8
  239.07765 45.0 45
  239.0907 88.0 88
  239.10739 10.0 10
  239.13208 9.0 9
  240.04245 7.0 7
  240.07599 14.0 14
  240.09683 17.0 17
  240.11981 9.0 9
  241.08661 34.0 34
  241.10643 6.0 6
  241.11737 15.0 15
  242.07727 6.0 6
  242.10414 20.0 20
  243.09804 42.0 42
  244.07584 19.0 19
  244.10695 116.0 116
  244.11946 104.0 104
  244.25589 6.0 6
  245.07187 5.0 5
  245.08556 7.0 7
  245.10858 63.0 63
  245.12686 7.0 7
  246.03726 6.0 6
  246.0459 10.0 10
  246.05991 8.0 8
  246.07965 18.0 18
  246.08907 31.0 31
  246.10201 16.0 16
  246.11301 10.0 10
  247.03978 13.0 13
  247.0807 36.0 36
  247.09167 13.0 13
  247.10683 23.0 23
  247.12656 41.0 41
  248.03815 12.0 12
  248.06613 207.0 207
  248.07767 127.0 127
  248.10667 102.0 102
  248.12872 17.0 17
  249.07436 61.0 61
  249.09784 12.0 12
  249.10654 14.0 14
  249.11627 14.0 14
  249.14252 12.0 12
  250.05356 22.0 22
  250.07843 73.0 73
  250.0876 293.0 293
  250.12296 33.0 33
  251.07224 21.0 21
  251.08881 20.0 20
  251.10461 25.0 25
  251.1189 5.0 5
  252.0909 47.0 47
  252.1078 12.0 12
  252.53215 6.0 6
  253.04434 10.0 10
  253.07979 6.0 6
  253.1244 10.0 10
  254.08684 62.0 62
  254.10902 42.0 42
  255.08069 7.0 7
  255.09932 28.0 28
  255.10951 25.0 25
  255.70547 6.0 6
  256.07526 9.0 9
  256.09677 21.0 21
  256.10706 17.0 17
  257.07672 30.0 30
  257.08673 20.0 20
  257.09921 13.0 13
  258.06595 6.0 6
  258.07547 10.0 10
  258.09805 37.0 37
  258.11612 8.0 8
  259.06616 6.0 6
  259.08502 9.0 9
  259.10611 32.0 32
  260.06824 12.0 12
  260.09818 29.0 29
  260.10916 15.0 15
  261.05884 9.0 9
  261.08508 10.0 10
  261.1059 15.0 15
  261.1246 8.0 8
  262.06619 6.0 6
  262.0853 27.0 27
  262.10028 7.0 7
  262.12091 120.0 120
  263.08127 43.0 43
  263.09644 21.0 21
  263.11935 20.0 20
  264.05716 16.0 16
  264.07028 8.0 8
  264.08545 24.0 24
  264.11066 36.0 36
  264.14395 12.0 12
  265.08591 38.0 38
  265.09851 190.0 190
  265.10837 64.0 64
  265.13519 16.0 16
  266.0018 8.0 8
  266.05191 25.0 25
  266.0809 87.0 87
  266.10706 57.0 57
  266.11621 19.0 19
  267.08267 33.0 33
  267.11908 6.0 6
  267.13229 7.0 7
  269.06607 6.0 6
  269.07559 7.0 7
  269.08804 6.0 6
  269.10571 12.0 12
  269.71365 6.0 6
  270.09064 22.0 22
  270.10364 22.0 22
  271.09558 40.0 40
  271.11432 6.0 6
  271.1312 6.0 6
  271.99139 6.0 6
  272.07269 10.0 10
  272.10202 115.0 115
  272.11499 72.0 72
  272.13052 15.0 15
  272.63263 6.0 6
  273.06766 19.0 19
  273.0997 25.0 25
  273.11307 29.0 29
  273.12515 14.0 14
  273.13855 6.0 6
  273.45334 8.0 8
  274.09311 12.0 12
  274.11435 22.0 22
  274.12769 9.0 9
  275.08133 13.0 13
  275.10132 42.0 42
  275.11191 15.0 15
  276.06937 24.0 24
  276.09756 65.0 65
  276.83826 5.0 5
  277.06772 20.0 20
  278.0744 19.0 19
  278.09671 6.0 6
  278.12881 27.0 27
  278.23511 10.0 10
  279.10928 7.0 7
  279.12579 6.0 6
  280.10397 11.0 11
  280.14691 6.0 6
  281.09229 8.0 8
  282.08774 51.0 51
  282.95819 6.0 6
  283.08215 6.0 6
  283.09488 11.0 11
  283.10764 26.0 26
  284.09998 8.0 8
  284.10983 15.0 15
  285.08591 9.0 9
  285.10773 11.0 11
  285.11868 15.0 15
  286.06104 9.0 9
  286.08585 31.0 31
  287.07605 6.0 6
  287.09628 22.0 22
  288.08167 6.0 6
  288.10403 5.0 5
  288.59628 5.0 5
  289.05939 19.0 19
  289.09738 7.0 7
  289.12527 22.0 22
  290.09741 17.0 17
  290.11234 28.0 28
  290.12714 13.0 13
  291.12637 30.0 30
  292.13217 5.0 5
  293.10803 30.0 30
  294.0697 17.0 17
  294.08707 6.0 6
  294.10223 8.0 8
  294.12555 8.0 8
  295.06708 19.0 19
  295.08023 11.0 11
  295.09433 20.0 20
  298.07263 6.0 6
  298.10974 6.0 6
  298.96463 5.0 5
  299.1069 6.0 6
  300.09378 23.0 23
  300.10803 35.0 35
  300.12189 8.0 8
  301.18774 9.0 9
  302.06665 8.0 8
  302.08987 14.0 14
  302.12378 6.0 6
  303.10867 21.0 21
  304.08557 10.0 10
  304.10953 5.0 5
  304.12451 8.0 8
  304.14539 5.0 5
  307.14111 8.0 8
  308.09314 7.0 7
  308.11115 9.0 9
  308.12506 19.0 19
  308.13968 6.0 6
  309.08325 15.0 15
  310.08673 10.0 10
  314.08749 6.0 6
  316.14691 7.0 7
  317.09418 7.0 7
  317.1264 14.0 14
  317.14511 6.0 6
  318.07877 17.0 17
  318.09808 15.0 15
  318.10788 18.0 18
  318.1254 11.0 11
  319.11957 5.0 5
  319.14679 9.0 9
  321.11499 7.0 7
  322.15097 14.0 14
  323.12741 12.0 12
  325.11902 15.0 15
  326.09903 7.0 7
  328.08994 12.0 12
  329.09445 8.0 8
  332.12363 7.0 7
  332.14584 6.0 6
  333.12384 6.0 6
  340.15637 10.0 10
  343.12549 7.0 7
  358.55847 9.0 9
  360.11899 7.0 7
  374.14499 6.0 6
  377.13092 6.0 6
  392.90765 7.0 7
  407.35376 6.0 6
  432.06738 7.0 7
  444.09717 11.0 11
  539.09143 13.0 13
  552.4389 6.0 6
  575.1767 15.0 15
  575.23639 8.0 8
//
