ACCESSION: MSBNK-RIKEN-PR300608
RECORD_TITLE: N-Acetylsolasodine; LC-ESI-QTOF; MS2
DATE: 2019.03.28
AUTHORS: Tetsuya Mori, Center for Sustainable Resource Science, RIKEN
LICENSE: CC BY-NC-SA
PUBLICATION: Tsugawa H., Nakabayashi R., Mori T., Yamada Y., Takahashi M., Rai A., Sugiyama R., Yamamoto H., Nakaya T., Yamazaki M., Kooke R., Bac-Molenaar JA., Oztolan-Erol N., Keurentjes JJB., Arita M., Saito K. (2019) "A cheminformatics approach to characterize metabolomes in stable-isotope-labeled organisms" Nature Methods 16(4):295-298. [doi:10.1038/s41592-019-0358-2]
COMMENT: registered in RIKEN PlaSMA
CH$NAME: N-Acetylsolasodine
CH$COMPOUND_CLASS: Spirosolanes and derivatives
CH$FORMULA: C29H45NO3
CH$EXACT_MASS: 455.683
CH$SMILES: CC1C2C(CC3C4CC=C5CC(O)CCC5(C)C4CCC23C)OC11CCC(C)CN1C(C)=O
CH$IUPAC: InChI=1S/C29H45NO3/c1-17-8-13-29(30(16-17)19(3)31)18(2)26-25(33-29)15-24-22-7-6-20-14-21(32)9-11-27(20,4)23(22)10-12-28(24,26)5/h6,17-18,21-26,32H,7-16H2,1-5H3
CH$LINK: INCHIKEY JXAZKNVJWYDQJY-UHFFFAOYSA-N
AC$INSTRUMENT: LC, Waters Acquity UPLC System; MS, Waters Xevo G2 Q-Tof
AC$INSTRUMENT_TYPE: LC-ESI-QTOF
AC$MASS_SPECTROMETRY: MS_TYPE MS2
AC$MASS_SPECTROMETRY: ION_MODE POSITIVE
AC$MASS_SPECTROMETRY: COLLISION_ENERGY 6V
AC$MASS_SPECTROMETRY: DESOLVATION_GAS_FLOW 800/h
AC$MASS_SPECTROMETRY: DESOLVATION_TEMPERATURE 450 C
AC$MASS_SPECTROMETRY: IONIZATION ESI
AC$CHROMATOGRAPHY: CAPILLARY_VOLTAGE +3.00 kV
AC$CHROMATOGRAPHY: COLUMN_NAME Acquity bridged ethyl hybrid C18 (1.7 um, 2.1 mm * 100 mm, Waters)
AC$CHROMATOGRAPHY: COLUMN_TEMPERATURE 40 C
AC$CHROMATOGRAPHY: FLOW_GRADIENT A/B = (99.5%/0.5% at 0 min, 99.5%/0.5% at 0.1 min, 20%/80% at 10 min, 0.5%/99.5% at 10.1 min, 0.5%/99.5% at 12.0 min, 99.5%/0.5% at 12.1 min, 99.5%/0.5% at 15.0 min)
AC$CHROMATOGRAPHY: FLOW_RATE 0.3 ml/min at 0 min, 0.3 ml/min at 10 min, 0.4 ml/min at 10.1 min, 0.4 ml/min at 14.4 min, 0.3 ml/min at 14.5 min
AC$CHROMATOGRAPHY: RETENTION_TIME 7.362
AC$CHROMATOGRAPHY: SOLVENT A water including 0.1% formic acid
AC$CHROMATOGRAPHY: SOLVENT B acetonitrile including 0.1% formic acid
MS$FOCUSED_ION: PRECURSOR_TYPE [M+H]+
MS$FOCUSED_ION: PRECURSOR_M/Z 456.3472208
PK$SPLASH: splash10-0a4i-0010900000-afae3e5caba2b4a20b05
PK$NUM_PEAK: 15
PK$PEAK: m/z int. rel.int.
  186.14259 7.0 7
  253.17322 6.0 6
  253.20001 7.0 7
  255.20216 7.0 7
  271.18289 11.0 11
  271.20374 80.0 80
  271.22598 7.0 7
  272.19617 8.0 8
  335.44882 7.0 7
  368.60016 8.0 8
  438.3233 8.0 8
  454.34491 18.0 18
  455.33762 10.0 10
  456.30261 7.0 7
  456.34546 1000.0 999
//
