ACCESSION: MSBNK-RIKEN-PR304272
RECORD_TITLE: epsilon-Viniferin; LC-ESI-QTOF; MS2
DATE: 2019.03.28
AUTHORS: Tetsuya Mori, Center for Sustainable Resource Science, RIKEN
LICENSE: CC BY-NC-SA
PUBLICATION: Tsugawa H., Nakabayashi R., Mori T., Yamada Y., Takahashi M., Rai A., Sugiyama R., Yamamoto H., Nakaya T., Yamazaki M., Kooke R., Bac-Molenaar JA., Oztolan-Erol N., Keurentjes JJB., Arita M., Saito K. (2019) "A cheminformatics approach to characterize metabolomes in stable-isotope-labeled organisms" Nature Methods 16(4):295-298. [doi:10.1038/s41592-019-0358-2]
COMMENT: registered in RIKEN PlaSMA
CH$NAME: epsilon-Viniferin
CH$COMPOUND_CLASS: 2-arylbenzofuran flavonoids
CH$FORMULA: C28H22O6
CH$EXACT_MASS: 454.478
CH$SMILES: OC1=CC=C(\C=C\C2=CC(O)=CC3=C2[C@H]([C@@H](O3)C2=CC=C(O)C=C2)C2=CC(O)=CC(O)=C2)C=C1
CH$IUPAC: InChI=1S/C28H22O6/c29-20-7-2-16(3-8-20)1-4-18-11-24(33)15-25-26(18)27(19-12-22(31)14-23(32)13-19)28(34-25)17-5-9-21(30)10-6-17/h1-15,27-33H/b4-1+/t27-,28+/m1/s1
CH$LINK: INCHIKEY FQWLMRXWKZGLFI-YVYUXZJTSA-N
AC$INSTRUMENT: LC, Waters Acquity UPLC System; MS, Waters Xevo G2 Q-Tof
AC$INSTRUMENT_TYPE: LC-ESI-QTOF
AC$MASS_SPECTROMETRY: MS_TYPE MS2
AC$MASS_SPECTROMETRY: ION_MODE POSITIVE
AC$MASS_SPECTROMETRY: COLLISION_ENERGY 6V
AC$MASS_SPECTROMETRY: DESOLVATION_GAS_FLOW 800/h
AC$MASS_SPECTROMETRY: DESOLVATION_TEMPERATURE 450 C
AC$MASS_SPECTROMETRY: IONIZATION ESI
AC$CHROMATOGRAPHY: CAPILLARY_VOLTAGE +3.00 kV
AC$CHROMATOGRAPHY: COLUMN_NAME Acquity bridged ethyl hybrid C18 (1.7 um, 2.1 mm * 100 mm, Waters)
AC$CHROMATOGRAPHY: COLUMN_TEMPERATURE 40 C
AC$CHROMATOGRAPHY: FLOW_GRADIENT A/B = (99.5%/0.5% at 0 min, 99.5%/0.5% at 0.1 min, 20%/80% at 10 min, 0.5%/99.5% at 10.1 min, 0.5%/99.5% at 12.0 min, 99.5%/0.5% at 12.1 min, 99.5%/0.5% at 15.0 min)
AC$CHROMATOGRAPHY: FLOW_RATE 0.3 ml/min at 0 min, 0.3 ml/min at 10 min, 0.4 ml/min at 10.1 min, 0.4 ml/min at 14.4 min, 0.3 ml/min at 14.5 min
AC$CHROMATOGRAPHY: RETENTION_TIME 5.807217
AC$CHROMATOGRAPHY: SOLVENT A water including 0.1% formic acid
AC$CHROMATOGRAPHY: SOLVENT B acetonitrile including 0.1% formic acid
MS$FOCUSED_ION: PRECURSOR_TYPE [M+H]+
MS$FOCUSED_ION: PRECURSOR_M/Z 455.1489149
PK$SPLASH: splash10-0aos-0693000000-5281f3c32b0dd0ca917b
PK$NUM_PEAK: 294
PK$PEAK: m/z int. rel.int.
  68.98405 7.0 7
  69.74789 5.0 5
  74.93945 15.0 15
  91.29613 6.0 6
  106.32275 11.0 11
  107.04899 1000.0 999
  108.04295 7.0 7
  108.05296 29.0 29
  109.02581 6.0 6
  109.03561 12.0 12
  111.29752 6.0 6
  119.05103 27.0 27
  120.05339 11.0 11
  121.02827 27.0 27
  121.06126 7.0 7
  123.04381 52.0 52
  127.40174 6.0 6
  128.05693 5.0 5
  131.04517 6.0 6
  131.05434 6.0 6
  132.05833 6.0 6
  133.02354 31.0 31
  133.03113 74.0 74
  134.08031 7.0 7
  137.0119 12.0 12
  137.02338 92.0 92
  142.56912 5.0 5
  144.04861 6.0 6
  144.0784 6.0 6
  144.09018 7.0 7
  145.06036 6.0 6
  145.06728 7.0 7
  146.06898 5.0 5
  147.04324 12.0 12
  147.07063 6.0 6
  147.07808 13.0 13
  148.05429 5.0 5
  153.0668 7.0 7
  153.58841 7.0 7
  155.08896 8.0 8
  157.06573 40.0 40
  159.03763 6.0 6
  159.08189 22.0 22
  166.0815 6.0 6
  169.06662 38.0 38
  170.06346 21.0 21
  171.07924 41.0 41
  173.06683 7.0 7
  173.45007 5.0 5
  174.0666 6.0 6
  175.03593 8.0 8
  181.06422 56.0 56
  183.0757 13.0 13
  183.88914 7.0 7
  185.0378 7.0 7
  185.06297 16.0 16
  187.06357 15.0 15
  187.07327 12.0 12
  187.0802 9.0 9
  188.07523 12.0 12
  189.06079 6.0 6
  195.07875 29.0 29
  195.09151 5.0 5
  197.0495 31.0 31
  197.0625 184.0 184
  198.06293 41.0 41
  199.07523 441.0 441
  200.06454 8.0 8
  200.07687 29.0 29
  201.05766 5.0 5
  202.08311 7.0 7
  205.00864 11.0 11
  205.05685 6.0 6
  205.07001 5.0 5
  207.07915 10.0 10
  209.05215 22.0 22
  209.06351 28.0 28
  210.04347 9.0 9
  210.06296 16.0 16
  210.07672 9.0 9
  211.03477 7.0 7
  211.07248 25.0 25
  211.08345 41.0 41
  211.3712 6.0 6
  213.04709 20.0 20
  213.05936 13.0 13
  213.08438 6.0 6
  215.03937 6.0 6
  215.07079 778.0 777
  215.19934 12.0 12
  216.07085 63.0 63
  216.08067 40.0 40
  217.04243 5.0 5
  217.07016 10.0 10
  221.05827 5.0 5
  221.09557 5.0 5
  222.06654 7.0 7
  223.07634 43.0 43
  224.06302 6.0 6
  224.08614 6.0 6
  225.04196 6.0 6
  225.05843 15.0 15
  226.05544 10.0 10
  226.06718 11.0 11
  227.07008 322.0 322
  228.06862 48.0 48
  228.0764 60.0 60
  228.08943 15.0 15
  229.05858 7.0 7
  229.08684 13.0 13
  230.07899 11.0 11
  231.06602 11.0 11
  231.07639 6.0 6
  233.07138 11.0 11
  234.06064 7.0 7
  234.07524 6.0 6
  238.05637 25.0 25
  238.07208 5.0 5
  239.04625 19.0 19
  239.0687 422.0 422
  239.07938 94.0 94
  239.10043 7.0 7
  240.05014 6.0 6
  240.07568 80.0 80
  241.0506 69.0 69
  241.07346 6.0 6
  241.10899 11.0 11
  242.05244 5.0 5
  243.06914 21.0 21
  243.1913 5.0 5
  244.08824 7.0 7
  244.88237 6.0 6
  245.08638 5.0 5
  246.11423 8.0 8
  247.07967 11.0 11
  247.10658 6.0 6
  247.11813 14.0 14
  249.05457 24.0 24
  250.03918 6.0 6
  250.05772 43.0 43
  250.11105 5.0 5
  251.06274 37.0 37
  251.07219 134.0 134
  252.07317 53.0 53
  252.08658 15.0 15
  252.76089 7.0 7
  253.03764 5.0 5
  253.05649 18.0 18
  254.0593 12.0 12
  255.05995 167.0 167
  255.0829 18.0 18
  256.05264 6.0 6
  256.07449 37.0 37
  256.08713 6.0 6
  257.07056 5.0 5
  257.10486 6.0 6
  259.11179 7.0 7
  260.08054 13.0 13
  261.08182 5.0 5
  262.09488 6.0 6
  263.10938 6.0 6
  265.08319 17.0 17
  267.06464 108.0 108
  268.06949 8.0 8
  269.09735 19.0 19
  270.08463 5.0 5
  271.07831 9.0 9
  272.06894 9.0 9
  273.1066 12.0 12
  274.09454 5.0 5
  275.10239 16.0 16
  276.10721 6.0 6
  277.08075 20.0 20
  278.0802 7.0 7
  279.07944 7.0 7
  279.09348 6.0 6
  281.09039 5.0 5
  283.07184 5.0 5
  283.08469 7.0 7
  285.0784 6.0 6
  287.09436 7.0 7
  287.11383 25.0 25
  288.07205 5.0 5
  289.04446 5.0 5
  289.07556 12.0 12
  289.0882 64.0 64
  290.09933 6.0 6
  291.09253 5.0 5
  291.10596 27.0 27
  292.05179 5.0 5
  292.08417 7.0 7
  292.1149 5.0 5
  293.07785 8.0 8
  293.1051 9.0 9
  295.69223 6.0 6
  296.08347 8.0 8
  297.08853 49.0 49
  298.08606 12.0 12
  299.06378 6.0 6
  299.08591 6.0 6
  299.11081 27.0 27
  300.07172 19.0 19
  301.08456 46.0 46
  301.10715 7.0 7
  303.07852 5.0 5
  304.06793 5.0 5
  304.13007 6.0 6
  305.07968 5.0 5
  305.08929 5.0 5
  308.09213 11.0 11
  309.10172 6.0 6
  310.09241 6.0 6
  313.07437 9.0 9
  313.0874 16.0 16
  313.1123 6.0 6
  314.09732 5.0 5
  315.09399 24.0 24
  315.10742 62.0 62
  316.03027 6.0 6
  316.05594 11.0 11
  316.09894 33.0 33
  317.0575 5.0 5
  317.07657 10.0 10
  317.08826 7.0 7
  317.11172 15.0 15
  318.06613 12.0 12
  318.09506 19.0 19
  319.09744 11.0 11
  321.10043 7.0 7
  325.09131 93.0 93
  326.01001 5.0 5
  326.08289 15.0 15
  326.09802 15.0 15
  326.11139 7.0 7
  327.1059 25.0 25
  329.07794 25.0 25
  329.09018 51.0 51
  330.08356 26.0 26
  330.10635 6.0 6
  331.08319 25.0 25
  331.09796 31.0 31
  332.09232 46.0 46
  332.10974 118.0 118
  333.08505 10.0 10
  333.11765 61.0 61
  334.08438 18.0 18
  334.12057 17.0 17
  335.08017 6.0 6
  336.1272 6.0 6
  338.14911 6.0 6
  343.09207 105.0 105
  343.11542 11.0 11
  343.57642 9.0 9
  344.09821 25.0 25
  344.10925 20.0 20
  345.09866 8.0 8
  345.10928 11.0 11
  346.09814 10.0 10
  346.11121 12.0 12
  347.07376 7.0 7
  347.08862 30.0 30
  347.10443 9.0 9
  348.0777 8.0 8
  348.10117 22.0 22
  348.11798 18.0 18
  349.09778 29.0 29
  349.116 50.0 50
  349.15012 5.0 5
  350.10989 45.0 45
  352.12796 10.0 10
  355.14041 5.0 5
  359.58636 6.0 6
  360.09485 7.0 7
  360.10928 12.0 12
  361.09256 9.0 9
  361.1109 41.0 41
  362.10629 21.0 21
  362.12277 18.0 18
  363.10767 5.0 5
  366.12073 14.0 14
  367.13644 10.0 10
  372.09973 5.0 5
  378.10632 6.0 6
  391.11624 5.0 5
  392.13196 13.0 13
  392.14874 7.0 7
  395.12701 7.0 7
  395.13892 6.0 6
  402.05225 5.0 5
  409.12692 6.0 6
  418.14737 7.0 7
  420.13235 15.0 15
  420.1427 5.0 5
  438.15405 7.0 7
//
