ACCESSION: MSBNK-RIKEN-PR301026
RECORD_TITLE: Laudanosine; LC-ESI-QTOF; MS2
DATE: 2019.03.28
AUTHORS: Tetsuya Mori, Center for Sustainable Resource Science, RIKEN
LICENSE: CC BY-NC-SA
PUBLICATION: Tsugawa H., Nakabayashi R., Mori T., Yamada Y., Takahashi M., Rai A., Sugiyama R., Yamamoto H., Nakaya T., Yamazaki M., Kooke R., Bac-Molenaar JA., Oztolan-Erol N., Keurentjes JJB., Arita M., Saito K. (2019) "A cheminformatics approach to characterize metabolomes in stable-isotope-labeled organisms" Nature Methods 16(4):295-298. [doi:10.1038/s41592-019-0358-2]
COMMENT: registered in RIKEN PlaSMA
CH$NAME: Laudanosine
CH$COMPOUND_CLASS: Benzylisoquinolines
CH$FORMULA: C21H27NO4
CH$EXACT_MASS: 357.45
CH$SMILES: COC1=C(OC)C=C(CC2N(C)CCC3=CC(OC)=C(OC)C=C23)C=C1
CH$IUPAC: InChI=1S/C21H27NO4/c1-22-9-8-15-12-20(25-4)21(26-5)13-16(15)17(22)10-14-6-7-18(23-2)19(11-14)24-3/h6-7,11-13,17H,8-10H2,1-5H3
CH$LINK: INCHIKEY KGPAYJZAMGEDIQ-UHFFFAOYSA-N
AC$INSTRUMENT: LC, Waters Acquity UPLC System; MS, Waters Xevo G2 Q-Tof
AC$INSTRUMENT_TYPE: LC-ESI-QTOF
AC$MASS_SPECTROMETRY: MS_TYPE MS2
AC$MASS_SPECTROMETRY: ION_MODE POSITIVE
AC$MASS_SPECTROMETRY: COLLISION_ENERGY 6V
AC$MASS_SPECTROMETRY: DESOLVATION_GAS_FLOW 800/h
AC$MASS_SPECTROMETRY: DESOLVATION_TEMPERATURE 450 C
AC$MASS_SPECTROMETRY: IONIZATION ESI
AC$CHROMATOGRAPHY: CAPILLARY_VOLTAGE +3.00 kV
AC$CHROMATOGRAPHY: COLUMN_NAME Acquity bridged ethyl hybrid C18 (1.7 um, 2.1 mm * 100 mm, Waters)
AC$CHROMATOGRAPHY: COLUMN_TEMPERATURE 40 C
AC$CHROMATOGRAPHY: FLOW_GRADIENT A/B = (99.5%/0.5% at 0 min, 99.5%/0.5% at 0.1 min, 20%/80% at 10 min, 0.5%/99.5% at 10.1 min, 0.5%/99.5% at 12.0 min, 99.5%/0.5% at 12.1 min, 99.5%/0.5% at 15.0 min)
AC$CHROMATOGRAPHY: FLOW_RATE 0.3 ml/min at 0 min, 0.3 ml/min at 10 min, 0.4 ml/min at 10.1 min, 0.4 ml/min at 14.4 min, 0.3 ml/min at 14.5 min
AC$CHROMATOGRAPHY: RETENTION_TIME 4.2568
AC$CHROMATOGRAPHY: SOLVENT A water including 0.1% formic acid
AC$CHROMATOGRAPHY: SOLVENT B acetonitrile including 0.1% formic acid
MS$FOCUSED_ION: PRECURSOR_TYPE [M+H]+
MS$FOCUSED_ION: PRECURSOR_M/Z 358.2012848
PK$SPLASH: splash10-052f-0910000000-cbed978e1357572e32d9
PK$NUM_PEAK: 339
PK$PEAK: m/z int. rel.int.
  55.02055 6.0 6
  66.04749 8.0 8
  67.05158 13.0 13
  77.03484 22.0 22
  77.03967 12.0 12
  78.04371 6.0 6
  79.05156 13.0 13
  79.05629 15.0 15
  79.06206 7.0 7
  80.06342 12.0 12
  81.0661 7.0 7
  89.36597 11.0 11
  90.04601 90.0 90
  91.05486 165.0 165
  92.05477 18.0 18
  92.06069 5.0 5
  93.03815 6.0 6
  93.06184 7.0 7
  93.07213 12.0 12
  94.04058 11.0 11
  98.14174 8.0 8
  99.40566 7.0 7
  102.04741 5.0 5
  103.0339 7.0 7
  103.04742 8.0 8
  103.05485 56.0 56
  104.05933 9.0 9
  104.06553 5.0 5
  105.03846 7.0 7
  105.05676 7.0 7
  105.06541 16.0 16
  105.07198 19.0 19
  106.04344 55.0 55
  106.07959 6.0 6
  106.9695 9.0 9
  107.04926 403.0 403
  107.06183 6.0 6
  107.11536 5.0 5
  108.05159 39.0 39
  108.05746 137.0 137
  109.05409 7.0 7
  109.0598 5.0 5
  115.05124 85.0 85
  115.05743 89.0 89
  116.05804 29.0 29
  116.06743 38.0 38
  117.04861 9.0 9
  117.05757 10.0 10
  117.06967 27.0 27
  118.04164 17.0 17
  118.07016 8.0 8
  119.04642 33.0 33
  119.05956 5.0 5
  120.04832 6.0 6
  121.0274 11.0 11
  121.03469 7.0 7
  121.06266 69.0 69
  121.06802 66.0 66
  121.07742 7.0 7
  122.06911 11.0 11
  123.08066 17.0 17
  127.04942 31.0 31
  127.05644 96.0 96
  128.05505 23.0 23
  128.06409 134.0 134
  128.07433 5.0 5
  129.05447 7.0 7
  129.0724 109.0 109
  130.04292 11.0 11
  131.0181 9.0 9
  131.03149 19.0 19
  131.04608 61.0 61
  131.05432 99.0 99
  131.07491 38.0 38
  131.08694 10.0 10
  132.05531 45.0 45
  132.06978 10.0 10
  132.0829 46.0 46
  133.00247 7.0 7
  133.01733 7.0 7
  133.03279 37.0 37
  133.05676 37.0 37
  133.06924 8.0 8
  133.08546 16.0 16
  134.07376 34.0 34
  134.09494 7.0 7
  135.04202 164.0 164
  135.0491 59.0 59
  135.06891 6.0 6
  135.08205 15.0 15
  136.05171 78.0 78
  136.05995 21.0 21
  137.0565 6.0 6
  137.06223 14.0 14
  137.84111 5.0 5
  143.02258 7.0 7
  143.03967 33.0 33
  143.04921 209.0 209
  143.06126 14.0 14
  144.03877 10.0 10
  144.05554 143.0 143
  144.06219 40.0 40
  144.07335 12.0 12
  144.08185 11.0 11
  145.05432 43.0 43
  145.06125 73.0 73
  145.06955 99.0 99
  145.08904 214.0 214
  145.11595 7.0 7
  145.79179 6.0 6
  146.03703 8.0 8
  146.05113 7.0 7
  146.06305 76.0 76
  146.075 31.0 31
  146.09711 29.0 29
  147.03593 5.0 5
  147.04227 6.0 6
  147.05605 6.0 6
  147.07303 10.0 10
  147.09584 8.0 8
  148.04933 9.0 9
  148.05493 9.0 9
  148.07498 38.0 38
  149.0611 29.0 29
  149.08099 5.0 5
  150.06784 59.0 59
  150.09352 7.0 7
  150.66794 5.0 5
  151.0762 746.0 745
  152.05815 16.0 16
  152.08122 43.0 43
  152.77875 7.0 7
  154.08403 6.0 6
  155.04315 6.0 6
  155.05276 11.0 11
  155.08276 9.0 9
  157.05751 13.0 13
  157.06764 29.0 29
  157.10107 7.0 7
  158.07384 320.0 320
  159.04521 195.0 195
  159.07076 17.0 17
  159.08131 52.0 52
  159.09619 9.0 9
  160.05125 15.0 15
  160.06174 7.0 7
  160.07074 21.0 21
  160.08292 44.0 44
  160.40602 5.0 5
  161.04768 7.0 7
  161.06181 37.0 37
  161.08253 68.0 68
  161.10397 7.0 7
  162.0731 5.0 5
  162.09129 427.0 427
  163.07703 16.0 16
  163.09038 15.0 15
  163.09929 45.0 45
  163.23039 5.0 5
  164.08351 17.0 17
  164.08908 5.0 5
  165.0638 13.0 13
  165.07234 18.0 18
  165.08435 17.0 17
  165.09705 13.0 13
  166.07408 6.0 6
  167.08058 16.0 16
  167.09081 15.0 15
  169.05119 6.0 6
  169.1071 8.0 8
  170.10373 10.0 10
  172.08124 24.0 24
  173.04593 7.0 7
  173.08609 30.0 30
  174.06845 121.0 121
  174.09108 75.0 75
  174.66275 5.0 5
  175.06126 13.0 13
  175.07085 12.0 12
  175.09355 14.0 14
  175.86299 7.0 7
  176.0705 15.0 15
  177.06819 12.0 12
  177.07854 6.0 6
  177.11072 7.0 7
  178.07558 36.0 36
  178.08199 34.0 34
  179.08241 44.0 44
  179.0918 10.0 10
  179.10269 7.0 7
  180.08006 5.0 5
  180.09074 6.0 6
  181.05713 7.0 7
  181.06494 11.0 11
  181.08266 8.0 8
  182.07712 15.0 15
  182.23674 5.0 5
  183.08202 7.0 7
  183.09116 8.0 8
  186.06433 7.0 7
  187.05164 9.0 9
  188.06631 39.0 39
  188.07782 16.0 16
  189.06459 7.0 7
  189.07437 10.0 10
  189.09445 24.0 24
  190.06187 8.0 8
  190.08554 1000.0 999
  190.13464 6.0 6
  190.39447 5.0 5
  190.7406 8.0 8
  191.06496 6.0 6
  191.08994 316.0 316
  191.15776 9.0 9
  192.08922 13.0 13
  192.09744 38.0 38
  193.07277 6.0 6
  193.09766 10.0 10
  193.10683 6.0 6
  194.06714 7.0 7
  194.08026 30.0 30
  195.06674 29.0 29
  195.08051 75.0 75
  196.07373 8.0 8
  196.08777 21.0 21
  197.056 7.0 7
  197.08789 6.0 6
  197.10211 13.0 13
  198.10303 8.0 8
  198.11198 9.0 9
  198.19189 6.0 6
  201.06215 5.0 5
  202.05977 6.0 6
  202.07101 5.0 5
  202.08893 6.0 6
  203.07568 10.0 10
  205.05638 7.0 7
  205.06715 6.0 6
  206.06833 10.0 10
  206.0762 5.0 5
  206.1169 221.0 221
  207.06725 18.0 18
  207.08311 41.0 41
  207.09927 5.0 5
  207.11844 24.0 24
  208.08029 21.0 21
  208.08852 41.0 41
  209.05934 6.0 6
  209.06894 13.0 13
  209.09445 36.0 36
  210.0515 10.0 10
  210.0712 24.0 24
  210.09914 15.0 15
  210.10748 27.0 27
  211.07384 29.0 29
  211.10567 12.0 12
  213.07555 11.0 11
  218.06572 11.0 11
  218.27139 5.0 5
  219.07321 17.0 17
  219.08353 21.0 21
  221.06909 8.0 8
  221.09561 60.0 60
  221.1086 8.0 8
  222.06133 15.0 15
  222.07112 11.0 11
  222.10516 8.0 8
  222.11261 11.0 11
  223.0343 8.0 8
  223.07001 28.0 28
  223.08748 7.0 7
  223.09525 7.0 7
  224.07346 13.0 13
  224.09729 5.0 5
  225.07454 6.0 6
  225.09193 37.0 37
  225.11946 6.0 6
  226.08679 7.0 7
  226.10181 39.0 39
  226.11189 11.0 11
  227.08948 5.0 5
  227.10136 11.0 11
  233.10028 7.0 7
  234.05836 5.0 5
  234.07059 11.0 11
  234.1015 12.0 12
  235.04492 6.0 6
  235.07826 22.0 22
  235.08614 6.0 6
  236.0442 6.0 6
  236.0524 7.0 7
  236.07275 14.0 14
  236.08296 25.0 25
  237.07324 8.0 8
  237.09036 61.0 61
  238.08676 29.0 29
  238.10077 56.0 56
  239.04965 5.0 5
  239.06863 7.0 7
  239.10661 15.0 15
  240.10031 7.0 7
  240.69185 6.0 6
  242.10269 8.0 8
  248.10274 5.0 5
  249.06297 11.0 11
  249.09578 18.0 18
  250.05396 7.0 7
  250.0735 6.0 6
  250.11284 10.0 10
  251.06892 31.0 31
  251.08215 16.0 16
  251.09972 10.0 10
  252.08095 13.0 13
  252.09935 27.0 27
  252.10667 14.0 14
  253.08598 13.0 13
  253.09558 10.0 10
  253.13029 11.0 11
  254.08527 8.0 8
  255.12009 5.0 5
  265.07932 5.0 5
  265.12085 7.0 7
  265.2211 7.0 7
  266.0737 9.0 9
  266.09296 12.0 12
  267.0986 7.0 7
  268.11078 5.0 5
  281.10699 24.0 24
  283.12234 8.0 8
  298.54062 7.0 7
  311.11365 8.0 8
  311.13257 7.0 7
  319.28568 8.0 8
  324.65524 5.0 5
  343.18646 10.0 10
  352.48755 7.0 7
  358.17773 5.0 5
  358.20142 20.0 20
  358.2243 6.0 6
//
