ACCESSION: MSBNK-RIKEN-PR100244
RECORD_TITLE: Kaempferol-3-O-rutinoside; LC-ESI-QTOF; MS2; CE:Ramp 5-60 V; [M+H]+
DATE: 2016.01.19 (Created 2009.09.10, modified 2011.05.06)
AUTHORS: Matsuda F, Suzuki M, Sawada Y, Plant Science Center, RIKEN.
LICENSE: CC BY-SA
COMMENT: Acquisition and generation of the data is financially supported in part by CREST/JST.
CH$NAME: Kaempferol-3-O-rutinoside
CH$NAME: Kaem-3-Glc-6pp-Rha
CH$NAME: Nicotiflorin
CH$NAME: kaempferol-3-rhamnoglucoside
CH$COMPOUND_CLASS: Flavonoid
CH$FORMULA: C27H30O15
CH$EXACT_MASS: 594.15847
CH$SMILES: c(c5)(O)cc(c(c51)C(C(OC(O3)C(C(C(C3COC(C4O)OC(C(C4O)O)C)O)O)O)=C(c(c2)ccc(O)c2)O1)=O)O
CH$IUPAC: InChI=1S/C27H30O15/c1-9-17(31)20(34)22(36)26(39-9)38-8-15-18(32)21(35)23(37)27(41-15)42-25-19(33)16-13(30)6-12(29)7-14(16)40-24(25)10-2-4-11(28)5-3-10/h2-7,9,15,17-18,20-23,26-32,34-37H,8H2,1H3/t9-,15+,17-,18+,20+,21-,22+,23+,26+,27-/m0/s1
CH$LINK: CAS 17650-84-9
CH$LINK: CHEMSPIDER 4477257
CH$LINK: KNAPSACK C00005169
CH$LINK: PUBCHEM CID:5318767
CH$LINK: INCHIKEY RTATXGUCZHCSNG-QHWHWDPRSA-N
CH$LINK: COMPTOX DTXSID50938804
AC$INSTRUMENT: UPLC Q-Tof Premier, Waters
AC$INSTRUMENT_TYPE: LC-ESI-QTOF
AC$MASS_SPECTROMETRY: MS_TYPE MS2
AC$MASS_SPECTROMETRY: ION_MODE POSITIVE
AC$MASS_SPECTROMETRY: COLLISION_ENERGY Ramp 5-60 V
AC$MASS_SPECTROMETRY: DATAFORMAT Continuum
AC$MASS_SPECTROMETRY: DESOLVATION_GAS_FLOW 600.0 L/Hr
AC$MASS_SPECTROMETRY: DESOLVATION_TEMPERATURE 400 C
AC$MASS_SPECTROMETRY: FRAGMENTATION_METHOD LOW-ENERGY CID
AC$MASS_SPECTROMETRY: IONIZATION ESI
AC$MASS_SPECTROMETRY: SOURCE_TEMPERATURE 120 C
AC$CHROMATOGRAPHY: CAPILLARY_VOLTAGE 3.0 kV
AC$CHROMATOGRAPHY: SAMPLING_CONE 23.0 V
AC$CHROMATOGRAPHY: SOLVENT A CH3CN(0.1%HCOOH)
AC$CHROMATOGRAPHY: SOLVENT B H2O(0.1%HCOOH)
MS$FOCUSED_ION: PRECURSOR_M/Z 595.16626
MS$FOCUSED_ION: PRECURSOR_TYPE [M+H]+
PK$SPLASH: splash10-000i-1090000000-3088bfe37d81babe0ddd
PK$NUM_PEAK: 9
PK$PEAK: m/z int. rel.int.
  71.0506 204.3 48
  85.0293 397.6 93
  129.0554 137.3 32
  153.0191 55.25 13
  165.0204 47.86 11
  287.0551 4292 999
  288.0587 55.68 13
  449.1075 363.7 85
  595.1663 169.8 40
//
