ACCESSION: MSBNK-RIKEN-PR308735
RECORD_TITLE: Enterodiol; LC-ESI-QTOF; MS2
DATE: 2019.03.28
AUTHORS: Tetsuya Mori, Center for Sustainable Resource Science, RIKEN
LICENSE: CC BY-NC-SA
PUBLICATION: Tsugawa H., Nakabayashi R., Mori T., Yamada Y., Takahashi M., Rai A., Sugiyama R., Yamamoto H., Nakaya T., Yamazaki M., Kooke R., Bac-Molenaar JA., Oztolan-Erol N., Keurentjes JJB., Arita M., Saito K. (2019) "A cheminformatics approach to characterize metabolomes in stable-isotope-labeled organisms" Nature Methods 16(4):295-298. [doi:10.1038/s41592-019-0358-2]
COMMENT: Annotation level-1
CH$NAME: Enterodiol
CH$COMPOUND_CLASS: Lignols
CH$FORMULA: C18H22O4
CH$EXACT_MASS: 302.37
CH$SMILES: OCC(CC1=CC(O)=CC=C1)C(CO)CC1=CC(O)=CC=C1
CH$IUPAC: InChI=1S/C18H22O4/c19-11-15(7-13-3-1-5-17(21)9-13)16(12-20)8-14-4-2-6-18(22)10-14/h1-6,9-10,15-16,19-22H,7-8,11-12H2
CH$LINK: INCHIKEY DWONJCNDULPHLV-UHFFFAOYSA-N
AC$INSTRUMENT: LC, Waters Acquity UPLC System; MS, Waters Xevo G2 Q-Tof
AC$INSTRUMENT_TYPE: LC-ESI-QTOF
AC$MASS_SPECTROMETRY: MS_TYPE MS2
AC$MASS_SPECTROMETRY: ION_MODE NEGATIVE
AC$MASS_SPECTROMETRY: COLLISION_ENERGY 6V
AC$MASS_SPECTROMETRY: DESOLVATION_GAS_FLOW 800/h
AC$MASS_SPECTROMETRY: DESOLVATION_TEMPERATURE 450 C
AC$MASS_SPECTROMETRY: IONIZATION ESI
AC$CHROMATOGRAPHY: CAPILLARY_VOLTAGE +3.00 kV
AC$CHROMATOGRAPHY: COLUMN_NAME Acquity bridged ethyl hybrid C18 (1.7 um, 2.1 mm * 100 mm, Waters)
AC$CHROMATOGRAPHY: COLUMN_TEMPERATURE 40 C
AC$CHROMATOGRAPHY: FLOW_GRADIENT A/B = (99.5%/0.5% at 0 min, 99.5%/0.5% at 0.1 min, 20%/80% at 10 min, 0.5%/99.5% at 10.1 min, 0.5%/99.5% at 12.0 min, 99.5%/0.5% at 12.1 min, 99.5%/0.5% at 15.0 min)
AC$CHROMATOGRAPHY: FLOW_RATE 0.3 ml/min at 0 min, 0.3 ml/min at 10 min, 0.4 ml/min at 10.1 min, 0.4 ml/min at 14.4 min, 0.3 ml/min at 14.5 min
AC$CHROMATOGRAPHY: RETENTION_TIME 5.24
AC$CHROMATOGRAPHY: SOLVENT A water including 0.1% formic acid
AC$CHROMATOGRAPHY: SOLVENT B acetonitrile including 0.1% formic acid
MS$FOCUSED_ION: PRECURSOR_TYPE [M-H]-
MS$FOCUSED_ION: PRECURSOR_M/Z 301.14453
PK$SPLASH: splash10-0udi-0249000000-a7df109237b96812f4fb
PK$NUM_PEAK: 93
PK$PEAK: m/z int. rel.int.
  65.04253 50.0 3
  79.04952 22.0 1
  81.03083 21.0 1
  92.0221 68.0 4
  93.03224 28.0 2
  101.93948 22.0 1
  106.04188 1237.0 68
  106.65598 23.0 1
  107.04903 757.0 42
  108.04936 45.0 2
  109.06532 299.0 16
  109.77608 28.0 2
  110.07417 29.0 2
  119.05258 276.0 15
  121.05533 29.0 2
  121.06654 18.0 1
  122.46178 21.0 1
  126.32831 21.0 1
  127.20366 18.0 1
  130.03253 26.0 1
  130.04111 68.0 4
  131.04779 62.0 3
  132.05803 29.0 2
  133.06609 303.0 17
  136.22847 21.0 1
  139.97092 22.0 1
  144.05115 21.0 1
  144.06099 55.0 3
  145.06355 198.0 11
  146.07265 568.0 31
  147.07779 60.0 3
  149.0524 24.0 1
  149.06023 108.0 6
  149.09605 18.0 1
  150.06674 61.0 3
  150.5338 18.0 1
  157.0605 31.0 2
  157.07463 26.0 1
  159.07436 47.0 3
  160.03976 18.0 1
  161.05412 26.0 1
  161.06093 84.0 5
  162.06424 29.0 2
  163.07791 141.0 8
  171.08379 20.0 1
  173.05878 38.0 2
  174.07072 33.0 2
  174.91417 27.0 1
  175.07684 90.0 5
  176.07825 21.0 1
  181.06544 18.0 1
  184.33415 18.0 1
  198.06912 27.0 1
  199.10753 51.0 3
  211.12256 33.0 2
  213.10454 39.0 2
  236.12016 21.0 1
  241.12361 453.0 25
  241.14839 18.0 1
  242.11824 83.0 5
  242.13458 21.0 1
  242.43196 19.0 1
  249.7332 18.0 1
  251.09692 20.0 1
  253.12245 4823.0 265
  253.80061 18.0 1
  254.11777 250.0 14
  254.12683 850.0 47
  254.32082 20.0 1
  254.95717 18.0 1
  255.13655 40.0 2
  267.26947 29.0 2
  267.30728 25.0 1
  269.1152 20.0 1
  270.10855 32.0 2
  270.88864 30.0 2
  271.13446 1157.0 64
  272.1366 251.0 14
  273.15262 20.0 1
  276.27359 18.0 1
  278.19281 25.0 1
  282.13577 20.0 1
  283.12695 75.0 4
  283.13721 240.0 13
  283.80179 20.0 1
  284.13516 52.0 3
  284.14774 82.0 5
  285.16037 18.0 1
  290.36993 25.0 1
  295.84592 20.0 1
  301.02893 23.0 1
  301.14355 18187.0 999
  301.18985 150.0 8
//
