ACCESSION: MSBNK-RIKEN-PR040047
RECORD_TITLE: Pelargonin; LC-ESI-QTOF; MS2; CE:30 V; [M]+
DATE: 2016.01.19 (Created 2007.11.09, modified 2011.05.06)
AUTHORS: Matsuda F, Plant Science Center, RIKEN.
LICENSE: CC BY-SA
CH$NAME: pelargonidin-3,5-di-O-glucoside
CH$NAME: Pelargonin
CH$NAME: (2S,3R,4S,5S,6R)-2-[7-hydroxy-2-(4-hydroxyphenyl)-5-[(2S,3R,4S,5S,6R)-3,4,5-trihydroxy-6-(hydroxymethyl)oxan-2-yl]oxychromenylium-3-yl]oxy-6-(hydroxym
CH$COMPOUND_CLASS: Natural Product
CH$FORMULA: [C27H31O15]+
CH$EXACT_MASS: 595.16630
CH$SMILES: O(C5CO)C(C(C(C5O)O)O)Oc(c4)c(c1)c(cc4O)[o+1]c(c(c3)ccc(O)c3)c(OC(O2)C(C(C(C2CO)O)O)O)1
CH$IUPAC: InChI=1S/C27H30O15/c28-8-17-19(32)21(34)23(36)26(41-17)39-15-6-12(31)5-14-13(15)7-16(25(38-14)10-1-3-11(30)4-2-10)40-27-24(37)22(35)20(33)18(9-29)42-27/h1-7,17-24,26-29,32-37H,8-9H2,(H-,30,31)/p+1/t17-,18-,19-,20-,21+,22+,23-,24-,26-,27-/m1/s1
CH$LINK: CAS 17334-58-6
CH$LINK: KEGG C08725
CH$LINK: KNAPSACK C00002387
CH$LINK: PUBCHEM CID:441772
CH$LINK: INCHIKEY SLCKJKWFULXZBD-ZOTFFYTFSA-O
AC$INSTRUMENT: UPLC Q-Tof Premier, Waters
AC$INSTRUMENT_TYPE: LC-ESI-QTOF
AC$MASS_SPECTROMETRY: MS_TYPE MS2
AC$MASS_SPECTROMETRY: ION_MODE POSITIVE
AC$MASS_SPECTROMETRY: COLLISION_ENERGY 30 V
AC$MASS_SPECTROMETRY: DATAFORMAT Continuum
AC$MASS_SPECTROMETRY: DESOLVATION_GAS_FLOW 600.0 L/Hr
AC$MASS_SPECTROMETRY: DESOLVATION_TEMPERATURE 400 C
AC$MASS_SPECTROMETRY: FRAGMENTATION_METHOD LOW-ENERGY CID
AC$MASS_SPECTROMETRY: IONIZATION ESI
AC$MASS_SPECTROMETRY: SCANNING 1.0 sec/scan (m/z = 50-1000)
AC$MASS_SPECTROMETRY: SOURCE_TEMPERATURE 120 C
AC$CHROMATOGRAPHY: CAPILLARY_VOLTAGE 3.0 kV
AC$CHROMATOGRAPHY: SAMPLING_CONE 23.0 V
AC$CHROMATOGRAPHY: SOLVENT A CH3CN(0.1%HCOOH)
AC$CHROMATOGRAPHY: SOLVENT B H2O(0.1%HCOOH)
MS$FOCUSED_ION: FULL_SCAN_FRAGMENT_ION_PEAK 595.2
MS$FOCUSED_ION: ION_TYPE [M]+
MS$DATA_PROCESSING: WHOLE MassLynx 4.1
PK$SPLASH: splash10-00di-0090000000-45ff5bee9fe56c457336
PK$NUM_PEAK: 7
PK$PEAK: m/z int. rel.int.
  270.9750 52240 999
  271.0607 4753 90
  271.2296 715 13
  271.4538 485 9
  271.9787 2481 47
  272.0625 477 9
  432.9792 516 9
//
