ACCESSION: MSBNK-RIKEN-PR300892
RECORD_TITLE: Cinchonine; LC-ESI-QTOF; MS2
DATE: 2019.03.28
AUTHORS: Tetsuya Mori, Center for Sustainable Resource Science, RIKEN
LICENSE: CC BY-NC-SA
PUBLICATION: Tsugawa H., Nakabayashi R., Mori T., Yamada Y., Takahashi M., Rai A., Sugiyama R., Yamamoto H., Nakaya T., Yamazaki M., Kooke R., Bac-Molenaar JA., Oztolan-Erol N., Keurentjes JJB., Arita M., Saito K. (2019) "A cheminformatics approach to characterize metabolomes in stable-isotope-labeled organisms" Nature Methods 16(4):295-298. [doi:10.1038/s41592-019-0358-2]
COMMENT: registered in RIKEN PlaSMA
CH$NAME: Cinchonine
CH$COMPOUND_CLASS: Cinchona alkaloids
CH$FORMULA: C19H22N2O
CH$EXACT_MASS: 294.398
CH$SMILES: C=C[C@H]1CN2CC[C@H]1C[C@@H]2[C@H](C3=CC=NC4=CC=CC=C34)O
CH$IUPAC: InChI=1S/C19H22N2O/c1-2-13-12-21-10-8-14(13)11-18(21)19(22)16-7-9-20-17-6-4-3-5-15(16)17/h2-7,9,13-14,18-19,22H,1,8,10-12H2/t13-,14-,18+,19-/m0/s1
CH$LINK: INCHIKEY KMPWYEUPVWOPIM-QAMTZSDWSA-N
AC$INSTRUMENT: LC, Waters Acquity UPLC System; MS, Waters Xevo G2 Q-Tof
AC$INSTRUMENT_TYPE: LC-ESI-QTOF
AC$MASS_SPECTROMETRY: MS_TYPE MS2
AC$MASS_SPECTROMETRY: ION_MODE POSITIVE
AC$MASS_SPECTROMETRY: COLLISION_ENERGY 6V
AC$MASS_SPECTROMETRY: DESOLVATION_GAS_FLOW 800/h
AC$MASS_SPECTROMETRY: DESOLVATION_TEMPERATURE 450 C
AC$MASS_SPECTROMETRY: IONIZATION ESI
AC$CHROMATOGRAPHY: CAPILLARY_VOLTAGE +3.00 kV
AC$CHROMATOGRAPHY: COLUMN_NAME Acquity bridged ethyl hybrid C18 (1.7 um, 2.1 mm * 100 mm, Waters)
AC$CHROMATOGRAPHY: COLUMN_TEMPERATURE 40 C
AC$CHROMATOGRAPHY: FLOW_GRADIENT A/B = (99.5%/0.5% at 0 min, 99.5%/0.5% at 0.1 min, 20%/80% at 10 min, 0.5%/99.5% at 10.1 min, 0.5%/99.5% at 12.0 min, 99.5%/0.5% at 12.1 min, 99.5%/0.5% at 15.0 min)
AC$CHROMATOGRAPHY: FLOW_RATE 0.3 ml/min at 0 min, 0.3 ml/min at 10 min, 0.4 ml/min at 10.1 min, 0.4 ml/min at 14.4 min, 0.3 ml/min at 14.5 min
AC$CHROMATOGRAPHY: RETENTION_TIME 3.091267
AC$CHROMATOGRAPHY: SOLVENT A water including 0.1% formic acid
AC$CHROMATOGRAPHY: SOLVENT B acetonitrile including 0.1% formic acid
MS$FOCUSED_ION: PRECURSOR_TYPE [M+H]+
MS$FOCUSED_ION: PRECURSOR_M/Z 295.1804898
PK$SPLASH: splash10-0002-0390000000-70963ab374fc08636a00
PK$NUM_PEAK: 59
PK$PEAK: m/z int. rel.int.
  79.05029 10.0 10
  81.0716 5.0 5
  84.08578 10.0 10
  95.07919 11.0 11
  96.08579 16.0 16
  108.0864 6.0 6
  110.10058 10.0 10
  122.09509 6.0 6
  129.075 6.0 6
  130.05098 16.0 16
  130.06345 23.0 23
  130.06885 35.0 35
  132.08365 6.0 6
  133.08681 8.0 8
  134.09343 26.0 26
  135.10692 9.0 9
  142.06288 15.0 15
  146.09508 11.0 11
  153.09985 8.0 8
  154.06796 25.0 25
  155.07538 10.0 10
  155.08191 7.0 7
  156.11905 5.0 5
  157.07924 9.0 9
  167.07443 31.0 31
  168.08107 21.0 21
  169.08127 5.0 5
  172.07326 10.0 10
  177.96004 8.0 8
  180.08456 11.0 11
  182.10059 13.0 13
  183.09164 6.0 6
  183.1058 8.0 8
  184.08559 6.0 6
  191.07274 6.0 6
  192.07367 8.0 8
  192.08453 9.0 9
  194.09895 6.0 6
  195.09187 11.0 11
  196.11398 5.0 5
  197.10915 18.0 18
  207.08846 6.0 6
  208.10966 7.0 7
  208.12274 6.0 6
  218.40256 6.0 6
  219.1082 5.0 5
  220.11871 5.0 5
  222.09595 6.0 6
  223.11559 9.0 9
  232.09464 5.0 5
  232.12523 7.0 7
  235.12387 20.0 20
  248.14421 15.0 15
  277.17438 39.0 39
  277.26028 6.0 6
  278.16284 7.0 7
  278.17514 6.0 6
  295.14557 11.0 11
  295.18018 1000.0 999
//
