ACCESSION: MSBNK-RIKEN-PR311143
RECORD_TITLE: Aminobenzoyl-glutamate; LC-ESI-QTOF; MS2
DATE: 2019.03.28
AUTHORS: Tetsuya Mori, Center for Sustainable Resource Science, RIKEN
LICENSE: CC BY-NC-SA
PUBLICATION: Tsugawa H., Nakabayashi R., Mori T., Yamada Y., Takahashi M., Rai A., Sugiyama R., Yamamoto H., Nakaya T., Yamazaki M., Kooke R., Bac-Molenaar JA., Oztolan-Erol N., Keurentjes JJB., Arita M., Saito K. (2019) "A cheminformatics approach to characterize metabolomes in stable-isotope-labeled organisms" Nature Methods 16(4):295-298. [doi:10.1038/s41592-019-0358-2]
COMMENT: Annotation level-2
CH$NAME: Aminobenzoyl-glutamate
CH$COMPOUND_CLASS: Amino acids
CH$FORMULA: C12H14N2O5
CH$EXACT_MASS: 266.253
CH$SMILES: O=C(O)CCC(NC(=O)C1=CC=C(N)C=C1)C(=O)O
CH$IUPAC: InChI=1S/C12H14N2O5/c13-8-3-1-7(2-4-8)11(17)14-9(12(18)19)5-6-10(15)16/h1-4,9H,5-6,13H2,(H,14,17)(H,15,16)(H,18,19)
CH$LINK: INCHIKEY GADGMZDHLQLZRI-UHFFFAOYSA-N
AC$INSTRUMENT: LC, Waters Acquity UPLC System; MS, Waters Xevo G2 Q-Tof
AC$INSTRUMENT_TYPE: LC-ESI-QTOF
AC$MASS_SPECTROMETRY: MS_TYPE MS2
AC$MASS_SPECTROMETRY: ION_MODE POSITIVE
AC$MASS_SPECTROMETRY: COLLISION_ENERGY 6V
AC$MASS_SPECTROMETRY: DESOLVATION_GAS_FLOW 800/h
AC$MASS_SPECTROMETRY: DESOLVATION_TEMPERATURE 450 C
AC$MASS_SPECTROMETRY: IONIZATION ESI
AC$CHROMATOGRAPHY: CAPILLARY_VOLTAGE +3.00 kV
AC$CHROMATOGRAPHY: COLUMN_NAME Acquity bridged ethyl hybrid C18 (1.7 um, 2.1 mm * 100 mm, Waters)
AC$CHROMATOGRAPHY: COLUMN_TEMPERATURE 40 C
AC$CHROMATOGRAPHY: FLOW_GRADIENT A/B = (99.5%/0.5% at 0 min, 99.5%/0.5% at 0.1 min, 20%/80% at 10 min, 0.5%/99.5% at 10.1 min, 0.5%/99.5% at 12.0 min, 99.5%/0.5% at 12.1 min, 99.5%/0.5% at 15.0 min)
AC$CHROMATOGRAPHY: FLOW_RATE 0.3 ml/min at 0 min, 0.3 ml/min at 10 min, 0.4 ml/min at 10.1 min, 0.4 ml/min at 14.4 min, 0.3 ml/min at 14.5 min
AC$CHROMATOGRAPHY: RETENTION_TIME 3.22
AC$CHROMATOGRAPHY: SOLVENT A water including 0.1% formic acid
AC$CHROMATOGRAPHY: SOLVENT B acetonitrile including 0.1% formic acid
MS$FOCUSED_ION: PRECURSOR_TYPE [M+H]+
MS$FOCUSED_ION: PRECURSOR_M/Z 267.0979
PK$SPLASH: splash10-00dr-1910000000-0e0747067b839e775fc5
PK$NUM_PEAK: 17
PK$PEAK: m/z int. rel.int.
  72.08306 20.0 56
  84.04568 94.0 265
  110.06468 17.0 48
  120.02916 19.0 54
  120.0452 354.0 999
  121.04725 47.0 133
  130.04016 38.0 107
  130.04741 19.0 54
  138.05464 349.0 985
  139.06993 20.0 56
  158.05511 17.0 48
  162.05124 20.0 56
  185.06512 19.0 54
  196.03975 20.0 56
  267.08377 24.0 68
  267.09976 73.0 206
  267.11053 55.0 155
//
