ACCESSION: MSBNK-RIKEN-PR302852
RECORD_TITLE: Quercetin; LC-ESI-QTOF; MS2
DATE: 2019.03.28
AUTHORS: Tetsuya Mori, Center for Sustainable Resource Science, RIKEN
LICENSE: CC BY-NC-SA
PUBLICATION: Tsugawa H., Nakabayashi R., Mori T., Yamada Y., Takahashi M., Rai A., Sugiyama R., Yamamoto H., Nakaya T., Yamazaki M., Kooke R., Bac-Molenaar JA., Oztolan-Erol N., Keurentjes JJB., Arita M., Saito K. (2019) "A cheminformatics approach to characterize metabolomes in stable-isotope-labeled organisms" Nature Methods 16(4):295-298. [doi:10.1038/s41592-019-0358-2]
COMMENT: registered in RIKEN PlaSMA
CH$NAME: Quercetin
CH$COMPOUND_CLASS: Flavonols
CH$FORMULA: C15H10O7
CH$EXACT_MASS: 302.238
CH$SMILES: OC1=CC(O)=C2C(OC(=C(O)C2=O)C2=CC(O)=C(O)C=C2)=C1
CH$IUPAC: InChI=1S/C15H10O7/c16-7-4-10(19)12-11(5-7)22-15(14(21)13(12)20)6-1-2-8(17)9(18)3-6/h1-5,16-19,21H
CH$LINK: INCHIKEY REFJWTPEDVJJIY-UHFFFAOYSA-N
AC$INSTRUMENT: LC, Waters Acquity UPLC System; MS, Waters Xevo G2 Q-Tof
AC$INSTRUMENT_TYPE: LC-ESI-QTOF
AC$MASS_SPECTROMETRY: MS_TYPE MS2
AC$MASS_SPECTROMETRY: ION_MODE POSITIVE
AC$MASS_SPECTROMETRY: COLLISION_ENERGY 6V
AC$MASS_SPECTROMETRY: DESOLVATION_GAS_FLOW 800/h
AC$MASS_SPECTROMETRY: DESOLVATION_TEMPERATURE 450 C
AC$MASS_SPECTROMETRY: IONIZATION ESI
AC$CHROMATOGRAPHY: CAPILLARY_VOLTAGE +3.00 kV
AC$CHROMATOGRAPHY: COLUMN_NAME Acquity bridged ethyl hybrid C18 (1.7 um, 2.1 mm * 100 mm, Waters)
AC$CHROMATOGRAPHY: COLUMN_TEMPERATURE 40 C
AC$CHROMATOGRAPHY: FLOW_GRADIENT A/B = (99.5%/0.5% at 0 min, 99.5%/0.5% at 0.1 min, 20%/80% at 10 min, 0.5%/99.5% at 10.1 min, 0.5%/99.5% at 12.0 min, 99.5%/0.5% at 12.1 min, 99.5%/0.5% at 15.0 min)
AC$CHROMATOGRAPHY: FLOW_RATE 0.3 ml/min at 0 min, 0.3 ml/min at 10 min, 0.4 ml/min at 10.1 min, 0.4 ml/min at 14.4 min, 0.3 ml/min at 14.5 min
AC$CHROMATOGRAPHY: RETENTION_TIME 5.3665
AC$CHROMATOGRAPHY: SOLVENT A water including 0.1% formic acid
AC$CHROMATOGRAPHY: SOLVENT B acetonitrile including 0.1% formic acid
MS$FOCUSED_ION: PRECURSOR_TYPE [M+H]+
MS$FOCUSED_ION: PRECURSOR_M/Z 303.0499291
PK$SPLASH: splash10-0ufr-0961000000-b73c4df88dcf0f39cc07
PK$NUM_PEAK: 258
PK$PEAK: m/z int. rel.int.
  55.01202 12.0 12
  60.42163 7.0 7
  66.13795 9.0 9
  67.01763 16.0 16
  68.99929 67.0 67
  77.04262 13.0 13
  79.01776 7.0 7
  81.02845 13.0 13
  81.03437 20.0 20
  81.03863 8.0 8
  83.05086 13.0 13
  92.02754 7.0 7
  93.0201 9.0 9
  93.02602 26.0 26
  93.03356 35.0 35
  95.00843 21.0 21
  95.04907 80.0 80
  95.13531 6.0 6
  97.03398 12.0 12
  107.01448 10.0 10
  107.05362 36.0 36
  108.63702 14.0 14
  108.96422 7.0 7
  109.0274 68.0 68
  109.03287 24.0 24
  109.06039 9.0 9
  110.03156 9.0 9
  110.98884 12.0 12
  110.99505 20.0 20
  111.00828 90.0 90
  111.01676 15.0 15
  111.02335 12.0 12
  111.99879 11.0 11
  113.01252 9.0 9
  114.45456 16.0 16
  115.05309 27.0 27
  117.07079 23.0 23
  117.07561 17.0 17
  118.0688 8.0 8
  120.02303 9.0 9
  120.99043 11.0 11
  121.00711 11.0 11
  121.01517 7.0 7
  121.03059 128.0 128
  122.03532 13.0 13
  123.00983 11.0 11
  123.04304 31.0 31
  124.0444 15.0 15
  125.01706 13.0 13
  126.03339 20.0 20
  127.03838 41.0 41
  127.05727 74.0 74
  129.07024 13.0 13
  131.01709 11.0 11
  131.03725 8.0 8
  131.04231 20.0 20
  131.04974 25.0 25
  131.05507 15.0 15
  133.0265 19.0 19
  133.05043 9.0 9
  133.06982 11.0 11
  135.01273 13.0 13
  135.03995 32.0 32
  135.05276 23.0 23
  136.01782 7.0 7
  136.04515 10.0 10
  136.98421 11.0 11
  137.00681 24.0 24
  137.02353 756.0 755
  137.06003 20.0 20
  137.5247 7.0 7
  138.02667 37.0 37
  139.05397 18.0 18
  139.28926 8.0 8
  140.86594 6.0 6
  141.03105 8.0 8
  143.04526 6.0 6
  143.05087 9.0 9
  144.06018 9.0 9
  144.991 15.0 15
  145.02905 63.0 63
  145.0625 51.0 51
  145.07411 7.0 7
  145.1037 13.0 13
  147.04193 34.0 34
  149.01663 26.0 26
  149.02545 87.0 87
  150.94684 10.0 10
  151.03461 9.0 9
  151.0416 22.0 22
  152.0092 9.0 9
  152.08594 7.0 7
  152.89067 15.0 15
  152.98195 8.0 8
  152.99236 9.0 9
  153.01833 772.0 771
  153.21155 8.0 8
  154.02203 114.0 114
  155.04659 157.0 157
  156.02245 20.0 20
  157.06396 31.0 31
  159.04747 38.0 38
  160.0479 11.0 11
  161.02821 10.0 10
  161.05937 84.0 84
  162.1972 9.0 9
  163.03966 135.0 135
  163.06963 17.0 17
  164.04092 9.0 9
  164.82002 12.0 12
  165.01726 531.0 530
  166.02411 167.0 167
  167.02737 20.0 20
  167.04829 7.0 7
  168.05531 7.0 7
  170.8869 9.0 9
  171.05663 9.0 9
  172.51465 8.0 8
  172.7661 16.0 16
  173.03458 13.0 13
  173.05887 130.0 130
  173.06996 18.0 18
  174.06361 14.0 14
  175.04219 9.0 9
  175.05818 10.0 10
  175.35977 11.0 11
  177.01653 40.0 40
  177.05394 11.0 11
  178.9951 7.0 7
  179.02992 8.0 8
  179.04169 23.0 23
  180.72833 12.0 12
  182.79373 12.0 12
  183.04475 180.0 180
  184.0497 75.0 75
  185.05174 13.0 13
  185.06006 15.0 15
  187.00331 7.0 7
  187.0336 38.0 38
  187.03998 86.0 86
  188.04691 10.0 10
  189.17827 12.0 12
  191.01971 9.0 9
  191.03059 60.0 60
  191.06776 11.0 11
  191.08481 8.0 8
  194.0549 12.0 12
  195.02577 50.0 50
  195.03899 30.0 30
  195.0537 7.0 7
  196.02148 13.0 13
  196.26463 8.0 8
  197.04428 7.0 7
  200.04582 15.0 15
  201.01851 9.0 9
  201.05415 444.0 444
  201.08109 18.0 18
  201.26601 7.0 7
  201.3363 6.0 6
  202.01216 9.0 9
  202.04663 11.0 11
  202.06104 51.0 51
  202.12511 9.0 9
  203.02687 11.0 11
  203.04286 12.0 12
  203.06209 11.0 11
  204.03978 16.0 16
  205.01489 21.0 21
  205.02846 14.0 14
  205.05078 31.0 31
  206.06239 16.0 16
  207.03502 9.0 9
  208.0166 8.0 8
  211.0381 47.0 47
  212.04085 7.0 7
  213.01631 8.0 8
  213.04936 43.0 43
  214.09195 11.0 11
  215.00357 8.0 8
  215.03348 57.0 57
  215.43098 12.0 12
  216.04456 14.0 14
  217.04903 6.0 6
  218.06357 18.0 18
  218.87654 10.0 10
  219.02568 7.0 7
  219.03802 15.0 15
  219.06093 16.0 16
  219.06836 22.0 22
  219.287 7.0 7
  220.0367 7.0 7
  220.06705 7.0 7
  221.06882 9.0 9
  228.02365 10.0 10
  228.04436 57.0 57
  228.07932 10.0 10
  228.94008 9.0 9
  229.02188 14.0 14
  229.04942 1000.0 999
  229.14445 6.0 6
  230.04353 25.0 25
  230.05476 61.0 61
  230.26712 7.0 7
  231.03479 32.0 32
  231.06026 43.0 43
  231.7034 20.0 20
  232.0369 23.0 23
  232.06705 28.0 28
  233.0453 21.0 21
  234.73253 11.0 11
  239.03223 33.0 33
  240.03198 12.0 12
  240.04433 10.0 10
  241.04916 9.0 9
  243.0359 10.0 10
  243.98991 7.0 7
  245.02197 9.0 9
  245.04225 9.0 9
  246.04929 14.0 14
  247.01726 7.0 7
  247.05046 24.0 24
  247.06224 15.0 15
  248.05434 22.0 22
  249.06792 8.0 8
  253.05583 7.0 7
  256.04593 9.0 9
  256.98297 7.0 7
  257.02197 60.0 60
  257.04623 293.0 293
  257.06641 28.0 28
  257.07535 7.0 7
  258.00165 10.0 10
  258.04065 102.0 102
  258.05408 66.0 66
  259.05771 19.0 19
  260.07504 7.0 7
  261.02374 13.0 13
  261.10303 6.0 6
  269.33124 11.0 11
  273.03293 8.0 8
  273.99725 8.0 8
  274.04868 141.0 141
  275.04129 28.0 28
  275.05499 25.0 25
  277.2041 7.0 7
  284.01572 11.0 11
  285.03772 224.0 224
  285.06503 10.0 10
  286.05045 16.0 16
  287.05154 6.0 6
  293.0838 6.0 6
  301.0224 8.0 8
  301.6297 11.0 11
  302.97318 9.0 9
  303.0145 13.0 13
  303.04965 756.0 755
  303.08218 7.0 7
  303.10522 16.0 16
//
