ACCESSION: MSBNK-RIKEN-PR310628
RECORD_TITLE: Rhynchophylline; LC-ESI-QTOF; MS2
DATE: 2019.03.28
AUTHORS: Tetsuya Mori, Center for Sustainable Resource Science, RIKEN
LICENSE: CC BY-NC-SA
PUBLICATION: Tsugawa H., Nakabayashi R., Mori T., Yamada Y., Takahashi M., Rai A., Sugiyama R., Yamamoto H., Nakaya T., Yamazaki M., Kooke R., Bac-Molenaar JA., Oztolan-Erol N., Keurentjes JJB., Arita M., Saito K. (2019) "A cheminformatics approach to characterize metabolomes in stable-isotope-labeled organisms" Nature Methods 16(4):295-298. [doi:10.1038/s41592-019-0358-2]
COMMENT: Annotation level-1
CH$NAME: Rhynchophylline
CH$COMPOUND_CLASS: Alkaloids
CH$FORMULA: C22H28N2O4
CH$EXACT_MASS: 384.476
CH$SMILES: CCC1CN2CCC3(C2CC1C(=COC)C(=O)OC)C(=O)NC1=CC=CC=C31
CH$IUPAC: InChI=1S/C22H28N2O4/c1-4-14-12-24-10-9-22(17-7-5-6-8-18(17)23-21(22)26)19(24)11-15(14)16(13-27-2)20(25)28-3/h5-8,13-15,19H,4,9-12H2,1-3H3,(H,23,26)
CH$LINK: INCHIKEY DAXYUDFNWXHGBE-UHFFFAOYSA-N
AC$INSTRUMENT: LC, Waters Acquity UPLC System; MS, Waters Xevo G2 Q-Tof
AC$INSTRUMENT_TYPE: LC-ESI-QTOF
AC$MASS_SPECTROMETRY: MS_TYPE MS2
AC$MASS_SPECTROMETRY: ION_MODE POSITIVE
AC$MASS_SPECTROMETRY: COLLISION_ENERGY 6V
AC$MASS_SPECTROMETRY: DESOLVATION_GAS_FLOW 800/h
AC$MASS_SPECTROMETRY: DESOLVATION_TEMPERATURE 450 C
AC$MASS_SPECTROMETRY: IONIZATION ESI
AC$CHROMATOGRAPHY: CAPILLARY_VOLTAGE +3.00 kV
AC$CHROMATOGRAPHY: COLUMN_NAME Acquity bridged ethyl hybrid C18 (1.7 um, 2.1 mm * 100 mm, Waters)
AC$CHROMATOGRAPHY: COLUMN_TEMPERATURE 40 C
AC$CHROMATOGRAPHY: FLOW_GRADIENT A/B = (99.5%/0.5% at 0 min, 99.5%/0.5% at 0.1 min, 20%/80% at 10 min, 0.5%/99.5% at 10.1 min, 0.5%/99.5% at 12.0 min, 99.5%/0.5% at 12.1 min, 99.5%/0.5% at 15.0 min)
AC$CHROMATOGRAPHY: FLOW_RATE 0.3 ml/min at 0 min, 0.3 ml/min at 10 min, 0.4 ml/min at 10.1 min, 0.4 ml/min at 14.4 min, 0.3 ml/min at 14.5 min
AC$CHROMATOGRAPHY: RETENTION_TIME 4.9
AC$CHROMATOGRAPHY: SOLVENT A water including 0.1% formic acid
AC$CHROMATOGRAPHY: SOLVENT B acetonitrile including 0.1% formic acid
MS$FOCUSED_ION: PRECURSOR_TYPE [M+H]+
MS$FOCUSED_ION: PRECURSOR_M/Z 385.21218
PK$SPLASH: splash10-000i-0219000000-9606b071014aa8369aa2
PK$NUM_PEAK: 425
PK$PEAK: m/z int. rel.int.
  56.04921 62.0 1
  58.06371 41.0 0
  67.05463 21.0 0
  68.40606 36.0 0
  70.05354 21.0 0
  70.06522 493.0 5
  70.10793 17.0 0
  70.31246 37.0 0
  70.34657 31.0 0
  70.92419 17.0 0
  71.06759 46.0 0
  75.04104 57.0 1
  87.03863 20.0 0
  91.0506 34.0 0
  91.65977 20.0 0
  91.95383 20.0 0
  93.053 49.0 1
  93.06857 124.0 1
  94.06226 20.0 0
  94.07044 22.0 0
  95.08852 25.0 0
  107.04474 32.0 0
  108.08026 576.0 6
  108.09245 38.0 0
  109.07115 28.0 0
  109.08691 54.0 1
  110.04787 34.0 0
  110.05636 44.0 0
  110.09557 1908.0 20
  110.82669 21.0 0
  111.08035 45.0 0
  111.08984 30.0 0
  111.10004 178.0 2
  112.08343 37.0 0
  115.05093 171.0 2
  116.04767 28.0 0
  116.0542 24.0 0
  116.81223 30.0 0
  117.04608 35.0 0
  117.0576 80.0 1
  117.06638 56.0 1
  118.06586 297.0 3
  119.06522 55.0 1
  119.07156 24.0 0
  121.05345 22.0 0
  123.07642 46.0 0
  124.1118 353.0 4
  125.05336 46.0 0
  125.06006 22.0 0
  125.11223 19.0 0
  125.11666 56.0 1
  126.10374 18.0 0
  129.04037 29.0 0
  129.05322 686.0 7
  130.05725 107.0 1
  130.06802 71.0 1
  131.06134 33.0 0
  131.07298 53.0 1
  132.01161 20.0 0
  132.03326 155.0 2
  132.04465 657.0 7
  132.06274 66.0 1
  132.08058 1898.0 20
  132.78522 20.0 0
  133.05515 46.0 0
  133.06499 25.0 0
  133.08572 201.0 2
  134.09052 57.0 1
  135.98262 30.0 0
  136.07701 22.0 0
  137.09433 30.0 0
  138.00998 23.0 0
  138.05394 84.0 1
  138.06778 52.0 1
  138.41193 22.0 0
  139.05316 45.0 0
  139.07523 299.0 3
  139.18097 17.0 0
  140.05161 23.0 0
  140.0826 20.0 0
  141.04726 30.0 0
  141.15526 19.0 0
  141.98787 25.0 0
  142.0645 1985.0 21
  142.67137 25.0 0
  143.05952 63.0 1
  143.0731 115.0 1
  144.07907 1149.0 12
  145.04518 74.0 1
  145.05312 36.0 0
  145.07176 21.0 0
  145.08392 117.0 1
  145.66644 17.0 0
  146.05565 33.0 0
  146.09328 65.0 1
  146.4854 23.0 0
  148.85234 21.0 0
  150.08316 21.0 0
  150.09818 39.0 0
  153.06271 23.0 0
  153.07858 40.0 0
  153.09006 480.0 5
  154.05223 41.0 0
  154.06232 34.0 0
  154.17278 20.0 0
  154.64665 41.0 0
  155.10416 24.0 0
  156.10854 24.0 0
  156.4025 36.0 0
  157.07603 23.0 0
  158.02986 22.0 0
  158.04578 130.0 1
  158.06178 668.0 7
  158.0995 188.0 2
  158.44905 29.0 0
  159.05954 124.0 1
  159.08763 21.0 0
  159.48358 17.0 0
  159.8707 47.0 0
  160.04594 20.0 0
  160.05746 65.0 1
  160.07512 14060.0 147
  160.1024 39.0 0
  160.11362 52.0 1
  160.17943 42.0 0
  160.21805 17.0 0
  160.45526 20.0 0
  161.04135 48.0 1
  161.06311 29.0 0
  161.07845 1576.0 16
  161.12364 52.0 1
  162.07936 147.0 2
  162.09473 130.0 1
  164.10983 24.0 0
  165.08775 17.0 0
  166.07967 59.0 1
  166.08966 41.0 0
  166.27634 18.0 0
  167.07928 18.0 0
  167.44006 29.0 0
  168.07648 45.0 0
  168.10245 177.0 2
  170.05191 29.0 0
  170.08894 54.0 1
  170.0974 47.0 0
  170.74306 20.0 0
  171.07239 68.0 1
  171.10199 890.0 9
  172.07445 416.0 4
  172.08505 101.0 1
  172.10849 101.0 1
  173.07719 128.0 1
  173.1064 23.0 0
  174.09363 38.0 0
  176.09596 45.0 0
  176.79616 22.0 0
  177.46864 28.0 0
  179.74754 45.0 0
  180.09872 34.0 0
  182.76601 17.0 0
  184.06683 25.0 0
  184.07709 47.0 0
  184.91612 21.0 0
  186.08653 90.0 1
  186.0934 137.0 1
  186.11467 38.0 0
  187.04767 23.0 0
  187.08315 140.0 1
  187.08859 292.0 3
  187.11514 30.0 0
  187.12932 22.0 0
  187.13896 25.0 0
  188.12671 74.0 1
  189.00362 17.0 0
  189.09735 33.0 0
  189.39781 17.0 0
  191.48824 21.0 0
  194.10178 54.0 1
  194.11734 617.0 6
  195.08604 27.0 0
  195.12157 74.0 1
  195.67564 40.0 0
  196.09718 33.0 0
  196.2742 21.0 0
  197.09174 24.0 0
  197.13197 25.0 0
  197.66898 18.0 0
  198.09067 105.0 1
  198.10706 20.0 0
  199.07693 18.0 0
  199.08765 22.0 0
  205.21443 19.0 0
  207.23027 20.0 0
  208.13858 24.0 0
  210.09476 35.0 0
  210.10698 22.0 0
  212.08949 19.0 0
  213.10143 1190.0 12
  213.14548 17.0 0
  213.95009 21.0 0
  214.09868 109.0 1
  214.11232 93.0 1
  215.11797 2261.0 24
  216.02626 45.0 0
  216.10214 27.0 0
  216.12085 362.0 4
  216.12671 125.0 1
  217.11444 25.0 0
  217.1264 45.0 0
  220.44839 20.0 0
  222.12125 20.0 0
  223.12695 25.0 0
  224.02908 18.0 0
  224.10338 31.0 0
  224.11935 28.0 0
  224.75243 18.0 0
  225.09888 41.0 0
  225.60555 22.0 0
  226.09871 63.0 1
  226.11757 172.0 2
  226.14392 2264.0 24
  226.43214 18.0 0
  226.91217 20.0 0
  227.02373 18.0 0
  227.04674 39.0 0
  227.09447 28.0 0
  227.13225 47.0 0
  227.14517 171.0 2
  227.15485 69.0 1
  227.243 29.0 0
  227.51802 24.0 0
  227.98567 17.0 0
  228.14609 67.0 1
  228.21129 38.0 0
  228.56082 22.0 0
  228.63664 20.0 0
  230.4375 29.0 0
  235.02278 18.0 0
  236.30411 26.0 0
  236.96143 26.0 0
  237.1031 24.0 0
  237.96713 22.0 0
  237.99268 21.0 0
  238.10078 27.0 0
  238.44315 26.0 0
  239.48645 20.0 0
  239.73824 19.0 0
  240.11855 22.0 0
  240.14516 17.0 0
  240.16368 269.0 3
  241.06454 40.0 0
  241.1096 44.0 0
  241.13487 630.0 7
  241.17255 39.0 0
  241.18848 24.0 0
  242.11699 25.0 0
  242.13313 130.0 1
  242.23526 35.0 0
  243.14684 21.0 0
  246.58009 18.0 0
  246.87291 29.0 0
  248.21182 34.0 0
  248.27232 25.0 0
  249.09497 17.0 0
  249.13704 21.0 0
  250.49149 23.0 0
  251.05937 17.0 0
  251.10501 43.0 0
  251.11795 139.0 1
  251.95543 26.0 0
  252.13365 33.0 0
  252.14334 27.0 0
  253.40538 29.0 0
  253.96709 21.0 0
  254.10405 24.0 0
  254.12288 35.0 0
  254.42827 34.0 0
  258.3071 33.0 0
  258.97336 37.0 0
  260.50854 20.0 0
  262.76935 44.0 0
  263.51871 29.0 0
  263.69431 23.0 0
  264.31631 18.0 0
  264.97116 21.0 0
  265.09558 117.0 1
  265.1149 176.0 2
  265.13531 1043.0 11
  265.28339 21.0 0
  266.0145 17.0 0
  266.10507 17.0 0
  266.14047 324.0 3
  266.37888 20.0 0
  266.54895 17.0 0
  267.03369 24.0 0
  267.14703 2198.0 23
  267.68787 28.0 0
  267.87024 17.0 0
  268.1181 24.0 0
  268.13681 57.0 1
  268.15454 179.0 2
  268.80447 18.0 0
  269.08377 21.0 0
  269.11081 17.0 0
  269.12091 25.0 0
  269.1651 5115.0 53
  270.1225 20.0 0
  270.15692 279.0 3
  270.17123 735.0 8
  271.17535 68.0 1
  272.7417 33.0 0
  276.62073 43.0 0
  278.41055 52.0 1
  281.1221 89.0 1
  281.1351 100.0 1
  281.1442 50.0 1
  282.13568 35.0 0
  282.53391 31.0 0
  289.78122 26.0 0
  293.16586 133.0 1
  295.14594 22.0 0
  295.1749 30.0 0
  295.55725 27.0 0
  296.22968 21.0 0
  297.12363 40.0 0
  297.78827 22.0 0
  298.13113 21.0 0
  298.70691 20.0 0
  300.27914 17.0 0
  301.19073 45.0 0
  303.13528 54.0 1
  303.56451 33.0 0
  305.0498 22.0 0
  305.12878 29.0 0
  305.18402 25.0 0
  306.03314 26.0 0
  306.17218 28.0 0
  307.14322 33.0 0
  309.13614 37.0 0
  311.95044 23.0 0
  312.70926 23.0 0
  314.53625 20.0 0
  317.07217 20.0 0
  317.69086 36.0 0
  321.11731 32.0 0
  321.14984 141.0 1
  321.16458 219.0 2
  321.61545 30.0 0
  322.14062 51.0 1
  322.16733 68.0 1
  322.92334 26.0 0
  323.16602 23.0 0
  323.18054 37.0 0
  325.14429 20.0 0
  325.18109 33.0 0
  327.16562 20.0 0
  328.18796 21.0 0
  328.91461 20.0 0
  335.18344 48.0 1
  338.2692 17.0 0
  338.46521 27.0 0
  340.20764 21.0 0
  340.84448 32.0 0
  341.07501 27.0 0
  343.0318 20.0 0
  345.18747 25.0 0
  346.40894 30.0 0
  349.88336 19.0 0
  350.1857 36.0 0
  350.61493 17.0 0
  351.17865 33.0 0
  352.0762 18.0 0
  353.11359 101.0 1
  353.14774 236.0 2
  353.18512 5854.0 61
  353.2887 29.0 0
  353.5751 17.0 0
  354.1449 17.0 0
  354.15933 53.0 1
  354.18344 968.0 10
  354.19556 625.0 7
  354.21878 98.0 1
  354.31232 36.0 0
  354.59711 52.0 1
  354.6456 42.0 0
  354.65839 22.0 0
  354.69589 19.0 0
  354.90915 25.0 0
  355.01273 18.0 0
  355.08234 21.0 0
  355.17526 69.0 1
  355.19244 140.0 1
  356.15283 18.0 0
  357.60638 18.0 0
  364.42068 20.0 0
  367.41705 17.0 0
  367.51508 30.0 0
  378.64835 20.0 0
  379.45724 17.0 0
  381.16449 23.0 0
  381.91672 17.0 0
  383.14139 17.0 0
  383.18521 20.0 0
  383.20215 120.0 1
  383.56406 20.0 0
  384.07492 19.0 0
  384.17157 39.0 0
  384.19925 24.0 0
  384.21133 39.0 0
  384.70477 17.0 0
  384.71555 21.0 0
  384.76324 34.0 0
  384.78748 26.0 0
  384.91364 21.0 0
  385.01846 28.0 0
  385.0314 18.0 0
  385.08606 20.0 0
  385.09869 28.0 0
  385.11993 158.0 2
  385.15683 440.0 5
  385.21164 95607.0 999
  385.26944 2716.0 28
  385.32126 377.0 4
  385.37161 44.0 0
  385.39407 38.0 0
//
