ACCESSION: MSBNK-RIKEN-PR300230
RECORD_TITLE: Gardnutine; LC-ESI-QTOF; MS2
DATE: 2019.03.28
AUTHORS: Tetsuya Mori, Center for Sustainable Resource Science, RIKEN
LICENSE: CC BY-NC-SA
PUBLICATION: Tsugawa H., Nakabayashi R., Mori T., Yamada Y., Takahashi M., Rai A., Sugiyama R., Yamamoto H., Nakaya T., Yamazaki M., Kooke R., Bac-Molenaar JA., Oztolan-Erol N., Keurentjes JJB., Arita M., Saito K. (2019) "A cheminformatics approach to characterize metabolomes in stable-isotope-labeled organisms" Nature Methods 16(4):295-298. [doi:10.1038/s41592-019-0358-2]
COMMENT: registered in RIKEN PlaSMA
CH$NAME: Gardnutine
CH$COMPOUND_CLASS: Macroline alkaloids
CH$FORMULA: C20H22N2O2
CH$EXACT_MASS: 322.408
CH$SMILES: COC1=CC2=C(C=C1)C1=C(N2)[C@@H]2CC3C4CO[C@H]1[C@@H]4N2C\C3=C\C
CH$IUPAC: InChI=1S/C20H22N2O2/c1-3-10-8-22-16-7-13(10)14-9-24-20(19(14)22)17-12-5-4-11(23-2)6-15(12)21-18(16)17/h3-6,13-14,16,19-21H,7-9H2,1-2H3/b10-3-/t13?,14?,16-,19+,20+/m0/s1
CH$LINK: INCHIKEY XJTWLFBHBFSVRS-CRJBWSHOSA-N
AC$INSTRUMENT: LC, Waters Acquity UPLC System; MS, Waters Xevo G2 Q-Tof
AC$INSTRUMENT_TYPE: LC-ESI-QTOF
AC$MASS_SPECTROMETRY: MS_TYPE MS2
AC$MASS_SPECTROMETRY: ION_MODE POSITIVE
AC$MASS_SPECTROMETRY: COLLISION_ENERGY 6V
AC$MASS_SPECTROMETRY: DESOLVATION_GAS_FLOW 800/h
AC$MASS_SPECTROMETRY: DESOLVATION_TEMPERATURE 450 C
AC$MASS_SPECTROMETRY: IONIZATION ESI
AC$CHROMATOGRAPHY: CAPILLARY_VOLTAGE +3.00 kV
AC$CHROMATOGRAPHY: COLUMN_NAME Acquity bridged ethyl hybrid C18 (1.7 um, 2.1 mm * 100 mm, Waters)
AC$CHROMATOGRAPHY: COLUMN_TEMPERATURE 40 C
AC$CHROMATOGRAPHY: FLOW_GRADIENT A/B = (99.5%/0.5% at 0 min, 99.5%/0.5% at 0.1 min, 20%/80% at 10 min, 0.5%/99.5% at 10.1 min, 0.5%/99.5% at 12.0 min, 99.5%/0.5% at 12.1 min, 99.5%/0.5% at 15.0 min)
AC$CHROMATOGRAPHY: FLOW_RATE 0.3 ml/min at 0 min, 0.3 ml/min at 10 min, 0.4 ml/min at 10.1 min, 0.4 ml/min at 14.4 min, 0.3 ml/min at 14.5 min
AC$CHROMATOGRAPHY: RETENTION_TIME 4.419867
AC$CHROMATOGRAPHY: SOLVENT A water including 0.1% formic acid
AC$CHROMATOGRAPHY: SOLVENT B acetonitrile including 0.1% formic acid
MS$FOCUSED_ION: PRECURSOR_TYPE [M+H]+
MS$FOCUSED_ION: PRECURSOR_M/Z 323.1754044
PK$SPLASH: splash10-00di-1970000000-7ef31daaaab6d554a51a
PK$NUM_PEAK: 309
PK$PEAK: m/z int. rel.int.
  77.03652 11.0 11
  77.0416 11.0 11
  80.05108 22.0 22
  81.06823 6.0 6
  81.07366 5.0 5
  82.06716 11.0 11
  91.05305 32.0 32
  91.06284 8.0 8
  91.0909 6.0 6
  92.04512 11.0 11
  93.05463 49.0 49
  93.06013 43.0 43
  93.06922 143.0 143
  94.06559 403.0 403
  95.04642 7.0 7
  95.05206 8.0 8
  95.06657 17.0 17
  95.07136 9.0 9
  95.08713 9.0 9
  105.06904 7.0 7
  106.06343 27.0 27
  107.07214 38.0 38
  107.07941 14.0 14
  108.07831 57.0 57
  109.08568 5.0 5
  110.0629 8.0 8
  110.09736 28.0 28
  117.05678 30.0 30
  117.06734 6.0 6
  118.06516 19.0 19
  120.08006 585.0 584
  121.0744 8.0 8
  121.08781 90.0 90
  122.07375 6.0 6
  122.09602 1000.0 999
  123.07723 6.0 6
  123.08739 11.0 11
  123.10074 56.0 56
  124.10084 7.0 7
  131.06461 5.0 5
  131.07127 15.0 15
  131.08647 8.0 8
  132.04247 7.0 7
  132.08139 5.0 5
  132.08896 10.0 10
  134.09427 67.0 67
  134.10043 20.0 20
  135.09827 12.0 12
  136.07306 19.0 19
  136.10651 13.0 13
  136.12004 7.0 7
  138.08943 19.0 19
  138.09724 6.0 6
  140.09947 5.0 5
  142.06212 7.0 7
  143.07059 15.0 15
  144.01547 8.0 8
  144.0564 7.0 7
  144.07248 6.0 6
  144.08165 19.0 19
  145.0795 12.0 12
  146.08408 16.0 16
  146.09724 91.0 91
  147.05142 7.0 7
  147.06767 27.0 27
  147.08253 6.0 6
  147.10043 7.0 7
  148.07187 64.0 64
  148.08081 31.0 31
  148.10378 8.0 8
  148.11461 75.0 75
  149.07802 9.0 9
  149.11612 15.0 15
  150.09192 88.0 88
  150.12112 8.0 8
  151.08907 6.0 6
  154.06685 7.0 7
  155.05609 7.0 7
  155.07172 17.0 17
  156.08293 8.0 8
  157.07767 10.0 10
  157.08476 12.0 12
  158.03934 6.0 6
  158.05966 330.0 330
  158.09856 7.0 7
  159.06375 54.0 54
  159.07782 16.0 16
  160.07486 125.0 125
  160.08116 43.0 43
  161.0742 11.0 11
  161.08403 28.0 28
  167.07121 12.0 12
  169.09122 5.0 5
  170.09422 9.0 9
  171.06276 6.0 6
  171.07127 7.0 7
  172.07419 47.0 47
  173.01619 5.0 5
  173.03526 7.0 7
  173.05055 6.0 6
  173.06161 9.0 9
  173.08397 704.0 703
  174.04527 11.0 11
  174.0744 32.0 32
  174.08943 298.0 298
  175.07628 6.0 6
  175.09187 28.0 28
  176.09576 7.0 7
  176.1097 19.0 19
  181.08765 7.0 7
  181.09576 7.0 7
  182.05972 8.0 8
  182.09941 9.0 9
  183.06499 7.0 7
  183.07372 6.0 6
  184.06187 9.0 9
  184.07863 16.0 16
  185.06929 8.0 8
  185.08394 27.0 27
  186.0546 6.0 6
  186.09186 161.0 161
  187.07338 7.0 7
  187.08374 8.0 8
  187.10388 18.0 18
  188.06981 61.0 61
  188.09146 16.0 16
  188.10553 117.0 117
  188.11665 16.0 16
  189.06886 10.0 10
  189.07671 8.0 8
  189.11346 9.0 9
  192.08093 5.0 5
  193.08321 10.0 10
  193.0936 28.0 28
  193.10107 8.0 8
  194.0853 9.0 9
  195.06627 19.0 19
  195.07487 6.0 6
  195.10545 6.0 6
  196.1144 6.0 6
  197.07938 45.0 45
  198.05434 7.0 7
  198.08511 37.0 37
  198.09541 24.0 24
  198.10542 7.0 7
  199.07048 7.0 7
  199.08824 41.0 41
  199.09857 20.0 20
  200.06763 40.0 40
  200.08441 17.0 17
  200.11154 8.0 8
  201.10197 7.0 7
  201.11215 6.0 6
  202.0744 17.0 17
  202.08916 43.0 43
  203.09363 21.0 21
  206.09953 5.0 5
  208.06467 7.0 7
  208.07428 15.0 15
  208.08354 7.0 7
  209.08449 53.0 53
  210.07516 6.0 6
  210.09018 96.0 96
  211.08868 16.0 16
  211.09995 33.0 33
  212.07256 7.0 7
  212.09404 31.0 31
  212.10524 63.0 63
  212.11847 10.0 10
  213.06848 7.0 7
  213.10005 9.0 9
  213.10889 11.0 11
  214.08452 9.0 9
  215.07864 39.0 39
  216.10651 22.0 22
  218.09523 7.0 7
  222.08607 9.0 9
  223.09369 26.0 26
  223.114 16.0 16
  224.10684 189.0 189
  225.10876 85.0 85
  226.10893 8.0 8
  226.12109 49.0 49
  227.0797 65.0 65
  228.08453 21.0 21
  228.09422 8.0 8
  228.13892 7.0 7
  229.0984 8.0 8
  232.08966 11.0 11
  233.07687 6.0 6
  233.11116 8.0 8
  233.11891 14.0 14
  234.09096 19.0 19
  234.10411 13.0 13
  234.13397 8.0 8
  235.09584 26.0 26
  235.1124 17.0 17
  235.12877 13.0 13
  236.09796 33.0 33
  236.10945 26.0 26
  237.08614 8.0 8
  237.10304 18.0 18
  237.11501 17.0 17
  237.12476 11.0 11
  238.08772 15.0 15
  238.10754 26.0 26
  238.11682 45.0 45
  238.12608 55.0 55
  239.11703 9.0 9
  239.13922 12.0 12
  239.14742 7.0 7
  240.13182 20.0 20
  240.14558 6.0 6
  241.09227 8.0 8
  241.13013 12.0 12
  241.13991 14.0 14
  245.10435 11.0 11
  245.12042 13.0 13
  247.08597 8.0 8
  247.10289 15.0 15
  247.1125 16.0 16
  247.12411 22.0 22
  248.07706 7.0 7
  248.10339 22.0 22
  248.12941 8.0 8
  249.07599 8.0 8
  249.10117 100.0 100
  249.11694 61.0 61
  249.15042 9.0 9
  250.07585 6.0 6
  250.09024 14.0 14
  250.11098 46.0 46
  250.12695 64.0 64
  250.14149 29.0 29
  250.15062 17.0 17
  251.11493 17.0 17
  251.12372 35.0 35
  251.13731 10.0 10
  251.15884 12.0 12
  252.09824 19.0 19
  252.10896 6.0 6
  252.132 22.0 22
  252.14302 19.0 19
  253.1042 13.0 13
  253.12924 10.0 10
  253.14255 19.0 19
  254.13962 12.0 12
  258.08197 6.0 6
  258.09421 7.0 7
  261.10342 21.0 21
  261.13937 156.0 156
  262.09726 6.0 6
  262.11197 23.0 23
  262.12677 43.0 43
  262.14645 46.0 46
  263.09045 6.0 6
  263.11932 128.0 128
  264.12411 112.0 112
  264.16187 6.0 6
  265.12946 36.0 36
  265.1488 7.0 7
  266.11481 7.0 7
  266.15076 19.0 19
  267.11777 7.0 7
  268.13028 13.0 13
  270.12875 6.0 6
  273.10394 10.0 10
  273.11911 7.0 7
  274.12155 7.0 7
  275.13782 7.0 7
  276.12589 27.0 27
  276.13919 36.0 36
  277.09134 6.0 6
  277.13425 162.0 162
  277.14548 36.0 36
  278.14191 312.0 312
  278.15179 119.0 119
  279.10886 14.0 14
  279.12234 9.0 9
  279.14331 45.0 45
  279.15869 38.0 38
  280.10962 6.0 6
  280.1304 6.0 6
  280.14877 13.0 13
  281.13174 7.0 7
  288.1355 9.0 9
  289.13889 16.0 16
  290.14371 12.0 12
  291.14862 53.0 53
  292.11749 6.0 6
  292.14163 10.0 10
  292.1532 7.0 7
  293.11423 12.0 12
  293.12585 14.0 14
  293.1644 690.0 689
  294.13028 10.0 10
  294.15729 61.0 61
  294.16751 115.0 115
  295.14774 12.0 12
  295.17136 21.0 21
  296.1846 7.0 7
  305.16162 16.0 16
  305.17325 18.0 18
  306.14539 9.0 9
  306.15521 6.0 6
  306.17249 6.0 6
  308.16006 19.0 19
  323.16891 41.0 41
  323.18201 53.0 53
//
