ACCESSION: MSBNK-RIKEN-PR310586
RECORD_TITLE: Strychnine; LC-ESI-QTOF; MS2
DATE: 2019.03.28
AUTHORS: Tetsuya Mori, Center for Sustainable Resource Science, RIKEN
LICENSE: CC BY-NC-SA
PUBLICATION: Tsugawa H., Nakabayashi R., Mori T., Yamada Y., Takahashi M., Rai A., Sugiyama R., Yamamoto H., Nakaya T., Yamazaki M., Kooke R., Bac-Molenaar JA., Oztolan-Erol N., Keurentjes JJB., Arita M., Saito K. (2019) "A cheminformatics approach to characterize metabolomes in stable-isotope-labeled organisms" Nature Methods 16(4):295-298. [doi:10.1038/s41592-019-0358-2]
COMMENT: Annotation level-1
CH$NAME: Strychnine
CH$COMPOUND_CLASS: Alkaloids
CH$FORMULA: C21H22N2O2
CH$EXACT_MASS: 334.419
CH$SMILES: O=C1CC2OCC=C3CN4CCC56C4CC3C2C5N1C1=CC=CC=C61
CH$IUPAC: InChI=1S/C21H22N2O2/c24-18-10-16-19-13-9-17-21(6-7-22(17)11-12(13)5-8-25-16)14-3-1-2-4-15(14)23(18)20(19)21/h1-5,13,16-17,19-20H,6-11H2
CH$LINK: INCHIKEY QMGVPVSNSZLJIA-UHFFFAOYSA-N
AC$INSTRUMENT: LC, Waters Acquity UPLC System; MS, Waters Xevo G2 Q-Tof
AC$INSTRUMENT_TYPE: LC-ESI-QTOF
AC$MASS_SPECTROMETRY: MS_TYPE MS2
AC$MASS_SPECTROMETRY: ION_MODE POSITIVE
AC$MASS_SPECTROMETRY: COLLISION_ENERGY 6V
AC$MASS_SPECTROMETRY: DESOLVATION_GAS_FLOW 800/h
AC$MASS_SPECTROMETRY: DESOLVATION_TEMPERATURE 450 C
AC$MASS_SPECTROMETRY: IONIZATION ESI
AC$CHROMATOGRAPHY: CAPILLARY_VOLTAGE +3.00 kV
AC$CHROMATOGRAPHY: COLUMN_NAME Acquity bridged ethyl hybrid C18 (1.7 um, 2.1 mm * 100 mm, Waters)
AC$CHROMATOGRAPHY: COLUMN_TEMPERATURE 40 C
AC$CHROMATOGRAPHY: FLOW_GRADIENT A/B = (99.5%/0.5% at 0 min, 99.5%/0.5% at 0.1 min, 20%/80% at 10 min, 0.5%/99.5% at 10.1 min, 0.5%/99.5% at 12.0 min, 99.5%/0.5% at 12.1 min, 99.5%/0.5% at 15.0 min)
AC$CHROMATOGRAPHY: FLOW_RATE 0.3 ml/min at 0 min, 0.3 ml/min at 10 min, 0.4 ml/min at 10.1 min, 0.4 ml/min at 14.4 min, 0.3 ml/min at 14.5 min
AC$CHROMATOGRAPHY: RETENTION_TIME 3.46
AC$CHROMATOGRAPHY: SOLVENT A water including 0.1% formic acid
AC$CHROMATOGRAPHY: SOLVENT B acetonitrile including 0.1% formic acid
MS$FOCUSED_ION: PRECURSOR_TYPE [M+H]+
MS$FOCUSED_ION: PRECURSOR_M/Z 335.1754
PK$SPLASH: splash10-000i-0119000000-f591f4ee29578599fb9d
PK$NUM_PEAK: 464
PK$PEAK: m/z int. rel.int.
  55.01995 49.0 1
  56.04865 30.0 0
  67.0549 24.0 0
  69.07217 35.0 1
  79.05456 31.0 0
  80.06395 21.0 0
  81.06809 28.0 0
  82.06679 42.0 1
  83.04908 20.0 0
  91.0561 78.0 1
  91.10518 18.0 0
  93.05842 42.0 1
  93.06528 44.0 1
  93.06927 45.0 1
  94.05486 19.0 0
  94.06667 25.0 0
  95.04704 32.0 0
  95.05061 81.0 1
  97.03263 33.0 0
  103.05566 17.0 0
  104.00451 18.0 0
  104.04665 19.0 0
  105.0736 28.0 0
  106.06477 35.0 1
  106.07266 21.0 0
  107.04866 17.0 0
  107.07191 47.0 1
  107.08379 70.0 1
  108.06715 19.0 0
  108.07984 170.0 2
  109.06308 27.0 0
  110.02287 32.0 0
  114.58253 28.0 0
  115.06483 42.0 1
  115.65372 19.0 0
  117.0734 22.0 0
  118.06544 101.0 1
  119.0461 30.0 0
  121.05178 24.0 0
  121.06435 59.0 1
  121.15124 22.0 0
  122.06071 215.0 3
  122.07153 23.0 0
  122.08949 29.0 0
  123.0756 27.0 0
  124.07127 22.0 0
  124.07896 80.0 1
  124.10088 30.0 0
  125.32247 33.0 0
  127.05349 34.0 0
  128.06033 24.0 0
  129.06705 74.0 1
  129.07326 272.0 4
  130.05502 64.0 1
  130.06354 50.0 1
  131.069 20.0 0
  132.04703 42.0 1
  133.04706 27.0 0
  133.06516 26.0 0
  133.08421 50.0 1
  136.11406 25.0 0
  138.09566 25.0 0
  141.5096 32.0 0
  142.06642 17.0 0
  142.07434 33.0 0
  143.06935 20.0 0
  144.03889 20.0 0
  144.04822 49.0 1
  144.08238 335.0 5
  145.07971 48.0 1
  146.05482 30.0 0
  146.08878 18.0 0
  146.1019 29.0 0
  146.37834 21.0 0
  147.0416 41.0 1
  148.11523 18.0 0
  150.07152 23.0 0
  151.07849 18.0 0
  151.23869 20.0 0
  154.05669 43.0 1
  154.06555 141.0 2
  155.07802 33.0 0
  156.0815 911.0 13
  156.62616 20.0 0
  156.81421 39.0 1
  157.07484 48.0 1
  157.08482 163.0 2
  157.09744 23.0 0
  158.05693 92.0 1
  158.09946 21.0 0
  159.09059 20.0 0
  160.07478 29.0 0
  160.77597 17.0 0
  162.08882 25.0 0
  162.83559 27.0 0
  162.85703 20.0 0
  163.08064 27.0 0
  163.23981 27.0 0
  165.14622 34.0 0
  166.05292 25.0 0
  166.06589 60.0 1
  166.08603 20.0 0
  167.07263 45.0 1
  168.06656 51.0 1
  168.07904 232.0 3
  168.60793 26.0 0
  169.07814 130.0 2
  169.08487 38.0 1
  170.04529 20.0 0
  170.06229 48.0 1
  170.08859 33.0 0
  170.10272 37.0 1
  170.22563 22.0 0
  171.05702 33.0 0
  171.06889 24.0 0
  171.08743 30.0 0
  171.097 21.0 0
  172.09595 50.0 1
  172.36461 43.0 1
  173.08058 41.0 1
  176.07092 43.0 1
  179.07182 33.0 0
  179.09995 23.0 0
  179.88374 18.0 0
  180.06633 18.0 0
  180.07402 18.0 0
  180.08701 105.0 2
  180.09541 29.0 0
  181.08813 96.0 1
  182.06717 75.0 1
  182.09238 80.0 1
  182.11644 36.0 1
  183.02103 17.0 0
  183.05701 23.0 0
  183.07465 99.0 1
  183.10345 18.0 0
  183.17851 30.0 0
  183.84383 24.0 0
  184.05724 63.0 1
  184.07718 2903.0 42
  184.11882 20.0 0
  184.47192 17.0 0
  185.06474 36.0 1
  185.07939 616.0 9
  185.09329 76.0 1
  185.37059 21.0 0
  186.07106 51.0 1
  187.08028 18.0 0
  192.07568 57.0 1
  193.09406 21.0 0
  193.99672 27.0 0
  194.06615 75.0 1
  194.09819 468.0 7
  195.08379 20.0 0
  195.09325 39.0 1
  195.10448 91.0 1
  196.07135 89.0 1
  196.08002 199.0 3
  196.09938 23.0 0
  196.10858 28.0 0
  197.29083 22.0 0
  198.07623 18.0 0
  198.08968 135.0 2
  198.09813 161.0 2
  198.13089 17.0 0
  199.10043 29.0 0
  201.24725 18.0 0
  202.38161 20.0 0
  204.07086 43.0 1
  204.08177 66.0 1
  204.09132 64.0 1
  205.05608 37.0 1
  205.0854 101.0 1
  205.97833 17.0 0
  206.08563 50.0 1
  206.09798 170.0 2
  206.10854 51.0 1
  207.09283 17.0 0
  207.10419 55.0 1
  208.0681 33.0 0
  208.11366 26.0 0
  208.31068 21.0 0
  208.56169 30.0 0
  209.07326 29.0 0
  209.11737 25.0 0
  210.0619 18.0 0
  210.08745 50.0 1
  210.09677 160.0 2
  210.38942 23.0 0
  211.08429 20.0 0
  211.10269 18.0 0
  211.3398 22.0 0
  211.88164 26.0 0
  212.0681 134.0 2
  212.07951 20.0 0
  212.51759 25.0 0
  213.11064 20.0 0
  213.31958 19.0 0
  214.09125 20.0 0
  214.10352 29.0 0
  215.09413 24.0 0
  216.08614 31.0 0
  217.08429 86.0 1
  218.09398 215.0 3
  218.10463 49.0 1
  218.80275 18.0 0
  219.06291 28.0 0
  219.11478 115.0 2
  219.13332 54.0 1
  219.30934 27.0 0
  220.03831 20.0 0
  220.05704 49.0 1
  220.07828 574.0 8
  220.09233 53.0 1
  220.11899 91.0 1
  220.8943 32.0 0
  221.06645 38.0 1
  221.08133 147.0 2
  221.1246 20.0 0
  222.06139 49.0 1
  222.09055 788.0 12
  222.12978 78.0 1
  222.8394 28.0 0
  223.0881 30.0 0
  223.09746 88.0 1
  224.06206 18.0 0
  224.07925 48.0 1
  224.09688 25.0 0
  224.10809 83.0 1
  224.14323 23.0 0
  225.11909 32.0 0
  226.09116 84.0 1
  227.65312 19.0 0
  227.73936 17.0 0
  227.77405 23.0 0
  228.02341 20.0 0
  229.56517 39.0 1
  229.75197 36.0 1
  230.09187 89.0 1
  230.10475 22.0 0
  230.68539 46.0 1
  231.10051 39.0 1
  232.06535 18.0 0
  232.07703 17.0 0
  232.09483 18.0 0
  232.1049 68.0 1
  232.11818 113.0 2
  232.20792 17.0 0
  233.08333 30.0 0
  233.11617 28.0 0
  233.12955 35.0 1
  233.47865 30.0 0
  234.08473 120.0 2
  234.09538 439.0 6
  234.12769 62.0 1
  235.07809 32.0 0
  235.09863 171.0 2
  235.11247 48.0 1
  235.13261 20.0 0
  235.24547 17.0 0
  236.07904 25.0 0
  236.09749 77.0 1
  236.10797 137.0 2
  236.13612 39.0 1
  237.07405 20.0 0
  237.10658 51.0 1
  237.14438 65.0 1
  238.08212 70.0 1
  238.09825 67.0 1
  238.11751 50.0 1
  238.12938 68.0 1
  239.12088 23.0 0
  240.12697 49.0 1
  242.10213 23.0 0
  242.18144 17.0 0
  242.73271 17.0 0
  243.09346 18.0 0
  244.10966 38.0 1
  244.11841 38.0 1
  245.11238 29.0 0
  245.12326 17.0 0
  246.08415 105.0 2
  246.09663 160.0 2
  246.13098 40.0 1
  246.13991 29.0 0
  246.75357 23.0 0
  247.08034 25.0 0
  247.10002 55.0 1
  247.59874 27.0 0
  248.1053 475.0 7
  248.12462 51.0 1
  248.14529 70.0 1
  248.16344 21.0 0
  249.11217 39.0 1
  249.1308 36.0 1
  249.53831 25.0 0
  249.87396 18.0 0
  250.08383 59.0 1
  250.10016 33.0 0
  250.12138 52.0 1
  251.05272 27.0 0
  251.09157 18.0 0
  251.11003 29.0 0
  252.14397 19.0 0
  253.15005 37.0 1
  254.15309 21.0 0
  255.11909 27.0 0
  256.0976 38.0 1
  257.07242 25.0 0
  257.08691 90.0 1
  257.12311 31.0 0
  257.80557 33.0 0
  258.08594 19.0 0
  258.10193 66.0 1
  258.11862 20.0 0
  258.12723 59.0 1
  258.8367 18.0 0
  259.11237 72.0 1
  259.12561 37.0 1
  260.09808 18.0 0
  260.10654 25.0 0
  260.15936 24.0 0
  261.01822 20.0 0
  261.10208 83.0 1
  261.12012 283.0 4
  261.54895 17.0 0
  262.07532 43.0 1
  262.12094 362.0 5
  262.13272 217.0 3
  262.14883 30.0 0
  262.77158 43.0 1
  263.11249 21.0 0
  263.12634 62.0 1
  263.14124 41.0 1
  263.17728 21.0 0
  264.04828 25.0 0
  264.07562 80.0 1
  264.10596 1417.0 21
  264.1358 41.0 1
  264.15305 20.0 0
  264.28973 29.0 0
  264.53912 27.0 0
  265.11121 294.0 4
  265.1319 48.0 1
  265.15552 20.0 0
  265.20847 21.0 0
  265.35864 34.0 0
  266.11383 267.0 4
  266.13193 23.0 0
  267.15826 49.0 1
  267.64578 18.0 0
  268.17581 17.0 0
  268.32767 21.0 0
  269.28027 28.0 0
  269.66211 26.0 0
  270.07498 18.0 0
  270.10291 23.0 0
  270.12842 50.0 1
  271.10904 26.0 0
  272.09387 26.0 0
  272.10468 124.0 2
  272.11551 103.0 2
  273.10638 85.0 1
  273.12064 75.0 1
  274.07541 17.0 0
  274.10248 72.0 1
  274.117 127.0 2
  274.1485 24.0 0
  275.10345 19.0 0
  275.11282 26.0 0
  275.12689 74.0 1
  276.10852 21.0 0
  276.14224 19.0 0
  277.96448 17.0 0
  278.11279 26.0 0
  278.142 18.0 0
  278.15659 64.0 1
  279.17038 49.0 1
  279.85764 36.0 1
  280.0831 32.0 0
  280.12799 22.0 0
  280.14099 18.0 0
  280.98492 22.0 0
  281.1015 20.0 0
  284.06683 25.0 0
  285.1123 25.0 0
  288.1091 18.0 0
  288.12192 48.0 1
  288.13974 21.0 0
  289.13748 109.0 2
  289.16269 39.0 1
  289.62192 17.0 0
  290.10098 38.0 1
  290.11636 270.0 4
  290.12808 70.0 1
  290.16043 24.0 0
  291.1041 27.0 0
  291.13629 56.0 1
  291.15814 20.0 0
  292.12341 78.0 1
  292.14203 17.0 0
  292.63318 25.0 0
  293.13574 42.0 1
  299.1684 28.0 0
  300.16681 20.0 0
  301.45163 24.0 0
  303.97849 18.0 0
  306.14789 69.0 1
  306.16684 22.0 0
  306.83731 22.0 0
  307.10583 20.0 0
  307.14096 246.0 4
  307.15546 112.0 2
  307.17535 20.0 0
  307.19498 28.0 0
  307.88483 30.0 0
  308.08005 33.0 0
  308.10025 31.0 0
  308.15329 102.0 1
  308.16422 34.0 0
  309.47287 18.0 0
  309.57999 21.0 0
  310.9184 20.0 0
  312.3175 39.0 1
  315.4993 26.0 0
  318.18668 23.0 0
  324.08432 22.0 0
  324.80313 21.0 0
  328.82681 17.0 0
  329.77759 17.0 0
  329.91965 18.0 0
  330.35007 17.0 0
  332.29715 23.0 0
  332.71042 22.0 0
  332.90637 20.0 0
  332.91724 19.0 0
  333.2211 18.0 0
  333.30301 18.0 0
  333.77313 21.0 0
  333.81787 17.0 0
  334.07227 19.0 0
  334.28152 17.0 0
  334.36404 41.0 1
  334.39343 20.0 0
  334.55475 21.0 0
  334.56955 20.0 0
  334.59976 19.0 0
  334.62677 21.0 0
  334.64276 20.0 0
  334.66415 18.0 0
  334.716 17.0 0
  334.7309 22.0 0
  334.76041 20.0 0
  334.85059 41.0 1
  334.96378 18.0 0
  334.99304 19.0 0
  335.01538 17.0 0
  335.05453 24.0 0
  335.07187 34.0 0
  335.10028 146.0 2
  335.12311 235.0 3
  335.17612 68426.0 999
  335.22934 2025.0 30
  335.27502 70.0 1
//
