ACCESSION: MSBNK-RIKEN-PR310617
RECORD_TITLE: Hirsuteine; LC-ESI-QTOF; MS2
DATE: 2019.03.28
AUTHORS: Tetsuya Mori, Center for Sustainable Resource Science, RIKEN
LICENSE: CC BY-NC-SA
PUBLICATION: Tsugawa H., Nakabayashi R., Mori T., Yamada Y., Takahashi M., Rai A., Sugiyama R., Yamamoto H., Nakaya T., Yamazaki M., Kooke R., Bac-Molenaar JA., Oztolan-Erol N., Keurentjes JJB., Arita M., Saito K. (2019) "A cheminformatics approach to characterize metabolomes in stable-isotope-labeled organisms" Nature Methods 16(4):295-298. [doi:10.1038/s41592-019-0358-2]
COMMENT: Annotation level-1
CH$NAME: Hirsuteine
CH$COMPOUND_CLASS: Alkaloids
CH$FORMULA: C22H26N2O3
CH$EXACT_MASS: 366.461
CH$SMILES: COC=C(C1CC2N(CCC3=C2NC2=CC=CC=C32)CC1C=C)C(=O)OC
CH$IUPAC: InChI=1S/C22H26N2O3/c1-4-14-12-24-10-9-16-15-7-5-6-8-19(15)23-21(16)20(24)11-17(14)18(13-26-2)22(25)27-3/h4-8,13-14,17,20,23H,1,9-12H2,2-3H3
CH$LINK: INCHIKEY TZUGIFAYWNNSAO-UHFFFAOYSA-N
AC$INSTRUMENT: LC, Waters Acquity UPLC System; MS, Waters Xevo G2 Q-Tof
AC$INSTRUMENT_TYPE: LC-ESI-QTOF
AC$MASS_SPECTROMETRY: MS_TYPE MS2
AC$MASS_SPECTROMETRY: ION_MODE POSITIVE
AC$MASS_SPECTROMETRY: COLLISION_ENERGY 6V
AC$MASS_SPECTROMETRY: DESOLVATION_GAS_FLOW 800/h
AC$MASS_SPECTROMETRY: DESOLVATION_TEMPERATURE 450 C
AC$MASS_SPECTROMETRY: IONIZATION ESI
AC$CHROMATOGRAPHY: CAPILLARY_VOLTAGE +3.00 kV
AC$CHROMATOGRAPHY: COLUMN_NAME Acquity bridged ethyl hybrid C18 (1.7 um, 2.1 mm * 100 mm, Waters)
AC$CHROMATOGRAPHY: COLUMN_TEMPERATURE 40 C
AC$CHROMATOGRAPHY: FLOW_GRADIENT A/B = (99.5%/0.5% at 0 min, 99.5%/0.5% at 0.1 min, 20%/80% at 10 min, 0.5%/99.5% at 10.1 min, 0.5%/99.5% at 12.0 min, 99.5%/0.5% at 12.1 min, 99.5%/0.5% at 15.0 min)
AC$CHROMATOGRAPHY: FLOW_RATE 0.3 ml/min at 0 min, 0.3 ml/min at 10 min, 0.4 ml/min at 10.1 min, 0.4 ml/min at 14.4 min, 0.3 ml/min at 14.5 min
AC$CHROMATOGRAPHY: RETENTION_TIME 5.68
AC$CHROMATOGRAPHY: SOLVENT A water including 0.1% formic acid
AC$CHROMATOGRAPHY: SOLVENT B acetonitrile including 0.1% formic acid
MS$FOCUSED_ION: PRECURSOR_TYPE [M+H]+
MS$FOCUSED_ION: PRECURSOR_M/Z 367.20162
PK$SPLASH: splash10-014i-0439000000-4be1205b69ad6a18ae1d
PK$NUM_PEAK: 821
PK$PEAK: m/z int. rel.int.
  56.0149 30.0 0
  60.04952 18.0 0
  60.29349 20.0 0
  68.0405 25.0 0
  68.04501 91.0 1
  68.0516 162.0 2
  68.27209 22.0 0
  69.03311 37.0 0
  75.01917 31.0 0
  75.02505 31.0 0
  75.03515 23.0 0
  75.04436 175.0 2
  77.03383 82.0 1
  79.05378 41.0 0
  80.04932 17.0 0
  81.07227 31.0 0
  82.0623 217.0 2
  82.83 20.0 0
  84.68024 22.0 0
  85.02657 18.0 0
  91.03602 42.0 0
  91.04285 46.0 0
  91.04904 76.0 1
  91.05335 69.0 1
  92.0374 51.0 1
  92.34415 17.0 0
  93.20596 34.0 0
  94.0648 56.0 1
  95.04488 159.0 2
  95.0489 299.0 3
  95.05649 76.0 1
  96.04971 23.0 0
  96.05769 20.0 0
  96.08398 27.0 0
  99.0414 25.0 0
  99.04729 34.0 0
  99.86201 20.0 0
  103.05073 28.0 0
  105.03049 77.0 1
  105.04333 25.0 0
  105.0536 28.0 0
  105.0696 50.0 1
  106.03903 22.0 0
  106.05402 17.0 0
  106.06342 240.0 3
  106.07223 86.0 1
  107.05066 55.0 1
  107.99708 21.0 0
  108.07768 450.0 5
  108.08346 345.0 4
  109.03897 18.0 0
  109.06441 863.0 9
  110.03445 26.0 0
  110.06713 38.0 0
  110.83039 27.0 0
  111.03791 28.0 0
  111.04413 42.0 0
  111.08513 33.0 0
  112.35899 20.0 0
  112.92361 20.0 0
  114.67458 33.0 0
  115.05503 75.0 1
  116.05549 32.0 0
  116.06202 29.0 0
  117.05003 24.0 0
  117.06955 257.0 3
  117.09595 38.0 0
  117.17958 24.0 0
  118.04723 28.0 0
  118.06283 191.0 2
  118.07034 126.0 1
  119.04507 42.0 0
  119.05947 85.0 1
  119.06573 103.0 1
  119.0761 23.0 0
  119.08539 19.0 0
  119.177 18.0 0
  120.03753 86.0 1
  120.07148 108.0 1
  120.08363 154.0 2
  121.02709 25.0 0
  121.06557 242.0 3
  121.08538 30.0 0
  122.05374 43.0 0
  122.06515 108.0 1
  122.07167 41.0 0
  122.10017 116.0 1
  123.03881 27.0 0
  123.04736 68.0 1
  123.05355 31.0 0
  123.06615 33.0 0
  123.07912 146.0 2
  123.68479 21.0 0
  124.1216 24.0 0
  124.14426 17.0 0
  125.06026 39.0 0
  125.55956 30.0 0
  125.91071 21.0 0
  126.08671 255.0 3
  126.0925 468.0 5
  126.42394 25.0 0
  127.05219 109.0 1
  127.09213 25.0 0
  127.09811 19.0 0
  127.80085 38.0 0
  128.03642 17.0 0
  128.05194 63.0 1
  128.06012 105.0 1
  129.0303 63.0 1
  129.04532 65.0 1
  129.05612 660.0 7
  129.07069 147.0 2
  129.09344 24.0 0
  130.04013 36.0 0
  130.05193 44.0 0
  130.06532 822.0 9
  131.03136 21.0 0
  131.05472 22.0 0
  131.06914 132.0 1
  131.07825 131.0 1
  131.08968 32.0 0
  131.17906 30.0 0
  132.05966 130.0 1
  132.06973 53.0 1
  132.08089 350.0 4
  132.81462 33.0 0
  133.06009 33.0 0
  133.06599 34.0 0
  133.08542 192.0 2
  133.10313 28.0 0
  133.78152 19.0 0
  134.06569 21.0 0
  134.44978 17.0 0
  134.99606 19.0 0
  135.04706 20.0 0
  135.06938 23.0 0
  135.07924 30.0 0
  136.06093 35.0 0
  136.0719 143.0 2
  136.84851 24.0 0
  137.04362 19.0 0
  137.06082 373.0 4
  137.07552 35.0 0
  137.49429 59.0 1
  138.05394 78.0 1
  138.09149 93.0 1
  139.05244 56.0 1
  139.06427 85.0 1
  141.06841 28.0 0
  141.07397 34.0 0
  141.34567 20.0 0
  141.42885 18.0 0
  142.04027 21.0 0
  142.05757 30.0 0
  142.06615 91.0 1
  142.08534 49.0 1
  143.07202 350.0 4
  143.08292 187.0 2
  144.04893 17.0 0
  144.05521 24.0 0
  144.08015 13402.0 143
  144.11581 70.0 1
  144.14485 17.0 0
  144.42776 23.0 0
  144.73018 38.0 0
  145.04152 19.0 0
  145.04892 33.0 0
  145.07016 66.0 1
  145.08386 2026.0 22
  145.70372 47.0 1
  146.05923 267.0 3
  146.06845 97.0 1
  146.08366 183.0 2
  146.09683 49.0 1
  146.10434 23.0 0
  147.05714 41.0 0
  147.07384 67.0 1
  147.08353 107.0 1
  147.09146 55.0 1
  147.09807 58.0 1
  147.27509 25.0 0
  147.56496 48.0 1
  148.04832 21.0 0
  148.06258 20.0 0
  148.07751 48.0 1
  148.11092 35.0 0
  149.05264 340.0 4
  149.06317 504.0 5
  149.10971 31.0 0
  150.05524 38.0 0
  150.08635 27.0 0
  150.09697 70.0 1
  150.65999 18.0 0
  151.07582 23.0 0
  151.11311 22.0 0
  152.05275 31.0 0
  152.06258 87.0 1
  152.10092 28.0 0
  152.11401 37.0 0
  153.07129 52.0 1
  153.09428 27.0 0
  154.04269 35.0 0
  154.06459 70.0 1
  154.09102 20.0 0
  155.06047 140.0 1
  155.06976 755.0 8
  156.0798 1164.0 12
  157.04951 33.0 0
  157.06425 21.0 0
  157.07527 41.0 0
  157.08775 262.0 3
  157.31229 18.0 0
  158.06337 19.0 0
  158.09586 1547.0 17
  159.07864 23.0 0
  159.08987 68.0 1
  159.09955 103.0 1
  160.06621 30.0 0
  160.07584 174.0 2
  160.10686 30.0 0
  161.05405 27.0 0
  161.06612 48.0 1
  161.08508 90.0 1
  163.06297 55.0 1
  163.07201 72.0 1
  163.07878 83.0 1
  163.09908 44.0 0
  164.06673 280.0 3
  164.08171 33.0 0
  164.10136 60.0 1
  165.06577 39.0 0
  165.0759 55.0 1
  165.09279 45.0 0
  165.104 26.0 0
  166.06093 33.0 0
  166.08318 235.0 3
  166.22812 18.0 0
  167.05096 21.0 0
  167.07468 510.0 5
  168.0802 751.0 8
  168.19737 25.0 0
  169.0647 105.0 1
  169.0867 862.0 9
  169.77289 21.0 0
  170.06534 20.0 0
  170.09492 5067.0 54
  170.16154 22.0 0
  170.77629 20.0 0
  171.06653 52.0 1
  171.09702 831.0 9
  171.11317 19.0 0
  171.19865 17.0 0
  171.99437 23.0 0
  172.03647 42.0 0
  172.07935 142.0 2
  172.08826 48.0 1
  172.1069 572.0 6
  172.1179 373.0 4
  172.58846 21.0 0
  172.61009 23.0 0
  173.10516 46.0 0
  173.11392 76.0 1
  174.09169 176.0 2
  175.07239 288.0 3
  175.08696 34.0 0
  175.103 53.0 1
  176.05829 29.0 0
  176.06863 87.0 1
  176.07904 128.0 1
  176.0892 26.0 0
  176.10732 230.0 2
  176.11774 27.0 0
  177.07133 62.0 1
  177.07805 30.0 0
  177.0959 20.0 0
  178.07101 115.0 1
  178.0878 542.0 6
  178.86792 27.0 0
  179.07376 49.0 1
  179.08958 27.0 0
  179.10046 19.0 0
  179.56346 17.0 0
  180.041 28.0 0
  180.07977 591.0 6
  180.10162 614.0 7
  180.96893 20.0 0
  181.08298 432.0 5
  181.0948 177.0 2
  181.10474 57.0 1
  181.13248 20.0 0
  182.07913 73.0 1
  182.09671 2130.0 23
  182.7032 27.0 0
  182.71413 17.0 0
  183.06741 77.0 1
  183.0992 594.0 6
  183.24878 31.0 0
  184.06979 78.0 1
  184.08104 18.0 0
  184.09665 26.0 0
  184.1044 37.0 0
  184.28093 21.0 0
  184.37764 35.0 0
  184.61931 23.0 0
  184.99747 17.0 0
  185.09154 27.0 0
  185.10538 266.0 3
  185.11636 50.0 1
  186.12675 25.0 0
  186.93419 22.0 0
  187.08012 49.0 1
  188.10831 32.0 0
  190.08417 28.0 0
  190.09464 40.0 0
  191.06984 151.0 2
  191.08067 24.0 0
  191.0985 18.0 0
  191.67943 24.0 0
  191.82323 18.0 0
  192.07088 84.0 1
  192.1024 1291.0 14
  193.08861 258.0 3
  193.10815 209.0 2
  193.12129 20.0 0
  194.03874 18.0 0
  194.06017 34.0 0
  194.07021 23.0 0
  194.09213 332.0 4
  194.1098 74.0 1
  194.11929 23.0 0
  195.09938 166.0 2
  195.10985 71.0 1
  196.0578 18.0 0
  196.07033 34.0 0
  196.08267 24.0 0
  196.11133 272.0 3
  197.08086 33.0 0
  197.10854 238.0 3
  197.11978 61.0 1
  197.5208 19.0 0
  198.09776 65.0 1
  198.11194 118.0 1
  198.1227 76.0 1
  199.10081 93.0 1
  199.12424 1624.0 17
  199.93121 37.0 0
  200.0789 24.0 0
  200.09967 39.0 0
  200.10887 48.0 1
  200.12553 390.0 4
  200.13536 89.0 1
  201.07428 20.0 0
  202.37225 38.0 0
  204.0545 29.0 0
  204.07368 23.0 0
  204.08167 104.0 1
  204.1031 778.0 8
  204.99596 27.0 0
  205.08469 148.0 2
  205.09804 194.0 2
  205.90472 24.0 0
  206.07249 23.0 0
  206.09325 577.0 6
  206.1004 173.0 2
  206.90001 20.0 0
  206.97075 55.0 1
  207.05568 32.0 0
  207.08673 59.0 1
  207.09618 72.0 1
  207.10602 119.0 1
  207.11755 45.0 0
  208.04813 27.0 0
  208.06038 37.0 0
  208.07425 169.0 2
  208.11118 636.0 7
  209.07544 47.0 1
  209.09044 94.0 1
  209.10001 133.0 1
  209.11154 154.0 2
  209.23918 22.0 0
  210.08563 95.0 1
  210.09819 188.0 2
  210.11578 1449.0 15
  211.0605 17.0 0
  211.09578 70.0 1
  211.11206 90.0 1
  211.13184 17.0 0
  211.98157 20.0 0
  213.11801 26.0 0
  214.08603 77.0 1
  214.10384 20.0 0
  215.05498 25.0 0
  215.34518 17.0 0
  216.07756 29.0 0
  216.09863 36.0 0
  216.80716 20.0 0
  217.06822 37.0 0
  217.08978 491.0 5
  217.43585 20.0 0
  218.09456 292.0 3
  218.12187 34.0 0
  218.27345 43.0 0
  218.56102 17.0 0
  218.8031 41.0 0
  219.0634 25.0 0
  219.09059 49.0 1
  219.10399 143.0 2
  219.16908 22.0 0
  219.78177 17.0 0
  219.83453 25.0 0
  220.06166 21.0 0
  220.07913 56.0 1
  220.10458 182.0 2
  220.11861 34.0 0
  220.14507 18.0 0
  220.24722 25.0 0
  220.85165 18.0 0
  221.08617 30.0 0
  221.09639 27.0 0
  221.11681 161.0 2
  221.25226 17.0 0
  221.4044 24.0 0
  221.42288 21.0 0
  221.72597 20.0 0
  221.7849 24.0 0
  222.06519 41.0 0
  222.09033 44.0 0
  222.10759 304.0 3
  222.11797 664.0 7
  222.136 25.0 0
  222.42233 20.0 0
  222.60052 18.0 0
  223.07532 107.0 1
  223.09631 30.0 0
  223.11835 611.0 7
  223.13239 78.0 1
  224.07184 66.0 1
  224.08521 38.0 0
  224.10405 159.0 2
  224.12862 3914.0 42
  224.33728 24.0 0
  224.41948 24.0 0
  224.82443 25.0 0
  224.95589 27.0 0
  225.10271 29.0 0
  225.12012 199.0 2
  225.13057 806.0 9
  225.14432 203.0 2
  225.52162 21.0 0
  225.53157 22.0 0
  226.08501 704.0 8
  226.09686 112.0 1
  226.14363 97.0 1
  227.08551 24.0 0
  227.09436 102.0 1
  227.10703 23.0 0
  227.14085 21.0 0
  227.5127 20.0 0
  228.00224 17.0 0
  228.05309 28.0 0
  228.07451 29.0 0
  228.08856 25.0 0
  228.10396 20.0 0
  228.2092 17.0 0
  229.34436 21.0 0
  229.90976 29.0 0
  230.08977 61.0 1
  230.10286 46.0 0
  231.08517 36.0 0
  231.105 287.0 3
  231.98042 38.0 0
  232.06387 18.0 0
  232.08163 37.0 0
  232.09216 59.0 1
  232.10516 25.0 0
  232.11766 227.0 2
  233.11154 167.0 2
  233.13094 69.0 1
  233.77008 22.0 0
  234.07011 17.0 0
  234.08615 242.0 3
  234.09587 209.0 2
  234.12541 129.0 1
  234.13553 112.0 1
  234.16953 18.0 0
  235.11443 20.0 0
  235.12444 64.0 1
  235.13672 30.0 0
  235.37383 31.0 0
  235.92743 17.0 0
  235.94299 28.0 0
  236.06668 25.0 0
  236.07655 20.0 0
  236.09157 18.0 0
  236.10558 178.0 2
  236.13025 1600.0 17
  236.16455 32.0 0
  236.23302 21.0 0
  236.90979 18.0 0
  237.00955 26.0 0
  237.09834 54.0 1
  237.11505 63.0 1
  237.13141 245.0 3
  237.24719 29.0 0
  237.99692 24.0 0
  238.06621 27.0 0
  238.08084 138.0 1
  238.12312 852.0 9
  238.144 49.0 1
  238.15753 26.0 0
  238.82449 20.0 0
  239.08684 20.0 0
  239.12636 150.0 2
  239.14142 60.0 1
  239.42471 33.0 0
  240.09846 434.0 5
  240.10944 196.0 2
  240.13487 23.0 0
  240.65639 22.0 0
  240.67078 18.0 0
  241.08755 55.0 1
  241.10297 183.0 2
  241.11374 104.0 1
  242.08763 40.0 0
  242.10208 89.0 1
  243.09929 31.0 0
  243.11613 20.0 0
  244.06723 20.0 0
  244.08621 54.0 1
  244.10776 84.0 1
  244.12317 25.0 0
  244.22755 31.0 0
  245.04308 31.0 0
  245.11064 45.0 0
  245.12273 18.0 0
  245.65582 48.0 1
  246.08476 17.0 0
  246.0928 64.0 1
  246.12242 237.0 3
  246.13751 174.0 2
  246.89505 27.0 0
  247.08777 20.0 0
  247.10512 26.0 0
  247.11549 59.0 1
  247.13499 160.0 2
  248.10461 123.0 1
  248.11826 47.0 1
  248.13516 153.0 2
  249.05969 21.0 0
  249.09299 31.0 0
  249.11371 59.0 1
  249.12827 214.0 2
  249.1389 185.0 2
  249.15376 30.0 0
  249.23825 45.0 0
  249.81651 20.0 0
  249.88158 21.0 0
  250.0878 66.0 1
  250.13187 20.0 0
  250.15091 21.0 0
  251.08563 20.0 0
  251.09848 110.0 1
  251.11864 34.0 0
  251.1545 894.0 10
  252.10268 271.0 3
  252.14497 40.0 0
  252.1577 204.0 2
  252.7352 21.0 0
  253.06116 34.0 0
  253.10791 74.0 1
  253.12004 44.0 0
  254.06783 67.0 1
  254.11285 173.0 2
  254.13045 20.0 0
  254.93658 39.0 0
  255.12477 87.0 1
  255.35567 22.0 0
  256.10336 51.0 1
  256.12 59.0 1
  257.05466 37.0 0
  257.10825 18.0 0
  258.08603 22.0 0
  258.11087 103.0 1
  258.12756 127.0 1
  259.0686 64.0 1
  259.08728 21.0 0
  259.10623 46.0 0
  259.11465 146.0 2
  259.13589 27.0 0
  260.06216 24.0 0
  260.10449 321.0 3
  260.13818 85.0 1
  261.10086 26.0 0
  261.11279 28.0 0
  261.12537 54.0 1
  261.13248 19.0 0
  262.09268 20.0 0
  262.12155 84.0 1
  262.13617 48.0 1
  262.1676 33.0 0
  263.06924 30.0 0
  263.1076 23.0 0
  263.13104 35.0 0
  263.14407 53.0 1
  263.16663 22.0 0
  264.09009 51.0 1
  264.1037 40.0 0
  264.14691 18.0 0
  264.30563 27.0 0
  265.10458 58.0 1
  265.14212 25.0 0
  265.42944 26.0 0
  266.08173 18.0 0
  266.11673 853.0 9
  267.11792 110.0 1
  267.13516 21.0 0
  268.13864 65.0 1
  270.10797 28.0 0
  270.45605 30.0 0
  271.11401 54.0 1
  272.09412 32.0 0
  272.1022 25.0 0
  272.11829 47.0 1
  274.12396 411.0 4
  275.12833 142.0 2
  275.16046 158.0 2
  276.11731 118.0 1
  276.13864 54.0 1
  276.15781 26.0 0
  276.17673 28.0 0
  277.11172 58.0 1
  277.125 50.0 1
  277.28723 18.0 0
  277.40228 24.0 0
  278.10229 27.0 0
  278.11826 21.0 0
  278.13797 133.0 1
  278.15552 85.0 1
  278.21481 21.0 0
  279.12253 22.0 0
  279.13293 26.0 0
  279.1478 35.0 0
  280.13132 83.0 1
  280.14609 62.0 1
  281.13348 75.0 1
  282.0918 18.0 0
  282.11569 59.0 1
  282.13196 19.0 0
  283.1246 20.0 0
  284.10156 23.0 0
  284.12177 52.0 1
  284.13754 97.0 1
  285.13116 47.0 1
  286.12537 38.0 0
  286.14566 75.0 1
  287.11426 22.0 0
  287.26169 18.0 0
  288.10635 69.0 1
  288.12692 24.0 0
  288.14774 55.0 1
  289.10638 48.0 1
  290.10764 21.0 0
  290.13541 43.0 0
  291.12534 25.0 0
  292.09561 18.0 0
  292.11578 96.0 1
  292.14029 200.0 2
  293.12369 62.0 1
  293.14023 20.0 0
  293.15399 21.0 0
  293.17123 21.0 0
  294.10379 17.0 0
  294.15936 48.0 1
  295.11185 17.0 0
  295.14786 48.0 1
  295.15894 35.0 0
  295.50479 21.0 0
  295.78638 18.0 0
  296.12451 40.0 0
  296.49753 18.0 0
  297.53009 20.0 0
  298.03275 23.0 0
  298.0864 20.0 0
  298.11093 52.0 1
  298.14365 1878.0 20
  298.21362 35.0 0
  299.12216 29.0 0
  299.14301 376.0 4
  299.17078 33.0 0
  299.33817 30.0 0
  299.43378 30.0 0
  299.77106 18.0 0
  300.14218 17.0 0
  300.1601 45.0 0
  301.15002 28.0 0
  302.15915 32.0 0
  302.31213 31.0 0
  302.96637 18.0 0
  303.12744 42.0 0
  303.14175 174.0 2
  303.15567 321.0 3
  303.54825 17.0 0
  304.00848 20.0 0
  304.09363 64.0 1
  304.12964 72.0 1
  304.15433 54.0 1
  304.17093 57.0 1
  304.38651 23.0 0
  305.12192 39.0 0
  305.14651 54.0 1
  305.16498 45.0 0
  306.11697 21.0 0
  306.14478 319.0 3
  306.1554 203.0 2
  307.13422 17.0 0
  307.15259 86.0 1
  307.16672 40.0 0
  307.18149 84.0 1
  308.15573 24.0 0
  308.18994 33.0 0
  309.14236 48.0 1
  309.61038 27.0 0
  310.12878 18.0 0
  310.13861 18.0 0
  310.15518 39.0 0
  310.6153 17.0 0
  311.90125 23.0 0
  312.16824 42.0 0
  313.48215 25.0 0
  313.52045 28.0 0
  314.00027 19.0 0
  314.08621 29.0 0
  316.37216 17.0 0
  317.16473 24.0 0
  318.14594 133.0 1
  318.16394 37.0 0
  319.11908 33.0 0
  319.12982 25.0 0
  319.1459 59.0 1
  320.15448 54.0 1
  320.19867 27.0 0
  320.51334 31.0 0
  321.16425 26.0 0
  322.15668 20.0 0
  323.17438 19.0 0
  323.48874 34.0 0
  324.14871 80.0 1
  324.16138 88.0 1
  324.17465 35.0 0
  325.15277 17.0 0
  325.16757 18.0 0
  326.17496 18.0 0
  328.37607 29.0 0
  335.12689 18.0 0
  335.14349 43.0 0
  335.17758 2026.0 22
  336.03473 43.0 0
  336.13849 26.0 0
  336.16196 139.0 1
  336.18542 585.0 6
  336.57175 17.0 0
  337.18695 109.0 1
  338.16574 65.0 1
  338.17758 122.0 1
  338.19171 19.0 0
  338.21817 22.0 0
  339.14609 54.0 1
  339.1731 544.0 6
  340.17105 78.0 1
  341.50766 20.0 0
  342.42978 33.0 0
  342.59702 20.0 0
  349.12537 20.0 0
  349.17654 32.0 0
  349.18839 21.0 0
  350.17429 299.0 3
  350.64487 28.0 0
  351.17792 127.0 1
  352.17221 76.0 1
  353.67685 24.0 0
  354.0231 17.0 0
  358.58463 33.0 0
  359.13504 27.0 0
  360.19098 37.0 0
  362.42435 18.0 0
  362.94516 17.0 0
  363.617 18.0 0
  363.89337 28.0 0
  364.27161 17.0 0
  364.64319 17.0 0
  365.09689 22.0 0
  365.11981 27.0 0
  365.18857 189.0 2
  366.16055 17.0 0
  366.1785 61.0 1
  366.19531 250.0 3
  366.31427 18.0 0
  366.35513 21.0 0
  366.38382 17.0 0
  366.57605 19.0 0
  366.6189 17.0 0
  366.66306 21.0 0
  366.71204 18.0 0
  366.81253 20.0 0
  366.8541 19.0 0
  366.866 27.0 0
  366.89954 33.0 0
  366.92471 59.0 1
  366.96051 30.0 0
  366.98715 19.0 0
  367.01065 17.0 0
  367.05878 76.0 1
  367.08392 69.0 1
  367.11661 225.0 2
  367.13913 667.0 7
  367.15182 258.0 3
  367.2019 93573.0 999
  367.25769 2804.0 30
  367.30829 326.0 3
  367.36273 18.0 0
  367.39508 21.0 0
//
