ACCESSION: MSBNK-RIKEN-PR310433
RECORD_TITLE: (-)-B-Hydrastine; LC-ESI-QTOF; MS2
DATE: 2019.03.28
AUTHORS: Tetsuya Mori, Center for Sustainable Resource Science, RIKEN
LICENSE: CC BY-NC-SA
PUBLICATION: Tsugawa H., Nakabayashi R., Mori T., Yamada Y., Takahashi M., Rai A., Sugiyama R., Yamamoto H., Nakaya T., Yamazaki M., Kooke R., Bac-Molenaar JA., Oztolan-Erol N., Keurentjes JJB., Arita M., Saito K. (2019) "A cheminformatics approach to characterize metabolomes in stable-isotope-labeled organisms" Nature Methods 16(4):295-298. [doi:10.1038/s41592-019-0358-2]
COMMENT: Annotation level-1
CH$NAME: (-)-B-Hydrastine
CH$COMPOUND_CLASS: Others
CH$FORMULA: C21H21NO6
CH$EXACT_MASS: 383.4
CH$SMILES: COC1=C(OC)C2=C(C=C1)C(OC2=O)C1N(C)CCC2=C1C=C1OCOC1=C2
CH$IUPAC: InChI=1S/C21H21NO6/c1-22-7-6-11-8-15-16(27-10-26-15)9-13(11)18(22)19-12-4-5-14(24-2)20(25-3)17(12)21(23)28-19/h4-5,8-9,18-19H,6-7,10H2,1-3H3
CH$LINK: INCHIKEY JZUTXVTYJDCMDU-UHFFFAOYSA-N
AC$INSTRUMENT: LC, Waters Acquity UPLC System; MS, Waters Xevo G2 Q-Tof
AC$INSTRUMENT_TYPE: LC-ESI-QTOF
AC$MASS_SPECTROMETRY: MS_TYPE MS2
AC$MASS_SPECTROMETRY: ION_MODE POSITIVE
AC$MASS_SPECTROMETRY: COLLISION_ENERGY 6V
AC$MASS_SPECTROMETRY: DESOLVATION_GAS_FLOW 800/h
AC$MASS_SPECTROMETRY: DESOLVATION_TEMPERATURE 450 C
AC$MASS_SPECTROMETRY: IONIZATION ESI
AC$CHROMATOGRAPHY: CAPILLARY_VOLTAGE +3.00 kV
AC$CHROMATOGRAPHY: COLUMN_NAME Acquity bridged ethyl hybrid C18 (1.7 um, 2.1 mm * 100 mm, Waters)
AC$CHROMATOGRAPHY: COLUMN_TEMPERATURE 40 C
AC$CHROMATOGRAPHY: FLOW_GRADIENT A/B = (99.5%/0.5% at 0 min, 99.5%/0.5% at 0.1 min, 20%/80% at 10 min, 0.5%/99.5% at 10.1 min, 0.5%/99.5% at 12.0 min, 99.5%/0.5% at 12.1 min, 99.5%/0.5% at 15.0 min)
AC$CHROMATOGRAPHY: FLOW_RATE 0.3 ml/min at 0 min, 0.3 ml/min at 10 min, 0.4 ml/min at 10.1 min, 0.4 ml/min at 14.4 min, 0.3 ml/min at 14.5 min
AC$CHROMATOGRAPHY: RETENTION_TIME 4.21
AC$CHROMATOGRAPHY: SOLVENT A water including 0.1% formic acid
AC$CHROMATOGRAPHY: SOLVENT B acetonitrile including 0.1% formic acid
MS$FOCUSED_ION: PRECURSOR_TYPE [M+H]+
MS$FOCUSED_ION: PRECURSOR_M/Z 384.14416
PK$SPLASH: splash10-001i-0249000000-34f2b519b513bceb6a43
PK$NUM_PEAK: 143
PK$PEAK: m/z int. rel.int.
  147.04155 30.0 8
  149.05313 45.0 12
  149.06546 44.0 12
  150.05696 17.0 5
  160.05385 17.0 5
  166.05804 48.0 13
  175.07513 45.0 12
  176.05954 33.0 9
  176.07997 19.0 5
  177.07538 21.0 6
  178.03485 22.0 6
  187.07498 17.0 5
  188.05606 17.0 5
  188.07027 53.0 14
  189.07443 65.0 18
  189.96327 23.0 6
  190.08662 853.0 232
  191.0825 86.0 23
  191.08868 231.0 63
  192.09647 18.0 5
  193.04739 34.0 9
  199.54578 25.0 7
  206.06891 20.0 5
  206.08803 27.0 7
  207.08339 25.0 7
  209.72017 23.0 6
  217.05713 33.0 9
  218.07069 20.0 5
  219.09171 21.0 6
  220.04997 21.0 6
  222.06076 98.0 27
  223.07661 21.0 6
  224.08116 17.0 5
  231.05722 22.0 6
  233.04886 18.0 5
  234.0641 67.0 18
  234.59764 19.0 5
  235.06152 20.0 5
  235.07353 39.0 11
  236.04082 18.0 5
  236.08888 29.0 8
  239.0999 42.0 11
  247.06992 39.0 11
  249.03009 26.0 7
  249.05569 83.0 23
  249.09718 19.0 5
  250.05086 41.0 11
  250.07037 30.0 8
  251.06796 39.0 11
  251.0771 60.0 16
  252.07683 47.0 13
  253.06425 26.0 7
  256.02261 25.0 7
  260.04733 25.0 7
  261.02786 22.0 6
  261.03799 20.0 5
  262.05988 44.0 12
  264.07153 17.0 5
  264.08261 21.0 6
  265.08276 239.0 65
  265.10025 19.0 5
  266.05994 31.0 8
  266.08865 29.0 8
  267.10965 39.0 11
  275.07233 24.0 7
  275.09766 17.0 5
  277.03659 18.0 5
  277.09894 24.0 7
  278.0607 53.0 14
  278.09265 34.0 9
  279.0386 20.0 5
  279.05878 35.0 10
  279.06833 18.0 5
  279.0863 40.0 11
  279.81256 21.0 6
  280.06516 135.0 37
  280.07788 72.0 20
  281.06665 21.0 6
  282.08066 53.0 14
  283.10742 17.0 5
  291.06039 45.0 12
  291.07138 63.0 17
  291.09195 19.0 5
  292.06213 18.0 5
  292.07632 85.0 23
  292.98712 17.0 5
  293.03189 23.0 6
  293.06659 25.0 7
  293.08203 307.0 83
  294.05899 18.0 5
  294.07239 22.0 6
  294.09433 83.0 23
  294.15009 18.0 5
  294.2074 21.0 6
  295.09702 249.0 68
  295.16266 25.0 7
  296.10547 20.0 5
  296.67526 18.0 5
  297.12659 18.0 5
  297.85461 17.0 5
  302.05399 17.0 5
  302.0719 17.0 5
  304.06238 27.0 7
  305.08105 22.0 6
  307.05698 23.0 6
  308.07175 21.0 6
  308.08722 17.0 5
  310.10895 33.0 9
  311.09521 34.0 9
  313.10825 20.0 5
  314.82324 22.0 6
  319.09027 18.0 5
  320.0723 83.0 23
  322.09595 33.0 9
  322.11771 19.0 5
  323.00534 30.0 8
  323.05112 22.0 6
  323.06204 21.0 6
  323.09238 1033.0 281
  323.21326 21.0 6
  324.05096 33.0 9
  324.06793 18.0 5
  324.09003 383.0 104
  325.08252 25.0 7
  325.10327 21.0 6
  335.09097 81.0 22
  335.12338 18.0 5
  336.08167 20.0 5
  336.09702 23.0 6
  337.13306 22.0 6
  340.15176 18.0 5
  341.1015 22.0 6
  341.12772 35.0 10
  366.07257 25.0 7
  366.11755 24.0 7
  366.15656 20.0 5
  366.97952 20.0 5
  371.25256 20.0 5
  380.98087 17.0 5
  383.50928 19.0 5
  384.09042 25.0 7
  384.11349 62.0 17
  384.14279 3679.0 999
//
