ACCESSION: MSBNK-RIKEN-PR308710
RECORD_TITLE: Hederacoside C; LC-ESI-QTOF; MS2
DATE: 2019.03.28
AUTHORS: Tetsuya Mori, Center for Sustainable Resource Science, RIKEN
LICENSE: CC BY-NC-SA
PUBLICATION: Tsugawa H., Nakabayashi R., Mori T., Yamada Y., Takahashi M., Rai A., Sugiyama R., Yamamoto H., Nakaya T., Yamazaki M., Kooke R., Bac-Molenaar JA., Oztolan-Erol N., Keurentjes JJB., Arita M., Saito K. (2019) "A cheminformatics approach to characterize metabolomes in stable-isotope-labeled organisms" Nature Methods 16(4):295-298. [doi:10.1038/s41592-019-0358-2]
COMMENT: Annotation level-1
CH$NAME: Hederacoside C
CH$COMPOUND_CLASS: Triterpene saponins
CH$FORMULA: C59H96O26
CH$EXACT_MASS: 1221.391
CH$SMILES: CC1OC(OC2C(O)C(O)C(OCC3OC(OC(=O)C45CCC(C)(C)CC4C4=CCC6C7(C)CCC(OC8OCC(O)C(O)C8OC8OC(C)C(O)C(O)C8O)C(C)(CO)C7CCC6(C)C4(C)CC5)C(O)C(O)C3O)OC2CO)C(O)C(O)C1O
CH$IUPAC: InChI=1S/C59H96O26/c1-24-34(63)38(67)42(71)49(78-24)83-46-29(20-60)80-48(45(74)41(46)70)77-22-30-37(66)40(69)44(73)51(81-30)85-53(75)59-17-15-54(3,4)19-27(59)26-9-10-32-55(5)13-12-33(56(6,23-61)31(55)11-14-58(32,8)57(26,7)16-18-59)82-52-47(36(65)28(62)21-76-52)84-50-43(72)39(68)35(64)25(2)79-50/h9,24-25,27-52,60-74H,10-23H2,1-8H3
CH$LINK: INCHIKEY RYHDIBJJJRNDSX-UHFFFAOYSA-N
AC$INSTRUMENT: LC, Waters Acquity UPLC System; MS, Waters Xevo G2 Q-Tof
AC$INSTRUMENT_TYPE: LC-ESI-QTOF
AC$MASS_SPECTROMETRY: MS_TYPE MS2
AC$MASS_SPECTROMETRY: ION_MODE NEGATIVE
AC$MASS_SPECTROMETRY: COLLISION_ENERGY 6V
AC$MASS_SPECTROMETRY: DESOLVATION_GAS_FLOW 800/h
AC$MASS_SPECTROMETRY: DESOLVATION_TEMPERATURE 450 C
AC$MASS_SPECTROMETRY: IONIZATION ESI
AC$CHROMATOGRAPHY: CAPILLARY_VOLTAGE +3.00 kV
AC$CHROMATOGRAPHY: COLUMN_NAME Acquity bridged ethyl hybrid C18 (1.7 um, 2.1 mm * 100 mm, Waters)
AC$CHROMATOGRAPHY: COLUMN_TEMPERATURE 40 C
AC$CHROMATOGRAPHY: FLOW_GRADIENT A/B = (99.5%/0.5% at 0 min, 99.5%/0.5% at 0.1 min, 20%/80% at 10 min, 0.5%/99.5% at 10.1 min, 0.5%/99.5% at 12.0 min, 99.5%/0.5% at 12.1 min, 99.5%/0.5% at 15.0 min)
AC$CHROMATOGRAPHY: FLOW_RATE 0.3 ml/min at 0 min, 0.3 ml/min at 10 min, 0.4 ml/min at 10.1 min, 0.4 ml/min at 14.4 min, 0.3 ml/min at 14.5 min
AC$CHROMATOGRAPHY: RETENTION_TIME 5.39
AC$CHROMATOGRAPHY: SOLVENT A water including 0.1% formic acid
AC$CHROMATOGRAPHY: SOLVENT B acetonitrile including 0.1% formic acid
MS$FOCUSED_ION: PRECURSOR_TYPE [M+HCOO]-
MS$FOCUSED_ION: PRECURSOR_M/Z 1265.61719
PK$SPLASH: splash10-01b9-0090100000-8004b7be14650f203704
PK$NUM_PEAK: 67
PK$PEAK: m/z int. rel.int.
  69.86057 18.0 3
  83.10777 26.0 4
  83.80894 18.0 3
  101.02789 20.0 3
  125.02432 55.0 9
  161.03848 34.0 5
  161.04565 81.0 13
  247.08263 133.0 21
  249.09737 22.0 3
  250.08757 25.0 4
  253.70131 20.0 3
  265.0954 43.0 7
  266.09283 21.0 3
  311.01105 23.0 4
  323.10071 41.0 6
  324.10187 29.0 5
  324.95486 54.0 8
  325.11563 61.0 9
  367.10898 24.0 4
  367.12741 60.0 9
  368.12976 19.0 3
  409.13477 39.0 6
  411.13345 19.0 3
  456.6778 20.0 3
  463.26871 18.0 3
  469.15707 1622.0 252
  470.15479 215.0 33
  471.15845 18.0 3
  492.71289 20.0 3
  570.74652 21.0 3
  581.14752 20.0 3
  649.61383 21.0 3
  661.01843 18.0 3
  666.8877 18.0 3
  685.93604 19.0 3
  713.94025 20.0 3
  737.44135 29.0 5
  738.49115 18.0 3
  743.2782 18.0 3
  749.45087 361.0 56
  750.45197 159.0 25
  751.45074 56.0 9
  752.44354 20.0 3
  783.62091 20.0 3
  791.46594 18.0 3
  867.0141 23.0 4
  911.83459 37.0 6
  938.79138 18.0 3
  958.22797 24.0 4
  965.52966 25.0 4
  984.85785 22.0 3
  1042.078 23.0 4
  1100.57312 18.0 3
  1193.27319 20.0 3
  1217.77783 18.0 3
  1219.61292 6422.0 999
  1220.61951 4453.0 693
  1221.6167 1273.0 198
  1221.6864 42.0 7
  1222.5929 94.0 15
  1222.62524 194.0 30
  1222.6969 47.0 7
  1223.04919 18.0 3
  1223.62842 56.0 9
  1223.94678 18.0 3
  1243.44897 21.0 3
  1265.62085 460.0 72
//
