ACCESSION: MSBNK-RIKEN-PR303398
RECORD_TITLE: NP-006989(12); LC-ESI-QTOF; MS2
DATE: 2019.03.28
AUTHORS: Tetsuya Mori, Center for Sustainable Resource Science, RIKEN
LICENSE: CC BY-NC-SA
PUBLICATION: Tsugawa H., Nakabayashi R., Mori T., Yamada Y., Takahashi M., Rai A., Sugiyama R., Yamamoto H., Nakaya T., Yamazaki M., Kooke R., Bac-Molenaar JA., Oztolan-Erol N., Keurentjes JJB., Arita M., Saito K. (2019) "A cheminformatics approach to characterize metabolomes in stable-isotope-labeled organisms" Nature Methods 16(4):295-298. [doi:10.1038/s41592-019-0358-2]
COMMENT: registered in RIKEN PlaSMA
CH$NAME: NP-006989(12)
CH$COMPOUND_CLASS: Flavonoid 8-C-glycosides
CH$FORMULA: C27H30O16
CH$EXACT_MASS: 610.521
CH$SMILES: OC[C@H]1O[C@H]([C@H](O)[C@@H](O)[C@@H]1O)C1=C(O)C(C2OC(CO)C(O)C(O)C2O)=C2OC(=CC(=O)C2=C1O)C1=CC(O)=C(O)C=C1
CH$IUPAC: InChI=1S/C27H30O16/c28-5-12-17(33)21(37)23(39)26(42-12)15-19(35)14-10(32)4-11(7-1-2-8(30)9(31)3-7)41-25(14)16(20(15)36)27-24(40)22(38)18(34)13(6-29)43-27/h1-4,12-13,17-18,21-24,26-31,33-40H,5-6H2/t12-,13?,17-,18?,21+,22?,23-,24?,26+,27?/m1/s1
CH$LINK: INCHIKEY ZLPSOQFIIQIIAX-FCSQLNSJSA-N
AC$INSTRUMENT: LC, Waters Acquity UPLC System; MS, Waters Xevo G2 Q-Tof
AC$INSTRUMENT_TYPE: LC-ESI-QTOF
AC$MASS_SPECTROMETRY: MS_TYPE MS2
AC$MASS_SPECTROMETRY: ION_MODE POSITIVE
AC$MASS_SPECTROMETRY: COLLISION_ENERGY 6V
AC$MASS_SPECTROMETRY: DESOLVATION_GAS_FLOW 800/h
AC$MASS_SPECTROMETRY: DESOLVATION_TEMPERATURE 450 C
AC$MASS_SPECTROMETRY: IONIZATION ESI
AC$CHROMATOGRAPHY: CAPILLARY_VOLTAGE +3.00 kV
AC$CHROMATOGRAPHY: COLUMN_NAME Acquity bridged ethyl hybrid C18 (1.7 um, 2.1 mm * 100 mm, Waters)
AC$CHROMATOGRAPHY: COLUMN_TEMPERATURE 40 C
AC$CHROMATOGRAPHY: FLOW_GRADIENT A/B = (99.5%/0.5% at 0 min, 99.5%/0.5% at 0.1 min, 20%/80% at 10 min, 0.5%/99.5% at 10.1 min, 0.5%/99.5% at 12.0 min, 99.5%/0.5% at 12.1 min, 99.5%/0.5% at 15.0 min)
AC$CHROMATOGRAPHY: FLOW_RATE 0.3 ml/min at 0 min, 0.3 ml/min at 10 min, 0.4 ml/min at 10.1 min, 0.4 ml/min at 14.4 min, 0.3 ml/min at 14.5 min
AC$CHROMATOGRAPHY: RETENTION_TIME 3.100167
AC$CHROMATOGRAPHY: SOLVENT A water including 0.1% formic acid
AC$CHROMATOGRAPHY: SOLVENT B acetonitrile including 0.1% formic acid
MS$FOCUSED_ION: PRECURSOR_TYPE [M+H]+
MS$FOCUSED_ION: PRECURSOR_M/Z 611.1606613
PK$SPLASH: splash10-0ir3-0019000000-daeedeebc37bdab2e6e6
PK$NUM_PEAK: 322
PK$PEAK: m/z int. rel.int.
  86.03026 11.0 11
  109.02808 9.0 9
  133.01685 16.0 16
  135.04222 26.0 26
  136.99911 9.0 9
  137.01921 79.0 79
  137.02747 65.0 65
  137.16199 19.0 19
  138.02501 15.0 15
  138.63559 10.0 10
  148.02188 10.0 10
  149.01367 13.0 13
  149.02359 13.0 13
  159.04579 10.0 10
  163.04138 10.0 10
  172.04646 13.0 13
  172.9865 15.0 15
  173.01939 27.0 27
  173.03568 12.0 12
  174.11119 9.0 9
  176.03929 22.0 22
  177.01865 24.0 24
  177.04996 12.0 12
  179.03523 13.0 13
  189.01372 52.0 52
  189.0219 31.0 31
  189.04991 13.0 13
  190.02374 40.0 40
  191.0222 16.0 16
  195.03947 13.0 13
  196.07176 10.0 10
  199.03131 12.0 12
  200.04538 24.0 24
  201.01038 27.0 27
  201.02422 19.0 19
  201.05887 14.0 14
  202.02127 9.0 9
  202.06787 12.0 12
  203.03133 79.0 79
  204.04311 16.0 16
  204.07118 13.0 13
  205.04276 15.0 15
  207.02966 36.0 36
  207.04031 19.0 19
  208.03957 27.0 27
  211.03636 32.0 32
  212.04282 9.0 9
  213.02197 10.0 10
  214.96194 12.0 12
  215.04489 12.0 12
  215.07179 16.0 16
  216.09259 11.0 11
  217.04172 9.0 9
  217.05756 12.0 12
  220.03552 15.0 15
  220.06003 13.0 13
  220.54984 10.0 10
  223.92482 44.0 44
  225.06409 22.0 22
  226.07076 22.0 22
  227.02846 15.0 15
  227.06673 11.0 11
  229.00417 9.0 9
  229.02269 11.0 11
  229.03429 26.0 26
  229.05196 16.0 16
  229.08163 9.0 9
  230.06786 10.0 10
  232.02942 15.0 15
  233.05011 14.0 14
  237.05978 16.0 16
  238.04503 12.0 12
  239.03326 23.0 23
  239.05266 15.0 15
  240.0311 30.0 30
  242.05803 14.0 14
  245.34422 13.0 13
  246.04567 17.0 17
  247.03555 16.0 16
  247.05432 18.0 18
  253.04347 55.0 55
  254.05562 11.0 11
  255.02951 44.0 44
  256.02859 16.0 16
  257.04645 40.0 40
  258.04623 13.0 13
  262.03296 13.0 13
  263.07361 28.0 28
  267.04163 11.0 11
  269.04065 20.0 20
  270.05017 13.0 13
  272.05655 9.0 9
  273.03717 13.0 13
  275.03467 11.0 11
  276.04752 10.0 10
  279.07382 13.0 13
  281.03568 14.0 14
  281.04654 18.0 18
  283.02283 12.0 12
  283.04242 14.0 14
  283.0647 11.0 11
  283.86288 13.0 13
  284.05734 28.0 28
  284.08063 29.0 29
  285.03452 34.0 34
  285.06802 15.0 15
  287.065 11.0 11
  292.66153 19.0 19
  293.02759 11.0 11
  293.0683 11.0 11
  295.05176 29.0 29
  295.06866 15.0 15
  295.98703 10.0 10
  296.05078 19.0 19
  296.07321 14.0 14
  297.04385 20.0 20
  297.0618 27.0 27
  297.07812 47.0 47
  297.09192 17.0 17
  298.03635 12.0 12
  298.06717 38.0 38
  299.0451 31.0 31
  299.05896 54.0 54
  304.06778 19.0 19
  304.09192 23.0 23
  306.04773 11.0 11
  307.05426 23.0 23
  307.06863 9.0 9
  308.07352 11.0 11
  309.04727 15.0 15
  309.09439 17.0 17
  309.99408 13.0 13
  310.00851 12.0 12
  310.04538 127.0 127
  311.02686 23.0 23
  311.05627 1000.0 999
  311.09045 13.0 13
  312.05441 169.0 169
  312.06696 139.0 139
  313.00992 11.0 11
  313.07065 97.0 97
  314.07553 33.0 33
  314.18436 12.0 12
  315.073 9.0 9
  319.33682 9.0 9
  321.04959 10.0 10
  321.0946 10.0 10
  323.01865 9.0 9
  323.0296 9.0 9
  323.05536 421.0 421
  323.11932 18.0 18
  324.02704 37.0 37
  324.06039 341.0 341
  324.9299 9.0 9
  325.03604 45.0 45
  325.064 93.0 93
  325.08228 71.0 71
  325.10254 10.0 10
  326.05219 15.0 15
  326.06903 32.0 32
  328.0556 19.0 19
  329.06833 44.0 44
  331.07303 22.0 22
  332.24054 10.0 10
  333.06052 17.0 17
  333.07486 13.0 13
  333.08789 13.0 13
  335.05484 60.0 60
  335.07104 18.0 18
  335.08951 19.0 19
  336.03278 32.0 32
  336.06296 63.0 63
  336.07474 38.0 38
  337.03094 10.0 10
  337.06873 317.0 317
  337.08743 62.0 62
  337.69971 10.0 10
  338.02542 10.0 10
  338.08124 265.0 265
  338.10074 18.0 18
  338.33273 16.0 16
  338.75449 9.0 9
  339.05984 24.0 24
  339.07736 26.0 26
  339.08939 88.0 88
  339.10992 18.0 18
  340.94986 9.0 9
  341.0029 12.0 12
  341.039 23.0 23
  341.06549 708.0 707
  341.15024 23.0 23
  342.05466 45.0 45
  342.07205 143.0 143
  343.06885 14.0 14
  343.08044 12.0 12
  345.09158 13.0 13
  347.05685 34.0 34
  347.07913 29.0 29
  347.22964 15.0 15
  349.02997 11.0 11
  349.05313 33.0 33
  349.07111 111.0 111
  350.06268 12.0 12
  350.07385 26.0 26
  350.09033 12.0 12
  350.32404 10.0 10
  351.04193 33.0 33
  351.06345 79.0 79
  351.08179 93.0 93
  351.0961 121.0 121
  352.05539 91.0 91
  352.08508 55.0 55
  352.3175 12.0 12
  353.06589 632.0 631
  353.09512 37.0 37
  353.11163 13.0 13
  354.0629 30.0 30
  354.08011 29.0 29
  355.08801 16.0 16
  356.07425 38.0 38
  361.07773 26.0 26
  362.05356 15.0 15
  362.07132 49.0 49
  362.0899 11.0 11
  363.02014 10.0 10
  363.0769 81.0 81
  363.0932 65.0 65
  364.02911 17.0 17
  364.07654 22.0 22
  364.26862 10.0 10
  364.6741 13.0 13
  365.06467 226.0 226
  365.10406 56.0 56
  366.07419 74.0 74
  366.11523 32.0 32
  367.03989 12.0 12
  367.07468 266.0 266
  367.10498 23.0 23
  368.07803 43.0 43
  368.10504 16.0 16
  373.07104 38.0 38
  374.07651 16.0 16
  374.10675 11.0 11
  375.08398 39.0 39
  377.03735 17.0 17
  377.0484 55.0 55
  377.06985 164.0 164
  377.09647 10.0 10
  378.06253 10.0 10
  379.08124 73.0 73
  380.08267 31.0 31
  381.06906 20.0 20
  381.0932 128.0 128
  382.06372 20.0 20
  382.09988 15.0 15
  382.11255 16.0 16
  383.04959 23.0 23
  383.07132 15.0 15
  383.85187 13.0 13
  387.07175 41.0 41
  388.09576 10.0 10
  389.05524 11.0 11
  389.07065 12.0 12
  389.1109 11.0 11
  389.74081 10.0 10
  390.06503 36.0 36
  391.07333 13.0 13
  391.08859 45.0 45
  392.04501 11.0 11
  392.0889 30.0 30
  392.12405 10.0 10
  393.07678 12.0 12
  393.99808 9.0 9
  395.04437 42.0 42
  395.07825 84.0 84
  399.08359 12.0 12
  400.07193 18.0 18
  400.9697 11.0 11
  401.0314 23.0 23
  401.0675 16.0 16
  402.06976 10.0 10
  403.06125 10.0 10
  403.07825 38.0 38
  404.0878 13.0 13
  405.06113 9.0 9
  405.09412 11.0 11
  407.0752 120.0 120
  407.09943 19.0 19
  408.07059 21.0 21
  408.08884 10.0 10
  409.08118 10.0 10
  410.09262 13.0 13
  413.07562 11.0 11
  414.04517 13.0 13
  417.06259 14.0 14
  417.08865 12.0 12
  417.10712 18.0 18
  419.06897 20.0 20
  419.08624 51.0 51
  420.07028 13.0 13
  425.09268 23.0 23
  425.11343 13.0 13
  429.04147 17.0 17
  429.09695 10.0 10
  431.05954 12.0 12
  431.09207 13.0 13
  432.08429 26.0 26
  437.09561 12.0 12
  442.38373 13.0 13
  443.08041 17.0 17
  443.10168 13.0 13
  447.50354 18.0 18
  449.08783 19.0 19
  452.11292 17.0 17
  475.09903 15.0 15
  482.56107 10.0 10
  491.08771 22.0 22
  491.10486 20.0 20
  510.25983 9.0 9
  521.11157 13.0 13
  561.61188 10.0 10
  611.16992 10.0 10
//
