ACCESSION: MSBNK-RIKEN-PR308271
RECORD_TITLE: Indole-3-acetyl-L-tryptophan; LC-ESI-QTOF; MS2
DATE: 2019.03.28
AUTHORS: Tetsuya Mori, Center for Sustainable Resource Science, RIKEN
LICENSE: CC BY-NC-SA
PUBLICATION: Tsugawa H., Nakabayashi R., Mori T., Yamada Y., Takahashi M., Rai A., Sugiyama R., Yamamoto H., Nakaya T., Yamazaki M., Kooke R., Bac-Molenaar JA., Oztolan-Erol N., Keurentjes JJB., Arita M., Saito K. (2019) "A cheminformatics approach to characterize metabolomes in stable-isotope-labeled organisms" Nature Methods 16(4):295-298. [doi:10.1038/s41592-019-0358-2]
COMMENT: registered in RIKEN PlaSMA
CH$NAME: Indole-3-acetyl-L-tryptophan
CH$COMPOUND_CLASS: N-acyl-alpha amino acids
CH$FORMULA: C21H19N3O3
CH$EXACT_MASS: 361.401
CH$SMILES: OC(CC1=CNC2=CC=CC=C12)=NC(CC1=CNC2=CC=CC=C12)C(O)=O
CH$IUPAC: InChI=1S/C21H19N3O3/c25-20(10-14-12-23-18-8-4-2-6-16(14)18)24-19(21(26)27)9-13-11-22-17-7-3-1-5-15(13)17/h1-8,11-12,19,22-23H,9-10H2,(H,24,25)(H,26,27)
CH$LINK: INCHIKEY FOSPCYZZRVNHJS-UHFFFAOYSA-N
AC$INSTRUMENT: LC, Waters Acquity UPLC System; MS, Waters Xevo G2 Q-Tof
AC$INSTRUMENT_TYPE: LC-ESI-QTOF
AC$MASS_SPECTROMETRY: MS_TYPE MS2
AC$MASS_SPECTROMETRY: ION_MODE NEGATIVE
AC$MASS_SPECTROMETRY: COLLISION_ENERGY 6V
AC$MASS_SPECTROMETRY: DESOLVATION_GAS_FLOW 800/h
AC$MASS_SPECTROMETRY: DESOLVATION_TEMPERATURE 450 C
AC$MASS_SPECTROMETRY: IONIZATION ESI
AC$CHROMATOGRAPHY: CAPILLARY_VOLTAGE -2.75 kV
AC$CHROMATOGRAPHY: COLUMN_NAME Acquity bridged ethyl hybrid C18 (1.7 um, 2.1 mm * 100 mm, Waters)
AC$CHROMATOGRAPHY: COLUMN_TEMPERATURE 40 C
AC$CHROMATOGRAPHY: FLOW_GRADIENT A/B = (99.5%/0.5% at 0 min, 99.5%/0.5% at 0.1 min, 20%/80% at 10 min, 0.5%/99.5% at 10.1 min, 0.5%/99.5% at 12.0 min, 99.5%/0.5% at 12.1 min, 99.5%/0.5% at 15.0 min)
AC$CHROMATOGRAPHY: FLOW_RATE 0.3 ml/min at 0 min, 0.3 ml/min at 10 min, 0.4 ml/min at 10.1 min, 0.4 ml/min at 14.4 min, 0.3 ml/min at 14.5 min
AC$CHROMATOGRAPHY: RETENTION_TIME 6.190633
AC$CHROMATOGRAPHY: SOLVENT A water including 0.1% formic acid
AC$CHROMATOGRAPHY: SOLVENT B acetonitrile including 0.1% formic acid
MS$FOCUSED_ION: PRECURSOR_TYPE [M-H]-
MS$FOCUSED_ION: PRECURSOR_M/Z 360.13536504783
PK$SPLASH: splash10-0w29-0295000000-63de0bf80b38a68731be
PK$NUM_PEAK: 14
PK$PEAK: m/z int. rel.int.
  74.02361 22.0 22
  116.0488 93.0 93
  128.04816 28.0 28
  129.05559 6.0 6
  142.06407 76.0 76
  156.04271 24.0 24
  157.04655 11.0 11
  159.092 89.0 89
  186.06056 6.0 6
  203.08197 1000.0 999
  204.08487 93.0 93
  231.07555 25.0 25
  317.14362 6.0 6
  360.13394 692.0 691
//
