ACCESSION: MSBNK-RIKEN-PR300305
RECORD_TITLE: Tubotaiwine; LC-ESI-QTOF; MS2
DATE: 2019.03.28
AUTHORS: Tetsuya Mori, Center for Sustainable Resource Science, RIKEN
LICENSE: CC BY-NC-SA
PUBLICATION: Tsugawa H., Nakabayashi R., Mori T., Yamada Y., Takahashi M., Rai A., Sugiyama R., Yamamoto H., Nakaya T., Yamazaki M., Kooke R., Bac-Molenaar JA., Oztolan-Erol N., Keurentjes JJB., Arita M., Saito K. (2019) "A cheminformatics approach to characterize metabolomes in stable-isotope-labeled organisms" Nature Methods 16(4):295-298. [doi:10.1038/s41592-019-0358-2]
COMMENT: registered in RIKEN PlaSMA
CH$NAME: Tubotaiwine
CH$COMPOUND_CLASS: Strychnos alkaloids
CH$FORMULA: C20H24N2O2
CH$EXACT_MASS: 324.424
CH$SMILES: CCC1C2N3CCC22C(NC4=CC=CC=C24)=C(C1CC3)C(=O)OC
CH$IUPAC: InChI=1S/C20H24N2O2/c1-3-12-13-8-10-22-11-9-20(18(12)22)14-6-4-5-7-15(14)21-17(20)16(13)19(23)24-2/h4-7,12-13,18,21H,3,8-11H2,1-2H3
CH$LINK: INCHIKEY RLAKWLFUMAABBE-UHFFFAOYSA-N
AC$INSTRUMENT: LC, Waters Acquity UPLC System; MS, Waters Xevo G2 Q-Tof
AC$INSTRUMENT_TYPE: LC-ESI-QTOF
AC$MASS_SPECTROMETRY: MS_TYPE MS2
AC$MASS_SPECTROMETRY: ION_MODE POSITIVE
AC$MASS_SPECTROMETRY: COLLISION_ENERGY 6V
AC$MASS_SPECTROMETRY: DESOLVATION_GAS_FLOW 800/h
AC$MASS_SPECTROMETRY: DESOLVATION_TEMPERATURE 450 C
AC$MASS_SPECTROMETRY: IONIZATION ESI
AC$CHROMATOGRAPHY: CAPILLARY_VOLTAGE +3.00 kV
AC$CHROMATOGRAPHY: COLUMN_NAME Acquity bridged ethyl hybrid C18 (1.7 um, 2.1 mm * 100 mm, Waters)
AC$CHROMATOGRAPHY: COLUMN_TEMPERATURE 40 C
AC$CHROMATOGRAPHY: FLOW_GRADIENT A/B = (99.5%/0.5% at 0 min, 99.5%/0.5% at 0.1 min, 20%/80% at 10 min, 0.5%/99.5% at 10.1 min, 0.5%/99.5% at 12.0 min, 99.5%/0.5% at 12.1 min, 99.5%/0.5% at 15.0 min)
AC$CHROMATOGRAPHY: FLOW_RATE 0.3 ml/min at 0 min, 0.3 ml/min at 10 min, 0.4 ml/min at 10.1 min, 0.4 ml/min at 14.4 min, 0.3 ml/min at 14.5 min
AC$CHROMATOGRAPHY: RETENTION_TIME 4.920516
AC$CHROMATOGRAPHY: SOLVENT A water including 0.1% formic acid
AC$CHROMATOGRAPHY: SOLVENT B acetonitrile including 0.1% formic acid
MS$FOCUSED_ION: PRECURSOR_TYPE [M+H]+
MS$FOCUSED_ION: PRECURSOR_M/Z 325.1910545
PK$SPLASH: splash10-052f-0960000000-f9f13572a8595c385290
PK$NUM_PEAK: 295
PK$PEAK: m/z int. rel.int.
  58.069 14.0 14
  69.05889 8.0 8
  70.06824 11.0 11
  77.04603 8.0 8
  79.05499 19.0 19
  80.04712 10.0 10
  84.07973 24.0 24
  90.04642 16.0 16
  91.04967 8.0 8
  91.05672 54.0 54
  98.09659 12.0 12
  105.07425 12.0 12
  107.08956 11.0 11
  108.69852 6.0 6
  110.09279 7.0 7
  113.03522 15.0 15
  114.0472 15.0 15
  114.56457 11.0 11
  115.05509 16.0 16
  115.05878 7.0 7
  116.05257 21.0 21
  117.05454 10.0 10
  117.06356 14.0 14
  117.06931 11.0 11
  118.06787 8.0 8
  120.08037 8.0 8
  121.09132 13.0 13
  122.10146 13.0 13
  127.05268 23.0 23
  127.05987 18.0 18
  128.04939 9.0 9
  128.06506 23.0 23
  129.04411 8.0 8
  129.04994 8.0 8
  129.06927 25.0 25
  130.06024 21.0 21
  130.06714 80.0 80
  131.069 24.0 24
  132.03661 7.0 7
  132.07898 6.0 6
  136.35535 15.0 15
  139.05183 10.0 10
  139.71881 9.0 9
  140.05217 26.0 26
  141.071 34.0 34
  141.07643 13.0 13
  142.06085 33.0 33
  142.07216 7.0 7
  143.07211 26.0 26
  143.08018 34.0 34
  144.08327 39.0 39
  145.05104 11.0 11
  145.07008 9.0 9
  145.08296 7.0 7
  148.11165 21.0 21
  148.11584 9.0 9
  151.05331 17.0 17
  152.04845 20.0 20
  152.06042 15.0 15
  153.04454 13.0 13
  153.0672 50.0 50
  154.04843 18.0 18
  154.06096 59.0 59
  154.07088 42.0 42
  154.07646 15.0 15
  155.07111 58.0 58
  155.7242 6.0 6
  156.07207 15.0 15
  156.08217 54.0 54
  157.08585 6.0 6
  157.09856 18.0 18
  157.40115 6.0 6
  158.08588 25.0 25
  159.07176 9.0 9
  163.14687 8.0 8
  165.06718 62.0 62
  165.07379 28.0 28
  165.10985 8.0 8
  166.0511 6.0 6
  166.06538 57.0 57
  166.07671 8.0 8
  166.28188 8.0 8
  166.43832 6.0 6
  167.05719 46.0 46
  167.07297 596.0 595
  167.5524 10.0 10
  168.0526 9.0 9
  168.08072 452.0 452
  169.07413 27.0 27
  169.08276 67.0 67
  169.09377 8.0 8
  169.67192 7.0 7
  170.04877 18.0 18
  170.08641 15.0 15
  170.0983 7.0 7
  170.25261 7.0 7
  171.09532 14.0 14
  171.83299 6.0 6
  172.11502 10.0 10
  173.08707 13.0 13
  173.16544 11.0 11
  176.11317 10.0 10
  177.06708 16.0 16
  178.05278 7.0 7
  178.06525 25.0 25
  178.07483 10.0 10
  179.0647 35.0 35
  179.07527 80.0 80
  179.10017 8.0 8
  180.02115 12.0 12
  180.02902 9.0 9
  180.04652 12.0 12
  180.06367 70.0 70
  180.07246 225.0 225
  180.082 467.0 467
  180.68369 12.0 12
  180.86388 11.0 11
  181.07245 54.0 54
  181.0885 537.0 536
  181.30038 7.0 7
  181.98024 6.0 6
  182.04388 7.0 7
  182.05826 19.0 19
  182.06882 13.0 13
  182.09404 253.0 253
  183.08638 21.0 21
  183.09473 63.0 63
  184.07584 12.0 12
  184.10605 21.0 21
  185.11574 12.0 12
  188.3958 6.0 6
  191.05759 8.0 8
  191.07428 61.0 61
  191.65158 11.0 11
  191.95105 6.0 6
  192.0562 22.0 22
  192.08252 309.0 309
  192.29016 9.0 9
  192.36252 6.0 6
  193.05428 39.0 39
  193.08734 844.0 843
  194.04651 7.0 7
  194.05846 6.0 6
  194.06923 14.0 14
  194.09628 1000.0 999
  195.03078 6.0 6
  195.07957 16.0 16
  195.0899 114.0 114
  195.10316 207.0 207
  195.25545 7.0 7
  196.08452 47.0 47
  196.10107 63.0 63
  196.12334 7.0 7
  196.35634 6.0 6
  197.0701 20.0 20
  197.0797 6.0 6
  197.11073 15.0 15
  197.29707 6.0 6
  197.7879 13.0 13
  198.6424 11.0 11
  199.36423 7.0 7
  203.06796 9.0 9
  203.08606 7.0 7
  204.05881 9.0 9
  204.07376 44.0 44
  204.08287 96.0 96
  205.08678 111.0 111
  206.05865 12.0 12
  206.09357 577.0 576
  207.01773 12.0 12
  207.06514 14.0 14
  207.0798 77.0 77
  207.08989 231.0 231
  207.09874 661.0 660
  207.11772 44.0 44
  207.17049 6.0 6
  208.03964 7.0 7
  208.07669 66.0 66
  208.10358 467.0 467
  208.11746 121.0 121
  208.15567 8.0 8
  208.18524 6.0 6
  208.49495 7.0 7
  209.04657 7.0 7
  209.08221 18.0 18
  209.10556 122.0 122
  209.12367 54.0 54
  209.23737 6.0 6
  210.10284 33.0 33
  210.12511 78.0 78
  211.08859 6.0 6
  211.11238 11.0 11
  211.12407 6.0 6
  212.49408 6.0 6
  215.07028 9.0 9
  217.0887 75.0 75
  218.0452 7.0 7
  218.08458 40.0 40
  218.09828 110.0 110
  218.24158 6.0 6
  219.08569 29.0 29
  219.10234 42.0 42
  220.07266 43.0 43
  220.09082 18.0 18
  220.10257 47.0 47
  220.11574 172.0 172
  220.15038 8.0 8
  221.06943 60.0 60
  221.08823 33.0 33
  221.09862 56.0 56
  221.11111 181.0 181
  221.12436 47.0 47
  221.14575 17.0 17
  221.39958 7.0 7
  221.84059 7.0 7
  222.09135 175.0 175
  222.09866 67.0 67
  222.12321 113.0 113
  222.13535 63.0 63
  223.09262 90.0 90
  223.11575 12.0 12
  223.12724 19.0 19
  223.13623 17.0 17
  223.2854 7.0 7
  223.31985 17.0 17
  224.05983 16.0 16
  224.09105 13.0 13
  224.13266 28.0 28
  224.22797 7.0 7
  224.76453 6.0 6
  225.08775 6.0 6
  230.08067 6.0 6
  230.08789 7.0 7
  231.02293 8.0 8
  231.04506 9.0 9
  231.07504 12.0 12
  231.08374 8.0 8
  231.09462 7.0 7
  231.48572 6.0 6
  232.09981 19.0 19
  232.11154 33.0 33
  232.12518 9.0 9
  233.04871 8.0 8
  233.07965 31.0 31
  233.09398 10.0 10
  233.11374 24.0 24
  234.04898 8.0 8
  234.08769 26.0 26
  234.1423 13.0 13
  235.06488 18.0 18
  235.08902 37.0 37
  235.10229 14.0 14
  235.12456 149.0 149
  235.13809 29.0 29
  236.0939 16.0 16
  236.11028 17.0 17
  236.13824 23.0 23
  236.15599 56.0 56
  237.10255 17.0 17
  237.13997 62.0 62
  237.23334 9.0 9
  238.08006 6.0 6
  238.1132 8.0 8
  238.12875 17.0 17
  241.35205 12.0 12
  244.11548 8.0 8
  245.10184 8.0 8
  245.11136 7.0 7
  246.11656 8.0 8
  247.091 12.0 12
  247.09764 7.0 7
  247.11879 8.0 8
  248.10794 24.0 24
  249.09123 13.0 13
  249.12038 14.0 14
  249.13953 7.0 7
  250.12088 7.0 7
  257.10242 6.0 6
  258.10385 11.0 11
  259.11441 6.0 6
  259.12766 7.0 7
  261.1106 11.0 11
  263.11813 31.0 31
  263.13486 12.0 12
  263.75107 8.0 8
  265.1716 11.0 11
  277.11432 12.0 12
  279.13687 9.0 9
  290.48834 6.0 6
  293.12482 11.0 11
  293.16333 123.0 123
  293.52875 7.0 7
  294.17184 13.0 13
  303.05099 6.0 6
  305.56039 9.0 9
//
