ACCESSION: MSBNK-RIKEN-PR300598
RECORD_TITLE: Nantenine; LC-ESI-QTOF; MS2
DATE: 2019.03.28
AUTHORS: Tetsuya Mori, Center for Sustainable Resource Science, RIKEN
LICENSE: CC BY-NC-SA
PUBLICATION: Tsugawa H., Nakabayashi R., Mori T., Yamada Y., Takahashi M., Rai A., Sugiyama R., Yamamoto H., Nakaya T., Yamazaki M., Kooke R., Bac-Molenaar JA., Oztolan-Erol N., Keurentjes JJB., Arita M., Saito K. (2019) "A cheminformatics approach to characterize metabolomes in stable-isotope-labeled organisms" Nature Methods 16(4):295-298. [doi:10.1038/s41592-019-0358-2]
COMMENT: registered in RIKEN PlaSMA
CH$NAME: Nantenine
CH$COMPOUND_CLASS: Aporphines
CH$FORMULA: C20H21NO4
CH$EXACT_MASS: 339.391
CH$SMILES: COC1=C(OC)C2=C3[C@H](CC4=CC5=C(OCO5)C=C24)N(C)CCC3=C1
CH$IUPAC: InChI=1S/C20H21NO4/c1-21-5-4-11-7-17(22-2)20(23-3)19-13-9-16-15(24-10-25-16)8-12(13)6-14(21)18(11)19/h7-9,14H,4-6,10H2,1-3H3/t14-/m0/s1
CH$LINK: INCHIKEY WSVWKHTVFGTTKJ-AWEZNQCLSA-N
AC$INSTRUMENT: LC, Waters Acquity UPLC System; MS, Waters Xevo G2 Q-Tof
AC$INSTRUMENT_TYPE: LC-ESI-QTOF
AC$MASS_SPECTROMETRY: MS_TYPE MS2
AC$MASS_SPECTROMETRY: ION_MODE POSITIVE
AC$MASS_SPECTROMETRY: COLLISION_ENERGY 6V
AC$MASS_SPECTROMETRY: DESOLVATION_GAS_FLOW 800/h
AC$MASS_SPECTROMETRY: DESOLVATION_TEMPERATURE 450 C
AC$MASS_SPECTROMETRY: IONIZATION ESI
AC$CHROMATOGRAPHY: CAPILLARY_VOLTAGE +3.00 kV
AC$CHROMATOGRAPHY: COLUMN_NAME Acquity bridged ethyl hybrid C18 (1.7 um, 2.1 mm * 100 mm, Waters)
AC$CHROMATOGRAPHY: COLUMN_TEMPERATURE 40 C
AC$CHROMATOGRAPHY: FLOW_GRADIENT A/B = (99.5%/0.5% at 0 min, 99.5%/0.5% at 0.1 min, 20%/80% at 10 min, 0.5%/99.5% at 10.1 min, 0.5%/99.5% at 12.0 min, 99.5%/0.5% at 12.1 min, 99.5%/0.5% at 15.0 min)
AC$CHROMATOGRAPHY: FLOW_RATE 0.3 ml/min at 0 min, 0.3 ml/min at 10 min, 0.4 ml/min at 10.1 min, 0.4 ml/min at 14.4 min, 0.3 ml/min at 14.5 min
AC$CHROMATOGRAPHY: RETENTION_TIME 4.886017
AC$CHROMATOGRAPHY: SOLVENT A water including 0.1% formic acid
AC$CHROMATOGRAPHY: SOLVENT B acetonitrile including 0.1% formic acid
MS$FOCUSED_ION: PRECURSOR_TYPE [M+H]+
MS$FOCUSED_ION: PRECURSOR_M/Z 340.1543346
PK$SPLASH: splash10-05r9-0790000000-b9b2ce4a2e9e59c05969
PK$NUM_PEAK: 156
PK$PEAK: m/z int. rel.int.
  151.04515 14.0 14
  151.05232 13.0 13
  151.0594 19.0 19
  152.06163 47.0 47
  152.06895 24.0 24
  153.06926 113.0 113
  153.6098 5.0 5
  154.07277 9.0 9
  163.045 9.0 9
  163.1978 5.0 5
  164.05904 21.0 21
  164.06683 17.0 17
  165.07013 1000.0 999
  166.07341 182.0 182
  167.00232 6.0 6
  167.04309 7.0 7
  167.06972 15.0 15
  167.08394 57.0 57
  167.09286 23.0 23
  168.08765 6.0 6
  172.05652 7.0 7
  175.05116 15.0 15
  175.06026 13.0 13
  176.04541 10.0 10
  176.06203 276.0 276
  176.92751 6.0 6
  177.02054 7.0 7
  177.04974 25.0 25
  177.07056 879.0 878
  178.0777 377.0 377
  179.05222 7.0 7
  179.08408 156.0 156
  179.09172 111.0 111
  180.06027 9.0 9
  180.0899 49.0 49
  181.05788 14.0 14
  181.06781 26.0 26
  181.90965 5.0 5
  182.05928 7.0 7
  188.05653 6.0 6
  189.03145 5.0 5
  189.07207 322.0 322
  190.06218 21.0 21
  190.07462 121.0 121
  190.08423 64.0 64
  191.04608 5.0 5
  191.0584 10.0 10
  191.08649 124.0 124
  192.05542 12.0 12
  192.06404 8.0 8
  192.09116 25.0 25
  193.01007 9.0 9
  193.04721 16.0 16
  193.0667 211.0 211
  193.86836 9.0 9
  194.05118 7.0 7
  194.06474 38.0 38
  194.07463 13.0 13
  194.08701 7.0 7
  195.04294 15.0 15
  195.05559 6.0 6
  195.07947 34.0 34
  195.11194 6.0 6
  197.06325 7.0 7
  201.06329 14.0 14
  201.07378 19.0 19
  202.07578 31.0 31
  203.05493 25.0 25
  203.08057 8.0 8
  204.06046 52.0 52
  205.01945 11.0 11
  205.03479 17.0 17
  205.06583 910.0 909
  206.04669 7.0 7
  206.06953 224.0 224
  207.03909 6.0 6
  207.05447 10.0 10
  207.08078 180.0 180
  208.05 12.0 12
  208.08083 20.0 20
  208.08902 44.0 44
  209.06262 97.0 97
  209.09775 11.0 11
  210.06723 19.0 19
  211.05899 7.0 7
  217.06265 46.0 46
  217.07643 10.0 10
  218.07373 37.0 37
  219.08047 87.0 87
  220.08557 73.0 73
  220.0956 13.0 13
  221.05859 204.0 204
  221.07375 23.0 23
  221.08714 8.0 8
  221.09662 13.0 13
  222.06004 61.0 61
  222.07195 59.0 59
  222.09087 13.0 13
  223.07639 293.0 293
  224.05257 6.0 6
  224.07523 42.0 42
  224.08453 34.0 34
  225.06859 5.0 5
  231.0345 12.0 12
  231.04764 40.0 40
  232.04771 7.0 7
  233.02391 10.0 10
  233.06219 387.0 387
  234.05498 35.0 35
  234.06645 106.0 106
  235.03439 5.0 5
  235.05385 24.0 24
  235.07648 754.0 753
  236.0327 6.0 6
  236.05544 15.0 15
  236.08131 230.0 230
  237.05249 38.0 38
  237.07474 15.0 15
  237.08815 58.0 58
  238.06198 10.0 10
  238.09151 17.0 17
  239.0779 11.0 11
  245.0647 10.0 10
  247.07727 72.0 72
  248.07861 35.0 35
  249.05846 114.0 114
  250.06416 12.0 12
  251.05135 10.0 10
  251.06505 58.0 58
  251.07581 102.0 102
  252.07127 33.0 33
  252.08533 8.0 8
  253.07942 13.0 13
  261.05063 74.0 74
  261.06152 49.0 49
  262.06396 43.0 43
  263.06808 190.0 190
  264.07019 39.0 39
  264.08536 18.0 18
  265.03452 6.0 6
  265.05371 17.0 17
  265.07553 12.0 12
  265.08328 20.0 20
  266.05774 8.0 8
  277.04385 7.0 7
  277.06235 7.0 7
  277.07721 8.0 8
  277.08826 13.0 13
  278.05927 7.0 7
  278.08765 19.0 19
  278.10358 15.0 15
  279.06775 142.0 142
  280.06662 56.0 56
  280.0849 18.0 18
  293.08649 6.0 6
  294.09283 6.0 6
//
