ACCESSION: MSBNK-RIKEN-PR307432
RECORD_TITLE: Isofraxidin; LC-ESI-QTOF; MS2
DATE: 2019.03.28
AUTHORS: Tetsuya Mori, Center for Sustainable Resource Science, RIKEN
LICENSE: CC BY-NC-SA
PUBLICATION: Tsugawa H., Nakabayashi R., Mori T., Yamada Y., Takahashi M., Rai A., Sugiyama R., Yamamoto H., Nakaya T., Yamazaki M., Kooke R., Bac-Molenaar JA., Oztolan-Erol N., Keurentjes JJB., Arita M., Saito K. (2019) "A cheminformatics approach to characterize metabolomes in stable-isotope-labeled organisms" Nature Methods 16(4):295-298. [doi:10.1038/s41592-019-0358-2]
COMMENT: registered in RIKEN PlaSMA
CH$NAME: Isofraxidin
CH$COMPOUND_CLASS: 7-hydroxycoumarins
CH$FORMULA: C11H10O5
CH$EXACT_MASS: 222.196
CH$SMILES: COC1=C(O)C(OC)=C2OC(=O)C=CC2=C1
CH$IUPAC: InChI=1S/C11H10O5/c1-14-7-5-6-3-4-8(12)16-10(6)11(15-2)9(7)13/h3-5,13H,1-2H3
CH$LINK: INCHIKEY HOEVRHHMDJKUMZ-UHFFFAOYSA-N
AC$INSTRUMENT: LC, Waters Acquity UPLC System; MS, Waters Xevo G2 Q-Tof
AC$INSTRUMENT_TYPE: LC-ESI-QTOF
AC$MASS_SPECTROMETRY: MS_TYPE MS2
AC$MASS_SPECTROMETRY: ION_MODE NEGATIVE
AC$MASS_SPECTROMETRY: COLLISION_ENERGY 6V
AC$MASS_SPECTROMETRY: DESOLVATION_GAS_FLOW 800/h
AC$MASS_SPECTROMETRY: DESOLVATION_TEMPERATURE 450 C
AC$MASS_SPECTROMETRY: IONIZATION ESI
AC$CHROMATOGRAPHY: CAPILLARY_VOLTAGE -2.75 kV
AC$CHROMATOGRAPHY: COLUMN_NAME Acquity bridged ethyl hybrid C18 (1.7 um, 2.1 mm * 100 mm, Waters)
AC$CHROMATOGRAPHY: COLUMN_TEMPERATURE 40 C
AC$CHROMATOGRAPHY: FLOW_GRADIENT A/B = (99.5%/0.5% at 0 min, 99.5%/0.5% at 0.1 min, 20%/80% at 10 min, 0.5%/99.5% at 10.1 min, 0.5%/99.5% at 12.0 min, 99.5%/0.5% at 12.1 min, 99.5%/0.5% at 15.0 min)
AC$CHROMATOGRAPHY: FLOW_RATE 0.3 ml/min at 0 min, 0.3 ml/min at 10 min, 0.4 ml/min at 10.1 min, 0.4 ml/min at 14.4 min, 0.3 ml/min at 14.5 min
AC$CHROMATOGRAPHY: RETENTION_TIME 4.277633
AC$CHROMATOGRAPHY: SOLVENT A water including 0.1% formic acid
AC$CHROMATOGRAPHY: SOLVENT B acetonitrile including 0.1% formic acid
MS$FOCUSED_ION: PRECURSOR_TYPE [M-H]-
MS$FOCUSED_ION: PRECURSOR_M/Z 221.04554694783
PK$SPLASH: splash10-0a4l-0790000000-adee92ef747f4a3be560
PK$NUM_PEAK: 24
PK$PEAK: m/z int. rel.int.
  51.01942 8.0 8
  65.03594 7.0 7
  79.02076 36.0 36
  86.34081 6.0 6
  107.01355 40.0 40
  107.02122 5.0 5
  119.01339 34.0 34
  135.00789 107.0 107
  147.01164 17.0 17
  150.03197 13.0 13
  162.02777 13.0 13
  162.03825 6.0 6
  163.00316 227.0 227
  164.00574 20.0 20
  165.98975 5.0 5
  178.02875 12.0 12
  190.99776 732.0 731
  191.99902 19.0 19
  192.99939 8.0 8
  206.02147 1000.0 999
  207.00922 6.0 6
  207.02423 65.0 65
  208.03195 13.0 13
  221.04491 393.0 393
//
