ACCESSION: MSBNK-RIKEN-PR310880
RECORD_TITLE: Isoflavone base + 2O + 1MeO, O-MalonylHex; LC-ESI-QTOF; MS2
DATE: 2019.03.28
AUTHORS: Tetsuya Mori, Center for Sustainable Resource Science, RIKEN
LICENSE: CC BY-NC-SA
PUBLICATION: Tsugawa H., Nakabayashi R., Mori T., Yamada Y., Takahashi M., Rai A., Sugiyama R., Yamamoto H., Nakaya T., Yamazaki M., Kooke R., Bac-Molenaar JA., Oztolan-Erol N., Keurentjes JJB., Arita M., Saito K. (2019) "A cheminformatics approach to characterize metabolomes in stable-isotope-labeled organisms" Nature Methods 16(4):295-298. [doi:10.1038/s41592-019-0358-2]
COMMENT: Annotation level-3
CH$NAME: Isoflavone base + 2O + 1MeO, O-MalonylHex
CH$COMPOUND_CLASS: Isoflavone O-glycosides
CH$FORMULA: C25H24O13
CH$EXACT_MASS: 532.454
CH$SMILES: O=C(O)CC(=O)OCC4OC(OC1=CC(O)=C2C(=O)C(=COC2(=C1))C3=CC=C(OC)C=C3)C(O)C(O)C4(O)
CH$IUPAC: InChI=1S/C25H24O13/c1-34-12-4-2-11(3-5-12)14-9-35-16-7-13(6-15(26)20(16)21(14)30)37-25-24(33)23(32)22(31)17(38-25)10-36-19(29)8-18(27)28/h2-7,9,17,22-26,31-33H,8,10H2,1H3,(H,27,28)
CH$LINK: INCHIKEY VRCBYTZZZFFKEN-UHFFFAOYSA-N
AC$INSTRUMENT: LC, Waters Acquity UPLC System; MS, Waters Xevo G2 Q-Tof
AC$INSTRUMENT_TYPE: LC-ESI-QTOF
AC$MASS_SPECTROMETRY: MS_TYPE MS2
AC$MASS_SPECTROMETRY: ION_MODE POSITIVE
AC$MASS_SPECTROMETRY: COLLISION_ENERGY 6V
AC$MASS_SPECTROMETRY: DESOLVATION_GAS_FLOW 800/h
AC$MASS_SPECTROMETRY: DESOLVATION_TEMPERATURE 450 C
AC$MASS_SPECTROMETRY: IONIZATION ESI
AC$CHROMATOGRAPHY: CAPILLARY_VOLTAGE +3.00 kV
AC$CHROMATOGRAPHY: COLUMN_NAME Acquity bridged ethyl hybrid C18 (1.7 um, 2.1 mm * 100 mm, Waters)
AC$CHROMATOGRAPHY: COLUMN_TEMPERATURE 40 C
AC$CHROMATOGRAPHY: FLOW_GRADIENT A/B = (99.5%/0.5% at 0 min, 99.5%/0.5% at 0.1 min, 20%/80% at 10 min, 0.5%/99.5% at 10.1 min, 0.5%/99.5% at 12.0 min, 99.5%/0.5% at 12.1 min, 99.5%/0.5% at 15.0 min)
AC$CHROMATOGRAPHY: FLOW_RATE 0.3 ml/min at 0 min, 0.3 ml/min at 10 min, 0.4 ml/min at 10.1 min, 0.4 ml/min at 14.4 min, 0.3 ml/min at 14.5 min
AC$CHROMATOGRAPHY: RETENTION_TIME 6.06
AC$CHROMATOGRAPHY: SOLVENT A water including 0.1% formic acid
AC$CHROMATOGRAPHY: SOLVENT B acetonitrile including 0.1% formic acid
MS$FOCUSED_ION: PRECURSOR_TYPE [M+H]+
MS$FOCUSED_ION: PRECURSOR_M/Z 533.1285
PK$SPLASH: splash10-000i-0090020000-a3a4e020369e0d52b3d9
PK$NUM_PEAK: 11
PK$PEAK: m/z int. rel.int.
  152.01219 17.0 33
  270.04926 17.0 33
  271.0253 17.0 33
  285.07397 507.0 999
  286.07382 37.0 73
  286.08752 61.0 120
  287.62289 18.0 35
  338.15036 29.0 57
  448.12619 21.0 41
  495.86685 21.0 41
  533.1225 159.0 313
//
