ACCESSION: MSBNK-RIKEN-PR040164
RECORD_TITLE: Puerarin; LC-ESI-QTOF; MS2; CE:30 V; [M-H]-
DATE: 2016.01.19 (Created 2008.02.14, modified 2011.05.06)
AUTHORS: Matsuda F, Plant Science Center, RIKEN.
LICENSE: CC BY-SA
CH$NAME: daidzein-8-C-glucoside
CH$NAME: Puerarin
CH$NAME: Ddze_8_C_Glc
CH$NAME: 7-hydroxy-3-(4-hydroxyphenyl)-8-[(2S,3S,4R,5R,6R)-3,4,5-trihydroxy-6-(hydroxymethyl)oxan-2-yl]chromen-4-one
CH$COMPOUND_CLASS: Natural Product
CH$FORMULA: C21H20O9
CH$EXACT_MASS: 416.11073
CH$SMILES: OC[C@H]([C@@H](O)4)O[C@H]([C@H](O)[C@@H](O)4)c(c(O)3)c(O2)c(cc3)C(=O)C(=C2)c(c1)ccc(O)c1
CH$IUPAC: InChI=1S/C21H20O9/c22-7-14-17(26)18(27)19(28)21(30-14)15-13(24)6-5-11-16(25)12(8-29-20(11)15)9-1-3-10(23)4-2-9/h1-6,8,14,17-19,21-24,26-28H,7H2/t14-,17-,18+,19-,21+/m1/s1
CH$LINK: CAS 3681-99-0
CH$LINK: KEGG C10524
CH$LINK: KNAPSACK C00002567
CH$LINK: PUBCHEM CID:5281807
CH$LINK: INCHIKEY HKEAFJYKMMKDOR-VPRICQMDSA-N
CH$LINK: COMPTOX DTXSID30958020
AC$INSTRUMENT: UPLC Q-Tof Premier, Waters
AC$INSTRUMENT_TYPE: LC-ESI-QTOF
AC$MASS_SPECTROMETRY: MS_TYPE MS2
AC$MASS_SPECTROMETRY: ION_MODE NEGATIVE
AC$MASS_SPECTROMETRY: COLLISION_ENERGY 30 V
AC$MASS_SPECTROMETRY: DATAFORMAT Continuum
AC$MASS_SPECTROMETRY: DESOLVATION_GAS_FLOW 600.0 L/Hr
AC$MASS_SPECTROMETRY: DESOLVATION_TEMPERATURE 400 C
AC$MASS_SPECTROMETRY: FRAGMENTATION_METHOD LOW-ENERGY CID
AC$MASS_SPECTROMETRY: IONIZATION ESI
AC$MASS_SPECTROMETRY: SCANNING 1.0 sec/scan (m/z = 50-1000)
AC$MASS_SPECTROMETRY: SOURCE_TEMPERATURE 120 C
AC$CHROMATOGRAPHY: CAPILLARY_VOLTAGE 3.0 kV
AC$CHROMATOGRAPHY: SAMPLING_CONE 23.0 V
AC$CHROMATOGRAPHY: SOLVENT A CH3CN(0.1%HCOOH)
AC$CHROMATOGRAPHY: SOLVENT B H2O(0.1%HCOOH)
MS$FOCUSED_ION: FULL_SCAN_FRAGMENT_ION_PEAK 415.1
MS$FOCUSED_ION: ION_TYPE [M-H]-
MS$DATA_PROCESSING: WHOLE MassLynx 4.1
PK$SPLASH: splash10-014i-0090000000-ac8678cf06d1e6bce654
PK$NUM_PEAK: 13
PK$PEAK: m/z int. rel.int.
  223.0858 344 25
  224.0795 277.3 20
  253.0676 456.5 34
  264.9984 525.3 39
  266.0473 483.6 36
  267.0817 13350 999
  267.9887 2107 157
  268.8756 639.9 47
  269.7618 292.7 21
  277.0682 1518 113
  295.0747 2572 192
  296.0299 460.6 34
  307.0728 374.5 28
//
