ACCESSION: MSBNK-RIKEN-PR311022
RECORD_TITLE: Feruloyl O-methyldehydrodopamine; LC-ESI-QTOF; MS2
DATE: 2019.03.28
AUTHORS: Tetsuya Mori, Center for Sustainable Resource Science, RIKEN
LICENSE: CC BY-NC-SA
PUBLICATION: Tsugawa H., Nakabayashi R., Mori T., Yamada Y., Takahashi M., Rai A., Sugiyama R., Yamamoto H., Nakaya T., Yamazaki M., Kooke R., Bac-Molenaar JA., Oztolan-Erol N., Keurentjes JJB., Arita M., Saito K. (2019) "A cheminformatics approach to characterize metabolomes in stable-isotope-labeled organisms" Nature Methods 16(4):295-298. [doi:10.1038/s41592-019-0358-2]
COMMENT: Annotation level-3
CH$NAME: Feruloyl O-methyldehydrodopamine
CH$COMPOUND_CLASS: Ferulic acid and derivatives
CH$FORMULA: C19H19NO5
CH$EXACT_MASS: 341.363
CH$SMILES: COC1=CC(\C=C\NC(=O)\C=C\C2=CC=C(O)C(OC)=C2)=CC=C1O
CH$IUPAC: InChI=1S/C19H19NO5/c1-24-17-11-13(3-6-15(17)21)5-8-19(23)20-10-9-14-4-7-16(22)18(12-14)25-2/h3-12,21-22H,1-2H3,(H,20,23)/b8-5+,10-9+
CH$LINK: INCHIKEY IQGMDSXKRPLDBE-CPSCNVPRSA-N
AC$INSTRUMENT: LC, Waters Acquity UPLC System; MS, Waters Xevo G2 Q-Tof
AC$INSTRUMENT_TYPE: LC-ESI-QTOF
AC$MASS_SPECTROMETRY: MS_TYPE MS2
AC$MASS_SPECTROMETRY: ION_MODE POSITIVE
AC$MASS_SPECTROMETRY: COLLISION_ENERGY 6V
AC$MASS_SPECTROMETRY: DESOLVATION_GAS_FLOW 800/h
AC$MASS_SPECTROMETRY: DESOLVATION_TEMPERATURE 450 C
AC$MASS_SPECTROMETRY: IONIZATION ESI
AC$CHROMATOGRAPHY: CAPILLARY_VOLTAGE +3.00 kV
AC$CHROMATOGRAPHY: COLUMN_NAME Acquity bridged ethyl hybrid C18 (1.7 um, 2.1 mm * 100 mm, Waters)
AC$CHROMATOGRAPHY: COLUMN_TEMPERATURE 40 C
AC$CHROMATOGRAPHY: FLOW_GRADIENT A/B = (99.5%/0.5% at 0 min, 99.5%/0.5% at 0.1 min, 20%/80% at 10 min, 0.5%/99.5% at 10.1 min, 0.5%/99.5% at 12.0 min, 99.5%/0.5% at 12.1 min, 99.5%/0.5% at 15.0 min)
AC$CHROMATOGRAPHY: FLOW_RATE 0.3 ml/min at 0 min, 0.3 ml/min at 10 min, 0.4 ml/min at 10.1 min, 0.4 ml/min at 14.4 min, 0.3 ml/min at 14.5 min
AC$CHROMATOGRAPHY: RETENTION_TIME 4.38
AC$CHROMATOGRAPHY: SOLVENT A water including 0.1% formic acid
AC$CHROMATOGRAPHY: SOLVENT B acetonitrile including 0.1% formic acid
MS$FOCUSED_ION: PRECURSOR_TYPE [M+H]+
MS$FOCUSED_ION: PRECURSOR_M/Z 342.1349
PK$SPLASH: splash10-004j-1911000000-3ebe87edc500623ffd7a
PK$NUM_PEAK: 11
PK$PEAK: m/z int. rel.int.
  87.88318 21.0 175
  89.0382 25.0 208
  144.09486 22.0 183
  145.03262 60.0 500
  147.07475 25.0 208
  149.05574 20.0 166
  177.03365 25.0 208
  177.05531 120.0 999
  216.98495 18.0 150
  218.08351 18.0 150
  342.1355 35.0 291
//
