ACCESSION: MSBNK-RIKEN-PR304274
RECORD_TITLE: epsilon-Viniferin; LC-ESI-QTOF; MS2
DATE: 2019.03.28
AUTHORS: Tetsuya Mori, Center for Sustainable Resource Science, RIKEN
LICENSE: CC BY-NC-SA
PUBLICATION: Tsugawa H., Nakabayashi R., Mori T., Yamada Y., Takahashi M., Rai A., Sugiyama R., Yamamoto H., Nakaya T., Yamazaki M., Kooke R., Bac-Molenaar JA., Oztolan-Erol N., Keurentjes JJB., Arita M., Saito K. (2019) "A cheminformatics approach to characterize metabolomes in stable-isotope-labeled organisms" Nature Methods 16(4):295-298. [doi:10.1038/s41592-019-0358-2]
COMMENT: registered in RIKEN PlaSMA
CH$NAME: epsilon-Viniferin
CH$COMPOUND_CLASS: 2-arylbenzofuran flavonoids
CH$FORMULA: C28H22O6
CH$EXACT_MASS: 454.478
CH$SMILES: OC1=CC=C(\C=C\C2=CC(O)=CC3=C2[C@H]([C@@H](O3)C2=CC=C(O)C=C2)C2=CC(O)=CC(O)=C2)C=C1
CH$IUPAC: InChI=1S/C28H22O6/c29-20-7-2-16(3-8-20)1-4-18-11-24(33)15-25-26(18)27(19-12-22(31)14-23(32)13-19)28(34-25)17-5-9-21(30)10-6-17/h1-15,27-33H/b4-1+/t27-,28+/m1/s1
CH$LINK: INCHIKEY FQWLMRXWKZGLFI-YVYUXZJTSA-N
AC$INSTRUMENT: LC, Waters Acquity UPLC System; MS, Waters Xevo G2 Q-Tof
AC$INSTRUMENT_TYPE: LC-ESI-QTOF
AC$MASS_SPECTROMETRY: MS_TYPE MS2
AC$MASS_SPECTROMETRY: ION_MODE POSITIVE
AC$MASS_SPECTROMETRY: COLLISION_ENERGY 6V
AC$MASS_SPECTROMETRY: DESOLVATION_GAS_FLOW 800/h
AC$MASS_SPECTROMETRY: DESOLVATION_TEMPERATURE 450 C
AC$MASS_SPECTROMETRY: IONIZATION ESI
AC$CHROMATOGRAPHY: CAPILLARY_VOLTAGE +3.00 kV
AC$CHROMATOGRAPHY: COLUMN_NAME Acquity bridged ethyl hybrid C18 (1.7 um, 2.1 mm * 100 mm, Waters)
AC$CHROMATOGRAPHY: COLUMN_TEMPERATURE 40 C
AC$CHROMATOGRAPHY: FLOW_GRADIENT A/B = (99.5%/0.5% at 0 min, 99.5%/0.5% at 0.1 min, 20%/80% at 10 min, 0.5%/99.5% at 10.1 min, 0.5%/99.5% at 12.0 min, 99.5%/0.5% at 12.1 min, 99.5%/0.5% at 15.0 min)
AC$CHROMATOGRAPHY: FLOW_RATE 0.3 ml/min at 0 min, 0.3 ml/min at 10 min, 0.4 ml/min at 10.1 min, 0.4 ml/min at 14.4 min, 0.3 ml/min at 14.5 min
AC$CHROMATOGRAPHY: RETENTION_TIME 5.807217
AC$CHROMATOGRAPHY: SOLVENT A water including 0.1% formic acid
AC$CHROMATOGRAPHY: SOLVENT B acetonitrile including 0.1% formic acid
MS$FOCUSED_ION: PRECURSOR_TYPE [M+H]+
MS$FOCUSED_ION: PRECURSOR_M/Z 455.1489149
PK$SPLASH: splash10-0a4i-0950000000-a368c91c2d93990d4d53
PK$NUM_PEAK: 308
PK$PEAK: m/z int. rel.int.
  56.54186 11.0 11
  56.60522 8.0 8
  65.03291 9.0 9
  68.96047 9.0 9
  68.99577 8.0 8
  69.00077 9.0 9
  73.40497 8.0 8
  77.03453 23.0 23
  77.04052 14.0 14
  79.05281 21.0 21
  81.01971 12.0 12
  91.05029 15.0 15
  91.28237 8.0 8
  93.03854 8.0 8
  93.07275 9.0 9
  94.044 11.0 11
  105.02726 19.0 19
  107.02261 8.0 8
  107.0333 23.0 23
  107.04861 1000.0 999
  107.2195 8.0 8
  107.98363 8.0 8
  108.04948 27.0 27
  108.05672 47.0 47
  108.90864 8.0 8
  109.05059 17.0 17
  115.05222 15.0 15
  117.06881 8.0 8
  119.04674 16.0 16
  119.05244 30.0 30
  120.04929 9.0 9
  120.07866 8.0 8
  121.02708 74.0 74
  123.00441 8.0 8
  123.04158 29.0 29
  123.04993 9.0 9
  126.0393 8.0 8
  127.05334 30.0 30
  128.05441 38.0 38
  128.06441 8.0 8
  129.06902 8.0 8
  131.04634 15.0 15
  131.0578 9.0 9
  132.09442 10.0 10
  133.02402 22.0 22
  133.03029 25.0 25
  133.052 8.0 8
  133.12465 11.0 11
  134.02913 12.0 12
  137.02258 28.0 28
  137.0314 7.0 7
  139.48672 8.0 8
  140.05228 8.0 8
  141.06123 23.0 23
  141.07196 137.0 137
  142.067 22.0 22
  142.07664 13.0 13
  143.09059 9.0 9
  144.05573 11.0 11
  144.06175 8.0 8
  145.06139 21.0 21
  147.04059 19.0 19
  147.07988 23.0 23
  148.04817 10.0 10
  151.04269 11.0 11
  151.05865 33.0 33
  152.03101 12.0 12
  152.05867 65.0 65
  152.0665 61.0 61
  153.06863 201.0 201
  154.06752 13.0 13
  154.07713 15.0 15
  155.04129 9.0 9
  155.05334 19.0 19
  155.08159 16.0 16
  157.04332 11.0 11
  157.06345 107.0 107
  158.06767 20.0 20
  159.04024 8.0 8
  159.08237 8.0 8
  160.05391 9.0 9
  165.05269 10.0 10
  165.06822 69.0 69
  166.06371 9.0 9
  166.07167 17.0 17
  167.08055 9.0 9
  168.05728 48.0 48
  169.0118 9.0 9
  169.04651 15.0 15
  169.06505 187.0 187
  170.06157 12.0 12
  171.04549 52.0 52
  171.08203 24.0 24
  172.05612 8.0 8
  175.06926 9.0 9
  176.06447 31.0 31
  177.06436 32.0 32
  177.07802 8.0 8
  178.01672 10.0 10
  179.07794 19.0 19
  180.05232 12.0 12
  181.06589 294.0 294
  181.08298 12.0 12
  182.05959 13.0 13
  182.07173 95.0 95
  182.08487 11.0 11
  183.07463 46.0 46
  183.08295 35.0 35
  184.04074 9.0 9
  184.054 52.0 52
  185.06229 29.0 29
  187.06667 26.0 26
  187.07243 10.0 10
  190.07784 19.0 19
  191.53156 9.0 9
  193.0538 16.0 16
  195.04431 8.0 8
  195.07335 33.0 33
  195.08582 23.0 23
  196.07379 19.0 19
  197.04515 13.0 13
  197.06052 227.0 227
  197.08691 19.0 19
  198.05077 9.0 9
  198.06686 17.0 17
  199.06459 27.0 27
  199.07587 84.0 84
  200.06523 11.0 11
  200.08279 33.0 33
  201.07101 11.0 11
  201.07909 14.0 14
  202.07027 12.0 12
  202.07852 20.0 20
  203.08092 20.0 20
  204.09404 13.0 13
  205.05449 17.0 17
  205.07451 8.0 8
  207.07581 21.0 21
  208.08647 9.0 9
  209.04697 11.0 11
  209.05862 19.0 19
  209.0676 8.0 8
  210.06763 46.0 46
  211.05679 10.0 10
  211.07213 15.0 15
  211.46851 10.0 10
  212.07913 24.0 24
  213.04903 21.0 21
  213.05817 19.0 19
  214.05257 8.0 8
  214.06177 10.0 10
  215.06433 17.0 17
  215.08438 26.0 26
  216.08023 11.0 11
  217.0934 9.0 9
  217.10233 11.0 11
  218.07222 23.0 23
  218.08032 18.0 18
  218.81355 11.0 11
  219.07205 32.0 32
  220.05046 9.0 9
  220.09055 8.0 8
  221.05682 19.0 19
  221.06897 23.0 23
  222.06012 11.0 11
  223.03377 8.0 8
  223.06883 53.0 53
  224.08636 9.0 9
  225.05061 9.0 9
  225.09206 10.0 10
  226.062 36.0 36
  226.07693 77.0 77
  227.03973 8.0 8
  227.07173 76.0 76
  227.092 11.0 11
  227.15668 8.0 8
  228.09853 8.0 8
  229.09392 8.0 8
  230.09399 8.0 8
  231.08548 30.0 30
  232.1057 11.0 11
  232.84554 9.0 9
  233.04495 8.0 8
  233.09645 15.0 15
  234.05882 12.0 12
  234.06761 11.0 11
  235.0676 8.0 8
  235.08174 26.0 26
  236.08685 12.0 12
  237.04814 8.0 8
  237.05696 32.0 32
  237.09151 9.0 9
  238.06062 9.0 9
  238.07957 8.0 8
  238.09625 8.0 8
  238.43324 8.0 8
  239.06796 98.0 98
  239.08261 61.0 61
  240.0808 79.0 79
  240.09689 11.0 11
  240.11081 11.0 11
  241.04396 8.0 8
  241.08321 16.0 16
  241.11578 11.0 11
  242.06171 14.0 14
  242.09129 8.0 8
  242.20351 11.0 11
  243.07814 12.0 12
  243.11426 18.0 18
  244.08925 28.0 28
  245.09511 62.0 62
  246.09946 10.0 10
  247.0764 10.0 10
  247.10303 8.0 8
  248.07637 11.0 11
  249.04399 9.0 9
  249.09644 9.0 9
  250.06509 46.0 46
  250.19536 9.0 9
  251.06407 10.0 10
  251.07805 17.0 17
  252.09366 17.0 17
  253.09703 18.0 18
  255.07059 28.0 28
  255.0871 17.0 17
  256.06531 11.0 11
  257.08914 16.0 16
  257.80399 8.0 8
  258.08768 8.0 8
  258.34311 8.0 8
  259.11234 27.0 27
  260.08478 32.0 32
  260.11307 8.0 8
  261.08951 27.0 27
  264.06445 8.0 8
  266.10437 8.0 8
  267.07101 19.0 19
  268.08966 31.0 31
  269.09686 8.0 8
  269.11792 8.0 8
  270.0983 8.0 8
  270.11252 11.0 11
  271.08102 8.0 8
  272.08124 17.0 17
  272.09637 8.0 8
  273.08618 9.0 9
  273.09937 9.0 9
  273.40744 12.0 12
  274.06339 19.0 19
  274.09219 17.0 17
  274.73975 8.0 8
  276.0769 20.0 20
  277.07483 12.0 12
  279.06839 9.0 9
  279.09595 19.0 19
  281.09656 9.0 9
  281.10364 16.0 16
  282.07266 9.0 9
  282.10184 9.0 9
  282.85431 9.0 9
  283.05402 16.0 16
  284.08157 15.0 15
  285.08826 19.0 19
  286.0314 14.0 14
  287.11954 10.0 10
  288.08786 8.0 8
  288.11557 8.0 8
  289.09329 16.0 16
  289.10635 10.0 10
  290.08154 8.0 8
  290.09268 15.0 15
  295.07944 8.0 8
  297.05862 9.0 9
  297.07358 56.0 56
  297.09366 34.0 34
  298.08221 9.0 9
  299.09421 9.0 9
  300.08304 19.0 19
  301.08218 16.0 16
  302.07428 8.0 8
  302.10907 8.0 8
  303.10675 8.0 8
  305.06738 13.0 13
  307.06677 8.0 8
  311.077 11.0 11
  313.08347 57.0 57
  313.1001 13.0 13
  314.09155 8.0 8
  315.09491 32.0 32
  315.11334 9.0 9
  324.03955 11.0 11
  324.07956 12.0 12
  325.08658 8.0 8
  329.06311 13.0 13
  329.08823 16.0 16
  331.08008 21.0 21
  331.71518 11.0 11
  333.93347 8.0 8
  337.12305 11.0 11
  342.09976 15.0 15
  346.10883 12.0 12
  347.09396 19.0 19
  348.08939 8.0 8
  349.10944 12.0 12
  357.85382 8.0 8
  371.11469 22.0 22
  371.14423 8.0 8
  372.10822 11.0 11
//
