ACCESSION: MSBNK-RIKEN-PR310687
RECORD_TITLE: Soyasapogenol B base + O-HexA-HexA-dHex, O-C6H7O3(DDMP); LC-ESI-QTOF; MS2
DATE: 2019.03.28
AUTHORS: Tetsuya Mori, Center for Sustainable Resource Science, RIKEN
LICENSE: CC BY-NC-SA
PUBLICATION: Tsugawa H., Nakabayashi R., Mori T., Yamada Y., Takahashi M., Rai A., Sugiyama R., Yamamoto H., Nakaya T., Yamazaki M., Kooke R., Bac-Molenaar JA., Oztolan-Erol N., Keurentjes JJB., Arita M., Saito K. (2019) "A cheminformatics approach to characterize metabolomes in stable-isotope-labeled organisms" Nature Methods 16(4):295-298. [doi:10.1038/s41592-019-0358-2]
COMMENT: Annotation level-3
CH$NAME: Soyasapogenol B base + O-HexA-HexA-dHex, O-C6H7O3(DDMP)
CH$COMPOUND_CLASS: Triterpene saponins
CH$FORMULA: C54H82O22
CH$EXACT_MASS: 1083.228
CH$SMILES: O=C(O)C9OC(OC1C(OC(C(=O)O)C(O)C1(O))OC4CCC5(C)(C6CC=C3C7CC(C)(C)CC(OC2OC(=C(O)C(=O)C2)C)C7(C)(CCC3(C)C6(C)(CCC5(C4(C)(CO))))))C(OC8OC(C)C(O)C(O)C8(O))C(O)C9(O)
CH$IUPAC: InChI=1S/C54H82O22/c1-22-32(57)26(56)18-31(69-22)71-30-20-49(3,4)19-25-24-10-11-28-51(6)14-13-29(52(7,21-55)27(51)12-15-54(28,9)53(24,8)17-16-50(25,30)5)72-47-42(37(62)35(60)40(73-47)44(65)66)76-48-43(38(63)36(61)41(74-48)45(67)68)75-46-39(64)34(59)33(58)23(2)70-46/h10,23,25,27-31,33-43,46-48,55,57-64H,11-21H2,1-9H3,(H,65,66)(H,67,68)
CH$LINK: INCHIKEY MISLOXVLNGPFID-UHFFFAOYSA-N
AC$INSTRUMENT: LC, Waters Acquity UPLC System; MS, Waters Xevo G2 Q-Tof
AC$INSTRUMENT_TYPE: LC-ESI-QTOF
AC$MASS_SPECTROMETRY: MS_TYPE MS2
AC$MASS_SPECTROMETRY: ION_MODE POSITIVE
AC$MASS_SPECTROMETRY: COLLISION_ENERGY 6V
AC$MASS_SPECTROMETRY: DESOLVATION_GAS_FLOW 800/h
AC$MASS_SPECTROMETRY: DESOLVATION_TEMPERATURE 450 C
AC$MASS_SPECTROMETRY: IONIZATION ESI
AC$CHROMATOGRAPHY: CAPILLARY_VOLTAGE +3.00 kV
AC$CHROMATOGRAPHY: COLUMN_NAME Acquity bridged ethyl hybrid C18 (1.7 um, 2.1 mm * 100 mm, Waters)
AC$CHROMATOGRAPHY: COLUMN_TEMPERATURE 40 C
AC$CHROMATOGRAPHY: FLOW_GRADIENT A/B = (99.5%/0.5% at 0 min, 99.5%/0.5% at 0.1 min, 20%/80% at 10 min, 0.5%/99.5% at 10.1 min, 0.5%/99.5% at 12.0 min, 99.5%/0.5% at 12.1 min, 99.5%/0.5% at 15.0 min)
AC$CHROMATOGRAPHY: FLOW_RATE 0.3 ml/min at 0 min, 0.3 ml/min at 10 min, 0.4 ml/min at 10.1 min, 0.4 ml/min at 14.4 min, 0.3 ml/min at 14.5 min
AC$CHROMATOGRAPHY: RETENTION_TIME 7.66
AC$CHROMATOGRAPHY: SOLVENT A water including 0.1% formic acid
AC$CHROMATOGRAPHY: SOLVENT B acetonitrile including 0.1% formic acid
MS$FOCUSED_ION: PRECURSOR_TYPE [M+H]+
MS$FOCUSED_ION: PRECURSOR_M/Z 1083.5341
PK$SPLASH: splash10-001i-9211640204-77610ced67a09a2236e9
PK$NUM_PEAK: 212
PK$PEAK: m/z int. rel.int.
  85.02909 39.0 8
  109.10196 43.0 8
  111.04337 17.0 3
  119.25188 30.0 6
  127.02615 17.0 3
  127.0353 34.0 7
  127.04007 20.0 4
  129.05649 34.0 7
  135.1144 20.0 4
  141.01677 85.0 17
  145.04955 458.0 90
  145.0833 24.0 5
  146.04628 24.0 5
  147.06187 20.0 4
  159.02464 53.0 10
  159.03078 107.0 21
  159.57721 17.0 3
  171.1163 20.0 4
  177.03816 107.0 21
  177.16339 24.0 5
  189.15709 17.0 3
  189.16698 60.0 12
  193.16052 47.0 9
  195.05046 23.0 5
  199.14722 26.0 5
  201.16895 40.0 8
  203.18333 83.0 16
  205.1597 44.0 9
  205.19653 45.0 9
  207.17369 41.0 8
  209.18977 25.0 5
  215.1819 47.0 9
  217.1571 63.0 12
  217.18465 52.0 10
  217.19885 140.0 28
  218.19254 21.0 4
  220.21692 17.0 3
  229.19502 17.0 3
  230.15959 20.0 4
  231.20428 22.0 4
  237.06178 17.0 3
  243.0508 17.0 3
  245.18948 24.0 5
  245.23138 17.0 3
  255.22342 21.0 4
  261.05869 26.0 5
  261.21838 33.0 7
  261.37631 17.0 3
  269.06082 43.0 8
  269.23178 29.0 6
  270.07193 39.0 8
  283.25641 20.0 4
  284.24283 20.0 4
  288.07199 21.0 4
  297.42935 29.0 6
  299.1239 20.0 4
  301.26263 18.0 4
  305.08545 39.0 8
  309.53482 17.0 3
  313.28653 19.0 4
  317.04218 73.0 14
  317.06439 21.0 4
  323.09378 55.0 11
  323.11145 18.0 4
  323.2641 22.0 4
  325.1322 18.0 4
  335.03589 18.0 4
  335.05383 17.0 3
  335.19888 18.0 4
  347.21149 19.0 4
  352.18063 29.0 6
  353.07632 121.0 24
  354.08176 17.0 3
  365.30466 23.0 5
  365.31848 91.0 18
  371.30133 17.0 3
  374.23984 18.0 4
  393.33688 19.0 4
  393.85645 19.0 4
  405.34833 356.0 70
  405.36685 72.0 14
  406.35229 60.0 12
  407.2399 17.0 3
  407.36902 25.0 5
  418.82544 23.0 5
  422.34302 18.0 4
  423.30981 19.0 4
  423.36188 1571.0 309
  424.29163 17.0 3
  424.31525 26.0 5
  424.36221 524.0 103
  424.38821 35.0 7
  424.74271 28.0 6
  425.31622 22.0 4
  425.36533 174.0 34
  426.36563 24.0 5
  435.46213 19.0 4
  441.34363 37.0 7
  441.36765 168.0 33
  441.3862 75.0 15
  442.3562 39.0 8
  442.3743 56.0 11
  443.3772 38.0 7
  445.10629 18.0 4
  446.11084 23.0 5
  450.22272 19.0 4
  470.38116 17.0 3
  474.84644 18.0 4
  474.8833 21.0 4
  499.13104 20.0 4
  515.36572 23.0 5
  538.40271 18.0 4
  541.15204 20.0 4
  549.38177 52.0 10
  549.40045 27.0 5
  549.41797 19.0 4
  550.38818 18.0 4
  550.40515 18.0 4
  567.4032 702.0 138
  568.34509 21.0 4
  568.36243 41.0 8
  568.39612 121.0 24
  568.41644 175.0 34
  568.43921 17.0 3
  568.76117 19.0 4
  569.41418 114.0 22
  581.37335 310.0 61
  582.38544 48.0 9
  585.40924 248.0 49
  585.42462 117.0 23
  586.41943 278.0 55
  587.40088 37.0 7
  587.42651 36.0 7
  587.44604 43.0 8
  599.33972 17.0 3
  599.40332 89.0 18
  600.39709 84.0 17
  600.54242 20.0 4
  618.42523 19.0 4
  673.29706 19.0 4
  674.03619 55.0 11
  677.43719 36.0 7
  678.45721 17.0 3
  695.42059 17.0 3
  698.33795 30.0 6
  713.44733 24.0 5
  713.47552 25.0 5
  724.75085 18.0 4
  725.41815 46.0 9
  726.39746 17.0 3
  726.41534 18.0 4
  727.42963 20.0 4
  727.44592 48.0 9
  731.46246 63.0 12
  731.48584 153.0 30
  732.44946 49.0 10
  732.48767 17.0 3
  732.51331 31.0 6
  733.45868 18.0 4
  733.48102 18.0 4
  734.505 17.0 3
  743.41992 143.0 28
  743.45197 63.0 12
  744.44232 81.0 16
  745.44287 17.0 3
  760.33282 24.0 5
  761.07782 17.0 3
  761.42468 72.0 14
  761.45447 138.0 27
  761.47101 56.0 11
  762.43158 18.0 4
  762.46149 17.0 3
  762.51074 18.0 4
  763.43793 18.0 4
  763.49017 24.0 5
  784.4104 23.0 5
  789.16656 34.0 7
  793.42993 26.0 5
  859.04504 20.0 4
  891.69843 21.0 4
  901.47375 20.0 4
  903.47748 20.0 4
  919.44531 24.0 5
  919.48969 41.0 8
  920.48126 18.0 4
  921.47583 20.0 4
  937.34644 22.0 4
  937.47095 1031.0 203
  937.49426 438.0 86
  937.60077 24.0 5
  938.39203 23.0 5
  938.44324 175.0 34
  938.48669 458.0 90
  939.4826 318.0 63
  939.52704 40.0 8
  940.47565 46.0 9
  940.51978 40.0 8
  942.50281 20.0 4
  942.80499 25.0 5
  962.39606 23.0 5
  1001.32947 18.0 4
  1027.51575 18.0 4
  1047.48279 18.0 4
  1048.52942 18.0 4
  1056.96375 19.0 4
  1065.52441 18.0 4
  1066.50806 32.0 6
  1081.37463 30.0 6
  1082.50256 19.0 4
  1083.38403 37.0 7
  1083.5387 5071.0 999
  1083.65881 18.0 4
//
