ACCESSION: MSBNK-RIKEN-PR311178
RECORD_TITLE: Apigeninidin; LC-ESI-QTOF; MS2
DATE: 2019.03.28
AUTHORS: Tetsuya Mori, Center for Sustainable Resource Science, RIKEN
LICENSE: CC BY-NC-SA
PUBLICATION: Tsugawa H., Nakabayashi R., Mori T., Yamada Y., Takahashi M., Rai A., Sugiyama R., Yamamoto H., Nakaya T., Yamazaki M., Kooke R., Bac-Molenaar JA., Oztolan-Erol N., Keurentjes JJB., Arita M., Saito K. (2019) "A cheminformatics approach to characterize metabolomes in stable-isotope-labeled organisms" Nature Methods 16(4):295-298. [doi:10.1038/s41592-019-0358-2]
COMMENT: Annotation level-1
CH$NAME: Apigeninidin
CH$COMPOUND_CLASS: Anthocyanidin O-glycosides
CH$FORMULA: C15H10O4
CH$EXACT_MASS: 254.241
CH$SMILES: OC1=CC=C(C=C1)C1=[O+]C2=CC(O)=CC([O-])=C2C=C1
CH$IUPAC: InChI=1S/C15H10O4/c16-10-3-1-9(2-4-10)14-6-5-12-13(18)7-11(17)8-15(12)19-14/h1-8H,(H2-,16,17,18)
CH$LINK: INCHIKEY ZKMZBAABQFUXFE-UHFFFAOYSA-N
AC$INSTRUMENT: LC, Waters Acquity UPLC System; MS, Waters Xevo G2 Q-Tof
AC$INSTRUMENT_TYPE: LC-ESI-QTOF
AC$MASS_SPECTROMETRY: MS_TYPE MS2
AC$MASS_SPECTROMETRY: ION_MODE POSITIVE
AC$MASS_SPECTROMETRY: COLLISION_ENERGY 6V
AC$MASS_SPECTROMETRY: DESOLVATION_GAS_FLOW 800/h
AC$MASS_SPECTROMETRY: DESOLVATION_TEMPERATURE 450 C
AC$MASS_SPECTROMETRY: IONIZATION ESI
AC$CHROMATOGRAPHY: CAPILLARY_VOLTAGE +3.00 kV
AC$CHROMATOGRAPHY: COLUMN_NAME Acquity bridged ethyl hybrid C18 (1.7 um, 2.1 mm * 100 mm, Waters)
AC$CHROMATOGRAPHY: COLUMN_TEMPERATURE 40 C
AC$CHROMATOGRAPHY: FLOW_GRADIENT A/B = (99.5%/0.5% at 0 min, 99.5%/0.5% at 0.1 min, 20%/80% at 10 min, 0.5%/99.5% at 10.1 min, 0.5%/99.5% at 12.0 min, 99.5%/0.5% at 12.1 min, 99.5%/0.5% at 15.0 min)
AC$CHROMATOGRAPHY: FLOW_RATE 0.3 ml/min at 0 min, 0.3 ml/min at 10 min, 0.4 ml/min at 10.1 min, 0.4 ml/min at 14.4 min, 0.3 ml/min at 14.5 min
AC$CHROMATOGRAPHY: RETENTION_TIME 3.87
AC$CHROMATOGRAPHY: SOLVENT A water including 0.1% formic acid
AC$CHROMATOGRAPHY: SOLVENT B acetonitrile including 0.1% formic acid
MS$FOCUSED_ION: PRECURSOR_TYPE [M+H]+
MS$FOCUSED_ION: PRECURSOR_M/Z 255.06519
PK$SPLASH: splash10-0a4i-0290000000-50c4ca169a32b9ba55b5
PK$NUM_PEAK: 132
PK$PEAK: m/z int. rel.int.
  66.76659 24.0 1
  68.99528 96.0 4
  70.90433 19.0 1
  91.02276 17.0 1
  91.05711 62.0 3
  92.99541 30.0 1
  93.03152 69.0 3
  95.01694 20.0 1
  107.72141 20.0 1
  115.05347 136.0 5
  116.05362 18.0 1
  121.02752 204.0 8
  121.03314 103.0 4
  121.09378 18.0 1
  122.04694 21.0 1
  127.05418 87.0 4
  128.06129 299.0 12
  129.06786 135.0 5
  129.07947 43.0 2
  130.07169 42.0 2
  131.08832 46.0 2
  133.02052 17.0 1
  133.02934 37.0 1
  134.02808 20.0 1
  135.04778 18.0 1
  137.02145 38.0 2
  139.05699 80.0 3
  141.06447 64.0 3
  141.07205 66.0 3
  143.04039 38.0 2
  143.04944 223.0 9
  143.08688 20.0 1
  144.0542 60.0 2
  145.05725 18.0 1
  145.06743 42.0 2
  145.69514 18.0 1
  147.0699 24.0 1
  151.05302 51.0 2
  152.0598 277.0 11
  152.07176 96.0 4
  153.05157 31.0 1
  153.06053 44.0 2
  153.06804 50.0 2
  153.46196 20.0 1
  154.05836 17.0 1
  154.06619 20.0 1
  155.04762 40.0 2
  156.05879 19.0 1
  157.05119 47.0 2
  157.0657 640.0 26
  158.05952 17.0 1
  158.07422 70.0 3
  158.56845 20.0 1
  158.76259 22.0 1
  161.06236 22.0 1
  164.06487 23.0 1
  165.07016 29.0 1
  167.04828 47.0 2
  169.05927 17.0 1
  169.49429 25.0 1
  170.07867 28.0 1
  171.03026 90.0 4
  171.04416 954.0 39
  171.07603 18.0 1
  172.04912 89.0 4
  172.07925 17.0 1
  181.0321 20.0 1
  181.05664 100.0 4
  181.06747 250.0 10
  183.00027 20.0 1
  183.06398 20.0 1
  184.04663 45.0 2
  185.01555 19.0 1
  185.05624 79.0 3
  185.06688 36.0 1
  186.06599 107.0 4
  187.0399 54.0 2
  187.06787 29.0 1
  187.0759 83.0 3
  188.03873 18.0 1
  188.08453 20.0 1
  189.81795 18.0 1
  192.69148 18.0 1
  193.52641 29.0 1
  195.0484 34.0 1
  195.82016 21.0 1
  197.05649 94.0 4
  197.22633 24.0 1
  197.2541 25.0 1
  197.89723 29.0 1
  198.05794 19.0 1
  199.07895 20.0 1
  200.08179 29.0 1
  200.10863 18.0 1
  207.97032 22.0 1
  209.06161 82.0 3
  209.3894 20.0 1
  210.06175 26.0 1
  210.06944 36.0 1
  212.26872 22.0 1
  212.63484 20.0 1
  212.99409 21.0 1
  213.03395 39.0 2
  213.05441 268.0 11
  213.0705 37.0 1
  214.06073 57.0 2
  226.061 67.0 3
  226.25012 19.0 1
  227.03879 21.0 1
  227.07141 542.0 22
  228.06664 20.0 1
  228.11818 18.0 1
  231.24977 32.0 1
  236.04669 30.0 1
  237.06268 19.0 1
  238.06322 23.0 1
  238.97591 17.0 1
  250.08199 35.0 1
  250.13037 17.0 1
  251.56859 18.0 1
  254.05357 32.0 1
  254.06508 50.0 2
  254.10178 18.0 1
  254.11427 50.0 2
  254.31635 17.0 1
  254.55453 19.0 1
  254.6523 34.0 1
  254.85165 17.0 1
  255.00522 20.0 1
  255.02266 112.0 5
  255.06534 24712.0 999
  255.11024 221.0 9
//
