ACCESSION: MSBNK-RIKEN-PR301692
RECORD_TITLE: Rhoeadine; LC-ESI-QTOF; MS2
DATE: 2019.03.28
AUTHORS: Tetsuya Mori, Center for Sustainable Resource Science, RIKEN
LICENSE: CC BY-NC-SA
PUBLICATION: Tsugawa H., Nakabayashi R., Mori T., Yamada Y., Takahashi M., Rai A., Sugiyama R., Yamamoto H., Nakaya T., Yamazaki M., Kooke R., Bac-Molenaar JA., Oztolan-Erol N., Keurentjes JJB., Arita M., Saito K. (2019) "A cheminformatics approach to characterize metabolomes in stable-isotope-labeled organisms" Nature Methods 16(4):295-298. [doi:10.1038/s41592-019-0358-2]
COMMENT: registered in RIKEN PlaSMA
CH$NAME: Rhoeadine
CH$COMPOUND_CLASS: Rhoeadine alkaloids
CH$FORMULA: C21H21NO6
CH$EXACT_MASS: 383.4
CH$SMILES: CO[C@H]1O[C@H]2[C@H](N(C)CCC3=CC4=C(OCO4)C=C23)C2=C1C1=C(OCO1)C=C2
CH$IUPAC: InChI=1S/C21H21NO6/c1-22-6-5-11-7-15-16(26-9-25-15)8-13(11)19-18(22)12-3-4-14-20(27-10-24-14)17(12)21(23-2)28-19/h3-4,7-8,18-19,21H,5-6,9-10H2,1-2H3/t18-,19-,21+/m1/s1
CH$LINK: INCHIKEY XRBIHOLQAKITPP-SBHAEUEKSA-N
AC$INSTRUMENT: LC, Waters Acquity UPLC System; MS, Waters Xevo G2 Q-Tof
AC$INSTRUMENT_TYPE: LC-ESI-QTOF
AC$MASS_SPECTROMETRY: MS_TYPE MS2
AC$MASS_SPECTROMETRY: ION_MODE POSITIVE
AC$MASS_SPECTROMETRY: COLLISION_ENERGY 6V
AC$MASS_SPECTROMETRY: DESOLVATION_GAS_FLOW 800/h
AC$MASS_SPECTROMETRY: DESOLVATION_TEMPERATURE 450 C
AC$MASS_SPECTROMETRY: IONIZATION ESI
AC$CHROMATOGRAPHY: CAPILLARY_VOLTAGE +3.00 kV
AC$CHROMATOGRAPHY: COLUMN_NAME Acquity bridged ethyl hybrid C18 (1.7 um, 2.1 mm * 100 mm, Waters)
AC$CHROMATOGRAPHY: COLUMN_TEMPERATURE 40 C
AC$CHROMATOGRAPHY: FLOW_GRADIENT A/B = (99.5%/0.5% at 0 min, 99.5%/0.5% at 0.1 min, 20%/80% at 10 min, 0.5%/99.5% at 10.1 min, 0.5%/99.5% at 12.0 min, 99.5%/0.5% at 12.1 min, 99.5%/0.5% at 15.0 min)
AC$CHROMATOGRAPHY: FLOW_RATE 0.3 ml/min at 0 min, 0.3 ml/min at 10 min, 0.4 ml/min at 10.1 min, 0.4 ml/min at 14.4 min, 0.3 ml/min at 14.5 min
AC$CHROMATOGRAPHY: RETENTION_TIME 4.648417
AC$CHROMATOGRAPHY: SOLVENT A water including 0.1% formic acid
AC$CHROMATOGRAPHY: SOLVENT B acetonitrile including 0.1% formic acid
MS$FOCUSED_ION: PRECURSOR_TYPE [M+H]+
MS$FOCUSED_ION: PRECURSOR_M/Z 384.1441639
PK$SPLASH: splash10-0553-0981000000-85abab46a7af9309f3b6
PK$NUM_PEAK: 484
PK$PEAK: m/z int. rel.int.
  65.04025 8.0 8
  71.07133 6.0 6
  79.04876 7.0 7
  79.05371 9.0 9
  81.49859 8.0 8
  86.50827 11.0 11
  89.03324 8.0 8
  91.05277 56.0 56
  92.05811 26.0 26
  92.06542 14.0 14
  93.69318 8.0 8
  97.24975 7.0 7
  102.98322 10.0 10
  103.04114 8.0 8
  103.04865 36.0 36
  103.0529 69.0 69
  104.06266 10.0 10
  105.05649 17.0 17
  105.06719 20.0 20
  106.07602 7.0 7
  106.0886 9.0 9
  107.7561 7.0 7
  109.94965 13.0 13
  115.05726 7.0 7
  115.69682 11.0 11
  116.06474 6.0 6
  116.10764 13.0 13
  117.03673 8.0 8
  117.05557 29.0 29
  117.06141 22.0 22
  117.07092 16.0 16
  118.06262 97.0 97
  118.07284 19.0 19
  119.05044 75.0 75
  119.06155 10.0 10
  119.07541 23.0 23
  120.08479 7.0 7
  121.06778 17.0 17
  121.69572 9.0 9
  122.71624 7.0 7
  129.0307 17.0 17
  130.02747 8.0 8
  130.04617 7.0 7
  130.06529 115.0 115
  130.07632 16.0 16
  131.05069 198.0 198
  131.07452 66.0 66
  132.04333 36.0 36
  132.05617 16.0 16
  132.06448 9.0 9
  132.07961 83.0 83
  132.08452 29.0 29
  132.17606 8.0 8
  132.55991 7.0 7
  133.02774 11.0 11
  133.03377 10.0 10
  133.05013 7.0 7
  133.05701 16.0 16
  133.06456 12.0 12
  133.08534 24.0 24
  134.03174 7.0 7
  134.04094 16.0 16
  134.05054 11.0 11
  134.09781 13.0 13
  135.02841 10.0 10
  135.04465 102.0 102
  141.06815 7.0 7
  143.05505 7.0 7
  144.07018 19.0 19
  145.07169 9.0 9
  146.05556 25.0 25
  146.06253 51.0 51
  147.03909 29.0 29
  147.04881 61.0 61
  147.06715 7.0 7
  147.10437 9.0 9
  148.04408 48.0 48
  148.05678 23.0 23
  148.07657 7.0 7
  149.05818 48.0 48
  149.06525 31.0 31
  150.06708 10.0 10
  150.17529 7.0 7
  151.05151 35.0 35
  151.60321 7.0 7
  152.05188 6.0 6
  152.0618 25.0 25
  152.07288 6.0 6
  153.0658 16.0 16
  154.06448 7.0 7
  154.07791 6.0 6
  155.04649 8.0 8
  156.08273 7.0 7
  156.0903 8.0 8
  156.85062 13.0 13
  158.04515 6.0 6
  158.06944 6.0 6
  159.02377 7.0 7
  159.0405 30.0 30
  159.05223 37.0 37
  159.06781 64.0 64
  159.07692 16.0 16
  160.04073 12.0 12
  160.05811 6.0 6
  160.07445 82.0 82
  160.08224 24.0 24
  161.03749 8.0 8
  161.04906 86.0 86
  161.05862 51.0 51
  161.06871 16.0 16
  161.07762 14.0 14
  161.08513 17.0 17
  161.99165 12.0 12
  162.04721 6.0 6
  162.05823 13.0 13
  162.08838 6.0 6
  162.09782 10.0 10
  163.01199 7.0 7
  163.02686 7.0 7
  163.04033 36.0 36
  163.05679 20.0 20
  163.064 10.0 10
  165.04082 14.0 14
  165.06506 66.0 66
  165.07573 47.0 47
  166.07765 7.0 7
  166.08395 11.0 11
  166.11432 7.0 7
  167.08984 10.0 10
  167.09695 6.0 6
  168.0598 8.0 8
  168.09317 16.0 16
  169.11328 7.0 7
  169.90901 9.0 9
  170.12808 10.0 10
  171.07481 8.0 8
  172.03896 14.0 14
  172.05597 9.0 9
  172.79727 6.0 6
  173.04845 6.0 6
  174.05312 34.0 34
  174.06004 62.0 62
  175.03871 12.0 12
  175.06323 316.0 316
  175.08904 11.0 11
  176.03751 15.0 15
  176.06201 160.0 160
  176.07295 39.0 39
  176.15775 6.0 6
  177.0377 8.0 8
  177.05214 42.0 42
  177.06981 454.0 454
  177.09079 10.0 10
  178.06779 46.0 46
  178.07611 47.0 47
  178.08566 40.0 40
  179.05322 7.0 7
  179.06418 12.0 12
  179.07578 37.0 37
  179.08505 91.0 91
  180.07237 18.0 18
  180.08418 7.0 7
  180.10042 7.0 7
  181.04529 8.0 8
  181.08229 7.0 7
  184.06914 12.0 12
  186.0611 14.0 14
  186.16888 10.0 10
  187.04492 8.0 8
  187.06052 74.0 74
  187.07312 8.0 8
  187.86339 6.0 6
  188.02342 6.0 6
  188.05135 50.0 50
  188.07133 633.0 632
  188.66913 6.0 6
  189.03635 8.0 8
  189.04872 7.0 7
  189.07179 684.0 683
  189.8439 7.0 7
  189.9052 6.0 6
  190.04541 68.0 68
  190.05544 50.0 50
  190.08463 1000.0 999
  190.10551 30.0 30
  190.45032 12.0 12
  190.59648 6.0 6
  191.03311 11.0 11
  191.04277 9.0 9
  191.05919 6.0 6
  191.06949 45.0 45
  191.08015 42.0 42
  191.09306 120.0 120
  192.06172 46.0 46
  192.0733 19.0 19
  192.09669 8.0 8
  193.06519 67.0 67
  193.07478 16.0 16
  193.09044 7.0 7
  193.1149 8.0 8
  194.07903 14.0 14
  194.09872 8.0 8
  194.10497 25.0 25
  194.8054 6.0 6
  195.07991 27.0 27
  195.09204 6.0 6
  196.03891 7.0 7
  196.08623 9.0 9
  197.22858 9.0 9
  198.00381 6.0 6
  199.05293 8.0 8
  200.05618 8.0 8
  201.05901 7.0 7
  201.08202 23.0 23
  202.06441 23.0 23
  202.08496 14.0 14
  202.09868 7.0 7
  203.07858 95.0 95
  203.09499 14.0 14
  204.05576 28.0 28
  204.07159 25.0 25
  204.08382 25.0 25
  204.09447 33.0 33
  205.04102 6.0 6
  205.06113 313.0 313
  205.0697 351.0 351
  205.09496 36.0 36
  205.1272 8.0 8
  206.0665 82.0 82
  206.07681 84.0 84
  206.09773 19.0 19
  206.10898 6.0 6
  207.04221 6.0 6
  207.05756 6.0 6
  207.06944 6.0 6
  207.08359 49.0 49
  208.04393 15.0 15
  208.0665 7.0 7
  208.07956 7.0 7
  208.09236 25.0 25
  208.10793 8.0 8
  208.13403 10.0 10
  208.64392 6.0 6
  209.04295 6.0 6
  209.0573 33.0 33
  209.06665 75.0 75
  209.08179 6.0 6
  210.04143 8.0 8
  211.06184 10.0 10
  211.07822 18.0 18
  215.04582 17.0 17
  215.05522 30.0 30
  216.0607 35.0 35
  216.08287 8.0 8
  216.16499 7.0 7
  217.04886 30.0 30
  217.06677 131.0 131
  217.08456 29.0 29
  218.0676 30.0 30
  218.07716 33.0 33
  218.0914 48.0 48
  218.10353 50.0 50
  218.11835 18.0 18
  219.06271 29.0 29
  219.076 47.0 47
  219.08499 23.0 23
  219.09767 18.0 18
  219.95544 7.0 7
  220.06747 35.0 35
  220.08766 28.0 28
  221.06287 7.0 7
  221.0771 21.0 21
  221.09033 10.0 10
  221.11333 13.0 13
  221.91568 13.0 13
  222.05208 6.0 6
  222.06902 28.0 28
  222.08647 10.0 10
  222.10547 22.0 22
  223.06694 16.0 16
  223.07425 25.0 25
  223.11513 6.0 6
  224.08859 7.0 7
  225.06642 11.0 11
  226.06523 6.0 6
  226.08528 7.0 7
  228.09412 7.0 7
  229.61133 6.0 6
  230.06978 8.0 8
  231.02542 10.0 10
  231.05873 17.0 17
  231.08264 8.0 8
  231.11656 10.0 10
  232.07613 49.0 49
  232.30246 7.0 7
  233.02203 7.0 7
  233.03133 6.0 6
  233.05705 215.0 215
  233.08281 34.0 34
  233.09171 14.0 14
  233.10338 10.0 10
  233.18709 8.0 8
  234.04543 14.0 14
  234.06778 43.0 43
  234.08891 100.0 100
  234.1042 19.0 19
  235.07365 170.0 170
  235.08527 97.0 97
  235.10854 10.0 10
  235.18741 9.0 9
  236.07001 107.0 107
  236.10574 14.0 14
  236.63515 6.0 6
  237.08841 20.0 20
  237.10591 22.0 22
  237.1194 7.0 7
  238.09865 8.0 8
  243.9485 7.0 7
  244.04814 8.0 8
  245.06335 105.0 105
  246.05865 41.0 41
  246.07179 74.0 74
  246.08412 27.0 27
  246.09778 17.0 17
  246.15216 7.0 7
  247.06602 73.0 73
  247.07971 66.0 66
  247.09094 18.0 18
  247.22913 8.0 8
  247.75299 6.0 6
  248.03123 7.0 7
  248.06178 59.0 59
  248.07875 96.0 96
  248.10808 6.0 6
  249.0426 14.0 14
  249.06956 28.0 28
  249.0777 77.0 77
  250.07037 8.0 8
  250.08302 23.0 23
  250.09441 25.0 25
  250.10652 18.0 18
  250.13237 7.0 7
  251.03461 7.0 7
  251.08269 74.0 74
  251.09312 30.0 30
  251.15031 11.0 11
  253.11282 6.0 6
  254.66258 6.0 6
  254.84053 8.0 8
  256.99539 6.0 6
  257.07166 10.0 10
  258.00336 6.0 6
  259.06763 7.0 7
  259.11359 9.0 9
  260.05161 6.0 6
  260.06302 9.0 9
  260.07727 40.0 40
  260.09705 6.0 6
  261.03598 22.0 22
  261.05078 64.0 64
  261.07431 77.0 77
  261.08972 43.0 43
  262.02908 7.0 7
  262.05774 33.0 33
  262.07462 83.0 83
  262.08762 125.0 125
  262.09946 24.0 24
  262.11819 18.0 18
  262.13828 10.0 10
  262.34027 12.0 12
  263.05786 39.0 39
  263.07507 53.0 53
  263.09137 98.0 98
  264.05624 11.0 11
  264.07968 60.0 60
  264.0976 100.0 100
  265.06152 7.0 7
  265.10541 12.0 12
  265.12402 10.0 10
  265.51337 8.0 8
  266.0675 9.0 9
  266.08899 17.0 17
  266.11539 10.0 10
  266.1286 16.0 16
  267.08862 6.0 6
  267.1001 7.0 7
  267.12439 10.0 10
  269.14822 7.0 7
  270.25339 10.0 10
  271.02899 6.0 6
  272.75244 8.0 8
  272.87396 6.0 6
  273.05127 15.0 15
  273.09369 7.0 7
  274.05621 22.0 22
  274.08682 45.0 45
  275.04614 9.0 9
  275.05576 8.0 8
  275.07486 27.0 27
  275.09125 21.0 21
  275.10336 35.0 35
  275.28107 11.0 11
  276.05737 31.0 31
  276.0784 56.0 56
  276.10245 90.0 90
  276.11423 53.0 53
  277.02356 7.0 7
  277.0712 97.0 97
  277.10519 16.0 16
  278.06433 8.0 8
  278.0813 90.0 90
  278.12881 11.0 11
  279.05954 38.0 38
  279.07272 15.0 15
  280.08957 6.0 6
  281.04605 11.0 11
  281.08527 6.0 6
  281.11276 6.0 6
  282.08591 10.0 10
  289.0629 16.0 16
  289.08585 7.0 7
  290.07138 66.0 66
  290.08813 111.0 111
  291.0304 8.0 8
  291.04095 9.0 9
  291.0625 8.0 8
  291.07971 28.0 28
  291.09338 19.0 19
  291.10745 7.0 7
  292.0589 22.0 22
  292.07809 19.0 19
  292.09738 174.0 174
  292.13498 12.0 12
  293.10056 29.0 29
  293.11469 6.0 6
  294.06512 18.0 18
  294.07922 6.0 6
  294.10202 23.0 23
  295.09027 35.0 35
  295.10794 6.0 6
  300.98294 6.0 6
  301.52274 6.0 6
  302.08081 9.0 9
  303.05838 22.0 22
  303.07916 51.0 51
  304.0567 12.0 12
  304.07532 53.0 53
  304.10376 48.0 48
  305.06003 15.0 15
  305.0686 37.0 37
  305.09885 20.0 20
  306.06198 8.0 8
  306.07892 23.0 23
  306.12094 6.0 6
  307.08585 24.0 24
  308.07285 15.0 15
  308.09488 31.0 31
  308.10519 24.0 24
  309.09607 22.0 22
  310.09543 8.0 8
  310.6908 6.0 6
  311.03754 6.0 6
  318.07596 27.0 27
  318.09344 20.0 20
  318.10706 7.0 7
  319.07849 32.0 32
  319.09198 10.0 10
  320.09393 368.0 368
  320.1123 54.0 54
  320.15039 7.0 7
  320.50461 6.0 6
  321.07794 6.0 6
  321.09256 34.0 34
  321.11182 22.0 22
  322.09814 37.0 37
  323.08942 14.0 14
  332.09302 11.0 11
  332.12299 10.0 10
  333.10022 9.0 9
  334.10208 31.0 31
  335.09021 10.0 10
  335.12701 8.0 8
  373.23056 11.0 11
  374.28354 8.0 8
//
