ACCESSION: MSBNK-RIKEN-PR100931
RECORD_TITLE: L-Ethionine; LC-ESI-QTOF; MS2; CE:Ramp 5-60 V; [M-H]-
DATE: 2016.01.19 (Created 2010.06.21, modified 2011.05.06)
AUTHORS: Matsuda F, Suzuki M, Sawada Y, Plant Science Center, RIKEN.
LICENSE: CC BY-SA
COMMENT: Acquisition and generation of the data is financially supported in part by CREST/JST.
CH$NAME: L-Ethionine
CH$NAME: Eth
CH$NAME: Et-homoCys
CH$NAME: S-ethyl-L-homocysteine
CH$NAME: L-2-Amino-4-(ethylthio)butyric acid
CH$COMPOUND_CLASS: Amino acids
CH$FORMULA: C6H13NO2S
CH$EXACT_MASS: 163.06670
CH$SMILES: CCSCC[C@H](N)C(O)=O
CH$IUPAC: InChI=1S/C6H13NO2S/c1-2-10-4-3-5(7)6(8)9/h5H,2-4,7H2,1H3,(H,8,9)/t5-/m0/s1
CH$LINK: CAS 13073-35-3
CH$LINK: CHEMSPIDER 23916
CH$LINK: KEGG C11227
CH$LINK: PUBCHEM CID:25674
CH$LINK: INCHIKEY GGLZPLKKBSSKCX-YFKPBYRVSA-N
CH$LINK: COMPTOX DTXSID5020578
AC$INSTRUMENT: UPLC Q-Tof Premier, Waters
AC$INSTRUMENT_TYPE: LC-ESI-QTOF
AC$MASS_SPECTROMETRY: MS_TYPE MS2
AC$MASS_SPECTROMETRY: ION_MODE NEGATIVE
AC$MASS_SPECTROMETRY: COLLISION_ENERGY Ramp 5-60 V
AC$MASS_SPECTROMETRY: DATAFORMAT Continuum
AC$MASS_SPECTROMETRY: DESOLVATION_GAS_FLOW 600.0 L/Hr
AC$MASS_SPECTROMETRY: DESOLVATION_TEMPERATURE 400 C
AC$MASS_SPECTROMETRY: FRAGMENTATION_METHOD LOW-ENERGY CID
AC$MASS_SPECTROMETRY: IONIZATION ESI
AC$MASS_SPECTROMETRY: SOURCE_TEMPERATURE 120 C
AC$CHROMATOGRAPHY: CAPILLARY_VOLTAGE 3.0 kV
AC$CHROMATOGRAPHY: SAMPLING_CONE 23.0 V
AC$CHROMATOGRAPHY: SOLVENT A CH3CN(0.1%HCOOH)
AC$CHROMATOGRAPHY: SOLVENT B H2O(0.1%HCOOH)
MS$FOCUSED_ION: PRECURSOR_M/Z 162.0589
MS$FOCUSED_ION: PRECURSOR_TYPE [M-H]-
PK$SPLASH: splash10-03di-6900000000-5f2e9862c451f418b8c2
PK$NUM_PEAK: 5
PK$PEAK: m/z int. rel.int.
  61.0135 111.3 999
  144.8911 31.19 280
  161.8938 72.8 653
  162.0589 45.39 407
  162.8930 12.55 113
//
