ACCESSION: MSBNK-RIKEN-PR305757
RECORD_TITLE: Syringetin-3-O-galactoside; LC-ESI-QTOF; MS2
DATE: 2019.03.28
AUTHORS: Tetsuya Mori, Center for Sustainable Resource Science, RIKEN
LICENSE: CC BY-NC-SA
PUBLICATION: Tsugawa H., Nakabayashi R., Mori T., Yamada Y., Takahashi M., Rai A., Sugiyama R., Yamamoto H., Nakaya T., Yamazaki M., Kooke R., Bac-Molenaar JA., Oztolan-Erol N., Keurentjes JJB., Arita M., Saito K. (2019) "A cheminformatics approach to characterize metabolomes in stable-isotope-labeled organisms" Nature Methods 16(4):295-298. [doi:10.1038/s41592-019-0358-2]
COMMENT: registered in RIKEN PlaSMA
CH$NAME: Syringetin-3-O-galactoside
CH$COMPOUND_CLASS: Flavonoid-3-O-glycosides
CH$FORMULA: C23H24O13
CH$EXACT_MASS: 508.432
CH$SMILES: COC1=CC(=CC(OC)=C1O)C1=C(OC2OC(CO)C(O)C(O)C2O)C(=O)C2=C(O)C=C(O)C=C2O1
CH$IUPAC: InChI=1S/C23H24O13/c1-32-12-3-8(4-13(33-2)16(12)27)21-22(18(29)15-10(26)5-9(25)6-11(15)34-21)36-23-20(31)19(30)17(28)14(7-24)35-23/h3-6,14,17,19-20,23-28,30-31H,7H2,1-2H3
CH$LINK: INCHIKEY JMFWYRWPJVEZPV-UHFFFAOYSA-N
AC$INSTRUMENT: LC, Waters Acquity UPLC System; MS, Waters Xevo G2 Q-Tof
AC$INSTRUMENT_TYPE: LC-ESI-QTOF
AC$MASS_SPECTROMETRY: MS_TYPE MS2
AC$MASS_SPECTROMETRY: ION_MODE NEGATIVE
AC$MASS_SPECTROMETRY: COLLISION_ENERGY 6V
AC$MASS_SPECTROMETRY: DESOLVATION_GAS_FLOW 800/h
AC$MASS_SPECTROMETRY: DESOLVATION_TEMPERATURE 450 C
AC$MASS_SPECTROMETRY: IONIZATION ESI
AC$CHROMATOGRAPHY: CAPILLARY_VOLTAGE -2.75 kV
AC$CHROMATOGRAPHY: COLUMN_NAME Acquity bridged ethyl hybrid C18 (1.7 um, 2.1 mm * 100 mm, Waters)
AC$CHROMATOGRAPHY: COLUMN_TEMPERATURE 40 C
AC$CHROMATOGRAPHY: FLOW_GRADIENT A/B = (99.5%/0.5% at 0 min, 99.5%/0.5% at 0.1 min, 20%/80% at 10 min, 0.5%/99.5% at 10.1 min, 0.5%/99.5% at 12.0 min, 99.5%/0.5% at 12.1 min, 99.5%/0.5% at 15.0 min)
AC$CHROMATOGRAPHY: FLOW_RATE 0.3 ml/min at 0 min, 0.3 ml/min at 10 min, 0.4 ml/min at 10.1 min, 0.4 ml/min at 14.4 min, 0.3 ml/min at 14.5 min
AC$CHROMATOGRAPHY: RETENTION_TIME 4.328283
AC$CHROMATOGRAPHY: SOLVENT A water including 0.1% formic acid
AC$CHROMATOGRAPHY: SOLVENT B acetonitrile including 0.1% formic acid
MS$FOCUSED_ION: PRECURSOR_TYPE [M-H]-
MS$FOCUSED_ION: PRECURSOR_M/Z 507.11441434783
PK$SPLASH: splash10-0006-0049000000-b42c15a832e45b3c8bcb
PK$NUM_PEAK: 35
PK$PEAK: m/z int. rel.int.
  90.99739 39.0 39
  107.00851 39.0 39
  139.01689 39.0 39
  242.02129 39.0 39
  242.17276 34.0 34
  244.03677 46.0 46
  246.00621 37.0 37
  258.00055 34.0 34
  258.01309 62.0 62
  269.01248 97.0 97
  270.01895 88.0 88
  271.01126 45.0 45
  272.05289 68.0 68
  273.0386 448.0 448
  274.03009 32.0 32
  274.04803 32.0 32
  276.97174 29.0 29
  287.04877 79.0 79
  288.04706 42.0 42
  301.03186 248.0 248
  301.04016 97.0 97
  315.05408 114.0 114
  316.04941 103.0 103
  316.07782 37.0 37
  316.16956 52.0 52
  317.01389 31.0 31
  318.05069 31.0 31
  329.03137 180.0 180
  330.01865 83.0 83
  330.03171 85.0 85
  331.04541 46.0 46
  344.05289 1000.0 999
  345.06436 370.0 370
  441.43027 31.0 31
  507.10843 59.0 59
//
