ACCESSION: MSBNK-RIKEN-PR306204
RECORD_TITLE: Eriodictyol-7-O-rutinoside; LC-ESI-QTOF; MS2
DATE: 2019.03.28
AUTHORS: Tetsuya Mori, Center for Sustainable Resource Science, RIKEN
LICENSE: CC BY-NC-SA
PUBLICATION: Tsugawa H., Nakabayashi R., Mori T., Yamada Y., Takahashi M., Rai A., Sugiyama R., Yamamoto H., Nakaya T., Yamazaki M., Kooke R., Bac-Molenaar JA., Oztolan-Erol N., Keurentjes JJB., Arita M., Saito K. (2019) "A cheminformatics approach to characterize metabolomes in stable-isotope-labeled organisms" Nature Methods 16(4):295-298. [doi:10.1038/s41592-019-0358-2]
COMMENT: registered in RIKEN PlaSMA
CH$NAME: Eriodictyol-7-O-rutinoside
CH$COMPOUND_CLASS: Flavonoid-7-O-glycosides
CH$FORMULA: C27H32O15
CH$EXACT_MASS: 596.538
CH$SMILES: CC1OC(OCC2OC(OC3=CC(O)=C4C(=O)CC(OC4=C3)C3=CC(O)=C(O)C=C3)C(O)C(O)C2O)C(O)C(O)C1O
CH$IUPAC: InChI=1S/C27H32O15/c1-9-20(32)22(34)24(36)26(39-9)38-8-18-21(33)23(35)25(37)27(42-18)40-11-5-14(30)19-15(31)7-16(41-17(19)6-11)10-2-3-12(28)13(29)4-10/h2-6,9,16,18,20-30,32-37H,7-8H2,1H3
CH$LINK: INCHIKEY OMQADRGFMLGFJF-UHFFFAOYSA-N
AC$INSTRUMENT: LC, Waters Acquity UPLC System; MS, Waters Xevo G2 Q-Tof
AC$INSTRUMENT_TYPE: LC-ESI-QTOF
AC$MASS_SPECTROMETRY: MS_TYPE MS2
AC$MASS_SPECTROMETRY: ION_MODE NEGATIVE
AC$MASS_SPECTROMETRY: COLLISION_ENERGY 6V
AC$MASS_SPECTROMETRY: DESOLVATION_GAS_FLOW 800/h
AC$MASS_SPECTROMETRY: DESOLVATION_TEMPERATURE 450 C
AC$MASS_SPECTROMETRY: IONIZATION ESI
AC$CHROMATOGRAPHY: CAPILLARY_VOLTAGE -2.75 kV
AC$CHROMATOGRAPHY: COLUMN_NAME Acquity bridged ethyl hybrid C18 (1.7 um, 2.1 mm * 100 mm, Waters)
AC$CHROMATOGRAPHY: COLUMN_TEMPERATURE 40 C
AC$CHROMATOGRAPHY: FLOW_GRADIENT A/B = (99.5%/0.5% at 0 min, 99.5%/0.5% at 0.1 min, 20%/80% at 10 min, 0.5%/99.5% at 10.1 min, 0.5%/99.5% at 12.0 min, 99.5%/0.5% at 12.1 min, 99.5%/0.5% at 15.0 min)
AC$CHROMATOGRAPHY: FLOW_RATE 0.3 ml/min at 0 min, 0.3 ml/min at 10 min, 0.4 ml/min at 10.1 min, 0.4 ml/min at 14.4 min, 0.3 ml/min at 14.5 min
AC$CHROMATOGRAPHY: RETENTION_TIME 3.9209
AC$CHROMATOGRAPHY: SOLVENT A water including 0.1% formic acid
AC$CHROMATOGRAPHY: SOLVENT B acetonitrile including 0.1% formic acid
MS$FOCUSED_ION: PRECURSOR_TYPE [M-H]-
MS$FOCUSED_ION: PRECURSOR_M/Z 595.16684384783
PK$SPLASH: splash10-0udr-0900000000-cea9223133c48a6d2f39
PK$NUM_PEAK: 38
PK$PEAK: m/z int. rel.int.
  63.02032 10.0 10
  65.00096 15.0 15
  83.01067 25.0 25
  107.01254 250.0 250
  108.01167 5.0 5
  108.01687 6.0 6
  108.99234 5.0 5
  109.02988 26.0 26
  110.03417 6.0 6
  124.94534 6.0 6
  125.02219 41.0 41
  132.00797 9.0 9
  133.02452 9.0 9
  134.03323 13.0 13
  135.04332 942.0 941
  136.04495 83.0 83
  145.02879 9.0 9
  149.02107 10.0 10
  151.00203 1000.0 999
  152.00516 85.0 85
  152.02568 5.0 5
  153.00885 11.0 11
  155.05069 10.0 10
  161.02338 19.0 19
  164.00836 6.0 6
  165.01778 30.0 30
  167.03177 7.0 7
  175.00063 41.0 41
  189.01868 5.0 5
  193.01196 11.0 11
  201.0154 5.0 5
  226.06529 6.0 6
  242.05791 5.0 5
  284.02679 12.0 12
  285.04288 47.0 47
  286.04321 26.0 26
  287.04639 6.0 6
  287.05923 8.0 8
//
