ACCESSION: MSBNK-RIKEN-PR304662
RECORD_TITLE: Voacamine; LC-ESI-QTOF; MS2
DATE: 2019.03.28
AUTHORS: Tetsuya Mori, Center for Sustainable Resource Science, RIKEN
LICENSE: CC BY-NC-SA
PUBLICATION: Tsugawa H., Nakabayashi R., Mori T., Yamada Y., Takahashi M., Rai A., Sugiyama R., Yamamoto H., Nakaya T., Yamazaki M., Kooke R., Bac-Molenaar JA., Oztolan-Erol N., Keurentjes JJB., Arita M., Saito K. (2019) "A cheminformatics approach to characterize metabolomes in stable-isotope-labeled organisms" Nature Methods 16(4):295-298. [doi:10.1038/s41592-019-0358-2]
COMMENT: registered in RIKEN PlaSMA
CH$NAME: Voacamine
CH$COMPOUND_CLASS: Ibogan-type alkaloids
CH$FORMULA: C43H52N4O5
CH$EXACT_MASS: 704.912
CH$SMILES: CCC1CC2CN3CCC4=C(NC5=CC(C6CC7C(C(CC8=C6NC6=CC=CC=C86)N(C)CC7=CC)C(=O)OC)=C(OC)C=C45)C(C2)(C13)C(=O)OC
CH$IUPAC: InChI=1S/C43H52N4O5/c1-7-24-15-23-20-43(42(49)52-6)39-27(13-14-47(21-23)40(24)43)29-19-36(50-4)30(17-34(29)45-39)31-16-28-25(8-2)22-46(3)35(37(28)41(48)51-5)18-32-26-11-9-10-12-33(26)44-38(31)32/h8-12,17,19,23-24,28,31,35,37,40,44-45H,7,13-16,18,20-22H2,1-6H3
CH$LINK: INCHIKEY VCMIRXRRQJNZJT-UHFFFAOYSA-N
AC$INSTRUMENT: LC, Waters Acquity UPLC System; MS, Waters Xevo G2 Q-Tof
AC$INSTRUMENT_TYPE: LC-ESI-QTOF
AC$MASS_SPECTROMETRY: MS_TYPE MS2
AC$MASS_SPECTROMETRY: ION_MODE NEGATIVE
AC$MASS_SPECTROMETRY: COLLISION_ENERGY 6V
AC$MASS_SPECTROMETRY: DESOLVATION_GAS_FLOW 800/h
AC$MASS_SPECTROMETRY: DESOLVATION_TEMPERATURE 450 C
AC$MASS_SPECTROMETRY: IONIZATION ESI
AC$CHROMATOGRAPHY: CAPILLARY_VOLTAGE -2.75 kV
AC$CHROMATOGRAPHY: COLUMN_NAME Acquity bridged ethyl hybrid C18 (1.7 um, 2.1 mm * 100 mm, Waters)
AC$CHROMATOGRAPHY: COLUMN_TEMPERATURE 40 C
AC$CHROMATOGRAPHY: FLOW_GRADIENT A/B = (99.5%/0.5% at 0 min, 99.5%/0.5% at 0.1 min, 20%/80% at 10 min, 0.5%/99.5% at 10.1 min, 0.5%/99.5% at 12.0 min, 99.5%/0.5% at 12.1 min, 99.5%/0.5% at 15.0 min)
AC$CHROMATOGRAPHY: FLOW_RATE 0.3 ml/min at 0 min, 0.3 ml/min at 10 min, 0.4 ml/min at 10.1 min, 0.4 ml/min at 14.4 min, 0.3 ml/min at 14.5 min
AC$CHROMATOGRAPHY: RETENTION_TIME 4.938133
AC$CHROMATOGRAPHY: SOLVENT A water including 0.1% formic acid
AC$CHROMATOGRAPHY: SOLVENT B acetonitrile including 0.1% formic acid
MS$FOCUSED_ION: PRECURSOR_TYPE [M-H]-
MS$FOCUSED_ION: PRECURSOR_M/Z 703.38649434783
PK$SPLASH: splash10-0udi-0109461000-d0a79af055f49a768dec
PK$NUM_PEAK: 174
PK$PEAK: m/z int. rel.int.
  132.04315 21.0 21
  142.95827 17.0 17
  152.06638 18.0 18
  154.05666 27.0 27
  158.28276 15.0 15
  159.15657 19.0 19
  165.08633 14.0 14
  167.06259 29.0 29
  169.07184 20.0 20
  171.0576 29.0 29
  171.06725 21.0 21
  182.08482 26.0 26
  185.07132 21.0 21
  193.07297 21.0 21
  196.07114 21.0 21
  196.09164 41.0 41
  224.06215 17.0 17
  226.08344 25.0 25
  249.12852 34.0 34
  250.12518 23.0 23
  286.54291 16.0 16
  287.10428 14.0 14
  292.12476 17.0 17
  293.1626 18.0 18
  295.2048 16.0 16
  299.11176 17.0 17
  302.13232 19.0 19
  304.15338 18.0 18
  305.16318 20.0 20
  311.11829 16.0 16
  313.12915 23.0 23
  314.11093 17.0 17
  320.15555 16.0 16
  323.09436 27.0 27
  323.13678 35.0 35
  327.15512 18.0 18
  328.15335 33.0 33
  334.15439 16.0 16
  334.16876 18.0 18
  336.11694 16.0 16
  340.13785 21.0 21
  340.15787 20.0 20
  341.14322 15.0 15
  346.18405 16.0 16
  349.186 21.0 21
  351.12622 17.0 17
  352.14169 21.0 21
  352.17691 1000.0 999
  352.2294 16.0 16
  353.16376 39.0 39
  353.1853 326.0 326
  353.45242 14.0 14
  354.17459 25.0 25
  354.18839 41.0 41
  355.13055 15.0 15
  356.17941 19.0 19
  366.18967 16.0 16
  367.20023 150.0 150
  368.19281 49.0 49
  369.19562 16.0 16
  376.14273 45.0 45
  379.17828 24.0 24
  379.20642 57.0 57
  380.1915 18.0 18
  380.21716 18.0 18
  381.18079 20.0 20
  381.2092 23.0 23
  392.18991 14.0 14
  405.18063 16.0 16
  408.20404 15.0 15
  408.22672 16.0 16
  416.16339 18.0 18
  420.2153 21.0 21
  433.16479 18.0 18
  434.20523 18.0 18
  435.23911 15.0 15
  436.22937 20.0 20
  437.23428 14.0 14
  443.24841 17.0 17
  445.22287 42.0 42
  446.19061 21.0 21
  446.21991 14.0 14
  448.23138 15.0 15
  448.24957 14.0 14
  457.20505 26.0 26
  458.22571 15.0 15
  460.2345 18.0 18
  461.22546 18.0 18
  462.18848 24.0 24
  462.20023 16.0 16
  463.15884 18.0 18
  464.28735 16.0 16
  474.24008 15.0 15
  475.21924 21.0 21
  477.25461 14.0 14
  478.215 17.0 17
  479.23679 14.0 14
  480.21411 42.0 42
  481.23865 14.0 14
  487.21866 18.0 18
  489.23581 16.0 16
  490.25363 83.0 83
  491.21133 14.0 14
  491.2627 21.0 21
  492.22324 154.0 154
  492.25616 47.0 47
  493.15417 14.0 14
  493.23199 64.0 64
  493.24551 46.0 46
  494.22031 17.0 17
  494.24438 88.0 88
  495.23599 22.0 22
  496.2493 32.0 32
  499.23935 16.0 16
  502.2355 41.0 41
  504.21982 21.0 21
  506.23938 178.0 178
  507.23355 17.0 17
  507.25784 90.0 90
  508.24673 43.0 43
  508.26593 93.0 93
  509.25977 37.0 37
  509.28952 16.0 16
  516.26007 41.0 41
  517.25684 42.0 42
  518.22034 16.0 16
  518.24567 53.0 53
  518.27338 16.0 16
  519.22913 46.0 46
  519.25079 22.0 22
  520.25769 33.0 33
  527.21124 15.0 15
  530.27246 15.0 15
  532.27411 29.0 29
  534.25153 121.0 121
  534.27179 57.0 57
  535.25818 37.0 37
  535.27551 37.0 37
  546.21069 17.0 17
  546.25659 22.0 22
  547.26276 20.0 20
  548.27063 34.0 34
  548.29016 15.0 15
  549.29974 154.0 154
  550.24878 17.0 17
  550.2818 77.0 77
  550.29901 54.0 54
  552.34229 25.0 25
  558.2356 14.0 14
  560.25537 25.0 25
  572.29865 16.0 16
  576.23822 17.0 17
  578.26422 14.0 14
  584.26514 21.0 21
  594.27087 16.0 16
  598.33807 22.0 22
  599.32043 15.0 15
  615.31116 30.0 30
  626.27826 16.0 16
  629.3429 18.0 18
  630.34363 14.0 14
  640.36127 16.0 16
  641.33173 18.0 18
  642.31696 36.0 36
  656.33649 26.0 26
  671.36279 14.0 14
  671.383 18.0 18
  672.35626 25.0 25
  672.37909 14.0 14
  675.33734 18.0 18
  688.34332 65.0 65
  688.36914 38.0 38
  689.37683 17.0 17
  691.36652 14.0 14
//
