ACCESSION: MSBNK-RIKEN-PR100414
RECORD_TITLE: ParaXanthine; LC-ESI-QTOF; MS2; CE:Ramp 5-60 V; [M+H]+
DATE: 2016.01.19 (Created 2009.09.10, modified 2011.05.06)
AUTHORS: Matsuda F, Suzuki M, Sawada Y, Plant Science Center, RIKEN.
LICENSE: CC BY-SA
COMMENT: Acquisition and generation of the data is financially supported in part by CREST/JST.
CH$NAME: 1,7-Dimethylxanthine
CH$NAME: ParaXanthine
CH$NAME: 2,6-Dihydroxy-1,7-dimethylpurine
CH$NAME: 1,7-Dimethyl-1H-purine-2,6-dione
CH$COMPOUND_CLASS: Purines
CH$FORMULA: C7H8N4O2
CH$EXACT_MASS: 180.06473
CH$SMILES: O=C(N1)N(C)C(=O)c(n(C)2)c(nc2)1
CH$IUPAC: InChI=1S/C7H8N4O2/c1-10-3-8-5-4(10)6(12)11(2)7(13)9-5/h3H,1-2H3,(H,9,13)
CH$LINK: CAS 611-59-6
CH$LINK: CHEMSPIDER 4525
CH$LINK: KEGG C13747
CH$LINK: PUBCHEM CID:4687
CH$LINK: INCHIKEY QUNWUDVFRNGTCO-UHFFFAOYSA-N
CH$LINK: COMPTOX DTXSID2052281
AC$INSTRUMENT: UPLC Q-Tof Premier, Waters
AC$INSTRUMENT_TYPE: LC-ESI-QTOF
AC$MASS_SPECTROMETRY: MS_TYPE MS2
AC$MASS_SPECTROMETRY: ION_MODE POSITIVE
AC$MASS_SPECTROMETRY: COLLISION_ENERGY Ramp 5-60 V
AC$MASS_SPECTROMETRY: DATAFORMAT Continuum
AC$MASS_SPECTROMETRY: DESOLVATION_GAS_FLOW 600.0 L/Hr
AC$MASS_SPECTROMETRY: DESOLVATION_TEMPERATURE 400 C
AC$MASS_SPECTROMETRY: FRAGMENTATION_METHOD LOW-ENERGY CID
AC$MASS_SPECTROMETRY: IONIZATION ESI
AC$MASS_SPECTROMETRY: SOURCE_TEMPERATURE 120 C
AC$CHROMATOGRAPHY: CAPILLARY_VOLTAGE 3.0 kV
AC$CHROMATOGRAPHY: SAMPLING_CONE 23.0 V
AC$CHROMATOGRAPHY: SOLVENT A CH3CN(0.1%HCOOH)
AC$CHROMATOGRAPHY: SOLVENT B H2O(0.1%HCOOH)
MS$FOCUSED_ION: PRECURSOR_M/Z 181.07252
MS$FOCUSED_ION: PRECURSOR_TYPE [M+H]+
PK$SPLASH: splash10-00e9-1900000000-9d0dde13bb1ce13e2644
PK$NUM_PEAK: 9
PK$PEAK: m/z int. rel.int.
  55.0316 34.29 14
  67.0313 107.3 43
  69.0466 212 85
  96.0575 211 84
  97.0417 43.78 17
  124.0522 2506 999
  142.0635 42.86 17
  163.0631 35.19 14
  181.0725 2346 935
//
