ACCESSION: MSBNK-RIKEN-PR302841
RECORD_TITLE: Hesperetin-7-O-rutinoside; LC-ESI-QTOF; MS2
DATE: 2019.03.28
AUTHORS: Tetsuya Mori, Center for Sustainable Resource Science, RIKEN
LICENSE: CC BY-NC-SA
PUBLICATION: Tsugawa H., Nakabayashi R., Mori T., Yamada Y., Takahashi M., Rai A., Sugiyama R., Yamamoto H., Nakaya T., Yamazaki M., Kooke R., Bac-Molenaar JA., Oztolan-Erol N., Keurentjes JJB., Arita M., Saito K. (2019) "A cheminformatics approach to characterize metabolomes in stable-isotope-labeled organisms" Nature Methods 16(4):295-298. [doi:10.1038/s41592-019-0358-2]
COMMENT: registered in RIKEN PlaSMA
CH$NAME: Hesperidin
CH$NAME: Cirantin
CH$NAME: Hesperidoside
CH$NAME: (2S)-7-[[6-O-(6-Deoxy-alpha-L-mannopyranosyl)-beta-D-glucopyranosyl]oxy]-2,3-dihydro-5-hydroxy-2-(3-hydroxy-4-methoxyphenyl)-4H-1-benzopyran-4-one
CH$NAME: (2S)-5-hydroxy-2-(3-hydroxy-4-methoxy-phenyl)-7-[(2S,3R,4S,5R,6R)-3,4,5-trihydroxy-6-[[(2R,3R,4R,5S,6S)-3,4,5-trihydroxy-6-methyl-oxan-2-yl]oxymethyl]oxan-2-yl]oxy-chroman-4-one
CH$NAME: Hesp-7-Glc-6pp-Rha
CH$NAME: Hesperetin 7-O-rutinoside
CH$NAME: Hesperetin 7-rhamnoglucoside
CH$COMPOUND_CLASS: Flavonoid-7-O-glycosides
CH$FORMULA: C28H34O15
CH$EXACT_MASS: 610.18977
CH$SMILES: C[C@H]1[C@@H]([C@H]([C@H]([C@@H](O1)OC[C@@H]2[C@H]([C@@H]([C@H]([C@@H](O2)OC3=CC(=C4C(=O)C[C@H](OC4=C3)C5=CC(=C(C=C5)OC)O)O)O)O)O)O)O)O
CH$IUPAC: InChI=1S/C28H34O15/c1-10-21(32)23(34)25(36)27(40-10)39-9-19-22(33)24(35)26(37)28(43-19)41-12-6-14(30)20-15(31)8-17(42-18(20)7-12)11-3-4-16(38-2)13(29)5-11/h3-7,10,17,19,21-30,32-37H,8-9H2,1-2H3/t10-,17-,19+,21-,22+,23+,24-,25+,26+,27+,28+/m0/s1
CH$LINK: CAS 520-26-3
CH$LINK: CHEBI CHEBI:28775
CH$LINK: CHEMSPIDER 10176
CH$LINK: COMPTOX DTXSID9044328
CH$LINK: INCHIKEY QUQPHWDTPGMPEX-QJBIFVCTSA-N
CH$LINK: KEGG C09755
CH$LINK: KNAPSACK C00000970
CH$LINK: NIKKAJI J4.480F
CH$LINK: PUBCHEM CID:10621
AC$INSTRUMENT: LC, Waters Acquity UPLC System; MS, Waters Xevo G2 Q-Tof
AC$INSTRUMENT_TYPE: LC-ESI-QTOF
AC$MASS_SPECTROMETRY: MS_TYPE MS2
AC$MASS_SPECTROMETRY: ION_MODE POSITIVE
AC$MASS_SPECTROMETRY: COLLISION_ENERGY 6V
AC$MASS_SPECTROMETRY: DESOLVATION_GAS_FLOW 800/h
AC$MASS_SPECTROMETRY: DESOLVATION_TEMPERATURE 450 C
AC$MASS_SPECTROMETRY: IONIZATION ESI
AC$CHROMATOGRAPHY: CAPILLARY_VOLTAGE +3.00 kV
AC$CHROMATOGRAPHY: COLUMN_NAME Acquity bridged ethyl hybrid C18 (1.7 um, 2.1 mm * 100 mm, Waters)
AC$CHROMATOGRAPHY: COLUMN_TEMPERATURE 40 C
AC$CHROMATOGRAPHY: FLOW_GRADIENT A/B = (99.5%/0.5% at 0 min, 99.5%/0.5% at 0.1 min, 20%/80% at 10 min, 0.5%/99.5% at 10.1 min, 0.5%/99.5% at 12.0 min, 99.5%/0.5% at 12.1 min, 99.5%/0.5% at 15.0 min)
AC$CHROMATOGRAPHY: FLOW_RATE 0.3 ml/min at 0 min, 0.3 ml/min at 10 min, 0.4 ml/min at 10.1 min, 0.4 ml/min at 14.4 min, 0.3 ml/min at 14.5 min
AC$CHROMATOGRAPHY: RETENTION_TIME 4.507534
AC$CHROMATOGRAPHY: SOLVENT A water including 0.1% formic acid
AC$CHROMATOGRAPHY: SOLVENT B acetonitrile including 0.1% formic acid
MS$FOCUSED_ION: PRECURSOR_TYPE [M+H]+
MS$FOCUSED_ION: PRECURSOR_M/Z 611.1970468
PK$SPLASH: splash10-0udi-0229601000-ba4d4e7ad971d007ffff
PK$NUM_PEAK: 114
PK$PEAK: m/z int. rel.int.
  71.04735 14.0 14
  85.01654 7.0 7
  85.02318 14.0 14
  85.03222 25.0 25
  129.04692 19.0 19
  129.06209 41.0 41
  137.05888 10.0 10
  147.06218 8.0 8
  153.00699 11.0 11
  153.02127 52.0 52
  154.00914 9.0 9
  163.05403 10.0 10
  177.01201 9.0 9
  177.02412 15.0 15
  177.04384 10.0 10
  177.05829 26.0 26
  179.03159 13.0 13
  191.03595 18.0 18
  195.01018 8.0 8
  195.02905 124.0 124
  207.02213 14.0 14
  215.67276 12.0 12
  217.04646 13.0 13
  217.05696 14.0 14
  217.93845 9.0 9
  219.0358 9.0 9
  219.59036 15.0 15
  245.04633 42.0 42
  258.38208 15.0 15
  262.04138 12.0 12
  262.05798 10.0 10
  263.05719 55.0 55
  281.06284 26.0 26
  281.07159 66.0 66
  282.08279 7.0 7
  285.02454 7.0 7
  285.08044 11.0 11
  297.31598 7.0 7
  301.07404 9.0 9
  303.02231 8.0 8
  303.05862 43.0 43
  303.08838 1000.0 999
  304.07681 20.0 20
  304.09647 125.0 125
  305.08386 7.0 7
  311.06537 12.0 12
  315.02893 8.0 8
  315.07294 10.0 10
  315.08499 38.0 38
  315.10159 8.0 8
  319.70038 10.0 10
  327.08365 19.0 19
  328.6326 17.0 17
  335.10242 8.0 8
  343.0835 8.0 8
  345.10083 37.0 37
  346.10272 23.0 23
  369.09604 48.0 48
  381.08789 8.0 8
  393.11011 8.0 8
  395.10751 7.0 7
  395.12448 8.0 8
  396.10828 16.0 16
  400.10104 8.0 8
  411.09134 10.0 10
  411.11133 11.0 11
  413.08118 8.0 8
  413.11975 50.0 50
  413.14624 10.0 10
  414.12634 31.0 31
  415.14572 13.0 13
  429.10443 7.0 7
  429.12354 9.0 9
  431.08063 8.0 8
  431.13327 76.0 76
  431.1618 8.0 8
  432.13959 7.0 7
  434.13464 10.0 10
  438.12274 12.0 12
  447.08966 8.0 8
  447.1088 23.0 23
  447.13367 34.0 34
  448.11917 7.0 7
  448.13495 20.0 20
  449.14471 349.0 349
  449.17715 14.0 14
  450.09995 8.0 8
  450.12747 8.0 8
  450.14322 25.0 25
  450.16101 10.0 10
  451.14059 12.0 12
  453.10696 11.0 11
  465.13434 88.0 88
  465.15106 51.0 51
  465.17337 33.0 33
  466.14664 10.0 10
  470.84946 9.0 9
  474.16803 10.0 10
  489.13431 18.0 18
  490.1189 9.0 9
  491.16702 8.0 8
  492.16733 10.0 10
  507.15286 10.0 10
  518.58942 13.0 13
  557.15973 9.0 9
  557.22253 7.0 7
  558.13739 13.0 13
  559.17072 7.0 7
  575.17352 30.0 30
  576.14545 7.0 7
  593.19781 23.0 23
  611.15509 16.0 16
  611.19159 182.0 182
  611.21783 49.0 49
//
