ACCESSION: MSBNK-RIKEN-PR100038
RECORD_TITLE: Putrescine; LC-ESI-QTOF; MS2; CE:Ramp 5-60 V; [M+H]+
DATE: 2016.01.19 (Created 2009.09.10, modified 2011.05.06)
AUTHORS: Matsuda F, Suzuki M, Sawada Y, Plant Science Center, RIKEN.
LICENSE: CC BY-SA
COMMENT: Acquisition and generation of the data is financially supported in part by CREST/JST.
CH$NAME: 1,4-Diaminobutane
CH$NAME: 1,4-Butanediamine
CH$NAME: Putrescine
CH$NAME: Tetramethylenediamine
CH$COMPOUND_CLASS: Diamine
CH$FORMULA: C4H12N2
CH$EXACT_MASS: 88.10005
CH$SMILES: NCCCCN
CH$IUPAC: InChI=1S/C4H12N2/c5-3-1-2-4-6/h1-6H2
CH$LINK: CAS 110-60-1
CH$LINK: CHEMSPIDER 11242434
CH$LINK: KAPPAVIEW KPC00924
CH$LINK: KEGG C00134
CH$LINK: KNAPSACK C00001428
CH$LINK: PUBCHEM CID:1045
CH$LINK: INCHIKEY KIDHWZJUCRJVML-UHFFFAOYSA-N
CH$LINK: COMPTOX DTXSID4041107
AC$INSTRUMENT: UPLC Q-Tof Premier, Waters
AC$INSTRUMENT_TYPE: LC-ESI-QTOF
AC$MASS_SPECTROMETRY: MS_TYPE MS2
AC$MASS_SPECTROMETRY: ION_MODE POSITIVE
AC$MASS_SPECTROMETRY: COLLISION_ENERGY Ramp 5-60 V
AC$MASS_SPECTROMETRY: DATAFORMAT Continuum
AC$MASS_SPECTROMETRY: DESOLVATION_GAS_FLOW 600.0 L/Hr
AC$MASS_SPECTROMETRY: DESOLVATION_TEMPERATURE 400 C
AC$MASS_SPECTROMETRY: FRAGMENTATION_METHOD LOW-ENERGY CID
AC$MASS_SPECTROMETRY: IONIZATION ESI
AC$MASS_SPECTROMETRY: SOURCE_TEMPERATURE 120 C
AC$CHROMATOGRAPHY: CAPILLARY_VOLTAGE 3.0 kV
AC$CHROMATOGRAPHY: SAMPLING_CONE 23.0 V
AC$CHROMATOGRAPHY: SOLVENT A CH3CN(0.1%HCOOH)
AC$CHROMATOGRAPHY: SOLVENT B H2O(0.1%HCOOH)
MS$FOCUSED_ION: PRECURSOR_M/Z 89.10784
MS$FOCUSED_ION: PRECURSOR_TYPE [M+H]+
PK$SPLASH: splash10-000i-9000000000-830221d5ea74a91c32e1
PK$NUM_PEAK: 2
PK$PEAK: m/z int. rel.int.
  72.0827 3.329 137
  89.1078 24.35 999
//
