ACCESSION: MSBNK-RIKEN-PR300479
RECORD_TITLE: Sinomenine; LC-ESI-QTOF; MS2
DATE: 2019.03.28
AUTHORS: Tetsuya Mori, Center for Sustainable Resource Science, RIKEN
LICENSE: CC BY-NC-SA
PUBLICATION: Tsugawa H., Nakabayashi R., Mori T., Yamada Y., Takahashi M., Rai A., Sugiyama R., Yamamoto H., Nakaya T., Yamazaki M., Kooke R., Bac-Molenaar JA., Oztolan-Erol N., Keurentjes JJB., Arita M., Saito K. (2019) "A cheminformatics approach to characterize metabolomes in stable-isotope-labeled organisms" Nature Methods 16(4):295-298. [doi:10.1038/s41592-019-0358-2]
COMMENT: registered in RIKEN PlaSMA
CH$NAME: Sinomenine
CH$COMPOUND_CLASS: Morphinans
CH$FORMULA: C19H23NO4
CH$EXACT_MASS: 329.396
CH$SMILES: COC1=C[C@@H]2[C@@H]3CC4=C(C(O)=C(OC)C=C4)[C@]2(CCN3C)CC1=O
CH$IUPAC: InChI=1S/C19H23NO4/c1-20-7-6-19-10-14(21)16(24-3)9-12(19)13(20)8-11-4-5-15(23-2)18(22)17(11)19/h4-5,9,12-13,22H,6-8,10H2,1-3H3/t12-,13+,19-/m1/s1
CH$LINK: INCHIKEY INYYVPJSBIVGPH-QHRIQVFBSA-N
AC$INSTRUMENT: LC, Waters Acquity UPLC System; MS, Waters Xevo G2 Q-Tof
AC$INSTRUMENT_TYPE: LC-ESI-QTOF
AC$MASS_SPECTROMETRY: MS_TYPE MS2
AC$MASS_SPECTROMETRY: ION_MODE POSITIVE
AC$MASS_SPECTROMETRY: COLLISION_ENERGY 6V
AC$MASS_SPECTROMETRY: DESOLVATION_GAS_FLOW 800/h
AC$MASS_SPECTROMETRY: DESOLVATION_TEMPERATURE 450 C
AC$MASS_SPECTROMETRY: IONIZATION ESI
AC$CHROMATOGRAPHY: CAPILLARY_VOLTAGE +3.00 kV
AC$CHROMATOGRAPHY: COLUMN_NAME Acquity bridged ethyl hybrid C18 (1.7 um, 2.1 mm * 100 mm, Waters)
AC$CHROMATOGRAPHY: COLUMN_TEMPERATURE 40 C
AC$CHROMATOGRAPHY: FLOW_GRADIENT A/B = (99.5%/0.5% at 0 min, 99.5%/0.5% at 0.1 min, 20%/80% at 10 min, 0.5%/99.5% at 10.1 min, 0.5%/99.5% at 12.0 min, 99.5%/0.5% at 12.1 min, 99.5%/0.5% at 15.0 min)
AC$CHROMATOGRAPHY: FLOW_RATE 0.3 ml/min at 0 min, 0.3 ml/min at 10 min, 0.4 ml/min at 10.1 min, 0.4 ml/min at 14.4 min, 0.3 ml/min at 14.5 min
AC$CHROMATOGRAPHY: RETENTION_TIME 3.033383
AC$CHROMATOGRAPHY: SOLVENT A water including 0.1% formic acid
AC$CHROMATOGRAPHY: SOLVENT B acetonitrile including 0.1% formic acid
MS$FOCUSED_ION: PRECURSOR_TYPE [M+H]+
MS$FOCUSED_ION: PRECURSOR_M/Z 330.1699847
PK$SPLASH: splash10-053r-0691000000-2843a055fb6a2ce6afc3
PK$NUM_PEAK: 283
PK$PEAK: m/z int. rel.int.
  58.06634 44.0 44
  59.04764 12.0 12
  60.07883 6.0 6
  91.05485 22.0 22
  96.07941 26.0 26
  101.06332 11.0 11
  108.04943 6.0 6
  108.05762 7.0 7
  111.04131 9.0 9
  115.05953 7.0 7
  119.04764 26.0 26
  119.05647 12.0 12
  123.0747 15.0 15
  123.08257 102.0 102
  124.09299 6.0 6
  125.05504 8.0 8
  125.06631 20.0 20
  135.108 6.0 6
  137.06059 198.0 198
  137.07448 11.0 11
  138.063 21.0 21
  141.07028 12.0 12
  142.06352 6.0 6
  144.05643 16.0 16
  145.06183 14.0 14
  149.06277 10.0 10
  150.08942 40.0 40
  150.09872 15.0 15
  151.07526 190.0 190
  151.0921 7.0 7
  152.06178 19.0 19
  152.08046 29.0 29
  153.07054 206.0 206
  153.08501 7.0 7
  154.07249 21.0 21
  155.0437 8.0 8
  155.08652 10.0 10
  155.09506 12.0 12
  159.08832 12.0 12
  161.0602 18.0 18
  161.07983 11.0 11
  162.06998 5.0 5
  163.08377 7.0 7
  164.0634 8.0 8
  164.07388 17.0 17
  165.07098 72.0 72
  165.11516 24.0 24
  166.07391 11.0 11
  167.08615 70.0 70
  168.05606 99.0 99
  168.06418 26.0 26
  168.07362 8.0 8
  168.09116 10.0 10
  169.06377 13.0 13
  170.0753 7.0 7
  170.09894 12.0 12
  171.0809 21.0 21
  173.05824 17.0 17
  174.0632 14.0 14
  175.07187 19.0 19
  176.06625 8.0 8
  176.07828 5.0 5
  177.06836 55.0 55
  177.08305 12.0 12
  178.07637 12.0 12
  178.08826 58.0 58
  179.05351 18.0 18
  179.08836 118.0 118
  180.05695 30.0 30
  180.08496 11.0 11
  180.09433 23.0 23
  180.11247 5.0 5
  181.06503 948.0 947
  181.09372 10.0 10
  182.05794 21.0 21
  182.07257 190.0 190
  182.09909 7.0 7
  183.04585 17.0 17
  183.0818 55.0 55
  183.0956 5.0 5
  184.04916 10.0 10
  184.05681 8.0 8
  185.06433 8.0 8
  185.09351 15.0 15
  185.10399 13.0 13
  185.99663 6.0 6
  186.07417 6.0 6
  187.07426 122.0 122
  188.08005 15.0 15
  189.07042 6.0 6
  190.08978 7.0 7
  191.07874 10.0 10
  191.08614 16.0 16
  192.05774 24.0 24
  192.10121 26.0 26
  192.11116 19.0 19
  193.06679 103.0 103
  193.10974 140.0 140
  194.07249 28.0 28
  194.11421 16.0 16
  195.04044 6.0 6
  195.08081 404.0 404
  196.0432 16.0 16
  196.05548 19.0 19
  196.08386 96.0 96
  197.05202 14.0 14
  197.06198 7.0 7
  197.08504 15.0 15
  197.09619 48.0 48
  197.10815 8.0 8
  198.06792 74.0 74
  198.07883 18.0 18
  198.08965 12.0 12
  199.05719 6.0 6
  199.06833 20.0 20
  199.07658 62.0 62
  200.06694 8.0 8
  200.07603 9.0 9
  200.08878 6.0 6
  201.06799 6.0 6
  201.08205 5.0 5
  201.09749 12.0 12
  202.06198 10.0 10
  202.07744 9.0 9
  202.09464 8.0 8
  204.08354 7.0 7
  204.10434 6.0 6
  205.05748 9.0 9
  205.06396 26.0 26
  206.06519 6.0 6
  206.0755 11.0 11
  206.15836 8.0 8
  206.99448 6.0 6
  207.01404 8.0 8
  207.04576 683.0 682
  207.08585 103.0 103
  208.03828 50.0 50
  208.0468 81.0 81
  208.05443 72.0 72
  208.07262 7.0 7
  208.08551 31.0 31
  209.06029 379.0 379
  209.0899 21.0 21
  209.10492 21.0 21
  210.0296 5.0 5
  210.04681 6.0 6
  210.06261 86.0 86
  210.07538 22.0 22
  210.08829 5.0 5
  210.10715 5.0 5
  211.05513 5.0 5
  211.06993 75.0 75
  211.0793 122.0 122
  211.0975 7.0 7
  212.07903 52.0 52
  212.09019 37.0 37
  213.0518 18.0 18
  213.06651 10.0 10
  213.09184 378.0 378
  214.0882 31.0 31
  214.09792 43.0 43
  215.06712 12.0 12
  215.10663 8.0 8
  216.04356 10.0 10
  216.07462 6.0 6
  216.10663 6.0 6
  217.08743 5.0 5
  218.06615 8.0 8
  218.07333 8.0 8
  219.08684 7.0 7
  220.11745 8.0 8
  221.06241 11.0 11
  221.09953 6.0 6
  221.10878 6.0 6
  222.06677 11.0 11
  222.07982 7.0 7
  223.05693 17.0 17
  223.07645 694.0 693
  223.11443 5.0 5
  224.04689 22.0 22
  224.06548 21.0 21
  224.08183 175.0 175
  225.0679 7.0 7
  225.08813 58.0 58
  226.04367 6.0 6
  226.0592 21.0 21
  226.06831 37.0 37
  226.08635 26.0 26
  226.09575 33.0 33
  227.07222 81.0 81
  227.10602 63.0 63
  227.11844 12.0 12
  228.07468 22.0 22
  228.10298 12.0 12
  229.11134 39.0 39
  230.09239 28.0 28
  230.11989 32.0 32
  231.10123 40.0 40
  231.11795 12.0 12
  232.13287 7.0 7
  234.07283 5.0 5
  235.0757 86.0 86
  236.07271 7.0 7
  236.08199 19.0 19
  236.14046 5.0 5
  237.06001 6.0 6
  237.0844 12.0 12
  237.0946 42.0 42
  238.08707 15.0 15
  238.12431 7.0 7
  239.0713 749.0 748
  239.10886 61.0 61
  240.06209 15.0 15
  240.07797 153.0 153
  240.10301 19.0 19
  240.11562 15.0 15
  241.04985 12.0 12
  241.08583 357.0 357
  241.11281 7.0 7
  241.12146 6.0 6
  242.05029 7.0 7
  242.08884 71.0 71
  242.11275 16.0 16
  242.12318 10.0 10
  243.05951 6.0 6
  243.08995 8.0 8
  243.11389 23.0 23
  244.11107 7.0 7
  245.10791 29.0 29
  245.12051 117.0 117
  246.11021 7.0 7
  246.12361 10.0 10
  248.09413 11.0 11
  249.08873 8.0 8
  249.10573 9.0 9
  250.08377 7.0 7
  251.07083 8.0 8
  252.07596 10.0 10
  252.08745 14.0 14
  254.09964 19.0 19
  254.12451 8.0 8
  255.0488 8.0 8
  255.0672 18.0 18
  255.10162 187.0 187
  255.13457 8.0 8
  256.07013 16.0 16
  256.10522 41.0 41
  256.12946 9.0 9
  257.07812 20.0 20
  257.10547 11.0 11
  257.12042 39.0 39
  258.0921 23.0 23
  258.11981 5.0 5
  265.10211 6.0 6
  266.09238 7.0 7
  266.12909 7.0 7
  267.09802 13.0 13
  267.11166 13.0 13
  268.10522 15.0 15
  269.07846 19.0 19
  269.09262 8.0 8
  269.10834 6.0 6
  269.12045 22.0 22
  270.08826 16.0 16
  270.10071 8.0 8
  270.12772 9.0 9
  270.15338 39.0 39
  271.10086 25.0 25
  272.09464 8.0 8
  273.10004 11.0 11
  273.12128 5.0 5
  274.11255 25.0 25
  281.12115 20.0 20
  281.1322 7.0 7
  283.09619 11.0 11
  284.09692 11.0 11
  296.13025 5.0 5
  298.15768 5.0 5
  300.11636 17.0 17
  315.14291 16.0 16
  330.11823 11.0 11
  330.17078 1000.0 999
  330.20071 8.0 8
//
