ACCESSION: MSBNK-RIKEN-PR300711
RECORD_TITLE: Vincanidine; LC-ESI-QTOF; MS2
DATE: 2019.03.28
AUTHORS: Tetsuya Mori, Center for Sustainable Resource Science, RIKEN
LICENSE: CC BY-NC-SA
PUBLICATION: Tsugawa H., Nakabayashi R., Mori T., Yamada Y., Takahashi M., Rai A., Sugiyama R., Yamamoto H., Nakaya T., Yamazaki M., Kooke R., Bac-Molenaar JA., Oztolan-Erol N., Keurentjes JJB., Arita M., Saito K. (2019) "A cheminformatics approach to characterize metabolomes in stable-isotope-labeled organisms" Nature Methods 16(4):295-298. [doi:10.1038/s41592-019-0358-2]
COMMENT: registered in RIKEN PlaSMA
CH$NAME: Vincanidine
CH$COMPOUND_CLASS: Strychnos alkaloids
CH$FORMULA: C19H20N2O2
CH$EXACT_MASS: 308.381
CH$SMILES: C\C=C1\CN2CC[C@@]34[C@@H]2C[C@@H]1C(C=O)=C3NC1=C4C=CC=C1O
CH$IUPAC: InChI=1S/C19H20N2O2/c1-2-11-9-21-7-6-19-14-4-3-5-15(23)17(14)20-18(19)13(10-22)12(11)8-16(19)21/h2-5,10,12,16,20,23H,6-9H2,1H3/b11-2-/t12-,16-,19+/m0/s1
CH$LINK: INCHIKEY JDOFCMASVRMYJU-JYTRXFNOSA-N
AC$INSTRUMENT: LC, Waters Acquity UPLC System; MS, Waters Xevo G2 Q-Tof
AC$INSTRUMENT_TYPE: LC-ESI-QTOF
AC$MASS_SPECTROMETRY: MS_TYPE MS2
AC$MASS_SPECTROMETRY: ION_MODE POSITIVE
AC$MASS_SPECTROMETRY: COLLISION_ENERGY 6V
AC$MASS_SPECTROMETRY: DESOLVATION_GAS_FLOW 800/h
AC$MASS_SPECTROMETRY: DESOLVATION_TEMPERATURE 450 C
AC$MASS_SPECTROMETRY: IONIZATION ESI
AC$CHROMATOGRAPHY: CAPILLARY_VOLTAGE +3.00 kV
AC$CHROMATOGRAPHY: COLUMN_NAME Acquity bridged ethyl hybrid C18 (1.7 um, 2.1 mm * 100 mm, Waters)
AC$CHROMATOGRAPHY: COLUMN_TEMPERATURE 40 C
AC$CHROMATOGRAPHY: FLOW_GRADIENT A/B = (99.5%/0.5% at 0 min, 99.5%/0.5% at 0.1 min, 20%/80% at 10 min, 0.5%/99.5% at 10.1 min, 0.5%/99.5% at 12.0 min, 99.5%/0.5% at 12.1 min, 99.5%/0.5% at 15.0 min)
AC$CHROMATOGRAPHY: FLOW_RATE 0.3 ml/min at 0 min, 0.3 ml/min at 10 min, 0.4 ml/min at 10.1 min, 0.4 ml/min at 14.4 min, 0.3 ml/min at 14.5 min
AC$CHROMATOGRAPHY: RETENTION_TIME 3.37885
AC$CHROMATOGRAPHY: SOLVENT A water including 0.1% formic acid
AC$CHROMATOGRAPHY: SOLVENT B acetonitrile including 0.1% formic acid
MS$FOCUSED_ION: PRECURSOR_TYPE [M+H]+
MS$FOCUSED_ION: PRECURSOR_M/Z 309.1597543
PK$SPLASH: splash10-0ukd-0940000000-535efa7442eb59b4304f
PK$NUM_PEAK: 219
PK$PEAK: m/z int. rel.int.
  68.04745 56.0 56
  75.02691 62.0 62
  79.05741 52.0 52
  81.46814 34.0 34
  91.05396 46.0 46
  93.05893 54.0 54
  93.07729 66.0 66
  102.04746 42.0 42
  105.05428 66.0 66
  105.06247 40.0 40
  106.02969 38.0 38
  107.0455 46.0 46
  107.08136 40.0 40
  115.0438 54.0 54
  115.05224 199.0 199
  115.0575 122.0 122
  116.04979 50.0 50
  116.06454 60.0 60
  117.05695 52.0 52
  117.06582 215.0 215
  118.04069 50.0 50
  118.06541 169.0 169
  119.073 62.0 62
  127.04169 38.0 38
  127.05153 36.0 36
  127.05966 46.0 46
  128.0437 50.0 50
  128.06268 141.0 141
  129.05499 86.0 86
  129.06252 56.0 56
  129.07227 133.0 133
  130.07393 48.0 48
  130.66013 40.0 40
  133.05679 169.0 169
  133.06795 50.0 50
  134.0947 62.0 62
  139.04424 42.0 42
  139.05215 88.0 88
  139.06416 34.0 34
  141.0544 62.0 62
  141.06715 153.0 153
  142.05516 80.0 80
  142.06657 365.0 365
  144.04604 108.0 108
  144.07462 54.0 54
  144.09555 52.0 52
  145.06691 50.0 50
  145.08641 36.0 36
  145.7272 42.0 42
  146.05922 373.0 373
  146.06764 98.0 98
  146.63646 40.0 40
  147.04099 40.0 40
  147.06271 100.0 100
  151.05359 341.0 341
  152.04869 42.0 42
  152.06178 163.0 163
  153.0549 66.0 66
  153.06552 36.0 36
  153.07245 34.0 34
  154.06635 851.0 850
  154.08067 70.0 70
  155.04514 42.0 42
  155.06635 38.0 38
  155.07831 343.0 343
  156.0489 40.0 40
  156.08125 255.0 255
  157.07437 84.0 84
  159.06535 229.0 229
  160.07928 189.0 189
  161.21451 40.0 40
  164.06802 42.0 42
  165.06018 90.0 90
  165.06659 251.0 251
  166.04951 70.0 70
  166.073 215.0 215
  166.6254 52.0 52
  167.04311 52.0 52
  167.05084 56.0 56
  167.06987 448.0 448
  168.04446 64.0 64
  168.07887 339.0 339
  169.07944 211.0 211
  170.03601 50.0 50
  170.06001 161.0 161
  170.06877 64.0 64
  170.07909 36.0 36
  171.05048 46.0 46
  171.06566 281.0 281
  171.07849 42.0 42
  171.09401 40.0 40
  172.05794 46.0 46
  172.06581 211.0 211
  172.07559 72.0 72
  172.08112 34.0 34
  174.08475 40.0 40
  176.06609 78.0 78
  178.07332 293.0 293
  179.07733 159.0 159
  179.09032 98.0 98
  180.06865 36.0 36
  180.07941 122.0 122
  181.07932 197.0 197
  182.10138 42.0 42
  183.06999 249.0 249
  184.0696 92.0 92
  184.08286 118.0 118
  185.07082 116.0 116
  185.07895 127.0 127
  186.08907 54.0 54
  187.06425 72.0 72
  190.06458 311.0 311
  191.0616 44.0 44
  191.0771 408.0 408
  192.02074 40.0 40
  192.07915 464.0 464
  192.09044 56.0 56
  193.06306 36.0 36
  193.07724 133.0 133
  193.08942 157.0 157
  193.83449 46.0 46
  194.07465 36.0 36
  194.09634 261.0 261
  195.06674 84.0 84
  195.09853 108.0 108
  196.07831 1000.0 999
  196.10536 58.0 58
  197.07971 345.0 345
  197.09328 76.0 76
  198.06416 76.0 76
  198.08556 76.0 76
  199.0636 42.0 42
  199.07475 159.0 159
  199.08655 42.0 42
  202.06552 163.0 163
  203.06992 48.0 48
  204.06754 104.0 104
  204.08231 655.0 654
  205.07521 48.0 48
  205.08746 211.0 211
  205.52704 72.0 72
  206.08473 56.0 56
  206.09349 98.0 98
  207.06577 120.0 120
  207.07578 34.0 34
  207.10231 36.0 36
  208.07169 225.0 225
  208.08875 94.0 94
  209.06667 100.0 100
  209.08438 253.0 253
  209.09859 189.0 189
  210.11371 40.0 40
  210.68175 42.0 42
  216.07886 122.0 122
  216.08791 52.0 52
  218.11221 50.0 50
  219.06128 68.0 68
  219.08759 147.0 147
  220.05855 94.0 94
  220.07166 378.0 378
  220.08096 337.0 337
  220.10799 54.0 54
  220.12219 42.0 42
  221.06236 122.0 122
  221.08189 139.0 139
  221.09581 52.0 52
  221.13638 40.0 40
  222.07256 44.0 44
  222.07956 84.0 84
  222.09682 478.0 478
  222.11769 46.0 46
  223.06462 34.0 34
  223.08018 42.0 42
  223.0957 141.0 141
  223.10315 44.0 44
  224.08446 104.0 104
  224.1073 137.0 137
  225.0708 40.0 40
  225.1031 197.0 197
  229.05666 40.0 40
  230.05333 40.0 40
  230.09935 34.0 34
  233.07179 48.0 48
  233.08215 155.0 155
  233.09383 48.0 48
  233.10748 66.0 66
  234.0676 106.0 106
  234.08577 36.0 36
  234.09685 141.0 141
  235.05969 40.0 40
  235.08598 48.0 48
  235.09863 52.0 52
  235.11308 48.0 48
  236.07271 66.0 66
  236.08925 203.0 203
  236.10638 66.0 66
  237.09409 100.0 100
  237.11073 62.0 62
  238.07634 66.0 66
  239.12573 34.0 34
  241.08197 34.0 34
  246.08296 124.0 124
  246.12532 60.0 60
  247.11143 66.0 66
  248.09969 56.0 56
  248.1301 64.0 64
  250.07324 38.0 38
  251.11943 50.0 50
  252.72783 36.0 36
  255.10049 42.0 42
  256.10971 60.0 60
  259.0853 40.0 40
  260.10724 106.0 106
  261.10651 46.0 46
  264.08554 58.0 58
  265.0701 44.0 44
  265.1427 78.0 78
  272.09793 36.0 36
  309.16251 165.0 165
//
