ACCESSION: MSBNK-RIKEN-PR305818
RECORD_TITLE: isosakuranetin-7-O-rutinoside; LC-ESI-QTOF; MS2
DATE: 2019.03.28
AUTHORS: Tetsuya Mori, Center for Sustainable Resource Science, RIKEN
LICENSE: CC BY-NC-SA
PUBLICATION: Tsugawa H., Nakabayashi R., Mori T., Yamada Y., Takahashi M., Rai A., Sugiyama R., Yamamoto H., Nakaya T., Yamazaki M., Kooke R., Bac-Molenaar JA., Oztolan-Erol N., Keurentjes JJB., Arita M., Saito K. (2019) "A cheminformatics approach to characterize metabolomes in stable-isotope-labeled organisms" Nature Methods 16(4):295-298. [doi:10.1038/s41592-019-0358-2]
COMMENT: registered in RIKEN PlaSMA
CH$NAME: isosakuranetin-7-O-rutinoside
CH$COMPOUND_CLASS: Flavonoid-7-O-glycosides
CH$FORMULA: C28H34O14
CH$EXACT_MASS: 594.566
CH$SMILES: COC1=CC=C(C=C1)C1CC(=O)C2=C(O)C=C(OC3OC(COC4OC(C)C(O)C(O)C4O)C(O)C(O)C3O)C=C2O1
CH$IUPAC: InChI=1S/C28H34O14/c1-11-21(31)23(33)25(35)27(39-11)38-10-19-22(32)24(34)26(36)28(42-19)40-14-7-15(29)20-16(30)9-17(41-18(20)8-14)12-3-5-13(37-2)6-4-12/h3-8,11,17,19,21-29,31-36H,9-10H2,1-2H3
CH$LINK: INCHIKEY RMCRQBAILCLJGU-UHFFFAOYSA-N
AC$INSTRUMENT: LC, Waters Acquity UPLC System; MS, Waters Xevo G2 Q-Tof
AC$INSTRUMENT_TYPE: LC-ESI-QTOF
AC$MASS_SPECTROMETRY: MS_TYPE MS2
AC$MASS_SPECTROMETRY: ION_MODE NEGATIVE
AC$MASS_SPECTROMETRY: COLLISION_ENERGY 6V
AC$MASS_SPECTROMETRY: DESOLVATION_GAS_FLOW 800/h
AC$MASS_SPECTROMETRY: DESOLVATION_TEMPERATURE 450 C
AC$MASS_SPECTROMETRY: IONIZATION ESI
AC$CHROMATOGRAPHY: CAPILLARY_VOLTAGE -2.75 kV
AC$CHROMATOGRAPHY: COLUMN_NAME Acquity bridged ethyl hybrid C18 (1.7 um, 2.1 mm * 100 mm, Waters)
AC$CHROMATOGRAPHY: COLUMN_TEMPERATURE 40 C
AC$CHROMATOGRAPHY: FLOW_GRADIENT A/B = (99.5%/0.5% at 0 min, 99.5%/0.5% at 0.1 min, 20%/80% at 10 min, 0.5%/99.5% at 10.1 min, 0.5%/99.5% at 12.0 min, 99.5%/0.5% at 12.1 min, 99.5%/0.5% at 15.0 min)
AC$CHROMATOGRAPHY: FLOW_RATE 0.3 ml/min at 0 min, 0.3 ml/min at 10 min, 0.4 ml/min at 10.1 min, 0.4 ml/min at 14.4 min, 0.3 ml/min at 14.5 min
AC$CHROMATOGRAPHY: RETENTION_TIME 5.356184
AC$CHROMATOGRAPHY: SOLVENT A water including 0.1% formic acid
AC$CHROMATOGRAPHY: SOLVENT B acetonitrile including 0.1% formic acid
MS$FOCUSED_ION: PRECURSOR_TYPE [M-H]-
MS$FOCUSED_ION: PRECURSOR_M/Z 593.18757934783
PK$SPLASH: splash10-01p9-0970000000-ff3063cfc83515f16fd9
PK$NUM_PEAK: 177
PK$PEAK: m/z int. rel.int.
  58.29285 5.0 5
  66.00457 5.0 5
  73.04742 9.0 9
  83.01042 15.0 15
  83.01489 21.0 21
  84.01353 7.0 7
  85.02482 5.0 5
  86.00257 5.0 5
  93.0318 12.0 12
  97.02779 6.0 6
  107.00732 15.0 15
  107.01208 38.0 38
  108.01971 70.0 70
  108.0263 15.0 15
  115.03826 9.0 9
  117.03416 6.0 6
  119.04909 43.0 43
  120.02168 15.0 15
  121.99722 5.0 5
  122.00397 12.0 12
  122.75179 6.0 6
  124.01194 10.0 10
  124.01831 15.0 15
  125.02669 31.0 31
  126.03074 9.0 9
  127.97103 5.0 5
  130.03973 5.0 5
  131.01587 17.0 17
  133.02528 17.0 17
  133.02977 7.0 7
  136.01434 179.0 179
  137.02371 16.0 16
  138.03185 11.0 11
  145.02687 18.0 18
  149.01701 6.0 6
  149.02419 15.0 15
  150.02818 5.0 5
  151.00197 515.0 514
  152.0047 54.0 54
  156.05345 7.0 7
  156.05956 5.0 5
  157.05885 5.0 5
  158.04109 5.0 5
  160.05457 33.0 33
  162.99402 12.0 12
  163.00435 29.0 29
  163.50804 6.0 6
  163.97392 6.0 6
  164.01009 1000.0 999
  164.02971 5.0 5
  164.04396 6.0 6
  165.01282 95.0 95
  166.01207 6.0 6
  169.06877 13.0 13
  171.05006 6.0 6
  172.03592 7.0 7
  172.05368 10.0 10
  172.82489 8.0 8
  173.05429 5.0 5
  174.24385 6.0 6
  175.00223 111.0 111
  175.07539 135.0 135
  176.01057 6.0 6
  177.01428 10.0 10
  177.02248 15.0 15
  177.05301 6.0 6
  182.06775 6.0 6
  182.07484 5.0 5
  183.03477 6.0 6
  183.04292 6.0 6
  183.05972 6.0 6
  184.04263 7.0 7
  184.05357 17.0 17
  185.05754 6.0 6
  186.02878 62.0 62
  187.03465 49.0 49
  187.04298 16.0 16
  187.99852 6.0 6
  188.00816 30.0 30
  188.04649 28.0 28
  189.02255 8.0 8
  190.02626 6.0 6
  191.03523 6.0 6
  191.84253 6.0 6
  195.08334 9.0 9
  197.06068 34.0 34
  197.08717 7.0 7
  198.06898 79.0 79
  199.07381 68.0 68
  200.07986 8.0 8
  200.08914 7.0 7
  201.05545 107.0 107
  201.07489 7.0 7
  202.05844 28.0 28
  202.07458 7.0 7
  203.0686 23.0 23
  204.06532 5.0 5
  204.07489 6.0 6
  205.01019 5.0 5
  206.02556 8.0 8
  207.0217 6.0 6
  208.29506 7.0 7
  209.05911 6.0 6
  211.07863 11.0 11
  213.08655 6.0 6
  214.05957 8.0 8
  214.06894 6.0 6
  214.088 6.0 6
  214.09531 6.0 6
  215.07466 11.0 11
  217.08513 95.0 95
  220.02679 7.0 7
  223.07376 10.0 10
  224.05058 10.0 10
  225.04944 6.0 6
  225.05667 14.0 14
  226.05765 42.0 42
  226.06667 56.0 56
  227.03047 13.0 13
  227.05304 9.0 9
  228.0368 49.0 49
  228.07631 18.0 18
  229.87883 8.0 8
  236.05617 6.0 6
  238.05806 6.0 6
  238.41737 5.0 5
  239.15662 8.0 8
  240.03941 10.0 10
  241.0484 13.0 13
  241.08441 185.0 185
  242.04585 10.0 10
  242.06102 5.0 5
  242.08913 9.0 9
  243.06557 197.0 197
  244.06947 33.0 33
  244.42186 5.0 5
  245.06563 5.0 5
  248.08592 7.0 7
  249.04718 7.0 7
  251.07736 6.0 6
  253.05737 5.0 5
  255.0284 5.0 5
  255.07153 10.0 10
  256.07614 10.0 10
  257.08688 12.0 12
  265.04636 14.0 14
  266.05432 10.0 10
  267.06412 6.0 6
  268.04245 8.0 8
  269.04507 16.0 16
  269.0535 20.0 20
  269.07642 6.0 6
  270.05136 318.0 318
  270.07977 8.0 8
  271.05508 61.0 61
  272.05386 8.0 8
  276.33853 5.0 5
  278.09473 8.0 8
  283.05984 33.0 33
  284.0636 19.0 19
  284.07697 12.0 12
  285.07681 836.0 835
  286.08093 182.0 182
  287.07083 6.0 6
  287.08484 14.0 14
  293.04291 11.0 11
  294.03726 5.0 5
  294.0611 5.0 5
  295.05908 15.0 15
  299.09763 16.0 16
  309.07312 16.0 16
  309.0853 5.0 5
  310.08926 8.0 8
  312.04935 5.0 5
  319.05991 5.0 5
  327.08585 13.0 13
  404.76776 5.0 5
//
