ACCESSION: MSBNK-RIKEN-PR310451
RECORD_TITLE: Koumine; LC-ESI-QTOF; MS2
DATE: 2019.03.28
AUTHORS: Tetsuya Mori, Center for Sustainable Resource Science, RIKEN
LICENSE: CC BY-NC-SA
PUBLICATION: Tsugawa H., Nakabayashi R., Mori T., Yamada Y., Takahashi M., Rai A., Sugiyama R., Yamamoto H., Nakaya T., Yamazaki M., Kooke R., Bac-Molenaar JA., Oztolan-Erol N., Keurentjes JJB., Arita M., Saito K. (2019) "A cheminformatics approach to characterize metabolomes in stable-isotope-labeled organisms" Nature Methods 16(4):295-298. [doi:10.1038/s41592-019-0358-2]
COMMENT: Annotation level-1
CH$NAME: Koumine
CH$COMPOUND_CLASS: Indole and derivatives
CH$FORMULA: C20H22N2O
CH$EXACT_MASS: 306.409
CH$SMILES: CN1CC2(C=C)C3CC4OCC3C1CC21C4=NC2=CC=CC=C12
CH$IUPAC: InChI=1S/C20H22N2O/c1-3-19-11-22(2)16-9-20(19)13-6-4-5-7-15(13)21-18(20)17-8-14(19)12(16)10-23-17/h3-7,12,14,16-17H,1,8-11H2,2H3
CH$LINK: INCHIKEY VTLYEMHGPMGUOT-UHFFFAOYSA-N
AC$INSTRUMENT: LC, Waters Acquity UPLC System; MS, Waters Xevo G2 Q-Tof
AC$INSTRUMENT_TYPE: LC-ESI-QTOF
AC$MASS_SPECTROMETRY: MS_TYPE MS2
AC$MASS_SPECTROMETRY: ION_MODE POSITIVE
AC$MASS_SPECTROMETRY: COLLISION_ENERGY 6V
AC$MASS_SPECTROMETRY: DESOLVATION_GAS_FLOW 800/h
AC$MASS_SPECTROMETRY: DESOLVATION_TEMPERATURE 450 C
AC$MASS_SPECTROMETRY: IONIZATION ESI
AC$CHROMATOGRAPHY: CAPILLARY_VOLTAGE +3.00 kV
AC$CHROMATOGRAPHY: COLUMN_NAME Acquity bridged ethyl hybrid C18 (1.7 um, 2.1 mm * 100 mm, Waters)
AC$CHROMATOGRAPHY: COLUMN_TEMPERATURE 40 C
AC$CHROMATOGRAPHY: FLOW_GRADIENT A/B = (99.5%/0.5% at 0 min, 99.5%/0.5% at 0.1 min, 20%/80% at 10 min, 0.5%/99.5% at 10.1 min, 0.5%/99.5% at 12.0 min, 99.5%/0.5% at 12.1 min, 99.5%/0.5% at 15.0 min)
AC$CHROMATOGRAPHY: FLOW_RATE 0.3 ml/min at 0 min, 0.3 ml/min at 10 min, 0.4 ml/min at 10.1 min, 0.4 ml/min at 14.4 min, 0.3 ml/min at 14.5 min
AC$CHROMATOGRAPHY: RETENTION_TIME 3.58
AC$CHROMATOGRAPHY: SOLVENT A water including 0.1% formic acid
AC$CHROMATOGRAPHY: SOLVENT B acetonitrile including 0.1% formic acid
MS$FOCUSED_ION: PRECURSOR_TYPE [M+H]+
MS$FOCUSED_ION: PRECURSOR_M/Z 307.18049
PK$SPLASH: splash10-0a4i-0129000000-2dcb7bc1ca80b2c8ef2b
PK$NUM_PEAK: 392
PK$PEAK: m/z int. rel.int.
  58.89013 31.0 0
  67.05457 20.0 0
  70.05737 22.0 0
  70.06549 196.0 3
  71.06329 36.0 1
  71.57173 20.0 0
  79.02378 46.0 1
  79.05083 21.0 0
  79.05921 18.0 0
  80.04417 27.0 0
  82.06738 39.0 1
  84.08802 18.0 0
  86.03797 27.0 0
  86.28302 17.0 0
  87.73074 20.0 0
  93.06174 27.0 0
  94.06543 160.0 2
  95.07102 60.0 1
  96.08185 312.0 5
  100.07499 25.0 0
  101.03912 32.0 0
  105.06174 22.0 0
  105.07233 27.0 0
  106.07084 34.0 1
  107.08553 95.0 1
  108.07748 37.0 1
  108.08413 72.0 1
  109.05884 21.0 0
  109.08017 21.0 0
  109.08871 22.0 0
  116.39763 37.0 1
  117.07323 22.0 0
  118.05839 21.0 0
  119.08984 30.0 0
  120.07866 194.0 3
  121.07986 20.0 0
  122.09627 149.0 2
  123.10134 24.0 0
  124.64356 18.0 0
  125.07177 24.0 0
  126.09019 39.0 1
  127.05224 39.0 1
  128.04929 20.0 0
  129.06316 51.0 1
  129.07176 60.0 1
  130.06754 239.0 4
  131.0685 93.0 1
  131.08215 20.0 0
  132.07584 48.0 1
  132.08377 41.0 1
  133.06958 65.0 1
  133.08633 151.0 2
  134.0939 88.0 1
  134.10582 17.0 0
  135.07784 25.0 0
  135.1057 33.0 1
  141.07561 26.0 0
  143.06636 21.0 0
  143.0872 58.0 1
  144.07655 88.0 1
  144.08209 52.0 1
  145.06195 37.0 1
  145.07539 58.0 1
  145.08299 56.0 1
  146.08447 23.0 0
  146.10175 17.0 0
  146.93413 22.0 0
  147.04504 27.0 0
  147.11212 18.0 0
  148.11176 147.0 2
  148.12265 30.0 0
  149.07999 31.0 0
  153.07118 17.0 0
  154.05986 58.0 1
  154.06673 56.0 1
  154.35001 23.0 0
  155.07144 20.0 0
  155.30348 64.0 1
  156.04887 20.0 0
  156.06958 55.0 1
  156.08023 299.0 5
  156.092 32.0 0
  158.06566 23.0 0
  158.08995 93.0 1
  158.7028 30.0 0
  160.0786 30.0 0
  160.10938 50.0 1
  160.9888 19.0 0
  161.08311 29.0 0
  162.08636 27.0 0
  164.04263 21.0 0
  165.06966 53.0 1
  165.20648 20.0 0
  167.01884 18.0 0
  167.0433 24.0 0
  167.07034 428.0 7
  167.07802 266.0 4
  168.06236 63.0 1
  168.08087 625.0 9
  168.60335 22.0 0
  169.06616 35.0 1
  169.08348 56.0 1
  169.09142 103.0 2
  170.07933 18.0 0
  170.0959 185.0 3
  171.10056 26.0 0
  172.0806 19.0 0
  172.12346 24.0 0
  172.94493 55.0 1
  173.07974 86.0 1
  176.09245 145.0 2
  176.10815 703.0 11
  176.67392 19.0 0
  177.08237 20.0 0
  177.10925 43.0 1
  177.11746 113.0 2
  177.44867 24.0 0
  177.80421 17.0 0
  178.062 43.0 1
  178.12109 33.0 1
  179.07043 79.0 1
  179.08574 16.0 0
  179.11374 24.0 0
  180.0462 23.0 0
  180.06247 27.0 0
  180.07286 357.0 5
  180.08229 876.0 13
  181.05647 20.0 0
  181.08817 1068.0 16
  181.1241 19.0 0
  182.08698 235.0 4
  182.09586 162.0 2
  183.08795 52.0 1
  183.09813 41.0 1
  183.62126 18.0 0
  184.0831 46.0 1
  184.09619 67.0 1
  184.11015 21.0 0
  185.08803 31.0 0
  185.1203 21.0 0
  187.68401 49.0 1
  187.83575 42.0 1
  190.06171 20.0 0
  190.19003 19.0 0
  191.07292 154.0 2
  191.08664 26.0 0
  191.31784 18.0 0
  192.07458 70.0 1
  192.08287 47.0 1
  192.47063 27.0 0
  193.061 28.0 0
  193.0853 187.0 3
  193.10295 81.0 1
  194.07803 67.0 1
  194.08968 301.0 5
  194.09819 573.0 9
  195.095 118.0 2
  195.54938 20.0 0
  196.05489 86.0 1
  196.07608 579.0 9
  196.10506 217.0 3
  196.11867 63.0 1
  196.15962 31.0 0
  197.02322 17.0 0
  197.06044 67.0 1
  197.08551 555.0 8
  197.11218 17.0 0
  197.19417 20.0 0
  198.0714 90.0 1
  198.09021 27.0 0
  198.31047 20.0 0
  199.27855 17.0 0
  201.11415 17.0 0
  201.73276 17.0 0
  202.07582 17.0 0
  202.44229 22.0 0
  203.07433 72.0 1
  203.08548 35.0 1
  204.05569 17.0 0
  204.07082 289.0 4
  204.08206 960.0 15
  205.08499 809.0 12
  205.09541 125.0 2
  205.15596 30.0 0
  206.04094 33.0 1
  206.06584 31.0 0
  206.08037 49.0 1
  206.09477 547.0 8
  206.10217 242.0 4
  207.09358 32.0 0
  207.1039 204.0 3
  207.11844 20.0 0
  207.52966 20.0 0
  208.03542 51.0 1
  208.07462 61.0 1
  208.09137 31.0 0
  208.1001 79.0 1
  208.11099 295.0 4
  208.11772 102.0 2
  209.08067 18.0 0
  209.09447 79.0 1
  209.10808 109.0 2
  209.12234 66.0 1
  209.46713 27.0 0
  210.01761 24.0 0
  210.08875 38.0 1
  210.10629 35.0 1
  210.11673 112.0 2
  210.12987 60.0 1
  210.13885 37.0 1
  211.11374 39.0 1
  211.12946 75.0 1
  212.10699 23.0 0
  212.68216 27.0 0
  214.08173 19.0 0
  215.08917 19.0 0
  215.44936 20.0 0
  216.07968 18.0 0
  217.05345 34.0 1
  217.07033 35.0 1
  217.08894 729.0 11
  218.08192 236.0 4
  218.09758 615.0 9
  218.22153 17.0 0
  219.0746 24.0 0
  219.09312 267.0 4
  219.10434 350.0 5
  219.95094 17.0 0
  220.06604 23.0 0
  220.08118 40.0 1
  220.10101 290.0 4
  220.11465 1694.0 26
  220.75952 21.0 0
  221.08739 72.0 1
  221.10233 185.0 3
  221.11392 296.0 4
  221.12456 65.0 1
  221.88503 24.0 0
  222.07904 35.0 1
  222.08977 64.0 1
  222.11234 112.0 2
  222.1324 213.0 3
  223.11798 144.0 2
  223.13585 72.0 1
  224.0986 25.0 0
  224.1297 76.0 1
  225.05089 21.0 0
  225.11844 22.0 0
  225.13879 265.0 4
  225.16174 36.0 1
  226.11322 25.0 0
  226.12976 44.0 1
  226.13889 76.0 1
  226.14815 24.0 0
  227.65622 18.0 0
  228.07567 21.0 0
  230.04198 21.0 0
  230.07526 49.0 1
  230.0981 350.0 5
  230.10626 148.0 2
  231.07744 17.0 0
  231.09145 72.0 1
  231.10735 358.0 5
  231.12151 48.0 1
  231.35059 49.0 1
  232.0979 61.0 1
  232.10832 147.0 2
  232.11662 183.0 3
  232.33182 17.0 0
  233.08705 17.0 0
  233.09911 99.0 2
  233.11879 146.0 2
  233.85413 18.0 0
  234.10677 31.0 0
  234.12688 185.0 3
  235.09764 97.0 1
  235.11813 188.0 3
  235.13527 84.0 1
  235.14435 20.0 0
  236.12228 125.0 2
  236.13164 142.0 2
  236.14394 90.0 1
  237.06506 32.0 0
  237.1299 20.0 0
  237.17715 20.0 0
  238.08698 25.0 0
  238.12175 1289.0 20
  239.10168 22.0 0
  239.11682 82.0 1
  239.13116 145.0 2
  241.08676 48.0 1
  242.09552 137.0 2
  242.30101 29.0 0
  243.08588 20.0 0
  243.10054 97.0 1
  243.11166 29.0 0
  244.09851 56.0 1
  244.11157 215.0 3
  245.11101 70.0 1
  245.12965 21.0 0
  246.0853 27.0 0
  246.12427 598.0 9
  246.13629 194.0 3
  247.07535 29.0 0
  247.11908 120.0 2
  247.13066 76.0 1
  247.14087 73.0 1
  248.11011 41.0 1
  248.12082 123.0 2
  248.14604 76.0 1
  248.15904 26.0 0
  249.13364 73.0 1
  249.15306 19.0 0
  249.31702 36.0 1
  250.12718 57.0 1
  251.11578 55.0 1
  251.13026 53.0 1
  251.14035 22.0 0
  252.17227 32.0 0
  256.10629 22.0 0
  258.13562 78.0 1
  259.12479 41.0 1
  259.29932 20.0 0
  260.13303 23.0 0
  260.72363 18.0 0
  261.12094 24.0 0
  261.13211 100.0 2
  262.10815 43.0 1
  262.16034 21.0 0
  263.13052 66.0 1
  263.15729 82.0 1
  264.12213 17.0 0
  264.14557 106.0 2
  264.15891 89.0 1
  264.24289 38.0 1
  264.70898 30.0 0
  265.14752 17.0 0
  265.61414 18.0 0
  265.93057 20.0 0
  266.12674 20.0 0
  266.14075 57.0 1
  267.1236 25.0 0
  270.89636 23.0 0
  271.25055 18.0 0
  273.07068 32.0 0
  274.11658 32.0 0
  276.13397 205.0 3
  276.15335 136.0 2
  276.17633 40.0 1
  277.12799 26.0 0
  277.14346 32.0 0
  277.1676 332.0 5
  277.1792 235.0 4
  278.15192 26.0 0
  278.16406 46.0 1
  278.17938 69.0 1
  278.93988 30.0 0
  279.10614 20.0 0
  279.13586 43.0 1
  279.17252 25.0 0
  280.04846 17.0 0
  281.14954 55.0 1
  281.19791 29.0 0
  283.44876 17.0 0
  289.03922 49.0 1
  289.17432 18.0 0
  289.18484 56.0 1
  291.23895 23.0 0
  293.12927 20.0 0
  300.63766 64.0 1
  300.98834 17.0 0
  301.10458 18.0 0
  301.28162 43.0 1
  303.95996 21.0 0
  304.54303 20.0 0
  305.5451 18.0 0
  306.08356 18.0 0
  306.12347 33.0 1
  306.22632 33.0 1
  306.50531 19.0 0
  306.8457 18.0 0
  306.86389 19.0 0
  306.87445 20.0 0
  306.9147 18.0 0
  307.08572 27.0 0
  307.12231 482.0 7
  307.14578 195.0 3
  307.18118 65762.0 999
  307.23236 1871.0 28
  307.27502 52.0 1
  307.29385 19.0 0
  307.32349 21.0 0
//
