ACCESSION: MSBNK-RIKEN-PR310585
RECORD_TITLE: Seneciphyllin; LC-ESI-QTOF; MS2
DATE: 2019.03.28
AUTHORS: Tetsuya Mori, Center for Sustainable Resource Science, RIKEN
LICENSE: CC BY-NC-SA
PUBLICATION: Tsugawa H., Nakabayashi R., Mori T., Yamada Y., Takahashi M., Rai A., Sugiyama R., Yamamoto H., Nakaya T., Yamazaki M., Kooke R., Bac-Molenaar JA., Oztolan-Erol N., Keurentjes JJB., Arita M., Saito K. (2019) "A cheminformatics approach to characterize metabolomes in stable-isotope-labeled organisms" Nature Methods 16(4):295-298. [doi:10.1038/s41592-019-0358-2]
COMMENT: Annotation level-1
CH$NAME: Seneciphyllin
CH$COMPOUND_CLASS: Alkaloids
CH$FORMULA: C18H23NO5
CH$EXACT_MASS: 333.384
CH$SMILES: CC=C1CC(=C)C(C)(O)C(=O)OCC2=CCN3CCC(OC1=O)C23
CH$IUPAC: InChI=1S/C18H23NO5/c1-4-12-9-11(2)18(3,22)17(21)23-10-13-5-7-19-8-6-14(15(13)19)24-16(12)20/h4-5,14-15,22H,2,6-10H2,1,3H3
CH$LINK: INCHIKEY FCEVNJIUIMLVML-UHFFFAOYSA-N
AC$INSTRUMENT: LC, Waters Acquity UPLC System; MS, Waters Xevo G2 Q-Tof
AC$INSTRUMENT_TYPE: LC-ESI-QTOF
AC$MASS_SPECTROMETRY: MS_TYPE MS2
AC$MASS_SPECTROMETRY: ION_MODE POSITIVE
AC$MASS_SPECTROMETRY: COLLISION_ENERGY 6V
AC$MASS_SPECTROMETRY: DESOLVATION_GAS_FLOW 800/h
AC$MASS_SPECTROMETRY: DESOLVATION_TEMPERATURE 450 C
AC$MASS_SPECTROMETRY: IONIZATION ESI
AC$CHROMATOGRAPHY: CAPILLARY_VOLTAGE +3.00 kV
AC$CHROMATOGRAPHY: COLUMN_NAME Acquity bridged ethyl hybrid C18 (1.7 um, 2.1 mm * 100 mm, Waters)
AC$CHROMATOGRAPHY: COLUMN_TEMPERATURE 40 C
AC$CHROMATOGRAPHY: FLOW_GRADIENT A/B = (99.5%/0.5% at 0 min, 99.5%/0.5% at 0.1 min, 20%/80% at 10 min, 0.5%/99.5% at 10.1 min, 0.5%/99.5% at 12.0 min, 99.5%/0.5% at 12.1 min, 99.5%/0.5% at 15.0 min)
AC$CHROMATOGRAPHY: FLOW_RATE 0.3 ml/min at 0 min, 0.3 ml/min at 10 min, 0.4 ml/min at 10.1 min, 0.4 ml/min at 14.4 min, 0.3 ml/min at 14.5 min
AC$CHROMATOGRAPHY: RETENTION_TIME 3.45
AC$CHROMATOGRAPHY: SOLVENT A water including 0.1% formic acid
AC$CHROMATOGRAPHY: SOLVENT B acetonitrile including 0.1% formic acid
MS$FOCUSED_ION: PRECURSOR_TYPE [M+H]+
MS$FOCUSED_ION: PRECURSOR_M/Z 334.1649
PK$SPLASH: splash10-001i-0109000000-5289711c543973d12dc3
PK$NUM_PEAK: 192
PK$PEAK: m/z int. rel.int.
  66.51044 21.0 1
  67.05385 65.0 2
  67.05724 20.0 1
  68.05444 19.0 1
  71.8569 17.0 1
  77.03618 48.0 2
  77.04507 45.0 2
  78.03123 18.0 1
  78.04424 36.0 1
  79.04111 22.0 1
  79.0515 49.0 2
  79.05769 29.0 1
  80.0517 54.0 2
  80.05724 49.0 2
  81.03476 18.0 1
  81.06732 20.0 1
  82.04825 21.0 1
  82.06358 17.0 1
  82.07092 36.0 1
  84.04651 42.0 2
  91.057 133.0 5
  91.06381 45.0 2
  91.59922 17.0 1
  92.04445 24.0 1
  93.05298 30.0 1
  93.06527 62.0 2
  93.0728 147.0 6
  94.05516 18.0 1
  94.06543 566.0 21
  94.06979 284.0 11
  95.06897 55.0 2
  95.08499 70.0 3
  95.08929 44.0 2
  96.076 44.0 2
  96.08131 186.0 7
  96.09047 24.0 1
  96.78593 17.0 1
  97.0906 31.0 1
  101.58846 23.0 1
  103.05065 110.0 4
  103.06239 52.0 2
  104.04342 17.0 1
  105.05434 23.0 1
  105.06698 175.0 7
  106.08001 24.0 1
  107.02772 25.0 1
  107.05232 46.0 2
  107.07494 41.0 2
  107.08439 61.0 2
  107.09393 23.0 1
  108.06181 23.0 1
  108.07844 40.0 2
  108.08709 48.0 2
  109.06502 172.0 7
  109.07452 59.0 2
  110.05544 34.0 1
  110.0662 66.0 2
  110.09019 61.0 2
  110.10244 30.0 1
  110.27039 17.0 1
  111.05944 24.0 1
  111.10013 20.0 1
  113.08774 40.0 2
  118.06721 164.0 6
  118.07465 39.0 1
  118.50661 17.0 1
  119.06702 36.0 1
  119.08021 21.0 1
  119.08772 39.0 1
  120.06077 20.0 1
  120.08128 1209.0 46
  120.11179 18.0 1
  121.06615 43.0 2
  121.08645 37.0 1
  121.09336 82.0 3
  121.54616 19.0 1
  122.09888 268.0 10
  122.24218 19.0 1
  122.54538 17.0 1
  123.08291 138.0 5
  123.08915 57.0 2
  124.08165 20.0 1
  129.0701 24.0 1
  131.08412 25.0 1
  132.07796 37.0 1
  132.08644 17.0 1
  133.04338 42.0 2
  133.06398 31.0 1
  133.06985 98.0 4
  133.09009 23.0 1
  134.06673 19.0 1
  134.0974 37.0 1
  136.07812 68.0 3
  137.06038 20.0 1
  138.08575 182.0 7
  138.09288 796.0 30
  138.1058 48.0 2
  139.09088 17.0 1
  139.09813 21.0 1
  140.10747 45.0 2
  142.07866 20.0 1
  144.07472 19.0 1
  144.09441 21.0 1
  145.68616 43.0 2
  147.06573 20.0 1
  147.12631 20.0 1
  148.0885 30.0 1
  148.11343 21.0 1
  151.0641 40.0 2
  151.0768 168.0 6
  152.07985 22.0 1
  152.3916 26.0 1
  155.08231 22.0 1
  156.08221 47.0 2
  156.10649 20.0 1
  157.06812 24.0 1
  157.10483 25.0 1
  158.09515 38.0 1
  161.08304 21.0 1
  162.12117 23.0 1
  163.10066 35.0 1
  169.10161 18.0 1
  170.09123 48.0 2
  172.11313 24.0 1
  172.13043 28.0 1
  174.13567 18.0 1
  177.103 21.0 1
  179.08931 58.0 2
  183.08308 29.0 1
  184.1154 20.0 1
  186.39041 27.0 1
  189.82097 34.0 1
  191.11351 17.0 1
  191.76472 17.0 1
  191.92212 24.0 1
  192.09988 26.0 1
  192.47063 20.0 1
  197.07851 42.0 2
  200.10768 22.0 1
  201.1272 18.0 1
  202.13217 34.0 1
  202.16153 27.0 1
  203.2469 18.0 1
  205.13506 24.0 1
  207.58652 26.0 1
  208.29727 42.0 2
  216.2074 22.0 1
  219.51666 23.0 1
  222.12238 23.0 1
  222.99237 25.0 1
  223.45135 28.0 1
  230.69324 23.0 1
  231.23033 32.0 1
  234.87727 31.0 1
  236.82585 25.0 1
  238.13351 18.0 1
  241.90692 33.0 1
  243.14314 38.0 1
  243.66696 24.0 1
  246.14346 40.0 2
  246.15172 95.0 4
  247.12865 22.0 1
  260.10303 18.0 1
  269.85544 18.0 1
  274.14206 27.0 1
  274.15414 30.0 1
  279.82004 27.0 1
  288.14227 21.0 1
  288.15598 33.0 1
  288.16965 50.0 2
  289.09836 26.0 1
  289.16714 45.0 2
  290.1496 31.0 1
  290.1738 58.0 2
  291.46783 28.0 1
  305.95438 19.0 1
  306.17218 1347.0 51
  307.13055 18.0 1
  307.14932 24.0 1
  307.17349 102.0 4
  307.19107 74.0 3
  307.3555 30.0 1
  308.1499 18.0 1
  311.13052 17.0 1
  316.53152 17.0 1
  325.89001 20.0 1
  333.85818 21.0 1
  334.0975 38.0 1
  334.11539 46.0 2
  334.12732 87.0 3
  334.16705 26419.0 999
  334.21933 568.0 21
//
