ACCESSION: MSBNK-RIKEN-PR304187
RECORD_TITLE: Triacetyl resveratrol; LC-ESI-QTOF; MS2
DATE: 2019.03.28
AUTHORS: Tetsuya Mori, Center for Sustainable Resource Science, RIKEN
LICENSE: CC BY-NC-SA
PUBLICATION: Tsugawa H., Nakabayashi R., Mori T., Yamada Y., Takahashi M., Rai A., Sugiyama R., Yamamoto H., Nakaya T., Yamazaki M., Kooke R., Bac-Molenaar JA., Oztolan-Erol N., Keurentjes JJB., Arita M., Saito K. (2019) "A cheminformatics approach to characterize metabolomes in stable-isotope-labeled organisms" Nature Methods 16(4):295-298. [doi:10.1038/s41592-019-0358-2]
COMMENT: registered in RIKEN PlaSMA
CH$NAME: Triacetyl resveratrol
CH$COMPOUND_CLASS: Stilbenes
CH$FORMULA: C20H18O6
CH$EXACT_MASS: 354.358
CH$SMILES: CC(=O)OC1=CC=C(\C=C\C2=CC(OC(C)=O)=CC(OC(C)=O)=C2)C=C1
CH$IUPAC: InChI=1S/C20H18O6/c1-13(21)24-18-8-6-16(7-9-18)4-5-17-10-19(25-14(2)22)12-20(11-17)26-15(3)23/h4-12H,1-3H3/b5-4+
CH$LINK: INCHIKEY PDAYUJSOJIMKIS-SNAWJCMRSA-N
AC$INSTRUMENT: LC, Waters Acquity UPLC System; MS, Waters Xevo G2 Q-Tof
AC$INSTRUMENT_TYPE: LC-ESI-QTOF
AC$MASS_SPECTROMETRY: MS_TYPE MS2
AC$MASS_SPECTROMETRY: ION_MODE POSITIVE
AC$MASS_SPECTROMETRY: COLLISION_ENERGY 6V
AC$MASS_SPECTROMETRY: DESOLVATION_GAS_FLOW 800/h
AC$MASS_SPECTROMETRY: DESOLVATION_TEMPERATURE 450 C
AC$MASS_SPECTROMETRY: IONIZATION ESI
AC$CHROMATOGRAPHY: CAPILLARY_VOLTAGE +3.00 kV
AC$CHROMATOGRAPHY: COLUMN_NAME Acquity bridged ethyl hybrid C18 (1.7 um, 2.1 mm * 100 mm, Waters)
AC$CHROMATOGRAPHY: COLUMN_TEMPERATURE 40 C
AC$CHROMATOGRAPHY: FLOW_GRADIENT A/B = (99.5%/0.5% at 0 min, 99.5%/0.5% at 0.1 min, 20%/80% at 10 min, 0.5%/99.5% at 10.1 min, 0.5%/99.5% at 12.0 min, 99.5%/0.5% at 12.1 min, 99.5%/0.5% at 15.0 min)
AC$CHROMATOGRAPHY: FLOW_RATE 0.3 ml/min at 0 min, 0.3 ml/min at 10 min, 0.4 ml/min at 10.1 min, 0.4 ml/min at 14.4 min, 0.3 ml/min at 14.5 min
AC$CHROMATOGRAPHY: RETENTION_TIME 8.4558
AC$CHROMATOGRAPHY: SOLVENT A water including 0.1% formic acid
AC$CHROMATOGRAPHY: SOLVENT B acetonitrile including 0.1% formic acid
MS$FOCUSED_ION: PRECURSOR_TYPE [M+H]+
MS$FOCUSED_ION: PRECURSOR_M/Z 355.1176148
PK$SPLASH: splash10-0aor-1900000000-e22758b5027f052b74b3
PK$NUM_PEAK: 98
PK$PEAK: m/z int. rel.int.
  68.9919 6.0 6
  69.00035 5.0 5
  77.03248 10.0 10
  77.03881 30.0 30
  79.05405 35.0 35
  79.06137 7.0 7
  91.05388 383.0 383
  92.05741 52.0 52
  93.05946 7.0 7
  95.04814 10.0 10
  107.03153 7.0 7
  107.04906 1000.0 999
  108.04883 43.0 43
  108.05408 82.0 82
  109.02241 11.0 11
  109.03086 29.0 29
  111.04144 17.0 17
  111.04838 9.0 9
  115.05436 45.0 45
  116.05566 6.0 6
  117.03297 14.0 14
  117.07027 8.0 8
  119.04655 136.0 136
  120.05806 190.0 190
  121.02917 95.0 95
  121.06585 9.0 9
  122.02909 16.0 16
  122.07065 16.0 16
  123.0456 53.0 53
  127.04697 9.0 9
  127.05502 5.0 5
  128.06303 20.0 20
  129.06856 38.0 38
  129.07906 9.0 9
  131.05106 16.0 16
  131.08037 12.0 12
  133.06693 27.0 27
  135.04376 254.0 254
  136.0518 77.0 77
  139.05273 6.0 6
  141.06293 21.0 21
  141.07114 70.0 70
  142.07564 10.0 10
  143.04727 9.0 9
  143.08104 11.0 11
  145.06158 23.0 23
  145.06789 14.0 14
  147.04059 18.0 18
  151.05833 6.0 6
  152.06029 13.0 13
  153.06895 90.0 90
  153.07628 24.0 24
  154.07225 37.0 37
  154.0811 18.0 18
  155.0836 103.0 103
  155.09909 6.0 6
  156.09065 7.0 7
  157.05415 6.0 6
  157.06433 19.0 19
  157.07384 12.0 12
  158.07697 13.0 13
  159.08655 19.0 19
  160.05067 11.0 11
  164.06729 7.0 7
  165.06482 219.0 219
  165.07259 229.0 229
  166.07578 118.0 118
  167.07169 8.0 8
  167.08018 8.0 8
  168.04753 8.0 8
  168.06052 20.0 20
  169.06128 7.0 7
  173.06049 14.0 14
  178.07756 7.0 7
  181.06509 56.0 56
  182.07132 35.0 35
  183.08072 80.0 80
  187.0703 8.0 8
  190.07976 8.0 8
  193.06073 23.0 23
  193.06949 17.0 17
  195.07405 5.0 5
  197.03651 6.0 6
  197.05038 7.0 7
  199.07149 8.0 8
  199.08624 12.0 12
  209.05891 12.0 12
  210.058 7.0 7
  210.07091 9.0 9
  211.06912 31.0 31
  212.07625 35.0 35
  214.05417 8.0 8
  227.06178 7.0 7
  227.07231 12.0 12
  228.07481 22.0 22
  229.07498 11.0 11
  229.08405 6.0 6
  235.08179 8.0 8
//
