ACCESSION: MSBNK-RIKEN-PR301719
RECORD_TITLE: Chelerythrine; LC-ESI-QTOF; MS2
DATE: 2019.03.28
AUTHORS: Tetsuya Mori, Center for Sustainable Resource Science, RIKEN
LICENSE: CC BY-NC-SA
PUBLICATION: Tsugawa H., Nakabayashi R., Mori T., Yamada Y., Takahashi M., Rai A., Sugiyama R., Yamamoto H., Nakaya T., Yamazaki M., Kooke R., Bac-Molenaar JA., Oztolan-Erol N., Keurentjes JJB., Arita M., Saito K. (2019) "A cheminformatics approach to characterize metabolomes in stable-isotope-labeled organisms" Nature Methods 16(4):295-298. [doi:10.1038/s41592-019-0358-2]
COMMENT: registered in RIKEN PlaSMA
CH$NAME: Chelerythrine
CH$COMPOUND_CLASS: Quaternary benzophenanthridine alkaloids
CH$FORMULA: [C21H18NO4]+
CH$EXACT_MASS: 348.378
CH$SMILES: COC1=C(OC)C2=C[N+](C)=C3C4=CC5=C(OCO5)C=C4C=CC3=C2C=C1
CH$IUPAC: InChI=1S/C21H18NO4/c1-22-10-16-13(6-7-17(23-2)21(16)24-3)14-5-4-12-8-18-19(26-11-25-18)9-15(12)20(14)22/h4-10H,11H2,1-3H3/q+1
CH$LINK: INCHIKEY LLEJIEBFSOEYIV-UHFFFAOYSA-N
AC$INSTRUMENT: LC, Waters Acquity UPLC System; MS, Waters Xevo G2 Q-Tof
AC$INSTRUMENT_TYPE: LC-ESI-QTOF
AC$MASS_SPECTROMETRY: MS_TYPE MS2
AC$MASS_SPECTROMETRY: ION_MODE POSITIVE
AC$MASS_SPECTROMETRY: COLLISION_ENERGY 6V
AC$MASS_SPECTROMETRY: DESOLVATION_GAS_FLOW 800/h
AC$MASS_SPECTROMETRY: DESOLVATION_TEMPERATURE 450 C
AC$MASS_SPECTROMETRY: IONIZATION ESI
AC$CHROMATOGRAPHY: CAPILLARY_VOLTAGE +3.00 kV
AC$CHROMATOGRAPHY: COLUMN_NAME Acquity bridged ethyl hybrid C18 (1.7 um, 2.1 mm * 100 mm, Waters)
AC$CHROMATOGRAPHY: COLUMN_TEMPERATURE 40 C
AC$CHROMATOGRAPHY: FLOW_GRADIENT A/B = (99.5%/0.5% at 0 min, 99.5%/0.5% at 0.1 min, 20%/80% at 10 min, 0.5%/99.5% at 10.1 min, 0.5%/99.5% at 12.0 min, 99.5%/0.5% at 12.1 min, 99.5%/0.5% at 15.0 min)
AC$CHROMATOGRAPHY: FLOW_RATE 0.3 ml/min at 0 min, 0.3 ml/min at 10 min, 0.4 ml/min at 10.1 min, 0.4 ml/min at 14.4 min, 0.3 ml/min at 14.5 min
AC$CHROMATOGRAPHY: RETENTION_TIME 5.30245
AC$CHROMATOGRAPHY: SOLVENT A water including 0.1% formic acid
AC$CHROMATOGRAPHY: SOLVENT B acetonitrile including 0.1% formic acid
MS$FOCUSED_ION: PRECURSOR_TYPE [M]+
MS$FOCUSED_ION: PRECURSOR_M/Z 348.1224859
PK$SPLASH: splash10-0002-0019000000-a7222006df969a7c25c9
PK$NUM_PEAK: 36
PK$PEAK: m/z int. rel.int.
  232.07422 13.0 13
  246.08774 10.0 10
  246.10179 5.0 5
  260.07117 7.0 7
  261.07382 5.0 5
  262.09079 7.0 7
  274.09018 21.0 21
  275.05917 5.0 5
  275.09482 11.0 11
  287.09421 10.0 10
  288.10419 8.0 8
  290.08179 114.0 114
  291.07965 17.0 17
  291.0921 7.0 7
  303.08456 16.0 16
  304.09698 168.0 168
  305.10135 34.0 34
  305.117 7.0 7
  314.08365 7.0 7
  315.08365 19.0 19
  315.09821 8.0 8
  316.05502 14.0 14
  316.07364 9.0 9
  316.09805 35.0 35
  317.05527 6.0 6
  317.06787 8.0 8
  317.10931 12.0 12
  318.07776 74.0 74
  319.08102 20.0 20
  330.07422 27.0 27
  330.08609 14.0 14
  332.09174 277.0 277
  333.09775 190.0 190
  334.10229 40.0 40
  348.12344 1000.0 999
  348.17651 17.0 17
//
