ACCESSION: MSBNK-RIKEN-PR309300
RECORD_TITLE: Apigenin 6-C-glucoside 8-C-arabinoside; LC-ESI-QTOF; MS2
DATE: 2019.03.28
AUTHORS: Tetsuya Mori, Center for Sustainable Resource Science, RIKEN
LICENSE: CC BY-NC-SA
PUBLICATION: Tsugawa H., Nakabayashi R., Mori T., Yamada Y., Takahashi M., Rai A., Sugiyama R., Yamamoto H., Nakaya T., Yamazaki M., Kooke R., Bac-Molenaar JA., Oztolan-Erol N., Keurentjes JJB., Arita M., Saito K. (2019) "A cheminformatics approach to characterize metabolomes in stable-isotope-labeled organisms" Nature Methods 16(4):295-298. [doi:10.1038/s41592-019-0358-2]
COMMENT: Annotation level-1
CH$NAME: Apigenin 6-C-glucoside 8-C-arabinoside
CH$COMPOUND_CLASS: Flavone C,C-glycosides
CH$FORMULA: C26H28O14
CH$EXACT_MASS: 564.496
CH$SMILES: OCC1OC(C(O)C1O)C1=C2OC(=CC(=O)C2=C(O)C(C2OC(CO)C(O)C(O)C2O)=C1O)C1=CC=C(O)C=C1
CH$IUPAC: InChI=1S/C26H28O14/c27-6-12-17(31)21(35)23(37)25(39-12)15-19(33)14-10(30)5-11(8-1-3-9(29)4-2-8)38-24(14)16(20(15)34)26-22(36)18(32)13(7-28)40-26/h1-5,12-13,17-18,21-23,25-29,31-37H,6-7H2
CH$LINK: INCHIKEY TUIJPUWSXVFWSH-UHFFFAOYSA-N
AC$INSTRUMENT: LC, Waters Acquity UPLC System; MS, Waters Xevo G2 Q-Tof
AC$INSTRUMENT_TYPE: LC-ESI-QTOF
AC$MASS_SPECTROMETRY: MS_TYPE MS2
AC$MASS_SPECTROMETRY: ION_MODE NEGATIVE
AC$MASS_SPECTROMETRY: COLLISION_ENERGY 6V
AC$MASS_SPECTROMETRY: DESOLVATION_GAS_FLOW 800/h
AC$MASS_SPECTROMETRY: DESOLVATION_TEMPERATURE 450 C
AC$MASS_SPECTROMETRY: IONIZATION ESI
AC$CHROMATOGRAPHY: CAPILLARY_VOLTAGE +3.00 kV
AC$CHROMATOGRAPHY: COLUMN_NAME Acquity bridged ethyl hybrid C18 (1.7 um, 2.1 mm * 100 mm, Waters)
AC$CHROMATOGRAPHY: COLUMN_TEMPERATURE 40 C
AC$CHROMATOGRAPHY: FLOW_GRADIENT A/B = (99.5%/0.5% at 0 min, 99.5%/0.5% at 0.1 min, 20%/80% at 10 min, 0.5%/99.5% at 10.1 min, 0.5%/99.5% at 12.0 min, 99.5%/0.5% at 12.1 min, 99.5%/0.5% at 15.0 min)
AC$CHROMATOGRAPHY: FLOW_RATE 0.3 ml/min at 0 min, 0.3 ml/min at 10 min, 0.4 ml/min at 10.1 min, 0.4 ml/min at 14.4 min, 0.3 ml/min at 14.5 min
AC$CHROMATOGRAPHY: RETENTION_TIME 3.55
AC$CHROMATOGRAPHY: SOLVENT A water including 0.1% formic acid
AC$CHROMATOGRAPHY: SOLVENT B acetonitrile including 0.1% formic acid
MS$FOCUSED_ION: PRECURSOR_TYPE [M-H]-
MS$FOCUSED_ION: PRECURSOR_M/Z 563.14063
PK$SPLASH: splash10-03di-0016390000-6edcaf7de9603ef4bde4
PK$NUM_PEAK: 134
PK$PEAK: m/z int. rel.int.
  110.04231 35.0 6
  161.02446 19.0 3
  177.05817 27.0 4
  182.86919 20.0 3
  195.11655 23.0 4
  221.0304 23.0 4
  221.04633 22.0 4
  225.05185 54.0 9
  249.03252 23.0 4
  257.03638 24.0 4
  262.04709 27.0 4
  262.06296 18.0 3
  269.08701 19.0 3
  271.04089 34.0 6
  281.06494 25.0 4
  282.05203 21.0 3
  283.05054 49.0 8
  283.06357 21.0 3
  285.06631 22.0 4
  294.0686 21.0 3
  295.06067 41.0 7
  295.64963 24.0 4
  295.87335 18.0 3
  296.0614 22.0 4
  296.07248 20.0 3
  297.07254 302.0 50
  298.07632 97.0 16
  298.33777 27.0 4
  304.67676 21.0 3
  307.05927 84.0 14
  309.08191 25.0 4
  309.68701 27.0 4
  311.05087 40.0 7
  319.0318 20.0 3
  321.02496 20.0 3
  321.07611 29.0 5
  322.05289 23.0 4
  323.04553 18.0 3
  323.06061 79.0 13
  324.04773 18.0 3
  324.0722 29.0 5
  325.05237 22.0 4
  325.07339 62.0 10
  326.06491 19.0 3
  326.58868 22.0 4
  331.2655 32.0 5
  335.05969 42.0 7
  337.06003 50.0 8
  338.06122 22.0 4
  338.07315 21.0 3
  339.07178 18.0 3
  341.06857 55.0 9
  341.08398 36.0 6
  347.06171 18.0 3
  351.07315 24.0 4
  351.09375 26.0 4
  351.78561 20.0 3
  352.05054 33.0 5
  352.07016 31.0 5
  352.99271 19.0 3
  353.06549 1365.0 225
  354.06238 144.0 24
  354.07419 85.0 14
  355.05441 49.0 8
  355.07718 45.0 7
  355.51797 27.0 4
  361.05249 20.0 3
  365.06226 68.0 11
  366.0614 94.0 16
  367.07715 19.0 3
  368.09027 37.0 6
  371.05908 20.0 3
  373.80759 21.0 3
  379.0567 23.0 4
  379.07025 27.0 4
  379.08252 20.0 3
  381.06949 28.0 5
  381.0975 30.0 5
  383.07684 1152.0 190
  384.08072 197.0 33
  385.06195 23.0 4
  385.08035 87.0 14
  385.11606 28.0 5
  389.0545 21.0 3
  391.08719 27.0 4
  395.05344 24.0 4
  395.07474 145.0 24
  396.0773 71.0 12
  397.0878 28.0 5
  407.056 24.0 4
  408.06998 21.0 3
  413.09 185.0 31
  415.07739 20.0 3
  415.0918 19.0 3
  419.06177 21.0 3
  421.08728 24.0 4
  425.07812 192.0 32
  426.07635 29.0 5
  427.09503 21.0 3
  437.09357 24.0 4
  441.11533 31.0 5
  442.08066 25.0 4
  443.09534 499.0 82
  443.18671 59.0 10
  444.09964 83.0 14
  444.20596 22.0 4
  445.09015 21.0 3
  447.67819 21.0 3
  449.0957 25.0 4
  456.10764 21.0 3
  458.11578 38.0 6
  467.99554 19.0 3
  473.10901 780.0 129
  474.09845 23.0 4
  474.11484 119.0 20
  475.11636 23.0 4
  485.10956 25.0 4
  486.099 21.0 3
  489.3696 18.0 3
  497.08572 21.0 3
  503.09085 20.0 3
  503.10941 59.0 10
  503.12094 26.0 4
  503.23792 23.0 4
  504.11771 26.0 4
  520.67413 34.0 6
  534.13043 22.0 4
  534.64252 28.0 5
  545.12323 70.0 12
  547.13208 24.0 4
  562.93622 31.0 5
  563.05939 20.0 3
  563.07874 20.0 3
  563.13794 6051.0 999
//
