ACCESSION: MSBNK-RIKEN-PR307215
RECORD_TITLE: 4-Methylthiobutyl glucosinolate; LC-ESI-QTOF; MS2
DATE: 2019.03.28
AUTHORS: Tetsuya Mori, Center for Sustainable Resource Science, RIKEN
LICENSE: CC BY-NC-SA
PUBLICATION: Tsugawa H., Nakabayashi R., Mori T., Yamada Y., Takahashi M., Rai A., Sugiyama R., Yamamoto H., Nakaya T., Yamazaki M., Kooke R., Bac-Molenaar JA., Oztolan-Erol N., Keurentjes JJB., Arita M., Saito K. (2019) "A cheminformatics approach to characterize metabolomes in stable-isotope-labeled organisms" Nature Methods 16(4):295-298. [doi:10.1038/s41592-019-0358-2]
COMMENT: registered in RIKEN PlaSMA
CH$NAME: 4-Methylthiobutyl glucosinolate
CH$COMPOUND_CLASS: Alkylglucosinolates
CH$FORMULA: C12H23NO9S3
CH$EXACT_MASS: 421.509
CH$SMILES: CSCCCCC(SC1OC(CO)C(O)C(O)C1O)=NOS(O)(=O)=O
CH$IUPAC: InChI=1S/C12H23NO9S3/c1-23-5-3-2-4-8(13-22-25(18,19)20)24-12-11(17)10(16)9(15)7(6-14)21-12/h7,9-12,14-17H,2-6H2,1H3,(H,18,19,20)
CH$LINK: INCHIKEY GKUMMDFLKGFCKH-UHFFFAOYSA-N
AC$INSTRUMENT: LC, Waters Acquity UPLC System; MS, Waters Xevo G2 Q-Tof
AC$INSTRUMENT_TYPE: LC-ESI-QTOF
AC$MASS_SPECTROMETRY: MS_TYPE MS2
AC$MASS_SPECTROMETRY: ION_MODE NEGATIVE
AC$MASS_SPECTROMETRY: COLLISION_ENERGY 6V
AC$MASS_SPECTROMETRY: DESOLVATION_GAS_FLOW 800/h
AC$MASS_SPECTROMETRY: DESOLVATION_TEMPERATURE 450 C
AC$MASS_SPECTROMETRY: IONIZATION ESI
AC$CHROMATOGRAPHY: CAPILLARY_VOLTAGE -2.75 kV
AC$CHROMATOGRAPHY: COLUMN_NAME Acquity bridged ethyl hybrid C18 (1.7 um, 2.1 mm * 100 mm, Waters)
AC$CHROMATOGRAPHY: COLUMN_TEMPERATURE 40 C
AC$CHROMATOGRAPHY: FLOW_GRADIENT A/B = (99.5%/0.5% at 0 min, 99.5%/0.5% at 0.1 min, 20%/80% at 10 min, 0.5%/99.5% at 10.1 min, 0.5%/99.5% at 12.0 min, 99.5%/0.5% at 12.1 min, 99.5%/0.5% at 15.0 min)
AC$CHROMATOGRAPHY: FLOW_RATE 0.3 ml/min at 0 min, 0.3 ml/min at 10 min, 0.4 ml/min at 10.1 min, 0.4 ml/min at 14.4 min, 0.3 ml/min at 14.5 min
AC$CHROMATOGRAPHY: RETENTION_TIME 2.8739
AC$CHROMATOGRAPHY: SOLVENT A water including 0.1% formic acid
AC$CHROMATOGRAPHY: SOLVENT B acetonitrile including 0.1% formic acid
MS$FOCUSED_ION: PRECURSOR_TYPE [M-H]-
MS$FOCUSED_ION: PRECURSOR_M/Z 420.04621834783
PK$SPLASH: splash10-0002-9000000000-fc75a7ea7dd07e7f9a2c
PK$NUM_PEAK: 25
PK$PEAK: m/z int. rel.int.
  55.0205 15.0 15
  64.97044 13.0 13
  69.03522 18.0 18
  74.99016 341.0 341
  75.96287 12.0 12
  76.98474 21.0 21
  77.29741 9.0 9
  79.95312 39.0 39
  79.9566 76.0 76
  85.02867 10.0 10
  86.02306 10.0 10
  95.9509 535.0 534
  96.96005 1000.0 999
  97.0271 14.0 14
  97.9451 48.0 48
  98.95391 50.0 50
  98.96243 11.0 11
  102.00472 18.0 18
  111.92833 22.0 22
  113.92309 11.0 11
  138.967 24.0 24
  152.98926 12.0 12
  163.02737 11.0 11
  240.99814 10.0 10
  420.0517 21.0 21
//
