ACCESSION: MSBNK-RIKEN-PR300057
RECORD_TITLE: 19S-Methoxytubotaiwine; LC-ESI-QTOF; MS2
DATE: 2019.03.28
AUTHORS: Tetsuya Mori, Center for Sustainable Resource Science, RIKEN
LICENSE: CC BY-NC-SA
PUBLICATION: Tsugawa H., Nakabayashi R., Mori T., Yamada Y., Takahashi M., Rai A., Sugiyama R., Yamamoto H., Nakaya T., Yamazaki M., Kooke R., Bac-Molenaar JA., Oztolan-Erol N., Keurentjes JJB., Arita M., Saito K. (2019) "A cheminformatics approach to characterize metabolomes in stable-isotope-labeled organisms" Nature Methods 16(4):295-298. [doi:10.1038/s41592-019-0358-2]
COMMENT: registered in RIKEN PlaSMA
CH$NAME: 19S-Methoxytubotaiwine
CH$COMPOUND_CLASS: Strychnos alkaloids
CH$FORMULA: C21H26N2O3
CH$EXACT_MASS: 354.45
CH$SMILES: CO[C@H](C)C1[C@H]2N3CC[C@@]22C(NC4=CC=CC=C24)=C([C@H]1CC3)C(=O)OC
CH$IUPAC: InChI=1S/C21H26N2O3/c1-12(25-2)16-13-8-10-23-11-9-21(19(16)23)14-6-4-5-7-15(14)22-18(21)17(13)20(24)26-3/h4-7,12-13,16,19,22H,8-11H2,1-3H3/t12-,13+,16?,19-,21-/m1/s1
CH$LINK: INCHIKEY LTOOPESWVADEAE-JHOCLNBPSA-N
AC$INSTRUMENT: LC, Waters Acquity UPLC System; MS, Waters Xevo G2 Q-Tof
AC$INSTRUMENT_TYPE: LC-ESI-QTOF
AC$MASS_SPECTROMETRY: MS_TYPE MS2
AC$MASS_SPECTROMETRY: ION_MODE POSITIVE
AC$MASS_SPECTROMETRY: COLLISION_ENERGY 6V
AC$MASS_SPECTROMETRY: DESOLVATION_GAS_FLOW 800/h
AC$MASS_SPECTROMETRY: DESOLVATION_TEMPERATURE 450 C
AC$MASS_SPECTROMETRY: IONIZATION ESI
AC$CHROMATOGRAPHY: CAPILLARY_VOLTAGE +3.00 kV
AC$CHROMATOGRAPHY: COLUMN_NAME Acquity bridged ethyl hybrid C18 (1.7 um, 2.1 mm * 100 mm, Waters)
AC$CHROMATOGRAPHY: COLUMN_TEMPERATURE 40 C
AC$CHROMATOGRAPHY: FLOW_GRADIENT A/B = (99.5%/0.5% at 0 min, 99.5%/0.5% at 0.1 min, 20%/80% at 10 min, 0.5%/99.5% at 10.1 min, 0.5%/99.5% at 12.0 min, 99.5%/0.5% at 12.1 min, 99.5%/0.5% at 15.0 min)
AC$CHROMATOGRAPHY: FLOW_RATE 0.3 ml/min at 0 min, 0.3 ml/min at 10 min, 0.4 ml/min at 10.1 min, 0.4 ml/min at 14.4 min, 0.3 ml/min at 14.5 min
AC$CHROMATOGRAPHY: RETENTION_TIME 4.5546
AC$CHROMATOGRAPHY: SOLVENT A water including 0.1% formic acid
AC$CHROMATOGRAPHY: SOLVENT B acetonitrile including 0.1% formic acid
MS$FOCUSED_ION: PRECURSOR_TYPE [M+H]+
MS$FOCUSED_ION: PRECURSOR_M/Z 355.2016192
PK$SPLASH: splash10-00kf-0790000000-d31ceb800f5eb32667e4
PK$NUM_PEAK: 300
PK$PEAK: m/z int. rel.int.
  50.50574 8.0 8
  58.8457 5.0 5
  59.03741 9.0 9
  59.04785 123.0 123
  59.05189 158.0 158
  68.0489 16.0 16
  70.03886 5.0 5
  70.06655 38.0 38
  71.06671 9.0 9
  77.03597 7.0 7
  77.04229 11.0 11
  80.04828 5.0 5
  82.06397 7.0 7
  86.00241 8.0 8
  91.05486 9.0 9
  93.05245 7.0 7
  94.02238 5.0 5
  94.07032 14.0 14
  95.05003 15.0 15
  103.7054 6.0 6
  105.03152 5.0 5
  105.07771 10.0 10
  106.06138 8.0 8
  108.03703 8.0 8
  108.07674 12.0 12
  111.04347 11.0 11
  113.46502 13.0 13
  115.0547 44.0 44
  116.04494 25.0 25
  116.05289 21.0 21
  117.05247 11.0 11
  117.06162 9.0 9
  117.06775 14.0 14
  118.0619 5.0 5
  118.06964 10.0 10
  119.04643 10.0 10
  120.07918 14.0 14
  123.07868 16.0 16
  127.05299 8.0 8
  129.07019 19.0 19
  130.0598 34.0 34
  130.06783 38.0 38
  131.07086 40.0 40
  134.05533 6.0 6
  139.04947 8.0 8
  140.04356 7.0 7
  141.05296 6.0 6
  141.07227 6.0 6
  142.06117 22.0 22
  142.07324 7.0 7
  143.07069 35.0 35
  143.07864 23.0 23
  144.03809 6.0 6
  144.08179 53.0 53
  148.03917 5.0 5
  151.04668 7.0 7
  151.06276 25.0 25
  152.0549 22.0 22
  152.06361 35.0 35
  152.9819 9.0 9
  154.03612 7.0 7
  154.06445 12.0 12
  155.07289 26.0 26
  155.46075 7.0 7
  156.07301 6.0 6
  156.08369 38.0 38
  158.05913 8.0 8
  158.83888 6.0 6
  163.05522 5.0 5
  165.05937 32.0 32
  165.07039 65.0 65
  166.06003 56.0 56
  166.06931 24.0 24
  166.07693 8.0 8
  166.0932 8.0 8
  166.73003 5.0 5
  167.05177 11.0 11
  167.07338 357.0 357
  167.08838 20.0 20
  167.10129 10.0 10
  167.13634 6.0 6
  167.90897 5.0 5
  168.05894 6.0 6
  168.07829 286.0 286
  168.13235 6.0 6
  169.08046 49.0 49
  169.08771 48.0 48
  170.05699 6.0 6
  170.0822 20.0 20
  170.09612 10.0 10
  176.05602 5.0 5
  177.05653 7.0 7
  177.07343 33.0 33
  177.65155 5.0 5
  178.06505 53.0 53
  178.08029 9.0 9
  178.3591 7.0 7
  179.07106 63.0 63
  179.08676 17.0 17
  180.08195 421.0 421
  181.04413 5.0 5
  181.07401 37.0 37
  181.08591 125.0 125
  182.05652 15.0 15
  182.08826 60.0 60
  182.097 57.0 57
  189.06958 14.0 14
  190.06708 14.0 14
  190.07608 24.0 24
  191.02965 7.0 7
  191.06694 106.0 106
  191.07797 107.0 107
  191.15326 17.0 17
  192.04332 7.0 7
  192.05959 21.0 21
  192.07991 338.0 338
  192.69518 6.0 6
  192.96291 5.0 5
  193.05571 10.0 10
  193.07413 26.0 26
  193.09027 564.0 563
  193.56595 5.0 5
  194.06046 74.0 74
  194.07889 37.0 37
  194.09575 1000.0 999
  195.04849 17.0 17
  195.06381 24.0 24
  195.07452 10.0 10
  195.09291 87.0 87
  195.10138 82.0 82
  195.11232 25.0 25
  196.10796 24.0 24
  196.12167 8.0 8
  197.1199 9.0 9
  198.10115 6.0 6
  202.07222 42.0 42
  202.0854 7.0 7
  202.45348 5.0 5
  203.05037 7.0 7
  203.07707 71.0 71
  204.05116 13.0 13
  204.07761 333.0 333
  204.08591 152.0 152
  204.13412 13.0 13
  204.26558 10.0 10
  205.06149 12.0 12
  205.06905 16.0 16
  205.08769 253.0 253
  205.65088 5.0 5
  205.72423 6.0 6
  206.00604 5.0 5
  206.07904 24.0 24
  206.09366 238.0 238
  207.07401 56.0 56
  207.08868 72.0 72
  207.10136 172.0 172
  208.05087 9.0 9
  208.07094 41.0 41
  208.08975 24.0 24
  208.11177 465.0 465
  208.19943 7.0 7
  209.07631 8.0 8
  209.0952 56.0 56
  209.10986 93.0 93
  209.12074 48.0 48
  209.33235 5.0 5
  210.08589 12.0 12
  210.11089 29.0 29
  210.12077 13.0 13
  210.58659 11.0 11
  211.11798 10.0 10
  212.07306 15.0 15
  214.08366 15.0 15
  215.08533 6.0 6
  216.0773 47.0 47
  216.54301 5.0 5
  217.0658 13.0 13
  217.07675 62.0 62
  217.08699 116.0 116
  217.10736 22.0 22
  218.02139 6.0 6
  218.05798 7.0 7
  218.09624 402.0 402
  219.07228 83.0 83
  219.09483 170.0 170
  219.10786 73.0 73
  219.9509 5.0 5
  220.02422 5.0 5
  220.03427 15.0 15
  220.07211 247.0 247
  220.08231 208.0 208
  220.1048 236.0 236
  220.11739 70.0 70
  220.15791 6.0 6
  220.66441 8.0 8
  221.07893 210.0 210
  221.10837 57.0 57
  221.12129 30.0 30
  221.15167 7.0 7
  221.92787 5.0 5
  222.08064 30.0 30
  222.09271 24.0 24
  222.11324 58.0 58
  222.1248 10.0 10
  223.06213 6.0 6
  223.09474 31.0 31
  223.1075 16.0 16
  223.12035 16.0 16
  223.21513 6.0 6
  224.09982 7.0 7
  224.23135 5.0 5
  228.05949 6.0 6
  228.07767 51.0 51
  229.0724 11.0 11
  230.08844 60.0 60
  230.10081 49.0 49
  231.09807 44.0 44
  231.11302 26.0 26
  231.67542 8.0 8
  232.05066 7.0 7
  232.06149 6.0 6
  232.07474 5.0 5
  232.08321 9.0 9
  232.10175 10.0 10
  232.11526 32.0 32
  233.03999 17.0 17
  233.06885 25.0 25
  233.08583 77.0 77
  233.09872 38.0 38
  233.11082 80.0 80
  234.03091 10.0 10
  234.08891 128.0 128
  234.1203 51.0 51
  234.1367 30.0 30
  234.41632 5.0 5
  235.09143 32.0 32
  235.12288 52.0 52
  236.1024 20.0 20
  236.11172 12.0 12
  236.12221 16.0 16
  236.13293 27.0 27
  236.14548 17.0 17
  236.17732 7.0 7
  237.09233 9.0 9
  237.10803 19.0 19
  237.14095 52.0 52
  238.09589 10.0 10
  238.134 10.0 10
  238.15404 9.0 9
  241.07462 7.0 7
  241.08894 6.0 6
  241.10104 5.0 5
  242.18993 6.0 6
  243.08379 6.0 6
  244.07939 37.0 37
  244.09636 10.0 10
  244.11884 18.0 18
  245.08405 24.0 24
  245.83167 9.0 9
  246.00166 7.0 7
  246.06712 26.0 26
  246.09186 310.0 310
  247.06363 10.0 10
  247.08304 40.0 40
  247.09875 140.0 140
  247.1293 33.0 33
  248.08859 21.0 21
  248.10588 47.0 47
  248.12979 13.0 13
  248.81662 11.0 11
  248.87241 8.0 8
  249.08469 12.0 12
  249.10201 44.0 44
  249.11781 8.0 8
  249.14301 6.0 6
  250.12646 6.0 6
  253.01143 7.0 7
  254.13127 11.0 11
  260.11023 17.0 17
  261.09003 5.0 5
  261.10489 15.0 15
  262.12161 16.0 16
  263.10336 15.0 15
  263.11685 64.0 64
  263.14871 31.0 31
  263.16132 6.0 6
  264.10489 9.0 9
  264.15948 10.0 10
  265.11011 6.0 6
  265.13297 14.0 14
  267.10974 6.0 6
  268.11975 5.0 5
  269.12366 6.0 6
  281.13528 7.0 7
  297.62442 9.0 9
  308.11206 8.0 8
  320.88077 7.0 7
  323.18155 26.0 26
  324.17218 13.0 13
  348.78467 7.0 7
//
