ACCESSION: MSBNK-RIKEN-PR303839
RECORD_TITLE: Maslinic acid; LC-ESI-QTOF; MS2
DATE: 2019.03.28
AUTHORS: Tetsuya Mori, Center for Sustainable Resource Science, RIKEN
LICENSE: CC BY-NC-SA
PUBLICATION: Tsugawa H., Nakabayashi R., Mori T., Yamada Y., Takahashi M., Rai A., Sugiyama R., Yamamoto H., Nakaya T., Yamazaki M., Kooke R., Bac-Molenaar JA., Oztolan-Erol N., Keurentjes JJB., Arita M., Saito K. (2019) "A cheminformatics approach to characterize metabolomes in stable-isotope-labeled organisms" Nature Methods 16(4):295-298. [doi:10.1038/s41592-019-0358-2]
COMMENT: registered in RIKEN PlaSMA
CH$NAME: Maslinic acid
CH$COMPOUND_CLASS: Triterpenoids
CH$FORMULA: C30H48O4
CH$EXACT_MASS: 472.71
CH$SMILES: CC1(C)CC[C@@]2(CC[C@]3(C)C(=CC[C@@H]4[C@@]5(C)C[C@@H](O)[C@H](O)C(C)(C)[C@@H]5CC[C@@]34C)[C@@H]2C1)C(O)=O
CH$IUPAC: InChI=1S/C30H48O4/c1-25(2)12-14-30(24(33)34)15-13-28(6)18(19(30)16-25)8-9-22-27(5)17-20(31)23(32)26(3,4)21(27)10-11-29(22,28)7/h8,19-23,31-32H,9-17H2,1-7H3,(H,33,34)/t19-,20+,21-,22+,23-,27-,28+,29+,30-/m0/s1
CH$LINK: INCHIKEY MDZKJHQSJHYOHJ-LLICELPBSA-N
AC$INSTRUMENT: LC, Waters Acquity UPLC System; MS, Waters Xevo G2 Q-Tof
AC$INSTRUMENT_TYPE: LC-ESI-QTOF
AC$MASS_SPECTROMETRY: MS_TYPE MS2
AC$MASS_SPECTROMETRY: ION_MODE POSITIVE
AC$MASS_SPECTROMETRY: COLLISION_ENERGY 6V
AC$MASS_SPECTROMETRY: DESOLVATION_GAS_FLOW 800/h
AC$MASS_SPECTROMETRY: DESOLVATION_TEMPERATURE 450 C
AC$MASS_SPECTROMETRY: IONIZATION ESI
AC$CHROMATOGRAPHY: CAPILLARY_VOLTAGE +3.00 kV
AC$CHROMATOGRAPHY: COLUMN_NAME Acquity bridged ethyl hybrid C18 (1.7 um, 2.1 mm * 100 mm, Waters)
AC$CHROMATOGRAPHY: COLUMN_TEMPERATURE 40 C
AC$CHROMATOGRAPHY: FLOW_GRADIENT A/B = (99.5%/0.5% at 0 min, 99.5%/0.5% at 0.1 min, 20%/80% at 10 min, 0.5%/99.5% at 10.1 min, 0.5%/99.5% at 12.0 min, 99.5%/0.5% at 12.1 min, 99.5%/0.5% at 15.0 min)
AC$CHROMATOGRAPHY: FLOW_RATE 0.3 ml/min at 0 min, 0.3 ml/min at 10 min, 0.4 ml/min at 10.1 min, 0.4 ml/min at 14.4 min, 0.3 ml/min at 14.5 min
AC$CHROMATOGRAPHY: RETENTION_TIME 9.771733
AC$CHROMATOGRAPHY: SOLVENT A water including 0.1% formic acid
AC$CHROMATOGRAPHY: SOLVENT B acetonitrile including 0.1% formic acid
MS$FOCUSED_ION: PRECURSOR_TYPE [M+H]+
MS$FOCUSED_ION: PRECURSOR_M/Z 473.3625365
PK$SPLASH: splash10-05u2-1900000000-f24947b71bce010ae5c7
PK$NUM_PEAK: 46
PK$PEAK: m/z int. rel.int.
  81.06983 138.0 138
  84.08685 113.0 113
  94.07217 138.0 138
  95.08371 805.0 804
  105.0676 107.0 107
  105.0743 560.0 559
  106.07661 220.0 220
  107.08644 296.0 296
  108.0907 107.0 107
  111.1199 126.0 126
  119.08116 239.0 239
  119.08658 1000.0 999
  121.10239 673.0 672
  131.07797 151.0 151
  133.10095 579.0 578
  133.10681 340.0 340
  134.1026 113.0 113
  135.11348 447.0 447
  137.10097 126.0 126
  145.10081 509.0 508
  147.12173 126.0 126
  149.06409 107.0 107
  149.12885 151.0 151
  149.13936 138.0 138
  154.33136 258.0 258
  159.11395 145.0 145
  161.11638 201.0 201
  161.13629 151.0 151
  163.10753 138.0 138
  163.15308 327.0 327
  169.1037 176.0 176
  171.11743 132.0 132
  173.1313 289.0 289
  173.13689 119.0 119
  174.14555 107.0 107
  175.14124 289.0 289
  176.15509 132.0 132
  177.15585 107.0 107
  178.17033 119.0 119
  186.1413 113.0 113
  187.1492 289.0 289
  189.16217 107.0 107
  201.16034 126.0 126
  205.16037 107.0 107
  206.16899 189.0 189
  231.18178 107.0 107
//
