ACCESSION: MSBNK-RIKEN-PR100223
RECORD_TITLE: Apigenin; LC-ESI-QTOF; MS2; CE:Ramp 5-60 V; [M+H]+
DATE: 2016.01.19 (Created 2009.09.10, modified 2011.05.06)
AUTHORS: Matsuda F, Suzuki M, Sawada Y, Plant Science Center, RIKEN.
LICENSE: CC BY-SA
COMMENT: Acquisition and generation of the data is financially supported in part by CREST/JST.
CH$NAME: Apigenin
CH$NAME: Apig
CH$NAME: 4',5,7-trihydroxyflavone
CH$NAME: Apigenol
CH$NAME: Chamomile
CH$NAME: 5,7-Dihydroxy-2-(4-hydroxyphenyl)-4-benzopyrone
CH$NAME: Naringenin Chalcone
CH$COMPOUND_CLASS: Flavonoid
CH$FORMULA: C15H10O5
CH$EXACT_MASS: 270.05282
CH$SMILES: Oc(c3)ccc(c3)C(=C1)Oc(c2)c(c(O)cc(O)2)C(=O)1
CH$IUPAC: InChI=1S/C15H10O5/c16-9-3-1-8(2-4-9)13-7-12(19)15-11(18)5-10(17)6-14(15)20-13/h1-7,16-18H
CH$LINK: CAS 520-36-5
CH$LINK: CHEMSPIDER 4444100
CH$LINK: KEGG C01477
CH$LINK: KNAPSACK C00003817
CH$LINK: PUBCHEM CID:5280443
CH$LINK: INCHIKEY KZNIFHPLKGYRTM-UHFFFAOYSA-N
CH$LINK: COMPTOX DTXSID6022391
AC$INSTRUMENT: UPLC Q-Tof Premier, Waters
AC$INSTRUMENT_TYPE: LC-ESI-QTOF
AC$MASS_SPECTROMETRY: MS_TYPE MS2
AC$MASS_SPECTROMETRY: ION_MODE POSITIVE
AC$MASS_SPECTROMETRY: COLLISION_ENERGY Ramp 5-60 V
AC$MASS_SPECTROMETRY: DATAFORMAT Continuum
AC$MASS_SPECTROMETRY: DESOLVATION_GAS_FLOW 600.0 L/Hr
AC$MASS_SPECTROMETRY: DESOLVATION_TEMPERATURE 400 C
AC$MASS_SPECTROMETRY: FRAGMENTATION_METHOD LOW-ENERGY CID
AC$MASS_SPECTROMETRY: IONIZATION ESI
AC$MASS_SPECTROMETRY: SOURCE_TEMPERATURE 120 C
AC$CHROMATOGRAPHY: CAPILLARY_VOLTAGE 3.0 kV
AC$CHROMATOGRAPHY: SAMPLING_CONE 23.0 V
AC$CHROMATOGRAPHY: SOLVENT A CH3CN(0.1%HCOOH)
AC$CHROMATOGRAPHY: SOLVENT B H2O(0.1%HCOOH)
MS$FOCUSED_ION: PRECURSOR_M/Z 271.06062
MS$FOCUSED_ION: PRECURSOR_TYPE [M+H]+
PK$SPLASH: splash10-00di-0290000000-3406e459293197b27907
PK$NUM_PEAK: 4
PK$PEAK: m/z int. rel.int.
  91.0555 56.75 63
  119.0497 68.55 76
  153.0195 155.9 174
  271.0606 896.7 999
//
