ACCESSION: MSBNK-RIKEN-PR308709
RECORD_TITLE: Chrysanthellin B; LC-ESI-QTOF; MS2
DATE: 2019.03.28
AUTHORS: Tetsuya Mori, Center for Sustainable Resource Science, RIKEN
LICENSE: CC BY-NC-SA
PUBLICATION: Tsugawa H., Nakabayashi R., Mori T., Yamada Y., Takahashi M., Rai A., Sugiyama R., Yamamoto H., Nakaya T., Yamazaki M., Kooke R., Bac-Molenaar JA., Oztolan-Erol N., Keurentjes JJB., Arita M., Saito K. (2019) "A cheminformatics approach to characterize metabolomes in stable-isotope-labeled organisms" Nature Methods 16(4):295-298. [doi:10.1038/s41592-019-0358-2]
COMMENT: Annotation level-1
CH$NAME: Chrysanthellin B
CH$COMPOUND_CLASS: Triterpene saponins
CH$FORMULA: C58H94O26
CH$EXACT_MASS: 1207.364
CH$SMILES: CC1OC(OC2C(O)COC(OC3C(C)OC(OC4C(O)C(O)COC4OC(=O)C45CCC(C)(C)CC4C4=CCC6C7(C)CCC(OC8OC(CO)C(O)C(O)C8O)C(C)(CO)C7CCC6(C)C4(C)CC5O)C(O)C3O)C2O)C(O)C(O)C1O
CH$IUPAC: InChI=1S/C58H94O26/c1-23-34(64)37(67)40(70)48(77-23)82-45-28(62)21-75-47(43(45)73)81-44-24(2)78-49(42(72)39(44)69)83-46-35(65)27(61)20-76-51(46)84-52(74)58-16-15-53(3,4)17-26(58)25-9-10-31-54(5)13-12-33(80-50-41(71)38(68)36(66)29(19-59)79-50)55(6,22-60)30(54)11-14-56(31,7)57(25,8)18-32(58)63/h9,23-24,26-51,59-73H,10-22H2,1-8H3
CH$LINK: INCHIKEY WNGIVKPPGCCJNP-UHFFFAOYSA-N
AC$INSTRUMENT: LC, Waters Acquity UPLC System; MS, Waters Xevo G2 Q-Tof
AC$INSTRUMENT_TYPE: LC-ESI-QTOF
AC$MASS_SPECTROMETRY: MS_TYPE MS2
AC$MASS_SPECTROMETRY: ION_MODE NEGATIVE
AC$MASS_SPECTROMETRY: COLLISION_ENERGY 6V
AC$MASS_SPECTROMETRY: DESOLVATION_GAS_FLOW 800/h
AC$MASS_SPECTROMETRY: DESOLVATION_TEMPERATURE 450 C
AC$MASS_SPECTROMETRY: IONIZATION ESI
AC$CHROMATOGRAPHY: CAPILLARY_VOLTAGE +3.00 kV
AC$CHROMATOGRAPHY: COLUMN_NAME Acquity bridged ethyl hybrid C18 (1.7 um, 2.1 mm * 100 mm, Waters)
AC$CHROMATOGRAPHY: COLUMN_TEMPERATURE 40 C
AC$CHROMATOGRAPHY: FLOW_GRADIENT A/B = (99.5%/0.5% at 0 min, 99.5%/0.5% at 0.1 min, 20%/80% at 10 min, 0.5%/99.5% at 10.1 min, 0.5%/99.5% at 12.0 min, 99.5%/0.5% at 12.1 min, 99.5%/0.5% at 15.0 min)
AC$CHROMATOGRAPHY: FLOW_RATE 0.3 ml/min at 0 min, 0.3 ml/min at 10 min, 0.4 ml/min at 10.1 min, 0.4 ml/min at 14.4 min, 0.3 ml/min at 14.5 min
AC$CHROMATOGRAPHY: RETENTION_TIME 5.78
AC$CHROMATOGRAPHY: SOLVENT A water including 0.1% formic acid
AC$CHROMATOGRAPHY: SOLVENT B acetonitrile including 0.1% formic acid
MS$FOCUSED_ION: PRECURSOR_TYPE [M+HCOO]-
MS$FOCUSED_ION: PRECURSOR_M/Z 1251.60154
PK$SPLASH: splash10-0a4i-0090000000-170b19c37d31eaa7afbf
PK$NUM_PEAK: 75
PK$PEAK: m/z int. rel.int.
  59.01151 19.0 3
  68.13569 18.0 3
  143.03902 22.0 4
  295.08957 22.0 4
  298.69196 20.0 3
  318.53134 22.0 4
  363.12958 40.0 7
  381.14648 19.0 3
  410.30295 35.0 6
  427.22858 23.0 4
  441.16827 102.0 17
  461.80759 25.0 4
  482.89307 24.0 4
  483.15051 26.0 4
  483.16272 69.0 12
  483.18311 183.0 31
  483.20697 17.0 3
  484.14529 24.0 4
  484.19855 20.0 3
  490.60318 18.0 3
  555.18799 72.0 12
  556.22968 28.0 5
  603.00842 29.0 5
  624.31439 20.0 3
  625.22443 20.0 3
  627.80457 40.0 7
  628.29803 21.0 4
  629.7666 25.0 4
  632.69287 18.0 3
  636.53284 20.0 3
  638.90631 23.0 4
  649.38721 116.0 20
  649.42609 18.0 3
  650.39191 22.0 4
  651.40686 40.0 7
  674.36023 19.0 3
  689.16266 18.0 3
  693.41339 20.0 3
  703.80438 21.0 4
  725.92603 18.0 3
  786.56976 29.0 5
  795.95038 20.0 3
  806.63159 19.0 3
  844.18683 20.0 3
  849.62122 18.0 3
  865.77161 19.0 3
  903.67859 20.0 3
  945.57928 18.0 3
  962.76508 20.0 3
  1056.58105 18.0 3
  1059.54138 19.0 3
  1115.55859 103.0 17
  1115.59253 58.0 10
  1116.55334 59.0 10
  1116.59021 57.0 10
  1120.12231 18.0 3
  1122.49756 19.0 3
  1187.62305 19.0 3
  1199.5 18.0 3
  1205.59497 5885.0 999
  1206.42981 18.0 3
  1206.59656 3426.0 582
  1206.68799 38.0 6
  1207.52734 85.0 14
  1207.60474 1436.0 244
  1208.5332 22.0 4
  1208.59363 118.0 20
  1208.62524 77.0 13
  1209.56189 18.0 3
  1209.59253 20.0 3
  1209.63623 43.0 7
  1210.63525 18.0 3
  1211.87439 19.0 3
  1251.58789 368.0 62
  1251.65576 83.0 14
//
