ACCESSION: MSBNK-RIKEN-PR301224
RECORD_TITLE: Seneciphyllin; LC-ESI-QTOF; MS2
DATE: 2019.03.28
AUTHORS: Tetsuya Mori, Center for Sustainable Resource Science, RIKEN
LICENSE: CC BY-NC-SA
PUBLICATION: Tsugawa H., Nakabayashi R., Mori T., Yamada Y., Takahashi M., Rai A., Sugiyama R., Yamamoto H., Nakaya T., Yamazaki M., Kooke R., Bac-Molenaar JA., Oztolan-Erol N., Keurentjes JJB., Arita M., Saito K. (2019) "A cheminformatics approach to characterize metabolomes in stable-isotope-labeled organisms" Nature Methods 16(4):295-298. [doi:10.1038/s41592-019-0358-2]
COMMENT: registered in RIKEN PlaSMA
CH$NAME: Seneciphyllin
CH$COMPOUND_CLASS: Alkaloids and derivatives
CH$FORMULA: C18H23NO5
CH$EXACT_MASS: 333.384
CH$SMILES: C\C=C1\CC(=C)[C@@](C)(O)C(=O)OCC2=CCN3CC[C@@H](OC1=O)[C@@H]23
CH$IUPAC: InChI=1S/C18H23NO5/c1-4-12-9-11(2)18(3,22)17(21)23-10-13-5-7-19-8-6-14(15(13)19)24-16(12)20/h4-5,14-15,22H,2,6-10H2,1,3H3/b12-4-/t14-,15-,18-/m1/s1
CH$LINK: INCHIKEY FCEVNJIUIMLVML-QPSVUOIXSA-N
AC$INSTRUMENT: LC, Waters Acquity UPLC System; MS, Waters Xevo G2 Q-Tof
AC$INSTRUMENT_TYPE: LC-ESI-QTOF
AC$MASS_SPECTROMETRY: MS_TYPE MS2
AC$MASS_SPECTROMETRY: ION_MODE POSITIVE
AC$MASS_SPECTROMETRY: COLLISION_ENERGY 6V
AC$MASS_SPECTROMETRY: DESOLVATION_GAS_FLOW 800/h
AC$MASS_SPECTROMETRY: DESOLVATION_TEMPERATURE 450 C
AC$MASS_SPECTROMETRY: IONIZATION ESI
AC$CHROMATOGRAPHY: CAPILLARY_VOLTAGE +3.00 kV
AC$CHROMATOGRAPHY: COLUMN_NAME Acquity bridged ethyl hybrid C18 (1.7 um, 2.1 mm * 100 mm, Waters)
AC$CHROMATOGRAPHY: COLUMN_TEMPERATURE 40 C
AC$CHROMATOGRAPHY: FLOW_GRADIENT A/B = (99.5%/0.5% at 0 min, 99.5%/0.5% at 0.1 min, 20%/80% at 10 min, 0.5%/99.5% at 10.1 min, 0.5%/99.5% at 12.0 min, 99.5%/0.5% at 12.1 min, 99.5%/0.5% at 15.0 min)
AC$CHROMATOGRAPHY: FLOW_RATE 0.3 ml/min at 0 min, 0.3 ml/min at 10 min, 0.4 ml/min at 10.1 min, 0.4 ml/min at 14.4 min, 0.3 ml/min at 14.5 min
AC$CHROMATOGRAPHY: RETENTION_TIME 3.448167
AC$CHROMATOGRAPHY: SOLVENT A water including 0.1% formic acid
AC$CHROMATOGRAPHY: SOLVENT B acetonitrile including 0.1% formic acid
MS$FOCUSED_ION: PRECURSOR_TYPE [M+H]+
MS$FOCUSED_ION: PRECURSOR_M/Z 334.1648993
PK$SPLASH: splash10-05au-3904000000-9095653cb7a4782f818c
PK$NUM_PEAK: 150
PK$PEAK: m/z int. rel.int.
  65.03907 6.0 6
  67.05443 9.0 9
  67.0603 13.0 13
  68.04853 33.0 33
  69.05843 18.0 18
  77.03241 5.0 5
  77.039 17.0 17
  77.04372 9.0 9
  78.04026 15.0 15
  79.05502 51.0 51
  80.05064 44.0 44
  80.06244 7.0 7
  81.06184 7.0 7
  81.06966 10.0 10
  82.06519 26.0 26
  82.07296 13.0 13
  84.07002 7.0 7
  86.06357 11.0 11
  87.06946 15.0 15
  91.03419 5.0 5
  91.05345 89.0 89
  91.05796 66.0 66
  92.04967 26.0 26
  92.05684 9.0 9
  93.06996 139.0 139
  94.03323 6.0 6
  94.06686 404.0 404
  95.04679 5.0 5
  95.05397 15.0 15
  95.0667 10.0 10
  95.07357 10.0 10
  95.08471 26.0 26
  95.08903 28.0 28
  96.08178 137.0 137
  97.09229 9.0 9
  103.05467 136.0 136
  105.07051 167.0 167
  106.06216 14.0 14
  106.07285 11.0 11
  107.06836 20.0 20
  107.07699 12.0 12
  107.08986 30.0 30
  107.09381 11.0 11
  108.07774 37.0 37
  108.08452 74.0 74
  109.0631 98.0 98
  109.07238 21.0 21
  109.08506 9.0 9
  109.10684 8.0 8
  110.05359 13.0 13
  110.06244 31.0 31
  110.07175 13.0 13
  110.0948 29.0 29
  110.10219 28.0 28
  111.10048 13.0 13
  112.07829 5.0 5
  115.06105 11.0 11
  117.06564 29.0 29
  117.07397 6.0 6
  118.06236 24.0 24
  118.06952 34.0 34
  119.07063 13.0 13
  119.0799 10.0 10
  119.30708 7.0 7
  120.06239 8.0 8
  120.08173 716.0 715
  121.0261 6.0 6
  121.06076 9.0 9
  121.07193 15.0 15
  121.0873 149.0 149
  122.09315 40.0 40
  122.0998 95.0 95
  123.08115 109.0 109
  123.09911 9.0 9
  124.07771 11.0 11
  125.08958 6.0 6
  130.05966 8.0 8
  131.08347 40.0 40
  132.08263 6.0 6
  133.05696 8.0 8
  133.06747 17.0 17
  133.07373 9.0 9
  134.09505 8.0 8
  134.10214 12.0 12
  135.08006 21.0 21
  136.06102 6.0 6
  136.07565 8.0 8
  138.09258 649.0 648
  139.09853 57.0 57
  140.10799 28.0 28
  140.11293 13.0 13
  141.07317 10.0 10
  144.07703 7.0 7
  144.09605 8.0 8
  145.06354 9.0 9
  146.09523 17.0 17
  147.0818 5.0 5
  147.10239 10.0 10
  147.11862 19.0 19
  148.09505 7.0 7
  148.11266 10.0 10
  149.12514 13.0 13
  149.51656 7.0 7
  151.07628 193.0 193
  153.25758 6.0 6
  156.10332 19.0 19
  157.10411 9.0 9
  157.11659 8.0 8
  157.95381 14.0 14
  163.06912 6.0 6
  164.34378 6.0 6
  165.86476 5.0 5
  168.09422 6.0 6
  172.10345 5.0 5
  172.11623 5.0 5
  174.12955 16.0 16
  175.07428 6.0 6
  179.07104 5.0 5
  179.08249 5.0 5
  185.09924 9.0 9
  186.092 6.0 6
  193.04601 6.0 6
  194.11777 6.0 6
  197.07761 9.0 9
  204.14697 8.0 8
  208.17184 6.0 6
  211.10072 6.0 6
  220.90413 5.0 5
  224.11798 6.0 6
  226.11688 7.0 7
  226.13206 9.0 9
  239.14223 7.0 7
  241.42612 5.0 5
  244.17493 6.0 6
  246.14626 23.0 23
  274.13876 6.0 6
  274.15662 14.0 14
  288.15738 30.0 30
  288.17355 9.0 9
  290.17441 6.0 6
  306.13632 7.0 7
  306.16132 128.0 128
  306.17249 387.0 387
  307.15793 12.0 12
  307.17841 105.0 105
  308.16611 8.0 8
  308.18463 13.0 13
  316.16336 10.0 10
  334.1181 11.0 11
  334.16623 1000.0 999
//
