ACCESSION: MSBNK-RIKEN-PR305519
RECORD_TITLE: Kaempferol-3-O-glucoside; LC-ESI-QTOF; MS2
DATE: 2019.03.28
AUTHORS: Tetsuya Mori, Center for Sustainable Resource Science, RIKEN
LICENSE: CC BY-NC-SA
PUBLICATION: Tsugawa H., Nakabayashi R., Mori T., Yamada Y., Takahashi M., Rai A., Sugiyama R., Yamamoto H., Nakaya T., Yamazaki M., Kooke R., Bac-Molenaar JA., Oztolan-Erol N., Keurentjes JJB., Arita M., Saito K. (2019) "A cheminformatics approach to characterize metabolomes in stable-isotope-labeled organisms" Nature Methods 16(4):295-298. [doi:10.1038/s41592-019-0358-2]
COMMENT: registered in RIKEN PlaSMA
CH$NAME: Kaempferol-3-O-glucoside
CH$COMPOUND_CLASS: Flavonoid-3-O-glycosides
CH$FORMULA: C21H20O11
CH$EXACT_MASS: 448.38
CH$SMILES: OCC1OC(OC2=C(OC3=CC(O)=CC(O)=C3C2=O)C2=CC=C(O)C=C2)C(O)C(O)C1O
CH$IUPAC: InChI=1S/C21H20O11/c22-7-13-15(26)17(28)18(29)21(31-13)32-20-16(27)14-11(25)5-10(24)6-12(14)30-19(20)8-1-3-9(23)4-2-8/h1-6,13,15,17-18,21-26,28-29H,7H2
CH$LINK: INCHIKEY JPUKWEQWGBDDQB-UHFFFAOYSA-N
AC$INSTRUMENT: LC, Waters Acquity UPLC System; MS, Waters Xevo G2 Q-Tof
AC$INSTRUMENT_TYPE: LC-ESI-QTOF
AC$MASS_SPECTROMETRY: MS_TYPE MS2
AC$MASS_SPECTROMETRY: ION_MODE NEGATIVE
AC$MASS_SPECTROMETRY: COLLISION_ENERGY 6V
AC$MASS_SPECTROMETRY: DESOLVATION_GAS_FLOW 800/h
AC$MASS_SPECTROMETRY: DESOLVATION_TEMPERATURE 450 C
AC$MASS_SPECTROMETRY: IONIZATION ESI
AC$CHROMATOGRAPHY: CAPILLARY_VOLTAGE -2.75 kV
AC$CHROMATOGRAPHY: COLUMN_NAME Acquity bridged ethyl hybrid C18 (1.7 um, 2.1 mm * 100 mm, Waters)
AC$CHROMATOGRAPHY: COLUMN_TEMPERATURE 40 C
AC$CHROMATOGRAPHY: FLOW_GRADIENT A/B = (99.5%/0.5% at 0 min, 99.5%/0.5% at 0.1 min, 20%/80% at 10 min, 0.5%/99.5% at 10.1 min, 0.5%/99.5% at 12.0 min, 99.5%/0.5% at 12.1 min, 99.5%/0.5% at 15.0 min)
AC$CHROMATOGRAPHY: FLOW_RATE 0.3 ml/min at 0 min, 0.3 ml/min at 10 min, 0.4 ml/min at 10.1 min, 0.4 ml/min at 14.4 min, 0.3 ml/min at 14.5 min
AC$CHROMATOGRAPHY: RETENTION_TIME 4.307533
AC$CHROMATOGRAPHY: SOLVENT A water including 0.1% formic acid
AC$CHROMATOGRAPHY: SOLVENT B acetonitrile including 0.1% formic acid
MS$FOCUSED_ION: PRECURSOR_TYPE [M-H]-
MS$FOCUSED_ION: PRECURSOR_M/Z 447.09328504783
PK$SPLASH: splash10-056r-0290000000-8e3d5b657d2b9f0a3283
PK$NUM_PEAK: 36
PK$PEAK: m/z int. rel.int.
  104.02593 7.0 7
  107.01102 18.0 18
  109.02591 6.0 6
  132.01836 6.0 6
  135.00467 15.0 15
  139.056 7.0 7
  155.04716 19.0 19
  159.04851 15.0 15
  162.99934 12.0 12
  164.01358 5.0 5
  167.03777 7.0 7
  167.05214 15.0 15
  182.03419 50.0 50
  182.05783 6.0 6
  183.04314 155.0 155
  184.04494 21.0 21
  185.01274 10.0 10
  185.02165 14.0 14
  185.03033 17.0 17
  185.04535 8.0 8
  185.06186 7.0 7
  187.03728 21.0 21
  188.04366 9.0 9
  199.03009 13.0 13
  210.03508 24.0 24
  211.04083 78.0 78
  212.05159 11.0 11
  214.0228 7.0 7
  227.03346 1000.0 999
  228.03938 131.0 131
  229.03673 8.0 8
  255.0289 577.0 576
  256.03244 80.0 80
  257.02856 8.0 8
  283.0162 7.0 7
  284.02936 6.0 6
//
