ACCESSION: MSBNK-RIKEN-PR308093
RECORD_TITLE: Luteolinidin; LC-ESI-QTOF; MS2
DATE: 2019.03.28
AUTHORS: Tetsuya Mori, Center for Sustainable Resource Science, RIKEN
LICENSE: CC BY-NC-SA
PUBLICATION: Tsugawa H., Nakabayashi R., Mori T., Yamada Y., Takahashi M., Rai A., Sugiyama R., Yamamoto H., Nakaya T., Yamazaki M., Kooke R., Bac-Molenaar JA., Oztolan-Erol N., Keurentjes JJB., Arita M., Saito K. (2019) "A cheminformatics approach to characterize metabolomes in stable-isotope-labeled organisms" Nature Methods 16(4):295-298. [doi:10.1038/s41592-019-0358-2]
COMMENT: registered in RIKEN PlaSMA
CH$NAME: Luteolinidin
CH$COMPOUND_CLASS: 7-hydroxyflavonoids
CH$FORMULA: C15H10O5
CH$EXACT_MASS: 270.24
CH$SMILES: OC1=CC(O)=C2C=CC(=[O+]C2=C1)C1=CC([O-])=C(O)C=C1
CH$IUPAC: InChI=1S/C15H10O5/c16-9-6-12(18)10-2-4-14(20-15(10)7-9)8-1-3-11(17)13(19)5-8/h1-7H,(H3-,16,17,18,19)
CH$LINK: INCHIKEY GDNIGMNXEKGFIP-UHFFFAOYSA-N
AC$INSTRUMENT: LC, Waters Acquity UPLC System; MS, Waters Xevo G2 Q-Tof
AC$INSTRUMENT_TYPE: LC-ESI-QTOF
AC$MASS_SPECTROMETRY: MS_TYPE MS2
AC$MASS_SPECTROMETRY: ION_MODE NEGATIVE
AC$MASS_SPECTROMETRY: COLLISION_ENERGY 6V
AC$MASS_SPECTROMETRY: DESOLVATION_GAS_FLOW 800/h
AC$MASS_SPECTROMETRY: DESOLVATION_TEMPERATURE 450 C
AC$MASS_SPECTROMETRY: IONIZATION ESI
AC$CHROMATOGRAPHY: CAPILLARY_VOLTAGE -2.75 kV
AC$CHROMATOGRAPHY: COLUMN_NAME Acquity bridged ethyl hybrid C18 (1.7 um, 2.1 mm * 100 mm, Waters)
AC$CHROMATOGRAPHY: COLUMN_TEMPERATURE 40 C
AC$CHROMATOGRAPHY: FLOW_GRADIENT A/B = (99.5%/0.5% at 0 min, 99.5%/0.5% at 0.1 min, 20%/80% at 10 min, 0.5%/99.5% at 10.1 min, 0.5%/99.5% at 12.0 min, 99.5%/0.5% at 12.1 min, 99.5%/0.5% at 15.0 min)
AC$CHROMATOGRAPHY: FLOW_RATE 0.3 ml/min at 0 min, 0.3 ml/min at 10 min, 0.4 ml/min at 10.1 min, 0.4 ml/min at 14.4 min, 0.3 ml/min at 14.5 min
AC$CHROMATOGRAPHY: RETENTION_TIME 3.586583
AC$CHROMATOGRAPHY: SOLVENT A water including 0.1% formic acid
AC$CHROMATOGRAPHY: SOLVENT B acetonitrile including 0.1% formic acid
MS$FOCUSED_ION: PRECURSOR_TYPE [M-H]-
MS$FOCUSED_ION: PRECURSOR_M/Z 269.04554694783
PK$SPLASH: splash10-014i-0290000000-f7e0a5a5e54c7ca67d87
PK$NUM_PEAK: 33
PK$PEAK: m/z int. rel.int.
  126.04969 15.0 15
  132.02046 12.0 12
  133.02507 33.0 33
  143.05327 10.0 10
  145.02348 11.0 11
  154.03654 13.0 13
  158.03844 20.0 20
  159.04877 9.0 9
  160.01042 9.0 9
  160.04799 9.0 9
  167.04408 11.0 11
  170.03452 19.0 19
  171.04794 20.0 20
  172.05183 11.0 11
  182.03491 51.0 51
  183.04144 9.0 9
  184.04201 9.0 9
  185.06454 9.0 9
  187.0434 11.0 11
  196.04649 10.0 10
  196.06351 9.0 9
  197.02411 11.0 11
  199.04073 10.0 10
  201.05383 42.0 42
  208.04813 22.0 22
  214.0621 14.0 14
  224.04309 10.0 10
  225.03731 9.0 9
  226.03947 9.0 9
  226.05852 10.0 10
  229.0327 11.0 11
  241.03847 9.0 9
  269.04358 1000.0 999
//
