ACCESSION: MSBNK-RIKEN-PR100041
RECORD_TITLE: D-(+)-Pantothenic acid; LC-ESI-QTOF; MS2; CE:30 V; [M+H]+
DATE: 2016.01.19 (Created 2009.09.10, modified 2011.05.06)
AUTHORS: Matsuda F, Suzuki M, Sawada Y, Plant Science Center, RIKEN.
LICENSE: CC BY-SA
COMMENT: Acquisition and generation of the data is financially supported in part by CREST/JST.
CH$NAME: Calcium (+)-pantothenate
CH$NAME: Vitamin B5
CH$NAME: D-Pantothenic Acid
CH$NAME: (R)-Pantothenate
CH$NAME: (R)-(+)-N-(2,4-Dihydroxy-3,3-dimethyl-1-oxobutyl)-beta-alanine
CH$NAME: D-(+)-Pantothenic acid
CH$COMPOUND_CLASS: Amino acids
CH$FORMULA: C9H17NO5
CH$EXACT_MASS: 219.11067
CH$SMILES: OCC(C)(C)[C@@H](O)C(=O)NCCC(O)=O
CH$IUPAC: InChI=1S/C9H17NO5/c1-9(2,5-11)7(14)8(15)10-4-3-6(12)13/h7,11,14H,3-5H2,1-2H3,(H,10,15)(H,12,13)/t7-/m0/s1
CH$LINK: CAS 79-83-4
CH$LINK: CHEMSPIDER 6361
CH$LINK: KAPPAVIEW KPC00867
CH$LINK: KEGG C00864
CH$LINK: KNAPSACK C00001550
CH$LINK: PUBCHEM CID:6613
CH$LINK: INCHIKEY GHOKWGTUZJEAQD-ZETCQYMHSA-N
CH$LINK: COMPTOX DTXSID9023417
AC$INSTRUMENT: UPLC Q-Tof Premier, Waters
AC$INSTRUMENT_TYPE: LC-ESI-QTOF
AC$MASS_SPECTROMETRY: MS_TYPE MS2
AC$MASS_SPECTROMETRY: ION_MODE POSITIVE
AC$MASS_SPECTROMETRY: COLLISION_ENERGY 30 V
AC$MASS_SPECTROMETRY: DATAFORMAT Continuum
AC$MASS_SPECTROMETRY: DESOLVATION_GAS_FLOW 600.0 L/Hr
AC$MASS_SPECTROMETRY: DESOLVATION_TEMPERATURE 400 C
AC$MASS_SPECTROMETRY: FRAGMENTATION_METHOD LOW-ENERGY CID
AC$MASS_SPECTROMETRY: IONIZATION ESI
AC$MASS_SPECTROMETRY: SOURCE_TEMPERATURE 120 C
AC$CHROMATOGRAPHY: CAPILLARY_VOLTAGE 3.0 kV
AC$CHROMATOGRAPHY: SAMPLING_CONE 23.0 V
AC$CHROMATOGRAPHY: SOLVENT A CH3CN(0.1%HCOOH)
AC$CHROMATOGRAPHY: SOLVENT B H2O(0.1%HCOOH)
MS$FOCUSED_ION: DERIVATIVE_FORM C9H16NO5.1/2Ca
MS$FOCUSED_ION: DERIVATIVE_MASS 238.27
MS$FOCUSED_ION: PRECURSOR_M/Z 220.11847
MS$FOCUSED_ION: PRECURSOR_TYPE [M+H]+
PK$SPLASH: splash10-00di-2190000000-6eec23d0d7031fc1e28b
PK$NUM_PEAK: 3
PK$PEAK: m/z int. rel.int.
  90.0573 190.5 307
  103.0782 69.83 112
  220.1185 620.6 999
//
