ACCESSION: MSBNK-RIKEN-PR301087
RECORD_TITLE: Thalsimidine; LC-ESI-QTOF; MS2
DATE: 2019.03.28
AUTHORS: Tetsuya Mori, Center for Sustainable Resource Science, RIKEN
LICENSE: CC BY-NC-SA
PUBLICATION: Tsugawa H., Nakabayashi R., Mori T., Yamada Y., Takahashi M., Rai A., Sugiyama R., Yamamoto H., Nakaya T., Yamazaki M., Kooke R., Bac-Molenaar JA., Oztolan-Erol N., Keurentjes JJB., Arita M., Saito K. (2019) "A cheminformatics approach to characterize metabolomes in stable-isotope-labeled organisms" Nature Methods 16(4):295-298. [doi:10.1038/s41592-019-0358-2]
COMMENT: registered in RIKEN PlaSMA
CH$NAME: Thalsimidine
CH$COMPOUND_CLASS: Lignans, neolignans and related compounds
CH$FORMULA: C37H38N2O7
CH$EXACT_MASS: 622.718
CH$SMILES: COC1=C2OC3=CC=C(CC4=NCCC5=CC(OC)=C(OC6=C(OC)C(OC)=C(O)C7=C6[C@@H](CC(C=C1)=C2)N(C)CC7)C=C45)C=C3
CH$IUPAC: InChI=1S/C37H38N2O7/c1-39-15-13-25-33-28(39)17-22-8-11-29(41-2)31(18-22)45-24-9-6-21(7-10-24)16-27-26-20-32(30(42-3)19-23(26)12-14-38-27)46-35(33)37(44-5)36(43-4)34(25)40/h6-11,18-20,28,40H,12-17H2,1-5H3/t28-/m1/s1
CH$LINK: INCHIKEY CLDCTFPNFRITPI-MUUNZHRXSA-N
AC$INSTRUMENT: LC, Waters Acquity UPLC System; MS, Waters Xevo G2 Q-Tof
AC$INSTRUMENT_TYPE: LC-ESI-QTOF
AC$MASS_SPECTROMETRY: MS_TYPE MS2
AC$MASS_SPECTROMETRY: ION_MODE POSITIVE
AC$MASS_SPECTROMETRY: COLLISION_ENERGY 6V
AC$MASS_SPECTROMETRY: DESOLVATION_GAS_FLOW 800/h
AC$MASS_SPECTROMETRY: DESOLVATION_TEMPERATURE 450 C
AC$MASS_SPECTROMETRY: IONIZATION ESI
AC$CHROMATOGRAPHY: CAPILLARY_VOLTAGE +3.00 kV
AC$CHROMATOGRAPHY: COLUMN_NAME Acquity bridged ethyl hybrid C18 (1.7 um, 2.1 mm * 100 mm, Waters)
AC$CHROMATOGRAPHY: COLUMN_TEMPERATURE 40 C
AC$CHROMATOGRAPHY: FLOW_GRADIENT A/B = (99.5%/0.5% at 0 min, 99.5%/0.5% at 0.1 min, 20%/80% at 10 min, 0.5%/99.5% at 10.1 min, 0.5%/99.5% at 12.0 min, 99.5%/0.5% at 12.1 min, 99.5%/0.5% at 15.0 min)
AC$CHROMATOGRAPHY: FLOW_RATE 0.3 ml/min at 0 min, 0.3 ml/min at 10 min, 0.4 ml/min at 10.1 min, 0.4 ml/min at 14.4 min, 0.3 ml/min at 14.5 min
AC$CHROMATOGRAPHY: RETENTION_TIME 3.95775
AC$CHROMATOGRAPHY: SOLVENT A water including 0.1% formic acid
AC$CHROMATOGRAPHY: SOLVENT B acetonitrile including 0.1% formic acid
MS$FOCUSED_ION: PRECURSOR_TYPE [M+H]+
MS$FOCUSED_ION: PRECURSOR_M/Z 623.275178
PK$SPLASH: splash10-0f6x-0164390000-151db375549dbd7b0aab
PK$NUM_PEAK: 376
PK$PEAK: m/z int. rel.int.
  91.04941 55.0 55
  105.07177 79.0 79
  118.07666 55.0 55
  134.05684 55.0 55
  135.04655 45.0 45
  136.03712 76.0 76
  137.05962 76.0 76
  145.30479 45.0 45
  151.07588 55.0 55
  158.56587 58.0 58
  164.07336 61.0 61
  173.07292 71.0 71
  176.06976 158.0 158
  176.09875 58.0 58
  181.06439 45.0 45
  183.073 53.0 53
  187.05318 66.0 66
  188.07391 66.0 66
  188.08293 82.0 82
  189.0713 76.0 76
  190.0867 234.0 234
  190.09637 58.0 58
  190.30966 61.0 61
  191.06479 155.0 155
  191.07373 97.0 97
  191.0894 45.0 45
  192.08464 79.0 79
  192.09924 100.0 100
  194.09464 139.0 139
  195.06512 47.0 47
  195.26195 71.0 71
  202.0826 47.0 47
  202.09099 71.0 71
  202.2485 58.0 58
  204.05466 66.0 66
  204.07402 237.0 237
  204.08592 66.0 66
  204.61893 55.0 55
  205.06566 171.0 171
  205.07211 55.0 55
  205.08971 58.0 58
  206.07901 179.0 179
  206.08841 203.0 203
  207.09128 300.0 300
  207.27859 79.0 79
  208.05103 45.0 45
  208.0629 155.0 155
  211.0746 66.0 66
  213.07501 97.0 97
  213.08359 42.0 42
  218.06879 58.0 58
  219.09398 50.0 50
  220.08727 66.0 66
  220.1068 53.0 53
  220.11835 53.0 53
  221.12154 103.0 103
  222.07776 53.0 53
  222.12062 71.0 71
  222.13017 71.0 71
  223.09665 118.0 118
  223.13368 47.0 47
  224.0873 139.0 139
  228.11194 74.0 74
  232.10519 53.0 53
  233.07988 47.0 47
  233.09138 61.0 61
  233.12274 55.0 55
  234.07651 66.0 66
  235.08206 111.0 111
  235.09253 174.0 174
  235.11034 121.0 121
  236.0972 45.0 45
  237.12804 74.0 74
  238.10464 53.0 53
  238.11555 153.0 153
  239.11154 55.0 55
  240.05923 61.0 61
  247.09937 89.0 89
  247.12906 47.0 47
  249.06683 66.0 66
  249.10043 155.0 155
  249.11708 142.0 142
  250.08182 237.0 237
  250.09593 68.0 68
  251.06721 58.0 58
  251.08958 71.0 71
  251.14014 74.0 74
  252.09944 113.0 113
  253.12817 53.0 53
  254.10402 45.0 45
  254.11639 61.0 61
  255.09909 71.0 71
  256.15463 66.0 66
  263.07367 168.0 168
  263.09833 134.0 134
  264.13336 113.0 113
  265.10706 53.0 53
  265.13498 66.0 66
  266.10104 63.0 63
  266.11923 129.0 129
  266.15939 53.0 53
  267.10107 53.0 53
  268.13266 45.0 45
  269.08768 147.0 147
  269.10623 66.0 66
  273.10727 53.0 53
  277.10898 45.0 45
  277.29886 74.0 74
  278.09598 53.0 53
  278.10892 47.0 47
  278.13394 66.0 66
  279.12701 66.0 66
  280.09033 53.0 53
  280.13538 105.0 105
  282.09326 47.0 47
  282.11884 116.0 116
  283.13232 89.0 89
  284.09088 45.0 45
  284.13947 53.0 53
  295.10065 53.0 53
  297.10809 58.0 58
  298.11768 50.0 50
  299.10071 55.0 55
  305.36865 50.0 50
  307.0943 45.0 45
  312.53702 63.0 63
  312.68155 50.0 50
  316.07745 50.0 50
  318.09103 97.0 97
  319.38559 50.0 50
  321.14127 53.0 53
  324.1348 58.0 58
  330.10342 71.0 71
  335.13058 53.0 53
  335.14603 66.0 66
  337.11566 45.0 45
  341.14386 55.0 55
  341.18066 47.0 47
  342.11621 132.0 132
  342.13699 292.0 292
  342.15475 221.0 221
  343.12329 105.0 105
  348.16302 82.0 82
  350.13202 61.0 61
  352.11993 71.0 71
  352.13629 118.0 118
  353.11816 53.0 53
  354.13135 47.0 47
  354.1839 79.0 79
  354.62689 53.0 53
  356.10583 58.0 58
  356.12094 47.0 47
  358.12085 53.0 53
  358.13647 63.0 63
  358.1665 103.0 103
  358.19263 116.0 116
  358.20419 45.0 45
  358.85114 55.0 55
  360.11578 50.0 50
  365.0976 63.0 63
  366.11972 47.0 47
  367.12119 111.0 111
  369.07306 63.0 63
  369.18085 84.0 84
  370.17139 118.0 118
  371.14432 118.0 118
  371.15836 47.0 47
  372.12552 53.0 53
  372.20139 68.0 68
  374.15884 71.0 71
  374.17517 55.0 55
  377.14157 50.0 50
  377.51099 66.0 66
  380.78189 53.0 53
  381.15076 47.0 47
  382.11246 76.0 76
  382.13019 58.0 58
  382.14926 76.0 76
  382.16522 105.0 105
  384.10263 47.0 47
  384.12234 124.0 124
  384.13385 58.0 58
  384.16821 58.0 58
  385.2113 55.0 55
  386.05139 71.0 71
  386.1362 145.0 145
  386.14926 66.0 66
  386.17157 239.0 239
  386.19003 53.0 53
  387.08978 61.0 61
  387.17621 103.0 103
  388.08838 71.0 71
  388.15939 171.0 171
  389.12491 45.0 45
  389.15808 47.0 47
  390.15665 113.0 113
  395.20517 63.0 63
  397.19797 100.0 100
  398.12717 129.0 129
  400.16907 100.0 100
  400.19043 61.0 61
  400.20566 92.0 92
  401.1846 116.0 116
  401.19769 108.0 108
  402.08276 55.0 55
  402.17368 253.0 253
  403.17258 97.0 97
  407.10028 45.0 45
  408.1647 55.0 55
  410.17468 47.0 47
  411.16016 45.0 45
  412.12341 50.0 50
  412.17096 53.0 53
  413.15466 53.0 53
  415.13651 53.0 53
  416.19101 139.0 139
  418.194 87.0 87
  423.11862 116.0 116
  423.18448 58.0 58
  424.13895 121.0 121
  433.1889 53.0 53
  434.14426 92.0 92
  439.15134 58.0 58
  440.1514 108.0 108
  440.20038 47.0 47
  446.14944 55.0 55
  446.17337 47.0 47
  448.21017 45.0 45
  450.17029 45.0 45
  453.18384 53.0 53
  454.15344 79.0 79
  455.17239 58.0 58
  457.17188 53.0 53
  459.20459 87.0 87
  460.18671 89.0 89
  461.1554 45.0 45
  463.42984 45.0 45
  464.17303 47.0 47
  470.13528 124.0 124
  470.1763 100.0 100
  472.17914 58.0 58
  473.15817 45.0 45
  473.19247 47.0 47
  474.1626 53.0 53
  475.17313 47.0 47
  475.60013 50.0 50
  476.19803 58.0 58
  477.20361 84.0 84
  478.18414 47.0 47
  478.20547 45.0 45
  481.18976 61.0 61
  485.15717 45.0 45
  487.1951 103.0 103
  488.17273 45.0 45
  489.2045 58.0 58
  490.15033 50.0 50
  490.18774 47.0 47
  493.21951 53.0 53
  497.17786 61.0 61
  499.19778 45.0 45
  500.16718 105.0 105
  501.19183 47.0 47
  502.21063 82.0 82
  503.16083 58.0 58
  504.1467 53.0 53
  505.15445 71.0 71
  505.186 45.0 45
  505.21591 84.0 84
  506.04071 47.0 47
  506.17978 53.0 53
  506.20261 189.0 189
  507.15601 53.0 53
  507.18402 45.0 45
  507.21982 47.0 47
  508.17606 58.0 58
  512.1734 45.0 45
  513.14777 47.0 47
  514.20502 66.0 66
  516.18579 55.0 55
  517.20435 47.0 47
  518.2204 58.0 58
  519.17584 74.0 74
  520.17157 53.0 53
  520.19843 47.0 47
  520.22906 74.0 74
  521.18408 55.0 55
  521.21069 63.0 63
  522.06201 58.0 58
  523.2124 121.0 121
  524.20874 171.0 171
  527.19318 61.0 61
  529.15405 47.0 47
  529.17737 66.0 66
  530.46216 61.0 61
  531.15167 45.0 45
  531.17053 68.0 68
  532.18915 182.0 182
  533.1687 105.0 105
  533.19348 163.0 163
  533.22375 226.0 226
  534.15533 45.0 45
  534.20709 268.0 268
  534.23553 113.0 113
  535.20068 50.0 50
  536.20959 45.0 45
  537.20721 66.0 66
  539.15808 87.0 87
  541.16071 63.0 63
  541.19153 55.0 55
  542.15472 47.0 47
  543.17609 121.0 121
  544.17273 121.0 121
  545.19257 45.0 45
  545.22504 47.0 47
  546.14764 61.0 61
  546.18207 55.0 55
  546.24261 55.0 55
  547.19501 418.0 418
  548.14935 53.0 53
  548.19336 47.0 47
  549.19586 103.0 103
  549.23932 137.0 137
  550.18689 53.0 53
  551.18915 166.0 166
  558.16412 50.0 50
  558.70715 47.0 47
  559.19928 58.0 58
  559.22485 89.0 89
  560.24957 89.0 89
  561.1969 97.0 97
  561.22833 53.0 53
  562.17389 55.0 55
  562.20062 387.0 387
  562.21643 153.0 153
  562.2403 126.0 126
  563.13971 45.0 45
  563.18341 53.0 53
  563.1972 113.0 113
  564.00433 45.0 45
  564.17004 166.0 166
  564.20355 197.0 197
  564.24487 116.0 116
  565.18616 139.0 139
  565.20776 63.0 63
  570.42975 63.0 63
  574.21674 111.0 111
  575.22882 189.0 189
  576.21863 89.0 89
  576.36121 50.0 50
  577.19812 226.0 226
  577.2323 226.0 226
  577.39716 82.0 82
  578.17273 79.0 79
  578.22095 97.0 97
  578.24646 113.0 113
  578.29053 58.0 58
  579.18402 95.0 95
  579.21924 111.0 111
  579.23676 97.0 97
  579.25806 45.0 45
  580.27307 47.0 47
  590.24255 50.0 50
  592.85815 53.0 53
  593.19604 95.0 95
  593.23444 1000.0 999
  593.28601 58.0 58
  594.18652 50.0 50
  594.21136 45.0 45
  594.23145 158.0 158
  594.24908 126.0 126
  594.27142 55.0 55
  595.21191 53.0 53
  607.23053 45.0 45
  608.22668 66.0 66
  608.25159 108.0 108
  609.25873 79.0 79
//
