ACCESSION: MSBNK-RIKEN-PR310678
RECORD_TITLE: Soyasaponin Bb; LC-ESI-QTOF; MS2
DATE: 2019.03.28
AUTHORS: Tetsuya Mori, Center for Sustainable Resource Science, RIKEN
LICENSE: CC BY-NC-SA
PUBLICATION: Tsugawa H., Nakabayashi R., Mori T., Yamada Y., Takahashi M., Rai A., Sugiyama R., Yamamoto H., Nakaya T., Yamazaki M., Kooke R., Bac-Molenaar JA., Oztolan-Erol N., Keurentjes JJB., Arita M., Saito K. (2019) "A cheminformatics approach to characterize metabolomes in stable-isotope-labeled organisms" Nature Methods 16(4):295-298. [doi:10.1038/s41592-019-0358-2]
COMMENT: Annotation level-1
CH$NAME: Soyasaponin Bb
CH$COMPOUND_CLASS: Triterpene saponins
CH$FORMULA: C48H78O18
CH$EXACT_MASS: 943.134
CH$SMILES: O=C(O)C8OC(OC2CCC3(C)(C4CC=C1C5CC(C)(C)CC(O)C5(C)(CCC1(C)C4(C)(CCC3(C2(C)(CO))))))C(OC7OC(CO)C(O)C(O)C7(OC6OC(C)C(O)C(O)C6(O)))C(O)C8(O)
CH$IUPAC: InChI=1S/C48H78O18/c1-21-29(52)31(54)35(58)40(61-21)65-37-32(55)30(53)24(19-49)62-41(37)66-38-34(57)33(56)36(39(59)60)64-42(38)63-28-12-13-45(5)25(46(28,6)20-50)11-14-48(8)26(45)10-9-22-23-17-43(2,3)18-27(51)44(23,4)15-16-47(22,48)7/h9,21,23-38,40-42,49-58H,10-20H2,1-8H3,(H,59,60)
CH$LINK: INCHIKEY PTDAHAWQAGSZDD-UHFFFAOYSA-N
AC$INSTRUMENT: LC, Waters Acquity UPLC System; MS, Waters Xevo G2 Q-Tof
AC$INSTRUMENT_TYPE: LC-ESI-QTOF
AC$MASS_SPECTROMETRY: MS_TYPE MS2
AC$MASS_SPECTROMETRY: ION_MODE POSITIVE
AC$MASS_SPECTROMETRY: COLLISION_ENERGY 6V
AC$MASS_SPECTROMETRY: DESOLVATION_GAS_FLOW 800/h
AC$MASS_SPECTROMETRY: DESOLVATION_TEMPERATURE 450 C
AC$MASS_SPECTROMETRY: IONIZATION ESI
AC$CHROMATOGRAPHY: CAPILLARY_VOLTAGE +3.00 kV
AC$CHROMATOGRAPHY: COLUMN_NAME Acquity bridged ethyl hybrid C18 (1.7 um, 2.1 mm * 100 mm, Waters)
AC$CHROMATOGRAPHY: COLUMN_TEMPERATURE 40 C
AC$CHROMATOGRAPHY: FLOW_GRADIENT A/B = (99.5%/0.5% at 0 min, 99.5%/0.5% at 0.1 min, 20%/80% at 10 min, 0.5%/99.5% at 10.1 min, 0.5%/99.5% at 12.0 min, 99.5%/0.5% at 12.1 min, 99.5%/0.5% at 15.0 min)
AC$CHROMATOGRAPHY: FLOW_RATE 0.3 ml/min at 0 min, 0.3 ml/min at 10 min, 0.4 ml/min at 10.1 min, 0.4 ml/min at 14.4 min, 0.3 ml/min at 14.5 min
AC$CHROMATOGRAPHY: RETENTION_TIME 7.09
AC$CHROMATOGRAPHY: SOLVENT A water including 0.1% formic acid
AC$CHROMATOGRAPHY: SOLVENT B acetonitrile including 0.1% formic acid
MS$FOCUSED_ION: PRECURSOR_TYPE [M+H]+
MS$FOCUSED_ION: PRECURSOR_M/Z 943.52609
PK$SPLASH: splash10-0006-0232923207-87ff043bc96ee34d95aa
PK$NUM_PEAK: 566
PK$PEAK: m/z int. rel.int.
  54.75752 20.0 1
  61.0593 20.0 1
  71.04307 19.0 1
  71.05516 17.0 1
  75.04401 20.0 1
  78.81647 22.0 2
  80.74286 20.0 1
  81.07248 21.0 1
  83.05148 38.0 3
  83.08006 22.0 2
  85.0229 58.0 4
  85.03191 56.0 4
  87.02795 17.0 1
  87.0471 17.0 1
  91.03722 38.0 3
  93.074 34.0 2
  95.08859 48.0 3
  102.11822 17.0 1
  103.03658 20.0 1
  106.48461 22.0 2
  109.10292 125.0 9
  111.05009 18.0 1
  112.49092 18.0 1
  115.61546 20.0 1
  117.01794 19.0 1
  117.80737 27.0 2
  121.0948 30.0 2
  125.77597 21.0 1
  127.03836 23.0 2
  128.04439 20.0 1
  129.05728 213.0 15
  131.04639 17.0 1
  133.09399 25.0 2
  135.11777 50.0 3
  137.14088 50.0 3
  138.06729 17.0 1
  141.00682 17.0 1
  141.01936 195.0 14
  141.95287 18.0 1
  144.94753 33.0 2
  145.05453 69.0 5
  145.11049 24.0 2
  147.06552 456.0 32
  147.11491 21.0 1
  147.8952 19.0 1
  148.0733 41.0 3
  149.11229 20.0 1
  149.13202 43.0 3
  150.13858 20.0 1
  151.11017 17.0 1
  151.15469 20.0 1
  153.13213 19.0 1
  153.52216 17.0 1
  157.04877 17.0 1
  159.00768 20.0 1
  159.0264 246.0 17
  159.07086 17.0 1
  159.12227 33.0 2
  162.144 17.0 1
  163.03644 17.0 1
  163.05959 451.0 31
  163.11362 34.0 2
  163.14658 106.0 7
  163.15652 21.0 1
  165.07741 58.0 4
  169.54634 17.0 1
  172.08147 23.0 2
  172.75061 41.0 3
  173.13834 17.0 1
  175.11488 21.0 1
  175.14189 19.0 1
  176.16151 17.0 1
  177.03459 55.0 4
  177.04469 28.0 2
  177.07545 17.0 1
  177.16241 211.0 15
  178.16705 18.0 1
  179.15089 34.0 2
  179.18408 46.0 3
  187.13985 25.0 2
  187.15297 44.0 3
  188.15028 20.0 1
  189.07954 26.0 2
  189.14709 21.0 1
  189.1615 209.0 14
  189.56393 17.0 1
  190.16731 17.0 1
  191.17554 66.0 5
  191.18527 18.0 1
  192.19263 52.0 4
  193.1561 64.0 4
  193.16508 89.0 6
  193.19579 17.0 1
  194.98599 25.0 2
  195.04906 21.0 1
  195.06259 18.0 1
  195.17676 214.0 15
  195.73254 17.0 1
  196.17987 58.0 4
  200.15714 23.0 2
  201.04164 19.0 1
  201.14905 17.0 1
  201.16539 87.0 6
  202.17467 34.0 2
  202.69241 18.0 1
  202.86496 17.0 1
  203.14804 17.0 1
  203.16728 65.0 5
  203.18073 532.0 37
  204.521 23.0 2
  205.1474 31.0 2
  205.1606 103.0 7
  205.17133 38.0 3
  205.19186 59.0 4
  205.20195 62.0 4
  206.14481 18.0 1
  206.16235 18.0 1
  206.19272 20.0 1
  207.08548 20.0 1
  207.17648 159.0 11
  208.04776 19.0 1
  209.19098 37.0 3
  209.97392 21.0 1
  211.17351 17.0 1
  211.19731 18.0 1
  211.45917 17.0 1
  213.1489 18.0 1
  213.16772 34.0 2
  215.17764 135.0 9
  215.19235 92.0 6
  216.17386 20.0 1
  216.17961 37.0 3
  217.16551 23.0 2
  217.1937 610.0 42
  217.65463 19.0 1
  218.16537 17.0 1
  218.18761 52.0 4
  218.19612 47.0 3
  219.12743 28.0 2
  219.15816 56.0 4
  219.1761 269.0 19
  219.22124 25.0 2
  220.42883 17.0 1
  220.66313 18.0 1
  221.18001 40.0 3
  221.18936 103.0 7
  221.20445 22.0 2
  221.32997 18.0 1
  222.1702 22.0 2
  225.17232 31.0 2
  227.18427 63.0 4
  229.1844 18.0 1
  229.19672 68.0 5
  229.21091 18.0 1
  230.06433 24.0 2
  231.08685 41.0 3
  231.18152 92.0 6
  231.19696 19.0 1
  231.21518 60.0 4
  232.18677 18.0 1
  232.20628 34.0 2
  233.09586 17.0 1
  233.18044 20.0 1
  233.19484 124.0 9
  234.20366 38.0 3
  235.19217 20.0 1
  235.20348 61.0 4
  235.21283 46.0 3
  236.19855 40.0 3
  237.07117 22.0 2
  238.08977 17.0 1
  241.20067 35.0 2
  242.19125 22.0 2
  243.16862 17.0 1
  243.18559 18.0 1
  243.20633 23.0 2
  243.21896 48.0 3
  244.05362 20.0 1
  244.19731 17.0 1
  244.21318 23.0 2
  244.91302 20.0 1
  245.19392 119.0 8
  245.21774 18.0 1
  245.56238 27.0 2
  246.19041 30.0 2
  246.42409 18.0 1
  247.17799 18.0 1
  247.1869 17.0 1
  247.20764 219.0 15
  247.21675 58.0 4
  248.20845 81.0 6
  249.19774 23.0 2
  253.18428 20.0 1
  255.08946 32.0 2
  255.20642 18.0 1
  256.0842 17.0 1
  259.08252 34.0 2
  259.13214 29.0 2
  261.04269 17.0 1
  261.20914 21.0 1
  261.23193 99.0 7
  263.2005 18.0 1
  263.22717 18.0 1
  267.2074 34.0 2
  267.74731 17.0 1
  269.05643 77.0 5
  269.07864 17.0 1
  269.22183 18.0 1
  269.23285 23.0 2
  270.09329 19.0 1
  270.20316 18.0 1
  271.21408 19.0 1
  271.22864 17.0 1
  271.23819 24.0 2
  272.24954 17.0 1
  273.08429 20.0 1
  273.10156 18.0 1
  273.22308 35.0 2
  274.22678 44.0 3
  275.22067 20.0 1
  275.23602 50.0 3
  275.24597 23.0 2
  275.74677 29.0 2
  276.24493 41.0 3
  277.23257 17.0 1
  281.21985 20.0 1
  283.24066 59.0 4
  283.26242 18.0 1
  284.25073 20.0 1
  285.23413 18.0 1
  285.25406 34.0 2
  285.26617 28.0 2
  287.07288 124.0 9
  287.08453 82.0 6
  287.242 85.0 6
  288.08383 18.0 1
  289.25787 17.0 1
  291.09848 17.0 1
  291.1091 19.0 1
  291.11978 21.0 1
  295.24463 60.0 4
  297.22678 17.0 1
  297.25375 86.0 6
  297.26776 18.0 1
  300.2363 19.0 1
  301.2572 54.0 4
  305.06546 80.0 6
  305.08325 164.0 11
  305.09579 70.0 5
  305.99707 19.0 1
  306.08698 17.0 1
  308.1955 20.0 1
  309.10159 54.0 4
  309.11655 348.0 24
  309.13077 79.0 5
  309.22919 20.0 1
  309.26697 17.0 1
  310.11694 25.0 2
  311.11963 19.0 1
  311.25687 17.0 1
  311.27451 17.0 1
  312.13412 20.0 1
  313.24582 34.0 2
  314.12585 24.0 2
  314.2504 39.0 3
  314.49823 24.0 2
  315.26733 201.0 14
  316.26352 18.0 1
  316.27585 22.0 2
  316.28812 17.0 1
  317.27872 17.0 1
  319.52505 18.0 1
  321.04401 17.0 1
  321.05853 58.0 4
  321.08258 72.0 5
  321.10272 19.0 1
  322.07996 21.0 1
  323.08295 88.0 6
  323.10065 405.0 28
  324.09192 21.0 1
  324.10568 50.0 3
  325.07864 17.0 1
  325.10449 24.0 2
  326.30405 18.0 1
  327.25073 21.0 1
  327.27045 17.0 1
  328.28183 17.0 1
  329.27798 75.0 5
  329.29056 37.0 3
  330.25714 19.0 1
  331.6174 20.0 1
  334.81354 17.0 1
  335.30032 22.0 2
  337.29059 21.0 1
  339.04446 25.0 2
  339.07687 17.0 1
  339.09506 185.0 13
  340.07971 17.0 1
  340.10645 36.0 2
  340.13098 20.0 1
  341.10449 21.0 1
  344.29361 22.0 2
  347.20642 26.0 2
  347.52444 24.0 2
  349.19034 18.0 1
  349.54535 17.0 1
  351.15417 18.0 1
  351.1806 33.0 2
  351.19165 62.0 4
  351.29694 38.0 3
  351.31143 17.0 1
  352.16928 25.0 2
  353.20258 20.0 1
  356.98767 17.0 1
  357.09094 21.0 1
  359.31897 17.0 1
  362.66373 59.0 4
  363.3172 21.0 1
  365.17236 20.0 1
  365.20404 46.0 3
  365.3132 103.0 7
  365.32507 66.0 5
  365.3407 21.0 1
  366.32507 20.0 1
  367.30273 19.0 1
  367.31866 17.0 1
  367.33807 17.0 1
  369.31772 20.0 1
  371.29846 17.0 1
  373.21182 25.0 2
  375.17621 22.0 2
  376.93863 22.0 2
  377.32812 17.0 1
  379.17197 26.0 2
  379.29019 24.0 2
  380.20428 18.0 1
  380.22455 40.0 3
  381.29898 43.0 3
  381.31439 21.0 1
  382.33725 20.0 1
  383.31616 63.0 4
  383.33246 152.0 11
  383.34467 88.0 6
  384.32748 78.0 5
  385.27554 17.0 1
  385.32388 17.0 1
  385.33987 22.0 2
  387.23471 23.0 2
  390.39072 18.0 1
  394.36874 18.0 1
  395.34201 17.0 1
  396.88956 24.0 2
  405.31479 36.0 2
  405.34677 216.0 15
  405.36496 243.0 17
  406.3345 82.0 6
  406.35489 27.0 2
  406.38031 32.0 2
  407.35599 55.0 4
  407.37405 19.0 1
  408.28735 17.0 1
  408.36987 29.0 2
  410.22052 19.0 1
  411.2406 17.0 1
  411.34973 38.0 3
  413.37146 23.0 2
  418.57236 17.0 1
  419.26422 20.0 1
  420.58884 21.0 1
  422.34055 20.0 1
  422.35416 18.0 1
  423.10681 22.0 2
  423.31604 46.0 3
  423.36258 4754.0 330
  423.40427 18.0 1
  424.23895 22.0 2
  424.36588 1585.0 110
  424.64838 27.0 2
  425.33682 18.0 1
  425.36002 171.0 12
  425.37405 349.0 24
  426.3829 20.0 1
  426.63232 17.0 1
  426.93268 22.0 2
  429.66412 17.0 1
  431.10706 49.0 3
  431.11823 34.0 2
  435.23431 19.0 1
  436.86044 24.0 2
  439.45743 23.0 2
  441.01675 17.0 1
  441.27756 42.0 3
  441.31827 115.0 8
  441.3721 6086.0 422
  442.34402 63.0 4
  442.37564 1796.0 125
  442.87088 17.0 1
  443.34052 17.0 1
  443.3732 203.0 14
  443.39581 83.0 6
  443.4397 17.0 1
  444.38629 24.0 2
  445.41122 21.0 1
  448.10831 22.0 2
  448.54242 18.0 1
  449.1373 19.0 1
  458.32669 21.0 1
  459.35629 74.0 5
  459.38162 379.0 26
  459.46481 23.0 2
  460.37735 38.0 3
  460.39548 102.0 7
  462.28873 18.0 1
  463.96262 18.0 1
  467.12509 64.0 4
  467.142 44.0 3
  469.14389 17.0 1
  484.9823 18.0 1
  485.15363 82.0 6
  485.23624 24.0 2
  486.14392 25.0 2
  486.16522 37.0 3
  487.16696 19.0 1
  487.33295 21.0 1
  490.87003 21.0 1
  496.97827 29.0 2
  498.09015 17.0 1
  501.36096 17.0 1
  503.52466 18.0 1
  511.35757 20.0 1
  511.96619 32.0 2
  517.37683 21.0 1
  520.38977 18.0 1
  521.20654 21.0 1
  521.34076 17.0 1
  526.89801 18.0 1
  532.26562 25.0 2
  533.40747 18.0 1
  534.39197 22.0 2
  545.38452 20.0 1
  546.35168 18.0 1
  548.60657 28.0 2
  551.39142 38.0 3
  551.41797 23.0 2
  552.38525 21.0 1
  552.42279 17.0 1
  553.39966 17.0 1
  553.72577 21.0 1
  557.3501 18.0 1
  563.37354 18.0 1
  564.3797 28.0 2
  569.42871 37.0 3
  569.45135 18.0 1
  570.396 22.0 2
  581.33649 31.0 2
  581.36127 144.0 10
  581.38721 194.0 13
  581.40674 199.0 14
  582.33301 41.0 3
  582.3894 244.0 17
  583.38385 71.0 5
  583.40576 17.0 1
  587.44409 28.0 2
  592.50482 18.0 1
  599.2793 17.0 1
  599.33844 104.0 7
  599.39673 2982.0 207
  599.44952 22.0 2
  600.349 24.0 2
  600.40173 889.0 62
  600.41833 267.0 19
  601.28479 17.0 1
  601.38379 61.0 4
  601.4118 204.0 14
  602.3808 18.0 1
  602.41132 43.0 3
  603.40564 18.0 1
  605.41223 114.0 8
  605.44098 452.0 31
  606.16766 33.0 2
  606.35834 17.0 1
  606.43909 163.0 11
  606.46924 28.0 2
  607.44342 69.0 5
  607.45966 74.0 5
  615.15918 21.0 1
  617.35754 34.0 2
  617.40515 1069.0 74
  617.45587 42.0 3
  618.40363 534.0 37
  619.4184 92.0 6
  621.43066 18.0 1
  622.45197 20.0 1
  623.15717 19.0 1
  625.1261 22.0 2
  631.89233 35.0 2
  632.59698 17.0 1
  635.28137 21.0 1
  635.36786 21.0 1
  635.42017 1114.0 77
  636.36426 20.0 1
  636.40381 59.0 4
  636.43048 216.0 15
  637.38733 19.0 1
  637.42651 190.0 13
  638.42102 21.0 1
  638.84607 29.0 2
  644.36017 23.0 2
  650.1546 17.0 1
  679.63293 17.0 1
  686.78046 25.0 2
  710.43555 19.0 1
  726.72717 17.0 1
  727.43286 20.0 1
  728.46985 18.0 1
  745.94916 18.0 1
  761.46729 19.0 1
  763.35974 25.0 2
  763.46649 66.0 5
  763.51294 17.0 1
  764.44611 17.0 1
  764.47437 19.0 1
  765.45923 17.0 1
  767.50586 53.0 4
  768.49756 48.0 3
  769.48474 20.0 1
  769.50842 18.0 1
  779.42456 20.0 1
  780.453 20.0 1
  781.01611 19.0 1
  781.40515 19.0 1
  781.45178 250.0 17
  781.48413 210.0 15
  781.52527 17.0 1
  782.48242 180.0 12
  783.46814 38.0 3
  783.4986 75.0 5
  784.48413 18.0 1
  797.06995 26.0 2
  797.26111 17.0 1
  797.35529 18.0 1
  797.38733 64.0 4
  797.46552 2091.0 145
  797.53571 20.0 1
  798.47125 1116.0 77
  799.4834 126.0 9
  800.47021 80.0 6
  805.16772 17.0 1
  816.23969 21.0 1
  825.43079 19.0 1
  831.05853 24.0 2
  898.59802 33.0 2
  908.49597 17.0 1
  912.66882 23.0 2
  925.51465 52.0 4
  925.54626 59.0 4
  926.47845 23.0 2
  926.52704 17.0 1
  927.53003 17.0 1
  930.52258 21.0 1
  943.38538 72.0 5
  943.43323 62.0 4
  943.5249 14401.0 999
  943.59943 46.0 3
  943.64551 38.0 3
  943.66663 42.0 3
//
