ACCESSION: MSBNK-RIKEN-PR301524
RECORD_TITLE: Rauwolscine; LC-ESI-QTOF; MS2
DATE: 2019.03.28
AUTHORS: Tetsuya Mori, Center for Sustainable Resource Science, RIKEN
LICENSE: CC BY-NC-SA
PUBLICATION: Tsugawa H., Nakabayashi R., Mori T., Yamada Y., Takahashi M., Rai A., Sugiyama R., Yamamoto H., Nakaya T., Yamazaki M., Kooke R., Bac-Molenaar JA., Oztolan-Erol N., Keurentjes JJB., Arita M., Saito K. (2019) "A cheminformatics approach to characterize metabolomes in stable-isotope-labeled organisms" Nature Methods 16(4):295-298. [doi:10.1038/s41592-019-0358-2]
COMMENT: registered in RIKEN PlaSMA
CH$NAME: Rauwolscine
CH$COMPOUND_CLASS: Yohimbine alkaloids
CH$FORMULA: C21H26N2O3
CH$EXACT_MASS: 354.45
CH$SMILES: COC(=O)C1C(O)CCC2CN3CCC4=C(NC5=CC=CC=C45)C3CC12
CH$IUPAC: InChI=1S/C21H26N2O3/c1-26-21(25)19-15-10-17-20-14(13-4-2-3-5-16(13)22-20)8-9-23(17)11-12(15)6-7-18(19)24/h2-5,12,15,17-19,22,24H,6-11H2,1H3
CH$LINK: INCHIKEY BLGXFZZNTVWLAY-UHFFFAOYSA-N
AC$INSTRUMENT: LC, Waters Acquity UPLC System; MS, Waters Xevo G2 Q-Tof
AC$INSTRUMENT_TYPE: LC-ESI-QTOF
AC$MASS_SPECTROMETRY: MS_TYPE MS2
AC$MASS_SPECTROMETRY: ION_MODE POSITIVE
AC$MASS_SPECTROMETRY: COLLISION_ENERGY 6V
AC$MASS_SPECTROMETRY: DESOLVATION_GAS_FLOW 800/h
AC$MASS_SPECTROMETRY: DESOLVATION_TEMPERATURE 450 C
AC$MASS_SPECTROMETRY: IONIZATION ESI
AC$CHROMATOGRAPHY: CAPILLARY_VOLTAGE +3.00 kV
AC$CHROMATOGRAPHY: COLUMN_NAME Acquity bridged ethyl hybrid C18 (1.7 um, 2.1 mm * 100 mm, Waters)
AC$CHROMATOGRAPHY: COLUMN_TEMPERATURE 40 C
AC$CHROMATOGRAPHY: FLOW_GRADIENT A/B = (99.5%/0.5% at 0 min, 99.5%/0.5% at 0.1 min, 20%/80% at 10 min, 0.5%/99.5% at 10.1 min, 0.5%/99.5% at 12.0 min, 99.5%/0.5% at 12.1 min, 99.5%/0.5% at 15.0 min)
AC$CHROMATOGRAPHY: FLOW_RATE 0.3 ml/min at 0 min, 0.3 ml/min at 10 min, 0.4 ml/min at 10.1 min, 0.4 ml/min at 14.4 min, 0.3 ml/min at 14.5 min
AC$CHROMATOGRAPHY: RETENTION_TIME 4.004416
AC$CHROMATOGRAPHY: SOLVENT A water including 0.1% formic acid
AC$CHROMATOGRAPHY: SOLVENT B acetonitrile including 0.1% formic acid
MS$FOCUSED_ION: PRECURSOR_TYPE [M+H]+
MS$FOCUSED_ION: PRECURSOR_M/Z 355.2016192
PK$SPLASH: splash10-0006-0900000000-5416f9e130d7b55771be
PK$NUM_PEAK: 95
PK$PEAK: m/z int. rel.int.
  82.0625 9.0 9
  91.04935 7.0 7
  91.0559 44.0 44
  93.058 7.0 7
  93.07438 7.0 7
  94.06582 28.0 28
  95.06944 9.0 9
  103.05363 15.0 15
  105.07124 11.0 11
  106.06483 19.0 19
  107.0725 10.0 10
  108.07693 13.0 13
  108.08158 31.0 31
  109.08472 6.0 6
  115.05425 117.0 117
  116.0597 19.0 19
  117.06995 246.0 246
  118.06656 24.0 24
  118.0732 36.0 36
  119.07062 7.0 7
  120.08143 12.0 12
  121.06652 7.0 7
  127.05404 112.0 112
  128.0497 38.0 38
  128.05965 18.0 18
  129.05418 8.0 8
  129.0632 13.0 13
  129.0748 8.0 8
  130.06311 28.0 28
  130.07079 23.0 23
  131.07639 17.0 17
  132.07797 6.0 6
  132.08266 12.0 12
  133.06703 6.0 6
  134.09695 43.0 43
  135.09947 12.0 12
  140.05443 5.0 5
  142.06635 5.0 5
  143.0593 7.0 7
  143.07298 238.0 238
  144.08121 1000.0 999
  145.08392 129.0 129
  146.08125 6.0 6
  146.09708 12.0 12
  146.10468 6.0 6
  147.1031 12.0 12
  148.11147 6.0 6
  149.08086 9.0 9
  150.09007 5.0 5
  154.07323 7.0 7
  156.08066 14.0 14
  158.08937 8.0 8
  158.09685 8.0 8
  159.06645 7.0 7
  162.08504 5.0 5
  162.09317 14.0 14
  164.10477 9.0 9
  165.06682 9.0 9
  166.06078 6.0 6
  167.07541 39.0 39
  168.07498 14.0 14
  168.08394 25.0 25
  180.07193 7.0 7
  180.08156 17.0 17
  180.09505 6.0 6
  181.08652 23.0 23
  181.09782 7.0 7
  182.09152 6.0 6
  182.09885 15.0 15
  191.07213 5.0 5
  192.08493 6.0 6
  193.08932 17.0 17
  194.09183 12.0 12
  194.10353 26.0 26
  195.09682 8.0 8
  195.10736 7.0 7
  196.10912 11.0 11
  197.12216 6.0 6
  204.08003 10.0 10
  206.08604 7.0 7
  206.10095 17.0 17
  207.11223 6.0 6
  208.10667 9.0 9
  208.11815 10.0 10
  209.11766 7.0 7
  217.08763 10.0 10
  218.08989 14.0 14
  218.09877 7.0 7
  220.11162 11.0 11
  221.11078 14.0 14
  224.13174 6.0 6
  230.1019 9.0 9
  232.10922 10.0 10
  233.12605 7.0 7
  234.09593 5.0 5
//
