ACCESSION: MSBNK-RIKEN-PR301751
RECORD_TITLE: Reserpic acid; LC-ESI-QTOF; MS2
DATE: 2019.03.28
AUTHORS: Tetsuya Mori, Center for Sustainable Resource Science, RIKEN
LICENSE: CC BY-NC-SA
PUBLICATION: Tsugawa H., Nakabayashi R., Mori T., Yamada Y., Takahashi M., Rai A., Sugiyama R., Yamamoto H., Nakaya T., Yamazaki M., Kooke R., Bac-Molenaar JA., Oztolan-Erol N., Keurentjes JJB., Arita M., Saito K. (2019) "A cheminformatics approach to characterize metabolomes in stable-isotope-labeled organisms" Nature Methods 16(4):295-298. [doi:10.1038/s41592-019-0358-2]
COMMENT: registered in RIKEN PlaSMA
CH$NAME: Reserpic acid
CH$COMPOUND_CLASS: Corynanthean-type alkaloids
CH$FORMULA: C22H28N2O5
CH$EXACT_MASS: 400.475
CH$SMILES: CO[C@H]1[C@H](O)C[C@@H]2CN3CCC4=C(NC5=C4C=CC(OC)=C5)[C@H]3C[C@@H]2[C@@H]1C(O)=O
CH$IUPAC: InChI=1S/C22H28N2O5/c1-28-12-3-4-13-14-5-6-24-10-11-7-18(25)21(29-2)19(22(26)27)15(11)9-17(24)20(14)23-16(13)8-12/h3-4,8,11,15,17-19,21,23,25H,5-7,9-10H2,1-2H3,(H,26,27)/t11-,15+,17-,18-,19+,21+/m1/s1
CH$LINK: INCHIKEY JVHNBFFHWQQPLL-WOXROFTLSA-N
AC$INSTRUMENT: LC, Waters Acquity UPLC System; MS, Waters Xevo G2 Q-Tof
AC$INSTRUMENT_TYPE: LC-ESI-QTOF
AC$MASS_SPECTROMETRY: MS_TYPE MS2
AC$MASS_SPECTROMETRY: ION_MODE POSITIVE
AC$MASS_SPECTROMETRY: COLLISION_ENERGY 6V
AC$MASS_SPECTROMETRY: DESOLVATION_GAS_FLOW 800/h
AC$MASS_SPECTROMETRY: DESOLVATION_TEMPERATURE 450 C
AC$MASS_SPECTROMETRY: IONIZATION ESI
AC$CHROMATOGRAPHY: CAPILLARY_VOLTAGE +3.00 kV
AC$CHROMATOGRAPHY: COLUMN_NAME Acquity bridged ethyl hybrid C18 (1.7 um, 2.1 mm * 100 mm, Waters)
AC$CHROMATOGRAPHY: COLUMN_TEMPERATURE 40 C
AC$CHROMATOGRAPHY: FLOW_GRADIENT A/B = (99.5%/0.5% at 0 min, 99.5%/0.5% at 0.1 min, 20%/80% at 10 min, 0.5%/99.5% at 10.1 min, 0.5%/99.5% at 12.0 min, 99.5%/0.5% at 12.1 min, 99.5%/0.5% at 15.0 min)
AC$CHROMATOGRAPHY: FLOW_RATE 0.3 ml/min at 0 min, 0.3 ml/min at 10 min, 0.4 ml/min at 10.1 min, 0.4 ml/min at 14.4 min, 0.3 ml/min at 14.5 min
AC$CHROMATOGRAPHY: RETENTION_TIME 3.889867
AC$CHROMATOGRAPHY: SOLVENT A water including 0.1% formic acid
AC$CHROMATOGRAPHY: SOLVENT B acetonitrile including 0.1% formic acid
MS$FOCUSED_ION: PRECURSOR_TYPE [M+H]+
MS$FOCUSED_ION: PRECURSOR_M/Z 401.2070985
PK$SPLASH: splash10-05fr-0910000000-ade380ed823c8319c718
PK$NUM_PEAK: 213
PK$PEAK: m/z int. rel.int.
  55.05809 7.0 7
  79.05682 12.0 12
  91.05553 31.0 31
  92.05563 7.0 7
  93.05592 15.0 15
  94.06573 22.0 22
  95.06873 5.0 5
  105.07069 45.0 45
  106.06803 31.0 31
  107.05634 12.0 12
  107.06872 10.0 10
  107.07519 19.0 19
  108.04122 9.0 9
  108.05684 16.0 16
  115.04525 8.0 8
  115.05367 48.0 48
  117.05551 22.0 22
  117.07066 37.0 37
  118.06217 12.0 12
  118.07109 10.0 10
  119.05461 9.0 9
  119.07315 13.0 13
  119.08727 8.0 8
  120.04705 5.0 5
  120.05464 8.0 8
  120.07817 11.0 11
  120.08443 23.0 23
  121.06257 28.0 28
  122.06835 6.0 6
  123.0798 6.0 6
  128.06572 5.0 5
  129.06816 18.0 18
  130.06555 132.0 132
  131.04625 11.0 11
  131.07358 421.0 421
  132.04771 6.0 6
  132.05983 24.0 24
  132.07332 48.0 48
  132.08282 54.0 54
  133.04642 10.0 10
  133.06441 12.0 12
  133.08391 11.0 11
  134.09637 18.0 18
  135.04437 16.0 16
  135.08069 8.0 8
  137.04932 6.0 6
  138.09206 6.0 6
  140.05806 5.0 5
  142.06612 48.0 48
  143.07339 367.0 367
  144.05756 11.0 11
  144.07779 88.0 88
  144.09106 9.0 9
  145.05527 34.0 34
  145.07979 10.0 10
  145.08984 26.0 26
  146.06296 75.0 75
  147.04466 5.0 5
  147.06612 12.0 12
  147.07448 38.0 38
  147.08302 30.0 30
  147.10936 9.0 9
  148.07739 31.0 31
  149.08727 11.0 11
  150.08885 10.0 10
  152.0715 16.0 16
  153.0957 5.0 5
  154.06796 7.0 7
  156.07977 6.0 6
  157.06497 6.0 6
  157.08644 14.0 14
  158.06145 54.0 54
  158.07483 9.0 9
  158.51337 6.0 6
  159.06812 739.0 738
  160.03746 7.0 7
  160.07198 151.0 151
  160.08624 9.0 9
  161.05992 11.0 11
  161.08218 69.0 69
  162.08698 13.0 13
  162.10075 6.0 6
  163.09888 9.0 9
  164.10258 6.0 6
  164.1143 8.0 8
  167.07112 17.0 17
  168.08672 12.0 12
  170.05722 22.0 22
  170.78825 7.0 7
  171.08507 5.0 5
  172.06952 35.0 35
  172.08041 31.0 31
  173.0826 114.0 114
  174.05577 15.0 15
  174.07288 14.0 14
  174.09166 1000.0 999
  175.08745 34.0 34
  175.09698 92.0 92
  176.06834 22.0 22
  176.09146 9.0 9
  178.08649 17.0 17
  178.09879 8.0 8
  179.07718 5.0 5
  180.08185 10.0 10
  181.09122 8.0 8
  182.05978 7.0 7
  182.10844 6.0 6
  184.07106 11.0 11
  184.07674 29.0 29
  185.08301 25.0 25
  185.09557 9.0 9
  186.09465 35.0 35
  187.08011 6.0 6
  187.09055 14.0 14
  187.10025 24.0 24
  188.09048 6.0 6
  188.10301 24.0 24
  188.11147 20.0 20
  190.09329 17.0 17
  191.08078 6.0 6
  192.07986 9.0 9
  192.08664 7.0 7
  193.07849 6.0 6
  193.08846 8.0 8
  194.08292 8.0 8
  194.09818 15.0 15
  196.07764 19.0 19
  196.0981 14.0 14
  197.05554 6.0 6
  197.0798 7.0 7
  197.08762 15.0 15
  198.09256 23.0 23
  199.09561 12.0 12
  200.09991 16.0 16
  202.07631 6.0 6
  204.08025 17.0 17
  206.0901 15.0 15
  207.08 7.0 7
  207.10121 5.0 5
  208.08121 7.0 7
  208.1082 12.0 12
  209.08755 12.0 12
  210.09016 64.0 64
  211.08316 7.0 7
  211.09171 15.0 15
  211.10077 7.0 7
  212.11031 8.0 8
  213.10519 8.0 8
  213.11787 7.0 7
  218.09978 13.0 13
  219.1037 24.0 24
  220.07806 10.0 10
  220.09395 6.0 6
  220.10764 6.0 6
  220.11734 7.0 7
  222.08543 10.0 10
  222.09857 28.0 28
  222.11111 9.0 9
  222.12486 8.0 8
  223.09857 28.0 28
  224.10884 63.0 63
  225.10143 7.0 7
  226.12633 11.0 11
  228.13956 8.0 8
  230.09607 9.0 9
  231.10016 7.0 7
  233.08647 22.0 22
  234.09605 27.0 27
  235.10014 9.0 9
  236.09784 30.0 30
  236.11189 26.0 26
  237.10641 20.0 20
  237.12 7.0 7
  238.11479 11.0 11
  238.12561 10.0 10
  239.12732 19.0 19
  240.12457 28.0 28
  241.12932 6.0 6
  244.1087 10.0 10
  246.08191 13.0 13
  246.09378 12.0 12
  247.09378 10.0 10
  248.10741 30.0 30
  249.11017 13.0 13
  250.11568 7.0 7
  251.10805 10.0 10
  251.12808 20.0 20
  253.12871 11.0 11
  257.45691 8.0 8
  258.09137 5.0 5
  260.10941 9.0 9
  261.09076 8.0 8
  261.1207 8.0 8
  262.08362 6.0 6
  262.1091 13.0 13
  262.12366 19.0 19
  263.12793 15.0 15
  266.14047 6.0 6
  273.13983 7.0 7
  274.11517 10.0 10
  275.12317 8.0 8
  275.13425 7.0 7
  276.10248 6.0 6
  276.13507 6.0 6
  277.11523 5.0 5
  278.1257 6.0 6
  288.13406 7.0 7
  289.10632 6.0 6
  292.09946 5.0 5
  294.12451 5.0 5
  294.13821 9.0 9
  300.11707 7.0 7
  401.21017 7.0 7
//
