ACCESSION: MSBNK-RIKEN-PR305985
RECORD_TITLE: isosakuranetin; LC-ESI-QTOF; MS2
DATE: 2019.03.28
AUTHORS: Tetsuya Mori, Center for Sustainable Resource Science, RIKEN
LICENSE: CC BY-NC-SA
PUBLICATION: Tsugawa H., Nakabayashi R., Mori T., Yamada Y., Takahashi M., Rai A., Sugiyama R., Yamamoto H., Nakaya T., Yamazaki M., Kooke R., Bac-Molenaar JA., Oztolan-Erol N., Keurentjes JJB., Arita M., Saito K. (2019) "A cheminformatics approach to characterize metabolomes in stable-isotope-labeled organisms" Nature Methods 16(4):295-298. [doi:10.1038/s41592-019-0358-2]
COMMENT: registered in RIKEN PlaSMA
CH$NAME: isosakuranetin
CH$COMPOUND_CLASS: 4'-O-methylated flavonoids
CH$FORMULA: C16H14O5
CH$EXACT_MASS: 286.283
CH$SMILES: COC1=CC=C(C=C1)C1CC(=O)C2=C(O)C=C(O)C=C2O1
CH$IUPAC: InChI=1S/C16H14O5/c1-20-11-4-2-9(3-5-11)14-8-13(19)16-12(18)6-10(17)7-15(16)21-14/h2-7,14,17-18H,8H2,1H3
CH$LINK: INCHIKEY HMUJXQRRKBLVOO-UHFFFAOYSA-N
AC$INSTRUMENT: LC, Waters Acquity UPLC System; MS, Waters Xevo G2 Q-Tof
AC$INSTRUMENT_TYPE: LC-ESI-QTOF
AC$MASS_SPECTROMETRY: MS_TYPE MS2
AC$MASS_SPECTROMETRY: ION_MODE NEGATIVE
AC$MASS_SPECTROMETRY: COLLISION_ENERGY 6V
AC$MASS_SPECTROMETRY: DESOLVATION_GAS_FLOW 800/h
AC$MASS_SPECTROMETRY: DESOLVATION_TEMPERATURE 450 C
AC$MASS_SPECTROMETRY: IONIZATION ESI
AC$CHROMATOGRAPHY: CAPILLARY_VOLTAGE -2.75 kV
AC$CHROMATOGRAPHY: COLUMN_NAME Acquity bridged ethyl hybrid C18 (1.7 um, 2.1 mm * 100 mm, Waters)
AC$CHROMATOGRAPHY: COLUMN_TEMPERATURE 40 C
AC$CHROMATOGRAPHY: FLOW_GRADIENT A/B = (99.5%/0.5% at 0 min, 99.5%/0.5% at 0.1 min, 20%/80% at 10 min, 0.5%/99.5% at 10.1 min, 0.5%/99.5% at 12.0 min, 99.5%/0.5% at 12.1 min, 99.5%/0.5% at 15.0 min)
AC$CHROMATOGRAPHY: FLOW_RATE 0.3 ml/min at 0 min, 0.3 ml/min at 10 min, 0.4 ml/min at 10.1 min, 0.4 ml/min at 14.4 min, 0.3 ml/min at 14.5 min
AC$CHROMATOGRAPHY: RETENTION_TIME 7.453033
AC$CHROMATOGRAPHY: SOLVENT A water including 0.1% formic acid
AC$CHROMATOGRAPHY: SOLVENT B acetonitrile including 0.1% formic acid
MS$FOCUSED_ION: PRECURSOR_TYPE [M-H]-
MS$FOCUSED_ION: PRECURSOR_M/Z 285.07684714783
PK$SPLASH: splash10-000i-0490000000-77d6a27649365c30f571
PK$NUM_PEAK: 33
PK$PEAK: m/z int. rel.int.
  80.02614 7.0 7
  83.01224 16.0 16
  107.01209 33.0 33
  108.01829 50.0 50
  109.02138 7.0 7
  136.01401 111.0 111
  137.01807 8.0 8
  151.00266 83.0 83
  152.00551 6.0 6
  159.04314 10.0 10
  164.00906 256.0 256
  165.01465 32.0 32
  175.0739 28.0 28
  177.019 6.0 6
  183.04752 7.0 7
  186.03143 12.0 12
  187.03172 5.0 5
  187.03893 6.0 6
  198.06847 6.0 6
  199.04128 5.0 5
  200.04591 7.0 7
  201.05617 10.0 10
  217.08293 8.0 8
  226.06021 7.0 7
  227.033 9.0 9
  228.0428 12.0 12
  241.08649 6.0 6
  243.06607 79.0 79
  244.0685 14.0 14
  270.04947 42.0 42
  271.05188 7.0 7
  285.07498 1000.0 999
  285.12338 15.0 15
//
