ACCESSION: MSBNK-RIKEN-PR307070
RECORD_TITLE: NP-000002(10); LC-ESI-QTOF; MS2
DATE: 2019.03.28
AUTHORS: Tetsuya Mori, Center for Sustainable Resource Science, RIKEN
LICENSE: CC BY-NC-SA
PUBLICATION: Tsugawa H., Nakabayashi R., Mori T., Yamada Y., Takahashi M., Rai A., Sugiyama R., Yamamoto H., Nakaya T., Yamazaki M., Kooke R., Bac-Molenaar JA., Oztolan-Erol N., Keurentjes JJB., Arita M., Saito K. (2019) "A cheminformatics approach to characterize metabolomes in stable-isotope-labeled organisms" Nature Methods 16(4):295-298. [doi:10.1038/s41592-019-0358-2]
COMMENT: registered in RIKEN PlaSMA
CH$NAME: NP-000002(10)
CH$COMPOUND_CLASS: Flavonoid 8-C-glycosides
CH$FORMULA: C27H30O15
CH$EXACT_MASS: 594.522
CH$SMILES: OCC1OC(C(O)C(O)C1O)C1=C(O)C(C2OC(CO)C(O)C(O)C2O)=C2OC(=CC(=O)C2=C1O)C1=CC=C(O)C=C1
CH$IUPAC: InChI=1S/C27H30O15/c28-6-12-17(32)21(36)23(38)26(41-12)15-19(34)14-10(31)5-11(8-1-3-9(30)4-2-8)40-25(14)16(20(15)35)27-24(39)22(37)18(33)13(7-29)42-27/h1-5,12-13,17-18,21-24,26-30,32-39H,6-7H2
CH$LINK: INCHIKEY FIAAVMJLAGNUKW-UHFFFAOYSA-N
AC$INSTRUMENT: LC, Waters Acquity UPLC System; MS, Waters Xevo G2 Q-Tof
AC$INSTRUMENT_TYPE: LC-ESI-QTOF
AC$MASS_SPECTROMETRY: MS_TYPE MS2
AC$MASS_SPECTROMETRY: ION_MODE NEGATIVE
AC$MASS_SPECTROMETRY: COLLISION_ENERGY 6V
AC$MASS_SPECTROMETRY: DESOLVATION_GAS_FLOW 800/h
AC$MASS_SPECTROMETRY: DESOLVATION_TEMPERATURE 450 C
AC$MASS_SPECTROMETRY: IONIZATION ESI
AC$CHROMATOGRAPHY: CAPILLARY_VOLTAGE -2.75 kV
AC$CHROMATOGRAPHY: COLUMN_NAME Acquity bridged ethyl hybrid C18 (1.7 um, 2.1 mm * 100 mm, Waters)
AC$CHROMATOGRAPHY: COLUMN_TEMPERATURE 40 C
AC$CHROMATOGRAPHY: FLOW_GRADIENT A/B = (99.5%/0.5% at 0 min, 99.5%/0.5% at 0.1 min, 20%/80% at 10 min, 0.5%/99.5% at 10.1 min, 0.5%/99.5% at 12.0 min, 99.5%/0.5% at 12.1 min, 99.5%/0.5% at 15.0 min)
AC$CHROMATOGRAPHY: FLOW_RATE 0.3 ml/min at 0 min, 0.3 ml/min at 10 min, 0.4 ml/min at 10.1 min, 0.4 ml/min at 14.4 min, 0.3 ml/min at 14.5 min
AC$CHROMATOGRAPHY: RETENTION_TIME 3.3031
AC$CHROMATOGRAPHY: SOLVENT A water including 0.1% formic acid
AC$CHROMATOGRAPHY: SOLVENT B acetonitrile including 0.1% formic acid
MS$FOCUSED_ION: PRECURSOR_TYPE [M-H]-
MS$FOCUSED_ION: PRECURSOR_M/Z 593.15119384783
PK$SPLASH: splash10-0002-0394000000-3b9b8f73268df5b02dce
PK$NUM_PEAK: 186
PK$PEAK: m/z int. rel.int.
  83.01199 15.0 15
  93.03056 26.0 26
  103.01555 18.0 18
  105.0689 9.0 9
  117.02959 52.0 52
  117.03603 31.0 31
  118.03407 15.0 15
  123.03918 9.0 9
  126.0275 16.0 16
  129.03111 12.0 12
  133.06407 33.0 33
  135.04047 40.0 40
  135.04765 23.0 23
  136.05502 15.0 15
  137.05676 13.0 13
  145.03081 9.0 9
  145.8275 9.0 9
  147.05234 17.0 17
  148.01373 16.0 16
  149.02344 27.0 27
  154.03688 9.0 9
  157.06412 11.0 11
  158.03168 14.0 14
  158.03896 8.0 8
  159.04195 12.0 12
  160.05154 10.0 10
  161.02031 34.0 34
  161.02744 14.0 14
  161.05894 20.0 20
  162.02986 10.0 10
  162.99841 11.0 11
  163.03807 36.0 36
  167.02927 16.0 16
  170.03658 10.0 10
  171.04216 21.0 21
  171.08209 18.0 18
  172.25844 13.0 13
  173.06123 10.0 10
  174.06412 16.0 16
  175.04019 77.0 77
  177.00732 19.0 19
  177.02396 34.0 34
  177.05838 9.0 9
  178.02376 19.0 19
  178.05434 11.0 11
  179.04716 10.0 10
  180.82504 13.0 13
  181.04541 10.0 10
  182.03703 11.0 11
  185.02496 12.0 12
  186.02975 11.0 11
  187.04199 14.0 14
  189.0163 11.0 11
  189.0249 17.0 17
  189.06438 21.0 21
  190.06126 15.0 15
  191.03464 64.0 64
  192.03531 9.0 9
  195.09068 10.0 10
  197.05959 13.0 13
  201.05035 30.0 30
  203.03523 67.0 67
  204.03471 23.0 23
  204.04858 20.0 20
  206.07318 10.0 10
  207.02979 14.0 14
  207.0826 14.0 14
  209.08928 10.0 10
  211.04263 16.0 16
  211.08061 16.0 16
  213.06097 14.0 14
  215.0294 17.0 17
  215.0762 15.0 15
  217.05589 14.0 14
  218.01065 11.0 11
  220.07816 17.0 17
  221.04623 13.0 13
  223.07394 19.0 19
  224.08385 18.0 18
  225.06519 11.0 11
  225.08749 16.0 16
  226.09668 14.0 14
  227.75681 10.0 10
  231.03278 13.0 13
  235.04138 10.0 10
  235.08134 12.0 12
  236.06601 12.0 12
  238.05759 15.0 15
  238.7677 11.0 11
  239.07253 9.0 9
  245.04182 15.0 15
  247.10667 10.0 10
  251.07063 36.0 36
  252.0768 17.0 17
  253.04854 10.0 10
  254.09067 15.0 15
  255.06973 31.0 31
  261.0932 10.0 10
  263.05673 14.0 14
  263.07291 25.0 25
  266.0607 13.0 13
  267.06415 11.0 11
  268.03558 16.0 16
  268.06808 47.0 47
  268.08121 30.0 30
  268.10971 13.0 13
  279.06677 55.0 55
  281.04709 39.0 39
  281.0882 17.0 17
  282.0509 105.0 105
  283.04889 13.0 13
  283.06216 60.0 60
  284.06918 9.0 9
  289.05438 10.0 10
  291.08472 15.0 15
  293.02576 16.0 16
  293.06033 10.0 10
  293.33539 9.0 9
  295.05389 88.0 88
  295.06436 84.0 84
  295.07684 30.0 30
  295.59421 9.0 9
  296.06897 182.0 182
  297.07895 1000.0 999
  298.06656 41.0 41
  298.08197 96.0 96
  298.09317 26.0 26
  300.08109 11.0 11
  305.04959 11.0 11
  306.05045 9.0 9
  307.04813 13.0 13
  307.07001 22.0 22
  307.14423 14.0 14
  308.0726 23.0 23
  309.04703 13.0 13
  309.07785 44.0 44
  309.14978 9.0 9
  311.04773 25.0 25
  312.05569 20.0 20
  312.06589 14.0 14
  317.05624 13.0 13
  317.08948 13.0 13
  319.06488 36.0 36
  321.04846 14.0 14
  322.04749 9.0 9
  323.05884 43.0 43
  323.08795 13.0 13
  324.06052 86.0 86
  324.09763 13.0 13
  325.06146 54.0 54
  325.07214 61.0 61
  325.08609 58.0 58
  326.06772 12.0 12
  326.08401 36.0 36
  326.33215 15.0 15
  327.08936 11.0 11
  328.07932 18.0 18
  333.08823 10.0 10
  335.0513 62.0 62
  336.0593 26.0 26
  337.06891 38.0 38
  338.07776 22.0 22
  339.06619 15.0 15
  341.07074 11.0 11
  350.96048 14.0 14
  351.05072 25.0 25
  352.04486 13.0 13
  352.06119 19.0 19
  352.86105 13.0 13
  353.06192 70.0 70
  353.07242 66.0 66
  354.06711 21.0 21
  354.08163 12.0 12
  355.08893 11.0 11
  365.00977 14.0 14
  365.07126 104.0 104
  366.06116 9.0 9
  366.07791 13.0 13
  367.064 11.0 11
  377.06085 9.0 9
  383.07516 38.0 38
  383.08853 30.0 30
  384.0853 28.0 28
  395.08246 13.0 13
  396.0791 11.0 11
  425.09448 14.0 14
//
