ACCESSION: MSBNK-RIKEN-PR100502
RECORD_TITLE: 4-Methylumbelliferone; LC-ESI-QTOF; MS2; CE:Ramp 5-60 V; [M-H]-
DATE: 2016.01.19 (Created 2010.06.21, modified 2011.05.06)
AUTHORS: Matsuda F, Suzuki M, Sawada Y, Plant Science Center, RIKEN.
LICENSE: CC BY-SA
COMMENT: Acquisition and generation of the data is financially supported in part by CREST/JST.
CH$NAME: 7-Hydroxy-4-methylcoumarin
CH$NAME: 4-MU
CH$NAME: 4-Methylumbelliferone
CH$NAME: beta-Methylumbelliferone
CH$NAME: Hymecromone
CH$NAME: Cholestil
CH$COMPOUND_CLASS: Coumarins
CH$FORMULA: C10H8O3
CH$EXACT_MASS: 176.04734
CH$SMILES: Oc(c2)cc(O1)c(c2)C(C)=CC(=O)1
CH$IUPAC: InChI=1S/C10H8O3/c1-6-4-10(12)13-9-5-7(11)2-3-8(6)9/h2-5,11H,1H3
CH$LINK: CAS 90-33-5
CH$LINK: CHEMSPIDER 4444190
CH$LINK: KAPPAVIEW KPC00200
CH$LINK: KEGG C03081
CH$LINK: PUBCHEM CID:5280567
CH$LINK: INCHIKEY HSHNITRMYYLLCV-UHFFFAOYSA-N
CH$LINK: COMPTOX DTXSID8025670
AC$INSTRUMENT: UPLC Q-Tof Premier, Waters
AC$INSTRUMENT_TYPE: LC-ESI-QTOF
AC$MASS_SPECTROMETRY: MS_TYPE MS2
AC$MASS_SPECTROMETRY: ION_MODE NEGATIVE
AC$MASS_SPECTROMETRY: COLLISION_ENERGY Ramp 5-60 V
AC$MASS_SPECTROMETRY: DATAFORMAT Continuum
AC$MASS_SPECTROMETRY: DESOLVATION_GAS_FLOW 600.0 L/Hr
AC$MASS_SPECTROMETRY: DESOLVATION_TEMPERATURE 400 C
AC$MASS_SPECTROMETRY: FRAGMENTATION_METHOD LOW-ENERGY CID
AC$MASS_SPECTROMETRY: IONIZATION ESI
AC$MASS_SPECTROMETRY: SOURCE_TEMPERATURE 120 C
AC$CHROMATOGRAPHY: CAPILLARY_VOLTAGE 3.0 kV
AC$CHROMATOGRAPHY: SAMPLING_CONE 23.0 V
AC$CHROMATOGRAPHY: SOLVENT A CH3CN(0.1%HCOOH)
AC$CHROMATOGRAPHY: SOLVENT B H2O(0.1%HCOOH)
MS$FOCUSED_ION: PRECURSOR_M/Z 175.03954
MS$FOCUSED_ION: PRECURSOR_TYPE [M-H]-
PK$SPLASH: splash10-004i-0900000000-4a4f4d19d44ec53053cf
PK$NUM_PEAK: 5
PK$PEAK: m/z int. rel.int.
  119.0518 485.4 118
  131.0520 527.5 128
  133.0312 739.8 180
  147.0468 452.6 110
  175.0395 4112 999
//
