ACCESSION: MSBNK-RIKEN-PR301727
RECORD_TITLE: Ethylrhoeagenine; LC-ESI-QTOF; MS2
DATE: 2019.03.28
AUTHORS: Tetsuya Mori, Center for Sustainable Resource Science, RIKEN
LICENSE: CC BY-NC-SA
PUBLICATION: Tsugawa H., Nakabayashi R., Mori T., Yamada Y., Takahashi M., Rai A., Sugiyama R., Yamamoto H., Nakaya T., Yamazaki M., Kooke R., Bac-Molenaar JA., Oztolan-Erol N., Keurentjes JJB., Arita M., Saito K. (2019) "A cheminformatics approach to characterize metabolomes in stable-isotope-labeled organisms" Nature Methods 16(4):295-298. [doi:10.1038/s41592-019-0358-2]
COMMENT: registered in RIKEN PlaSMA
CH$NAME: Ethylrhoeagenine
CH$COMPOUND_CLASS: Rhoeadine alkaloids
CH$FORMULA: C22H23NO6
CH$EXACT_MASS: 397.427
CH$SMILES: CCO[C@H]1O[C@H]2[C@H](N(C)CCC3=CC4=C(OCO4)C=C23)C2=C1C1=C(OCO1)C=C2
CH$IUPAC: InChI=1S/C22H23NO6/c1-3-24-22-18-13(4-5-15-21(18)28-11-25-15)19-20(29-22)14-9-17-16(26-10-27-17)8-12(14)6-7-23(19)2/h4-5,8-9,19-20,22H,3,6-7,10-11H2,1-2H3/t19-,20-,22+/m1/s1
CH$LINK: INCHIKEY RKBDCPZCGRWNMP-SJBKTWHCSA-N
AC$INSTRUMENT: LC, Waters Acquity UPLC System; MS, Waters Xevo G2 Q-Tof
AC$INSTRUMENT_TYPE: LC-ESI-QTOF
AC$MASS_SPECTROMETRY: MS_TYPE MS2
AC$MASS_SPECTROMETRY: ION_MODE POSITIVE
AC$MASS_SPECTROMETRY: COLLISION_ENERGY 6V
AC$MASS_SPECTROMETRY: DESOLVATION_GAS_FLOW 800/h
AC$MASS_SPECTROMETRY: DESOLVATION_TEMPERATURE 450 C
AC$MASS_SPECTROMETRY: IONIZATION ESI
AC$CHROMATOGRAPHY: CAPILLARY_VOLTAGE +3.00 kV
AC$CHROMATOGRAPHY: COLUMN_NAME Acquity bridged ethyl hybrid C18 (1.7 um, 2.1 mm * 100 mm, Waters)
AC$CHROMATOGRAPHY: COLUMN_TEMPERATURE 40 C
AC$CHROMATOGRAPHY: FLOW_GRADIENT A/B = (99.5%/0.5% at 0 min, 99.5%/0.5% at 0.1 min, 20%/80% at 10 min, 0.5%/99.5% at 10.1 min, 0.5%/99.5% at 12.0 min, 99.5%/0.5% at 12.1 min, 99.5%/0.5% at 15.0 min)
AC$CHROMATOGRAPHY: FLOW_RATE 0.3 ml/min at 0 min, 0.3 ml/min at 10 min, 0.4 ml/min at 10.1 min, 0.4 ml/min at 14.4 min, 0.3 ml/min at 14.5 min
AC$CHROMATOGRAPHY: RETENTION_TIME 5.150367
AC$CHROMATOGRAPHY: SOLVENT A water including 0.1% formic acid
AC$CHROMATOGRAPHY: SOLVENT B acetonitrile including 0.1% formic acid
MS$FOCUSED_ION: PRECURSOR_TYPE [M+H]+
MS$FOCUSED_ION: PRECURSOR_M/Z 398.1598139
PK$SPLASH: splash10-052u-0981000000-bf65b90c34d763b4240e
PK$NUM_PEAK: 457
PK$PEAK: m/z int. rel.int.
  77.03448 9.0 9
  77.03998 19.0 19
  78.04224 6.0 6
  79.04995 21.0 21
  79.05904 15.0 15
  89.04053 9.0 9
  91.05105 12.0 12
  91.05616 7.0 7
  92.05881 16.0 16
  93.07068 8.0 8
  94.06905 8.0 8
  99.66947 6.0 6
  102.04752 5.0 5
  103.05103 43.0 43
  104.0526 31.0 31
  104.06207 8.0 8
  105.03111 17.0 17
  105.05637 14.0 14
  105.06906 7.0 7
  107.0731 5.0 5
  111.15164 13.0 13
  114.5202 8.0 8
  115.05504 13.0 13
  116.06504 7.0 7
  117.03234 7.0 7
  117.03854 7.0 7
  117.05583 22.0 22
  117.07159 6.0 6
  118.06416 36.0 36
  118.07265 12.0 12
  119.03968 5.0 5
  119.04765 27.0 27
  119.05541 11.0 11
  119.0622 6.0 6
  119.07466 21.0 21
  120.05586 7.0 7
  120.06885 8.0 8
  127.78791 5.0 5
  127.88996 9.0 9
  128.03874 8.0 8
  128.05522 12.0 12
  129.06343 6.0 6
  130.05293 8.0 8
  130.06757 76.0 76
  131.0327 7.0 7
  131.05078 111.0 111
  131.06665 39.0 39
  131.07455 67.0 67
  131.47821 6.0 6
  132.05952 18.0 18
  132.07921 59.0 59
  132.09012 15.0 15
  133.02466 7.0 7
  133.04561 7.0 7
  133.05437 15.0 15
  133.06456 5.0 5
  133.0806 11.0 11
  134.05936 7.0 7
  135.03067 10.0 10
  135.04359 74.0 74
  136.04698 12.0 12
  144.04628 7.0 7
  144.08249 5.0 5
  145.03445 11.0 11
  145.04457 6.0 6
  145.06168 16.0 16
  146.04912 5.0 5
  146.05757 21.0 21
  146.06535 11.0 11
  147.02509 7.0 7
  147.04338 90.0 90
  147.06874 8.0 8
  147.91238 6.0 6
  148.02939 9.0 9
  148.03928 14.0 14
  148.05533 28.0 28
  148.06911 5.0 5
  149.04735 15.0 15
  149.05888 27.0 27
  149.06615 26.0 26
  150.06784 6.0 6
  150.64093 6.0 6
  151.05504 6.0 6
  152.05782 14.0 14
  152.06596 34.0 34
  153.06364 6.0 6
  153.07242 6.0 6
  154.05687 8.0 8
  154.07574 14.0 14
  158.03941 7.0 7
  158.05809 14.0 14
  159.03795 8.0 8
  159.04401 27.0 27
  159.05164 7.0 7
  159.06366 41.0 41
  159.07481 22.0 22
  160.02858 12.0 12
  160.03848 19.0 19
  160.077 129.0 129
  160.99159 8.0 8
  161.03162 7.0 7
  161.04431 31.0 31
  161.0585 64.0 64
  161.07732 8.0 8
  162.05899 14.0 14
  162.06696 15.0 15
  162.08762 6.0 6
  163.04002 93.0 93
  163.06665 18.0 18
  163.10127 6.0 6
  164.04784 6.0 6
  164.9118 7.0 7
  165.05614 10.0 10
  165.06786 102.0 102
  165.07796 41.0 41
  166.05104 7.0 7
  166.07263 7.0 7
  166.08141 26.0 26
  166.21733 5.0 5
  167.06149 8.0 8
  167.08566 6.0 6
  169.05467 11.0 11
  171.02863 6.0 6
  172.03171 5.0 5
  173.05388 14.0 14
  174.05006 28.0 28
  174.06224 24.0 24
  175.03636 8.0 8
  175.05653 85.0 85
  175.067 92.0 92
  176.02747 6.0 6
  176.03835 28.0 28
  176.0498 14.0 14
  176.06247 124.0 124
  176.07108 58.0 58
  176.10832 5.0 5
  176.94026 6.0 6
  177.04533 16.0 16
  177.06966 254.0 254
  177.09036 15.0 15
  177.35483 6.0 6
  178.0553 11.0 11
  178.06718 86.0 86
  178.07687 36.0 36
  178.0959 16.0 16
  179.06458 14.0 14
  179.07475 22.0 22
  179.08838 89.0 89
  179.10155 9.0 9
  179.21063 6.0 6
  179.68425 6.0 6
  180.08748 15.0 15
  181.06291 6.0 6
  183.07043 10.0 10
  186.06433 8.0 8
  187.04388 6.0 6
  187.06407 28.0 28
  188.0289 5.0 5
  188.06947 547.0 546
  188.42747 5.0 5
  189.01773 6.0 6
  189.04698 9.0 9
  189.06702 253.0 253
  189.07635 268.0 268
  189.09666 5.0 5
  190.0537 96.0 96
  190.08598 1000.0 999
  191.03671 6.0 6
  191.05862 37.0 37
  191.08279 93.0 93
  191.09215 83.0 83
  192.05629 32.0 32
  192.09286 23.0 23
  193.03931 10.0 10
  193.06042 51.0 51
  193.07312 17.0 17
  193.08736 7.0 7
  193.50317 11.0 11
  195.03204 13.0 13
  195.04317 8.0 8
  195.08324 20.0 20
  196.04909 8.0 8
  197.05272 10.0 10
  197.09198 7.0 7
  200.06767 13.0 13
  200.38702 6.0 6
  200.67677 6.0 6
  201.06857 15.0 15
  201.08203 12.0 12
  202.06987 20.0 20
  202.08292 36.0 36
  203.04175 7.0 7
  203.06073 15.0 15
  203.07471 17.0 17
  203.08475 6.0 6
  203.0965 13.0 13
  204.05048 12.0 12
  204.08186 60.0 60
  204.09357 9.0 9
  205.06493 624.0 623
  205.86755 8.0 8
  206.04269 7.0 7
  206.05739 20.0 20
  206.07245 75.0 75
  206.08823 11.0 11
  206.66159 6.0 6
  207.05367 14.0 14
  207.06393 13.0 13
  207.07347 19.0 19
  207.0892 7.0 7
  207.09805 5.0 5
  207.54855 8.0 8
  207.86134 11.0 11
  208.07561 30.0 30
  208.11299 7.0 7
  209.0598 99.0 99
  209.8701 6.0 6
  211.06184 6.0 6
  211.2919 5.0 5
  213.08292 7.0 7
  215.05162 8.0 8
  216.03587 7.0 7
  216.08058 8.0 8
  216.49368 8.0 8
  217.04774 25.0 25
  217.06372 50.0 50
  217.07457 62.0 62
  218.05247 16.0 16
  218.07442 66.0 66
  218.09665 69.0 69
  218.26358 7.0 7
  219.07207 48.0 48
  219.08411 30.0 30
  219.10423 7.0 7
  220.06943 11.0 11
  220.07729 21.0 21
  220.11189 12.0 12
  221.05713 58.0 58
  221.07468 12.0 12
  221.11475 6.0 6
  221.97443 6.0 6
  222.07095 33.0 33
  222.09038 16.0 16
  222.30927 7.0 7
  223.07393 56.0 56
  223.1008 7.0 7
  225.06461 7.0 7
  225.08156 6.0 6
  227.08095 7.0 7
  228.09105 10.0 10
  231.05196 17.0 17
  231.07301 7.0 7
  232.07019 20.0 20
  232.08165 15.0 15
  232.1115 13.0 13
  232.98465 5.0 5
  233.03752 8.0 8
  233.06233 359.0 359
  233.08153 31.0 31
  233.43777 5.0 5
  233.83492 5.0 5
  234.05568 28.0 28
  234.06755 50.0 50
  234.09319 74.0 74
  234.46121 7.0 7
  235.03152 5.0 5
  235.06482 50.0 50
  235.07687 149.0 149
  235.09953 16.0 16
  235.10999 6.0 6
  235.18848 7.0 7
  236.06778 30.0 30
  236.0854 21.0 21
  237.06758 7.0 7
  237.08154 13.0 13
  238.05836 7.0 7
  238.08968 9.0 9
  239.0999 8.0 8
  239.89694 5.0 5
  243.02592 5.0 5
  243.05539 7.0 7
  244.09013 6.0 6
  245.04285 20.0 20
  245.06427 105.0 105
  245.70418 13.0 13
  246.0575 13.0 13
  246.0668 14.0 14
  246.07849 24.0 24
  246.09265 9.0 9
  246.54108 5.0 5
  247.04909 33.0 33
  247.06477 57.0 57
  247.0768 98.0 98
  247.09061 15.0 15
  247.1068 14.0 14
  248.04054 5.0 5
  248.06079 46.0 46
  248.08002 35.0 35
  248.09108 18.0 18
  248.10626 12.0 12
  248.26309 7.0 7
  249.03415 8.0 8
  249.05696 12.0 12
  249.07184 27.0 27
  249.08414 33.0 33
  249.09563 7.0 7
  249.11792 6.0 6
  249.23102 6.0 6
  250.03386 6.0 6
  250.08133 52.0 52
  250.09332 45.0 45
  250.10419 14.0 14
  250.11902 11.0 11
  251.06671 10.0 10
  251.07715 11.0 11
  251.09241 26.0 26
  252.10141 11.0 11
  254.87074 6.0 6
  256.07086 14.0 14
  259.04547 11.0 11
  259.0726 13.0 13
  259.37943 6.0 6
  260.06586 13.0 13
  261.00006 17.0 17
  261.04562 31.0 31
  261.05771 69.0 69
  261.08096 47.0 47
  261.09543 6.0 6
  262.06192 34.0 34
  262.08679 138.0 138
  262.39304 13.0 13
  263.06702 52.0 52
  263.07886 66.0 66
  263.09845 53.0 53
  263.19513 6.0 6
  264.05328 5.0 5
  264.06668 5.0 5
  264.07578 7.0 7
  264.10162 16.0 16
  264.1127 9.0 9
  264.43918 5.0 5
  265.07211 8.0 8
  265.08075 8.0 8
  265.10043 9.0 9
  266.03879 8.0 8
  266.06335 13.0 13
  266.10968 15.0 15
  267.13141 9.0 9
  268.12241 8.0 8
  268.13205 8.0 8
  272.06335 6.0 6
  273.04968 42.0 42
  274.06479 10.0 10
  274.09006 8.0 8
  274.41431 5.0 5
  275.04831 15.0 15
  275.06546 6.0 6
  275.07864 12.0 12
  275.11188 6.0 6
  276.06369 47.0 47
  276.07144 31.0 31
  276.09616 66.0 66
  276.1098 22.0 22
  276.22635 8.0 8
  276.90182 7.0 7
  277.06201 52.0 52
  277.07672 78.0 78
  277.1051 6.0 6
  277.11639 7.0 7
  278.04712 6.0 6
  278.0759 65.0 65
  278.09311 30.0 30
  278.13141 14.0 14
  279.06039 5.0 5
  279.07904 13.0 13
  279.09818 13.0 13
  280.07886 6.0 6
  280.09036 6.0 6
  287.88666 8.0 8
  288.05496 15.0 15
  288.08945 30.0 30
  289.04395 5.0 5
  289.07602 13.0 13
  289.08881 10.0 10
  290.06631 34.0 34
  290.08258 50.0 50
  290.85934 8.0 8
  291.07007 32.0 32
  291.09631 20.0 20
  292.04288 6.0 6
  292.05344 7.0 7
  292.07635 19.0 19
  292.09866 153.0 153
  292.14169 5.0 5
  293.07404 28.0 28
  293.0929 20.0 20
  293.10815 49.0 49
  293.4093 6.0 6
  293.73975 6.0 6
  294.07272 29.0 29
  294.08737 47.0 47
  294.11932 6.0 6
  294.13531 5.0 5
  294.18451 8.0 8
  301.05545 21.0 21
  302.04233 7.0 7
  303.0509 18.0 18
  303.06525 50.0 50
  303.09869 5.0 5
  304.05826 10.0 10
  304.08383 6.0 6
  304.10724 15.0 15
  305.07407 36.0 36
  305.0965 14.0 14
  305.13171 6.0 6
  305.7272 6.0 6
  306.07941 43.0 43
  306.09494 6.0 6
  306.12366 8.0 8
  307.07291 6.0 6
  308.07816 12.0 12
  308.0885 15.0 15
  308.10254 19.0 19
  309.07352 5.0 5
  309.08707 11.0 11
  309.09674 16.0 16
  309.11307 11.0 11
  309.73117 6.0 6
  310.12296 8.0 8
  311.10233 5.0 5
  317.07126 8.0 8
  318.06778 48.0 48
  318.08447 36.0 36
  318.09958 8.0 8
  319.08051 51.0 51
  320.03732 6.0 6
  320.06577 12.0 12
  320.09338 405.0 405
  321.07007 5.0 5
  321.08987 15.0 15
  321.10275 34.0 34
  322.06717 6.0 6
  322.08731 22.0 22
  322.12668 10.0 10
  323.11459 18.0 18
  324.091 6.0 6
  325.1149 6.0 6
  325.13086 5.0 5
  332.04443 11.0 11
  332.10022 6.0 6
  334.07623 10.0 10
  334.09119 6.0 6
  334.11395 37.0 37
  335.11649 8.0 8
  336.07248 5.0 5
  350.11072 6.0 6
  352.12125 8.0 8
//
