ACCESSION: MSBNK-RIKEN-PR100179
RECORD_TITLE: N,N-Dimethylglycine; LC-ESI-QTOF; MS2; CE:30 V; [M+H]+
DATE: 2016.01.19 (Created 2009.09.10, modified 2011.05.06)
AUTHORS: Matsuda F, Suzuki M, Sawada Y, Plant Science Center, RIKEN.
LICENSE: CC BY-SA
COMMENT: Acquisition and generation of the data is financially supported in part by CREST/JST.
CH$NAME: N,N-Dimethylglycine
CH$NAME: Dmg
CH$NAME: N,N-Dimethylaminoacetic acid
CH$NAME: 2-dimethylaminoacetic acid
CH$NAME: N-Methylsarcosine
CH$COMPOUND_CLASS: Amino acids
CH$FORMULA: C4H9NO2
CH$EXACT_MASS: 103.06333
CH$SMILES: CN(C)CC(O)=O
CH$IUPAC: InChI=1S/C4H9NO2/c1-5(2)3-4(6)7/h3H2,1-2H3,(H,6,7)
CH$LINK: CAS 1118-68-9
CH$LINK: CHEMSPIDER 653
CH$LINK: KEGG C01026
CH$LINK: PUBCHEM CID:673
CH$LINK: INCHIKEY FFDGPVCHZBVARC-UHFFFAOYSA-N
CH$LINK: COMPTOX DTXSID6074336
AC$INSTRUMENT: UPLC Q-Tof Premier, Waters
AC$INSTRUMENT_TYPE: LC-ESI-QTOF
AC$MASS_SPECTROMETRY: MS_TYPE MS2
AC$MASS_SPECTROMETRY: ION_MODE POSITIVE
AC$MASS_SPECTROMETRY: COLLISION_ENERGY 30 V
AC$MASS_SPECTROMETRY: DATAFORMAT Continuum
AC$MASS_SPECTROMETRY: DESOLVATION_GAS_FLOW 600.0 L/Hr
AC$MASS_SPECTROMETRY: DESOLVATION_TEMPERATURE 400 C
AC$MASS_SPECTROMETRY: FRAGMENTATION_METHOD LOW-ENERGY CID
AC$MASS_SPECTROMETRY: IONIZATION ESI
AC$MASS_SPECTROMETRY: SOURCE_TEMPERATURE 120 C
AC$CHROMATOGRAPHY: CAPILLARY_VOLTAGE 3.0 kV
AC$CHROMATOGRAPHY: SAMPLING_CONE 23.0 V
AC$CHROMATOGRAPHY: SOLVENT A CH3CN(0.1%HCOOH)
AC$CHROMATOGRAPHY: SOLVENT B H2O(0.1%HCOOH)
MS$FOCUSED_ION: PRECURSOR_M/Z 104.07113
MS$FOCUSED_ION: PRECURSOR_TYPE [M+H]+
PK$SPLASH: splash10-0a4i-9100000000-635be273cdf7a4cdfe53
PK$NUM_PEAK: 2
PK$PEAK: m/z int. rel.int.
  58.0677 26.86 999
  104.0711 3.864 144
//
