ACCESSION: MSBNK-RIKEN-PR307024
RECORD_TITLE: Kaempferol-3-O-glucoside-2''-p-coumaroyl; LC-ESI-QTOF; MS2
DATE: 2019.03.28
AUTHORS: Tetsuya Mori, Center for Sustainable Resource Science, RIKEN
LICENSE: CC BY-NC-SA
PUBLICATION: Tsugawa H., Nakabayashi R., Mori T., Yamada Y., Takahashi M., Rai A., Sugiyama R., Yamamoto H., Nakaya T., Yamazaki M., Kooke R., Bac-Molenaar JA., Oztolan-Erol N., Keurentjes JJB., Arita M., Saito K. (2019) "A cheminformatics approach to characterize metabolomes in stable-isotope-labeled organisms" Nature Methods 16(4):295-298. [doi:10.1038/s41592-019-0358-2]
COMMENT: registered in RIKEN PlaSMA
CH$NAME: Kaempferol-3-O-glucoside-2''-p-coumaroyl
CH$COMPOUND_CLASS: Flavonoid-3-O-glycosides
CH$FORMULA: C30H26O13
CH$EXACT_MASS: 594.525
CH$SMILES: OCC1OC(OC2=C(OC3=CC(O)=CC(O)=C3C2=O)C2=CC=C(O)C=C2)C(OC(=O)C=CC2=CC=C(O)C=C2)C(O)C1O
CH$IUPAC: InChI=1S/C30H26O13/c31-13-21-24(37)26(39)29(42-22(36)10-3-14-1-6-16(32)7-2-14)30(41-21)43-28-25(38)23-19(35)11-18(34)12-20(23)40-27(28)15-4-8-17(33)9-5-15/h1-12,21,24,26,29-35,37,39H,13H2
CH$LINK: INCHIKEY IKONEAPXVKTZFF-UHFFFAOYSA-N
AC$INSTRUMENT: LC, Waters Acquity UPLC System; MS, Waters Xevo G2 Q-Tof
AC$INSTRUMENT_TYPE: LC-ESI-QTOF
AC$MASS_SPECTROMETRY: MS_TYPE MS2
AC$MASS_SPECTROMETRY: ION_MODE NEGATIVE
AC$MASS_SPECTROMETRY: COLLISION_ENERGY 6V
AC$MASS_SPECTROMETRY: DESOLVATION_GAS_FLOW 800/h
AC$MASS_SPECTROMETRY: DESOLVATION_TEMPERATURE 450 C
AC$MASS_SPECTROMETRY: IONIZATION ESI
AC$CHROMATOGRAPHY: CAPILLARY_VOLTAGE -2.75 kV
AC$CHROMATOGRAPHY: COLUMN_NAME Acquity bridged ethyl hybrid C18 (1.7 um, 2.1 mm * 100 mm, Waters)
AC$CHROMATOGRAPHY: COLUMN_TEMPERATURE 40 C
AC$CHROMATOGRAPHY: FLOW_GRADIENT A/B = (99.5%/0.5% at 0 min, 99.5%/0.5% at 0.1 min, 20%/80% at 10 min, 0.5%/99.5% at 10.1 min, 0.5%/99.5% at 12.0 min, 99.5%/0.5% at 12.1 min, 99.5%/0.5% at 15.0 min)
AC$CHROMATOGRAPHY: FLOW_RATE 0.3 ml/min at 0 min, 0.3 ml/min at 10 min, 0.4 ml/min at 10.1 min, 0.4 ml/min at 14.4 min, 0.3 ml/min at 14.5 min
AC$CHROMATOGRAPHY: RETENTION_TIME 5.31575
AC$CHROMATOGRAPHY: SOLVENT A water including 0.1% formic acid
AC$CHROMATOGRAPHY: SOLVENT B acetonitrile including 0.1% formic acid
MS$FOCUSED_ION: PRECURSOR_TYPE [M-H]-
MS$FOCUSED_ION: PRECURSOR_M/Z 593.13006444783
PK$SPLASH: splash10-000i-0190000000-5ddf6c32be6773081813
PK$NUM_PEAK: 18
PK$PEAK: m/z int. rel.int.
  119.04953 9.0 9
  145.02681 72.0 72
  146.03438 7.0 7
  151.00243 81.0 81
  162.99986 5.0 5
  163.03471 16.0 16
  163.04408 9.0 9
  229.04526 19.0 19
  242.05742 5.0 5
  257.03088 9.0 9
  257.04489 42.0 42
  258.03632 5.0 5
  284.02713 23.0 23
  285.03998 1000.0 999
  286.04266 174.0 174
  287.04755 13.0 13
  307.08612 37.0 37
  308.08768 8.0 8
//
