ACCESSION: MSBNK-RIKEN-PR301788
RECORD_TITLE: Oxyacanthine; LC-ESI-QTOF; MS2
DATE: 2019.03.28
AUTHORS: Tetsuya Mori, Center for Sustainable Resource Science, RIKEN
LICENSE: CC BY-NC-SA
PUBLICATION: Tsugawa H., Nakabayashi R., Mori T., Yamada Y., Takahashi M., Rai A., Sugiyama R., Yamamoto H., Nakaya T., Yamazaki M., Kooke R., Bac-Molenaar JA., Oztolan-Erol N., Keurentjes JJB., Arita M., Saito K. (2019) "A cheminformatics approach to characterize metabolomes in stable-isotope-labeled organisms" Nature Methods 16(4):295-298. [doi:10.1038/s41592-019-0358-2]
COMMENT: registered in RIKEN PlaSMA
CH$NAME: Oxyacanthine
CH$COMPOUND_CLASS: Lignans, neolignans and related compounds
CH$FORMULA: C37H40N2O6
CH$EXACT_MASS: 608.735
CH$SMILES: COC1=C2OC3=C4C(CC5=CC=C(OC6=C(O)C=CC(C[C@H]7N(C)CCC(=C1)C7=C2)=C6)C=C5)N(C)CCC4=CC(OC)=C3OC
CH$IUPAC: InChI=1S/C37H40N2O6/c1-38-14-12-24-19-32(41-3)33-21-27(24)28(38)17-23-8-11-30(40)31(18-23)44-26-9-6-22(7-10-26)16-29-35-25(13-15-39(29)2)20-34(42-4)36(43-5)37(35)45-33/h6-11,18-21,28-29,40H,12-17H2,1-5H3/t28-,29?/m1/s1
CH$LINK: INCHIKEY HGNHIFJNOKGSKI-FICMROCWSA-N
AC$INSTRUMENT: LC, Waters Acquity UPLC System; MS, Waters Xevo G2 Q-Tof
AC$INSTRUMENT_TYPE: LC-ESI-QTOF
AC$MASS_SPECTROMETRY: MS_TYPE MS2
AC$MASS_SPECTROMETRY: ION_MODE POSITIVE
AC$MASS_SPECTROMETRY: COLLISION_ENERGY 6V
AC$MASS_SPECTROMETRY: DESOLVATION_GAS_FLOW 800/h
AC$MASS_SPECTROMETRY: DESOLVATION_TEMPERATURE 450 C
AC$MASS_SPECTROMETRY: IONIZATION ESI
AC$CHROMATOGRAPHY: CAPILLARY_VOLTAGE +3.00 kV
AC$CHROMATOGRAPHY: COLUMN_NAME Acquity bridged ethyl hybrid C18 (1.7 um, 2.1 mm * 100 mm, Waters)
AC$CHROMATOGRAPHY: COLUMN_TEMPERATURE 40 C
AC$CHROMATOGRAPHY: FLOW_GRADIENT A/B = (99.5%/0.5% at 0 min, 99.5%/0.5% at 0.1 min, 20%/80% at 10 min, 0.5%/99.5% at 10.1 min, 0.5%/99.5% at 12.0 min, 99.5%/0.5% at 12.1 min, 99.5%/0.5% at 15.0 min)
AC$CHROMATOGRAPHY: FLOW_RATE 0.3 ml/min at 0 min, 0.3 ml/min at 10 min, 0.4 ml/min at 10.1 min, 0.4 ml/min at 14.4 min, 0.3 ml/min at 14.5 min
AC$CHROMATOGRAPHY: RETENTION_TIME 3.764483
AC$CHROMATOGRAPHY: SOLVENT A water including 0.1% formic acid
AC$CHROMATOGRAPHY: SOLVENT B acetonitrile including 0.1% formic acid
MS$FOCUSED_ION: PRECURSOR_TYPE [M+H]+
MS$FOCUSED_ION: PRECURSOR_M/Z 609.2959135
PK$SPLASH: splash10-0a4i-0000019000-05bc65629d8b248cfc26
PK$NUM_PEAK: 36
PK$PEAK: m/z int. rel.int.
  174.08049 6.0 6
  181.09506 5.0 5
  190.1201 7.0 7
  193.10475 7.0 7
  217.43665 5.0 5
  221.09216 8.0 8
  222.11143 18.0 18
  239.09947 7.0 7
  290.12079 6.0 6
  305.1615 12.0 12
  305.6723 6.0 6
  338.13696 7.0 7
  355.12674 5.0 5
  373.16318 6.0 6
  381.18494 16.0 16
  401.14011 5.0 5
  413.26266 6.0 6
  493.1936 6.0 6
  505.1626 6.0 6
  533.22467 5.0 5
  535.23688 7.0 7
  547.20801 10.0 10
  562.22211 7.0 7
  566.24054 16.0 16
  566.26245 35.0 35
  567.25879 11.0 11
  577.27112 5.0 5
  578.25269 40.0 40
  578.28247 21.0 21
  579.24054 8.0 8
  579.27161 7.0 7
  608.27808 6.0 6
  608.31555 8.0 8
  609.18109 6.0 6
  609.22723 9.0 9
  609.29889 1000.0 999
//
