ACCESSION: MSBNK-RIKEN-PR308790
RECORD_TITLE: 2'-Hydroxyflavanone; LC-ESI-QTOF; MS2
DATE: 2019.03.28
AUTHORS: Tetsuya Mori, Center for Sustainable Resource Science, RIKEN
LICENSE: CC BY-NC-SA
PUBLICATION: Tsugawa H., Nakabayashi R., Mori T., Yamada Y., Takahashi M., Rai A., Sugiyama R., Yamamoto H., Nakaya T., Yamazaki M., Kooke R., Bac-Molenaar JA., Oztolan-Erol N., Keurentjes JJB., Arita M., Saito K. (2019) "A cheminformatics approach to characterize metabolomes in stable-isotope-labeled organisms" Nature Methods 16(4):295-298. [doi:10.1038/s41592-019-0358-2]
COMMENT: Annotation level-1
CH$NAME: 2'-Hydroxyflavanone
CH$COMPOUND_CLASS: Flavanone O-glycosides
CH$FORMULA: C15H12O3
CH$EXACT_MASS: 240.258
CH$SMILES: OC1=C(C=CC=C1)C1CC(=O)C2=C(O1)C=CC=C2
CH$IUPAC: InChI=1S/C15H12O3/c16-12-7-3-1-5-10(12)15-9-13(17)11-6-2-4-8-14(11)18-15/h1-8,15-16H,9H2
CH$LINK: INCHIKEY KZKWCKFDCPVDFJ-UHFFFAOYSA-N
AC$INSTRUMENT: LC, Waters Acquity UPLC System; MS, Waters Xevo G2 Q-Tof
AC$INSTRUMENT_TYPE: LC-ESI-QTOF
AC$MASS_SPECTROMETRY: MS_TYPE MS2
AC$MASS_SPECTROMETRY: ION_MODE NEGATIVE
AC$MASS_SPECTROMETRY: COLLISION_ENERGY 6V
AC$MASS_SPECTROMETRY: DESOLVATION_GAS_FLOW 800/h
AC$MASS_SPECTROMETRY: DESOLVATION_TEMPERATURE 450 C
AC$MASS_SPECTROMETRY: IONIZATION ESI
AC$CHROMATOGRAPHY: CAPILLARY_VOLTAGE +3.00 kV
AC$CHROMATOGRAPHY: COLUMN_NAME Acquity bridged ethyl hybrid C18 (1.7 um, 2.1 mm * 100 mm, Waters)
AC$CHROMATOGRAPHY: COLUMN_TEMPERATURE 40 C
AC$CHROMATOGRAPHY: FLOW_GRADIENT A/B = (99.5%/0.5% at 0 min, 99.5%/0.5% at 0.1 min, 20%/80% at 10 min, 0.5%/99.5% at 10.1 min, 0.5%/99.5% at 12.0 min, 99.5%/0.5% at 12.1 min, 99.5%/0.5% at 15.0 min)
AC$CHROMATOGRAPHY: FLOW_RATE 0.3 ml/min at 0 min, 0.3 ml/min at 10 min, 0.4 ml/min at 10.1 min, 0.4 ml/min at 14.4 min, 0.3 ml/min at 14.5 min
AC$CHROMATOGRAPHY: RETENTION_TIME 7.45
AC$CHROMATOGRAPHY: SOLVENT A water including 0.1% formic acid
AC$CHROMATOGRAPHY: SOLVENT B acetonitrile including 0.1% formic acid
MS$FOCUSED_ION: PRECURSOR_TYPE [M-H]-
MS$FOCUSED_ION: PRECURSOR_M/Z 239.07137
PK$SPLASH: splash10-014i-1910000000-2008d1e53ca7fae54aac
PK$NUM_PEAK: 29
PK$PEAK: m/z int. rel.int.
  74.46837 43.0 5
  83.03237 20.0 2
  91.05111 22.0 2
  92.134 22.0 2
  93.03279 1229.0 138
  94.02998 24.0 3
  94.03951 98.0 11
  103.02862 19.0 2
  103.3502 26.0 3
  109.63548 18.0 2
  117.033 570.0 64
  118.03561 34.0 4
  119.04868 8922.0 999
  120.0527 641.0 72
  121.02866 120.0 13
  121.05408 37.0 4
  121.8833 21.0 2
  130.55305 18.0 2
  133.01784 37.0 4
  133.02811 402.0 45
  134.03206 30.0 3
  145.02768 174.0 19
  146.0329 42.0 5
  168.54063 21.0 2
  180.05502 24.0 3
  195.07695 63.0 7
  195.09322 20.0 2
  239.07059 2027.0 227
  239.20105 20.0 2
//
