ACCESSION: MSBNK-RIKEN-PR303939
RECORD_TITLE: Enterodiol; LC-ESI-QTOF; MS2
DATE: 2019.03.28
AUTHORS: Tetsuya Mori, Center for Sustainable Resource Science, RIKEN
LICENSE: CC BY-NC-SA
PUBLICATION: Tsugawa H., Nakabayashi R., Mori T., Yamada Y., Takahashi M., Rai A., Sugiyama R., Yamamoto H., Nakaya T., Yamazaki M., Kooke R., Bac-Molenaar JA., Oztolan-Erol N., Keurentjes JJB., Arita M., Saito K. (2019) "A cheminformatics approach to characterize metabolomes in stable-isotope-labeled organisms" Nature Methods 16(4):295-298. [doi:10.1038/s41592-019-0358-2]
COMMENT: registered in RIKEN PlaSMA
CH$NAME: Enterodiol
CH$COMPOUND_CLASS: Dibenzylbutanediol lignans
CH$FORMULA: C18H22O4
CH$EXACT_MASS: 302.37
CH$SMILES: OC[C@H](CC1=CC(O)=CC=C1)[C@H](CO)CC1=CC(O)=CC=C1
CH$IUPAC: InChI=1S/C18H22O4/c19-11-15(7-13-3-1-5-17(21)9-13)16(12-20)8-14-4-2-6-18(22)10-14/h1-6,9-10,15-16,19-22H,7-8,11-12H2/t15-,16-/m0/s1
CH$LINK: INCHIKEY DWONJCNDULPHLV-HOTGVXAUSA-N
AC$INSTRUMENT: LC, Waters Acquity UPLC System; MS, Waters Xevo G2 Q-Tof
AC$INSTRUMENT_TYPE: LC-ESI-QTOF
AC$MASS_SPECTROMETRY: MS_TYPE MS2
AC$MASS_SPECTROMETRY: ION_MODE POSITIVE
AC$MASS_SPECTROMETRY: COLLISION_ENERGY 6V
AC$MASS_SPECTROMETRY: DESOLVATION_GAS_FLOW 800/h
AC$MASS_SPECTROMETRY: DESOLVATION_TEMPERATURE 450 C
AC$MASS_SPECTROMETRY: IONIZATION ESI
AC$CHROMATOGRAPHY: CAPILLARY_VOLTAGE +3.00 kV
AC$CHROMATOGRAPHY: COLUMN_NAME Acquity bridged ethyl hybrid C18 (1.7 um, 2.1 mm * 100 mm, Waters)
AC$CHROMATOGRAPHY: COLUMN_TEMPERATURE 40 C
AC$CHROMATOGRAPHY: FLOW_GRADIENT A/B = (99.5%/0.5% at 0 min, 99.5%/0.5% at 0.1 min, 20%/80% at 10 min, 0.5%/99.5% at 10.1 min, 0.5%/99.5% at 12.0 min, 99.5%/0.5% at 12.1 min, 99.5%/0.5% at 15.0 min)
AC$CHROMATOGRAPHY: FLOW_RATE 0.3 ml/min at 0 min, 0.3 ml/min at 10 min, 0.4 ml/min at 10.1 min, 0.4 ml/min at 14.4 min, 0.3 ml/min at 14.5 min
AC$CHROMATOGRAPHY: RETENTION_TIME 5.26195
AC$CHROMATOGRAPHY: SOLVENT A water including 0.1% formic acid
AC$CHROMATOGRAPHY: SOLVENT B acetonitrile including 0.1% formic acid
MS$FOCUSED_ION: PRECURSOR_TYPE [M+H]+
MS$FOCUSED_ION: PRECURSOR_M/Z 303.1590856
PK$SPLASH: splash10-014i-0290000000-97e36f7e74e751ef2ca8
PK$NUM_PEAK: 37
PK$PEAK: m/z int. rel.int.
  107.04351 30.0 30
  107.04998 82.0 82
  108.05109 15.0 15
  111.07821 6.0 6
  117.31875 6.0 6
  121.06068 8.0 8
  121.06757 18.0 18
  131.69775 6.0 6
  133.06508 113.0 113
  134.07561 6.0 6
  134.79233 7.0 7
  135.08035 13.0 13
  147.07303 23.0 23
  147.08226 14.0 14
  159.06403 7.0 7
  159.08168 76.0 76
  160.08334 14.0 14
  173.09209 29.0 29
  173.10181 25.0 25
  174.09552 12.0 12
  177.09586 9.0 9
  223.10918 8.0 8
  249.12511 6.0 6
  257.79858 6.0 6
  265.13992 6.0 6
  266.14252 9.0 9
  266.19989 6.0 6
  267.138 1000.0 999
  268.13843 143.0 143
  268.1525 57.0 57
  269.14066 27.0 27
  269.15625 5.0 5
  285.1478 193.0 193
  286.14014 18.0 18
  286.15497 72.0 72
  287.16098 9.0 9
  303.14743 7.0 7
//
