ACCESSION: MSBNK-RIKEN-PR302593
RECORD_TITLE: Apigenin-8-C-glucoside; LC-ESI-QTOF; MS2
DATE: 2019.03.28
AUTHORS: Tetsuya Mori, Center for Sustainable Resource Science, RIKEN
LICENSE: CC BY-NC-SA
PUBLICATION: Tsugawa H., Nakabayashi R., Mori T., Yamada Y., Takahashi M., Rai A., Sugiyama R., Yamamoto H., Nakaya T., Yamazaki M., Kooke R., Bac-Molenaar JA., Oztolan-Erol N., Keurentjes JJB., Arita M., Saito K. (2019) "A cheminformatics approach to characterize metabolomes in stable-isotope-labeled organisms" Nature Methods 16(4):295-298. [doi:10.1038/s41592-019-0358-2]
COMMENT: registered in RIKEN PlaSMA
CH$NAME: Apigenin-8-C-glucoside
CH$COMPOUND_CLASS: Flavonoid 8-C-glycosides
CH$FORMULA: C21H20O10
CH$EXACT_MASS: 432.381
CH$SMILES: C1=CC(=CC=C1C2=CC(=O)C3=C(O2)C(=C(C=C3O)O)[C@H]4[C@@H]([C@H]([C@@H]([C@H](O4)CO)O)O)O)O
CH$IUPAC: InChI=1S/C21H20O10/c22-7-14-17(27)18(28)19(29)21(31-14)16-11(25)5-10(24)15-12(26)6-13(30-20(15)16)8-1-3-9(23)4-2-8/h1-6,14,17-19,21-25,27-29H,7H2/t14-,17-,18+,19-,21+/m1/s1
CH$LINK: INCHIKEY SGEWCQFRYRRZDC-VPRICQMDSA-N
AC$INSTRUMENT: LC, Waters Acquity UPLC System; MS, Waters Xevo G2 Q-Tof
AC$INSTRUMENT_TYPE: LC-ESI-QTOF
AC$MASS_SPECTROMETRY: MS_TYPE MS2
AC$MASS_SPECTROMETRY: ION_MODE POSITIVE
AC$MASS_SPECTROMETRY: COLLISION_ENERGY 6V
AC$MASS_SPECTROMETRY: DESOLVATION_GAS_FLOW 800/h
AC$MASS_SPECTROMETRY: DESOLVATION_TEMPERATURE 450 C
AC$MASS_SPECTROMETRY: IONIZATION ESI
AC$CHROMATOGRAPHY: CAPILLARY_VOLTAGE +3.00 kV
AC$CHROMATOGRAPHY: COLUMN_NAME Acquity bridged ethyl hybrid C18 (1.7 um, 2.1 mm * 100 mm, Waters)
AC$CHROMATOGRAPHY: COLUMN_TEMPERATURE 40 C
AC$CHROMATOGRAPHY: FLOW_GRADIENT A/B = (99.5%/0.5% at 0 min, 99.5%/0.5% at 0.1 min, 20%/80% at 10 min, 0.5%/99.5% at 10.1 min, 0.5%/99.5% at 12.0 min, 99.5%/0.5% at 12.1 min, 99.5%/0.5% at 15.0 min)
AC$CHROMATOGRAPHY: FLOW_RATE 0.3 ml/min at 0 min, 0.3 ml/min at 10 min, 0.4 ml/min at 10.1 min, 0.4 ml/min at 14.4 min, 0.3 ml/min at 14.5 min
AC$CHROMATOGRAPHY: RETENTION_TIME 3.96405
AC$CHROMATOGRAPHY: SOLVENT A water including 0.1% formic acid
AC$CHROMATOGRAPHY: SOLVENT B acetonitrile including 0.1% formic acid
MS$FOCUSED_ION: PRECURSOR_TYPE [M+H]+
MS$FOCUSED_ION: PRECURSOR_M/Z 433.1129233
PK$SPLASH: splash10-053r-0591000000-d8b16586e42eb0b1c440
PK$NUM_PEAK: 309
PK$PEAK: m/z int. rel.int.
  55.01333 16.0 16
  55.02539 16.0 16
  65.03755 14.0 14
  67.05804 9.0 9
  69.00224 19.0 19
  79.01646 44.0 44
  79.02212 71.0 71
  79.05358 13.0 13
  80.02276 11.0 11
  81.01469 9.0 9
  81.0344 13.0 13
  85.02785 58.0 58
  85.03547 16.0 16
  91.04833 11.0 11
  93.03097 46.0 46
  93.22104 13.0 13
  95.01287 11.0 11
  95.04672 16.0 16
  97.01987 10.0 10
  103.90366 11.0 11
  104.97238 12.0 12
  107.00991 56.0 56
  107.04724 10.0 10
  109.02786 31.0 31
  109.05962 14.0 14
  110.032 34.0 34
  111.04211 66.0 66
  114.13906 11.0 11
  119.04884 92.0 92
  120.05345 40.0 40
  120.05995 56.0 56
  120.07272 16.0 16
  120.99391 32.0 32
  121.0047 21.0 21
  121.02885 839.0 838
  121.05271 13.0 13
  121.79563 10.0 10
  121.87128 15.0 15
  122.02022 27.0 27
  122.02861 21.0 21
  122.03596 14.0 14
  123.00951 29.0 29
  125.01961 38.0 38
  125.02693 9.0 9
  128.06215 38.0 38
  128.70038 22.0 22
  131.04759 37.0 37
  131.05608 22.0 22
  134.03473 16.0 16
  134.04051 11.0 11
  137.02095 15.0 15
  137.02779 11.0 11
  138.00253 14.0 14
  138.01923 42.0 42
  138.02919 104.0 104
  138.03633 34.0 34
  142.043 11.0 11
  142.78027 13.0 13
  143.05215 10.0 10
  145.01154 17.0 17
  145.02657 181.0 181
  145.03152 90.0 90
  145.06358 13.0 13
  145.07727 18.0 18
  146.03485 17.0 17
  147.00441 14.0 14
  147.03925 10.0 10
  147.04672 21.0 21
  149.01555 29.0 29
  149.02859 17.0 17
  150.03502 14.0 14
  150.05946 16.0 16
  152.05774 13.0 13
  153.01819 43.0 43
  153.05948 12.0 12
  153.06723 14.0 14
  154.01817 11.0 11
  155.03763 12.0 12
  157.06281 44.0 44
  160.04938 9.0 9
  161.06296 11.0 11
  162.03484 16.0 16
  163.02666 22.0 22
  163.03642 73.0 73
  163.99571 13.0 13
  164.03851 9.0 9
  164.05165 11.0 11
  165.01778 247.0 247
  165.05908 15.0 15
  166.01784 23.0 23
  167.03195 31.0 31
  167.0396 20.0 20
  168.03783 12.0 12
  169.03777 19.0 19
  169.06573 37.0 37
  169.63104 23.0 23
  170.07713 14.0 14
  171.04771 14.0 14
  172.05733 15.0 15
  173.50641 11.0 11
  174.06844 10.0 10
  175.02797 10.0 10
  175.04675 10.0 10
  177.017 38.0 38
  177.05042 10.0 10
  177.05542 27.0 27
  178.06082 17.0 17
  178.89072 15.0 15
  179.01268 20.0 20
  179.03008 83.0 83
  180.03612 38.0 38
  181.06177 18.0 18
  181.07161 76.0 76
  181.53966 11.0 11
  181.57173 14.0 14
  182.05173 9.0 9
  182.07628 51.0 51
  185.04852 25.0 25
  185.05708 92.0 92
  186.05554 12.0 12
  186.06726 83.0 83
  187.03436 24.0 24
  187.04248 52.0 52
  188.0499 22.0 22
  188.07411 14.0 14
  189.01352 39.0 39
  190.04463 10.0 10
  191.03032 34.0 34
  193.0414 27.0 27
  195.03035 20.0 20
  195.07672 12.0 12
  197.04175 12.0 12
  197.05235 54.0 54
  197.06148 25.0 25
  198.25485 9.0 9
  199.05574 10.0 10
  199.07755 13.0 13
  200.00818 18.0 18
  202.06554 44.0 44
  205.01305 28.0 28
  205.04039 14.0 14
  205.05466 10.0 10
  205.06497 13.0 13
  206.06119 18.0 18
  207.06979 28.0 28
  209.04236 11.0 11
  209.07716 12.0 12
  209.60693 19.0 19
  210.06937 48.0 48
  211.02327 9.0 9
  211.0325 27.0 27
  211.07243 82.0 82
  211.08728 68.0 68
  212.07678 31.0 31
  212.08879 9.0 9
  213.03972 17.0 17
  213.05727 215.0 215
  214.04031 13.0 13
  214.05305 47.0 47
  214.08011 9.0 9
  215.01859 9.0 9
  215.03391 12.0 12
  215.04405 12.0 12
  215.06026 41.0 41
  216.07768 12.0 12
  216.3511 13.0 13
  217.01486 16.0 16
  217.05185 10.0 10
  219.39104 9.0 9
  221.06317 21.0 21
  224.05064 18.0 18
  224.15393 9.0 9
  227.06848 142.0 142
  228.00034 11.0 11
  228.03665 14.0 14
  228.06392 37.0 37
  228.08432 75.0 75
  228.69545 11.0 11
  229.07321 10.0 10
  229.9838 9.0 9
  231.08296 14.0 14
  233.75771 11.0 11
  234.08214 22.0 22
  235.06737 15.0 15
  237.05492 15.0 15
  238.05244 15.0 15
  238.06175 55.0 55
  239.05368 11.0 11
  239.06981 24.0 24
  239.65453 10.0 10
  240.07863 10.0 10
  241.03418 15.0 15
  241.04204 46.0 46
  241.05515 48.0 48
  241.33307 13.0 13
  242.00098 9.0 9
  242.01054 12.0 12
  242.0526 78.0 78
  242.06953 21.0 21
  242.179 9.0 9
  243.02669 14.0 14
  243.06201 23.0 23
  243.0713 9.0 9
  244.0614 18.0 18
  249.04646 23.0 23
  250.0535 9.0 9
  251.05061 12.0 12
  251.0762 15.0 15
  253.05243 11.0 11
  253.07838 10.0 10
  255.0058 12.0 12
  255.03564 27.0 27
  255.06497 474.0 474
  256.07004 429.0 429
  256.08347 149.0 149
  256.58951 14.0 14
  257.07184 16.0 16
  257.08282 28.0 28
  257.35138 11.0 11
  258.07654 9.0 9
  262.05692 25.0 25
  264.07587 17.0 17
  265.02393 18.0 18
  265.0462 30.0 30
  265.05615 25.0 25
  266.04327 13.0 13
  266.05838 102.0 102
  267.04541 18.0 18
  267.05316 47.0 47
  267.0722 21.0 21
  267.0954 9.0 9
  268.06802 47.0 47
  268.08279 14.0 14
  269.03848 11.0 11
  269.07599 52.0 52
  270.0524 23.0 23
  271.03262 10.0 10
  271.06317 64.0 64
  278.22107 15.0 15
  279.03409 22.0 22
  279.04807 17.0 17
  279.06873 45.0 45
  280.06094 15.0 15
  281.06036 12.0 12
  281.07941 67.0 67
  281.76157 10.0 10
  282.871 9.0 9
  283.02344 46.0 46
  283.05804 683.0 682
  283.07123 163.0 163
  283.90118 16.0 16
  284.02609 20.0 20
  284.06793 1000.0 999
  284.27075 11.0 11
  284.84415 9.0 9
  284.99573 27.0 27
  285.05283 28.0 28
  285.07251 182.0 182
  285.09286 10.0 10
  285.13812 15.0 15
  285.53793 12.0 12
  286.81592 10.0 10
  293.08578 21.0 21
  294.04816 27.0 27
  294.09943 18.0 18
  295.04309 62.0 62
  295.05746 244.0 244
  295.07651 31.0 31
  296.05807 27.0 27
  296.07294 32.0 32
  297.03137 10.0 10
  297.0459 25.0 25
  297.07458 498.0 498
  297.10568 21.0 21
  298.07327 14.0 14
  298.09775 22.0 22
  299.05176 10.0 10
  299.60507 9.0 9
  305.09244 12.0 12
  306.08118 9.0 9
  307.05991 33.0 33
  308.0661 27.0 27
  308.60309 9.0 9
  309.07791 136.0 136
  310.08795 15.0 15
  310.27029 11.0 11
  311.08746 11.0 11
  312.87216 14.0 14
  313.04794 24.0 24
  313.06308 34.0 34
  313.08118 149.0 149
  314.07892 62.0 62
  315.13998 11.0 11
  321.07065 16.0 16
  323.03864 15.0 15
  323.052 23.0 23
  323.07382 57.0 57
  323.09546 27.0 27
  324.06549 16.0 16
  324.08575 26.0 26
  325.02374 13.0 13
  325.07559 11.0 11
  333.08231 12.0 12
  337.05618 10.0 10
  337.07501 12.0 12
  351.0928 16.0 16
  356.52118 12.0 12
  361.07224 13.0 13
  433.12195 16.0 16
//
