ACCESSION: MSBNK-RIKEN-PR300508
RECORD_TITLE: Carbazochrome sulfonate; LC-ESI-QTOF; MS2
DATE: 2019.03.28
AUTHORS: Tetsuya Mori, Center for Sustainable Resource Science, RIKEN
LICENSE: CC BY-NC-SA
PUBLICATION: Tsugawa H., Nakabayashi R., Mori T., Yamada Y., Takahashi M., Rai A., Sugiyama R., Yamamoto H., Nakaya T., Yamazaki M., Kooke R., Bac-Molenaar JA., Oztolan-Erol N., Keurentjes JJB., Arita M., Saito K. (2019) "A cheminformatics approach to characterize metabolomes in stable-isotope-labeled organisms" Nature Methods 16(4):295-298. [doi:10.1038/s41592-019-0358-2]
COMMENT: registered in RIKEN PlaSMA
CH$NAME: Carbazochrome sulfonate
CH$COMPOUND_CLASS: Indoles and derivatives
CH$FORMULA: C10H12N4O5S
CH$EXACT_MASS: 300.294
CH$SMILES: CN1C(CC2=C\C(=N\NC(O)=N)C(=O)C=C12)S(O)(=O)=O
CH$IUPAC: InChI=1S/C10H12N4O5S/c1-14-7-4-8(15)6(12-13-10(11)16)2-5(7)3-9(14)20(17,18)19/h2,4,9H,3H2,1H3,(H3,11,13,16)(H,17,18,19)/b12-6-
CH$LINK: INCHIKEY OZCACMPSTYQSMM-SDQBBNPISA-N
AC$INSTRUMENT: LC, Waters Acquity UPLC System; MS, Waters Xevo G2 Q-Tof
AC$INSTRUMENT_TYPE: LC-ESI-QTOF
AC$MASS_SPECTROMETRY: MS_TYPE MS2
AC$MASS_SPECTROMETRY: ION_MODE POSITIVE
AC$MASS_SPECTROMETRY: COLLISION_ENERGY 6V
AC$MASS_SPECTROMETRY: DESOLVATION_GAS_FLOW 800/h
AC$MASS_SPECTROMETRY: DESOLVATION_TEMPERATURE 450 C
AC$MASS_SPECTROMETRY: IONIZATION ESI
AC$CHROMATOGRAPHY: CAPILLARY_VOLTAGE +3.00 kV
AC$CHROMATOGRAPHY: COLUMN_NAME Acquity bridged ethyl hybrid C18 (1.7 um, 2.1 mm * 100 mm, Waters)
AC$CHROMATOGRAPHY: COLUMN_TEMPERATURE 40 C
AC$CHROMATOGRAPHY: FLOW_GRADIENT A/B = (99.5%/0.5% at 0 min, 99.5%/0.5% at 0.1 min, 20%/80% at 10 min, 0.5%/99.5% at 10.1 min, 0.5%/99.5% at 12.0 min, 99.5%/0.5% at 12.1 min, 99.5%/0.5% at 15.0 min)
AC$CHROMATOGRAPHY: FLOW_RATE 0.3 ml/min at 0 min, 0.3 ml/min at 10 min, 0.4 ml/min at 10.1 min, 0.4 ml/min at 14.4 min, 0.3 ml/min at 14.5 min
AC$CHROMATOGRAPHY: RETENTION_TIME 2.693717
AC$CHROMATOGRAPHY: SOLVENT A water including 0.1% formic acid
AC$CHROMATOGRAPHY: SOLVENT B acetonitrile including 0.1% formic acid
MS$FOCUSED_ION: PRECURSOR_TYPE [M+H]+
MS$FOCUSED_ION: PRECURSOR_M/Z 301.0601171
PK$SPLASH: splash10-000t-0980000000-7a68e7d84cb0f4ab9be3
PK$NUM_PEAK: 30
PK$PEAK: m/z int. rel.int.
  106.04432 36.0 36
  118.06939 33.0 33
  131.0685 39.0 39
  132.07031 34.0 34
  146.05766 38.0 38
  146.06322 78.0 78
  146.75302 39.0 39
  147.06886 1000.0 999
  148.07568 190.0 190
  164.0686 24.0 24
  181.10617 21.0 21
  203.07018 31.0 31
  218.99309 21.0 21
  228.02704 38.0 38
  246.43893 26.0 26
  256.03067 82.0 82
  256.05182 24.0 24
  256.06213 77.0 77
  257.03137 90.0 90
  258.04633 27.0 27
  283.97958 29.0 29
  284.00513 30.0 30
  284.03671 728.0 727
  285.01868 30.0 30
  285.04071 109.0 109
  285.05118 68.0 68
  286.04886 39.0 39
  301.04633 21.0 21
  301.05939 30.0 30
  301.07248 77.0 77
//
