ACCESSION: MSBNK-RIKEN-PR300463
RECORD_TITLE: Sinomenine; LC-ESI-QTOF; MS2
DATE: 2019.03.28
AUTHORS: Tetsuya Mori, Center for Sustainable Resource Science, RIKEN
LICENSE: CC BY-NC-SA
PUBLICATION: Tsugawa H., Nakabayashi R., Mori T., Yamada Y., Takahashi M., Rai A., Sugiyama R., Yamamoto H., Nakaya T., Yamazaki M., Kooke R., Bac-Molenaar JA., Oztolan-Erol N., Keurentjes JJB., Arita M., Saito K. (2019) "A cheminformatics approach to characterize metabolomes in stable-isotope-labeled organisms" Nature Methods 16(4):295-298. [doi:10.1038/s41592-019-0358-2]
COMMENT: registered in RIKEN PlaSMA
CH$NAME: Sinomenine
CH$COMPOUND_CLASS: Morphinans
CH$FORMULA: C19H23NO4
CH$EXACT_MASS: 329.396
CH$SMILES: COC1=C[C@@H]2[C@@H]3CC4=C(C(O)=C(OC)C=C4)[C@]2(CCN3C)CC1=O
CH$IUPAC: InChI=1S/C19H23NO4/c1-20-7-6-19-10-14(21)16(24-3)9-12(19)13(20)8-11-4-5-15(23-2)18(22)17(11)19/h4-5,9,12-13,22H,6-8,10H2,1-3H3/t12-,13+,19-/m1/s1
CH$LINK: INCHIKEY INYYVPJSBIVGPH-QHRIQVFBSA-N
AC$INSTRUMENT: LC, Waters Acquity UPLC System; MS, Waters Xevo G2 Q-Tof
AC$INSTRUMENT_TYPE: LC-ESI-QTOF
AC$MASS_SPECTROMETRY: MS_TYPE MS2
AC$MASS_SPECTROMETRY: ION_MODE POSITIVE
AC$MASS_SPECTROMETRY: COLLISION_ENERGY 6V
AC$MASS_SPECTROMETRY: DESOLVATION_GAS_FLOW 800/h
AC$MASS_SPECTROMETRY: DESOLVATION_TEMPERATURE 450 C
AC$MASS_SPECTROMETRY: IONIZATION ESI
AC$CHROMATOGRAPHY: CAPILLARY_VOLTAGE +3.00 kV
AC$CHROMATOGRAPHY: COLUMN_NAME Acquity bridged ethyl hybrid C18 (1.7 um, 2.1 mm * 100 mm, Waters)
AC$CHROMATOGRAPHY: COLUMN_TEMPERATURE 40 C
AC$CHROMATOGRAPHY: FLOW_GRADIENT A/B = (99.5%/0.5% at 0 min, 99.5%/0.5% at 0.1 min, 20%/80% at 10 min, 0.5%/99.5% at 10.1 min, 0.5%/99.5% at 12.0 min, 99.5%/0.5% at 12.1 min, 99.5%/0.5% at 15.0 min)
AC$CHROMATOGRAPHY: FLOW_RATE 0.3 ml/min at 0 min, 0.3 ml/min at 10 min, 0.4 ml/min at 10.1 min, 0.4 ml/min at 14.4 min, 0.3 ml/min at 14.5 min
AC$CHROMATOGRAPHY: RETENTION_TIME 3.033383
AC$CHROMATOGRAPHY: SOLVENT A water including 0.1% formic acid
AC$CHROMATOGRAPHY: SOLVENT B acetonitrile including 0.1% formic acid
MS$FOCUSED_ION: PRECURSOR_TYPE [M+H]+
MS$FOCUSED_ION: PRECURSOR_M/Z 330.1699847
PK$SPLASH: splash10-001i-0591000000-78d91d697d503d8862e1
PK$NUM_PEAK: 291
PK$PEAK: m/z int. rel.int.
  58.06449 66.0 66
  91.05474 28.0 28
  93.06828 15.0 15
  95.04635 6.0 6
  101.06258 6.0 6
  119.0453 19.0 19
  119.05359 8.0 8
  123.06337 6.0 6
  123.07939 135.0 135
  124.08257 13.0 13
  129.0724 8.0 8
  131.04359 10.0 10
  131.05441 7.0 7
  137.05943 200.0 200
  138.05986 11.0 11
  141.07201 7.0 7
  143.04488 10.0 10
  150.08653 16.0 16
  150.10077 7.0 7
  151.05232 12.0 12
  151.06427 21.0 21
  151.07681 183.0 183
  152.06053 17.0 17
  152.06834 24.0 24
  153.06487 85.0 85
  153.07266 128.0 128
  154.07462 40.0 40
  155.07643 9.0 9
  157.10457 8.0 8
  159.08347 6.0 6
  160.07552 5.0 5
  161.05382 6.0 6
  161.06165 6.0 6
  163.07466 9.0 9
  165.06877 78.0 78
  165.11333 29.0 29
  165.12399 6.0 6
  166.07172 21.0 21
  167.08453 81.0 81
  168.03683 5.0 5
  168.05507 75.0 75
  168.06381 24.0 24
  168.08391 9.0 9
  168.09828 5.0 5
  169.06393 30.0 30
  169.09978 9.0 9
  170.07675 18.0 18
  171.07193 11.0 11
  171.08852 5.0 5
  173.06508 28.0 28
  174.06061 8.0 8
  175.07222 11.0 11
  176.08806 7.0 7
  177.05164 6.0 6
  177.06477 39.0 39
  177.07663 23.0 23
  178.0714 10.0 10
  178.0856 49.0 49
  179.04672 18.0 18
  179.07669 29.0 29
  179.08746 55.0 55
  179.10503 10.0 10
  180.0443 11.0 11
  180.05586 32.0 32
  180.06506 14.0 14
  180.08916 15.0 15
  180.09752 6.0 6
  181.03073 6.0 6
  181.06474 942.0 941
  181.10605 7.0 7
  182.06958 217.0 217
  182.10016 9.0 9
  183.04239 12.0 12
  183.05789 9.0 9
  183.07957 51.0 51
  184.09378 9.0 9
  185.06128 5.0 5
  185.09685 20.0 20
  185.10985 6.0 6
  186.06075 5.0 5
  186.07997 6.0 6
  187.06612 13.0 13
  187.07947 72.0 72
  188.08803 7.0 7
  189.06848 10.0 10
  190.0741 8.0 8
  191.0636 6.0 6
  191.0752 17.0 17
  191.0885 5.0 5
  192.05595 17.0 17
  192.06323 11.0 11
  192.08257 5.0 5
  192.09592 24.0 24
  192.11087 11.0 11
  193.04932 17.0 17
  193.06197 59.0 59
  193.06995 52.0 52
  193.0835 11.0 11
  193.11101 77.0 77
  194.06221 14.0 14
  194.07294 12.0 12
  194.09399 5.0 5
  194.11049 7.0 7
  194.1212 9.0 9
  195.05962 16.0 16
  195.08156 368.0 368
  196.05656 27.0 27
  196.07915 26.0 26
  196.08954 61.0 61
  197.05756 13.0 13
  197.06703 17.0 17
  197.08345 17.0 17
  197.09389 16.0 16
  197.10298 6.0 6
  198.06479 65.0 65
  198.07326 33.0 33
  198.09673 7.0 7
  199.06941 36.0 36
  199.08205 34.0 34
  201.06346 10.0 10
  201.08038 6.0 6
  204.09973 5.0 5
  205.05951 20.0 20
  205.07266 10.0 10
  206.07068 18.0 18
  207.01743 10.0 10
  207.04468 676.0 675
  207.0806 171.0 171
  208.02634 8.0 8
  208.04651 117.0 117
  208.05995 48.0 48
  208.08598 38.0 38
  209.02876 8.0 8
  209.04291 18.0 18
  209.06009 370.0 370
  209.0891 9.0 9
  209.09645 7.0 7
  209.10881 8.0 8
  209.13774 6.0 6
  210.03651 7.0 7
  210.06538 60.0 60
  210.07758 23.0 23
  210.09647 12.0 12
  211.07573 199.0 199
  211.10042 7.0 7
  211.11774 8.0 8
  212.08347 67.0 67
  212.09245 17.0 17
  213.05275 9.0 9
  213.09171 386.0 386
  214.05934 7.0 7
  214.06873 5.0 5
  214.08412 8.0 8
  214.09702 48.0 48
  214.10796 12.0 12
  215.07898 7.0 7
  215.09431 20.0 20
  215.10724 9.0 9
  216.10915 8.0 8
  217.0609 6.0 6
  221.09309 16.0 16
  222.06841 15.0 15
  223.03918 7.0 7
  223.07689 667.0 666
  224.03577 17.0 17
  224.05722 24.0 24
  224.07549 143.0 143
  224.08669 73.0 73
  225.05318 22.0 22
  225.08495 67.0 67
  225.09546 42.0 42
  226.0614 25.0 25
  226.07732 17.0 17
  226.0923 8.0 8
  227.04584 6.0 6
  227.06401 33.0 33
  227.07393 57.0 57
  227.10867 53.0 53
  228.06815 7.0 7
  228.0791 12.0 12
  228.09013 6.0 6
  228.10884 15.0 15
  229.08678 17.0 17
  229.10051 13.0 13
  229.11403 24.0 24
  230.07961 10.0 10
  230.09573 10.0 10
  230.10893 19.0 19
  230.11966 21.0 21
  230.12991 6.0 6
  231.10095 16.0 16
  231.1143 17.0 17
  233.36839 5.0 5
  234.06877 5.0 5
  235.06505 19.0 19
  235.08153 41.0 41
  236.07086 6.0 6
  236.08476 22.0 22
  237.05385 13.0 13
  237.07782 9.0 9
  237.08781 8.0 8
  237.0972 13.0 13
  238.08255 11.0 11
  238.09477 7.0 7
  239.07129 744.0 743
  239.10464 64.0 64
  239.12306 8.0 8
  240.06999 107.0 107
  240.08121 55.0 55
  240.10861 38.0 38
  241.05348 9.0 9
  241.07884 184.0 184
  241.09245 172.0 172
  242.07243 5.0 5
  242.08649 73.0 73
  242.10149 24.0 24
  242.12485 36.0 36
  243.07158 7.0 7
  243.08072 10.0 10
  243.10135 10.0 10
  245.08116 10.0 10
  245.11234 78.0 78
  245.12482 33.0 33
  246.12097 13.0 13
  248.11455 7.0 7
  249.08504 6.0 6
  249.10023 12.0 12
  251.0602 10.0 10
  251.07277 13.0 13
  251.10857 19.0 19
  252.07199 12.0 12
  252.08789 7.0 7
  252.10233 7.0 7
  254.05406 7.0 7
  254.08209 6.0 6
  254.09392 19.0 19
  255.06252 15.0 15
  255.09288 56.0 56
  255.10339 43.0 43
  255.11612 66.0 66
  255.1295 17.0 17
  256.07349 21.0 21
  256.08807 17.0 17
  256.11194 22.0 22
  256.13467 8.0 8
  257.08142 9.0 9
  257.10312 7.0 7
  257.11365 5.0 5
  258.07333 10.0 10
  258.0946 7.0 7
  259.10535 6.0 6
  259.13452 7.0 7
  265.10486 14.0 14
  265.11853 6.0 6
  266.10501 7.0 7
  267.09827 20.0 20
  268.10907 11.0 11
  268.12186 7.0 7
  269.09085 5.0 5
  269.10413 10.0 10
  269.12881 7.0 7
  270.08237 11.0 11
  270.09512 10.0 10
  270.12524 7.0 7
  270.1377 11.0 11
  270.16064 13.0 13
  271.08795 10.0 10
  271.10052 20.0 20
  271.12167 5.0 5
  271.13986 10.0 10
  272.09509 10.0 10
  273.11212 14.0 14
  273.12662 8.0 8
  274.11749 10.0 10
  280.12494 8.0 8
  280.14151 6.0 6
  281.11499 5.0 5
  281.12396 10.0 10
  283.11041 5.0 5
  283.13251 5.0 5
  284.10049 12.0 12
  284.13083 5.0 5
  287.10858 7.0 7
  298.14462 6.0 6
  315.14987 11.0 11
  316.15012 13.0 13
  330.09183 5.0 5
  330.1189 5.0 5
  330.13354 14.0 14
  330.16888 1000.0 999
  330.34653 6.0 6
//
