ACCESSION: MSBNK-RIKEN-PR100165
RECORD_TITLE: L-Histidinol; LC-ESI-QTOF; MS2; CE:Ramp 5-60 V; [M+H]+
DATE: 2016.01.19 (Created 2009.09.10, modified 2011.05.06)
AUTHORS: Matsuda F, Suzuki M, Sawada Y, Plant Science Center, RIKEN.
LICENSE: CC BY-SA
COMMENT: Acquisition and generation of the data is financially supported in part by CREST/JST.
CH$NAME: L-Histidinol
CH$NAME: L-His-ol
CH$NAME: beta-Aminoimidazole-4-propanol
CH$NAME: (S)-2-Amino-3-(4-imidazolyl)propanol
CH$COMPOUND_CLASS: Amino alcohol
CH$FORMULA: C6H11N3O
CH$EXACT_MASS: 141.09021
CH$SMILES: C1=C(NC=N1)C[C@@H](CO)N
CH$IUPAC: InChI=1S/C6H11N3O/c7-5(3-10)1-6-2-8-4-9-6/h2,4-5,10H,1,3,7H2,(H,8,9)/t5-/m0/s1
CH$LINK: CAS 4836-52-6
CH$LINK: CHEMSPIDER 144886
CH$LINK: KEGG C00860
CH$LINK: KNAPSACK C00007479
CH$LINK: PUBCHEM CID:165271
CH$LINK: INCHIKEY ZQISRDCJNBUVMM-YFKPBYRVSA-N
CH$LINK: COMPTOX DTXSID50863460
AC$INSTRUMENT: UPLC Q-Tof Premier, Waters
AC$INSTRUMENT_TYPE: LC-ESI-QTOF
AC$MASS_SPECTROMETRY: MS_TYPE MS2
AC$MASS_SPECTROMETRY: ION_MODE POSITIVE
AC$MASS_SPECTROMETRY: COLLISION_ENERGY Ramp 5-60 V
AC$MASS_SPECTROMETRY: DATAFORMAT Continuum
AC$MASS_SPECTROMETRY: DATE 2008.07.25
AC$MASS_SPECTROMETRY: DESOLVATION_GAS_FLOW 600.0 L/Hr
AC$MASS_SPECTROMETRY: DESOLVATION_TEMPERATURE 420 C
AC$MASS_SPECTROMETRY: FRAGMENTATION_METHOD LOW-ENERGY CID
AC$MASS_SPECTROMETRY: IONIZATION ESI
AC$MASS_SPECTROMETRY: SCANNING 1.0 sec/scan (m/z = 50-1000)
AC$MASS_SPECTROMETRY: SOURCE_TEMPERATURE 120 C
AC$CHROMATOGRAPHY: CAPILLARY_VOLTAGE 3.0 kV
AC$CHROMATOGRAPHY: SAMPLING_CONE 23.0 V
AC$CHROMATOGRAPHY: SOLVENT A CH3CN(0.1%HCOOH)
AC$CHROMATOGRAPHY: SOLVENT B H2O(0.1%HCOOH)
MS$FOCUSED_ION: PRECURSOR_M/Z 142.09801
MS$FOCUSED_ION: PRECURSOR_TYPE [M+H]+
PK$SPLASH: splash10-0089-8900000000-b7fa72e4e20dbc5d79d2
PK$NUM_PEAK: 5
PK$PEAK: m/z int. rel.int.
  81.0452 749.9 999
  95.0611 223.5 298
  124.0872 584.9 779
  125.0722 102.8 137
  142.0980 345.1 460
//
