ACCESSION: MSBNK-RIKEN-PR310562
RECORD_TITLE: Piperine; LC-ESI-QTOF; MS2
DATE: 2019.03.28
AUTHORS: Tetsuya Mori, Center for Sustainable Resource Science, RIKEN
LICENSE: CC BY-NC-SA
PUBLICATION: Tsugawa H., Nakabayashi R., Mori T., Yamada Y., Takahashi M., Rai A., Sugiyama R., Yamamoto H., Nakaya T., Yamazaki M., Kooke R., Bac-Molenaar JA., Oztolan-Erol N., Keurentjes JJB., Arita M., Saito K. (2019) "A cheminformatics approach to characterize metabolomes in stable-isotope-labeled organisms" Nature Methods 16(4):295-298. [doi:10.1038/s41592-019-0358-2]
COMMENT: Annotation level-1
CH$NAME: Piperine
CH$COMPOUND_CLASS: Alkaloids
CH$FORMULA: C17H19NO3
CH$EXACT_MASS: 285.343
CH$SMILES: O=C(C=CC=CC1=CC2=C(OCO2)C=C1)N1CCCCC1
CH$IUPAC: InChI=1S/C17H19NO3/c19-17(18-10-4-1-5-11-18)7-3-2-6-14-8-9-15-16(12-14)21-13-20-15/h2-3,6-9,12H,1,4-5,10-11,13H2
CH$LINK: INCHIKEY MXXWOMGUGJBKIW-UHFFFAOYSA-N
AC$INSTRUMENT: LC, Waters Acquity UPLC System; MS, Waters Xevo G2 Q-Tof
AC$INSTRUMENT_TYPE: LC-ESI-QTOF
AC$MASS_SPECTROMETRY: MS_TYPE MS2
AC$MASS_SPECTROMETRY: ION_MODE POSITIVE
AC$MASS_SPECTROMETRY: COLLISION_ENERGY 6V
AC$MASS_SPECTROMETRY: DESOLVATION_GAS_FLOW 800/h
AC$MASS_SPECTROMETRY: DESOLVATION_TEMPERATURE 450 C
AC$MASS_SPECTROMETRY: IONIZATION ESI
AC$CHROMATOGRAPHY: CAPILLARY_VOLTAGE +3.00 kV
AC$CHROMATOGRAPHY: COLUMN_NAME Acquity bridged ethyl hybrid C18 (1.7 um, 2.1 mm * 100 mm, Waters)
AC$CHROMATOGRAPHY: COLUMN_TEMPERATURE 40 C
AC$CHROMATOGRAPHY: FLOW_GRADIENT A/B = (99.5%/0.5% at 0 min, 99.5%/0.5% at 0.1 min, 20%/80% at 10 min, 0.5%/99.5% at 10.1 min, 0.5%/99.5% at 12.0 min, 99.5%/0.5% at 12.1 min, 99.5%/0.5% at 15.0 min)
AC$CHROMATOGRAPHY: FLOW_RATE 0.3 ml/min at 0 min, 0.3 ml/min at 10 min, 0.4 ml/min at 10.1 min, 0.4 ml/min at 14.4 min, 0.3 ml/min at 14.5 min
AC$CHROMATOGRAPHY: RETENTION_TIME 7.84
AC$CHROMATOGRAPHY: SOLVENT A water including 0.1% formic acid
AC$CHROMATOGRAPHY: SOLVENT B acetonitrile including 0.1% formic acid
MS$FOCUSED_ION: PRECURSOR_TYPE [M+H]+
MS$FOCUSED_ION: PRECURSOR_M/Z 286.14377
PK$SPLASH: splash10-0f79-0390000000-2f09b2f23a5dba85f141
PK$NUM_PEAK: 297
PK$PEAK: m/z int. rel.int.
  63.02459 30.0 1
  67.05336 25.0 0
  67.69585 22.0 0
  69.00239 18.0 0
  69.06683 163.0 3
  69.07232 366.0 7
  70.07174 58.0 1
  77.00774 25.0 0
  77.01868 28.0 1
  77.03737 98.0 2
  78.04154 21.0 0
  79.01663 44.0 1
  79.05589 139.0 3
  80.06303 28.0 1
  81.05317 17.0 0
  81.06098 21.0 0
  84.07475 96.0 2
  84.08169 283.0 5
  86.09348 81.0 2
  86.09963 325.0 6
  86.53477 24.0 0
  87.10024 90.0 2
  89.03539 24.0 0
  89.0416 43.0 1
  94.06821 46.0 1
  96.05018 56.0 1
  98.45436 20.0 0
  101.04129 20.0 0
  101.56657 17.0 0
  103.05633 177.0 3
  104.05948 20.0 0
  105.02927 99.0 2
  105.03934 23.0 0
  107.05293 52.0 1
  109.05131 23.0 0
  110.10798 26.0 0
  112.01935 18.0 0
  112.07704 1233.0 23
  113.08043 120.0 2
  113.08781 21.0 0
  114.06733 17.0 0
  114.08672 55.0 1
  114.09621 18.0 0
  114.12521 33.0 1
  114.53214 32.0 1
  114.63842 21.0 0
  114.98925 40.0 1
  115.03449 30.0 1
  115.05462 8550.0 162
  115.09065 47.0 1
  115.10998 17.0 0
  115.69175 18.0 0
  116.04192 62.0 1
  116.05892 808.0 15
  116.19489 20.0 0
  116.64958 17.0 0
  117.03779 24.0 0
  117.0587 36.0 1
  117.07042 392.0 7
  117.91476 26.0 0
  118.06858 25.0 0
  118.0753 35.0 1
  119.12947 27.0 1
  119.81555 17.0 0
  120.43687 19.0 0
  122.03181 41.0 1
  122.07159 20.0 0
  122.10026 60.0 1
  122.10964 25.0 0
  124.07015 17.0 0
  126.3248 27.0 1
  127.05361 291.0 5
  127.0651 23.0 0
  127.50324 20.0 0
  127.81905 20.0 0
  128.05861 77.0 1
  128.14676 20.0 0
  128.41927 18.0 0
  130.07182 20.0 0
  131.03949 19.0 0
  131.05315 70.0 1
  132.51454 20.0 0
  134.09644 153.0 3
  134.10437 38.0 1
  134.16408 19.0 0
  134.6628 18.0 0
  134.86226 18.0 0
  134.99948 24.0 0
  135.0184 22.0 0
  135.04445 7427.0 140
  135.09927 20.0 0
  135.20346 29.0 1
  135.242 20.0 0
  135.63521 17.0 0
  136.04877 820.0 15
  136.07646 20.0 0
  137.05434 87.0 2
  137.08904 42.0 1
  137.24361 17.0 0
  137.93007 19.0 0
  139.13982 21.0 0
  141.06709 17.0 0
  143.01895 55.0 1
  143.04987 6357.0 120
  143.08646 17.0 0
  143.43201 17.0 0
  143.5226 30.0 1
  144.0183 20.0 0
  144.03542 30.0 1
  144.0537 782.0 15
  144.18535 19.0 0
  145.06325 292.0 6
  145.29546 17.0 0
  145.50273 17.0 0
  145.56082 24.0 0
  146.91484 18.0 0
  147.03706 19.0 0
  147.06815 20.0 0
  150.02901 23.0 0
  150.08554 75.0 1
  150.09283 106.0 2
  150.10222 57.0 1
  151.07719 27.0 1
  151.09525 385.0 7
  151.10222 432.0 8
  151.17595 20.0 0
  152.06914 22.0 0
  152.09944 24.0 0
  152.10751 22.0 0
  152.38971 45.0 1
  154.69705 20.0 0
  155.04666 18.0 0
  155.08914 26.0 0
  155.5419 20.0 0
  157.06779 39.0 1
  157.09105 44.0 1
  157.10069 90.0 2
  158.99678 23.0 0
  159.04561 1526.0 29
  160.02892 18.0 0
  160.04143 94.0 2
  160.05275 119.0 2
  161.02759 42.0 1
  161.04842 52.0 1
  161.06203 35.0 1
  161.58369 25.0 0
  162.25096 18.0 0
  163.89899 22.0 0
  165.73471 31.0 1
  166.23317 21.0 0
  166.38422 24.0 0
  167.06198 22.0 0
  167.08568 32.0 1
  170.07031 22.0 0
  170.07988 19.0 0
  170.61725 22.0 0
  171.00601 46.0 1
  171.01532 52.0 1
  171.04619 4201.0 79
  171.20804 21.0 0
  171.97331 20.0 0
  172.03732 93.0 2
  172.04707 563.0 11
  172.06595 19.0 0
  173.00729 24.0 0
  173.02519 20.0 0
  173.03333 25.0 0
  173.06059 2214.0 42
  174.05772 55.0 1
  174.06972 193.0 4
  174.77921 17.0 0
  174.94968 22.0 0
  175.07005 36.0 1
  175.08173 21.0 0
  175.63264 17.0 0
  178.02422 21.0 0
  179.88567 19.0 0
  180.46384 20.0 0
  181.29221 20.0 0
  181.53188 24.0 0
  181.56902 41.0 1
  182.4109 20.0 0
  182.97656 20.0 0
  183.33536 27.0 1
  183.56297 39.0 1
  184.23395 19.0 0
  185.09961 103.0 2
  186.09407 31.0 1
  186.96309 19.0 0
  187.07652 20.0 0
  188.08728 46.0 1
  188.36621 30.0 1
  189.08575 24.0 0
  189.7187 18.0 0
  191.6597 22.0 0
  192.79103 27.0 1
  192.8709 19.0 0
  197.18431 30.0 1
  197.23189 22.0 0
  198.27924 17.0 0
  198.96817 18.0 0
  199.07323 29.0 1
  199.99718 17.0 0
  200.0433 23.0 0
  200.79965 19.0 0
  200.98535 17.0 0
  200.99648 20.0 0
  201.00771 29.0 1
  201.02258 288.0 5
  201.05606 35369.0 668
  201.07533 75.0 1
  201.09726 834.0 16
  201.2261 17.0 0
  201.24074 20.0 0
  201.24922 17.0 0
  201.26656 19.0 0
  201.27829 17.0 0
  201.30794 92.0 2
  201.46703 19.0 0
  201.83723 25.0 0
  201.85918 17.0 0
  201.98431 22.0 0
  202.00165 20.0 0
  202.02751 69.0 1
  202.03777 34.0 1
  202.05913 4812.0 91
  202.13556 17.0 0
  202.28958 17.0 0
  202.36232 20.0 0
  203.05785 473.0 9
  203.07126 334.0 6
  203.69203 22.0 0
  203.72725 17.0 0
  204.06688 24.0 0
  205.95584 17.0 0
  206.00864 17.0 0
  206.28961 20.0 0
  212.83318 18.0 0
  213.0806 34.0 1
  215.08775 20.0 0
  215.10585 163.0 3
  215.11487 56.0 1
  216.10181 28.0 1
  216.11882 26.0 0
  217.13921 17.0 0
  218.10785 31.0 1
  218.12552 21.0 0
  223.07335 21.0 0
  228.61243 17.0 0
  229.47543 18.0 0
  230.11131 21.0 0
  230.66176 17.0 0
  234.05072 24.0 0
  234.40706 27.0 1
  240.09814 22.0 0
  241.08487 42.0 1
  241.8017 18.0 0
  244.14169 17.0 0
  246.77701 22.0 0
  246.99251 19.0 0
  250.68033 24.0 0
  255.64687 17.0 0
  255.91849 17.0 0
  256.13779 17.0 0
  258.0661 38.0 1
  258.11359 39.0 1
  258.1514 45.0 1
  260.22165 17.0 0
  260.37024 21.0 0
  268.12311 17.0 0
  268.13739 42.0 1
  269.10965 41.0 1
  271.11371 27.0 1
  271.12387 19.0 0
  274.62579 17.0 0
  275.94629 37.0 1
  281.57651 17.0 0
  281.97485 27.0 1
  283.47522 17.0 0
  283.76093 19.0 0
  284.14395 24.0 0
  284.88428 22.0 0
  284.95496 21.0 0
  285.15549 20.0 0
  285.4422 20.0 0
  285.7775 17.0 0
  285.91617 19.0 0
  286.03012 36.0 1
  286.06558 104.0 2
  286.0751 63.0 1
  286.1001 292.0 6
  286.14621 52859.0 999
  286.19427 1826.0 35
  286.23645 138.0 3
  286.2478 85.0 2
  286.29694 20.0 0
  286.33981 372.0 7
//
