ACCESSION: MSBNK-RIKEN-PR040033
RECORD_TITLE: Kaempferide; LC-ESI-QTOF; MS2; CE:Ramp 5-60 eV; [M+H]+
DATE: 2016.01.19 (Created 2007.11.09, modified 2011.05.06)
AUTHORS: Matsuda F, Plant Science Center, RIKEN.
LICENSE: CC BY-SA
CH$NAME: 3,5,7-trihydroxy-4'-methoxyflavone
CH$NAME: Kaempferide
CH$NAME: Kaer
CH$NAME: 3,5,7-trihydroxy-2-(4-methoxyphenyl)chromen-4-one
CH$COMPOUND_CLASS: Natural Product
CH$FORMULA: C16H12O6
CH$EXACT_MASS: 300.06339
CH$SMILES: COc(c3)ccc(c3)C(O1)=C(O)C(=O)c(c(O)2)c(cc(O)c2)1
CH$IUPAC: InChI=1S/C16H12O6/c1-21-10-4-2-8(3-5-10)16-15(20)14(19)13-11(18)6-9(17)7-12(13)22-16/h2-7,17-18,20H,1H3
CH$LINK: CAS 491-54-3
CH$LINK: KEGG C10098
CH$LINK: KNAPSACK C00001060
CH$LINK: PUBCHEM CID:5281666
CH$LINK: INCHIKEY SQFSKOYWJBQGKQ-UHFFFAOYSA-N
CH$LINK: COMPTOX DTXSID9034155
AC$INSTRUMENT: UPLC Q-Tof Premier, Waters
AC$INSTRUMENT_TYPE: LC-ESI-QTOF
AC$MASS_SPECTROMETRY: MS_TYPE MS2
AC$MASS_SPECTROMETRY: ION_MODE POSITIVE
AC$MASS_SPECTROMETRY: COLLISION_ENERGY Ramp 5-60 eV
AC$MASS_SPECTROMETRY: DATAFORMAT Continuum
AC$MASS_SPECTROMETRY: DESOLVATION_GAS_FLOW 600.0 L/Hr
AC$MASS_SPECTROMETRY: DESOLVATION_TEMPERATURE 400 C
AC$MASS_SPECTROMETRY: FRAGMENTATION_METHOD LOW-ENERGY CID
AC$MASS_SPECTROMETRY: IONIZATION ESI
AC$MASS_SPECTROMETRY: SCANNING 1.0 sec/scan (m/z = 50-1000)
AC$MASS_SPECTROMETRY: SOURCE_TEMPERATURE 120 C
AC$CHROMATOGRAPHY: CAPILLARY_VOLTAGE 3.0 kV
AC$CHROMATOGRAPHY: SAMPLING_CONE 23.0 V
AC$CHROMATOGRAPHY: SOLVENT A CH3CN(0.1%HCOOH)
AC$CHROMATOGRAPHY: SOLVENT B H2O(0.1%HCOOH)
MS$FOCUSED_ION: FULL_SCAN_FRAGMENT_ION_PEAK 301.1
MS$FOCUSED_ION: ION_TYPE [M+H]+
MS$DATA_PROCESSING: WHOLE MassLynx 4.1
PK$SPLASH: splash10-0udi-0249000000-0bd2def45165ef534f86
PK$NUM_PEAK: 31
PK$PEAK: m/z int. rel.int.
  68.9875 515 12
  77.0303 569 13
  78.0387 547 12
  106.0375 656 15
  107.0456 520 12
  124.0137 875 20
  128.0607 512 12
  135.0430 1213 28
  137.0226 541 12
  139.0384 1465 34
  152.0104 659 15
  153.0183 3753 88
  155.0494 600 14
  161.0600 523 12
  165.0187 1146 27
  183.0452 475 11
  184.0526 654 15
  187.0395 493 11
  201.0554 1696 40
  212.0474 475 11
  213.0551 771 18
  229.0508 5350 126
  230.0582 4157 98
  257.0452 999 23
  258.0534 3897 92
  269.0454 860 20
  272.0682 457 10
  286.0485 2710 64
  301.0712 42280 999
  301.1570 2666 62
  302.0750 2428 57
//
