ACCESSION: MSBNK-RIKEN-PR311115
RECORD_TITLE: Dicaffeoyl quinolactone; LC-ESI-QTOF; MS2
DATE: 2019.03.28
AUTHORS: Tetsuya Mori, Center for Sustainable Resource Science, RIKEN
LICENSE: CC BY-NC-SA
PUBLICATION: Tsugawa H., Nakabayashi R., Mori T., Yamada Y., Takahashi M., Rai A., Sugiyama R., Yamamoto H., Nakaya T., Yamazaki M., Kooke R., Bac-Molenaar JA., Oztolan-Erol N., Keurentjes JJB., Arita M., Saito K. (2019) "A cheminformatics approach to characterize metabolomes in stable-isotope-labeled organisms" Nature Methods 16(4):295-298. [doi:10.1038/s41592-019-0358-2]
COMMENT: Annotation level-3
CH$NAME: Dicaffeoyl quinolactone
CH$COMPOUND_CLASS: Caffeic acid and derivatives
CH$FORMULA: C25H22O11
CH$EXACT_MASS: 498.44
CH$SMILES: O=C(OC3CC1(O)(C(=O)OC(C1)C3(OC(=O)C=CC=2C=CC(O)=C(O)C=2)))C=CC=4C=CC(O)=C(O)C=4
CH$IUPAC: InChI=1S/C25H22O11/c26-15-5-1-13(9-17(15)28)3-7-21(30)34-19-11-25(33)12-20(35-24(25)32)23(19)36-22(31)8-4-14-2-6-16(27)18(29)10-14/h1-10,19-20,23,26-29,33H,11-12H2
CH$LINK: INCHIKEY ZLYIWYCHNAZAQI-UHFFFAOYSA-N
AC$INSTRUMENT: LC, Waters Acquity UPLC System; MS, Waters Xevo G2 Q-Tof
AC$INSTRUMENT_TYPE: LC-ESI-QTOF
AC$MASS_SPECTROMETRY: MS_TYPE MS2
AC$MASS_SPECTROMETRY: ION_MODE POSITIVE
AC$MASS_SPECTROMETRY: COLLISION_ENERGY 6V
AC$MASS_SPECTROMETRY: DESOLVATION_GAS_FLOW 800/h
AC$MASS_SPECTROMETRY: DESOLVATION_TEMPERATURE 450 C
AC$MASS_SPECTROMETRY: IONIZATION ESI
AC$CHROMATOGRAPHY: CAPILLARY_VOLTAGE +3.00 kV
AC$CHROMATOGRAPHY: COLUMN_NAME Acquity bridged ethyl hybrid C18 (1.7 um, 2.1 mm * 100 mm, Waters)
AC$CHROMATOGRAPHY: COLUMN_TEMPERATURE 40 C
AC$CHROMATOGRAPHY: FLOW_GRADIENT A/B = (99.5%/0.5% at 0 min, 99.5%/0.5% at 0.1 min, 20%/80% at 10 min, 0.5%/99.5% at 10.1 min, 0.5%/99.5% at 12.0 min, 99.5%/0.5% at 12.1 min, 99.5%/0.5% at 15.0 min)
AC$CHROMATOGRAPHY: FLOW_RATE 0.3 ml/min at 0 min, 0.3 ml/min at 10 min, 0.4 ml/min at 10.1 min, 0.4 ml/min at 14.4 min, 0.3 ml/min at 14.5 min
AC$CHROMATOGRAPHY: RETENTION_TIME 4.54
AC$CHROMATOGRAPHY: SOLVENT A water including 0.1% formic acid
AC$CHROMATOGRAPHY: SOLVENT B acetonitrile including 0.1% formic acid
MS$FOCUSED_ION: PRECURSOR_TYPE [M+H]+
MS$FOCUSED_ION: PRECURSOR_M/Z 499.1266
PK$SPLASH: splash10-03di-0901100000-38804aec1f681b85c8ff
PK$NUM_PEAK: 14
PK$PEAK: m/z int. rel.int.
  85.0256 22.0 119
  163.03555 184.0 999
  164.04349 21.0 114
  164.0497 18.0 98
  171.03104 21.0 114
  175.15552 18.0 98
  178.05084 32.0 174
  178.13431 26.0 141
  308.17987 19.0 103
  311.0856 25.0 136
  319.08743 20.0 109
  448.841 24.0 130
  497.77042 24.0 130
  499.11996 17.0 92
//
