ACCESSION: MSBNK-RIKEN-PR300579
RECORD_TITLE: Isomajdine; LC-ESI-QTOF; MS2
DATE: 2019.03.28
AUTHORS: Tetsuya Mori, Center for Sustainable Resource Science, RIKEN
LICENSE: CC BY-NC-SA
PUBLICATION: Tsugawa H., Nakabayashi R., Mori T., Yamada Y., Takahashi M., Rai A., Sugiyama R., Yamamoto H., Nakaya T., Yamazaki M., Kooke R., Bac-Molenaar JA., Oztolan-Erol N., Keurentjes JJB., Arita M., Saito K. (2019) "A cheminformatics approach to characterize metabolomes in stable-isotope-labeled organisms" Nature Methods 16(4):295-298. [doi:10.1038/s41592-019-0358-2]
COMMENT: registered in RIKEN PlaSMA
CH$NAME: Isomajdine
CH$COMPOUND_CLASS: Indolizidines
CH$FORMULA: C23H28N2O6
CH$EXACT_MASS: 428.485
CH$SMILES: COC(=O)C1=CO[C@@H](C)[C@@H]2CN3CC[C@@]4([C@@H]3C[C@H]12)C(O)=NC1=C4C=CC(OC)=C1OC
CH$IUPAC: InChI=1S/C23H28N2O6/c1-12-14-10-25-8-7-23(18(25)9-13(14)15(11-31-12)21(26)30-4)16-5-6-17(28-2)20(29-3)19(16)24-22(23)27/h5-6,11-14,18H,7-10H2,1-4H3,(H,24,27)/t12-,13-,14-,18-,23+/m0/s1
CH$LINK: INCHIKEY TTZWEOINXHJHCY-UHJVZONPSA-N
AC$INSTRUMENT: LC, Waters Acquity UPLC System; MS, Waters Xevo G2 Q-Tof
AC$INSTRUMENT_TYPE: LC-ESI-QTOF
AC$MASS_SPECTROMETRY: MS_TYPE MS2
AC$MASS_SPECTROMETRY: ION_MODE POSITIVE
AC$MASS_SPECTROMETRY: COLLISION_ENERGY 6V
AC$MASS_SPECTROMETRY: DESOLVATION_GAS_FLOW 800/h
AC$MASS_SPECTROMETRY: DESOLVATION_TEMPERATURE 450 C
AC$MASS_SPECTROMETRY: IONIZATION ESI
AC$CHROMATOGRAPHY: CAPILLARY_VOLTAGE +3.00 kV
AC$CHROMATOGRAPHY: COLUMN_NAME Acquity bridged ethyl hybrid C18 (1.7 um, 2.1 mm * 100 mm, Waters)
AC$CHROMATOGRAPHY: COLUMN_TEMPERATURE 40 C
AC$CHROMATOGRAPHY: FLOW_GRADIENT A/B = (99.5%/0.5% at 0 min, 99.5%/0.5% at 0.1 min, 20%/80% at 10 min, 0.5%/99.5% at 10.1 min, 0.5%/99.5% at 12.0 min, 99.5%/0.5% at 12.1 min, 99.5%/0.5% at 15.0 min)
AC$CHROMATOGRAPHY: FLOW_RATE 0.3 ml/min at 0 min, 0.3 ml/min at 10 min, 0.4 ml/min at 10.1 min, 0.4 ml/min at 14.4 min, 0.3 ml/min at 14.5 min
AC$CHROMATOGRAPHY: RETENTION_TIME 4.47865
AC$CHROMATOGRAPHY: SOLVENT A water including 0.1% formic acid
AC$CHROMATOGRAPHY: SOLVENT B acetonitrile including 0.1% formic acid
MS$FOCUSED_ION: PRECURSOR_TYPE [M+H]+
MS$FOCUSED_ION: PRECURSOR_M/Z 429.2020131
PK$SPLASH: splash10-0079-0930000000-7866954c0b59adbac4b7
PK$NUM_PEAK: 324
PK$PEAK: m/z int. rel.int.
  56.05163 14.0 14
  67.05713 5.0 5
  68.05152 13.0 13
  79.0516 7.0 7
  79.05708 7.0 7
  80.04435 6.0 6
  80.05085 12.0 12
  81.06976 7.0 7
  83.01413 8.0 8
  91.0529 8.0 8
  93.05842 12.0 12
  94.06291 7.0 7
  95.05215 9.0 9
  103.05531 10.0 10
  104.06075 9.0 9
  105.07018 6.0 6
  106.05948 7.0 7
  106.06747 14.0 14
  107.03999 6.0 6
  108.07944 79.0 79
  109.0632 7.0 7
  109.08521 6.0 6
  115.05442 10.0 10
  116.04944 25.0 25
  116.06161 8.0 8
  117.05512 33.0 33
  117.07172 12.0 12
  118.06429 29.0 29
  119.04708 5.0 5
  119.07359 11.0 11
  120.0433 8.0 8
  120.08034 7.0 7
  121.05114 44.0 44
  122.0276 6.0 6
  122.06014 7.0 7
  122.10071 10.0 10
  123.04317 7.0 7
  124.03019 5.0 5
  124.03931 43.0 43
  124.04947 11.0 11
  126.05257 7.0 7
  128.05153 6.0 6
  129.05963 19.0 19
  130.03804 10.0 10
  130.04996 10.0 10
  130.06462 321.0 321
  131.03671 6.0 6
  131.05307 10.0 10
  131.06645 50.0 50
  131.07288 133.0 133
  132.04469 17.0 17
  132.05623 18.0 18
  132.07698 56.0 56
  133.04851 6.0 6
  133.06107 9.0 9
  134.06035 57.0 57
  134.07236 5.0 5
  134.09201 7.0 7
  135.04781 11.0 11
  135.0804 10.0 10
  136.11215 6.0 6
  137.06387 7.0 7
  138.05565 6.0 6
  139.03804 13.0 13
  142.06508 23.0 23
  142.07437 10.0 10
  143.07014 30.0 30
  144.04701 19.0 19
  144.05765 5.0 5
  144.07463 12.0 12
  144.08243 10.0 10
  145.05124 44.0 44
  145.06577 16.0 16
  146.06146 149.0 149
  146.07518 23.0 23
  146.09505 5.0 5
  147.06775 123.0 123
  148.03781 20.0 20
  148.04955 11.0 11
  148.07504 95.0 95
  149.04178 14.0 14
  149.0493 19.0 19
  149.08022 32.0 32
  149.08693 30.0 30
  150.09158 11.0 11
  151.05925 6.0 6
  151.07785 5.0 5
  157.05827 5.0 5
  158.05966 174.0 174
  159.04584 9.0 9
  159.06711 333.0 333
  159.09097 8.0 8
  160.04767 36.0 36
  160.07419 385.0 385
  161.04179 7.0 7
  161.0542 14.0 14
  161.07927 138.0 138
  161.08812 94.0 94
  162.05472 205.0 205
  162.08879 71.0 71
  163.05757 42.0 42
  163.07751 12.0 12
  163.09695 20.0 20
  164.07324 12.0 12
  164.10785 8.0 8
  166.06636 5.0 5
  166.0816 5.0 5
  168.08189 10.0 10
  169.08669 7.0 7
  170.06244 10.0 10
  170.08667 6.0 6
  171.03302 5.0 5
  171.05943 11.0 11
  171.06783 28.0 28
  171.09755 5.0 5
  172.03882 569.0 568
  172.07191 21.0 21
  172.07864 27.0 27
  173.04372 131.0 131
  173.08261 19.0 19
  174.05537 431.0 431
  175.0257 6.0 6
  175.06238 198.0 198
  175.07416 49.0 49
  175.10262 5.0 5
  176.04611 7.0 7
  176.0715 237.0 237
  177.04407 37.0 37
  177.06129 24.0 24
  177.077 130.0 130
  178.08452 55.0 55
  178.09184 22.0 22
  179.05516 7.0 7
  180.1057 9.0 9
  183.09528 10.0 10
  184.07733 10.0 10
  184.09822 9.0 9
  185.03831 6.0 6
  185.04805 9.0 9
  185.06593 6.0 6
  185.08264 18.0 18
  186.05438 37.0 37
  186.09233 8.0 8
  187.06335 681.0 680
  187.09515 17.0 17
  188.03893 19.0 19
  188.05037 10.0 10
  188.06865 329.0 329
  189.04813 10.0 10
  189.07817 1000.0 999
  190.02577 10.0 10
  190.04976 188.0 188
  190.08395 211.0 211
  191.0558 41.0 41
  191.09447 12.0 12
  192.06566 227.0 227
  192.10379 77.0 77
  193.05739 6.0 6
  193.0681 18.0 18
  193.09578 6.0 6
  193.10805 15.0 15
  194.06647 7.0 7
  196.06548 7.0 7
  197.08069 12.0 12
  198.0522 21.0 21
  198.07475 8.0 8
  199.06339 44.0 44
  199.07738 11.0 11
  199.09142 21.0 21
  200.06274 14.0 14
  200.07451 18.0 18
  200.09143 15.0 15
  200.10513 6.0 6
  201.06851 17.0 17
  201.07872 15.0 15
  201.09395 8.0 8
  202.047 5.0 5
  202.07301 6.0 6
  202.08382 11.0 11
  202.09431 14.0 14
  202.12024 8.0 8
  203.05794 13.0 13
  203.07167 7.0 7
  203.08286 11.0 11
  203.0983 19.0 19
  204.06558 130.0 130
  204.08899 8.0 8
  204.10269 16.0 16
  205.07407 266.0 266
  206.05986 6.0 6
  206.0777 34.0 34
  206.08426 13.0 13
  208.09325 10.0 10
  208.10281 8.0 8
  211.06436 37.0 37
  211.07623 11.0 11
  211.08757 8.0 8
  212.05521 9.0 9
  212.06493 21.0 21
  212.09402 13.0 13
  213.06523 9.0 9
  213.08392 11.0 11
  213.10126 12.0 12
  213.11136 9.0 9
  214.04987 5.0 5
  214.07536 14.0 14
  214.0887 10.0 10
  214.11015 32.0 32
  215.05733 6.0 6
  215.08176 93.0 93
  216.06854 13.0 13
  216.08981 88.0 88
  217.05998 6.0 6
  217.09727 20.0 20
  218.06195 10.0 10
  218.08101 100.0 100
  219.0799 16.0 16
  219.09509 16.0 16
  220.0961 305.0 305
  221.07916 15.0 15
  221.09181 16.0 16
  221.10043 31.0 31
  222.09633 8.0 8
  222.10468 6.0 6
  223.05734 7.0 7
  224.07268 9.0 9
  225.06085 9.0 9
  226.07567 6.0 6
  227.07602 7.0 7
  227.09128 7.0 7
  228.0654 11.0 11
  229.06445 9.0 9
  229.07719 16.0 16
  229.0988 58.0 58
  230.06941 22.0 22
  230.10431 218.0 218
  231.06387 10.0 10
  231.08037 47.0 47
  231.10883 10.0 10
  232.0824 10.0 10
  232.0901 23.0 23
  232.10509 10.0 10
  235.08549 7.0 7
  236.08038 6.0 6
  237.05905 6.0 6
  237.06902 7.0 7
  239.07681 13.0 13
  239.09366 6.0 6
  240.0867 18.0 18
  241.09334 22.0 22
  242.06735 9.0 9
  242.08595 6.0 6
  242.10684 13.0 13
  243.07719 66.0 66
  244.09041 11.0 11
  244.10445 10.0 10
  245.07967 8.0 8
  245.09174 8.0 8
  245.10474 22.0 22
  245.13034 9.0 9
  246.0872 6.0 6
  246.10074 24.0 24
  246.12508 9.0 9
  247.10834 7.0 7
  249.08067 5.0 5
  250.08139 7.0 7
  250.12415 7.0 7
  251.08255 11.0 11
  252.06375 7.0 7
  253.08897 12.0 12
  253.09773 9.0 9
  255.10669 11.0 11
  257.07529 8.0 8
  257.09036 39.0 39
  257.12799 5.0 5
  258.07751 6.0 6
  258.10046 17.0 17
  259.10803 10.0 10
  261.12338 18.0 18
  262.12796 9.0 9
  262.14011 5.0 5
  263.08273 13.0 13
  264.09244 30.0 30
  264.12259 5.0 5
  265.10184 8.0 8
  266.06287 5.0 5
  266.09756 10.0 10
  267.07779 13.0 13
  269.09503 5.0 5
  271.10437 7.0 7
  273.11716 14.0 14
  273.12622 40.0 40
  277.06778 9.0 9
  281.08932 6.0 6
  281.10339 12.0 12
  282.06595 10.0 10
  282.09622 15.0 15
  283.10492 25.0 25
  285.11819 9.0 9
  291.07089 9.0 9
  291.08685 8.0 8
  292.0834 76.0 76
  293.08868 13.0 13
  293.09946 11.0 11
  293.12369 6.0 6
  295.05786 5.0 5
  295.06964 11.0 11
  295.08524 15.0 15
  295.11792 9.0 9
  296.10745 7.0 7
  297.12793 13.0 13
  308.08292 6.0 6
  309.08099 31.0 31
  309.09839 6.0 6
  310.06509 15.0 15
  310.08038 14.0 14
  310.09406 13.0 13
  310.1254 10.0 10
  325.10532 19.0 19
  325.12051 21.0 21
  325.13467 12.0 12
  325.15735 9.0 9
  326.12265 19.0 19
  429.20099 6.0 6
//
