ACCESSION: MSBNK-RIKEN-PR311163
RECORD_TITLE: Allicin + 4H (not validated); LC-ESI-QTOF; MS2
DATE: 2019.03.28
AUTHORS: Tetsuya Mori, Center for Sustainable Resource Science, RIKEN
LICENSE: CC BY-NC-SA
PUBLICATION: Tsugawa H., Nakabayashi R., Mori T., Yamada Y., Takahashi M., Rai A., Sugiyama R., Yamamoto H., Nakaya T., Yamazaki M., Kooke R., Bac-Molenaar JA., Oztolan-Erol N., Keurentjes JJB., Arita M., Saito K. (2019) "A cheminformatics approach to characterize metabolomes in stable-isotope-labeled organisms" Nature Methods 16(4):295-298. [doi:10.1038/s41592-019-0358-2]
COMMENT: Annotation level-3
CH$NAME: Allicin + 4H (not validated)
CH$COMPOUND_CLASS: Allicin derivatives
CH$FORMULA: C6H14OS2
CH$EXACT_MASS: 166.307
CH$SMILES: O=S(CCC)SCCC
CH$IUPAC: InChI=1S/C6H14OS2/c1-3-5-8-9(7)6-4-2/h3-6H2,1-2H3
CH$LINK: INCHIKEY XPRZAEWSYWTDSQ-UHFFFAOYSA-N
AC$INSTRUMENT: LC, Waters Acquity UPLC System; MS, Waters Xevo G2 Q-Tof
AC$INSTRUMENT_TYPE: LC-ESI-QTOF
AC$MASS_SPECTROMETRY: MS_TYPE MS2
AC$MASS_SPECTROMETRY: ION_MODE POSITIVE
AC$MASS_SPECTROMETRY: COLLISION_ENERGY 6V
AC$MASS_SPECTROMETRY: DESOLVATION_GAS_FLOW 800/h
AC$MASS_SPECTROMETRY: DESOLVATION_TEMPERATURE 450 C
AC$MASS_SPECTROMETRY: IONIZATION ESI
AC$CHROMATOGRAPHY: CAPILLARY_VOLTAGE +3.00 kV
AC$CHROMATOGRAPHY: COLUMN_NAME Acquity bridged ethyl hybrid C18 (1.7 um, 2.1 mm * 100 mm, Waters)
AC$CHROMATOGRAPHY: COLUMN_TEMPERATURE 40 C
AC$CHROMATOGRAPHY: FLOW_GRADIENT A/B = (99.5%/0.5% at 0 min, 99.5%/0.5% at 0.1 min, 20%/80% at 10 min, 0.5%/99.5% at 10.1 min, 0.5%/99.5% at 12.0 min, 99.5%/0.5% at 12.1 min, 99.5%/0.5% at 15.0 min)
AC$CHROMATOGRAPHY: FLOW_RATE 0.3 ml/min at 0 min, 0.3 ml/min at 10 min, 0.4 ml/min at 10.1 min, 0.4 ml/min at 14.4 min, 0.3 ml/min at 14.5 min
AC$CHROMATOGRAPHY: RETENTION_TIME 6.26
AC$CHROMATOGRAPHY: SOLVENT A water including 0.1% formic acid
AC$CHROMATOGRAPHY: SOLVENT B acetonitrile including 0.1% formic acid
MS$FOCUSED_ION: PRECURSOR_TYPE [M+H]+
MS$FOCUSED_ION: PRECURSOR_M/Z 167.0562
PK$SPLASH: splash10-0100-7900000000-ab36834c809a5f38d279
PK$NUM_PEAK: 19
PK$PEAK: m/z int. rel.int.
  73.0093 116.0 477
  73.01273 211.0 867
  73.09583 17.0 70
  75.00468 26.0 107
  78.96844 33.0 136
  78.97381 41.0 169
  80.96747 24.0 99
  94.96859 16.0 66
  95.03046 19.0 78
  96.95319 16.0 66
  106.99332 52.0 214
  106.99989 73.0 300
  107.99446 17.0 70
  108.00579 18.0 74
  109.01393 22.0 90
  125.01317 194.0 798
  128.92802 16.0 66
  128.94586 20.0 82
  167.05983 243.0 999
//
