ACCESSION: MSBNK-RIKEN-PR305839
RECORD_TITLE: Kaempferol; LC-ESI-QTOF; MS2
DATE: 2019.03.28
AUTHORS: Tetsuya Mori, Center for Sustainable Resource Science, RIKEN
LICENSE: CC BY-NC-SA
PUBLICATION: Tsugawa H., Nakabayashi R., Mori T., Yamada Y., Takahashi M., Rai A., Sugiyama R., Yamamoto H., Nakaya T., Yamazaki M., Kooke R., Bac-Molenaar JA., Oztolan-Erol N., Keurentjes JJB., Arita M., Saito K. (2019) "A cheminformatics approach to characterize metabolomes in stable-isotope-labeled organisms" Nature Methods 16(4):295-298. [doi:10.1038/s41592-019-0358-2]
COMMENT: registered in RIKEN PlaSMA
CH$NAME: Kaempferol
CH$COMPOUND_CLASS: Flavonols
CH$FORMULA: C15H10O6
CH$EXACT_MASS: 286.239
CH$SMILES: OC1=CC=C(C=C1)C1=C(O)C(=O)C2=C(O)C=C(O)C=C2O1
CH$IUPAC: InChI=1S/C15H10O6/c16-8-3-1-7(2-4-8)15-14(20)13(19)12-10(18)5-9(17)6-11(12)21-15/h1-6,16-18,20H
CH$LINK: INCHIKEY IYRMWMYZSQPJKC-UHFFFAOYSA-N
AC$INSTRUMENT: LC, Waters Acquity UPLC System; MS, Waters Xevo G2 Q-Tof
AC$INSTRUMENT_TYPE: LC-ESI-QTOF
AC$MASS_SPECTROMETRY: MS_TYPE MS2
AC$MASS_SPECTROMETRY: ION_MODE NEGATIVE
AC$MASS_SPECTROMETRY: COLLISION_ENERGY 6V
AC$MASS_SPECTROMETRY: DESOLVATION_GAS_FLOW 800/h
AC$MASS_SPECTROMETRY: DESOLVATION_TEMPERATURE 450 C
AC$MASS_SPECTROMETRY: IONIZATION ESI
AC$CHROMATOGRAPHY: CAPILLARY_VOLTAGE -2.75 kV
AC$CHROMATOGRAPHY: COLUMN_NAME Acquity bridged ethyl hybrid C18 (1.7 um, 2.1 mm * 100 mm, Waters)
AC$CHROMATOGRAPHY: COLUMN_TEMPERATURE 40 C
AC$CHROMATOGRAPHY: FLOW_GRADIENT A/B = (99.5%/0.5% at 0 min, 99.5%/0.5% at 0.1 min, 20%/80% at 10 min, 0.5%/99.5% at 10.1 min, 0.5%/99.5% at 12.0 min, 99.5%/0.5% at 12.1 min, 99.5%/0.5% at 15.0 min)
AC$CHROMATOGRAPHY: FLOW_RATE 0.3 ml/min at 0 min, 0.3 ml/min at 10 min, 0.4 ml/min at 10.1 min, 0.4 ml/min at 14.4 min, 0.3 ml/min at 14.5 min
AC$CHROMATOGRAPHY: RETENTION_TIME 5.995067
AC$CHROMATOGRAPHY: SOLVENT A water including 0.1% formic acid
AC$CHROMATOGRAPHY: SOLVENT B acetonitrile including 0.1% formic acid
MS$FOCUSED_ION: PRECURSOR_TYPE [M-H]-
MS$FOCUSED_ION: PRECURSOR_M/Z 285.04046154783
PK$SPLASH: splash10-052u-0930000000-92bc534f17e04a550171
PK$NUM_PEAK: 176
PK$PEAK: m/z int. rel.int.
  65.00423 33.0 33
  75.00185 23.0 23
  79.01414 30.0 30
  83.00709 27.0 27
  83.01256 85.0 85
  89.04137 30.0 30
  92.02598 101.0 101
  93.03386 783.0 782
  94.03882 80.0 80
  94.92642 42.0 42
  95.01345 138.0 138
  95.11452 26.0 26
  105.03648 77.0 77
  107.01266 234.0 234
  107.04968 35.0 35
  108.01958 441.0 441
  108.8567 26.0 26
  108.99429 26.0 26
  109.01911 37.0 37
  109.02985 303.0 303
  109.23289 29.0 29
  110.03067 31.0 31
  115.05444 134.0 134
  117.03251 401.0 401
  117.07143 35.0 35
  118.03491 163.0 163
  119.01012 86.0 86
  119.04852 93.0 93
  120.02045 200.0 200
  121.02492 47.0 47
  121.03152 39.0 39
  121.99796 31.0 31
  123.00694 27.0 27
  129.02673 37.0 37
  129.07503 31.0 31
  130.03304 34.0 34
  130.04295 244.0 244
  131.04784 420.0 420
  132.02109 65.0 65
  132.0509 33.0 33
  133.0247 148.0 148
  133.03172 127.0 127
  133.06706 33.0 33
  135.00494 253.0 253
  135.04718 89.0 89
  136.02116 23.0 23
  136.04366 43.0 43
  137.02278 187.0 187
  137.78903 38.0 38
  139.05338 27.0 27
  141.06822 61.0 61
  141.07507 27.0 27
  143.05098 738.0 737
  144.05421 37.0 37
  145.02707 307.0 307
  145.0638 31.0 31
  145.13754 26.0 26
  146.03099 56.0 56
  146.03984 43.0 43
  147.00194 35.0 35
  147.03656 46.0 46
  147.04407 127.0 127
  149.02408 26.0 26
  150.98958 26.0 26
  151.00333 235.0 235
  151.03694 30.0 30
  152.01047 30.0 30
  153.01393 26.0 26
  154.03981 91.0 91
  155.047 232.0 232
  156.0556 183.0 183
  156.0645 29.0 29
  157.02603 108.0 108
  157.03239 102.0 102
  157.06479 307.0 307
  158.02594 22.0 22
  158.03418 78.0 78
  158.03935 161.0 161
  158.06793 29.0 29
  159.03273 52.0 52
  159.04382 604.0 603
  159.05574 29.0 29
  161.02542 257.0 257
  162.731 26.0 26
  163.0014 55.0 55
  164.00626 184.0 184
  164.0144 38.0 38
  165.00789 33.0 33
  165.01749 34.0 34
  165.02666 31.0 31
  167.05014 208.0 208
  168.05701 65.0 65
  169.02634 25.0 25
  169.06168 185.0 185
  170.03145 54.0 54
  171.04233 595.0 594
  171.05692 38.0 38
  172.04494 82.0 82
  172.64088 27.0 27
  173.02538 195.0 195
  173.04651 56.0 56
  173.06192 33.0 33
  174.02856 137.0 137
  175.02798 31.0 31
  175.0343 114.0 114
  176.00493 31.0 31
  180.05852 39.0 39
  183.0433 290.0 290
  184.04958 187.0 187
  184.06073 56.0 56
  185.01552 44.0 44
  185.02469 27.0 27
  185.05522 279.0 279
  185.06517 265.0 265
  186.03474 23.0 23
  186.05231 64.0 64
  186.06616 112.0 112
  187.03108 232.0 232
  187.037 531.0 530
  188.03954 54.0 54
  190.99966 166.0 166
  191.03244 73.0 73
  195.043 197.0 197
  195.05011 61.0 61
  196.03682 46.0 46
  198.03227 39.0 39
  199.03127 56.0 56
  200.04437 37.0 37
  200.93216 46.0 46
  201.05493 222.0 222
  210.0295 30.0 30
  210.03899 55.0 55
  211.03604 440.0 440
  211.04376 273.0 273
  211.6972 38.0 38
  212.04071 133.0 133
  212.05171 22.0 22
  213.02473 59.0 59
  213.05948 124.0 124
  213.30521 43.0 43
  214.02028 86.0 86
  214.03096 163.0 163
  215.03223 114.0 114
  215.04614 30.0 30
  216.03014 26.0 26
  216.04805 30.0 30
  217.01341 35.0 35
  219.02762 67.0 67
  219.03369 104.0 104
  224.04646 26.0 26
  225.04254 38.0 38
  226.02049 81.0 81
  226.03908 46.0 46
  227.03462 655.0 654
  227.11261 26.0 26
  228.02994 54.0 54
  228.04561 29.0 29
  229.05209 200.0 200
  230.04517 33.0 33
  239.0192 31.0 31
  239.03574 556.0 555
  240.04103 72.0 72
  240.04715 35.0 35
  242.02109 27.0 27
  243.02864 154.0 154
  244.02942 40.0 40
  244.16397 26.0 26
  244.84322 25.0 25
  255.02516 179.0 179
  256.03214 29.0 29
  267.03271 50.0 50
  268.0278 106.0 106
  268.04022 121.0 121
  269.0477 67.0 67
  284.03439 72.0 72
  285.0412 1000.0 999
//
