ACCESSION: MSBNK-RIKEN-PR300254
RECORD_TITLE: Gelsemine; LC-ESI-QTOF; MS2
DATE: 2019.03.28
AUTHORS: Tetsuya Mori, Center for Sustainable Resource Science, RIKEN
LICENSE: CC BY-NC-SA
PUBLICATION: Tsugawa H., Nakabayashi R., Mori T., Yamada Y., Takahashi M., Rai A., Sugiyama R., Yamamoto H., Nakaya T., Yamazaki M., Kooke R., Bac-Molenaar JA., Oztolan-Erol N., Keurentjes JJB., Arita M., Saito K. (2019) "A cheminformatics approach to characterize metabolomes in stable-isotope-labeled organisms" Nature Methods 16(4):295-298. [doi:10.1038/s41592-019-0358-2]
COMMENT: registered in RIKEN PlaSMA
CH$NAME: Gelsemine
CH$COMPOUND_CLASS: Gelsemium alkaloids
CH$FORMULA: C20H22N2O2
CH$EXACT_MASS: 322.408
CH$SMILES: CN1C[C@@]2(C=C)C3C[C@H]4OC[C@@H]3[C@@H]1[C@@H]2[C@@]41C(O)=NC2=CC=CC=C12
CH$IUPAC: InChI=1S/C20H22N2O2/c1-3-19-10-22(2)16-11-9-24-15(8-13(11)19)20(17(16)19)12-6-4-5-7-14(12)21-18(20)23/h3-7,11,13,15-17H,1,8-10H2,2H3,(H,21,23)/t11-,13?,15+,16+,17-,19-,20-/m0/s1
CH$LINK: INCHIKEY NFYYATWFXNPTRM-ICFOCEFXSA-N
AC$INSTRUMENT: LC, Waters Acquity UPLC System; MS, Waters Xevo G2 Q-Tof
AC$INSTRUMENT_TYPE: LC-ESI-QTOF
AC$MASS_SPECTROMETRY: MS_TYPE MS2
AC$MASS_SPECTROMETRY: ION_MODE POSITIVE
AC$MASS_SPECTROMETRY: COLLISION_ENERGY 6V
AC$MASS_SPECTROMETRY: DESOLVATION_GAS_FLOW 800/h
AC$MASS_SPECTROMETRY: DESOLVATION_TEMPERATURE 450 C
AC$MASS_SPECTROMETRY: IONIZATION ESI
AC$CHROMATOGRAPHY: CAPILLARY_VOLTAGE +3.00 kV
AC$CHROMATOGRAPHY: COLUMN_NAME Acquity bridged ethyl hybrid C18 (1.7 um, 2.1 mm * 100 mm, Waters)
AC$CHROMATOGRAPHY: COLUMN_TEMPERATURE 40 C
AC$CHROMATOGRAPHY: FLOW_GRADIENT A/B = (99.5%/0.5% at 0 min, 99.5%/0.5% at 0.1 min, 20%/80% at 10 min, 0.5%/99.5% at 10.1 min, 0.5%/99.5% at 12.0 min, 99.5%/0.5% at 12.1 min, 99.5%/0.5% at 15.0 min)
AC$CHROMATOGRAPHY: FLOW_RATE 0.3 ml/min at 0 min, 0.3 ml/min at 10 min, 0.4 ml/min at 10.1 min, 0.4 ml/min at 14.4 min, 0.3 ml/min at 14.5 min
AC$CHROMATOGRAPHY: RETENTION_TIME 3.21075
AC$CHROMATOGRAPHY: SOLVENT A water including 0.1% formic acid
AC$CHROMATOGRAPHY: SOLVENT B acetonitrile including 0.1% formic acid
MS$FOCUSED_ION: PRECURSOR_TYPE [M+H]+
MS$FOCUSED_ION: PRECURSOR_M/Z 323.1754044
PK$SPLASH: splash10-01ba-1930000000-6b1a651ba3f62569f031
PK$NUM_PEAK: 260
PK$PEAK: m/z int. rel.int.
  65.03644 12.0 12
  68.054 18.0 18
  70.04589 12.0 12
  70.05815 63.0 63
  70.06587 712.0 711
  70.77462 12.0 12
  71.06893 45.0 45
  71.37847 11.0 11
  71.51738 11.0 11
  71.88774 10.0 10
  73.40447 11.0 11
  74.6956 23.0 23
  75.1455 10.0 10
  77.03797 20.0 20
  78.03417 17.0 17
  78.03808 25.0 25
  79.05432 57.0 57
  81.03606 28.0 28
  86.0613 35.0 35
  86.06934 24.0 24
  88.07687 20.0 20
  91.04507 24.0 24
  91.05553 184.0 184
  91.06036 60.0 60
  92.04678 36.0 36
  92.05725 14.0 14
  92.78926 11.0 11
  93.05754 21.0 21
  94.06452 60.0 60
  96.0832 20.0 20
  101.02187 17.0 17
  103.05186 88.0 88
  103.91563 17.0 17
  104.04905 67.0 67
  105.05345 33.0 33
  105.07236 12.0 12
  105.56661 15.0 15
  107.09031 24.0 24
  108.08146 45.0 45
  115.03432 16.0 16
  115.05421 277.0 277
  116.06336 135.0 135
  116.07916 11.0 11
  117.03786 35.0 35
  117.06409 44.0 44
  117.07102 100.0 100
  118.03821 12.0 12
  118.06465 139.0 139
  119.05593 16.0 16
  119.06779 10.0 10
  119.0884 41.0 41
  120.08105 70.0 70
  121.0498 13.0 13
  121.06783 16.0 16
  122.07406 10.0 10
  126.09528 16.0 16
  127.05477 17.0 17
  128.02289 27.0 27
  128.04083 128.0 128
  128.05098 156.0 156
  128.063 38.0 38
  129.05324 100.0 100
  129.07025 97.0 97
  130.0387 16.0 16
  130.05032 10.0 10
  130.06238 215.0 215
  130.06651 96.0 96
  130.07362 26.0 26
  131.04762 41.0 41
  131.0621 50.0 50
  131.08388 48.0 48
  131.09393 21.0 21
  132.01558 16.0 16
  132.04001 114.0 114
  132.04704 136.0 136
  132.07845 33.0 33
  132.08464 63.0 63
  132.21144 12.0 12
  133.04669 19.0 19
  133.07791 10.0 10
  133.08499 20.0 20
  133.09398 30.0 30
  134.06129 39.0 39
  134.10249 33.0 33
  135.07715 10.0 10
  136.1183 10.0 10
  139.0562 10.0 10
  140.0524 53.0 53
  141.05171 11.0 11
  141.06143 10.0 10
  142.07164 24.0 24
  143.07245 38.0 38
  143.07872 23.0 23
  144.03876 13.0 13
  144.08084 49.0 49
  145.06801 20.0 20
  145.08995 19.0 19
  146.02319 17.0 17
  146.05882 97.0 97
  146.08981 39.0 39
  146.09633 152.0 152
  148.07823 25.0 25
  148.10931 35.0 35
  149.12521 29.0 29
  150.86476 16.0 16
  151.05606 145.0 145
  151.26028 27.0 27
  152.04555 10.0 10
  152.05983 34.0 34
  152.06744 54.0 54
  153.05936 57.0 57
  153.06743 26.0 26
  153.07471 14.0 14
  154.06326 67.0 67
  156.07895 11.0 11
  157.08527 13.0 13
  158.06136 35.0 35
  160.03473 11.0 11
  162.09229 12.0 12
  163.05573 44.0 44
  164.39005 11.0 11
  165.05653 138.0 138
  165.0699 55.0 55
  165.07941 21.0 21
  166.05675 42.0 42
  166.06808 185.0 185
  166.16145 24.0 24
  167.04526 18.0 18
  167.05499 38.0 38
  167.07256 538.0 537
  168.0732 90.0 90
  168.27216 10.0 10
  169.05884 13.0 13
  169.0746 24.0 24
  169.09117 26.0 26
  177.04288 56.0 56
  177.0547 67.0 67
  177.06595 38.0 38
  178.05994 184.0 184
  178.07509 81.0 81
  178.12442 23.0 23
  179.06406 53.0 53
  179.08018 32.0 32
  180.07082 139.0 139
  180.08122 301.0 301
  181.08632 70.0 70
  181.09583 17.0 17
  181.55815 11.0 11
  182.04285 20.0 20
  182.05908 83.0 83
  183.06367 22.0 22
  183.09045 18.0 18
  183.10056 12.0 12
  184.04112 27.0 27
  184.05777 11.0 11
  184.06956 36.0 36
  185.07877 32.0 32
  185.0899 10.0 10
  189.06572 134.0 134
  189.08104 20.0 20
  189.73991 10.0 10
  190.06323 144.0 144
  190.08632 33.0 33
  191.07196 152.0 152
  191.09023 35.0 35
  192.07588 54.0 54
  192.0849 114.0 114
  192.09045 41.0 41
  193.05338 12.0 12
  193.07625 30.0 30
  193.08809 68.0 68
  193.09764 18.0 18
  193.14107 17.0 17
  194.05914 26.0 26
  194.09158 72.0 72
  195.0396 19.0 19
  195.04901 45.0 45
  195.06921 1000.0 999
  195.99576 12.0 12
  196.07364 223.0 223
  197.076 13.0 13
  197.08536 36.0 36
  198.93558 18.0 18
  201.06833 48.0 48
  202.05069 23.0 23
  202.0665 21.0 21
  202.08289 22.0 22
  202.92433 12.0 12
  203.05522 44.0 44
  203.07249 259.0 259
  203.08308 55.0 55
  204.02441 10.0 10
  204.08173 144.0 144
  204.09241 86.0 86
  205.07932 26.0 26
  206.07469 15.0 15
  206.08762 34.0 34
  206.0965 32.0 32
  206.10503 21.0 21
  207.03499 13.0 13
  207.06532 19.0 19
  207.104 21.0 21
  208.07297 223.0 223
  209.08763 27.0 27
  210.05968 14.0 14
  210.08585 98.0 98
  214.069 31.0 31
  215.07242 30.0 30
  216.07085 55.0 55
  216.08266 146.0 146
  217.08943 448.0 448
  218.07396 33.0 33
  218.09196 116.0 116
  218.10226 50.0 50
  219.07974 11.0 11
  219.10205 92.0 92
  220.07397 29.0 29
  220.08881 10.0 10
  220.09758 10.0 10
  221.06773 13.0 13
  221.08513 38.0 38
  221.11511 13.0 13
  222.08296 40.0 40
  222.09427 33.0 33
  225.79576 10.0 10
  227.07207 36.0 36
  228.08383 56.0 56
  229.07265 23.0 23
  229.08131 16.0 16
  230.09311 55.0 55
  230.10532 14.0 14
  231.06444 15.0 15
  232.09311 28.0 28
  233.08719 19.0 19
  235.12357 29.0 29
  236.11638 18.0 18
  237.11893 12.0 12
  237.95074 11.0 11
  240.07953 13.0 13
  241.08939 12.0 12
  243.1032 12.0 12
  243.11076 11.0 11
  243.12253 18.0 18
  245.08229 21.0 21
  246.0883 15.0 15
  247.79683 13.0 13
  249.0943 11.0 11
  251.29434 25.0 25
  252.09273 15.0 15
  254.09645 17.0 17
  254.10501 14.0 14
  255.10365 10.0 10
  255.78392 15.0 15
  258.10428 35.0 35
  263.1008 13.0 13
  290.5925 13.0 13
  311.70615 18.0 18
  320.07431 19.0 19
  323.1438 34.0 34
  323.17542 55.0 55
//
