ACCESSION: MSBNK-RIKEN-PR300574
RECORD_TITLE: Trachelanthine; LC-ESI-QTOF; MS2
DATE: 2019.03.28
AUTHORS: Tetsuya Mori, Center for Sustainable Resource Science, RIKEN
LICENSE: CC BY-NC-SA
PUBLICATION: Tsugawa H., Nakabayashi R., Mori T., Yamada Y., Takahashi M., Rai A., Sugiyama R., Yamamoto H., Nakaya T., Yamazaki M., Kooke R., Bac-Molenaar JA., Oztolan-Erol N., Keurentjes JJB., Arita M., Saito K. (2019) "A cheminformatics approach to characterize metabolomes in stable-isotope-labeled organisms" Nature Methods 16(4):295-298. [doi:10.1038/s41592-019-0358-2]
COMMENT: registered in RIKEN PlaSMA
CH$NAME: Trachelanthine
CH$COMPOUND_CLASS: Pyrrolizidines
CH$FORMULA: C15H27NO5
CH$EXACT_MASS: 301.383
CH$SMILES: CC(C)[C@@](O)(C(C)O)C(=O)OC[C@H]1CCN2(=O)CCC[C@@H]12
CH$IUPAC: InChI=1S/C15H27NO5/c1-10(2)15(19,11(3)17)14(18)21-9-12-6-8-16(20)7-4-5-13(12)16/h10-13,17,19H,4-9H2,1-3H3/t11?,12-,13+,15-,16?/m1/s1
CH$LINK: INCHIKEY DLNWZIVYKQXLTN-CGYUPCHJSA-N
AC$INSTRUMENT: LC, Waters Acquity UPLC System; MS, Waters Xevo G2 Q-Tof
AC$INSTRUMENT_TYPE: LC-ESI-QTOF
AC$MASS_SPECTROMETRY: MS_TYPE MS2
AC$MASS_SPECTROMETRY: ION_MODE POSITIVE
AC$MASS_SPECTROMETRY: COLLISION_ENERGY 6V
AC$MASS_SPECTROMETRY: DESOLVATION_GAS_FLOW 800/h
AC$MASS_SPECTROMETRY: DESOLVATION_TEMPERATURE 450 C
AC$MASS_SPECTROMETRY: IONIZATION ESI
AC$CHROMATOGRAPHY: CAPILLARY_VOLTAGE +3.00 kV
AC$CHROMATOGRAPHY: COLUMN_NAME Acquity bridged ethyl hybrid C18 (1.7 um, 2.1 mm * 100 mm, Waters)
AC$CHROMATOGRAPHY: COLUMN_TEMPERATURE 40 C
AC$CHROMATOGRAPHY: FLOW_GRADIENT A/B = (99.5%/0.5% at 0 min, 99.5%/0.5% at 0.1 min, 20%/80% at 10 min, 0.5%/99.5% at 10.1 min, 0.5%/99.5% at 12.0 min, 99.5%/0.5% at 12.1 min, 99.5%/0.5% at 15.0 min)
AC$CHROMATOGRAPHY: FLOW_RATE 0.3 ml/min at 0 min, 0.3 ml/min at 10 min, 0.4 ml/min at 10.1 min, 0.4 ml/min at 14.4 min, 0.3 ml/min at 14.5 min
AC$CHROMATOGRAPHY: RETENTION_TIME 3.107783
AC$CHROMATOGRAPHY: SOLVENT A water including 0.1% formic acid
AC$CHROMATOGRAPHY: SOLVENT B acetonitrile including 0.1% formic acid
MS$FOCUSED_ION: PRECURSOR_TYPE [M+H]+
MS$FOCUSED_ION: PRECURSOR_M/Z 302.1961994
PK$SPLASH: splash10-0a4i-0900000000-bd5a05b2982e1f0b2cb0
PK$NUM_PEAK: 21
PK$PEAK: m/z int. rel.int.
  83.07343 24.0 24
  84.07462 5.0 5
  84.08138 26.0 26
  97.08893 6.0 6
  110.09668 25.0 25
  122.09692 20.0 20
  124.11235 74.0 74
  125.11639 10.0 10
  140.10735 55.0 55
  141.11511 121.0 121
  142.1136 6.0 6
  142.12096 17.0 17
  158.11809 1000.0 999
  158.15369 38.0 38
  158.34402 6.0 6
  159.12158 93.0 93
  160.12346 8.0 8
  252.15897 6.0 6
  258.17346 7.0 7
  284.18741 7.0 7
  302.19574 51.0 51
//
