ACCESSION: MSBNK-RIKEN-PR100603
RECORD_TITLE: rac-Glycerol 3-phosphoate; LC-ESI-QTOF; MS2; CE:Ramp 5-60 V; [M-H]-
DATE: 2016.01.19 (Created 2009.09.10, modified 2011.05.06)
AUTHORS: Matsuda F, Suzuki M, Sawada Y, Plant Science Center, RIKEN.
LICENSE: CC BY-SA
COMMENT: Acquisition and generation of the data is financially supported in part by CREST/JST.
CH$NAME: rac-Glycerol 3-phosphoate
CH$NAME: sn-Gro-1P
CH$NAME: glycero-3P
CH$NAME: glycero-1P
CH$NAME: glycerophosphoric acid
CH$NAME: rac-Glycerol 1-phosphate
CH$NAME: DL-alpha-Glycerophosphate
CH$COMPOUND_CLASS: Natural Product; Carbohydrate; Phosphates
CH$FORMULA: C3H9O6P
CH$EXACT_MASS: 172.01367
CH$SMILES: OCC(O)COP(O)(O)=O
CH$IUPAC: InChI=1S/C3H9O6P/c4-1-3(5)2-9-10(6,7)8/h3-5H,1-2H2,(H2,6,7,8)/t3-/m0/s1
CH$LINK: CAS 57-03-4
CH$LINK: CHEMSPIDER 388308
CH$LINK: KEGG C00093
CH$LINK: KNAPSACK C00007288
CH$LINK: PUBCHEM CID:439162
CH$LINK: INCHIKEY AWUCVROLDVIAJX-VKHMYHEASA-N
AC$INSTRUMENT: UPLC Q-Tof Premier, Waters
AC$INSTRUMENT_TYPE: LC-ESI-QTOF
AC$MASS_SPECTROMETRY: MS_TYPE MS2
AC$MASS_SPECTROMETRY: ION_MODE NEGATIVE
AC$MASS_SPECTROMETRY: COLLISION_ENERGY Ramp 5-60 V
AC$MASS_SPECTROMETRY: DATAFORMAT Continuum
AC$MASS_SPECTROMETRY: DATE 2008.07.28
AC$MASS_SPECTROMETRY: DESOLVATION_GAS_FLOW 600.0 L/Hr
AC$MASS_SPECTROMETRY: DESOLVATION_TEMPERATURE 420 C
AC$MASS_SPECTROMETRY: FRAGMENTATION_METHOD LOW-ENERGY CID
AC$MASS_SPECTROMETRY: IONIZATION ESI
AC$MASS_SPECTROMETRY: SCANNING 1.0 sec/scan (m/z = 50-1000)
AC$MASS_SPECTROMETRY: SOURCE_TEMPERATURE 120 C
AC$CHROMATOGRAPHY: CAPILLARY_VOLTAGE 3.0 kV
AC$CHROMATOGRAPHY: SAMPLING_CONE 23.0 V
AC$CHROMATOGRAPHY: SOLVENT A CH3CN(0.1%HCOOH)
AC$CHROMATOGRAPHY: SOLVENT B H2O(0.1%HCOOH)
MS$FOCUSED_ION: PRECURSOR_M/Z 171.00587
MS$FOCUSED_ION: PRECURSOR_TYPE [M-H]-
PK$SPLASH: splash10-004i-9200000000-93a52b684132eb5938b5
PK$NUM_PEAK: 3
PK$PEAK: m/z int. rel.int.
  78.9597 1075 999
  96.9699 84.65 79
  171.0059 287.1 267
//
