ACCESSION: MSBNK-RIKEN-PR302966
RECORD_TITLE: Maritimetin-6-O-glucoside; LC-ESI-QTOF; MS2
DATE: 2019.03.28
AUTHORS: Tetsuya Mori, Center for Sustainable Resource Science, RIKEN
LICENSE: CC BY-NC-SA
PUBLICATION: Tsugawa H., Nakabayashi R., Mori T., Yamada Y., Takahashi M., Rai A., Sugiyama R., Yamamoto H., Nakaya T., Yamazaki M., Kooke R., Bac-Molenaar JA., Oztolan-Erol N., Keurentjes JJB., Arita M., Saito K. (2019) "A cheminformatics approach to characterize metabolomes in stable-isotope-labeled organisms" Nature Methods 16(4):295-298. [doi:10.1038/s41592-019-0358-2]
COMMENT: registered in RIKEN PlaSMA
CH$NAME: Maritimetin-6-O-glucoside
CH$COMPOUND_CLASS: Aurone O-glycosides
CH$FORMULA: C21H20O11
CH$EXACT_MASS: 448.38
CH$SMILES: OC[C@H]1O[C@@H](OC2=C(O)C3=C(C=C2)C(=O)\C(O3)=C\C2=CC(O)=C(O)C=C2)[C@H](O)[C@@H](O)[C@@H]1O
CH$IUPAC: InChI=1S/C21H20O11/c22-7-14-16(26)18(28)19(29)21(32-14)31-12-4-2-9-15(25)13(30-20(9)17(12)27)6-8-1-3-10(23)11(24)5-8/h1-6,14,16,18-19,21-24,26-29H,7H2/b13-6-/t14-,16-,18+,19-,21-/m1/s1
CH$LINK: INCHIKEY SYRURBPRFQUYQS-RHEJLWEFSA-N
AC$INSTRUMENT: LC, Waters Acquity UPLC System; MS, Waters Xevo G2 Q-Tof
AC$INSTRUMENT_TYPE: LC-ESI-QTOF
AC$MASS_SPECTROMETRY: MS_TYPE MS2
AC$MASS_SPECTROMETRY: ION_MODE POSITIVE
AC$MASS_SPECTROMETRY: COLLISION_ENERGY 6V
AC$MASS_SPECTROMETRY: DESOLVATION_GAS_FLOW 800/h
AC$MASS_SPECTROMETRY: DESOLVATION_TEMPERATURE 450 C
AC$MASS_SPECTROMETRY: IONIZATION ESI
AC$CHROMATOGRAPHY: CAPILLARY_VOLTAGE +3.00 kV
AC$CHROMATOGRAPHY: COLUMN_NAME Acquity bridged ethyl hybrid C18 (1.7 um, 2.1 mm * 100 mm, Waters)
AC$CHROMATOGRAPHY: COLUMN_TEMPERATURE 40 C
AC$CHROMATOGRAPHY: FLOW_GRADIENT A/B = (99.5%/0.5% at 0 min, 99.5%/0.5% at 0.1 min, 20%/80% at 10 min, 0.5%/99.5% at 10.1 min, 0.5%/99.5% at 12.0 min, 99.5%/0.5% at 12.1 min, 99.5%/0.5% at 15.0 min)
AC$CHROMATOGRAPHY: FLOW_RATE 0.3 ml/min at 0 min, 0.3 ml/min at 10 min, 0.4 ml/min at 10.1 min, 0.4 ml/min at 14.4 min, 0.3 ml/min at 14.5 min
AC$CHROMATOGRAPHY: RETENTION_TIME 3.98575
AC$CHROMATOGRAPHY: SOLVENT A water including 0.1% formic acid
AC$CHROMATOGRAPHY: SOLVENT B acetonitrile including 0.1% formic acid
MS$FOCUSED_ION: PRECURSOR_TYPE [M+H]+
MS$FOCUSED_ION: PRECURSOR_M/Z 449.1078379
PK$SPLASH: splash10-0udi-0930000000-99e03c46f66b67ad1282
PK$NUM_PEAK: 79
PK$PEAK: m/z int. rel.int.
  79.01476 67.0 67
  89.03956 51.0 51
  105.03632 73.0 73
  107.01477 44.0 44
  107.04021 51.0 51
  107.04462 56.0 56
  107.05242 39.0 39
  108.01888 56.0 56
  108.03121 32.0 32
  119.04739 56.0 56
  123.00163 98.0 98
  123.00771 121.0 121
  123.01456 74.0 74
  124.01144 81.0 81
  125.01894 67.0 67
  125.027 40.0 40
  128.06282 115.0 115
  128.07121 71.0 71
  129.06177 34.0 34
  129.07005 47.0 47
  130.07439 30.0 30
  135.00409 34.0 34
  135.05028 42.0 42
  136.0464 35.0 35
  139.06082 94.0 94
  139.91779 49.0 49
  140.05174 34.0 34
  141.07053 39.0 39
  145.03003 40.0 40
  152.0005 49.0 49
  152.01175 52.0 52
  152.98917 59.0 59
  153.01884 1000.0 999
  154.02481 150.0 150
  155.00854 42.0 42
  157.06375 184.0 184
  157.07079 61.0 61
  161.01819 111.0 111
  161.028 108.0 108
  161.06575 35.0 35
  162.03384 47.0 47
  163.01895 57.0 57
  167.04195 71.0 71
  167.05507 32.0 32
  175.0808 84.0 84
  184.80011 46.0 46
  185.05196 83.0 83
  185.06606 86.0 86
  186.05864 42.0 42
  186.06717 46.0 46
  189.04886 79.0 79
  191.03156 84.0 84
  191.04749 49.0 49
  195.03026 34.0 34
  195.04613 32.0 32
  196.0475 47.0 47
  197.05396 51.0 51
  199.03345 35.0 35
  201.04993 39.0 39
  212.03554 39.0 39
  213.05386 346.0 346
  214.05569 153.0 153
  214.06967 32.0 32
  216.03821 34.0 34
  217.05484 246.0 246
  219.24406 29.0 29
  223.0367 93.0 93
  229.04636 35.0 35
  229.05914 42.0 42
  231.06229 67.0 67
  231.07074 224.0 224
  241.03854 81.0 81
  241.05412 172.0 172
  242.04579 40.0 40
  243.05099 37.0 37
  270.0517 67.0 67
  287.05606 46.0 46
  287.07254 35.0 35
  288.05756 59.0 59
//
