ACCESSION: MSBNK-RIKEN-PR303716
RECORD_TITLE: Ginsenoside Rb1; LC-ESI-QTOF; MS2
DATE: 2019.03.28
AUTHORS: Tetsuya Mori, Center for Sustainable Resource Science, RIKEN
LICENSE: CC BY-NC-SA
PUBLICATION: Tsugawa H., Nakabayashi R., Mori T., Yamada Y., Takahashi M., Rai A., Sugiyama R., Yamamoto H., Nakaya T., Yamazaki M., Kooke R., Bac-Molenaar JA., Oztolan-Erol N., Keurentjes JJB., Arita M., Saito K. (2019) "A cheminformatics approach to characterize metabolomes in stable-isotope-labeled organisms" Nature Methods 16(4):295-298. [doi:10.1038/s41592-019-0358-2]
COMMENT: registered in RIKEN PlaSMA
CH$NAME: Ginsenoside Rb1
CH$COMPOUND_CLASS: Triterpene saponins
CH$FORMULA: C54H92O23
CH$EXACT_MASS: 1109.307
CH$SMILES: CC(C)=CCC[C@](C)(O[C@@H]1O[C@H](CO[C@@H]2O[C@H](CO)[C@@H](O)[C@H](O)[C@H]2O)[C@@H](O)[C@H](O)[C@H]1O)[C@H]1CC[C@]2(C)[C@@H]1[C@H](O)C[C@@H]1[C@@]3(C)CC[C@H](O[C@@H]4O[C@H](CO)[C@@H](O)[C@H](O)[C@H]4O[C@@H]4O[C@H](CO)[C@@H](O)[C@H](O)[C@H]4O)C(C)(C)[C@@H]3CC[C@@]21C
CH$IUPAC: InChI=1S/C54H92O23/c1-23(2)10-9-14-54(8,77-48-44(69)40(65)37(62)29(74-48)22-70-46-42(67)38(63)34(59)26(19-55)71-46)24-11-16-53(7)33(24)25(58)18-31-51(5)15-13-32(50(3,4)30(51)12-17-52(31,53)6)75-49-45(41(66)36(61)28(21-57)73-49)76-47-43(68)39(64)35(60)27(20-56)72-47/h10,24-49,55-69H,9,11-22H2,1-8H3/t24-,25+,26+,27+,28+,29+,30-,31+,32-,33-,34+,35+,36+,37+,38-,39-,40-,41-,42+,43+,44+,45+,46+,47-,48-,49-,51-,52+,53+,54-/m0/s1
CH$LINK: INCHIKEY GZYPWOGIYAIIPV-JBDTYSNRSA-N
AC$INSTRUMENT: LC, Waters Acquity UPLC System; MS, Waters Xevo G2 Q-Tof
AC$INSTRUMENT_TYPE: LC-ESI-QTOF
AC$MASS_SPECTROMETRY: MS_TYPE MS2
AC$MASS_SPECTROMETRY: ION_MODE POSITIVE
AC$MASS_SPECTROMETRY: COLLISION_ENERGY 6V
AC$MASS_SPECTROMETRY: DESOLVATION_GAS_FLOW 800/h
AC$MASS_SPECTROMETRY: DESOLVATION_TEMPERATURE 450 C
AC$MASS_SPECTROMETRY: IONIZATION ESI
AC$CHROMATOGRAPHY: CAPILLARY_VOLTAGE +3.00 kV
AC$CHROMATOGRAPHY: COLUMN_NAME Acquity bridged ethyl hybrid C18 (1.7 um, 2.1 mm * 100 mm, Waters)
AC$CHROMATOGRAPHY: COLUMN_TEMPERATURE 40 C
AC$CHROMATOGRAPHY: FLOW_GRADIENT A/B = (99.5%/0.5% at 0 min, 99.5%/0.5% at 0.1 min, 20%/80% at 10 min, 0.5%/99.5% at 10.1 min, 0.5%/99.5% at 12.0 min, 99.5%/0.5% at 12.1 min, 99.5%/0.5% at 15.0 min)
AC$CHROMATOGRAPHY: FLOW_RATE 0.3 ml/min at 0 min, 0.3 ml/min at 10 min, 0.4 ml/min at 10.1 min, 0.4 ml/min at 14.4 min, 0.3 ml/min at 14.5 min
AC$CHROMATOGRAPHY: RETENTION_TIME 5.875216
AC$CHROMATOGRAPHY: SOLVENT A water including 0.1% formic acid
AC$CHROMATOGRAPHY: SOLVENT B acetonitrile including 0.1% formic acid
MS$FOCUSED_ION: PRECURSOR_TYPE [M+H]+
MS$FOCUSED_ION: PRECURSOR_M/Z 1109.610216
PK$SPLASH: splash10-004i-0229310000-cc961a37bb8bdcfaf501
PK$NUM_PEAK: 64
PK$PEAK: m/z int. rel.int.
  85.02004 11.0 11
  85.02754 11.0 11
  95.08957 16.0 16
  97.03025 15.0 15
  123.11163 14.0 14
  127.03799 37.0 37
  127.11417 13.0 13
  145.04802 26.0 26
  163.04922 42.0 42
  163.05902 140.0 140
  179.05801 23.0 23
  189.16963 11.0 11
  191.18402 15.0 15
  203.16837 13.0 13
  203.18568 17.0 17
  205.20476 16.0 16
  217.19583 52.0 52
  220.21175 12.0 12
  262.65298 15.0 15
  271.96582 13.0 13
  287.19553 20.0 20
  289.07089 14.0 14
  289.08469 66.0 66
  289.0957 29.0 29
  290.07526 17.0 17
  325.11475 1000.0 999
  326.11542 159.0 159
  327.12045 47.0 47
  344.12128 15.0 15
  358.93155 12.0 12
  407.36911 128.0 128
  408.36606 36.0 36
  408.38028 11.0 11
  409.34845 15.0 15
  425.38278 84.0 84
  425.40494 13.0 13
  426.36777 11.0 11
  427.3844 13.0 13
  443.38437 33.0 33
  444.36819 18.0 18
  444.39423 28.0 28
  449.37289 11.0 11
  487.15131 26.0 26
  487.16714 52.0 52
  487.19904 11.0 11
  488.14261 15.0 15
  488.1705 11.0 11
  489.18024 12.0 12
  535.39093 12.0 12
  549.37646 21.0 21
  569.427 43.0 43
  571.44397 14.0 14
  587.409 14.0 14
  587.44019 37.0 37
  588.4118 13.0 13
  588.43085 29.0 29
  589.39948 11.0 11
  605.44818 38.0 38
  606.42218 15.0 15
  641.59973 12.0 12
  708.44629 17.0 17
  749.51984 14.0 14
  767.48749 12.0 12
  786.51257 12.0 12
//
