ACCESSION: MSBNK-RIKEN-PR310712
RECORD_TITLE: alpha-Solanine; LC-ESI-QTOF; MS2
DATE: 2019.03.28
AUTHORS: Tetsuya Mori, Center for Sustainable Resource Science, RIKEN
LICENSE: CC BY-NC-SA
PUBLICATION: Tsugawa H., Nakabayashi R., Mori T., Yamada Y., Takahashi M., Rai A., Sugiyama R., Yamamoto H., Nakaya T., Yamazaki M., Kooke R., Bac-Molenaar JA., Oztolan-Erol N., Keurentjes JJB., Arita M., Saito K. (2019) "A cheminformatics approach to characterize metabolomes in stable-isotope-labeled organisms" Nature Methods 16(4):295-298. [doi:10.1038/s41592-019-0358-2]
COMMENT: Annotation level-1
CH$NAME: alpha-Solanine
CH$COMPOUND_CLASS: Steroidal saponins
CH$FORMULA: C45H73NO15
CH$EXACT_MASS: 868.071
CH$SMILES: OCC9OC(OC8C(O)C(OC(OC6CC5=CCC4C(CCC3(C)(C4(CC2N1CC(C)CCC1C(C)C23)))C5(C)CC6)C8(OC7OC(C)C(O)C(O)C7(O)))CO)C(O)C(O)C9(O)
CH$IUPAC: InChI=1S/C45H73NO15/c1-19-6-9-27-20(2)31-28(46(27)16-19)15-26-24-8-7-22-14-23(10-12-44(22,4)25(24)11-13-45(26,31)5)57-43-40(61-41-37(54)35(52)32(49)21(3)56-41)39(34(51)30(18-48)59-43)60-42-38(55)36(53)33(50)29(17-47)58-42/h7,19-21,23-43,47-55H,6,8-18H2,1-5H3
CH$LINK: INCHIKEY ZGVSETXHNHBTRK-UHFFFAOYSA-N
AC$INSTRUMENT: LC, Waters Acquity UPLC System; MS, Waters Xevo G2 Q-Tof
AC$INSTRUMENT_TYPE: LC-ESI-QTOF
AC$MASS_SPECTROMETRY: MS_TYPE MS2
AC$MASS_SPECTROMETRY: ION_MODE POSITIVE
AC$MASS_SPECTROMETRY: COLLISION_ENERGY 6V
AC$MASS_SPECTROMETRY: DESOLVATION_GAS_FLOW 800/h
AC$MASS_SPECTROMETRY: DESOLVATION_TEMPERATURE 450 C
AC$MASS_SPECTROMETRY: IONIZATION ESI
AC$CHROMATOGRAPHY: CAPILLARY_VOLTAGE +3.00 kV
AC$CHROMATOGRAPHY: COLUMN_NAME Acquity bridged ethyl hybrid C18 (1.7 um, 2.1 mm * 100 mm, Waters)
AC$CHROMATOGRAPHY: COLUMN_TEMPERATURE 40 C
AC$CHROMATOGRAPHY: FLOW_GRADIENT A/B = (99.5%/0.5% at 0 min, 99.5%/0.5% at 0.1 min, 20%/80% at 10 min, 0.5%/99.5% at 10.1 min, 0.5%/99.5% at 12.0 min, 99.5%/0.5% at 12.1 min, 99.5%/0.5% at 15.0 min)
AC$CHROMATOGRAPHY: FLOW_RATE 0.3 ml/min at 0 min, 0.3 ml/min at 10 min, 0.4 ml/min at 10.1 min, 0.4 ml/min at 14.4 min, 0.3 ml/min at 14.5 min
AC$CHROMATOGRAPHY: RETENTION_TIME 4.95
AC$CHROMATOGRAPHY: SOLVENT A water including 0.1% formic acid
AC$CHROMATOGRAPHY: SOLVENT B acetonitrile including 0.1% formic acid
MS$FOCUSED_ION: PRECURSOR_TYPE [M+H]+
MS$FOCUSED_ION: PRECURSOR_M/Z 868.5053
PK$SPLASH: splash10-014i-0000000090-7954b33578c9aab5dd4f
PK$NUM_PEAK: 158
PK$PEAK: m/z int. rel.int.
  130.89565 18.0 0
  184.25352 20.0 0
  214.43848 20.0 0
  220.07986 17.0 0
  248.3324 19.0 0
  265.98782 21.0 0
  289.95358 18.0 0
  313.40717 20.0 0
  380.32697 18.0 0
  382.42801 25.0 0
  393.3042 37.0 0
  398.3443 37.0 0
  399.46472 22.0 0
  400.0524 23.0 0
  413.68582 19.0 0
  422.55496 27.0 0
  429.13968 22.0 0
  432.24341 21.0 0
  451.4249 17.0 0
  453.00052 17.0 0
  459.35187 27.0 0
  463.05939 28.0 0
  464.93243 17.0 0
  470.31754 17.0 0
  474.4671 24.0 0
  474.76572 27.0 0
  474.93704 20.0 0
  476.03317 24.0 0
  482.26663 21.0 0
  484.14481 18.0 0
  484.9631 19.0 0
  486.56958 18.0 0
  488.32681 27.0 0
  490.96094 28.0 0
  491.23761 24.0 0
  493.98956 20.0 0
  494.58807 20.0 0
  495.64658 42.0 1
  497.69772 18.0 0
  501.06445 30.0 0
  501.70749 22.0 0
  506.97186 25.0 0
  508.48419 19.0 0
  509.63443 45.0 1
  511.9043 21.0 0
  515.5213 23.0 0
  516.27539 20.0 0
  518.48584 26.0 0
  520.89996 50.0 1
  521.25226 21.0 0
  522.93292 20.0 0
  528.08167 25.0 0
  529.47498 27.0 0
  536.47296 29.0 0
  538.0163 17.0 0
  541.75714 21.0 0
  543.6886 24.0 0
  544.5033 21.0 0
  544.67694 27.0 0
  545.45947 23.0 0
  547.34015 27.0 0
  547.83533 42.0 1
  556.76532 20.0 0
  556.83081 17.0 0
  561.19196 40.0 1
  562.85327 22.0 0
  564.80774 18.0 0
  567.73169 25.0 0
  570.33533 20.0 0
  570.45239 25.0 0
  572.95746 42.0 1
  576.32971 20.0 0
  578.25922 19.0 0
  578.81696 32.0 0
  586.27277 27.0 0
  590.1239 27.0 0
  594.32855 25.0 0
  596.98407 33.0 0
  601.18042 17.0 0
  606.01855 28.0 0
  606.59113 52.0 1
  613.62909 20.0 0
  615.07166 20.0 0
  615.64453 24.0 0
  616.02856 20.0 0
  618.00604 20.0 0
  620.20172 33.0 0
  622.18176 19.0 0
  633.74506 25.0 0
  636.23334 27.0 0
  644.36926 19.0 0
  658.10773 20.0 0
  663.66791 17.0 0
  664.32709 24.0 0
  666.53339 17.0 0
  667.07336 22.0 0
  675.16418 24.0 0
  683.56696 39.0 0
  688.57306 33.0 0
  697.02393 33.0 0
  706.39264 24.0 0
  706.45654 27.0 0
  706.67859 47.0 1
  709.66199 18.0 0
  712.20667 25.0 0
  720.30389 17.0 0
  722.43292 20.0 0
  722.50061 18.0 0
  723.4541 22.0 0
  727.5047 22.0 0
  734.57635 23.0 0
  735.31885 17.0 0
  737.38837 27.0 0
  738.43628 28.0 0
  741.11041 18.0 0
  744.17902 31.0 0
  752.86469 24.0 0
  762.84418 27.0 0
  784.47681 23.0 0
  785.19855 55.0 1
  802.00793 19.0 0
  806.22607 17.0 0
  827.71967 17.0 0
  851.513 22.0 0
  851.81744 17.0 0
  852.24182 18.0 0
  852.75342 48.0 1
  852.95264 21.0 0
  853.08423 17.0 0
  854.83008 17.0 0
  860.59674 18.0 0
  862.7558 18.0 0
  863.24011 18.0 0
  864.37518 19.0 0
  865.92212 19.0 0
  866.11481 17.0 0
  866.18524 18.0 0
  866.37524 32.0 0
  866.49408 18.0 0
  866.53571 20.0 0
  866.69421 42.0 1
  867.04834 17.0 0
  867.45227 54.0 1
  867.49188 135.0 2
  867.66711 37.0 0
  867.7113 17.0 0
  867.84973 17.0 0
  868.00952 24.0 0
  868.05499 17.0 0
  868.09094 17.0 0
  868.25189 96.0 1
  868.29028 59.0 1
  868.34546 262.0 3
  868.37518 427.0 5
  868.41248 1061.0 13
  868.50275 79910.0 999
  868.59149 1054.0 13
  868.67615 150.0 2
//
