ACCESSION: MSBNK-RIKEN-PR100386
RECORD_TITLE: DL-5-Hydroxylysine; LC-ESI-QTOF; MS2; CE:Ramp 5-60 V; [M+H]+
DATE: 2016.01.19 (Created 2009.09.10, modified 2011.05.06)
AUTHORS: Matsuda F, Suzuki M, Sawada Y, Plant Science Center, RIKEN.
LICENSE: CC BY-SA
COMMENT: Acquisition and generation of the data is financially supported in part by CREST/JST.
CH$NAME: DL-5-Hydroxylysine
CH$NAME: 5-Hydroxy-Lys
CH$NAME: 2,6-Diamino-5-hydroxycaproic acid
CH$NAME: 2,6-Diamino-5-hydroxyhexanoic acid
CH$COMPOUND_CLASS: Amino acids
CH$FORMULA: C6H14N2O3
CH$EXACT_MASS: 162.10044
CH$SMILES: NCC(O)CCC(N)C(O)=O
CH$IUPAC: InChI=1S/C6H14N2O3/c7-3-4(9)1-2-5(8)6(10)11/h4-5,9H,1-3,7-8H2,(H,10,11)
CH$LINK: CAS 1190-94-9
CH$LINK: CHEMSPIDER 1002
CH$LINK: PUBCHEM CID:1029
CH$LINK: INCHIKEY YSMODUONRAFBET-UHFFFAOYSA-N
AC$INSTRUMENT: UPLC Q-Tof Premier, Waters
AC$INSTRUMENT_TYPE: LC-ESI-QTOF
AC$MASS_SPECTROMETRY: MS_TYPE MS2
AC$MASS_SPECTROMETRY: ION_MODE POSITIVE
AC$MASS_SPECTROMETRY: COLLISION_ENERGY Ramp 5-60 V
AC$MASS_SPECTROMETRY: DATAFORMAT Continuum
AC$MASS_SPECTROMETRY: DATE 2008.07.28
AC$MASS_SPECTROMETRY: DESOLVATION_GAS_FLOW 600.0 L/Hr
AC$MASS_SPECTROMETRY: DESOLVATION_TEMPERATURE 420 C
AC$MASS_SPECTROMETRY: FRAGMENTATION_METHOD LOW-ENERGY CID
AC$MASS_SPECTROMETRY: IONIZATION ESI
AC$MASS_SPECTROMETRY: SCANNING 1.0 sec/scan (m/z = 50-1000)
AC$MASS_SPECTROMETRY: SOURCE_TEMPERATURE 120 C
AC$CHROMATOGRAPHY: CAPILLARY_VOLTAGE 3.0 kV
AC$CHROMATOGRAPHY: SAMPLING_CONE 23.0 V
AC$CHROMATOGRAPHY: SOLVENT A CH3CN(0.1%HCOOH)
AC$CHROMATOGRAPHY: SOLVENT B H2O(0.1%HCOOH)
MS$FOCUSED_ION: PRECURSOR_M/Z 163.10824
MS$FOCUSED_ION: PRECURSOR_TYPE [M+H]+
PK$SPLASH: splash10-0059-3900000000-d98bde49828ad017a37f
PK$NUM_PEAK: 9
PK$PEAK: m/z int. rel.int.
  74.0246 48.74 141
  82.0658 273.4 793
  100.0762 116.5 338
  128.0711 344.4 999
  133.0522 68.81 200
  145.0987 79.63 231
  149.0453 45.71 133
  163.0630 43.05 125
  163.1082 61.7 179
//
