ACCESSION: MSBNK-RIKEN-PR303374
RECORD_TITLE: NP-000002(10); LC-ESI-QTOF; MS2
DATE: 2019.03.28
AUTHORS: Tetsuya Mori, Center for Sustainable Resource Science, RIKEN
LICENSE: CC BY-NC-SA
PUBLICATION: Tsugawa H., Nakabayashi R., Mori T., Yamada Y., Takahashi M., Rai A., Sugiyama R., Yamamoto H., Nakaya T., Yamazaki M., Kooke R., Bac-Molenaar JA., Oztolan-Erol N., Keurentjes JJB., Arita M., Saito K. (2019) "A cheminformatics approach to characterize metabolomes in stable-isotope-labeled organisms" Nature Methods 16(4):295-298. [doi:10.1038/s41592-019-0358-2]
COMMENT: registered in RIKEN PlaSMA
CH$NAME: NP-000002(10)
CH$COMPOUND_CLASS: Flavonoid 8-C-glycosides
CH$FORMULA: C27H30O15
CH$EXACT_MASS: 594.522
CH$SMILES: OCC1OC(C(O)C(O)C1O)C1=C(O)C(C2OC(CO)C(O)C(O)C2O)=C2OC(=CC(=O)C2=C1O)C1=CC=C(O)C=C1
CH$IUPAC: InChI=1S/C27H30O15/c28-6-12-17(32)21(36)23(38)26(41-12)15-19(34)14-10(31)5-11(8-1-3-9(30)4-2-8)40-25(14)16(20(15)35)27-24(39)22(37)18(33)13(7-29)42-27/h1-5,12-13,17-18,21-24,26-30,32-39H,6-7H2
CH$LINK: INCHIKEY FIAAVMJLAGNUKW-UHFFFAOYSA-N
AC$INSTRUMENT: LC, Waters Acquity UPLC System; MS, Waters Xevo G2 Q-Tof
AC$INSTRUMENT_TYPE: LC-ESI-QTOF
AC$MASS_SPECTROMETRY: MS_TYPE MS2
AC$MASS_SPECTROMETRY: ION_MODE POSITIVE
AC$MASS_SPECTROMETRY: COLLISION_ENERGY 6V
AC$MASS_SPECTROMETRY: DESOLVATION_GAS_FLOW 800/h
AC$MASS_SPECTROMETRY: DESOLVATION_TEMPERATURE 450 C
AC$MASS_SPECTROMETRY: IONIZATION ESI
AC$CHROMATOGRAPHY: CAPILLARY_VOLTAGE +3.00 kV
AC$CHROMATOGRAPHY: COLUMN_NAME Acquity bridged ethyl hybrid C18 (1.7 um, 2.1 mm * 100 mm, Waters)
AC$CHROMATOGRAPHY: COLUMN_TEMPERATURE 40 C
AC$CHROMATOGRAPHY: FLOW_GRADIENT A/B = (99.5%/0.5% at 0 min, 99.5%/0.5% at 0.1 min, 20%/80% at 10 min, 0.5%/99.5% at 10.1 min, 0.5%/99.5% at 12.0 min, 99.5%/0.5% at 12.1 min, 99.5%/0.5% at 15.0 min)
AC$CHROMATOGRAPHY: FLOW_RATE 0.3 ml/min at 0 min, 0.3 ml/min at 10 min, 0.4 ml/min at 10.1 min, 0.4 ml/min at 14.4 min, 0.3 ml/min at 14.5 min
AC$CHROMATOGRAPHY: RETENTION_TIME 3.302967
AC$CHROMATOGRAPHY: SOLVENT A water including 0.1% formic acid
AC$CHROMATOGRAPHY: SOLVENT B acetonitrile including 0.1% formic acid
MS$FOCUSED_ION: PRECURSOR_TYPE [M+H]+
MS$FOCUSED_ION: PRECURSOR_M/Z 595.1657467
PK$SPLASH: splash10-054k-0149000000-c59a633dbee30b08560c
PK$NUM_PEAK: 249
PK$PEAK: m/z int. rel.int.
  66.55448 17.0 17
  66.60162 18.0 18
  85.02498 16.0 16
  93.03477 17.0 17
  93.06893 52.0 52
  107.04794 38.0 38
  109.02467 64.0 64
  119.0543 19.0 19
  121.02705 99.0 99
  121.03305 55.0 55
  138.42368 19.0 19
  145.03499 17.0 17
  147.04114 25.0 25
  148.04607 27.0 27
  172.052 22.0 22
  173.02797 69.0 69
  173.06029 27.0 27
  177.00999 22.0 22
  177.01831 25.0 25
  177.02846 20.0 20
  179.03572 20.0 20
  185.02548 24.0 24
  186.04503 31.0 31
  187.0426 32.0 32
  189.0148 94.0 94
  190.017 23.0 23
  191.01672 28.0 28
  191.03468 52.0 52
  191.0705 21.0 21
  195.04291 26.0 26
  195.30495 18.0 18
  201.00835 36.0 36
  201.05757 32.0 32
  203.0264 29.0 29
  203.06453 16.0 16
  205.07576 33.0 33
  211.04318 19.0 19
  213.05009 31.0 31
  215.0327 69.0 69
  219.03317 137.0 137
  225.05431 39.0 39
  227.07364 22.0 22
  229.04573 46.0 46
  230.05049 23.0 23
  233.04385 27.0 27
  237.06291 22.0 22
  239.03891 44.0 44
  243.03085 67.0 67
  243.07062 17.0 17
  245.04065 37.0 37
  247.07129 35.0 35
  255.03014 64.0 64
  256.0274 25.0 25
  256.06485 19.0 19
  257.04358 37.0 37
  258.04846 19.0 19
  260.04422 19.0 19
  263.06412 27.0 27
  263.07431 25.0 25
  267.06512 19.0 19
  267.07822 16.0 16
  268.07214 41.0 41
  269.04123 18.0 18
  269.0517 22.0 22
  271.05234 22.0 22
  273.047 26.0 26
  273.05698 21.0 21
  273.10007 32.0 32
  279.07352 41.0 41
  280.48383 17.0 17
  281.05246 45.0 45
  281.07858 112.0 112
  281.09503 21.0 21
  282.08673 56.0 56
  283.03043 22.0 22
  283.05942 85.0 85
  283.07993 25.0 25
  284.03922 20.0 20
  284.06177 19.0 19
  285.03323 20.0 20
  285.05429 21.0 21
  287.07687 36.0 36
  289.04688 17.0 17
  290.05414 16.0 16
  291.04691 40.0 40
  291.90146 17.0 17
  292.05939 24.0 24
  292.07697 29.0 29
  292.66321 16.0 16
  293.04242 17.0 17
  293.07904 20.0 20
  293.97739 26.0 26
  294.03339 66.0 66
  294.04538 125.0 125
  294.05563 144.0 144
  295.03876 96.0 96
  295.06287 1000.0 999
  295.1084 27.0 27
  296.03513 23.0 23
  296.0621 268.0 268
  296.08267 48.0 48
  296.10736 26.0 26
  297.07211 123.0 123
  297.08728 56.0 56
  298.08984 24.0 24
  298.99274 23.0 23
  299.05472 18.0 18
  300.09698 29.0 29
  303.06345 54.0 54
  304.07602 44.0 44
  305.08215 30.0 30
  305.75858 18.0 18
  306.57565 17.0 17
  307.05969 466.0 466
  307.09433 24.0 24
  308.00223 25.0 25
  308.06537 297.0 297
  308.87189 22.0 22
  309.03168 24.0 24
  309.04465 16.0 16
  309.06937 40.0 40
  309.07797 128.0 128
  309.7496 19.0 19
  310.07224 44.0 44
  310.09616 20.0 20
  310.34821 16.0 16
  311.0528 33.0 33
  311.06287 25.0 25
  313.07043 45.0 45
  313.0799 54.0 54
  314.07928 19.0 19
  314.26697 17.0 17
  317.07861 32.0 32
  319.09656 21.0 21
  319.11383 26.0 26
  320.05136 33.0 33
  320.0676 56.0 56
  320.07709 63.0 63
  321.07144 359.0 359
  321.09512 107.0 107
  322.05887 39.0 39
  322.07462 147.0 147
  322.08932 100.0 100
  322.10239 51.0 51
  323.07516 98.0 98
  323.09976 36.0 36
  324.81406 20.0 20
  325.07001 755.0 754
  325.10269 48.0 48
  326.07507 68.0 68
  327.06158 34.0 34
  327.08719 34.0 34
  329.06964 58.0 58
  329.09103 43.0 43
  329.67642 33.0 33
  331.08496 48.0 48
  332.05124 22.0 22
  333.04416 17.0 17
  333.05746 25.0 25
  333.0741 121.0 121
  333.09033 49.0 49
  334.07129 49.0 49
  335.07236 22.0 22
  335.09137 135.0 135
  335.10455 32.0 32
  336.06177 121.0 121
  336.09518 94.0 94
  337.0145 24.0 24
  337.0383 19.0 19
  337.07001 307.0 307
  337.10779 16.0 16
  338.07761 101.0 101
  339.11618 23.0 23
  340.0769 41.0 41
  345.06885 51.0 51
  345.08188 16.0 16
  346.08615 21.0 21
  347.08398 18.0 18
  347.10269 70.0 70
  348.06653 86.0 86
  348.09094 49.0 49
  348.10635 22.0 22
  349.06467 253.0 253
  350.04459 26.0 26
  350.06882 52.0 52
  350.08853 23.0 23
  351.07874 203.0 203
  351.09717 54.0 54
  352.08444 79.0 79
  353.06805 23.0 23
  353.09128 23.0 23
  353.1026 27.0 27
  355.08929 19.0 19
  356.05753 16.0 16
  356.87122 21.0 21
  358.10345 25.0 25
  359.08896 29.0 29
  360.06213 21.0 21
  361.05203 16.0 16
  361.07474 76.0 76
  361.09454 16.0 16
  362.10672 19.0 19
  363.0744 71.0 71
  363.08502 19.0 19
  364.09863 18.0 18
  365.1004 129.0 129
  367.05103 27.0 27
  367.07001 24.0 24
  367.79529 17.0 17
  368.06882 21.0 21
  369.10184 25.0 25
  371.09259 59.0 59
  372.54483 20.0 20
  373.07156 122.0 122
  373.0947 22.0 22
  374.07565 22.0 22
  374.09821 24.0 24
  375.03973 24.0 24
  375.08456 151.0 151
  375.11957 25.0 25
  376.08508 24.0 24
  379.0769 43.0 43
  379.08722 52.0 52
  385.07886 19.0 19
  385.10645 16.0 16
  387.08194 38.0 38
  388.09195 18.0 18
  391.04489 17.0 17
  391.07388 47.0 47
  391.09711 65.0 65
  401.10318 17.0 17
  401.11887 18.0 18
  401.49573 21.0 21
  403.0773 125.0 125
  403.09433 29.0 29
  403.13742 20.0 20
  404.07477 68.0 68
  404.08771 33.0 33
  407.07193 28.0 28
  412.83621 22.0 22
  415.06339 17.0 17
  416.07471 19.0 19
  417.10736 19.0 19
  421.08716 19.0 19
  423.08307 17.0 17
  427.07788 51.0 51
  429.08994 49.0 49
  431.13361 42.0 42
  446.09296 22.0 22
//
