ACCESSION: MSBNK-RIKEN-PR300113
RECORD_TITLE: Mitraphylline; LC-ESI-QTOF; MS2
DATE: 2019.03.28
AUTHORS: Tetsuya Mori, Center for Sustainable Resource Science, RIKEN
LICENSE: CC BY-NC-SA
PUBLICATION: Tsugawa H., Nakabayashi R., Mori T., Yamada Y., Takahashi M., Rai A., Sugiyama R., Yamamoto H., Nakaya T., Yamazaki M., Kooke R., Bac-Molenaar JA., Oztolan-Erol N., Keurentjes JJB., Arita M., Saito K. (2019) "A cheminformatics approach to characterize metabolomes in stable-isotope-labeled organisms" Nature Methods 16(4):295-298. [doi:10.1038/s41592-019-0358-2]
COMMENT: registered in RIKEN PlaSMA
CH$NAME: Mitraphylline
CH$COMPOUND_CLASS: Indolizidines
CH$FORMULA: C21H24N2O4
CH$EXACT_MASS: 368.433
CH$SMILES: COC(=O)C1=CO[C@@H](C)[C@H]2CN3CC[C@@]4([C@@H]3C[C@H]12)C(O)=NC1=CC=CC=C41
CH$IUPAC: InChI=1S/C21H24N2O4/c1-12-14-10-23-8-7-21(16-5-3-4-6-17(16)22-20(21)25)18(23)9-13(14)15(11-27-12)19(24)26-2/h3-6,11-14,18H,7-10H2,1-2H3,(H,22,25)/t12-,13-,14+,18-,21+/m0/s1
CH$LINK: INCHIKEY JMIAZDVHNCCPDM-DAFCLMLCSA-N
AC$INSTRUMENT: LC, Waters Acquity UPLC System; MS, Waters Xevo G2 Q-Tof
AC$INSTRUMENT_TYPE: LC-ESI-QTOF
AC$MASS_SPECTROMETRY: MS_TYPE MS2
AC$MASS_SPECTROMETRY: ION_MODE POSITIVE
AC$MASS_SPECTROMETRY: COLLISION_ENERGY 6V
AC$MASS_SPECTROMETRY: DESOLVATION_GAS_FLOW 800/h
AC$MASS_SPECTROMETRY: DESOLVATION_TEMPERATURE 450 C
AC$MASS_SPECTROMETRY: IONIZATION ESI
AC$CHROMATOGRAPHY: CAPILLARY_VOLTAGE +3.00 kV
AC$CHROMATOGRAPHY: COLUMN_NAME Acquity bridged ethyl hybrid C18 (1.7 um, 2.1 mm * 100 mm, Waters)
AC$CHROMATOGRAPHY: COLUMN_TEMPERATURE 40 C
AC$CHROMATOGRAPHY: FLOW_GRADIENT A/B = (99.5%/0.5% at 0 min, 99.5%/0.5% at 0.1 min, 20%/80% at 10 min, 0.5%/99.5% at 10.1 min, 0.5%/99.5% at 12.0 min, 99.5%/0.5% at 12.1 min, 99.5%/0.5% at 15.0 min)
AC$CHROMATOGRAPHY: FLOW_RATE 0.3 ml/min at 0 min, 0.3 ml/min at 10 min, 0.4 ml/min at 10.1 min, 0.4 ml/min at 14.4 min, 0.3 ml/min at 14.5 min
AC$CHROMATOGRAPHY: RETENTION_TIME 4.36865
AC$CHROMATOGRAPHY: SOLVENT A water including 0.1% formic acid
AC$CHROMATOGRAPHY: SOLVENT B acetonitrile including 0.1% formic acid
MS$FOCUSED_ION: PRECURSOR_TYPE [M+H]+
MS$FOCUSED_ION: PRECURSOR_M/Z 369.1808837
PK$SPLASH: splash10-03di-0912000000-637f3c984553819905b7
PK$NUM_PEAK: 44
PK$PEAK: m/z int. rel.int.
  81.07267 5.0 5
  108.08084 32.0 32
  115.05415 7.0 7
  118.06508 20.0 20
  124.03919 33.0 33
  132.04514 21.0 21
  132.08075 82.0 82
  133.08163 6.0 6
  142.0658 88.0 88
  143.06889 11.0 11
  150.09242 37.0 37
  151.09552 6.0 6
  158.04916 5.0 5
  158.05952 30.0 30
  159.06174 6.0 6
  160.04095 7.0 7
  160.07576 1000.0 999
  160.11169 39.0 39
  160.30379 5.0 5
  161.07791 130.0 130
  178.08629 180.0 180
  179.08859 26.0 26
  187.08702 35.0 35
  199.08745 6.0 6
  201.10223 106.0 106
  202.10542 17.0 17
  210.11331 52.0 52
  213.09836 5.0 5
  239.11823 8.0 8
  241.133 30.0 30
  242.13638 6.0 6
  265.0929 6.0 6
  265.13583 7.0 7
  267.14835 23.0 23
  268.15192 6.0 6
  281.16562 13.0 13
  291.15051 10.0 10
  309.16074 138.0 138
  310.15656 18.0 18
  310.1666 23.0 23
  337.15555 103.0 103
  338.15948 23.0 23
  367.16519 11.0 11
  369.1803 93.0 93
//
