ACCESSION: MSBNK-RIKEN-PR304030
RECORD_TITLE: Schisandrin; LC-ESI-QTOF; MS2
DATE: 2019.03.28
AUTHORS: Tetsuya Mori, Center for Sustainable Resource Science, RIKEN
LICENSE: CC BY-NC-SA
PUBLICATION: Tsugawa H., Nakabayashi R., Mori T., Yamada Y., Takahashi M., Rai A., Sugiyama R., Yamamoto H., Nakaya T., Yamazaki M., Kooke R., Bac-Molenaar JA., Oztolan-Erol N., Keurentjes JJB., Arita M., Saito K. (2019) "A cheminformatics approach to characterize metabolomes in stable-isotope-labeled organisms" Nature Methods 16(4):295-298. [doi:10.1038/s41592-019-0358-2]
COMMENT: registered in RIKEN PlaSMA
CH$NAME: Schisandrin
CH$COMPOUND_CLASS: Hydrolyzable tannins
CH$FORMULA: C24H32O7
CH$EXACT_MASS: 432.513
CH$SMILES: COC1=C(OC)C(OC)=C2C(CC(C)C(C)(O)CC3=CC(OC)=C(OC)C(OC)=C23)=C1
CH$IUPAC: InChI=1S/C24H32O7/c1-13-9-14-10-16(26-3)20(28-5)22(30-7)18(14)19-15(12-24(13,2)25)11-17(27-4)21(29-6)23(19)31-8/h10-11,13,25H,9,12H2,1-8H3
CH$LINK: INCHIKEY YEFOAORQXAOVJQ-UHFFFAOYSA-N
AC$INSTRUMENT: LC, Waters Acquity UPLC System; MS, Waters Xevo G2 Q-Tof
AC$INSTRUMENT_TYPE: LC-ESI-QTOF
AC$MASS_SPECTROMETRY: MS_TYPE MS2
AC$MASS_SPECTROMETRY: ION_MODE POSITIVE
AC$MASS_SPECTROMETRY: COLLISION_ENERGY 6V
AC$MASS_SPECTROMETRY: DESOLVATION_GAS_FLOW 800/h
AC$MASS_SPECTROMETRY: DESOLVATION_TEMPERATURE 450 C
AC$MASS_SPECTROMETRY: IONIZATION ESI
AC$CHROMATOGRAPHY: CAPILLARY_VOLTAGE +3.00 kV
AC$CHROMATOGRAPHY: COLUMN_NAME Acquity bridged ethyl hybrid C18 (1.7 um, 2.1 mm * 100 mm, Waters)
AC$CHROMATOGRAPHY: COLUMN_TEMPERATURE 40 C
AC$CHROMATOGRAPHY: FLOW_GRADIENT A/B = (99.5%/0.5% at 0 min, 99.5%/0.5% at 0.1 min, 20%/80% at 10 min, 0.5%/99.5% at 10.1 min, 0.5%/99.5% at 12.0 min, 99.5%/0.5% at 12.1 min, 99.5%/0.5% at 15.0 min)
AC$CHROMATOGRAPHY: FLOW_RATE 0.3 ml/min at 0 min, 0.3 ml/min at 10 min, 0.4 ml/min at 10.1 min, 0.4 ml/min at 14.4 min, 0.3 ml/min at 14.5 min
AC$CHROMATOGRAPHY: RETENTION_TIME 7.655766
AC$CHROMATOGRAPHY: SOLVENT A water including 0.1% formic acid
AC$CHROMATOGRAPHY: SOLVENT B acetonitrile including 0.1% formic acid
MS$FOCUSED_ION: PRECURSOR_TYPE [M+H]+
MS$FOCUSED_ION: PRECURSOR_M/Z 433.2220798
PK$SPLASH: splash10-0ab9-0092000000-582b9c4870df01523099
PK$NUM_PEAK: 332
PK$PEAK: m/z int. rel.int.
  85.0265 63.0 63
  115.05447 67.0 67
  122.06567 98.0 98
  130.08089 67.0 67
  139.07556 79.0 79
  145.06068 79.0 79
  148.05621 91.0 91
  153.07083 79.0 79
  158.67216 79.0 79
  160.05305 63.0 63
  161.38503 79.0 79
  165.05688 63.0 63
  167.06335 75.0 75
  169.0717 150.0 150
  171.32794 138.0 138
  173.09454 67.0 67
  180.08072 150.0 150
  181.0609 83.0 83
  182.07918 63.0 63
  183.02472 63.0 63
  183.08195 71.0 71
  184.04758 75.0 75
  184.08366 63.0 63
  185.05682 67.0 67
  190.07303 67.0 67
  191.06903 87.0 87
  195.07063 67.0 67
  197.05974 228.0 228
  197.07353 75.0 75
  197.08823 63.0 63
  197.80135 67.0 67
  198.06592 63.0 63
  199.07167 165.0 165
  199.07965 244.0 244
  200.06961 63.0 63
  200.09013 94.0 94
  201.09283 83.0 83
  202.06024 67.0 67
  202.10228 79.0 79
  203.08525 63.0 63
  204.07243 91.0 91
  205.08221 75.0 75
  205.09355 67.0 67
  209.06024 63.0 63
  209.07191 67.0 67
  209.10048 240.0 240
  210.1385 71.0 71
  211.07181 165.0 165
  211.08873 67.0 67
  212.05017 126.0 126
  212.0741 67.0 67
  212.08279 138.0 138
  212.08881 63.0 63
  213.04369 67.0 67
  213.05276 169.0 169
  213.07407 114.0 114
  213.08339 205.0 205
  213.09761 126.0 126
  214.01836 63.0 63
  214.05453 63.0 63
  214.10011 71.0 71
  215.03169 63.0 63
  215.06142 63.0 63
  215.07678 87.0 87
  217.07985 154.0 154
  218.0638 130.0 130
  218.0746 102.0 102
  218.11212 75.0 75
  221.06859 63.0 63
  221.99847 71.0 71
  222.10725 75.0 75
  223.08144 71.0 71
  223.11789 67.0 67
  224.08185 201.0 201
  224.09334 75.0 75
  224.47705 63.0 63
  225.00871 71.0 71
  225.03532 98.0 98
  225.04774 63.0 63
  225.06013 67.0 67
  225.09077 63.0 63
  226.05978 106.0 106
  226.08887 276.0 276
  227.06589 63.0 63
  227.07863 63.0 63
  227.09073 63.0 63
  227.10016 75.0 75
  228.0807 272.0 272
  229.07803 79.0 79
  230.05627 134.0 134
  232.55688 67.0 67
  233.05928 67.0 67
  233.09666 102.0 102
  234.06783 138.0 138
  234.09682 71.0 71
  235.07877 63.0 63
  236.12801 67.0 67
  237.07825 67.0 67
  237.091 63.0 63
  237.1812 98.0 98
  238.07011 98.0 98
  238.08145 67.0 67
  239.0652 71.0 71
  239.10545 87.0 87
  239.61819 63.0 63
  240.06819 63.0 63
  240.08113 126.0 126
  240.09138 71.0 71
  241.01424 63.0 63
  241.05046 220.0 220
  241.05812 83.0 83
  241.07135 63.0 63
  241.09035 516.0 515
  241.11241 75.0 75
  242.05711 63.0 63
  242.09203 480.0 480
  242.245 75.0 75
  243.07056 63.0 63
  243.08966 79.0 79
  243.09962 67.0 67
  244.11339 94.0 94
  245.07214 63.0 63
  245.08838 217.0 217
  247.09743 67.0 67
  247.11188 130.0 130
  249.0992 63.0 63
  249.12263 71.0 71
  250.0787 193.0 193
  250.10132 126.0 126
  251.08226 91.0 91
  251.11134 272.0 272
  252.07416 154.0 154
  252.09721 94.0 94
  252.11179 63.0 63
  252.63423 71.0 71
  253.07314 177.0 177
  253.08807 291.0 291
  254.04742 197.0 197
  254.06291 220.0 220
  254.08781 102.0 102
  254.09755 67.0 67
  255.0722 150.0 150
  255.09583 205.0 205
  255.10178 508.0 507
  256.07104 118.0 118
  256.08844 154.0 154
  256.10535 134.0 134
  256.11743 67.0 67
  257.06131 75.0 75
  257.0791 1000.0 999
  257.09421 185.0 185
  257.13528 79.0 79
  257.15353 67.0 67
  257.65652 83.0 83
  258.06796 79.0 79
  258.09195 512.0 511
  259.71268 83.0 83
  260.17108 83.0 83
  261.09937 130.0 130
  262.08569 63.0 63
  262.10141 224.0 224
  262.17804 91.0 91
  263.06494 83.0 83
  263.07394 63.0 63
  263.10748 209.0 209
  264.09485 67.0 67
  264.11472 260.0 260
  264.13382 75.0 75
  265.07425 276.0 276
  265.09268 79.0 79
  265.11288 79.0 79
  265.12927 94.0 94
  266.10275 67.0 67
  266.1297 157.0 157
  267.06494 63.0 63
  267.09378 118.0 118
  267.1069 189.0 189
  267.1452 63.0 63
  267.15875 63.0 63
  268.06274 63.0 63
  268.07355 197.0 197
  268.10336 339.0 339
  268.11838 134.0 134
  269.04517 75.0 75
  269.06549 291.0 291
  269.07959 374.0 374
  269.1051 157.0 157
  269.11749 142.0 142
  270.05984 122.0 122
  270.08185 587.0 586
  270.09033 232.0 232
  271.02591 63.0 63
  271.05255 150.0 150
  271.07617 75.0 75
  271.09689 366.0 366
  272.0578 63.0 63
  272.08423 181.0 181
  272.10428 240.0 240
  273.0784 402.0 402
  273.0939 67.0 67
  274.06955 75.0 75
  274.97845 114.0 114
  275.1105 67.0 67
  276.07935 114.0 114
  276.0957 63.0 63
  276.11633 79.0 79
  276.13647 126.0 126
  276.17395 67.0 67
  277.12482 291.0 291
  278.13925 256.0 256
  279.06854 67.0 67
  279.11652 94.0 94
  279.134 201.0 201
  280.11295 402.0 402
  281.07562 185.0 185
  281.12097 142.0 142
  282.03683 114.0 114
  282.06268 197.0 197
  282.09024 260.0 260
  283.05942 71.0 71
  283.08035 157.0 157
  283.09262 83.0 83
  283.11096 276.0 276
  283.13675 142.0 142
  284.0885 201.0 201
  284.10712 350.0 350
  284.12244 362.0 362
  285.02814 79.0 79
  285.03787 110.0 110
  285.07169 394.0 394
  285.08807 79.0 79
  285.10544 79.0 79
  286.04971 252.0 252
  286.11328 63.0 63
  287.09061 63.0 63
  287.12262 71.0 71
  288.0932 67.0 67
  289.05978 67.0 67
  289.12836 71.0 71
  290.1008 63.0 63
  290.12421 83.0 83
  291.08081 67.0 67
  291.09531 126.0 126
  291.12152 299.0 299
  292.10809 535.0 534
  292.12051 268.0 268
  293.09177 71.0 71
  293.10495 142.0 142
  293.12537 421.0 421
  294.116 63.0 63
  294.13007 248.0 248
  295.06592 130.0 130
  295.09644 142.0 142
  295.13519 543.0 542
  296.10492 142.0 142
  296.12637 63.0 63
  297.07315 181.0 181
  297.09222 71.0 71
  297.10635 63.0 63
  298.08746 63.0 63
  298.12985 130.0 130
  299.04501 83.0 83
  299.08923 83.0 83
  299.09879 63.0 63
  299.1283 134.0 134
  300.09607 331.0 331
  301.0878 67.0 67
  301.12277 79.0 79
  302.11108 130.0 130
  303.07758 150.0 150
  303.11642 224.0 224
  305.12482 87.0 87
  306.1077 79.0 79
  306.12183 276.0 276
  307.08075 161.0 161
  307.09708 650.0 649
  307.12955 323.0 323
  307.14145 421.0 421
  308.09814 63.0 63
  308.10791 71.0 71
  308.14374 205.0 205
  309.15497 197.0 197
  310.11472 134.0 134
  310.1355 134.0 134
  310.16 138.0 138
  311.10107 150.0 150
  311.11816 110.0 110
  312.0817 114.0 114
  313.10135 154.0 154
  313.11417 197.0 197
  314.07498 63.0 63
  314.11569 71.0 71
  314.12933 75.0 75
  315.10532 63.0 63
  315.11594 79.0 79
  315.55585 67.0 67
  316.0723 63.0 63
  316.09543 146.0 146
  316.12347 63.0 63
  320.10895 63.0 63
  321.07346 71.0 71
  321.15228 71.0 71
  322.15329 169.0 169
  322.17365 67.0 67
  323.06659 67.0 67
  323.08841 63.0 63
  323.12222 535.0 534
  323.13434 618.0 617
  323.16248 63.0 63
  324.11926 374.0 374
  325.10394 67.0 67
  325.11734 71.0 71
  328.14755 67.0 67
  329.14258 134.0 134
  330.13733 67.0 67
  336.1423 91.0 91
  338.1496 63.0 63
  339.12363 264.0 264
  339.1405 189.0 189
  341.12875 63.0 63
  341.1666 67.0 67
  342.10828 94.0 94
  343.16751 71.0 71
  344.18158 63.0 63
  345.13892 63.0 63
  353.14044 71.0 71
  354.14584 63.0 63
  355.11594 134.0 134
  358.79956 126.0 126
  366.19012 79.0 79
  369.17038 67.0 67
  370.16559 71.0 71
//
