ACCESSION: MSBNK-RIKEN-PR303318
RECORD_TITLE: NP-000062(6); LC-ESI-QTOF; MS2
DATE: 2019.03.28
AUTHORS: Tetsuya Mori, Center for Sustainable Resource Science, RIKEN
LICENSE: CC BY-NC-SA
PUBLICATION: Tsugawa H., Nakabayashi R., Mori T., Yamada Y., Takahashi M., Rai A., Sugiyama R., Yamamoto H., Nakaya T., Yamazaki M., Kooke R., Bac-Molenaar JA., Oztolan-Erol N., Keurentjes JJB., Arita M., Saito K. (2019) "A cheminformatics approach to characterize metabolomes in stable-isotope-labeled organisms" Nature Methods 16(4):295-298. [doi:10.1038/s41592-019-0358-2]
COMMENT: registered in RIKEN PlaSMA
CH$NAME: NP-000062(6)
CH$COMPOUND_CLASS: Flavonoid 8-C-glycosides
CH$FORMULA: C26H28O14
CH$EXACT_MASS: 564.496
CH$SMILES: OC[C@@H]1OC([C@H](O)[C@H]1O)C1=C(O)C(C2O[C@H](CO)[C@@H](O)[C@H](O)[C@H]2O)=C2OC(=CC(=O)C2=C1O)C1=CC=C(O)C=C1
CH$IUPAC: InChI=1S/C26H28O14/c27-6-12-17(31)21(35)23(37)26(40-12)16-20(34)15(25-22(36)18(32)13(7-28)39-25)19(33)14-10(30)5-11(38-24(14)16)8-1-3-9(29)4-2-8/h1-5,12-13,17-18,21-23,25-29,31-37H,6-7H2/t12-,13+,17-,18+,21+,22-,23-,25?,26?/m1/s1
CH$LINK: INCHIKEY DRLZZQRQMWQRLZ-FBMRRHFKSA-N
AC$INSTRUMENT: LC, Waters Acquity UPLC System; MS, Waters Xevo G2 Q-Tof
AC$INSTRUMENT_TYPE: LC-ESI-QTOF
AC$MASS_SPECTROMETRY: MS_TYPE MS2
AC$MASS_SPECTROMETRY: ION_MODE POSITIVE
AC$MASS_SPECTROMETRY: COLLISION_ENERGY 6V
AC$MASS_SPECTROMETRY: DESOLVATION_GAS_FLOW 800/h
AC$MASS_SPECTROMETRY: DESOLVATION_TEMPERATURE 450 C
AC$MASS_SPECTROMETRY: IONIZATION ESI
AC$CHROMATOGRAPHY: CAPILLARY_VOLTAGE +3.00 kV
AC$CHROMATOGRAPHY: COLUMN_NAME Acquity bridged ethyl hybrid C18 (1.7 um, 2.1 mm * 100 mm, Waters)
AC$CHROMATOGRAPHY: COLUMN_TEMPERATURE 40 C
AC$CHROMATOGRAPHY: FLOW_GRADIENT A/B = (99.5%/0.5% at 0 min, 99.5%/0.5% at 0.1 min, 20%/80% at 10 min, 0.5%/99.5% at 10.1 min, 0.5%/99.5% at 12.0 min, 99.5%/0.5% at 12.1 min, 99.5%/0.5% at 15.0 min)
AC$CHROMATOGRAPHY: FLOW_RATE 0.3 ml/min at 0 min, 0.3 ml/min at 10 min, 0.4 ml/min at 10.1 min, 0.4 ml/min at 14.4 min, 0.3 ml/min at 14.5 min
AC$CHROMATOGRAPHY: RETENTION_TIME 3.6386
AC$CHROMATOGRAPHY: SOLVENT A water including 0.1% formic acid
AC$CHROMATOGRAPHY: SOLVENT B acetonitrile including 0.1% formic acid
MS$FOCUSED_ION: PRECURSOR_TYPE [M+H]+
MS$FOCUSED_ION: PRECURSOR_M/Z 565.155182
PK$SPLASH: splash10-0092-0149000000-b1f4cd1a78fa16df412d
PK$NUM_PEAK: 408
PK$PEAK: m/z int. rel.int.
  55.01917 16.0 16
  69.03464 10.0 10
  86.03215 16.0 16
  93.03001 11.0 11
  108.05481 19.0 19
  109.02029 16.0 16
  109.02679 20.0 20
  119.05355 32.0 32
  120.05914 10.0 10
  121.02892 203.0 203
  122.02898 18.0 18
  122.03736 18.0 18
  125.03139 11.0 11
  126.36088 17.0 17
  128.06285 16.0 16
  133.05695 11.0 11
  135.64784 19.0 19
  145.02271 20.0 20
  145.03227 27.0 27
  145.06396 13.0 13
  147.04552 46.0 46
  149.02145 36.0 36
  150.02803 13.0 13
  154.21196 17.0 17
  161.02702 33.0 33
  161.06894 13.0 13
  163.04507 67.0 67
  165.02219 16.0 16
  171.04291 37.0 37
  173.01837 37.0 37
  174.02753 11.0 11
  175.03468 12.0 12
  176.009 14.0 14
  176.05687 11.0 11
  177.00623 42.0 42
  177.02055 57.0 57
  177.05447 27.0 27
  178.0107 18.0 18
  178.02509 11.0 11
  178.99832 11.0 11
  179.03766 16.0 16
  179.14944 17.0 17
  184.08601 16.0 16
  186.33807 9.0 9
  186.59789 14.0 14
  187.04964 27.0 27
  187.91676 12.0 12
  188.0864 11.0 11
  189.01515 201.0 201
  189.03221 36.0 36
  189.05077 23.0 23
  190.02815 35.0 35
  190.04179 17.0 17
  191.03328 58.0 58
  199.01701 28.0 28
  199.02766 11.0 11
  199.04521 68.0 68
  201.00487 11.0 11
  201.06453 11.0 11
  201.08679 10.0 10
  201.20291 12.0 12
  202.0199 31.0 31
  202.03178 18.0 18
  203.02777 14.0 14
  203.03587 18.0 18
  203.04547 13.0 13
  204.03505 62.0 62
  205.03651 46.0 46
  207.02988 16.0 16
  208.6613 9.0 9
  209.05098 25.0 25
  209.07545 9.0 9
  211.04466 11.0 11
  213.0191 15.0 15
  214.02478 15.0 15
  214.04686 14.0 14
  214.99808 13.0 13
  215.02625 73.0 73
  215.04156 56.0 56
  216.04475 13.0 13
  217.05003 27.0 27
  217.18454 12.0 12
  219.01042 18.0 18
  219.0334 31.0 31
  219.05737 11.0 11
  221.05249 10.0 10
  222.0677 13.0 13
  223.03693 16.0 16
  224.83585 11.0 11
  225.0553 48.0 48
  227.02481 17.0 17
  227.03424 12.0 12
  227.08163 21.0 21
  228.04918 25.0 25
  229.04021 9.0 9
  229.06183 10.0 10
  230.28365 18.0 18
  231.03069 27.0 27
  231.08235 13.0 13
  233.06334 11.0 11
  234.08437 14.0 14
  236.04854 11.0 11
  236.0806 13.0 13
  236.31241 13.0 13
  236.72301 21.0 21
  237.02538 18.0 18
  237.04364 10.0 10
  238.06761 14.0 14
  239.02856 18.0 18
  240.0656 14.0 14
  241.02876 18.0 18
  241.04176 12.0 12
  242.99707 10.0 10
  243.02158 26.0 26
  243.03134 71.0 71
  243.05829 13.0 13
  245.03313 18.0 18
  246.36325 11.0 11
  247.45639 11.0 11
  249.06166 19.0 19
  250.18373 10.0 10
  251.02856 10.0 10
  251.06189 11.0 11
  251.08844 24.0 24
  251.97931 12.0 12
  252.07773 26.0 26
  252.08981 12.0 12
  253.04008 32.0 32
  255.02905 79.0 79
  255.05598 16.0 16
  256.02698 11.0 11
  257.01834 32.0 32
  258.02164 12.0 12
  258.05457 12.0 12
  260.06366 11.0 11
  260.08377 14.0 14
  260.09991 14.0 14
  261.05109 11.0 11
  262.99945 12.0 12
  263.07669 17.0 17
  265.02066 19.0 19
  265.0408 17.0 17
  265.07898 19.0 19
  266.03073 9.0 9
  266.06024 22.0 22
  267.03021 34.0 34
  267.043 21.0 21
  267.06598 38.0 38
  267.08817 13.0 13
  268.03391 24.0 24
  268.19461 16.0 16
  269.08957 20.0 20
  270.44461 14.0 14
  271.04666 9.0 9
  271.05942 18.0 18
  271.08398 15.0 15
  272.03552 16.0 16
  273.02475 9.0 9
  273.09216 15.0 15
  274.07434 16.0 16
  276.0701 10.0 10
  277.08813 18.0 18
  279.0239 12.0 12
  279.05185 23.0 23
  279.06512 45.0 45
  279.07721 29.0 29
  279.85953 17.0 17
  280.06097 11.0 11
  280.08463 20.0 20
  281.03564 12.0 12
  281.05862 28.0 28
  281.08563 80.0 80
  282.04672 12.0 12
  282.07626 24.0 24
  283.04077 20.0 20
  283.05215 37.0 37
  285.03918 12.0 12
  285.05359 14.0 14
  289.04413 11.0 11
  289.11356 17.0 17
  291.04694 16.0 16
  291.07758 13.0 13
  293.00784 23.0 23
  293.04767 30.0 30
  293.06042 16.0 16
  293.11343 11.0 11
  294.00894 16.0 16
  294.05063 311.0 311
  294.07016 72.0 72
  294.08899 14.0 14
  295.05862 1000.0 999
  295.09595 23.0 23
  295.71207 10.0 10
  296.04486 13.0 13
  296.06024 43.0 43
  296.07001 136.0 136
  296.08807 35.0 35
  297.04916 21.0 21
  297.0733 177.0 177
  297.09561 16.0 16
  298.07346 11.0 11
  298.09448 16.0 16
  299.02789 25.0 25
  299.09955 12.0 12
  302.09894 10.0 10
  303.05194 20.0 20
  305.08841 32.0 32
  305.40933 11.0 11
  306.05795 12.0 12
  306.08032 11.0 11
  306.80753 11.0 11
  307.01459 39.0 39
  307.04242 63.0 63
  307.05573 167.0 167
  307.06961 223.0 223
  307.09299 51.0 51
  307.32925 13.0 13
  308.03632 10.0 10
  308.05515 162.0 162
  308.06638 207.0 207
  308.09018 12.0 12
  308.2988 12.0 12
  309.01831 16.0 16
  309.02844 19.0 19
  309.04788 45.0 45
  309.07535 136.0 136
  309.09705 69.0 69
  310.03531 12.0 12
  310.05768 14.0 14
  310.0824 46.0 46
  311.05347 19.0 19
  311.10333 33.0 33
  312.06448 9.0 9
  313.04343 16.0 16
  313.07318 29.0 29
  313.72211 16.0 16
  314.05508 35.0 35
  316.91592 9.0 9
  317.07855 19.0 19
  317.0943 34.0 34
  317.10635 9.0 9
  317.51657 17.0 17
  318.08081 31.0 31
  318.84229 11.0 11
  319.04773 138.0 138
  319.07324 62.0 62
  320.04382 39.0 39
  320.05692 71.0 71
  320.08951 19.0 19
  320.36313 12.0 12
  321.07355 468.0 468
  321.08707 116.0 116
  321.41013 14.0 14
  322.03973 69.0 69
  322.07956 209.0 209
  322.10165 27.0 27
  323.01025 12.0 12
  323.04306 21.0 21
  323.06174 13.0 13
  323.08975 177.0 177
  324.06851 13.0 13
  324.11237 20.0 20
  325.04626 28.0 28
  325.06122 159.0 159
  325.07181 403.0 403
  325.08472 266.0 266
  326.02066 10.0 10
  326.05621 19.0 19
  326.0719 39.0 39
  326.09735 11.0 11
  327.06458 12.0 12
  327.09045 13.0 13
  329.08319 41.0 41
  331.03958 14.0 14
  331.07932 31.0 31
  331.0878 17.0 17
  332.08316 19.0 19
  333.0488 50.0 50
  333.08069 124.0 124
  334.06598 11.0 11
  334.08005 26.0 26
  334.09695 13.0 13
  335.05951 13.0 13
  335.07471 47.0 47
  335.08649 25.0 25
  335.10483 32.0 32
  336.07086 104.0 104
  336.09686 27.0 27
  337.04471 36.0 36
  337.06915 338.0 338
  337.10291 67.0 67
  338.05295 14.0 14
  338.06726 30.0 30
  338.08279 66.0 66
  339.06592 9.0 9
  339.08963 24.0 24
  341.0596 13.0 13
  342.10211 9.0 9
  343.0918 30.0 30
  344.06897 13.0 13
  345.05289 11.0 11
  345.07532 61.0 61
  345.09332 46.0 46
  346.06589 26.0 26
  346.09787 37.0 37
  347.0376 14.0 14
  347.05429 13.0 13
  347.08209 16.0 16
  347.09183 46.0 46
  347.1084 23.0 23
  348.0437 17.0 17
  348.10538 28.0 28
  348.11905 17.0 17
  349.04578 39.0 39
  349.07153 123.0 123
  349.08316 43.0 43
  349.11194 12.0 12
  350.04739 14.0 14
  350.07309 30.0 30
  350.108 28.0 28
  350.20151 11.0 11
  350.97626 10.0 10
  351.07956 166.0 166
  351.09509 254.0 254
  352.09457 56.0 56
  353.07727 9.0 9
  357.02951 11.0 11
  357.05109 25.0 25
  357.08057 18.0 18
  358.08566 31.0 31
  359.05685 10.0 10
  359.07886 16.0 16
  359.08954 16.0 16
  359.11249 23.0 23
  360.10907 21.0 21
  361.01553 14.0 14
  361.05731 94.0 94
  361.08829 33.0 33
  362.07599 70.0 70
  363.07172 12.0 12
  363.08829 90.0 90
  364.06229 11.0 11
  364.08636 15.0 15
  365.05615 30.0 30
  365.09369 66.0 66
  366.1105 20.0 20
  367.0719 52.0 52
  367.10574 12.0 12
  368.07471 9.0 9
  368.09821 16.0 16
  370.07974 13.0 13
  371.05441 20.0 20
  371.11526 11.0 11
  372.09018 14.0 14
  373.03561 13.0 13
  373.06183 22.0 22
  373.09921 23.0 23
  374.01193 14.0 14
  374.04807 13.0 13
  374.07513 36.0 36
  374.09064 29.0 29
  375.06693 33.0 33
  375.08484 125.0 125
  375.1102 16.0 16
  377.05649 12.0 12
  377.09555 58.0 58
  379.05731 39.0 39
  379.07516 95.0 95
  379.08936 32.0 32
  379.10828 26.0 26
  379.22842 11.0 11
  380.06985 99.0 99
  384.11789 14.0 14
  387.07684 16.0 16
  387.09506 16.0 16
  388.06317 11.0 11
  389.08533 25.0 25
  389.10229 9.0 9
  391.05096 12.0 12
  391.07333 43.0 43
  392.08255 11.0 11
  392.10001 12.0 12
  393.0784 31.0 31
  394.10254 13.0 13
  396.10941 21.0 21
  399.08331 22.0 22
  400.09808 24.0 24
  401.06653 17.0 17
  401.07791 14.0 14
  401.1033 10.0 10
  401.12115 32.0 32
  401.31378 12.0 12
  403.08002 48.0 48
  403.09827 17.0 17
  405.10983 15.0 15
  409.08148 11.0 11
  409.10236 11.0 11
  415.07373 39.0 39
  415.09827 16.0 16
  416.08731 24.0 24
  424.12134 14.0 14
  426.07532 14.0 14
  427.10196 38.0 38
  428.09039 23.0 23
  433.10306 28.0 28
  444.47202 9.0 9
  445.0928 24.0 24
  565.16003 35.0 35
//
