ACCESSION: MSBNK-RIKEN-PR310651
RECORD_TITLE: Mesaconitine; LC-ESI-QTOF; MS2
DATE: 2019.03.28
AUTHORS: Tetsuya Mori, Center for Sustainable Resource Science, RIKEN
LICENSE: CC BY-NC-SA
PUBLICATION: Tsugawa H., Nakabayashi R., Mori T., Yamada Y., Takahashi M., Rai A., Sugiyama R., Yamamoto H., Nakaya T., Yamazaki M., Kooke R., Bac-Molenaar JA., Oztolan-Erol N., Keurentjes JJB., Arita M., Saito K. (2019) "A cheminformatics approach to characterize metabolomes in stable-isotope-labeled organisms" Nature Methods 16(4):295-298. [doi:10.1038/s41592-019-0358-2]
COMMENT: Annotation level-1
CH$NAME: Mesaconitine
CH$COMPOUND_CLASS: Alkaloids
CH$FORMULA: C33H45NO11
CH$EXACT_MASS: 631.719
CH$SMILES: COCC12CN(C)C3C4C(OC)C1C3(C1CC3(O)C(OC(=O)C5=CC=CC=C5)C1C4(OC(C)=O)C(O)C3OC)C(CC2O)OC
CH$IUPAC: InChI=1S/C33H45NO11/c1-16(35)45-33-21-18(13-31(39,28(43-6)26(33)37)27(21)44-29(38)17-10-8-7-9-11-17)32-20(41-4)12-19(36)30(15-40-3)14-34(2)25(32)22(33)23(42-5)24(30)32/h7-11,18-28,36-37,39H,12-15H2,1-6H3
CH$LINK: INCHIKEY XUHJBXVYNBQQBD-UHFFFAOYSA-N
AC$INSTRUMENT: LC, Waters Acquity UPLC System; MS, Waters Xevo G2 Q-Tof
AC$INSTRUMENT_TYPE: LC-ESI-QTOF
AC$MASS_SPECTROMETRY: MS_TYPE MS2
AC$MASS_SPECTROMETRY: ION_MODE POSITIVE
AC$MASS_SPECTROMETRY: COLLISION_ENERGY 6V
AC$MASS_SPECTROMETRY: DESOLVATION_GAS_FLOW 800/h
AC$MASS_SPECTROMETRY: DESOLVATION_TEMPERATURE 450 C
AC$MASS_SPECTROMETRY: IONIZATION ESI
AC$CHROMATOGRAPHY: CAPILLARY_VOLTAGE +3.00 kV
AC$CHROMATOGRAPHY: COLUMN_NAME Acquity bridged ethyl hybrid C18 (1.7 um, 2.1 mm * 100 mm, Waters)
AC$CHROMATOGRAPHY: COLUMN_TEMPERATURE 40 C
AC$CHROMATOGRAPHY: FLOW_GRADIENT A/B = (99.5%/0.5% at 0 min, 99.5%/0.5% at 0.1 min, 20%/80% at 10 min, 0.5%/99.5% at 10.1 min, 0.5%/99.5% at 12.0 min, 99.5%/0.5% at 12.1 min, 99.5%/0.5% at 15.0 min)
AC$CHROMATOGRAPHY: FLOW_RATE 0.3 ml/min at 0 min, 0.3 ml/min at 10 min, 0.4 ml/min at 10.1 min, 0.4 ml/min at 14.4 min, 0.3 ml/min at 14.5 min
AC$CHROMATOGRAPHY: RETENTION_TIME 5.61
AC$CHROMATOGRAPHY: SOLVENT A water including 0.1% formic acid
AC$CHROMATOGRAPHY: SOLVENT B acetonitrile including 0.1% formic acid
MS$FOCUSED_ION: PRECURSOR_TYPE [M+H]+
MS$FOCUSED_ION: PRECURSOR_M/Z 632.30654
PK$SPLASH: splash10-001i-0000029000-051df0f8625c6cfdb98e
PK$NUM_PEAK: 839
PK$PEAK: m/z int. rel.int.
  75.04579 58.0 1
  85.02888 48.0 1
  88.07988 44.0 0
  91.04781 20.0 0
  97.09012 43.0 0
  103.20413 23.0 0
  105.00631 25.0 0
  105.03419 752.0 8
  106.03488 61.0 1
  108.49416 29.0 0
  109.06379 40.0 0
  109.0713 60.0 1
  111.06767 42.0 0
  111.07647 51.0 1
  111.08234 87.0 1
  115.04786 25.0 0
  115.07658 17.0 0
  121.07265 40.0 0
  126.08605 21.0 0
  128.06758 23.0 0
  128.11287 55.0 1
  129.0722 22.0 0
  131.06158 44.0 0
  134.59482 33.0 0
  137.0576 82.0 1
  137.0643 62.0 1
  137.08224 21.0 0
  138.08861 39.0 0
  141.09422 18.0 0
  143.08609 34.0 0
  148.08521 18.0 0
  150.04965 20.0 0
  150.08969 21.0 0
  151.07625 26.0 0
  152.00716 20.0 0
  152.07912 25.0 0
  155.08344 21.0 0
  156.09204 26.0 0
  157.06161 29.0 0
  158.09402 24.0 0
  159.10846 42.0 0
  159.18671 24.0 0
  160.07785 100.0 1
  160.5592 23.0 0
  161.09058 21.0 0
  161.48364 19.0 0
  161.53777 23.0 0
  162.09538 20.0 0
  162.26395 18.0 0
  163.05531 34.0 0
  163.44569 18.0 0
  164.10248 38.0 0
  165.05209 23.0 0
  165.05782 30.0 0
  166.07698 20.0 0
  167.08571 62.0 1
  169.0858 20.0 0
  170.10931 19.0 0
  171.09975 63.0 1
  172.1127 40.0 0
  174.0564 30.0 0
  175.56462 17.0 0
  176.05208 25.0 0
  176.07216 33.0 0
  176.10524 22.0 0
  176.11285 17.0 0
  177.11465 25.0 0
  178.12036 28.0 0
  179.0744 20.0 0
  181.10342 49.0 1
  181.1227 45.0 0
  181.7202 27.0 0
  182.10718 33.0 0
  183.07787 23.0 0
  185.05717 17.0 0
  185.11552 19.0 0
  186.06732 20.0 0
  186.10562 34.0 0
  186.11624 37.0 0
  187.07597 18.0 0
  188.06558 25.0 0
  188.07851 35.0 0
  188.10191 25.0 0
  189.07094 30.0 0
  189.08432 21.0 0
  189.09253 31.0 0
  189.12376 20.0 0
  189.14368 39.0 0
  190.11488 21.0 0
  191.03656 21.0 0
  192.09402 64.0 1
  193.1067 20.0 0
  194.11971 18.0 0
  195.09671 19.0 0
  195.11205 25.0 0
  197.05363 29.0 0
  197.06372 26.0 0
  199.08247 20.0 0
  200.47806 27.0 0
  202.08049 22.0 0
  202.11549 17.0 0
  202.1243 29.0 0
  203.12328 22.0 0
  204.12692 66.0 1
  204.13588 66.0 1
  205.08778 17.0 0
  205.10072 56.0 1
  205.26662 17.0 0
  206.10141 42.0 0
  208.07607 20.0 0
  209.08511 24.0 0
  209.11026 21.0 0
  209.12952 24.0 0
  209.13702 27.0 0
  211.10535 26.0 0
  211.11833 41.0 0
  212.10942 19.0 0
  213.09113 33.0 0
  214.0921 27.0 0
  215.07896 42.0 0
  215.09007 26.0 0
  217.09164 25.0 0
  217.11279 34.0 0
  218.0694 17.0 0
  218.10431 69.0 1
  219.12233 21.0 0
  220.09172 18.0 0
  220.11086 24.0 0
  220.74895 17.0 0
  221.09132 25.0 0
  221.09975 29.0 0
  221.12036 23.0 0
  222.09843 32.0 0
  222.12486 29.0 0
  222.1506 32.0 0
  223.10641 47.0 1
  223.16071 41.0 0
  226.1288 43.0 0
  227.08054 22.0 0
  229.10468 70.0 1
  230.37973 19.0 0
  231.07922 20.0 0
  231.09679 47.0 1
  232.09703 20.0 0
  233.08649 30.0 0
  233.09592 155.0 2
  234.10316 75.0 1
  234.12717 21.0 0
  234.97408 17.0 0
  235.10527 26.0 0
  235.11717 115.0 1
  236.09515 23.0 0
  236.12991 37.0 0
  236.16151 19.0 0
  236.28452 37.0 0
  238.09515 18.0 0
  238.12767 24.0 0
  238.13899 25.0 0
  239.11067 33.0 0
  239.13678 21.0 0
  239.84845 22.0 0
  241.09148 18.0 0
  245.09285 43.0 0
  245.1067 18.0 0
  248.08752 43.0 0
  248.11519 20.0 0
  248.15257 59.0 1
  249.08109 20.0 0
  249.09027 29.0 0
  249.12132 95.0 1
  249.14304 27.0 0
  250.09349 45.0 0
  250.12906 23.0 0
  251.10646 31.0 0
  251.1152 20.0 0
  252.11333 23.0 0
  252.1302 28.0 0
  253.02377 22.0 0
  253.11493 17.0 0
  253.12808 28.0 0
  253.29753 21.0 0
  253.38232 17.0 0
  253.81129 18.0 0
  254.15485 17.0 0
  254.68811 47.0 1
  255.07909 20.0 0
  255.17662 20.0 0
  257.07611 21.0 0
  257.10144 24.0 0
  258.13644 67.0 1
  259.09381 177.0 2
  259.13251 29.0 0
  259.34396 18.0 0
  261.08469 42.0 0
  261.09766 94.0 1
  261.1142 19.0 0
  262.09146 44.0 0
  262.10614 18.0 0
  263.09497 21.0 0
  263.10901 60.0 1
  263.11737 45.0 0
  263.40582 22.0 0
  265.10233 35.0 0
  265.12521 109.0 1
  266.1178 35.0 0
  266.1297 35.0 0
  266.14761 17.0 0
  267.11972 34.0 0
  267.13644 48.0 1
  268.04059 17.0 0
  270.08109 23.0 0
  270.10239 46.0 0
  271.10434 24.0 0
  273.08099 43.0 0
  273.09933 29.0 0
  273.11246 20.0 0
  274.1048 33.0 0
  275.10739 23.0 0
  275.11789 26.0 0
  275.13284 18.0 0
  277.08618 28.0 0
  277.10995 18.0 0
  277.13214 18.0 0
  277.14407 18.0 0
  278.1221 55.0 1
  279.10294 145.0 2
  279.14685 38.0 0
  280.11627 54.0 1
  281.07623 19.0 0
  281.11633 44.0 0
  281.14691 47.0 1
  282.66177 20.0 0
  283.12485 39.0 0
  283.452 29.0 0
  284.16177 26.0 0
  284.34045 23.0 0
  285.14566 23.0 0
  286.49835 23.0 0
  287.72263 20.0 0
  287.93768 20.0 0
  288.1347 23.0 0
  289.1124 43.0 0
  291.05695 21.0 0
  291.08899 23.0 0
  291.12131 33.0 0
  291.15485 17.0 0
  291.92477 25.0 0
  292.12637 22.0 0
  293.10995 91.0 1
  293.12054 97.0 1
  293.13269 20.0 0
  294.10046 20.0 0
  294.12149 51.0 1
  294.14886 58.0 1
  295.13812 59.0 1
  295.15924 25.0 0
  296.0954 51.0 1
  297.08734 24.0 0
  297.13477 17.0 0
  297.15131 46.0 0
  298.09509 17.0 0
  299.99969 18.0 0
  301.13766 29.0 0
  304.13898 151.0 2
  305.142 23.0 0
  305.61777 17.0 0
  307.12894 19.0 0
  307.15073 19.0 0
  308.13364 24.0 0
  308.15454 18.0 0
  308.18063 26.0 0
  309.10812 20.0 0
  309.17172 45.0 0
  309.53873 48.0 1
  310.13824 46.0 0
  310.16617 37.0 0
  310.38342 23.0 0
  311.12537 23.0 0
  311.14056 17.0 0
  312.11331 18.0 0
  312.19775 25.0 0
  313.15613 28.0 0
  313.55176 18.0 0
  314.50409 36.0 0
  314.93286 24.0 0
  316.15555 56.0 1
  318.1402 47.0 1
  319.07471 29.0 0
  319.59225 30.0 0
  320.15982 17.0 0
  320.96222 45.0 0
  322.10965 29.0 0
  322.1218 53.0 1
  322.14368 37.0 0
  323.12854 17.0 0
  324.13593 20.0 0
  325.12045 25.0 0
  325.14032 22.0 0
  325.16794 28.0 0
  325.46591 28.0 0
  325.57062 25.0 0
  326.14066 32.0 0
  326.17496 22.0 0
  326.96939 17.0 0
  327.88345 21.0 0
  328.15668 42.0 0
  328.20013 33.0 0
  329.18756 36.0 0
  330.20377 19.0 0
  332.5563 33.0 0
  332.70685 19.0 0
  336.13593 32.0 0
  336.16287 190.0 2
  336.18686 20.0 0
  336.31903 36.0 0
  336.77179 21.0 0
  337.16492 158.0 2
  338.02664 33.0 0
  338.16364 22.0 0
  339.62119 17.0 0
  340.14572 45.0 0
  340.17596 19.0 0
  340.29572 24.0 0
  341.13797 21.0 0
  341.19571 20.0 0
  342.03543 33.0 0
  342.17792 18.0 0
  342.60889 56.0 1
  343.18091 26.0 0
  344.03638 38.0 0
  344.08185 22.0 0
  344.43875 34.0 0
  345.10074 18.0 0
  345.98541 31.0 0
  347.14417 30.0 0
  348.12045 25.0 0
  348.67868 24.0 0
  348.73212 35.0 0
  352.17926 17.0 0
  352.5173 17.0 0
  352.55643 22.0 0
  352.6864 19.0 0
  353.51285 20.0 0
  353.8782 40.0 0
  354.14798 189.0 2
  354.17029 1488.0 16
  354.18814 226.0 2
  354.22546 25.0 0
  354.6774 18.0 0
  355.15802 63.0 1
  355.18021 363.0 4
  356.16339 44.0 0
  356.18277 57.0 1
  356.42694 18.0 0
  356.55063 38.0 0
  356.89728 20.0 0
  357.17154 42.0 0
  357.19 22.0 0
  358.19049 37.0 0
  358.2063 70.0 1
  358.4559 18.0 0
  358.67566 24.0 0
  359.19769 35.0 0
  362.22324 20.0 0
  362.24228 27.0 0
  363.22821 22.0 0
  363.87903 23.0 0
  364.98532 22.0 0
  365.21317 18.0 0
  367.42648 28.0 0
  368.2012 34.0 0
  369.17877 18.0 0
  370.10843 21.0 0
  370.19131 39.0 0
  370.32541 27.0 0
  372.15848 22.0 0
  372.17441 28.0 0
  372.20456 24.0 0
  374.17648 33.0 0
  375.10529 21.0 0
  375.12857 25.0 0
  376.79019 18.0 0
  377.41998 18.0 0
  378.14996 18.0 0
  378.92731 17.0 0
  379.13596 40.0 0
  379.17004 22.0 0
  379.36429 23.0 0
  380.20428 29.0 0
  380.56155 25.0 0
  380.86658 22.0 0
  380.96933 17.0 0
  381.40628 29.0 0
  381.63651 38.0 0
  382.18619 29.0 0
  382.20859 27.0 0
  383.11624 21.0 0
  384.17792 35.0 0
  384.44089 18.0 0
  384.62979 21.0 0
  386.22162 66.0 1
  386.72623 49.0 1
  387.18118 68.0 1
  387.20541 28.0 0
  387.4025 35.0 0
  388.13278 18.0 0
  390.20255 132.0 1
  390.22287 216.0 2
  390.52618 39.0 0
  391.20975 19.0 0
  391.23141 80.0 1
  392.04721 41.0 0
  392.52185 77.0 1
  394.44534 28.0 0
  394.74597 18.0 0
  395.45737 20.0 0
  395.79932 20.0 0
  397.14108 22.0 0
  398.14883 30.0 0
  398.19656 20.0 0
  399.14581 27.0 0
  400.21768 51.0 1
  400.59027 26.0 0
  401.22519 22.0 0
  403.80713 26.0 0
  404.17538 20.0 0
  404.2146 17.0 0
  405.10587 24.0 0
  405.1904 17.0 0
  405.21182 27.0 0
  405.66821 22.0 0
  406.07254 30.0 0
  407.22778 23.0 0
  408.35748 24.0 0
  408.53488 43.0 0
  408.8269 23.0 0
  409.4978 42.0 0
  410.16022 23.0 0
  410.59186 29.0 0
  412.20187 21.0 0
  412.46063 22.0 0
  413.33444 20.0 0
  413.63232 17.0 0
  414.17575 41.0 0
  414.20123 28.0 0
  415.14023 40.0 0
  415.15695 25.0 0
  416.16632 17.0 0
  416.1998 17.0 0
  417.18555 34.0 0
  418.18213 31.0 0
  418.20172 37.0 0
  418.23843 127.0 1
  419.21927 20.0 0
  419.24847 19.0 0
  419.81168 18.0 0
  419.93604 24.0 0
  420.15787 42.0 0
  420.20319 18.0 0
  421.06247 26.0 0
  425.19598 20.0 0
  425.40775 26.0 0
  426.14685 18.0 0
  426.51965 24.0 0
  426.54831 23.0 0
  428.21582 27.0 0
  429.99765 27.0 0
  430.18417 33.0 0
  430.74918 33.0 0
  431.2157 33.0 0
  432.18018 20.0 0
  434.41031 34.0 0
  435.18704 27.0 0
  436.22946 43.0 0
  438.37341 18.0 0
  439.15533 47.0 1
  440.56427 20.0 0
  442.2001 28.0 0
  444.1897 56.0 1
  444.96759 28.0 0
  446.21173 41.0 0
  446.27991 17.0 0
  446.99622 27.0 0
  447.18799 26.0 0
  447.72263 66.0 1
  447.84445 29.0 0
  448.16287 26.0 0
  448.19159 59.0 1
  448.22321 20.0 0
  448.29248 19.0 0
  449.19147 25.0 0
  450.99124 22.0 0
  452.1127 21.0 0
  452.88702 26.0 0
  457.15503 18.0 0
  458.20004 292.0 3
  458.21231 116.0 1
  459.43298 18.0 0
  461.19028 24.0 0
  461.95557 26.0 0
  462.20102 30.0 0
  462.23816 226.0 2
  462.2608 24.0 0
  463.03345 17.0 0
  463.2168 46.0 0
  463.237 72.0 1
  463.44531 30.0 0
  463.48828 18.0 0
  463.73505 34.0 0
  464.1716 27.0 0
  464.1969 132.0 1
  464.22159 94.0 1
  464.99295 24.0 0
  466.15155 21.0 0
  466.21594 105.0 1
  467.1156 30.0 0
  470.2941 22.0 0
  470.92081 33.0 0
  473.91104 24.0 0
  474.63718 17.0 0
  475.89493 20.0 0
  476.11792 26.0 0
  476.17969 102.0 1
  476.20392 85.0 1
  476.22562 62.0 1
  476.47568 17.0 0
  477.20331 25.0 0
  477.21967 24.0 0
  477.45264 21.0 0
  478.51483 20.0 0
  479.08322 20.0 0
  479.71051 21.0 0
  480.15405 22.0 0
  480.2114 145.0 2
  480.24176 246.0 3
  481.20596 48.0 1
  481.23685 71.0 1
  481.25076 87.0 1
  481.28748 20.0 0
  481.30246 21.0 0
  482.15155 17.0 0
  482.23727 42.0 0
  484.13943 45.0 0
  484.71243 21.0 0
  489.72052 25.0 0
  490.1774 63.0 1
  490.21518 265.0 3
  490.24072 150.0 2
  491.1236 20.0 0
  491.21185 57.0 1
  491.2258 58.0 1
  491.40741 45.0 0
  491.51498 36.0 0
  491.66202 31.0 0
  492.25491 21.0 0
  493.25403 22.0 0
  493.56345 25.0 0
  494.25247 161.0 2
  494.26974 60.0 1
  495.26471 34.0 0
  496.21811 91.0 1
  496.23965 25.0 0
  496.26474 24.0 0
  496.7272 25.0 0
  496.80066 17.0 0
  497.23865 72.0 1
  497.24991 36.0 0
  498.7424 18.0 0
  499.61905 33.0 0
  500.91235 26.0 0
  506.29269 21.0 0
  508.19412 42.0 0
  508.23706 567.0 6
  508.25452 211.0 2
  508.32935 18.0 0
  508.97446 23.0 0
  509.21216 25.0 0
  509.23407 135.0 1
  509.27069 18.0 0
  509.73148 21.0 0
  509.86005 24.0 0
  510.09924 20.0 0
  510.1507 26.0 0
  510.22299 39.0 0
  510.75967 100.0 1
  510.77173 30.0 0
  511.23343 23.0 0
  512.03394 21.0 0
  512.05237 18.0 0
  512.13611 20.0 0
  512.21405 47.0 1
  512.26886 1471.0 16
  512.3266 47.0 1
  512.79443 40.0 0
  512.81775 17.0 0
  512.84552 18.0 0
  512.97504 17.0 0
  513.09662 28.0 0
  513.20862 80.0 1
  513.2442 233.0 2
  513.26819 379.0 4
  513.28992 54.0 1
  513.65204 22.0 0
  513.71246 22.0 0
  513.88763 29.0 0
  514.25439 86.0 1
  514.29675 25.0 0
  515.27533 29.0 0
  516.0061 19.0 0
  517.82037 33.0 0
  520.99854 33.0 0
  521.33258 17.0 0
  521.97766 17.0 0
  522.18542 100.0 1
  522.22705 255.0 3
  522.24542 437.0 5
  522.26764 655.0 7
  522.68817 24.0 0
  523.12476 18.0 0
  523.21918 20.0 0
  523.25568 500.0 5
  523.28943 65.0 1
  524.23431 28.0 0
  524.27271 115.0 1
  524.4967 21.0 0
  524.52692 25.0 0
  524.56891 21.0 0
  524.72296 20.0 0
  525.17529 17.0 0
  525.2124 20.0 0
  525.66754 30.0 0
  526.23114 21.0 0
  526.80292 24.0 0
  529.04205 28.0 0
  530.09161 36.0 0
  530.9505 18.0 0
  533.93958 28.0 0
  535.24872 17.0 0
  536.22437 19.0 0
  536.80267 19.0 0
  537.44861 18.0 0
  537.83807 45.0 0
  539.42755 26.0 0
  539.70349 20.0 0
  539.86523 29.0 0
  540.09229 40.0 0
  540.1817 64.0 1
  540.20325 142.0 2
  540.24841 894.0 10
  540.26569 758.0 8
  540.36853 34.0 0
  540.38806 35.0 0
  540.57349 36.0 0
  541.25427 406.0 4
  541.27814 338.0 4
  541.31073 25.0 0
  541.35419 26.0 0
  541.47809 23.0 0
  541.66821 19.0 0
  541.96521 22.0 0
  542.11292 32.0 0
  542.2641 94.0 1
  542.30255 35.0 0
  542.35321 18.0 0
  542.92963 28.0 0
  543.12561 18.0 0
  543.16669 25.0 0
  543.24579 20.0 0
  543.55542 20.0 0
  543.95685 17.0 0
  545.06445 17.0 0
  545.24115 17.0 0
  545.33057 24.0 0
  545.79224 18.0 0
  549.68909 45.0 0
  550.22906 30.0 0
  550.2749 20.0 0
  551.10992 21.0 0
  551.23083 39.0 0
  551.70569 20.0 0
  552.41742 17.0 0
  552.56146 32.0 0
  553.47748 18.0 0
  554.24323 48.0 1
  554.27112 165.0 2
  554.29102 64.0 1
  554.31177 20.0 0
  555.23053 18.0 0
  555.26703 18.0 0
  555.30396 104.0 1
  555.38385 22.0 0
  555.64587 46.0 0
  556.24689 25.0 0
  556.27637 21.0 0
  556.38733 21.0 0
  556.58081 28.0 0
  557.27118 17.0 0
  559.37866 25.0 0
  561.10327 19.0 0
  561.32422 20.0 0
  561.77252 27.0 0
  563.836 20.0 0
  567.06775 18.0 0
  568.22168 28.0 0
  568.23694 20.0 0
  568.27679 110.0 1
  570.52271 18.0 0
  571.30316 20.0 0
  571.55811 17.0 0
  571.83698 17.0 0
  572.02301 17.0 0
  572.07043 29.0 0
  572.21979 239.0 3
  572.27704 5927.0 63
  572.29681 4707.0 50
  572.36951 77.0 1
  572.44916 49.0 1
  572.69574 20.0 0
  572.8075 21.0 0
  573.05096 38.0 0
  573.07611 20.0 0
  573.1416 24.0 0
  573.16351 48.0 1
  573.22986 208.0 2
  573.29053 3618.0 39
  573.37122 32.0 0
  573.41357 18.0 0
  574.06592 22.0 0
  574.14392 17.0 0
  574.20435 38.0 0
  574.24744 192.0 2
  574.28149 435.0 5
  574.30737 480.0 5
  574.5575 18.0 0
  574.7384 22.0 0
  574.85553 40.0 0
  574.93347 31.0 0
  574.96631 55.0 1
  575.25244 22.0 0
  575.27399 103.0 1
  575.33722 21.0 0
  575.49628 18.0 0
  575.58752 54.0 1
  575.91766 20.0 0
  576.3031 48.0 1
  576.61646 18.0 0
  576.68665 17.0 0
  576.9549 20.0 0
  577.78296 17.0 0
  577.92401 18.0 0
  578.06787 34.0 0
  582.18835 24.0 0
  582.21802 26.0 0
  582.2486 149.0 2
  582.26532 341.0 4
  582.28534 302.0 3
  582.96869 17.0 0
  583.22552 33.0 0
  583.27106 95.0 1
  583.3139 56.0 1
  584.25275 23.0 0
  584.27625 95.0 1
  584.29822 22.0 0
  585.95532 23.0 0
  586.90747 23.0 0
  591.36285 22.0 0
  592.84619 26.0 0
  595.86139 18.0 0
  597.06439 21.0 0
  597.93988 43.0 0
  599.49182 33.0 0
  599.53326 18.0 0
  600.22839 34.0 0
  600.26996 124.0 1
  600.29541 100.0 1
  600.57434 27.0 0
  600.61017 22.0 0
  601.26581 43.0 0
  601.29401 110.0 1
  601.34229 27.0 0
  601.56769 19.0 0
  601.82336 25.0 0
  601.98334 23.0 0
  602.42371 28.0 0
  603.31531 20.0 0
  603.33728 18.0 0
  605.35779 39.0 0
  607.14288 25.0 0
  607.2124 28.0 0
  609.18506 38.0 0
  609.21936 18.0 0
  609.75073 20.0 0
  610.49371 17.0 0
  612.54175 21.0 0
  613.06744 28.0 0
  613.39679 50.0 1
  614.29285 94.0 1
  614.31818 21.0 0
  615.27094 30.0 0
  615.34875 76.0 1
  615.57599 48.0 1
  616.87067 17.0 0
  618.84064 25.0 0
  619.11383 30.0 0
  619.97205 28.0 0
  620.20892 19.0 0
  620.28149 18.0 0
  620.70459 33.0 0
  620.9071 25.0 0
  626.3786 18.0 0
  627.72888 21.0 0
  627.89691 17.0 0
  628.44324 20.0 0
  629.2439 24.0 0
  629.29236 21.0 0
  629.73438 22.0 0
  630.20258 21.0 0
  630.62921 18.0 0
  630.74487 23.0 0
  631.10565 24.0 0
  631.31134 22.0 0
  631.49078 24.0 0
  631.51208 20.0 0
  631.65692 21.0 0
  631.71747 17.0 0
  631.79926 35.0 0
  631.90436 18.0 0
  631.94159 24.0 0
  632.00549 17.0 0
  632.04932 26.0 0
  632.10327 38.0 0
  632.14612 77.0 1
  632.21252 843.0 9
  632.2345 474.0 5
  632.30872 93844.0 999
  632.38397 1967.0 21
  632.44708 77.0 1
  632.46515 87.0 1
  632.50299 71.0 1
//
