ACCESSION: MSBNK-RIKEN-PR300732
RECORD_TITLE: Aconitine; LC-ESI-QTOF; MS2
DATE: 2019.03.28
AUTHORS: Tetsuya Mori, Center for Sustainable Resource Science, RIKEN
LICENSE: CC BY-NC-SA
PUBLICATION: Tsugawa H., Nakabayashi R., Mori T., Yamada Y., Takahashi M., Rai A., Sugiyama R., Yamamoto H., Nakaya T., Yamazaki M., Kooke R., Bac-Molenaar JA., Oztolan-Erol N., Keurentjes JJB., Arita M., Saito K. (2019) "A cheminformatics approach to characterize metabolomes in stable-isotope-labeled organisms" Nature Methods 16(4):295-298. [doi:10.1038/s41592-019-0358-2]
COMMENT: registered in RIKEN PlaSMA
CH$NAME: Aconitine
CH$COMPOUND_CLASS: Aconitane-type diterpenoid alkaloids
CH$FORMULA: C34H47NO11
CH$EXACT_MASS: 645.746
CH$SMILES: CCN1C[C@@]2(COC)[C@H]3[C@@H](OC)[C@H]4C1[C@@]3([C@@H]1C[C@@]3(O)[C@H](OC(=O)C5=CC=CC=C5)[C@@H]1[C@]4(OC(C)=O)[C@@H](O)[C@@H]3OC)[C@H](C[C@H]2O)OC
CH$IUPAC: InChI=1S/C34H47NO11/c1-7-35-15-31(16-41-3)20(37)13-21(42-4)33-19-14-32(40)28(45-30(39)18-11-9-8-10-12-18)22(19)34(46-17(2)36,27(38)29(32)44-6)23(26(33)35)24(43-5)25(31)33/h8-12,19-29,37-38,40H,7,13-16H2,1-6H3/t19-,20-,21+,22-,23+,24+,25-,26?,27+,28-,29+,31+,32-,33+,34-/m1/s1
CH$LINK: INCHIKEY XFSBVAOIAHNAPC-XTHSEXKGSA-N
AC$INSTRUMENT: LC, Waters Acquity UPLC System; MS, Waters Xevo G2 Q-Tof
AC$INSTRUMENT_TYPE: LC-ESI-QTOF
AC$MASS_SPECTROMETRY: MS_TYPE MS2
AC$MASS_SPECTROMETRY: ION_MODE POSITIVE
AC$MASS_SPECTROMETRY: COLLISION_ENERGY 6V
AC$MASS_SPECTROMETRY: DESOLVATION_GAS_FLOW 800/h
AC$MASS_SPECTROMETRY: DESOLVATION_TEMPERATURE 450 C
AC$MASS_SPECTROMETRY: IONIZATION ESI
AC$CHROMATOGRAPHY: CAPILLARY_VOLTAGE +3.00 kV
AC$CHROMATOGRAPHY: COLUMN_NAME Acquity bridged ethyl hybrid C18 (1.7 um, 2.1 mm * 100 mm, Waters)
AC$CHROMATOGRAPHY: COLUMN_TEMPERATURE 40 C
AC$CHROMATOGRAPHY: FLOW_GRADIENT A/B = (99.5%/0.5% at 0 min, 99.5%/0.5% at 0.1 min, 20%/80% at 10 min, 0.5%/99.5% at 10.1 min, 0.5%/99.5% at 12.0 min, 99.5%/0.5% at 12.1 min, 99.5%/0.5% at 15.0 min)
AC$CHROMATOGRAPHY: FLOW_RATE 0.3 ml/min at 0 min, 0.3 ml/min at 10 min, 0.4 ml/min at 10.1 min, 0.4 ml/min at 14.4 min, 0.3 ml/min at 14.5 min
AC$CHROMATOGRAPHY: RETENTION_TIME 5.965333
AC$CHROMATOGRAPHY: SOLVENT A water including 0.1% formic acid
AC$CHROMATOGRAPHY: SOLVENT B acetonitrile including 0.1% formic acid
MS$FOCUSED_ION: PRECURSOR_TYPE [M+H]+
MS$FOCUSED_ION: PRECURSOR_M/Z 646.3221878
PK$SPLASH: splash10-0a4i-0975330000-99adb7fc099473ddfcef
PK$NUM_PEAK: 774
PK$PEAK: m/z int. rel.int.
  56.05207 8.0 8
  58.06494 22.0 22
  58.07004 14.0 14
  69.03374 7.0 7
  71.06525 6.0 6
  72.08827 9.0 9
  75.04221 6.0 6
  75.0462 12.0 12
  79.05477 13.0 13
  81.0735 6.0 6
  82.06129 6.0 6
  86.03082 5.0 5
  87.34191 7.0 7
  87.54271 13.0 13
  88.07571 13.0 13
  91.04864 9.0 9
  91.05436 5.0 5
  96.08171 15.0 15
  97.06084 8.0 8
  97.08733 9.0 9
  98.0932 10.0 10
  98.33051 6.0 6
  98.39638 7.0 7
  99.44448 7.0 7
  100.07491 8.0 8
  101.08491 8.0 8
  103.09818 6.0 6
  105.01723 16.0 16
  105.03397 1000.0 999
  105.08144 8.0 8
  105.60445 6.0 6
  106.03655 72.0 72
  108.08025 22.0 22
  108.08969 5.0 5
  108.78455 6.0 6
  109.06843 14.0 14
  110.06219 5.0 5
  110.09625 36.0 36
  111.0829 79.0 79
  112.08401 14.0 14
  113.0792 20.0 20
  115.04689 7.0 7
  115.05931 5.0 5
  115.07185 7.0 7
  116.06019 16.0 16
  116.07352 6.0 6
  117.05753 17.0 17
  117.06455 18.0 18
  117.07246 23.0 23
  118.07479 7.0 7
  119.05178 8.0 8
  121.03342 9.0 9
  122.05489 6.0 6
  122.09807 9.0 9
  122.10423 38.0 38
  123.04225 26.0 26
  123.07995 11.0 11
  124.06855 7.0 7
  124.07747 12.0 12
  125.70507 9.0 9
  127.07635 6.0 6
  129.06316 5.0 5
  129.07225 22.0 22
  130.07507 9.0 9
  130.95058 6.0 6
  131.04836 11.0 11
  131.08435 32.0 32
  132.08871 11.0 11
  133.06099 22.0 22
  133.06871 11.0 11
  133.09007 9.0 9
  133.09947 7.0 7
  134.05727 9.0 9
  134.09084 7.0 7
  135.04143 11.0 11
  135.07643 32.0 32
  135.09845 6.0 6
  136.05144 6.0 6
  136.10591 7.0 7
  137.06065 33.0 33
  138.08072 9.0 9
  138.09233 10.0 10
  139.04445 8.0 8
  140.07832 12.0 12
  140.10469 44.0 44
  141.07193 29.0 29
  141.07922 11.0 11
  142.08151 7.0 7
  142.11499 6.0 6
  142.12117 9.0 9
  144.10262 13.0 13
  144.91978 7.0 7
  145.00247 6.0 6
  145.06747 19.0 19
  145.08783 10.0 10
  146.04073 5.0 5
  146.056 10.0 10
  146.07401 17.0 17
  146.09007 18.0 18
  146.10323 10.0 10
  147.02641 6.0 6
  147.03639 6.0 6
  147.04404 15.0 15
  147.05069 20.0 20
  147.05984 14.0 14
  147.07576 11.0 11
  147.08585 16.0 16
  148.07869 6.0 6
  148.11717 12.0 12
  149.07372 5.0 5
  149.10237 9.0 9
  149.11861 9.0 9
  149.84906 8.0 8
  151.06688 6.0 6
  151.0789 5.0 5
  152.067 5.0 5
  152.10376 106.0 106
  152.12248 5.0 5
  153.06366 11.0 11
  153.09296 6.0 6
  154.07796 9.0 9
  155.08563 27.0 27
  156.07707 11.0 11
  156.09267 12.0 12
  157.10184 6.0 6
  158.10033 12.0 12
  159.0769 24.0 24
  159.10948 5.0 5
  160.08009 5.0 5
  160.09801 6.0 6
  160.1133 10.0 10
  160.12108 12.0 12
  161.01866 5.0 5
  161.06772 8.0 8
  161.07832 7.0 7
  161.09517 24.0 24
  161.11829 6.0 6
  162.07475 6.0 6
  162.09299 21.0 21
  162.12531 6.0 6
  163.07004 8.0 8
  163.10289 18.0 18
  164.10245 20.0 20
  165.04337 9.0 9
  165.069 25.0 25
  166.07809 11.0 11
  167.08167 18.0 18
  167.09949 13.0 13
  169.06978 6.0 6
  171.04097 8.0 8
  171.05965 6.0 6
  171.07545 13.0 13
  171.09341 19.0 19
  171.10829 5.0 5
  172.08986 8.0 8
  172.11122 29.0 29
  172.12709 12.0 12
  173.09276 8.0 8
  173.10085 25.0 25
  173.11783 19.0 19
  174.08841 54.0 54
  174.10016 25.0 25
  174.11502 14.0 14
  174.12518 6.0 6
  175.0717 9.0 9
  175.08235 10.0 10
  175.10934 6.0 6
  175.12102 13.0 13
  176.04832 6.0 6
  176.1011 7.0 7
  177.04768 10.0 10
  178.06688 8.0 8
  178.08292 10.0 10
  178.11427 13.0 13
  178.12341 25.0 25
  178.36285 6.0 6
  179.08395 35.0 35
  179.0907 8.0 8
  179.12398 6.0 6
  179.13348 13.0 13
  181.0679 16.0 16
  181.08975 17.0 17
  182.09598 5.0 5
  182.11281 8.0 8
  183.10271 6.0 6
  184.04805 5.0 5
  184.07607 15.0 15
  184.08664 6.0 6
  184.10454 6.0 6
  184.12679 6.0 6
  185.06537 17.0 17
  185.09187 5.0 5
  185.10793 7.0 7
  185.11815 13.0 13
  186.10925 10.0 10
  186.12312 11.0 11
  186.1322 37.0 37
  187.07855 13.0 13
  187.13068 15.0 15
  187.13734 11.0 11
  188.07166 40.0 40
  188.09828 6.0 6
  188.14009 5.0 5
  189.07951 16.0 16
  189.09457 13.0 13
  189.11804 7.0 7
  190.0771 20.0 20
  190.0883 37.0 37
  190.10161 9.0 9
  190.12077 34.0 34
  190.13068 12.0 12
  190.14301 12.0 12
  191.07365 5.0 5
  191.0844 34.0 34
  191.09576 16.0 16
  191.11507 6.0 6
  191.12869 11.0 11
  192.09387 20.0 20
  192.14038 6.0 6
  193.08566 20.0 20
  193.10283 13.0 13
  193.11151 12.0 12
  194.07335 8.0 8
  194.08598 15.0 15
  194.09651 10.0 10
  194.10901 8.0 8
  195.09326 16.0 16
  195.10376 6.0 6
  195.11322 7.0 7
  196.09479 24.0 24
  196.14407 8.0 8
  197.0905 14.0 14
  197.12341 7.0 7
  198.10252 15.0 15
  198.12082 18.0 18
  198.12915 9.0 9
  199.08714 17.0 17
  199.10742 6.0 6
  200.07816 8.0 8
  200.10724 9.0 9
  201.09787 5.0 5
  202.06512 13.0 13
  202.07777 21.0 21
  202.08914 11.0 11
  202.1256 32.0 32
  202.9866 27.0 27
  203.06122 6.0 6
  203.07321 8.0 8
  203.08716 14.0 14
  203.11479 12.0 12
  204.02293 10.0 10
  204.08844 16.0 16
  204.10341 5.0 5
  205.09212 24.0 24
  205.10257 46.0 46
  205.11978 12.0 12
  205.14558 5.0 5
  206.07487 6.0 6
  206.09467 21.0 21
  207.0674 5.0 5
  207.07678 16.0 16
  207.08783 38.0 38
  207.10658 20.0 20
  207.12198 34.0 34
  208.08974 11.0 11
  208.11395 16.0 16
  209.07617 26.0 26
  209.09166 20.0 20
  209.10797 17.0 17
  210.08185 18.0 18
  210.12593 15.0 15
  211.09529 10.0 10
  211.1239 5.0 5
  212.14359 5.0 5
  213.08902 9.0 9
  213.10075 7.0 7
  213.11673 7.0 7
  214.08739 6.0 6
  215.07037 13.0 13
  215.08449 18.0 18
  215.09424 16.0 16
  215.11009 6.0 6
  215.12769 11.0 11
  216.09808 12.0 12
  216.13112 15.0 15
  217.08163 30.0 30
  217.09904 67.0 67
  217.15553 15.0 15
  218.00864 7.0 7
  218.06282 6.0 6
  218.09592 9.0 9
  218.10738 13.0 13
  218.14331 24.0 24
  218.15767 43.0 43
  219.07095 11.0 11
  219.11014 8.0 8
  219.14973 15.0 15
  220.10106 17.0 17
  220.1279 12.0 12
  221.05359 9.0 9
  221.06456 7.0 7
  221.10211 36.0 36
  222.10555 24.0 24
  223.0703 14.0 14
  223.09427 15.0 15
  223.11128 23.0 23
  224.11755 7.0 7
  225.08588 5.0 5
  225.09869 5.0 5
  225.12032 5.0 5
  226.05772 7.0 7
  226.11938 6.0 6
  226.14091 7.0 7
  227.10487 8.0 8
  227.12411 16.0 16
  227.88237 11.0 11
  228.08369 13.0 13
  228.14529 5.0 5
  229.07693 12.0 12
  229.08875 7.0 7
  229.10709 13.0 13
  229.13734 7.0 7
  230.10805 25.0 25
  230.16234 7.0 7
  231.08044 20.0 20
  231.09605 6.0 6
  231.10556 10.0 10
  233.06114 7.0 7
  233.0787 23.0 23
  233.09067 26.0 26
  233.10365 41.0 41
  233.98834 5.0 5
  234.09093 16.0 16
  234.10081 18.0 18
  234.11751 27.0 27
  234.13495 14.0 14
  234.14772 9.0 9
  234.15767 6.0 6
  234.2379 11.0 11
  235.06061 6.0 6
  235.07602 12.0 12
  235.08633 5.0 5
  235.11301 23.0 23
  235.12859 19.0 19
  236.06102 7.0 7
  236.0844 11.0 11
  236.11037 6.0 6
  236.12389 6.0 6
  236.13979 20.0 20
  236.15488 13.0 13
  236.17062 14.0 14
  237.07031 14.0 14
  237.08786 9.0 9
  237.09842 25.0 25
  237.1261 12.0 12
  237.13281 23.0 23
  237.14925 6.0 6
  237.3006 5.0 5
  238.09708 7.0 7
  238.12067 16.0 16
  239.09555 6.0 6
  239.10858 7.0 7
  239.12447 5.0 5
  239.6086 5.0 5
  240.10263 13.0 13
  241.10507 12.0 12
  241.14687 6.0 6
  242.08076 9.0 9
  242.09592 6.0 6
  242.14761 6.0 6
  243.11835 7.0 7
  245.07312 11.0 11
  245.09076 27.0 27
  245.11403 6.0 6
  245.17886 6.0 6
  246.09363 17.0 17
  246.62051 6.0 6
  247.05287 9.0 9
  247.10744 14.0 14
  247.15866 6.0 6
  247.6338 8.0 8
  247.97893 6.0 6
  248.08704 9.0 9
  248.10213 10.0 10
  249.08255 6.0 6
  249.09752 15.0 15
  249.11351 9.0 9
  249.1312 36.0 36
  250.08063 11.0 11
  250.09564 7.0 7
  250.13261 9.0 9
  250.18741 16.0 16
  251.10133 78.0 78
  251.13945 6.0 6
  251.15074 11.0 11
  251.19072 6.0 6
  252.09227 9.0 9
  252.10989 12.0 12
  252.12267 15.0 15
  252.15294 6.0 6
  252.17119 5.0 5
  253.0768 6.0 6
  253.11708 8.0 8
  253.15178 5.0 5
  255.12715 5.0 5
  257.10489 9.0 9
  257.13535 6.0 6
  258.13449 5.0 5
  259.06281 10.0 10
  259.07669 8.0 8
  259.09274 34.0 34
  259.10159 35.0 35
  259.11761 10.0 10
  260.09207 5.0 5
  260.10605 5.0 5
  260.13644 20.0 20
  261.0831 37.0 37
  261.10785 30.0 30
  262.07623 5.0 5
  262.08548 6.0 6
  262.09579 9.0 9
  262.1546 19.0 19
  262.17108 5.0 5
  262.95355 6.0 6
  263.10718 24.0 24
  263.13037 8.0 8
  263.14999 9.0 9
  264.07291 8.0 8
  264.14108 7.0 7
  265.07614 10.0 10
  265.10574 24.0 24
  265.13214 21.0 21
  266.11691 6.0 6
  266.14865 5.0 5
  267.13919 6.0 6
  267.15869 24.0 24
  268.13062 12.0 12
  268.14355 8.0 8
  269.11615 20.0 20
  269.88123 7.0 7
  270.13733 14.0 14
  271.16187 9.0 9
  272.1221 8.0 8
  272.14902 14.0 14
  273.09775 17.0 17
  273.1254 6.0 6
  274.08344 8.0 8
  274.13467 9.0 9
  274.15997 15.0 15
  276.07465 10.0 10
  276.10141 10.0 10
  276.11279 16.0 16
  276.13269 33.0 33
  276.14685 12.0 12
  277.13385 9.0 9
  278.14844 13.0 13
  279.08914 6.0 6
  279.10333 15.0 15
  279.13541 5.0 5
  280.09402 7.0 7
  280.11279 24.0 24
  280.15854 17.0 17
  281.11444 7.0 7
  281.1366 16.0 16
  282.1106 5.0 5
  282.13559 11.0 11
  282.15381 7.0 7
  283.12488 12.0 12
  283.14166 10.0 10
  284.16287 9.0 9
  284.18515 6.0 6
  285.11169 7.0 7
  285.1344 7.0 7
  285.16385 8.0 8
  286.14862 6.0 6
  286.17548 6.0 6
  288.46118 5.0 5
  290.14352 9.0 9
  290.17334 18.0 18
  290.24307 6.0 6
  291.12631 10.0 10
  291.17145 7.0 7
  292.75964 10.0 10
  293.09766 10.0 10
  293.12048 10.0 10
  293.13129 11.0 11
  293.15244 8.0 8
  294.11404 8.0 8
  294.13467 24.0 24
  294.1517 15.0 15
  295.13846 26.0 26
  296.16696 31.0 31
  296.68179 5.0 5
  297.1196 6.0 6
  298.15579 5.0 5
  299.16666 6.0 6
  300.12811 5.0 5
  302.13495 6.0 6
  304.10895 6.0 6
  304.13705 13.0 13
  304.85492 6.0 6
  305.1275 9.0 9
  305.155 8.0 8
  305.2659 7.0 7
  306.15503 14.0 14
  308.15482 9.0 9
  308.16998 21.0 21
  309.16232 8.0 8
  310.10245 5.0 5
  310.13123 22.0 22
  310.1434 14.0 14
  310.16888 6.0 6
  311.13559 14.0 14
  312.12521 5.0 5
  312.16086 11.0 11
  313.22855 10.0 10
  314.17429 12.0 12
  318.12399 6.0 6
  318.1506 16.0 16
  320.17584 11.0 11
  321.00394 6.0 6
  322.14462 11.0 11
  322.18448 15.0 15
  323.13184 10.0 10
  323.14746 7.0 7
  323.19397 9.0 9
  323.34445 6.0 6
  323.48926 7.0 7
  324.14355 22.0 22
  324.16379 7.0 7
  324.17319 11.0 11
  325.14084 6.0 6
  325.16812 11.0 11
  326.15735 11.0 11
  326.17441 12.0 12
  326.20065 13.0 13
  326.22012 31.0 31
  327.14172 7.0 7
  327.22455 6.0 6
  332.15881 6.0 6
  336.15021 12.0 12
  336.16473 18.0 18
  337.1582 6.0 6
  338.16849 5.0 5
  339.11096 7.0 7
  340.17316 16.0 16
  340.18765 59.0 59
  340.20407 61.0 61
  341.17163 6.0 6
  341.18738 9.0 9
  341.20563 21.0 21
  341.21982 9.0 9
  341.53259 5.0 5
  342.11758 6.0 6
  342.13885 7.0 7
  343.12421 7.0 7
  343.16983 6.0 6
  343.19662 5.0 5
  344.12573 7.0 7
  344.18472 35.0 35
  344.21692 14.0 14
  344.2312 26.0 26
  345.09039 6.0 6
  347.13998 7.0 7
  349.07803 8.0 8
  349.65338 6.0 6
  349.88599 6.0 6
  350.16125 13.0 13
  350.18048 25.0 25
  351.16888 7.0 7
  351.19818 6.0 6
  352.17374 5.0 5
  353.19418 5.0 5
  354.17963 17.0 17
  354.19629 69.0 69
  354.21359 54.0 54
  354.2308 10.0 10
  355.17575 6.0 6
  355.19977 51.0 51
  355.2211 44.0 44
  355.45209 7.0 7
  356.22348 5.0 5
  358.19141 9.0 9
  358.2384 9.0 9
  360.7963 8.0 8
  367.19998 8.0 8
  367.88971 6.0 6
  368.03662 11.0 11
  368.1763 287.0 287
  368.20203 102.0 102
  369.18161 40.0 40
  369.20035 44.0 44
  370.16263 6.0 6
  370.18701 12.0 12
  370.25616 5.0 5
  371.20547 21.0 21
  372.18912 14.0 14
  372.21179 94.0 94
  372.22702 97.0 97
  372.25183 7.0 7
  373.20419 8.0 8
  373.21942 20.0 20
  373.71347 6.0 6
  374.13306 6.0 6
  374.17252 6.0 6
  374.2272 9.0 9
  375.22629 6.0 6
  375.80359 7.0 7
  376.05728 6.0 6
  376.23788 19.0 19
  376.25864 39.0 39
  378.04114 5.0 5
  382.20193 6.0 6
  382.21982 6.0 6
  383.1153 6.0 6
  383.5318 5.0 5
  386.20538 33.0 33
  386.22314 13.0 13
  386.23483 14.0 14
  387.22266 15.0 15
  387.47708 8.0 8
  388.21921 9.0 9
  392.21887 9.0 9
  393.1282 6.0 6
  393.15173 7.0 7
  398.23257 5.0 5
  400.20224 17.0 17
  400.8584 5.0 5
  401.19916 15.0 15
  401.22565 13.0 13
  402.17258 5.0 5
  402.19995 18.0 18
  402.66275 5.0 5
  404.15939 6.0 6
  404.20691 8.0 8
  404.23526 122.0 122
  404.24988 89.0 89
  404.27582 14.0 14
  405.22073 6.0 6
  405.24771 53.0 53
  405.28369 5.0 5
  406.21875 8.0 8
  406.87845 9.0 9
  412.16629 6.0 6
  413.12924 10.0 10
  414.17191 8.0 8
  414.22821 18.0 18
  415.13388 6.0 6
  416.21637 7.0 7
  418.16556 5.0 5
  418.21732 9.0 9
  418.24686 10.0 10
  419.14441 8.0 8
  419.24777 6.0 6
  430.17844 6.0 6
  430.21555 7.0 7
  432.23615 15.0 15
  432.28574 6.0 6
  433.16504 7.0 7
  434.19205 13.0 13
  434.21149 9.0 9
  435.13394 6.0 6
  440.08978 8.0 8
  444.20477 24.0 24
  444.25201 8.0 8
  445.21988 11.0 11
  447.11349 7.0 7
  447.15656 7.0 7
  447.18457 15.0 15
  448.17288 8.0 8
  458.18634 16.0 16
  458.22256 7.0 7
  459.18628 5.0 5
  460.12039 5.0 5
  460.20044 5.0 5
  461.22211 12.0 12
  462.20984 38.0 38
  462.22513 23.0 23
  462.24661 22.0 22
  463.24219 14.0 14
  464.20486 6.0 6
  472.19168 6.0 6
  472.22739 30.0 30
  473.24164 12.0 12
  476.21634 42.0 42
  476.24246 93.0 93
  476.26468 14.0 14
  477.21078 7.0 7
  477.24063 32.0 32
  477.27139 13.0 13
  478.18042 5.0 5
  478.21133 17.0 17
  478.24744 5.0 5
  479.20428 5.0 5
  479.21744 6.0 6
  479.24036 8.0 8
  480.21552 10.0 10
  485.39941 7.0 7
  493.21481 6.0 6
  494.18054 9.0 9
  494.23868 77.0 77
  494.25787 92.0 92
  494.29724 13.0 13
  495.22522 17.0 17
  495.25253 30.0 30
  495.27112 31.0 31
  495.29819 5.0 5
  496.23282 10.0 10
  496.2507 11.0 11
  496.26636 7.0 7
  497.2446 7.0 7
  502.2301 7.0 7
  504.18893 12.0 12
  504.21353 30.0 30
  504.2352 16.0 16
  504.26611 15.0 15
  505.24744 9.0 9
  505.26385 5.0 5
  508.22693 7.0 7
  508.2757 37.0 37
  509.29639 11.0 11
  510.23993 15.0 15
  510.25595 9.0 9
  510.30084 6.0 6
  511.24576 12.0 12
  511.81592 5.0 5
  517.4165 7.0 7
  522.16846 6.0 6
  522.25018 81.0 81
  523.24084 35.0 35
  523.28357 9.0 9
  524.25854 11.0 11
  524.30402 8.0 8
  524.95496 5.0 5
  526.20917 10.0 10
  526.23584 16.0 16
  526.27551 194.0 194
  526.30029 62.0 62
  527.27979 37.0 37
  527.31012 9.0 9
  528.26196 5.0 5
  529.28967 5.0 5
  536.25977 34.0 34
  536.28326 45.0 45
  537.23694 7.0 7
  537.25818 27.0 27
  537.27466 18.0 18
  538.21503 6.0 6
  539.33221 7.0 7
  554.27014 131.0 131
  554.29645 40.0 40
  554.31171 25.0 25
  554.58484 6.0 6
  555.22675 8.0 8
  555.25665 22.0 22
  555.30029 26.0 26
  556.30383 13.0 13
  558.29156 6.0 6
  568.32501 7.0 7
  576.01929 5.0 5
  584.27979 9.0 9
  586.14526 6.0 6
  586.19415 7.0 7
  586.29022 149.0 149
  586.31628 124.0 124
  586.35419 5.0 5
  587.2879 53.0 53
  587.31592 58.0 58
  588.28192 29.0 29
  588.31677 22.0 22
  589.24274 6.0 6
  646.30817 34.0 34
  646.34357 10.0 10
  646.40637 6.0 6
//
