ACCESSION: MSBNK-RIKEN-PR303902
RECORD_TITLE: Ginkgolide C; LC-ESI-QTOF; MS2
DATE: 2019.03.28
AUTHORS: Tetsuya Mori, Center for Sustainable Resource Science, RIKEN
LICENSE: CC BY-NC-SA
PUBLICATION: Tsugawa H., Nakabayashi R., Mori T., Yamada Y., Takahashi M., Rai A., Sugiyama R., Yamamoto H., Nakaya T., Yamazaki M., Kooke R., Bac-Molenaar JA., Oztolan-Erol N., Keurentjes JJB., Arita M., Saito K. (2019) "A cheminformatics approach to characterize metabolomes in stable-isotope-labeled organisms" Nature Methods 16(4):295-298. [doi:10.1038/s41592-019-0358-2]
COMMENT: registered in RIKEN PlaSMA
CH$NAME: Ginkgolide C
CH$COMPOUND_CLASS: Ginkgolides and bilobalides
CH$FORMULA: C20H24O11
CH$EXACT_MASS: 440.401
CH$SMILES: CC1C(=O)OC2C(O)C34C5OC(=O)C3(OC3OC(=O)C(O)C43C(C5O)C(C)(C)C)C12O
CH$IUPAC: InChI=1S/C20H24O11/c1-5-12(24)28-11-8(22)18-10-6(21)7(16(2,3)4)17(18)9(23)13(25)30-15(17)31-20(18,14(26)29-10)19(5,11)27/h5-11,15,21-23,27H,1-4H3
CH$LINK: INCHIKEY AMOGMTLMADGEOQ-UHFFFAOYSA-N
AC$INSTRUMENT: LC, Waters Acquity UPLC System; MS, Waters Xevo G2 Q-Tof
AC$INSTRUMENT_TYPE: LC-ESI-QTOF
AC$MASS_SPECTROMETRY: MS_TYPE MS2
AC$MASS_SPECTROMETRY: ION_MODE POSITIVE
AC$MASS_SPECTROMETRY: COLLISION_ENERGY 6V
AC$MASS_SPECTROMETRY: DESOLVATION_GAS_FLOW 800/h
AC$MASS_SPECTROMETRY: DESOLVATION_TEMPERATURE 450 C
AC$MASS_SPECTROMETRY: IONIZATION ESI
AC$CHROMATOGRAPHY: CAPILLARY_VOLTAGE +3.00 kV
AC$CHROMATOGRAPHY: COLUMN_NAME Acquity bridged ethyl hybrid C18 (1.7 um, 2.1 mm * 100 mm, Waters)
AC$CHROMATOGRAPHY: COLUMN_TEMPERATURE 40 C
AC$CHROMATOGRAPHY: FLOW_GRADIENT A/B = (99.5%/0.5% at 0 min, 99.5%/0.5% at 0.1 min, 20%/80% at 10 min, 0.5%/99.5% at 10.1 min, 0.5%/99.5% at 12.0 min, 99.5%/0.5% at 12.1 min, 99.5%/0.5% at 15.0 min)
AC$CHROMATOGRAPHY: FLOW_RATE 0.3 ml/min at 0 min, 0.3 ml/min at 10 min, 0.4 ml/min at 10.1 min, 0.4 ml/min at 14.4 min, 0.3 ml/min at 14.5 min
AC$CHROMATOGRAPHY: RETENTION_TIME 4.33045
AC$CHROMATOGRAPHY: SOLVENT A water including 0.1% formic acid
AC$CHROMATOGRAPHY: SOLVENT B acetonitrile including 0.1% formic acid
MS$FOCUSED_ION: PRECURSOR_TYPE [M+H]+
MS$FOCUSED_ION: PRECURSOR_M/Z 441.139138
PK$SPLASH: splash10-0a6r-0493000000-9ea81216ec94261b6d4b
PK$NUM_PEAK: 254
PK$PEAK: m/z int. rel.int.
  57.03516 33.0 33
  57.07137 25.0 25
  57.07619 48.0 48
  71.0165 26.0 26
  81.0741 30.0 30
  84.09028 25.0 25
  95.04876 29.0 29
  95.0862 29.0 29
  97.01994 23.0 23
  97.02885 77.0 77
  104.72627 31.0 31
  107.05402 26.0 26
  107.08147 35.0 35
  109.03204 25.0 25
  112.08076 57.0 57
  113.01627 22.0 22
  119.0443 50.0 50
  123.04938 22.0 22
  125.02756 31.0 31
  129.06903 23.0 23
  130.07288 44.0 44
  131.08546 23.0 23
  135.05508 52.0 52
  137.05544 26.0 26
  138.06866 23.0 23
  139.04109 34.0 34
  145.06485 25.0 25
  147.07991 91.0 91
  147.17238 27.0 27
  148.08241 27.0 27
  149.01268 38.0 38
  149.06201 55.0 55
  149.06993 25.0 25
  155.02881 37.0 37
  155.036 43.0 43
  159.07848 64.0 64
  161.0545 26.0 26
  161.06207 25.0 25
  161.08871 27.0 27
  161.53786 29.0 29
  163.04337 64.0 64
  163.08109 22.0 22
  165.02454 87.0 87
  169.06685 22.0 22
  172.06265 22.0 22
  172.08691 30.0 30
  173.04968 34.0 34
  173.05931 23.0 23
  174.019 23.0 23
  174.10622 27.0 27
  175.07413 73.0 73
  176.08266 22.0 22
  177.05531 467.0 467
  178.05457 48.0 48
  179.07944 30.0 30
  182.11255 22.0 22
  183.09416 39.0 39
  185.0994 29.0 29
  186.09227 26.0 26
  187.03847 90.0 90
  187.1044 33.0 33
  187.11147 25.0 25
  188.07018 22.0 22
  188.09184 23.0 23
  189.00182 72.0 72
  189.03674 31.0 31
  189.05362 47.0 47
  189.06189 50.0 50
  189.08914 46.0 46
  190.01991 22.0 22
  190.10381 59.0 59
  191.03117 137.0 137
  191.05934 39.0 39
  191.0898 27.0 27
  193.01018 54.0 54
  193.05016 148.0 148
  193.09715 26.0 26
  193.47101 27.0 27
  194.05812 26.0 26
  194.08005 37.0 37
  195.01363 40.0 40
  195.02136 82.0 82
  195.02946 129.0 129
  196.03574 27.0 27
  196.04347 22.0 22
  197.129 26.0 26
  199.0302 23.0 23
  199.07491 23.0 23
  199.11249 74.0 74
  200.08597 26.0 26
  201.05246 178.0 178
  201.06252 50.0 50
  201.0921 43.0 43
  201.34584 26.0 26
  202.05354 46.0 46
  203.03346 22.0 22
  203.06796 112.0 112
  204.06021 23.0 23
  205.03578 50.0 50
  205.04915 380.0 380
  205.06194 25.0 25
  205.09135 50.0 50
  206.05537 33.0 33
  207.06351 48.0 48
  208.09583 52.0 52
  211.10794 23.0 23
  212.11177 26.0 26
  213.03526 27.0 27
  213.05127 59.0 59
  213.06201 27.0 27
  213.12096 48.0 48
  214.06079 29.0 29
  215.03806 27.0 27
  215.07132 57.0 57
  217.03639 26.0 26
  217.05687 47.0 47
  217.08241 61.0 61
  217.101 26.0 26
  219.03397 144.0 144
  219.06462 102.0 102
  219.10814 25.0 25
  220.03583 31.0 31
  220.06581 26.0 26
  220.10565 22.0 22
  221.04707 134.0 134
  221.08543 26.0 26
  222.05641 50.0 50
  223.05739 89.0 89
  223.06522 39.0 39
  227.02029 46.0 46
  229.04662 103.0 103
  229.05893 27.0 27
  230.04617 29.0 29
  231.06078 97.0 97
  232.13271 22.0 22
  232.14972 33.0 33
  232.9915 48.0 48
  233.04396 666.0 665
  233.07802 59.0 59
  233.11371 23.0 23
  233.24875 26.0 26
  234.04927 99.0 99
  235.04811 69.0 69
  237.04008 131.0 131
  237.08095 27.0 27
  237.21713 27.0 27
  239.06139 22.0 22
  239.10744 63.0 63
  241.12898 22.0 22
  242.11456 26.0 26
  243.02336 33.0 33
  243.09772 33.0 33
  244.09312 22.0 22
  245.01782 22.0 22
  245.08018 59.0 59
  245.11739 26.0 26
  246.09926 23.0 23
  246.1232 23.0 23
  247.04503 121.0 121
  247.05814 319.0 319
  248.06348 26.0 26
  248.09259 51.0 51
  248.13777 25.0 25
  251.02548 60.0 60
  251.03732 136.0 136
  251.0573 275.0 275
  251.10591 22.0 22
  251.1179 23.0 23
  252.05942 87.0 87
  253.05753 27.0 27
  253.06786 26.0 26
  257.04517 80.0 80
  257.05865 25.0 25
  257.07391 23.0 23
  257.12036 59.0 59
  259.0636 52.0 52
  259.12695 51.0 51
  261.0311 127.0 127
  261.04279 171.0 171
  261.07825 31.0 31
  262.03091 72.0 72
  263.04578 70.0 70
  265.05582 29.0 29
  265.06946 22.0 22
  269.069 48.0 48
  269.10385 33.0 33
  269.11594 35.0 35
  271.0231 29.0 29
  271.09998 22.0 22
  272.15219 26.0 26
  275.04938 73.0 73
  275.06622 33.0 33
  275.12903 54.0 54
  276.84091 34.0 34
  277.05258 40.0 40
  277.13913 82.0 82
  279.05228 131.0 131
  279.06439 35.0 35
  280.04218 31.0 31
  280.06104 48.0 48
  281.06509 47.0 47
  283.06863 26.0 26
  285.02402 39.0 39
  285.10815 35.0 35
  285.13123 26.0 26
  287.12881 47.0 47
  287.15634 22.0 22
  289.07724 30.0 30
  290.05038 31.0 31
  293.04297 25.0 25
  293.0553 26.0 26
  293.09824 23.0 23
  294.06778 23.0 23
  294.71994 25.0 25
  295.09125 23.0 23
  303.12567 51.0 51
  304.11609 23.0 23
  304.13129 26.0 26
  307.04459 1000.0 999
  308.043 87.0 87
  308.05881 73.0 73
  309.04752 48.0 48
  309.06915 74.0 74
  311.0957 31.0 31
  313.12152 22.0 22
  321.05432 38.0 38
  321.06583 78.0 78
  321.1427 61.0 61
  325.01544 25.0 25
  325.04498 240.0 240
  325.06094 469.0 469
  325.11163 30.0 30
  326.04974 85.0 85
  326.06488 108.0 108
  326.08133 27.0 27
  327.05652 70.0 70
  327.09149 22.0 22
  331.12872 60.0 60
  332.11545 27.0 27
  336.14615 30.0 30
  339.15207 23.0 23
  341.09799 25.0 25
  342.10834 26.0 26
  349.12668 25.0 25
  349.14209 25.0 25
  351.13187 23.0 23
  353.0502 68.0 68
  359.0997 27.0 27
  359.11331 26.0 26
  359.12396 23.0 23
  367.08691 47.0 47
  367.14008 27.0 27
  378.09302 22.0 22
  378.13043 52.0 52
//
