ACCESSION: MSBNK-RIKEN-PR303996
RECORD_TITLE: Matairesinol; LC-ESI-QTOF; MS2
DATE: 2019.03.28
AUTHORS: Tetsuya Mori, Center for Sustainable Resource Science, RIKEN
LICENSE: CC BY-NC-SA
PUBLICATION: Tsugawa H., Nakabayashi R., Mori T., Yamada Y., Takahashi M., Rai A., Sugiyama R., Yamamoto H., Nakaya T., Yamazaki M., Kooke R., Bac-Molenaar JA., Oztolan-Erol N., Keurentjes JJB., Arita M., Saito K. (2019) "A cheminformatics approach to characterize metabolomes in stable-isotope-labeled organisms" Nature Methods 16(4):295-298. [doi:10.1038/s41592-019-0358-2]
COMMENT: registered in RIKEN PlaSMA
CH$NAME: Matairesinol
CH$COMPOUND_CLASS: Dibenzylbutyrolactone lignans
CH$FORMULA: C20H22O6
CH$EXACT_MASS: 358.39
CH$SMILES: COC1=C(O)C=CC(C[C@H]2COC(=O)[C@@H]2CC2=CC(OC)=C(O)C=C2)=C1
CH$IUPAC: InChI=1S/C20H22O6/c1-24-18-9-12(3-5-16(18)21)7-14-11-26-20(23)15(14)8-13-4-6-17(22)19(10-13)25-2/h3-6,9-10,14-15,21-22H,7-8,11H2,1-2H3/t14-,15+/m0/s1
CH$LINK: INCHIKEY MATGKVZWFZHCLI-LSDHHAIUSA-N
AC$INSTRUMENT: LC, Waters Acquity UPLC System; MS, Waters Xevo G2 Q-Tof
AC$INSTRUMENT_TYPE: LC-ESI-QTOF
AC$MASS_SPECTROMETRY: MS_TYPE MS2
AC$MASS_SPECTROMETRY: ION_MODE POSITIVE
AC$MASS_SPECTROMETRY: COLLISION_ENERGY 6V
AC$MASS_SPECTROMETRY: DESOLVATION_GAS_FLOW 800/h
AC$MASS_SPECTROMETRY: DESOLVATION_TEMPERATURE 450 C
AC$MASS_SPECTROMETRY: IONIZATION ESI
AC$CHROMATOGRAPHY: CAPILLARY_VOLTAGE +3.00 kV
AC$CHROMATOGRAPHY: COLUMN_NAME Acquity bridged ethyl hybrid C18 (1.7 um, 2.1 mm * 100 mm, Waters)
AC$CHROMATOGRAPHY: COLUMN_TEMPERATURE 40 C
AC$CHROMATOGRAPHY: FLOW_GRADIENT A/B = (99.5%/0.5% at 0 min, 99.5%/0.5% at 0.1 min, 20%/80% at 10 min, 0.5%/99.5% at 10.1 min, 0.5%/99.5% at 12.0 min, 99.5%/0.5% at 12.1 min, 99.5%/0.5% at 15.0 min)
AC$CHROMATOGRAPHY: FLOW_RATE 0.3 ml/min at 0 min, 0.3 ml/min at 10 min, 0.4 ml/min at 10.1 min, 0.4 ml/min at 14.4 min, 0.3 ml/min at 14.5 min
AC$CHROMATOGRAPHY: RETENTION_TIME 5.957433
AC$CHROMATOGRAPHY: SOLVENT A water including 0.1% formic acid
AC$CHROMATOGRAPHY: SOLVENT B acetonitrile including 0.1% formic acid
MS$FOCUSED_ION: PRECURSOR_TYPE [M+H]+
MS$FOCUSED_ION: PRECURSOR_M/Z 359.1489149
PK$SPLASH: splash10-000i-0910000000-4d831d5a78bd4c3dbb4c
PK$NUM_PEAK: 60
PK$PEAK: m/z int. rel.int.
  103.04696 8.0 8
  103.05424 14.0 14
  103.06033 9.0 9
  119.04942 8.0 8
  122.03737 21.0 21
  123.04116 5.0 5
  131.04836 133.0 133
  132.04956 20.0 20
  135.0417 6.0 6
  135.07657 5.0 5
  137.03909 10.0 10
  137.05913 1000.0 999
  138.05389 18.0 18
  138.06262 102.0 102
  139.06953 6.0 6
  143.04753 6.0 6
  145.06841 8.0 8
  147.04166 12.0 12
  149.05733 18.0 18
  151.03542 6.0 6
  151.07368 15.0 15
  157.05913 6.0 6
  157.06721 7.0 7
  161.05522 5.0 5
  163.07722 20.0 20
  164.07581 6.0 6
  165.05363 13.0 13
  174.06694 7.0 7
  175.06976 7.0 7
  177.05273 12.0 12
  177.06346 6.0 6
  178.05728 10.0 10
  189.08994 8.0 8
  191.06729 6.0 6
  203.07587 17.0 17
  203.08923 12.0 12
  204.09125 6.0 6
  231.08273 45.0 45
  232.07973 13.0 13
  232.08951 10.0 10
  245.09492 6.0 6
  246.09399 5.0 5
  248.07738 8.0 8
  248.08641 8.0 8
  248.09653 7.0 7
  249.08374 16.0 16
  259.07568 20.0 20
  260.07693 6.0 6
  260.08972 10.0 10
  263.10739 31.0 31
  264.10449 9.0 9
  273.08731 6.0 6
  273.09723 7.0 7
  274.09247 5.0 5
  276.08594 9.0 9
  277.08896 6.0 6
  291.08884 5.0 5
  291.10535 27.0 27
  292.11191 18.0 18
  306.12134 7.0 7
//
