ACCESSION: MSBNK-RIKEN-PR305682
RECORD_TITLE: Quercetin-3-O-glucosyl-6''-acetate; LC-ESI-QTOF; MS2
DATE: 2019.03.28
AUTHORS: Tetsuya Mori, Center for Sustainable Resource Science, RIKEN
LICENSE: CC BY-NC-SA
PUBLICATION: Tsugawa H., Nakabayashi R., Mori T., Yamada Y., Takahashi M., Rai A., Sugiyama R., Yamamoto H., Nakaya T., Yamazaki M., Kooke R., Bac-Molenaar JA., Oztolan-Erol N., Keurentjes JJB., Arita M., Saito K. (2019) "A cheminformatics approach to characterize metabolomes in stable-isotope-labeled organisms" Nature Methods 16(4):295-298. [doi:10.1038/s41592-019-0358-2]
COMMENT: registered in RIKEN PlaSMA
CH$NAME: Quercetin-3-O-glucosyl-6''-acetate
CH$COMPOUND_CLASS: Flavonoid-3-O-glycosides
CH$FORMULA: C23H22O13
CH$EXACT_MASS: 506.416
CH$SMILES: CC(=O)OCC1OC(OC2=C(OC3=CC(O)=CC(O)=C3C2=O)C2=CC(O)=C(O)C=C2)C(O)C(O)C1O
CH$IUPAC: InChI=1S/C23H22O13/c1-8(24)33-7-15-17(29)19(31)20(32)23(35-15)36-22-18(30)16-13(28)5-10(25)6-14(16)34-21(22)9-2-3-11(26)12(27)4-9/h2-6,15,17,19-20,23,25-29,31-32H,7H2,1H3
CH$LINK: INCHIKEY IGLUNMMNDNWZOA-UHFFFAOYSA-N
AC$INSTRUMENT: LC, Waters Acquity UPLC System; MS, Waters Xevo G2 Q-Tof
AC$INSTRUMENT_TYPE: LC-ESI-QTOF
AC$MASS_SPECTROMETRY: MS_TYPE MS2
AC$MASS_SPECTROMETRY: ION_MODE NEGATIVE
AC$MASS_SPECTROMETRY: COLLISION_ENERGY 6V
AC$MASS_SPECTROMETRY: DESOLVATION_GAS_FLOW 800/h
AC$MASS_SPECTROMETRY: DESOLVATION_TEMPERATURE 450 C
AC$MASS_SPECTROMETRY: IONIZATION ESI
AC$CHROMATOGRAPHY: CAPILLARY_VOLTAGE -2.75 kV
AC$CHROMATOGRAPHY: COLUMN_NAME Acquity bridged ethyl hybrid C18 (1.7 um, 2.1 mm * 100 mm, Waters)
AC$CHROMATOGRAPHY: COLUMN_TEMPERATURE 40 C
AC$CHROMATOGRAPHY: FLOW_GRADIENT A/B = (99.5%/0.5% at 0 min, 99.5%/0.5% at 0.1 min, 20%/80% at 10 min, 0.5%/99.5% at 10.1 min, 0.5%/99.5% at 12.0 min, 99.5%/0.5% at 12.1 min, 99.5%/0.5% at 15.0 min)
AC$CHROMATOGRAPHY: FLOW_RATE 0.3 ml/min at 0 min, 0.3 ml/min at 10 min, 0.4 ml/min at 10.1 min, 0.4 ml/min at 14.4 min, 0.3 ml/min at 14.5 min
AC$CHROMATOGRAPHY: RETENTION_TIME 4.4452
AC$CHROMATOGRAPHY: SOLVENT A water including 0.1% formic acid
AC$CHROMATOGRAPHY: SOLVENT B acetonitrile including 0.1% formic acid
MS$FOCUSED_ION: PRECURSOR_TYPE [M-H]-
MS$FOCUSED_ION: PRECURSOR_M/Z 505.09876434783
PK$SPLASH: splash10-0udi-0149000000-3224043963fd9c2e589d
PK$NUM_PEAK: 32
PK$PEAK: m/z int. rel.int.
  107.0112 7.0 7
  121.02776 6.0 6
  151.00177 91.0 91
  163.00327 6.0 6
  178.9978 49.0 49
  179.99963 8.0 8
  211.0361 6.0 6
  226.02142 8.0 8
  226.03078 10.0 10
  227.03583 7.0 7
  242.01733 15.0 15
  243.02925 20.0 20
  245.03986 6.0 6
  254.02321 16.0 16
  255.02765 148.0 148
  256.03036 22.0 22
  256.04272 6.0 6
  257.03677 6.0 6
  270.00836 16.0 16
  271.02356 318.0 318
  272.00906 8.0 8
  272.02911 55.0 55
  273.03284 15.0 15
  283.02258 9.0 9
  299.01758 12.0 12
  300.02548 1000.0 999
  301.03201 339.0 339
  302.03217 77.0 77
  303.03516 11.0 11
  353.09036 6.0 6
  463.08887 6.0 6
  505.09033 20.0 20
//
