ACCESSION: MSBNK-RIKEN-PR306618
RECORD_TITLE: isorhamnetin-3-O-glucoside; LC-ESI-QTOF; MS2
DATE: 2019.03.28
AUTHORS: Tetsuya Mori, Center for Sustainable Resource Science, RIKEN
LICENSE: CC BY-NC-SA
PUBLICATION: Tsugawa H., Nakabayashi R., Mori T., Yamada Y., Takahashi M., Rai A., Sugiyama R., Yamamoto H., Nakaya T., Yamazaki M., Kooke R., Bac-Molenaar JA., Oztolan-Erol N., Keurentjes JJB., Arita M., Saito K. (2019) "A cheminformatics approach to characterize metabolomes in stable-isotope-labeled organisms" Nature Methods 16(4):295-298. [doi:10.1038/s41592-019-0358-2]
COMMENT: registered in RIKEN PlaSMA
CH$NAME: isorhamnetin-3-O-glucoside
CH$COMPOUND_CLASS: Flavonoid-3-O-glycosides
CH$FORMULA: C22H22O12
CH$EXACT_MASS: 478.406
CH$SMILES: COC1=C(O)C=CC(=C1)C1=C(OC2OC(CO)C(O)C(O)C2O)C(=O)C2=C(O)C=C(O)C=C2O1
CH$IUPAC: InChI=1S/C22H22O12/c1-31-12-4-8(2-3-10(12)25)20-21(17(28)15-11(26)5-9(24)6-13(15)32-20)34-22-19(30)18(29)16(27)14(7-23)33-22/h2-6,14,16,18-19,22-27,29-30H,7H2,1H3
CH$LINK: INCHIKEY CQLRUIIRRZYHHS-UHFFFAOYSA-N
AC$INSTRUMENT: LC, Waters Acquity UPLC System; MS, Waters Xevo G2 Q-Tof
AC$INSTRUMENT_TYPE: LC-ESI-QTOF
AC$MASS_SPECTROMETRY: MS_TYPE MS2
AC$MASS_SPECTROMETRY: ION_MODE NEGATIVE
AC$MASS_SPECTROMETRY: COLLISION_ENERGY 6V
AC$MASS_SPECTROMETRY: DESOLVATION_GAS_FLOW 800/h
AC$MASS_SPECTROMETRY: DESOLVATION_TEMPERATURE 450 C
AC$MASS_SPECTROMETRY: IONIZATION ESI
AC$CHROMATOGRAPHY: CAPILLARY_VOLTAGE -2.75 kV
AC$CHROMATOGRAPHY: COLUMN_NAME Acquity bridged ethyl hybrid C18 (1.7 um, 2.1 mm * 100 mm, Waters)
AC$CHROMATOGRAPHY: COLUMN_TEMPERATURE 40 C
AC$CHROMATOGRAPHY: FLOW_GRADIENT A/B = (99.5%/0.5% at 0 min, 99.5%/0.5% at 0.1 min, 20%/80% at 10 min, 0.5%/99.5% at 10.1 min, 0.5%/99.5% at 12.0 min, 99.5%/0.5% at 12.1 min, 99.5%/0.5% at 15.0 min)
AC$CHROMATOGRAPHY: FLOW_RATE 0.3 ml/min at 0 min, 0.3 ml/min at 10 min, 0.4 ml/min at 10.1 min, 0.4 ml/min at 14.4 min, 0.3 ml/min at 14.5 min
AC$CHROMATOGRAPHY: RETENTION_TIME 4.377133
AC$CHROMATOGRAPHY: SOLVENT A water including 0.1% formic acid
AC$CHROMATOGRAPHY: SOLVENT B acetonitrile including 0.1% formic acid
MS$FOCUSED_ION: PRECURSOR_TYPE [M-H]-
MS$FOCUSED_ION: PRECURSOR_M/Z 477.10384964783
PK$SPLASH: splash10-004i-0076900000-7a1d53f946d22ed4f70e
PK$NUM_PEAK: 30
PK$PEAK: m/z int. rel.int.
  125.02319 6.0 6
  151.00534 11.0 11
  178.99699 8.0 8
  199.03931 20.0 20
  227.03654 8.0 8
  227.04546 6.0 6
  242.01801 9.0 9
  243.02805 174.0 174
  244.03262 29.0 29
  257.04391 63.0 63
  258.05399 11.0 11
  270.01566 22.0 22
  270.02835 12.0 12
  271.01831 72.0 72
  271.02737 160.0 160
  272.03067 29.0 29
  285.04068 125.0 125
  286.03598 17.0 17
  286.05084 35.0 35
  299.00156 5.0 5
  299.01868 66.0 66
  300.01971 17.0 17
  300.03085 16.0 16
  314.0419 426.0 426
  315.04947 173.0 173
  316.05127 29.0 29
  329.06561 9.0 9
  357.06128 15.0 15
  477.10507 1000.0 999
  477.15134 6.0 6
//
