ACCESSION: MSBNK-RIKEN-PR311020
RECORD_TITLE: Feruloyl tyramine; LC-ESI-QTOF; MS2
DATE: 2019.03.28
AUTHORS: Tetsuya Mori, Center for Sustainable Resource Science, RIKEN
LICENSE: CC BY-NC-SA
PUBLICATION: Tsugawa H., Nakabayashi R., Mori T., Yamada Y., Takahashi M., Rai A., Sugiyama R., Yamamoto H., Nakaya T., Yamazaki M., Kooke R., Bac-Molenaar JA., Oztolan-Erol N., Keurentjes JJB., Arita M., Saito K. (2019) "A cheminformatics approach to characterize metabolomes in stable-isotope-labeled organisms" Nature Methods 16(4):295-298. [doi:10.1038/s41592-019-0358-2]
COMMENT: Annotation level-3
CH$NAME: Feruloyl tyramine
CH$COMPOUND_CLASS: Ferulic acid and derivatives
CH$FORMULA: C18H19NO4
CH$EXACT_MASS: 313.353
CH$SMILES: O=C(C=CC=1C=CC(O)=C(OC)C=1)NCCC2=CC=C(O)C=C2
CH$IUPAC: InChI=1S/C18H19NO4/c1-23-17-12-14(4-8-16(17)21)5-9-18(22)19-11-10-13-2-6-15(20)7-3-13/h2-9,12,20-21H,10-11H2,1H3,(H,19,22)
CH$LINK: INCHIKEY NPNNKDMSXVRADT-UHFFFAOYSA-N
AC$INSTRUMENT: LC, Waters Acquity UPLC System; MS, Waters Xevo G2 Q-Tof
AC$INSTRUMENT_TYPE: LC-ESI-QTOF
AC$MASS_SPECTROMETRY: MS_TYPE MS2
AC$MASS_SPECTROMETRY: ION_MODE POSITIVE
AC$MASS_SPECTROMETRY: COLLISION_ENERGY 6V
AC$MASS_SPECTROMETRY: DESOLVATION_GAS_FLOW 800/h
AC$MASS_SPECTROMETRY: DESOLVATION_TEMPERATURE 450 C
AC$MASS_SPECTROMETRY: IONIZATION ESI
AC$CHROMATOGRAPHY: CAPILLARY_VOLTAGE +3.00 kV
AC$CHROMATOGRAPHY: COLUMN_NAME Acquity bridged ethyl hybrid C18 (1.7 um, 2.1 mm * 100 mm, Waters)
AC$CHROMATOGRAPHY: COLUMN_TEMPERATURE 40 C
AC$CHROMATOGRAPHY: FLOW_GRADIENT A/B = (99.5%/0.5% at 0 min, 99.5%/0.5% at 0.1 min, 20%/80% at 10 min, 0.5%/99.5% at 10.1 min, 0.5%/99.5% at 12.0 min, 99.5%/0.5% at 12.1 min, 99.5%/0.5% at 15.0 min)
AC$CHROMATOGRAPHY: FLOW_RATE 0.3 ml/min at 0 min, 0.3 ml/min at 10 min, 0.4 ml/min at 10.1 min, 0.4 ml/min at 14.4 min, 0.3 ml/min at 14.5 min
AC$CHROMATOGRAPHY: RETENTION_TIME 5.13
AC$CHROMATOGRAPHY: SOLVENT A water including 0.1% formic acid
AC$CHROMATOGRAPHY: SOLVENT B acetonitrile including 0.1% formic acid
MS$FOCUSED_ION: PRECURSOR_TYPE [M+H]+
MS$FOCUSED_ION: PRECURSOR_M/Z 314.1385
PK$SPLASH: splash10-03fr-0906000000-b0796e9887a54d5f38c3
PK$NUM_PEAK: 21
PK$PEAK: m/z int. rel.int.
  72.7438 17.0 23
  89.04057 19.0 25
  93.06462 17.0 23
  93.07012 27.0 36
  103.05141 40.0 53
  116.04427 17.0 23
  117.02946 20.0 26
  117.03535 37.0 49
  121.04365 17.0 23
  121.0619 95.0 126
  121.0685 115.0 152
  131.0136 20.0 26
  145.02388 29.0 38
  145.03224 87.0 115
  147.05029 18.0 24
  177.05556 477.0 632
  178.05545 17.0 23
  178.06371 20.0 26
  181.09714 18.0 24
  200.98479 17.0 23
  314.13968 754.0 999
//
