ACCESSION: MSBNK-RIKEN-PR304145
RECORD_TITLE: 3',5'-Dimethoxy-4'-hydroxyacetophenone; LC-ESI-QTOF; MS2
DATE: 2019.03.28
AUTHORS: Tetsuya Mori, Center for Sustainable Resource Science, RIKEN
LICENSE: CC BY-NC-SA
PUBLICATION: Tsugawa H., Nakabayashi R., Mori T., Yamada Y., Takahashi M., Rai A., Sugiyama R., Yamamoto H., Nakaya T., Yamazaki M., Kooke R., Bac-Molenaar JA., Oztolan-Erol N., Keurentjes JJB., Arita M., Saito K. (2019) "A cheminformatics approach to characterize metabolomes in stable-isotope-labeled organisms" Nature Methods 16(4):295-298. [doi:10.1038/s41592-019-0358-2]
COMMENT: registered in RIKEN PlaSMA
CH$NAME: 3',5'-Dimethoxy-4'-hydroxyacetophenone
CH$COMPOUND_CLASS: Alkyl-phenylketones
CH$FORMULA: C10H12O4
CH$EXACT_MASS: 196.202
CH$SMILES: COC1=CC(=CC(OC)=C1O)C(C)=O
CH$IUPAC: InChI=1S/C10H12O4/c1-6(11)7-4-8(13-2)10(12)9(5-7)14-3/h4-5,12H,1-3H3
CH$LINK: INCHIKEY OJOBTAOGJIWAGB-UHFFFAOYSA-N
AC$INSTRUMENT: LC, Waters Acquity UPLC System; MS, Waters Xevo G2 Q-Tof
AC$INSTRUMENT_TYPE: LC-ESI-QTOF
AC$MASS_SPECTROMETRY: MS_TYPE MS2
AC$MASS_SPECTROMETRY: ION_MODE POSITIVE
AC$MASS_SPECTROMETRY: COLLISION_ENERGY 6V
AC$MASS_SPECTROMETRY: DESOLVATION_GAS_FLOW 800/h
AC$MASS_SPECTROMETRY: DESOLVATION_TEMPERATURE 450 C
AC$MASS_SPECTROMETRY: IONIZATION ESI
AC$CHROMATOGRAPHY: CAPILLARY_VOLTAGE +3.00 kV
AC$CHROMATOGRAPHY: COLUMN_NAME Acquity bridged ethyl hybrid C18 (1.7 um, 2.1 mm * 100 mm, Waters)
AC$CHROMATOGRAPHY: COLUMN_TEMPERATURE 40 C
AC$CHROMATOGRAPHY: FLOW_GRADIENT A/B = (99.5%/0.5% at 0 min, 99.5%/0.5% at 0.1 min, 20%/80% at 10 min, 0.5%/99.5% at 10.1 min, 0.5%/99.5% at 12.0 min, 99.5%/0.5% at 12.1 min, 99.5%/0.5% at 15.0 min)
AC$CHROMATOGRAPHY: FLOW_RATE 0.3 ml/min at 0 min, 0.3 ml/min at 10 min, 0.4 ml/min at 10.1 min, 0.4 ml/min at 14.4 min, 0.3 ml/min at 14.5 min
AC$CHROMATOGRAPHY: RETENTION_TIME 4.313133
AC$CHROMATOGRAPHY: SOLVENT A water including 0.1% formic acid
AC$CHROMATOGRAPHY: SOLVENT B acetonitrile including 0.1% formic acid
MS$FOCUSED_ION: PRECURSOR_TYPE [M+H]+
MS$FOCUSED_ION: PRECURSOR_M/Z 197.0808353
PK$SPLASH: splash10-0006-1900000000-e28a9225593147b67664
PK$NUM_PEAK: 23
PK$PEAK: m/z int. rel.int.
  77.03216 18.0 18
  82.04639 26.0 26
  92.02462 18.0 18
  94.03774 18.0 18
  95.05215 33.0 33
  95.48398 47.0 47
  97.01905 29.0 29
  97.02911 76.0 76
  110.02098 19.0 19
  111.0434 18.0 18
  123.00642 21.0 21
  123.04659 47.0 47
  125.02357 302.0 302
  125.1147 18.0 18
  126.01826 20.0 20
  126.02787 67.0 67
  132.96848 18.0 18
  138.03348 21.0 21
  140.04747 1000.0 999
  141.04192 21.0 21
  141.05348 25.0 25
  153.04913 26.0 26
  164.03328 19.0 19
//
