ACCESSION: MSBNK-RIKEN-PR306918
RECORD_TITLE: Cyanidine-3-O-sambubioside; LC-ESI-QTOF; MS2
DATE: 2019.03.28
AUTHORS: Tetsuya Mori, Center for Sustainable Resource Science, RIKEN
LICENSE: CC BY-NC-SA
PUBLICATION: Tsugawa H., Nakabayashi R., Mori T., Yamada Y., Takahashi M., Rai A., Sugiyama R., Yamamoto H., Nakaya T., Yamazaki M., Kooke R., Bac-Molenaar JA., Oztolan-Erol N., Keurentjes JJB., Arita M., Saito K. (2019) "A cheminformatics approach to characterize metabolomes in stable-isotope-labeled organisms" Nature Methods 16(4):295-298. [doi:10.1038/s41592-019-0358-2]
COMMENT: registered in RIKEN PlaSMA
CH$NAME: Cyanidine-3-O-sambubioside
CH$COMPOUND_CLASS: Anthocyanidin-3-O-glycosides
CH$FORMULA: [C26H29O15]+
CH$EXACT_MASS: 581.503
CH$SMILES: OCC1OC(OC2=C([O+]=C3C=C(O)C=C(O)C3=C2)C2=CC(O)=C(O)C=C2)C(OC2OCC(O)C(O)C2O)C(O)C1O
CH$IUPAC: InChI=1S/C26H28O15/c27-7-18-20(34)21(35)24(41-25-22(36)19(33)15(32)8-37-25)26(40-18)39-17-6-11-13(30)4-10(28)5-16(11)38-23(17)9-1-2-12(29)14(31)3-9/h1-6,15,18-22,24-27,32-36H,7-8H2,(H3-,28,29,30,31)/p+1
CH$LINK: INCHIKEY ZPPQIOUITZSYAO-UHFFFAOYSA-O
AC$INSTRUMENT: LC, Waters Acquity UPLC System; MS, Waters Xevo G2 Q-Tof
AC$INSTRUMENT_TYPE: LC-ESI-QTOF
AC$MASS_SPECTROMETRY: MS_TYPE MS2
AC$MASS_SPECTROMETRY: ION_MODE NEGATIVE
AC$MASS_SPECTROMETRY: COLLISION_ENERGY 6V
AC$MASS_SPECTROMETRY: DESOLVATION_GAS_FLOW 800/h
AC$MASS_SPECTROMETRY: DESOLVATION_TEMPERATURE 450 C
AC$MASS_SPECTROMETRY: IONIZATION ESI
AC$CHROMATOGRAPHY: CAPILLARY_VOLTAGE -2.75 kV
AC$CHROMATOGRAPHY: COLUMN_NAME Acquity bridged ethyl hybrid C18 (1.7 um, 2.1 mm * 100 mm, Waters)
AC$CHROMATOGRAPHY: COLUMN_TEMPERATURE 40 C
AC$CHROMATOGRAPHY: FLOW_GRADIENT A/B = (99.5%/0.5% at 0 min, 99.5%/0.5% at 0.1 min, 20%/80% at 10 min, 0.5%/99.5% at 10.1 min, 0.5%/99.5% at 12.0 min, 99.5%/0.5% at 12.1 min, 99.5%/0.5% at 15.0 min)
AC$CHROMATOGRAPHY: FLOW_RATE 0.3 ml/min at 0 min, 0.3 ml/min at 10 min, 0.4 ml/min at 10.1 min, 0.4 ml/min at 14.4 min, 0.3 ml/min at 14.5 min
AC$CHROMATOGRAPHY: RETENTION_TIME 2.87875
AC$CHROMATOGRAPHY: SOLVENT A water including 0.1% formic acid
AC$CHROMATOGRAPHY: SOLVENT B acetonitrile including 0.1% formic acid
MS$FOCUSED_ION: PRECURSOR_TYPE [M-2H]-
MS$FOCUSED_ION: PRECURSOR_M/Z 579.13499521576
PK$SPLASH: splash10-001i-0090000000-06d31e010b90922fc888
PK$NUM_PEAK: 52
PK$PEAK: m/z int. rel.int.
  50.00961 8.0 8
  136.01285 15.0 15
  147.00728 27.0 27
  149.01956 7.0 7
  160.02411 15.0 15
  162.92744 7.0 7
  179.10384 6.0 6
  189.01984 13.0 13
  189.05687 11.0 11
  190.00961 11.0 11
  190.2048 9.0 9
  196.04863 7.0 7
  201.0213 9.0 9
  212.04089 8.0 8
  213.88278 9.0 9
  214.02257 9.0 9
  217.01474 13.0 13
  229.04738 15.0 15
  240.0432 7.0 7
  241.04227 14.0 14
  242.04958 11.0 11
  255.026 18.0 18
  255.03658 16.0 16
  256.03351 7.0 7
  263.04895 7.0 7
  267.01785 6.0 6
  271.01682 13.0 13
  282.05206 7.0 7
  282.50961 11.0 11
  283.02286 56.0 56
  283.06104 9.0 9
  284.03113 1000.0 999
  285.03271 225.0 225
  285.05811 11.0 11
  286.03983 23.0 23
  294.98349 14.0 14
  296.06088 9.0 9
  297.02774 8.0 8
  298.05231 9.0 9
  309.03598 25.0 25
  309.05051 9.0 9
  311.04483 8.0 8
  311.05945 24.0 24
  312.04413 9.0 9
  312.08896 8.0 8
  323.05475 16.0 16
  338.03516 7.0 7
  339.05249 26.0 26
  340.0419 7.0 7
  340.05347 15.0 15
  341.06464 12.0 12
  505.34506 7.0 7
//
