ACCESSION: MSBNK-RIKEN-PR300079
RECORD_TITLE: Tabersonine; LC-ESI-QTOF; MS2
DATE: 2019.03.28
AUTHORS: Tetsuya Mori, Center for Sustainable Resource Science, RIKEN
LICENSE: CC BY-NC-SA
PUBLICATION: Tsugawa H., Nakabayashi R., Mori T., Yamada Y., Takahashi M., Rai A., Sugiyama R., Yamamoto H., Nakaya T., Yamazaki M., Kooke R., Bac-Molenaar JA., Oztolan-Erol N., Keurentjes JJB., Arita M., Saito K. (2019) "A cheminformatics approach to characterize metabolomes in stable-isotope-labeled organisms" Nature Methods 16(4):295-298. [doi:10.1038/s41592-019-0358-2]
COMMENT: registered in RIKEN PlaSMA
CH$NAME: Tabersonine
CH$COMPOUND_CLASS: Plumeran-type alkaloids
CH$FORMULA: C21H24N2O2
CH$EXACT_MASS: 336.435
CH$SMILES: CC[C@@]12CC(C(=O)OC)=C3NC4=CC=CC=C4[C@@]33CCN(CC=C1)[C@@H]23
CH$IUPAC: InChI=1S/C21H24N2O2/c1-3-20-9-6-11-23-12-10-21(19(20)23)15-7-4-5-8-16(15)22-17(21)14(13-20)18(24)25-2/h4-9,19,22H,3,10-13H2,1-2H3/t19-,20-,21-/m0/s1
CH$LINK: INCHIKEY FNGGIPWAZSFKCN-ACRUOGEOSA-N
AC$INSTRUMENT: LC, Waters Acquity UPLC System; MS, Waters Xevo G2 Q-Tof
AC$INSTRUMENT_TYPE: LC-ESI-QTOF
AC$MASS_SPECTROMETRY: MS_TYPE MS2
AC$MASS_SPECTROMETRY: ION_MODE POSITIVE
AC$MASS_SPECTROMETRY: COLLISION_ENERGY 6V
AC$MASS_SPECTROMETRY: DESOLVATION_GAS_FLOW 800/h
AC$MASS_SPECTROMETRY: DESOLVATION_TEMPERATURE 450 C
AC$MASS_SPECTROMETRY: IONIZATION ESI
AC$CHROMATOGRAPHY: CAPILLARY_VOLTAGE +3.00 kV
AC$CHROMATOGRAPHY: COLUMN_NAME Acquity bridged ethyl hybrid C18 (1.7 um, 2.1 mm * 100 mm, Waters)
AC$CHROMATOGRAPHY: COLUMN_TEMPERATURE 40 C
AC$CHROMATOGRAPHY: FLOW_GRADIENT A/B = (99.5%/0.5% at 0 min, 99.5%/0.5% at 0.1 min, 20%/80% at 10 min, 0.5%/99.5% at 10.1 min, 0.5%/99.5% at 12.0 min, 99.5%/0.5% at 12.1 min, 99.5%/0.5% at 15.0 min)
AC$CHROMATOGRAPHY: FLOW_RATE 0.3 ml/min at 0 min, 0.3 ml/min at 10 min, 0.4 ml/min at 10.1 min, 0.4 ml/min at 14.4 min, 0.3 ml/min at 14.5 min
AC$CHROMATOGRAPHY: RETENTION_TIME 5.19835
AC$CHROMATOGRAPHY: SOLVENT A water including 0.1% formic acid
AC$CHROMATOGRAPHY: SOLVENT B acetonitrile including 0.1% formic acid
MS$FOCUSED_ION: PRECURSOR_TYPE [M+H]+
MS$FOCUSED_ION: PRECURSOR_M/Z 337.1910545
PK$SPLASH: splash10-014i-0920000000-793ce288bb19ac1e8f14
PK$NUM_PEAK: 234
PK$PEAK: m/z int. rel.int.
  67.05495 14.0 14
  68.05093 7.0 7
  76.82303 5.0 5
  77.03498 16.0 16
  77.04028 18.0 18
  77.80371 5.0 5
  79.04501 8.0 8
  79.0501 17.0 17
  79.05531 26.0 26
  80.049 53.0 53
  80.05432 22.0 22
  81.06924 22.0 22
  82.0644 16.0 16
  82.07416 5.0 5
  91.0526 92.0 92
  92.0509 9.0 9
  92.05787 7.0 7
  92.57619 7.0 7
  93.05093 11.0 11
  93.05908 69.0 69
  93.06973 30.0 30
  94.06506 47.0 47
  102.0397 6.0 6
  103.06189 10.0 10
  105.06934 23.0 23
  106.06566 125.0 125
  107.07411 74.0 74
  108.0817 80.0 80
  109.08031 6.0 6
  110.08646 8.0 8
  110.09253 23.0 23
  113.03509 6.0 6
  115.05328 90.0 90
  115.06184 32.0 32
  116.04745 11.0 11
  116.05799 21.0 21
  117.04798 5.0 5
  117.05629 27.0 27
  117.07169 39.0 39
  118.06662 33.0 33
  119.07024 8.0 8
  119.07614 6.0 6
  120.0787 11.0 11
  121.09038 36.0 36
  122.08568 7.0 7
  122.09496 24.0 24
  127.05062 68.0 68
  127.06239 9.0 9
  128.04517 29.0 29
  128.05328 77.0 77
  128.06236 134.0 134
  129.05061 7.0 7
  129.06808 246.0 246
  130.0464 6.0 6
  130.06487 170.0 170
  130.07681 23.0 23
  131.06979 40.0 40
  132.05063 6.0 6
  132.07196 5.0 5
  132.07993 31.0 31
  133.04938 5.0 5
  133.08348 16.0 16
  134.09335 73.0 73
  134.10187 33.0 33
  135.1031 19.0 19
  136.11024 54.0 54
  139.03094 6.0 6
  140.0497 39.0 39
  140.06178 9.0 9
  140.31332 6.0 6
  141.04485 8.0 8
  141.06761 134.0 134
  141.07292 73.0 73
  142.06401 158.0 158
  142.07808 24.0 24
  143.03429 8.0 8
  143.06491 18.0 18
  143.0739 80.0 80
  143.08659 50.0 50
  144.06036 14.0 14
  144.07623 70.0 70
  144.08315 42.0 42
  145.04868 7.0 7
  145.05466 5.0 5
  145.07698 9.0 9
  145.08722 16.0 16
  146.08167 5.0 5
  146.09409 5.0 5
  148.11012 6.0 6
  151.06032 5.0 5
  152.05234 8.0 8
  152.06259 18.0 18
  153.03992 8.0 8
  153.04845 8.0 8
  153.05878 46.0 46
  153.06815 17.0 17
  153.08124 9.0 9
  154.04768 17.0 17
  154.06476 289.0 289
  155.07335 251.0 251
  156.04924 7.0 7
  156.05972 6.0 6
  156.08028 205.0 205
  157.08557 40.0 40
  157.09193 15.0 15
  158.09755 8.0 8
  159.0959 6.0 6
  160.07532 14.0 14
  162.09241 6.0 6
  165.05516 7.0 7
  166.04837 7.0 7
  166.05771 20.0 20
  166.06725 52.0 52
  167.02045 13.0 13
  167.07236 1000.0 999
  167.52846 6.0 6
  168.08015 944.0 943
  168.09833 6.0 6
  169.08139 168.0 168
  169.09604 24.0 24
  170.05026 9.0 9
  170.07806 16.0 16
  170.09444 117.0 117
  171.05276 5.0 5
  171.07098 6.0 6
  171.09821 34.0 34
  172.1071 9.0 9
  177.07133 11.0 11
  178.06631 25.0 25
  179.05829 13.0 13
  180.08037 56.0 56
  180.09755 7.0 7
  181.05544 8.0 8
  181.0912 20.0 20
  182.05241 7.0 7
  182.08786 14.0 14
  183.04517 6.0 6
  183.0648 26.0 26
  183.07272 13.0 13
  183.10373 5.0 5
  184.05193 5.0 5
  184.06818 7.0 7
  184.10477 8.0 8
  188.0782 9.0 9
  192.06036 5.0 5
  192.07338 6.0 6
  193.08345 26.0 26
  193.09471 6.0 6
  194.06264 9.0 9
  194.08397 14.0 14
  194.10074 21.0 21
  195.06049 9.0 9
  195.09134 6.0 6
  195.09816 10.0 10
  196.07388 24.0 24
  196.08778 18.0 18
  196.09615 9.0 9
  197.09264 7.0 7
  202.4469 6.0 6
  204.07019 16.0 16
  204.0813 56.0 56
  205.07774 14.0 14
  205.08641 10.0 10
  206.08485 40.0 40
  206.09883 36.0 36
  207.08253 12.0 12
  207.08989 27.0 27
  207.10028 53.0 53
  207.49216 7.0 7
  208.10562 6.0 6
  208.11823 12.0 12
  209.07378 7.0 7
  216.06992 9.0 9
  216.08093 7.0 7
  217.08655 57.0 57
  218.10056 65.0 65
  219.09346 131.0 131
  219.4426 6.0 6
  220.08083 6.0 6
  220.10161 58.0 58
  221.09552 9.0 9
  221.10648 45.0 45
  222.10406 7.0 7
  230.09804 13.0 13
  231.07494 6.0 6
  231.0909 51.0 51
  231.10362 10.0 10
  232.06383 15.0 15
  232.08511 14.0 14
  232.10155 43.0 43
  232.11087 56.0 56
  232.11981 12.0 12
  233.07697 12.0 12
  233.10602 152.0 152
  234.10942 54.0 54
  234.12312 55.0 55
  234.56604 6.0 6
  235.08922 9.0 9
  235.11295 12.0 12
  235.12091 32.0 32
  242.10097 6.0 6
  243.10527 11.0 11
  244.08083 16.0 16
  244.10916 25.0 25
  245.08604 14.0 14
  245.10342 32.0 32
  245.11705 24.0 24
  246.1189 13.0 13
  247.11626 40.0 40
  247.12617 97.0 97
  248.11351 15.0 15
  248.12686 47.0 47
  248.14941 8.0 8
  249.09625 6.0 6
  249.12003 7.0 7
  249.13835 35.0 35
  250.15358 7.0 7
  255.06522 5.0 5
  256.09961 9.0 9
  257.10712 6.0 6
  260.12341 12.0 12
  260.14468 6.0 6
  261.09027 10.0 10
  263.11649 5.0 5
  269.47183 6.0 6
  272.13962 6.0 6
  275.11206 15.0 15
  275.12732 16.0 16
  276.11237 7.0 7
  277.17499 5.0 5
  279.11383 7.0 7
  292.12616 5.0 5
  305.16953 5.0 5
  337.20239 6.0 6
//
