ACCESSION: MSBNK-RIKEN-PR300090
RECORD_TITLE: Koumidine; LC-ESI-QTOF; MS2
DATE: 2019.03.28
AUTHORS: Tetsuya Mori, Center for Sustainable Resource Science, RIKEN
LICENSE: CC BY-NC-SA
PUBLICATION: Tsugawa H., Nakabayashi R., Mori T., Yamada Y., Takahashi M., Rai A., Sugiyama R., Yamamoto H., Nakaya T., Yamazaki M., Kooke R., Bac-Molenaar JA., Oztolan-Erol N., Keurentjes JJB., Arita M., Saito K. (2019) "A cheminformatics approach to characterize metabolomes in stable-isotope-labeled organisms" Nature Methods 16(4):295-298. [doi:10.1038/s41592-019-0358-2]
COMMENT: registered in RIKEN PlaSMA
CH$NAME: Koumidine
CH$COMPOUND_CLASS: Macroline alkaloids
CH$FORMULA: C19H22N2O
CH$EXACT_MASS: 294.398
CH$SMILES: C\C=C1/CN2[C@H]3CC4=C(NC5=CC=CC=C45)[C@@H]2C[C@H]1[C@@H]3CO
CH$IUPAC: InChI=1S/C19H22N2O/c1-2-11-9-21-17-8-14-12-5-3-4-6-16(12)20-19(14)18(21)7-13(11)15(17)10-22/h2-6,13,15,17-18,20,22H,7-10H2,1H3/b11-2+/t13-,15+,17+,18+/m1/s1
CH$LINK: INCHIKEY VXTDUGOBAOLMED-CPEJFPLXSA-N
AC$INSTRUMENT: LC, Waters Acquity UPLC System; MS, Waters Xevo G2 Q-Tof
AC$INSTRUMENT_TYPE: LC-ESI-QTOF
AC$MASS_SPECTROMETRY: MS_TYPE MS2
AC$MASS_SPECTROMETRY: ION_MODE POSITIVE
AC$MASS_SPECTROMETRY: COLLISION_ENERGY 6V
AC$MASS_SPECTROMETRY: DESOLVATION_GAS_FLOW 800/h
AC$MASS_SPECTROMETRY: DESOLVATION_TEMPERATURE 450 C
AC$MASS_SPECTROMETRY: IONIZATION ESI
AC$CHROMATOGRAPHY: CAPILLARY_VOLTAGE +3.00 kV
AC$CHROMATOGRAPHY: COLUMN_NAME Acquity bridged ethyl hybrid C18 (1.7 um, 2.1 mm * 100 mm, Waters)
AC$CHROMATOGRAPHY: COLUMN_TEMPERATURE 40 C
AC$CHROMATOGRAPHY: FLOW_GRADIENT A/B = (99.5%/0.5% at 0 min, 99.5%/0.5% at 0.1 min, 20%/80% at 10 min, 0.5%/99.5% at 10.1 min, 0.5%/99.5% at 12.0 min, 99.5%/0.5% at 12.1 min, 99.5%/0.5% at 15.0 min)
AC$CHROMATOGRAPHY: FLOW_RATE 0.3 ml/min at 0 min, 0.3 ml/min at 10 min, 0.4 ml/min at 10.1 min, 0.4 ml/min at 14.4 min, 0.3 ml/min at 14.5 min
AC$CHROMATOGRAPHY: RETENTION_TIME 3.575733
AC$CHROMATOGRAPHY: SOLVENT A water including 0.1% formic acid
AC$CHROMATOGRAPHY: SOLVENT B acetonitrile including 0.1% formic acid
MS$FOCUSED_ION: PRECURSOR_TYPE [M+H]+
MS$FOCUSED_ION: PRECURSOR_M/Z 295.1804898
PK$SPLASH: splash10-0a4l-0960000000-616b8061a97850bc0117
PK$NUM_PEAK: 375
PK$PEAK: m/z int. rel.int.
  51.23725 5.0 5
  55.05416 20.0 20
  56.05631 7.0 7
  58.05481 8.0 8
  67.05254 19.0 19
  69.07156 5.0 5
  77.03901 21.0 21
  79.05394 45.0 45
  80.04936 21.0 21
  81.07219 8.0 8
  82.05972 15.0 15
  83.07771 6.0 6
  84.04308 8.0 8
  84.07758 29.0 29
  85.08394 5.0 5
  86.05967 10.0 10
  91.04462 9.0 9
  91.05122 56.0 56
  92.05153 18.0 18
  93.05792 60.0 60
  93.06936 77.0 77
  93.07674 16.0 16
  93.37544 8.0 8
  94.06071 17.0 17
  94.07317 28.0 28
  95.0712 7.0 7
  95.08356 13.0 13
  96.07782 20.0 20
  96.08398 15.0 15
  102.03894 6.0 6
  103.05354 21.0 21
  105.06098 7.0 7
  105.06992 24.0 24
  106.06068 18.0 18
  106.07179 15.0 15
  107.07661 13.0 13
  107.08838 26.0 26
  107.74741 5.0 5
  107.98225 6.0 6
  108.06644 45.0 45
  108.08017 599.0 598
  108.15087 6.0 6
  109.06219 15.0 15
  109.08486 22.0 22
  110.09482 80.0 80
  111.08141 30.0 30
  112.11108 7.0 7
  115.04515 7.0 7
  115.05136 16.0 16
  115.05785 6.0 6
  117.05623 47.0 47
  117.06444 66.0 66
  117.07276 19.0 19
  118.04734 6.0 6
  118.06682 110.0 110
  119.06607 15.0 15
  119.07512 10.0 10
  119.08623 15.0 15
  119.0909 29.0 29
  120.04169 6.0 6
  120.0542 6.0 6
  120.06455 9.0 9
  120.08085 210.0 210
  120.67764 7.0 7
  121.08789 169.0 169
  121.09378 41.0 41
  121.18326 7.0 7
  122.07933 18.0 18
  122.09653 251.0 251
  123.06707 11.0 11
  123.08189 12.0 12
  123.10046 20.0 20
  124.06463 6.0 6
  124.11359 16.0 16
  126.09045 12.0 12
  126.75942 8.0 8
  127.04282 5.0 5
  127.05242 16.0 16
  127.0596 11.0 11
  128.02473 5.0 5
  128.06134 15.0 15
  128.06943 16.0 16
  128.10258 6.0 6
  129.05621 5.0 5
  129.06956 235.0 235
  130.06461 270.0 270
  131.04008 15.0 15
  131.06857 129.0 129
  131.07777 60.0 60
  131.09163 5.0 5
  132.06468 8.0 8
  132.0802 138.0 138
  132.95456 6.0 6
  133.08257 16.0 16
  133.09058 10.0 10
  133.09955 9.0 9
  134.06985 7.0 7
  134.08186 16.0 16
  134.09177 79.0 79
  134.09914 100.0 100
  135.09334 25.0 25
  135.10129 54.0 54
  135.70085 11.0 11
  136.0778 15.0 15
  136.10815 8.0 8
  137.09761 7.0 7
  138.06113 7.0 7
  138.09068 640.0 639
  138.22014 8.0 8
  139.09261 60.0 60
  140.10774 44.0 44
  140.32318 6.0 6
  141.05617 6.0 6
  141.10483 7.0 7
  142.05229 17.0 17
  143.06174 10.0 10
  143.07275 93.0 93
  143.08829 17.0 17
  144.03664 6.0 6
  144.07996 1000.0 999
  144.18164 10.0 10
  145.08272 137.0 137
  145.08849 51.0 51
  146.07445 7.0 7
  146.09454 365.0 365
  147.09898 36.0 36
  147.11104 14.0 14
  148.07654 7.0 7
  148.11256 37.0 37
  150.12633 6.0 6
  152.10741 61.0 61
  153.0625 10.0 10
  153.07076 8.0 8
  154.06343 86.0 86
  155.07335 97.0 97
  156.07985 852.0 851
  157.06276 11.0 11
  157.08611 228.0 228
  157.09453 61.0 61
  158.09689 457.0 457
  158.83878 5.0 5
  158.85706 6.0 6
  159.09201 17.0 17
  159.10083 55.0 55
  160.09285 15.0 15
  160.11081 33.0 33
  161.09369 6.0 6
  162.01085 5.0 5
  164.09323 11.0 11
  164.10568 45.0 45
  165.10899 20.0 20
  166.06337 13.0 13
  166.07494 19.0 19
  166.1523 6.0 6
  167.06847 76.0 76
  167.0782 56.0 56
  167.09 12.0 12
  168.04623 15.0 15
  168.0799 597.0 596
  169.05905 15.0 15
  169.07852 77.0 77
  169.08919 67.0 67
  170.08318 45.0 45
  170.09598 432.0 432
  171.10056 79.0 79
  171.11487 11.0 11
  172.07176 5.0 5
  172.08368 7.0 7
  173.11864 7.0 7
  178.12302 6.0 6
  179.08496 20.0 20
  179.12288 8.0 8
  179.9351 6.0 6
  180.05513 14.0 14
  180.08174 173.0 173
  181.08165 35.0 35
  181.091 70.0 70
  182.06866 9.0 9
  182.07811 16.0 16
  182.08829 44.0 44
  182.09845 66.0 66
  183.08945 39.0 39
  183.10249 13.0 13
  184.06683 12.0 12
  184.07619 6.0 6
  184.09206 10.0 10
  184.10402 20.0 20
  184.11591 30.0 30
  185.0845 9.0 9
  185.09909 9.0 9
  185.11342 9.0 9
  186.11028 6.0 6
  187.64549 7.0 7
  191.06046 13.0 13
  191.06868 16.0 16
  191.07845 14.0 14
  191.08916 8.0 8
  192.03583 5.0 5
  192.07188 10.0 10
  193.06479 13.0 13
  193.08888 194.0 194
  194.09598 279.0 279
  194.11732 12.0 12
  195.07822 7.0 7
  195.09697 95.0 95
  195.1044 106.0 106
  196.09326 26.0 26
  196.10791 174.0 174
  196.11565 57.0 57
  196.12378 15.0 15
  197.10905 39.0 39
  198.08369 5.0 5
  198.11047 6.0 6
  198.11809 6.0 6
  198.12489 5.0 5
  201.07991 7.0 7
  201.10933 6.0 6
  201.33194 6.0 6
  204.06491 7.0 7
  204.07892 89.0 89
  205.06599 10.0 10
  205.08681 63.0 63
  205.09958 7.0 7
  206.05301 11.0 11
  206.06343 6.0 6
  206.08095 37.0 37
  206.09622 180.0 180
  207.06502 5.0 5
  207.07962 12.0 12
  207.09937 202.0 202
  207.10983 66.0 66
  207.15282 8.0 8
  207.19771 6.0 6
  208.07251 11.0 11
  208.08873 21.0 21
  208.10452 78.0 78
  208.11469 113.0 113
  209.08296 28.0 28
  209.10023 21.0 21
  209.12062 43.0 43
  210.089 11.0 11
  210.10413 10.0 10
  210.11292 14.0 14
  210.12776 47.0 47
  210.14293 6.0 6
  211.10352 9.0 9
  211.1248 8.0 8
  212.10522 6.0 6
  213.7197 7.0 7
  215.82315 7.0 7
  216.09946 9.0 9
  217.07317 18.0 18
  217.0867 68.0 68
  217.09523 92.0 92
  218.09563 169.0 169
  218.19965 5.0 5
  219.10114 206.0 206
  219.61162 9.0 9
  220.09618 24.0 24
  220.11029 111.0 111
  221.10338 51.0 51
  221.11739 41.0 41
  221.13319 21.0 21
  222.08409 8.0 8
  222.12701 353.0 353
  222.61356 7.0 7
  222.94496 5.0 5
  223.11368 15.0 15
  223.13368 39.0 39
  224.10597 33.0 33
  224.11911 8.0 8
  224.13484 39.0 39
  226.11018 18.0 18
  226.12343 109.0 109
  227.07997 7.0 7
  227.10922 9.0 9
  227.12904 13.0 13
  228.11633 15.0 15
  228.91156 5.0 5
  229.10258 8.0 8
  230.07141 6.0 6
  230.08855 52.0 52
  230.10027 87.0 87
  231.10449 276.0 276
  232.09442 28.0 28
  232.11076 208.0 208
  233.09445 17.0 17
  233.11412 213.0 213
  234.08189 5.0 5
  234.0959 11.0 11
  234.11189 78.0 78
  234.12727 155.0 155
  235.11375 72.0 72
  235.1239 256.0 256
  235.14511 8.0 8
  236.10582 8.0 8
  236.12299 64.0 64
  236.13922 70.0 70
  237.09665 8.0 8
  237.12749 10.0 10
  237.13724 36.0 36
  239.15405 6.0 6
  243.26001 13.0 13
  244.10532 94.0 94
  244.11613 82.0 82
  245.09158 11.0 11
  245.1115 98.0 98
  245.12238 213.0 213
  245.14099 6.0 6
  246.08487 6.0 6
  246.10338 15.0 15
  246.11954 34.0 34
  246.13033 46.0 46
  247.09178 17.0 17
  247.11024 54.0 54
  247.12047 129.0 129
  247.13042 121.0 121
  248.09805 6.0 6
  248.13638 227.0 227
  249.12019 16.0 16
  249.14151 192.0 192
  250.11569 9.0 9
  250.13914 58.0 58
  250.153 22.0 22
  250.16718 11.0 11
  251.11191 47.0 47
  251.13448 5.0 5
  251.15753 7.0 7
  252.07393 10.0 10
  252.13229 11.0 11
  253.17548 7.0 7
  257.11502 10.0 10
  258.1225 29.0 29
  259.12256 7.0 7
  259.14581 16.0 16
  260.1069 15.0 15
  260.13135 38.0 38
  260.14078 101.0 101
  261.13831 193.0 193
  261.1633 10.0 10
  262.13995 62.0 62
  262.15588 52.0 52
  263.13712 34.0 34
  263.15289 183.0 183
  264.1293 15.0 15
  264.15488 88.0 88
  265.12589 10.0 10
  265.15573 28.0 28
  265.17221 114.0 114
  266.12128 9.0 9
  266.14206 14.0 14
  266.34586 6.0 6
  267.15085 15.0 15
  267.17871 10.0 10
  268.06369 6.0 6
  272.58731 8.0 8
  275.13275 7.0 7
  275.16016 6.0 6
  275.25363 6.0 6
  277.14059 43.0 43
  277.16574 244.0 244
  277.17746 101.0 101
  278.13654 28.0 28
  278.15714 54.0 54
  278.17697 62.0 62
  279.14981 41.0 41
  279.16418 12.0 12
  279.17725 18.0 18
  280.15112 11.0 11
  280.17294 5.0 5
  286.76508 5.0 5
  293.16299 27.0 27
  295.14832 17.0 17
  295.17365 140.0 140
  295.18405 183.0 183
//
