ACCESSION: MSBNK-RIKEN-PR303326
RECORD_TITLE: NP-000004(11); LC-ESI-QTOF; MS2
DATE: 2019.03.28
AUTHORS: Tetsuya Mori, Center for Sustainable Resource Science, RIKEN
LICENSE: CC BY-NC-SA
PUBLICATION: Tsugawa H., Nakabayashi R., Mori T., Yamada Y., Takahashi M., Rai A., Sugiyama R., Yamamoto H., Nakaya T., Yamazaki M., Kooke R., Bac-Molenaar JA., Oztolan-Erol N., Keurentjes JJB., Arita M., Saito K. (2019) "A cheminformatics approach to characterize metabolomes in stable-isotope-labeled organisms" Nature Methods 16(4):295-298. [doi:10.1038/s41592-019-0358-2]
COMMENT: registered in RIKEN PlaSMA
CH$NAME: NP-000004(11)
CH$COMPOUND_CLASS: Flavonoid 8-C-glycosides
CH$FORMULA: C26H28O14
CH$EXACT_MASS: 564.496
CH$SMILES: OC[C@@H]1OC([C@H](O)[C@H]1O)C1=C2OC(=CC(=O)C2=C(O)C(C2O[C@H](CO)[C@@H](O)[C@H](O)[C@H]2O)=C1O)C1=CC=C(O)C=C1
CH$IUPAC: InChI=1S/C26H28O14/c27-6-12-17(31)21(35)23(37)25(39-12)15-19(33)14-10(30)5-11(8-1-3-9(29)4-2-8)38-24(14)16(20(15)34)26-22(36)18(32)13(7-28)40-26/h1-5,12-13,17-18,21-23,25-29,31-37H,6-7H2/t12-,13+,17-,18+,21+,22-,23-,25?,26?/m1/s1
CH$LINK: INCHIKEY TUIJPUWSXVFWSH-FBMRRHFKSA-N
AC$INSTRUMENT: LC, Waters Acquity UPLC System; MS, Waters Xevo G2 Q-Tof
AC$INSTRUMENT_TYPE: LC-ESI-QTOF
AC$MASS_SPECTROMETRY: MS_TYPE MS2
AC$MASS_SPECTROMETRY: ION_MODE POSITIVE
AC$MASS_SPECTROMETRY: COLLISION_ENERGY 6V
AC$MASS_SPECTROMETRY: DESOLVATION_GAS_FLOW 800/h
AC$MASS_SPECTROMETRY: DESOLVATION_TEMPERATURE 450 C
AC$MASS_SPECTROMETRY: IONIZATION ESI
AC$CHROMATOGRAPHY: CAPILLARY_VOLTAGE +3.00 kV
AC$CHROMATOGRAPHY: COLUMN_NAME Acquity bridged ethyl hybrid C18 (1.7 um, 2.1 mm * 100 mm, Waters)
AC$CHROMATOGRAPHY: COLUMN_TEMPERATURE 40 C
AC$CHROMATOGRAPHY: FLOW_GRADIENT A/B = (99.5%/0.5% at 0 min, 99.5%/0.5% at 0.1 min, 20%/80% at 10 min, 0.5%/99.5% at 10.1 min, 0.5%/99.5% at 12.0 min, 99.5%/0.5% at 12.1 min, 99.5%/0.5% at 15.0 min)
AC$CHROMATOGRAPHY: FLOW_RATE 0.3 ml/min at 0 min, 0.3 ml/min at 10 min, 0.4 ml/min at 10.1 min, 0.4 ml/min at 14.4 min, 0.3 ml/min at 14.5 min
AC$CHROMATOGRAPHY: RETENTION_TIME 3.55055
AC$CHROMATOGRAPHY: SOLVENT A water including 0.1% formic acid
AC$CHROMATOGRAPHY: SOLVENT B acetonitrile including 0.1% formic acid
MS$FOCUSED_ION: PRECURSOR_TYPE [M+H]+
MS$FOCUSED_ION: PRECURSOR_M/Z 565.155182
PK$SPLASH: splash10-0aba-0149000000-e4744634328eec9fae28
PK$NUM_PEAK: 290
PK$PEAK: m/z int. rel.int.
  81.0331 31.0 31
  85.02977 39.0 39
  90.82511 34.0 34
  97.02462 20.0 20
  98.03036 30.0 30
  103.05319 26.0 26
  103.05806 22.0 22
  108.76301 28.0 28
  119.05175 78.0 78
  121.02208 121.0 121
  121.02829 359.0 359
  122.03283 38.0 38
  132.01506 23.0 23
  133.05914 27.0 27
  135.00758 21.0 21
  135.04419 37.0 37
  137.07222 25.0 25
  145.03064 52.0 52
  147.03986 23.0 23
  148.05286 20.0 20
  150.02913 27.0 27
  151.02834 27.0 27
  157.06128 50.0 50
  159.0433 27.0 27
  159.04903 47.0 47
  161.0146 50.0 50
  161.02194 24.0 24
  162.02354 33.0 33
  163.04332 40.0 40
  167.05367 22.0 22
  171.04973 50.0 50
  173.01347 36.0 36
  173.02333 63.0 63
  175.03754 37.0 37
  176.01506 27.0 27
  176.04929 26.0 26
  181.42261 26.0 26
  183.0392 29.0 29
  185.02194 36.0 36
  185.05855 24.0 24
  187.03963 29.0 29
  188.95444 22.0 22
  189.00719 24.0 24
  189.01343 62.0 62
  189.02536 96.0 96
  189.05431 73.0 73
  190.02357 65.0 65
  190.35779 52.0 52
  191.03166 21.0 21
  191.03958 25.0 25
  199.03918 20.0 20
  199.05446 33.0 33
  199.07878 21.0 21
  201.06758 27.0 27
  203.03632 243.0 243
  204.03296 39.0 39
  204.0415 26.0 26
  205.01129 20.0 20
  205.05064 60.0 60
  211.04196 25.0 25
  211.07344 20.0 20
  211.78236 25.0 25
  212.04451 26.0 26
  215.0323 191.0 191
  219.02531 83.0 83
  221.07132 22.0 22
  221.11122 49.0 49
  223.03534 18.0 18
  223.07776 38.0 38
  224.36647 36.0 36
  227.03433 59.0 59
  229.05106 164.0 164
  231.03584 25.0 25
  233.03061 29.0 29
  237.04768 40.0 40
  239.02786 51.0 51
  239.07442 58.0 58
  241.09433 63.0 63
  243.03244 56.0 56
  244.03329 25.0 25
  245.04506 18.0 18
  246.04546 36.0 36
  249.05592 33.0 33
  251.07184 29.0 29
  251.08658 38.0 38
  253.05632 28.0 28
  254.06239 29.0 29
  255.03635 33.0 33
  255.07233 50.0 50
  258.04541 30.0 30
  259.08044 20.0 20
  265.06546 39.0 39
  266.04312 20.0 20
  266.0582 26.0 26
  266.1004 28.0 28
  268.09039 24.0 24
  269.08331 23.0 23
  270.94241 27.0 27
  271.04257 23.0 23
  271.06 22.0 22
  273.02478 23.0 23
  275.06332 25.0 25
  279.05756 47.0 47
  281.04858 23.0 23
  281.05865 26.0 26
  282.03735 29.0 29
  283.02463 36.0 36
  283.06107 172.0 172
  284.06488 28.0 28
  287.08005 22.0 22
  289.07397 24.0 24
  290.08893 31.0 31
  291.04294 25.0 25
  292.0679 27.0 27
  293.07138 22.0 22
  293.08752 25.0 25
  294.04745 97.0 97
  294.05704 100.0 100
  295.02188 21.0 21
  295.03781 54.0 54
  295.06232 1000.0 999
  295.09705 66.0 66
  295.4259 37.0 37
  296.06421 309.0 309
  296.10199 26.0 26
  297.05408 90.0 90
  297.07285 127.0 127
  297.08569 78.0 78
  298.16187 22.0 22
  299.06052 24.0 24
  302.05627 20.0 20
  303.86688 18.0 18
  304.06244 28.0 28
  305.06839 31.0 31
  306.0571 29.0 29
  307.05844 769.0 768
  307.0817 47.0 47
  308.06088 339.0 339
  308.07846 287.0 287
  309.03952 38.0 38
  309.06418 102.0 102
  309.0733 105.0 105
  309.10098 33.0 33
  310.03992 42.0 42
  310.07034 73.0 73
  310.09323 25.0 25
  312.67188 18.0 18
  313.05219 26.0 26
  313.07025 50.0 50
  313.08356 37.0 37
  313.88193 36.0 36
  314.08209 26.0 26
  318.07153 53.0 53
  318.39752 29.0 29
  319.04987 25.0 25
  319.06589 66.0 66
  319.08286 36.0 36
  320.06458 77.0 77
  321.03964 27.0 27
  321.06726 256.0 256
  321.08026 508.0 507
  322.03214 40.0 40
  322.0835 296.0 296
  322.37769 51.0 51
  323.0477 38.0 38
  323.06049 33.0 33
  323.07626 48.0 48
  323.09354 123.0 123
  324.05792 59.0 59
  324.08508 29.0 29
  324.0994 27.0 27
  324.28754 22.0 22
  325.01642 29.0 29
  325.0665 345.0 345
  325.07755 84.0 84
  326.07364 46.0 46
  326.08932 26.0 26
  327.04715 27.0 27
  328.07172 24.0 24
  328.08612 25.0 25
  328.88745 18.0 18
  329.08261 26.0 26
  329.12146 39.0 39
  330.07739 27.0 27
  330.08847 39.0 39
  331.04346 21.0 21
  331.0589 50.0 50
  332.08679 25.0 25
  333.06369 185.0 185
  333.07855 151.0 151
  334.07217 137.0 137
  334.09256 91.0 91
  335.08401 211.0 211
  335.104 140.0 140
  336.05359 23.0 23
  336.06955 22.0 22
  336.09982 26.0 26
  337.06595 242.0 242
  337.07947 138.0 138
  338.07468 71.0 71
  339.0481 30.0 30
  339.08112 24.0 24
  339.10416 91.0 91
  339.94925 20.0 20
  340.07571 26.0 26
  340.14874 25.0 25
  345.05603 46.0 46
  345.07205 157.0 157
  345.08826 157.0 157
  346.07883 55.0 55
  347.08109 113.0 113
  347.09338 33.0 33
  347.17047 29.0 29
  347.35349 20.0 20
  348.05444 23.0 23
  348.0672 23.0 23
  348.09021 23.0 23
  348.10986 68.0 68
  349.06024 168.0 168
  349.07578 154.0 154
  350.98029 30.0 30
  351.07645 145.0 145
  351.08981 282.0 282
  351.11523 22.0 22
  352.08737 55.0 55
  352.47382 23.0 23
  353.10095 30.0 30
  356.10526 38.0 38
  359.09155 40.0 40
  359.12561 49.0 49
  359.82892 23.0 23
  361.06543 255.0 255
  361.11502 97.0 97
  362.06451 50.0 50
  363.03564 25.0 25
  363.06085 22.0 22
  363.08081 148.0 148
  363.09836 72.0 72
  364.09598 74.0 74
  365.08395 53.0 53
  367.06824 48.0 48
  367.09042 58.0 58
  367.6218 48.0 48
  368.07858 22.0 22
  369.06937 26.0 26
  372.10101 22.0 22
  373.07458 88.0 88
  373.0885 31.0 31
  373.10861 31.0 31
  374.06439 59.0 59
  374.94501 18.0 18
  375.048 25.0 25
  375.0712 25.0 25
  375.08728 18.0 18
  375.10611 45.0 45
  376.0433 22.0 22
  376.08417 29.0 29
  377.07166 33.0 33
  378.97748 23.0 23
  379.064 20.0 20
  379.07434 24.0 24
  380.08521 18.0 18
  385.06848 18.0 18
  387.06595 30.0 30
  387.09067 33.0 33
  389.04749 22.0 22
  389.10486 68.0 68
  391.03525 37.0 37
  391.05826 25.0 25
  391.09674 35.0 35
  392.11163 33.0 33
  394.07822 47.0 47
  396.11819 26.0 26
  396.50214 20.0 20
  399.05377 47.0 47
  399.09039 49.0 49
  401.10333 20.0 20
  401.12073 24.0 24
  403.06174 30.0 30
  405.09503 27.0 27
  415.0867 50.0 50
  415.09564 22.0 22
  420.08731 29.0 29
  423.10947 22.0 22
  429.0983 34.0 34
  429.12256 28.0 28
  445.11926 18.0 18
  446.07404 24.0 24
  546.03033 23.0 23
  565.11377 27.0 27
//
