ACCESSION: MSBNK-RIKEN-PR100478
RECORD_TITLE: gamma-Tocotrienol; LC-ESI-QTOF; MS2; CE:Ramp 5-60 V; [M+H]+
DATE: 2016.01.19 (Created 2009.09.10, modified 2011.05.06)
AUTHORS: Matsuda F, Suzuki M, Sawada Y, Plant Science Center, RIKEN.
LICENSE: CC BY-SA
COMMENT: Acquisition and generation of the data is financially supported in part by CREST/JST.
CH$NAME: gamma-Tocotrienol
CH$NAME: 7,8-Dimethyltocotrienol
CH$NAME: (R)-gamma-Tocotrienol
CH$COMPOUND_CLASS: Prenol Lipids
CH$FORMULA: C28H42O2
CH$EXACT_MASS: 410.31848
CH$SMILES: C(=CCCC(C2)(C)Oc(c(C2)1)c(C)c(C)c(O)c1)(C)CCC=C(C)CCC=C(C)C
CH$IUPAC: InChI=1S/C28H42O2/c1-20(2)11-8-12-21(3)13-9-14-22(4)15-10-17-28(7)18-16-25-19-26(29)23(5)24(6)27(25)30-28/h11,13,15,19,29H,8-10,12,14,16-18H2,1-7H3/b21-13+,22-15+/t28-/m1/s1
CH$LINK: CAS 14101-61-2
CH$LINK: CHEMSPIDER 4445514
CH$LINK: KEGG C14155
CH$LINK: LIPIDBANK VVE0020
CH$LINK: PUBCHEM CID:5282349
CH$LINK: INCHIKEY OTXNTMVVOOBZCV-WAZJVIJMSA-N
AC$INSTRUMENT: UPLC Q-Tof Premier, Waters
AC$INSTRUMENT_TYPE: LC-ESI-QTOF
AC$MASS_SPECTROMETRY: MS_TYPE MS2
AC$MASS_SPECTROMETRY: ION_MODE POSITIVE
AC$MASS_SPECTROMETRY: COLLISION_ENERGY Ramp 5-60 V
AC$MASS_SPECTROMETRY: DATAFORMAT Continuum
AC$MASS_SPECTROMETRY: DESOLVATION_GAS_FLOW 600.0 L/Hr
AC$MASS_SPECTROMETRY: DESOLVATION_TEMPERATURE 400 C
AC$MASS_SPECTROMETRY: FRAGMENTATION_METHOD LOW-ENERGY CID
AC$MASS_SPECTROMETRY: IONIZATION ESI
AC$MASS_SPECTROMETRY: SOURCE_TEMPERATURE 120 C
AC$CHROMATOGRAPHY: CAPILLARY_VOLTAGE 3.0 kV
AC$CHROMATOGRAPHY: SAMPLING_CONE 23.0 V
AC$CHROMATOGRAPHY: SOLVENT A CH3CN(0.1%HCOOH)
AC$CHROMATOGRAPHY: SOLVENT B H2O(0.1%HCOOH)
MS$FOCUSED_ION: PRECURSOR_M/Z 411.32626
MS$FOCUSED_ION: PRECURSOR_TYPE [M+H]+
PK$SPLASH: splash10-03di-0000900000-9ea294ff4831f39965a6
PK$NUM_PEAK: 6
PK$PEAK: m/z int. rel.int.
  99.4891 6.166 173
  100.4870 3.511 99
  121.0371 5.64 159
  410.0829 14.1 397
  411.0013 33.34 938
  411.0768 35.52 999
//
