ACCESSION: MSBNK-RIKEN-PR308813
RECORD_TITLE: Dihydrohesperetin-7-O-neohesperidoside; LC-ESI-QTOF; MS2
DATE: 2019.03.28
AUTHORS: Tetsuya Mori, Center for Sustainable Resource Science, RIKEN
LICENSE: CC BY-NC-SA
PUBLICATION: Tsugawa H., Nakabayashi R., Mori T., Yamada Y., Takahashi M., Rai A., Sugiyama R., Yamamoto H., Nakaya T., Yamazaki M., Kooke R., Bac-Molenaar JA., Oztolan-Erol N., Keurentjes JJB., Arita M., Saito K. (2019) "A cheminformatics approach to characterize metabolomes in stable-isotope-labeled organisms" Nature Methods 16(4):295-298. [doi:10.1038/s41592-019-0358-2]
COMMENT: Annotation level-1
CH$NAME: Dihydrohesperetin-7-O-neohesperidoside
CH$COMPOUND_CLASS: Chalcones
CH$FORMULA: C28H36O15
CH$EXACT_MASS: 612.581
CH$SMILES: COC1=C(O)C=C(CCC(=O)C2=C(O)C=C(OC3OC(CO)C(O)C(O)C3OC3OC(C)C(O)C(O)C3O)C=C2O)C=C1
CH$IUPAC: InChI=1S/C28H36O15/c1-11-21(34)23(36)25(38)27(40-11)43-26-24(37)22(35)19(10-29)42-28(26)41-13-8-16(32)20(17(33)9-13)14(30)5-3-12-4-6-18(39-2)15(31)7-12/h4,6-9,11,19,21-29,31-38H,3,5,10H2,1-2H3
CH$LINK: INCHIKEY ITVGXXMINPYUHD-UHFFFAOYSA-N
AC$INSTRUMENT: LC, Waters Acquity UPLC System; MS, Waters Xevo G2 Q-Tof
AC$INSTRUMENT_TYPE: LC-ESI-QTOF
AC$MASS_SPECTROMETRY: MS_TYPE MS2
AC$MASS_SPECTROMETRY: ION_MODE NEGATIVE
AC$MASS_SPECTROMETRY: COLLISION_ENERGY 6V
AC$MASS_SPECTROMETRY: DESOLVATION_GAS_FLOW 800/h
AC$MASS_SPECTROMETRY: DESOLVATION_TEMPERATURE 450 C
AC$MASS_SPECTROMETRY: IONIZATION ESI
AC$CHROMATOGRAPHY: CAPILLARY_VOLTAGE +3.00 kV
AC$CHROMATOGRAPHY: COLUMN_NAME Acquity bridged ethyl hybrid C18 (1.7 um, 2.1 mm * 100 mm, Waters)
AC$CHROMATOGRAPHY: COLUMN_TEMPERATURE 40 C
AC$CHROMATOGRAPHY: FLOW_GRADIENT A/B = (99.5%/0.5% at 0 min, 99.5%/0.5% at 0.1 min, 20%/80% at 10 min, 0.5%/99.5% at 10.1 min, 0.5%/99.5% at 12.0 min, 99.5%/0.5% at 12.1 min, 99.5%/0.5% at 15.0 min)
AC$CHROMATOGRAPHY: FLOW_RATE 0.3 ml/min at 0 min, 0.3 ml/min at 10 min, 0.4 ml/min at 10.1 min, 0.4 ml/min at 14.4 min, 0.3 ml/min at 14.5 min
AC$CHROMATOGRAPHY: RETENTION_TIME 5.07
AC$CHROMATOGRAPHY: SOLVENT A water including 0.1% formic acid
AC$CHROMATOGRAPHY: SOLVENT B acetonitrile including 0.1% formic acid
MS$FOCUSED_ION: PRECURSOR_TYPE [M-H]-
MS$FOCUSED_ION: PRECURSOR_M/Z 611.19814
PK$SPLASH: splash10-03di-0215109000-3f8642b0196b553e648e
PK$NUM_PEAK: 161
PK$PEAK: m/z int. rel.int.
  101.02076 79.0 6
  119.03422 27.0 2
  125.02172 1276.0 103
  126.02003 22.0 2
  126.02538 30.0 2
  134.03214 31.0 2
  135.0414 19.0 2
  149.01553 18.0 1
  149.02481 25.0 2
  149.05493 24.0 2
  150.99194 20.0 2
  151.00557 32.0 3
  152.00027 42.0 3
  152.00958 157.0 13
  156.60669 20.0 2
  159.04796 22.0 2
  161.04022 21.0 2
  162.03084 24.0 2
  164.06407 24.0 2
  165.00999 21.0 2
  166.02484 525.0 42
  167.03252 143.0 12
  172.08838 20.0 2
  172.621 21.0 2
  173.90576 20.0 2
  174.9976 20.0 2
  177.0594 23.0 2
  179.03123 155.0 12
  179.89828 29.0 2
  181.05229 33.0 3
  187.07516 25.0 2
  190.02716 54.0 4
  195.3604 27.0 2
  199.0759 69.0 6
  200.08394 18.0 1
  201.0564 36.0 3
  201.99402 21.0 2
  202.05373 38.0 3
  202.07243 51.0 4
  204.03969 26.0 2
  209.05589 44.0 4
  216.06895 29.0 2
  217.08884 96.0 8
  218.09131 20.0 2
  219.05928 90.0 7
  219.07013 67.0 5
  220.03766 20.0 2
  225.05043 27.0 2
  226.05756 25.0 2
  229.05399 22.0 2
  241.08231 102.0 8
  243.06876 21.0 2
  244.04872 20.0 2
  244.0732 230.0 19
  251.06313 19.0 2
  257.89175 20.0 2
  259.09576 84.0 7
  266.32492 33.0 3
  268.06888 23.0 2
  269.03903 31.0 2
  269.0694 37.0 3
  270.04608 61.0 5
  270.06134 25.0 2
  271.05652 47.0 4
  274.08185 24.0 2
  285.07373 189.0 15
  285.08969 22.0 2
  285.11996 20.0 2
  286.08194 91.0 7
  288.06085 445.0 36
  289.052 58.0 5
  289.06256 41.0 3
  295.04672 20.0 2
  300.31335 18.0 1
  301.11337 23.0 2
  302.07761 20.0 2
  303.08609 4847.0 391
  303.11954 24.0 2
  304.08704 804.0 65
  305.07755 25.0 2
  305.08521 65.0 5
  305.0975 86.0 7
  305.11993 20.0 2
  308.0484 48.0 4
  309.0954 28.0 2
  311.05914 24.0 2
  312.0614 18.0 1
  312.07651 30.0 2
  313.10165 41.0 3
  315.06201 30.0 2
  317.03928 25.0 2
  324.05148 20.0 2
  327.06213 60.0 5
  327.08334 555.0 45
  327.09424 292.0 24
  328.08603 21.0 2
  328.09854 21.0 2
  329.09442 28.0 2
  330.94641 18.0 1
  331.06805 25.0 2
  345.09647 233.0 19
  345.11234 99.0 8
  346.08572 18.0 1
  346.10184 43.0 3
  355.07697 29.0 2
  356.08047 21.0 2
  357.08789 25.0 2
  357.10907 20.0 2
  358.10318 20.0 2
  360.41208 22.0 2
  366.09509 18.0 1
  368.53482 20.0 2
  369.10751 19.0 2
  370.10318 25.0 2
  382.71338 18.0 1
  387.11258 168.0 14
  388.11734 39.0 3
  389.12421 40.0 3
  390.82776 34.0 3
  396.56702 21.0 2
  399.12543 51.0 4
  400.09567 24.0 2
  405.12247 129.0 10
  405.14737 28.0 2
  405.9523 18.0 1
  406.12408 26.0 2
  407.12457 21.0 2
  408.50775 20.0 2
  416.97571 25.0 2
  421.33133 29.0 2
  429.09836 26.0 2
  431.13412 18.0 1
  432.32492 24.0 2
  433.13141 116.0 9
  434.1412 20.0 2
  442.18869 25.0 2
  447.12033 27.0 2
  448.1178 20.0 2
  449.13736 23.0 2
  450.11923 20.0 2
  465.14651 42.0 3
  471.34213 30.0 2
  473.14627 27.0 2
  474.09775 18.0 1
  476.14124 34.0 3
  491.13986 165.0 13
  491.15631 398.0 32
  492.14841 31.0 2
  492.16125 91.0 7
  493.13965 18.0 1
  533.1449 29.0 2
  563.23206 21.0 2
  579.1947 20.0 2
  593.19818 78.0 6
  594.06494 37.0 3
  594.17511 27.0 2
  595.01801 33.0 3
  606.19843 32.0 3
  611.04926 24.0 2
  611.19855 12396.0 999
  611.25189 23.0 2
//
