ACCESSION: MSBNK-RIKEN-PR020118
RECORD_TITLE: Dihydrozeatin-9-beta-D-glucoside; LC-ESI-QQ; MS2; CE:20.0 eV; [M+H]+
DATE: 2016.01.19 (Created 2007.12.03, modified 2011.05.06)
AUTHORS: Kojima M, Sakakibara H, Plant Science Center, RIKEN.
LICENSE: CC BY-SA
CH$NAME: dihydrozeatin-9-b-D-glucoside
CH$NAME: Dihydrozeatin-9-beta-D-glucoside
CH$COMPOUND_CLASS: N/A
CH$FORMULA: C16H25N5O6
CH$EXACT_MASS: 383.18048
CH$SMILES: OCC(C)CCNc(n3)c(n2)c(nc3)n(c2)C(O1)C(O)C(O)C(O)C(CO)1
CH$IUPAC: InChI=1S/C16H25N5O6/c1-8(4-22)2-3-17-14-10-15(19-6-18-14)21(7-20-10)16-13(26)12(25)11(24)9(5-23)27-16/h6-9,11-13,16,22-26H,2-5H2,1H3,(H,17,18,19)/t8?,9-,11-,12+,13-,16-/m1/s1
CH$LINK: CAS 73263-99-7(Putative)
CH$LINK: INCHIKEY DRPMMLWYLAPTPK-UFZVAZPKSA-N
AC$INSTRUMENT: UPLC Waters, Quattro Ultima Pt Micromass
AC$INSTRUMENT_TYPE: LC-ESI-QQ
AC$MASS_SPECTROMETRY: MS_TYPE MS2
AC$MASS_SPECTROMETRY: ION_MODE POSITIVE
AC$MASS_SPECTROMETRY: COLLISION_ENERGY 20.0 eV
AC$MASS_SPECTROMETRY: DATAFORMAT Centroid
AC$MASS_SPECTROMETRY: DESOLVATION_GAS_FLOW 565 L/Hr
AC$MASS_SPECTROMETRY: DESOLVATION_TEMPERATURE 400 C
AC$MASS_SPECTROMETRY: FRAGMENTATION_METHOD LOW-ENERGY CID
AC$MASS_SPECTROMETRY: IONIZATION ESI
AC$MASS_SPECTROMETRY: SCANNING 0.2 sec/scan (m/z=50-500)
AC$MASS_SPECTROMETRY: SOURCE_TEMPERATURE 140 C
AC$CHROMATOGRAPHY: CAPILLARY_VOLTAGE 3.1 kV
AC$CHROMATOGRAPHY: COLUMN_NAME ACQUITY UPLC BEH C18 2.1 by 50 mm (Waters, Milford, MA, USA)
AC$CHROMATOGRAPHY: COLUMN_TEMPERATURE 40 C
AC$CHROMATOGRAPHY: FLOW_GRADIENT 0.1/99.9 at 0 min, 9.0/91.0 at 2 min, 12.5/87.5 at 7 min, 30/70 at 10 min, 50/50 at 12 min, 50/50 at 13 min, 99.9/0.1 at 15 min
AC$CHROMATOGRAPHY: FLOW_RATE 0.25 ml/min
AC$CHROMATOGRAPHY: RETENTION_TIME 6.98 min
AC$CHROMATOGRAPHY: SAMPLING_CONE 53 V
AC$CHROMATOGRAPHY: SOLVENT A CH3CN(0.05% HCOOH)
AC$CHROMATOGRAPHY: SOLVENT B HCOOH(0.05% CH3CN)
MS$FOCUSED_ION: FULL_SCAN_FRAGMENT_ION_PEAK 383
MS$FOCUSED_ION: PRECURSOR_M/Z 384
MS$FOCUSED_ION: PRECURSOR_TYPE [M+H]+
MS$DATA_PROCESSING: WHOLE MassLynx 4.0
PK$SPLASH: splash10-00di-0091000000-668e19854c07df7fc269
PK$NUM_PEAK: 4
PK$PEAK: m/z int. rel.int.
  135.882 588200 20
  222.003 2.963E+7 999
  383.432 1100000 37
  384.073 3993000 135
//
