ACCESSION: MSBNK-RIKEN-PR302316
RECORD_TITLE: Formononetin-7-O-glucoside; LC-ESI-QTOF; MS2
DATE: 2019.03.28
AUTHORS: Tetsuya Mori, Center for Sustainable Resource Science, RIKEN
LICENSE: CC BY-NC-SA
PUBLICATION: Tsugawa H., Nakabayashi R., Mori T., Yamada Y., Takahashi M., Rai A., Sugiyama R., Yamamoto H., Nakaya T., Yamazaki M., Kooke R., Bac-Molenaar JA., Oztolan-Erol N., Keurentjes JJB., Arita M., Saito K. (2019) "A cheminformatics approach to characterize metabolomes in stable-isotope-labeled organisms" Nature Methods 16(4):295-298. [doi:10.1038/s41592-019-0358-2]
COMMENT: registered in RIKEN PlaSMA
CH$NAME: Formononetin-7-O-glucoside
CH$COMPOUND_CLASS: Isoflavonoid O-glycosides
CH$FORMULA: C22H22O9
CH$EXACT_MASS: 430.409
CH$SMILES: COC1=CC=C(C=C1)C1=COC2=C(C=CC(O[C@@H]3O[C@H](CO)[C@@H](O)[C@H](O)[C@H]3O)=C2)C1=O
CH$IUPAC: InChI=1S/C22H22O9/c1-28-12-4-2-11(3-5-12)15-10-29-16-8-13(6-7-14(16)18(15)24)30-22-21(27)20(26)19(25)17(9-23)31-22/h2-8,10,17,19-23,25-27H,9H2,1H3/t17-,19-,20+,21-,22-/m1/s1
CH$LINK: INCHIKEY MGJLSBDCWOSMHL-MIUGBVLSSA-N
AC$INSTRUMENT: LC, Waters Acquity UPLC System; MS, Waters Xevo G2 Q-Tof
AC$INSTRUMENT_TYPE: LC-ESI-QTOF
AC$MASS_SPECTROMETRY: MS_TYPE MS2
AC$MASS_SPECTROMETRY: ION_MODE POSITIVE
AC$MASS_SPECTROMETRY: COLLISION_ENERGY 6V
AC$MASS_SPECTROMETRY: DESOLVATION_GAS_FLOW 800/h
AC$MASS_SPECTROMETRY: DESOLVATION_TEMPERATURE 450 C
AC$MASS_SPECTROMETRY: IONIZATION ESI
AC$CHROMATOGRAPHY: CAPILLARY_VOLTAGE +3.00 kV
AC$CHROMATOGRAPHY: COLUMN_NAME Acquity bridged ethyl hybrid C18 (1.7 um, 2.1 mm * 100 mm, Waters)
AC$CHROMATOGRAPHY: COLUMN_TEMPERATURE 40 C
AC$CHROMATOGRAPHY: FLOW_GRADIENT A/B = (99.5%/0.5% at 0 min, 99.5%/0.5% at 0.1 min, 20%/80% at 10 min, 0.5%/99.5% at 10.1 min, 0.5%/99.5% at 12.0 min, 99.5%/0.5% at 12.1 min, 99.5%/0.5% at 15.0 min)
AC$CHROMATOGRAPHY: FLOW_RATE 0.3 ml/min at 0 min, 0.3 ml/min at 10 min, 0.4 ml/min at 10.1 min, 0.4 ml/min at 14.4 min, 0.3 ml/min at 14.5 min
AC$CHROMATOGRAPHY: RETENTION_TIME 5.035634
AC$CHROMATOGRAPHY: SOLVENT A water including 0.1% formic acid
AC$CHROMATOGRAPHY: SOLVENT B acetonitrile including 0.1% formic acid
MS$FOCUSED_ION: PRECURSOR_TYPE [M+H]+
MS$FOCUSED_ION: PRECURSOR_M/Z 431.1336587
PK$SPLASH: splash10-0uxs-0590000000-8eac18ae6e3989053d88
PK$NUM_PEAK: 182
PK$PEAK: m/z int. rel.int.
  61.03025 8.0 8
  68.99695 14.0 14
  77.03675 7.0 7
  77.07978 8.0 8
  79.05393 7.0 7
  81.02945 11.0 11
  84.9995 8.0 8
  90.04665 25.0 25
  103.04778 19.0 19
  103.06016 8.0 8
  105.06971 32.0 32
  107.04279 53.0 53
  107.05152 94.0 94
  108.01869 21.0 21
  108.05539 8.0 8
  109.02607 11.0 11
  118.02555 8.0 8
  118.04082 283.0 283
  119.03984 28.0 28
  119.04995 8.0 8
  120.05939 11.0 11
  122.03112 8.0 8
  123.05081 7.0 7
  128.05792 11.0 11
  128.06435 39.0 39
  129.06169 24.0 24
  133.03149 24.0 24
  133.06097 59.0 59
  135.04549 17.0 17
  136.01495 174.0 174
  136.54132 7.0 7
  137.02158 170.0 170
  141.0706 24.0 24
  142.06494 10.0 10
  142.07654 15.0 15
  143.08818 6.0 6
  147.03999 10.0 10
  148.04272 17.0 17
  148.33221 8.0 8
  150.71709 7.0 7
  151.05272 17.0 17
  152.0649 82.0 82
  153.06017 18.0 18
  153.07579 49.0 49
  154.07422 28.0 28
  156.04065 6.0 6
  156.04858 32.0 32
  156.05814 44.0 44
  156.06386 20.0 20
  157.02591 8.0 8
  157.05672 24.0 24
  157.06917 48.0 48
  158.0511 8.0 8
  158.07248 31.0 31
  158.07814 18.0 18
  159.04707 8.0 8
  159.06323 9.0 9
  159.07106 8.0 8
  159.94652 13.0 13
  162.09187 17.0 17
  162.48022 6.0 6
  163.03851 23.0 23
  165.0479 15.0 15
  165.06581 27.0 27
  165.07381 20.0 20
  167.08208 25.0 25
  169.04791 7.0 7
  169.06499 48.0 48
  169.07529 23.0 23
  170.05609 8.0 8
  170.06937 119.0 119
  170.07771 28.0 28
  171.0589 7.0 7
  171.14987 7.0 7
  171.81581 7.0 7
  175.99803 8.0 8
  176.04506 9.0 9
  180.05464 7.0 7
  180.06807 13.0 13
  181.06395 238.0 238
  181.07733 27.0 27
  182.04167 11.0 11
  182.05991 14.0 14
  182.07425 161.0 161
  183.04373 8.0 8
  183.06628 18.0 18
  183.07651 15.0 15
  184.05284 72.0 72
  185.0916 12.0 12
  185.10144 11.0 11
  186.24838 8.0 8
  193.38507 9.0 9
  195.08081 35.0 35
  195.45551 7.0 7
  196.0397 7.0 7
  196.05537 53.0 53
  196.07452 10.0 10
  196.08603 10.0 10
  197.06049 486.0 486
  197.51755 6.0 6
  198.04448 23.0 23
  198.06505 347.0 347
  199.07433 52.0 52
  199.08284 17.0 17
  200.02486 7.0 7
  200.04166 27.0 27
  201.05936 9.0 9
  204.03268 7.0 7
  209.05318 13.0 13
  209.06409 15.0 15
  209.07524 11.0 11
  210.0641 14.0 14
  211.06863 7.0 7
  211.0825 16.0 16
  212.08504 27.0 27
  212.09485 7.0 7
  212.5444 12.0 12
  213.09151 597.0 596
  214.09514 108.0 108
  214.10347 42.0 42
  215.09793 7.0 7
  219.04683 10.0 10
  223.07509 7.0 7
  224.07878 8.0 8
  225.03172 10.0 10
  225.05377 229.0 229
  225.83446 6.0 6
  225.96671 8.0 8
  226.02527 14.0 14
  226.05304 217.0 217
  226.06392 531.0 530
  226.09009 12.0 12
  227.01674 8.0 8
  227.04752 10.0 10
  227.0603 59.0 59
  227.07294 22.0 22
  227.18997 8.0 8
  228.05981 7.0 7
  232.53777 9.0 9
  237.03467 45.0 45
  237.05627 666.0 665
  237.21262 8.0 8
  238.01108 7.0 7
  238.05573 55.0 55
  238.06567 50.0 50
  239.01624 9.0 9
  239.07317 8.0 8
  240.05412 7.0 7
  241.0778 9.0 9
  251.07875 31.0 31
  251.21365 7.0 7
  252.08211 8.0 8
  252.9559 8.0 8
  252.99995 10.0 10
  253.01157 13.0 13
  253.04884 1000.0 999
  253.71234 7.0 7
  253.96381 9.0 9
  254.0282 24.0 24
  254.05154 221.0 221
  254.06117 393.0 393
  254.53365 7.0 7
  255.02998 17.0 17
  255.04916 27.0 27
  255.063 59.0 59
  256.0517 9.0 9
  256.06448 12.0 12
  258.02454 7.0 7
  269.05145 25.0 25
  269.07828 466.0 466
  269.08981 320.0 320
  269.98416 10.0 10
  270.03986 7.0 7
  270.0661 19.0 19
  270.08597 122.0 122
  270.63943 6.0 6
  271.0968 7.0 7
  272.32367 7.0 7
  296.06839 7.0 7
  314.98376 7.0 7
  369.73026 9.0 9
  387.66995 10.0 10
//
