ACCESSION: MSBNK-RIKEN-PR305789
RECORD_TITLE: Kaempferol; LC-ESI-QTOF; MS2
DATE: 2019.03.28
AUTHORS: Tetsuya Mori, Center for Sustainable Resource Science, RIKEN
LICENSE: CC BY-NC-SA
PUBLICATION: Tsugawa H., Nakabayashi R., Mori T., Yamada Y., Takahashi M., Rai A., Sugiyama R., Yamamoto H., Nakaya T., Yamazaki M., Kooke R., Bac-Molenaar JA., Oztolan-Erol N., Keurentjes JJB., Arita M., Saito K. (2019) "A cheminformatics approach to characterize metabolomes in stable-isotope-labeled organisms" Nature Methods 16(4):295-298. [doi:10.1038/s41592-019-0358-2]
COMMENT: registered in RIKEN PlaSMA
CH$NAME: Kaempferol
CH$COMPOUND_CLASS: Flavonols
CH$FORMULA: C15H10O6
CH$EXACT_MASS: 286.239
CH$SMILES: OC1=CC=C(C=C1)C1=C(O)C(=O)C2=C(O)C=C(O)C=C2O1
CH$IUPAC: InChI=1S/C15H10O6/c16-8-3-1-7(2-4-8)15-14(20)13(19)12-10(18)5-9(17)6-11(12)21-15/h1-6,16-18,20H
CH$LINK: INCHIKEY IYRMWMYZSQPJKC-UHFFFAOYSA-N
AC$INSTRUMENT: LC, Waters Acquity UPLC System; MS, Waters Xevo G2 Q-Tof
AC$INSTRUMENT_TYPE: LC-ESI-QTOF
AC$MASS_SPECTROMETRY: MS_TYPE MS2
AC$MASS_SPECTROMETRY: ION_MODE NEGATIVE
AC$MASS_SPECTROMETRY: COLLISION_ENERGY 6V
AC$MASS_SPECTROMETRY: DESOLVATION_GAS_FLOW 800/h
AC$MASS_SPECTROMETRY: DESOLVATION_TEMPERATURE 450 C
AC$MASS_SPECTROMETRY: IONIZATION ESI
AC$CHROMATOGRAPHY: CAPILLARY_VOLTAGE -2.75 kV
AC$CHROMATOGRAPHY: COLUMN_NAME Acquity bridged ethyl hybrid C18 (1.7 um, 2.1 mm * 100 mm, Waters)
AC$CHROMATOGRAPHY: COLUMN_TEMPERATURE 40 C
AC$CHROMATOGRAPHY: FLOW_GRADIENT A/B = (99.5%/0.5% at 0 min, 99.5%/0.5% at 0.1 min, 20%/80% at 10 min, 0.5%/99.5% at 10.1 min, 0.5%/99.5% at 12.0 min, 99.5%/0.5% at 12.1 min, 99.5%/0.5% at 15.0 min)
AC$CHROMATOGRAPHY: FLOW_RATE 0.3 ml/min at 0 min, 0.3 ml/min at 10 min, 0.4 ml/min at 10.1 min, 0.4 ml/min at 14.4 min, 0.3 ml/min at 14.5 min
AC$CHROMATOGRAPHY: RETENTION_TIME 5.995067
AC$CHROMATOGRAPHY: SOLVENT A water including 0.1% formic acid
AC$CHROMATOGRAPHY: SOLVENT B acetonitrile including 0.1% formic acid
MS$FOCUSED_ION: PRECURSOR_TYPE [M-H]-
MS$FOCUSED_ION: PRECURSOR_M/Z 285.04046154783
PK$SPLASH: splash10-052u-1920000000-1e2b1342d90184d22e67
PK$NUM_PEAK: 173
PK$PEAK: m/z int. rel.int.
  63.02166 36.0 36
  65.00159 35.0 35
  65.03958 57.0 57
  65.06032 27.0 27
  67.01923 39.0 39
  79.01723 31.0 31
  80.02548 58.0 58
  81.03184 67.0 67
  83.01126 244.0 244
  90.00667 36.0 36
  91.01675 203.0 203
  91.05883 35.0 35
  92.02695 63.0 63
  92.99255 48.0 48
  93.03338 1000.0 999
  94.03174 24.0 24
  95.01006 28.0 28
  103.0533 24.0 24
  104.02456 36.0 36
  105.03395 211.0 211
  105.85013 24.0 24
  107.01219 376.0 376
  108.01995 509.0 508
  108.99258 39.0 39
  109.02366 213.0 213
  115.05379 66.0 66
  116.02702 30.0 30
  116.05595 30.0 30
  117.0342 525.0 524
  118.039 30.0 30
  119.01047 203.0 203
  119.04474 52.0 52
  120.0203 194.0 194
  121.02324 27.0 27
  121.03381 75.0 75
  121.99628 67.0 67
  122.03686 27.0 27
  123.00978 63.0 63
  124.01095 92.0 92
  129.03973 44.0 44
  130.03333 62.0 62
  130.04411 67.0 67
  131.04202 61.0 61
  131.04776 164.0 164
  132.01567 39.0 39
  132.05853 31.0 31
  133.01822 31.0 31
  133.02972 202.0 202
  135.00778 359.0 359
  135.36237 27.0 27
  136.01114 166.0 166
  136.01793 312.0 312
  137.02412 201.0 201
  138.02168 44.0 44
  138.03076 31.0 31
  139.02596 40.0 40
  139.05246 27.0 27
  141.03018 31.0 31
  141.06165 31.0 31
  141.06992 82.0 82
  143.04839 783.0 782
  144.04518 31.0 31
  144.05338 133.0 133
  145.02705 510.0 509
  145.06429 32.0 32
  147.00859 30.0 30
  147.03349 31.0 31
  147.04268 36.0 36
  147.06755 28.0 28
  150.99771 137.0 137
  151.00349 57.0 57
  151.03734 36.0 36
  152.00502 52.0 52
  152.03932 35.0 35
  153.03392 24.0 24
  154.03928 307.0 307
  154.0484 48.0 48
  155.04793 658.0 657
  156.05661 246.0 246
  157.02342 114.0 114
  157.06181 179.0 179
  157.07112 67.0 67
  158.03545 269.0 269
  158.06462 38.0 38
  158.07228 31.0 31
  159.03148 26.0 26
  159.0439 771.0 770
  160.04568 28.0 28
  161.02141 493.0 493
  161.05603 159.0 159
  162.02293 47.0 47
  163.00189 143.0 143
  164.008 174.0 174
  165.01352 87.0 87
  166.02002 34.0 34
  167.04904 180.0 180
  168.05768 122.0 122
  169.05853 23.0 23
  169.06702 77.0 77
  169.08128 40.0 40
  171.04131 349.0 349
  172.047 58.0 58
  173.01987 133.0 133
  173.98042 42.0 42
  174.02443 48.0 48
  174.03133 55.0 55
  175.04179 87.0 87
  176.31322 24.0 24
  178.98944 30.0 30
  179.04294 43.0 43
  182.03847 199.0 199
  183.04247 285.0 285
  183.83812 27.0 27
  184.05046 358.0 358
  185.02197 51.0 51
  185.0573 534.0 533
  186.02943 51.0 51
  186.06477 97.0 97
  187.03244 626.0 625
  187.0406 293.0 293
  187.78777 27.0 27
  188.04044 90.0 90
  189.04152 32.0 32
  189.06136 36.0 36
  190.0334 24.0 24
  191.38632 44.0 44
  195.04131 98.0 98
  195.0489 77.0 77
  196.04434 30.0 30
  196.05759 38.0 38
  197.05592 51.0 51
  197.06973 32.0 32
  198.02596 43.0 43
  198.03291 35.0 35
  201.04552 30.0 30
  201.05443 104.0 104
  201.06596 44.0 44
  210.03185 27.0 27
  211.03801 631.0 630
  212.02318 24.0 24
  212.04155 248.0 248
  213.01115 52.0 52
  213.05331 104.0 104
  214.02103 89.0 89
  214.03683 83.0 83
  215.03369 108.0 108
  223.04227 32.0 32
  226.01872 24.0 24
  227.03294 451.0 451
  228.04381 136.0 136
  229.04214 112.0 112
  229.05264 97.0 97
  229.93404 24.0 24
  237.0146 40.0 40
  238.02534 24.0 24
  239.03172 423.0 423
  239.04237 160.0 160
  240.03867 226.0 226
  241.04874 26.0 26
  242.27072 24.0 24
  243.03127 27.0 27
  250.91214 44.0 44
  255.02631 151.0 151
  256.03088 34.0 34
  256.04037 32.0 32
  257.04266 93.0 93
  267.03674 38.0 38
  268.01767 27.0 27
  268.03464 69.0 69
  269.03381 74.0 74
  284.02271 127.0 127
  285.02054 90.0 90
  285.03992 938.0 937
//
