ACCESSION: MSBNK-RIKEN-PR310809
RECORD_TITLE: Guanosine (not validated); LC-ESI-QTOF; MS2
DATE: 2019.03.28
AUTHORS: Tetsuya Mori, Center for Sustainable Resource Science, RIKEN
LICENSE: CC BY-NC-SA
PUBLICATION: Tsugawa H., Nakabayashi R., Mori T., Yamada Y., Takahashi M., Rai A., Sugiyama R., Yamamoto H., Nakaya T., Yamazaki M., Kooke R., Bac-Molenaar JA., Oztolan-Erol N., Keurentjes JJB., Arita M., Saito K. (2019) "A cheminformatics approach to characterize metabolomes in stable-isotope-labeled organisms" Nature Methods 16(4):295-298. [doi:10.1038/s41592-019-0358-2]
COMMENT: Annotation level-2
CH$NAME: Guanosine
CH$COMPOUND_CLASS: Nucleosides
CH$FORMULA: C10H13N5O5
CH$EXACT_MASS: 283.091669
CH$SMILES: C1=NC2=C(N1[C@H]3[C@@H]([C@@H]([C@H](O3)CO)O)O)N=C(NC2=O)N
CH$IUPAC: InChI=1S/C10H13N5O5/c11-10-13-7-4(8(19)14-10)12-2-15(7)9-6(18)5(17)3(1-16)20-9/h2-3,5-6,9,16-18H,1H2,(H3,11,13,14,19)/t3-,5-,6-,9-/m1/s1
CH$LINK: CAS 118-00-3
CH$LINK: CHEBI CHEBI:16750
CH$LINK: CHEMSPIDER 6544
CH$LINK: COMPTOX DTXSID00893055
CH$LINK: INCHIKEY NYHBQMYGNKIUIF-UUOKFMHZSA-N
CH$LINK: KAPPAVIEW KPC00589
CH$LINK: KEGG C00387
CH$LINK: KNAPSACK C00019679
CH$LINK: NIKKAJI J10.076E
CH$LINK: PUBCHEM CID:135398635
AC$INSTRUMENT: LC, Waters Acquity UPLC System; MS, Waters Xevo G2 Q-Tof
AC$INSTRUMENT_TYPE: LC-ESI-QTOF
AC$MASS_SPECTROMETRY: MS_TYPE MS2
AC$MASS_SPECTROMETRY: ION_MODE POSITIVE
AC$MASS_SPECTROMETRY: COLLISION_ENERGY 6V
AC$MASS_SPECTROMETRY: DESOLVATION_GAS_FLOW 800/h
AC$MASS_SPECTROMETRY: DESOLVATION_TEMPERATURE 450 C
AC$MASS_SPECTROMETRY: IONIZATION ESI
AC$CHROMATOGRAPHY: CAPILLARY_VOLTAGE +3.00 kV
AC$CHROMATOGRAPHY: COLUMN_NAME Acquity bridged ethyl hybrid C18 (1.7 um, 2.1 mm * 100 mm, Waters)
AC$CHROMATOGRAPHY: COLUMN_TEMPERATURE 40 C
AC$CHROMATOGRAPHY: FLOW_GRADIENT A/B = (99.5%/0.5% at 0 min, 99.5%/0.5% at 0.1 min, 20%/80% at 10 min, 0.5%/99.5% at 10.1 min, 0.5%/99.5% at 12.0 min, 99.5%/0.5% at 12.1 min, 99.5%/0.5% at 15.0 min)
AC$CHROMATOGRAPHY: FLOW_RATE 0.3 ml/min at 0 min, 0.3 ml/min at 10 min, 0.4 ml/min at 10.1 min, 0.4 ml/min at 14.4 min, 0.3 ml/min at 14.5 min
AC$CHROMATOGRAPHY: RETENTION_TIME 1.93
AC$CHROMATOGRAPHY: SOLVENT A water including 0.1% formic acid
AC$CHROMATOGRAPHY: SOLVENT B acetonitrile including 0.1% formic acid
MS$FOCUSED_ION: PRECURSOR_TYPE [M+H]+
MS$FOCUSED_ION: PRECURSOR_M/Z 284.0999
PK$SPLASH: splash10-0udi-0900000000-e1d3eba60919e03a4011
PK$NUM_PEAK: 18
PK$PEAK: m/z int. rel.int.
  110.03337 16.0 7
  110.04293 50.0 21
  135.02481 75.0 31
  135.033 142.0 59
  136.03842 43.0 18
  137.04796 20.0 8
  140.07552 17.0 7
  142.05524 20.0 8
  148.05548 18.0 8
  152.03183 20.0 8
  152.05701 2394.0 999
  153.05725 165.0 69
  153.0666 37.0 15
  185.08577 27.0 11
  247.1158 17.0 7
  284.09488 63.0 26
  284.10428 41.0 17
  284.12955 17.0 7
//
