ACCESSION: MSBNK-RIKEN-PR309312
RECORD_TITLE: Flavanone base + 6O; LC-ESI-QTOF; MS2
DATE: 2019.03.28
AUTHORS: Tetsuya Mori, Center for Sustainable Resource Science, RIKEN
LICENSE: CC BY-NC-SA
PUBLICATION: Tsugawa H., Nakabayashi R., Mori T., Yamada Y., Takahashi M., Rai A., Sugiyama R., Yamamoto H., Nakaya T., Yamazaki M., Kooke R., Bac-Molenaar JA., Oztolan-Erol N., Keurentjes JJB., Arita M., Saito K. (2019) "A cheminformatics approach to characterize metabolomes in stable-isotope-labeled organisms" Nature Methods 16(4):295-298. [doi:10.1038/s41592-019-0358-2]
COMMENT: Annotation level-3
CH$NAME: Flavanone base + 6O
CH$COMPOUND_CLASS: Flavanone O-glycosides
CH$FORMULA: C15H12O8
CH$EXACT_MASS: 320.253
CH$SMILES: O=C2C3=C(O)C=C(O)C=C3(OC(C1=CC(O)=C(O)C(O)=C1)C2(O))
CH$IUPAC: InChI=1S/C15H12O8/c16-6-3-7(17)11-10(4-6)23-15(14(22)13(11)21)5-1-8(18)12(20)9(19)2-5/h1-4,14-20,22H
CH$LINK: INCHIKEY KJXSIXMJHKAJOD-UHFFFAOYSA-N
AC$INSTRUMENT: LC, Waters Acquity UPLC System; MS, Waters Xevo G2 Q-Tof
AC$INSTRUMENT_TYPE: LC-ESI-QTOF
AC$MASS_SPECTROMETRY: MS_TYPE MS2
AC$MASS_SPECTROMETRY: ION_MODE NEGATIVE
AC$MASS_SPECTROMETRY: COLLISION_ENERGY 6V
AC$MASS_SPECTROMETRY: DESOLVATION_GAS_FLOW 800/h
AC$MASS_SPECTROMETRY: DESOLVATION_TEMPERATURE 450 C
AC$MASS_SPECTROMETRY: IONIZATION ESI
AC$CHROMATOGRAPHY: CAPILLARY_VOLTAGE +3.00 kV
AC$CHROMATOGRAPHY: COLUMN_NAME Acquity bridged ethyl hybrid C18 (1.7 um, 2.1 mm * 100 mm, Waters)
AC$CHROMATOGRAPHY: COLUMN_TEMPERATURE 40 C
AC$CHROMATOGRAPHY: FLOW_GRADIENT A/B = (99.5%/0.5% at 0 min, 99.5%/0.5% at 0.1 min, 20%/80% at 10 min, 0.5%/99.5% at 10.1 min, 0.5%/99.5% at 12.0 min, 99.5%/0.5% at 12.1 min, 99.5%/0.5% at 15.0 min)
AC$CHROMATOGRAPHY: FLOW_RATE 0.3 ml/min at 0 min, 0.3 ml/min at 10 min, 0.4 ml/min at 10.1 min, 0.4 ml/min at 14.4 min, 0.3 ml/min at 14.5 min
AC$CHROMATOGRAPHY: RETENTION_TIME 3.64
AC$CHROMATOGRAPHY: SOLVENT A water including 0.1% formic acid
AC$CHROMATOGRAPHY: SOLVENT B acetonitrile including 0.1% formic acid
MS$FOCUSED_ION: PRECURSOR_TYPE [M-H]-
MS$FOCUSED_ION: PRECURSOR_M/Z 319.0459
PK$SPLASH: splash10-002f-0900000000-e8628700ce4aa3a0673f
PK$NUM_PEAK: 21
PK$PEAK: m/z int. rel.int.
  65.00113 21.0 63
  109.0279 38.0 114
  125.02313 84.0 253
  147.00772 19.0 57
  149.01543 18.0 54
  153.01529 21.0 63
  157.02292 18.0 54
  163.05013 18.0 54
  165.0249 23.0 69
  175.00551 42.0 126
  177.04883 18.0 54
  178.99965 61.0 184
  179.99837 21.0 63
  181.01305 27.0 81
  193.01247 332.0 999
  194.02116 25.0 75
  233.03789 22.0 66
  257.05484 20.0 60
  283.02502 18.0 54
  301.02682 43.0 129
  301.04547 40.0 120
//
