ACCESSION: MSBNK-RIKEN-PR100855
RECORD_TITLE: N-Tigloylglycine; LC-ESI-QTOF; MS2; CE:Ramp 5-60 V; [M-H]-
DATE: 2016.01.19 (Created 2010.06.21, modified 2011.05.06)
AUTHORS: Matsuda F, Suzuki M, Sawada Y, Plant Science Center, RIKEN.
LICENSE: CC BY-SA
COMMENT: Acquisition and generation of the data is financially supported in part by CREST/JST.
CH$NAME: N-Tigloylglycine
CH$NAME: Tiglylglycine
CH$COMPOUND_CLASS: Amino acids
CH$FORMULA: C7H11NO3
CH$EXACT_MASS: 157.07389
CH$SMILES: CC=C(C)C(=O)NCC(O)=O
CH$IUPAC: InChI=1S/C7H11NO3/c1-3-5(2)7(11)8-4-6(9)10/h3H,4H2,1-2H3,(H,8,11)(H,9,10)/b5-3+
CH$LINK: CAS 35842-45-6
CH$LINK: CHEMSPIDER 4945715
CH$LINK: PUBCHEM CID:6441567
CH$LINK: INCHIKEY WRUSVQOKJIDBLP-HWKANZROSA-N
AC$INSTRUMENT: UPLC Q-Tof Premier, Waters
AC$INSTRUMENT_TYPE: LC-ESI-QTOF
AC$MASS_SPECTROMETRY: MS_TYPE MS2
AC$MASS_SPECTROMETRY: ION_MODE NEGATIVE
AC$MASS_SPECTROMETRY: COLLISION_ENERGY Ramp 5-60 V
AC$MASS_SPECTROMETRY: DATAFORMAT Continuum
AC$MASS_SPECTROMETRY: DESOLVATION_GAS_FLOW 600.0 L/Hr
AC$MASS_SPECTROMETRY: DESOLVATION_TEMPERATURE 400 C
AC$MASS_SPECTROMETRY: FRAGMENTATION_METHOD LOW-ENERGY CID
AC$MASS_SPECTROMETRY: IONIZATION ESI
AC$MASS_SPECTROMETRY: SOURCE_TEMPERATURE 120 C
AC$CHROMATOGRAPHY: CAPILLARY_VOLTAGE 3.0 kV
AC$CHROMATOGRAPHY: SAMPLING_CONE 23.0 V
AC$CHROMATOGRAPHY: SOLVENT A CH3CN(0.1%HCOOH)
AC$CHROMATOGRAPHY: SOLVENT B H2O(0.1%HCOOH)
MS$FOCUSED_ION: PRECURSOR_M/Z 156.06609
MS$FOCUSED_ION: PRECURSOR_TYPE [M-H]-
PK$SPLASH: splash10-0a4i-1900000000-2cd6e4c6ab2eeb847328
PK$NUM_PEAK: 5
PK$PEAK: m/z int. rel.int.
  74.0258 86.43 175
  96.0463 43.47 88
  110.0617 31.84 64
  112.0772 208.3 421
  156.0661 493.9 999
//
