ACCESSION: MSBNK-RIKEN-PR100642
RECORD_TITLE: Kaempferide; LC-ESI-QTOF; MS2; CE:Ramp 5-60 V; [M-H]-
DATE: 2016.01.19 (Created 2010.06.21, modified 2011.05.06)
AUTHORS: Matsuda F, Suzuki M, Sawada Y, Plant Science Center, RIKEN.
LICENSE: CC BY-SA
COMMENT: Acquisition and generation of the data is financially supported in part by CREST/JST.
CH$NAME: Kaempferide
CH$NAME: Kaer
CH$NAME: 3,5,7-trihydroxy-4'-methoxyflavone
CH$NAME: Kaempferid
CH$NAME: Kaempferol 4'-methyl ether
CH$NAME: 4'-O-Methylkaempferol
CH$NAME: 4H-1-Benzopyran-4-one, 3,5,7-trihydroxy-2-(4-methoxyphenyl)-
CH$COMPOUND_CLASS: Flavonoid
CH$FORMULA: C16H12O6
CH$EXACT_MASS: 300.06339
CH$SMILES: COc(c3)ccc(c3)C(O1)=C(O)C(=O)c(c(O)2)c(cc(O)c2)1
CH$IUPAC: InChI=1S/C16H12O6/c1-21-10-4-2-8(3-5-10)16-15(20)14(19)13-11(18)6-9(17)7-12(13)22-16/h2-7,17-18,20H,1H3
CH$LINK: CAS 491-54-3
CH$LINK: CHEMSPIDER 4444985
CH$LINK: KEGG C10098
CH$LINK: KNAPSACK C00001060
CH$LINK: PUBCHEM CID:5281666
CH$LINK: INCHIKEY SQFSKOYWJBQGKQ-UHFFFAOYSA-N
CH$LINK: COMPTOX DTXSID9034155
AC$INSTRUMENT: UPLC Q-Tof Premier, Waters
AC$INSTRUMENT_TYPE: LC-ESI-QTOF
AC$MASS_SPECTROMETRY: MS_TYPE MS2
AC$MASS_SPECTROMETRY: ION_MODE NEGATIVE
AC$MASS_SPECTROMETRY: COLLISION_ENERGY Ramp 5-60 V
AC$MASS_SPECTROMETRY: DATAFORMAT Continuum
AC$MASS_SPECTROMETRY: DESOLVATION_GAS_FLOW 600.0 L/Hr
AC$MASS_SPECTROMETRY: DESOLVATION_TEMPERATURE 400 C
AC$MASS_SPECTROMETRY: FRAGMENTATION_METHOD LOW-ENERGY CID
AC$MASS_SPECTROMETRY: IONIZATION ESI
AC$MASS_SPECTROMETRY: SOURCE_TEMPERATURE 120 C
AC$CHROMATOGRAPHY: CAPILLARY_VOLTAGE 3.0 kV
AC$CHROMATOGRAPHY: SAMPLING_CONE 23.0 V
AC$CHROMATOGRAPHY: SOLVENT A CH3CN(0.1%HCOOH)
AC$CHROMATOGRAPHY: SOLVENT B H2O(0.1%HCOOH)
MS$FOCUSED_ION: PRECURSOR_M/Z 299.05559
MS$FOCUSED_ION: PRECURSOR_TYPE [M-H]-
PK$SPLASH: splash10-000t-1390000000-6bcab21096c8f7188eac
PK$NUM_PEAK: 11
PK$PEAK: m/z int. rel.int.
  63.0257 84.99 88
  65.0048 56.61 59
  83.0151 83.21 86
  107.0147 177.8 185
  108.0229 48.87 51
  132.0225 86.96 90
  151.0041 283.8 295
  163.0042 78.47 81
  164.0122 94.56 98
  284.0333 916.7 951
  299.0556 962.7 999
//
