ACCESSION: MSBNK-RIKEN-PR301068
RECORD_TITLE: Ajmaline; LC-ESI-QTOF; MS2
DATE: 2019.03.28
AUTHORS: Tetsuya Mori, Center for Sustainable Resource Science, RIKEN
LICENSE: CC BY-NC-SA
PUBLICATION: Tsugawa H., Nakabayashi R., Mori T., Yamada Y., Takahashi M., Rai A., Sugiyama R., Yamamoto H., Nakaya T., Yamazaki M., Kooke R., Bac-Molenaar JA., Oztolan-Erol N., Keurentjes JJB., Arita M., Saito K. (2019) "A cheminformatics approach to characterize metabolomes in stable-isotope-labeled organisms" Nature Methods 16(4):295-298. [doi:10.1038/s41592-019-0358-2]
COMMENT: registered in RIKEN PlaSMA
CH$NAME: Ajmaline
CH$COMPOUND_CLASS: Ajmaline-sarpagine alkaloids
CH$FORMULA: C20H26N2O2
CH$EXACT_MASS: 326.44
CH$SMILES: CC[C@H]1[C@@H]2CC3[C@@H]4N(C)C5=CC=CC=C5[C@]44C[C@@H](C2[C@H]4O)N3[C@@H]1O
CH$IUPAC: InChI=1S/C20H26N2O2/c1-3-10-11-8-14-17-20(12-6-4-5-7-13(12)21(17)2)9-15(16(11)18(20)23)22(14)19(10)24/h4-7,10-11,14-19,23-24H,3,8-9H2,1-2H3/t10-,11-,14?,15-,16?,17-,18+,19+,20+/m0/s1
CH$LINK: INCHIKEY CJDRUOGAGYHKKD-UORGRDHFSA-N
AC$INSTRUMENT: LC, Waters Acquity UPLC System; MS, Waters Xevo G2 Q-Tof
AC$INSTRUMENT_TYPE: LC-ESI-QTOF
AC$MASS_SPECTROMETRY: MS_TYPE MS2
AC$MASS_SPECTROMETRY: ION_MODE POSITIVE
AC$MASS_SPECTROMETRY: COLLISION_ENERGY 6V
AC$MASS_SPECTROMETRY: DESOLVATION_GAS_FLOW 800/h
AC$MASS_SPECTROMETRY: DESOLVATION_TEMPERATURE 450 C
AC$MASS_SPECTROMETRY: IONIZATION ESI
AC$CHROMATOGRAPHY: CAPILLARY_VOLTAGE +3.00 kV
AC$CHROMATOGRAPHY: COLUMN_NAME Acquity bridged ethyl hybrid C18 (1.7 um, 2.1 mm * 100 mm, Waters)
AC$CHROMATOGRAPHY: COLUMN_TEMPERATURE 40 C
AC$CHROMATOGRAPHY: FLOW_GRADIENT A/B = (99.5%/0.5% at 0 min, 99.5%/0.5% at 0.1 min, 20%/80% at 10 min, 0.5%/99.5% at 10.1 min, 0.5%/99.5% at 12.0 min, 99.5%/0.5% at 12.1 min, 99.5%/0.5% at 15.0 min)
AC$CHROMATOGRAPHY: FLOW_RATE 0.3 ml/min at 0 min, 0.3 ml/min at 10 min, 0.4 ml/min at 10.1 min, 0.4 ml/min at 14.4 min, 0.3 ml/min at 14.5 min
AC$CHROMATOGRAPHY: RETENTION_TIME 4.126867
AC$CHROMATOGRAPHY: SOLVENT A water including 0.1% formic acid
AC$CHROMATOGRAPHY: SOLVENT B acetonitrile including 0.1% formic acid
MS$FOCUSED_ION: PRECURSOR_TYPE [M+H]+
MS$FOCUSED_ION: PRECURSOR_M/Z 327.2067045
PK$SPLASH: splash10-05mo-0920000000-7d06870e9108ba3a1600
PK$NUM_PEAK: 349
PK$PEAK: m/z int. rel.int.
  55.05479 10.0 10
  56.04803 6.0 6
  57.03426 7.0 7
  67.04464 5.0 5
  67.05092 10.0 10
  68.05476 6.0 6
  70.07207 8.0 8
  71.01311 5.0 5
  77.02931 9.0 9
  77.03999 30.0 30
  79.0553 56.0 56
  80.03352 7.0 7
  80.04362 10.0 10
  80.05194 45.0 45
  80.06042 9.0 9
  81.03433 7.0 7
  81.05301 10.0 10
  81.05894 12.0 12
  81.07108 25.0 25
  82.06078 7.0 7
  82.06721 14.0 14
  82.07457 24.0 24
  83.04537 6.0 6
  83.05107 6.0 6
  84.04405 5.0 5
  84.05007 5.0 5
  90.49744 7.0 7
  91.03444 5.0 5
  91.04398 6.0 6
  91.05614 122.0 122
  92.0495 6.0 6
  92.05447 6.0 6
  92.05923 8.0 8
  93.07136 38.0 38
  94.06534 41.0 41
  95.0547 5.0 5
  95.08465 5.0 5
  96.04478 5.0 5
  96.08492 5.0 5
  97.05335 9.0 9
  98.09546 11.0 11
  101.68194 6.0 6
  103.0399 6.0 6
  103.05612 51.0 51
  103.68061 6.0 6
  104.06374 8.0 8
  105.07169 18.0 18
  106.06266 15.0 15
  106.06963 16.0 16
  107.06669 10.0 10
  108.05547 7.0 7
  108.0806 64.0 64
  108.92725 5.0 5
  109.05025 11.0 11
  109.06396 11.0 11
  109.06886 14.0 14
  109.08562 9.0 9
  109.24565 8.0 8
  110.05112 10.0 10
  110.06284 36.0 36
  110.09718 21.0 21
  110.1071 12.0 12
  111.08185 9.0 9
  111.10395 5.0 5
  111.64537 8.0 8
  115.05484 75.0 75
  115.48209 6.0 6
  116.04759 8.0 8
  116.05354 13.0 13
  116.06441 20.0 20
  117.05801 96.0 96
  117.06814 70.0 70
  117.07491 21.0 21
  118.0601 20.0 20
  118.06929 100.0 100
  118.07915 9.0 9
  119.08396 14.0 14
  120.05361 7.0 7
  120.07568 29.0 29
  120.08698 15.0 15
  121.073 10.0 10
  122.05606 5.0 5
  122.09718 10.0 10
  123.07357 7.0 7
  126.04308 5.0 5
  126.05409 6.0 6
  127.04727 13.0 13
  127.05717 45.0 45
  127.13292 6.0 6
  128.05342 45.0 45
  129.05992 24.0 24
  129.07553 20.0 20
  129.52603 5.0 5
  130.03618 8.0 8
  130.06633 196.0 196
  131.05608 7.0 7
  131.07475 203.0 203
  131.08406 29.0 29
  131.09451 6.0 6
  132.08174 130.0 130
  133.05042 5.0 5
  133.08987 5.0 5
  134.06305 10.0 10
  134.09013 6.0 6
  134.10049 26.0 26
  136.07684 20.0 20
  138.09073 29.0 29
  140.89198 5.0 5
  141.06892 9.0 9
  142.06522 76.0 76
  142.07814 18.0 18
  143.04774 6.0 6
  143.06967 94.0 94
  143.07751 173.0 173
  144.04491 10.0 10
  144.08203 1000.0 999
  145.07175 13.0 13
  145.08649 221.0 221
  146.0659 16.0 16
  146.08786 9.0 9
  146.09892 67.0 67
  146.11696 9.0 9
  146.83455 6.0 6
  147.04381 6.0 6
  148.08823 5.0 5
  149.09026 7.0 7
  151.05684 14.0 14
  152.0643 39.0 39
  153.06625 22.0 22
  153.07968 10.0 10
  154.06386 78.0 78
  155.07397 30.0 30
  155.81291 9.0 9
  156.06683 10.0 10
  156.08061 176.0 176
  156.11241 6.0 6
  157.06197 12.0 12
  157.07191 19.0 19
  157.08994 259.0 259
  158.05128 5.0 5
  158.07704 10.0 10
  158.09691 738.0 737
  159.08841 28.0 28
  159.09819 80.0 80
  159.10826 29.0 29
  160.0721 21.0 21
  160.09474 6.0 6
  164.96573 7.0 7
  165.06284 10.0 10
  165.07256 34.0 34
  166.05266 6.0 6
  166.0733 25.0 25
  167.03029 7.0 7
  167.07433 459.0 459
  167.09055 8.0 8
  168.05765 8.0 8
  168.07352 86.0 86
  168.08083 333.0 333
  169.06903 29.0 29
  169.07846 46.0 46
  169.09026 166.0 166
  170.08029 16.0 16
  170.09157 85.0 85
  170.09877 81.0 81
  170.1069 38.0 38
  171.03432 5.0 5
  171.09056 63.0 63
  171.0983 26.0 26
  171.11134 5.0 5
  172.07047 39.0 39
  172.07774 60.0 60
  172.10722 14.0 14
  172.11679 25.0 25
  172.80611 6.0 6
  173.08829 12.0 12
  174.07764 6.0 6
  174.09018 49.0 49
  174.4753 5.0 5
  176.34544 8.0 8
  177.05867 12.0 12
  178.07967 13.0 13
  179.04968 5.0 5
  179.0696 47.0 47
  179.09624 17.0 17
  180.04718 5.0 5
  180.07968 211.0 211
  180.13501 6.0 6
  181.06348 19.0 19
  181.08762 182.0 182
  181.09749 48.0 48
  182.07794 28.0 28
  182.09396 314.0 314
  183.08585 6.0 6
  183.10092 76.0 76
  183.11685 6.0 6
  183.94225 5.0 5
  184.07611 10.0 10
  184.10599 64.0 64
  184.11891 38.0 38
  184.1264 18.0 18
  185.08171 15.0 15
  185.09018 6.0 6
  185.10321 25.0 25
  185.11407 53.0 53
  190.08038 9.0 9
  191.02605 9.0 9
  191.07298 11.0 11
  191.08635 11.0 11
  192.06244 7.0 7
  192.08069 31.0 31
  193.08545 86.0 86
  193.14484 6.0 6
  194.09621 517.0 516
  194.46802 7.0 7
  195.06194 9.0 9
  195.08806 20.0 20
  195.10208 177.0 177
  195.11098 64.0 64
  195.18193 5.0 5
  195.95534 5.0 5
  196.06003 9.0 9
  196.07133 39.0 39
  196.08563 26.0 26
  196.09781 42.0 42
  196.1104 138.0 138
  196.12749 9.0 9
  197.07858 38.0 38
  197.09624 13.0 13
  197.1089 24.0 24
  198.09323 14.0 14
  198.13089 21.0 21
  198.20479 5.0 5
  199.1239 7.0 7
  199.13826 5.0 5
  200.09512 5.0 5
  200.10681 11.0 11
  200.11765 5.0 5
  204.06923 12.0 12
  204.08446 41.0 41
  204.09393 20.0 20
  205.06966 9.0 9
  205.08899 57.0 57
  206.08014 5.0 5
  206.0956 89.0 89
  207.08733 25.0 25
  207.10419 110.0 110
  207.11311 35.0 35
  208.07433 10.0 10
  208.10976 64.0 64
  208.11745 85.0 85
  208.37697 7.0 7
  209.08376 14.0 14
  209.10896 15.0 15
  209.12218 28.0 28
  210.08138 5.0 5
  210.09615 31.0 31
  210.12592 85.0 85
  210.13602 47.0 47
  211.09279 18.0 18
  211.10281 14.0 14
  211.12415 44.0 44
  211.92557 6.0 6
  212.10014 15.0 15
  212.10873 16.0 16
  212.14497 11.0 11
  213.08612 7.0 7
  213.14201 9.0 9
  214.10706 6.0 6
  216.03671 7.0 7
  216.07733 6.0 6
  217.08617 13.0 13
  217.10127 7.0 7
  218.08571 16.0 16
  218.09724 31.0 31
  219.09221 24.0 24
  219.10719 21.0 21
  220.03648 5.0 5
  220.0764 5.0 5
  220.10847 40.0 40
  220.11819 92.0 92
  220.14757 7.0 7
  221.09233 5.0 5
  221.10558 27.0 27
  221.11783 50.0 50
  222.10616 13.0 13
  222.12787 22.0 22
  223.09608 11.0 11
  223.1268 54.0 54
  224.14334 11.0 11
  224.25934 6.0 6
  225.07825 6.0 6
  226.12495 19.0 19
  226.69469 5.0 5
  227.12755 9.0 9
  229.07605 9.0 9
  230.09669 14.0 14
  231.09698 5.0 5
  231.11003 5.0 5
  232.10785 17.0 17
  232.12114 5.0 5
  233.07307 7.0 7
  233.10829 23.0 23
  233.12372 25.0 25
  234.10793 14.0 14
  234.11845 23.0 23
  234.13091 29.0 29
  235.09248 7.0 7
  235.12234 42.0 42
  235.14047 20.0 20
  236.11394 26.0 26
  236.13557 16.0 16
  236.14571 44.0 44
  236.15417 15.0 15
  237.13202 8.0 8
  237.14143 28.0 28
  238.11697 20.0 20
  238.14122 10.0 10
  238.15828 6.0 6
  239.13788 7.0 7
  239.15073 40.0 40
  239.16202 20.0 20
  244.08691 6.0 6
  244.11566 11.0 11
  245.11784 10.0 10
  246.11473 9.0 9
  247.1013 5.0 5
  247.11635 21.0 21
  247.1451 7.0 7
  248.10594 9.0 9
  248.14928 11.0 11
  250.15732 9.0 9
  251.1214 5.0 5
  251.15231 5.0 5
  252.13614 6.0 6
  256.15051 6.0 6
  258.78726 5.0 5
  260.12839 6.0 6
  261.14035 10.0 10
  262.09109 8.0 8
  262.16476 5.0 5
  263.14215 6.0 6
  263.16037 13.0 13
  265.86255 6.0 6
  266.16324 6.0 6
  301.34167 5.0 5
  312.1459 5.0 5
  319.78357 5.0 5
  327.19949 17.0 17
  327.20914 28.0 28
//
