ACCESSION: MSBNK-RIKEN-PR300094
RECORD_TITLE: Tabersonine; LC-ESI-QTOF; MS2
DATE: 2019.03.28
AUTHORS: Tetsuya Mori, Center for Sustainable Resource Science, RIKEN
LICENSE: CC BY-NC-SA
PUBLICATION: Tsugawa H., Nakabayashi R., Mori T., Yamada Y., Takahashi M., Rai A., Sugiyama R., Yamamoto H., Nakaya T., Yamazaki M., Kooke R., Bac-Molenaar JA., Oztolan-Erol N., Keurentjes JJB., Arita M., Saito K. (2019) "A cheminformatics approach to characterize metabolomes in stable-isotope-labeled organisms" Nature Methods 16(4):295-298. [doi:10.1038/s41592-019-0358-2]
COMMENT: registered in RIKEN PlaSMA
CH$NAME: Tabersonine
CH$COMPOUND_CLASS: Plumeran-type alkaloids
CH$FORMULA: C21H24N2O2
CH$EXACT_MASS: 336.435
CH$SMILES: CC[C@@]12CC(C(=O)OC)=C3NC4=CC=CC=C4[C@@]33CCN(CC=C1)[C@@H]23
CH$IUPAC: InChI=1S/C21H24N2O2/c1-3-20-9-6-11-23-12-10-21(19(20)23)15-7-4-5-8-16(15)22-17(21)14(13-20)18(24)25-2/h4-9,19,22H,3,10-13H2,1-2H3/t19-,20-,21-/m0/s1
CH$LINK: INCHIKEY FNGGIPWAZSFKCN-ACRUOGEOSA-N
AC$INSTRUMENT: LC, Waters Acquity UPLC System; MS, Waters Xevo G2 Q-Tof
AC$INSTRUMENT_TYPE: LC-ESI-QTOF
AC$MASS_SPECTROMETRY: MS_TYPE MS2
AC$MASS_SPECTROMETRY: ION_MODE POSITIVE
AC$MASS_SPECTROMETRY: COLLISION_ENERGY 6V
AC$MASS_SPECTROMETRY: DESOLVATION_GAS_FLOW 800/h
AC$MASS_SPECTROMETRY: DESOLVATION_TEMPERATURE 450 C
AC$MASS_SPECTROMETRY: IONIZATION ESI
AC$CHROMATOGRAPHY: CAPILLARY_VOLTAGE +3.00 kV
AC$CHROMATOGRAPHY: COLUMN_NAME Acquity bridged ethyl hybrid C18 (1.7 um, 2.1 mm * 100 mm, Waters)
AC$CHROMATOGRAPHY: COLUMN_TEMPERATURE 40 C
AC$CHROMATOGRAPHY: FLOW_GRADIENT A/B = (99.5%/0.5% at 0 min, 99.5%/0.5% at 0.1 min, 20%/80% at 10 min, 0.5%/99.5% at 10.1 min, 0.5%/99.5% at 12.0 min, 99.5%/0.5% at 12.1 min, 99.5%/0.5% at 15.0 min)
AC$CHROMATOGRAPHY: FLOW_RATE 0.3 ml/min at 0 min, 0.3 ml/min at 10 min, 0.4 ml/min at 10.1 min, 0.4 ml/min at 14.4 min, 0.3 ml/min at 14.5 min
AC$CHROMATOGRAPHY: RETENTION_TIME 5.19835
AC$CHROMATOGRAPHY: SOLVENT A water including 0.1% formic acid
AC$CHROMATOGRAPHY: SOLVENT B acetonitrile including 0.1% formic acid
MS$FOCUSED_ION: PRECURSOR_TYPE [M+H]+
MS$FOCUSED_ION: PRECURSOR_M/Z 337.1910545
PK$SPLASH: splash10-066s-0941000000-ee35d2d296fa33b53ada
PK$NUM_PEAK: 183
PK$PEAK: m/z int. rel.int.
  79.04584 5.0 5
  79.05138 7.0 7
  80.04818 26.0 26
  91.05417 17.0 17
  93.06326 7.0 7
  93.0705 16.0 16
  94.0675 16.0 16
  95.08677 8.0 8
  105.06689 13.0 13
  106.06513 14.0 14
  107.07386 6.0 6
  107.08376 19.0 19
  108.08059 60.0 60
  109.07786 5.0 5
  109.10099 16.0 16
  110.08952 6.0 6
  110.09644 12.0 12
  111.09736 8.0 8
  119.07488 5.0 5
  119.0833 5.0 5
  120.08394 11.0 11
  120.08936 5.0 5
  121.08999 9.0 9
  122.09767 111.0 111
  123.10175 11.0 11
  129.06966 44.0 44
  130.06459 28.0 28
  131.07693 6.0 6
  132.07988 26.0 26
  134.09445 65.0 65
  134.10048 30.0 30
  135.10352 9.0 9
  135.11214 8.0 8
  136.11159 394.0 394
  137.11572 38.0 38
  142.06625 39.0 39
  143.0724 16.0 16
  143.08487 27.0 27
  144.08023 131.0 131
  144.09317 6.0 6
  145.08087 6.0 6
  145.08864 5.0 5
  146.09906 25.0 25
  147.0932 5.0 5
  148.11555 9.0 9
  154.05045 6.0 6
  154.06396 65.0 65
  155.07552 29.0 29
  156.06145 13.0 13
  156.08109 235.0 235
  157.08751 31.0 31
  158.09814 23.0 23
  160.07239 10.0 10
  162.08052 8.0 8
  162.08931 22.0 22
  162.09691 12.0 12
  167.07161 52.0 52
  168.03024 8.0 8
  168.08011 1000.0 999
  169.06563 9.0 9
  169.08458 153.0 153
  170.05647 14.0 14
  170.09608 275.0 275
  171.09924 49.0 49
  171.10678 17.0 17
  174.09361 10.0 10
  180.07779 8.0 8
  180.08917 6.0 6
  181.07774 5.0 5
  182.09747 9.0 9
  183.06473 11.0 11
  183.07961 8.0 8
  183.09526 7.0 7
  184.07414 37.0 37
  184.0826 10.0 10
  184.09698 9.0 9
  184.10753 18.0 18
  185.08134 7.0 7
  188.07365 14.0 14
  194.05867 11.0 11
  194.10474 8.0 8
  195.08664 5.0 5
  196.04448 8.0 8
  196.07538 419.0 419
  196.10263 6.0 6
  196.11208 11.0 11
  197.07956 63.0 63
  197.10661 5.0 5
  198.07343 6.0 6
  198.08734 30.0 30
  198.09857 10.0 10
  200.10756 11.0 11
  202.08514 22.0 22
  204.08273 9.0 9
  205.08289 6.0 6
  206.09491 19.0 19
  206.11455 23.0 23
  207.09164 7.0 7
  207.09961 6.0 6
  208.10475 6.0 6
  210.12164 9.0 9
  214.08952 21.0 21
  216.10275 68.0 68
  217.10419 8.0 8
  218.08858 7.0 7
  218.09827 5.0 5
  218.10936 6.0 6
  219.09416 13.0 13
  219.10611 13.0 13
  220.09595 8.0 8
  220.10597 10.0 10
  221.10278 6.0 6
  221.11621 12.0 12
  222.10545 11.0 11
  222.12532 10.0 10
  223.12436 6.0 6
  228.10042 307.0 307
  229.10541 60.0 60
  230.10992 13.0 13
  230.12108 18.0 18
  231.09351 11.0 11
  231.10728 6.0 6
  232.1104 15.0 15
  233.10632 29.0 29
  233.12283 8.0 8
  234.10869 13.0 13
  234.1226 27.0 27
  235.10826 8.0 8
  235.12276 39.0 39
  236.12297 11.0 11
  236.14345 34.0 34
  244.11647 5.0 5
  244.13199 7.0 7
  245.10826 6.0 6
  246.12425 6.0 6
  247.0778 6.0 6
  247.12268 37.0 37
  248.1109 6.0 6
  248.12775 21.0 21
  248.14072 41.0 41
  248.1501 15.0 15
  249.10712 7.0 7
  249.1394 293.0 293
  250.13676 51.0 51
  250.15228 17.0 17
  251.14871 9.0 9
  251.16194 7.0 7
  260.11288 8.0 8
  260.14059 21.0 21
  261.14426 16.0 16
  262.13702 18.0 18
  262.14972 18.0 18
  263.13568 7.0 7
  263.15576 34.0 34
  264.14893 8.0 8
  264.16452 16.0 16
  275.1199 37.0 37
  275.15469 26.0 26
  275.16354 10.0 10
  276.11783 13.0 13
  276.13138 13.0 13
  276.1452 10.0 10
  276.16547 10.0 10
  277.11636 5.0 5
  277.12775 26.0 26
  277.14111 11.0 11
  277.17151 141.0 141
  278.12396 5.0 5
  278.14603 12.0 12
  278.16235 23.0 23
  278.17947 20.0 20
  279.14951 5.0 5
  303.14618 76.0 76
  304.15521 25.0 25
  305.11618 6.0 6
  305.16473 422.0 422
  306.16956 80.0 80
  306.1814 21.0 21
  307.14096 8.0 8
  307.16415 13.0 13
  309.16287 9.0 9
  337.17896 35.0 35
  337.19263 52.0 52
//
