ACCESSION: MSBNK-RIKEN-PR306228
RECORD_TITLE: Apigenin-8-C-glucoside; LC-ESI-QTOF; MS2
DATE: 2019.03.28
AUTHORS: Tetsuya Mori, Center for Sustainable Resource Science, RIKEN
LICENSE: CC BY-NC-SA
PUBLICATION: Tsugawa H., Nakabayashi R., Mori T., Yamada Y., Takahashi M., Rai A., Sugiyama R., Yamamoto H., Nakaya T., Yamazaki M., Kooke R., Bac-Molenaar JA., Oztolan-Erol N., Keurentjes JJB., Arita M., Saito K. (2019) "A cheminformatics approach to characterize metabolomes in stable-isotope-labeled organisms" Nature Methods 16(4):295-298. [doi:10.1038/s41592-019-0358-2]
COMMENT: registered in RIKEN PlaSMA
CH$NAME: Apigenin-8-C-glucoside
CH$COMPOUND_CLASS: Flavonoid 8-C-glycosides
CH$FORMULA: C21H20O10
CH$EXACT_MASS: 432.381
CH$SMILES: C1=CC(=CC=C1C2=CC(=O)C3=C(O2)C(=C(C=C3O)O)[C@H]4[C@@H]([C@H]([C@@H]([C@H](O4)CO)O)O)O)O
CH$IUPAC: InChI=1S/C21H20O10/c22-7-14-17(27)18(28)19(29)21(31-14)16-11(25)5-10(24)15-12(26)6-13(30-20(15)16)8-1-3-9(23)4-2-8/h1-6,14,17-19,21-25,27-29H,7H2/t14-,17-,18+,19-,21+/m1/s1
CH$LINK: INCHIKEY SGEWCQFRYRRZDC-VPRICQMDSA-N
AC$INSTRUMENT: LC, Waters Acquity UPLC System; MS, Waters Xevo G2 Q-Tof
AC$INSTRUMENT_TYPE: LC-ESI-QTOF
AC$MASS_SPECTROMETRY: MS_TYPE MS2
AC$MASS_SPECTROMETRY: ION_MODE NEGATIVE
AC$MASS_SPECTROMETRY: COLLISION_ENERGY 6V
AC$MASS_SPECTROMETRY: DESOLVATION_GAS_FLOW 800/h
AC$MASS_SPECTROMETRY: DESOLVATION_TEMPERATURE 450 C
AC$MASS_SPECTROMETRY: IONIZATION ESI
AC$CHROMATOGRAPHY: CAPILLARY_VOLTAGE -2.75 kV
AC$CHROMATOGRAPHY: COLUMN_NAME Acquity bridged ethyl hybrid C18 (1.7 um, 2.1 mm * 100 mm, Waters)
AC$CHROMATOGRAPHY: COLUMN_TEMPERATURE 40 C
AC$CHROMATOGRAPHY: FLOW_GRADIENT A/B = (99.5%/0.5% at 0 min, 99.5%/0.5% at 0.1 min, 20%/80% at 10 min, 0.5%/99.5% at 10.1 min, 0.5%/99.5% at 12.0 min, 99.5%/0.5% at 12.1 min, 99.5%/0.5% at 15.0 min)
AC$CHROMATOGRAPHY: FLOW_RATE 0.3 ml/min at 0 min, 0.3 ml/min at 10 min, 0.4 ml/min at 10.1 min, 0.4 ml/min at 14.4 min, 0.3 ml/min at 14.5 min
AC$CHROMATOGRAPHY: RETENTION_TIME 3.964417
AC$CHROMATOGRAPHY: SOLVENT A water including 0.1% formic acid
AC$CHROMATOGRAPHY: SOLVENT B acetonitrile including 0.1% formic acid
MS$FOCUSED_ION: PRECURSOR_TYPE [M-H]-
MS$FOCUSED_ION: PRECURSOR_M/Z 431.09837034783
PK$SPLASH: splash10-014i-1930000000-572630d3ec3df6e8f372
PK$NUM_PEAK: 191
PK$PEAK: m/z int. rel.int.
  67.01527 22.0 22
  69.99895 15.0 15
  77.03769 126.0 126
  79.01788 78.0 78
  79.05271 12.0 12
  87.0151 16.0 16
  87.02233 25.0 25
  88.02577 10.0 10
  89.04008 28.0 28
  91.01503 12.0 12
  91.01988 10.0 10
  91.05307 12.0 12
  91.05608 32.0 32
  91.99026 9.0 9
  92.01986 12.0 12
  92.03184 14.0 14
  93.03392 129.0 129
  95.05136 23.0 23
  98.02195 9.0 9
  101.03851 12.0 12
  103.01359 12.0 12
  103.01848 16.0 16
  105.03444 46.0 46
  107.01098 36.0 36
  107.69108 10.0 10
  108.01756 12.0 12
  109.0265 23.0 23
  116.02739 14.0 14
  117.03341 1000.0 999
  117.76367 29.0 29
  118.0334 64.0 64
  119.0051 20.0 20
  119.00894 10.0 10
  119.04351 83.0 83
  119.05102 106.0 106
  120.01772 43.0 43
  121.02795 257.0 257
  123.00786 15.0 15
  131.00963 21.0 21
  131.04346 13.0 13
  131.05032 11.0 11
  133.0247 21.0 21
  134.03261 21.0 21
  135.00703 30.0 30
  135.03543 56.0 56
  135.04424 217.0 217
  136.01698 9.0 9
  136.04626 25.0 25
  137.00902 11.0 11
  137.02113 34.0 34
  141.0321 15.0 15
  142.40703 16.0 16
  143.04549 17.0 17
  144.05606 15.0 15
  145.02727 33.0 33
  146.03299 12.0 12
  147.04088 28.0 28
  148.01384 98.0 98
  149.02501 76.0 76
  150.99652 11.0 11
  151.0482 16.0 16
  155.05293 10.0 10
  156.0502 11.0 11
  156.05902 10.0 10
  157.00542 10.0 10
  158.04004 16.0 16
  159.0426 79.0 79
  159.05072 37.0 37
  160.01357 12.0 12
  160.04446 10.0 10
  160.05342 22.0 22
  161.02264 309.0 309
  161.99464 9.0 9
  162.02444 21.0 21
  163.0041 27.0 27
  163.03928 190.0 190
  164.00294 13.0 13
  164.01093 17.0 17
  164.03535 11.0 11
  164.04353 11.0 11
  165.01556 15.0 15
  166.02962 11.0 11
  168.05255 29.0 29
  168.06276 12.0 12
  169.05222 11.0 11
  169.06296 60.0 60
  171.04675 35.0 35
  171.07922 11.0 11
  172.05429 9.0 9
  173.01425 10.0 10
  173.05505 26.0 26
  173.06395 29.0 29
  176.01601 12.0 12
  177.01894 10.0 10
  180.06105 15.0 15
  182.03525 42.0 42
  182.06627 19.0 19
  183.03711 10.0 10
  183.05435 14.0 14
  183.07402 10.0 10
  185.01335 11.0 11
  185.02707 12.0 12
  185.05611 12.0 12
  185.06628 12.0 12
  187.04294 15.0 15
  187.06821 10.0 10
  189.01831 9.0 9
  192.06102 10.0 10
  193.01558 9.0 9
  193.06941 24.0 24
  194.48254 12.0 12
  195.041 60.0 60
  195.05356 30.0 30
  196.04964 54.0 54
  196.07344 10.0 10
  197.04395 13.0 13
  197.05563 91.0 91
  197.06819 13.0 13
  199.03981 25.0 25
  200.00932 16.0 16
  200.04057 9.0 9
  201.05421 9.0 9
  202.02061 10.0 10
  202.06129 13.0 13
  203.03531 23.0 23
  204.05328 12.0 12
  205.94041 11.0 11
  206.05202 10.0 10
  207.03706 14.0 14
  208.03853 11.0 11
  208.05199 32.0 32
  210.05756 13.0 13
  210.0641 35.0 35
  211.03316 10.0 10
  211.07225 66.0 66
  212.03667 11.0 11
  212.04916 15.0 15
  213.05473 9.0 9
  215.05672 9.0 9
  215.06529 24.0 24
  216.33888 14.0 14
  218.05949 10.0 10
  219.04442 15.0 15
  223.03548 10.0 10
  223.89651 14.0 14
  225.0524 50.0 50
  227.04634 20.0 20
  228.03165 10.0 10
  229.04283 12.0 12
  229.05069 12.0 12
  237.02939 14.0 14
  237.04897 21.0 21
  237.06372 24.0 24
  238.05603 11.0 11
  239.02017 16.0 16
  239.03275 29.0 29
  239.05702 12.0 12
  239.06892 17.0 17
  239.0757 9.0 9
  240.02611 11.0 11
  240.88904 9.0 9
  241.0403 19.0 19
  241.04878 9.0 9
  245.0636 11.0 11
  247.04453 10.0 10
  253.03908 33.0 33
  254.05836 9.0 9
  256.02905 10.0 10
  263.02927 11.0 11
  264.04355 9.0 9
  265.05817 10.0 10
  266.02133 12.0 12
  268.03268 49.0 49
  268.04276 12.0 12
  269.03992 10.0 10
  269.05716 15.0 15
  270.03494 10.0 10
  270.04507 9.0 9
  279.02768 15.0 15
  281.04532 52.0 52
  282.05289 34.0 34
  282.06476 17.0 17
  283.06 228.0 228
  283.07721 16.0 16
  284.06357 66.0 66
  285.06161 27.0 27
  293.04404 33.0 33
  294.04742 20.0 20
  295.05304 12.0 12
  312.05994 9.0 9
  354.30853 13.0 13
//
