ACCESSION: MSBNK-RIKEN-PR300058
RECORD_TITLE: Voacristine; LC-ESI-QTOF; MS2
DATE: 2019.03.28
AUTHORS: Tetsuya Mori, Center for Sustainable Resource Science, RIKEN
LICENSE: CC BY-NC-SA
PUBLICATION: Tsugawa H., Nakabayashi R., Mori T., Yamada Y., Takahashi M., Rai A., Sugiyama R., Yamamoto H., Nakaya T., Yamazaki M., Kooke R., Bac-Molenaar JA., Oztolan-Erol N., Keurentjes JJB., Arita M., Saito K. (2019) "A cheminformatics approach to characterize metabolomes in stable-isotope-labeled organisms" Nature Methods 16(4):295-298. [doi:10.1038/s41592-019-0358-2]
COMMENT: registered in RIKEN PlaSMA
CH$NAME: Voacristine
CH$COMPOUND_CLASS: Ibogan-type alkaloids
CH$FORMULA: C22H28N2O4
CH$EXACT_MASS: 384.476
CH$SMILES: COC(=O)[C@@]12C[C@H]3C[C@H]([C@H](C)O)[C@@H]1N(C3)CCC1=C2NC2=C1C=C(OC)C=C2
CH$IUPAC: InChI=1S/C22H28N2O4/c1-12(25)16-8-13-10-22(21(26)28-3)19-15(6-7-24(11-13)20(16)22)17-9-14(27-2)4-5-18(17)23-19/h4-5,9,12-13,16,20,23,25H,6-8,10-11H2,1-3H3/t12-,13+,16+,20-,22+/m0/s1
CH$LINK: INCHIKEY OYMQKBZMKFJPMH-VJMPXSKLSA-N
AC$INSTRUMENT: LC, Waters Acquity UPLC System; MS, Waters Xevo G2 Q-Tof
AC$INSTRUMENT_TYPE: LC-ESI-QTOF
AC$MASS_SPECTROMETRY: MS_TYPE MS2
AC$MASS_SPECTROMETRY: ION_MODE POSITIVE
AC$MASS_SPECTROMETRY: COLLISION_ENERGY 6V
AC$MASS_SPECTROMETRY: DESOLVATION_GAS_FLOW 800/h
AC$MASS_SPECTROMETRY: DESOLVATION_TEMPERATURE 450 C
AC$MASS_SPECTROMETRY: IONIZATION ESI
AC$CHROMATOGRAPHY: CAPILLARY_VOLTAGE +3.00 kV
AC$CHROMATOGRAPHY: COLUMN_NAME Acquity bridged ethyl hybrid C18 (1.7 um, 2.1 mm * 100 mm, Waters)
AC$CHROMATOGRAPHY: COLUMN_TEMPERATURE 40 C
AC$CHROMATOGRAPHY: FLOW_GRADIENT A/B = (99.5%/0.5% at 0 min, 99.5%/0.5% at 0.1 min, 20%/80% at 10 min, 0.5%/99.5% at 10.1 min, 0.5%/99.5% at 12.0 min, 99.5%/0.5% at 12.1 min, 99.5%/0.5% at 15.0 min)
AC$CHROMATOGRAPHY: FLOW_RATE 0.3 ml/min at 0 min, 0.3 ml/min at 10 min, 0.4 ml/min at 10.1 min, 0.4 ml/min at 14.4 min, 0.3 ml/min at 14.5 min
AC$CHROMATOGRAPHY: RETENTION_TIME 4.611467
AC$CHROMATOGRAPHY: SOLVENT A water including 0.1% formic acid
AC$CHROMATOGRAPHY: SOLVENT B acetonitrile including 0.1% formic acid
MS$FOCUSED_ION: PRECURSOR_TYPE [M+H]+
MS$FOCUSED_ION: PRECURSOR_M/Z 385.2121838
PK$SPLASH: splash10-01p9-0970000000-d4dff688281972a66119
PK$NUM_PEAK: 847
PK$PEAK: m/z int. rel.int.
  55.05577 6.0 6
  58.05567 7.0 7
  58.07253 7.0 7
  65.03069 10.0 10
  67.05179 74.0 74
  67.05769 12.0 12
  68.05031 35.0 35
  68.05809 9.0 9
  69.06976 14.0 14
  69.20376 13.0 13
  70.06731 27.0 27
  71.0473 13.0 13
  72.08675 8.0 8
  75.70037 9.0 9
  77.03762 120.0 120
  78.03474 9.0 9
  79.05366 79.0 79
  79.90859 10.0 10
  80.0484 55.0 55
  80.05492 24.0 24
  80.31984 6.0 6
  80.57487 8.0 8
  81.06185 21.0 21
  81.06721 39.0 39
  81.07719 6.0 6
  81.3132 6.0 6
  81.33096 7.0 7
  82.05864 12.0 12
  82.06299 48.0 48
  82.06955 6.0 6
  82.52879 7.0 7
  83.07291 8.0 8
  83.09039 9.0 9
  84.94329 6.0 6
  91.04602 48.0 48
  91.05324 161.0 161
  91.06297 13.0 13
  92.05859 10.0 10
  92.49108 11.0 11
  93.02229 9.0 9
  93.03199 8.0 8
  93.05893 214.0 214
  93.07009 192.0 192
  94.05662 15.0 15
  94.06924 80.0 80
  94.89744 6.0 6
  95.05502 7.0 7
  95.07874 20.0 20
  95.09614 8.0 8
  96.07481 27.0 27
  96.08173 34.0 34
  96.46459 9.0 9
  98.09726 30.0 30
  100.00704 6.0 6
  103.05022 13.0 13
  104.04657 6.0 6
  104.05527 20.0 20
  105.07098 112.0 112
  105.07865 18.0 18
  106.04004 10.0 10
  106.06255 52.0 52
  106.07392 35.0 35
  107.05867 7.0 7
  107.07018 111.0 111
  107.08096 58.0 58
  107.08618 49.0 49
  107.0966 13.0 13
  107.23929 7.0 7
  108.04505 9.0 9
  108.0812 244.0 244
  109.08637 35.0 35
  110.0821 9.0 9
  110.09422 30.0 30
  110.87944 6.0 6
  111.04156 16.0 16
  111.07326 12.0 12
  111.74316 6.0 6
  112.97797 14.0 14
  114.04677 8.0 8
  115.04182 9.0 9
  115.05572 32.0 32
  116.049 30.0 30
  116.06459 13.0 13
  117.05363 91.0 91
  117.06888 80.0 80
  118.04418 15.0 15
  118.05963 10.0 10
  118.06492 29.0 29
  118.37486 6.0 6
  119.04714 10.0 10
  119.07627 69.0 69
  119.08662 97.0 97
  119.19598 6.0 6
  120.04148 6.0 6
  120.08347 98.0 98
  120.59876 6.0 6
  121.0502 7.0 7
  121.08637 239.0 239
  121.09853 20.0 20
  122.07552 19.0 19
  122.09466 385.0 385
  122.91294 7.0 7
  123.0946 39.0 39
  123.10143 13.0 13
  123.11105 6.0 6
  123.93829 6.0 6
  126.26122 9.0 9
  127.05135 90.0 90
  128.0432 22.0 22
  128.0649 49.0 49
  129.05386 15.0 15
  129.06953 38.0 38
  130.04318 31.0 31
  130.05511 13.0 13
  130.06473 104.0 104
  131.03735 9.0 9
  131.04298 12.0 12
  131.0564 19.0 19
  131.07181 170.0 170
  131.08264 68.0 68
  131.74321 7.0 7
  132.04549 39.0 39
  132.05577 35.0 35
  132.07121 7.0 7
  132.08075 52.0 52
  132.21364 6.0 6
  132.6196 7.0 7
  133.05251 22.0 22
  133.07118 7.0 7
  133.08644 37.0 37
  133.099 12.0 12
  133.34306 6.0 6
  134.06158 17.0 17
  134.09793 68.0 68
  134.10597 19.0 19
  135.08586 26.0 26
  135.10284 467.0 467
  136.06458 8.0 8
  136.0755 19.0 19
  136.08121 11.0 11
  136.09296 19.0 19
  136.11221 898.0 897
  137.11479 129.0 129
  137.36467 7.0 7
  137.67078 6.0 6
  138.11418 8.0 8
  140.02403 8.0 8
  140.0609 17.0 17
  141.05415 22.0 22
  141.06389 10.0 10
  141.07758 21.0 21
  142.0654 79.0 79
  142.78566 6.0 6
  143.05476 6.0 6
  143.07242 285.0 285
  144.03847 15.0 15
  144.04895 35.0 35
  144.05794 16.0 16
  144.06779 37.0 37
  144.07993 143.0 143
  145.04013 14.0 14
  145.05135 34.0 34
  145.05699 33.0 33
  145.06482 29.0 29
  145.07159 19.0 19
  145.08136 21.0 21
  145.10535 7.0 7
  146.05646 45.0 45
  146.06929 14.0 14
  146.08844 14.0 14
  146.09714 74.0 74
  147.02969 10.0 10
  147.0538 15.0 15
  147.07129 9.0 9
  147.08153 30.0 30
  147.09595 42.0 42
  147.10562 28.0 28
  148.06972 16.0 16
  148.08284 28.0 28
  148.11075 305.0 305
  149.05602 7.0 7
  149.07884 17.0 17
  149.11449 54.0 54
  149.1243 15.0 15
  149.38901 8.0 8
  149.82924 6.0 6
  150.09009 12.0 12
  150.12143 22.0 22
  151.05159 7.0 7
  153.04973 12.0 12
  153.07373 24.0 24
  153.67291 7.0 7
  154.05243 14.0 14
  154.06401 227.0 227
  154.08134 14.0 14
  155.07301 558.0 557
  156.05165 7.0 7
  156.0721 98.0 98
  156.08122 57.0 57
  156.09003 6.0 6
  156.81955 6.0 6
  157.05969 6.0 6
  157.08047 54.0 54
  157.08827 96.0 96
  157.10521 7.0 7
  157.18533 12.0 12
  158.0562 89.0 89
  158.06241 72.0 72
  158.07552 57.0 57
  158.09538 32.0 32
  158.10434 31.0 31
  158.8083 6.0 6
  159.02837 6.0 6
  159.05557 65.0 65
  159.06676 142.0 142
  159.07481 94.0 94
  159.10324 15.0 15
  160.05061 9.0 9
  160.07381 435.0 435
  160.09599 7.0 7
  160.10716 8.0 8
  161.0631 36.0 36
  161.07393 42.0 42
  161.08511 19.0 19
  161.12256 7.0 7
  161.42477 9.0 9
  162.07294 19.0 19
  162.08218 25.0 25
  162.09109 35.0 35
  162.96446 6.0 6
  163.09108 8.0 8
  163.92989 7.0 7
  165.06049 8.0 8
  165.06894 15.0 15
  166.04356 8.0 8
  166.0591 26.0 26
  166.0704 36.0 36
  166.52029 6.0 6
  166.58554 6.0 6
  166.69717 7.0 7
  166.98531 6.0 6
  167.0464 17.0 17
  167.07243 892.0 891
  168.01399 8.0 8
  168.06221 23.0 23
  168.07883 252.0 252
  168.0925 8.0 8
  168.33923 7.0 7
  169.02791 25.0 25
  169.0405 24.0 24
  169.05098 111.0 111
  169.07649 55.0 55
  169.08791 80.0 80
  170.05843 106.0 106
  170.07352 13.0 13
  170.08681 32.0 32
  170.09364 43.0 43
  171.0289 6.0 6
  171.05959 67.0 67
  171.06656 196.0 196
  171.10222 10.0 10
  171.80083 7.0 7
  171.99362 8.0 8
  172.05965 20.0 20
  172.0726 314.0 314
  172.09511 7.0 7
  172.66765 9.0 9
  173.0636 17.0 17
  173.08499 139.0 139
  174.05525 10.0 10
  174.0659 35.0 35
  174.09045 624.0 623
  175.07797 9.0 9
  175.09286 32.0 32
  175.37234 6.0 6
  175.54581 8.0 8
  176.07854 9.0 9
  176.10841 72.0 72
  177.07286 7.0 7
  177.08493 20.0 20
  177.09727 19.0 19
  177.38322 10.0 10
  178.06802 33.0 33
  178.08818 10.0 10
  178.10649 6.0 6
  178.86044 7.0 7
  179.06348 16.0 16
  179.07452 11.0 11
  179.08388 16.0 16
  179.11557 7.0 7
  179.42511 11.0 11
  180.07202 27.0 27
  180.08257 139.0 139
  180.10535 11.0 11
  181.04332 7.0 7
  181.05299 10.0 10
  181.07771 55.0 55
  181.0864 207.0 207
  181.11827 10.0 10
  181.19186 6.0 6
  181.24687 6.0 6
  182.02052 8.0 8
  182.05386 34.0 34
  182.06221 50.0 50
  182.07655 45.0 45
  182.08861 121.0 121
  182.1001 14.0 14
  183.0619 116.0 116
  183.06985 365.0 365
  183.09326 35.0 35
  183.10466 7.0 7
  183.2131 11.0 11
  184.01497 6.0 6
  184.06577 167.0 167
  184.07472 363.0 363
  184.08235 97.0 97
  184.09648 17.0 17
  184.65268 8.0 8
  185.05399 14.0 14
  185.08002 291.0 291
  185.12735 7.0 7
  185.99103 13.0 13
  186.03841 7.0 7
  186.0562 27.0 27
  186.06293 45.0 45
  186.07895 102.0 102
  186.09187 627.0 626
  186.11105 17.0 17
  186.13464 7.0 7
  187.08546 171.0 171
  187.1008 55.0 55
  188.0594 10.0 10
  188.07379 25.0 25
  188.0985 107.0 107
  188.14388 6.0 6
  189.08249 20.0 20
  189.10141 17.0 17
  189.11288 11.0 11
  190.11111 12.0 12
  191.05197 16.0 16
  191.06201 7.0 7
  191.07329 50.0 50
  192.03401 10.0 10
  192.08006 83.0 83
  192.10245 12.0 12
  192.36531 7.0 7
  193.05273 8.0 8
  193.07016 8.0 8
  193.08281 68.0 68
  193.61888 8.0 8
  194.04332 25.0 25
  194.06308 26.0 26
  194.08452 36.0 36
  194.09485 60.0 60
  194.13148 7.0 7
  194.8604 6.0 6
  194.87103 7.0 7
  195.02948 8.0 8
  195.03668 7.0 7
  195.05896 178.0 178
  195.06754 582.0 581
  195.09273 27.0 27
  195.11465 7.0 7
  196.02957 9.0 9
  196.05226 8.0 8
  196.0706 149.0 149
  196.08058 111.0 111
  196.09872 39.0 39
  196.11421 12.0 12
  196.27054 6.0 6
  196.37341 6.0 6
  196.4337 7.0 7
  196.77507 7.0 7
  196.95857 15.0 15
  197.05046 14.0 14
  197.06647 22.0 22
  197.08107 156.0 156
  197.1004 76.0 76
  197.11151 32.0 32
  197.51904 7.0 7
  198.05501 34.0 34
  198.08911 422.0 422
  198.1179 8.0 8
  198.40692 6.0 6
  199.04947 9.0 9
  199.06619 18.0 18
  199.0872 236.0 236
  199.1002 74.0 74
  199.23697 6.0 6
  200.0522 13.0 13
  200.07295 77.0 77
  200.09558 70.0 70
  200.10815 46.0 46
  200.92482 8.0 8
  201.0594 9.0 9
  201.09671 77.0 77
  201.10669 47.0 47
  202.05461 7.0 7
  202.0694 7.0 7
  202.09653 7.0 7
  202.10788 17.0 17
  202.5376 7.0 7
  203.10266 7.0 7
  204.06323 25.0 25
  204.07747 47.0 47
  204.0898 7.0 7
  204.12027 11.0 11
  205.05252 20.0 20
  205.07361 27.0 27
  205.08336 44.0 44
  205.09221 43.0 43
  206.00012 7.0 7
  206.04506 7.0 7
  206.05983 31.0 31
  206.07742 11.0 11
  206.09259 97.0 97
  206.11006 21.0 21
  207.0468 10.0 10
  207.06055 28.0 28
  207.07509 39.0 39
  207.09555 143.0 143
  208.04193 25.0 25
  208.06537 30.0 30
  208.07631 87.0 87
  208.10188 171.0 171
  208.12189 22.0 22
  209.04379 8.0 8
  209.05873 15.0 15
  209.07945 169.0 169
  209.10928 124.0 124
  209.1367 7.0 7
  209.4751 6.0 6
  210.02571 7.0 7
  210.0352 7.0 7
  210.04906 7.0 7
  210.06323 17.0 17
  210.09131 1000.0 999
  210.11278 52.0 52
  210.12273 25.0 25
  210.34018 6.0 6
  211.01199 7.0 7
  211.05525 36.0 36
  211.0668 54.0 54
  211.08853 153.0 153
  211.1004 188.0 188
  211.11813 46.0 46
  211.12978 11.0 11
  212.01094 7.0 7
  212.04704 8.0 8
  212.06453 21.0 21
  212.07394 28.0 28
  212.08998 49.0 49
  212.10297 128.0 128
  212.12592 8.0 8
  212.14438 18.0 18
  213.07239 16.0 16
  213.08096 38.0 38
  213.09947 107.0 107
  213.11053 30.0 30
  214.02731 8.0 8
  214.04512 6.0 6
  214.08092 55.0 55
  214.09311 21.0 21
  214.11012 17.0 17
  214.14673 6.0 6
  214.25171 7.0 7
  215.07993 22.0 22
  215.12056 10.0 10
  215.92598 6.0 6
  216.07672 7.0 7
  216.10036 10.0 10
  216.7959 15.0 15
  217.05821 13.0 13
  217.06471 7.0 7
  217.08516 9.0 9
  217.10309 19.0 19
  218.0489 11.0 11
  218.07968 30.0 30
  218.0945 55.0 55
  219.07217 20.0 20
  219.09541 49.0 49
  219.10695 7.0 7
  220.06194 9.0 9
  220.07774 76.0 76
  220.09622 53.0 53
  220.11305 54.0 54
  221.052 9.0 9
  221.07721 75.0 75
  221.10945 63.0 63
  221.11737 39.0 39
  221.19812 7.0 7
  222.05339 17.0 17
  222.06413 20.0 20
  222.08118 109.0 109
  222.09546 83.0 83
  222.10475 58.0 58
  222.11699 48.0 48
  222.33055 13.0 13
  222.50929 9.0 9
  223.04704 16.0 16
  223.061 51.0 51
  223.09145 72.0 72
  223.10901 36.0 36
  223.12389 18.0 18
  224.02136 8.0 8
  224.07596 53.0 53
  224.09489 180.0 180
  224.10487 151.0 151
  224.11435 108.0 108
  224.1331 6.0 6
  225.06596 5.0 5
  225.07512 16.0 16
  225.09549 82.0 82
  225.10944 58.0 58
  225.12039 18.0 18
  225.14748 9.0 9
  226.0273 6.0 6
  226.04961 7.0 7
  226.06644 13.0 13
  226.08391 19.0 19
  226.09509 6.0 6
  226.10718 9.0 9
  227.0768 32.0 32
  227.09007 25.0 25
  227.95427 6.0 6
  228.11392 6.0 6
  229.08084 18.0 18
  229.3589 10.0 10
  229.4827 13.0 13
  230.09306 15.0 15
  230.11258 6.0 6
  230.65311 18.0 18
  231.09135 6.0 6
  231.09845 14.0 14
  231.24997 7.0 7
  232.06271 8.0 8
  232.07582 46.0 46
  232.10699 122.0 122
  232.12373 10.0 10
  233.07445 37.0 37
  233.08804 9.0 9
  233.1179 85.0 85
  233.4122 6.0 6
  233.46764 7.0 7
  234.0755 38.0 38
  234.08968 175.0 175
  234.10297 83.0 83
  234.11499 72.0 72
  234.12956 22.0 22
  235.07953 58.0 58
  235.09097 90.0 90
  235.10019 162.0 162
  235.12552 66.0 66
  235.14648 12.0 12
  236.08266 44.0 44
  236.09656 170.0 170
  236.1087 74.0 74
  236.12422 27.0 27
  236.13399 22.0 22
  236.14622 6.0 6
  236.62256 11.0 11
  237.067 10.0 10
  237.08452 90.0 90
  237.10373 398.0 398
  237.12727 20.0 20
  237.14307 6.0 6
  237.19531 8.0 8
  238.05345 7.0 7
  238.07742 28.0 28
  238.08549 63.0 63
  238.10942 303.0 303
  238.14285 33.0 33
  238.15576 13.0 13
  238.76488 9.0 9
  239.05951 11.0 11
  239.06921 8.0 8
  239.09167 29.0 29
  239.11528 125.0 125
  239.12495 110.0 110
  239.55269 6.0 6
  240.06372 9.0 9
  240.0764 12.0 12
  240.12315 7.0 7
  241.1223 9.0 9
  241.55617 6.0 6
  242.08032 6.0 6
  242.10245 8.0 8
  243.08394 13.0 13
  243.12003 6.0 6
  244.06473 14.0 14
  244.07314 7.0 7
  244.09964 20.0 20
  244.1102 7.0 7
  244.13257 8.0 8
  244.78198 6.0 6
  245.12959 8.0 8
  246.07408 13.0 13
  246.08946 33.0 33
  246.09787 43.0 43
  246.1165 21.0 21
  246.84175 9.0 9
  247.00252 8.0 8
  247.06059 10.0 10
  247.06915 11.0 11
  247.0887 24.0 24
  247.09766 66.0 66
  247.12132 39.0 39
  248.06522 9.0 9
  248.07625 18.0 18
  248.08826 20.0 20
  248.10352 107.0 107
  248.11507 97.0 97
  248.147 15.0 15
  249.07686 25.0 25
  249.10033 113.0 113
  249.11598 119.0 119
  249.13016 163.0 163
  249.1454 72.0 72
  249.43987 6.0 6
  249.9586 7.0 7
  250.07033 8.0 8
  250.08472 30.0 30
  250.11102 117.0 117
  250.13268 80.0 80
  250.15533 14.0 14
  250.26212 6.0 6
  250.40817 15.0 15
  250.92853 8.0 8
  251.06792 13.0 13
  251.08841 33.0 33
  251.11838 741.0 740
  251.14493 9.0 9
  252.05946 7.0 7
  252.06819 7.0 7
  252.091 20.0 20
  252.10983 42.0 42
  252.12856 121.0 121
  252.13612 45.0 45
  253.01768 12.0 12
  253.08217 25.0 25
  253.13487 289.0 289
  254.05672 7.0 7
  254.08672 20.0 20
  254.1163 16.0 16
  254.1338 49.0 49
  255.10777 6.0 6
  255.13396 7.0 7
  256.10284 10.0 10
  256.11331 14.0 14
  257.09219 7.0 7
  259.10318 7.0 7
  259.12292 6.0 6
  259.19272 8.0 8
  260.09473 38.0 38
  260.10806 18.0 18
  260.129 11.0 11
  261.06079 13.0 13
  261.0874 7.0 7
  261.09988 23.0 23
  261.11758 63.0 63
  261.13617 17.0 17
  262.08731 23.0 23
  262.11572 186.0 186
  262.13635 25.0 25
  263.07333 9.0 9
  263.11118 148.0 148
  263.12537 97.0 97
  263.15311 350.0 350
  263.86957 6.0 6
  263.95242 10.0 10
  264.08475 39.0 39
  264.1181 82.0 82
  264.13184 103.0 103
  264.16202 537.0 536
  264.21545 8.0 8
  264.41882 8.0 8
  264.75037 9.0 9
  265.07501 8.0 8
  265.09131 74.0 74
  265.11768 16.0 16
  265.14017 84.0 84
  265.15735 56.0 56
  265.17194 96.0 96
  265.32413 7.0 7
  265.39682 10.0 10
  266.08896 8.0 8
  266.1095 33.0 33
  266.12399 44.0 44
  266.14551 16.0 16
  266.16553 45.0 45
  267.07849 7.0 7
  267.11108 29.0 29
  267.14203 7.0 7
  267.1799 8.0 8
  267.3439 7.0 7
  268.08911 14.0 14
  268.10446 32.0 32
  268.12164 17.0 17
  268.3768 9.0 9
  268.84793 6.0 6
  269.08044 6.0 6
  269.09982 26.0 26
  269.11642 8.0 8
  269.12653 18.0 18
  269.41083 11.0 11
  270.0932 6.0 6
  270.10748 9.0 9
  270.61545 8.0 8
  271.11111 7.0 7
  272.08313 8.0 8
  273.13104 8.0 8
  273.14365 6.0 6
  274.07983 8.0 8
  274.09705 6.0 6
  274.12796 15.0 15
  274.15018 9.0 9
  274.35138 10.0 10
  275.1402 14.0 14
  275.14932 6.0 6
  275.96014 6.0 6
  276.09473 9.0 9
  276.11041 11.0 11
  276.12451 71.0 71
  276.13516 32.0 32
  276.15012 12.0 12
  276.16766 11.0 11
  276.66449 11.0 11
  277.06564 7.0 7
  277.08356 19.0 19
  277.1366 309.0 309
  278.10315 14.0 14
  278.13651 91.0 91
  278.14886 39.0 39
  279.09082 8.0 8
  279.11368 34.0 34
  279.15195 184.0 184
  279.19653 15.0 15
  279.2981 6.0 6
  279.81448 6.0 6
  280.1265 7.0 7
  280.13388 16.0 16
  280.15024 9.0 9
  280.19464 8.0 8
  281.16794 19.0 19
  282.11545 14.0 14
  283.1019 8.0 8
  283.69278 7.0 7
  284.13202 7.0 7
  284.97946 20.0 20
  286.09274 9.0 9
  288.10379 6.0 6
  288.11752 8.0 8
  289.11133 13.0 13
  289.14093 27.0 27
  289.15723 6.0 6
  290.10178 22.0 22
  290.11752 12.0 12
  290.14288 23.0 23
  290.1568 11.0 11
  290.74228 6.0 6
  291.08813 7.0 7
  291.10883 7.0 7
  291.12097 18.0 18
  291.14465 258.0 258
  291.28 7.0 7
  291.74036 9.0 9
  292.12451 36.0 36
  292.15479 449.0 449
  292.3638 6.0 6
  292.81241 9.0 9
  292.87448 8.0 8
  293.10495 7.0 7
  293.12164 32.0 32
  293.13766 11.0 11
  293.15555 99.0 99
  293.17529 62.0 62
  293.70148 15.0 15
  294.134 6.0 6
  294.16833 29.0 29
  295.13779 7.0 7
  295.16559 7.0 7
  295.17664 11.0 11
  296.08307 9.0 9
  296.10587 9.0 9
  296.22507 8.0 8
  297.14822 8.0 8
  298.11572 12.0 12
  302.13281 7.0 7
  305.0975 9.0 9
  305.13544 29.0 29
  305.17068 39.0 39
  306.13312 25.0 25
  306.15002 6.0 6
  306.16437 8.0 8
  307.14844 16.0 16
  307.17773 189.0 189
  307.18802 119.0 119
  308.17007 39.0 39
  308.19183 33.0 33
  308.73056 7.0 7
  309.14334 16.0 16
  309.16043 9.0 9
  309.18097 8.0 8
  309.19501 27.0 27
  311.12283 27.0 27
  311.13657 37.0 37
  311.15201 13.0 13
  312.14191 24.0 24
  318.12671 8.0 8
  318.15182 6.0 6
  319.11618 7.0 7
  319.1358 10.0 10
  319.15112 8.0 8
  320.12823 11.0 11
  320.14413 25.0 25
  320.16888 7.0 7
  321.15524 8.0 8
  322.12677 12.0 12
  322.15234 11.0 11
  323.14914 9.0 9
  323.17603 38.0 38
  323.22345 7.0 7
  324.18146 69.0 69
  325.18265 15.0 15
  326.17197 9.0 9
  334.15649 9.0 9
  335.15894 6.0 6
  335.17465 17.0 17
  335.18768 17.0 17
  336.16083 7.0 7
  336.17401 6.0 6
  337.15277 16.0 16
  337.16626 8.0 8
  338.16431 7.0 7
  351.16818 14.0 14
  351.17734 7.0 7
  352.14346 8.0 8
  352.16998 26.0 26
  352.18268 13.0 13
  353.18536 7.0 7
  362.2211 12.0 12
  367.17096 9.0 9
  367.1976 19.0 19
  367.21378 14.0 14
  367.90234 7.0 7
  368.20779 7.0 7
  384.73334 9.0 9
//
