ACCESSION: MSBNK-RIKEN-PR303849
RECORD_TITLE: Asiaticoside; LC-ESI-QTOF; MS2
DATE: 2019.03.28
AUTHORS: Tetsuya Mori, Center for Sustainable Resource Science, RIKEN
LICENSE: CC BY-NC-SA
PUBLICATION: Tsugawa H., Nakabayashi R., Mori T., Yamada Y., Takahashi M., Rai A., Sugiyama R., Yamamoto H., Nakaya T., Yamazaki M., Kooke R., Bac-Molenaar JA., Oztolan-Erol N., Keurentjes JJB., Arita M., Saito K. (2019) "A cheminformatics approach to characterize metabolomes in stable-isotope-labeled organisms" Nature Methods 16(4):295-298. [doi:10.1038/s41592-019-0358-2]
COMMENT: registered in RIKEN PlaSMA
CH$NAME: Asiaticoside
CH$COMPOUND_CLASS: Triterpene saponins
CH$FORMULA: C48H78O19
CH$EXACT_MASS: 959.133
CH$SMILES: CC1CCC2(CCC3(C)C(=CCC4C5(C)CC(O)C(O)C(C)(CO)C5CCC34C)C2C1C)C(=O)OC1OC(COC2OC(CO)C(OC3OC(C)C(O)C(O)C3O)C(O)C2O)C(O)C(O)C1O
CH$IUPAC: InChI=1S/C48H78O19/c1-20-10-13-48(15-14-46(6)23(29(48)21(20)2)8-9-28-44(4)16-24(51)39(60)45(5,19-50)27(44)11-12-47(28,46)7)43(61)67-42-36(58)33(55)31(53)26(65-42)18-62-40-37(59)34(56)38(25(17-49)64-40)66-41-35(57)32(54)30(52)22(3)63-41/h8,20-22,24-42,49-60H,9-19H2,1-7H3
CH$LINK: INCHIKEY WYQVAPGDARQUBT-UHFFFAOYSA-N
AC$INSTRUMENT: LC, Waters Acquity UPLC System; MS, Waters Xevo G2 Q-Tof
AC$INSTRUMENT_TYPE: LC-ESI-QTOF
AC$MASS_SPECTROMETRY: MS_TYPE MS2
AC$MASS_SPECTROMETRY: ION_MODE POSITIVE
AC$MASS_SPECTROMETRY: COLLISION_ENERGY 6V
AC$MASS_SPECTROMETRY: DESOLVATION_GAS_FLOW 800/h
AC$MASS_SPECTROMETRY: DESOLVATION_TEMPERATURE 450 C
AC$MASS_SPECTROMETRY: IONIZATION ESI
AC$CHROMATOGRAPHY: CAPILLARY_VOLTAGE +3.00 kV
AC$CHROMATOGRAPHY: COLUMN_NAME Acquity bridged ethyl hybrid C18 (1.7 um, 2.1 mm * 100 mm, Waters)
AC$CHROMATOGRAPHY: COLUMN_TEMPERATURE 40 C
AC$CHROMATOGRAPHY: FLOW_GRADIENT A/B = (99.5%/0.5% at 0 min, 99.5%/0.5% at 0.1 min, 20%/80% at 10 min, 0.5%/99.5% at 10.1 min, 0.5%/99.5% at 12.0 min, 99.5%/0.5% at 12.1 min, 99.5%/0.5% at 15.0 min)
AC$CHROMATOGRAPHY: FLOW_RATE 0.3 ml/min at 0 min, 0.3 ml/min at 10 min, 0.4 ml/min at 10.1 min, 0.4 ml/min at 14.4 min, 0.3 ml/min at 14.5 min
AC$CHROMATOGRAPHY: RETENTION_TIME 5.20985
AC$CHROMATOGRAPHY: SOLVENT A water including 0.1% formic acid
AC$CHROMATOGRAPHY: SOLVENT B acetonitrile including 0.1% formic acid
MS$FOCUSED_ION: PRECURSOR_TYPE [M+H]+
MS$FOCUSED_ION: PRECURSOR_M/Z 959.5210067
PK$SPLASH: splash10-0udi-0212900000-d14dc57f13e1c828a38c
PK$NUM_PEAK: 203
PK$PEAK: m/z int. rel.int.
  71.0478 6.0 6
  85.02682 18.0 18
  93.07269 19.0 19
  95.08701 7.0 7
  103.04197 11.0 11
  107.08852 26.0 26
  109.06082 8.0 8
  109.09779 6.0 6
  111.03838 14.0 14
  111.04636 18.0 18
  111.0808 7.0 7
  125.09412 42.0 42
  126.09456 16.0 16
  127.041 7.0 7
  129.04475 12.0 12
  129.05441 56.0 56
  130.04828 9.0 9
  130.05307 6.0 6
  135.11725 9.0 9
  145.04936 19.0 19
  145.05629 8.0 8
  145.91029 7.0 7
  147.06349 105.0 105
  147.06985 38.0 38
  149.13625 7.0 7
  150.74011 9.0 9
  159.10887 6.0 6
  163.05833 44.0 44
  163.15056 7.0 7
  164.06931 9.0 9
  165.07384 13.0 13
  165.08109 14.0 14
  177.16956 7.0 7
  187.14684 13.0 13
  187.1554 15.0 15
  188.15002 16.0 16
  191.14153 10.0 10
  191.18015 6.0 6
  192.1842 13.0 13
  197.28914 7.0 7
  199.15005 14.0 14
  201.16191 21.0 21
  203.14061 9.0 9
  203.17596 13.0 13
  205.14613 9.0 9
  205.16272 7.0 7
  205.18182 6.0 6
  213.16248 6.0 6
  214.04404 6.0 6
  214.07744 9.0 9
  215.17278 6.0 6
  217.15454 6.0 6
  218.1964 6.0 6
  219.15567 6.0 6
  219.17982 6.0 6
  220.18147 12.0 12
  225.83691 6.0 6
  228.55399 6.0 6
  231.17906 9.0 9
  233.19244 27.0 27
  234.20102 17.0 17
  235.16173 8.0 8
  236.17131 9.0 9
  237.08005 22.0 22
  238.0381 7.0 7
  243.0735 8.0 8
  243.08945 9.0 9
  243.09857 14.0 14
  247.08009 8.0 8
  247.16113 7.0 7
  247.17381 15.0 15
  247.18073 7.0 7
  249.18932 13.0 13
  255.09128 35.0 35
  255.91084 9.0 9
  256.07593 9.0 9
  261.17838 6.0 6
  261.1965 7.0 7
  262.22229 11.0 11
  271.07928 9.0 9
  273.09613 90.0 90
  273.10583 39.0 39
  274.10632 6.0 6
  275.10199 7.0 7
  275.20193 7.0 7
  287.06982 9.0 9
  289.08673 6.0 6
  291.10855 8.0 8
  293.2308 8.0 8
  304.4985 7.0 7
  305.67044 8.0 8
  307.42661 7.0 7
  309.11804 295.0 295
  309.70401 6.0 6
  310.12329 29.0 29
  311.11517 8.0 8
  311.12518 16.0 16
  312.12988 6.0 6
  315.621 6.0 6
  325.11133 16.0 16
  325.12854 10.0 10
  338.97339 7.0 7
  341.24002 16.0 16
  341.2547 17.0 17
  341.26965 7.0 7
  343.24295 7.0 7
  343.25916 6.0 6
  343.27304 14.0 14
  344.25507 7.0 7
  344.27588 7.0 7
  351.91129 6.0 6
  364.42749 6.0 6
  365.28931 8.0 8
  379.31699 8.0 8
  380.33621 7.0 7
  381.10663 8.0 8
  382.11429 7.0 7
  389.2988 6.0 6
  389.3241 6.0 6
  390.32596 7.0 7
  391.34109 10.0 10
  395.29095 20.0 20
  395.33383 8.0 8
  407.28595 7.0 7
  407.30249 12.0 12
  407.33395 173.0 173
  408.33426 35.0 35
  408.34769 13.0 13
  408.48798 8.0 8
  409.3577 9.0 9
  409.37064 7.0 7
  410.35397 6.0 6
  417.10962 14.0 14
  417.15588 6.0 6
  423.29935 7.0 7
  423.33679 6.0 6
  423.67694 7.0 7
  424.31973 6.0 6
  424.34909 6.0 6
  425.32471 9.0 9
  435.31635 43.0 43
  435.32971 117.0 117
  436.31799 29.0 29
  436.32965 78.0 78
  437.33844 6.0 6
  437.38013 7.0 7
  438.33109 7.0 7
  440.68204 6.0 6
  441.32401 8.0 8
  443.34882 12.0 12
  444.36102 8.0 8
  444.55075 9.0 9
  445.02676 9.0 9
  451.32443 7.0 7
  453.02841 6.0 6
  453.33978 1000.0 999
  454.33609 218.0 218
  454.35077 93.0 93
  455.29877 6.0 6
  455.32358 19.0 19
  455.34448 26.0 26
  455.36377 18.0 18
  456.24564 6.0 6
  456.36044 6.0 6
  462.58041 6.0 6
  471.1705 12.0 12
  471.26898 9.0 9
  471.30872 6.0 6
  471.33612 125.0 125
  471.35559 235.0 235
  472.34277 102.0 102
  472.37381 24.0 24
  473.37286 14.0 14
  489.31149 8.0 8
  489.33401 10.0 10
  489.36386 63.0 63
  490.35016 7.0 7
  490.38098 8.0 8
  491.36206 8.0 8
  499.36694 9.0 9
  511.34097 6.0 6
  517.37061 8.0 8
  570.63239 6.0 6
  581.37933 6.0 6
  582.3783 8.0 8
  585.35181 7.0 7
  599.39221 9.0 9
  599.41626 7.0 7
  599.43158 10.0 10
  616.37994 7.0 7
  618.3797 7.0 7
  619.4494 7.0 7
  635.39954 6.0 6
  635.44104 8.0 8
  636.42511 11.0 11
  638.42688 6.0 6
  651.40985 41.0 41
  651.44464 9.0 9
  652.42139 8.0 8
  654.44055 6.0 6
  725.4082 6.0 6
  743.45044 11.0 11
  837.40356 6.0 6
//
