ACCESSION: MSBNK-RIKEN-PR300750
RECORD_TITLE: Iso-gamma-fagarine; LC-ESI-QTOF; MS2
DATE: 2019.03.28
AUTHORS: Tetsuya Mori, Center for Sustainable Resource Science, RIKEN
LICENSE: CC BY-NC-SA
PUBLICATION: Tsugawa H., Nakabayashi R., Mori T., Yamada Y., Takahashi M., Rai A., Sugiyama R., Yamamoto H., Nakaya T., Yamazaki M., Kooke R., Bac-Molenaar JA., Oztolan-Erol N., Keurentjes JJB., Arita M., Saito K. (2019) "A cheminformatics approach to characterize metabolomes in stable-isotope-labeled organisms" Nature Methods 16(4):295-298. [doi:10.1038/s41592-019-0358-2]
COMMENT: registered in RIKEN PlaSMA
CH$NAME: Iso-gamma-fagarine
CH$COMPOUND_CLASS: Furanoquinolines
CH$FORMULA: C13H11NO3
CH$EXACT_MASS: 229.235
CH$SMILES: COC1=CC=CC2=C1N(C)C1=C(C=CO1)C2=O
CH$IUPAC: InChI=1S/C13H11NO3/c1-14-11-8(4-3-5-10(11)16-2)12(15)9-6-7-17-13(9)14/h3-7H,1-2H3
CH$LINK: INCHIKEY VNBUMBNLPGLBML-UHFFFAOYSA-N
AC$INSTRUMENT: LC, Waters Acquity UPLC System; MS, Waters Xevo G2 Q-Tof
AC$INSTRUMENT_TYPE: LC-ESI-QTOF
AC$MASS_SPECTROMETRY: MS_TYPE MS2
AC$MASS_SPECTROMETRY: ION_MODE POSITIVE
AC$MASS_SPECTROMETRY: COLLISION_ENERGY 6V
AC$MASS_SPECTROMETRY: DESOLVATION_GAS_FLOW 800/h
AC$MASS_SPECTROMETRY: DESOLVATION_TEMPERATURE 450 C
AC$MASS_SPECTROMETRY: IONIZATION ESI
AC$CHROMATOGRAPHY: CAPILLARY_VOLTAGE +3.00 kV
AC$CHROMATOGRAPHY: COLUMN_NAME Acquity bridged ethyl hybrid C18 (1.7 um, 2.1 mm * 100 mm, Waters)
AC$CHROMATOGRAPHY: COLUMN_TEMPERATURE 40 C
AC$CHROMATOGRAPHY: FLOW_GRADIENT A/B = (99.5%/0.5% at 0 min, 99.5%/0.5% at 0.1 min, 20%/80% at 10 min, 0.5%/99.5% at 10.1 min, 0.5%/99.5% at 12.0 min, 99.5%/0.5% at 12.1 min, 99.5%/0.5% at 15.0 min)
AC$CHROMATOGRAPHY: FLOW_RATE 0.3 ml/min at 0 min, 0.3 ml/min at 10 min, 0.4 ml/min at 10.1 min, 0.4 ml/min at 14.4 min, 0.3 ml/min at 14.5 min
AC$CHROMATOGRAPHY: RETENTION_TIME 5.589417
AC$CHROMATOGRAPHY: SOLVENT A water including 0.1% formic acid
AC$CHROMATOGRAPHY: SOLVENT B acetonitrile including 0.1% formic acid
MS$FOCUSED_ION: PRECURSOR_TYPE [M+H]+
MS$FOCUSED_ION: PRECURSOR_M/Z 230.0811697
PK$SPLASH: splash10-001i-0900000000-0b2992f104887b50da37
PK$NUM_PEAK: 178
PK$PEAK: m/z int. rel.int.
  53.03977 13.0 13
  63.02206 12.0 12
  65.03897 20.0 20
  66.14268 10.0 10
  74.01662 14.0 14
  77.03567 63.0 63
  77.04105 43.0 43
  78.03442 19.0 19
  78.05151 30.0 30
  79.0386 12.0 12
  79.05285 50.0 50
  80.44513 11.0 11
  80.68748 16.0 16
  84.72574 12.0 12
  87.17203 16.0 16
  88.03183 12.0 12
  89.03851 340.0 340
  89.04832 17.0 17
  90.02815 12.0 12
  90.04533 32.0 32
  90.0577 19.0 19
  91.04636 25.0 25
  91.05788 12.0 12
  92.02914 24.0 24
  92.04697 20.0 20
  93.03444 52.0 52
  93.0666 22.0 22
  95.01098 18.0 18
  96.01311 12.0 12
  101.03696 28.0 28
  101.04227 60.0 60
  102.03505 21.0 21
  102.04623 267.0 267
  103.03959 32.0 32
  103.05348 510.0 509
  103.81021 17.0 17
  104.04714 36.0 36
  104.05257 58.0 58
  104.05987 19.0 19
  105.03351 19.0 19
  105.05711 57.0 57
  105.70698 12.0 12
  106.02469 32.0 32
  106.03182 20.0 20
  107.03497 10.0 10
  107.05271 22.0 22
  110.94284 17.0 17
  113.0384 95.0 95
  114.03005 12.0 12
  114.04707 51.0 51
  115.05574 188.0 188
  116.0173 14.0 14
  116.04967 431.0 431
  116.05808 42.0 42
  116.28752 12.0 12
  117.0323 28.0 28
  117.03983 59.0 59
  117.05299 119.0 119
  118.02399 12.0 12
  118.04182 30.0 30
  119.03592 32.0 32
  119.04456 22.0 22
  120.04408 54.0 54
  120.05595 23.0 23
  121.04695 16.0 16
  125.74446 14.0 14
  126.04527 20.0 20
  127.04842 19.0 19
  128.02904 16.0 16
  128.04944 451.0 451
  128.05807 89.0 89
  128.07259 15.0 15
  129.05019 114.0 114
  129.06038 91.0 91
  129.06709 25.0 25
  129.08026 11.0 11
  130.03214 40.0 40
  130.04523 15.0 15
  130.06456 1000.0 999
  131.03035 35.0 35
  131.0506 466.0 466
  131.06268 85.0 85
  131.0713 368.0 368
  131.45285 14.0 14
  132.0489 54.0 54
  132.05611 66.0 66
  132.06784 12.0 12
  132.07707 18.0 18
  132.08826 12.0 12
  133.05373 81.0 81
  133.52005 10.0 10
  135.04045 13.0 13
  136.05023 20.0 20
  137.9158 14.0 14
  140.02885 33.0 33
  140.04044 32.0 32
  140.05145 167.0 167
  140.06056 15.0 15
  141.05249 35.0 35
  141.05879 36.0 36
  142.04152 87.0 87
  142.06458 73.0 73
  143.55888 12.0 12
  144.03867 46.0 46
  144.04683 90.0 90
  144.16087 10.0 10
  144.45628 11.0 11
  145.03053 29.0 29
  146.02396 19.0 19
  146.03381 20.0 20
  146.09816 10.0 10
  156.02859 22.0 22
  156.04005 115.0 115
  156.0486 130.0 130
  157.04552 68.0 68
  157.0535 40.0 40
  158.03011 29.0 29
  158.03636 25.0 25
  158.04796 53.0 53
  158.05902 379.0 379
  159.02769 13.0 13
  159.04184 61.0 61
  159.05406 24.0 24
  159.06633 88.0 88
  159.07317 116.0 116
  160.04318 11.0 11
  160.07527 12.0 12
  161.04956 15.0 15
  164.97136 20.0 20
  168.02823 26.0 26
  168.03908 76.0 76
  168.04749 172.0 172
  169.04697 14.0 14
  169.90404 10.0 10
  170.02928 20.0 20
  170.0452 15.0 15
  170.0533 53.0 53
  170.06581 58.0 58
  170.0735 15.0 15
  171.04613 26.0 26
  171.06361 10.0 10
  171.58118 12.0 12
  171.99335 13.0 13
  172.01817 9.0 9
  172.03831 814.0 813
  172.05077 69.0 69
  172.08194 13.0 13
  173.01357 14.0 14
  173.03792 37.0 37
  173.0473 87.0 87
  175.04239 15.0 15
  175.23151 10.0 10
  180.71272 15.0 15
  184.01869 28.0 28
  184.03984 49.0 49
  184.05856 13.0 13
  185.04076 28.0 28
  185.0509 11.0 11
  186.05507 547.0 546
  186.06351 126.0 126
  187.03844 13.0 13
  187.0619 286.0 286
  187.07309 78.0 78
  188.03857 20.0 20
  188.06242 12.0 12
  197.05191 23.0 23
  198.05412 69.0 69
  199.04112 13.0 13
  200.02261 12.0 12
  212.03542 232.0 232
  212.04376 60.0 60
  212.09988 23.0 23
  213.03107 11.0 11
  213.05171 25.0 25
  214.05243 180.0 180
  214.7168 12.0 12
  215.04605 14.0 14
  230.08179 355.0 355
//
