ACCESSION: MSBNK-RIKEN-PR303400
RECORD_TITLE: NP-006989(12); LC-ESI-QTOF; MS2
DATE: 2019.03.28
AUTHORS: Tetsuya Mori, Center for Sustainable Resource Science, RIKEN
LICENSE: CC BY-NC-SA
PUBLICATION: Tsugawa H., Nakabayashi R., Mori T., Yamada Y., Takahashi M., Rai A., Sugiyama R., Yamamoto H., Nakaya T., Yamazaki M., Kooke R., Bac-Molenaar JA., Oztolan-Erol N., Keurentjes JJB., Arita M., Saito K. (2019) "A cheminformatics approach to characterize metabolomes in stable-isotope-labeled organisms" Nature Methods 16(4):295-298. [doi:10.1038/s41592-019-0358-2]
COMMENT: registered in RIKEN PlaSMA
CH$NAME: NP-006989(12)
CH$COMPOUND_CLASS: Flavonoid 8-C-glycosides
CH$FORMULA: C27H30O16
CH$EXACT_MASS: 610.521
CH$SMILES: OC[C@H]1O[C@H]([C@H](O)[C@@H](O)[C@@H]1O)C1=C(O)C(C2OC(CO)C(O)C(O)C2O)=C2OC(=CC(=O)C2=C1O)C1=CC(O)=C(O)C=C1
CH$IUPAC: InChI=1S/C27H30O16/c28-5-12-17(33)21(37)23(39)26(42-12)15-19(35)14-10(32)4-11(7-1-2-8(30)9(31)3-7)41-25(14)16(20(15)36)27-24(40)22(38)18(34)13(6-29)43-27/h1-4,12-13,17-18,21-24,26-31,33-40H,5-6H2/t12-,13?,17-,18?,21+,22?,23-,24?,26+,27?/m1/s1
CH$LINK: INCHIKEY ZLPSOQFIIQIIAX-FCSQLNSJSA-N
AC$INSTRUMENT: LC, Waters Acquity UPLC System; MS, Waters Xevo G2 Q-Tof
AC$INSTRUMENT_TYPE: LC-ESI-QTOF
AC$MASS_SPECTROMETRY: MS_TYPE MS2
AC$MASS_SPECTROMETRY: ION_MODE POSITIVE
AC$MASS_SPECTROMETRY: COLLISION_ENERGY 6V
AC$MASS_SPECTROMETRY: DESOLVATION_GAS_FLOW 800/h
AC$MASS_SPECTROMETRY: DESOLVATION_TEMPERATURE 450 C
AC$MASS_SPECTROMETRY: IONIZATION ESI
AC$CHROMATOGRAPHY: CAPILLARY_VOLTAGE +3.00 kV
AC$CHROMATOGRAPHY: COLUMN_NAME Acquity bridged ethyl hybrid C18 (1.7 um, 2.1 mm * 100 mm, Waters)
AC$CHROMATOGRAPHY: COLUMN_TEMPERATURE 40 C
AC$CHROMATOGRAPHY: FLOW_GRADIENT A/B = (99.5%/0.5% at 0 min, 99.5%/0.5% at 0.1 min, 20%/80% at 10 min, 0.5%/99.5% at 10.1 min, 0.5%/99.5% at 12.0 min, 99.5%/0.5% at 12.1 min, 99.5%/0.5% at 15.0 min)
AC$CHROMATOGRAPHY: FLOW_RATE 0.3 ml/min at 0 min, 0.3 ml/min at 10 min, 0.4 ml/min at 10.1 min, 0.4 ml/min at 14.4 min, 0.3 ml/min at 14.5 min
AC$CHROMATOGRAPHY: RETENTION_TIME 3.100167
AC$CHROMATOGRAPHY: SOLVENT A water including 0.1% formic acid
AC$CHROMATOGRAPHY: SOLVENT B acetonitrile including 0.1% formic acid
MS$FOCUSED_ION: PRECURSOR_TYPE [M+H]+
MS$FOCUSED_ION: PRECURSOR_M/Z 611.1606613
PK$SPLASH: splash10-03di-0007955000-ed9b3600064d29050595
PK$NUM_PEAK: 208
PK$PEAK: m/z int. rel.int.
  99.0379 6.0 6
  129.34296 5.0 5
  175.5161 5.0 5
  203.03714 6.0 6
  213.63504 9.0 9
  247.1722 8.0 8
  255.02435 7.0 7
  276.38004 6.0 6
  293.06967 13.0 13
  309.04102 7.0 7
  310.05151 11.0 11
  311.04855 72.0 72
  311.06064 41.0 41
  311.07504 6.0 6
  312.04907 8.0 8
  312.06699 16.0 16
  313.0665 5.0 5
  319.05606 6.0 6
  322.96716 7.0 7
  323.04816 18.0 18
  323.06506 23.0 23
  325.06339 12.0 12
  331.68564 8.0 8
  335.06143 7.0 7
  336.04623 8.0 8
  337.06631 14.0 14
  337.08597 8.0 8
  341.05905 76.0 76
  341.07074 186.0 186
  342.04437 6.0 6
  342.06934 38.0 38
  342.08344 10.0 10
  342.94516 8.0 8
  343.06168 10.0 10
  345.60818 6.0 6
  346.61859 6.0 6
  350.0871 10.0 10
  351.05832 5.0 5
  351.09326 17.0 17
  351.52881 5.0 5
  353.06488 123.0 123
  353.09781 6.0 6
  354.06769 10.0 10
  363.01031 6.0 6
  363.09335 14.0 14
  365.06998 60.0 60
  366.06998 23.0 23
  366.08636 12.0 12
  367.08536 19.0 19
  370.05698 6.0 6
  371.06674 37.0 37
  371.08722 45.0 45
  372.06253 8.0 8
  373.04825 6.0 6
  377.0672 53.0 53
  379.07367 15.0 15
  379.09427 8.0 8
  381.08255 15.0 15
  382.104 9.0 9
  383.07535 9.0 9
  383.58847 7.0 7
  389.06488 9.0 9
  389.08487 10.0 10
  393.06073 5.0 5
  393.08838 6.0 6
  394.09927 6.0 6
  395.04077 10.0 10
  395.06314 89.0 89
  395.0845 67.0 67
  395.10599 15.0 15
  396.00674 5.0 5
  396.05331 8.0 8
  396.07764 27.0 27
  396.09238 17.0 17
  397.0986 6.0 6
  401.08051 12.0 12
  405.10797 21.0 21
  407.06747 32.0 32
  407.08127 39.0 39
  408.0654 14.0 14
  408.09378 7.0 7
  409.07898 8.0 8
  409.10181 9.0 9
  410.05811 5.0 5
  415.09125 5.0 5
  419.0733 46.0 46
  419.10077 14.0 14
  420.06958 22.0 22
  420.08786 7.0 7
  421.07382 13.0 13
  423.08603 7.0 7
  425.06317 16.0 16
  425.08801 118.0 118
  425.11606 7.0 7
  426.08878 36.0 36
  426.10324 21.0 21
  427.94717 7.0 7
  431.06573 12.0 12
  431.08432 13.0 13
  431.0968 10.0 10
  431.11954 6.0 6
  432.0968 6.0 6
  433.09756 8.0 8
  437.07544 36.0 36
  437.09143 25.0 25
  437.10638 23.0 23
  437.22617 6.0 6
  437.96133 5.0 5
  438.07669 8.0 8
  438.11642 5.0 5
  440.09714 6.0 6
  443.06931 11.0 11
  443.09439 47.0 47
  443.11108 40.0 40
  444.08331 14.0 14
  444.10211 7.0 7
  449.06894 7.0 7
  449.09988 18.0 18
  452.11618 7.0 7
  454.04016 6.0 6
  455.09451 51.0 51
  456.09662 17.0 17
  461.03528 6.0 6
  461.08713 15.0 15
  461.10449 16.0 16
  462.07571 13.0 13
  471.09323 11.0 11
  473.05841 8.0 8
  473.07208 28.0 28
  473.10812 301.0 301
  474.07159 6.0 6
  474.10229 39.0 39
  474.12369 19.0 19
  474.1402 10.0 10
  475.10199 11.0 11
  475.11731 6.0 6
  476.3786 5.0 5
  479.04919 6.0 6
  479.08017 10.0 10
  479.10495 15.0 15
  483.11359 10.0 10
  489.09177 14.0 14
  489.11823 6.0 6
  491.09082 18.0 18
  491.12622 89.0 89
  492.08804 5.0 5
  492.10626 9.0 9
  492.125 20.0 20
  497.08621 41.0 41
  497.10297 69.0 69
  497.1239 16.0 16
  498.05212 7.0 7
  498.07654 6.0 6
  498.09418 7.0 7
  498.11356 8.0 8
  501.09018 6.0 6
  503.08765 14.0 14
  504.03058 7.0 7
  504.09955 6.0 6
  505.2016 8.0 8
  509.06601 10.0 10
  509.11444 8.0 8
  510.14337 8.0 8
  515.11255 25.0 25
  515.14136 7.0 7
  517.13306 7.0 7
  521.10504 16.0 16
  522.10223 25.0 25
  527.10974 45.0 45
  527.13794 22.0 22
  537.08301 6.0 6
  539.03992 6.0 6
  539.11975 42.0 42
  539.14471 23.0 23
  540.11646 33.0 33
  540.15271 7.0 7
  540.5072 6.0 6
  541.12671 12.0 12
  541.15222 7.0 7
  544.99139 6.0 6
  545.12708 28.0 28
  545.15173 11.0 11
  546.13751 10.0 10
  546.16718 11.0 11
  557.11157 28.0 28
  557.13367 31.0 31
  557.17523 5.0 5
  558.1217 21.0 21
  558.14221 14.0 14
  558.16144 13.0 13
  575.0965 10.0 10
  575.12756 51.0 51
  575.14746 52.0 52
  575.1701 10.0 10
  575.91779 8.0 8
  576.13379 14.0 14
  576.14899 10.0 10
  577.12463 11.0 11
  593.15033 281.0 281
  594.125 15.0 15
  594.15857 73.0 73
  594.18927 8.0 8
  595.1579 38.0 38
  603.49347 6.0 6
  609.10065 8.0 8
  610.14008 30.0 30
  611.09271 8.0 8
  611.16058 1000.0 999
//
