ACCESSION: MSBNK-RIKEN-PR300692
RECORD_TITLE: Thalsimine; LC-ESI-QTOF; MS2
DATE: 2019.03.28
AUTHORS: Tetsuya Mori, Center for Sustainable Resource Science, RIKEN
LICENSE: CC BY-NC-SA
PUBLICATION: Tsugawa H., Nakabayashi R., Mori T., Yamada Y., Takahashi M., Rai A., Sugiyama R., Yamamoto H., Nakaya T., Yamazaki M., Kooke R., Bac-Molenaar JA., Oztolan-Erol N., Keurentjes JJB., Arita M., Saito K. (2019) "A cheminformatics approach to characterize metabolomes in stable-isotope-labeled organisms" Nature Methods 16(4):295-298. [doi:10.1038/s41592-019-0358-2]
COMMENT: registered in RIKEN PlaSMA
CH$NAME: Thalsimine
CH$COMPOUND_CLASS: Tannins
CH$FORMULA: C38H40N2O7
CH$EXACT_MASS: 636.745
CH$SMILES: COC1=C2OC3=CC=C(CC4=NCCC5=CC(OC)=C(OC6=C(OC)C(OC)=C(OC)C7=C6[C@H](CC(C=C1)=C2)N(C)CC7)C=C45)C=C3
CH$IUPAC: InChI=1S/C38H40N2O7/c1-40-16-14-26-34-29(40)18-23-9-12-30(41-2)32(19-23)46-25-10-7-22(8-11-25)17-28-27-21-33(31(42-3)20-24(27)13-15-39-28)47-36(34)38(45-6)37(44-5)35(26)43-4/h7-12,19-21,29H,13-18H2,1-6H3/t29-/m0/s1
CH$LINK: INCHIKEY YWNUNVSMOKMJMG-LJAQVGFWSA-N
AC$INSTRUMENT: LC, Waters Acquity UPLC System; MS, Waters Xevo G2 Q-Tof
AC$INSTRUMENT_TYPE: LC-ESI-QTOF
AC$MASS_SPECTROMETRY: MS_TYPE MS2
AC$MASS_SPECTROMETRY: ION_MODE POSITIVE
AC$MASS_SPECTROMETRY: COLLISION_ENERGY 6V
AC$MASS_SPECTROMETRY: DESOLVATION_GAS_FLOW 800/h
AC$MASS_SPECTROMETRY: DESOLVATION_TEMPERATURE 450 C
AC$MASS_SPECTROMETRY: IONIZATION ESI
AC$CHROMATOGRAPHY: CAPILLARY_VOLTAGE +3.00 kV
AC$CHROMATOGRAPHY: COLUMN_NAME Acquity bridged ethyl hybrid C18 (1.7 um, 2.1 mm * 100 mm, Waters)
AC$CHROMATOGRAPHY: COLUMN_TEMPERATURE 40 C
AC$CHROMATOGRAPHY: FLOW_GRADIENT A/B = (99.5%/0.5% at 0 min, 99.5%/0.5% at 0.1 min, 20%/80% at 10 min, 0.5%/99.5% at 10.1 min, 0.5%/99.5% at 12.0 min, 99.5%/0.5% at 12.1 min, 99.5%/0.5% at 15.0 min)
AC$CHROMATOGRAPHY: FLOW_RATE 0.3 ml/min at 0 min, 0.3 ml/min at 10 min, 0.4 ml/min at 10.1 min, 0.4 ml/min at 14.4 min, 0.3 ml/min at 14.5 min
AC$CHROMATOGRAPHY: RETENTION_TIME 4.254667
AC$CHROMATOGRAPHY: SOLVENT A water including 0.1% formic acid
AC$CHROMATOGRAPHY: SOLVENT B acetonitrile including 0.1% formic acid
MS$FOCUSED_ION: PRECURSOR_TYPE [M+H]+
MS$FOCUSED_ION: PRECURSOR_M/Z 637.2908281
PK$SPLASH: splash10-004i-0143291000-0759dbc4f3c0e6c124ce
PK$NUM_PEAK: 463
PK$PEAK: m/z int. rel.int.
  118.06105 70.0 70
  121.0712 41.0 41
  146.04286 38.0 38
  147.04678 43.0 43
  149.04909 56.0 56
  151.05972 56.0 56
  159.06729 32.0 32
  160.07985 34.0 34
  163.06335 56.0 56
  165.08994 32.0 32
  166.04463 66.0 66
  167.04926 51.0 51
  168.06879 39.0 39
  173.09099 90.0 90
  176.06714 39.0 39
  177.08925 41.0 41
  178.00284 32.0 32
  178.08078 49.0 49
  180.086 49.0 49
  181.06837 51.0 51
  182.83949 43.0 43
  186.0793 55.0 55
  186.08969 34.0 34
  187.05608 36.0 36
  188.07224 325.0 325
  188.10928 49.0 49
  189.0771 45.0 45
  190.06828 41.0 41
  190.08305 86.0 86
  191.09714 34.0 34
  192.05696 56.0 56
  192.0793 96.0 96
  192.09921 56.0 56
  193.07956 88.0 88
  194.10017 55.0 55
  197.04811 36.0 36
  203.04567 162.0 162
  203.0656 43.0 43
  204.06178 75.0 75
  204.0731 118.0 118
  204.09538 139.0 139
  205.07321 38.0 38
  205.09662 47.0 47
  205.11443 41.0 41
  207.04442 53.0 53
  207.07657 56.0 56
  208.0753 77.0 77
  209.09564 49.0 49
  214.10812 41.0 41
  216.08134 38.0 38
  217.07657 64.0 64
  218.08664 107.0 107
  218.1088 39.0 39
  219.10233 77.0 77
  220.05927 41.0 41
  220.10115 280.0 280
  221.08948 122.0 122
  221.10184 71.0 71
  221.11086 32.0 32
  222.07195 38.0 38
  222.09288 66.0 66
  222.11081 39.0 39
  223.08673 49.0 49
  223.10193 64.0 64
  223.11221 39.0 39
  224.07838 49.0 49
  225.07782 39.0 39
  226.1295 43.0 43
  227.10912 60.0 60
  233.08948 53.0 53
  234.10133 79.0 79
  234.11345 164.0 164
  234.12498 32.0 32
  234.59149 49.0 49
  235.09985 135.0 135
  235.11252 47.0 47
  236.13316 38.0 38
  237.11148 56.0 56
  238.10724 124.0 124
  239.09828 38.0 38
  248.07385 62.0 62
  249.08765 47.0 47
  249.11519 239.0 239
  249.29126 56.0 56
  249.94438 32.0 32
  250.08559 83.0 83
  250.10721 177.0 177
  251.07413 56.0 56
  251.09651 51.0 51
  251.10599 58.0 58
  252.12357 447.0 447
  252.14543 60.0 60
  253.07265 32.0 32
  253.12634 60.0 60
  253.44406 83.0 83
  254.10555 43.0 43
  260.09982 38.0 38
  262.07697 32.0 32
  263.09604 105.0 105
  264.03485 38.0 38
  264.14178 41.0 41
  265.10583 367.0 367
  265.11697 126.0 126
  266.07138 41.0 41
  266.09293 107.0 107
  266.12695 71.0 71
  267.08298 32.0 32
  267.10269 38.0 38
  267.13605 64.0 64
  268.12457 58.0 58
  269.09909 34.0 34
  272.13974 32.0 32
  275.1282 55.0 55
  277.11063 71.0 71
  277.13754 49.0 49
  279.10779 34.0 34
  279.14209 39.0 39
  280.09604 47.0 47
  280.11383 45.0 45
  280.1402 32.0 32
  281.10104 45.0 45
  281.11703 56.0 56
  281.1377 38.0 38
  282.27374 71.0 71
  286.09491 38.0 38
  292.13284 32.0 32
  293.09167 47.0 47
  293.10287 32.0 32
  293.28119 32.0 32
  294.12646 51.0 51
  299.1377 47.0 47
  300.14047 73.0 73
  306.41522 73.0 73
  309.11093 211.0 211
  310.11038 70.0 70
  311.11832 45.0 45
  314.15247 64.0 64
  316.09915 38.0 38
  320.10443 39.0 39
  324.12994 38.0 38
  324.14804 47.0 47
  325.12836 38.0 38
  328.13818 43.0 43
  329.1709 68.0 68
  330.1449 62.0 62
  332.12341 96.0 96
  334.13037 43.0 43
  337.09088 64.0 64
  337.10654 32.0 32
  337.14386 38.0 38
  338.96844 32.0 32
  342.14816 83.0 83
  343.1355 34.0 34
  343.14636 55.0 55
  343.7334 47.0 47
  345.14386 39.0 39
  346.58328 77.0 77
  350.12341 36.0 36
  351.13129 53.0 53
  352.09265 49.0 49
  352.12704 38.0 38
  352.14764 154.0 154
  353.12408 39.0 39
  353.14246 53.0 53
  353.15485 32.0 32
  354.15237 39.0 39
  354.20834 51.0 51
  355.10907 60.0 60
  356.11011 32.0 32
  356.12225 38.0 38
  356.15976 55.0 55
  357.13144 81.0 81
  358.13736 70.0 70
  358.17526 51.0 51
  358.18988 39.0 39
  359.20804 60.0 60
  360.16864 47.0 47
  360.95734 36.0 36
  364.11679 39.0 39
  367.16644 120.0 120
  368.08762 41.0 41
  368.16959 41.0 41
  368.21262 32.0 32
  369.11255 73.0 73
  369.13199 32.0 32
  369.16153 68.0 68
  370.14127 417.0 417
  370.16876 139.0 139
  370.30051 32.0 32
  370.66193 39.0 39
  371.14438 314.0 314
  372.15192 141.0 141
  374.17828 34.0 34
  378.10257 58.0 58
  378.17001 58.0 58
  381.13699 115.0 115
  384.16031 45.0 45
  384.18661 58.0 58
  385.12189 58.0 58
  385.14197 38.0 38
  386.13364 148.0 148
  386.14697 124.0 124
  386.17453 205.0 205
  387.13437 39.0 39
  387.18353 58.0 58
  388.14316 32.0 32
  388.15897 128.0 128
  389.14935 45.0 45
  390.14841 90.0 90
  390.18512 45.0 45
  394.25003 32.0 32
  395.14832 73.0 73
  395.17007 51.0 51
  396.13312 38.0 38
  396.16147 86.0 86
  396.1767 90.0 90
  398.20493 51.0 51
  400.10596 43.0 43
  400.15363 90.0 90
  401.134 47.0 47
  401.16879 68.0 68
  402.17102 102.0 102
  402.19604 45.0 45
  403.13623 53.0 53
  407.17227 38.0 38
  408.15518 105.0 105
  409.16547 58.0 58
  411.12119 41.0 41
  411.14636 49.0 49
  412.01358 90.0 90
  414.15134 38.0 38
  415.16821 38.0 38
  416.1705 49.0 49
  416.18497 39.0 39
  418.20816 68.0 68
  421.18005 64.0 64
  422.12051 41.0 41
  422.14145 68.0 68
  424.15518 56.0 56
  427.14389 43.0 43
  430.2088 49.0 49
  432.17471 92.0 92
  433.56653 47.0 47
  434.97775 56.0 56
  436.16275 38.0 38
  437.61356 45.0 45
  438.15463 62.0 62
  440.16321 105.0 105
  441.17957 32.0 32
  441.19717 68.0 68
  442.15125 32.0 32
  446.23102 47.0 47
  447.19513 56.0 56
  449.19763 34.0 34
  450.22806 34.0 34
  453.13538 34.0 34
  454.18469 55.0 55
  455.17514 47.0 47
  457.09821 68.0 68
  461.13614 45.0 45
  462.17047 111.0 111
  462.95694 66.0 66
  465.17874 47.0 47
  466.20639 51.0 51
  468.19788 43.0 43
  469.15915 56.0 56
  469.17935 85.0 85
  470.18329 38.0 38
  471.20236 70.0 70
  472.20895 36.0 36
  473.185 94.0 94
  474.19504 49.0 49
  474.23804 49.0 49
  475.16556 38.0 38
  479.14404 32.0 32
  485.19385 38.0 38
  486.15067 195.0 195
  486.1777 113.0 113
  487.1705 132.0 132
  488.15768 32.0 32
  488.18616 55.0 55
  489.08124 49.0 49
  490.14841 71.0 71
  491.13681 56.0 56
  492.18472 36.0 36
  493.22165 34.0 34
  495.25046 51.0 51
  497.15445 53.0 53
  499.18259 32.0 32
  499.22299 182.0 182
  499.24792 62.0 62
  500.17499 32.0 32
  500.19684 53.0 53
  500.22678 34.0 34
  501.20023 49.0 49
  501.24301 34.0 34
  502.1748 47.0 47
  503.15274 62.0 62
  504.13773 83.0 83
  504.17505 122.0 122
  505.17337 83.0 83
  505.19391 32.0 32
  506.15277 92.0 92
  509.12827 51.0 51
  512.22034 45.0 45
  513.14703 66.0 66
  513.16919 34.0 34
  513.18646 32.0 32
  514.16296 77.0 77
  514.19067 64.0 64
  514.21283 51.0 51
  515.1756 39.0 39
  515.21875 43.0 43
  516.18256 60.0 60
  516.21667 39.0 39
  517.1615 43.0 43
  517.19684 115.0 115
  517.21704 47.0 47
  518.1626 152.0 152
  518.18579 177.0 177
  519.19055 85.0 85
  520.15985 51.0 51
  520.20032 41.0 41
  521.20374 100.0 100
  522.22791 41.0 41
  523.36481 32.0 32
  528.17273 34.0 34
  529.17114 36.0 36
  529.2088 32.0 32
  530.15558 38.0 38
  530.18854 128.0 128
  531.16077 83.0 83
  531.18359 47.0 47
  531.21191 73.0 73
  532.17261 66.0 66
  533.15039 34.0 34
  533.18451 75.0 75
  533.20355 51.0 51
  534.15393 38.0 38
  534.19763 141.0 141
  535.17578 38.0 38
  535.20392 36.0 36
  535.2323 43.0 43
  535.72021 45.0 45
  536.20337 38.0 38
  536.23395 38.0 38
  536.7099 56.0 56
  541.22339 36.0 36
  542.13812 38.0 38
  542.19226 75.0 75
  542.22809 32.0 32
  543.16266 47.0 47
  543.18176 47.0 47
  543.24371 32.0 32
  543.71313 45.0 45
  543.74084 34.0 34
  544.15704 45.0 45
  544.18341 51.0 51
  544.24084 32.0 32
  545.19629 180.0 180
  545.21509 51.0 51
  546.16205 47.0 47
  546.19232 148.0 148
  546.21838 70.0 70
  546.24274 81.0 81
  547.21515 41.0 41
  548.1886 113.0 113
  548.20837 397.0 397
  548.51678 45.0 45
  549.17145 88.0 88
  549.21051 107.0 107
  549.22479 43.0 43
  550.14355 49.0 49
  551.17969 47.0 47
  556.19055 43.0 43
  557.22021 36.0 36
  558.19153 38.0 38
  558.20624 43.0 43
  558.22144 53.0 53
  559.17938 90.0 90
  559.19818 105.0 105
  559.22321 209.0 209
  559.69116 32.0 32
  559.76642 56.0 56
  560.12006 38.0 38
  560.17438 115.0 115
  560.2041 209.0 209
  560.23309 143.0 143
  561.17883 132.0 132
  561.20557 357.0 357
  561.25311 47.0 47
  562.18286 158.0 158
  562.21655 226.0 226
  563.17426 55.0 55
  563.20227 90.0 90
  563.25195 70.0 70
  564.03455 38.0 38
  564.10632 60.0 60
  564.16138 55.0 55
  564.2019 190.0 190
  564.21881 79.0 79
  564.45728 70.0 70
  565.1911 105.0 105
  565.29163 51.0 51
  565.66626 32.0 32
  566.17505 45.0 45
  566.22736 70.0 70
  566.2746 38.0 38
  568.27423 73.0 73
  572.18781 34.0 34
  572.21368 81.0 81
  573.21741 38.0 38
  574.19135 239.0 239
  574.21234 103.0 103
  574.28351 36.0 36
  575.15686 36.0 36
  575.18127 32.0 32
  575.20984 295.0 295
  575.24463 115.0 115
  576.12384 103.0 103
  576.16608 81.0 81
  576.20233 1000.0 999
  576.24164 370.0 370
  577.15686 77.0 77
  577.21069 793.0 792
  578.20325 73.0 73
  578.23621 43.0 43
  578.69446 51.0 51
  579.14056 47.0 47
  580.24695 58.0 58
  589.22546 128.0 128
  589.26239 53.0 53
  590.21143 133.0 133
  591.12628 41.0 41
  591.1712 32.0 32
  591.19586 77.0 77
  591.22089 71.0 71
  591.25104 222.0 222
  592.19727 39.0 39
  592.2226 241.0 241
  592.25165 38.0 38
  593.22797 38.0 38
  593.26257 51.0 51
  593.27771 36.0 36
  593.72125 38.0 38
  594.23846 43.0 43
  604.2179 66.0 66
  604.26306 36.0 36
  604.5498 55.0 55
  605.23914 55.0 55
  606.22614 39.0 39
  607.23578 921.0 920
  607.26855 145.0 145
  607.28973 32.0 32
  608.23816 130.0 130
  608.26837 56.0 56
  609.23395 66.0 66
  609.25275 36.0 36
  610.49591 32.0 32
  619.92059 32.0 32
  621.26318 132.0 132
  622.2691 180.0 180
  637.30688 36.0 36
//
