ACCESSION: MSBNK-RIKEN-PR302928
RECORD_TITLE: Biochanin-7-O-glucoside; LC-ESI-QTOF; MS2
DATE: 2019.03.28
AUTHORS: Tetsuya Mori, Center for Sustainable Resource Science, RIKEN
LICENSE: CC BY-NC-SA
PUBLICATION: Tsugawa H., Nakabayashi R., Mori T., Yamada Y., Takahashi M., Rai A., Sugiyama R., Yamamoto H., Nakaya T., Yamazaki M., Kooke R., Bac-Molenaar JA., Oztolan-Erol N., Keurentjes JJB., Arita M., Saito K. (2019) "A cheminformatics approach to characterize metabolomes in stable-isotope-labeled organisms" Nature Methods 16(4):295-298. [doi:10.1038/s41592-019-0358-2]
COMMENT: registered in RIKEN PlaSMA
CH$NAME: Biochanin-7-O-glucoside
CH$COMPOUND_CLASS: Isoflavonoid O-glycosides
CH$FORMULA: C22H22O10
CH$EXACT_MASS: 446.408
CH$SMILES: COC1=CC=C(C=C1)C1=COC2=CC(O[C@@H]3O[C@H](CO)[C@@H](O)[C@H](O)[C@H]3O)=CC(O)=C2C1=O
CH$IUPAC: InChI=1S/C22H22O10/c1-29-11-4-2-10(3-5-11)13-9-30-15-7-12(6-14(24)17(15)18(13)25)31-22-21(28)20(27)19(26)16(8-23)32-22/h2-7,9,16,19-24,26-28H,8H2,1H3/t16-,19-,20+,21-,22-/m1/s1
CH$LINK: INCHIKEY LFEUICHQZGNOHD-RECXWPGBSA-N
AC$INSTRUMENT: LC, Waters Acquity UPLC System; MS, Waters Xevo G2 Q-Tof
AC$INSTRUMENT_TYPE: LC-ESI-QTOF
AC$MASS_SPECTROMETRY: MS_TYPE MS2
AC$MASS_SPECTROMETRY: ION_MODE POSITIVE
AC$MASS_SPECTROMETRY: COLLISION_ENERGY 6V
AC$MASS_SPECTROMETRY: DESOLVATION_GAS_FLOW 800/h
AC$MASS_SPECTROMETRY: DESOLVATION_TEMPERATURE 450 C
AC$MASS_SPECTROMETRY: IONIZATION ESI
AC$CHROMATOGRAPHY: CAPILLARY_VOLTAGE +3.00 kV
AC$CHROMATOGRAPHY: COLUMN_NAME Acquity bridged ethyl hybrid C18 (1.7 um, 2.1 mm * 100 mm, Waters)
AC$CHROMATOGRAPHY: COLUMN_TEMPERATURE 40 C
AC$CHROMATOGRAPHY: FLOW_GRADIENT A/B = (99.5%/0.5% at 0 min, 99.5%/0.5% at 0.1 min, 20%/80% at 10 min, 0.5%/99.5% at 10.1 min, 0.5%/99.5% at 12.0 min, 99.5%/0.5% at 12.1 min, 99.5%/0.5% at 15.0 min)
AC$CHROMATOGRAPHY: FLOW_RATE 0.3 ml/min at 0 min, 0.3 ml/min at 10 min, 0.4 ml/min at 10.1 min, 0.4 ml/min at 14.4 min, 0.3 ml/min at 14.5 min
AC$CHROMATOGRAPHY: RETENTION_TIME 5.73275
AC$CHROMATOGRAPHY: SOLVENT A water including 0.1% formic acid
AC$CHROMATOGRAPHY: SOLVENT B acetonitrile including 0.1% formic acid
MS$FOCUSED_ION: PRECURSOR_TYPE [M+H]+
MS$FOCUSED_ION: PRECURSOR_M/Z 447.1285734
PK$SPLASH: splash10-0v4r-0690000000-a92b43c564e495d37696
PK$NUM_PEAK: 208
PK$PEAK: m/z int. rel.int.
  64.54417 12.0 12
  67.01848 13.0 13
  68.99699 14.0 14
  77.037 42.0 42
  79.05669 38.0 38
  81.03341 51.0 51
  82.08889 11.0 11
  90.05003 44.0 44
  91.05589 16.0 16
  103.05782 53.0 53
  107.00475 14.0 14
  107.04242 31.0 31
  107.0499 18.0 18
  107.60027 12.0 12
  108.06437 20.0 20
  111.00137 16.0 16
  111.01191 11.0 11
  115.05205 20.0 20
  118.01833 12.0 12
  118.02769 26.0 26
  118.03983 231.0 231
  119.03848 10.0 10
  119.05174 24.0 24
  121.12363 11.0 11
  122.03075 16.0 16
  122.05901 17.0 17
  123.04141 285.0 285
  123.42478 9.0 9
  124.01554 363.0 363
  124.02789 27.0 27
  124.04852 20.0 20
  124.2776 17.0 17
  125.44506 11.0 11
  126.01409 19.0 19
  129.06657 22.0 22
  130.0403 27.0 27
  130.0466 12.0 12
  130.06775 28.0 28
  130.0798 25.0 25
  131.0522 11.0 11
  132.06079 60.0 60
  133.03404 12.0 12
  133.06383 140.0 140
  134.07565 11.0 11
  134.37045 13.0 13
  135.04086 11.0 11
  135.05038 11.0 11
  136.01788 19.0 19
  139.03961 35.0 35
  141.05365 13.0 13
  141.06837 30.0 30
  142.07707 13.0 13
  144.02414 16.0 16
  145.05872 12.0 12
  145.06828 48.0 48
  145.37383 11.0 11
  147.97108 13.0 13
  148.60794 21.0 21
  149.02266 269.0 269
  150.02132 10.0 10
  150.03313 23.0 23
  150.90732 11.0 11
  151.04124 15.0 15
  151.9821 10.0 10
  152.00793 618.0 617
  152.01648 117.0 117
  152.05746 31.0 31
  153.00943 72.0 72
  153.01933 401.0 401
  153.06926 27.0 27
  154.00969 22.0 22
  154.02025 32.0 32
  157.06432 39.0 39
  158.02972 69.0 69
  158.0378 226.0 226
  158.07394 26.0 26
  159.02654 20.0 20
  159.03696 17.0 17
  159.04639 34.0 34
  159.64334 10.0 10
  163.04037 15.0 15
  165.02213 14.0 14
  166.82727 14.0 14
  168.05867 21.0 21
  168.39584 10.0 10
  169.0641 42.0 42
  170.05687 9.0 9
  171.05098 14.0 14
  171.07791 19.0 19
  172.05191 20.0 20
  173.05554 40.0 40
  173.06502 21.0 21
  174.06609 25.0 25
  174.4715 10.0 10
  174.57736 16.0 16
  179.02788 27.0 27
  180.06503 13.0 13
  181.06656 22.0 22
  181.81087 11.0 11
  183.04485 15.0 15
  183.07072 18.0 18
  183.08452 11.0 11
  184.04533 13.0 13
  184.07762 10.0 10
  185.05748 31.0 31
  185.07013 25.0 25
  186.03264 11.0 11
  186.06232 18.0 18
  192.02707 16.0 16
  192.03918 34.0 34
  192.05954 22.0 22
  196.06097 38.0 38
  196.90244 12.0 12
  197.06178 80.0 80
  198.06046 39.0 39
  198.07471 15.0 15
  199.06165 9.0 9
  199.0732 11.0 11
  200.0434 19.0 19
  200.04961 9.0 9
  201.05956 10.0 10
  201.08203 13.0 13
  202.06375 13.0 13
  202.10045 13.0 13
  207.04268 15.0 15
  211.03291 10.0 10
  211.041 42.0 42
  212.05356 18.0 18
  213.04353 91.0 91
  213.05614 654.0 653
  214.03358 13.0 13
  214.05949 154.0 154
  215.06401 10.0 10
  215.07661 12.0 12
  215.87857 28.0 28
  216.02811 22.0 22
  216.04407 38.0 38
  216.05151 28.0 28
  216.07135 10.0 10
  216.20813 13.0 13
  224.05132 10.0 10
  225.05573 38.0 38
  225.95699 13.0 13
  226.03082 13.0 13
  226.05064 24.0 24
  227.04118 14.0 14
  229.08522 463.0 463
  229.89563 11.0 11
  230.05818 10.0 10
  230.0743 13.0 13
  230.08517 22.0 22
  230.0954 10.0 10
  230.35118 13.0 13
  230.55127 9.0 9
  233.91766 13.0 13
  235.81563 11.0 11
  239.05646 10.0 10
  239.24327 12.0 12
  241.03168 33.0 33
  241.04636 167.0 167
  241.05663 59.0 59
  241.32707 10.0 10
  241.77153 11.0 11
  242.01456 14.0 14
  242.0575 626.0 625
  242.12639 16.0 16
  243.05763 108.0 108
  243.12085 15.0 15
  251.14606 13.0 13
  252.03259 59.0 59
  252.04579 62.0 62
  253.00496 11.0 11
  253.04597 311.0 311
  253.05772 167.0 167
  254.03169 14.0 14
  254.04219 42.0 42
  254.06033 22.0 22
  255.05621 9.0 9
  255.63202 16.0 16
  256.05362 9.0 9
  257.07965 28.0 28
  267.05869 13.0 13
  268.98947 10.0 10
  269.01474 20.0 20
  269.04303 1000.0 999
  270.00854 31.0 31
  270.02502 10.0 10
  270.05191 560.0 559
  270.06088 206.0 206
  270.54846 11.0 11
  271.05487 61.0 61
  271.06552 51.0 51
  272.08118 13.0 13
  278.84866 16.0 16
  284.88235 10.0 10
  285.07697 882.0 881
  285.70673 10.0 10
  285.88931 10.0 10
  286.052 11.0 11
  286.0658 37.0 37
  286.0816 110.0 110
  286.09183 48.0 48
  286.11404 10.0 10
  287.07043 28.0 28
  287.08502 11.0 11
  331.07709 13.0 13
  410.61996 10.0 10
  426.07819 10.0 10
//
