ACCESSION: MSBNK-RIKEN-PR308601
RECORD_TITLE: Ginsenoside Rg6; LC-ESI-QTOF; MS2
DATE: 2019.03.28
AUTHORS: Tetsuya Mori, Center for Sustainable Resource Science, RIKEN
LICENSE: CC BY-NC-SA
PUBLICATION: Tsugawa H., Nakabayashi R., Mori T., Yamada Y., Takahashi M., Rai A., Sugiyama R., Yamamoto H., Nakaya T., Yamazaki M., Kooke R., Bac-Molenaar JA., Oztolan-Erol N., Keurentjes JJB., Arita M., Saito K. (2019) "A cheminformatics approach to characterize metabolomes in stable-isotope-labeled organisms" Nature Methods 16(4):295-298. [doi:10.1038/s41592-019-0358-2]
COMMENT: registered in RIKEN PlaSMA
CH$NAME: Ginsenoside Rg6
CH$COMPOUND_CLASS: Triterpenoids
CH$FORMULA: C42H70O12
CH$EXACT_MASS: 767.01
CH$SMILES: CC1OC(OC2C(O)C(O)C(CO)OC2OC2CC3(C)C(CC(O)C4C(CCC34C)C(=C)CCC=C(C)C)C3(C)CCC(O)C(C)(C)C23)C(O)C(O)C1O
CH$IUPAC: InChI=1S/C42H70O12/c1-20(2)11-10-12-21(3)23-13-16-41(8)29(23)24(44)17-27-40(7)15-14-28(45)39(5,6)36(40)25(18-42(27,41)9)52-38-35(33(49)31(47)26(19-43)53-38)54-37-34(50)32(48)30(46)22(4)51-37/h11,22-38,43-50H,3,10,12-19H2,1-2,4-9H3
CH$LINK: INCHIKEY ZVTVWDXRNMHGNY-UHFFFAOYSA-N
AC$INSTRUMENT: LC, Waters Acquity UPLC System; MS, Waters Xevo G2 Q-Tof
AC$INSTRUMENT_TYPE: LC-ESI-QTOF
AC$MASS_SPECTROMETRY: MS_TYPE MS2
AC$MASS_SPECTROMETRY: ION_MODE NEGATIVE
AC$MASS_SPECTROMETRY: COLLISION_ENERGY 6V
AC$MASS_SPECTROMETRY: DESOLVATION_GAS_FLOW 800/h
AC$MASS_SPECTROMETRY: DESOLVATION_TEMPERATURE 450 C
AC$MASS_SPECTROMETRY: IONIZATION ESI
AC$CHROMATOGRAPHY: CAPILLARY_VOLTAGE -2.75 kV
AC$CHROMATOGRAPHY: COLUMN_NAME Acquity bridged ethyl hybrid C18 (1.7 um, 2.1 mm * 100 mm, Waters)
AC$CHROMATOGRAPHY: COLUMN_TEMPERATURE 40 C
AC$CHROMATOGRAPHY: FLOW_GRADIENT A/B = (99.5%/0.5% at 0 min, 99.5%/0.5% at 0.1 min, 20%/80% at 10 min, 0.5%/99.5% at 10.1 min, 0.5%/99.5% at 12.0 min, 99.5%/0.5% at 12.1 min, 99.5%/0.5% at 15.0 min)
AC$CHROMATOGRAPHY: FLOW_RATE 0.3 ml/min at 0 min, 0.3 ml/min at 10 min, 0.4 ml/min at 10.1 min, 0.4 ml/min at 14.4 min, 0.3 ml/min at 14.5 min
AC$CHROMATOGRAPHY: RETENTION_TIME 7.570883
AC$CHROMATOGRAPHY: SOLVENT A water including 0.1% formic acid
AC$CHROMATOGRAPHY: SOLVENT B acetonitrile including 0.1% formic acid
MS$FOCUSED_ION: PRECURSOR_TYPE [M-H]-
MS$FOCUSED_ION: PRECURSOR_M/Z 765.47945124783
PK$SPLASH: splash10-03di-2900000000-ec962bdb57d90a4893e8
PK$NUM_PEAK: 17
PK$PEAK: m/z int. rel.int.
  59.01194 126.0 126
  71.01333 120.0 120
  75.8334 102.0 102
  89.02162 108.0 108
  97.03043 102.0 102
  100.69234 96.0 96
  101.0246 120.0 120
  102.02602 126.0 126
  105.04665 96.0 96
  113.02425 1000.0 999
  119.03323 240.0 240
  143.03224 150.0 150
  144.03627 126.0 126
  145.04817 96.0 96
  161.0479 156.0 156
  457.34854 102.0 102
  527.39587 168.0 168
//
