ACCESSION: MSBNK-RIKEN-PR302193
RECORD_TITLE: Syringetin-3-O-glucoside; LC-ESI-QTOF; MS2
DATE: 2019.03.28
AUTHORS: Tetsuya Mori, Center for Sustainable Resource Science, RIKEN
LICENSE: CC BY-NC-SA
PUBLICATION: Tsugawa H., Nakabayashi R., Mori T., Yamada Y., Takahashi M., Rai A., Sugiyama R., Yamamoto H., Nakaya T., Yamazaki M., Kooke R., Bac-Molenaar JA., Oztolan-Erol N., Keurentjes JJB., Arita M., Saito K. (2019) "A cheminformatics approach to characterize metabolomes in stable-isotope-labeled organisms" Nature Methods 16(4):295-298. [doi:10.1038/s41592-019-0358-2]
COMMENT: registered in RIKEN PlaSMA
CH$NAME: Syringetin-3-O-glucoside
CH$COMPOUND_CLASS: Flavonoid-3-O-glycosides
CH$FORMULA: C23H24O13
CH$EXACT_MASS: 508.432
CH$SMILES: COC1=CC(=CC(OC)=C1O)C1=C(O[C@@H]2O[C@H](CO)[C@@H](O)[C@H](O)[C@H]2O)C(=O)C2=C(O)C=C(O)C=C2O1
CH$IUPAC: InChI=1S/C23H24O13/c1-32-12-3-8(4-13(33-2)16(12)27)21-22(18(29)15-10(26)5-9(25)6-11(15)34-21)36-23-20(31)19(30)17(28)14(7-24)35-23/h3-6,14,17,19-20,23-28,30-31H,7H2,1-2H3/t14-,17-,19+,20-,23+/m1/s1
CH$LINK: INCHIKEY JMFWYRWPJVEZPV-AVGVHVDKSA-N
AC$INSTRUMENT: LC, Waters Acquity UPLC System; MS, Waters Xevo G2 Q-Tof
AC$INSTRUMENT_TYPE: LC-ESI-QTOF
AC$MASS_SPECTROMETRY: MS_TYPE MS2
AC$MASS_SPECTROMETRY: ION_MODE POSITIVE
AC$MASS_SPECTROMETRY: COLLISION_ENERGY 6V
AC$MASS_SPECTROMETRY: DESOLVATION_GAS_FLOW 800/h
AC$MASS_SPECTROMETRY: DESOLVATION_TEMPERATURE 450 C
AC$MASS_SPECTROMETRY: IONIZATION ESI
AC$CHROMATOGRAPHY: CAPILLARY_VOLTAGE +3.00 kV
AC$CHROMATOGRAPHY: COLUMN_NAME Acquity bridged ethyl hybrid C18 (1.7 um, 2.1 mm * 100 mm, Waters)
AC$CHROMATOGRAPHY: COLUMN_TEMPERATURE 40 C
AC$CHROMATOGRAPHY: FLOW_GRADIENT A/B = (99.5%/0.5% at 0 min, 99.5%/0.5% at 0.1 min, 20%/80% at 10 min, 0.5%/99.5% at 10.1 min, 0.5%/99.5% at 12.0 min, 99.5%/0.5% at 12.1 min, 99.5%/0.5% at 15.0 min)
AC$CHROMATOGRAPHY: FLOW_RATE 0.3 ml/min at 0 min, 0.3 ml/min at 10 min, 0.4 ml/min at 10.1 min, 0.4 ml/min at 14.4 min, 0.3 ml/min at 14.5 min
AC$CHROMATOGRAPHY: RETENTION_TIME 4.356517
AC$CHROMATOGRAPHY: SOLVENT A water including 0.1% formic acid
AC$CHROMATOGRAPHY: SOLVENT B acetonitrile including 0.1% formic acid
MS$FOCUSED_ION: PRECURSOR_TYPE [M+H]+
MS$FOCUSED_ION: PRECURSOR_M/Z 509.1289673
PK$SPLASH: splash10-0002-0019000000-a8f256c7cd1ba7cfb23c
PK$NUM_PEAK: 47
PK$PEAK: m/z int. rel.int.
  85.02643 5.0 5
  145.04985 7.0 7
  153.01482 7.0 7
  153.05235 8.0 8
  153.06693 14.0 14
  163.04515 7.0 7
  165.01924 12.0 12
  181.04027 8.0 8
  181.0499 12.0 12
  189.00285 6.0 6
  223.30669 7.0 7
  241.04413 8.0 8
  247.26442 5.0 5
  258.02173 6.0 6
  258.0517 21.0 21
  259.05719 7.0 7
  259.07367 8.0 8
  269.03348 7.0 7
  269.05237 7.0 7
  284.99664 6.0 6
  285.02457 5.0 5
  287.03787 13.0 13
  287.05081 42.0 42
  287.06705 17.0 17
  291.07996 7.0 7
  300.02002 5.0 5
  302.04291 12.0 12
  303.05869 11.0 11
  314.03195 8.0 8
  315.0365 13.0 13
  315.06064 8.0 8
  316.06943 5.0 5
  331.03519 16.0 16
  331.06381 5.0 5
  332.04761 14.0 14
  332.06287 12.0 12
  333.05466 7.0 7
  347.04745 15.0 15
  347.077 1000.0 999
  347.97675 9.0 9
  348.02493 8.0 8
  348.08002 195.0 195
  348.9982 11.0 11
  349.06348 7.0 7
  349.07736 16.0 16
  509.10315 10.0 10
  509.12891 44.0 44
//
