ACCESSION: MSBNK-RIKEN-PR303867
RECORD_TITLE: Schizandrin; LC-ESI-QTOF; MS2
DATE: 2019.03.28
AUTHORS: Tetsuya Mori, Center for Sustainable Resource Science, RIKEN
LICENSE: CC BY-NC-SA
PUBLICATION: Tsugawa H., Nakabayashi R., Mori T., Yamada Y., Takahashi M., Rai A., Sugiyama R., Yamamoto H., Nakaya T., Yamazaki M., Kooke R., Bac-Molenaar JA., Oztolan-Erol N., Keurentjes JJB., Arita M., Saito K. (2019) "A cheminformatics approach to characterize metabolomes in stable-isotope-labeled organisms" Nature Methods 16(4):295-298. [doi:10.1038/s41592-019-0358-2]
COMMENT: registered in RIKEN PlaSMA
CH$NAME: Schizandrin
CH$COMPOUND_CLASS: Hydrolyzable tannins
CH$FORMULA: C24H32O7
CH$EXACT_MASS: 432.513
CH$SMILES: COC1=C(OC)C(OC)=C2C(CC(C)C(C)(O)CC3=CC(OC)=C(OC)C(OC)=C23)=C1
CH$IUPAC: InChI=1S/C24H32O7/c1-13-9-14-10-16(26-3)20(28-5)22(30-7)18(14)19-15(12-24(13,2)25)11-17(27-4)21(29-6)23(19)31-8/h10-11,13,25H,9,12H2,1-8H3
CH$LINK: INCHIKEY YEFOAORQXAOVJQ-UHFFFAOYSA-N
AC$INSTRUMENT: LC, Waters Acquity UPLC System; MS, Waters Xevo G2 Q-Tof
AC$INSTRUMENT_TYPE: LC-ESI-QTOF
AC$MASS_SPECTROMETRY: MS_TYPE MS2
AC$MASS_SPECTROMETRY: ION_MODE POSITIVE
AC$MASS_SPECTROMETRY: COLLISION_ENERGY 6V
AC$MASS_SPECTROMETRY: DESOLVATION_GAS_FLOW 800/h
AC$MASS_SPECTROMETRY: DESOLVATION_TEMPERATURE 450 C
AC$MASS_SPECTROMETRY: IONIZATION ESI
AC$CHROMATOGRAPHY: CAPILLARY_VOLTAGE +3.00 kV
AC$CHROMATOGRAPHY: COLUMN_NAME Acquity bridged ethyl hybrid C18 (1.7 um, 2.1 mm * 100 mm, Waters)
AC$CHROMATOGRAPHY: COLUMN_TEMPERATURE 40 C
AC$CHROMATOGRAPHY: FLOW_GRADIENT A/B = (99.5%/0.5% at 0 min, 99.5%/0.5% at 0.1 min, 20%/80% at 10 min, 0.5%/99.5% at 10.1 min, 0.5%/99.5% at 12.0 min, 99.5%/0.5% at 12.1 min, 99.5%/0.5% at 15.0 min)
AC$CHROMATOGRAPHY: FLOW_RATE 0.3 ml/min at 0 min, 0.3 ml/min at 10 min, 0.4 ml/min at 10.1 min, 0.4 ml/min at 14.4 min, 0.3 ml/min at 14.5 min
AC$CHROMATOGRAPHY: RETENTION_TIME 7.59405
AC$CHROMATOGRAPHY: SOLVENT A water including 0.1% formic acid
AC$CHROMATOGRAPHY: SOLVENT B acetonitrile including 0.1% formic acid
MS$FOCUSED_ION: PRECURSOR_TYPE [M+H]+
MS$FOCUSED_ION: PRECURSOR_M/Z 433.2220798
PK$SPLASH: splash10-0159-0009000000-47511a32fd9b6e91ab50
PK$NUM_PEAK: 367
PK$PEAK: m/z int. rel.int.
  73.06495 8.0 8
  98.37589 6.0 6
  105.05306 7.0 7
  109.06719 6.0 6
  136.04385 8.0 8
  154.05865 6.0 6
  171.07918 7.0 7
  178.10747 10.0 10
  181.08467 18.0 18
  183.23778 6.0 6
  188.1256 7.0 7
  189.08725 10.0 10
  193.04865 7.0 7
  195.07303 6.0 6
  195.10631 14.0 14
  206.45493 6.0 6
  209.06848 7.0 7
  215.11409 15.0 15
  216.09746 6.0 6
  218.09775 7.0 7
  220.0672 6.0 6
  221.86748 7.0 7
  225.08405 9.0 9
  226.09961 18.0 18
  228.08701 8.0 8
  229.09102 7.0 7
  231.44006 10.0 10
  235.0778 7.0 7
  235.11324 6.0 6
  235.13387 8.0 8
  239.10783 13.0 13
  240.44504 8.0 8
  243.10657 7.0 7
  245.09364 8.0 8
  251.10814 7.0 7
  253.09248 8.0 8
  253.1134 12.0 12
  254.10022 6.0 6
  254.12923 8.0 8
  255.09959 24.0 24
  256.04379 8.0 8
  256.09717 7.0 7
  256.11966 6.0 6
  257.12296 13.0 13
  259.06244 8.0 8
  259.07568 7.0 7
  259.09641 6.0 6
  259.13419 7.0 7
  260.14389 6.0 6
  265.08261 19.0 19
  266.0918 7.0 7
  267.1142 7.0 7
  268.10532 13.0 13
  268.11539 6.0 6
  268.47733 10.0 10
  269.12885 7.0 7
  269.62549 9.0 9
  270.08759 27.0 27
  270.10031 15.0 15
  270.12112 7.0 7
  271.09372 8.0 8
  271.10229 6.0 6
  271.12286 7.0 7
  272.09546 25.0 25
  272.10742 12.0 12
  272.11896 8.0 8
  273.12012 6.0 6
  277.10434 8.0 8
  277.11951 6.0 6
  277.14301 6.0 6
  278.09454 6.0 6
  278.10461 12.0 12
  278.13446 6.0 6
  278.19492 9.0 9
  279.10199 10.0 10
  279.1156 7.0 7
  281.08533 9.0 9
  281.15018 9.0 9
  282.09222 13.0 13
  283.06009 9.0 9
  283.09961 24.0 24
  283.12738 8.0 8
  284.10443 19.0 19
  284.15942 6.0 6
  285.02432 6.0 6
  285.10275 12.0 12
  285.11954 23.0 23
  285.1441 7.0 7
  286.09174 6.0 6
  286.11505 20.0 20
  286.12982 15.0 15
  287.08704 6.0 6
  287.10181 8.0 8
  287.11948 8.0 8
  288.08524 7.0 7
  288.14078 6.0 6
  289.14236 6.0 6
  290.10318 7.0 7
  290.14417 16.0 16
  292.11151 7.0 7
  293.10904 7.0 7
  293.12231 7.0 7
  294.12646 6.0 6
  295.09824 8.0 8
  295.12283 13.0 13
  295.14319 15.0 15
  296.07181 6.0 6
  296.10437 6.0 6
  296.11951 23.0 23
  296.14365 7.0 7
  297.08804 6.0 6
  297.10214 6.0 6
  298.09045 7.0 7
  298.10443 6.0 6
  298.12372 25.0 25
  298.16803 7.0 7
  299.0593 11.0 11
  299.08865 37.0 37
  299.1196 33.0 33
  299.13467 67.0 67
  300.09299 41.0 41
  300.10751 12.0 12
  300.12207 7.0 7
  300.13254 6.0 6
  300.16763 7.0 7
  301.10632 12.0 12
  301.13986 6.0 6
  302.10535 33.0 33
  302.12057 51.0 51
  305.10507 6.0 6
  305.13968 8.0 8
  305.16425 8.0 8
  305.89719 8.0 8
  306.121 6.0 6
  306.90216 6.0 6
  307.09491 6.0 6
  307.12021 13.0 13
  307.14139 27.0 27
  308.14389 6.0 6
  309.10629 6.0 6
  309.12149 7.0 7
  309.13632 8.0 8
  309.1488 21.0 21
  310.11594 19.0 19
  310.15765 29.0 29
  310.17151 16.0 16
  310.49374 7.0 7
  310.74979 6.0 6
  311.0853 6.0 6
  311.12747 21.0 21
  311.13934 25.0 25
  311.17044 19.0 19
  312.09784 21.0 21
  312.11472 7.0 7
  312.14044 19.0 19
  313.10684 126.0 126
  313.13733 26.0 26
  314.05753 8.0 8
  314.11368 87.0 87
  314.92102 9.0 9
  314.97247 9.0 9
  315.06332 9.0 9
  315.07941 6.0 6
  315.12131 253.0 253
  315.13766 91.0 91
  315.16852 13.0 13
  316.03238 6.0 6
  316.09103 37.0 37
  316.10931 39.0 39
  316.12762 75.0 75
  316.13998 22.0 22
  316.17618 6.0 6
  317.07196 6.0 6
  317.09854 41.0 41
  317.13309 35.0 35
  318.09753 6.0 6
  318.13126 6.0 6
  318.74045 8.0 8
  319.74011 7.0 7
  320.14099 6.0 6
  321.10852 28.0 28
  321.14285 15.0 15
  321.15854 16.0 16
  321.18512 8.0 8
  321.40735 10.0 10
  322.10873 36.0 36
  322.12415 27.0 27
  322.15561 209.0 209
  322.17029 60.0 60
  323.08228 8.0 8
  323.1142 21.0 21
  323.1333 53.0 53
  323.16348 28.0 28
  323.3782 6.0 6
  324.00339 6.0 6
  324.11133 10.0 10
  324.12823 13.0 13
  324.13995 25.0 25
  324.15814 6.0 6
  324.17993 6.0 6
  324.43527 8.0 8
  325.1293 13.0 13
  325.14639 34.0 34
  325.17938 12.0 12
  326.12195 7.0 7
  326.14285 21.0 21
  326.15582 41.0 41
  326.72076 6.0 6
  327.0831 7.0 7
  327.12338 150.0 150
  327.15536 41.0 41
  328.09137 7.0 7
  328.12912 358.0 358
  328.15387 46.0 46
  328.17615 7.0 7
  328.39496 6.0 6
  329.09869 73.0 73
  329.11719 27.0 27
  329.13553 111.0 111
  329.8652 8.0 8
  329.96155 6.0 6
  330.1055 21.0 21
  330.13312 59.0 59
  330.14957 136.0 136
  331.08533 7.0 7
  331.11896 327.0 327
  331.15057 40.0 40
  331.16693 7.0 7
  331.32349 7.0 7
  332.09265 7.0 7
  332.12338 217.0 217
  332.15314 12.0 12
  332.36725 6.0 6
  332.57217 6.0 6
  333.09113 6.0 6
  333.12848 70.0 70
  333.15509 12.0 12
  334.13306 21.0 21
  335.13333 28.0 28
  336.13446 17.0 17
  336.17578 6.0 6
  337.12421 30.0 30
  337.14084 49.0 49
  337.1546 40.0 40
  338.03522 9.0 9
  338.10693 6.0 6
  338.15234 427.0 427
  339.10864 7.0 7
  339.14828 135.0 135
  339.16614 64.0 64
  339.86237 7.0 7
  340.13159 42.0 42
  340.16306 12.0 12
  340.17465 15.0 15
  341.12543 41.0 41
  341.14395 33.0 33
  341.15408 12.0 12
  341.17999 76.0 76
  341.62067 8.0 8
  342.11841 16.0 16
  342.14636 374.0 374
  342.1853 26.0 26
  342.32767 6.0 6
  343.11853 46.0 46
  343.14102 48.0 48
  343.15091 125.0 125
  343.35736 6.0 6
  344.06937 6.0 6
  344.13138 132.0 132
  344.15289 25.0 25
  345.13004 88.0 88
  345.1409 25.0 25
  345.17245 6.0 6
  346.11929 15.0 15
  346.14285 418.0 418
  346.61478 8.0 8
  346.71719 6.0 6
  347.14066 107.0 107
  347.15952 17.0 17
  348.15546 18.0 18
  348.16714 7.0 7
  351.12442 8.0 8
  352.15317 29.0 29
  352.17188 33.0 33
  353.12967 81.0 81
  353.14566 61.0 61
  353.17673 596.0 595
  354.10052 14.0 14
  354.14545 99.0 99
  354.17413 109.0 109
  354.18756 56.0 56
  354.2276 7.0 7
  355.15204 97.0 97
  355.16989 32.0 32
  355.19403 15.0 15
  356.12518 7.0 7
  356.15955 18.0 18
  356.17816 7.0 7
  357.12216 12.0 12
  357.13983 13.0 13
  357.15421 13.0 13
  357.16821 9.0 9
  357.19067 6.0 6
  358.14606 75.0 75
  358.17746 19.0 19
  358.19382 12.0 12
  358.2753 7.0 7
  359.1434 31.0 31
  359.16959 12.0 12
  360.15549 21.0 21
  363.34998 6.0 6
  365.94052 7.0 7
  367.14151 13.0 13
  367.19446 7.0 7
  368.13202 7.0 7
  368.1561 20.0 20
  369.13898 8.0 8
  369.1713 1000.0 999
  370.11765 9.0 9
  370.15253 35.0 35
  370.17685 251.0 251
  371.14679 24.0 24
  371.17108 43.0 43
  371.2074 9.0 9
  372.14728 9.0 9
  372.1626 35.0 35
  373.16821 25.0 25
  374.16312 13.0 13
  374.1803 22.0 22
  376.62347 13.0 13
  376.97208 6.0 6
  383.18237 7.0 7
  383.19852 8.0 8
  384.12021 6.0 6
  384.15631 17.0 17
  384.19614 745.0 744
  385.14481 18.0 18
  385.16556 91.0 91
  385.19656 207.0 207
  385.98767 6.0 6
  386.12808 6.0 6
  386.15753 12.0 12
  386.1778 83.0 83
  386.19308 32.0 32
  386.20746 14.0 14
  387.15851 6.0 6
  387.17245 13.0 13
  388.18558 6.0 6
  389.21057 7.0 7
  392.62515 6.0 6
  399.1723 8.0 8
  400.18347 76.0 76
  400.19937 53.0 53
  401.16876 7.0 7
  401.18665 13.0 13
  401.20255 14.0 14
  401.9407 6.0 6
  402.17993 14.0 14
  402.20148 16.0 16
  405.10596 6.0 6
  415.16763 7.0 7
  415.18863 12.0 12
  415.21069 26.0 26
  415.23703 11.0 11
  416.21747 6.0 6
  417.20831 8.0 8
  417.23303 8.0 8
//
