ACCESSION: MSBNK-RIKEN-PR300194
RECORD_TITLE: Kopsinine; LC-ESI-QTOF; MS2
DATE: 2019.03.28
AUTHORS: Tetsuya Mori, Center for Sustainable Resource Science, RIKEN
LICENSE: CC BY-NC-SA
PUBLICATION: Tsugawa H., Nakabayashi R., Mori T., Yamada Y., Takahashi M., Rai A., Sugiyama R., Yamamoto H., Nakaya T., Yamazaki M., Kooke R., Bac-Molenaar JA., Oztolan-Erol N., Keurentjes JJB., Arita M., Saito K. (2019) "A cheminformatics approach to characterize metabolomes in stable-isotope-labeled organisms" Nature Methods 16(4):295-298. [doi:10.1038/s41592-019-0358-2]
COMMENT: registered in RIKEN PlaSMA
CH$NAME: Kopsinine
CH$COMPOUND_CLASS: Aspidofractine alkaloids
CH$FORMULA: C21H26N2O2
CH$EXACT_MASS: 338.451
CH$SMILES: COC(=O)[C@@H]1C[C@]23CCCN4CC[C@]5(C24)C2=CC=CC=C2N[C@]15CC3
CH$IUPAC: InChI=1S/C21H26N2O2/c1-25-17(24)15-13-19-7-4-11-23-12-10-20(18(19)23)14-5-2-3-6-16(14)22-21(15,20)9-8-19/h2-3,5-6,15,18,22H,4,7-13H2,1H3/t15-,18?,19+,20+,21+/m0/s1
CH$LINK: INCHIKEY IYLRRIUNGGQRTN-GKCDKPGPSA-N
AC$INSTRUMENT: LC, Waters Acquity UPLC System; MS, Waters Xevo G2 Q-Tof
AC$INSTRUMENT_TYPE: LC-ESI-QTOF
AC$MASS_SPECTROMETRY: MS_TYPE MS2
AC$MASS_SPECTROMETRY: ION_MODE POSITIVE
AC$MASS_SPECTROMETRY: COLLISION_ENERGY 6V
AC$MASS_SPECTROMETRY: DESOLVATION_GAS_FLOW 800/h
AC$MASS_SPECTROMETRY: DESOLVATION_TEMPERATURE 450 C
AC$MASS_SPECTROMETRY: IONIZATION ESI
AC$CHROMATOGRAPHY: CAPILLARY_VOLTAGE +3.00 kV
AC$CHROMATOGRAPHY: COLUMN_NAME Acquity bridged ethyl hybrid C18 (1.7 um, 2.1 mm * 100 mm, Waters)
AC$CHROMATOGRAPHY: COLUMN_TEMPERATURE 40 C
AC$CHROMATOGRAPHY: FLOW_GRADIENT A/B = (99.5%/0.5% at 0 min, 99.5%/0.5% at 0.1 min, 20%/80% at 10 min, 0.5%/99.5% at 10.1 min, 0.5%/99.5% at 12.0 min, 99.5%/0.5% at 12.1 min, 99.5%/0.5% at 15.0 min)
AC$CHROMATOGRAPHY: FLOW_RATE 0.3 ml/min at 0 min, 0.3 ml/min at 10 min, 0.4 ml/min at 10.1 min, 0.4 ml/min at 14.4 min, 0.3 ml/min at 14.5 min
AC$CHROMATOGRAPHY: RETENTION_TIME 3.923133
AC$CHROMATOGRAPHY: SOLVENT A water including 0.1% formic acid
AC$CHROMATOGRAPHY: SOLVENT B acetonitrile including 0.1% formic acid
MS$FOCUSED_ION: PRECURSOR_TYPE [M+H]+
MS$FOCUSED_ION: PRECURSOR_M/Z 339.2067045
PK$SPLASH: splash10-000t-0930000000-537e641cc97e421fd636
PK$NUM_PEAK: 333
PK$PEAK: m/z int. rel.int.
  55.05672 16.0 16
  67.05748 24.0 24
  69.06694 17.0 17
  70.06382 40.0 40
  70.06883 14.0 14
  77.03903 16.0 16
  79.04548 10.0 10
  79.04907 21.0 21
  79.05582 38.0 38
  81.06709 8.0 8
  82.06545 15.0 15
  82.0734 12.0 12
  87.04537 173.0 173
  91.05245 19.0 19
  93.06551 31.0 31
  93.07308 9.0 9
  94.05501 9.0 9
  94.06469 19.0 19
  96.06386 11.0 11
  96.0757 33.0 33
  96.08018 124.0 124
  97.08371 11.0 11
  103.04525 8.0 8
  103.05441 9.0 9
  105.0667 12.0 12
  106.82209 8.0 8
  107.07185 14.0 14
  108.07092 10.0 10
  108.07816 24.0 24
  108.08414 10.0 10
  109.09003 8.0 8
  109.11618 24.0 24
  109.82719 9.0 9
  110.09677 152.0 152
  110.10439 32.0 32
  110.63988 8.0 8
  111.10289 10.0 10
  115.04952 26.0 26
  115.0605 48.0 48
  115.20538 15.0 15
  116.03691 20.0 20
  116.05206 15.0 15
  117.05094 14.0 14
  117.0576 10.0 10
  117.07206 46.0 46
  118.0605 12.0 12
  118.06635 15.0 15
  119.05186 23.0 23
  120.0774 20.0 20
  121.08755 14.0 14
  122.08241 15.0 15
  122.0966 37.0 37
  124.10542 13.0 13
  125.09933 20.0 20
  127.05647 36.0 36
  127.06196 10.0 10
  128.03426 16.0 16
  128.04448 15.0 15
  128.06017 12.0 12
  128.06697 35.0 35
  129.04913 11.0 11
  129.05928 19.0 19
  129.07028 59.0 59
  130.03786 11.0 11
  130.06541 406.0 406
  130.35286 8.0 8
  130.99384 11.0 11
  131.0723 18.0 18
  132.07811 10.0 10
  132.13211 11.0 11
  134.08679 10.0 10
  134.09703 93.0 93
  135.07921 14.0 14
  136.07362 10.0 10
  136.08698 9.0 9
  136.0941 9.0 9
  139.05196 11.0 11
  140.05412 18.0 18
  140.06093 12.0 12
  142.06514 242.0 242
  142.89665 9.0 9
  143.07153 70.0 70
  143.07948 68.0 68
  144.06111 11.0 11
  144.07025 19.0 19
  144.08174 133.0 133
  144.09346 14.0 14
  144.29216 11.0 11
  145.0735 9.0 9
  145.08946 12.0 12
  146.06845 9.0 9
  146.09315 9.0 9
  148.06291 13.0 13
  148.07716 12.0 12
  150.08038 15.0 15
  150.09274 13.0 13
  150.1037 12.0 12
  151.05333 16.0 16
  152.11041 12.0 12
  153.05037 24.0 24
  154.04259 28.0 28
  154.06601 258.0 258
  155.06169 39.0 39
  155.07529 64.0 64
  156.0488 40.0 40
  156.07727 89.0 89
  156.0887 11.0 11
  156.47993 8.0 8
  157.0732 32.0 32
  157.08673 68.0 68
  157.09738 33.0 33
  158.09132 29.0 29
  159.16116 8.0 8
  160.07162 17.0 17
  160.08609 33.0 33
  161.08449 11.0 11
  162.08992 33.0 33
  163.05713 9.0 9
  163.18518 16.0 16
  163.23085 9.0 9
  165.07297 43.0 43
  165.08565 12.0 12
  166.0609 21.0 21
  166.07791 23.0 23
  167.05084 12.0 12
  167.06715 149.0 149
  167.07471 303.0 303
  168.05936 18.0 18
  168.08191 518.0 517
  168.69141 11.0 11
  169.07471 19.0 19
  169.08344 65.0 65
  169.51596 11.0 11
  170.05284 61.0 61
  170.06671 16.0 16
  170.08015 27.0 27
  170.09654 282.0 282
  171.06218 14.0 14
  171.08875 12.0 12
  171.10278 55.0 55
  171.16335 21.0 21
  171.23549 8.0 8
  171.2576 8.0 8
  172.08 32.0 32
  172.08621 8.0 8
  172.11389 13.0 13
  174.0885 14.0 14
  175.91617 10.0 10
  176.06195 8.0 8
  178.05991 9.0 9
  178.07407 33.0 33
  179.07907 93.0 93
  180.03806 16.0 16
  180.05783 10.0 10
  180.08359 598.0 597
  180.09612 51.0 51
  181.06281 20.0 20
  181.06972 16.0 16
  181.09047 155.0 155
  182.05222 16.0 16
  182.0676 11.0 11
  182.08437 74.0 74
  182.09425 137.0 137
  182.10327 76.0 76
  183.06975 30.0 30
  183.09706 126.0 126
  183.1069 26.0 26
  184.09868 11.0 11
  184.10837 34.0 34
  184.17868 9.0 9
  185.10074 18.0 18
  186.09448 36.0 36
  188.66225 8.0 8
  189.07608 21.0 21
  190.07208 8.0 8
  191.07516 45.0 45
  192.08105 61.0 61
  193.08234 97.0 97
  193.09248 163.0 163
  193.10559 10.0 10
  193.1259 10.0 10
  194.07613 12.0 12
  194.09601 252.0 252
  195.06638 11.0 11
  195.07526 12.0 12
  195.10088 277.0 277
  196.0943 68.0 68
  196.11531 526.0 525
  196.13191 13.0 13
  196.73967 14.0 14
  197.03941 9.0 9
  197.07324 8.0 8
  197.10776 1000.0 999
  197.12433 27.0 27
  198.10281 42.0 42
  198.11371 163.0 163
  198.12828 14.0 14
  201.90874 11.0 11
  202.07329 17.0 17
  202.0813 74.0 74
  202.94475 10.0 10
  203.26736 15.0 15
  204.06075 15.0 15
  204.07599 27.0 27
  204.08801 43.0 43
  205.07671 15.0 15
  205.08722 45.0 45
  205.09514 14.0 14
  205.34023 11.0 11
  206.07675 12.0 12
  206.09557 109.0 109
  206.11308 9.0 9
  207.06317 19.0 19
  207.07491 12.0 12
  207.09859 56.0 56
  207.10631 65.0 65
  207.12077 32.0 32
  208.0538 11.0 11
  208.06509 11.0 11
  208.07741 43.0 43
  208.09888 118.0 118
  208.10887 136.0 136
  208.11772 134.0 134
  209.06696 11.0 11
  209.07634 9.0 9
  209.08727 12.0 12
  209.11237 213.0 213
  209.61234 8.0 8
  209.8797 8.0 8
  210.08022 14.0 14
  210.10486 57.0 57
  210.11804 141.0 141
  210.12959 63.0 63
  211.09602 11.0 11
  211.12268 18.0 18
  214.09465 11.0 11
  216.06955 11.0 11
  217.08978 8.0 8
  217.09915 10.0 10
  218.07553 11.0 11
  218.09297 102.0 102
  218.1214 8.0 8
  219.08281 9.0 9
  219.0937 32.0 32
  219.10857 21.0 21
  219.1223 28.0 28
  220.04704 15.0 15
  220.07715 21.0 21
  220.11649 101.0 101
  221.05148 8.0 8
  221.09431 9.0 9
  221.10851 71.0 71
  221.12163 51.0 51
  221.14188 8.0 8
  222.08723 9.0 9
  222.11702 49.0 49
  222.12662 17.0 17
  223.12013 209.0 209
  224.10803 10.0 10
  224.12929 36.0 36
  224.14149 32.0 32
  225.00583 8.0 8
  225.11589 9.0 9
  225.13333 103.0 103
  225.14224 324.0 324
  226.10933 11.0 11
  226.13683 56.0 56
  227.14069 11.0 11
  228.09161 10.0 10
  228.10133 11.0 11
  229.35791 10.0 10
  230.10483 8.0 8
  231.11168 10.0 10
  232.09061 11.0 11
  232.10994 21.0 21
  232.41382 8.0 8
  233.1035 12.0 12
  233.11949 31.0 31
  233.12953 24.0 24
  234.08298 9.0 9
  234.118 19.0 19
  234.13338 58.0 58
  234.15915 12.0 12
  235.11482 50.0 50
  235.12613 94.0 94
  235.69998 8.0 8
  236.09911 12.0 12
  236.12421 39.0 39
  236.13322 49.0 49
  236.15134 17.0 17
  237.14653 21.0 21
  237.61871 10.0 10
  238.0896 32.0 32
  238.13152 21.0 21
  238.14507 21.0 21
  238.1781 11.0 11
  238.41573 8.0 8
  245.08101 11.0 11
  246.08707 9.0 9
  246.11668 14.0 14
  247.13388 10.0 10
  248.12421 21.0 21
  248.14175 39.0 39
  249.10243 25.0 25
  249.11768 8.0 8
  249.12836 18.0 18
  250.11314 28.0 28
  250.12761 14.0 14
  251.15288 14.0 14
  251.16061 26.0 26
  255.84845 26.0 26
  260.14359 12.0 12
  261.10892 8.0 8
  262.13858 13.0 13
  263.11453 13.0 13
  263.12973 8.0 8
  263.15329 10.0 10
  264.13358 13.0 13
  265.13535 10.0 10
  266.72455 8.0 8
  277.17285 11.0 11
  278.15082 15.0 15
  279.14127 32.0 32
  279.15002 9.0 9
  280.19006 14.0 14
  282.15811 15.0 15
  308.1553 9.0 9
  308.18381 12.0 12
  311.14185 9.0 9
  323.16708 9.0 9
  339.186 11.0 11
  339.20398 67.0 67
  339.22131 28.0 28
//
