ACCESSION: MSBNK-RIKEN-PR310903
RECORD_TITLE: Flavonol base + 2MeO; LC-ESI-QTOF; MS2
DATE: 2019.03.28
AUTHORS: Tetsuya Mori, Center for Sustainable Resource Science, RIKEN
LICENSE: CC BY-NC-SA
PUBLICATION: Tsugawa H., Nakabayashi R., Mori T., Yamada Y., Takahashi M., Rai A., Sugiyama R., Yamamoto H., Nakaya T., Yamazaki M., Kooke R., Bac-Molenaar JA., Oztolan-Erol N., Keurentjes JJB., Arita M., Saito K. (2019) "A cheminformatics approach to characterize metabolomes in stable-isotope-labeled organisms" Nature Methods 16(4):295-298. [doi:10.1038/s41592-019-0358-2]
COMMENT: Annotation level-2
CH$NAME: Flavonol base + 2MeO
CH$COMPOUND_CLASS: Flavonol O-glycosides
CH$FORMULA: C17H14O5
CH$EXACT_MASS: 298.294
CH$SMILES: O=C1C(O)=C(OC2=CC(OC)=CC=C12)C=3C=CC=C(OC)C=3
CH$IUPAC: InChI=1S/C17H14O5/c1-20-11-5-3-4-10(8-11)17-16(19)15(18)13-7-6-12(21-2)9-14(13)22-17/h3-9,19H,1-2H3
CH$LINK: INCHIKEY PFMGWOVPHHEHAL-UHFFFAOYSA-N
AC$INSTRUMENT: LC, Waters Acquity UPLC System; MS, Waters Xevo G2 Q-Tof
AC$INSTRUMENT_TYPE: LC-ESI-QTOF
AC$MASS_SPECTROMETRY: MS_TYPE MS2
AC$MASS_SPECTROMETRY: ION_MODE POSITIVE
AC$MASS_SPECTROMETRY: COLLISION_ENERGY 6V
AC$MASS_SPECTROMETRY: DESOLVATION_GAS_FLOW 800/h
AC$MASS_SPECTROMETRY: DESOLVATION_TEMPERATURE 450 C
AC$MASS_SPECTROMETRY: IONIZATION ESI
AC$CHROMATOGRAPHY: CAPILLARY_VOLTAGE +3.00 kV
AC$CHROMATOGRAPHY: COLUMN_NAME Acquity bridged ethyl hybrid C18 (1.7 um, 2.1 mm * 100 mm, Waters)
AC$CHROMATOGRAPHY: COLUMN_TEMPERATURE 40 C
AC$CHROMATOGRAPHY: FLOW_GRADIENT A/B = (99.5%/0.5% at 0 min, 99.5%/0.5% at 0.1 min, 20%/80% at 10 min, 0.5%/99.5% at 10.1 min, 0.5%/99.5% at 12.0 min, 99.5%/0.5% at 12.1 min, 99.5%/0.5% at 15.0 min)
AC$CHROMATOGRAPHY: FLOW_RATE 0.3 ml/min at 0 min, 0.3 ml/min at 10 min, 0.4 ml/min at 10.1 min, 0.4 ml/min at 14.4 min, 0.3 ml/min at 14.5 min
AC$CHROMATOGRAPHY: RETENTION_TIME 6.75
AC$CHROMATOGRAPHY: SOLVENT A water including 0.1% formic acid
AC$CHROMATOGRAPHY: SOLVENT B acetonitrile including 0.1% formic acid
MS$FOCUSED_ION: PRECURSOR_TYPE [M+H]+
MS$FOCUSED_ION: PRECURSOR_M/Z 299.0928
PK$SPLASH: splash10-0002-0190000000-25841a23251f342f50d5
PK$NUM_PEAK: 218
PK$PEAK: m/z int. rel.int.
  51.27713 17.0 1
  79.05212 18.0 1
  92.0249 21.0 1
  95.01695 20.0 1
  96.01682 19.0 1
  102.04934 39.0 2
  105.06916 20.0 1
  107.03919 20.0 1
  107.04607 51.0 3
  108.01543 24.0 1
  108.05009 18.0 1
  109.05584 19.0 1
  113.75072 20.0 1
  115.05079 20.0 1
  118.03815 27.0 1
  119.04681 17.0 1
  119.61227 19.0 1
  120.05581 17.0 1
  121.06264 20.0 1
  122.03696 21.0 1
  123.00503 43.0 2
  124.01402 105.0 5
  127.97777 21.0 1
  128.06903 49.0 2
  129.06633 19.0 1
  131.05345 26.0 1
  132.05496 77.0 4
  132.06006 236.0 12
  133.03143 21.0 1
  133.06018 71.0 4
  133.06741 80.0 4
  134.07285 33.0 2
  135.04018 71.0 4
  135.05128 25.0 1
  137.05663 39.0 2
  140.05905 23.0 1
  141.07315 22.0 1
  141.08531 31.0 2
  145.05646 26.0 1
  145.06952 23.0 1
  149.02029 38.0 2
  150.01219 20.0 1
  150.99791 41.0 2
  151.00485 102.0 5
  151.03537 17.0 1
  151.05815 20.0 1
  152.01393 55.0 3
  153.07668 38.0 2
  155.04886 20.0 1
  155.21008 18.0 1
  156.00197 17.0 1
  156.06099 20.0 1
  157.05266 22.0 1
  157.06451 75.0 4
  163.04266 25.0 1
  163.95587 29.0 1
  164.03752 20.0 1
  165.07964 20.0 1
  166.02563 451.0 23
  166.03822 34.0 2
  166.07358 28.0 1
  166.29169 18.0 1
  167.01237 20.0 1
  167.03055 38.0 2
  167.04015 28.0 1
  167.05354 21.0 1
  168.05676 253.0 13
  168.49509 17.0 1
  169.0403 23.0 1
  169.05359 21.0 1
  169.07547 18.0 1
  170.07155 17.0 1
  170.66336 35.0 2
  171.05234 51.0 3
  171.08762 18.0 1
  172.05719 29.0 1
  172.08983 68.0 3
  172.73178 17.0 1
  173.10039 17.0 1
  174.0708 23.0 1
  174.08447 35.0 2
  175.04311 53.0 3
  176.0405 36.0 2
  176.04976 72.0 4
  180.06166 42.0 2
  181.07552 26.0 1
  182.04909 28.0 1
  182.07027 177.0 9
  182.08501 26.0 1
  182.24234 17.0 1
  183.07857 185.0 9
  183.08817 61.0 3
  184.08127 17.0 1
  185.04968 28.0 1
  185.05888 121.0 6
  185.07382 33.0 2
  186.04652 17.0 1
  186.07016 37.0 2
  187.05927 29.0 1
  187.06947 22.0 1
  188.0726 17.0 1
  190.05614 24.0 1
  191.94528 26.0 1
  193.05785 41.0 2
  194.05498 18.0 1
  195.04796 105.0 5
  195.05826 29.0 1
  196.04678 18.0 1
  196.05722 69.0 3
  197.04819 58.0 3
  197.05577 143.0 7
  197.09599 18.0 1
  197.10748 18.0 1
  197.21257 18.0 1
  198.06473 99.0 5
  199.03702 18.0 1
  199.0457 37.0 2
  199.07748 167.0 8
  200.08081 39.0 2
  208.04976 53.0 3
  208.21774 19.0 1
  209.86876 17.0 1
  210.06136 61.0 3
  210.07768 100.0 5
  211.06532 60.0 3
  211.07845 375.0 19
  212.04475 88.0 4
  212.056 27.0 1
  212.07893 112.0 6
  212.08655 75.0 4
  212.3035 27.0 1
  213.05112 167.0 8
  213.061 232.0 12
  213.08553 44.0 2
  214.05386 38.0 2
  214.06628 18.0 1
  214.11819 25.0 1
  216.99745 21.0 1
  219.90726 23.0 1
  224.04575 18.0 1
  225.05064 36.0 2
  225.06297 19.0 1
  226.05003 28.0 1
  226.06567 36.0 2
  227.06914 424.0 21
  227.09349 23.0 1
  227.89592 17.0 1
  228.05583 21.0 1
  228.06836 89.0 4
  228.07555 178.0 9
  228.08847 17.0 1
  229.08701 17.0 1
  230.06271 18.0 1
  230.47429 18.0 1
  238.06618 41.0 2
  238.89943 17.0 1
  239.06918 356.0 18
  239.07892 156.0 8
  239.40273 24.0 1
  239.47498 23.0 1
  240.04929 40.0 2
  240.06676 55.0 3
  240.07823 210.0 11
  241.03371 35.0 2
  241.05046 155.0 8
  241.06052 80.0 4
  241.08028 19.0 1
  242.03619 24.0 1
  242.04967 35.0 2
  243.06067 17.0 1
  243.10371 668.0 34
  243.95464 19.0 1
  244.10992 39.0 2
  246.76416 20.0 1
  250.06107 21.0 1
  252.02251 18.0 1
  252.04602 24.0 1
  253.09119 46.0 2
  254.05443 35.0 2
  255.06149 249.0 13
  255.08136 31.0 2
  256.05508 85.0 4
  256.07376 1278.0 65
  256.09357 61.0 3
  257.07504 289.0 15
  263.3223 17.0 1
  266.06555 19.0 1
  267.0018 21.0 1
  267.04471 25.0 1
  267.06857 312.0 16
  267.08774 20.0 1
  268.05389 35.0 2
  268.06592 58.0 3
  268.07941 18.0 1
  268.5007 21.0 1
  269.03259 20.0 1
  281.07782 32.0 2
  283.0563 213.0 11
  283.06671 185.0 9
  283.45346 17.0 1
  283.9798 18.0 1
  284.01172 17.0 1
  284.06857 2398.0 121
  284.89886 19.0 1
  285.03827 22.0 1
  285.07675 498.0 25
  285.09058 91.0 5
  286.06873 63.0 3
  287.07672 25.0 1
  287.08841 30.0 2
  293.36673 18.0 1
  298.08292 21.0 1
  299.00851 26.0 1
  299.03732 94.0 5
  299.06284 43.0 2
  299.09265 19768.0 999
  299.14169 181.0 9
  299.29138 18.0 1
//
