ACCESSION: MSBNK-RIKEN-PR306475
RECORD_TITLE: Kaempferol-4'-methyl ether; LC-ESI-QTOF; MS2
DATE: 2019.03.28
AUTHORS: Tetsuya Mori, Center for Sustainable Resource Science, RIKEN
LICENSE: CC BY-NC-SA
PUBLICATION: Tsugawa H., Nakabayashi R., Mori T., Yamada Y., Takahashi M., Rai A., Sugiyama R., Yamamoto H., Nakaya T., Yamazaki M., Kooke R., Bac-Molenaar JA., Oztolan-Erol N., Keurentjes JJB., Arita M., Saito K. (2019) "A cheminformatics approach to characterize metabolomes in stable-isotope-labeled organisms" Nature Methods 16(4):295-298. [doi:10.1038/s41592-019-0358-2]
COMMENT: registered in RIKEN PlaSMA
CH$NAME: Kaempferol-4'-methyl ether
CH$COMPOUND_CLASS: Flavonols
CH$FORMULA: C16H12O6
CH$EXACT_MASS: 300.266
CH$SMILES: COC1=CC=C(C=C1)C1=C(O)C(=O)C2=C(O)C=C(O)C=C2O1
CH$IUPAC: InChI=1S/C16H12O6/c1-21-10-4-2-8(3-5-10)16-15(20)14(19)13-11(18)6-9(17)7-12(13)22-16/h2-7,17-18,20H,1H3
CH$LINK: INCHIKEY SQFSKOYWJBQGKQ-UHFFFAOYSA-N
AC$INSTRUMENT: LC, Waters Acquity UPLC System; MS, Waters Xevo G2 Q-Tof
AC$INSTRUMENT_TYPE: LC-ESI-QTOF
AC$MASS_SPECTROMETRY: MS_TYPE MS2
AC$MASS_SPECTROMETRY: ION_MODE NEGATIVE
AC$MASS_SPECTROMETRY: COLLISION_ENERGY 6V
AC$MASS_SPECTROMETRY: DESOLVATION_GAS_FLOW 800/h
AC$MASS_SPECTROMETRY: DESOLVATION_TEMPERATURE 450 C
AC$MASS_SPECTROMETRY: IONIZATION ESI
AC$CHROMATOGRAPHY: CAPILLARY_VOLTAGE -2.75 kV
AC$CHROMATOGRAPHY: COLUMN_NAME Acquity bridged ethyl hybrid C18 (1.7 um, 2.1 mm * 100 mm, Waters)
AC$CHROMATOGRAPHY: COLUMN_TEMPERATURE 40 C
AC$CHROMATOGRAPHY: FLOW_GRADIENT A/B = (99.5%/0.5% at 0 min, 99.5%/0.5% at 0.1 min, 20%/80% at 10 min, 0.5%/99.5% at 10.1 min, 0.5%/99.5% at 12.0 min, 99.5%/0.5% at 12.1 min, 99.5%/0.5% at 15.0 min)
AC$CHROMATOGRAPHY: FLOW_RATE 0.3 ml/min at 0 min, 0.3 ml/min at 10 min, 0.4 ml/min at 10.1 min, 0.4 ml/min at 14.4 min, 0.3 ml/min at 14.5 min
AC$CHROMATOGRAPHY: RETENTION_TIME 7.54755
AC$CHROMATOGRAPHY: SOLVENT A water including 0.1% formic acid
AC$CHROMATOGRAPHY: SOLVENT B acetonitrile including 0.1% formic acid
MS$FOCUSED_ION: PRECURSOR_TYPE [M-H]-
MS$FOCUSED_ION: PRECURSOR_M/Z 299.05611164783
PK$SPLASH: splash10-000t-0290000000-de417a21cfdf76c3b226
PK$NUM_PEAK: 38
PK$PEAK: m/z int. rel.int.
  63.01997 7.0 7
  83.01388 16.0 16
  95.01207 10.0 10
  104.02422 9.0 9
  107.01299 50.0 50
  108.01848 23.0 23
  120.01951 11.0 11
  121.99676 10.0 10
  132.0161 11.0 11
  132.02188 31.0 31
  135.00366 12.0 12
  136.00984 8.0 8
  136.01801 6.0 6
  149.98572 7.0 7
  149.99461 13.0 13
  151.00111 220.0 220
  152.00439 21.0 21
  163.00072 46.0 46
  164.00436 16.0 16
  164.0148 24.0 24
  165.01117 6.0 6
  190.99519 6.0 6
  199.03424 7.0 7
  200.04117 16.0 16
  211.03563 16.0 16
  212.04953 7.0 7
  225.02049 6.0 6
  227.03616 29.0 29
  228.03122 20.0 20
  255.02498 37.0 37
  256.02246 5.0 5
  283.01703 6.0 6
  284.02939 885.0 884
  285.03409 187.0 187
  286.02365 13.0 13
  286.03809 20.0 20
  298.05249 6.0 6
  299.05246 1000.0 999
//
