ACCESSION: MSBNK-RIKEN-PR301150
RECORD_TITLE: Hetisine; LC-ESI-QTOF; MS2
DATE: 2019.03.28
AUTHORS: Tetsuya Mori, Center for Sustainable Resource Science, RIKEN
LICENSE: CC BY-NC-SA
PUBLICATION: Tsugawa H., Nakabayashi R., Mori T., Yamada Y., Takahashi M., Rai A., Sugiyama R., Yamamoto H., Nakaya T., Yamazaki M., Kooke R., Bac-Molenaar JA., Oztolan-Erol N., Keurentjes JJB., Arita M., Saito K. (2019) "A cheminformatics approach to characterize metabolomes in stable-isotope-labeled organisms" Nature Methods 16(4):295-298. [doi:10.1038/s41592-019-0358-2]
COMMENT: registered in RIKEN PlaSMA
CH$NAME: Hetisine
CH$COMPOUND_CLASS: Atisane diterpenoids
CH$FORMULA: C20H27NO3
CH$EXACT_MASS: 329.44
CH$SMILES: CC12CN3C4CC56CC(=C)C7C(O)C5C3C(CC(O)C1)(C24)C6C7O
CH$IUPAC: InChI=1S/C20H27NO3/c1-8-3-19-6-10-15-18(2)4-9(22)5-20(15)16(19)14(24)11(8)13(23)12(19)17(20)21(10)7-18/h9-17,22-24H,1,3-7H2,2H3
CH$LINK: INCHIKEY PIWJSAMCEMZIDO-UHFFFAOYSA-N
AC$INSTRUMENT: LC, Waters Acquity UPLC System; MS, Waters Xevo G2 Q-Tof
AC$INSTRUMENT_TYPE: LC-ESI-QTOF
AC$MASS_SPECTROMETRY: MS_TYPE MS2
AC$MASS_SPECTROMETRY: ION_MODE POSITIVE
AC$MASS_SPECTROMETRY: COLLISION_ENERGY 6V
AC$MASS_SPECTROMETRY: DESOLVATION_GAS_FLOW 800/h
AC$MASS_SPECTROMETRY: DESOLVATION_TEMPERATURE 450 C
AC$MASS_SPECTROMETRY: IONIZATION ESI
AC$CHROMATOGRAPHY: CAPILLARY_VOLTAGE +3.00 kV
AC$CHROMATOGRAPHY: COLUMN_NAME Acquity bridged ethyl hybrid C18 (1.7 um, 2.1 mm * 100 mm, Waters)
AC$CHROMATOGRAPHY: COLUMN_TEMPERATURE 40 C
AC$CHROMATOGRAPHY: FLOW_GRADIENT A/B = (99.5%/0.5% at 0 min, 99.5%/0.5% at 0.1 min, 20%/80% at 10 min, 0.5%/99.5% at 10.1 min, 0.5%/99.5% at 12.0 min, 99.5%/0.5% at 12.1 min, 99.5%/0.5% at 15.0 min)
AC$CHROMATOGRAPHY: FLOW_RATE 0.3 ml/min at 0 min, 0.3 ml/min at 10 min, 0.4 ml/min at 10.1 min, 0.4 ml/min at 14.4 min, 0.3 ml/min at 14.5 min
AC$CHROMATOGRAPHY: RETENTION_TIME 3.0671
AC$CHROMATOGRAPHY: SOLVENT A water including 0.1% formic acid
AC$CHROMATOGRAPHY: SOLVENT B acetonitrile including 0.1% formic acid
MS$FOCUSED_ION: PRECURSOR_TYPE [M+H]+
MS$FOCUSED_ION: PRECURSOR_M/Z 330.2063702
PK$SPLASH: splash10-001i-0922000000-4de9c22621ef5febf9e2
PK$NUM_PEAK: 362
PK$PEAK: m/z int. rel.int.
  58.03408 10.0 10
  67.05281 25.0 25
  69.03175 6.0 6
  70.06982 5.0 5
  71.05156 9.0 9
  71.05844 11.0 11
  77.03973 6.0 6
  79.04876 6.0 6
  79.05649 89.0 89
  80.05125 9.0 9
  81.06517 11.0 11
  81.07173 12.0 12
  82.06734 32.0 32
  84.08417 6.0 6
  91.05441 66.0 66
  91.05997 32.0 32
  92.5644 6.0 6
  93.03264 6.0 6
  93.05376 20.0 20
  93.07092 64.0 64
  94.06522 61.0 61
  94.07602 8.0 8
  94.08034 7.0 7
  95.04944 12.0 12
  95.08837 34.0 34
  96.08439 27.0 27
  101.65099 7.0 7
  102.68565 5.0 5
  103.05357 14.0 14
  105.06984 147.0 147
  105.07474 48.0 48
  105.08124 6.0 6
  106.06712 22.0 22
  106.07413 34.0 34
  107.03523 6.0 6
  107.04942 10.0 10
  107.07051 15.0 15
  107.07913 12.0 12
  107.09237 8.0 8
  108.08064 47.0 47
  108.08801 6.0 6
  108.59032 6.0 6
  109.0687 10.0 10
  110.07232 6.0 6
  115.05461 19.0 19
  115.06271 15.0 15
  116.06027 31.0 31
  117.05905 28.0 28
  117.06989 78.0 78
  117.07914 6.0 6
  118.0611 15.0 15
  118.06965 6.0 6
  118.07636 6.0 6
  119.06692 9.0 9
  119.07685 13.0 13
  119.08844 41.0 41
  120.07686 58.0 58
  120.08192 116.0 116
  121.04438 5.0 5
  121.06612 20.0 20
  121.08818 17.0 17
  121.10516 7.0 7
  122.08691 7.0 7
  122.09582 40.0 40
  122.10358 18.0 18
  123.10609 6.0 6
  124.08311 6.0 6
  127.05373 14.0 14
  128.03461 6.0 6
  128.05034 19.0 19
  128.06438 139.0 139
  128.07648 15.0 15
  129.07059 108.0 108
  130.06747 16.0 16
  130.07483 50.0 50
  130.69742 6.0 6
  131.06995 30.0 30
  131.07574 34.0 34
  131.08778 136.0 136
  132.07748 37.0 37
  132.0858 25.0 25
  132.10074 11.0 11
  133.06454 10.0 10
  133.08408 10.0 10
  133.09241 12.0 12
  133.10066 29.0 29
  134.07425 5.0 5
  134.09596 29.0 29
  135.06517 6.0 6
  135.08232 20.0 20
  135.93158 7.0 7
  136.07945 15.0 15
  136.11368 6.0 6
  138.08925 6.0 6
  139.101 5.0 5
  141.07225 88.0 88
  142.07924 124.0 124
  143.06979 9.0 9
  143.08394 170.0 170
  144.07915 52.0 52
  144.09148 21.0 21
  145.0641 27.0 27
  145.0856 11.0 11
  145.10239 115.0 115
  146.07132 7.0 7
  146.09174 32.0 32
  146.10088 18.0 18
  146.11578 7.0 7
  147.07147 6.0 6
  147.08337 20.0 20
  147.1187 8.0 8
  148.0863 6.0 6
  148.10954 32.0 32
  148.11862 11.0 11
  150.09479 6.0 6
  151.04474 6.0 6
  152.062 35.0 35
  153.04793 6.0 6
  153.05733 11.0 11
  153.07593 42.0 42
  153.98325 6.0 6
  154.06505 11.0 11
  154.07944 79.0 79
  155.0871 112.0 112
  156.08678 35.0 35
  156.0979 6.0 6
  157.08133 5.0 5
  157.09178 24.0 24
  157.10129 71.0 71
  158.09824 42.0 42
  158.90529 5.0 5
  159.07304 9.0 9
  159.09351 13.0 13
  159.10648 12.0 12
  159.1241 18.0 18
  160.08336 9.0 9
  160.10294 19.0 19
  160.94389 7.0 7
  161.11961 10.0 10
  162.08981 8.0 8
  162.10123 5.0 5
  162.13242 5.0 5
  164.07213 6.0 6
  165.05099 7.0 7
  165.07039 128.0 128
  166.0764 69.0 69
  166.08531 21.0 21
  167.06905 15.0 15
  167.08188 81.0 81
  167.09273 28.0 28
  167.87096 7.0 7
  168.07195 13.0 13
  168.09003 26.0 26
  168.1019 12.0 12
  169.07248 7.0 7
  169.08946 11.0 11
  169.09882 67.0 67
  169.10994 37.0 37
  170.08044 7.0 7
  170.10484 11.0 11
  171.08453 5.0 5
  171.1017 14.0 14
  171.11476 14.0 14
  171.12343 13.0 13
  172.07545 16.0 16
  172.0955 14.0 14
  172.11221 35.0 35
  172.12492 9.0 9
  173.07121 6.0 6
  173.08183 11.0 11
  173.10098 11.0 11
  173.114 7.0 7
  173.13911 8.0 8
  175.1261 6.0 6
  176.06195 9.0 9
  176.11029 16.0 16
  177.06595 6.0 6
  178.07547 42.0 42
  178.08586 16.0 16
  178.09047 7.0 7
  178.12581 7.0 7
  178.49854 8.0 8
  179.06654 6.0 6
  179.08632 141.0 141
  180.0535 5.0 5
  180.0854 32.0 32
  180.0974 18.0 18
  181.06001 11.0 11
  181.09639 60.0 60
  181.10484 85.0 85
  181.13123 8.0 8
  182.05743 7.0 7
  182.08441 6.0 6
  182.10109 54.0 54
  182.11525 9.0 9
  183.08257 7.0 7
  183.10295 24.0 24
  183.11301 35.0 35
  183.12187 23.0 23
  184.06606 5.0 5
  184.08597 27.0 27
  184.12062 32.0 32
  184.98817 11.0 11
  185.09683 11.0 11
  186.12819 7.0 7
  187.10072 5.0 5
  188.09491 11.0 11
  188.9964 6.0 6
  189.07893 11.0 11
  189.12581 6.0 6
  189.15022 6.0 6
  190.0643 11.0 11
  191.06865 5.0 5
  191.08707 73.0 73
  192.08536 49.0 49
  192.09569 41.0 41
  192.13939 6.0 6
  193.08156 24.0 24
  193.10172 132.0 132
  194.10364 43.0 43
  194.1138 27.0 27
  195.11459 95.0 95
  195.83669 6.0 6
  196.10608 29.0 29
  196.12215 19.0 19
  197.0916 15.0 15
  198.09456 5.0 5
  198.12389 17.0 17
  198.13245 9.0 9
  199.13643 15.0 15
  199.14642 10.0 10
  200.11723 16.0 16
  201.13092 12.0 12
  201.15417 9.0 9
  202.07291 15.0 15
  202.0809 8.0 8
  202.12534 7.0 7
  203.08295 22.0 22
  203.09157 16.0 16
  204.09346 30.0 30
  204.10974 7.0 7
  205.09843 36.0 36
  205.10699 19.0 19
  206.092 8.0 8
  206.10664 32.0 32
  206.11336 14.0 14
  207.08162 10.0 10
  207.09174 6.0 6
  207.10326 21.0 21
  207.12102 22.0 22
  208.08739 6.0 6
  208.11041 16.0 16
  208.11775 15.0 15
  208.12856 19.0 19
  209.08717 6.0 6
  209.09958 7.0 7
  209.12555 10.0 10
  209.13663 29.0 29
  210.11301 7.0 7
  210.12477 24.0 24
  210.13368 11.0 11
  211.11522 22.0 22
  211.13695 50.0 50
  211.15308 11.0 11
  212.85263 8.0 8
  213.1333 6.0 6
  214.12952 10.0 10
  215.08148 15.0 15
  215.09244 20.0 20
  215.10645 8.0 8
  215.13033 8.0 8
  216.09055 14.0 14
  217.10272 60.0 60
  218.10286 21.0 21
  218.11151 10.0 10
  219.10733 6.0 6
  219.1214 39.0 39
  220.09312 10.0 10
  220.11499 25.0 25
  220.12891 10.0 10
  221.10748 9.0 9
  221.13118 40.0 40
  222.1306 42.0 42
  222.14371 12.0 12
  223.11183 17.0 17
  223.13593 9.0 9
  223.15184 12.0 12
  224.12331 7.0 7
  224.14267 8.0 8
  224.15489 6.0 6
  225.12131 7.0 7
  225.14032 13.0 13
  225.16405 6.0 6
  228.13437 18.0 18
  229.09706 36.0 36
  230.09918 9.0 9
  230.10889 15.0 15
  232.08937 5.0 5
  232.10236 9.0 9
  232.12059 16.0 16
  232.13521 9.0 9
  232.87585 6.0 6
  233.13799 5.0 5
  234.12643 13.0 13
  235.12579 13.0 13
  236.09669 5.0 5
  236.14005 16.0 16
  236.15199 7.0 7
  237.12607 6.0 6
  237.162 19.0 19
  238.11211 5.0 5
  238.15791 56.0 56
  239.16473 7.0 7
  240.17126 6.0 6
  242.16968 17.0 17
  242.17957 6.0 6
  243.12402 8.0 8
  245.13895 5.0 5
  246.13329 15.0 15
  246.14532 6.0 6
  249.17439 6.0 6
  250.12752 8.0 8
  250.17096 5.0 5
  251.17865 11.0 11
  255.14656 6.0 6
  256.55286 7.0 7
  257.12598 7.0 7
  260.12915 6.0 6
  262.11731 5.0 5
  265.16809 6.0 6
  265.18417 9.0 9
  265.19693 6.0 6
  266.15677 11.0 11
  266.18762 10.0 10
  266.19479 28.0 28
  266.20959 7.0 7
  267.1904 12.0 12
  268.17834 5.0 5
  268.20682 6.0 6
  269.17981 9.0 9
  276.18079 5.0 5
  277.15872 7.0 7
  277.24377 7.0 7
  281.05899 6.0 6
  284.17368 21.0 21
  284.19943 9.0 9
  284.21451 7.0 7
  285.21594 5.0 5
  294.15475 5.0 5
  294.18384 19.0 19
  295.18787 22.0 22
  296.19806 10.0 10
  302.20334 5.0 5
  302.21423 7.0 7
  312.05756 8.0 8
  312.19092 37.0 37
  312.20065 104.0 104
  312.21973 25.0 25
  313.18658 8.0 8
  313.20782 23.0 23
  330.15253 11.0 11
  330.20776 1000.0 999
//
