ACCESSION: MSBNK-RIKEN-PR300220
RECORD_TITLE: Gardnutine; LC-ESI-QTOF; MS2
DATE: 2019.03.28
AUTHORS: Tetsuya Mori, Center for Sustainable Resource Science, RIKEN
LICENSE: CC BY-NC-SA
PUBLICATION: Tsugawa H., Nakabayashi R., Mori T., Yamada Y., Takahashi M., Rai A., Sugiyama R., Yamamoto H., Nakaya T., Yamazaki M., Kooke R., Bac-Molenaar JA., Oztolan-Erol N., Keurentjes JJB., Arita M., Saito K. (2019) "A cheminformatics approach to characterize metabolomes in stable-isotope-labeled organisms" Nature Methods 16(4):295-298. [doi:10.1038/s41592-019-0358-2]
COMMENT: registered in RIKEN PlaSMA
CH$NAME: Gardnutine
CH$COMPOUND_CLASS: Macroline alkaloids
CH$FORMULA: C20H22N2O2
CH$EXACT_MASS: 322.408
CH$SMILES: COC1=CC2=C(C=C1)C1=C(N2)[C@@H]2CC3C4CO[C@H]1[C@@H]4N2C\C3=C\C
CH$IUPAC: InChI=1S/C20H22N2O2/c1-3-10-8-22-16-7-13(10)14-9-24-20(19(14)22)17-12-5-4-11(23-2)6-15(12)21-18(16)17/h3-6,13-14,16,19-21H,7-9H2,1-2H3/b10-3-/t13?,14?,16-,19+,20+/m0/s1
CH$LINK: INCHIKEY XJTWLFBHBFSVRS-CRJBWSHOSA-N
AC$INSTRUMENT: LC, Waters Acquity UPLC System; MS, Waters Xevo G2 Q-Tof
AC$INSTRUMENT_TYPE: LC-ESI-QTOF
AC$MASS_SPECTROMETRY: MS_TYPE MS2
AC$MASS_SPECTROMETRY: ION_MODE POSITIVE
AC$MASS_SPECTROMETRY: COLLISION_ENERGY 6V
AC$MASS_SPECTROMETRY: DESOLVATION_GAS_FLOW 800/h
AC$MASS_SPECTROMETRY: DESOLVATION_TEMPERATURE 450 C
AC$MASS_SPECTROMETRY: IONIZATION ESI
AC$CHROMATOGRAPHY: CAPILLARY_VOLTAGE +3.00 kV
AC$CHROMATOGRAPHY: COLUMN_NAME Acquity bridged ethyl hybrid C18 (1.7 um, 2.1 mm * 100 mm, Waters)
AC$CHROMATOGRAPHY: COLUMN_TEMPERATURE 40 C
AC$CHROMATOGRAPHY: FLOW_GRADIENT A/B = (99.5%/0.5% at 0 min, 99.5%/0.5% at 0.1 min, 20%/80% at 10 min, 0.5%/99.5% at 10.1 min, 0.5%/99.5% at 12.0 min, 99.5%/0.5% at 12.1 min, 99.5%/0.5% at 15.0 min)
AC$CHROMATOGRAPHY: FLOW_RATE 0.3 ml/min at 0 min, 0.3 ml/min at 10 min, 0.4 ml/min at 10.1 min, 0.4 ml/min at 14.4 min, 0.3 ml/min at 14.5 min
AC$CHROMATOGRAPHY: RETENTION_TIME 4.419867
AC$CHROMATOGRAPHY: SOLVENT A water including 0.1% formic acid
AC$CHROMATOGRAPHY: SOLVENT B acetonitrile including 0.1% formic acid
MS$FOCUSED_ION: PRECURSOR_TYPE [M+H]+
MS$FOCUSED_ION: PRECURSOR_M/Z 323.1754044
PK$SPLASH: splash10-00di-0459000000-d9d17ada1abbb3db6a94
PK$NUM_PEAK: 52
PK$PEAK: m/z int. rel.int.
  93.05865 6.0 6
  93.07083 11.0 11
  94.06532 33.0 33
  108.07918 8.0 8
  120.08025 85.0 85
  121.0839 16.0 16
  122.09533 156.0 156
  123.0979 16.0 16
  134.09618 10.0 10
  147.06833 6.0 6
  148.07172 7.0 7
  148.11249 17.0 17
  150.09016 13.0 13
  158.06015 35.0 35
  159.06271 11.0 11
  160.07666 22.0 22
  173.08282 58.0 58
  174.08868 31.0 31
  186.08986 17.0 17
  187.09424 5.0 5
  188.07207 7.0 7
  188.10562 18.0 18
  202.08368 32.0 32
  203.08525 6.0 6
  209.08076 6.0 6
  210.09099 8.0 8
  212.10439 15.0 15
  224.104 18.0 18
  224.11392 12.0 12
  225.10898 5.0 5
  226.11853 9.0 9
  227.07964 8.0 8
  234.09383 5.0 5
  238.12047 13.0 13
  248.09904 6.0 6
  249.10114 14.0 14
  250.11568 9.0 9
  252.10086 15.0 15
  261.1431 7.0 7
  263.11749 7.0 7
  277.13376 23.0 23
  278.13321 12.0 12
  278.14584 13.0 13
  278.15521 7.0 7
  293.11993 6.0 6
  293.16293 277.0 277
  294.16718 70.0 70
  295.17624 16.0 16
  305.16821 9.0 9
  323.12134 13.0 13
  323.17444 1000.0 999
  323.22653 25.0 25
//
