ACCESSION: MSBNK-RIKEN-PR303524
RECORD_TITLE: Gentiopicroside; LC-ESI-QTOF; MS2
DATE: 2019.03.28
AUTHORS: Tetsuya Mori, Center for Sustainable Resource Science, RIKEN
LICENSE: CC BY-NC-SA
PUBLICATION: Tsugawa H., Nakabayashi R., Mori T., Yamada Y., Takahashi M., Rai A., Sugiyama R., Yamamoto H., Nakaya T., Yamazaki M., Kooke R., Bac-Molenaar JA., Oztolan-Erol N., Keurentjes JJB., Arita M., Saito K. (2019) "A cheminformatics approach to characterize metabolomes in stable-isotope-labeled organisms" Nature Methods 16(4):295-298. [doi:10.1038/s41592-019-0358-2]
COMMENT: registered in RIKEN PlaSMA
CH$NAME: Gentiopicroside
CH$COMPOUND_CLASS: O-glycosyl compounds
CH$FORMULA: C16H20O9
CH$EXACT_MASS: 356.327
CH$SMILES: OC[C@H]1O[C@@H](O[C@@H]2OC=C3C(=O)OCC=C3[C@H]2C=C)[C@H](O)[C@@H](O)[C@@H]1O
CH$IUPAC: InChI=1S/C16H20O9/c1-2-7-8-3-4-22-14(21)9(8)6-23-15(7)25-16-13(20)12(19)11(18)10(5-17)24-16/h2-3,6-7,10-13,15-20H,1,4-5H2/t7-,10-,11-,12+,13-,15+,16+/m1/s1
CH$LINK: INCHIKEY DUAGQYUORDTXOR-GPQRQXLASA-N
AC$INSTRUMENT: LC, Waters Acquity UPLC System; MS, Waters Xevo G2 Q-Tof
AC$INSTRUMENT_TYPE: LC-ESI-QTOF
AC$MASS_SPECTROMETRY: MS_TYPE MS2
AC$MASS_SPECTROMETRY: ION_MODE POSITIVE
AC$MASS_SPECTROMETRY: COLLISION_ENERGY 6V
AC$MASS_SPECTROMETRY: DESOLVATION_GAS_FLOW 800/h
AC$MASS_SPECTROMETRY: DESOLVATION_TEMPERATURE 450 C
AC$MASS_SPECTROMETRY: IONIZATION ESI
AC$CHROMATOGRAPHY: CAPILLARY_VOLTAGE +3.00 kV
AC$CHROMATOGRAPHY: COLUMN_NAME Acquity bridged ethyl hybrid C18 (1.7 um, 2.1 mm * 100 mm, Waters)
AC$CHROMATOGRAPHY: COLUMN_TEMPERATURE 40 C
AC$CHROMATOGRAPHY: FLOW_GRADIENT A/B = (99.5%/0.5% at 0 min, 99.5%/0.5% at 0.1 min, 20%/80% at 10 min, 0.5%/99.5% at 10.1 min, 0.5%/99.5% at 12.0 min, 99.5%/0.5% at 12.1 min, 99.5%/0.5% at 15.0 min)
AC$CHROMATOGRAPHY: FLOW_RATE 0.3 ml/min at 0 min, 0.3 ml/min at 10 min, 0.4 ml/min at 10.1 min, 0.4 ml/min at 14.4 min, 0.3 ml/min at 14.5 min
AC$CHROMATOGRAPHY: RETENTION_TIME 3.44245
AC$CHROMATOGRAPHY: SOLVENT A water including 0.1% formic acid
AC$CHROMATOGRAPHY: SOLVENT B acetonitrile including 0.1% formic acid
MS$FOCUSED_ION: PRECURSOR_TYPE [M+H]+
MS$FOCUSED_ION: PRECURSOR_M/Z 357.1180087
PK$SPLASH: splash10-0fbc-8900000000-95f958191bcb179af4b4
PK$NUM_PEAK: 21
PK$PEAK: m/z int. rel.int.
  69.03491 90.0 90
  77.03706 326.0 326
  77.04053 717.0 716
  79.04211 93.0 93
  79.05658 272.0 272
  83.01321 104.0 104
  91.05457 516.0 515
  93.06888 330.0 330
  97.02957 72.0 72
  102.03498 122.0 122
  103.05579 1000.0 999
  104.05411 72.0 72
  105.06647 97.0 97
  105.07085 269.0 269
  107.05081 154.0 154
  119.04643 86.0 86
  121.06345 247.0 247
  122.07301 111.0 111
  131.0488 416.0 416
  147.03798 108.0 108
  177.05635 108.0 108
//
