ACCESSION: MSBNK-RIKEN-PR300050
RECORD_TITLE: Gelsenicine; LC-ESI-QTOF; MS2
DATE: 2019.03.28
AUTHORS: Tetsuya Mori, Center for Sustainable Resource Science, RIKEN
LICENSE: CC BY-NC-SA
PUBLICATION: Tsugawa H., Nakabayashi R., Mori T., Yamada Y., Takahashi M., Rai A., Sugiyama R., Yamamoto H., Nakaya T., Yamazaki M., Kooke R., Bac-Molenaar JA., Oztolan-Erol N., Keurentjes JJB., Arita M., Saito K. (2019) "A cheminformatics approach to characterize metabolomes in stable-isotope-labeled organisms" Nature Methods 16(4):295-298. [doi:10.1038/s41592-019-0358-2]
COMMENT: registered in RIKEN PlaSMA
CH$NAME: Gelsenicine
CH$COMPOUND_CLASS: Indoles and derivatives
CH$FORMULA: C19H22N2O3
CH$EXACT_MASS: 326.396
CH$SMILES: CCC1=N[C@H]2C[C@]3([C@H]4C[C@@H]1[C@@H]2CO4)C(=O)N(OC)C1=CC=CC=C31
CH$IUPAC: InChI=1S/C19H22N2O3/c1-3-14-11-8-17-19(9-15(20-14)12(11)10-24-17)13-6-4-5-7-16(13)21(23-2)18(19)22/h4-7,11-12,15,17H,3,8-10H2,1-2H3/t11-,12+,15+,17-,19+/m1/s1
CH$LINK: INCHIKEY BIGABVPVCRHEES-NWPJSNQLSA-N
AC$INSTRUMENT: LC, Waters Acquity UPLC System; MS, Waters Xevo G2 Q-Tof
AC$INSTRUMENT_TYPE: LC-ESI-QTOF
AC$MASS_SPECTROMETRY: MS_TYPE MS2
AC$MASS_SPECTROMETRY: ION_MODE POSITIVE
AC$MASS_SPECTROMETRY: COLLISION_ENERGY 6V
AC$MASS_SPECTROMETRY: DESOLVATION_GAS_FLOW 800/h
AC$MASS_SPECTROMETRY: DESOLVATION_TEMPERATURE 450 C
AC$MASS_SPECTROMETRY: IONIZATION ESI
AC$CHROMATOGRAPHY: CAPILLARY_VOLTAGE +3.00 kV
AC$CHROMATOGRAPHY: COLUMN_NAME Acquity bridged ethyl hybrid C18 (1.7 um, 2.1 mm * 100 mm, Waters)
AC$CHROMATOGRAPHY: COLUMN_TEMPERATURE 40 C
AC$CHROMATOGRAPHY: FLOW_GRADIENT A/B = (99.5%/0.5% at 0 min, 99.5%/0.5% at 0.1 min, 20%/80% at 10 min, 0.5%/99.5% at 10.1 min, 0.5%/99.5% at 12.0 min, 99.5%/0.5% at 12.1 min, 99.5%/0.5% at 15.0 min)
AC$CHROMATOGRAPHY: FLOW_RATE 0.3 ml/min at 0 min, 0.3 ml/min at 10 min, 0.4 ml/min at 10.1 min, 0.4 ml/min at 14.4 min, 0.3 ml/min at 14.5 min
AC$CHROMATOGRAPHY: RETENTION_TIME 3.986933
AC$CHROMATOGRAPHY: SOLVENT A water including 0.1% formic acid
AC$CHROMATOGRAPHY: SOLVENT B acetonitrile including 0.1% formic acid
MS$FOCUSED_ION: PRECURSOR_TYPE [M+H]+
MS$FOCUSED_ION: PRECURSOR_M/Z 327.170319
PK$SPLASH: splash10-014j-0290000000-4229f35f0f3a3431eb57
PK$NUM_PEAK: 208
PK$PEAK: m/z int. rel.int.
  70.06531 10.0 10
  71.07258 92.0 92
  72.04684 6.0 6
  72.07722 11.0 11
  73.05014 16.0 16
  73.05699 9.0 9
  80.04993 27.0 27
  84.08017 21.0 21
  85.08066 6.0 6
  85.08931 30.0 30
  86.09503 5.0 5
  87.07114 8.0 8
  94.06779 15.0 15
  95.07278 46.0 46
  96.04342 10.0 10
  96.08141 38.0 38
  98.06264 8.0 8
  108.08096 255.0 255
  109.0871 83.0 83
  110.09621 30.0 30
  111.06784 29.0 29
  112.07627 5.0 5
  120.07941 11.0 11
  121.08484 10.0 10
  122.06007 44.0 44
  122.09567 20.0 20
  122.10289 11.0 11
  123.10343 14.0 14
  124.07655 7.0 7
  125.08273 16.0 16
  125.08816 5.0 5
  130.06177 7.0 7
  132.08052 7.0 7
  134.10136 5.0 5
  135.10564 11.0 11
  136.07426 6.0 6
  136.11183 33.0 33
  137.12029 9.0 9
  138.08945 28.0 28
  143.07286 71.0 71
  144.0708 9.0 9
  144.08087 31.0 31
  145.08583 7.0 7
  146.05641 6.0 6
  146.09306 14.0 14
  147.06729 6.0 6
  150.09215 14.0 14
  150.13101 14.0 14
  151.09935 14.0 14
  158.09563 6.0 6
  159.06819 12.0 12
  164.10858 13.0 13
  165.06255 11.0 11
  166.06459 9.0 9
  168.08218 16.0 16
  170.05844 23.0 23
  171.06502 11.0 11
  178.06853 8.0 8
  180.08473 22.0 22
  181.08496 6.0 6
  182.06271 12.0 12
  182.07326 7.0 7
  182.09148 6.0 6
  182.09984 7.0 7
  183.06288 27.0 27
  183.07007 49.0 49
  183.09024 8.0 8
  184.07423 15.0 15
  184.0928 6.0 6
  192.07512 7.0 7
  194.05777 10.0 10
  194.09062 5.0 5
  195.06622 11.0 11
  195.07544 11.0 11
  195.10321 8.0 8
  196.07668 78.0 78
  196.09511 12.0 12
  196.11238 38.0 38
  197.0593 7.0 7
  197.06883 19.0 19
  197.08051 32.0 32
  197.09308 17.0 17
  197.11305 21.0 21
  197.12561 6.0 6
  205.08554 7.0 7
  206.0963 73.0 73
  207.10648 17.0 17
  208.07779 39.0 39
  208.09859 8.0 8
  208.11047 8.0 8
  209.07532 12.0 12
  209.08577 5.0 5
  209.10435 7.0 7
  209.11522 8.0 8
  210.08102 16.0 16
  210.09329 34.0 34
  211.08597 8.0 8
  211.09766 11.0 11
  211.12193 14.0 14
  211.1333 8.0 8
  212.07132 42.0 42
  212.09485 10.0 10
  212.12909 6.0 6
  213.06625 6.0 6
  213.07874 9.0 9
  213.10408 14.0 14
  219.10335 8.0 8
  220.07529 13.0 13
  220.08859 6.0 6
  220.11076 18.0 18
  220.11948 7.0 7
  221.1006 7.0 7
  221.11162 6.0 6
  222.09155 32.0 32
  222.12015 10.0 10
  222.13368 12.0 12
  223.07568 10.0 10
  223.09193 32.0 32
  223.10268 19.0 19
  223.12622 22.0 22
  224.07149 8.0 8
  224.10872 242.0 242
  224.1279 9.0 9
  225.10336 319.0 319
  226.08168 5.0 5
  226.10414 52.0 52
  226.11876 13.0 13
  226.15976 6.0 6
  227.1219 14.0 14
  230.09648 59.0 59
  231.08325 11.0 11
  231.09814 13.0 13
  232.06453 8.0 8
  232.07823 5.0 5
  233.0728 7.0 7
  233.08664 45.0 45
  234.08427 6.0 6
  235.08731 9.0 9
  235.09711 9.0 9
  235.12251 5.0 5
  236.09241 22.0 22
  236.10255 20.0 20
  236.11598 8.0 8
  236.14963 9.0 9
  237.09393 8.0 8
  237.10477 15.0 15
  237.11758 5.0 5
  237.13908 29.0 29
  237.14973 7.0 7
  238.10258 6.0 6
  238.11516 10.0 10
  238.14313 15.0 15
  239.11765 151.0 151
  239.15933 14.0 14
  240.11909 23.0 23
  240.13176 9.0 9
  247.10222 9.0 9
  247.11972 12.0 12
  247.13205 11.0 11
  248.10823 147.0 147
  248.12921 8.0 8
  249.10182 72.0 72
  249.12155 19.0 19
  250.10533 25.0 25
  250.12749 6.0 6
  250.14067 7.0 7
  250.15149 11.0 11
  251.11394 24.0 24
  251.12469 20.0 20
  252.12193 7.0 7
  253.09953 7.0 7
  253.13391 13.0 13
  254.13741 5.0 5
  254.1568 13.0 13
  255.11758 21.0 21
  255.15094 8.0 8
  261.10141 5.0 5
  262.12262 6.0 6
  263.10568 6.0 6
  263.12073 23.0 23
  264.12241 8.0 8
  265.09448 7.0 7
  265.13483 1000.0 999
  266.13864 211.0 211
  267.11609 94.0 94
  267.14557 45.0 45
  267.15643 32.0 32
  268.11377 9.0 9
  268.12906 10.0 10
  268.1572 94.0 94
  268.17355 9.0 9
  269.15875 21.0 21
  277.13147 14.0 14
  278.12143 6.0 6
  278.13968 9.0 9
  278.1503 8.0 8
  279.14862 140.0 140
  280.14944 9.0 9
  280.16248 16.0 16
  281.13101 15.0 15
  295.13287 15.0 15
  295.15161 16.0 16
  296.10306 7.0 7
  296.12076 12.0 12
  296.1528 577.0 576
  297.13007 7.0 7
  297.15607 157.0 157
  298.16302 32.0 32
//
