ACCESSION: MSBNK-RIKEN-PR310713
RECORD_TITLE: Solasodine base + O-Hex-Hex-dHex; LC-ESI-QTOF; MS2
DATE: 2019.03.28
AUTHORS: Tetsuya Mori, Center for Sustainable Resource Science, RIKEN
LICENSE: CC BY-NC-SA
PUBLICATION: Tsugawa H., Nakabayashi R., Mori T., Yamada Y., Takahashi M., Rai A., Sugiyama R., Yamamoto H., Nakaya T., Yamazaki M., Kooke R., Bac-Molenaar JA., Oztolan-Erol N., Keurentjes JJB., Arita M., Saito K. (2019) "A cheminformatics approach to characterize metabolomes in stable-isotope-labeled organisms" Nature Methods 16(4):295-298. [doi:10.1038/s41592-019-0358-2]
COMMENT: Annotation level-3
CH$NAME: Solasodine base + O-Hex-Hex-dHex
CH$COMPOUND_CLASS: Steroidal saponins
CH$FORMULA: C45H73NO16
CH$EXACT_MASS: 884.07
CH$SMILES: OCC9OC(OC8C(O)C(OC(OC6CC5=CCC4C(CCC3(C)(C4(CC2OC1(NCC(C)CC1)C(C)C23)))C5(C)CC6)C8(OC7OC(C)C(O)C(O)C7(O)))CO)C(O)C(O)C9(O)
CH$IUPAC: InChI=1S/C45H73NO16/c1-19-8-13-45(46-16-19)20(2)30-27(62-45)15-26-24-7-6-22-14-23(9-11-43(22,4)25(24)10-12-44(26,30)5)57-42-39(61-40-36(54)34(52)31(49)21(3)56-40)38(33(51)29(18-48)59-42)60-41-37(55)35(53)32(50)28(17-47)58-41/h6,19-21,23-42,46-55H,7-18H2,1-5H3
CH$LINK: INCHIKEY QCTMYNGDIBTNSK-UHFFFAOYSA-N
AC$INSTRUMENT: LC, Waters Acquity UPLC System; MS, Waters Xevo G2 Q-Tof
AC$INSTRUMENT_TYPE: LC-ESI-QTOF
AC$MASS_SPECTROMETRY: MS_TYPE MS2
AC$MASS_SPECTROMETRY: ION_MODE POSITIVE
AC$MASS_SPECTROMETRY: COLLISION_ENERGY 6V
AC$MASS_SPECTROMETRY: DESOLVATION_GAS_FLOW 800/h
AC$MASS_SPECTROMETRY: DESOLVATION_TEMPERATURE 450 C
AC$MASS_SPECTROMETRY: IONIZATION ESI
AC$CHROMATOGRAPHY: CAPILLARY_VOLTAGE +3.00 kV
AC$CHROMATOGRAPHY: COLUMN_NAME Acquity bridged ethyl hybrid C18 (1.7 um, 2.1 mm * 100 mm, Waters)
AC$CHROMATOGRAPHY: COLUMN_TEMPERATURE 40 C
AC$CHROMATOGRAPHY: FLOW_GRADIENT A/B = (99.5%/0.5% at 0 min, 99.5%/0.5% at 0.1 min, 20%/80% at 10 min, 0.5%/99.5% at 10.1 min, 0.5%/99.5% at 12.0 min, 99.5%/0.5% at 12.1 min, 99.5%/0.5% at 15.0 min)
AC$CHROMATOGRAPHY: FLOW_RATE 0.3 ml/min at 0 min, 0.3 ml/min at 10 min, 0.4 ml/min at 10.1 min, 0.4 ml/min at 14.4 min, 0.3 ml/min at 14.5 min
AC$CHROMATOGRAPHY: RETENTION_TIME 4.62
AC$CHROMATOGRAPHY: SOLVENT A water including 0.1% formic acid
AC$CHROMATOGRAPHY: SOLVENT B acetonitrile including 0.1% formic acid
MS$FOCUSED_ION: PRECURSOR_TYPE [M+H]+
MS$FOCUSED_ION: PRECURSOR_M/Z 884.501
PK$SPLASH: splash10-001i-0000000090-936ea272906c36292d5f
PK$NUM_PEAK: 32
PK$PEAK: m/z int. rel.int.
  185.12587 28.0 18
  257.09998 19.0 12
  286.2612 17.0 11
  293.12589 19.0 12
  341.25455 18.0 11
  341.3085 19.0 12
  368.30701 18.0 11
  396.327 20.0 13
  396.34531 20.0 13
  397.31345 24.0 15
  397.32956 23.0 14
  398.32654 18.0 11
  411.28125 20.0 13
  412.31946 17.0 11
  412.33774 44.0 28
  413.31326 37.0 23
  429.31076 19.0 12
  502.4483 17.0 11
  549.94904 25.0 16
  555.58972 20.0 13
  557.33923 17.0 11
  720.11469 20.0 13
  720.42499 19.0 12
  846.43872 25.0 16
  866.41974 17.0 11
  868.50348 18.0 11
  869.32373 18.0 11
  883.36627 20.0 13
  883.45801 17.0 11
  883.52301 28.0 18
  884.40283 27.0 17
  884.50031 1593.0 999
//
