ACCESSION: MSBNK-RIKEN-PR310637
RECORD_TITLE: Petiline; LC-ESI-QTOF; MS2
DATE: 2019.03.28
AUTHORS: Tetsuya Mori, Center for Sustainable Resource Science, RIKEN
LICENSE: CC BY-NC-SA
PUBLICATION: Tsugawa H., Nakabayashi R., Mori T., Yamada Y., Takahashi M., Rai A., Sugiyama R., Yamamoto H., Nakaya T., Yamazaki M., Kooke R., Bac-Molenaar JA., Oztolan-Erol N., Keurentjes JJB., Arita M., Saito K. (2019) "A cheminformatics approach to characterize metabolomes in stable-isotope-labeled organisms" Nature Methods 16(4):295-298. [doi:10.1038/s41592-019-0358-2]
COMMENT: Annotation level-1
CH$NAME: Petiline
CH$COMPOUND_CLASS: Alkaloids
CH$FORMULA: C27H43NO2
CH$EXACT_MASS: 413.646
CH$SMILES: CC(C1CCC2C3CC(=O)C4CC(O)CCC4(C)C3CCC12C)C1=NCC(C)CC1
CH$IUPAC: InChI=1S/C27H43NO2/c1-16-5-8-24(28-15-16)17(2)20-6-7-21-19-14-25(30)23-13-18(29)9-11-27(23,4)22(19)10-12-26(20,21)3/h16-23,29H,5-15H2,1-4H3
CH$LINK: INCHIKEY QAGPPGDCPAPQLW-UHFFFAOYSA-N
AC$INSTRUMENT: LC, Waters Acquity UPLC System; MS, Waters Xevo G2 Q-Tof
AC$INSTRUMENT_TYPE: LC-ESI-QTOF
AC$MASS_SPECTROMETRY: MS_TYPE MS2
AC$MASS_SPECTROMETRY: ION_MODE POSITIVE
AC$MASS_SPECTROMETRY: COLLISION_ENERGY 6V
AC$MASS_SPECTROMETRY: DESOLVATION_GAS_FLOW 800/h
AC$MASS_SPECTROMETRY: DESOLVATION_TEMPERATURE 450 C
AC$MASS_SPECTROMETRY: IONIZATION ESI
AC$CHROMATOGRAPHY: CAPILLARY_VOLTAGE +3.00 kV
AC$CHROMATOGRAPHY: COLUMN_NAME Acquity bridged ethyl hybrid C18 (1.7 um, 2.1 mm * 100 mm, Waters)
AC$CHROMATOGRAPHY: COLUMN_TEMPERATURE 40 C
AC$CHROMATOGRAPHY: FLOW_GRADIENT A/B = (99.5%/0.5% at 0 min, 99.5%/0.5% at 0.1 min, 20%/80% at 10 min, 0.5%/99.5% at 10.1 min, 0.5%/99.5% at 12.0 min, 99.5%/0.5% at 12.1 min, 99.5%/0.5% at 15.0 min)
AC$CHROMATOGRAPHY: FLOW_RATE 0.3 ml/min at 0 min, 0.3 ml/min at 10 min, 0.4 ml/min at 10.1 min, 0.4 ml/min at 14.4 min, 0.3 ml/min at 14.5 min
AC$CHROMATOGRAPHY: RETENTION_TIME 4.95
AC$CHROMATOGRAPHY: SOLVENT A water including 0.1% formic acid
AC$CHROMATOGRAPHY: SOLVENT B acetonitrile including 0.1% formic acid
MS$FOCUSED_ION: PRECURSOR_TYPE [M+H]+
MS$FOCUSED_ION: PRECURSOR_M/Z 414.33666
PK$SPLASH: splash10-03di-0000900000-7e6fa370f6e7986eafec
PK$NUM_PEAK: 368
PK$PEAK: m/z int. rel.int.
  56.04988 26.0 0
  67.05002 62.0 0
  67.05779 43.0 0
  69.06439 27.0 0
  69.07332 19.0 0
  70.0648 50.0 0
  71.04281 17.0 0
  71.08565 23.0 0
  77.03742 25.0 0
  79.02665 19.0 0
  79.04855 24.0 0
  79.05222 48.0 0
  81.07 269.0 2
  82.06807 18.0 0
  83.08789 27.0 0
  84.083 48.0 0
  91.05474 117.0 1
  93.05067 29.0 0
  93.06188 38.0 0
  93.07102 342.0 2
  93.07793 61.0 0
  94.06327 40.0 0
  94.07311 47.0 0
  95.05027 36.0 0
  95.08076 135.0 1
  95.08767 148.0 1
  96.08266 45.0 0
  96.08906 22.0 0
  97.0513 20.0 0
  97.06496 56.0 0
  97.08862 31.0 0
  97.10261 34.0 0
  98.09567 1256.0 9
  99.09424 45.0 0
  102.79729 17.0 0
  105.06831 195.0 1
  107.03513 20.0 0
  107.04969 83.0 1
  107.08501 599.0 4
  108.07565 22.0 0
  108.08772 56.0 0
  109.06284 51.0 0
  109.06747 33.0 0
  109.10273 312.0 2
  110.09493 51.0 0
  110.1015 42.0 0
  110.1288 19.0 0
  111.10138 21.0 0
  112.10235 19.0 0
  112.11352 152.0 1
  113.11888 31.0 0
  114.1295 20.0 0
  117.01215 38.0 0
  117.06677 44.0 0
  118.06101 23.0 0
  118.0708 22.0 0
  118.70476 20.0 0
  119.08702 86.0 1
  120.09565 37.0 0
  121.06591 148.0 1
  121.08896 19.0 0
  121.10246 436.0 3
  123.08652 20.0 0
  123.1141 18.0 0
  123.11987 25.0 0
  124.1022 21.0 0
  124.11134 204.0 1
  125.12048 46.0 0
  125.13071 72.0 1
  126.11511 71.0 1
  126.12683 2428.0 17
  126.58002 25.0 0
  127.09389 30.0 0
  127.12257 25.0 0
  127.13252 142.0 1
  127.71078 18.0 0
  128.13211 18.0 0
  131.06108 28.0 0
  131.08186 21.0 0
  131.08948 50.0 0
  133.09193 23.0 0
  133.0976 22.0 0
  134.29205 17.0 0
  135.07448 24.0 0
  135.08522 17.0 0
  135.10547 24.0 0
  135.11522 343.0 2
  135.12447 50.0 0
  136.1188 69.0 0
  137.09254 25.0 0
  138.13335 20.0 0
  139.0739 30.0 0
  142.16006 83.0 1
  143.08742 42.0 0
  145.0789 30.0 0
  145.09575 19.0 0
  145.10492 109.0 1
  146.60878 18.0 0
  147.07765 47.0 0
  147.11397 133.0 1
  147.12189 86.0 1
  148.12573 45.0 0
  149.09138 19.0 0
  149.09894 51.0 0
  149.13228 1440.0 10
  149.2088 17.0 0
  150.12383 85.0 1
  150.13791 191.0 1
  151.11688 25.0 0
  152.14037 105.0 1
  153.09804 28.0 0
  153.13521 18.0 0
  156.09169 18.0 0
  157.09741 79.0 1
  157.1037 28.0 0
  159.10295 17.0 0
  159.11333 87.0 1
  159.12193 97.0 1
  160.12744 37.0 0
  161.09497 64.0 0
  161.1078 65.0 0
  161.12019 40.0 0
  161.13507 37.0 0
  162.09564 20.0 0
  162.13454 24.0 0
  163.10846 18.0 0
  163.14769 45.0 0
  163.15688 21.0 0
  164.15685 44.0 0
  169.09937 66.0 0
  170.09044 19.0 0
  171.11258 71.0 1
  171.1192 22.0 0
  173.09819 44.0 0
  173.11423 27.0 0
  173.1373 105.0 1
  175.09731 20.0 0
  175.10718 68.0 0
  175.12001 67.0 0
  175.15839 19.0 0
  176.42117 28.0 0
  177.0916 17.0 0
  177.25446 36.0 0
  177.82089 24.0 0
  181.10324 42.0 0
  185.12953 162.0 1
  185.14027 24.0 0
  186.13615 29.0 0
  186.26157 17.0 0
  186.88841 27.0 0
  187.11165 20.0 0
  187.14514 80.0 1
  188.14299 19.0 0
  188.1543 17.0 0
  189.11946 36.0 0
  189.16187 20.0 0
  189.75208 20.0 0
  190.63213 20.0 0
  191.03445 18.0 0
  194.12015 19.0 0
  194.76132 25.0 0
  195.10875 27.0 0
  197.14101 51.0 0
  199.15207 41.0 0
  201.11877 27.0 0
  201.15921 92.0 1
  206.18451 24.0 0
  206.38042 20.0 0
  209.12488 19.0 0
  209.51634 21.0 0
  210.50322 24.0 0
  211.1506 104.0 1
  213.16701 20.0 0
  215.1149 17.0 0
  215.15469 32.0 0
  220.20155 19.0 0
  222.10146 29.0 0
  225.1626 29.0 0
  227.1721 23.0 0
  228.18976 22.0 0
  228.50406 22.0 0
  229.19603 37.0 0
  230.21576 35.0 0
  231.60225 27.0 0
  232.15898 17.0 0
  234.00555 21.0 0
  234.32391 18.0 0
  234.8028 24.0 0
  234.98006 21.0 0
  237.92488 20.0 0
  238.81192 18.0 0
  239.92245 20.0 0
  240.02939 18.0 0
  240.3932 17.0 0
  240.63362 21.0 0
  241.19212 24.0 0
  241.77454 27.0 0
  243.17397 20.0 0
  243.18393 17.0 0
  243.20325 20.0 0
  243.22363 20.0 0
  243.25414 20.0 0
  243.47429 17.0 0
  243.51654 18.0 0
  243.7384 18.0 0
  244.37132 18.0 0
  245.17262 19.0 0
  246.4527 26.0 0
  249.4791 18.0 0
  250.16238 35.0 0
  251.17058 51.0 0
  251.18759 19.0 0
  252.18591 20.0 0
  253.18687 62.0 0
  253.20575 62.0 0
  253.71059 36.0 0
  254.00714 19.0 0
  254.19292 17.0 0
  254.2126 22.0 0
  254.252 31.0 0
  254.71335 34.0 0
  255.18288 25.0 0
  255.19255 26.0 0
  256.06238 20.0 0
  256.66202 17.0 0
  257.04285 17.0 0
  257.19232 25.0 0
  257.88654 19.0 0
  259.12366 17.0 0
  259.98471 21.0 0
  260.03809 25.0 0
  260.10144 45.0 0
  260.45731 26.0 0
  260.47949 22.0 0
  263.62891 19.0 0
  266.03 20.0 0
  266.53305 37.0 0
  267.18015 52.0 0
  267.21259 20.0 0
  268.04623 21.0 0
  269.15967 37.0 0
  269.19684 42.0 0
  272.46304 20.0 0
  274.31027 29.0 0
  275.3107 22.0 0
  275.56525 24.0 0
  276.18109 23.0 0
  278.62015 18.0 0
  278.78931 21.0 0
  280.43073 36.0 0
  280.57166 20.0 0
  280.66052 17.0 0
  281.13702 27.0 0
  281.71042 45.0 0
  282.11938 23.0 0
  283.17548 17.0 0
  286.95898 23.0 0
  287.19659 18.0 0
  287.21075 37.0 0
  288.85797 25.0 0
  289.20557 21.0 0
  289.21582 26.0 0
  290.36035 26.0 0
  293.91 24.0 0
  294.78485 18.0 0
  294.96945 18.0 0
  295.13818 24.0 0
  295.24173 27.0 0
  295.298 18.0 0
  299.5582 26.0 0
  299.63971 22.0 0
  299.88812 19.0 0
  301.53397 20.0 0
  301.55447 31.0 0
  303.91965 19.0 0
  307.17752 23.0 0
  307.465 24.0 0
  307.69644 28.0 0
  308.30878 22.0 0
  309.26669 25.0 0
  314.78903 18.0 0
  314.8317 24.0 0
  315.44177 20.0 0
  315.64084 21.0 0
  317.91086 17.0 0
  320.32632 23.0 0
  320.58405 23.0 0
  320.75842 21.0 0
  325.85809 30.0 0
  327.29739 21.0 0
  328.6127 22.0 0
  329.52933 56.0 0
  333.44247 18.0 0
  333.86551 24.0 0
  335.1026 17.0 0
  336.44357 18.0 0
  336.54938 20.0 0
  338.6326 24.0 0
  341.82104 21.0 0
  343.78427 34.0 0
  344.73349 17.0 0
  348.46704 17.0 0
  349.29593 21.0 0
  352.22409 20.0 0
  354.3161 23.0 0
  355.11014 17.0 0
  359.19006 17.0 0
  360.564 32.0 0
  361.30243 22.0 0
  362.75885 23.0 0
  365.93857 22.0 0
  370.85501 36.0 0
  371.30807 22.0 0
  371.35449 18.0 0
  375.34451 35.0 0
  378.97296 19.0 0
  383.95834 20.0 0
  386.46951 28.0 0
  392.05191 28.0 0
  396.32889 18.0 0
  396.88214 20.0 0
  396.96777 33.0 0
  397.29449 27.0 0
  397.31537 32.0 0
  397.67871 31.0 0
  399.03745 17.0 0
  401.07983 20.0 0
  401.63431 18.0 0
  402.31754 23.0 0
  404.09802 29.0 0
  406.41235 19.0 0
  407.06348 18.0 0
  407.26447 24.0 0
  407.28885 18.0 0
  407.36996 23.0 0
  407.55591 29.0 0
  408.46088 24.0 0
  408.47321 19.0 0
  409.49542 17.0 0
  409.74503 18.0 0
  411.26163 20.0 0
  411.32782 17.0 0
  412.48315 18.0 0
  412.55707 17.0 0
  412.84363 17.0 0
  413.0892 22.0 0
  413.27246 31.0 0
  413.30865 21.0 0
  413.32434 37.0 0
  413.35452 18.0 0
  413.50974 62.0 0
  413.85495 17.0 0
  413.93088 57.0 0
  413.97165 22.0 0
  414.00497 43.0 0
  414.0451 53.0 0
  414.06754 25.0 0
  414.08633 39.0 0
  414.16562 52.0 0
  414.23071 160.0 1
  414.24384 141.0 1
  414.26523 365.0 3
  414.28372 218.0 2
  414.3371 140251.0 999
  414.396 4419.0 31
  414.44934 376.0 3
  414.47623 21.0 0
  414.52512 17.0 0
//
