ACCESSION: MSBNK-RIKEN-PR304328
RECORD_TITLE: Soyasaponin Ba; LC-ESI-QTOF; MS2
DATE: 2019.03.28
AUTHORS: Tetsuya Mori, Center for Sustainable Resource Science, RIKEN
LICENSE: CC BY-NC-SA
PUBLICATION: Tsugawa H., Nakabayashi R., Mori T., Yamada Y., Takahashi M., Rai A., Sugiyama R., Yamamoto H., Nakaya T., Yamazaki M., Kooke R., Bac-Molenaar JA., Oztolan-Erol N., Keurentjes JJB., Arita M., Saito K. (2019) "A cheminformatics approach to characterize metabolomes in stable-isotope-labeled organisms" Nature Methods 16(4):295-298. [doi:10.1038/s41592-019-0358-2]
COMMENT: registered in RIKEN PlaSMA
CH$NAME: Soyasaponin Ba
CH$COMPOUND_CLASS: Triterpene saponins
CH$FORMULA: C48H78O19
CH$EXACT_MASS: 959.133
CH$SMILES: CC1(C)CC(O)C2(C)CCC3(C)C(=CCC4C5(C)CCC(OC6OC(C(O)C(O)C6OC6OC(CO)C(O)C(O)C6OC6OC(CO)C(O)C(O)C6O)C(O)=O)C(C)(CO)C5CCC34C)C2C1
CH$IUPAC: InChI=1S/C48H78O19/c1-43(2)16-22-21-8-9-26-45(4)12-11-28(46(5,20-51)25(45)10-13-48(26,7)47(21,6)15-14-44(22,3)27(52)17-43)64-42-38(34(58)33(57)36(65-42)39(60)61)67-41-37(32(56)30(54)24(19-50)63-41)66-40-35(59)31(55)29(53)23(18-49)62-40/h8,22-38,40-42,49-59H,9-20H2,1-7H3,(H,60,61)
CH$LINK: INCHIKEY WFRQIKSNAYYUJZ-UHFFFAOYSA-N
AC$INSTRUMENT: LC, Waters Acquity UPLC System; MS, Waters Xevo G2 Q-Tof
AC$INSTRUMENT_TYPE: LC-ESI-QTOF
AC$MASS_SPECTROMETRY: MS_TYPE MS2
AC$MASS_SPECTROMETRY: ION_MODE POSITIVE
AC$MASS_SPECTROMETRY: COLLISION_ENERGY 6V
AC$MASS_SPECTROMETRY: DESOLVATION_GAS_FLOW 800/h
AC$MASS_SPECTROMETRY: DESOLVATION_TEMPERATURE 450 C
AC$MASS_SPECTROMETRY: IONIZATION ESI
AC$CHROMATOGRAPHY: CAPILLARY_VOLTAGE +3.00 kV
AC$CHROMATOGRAPHY: COLUMN_NAME Acquity bridged ethyl hybrid C18 (1.7 um, 2.1 mm * 100 mm, Waters)
AC$CHROMATOGRAPHY: COLUMN_TEMPERATURE 40 C
AC$CHROMATOGRAPHY: FLOW_GRADIENT A/B = (99.5%/0.5% at 0 min, 99.5%/0.5% at 0.1 min, 20%/80% at 10 min, 0.5%/99.5% at 10.1 min, 0.5%/99.5% at 12.0 min, 99.5%/0.5% at 12.1 min, 99.5%/0.5% at 15.0 min)
AC$CHROMATOGRAPHY: FLOW_RATE 0.3 ml/min at 0 min, 0.3 ml/min at 10 min, 0.4 ml/min at 10.1 min, 0.4 ml/min at 14.4 min, 0.3 ml/min at 14.5 min
AC$CHROMATOGRAPHY: RETENTION_TIME 6.969333
AC$CHROMATOGRAPHY: SOLVENT A water including 0.1% formic acid
AC$CHROMATOGRAPHY: SOLVENT B acetonitrile including 0.1% formic acid
MS$FOCUSED_ION: PRECURSOR_TYPE [M+H]+
MS$FOCUSED_ION: PRECURSOR_M/Z 959.5210067
PK$SPLASH: splash10-0htd-1971200000-2a24ac246c3499bb5558
PK$NUM_PEAK: 469
PK$PEAK: m/z int. rel.int.
  73.03227 17.0 17
  74.98361 9.0 9
  80.99469 10.0 10
  81.06656 28.0 28
  81.07406 10.0 10
  82.072 10.0 10
  83.01271 9.0 9
  84.09015 10.0 10
  84.57862 11.0 11
  84.97815 11.0 11
  85.02806 153.0 153
  85.84435 10.0 10
  86.01778 13.0 13
  91.01627 11.0 11
  91.02409 9.0 9
  91.03657 67.0 67
  91.04102 132.0 132
  93.06983 36.0 36
  94.07127 15.0 15
  95.01482 20.0 20
  95.01842 10.0 10
  95.08514 216.0 216
  95.44981 11.0 11
  96.08253 11.0 11
  96.09009 11.0 11
  96.98016 13.0 13
  97.02753 154.0 154
  97.10104 23.0 23
  99.05085 10.0 10
  103.034 17.0 17
  103.04314 10.0 10
  105.06544 9.0 9
  107.06473 10.0 10
  107.08244 35.0 35
  107.08959 51.0 51
  108.03456 11.0 11
  108.08868 21.0 21
  109.0364 10.0 10
  109.10163 226.0 226
  109.11147 9.0 9
  110.10552 9.0 9
  110.11125 9.0 9
  110.92432 13.0 13
  111.08137 63.0 63
  111.11673 12.0 12
  112.08975 10.0 10
  115.153 15.0 15
  119.06948 9.0 9
  119.08171 26.0 26
  119.09201 12.0 12
  120.06979 18.0 18
  120.08215 12.0 12
  121.09358 36.0 36
  121.10264 101.0 101
  122.10172 43.0 43
  123.01033 20.0 20
  123.04561 13.0 13
  123.118 117.0 117
  125.09719 10.0 10
  127.02686 9.0 9
  127.04053 183.0 183
  128.04135 9.0 9
  128.11261 9.0 9
  130.45233 16.0 16
  131.02771 11.0 11
  132.1387 10.0 10
  133.09674 63.0 63
  133.10478 222.0 222
  134.00713 11.0 11
  134.10251 21.0 21
  135.11618 199.0 199
  136.09027 11.0 11
  137.11642 9.0 9
  137.12602 12.0 12
  137.13719 51.0 51
  139.0882 9.0 9
  139.1154 69.0 69
  140.11829 9.0 9
  140.70589 10.0 10
  141.01912 812.0 811
  141.72809 9.0 9
  141.80669 9.0 9
  142.01657 10.0 10
  142.02576 65.0 65
  143.02187 20.0 20
  143.02937 17.0 17
  145.0495 599.0 598
  145.09299 30.0 30
  145.10115 36.0 36
  145.29811 9.0 9
  146.04974 41.0 41
  147.11578 196.0 196
  147.17633 10.0 10
  148.12044 19.0 19
  149.05672 11.0 11
  149.09662 9.0 9
  149.10811 20.0 20
  149.12245 22.0 22
  149.13539 186.0 186
  150.14038 10.0 10
  151.11208 18.0 18
  151.14244 9.0 9
  151.15042 12.0 12
  153.129 21.0 21
  154.04462 10.0 10
  157.09233 19.0 19
  157.11096 13.0 13
  158.25768 9.0 9
  159.02536 226.0 226
  159.03276 118.0 118
  159.11888 107.0 107
  160.02335 27.0 27
  160.03336 19.0 19
  160.12074 11.0 11
  161.08728 9.0 9
  161.10016 12.0 12
  161.1131 10.0 10
  161.13428 299.0 299
  162.08746 12.0 12
  162.57368 11.0 11
  163.06052 558.0 557
  163.1131 19.0 19
  163.14897 234.0 234
  164.06171 10.0 10
  164.13969 9.0 9
  164.15054 34.0 34
  164.1611 10.0 10
  165.1263 51.0 51
  169.05153 10.0 10
  169.10602 9.0 9
  171.10527 9.0 9
  171.1171 33.0 33
  171.12195 14.0 14
  171.88184 12.0 12
  172.03387 10.0 10
  173.12843 41.0 41
  173.13681 26.0 26
  174.14413 22.0 22
  175.13574 11.0 11
  175.14882 146.0 146
  175.1575 46.0 46
  176.14482 9.0 9
  176.15433 26.0 26
  177.03702 68.0 68
  177.1299 9.0 9
  177.16272 367.0 367
  178.14993 9.0 9
  178.16812 50.0 50
  178.17676 11.0 11
  179.14252 20.0 20
  179.18135 19.0 19
  180.17691 9.0 9
  180.57617 10.0 10
  184.12762 11.0 11
  185.13409 19.0 19
  186.11353 9.0 9
  186.12689 12.0 12
  186.14442 14.0 14
  187.12837 10.0 10
  187.1472 190.0 190
  188.14275 10.0 10
  188.15414 19.0 19
  188.56363 12.0 12
  189.16206 475.0 475
  190.17787 19.0 19
  191.12439 10.0 10
  191.14418 12.0 12
  191.17859 204.0 204
  191.19279 17.0 17
  192.16995 24.0 24
  192.18613 32.0 32
  193.15669 124.0 124
  193.1631 47.0 47
  194.06926 10.0 10
  194.1611 20.0 20
  195.15425 10.0 10
  195.17062 57.0 57
  195.1813 63.0 63
  196.1731 11.0 11
  196.18306 22.0 22
  199.13364 9.0 9
  199.14796 47.0 47
  199.16539 10.0 10
  200.14531 18.0 18
  201.16328 300.0 300
  202.16597 76.0 76
  202.17668 17.0 17
  202.95782 9.0 9
  203.1355 9.0 9
  203.14407 23.0 23
  203.15305 12.0 12
  203.17924 869.0 868
  204.15756 10.0 10
  204.18175 68.0 68
  204.19258 17.0 17
  205.1487 21.0 21
  205.1597 95.0 95
  205.19218 79.0 79
  205.20134 61.0 61
  206.17139 10.0 10
  206.18507 11.0 11
  206.19482 10.0 10
  207.15773 31.0 31
  207.17416 190.0 190
  207.21332 15.0 15
  207.34451 9.0 9
  208.18036 32.0 32
  209.18542 19.0 19
  209.19423 10.0 10
  211.14557 12.0 12
  213.16689 37.0 37
  214.16917 9.0 9
  215.18095 321.0 321
  215.19675 26.0 26
  215.52084 9.0 9
  216.17838 43.0 43
  216.18915 22.0 22
  216.26059 9.0 9
  217.17378 22.0 22
  217.19588 431.0 431
  218.19377 11.0 11
  218.20293 9.0 9
  219.1713 261.0 261
  219.19615 10.0 10
  219.21127 23.0 23
  220.17848 32.0 32
  221.17845 57.0 57
  221.19183 192.0 192
  222.19414 49.0 49
  223.15927 13.0 13
  223.1954 9.0 9
  223.21388 9.0 9
  225.13802 9.0 9
  225.16022 21.0 21
  226.16483 11.0 11
  227.18938 23.0 23
  228.13828 11.0 11
  228.17017 8.0 8
  228.18353 37.0 37
  229.18134 31.0 31
  229.19606 194.0 194
  230.19623 52.0 52
  231.17337 57.0 57
  231.20966 57.0 57
  233.18684 182.0 182
  234.18654 10.0 10
  234.19592 9.0 9
  235.20352 23.0 23
  237.1467 11.0 11
  237.16811 9.0 9
  237.59343 9.0 9
  239.19548 13.0 13
  241.17258 13.0 13
  241.19363 77.0 77
  242.13806 9.0 9
  243.20839 121.0 121
  244.20918 9.0 9
  245.10788 9.0 9
  245.1839 34.0 34
  245.19661 20.0 20
  245.21844 9.0 9
  246.18788 18.0 18
  246.22395 21.0 21
  247.20624 316.0 316
  247.2254 11.0 11
  247.8007 9.0 9
  248.19728 9.0 9
  248.21756 44.0 44
  249.20735 11.0 11
  250.38455 9.0 9
  253.19629 10.0 10
  254.13274 11.0 11
  255.17358 12.0 12
  255.19878 31.0 31
  255.21471 105.0 105
  256.20425 9.0 9
  256.21619 39.0 39
  256.53534 11.0 11
  257.22717 120.0 120
  258.21945 15.0 15
  258.23669 9.0 9
  259.19711 11.0 11
  259.21344 26.0 26
  259.23294 19.0 19
  260.21014 22.0 22
  261.16776 10.0 10
  261.21658 59.0 59
  262.22849 12.0 12
  263.23758 9.0 9
  267.19431 9.0 9
  267.22198 19.0 19
  267.23428 9.0 9
  268.20114 9.0 9
  269.21506 11.0 11
  269.23441 53.0 53
  270.23318 27.0 27
  270.24689 15.0 15
  271.20648 20.0 20
  271.2164 10.0 10
  271.23682 9.0 9
  271.25021 26.0 26
  272.20706 13.0 13
  272.25211 10.0 10
  273.22397 97.0 97
  274.19214 11.0 11
  274.23047 36.0 36
  275.23483 65.0 65
  276.13705 10.0 10
  276.24396 9.0 9
  279.19055 11.0 11
  279.20773 9.0 9
  280.22742 9.0 9
  281.19431 9.0 9
  281.21518 9.0 9
  281.23459 26.0 26
  281.26376 11.0 11
  283.23965 11.0 11
  284.23941 9.0 9
  285.07159 9.0 9
  285.22733 10.0 10
  285.2648 18.0 18
  286.22241 32.0 32
  286.26392 9.0 9
  287.2345 11.0 11
  287.24716 45.0 45
  288.2453 23.0 23
  289.26047 21.0 21
  293.22943 10.0 10
  293.49744 11.0 11
  295.24622 67.0 67
  297.23981 9.0 9
  297.2598 79.0 79
  299.23474 41.0 41
  301.04803 10.0 10
  301.2446 26.0 26
  301.26474 19.0 19
  301.27841 11.0 11
  302.26306 10.0 10
  303.1962 10.0 10
  307.24313 9.0 9
  309.2471 39.0 39
  309.26334 15.0 15
  310.25644 9.0 9
  311.14365 10.0 10
  311.25888 10.0 10
  311.27344 60.0 60
  311.29224 21.0 21
  312.29205 10.0 10
  312.82455 9.0 9
  313.21881 9.0 9
  313.24545 53.0 53
  314.25552 49.0 49
  315.25543 15.0 15
  315.26627 48.0 48
  316.26459 12.0 12
  316.28217 14.0 14
  317.24435 9.0 9
  321.07578 9.0 9
  321.25537 23.0 23
  323.02213 9.0 9
  323.27325 9.0 9
  325.30643 11.0 11
  327.26923 9.0 9
  328.26105 12.0 12
  329.27341 13.0 13
  329.28271 27.0 27
  329.30551 9.0 9
  330.2598 9.0 9
  330.28394 10.0 10
  335.26462 9.0 9
  335.27493 10.0 10
  338.27692 10.0 10
  339.2561 10.0 10
  339.27264 9.0 9
  341.27628 9.0 9
  342.27972 9.0 9
  342.29929 10.0 10
  342.31717 12.0 12
  343.29306 9.0 9
  345.28745 9.0 9
  349.29547 30.0 30
  350.31244 9.0 9
  351.18521 18.0 18
  351.27826 9.0 9
  351.29636 10.0 10
  351.32111 18.0 18
  352.21182 9.0 9
  359.19745 14.0 14
  363.28445 25.0 25
  365.19955 26.0 26
  365.22342 11.0 11
  365.32516 106.0 106
  366.30972 10.0 10
  366.32169 19.0 19
  366.34109 11.0 11
  367.32709 10.0 10
  367.34772 12.0 12
  368.34811 9.0 9
  369.31747 44.0 44
  372.32812 9.0 9
  377.26697 9.0 9
  377.31592 10.0 10
  379.20383 11.0 11
  380.29755 9.0 9
  382.31403 19.0 19
  383.32175 57.0 57
  383.34714 20.0 20
  383.36075 12.0 12
  384.32733 11.0 11
  386.34738 11.0 11
  391.29462 9.0 9
  393.23175 11.0 11
  393.32901 10.0 10
  393.34747 10.0 10
  393.36896 10.0 10
  394.36865 18.0 18
  394.96411 10.0 10
  395.2019 9.0 9
  395.36218 13.0 13
  396.36633 9.0 9
  405.341 111.0 111
  405.36398 106.0 106
  405.38821 9.0 9
  405.47034 16.0 16
  406.23709 13.0 13
  406.34451 32.0 32
  406.36127 20.0 20
  407.35568 10.0 10
  407.37253 20.0 20
  411.36816 31.0 31
  412.35199 10.0 10
  412.37091 10.0 10
  412.38498 10.0 10
  414.38629 9.0 9
  417.0275 11.0 11
  417.22571 23.0 23
  423.32349 9.0 9
  423.36172 1000.0 999
  424.30609 9.0 9
  424.34195 44.0 44
  424.36923 315.0 315
  425.35828 14.0 14
  425.37589 59.0 59
  425.39456 9.0 9
  435.3652 32.0 32
  441.3074 11.0 11
  441.37289 311.0 311
  441.69357 9.0 9
  442.37421 89.0 89
  442.39145 30.0 30
  443.35956 29.0 29
  443.37744 9.0 9
  494.68262 9.0 9
  505.32568 9.0 9
  517.36664 11.0 11
  545.29913 10.0 10
  549.02551 11.0 11
  553.39038 10.0 10
  554.39905 15.0 15
  581.38123 10.0 10
  581.40967 9.0 9
  582.37195 18.0 18
  584.38763 9.0 9
  599.39874 90.0 90
  600.39978 10.0 10
  601.43146 12.0 12
  602.14624 17.0 17
  602.39203 11.0 11
  717.35486 10.0 10
//
