ACCESSION: MSBNK-RIKEN-PR301297
RECORD_TITLE: 9-Nitro-20(S)-camptothecin; LC-ESI-QTOF; MS2
DATE: 2019.03.28
AUTHORS: Tetsuya Mori, Center for Sustainable Resource Science, RIKEN
LICENSE: CC BY-NC-SA
PUBLICATION: Tsugawa H., Nakabayashi R., Mori T., Yamada Y., Takahashi M., Rai A., Sugiyama R., Yamamoto H., Nakaya T., Yamazaki M., Kooke R., Bac-Molenaar JA., Oztolan-Erol N., Keurentjes JJB., Arita M., Saito K. (2019) "A cheminformatics approach to characterize metabolomes in stable-isotope-labeled organisms" Nature Methods 16(4):295-298. [doi:10.1038/s41592-019-0358-2]
COMMENT: registered in RIKEN PlaSMA
CH$NAME: 9-Nitro-20(S)-camptothecin
CH$COMPOUND_CLASS: Camptothecins
CH$FORMULA: C20H15N3O6
CH$EXACT_MASS: 393.355
CH$SMILES: CC[C@@]1(O)C(=O)OCC2=C1C=C1N(CC3=CC4=C(C=CC=C4N(=O)=O)N=C13)C2=O
CH$IUPAC: InChI=1S/C20H15N3O6/c1-2-20(26)13-7-16-17-10(8-22(16)18(24)12(13)9-29-19(20)25)6-11-14(21-17)4-3-5-15(11)23(27)28/h3-7,26H,2,8-9H2,1H3/t20-/m0/s1
CH$LINK: INCHIKEY VHXNKPBCCMUMSW-FQEVSTJZSA-N
AC$INSTRUMENT: LC, Waters Acquity UPLC System; MS, Waters Xevo G2 Q-Tof
AC$INSTRUMENT_TYPE: LC-ESI-QTOF
AC$MASS_SPECTROMETRY: MS_TYPE MS2
AC$MASS_SPECTROMETRY: ION_MODE POSITIVE
AC$MASS_SPECTROMETRY: COLLISION_ENERGY 6V
AC$MASS_SPECTROMETRY: DESOLVATION_GAS_FLOW 800/h
AC$MASS_SPECTROMETRY: DESOLVATION_TEMPERATURE 450 C
AC$MASS_SPECTROMETRY: IONIZATION ESI
AC$CHROMATOGRAPHY: CAPILLARY_VOLTAGE +3.00 kV
AC$CHROMATOGRAPHY: COLUMN_NAME Acquity bridged ethyl hybrid C18 (1.7 um, 2.1 mm * 100 mm, Waters)
AC$CHROMATOGRAPHY: COLUMN_TEMPERATURE 40 C
AC$CHROMATOGRAPHY: FLOW_GRADIENT A/B = (99.5%/0.5% at 0 min, 99.5%/0.5% at 0.1 min, 20%/80% at 10 min, 0.5%/99.5% at 10.1 min, 0.5%/99.5% at 12.0 min, 99.5%/0.5% at 12.1 min, 99.5%/0.5% at 15.0 min)
AC$CHROMATOGRAPHY: FLOW_RATE 0.3 ml/min at 0 min, 0.3 ml/min at 10 min, 0.4 ml/min at 10.1 min, 0.4 ml/min at 14.4 min, 0.3 ml/min at 14.5 min
AC$CHROMATOGRAPHY: RETENTION_TIME 5.86515
AC$CHROMATOGRAPHY: SOLVENT A water including 0.1% formic acid
AC$CHROMATOGRAPHY: SOLVENT B acetonitrile including 0.1% formic acid
MS$FOCUSED_ION: PRECURSOR_TYPE [M+H]+
MS$FOCUSED_ION: PRECURSOR_M/Z 394.1033617
PK$SPLASH: splash10-014j-0190000000-49a39164b5c8c067d5fc
PK$NUM_PEAK: 250
PK$PEAK: m/z int. rel.int.
  53.03915 17.0 17
  93.05232 21.0 21
  105.47664 28.0 28
  122.80842 18.0 18
  128.03008 18.0 18
  129.06229 16.0 16
  132.04512 35.0 35
  142.06265 21.0 21
  145.04774 16.0 16
  145.64711 27.0 27
  147.85266 28.0 28
  151.05042 14.0 14
  154.06551 19.0 19
  154.07451 21.0 21
  155.02196 14.0 14
  155.06462 45.0 45
  155.07828 17.0 17
  161.03473 20.0 20
  164.0569 14.0 14
  165.05687 54.0 54
  166.04686 19.0 19
  166.06996 15.0 15
  167.06706 24.0 24
  167.0751 66.0 66
  168.03848 24.0 24
  168.08008 15.0 15
  168.08626 14.0 14
  177.06923 17.0 17
  178.05894 23.0 23
  178.06709 18.0 18
  179.05147 14.0 14
  179.07048 16.0 16
  179.07861 24.0 24
  180.04936 24.0 24
  180.06442 36.0 36
  180.07433 14.0 14
  181.07333 115.0 115
  181.08784 37.0 37
  182.03169 14.0 14
  182.07925 18.0 18
  182.08705 14.0 14
  183.07597 42.0 42
  187.0589 16.0 16
  189.05238 14.0 14
  189.48874 16.0 16
  190.04416 14.0 14
  190.06099 92.0 92
  190.06923 95.0 95
  191.05553 23.0 23
  191.07445 252.0 252
  192.0609 54.0 54
  192.07475 81.0 81
  192.089 16.0 16
  193.06036 14.0 14
  193.06905 21.0 21
  193.07687 22.0 22
  193.09161 16.0 16
  194.05933 21.0 21
  194.07724 18.0 18
  194.09082 17.0 17
  195.05682 26.0 26
  196.05452 14.0 14
  201.98938 16.0 16
  202.77188 19.0 19
  203.06078 64.0 64
  203.07581 124.0 124
  204.067 94.0 94
  204.08493 151.0 151
  204.35721 26.0 26
  205.07019 151.0 151
  205.08192 271.0 271
  206.07547 101.0 101
  206.08568 77.0 77
  206.09676 22.0 22
  206.11353 14.0 14
  207.07274 45.0 45
  207.0869 75.0 75
  207.09897 27.0 27
  208.05858 35.0 35
  208.07013 46.0 46
  208.08765 21.0 21
  208.09918 33.0 33
  209.06459 73.0 73
  210.07521 34.0 34
  211.02646 21.0 21
  214.0663 16.0 16
  215.336 14.0 14
  216.06889 225.0 225
  216.13429 20.0 20
  217.06564 162.0 162
  217.07384 517.0 516
  217.08542 246.0 246
  218.04706 34.0 34
  218.05736 63.0 63
  218.08336 1000.0 999
  219.06644 27.0 27
  219.0802 195.0 195
  219.09276 561.0 560
  219.56879 20.0 20
  220.04735 23.0 23
  220.061 17.0 17
  220.07594 39.0 39
  220.08774 89.0 89
  220.10056 168.0 168
  221.06474 15.0 15
  221.10207 20.0 20
  221.11064 21.0 21
  222.06886 16.0 16
  223.0399 16.0 16
  225.04919 16.0 16
  228.0766 33.0 33
  228.23085 21.0 21
  229.07051 15.0 15
  229.09544 37.0 37
  230.05574 20.0 20
  230.08591 72.0 72
  230.09897 14.0 14
  231.04501 16.0 16
  231.05618 17.0 17
  231.0652 16.0 16
  231.07626 16.0 16
  231.09097 49.0 49
  231.10039 22.0 22
  232.02744 25.0 25
  232.08665 14.0 14
  232.10854 14.0 14
  232.11792 14.0 14
  233.06531 77.0 77
  233.07623 51.0 51
  233.10164 13.0 13
  233.11281 55.0 55
  233.12593 26.0 26
  234.06111 18.0 18
  234.06711 39.0 39
  234.07903 64.0 64
  234.12761 15.0 15
  235.06084 16.0 16
  235.07381 33.0 33
  235.08272 49.0 49
  235.09581 18.0 18
  235.12334 19.0 19
  236.08125 24.0 24
  236.09242 49.0 49
  236.1037 18.0 18
  237.07983 13.0 13
  237.08725 38.0 38
  238.06117 21.0 21
  238.07729 64.0 64
  239.07701 30.0 30
  239.09268 15.0 15
  241.08316 20.0 20
  242.08372 16.0 16
  242.31252 16.0 16
  243.09103 17.0 17
  243.10312 64.0 64
  244.05643 30.0 30
  244.07501 63.0 63
  244.08838 26.0 26
  245.07088 614.0 613
  245.15118 20.0 20
  246.05292 15.0 15
  246.07451 213.0 213
  246.08997 49.0 49
  246.11147 68.0 68
  247.05278 16.0 16
  247.06587 29.0 29
  247.08591 627.0 626
  247.09796 107.0 107
  247.13318 16.0 16
  247.30699 16.0 16
  248.04694 15.0 15
  248.09042 365.0 365
  248.13141 16.0 16
  248.41113 27.0 27
  249.0715 48.0 48
  249.10234 70.0 70
  249.11972 15.0 15
  250.0956 16.0 16
  255.09758 35.0 35
  256.09824 14.0 14
  257.10413 14.0 14
  257.11639 43.0 43
  257.13998 19.0 19
  258.08295 14.0 14
  258.10617 16.0 16
  258.11734 23.0 23
  259.08307 20.0 20
  259.09729 37.0 37
  260.04834 15.0 15
  260.07144 17.0 17
  260.09528 37.0 37
  260.31494 16.0 16
  261.0929 14.0 14
  261.1174 16.0 16
  262.08136 33.0 33
  262.10611 16.0 16
  263.07193 80.0 80
  263.08768 40.0 40
  263.10056 17.0 17
  263.15378 16.0 16
  264.07037 14.0 14
  264.08524 77.0 77
  265.07404 39.0 39
  265.08875 16.0 16
  267.09174 19.0 19
  270.06757 34.0 34
  271.08508 35.0 35
  271.10294 22.0 22
  271.12976 14.0 14
  272.07764 14.0 14
  272.08749 14.0 14
  272.10144 21.0 21
  273.7034 14.0 14
  274.06851 56.0 56
  274.0863 16.0 16
  274.10587 46.0 46
  274.11676 52.0 52
  275.09644 14.0 14
  275.11331 19.0 19
  275.13037 26.0 26
  276.12946 40.0 40
  277.09555 25.0 25
  280.08084 14.0 14
  282.72363 14.0 14
  286.09918 16.0 16
  286.12561 31.0 31
  288.12122 22.0 22
  289.03796 14.0 14
  289.11789 21.0 21
  289.95251 15.0 15
  290.04764 16.0 16
  290.06372 41.0 41
  291.02686 15.0 15
  291.06689 171.0 171
  292.0383 17.0 17
  292.05518 58.0 58
  292.06897 14.0 14
  293.07709 16.0 16
  300.05103 19.0 19
  304.11728 313.0 313
  305.09033 27.0 27
  305.11276 32.0 32
  306.13666 16.0 16
  307.05923 14.0 14
  308.05765 31.0 31
  318.15494 18.0 18
  335.99799 14.0 14
  375.04376 16.0 16
  393.68018 16.0 16
  394.09579 15.0 15
//
