ACCESSION: MSBNK-RIKEN-PR310631
RECORD_TITLE: Guan-fu base Y; LC-ESI-QTOF; MS2
DATE: 2019.03.28
AUTHORS: Tetsuya Mori, Center for Sustainable Resource Science, RIKEN
LICENSE: CC BY-NC-SA
PUBLICATION: Tsugawa H., Nakabayashi R., Mori T., Yamada Y., Takahashi M., Rai A., Sugiyama R., Yamamoto H., Nakaya T., Yamazaki M., Kooke R., Bac-Molenaar JA., Oztolan-Erol N., Keurentjes JJB., Arita M., Saito K. (2019) "A cheminformatics approach to characterize metabolomes in stable-isotope-labeled organisms" Nature Methods 16(4):295-298. [doi:10.1038/s41592-019-0358-2]
COMMENT: Annotation level-1
CH$NAME: Guan-fu base Y
CH$COMPOUND_CLASS: Alkaloids
CH$FORMULA: C22H29NO5
CH$EXACT_MASS: 387.476
CH$SMILES: CC(=O)OC1CC2(C)CN3C4CC56CC(=C)C7C(O)C5C(C1)(C24)C3C6(O)C7O
CH$IUPAC: InChI=1S/C22H29NO5/c1-9-4-20-7-12-15-19(3)5-11(28-10(2)24)6-21(15)16(20)14(25)13(9)17(26)22(20,27)18(21)23(12)8-19/h11-18,25-27H,1,4-8H2,2-3H3
CH$LINK: INCHIKEY XGTNTUKODZZCGL-UHFFFAOYSA-N
AC$INSTRUMENT: LC, Waters Acquity UPLC System; MS, Waters Xevo G2 Q-Tof
AC$INSTRUMENT_TYPE: LC-ESI-QTOF
AC$MASS_SPECTROMETRY: MS_TYPE MS2
AC$MASS_SPECTROMETRY: ION_MODE POSITIVE
AC$MASS_SPECTROMETRY: COLLISION_ENERGY 6V
AC$MASS_SPECTROMETRY: DESOLVATION_GAS_FLOW 800/h
AC$MASS_SPECTROMETRY: DESOLVATION_TEMPERATURE 450 C
AC$MASS_SPECTROMETRY: IONIZATION ESI
AC$CHROMATOGRAPHY: CAPILLARY_VOLTAGE +3.00 kV
AC$CHROMATOGRAPHY: COLUMN_NAME Acquity bridged ethyl hybrid C18 (1.7 um, 2.1 mm * 100 mm, Waters)
AC$CHROMATOGRAPHY: COLUMN_TEMPERATURE 40 C
AC$CHROMATOGRAPHY: FLOW_GRADIENT A/B = (99.5%/0.5% at 0 min, 99.5%/0.5% at 0.1 min, 20%/80% at 10 min, 0.5%/99.5% at 10.1 min, 0.5%/99.5% at 12.0 min, 99.5%/0.5% at 12.1 min, 99.5%/0.5% at 15.0 min)
AC$CHROMATOGRAPHY: FLOW_RATE 0.3 ml/min at 0 min, 0.3 ml/min at 10 min, 0.4 ml/min at 10.1 min, 0.4 ml/min at 14.4 min, 0.3 ml/min at 14.5 min
AC$CHROMATOGRAPHY: RETENTION_TIME 3.03
AC$CHROMATOGRAPHY: SOLVENT A water including 0.1% formic acid
AC$CHROMATOGRAPHY: SOLVENT B acetonitrile including 0.1% formic acid
MS$FOCUSED_ION: PRECURSOR_TYPE [M+H]+
MS$FOCUSED_ION: PRECURSOR_M/Z 388.21185
PK$SPLASH: splash10-000i-0119000000-bb9aead6b69bb8bcf475
PK$NUM_PEAK: 348
PK$PEAK: m/z int. rel.int.
  57.02919 20.0 0
  57.03294 24.0 0
  69.0301 21.0 0
  79.05467 52.0 1
  84.04556 22.0 0
  91.03821 36.0 1
  91.06326 19.0 0
  93.07156 196.0 3
  93.53223 19.0 0
  95.07165 21.0 0
  96.07106 24.0 0
  98.86169 18.0 0
  101.34542 19.0 0
  105.07159 576.0 10
  106.0749 69.0 1
  106.33067 17.0 0
  107.07257 21.0 0
  107.0857 39.0 1
  107.09051 80.0 1
  111.26846 57.0 1
  117.06815 41.0 1
  119.06386 25.0 0
  119.08324 48.0 1
  120.08942 25.0 0
  121.06096 54.0 1
  121.10101 165.0 3
  121.10941 18.0 0
  122.09471 20.0 0
  122.1056 62.0 1
  122.11006 29.0 1
  126.09062 17.0 0
  128.16464 20.0 0
  129.06044 20.0 0
  129.06979 23.0 0
  131.08348 174.0 3
  131.08981 71.0 1
  132.08504 28.0 0
  133.08653 25.0 0
  143.0717 25.0 0
  143.96645 20.0 0
  144.02046 20.0 0
  144.04979 17.0 0
  144.06223 25.0 0
  144.08208 2748.0 49
  144.21698 17.0 0
  145.06699 40.0 1
  145.08531 333.0 6
  145.10286 21.0 0
  145.47029 17.0 0
  146.0632 18.0 0
  146.08037 20.0 0
  146.09543 22.0 0
  146.11011 17.0 0
  146.2149 18.0 0
  146.66217 26.0 0
  147.62163 28.0 0
  149.07349 19.0 0
  149.0988 332.0 6
  150.09749 22.0 0
  151.10396 17.0 0
  153.06215 19.0 0
  154.06119 21.0 0
  154.08058 41.0 1
  155.09421 21.0 0
  156.08075 85.0 2
  156.08623 31.0 1
  157.0825 18.0 0
  157.09299 23.0 0
  158.09776 359.0 6
  158.10994 43.0 1
  159.08241 33.0 1
  159.09766 23.0 0
  159.10529 37.0 1
  159.27638 27.0 0
  160.07361 28.0 0
  160.11365 85.0 2
  162.07449 24.0 0
  164.10954 29.0 1
  167.09624 17.0 0
  168.08656 33.0 1
  169.06477 20.0 0
  170.09583 37.0 1
  170.67734 33.0 1
  171.10272 18.0 0
  172.06848 28.0 0
  172.37971 19.0 0
  175.104 19.0 0
  176.06909 20.0 0
  176.10489 25.0 0
  177.69945 17.0 0
  178.08423 19.0 0
  179.13217 22.0 0
  181.10777 28.0 0
  182.09219 29.0 1
  182.10431 54.0 1
  184.10622 26.0 0
  184.11469 24.0 0
  188.10458 39.0 1
  192.09572 39.0 1
  193.09253 23.0 0
  193.10379 23.0 0
  194.08752 50.0 1
  194.10251 19.0 0
  195.1033 68.0 1
  196.07428 35.0 1
  196.10396 19.0 0
  196.11568 33.0 1
  196.12392 17.0 0
  197.21725 17.0 0
  198.12953 102.0 2
  199.13565 17.0 0
  199.14754 17.0 0
  200.10515 21.0 0
  201.11572 20.0 0
  202.12015 25.0 0
  205.10533 21.0 0
  206.08446 18.0 0
  207.11671 61.0 1
  209.12872 24.0 0
  209.41797 24.0 0
  210.13527 37.0 1
  211.15987 27.0 0
  211.80537 21.0 0
  213.1246 18.0 0
  214.0854 38.0 1
  214.10924 24.0 0
  215.09332 29.0 1
  216.09135 22.0 0
  217.10347 17.0 0
  218.0873 19.0 0
  218.12721 22.0 0
  219.11296 20.0 0
  221.08461 20.0 0
  221.11679 28.0 0
  221.12595 67.0 1
  221.13548 28.0 0
  222.13106 21.0 0
  223.13483 47.0 1
  224.11629 20.0 0
  225.11917 20.0 0
  227.99423 17.0 0
  230.11446 34.0 1
  230.32204 20.0 0
  231.11841 40.0 1
  232.13478 17.0 0
  233.12413 17.0 0
  233.39267 19.0 0
  234.35493 24.0 0
  235.12679 66.0 1
  235.14969 17.0 0
  237.14415 18.0 0
  237.16464 23.0 0
  238.16876 39.0 1
  239.43666 19.0 0
  241.38834 22.0 0
  243.08047 20.0 0
  246.39191 17.0 0
  246.63136 24.0 0
  247.11691 20.0 0
  248.14337 198.0 4
  248.16144 33.0 1
  249.14073 40.0 1
  249.15445 92.0 2
  251.15564 21.0 0
  252.13934 21.0 0
  253.75323 20.0 0
  254.19475 65.0 1
  254.20741 22.0 0
  254.65701 17.0 0
  254.98048 17.0 0
  255.19295 24.0 0
  258.85773 31.0 1
  259.14401 20.0 0
  260.90524 24.0 0
  261.75931 32.0 1
  263.12186 17.0 0
  263.16684 46.0 1
  263.17563 143.0 3
  264.1153 17.0 0
  264.15396 47.0 1
  264.17603 2193.0 39
  264.22482 17.0 0
  265.14343 19.0 0
  265.17383 267.0 5
  265.18427 316.0 6
  265.24356 17.0 0
  265.31491 29.0 1
  265.3493 18.0 0
  266.14749 17.0 0
  266.17407 41.0 1
  266.1911 20.0 0
  266.29102 17.0 0
  266.40375 18.0 0
  266.84402 20.0 0
  268.16428 29.0 1
  269.14264 18.0 0
  269.60687 20.0 0
  270.44781 49.0 1
  271.45816 17.0 0
  271.80878 24.0 0
  274.14185 21.0 0
  274.15854 37.0 1
  274.68488 18.0 0
  275.17157 30.0 1
  277.13599 103.0 2
  277.15063 18.0 0
  278.1333 20.0 0
  279.98541 21.0 0
  280.21234 45.0 1
  282.18546 303.0 5
  283.18524 41.0 1
  283.54987 20.0 0
  286.68896 22.0 0
  287.65186 18.0 0
  288.2933 37.0 1
  291.16873 17.0 0
  291.27527 24.0 0
  292.06308 17.0 0
  292.11139 24.0 0
  292.13275 123.0 2
  292.17053 5711.0 101
  292.20651 23.0 0
  292.3176 21.0 0
  292.75238 20.0 0
  292.91714 20.0 0
  292.94522 22.0 0
  293.01892 17.0 0
  293.15082 69.0 1
  293.17551 1284.0 23
  293.61444 20.0 0
  294.16501 66.0 1
  294.17642 87.0 2
  294.18811 53.0 1
  294.31992 19.0 0
  294.66025 26.0 0
  294.86719 20.0 0
  294.96732 25.0 0
  295.18097 22.0 0
  295.57358 23.0 0
  303.76016 19.0 0
  306.14172 20.0 0
  308.15356 20.0 0
  308.68732 17.0 0
  308.75287 18.0 0
  309.12964 17.0 0
  310.13315 66.0 1
  310.16074 92.0 2
  310.18268 715.0 13
  310.19943 71.0 1
  311.07269 18.0 0
  311.15253 22.0 0
  311.18759 145.0 3
  312.18631 46.0 1
  315.02512 17.0 0
  318.76901 18.0 0
  319.11728 20.0 0
  320.7468 21.0 0
  323.16895 28.0 0
  323.18716 297.0 5
  323.31992 17.0 0
  323.65503 17.0 0
  324.09311 17.0 0
  324.14465 20.0 0
  324.18753 209.0 4
  324.19873 568.0 10
  324.21152 139.0 2
  324.233 33.0 1
  324.5206 17.0 0
  324.60431 18.0 0
  325.2001 151.0 3
  325.6687 18.0 0
  326.1886 28.0 0
  326.20648 28.0 0
  326.21573 18.0 0
  326.75125 25.0 0
  327.95212 20.0 0
  328.13095 18.0 0
  328.14709 28.0 0
  328.19312 1535.0 27
  329.19443 387.0 7
  329.21423 17.0 0
  329.23724 17.0 0
  330.19675 116.0 2
  331.02179 17.0 0
  331.18948 18.0 0
  331.93793 26.0 0
  334.1058 29.0 1
  334.18265 17.0 0
  341.79681 20.0 0
  347.68063 21.0 0
  349.20355 32.0 1
  351.6756 18.0 0
  351.75595 36.0 1
  352.04758 20.0 0
  352.08121 42.0 1
  352.10623 17.0 0
  352.19019 1696.0 30
  352.25067 22.0 0
  352.64319 18.0 0
  353.17175 94.0 2
  353.19958 192.0 3
  353.21411 44.0 1
  353.23816 24.0 0
  353.7709 19.0 0
  353.93417 20.0 0
  353.9566 22.0 0
  354.19595 40.0 1
  354.21371 20.0 0
  354.85526 24.0 0
  357.73468 19.0 0
  360.04218 39.0 1
  364.09625 28.0 0
  364.4184 23.0 0
  365.57193 23.0 0
  368.21613 26.0 0
  370.18228 21.0 0
  370.1915 65.0 1
  370.21567 68.0 1
  370.24969 20.0 0
  371.20447 27.0 0
  372.19177 24.0 0
  372.20956 18.0 0
  378.29095 31.0 1
  379.23474 18.0 0
  379.63242 17.0 0
  379.77216 22.0 0
  380.55109 18.0 0
  380.84512 17.0 0
  381.52475 17.0 0
  383.37326 17.0 0
  385.00854 18.0 0
  385.09396 33.0 1
  385.92969 18.0 0
  387.6922 19.0 0
  387.80957 20.0 0
  387.82147 17.0 0
  387.87366 19.0 0
  388.03604 18.0 0
  388.05048 21.0 0
  388.0726 21.0 0
  388.09921 44.0 1
  388.14084 120.0 2
  388.1622 249.0 4
  388.21219 56472.0 999
  388.26837 1252.0 22
  388.32288 52.0 1
  388.34958 17.0 0
  388.38571 17.0 0
//
