ACCESSION: MSBNK-RIKEN-PR040226
RECORD_TITLE: 3,4-Dimethoxycinnamic acid; LC-ESI-QTOF; MS2; CE:Ramp 5-60 V; [M+H]+
DATE: 2016.01.19 (Created 2008.03.03, modified 2011.05.06)
AUTHORS: Matsuda F, Plant Science Center, RIKEN.
LICENSE: CC BY-SA
CH$NAME: 3,4-Dimethoxycinnamic acid
CH$NAME: Dimethyl caffeic acid
CH$NAME: (E)-3-(3,4-dimethoxyphenyl)prop-2-enoic acid
CH$COMPOUND_CLASS: Natural Product
CH$FORMULA: C11H12O4
CH$EXACT_MASS: 208.07356
CH$SMILES: COc(c1)c(OC)cc(C=CC(O)=O)c1
CH$IUPAC: InChI=1S/C11H12O4/c1-14-9-5-3-8(4-6-11(12)13)7-10(9)15-2/h3-7H,1-2H3,(H,12,13)/b6-4+
CH$LINK: CAS 2316-26-9
CH$LINK: PUBCHEM CID:717531
CH$LINK: INCHIKEY HJBWJAPEBGSQPR-GQCTYLIASA-N
AC$INSTRUMENT: UPLC Q-Tof Premier, Waters
AC$INSTRUMENT_TYPE: LC-ESI-QTOF
AC$MASS_SPECTROMETRY: MS_TYPE MS2
AC$MASS_SPECTROMETRY: ION_MODE POSITIVE
AC$MASS_SPECTROMETRY: COLLISION_ENERGY Ramp 5-60 V
AC$MASS_SPECTROMETRY: DATAFORMAT Continuum
AC$MASS_SPECTROMETRY: DESOLVATION_GAS_FLOW 600.0 L/Hr
AC$MASS_SPECTROMETRY: DESOLVATION_TEMPERATURE 400 C
AC$MASS_SPECTROMETRY: FRAGMENTATION_METHOD LOW-ENERGY CID
AC$MASS_SPECTROMETRY: IONIZATION ESI
AC$MASS_SPECTROMETRY: SCANNING 1.0 sec/scan (m/z = 50-1000)
AC$MASS_SPECTROMETRY: SOURCE_TEMPERATURE 120 C
AC$CHROMATOGRAPHY: CAPILLARY_VOLTAGE 3.0 kV
AC$CHROMATOGRAPHY: SAMPLING_CONE 23.0 V
AC$CHROMATOGRAPHY: SOLVENT A CH3CN(0.1%HCOOH)
AC$CHROMATOGRAPHY: SOLVENT B H2O(0.1%HCOOH)
MS$FOCUSED_ION: FULL_SCAN_FRAGMENT_ION_PEAK 209.1
MS$FOCUSED_ION: ION_TYPE [M+H]+
MS$DATA_PROCESSING: WHOLE MassLynx 4.1
PK$SPLASH: splash10-0006-0900000000-c0812e599929d0f5cba2
PK$NUM_PEAK: 29
PK$PEAK: m/z int. rel.int.
  77.0389 1178 48
  79.0545 605.9 25
  89.0388 1009 41
  90.0465 511 21
  91.0544 2906 120
  91.1048 549.2 22
  102.0466 948.2 39
  103.0546 1418 58
  105.0338 1394 57
  105.0704 744.9 30
  117.0338 693.4 28
  118.0418 1001 41
  119.0496 2578 106
  120.0574 1335 55
  132.0575 2564 106
  133.0289 2040 84
  133.0650 712.5 29
  147.0449 1294 53
  148.0525 4448 184
  148.1167 696.5 28
  160.0530 1065 44
  163.0759 7623 315
  163.1437 1296 53
  176.0477 1346 55
  191.0701 24120 999
  191.1441 4741 196
  191.2828 1270 52
  192.0748 1092 45
  209.0814 958.8 39
//
