ACCESSION: MSBNK-RIKEN-PR310636
RECORD_TITLE: Isotalatizidine; LC-ESI-QTOF; MS2
DATE: 2019.03.28
AUTHORS: Tetsuya Mori, Center for Sustainable Resource Science, RIKEN
LICENSE: CC BY-NC-SA
PUBLICATION: Tsugawa H., Nakabayashi R., Mori T., Yamada Y., Takahashi M., Rai A., Sugiyama R., Yamamoto H., Nakaya T., Yamazaki M., Kooke R., Bac-Molenaar JA., Oztolan-Erol N., Keurentjes JJB., Arita M., Saito K. (2019) "A cheminformatics approach to characterize metabolomes in stable-isotope-labeled organisms" Nature Methods 16(4):295-298. [doi:10.1038/s41592-019-0358-2]
COMMENT: Annotation level-1
CH$NAME: Isotalatizidine
CH$COMPOUND_CLASS: Alkaloids
CH$FORMULA: C23H37NO5
CH$EXACT_MASS: 407.551
CH$SMILES: CCN1CC2(COC)CCC(O)C34C5CC6C(O)C5C(O)(CC6OC)C(CC23)C14
CH$IUPAC: InChI=1S/C23H37NO5/c1-4-24-10-21(11-28-2)6-5-17(25)23-13-7-12-15(29-3)9-22(27,18(13)19(12)26)14(20(23)24)8-16(21)23/h12-20,25-27H,4-11H2,1-3H3
CH$LINK: INCHIKEY RBSZCNOWHDHRFZ-UHFFFAOYSA-N
AC$INSTRUMENT: LC, Waters Acquity UPLC System; MS, Waters Xevo G2 Q-Tof
AC$INSTRUMENT_TYPE: LC-ESI-QTOF
AC$MASS_SPECTROMETRY: MS_TYPE MS2
AC$MASS_SPECTROMETRY: ION_MODE POSITIVE
AC$MASS_SPECTROMETRY: COLLISION_ENERGY 6V
AC$MASS_SPECTROMETRY: DESOLVATION_GAS_FLOW 800/h
AC$MASS_SPECTROMETRY: DESOLVATION_TEMPERATURE 450 C
AC$MASS_SPECTROMETRY: IONIZATION ESI
AC$CHROMATOGRAPHY: CAPILLARY_VOLTAGE +3.00 kV
AC$CHROMATOGRAPHY: COLUMN_NAME Acquity bridged ethyl hybrid C18 (1.7 um, 2.1 mm * 100 mm, Waters)
AC$CHROMATOGRAPHY: COLUMN_TEMPERATURE 40 C
AC$CHROMATOGRAPHY: FLOW_GRADIENT A/B = (99.5%/0.5% at 0 min, 99.5%/0.5% at 0.1 min, 20%/80% at 10 min, 0.5%/99.5% at 10.1 min, 0.5%/99.5% at 12.0 min, 99.5%/0.5% at 12.1 min, 99.5%/0.5% at 15.0 min)
AC$CHROMATOGRAPHY: FLOW_RATE 0.3 ml/min at 0 min, 0.3 ml/min at 10 min, 0.4 ml/min at 10.1 min, 0.4 ml/min at 14.4 min, 0.3 ml/min at 14.5 min
AC$CHROMATOGRAPHY: RETENTION_TIME 2.91
AC$CHROMATOGRAPHY: SOLVENT A water including 0.1% formic acid
AC$CHROMATOGRAPHY: SOLVENT B acetonitrile including 0.1% formic acid
MS$FOCUSED_ION: PRECURSOR_TYPE [M+H]+
MS$FOCUSED_ION: PRECURSOR_M/Z 408.27445
PK$SPLASH: splash10-0a4i-0102900000-7576a460999401853a76
PK$NUM_PEAK: 577
PK$PEAK: m/z int. rel.int.
  56.05008 21.0 0
  58.05391 24.0 0
  58.06651 285.0 4
  58.92325 33.0 0
  59.06769 22.0 0
  62.67153 18.0 0
  63.22071 17.0 0
  66.37584 18.0 0
  71.0127 26.0 0
  71.04167 29.0 0
  71.05196 17.0 0
  72.06542 30.0 0
  72.08252 244.0 3
  79.05624 20.0 0
  80.05034 48.0 1
  83.05 25.0 0
  84.07742 31.0 0
  84.0816 76.0 1
  85.06658 26.0 0
  91.05157 18.0 0
  93.06959 37.0 0
  94.07407 55.0 1
  94.63499 40.0 1
  98.09775 767.0 10
  99.01864 22.0 0
  99.10152 62.0 1
  99.15012 18.0 0
  100.21516 25.0 0
  100.54924 21.0 0
  102.08369 28.0 0
  102.09766 97.0 1
  103.03951 60.0 1
  103.04429 46.0 1
  105.06998 92.0 1
  107.08199 27.0 0
  108.08259 402.0 5
  109.06356 51.0 1
  109.08156 27.0 0
  109.08925 62.0 1
  110.09753 39.0 0
  111.23395 17.0 0
  112.07064 25.0 0
  112.1006 75.0 1
  116.10973 23.0 0
  117.0676 77.0 1
  117.07272 48.0 1
  119.05688 33.0 0
  119.08477 137.0 2
  119.09138 43.0 1
  121.05396 21.0 0
  121.06892 27.0 0
  122.05974 26.0 0
  122.07433 18.0 0
  122.10064 118.0 2
  123.03632 29.0 0
  123.04107 64.0 1
  123.04933 28.0 0
  123.08127 27.0 0
  123.09492 23.0 0
  124.08484 26.0 0
  124.10324 28.0 0
  124.11135 70.0 1
  125.05095 23.0 0
  125.09782 57.0 1
  125.23336 21.0 0
  127.03949 24.0 0
  128.11279 45.0 1
  129.02686 31.0 0
  129.06476 97.0 1
  129.07277 72.0 1
  130.06808 23.0 0
  131.08505 211.0 3
  131.73093 18.0 0
  132.08566 37.0 0
  132.09029 94.0 1
  133.06773 33.0 0
  133.09122 31.0 0
  133.09738 40.0 1
  133.10471 38.0 0
  133.66417 24.0 0
  134.57777 19.0 0
  134.73807 20.0 0
  135.07838 42.0 1
  136.10139 33.0 0
  137.05971 78.0 1
  138.06224 24.0 0
  139.00046 20.0 0
  139.09021 21.0 0
  140.10269 40.0 1
  140.11856 33.0 0
  141.05348 20.0 0
  141.0699 70.0 1
  141.10956 49.0 1
  142.07533 134.0 2
  143.0802 75.0 1
  143.08803 86.0 1
  144.08713 46.0 1
  145.09583 55.0 1
  145.10196 151.0 2
  146.06468 17.0 0
  146.10172 20.0 0
  146.10893 55.0 1
  147.08296 32.0 0
  147.11441 25.0 0
  148.10509 55.0 1
  148.13206 29.0 0
  149.0965 25.0 0
  151.07288 48.0 1
  151.08186 47.0 1
  151.13142 21.0 0
  152.09691 30.0 0
  153.10324 29.0 0
  153.1218 27.0 0
  154.08553 19.0 0
  154.12167 264.0 3
  154.12955 93.0 1
  154.56857 41.0 1
  155.07822 72.0 1
  155.09206 213.0 3
  155.12642 49.0 1
  156.08597 17.0 0
  156.13071 67.0 1
  156.14285 76.0 1
  156.14767 33.0 0
  157.09319 100.0 1
  157.10521 50.0 1
  157.85826 18.0 0
  158.09421 23.0 0
  158.10893 36.0 0
  159.063 36.0 0
  159.08145 54.0 1
  159.09149 30.0 0
  159.10153 26.0 0
  159.121 91.0 1
  160.0713 33.0 0
  160.11113 34.0 0
  160.12267 21.0 0
  160.16599 34.0 0
  161.09392 30.0 0
  162.09824 24.0 0
  162.11745 17.0 0
  162.12796 19.0 0
  162.94858 52.0 1
  163.08475 34.0 0
  165.07051 37.0 0
  165.07965 27.0 0
  166.12836 21.0 0
  166.9178 17.0 0
  167.05412 20.0 0
  167.08411 186.0 2
  167.09242 67.0 1
  168.08873 52.0 1
  168.09898 36.0 0
  169.10449 267.0 3
  170.08919 20.0 0
  170.10538 30.0 0
  170.11546 23.0 0
  171.08151 98.0 1
  171.11771 42.0 1
  172.11298 24.0 0
  173.07895 33.0 0
  173.09694 39.0 0
  173.11926 93.0 1
  174.12946 81.0 1
  175.11716 21.0 0
  176.11404 25.0 0
  176.14355 144.0 2
  178.0787 47.0 1
  179.08118 60.0 1
  179.09097 134.0 2
  181.09941 319.0 4
  182.10052 27.0 0
  182.11514 50.0 1
  183.00998 17.0 0
  183.1114 98.0 1
  183.12178 108.0 1
  184.0891 21.0 0
  184.11365 35.0 0
  185.07884 32.0 0
  185.09111 111.0 1
  185.11984 29.0 0
  185.13947 17.0 0
  186.13483 17.0 0
  187.07817 36.0 0
  187.10785 49.0 1
  187.11745 26.0 0
  187.13461 18.0 0
  187.15715 18.0 0
  188.145 29.0 0
  188.1559 22.0 0
  189.12535 32.0 0
  189.13812 60.0 1
  189.16205 28.0 0
  190.15593 21.0 0
  191.09007 44.0 1
  191.13568 20.0 0
  191.15768 26.0 0
  192.08383 18.0 0
  192.09737 64.0 1
  192.12854 22.0 0
  192.14546 23.0 0
  193.09898 96.0 1
  194.07057 17.0 0
  194.09612 23.0 0
  194.10512 43.0 1
  195.10359 25.0 0
  195.12009 182.0 2
  196.11981 25.0 0
  197.09366 86.0 1
  197.10211 28.0 0
  197.11536 53.0 1
  197.12672 171.0 2
  197.13721 208.0 3
  198.12613 56.0 1
  198.13673 26.0 0
  199.11728 19.0 0
  199.12604 39.0 0
  199.13657 39.0 0
  199.14322 29.0 0
  200.14279 21.0 0
  201.13754 17.0 0
  201.18051 21.0 0
  201.4124 34.0 0
  202.07539 28.0 0
  202.16743 32.0 0
  203.08253 33.0 0
  203.10632 69.0 1
  203.15686 21.0 0
  204.09436 40.0 1
  204.94862 24.0 0
  205.09198 17.0 0
  205.10101 47.0 1
  205.15642 20.0 0
  205.17647 36.0 0
  206.11661 85.0 1
  206.15436 22.0 0
  207.1042 17.0 0
  207.11658 74.0 1
  207.12589 66.0 1
  208.09222 33.0 0
  208.11815 23.0 0
  209.1021 122.0 2
  209.13196 123.0 2
  209.13821 60.0 1
  210.14003 58.0 1
  211.11824 20.0 0
  211.12712 20.0 0
  212.12302 33.0 0
  212.1315 19.0 0
  212.52792 24.0 0
  212.84094 18.0 0
  212.95975 26.0 0
  213.08734 27.0 0
  213.12814 22.0 0
  213.15202 30.0 0
  213.3114 27.0 0
  213.89688 33.0 0
  214.17999 25.0 0
  214.7469 23.0 0
  215.08049 23.0 0
  215.14764 25.0 0
  216.09418 29.0 0
  216.11693 24.0 0
  217.02951 23.0 0
  217.10274 27.0 0
  217.1292 23.0 0
  217.13786 19.0 0
  218.11317 23.0 0
  218.16202 23.0 0
  219.07741 21.0 0
  219.1057 34.0 0
  219.12337 25.0 0
  219.16325 22.0 0
  220.86191 18.0 0
  221.07596 30.0 0
  221.12924 96.0 1
  221.13782 80.0 1
  221.8593 20.0 0
  222.12367 20.0 0
  222.18442 21.0 0
  223.13127 33.0 0
  223.14998 74.0 1
  224.14447 22.0 0
  225.11427 38.0 0
  225.12959 88.0 1
  225.14131 60.0 1
  225.15297 31.0 0
  225.17131 29.0 0
  226.1217 22.0 0
  226.1335 63.0 1
  227.1116 24.0 0
  227.14664 45.0 1
  227.16525 34.0 0
  228.14427 23.0 0
  228.30576 21.0 0
  229.10634 21.0 0
  229.14301 23.0 0
  229.15991 53.0 1
  230.62959 17.0 0
  232.09265 27.0 0
  232.17538 33.0 0
  233.12549 46.0 1
  233.13658 147.0 2
  233.76071 22.0 0
  234.13892 19.0 0
  234.383 19.0 0
  235.06332 27.0 0
  235.10794 28.0 0
  235.14883 169.0 2
  235.46286 18.0 0
  235.87268 21.0 0
  236.14458 59.0 1
  236.15971 28.0 0
  237.10138 22.0 0
  237.14175 17.0 0
  237.1646 41.0 1
  239.14075 25.0 0
  239.16264 21.0 0
  240.21843 27.0 0
  241.12866 22.0 0
  242.1017 20.0 0
  242.1655 27.0 0
  243.14093 102.0 1
  244.52423 26.0 0
  245.12753 62.0 1
  245.14352 60.0 1
  246.14005 48.0 1
  247.13618 17.0 0
  247.16508 22.0 0
  247.20047 21.0 0
  248.15132 27.0 0
  248.37277 30.0 0
  250.18037 30.0 0
  251.14311 169.0 2
  251.16026 25.0 0
  252.14685 31.0 0
  252.16006 27.0 0
  252.18256 26.0 0
  253.14253 19.0 0
  253.15588 61.0 1
  253.19156 19.0 0
  253.97751 21.0 0
  254.15302 21.0 0
  254.16345 18.0 0
  255.16513 23.0 0
  255.174 44.0 1
  255.2485 24.0 0
  256.21213 21.0 0
  256.48071 17.0 0
  257.15149 68.0 1
  257.16223 100.0 1
  257.17645 22.0 0
  257.29718 20.0 0
  258.12103 47.0 1
  259.57675 25.0 0
  259.7536 28.0 0
  259.97925 17.0 0
  260.36551 21.0 0
  261.15189 85.0 1
  261.16165 28.0 0
  261.60379 29.0 0
  262.15652 24.0 0
  262.95767 25.0 0
  265.1575 125.0 2
  265.16748 44.0 1
  266.1492 26.0 0
  266.17566 17.0 0
  266.79694 17.0 0
  267.12552 18.0 0
  267.14761 85.0 1
  267.1734 29.0 0
  268.13892 19.0 0
  269.1517 65.0 1
  269.17792 36.0 0
  270.30762 26.0 0
  271.16293 20.0 0
  271.62399 18.0 0
  272.19052 35.0 0
  272.27258 19.0 0
  272.52573 48.0 1
  272.81769 43.0 1
  273.14651 68.0 1
  273.16879 36.0 0
  273.48981 20.0 0
  275.17743 24.0 0
  275.19443 17.0 0
  276.94949 22.0 0
  277.21426 38.0 0
  279.11871 20.0 0
  279.17529 85.0 1
  280.17249 31.0 0
  280.18677 25.0 0
  280.8649 24.0 0
  281.13699 24.0 0
  281.15573 18.0 0
  281.1911 21.0 0
  282.14969 54.0 1
  282.83932 18.0 0
  283.10312 25.0 0
  283.1691 94.0 1
  284.16083 20.0 0
  284.17218 39.0 0
  284.59146 41.0 1
  284.79504 29.0 0
  285.17538 37.0 0
  285.18588 51.0 1
  286.18143 19.0 0
  289.18341 28.0 0
  291.82605 21.0 0
  292.83136 37.0 0
  293.18665 20.0 0
  294.16812 30.0 0
  295.16077 19.0 0
  295.17484 17.0 0
  295.21707 21.0 0
  296.13788 27.0 0
  296.21313 24.0 0
  296.8317 20.0 0
  297.17496 29.0 0
  297.1918 53.0 1
  298.21823 109.0 1
  300.21228 32.0 0
  301.18152 19.0 0
  301.5607 27.0 0
  301.60794 45.0 1
  302.21259 20.0 0
  302.60379 21.0 0
  307.19376 20.0 0
  307.55743 19.0 0
  308.19696 83.0 1
  308.21078 19.0 0
  309.19669 18.0 0
  311.20718 20.0 0
  311.47491 39.0 0
  312.18622 63.0 1
  312.20914 57.0 1
  313.19992 70.0 1
  314.20856 29.0 0
  315.19101 46.0 1
  315.20557 26.0 0
  317.70807 18.0 0
  319.89725 39.0 0
  322.23318 21.0 0
  326.20062 125.0 2
  326.21249 79.0 1
  326.4469 25.0 0
  326.73367 35.0 0
  327.19415 64.0 1
  327.21603 116.0 1
  328.13815 24.0 0
  328.18158 23.0 0
  329.21274 37.0 0
  329.94617 25.0 0
  330.19885 54.0 1
  330.25439 27.0 0
  331.24188 58.0 1
  331.24997 26.0 0
  331.77301 27.0 0
  332.5368 33.0 0
  334.24402 19.0 0
  334.93228 20.0 0
  335.96338 28.0 0
  338.19986 18.0 0
  340.19049 24.0 0
  340.20798 113.0 1
  340.23291 385.0 5
  341.22787 69.0 1
  341.24423 24.0 0
  341.32166 20.0 0
  343.1084 17.0 0
  343.20697 24.0 0
  344.22168 79.0 1
  344.2373 43.0 1
  345.22534 55.0 1
  345.24472 27.0 0
  346.23483 19.0 0
  346.6044 23.0 0
  358.20844 21.0 0
  358.24002 1379.0 18
  359.07266 22.0 0
  359.13831 18.0 0
  359.23132 131.0 2
  359.25583 65.0 1
  359.77448 38.0 0
  360.25278 64.0 1
  360.27936 30.0 0
  360.46628 37.0 0
  361.3649 18.0 0
  362.22983 170.0 2
  362.25778 21.0 0
  363.21347 31.0 0
  363.224 25.0 0
  363.25443 25.0 0
  363.74823 20.0 0
  363.76767 36.0 0
  364.56299 33.0 0
  365.80676 27.0 0
  367.21707 47.0 1
  370.24255 41.0 1
  372.18634 42.0 1
  372.25696 776.0 10
  372.61752 26.0 0
  373.23395 25.0 0
  373.25766 201.0 3
  373.26871 60.0 1
  376.45325 22.0 0
  377.03073 32.0 0
  378.49057 22.0 0
  378.71317 21.0 0
  381.54965 25.0 0
  386.20068 17.0 0
  386.51428 17.0 0
  388.26056 39.0 0
  389.18182 17.0 0
  389.35147 17.0 0
  389.67068 17.0 0
  389.72458 25.0 0
  389.9913 25.0 0
  390.00885 18.0 0
  390.11084 17.0 0
  390.15155 18.0 0
  390.20233 56.0 1
  390.21313 47.0 1
  390.2644 10371.0 132
  390.31009 40.0 1
  390.32516 34.0 0
  390.58258 25.0 0
  390.59872 18.0 0
  390.63116 18.0 0
  390.88235 18.0 0
  390.91553 19.0 0
  391.02051 67.0 1
  391.09152 25.0 0
  391.11383 36.0 0
  391.17841 74.0 1
  391.22278 65.0 1
  391.26477 2877.0 37
  391.31604 28.0 0
  391.37253 25.0 0
  392.04095 17.0 0
  392.19504 21.0 0
  392.24527 66.0 1
  392.26471 251.0 3
  392.27814 382.0 5
  392.29999 21.0 0
  392.42203 21.0 0
  393.272 90.0 1
  394.29291 25.0 0
  395.3013 17.0 0
  395.67984 19.0 0
  396.25388 21.0 0
  398.77533 24.0 0
  399.14444 34.0 0
  400.40656 20.0 0
  400.62012 19.0 0
  400.9805 17.0 0
  401.23373 18.0 0
  401.80026 19.0 0
  402.90973 18.0 0
  405.33466 18.0 0
  405.43851 26.0 0
  406.17648 17.0 0
  406.25058 41.0 1
  407.23291 37.0 0
  407.28259 33.0 0
  407.65408 19.0 0
  407.87756 19.0 0
  407.97424 24.0 0
  408.00189 85.0 1
  408.16583 59.0 1
  408.19159 355.0 5
  408.21997 433.0 6
  408.2739 78481.0 999
  408.33252 2122.0 27
  408.38239 163.0 2
  408.41101 27.0 0
  408.42712 17.0 0
//
