ACCESSION: MSBNK-RIKEN-PR305630
RECORD_TITLE: Kaempferol-3-O-galactoside-7-O-rhamnoside; LC-ESI-QTOF; MS2
DATE: 2019.03.28
AUTHORS: Tetsuya Mori, Center for Sustainable Resource Science, RIKEN
LICENSE: CC BY-NC-SA
PUBLICATION: Tsugawa H., Nakabayashi R., Mori T., Yamada Y., Takahashi M., Rai A., Sugiyama R., Yamamoto H., Nakaya T., Yamazaki M., Kooke R., Bac-Molenaar JA., Oztolan-Erol N., Keurentjes JJB., Arita M., Saito K. (2019) "A cheminformatics approach to characterize metabolomes in stable-isotope-labeled organisms" Nature Methods 16(4):295-298. [doi:10.1038/s41592-019-0358-2]
COMMENT: registered in RIKEN PlaSMA
CH$NAME: Kaempferol-3-O-galactoside-7-O-rhamnoside
CH$COMPOUND_CLASS: Flavonoid-7-O-glycosides
CH$FORMULA: C27H30O15
CH$EXACT_MASS: 594.522
CH$SMILES: CC1OC(OC2=CC(O)=C3C(=O)C(OC4OC(CO)C(O)C(O)C4O)=C(OC3=C2)C2=CC=C(O)C=C2)C(O)C(O)C1O
CH$IUPAC: InChI=1S/C27H30O15/c1-9-17(31)20(34)22(36)26(38-9)39-12-6-13(30)16-14(7-12)40-24(10-2-4-11(29)5-3-10)25(19(16)33)42-27-23(37)21(35)18(32)15(8-28)41-27/h2-7,9,15,17-18,20-23,26-32,34-37H,8H2,1H3
CH$LINK: INCHIKEY JYXSWDCPHRTYGU-UHFFFAOYSA-N
AC$INSTRUMENT: LC, Waters Acquity UPLC System; MS, Waters Xevo G2 Q-Tof
AC$INSTRUMENT_TYPE: LC-ESI-QTOF
AC$MASS_SPECTROMETRY: MS_TYPE MS2
AC$MASS_SPECTROMETRY: ION_MODE NEGATIVE
AC$MASS_SPECTROMETRY: COLLISION_ENERGY 6V
AC$MASS_SPECTROMETRY: DESOLVATION_GAS_FLOW 800/h
AC$MASS_SPECTROMETRY: DESOLVATION_TEMPERATURE 450 C
AC$MASS_SPECTROMETRY: IONIZATION ESI
AC$CHROMATOGRAPHY: CAPILLARY_VOLTAGE -2.75 kV
AC$CHROMATOGRAPHY: COLUMN_NAME Acquity bridged ethyl hybrid C18 (1.7 um, 2.1 mm * 100 mm, Waters)
AC$CHROMATOGRAPHY: COLUMN_TEMPERATURE 40 C
AC$CHROMATOGRAPHY: FLOW_GRADIENT A/B = (99.5%/0.5% at 0 min, 99.5%/0.5% at 0.1 min, 20%/80% at 10 min, 0.5%/99.5% at 10.1 min, 0.5%/99.5% at 12.0 min, 99.5%/0.5% at 12.1 min, 99.5%/0.5% at 15.0 min)
AC$CHROMATOGRAPHY: FLOW_RATE 0.3 ml/min at 0 min, 0.3 ml/min at 10 min, 0.4 ml/min at 10.1 min, 0.4 ml/min at 14.4 min, 0.3 ml/min at 14.5 min
AC$CHROMATOGRAPHY: RETENTION_TIME 3.5989
AC$CHROMATOGRAPHY: SOLVENT A water including 0.1% formic acid
AC$CHROMATOGRAPHY: SOLVENT B acetonitrile including 0.1% formic acid
MS$FOCUSED_ION: PRECURSOR_TYPE [M-H]-
MS$FOCUSED_ION: PRECURSOR_M/Z 593.15119384783
PK$SPLASH: splash10-053r-0090000000-789c9485931814339e36
PK$NUM_PEAK: 62
PK$PEAK: m/z int. rel.int.
  65.0042 7.0 7
  85.02872 9.0 9
  93.03215 6.0 6
  107.01225 22.0 22
  109.30087 5.0 5
  131.04767 11.0 11
  137.02647 5.0 5
  139.96538 9.0 9
  147.94798 8.0 8
  151.00067 15.0 15
  151.00658 11.0 11
  155.04723 13.0 13
  159.04065 6.0 6
  159.04793 6.0 6
  162.00392 6.0 6
  163.00275 11.0 11
  164.98131 5.0 5
  167.54843 7.0 7
  169.0592 16.0 16
  170.06595 7.0 7
  173.02982 14.0 14
  178.99466 12.0 12
  182.03526 5.0 5
  183.04469 39.0 39
  185.01839 8.0 8
  185.0591 19.0 19
  189.05475 9.0 9
  197.05008 6.0 6
  199.03557 11.0 11
  199.04893 5.0 5
  201.05592 15.0 15
  210.03046 10.0 10
  211.04233 19.0 19
  212.31288 6.0 6
  213.04872 33.0 33
  214.02425 19.0 19
  215.03812 5.0 5
  215.058 6.0 6
  216.27986 6.0 6
  226.02957 7.0 7
  227.01419 6.0 6
  227.03088 119.0 119
  228.03072 10.0 10
  228.04124 12.0 12
  229.04875 23.0 23
  239.03073 10.0 10
  243.02985 10.0 10
  244.03024 5.0 5
  244.04471 6.0 6
  247.35724 6.0 6
  255.02899 699.0 698
  256.03189 107.0 107
  256.50058 6.0 6
  257.03674 28.0 28
  257.05026 13.0 13
  258.04135 6.0 6
  281.61136 6.0 6
  283.02396 1000.0 999
  284.02887 194.0 194
  284.04691 5.0 5
  285.0405 321.0 321
  286.04352 77.0 77
//
