ACCESSION: MSBNK-RIKEN-PR303822
RECORD_TITLE: Ginkgolide B; LC-ESI-QTOF; MS2
DATE: 2019.03.28
AUTHORS: Tetsuya Mori, Center for Sustainable Resource Science, RIKEN
LICENSE: CC BY-NC-SA
PUBLICATION: Tsugawa H., Nakabayashi R., Mori T., Yamada Y., Takahashi M., Rai A., Sugiyama R., Yamamoto H., Nakaya T., Yamazaki M., Kooke R., Bac-Molenaar JA., Oztolan-Erol N., Keurentjes JJB., Arita M., Saito K. (2019) "A cheminformatics approach to characterize metabolomes in stable-isotope-labeled organisms" Nature Methods 16(4):295-298. [doi:10.1038/s41592-019-0358-2]
COMMENT: registered in RIKEN PlaSMA
CH$NAME: Ginkgolide B
CH$COMPOUND_CLASS: Ginkgolides and bilobalides
CH$FORMULA: C20H24O10
CH$EXACT_MASS: 424.402
CH$SMILES: C[C@@H]1C(=O)O[C@H]2[C@H](O)[C@@]34[C@H]5C[C@@H](C(C)(C)C)[C@@]33[C@@H](O)C(=O)O[C@H]3O[C@@]4(C(=O)O5)[C@@]12O
CH$IUPAC: InChI=1S/C20H24O10/c1-6-12(23)28-11-9(21)18-8-5-7(16(2,3)4)17(18)10(22)13(24)29-15(17)30-20(18,14(25)27-8)19(6,11)26/h6-11,15,21-22,26H,5H2,1-4H3/t6-,7+,8-,9+,10+,11+,15+,17+,18+,19-,20-/m1/s1
CH$LINK: INCHIKEY SQOJOAFXDQDRGF-MMQTXUMRSA-N
AC$INSTRUMENT: LC, Waters Acquity UPLC System; MS, Waters Xevo G2 Q-Tof
AC$INSTRUMENT_TYPE: LC-ESI-QTOF
AC$MASS_SPECTROMETRY: MS_TYPE MS2
AC$MASS_SPECTROMETRY: ION_MODE POSITIVE
AC$MASS_SPECTROMETRY: COLLISION_ENERGY 6V
AC$MASS_SPECTROMETRY: DESOLVATION_GAS_FLOW 800/h
AC$MASS_SPECTROMETRY: DESOLVATION_TEMPERATURE 450 C
AC$MASS_SPECTROMETRY: IONIZATION ESI
AC$CHROMATOGRAPHY: CAPILLARY_VOLTAGE +3.00 kV
AC$CHROMATOGRAPHY: COLUMN_NAME Acquity bridged ethyl hybrid C18 (1.7 um, 2.1 mm * 100 mm, Waters)
AC$CHROMATOGRAPHY: COLUMN_TEMPERATURE 40 C
AC$CHROMATOGRAPHY: FLOW_GRADIENT A/B = (99.5%/0.5% at 0 min, 99.5%/0.5% at 0.1 min, 20%/80% at 10 min, 0.5%/99.5% at 10.1 min, 0.5%/99.5% at 12.0 min, 99.5%/0.5% at 12.1 min, 99.5%/0.5% at 15.0 min)
AC$CHROMATOGRAPHY: FLOW_RATE 0.3 ml/min at 0 min, 0.3 ml/min at 10 min, 0.4 ml/min at 10.1 min, 0.4 ml/min at 14.4 min, 0.3 ml/min at 14.5 min
AC$CHROMATOGRAPHY: RETENTION_TIME 5.359533
AC$CHROMATOGRAPHY: SOLVENT A water including 0.1% formic acid
AC$CHROMATOGRAPHY: SOLVENT B acetonitrile including 0.1% formic acid
MS$FOCUSED_ION: PRECURSOR_TYPE [M+H]+
MS$FOCUSED_ION: PRECURSOR_M/Z 425.1442234
PK$SPLASH: splash10-0a4i-0492000000-8c20ff49908c2cd9eea8
PK$NUM_PEAK: 374
PK$PEAK: m/z int. rel.int.
  61.06279 40.0 40
  69.03659 49.0 49
  69.07436 40.0 40
  83.01398 165.0 165
  83.08665 40.0 40
  87.07746 47.0 47
  94.99254 47.0 47
  95.08137 63.0 63
  95.08674 114.0 114
  101.02368 49.0 49
  107.04872 53.0 53
  109.06319 40.0 40
  111.07754 58.0 58
  111.08362 56.0 56
  112.0868 51.0 51
  113.09251 105.0 105
  113.09786 56.0 56
  115.04314 60.0 60
  115.82993 84.0 84
  118.07413 47.0 47
  119.04963 53.0 53
  121.09969 40.0 40
  129.06813 100.0 100
  130.07382 47.0 47
  133.07257 56.0 56
  137.0593 40.0 40
  137.64029 49.0 49
  139.02945 114.0 114
  139.03777 47.0 47
  141.07138 86.0 86
  143.03561 91.0 91
  143.08212 177.0 177
  144.08736 58.0 58
  145.06575 93.0 93
  145.0764 40.0 40
  145.09549 42.0 42
  145.10443 126.0 126
  147.07909 91.0 91
  147.08734 40.0 40
  147.11465 56.0 56
  148.12634 56.0 56
  149.02779 109.0 109
  149.06689 44.0 44
  151.03957 49.0 49
  153.04033 49.0 49
  154.01418 40.0 40
  155.04672 88.0 88
  155.0851 195.0 195
  156.08836 70.0 70
  157.09703 53.0 53
  157.10457 58.0 58
  159.04134 42.0 42
  159.07565 42.0 42
  159.08348 88.0 88
  159.11174 42.0 42
  159.11803 102.0 102
  161.02495 44.0 44
  161.05801 77.0 77
  161.44398 49.0 49
  163.03851 47.0 47
  163.08745 42.0 42
  165.04849 47.0 47
  166.08086 40.0 40
  169.09473 42.0 42
  169.10617 88.0 88
  169.2117 58.0 58
  169.94789 49.0 49
  171.1312 49.0 49
  172.08664 119.0 119
  173.0578 235.0 235
  173.07593 65.0 65
  173.0943 84.0 84
  173.10378 56.0 56
  174.06566 42.0 42
  175.03029 77.0 77
  175.03938 128.0 128
  175.07063 40.0 40
  175.11543 181.0 181
  177.05548 312.0 312
  177.08012 49.0 49
  178.02628 40.0 40
  181.05179 56.0 56
  183.07414 58.0 58
  183.08682 74.0 74
  183.11662 42.0 42
  184.03545 42.0 42
  184.07755 56.0 56
  185.04729 65.0 65
  185.06416 265.0 265
  185.0946 358.0 358
  185.10397 70.0 70
  185.69455 40.0 40
  186.05716 40.0 40
  186.06534 95.0 95
  187.06071 109.0 109
  187.07845 133.0 133
  187.09627 42.0 42
  187.10963 200.0 200
  188.11115 53.0 53
  189.01659 49.0 49
  189.05957 242.0 242
  189.08618 53.0 53
  190.02264 65.0 65
  190.2057 40.0 40
  191.0334 77.0 77
  191.04448 56.0 56
  191.06447 58.0 58
  191.1111 56.0 56
  193.94347 40.0 40
  194.09727 40.0 40
  195.0164 40.0 40
  195.02774 95.0 95
  195.0799 56.0 56
  195.11482 79.0 79
  195.64536 51.0 51
  196.08356 84.0 84
  197.09476 212.0 212
  197.1064 58.0 58
  198.10255 42.0 42
  199.06786 47.0 47
  199.08516 74.0 74
  199.10828 123.0 123
  199.12247 58.0 58
  199.14944 53.0 53
  200.0446 58.0 58
  201.09071 184.0 184
  201.11774 91.0 91
  201.12732 51.0 51
  203.02986 44.0 44
  203.0706 107.0 107
  205.01614 67.0 67
  205.05241 84.0 84
  205.07825 53.0 53
  205.08769 44.0 44
  205.10495 47.0 47
  205.11815 114.0 114
  206.07851 42.0 42
  207.03522 40.0 40
  207.06451 40.0 40
  207.11031 47.0 47
  207.12802 56.0 56
  209.05186 63.0 63
  209.09769 105.0 105
  209.12503 40.0 40
  210.11089 91.0 91
  211.07361 40.0 40
  211.08139 56.0 56
  211.10696 95.0 95
  212.0752 67.0 67
  212.08586 47.0 47
  213.0479 47.0 47
  213.05827 47.0 47
  213.07675 91.0 91
  213.08781 140.0 140
  213.09753 93.0 93
  213.1071 42.0 42
  213.12244 58.0 58
  213.13196 86.0 86
  214.09053 109.0 109
  215.06798 123.0 123
  215.10463 58.0 58
  215.11598 98.0 98
  215.1389 72.0 72
  216.09341 47.0 47
  216.1098 51.0 51
  217.07967 40.0 40
  217.16963 53.0 53
  218.06369 51.0 51
  218.07259 47.0 47
  218.08784 56.0 56
  219.0649 79.0 79
  219.07693 40.0 40
  219.09747 63.0 63
  219.10519 49.0 49
  221.05299 70.0 70
  223.07027 93.0 93
  223.09924 91.0 91
  223.10855 42.0 42
  224.14731 58.0 58
  225.0882 316.0 316
  225.12292 323.0 323
  226.08937 47.0 47
  227.03387 98.0 98
  227.05135 49.0 49
  227.06635 193.0 193
  227.07587 156.0 156
  227.10153 95.0 95
  228.01274 42.0 42
  228.1411 49.0 49
  228.16182 51.0 51
  229.00026 40.0 40
  229.06216 70.0 70
  229.08063 123.0 123
  229.09393 251.0 251
  230.05429 53.0 53
  230.073 47.0 47
  230.09647 100.0 100
  230.10753 47.0 47
  231.09106 153.0 153
  231.10086 360.0 360
  231.12321 40.0 40
  232.10425 47.0 47
  233.04703 102.0 102
  233.10919 49.0 49
  233.65468 74.0 74
  234.43581 40.0 40
  235.10527 112.0 112
  236.11841 44.0 44
  236.26062 49.0 49
  237.07524 40.0 40
  237.08759 44.0 44
  237.1006 47.0 47
  237.12547 79.0 79
  238.09863 47.0 47
  239.10213 40.0 40
  241.09036 221.0 221
  241.12416 181.0 181
  242.06071 47.0 47
  242.09219 86.0 86
  242.11922 47.0 47
  242.13477 107.0 107
  243.06114 81.0 81
  243.09654 128.0 128
  243.11201 51.0 51
  243.13303 91.0 91
  243.14204 84.0 84
  244.11182 42.0 42
  244.15179 47.0 47
  245.04456 251.0 251
  245.07855 435.0 435
  245.12614 47.0 47
  245.14667 112.0 112
  246.07971 84.0 84
  246.08853 40.0 40
  246.11868 58.0 58
  247.02026 81.0 81
  247.05563 67.0 67
  247.10364 40.0 40
  249.07889 81.0 81
  251.09756 133.0 133
  251.10881 40.0 40
  251.12517 77.0 77
  252.07596 47.0 47
  252.10501 40.0 40
  252.11478 47.0 47
  253.07915 95.0 95
  253.10452 42.0 42
  253.12373 374.0 374
  254.11908 88.0 88
  255.06042 47.0 47
  255.08943 53.0 53
  255.10423 156.0 156
  255.1391 70.0 70
  256.02573 40.0 40
  257.0787 393.0 393
  257.09079 102.0 102
  258.09363 105.0 105
  259.08957 393.0 393
  259.10251 174.0 174
  259.12485 91.0 91
  260.10602 235.0 235
  260.15607 58.0 58
  261.07623 40.0 40
  261.08914 47.0 47
  261.10626 79.0 79
  261.14926 137.0 137
  262.11557 40.0 40
  263.05823 42.0 42
  263.12494 67.0 67
  264.11209 47.0 47
  265.10577 40.0 40
  266.0961 40.0 40
  266.11652 93.0 93
  269.07086 133.0 133
  269.08707 47.0 47
  269.11841 519.0 518
  269.1347 77.0 77
  269.89169 47.0 47
  270.08466 98.0 98
  270.11563 158.0 158
  271.09399 100.0 100
  271.10571 202.0 202
  271.13095 142.0 142
  272.13266 84.0 84
  272.14523 74.0 74
  273.03845 105.0 105
  273.04755 63.0 63
  273.10052 42.0 42
  273.11407 63.0 63
  275.06152 165.0 165
  275.08298 140.0 140
  275.09421 91.0 91
  276.09216 47.0 47
  277.04611 42.0 42
  277.06216 40.0 40
  277.10687 47.0 47
  277.11984 49.0 49
  279.06879 40.0 40
  279.09903 253.0 253
  280.10492 53.0 53
  281.10748 165.0 165
  281.12424 200.0 200
  282.06754 56.0 56
  282.09564 47.0 47
  282.11569 40.0 40
  283.08575 44.0 44
  284.099 40.0 40
  284.13614 53.0 53
  285.07608 102.0 102
  285.12088 40.0 40
  286.09619 49.0 49
  286.11859 47.0 47
  287.07285 49.0 49
  287.09067 177.0 177
  287.12946 251.0 251
  288.08908 53.0 53
  288.13132 86.0 86
  289.11084 216.0 216
  291.04016 42.0 42
  291.10907 44.0 44
  292.05948 49.0 49
  292.11908 56.0 56
  294.10898 40.0 40
  295.117 47.0 47
  297.06503 49.0 49
  297.10541 435.0 435
  298.11935 188.0 188
  299.08853 81.0 81
  299.13779 47.0 47
  299.23608 42.0 42
  300.13452 81.0 81
  301.07318 40.0 40
  301.08777 47.0 47
  305.05984 40.0 40
  305.07465 116.0 116
  305.09064 326.0 326
  305.10193 1000.0 999
  306.09372 105.0 105
  306.11215 142.0 142
  306.99991 40.0 40
  309.10123 49.0 49
  309.11432 42.0 42
  310.09103 47.0 47
  314.1087 58.0 58
  315.05115 53.0 53
  315.06195 40.0 40
  315.08353 40.0 40
  315.12299 256.0 256
  319.04086 40.0 40
  319.1091 42.0 42
  319.12839 47.0 47
  321.05783 47.0 47
  321.07904 56.0 56
  321.09012 86.0 86
  325.09964 98.0 98
  325.11121 49.0 49
  327.11996 93.0 93
  334.12753 67.0 67
  337.04761 49.0 49
  343.11359 272.0 272
  343.13495 47.0 47
  345.11978 47.0 47
  351.14075 91.0 91
  361.11197 91.0 91
  361.1221 221.0 221
  361.13739 298.0 298
  361.15402 44.0 44
  362.13492 79.0 79
  371.11008 107.0 107
  373.27478 56.0 56
  389.12296 44.0 44
  409.1528 95.0 95
  425.11667 42.0 42
  425.14682 58.0 58
//
