ACCESSION: MSBNK-RIKEN-PR303607
RECORD_TITLE: Scoparone; LC-ESI-QTOF; MS2
DATE: 2019.03.28
AUTHORS: Tetsuya Mori, Center for Sustainable Resource Science, RIKEN
LICENSE: CC BY-NC-SA
PUBLICATION: Tsugawa H., Nakabayashi R., Mori T., Yamada Y., Takahashi M., Rai A., Sugiyama R., Yamamoto H., Nakaya T., Yamazaki M., Kooke R., Bac-Molenaar JA., Oztolan-Erol N., Keurentjes JJB., Arita M., Saito K. (2019) "A cheminformatics approach to characterize metabolomes in stable-isotope-labeled organisms" Nature Methods 16(4):295-298. [doi:10.1038/s41592-019-0358-2]
COMMENT: registered in RIKEN PlaSMA
CH$NAME: Scoparone
CH$COMPOUND_CLASS: Coumarins and derivatives
CH$FORMULA: C11H10O4
CH$EXACT_MASS: 206.197
CH$SMILES: COC1=C(OC)C=C2C=CC(=O)OC2=C1
CH$IUPAC: InChI=1S/C11H10O4/c1-13-9-5-7-3-4-11(12)15-8(7)6-10(9)14-2/h3-6H,1-2H3
CH$LINK: INCHIKEY GUAFOGOEJLSQBT-UHFFFAOYSA-N
AC$INSTRUMENT: LC, Waters Acquity UPLC System; MS, Waters Xevo G2 Q-Tof
AC$INSTRUMENT_TYPE: LC-ESI-QTOF
AC$MASS_SPECTROMETRY: MS_TYPE MS2
AC$MASS_SPECTROMETRY: ION_MODE POSITIVE
AC$MASS_SPECTROMETRY: COLLISION_ENERGY 6V
AC$MASS_SPECTROMETRY: DESOLVATION_GAS_FLOW 800/h
AC$MASS_SPECTROMETRY: DESOLVATION_TEMPERATURE 450 C
AC$MASS_SPECTROMETRY: IONIZATION ESI
AC$CHROMATOGRAPHY: CAPILLARY_VOLTAGE +3.00 kV
AC$CHROMATOGRAPHY: COLUMN_NAME Acquity bridged ethyl hybrid C18 (1.7 um, 2.1 mm * 100 mm, Waters)
AC$CHROMATOGRAPHY: COLUMN_TEMPERATURE 40 C
AC$CHROMATOGRAPHY: FLOW_GRADIENT A/B = (99.5%/0.5% at 0 min, 99.5%/0.5% at 0.1 min, 20%/80% at 10 min, 0.5%/99.5% at 10.1 min, 0.5%/99.5% at 12.0 min, 99.5%/0.5% at 12.1 min, 99.5%/0.5% at 15.0 min)
AC$CHROMATOGRAPHY: FLOW_RATE 0.3 ml/min at 0 min, 0.3 ml/min at 10 min, 0.4 ml/min at 10.1 min, 0.4 ml/min at 14.4 min, 0.3 ml/min at 14.5 min
AC$CHROMATOGRAPHY: RETENTION_TIME 5.000916
AC$CHROMATOGRAPHY: SOLVENT A water including 0.1% formic acid
AC$CHROMATOGRAPHY: SOLVENT B acetonitrile including 0.1% formic acid
MS$FOCUSED_ION: PRECURSOR_TYPE [M+H]+
MS$FOCUSED_ION: PRECURSOR_M/Z 207.0651853
PK$SPLASH: splash10-0a4i-0590000000-e72c8e5dce1d49b1d73a
PK$NUM_PEAK: 26
PK$PEAK: m/z int. rel.int.
  91.05186 9.0 9
  91.05729 6.0 6
  107.04842 28.0 28
  121.06178 8.0 8
  121.06886 8.0 8
  135.04265 19.0 19
  136.05035 34.0 34
  145.02203 10.0 10
  146.03606 30.0 30
  147.04129 8.0 8
  148.052 25.0 25
  151.07542 140.0 140
  152.07588 9.0 9
  152.08539 7.0 7
  162.03229 6.0 6
  163.03575 42.0 42
  163.04272 11.0 11
  164.04283 7.0 7
  174.02852 7.0 7
  178.0558 5.0 5
  179.06935 55.0 55
  191.03397 74.0 74
  192.04054 48.0 48
  206.05833 20.0 20
  207.0656 1000.0 999
  207.1076 15.0 15
//
