ACCESSION: MSBNK-RIKEN-PR310621
RECORD_TITLE: Formosanine; LC-ESI-QTOF; MS2
DATE: 2019.03.28
AUTHORS: Tetsuya Mori, Center for Sustainable Resource Science, RIKEN
LICENSE: CC BY-NC-SA
PUBLICATION: Tsugawa H., Nakabayashi R., Mori T., Yamada Y., Takahashi M., Rai A., Sugiyama R., Yamamoto H., Nakaya T., Yamazaki M., Kooke R., Bac-Molenaar JA., Oztolan-Erol N., Keurentjes JJB., Arita M., Saito K. (2019) "A cheminformatics approach to characterize metabolomes in stable-isotope-labeled organisms" Nature Methods 16(4):295-298. [doi:10.1038/s41592-019-0358-2]
COMMENT: Annotation level-1
CH$NAME: Formosanine
CH$COMPOUND_CLASS: Alkaloids
CH$FORMULA: C21H24N2O4
CH$EXACT_MASS: 368.433
CH$SMILES: COC(=O)C1=COC(C)C2CN3CCC4(C3CC12)C(=O)NC1=C4C=CC=C1
CH$IUPAC: InChI=1S/C21H24N2O4/c1-12-14-10-23-8-7-21(16-5-3-4-6-17(16)22-20(21)25)18(23)9-13(14)15(11-27-12)19(24)26-2/h3-6,11-14,18H,7-10H2,1-2H3,(H,22,25)
CH$LINK: INCHIKEY JMIAZDVHNCCPDM-UHFFFAOYSA-N
AC$INSTRUMENT: LC, Waters Acquity UPLC System; MS, Waters Xevo G2 Q-Tof
AC$INSTRUMENT_TYPE: LC-ESI-QTOF
AC$MASS_SPECTROMETRY: MS_TYPE MS2
AC$MASS_SPECTROMETRY: ION_MODE POSITIVE
AC$MASS_SPECTROMETRY: COLLISION_ENERGY 6V
AC$MASS_SPECTROMETRY: DESOLVATION_GAS_FLOW 800/h
AC$MASS_SPECTROMETRY: DESOLVATION_TEMPERATURE 450 C
AC$MASS_SPECTROMETRY: IONIZATION ESI
AC$CHROMATOGRAPHY: CAPILLARY_VOLTAGE +3.00 kV
AC$CHROMATOGRAPHY: COLUMN_NAME Acquity bridged ethyl hybrid C18 (1.7 um, 2.1 mm * 100 mm, Waters)
AC$CHROMATOGRAPHY: COLUMN_TEMPERATURE 40 C
AC$CHROMATOGRAPHY: FLOW_GRADIENT A/B = (99.5%/0.5% at 0 min, 99.5%/0.5% at 0.1 min, 20%/80% at 10 min, 0.5%/99.5% at 10.1 min, 0.5%/99.5% at 12.0 min, 99.5%/0.5% at 12.1 min, 99.5%/0.5% at 15.0 min)
AC$CHROMATOGRAPHY: FLOW_RATE 0.3 ml/min at 0 min, 0.3 ml/min at 10 min, 0.4 ml/min at 10.1 min, 0.4 ml/min at 14.4 min, 0.3 ml/min at 14.5 min
AC$CHROMATOGRAPHY: RETENTION_TIME 4.33
AC$CHROMATOGRAPHY: SOLVENT A water including 0.1% formic acid
AC$CHROMATOGRAPHY: SOLVENT B acetonitrile including 0.1% formic acid
MS$FOCUSED_ION: PRECURSOR_TYPE [M+H]+
MS$FOCUSED_ION: PRECURSOR_M/Z 369.18088
PK$SPLASH: splash10-014i-0419000000-87512be60bb258c216b3
PK$NUM_PEAK: 456
PK$PEAK: m/z int. rel.int.
  51.01771 57.0 1
  74.117 26.0 0
  79.31239 23.0 0
  81.05553 18.0 0
  83.00903 41.0 1
  83.01741 41.0 1
  84.08595 35.0 0
  90.0444 20.0 0
  91.05521 20.0 0
  93.06255 37.0 0
  93.07105 38.0 0
  94.07604 20.0 0
  95.05112 36.0 0
  95.0751 21.0 0
  96.36036 24.0 0
  97.07069 20.0 0
  97.08054 35.0 0
  100.16112 24.0 0
  104.03101 31.0 0
  104.99101 21.0 0
  105.05029 45.0 1
  105.0677 76.0 1
  106.05936 17.0 0
  106.74329 17.0 0
  106.79182 17.0 0
  107.04779 33.0 0
  108.0452 17.0 0
  108.05806 59.0 1
  108.07908 740.0 9
  108.09549 66.0 1
  109.04094 17.0 0
  109.06418 114.0 1
  109.0881 95.0 1
  110.09637 73.0 1
  111.82989 20.0 0
  112.04243 27.0 0
  113.73995 20.0 0
  114.586 27.0 0
  115.04095 36.0 0
  115.05223 153.0 2
  115.05672 372.0 5
  115.32542 20.0 0
  116.05247 70.0 1
  116.06078 46.0 1
  117.03458 19.0 0
  117.05055 117.0 1
  117.05811 464.0 6
  117.07076 56.0 1
  118.04723 26.0 0
  118.06242 515.0 6
  118.06875 173.0 2
  118.30964 26.0 0
  119.04674 24.0 0
  119.06762 83.0 1
  119.07202 54.0 1
  119.27773 20.0 0
  121.06541 96.0 1
  122.02537 37.0 0
  122.059 91.0 1
  122.09472 82.0 1
  123.02654 23.0 0
  123.07912 66.0 1
  123.78735 18.0 0
  124.03877 1442.0 18
  124.85109 27.0 0
  125.03886 49.0 1
  125.04933 101.0 1
  126.35745 23.0 0
  128.21863 23.0 0
  130.06573 197.0 2
  131.06325 27.0 0
  131.07448 67.0 1
  132.02905 37.0 0
  132.04349 666.0 8
  132.05 266.0 3
  132.08012 3420.0 43
  132.33549 18.0 0
  132.59283 42.0 1
  133.03851 38.0 0
  133.04884 255.0 3
  133.0649 39.0 0
  133.08087 278.0 4
  133.09154 76.0 1
  133.20737 20.0 0
  133.24149 24.0 0
  134.07094 39.0 0
  134.08517 26.0 0
  135.02115 40.0 1
  136.04424 32.0 0
  136.10587 21.0 0
  137.14693 24.0 0
  138.05728 23.0 0
  138.67871 32.0 0
  140.05284 29.0 0
  140.19388 26.0 0
  140.23268 24.0 0
  141.54155 42.0 1
  142.0387 17.0 0
  142.06487 3503.0 44
  142.09723 17.0 0
  142.97444 20.0 0
  143.05632 25.0 0
  143.06569 118.0 1
  143.07268 187.0 2
  144.06769 33.0 0
  144.08218 110.0 1
  145.03873 36.0 0
  145.05234 18.0 0
  146.04788 38.0 0
  146.05692 54.0 1
  146.09531 27.0 0
  147.03986 24.0 0
  148.07399 21.0 0
  149.0556 101.0 1
  149.07394 27.0 0
  150.06537 48.0 1
  150.09053 455.0 6
  153.42751 31.0 0
  153.48338 24.0 0
  154.13754 23.0 0
  155.06618 102.0 1
  155.68156 17.0 0
  157.91896 21.0 0
  158.0374 28.0 0
  158.05919 1247.0 16
  158.0692 149.0 2
  158.08275 28.0 0
  158.14973 17.0 0
  159.0605 301.0 4
  159.65382 44.0 1
  160.00932 20.0 0
  160.02005 55.0 1
  160.03986 107.0 1
  160.07474 27247.0 344
  160.1116 412.0 5
  160.19119 21.0 0
  160.30583 17.0 0
  160.47707 25.0 0
  160.59987 27.0 0
  160.60657 17.0 0
  160.67816 20.0 0
  160.82971 17.0 0
  160.84277 20.0 0
  160.89233 22.0 0
  161.03658 28.0 0
  161.0578 107.0 1
  161.07884 3201.0 40
  161.41663 21.0 0
  161.63501 17.0 0
  162.08377 192.0 2
  162.14264 19.0 0
  162.21062 20.0 0
  162.24156 30.0 0
  162.46843 17.0 0
  162.51299 23.0 0
  162.84444 17.0 0
  163.07161 34.0 0
  163.08661 18.0 0
  163.09473 30.0 0
  164.11342 19.0 0
  164.9841 18.0 0
  165.00821 17.0 0
  166.04428 26.0 0
  168.07483 18.0 0
  169.38319 24.0 0
  170.05615 42.0 1
  171.18823 20.0 0
  171.31293 17.0 0
  172.07834 24.0 0
  172.71904 33.0 0
  173.04718 27.0 0
  173.05736 39.0 0
  173.10658 100.0 1
  173.12138 20.0 0
  174.10547 20.0 0
  174.11603 48.0 1
  176.07135 33.0 0
  176.09665 34.0 0
  177.06477 18.0 0
  177.10028 17.0 0
  177.91484 33.0 0
  178.01849 27.0 0
  178.04977 56.0 1
  178.08479 4573.0 58
  179.09033 1132.0 14
  180.09573 101.0 1
  180.10425 21.0 0
  181.06793 41.0 1
  181.07639 48.0 1
  182.08833 29.0 0
  183.09746 22.0 0
  183.12866 59.0 1
  184.4373 24.0 0
  184.72372 21.0 0
  185.06863 49.0 1
  185.14825 24.0 0
  186.07216 39.0 0
  186.08902 19.0 0
  186.10274 17.0 0
  186.20323 17.0 0
  186.86121 25.0 0
  187.06744 57.0 1
  187.08374 458.0 6
  187.09262 326.0 4
  188.08565 44.0 1
  188.09578 17.0 0
  188.36816 21.0 0
  189.07718 18.0 0
  189.09912 20.0 0
  189.71387 32.0 0
  191.20039 23.0 0
  194.06677 19.0 0
  197.06207 58.0 1
  198.08359 17.0 0
  198.99402 18.0 0
  199.08936 348.0 4
  199.26028 23.0 0
  200.42026 17.0 0
  200.8837 31.0 0
  201.04947 22.0 0
  201.05949 58.0 1
  201.07742 87.0 1
  201.10172 6660.0 84
  201.40068 34.0 0
  201.79858 25.0 0
  202.10406 1010.0 13
  202.23064 20.0 0
  203.11305 49.0 1
  206.40877 17.0 0
  208.09671 31.0 0
  209.07648 24.0 0
  210.08 60.0 1
  210.1114 1659.0 21
  210.12968 27.0 0
  210.56573 22.0 0
  211.09499 30.0 0
  211.11578 251.0 3
  211.30272 20.0 0
  212.11574 28.0 0
  212.2886 18.0 0
  213.06322 29.0 0
  213.07497 28.0 0
  213.09218 100.0 1
  213.1028 262.0 3
  214.10493 17.0 0
  214.74043 17.0 0
  215.07896 240.0 3
  215.11784 95.0 1
  215.5222 20.0 0
  216.0845 60.0 1
  216.13689 23.0 0
  217.08409 33.0 0
  220.03743 23.0 0
  220.41396 23.0 0
  221.09874 22.0 0
  221.11626 29.0 0
  221.25688 55.0 1
  221.80025 60.0 1
  222.10544 20.0 0
  224.0905 19.0 0
  225.38625 22.0 0
  226.08754 20.0 0
  227.0769 50.0 1
  227.09328 17.0 0
  229.10143 30.0 0
  233.31808 36.0 0
  234.27061 20.0 0
  235.07935 24.0 0
  235.62317 21.0 0
  235.93245 23.0 0
  236.87177 33.0 0
  238.10036 29.0 0
  238.53322 29.0 0
  239.0965 24.0 0
  239.11665 278.0 4
  239.55371 17.0 0
  240.44778 64.0 1
  241.09593 45.0 1
  241.12328 164.0 2
  241.13319 332.0 4
  241.17804 19.0 0
  241.43565 23.0 0
  241.75525 24.0 0
  242.14127 165.0 2
  242.22688 34.0 0
  247.26183 24.0 0
  249.1169 21.0 0
  249.80473 23.0 0
  251.10396 36.0 0
  251.11522 20.0 0
  251.12611 32.0 0
  251.93681 30.0 0
  252.08809 28.0 0
  252.12453 37.0 0
  253.03714 30.0 0
  253.13544 68.0 1
  253.17699 21.0 0
  253.43103 22.0 0
  253.72089 25.0 0
  254.45471 19.0 0
  258.01157 20.0 0
  258.19516 18.0 0
  260.99088 18.0 0
  263.1127 27.0 0
  263.12515 36.0 0
  263.15826 26.0 0
  263.47223 24.0 0
  263.49716 17.0 0
  264.12201 20.0 0
  265.0979 88.0 1
  265.10703 22.0 0
  265.13336 272.0 3
  265.16364 20.0 0
  266.09879 73.0 1
  266.13483 57.0 1
  267.10599 82.0 1
  267.15009 778.0 10
  267.17456 54.0 1
  268.06702 31.0 0
  268.11737 24.0 0
  268.14487 132.0 2
  268.16031 92.0 1
  269.06821 77.0 1
  269.08301 111.0 1
  269.09579 129.0 2
  270.10129 22.0 0
  271.8056 22.0 0
  274.10452 19.0 0
  274.12463 17.0 0
  275.12396 37.0 0
  281.09045 170.0 2
  281.15936 86.0 1
  281.16858 124.0 2
  281.73175 19.0 0
  282.08313 21.0 0
  282.16028 42.0 1
  282.17834 21.0 0
  283.10358 73.0 1
  284.18781 26.0 0
  286.63669 22.0 0
  289.8782 33.0 0
  290.32419 24.0 0
  290.41943 18.0 0
  290.73239 17.0 0
  291.13004 70.0 1
  291.15164 335.0 4
  292.11935 31.0 0
  292.14786 35.0 0
  293.09872 40.0 1
  293.12186 43.0 1
  293.13248 20.0 0
  293.17258 21.0 0
  293.18671 24.0 0
  294.12271 80.0 1
  295.14633 64.0 1
  295.20734 18.0 0
  298.01062 30.0 0
  298.1586 20.0 0
  301.37305 33.0 0
  304.8089 23.0 0
  308.14075 30.0 0
  308.61874 22.0 0
  309.07858 23.0 0
  309.09717 17.0 0
  309.13004 178.0 2
  309.16037 5611.0 71
  309.20358 52.0 1
  309.9863 23.0 0
  310.13199 139.0 2
  310.1582 677.0 9
  310.17328 453.0 6
  310.39368 56.0 1
  310.6124 29.0 0
  311.15222 64.0 1
  311.16599 177.0 2
  311.59171 17.0 0
  314.11063 39.0 0
  314.85776 18.0 0
  319.12906 61.0 1
  319.14233 87.0 1
  319.15961 27.0 0
  320.1517 24.0 0
  320.84357 18.0 0
  322.59235 21.0 0
  326.9653 20.0 0
  333.45691 46.0 1
  334.69769 18.0 0
  335.14429 27.0 0
  335.2514 33.0 0
  336.13049 17.0 0
  336.64087 22.0 0
  337.09515 100.0 1
  337.10657 41.0 1
  337.15421 10521.0 133
  337.18439 34.0 0
  337.20651 71.0 1
  337.25632 20.0 0
  337.38095 17.0 0
  337.49677 20.0 0
  337.54617 46.0 1
  337.79236 24.0 0
  338.08118 49.0 1
  338.11484 21.0 0
  338.15753 3148.0 40
  338.23068 20.0 0
  338.28317 26.0 0
  338.2984 17.0 0
  338.32031 23.0 0
  338.59964 17.0 0
  338.64108 19.0 0
  338.71295 24.0 0
  339.11676 18.0 0
  339.14178 30.0 0
  339.15842 124.0 2
  339.17639 20.0 0
  339.20621 64.0 1
  339.72617 23.0 0
  340.19778 17.0 0
  341.65274 17.0 0
  344.28232 17.0 0
  345.78525 35.0 0
  348.76846 18.0 0
  350.19504 20.0 0
  350.9014 25.0 0
  351.91394 18.0 0
  352.15182 18.0 0
  355.15726 19.0 0
  356.68689 21.0 0
  360.23669 20.0 0
  360.95688 20.0 0
  366.22089 17.0 0
  366.686 18.0 0
  367.08273 28.0 0
  367.14313 73.0 1
  367.16754 480.0 6
  367.30435 20.0 0
  367.41818 20.0 0
  367.79672 23.0 0
  368.17154 204.0 3
  368.32263 30.0 0
  368.48279 18.0 0
  368.60263 18.0 0
  368.63293 17.0 0
  368.64761 18.0 0
  368.66644 20.0 0
  368.77847 24.0 0
  368.8255 32.0 0
  368.88568 18.0 0
  368.98273 20.0 0
  368.99454 22.0 0
  369.03973 20.0 0
  369.07324 88.0 1
  369.12515 512.0 6
  369.17972 79222.0 999
  369.23553 2158.0 27
  369.28842 305.0 4
//
