ACCESSION: MSBNK-RIKEN-PR302865
RECORD_TITLE: Cyanidin-3,5-di-O-glucoside; LC-ESI-QTOF; MS2
DATE: 2019.03.28
AUTHORS: Tetsuya Mori, Center for Sustainable Resource Science, RIKEN
LICENSE: CC BY-NC-SA
PUBLICATION: Tsugawa H., Nakabayashi R., Mori T., Yamada Y., Takahashi M., Rai A., Sugiyama R., Yamamoto H., Nakaya T., Yamazaki M., Kooke R., Bac-Molenaar JA., Oztolan-Erol N., Keurentjes JJB., Arita M., Saito K. (2019) "A cheminformatics approach to characterize metabolomes in stable-isotope-labeled organisms" Nature Methods 16(4):295-298. [doi:10.1038/s41592-019-0358-2]
COMMENT: registered in RIKEN PlaSMA
CH$NAME: Cyanidin-3,5-di-O-glucoside
CH$COMPOUND_CLASS: Anthocyanidin-5-O-glycosides
CH$FORMULA: [C27H31O16]+
CH$EXACT_MASS: 611.529
CH$SMILES: OC[C@H]1O[C@@H](OC2=CC(O)=CC3=[O+]C(=C(O[C@@H]4O[C@H](CO)[C@@H](O)[C@H](O)[C@H]4O)C=C23)C2=CC(O)=C(O)C=C2)[C@H](O)[C@@H](O)[C@@H]1O
CH$IUPAC: InChI=1S/C27H30O16/c28-7-17-19(33)21(35)23(37)26(42-17)40-15-5-10(30)4-14-11(15)6-16(25(39-14)9-1-2-12(31)13(32)3-9)41-27-24(38)22(36)20(34)18(8-29)43-27/h1-6,17-24,26-29,33-38H,7-8H2,(H2-,30,31,32)/p+1/t17-,18-,19-,20-,21+,22+,23-,24-,26-,27-/m1/s1
CH$LINK: INCHIKEY RDFLLVCQYHQOBU-ZOTFFYTFSA-O
AC$INSTRUMENT: LC, Waters Acquity UPLC System; MS, Waters Xevo G2 Q-Tof
AC$INSTRUMENT_TYPE: LC-ESI-QTOF
AC$MASS_SPECTROMETRY: MS_TYPE MS2
AC$MASS_SPECTROMETRY: ION_MODE POSITIVE
AC$MASS_SPECTROMETRY: COLLISION_ENERGY 6V
AC$MASS_SPECTROMETRY: DESOLVATION_GAS_FLOW 800/h
AC$MASS_SPECTROMETRY: DESOLVATION_TEMPERATURE 450 C
AC$MASS_SPECTROMETRY: IONIZATION ESI
AC$CHROMATOGRAPHY: CAPILLARY_VOLTAGE +3.00 kV
AC$CHROMATOGRAPHY: COLUMN_NAME Acquity bridged ethyl hybrid C18 (1.7 um, 2.1 mm * 100 mm, Waters)
AC$CHROMATOGRAPHY: COLUMN_TEMPERATURE 40 C
AC$CHROMATOGRAPHY: FLOW_GRADIENT A/B = (99.5%/0.5% at 0 min, 99.5%/0.5% at 0.1 min, 20%/80% at 10 min, 0.5%/99.5% at 10.1 min, 0.5%/99.5% at 12.0 min, 99.5%/0.5% at 12.1 min, 99.5%/0.5% at 15.0 min)
AC$CHROMATOGRAPHY: FLOW_RATE 0.3 ml/min at 0 min, 0.3 ml/min at 10 min, 0.4 ml/min at 10.1 min, 0.4 ml/min at 14.4 min, 0.3 ml/min at 14.5 min
AC$CHROMATOGRAPHY: RETENTION_TIME 2.500267
AC$CHROMATOGRAPHY: SOLVENT A water including 0.1% formic acid
AC$CHROMATOGRAPHY: SOLVENT B acetonitrile including 0.1% formic acid
MS$FOCUSED_ION: PRECURSOR_TYPE [M]+
MS$FOCUSED_ION: PRECURSOR_M/Z 611.1601128
PK$SPLASH: splash10-03di-0000009000-01c61e7ca9aeaea47afc
PK$NUM_PEAK: 21
PK$PEAK: m/z int. rel.int.
  287.06522 13.0 13
  289.0748 8.0 8
  310.2789 5.0 5
  329.56418 9.0 9
  374.27649 5.0 5
  379.21674 8.0 8
  380.49292 7.0 7
  388.04614 7.0 7
  420.44879 5.0 5
  422.78595 5.0 5
  441.42764 5.0 5
  448.70056 5.0 5
  449.06702 9.0 9
  449.09927 24.0 24
  449.11752 23.0 23
  450.07205 6.0 6
  450.11658 5.0 5
  610.88666 8.0 8
  611.08881 26.0 26
  611.1626 1000.0 999
  611.22009 5.0 5
//
