ACCESSION: MSBNK-RIKEN-PR300939
RECORD_TITLE: Pseudojervine; LC-ESI-QTOF; MS2
DATE: 2019.03.28
AUTHORS: Tetsuya Mori, Center for Sustainable Resource Science, RIKEN
LICENSE: CC BY-NC-SA
PUBLICATION: Tsugawa H., Nakabayashi R., Mori T., Yamada Y., Takahashi M., Rai A., Sugiyama R., Yamamoto H., Nakaya T., Yamazaki M., Kooke R., Bac-Molenaar JA., Oztolan-Erol N., Keurentjes JJB., Arita M., Saito K. (2019) "A cheminformatics approach to characterize metabolomes in stable-isotope-labeled organisms" Nature Methods 16(4):295-298. [doi:10.1038/s41592-019-0358-2]
COMMENT: registered in RIKEN PlaSMA
CH$NAME: Pseudojervine
CH$COMPOUND_CLASS: Steroidal saponins
CH$FORMULA: C33H49NO8
CH$EXACT_MASS: 587.754
CH$SMILES: CC1[C@@H]2NCC(C)C[C@H]2O[C@]11CCC2C3CC=C4C[C@H](CCC4(C)C3C(=O)C2=C1C)O[C@@H]1OC(CO)[C@@H](O)C(O)C1O
CH$IUPAC: InChI=1S/C33H49NO8/c1-15-11-22-26(34-13-15)17(3)33(42-22)10-8-20-21-6-5-18-12-19(40-31-30(39)29(38)27(36)23(14-35)41-31)7-9-32(18,4)25(21)28(37)24(20)16(33)2/h5,15,17,19-23,25-27,29-31,34-36,38-39H,6-14H2,1-4H3/t15?,17?,19-,20?,21?,22+,23?,25?,26-,27+,29?,30?,31+,32?,33-/m0/s1
CH$LINK: INCHIKEY HYDDDNUKNMMWBD-WJWSUNTISA-N
AC$INSTRUMENT: LC, Waters Acquity UPLC System; MS, Waters Xevo G2 Q-Tof
AC$INSTRUMENT_TYPE: LC-ESI-QTOF
AC$MASS_SPECTROMETRY: MS_TYPE MS2
AC$MASS_SPECTROMETRY: ION_MODE POSITIVE
AC$MASS_SPECTROMETRY: COLLISION_ENERGY 6V
AC$MASS_SPECTROMETRY: DESOLVATION_GAS_FLOW 800/h
AC$MASS_SPECTROMETRY: DESOLVATION_TEMPERATURE 450 C
AC$MASS_SPECTROMETRY: IONIZATION ESI
AC$CHROMATOGRAPHY: CAPILLARY_VOLTAGE +3.00 kV
AC$CHROMATOGRAPHY: COLUMN_NAME Acquity bridged ethyl hybrid C18 (1.7 um, 2.1 mm * 100 mm, Waters)
AC$CHROMATOGRAPHY: COLUMN_TEMPERATURE 40 C
AC$CHROMATOGRAPHY: FLOW_GRADIENT A/B = (99.5%/0.5% at 0 min, 99.5%/0.5% at 0.1 min, 20%/80% at 10 min, 0.5%/99.5% at 10.1 min, 0.5%/99.5% at 12.0 min, 99.5%/0.5% at 12.1 min, 99.5%/0.5% at 15.0 min)
AC$CHROMATOGRAPHY: FLOW_RATE 0.3 ml/min at 0 min, 0.3 ml/min at 10 min, 0.4 ml/min at 10.1 min, 0.4 ml/min at 14.4 min, 0.3 ml/min at 14.5 min
AC$CHROMATOGRAPHY: RETENTION_TIME 4.009517
AC$CHROMATOGRAPHY: SOLVENT A water including 0.1% formic acid
AC$CHROMATOGRAPHY: SOLVENT B acetonitrile including 0.1% formic acid
MS$FOCUSED_ION: PRECURSOR_TYPE [M+H]+
MS$FOCUSED_ION: PRECURSOR_M/Z 588.353094
PK$SPLASH: splash10-0bu1-2920000000-bb7014558aef1950524c
PK$NUM_PEAK: 487
PK$PEAK: m/z int. rel.int.
  55.04905 5.0 5
  55.0531 7.0 7
  55.0601 11.0 11
  57.03419 26.0 26
  57.05861 5.0 5
  57.06741 7.0 7
  58.03376 10.0 10
  59.04666 6.0 6
  59.05494 5.0 5
  61.02803 9.0 9
  67.04089 9.0 9
  67.05518 200.0 200
  68.06013 5.0 5
  69.02855 6.0 6
  69.03387 24.0 24
  69.05787 7.0 7
  69.07126 20.0 20
  70.06161 31.0 31
  70.44727 5.0 5
  71.05164 15.0 15
  71.82793 5.0 5
  72.04269 8.0 8
  73.02657 6.0 6
  73.13511 8.0 8
  77.03217 9.0 9
  77.03629 5.0 5
  79.05453 46.0 46
  79.06002 27.0 27
  80.04995 11.0 11
  81.03558 40.0 40
  81.05717 9.0 9
  81.07075 213.0 213
  82.06589 11.0 11
  82.07124 6.0 6
  82.71383 5.0 5
  82.84806 5.0 5
  83.04162 7.0 7
  83.0498 38.0 38
  84.08183 357.0 357
  85.02948 171.0 171
  85.06506 181.0 181
  85.06946 58.0 58
  85.08547 29.0 29
  85.61015 5.0 5
  86.01923 6.0 6
  86.02905 5.0 5
  86.03221 13.0 13
  86.06528 7.0 7
  87.04271 24.0 24
  87.55223 5.0 5
  89.02684 6.0 6
  91.03654 10.0 10
  91.04317 7.0 7
  91.0555 60.0 60
  93.07031 149.0 149
  94.06885 38.0 38
  95.05275 6.0 6
  95.08541 95.0 95
  95.51713 5.0 5
  96.08125 82.0 82
  96.08922 36.0 36
  97.02773 48.0 48
  97.03426 18.0 18
  97.04507 5.0 5
  97.06228 18.0 18
  97.66187 7.0 7
  98.03373 15.0 15
  98.09796 71.0 71
  99.0474 12.0 12
  100.07832 7.0 7
  101.02067 6.0 6
  102.0914 50.0 50
  103.03558 6.0 6
  105.05914 29.0 29
  105.07034 165.0 165
  105.0803 15.0 15
  106.07221 18.0 18
  106.07794 12.0 12
  106.20193 9.0 9
  107.04884 13.0 13
  107.05608 7.0 7
  107.08753 237.0 237
  107.13224 5.0 5
  108.07262 7.0 7
  108.08525 19.0 19
  108.09583 6.0 6
  109.02721 13.0 13
  109.08103 5.0 5
  109.10202 655.0 654
  110.09206 5.0 5
  110.0984 27.0 27
  110.10365 65.0 65
  111.08049 7.0 7
  111.08574 5.0 5
  112.06628 21.0 21
  112.07579 102.0 102
  113.07895 21.0 21
  113.9654 6.0 6
  114.07153 8.0 8
  114.09148 1000.0 999
  115.05685 7.0 7
  115.0928 46.0 46
  115.09924 44.0 44
  115.83553 11.0 11
  116.10133 5.0 5
  117.06714 16.0 16
  117.07496 29.0 29
  119.04836 5.0 5
  119.07497 8.0 8
  119.08769 206.0 206
  120.08646 20.0 20
  120.09341 7.0 7
  120.99944 9.0 9
  121.06253 42.0 42
  121.07286 5.0 5
  121.10194 396.0 396
  122.09086 18.0 18
  122.10363 33.0 33
  122.1086 10.0 10
  123.10433 5.0 5
  123.11513 14.0 14
  124.08974 7.0 7
  124.10651 13.0 13
  124.11146 27.0 27
  125.09624 29.0 29
  125.10187 8.0 8
  125.11494 5.0 5
  126.0903 6.0 6
  126.12746 58.0 58
  126.13615 11.0 11
  127.03983 65.0 65
  127.05081 9.0 9
  127.19619 14.0 14
  128.063 7.0 7
  129.06903 25.0 25
  129.07607 8.0 8
  131.0675 6.0 6
  131.07684 10.0 10
  131.08569 128.0 128
  131.09978 7.0 7
  132.08752 19.0 19
  133.10072 136.0 136
  134.09973 9.0 9
  134.20039 7.0 7
  135.11913 29.0 29
  136.11278 11.0 11
  136.13092 5.0 5
  137.09885 7.0 7
  137.40121 7.0 7
  138.12952 5.0 5
  140.10864 50.0 50
  140.54349 5.0 5
  141.06596 7.0 7
  141.11804 6.0 6
  142.07333 11.0 11
  142.08 7.0 7
  142.08995 5.0 5
  143.08528 116.0 116
  143.24303 6.0 6
  144.05231 5.0 5
  144.08589 16.0 16
  145.06523 44.0 44
  145.10211 294.0 294
  146.05583 5.0 5
  146.10579 61.0 61
  146.29056 6.0 6
  147.08145 103.0 103
  147.11703 115.0 115
  148.07101 7.0 7
  148.08807 5.0 5
  148.11127 8.0 8
  149.07722 6.0 6
  149.09705 461.0 461
  149.13818 7.0 7
  150.09396 13.0 13
  150.09961 12.0 12
  150.10616 17.0 17
  152.14204 15.0 15
  153.06862 8.0 8
  153.07469 5.0 5
  153.12611 5.0 5
  154.07036 7.0 7
  155.08331 88.0 88
  155.13222 5.0 5
  156.08772 25.0 25
  157.0563 6.0 6
  157.06728 12.0 12
  157.10106 219.0 219
  158.06635 18.0 18
  158.07291 15.0 15
  158.09785 5.0 5
  158.10286 14.0 14
  158.11127 21.0 21
  159.07864 18.0 18
  159.08638 21.0 21
  159.11617 111.0 111
  159.12334 32.0 32
  159.95537 5.0 5
  160.07501 12.0 12
  160.11769 17.0 17
  161.0881 20.0 20
  161.0968 43.0 43
  161.12138 7.0 7
  162.09131 6.0 6
  162.1237 8.0 8
  163.11182 12.0 12
  165.06567 20.0 20
  165.09576 5.0 5
  167.06374 6.0 6
  167.08315 21.0 21
  169.07773 6.0 6
  169.10529 33.0 33
  170.10983 28.0 28
  171.0824 33.0 33
  171.10332 9.0 9
  171.11977 81.0 81
  172.08792 19.0 19
  172.11407 20.0 20
  172.12715 12.0 12
  173.08504 24.0 24
  173.10066 94.0 94
  173.13048 13.0 13
  173.14163 23.0 23
  174.1111 10.0 10
  174.13165 11.0 11
  174.14172 6.0 6
  175.11395 124.0 124
  176.07428 7.0 7
  176.11592 12.0 12
  177.09563 14.0 14
  177.12582 7.0 7
  177.13489 19.0 19
  179.0871 18.0 18
  180.08409 11.0 11
  180.09911 14.0 14
  181.09636 58.0 58
  181.11407 13.0 13
  182.10312 16.0 16
  182.11082 12.0 12
  183.06894 5.0 5
  183.08096 26.0 26
  183.10475 9.0 9
  183.11682 91.0 91
  184.09019 9.0 9
  184.11629 18.0 18
  184.40608 6.0 6
  185.08902 24.0 24
  185.09836 33.0 33
  185.12721 19.0 19
  185.13866 25.0 25
  186.09952 15.0 15
  186.12941 6.0 6
  187.11235 127.0 127
  187.14273 9.0 9
  187.15373 14.0 14
  188.12256 12.0 12
  189.11484 5.0 5
  189.12581 27.0 27
  189.14581 5.0 5
  190.16887 5.0 5
  191.05583 6.0 6
  191.10878 8.0 8
  191.15771 8.0 8
  193.08318 6.0 6
  193.09462 14.0 14
  193.10696 21.0 21
  194.10651 38.0 38
  195.08203 6.0 6
  195.10892 37.0 37
  195.12045 50.0 50
  196.10069 5.0 5
  196.11755 19.0 19
  196.13066 16.0 16
  197.07602 6.0 6
  197.0984 25.0 25
  197.11502 5.0 5
  197.13 38.0 38
  197.13852 21.0 21
  198.09145 6.0 6
  198.10196 27.0 27
  198.11334 11.0 11
  199.09435 11.0 11
  199.11484 36.0 36
  199.14636 72.0 72
  199.16266 10.0 10
  200.1248 16.0 16
  201.12747 39.0 39
  201.15913 5.0 5
  202.12354 7.0 7
  205.10191 5.0 5
  206.09946 6.0 6
  206.10823 6.0 6
  207.11894 56.0 56
  208.11563 32.0 32
  208.17285 12.0 12
  209.09572 11.0 11
  209.10936 17.0 17
  209.13077 61.0 61
  209.14415 8.0 8
  210.11833 6.0 6
  210.13583 14.0 14
  210.14777 7.0 7
  210.21623 8.0 8
  211.10799 12.0 12
  211.11946 16.0 16
  211.14185 38.0 38
  211.15433 29.0 29
  212.11168 6.0 6
  212.12993 5.0 5
  212.14705 19.0 19
  212.16397 5.0 5
  213.12611 86.0 86
  213.15367 6.0 6
  213.16818 38.0 38
  214.1619 6.0 6
  215.10466 6.0 6
  215.14738 5.0 5
  215.65482 7.0 7
  216.08946 6.0 6
  216.13327 7.0 7
  216.14658 6.0 6
  216.17491 7.0 7
  217.15399 6.0 6
  218.10669 26.0 26
  218.58424 8.0 8
  219.10921 9.0 9
  220.10921 5.0 5
  220.12212 7.0 7
  221.11984 5.0 5
  221.1331 41.0 41
  222.12749 8.0 8
  222.13818 12.0 12
  222.14735 6.0 6
  223.11234 19.0 19
  223.12549 7.0 7
  223.1467 43.0 43
  224.42349 5.0 5
  225.13077 25.0 25
  226.12857 12.0 12
  226.16492 5.0 5
  226.1745 19.0 19
  227.13829 37.0 37
  227.17917 6.0 6
  228.15028 6.0 6
  228.17589 7.0 7
  229.17871 5.0 5
  231.11433 11.0 11
  231.13039 6.0 6
  232.11771 8.0 8
  232.13075 6.0 6
  233.12434 9.0 9
  233.13394 32.0 32
  234.15756 7.0 7
  235.13469 12.0 12
  235.15372 47.0 47
  236.14532 19.0 19
  237.12198 5.0 5
  237.13449 20.0 20
  237.15833 5.0 5
  237.1676 7.0 7
  238.13817 5.0 5
  238.17305 11.0 11
  239.14664 18.0 18
  239.1738 18.0 18
  240.13847 6.0 6
  240.1828 6.0 6
  241.12965 7.0 7
  242.19453 8.0 8
  242.28253 7.0 7
  243.11943 9.0 9
  243.13087 11.0 11
  243.14183 7.0 7
  244.18808 6.0 6
  246.14072 6.0 6
  247.14365 17.0 17
  247.15211 11.0 11
  248.16493 15.0 15
  249.17317 6.0 6
  251.14514 11.0 11
  251.17265 10.0 10
  252.18057 10.0 10
  253.1891 17.0 17
  253.32587 6.0 6
  254.17076 5.0 5
  254.18221 6.0 6
  256.17615 6.0 6
  258.15054 6.0 6
  259.10559 5.0 5
  259.15195 11.0 11
  260.15259 13.0 13
  261.14923 9.0 9
  261.16403 15.0 15
  262.16208 5.0 5
  262.18173 15.0 15
  262.19061 10.0 10
  263.14398 7.0 7
  263.1709 13.0 13
  263.18387 16.0 16
  264.81595 6.0 6
  265.14755 5.0 5
  265.15793 11.0 11
  266.15332 5.0 5
  266.16479 5.0 5
  266.18234 10.0 10
  266.20993 5.0 5
  267.16473 6.0 6
  267.17526 5.0 5
  267.21124 10.0 10
  267.21896 32.0 32
  268.10522 7.0 7
  269.18268 7.0 7
  273.13171 7.0 7
  273.16827 21.0 21
  275.15997 9.0 9
  275.17697 34.0 34
  276.18323 36.0 36
  277.16617 15.0 15
  277.19464 56.0 56
  278.18637 11.0 11
  280.18686 10.0 10
  282.1315 5.0 5
  287.18674 9.0 9
  289.17838 7.0 7
  289.19077 9.0 9
  290.76349 7.0 7
  291.99899 5.0 5
  293.17374 8.0 8
  293.18756 12.0 12
  293.28 8.0 8
  294.18738 5.0 5
  295.18411 10.0 10
  295.19345 35.0 35
  295.20886 11.0 11
  296.21384 24.0 24
  297.1774 5.0 5
  298.16766 5.0 5
  298.18011 5.0 5
  299.16565 10.0 10
  299.18024 10.0 10
  300.17886 5.0 5
  301.19727 24.0 24
  311.17874 5.0 5
  311.19644 9.0 9
  311.2139 6.0 6
  311.22293 7.0 7
  312.18237 6.0 6
  313.18484 5.0 5
  313.22049 10.0 10
  314.20663 5.0 5
  315.21109 21.0 21
  326.19016 12.0 12
  328.29324 8.0 8
  331.20816 12.0 12
  335.19678 5.0 5
  343.24368 18.0 18
  344.22034 5.0 5
  344.23904 9.0 9
  344.82388 7.0 7
  348.27527 9.0 9
  349.25888 7.0 7
  351.16931 7.0 7
  358.24747 5.0 5
  367.94348 6.0 6
  373.25034 5.0 5
  390.27878 5.0 5
  391.26755 6.0 6
  391.29208 10.0 10
  402.27551 6.0 6
  424.07828 6.0 6
  424.2966 7.0 7
  426.29724 10.0 10
  471.17761 6.0 6
  473.26096 7.0 7
  482.24771 6.0 6
  494.23895 5.0 5
  526.28119 9.0 9
  528.28088 6.0 6
  533.4707 8.0 8
  568.24023 6.0 6
  570.29333 5.0 5
  570.34741 25.0 25
  570.367 6.0 6
  571.34387 5.0 5
  572.30133 5.0 5
  588.2887 7.0 7
  588.35083 49.0 49
  588.38403 17.0 17
//
