ACCESSION: MSBNK-RIKEN-PR300805
RECORD_TITLE: Isocorydine; LC-ESI-QTOF; MS2
DATE: 2019.03.28
AUTHORS: Tetsuya Mori, Center for Sustainable Resource Science, RIKEN
LICENSE: CC BY-NC-SA
PUBLICATION: Tsugawa H., Nakabayashi R., Mori T., Yamada Y., Takahashi M., Rai A., Sugiyama R., Yamamoto H., Nakaya T., Yamazaki M., Kooke R., Bac-Molenaar JA., Oztolan-Erol N., Keurentjes JJB., Arita M., Saito K. (2019) "A cheminformatics approach to characterize metabolomes in stable-isotope-labeled organisms" Nature Methods 16(4):295-298. [doi:10.1038/s41592-019-0358-2]
COMMENT: registered in RIKEN PlaSMA
CH$NAME: Isocorydine
CH$COMPOUND_CLASS: Aporphines
CH$FORMULA: C20H23NO4
CH$EXACT_MASS: 341.407
CH$SMILES: COC1=C(O)C2=C(C[C@@H]3N(C)CCC4=CC(OC)=C(OC)C2=C34)C=C1
CH$IUPAC: InChI=1S/C20H23NO4/c1-21-8-7-12-10-15(24-3)20(25-4)18-16(12)13(21)9-11-5-6-14(23-2)19(22)17(11)18/h5-6,10,13,22H,7-9H2,1-4H3/t13-/m0/s1
CH$LINK: INCHIKEY QELDJEKNFOQJOY-ZDUSSCGKSA-N
AC$INSTRUMENT: LC, Waters Acquity UPLC System; MS, Waters Xevo G2 Q-Tof
AC$INSTRUMENT_TYPE: LC-ESI-QTOF
AC$MASS_SPECTROMETRY: MS_TYPE MS2
AC$MASS_SPECTROMETRY: ION_MODE POSITIVE
AC$MASS_SPECTROMETRY: COLLISION_ENERGY 6V
AC$MASS_SPECTROMETRY: DESOLVATION_GAS_FLOW 800/h
AC$MASS_SPECTROMETRY: DESOLVATION_TEMPERATURE 450 C
AC$MASS_SPECTROMETRY: IONIZATION ESI
AC$CHROMATOGRAPHY: CAPILLARY_VOLTAGE +3.00 kV
AC$CHROMATOGRAPHY: COLUMN_NAME Acquity bridged ethyl hybrid C18 (1.7 um, 2.1 mm * 100 mm, Waters)
AC$CHROMATOGRAPHY: COLUMN_TEMPERATURE 40 C
AC$CHROMATOGRAPHY: FLOW_GRADIENT A/B = (99.5%/0.5% at 0 min, 99.5%/0.5% at 0.1 min, 20%/80% at 10 min, 0.5%/99.5% at 10.1 min, 0.5%/99.5% at 12.0 min, 99.5%/0.5% at 12.1 min, 99.5%/0.5% at 15.0 min)
AC$CHROMATOGRAPHY: FLOW_RATE 0.3 ml/min at 0 min, 0.3 ml/min at 10 min, 0.4 ml/min at 10.1 min, 0.4 ml/min at 14.4 min, 0.3 ml/min at 14.5 min
AC$CHROMATOGRAPHY: RETENTION_TIME 3.916
AC$CHROMATOGRAPHY: SOLVENT A water including 0.1% formic acid
AC$CHROMATOGRAPHY: SOLVENT B acetonitrile including 0.1% formic acid
MS$FOCUSED_ION: PRECURSOR_TYPE [M+H]+
MS$FOCUSED_ION: PRECURSOR_M/Z 342.1699847
PK$SPLASH: splash10-05rc-0790000000-5f54677f3db9b10305e4
PK$NUM_PEAK: 239
PK$PEAK: m/z int. rel.int.
  55.01884 9.0 9
  71.33311 5.0 5
  115.04741 6.0 6
  115.0559 23.0 23
  115.06625 5.0 5
  127.056 8.0 8
  128.0621 8.0 8
  128.1308 5.0 5
  138.63419 8.0 8
  139.05473 17.0 17
  141.06781 36.0 36
  144.0575 8.0 8
  152.04297 6.0 6
  152.06258 185.0 185
  152.07559 23.0 23
  153.05649 15.0 15
  153.06996 93.0 93
  154.03804 6.0 6
  154.0755 21.0 21
  154.08171 25.0 25
  155.08089 10.0 10
  155.09363 11.0 11
  158.15889 6.0 6
  159.33727 6.0 6
  163.05882 5.0 5
  164.05434 17.0 17
  164.06174 19.0 19
  164.06926 17.0 17
  165.00191 5.0 5
  165.04387 16.0 16
  165.07019 968.0 967
  165.10521 9.0 9
  166.05707 9.0 9
  166.07607 328.0 328
  166.08789 40.0 40
  166.1077 6.0 6
  166.14061 10.0 10
  167.0489 20.0 20
  167.05823 10.0 10
  167.0753 32.0 32
  167.08241 103.0 103
  168.05991 19.0 19
  168.09227 11.0 11
  171.6441 6.0 6
  176.05882 76.0 76
  176.06616 63.0 63
  176.07802 8.0 8
  177.07062 275.0 275
  178.04979 19.0 19
  178.07809 1000.0 999
  179.04332 16.0 16
  179.08505 695.0 694
  180.05846 28.0 28
  180.09196 119.0 119
  180.32623 6.0 6
  181.06477 199.0 199
  181.09802 8.0 8
  182.07355 116.0 116
  182.10471 9.0 9
  183.04683 5.0 5
  183.06773 13.0 13
  183.07787 15.0 15
  183.08472 5.0 5
  184.04741 10.0 10
  184.05923 11.0 11
  184.08629 6.0 6
  188.0643 16.0 16
  188.74734 5.0 5
  189.06921 775.0 774
  190.03902 8.0 8
  190.0771 602.0 601
  190.0955 9.0 9
  191.05286 10.0 10
  191.08548 562.0 561
  191.10249 21.0 21
  192.0144 5.0 5
  192.05936 141.0 141
  192.08812 168.0 168
  192.71687 6.0 6
  192.94887 6.0 6
  193.0649 467.0 467
  193.09312 15.0 15
  193.10291 13.0 13
  193.30258 5.0 5
  194.02843 6.0 6
  194.07204 402.0 402
  194.09224 8.0 8
  195.04134 14.0 14
  195.07594 136.0 136
  196.05617 15.0 15
  196.09331 15.0 15
  197.05275 12.0 12
  197.09206 8.0 8
  197.09888 8.0 8
  198.05681 6.0 6
  200.0621 24.0 24
  201.06798 97.0 97
  201.0789 34.0 34
  201.85008 7.0 7
  202.07317 121.0 121
  202.08148 133.0 133
  203.04369 6.0 6
  203.07362 10.0 10
  203.08754 89.0 89
  204.04721 17.0 17
  204.05814 29.0 29
  204.07307 5.0 5
  204.10017 8.0 8
  204.58485 5.0 5
  205.02184 9.0 9
  205.04128 9.0 9
  205.06651 479.0 479
  205.1012 10.0 10
  205.11476 5.0 5
  206.03752 8.0 8
  206.07271 538.0 537
  207.04515 30.0 30
  207.05554 13.0 13
  207.07982 700.0 699
  207.16104 7.0 7
  208.06332 9.0 9
  208.08513 169.0 169
  208.09399 86.0 86
  209.05489 48.0 48
  209.06642 42.0 42
  209.08781 56.0 56
  209.09996 82.0 82
  209.11641 6.0 6
  210.04312 12.0 12
  210.06673 185.0 185
  210.09654 13.0 13
  210.10797 21.0 21
  210.49371 5.0 5
  211.07074 29.0 29
  215.01118 5.0 5
  215.09097 9.0 9
  217.05983 35.0 35
  217.07043 79.0 79
  218.0751 175.0 175
  219.04115 17.0 17
  219.05672 10.0 10
  219.07945 359.0 359
  220.0195 9.0 9
  220.05408 45.0 45
  220.06633 11.0 11
  220.08806 84.0 84
  220.11896 8.0 8
  221.02693 16.0 16
  221.03932 9.0 9
  221.06068 430.0 430
  221.09421 33.0 33
  221.10829 8.0 8
  221.82185 5.0 5
  222.06526 238.0 238
  222.07489 136.0 136
  222.09479 13.0 13
  223.0466 10.0 10
  223.07133 124.0 124
  223.08829 10.0 10
  223.11072 9.0 9
  224.05267 6.0 6
  224.08388 52.0 52
  225.08919 69.0 69
  226.05186 5.0 5
  226.0647 20.0 20
  226.07344 6.0 6
  226.08804 9.0 9
  226.09888 10.0 10
  227.07045 5.0 5
  229.07146 7.0 7
  231.08005 213.0 213
  232.07323 9.0 9
  232.08388 25.0 25
  233.06046 75.0 75
  233.09021 11.0 11
  233.10213 16.0 16
  234.06326 56.0 56
  235.04114 11.0 11
  235.07628 363.0 363
  236.06175 8.0 8
  236.08205 464.0 464
  237.05634 96.0 96
  237.09103 393.0 393
  238.01866 11.0 11
  238.03523 8.0 8
  238.0631 538.0 537
  238.09857 19.0 19
  238.1113 7.0 7
  238.42339 6.0 6
  239.04292 15.0 15
  239.07137 118.0 118
  239.08551 9.0 9
  239.10156 6.0 6
  240.97469 7.0 7
  241.08647 10.0 10
  243.44276 5.0 5
  245.0672 14.0 14
  246.06871 24.0 24
  246.0766 16.0 16
  247.0188 6.0 6
  247.04982 13.0 13
  247.07562 698.0 697
  248.05244 18.0 18
  248.07799 149.0 149
  248.09012 44.0 44
  249.04492 11.0 11
  249.05872 26.0 26
  249.08568 37.0 37
  250.05519 33.0 33
  250.08746 5.0 5
  251.039 6.0 6
  251.06406 11.0 11
  251.08287 19.0 19
  251.09338 5.0 5
  252.07379 24.0 24
  253.08725 170.0 170
  254.0854 8.0 8
  254.0948 16.0 16
  261.10013 8.0 8
  262.06168 12.0 12
  263.07153 98.0 98
  263.46143 7.0 7
  264.07678 54.0 54
  264.09778 12.0 12
  265.05167 17.0 17
  265.06219 15.0 15
  265.08188 96.0 96
  265.09677 43.0 43
  266.05542 13.0 13
  266.09402 8.0 8
  267.11267 13.0 13
  270.35471 5.0 5
  277.07874 5.0 5
  278.08298 8.0 8
  279.10461 6.0 6
  280.11215 10.0 10
  281.07098 9.0 9
  281.082 37.0 37
  296.08652 5.0 5
//
