ACCESSION: MSBNK-RIKEN-PR309198
RECORD_TITLE: Indole + 1O, 1carboxy, O-Hex; LC-ESI-QTOF; MS2
DATE: 2019.03.28
AUTHORS: Tetsuya Mori, Center for Sustainable Resource Science, RIKEN
LICENSE: CC BY-NC-SA
PUBLICATION: Tsugawa H., Nakabayashi R., Mori T., Yamada Y., Takahashi M., Rai A., Sugiyama R., Yamamoto H., Nakaya T., Yamazaki M., Kooke R., Bac-Molenaar JA., Oztolan-Erol N., Keurentjes JJB., Arita M., Saito K. (2019) "A cheminformatics approach to characterize metabolomes in stable-isotope-labeled organisms" Nature Methods 16(4):295-298. [doi:10.1038/s41592-019-0358-2]
COMMENT: Annotation level-3
CH$NAME: Indole + 1O, 1carboxy, O-Hex
CH$COMPOUND_CLASS: Indole and derivatives
CH$FORMULA: C15H17NO8
CH$EXACT_MASS: 339.3
CH$SMILES: O=C(OC1OC(CO)C(O)C(O)C1(O))C3=CNC2=CC(O)=CC=C23
CH$IUPAC: InChI=1S/C15H17NO8/c17-5-10-11(19)12(20)13(21)15(23-10)24-14(22)8-4-16-9-3-6(18)1-2-7(8)9/h1-4,10-13,15-21H,5H2
CH$LINK: INCHIKEY VZZSVZUINKFSIE-UHFFFAOYSA-N
AC$INSTRUMENT: LC, Waters Acquity UPLC System; MS, Waters Xevo G2 Q-Tof
AC$INSTRUMENT_TYPE: LC-ESI-QTOF
AC$MASS_SPECTROMETRY: MS_TYPE MS2
AC$MASS_SPECTROMETRY: ION_MODE NEGATIVE
AC$MASS_SPECTROMETRY: COLLISION_ENERGY 6V
AC$MASS_SPECTROMETRY: DESOLVATION_GAS_FLOW 800/h
AC$MASS_SPECTROMETRY: DESOLVATION_TEMPERATURE 450 C
AC$MASS_SPECTROMETRY: IONIZATION ESI
AC$CHROMATOGRAPHY: CAPILLARY_VOLTAGE +3.00 kV
AC$CHROMATOGRAPHY: COLUMN_NAME Acquity bridged ethyl hybrid C18 (1.7 um, 2.1 mm * 100 mm, Waters)
AC$CHROMATOGRAPHY: COLUMN_TEMPERATURE 40 C
AC$CHROMATOGRAPHY: FLOW_GRADIENT A/B = (99.5%/0.5% at 0 min, 99.5%/0.5% at 0.1 min, 20%/80% at 10 min, 0.5%/99.5% at 10.1 min, 0.5%/99.5% at 12.0 min, 99.5%/0.5% at 12.1 min, 99.5%/0.5% at 15.0 min)
AC$CHROMATOGRAPHY: FLOW_RATE 0.3 ml/min at 0 min, 0.3 ml/min at 10 min, 0.4 ml/min at 10.1 min, 0.4 ml/min at 14.4 min, 0.3 ml/min at 14.5 min
AC$CHROMATOGRAPHY: RETENTION_TIME 2.31
AC$CHROMATOGRAPHY: SOLVENT A water including 0.1% formic acid
AC$CHROMATOGRAPHY: SOLVENT B acetonitrile including 0.1% formic acid
MS$FOCUSED_ION: PRECURSOR_TYPE [M-H]-
MS$FOCUSED_ION: PRECURSOR_M/Z 338.0879
PK$SPLASH: splash10-0059-0900000000-aaa9ed4851a0f6c18c4a
PK$NUM_PEAK: 13
PK$PEAK: m/z int. rel.int.
  101.02402 19.0 47
  131.03741 84.0 208
  132.04527 148.0 366
  133.05013 27.0 67
  134.04568 42.0 104
  134.05647 28.0 69
  175.02036 22.0 54
  175.02995 24.0 59
  176.03531 404.0 999
  177.03754 49.0 121
  338.08469 18.0 45
  338.10806 21.0 52
  338.12238 18.0 45
//
