ACCESSION: MSBNK-RIKEN-PR300129
RECORD_TITLE: Hydroxygardnutine; LC-ESI-QTOF; MS2
DATE: 2019.03.28
AUTHORS: Tetsuya Mori, Center for Sustainable Resource Science, RIKEN
LICENSE: CC BY-NC-SA
PUBLICATION: Tsugawa H., Nakabayashi R., Mori T., Yamada Y., Takahashi M., Rai A., Sugiyama R., Yamamoto H., Nakaya T., Yamazaki M., Kooke R., Bac-Molenaar JA., Oztolan-Erol N., Keurentjes JJB., Arita M., Saito K. (2019) "A cheminformatics approach to characterize metabolomes in stable-isotope-labeled organisms" Nature Methods 16(4):295-298. [doi:10.1038/s41592-019-0358-2]
COMMENT: registered in RIKEN PlaSMA
CH$NAME: Hydroxygardnutine
CH$COMPOUND_CLASS: Macroline alkaloids
CH$FORMULA: C20H22N2O3
CH$EXACT_MASS: 338.407
CH$SMILES: COC1=CC2=C(C=C1)C1=C(N2)[C@@H]2C[C@@H]3[C@@H]4CO[C@H]1[C@@H]4N2C\C3=C\CO
CH$IUPAC: InChI=1S/C20H22N2O3/c1-24-11-2-3-12-15(6-11)21-18-16-7-13-10(4-5-23)8-22(16)19-14(13)9-25-20(19)17(12)18/h2-4,6,13-14,16,19-21,23H,5,7-9H2,1H3/b10-4-/t13-,14-,16-,19+,20+/m0/s1
CH$LINK: INCHIKEY OUONWRIEOZGMSQ-NUUNSNFRSA-N
AC$INSTRUMENT: LC, Waters Acquity UPLC System; MS, Waters Xevo G2 Q-Tof
AC$INSTRUMENT_TYPE: LC-ESI-QTOF
AC$MASS_SPECTROMETRY: MS_TYPE MS2
AC$MASS_SPECTROMETRY: ION_MODE POSITIVE
AC$MASS_SPECTROMETRY: COLLISION_ENERGY 6V
AC$MASS_SPECTROMETRY: DESOLVATION_GAS_FLOW 800/h
AC$MASS_SPECTROMETRY: DESOLVATION_TEMPERATURE 450 C
AC$MASS_SPECTROMETRY: IONIZATION ESI
AC$CHROMATOGRAPHY: CAPILLARY_VOLTAGE +3.00 kV
AC$CHROMATOGRAPHY: COLUMN_NAME Acquity bridged ethyl hybrid C18 (1.7 um, 2.1 mm * 100 mm, Waters)
AC$CHROMATOGRAPHY: COLUMN_TEMPERATURE 40 C
AC$CHROMATOGRAPHY: FLOW_GRADIENT A/B = (99.5%/0.5% at 0 min, 99.5%/0.5% at 0.1 min, 20%/80% at 10 min, 0.5%/99.5% at 10.1 min, 0.5%/99.5% at 12.0 min, 99.5%/0.5% at 12.1 min, 99.5%/0.5% at 15.0 min)
AC$CHROMATOGRAPHY: FLOW_RATE 0.3 ml/min at 0 min, 0.3 ml/min at 10 min, 0.4 ml/min at 10.1 min, 0.4 ml/min at 14.4 min, 0.3 ml/min at 14.5 min
AC$CHROMATOGRAPHY: RETENTION_TIME 3.602583
AC$CHROMATOGRAPHY: SOLVENT A water including 0.1% formic acid
AC$CHROMATOGRAPHY: SOLVENT B acetonitrile including 0.1% formic acid
MS$FOCUSED_ION: PRECURSOR_TYPE [M+H]+
MS$FOCUSED_ION: PRECURSOR_M/Z 339.170319
PK$SPLASH: splash10-05fr-0962000000-5515758d5e223d85fac6
PK$NUM_PEAK: 354
PK$PEAK: m/z int. rel.int.
  55.05362 5.0 5
  65.03873 7.0 7
  77.03686 7.0 7
  79.0471 8.0 8
  79.05898 10.0 10
  80.03911 6.0 6
  80.05702 11.0 11
  81.06794 12.0 12
  81.07218 10.0 10
  82.06387 13.0 13
  91.05429 56.0 56
  92.05112 18.0 18
  92.0593 6.0 6
  93.06033 9.0 9
  93.07065 44.0 44
  94.06704 29.0 29
  95.07496 6.0 6
  96.08142 33.0 33
  97.08539 6.0 6
  103.04141 13.0 13
  103.05515 95.0 95
  104.05246 7.0 7
  105.05092 6.0 6
  105.05798 13.0 13
  106.06519 352.0 352
  107.06004 9.0 9
  107.06821 65.0 65
  108.07989 18.0 18
  109.06386 19.0 19
  109.08131 8.0 8
  109.08719 5.0 5
  110.05647 7.0 7
  110.06433 17.0 17
  110.08978 12.0 12
  110.09752 70.0 70
  111.05885 5.0 5
  111.09478 8.0 8
  111.10838 5.0 5
  117.06104 6.0 6
  118.06478 155.0 155
  119.06852 20.0 20
  119.09219 7.0 7
  120.05495 5.0 5
  120.08112 690.0 689
  120.10132 5.0 5
  121.06368 28.0 28
  121.07356 18.0 18
  121.08257 65.0 65
  121.09078 7.0 7
  122.06544 6.0 6
  124.07066 26.0 26
  124.07706 42.0 42
  125.07745 15.0 15
  126.09318 6.0 6
  131.07053 15.0 15
  131.07648 11.0 11
  132.04346 7.0 7
  132.07983 24.0 24
  136.07472 381.0 381
  137.07318 15.0 15
  137.08232 9.0 9
  138.09268 181.0 181
  139.07602 6.0 6
  143.07129 26.0 26
  144.07315 10.0 10
  144.08221 33.0 33
  145.05232 18.0 18
  145.07718 12.0 12
  146.04175 7.0 7
  146.06058 18.0 18
  146.08696 6.0 6
  147.05901 7.0 7
  147.06572 14.0 14
  147.07764 17.0 17
  147.088 12.0 12
  148.07578 111.0 111
  150.06163 5.0 5
  150.08754 39.0 39
  152.10617 5.0 5
  153.11545 6.0 6
  154.08177 8.0 8
  155.07622 10.0 10
  158.06088 220.0 220
  159.05318 7.0 7
  159.06778 59.0 59
  159.0811 17.0 17
  160.04149 7.0 7
  160.06319 13.0 13
  160.07565 172.0 172
  160.09184 6.0 6
  161.07254 19.0 19
  161.08301 6.0 6
  161.34334 5.0 5
  162.08932 90.0 90
  163.09363 17.0 17
  164.10104 17.0 17
  164.1093 16.0 16
  166.08803 68.0 68
  166.09779 16.0 16
  167.09093 8.0 8
  169.08539 8.0 8
  171.06522 14.0 14
  171.07167 10.0 10
  172.07159 21.0 21
  172.08771 13.0 13
  173.05884 15.0 15
  173.08322 816.0 815
  174.05389 8.0 8
  174.08968 319.0 319
  175.09042 47.0 47
  176.05243 7.0 7
  176.06758 18.0 18
  176.09589 5.0 5
  176.10728 7.0 7
  178.0845 12.0 12
  181.07695 21.0 21
  181.08984 20.0 20
  182.07616 6.0 6
  182.10074 15.0 15
  183.05597 8.0 8
  183.68887 7.0 7
  184.07414 9.0 9
  185.08763 19.0 19
  186.07281 10.0 10
  186.0923 84.0 84
  186.15785 8.0 8
  187.05959 7.0 7
  187.08139 6.0 6
  187.09616 39.0 39
  187.10677 28.0 28
  188.06857 69.0 69
  188.10812 146.0 146
  189.07782 17.0 17
  189.09624 10.0 10
  189.10803 13.0 13
  192.08568 10.0 10
  193.08905 68.0 68
  194.09142 13.0 13
  194.1111 8.0 8
  195.09897 8.0 8
  196.07372 24.0 24
  197.05957 15.0 15
  197.07181 24.0 24
  197.07915 23.0 23
  197.09479 7.0 7
  198.06879 7.0 7
  198.08116 21.0 21
  198.09384 48.0 48
  199.08543 70.0 70
  199.09735 18.0 18
  200.06708 40.0 40
  200.09016 20.0 20
  200.10881 18.0 18
  201.09483 11.0 11
  201.10657 7.0 7
  201.11781 7.0 7
  202.08061 19.0 19
  202.08728 57.0 57
  202.22992 7.0 7
  203.07637 6.0 6
  203.1037 6.0 6
  206.09848 9.0 9
  207.22888 7.0 7
  208.07315 8.0 8
  208.10802 8.0 8
  209.0481 9.0 9
  209.07828 28.0 28
  209.09624 10.0 10
  210.08482 27.0 27
  210.09596 18.0 18
  211.06845 9.0 9
  211.09329 11.0 11
  211.10341 20.0 20
  212.07071 11.0 11
  212.09045 30.0 30
  212.10175 43.0 43
  212.11105 38.0 38
  213.10019 34.0 34
  213.11032 34.0 34
  214.08377 20.0 20
  214.09859 8.0 8
  214.1091 6.0 6
  215.07909 34.0 34
  215.08766 15.0 15
  216.08531 8.0 8
  216.10274 10.0 10
  216.69031 5.0 5
  217.07722 7.0 7
  218.08182 8.0 8
  218.1033 7.0 7
  219.10387 9.0 9
  219.11664 9.0 9
  220.07533 8.0 8
  221.10173 6.0 6
  223.09135 13.0 13
  223.10602 24.0 24
  224.07617 9.0 9
  224.10393 123.0 123
  224.11345 51.0 51
  225.0999 8.0 8
  225.11307 31.0 31
  226.09688 11.0 11
  226.12904 15.0 15
  227.07991 24.0 24
  227.09093 8.0 8
  227.12082 21.0 21
  228.08195 13.0 13
  228.09637 15.0 15
  229.09773 17.0 17
  230.08946 10.0 10
  232.08656 12.0 12
  232.11807 11.0 11
  233.12006 8.0 8
  234.09698 41.0 41
  235.08209 20.0 20
  235.09984 25.0 25
  236.09251 12.0 12
  236.10974 55.0 55
  237.07298 9.0 9
  237.11916 14.0 14
  238.08601 7.0 7
  238.09546 6.0 6
  238.10757 13.0 13
  238.12097 40.0 40
  239.08928 7.0 7
  239.09976 6.0 6
  239.11584 26.0 26
  240.0907 11.0 11
  241.10674 18.0 18
  242.11246 8.0 8
  242.12253 6.0 6
  243.09608 9.0 9
  245.13057 6.0 6
  246.09444 14.0 14
  247.08752 10.0 10
  247.09811 13.0 13
  247.10632 8.0 8
  248.08336 7.0 7
  248.10106 29.0 29
  248.12439 9.0 9
  249.10289 86.0 86
  249.1255 5.0 5
  250.09081 9.0 9
  250.1076 43.0 43
  250.12558 92.0 92
  250.20715 5.0 5
  251.11249 28.0 28
  251.12408 23.0 23
  252.09987 31.0 31
  252.12959 14.0 14
  253.09387 17.0 17
  253.11134 12.0 12
  254.11403 29.0 29
  254.55458 7.0 7
  255.1188 12.0 12
  256.14014 11.0 11
  257.12827 7.0 7
  258.13412 6.0 6
  259.08508 13.0 13
  260.10956 16.0 16
  261.10843 32.0 32
  261.11978 45.0 45
  262.11581 44.0 44
  262.12732 38.0 38
  263.09283 9.0 9
  263.11646 105.0 105
  263.13513 15.0 15
  264.09863 12.0 12
  264.11142 17.0 17
  264.12531 51.0 51
  264.14258 13.0 13
  265.0943 19.0 19
  265.10629 8.0 8
  265.1311 11.0 11
  266.1116 7.0 7
  266.13867 25.0 25
  267.09012 9.0 9
  267.10205 8.0 8
  267.1225 12.0 12
  268.1131 6.0 6
  268.13019 16.0 16
  269.1286 5.0 5
  274.07587 5.0 5
  274.1026 8.0 8
  275.10675 9.0 9
  275.12357 46.0 46
  276.10699 5.0 5
  276.13675 41.0 41
  277.10361 11.0 11
  277.13455 193.0 193
  278.09332 7.0 7
  278.12247 30.0 30
  278.13663 44.0 44
  278.14798 54.0 54
  279.08237 11.0 11
  279.11295 75.0 75
  279.14743 74.0 74
  280.12485 83.0 83
  280.14911 9.0 9
  281.12482 16.0 16
  281.14859 5.0 5
  282.11646 12.0 12
  282.13568 11.0 11
  283.15714 5.0 5
  286.12167 9.0 9
  288.13852 8.0 8
  289.11493 8.0 8
  290.14264 11.0 11
  291.11136 7.0 7
  291.12543 8.0 8
  291.14294 33.0 33
  291.15579 21.0 21
  292.11493 5.0 5
  292.1279 13.0 13
  292.14597 9.0 9
  293.10321 11.0 11
  293.12866 229.0 229
  293.15738 19.0 19
  294.10727 13.0 13
  294.13669 290.0 290
  295.13654 91.0 91
  296.13812 16.0 16
  296.15536 12.0 12
  296.17126 10.0 10
  303.00204 6.0 6
  303.13333 6.0 6
  303.14148 13.0 13
  303.1557 11.0 11
  306.13574 6.0 6
  306.15259 7.0 7
  307.13406 17.0 17
  307.14822 15.0 15
  309.08179 5.0 5
  309.095 6.0 6
  309.1312 23.0 23
  309.15973 1000.0 999
  310.07666 5.0 5
  310.11792 10.0 10
  310.16071 221.0 221
  310.18262 13.0 13
  311.1384 9.0 9
  311.15234 7.0 7
  311.16727 14.0 14
  311.18286 26.0 26
  312.1738 9.0 9
  321.12787 6.0 6
  321.15955 51.0 51
  321.17651 12.0 12
  322.13666 7.0 7
  322.15604 12.0 12
  330.83588 6.0 6
  338.15732 7.0 7
  339.1424 9.0 9
  339.1738 90.0 90
//
