ACCESSION: MSBNK-RIKEN-PR310460
RECORD_TITLE: Ginkgolide C; LC-ESI-QTOF; MS2
DATE: 2019.03.28
AUTHORS: Tetsuya Mori, Center for Sustainable Resource Science, RIKEN
LICENSE: CC BY-NC-SA
PUBLICATION: Tsugawa H., Nakabayashi R., Mori T., Yamada Y., Takahashi M., Rai A., Sugiyama R., Yamamoto H., Nakaya T., Yamazaki M., Kooke R., Bac-Molenaar JA., Oztolan-Erol N., Keurentjes JJB., Arita M., Saito K. (2019) "A cheminformatics approach to characterize metabolomes in stable-isotope-labeled organisms" Nature Methods 16(4):295-298. [doi:10.1038/s41592-019-0358-2]
COMMENT: Annotation level-1
CH$NAME: Ginkgolide C
CH$COMPOUND_CLASS: Ginkgolides and bilobalides
CH$FORMULA: C20H24O11
CH$EXACT_MASS: 440.401
CH$SMILES: CC1C(=O)OC2C(O)C34C5OC(=O)C3(OC3OC(=O)C(O)C43C(C5O)C(C)(C)C)C12O
CH$IUPAC: InChI=1S/C20H24O11/c1-5-12(24)28-11-8(22)18-10-6(21)7(16(2,3)4)17(18)9(23)13(25)30-15(17)31-20(18,14(26)29-10)19(5,11)27/h5-11,15,21-23,27H,1-4H3
CH$LINK: INCHIKEY AMOGMTLMADGEOQ-UHFFFAOYSA-N
AC$INSTRUMENT: LC, Waters Acquity UPLC System; MS, Waters Xevo G2 Q-Tof
AC$INSTRUMENT_TYPE: LC-ESI-QTOF
AC$MASS_SPECTROMETRY: MS_TYPE MS2
AC$MASS_SPECTROMETRY: ION_MODE POSITIVE
AC$MASS_SPECTROMETRY: COLLISION_ENERGY 6V
AC$MASS_SPECTROMETRY: DESOLVATION_GAS_FLOW 800/h
AC$MASS_SPECTROMETRY: DESOLVATION_TEMPERATURE 450 C
AC$MASS_SPECTROMETRY: IONIZATION ESI
AC$CHROMATOGRAPHY: CAPILLARY_VOLTAGE +3.00 kV
AC$CHROMATOGRAPHY: COLUMN_NAME Acquity bridged ethyl hybrid C18 (1.7 um, 2.1 mm * 100 mm, Waters)
AC$CHROMATOGRAPHY: COLUMN_TEMPERATURE 40 C
AC$CHROMATOGRAPHY: FLOW_GRADIENT A/B = (99.5%/0.5% at 0 min, 99.5%/0.5% at 0.1 min, 20%/80% at 10 min, 0.5%/99.5% at 10.1 min, 0.5%/99.5% at 12.0 min, 99.5%/0.5% at 12.1 min, 99.5%/0.5% at 15.0 min)
AC$CHROMATOGRAPHY: FLOW_RATE 0.3 ml/min at 0 min, 0.3 ml/min at 10 min, 0.4 ml/min at 10.1 min, 0.4 ml/min at 14.4 min, 0.3 ml/min at 14.5 min
AC$CHROMATOGRAPHY: RETENTION_TIME 4.33
AC$CHROMATOGRAPHY: SOLVENT A water including 0.1% formic acid
AC$CHROMATOGRAPHY: SOLVENT B acetonitrile including 0.1% formic acid
MS$FOCUSED_ION: PRECURSOR_TYPE [M+H]+
MS$FOCUSED_ION: PRECURSOR_M/Z 441.13914
PK$SPLASH: splash10-0006-0464900000-478f91377773fa2e948a
PK$NUM_PEAK: 210
PK$PEAK: m/z int. rel.int.
  69.03712 18.0 5
  79.05427 30.0 8
  83.01222 38.0 11
  83.08539 19.0 5
  95.01032 31.0 9
  99.04536 17.0 5
  104.18375 18.0 5
  105.07021 21.0 6
  109.09884 18.0 5
  115.05497 17.0 5
  121.07565 21.0 6
  124.11196 20.0 6
  128.00352 20.0 6
  129.07089 23.0 7
  131.04527 20.0 6
  135.03853 21.0 6
  135.07907 31.0 9
  141.05992 24.0 7
  144.05771 24.0 7
  147.04613 21.0 6
  149.05557 17.0 5
  149.06557 33.0 9
  156.09962 22.0 6
  157.03804 29.0 8
  157.10344 37.0 10
  159.04089 24.0 7
  159.08469 19.0 5
  160.08223 20.0 6
  161.05228 17.0 5
  163.03458 17.0 5
  167.24466 20.0 6
  170.10924 20.0 6
  171.0262 20.0 6
  171.04138 21.0 6
  173.05933 48.0 14
  175.04233 31.0 9
  175.06546 35.0 10
  175.07298 35.0 10
  176.07997 18.0 5
  177.03578 21.0 6
  177.05359 281.0 80
  178.03032 31.0 9
  178.07671 33.0 9
  181.01059 17.0 5
  182.08101 27.0 8
  183.04544 20.0 6
  187.03682 24.0 7
  188.03317 24.0 7
  189.05315 43.0 12
  189.06409 35.0 10
  190.09677 21.0 6
  191.03481 17.0 5
  191.07007 20.0 6
  191.07703 17.0 5
  193.06343 25.0 7
  193.08463 23.0 7
  195.01709 21.0 6
  195.02841 171.0 48
  195.06363 20.0 6
  196.02946 22.0 6
  196.07928 18.0 5
  197.03464 23.0 7
  197.14105 18.0 5
  199.0318 20.0 6
  199.04982 18.0 5
  199.0739 58.0 16
  201.05434 79.0 22
  201.09622 23.0 7
  202.05936 18.0 5
  202.10188 24.0 7
  203.07002 32.0 9
  203.14374 20.0 6
  203.23837 28.0 8
  205.05081 168.0 48
  205.11189 18.0 5
  207.08969 17.0 5
  207.0986 17.0 5
  209.04539 20.0 6
  209.05568 27.0 8
  211.0518 20.0 6
  211.10207 20.0 6
  213.0601 22.0 6
  213.09566 37.0 10
  215.0352 18.0 5
  217.05135 17.0 5
  219.03177 20.0 6
  219.06841 35.0 10
  220.0795 19.0 5
  223.10716 23.0 7
  223.11667 25.0 7
  225.0663 20.0 6
  226.04189 21.0 6
  227.05928 18.0 5
  227.82976 20.0 6
  228.06905 29.0 8
  229.05339 78.0 22
  230.04907 35.0 10
  230.1338 17.0 5
  231.06613 34.0 10
  231.12221 20.0 6
  231.13467 39.0 11
  233.04501 125.0 35
  234.00255 17.0 5
  235.02161 18.0 5
  235.05696 24.0 7
  235.07718 22.0 6
  238.05171 20.0 6
  241.13361 29.0 8
  242.08212 18.0 5
  243.03094 21.0 6
  246.9581 20.0 6
  247.0463 20.0 6
  247.05864 61.0 17
  247.06427 25.0 7
  249.03723 21.0 6
  249.14536 23.0 7
  250.0385 17.0 5
  250.08011 25.0 7
  251.05334 319.0 90
  251.0647 72.0 20
  252.06319 20.0 6
  252.10353 20.0 6
  254.03175 24.0 7
  257.03687 18.0 5
  257.10593 22.0 6
  259.06268 22.0 6
  259.12808 17.0 5
  261.05545 27.0 8
  262.60818 20.0 6
  265.06427 20.0 6
  268.89236 20.0 6
  269.10428 17.0 5
  271.21643 32.0 9
  272.13074 17.0 5
  273.11041 21.0 6
  275.04715 66.0 19
  276.12143 20.0 6
  277.07465 21.0 6
  279.04141 72.0 20
  279.0502 22.0 6
  280.04224 18.0 5
  280.06653 17.0 5
  280.43771 43.0 12
  281.08081 17.0 5
  282.06512 20.0 6
  287.0755 20.0 6
  287.12003 18.0 5
  287.13394 17.0 5
  288.12326 22.0 6
  291.76187 18.0 5
  293.06644 25.0 7
  294.14325 23.0 7
  295.02744 17.0 5
  297.052 24.0 7
  297.13351 25.0 7
  298.06183 20.0 6
  298.10864 18.0 5
  303.13492 26.0 7
  307.02725 17.0 5
  307.04147 196.0 55
  308.05719 20.0 6
  309.05136 26.0 7
  311.06979 29.0 8
  321.05847 24.0 7
  321.10593 35.0 10
  321.12985 72.0 20
  323.10934 29.0 8
  323.12796 25.0 7
  324.72519 21.0 6
  325.03619 20.0 6
  325.05362 402.0 114
  326.06262 23.0 7
  327.08679 19.0 5
  331.11929 43.0 12
  332.02847 26.0 7
  335.06958 19.0 5
  337.13672 17.0 5
  339.07092 36.0 10
  341.10452 19.0 5
  342.09973 35.0 10
  349.05331 17.0 5
  349.11453 21.0 6
  349.13788 22.0 6
  350.12738 18.0 5
  353.03784 28.0 8
  353.05319 141.0 40
  353.49838 21.0 6
  359.10504 94.0 27
  366.13101 26.0 7
  367.06064 21.0 6
  367.07443 44.0 12
  367.1228 29.0 8
  367.1395 21.0 6
  377.11176 40.0 11
  377.13391 20.0 6
  378.1153 35.0 10
  378.13794 35.0 10
  379.10587 20.0 6
  395.10568 18.0 5
  395.12686 53.0 15
  395.14157 66.0 19
  396.15378 39.0 11
  405.10971 20.0 6
  405.12793 25.0 7
  423.11249 25.0 7
  423.13086 58.0 16
  441.06369 20.0 6
  441.08746 36.0 10
  441.13916 3530.0 999
  441.17111 41.0 12
//
