ACCESSION: MSBNK-RIKEN-PR310624
RECORD_TITLE: Hirsutine; LC-ESI-QTOF; MS2
DATE: 2019.03.28
AUTHORS: Tetsuya Mori, Center for Sustainable Resource Science, RIKEN
LICENSE: CC BY-NC-SA
PUBLICATION: Tsugawa H., Nakabayashi R., Mori T., Yamada Y., Takahashi M., Rai A., Sugiyama R., Yamamoto H., Nakaya T., Yamazaki M., Kooke R., Bac-Molenaar JA., Oztolan-Erol N., Keurentjes JJB., Arita M., Saito K. (2019) "A cheminformatics approach to characterize metabolomes in stable-isotope-labeled organisms" Nature Methods 16(4):295-298. [doi:10.1038/s41592-019-0358-2]
COMMENT: Annotation level-1
CH$NAME: Hirsutine
CH$COMPOUND_CLASS: Alkaloids
CH$FORMULA: C22H28N2O3
CH$EXACT_MASS: 368.477
CH$SMILES: CCC1CN2CCC3=C(NC4=CC=CC=C34)C2CC1C(=COC)C(=O)OC
CH$IUPAC: InChI=1S/C22H28N2O3/c1-4-14-12-24-10-9-16-15-7-5-6-8-19(15)23-21(16)20(24)11-17(14)18(13-26-2)22(25)27-3/h5-8,13-14,17,20,23H,4,9-12H2,1-3H3
CH$LINK: INCHIKEY NMLUOJBSAYAYEM-UHFFFAOYSA-N
AC$INSTRUMENT: LC, Waters Acquity UPLC System; MS, Waters Xevo G2 Q-Tof
AC$INSTRUMENT_TYPE: LC-ESI-QTOF
AC$MASS_SPECTROMETRY: MS_TYPE MS2
AC$MASS_SPECTROMETRY: ION_MODE POSITIVE
AC$MASS_SPECTROMETRY: COLLISION_ENERGY 6V
AC$MASS_SPECTROMETRY: DESOLVATION_GAS_FLOW 800/h
AC$MASS_SPECTROMETRY: DESOLVATION_TEMPERATURE 450 C
AC$MASS_SPECTROMETRY: IONIZATION ESI
AC$CHROMATOGRAPHY: CAPILLARY_VOLTAGE +3.00 kV
AC$CHROMATOGRAPHY: COLUMN_NAME Acquity bridged ethyl hybrid C18 (1.7 um, 2.1 mm * 100 mm, Waters)
AC$CHROMATOGRAPHY: COLUMN_TEMPERATURE 40 C
AC$CHROMATOGRAPHY: FLOW_GRADIENT A/B = (99.5%/0.5% at 0 min, 99.5%/0.5% at 0.1 min, 20%/80% at 10 min, 0.5%/99.5% at 10.1 min, 0.5%/99.5% at 12.0 min, 99.5%/0.5% at 12.1 min, 99.5%/0.5% at 15.0 min)
AC$CHROMATOGRAPHY: FLOW_RATE 0.3 ml/min at 0 min, 0.3 ml/min at 10 min, 0.4 ml/min at 10.1 min, 0.4 ml/min at 14.4 min, 0.3 ml/min at 14.5 min
AC$CHROMATOGRAPHY: RETENTION_TIME 5.85
AC$CHROMATOGRAPHY: SOLVENT A water including 0.1% formic acid
AC$CHROMATOGRAPHY: SOLVENT B acetonitrile including 0.1% formic acid
MS$FOCUSED_ION: PRECURSOR_TYPE [M+H]+
MS$FOCUSED_ION: PRECURSOR_M/Z 369.21727
PK$SPLASH: splash10-014i-0429000000-2ea2ada92dedef4c08e0
PK$NUM_PEAK: 659
PK$PEAK: m/z int. rel.int.
  56.05301 63.0 1
  60.04199 55.0 1
  75.03769 27.0 0
  75.04365 163.0 2
  77.79713 18.0 0
  79.0489 28.0 0
  81.07274 26.0 0
  84.05669 17.0 0
  84.07853 287.0 3
  84.08584 74.0 1
  84.37505 24.0 0
  85.0229 48.0 1
  91.05511 48.0 1
  92.06757 21.0 0
  92.54125 19.0 0
  93.06461 24.0 0
  93.07562 31.0 0
  94.44077 17.0 0
  95.04287 32.0 0
  95.04953 150.0 2
  96.07765 45.0 1
  103.04363 36.0 0
  103.05591 17.0 0
  104.01378 34.0 0
  104.0556 25.0 0
  105.07013 20.0 0
  106.06718 23.0 0
  107.05096 20.0 0
  107.08658 21.0 0
  108.06071 115.0 1
  108.08005 267.0 3
  109.02782 25.0 0
  109.06104 27.0 0
  109.97907 28.0 0
  110.09529 1581.0 18
  111.09084 30.0 0
  111.10171 109.0 1
  111.79224 22.0 0
  111.82084 42.0 0
  113.03951 20.0 0
  115.05295 39.0 0
  115.05825 35.0 0
  117.05802 28.0 0
  117.06784 356.0 4
  117.07786 64.0 1
  117.10435 22.0 0
  118.06817 42.0 0
  118.07716 39.0 0
  118.6106 17.0 0
  119.08122 17.0 0
  119.09 17.0 0
  120.08151 94.0 1
  120.59876 30.0 0
  121.06641 22.0 0
  121.29287 27.0 0
  122.09364 18.0 0
  122.09872 20.0 0
  123.04227 165.0 2
  123.0784 78.0 1
  123.0844 40.0 0
  124.08968 24.0 0
  124.12753 20.0 0
  125.0597 73.0 1
  125.08866 24.0 0
  126.05328 96.0 1
  127.05273 102.0 1
  128.04216 87.0 1
  128.04865 81.0 1
  128.0585 34.0 0
  128.24759 17.0 0
  129.048 359.0 4
  129.05351 1286.0 15
  129.07498 144.0 2
  130.0285 20.0 0
  130.05165 54.0 1
  130.0645 565.0 6
  130.88004 18.0 0
  131.05736 24.0 0
  131.06433 25.0 0
  131.07402 53.0 1
  131.62491 17.0 0
  132.05492 27.0 0
  132.07799 79.0 1
  133.06502 29.0 0
  133.07832 29.0 0
  134.06308 23.0 0
  134.09502 64.0 1
  134.10393 41.0 0
  134.37617 20.0 0
  134.47136 19.0 0
  135.03258 31.0 0
  135.07939 23.0 0
  136.10971 26.0 0
  137.07985 65.0 1
  138.05431 53.0 1
  138.06503 29.0 0
  138.09412 42.0 0
  138.10193 40.0 0
  139.05827 25.0 0
  139.06956 73.0 1
  139.07939 107.0 1
  139.85272 53.0 1
  140.06885 42.0 0
  140.08098 22.0 0
  140.10774 28.0 0
  140.50504 32.0 0
  142.05927 17.0 0
  142.06897 207.0 2
  143.05357 28.0 0
  143.05994 51.0 1
  143.06999 301.0 3
  143.07832 272.0 3
  143.08585 128.0 1
  143.97279 17.0 0
  144.03494 21.0 0
  144.05518 76.0 1
  144.08038 12535.0 142
  144.11295 17.0 0
  144.12033 17.0 0
  145.05093 21.0 0
  145.08418 1150.0 13
  145.10027 21.0 0
  145.4496 20.0 0
  145.88947 17.0 0
  145.98343 19.0 0
  146.06224 58.0 1
  146.08929 293.0 3
  146.10008 87.0 1
  147.07837 20.0 0
  147.10004 45.0 1
  148.60323 20.0 0
  149.05276 17.0 0
  149.08897 92.0 1
  149.09557 142.0 2
  150.09103 123.0 1
  151.04213 46.0 1
  151.05577 68.0 1
  151.06535 21.0 0
  151.07535 24.0 0
  151.08069 70.0 1
  152.06734 105.0 1
  152.08826 17.0 0
  152.11095 64.0 1
  152.27 19.0 0
  153.07278 162.0 2
  154.06563 88.0 1
  154.10094 17.0 0
  154.12062 205.0 2
  154.15315 24.0 0
  154.87674 22.0 0
  155.04245 75.0 1
  155.05319 32.0 0
  155.06522 216.0 2
  155.07358 213.0 2
  155.08577 17.0 0
  155.108 28.0 0
  155.87512 29.0 0
  156.06552 55.0 1
  156.07701 359.0 4
  156.08627 270.0 3
  156.1078 24.0 0
  157.06302 72.0 1
  157.08253 107.0 1
  157.08881 117.0 1
  157.65442 21.0 0
  158.07645 82.0 1
  158.09093 404.0 5
  158.09779 974.0 11
  159.08987 67.0 1
  159.09938 173.0 2
  160.07176 41.0 0
  161.0907 98.0 1
  161.12019 24.0 0
  161.95636 32.0 0
  162.09203 89.0 1
  163.06206 21.0 0
  164.10385 37.0 0
  165.05927 31.0 0
  165.0697 32.0 0
  165.07771 23.0 0
  165.08905 18.0 0
  166.06172 18.0 0
  166.08177 797.0 9
  166.11838 87.0 1
  166.12582 52.0 1
  167.04556 18.0 0
  167.07349 127.0 1
  167.08061 119.0 1
  167.09227 22.0 0
  167.10034 17.0 0
  167.11255 43.0 0
  167.17567 25.0 0
  167.59264 21.0 0
  168.06767 71.0 1
  168.07472 101.0 1
  168.08655 222.0 3
  168.10287 349.0 4
  168.35114 33.0 0
  169.08127 148.0 2
  169.09782 104.0 1
  169.14854 26.0 0
  169.99394 18.0 0
  170.06535 17.0 0
  170.09592 3028.0 34
  170.1217 44.0 0
  171.08698 174.0 2
  171.09962 1488.0 17
  172.0946 68.0 1
  172.10834 480.0 5
  172.12337 68.0 1
  173.10294 47.0 1
  173.11758 73.0 1
  174.09259 98.0 1
  175.05684 34.0 0
  175.07777 51.0 1
  175.38655 18.0 0
  176.42931 23.0 0
  177.00615 17.0 0
  177.09081 499.0 6
  177.09821 162.0 2
  177.64285 27.0 0
  178.12212 478.0 5
  179.08459 53.0 1
  179.60027 20.0 0
  180.06444 20.0 0
  180.08022 454.0 5
  180.09813 262.0 3
  180.10509 489.0 6
  180.13652 32.0 0
  181.08214 90.0 1
  181.08891 89.0 1
  181.10283 90.0 1
  181.3735 24.0 0
  181.74139 17.0 0
  181.78848 17.0 0
  181.98607 24.0 0
  182.09537 1069.0 12
  182.11462 138.0 2
  182.12527 47.0 1
  182.18997 49.0 1
  183.07922 27.0 0
  183.09444 129.0 1
  183.1281 25.0 0
  184.10059 118.0 1
  184.11322 27.0 0
  185.09801 78.0 1
  185.11363 23.0 0
  185.12192 27.0 0
  186.13431 35.0 0
  187.09628 21.0 0
  188.09865 64.0 1
  188.11339 46.0 1
  189.08699 24.0 0
  189.09341 66.0 1
  190.09718 21.0 0
  191.06108 21.0 0
  191.0705 89.0 1
  192.08597 94.0 1
  192.10059 30.0 0
  193.08043 18.0 0
  194.0567 29.0 0
  194.0677 37.0 0
  194.08859 85.0 1
  194.09821 217.0 2
  194.11514 609.0 7
  195.09811 63.0 1
  195.11313 109.0 1
  195.12961 18.0 0
  196.06363 25.0 0
  196.09396 22.0 0
  196.1068 137.0 2
  196.11818 66.0 1
  196.12828 24.0 0
  196.20569 17.0 0
  197.08192 32.0 0
  197.10541 503.0 6
  197.25607 24.0 0
  198.06451 17.0 0
  198.09332 23.0 0
  198.11124 150.0 2
  198.12512 25.0 0
  199.09082 39.0 0
  199.11235 115.0 1
  199.1223 614.0 7
  200.03839 18.0 0
  200.0813 24.0 0
  200.09711 37.0 0
  200.12692 56.0 1
  202.09254 18.0 0
  202.95258 39.0 0
  203.07799 25.0 0
  204.07191 46.0 1
  205.05621 23.0 0
  205.093 40.0 0
  205.5882 18.0 0
  206.0706 28.0 0
  206.07846 21.0 0
  206.09442 313.0 4
  206.11604 266.0 3
  206.12814 56.0 1
  206.27182 17.0 0
  207.05719 23.0 0
  207.09346 165.0 2
  207.10513 348.0 4
  207.11894 39.0 0
  208.06635 45.0 1
  208.07684 155.0 2
  208.10239 108.0 1
  208.11212 179.0 2
  208.97876 23.0 0
  209.06555 24.0 0
  209.08473 39.0 0
  209.10225 81.0 1
  209.11925 113.0 1
  210.07985 26.0 0
  210.12372 155.0 2
  211.11108 26.0 0
  211.11998 31.0 0
  212.10545 128.0 1
  212.12781 75.0 1
  213.13698 22.0 0
  215.07201 27.0 0
  215.18526 26.0 0
  215.72672 18.0 0
  216.0959 65.0 1
  216.91426 24.0 0
  217.08046 17.0 0
  217.08948 28.0 0
  218.07637 17.0 0
  218.08876 25.0 0
  218.11136 50.0 1
  218.49954 28.0 0
  219.10878 43.0 0
  220.07294 133.0 2
  220.11626 99.0 1
  220.12764 22.0 0
  221.07469 37.0 0
  221.08301 39.0 0
  221.11061 547.0 6
  222.08809 121.0 1
  222.09737 169.0 2
  222.11562 123.0 1
  222.12781 106.0 1
  222.91046 20.0 0
  223.0955 55.0 1
  223.10159 22.0 0
  223.12572 244.0 3
  223.13994 17.0 0
  224.0977 91.0 1
  224.12082 270.0 3
  224.12991 487.0 6
  224.13902 360.0 4
  224.19238 22.0 0
  225.13419 287.0 3
  225.14894 168.0 2
  226.05023 61.0 1
  226.09258 24.0 0
  226.10934 62.0 1
  226.1436 5413.0 61
  226.18517 17.0 0
  226.58168 18.0 0
  226.97058 49.0 1
  227.0387 20.0 0
  227.1066 33.0 0
  227.14825 812.0 9
  227.16582 54.0 1
  227.35855 18.0 0
  228.12204 17.0 0
  228.15239 93.0 1
  230.09195 17.0 0
  230.16655 29.0 0
  230.48405 43.0 0
  231.10765 104.0 1
  232.1084 126.0 1
  232.95319 24.0 0
  233.09871 24.0 0
  233.17108 21.0 0
  234.08548 365.0 4
  234.11777 91.0 1
  234.12881 174.0 2
  234.97403 34.0 0
  235.08061 52.0 1
  235.10878 49.0 1
  235.13605 50.0 1
  235.73483 17.0 0
  236.07425 25.0 0
  236.09167 69.0 1
  236.1021 42.0 0
  236.11336 26.0 0
  236.12923 169.0 2
  236.14575 526.0 6
  236.9308 35.0 0
  237.07838 28.0 0
  237.1246 18.0 0
  237.15331 23.0 0
  238.00529 26.0 0
  238.09042 37.0 0
  238.10028 89.0 1
  238.11559 312.0 4
  238.14476 3543.0 40
  238.99998 18.0 0
  239.11993 115.0 1
  239.14758 549.0 6
  240.1028 442.0 5
  240.1483 90.0 1
  240.16786 20.0 0
  241.09656 18.0 0
  241.10951 38.0 0
  241.56995 22.0 0
  242.50859 32.0 0
  242.68285 20.0 0
  244.0995 21.0 0
  244.11147 33.0 0
  244.1275 20.0 0
  244.84103 23.0 0
  245.10034 17.0 0
  245.12134 117.0 1
  245.13403 19.0 0
  245.65645 20.0 0
  246.12303 112.0 1
  247.10117 111.0 1
  247.11868 23.0 0
  247.13852 20.0 0
  248.09717 35.0 0
  248.10742 46.0 1
  248.13509 88.0 1
  248.14648 88.0 1
  248.15611 39.0 0
  249.103 47.0 1
  249.12231 32.0 0
  249.13928 141.0 2
  249.15089 81.0 1
  249.51434 18.0 0
  250.0253 18.0 0
  250.14723 25.0 0
  250.64386 23.0 0
  251.05305 24.0 0
  251.10539 57.0 1
  251.11574 32.0 0
  251.15364 1245.0 14
  251.16624 278.0 3
  252.09596 72.0 1
  252.10452 61.0 1
  252.13043 38.0 0
  252.14671 38.0 0
  252.16261 276.0 3
  252.65219 20.0 0
  253.08675 17.0 0
  253.10033 102.0 1
  253.16446 1028.0 12
  253.20872 20.0 0
  253.44643 36.0 0
  253.90596 32.0 0
  254.11304 205.0 2
  254.15698 24.0 0
  254.17812 22.0 0
  255.13066 57.0 1
  256.19177 21.0 0
  257.79239 19.0 0
  258.14401 28.0 0
  259.10266 24.0 0
  259.37561 39.0 0
  260.13376 61.0 1
  260.14676 110.0 1
  261.0773 34.0 0
  261.09982 25.0 0
  261.11734 34.0 0
  262.08984 33.0 0
  262.1188 63.0 1
  263.10898 23.0 0
  263.11771 29.0 0
  263.13376 61.0 1
  264.09985 23.0 0
  264.13998 18.0 0
  264.9541 40.0 0
  265.11801 25.0 0
  265.17584 25.0 0
  265.19293 24.0 0
  265.96988 26.0 0
  266.10425 91.0 1
  266.11978 546.0 6
  266.15524 35.0 0
  267.08347 25.0 0
  267.11069 28.0 0
  267.12366 65.0 1
  267.15536 33.0 0
  267.4794 21.0 0
  267.7966 19.0 0
  268.09006 55.0 1
  268.10941 33.0 0
  268.37003 29.0 0
  269.12097 78.0 1
  270.14273 23.0 0
  271.12277 53.0 1
  271.54318 35.0 0
  272.13544 68.0 1
  273.09888 18.0 0
  273.1102 41.0 0
  273.414 23.0 0
  274.14532 39.0 0
  274.73218 24.0 0
  274.99335 17.0 0
  275.11563 45.0 1
  275.15567 92.0 1
  275.9747 17.0 0
  276.10416 26.0 0
  276.13681 25.0 0
  276.15341 20.0 0
  277.0993 37.0 0
  277.17087 152.0 2
  277.19336 29.0 0
  278.14264 30.0 0
  278.15875 55.0 1
  279.11597 25.0 0
  280.09216 33.0 0
  281.10864 34.0 0
  281.13177 24.0 0
  281.14194 17.0 0
  281.94901 20.0 0
  282.15356 22.0 0
  282.46783 47.0 1
  284.13306 91.0 1
  285.11221 43.0 0
  285.12735 33.0 0
  285.13812 28.0 0
  286.14664 57.0 1
  286.35309 43.0 0
  287.04276 21.0 0
  287.15002 23.0 0
  288.13062 177.0 2
  288.14691 45.0 1
  289.10843 33.0 0
  290.10184 40.0 0
  292.10764 33.0 0
  292.17432 119.0 1
  293.12424 42.0 0
  293.15222 30.0 0
  294.13068 26.0 0
  294.14514 61.0 1
  294.18289 60.0 1
  294.20801 17.0 0
  294.91376 21.0 0
  295.15933 59.0 1
  295.71854 20.0 0
  295.79654 23.0 0
  296.1344 17.0 0
  296.1601 228.0 3
  296.17969 46.0 1
  297.19052 28.0 0
  297.60831 17.0 0
  297.70801 18.0 0
  298.09543 21.0 0
  298.10941 30.0 0
  298.12222 106.0 1
  298.14279 1307.0 15
  299.14624 217.0 2
  299.16708 18.0 0
  299.17755 22.0 0
  299.57574 34.0 0
  300.13586 29.0 0
  300.14908 18.0 0
  302.14001 29.0 0
  302.29269 20.0 0
  302.33566 21.0 0
  302.55179 28.0 0
  304.12775 24.0 0
  305.13181 20.0 0
  305.1557 310.0 4
  305.17407 90.0 1
  305.18414 62.0 1
  306.15198 77.0 1
  306.16525 84.0 1
  307.11737 36.0 0
  307.14282 18.0 0
  307.17352 123.0 1
  307.18689 46.0 1
  308.16528 42.0 0
  308.18173 62.0 1
  309.16653 23.0 0
  309.20059 26.0 0
  310.20227 30.0 0
  311.85416 24.0 0
  314.94531 20.0 0
  315.73315 38.0 0
  320.1647 84.0 1
  320.17654 54.0 1
  320.90552 20.0 0
  321.16147 56.0 1
  321.18918 26.0 0
  322.96155 24.0 0
  323.15433 26.0 0
  326.16113 40.0 0
  326.17444 53.0 1
  327.15073 24.0 0
  327.97974 33.0 0
  332.14734 49.0 1
  334.90292 29.0 0
  335.18979 24.0 0
  336.85406 21.0 0
  337.12943 31.0 0
  337.14825 19.0 0
  337.18909 1967.0 22
  338.16943 36.0 0
  338.19644 497.0 6
  338.70544 17.0 0
  339.19287 88.0 1
  339.20911 27.0 0
  340.17218 40.0 0
  340.20026 69.0 1
  341.17273 117.0 1
  341.19247 242.0 3
  342.18634 36.0 0
  343.19666 30.0 0
  345.51215 32.0 0
  346.08099 22.0 0
  351.21158 42.0 0
  351.25089 37.0 0
  351.46921 19.0 0
  351.72247 21.0 0
  352.14774 23.0 0
  352.18375 292.0 3
  352.1965 473.0 5
  352.621 21.0 0
  352.76535 22.0 0
  352.84363 22.0 0
  353.10641 18.0 0
  353.17545 46.0 1
  353.20071 117.0 1
  353.21927 33.0 0
  354.19858 20.0 0
  354.25552 31.0 0
  361.06284 20.0 0
  361.37955 25.0 0
  363.39532 17.0 0
  364.98572 18.0 0
  365.07053 51.0 1
  366.22906 19.0 0
  366.8519 24.0 0
  367.19986 377.0 4
  367.22238 105.0 1
  367.42734 18.0 0
  368.19833 44.0 0
  368.21829 101.0 1
  368.43979 18.0 0
  368.49374 20.0 0
  368.61853 21.0 0
  368.76562 43.0 0
  368.8909 58.0 1
  368.91602 20.0 0
  368.95554 17.0 0
  369.0787 18.0 0
  369.1001 120.0 1
  369.11639 123.0 1
  369.14932 310.0 4
  369.18329 64.0 1
  369.21674 87973.0 999
  369.27261 2614.0 30
  369.32309 283.0 3
  369.41473 20.0 0
//
