ACCESSION: MSBNK-RIKEN-PR303584
RECORD_TITLE: Wogonin; LC-ESI-QTOF; MS2
DATE: 2019.03.28
AUTHORS: Tetsuya Mori, Center for Sustainable Resource Science, RIKEN
LICENSE: CC BY-NC-SA
PUBLICATION: Tsugawa H., Nakabayashi R., Mori T., Yamada Y., Takahashi M., Rai A., Sugiyama R., Yamamoto H., Nakaya T., Yamazaki M., Kooke R., Bac-Molenaar JA., Oztolan-Erol N., Keurentjes JJB., Arita M., Saito K. (2019) "A cheminformatics approach to characterize metabolomes in stable-isotope-labeled organisms" Nature Methods 16(4):295-298. [doi:10.1038/s41592-019-0358-2]
COMMENT: registered in RIKEN PlaSMA
CH$NAME: Wogonin
CH$COMPOUND_CLASS: 8-O-methylated flavonoids
CH$FORMULA: C16H12O5
CH$EXACT_MASS: 284.267
CH$SMILES: COC1=C(O)C=C(O)C2=C1OC(=CC2=O)C1=CC=CC=C1
CH$IUPAC: InChI=1S/C16H12O5/c1-20-15-12(19)7-10(17)14-11(18)8-13(21-16(14)15)9-5-3-2-4-6-9/h2-8,17,19H,1H3
CH$LINK: INCHIKEY XLTFNNCXVBYBSX-UHFFFAOYSA-N
AC$INSTRUMENT: LC, Waters Acquity UPLC System; MS, Waters Xevo G2 Q-Tof
AC$INSTRUMENT_TYPE: LC-ESI-QTOF
AC$MASS_SPECTROMETRY: MS_TYPE MS2
AC$MASS_SPECTROMETRY: ION_MODE POSITIVE
AC$MASS_SPECTROMETRY: COLLISION_ENERGY 6V
AC$MASS_SPECTROMETRY: DESOLVATION_GAS_FLOW 800/h
AC$MASS_SPECTROMETRY: DESOLVATION_TEMPERATURE 450 C
AC$MASS_SPECTROMETRY: IONIZATION ESI
AC$CHROMATOGRAPHY: CAPILLARY_VOLTAGE +3.00 kV
AC$CHROMATOGRAPHY: COLUMN_NAME Acquity bridged ethyl hybrid C18 (1.7 um, 2.1 mm * 100 mm, Waters)
AC$CHROMATOGRAPHY: COLUMN_TEMPERATURE 40 C
AC$CHROMATOGRAPHY: FLOW_GRADIENT A/B = (99.5%/0.5% at 0 min, 99.5%/0.5% at 0.1 min, 20%/80% at 10 min, 0.5%/99.5% at 10.1 min, 0.5%/99.5% at 12.0 min, 99.5%/0.5% at 12.1 min, 99.5%/0.5% at 15.0 min)
AC$CHROMATOGRAPHY: FLOW_RATE 0.3 ml/min at 0 min, 0.3 ml/min at 10 min, 0.4 ml/min at 10.1 min, 0.4 ml/min at 14.4 min, 0.3 ml/min at 14.5 min
AC$CHROMATOGRAPHY: RETENTION_TIME 7.2724
AC$CHROMATOGRAPHY: SOLVENT A water including 0.1% formic acid
AC$CHROMATOGRAPHY: SOLVENT B acetonitrile including 0.1% formic acid
MS$FOCUSED_ION: PRECURSOR_TYPE [M+H]+
MS$FOCUSED_ION: PRECURSOR_M/Z 285.0757499
PK$SPLASH: splash10-0udi-0900000000-a65fbfd80fb701ca7a0e
PK$NUM_PEAK: 180
PK$PEAK: m/z int. rel.int.
  51.0248 6.0 6
  55.01817 19.0 19
  56.02328 8.0 8
  56.02732 22.0 22
  66.00777 6.0 6
  66.01361 7.0 7
  67.01569 5.0 5
  68.9929 15.0 15
  68.99867 69.0 69
  70.00047 7.0 7
  70.00469 16.0 16
  71.00139 7.0 7
  71.00648 6.0 6
  71.01354 6.0 6
  71.01749 18.0 18
  77.03267 35.0 35
  77.03919 57.0 57
  78.04411 15.0 15
  79.01618 7.0 7
  84.01904 89.0 89
  84.02444 62.0 62
  85.02381 10.0 10
  89.5108 6.0 6
  92.99754 37.0 37
  94.00459 25.0 25
  94.08041 6.0 6
  96.02133 11.0 11
  101.03903 11.0 11
  102.0463 32.0 32
  103.05457 148.0 148
  103.56068 6.0 6
  103.60433 8.0 8
  104.06077 125.0 125
  104.40021 6.0 6
  105.03391 144.0 144
  105.06661 9.0 9
  105.84776 6.0 6
  106.03688 6.0 6
  107.01253 7.0 7
  109.03088 5.0 5
  109.99216 5.0 5
  110.00735 5.0 5
  110.9948 6.0 6
  111.00764 33.0 33
  111.60975 6.0 6
  112.00365 5.0 5
  112.01401 83.0 83
  112.02091 29.0 29
  113.0164 15.0 15
  113.02781 13.0 13
  113.04519 7.0 7
  114.04646 31.0 31
  115.04202 31.0 31
  115.05233 134.0 134
  115.05714 98.0 98
  116.05376 32.0 32
  116.06134 88.0 88
  116.06719 25.0 25
  117.02759 11.0 11
  117.06944 36.0 36
  118.06045 10.0 10
  118.07489 13.0 13
  119.04733 9.0 9
  122.00688 25.0 25
  124.00436 8.0 8
  125.04007 7.0 7
  126.03265 11.0 11
  126.04807 52.0 52
  127.03612 6.0 6
  127.05305 97.0 97
  128.0598 75.0 75
  129.03152 25.0 25
  129.05283 6.0 6
  129.0621 11.0 11
  129.07048 54.0 54
  129.08086 10.0 10
  130.07455 31.0 31
  131.04979 161.0 161
  138.0448 6.0 6
  139.00296 177.0 177
  139.00977 43.0 43
  139.03629 29.0 29
  139.05434 393.0 393
  139.10696 6.0 6
  139.68552 9.0 9
  139.77554 9.0 9
  140.00925 195.0 195
  140.06039 162.0 162
  140.62303 6.0 6
  140.89874 5.0 5
  141.02261 7.0 7
  141.05869 13.0 13
  141.06529 63.0 63
  141.0743 15.0 15
  142.04233 8.0 8
  142.07156 32.0 32
  142.14493 5.0 5
  143.04828 23.0 23
  143.05452 16.0 16
  143.07227 6.0 6
  143.18614 6.0 6
  144.04926 15.0 15
  144.05989 81.0 81
  145.03328 6.0 6
  145.06233 29.0 29
  147.0423 14.0 14
  147.04881 11.0 11
  149.03082 6.0 6
  150.03946 90.0 90
  150.04912 150.0 150
  151.00397 15.0 15
  151.01201 6.0 6
  151.05353 1000.0 999
  151.40451 7.0 7
  151.49242 6.0 6
  151.52324 6.0 6
  152.05957 189.0 189
  153.02995 36.0 36
  153.03734 25.0 25
  153.05414 7.0 7
  153.06706 8.0 8
  155.03012 8.0 8
  155.04778 74.0 74
  156.05215 20.0 20
  156.05989 11.0 11
  157.05461 6.0 6
  157.06708 53.0 53
  158.06644 5.0 5
  165.00755 7.0 7
  167.05162 20.0 20
  167.99457 6.0 6
  168.00914 32.0 32
  168.05666 102.0 102
  169.00327 6.0 6
  169.05756 13.0 13
  169.06805 22.0 22
  170.07098 6.0 6
  170.69949 6.0 6
  171.00012 9.0 9
  171.04257 155.0 155
  171.05518 9.0 9
  172.0546 16.0 16
  173.06287 5.0 5
  174.05504 5.0 5
  178.04457 6.0 6
  179.04919 179.0 179
  180.02704 7.0 7
  180.05417 44.0 44
  181.0564 10.0 10
  182.02423 6.0 6
  185.06255 6.0 6
  186.0605 6.0 6
  194.02905 8.0 8
  195.0282 5.0 5
  195.03992 12.0 12
  195.04828 26.0 26
  196.05026 14.0 14
  196.31638 8.0 8
  199.04317 26.0 26
  199.06374 6.0 6
  212.82849 7.0 7
  213.04681 23.0 23
  213.05754 45.0 45
  221.99182 7.0 7
  223.04445 5.0 5
  224.04626 41.0 41
  225.05276 6.0 6
  236.60556 8.0 8
  241.02635 6.0 6
  241.05147 58.0 58
  242.05469 53.0 53
  242.07394 6.0 6
  252.03288 6.0 6
  253.05408 6.0 6
  255.21678 5.0 5
  259.49673 7.0 7
  269.0473 7.0 7
  270.05472 49.0 49
  271.06403 6.0 6
  285.07361 39.0 39
//
