ACCESSION: MSBNK-RIKEN-PR304029
RECORD_TITLE: Schisandrin; LC-ESI-QTOF; MS2
DATE: 2019.03.28
AUTHORS: Tetsuya Mori, Center for Sustainable Resource Science, RIKEN
LICENSE: CC BY-NC-SA
PUBLICATION: Tsugawa H., Nakabayashi R., Mori T., Yamada Y., Takahashi M., Rai A., Sugiyama R., Yamamoto H., Nakaya T., Yamazaki M., Kooke R., Bac-Molenaar JA., Oztolan-Erol N., Keurentjes JJB., Arita M., Saito K. (2019) "A cheminformatics approach to characterize metabolomes in stable-isotope-labeled organisms" Nature Methods 16(4):295-298. [doi:10.1038/s41592-019-0358-2]
COMMENT: registered in RIKEN PlaSMA
CH$NAME: Schisandrin
CH$COMPOUND_CLASS: Hydrolyzable tannins
CH$FORMULA: C24H32O7
CH$EXACT_MASS: 432.513
CH$SMILES: COC1=C(OC)C(OC)=C2C(CC(C)C(C)(O)CC3=CC(OC)=C(OC)C(OC)=C23)=C1
CH$IUPAC: InChI=1S/C24H32O7/c1-13-9-14-10-16(26-3)20(28-5)22(30-7)18(14)19-15(12-24(13,2)25)11-17(27-4)21(29-6)23(19)31-8/h10-11,13,25H,9,12H2,1-8H3
CH$LINK: INCHIKEY YEFOAORQXAOVJQ-UHFFFAOYSA-N
AC$INSTRUMENT: LC, Waters Acquity UPLC System; MS, Waters Xevo G2 Q-Tof
AC$INSTRUMENT_TYPE: LC-ESI-QTOF
AC$MASS_SPECTROMETRY: MS_TYPE MS2
AC$MASS_SPECTROMETRY: ION_MODE POSITIVE
AC$MASS_SPECTROMETRY: COLLISION_ENERGY 6V
AC$MASS_SPECTROMETRY: DESOLVATION_GAS_FLOW 800/h
AC$MASS_SPECTROMETRY: DESOLVATION_TEMPERATURE 450 C
AC$MASS_SPECTROMETRY: IONIZATION ESI
AC$CHROMATOGRAPHY: CAPILLARY_VOLTAGE +3.00 kV
AC$CHROMATOGRAPHY: COLUMN_NAME Acquity bridged ethyl hybrid C18 (1.7 um, 2.1 mm * 100 mm, Waters)
AC$CHROMATOGRAPHY: COLUMN_TEMPERATURE 40 C
AC$CHROMATOGRAPHY: FLOW_GRADIENT A/B = (99.5%/0.5% at 0 min, 99.5%/0.5% at 0.1 min, 20%/80% at 10 min, 0.5%/99.5% at 10.1 min, 0.5%/99.5% at 12.0 min, 99.5%/0.5% at 12.1 min, 99.5%/0.5% at 15.0 min)
AC$CHROMATOGRAPHY: FLOW_RATE 0.3 ml/min at 0 min, 0.3 ml/min at 10 min, 0.4 ml/min at 10.1 min, 0.4 ml/min at 14.4 min, 0.3 ml/min at 14.5 min
AC$CHROMATOGRAPHY: RETENTION_TIME 7.655766
AC$CHROMATOGRAPHY: SOLVENT A water including 0.1% formic acid
AC$CHROMATOGRAPHY: SOLVENT B acetonitrile including 0.1% formic acid
MS$FOCUSED_ION: PRECURSOR_TYPE [M+H]+
MS$FOCUSED_ION: PRECURSOR_M/Z 433.2220798
PK$SPLASH: splash10-0159-0009000000-9da8e1eef351b2654acb
PK$NUM_PEAK: 276
PK$PEAK: m/z int. rel.int.
  69.07281 22.0 22
  93.06606 10.0 10
  125.06191 11.0 11
  151.07907 13.0 13
  166.06714 13.0 13
  166.07497 10.0 10
  178.09381 11.0 11
  181.07993 10.0 10
  181.09706 23.0 23
  182.09497 12.0 12
  205.76437 25.0 25
  211.20781 11.0 11
  219.0069 10.0 10
  219.10402 20.0 20
  221.13475 11.0 11
  223.10516 11.0 11
  233.07442 10.0 10
  233.11963 12.0 12
  235.13719 18.0 18
  237.94507 10.0 10
  242.09398 11.0 11
  243.09479 11.0 11
  244.07268 15.0 15
  244.1144 10.0 10
  247.80199 10.0 10
  249.10585 11.0 11
  250.09547 19.0 19
  253.06819 11.0 11
  254.10333 15.0 15
  256.07764 10.0 10
  256.11047 10.0 10
  257.10709 11.0 11
  258.09424 15.0 15
  261.99585 10.0 10
  265.07864 10.0 10
  266.14081 12.0 12
  268.10547 10.0 10
  269.07993 12.0 12
  269.11865 22.0 22
  269.15875 10.0 10
  270.12662 10.0 10
  271.08951 10.0 10
  271.10284 10.0 10
  271.13312 10.0 10
  272.11078 15.0 15
  273.10471 12.0 12
  275.0907 11.0 11
  275.5686 10.0 10
  276.20398 13.0 13
  281.15048 25.0 25
  283.09924 12.0 12
  284.08502 10.0 10
  284.147 10.0 10
  284.60068 12.0 12
  285.11035 31.0 31
  285.13278 14.0 14
  286.06805 10.0 10
  286.11298 11.0 11
  287.12939 35.0 35
  287.14182 10.0 10
  288.05829 10.0 10
  288.10486 21.0 21
  289.10083 10.0 10
  291.10416 11.0 11
  291.1452 12.0 12
  292.11801 12.0 12
  293.1301 10.0 10
  294.00961 12.0 12
  294.12067 44.0 44
  294.13309 10.0 10
  295.11664 10.0 10
  296.10873 10.0 10
  296.12283 10.0 10
  296.15097 10.0 10
  296.89069 10.0 10
  297.09909 10.0 10
  298.10861 12.0 12
  298.11887 10.0 10
  298.133 10.0 10
  299.12357 19.0 19
  300.03534 12.0 12
  300.0929 56.0 56
  300.11526 10.0 10
  300.55838 13.0 13
  301.11563 51.0 51
  302.1037 10.0 10
  302.15607 11.0 11
  303.11816 13.0 13
  305.12 10.0 10
  306.13156 11.0 11
  307.15359 10.0 10
  308.09061 11.0 11
  309.1033 11.0 11
  309.13651 10.0 10
  309.15466 20.0 20
  309.68365 10.0 10
  310.13037 10.0 10
  310.15067 26.0 26
  311.12967 18.0 18
  312.08997 11.0 11
  312.10101 29.0 29
  312.11887 12.0 12
  312.13126 25.0 25
  312.1424 29.0 29
  312.37589 10.0 10
  313.10681 80.0 80
  313.11823 50.0 50
  313.14664 10.0 10
  314.09271 10.0 10
  314.10513 30.0 30
  314.13397 22.0 22
  315.09177 22.0 22
  315.12302 270.0 270
  315.15237 18.0 18
  315.16946 11.0 11
  315.74448 14.0 14
  316.0939 58.0 58
  316.11395 55.0 55
  316.13223 43.0 43
  316.8475 10.0 10
  317.10968 10.0 10
  317.12717 11.0 11
  317.13898 10.0 10
  319.12906 13.0 13
  320.14182 10.0 10
  320.15265 10.0 10
  321.11615 29.0 29
  321.91241 21.0 21
  322.00424 10.0 10
  322.11462 37.0 37
  322.15118 49.0 49
  322.16141 118.0 118
  322.18042 10.0 10
  323.06021 19.0 19
  323.12881 11.0 11
  323.14896 20.0 20
  323.16495 22.0 22
  324.14066 12.0 12
  324.17105 28.0 28
  324.17847 12.0 12
  325.12549 10.0 10
  325.13885 22.0 22
  325.15424 13.0 13
  326.10391 11.0 11
  326.14346 47.0 47
  327.09512 13.0 13
  327.12231 83.0 83
  327.14981 23.0 23
  327.15796 10.0 10
  328.1315 288.0 288
  329.09354 33.0 33
  329.10809 77.0 77
  329.13733 93.0 93
  329.1636 10.0 10
  330.11163 32.0 32
  330.14569 345.0 345
  330.4086 11.0 11
  331.07114 10.0 10
  331.11267 137.0 137
  331.12592 56.0 56
  331.14157 10.0 10
  331.16397 23.0 23
  332.11804 89.0 89
  332.13336 91.0 91
  333.12213 19.0 19
  333.14169 35.0 35
  334.71463 10.0 10
  335.13297 12.0 12
  336.13907 10.0 10
  336.56998 12.0 12
  337.11432 17.0 17
  337.13284 38.0 38
  337.15277 91.0 91
  338.147 366.0 366
  338.16071 135.0 135
  338.94958 12.0 12
  339.07175 10.0 10
  339.11673 10.0 10
  339.15616 79.0 79
  339.16986 58.0 58
  340.15274 29.0 29
  340.16653 12.0 12
  340.28604 10.0 10
  341.07074 14.0 14
  341.1358 32.0 32
  341.14725 37.0 37
  341.16525 11.0 11
  342.11053 11.0 11
  342.14661 458.0 458
  342.19113 33.0 33
  342.22165 10.0 10
  343.09625 19.0 19
  343.11618 54.0 54
  343.15076 102.0 102
  343.16873 10.0 10
  344.11478 44.0 44
  344.13303 46.0 46
  344.16498 22.0 22
  345.11209 10.0 10
  345.13391 90.0 90
  345.14917 21.0 21
  346.08578 20.0 20
  346.11035 26.0 26
  346.14005 429.0 429
  346.15381 123.0 123
  346.23721 14.0 14
  347.14267 25.0 25
  347.15106 41.0 41
  348.1503 20.0 20
  349.13052 10.0 10
  350.52457 16.0 16
  352.12674 10.0 10
  352.16144 31.0 31
  352.17285 19.0 19
  353.07233 10.0 10
  353.13571 80.0 80
  353.17664 468.0 468
  354.14578 77.0 77
  354.15948 82.0 82
  354.17859 113.0 113
  354.21124 10.0 10
  355.13806 22.0 22
  355.15369 20.0 20
  355.16684 10.0 10
  355.194 13.0 13
  356.13092 14.0 14
  356.1734 41.0 41
  357.11304 10.0 10
  357.13202 31.0 31
  357.16443 13.0 13
  357.24457 10.0 10
  358.01025 14.0 14
  358.1442 47.0 47
  358.1582 10.0 10
  358.1792 28.0 28
  359.14062 64.0 64
  359.15433 32.0 32
  359.186 11.0 11
  359.22781 10.0 10
  360.14346 10.0 10
  362.16574 19.0 19
  366.37119 13.0 13
  367.13922 11.0 11
  368.17108 35.0 35
  368.19931 10.0 10
  369.12573 32.0 32
  369.17133 1000.0 999
  370.1741 141.0 141
  371.14252 10.0 10
  371.15805 20.0 20
  371.17804 10.0 10
  372.14655 12.0 12
  372.16812 13.0 13
  373.17133 11.0 11
  374.14035 17.0 17
  374.17014 20.0 20
  383.1955 10.0 10
  384.16769 57.0 57
  384.1926 573.0 572
  384.2063 135.0 135
  385.15359 86.0 86
  385.19211 213.0 213
  385.23334 10.0 10
  385.24899 10.0 10
  385.36145 10.0 10
  386.14645 10.0 10
  386.16107 29.0 29
  386.17581 40.0 40
  386.1897 19.0 19
  386.20969 10.0 10
  387.20639 11.0 11
  400.17938 62.0 62
  400.20059 53.0 53
  400.62982 11.0 11
  401.6955 10.0 10
  432.59286 10.0 10
//
