ACCESSION: MSBNK-RIKEN-PR300486
RECORD_TITLE: Speciofiline; LC-ESI-QTOF; MS2
DATE: 2019.03.28
AUTHORS: Tetsuya Mori, Center for Sustainable Resource Science, RIKEN
LICENSE: CC BY-NC-SA
PUBLICATION: Tsugawa H., Nakabayashi R., Mori T., Yamada Y., Takahashi M., Rai A., Sugiyama R., Yamamoto H., Nakaya T., Yamazaki M., Kooke R., Bac-Molenaar JA., Oztolan-Erol N., Keurentjes JJB., Arita M., Saito K. (2019) "A cheminformatics approach to characterize metabolomes in stable-isotope-labeled organisms" Nature Methods 16(4):295-298. [doi:10.1038/s41592-019-0358-2]
COMMENT: registered in RIKEN PlaSMA
CH$NAME: Speciofiline
CH$COMPOUND_CLASS: Indolizidines
CH$FORMULA: C21H24N2O4
CH$EXACT_MASS: 368.433
CH$SMILES: COC(=O)C1=CO[C@@H](C)[C@@H]2CN3CC[C@@]4([C@H]3C[C@H]12)C(O)=NC1=CC=CC=C41
CH$IUPAC: InChI=1S/C21H24N2O4/c1-12-14-10-23-8-7-21(16-5-3-4-6-17(16)22-20(21)25)18(23)9-13(14)15(11-27-12)19(24)26-2/h3-6,11-14,18H,7-10H2,1-2H3,(H,22,25)/t12-,13-,14-,18+,21+/m0/s1
CH$LINK: INCHIKEY JMIAZDVHNCCPDM-PMJXBNNDSA-N
AC$INSTRUMENT: LC, Waters Acquity UPLC System; MS, Waters Xevo G2 Q-Tof
AC$INSTRUMENT_TYPE: LC-ESI-QTOF
AC$MASS_SPECTROMETRY: MS_TYPE MS2
AC$MASS_SPECTROMETRY: ION_MODE POSITIVE
AC$MASS_SPECTROMETRY: COLLISION_ENERGY 6V
AC$MASS_SPECTROMETRY: DESOLVATION_GAS_FLOW 800/h
AC$MASS_SPECTROMETRY: DESOLVATION_TEMPERATURE 450 C
AC$MASS_SPECTROMETRY: IONIZATION ESI
AC$CHROMATOGRAPHY: CAPILLARY_VOLTAGE +3.00 kV
AC$CHROMATOGRAPHY: COLUMN_NAME Acquity bridged ethyl hybrid C18 (1.7 um, 2.1 mm * 100 mm, Waters)
AC$CHROMATOGRAPHY: COLUMN_TEMPERATURE 40 C
AC$CHROMATOGRAPHY: FLOW_GRADIENT A/B = (99.5%/0.5% at 0 min, 99.5%/0.5% at 0.1 min, 20%/80% at 10 min, 0.5%/99.5% at 10.1 min, 0.5%/99.5% at 12.0 min, 99.5%/0.5% at 12.1 min, 99.5%/0.5% at 15.0 min)
AC$CHROMATOGRAPHY: FLOW_RATE 0.3 ml/min at 0 min, 0.3 ml/min at 10 min, 0.4 ml/min at 10.1 min, 0.4 ml/min at 14.4 min, 0.3 ml/min at 14.5 min
AC$CHROMATOGRAPHY: RETENTION_TIME 4.094467
AC$CHROMATOGRAPHY: SOLVENT A water including 0.1% formic acid
AC$CHROMATOGRAPHY: SOLVENT B acetonitrile including 0.1% formic acid
MS$FOCUSED_ION: PRECURSOR_TYPE [M+H]+
MS$FOCUSED_ION: PRECURSOR_M/Z 369.1808837
PK$SPLASH: splash10-00lr-0900000000-2decd4ed2c64a3e6840c
PK$NUM_PEAK: 219
PK$PEAK: m/z int. rel.int.
  56.0546 5.0 5
  67.04019 6.0 6
  70.0693 12.0 12
  77.03247 9.0 9
  77.03852 7.0 7
  78.03412 13.0 13
  80.04947 21.0 21
  81.03361 20.0 20
  81.05948 10.0 10
  81.06994 20.0 20
  82.02867 10.0 10
  82.05831 10.0 10
  82.06686 27.0 27
  83.01361 16.0 16
  83.05006 7.0 7
  90.04492 7.0 7
  91.05389 17.0 17
  91.05995 11.0 11
  93.03738 6.0 6
  94.0645 8.0 8
  95.05013 12.0 12
  96.07463 7.0 7
  96.08018 15.0 15
  103.05614 23.0 23
  104.03717 5.0 5
  104.04976 32.0 32
  105.05396 10.0 10
  105.06893 40.0 40
  106.0629 6.0 6
  106.0704 24.0 24
  108.04685 23.0 23
  108.05828 9.0 9
  108.07986 43.0 43
  109.02501 6.0 6
  109.03329 10.0 10
  109.04195 15.0 15
  109.05325 30.0 30
  109.08489 6.0 6
  109.09132 8.0 8
  110.05917 7.0 7
  111.04035 13.0 13
  111.04689 17.0 17
  115.03398 7.0 7
  115.05448 540.0 539
  116.05341 100.0 100
  116.06329 11.0 11
  117.02883 11.0 11
  117.05898 418.0 418
  118.04701 10.0 10
  118.06584 299.0 299
  119.06799 18.0 18
  119.0732 13.0 13
  119.18187 5.0 5
  120.04795 7.0 7
  121.05172 6.0 6
  122.02433 34.0 34
  122.05736 7.0 7
  122.09704 6.0 6
  124.03963 128.0 128
  125.03719 5.0 5
  125.04433 7.0 7
  126.05604 7.0 7
  127.05309 43.0 43
  127.05959 14.0 14
  128.04976 94.0 94
  129.05392 11.0 11
  129.06549 7.0 7
  130.06601 445.0 445
  131.06062 20.0 20
  131.07159 85.0 85
  132.04448 724.0 723
  132.06323 8.0 8
  132.08105 969.0 968
  132.10301 6.0 6
  133.04794 85.0 85
  133.08374 88.0 88
  133.09206 20.0 20
  134.06404 10.0 10
  134.08511 9.0 9
  137.05765 7.0 7
  138.05383 21.0 21
  139.02863 6.0 6
  139.04083 65.0 65
  140.04964 112.0 112
  141.05742 31.0 31
  141.06972 9.0 9
  141.98669 8.0 8
  142.03731 10.0 10
  142.06647 1000.0 999
  143.04919 5.0 5
  143.06798 117.0 117
  143.07704 41.0 41
  144.04604 86.0 86
  144.06995 20.0 20
  144.08229 112.0 112
  145.0506 57.0 57
  145.06258 10.0 10
  145.06935 11.0 11
  145.08226 20.0 20
  146.05623 30.0 30
  146.07008 19.0 19
  151.06136 12.0 12
  152.04466 7.0 7
  152.05841 6.0 6
  153.05795 9.0 9
  153.06682 5.0 5
  154.06441 65.0 65
  155.07147 23.0 23
  156.03929 9.0 9
  156.0471 6.0 6
  156.08203 25.0 25
  157.05219 7.0 7
  157.08424 20.0 20
  158.06084 138.0 138
  158.08536 16.0 16
  158.097 22.0 22
  159.0674 84.0 84
  159.09346 59.0 59
  159.11032 7.0 7
  160.05664 15.0 15
  160.0761 708.0 707
  161.07988 128.0 128
  166.05774 5.0 5
  166.06551 19.0 19
  167.05948 30.0 30
  167.07114 12.0 12
  167.07715 25.0 25
  168.07576 13.0 13
  168.08548 44.0 44
  169.06262 7.0 7
  169.07436 47.0 47
  169.08156 36.0 36
  170.0555 16.0 16
  170.06436 8.0 8
  170.092 9.0 9
  171.06367 5.0 5
  171.07368 6.0 6
  172.05653 6.0 6
  172.06291 12.0 12
  172.07678 49.0 49
  173.05051 7.0 7
  173.06444 23.0 23
  173.07886 33.0 33
  173.11217 9.0 9
  175.0778 7.0 7
  178.06979 7.0 7
  178.08362 11.0 11
  180.08078 17.0 17
  181.08055 8.0 8
  181.08847 6.0 6
  182.06374 10.0 10
  183.06955 15.0 15
  183.08287 5.0 5
  184.0656 11.0 11
  184.07561 18.0 18
  185.07019 23.0 23
  185.09033 9.0 9
  186.07643 21.0 21
  186.09908 9.0 9
  187.05284 8.0 8
  187.08745 177.0 177
  188.0891 25.0 25
  188.10257 6.0 6
  190.04575 7.0 7
  191.07803 10.0 10
  193.07494 6.0 6
  194.03784 7.0 7
  195.06047 10.0 10
  195.07019 11.0 11
  195.1048 6.0 6
  196.09393 8.0 8
  197.06422 18.0 18
  197.07581 17.0 17
  198.07962 21.0 21
  199.082 28.0 28
  201.10796 18.0 18
  202.10078 5.0 5
  202.11086 7.0 7
  204.08397 18.0 18
  206.09445 18.0 18
  207.06371 6.0 6
  208.06265 9.0 9
  208.07323 16.0 16
  208.10533 8.0 8
  209.08958 11.0 11
  209.103 6.0 6
  209.11156 7.0 7
  210.05379 10.0 10
  210.06445 9.0 9
  210.08359 12.0 12
  211.07997 12.0 12
  211.08931 11.0 11
  211.12048 8.0 8
  213.09085 12.0 12
  213.11067 30.0 30
  215.12091 13.0 13
  216.07925 7.0 7
  219.0766 6.0 6
  219.09824 12.0 12
  220.07817 5.0 5
  220.09764 7.0 7
  223.05589 5.0 5
  223.08658 15.0 15
  225.10307 8.0 8
  235.09071 10.0 10
  237.0574 5.0 5
  237.07805 10.0 10
  237.09914 8.0 8
  237.10602 17.0 17
  238.05791 7.0 7
  247.11508 6.0 6
  251.11511 7.0 7
  252.09489 6.0 6
  265.08405 6.0 6
  265.10315 29.0 29
  265.13498 8.0 8
  279.07788 41.0 41
  280.37961 5.0 5
  352.28976 5.0 5
//
