ACCESSION: MSBNK-RIKEN-PR307122
RECORD_TITLE: NP-006989(12); LC-ESI-QTOF; MS2
DATE: 2019.03.28
AUTHORS: Tetsuya Mori, Center for Sustainable Resource Science, RIKEN
LICENSE: CC BY-NC-SA
PUBLICATION: Tsugawa H., Nakabayashi R., Mori T., Yamada Y., Takahashi M., Rai A., Sugiyama R., Yamamoto H., Nakaya T., Yamazaki M., Kooke R., Bac-Molenaar JA., Oztolan-Erol N., Keurentjes JJB., Arita M., Saito K. (2019) "A cheminformatics approach to characterize metabolomes in stable-isotope-labeled organisms" Nature Methods 16(4):295-298. [doi:10.1038/s41592-019-0358-2]
COMMENT: registered in RIKEN PlaSMA
CH$NAME: NP-006989(12)
CH$COMPOUND_CLASS: Flavonoid 8-C-glycosides
CH$FORMULA: C27H30O16
CH$EXACT_MASS: 610.521
CH$SMILES: OCC1OC(C(O)C(O)C1O)C1=C(O)C(C2OC(CO)C(O)C(O)C2O)=C2OC(=CC(=O)C2=C1O)C1=CC(O)=C(O)C=C1
CH$IUPAC: InChI=1S/C27H30O16/c28-5-12-17(33)21(37)23(39)26(42-12)15-19(35)14-10(32)4-11(7-1-2-8(30)9(31)3-7)41-25(14)16(20(15)36)27-24(40)22(38)18(34)13(6-29)43-27/h1-4,12-13,17-18,21-24,26-31,33-40H,5-6H2
CH$LINK: INCHIKEY ZLPSOQFIIQIIAX-UHFFFAOYSA-N
AC$INSTRUMENT: LC, Waters Acquity UPLC System; MS, Waters Xevo G2 Q-Tof
AC$INSTRUMENT_TYPE: LC-ESI-QTOF
AC$MASS_SPECTROMETRY: MS_TYPE MS2
AC$MASS_SPECTROMETRY: ION_MODE NEGATIVE
AC$MASS_SPECTROMETRY: COLLISION_ENERGY 6V
AC$MASS_SPECTROMETRY: DESOLVATION_GAS_FLOW 800/h
AC$MASS_SPECTROMETRY: DESOLVATION_TEMPERATURE 450 C
AC$MASS_SPECTROMETRY: IONIZATION ESI
AC$CHROMATOGRAPHY: CAPILLARY_VOLTAGE -2.75 kV
AC$CHROMATOGRAPHY: COLUMN_NAME Acquity bridged ethyl hybrid C18 (1.7 um, 2.1 mm * 100 mm, Waters)
AC$CHROMATOGRAPHY: COLUMN_TEMPERATURE 40 C
AC$CHROMATOGRAPHY: FLOW_GRADIENT A/B = (99.5%/0.5% at 0 min, 99.5%/0.5% at 0.1 min, 20%/80% at 10 min, 0.5%/99.5% at 10.1 min, 0.5%/99.5% at 12.0 min, 99.5%/0.5% at 12.1 min, 99.5%/0.5% at 15.0 min)
AC$CHROMATOGRAPHY: FLOW_RATE 0.3 ml/min at 0 min, 0.3 ml/min at 10 min, 0.4 ml/min at 10.1 min, 0.4 ml/min at 14.4 min, 0.3 ml/min at 14.5 min
AC$CHROMATOGRAPHY: RETENTION_TIME 3.077283
AC$CHROMATOGRAPHY: SOLVENT A water including 0.1% formic acid
AC$CHROMATOGRAPHY: SOLVENT B acetonitrile including 0.1% formic acid
MS$FOCUSED_ION: PRECURSOR_TYPE [M-H]-
MS$FOCUSED_ION: PRECURSOR_M/Z 609.14610844783
PK$SPLASH: splash10-03di-0369000000-46686d236accda4d8c11
PK$NUM_PEAK: 252
PK$PEAK: m/z int. rel.int.
  61.04766 20.0 20
  79.05908 37.0 37
  83.0125 51.0 51
  95.01254 33.0 33
  107.04654 36.0 36
  108.01933 25.0 25
  109.02654 38.0 38
  109.03236 30.0 30
  111.0443 29.0 29
  119.04431 26.0 26
  122.01843 28.0 28
  125.01992 27.0 27
  133.03131 241.0 241
  134.03566 28.0 28
  134.04153 23.0 23
  135.0486 97.0 97
  137.02591 34.0 34
  139.03746 30.0 30
  144.05588 25.0 25
  146.0372 54.0 54
  147.04587 18.0 18
  149.01878 21.0 21
  149.03401 20.0 20
  149.05571 21.0 21
  150.02075 19.0 19
  151.04323 69.0 69
  159.04391 21.0 21
  161.02939 18.0 18
  161.05931 133.0 133
  162.02811 20.0 20
  163.0105 26.0 26
  163.03583 79.0 79
  164.04831 61.0 61
  165.01265 29.0 29
  165.01965 19.0 19
  167.0287 37.0 37
  168.03535 23.0 23
  168.19475 23.0 23
  173.03049 20.0 20
  174.04091 38.0 38
  174.9583 22.0 22
  175.03516 237.0 237
  176.04672 35.0 35
  177.02072 93.0 93
  177.05803 47.0 47
  178.27995 18.0 18
  179.03168 102.0 102
  179.06862 33.0 33
  185.06384 20.0 20
  188.0423 43.0 43
  189.00995 24.0 24
  189.04312 24.0 24
  191.03296 52.0 52
  191.03914 24.0 24
  192.04385 54.0 54
  193.01495 28.0 28
  193.05807 31.0 31
  194.02069 32.0 32
  196.05188 22.0 22
  198.06627 29.0 29
  198.63333 22.0 22
  198.73599 21.0 21
  201.02194 92.0 92
  202.02162 20.0 20
  203.02745 23.0 23
  203.03902 27.0 27
  205.01215 52.0 52
  205.0405 28.0 28
  205.05785 25.0 25
  207.08693 24.0 24
  209.06351 56.0 56
  209.83119 20.0 20
  210.06796 27.0 27
  211.04202 64.0 64
  212.0704 28.0 28
  213.05556 76.0 76
  213.08975 30.0 30
  214.02899 23.0 23
  214.0477 28.0 28
  215.04027 67.0 67
  217.01575 29.0 29
  217.03683 20.0 20
  217.0497 21.0 21
  219.02715 27.0 27
  221.06129 44.0 44
  223.03374 23.0 23
  224.04707 28.0 28
  225.05489 39.0 39
  226.05832 43.0 43
  227.03506 26.0 26
  227.08603 35.0 35
  229.01457 27.0 27
  229.04477 21.0 21
  229.05568 18.0 18
  229.93787 29.0 29
  230.04884 18.0 18
  231.03609 18.0 18
  232.03824 21.0 21
  232.99893 24.0 24
  233.04005 19.0 19
  233.05711 25.0 25
  235.04427 22.0 22
  235.05824 22.0 22
  236.03639 22.0 22
  238.07005 22.0 22
  239.0784 23.0 23
  240.0367 24.0 24
  241.04369 22.0 22
  241.05614 20.0 20
  241.07217 26.0 26
  242.0529 27.0 27
  243.02725 56.0 56
  244.03584 22.0 22
  245.04454 108.0 108
  247.02621 21.0 21
  247.05928 22.0 22
  250.06952 31.0 31
  251.02197 19.0 19
  251.07201 20.0 20
  253.05095 94.0 94
  254.05109 48.0 48
  254.06975 18.0 18
  255.02834 49.0 49
  255.03966 26.0 26
  255.06407 20.0 20
  255.08386 24.0 24
  256.05219 18.0 18
  257.04489 30.0 30
  258.05698 21.0 21
  262.0517 51.0 51
  264.04077 25.0 25
  267.0434 30.0 30
  267.06619 58.0 58
  267.07538 20.0 20
  268.04758 51.0 51
  269.04257 78.0 78
  269.05261 53.0 53
  270.04529 32.0 32
  270.05573 20.0 20
  270.08115 28.0 28
  271.09259 25.0 25
  273.03818 20.0 20
  275.05154 27.0 27
  278.05756 44.0 44
  280.03513 18.0 18
  280.04581 40.0 40
  280.06693 27.0 27
  281.04434 20.0 20
  281.0723 30.0 30
  282.00824 32.0 32
  282.05249 28.0 28
  282.0921 21.0 21
  283.0191 19.0 19
  283.04898 101.0 101
  283.06125 173.0 173
  283.14334 19.0 19
  284.06726 123.0 123
  285.0495 57.0 57
  290.02487 30.0 30
  292.07455 22.0 22
  295.06042 68.0 68
  296.05347 24.0 24
  297.0267 19.0 19
  297.04297 51.0 51
  297.05869 24.0 24
  298.02982 42.0 42
  298.04651 505.0 504
  298.0589 174.0 174
  299.05173 185.0 185
  300.04938 68.0 68
  301.54495 21.0 21
  305.03717 19.0 19
  306.03958 21.0 21
  307.08719 22.0 22
  308.06415 48.0 48
  308.0845 35.0 35
  309.03842 121.0 121
  309.05069 26.0 26
  310.03564 46.0 46
  310.05173 38.0 38
  311.03296 20.0 20
  311.05615 274.0 274
  312.04376 47.0 47
  312.0621 757.0 756
  313.07108 1000.0 999
  314.08105 100.0 100
  314.09592 18.0 18
  314.50742 20.0 20
  322.03613 20.0 20
  322.91019 26.0 26
  323.05347 143.0 143
  324.05411 66.0 66
  325.07236 150.0 150
  325.08899 21.0 21
  326.04269 22.0 22
  326.06125 27.0 27
  327.04837 239.0 239
  328.0462 30.0 30
  328.06552 21.0 21
  335.06268 26.0 26
  337.05133 26.0 26
  338.07593 27.0 27
  339.03894 79.0 79
  339.05576 332.0 332
  339.08185 27.0 27
  339.10815 20.0 20
  340.04709 135.0 135
  340.06702 23.0 23
  340.09653 27.0 27
  340.22043 24.0 24
  341.05667 57.0 57
  341.06793 207.0 207
  341.08032 41.0 41
  342.07642 69.0 69
  343.08023 22.0 22
  349.07053 22.0 22
  351.04587 25.0 25
  351.05826 28.0 28
  353.06708 281.0 281
  354.069 58.0 58
  355.0838 81.0 81
  357.05801 80.0 80
  363.04367 20.0 20
  367.0426 25.0 25
  367.07678 24.0 24
  367.15863 30.0 30
  369.04785 110.0 110
  369.06741 154.0 154
  370.06073 141.0 141
  370.0766 20.0 20
  371.05194 21.0 21
  378.05972 46.0 46
  379.03381 20.0 20
  379.04388 41.0 41
  381.05859 43.0 43
  381.08038 28.0 28
  382.04483 20.0 20
  382.0748 20.0 20
  383.06229 23.0 23
  384.09592 21.0 21
  385.05527 28.0 28
  399.07135 136.0 136
  399.09357 32.0 32
  411.06415 68.0 68
  414.08783 20.0 20
  425.09259 24.0 24
  438.12857 34.0 34
  513.12146 19.0 19
  607.13745 43.0 43
  608.12097 20.0 20
  608.13708 27.0 27
  609.14062 109.0 109
//
