ACCESSION: MSBNK-RIKEN-PR303851
RECORD_TITLE: Schizandrin; LC-ESI-QTOF; MS2
DATE: 2019.03.28
AUTHORS: Tetsuya Mori, Center for Sustainable Resource Science, RIKEN
LICENSE: CC BY-NC-SA
PUBLICATION: Tsugawa H., Nakabayashi R., Mori T., Yamada Y., Takahashi M., Rai A., Sugiyama R., Yamamoto H., Nakaya T., Yamazaki M., Kooke R., Bac-Molenaar JA., Oztolan-Erol N., Keurentjes JJB., Arita M., Saito K. (2019) "A cheminformatics approach to characterize metabolomes in stable-isotope-labeled organisms" Nature Methods 16(4):295-298. [doi:10.1038/s41592-019-0358-2]
COMMENT: registered in RIKEN PlaSMA
CH$NAME: Schizandrin
CH$COMPOUND_CLASS: Hydrolyzable tannins
CH$FORMULA: C24H32O7
CH$EXACT_MASS: 432.513
CH$SMILES: COC1=C(OC)C(OC)=C2C(CC(C)C(C)(O)CC3=CC(OC)=C(OC)C(OC)=C23)=C1
CH$IUPAC: InChI=1S/C24H32O7/c1-13-9-14-10-16(26-3)20(28-5)22(30-7)18(14)19-15(12-24(13,2)25)11-17(27-4)21(29-6)23(19)31-8/h10-11,13,25H,9,12H2,1-8H3
CH$LINK: INCHIKEY YEFOAORQXAOVJQ-UHFFFAOYSA-N
AC$INSTRUMENT: LC, Waters Acquity UPLC System; MS, Waters Xevo G2 Q-Tof
AC$INSTRUMENT_TYPE: LC-ESI-QTOF
AC$MASS_SPECTROMETRY: MS_TYPE MS2
AC$MASS_SPECTROMETRY: ION_MODE POSITIVE
AC$MASS_SPECTROMETRY: COLLISION_ENERGY 6V
AC$MASS_SPECTROMETRY: DESOLVATION_GAS_FLOW 800/h
AC$MASS_SPECTROMETRY: DESOLVATION_TEMPERATURE 450 C
AC$MASS_SPECTROMETRY: IONIZATION ESI
AC$CHROMATOGRAPHY: CAPILLARY_VOLTAGE +3.00 kV
AC$CHROMATOGRAPHY: COLUMN_NAME Acquity bridged ethyl hybrid C18 (1.7 um, 2.1 mm * 100 mm, Waters)
AC$CHROMATOGRAPHY: COLUMN_TEMPERATURE 40 C
AC$CHROMATOGRAPHY: FLOW_GRADIENT A/B = (99.5%/0.5% at 0 min, 99.5%/0.5% at 0.1 min, 20%/80% at 10 min, 0.5%/99.5% at 10.1 min, 0.5%/99.5% at 12.0 min, 99.5%/0.5% at 12.1 min, 99.5%/0.5% at 15.0 min)
AC$CHROMATOGRAPHY: FLOW_RATE 0.3 ml/min at 0 min, 0.3 ml/min at 10 min, 0.4 ml/min at 10.1 min, 0.4 ml/min at 14.4 min, 0.3 ml/min at 14.5 min
AC$CHROMATOGRAPHY: RETENTION_TIME 7.59405
AC$CHROMATOGRAPHY: SOLVENT A water including 0.1% formic acid
AC$CHROMATOGRAPHY: SOLVENT B acetonitrile including 0.1% formic acid
MS$FOCUSED_ION: PRECURSOR_TYPE [M+H]+
MS$FOCUSED_ION: PRECURSOR_M/Z 433.2220798
PK$SPLASH: splash10-0159-0009000000-3d3a9a821631d4151d9d
PK$NUM_PEAK: 343
PK$PEAK: m/z int. rel.int.
  75.0435 17.0 17
  99.07742 9.0 9
  116.07844 9.0 9
  123.04525 6.0 6
  129.05064 7.0 7
  131.08827 6.0 6
  139.07547 6.0 6
  170.06288 7.0 7
  170.08162 6.0 6
  170.35507 9.0 9
  172.091 13.0 13
  177.09496 6.0 6
  181.08644 27.0 27
  182.08578 6.0 6
  183.10263 8.0 8
  189.0567 8.0 8
  189.07495 8.0 8
  193.55811 6.0 6
  201.07884 11.0 11
  201.09035 7.0 7
  203.09889 6.0 6
  204.10205 7.0 7
  205.09302 6.0 6
  211.34084 7.0 7
  213.07909 7.0 7
  217.08319 17.0 17
  217.38356 7.0 7
  218.09911 7.0 7
  225.12285 6.0 6
  225.6467 6.0 6
  231.09863 21.0 21
  233.0804 6.0 6
  233.12015 6.0 6
  235.11838 7.0 7
  235.13426 8.0 8
  236.14885 6.0 6
  237.13113 15.0 15
  239.05792 6.0 6
  239.1393 6.0 6
  239.40605 6.0 6
  240.08244 6.0 6
  241.07973 12.0 12
  243.11597 7.0 7
  246.08769 6.0 6
  247.12552 7.0 7
  249.10783 7.0 7
  250.12674 17.0 17
  251.10754 7.0 7
  252.14093 6.0 6
  252.28975 6.0 6
  253.0795 11.0 11
  253.09569 13.0 13
  254.08823 13.0 13
  255.09271 6.0 6
  255.14162 7.0 7
  257.09006 7.0 7
  258.08859 7.0 7
  259.08893 7.0 7
  261.13187 9.0 9
  261.20114 6.0 6
  263.09583 8.0 8
  263.10629 11.0 11
  263.12936 9.0 9
  265.09106 7.0 7
  266.08929 7.0 7
  267.06848 6.0 6
  267.09448 7.0 7
  267.12787 6.0 6
  268.10886 8.0 8
  269.91174 6.0 6
  270.06201 6.0 6
  271.10315 7.0 7
  271.14279 8.0 8
  272.08051 7.0 7
  272.09531 48.0 48
  273.11441 7.0 7
  273.3316 12.0 12
  273.46335 7.0 7
  274.12241 7.0 7
  276.70114 9.0 9
  277.11942 9.0 9
  277.39529 14.0 14
  278.078 7.0 7
  278.14124 19.0 19
  279.14691 8.0 8
  279.74063 6.0 6
  280.10995 9.0 9
  281.07761 7.0 7
  283.09192 8.0 8
  284.09122 7.0 7
  284.10889 32.0 32
  285.10187 18.0 18
  285.11493 38.0 38
  286.07739 13.0 13
  286.09598 6.0 6
  286.12552 12.0 12
  286.44476 6.0 6
  287.08923 6.0 6
  287.11014 16.0 16
  287.12924 28.0 28
  287.14548 8.0 8
  287.16202 11.0 11
  287.92566 7.0 7
  288.09909 13.0 13
  290.10147 7.0 7
  290.11826 6.0 6
  291.08887 12.0 12
  291.09915 8.0 8
  292.10257 30.0 30
  293.10947 6.0 6
  294.13544 15.0 15
  295.13721 21.0 21
  296.09537 21.0 21
  296.12201 14.0 14
  296.29819 7.0 7
  296.39334 6.0 6
  297.09949 11.0 11
  297.11133 10.0 10
  297.12277 7.0 7
  297.14432 7.0 7
  298.08221 9.0 9
  298.11438 14.0 14
  298.12924 6.0 6
  298.16119 7.0 7
  298.50543 7.0 7
  299.08591 23.0 23
  299.09467 18.0 18
  299.11945 18.0 18
  299.13318 7.0 7
  300.05771 6.0 6
  300.08633 18.0 18
  300.10336 47.0 47
  300.11359 18.0 18
  300.13123 9.0 9
  301.07965 6.0 6
  301.09839 30.0 30
  301.10809 26.0 26
  302.07812 8.0 8
  302.11725 24.0 24
  302.84622 8.0 8
  302.99966 7.0 7
  303.11386 7.0 7
  303.12149 17.0 17
  304.12039 15.0 15
  305.10953 15.0 15
  305.52075 6.0 6
  306.11859 12.0 12
  306.1319 12.0 12
  307.12421 7.0 7
  307.13879 30.0 30
  308.121 6.0 6
  308.1427 13.0 13
  308.15057 6.0 6
  309.09937 7.0 7
  309.14014 18.0 18
  309.16226 10.0 10
  310.11545 30.0 30
  310.12955 6.0 6
  310.14697 16.0 16
  310.15839 28.0 28
  310.17093 17.0 17
  311.13486 26.0 26
  311.16617 8.0 8
  312.09412 6.0 6
  312.13638 37.0 37
  313.11057 163.0 163
  313.14035 14.0 14
  313.15317 6.0 6
  314.0809 16.0 16
  314.11987 94.0 94
  314.14044 13.0 13
  315.05008 7.0 7
  315.07562 27.0 27
  315.08899 12.0 12
  315.12357 354.0 354
  315.15945 10.0 10
  316.06696 6.0 6
  316.0834 21.0 21
  316.09567 43.0 43
  316.12445 38.0 38
  316.13455 39.0 39
  316.7995 6.0 6
  317.09476 23.0 23
  317.10831 27.0 27
  317.12463 19.0 19
  317.13669 20.0 20
  317.85287 6.0 6
  318.14105 6.0 6
  320.14087 6.0 6
  321.10281 14.0 14
  321.11688 7.0 7
  321.1264 7.0 7
  322.11343 31.0 31
  322.15451 230.0 230
  322.45615 9.0 9
  322.67114 6.0 6
  323.12442 31.0 31
  323.14996 22.0 22
  323.16565 52.0 52
  323.38571 7.0 7
  324.10718 7.0 7
  324.12656 23.0 23
  324.1394 8.0 8
  324.16119 13.0 13
  325.13422 25.0 25
  325.15536 31.0 31
  326.1069 7.0 7
  326.1394 30.0 30
  326.14987 32.0 32
  327.12177 233.0 233
  327.15442 38.0 38
  328.09061 15.0 15
  328.11249 59.0 59
  328.12946 272.0 272
  329.09265 31.0 31
  329.10989 45.0 45
  329.13489 131.0 131
  330.08264 8.0 8
  330.10873 76.0 76
  330.14218 178.0 178
  330.97665 9.0 9
  331.00635 8.0 8
  331.11905 362.0 362
  331.1601 31.0 31
  332.03113 7.0 7
  332.12207 183.0 183
  332.14075 36.0 36
  333.12186 12.0 12
  333.13623 7.0 7
  333.14807 9.0 9
  334.12927 13.0 13
  334.73538 6.0 6
  335.13287 19.0 19
  336.12653 8.0 8
  336.13766 8.0 8
  336.40707 6.0 6
  337.09799 8.0 8
  337.14084 94.0 94
  338.10678 6.0 6
  338.1521 436.0 436
  338.57761 6.0 6
  339.1514 123.0 123
  339.17249 13.0 13
  339.63211 8.0 8
  340.11932 6.0 6
  340.1557 6.0 6
  341.10477 6.0 6
  341.13797 82.0 82
  341.17456 83.0 83
  342.11435 6.0 6
  342.13437 91.0 91
  342.14496 299.0 299
  342.16632 64.0 64
  342.18698 8.0 8
  343.10913 53.0 53
  343.14117 63.0 63
  343.15237 42.0 42
  343.16824 15.0 15
  343.1828 7.0 7
  343.37131 6.0 6
  344.12497 178.0 178
  344.15475 19.0 19
  345.13699 117.0 117
  345.16193 11.0 11
  345.35477 11.0 11
  346.06314 6.0 6
  346.14044 527.0 526
  347.09351 8.0 8
  347.12219 17.0 17
  347.14386 86.0 86
  348.14001 14.0 14
  348.15408 7.0 7
  351.12427 8.0 8
  352.13547 7.0 7
  352.15747 22.0 22
  352.1785 17.0 17
  353.1427 111.0 111
  353.1749 469.0 469
  353.88867 7.0 7
  354.11774 8.0 8
  354.14392 136.0 136
  354.18057 72.0 72
  354.24881 6.0 6
  354.51785 7.0 7
  355.14319 33.0 33
  355.16196 71.0 71
  355.18231 7.0 7
  355.19705 7.0 7
  356.13983 19.0 19
  356.16245 33.0 33
  357.13556 30.0 30
  357.15558 19.0 19
  357.1723 7.0 7
  358.13965 41.0 41
  358.15381 40.0 40
  358.17102 8.0 8
  358.90506 8.0 8
  359.08344 6.0 6
  359.14493 97.0 97
  359.16388 19.0 19
  360.15555 13.0 13
  361.16711 8.0 8
  362.16116 6.0 6
  362.18161 11.0 11
  367.14722 6.0 6
  367.15897 6.0 6
  368.1539 50.0 50
  368.17111 14.0 14
  369.00784 9.0 9
  369.11761 12.0 12
  369.16888 1000.0 999
  370.11707 6.0 6
  370.16852 219.0 219
  371.14188 45.0 45
  371.17282 78.0 78
  372.15564 27.0 27
  373.15381 17.0 17
  373.16843 18.0 18
  373.33249 6.0 6
  375.16315 7.0 7
  375.18527 6.0 6
  383.17859 16.0 16
  384.14682 15.0 15
  384.19073 679.0 678
  385.14474 48.0 48
  385.16681 172.0 172
  385.19577 115.0 115
  385.64307 6.0 6
  386.16785 49.0 49
  386.19574 23.0 23
  387.17404 6.0 6
  387.18881 15.0 15
  400.17007 17.0 17
  400.18851 86.0 86
  401.14191 7.0 7
  401.1991 77.0 77
  402.19678 28.0 28
  415.20544 25.0 25
  416.20621 6.0 6
  416.22397 32.0 32
  417.20343 12.0 12
  433.17776 8.0 8
  433.19473 6.0 6
//
