ACCESSION: MSBNK-RIKEN-PR100584
RECORD_TITLE: L-Norvaline; LC-ESI-QTOF; MS2; CE:Ramp 5-60 V; [M-H]-
DATE: 2016.01.19 (Created 2010.06.21, modified 2011.05.06)
AUTHORS: Matsuda F, Suzuki M, Sawada Y, Plant Science Center, RIKEN.
LICENSE: CC BY-SA
COMMENT: Acquisition and generation of the data is financially supported in part by CREST/JST.
CH$NAME: L-Norvaline
CH$NAME: Nva
CH$NAME: L-2-Aminovaleric acid
CH$NAME: (S)-(+)-2-Aminopentanoic acid
CH$NAME: (S)-2-Aminovaleric acid
CH$COMPOUND_CLASS: Amino acids
CH$FORMULA: C5H11NO2
CH$EXACT_MASS: 117.07898
CH$SMILES: CCC[C@H](N)C(O)=O
CH$IUPAC: InChI=1S/C5H11NO2/c1-2-3-4(6)5(7)8/h4H,2-3,6H2,1H3,(H,7,8)/t4-/m0/s1
CH$LINK: CAS 6600-40-4
CH$LINK: CHEMSPIDER 58608
CH$LINK: KEGG C01826
CH$LINK: LIPIDMAPS LMFA01100041
CH$LINK: PUBCHEM CID:65098
CH$LINK: INCHIKEY SNDPXSYFESPGGJ-BYPYZUCNSA-N
AC$INSTRUMENT: UPLC Q-Tof Premier, Waters
AC$INSTRUMENT_TYPE: LC-ESI-QTOF
AC$MASS_SPECTROMETRY: MS_TYPE MS2
AC$MASS_SPECTROMETRY: ION_MODE NEGATIVE
AC$MASS_SPECTROMETRY: COLLISION_ENERGY Ramp 5-60 V
AC$MASS_SPECTROMETRY: DATAFORMAT Continuum
AC$MASS_SPECTROMETRY: DESOLVATION_GAS_FLOW 600.0 L/Hr
AC$MASS_SPECTROMETRY: DESOLVATION_TEMPERATURE 400 C
AC$MASS_SPECTROMETRY: FRAGMENTATION_METHOD LOW-ENERGY CID
AC$MASS_SPECTROMETRY: IONIZATION ESI
AC$MASS_SPECTROMETRY: SOURCE_TEMPERATURE 120 C
AC$CHROMATOGRAPHY: CAPILLARY_VOLTAGE 3.0 kV
AC$CHROMATOGRAPHY: SAMPLING_CONE 23.0 V
AC$CHROMATOGRAPHY: SOLVENT A CH3CN(0.1%HCOOH)
AC$CHROMATOGRAPHY: SOLVENT B H2O(0.1%HCOOH)
MS$FOCUSED_ION: PRECURSOR_M/Z 116.07117
MS$FOCUSED_ION: PRECURSOR_TYPE [M-H]-
PK$SPLASH: splash10-014i-0900000000-0f41e9f1f44727ed0171
PK$NUM_PEAK: 2
PK$PEAK: m/z int. rel.int.
  115.9259 3.958 25
  116.0712 158.2 999
//
