ACCESSION: MSBNK-RIKEN-PR303599
RECORD_TITLE: Cinobufagin; LC-ESI-QTOF; MS2
DATE: 2019.03.28
AUTHORS: Tetsuya Mori, Center for Sustainable Resource Science, RIKEN
LICENSE: CC BY-NC-SA
PUBLICATION: Tsugawa H., Nakabayashi R., Mori T., Yamada Y., Takahashi M., Rai A., Sugiyama R., Yamamoto H., Nakaya T., Yamazaki M., Kooke R., Bac-Molenaar JA., Oztolan-Erol N., Keurentjes JJB., Arita M., Saito K. (2019) "A cheminformatics approach to characterize metabolomes in stable-isotope-labeled organisms" Nature Methods 16(4):295-298. [doi:10.1038/s41592-019-0358-2]
COMMENT: registered in RIKEN PlaSMA
CH$NAME: Cinobufagin
CH$COMPOUND_CLASS: Bufanolides and derivatives
CH$FORMULA: C26H34O6
CH$EXACT_MASS: 442.552
CH$SMILES: CC(=O)O[C@H]1[C@H]2O[C@]22[C@@H]3CC[C@@H]4C[C@@H](O)CC[C@]4(C)[C@H]3CC[C@]2(C)[C@H]1C1=COC(=O)C=C1
CH$IUPAC: InChI=1S/C26H34O6/c1-14(27)31-22-21(15-4-7-20(29)30-13-15)25(3)11-9-18-19(26(25)23(22)32-26)6-5-16-12-17(28)8-10-24(16,18)2/h4,7,13,16-19,21-23,28H,5-6,8-12H2,1-3H3/t16-,17+,18+,19-,21+,22-,23-,24+,25-,26-/m1/s1
CH$LINK: INCHIKEY SCULJPGYOQQXTK-OLRINKBESA-N
AC$INSTRUMENT: LC, Waters Acquity UPLC System; MS, Waters Xevo G2 Q-Tof
AC$INSTRUMENT_TYPE: LC-ESI-QTOF
AC$MASS_SPECTROMETRY: MS_TYPE MS2
AC$MASS_SPECTROMETRY: ION_MODE POSITIVE
AC$MASS_SPECTROMETRY: COLLISION_ENERGY 6V
AC$MASS_SPECTROMETRY: DESOLVATION_GAS_FLOW 800/h
AC$MASS_SPECTROMETRY: DESOLVATION_TEMPERATURE 450 C
AC$MASS_SPECTROMETRY: IONIZATION ESI
AC$CHROMATOGRAPHY: CAPILLARY_VOLTAGE +3.00 kV
AC$CHROMATOGRAPHY: COLUMN_NAME Acquity bridged ethyl hybrid C18 (1.7 um, 2.1 mm * 100 mm, Waters)
AC$CHROMATOGRAPHY: COLUMN_TEMPERATURE 40 C
AC$CHROMATOGRAPHY: FLOW_GRADIENT A/B = (99.5%/0.5% at 0 min, 99.5%/0.5% at 0.1 min, 20%/80% at 10 min, 0.5%/99.5% at 10.1 min, 0.5%/99.5% at 12.0 min, 99.5%/0.5% at 12.1 min, 99.5%/0.5% at 15.0 min)
AC$CHROMATOGRAPHY: FLOW_RATE 0.3 ml/min at 0 min, 0.3 ml/min at 10 min, 0.4 ml/min at 10.1 min, 0.4 ml/min at 14.4 min, 0.3 ml/min at 14.5 min
AC$CHROMATOGRAPHY: RETENTION_TIME 7.508033
AC$CHROMATOGRAPHY: SOLVENT A water including 0.1% formic acid
AC$CHROMATOGRAPHY: SOLVENT B acetonitrile including 0.1% formic acid
MS$FOCUSED_ION: PRECURSOR_TYPE [M+H]+
MS$FOCUSED_ION: PRECURSOR_M/Z 443.2428153
PK$SPLASH: splash10-0536-1910000000-72d57fc43f26e1b3f61c
PK$NUM_PEAK: 553
PK$PEAK: m/z int. rel.int.
  53.0398 17.0 17
  55.01825 38.0 38
  55.05202 9.0 9
  62.9208 8.0 8
  65.03792 19.0 19
  66.27328 13.0 13
  67.04955 46.0 46
  67.05486 198.0 198
  68.05924 16.0 16
  68.99746 20.0 20
  69.03386 22.0 22
  69.06717 10.0 10
  69.07278 52.0 52
  73.03116 8.0 8
  73.23676 14.0 14
  76.99793 10.0 10
  77.01971 12.0 12
  77.03931 106.0 106
  77.04639 8.0 8
  77.05886 8.0 8
  77.69257 8.0 8
  79.04217 13.0 13
  79.05482 257.0 257
  80.05479 15.0 15
  80.06233 9.0 9
  81.03446 19.0 19
  81.07043 287.0 287
  81.0797 24.0 24
  82.06318 9.0 9
  82.39162 16.0 16
  83.08459 22.0 22
  88.59441 7.0 7
  90.04485 8.0 8
  91.03974 14.0 14
  91.05274 648.0 647
  91.67142 7.0 7
  92.01086 13.0 13
  92.05235 17.0 17
  92.06031 68.0 68
  93.06947 515.0 514
  93.0796 24.0 24
  94.07317 47.0 47
  95.00935 11.0 11
  95.02187 18.0 18
  95.04977 312.0 312
  95.08757 301.0 301
  95.14233 14.0 14
  95.56028 7.0 7
  96.04899 29.0 29
  96.05445 9.0 9
  96.08482 12.0 12
  96.08902 21.0 21
  96.09467 7.0 7
  96.26529 8.0 8
  97.02545 8.0 8
  97.02968 7.0 7
  97.06587 7.0 7
  97.10411 14.0 14
  99.04277 10.0 10
  99.62883 7.0 7
  100.62958 7.0 7
  103.05432 43.0 43
  104.05445 21.0 21
  105.01748 12.0 12
  105.03211 63.0 63
  105.04305 14.0 14
  105.06898 1000.0 999
  105.42353 7.0 7
  106.03539 17.0 17
  106.04331 8.0 8
  106.07333 79.0 79
  106.32395 7.0 7
  107.04836 183.0 183
  107.07279 10.0 10
  107.08581 451.0 451
  108.05275 34.0 34
  108.07242 7.0 7
  108.09152 19.0 19
  109.01551 12.0 12
  109.0269 257.0 257
  109.03533 40.0 40
  109.06647 83.0 83
  109.09995 165.0 165
  109.34258 7.0 7
  110.03109 31.0 31
  110.06776 17.0 17
  110.60365 7.0 7
  111.03621 21.0 21
  111.04552 24.0 24
  111.41726 22.0 22
  112.45505 15.0 15
  113.51947 8.0 8
  115.0526 85.0 85
  115.06081 9.0 9
  115.58911 10.0 10
  116.06111 32.0 32
  117.03213 12.0 12
  117.06912 343.0 343
  118.04388 12.0 12
  118.07117 42.0 42
  118.07555 74.0 74
  118.47997 11.0 11
  119.0495 37.0 37
  119.06544 8.0 8
  119.08508 566.0 565
  119.28592 7.0 7
  120.05984 9.0 9
  120.0913 72.0 72
  121.01209 19.0 19
  121.0293 92.0 92
  121.05976 46.0 46
  121.06485 118.0 118
  121.08034 11.0 11
  121.10185 146.0 146
  122.02644 8.0 8
  122.03647 7.0 7
  122.0677 21.0 21
  122.10612 17.0 17
  123.00592 21.0 21
  123.03667 56.0 56
  123.04533 122.0 122
  123.05568 10.0 10
  123.08081 16.0 16
  123.11582 19.0 19
  124.04311 7.0 7
  124.05 12.0 12
  124.51068 8.0 8
  124.77334 7.0 7
  125.02061 26.0 26
  125.0622 7.0 7
  125.09486 10.0 10
  126.02921 11.0 11
  127.05463 95.0 95
  127.06097 24.0 24
  128.05672 64.0 64
  128.06421 228.0 228
  128.68028 8.0 8
  128.73132 7.0 7
  129.03777 8.0 8
  129.06888 473.0 473
  130.07355 148.0 148
  131.0453 22.0 22
  131.05586 18.0 18
  131.08597 751.0 750
  131.60333 7.0 7
  132.05112 29.0 29
  132.05846 14.0 14
  132.0887 41.0 41
  132.0963 17.0 17
  133.02628 10.0 10
  133.05142 10.0 10
  133.06662 119.0 119
  133.10144 422.0 422
  133.50092 7.0 7
  134.04614 8.0 8
  134.06944 8.0 8
  134.10289 17.0 17
  134.11183 21.0 21
  135.03081 7.0 7
  135.03796 9.0 9
  135.04602 24.0 24
  135.07851 17.0 17
  135.11781 147.0 147
  135.75198 10.0 10
  136.09341 14.0 14
  136.12924 7.0 7
  136.40184 8.0 8
  137.06412 35.0 35
  137.09767 22.0 22
  138.06465 7.0 7
  139.03882 38.0 38
  140.04092 11.0 11
  141.0683 188.0 188
  141.07562 75.0 75
  142.07326 94.0 94
  142.08221 70.0 70
  143.08389 504.0 503
  144.08694 36.0 36
  144.0941 116.0 116
  144.25299 9.0 9
  145.0537 34.0 34
  145.0616 63.0 63
  145.073 34.0 34
  145.08295 29.0 29
  145.10173 524.0 523
  145.3895 10.0 10
  146.09415 8.0 8
  146.10506 83.0 83
  146.21208 7.0 7
  146.24753 8.0 8
  147.04634 30.0 30
  147.08069 132.0 132
  147.11505 206.0 206
  147.42265 12.0 12
  148.04501 11.0 11
  148.08205 37.0 37
  148.12071 33.0 33
  149.02132 59.0 59
  149.03154 12.0 12
  149.05336 31.0 31
  149.06311 30.0 30
  149.09419 13.0 13
  149.13417 43.0 43
  149.67592 10.0 10
  150.03293 10.0 10
  150.10829 9.0 9
  151.02217 12.0 12
  151.03789 207.0 207
  151.07484 7.0 7
  151.11269 7.0 7
  151.24924 7.0 7
  152.04166 24.0 24
  152.06093 25.0 25
  152.07022 8.0 8
  152.1106 8.0 8
  152.38069 7.0 7
  153.00735 13.0 13
  153.02054 8.0 8
  153.05301 23.0 23
  153.06842 160.0 160
  154.07574 129.0 129
  155.08078 182.0 182
  155.08803 214.0 214
  156.05583 15.0 15
  156.09253 137.0 137
  157.03549 7.0 7
  157.06407 232.0 232
  157.0986 119.0 119
  157.10634 75.0 75
  158.06378 12.0 12
  158.07191 30.0 30
  158.08357 7.0 7
  158.09961 31.0 31
  158.10765 21.0 21
  158.11461 9.0 9
  159.07857 93.0 93
  159.09584 10.0 10
  159.11816 409.0 409
  160.11496 28.0 28
  160.12804 25.0 25
  161.05847 36.0 36
  161.09966 21.0 21
  161.1348 72.0 72
  161.81294 10.0 10
  162.13876 11.0 11
  164.29387 10.0 10
  164.80125 11.0 11
  165.05327 12.0 12
  165.06978 224.0 224
  165.08868 9.0 9
  165.42476 7.0 7
  165.44865 7.0 7
  166.05945 12.0 12
  166.07809 117.0 117
  167.0341 7.0 7
  167.0414 9.0 9
  167.06593 14.0 14
  167.08652 220.0 220
  168.04921 7.0 7
  168.05476 15.0 15
  168.08835 58.0 58
  168.09644 110.0 110
  169.05028 10.0 10
  169.05815 8.0 8
  169.07129 7.0 7
  169.08403 7.0 7
  169.10101 245.0 245
  170.07985 10.0 10
  170.09879 14.0 14
  170.10641 16.0 16
  170.11519 25.0 25
  170.94701 7.0 7
  171.08107 132.0 132
  171.10159 7.0 7
  171.1123 45.0 45
  171.11905 129.0 129
  171.28964 7.0 7
  172.08247 29.0 29
  172.12062 17.0 17
  172.13046 19.0 19
  173.05891 44.0 44
  173.06992 12.0 12
  173.08725 33.0 33
  173.13042 56.0 56
  174.06508 21.0 21
  174.09998 15.0 15
  174.13446 53.0 53
  175.07581 80.0 80
  175.08308 20.0 20
  175.10701 9.0 9
  175.11458 7.0 7
  175.14894 14.0 14
  176.05739 8.0 8
  176.07918 18.0 18
  176.11581 8.0 8
  177.04971 9.0 9
  177.06755 24.0 24
  177.93484 10.0 10
  178.02774 12.0 12
  178.06682 9.0 9
  178.07912 120.0 120
  179.08684 130.0 130
  179.35718 7.0 7
  180.08624 29.0 29
  180.09637 85.0 85
  181.05908 73.0 73
  181.0703 48.0 48
  181.10075 119.0 119
  181.11621 9.0 9
  182.10724 73.0 73
  182.58711 11.0 11
  183.07635 28.0 28
  183.08774 10.0 10
  183.11363 143.0 143
  184.05818 9.0 9
  184.08282 50.0 50
  184.09158 11.0 11
  184.11693 28.0 28
  184.26656 14.0 14
  185.06064 26.0 26
  185.08665 10.0 10
  185.09398 47.0 47
  185.10558 9.0 9
  185.12958 66.0 66
  185.14075 16.0 16
  186.12671 21.0 21
  186.14038 17.0 17
  186.24037 7.0 7
  187.0632 9.0 9
  187.07471 19.0 19
  187.11409 44.0 44
  187.13843 67.0 67
  187.14574 225.0 225
  187.15298 79.0 79
  187.21948 14.0 14
  188.0762 11.0 11
  188.08603 8.0 8
  188.14873 16.0 16
  189.0549 26.0 26
  189.09116 9.0 9
  189.12564 7.0 7
  190.08205 20.0 20
  190.56668 12.0 12
  191.0504 9.0 9
  191.06667 7.0 7
  191.0811 32.0 32
  191.08672 76.0 76
  192.08191 51.0 51
  192.09364 18.0 18
  192.88144 10.0 10
  193.06892 7.0 7
  193.10106 135.0 135
  194.06116 8.0 8
  194.07657 32.0 32
  194.10266 88.0 88
  194.3463 8.0 8
  194.73013 14.0 14
  195.07538 49.0 49
  195.11124 77.0 77
  195.12447 32.0 32
  195.17012 9.0 9
  196.08409 58.0 58
  196.09213 23.0 23
  196.10893 8.0 8
  196.12112 19.0 19
  196.12889 10.0 10
  196.54478 7.0 7
  197.06705 8.0 8
  197.09033 8.0 8
  197.12769 85.0 85
  197.14767 10.0 10
  198.10605 10.0 10
  198.13647 7.0 7
  199.07182 11.0 11
  199.10622 35.0 35
  199.1429 56.0 56
  199.15973 8.0 8
  200.15115 28.0 28
  201.09183 9.0 9
  201.127 8.0 8
  202.07474 11.0 11
  203.06339 7.0 7
  203.07016 8.0 8
  203.08391 31.0 31
  203.09261 28.0 28
  203.16905 7.0 7
  203.26463 11.0 11
  204.09294 10.0 10
  204.1479 9.0 9
  205.09853 40.0 40
  206.08769 8.0 8
  206.1041 16.0 16
  206.11342 12.0 12
  207.10513 7.0 7
  207.12015 35.0 35
  207.1275 12.0 12
  208.09093 64.0 64
  208.123 42.0 42
  209.0488 8.0 8
  209.05986 12.0 12
  209.08987 48.0 48
  209.09804 20.0 20
  209.13721 57.0 57
  209.19234 7.0 7
  210.09985 32.0 32
  210.14726 7.0 7
  211.07321 38.0 38
  211.11125 54.0 54
  211.14227 21.0 21
  211.14752 10.0 10
  212.06995 7.0 7
  212.15373 8.0 8
  213.08444 26.0 26
  213.15828 9.0 9
  213.17586 9.0 9
  214.17191 19.0 19
  215.06705 9.0 9
  215.08238 10.0 10
  215.09335 9.0 9
  215.10567 10.0 10
  215.18524 26.0 26
  216.08472 26.0 26
  216.14804 18.0 18
  216.18591 20.0 20
  217.09659 8.0 8
  217.10484 9.0 9
  217.1142 7.0 7
  218.10501 9.0 9
  218.11194 11.0 11
  219.07675 15.0 15
  219.08586 22.0 22
  219.11507 28.0 28
  219.12891 13.0 13
  220.08679 7.0 7
  220.0952 7.0 7
  220.11795 19.0 19
  221.07925 10.0 10
  221.08911 8.0 8
  221.12248 7.0 7
  221.13614 52.0 52
  222.08774 9.0 9
  222.09937 9.0 9
  222.10985 21.0 21
  222.13599 7.0 7
  222.14326 8.0 8
  223.07916 11.0 11
  223.11485 36.0 36
  223.14755 23.0 23
  225.08278 15.0 15
  225.16847 15.0 15
  226.10083 7.0 7
  226.14398 8.0 8
  226.17384 7.0 7
  227.09436 10.0 10
  227.11089 14.0 14
  228.15134 10.0 10
  229.10472 17.0 17
  230.09744 7.0 7
  230.10655 30.0 30
  231.07864 12.0 12
  231.10777 24.0 24
  231.11827 35.0 35
  232.10963 8.0 8
  232.12317 33.0 33
  233.10347 30.0 30
  233.12045 8.0 8
  233.13525 14.0 14
  234.11266 12.0 12
  234.134 7.0 7
  234.14087 14.0 14
  235.11188 10.0 10
  235.14023 8.0 8
  235.15501 7.0 7
  236.08159 11.0 11
  237.0833 9.0 9
  237.13124 37.0 37
  237.15065 14.0 14
  237.16353 18.0 18
  238.10292 7.0 7
  239.11349 11.0 11
  239.16801 12.0 12
  241.09326 9.0 9
  241.11748 8.0 8
  241.13011 31.0 31
  241.1739 7.0 7
  242.12349 7.0 7
  243.08516 9.0 9
  243.11377 10.0 10
  244.10074 7.0 7
  245.10016 7.0 7
  245.11076 9.0 9
  245.13118 17.0 17
  245.43279 8.0 8
  246.05231 9.0 9
  247.0988 13.0 13
  247.1201 8.0 8
  247.14886 15.0 15
  249.12576 12.0 12
  250.09564 9.0 9
  250.17261 8.0 8
  251.14653 23.0 23
  252.14746 8.0 8
  253.12645 8.0 8
  253.1539 7.0 7
  253.1913 33.0 33
  255.08566 8.0 8
  255.17676 25.0 25
  256.1232 11.0 11
  257.13193 8.0 8
  258.13461 7.0 7
  259.14432 20.0 20
  260.88953 11.0 11
  261.13065 7.0 7
  261.15903 8.0 8
  263.14517 13.0 13
  265.14548 12.0 12
  267.13004 12.0 12
  267.20386 8.0 8
  269.11398 8.0 8
  271.10782 7.0 7
  271.14996 18.0 18
  273.164 8.0 8
  273.18204 9.0 9
  275.1019 7.0 7
  275.17493 17.0 17
  276.14557 7.0 7
  276.18173 11.0 11
  277.12897 10.0 10
  286.56747 14.0 14
  287.18878 9.0 9
  289.13058 7.0 7
  290.1644 8.0 8
  291.14957 7.0 7
  296.25458 8.0 8
  296.38107 8.0 8
  296.79736 8.0 8
  302.19769 15.0 15
  303.13379 7.0 7
  304.18033 8.0 8
  317.16223 7.0 7
  322.1857 8.0 8
  322.61401 9.0 9
  330.8486 7.0 7
  363.15143 10.0 10
  364.97525 7.0 7
  365.21484 11.0 11
  369.03278 7.0 7
  370.37616 10.0 10
  370.44342 10.0 10
  383.1091 15.0 15
  388.45676 7.0 7
  396.39764 10.0 10
  399.62402 10.0 10
//
