ACCESSION: MSBNK-RIKEN-PR308823
RECORD_TITLE: Magnolol; LC-ESI-QTOF; MS2
DATE: 2019.03.28
AUTHORS: Tetsuya Mori, Center for Sustainable Resource Science, RIKEN
LICENSE: CC BY-NC-SA
PUBLICATION: Tsugawa H., Nakabayashi R., Mori T., Yamada Y., Takahashi M., Rai A., Sugiyama R., Yamamoto H., Nakaya T., Yamazaki M., Kooke R., Bac-Molenaar JA., Oztolan-Erol N., Keurentjes JJB., Arita M., Saito K. (2019) "A cheminformatics approach to characterize metabolomes in stable-isotope-labeled organisms" Nature Methods 16(4):295-298. [doi:10.1038/s41592-019-0358-2]
COMMENT: Annotation level-1
CH$NAME: Magnolol
CH$COMPOUND_CLASS: Biphenyls and derivatives
CH$FORMULA: C18H18O2
CH$EXACT_MASS: 266.34
CH$SMILES: OC1=CC=C(CC=C)C=C1C1=CC(CC=C)=CC=C1O
CH$IUPAC: InChI=1S/C18H18O2/c1-3-5-13-7-9-17(19)15(11-13)16-12-14(6-4-2)8-10-18(16)20/h3-4,7-12,19-20H,1-2,5-6H2
CH$LINK: INCHIKEY VVOAZFWZEDHOOU-UHFFFAOYSA-N
AC$INSTRUMENT: LC, Waters Acquity UPLC System; MS, Waters Xevo G2 Q-Tof
AC$INSTRUMENT_TYPE: LC-ESI-QTOF
AC$MASS_SPECTROMETRY: MS_TYPE MS2
AC$MASS_SPECTROMETRY: ION_MODE NEGATIVE
AC$MASS_SPECTROMETRY: COLLISION_ENERGY 6V
AC$MASS_SPECTROMETRY: DESOLVATION_GAS_FLOW 800/h
AC$MASS_SPECTROMETRY: DESOLVATION_TEMPERATURE 450 C
AC$MASS_SPECTROMETRY: IONIZATION ESI
AC$CHROMATOGRAPHY: CAPILLARY_VOLTAGE +3.00 kV
AC$CHROMATOGRAPHY: COLUMN_NAME Acquity bridged ethyl hybrid C18 (1.7 um, 2.1 mm * 100 mm, Waters)
AC$CHROMATOGRAPHY: COLUMN_TEMPERATURE 40 C
AC$CHROMATOGRAPHY: FLOW_GRADIENT A/B = (99.5%/0.5% at 0 min, 99.5%/0.5% at 0.1 min, 20%/80% at 10 min, 0.5%/99.5% at 10.1 min, 0.5%/99.5% at 12.0 min, 99.5%/0.5% at 12.1 min, 99.5%/0.5% at 15.0 min)
AC$CHROMATOGRAPHY: FLOW_RATE 0.3 ml/min at 0 min, 0.3 ml/min at 10 min, 0.4 ml/min at 10.1 min, 0.4 ml/min at 14.4 min, 0.3 ml/min at 14.5 min
AC$CHROMATOGRAPHY: RETENTION_TIME 9.21
AC$CHROMATOGRAPHY: SOLVENT A water including 0.1% formic acid
AC$CHROMATOGRAPHY: SOLVENT B acetonitrile including 0.1% formic acid
MS$FOCUSED_ION: PRECURSOR_TYPE [M-H]-
MS$FOCUSED_ION: PRECURSOR_M/Z 265.1234
PK$SPLASH: splash10-014i-0090000000-f4c09e4f0e0e0369ecb1
PK$NUM_PEAK: 38
PK$PEAK: m/z int. rel.int.
  87.02409 18.0 1
  91.05589 18.0 1
  110.65727 20.0 1
  119.04436 33.0 1
  130.17418 19.0 1
  169.06705 21.0 1
  180.0589 18.0 1
  198.06898 21.0 1
  204.05502 20.0 1
  205.0607 18.0 1
  205.06926 42.0 2
  208.78862 20.0 1
  212.80417 18.0 1
  217.11057 18.0 1
  219.07851 18.0 1
  219.08989 22.0 1
  223.07256 69.0 3
  223.08023 35.0 1
  224.08128 27.0 1
  236.08813 18.0 1
  243.07263 27.0 1
  243.08017 25.0 1
  245.088 236.0 10
  245.09709 905.0 38
  246.10081 41.0 2
  246.1098 64.0 3
  247.11191 2034.0 86
  248.1073 153.0 6
  248.11418 281.0 12
  248.12872 85.0 4
  249.10785 23.0 1
  249.11919 93.0 4
  250.10054 21.0 1
  264.11429 45.0 2
  265.05869 18.0 1
  265.12234 23683.0 999
  265.16846 189.0 8
  265.31665 42.0 2
//
