ACCESSION: MSBNK-RIKEN-PR310951
RECORD_TITLE: Luteolin-4'-O-glucoside; LC-ESI-QTOF; MS2
DATE: 2019.03.28
AUTHORS: Tetsuya Mori, Center for Sustainable Resource Science, RIKEN
LICENSE: CC BY-NC-SA
PUBLICATION: Tsugawa H., Nakabayashi R., Mori T., Yamada Y., Takahashi M., Rai A., Sugiyama R., Yamamoto H., Nakaya T., Yamazaki M., Kooke R., Bac-Molenaar JA., Oztolan-Erol N., Keurentjes JJB., Arita M., Saito K. (2019) "A cheminformatics approach to characterize metabolomes in stable-isotope-labeled organisms" Nature Methods 16(4):295-298. [doi:10.1038/s41592-019-0358-2]
COMMENT: Annotation level-1
CH$NAME: Luteolin-4'-O-glucoside
CH$COMPOUND_CLASS: Flavone O-glycosides
CH$FORMULA: C21H20O11
CH$EXACT_MASS: 448.38
CH$SMILES: C1=CC(=C(C=C1C2=CC(=O)C3=C(C=C(C=C3O2)O)O)O)O[C@H]4[C@@H]([C@H]([C@@H]([C@H](O4)CO)O)O)O
CH$IUPAC: InChI=1S/C21H20O11/c22-7-16-18(27)19(28)20(29)21(32-16)31-13-2-1-8(3-10(13)24)14-6-12(26)17-11(25)4-9(23)5-15(17)30-14/h1-6,16,18-25,27-29H,7H2/t16-,18-,19+,20-,21-/m1/s1
CH$LINK: INCHIKEY UHNXUSWGOJMEFO-QNDFHXLGSA-N
AC$INSTRUMENT: LC, Waters Acquity UPLC System; MS, Waters Xevo G2 Q-Tof
AC$INSTRUMENT_TYPE: LC-ESI-QTOF
AC$MASS_SPECTROMETRY: MS_TYPE MS2
AC$MASS_SPECTROMETRY: ION_MODE POSITIVE
AC$MASS_SPECTROMETRY: COLLISION_ENERGY 6V
AC$MASS_SPECTROMETRY: DESOLVATION_GAS_FLOW 800/h
AC$MASS_SPECTROMETRY: DESOLVATION_TEMPERATURE 450 C
AC$MASS_SPECTROMETRY: IONIZATION ESI
AC$CHROMATOGRAPHY: CAPILLARY_VOLTAGE +3.00 kV
AC$CHROMATOGRAPHY: COLUMN_NAME Acquity bridged ethyl hybrid C18 (1.7 um, 2.1 mm * 100 mm, Waters)
AC$CHROMATOGRAPHY: COLUMN_TEMPERATURE 40 C
AC$CHROMATOGRAPHY: FLOW_GRADIENT A/B = (99.5%/0.5% at 0 min, 99.5%/0.5% at 0.1 min, 20%/80% at 10 min, 0.5%/99.5% at 10.1 min, 0.5%/99.5% at 12.0 min, 99.5%/0.5% at 12.1 min, 99.5%/0.5% at 15.0 min)
AC$CHROMATOGRAPHY: FLOW_RATE 0.3 ml/min at 0 min, 0.3 ml/min at 10 min, 0.4 ml/min at 10.1 min, 0.4 ml/min at 14.4 min, 0.3 ml/min at 14.5 min
AC$CHROMATOGRAPHY: RETENTION_TIME 4.45
AC$CHROMATOGRAPHY: SOLVENT A water including 0.1% formic acid
AC$CHROMATOGRAPHY: SOLVENT B acetonitrile including 0.1% formic acid
MS$FOCUSED_ION: PRECURSOR_TYPE [M+H]+
MS$FOCUSED_ION: PRECURSOR_M/Z 449.10784
PK$SPLASH: splash10-000i-0090200000-fc7ccde5a6d1608e1b1e
PK$NUM_PEAK: 60
PK$PEAK: m/z int. rel.int.
  93.18495 17.0 1
  127.03722 17.0 1
  135.037 18.0 1
  135.04495 94.0 5
  136.63812 33.0 2
  153.00758 108.0 6
  153.02077 276.0 15
  153.03458 20.0 1
  154.01865 22.0 1
  172.33894 34.0 2
  179.0349 39.0 2
  180.83385 21.0 1
  182.85083 17.0 1
  183.04553 27.0 1
  200.04829 36.0 2
  207.12352 22.0 1
  213.06137 17.0 1
  219.06055 26.0 1
  241.02805 32.0 2
  259.02521 19.0 1
  259.06546 24.0 1
  260.10513 25.0 1
  268.0499 44.0 2
  269.04416 55.0 3
  281.61975 20.0 1
  284.47565 17.0 1
  286.8226 18.0 1
  286.91025 20.0 1
  286.96027 25.0 1
  286.97864 21.0 1
  287.00888 116.0 6
  287.02142 168.0 9
  287.05466 18679.0 999
  287.07965 18.0 1
  287.09818 37.0 2
  287.11255 44.0 2
  287.43646 23.0 1
  287.49506 28.0 1
  287.97726 24.0 1
  287.9996 18.0 1
  288.02377 19.0 1
  288.05856 2970.0 159
  289.0625 414.0 22
  291.07898 25.0 1
  294.04895 20.0 1
  295.97488 17.0 1
  302.96497 17.0 1
  344.15131 43.0 2
  354.52487 22.0 1
  381.57669 35.0 2
  390.35638 25.0 1
  394.48224 18.0 1
  412.51199 42.0 2
  429.06165 20.0 1
  440.50247 20.0 1
  448.50351 18.0 1
  448.98355 17.0 1
  449.00427 18.0 1
  449.05264 174.0 9
  449.10965 5881.0 315
//
