ACCESSION: MSBNK-RIKEN-PR100786
RECORD_TITLE: Cyanidin-3,5-di-O-glucoside; LC-ESI-QTOF; MS2; CE:Ramp 5-60 V; [M-2H]-
DATE: 2016.01.19 (Created 2009.09.10, modified 2011.05.06)
AUTHORS: Matsuda F, Suzuki M, Sawada Y, Plant Science Center, RIKEN.
LICENSE: CC BY-SA
COMMENT: Acquisition and generation of the data is financially supported in part by CREST/JST.
CH$NAME: Cyanidin-3,5-di-O-glucoside
CH$NAME: Cynd-3-Glc-5-Glc
CH$NAME: Cyanin
CH$NAME: 2-(3,4-Dihydroxyphenyl)-3,5-bis(beta-D-glucopyranosyloxy)-7-hydroxy-1-benzopyrylium
CH$COMPOUND_CLASS: Anthocyanidin
CH$FORMULA: [C27H31O16]+
CH$EXACT_MASS: 611.16121
CH$SMILES: c(c(c([o+1]2)c(OC(O5)C(C(C(C5CO)O)O)O)cc(c3OC(O4)C(C(C(C4CO)O)O)O)c(cc(c3)O)2)1)c(O)c(O)cc1
CH$IUPAC: InChI=1S/C27H30O16/c28-7-17-19(33)21(35)23(37)26(42-17)40-15-5-10(30)4-14-11(15)6-16(25(39-14)9-1-2-12(31)13(32)3-9)41-27-24(38)22(36)20(34)18(8-29)43-27/h1-6,17-24,26-29,33-38H,7-8H2,(H2-,30,31,32)/p+1/t17-,18-,19-,20-,21+,22+,23-,24-,26-,27-/m1/s1
CH$LINK: CAS 20905-74-2
CH$LINK: CHEMSPIDER 390301
CH$LINK: KAPPAVIEW KPC00411
CH$LINK: KEGG C08639
CH$LINK: KNAPSACK C00002378
CH$LINK: PUBCHEM CID:441688
CH$LINK: INCHIKEY RDFLLVCQYHQOBU-ZOTFFYTFSA-O
CH$LINK: COMPTOX DTXSID70331611
AC$INSTRUMENT: UPLC Q-Tof Premier, Waters
AC$INSTRUMENT_TYPE: LC-ESI-QTOF
AC$MASS_SPECTROMETRY: MS_TYPE MS2
AC$MASS_SPECTROMETRY: ION_MODE NEGATIVE
AC$MASS_SPECTROMETRY: COLLISION_ENERGY Ramp 5-60 V
AC$MASS_SPECTROMETRY: DATAFORMAT Continuum
AC$MASS_SPECTROMETRY: DATE 2008.07.28
AC$MASS_SPECTROMETRY: DESOLVATION_GAS_FLOW 600.0 L/Hr
AC$MASS_SPECTROMETRY: DESOLVATION_TEMPERATURE 420 C
AC$MASS_SPECTROMETRY: FRAGMENTATION_METHOD LOW-ENERGY CID
AC$MASS_SPECTROMETRY: IONIZATION ESI
AC$MASS_SPECTROMETRY: SCANNING 1.0 sec/scan (m/z = 50-1000)
AC$MASS_SPECTROMETRY: SOURCE_TEMPERATURE 120 C
AC$CHROMATOGRAPHY: CAPILLARY_VOLTAGE 3.0 kV
AC$CHROMATOGRAPHY: SAMPLING_CONE 23.0 V
AC$CHROMATOGRAPHY: SOLVENT A CH3CN(0.1%HCOOH)
AC$CHROMATOGRAPHY: SOLVENT B H2O(0.1%HCOOH)
MS$FOCUSED_ION: PRECURSOR_M/Z 609.14558
MS$FOCUSED_ION: PRECURSOR_TYPE [M-2H]-
PK$SPLASH: splash10-053b-0090403000-8313af5e396c859f027f
PK$NUM_PEAK: 10
PK$PEAK: m/z int. rel.int.
  125.0234 35.47 123
  147.0094 30.83 107
  227.0353 32.48 113
  255.0302 53.52 186
  283.0253 230.8 800
  284.0337 106.4 369
  285.0411 278.7 966
  446.0860 101.7 353
  447.0934 288.2 999
  609.1456 252.7 876
//
