ACCESSION: MSBNK-RIKEN-PR301796
RECORD_TITLE: Oxyacanthine; LC-ESI-QTOF; MS2
DATE: 2019.03.28
AUTHORS: Tetsuya Mori, Center for Sustainable Resource Science, RIKEN
LICENSE: CC BY-NC-SA
PUBLICATION: Tsugawa H., Nakabayashi R., Mori T., Yamada Y., Takahashi M., Rai A., Sugiyama R., Yamamoto H., Nakaya T., Yamazaki M., Kooke R., Bac-Molenaar JA., Oztolan-Erol N., Keurentjes JJB., Arita M., Saito K. (2019) "A cheminformatics approach to characterize metabolomes in stable-isotope-labeled organisms" Nature Methods 16(4):295-298. [doi:10.1038/s41592-019-0358-2]
COMMENT: registered in RIKEN PlaSMA
CH$NAME: Oxyacanthine
CH$COMPOUND_CLASS: Lignans, neolignans and related compounds
CH$FORMULA: C37H40N2O6
CH$EXACT_MASS: 608.735
CH$SMILES: COC1=C2OC3=C4C(CC5=CC=C(OC6=C(O)C=CC(C[C@H]7N(C)CCC(=C1)C7=C2)=C6)C=C5)N(C)CCC4=CC(OC)=C3OC
CH$IUPAC: InChI=1S/C37H40N2O6/c1-38-14-12-24-19-32(41-3)33-21-27(24)28(38)17-23-8-11-30(40)31(18-23)44-26-9-6-22(7-10-26)16-29-35-25(13-15-39(29)2)20-34(42-4)36(43-5)37(35)45-33/h6-11,18-21,28-29,40H,12-17H2,1-5H3/t28-,29?/m1/s1
CH$LINK: INCHIKEY HGNHIFJNOKGSKI-FICMROCWSA-N
AC$INSTRUMENT: LC, Waters Acquity UPLC System; MS, Waters Xevo G2 Q-Tof
AC$INSTRUMENT_TYPE: LC-ESI-QTOF
AC$MASS_SPECTROMETRY: MS_TYPE MS2
AC$MASS_SPECTROMETRY: ION_MODE POSITIVE
AC$MASS_SPECTROMETRY: COLLISION_ENERGY 6V
AC$MASS_SPECTROMETRY: DESOLVATION_GAS_FLOW 800/h
AC$MASS_SPECTROMETRY: DESOLVATION_TEMPERATURE 450 C
AC$MASS_SPECTROMETRY: IONIZATION ESI
AC$CHROMATOGRAPHY: CAPILLARY_VOLTAGE +3.00 kV
AC$CHROMATOGRAPHY: COLUMN_NAME Acquity bridged ethyl hybrid C18 (1.7 um, 2.1 mm * 100 mm, Waters)
AC$CHROMATOGRAPHY: COLUMN_TEMPERATURE 40 C
AC$CHROMATOGRAPHY: FLOW_GRADIENT A/B = (99.5%/0.5% at 0 min, 99.5%/0.5% at 0.1 min, 20%/80% at 10 min, 0.5%/99.5% at 10.1 min, 0.5%/99.5% at 12.0 min, 99.5%/0.5% at 12.1 min, 99.5%/0.5% at 15.0 min)
AC$CHROMATOGRAPHY: FLOW_RATE 0.3 ml/min at 0 min, 0.3 ml/min at 10 min, 0.4 ml/min at 10.1 min, 0.4 ml/min at 14.4 min, 0.3 ml/min at 14.5 min
AC$CHROMATOGRAPHY: RETENTION_TIME 3.764483
AC$CHROMATOGRAPHY: SOLVENT A water including 0.1% formic acid
AC$CHROMATOGRAPHY: SOLVENT B acetonitrile including 0.1% formic acid
MS$FOCUSED_ION: PRECURSOR_TYPE [M+H]+
MS$FOCUSED_ION: PRECURSOR_M/Z 609.2959135
PK$SPLASH: splash10-0ff0-0988120000-f687321da36138b3867d
PK$NUM_PEAK: 264
PK$PEAK: m/z int. rel.int.
  99.04753 92.0 92
  99.27835 45.0 45
  115.05022 87.0 87
  127.05306 55.0 55
  131.0511 42.0 42
  132.08098 67.0 67
  133.04982 55.0 55
  133.06291 50.0 50
  135.03261 42.0 42
  135.04613 65.0 65
  135.06601 42.0 42
  135.07793 47.0 47
  139.08354 42.0 42
  144.05251 72.0 72
  145.06772 112.0 112
  145.09485 65.0 65
  146.06593 42.0 42
  146.09074 55.0 55
  146.09944 150.0 150
  147.06712 90.0 90
  148.0587 45.0 45
  148.06551 42.0 42
  158.09557 47.0 47
  159.06958 47.0 47
  159.10214 50.0 50
  160.07465 110.0 110
  160.1022 50.0 50
  161.05319 45.0 45
  162.08324 55.0 55
  162.09079 120.0 120
  163.09233 67.0 67
  164.11049 42.0 42
  165.06636 57.0 57
  165.08971 55.0 55
  169.10172 65.0 65
  171.08008 55.0 55
  172.08607 130.0 130
  173.06235 107.0 107
  174.07123 50.0 50
  174.09296 1000.0 999
  174.10397 47.0 47
  175.06027 52.0 52
  175.10042 140.0 140
  176.06163 45.0 45
  176.06894 42.0 42
  177.06779 97.0 97
  177.08379 57.0 57
  177.11673 67.0 67
  178.05634 62.0 62
  178.07983 45.0 45
  178.09116 82.0 82
  180.06709 47.0 47
  180.09702 62.0 62
  187.13141 42.0 42
  188.11244 42.0 42
  189.08458 90.0 90
  189.11833 42.0 42
  190.07083 60.0 60
  190.08488 82.0 82
  190.09474 190.0 190
  191.07082 42.0 42
  191.08226 62.0 62
  192.09691 219.0 219
  192.11122 147.0 147
  193.10706 52.0 52
  196.09549 97.0 97
  197.05409 87.0 87
  197.10255 80.0 80
  198.101 87.0 87
  199.07841 257.0 257
  203.07664 50.0 50
  204.06519 175.0 175
  204.10405 200.0 200
  205.10872 47.0 47
  206.08279 52.0 52
  206.11388 62.0 62
  207.07326 95.0 95
  207.08783 57.0 57
  208.13504 50.0 50
  209.10167 95.0 95
  211.06947 50.0 50
  211.0887 47.0 47
  211.11197 112.0 112
  213.0499 62.0 62
  213.07339 75.0 75
  213.09453 42.0 42
  215.10486 60.0 60
  218.12114 42.0 42
  219.07764 55.0 55
  219.08693 72.0 72
  220.08678 67.0 67
  220.108 50.0 50
  221.05923 57.0 57
  221.08725 87.0 87
  222.10719 50.0 50
  223.08997 62.0 62
  223.10596 75.0 75
  223.11609 60.0 60
  224.07745 110.0 110
  225.05603 65.0 65
  225.07588 45.0 45
  225.08705 100.0 100
  228.09962 50.0 50
  229.09119 60.0 60
  230.07349 65.0 65
  233.08694 67.0 67
  234.06779 65.0 65
  235.0703 60.0 60
  235.08032 110.0 110
  236.08316 42.0 42
  237.08473 72.0 72
  237.0947 157.0 157
  237.13509 67.0 67
  239.07631 47.0 47
  240.11432 135.0 135
  250.1015 112.0 112
  251.0757 65.0 65
  252.07149 42.0 42
  252.12044 47.0 47
  254.09583 60.0 60
  254.11989 92.0 92
  255.12474 42.0 42
  265.07651 45.0 45
  265.08521 127.0 127
  266.12143 60.0 60
  267.08829 75.0 75
  267.10272 57.0 57
  267.11371 65.0 65
  269.07663 50.0 50
  269.13187 62.0 62
  273.10883 52.0 52
  273.12329 57.0 57
  277.12396 72.0 72
  278.13235 50.0 50
  279.1185 117.0 117
  280.10205 110.0 110
  282.08606 97.0 97
  283.11795 50.0 50
  290.09494 57.0 57
  293.11661 87.0 87
  293.13644 127.0 127
  294.10922 50.0 50
  295.1001 107.0 107
  297.10028 52.0 52
  299.10678 42.0 42
  301.06699 42.0 42
  304.06851 45.0 45
  305.11084 80.0 80
  307.12781 115.0 115
  308.11536 52.0 52
  308.13809 62.0 62
  309.10818 65.0 65
  312.11963 50.0 50
  316.12006 52.0 52
  317.11417 47.0 47
  318.1152 60.0 60
  321.17178 70.0 70
  323.10117 50.0 50
  327.10278 55.0 55
  328.1915 47.0 47
  331.10861 60.0 60
  332.11032 42.0 42
  332.13004 52.0 52
  332.14734 50.0 50
  333.13666 52.0 52
  333.14658 62.0 62
  334.13174 55.0 55
  334.16498 55.0 55
  335.14438 52.0 52
  336.14246 47.0 47
  336.15671 52.0 52
  338.09622 50.0 50
  338.146 167.0 167
  339.12057 52.0 52
  340.14883 52.0 52
  342.17181 42.0 42
  343.12549 45.0 45
  343.14526 120.0 120
  345.11163 52.0 52
  345.14029 70.0 70
  348.14038 57.0 57
  349.15311 50.0 50
  349.17612 67.0 67
  350.13165 57.0 57
  350.16132 120.0 120
  350.93054 50.0 50
  351.12381 45.0 45
  351.13275 75.0 75
  351.1539 87.0 87
  352.18011 67.0 67
  353.17139 107.0 107
  355.18002 62.0 62
  357.08545 50.0 50
  357.1402 112.0 112
  359.1131 45.0 45
  360.16861 52.0 52
  361.14523 87.0 87
  365.15906 62.0 62
  367.14163 67.0 67
  367.16275 47.0 47
  372.13974 105.0 105
  373.15396 50.0 50
  377.14545 42.0 42
  379.17029 50.0 50
  380.14349 52.0 52
  381.15842 100.0 100
  381.17255 357.0 357
  381.18924 419.0 419
  382.14481 62.0 62
  382.17834 304.0 304
  382.20099 70.0 70
  383.17917 62.0 62
  386.14343 52.0 52
  398.17786 120.0 120
  399.47897 55.0 55
  401.1521 42.0 42
  402.13254 50.0 50
  403.16681 47.0 47
  411.15219 75.0 75
  413.15247 60.0 60
  417.11526 42.0 42
  426.17169 50.0 50
  437.19809 55.0 55
  439.13834 50.0 50
  442.15759 60.0 60
  449.16092 45.0 45
  469.12802 70.0 70
  472.8027 42.0 42
  474.14993 97.0 97
  477.16144 112.0 112
  484.15695 57.0 57
  486.1503 70.0 70
  487.1749 42.0 42
  498.11115 52.0 52
  503.18933 92.0 92
  505.34839 57.0 57
  506.17215 55.0 55
  507.21457 45.0 45
  509.18747 42.0 42
  516.21381 60.0 60
  518.16095 70.0 70
  519.17078 45.0 45
  519.20935 42.0 42
  520.20325 52.0 52
  520.24353 45.0 45
  524.21979 42.0 42
  532.23346 55.0 55
  534.18018 47.0 47
  534.21234 122.0 122
  546.19421 45.0 45
  548.21185 87.0 87
  550.15784 65.0 65
  550.21204 60.0 60
  550.24133 95.0 95
  551.22925 172.0 172
  552.24353 60.0 60
  552.2605 55.0 55
  562.22443 135.0 135
  565.25586 75.0 75
  566.23901 42.0 42
  566.2536 47.0 47
  593.22894 50.0 50
  609.2804 45.0 45
  609.33453 55.0 55
//
