ACCESSION: MSBNK-RIKEN-PR307479
RECORD_TITLE: Honokiol; LC-ESI-QTOF; MS2
DATE: 2019.03.28
AUTHORS: Tetsuya Mori, Center for Sustainable Resource Science, RIKEN
LICENSE: CC BY-NC-SA
PUBLICATION: Tsugawa H., Nakabayashi R., Mori T., Yamada Y., Takahashi M., Rai A., Sugiyama R., Yamamoto H., Nakaya T., Yamazaki M., Kooke R., Bac-Molenaar JA., Oztolan-Erol N., Keurentjes JJB., Arita M., Saito K. (2019) "A cheminformatics approach to characterize metabolomes in stable-isotope-labeled organisms" Nature Methods 16(4):295-298. [doi:10.1038/s41592-019-0358-2]
COMMENT: registered in RIKEN PlaSMA
CH$NAME: Honokiol
CH$COMPOUND_CLASS: Biphenyls and derivatives
CH$FORMULA: C18H18O2
CH$EXACT_MASS: 266.34
CH$SMILES: OC1=C(CC=C)C=C(C=C1)C1=C(O)C=CC(CC=C)=C1
CH$IUPAC: InChI=1S/C18H18O2/c1-3-5-13-7-9-18(20)16(11-13)14-8-10-17(19)15(12-14)6-4-2/h3-4,7-12,19-20H,1-2,5-6H2
CH$LINK: INCHIKEY FVYXIJYOAGAUQK-UHFFFAOYSA-N
AC$INSTRUMENT: LC, Waters Acquity UPLC System; MS, Waters Xevo G2 Q-Tof
AC$INSTRUMENT_TYPE: LC-ESI-QTOF
AC$MASS_SPECTROMETRY: MS_TYPE MS2
AC$MASS_SPECTROMETRY: ION_MODE NEGATIVE
AC$MASS_SPECTROMETRY: COLLISION_ENERGY 6V
AC$MASS_SPECTROMETRY: DESOLVATION_GAS_FLOW 800/h
AC$MASS_SPECTROMETRY: DESOLVATION_TEMPERATURE 450 C
AC$MASS_SPECTROMETRY: IONIZATION ESI
AC$CHROMATOGRAPHY: CAPILLARY_VOLTAGE -2.75 kV
AC$CHROMATOGRAPHY: COLUMN_NAME Acquity bridged ethyl hybrid C18 (1.7 um, 2.1 mm * 100 mm, Waters)
AC$CHROMATOGRAPHY: COLUMN_TEMPERATURE 40 C
AC$CHROMATOGRAPHY: FLOW_GRADIENT A/B = (99.5%/0.5% at 0 min, 99.5%/0.5% at 0.1 min, 20%/80% at 10 min, 0.5%/99.5% at 10.1 min, 0.5%/99.5% at 12.0 min, 99.5%/0.5% at 12.1 min, 99.5%/0.5% at 15.0 min)
AC$CHROMATOGRAPHY: FLOW_RATE 0.3 ml/min at 0 min, 0.3 ml/min at 10 min, 0.4 ml/min at 10.1 min, 0.4 ml/min at 14.4 min, 0.3 ml/min at 14.5 min
AC$CHROMATOGRAPHY: RETENTION_TIME 8.63375
AC$CHROMATOGRAPHY: SOLVENT A water including 0.1% formic acid
AC$CHROMATOGRAPHY: SOLVENT B acetonitrile including 0.1% formic acid
MS$FOCUSED_ION: PRECURSOR_TYPE [M-H]-
MS$FOCUSED_ION: PRECURSOR_M/Z 265.12340334783
PK$SPLASH: splash10-00ea-0950000000-59c7d39b68475a443ee5
PK$NUM_PEAK: 42
PK$PEAK: m/z int. rel.int.
  93.03063 82.0 82
  93.03529 96.0 96
  106.03464 91.0 91
  115.05112 96.0 96
  117.0294 91.0 91
  127.0557 96.0 96
  132.05835 119.0 119
  141.02931 91.0 91
  142.03207 87.0 87
  143.04948 100.0 100
  152.06502 96.0 96
  155.05334 82.0 82
  167.04268 91.0 91
  167.05029 96.0 96
  169.06514 82.0 82
  180.05835 82.0 82
  181.0593 91.0 91
  182.0385 621.0 620
  183.04376 96.0 96
  193.07031 82.0 82
  194.07976 205.0 205
  195.0773 123.0 123
  195.08643 82.0 82
  196.0425 82.0 82
  196.05307 447.0 447
  196.08403 205.0 205
  197.06046 233.0 233
  197.06978 82.0 82
  206.07379 87.0 87
  221.05609 91.0 91
  221.07443 91.0 91
  222.06149 187.0 187
  222.5199 82.0 82
  223.07391 1000.0 999
  224.06866 82.0 82
  224.08084 82.0 82
  245.09328 119.0 119
  247.07758 110.0 110
  247.08556 123.0 123
  248.07748 105.0 105
  249.08253 110.0 110
  265.13403 82.0 82
//
