ACCESSION: MSBNK-RIKEN-PR300235
RECORD_TITLE: Gardnutine; LC-ESI-QTOF; MS2
DATE: 2019.03.28
AUTHORS: Tetsuya Mori, Center for Sustainable Resource Science, RIKEN
LICENSE: CC BY-NC-SA
PUBLICATION: Tsugawa H., Nakabayashi R., Mori T., Yamada Y., Takahashi M., Rai A., Sugiyama R., Yamamoto H., Nakaya T., Yamazaki M., Kooke R., Bac-Molenaar JA., Oztolan-Erol N., Keurentjes JJB., Arita M., Saito K. (2019) "A cheminformatics approach to characterize metabolomes in stable-isotope-labeled organisms" Nature Methods 16(4):295-298. [doi:10.1038/s41592-019-0358-2]
COMMENT: registered in RIKEN PlaSMA
CH$NAME: Gardnutine
CH$COMPOUND_CLASS: Macroline alkaloids
CH$FORMULA: C20H22N2O2
CH$EXACT_MASS: 322.408
CH$SMILES: COC1=CC2=C(C=C1)C1=C(N2)[C@@H]2CC3C4CO[C@H]1[C@@H]4N2C\C3=C\C
CH$IUPAC: InChI=1S/C20H22N2O2/c1-3-10-8-22-16-7-13(10)14-9-24-20(19(14)22)17-12-5-4-11(23-2)6-15(12)21-18(16)17/h3-6,13-14,16,19-21H,7-9H2,1-2H3/b10-3-/t13?,14?,16-,19+,20+/m0/s1
CH$LINK: INCHIKEY XJTWLFBHBFSVRS-CRJBWSHOSA-N
AC$INSTRUMENT: LC, Waters Acquity UPLC System; MS, Waters Xevo G2 Q-Tof
AC$INSTRUMENT_TYPE: LC-ESI-QTOF
AC$MASS_SPECTROMETRY: MS_TYPE MS2
AC$MASS_SPECTROMETRY: ION_MODE POSITIVE
AC$MASS_SPECTROMETRY: COLLISION_ENERGY 6V
AC$MASS_SPECTROMETRY: DESOLVATION_GAS_FLOW 800/h
AC$MASS_SPECTROMETRY: DESOLVATION_TEMPERATURE 450 C
AC$MASS_SPECTROMETRY: IONIZATION ESI
AC$CHROMATOGRAPHY: CAPILLARY_VOLTAGE +3.00 kV
AC$CHROMATOGRAPHY: COLUMN_NAME Acquity bridged ethyl hybrid C18 (1.7 um, 2.1 mm * 100 mm, Waters)
AC$CHROMATOGRAPHY: COLUMN_TEMPERATURE 40 C
AC$CHROMATOGRAPHY: FLOW_GRADIENT A/B = (99.5%/0.5% at 0 min, 99.5%/0.5% at 0.1 min, 20%/80% at 10 min, 0.5%/99.5% at 10.1 min, 0.5%/99.5% at 12.0 min, 99.5%/0.5% at 12.1 min, 99.5%/0.5% at 15.0 min)
AC$CHROMATOGRAPHY: FLOW_RATE 0.3 ml/min at 0 min, 0.3 ml/min at 10 min, 0.4 ml/min at 10.1 min, 0.4 ml/min at 14.4 min, 0.3 ml/min at 14.5 min
AC$CHROMATOGRAPHY: RETENTION_TIME 4.419867
AC$CHROMATOGRAPHY: SOLVENT A water including 0.1% formic acid
AC$CHROMATOGRAPHY: SOLVENT B acetonitrile including 0.1% formic acid
MS$FOCUSED_ION: PRECURSOR_TYPE [M+H]+
MS$FOCUSED_ION: PRECURSOR_M/Z 323.1754044
PK$SPLASH: splash10-0a4i-1930000000-6c8d0540bef49959a866
PK$NUM_PEAK: 357
PK$PEAK: m/z int. rel.int.
  65.03533 6.0 6
  66.03797 5.0 5
  67.05499 12.0 12
  69.03635 7.0 7
  77.0323 23.0 23
  77.03902 88.0 88
  78.03902 12.0 12
  79.05328 20.0 20
  79.05822 8.0 8
  80.04594 24.0 24
  82.05981 8.0 8
  90.04582 9.0 9
  91.0508 45.0 45
  91.05484 115.0 115
  92.04858 26.0 26
  92.05891 11.0 11
  93.05682 201.0 201
  93.07033 94.0 94
  94.02562 7.0 7
  94.05958 79.0 79
  94.06473 265.0 265
  95.05406 10.0 10
  95.08555 17.0 17
  102.05275 6.0 6
  103.05251 44.0 44
  104.03591 7.0 7
  104.05093 15.0 15
  104.0557 17.0 17
  105.05477 5.0 5
  105.05947 10.0 10
  105.06748 23.0 23
  105.07597 8.0 8
  106.04549 8.0 8
  106.06431 72.0 72
  107.0665 45.0 45
  107.07299 50.0 50
  108.07362 7.0 7
  108.08298 38.0 38
  109.25134 6.0 6
  110.09955 6.0 6
  110.9642 6.0 6
  115.05338 37.0 37
  116.00266 6.0 6
  116.04991 14.0 14
  116.06351 8.0 8
  117.05524 83.0 83
  117.06132 68.0 68
  118.04027 5.0 5
  118.05198 17.0 17
  118.06425 64.0 64
  118.11658 6.0 6
  118.59235 7.0 7
  119.06894 15.0 15
  120.0639 12.0 12
  120.0806 96.0 96
  121.08119 10.0 10
  121.08832 22.0 22
  122.09512 119.0 119
  122.10527 10.0 10
  123.09519 9.0 9
  123.11878 7.0 7
  124.05811 5.0 5
  125.41165 6.0 6
  127.05082 7.0 7
  127.05753 5.0 5
  128.04872 22.0 22
  129.04623 11.0 11
  129.05911 16.0 16
  129.06874 13.0 13
  130.02896 9.0 9
  130.04843 16.0 16
  130.06374 422.0 422
  130.20578 7.0 7
  130.4144 11.0 11
  131.05392 19.0 19
  131.07173 86.0 86
  131.0851 7.0 7
  132.04295 55.0 55
  132.06395 10.0 10
  132.07173 20.0 20
  132.0795 14.0 14
  133.03149 7.0 7
  133.05383 16.0 16
  134.09665 25.0 25
  136.11565 7.0 7
  136.12692 5.0 5
  139.05637 12.0 12
  140.04942 5.0 5
  141.05772 9.0 9
  141.06918 5.0 5
  142.06552 36.0 36
  143.05006 10.0 10
  143.07317 118.0 118
  144.05687 34.0 34
  144.07642 35.0 35
  145.05394 106.0 106
  145.08229 27.0 27
  145.08929 27.0 27
  145.09729 8.0 8
  146.05846 38.0 38
  146.10127 9.0 9
  147.06667 35.0 35
  148.04773 9.0 9
  148.06686 17.0 17
  148.07487 10.0 10
  148.1122 19.0 19
  150.08417 5.0 5
  150.09473 9.0 9
  152.05789 5.0 5
  152.06534 13.0 13
  153.05664 8.0 8
  153.06798 7.0 7
  153.07896 10.0 10
  154.06364 129.0 129
  155.06599 20.0 20
  155.0751 63.0 63
  155.98335 7.0 7
  156.06442 16.0 16
  156.0731 10.0 10
  156.08081 8.0 8
  156.0912 6.0 6
  157.01668 6.0 6
  157.04724 21.0 21
  157.05905 11.0 11
  157.08533 10.0 10
  157.98611 7.0 7
  158.04144 14.0 14
  158.05864 1000.0 999
  158.0929 13.0 13
  159.03746 10.0 10
  159.05099 24.0 24
  159.06252 176.0 176
  159.08427 8.0 8
  160.02744 7.0 7
  160.0755 85.0 85
  161.07437 8.0 8
  161.08217 6.0 6
  164.75722 7.0 7
  165.06836 26.0 26
  166.06277 22.0 22
  167.06737 29.0 29
  167.07474 71.0 71
  167.09119 7.0 7
  168.0567 12.0 12
  168.0652 13.0 13
  168.08148 50.0 50
  169.07021 23.0 23
  169.08508 28.0 28
  170.02922 6.0 6
  170.05452 61.0 61
  170.06581 15.0 15
  170.08871 14.0 14
  170.10007 9.0 9
  171.06334 20.0 20
  171.07298 12.0 12
  172.07123 57.0 57
  172.08217 14.0 14
  173.06743 17.0 17
  173.08179 178.0 178
  174.08208 5.0 5
  174.08983 24.0 24
  179.07332 15.0 15
  180.06502 8.0 8
  180.0824 159.0 159
  181.08955 33.0 33
  181.10652 5.0 5
  182.0596 62.0 62
  182.06961 17.0 17
  182.09105 27.0 27
  182.1006 9.0 9
  183.06828 13.0 13
  183.07527 7.0 7
  184.06529 35.0 35
  184.0858 5.0 5
  184.73341 5.0 5
  185.06335 20.0 20
  186.04044 5.0 5
  186.06058 13.0 13
  186.07336 5.0 5
  186.0909 28.0 28
  188.0708 5.0 5
  189.0271 5.0 5
  189.08904 5.0 5
  190.07594 6.0 6
  191.06976 37.0 37
  191.07823 13.0 13
  191.08653 6.0 6
  192.06935 11.0 11
  192.08058 40.0 40
  192.08911 11.0 11
  193.05434 6.0 6
  193.07539 16.0 16
  193.08379 31.0 31
  193.08992 63.0 63
  194.06161 8.0 8
  194.07574 8.0 8
  194.09229 82.0 82
  194.25421 6.0 6
  195.05327 12.0 12
  195.0688 44.0 44
  195.08142 9.0 9
  195.09433 10.0 10
  195.10715 7.0 7
  196.07445 59.0 59
  196.10085 5.0 5
  197.06288 15.0 15
  197.07683 8.0 8
  197.08781 9.0 9
  198.06709 6.0 6
  198.0779 33.0 33
  198.08856 17.0 17
  199.08656 41.0 41
  199.10715 5.0 5
  199.38684 5.0 5
  200.06099 13.0 13
  203.07069 20.0 20
  204.07002 19.0 19
  204.08099 58.0 58
  204.09396 15.0 15
  204.09991 6.0 6
  205.06612 14.0 14
  205.07729 20.0 20
  205.08913 54.0 54
  206.0421 6.0 6
  206.06302 6.0 6
  206.08577 23.0 23
  206.09579 67.0 67
  207.06146 10.0 10
  207.09056 43.0 43
  207.10522 10.0 10
  208.07077 62.0 62
  208.07784 29.0 29
  208.10634 28.0 28
  208.11563 11.0 11
  208.12477 5.0 5
  208.27316 5.0 5
  209.06895 23.0 23
  209.07713 29.0 29
  209.08963 24.0 24
  210.07176 10.0 10
  210.08475 24.0 24
  210.09619 36.0 36
  210.10973 12.0 12
  211.09665 26.0 26
  211.11726 7.0 7
  212.09825 9.0 9
  213.06607 7.0 7
  213.09785 7.0 7
  216.0722 7.0 7
  216.08298 22.0 22
  217.07507 6.0 6
  217.09074 17.0 17
  218.09138 32.0 32
  218.10533 13.0 13
  219.04832 5.0 5
  219.09109 45.0 45
  219.09935 16.0 16
  219.10957 7.0 7
  220.07501 10.0 10
  220.09673 64.0 64
  220.11057 22.0 22
  221.08202 17.0 17
  221.09259 18.0 18
  221.10902 8.0 8
  222.08131 23.0 23
  222.10121 7.0 7
  222.12042 6.0 6
  223.08156 10.0 10
  223.09364 9.0 9
  223.10291 18.0 18
  223.1424 7.0 7
  224.0979 35.0 35
  224.11023 9.0 9
  225.10312 11.0 11
  226.10498 11.0 11
  227.08189 22.0 22
  228.06998 5.0 5
  229.09616 7.0 7
  230.09306 13.0 13
  230.17751 5.0 5
  231.09164 17.0 17
  231.1203 5.0 5
  232.08321 5.0 5
  232.09616 16.0 16
  232.10789 14.0 14
  232.12546 8.0 8
  233.09534 24.0 24
  233.10983 31.0 31
  233.85658 5.0 5
  233.98894 11.0 11
  234.07805 33.0 33
  234.09232 47.0 47
  234.11261 62.0 62
  234.13063 17.0 17
  234.52925 5.0 5
  235.08221 5.0 5
  235.10631 16.0 16
  235.12537 54.0 54
  236.07806 12.0 12
  236.11154 15.0 15
  236.12535 6.0 6
  237.10558 21.0 21
  238.12892 11.0 11
  239.12238 7.0 7
  241.09074 8.0 8
  242.1066 5.0 5
  243.09038 6.0 6
  244.10376 18.0 18
  245.08472 11.0 11
  245.1075 8.0 8
  246.07729 5.0 5
  246.09061 14.0 14
  246.11458 10.0 10
  246.12743 5.0 5
  247.06444 7.0 7
  247.07622 17.0 17
  247.09579 25.0 25
  247.12102 22.0 22
  247.13321 14.0 14
  248.08983 45.0 45
  248.10205 20.0 20
  248.10991 17.0 17
  248.13184 29.0 29
  249.08678 14.0 14
  249.10545 65.0 65
  249.13005 10.0 10
  250.0737 12.0 12
  250.09682 5.0 5
  250.1096 17.0 17
  250.12727 9.0 9
  250.14474 17.0 17
  251.12392 21.0 21
  257.11932 5.0 5
  258.09857 6.0 6
  260.08618 6.0 6
  260.11206 12.0 12
  261.08826 16.0 16
  261.11331 9.0 9
  261.13416 21.0 21
  261.14417 14.0 14
  262.08514 6.0 6
  262.10202 37.0 37
  262.11938 28.0 28
  262.13177 13.0 13
  262.14758 10.0 10
  263.10324 12.0 12
  263.1131 19.0 19
  263.12454 17.0 17
  264.09647 7.0 7
  264.11935 7.0 7
  274.10739 15.0 15
  275.10883 10.0 10
  276.11853 17.0 17
  277.13333 19.0 19
  279.15311 8.0 8
  323.1665 10.0 10
  323.17734 9.0 9
//
