ACCESSION: MSBNK-RIKEN-PR308913
RECORD_TITLE: Soyasapogenol B base + O-HexA-HexA; LC-ESI-QTOF; MS2
DATE: 2019.03.28
AUTHORS: Tetsuya Mori, Center for Sustainable Resource Science, RIKEN
LICENSE: CC BY-NC-SA
PUBLICATION: Tsugawa H., Nakabayashi R., Mori T., Yamada Y., Takahashi M., Rai A., Sugiyama R., Yamamoto H., Nakaya T., Yamazaki M., Kooke R., Bac-Molenaar JA., Oztolan-Erol N., Keurentjes JJB., Arita M., Saito K. (2019) "A cheminformatics approach to characterize metabolomes in stable-isotope-labeled organisms" Nature Methods 16(4):295-298. [doi:10.1038/s41592-019-0358-2]
COMMENT: Annotation level-3
CH$NAME: Soyasapogenol B base + O-HexA-HexA
CH$COMPOUND_CLASS: Triterpene saponins
CH$FORMULA: C42H66O15
CH$EXACT_MASS: 810.975
CH$SMILES: CC1(C)CC(O)C2(C)CCC3(C)C(=CCC4C5(C)CCC(OC6OC(C(O)C(O)C6OC6OC(C(O)C(O)C6O)C(O)=O)C(O)=O)C(C)(CO)C5CCC34C)C2C1
CH$IUPAC: InChI=1S/C42H66O15/c1-37(2)16-20-19-8-9-22-39(4)12-11-24(40(5,18-43)21(39)10-13-42(22,7)41(19,6)15-14-38(20,3)23(44)17-37)54-36-32(28(48)27(47)31(56-36)34(52)53)57-35-29(49)25(45)26(46)30(55-35)33(50)51/h8,20-32,35-36,43-49H,9-18H2,1-7H3,(H,50,51)(H,52,53)
CH$LINK: INCHIKEY GGWWAFAYNMIPPN-UHFFFAOYSA-N
AC$INSTRUMENT: LC, Waters Acquity UPLC System; MS, Waters Xevo G2 Q-Tof
AC$INSTRUMENT_TYPE: LC-ESI-QTOF
AC$MASS_SPECTROMETRY: MS_TYPE MS2
AC$MASS_SPECTROMETRY: ION_MODE NEGATIVE
AC$MASS_SPECTROMETRY: COLLISION_ENERGY 6V
AC$MASS_SPECTROMETRY: DESOLVATION_GAS_FLOW 800/h
AC$MASS_SPECTROMETRY: DESOLVATION_TEMPERATURE 450 C
AC$MASS_SPECTROMETRY: IONIZATION ESI
AC$CHROMATOGRAPHY: CAPILLARY_VOLTAGE +3.00 kV
AC$CHROMATOGRAPHY: COLUMN_NAME Acquity bridged ethyl hybrid C18 (1.7 um, 2.1 mm * 100 mm, Waters)
AC$CHROMATOGRAPHY: COLUMN_TEMPERATURE 40 C
AC$CHROMATOGRAPHY: FLOW_GRADIENT A/B = (99.5%/0.5% at 0 min, 99.5%/0.5% at 0.1 min, 20%/80% at 10 min, 0.5%/99.5% at 10.1 min, 0.5%/99.5% at 12.0 min, 99.5%/0.5% at 12.1 min, 99.5%/0.5% at 15.0 min)
AC$CHROMATOGRAPHY: FLOW_RATE 0.3 ml/min at 0 min, 0.3 ml/min at 10 min, 0.4 ml/min at 10.1 min, 0.4 ml/min at 14.4 min, 0.3 ml/min at 14.5 min
AC$CHROMATOGRAPHY: RETENTION_TIME 7.31
AC$CHROMATOGRAPHY: SOLVENT A water including 0.1% formic acid
AC$CHROMATOGRAPHY: SOLVENT B acetonitrile including 0.1% formic acid
MS$FOCUSED_ION: PRECURSOR_TYPE [M-H]-
MS$FOCUSED_ION: PRECURSOR_M/Z 809.4348
PK$SPLASH: splash10-0a4i-0101000090-cad8f21add7bc69665ea
PK$NUM_PEAK: 15
PK$PEAK: m/z int. rel.int.
  101.01681 20.0 22
  131.03958 18.0 19
  134.15359 19.0 20
  175.0184 21.0 23
  175.03053 18.0 19
  193.03352 87.0 94
  291.04675 19.0 20
  351.06281 79.0 85
  351.30035 18.0 19
  352.0582 24.0 26
  353.05994 21.0 23
  380.32181 25.0 27
  633.39764 20.0 22
  783.97113 20.0 22
  809.43555 926.0 999
//
