ACCESSION: MSBNK-RIKEN-PR100325
RECORD_TITLE: 1,6-Anhydro-beta-D-glucose; LC-ESI-QTOF; MS2; CE:Ramp 5-60 V; [M+H]+
DATE: 2016.01.19 (Created 2009.09.10, modified 2011.05.06)
AUTHORS: Matsuda F, Suzuki M, Sawada Y, Plant Science Center, RIKEN.
LICENSE: CC BY-SA
COMMENT: Acquisition and generation of the data is financially supported in part by CREST/JST.
CH$NAME: 1,6-Anhydro-beta-D-glucose
CH$NAME: Levoglucosan
CH$NAME: Leucoglucosan
CH$NAME: 1,6-Anhydro-beta-D-glucopyranose
CH$COMPOUND_CLASS: Monosaccharide
CH$FORMULA: C6H10O5
CH$EXACT_MASS: 162.05282
CH$SMILES: C1[C@@H]2[C@H]([C@@H]([C@H]([C@H](O1)O2)O)O)O
CH$IUPAC: InChI=1S/C6H10O5/c7-3-2-1-10-6(11-2)5(9)4(3)8/h2-9H,1H2/t2-,3-,4+,5-,6-/m1/s1
CH$LINK: CAS 498-07-7
CH$LINK: CHEMSPIDER 9587432
CH$LINK: KNAPSACK C00007411
CH$LINK: PUBCHEM CID:2724705
CH$LINK: INCHIKEY TWNIBLMWSKIRAT-VFUOTHLCSA-N
CH$LINK: COMPTOX DTXSID90904321
AC$INSTRUMENT: UPLC Q-Tof Premier, Waters
AC$INSTRUMENT_TYPE: LC-ESI-QTOF
AC$MASS_SPECTROMETRY: MS_TYPE MS2
AC$MASS_SPECTROMETRY: ION_MODE POSITIVE
AC$MASS_SPECTROMETRY: COLLISION_ENERGY Ramp 5-60 V
AC$MASS_SPECTROMETRY: DATAFORMAT Continuum
AC$MASS_SPECTROMETRY: DESOLVATION_GAS_FLOW 600.0 L/Hr
AC$MASS_SPECTROMETRY: DESOLVATION_TEMPERATURE 400 C
AC$MASS_SPECTROMETRY: FRAGMENTATION_METHOD LOW-ENERGY CID
AC$MASS_SPECTROMETRY: IONIZATION ESI
AC$MASS_SPECTROMETRY: SOURCE_TEMPERATURE 120 C
AC$CHROMATOGRAPHY: CAPILLARY_VOLTAGE 3.0 kV
AC$CHROMATOGRAPHY: SAMPLING_CONE 23.0 V
AC$CHROMATOGRAPHY: SOLVENT A CH3CN(0.1%HCOOH)
AC$CHROMATOGRAPHY: SOLVENT B H2O(0.1%HCOOH)
MS$FOCUSED_ION: PRECURSOR_M/Z 163.06062
MS$FOCUSED_ION: PRECURSOR_TYPE [M+H]+
PK$SPLASH: splash10-01qa-1900000000-bd41a8b766dc8d62c0d8
PK$NUM_PEAK: 5
PK$PEAK: m/z int. rel.int.
  73.0482 10.46 266
  99.5114 5.342 136
  133.0511 39.24 999
  149.0450 23.57 600
  163.0634 27.25 694
//
