ACCESSION: MSBNK-RIKEN-PR310675
RECORD_TITLE: Soyasapogenol B base + O-HexA-HexA-dHex; LC-ESI-QTOF; MS2
DATE: 2019.03.28
AUTHORS: Tetsuya Mori, Center for Sustainable Resource Science, RIKEN
LICENSE: CC BY-NC-SA
PUBLICATION: Tsugawa H., Nakabayashi R., Mori T., Yamada Y., Takahashi M., Rai A., Sugiyama R., Yamamoto H., Nakaya T., Yamazaki M., Kooke R., Bac-Molenaar JA., Oztolan-Erol N., Keurentjes JJB., Arita M., Saito K. (2019) "A cheminformatics approach to characterize metabolomes in stable-isotope-labeled organisms" Nature Methods 16(4):295-298. [doi:10.1038/s41592-019-0358-2]
COMMENT: Annotation level-3
CH$NAME: Soyasapogenol B base + O-HexA-HexA-dHex
CH$COMPOUND_CLASS: Triterpene saponins
CH$FORMULA: C48H76O19
CH$EXACT_MASS: 957.117
CH$SMILES: CC1OC(OC2C(O)C(O)C(OC2OC2C(O)C(O)C(OC2OC2CCC3(C)C(CCC4(C)C3CC=C3C5CC(C)(C)CC(O)C5(C)CCC43C)C2(C)CO)C(O)=O)C(O)=O)C(O)C(O)C1O
CH$IUPAC: InChI=1S/C48H76O19/c1-20-27(51)28(52)33(57)40(62-20)66-37-32(56)30(54)35(39(60)61)65-42(37)67-36-31(55)29(53)34(38(58)59)64-41(36)63-26-12-13-45(5)23(46(26,6)19-49)11-14-48(8)24(45)10-9-21-22-17-43(2,3)18-25(50)44(22,4)15-16-47(21,48)7/h9,20,22-37,40-42,49-57H,10-19H2,1-8H3,(H,58,59)(H,60,61)
CH$LINK: INCHIKEY SZHUMUJGHFQABW-UHFFFAOYSA-N
AC$INSTRUMENT: LC, Waters Acquity UPLC System; MS, Waters Xevo G2 Q-Tof
AC$INSTRUMENT_TYPE: LC-ESI-QTOF
AC$MASS_SPECTROMETRY: MS_TYPE MS2
AC$MASS_SPECTROMETRY: ION_MODE POSITIVE
AC$MASS_SPECTROMETRY: COLLISION_ENERGY 6V
AC$MASS_SPECTROMETRY: DESOLVATION_GAS_FLOW 800/h
AC$MASS_SPECTROMETRY: DESOLVATION_TEMPERATURE 450 C
AC$MASS_SPECTROMETRY: IONIZATION ESI
AC$CHROMATOGRAPHY: CAPILLARY_VOLTAGE +3.00 kV
AC$CHROMATOGRAPHY: COLUMN_NAME Acquity bridged ethyl hybrid C18 (1.7 um, 2.1 mm * 100 mm, Waters)
AC$CHROMATOGRAPHY: COLUMN_TEMPERATURE 40 C
AC$CHROMATOGRAPHY: FLOW_GRADIENT A/B = (99.5%/0.5% at 0 min, 99.5%/0.5% at 0.1 min, 20%/80% at 10 min, 0.5%/99.5% at 10.1 min, 0.5%/99.5% at 12.0 min, 99.5%/0.5% at 12.1 min, 99.5%/0.5% at 15.0 min)
AC$CHROMATOGRAPHY: FLOW_RATE 0.3 ml/min at 0 min, 0.3 ml/min at 10 min, 0.4 ml/min at 10.1 min, 0.4 ml/min at 14.4 min, 0.3 ml/min at 14.5 min
AC$CHROMATOGRAPHY: RETENTION_TIME 7.06
AC$CHROMATOGRAPHY: SOLVENT A water including 0.1% formic acid
AC$CHROMATOGRAPHY: SOLVENT B acetonitrile including 0.1% formic acid
MS$FOCUSED_ION: PRECURSOR_TYPE [M+H]+
MS$FOCUSED_ION: PRECURSOR_M/Z 957.5035
PK$SPLASH: splash10-0btc-0332913056-bbc763f8483cfc7ebca1
PK$NUM_PEAK: 196
PK$PEAK: m/z int. rel.int.
  95.08324 21.0 9
  107.08823 23.0 10
  109.09857 24.0 10
  109.10263 56.0 23
  111.04027 55.0 23
  111.07693 20.0 8
  131.21394 21.0 9
  134.10736 21.0 9
  139.11124 24.0 10
  141.00507 22.0 9
  141.01015 51.0 21
  141.03185 19.0 8
  147.06578 54.0 23
  159.02693 244.0 102
  159.03693 40.0 17
  160.03218 23.0 10
  160.39728 21.0 9
  162.14156 17.0 7
  162.88776 17.0 7
  177.03012 20.0 8
  177.04288 92.0 38
  177.15685 17.0 7
  178.14958 22.0 9
  179.17992 58.0 24
  189.16229 69.0 29
  189.17342 72.0 30
  190.16071 22.0 9
  191.15202 32.0 13
  191.17123 58.0 24
  193.15514 17.0 7
  195.05655 22.0 9
  195.17296 40.0 17
  202.16698 18.0 8
  203.16702 21.0 9
  203.18248 120.0 50
  204.39369 26.0 11
  205.15071 20.0 8
  206.20494 38.0 16
  215.18813 74.0 31
  217.16258 24.0 10
  217.19473 176.0 73
  219.041 27.0 11
  219.15967 18.0 8
  220.19008 17.0 7
  221.19441 110.0 46
  225.03746 18.0 8
  227.18401 48.0 20
  229.20129 21.0 9
  231.20795 18.0 8
  235.21309 22.0 9
  236.82834 43.0 18
  243.05171 28.0 12
  245.19179 41.0 17
  247.18881 25.0 10
  247.20343 36.0 15
  253.20699 19.0 8
  255.20062 20.0 8
  255.21199 20.0 8
  256.21817 23.0 10
  257.228 17.0 7
  259.20291 50.0 21
  261.06552 56.0 23
  261.20462 18.0 8
  269.06107 17.0 7
  271.88477 41.0 17
  277.25842 38.0 16
  283.19031 20.0 8
  283.25116 18.0 8
  287.07983 48.0 20
  302.24863 24.0 10
  305.08228 61.0 25
  305.09393 30.0 13
  305.89462 23.0 10
  306.09259 45.0 19
  311.13779 31.0 13
  311.27789 50.0 21
  315.25311 20.0 8
  317.02689 22.0 9
  317.05136 121.0 50
  318.0459 17.0 7
  320.05289 26.0 11
  323.10553 17.0 7
  329.27728 20.0 8
  335.05499 55.0 23
  336.05573 18.0 8
  336.06998 21.0 9
  336.0845 20.0 8
  353.06998 182.0 76
  354.06351 20.0 8
  365.30252 18.0 8
  365.33298 50.0 21
  366.32327 35.0 15
  379.2283 42.0 18
  383.33041 18.0 8
  403.08817 21.0 9
  405.33496 22.0 9
  405.35541 83.0 35
  405.37854 21.0 9
  406.35962 21.0 9
  407.35825 34.0 14
  411.38013 21.0 9
  415.5657 17.0 7
  421.34222 17.0 7
  423.29233 18.0 8
  423.36334 804.0 336
  424.35376 116.0 48
  424.37012 50.0 21
  424.3974 17.0 7
  425.36911 64.0 27
  441.25452 21.0 9
  441.31485 21.0 9
  441.37308 1160.0 484
  441.56558 18.0 8
  442.37982 364.0 152
  442.40604 45.0 19
  443.3158 21.0 9
  443.3714 99.0 41
  443.39111 49.0 20
  447.10281 19.0 8
  449.94534 19.0 8
  452.6232 17.0 7
  453.38611 22.0 9
  460.3537 18.0 8
  460.37173 18.0 8
  461.39346 26.0 11
  463.08713 20.0 8
  464.10867 18.0 8
  470.77225 19.0 8
  499.14355 39.0 16
  521.58752 20.0 8
  522.18085 17.0 7
  545.19141 17.0 7
  551.39978 37.0 15
  569.41925 80.0 33
  569.43744 34.0 14
  570.46069 20.0 8
  572.24292 18.0 8
  577.71753 19.0 8
  581.37415 18.0 8
  582.37817 18.0 8
  582.39935 25.0 10
  599.39996 224.0 93
  600.39337 148.0 62
  601.39276 48.0 20
  601.40881 43.0 18
  605.41309 33.0 14
  605.43988 101.0 42
  605.46057 120.0 50
  606.44897 125.0 52
  607.45844 40.0 17
  613.26672 19.0 8
  617.4043 118.0 49
  617.42206 33.0 14
  618.12103 20.0 8
  618.40735 18.0 8
  618.42834 44.0 18
  627.69641 20.0 8
  631.37897 18.0 8
  635.37384 19.0 8
  635.41016 99.0 41
  635.43024 144.0 60
  636.32385 20.0 8
  636.42487 18.0 8
  637.41284 17.0 7
  638.42102 45.0 19
  650.42511 23.0 10
  685.08862 17.0 7
  713.45197 22.0 9
  766.4353 21.0 9
  782.48846 18.0 8
  782.51111 18.0 8
  793.39142 20.0 8
  793.42889 24.0 10
  795.48328 22.0 9
  797.19714 17.0 7
  808.58228 20.0 8
  811.39276 62.0 26
  811.44067 966.0 403
  811.48669 160.0 67
  811.53192 27.0 11
  812.44635 610.0 255
  813.44067 60.0 25
  813.46967 59.0 25
  813.56165 17.0 7
  814.44452 39.0 16
  814.47253 20.0 8
  815.45056 24.0 10
  877.01807 20.0 8
  903.41473 18.0 8
  926.17969 19.0 8
  939.49231 20.0 8
  953.47424 24.0 10
  955.09644 18.0 8
  955.61609 20.0 8
  957.40161 19.0 8
  957.50452 2394.0 999
//
