ACCESSION: MSBNK-RIKEN-PR310598
RECORD_TITLE: Chelerythrine; LC-ESI-QTOF; MS2
DATE: 2019.03.28
AUTHORS: Tetsuya Mori, Center for Sustainable Resource Science, RIKEN
LICENSE: CC BY-NC-SA
PUBLICATION: Tsugawa H., Nakabayashi R., Mori T., Yamada Y., Takahashi M., Rai A., Sugiyama R., Yamamoto H., Nakaya T., Yamazaki M., Kooke R., Bac-Molenaar JA., Oztolan-Erol N., Keurentjes JJB., Arita M., Saito K. (2019) "A cheminformatics approach to characterize metabolomes in stable-isotope-labeled organisms" Nature Methods 16(4):295-298. [doi:10.1038/s41592-019-0358-2]
COMMENT: Annotation level-1
CH$NAME: Chelerythrine
CH$COMPOUND_CLASS: Alkaloids
CH$FORMULA: [C21H18NO4]+
CH$EXACT_MASS: 348.378
CH$SMILES: COC1=C(OC)C2=C(C=C1)C1=C(C3=C(C=C1)C=C1OCOC1=C3)[N+](C)=C2
CH$IUPAC: InChI=1S/C21H18NO4/c1-22-10-16-13(6-7-17(23-2)21(16)24-3)14-5-4-12-8-18-19(26-11-25-18)9-15(12)20(14)22/h4-10H,11H2,1-3H3/q+1
CH$LINK: INCHIKEY LLEJIEBFSOEYIV-UHFFFAOYSA-N
AC$INSTRUMENT: LC, Waters Acquity UPLC System; MS, Waters Xevo G2 Q-Tof
AC$INSTRUMENT_TYPE: LC-ESI-QTOF
AC$MASS_SPECTROMETRY: MS_TYPE MS2
AC$MASS_SPECTROMETRY: ION_MODE POSITIVE
AC$MASS_SPECTROMETRY: COLLISION_ENERGY 6V
AC$MASS_SPECTROMETRY: DESOLVATION_GAS_FLOW 800/h
AC$MASS_SPECTROMETRY: DESOLVATION_TEMPERATURE 450 C
AC$MASS_SPECTROMETRY: IONIZATION ESI
AC$CHROMATOGRAPHY: CAPILLARY_VOLTAGE +3.00 kV
AC$CHROMATOGRAPHY: COLUMN_NAME Acquity bridged ethyl hybrid C18 (1.7 um, 2.1 mm * 100 mm, Waters)
AC$CHROMATOGRAPHY: COLUMN_TEMPERATURE 40 C
AC$CHROMATOGRAPHY: FLOW_GRADIENT A/B = (99.5%/0.5% at 0 min, 99.5%/0.5% at 0.1 min, 20%/80% at 10 min, 0.5%/99.5% at 10.1 min, 0.5%/99.5% at 12.0 min, 99.5%/0.5% at 12.1 min, 99.5%/0.5% at 15.0 min)
AC$CHROMATOGRAPHY: FLOW_RATE 0.3 ml/min at 0 min, 0.3 ml/min at 10 min, 0.4 ml/min at 10.1 min, 0.4 ml/min at 14.4 min, 0.3 ml/min at 14.5 min
AC$CHROMATOGRAPHY: RETENTION_TIME 5.3
AC$CHROMATOGRAPHY: SOLVENT A water including 0.1% formic acid
AC$CHROMATOGRAPHY: SOLVENT B acetonitrile including 0.1% formic acid
MS$FOCUSED_ION: PRECURSOR_TYPE [M]+
MS$FOCUSED_ION: PRECURSOR_M/Z 348.12249
PK$SPLASH: splash10-0002-0019000000-b0a16bc0d17363a5815b
PK$NUM_PEAK: 228
PK$PEAK: m/z int. rel.int.
  66.49751 41.0 2
  115.81107 20.0 1
  127.40402 22.0 1
  148.05801 24.0 1
  153.06126 24.0 1
  167.10437 17.0 1
  175.91447 17.0 1
  177.07008 17.0 1
  179.1433 18.0 1
  189.62227 24.0 1
  190.09164 20.0 1
  196.87105 32.0 1
  197.22607 28.0 1
  197.67139 20.0 1
  200.79962 25.0 1
  201.0576 17.0 1
  201.08368 17.0 1
  203.08261 31.0 1
  203.8026 26.0 1
  204.07626 24.0 1
  204.08635 25.0 1
  205.06677 17.0 1
  205.08675 21.0 1
  205.09212 39.0 2
  207.4782 20.0 1
  207.65059 18.0 1
  214.01199 20.0 1
  214.05588 27.0 1
  216.08382 68.0 3
  216.6857 24.0 1
  218.08665 38.0 2
  218.38628 36.0 2
  218.54657 17.0 1
  220.65331 18.0 1
  227.06496 20.0 1
  227.07709 19.0 1
  228.08159 25.0 1
  228.29279 18.0 1
  229.09599 35.0 2
  230.04703 22.0 1
  230.09537 54.0 2
  230.10397 25.0 1
  231.06691 18.0 1
  231.09422 17.0 1
  231.10321 17.0 1
  231.88161 30.0 1
  232.07495 224.0 10
  232.11845 19.0 1
  233.06694 20.0 1
  233.21744 17.0 1
  234.09795 38.0 2
  235.09297 17.0 1
  236.28981 17.0 1
  237.99136 19.0 1
  244.0799 64.0 3
  245.04521 18.0 1
  245.08267 39.0 2
  246.04732 23.0 1
  246.06563 24.0 1
  246.08771 379.0 17
  246.10094 171.0 8
  246.31683 33.0 2
  247.07387 59.0 3
  247.09724 80.0 4
  247.10991 32.0 1
  248.09438 19.0 1
  248.10316 24.0 1
  248.1234 18.0 1
  249.11746 25.0 1
  253.38928 25.0 1
  254.96927 18.0 1
  255.82724 20.0 1
  256.06894 17.0 1
  257.07578 45.0 2
  257.09244 41.0 2
  257.94891 21.0 1
  258.09116 73.0 3
  260.07788 229.0 11
  260.10416 36.0 2
  260.1618 27.0 1
  261.06403 23.0 1
  261.08627 87.0 4
  262.09094 63.0 3
  263.09125 33.0 2
  269.45993 25.0 1
  270.08691 17.0 1
  271.3432 25.0 1
  272.0704 124.0 6
  272.08432 34.0 2
  273.03046 26.0 1
  274.02884 17.0 1
  274.09375 201.0 9
  275.01559 17.0 1
  275.03946 19.0 1
  275.05029 57.0 3
  275.06943 121.0 6
  275.08228 96.0 4
  275.09879 116.0 5
  276.03888 18.0 1
  276.05533 42.0 2
  276.06995 40.0 2
  276.09491 56.0 3
  276.11407 22.0 1
  276.1604 19.0 1
  276.26926 43.0 2
  277.10406 68.0 3
  277.11688 18.0 1
  278.11295 22.0 1
  280.2363 18.0 1
  280.61783 33.0 2
  286.06802 48.0 2
  286.09262 24.0 1
  287.09509 194.0 9
  287.10501 111.0 5
  288.07166 136.0 6
  288.08292 74.0 3
  288.10852 154.0 7
  288.353 26.0 1
  289.05905 49.0 2
  289.07242 73.0 3
  289.08344 34.0 2
  289.10187 18.0 1
  289.11319 20.0 1
  289.34369 18.0 1
  289.8494 21.0 1
  290.04587 86.0 4
  290.08234 2425.0 112
  290.15591 17.0 1
  290.20139 17.0 1
  290.78754 19.0 1
  291.07483 194.0 9
  291.0867 270.0 12
  291.09656 176.0 8
  292.08578 87.0 4
  292.75208 23.0 1
  293.44867 17.0 1
  294.01349 21.0 1
  294.05594 23.0 1
  294.94217 24.0 1
  298.55966 59.0 3
  299.38852 28.0 1
  300.96875 21.0 1
  302.06055 23.0 1
  302.09088 95.0 4
  302.10843 24.0 1
  303.06027 22.0 1
  303.08563 216.0 10
  303.10205 82.0 4
  303.9238 22.0 1
  304.04834 37.0 2
  304.09753 3538.0 163
  304.14621 24.0 1
  304.17322 22.0 1
  305.10178 959.0 44
  305.55185 17.0 1
  306.09219 54.0 2
  306.198 20.0 1
  312.26407 35.0 2
  314.0126 21.0 1
  314.07877 240.0 11
  314.12048 21.0 1
  314.16422 19.0 1
  314.99194 20.0 1
  315.04974 28.0 1
  315.08945 557.0 26
  315.11475 34.0 2
  316.06384 370.0 17
  316.10077 825.0 38
  317.03555 17.0 1
  317.06506 229.0 11
  317.10345 167.0 8
  317.12091 29.0 1
  317.15659 36.0 2
  317.4776 27.0 1
  318.00583 21.0 1
  318.02924 61.0 3
  318.07614 1709.0 79
  318.0975 144.0 7
  318.12936 22.0 1
  318.24939 41.0 2
  319.0433 26.0 1
  319.07339 113.0 5
  319.08435 357.0 16
  320.08121 73.0 3
  320.09637 17.0 1
  322.77811 17.0 1
  329.75128 18.0 1
  330.01968 66.0 3
  330.07776 951.0 44
  330.08823 388.0 18
  330.81592 19.0 1
  331.05606 24.0 1
  331.08667 332.0 15
  332.03012 25.0 1
  332.05167 56.0 3
  332.0928 5910.0 272
  332.13049 25.0 1
  332.14972 19.0 1
  332.16571 18.0 1
  332.24649 17.0 1
  332.94629 20.0 1
  333.04526 19.0 1
  333.07031 175.0 8
  333.09952 3694.0 170
  333.26328 54.0 2
  333.3934 70.0 3
  333.42249 17.0 1
  333.48792 20.0 1
  333.96371 36.0 2
  334.05841 51.0 2
  334.10291 756.0 35
  335.09711 69.0 3
  335.10922 50.0 2
  336.11441 17.0 1
  336.37305 17.0 1
  340.6832 18.0 1
  341.75156 26.0 1
  342.41608 21.0 1
  343.92447 17.0 1
  346.32697 17.0 1
  347.96646 20.0 1
  348.04575 57.0 3
  348.0592 81.0 4
  348.07687 167.0 8
  348.12344 21717.0 999
  348.17923 330.0 15
  348.207 25.0 1
  348.29099 17.0 1
//
