ACCESSION: MSBNK-RIKEN-PR302542
RECORD_TITLE: Flavanone; LC-ESI-QTOF; MS2
DATE: 2019.03.28
AUTHORS: Tetsuya Mori, Center for Sustainable Resource Science, RIKEN
LICENSE: CC BY-NC-SA
PUBLICATION: Tsugawa H., Nakabayashi R., Mori T., Yamada Y., Takahashi M., Rai A., Sugiyama R., Yamamoto H., Nakaya T., Yamazaki M., Kooke R., Bac-Molenaar JA., Oztolan-Erol N., Keurentjes JJB., Arita M., Saito K. (2019) "A cheminformatics approach to characterize metabolomes in stable-isotope-labeled organisms" Nature Methods 16(4):295-298. [doi:10.1038/s41592-019-0358-2]
COMMENT: registered in RIKEN PlaSMA
CH$NAME: Flavanone
CH$COMPOUND_CLASS: Flavanones
CH$FORMULA: C15H12O2
CH$EXACT_MASS: 224.259
CH$SMILES: O=C1CC(OC2=CC=CC=C12)C1=CC=CC=C1
CH$IUPAC: InChI=1S/C15H12O2/c16-13-10-15(11-6-2-1-3-7-11)17-14-9-5-4-8-12(13)14/h1-9,15H,10H2
CH$LINK: INCHIKEY ZONYXWQDUYMKFB-UHFFFAOYSA-N
AC$INSTRUMENT: LC, Waters Acquity UPLC System; MS, Waters Xevo G2 Q-Tof
AC$INSTRUMENT_TYPE: LC-ESI-QTOF
AC$MASS_SPECTROMETRY: MS_TYPE MS2
AC$MASS_SPECTROMETRY: ION_MODE POSITIVE
AC$MASS_SPECTROMETRY: COLLISION_ENERGY 6V
AC$MASS_SPECTROMETRY: DESOLVATION_GAS_FLOW 800/h
AC$MASS_SPECTROMETRY: DESOLVATION_TEMPERATURE 450 C
AC$MASS_SPECTROMETRY: IONIZATION ESI
AC$CHROMATOGRAPHY: CAPILLARY_VOLTAGE +3.00 kV
AC$CHROMATOGRAPHY: COLUMN_NAME Acquity bridged ethyl hybrid C18 (1.7 um, 2.1 mm * 100 mm, Waters)
AC$CHROMATOGRAPHY: COLUMN_TEMPERATURE 40 C
AC$CHROMATOGRAPHY: FLOW_GRADIENT A/B = (99.5%/0.5% at 0 min, 99.5%/0.5% at 0.1 min, 20%/80% at 10 min, 0.5%/99.5% at 10.1 min, 0.5%/99.5% at 12.0 min, 99.5%/0.5% at 12.1 min, 99.5%/0.5% at 15.0 min)
AC$CHROMATOGRAPHY: FLOW_RATE 0.3 ml/min at 0 min, 0.3 ml/min at 10 min, 0.4 ml/min at 10.1 min, 0.4 ml/min at 14.4 min, 0.3 ml/min at 14.5 min
AC$CHROMATOGRAPHY: RETENTION_TIME 8.504216
AC$CHROMATOGRAPHY: SOLVENT A water including 0.1% formic acid
AC$CHROMATOGRAPHY: SOLVENT B acetonitrile including 0.1% formic acid
MS$FOCUSED_ION: PRECURSOR_TYPE [M+H]+
MS$FOCUSED_ION: PRECURSOR_M/Z 225.0910061
PK$SPLASH: splash10-00di-1900000000-90b9c2d7726f8b682d6e
PK$NUM_PEAK: 52
PK$PEAK: m/z int. rel.int.
  58.73166 7.0 7
  65.01936 7.0 7
  65.03729 63.0 63
  77.03745 83.0 83
  78.03711 10.0 10
  79.0552 33.0 33
  91.05664 15.0 15
  92.05654 13.0 13
  93.03208 328.0 328
  93.03876 56.0 56
  94.03879 6.0 6
  102.04588 6.0 6
  103.05466 467.0 467
  104.05728 48.0 48
  107.04856 10.0 10
  111.0396 9.0 9
  120.93131 6.0 6
  121.00289 14.0 14
  121.00855 23.0 23
  121.02812 1000.0 999
  122.03263 115.0 115
  127.05163 6.0 6
  129.02873 8.0 8
  129.03757 15.0 15
  131.04936 177.0 177
  132.05466 26.0 26
  147.04181 29.0 29
  147.05055 27.0 27
  148.05037 9.0 9
  151.04088 5.0 5
  151.44107 6.0 6
  152.06808 9.0 9
  153.06421 6.0 6
  154.07678 21.0 21
  154.78899 5.0 5
  164.06097 18.0 18
  165.06776 32.0 32
  176.06017 14.0 14
  177.067 10.0 10
  178.05832 14.0 14
  178.07808 312.0 312
  179.08376 176.0 176
  180.08917 6.0 6
  181.06393 129.0 129
  182.07088 44.0 44
  183.07683 7.0 7
  184.07849 6.0 6
  205.07094 14.0 14
  207.08189 23.0 23
  210.06966 104.0 104
  211.02652 7.0 7
  211.08659 5.0 5
//
