ACCESSION: MSBNK-RIKEN-PR306447
RECORD_TITLE: Datiscetin-3-O-rutinoside; LC-ESI-QTOF; MS2
DATE: 2019.03.28
AUTHORS: Tetsuya Mori, Center for Sustainable Resource Science, RIKEN
LICENSE: CC BY-NC-SA
PUBLICATION: Tsugawa H., Nakabayashi R., Mori T., Yamada Y., Takahashi M., Rai A., Sugiyama R., Yamamoto H., Nakaya T., Yamazaki M., Kooke R., Bac-Molenaar JA., Oztolan-Erol N., Keurentjes JJB., Arita M., Saito K. (2019) "A cheminformatics approach to characterize metabolomes in stable-isotope-labeled organisms" Nature Methods 16(4):295-298. [doi:10.1038/s41592-019-0358-2]
COMMENT: registered in RIKEN PlaSMA
CH$NAME: Datiscetin-3-O-rutinoside
CH$COMPOUND_CLASS: Flavonoid-3-O-glycosides
CH$FORMULA: C27H30O15
CH$EXACT_MASS: 594.522
CH$SMILES: CC1OC(OCC2OC(OC3=C(OC4=CC(O)=CC(O)=C4C3=O)C3=CC=CC=C3O)C(O)C(O)C2O)C(O)C(O)C1O
CH$IUPAC: InChI=1S/C27H30O15/c1-9-17(31)20(34)22(36)26(39-9)38-8-15-18(32)21(35)23(37)27(41-15)42-25-19(33)16-13(30)6-10(28)7-14(16)40-24(25)11-4-2-3-5-12(11)29/h2-7,9,15,17-18,20-23,26-32,34-37H,8H2,1H3
CH$LINK: INCHIKEY BJJCTXDEJUWVIC-UHFFFAOYSA-N
AC$INSTRUMENT: LC, Waters Acquity UPLC System; MS, Waters Xevo G2 Q-Tof
AC$INSTRUMENT_TYPE: LC-ESI-QTOF
AC$MASS_SPECTROMETRY: MS_TYPE MS2
AC$MASS_SPECTROMETRY: ION_MODE NEGATIVE
AC$MASS_SPECTROMETRY: COLLISION_ENERGY 6V
AC$MASS_SPECTROMETRY: DESOLVATION_GAS_FLOW 800/h
AC$MASS_SPECTROMETRY: DESOLVATION_TEMPERATURE 450 C
AC$MASS_SPECTROMETRY: IONIZATION ESI
AC$CHROMATOGRAPHY: CAPILLARY_VOLTAGE -2.75 kV
AC$CHROMATOGRAPHY: COLUMN_NAME Acquity bridged ethyl hybrid C18 (1.7 um, 2.1 mm * 100 mm, Waters)
AC$CHROMATOGRAPHY: COLUMN_TEMPERATURE 40 C
AC$CHROMATOGRAPHY: FLOW_GRADIENT A/B = (99.5%/0.5% at 0 min, 99.5%/0.5% at 0.1 min, 20%/80% at 10 min, 0.5%/99.5% at 10.1 min, 0.5%/99.5% at 12.0 min, 99.5%/0.5% at 12.1 min, 99.5%/0.5% at 15.0 min)
AC$CHROMATOGRAPHY: FLOW_RATE 0.3 ml/min at 0 min, 0.3 ml/min at 10 min, 0.4 ml/min at 10.1 min, 0.4 ml/min at 14.4 min, 0.3 ml/min at 14.5 min
AC$CHROMATOGRAPHY: RETENTION_TIME 4.099083
AC$CHROMATOGRAPHY: SOLVENT A water including 0.1% formic acid
AC$CHROMATOGRAPHY: SOLVENT B acetonitrile including 0.1% formic acid
MS$FOCUSED_ION: PRECURSOR_TYPE [M-H]-
MS$FOCUSED_ION: PRECURSOR_M/Z 593.15119384783
PK$SPLASH: splash10-0pxr-0960000000-4dfd443364e448163ba9
PK$NUM_PEAK: 135
PK$PEAK: m/z int. rel.int.
  56.16376 10.0 10
  63.02352 20.0 20
  65.00185 41.0 41
  65.00774 11.0 11
  79.01152 13.0 13
  80.22335 14.0 14
  81.03468 19.0 19
  83.01159 136.0 136
  88.04455 18.0 18
  94.00292 10.0 10
  94.01323 21.0 21
  96.02387 10.0 10
  99.78641 16.0 16
  107.0121 352.0 352
  108.01637 54.0 54
  108.02441 27.0 27
  119.05276 27.0 27
  124.01485 87.0 87
  125.02271 523.0 522
  125.03526 24.0 24
  126.02415 13.0 13
  126.89102 10.0 10
  127.65408 15.0 15
  129.0321 13.0 13
  129.06462 11.0 11
  129.06952 10.0 10
  131.04671 20.0 20
  131.05115 7.0 7
  133.02893 286.0 286
  134.03217 52.0 52
  135.00481 43.0 43
  136.0153 175.0 175
  137.01398 10.0 10
  137.02353 19.0 19
  139.05466 15.0 15
  141.03511 11.0 11
  143.04794 273.0 273
  144.05208 9.0 9
  145.05821 20.0 20
  145.36386 11.0 11
  146.03741 10.0 10
  147.0441 28.0 28
  148.0051 14.0 14
  148.04576 13.0 13
  149.02658 9.0 9
  149.05684 10.0 10
  150.05858 11.0 11
  151.00197 1000.0 999
  151.05737 14.0 14
  152.00688 48.0 48
  153.00894 11.0 11
  155.0423 10.0 10
  157.01883 21.0 21
  157.03185 30.0 30
  157.06686 26.0 26
  158.03029 36.0 36
  159.04784 16.0 16
  160.01053 10.0 10
  161.05763 12.0 12
  161.06548 9.0 9
  163.00008 161.0 161
  163.01163 19.0 19
  164.00951 47.0 47
  165.01601 12.0 12
  169.06592 74.0 74
  170.03334 12.0 12
  170.06934 13.0 13
  170.85556 10.0 10
  171.0441 299.0 299
  172.04517 22.0 22
  173.05864 27.0 27
  175.04333 11.0 11
  177.01358 11.0 11
  183.03821 12.0 12
  184.09174 19.0 19
  185.05684 78.0 78
  186.05635 11.0 11
  186.06525 25.0 25
  187.03729 85.0 85
  189.05212 13.0 13
  191.05705 9.0 9
  191.99728 21.0 21
  195.04622 50.0 50
  196.047 13.0 13
  196.05554 11.0 11
  197.06042 31.0 31
  198.02959 23.0 23
  199.03859 35.0 35
  199.04695 27.0 27
  200.04123 23.0 23
  201.05153 20.0 20
  210.0369 12.0 12
  211.039 136.0 136
  211.05589 16.0 16
  212.04106 79.0 79
  213.05084 93.0 93
  213.06082 27.0 27
  214.05641 25.0 25
  215.03279 19.0 19
  217.04919 9.0 9
  217.05626 10.0 10
  223.03703 77.0 77
  224.0435 25.0 25
  225.01328 13.0 13
  227.03297 222.0 222
  227.20277 9.0 9
  228.03162 13.0 13
  228.0423 29.0 29
  229.04674 58.0 58
  230.04916 17.0 17
  238.01982 10.0 10
  239.03354 93.0 93
  240.0394 13.0 13
  240.04745 11.0 11
  241.04565 46.0 46
  255.02919 399.0 399
  255.04359 65.0 65
  256.03363 256.0 256
  257.03851 35.0 35
  257.05051 12.0 12
  266.01752 14.0 14
  267.02689 514.0 513
  268.02774 40.0 40
  268.03894 49.0 49
  269.02798 14.0 14
  284.02878 115.0 115
  284.04047 66.0 66
  285.03333 178.0 178
  285.04285 173.0 173
  285.06467 12.0 12
  286.04022 41.0 41
  287.02188 10.0 10
  287.05008 9.0 9
  314.82263 16.0 16
  519.32501 16.0 16
//
