ACCESSION: MSBNK-RIKEN-PR306620
RECORD_TITLE: Dihydrohesperetin-7-O-neohesperidoside; LC-ESI-QTOF; MS2
DATE: 2019.03.28
AUTHORS: Tetsuya Mori, Center for Sustainable Resource Science, RIKEN
LICENSE: CC BY-NC-SA
PUBLICATION: Tsugawa H., Nakabayashi R., Mori T., Yamada Y., Takahashi M., Rai A., Sugiyama R., Yamamoto H., Nakaya T., Yamazaki M., Kooke R., Bac-Molenaar JA., Oztolan-Erol N., Keurentjes JJB., Arita M., Saito K. (2019) "A cheminformatics approach to characterize metabolomes in stable-isotope-labeled organisms" Nature Methods 16(4):295-298. [doi:10.1038/s41592-019-0358-2]
COMMENT: registered in RIKEN PlaSMA
CH$NAME: Dihydrohesperetin-7-O-neohesperidoside
CH$COMPOUND_CLASS: Flavonoid O-glycosides
CH$FORMULA: C28H36O15
CH$EXACT_MASS: 612.581
CH$SMILES: COC1=C(O)C=C(CCC(=O)C2=C(O)C=C(OC3OC(CO)C(O)C(O)C3OC3OC(C)C(O)C(O)C3O)C=C2O)C=C1
CH$IUPAC: InChI=1S/C28H36O15/c1-11-21(34)23(36)25(38)27(40-11)43-26-24(37)22(35)19(10-29)42-28(26)41-13-8-16(32)20(17(33)9-13)14(30)5-3-12-4-6-18(39-2)15(31)7-12/h4,6-9,11,19,21-29,31-38H,3,5,10H2,1-2H3
CH$LINK: INCHIKEY ITVGXXMINPYUHD-UHFFFAOYSA-N
AC$INSTRUMENT: LC, Waters Acquity UPLC System; MS, Waters Xevo G2 Q-Tof
AC$INSTRUMENT_TYPE: LC-ESI-QTOF
AC$MASS_SPECTROMETRY: MS_TYPE MS2
AC$MASS_SPECTROMETRY: ION_MODE NEGATIVE
AC$MASS_SPECTROMETRY: COLLISION_ENERGY 6V
AC$MASS_SPECTROMETRY: DESOLVATION_GAS_FLOW 800/h
AC$MASS_SPECTROMETRY: DESOLVATION_TEMPERATURE 450 C
AC$MASS_SPECTROMETRY: IONIZATION ESI
AC$CHROMATOGRAPHY: CAPILLARY_VOLTAGE -2.75 kV
AC$CHROMATOGRAPHY: COLUMN_NAME Acquity bridged ethyl hybrid C18 (1.7 um, 2.1 mm * 100 mm, Waters)
AC$CHROMATOGRAPHY: COLUMN_TEMPERATURE 40 C
AC$CHROMATOGRAPHY: FLOW_GRADIENT A/B = (99.5%/0.5% at 0 min, 99.5%/0.5% at 0.1 min, 20%/80% at 10 min, 0.5%/99.5% at 10.1 min, 0.5%/99.5% at 12.0 min, 99.5%/0.5% at 12.1 min, 99.5%/0.5% at 15.0 min)
AC$CHROMATOGRAPHY: FLOW_RATE 0.3 ml/min at 0 min, 0.3 ml/min at 10 min, 0.4 ml/min at 10.1 min, 0.4 ml/min at 14.4 min, 0.3 ml/min at 14.5 min
AC$CHROMATOGRAPHY: RETENTION_TIME 5.07335
AC$CHROMATOGRAPHY: SOLVENT A water including 0.1% formic acid
AC$CHROMATOGRAPHY: SOLVENT B acetonitrile including 0.1% formic acid
MS$FOCUSED_ION: PRECURSOR_TYPE [M-H]-
MS$FOCUSED_ION: PRECURSOR_M/Z 611.19814404783
PK$SPLASH: splash10-03di-0115009000-a02900ded543e6e21d73
PK$NUM_PEAK: 32
PK$PEAK: m/z int. rel.int.
  101.02076 6.0 6
  125.02172 103.0 103
  152.00958 13.0 13
  166.02484 42.0 42
  167.03252 12.0 12
  179.03123 13.0 13
  199.0759 6.0 6
  217.08884 8.0 8
  219.05928 7.0 7
  219.07013 5.0 5
  241.08231 8.0 8
  244.0732 19.0 19
  259.09576 7.0 7
  285.07373 15.0 15
  286.08194 7.0 7
  288.06085 36.0 36
  303.08609 391.0 391
  304.08704 65.0 65
  305.08521 5.0 5
  305.0975 7.0 7
  327.08334 45.0 45
  327.09424 24.0 24
  345.09647 19.0 19
  345.11234 8.0 8
  387.11258 14.0 14
  405.12247 10.0 10
  433.13141 9.0 9
  491.13986 13.0 13
  491.15631 32.0 32
  492.16125 7.0 7
  593.19818 6.0 6
  611.19855 1000.0 999
//
