ACCESSION: MSBNK-RIKEN-PR300959
RECORD_TITLE: Pseudojervine; LC-ESI-QTOF; MS2
DATE: 2019.03.28
AUTHORS: Tetsuya Mori, Center for Sustainable Resource Science, RIKEN
LICENSE: CC BY-NC-SA
PUBLICATION: Tsugawa H., Nakabayashi R., Mori T., Yamada Y., Takahashi M., Rai A., Sugiyama R., Yamamoto H., Nakaya T., Yamazaki M., Kooke R., Bac-Molenaar JA., Oztolan-Erol N., Keurentjes JJB., Arita M., Saito K. (2019) "A cheminformatics approach to characterize metabolomes in stable-isotope-labeled organisms" Nature Methods 16(4):295-298. [doi:10.1038/s41592-019-0358-2]
COMMENT: registered in RIKEN PlaSMA
CH$NAME: Pseudojervine
CH$COMPOUND_CLASS: Steroidal saponins
CH$FORMULA: C33H49NO8
CH$EXACT_MASS: 587.754
CH$SMILES: CC1[C@@H]2NCC(C)C[C@H]2O[C@]11CCC2C3CC=C4C[C@H](CCC4(C)C3C(=O)C2=C1C)O[C@@H]1OC(CO)[C@@H](O)C(O)C1O
CH$IUPAC: InChI=1S/C33H49NO8/c1-15-11-22-26(34-13-15)17(3)33(42-22)10-8-20-21-6-5-18-12-19(40-31-30(39)29(38)27(36)23(14-35)41-31)7-9-32(18,4)25(21)28(37)24(20)16(33)2/h5,15,17,19-23,25-27,29-31,34-36,38-39H,6-14H2,1-4H3/t15?,17?,19-,20?,21?,22+,23?,25?,26-,27+,29?,30?,31+,32?,33-/m0/s1
CH$LINK: INCHIKEY HYDDDNUKNMMWBD-WJWSUNTISA-N
AC$INSTRUMENT: LC, Waters Acquity UPLC System; MS, Waters Xevo G2 Q-Tof
AC$INSTRUMENT_TYPE: LC-ESI-QTOF
AC$MASS_SPECTROMETRY: MS_TYPE MS2
AC$MASS_SPECTROMETRY: ION_MODE POSITIVE
AC$MASS_SPECTROMETRY: COLLISION_ENERGY 6V
AC$MASS_SPECTROMETRY: DESOLVATION_GAS_FLOW 800/h
AC$MASS_SPECTROMETRY: DESOLVATION_TEMPERATURE 450 C
AC$MASS_SPECTROMETRY: IONIZATION ESI
AC$CHROMATOGRAPHY: CAPILLARY_VOLTAGE +3.00 kV
AC$CHROMATOGRAPHY: COLUMN_NAME Acquity bridged ethyl hybrid C18 (1.7 um, 2.1 mm * 100 mm, Waters)
AC$CHROMATOGRAPHY: COLUMN_TEMPERATURE 40 C
AC$CHROMATOGRAPHY: FLOW_GRADIENT A/B = (99.5%/0.5% at 0 min, 99.5%/0.5% at 0.1 min, 20%/80% at 10 min, 0.5%/99.5% at 10.1 min, 0.5%/99.5% at 12.0 min, 99.5%/0.5% at 12.1 min, 99.5%/0.5% at 15.0 min)
AC$CHROMATOGRAPHY: FLOW_RATE 0.3 ml/min at 0 min, 0.3 ml/min at 10 min, 0.4 ml/min at 10.1 min, 0.4 ml/min at 14.4 min, 0.3 ml/min at 14.5 min
AC$CHROMATOGRAPHY: RETENTION_TIME 4.009517
AC$CHROMATOGRAPHY: SOLVENT A water including 0.1% formic acid
AC$CHROMATOGRAPHY: SOLVENT B acetonitrile including 0.1% formic acid
MS$FOCUSED_ION: PRECURSOR_TYPE [M+H]+
MS$FOCUSED_ION: PRECURSOR_M/Z 588.353094
PK$SPLASH: splash10-08fs-2920000000-c4de5e1a0c7d2d8e94c6
PK$NUM_PEAK: 579
PK$PEAK: m/z int. rel.int.
  51.71282 6.0 6
  54.03677 11.0 11
  55.01826 8.0 8
  55.04953 5.0 5
  56.05107 7.0 7
  57.03072 12.0 12
  57.07288 12.0 12
  61.02642 6.0 6
  66.61376 6.0 6
  67.04415 6.0 6
  67.05454 289.0 289
  68.05543 9.0 9
  68.061 25.0 25
  68.47923 6.0 6
  69.03465 43.0 43
  69.06673 5.0 5
  70.05656 6.0 6
  70.06314 39.0 39
  70.39729 5.0 5
  70.5193 5.0 5
  70.95823 5.0 5
  71.04945 11.0 11
  72.03951 6.0 6
  72.0457 15.0 15
  73.03033 26.0 26
  78.04656 7.0 7
  79.03876 6.0 6
  79.04365 8.0 8
  79.05683 54.0 54
  80.04891 7.0 7
  80.06482 12.0 12
  81.03644 68.0 68
  81.05591 8.0 8
  81.06438 22.0 22
  81.07196 208.0 208
  82.0382 5.0 5
  82.06894 31.0 31
  82.07859 12.0 12
  83.04806 53.0 53
  83.05412 25.0 25
  84.08247 276.0 276
  85.02577 54.0 54
  85.02988 81.0 81
  85.06519 198.0 198
  85.08386 34.0 34
  86.03092 6.0 6
  86.03621 5.0 5
  87.02827 6.0 6
  87.04482 24.0 24
  88.64488 6.0 6
  90.76901 6.0 6
  91.04141 11.0 11
  91.05527 101.0 101
  92.05504 9.0 9
  93.06874 161.0 161
  93.08205 5.0 5
  94.0599 7.0 7
  94.06992 41.0 41
  94.0777 17.0 17
  94.92113 6.0 6
  95.07922 17.0 17
  95.08681 117.0 117
  96.07126 7.0 7
  96.08034 91.0 91
  96.09364 13.0 13
  96.67542 7.0 7
  97.02929 54.0 54
  97.06416 5.0 5
  97.07259 7.0 7
  97.09244 6.0 6
  98.03062 18.0 18
  98.05846 5.0 5
  98.08934 23.0 23
  98.09933 16.0 16
  99.03113 13.0 13
  99.04399 27.0 27
  99.08272 24.0 24
  100.08091 8.0 8
  102.09109 78.0 78
  103.03786 7.0 7
  103.05154 9.0 9
  105.06819 102.0 102
  105.0729 154.0 154
  106.07372 13.0 13
  106.10851 6.0 6
  107.05413 26.0 26
  107.07676 32.0 32
  107.08674 148.0 148
  108.05763 6.0 6
  108.07245 6.0 6
  108.08202 12.0 12
  108.08864 34.0 34
  109.03139 31.0 31
  109.06405 6.0 6
  109.1017 748.0 747
  110.09631 8.0 8
  110.10538 47.0 47
  110.78667 6.0 6
  111.07878 13.0 13
  111.09901 9.0 9
  112.0661 8.0 8
  112.07686 67.0 67
  112.08513 19.0 19
  112.6308 5.0 5
  113.07687 12.0 12
  113.08363 6.0 6
  113.28383 5.0 5
  114.05383 5.0 5
  114.07407 31.0 31
  114.0921 1000.0 999
  115.04583 5.0 5
  115.0547 5.0 5
  115.0912 61.0 61
  115.09662 22.0 22
  117.07066 58.0 58
  118.0976 6.0 6
  118.13603 9.0 9
  119.04604 5.0 5
  119.076 12.0 12
  119.08712 119.0 119
  119.43269 7.0 7
  120.08755 14.0 14
  120.09552 10.0 10
  121.06198 8.0 8
  121.0688 14.0 14
  121.10152 368.0 368
  121.76522 6.0 6
  122.06561 11.0 11
  122.09895 32.0 32
  122.29411 5.0 5
  123.0812 13.0 13
  123.10348 14.0 14
  123.11935 12.0 12
  124.0882 12.0 12
  124.1043 8.0 8
  124.11431 50.0 50
  124.12012 11.0 11
  125.09534 8.0 8
  125.10244 6.0 6
  125.69386 7.0 7
  126.09308 6.0 6
  126.10682 5.0 5
  126.1167 21.0 21
  126.1243 58.0 58
  126.13602 26.0 26
  127.0349 21.0 21
  127.04252 20.0 20
  127.05594 5.0 5
  127.12228 5.0 5
  127.13052 12.0 12
  128.04224 21.0 21
  128.06151 6.0 6
  129.06538 38.0 38
  131.0533 28.0 28
  131.08649 183.0 183
  132.0863 6.0 6
  133.06667 11.0 11
  133.10187 157.0 157
  134.07352 6.0 6
  134.10439 16.0 16
  135.07602 7.0 7
  135.08447 22.0 22
  135.10136 8.0 8
  135.11792 33.0 33
  136.08548 6.0 6
  136.12128 7.0 7
  137.0493 5.0 5
  137.09274 6.0 6
  137.09979 25.0 25
  137.11401 7.0 7
  137.12358 6.0 6
  138.10307 6.0 6
  139.11293 8.0 8
  140.10617 33.0 33
  141.0723 5.0 5
  141.11314 13.0 13
  142.07779 14.0 14
  142.12338 7.0 7
  143.08669 55.0 55
  143.09552 15.0 15
  143.51186 5.0 5
  144.08913 14.0 14
  144.0965 5.0 5
  145.0618 20.0 20
  145.09834 292.0 292
  145.10748 47.0 47
  146.04834 5.0 5
  146.07065 10.0 10
  146.10432 54.0 54
  146.11545 31.0 31
  147.0692 6.0 6
  147.08197 56.0 56
  147.11507 82.0 82
  147.37379 8.0 8
  147.88193 9.0 9
  148.08823 7.0 7
  148.10838 7.0 7
  148.11633 20.0 20
  149.09683 484.0 484
  149.11821 9.0 9
  149.12585 7.0 7
  149.13353 7.0 7
  149.37593 7.0 7
  150.09763 34.0 34
  150.10361 35.0 35
  150.13138 5.0 5
  151.10124 6.0 6
  151.11581 6.0 6
  151.48628 8.0 8
  153.06448 6.0 6
  153.07225 7.0 7
  153.14705 13.0 13
  154.07909 6.0 6
  155.06873 5.0 5
  155.07623 11.0 11
  155.08163 24.0 24
  155.08989 20.0 20
  156.08817 6.0 6
  156.09451 5.0 5
  157.01019 6.0 6
  157.10368 208.0 208
  158.09662 12.0 12
  158.1107 15.0 15
  159.08313 45.0 45
  159.09491 6.0 6
  159.11777 167.0 167
  159.63416 5.0 5
  160.08875 16.0 16
  160.11783 24.0 24
  160.39577 5.0 5
  160.71124 5.0 5
  161.09007 8.0 8
  162.10284 5.0 5
  162.12517 20.0 20
  162.13605 5.0 5
  163.07253 20.0 20
  163.10995 5.0 5
  163.14943 7.0 7
  163.20567 8.0 8
  164.0863 10.0 10
  164.13243 12.0 12
  164.15289 14.0 14
  165.07793 6.0 6
  165.12592 7.0 7
  167.07996 6.0 6
  167.09068 19.0 19
  168.09207 5.0 5
  168.10387 6.0 6
  169.10165 80.0 80
  169.1071 27.0 27
  170.10971 6.0 6
  170.67255 5.0 5
  171.0631 6.0 6
  171.08258 36.0 36
  171.08762 13.0 13
  171.11656 95.0 95
  171.12932 7.0 7
  172.07985 17.0 17
  172.08882 19.0 19
  172.12117 24.0 24
  173.08981 51.0 51
  173.10004 55.0 55
  173.12511 15.0 15
  173.13556 60.0 60
  174.09538 15.0 15
  174.10864 6.0 6
  174.12802 8.0 8
  175.10027 18.0 18
  175.11307 107.0 107
  175.1498 12.0 12
  176.11977 5.0 5
  176.15309 12.0 12
  176.6949 8.0 8
  178.07014 14.0 14
  178.07941 12.0 12
  178.1562 6.0 6
  179.0808 27.0 27
  179.09203 22.0 22
  180.07545 6.0 6
  180.09932 6.0 6
  181.09331 13.0 13
  181.10199 15.0 15
  182.10535 37.0 37
  183.08411 12.0 12
  183.09671 22.0 22
  183.11671 37.0 37
  183.12701 6.0 6
  184.09206 9.0 9
  184.12326 5.0 5
  185.08844 21.0 21
  185.09769 64.0 64
  185.1178 7.0 7
  185.12787 25.0 25
  185.13544 31.0 31
  186.1049 6.0 6
  186.14116 5.0 5
  187.08881 5.0 5
  187.103 44.0 44
  187.11423 117.0 117
  187.15257 12.0 12
  188.01645 5.0 5
  188.10831 14.0 14
  188.11897 35.0 35
  189.09248 7.0 7
  189.11037 12.0 12
  189.12941 32.0 32
  190.11815 6.0 6
  190.13564 5.0 5
  192.08754 5.0 5
  192.10022 6.0 6
  193.10378 16.0 16
  194.09778 14.0 14
  194.11295 7.0 7
  194.15405 8.0 8
  194.95026 6.0 6
  195.11563 59.0 59
  195.16521 7.0 7
  195.55637 6.0 6
  196.12489 8.0 8
  196.15186 6.0 6
  197.08038 7.0 7
  197.09692 10.0 10
  197.12489 12.0 12
  197.13553 38.0 38
  198.09134 7.0 7
  198.10924 25.0 25
  198.12866 6.0 6
  198.13966 24.0 24
  199.08206 7.0 7
  199.09775 7.0 7
  199.10757 25.0 25
  199.1342 6.0 6
  199.14813 51.0 51
  200.10982 6.0 6
  200.11812 8.0 8
  201.12566 42.0 42
  201.13374 23.0 23
  202.13446 20.0 20
  203.08446 5.0 5
  203.13765 22.0 22
  204.09575 5.0 5
  204.14468 5.0 5
  205.08339 5.0 5
  205.09486 13.0 13
  205.10593 18.0 18
  205.12384 8.0 8
  206.11096 5.0 5
  206.58214 5.0 5
  207.11317 15.0 15
  207.12277 28.0 28
  207.47479 7.0 7
  208.12703 34.0 34
  209.07101 7.0 7
  209.0916 6.0 6
  209.12788 24.0 24
  209.13692 44.0 44
  210.1398 22.0 22
  211.11185 35.0 35
  211.1312 15.0 15
  211.14912 37.0 37
  212.11018 12.0 12
  212.12149 17.0 17
  213.11429 11.0 11
  213.12717 98.0 98
  213.16161 19.0 19
  213.1722 19.0 19
  214.13106 27.0 27
  215.13225 7.0 7
  215.14948 7.0 7
  215.17725 11.0 11
  216.90952 5.0 5
  217.11455 5.0 5
  219.11334 20.0 20
  219.12427 6.0 6
  219.56111 6.0 6
  220.11154 6.0 6
  220.11983 5.0 5
  220.13184 20.0 20
  221.12598 20.0 20
  221.138 16.0 16
  222.12465 7.0 7
  222.13321 18.0 18
  223.11334 14.0 14
  223.14662 42.0 42
  223.15906 8.0 8
  223.97394 5.0 5
  224.14174 6.0 6
  224.16431 28.0 28
  225.12836 11.0 11
  225.16449 38.0 38
  226.14183 7.0 7
  226.15573 8.0 8
  226.20341 7.0 7
  227.13934 40.0 40
  228.13242 5.0 5
  228.16647 14.0 14
  229.12009 7.0 7
  229.1629 5.0 5
  230.15204 7.0 7
  231.12711 22.0 22
  231.14787 8.0 8
  232.1127 5.0 5
  232.12106 6.0 6
  232.13148 5.0 5
  232.14619 14.0 14
  233.13116 36.0 36
  234.13293 15.0 15
  234.14136 22.0 22
  234.1516 6.0 6
  234.8727 5.0 5
  235.11774 8.0 8
  235.14236 10.0 10
  235.15285 33.0 33
  237.13303 11.0 11
  237.14738 15.0 15
  237.16724 29.0 29
  237.91187 9.0 9
  238.15419 9.0 9
  239.13783 5.0 5
  240.14598 11.0 11
  241.13437 11.0 11
  241.17386 7.0 7
  243.11049 8.0 8
  243.12021 5.0 5
  244.12338 8.0 8
  244.16054 7.0 7
  244.17342 9.0 9
  245.12566 19.0 19
  245.15685 6.0 6
  246.10425 10.0 10
  247.14938 31.0 31
  248.14694 5.0 5
  248.16075 12.0 12
  249.13187 8.0 8
  249.14929 8.0 8
  249.161 5.0 5
  249.17404 12.0 12
  250.13914 14.0 14
  250.16817 22.0 22
  251.14529 39.0 39
  251.16747 10.0 10
  251.18083 21.0 21
  252.15334 17.0 17
  253.15549 16.0 16
  253.16954 6.0 6
  253.19933 8.0 8
  254.16049 27.0 27
  255.18007 26.0 26
  257.18494 7.0 7
  259.14673 14.0 14
  259.1702 7.0 7
  260.15701 8.0 8
  261.12418 12.0 12
  261.16248 19.0 19
  262.16666 13.0 13
  262.18536 7.0 7
  263.18106 8.0 8
  264.78244 6.0 6
  265.16153 15.0 15
  265.19391 19.0 19
  266.18536 6.0 6
  267.11548 6.0 6
  267.16931 20.0 20
  267.18423 6.0 6
  267.19711 8.0 8
  267.21225 13.0 13
  268.17294 6.0 6
  269.16061 9.0 9
  269.22638 6.0 6
  270.19839 8.0 8
  272.1554 5.0 5
  272.17422 8.0 8
  273.16199 6.0 6
  273.71399 8.0 8
  274.17053 14.0 14
  274.18774 7.0 7
  275.13425 9.0 9
  275.18039 30.0 30
  275.19513 5.0 5
  276.17688 8.0 8
  276.1864 7.0 7
  276.19894 6.0 6
  276.30359 9.0 9
  277.13318 6.0 6
  277.19589 127.0 127
  278.16336 19.0 19
  278.18335 25.0 25
  278.20261 8.0 8
  278.22653 8.0 8
  280.16608 6.0 6
  280.1767 6.0 6
  282.19739 6.0 6
  283.11707 6.0 6
  283.1575 8.0 8
  285.14209 8.0 8
  285.16089 37.0 37
  285.17206 12.0 12
  288.14774 5.0 5
  289.18588 18.0 18
  289.20837 5.0 5
  290.14948 6.0 6
  290.17657 8.0 8
  291.18719 11.0 11
  291.20578 6.0 6
  292.16595 7.0 7
  292.19351 8.0 8
  293.18707 14.0 14
  293.19717 15.0 15
  294.18402 7.0 7
  294.19888 16.0 16
  295.18585 5.0 5
  295.20068 23.0 23
  295.21283 67.0 67
  295.2254 21.0 21
  296.20181 6.0 6
  296.21439 25.0 25
  298.17087 15.0 15
  299.16733 10.0 10
  300.19028 6.0 6
  301.20148 6.0 6
  303.16925 5.0 5
  303.20239 7.0 7
  304.21606 13.0 13
  315.16336 6.0 6
  315.20859 12.0 12
  317.19452 13.0 13
  317.23547 12.0 12
  318.19135 5.0 5
  319.1861 25.0 25
  325.20435 6.0 6
  329.22699 6.0 6
  331.2099 6.0 6
  331.25919 6.0 6
  332.19348 5.0 5
  334.26056 13.0 13
  336.2598 5.0 5
  336.92435 5.0 5
  341.22733 19.0 19
  342.20798 6.0 6
  342.21851 5.0 5
  344.1972 5.0 5
  345.24893 15.0 15
  349.17676 6.0 6
  355.24454 6.0 6
  362.2785 5.0 5
  363.27658 6.0 6
  365.20941 6.0 6
  373.26587 6.0 6
  374.24707 6.0 6
  375.26895 5.0 5
  381.27716 5.0 5
  390.22836 10.0 10
  390.28091 5.0 5
  391.24551 7.0 7
  408.27002 6.0 6
  408.29861 5.0 5
  443.23996 8.0 8
  446.79147 8.0 8
  467.82068 9.0 9
  470.26904 5.0 5
  486.24463 13.0 13
  499.26709 6.0 6
  512.31219 8.0 8
  514.27844 6.0 6
  525.57928 6.0 6
  526.2926 8.0 8
  527.29718 10.0 10
  530.32678 7.0 7
  540.27869 7.0 7
  541.31592 6.0 6
  558.29047 7.0 7
  568.32391 13.0 13
  570.34216 58.0 58
  570.37939 10.0 10
  571.36743 18.0 18
  572.37061 6.0 6
  573.31036 5.0 5
  588.33936 28.0 28
  588.37811 17.0 17
//
