ACCESSION: MSBNK-RIKEN-PR307888
RECORD_TITLE: Etoposide; LC-ESI-QTOF; MS2
DATE: 2019.03.28
AUTHORS: Tetsuya Mori, Center for Sustainable Resource Science, RIKEN
LICENSE: CC BY-NC-SA
PUBLICATION: Tsugawa H., Nakabayashi R., Mori T., Yamada Y., Takahashi M., Rai A., Sugiyama R., Yamamoto H., Nakaya T., Yamazaki M., Kooke R., Bac-Molenaar JA., Oztolan-Erol N., Keurentjes JJB., Arita M., Saito K. (2019) "A cheminformatics approach to characterize metabolomes in stable-isotope-labeled organisms" Nature Methods 16(4):295-298. [doi:10.1038/s41592-019-0358-2]
COMMENT: registered in RIKEN PlaSMA
CH$NAME: Etoposide
CH$COMPOUND_CLASS: Podophyllotoxins
CH$FORMULA: C29H32O13
CH$EXACT_MASS: 588.562
CH$SMILES: COC1=CC(=CC(OC)=C1O)C1C2C(COC2=O)C(OC2OC3COC(C)OC3C(O)C2O)C2=CC3=C(OCO3)C=C12
CH$IUPAC: InChI=1S/C29H32O13/c1-11-36-9-20-27(40-11)24(31)25(32)29(41-20)42-26-14-7-17-16(38-10-39-17)6-13(14)21(22-15(26)8-37-28(22)33)12-4-18(34-2)23(30)19(5-12)35-3/h4-7,11,15,20-22,24-27,29-32H,8-10H2,1-3H3
CH$LINK: INCHIKEY VJJPUSNTGOMMGY-UHFFFAOYSA-N
AC$INSTRUMENT: LC, Waters Acquity UPLC System; MS, Waters Xevo G2 Q-Tof
AC$INSTRUMENT_TYPE: LC-ESI-QTOF
AC$MASS_SPECTROMETRY: MS_TYPE MS2
AC$MASS_SPECTROMETRY: ION_MODE NEGATIVE
AC$MASS_SPECTROMETRY: COLLISION_ENERGY 6V
AC$MASS_SPECTROMETRY: DESOLVATION_GAS_FLOW 800/h
AC$MASS_SPECTROMETRY: DESOLVATION_TEMPERATURE 450 C
AC$MASS_SPECTROMETRY: IONIZATION ESI
AC$CHROMATOGRAPHY: CAPILLARY_VOLTAGE -2.75 kV
AC$CHROMATOGRAPHY: COLUMN_NAME Acquity bridged ethyl hybrid C18 (1.7 um, 2.1 mm * 100 mm, Waters)
AC$CHROMATOGRAPHY: COLUMN_TEMPERATURE 40 C
AC$CHROMATOGRAPHY: FLOW_GRADIENT A/B = (99.5%/0.5% at 0 min, 99.5%/0.5% at 0.1 min, 20%/80% at 10 min, 0.5%/99.5% at 10.1 min, 0.5%/99.5% at 12.0 min, 99.5%/0.5% at 12.1 min, 99.5%/0.5% at 15.0 min)
AC$CHROMATOGRAPHY: FLOW_RATE 0.3 ml/min at 0 min, 0.3 ml/min at 10 min, 0.4 ml/min at 10.1 min, 0.4 ml/min at 14.4 min, 0.3 ml/min at 14.5 min
AC$CHROMATOGRAPHY: RETENTION_TIME 5.420317
AC$CHROMATOGRAPHY: SOLVENT A water including 0.1% formic acid
AC$CHROMATOGRAPHY: SOLVENT B acetonitrile including 0.1% formic acid
MS$FOCUSED_ION: PRECURSOR_TYPE [M+HCOO]-
MS$FOCUSED_ION: PRECURSOR_M/Z 633.18249395183
PK$SPLASH: splash10-01qi-0409000000-b8136f10695bb08485d6
PK$NUM_PEAK: 150
PK$PEAK: m/z int. rel.int.
  59.01087 12.0 12
  72.77838 12.0 12
  73.02773 14.0 14
  95.0157 18.0 18
  96.02184 16.0 16
  99.01184 39.0 39
  99.04257 12.0 12
  100.01427 12.0 12
  101.01953 14.0 14
  113.0238 1000.0 999
  113.05205 13.0 13
  114.0234 39.0 39
  114.02852 56.0 56
  117.41011 14.0 14
  119.04918 11.0 11
  119.21936 11.0 11
  125.02484 28.0 28
  127.03788 255.0 255
  127.04249 88.0 88
  128.0414 12.0 12
  128.0511 12.0 12
  131.03082 14.0 14
  138.02748 14.0 14
  139.0365 11.0 11
  141.05078 16.0 16
  142.02356 9.0 9
  142.03053 24.0 24
  143.02988 29.0 29
  145.04926 231.0 231
  146.05415 50.0 50
  153.0553 196.0 196
  155.06729 11.0 11
  156.32718 14.0 14
  157.04765 23.0 23
  157.0632 44.0 44
  161.04781 14.0 14
  162.04416 14.0 14
  168.28795 10.0 10
  185.06183 23.0 23
  186.06601 14.0 14
  187.0609 143.0 143
  188.06476 12.0 12
  190.17459 10.0 10
  204.05998 114.0 114
  204.06825 91.0 91
  205.06418 14.0 14
  215.0629 12.0 12
  225.06171 10.0 10
  227.04111 11.0 11
  230.53889 12.0 12
  238.05054 10.0 10
  241.05046 13.0 13
  243.05818 35.0 35
  243.07072 14.0 14
  244.06685 12.0 12
  267.06189 28.0 28
  267.07053 24.0 24
  274.5289 12.0 12
  279.0632 12.0 12
  296.10767 14.0 14
  298.04773 12.0 12
  305.06891 12.0 12
  305.08859 60.0 60
  306.09857 14.0 14
  307.06339 53.0 53
  307.07928 27.0 27
  307.09149 57.0 57
  307.10605 25.0 25
  308.06454 13.0 13
  308.1012 21.0 21
  311.13165 36.0 36
  312.13928 13.0 13
  313.05936 31.0 31
  315.22375 12.0 12
  321.07721 33.0 33
  322.06577 50.0 50
  322.08542 531.0 530
  323.08206 112.0 112
  324.09747 13.0 13
  335.08981 11.0 11
  337.10873 905.0 904
  338.07309 12.0 12
  338.10638 142.0 142
  338.12241 22.0 22
  338.36835 10.0 10
  339.10965 46.0 46
  339.11896 141.0 141
  339.13217 252.0 252
  339.34406 10.0 10
  340.11035 12.0 12
  340.12558 15.0 15
  340.14069 32.0 32
  341.11966 21.0 21
  341.13516 12.0 12
  349.11884 14.0 14
  351.08615 13.0 13
  351.12177 10.0 10
  353.09964 12.0 12
  355.03345 14.0 14
  355.12704 10.0 10
  356.13147 10.0 10
  361.10007 14.0 14
  366.07501 199.0 199
  367.08633 41.0 41
  367.11578 10.0 10
  368.07812 22.0 22
  368.11987 12.0 12
  369.12726 17.0 17
  377.11115 12.0 12
  377.31259 14.0 14
  379.134 10.0 10
  380.1019 10.0 10
  381.09726 894.0 893
  382.09866 153.0 153
  383.09396 11.0 11
  383.11328 28.0 28
  384.10287 15.0 15
  389.8551 13.0 13
  395.1264 11.0 11
  396.12878 12.0 12
  397.13547 136.0 136
  398.12061 11.0 11
  398.14526 15.0 15
  399.11044 13.0 13
  404.11868 11.0 11
  421.11792 12.0 12
  421.13507 57.0 57
  422.1351 31.0 31
  422.15329 12.0 12
  439.09335 17.0 17
  439.13879 12.0 12
  441.11423 10.0 10
  451.1185 12.0 12
  456.13559 12.0 12
  463.12772 10.0 10
  465.11478 20.0 20
  482.16553 12.0 12
  484.11752 11.0 11
  507.16348 18.0 18
  507.18259 13.0 13
  508.12958 10.0 10
  556.19904 14.0 14
  567.06024 14.0 14
  569.14935 12.0 12
  569.16479 16.0 16
  585.13733 11.0 11
  587.18085 15.0 15
  587.19824 14.0 14
  588.17261 23.0 23
  633.18433 361.0 361
//
