ACCESSION: MSBNK-RIKEN-PR306566
RECORD_TITLE: Hesperetin; LC-ESI-QTOF; MS2
DATE: 2019.03.28
AUTHORS: Tetsuya Mori, Center for Sustainable Resource Science, RIKEN
LICENSE: CC BY-NC-SA
PUBLICATION: Tsugawa H., Nakabayashi R., Mori T., Yamada Y., Takahashi M., Rai A., Sugiyama R., Yamamoto H., Nakaya T., Yamazaki M., Kooke R., Bac-Molenaar JA., Oztolan-Erol N., Keurentjes JJB., Arita M., Saito K. (2019) "A cheminformatics approach to characterize metabolomes in stable-isotope-labeled organisms" Nature Methods 16(4):295-298. [doi:10.1038/s41592-019-0358-2]
COMMENT: registered in RIKEN PlaSMA
CH$NAME: Hesperetin
CH$COMPOUND_CLASS: 4'-O-methylated flavonoids
CH$FORMULA: C16H14O6
CH$EXACT_MASS: 302.282
CH$SMILES: COC1=C(O)C=C(C=C1)C1CC(=O)C2=C(O)C=C(O)C=C2O1
CH$IUPAC: InChI=1S/C16H14O6/c1-21-13-3-2-8(4-10(13)18)14-7-12(20)16-11(19)5-9(17)6-15(16)22-14/h2-6,14,17-19H,7H2,1H3
CH$LINK: INCHIKEY AIONOLUJZLIMTK-UHFFFAOYSA-N
AC$INSTRUMENT: LC, Waters Acquity UPLC System; MS, Waters Xevo G2 Q-Tof
AC$INSTRUMENT_TYPE: LC-ESI-QTOF
AC$MASS_SPECTROMETRY: MS_TYPE MS2
AC$MASS_SPECTROMETRY: ION_MODE NEGATIVE
AC$MASS_SPECTROMETRY: COLLISION_ENERGY 6V
AC$MASS_SPECTROMETRY: DESOLVATION_GAS_FLOW 800/h
AC$MASS_SPECTROMETRY: DESOLVATION_TEMPERATURE 450 C
AC$MASS_SPECTROMETRY: IONIZATION ESI
AC$CHROMATOGRAPHY: CAPILLARY_VOLTAGE -2.75 kV
AC$CHROMATOGRAPHY: COLUMN_NAME Acquity bridged ethyl hybrid C18 (1.7 um, 2.1 mm * 100 mm, Waters)
AC$CHROMATOGRAPHY: COLUMN_TEMPERATURE 40 C
AC$CHROMATOGRAPHY: FLOW_GRADIENT A/B = (99.5%/0.5% at 0 min, 99.5%/0.5% at 0.1 min, 20%/80% at 10 min, 0.5%/99.5% at 10.1 min, 0.5%/99.5% at 12.0 min, 99.5%/0.5% at 12.1 min, 99.5%/0.5% at 15.0 min)
AC$CHROMATOGRAPHY: FLOW_RATE 0.3 ml/min at 0 min, 0.3 ml/min at 10 min, 0.4 ml/min at 10.1 min, 0.4 ml/min at 14.4 min, 0.3 ml/min at 14.5 min
AC$CHROMATOGRAPHY: RETENTION_TIME 6.167617
AC$CHROMATOGRAPHY: SOLVENT A water including 0.1% formic acid
AC$CHROMATOGRAPHY: SOLVENT B acetonitrile including 0.1% formic acid
MS$FOCUSED_ION: PRECURSOR_TYPE [M-H]-
MS$FOCUSED_ION: PRECURSOR_M/Z 301.07176174783
PK$SPLASH: splash10-06ri-0910000000-fc9e0023b2fcd7743ba6
PK$NUM_PEAK: 178
PK$PEAK: m/z int. rel.int.
  65.00183 34.0 34
  65.64533 6.0 6
  74.64766 6.0 6
  80.02272 29.0 29
  80.02785 62.0 62
  81.02919 15.0 15
  81.33309 6.0 6
  82.03023 7.0 7
  83.01199 78.0 78
  84.01218 6.0 6
  84.07275 5.0 5
  84.99638 12.0 12
  85.86755 8.0 8
  95.98637 9.0 9
  96.01877 37.0 37
  96.0304 8.0 8
  102.13087 9.0 9
  106.03975 6.0 6
  107.01282 309.0 309
  108.02012 767.0 766
  108.99856 7.0 7
  109.02102 26.0 26
  109.02674 10.0 10
  110.02377 15.0 15
  115.30294 8.0 8
  118.03938 6.0 6
  119.01134 18.0 18
  119.30554 6.0 6
  120.01919 8.0 8
  121.79967 8.0 8
  121.99378 8.0 8
  122.00116 6.0 6
  123.00945 7.0 7
  124.01196 57.0 57
  124.01865 13.0 13
  125.02222 95.0 95
  127.03451 8.0 8
  129.03369 16.0 16
  129.34605 6.0 6
  130.04004 8.0 8
  132.02258 6.0 6
  133.02455 17.0 17
  133.03136 17.0 17
  134.03589 475.0 475
  134.12706 8.0 8
  135.00903 6.0 6
  135.04208 133.0 133
  135.04686 52.0 52
  136.01427 1000.0 999
  136.03954 6.0 6
  137.01866 58.0 58
  137.02957 8.0 8
  143.04724 32.0 32
  143.0584 6.0 6
  144.05432 7.0 7
  145.02994 10.0 10
  146.0405 6.0 6
  148.01567 6.0 6
  148.04997 20.0 20
  149.06017 53.0 53
  150.03151 7.0 7
  151.00191 557.0 556
  152.00618 55.0 55
  152.01448 15.0 15
  153.06546 10.0 10
  154.01028 9.0 9
  154.02071 6.0 6
  154.04085 11.0 11
  155.05197 6.0 6
  155.21068 9.0 9
  156.05115 6.0 6
  157.02777 9.0 9
  158.03369 164.0 164
  159.03584 7.0 7
  160.01448 23.0 23
  160.05257 5.0 5
  161.02167 22.0 22
  162.03343 8.0 8
  163.01004 8.0 8
  164.00923 780.0 779
  164.02667 9.0 9
  165.00984 24.0 24
  165.01651 67.0 67
  166.01265 6.0 6
  170.02937 7.0 7
  171.04352 32.0 32
  171.05412 14.0 14
  172.05022 57.0 57
  173.01808 30.0 30
  173.05627 8.0 8
  173.06433 6.0 6
  174.02856 81.0 81
  174.99423 5.0 5
  175.02625 8.0 8
  175.03822 56.0 56
  175.04585 17.0 17
  176.0471 64.0 64
  177.01529 73.0 73
  177.86394 7.0 7
  182.03975 7.0 7
  183.05038 9.0 9
  184.05495 12.0 12
  185.05597 21.0 21
  186.03012 9.0 9
  186.06877 12.0 12
  186.30795 5.0 5
  187.03058 6.0 6
  187.04124 11.0 11
  187.07288 13.0 13
  188.03349 8.0 8
  188.04558 15.0 15
  188.05617 8.0 8
  191.06206 6.0 6
  197.05464 7.0 7
  197.06398 8.0 8
  198.03036 28.0 28
  199.03314 59.0 59
  199.04138 86.0 86
  200.00505 12.0 12
  200.03773 22.0 22
  200.04895 50.0 50
  201.01544 85.0 85
  201.02402 69.0 69
  201.04344 14.0 14
  202.0202 19.0 19
  202.03642 6.0 6
  202.54276 5.0 5
  203.02904 17.0 17
  203.31538 6.0 6
  204.35339 6.0 6
  211.03653 6.0 6
  213.05418 76.0 76
  214.06071 73.0 73
  214.07355 14.0 14
  215.03413 44.0 44
  215.045 12.0 12
  215.06473 7.0 7
  216.03821 22.0 22
  217.03743 12.0 12
  217.0463 8.0 8
  217.0582 8.0 8
  218.05869 6.0 6
  219.06395 6.0 6
  222.0257 15.0 15
  223.04085 6.0 6
  225.05856 9.0 9
  227.02705 7.0 7
  227.03397 16.0 16
  230.0213 5.0 5
  230.05449 6.0 6
  232.82883 6.0 6
  233.08299 11.0 11
  237.02637 5.0 5
  239.02379 8.0 8
  239.03542 6.0 6
  240.03635 5.0 5
  240.04552 15.0 15
  241.05064 97.0 97
  242.0517 40.0 40
  242.06151 35.0 35
  243.0269 22.0 22
  243.05499 7.0 7
  244.02654 6.0 6
  244.03731 6.0 6
  244.89151 7.0 7
  251.0253 5.0 5
  251.03741 7.0 7
  251.96254 6.0 6
  257.04135 21.0 21
  258.05194 6.0 6
  268.03748 23.0 23
  269.03476 11.0 11
  269.04965 9.0 9
  283.05386 8.0 8
  285.0376 119.0 119
  286.02603 11.0 11
  286.04407 50.0 50
  301.07675 6.0 6
//
