ACCESSION: MSBNK-RIKEN-PR302115
RECORD_TITLE: 2',6'-Dihydroxy-4-methoxychalcone-4'-O-neohesperid; LC-ESI-QTOF; MS2
DATE: 2019.03.28
AUTHORS: Tetsuya Mori, Center for Sustainable Resource Science, RIKEN
LICENSE: CC BY-NC-SA
PUBLICATION: Tsugawa H., Nakabayashi R., Mori T., Yamada Y., Takahashi M., Rai A., Sugiyama R., Yamamoto H., Nakaya T., Yamazaki M., Kooke R., Bac-Molenaar JA., Oztolan-Erol N., Keurentjes JJB., Arita M., Saito K. (2019) "A cheminformatics approach to characterize metabolomes in stable-isotope-labeled organisms" Nature Methods 16(4):295-298. [doi:10.1038/s41592-019-0358-2]
COMMENT: registered in RIKEN PlaSMA
CH$NAME: 2',6'-Dihydroxy-4-methoxychalcone-4'-O-neohesperid
CH$COMPOUND_CLASS: Flavonoid O-glycosides
CH$FORMULA: C28H34O14
CH$EXACT_MASS: 594.566
CH$SMILES: COC1=CC=C(\C=C\C(=O)C2=C(O)C=C(O[C@@H]3OC(CO)[C@@H](O)[C@@H](O)C3O[C@@H]3OC(C)[C@H](O)[C@H](O)C3O)C=C2O)C=C1
CH$IUPAC: InChI=1S/C28H34O14/c1-12-21(33)23(35)25(37)27(39-12)42-26-24(36)22(34)19(11-29)41-28(26)40-15-9-17(31)20(18(32)10-15)16(30)8-5-13-3-6-14(38-2)7-4-13/h3-10,12,19,21-29,31-37H,11H2,1-2H3/b8-5+/t12?,19?,21-,22+,23-,24+,25?,26?,27-,28+/m0/s1
CH$LINK: INCHIKEY HWRDCYOHJBCWGW-SMJLESKMSA-N
AC$INSTRUMENT: LC, Waters Acquity UPLC System; MS, Waters Xevo G2 Q-Tof
AC$INSTRUMENT_TYPE: LC-ESI-QTOF
AC$MASS_SPECTROMETRY: MS_TYPE MS2
AC$MASS_SPECTROMETRY: ION_MODE POSITIVE
AC$MASS_SPECTROMETRY: COLLISION_ENERGY 6V
AC$MASS_SPECTROMETRY: DESOLVATION_GAS_FLOW 800/h
AC$MASS_SPECTROMETRY: DESOLVATION_TEMPERATURE 450 C
AC$MASS_SPECTROMETRY: IONIZATION ESI
AC$CHROMATOGRAPHY: CAPILLARY_VOLTAGE +3.00 kV
AC$CHROMATOGRAPHY: COLUMN_NAME Acquity bridged ethyl hybrid C18 (1.7 um, 2.1 mm * 100 mm, Waters)
AC$CHROMATOGRAPHY: COLUMN_TEMPERATURE 40 C
AC$CHROMATOGRAPHY: FLOW_GRADIENT A/B = (99.5%/0.5% at 0 min, 99.5%/0.5% at 0.1 min, 20%/80% at 10 min, 0.5%/99.5% at 10.1 min, 0.5%/99.5% at 12.0 min, 99.5%/0.5% at 12.1 min, 99.5%/0.5% at 15.0 min)
AC$CHROMATOGRAPHY: FLOW_RATE 0.3 ml/min at 0 min, 0.3 ml/min at 10 min, 0.4 ml/min at 10.1 min, 0.4 ml/min at 14.4 min, 0.3 ml/min at 14.5 min
AC$CHROMATOGRAPHY: RETENTION_TIME 5.415333
AC$CHROMATOGRAPHY: SOLVENT A water including 0.1% formic acid
AC$CHROMATOGRAPHY: SOLVENT B acetonitrile including 0.1% formic acid
MS$FOCUSED_ION: PRECURSOR_TYPE [M+H]+
MS$FOCUSED_ION: PRECURSOR_M/Z 595.2021322
PK$SPLASH: splash10-0udi-1910000000-1f6ce78544e941813a78
PK$NUM_PEAK: 46
PK$PEAK: m/z int. rel.int.
  71.04886 33.0 33
  71.05416 69.0 69
  85.03252 335.0 335
  86.02745 42.0 42
  86.03507 40.0 40
  95.04292 51.0 51
  103.03652 55.0 55
  105.06079 118.0 118
  133.06795 49.0 49
  135.04439 104.0 104
  137.06538 60.0 60
  139.14209 40.0 40
  153.01801 1000.0 999
  154.02544 47.0 47
  156.09879 33.0 33
  157.03021 53.0 53
  161.04759 56.0 56
  161.06114 275.0 275
  162.06279 42.0 42
  165.00978 77.0 77
  165.01619 78.0 78
  165.02538 126.0 126
  175.07906 42.0 42
  176.01146 60.0 60
  177.01697 58.0 58
  177.02242 129.0 129
  177.13713 36.0 36
  179.02533 80.0 80
  189.01974 55.0 55
  191.03481 75.0 75
  195.0338 293.0 293
  196.03725 46.0 46
  198.09077 31.0 31
  203.02933 33.0 33
  217.05353 47.0 47
  219.02003 56.0 56
  219.0269 102.0 102
  243.03229 35.0 35
  245.04393 84.0 84
  263.04611 47.0 47
  287.06369 62.0 62
  287.09338 80.0 80
  288.09686 87.0 87
  297.0759 38.0 38
  311.0643 38.0 38
  337.11194 36.0 36
//
