ACCESSION: MSBNK-RIKEN-PR308080
RECORD_TITLE: Luteolinidin; LC-ESI-QTOF; MS2
DATE: 2019.03.28
AUTHORS: Tetsuya Mori, Center for Sustainable Resource Science, RIKEN
LICENSE: CC BY-NC-SA
PUBLICATION: Tsugawa H., Nakabayashi R., Mori T., Yamada Y., Takahashi M., Rai A., Sugiyama R., Yamamoto H., Nakaya T., Yamazaki M., Kooke R., Bac-Molenaar JA., Oztolan-Erol N., Keurentjes JJB., Arita M., Saito K. (2019) "A cheminformatics approach to characterize metabolomes in stable-isotope-labeled organisms" Nature Methods 16(4):295-298. [doi:10.1038/s41592-019-0358-2]
COMMENT: registered in RIKEN PlaSMA
CH$NAME: Luteolinidin
CH$COMPOUND_CLASS: 7-hydroxyflavonoids
CH$FORMULA: C15H10O5
CH$EXACT_MASS: 270.24
CH$SMILES: OC1=CC(O)=C2C=CC(=[O+]C2=C1)C1=CC([O-])=C(O)C=C1
CH$IUPAC: InChI=1S/C15H10O5/c16-9-6-12(18)10-2-4-14(20-15(10)7-9)8-1-3-11(17)13(19)5-8/h1-7H,(H3-,16,17,18,19)
CH$LINK: INCHIKEY GDNIGMNXEKGFIP-UHFFFAOYSA-N
AC$INSTRUMENT: LC, Waters Acquity UPLC System; MS, Waters Xevo G2 Q-Tof
AC$INSTRUMENT_TYPE: LC-ESI-QTOF
AC$MASS_SPECTROMETRY: MS_TYPE MS2
AC$MASS_SPECTROMETRY: ION_MODE NEGATIVE
AC$MASS_SPECTROMETRY: COLLISION_ENERGY 6V
AC$MASS_SPECTROMETRY: DESOLVATION_GAS_FLOW 800/h
AC$MASS_SPECTROMETRY: DESOLVATION_TEMPERATURE 450 C
AC$MASS_SPECTROMETRY: IONIZATION ESI
AC$CHROMATOGRAPHY: CAPILLARY_VOLTAGE -2.75 kV
AC$CHROMATOGRAPHY: COLUMN_NAME Acquity bridged ethyl hybrid C18 (1.7 um, 2.1 mm * 100 mm, Waters)
AC$CHROMATOGRAPHY: COLUMN_TEMPERATURE 40 C
AC$CHROMATOGRAPHY: FLOW_GRADIENT A/B = (99.5%/0.5% at 0 min, 99.5%/0.5% at 0.1 min, 20%/80% at 10 min, 0.5%/99.5% at 10.1 min, 0.5%/99.5% at 12.0 min, 99.5%/0.5% at 12.1 min, 99.5%/0.5% at 15.0 min)
AC$CHROMATOGRAPHY: FLOW_RATE 0.3 ml/min at 0 min, 0.3 ml/min at 10 min, 0.4 ml/min at 10.1 min, 0.4 ml/min at 14.4 min, 0.3 ml/min at 14.5 min
AC$CHROMATOGRAPHY: RETENTION_TIME 3.586583
AC$CHROMATOGRAPHY: SOLVENT A water including 0.1% formic acid
AC$CHROMATOGRAPHY: SOLVENT B acetonitrile including 0.1% formic acid
MS$FOCUSED_ION: PRECURSOR_TYPE [M-H]-
MS$FOCUSED_ION: PRECURSOR_M/Z 269.04554694783
PK$SPLASH: splash10-014i-0290000000-7b72b987ae54116e7519
PK$NUM_PEAK: 32
PK$PEAK: m/z int. rel.int.
  105.03056 11.0 11
  109.02962 13.0 13
  130.03325 13.0 13
  133.03053 33.0 33
  134.02583 14.0 14
  146.0321 13.0 13
  155.04863 11.0 11
  157.02399 12.0 12
  159.04919 12.0 12
  167.05057 11.0 11
  169.03407 15.0 15
  169.06355 13.0 13
  171.06676 12.0 12
  179.05394 16.0 16
  182.03874 34.0 34
  184.04857 12.0 12
  185.05592 11.0 11
  186.05232 12.0 12
  195.03929 16.0 16
  196.04689 12.0 12
  197.05321 12.0 12
  201.04507 11.0 11
  201.06606 12.0 12
  208.05072 11.0 11
  213.05643 12.0 12
  224.05624 12.0 12
  225.05382 11.0 11
  227.03264 11.0 11
  228.03595 12.0 12
  241.04921 11.0 11
  259.05612 11.0 11
  269.04446 1000.0 999
//
