ACCESSION: MSBNK-RIKEN-PR305965
RECORD_TITLE: Cyanidin-3-O-glucoside; LC-ESI-QTOF; MS2
DATE: 2019.03.28
AUTHORS: Tetsuya Mori, Center for Sustainable Resource Science, RIKEN
LICENSE: CC BY-NC-SA
PUBLICATION: Tsugawa H., Nakabayashi R., Mori T., Yamada Y., Takahashi M., Rai A., Sugiyama R., Yamamoto H., Nakaya T., Yamazaki M., Kooke R., Bac-Molenaar JA., Oztolan-Erol N., Keurentjes JJB., Arita M., Saito K. (2019) "A cheminformatics approach to characterize metabolomes in stable-isotope-labeled organisms" Nature Methods 16(4):295-298. [doi:10.1038/s41592-019-0358-2]
COMMENT: registered in RIKEN PlaSMA
CH$NAME: Cyanidin-3-O-glucoside
CH$COMPOUND_CLASS: Anthocyanidin-3-O-glycosides
CH$FORMULA: [C21H21O11]+
CH$EXACT_MASS: 449.388
CH$SMILES: OCC1OC(OC2=C([O+]=C3C=C(O)C=C(O)C3=C2)C2=CC(O)=C(O)C=C2)C(O)C(O)C1O
CH$IUPAC: InChI=1S/C21H20O11/c22-7-16-17(27)18(28)19(29)21(32-16)31-15-6-10-12(25)4-9(23)5-14(10)30-20(15)8-1-2-11(24)13(26)3-8/h1-6,16-19,21-22,27-29H,7H2,(H3-,23,24,25,26)/p+1
CH$LINK: INCHIKEY RKWHWFONKJEUEF-UHFFFAOYSA-O
AC$INSTRUMENT: LC, Waters Acquity UPLC System; MS, Waters Xevo G2 Q-Tof
AC$INSTRUMENT_TYPE: LC-ESI-QTOF
AC$MASS_SPECTROMETRY: MS_TYPE MS2
AC$MASS_SPECTROMETRY: ION_MODE NEGATIVE
AC$MASS_SPECTROMETRY: COLLISION_ENERGY 6V
AC$MASS_SPECTROMETRY: DESOLVATION_GAS_FLOW 800/h
AC$MASS_SPECTROMETRY: DESOLVATION_TEMPERATURE 450 C
AC$MASS_SPECTROMETRY: IONIZATION ESI
AC$CHROMATOGRAPHY: CAPILLARY_VOLTAGE -2.75 kV
AC$CHROMATOGRAPHY: COLUMN_NAME Acquity bridged ethyl hybrid C18 (1.7 um, 2.1 mm * 100 mm, Waters)
AC$CHROMATOGRAPHY: COLUMN_TEMPERATURE 40 C
AC$CHROMATOGRAPHY: FLOW_GRADIENT A/B = (99.5%/0.5% at 0 min, 99.5%/0.5% at 0.1 min, 20%/80% at 10 min, 0.5%/99.5% at 10.1 min, 0.5%/99.5% at 12.0 min, 99.5%/0.5% at 12.1 min, 99.5%/0.5% at 15.0 min)
AC$CHROMATOGRAPHY: FLOW_RATE 0.3 ml/min at 0 min, 0.3 ml/min at 10 min, 0.4 ml/min at 10.1 min, 0.4 ml/min at 14.4 min, 0.3 ml/min at 14.5 min
AC$CHROMATOGRAPHY: RETENTION_TIME 2.925433
AC$CHROMATOGRAPHY: SOLVENT A water including 0.1% formic acid
AC$CHROMATOGRAPHY: SOLVENT B acetonitrile including 0.1% formic acid
MS$FOCUSED_ION: PRECURSOR_TYPE [M-2H]-
MS$FOCUSED_ION: PRECURSOR_M/Z 447.09273641576
PK$SPLASH: splash10-001i-0290000000-a15e443941cda875c313
PK$NUM_PEAK: 45
PK$PEAK: m/z int. rel.int.
  108.01543 51.0 51
  109.02886 68.0 68
  125.01457 25.0 25
  125.02324 68.0 68
  141.06958 27.0 27
  147.00165 55.0 55
  147.00925 214.0 214
  147.04642 31.0 31
  148.01971 22.0 22
  149.02208 22.0 22
  174.9959 26.0 26
  175.03378 26.0 26
  185.06259 35.0 35
  194.03294 21.0 21
  199.04128 72.0 72
  200.04787 21.0 21
  202.01703 23.0 23
  213.05867 22.0 22
  214.01872 52.0 52
  217.05074 22.0 22
  223.05455 20.0 20
  224.05338 33.0 33
  239.02139 21.0 21
  239.03343 62.0 62
  240.03557 33.0 33
  240.05112 20.0 20
  241.05244 44.0 44
  242.02412 79.0 79
  249.0625 28.0 28
  255.02266 123.0 123
  255.03607 77.0 77
  256.03293 122.0 122
  257.03387 21.0 21
  257.04694 114.0 114
  258.04932 40.0 40
  258.06717 27.0 27
  271.04691 18.0 18
  281.97913 22.0 22
  283.01413 65.0 65
  283.02924 31.0 31
  284.0304 1000.0 999
  285.03949 234.0 234
  286.03592 78.0 78
  293.03452 21.0 21
  370.33304 18.0 18
//
