ACCESSION: MSBNK-RIKEN-PR306350
RECORD_TITLE: (+)-Epicatechin; LC-ESI-QTOF; MS2
DATE: 2019.03.28
AUTHORS: Tetsuya Mori, Center for Sustainable Resource Science, RIKEN
LICENSE: CC BY-NC-SA
PUBLICATION: Tsugawa H., Nakabayashi R., Mori T., Yamada Y., Takahashi M., Rai A., Sugiyama R., Yamamoto H., Nakaya T., Yamazaki M., Kooke R., Bac-Molenaar JA., Oztolan-Erol N., Keurentjes JJB., Arita M., Saito K. (2019) "A cheminformatics approach to characterize metabolomes in stable-isotope-labeled organisms" Nature Methods 16(4):295-298. [doi:10.1038/s41592-019-0358-2]
COMMENT: registered in RIKEN PlaSMA
CH$NAME: (+)-Epicatechin
CH$COMPOUND_CLASS: Catechins
CH$FORMULA: C15H14O6
CH$EXACT_MASS: 290.271
CH$SMILES: C1[C@@H]([C@@H](OC2=CC(=CC(=C21)O)O)C3=CC(=C(C=C3)O)O)O
CH$IUPAC: InChI=1S/C15H14O6/c16-8-4-11(18)9-6-13(20)15(21-14(9)5-8)7-1-2-10(17)12(19)3-7/h1-5,13,15-20H,6H2/t13-,15-/m0/s1
CH$LINK: INCHIKEY PFTAWBLQPZVEMU-ZFWWWQNUSA-N
AC$INSTRUMENT: LC, Waters Acquity UPLC System; MS, Waters Xevo G2 Q-Tof
AC$INSTRUMENT_TYPE: LC-ESI-QTOF
AC$MASS_SPECTROMETRY: MS_TYPE MS2
AC$MASS_SPECTROMETRY: ION_MODE NEGATIVE
AC$MASS_SPECTROMETRY: COLLISION_ENERGY 6V
AC$MASS_SPECTROMETRY: DESOLVATION_GAS_FLOW 800/h
AC$MASS_SPECTROMETRY: DESOLVATION_TEMPERATURE 450 C
AC$MASS_SPECTROMETRY: IONIZATION ESI
AC$CHROMATOGRAPHY: CAPILLARY_VOLTAGE -2.75 kV
AC$CHROMATOGRAPHY: COLUMN_NAME Acquity bridged ethyl hybrid C18 (1.7 um, 2.1 mm * 100 mm, Waters)
AC$CHROMATOGRAPHY: COLUMN_TEMPERATURE 40 C
AC$CHROMATOGRAPHY: FLOW_GRADIENT A/B = (99.5%/0.5% at 0 min, 99.5%/0.5% at 0.1 min, 20%/80% at 10 min, 0.5%/99.5% at 10.1 min, 0.5%/99.5% at 12.0 min, 99.5%/0.5% at 12.1 min, 99.5%/0.5% at 15.0 min)
AC$CHROMATOGRAPHY: FLOW_RATE 0.3 ml/min at 0 min, 0.3 ml/min at 10 min, 0.4 ml/min at 10.1 min, 0.4 ml/min at 14.4 min, 0.3 ml/min at 14.5 min
AC$CHROMATOGRAPHY: RETENTION_TIME 3.43465
AC$CHROMATOGRAPHY: SOLVENT A water including 0.1% formic acid
AC$CHROMATOGRAPHY: SOLVENT B acetonitrile including 0.1% formic acid
MS$FOCUSED_ION: PRECURSOR_TYPE [M-H]-
MS$FOCUSED_ION: PRECURSOR_M/Z 289.07176174783
PK$SPLASH: splash10-05fr-0900000000-46cf7541d81a6101a6c6
PK$NUM_PEAK: 110
PK$PEAK: m/z int. rel.int.
  57.02999 16.0 16
  65.03288 20.0 20
  69.0318 19.0 19
  81.02905 17.0 17
  81.03403 23.0 23
  83.00651 16.0 16
  83.01105 30.0 30
  83.01582 16.0 16
  93.03407 84.0 84
  95.01488 30.0 30
  95.04905 46.0 46
  97.02612 85.0 85
  97.03111 48.0 48
  105.03156 29.0 29
  109.02765 600.0 599
  110.03134 63.0 63
  111.03449 16.0 16
  115.05079 29.0 29
  115.06902 16.0 16
  117.03785 46.0 46
  119.05628 15.0 15
  120.01814 17.0 17
  120.02377 26.0 26
  121.02776 200.0 200
  121.06458 22.0 22
  122.03243 148.0 148
  123.04252 1000.0 999
  124.03191 17.0 17
  124.04763 82.0 82
  125.0231 166.0 166
  126.03053 29.0 29
  127.02761 23.0 23
  130.03995 15.0 15
  131.04909 30.0 30
  131.05713 44.0 44
  133.0274 56.0 56
  135.0407 172.0 172
  137.02113 187.0 187
  138.02505 100.0 100
  138.03485 69.0 69
  139.03911 16.0 16
  143.04924 17.0 17
  145.02634 60.0 60
  145.06148 16.0 16
  146.02655 27.0 27
  146.03226 42.0 42
  146.04091 19.0 19
  147.03749 15.0 15
  148.04433 20.0 20
  149.0228 101.0 101
  149.03145 12.0 12
  149.0592 31.0 31
  150.02065 17.0 17
  150.03252 96.0 96
  151.03464 92.0 92
  151.04053 209.0 209
  157.02563 24.0 24
  157.06181 65.0 65
  158.0378 22.0 22
  159.04491 196.0 196
  159.0558 22.0 22
  160.0498 112.0 112
  161.01929 18.0 18
  161.03435 21.0 21
  161.0585 146.0 146
  161.48988 16.0 16
  162.01051 19.0 19
  162.02881 55.0 55
  162.06084 55.0 55
  163.03148 23.0 23
  163.04213 55.0 55
  164.00558 29.0 29
  164.01419 106.0 106
  164.03896 16.0 16
  165.02016 23.0 23
  169.06145 21.0 21
  173.02409 40.0 40
  173.0598 125.0 125
  175.03772 48.0 48
  175.06952 104.0 104
  175.08452 21.0 21
  176.04439 47.0 47
  176.07765 45.0 45
  177.05714 43.0 43
  178.05875 36.0 36
  179.06863 27.0 27
  183.04045 16.0 16
  184.05453 16.0 16
  185.06155 92.0 92
  186.06285 15.0 15
  187.03561 55.0 55
  187.04425 20.0 20
  188.04329 82.0 82
  188.05252 94.0 94
  197.01982 15.0 15
  199.07845 16.0 16
  201.05872 50.0 50
  202.04903 16.0 16
  203.0607 25.0 25
  203.06938 15.0 15
  205.04774 32.0 32
  210.06332 15.0 15
  211.03894 16.0 16
  213.0578 19.0 19
  221.07582 19.0 19
  222.08914 21.0 21
  225.05623 22.0 22
  228.04071 25.0 25
  229.0141 25.0 25
  230.05119 21.0 21
//
