ACCESSION: MSBNK-RIKEN-PR301184
RECORD_TITLE: Isohernandezine; LC-ESI-QTOF; MS2
DATE: 2019.03.28
AUTHORS: Tetsuya Mori, Center for Sustainable Resource Science, RIKEN
LICENSE: CC BY-NC-SA
PUBLICATION: Tsugawa H., Nakabayashi R., Mori T., Yamada Y., Takahashi M., Rai A., Sugiyama R., Yamamoto H., Nakaya T., Yamazaki M., Kooke R., Bac-Molenaar JA., Oztolan-Erol N., Keurentjes JJB., Arita M., Saito K. (2019) "A cheminformatics approach to characterize metabolomes in stable-isotope-labeled organisms" Nature Methods 16(4):295-298. [doi:10.1038/s41592-019-0358-2]
COMMENT: registered in RIKEN PlaSMA
CH$NAME: Isohernandezine
CH$COMPOUND_CLASS: Tannins
CH$FORMULA: C39H44N2O7
CH$EXACT_MASS: 652.788
CH$SMILES: COC1=C2OC3=CC=C(C[C@H]4N(C)CCC5=CC(OC)=C(OC6=C(OC)C(OC)=C(OC)C7=C6[C@H](CC(C=C1)=C2)N(C)CC7)C=C45)C=C3
CH$IUPAC: InChI=1S/C39H44N2O7/c1-40-16-14-25-21-32(43-4)34-22-28(25)29(40)18-23-8-11-26(12-9-23)47-33-20-24(10-13-31(33)42-3)19-30-35-27(15-17-41(30)2)36(44-5)38(45-6)39(46-7)37(35)48-34/h8-13,20-22,29-30H,14-19H2,1-7H3/t29-,30+/m1/s1
CH$LINK: INCHIKEY FUZMQNZACIFDBL-IHLOFXLRSA-N
AC$INSTRUMENT: LC, Waters Acquity UPLC System; MS, Waters Xevo G2 Q-Tof
AC$INSTRUMENT_TYPE: LC-ESI-QTOF
AC$MASS_SPECTROMETRY: MS_TYPE MS2
AC$MASS_SPECTROMETRY: ION_MODE POSITIVE
AC$MASS_SPECTROMETRY: COLLISION_ENERGY 6V
AC$MASS_SPECTROMETRY: DESOLVATION_GAS_FLOW 800/h
AC$MASS_SPECTROMETRY: DESOLVATION_TEMPERATURE 450 C
AC$MASS_SPECTROMETRY: IONIZATION ESI
AC$CHROMATOGRAPHY: CAPILLARY_VOLTAGE +3.00 kV
AC$CHROMATOGRAPHY: COLUMN_NAME Acquity bridged ethyl hybrid C18 (1.7 um, 2.1 mm * 100 mm, Waters)
AC$CHROMATOGRAPHY: COLUMN_TEMPERATURE 40 C
AC$CHROMATOGRAPHY: FLOW_GRADIENT A/B = (99.5%/0.5% at 0 min, 99.5%/0.5% at 0.1 min, 20%/80% at 10 min, 0.5%/99.5% at 10.1 min, 0.5%/99.5% at 12.0 min, 99.5%/0.5% at 12.1 min, 99.5%/0.5% at 15.0 min)
AC$CHROMATOGRAPHY: FLOW_RATE 0.3 ml/min at 0 min, 0.3 ml/min at 10 min, 0.4 ml/min at 10.1 min, 0.4 ml/min at 14.4 min, 0.3 ml/min at 14.5 min
AC$CHROMATOGRAPHY: RETENTION_TIME 4.412416
AC$CHROMATOGRAPHY: SOLVENT A water including 0.1% formic acid
AC$CHROMATOGRAPHY: SOLVENT B acetonitrile including 0.1% formic acid
MS$FOCUSED_ION: PRECURSOR_TYPE [M+H]+
MS$FOCUSED_ION: PRECURSOR_M/Z 653.3221282
PK$SPLASH: splash10-03kc-0934310000-9cf05aef479639d944d4
PK$NUM_PEAK: 301
PK$PEAK: m/z int. rel.int.
  83.07491 14.0 14
  97.63161 15.0 15
  121.06755 39.0 39
  131.0472 21.0 21
  131.06967 18.0 18
  131.08401 19.0 19
  132.05705 25.0 25
  132.08194 15.0 15
  135.06798 16.0 16
  135.08168 15.0 15
  137.05295 25.0 25
  143.04245 15.0 15
  145.06174 22.0 22
  145.07571 22.0 22
  145.09012 65.0 65
  146.08823 13.0 13
  146.09581 56.0 56
  146.10303 32.0 32
  148.05246 34.0 34
  149.05139 13.0 13
  150.07745 16.0 16
  151.07614 18.0 18
  158.1008 23.0 23
  160.07396 53.0 53
  161.05307 27.0 27
  161.06331 17.0 17
  161.08362 18.0 18
  162.06686 13.0 13
  162.09201 340.0 340
  162.49634 14.0 14
  163.0714 31.0 31
  163.08992 33.0 33
  163.10327 14.0 14
  165.51553 15.0 15
  166.06104 13.0 13
  172.07089 26.0 26
  173.05515 16.0 16
  173.07909 19.0 19
  174.04718 16.0 16
  174.09274 1000.0 999
  175.04446 13.0 13
  175.07806 15.0 15
  175.09431 101.0 101
  176.07169 43.0 43
  176.08284 16.0 16
  176.09909 36.0 36
  176.10658 77.0 77
  176.12091 13.0 13
  177.04741 16.0 16
  177.0564 16.0 16
  177.0732 29.0 29
  178.08493 31.0 31
  179.08951 19.0 19
  180.06891 14.0 14
  181.07739 15.0 15
  181.0927 15.0 15
  189.08833 19.0 19
  189.11591 20.0 20
  190.06635 42.0 42
  190.08757 328.0 328
  190.0979 63.0 63
  190.11852 15.0 15
  191.07352 17.0 17
  191.09724 419.0 419
  192.10291 445.0 445
  193.093 18.0 18
  193.10945 15.0 15
  194.06604 15.0 15
  201.11215 14.0 14
  202.08 35.0 35
  203.08519 22.0 22
  204.07776 22.0 22
  204.10384 129.0 129
  205.04939 15.0 15
  205.08687 21.0 21
  205.09785 15.0 15
  205.11267 17.0 17
  206.09689 15.0 15
  206.11729 13.0 13
  207.088 35.0 35
  208.10205 13.0 13
  209.09343 38.0 38
  209.1001 22.0 22
  211.07069 15.0 15
  214.09583 17.0 17
  215.10001 22.0 22
  216.10046 13.0 13
  219.07367 18.0 18
  219.08974 17.0 17
  220.08842 14.0 14
  220.10101 46.0 46
  222.09726 13.0 13
  223.08049 18.0 18
  223.09337 14.0 14
  224.08392 15.0 15
  226.09651 20.0 20
  227.10461 23.0 23
  232.08926 19.0 19
  234.10916 43.0 43
  235.12103 19.0 19
  236.12112 22.0 22
  236.14217 26.0 26
  238.09723 61.0 61
  239.06363 16.0 16
  239.51506 25.0 25
  248.1261 19.0 19
  249.10165 19.0 19
  252.08369 13.0 13
  253.0905 19.0 19
  254.12141 13.0 13
  255.09454 13.0 13
  265.08063 28.0 28
  265.09882 14.0 14
  267.12054 22.0 22
  269.13943 25.0 25
  270.00522 19.0 19
  270.1543 15.0 15
  273.33884 16.0 16
  278.1373 21.0 21
  279.09576 27.0 27
  280.10135 43.0 43
  280.11539 30.0 30
  281.11984 13.0 13
  281.14734 17.0 17
  282.1571 13.0 13
  283.06873 13.0 13
  290.07629 15.0 15
  293.08908 14.0 14
  293.11099 22.0 22
  293.13031 15.0 15
  294.08029 21.0 21
  294.10815 13.0 13
  295.14404 15.0 15
  295.29578 18.0 18
  297.10626 17.0 17
  300.10059 20.0 20
  306.11392 20.0 20
  307.12646 19.0 19
  309.10352 15.0 15
  309.11456 15.0 15
  309.13416 15.0 15
  312.11472 17.0 17
  320.09995 15.0 15
  321.07916 20.0 20
  323.10574 22.0 22
  324.11786 18.0 18
  324.13992 23.0 23
  325.12057 18.0 18
  327.15302 22.0 22
  327.26862 14.0 14
  331.12534 21.0 21
  332.16592 14.0 14
  334.11069 18.0 18
  334.14432 15.0 15
  335.12109 13.0 13
  335.85928 13.0 13
  336.93311 21.0 21
  337.12827 35.0 35
  338.10699 14.0 14
  338.13574 16.0 16
  339.11682 19.0 19
  345.14093 20.0 20
  347.14633 21.0 21
  347.1611 18.0 18
  348.12701 17.0 17
  350.08429 13.0 13
  350.13416 19.0 19
  350.14877 33.0 33
  351.15311 18.0 18
  352.14755 18.0 18
  353.14664 15.0 15
  354.13373 19.0 19
  354.15076 16.0 16
  354.16443 31.0 31
  355.13748 15.0 15
  355.16409 18.0 18
  356.14819 22.0 22
  357.10114 20.0 20
  358.10938 15.0 15
  363.14001 31.0 31
  365.15262 63.0 63
  365.16348 22.0 22
  367.10553 18.0 18
  367.16034 26.0 26
  367.21902 19.0 19
  368.12723 34.0 34
  368.14902 43.0 43
  369.11551 19.0 19
  369.16956 32.0 32
  370.17404 15.0 15
  371.13132 13.0 13
  374.15268 15.0 15
  378.18369 14.0 14
  378.94116 15.0 15
  379.16537 74.0 74
  380.13589 25.0 25
  380.14749 15.0 15
  380.17755 15.0 15
  381.13498 29.0 29
  381.14951 36.0 36
  382.12 26.0 26
  382.14658 14.0 14
  382.17468 15.0 15
  383.19397 19.0 19
  385.13403 29.0 29
  385.16122 19.0 19
  386.17609 14.0 14
  393.16516 19.0 19
  393.18021 14.0 14
  394.16489 14.0 14
  394.19293 82.0 82
  395.16675 70.0 70
  395.20322 14.0 14
  396.14886 13.0 13
  396.16537 37.0 37
  397.1575 15.0 15
  397.18542 14.0 14
  398.18381 16.0 16
  400.19638 29.0 29
  402.18982 14.0 14
  403.16992 19.0 19
  407.07257 13.0 13
  411.14822 18.0 18
  411.19083 990.0 989
  412.15393 13.0 13
  412.19601 194.0 194
  413.17493 26.0 26
  413.20157 13.0 13
  414.17569 19.0 19
  416.18088 17.0 17
  418.18903 19.0 19
  426.211 15.0 15
  427.22562 19.0 19
  430.13809 15.0 15
  430.18921 38.0 38
  432.19498 18.0 18
  437.15854 19.0 19
  443.20508 16.0 16
  444.17355 22.0 22
  455.1579 14.0 14
  459.19501 13.0 13
  460.17245 14.0 14
  460.20456 19.0 19
  465.20859 16.0 16
  474.22791 14.0 14
  484.18167 16.0 16
  486.18442 14.0 14
  488.20648 13.0 13
  492.22574 16.0 16
  493.18488 33.0 33
  502.13904 15.0 15
  503.19183 15.0 15
  508.1423 19.0 19
  517.16083 25.0 25
  519.17297 15.0 15
  521.19135 15.0 15
  528.19415 19.0 19
  530.13568 19.0 19
  531.16925 14.0 14
  531.23871 13.0 13
  533.20239 13.0 13
  536.2287 19.0 19
  543.21863 13.0 13
  544.22809 19.0 19
  545.19012 13.0 13
  545.20923 19.0 19
  547.25702 14.0 14
  548.21252 14.0 14
  552.2359 22.0 22
  561.20734 31.0 31
  561.24359 21.0 21
  562.22766 27.0 27
  574.24304 16.0 16
  576.22095 16.0 16
  576.24561 39.0 39
  578.21039 41.0 41
  578.24628 18.0 18
  579.2359 16.0 16
  580.25336 15.0 15
  589.23798 14.0 14
  590.23517 13.0 13
  590.26019 32.0 32
  590.28925 27.0 27
  591.22772 19.0 19
  592.17542 15.0 15
  592.24261 32.0 32
  593.22174 35.0 35
  593.25403 19.0 19
  594.19806 18.0 18
  594.23541 36.0 36
  596.26666 21.0 21
  606.26263 40.0 40
  607.23596 62.0 62
  607.26886 34.0 34
  608.27692 26.0 26
  610.27618 18.0 18
  621.26007 13.0 13
  621.30438 21.0 21
  623.25183 14.0 14
  638.30463 22.0 22
  638.33911 13.0 13
//
