ACCESSION: MSBNK-RIKEN-PR310858
RECORD_TITLE: Formononetin; LC-ESI-QTOF; MS2
DATE: 2019.03.28
AUTHORS: Tetsuya Mori, Center for Sustainable Resource Science, RIKEN
LICENSE: CC BY-NC-SA
PUBLICATION: Tsugawa H., Nakabayashi R., Mori T., Yamada Y., Takahashi M., Rai A., Sugiyama R., Yamamoto H., Nakaya T., Yamazaki M., Kooke R., Bac-Molenaar JA., Oztolan-Erol N., Keurentjes JJB., Arita M., Saito K. (2019) "A cheminformatics approach to characterize metabolomes in stable-isotope-labeled organisms" Nature Methods 16(4):295-298. [doi:10.1038/s41592-019-0358-2]
COMMENT: Annotation level-1
CH$NAME: Formononetin
CH$COMPOUND_CLASS: Isoflavone O-glycosides
CH$FORMULA: C16H12O4
CH$EXACT_MASS: 268.268
CH$SMILES: O=C1C=3C=CC(O)=CC=3(OC=C1C2=CC=C(OC)C=C2)
CH$IUPAC: InChI=1S/C16H12O4/c1-19-12-5-2-10(3-6-12)14-9-20-15-8-11(17)4-7-13(15)16(14)18/h2-9,17H,1H3
CH$LINK: INCHIKEY HKQYGTCOTHHOMP-UHFFFAOYSA-N
AC$INSTRUMENT: LC, Waters Acquity UPLC System; MS, Waters Xevo G2 Q-Tof
AC$INSTRUMENT_TYPE: LC-ESI-QTOF
AC$MASS_SPECTROMETRY: MS_TYPE MS2
AC$MASS_SPECTROMETRY: ION_MODE POSITIVE
AC$MASS_SPECTROMETRY: COLLISION_ENERGY 6V
AC$MASS_SPECTROMETRY: DESOLVATION_GAS_FLOW 800/h
AC$MASS_SPECTROMETRY: DESOLVATION_TEMPERATURE 450 C
AC$MASS_SPECTROMETRY: IONIZATION ESI
AC$CHROMATOGRAPHY: CAPILLARY_VOLTAGE +3.00 kV
AC$CHROMATOGRAPHY: COLUMN_NAME Acquity bridged ethyl hybrid C18 (1.7 um, 2.1 mm * 100 mm, Waters)
AC$CHROMATOGRAPHY: COLUMN_TEMPERATURE 40 C
AC$CHROMATOGRAPHY: FLOW_GRADIENT A/B = (99.5%/0.5% at 0 min, 99.5%/0.5% at 0.1 min, 20%/80% at 10 min, 0.5%/99.5% at 10.1 min, 0.5%/99.5% at 12.0 min, 99.5%/0.5% at 12.1 min, 99.5%/0.5% at 15.0 min)
AC$CHROMATOGRAPHY: FLOW_RATE 0.3 ml/min at 0 min, 0.3 ml/min at 10 min, 0.4 ml/min at 10.1 min, 0.4 ml/min at 14.4 min, 0.3 ml/min at 14.5 min
AC$CHROMATOGRAPHY: RETENTION_TIME 6.69
AC$CHROMATOGRAPHY: SOLVENT A water including 0.1% formic acid
AC$CHROMATOGRAPHY: SOLVENT B acetonitrile including 0.1% formic acid
MS$FOCUSED_ION: PRECURSOR_TYPE [M+H]+
MS$FOCUSED_ION: PRECURSOR_M/Z 269.08084
PK$SPLASH: splash10-014i-0290000000-b970eff73977a5222de7
PK$NUM_PEAK: 272
PK$PEAK: m/z int. rel.int.
  55.01853 24.0 1
  65.04406 23.0 1
  68.99568 27.0 1
  77.00588 30.0 1
  77.0349 42.0 1
  77.04363 51.0 1
  78.04397 17.0 0
  79.05676 91.0 2
  79.44911 35.0 1
  79.90822 18.0 0
  81.03476 22.0 1
  82.00494 22.0 1
  90.04691 176.0 4
  91.05205 53.0 1
  92.0231 36.0 1
  93.03883 19.0 0
  95.01675 26.0 1
  101.03924 23.0 1
  103.05022 26.0 1
  103.06092 20.0 0
  103.84482 23.0 1
  104.03119 25.0 1
  104.4509 17.0 0
  105.07314 20.0 0
  107.04511 273.0 6
  107.05048 326.0 8
  108.01625 187.0 4
  108.02552 25.0 1
  108.04686 22.0 1
  108.55206 22.0 1
  108.84792 52.0 1
  109.02971 23.0 1
  110.02126 22.0 1
  110.03285 36.0 1
  111.01617 29.0 1
  115.04595 32.0 1
  115.0562 70.0 2
  116.0578 64.0 1
  116.56202 33.0 1
  116.63594 17.0 0
  118.0213 75.0 2
  118.04224 1074.0 25
  119.04362 167.0 4
  119.05714 20.0 0
  120.03529 29.0 1
  120.5842 21.0 0
  121.03219 17.0 0
  123.0453 20.0 0
  127.05533 35.0 1
  127.79617 23.0 1
  128.06009 165.0 4
  128.68562 18.0 0
  129.06401 29.0 1
  129.83623 18.0 0
  130.07341 62.0 1
  131.05429 48.0 1
  132.05406 44.0 1
  132.8694 18.0 0
  133.02635 45.0 1
  133.03281 58.0 1
  133.06456 125.0 3
  133.10677 18.0 0
  134.07362 78.0 2
  135.04152 83.0 2
  136.00391 24.0 1
  136.01537 597.0 14
  137.02005 483.0 11
  137.0282 173.0 4
  138.02855 51.0 1
  139.05887 28.0 1
  140.59532 17.0 0
  141.05925 25.0 1
  141.07111 314.0 7
  142.07317 46.0 1
  143.07896 23.0 1
  144.05974 101.0 2
  146.25107 17.0 0
  147.04385 59.0 1
  148.05153 32.0 1
  148.76855 20.0 0
  151.03659 35.0 1
  151.05429 54.0 1
  152.04749 67.0 2
  152.06236 483.0 11
  153.04781 28.0 1
  153.06953 406.0 9
  155.05405 46.0 1
  155.08655 22.0 1
  155.42198 23.0 1
  156.05687 674.0 16
  157.04446 23.0 1
  157.05946 49.0 1
  157.06982 36.0 1
  157.10728 28.0 1
  157.75517 17.0 0
  158.06377 64.0 1
  158.07503 178.0 4
  159.04732 63.0 1
  159.07381 28.0 1
  159.828 20.0 0
  161.62088 21.0 0
  163.03162 79.0 2
  163.03757 232.0 5
  163.05473 31.0 1
  163.51338 38.0 1
  165.05995 98.0 2
  165.07808 130.0 3
  166.07803 23.0 1
  167.05344 54.0 1
  167.07796 40.0 1
  167.08894 34.0 1
  167.80487 19.0 0
  168.05142 41.0 1
  168.05956 51.0 1
  168.08881 30.0 1
  169.06413 814.0 19
  170.04015 26.0 1
  170.07202 596.0 14
  171.03613 51.0 1
  171.06526 33.0 1
  171.07744 148.0 3
  171.95615 44.0 1
  172.05132 17.0 0
  172.93027 18.0 0
  173.98328 21.0 0
  174.26837 25.0 1
  175.02417 31.0 1
  175.85544 38.0 1
  176.03572 41.0 1
  176.04971 56.0 1
  177.9366 18.0 0
  179.05249 44.0 1
  180.03552 33.0 1
  180.04506 91.0 2
  180.06049 279.0 7
  181.06516 1387.0 32
  181.1006 32.0 1
  182.06471 204.0 5
  182.07455 123.0 3
  182.29108 17.0 0
  183.03787 25.0 1
  183.0508 35.0 1
  183.06068 21.0 0
  184.04829 84.0 2
  184.05937 118.0 3
  185.06091 45.0 1
  185.09131 68.0 2
  185.80289 19.0 0
  186.32474 17.0 0
  186.33849 30.0 1
  189.50432 26.0 1
  192.46344 22.0 1
  193.76302 34.0 1
  194.3613 26.0 1
  195.07976 171.0 4
  195.09212 58.0 1
  195.39864 20.0 0
  196.03976 38.0 1
  196.05136 132.0 3
  196.06165 39.0 1
  196.08842 27.0 1
  196.30397 18.0 0
  197.01213 47.0 1
  197.02362 30.0 1
  197.05899 3245.0 76
  197.21901 18.0 0
  197.69627 17.0 0
  198.02797 18.0 0
  198.05756 351.0 8
  198.06877 677.0 16
  198.77937 18.0 0
  199.07106 209.0 5
  199.07745 87.0 2
  199.35146 33.0 1
  199.42311 19.0 0
  200.05061 70.0 2
  200.66563 21.0 0
  201.0217 20.0 0
  201.05069 17.0 0
  201.08516 20.0 0
  207.04224 22.0 1
  208.03677 19.0 0
  208.05228 63.0 1
  209.05455 54.0 1
  209.06291 82.0 2
  209.07098 62.0 1
  210.06236 21.0 0
  211.04192 20.0 0
  212.04416 46.0 1
  212.07822 44.0 1
  213.01758 17.0 0
  213.06621 43.0 1
  213.0892 2115.0 49
  213.09979 560.0 13
  213.52341 18.0 0
  213.89655 29.0 1
  214.08754 196.0 5
  214.09793 266.0 6
  215.10593 59.0 1
  215.15758 38.0 1
  216.99529 27.0 1
  217.26746 27.0 1
  218.27588 20.0 0
  219.04744 22.0 1
  222.61444 25.0 1
  224.04764 18.0 0
  224.07042 23.0 1
  225.01106 26.0 1
  225.05446 1677.0 39
  225.20139 32.0 1
  225.38504 18.0 0
  226.01411 46.0 1
  226.03134 160.0 4
  226.06177 2373.0 55
  226.09892 42.0 1
  227.06154 366.0 9
  227.07326 128.0 3
  228.06944 60.0 1
  228.40633 19.0 0
  235.02441 28.0 1
  237.01901 37.0 1
  237.05515 2608.0 61
  238.05009 190.0 4
  238.06111 532.0 12
  238.08487 28.0 1
  238.62109 31.0 1
  238.91542 36.0 1
  239.05446 29.0 1
  239.06369 47.0 1
  239.07552 33.0 1
  239.35211 19.0 0
  240.0547 23.0 1
  240.11389 20.0 0
  241.07094 25.0 1
  241.08257 110.0 3
  241.13113 33.0 1
  244.88605 26.0 1
  249.19817 17.0 0
  251.66812 18.0 0
  252.0929 44.0 1
  252.98909 23.0 1
  253.0112 40.0 1
  253.04886 3205.0 75
  253.07274 82.0 2
  253.90004 56.0 1
  254.0087 44.0 1
  254.0289 48.0 1
  254.05782 2898.0 68
  255.04503 103.0 2
  255.06384 383.0 9
  255.44548 17.0 0
  255.86089 22.0 1
  256.04904 20.0 0
  256.06317 42.0 1
  256.71951 20.0 0
  257.07947 20.0 0
  259.39236 27.0 1
  264.03903 17.0 0
  264.95428 17.0 0
  266.91293 17.0 0
  267.02667 17.0 0
  267.38138 17.0 0
  267.46475 19.0 0
  268.07718 149.0 3
  268.44977 17.0 0
  269.00214 65.0 2
  269.01477 32.0 1
  269.04507 278.0 6
  269.08151 42817.0 999
  269.12897 1210.0 28
  269.1604 28.0 1
  269.27701 122.0 3
//
