ACCESSION: MSBNK-RIKEN-PR309286
RECORD_TITLE: Luteolin-6-C-glucoside; LC-ESI-QTOF; MS2
DATE: 2019.03.28
AUTHORS: Tetsuya Mori, Center for Sustainable Resource Science, RIKEN
LICENSE: CC BY-NC-SA
PUBLICATION: Tsugawa H., Nakabayashi R., Mori T., Yamada Y., Takahashi M., Rai A., Sugiyama R., Yamamoto H., Nakaya T., Yamazaki M., Kooke R., Bac-Molenaar JA., Oztolan-Erol N., Keurentjes JJB., Arita M., Saito K. (2019) "A cheminformatics approach to characterize metabolomes in stable-isotope-labeled organisms" Nature Methods 16(4):295-298. [doi:10.1038/s41592-019-0358-2]
COMMENT: Annotation level-1
CH$NAME: Luteolin-6-C-glucoside
CH$COMPOUND_CLASS: Flavone C-glycosides
CH$FORMULA: C21H20O11
CH$EXACT_MASS: 448.38
CH$SMILES: O=C1C=C(OC2=CC(O)=C(C(O)=C12)C3OC(CO)C(O)C(O)C3(O))C=4C=CC(O)=C(O)C=4
CH$IUPAC: InChI=1S/C21H20O11/c22-6-14-17(27)19(29)20(30)21(32-14)16-11(26)5-13-15(18(16)28)10(25)4-12(31-13)7-1-2-8(23)9(24)3-7/h1-5,14,17,19-24,26-30H,6H2
CH$LINK: INCHIKEY ODBRNZZJSYPIDI-UHFFFAOYSA-N
AC$INSTRUMENT: LC, Waters Acquity UPLC System; MS, Waters Xevo G2 Q-Tof
AC$INSTRUMENT_TYPE: LC-ESI-QTOF
AC$MASS_SPECTROMETRY: MS_TYPE MS2
AC$MASS_SPECTROMETRY: ION_MODE NEGATIVE
AC$MASS_SPECTROMETRY: COLLISION_ENERGY 6V
AC$MASS_SPECTROMETRY: DESOLVATION_GAS_FLOW 800/h
AC$MASS_SPECTROMETRY: DESOLVATION_TEMPERATURE 450 C
AC$MASS_SPECTROMETRY: IONIZATION ESI
AC$CHROMATOGRAPHY: CAPILLARY_VOLTAGE +3.00 kV
AC$CHROMATOGRAPHY: COLUMN_NAME Acquity bridged ethyl hybrid C18 (1.7 um, 2.1 mm * 100 mm, Waters)
AC$CHROMATOGRAPHY: COLUMN_TEMPERATURE 40 C
AC$CHROMATOGRAPHY: FLOW_GRADIENT A/B = (99.5%/0.5% at 0 min, 99.5%/0.5% at 0.1 min, 20%/80% at 10 min, 0.5%/99.5% at 10.1 min, 0.5%/99.5% at 12.0 min, 99.5%/0.5% at 12.1 min, 99.5%/0.5% at 15.0 min)
AC$CHROMATOGRAPHY: FLOW_RATE 0.3 ml/min at 0 min, 0.3 ml/min at 10 min, 0.4 ml/min at 10.1 min, 0.4 ml/min at 14.4 min, 0.3 ml/min at 14.5 min
AC$CHROMATOGRAPHY: RETENTION_TIME 3.59
AC$CHROMATOGRAPHY: SOLVENT A water including 0.1% formic acid
AC$CHROMATOGRAPHY: SOLVENT B acetonitrile including 0.1% formic acid
MS$FOCUSED_ION: PRECURSOR_TYPE [M-H]-
MS$FOCUSED_ION: PRECURSOR_M/Z 447.09328
PK$SPLASH: splash10-002b-0149500000-d0e409e6831a4e45f9f0
PK$NUM_PEAK: 189
PK$PEAK: m/z int. rel.int.
  105.02926 22.0 5
  109.02572 25.0 6
  117.03571 28.0 6
  125.02348 27.0 6
  133.02428 56.0 13
  133.03502 18.0 4
  134.02991 24.0 5
  134.04192 39.0 9
  145.03427 43.0 10
  147.04295 41.0 9
  148.01279 18.0 4
  156.0479 25.0 6
  161.02437 73.0 16
  162.5965 20.0 4
  162.99846 31.0 7
  163.00504 75.0 17
  163.03532 38.0 8
  164.00877 20.0 4
  165.01205 67.0 15
  173.02596 20.0 4
  175.03592 22.0 5
  176.00691 21.0 5
  176.01907 29.0 6
  176.03795 23.0 5
  179.03682 20.0 4
  179.06776 34.0 8
  185.01448 25.0 6
  185.05145 22.0 5
  191.02722 27.0 6
  192.03671 20.0 4
  196.06372 29.0 6
  196.86807 37.0 8
  197.05403 18.0 4
  197.07236 35.0 8
  199.01891 20.0 4
  199.03992 130.0 29
  199.07758 44.0 10
  200.04916 19.0 4
  201.01964 38.0 8
  202.03076 18.0 4
  203.03426 65.0 15
  205.01949 20.0 4
  207.94493 18.0 4
  211.03712 57.0 13
  212.04326 18.0 4
  213.05032 18.0 4
  213.06454 18.0 4
  214.01613 28.0 6
  215.02818 20.0 4
  215.04294 20.0 4
  216.0477 24.0 5
  217.05666 28.0 6
  218.36618 21.0 5
  223.08556 24.0 5
  226.02499 44.0 10
  226.04878 18.0 4
  227.03221 83.0 19
  227.06259 42.0 9
  227.70491 25.0 6
  228.74249 25.0 6
  228.85448 20.0 4
  231.05444 23.0 5
  239.03052 23.0 5
  240.04224 20.0 4
  240.10167 25.0 6
  241.03706 65.0 15
  241.05042 38.0 8
  242.02388 18.0 4
  243.0309 49.0 11
  251.02156 26.0 6
  251.03444 25.0 6
  253.04047 49.0 11
  253.05705 58.0 13
  255.01633 19.0 4
  255.02913 47.0 10
  255.04541 20.0 4
  255.06166 60.0 13
  255.0728 18.0 4
  256.02869 29.0 6
  256.86026 21.0 5
  257.04166 43.0 10
  257.07446 18.0 4
  257.4689 45.0 10
  258.45645 22.0 5
  259.05225 22.0 5
  265.06522 32.0 7
  267.03821 25.0 6
  267.10846 39.0 9
  268.02853 40.0 9
  268.03949 21.0 5
  269.04025 128.0 29
  269.05118 60.0 13
  270.03772 74.0 17
  271.05133 67.0 15
  272.21875 21.0 5
  281.03885 25.0 6
  282.04639 24.0 5
  282.28534 21.0 5
  282.98752 20.0 4
  283.05835 43.0 10
  284.01981 98.0 22
  284.03329 221.0 49
  284.06543 41.0 9
  285.03894 426.0 95
  285.0611 49.0 11
  286.04495 97.0 22
  287.41919 21.0 5
  296.02509 35.0 8
  297.03683 836.0 187
  298.03918 203.0 45
  298.04965 602.0 134
  298.06924 19.0 4
  299.05753 620.0 138
  299.25153 19.0 4
  300.03259 18.0 4
  300.05624 296.0 66
  300.08524 35.0 8
  300.09567 20.0 4
  309.02039 23.0 5
  309.03342 81.0 18
  311.05765 233.0 52
  312.04636 38.0 8
  312.0567 44.0 10
  313.02618 157.0 35
  313.03842 63.0 14
  313.07394 30.0 7
  314.03189 18.0 4
  315.04071 27.0 6
  324.0448 21.0 5
  325.03348 102.0 23
  326.04034 45.0 10
  326.04837 20.0 4
  327.04874 3322.0 742
  328.05298 569.0 127
  329.0347 22.0 5
  329.0571 149.0 33
  329.39227 21.0 5
  330.0683 19.0 4
  331.89032 25.0 6
  333.16168 29.0 6
  337.01529 22.0 5
  337.04199 18.0 4
  339.05197 404.0 90
  339.07104 45.0 10
  340.04749 21.0 5
  340.05972 20.0 4
  341.03116 23.0 5
  341.06506 118.0 26
  341.07672 79.0 18
  342.05252 18.0 4
  347.82773 37.0 8
  353.06723 29.0 6
  354.06653 18.0 4
  355.3013 20.0 4
  356.32669 38.0 8
  357.05905 2220.0 496
  358.06485 489.0 109
  359.0654 178.0 40
  364.0498 19.0 4
  365.05759 18.0 4
  369.04999 24.0 5
  369.0614 66.0 15
  370.0455 20.0 4
  370.05756 31.0 7
  370.06949 21.0 5
  371.07755 66.0 15
  381.06204 82.0 18
  383.09094 33.0 7
  387.07657 54.0 12
  388.07727 18.0 4
  389.0715 19.0 4
  394.04666 24.0 5
  397.0593 56.0 13
  399.06647 64.0 14
  400.08142 21.0 5
  405.68842 23.0 5
  410.0607 28.0 6
  411.06186 21.0 5
  411.08676 19.0 4
  418.08231 25.0 6
  428.07602 20.0 4
  429.07629 225.0 50
  429.09503 95.0 21
  430.09167 99.0 22
  442.0658 36.0 8
  445.07639 177.0 40
  446.08276 359.0 80
  447.09174 4473.0 999
  447.14334 28.0 6
//
