ACCESSION: MSBNK-RIKEN-PR303857
RECORD_TITLE: Asiaticoside; LC-ESI-QTOF; MS2
DATE: 2019.03.28
AUTHORS: Tetsuya Mori, Center for Sustainable Resource Science, RIKEN
LICENSE: CC BY-NC-SA
PUBLICATION: Tsugawa H., Nakabayashi R., Mori T., Yamada Y., Takahashi M., Rai A., Sugiyama R., Yamamoto H., Nakaya T., Yamazaki M., Kooke R., Bac-Molenaar JA., Oztolan-Erol N., Keurentjes JJB., Arita M., Saito K. (2019) "A cheminformatics approach to characterize metabolomes in stable-isotope-labeled organisms" Nature Methods 16(4):295-298. [doi:10.1038/s41592-019-0358-2]
COMMENT: registered in RIKEN PlaSMA
CH$NAME: Asiaticoside
CH$COMPOUND_CLASS: Triterpene saponins
CH$FORMULA: C48H78O19
CH$EXACT_MASS: 959.133
CH$SMILES: CC1CCC2(CCC3(C)C(=CCC4C5(C)CC(O)C(O)C(C)(CO)C5CCC34C)C2C1C)C(=O)OC1OC(COC2OC(CO)C(OC3OC(C)C(O)C(O)C3O)C(O)C2O)C(O)C(O)C1O
CH$IUPAC: InChI=1S/C48H78O19/c1-20-10-13-48(15-14-46(6)23(29(48)21(20)2)8-9-28-44(4)16-24(51)39(60)45(5,19-50)27(44)11-12-47(28,46)7)43(61)67-42-36(58)33(55)31(53)26(65-42)18-62-40-37(59)34(56)38(25(17-49)64-40)66-41-35(57)32(54)30(52)22(3)63-41/h8,20-22,24-42,49-60H,9-19H2,1-7H3
CH$LINK: INCHIKEY WYQVAPGDARQUBT-UHFFFAOYSA-N
AC$INSTRUMENT: LC, Waters Acquity UPLC System; MS, Waters Xevo G2 Q-Tof
AC$INSTRUMENT_TYPE: LC-ESI-QTOF
AC$MASS_SPECTROMETRY: MS_TYPE MS2
AC$MASS_SPECTROMETRY: ION_MODE POSITIVE
AC$MASS_SPECTROMETRY: COLLISION_ENERGY 6V
AC$MASS_SPECTROMETRY: DESOLVATION_GAS_FLOW 800/h
AC$MASS_SPECTROMETRY: DESOLVATION_TEMPERATURE 450 C
AC$MASS_SPECTROMETRY: IONIZATION ESI
AC$CHROMATOGRAPHY: CAPILLARY_VOLTAGE +3.00 kV
AC$CHROMATOGRAPHY: COLUMN_NAME Acquity bridged ethyl hybrid C18 (1.7 um, 2.1 mm * 100 mm, Waters)
AC$CHROMATOGRAPHY: COLUMN_TEMPERATURE 40 C
AC$CHROMATOGRAPHY: FLOW_GRADIENT A/B = (99.5%/0.5% at 0 min, 99.5%/0.5% at 0.1 min, 20%/80% at 10 min, 0.5%/99.5% at 10.1 min, 0.5%/99.5% at 12.0 min, 99.5%/0.5% at 12.1 min, 99.5%/0.5% at 15.0 min)
AC$CHROMATOGRAPHY: FLOW_RATE 0.3 ml/min at 0 min, 0.3 ml/min at 10 min, 0.4 ml/min at 10.1 min, 0.4 ml/min at 14.4 min, 0.3 ml/min at 14.5 min
AC$CHROMATOGRAPHY: RETENTION_TIME 5.20985
AC$CHROMATOGRAPHY: SOLVENT A water including 0.1% formic acid
AC$CHROMATOGRAPHY: SOLVENT B acetonitrile including 0.1% formic acid
MS$FOCUSED_ION: PRECURSOR_TYPE [M+H]+
MS$FOCUSED_ION: PRECURSOR_M/Z 959.5210067
PK$SPLASH: splash10-0a4i-0223903204-1b34acc16b56112b26b0
PK$NUM_PEAK: 180
PK$PEAK: m/z int. rel.int.
  75.04374 15.0 15
  83.04801 11.0 11
  85.02841 41.0 41
  107.08353 12.0 12
  111.04693 10.0 10
  125.01869 12.0 12
  125.0954 17.0 17
  127.04392 20.0 20
  129.04147 17.0 17
  129.05399 87.0 87
  129.05858 31.0 31
  145.04785 12.0 12
  146.11263 21.0 21
  147.06204 85.0 85
  148.07042 10.0 10
  155.81784 10.0 10
  159.11496 10.0 10
  163.04243 12.0 12
  163.05826 33.0 33
  163.06677 18.0 18
  165.07173 27.0 27
  165.07895 22.0 22
  187.15253 30.0 30
  188.14258 12.0 12
  188.15233 11.0 11
  189.16702 10.0 10
  193.13297 13.0 13
  193.15062 11.0 11
  204.17587 10.0 10
  205.1541 12.0 12
  215.18034 17.0 17
  217.15291 10.0 10
  219.17863 54.0 54
  229.15871 14.0 14
  231.06279 10.0 10
  231.16556 11.0 11
  233.18529 10.0 10
  235.1347 10.0 10
  235.16756 16.0 16
  236.17444 16.0 16
  237.06683 13.0 13
  237.0825 10.0 10
  238.07716 14.0 14
  241.0797 12.0 12
  241.18767 10.0 10
  242.36176 13.0 13
  247.17444 58.0 58
  248.18401 26.0 26
  249.17856 19.0 19
  249.19307 12.0 12
  255.08366 57.0 57
  256.0946 15.0 15
  259.09344 12.0 12
  261.18323 75.0 75
  262.18231 12.0 12
  263.15866 12.0 12
  272.21204 12.0 12
  273.0943 33.0 33
  273.10608 27.0 27
  274.09866 15.0 15
  275.19931 14.0 14
  291.10605 24.0 24
  308.51382 10.0 10
  309.10693 136.0 136
  309.12061 219.0 219
  309.13739 42.0 42
  309.92059 15.0 15
  310.10419 10.0 10
  310.11826 44.0 44
  316.50732 10.0 10
  325.10919 12.0 12
  325.11938 14.0 14
  327.2363 10.0 10
  341.24796 37.0 37
  343.2569 12.0 12
  344.90146 10.0 10
  353.24457 10.0 10
  363.30038 10.0 10
  365.32266 23.0 23
  370.42441 11.0 11
  379.33331 14.0 14
  389.30368 15.0 15
  389.32986 33.0 33
  391.31921 12.0 12
  391.37738 10.0 10
  392.34973 10.0 10
  395.30344 10.0 10
  407.30997 57.0 57
  407.3316 192.0 192
  408.32938 23.0 23
  408.34518 45.0 45
  409.32236 12.0 12
  414.38095 15.0 15
  417.14386 10.0 10
  417.29321 11.0 11
  423.32556 11.0 11
  428.37152 10.0 10
  431.5199 12.0 12
  434.78717 12.0 12
  435.30743 23.0 23
  435.33084 162.0 162
  436.32278 12.0 12
  437.34161 12.0 12
  441.34085 10.0 10
  443.35464 10.0 10
  445.35071 13.0 13
  451.32559 11.0 11
  453.33685 470.0 470
  453.35593 97.0 97
  454.17749 10.0 10
  454.2822 10.0 10
  454.33163 65.0 65
  454.35123 96.0 96
  455.32986 14.0 14
  455.35733 17.0 17
  455.37308 10.0 10
  456.52676 13.0 13
  469.3313 16.0 16
  471.1608 37.0 37
  471.18765 26.0 26
  471.34131 231.0 231
  472.16791 10.0 10
  472.25574 10.0 10
  472.32684 36.0 36
  472.36288 35.0 35
  473.31046 10.0 10
  473.34906 10.0 10
  473.38733 15.0 15
  487.3425 10.0 10
  489.34399 44.0 44
  489.36545 71.0 71
  490.28632 12.0 12
  490.35452 33.0 33
  491.35751 27.0 27
  509.03641 11.0 11
  518.47644 20.0 20
  581.37756 13.0 13
  582.3606 13.0 13
  582.40057 11.0 11
  599.37726 14.0 14
  599.39569 22.0 22
  600.37323 10.0 10
  606.42804 10.0 10
  633.39752 13.0 13
  635.09937 10.0 10
  635.34528 13.0 13
  635.39832 96.0 96
  635.42352 231.0 231
  636.37714 11.0 11
  636.4209 129.0 129
  636.46967 19.0 19
  637.4306 14.0 14
  637.79474 12.0 12
  639.83148 12.0 12
  651.39142 68.0 68
  651.42023 51.0 51
  652.40717 11.0 11
  652.43335 12.0 12
  653.41034 12.0 12
  653.45288 13.0 13
  654.45697 15.0 15
  661.2807 10.0 10
  677.25714 12.0 12
  707.05225 16.0 16
  764.08978 10.0 10
  797.46594 315.0 315
  798.42731 28.0 28
  798.45233 74.0 74
  798.48816 111.0 111
  799.46808 21.0 21
  799.49432 10.0 10
  800.47656 11.0 11
  813.45471 73.0 73
  815.48486 10.0 10
  817.49402 12.0 12
  923.48578 10.0 10
  929.20551 12.0 12
  942.51538 10.0 10
  959.51837 1000.0 999
  959.60187 12.0 12
//
