ACCESSION: MSBNK-RIKEN-PR303406
RECORD_TITLE: NP-006989(12); LC-ESI-QTOF; MS2
DATE: 2019.03.28
AUTHORS: Tetsuya Mori, Center for Sustainable Resource Science, RIKEN
LICENSE: CC BY-NC-SA
PUBLICATION: Tsugawa H., Nakabayashi R., Mori T., Yamada Y., Takahashi M., Rai A., Sugiyama R., Yamamoto H., Nakaya T., Yamazaki M., Kooke R., Bac-Molenaar JA., Oztolan-Erol N., Keurentjes JJB., Arita M., Saito K. (2019) "A cheminformatics approach to characterize metabolomes in stable-isotope-labeled organisms" Nature Methods 16(4):295-298. [doi:10.1038/s41592-019-0358-2]
COMMENT: registered in RIKEN PlaSMA
CH$NAME: NP-006989(12)
CH$COMPOUND_CLASS: Flavonoid 8-C-glycosides
CH$FORMULA: C27H30O16
CH$EXACT_MASS: 610.521
CH$SMILES: OC[C@H]1O[C@H]([C@H](O)[C@@H](O)[C@@H]1O)C1=C(O)C(C2OC(CO)C(O)C(O)C2O)=C2OC(=CC(=O)C2=C1O)C1=CC(O)=C(O)C=C1
CH$IUPAC: InChI=1S/C27H30O16/c28-5-12-17(33)21(37)23(39)26(42-12)15-19(35)14-10(32)4-11(7-1-2-8(30)9(31)3-7)41-25(14)16(20(15)36)27-24(40)22(38)18(34)13(6-29)43-27/h1-4,12-13,17-18,21-24,26-31,33-40H,5-6H2/t12-,13?,17-,18?,21+,22?,23-,24?,26+,27?/m1/s1
CH$LINK: INCHIKEY ZLPSOQFIIQIIAX-FCSQLNSJSA-N
AC$INSTRUMENT: LC, Waters Acquity UPLC System; MS, Waters Xevo G2 Q-Tof
AC$INSTRUMENT_TYPE: LC-ESI-QTOF
AC$MASS_SPECTROMETRY: MS_TYPE MS2
AC$MASS_SPECTROMETRY: ION_MODE POSITIVE
AC$MASS_SPECTROMETRY: COLLISION_ENERGY 6V
AC$MASS_SPECTROMETRY: DESOLVATION_GAS_FLOW 800/h
AC$MASS_SPECTROMETRY: DESOLVATION_TEMPERATURE 450 C
AC$MASS_SPECTROMETRY: IONIZATION ESI
AC$CHROMATOGRAPHY: CAPILLARY_VOLTAGE +3.00 kV
AC$CHROMATOGRAPHY: COLUMN_NAME Acquity bridged ethyl hybrid C18 (1.7 um, 2.1 mm * 100 mm, Waters)
AC$CHROMATOGRAPHY: COLUMN_TEMPERATURE 40 C
AC$CHROMATOGRAPHY: FLOW_GRADIENT A/B = (99.5%/0.5% at 0 min, 99.5%/0.5% at 0.1 min, 20%/80% at 10 min, 0.5%/99.5% at 10.1 min, 0.5%/99.5% at 12.0 min, 99.5%/0.5% at 12.1 min, 99.5%/0.5% at 15.0 min)
AC$CHROMATOGRAPHY: FLOW_RATE 0.3 ml/min at 0 min, 0.3 ml/min at 10 min, 0.4 ml/min at 10.1 min, 0.4 ml/min at 14.4 min, 0.3 ml/min at 14.5 min
AC$CHROMATOGRAPHY: RETENTION_TIME 3.100167
AC$CHROMATOGRAPHY: SOLVENT A water including 0.1% formic acid
AC$CHROMATOGRAPHY: SOLVENT B acetonitrile including 0.1% formic acid
MS$FOCUSED_ION: PRECURSOR_TYPE [M+H]+
MS$FOCUSED_ION: PRECURSOR_M/Z 611.1606613
PK$SPLASH: splash10-052g-0009810000-b79e0372385ebb5d5f3c
PK$NUM_PEAK: 294
PK$PEAK: m/z int. rel.int.
  109.03358 16.0 16
  137.01599 10.0 10
  189.13539 10.0 10
  207.52118 9.0 9
  207.79945 11.0 11
  231.01631 22.0 22
  236.32443 10.0 10
  248.46027 8.0 8
  266.92847 19.0 19
  293.64133 15.0 15
  297.08044 10.0 10
  299.05582 20.0 20
  302.07031 9.0 9
  307.06735 12.0 12
  309.04529 9.0 9
  309.62817 10.0 10
  310.04611 10.0 10
  311.04614 48.0 48
  311.05838 187.0 187
  312.03809 9.0 9
  312.05688 27.0 27
  312.07614 23.0 23
  312.16473 8.0 8
  313.05814 8.0 8
  318.31927 8.0 8
  321.08841 9.0 9
  323.03381 18.0 18
  323.05499 210.0 210
  323.06528 71.0 71
  324.03714 8.0 8
  324.05823 60.0 60
  324.07468 11.0 11
  325.07935 15.0 15
  327.04877 10.0 10
  329.0647 35.0 35
  329.07953 19.0 19
  330.04071 10.0 10
  330.15659 17.0 17
  335.05072 11.0 11
  336.07251 8.0 8
  337.31821 10.0 10
  338.08426 11.0 11
  339.0528 68.0 68
  341.01764 9.0 9
  341.06583 1000.0 999
  342.04306 12.0 12
  342.06024 79.0 79
  342.07596 69.0 69
  343.03784 25.0 25
  343.06906 42.0 42
  343.0878 9.0 9
  344.07016 31.0 31
  345.12347 14.0 14
  347.09045 9.0 9
  348.05463 8.0 8
  349.06522 26.0 26
  351.04648 8.0 8
  351.07593 11.0 11
  352.06445 16.0 16
  352.0907 11.0 11
  353.01312 13.0 13
  353.06586 474.0 474
  353.8197 16.0 16
  354.0499 15.0 15
  354.07425 44.0 44
  359.04343 15.0 15
  361.06583 13.0 13
  363.08414 36.0 36
  363.10056 20.0 20
  364.08997 9.0 9
  364.91135 8.0 8
  365.00009 15.0 15
  365.03522 25.0 25
  365.0578 201.0 201
  365.07278 262.0 262
  365.1008 8.0 8
  365.16141 8.0 8
  366.02774 13.0 13
  366.05771 39.0 39
  366.07489 35.0 35
  367.04584 8.0 8
  367.06107 9.0 9
  368.09314 10.0 10
  369.02856 9.0 9
  371.07132 155.0 155
  371.08469 111.0 111
  372.0618 22.0 22
  372.08411 70.0 70
  373.05017 27.0 27
  373.07648 32.0 32
  375.03796 14.0 14
  377.05148 29.0 29
  377.06958 191.0 191
  378.06473 18.0 18
  378.39487 8.0 8
  379.07153 10.0 10
  379.09341 19.0 19
  380.00076 9.0 9
  381.05029 24.0 24
  381.0975 91.0 91
  381.97055 16.0 16
  382.10123 36.0 36
  382.27383 8.0 8
  383.01892 8.0 8
  383.1091 22.0 22
  386.32925 19.0 19
  389.06845 36.0 36
  390.05597 27.0 27
  391.06137 64.0 64
  391.08395 36.0 36
  392.06787 20.0 20
  392.08566 23.0 23
  393.03021 10.0 10
  394.08588 9.0 9
  395.03229 9.0 9
  395.07782 713.0 712
  396.0773 164.0 164
  397.08142 39.0 39
  397.26013 10.0 10
  397.67599 10.0 10
  399.10373 9.0 9
  401.02252 8.0 8
  401.05457 32.0 32
  401.06757 42.0 42
  402.07086 9.0 9
  404.09604 12.0 12
  405.0675 11.0 11
  405.0961 9.0 9
  405.10959 10.0 10
  407.07809 488.0 488
  407.12073 13.0 13
  408.05774 8.0 8
  408.07925 49.0 49
  409.09268 38.0 38
  410.091 15.0 15
  410.40448 10.0 10
  410.83707 15.0 15
  413.08041 23.0 23
  413.09616 12.0 12
  416.07767 11.0 11
  416.41028 8.0 8
  417.08545 36.0 36
  417.10037 15.0 15
  419.05374 19.0 19
  419.08206 200.0 200
  420.07581 61.0 61
  420.10333 10.0 10
  420.13354 11.0 11
  421.08517 38.0 38
  422.08893 8.0 8
  422.72549 9.0 9
  423.07468 10.0 10
  423.08783 15.0 15
  424.06003 10.0 10
  425.08698 542.0 541
  426.08432 63.0 63
  426.09909 72.0 72
  427.10513 48.0 48
  431.06433 15.0 15
  431.08542 29.0 29
  432.08444 9.0 9
  432.10287 8.0 8
  433.08261 8.0 8
  434.06058 9.0 9
  435.0481 10.0 10
  435.07062 8.0 8
  435.08841 9.0 9
  435.11349 10.0 10
  436.07324 13.0 13
  436.99222 11.0 11
  437.05469 38.0 38
  437.06534 82.0 82
  437.0921 179.0 179
  438.09061 46.0 46
  439.08066 41.0 41
  439.10153 11.0 11
  439.11646 9.0 9
  441.07281 19.0 19
  442.08911 17.0 17
  443.03772 45.0 45
  443.09109 350.0 350
  443.11542 130.0 130
  443.27332 12.0 12
  444.08688 35.0 35
  444.1048 93.0 93
  445.08954 11.0 11
  445.12677 21.0 21
  445.35132 8.0 8
  445.57214 13.0 13
  445.7251 11.0 11
  447.11487 9.0 9
  448.0975 10.0 10
  448.11044 11.0 11
  448.3226 9.0 9
  449.00235 14.0 14
  449.06879 38.0 38
  449.10611 46.0 46
  450.0777 10.0 10
  452.97498 15.0 15
  453.79819 9.0 9
  454.99048 10.0 10
  455.06635 44.0 44
  455.09897 347.0 347
  455.17154 13.0 13
  456.0795 21.0 21
  456.09637 28.0 28
  456.11526 31.0 31
  456.83704 8.0 8
  457.10852 12.0 12
  457.1246 11.0 11
  458.47873 8.0 8
  459.09415 14.0 14
  461.09033 91.0 91
  462.08096 19.0 19
  462.13333 9.0 9
  462.48776 8.0 8
  463.87042 8.0 8
  464.67279 10.0 10
  465.13162 10.0 10
  465.14645 15.0 15
  467.11972 8.0 8
  469.04102 11.0 11
  470.1481 12.0 12
  473.07016 53.0 53
  473.08826 155.0 155
  473.11731 209.0 209
  473.91516 9.0 9
  474.06958 13.0 13
  474.10855 58.0 58
  474.13333 8.0 8
  475.09387 58.0 58
  475.12711 22.0 22
  476.10913 9.0 9
  478.1019 32.0 32
  479.08194 18.0 18
  479.10223 72.0 72
  479.12906 21.0 21
  480.11099 66.0 66
  481.09262 17.0 17
  485.08221 44.0 44
  485.0972 18.0 18
  485.11737 10.0 10
  485.1662 8.0 8
  486.09598 20.0 20
  491.08887 34.0 34
  491.11697 39.0 39
  492.07739 9.0 9
  492.11801 8.0 8
  494.03085 10.0 10
  494.11816 11.0 11
  496.01123 14.0 14
  496.64212 21.0 21
  497.06924 24.0 24
  497.11426 247.0 247
  497.15961 18.0 18
  498.12384 32.0 32
  499.11926 9.0 9
  503.08636 8.0 8
  503.10886 72.0 72
  503.15826 8.0 8
  504.0845 15.0 15
  507.57584 9.0 9
  509.10931 44.0 44
  510.11914 8.0 8
  511.11755 10.0 10
  515.08826 12.0 12
  515.12189 103.0 103
  516.12006 8.0 8
  516.14471 11.0 11
  521.06903 8.0 8
  521.09583 22.0 22
  521.11884 32.0 32
  521.1438 8.0 8
  522.10242 34.0 34
  523.10004 10.0 10
  526.77936 8.0 8
  527.11365 29.0 29
  527.13141 10.0 10
  528.11462 30.0 30
  539.11536 211.0 211
  539.25537 10.0 10
  540.12183 22.0 22
  545.11078 9.0 9
  547.72156 10.0 10
  557.10693 33.0 33
  557.1394 87.0 87
  558.12628 38.0 38
  559.10657 12.0 12
  559.13129 12.0 12
  559.15814 20.0 20
  560.14807 14.0 14
  575.11401 16.0 16
  575.14789 10.0 10
  593.18475 10.0 10
//
