ACCESSION: MSBNK-RIKEN-PR301161
RECORD_TITLE: Karakoline; LC-ESI-QTOF; MS2
DATE: 2019.03.28
AUTHORS: Tetsuya Mori, Center for Sustainable Resource Science, RIKEN
LICENSE: CC BY-NC-SA
PUBLICATION: Tsugawa H., Nakabayashi R., Mori T., Yamada Y., Takahashi M., Rai A., Sugiyama R., Yamamoto H., Nakaya T., Yamazaki M., Kooke R., Bac-Molenaar JA., Oztolan-Erol N., Keurentjes JJB., Arita M., Saito K. (2019) "A cheminformatics approach to characterize metabolomes in stable-isotope-labeled organisms" Nature Methods 16(4):295-298. [doi:10.1038/s41592-019-0358-2]
COMMENT: registered in RIKEN PlaSMA
CH$NAME: Karakoline
CH$COMPOUND_CLASS: Aconitane-type diterpenoid alkaloids
CH$FORMULA: C22H35NO4
CH$EXACT_MASS: 377.525
CH$SMILES: CCN1C[C@]2(C)CC[C@H](O)[C@@]34[C@@H]5C[C@H]6[C@H](O)[C@@H]5[C@](O)(C[C@@H]6OC)[C@@H](C[C@H]23)C14
CH$IUPAC: InChI=1S/C22H35NO4/c1-4-23-10-20(2)6-5-16(24)22-12-7-11-14(27-3)9-21(26,17(12)18(11)25)13(19(22)23)8-15(20)22/h11-19,24-26H,4-10H2,1-3H3/t11-,12-,13+,14+,15-,16+,17-,18+,19?,20+,21+,22-/m1/s1
CH$LINK: INCHIKEY HKQZUYOVMYOFIT-VHNBHZRZSA-N
AC$INSTRUMENT: LC, Waters Acquity UPLC System; MS, Waters Xevo G2 Q-Tof
AC$INSTRUMENT_TYPE: LC-ESI-QTOF
AC$MASS_SPECTROMETRY: MS_TYPE MS2
AC$MASS_SPECTROMETRY: ION_MODE POSITIVE
AC$MASS_SPECTROMETRY: COLLISION_ENERGY 6V
AC$MASS_SPECTROMETRY: DESOLVATION_GAS_FLOW 800/h
AC$MASS_SPECTROMETRY: DESOLVATION_TEMPERATURE 450 C
AC$MASS_SPECTROMETRY: IONIZATION ESI
AC$CHROMATOGRAPHY: CAPILLARY_VOLTAGE +3.00 kV
AC$CHROMATOGRAPHY: COLUMN_NAME Acquity bridged ethyl hybrid C18 (1.7 um, 2.1 mm * 100 mm, Waters)
AC$CHROMATOGRAPHY: COLUMN_TEMPERATURE 40 C
AC$CHROMATOGRAPHY: FLOW_GRADIENT A/B = (99.5%/0.5% at 0 min, 99.5%/0.5% at 0.1 min, 20%/80% at 10 min, 0.5%/99.5% at 10.1 min, 0.5%/99.5% at 12.0 min, 99.5%/0.5% at 12.1 min, 99.5%/0.5% at 15.0 min)
AC$CHROMATOGRAPHY: FLOW_RATE 0.3 ml/min at 0 min, 0.3 ml/min at 10 min, 0.4 ml/min at 10.1 min, 0.4 ml/min at 14.4 min, 0.3 ml/min at 14.5 min
AC$CHROMATOGRAPHY: RETENTION_TIME 2.889217
AC$CHROMATOGRAPHY: SOLVENT A water including 0.1% formic acid
AC$CHROMATOGRAPHY: SOLVENT B acetonitrile including 0.1% formic acid
MS$FOCUSED_ION: PRECURSOR_TYPE [M+H]+
MS$FOCUSED_ION: PRECURSOR_M/Z 378.2638851
PK$SPLASH: splash10-01t9-0009000000-51088fb5e493a22148f7
PK$NUM_PEAK: 33
PK$PEAK: m/z int. rel.int.
  95.08648 5.0 5
  98.09768 29.0 29
  110.09615 11.0 11
  124.11205 19.0 19
  143.08499 7.0 7
  145.10228 6.0 6
  157.09473 8.0 8
  173.13115 7.0 7
  183.12061 5.0 5
  185.13268 6.0 6
  195.11867 7.0 7
  197.13078 6.0 6
  209.13356 7.0 7
  227.1422 13.0 13
  235.14931 7.0 7
  253.16452 5.0 5
  267.17932 5.0 5
  281.19083 6.0 6
  310.21902 16.0 16
  311.22372 5.0 5
  328.22839 44.0 44
  329.22699 16.0 16
  332.21838 12.0 12
  332.23099 5.0 5
  342.24356 49.0 49
  343.24731 18.0 18
  360.1998 12.0 12
  360.25342 696.0 695
  361.25723 200.0 200
  362.26062 26.0 26
  378.2142 10.0 10
  378.26312 1000.0 999
  378.32434 8.0 8
//
