ACCESSION: MSBNK-RIKEN-PR300511
RECORD_TITLE: Puberanidine; LC-ESI-QTOF; MS2
DATE: 2019.03.28
AUTHORS: Tetsuya Mori, Center for Sustainable Resource Science, RIKEN
LICENSE: CC BY-NC-SA
PUBLICATION: Tsugawa H., Nakabayashi R., Mori T., Yamada Y., Takahashi M., Rai A., Sugiyama R., Yamamoto H., Nakaya T., Yamazaki M., Kooke R., Bac-Molenaar JA., Oztolan-Erol N., Keurentjes JJB., Arita M., Saito K. (2019) "A cheminformatics approach to characterize metabolomes in stable-isotope-labeled organisms" Nature Methods 16(4):295-298. [doi:10.1038/s41592-019-0358-2]
COMMENT: registered in RIKEN PlaSMA
CH$NAME: Puberanidine
CH$COMPOUND_CLASS: Lappaconitine-type diterpenoid alkaloids
CH$FORMULA: C30H42N2O7
CH$EXACT_MASS: 542.673
CH$SMILES: CCN1C[C@@]2(CC[C@H](OC)C34[C@@H]5C[C@H]6[C@H](OC)[C@]5(O)[C@](O)(C[C@@H]6OC)C(C[C@H]23)C14)OC(=O)C1=CC=CC=C1N
CH$IUPAC: InChI=1S/C30H42N2O7/c1-5-32-15-27(39-26(33)16-8-6-7-9-19(16)31)11-10-23(37-3)29-21(27)13-18(24(29)32)28(34)14-20(36-2)17-12-22(29)30(28,35)25(17)38-4/h6-9,17-18,20-25,34-35H,5,10-15,31H2,1-4H3/t17-,18?,20+,21-,22+,23+,24?,25+,27-,28+,29?,30+/m1/s1
CH$LINK: INCHIKEY VSUODASNSRJNCP-WGVBKJPXSA-N
AC$INSTRUMENT: LC, Waters Acquity UPLC System; MS, Waters Xevo G2 Q-Tof
AC$INSTRUMENT_TYPE: LC-ESI-QTOF
AC$MASS_SPECTROMETRY: MS_TYPE MS2
AC$MASS_SPECTROMETRY: ION_MODE POSITIVE
AC$MASS_SPECTROMETRY: COLLISION_ENERGY 6V
AC$MASS_SPECTROMETRY: DESOLVATION_GAS_FLOW 800/h
AC$MASS_SPECTROMETRY: DESOLVATION_TEMPERATURE 450 C
AC$MASS_SPECTROMETRY: IONIZATION ESI
AC$CHROMATOGRAPHY: CAPILLARY_VOLTAGE +3.00 kV
AC$CHROMATOGRAPHY: COLUMN_NAME Acquity bridged ethyl hybrid C18 (1.7 um, 2.1 mm * 100 mm, Waters)
AC$CHROMATOGRAPHY: COLUMN_TEMPERATURE 40 C
AC$CHROMATOGRAPHY: FLOW_GRADIENT A/B = (99.5%/0.5% at 0 min, 99.5%/0.5% at 0.1 min, 20%/80% at 10 min, 0.5%/99.5% at 10.1 min, 0.5%/99.5% at 12.0 min, 99.5%/0.5% at 12.1 min, 99.5%/0.5% at 15.0 min)
AC$CHROMATOGRAPHY: FLOW_RATE 0.3 ml/min at 0 min, 0.3 ml/min at 10 min, 0.4 ml/min at 10.1 min, 0.4 ml/min at 14.4 min, 0.3 ml/min at 14.5 min
AC$CHROMATOGRAPHY: RETENTION_TIME 4.951167
AC$CHROMATOGRAPHY: SOLVENT A water including 0.1% formic acid
AC$CHROMATOGRAPHY: SOLVENT B acetonitrile including 0.1% formic acid
MS$FOCUSED_ION: PRECURSOR_TYPE [M+H]+
MS$FOCUSED_ION: PRECURSOR_M/Z 543.3064782
PK$SPLASH: splash10-0006-0001090000-52cd953dd6084d0a166c
PK$NUM_PEAK: 28
PK$PEAK: m/z int. rel.int.
  120.04538 19.0 19
  210.12967 13.0 13
  212.14186 12.0 12
  219.11835 9.0 9
  237.12834 5.0 5
  247.11417 6.0 6
  251.14235 10.0 10
  279.13977 13.0 13
  292.1669 10.0 10
  311.1644 6.0 6
  324.19693 43.0 43
  325.20071 8.0 8
  356.22214 46.0 46
  357.22141 13.0 13
  374.2334 19.0 19
  388.24945 29.0 29
  389.24933 7.0 7
  406.25894 43.0 43
  407.27118 6.0 6
  424.27493 8.0 8
  461.24057 5.0 5
  493.2699 22.0 22
  525.2962 20.0 20
  526.29944 6.0 6
  543.21027 5.0 5
  543.22876 5.0 5
  543.30682 1000.0 999
  543.37549 21.0 21
//
