ACCESSION: MSBNK-RIKEN-PR300170
RECORD_TITLE: Gardneramine; LC-ESI-QTOF; MS2
DATE: 2019.03.28
AUTHORS: Tetsuya Mori, Center for Sustainable Resource Science, RIKEN
LICENSE: CC BY-NC-SA
PUBLICATION: Tsugawa H., Nakabayashi R., Mori T., Yamada Y., Takahashi M., Rai A., Sugiyama R., Yamamoto H., Nakaya T., Yamazaki M., Kooke R., Bac-Molenaar JA., Oztolan-Erol N., Keurentjes JJB., Arita M., Saito K. (2019) "A cheminformatics approach to characterize metabolomes in stable-isotope-labeled organisms" Nature Methods 16(4):295-298. [doi:10.1038/s41592-019-0358-2]
COMMENT: registered in RIKEN PlaSMA
CH$NAME: Gardneramine
CH$COMPOUND_CLASS: 3-alkylindoles
CH$FORMULA: C23H28N2O5
CH$EXACT_MASS: 412.486
CH$SMILES: COC\C=C1/CN2[C@H]3CC45C2C[C@H]1[C@@H]3COC4=NC1=C5C(OC)=C(OC)C=C1OC
CH$IUPAC: InChI=1S/C23H28N2O5/c1-26-6-5-12-10-25-15-9-23-18(25)7-13(12)14(15)11-30-22(23)24-20-16(27-2)8-17(28-3)21(29-4)19(20)23/h5,8,13-15,18H,6-7,9-11H2,1-4H3/b12-5+/t13-,14+,15+,18?,23?/m1/s1
CH$LINK: INCHIKEY RIMDDIPKIZTBHU-KPDHXFAYSA-N
AC$INSTRUMENT: LC, Waters Acquity UPLC System; MS, Waters Xevo G2 Q-Tof
AC$INSTRUMENT_TYPE: LC-ESI-QTOF
AC$MASS_SPECTROMETRY: MS_TYPE MS2
AC$MASS_SPECTROMETRY: ION_MODE POSITIVE
AC$MASS_SPECTROMETRY: COLLISION_ENERGY 6V
AC$MASS_SPECTROMETRY: DESOLVATION_GAS_FLOW 800/h
AC$MASS_SPECTROMETRY: DESOLVATION_TEMPERATURE 450 C
AC$MASS_SPECTROMETRY: IONIZATION ESI
AC$CHROMATOGRAPHY: CAPILLARY_VOLTAGE +3.00 kV
AC$CHROMATOGRAPHY: COLUMN_NAME Acquity bridged ethyl hybrid C18 (1.7 um, 2.1 mm * 100 mm, Waters)
AC$CHROMATOGRAPHY: COLUMN_TEMPERATURE 40 C
AC$CHROMATOGRAPHY: FLOW_GRADIENT A/B = (99.5%/0.5% at 0 min, 99.5%/0.5% at 0.1 min, 20%/80% at 10 min, 0.5%/99.5% at 10.1 min, 0.5%/99.5% at 12.0 min, 99.5%/0.5% at 12.1 min, 99.5%/0.5% at 15.0 min)
AC$CHROMATOGRAPHY: FLOW_RATE 0.3 ml/min at 0 min, 0.3 ml/min at 10 min, 0.4 ml/min at 10.1 min, 0.4 ml/min at 14.4 min, 0.3 ml/min at 14.5 min
AC$CHROMATOGRAPHY: RETENTION_TIME 3.822467
AC$CHROMATOGRAPHY: SOLVENT A water including 0.1% formic acid
AC$CHROMATOGRAPHY: SOLVENT B acetonitrile including 0.1% formic acid
MS$FOCUSED_ION: PRECURSOR_TYPE [M+H]+
MS$FOCUSED_ION: PRECURSOR_M/Z 413.2070985
PK$SPLASH: splash10-03di-0149400000-5f97f2c81361af7c61e1
PK$NUM_PEAK: 184
PK$PEAK: m/z int. rel.int.
  82.06516 7.0 7
  91.05285 5.0 5
  106.0646 21.0 21
  107.0707 8.0 8
  109.06358 6.0 6
  119.07354 17.0 17
  120.08086 24.0 24
  132.07156 9.0 9
  132.08392 24.0 24
  134.09628 20.0 20
  135.09808 6.0 6
  138.09241 10.0 10
  138.09846 12.0 12
  144.08261 6.0 6
  145.08627 5.0 5
  146.0952 39.0 39
  150.09306 6.0 6
  151.1003 8.0 8
  152.10451 22.0 22
  158.09581 14.0 14
  159.11034 6.0 6
  164.10851 23.0 23
  165.11314 5.0 5
  166.08748 7.0 7
  166.11836 8.0 8
  166.12509 9.0 9
  167.1329 6.0 6
  178.11856 9.0 9
  190.05438 6.0 6
  192.06786 10.0 10
  192.09961 5.0 5
  192.10776 6.0 6
  204.07092 6.0 6
  205.06258 5.0 5
  206.0836 18.0 18
  207.04724 7.0 7
  207.08769 6.0 6
  213.07368 6.0 6
  218.04507 22.0 22
  219.07919 5.0 5
  220.06033 12.0 12
  220.09219 24.0 24
  220.10303 24.0 24
  221.06587 11.0 11
  222.07732 16.0 16
  228.0737 11.0 11
  230.07413 7.0 7
  230.09167 8.0 8
  231.07237 8.0 8
  232.0654 6.0 6
  233.0696 197.0 197
  234.07336 57.0 57
  234.11765 6.0 6
  235.09042 8.0 8
  236.09042 10.0 10
  243.06996 5.0 5
  244.05896 5.0 5
  244.08257 7.0 7
  245.0571 59.0 59
  245.08838 11.0 11
  245.10156 7.0 7
  246.07394 19.0 19
  246.0997 7.0 7
  248.09229 113.0 113
  249.0994 20.0 20
  250.10435 7.0 7
  250.11659 5.0 5
  256.05933 7.0 7
  258.09952 6.0 6
  258.10941 5.0 5
  259.06897 13.0 13
  259.08023 11.0 11
  260.07095 22.0 22
  260.08435 37.0 37
  261.07935 18.0 18
  261.09109 17.0 17
  262.10901 12.0 12
  271.08868 25.0 25
  272.08051 9.0 9
  272.09348 10.0 10
  273.082 31.0 31
  273.09491 23.0 23
  274.09622 25.0 25
  276.1236 6.0 6
  277.1424 7.0 7
  282.0632 6.0 6
  282.08191 7.0 7
  284.09488 6.0 6
  286.10599 20.0 20
  287.104 7.0 7
  287.11691 6.0 6
  295.06149 5.0 5
  295.07977 5.0 5
  295.10928 7.0 7
  297.07935 5.0 5
  298.10788 5.0 5
  306.10345 8.0 8
  307.13602 5.0 5
  308.12814 6.0 6
  310.116 9.0 9
  310.14029 6.0 6
  311.10202 15.0 15
  313.12302 11.0 11
  314.12103 6.0 6
  319.10876 7.0 7
  321.12064 9.0 9
  322.10895 7.0 7
  322.12396 6.0 6
  323.09641 8.0 8
  323.11826 19.0 19
  323.13794 12.0 12
  323.15491 6.0 6
  324.12112 12.0 12
  324.16394 11.0 11
  325.11618 15.0 15
  325.13074 10.0 10
  325.1496 9.0 9
  326.11935 8.0 8
  333.11383 6.0 6
  333.12881 7.0 7
  334.10541 21.0 21
  334.12036 8.0 8
  335.11267 9.0 9
  335.12436 7.0 7
  336.10397 7.0 7
  336.11728 6.0 6
  337.1214 33.0 33
  337.15558 7.0 7
  338.12509 22.0 22
  338.14883 8.0 8
  338.17075 9.0 9
  339.13013 17.0 17
  339.14697 9.0 9
  339.17102 9.0 9
  340.12256 5.0 5
  340.14166 6.0 6
  347.14252 7.0 7
  348.13156 7.0 7
  349.14569 11.0 11
  349.15741 7.0 7
  350.12778 8.0 8
  351.12549 42.0 42
  351.14035 68.0 68
  352.13364 13.0 13
  352.14713 26.0 26
  353.14896 106.0 106
  354.14005 9.0 9
  354.15939 18.0 18
  355.13177 5.0 5
  355.16647 42.0 42
  356.17059 10.0 10
  356.18369 12.0 12
  356.20523 6.0 6
  357.18671 6.0 6
  365.15399 78.0 78
  366.1575 121.0 121
  366.18033 7.0 7
  367.16629 294.0 294
  368.13699 6.0 6
  368.15118 26.0 26
  368.17572 41.0 41
  369.13147 6.0 6
  369.18121 29.0 29
  369.19867 6.0 6
  370.14618 6.0 6
  370.16495 6.0 6
  370.19247 35.0 35
  371.16919 6.0 6
  381.1705 11.0 11
  381.19019 10.0 10
  382.18585 6.0 6
  383.13052 12.0 12
  383.16232 204.0 204
  384.15851 45.0 45
  384.1814 6.0 6
  385.16818 10.0 10
  397.177 70.0 70
  398.1459 8.0 8
  398.18472 200.0 200
  399.17126 11.0 11
  399.19235 39.0 39
  400.20026 7.0 7
  413.15558 24.0 24
  413.20755 1000.0 999
//
