ACCESSION: MSBNK-RIKEN-PR300338
RECORD_TITLE: Gelsevirine; LC-ESI-QTOF; MS2
DATE: 2019.03.28
AUTHORS: Tetsuya Mori, Center for Sustainable Resource Science, RIKEN
LICENSE: CC BY-NC-SA
PUBLICATION: Tsugawa H., Nakabayashi R., Mori T., Yamada Y., Takahashi M., Rai A., Sugiyama R., Yamamoto H., Nakaya T., Yamazaki M., Kooke R., Bac-Molenaar JA., Oztolan-Erol N., Keurentjes JJB., Arita M., Saito K. (2019) "A cheminformatics approach to characterize metabolomes in stable-isotope-labeled organisms" Nature Methods 16(4):295-298. [doi:10.1038/s41592-019-0358-2]
COMMENT: registered in RIKEN PlaSMA
CH$NAME: Gelsevirine
CH$COMPOUND_CLASS: Gelsemium alkaloids
CH$FORMULA: C21H24N2O3
CH$EXACT_MASS: 352.434
CH$SMILES: CON1C(=O)[C@@]2([C@H]3[C@H]4[C@H]5CO[C@@H]2C[C@H]5[C@@]3(CN4C)C=C)C2=CC=CC=C12
CH$IUPAC: InChI=1S/C21H24N2O3/c1-4-20-11-22(2)17-12-10-26-16(9-14(12)20)21(18(17)20)13-7-5-6-8-15(13)23(25-3)19(21)24/h4-8,12,14,16-18H,1,9-11H2,2-3H3/t12-,14+,16+,17+,18-,20-,21-/m0/s1
CH$LINK: INCHIKEY SSSCMFCWHWCCEH-MTYPYGCKSA-N
AC$INSTRUMENT: LC, Waters Acquity UPLC System; MS, Waters Xevo G2 Q-Tof
AC$INSTRUMENT_TYPE: LC-ESI-QTOF
AC$MASS_SPECTROMETRY: MS_TYPE MS2
AC$MASS_SPECTROMETRY: ION_MODE POSITIVE
AC$MASS_SPECTROMETRY: COLLISION_ENERGY 6V
AC$MASS_SPECTROMETRY: DESOLVATION_GAS_FLOW 800/h
AC$MASS_SPECTROMETRY: DESOLVATION_TEMPERATURE 450 C
AC$MASS_SPECTROMETRY: IONIZATION ESI
AC$CHROMATOGRAPHY: CAPILLARY_VOLTAGE +3.00 kV
AC$CHROMATOGRAPHY: COLUMN_NAME Acquity bridged ethyl hybrid C18 (1.7 um, 2.1 mm * 100 mm, Waters)
AC$CHROMATOGRAPHY: COLUMN_TEMPERATURE 40 C
AC$CHROMATOGRAPHY: FLOW_GRADIENT A/B = (99.5%/0.5% at 0 min, 99.5%/0.5% at 0.1 min, 20%/80% at 10 min, 0.5%/99.5% at 10.1 min, 0.5%/99.5% at 12.0 min, 99.5%/0.5% at 12.1 min, 99.5%/0.5% at 15.0 min)
AC$CHROMATOGRAPHY: FLOW_RATE 0.3 ml/min at 0 min, 0.3 ml/min at 10 min, 0.4 ml/min at 10.1 min, 0.4 ml/min at 14.4 min, 0.3 ml/min at 14.5 min
AC$CHROMATOGRAPHY: RETENTION_TIME 4.0535
AC$CHROMATOGRAPHY: SOLVENT A water including 0.1% formic acid
AC$CHROMATOGRAPHY: SOLVENT B acetonitrile including 0.1% formic acid
MS$FOCUSED_ION: PRECURSOR_TYPE [M+H]+
MS$FOCUSED_ION: PRECURSOR_M/Z 353.1859691
PK$SPLASH: splash10-014i-1980000000-93c3b6d3c1c199da6518
PK$NUM_PEAK: 458
PK$PEAK: m/z int. rel.int.
  51.17149 28.0 28
  58.06891 27.0 27
  67.04759 28.0 28
  67.05453 65.0 65
  68.04771 121.0 121
  68.05251 62.0 62
  68.06435 23.0 23
  69.03085 32.0 32
  70.06242 16.0 16
  70.06569 46.0 46
  72.07848 20.0 20
  74.05887 44.0 44
  77.03574 176.0 176
  79.0387 26.0 26
  79.04601 20.0 20
  79.05521 32.0 32
  79.06059 16.0 16
  80.0242 20.0 20
  80.03915 28.0 28
  81.77533 19.0 19
  82.06267 92.0 92
  82.06898 124.0 124
  84.04546 23.0 23
  84.07775 67.0 67
  86.05991 23.0 23
  86.0685 21.0 21
  89.02644 22.0 22
  91.03099 30.0 30
  91.05718 167.0 167
  93.02637 16.0 16
  93.0638 38.0 38
  94.05605 26.0 26
  94.06243 68.0 68
  94.06882 141.0 141
  94.07536 20.0 20
  94.44678 16.0 16
  95.04433 37.0 37
  95.07486 80.0 80
  96.04706 39.0 39
  96.07539 58.0 58
  96.08511 20.0 20
  97.0848 21.0 21
  98.05811 20.0 20
  99.06158 35.0 35
  99.09031 19.0 19
  100.07298 50.0 50
  101.32903 16.0 16
  103.05351 49.0 49
  103.05824 35.0 35
  104.04748 22.0 22
  104.05569 79.0 79
  105.01806 18.0 18
  105.07251 65.0 65
  106.0611 59.0 59
  106.07005 40.0 40
  107.043 34.0 34
  107.07318 20.0 20
  108.06451 25.0 25
  108.07894 210.0 210
  108.08698 79.0 79
  110.09599 447.0 447
  112.06727 26.0 26
  113.03085 24.0 24
  115.05241 123.0 123
  115.06538 23.0 23
  116.04721 17.0 17
  116.05521 19.0 19
  116.06178 46.0 46
  117.06777 124.0 124
  117.07531 28.0 28
  118.05874 100.0 100
  119.08753 25.0 25
  120.04846 36.0 36
  120.07635 220.0 220
  120.08315 120.0 120
  121.08233 114.0 114
  121.21468 16.0 16
  122.09846 25.0 25
  123.96783 17.0 17
  124.0812 32.0 32
  125.08627 20.0 20
  127.05052 36.0 36
  127.05984 103.0 103
  128.04355 72.0 72
  128.0509 151.0 151
  128.06029 102.0 102
  129.05382 57.0 57
  129.06445 87.0 87
  129.07303 116.0 116
  130.04849 20.0 20
  130.06148 232.0 232
  130.07431 102.0 102
  131.08569 64.0 64
  131.7421 33.0 33
  132.02956 28.0 28
  132.04318 180.0 180
  132.06483 39.0 39
  132.07889 147.0 147
  132.12663 17.0 17
  133.04726 16.0 16
  133.08043 41.0 41
  134.0417 30.0 30
  134.05707 22.0 22
  134.09685 54.0 54
  134.10901 20.0 20
  135.09663 49.0 49
  139.05646 144.0 144
  140.05049 77.0 77
  140.97697 22.0 22
  142.06308 17.0 17
  142.07893 20.0 20
  143.05128 62.0 62
  143.07137 80.0 80
  144.04733 16.0 16
  144.07671 58.0 58
  144.08423 21.0 21
  144.09775 19.0 19
  145.05049 102.0 102
  145.07974 24.0 24
  145.08696 21.0 21
  145.09837 25.0 25
  146.09613 149.0 149
  146.69945 16.0 16
  147.02681 16.0 16
  147.10127 65.0 65
  147.66293 28.0 28
  148.24028 16.0 16
  150.08803 98.0 98
  150.09552 76.0 76
  151.01204 33.0 33
  151.04622 16.0 16
  151.056 38.0 38
  151.10283 31.0 31
  152.04865 16.0 16
  152.06294 61.0 61
  154.05948 139.0 139
  154.06969 94.0 94
  155.04643 20.0 20
  155.06874 18.0 18
  156.06419 26.0 26
  156.07964 201.0 201
  157.06425 38.0 38
  157.08665 44.0 44
  157.98544 19.0 19
  158.05762 44.0 44
  158.08479 24.0 24
  158.09421 124.0 124
  158.42024 20.0 20
  159.04364 19.0 19
  159.09727 44.0 44
  160.06822 18.0 18
  160.07471 21.0 21
  160.10712 34.0 34
  161.08076 29.0 29
  162.05449 19.0 19
  165.03761 31.0 31
  165.05466 60.0 60
  165.06653 142.0 142
  165.07613 130.0 130
  165.70844 20.0 20
  166.04239 26.0 26
  166.06485 1000.0 999
  166.07762 97.0 97
  167.03525 26.0 26
  167.04816 38.0 38
  167.06609 271.0 271
  167.07458 116.0 116
  167.08786 44.0 44
  168.0675 99.0 99
  168.08089 105.0 105
  168.08882 45.0 45
  169.05609 22.0 22
  169.07994 55.0 55
  169.11188 17.0 17
  170.06134 74.0 74
  170.09059 53.0 53
  170.10919 31.0 31
  171.08142 26.0 26
  172.07365 33.0 33
  172.09761 44.0 44
  173.07266 25.0 25
  173.08182 40.0 40
  176.05144 46.0 46
  177.03989 25.0 25
  177.05566 45.0 45
  177.07222 45.0 45
  178.05406 81.0 81
  178.06801 305.0 305
  178.08241 58.0 58
  179.05324 20.0 20
  179.06175 57.0 57
  179.07646 72.0 72
  179.08717 88.0 88
  179.50998 19.0 19
  180.06473 71.0 71
  180.08052 414.0 414
  181.0361 34.0 34
  181.07394 146.0 146
  181.08121 103.0 103
  181.09248 58.0 58
  182.0574 164.0 164
  182.07411 35.0 35
  182.08441 52.0 52
  182.09914 24.0 24
  183.06702 64.0 64
  183.0932 77.0 77
  184.048 22.0 22
  184.06339 44.0 44
  184.07602 193.0 193
  186.12492 20.0 20
  187.0751 44.0 44
  187.08769 38.0 38
  188.07578 18.0 18
  189.06386 57.0 57
  189.07312 27.0 27
  189.71799 27.0 27
  190.06297 200.0 200
  190.0817 19.0 19
  191.0545 45.0 45
  191.06812 70.0 70
  191.07866 139.0 139
  191.80179 17.0 17
  192.08092 276.0 276
  193.07001 30.0 30
  193.0826 69.0 69
  193.09364 52.0 52
  194.05763 62.0 62
  194.08757 90.0 90
  194.10132 89.0 89
  194.1972 26.0 26
  195.06012 46.0 46
  195.07217 24.0 24
  195.09169 61.0 61
  195.10361 52.0 52
  195.86948 19.0 19
  196.07431 188.0 188
  196.08751 68.0 68
  196.10413 100.0 100
  196.96483 16.0 16
  197.03793 28.0 28
  197.06128 94.0 94
  197.07674 135.0 135
  197.09373 16.0 16
  198.05582 118.0 118
  198.06898 34.0 34
  198.08015 74.0 74
  199.05176 45.0 45
  199.07089 19.0 19
  199.09258 16.0 16
  201.05502 27.0 27
  201.06746 70.0 70
  202.05861 60.0 60
  202.07545 179.0 179
  202.09767 19.0 19
  202.70644 28.0 28
  203.05905 16.0 16
  203.07631 247.0 247
  203.0994 24.0 24
  203.12605 31.0 31
  204.07332 119.0 119
  204.07979 347.0 347
  204.09001 102.0 102
  204.10414 20.0 20
  205.09401 78.0 78
  206.05301 23.0 23
  206.08241 51.0 51
  206.0923 68.0 68
  206.10866 28.0 28
  207.10725 60.0 60
  208.06802 213.0 213
  208.08612 47.0 47
  208.10347 19.0 19
  208.12219 17.0 17
  208.78787 35.0 35
  209.05055 22.0 22
  209.0688 16.0 16
  209.07861 76.0 76
  209.11302 56.0 56
  210.06551 50.0 50
  210.07475 60.0 60
  210.08473 93.0 93
  210.09755 53.0 53
  210.11176 19.0 19
  211.02635 19.0 19
  211.05267 31.0 31
  211.08214 251.0 251
  211.09238 230.0 230
  211.12556 19.0 19
  212.07393 23.0 23
  212.09212 92.0 92
  212.95517 53.0 53
  213.0616 28.0 28
  213.07036 49.0 49
  213.95639 24.0 24
  214.05545 28.0 28
  214.06143 69.0 69
  214.07576 59.0 59
  214.11079 36.0 36
  215.04622 38.0 38
  215.07622 333.0 333
  215.09271 125.0 125
  215.10782 36.0 36
  216.07947 332.0 332
  216.09094 164.0 164
  216.1022 26.0 26
  216.12747 19.0 19
  217.09035 426.0 426
  217.10674 46.0 46
  218.09218 342.0 342
  219.09506 65.0 65
  219.10484 50.0 50
  219.20415 22.0 22
  220.06104 65.0 65
  220.07332 183.0 183
  220.10091 98.0 98
  220.11499 139.0 139
  220.13434 28.0 28
  221.08418 46.0 46
  221.10199 50.0 50
  221.11731 29.0 29
  222.049 19.0 19
  222.08049 42.0 42
  222.10443 71.0 71
  222.11977 17.0 17
  223.08369 16.0 16
  223.09146 29.0 29
  224.07193 16.0 16
  224.10751 32.0 32
  225.06549 16.0 16
  225.07367 27.0 27
  226.05374 28.0 28
  226.07198 54.0 54
  226.0864 21.0 21
  227.07477 248.0 248
  227.09302 44.0 44
  228.06509 45.0 45
  228.08017 457.0 457
  228.09453 73.0 73
  229.07143 53.0 53
  229.08624 206.0 206
  229.09543 79.0 79
  230.06931 56.0 56
  230.08928 153.0 153
  230.09766 110.0 110
  230.11122 25.0 25
  230.43254 23.0 23
  231.08485 46.0 46
  231.09517 198.0 198
  231.11325 20.0 20
  232.06487 43.0 43
  232.07858 16.0 16
  232.09799 88.0 88
  232.11391 106.0 106
  232.1218 34.0 34
  233.08392 95.0 95
  233.10652 46.0 46
  233.12419 26.0 26
  234.07932 223.0 223
  234.10316 31.0 31
  235.08946 80.0 80
  237.09349 28.0 28
  237.10353 96.0 96
  237.11507 24.0 24
  238.1032 17.0 17
  239.076 18.0 18
  239.12976 24.0 24
  239.22794 22.0 22
  240.05396 29.0 29
  240.07005 97.0 97
  240.07979 317.0 317
  241.07433 28.0 28
  241.09084 392.0 392
  242.07527 42.0 42
  242.09058 202.0 202
  242.09964 206.0 206
  243.06367 41.0 41
  243.10222 42.0 42
  243.11374 53.0 53
  244.04424 17.0 17
  244.06601 16.0 16
  244.0782 53.0 53
  244.09616 19.0 19
  244.11752 76.0 76
  245.07903 46.0 46
  245.10124 28.0 28
  245.10838 58.0 58
  246.07112 24.0 24
  246.09088 154.0 154
  246.10611 78.0 78
  247.07922 27.0 27
  247.0954 107.0 107
  247.12488 16.0 16
  247.14101 25.0 25
  248.02667 16.0 16
  248.09013 99.0 99
  248.10477 116.0 116
  248.12144 28.0 28
  249.09448 24.0 24
  249.12671 21.0 21
  249.13966 19.0 19
  250.08774 26.0 26
  250.10948 16.0 16
  251.12077 38.0 38
  252.08257 37.0 37
  252.13618 18.0 18
  253.10738 27.0 27
  253.46956 23.0 23
  254.07219 17.0 17
  254.09198 131.0 131
  254.10841 29.0 29
  254.53767 21.0 21
  255.09773 22.0 22
  255.11217 64.0 64
  256.09787 25.0 25
  256.12195 24.0 24
  257.08289 16.0 16
  258.07535 17.0 17
  258.09204 86.0 86
  258.10745 16.0 16
  259.0968 51.0 51
  259.10739 59.0 59
  260.07706 23.0 23
  260.0918 51.0 51
  260.10953 213.0 213
  260.13144 19.0 19
  261.09161 43.0 43
  261.10559 135.0 135
  261.13254 25.0 25
  262.1131 49.0 49
  262.15692 19.0 19
  270.10477 25.0 25
  270.11459 27.0 27
  271.09784 16.0 16
  272.0993 24.0 24
  272.11273 26.0 26
  274.1059 24.0 24
  274.11453 35.0 35
  274.12949 21.0 21
  275.10458 18.0 18
  275.12357 63.0 63
  276.06961 16.0 16
  276.112 19.0 19
  278.11032 21.0 21
  279.10471 20.0 20
  279.11835 17.0 17
  281.69437 18.0 18
  288.08698 28.0 28
  288.10776 24.0 24
  288.13559 17.0 17
  289.1235 21.0 21
  289.134 22.0 22
  291.15778 36.0 36
  293.12646 17.0 17
  303.14975 20.0 20
  306.33347 18.0 18
  307.14883 19.0 19
  327.45737 21.0 21
  347.08289 24.0 24
//
