ACCESSION: MSBNK-RIKEN-PR304296
RECORD_TITLE: Licoricesaponin G2; LC-ESI-QTOF; MS2
DATE: 2019.03.28
AUTHORS: Tetsuya Mori, Center for Sustainable Resource Science, RIKEN
LICENSE: CC BY-NC-SA
PUBLICATION: Tsugawa H., Nakabayashi R., Mori T., Yamada Y., Takahashi M., Rai A., Sugiyama R., Yamamoto H., Nakaya T., Yamazaki M., Kooke R., Bac-Molenaar JA., Oztolan-Erol N., Keurentjes JJB., Arita M., Saito K. (2019) "A cheminformatics approach to characterize metabolomes in stable-isotope-labeled organisms" Nature Methods 16(4):295-298. [doi:10.1038/s41592-019-0358-2]
COMMENT: registered in RIKEN PlaSMA
CH$NAME: Licoricesaponin G2
CH$COMPOUND_CLASS: Triterpene saponins
CH$FORMULA: C42H62O17
CH$EXACT_MASS: 838.941
CH$SMILES: C[C@]12CC[C@@](C)(C[C@H]1C1=CC(=O)[C@@H]3[C@@]4(C)CC[C@H](O[C@@H]5O[C@@H]([C@@H](O)[C@H](O)[C@H]5O[C@@H]5O[C@@H]([C@@H](O)[C@H](O)[C@H]5O)C(O)=O)C(O)=O)[C@](C)(CO)[C@@H]4CC[C@@]3(C)[C@]1(C)CC2)C(O)=O
CH$IUPAC: InChI=1S/C42H62O17/c1-37-11-12-38(2,36(54)55)16-19(37)18-15-20(44)31-39(3)9-8-22(40(4,17-43)21(39)7-10-42(31,6)41(18,5)14-13-37)56-35-30(26(48)25(47)29(58-35)33(52)53)59-34-27(49)23(45)24(46)28(57-34)32(50)51/h15,19,21-31,34-35,43,45-49H,7-14,16-17H2,1-6H3,(H,50,51)(H,52,53)(H,54,55)/t19-,21+,22-,23-,24-,25-,26-,27+,28-,29-,30+,31+,34-,35+,37+,38-,39-,40+,41+,42+/m0/s1
CH$LINK: INCHIKEY WBQVRPYEEYUEBQ-OJVDLISWSA-N
AC$INSTRUMENT: LC, Waters Acquity UPLC System; MS, Waters Xevo G2 Q-Tof
AC$INSTRUMENT_TYPE: LC-ESI-QTOF
AC$MASS_SPECTROMETRY: MS_TYPE MS2
AC$MASS_SPECTROMETRY: ION_MODE POSITIVE
AC$MASS_SPECTROMETRY: COLLISION_ENERGY 6V
AC$MASS_SPECTROMETRY: DESOLVATION_GAS_FLOW 800/h
AC$MASS_SPECTROMETRY: DESOLVATION_TEMPERATURE 450 C
AC$MASS_SPECTROMETRY: IONIZATION ESI
AC$CHROMATOGRAPHY: CAPILLARY_VOLTAGE +3.00 kV
AC$CHROMATOGRAPHY: COLUMN_NAME Acquity bridged ethyl hybrid C18 (1.7 um, 2.1 mm * 100 mm, Waters)
AC$CHROMATOGRAPHY: COLUMN_TEMPERATURE 40 C
AC$CHROMATOGRAPHY: FLOW_GRADIENT A/B = (99.5%/0.5% at 0 min, 99.5%/0.5% at 0.1 min, 20%/80% at 10 min, 0.5%/99.5% at 10.1 min, 0.5%/99.5% at 12.0 min, 99.5%/0.5% at 12.1 min, 99.5%/0.5% at 15.0 min)
AC$CHROMATOGRAPHY: FLOW_RATE 0.3 ml/min at 0 min, 0.3 ml/min at 10 min, 0.4 ml/min at 10.1 min, 0.4 ml/min at 14.4 min, 0.3 ml/min at 14.5 min
AC$CHROMATOGRAPHY: RETENTION_TIME 6.355767
AC$CHROMATOGRAPHY: SOLVENT A water including 0.1% formic acid
AC$CHROMATOGRAPHY: SOLVENT B acetonitrile including 0.1% formic acid
MS$FOCUSED_ION: PRECURSOR_TYPE [M+H]+
MS$FOCUSED_ION: PRECURSOR_M/Z 839.405977
PK$SPLASH: splash10-014r-0000900000-764cfbd2ace36e6a5c73
PK$NUM_PEAK: 32
PK$PEAK: m/z int. rel.int.
  141.01521 25.0 25
  142.02219 8.0 8
  159.02864 43.0 43
  177.03587 15.0 15
  317.05756 5.0 5
  439.31705 10.0 10
  451.31442 84.0 84
  451.33847 33.0 33
  452.3107 16.0 16
  452.33453 34.0 34
  453.32581 6.0 6
  469.33148 1000.0 999
  470.27557 6.0 6
  470.33203 296.0 296
  470.35379 70.0 70
  471.3302 43.0 43
  471.35712 17.0 17
  487.33044 241.0 241
  487.3533 253.0 253
  488.32932 53.0 53
  488.35294 119.0 119
  489.33154 9.0 9
  489.35541 15.0 15
  489.37152 6.0 6
  627.34589 16.0 16
  627.3775 7.0 7
  628.36902 8.0 8
  645.35785 23.0 23
  645.39185 14.0 14
  646.37646 8.0 8
  647.36206 6.0 6
  663.39191 7.0 7
//
