ACCESSION: MSBNK-RIKEN-PR310620
RECORD_TITLE: Pteropodine; LC-ESI-QTOF; MS2
DATE: 2019.03.28
AUTHORS: Tetsuya Mori, Center for Sustainable Resource Science, RIKEN
LICENSE: CC BY-NC-SA
PUBLICATION: Tsugawa H., Nakabayashi R., Mori T., Yamada Y., Takahashi M., Rai A., Sugiyama R., Yamamoto H., Nakaya T., Yamazaki M., Kooke R., Bac-Molenaar JA., Oztolan-Erol N., Keurentjes JJB., Arita M., Saito K. (2019) "A cheminformatics approach to characterize metabolomes in stable-isotope-labeled organisms" Nature Methods 16(4):295-298. [doi:10.1038/s41592-019-0358-2]
COMMENT: Annotation level-1
CH$NAME: Pteropodine
CH$COMPOUND_CLASS: Alkaloids
CH$FORMULA: C21H24N2O4
CH$EXACT_MASS: 368.433
CH$SMILES: COC(=O)C1=COC(C)C2CN3CCC4(C3CC12)C(=O)NC1=C4C=CC=C1
CH$IUPAC: InChI=1S/C21H24N2O4/c1-12-14-10-23-8-7-21(16-5-3-4-6-17(16)22-20(21)25)18(23)9-13(14)15(11-27-12)19(24)26-2/h3-6,11-14,18H,7-10H2,1-2H3,(H,22,25)
CH$LINK: INCHIKEY JMIAZDVHNCCPDM-UHFFFAOYSA-N
AC$INSTRUMENT: LC, Waters Acquity UPLC System; MS, Waters Xevo G2 Q-Tof
AC$INSTRUMENT_TYPE: LC-ESI-QTOF
AC$MASS_SPECTROMETRY: MS_TYPE MS2
AC$MASS_SPECTROMETRY: ION_MODE POSITIVE
AC$MASS_SPECTROMETRY: COLLISION_ENERGY 6V
AC$MASS_SPECTROMETRY: DESOLVATION_GAS_FLOW 800/h
AC$MASS_SPECTROMETRY: DESOLVATION_TEMPERATURE 450 C
AC$MASS_SPECTROMETRY: IONIZATION ESI
AC$CHROMATOGRAPHY: CAPILLARY_VOLTAGE +3.00 kV
AC$CHROMATOGRAPHY: COLUMN_NAME Acquity bridged ethyl hybrid C18 (1.7 um, 2.1 mm * 100 mm, Waters)
AC$CHROMATOGRAPHY: COLUMN_TEMPERATURE 40 C
AC$CHROMATOGRAPHY: FLOW_GRADIENT A/B = (99.5%/0.5% at 0 min, 99.5%/0.5% at 0.1 min, 20%/80% at 10 min, 0.5%/99.5% at 10.1 min, 0.5%/99.5% at 12.0 min, 99.5%/0.5% at 12.1 min, 99.5%/0.5% at 15.0 min)
AC$CHROMATOGRAPHY: FLOW_RATE 0.3 ml/min at 0 min, 0.3 ml/min at 10 min, 0.4 ml/min at 10.1 min, 0.4 ml/min at 14.4 min, 0.3 ml/min at 14.5 min
AC$CHROMATOGRAPHY: RETENTION_TIME 4.24
AC$CHROMATOGRAPHY: SOLVENT A water including 0.1% formic acid
AC$CHROMATOGRAPHY: SOLVENT B acetonitrile including 0.1% formic acid
MS$FOCUSED_ION: PRECURSOR_TYPE [M+H]+
MS$FOCUSED_ION: PRECURSOR_M/Z 369.18088
PK$SPLASH: splash10-014i-0319000000-1fca39c7774e45bea552
PK$NUM_PEAK: 668
PK$PEAK: m/z int. rel.int.
  55.05422 42.0 0
  56.03811 20.0 0
  56.04863 54.0 1
  58.06413 21.0 0
  67.0551 19.0 0
  68.04572 35.0 0
  68.05459 29.0 0
  70.05862 70.0 1
  70.06384 56.0 1
  70.38117 28.0 0
  79.05215 41.0 0
  80.04935 110.0 1
  80.06236 27.0 0
  81.03101 32.0 0
  81.0566 18.0 0
  81.06406 87.0 1
  83.04845 37.0 0
  84.08602 74.0 1
  94.37083 19.0 0
  95.04317 34.0 0
  95.07402 39.0 0
  96.07703 28.0 0
  97.04442 24.0 0
  98.06039 27.0 0
  103.04916 21.0 0
  103.7237 30.0 0
  104.04667 43.0 0
  104.12016 43.0 0
  105.02632 20.0 0
  105.05974 22.0 0
  105.07041 85.0 1
  106.05611 17.0 0
  106.06416 48.0 0
  106.06927 26.0 0
  107.07433 43.0 0
  107.23969 22.0 0
  108.04224 20.0 0
  108.07949 645.0 6
  109.05247 62.0 1
  109.0645 89.0 1
  109.08393 149.0 1
  109.09096 39.0 0
  110.05839 65.0 1
  110.09582 159.0 2
  111.09201 19.0 0
  111.89613 29.0 0
  113.60361 17.0 0
  114.98006 21.0 0
  115.02747 24.0 0
  115.05408 612.0 6
  115.45819 27.0 0
  115.82719 35.0 0
  116.04626 61.0 1
  116.05482 50.0 0
  116.17303 20.0 0
  116.87537 20.0 0
  117.04984 162.0 2
  117.05855 209.0 2
  117.06894 51.0 0
  117.37238 25.0 0
  117.97191 17.0 0
  118.02633 20.0 0
  118.04377 40.0 0
  118.06363 588.0 6
  118.07374 62.0 1
  119.04925 39.0 0
  119.06799 43.0 0
  119.28219 17.0 0
  120.21071 33.0 0
  120.46555 29.0 0
  121.09048 100.0 1
  121.46618 23.0 0
  122.08766 22.0 0
  122.09438 81.0 1
  123.08162 49.0 0
  123.09812 50.0 0
  124.03976 764.0 7
  124.10599 39.0 0
  125.05408 54.0 1
  127.05019 17.0 0
  127.07844 44.0 0
  128.04489 53.0 1
  130.06366 555.0 5
  131.0598 34.0 0
  131.07257 107.0 1
  131.31821 26.0 0
  131.50005 18.0 0
  131.77541 21.0 0
  132.01735 62.0 1
  132.04379 1401.0 13
  132.04977 382.0 4
  132.06438 50.0 0
  132.07973 2636.0 25
  132.83221 26.0 0
  132.84399 35.0 0
  133.02757 23.0 0
  133.04791 106.0 1
  133.07143 34.0 0
  133.0851 198.0 2
  134.0947 110.0 1
  135.02483 17.0 0
  135.04506 20.0 0
  135.07381 24.0 0
  135.07962 23.0 0
  136.07385 33.0 0
  136.10886 24.0 0
  137.04155 28.0 0
  137.04668 33.0 0
  137.05841 62.0 1
  138.05183 44.0 0
  139.03773 246.0 2
  139.07678 166.0 2
  139.9921 29.0 0
  140.03139 17.0 0
  140.04156 99.0 1
  140.85638 24.0 0
  141.07219 33.0 0
  142.03764 21.0 0
  142.06454 3259.0 31
  142.62439 32.0 0
  143.01227 24.0 0
  143.05115 33.0 0
  143.06662 344.0 3
  143.07904 54.0 1
  144.04512 33.0 0
  144.07881 519.0 5
  144.13785 42.0 0
  145.04752 47.0 0
  145.08379 48.0 0
  146.05801 119.0 1
  146.06502 28.0 0
  146.09196 130.0 1
  146.10356 20.0 0
  147.0629 42.0 0
  147.09421 21.0 0
  147.74174 17.0 0
  148.10771 17.0 0
  148.61711 29.0 0
  149.06316 24.0 0
  150.08487 138.0 1
  150.09314 224.0 2
  151.06274 29.0 0
  151.07742 35.0 0
  151.09247 28.0 0
  151.10089 30.0 0
  154.04834 35.0 0
  154.0645 92.0 1
  154.8768 23.0 0
  155.05284 36.0 0
  155.06656 89.0 1
  155.91023 17.0 0
  156.07651 17.0 0
  156.08682 35.0 0
  156.56949 18.0 0
  157.07541 31.0 0
  157.08932 24.0 0
  157.83487 28.0 0
  157.86513 43.0 0
  158.0065 21.0 0
  158.02275 23.0 0
  158.0602 1784.0 17
  158.09381 197.0 2
  158.10651 29.0 0
  159.06685 283.0 3
  159.08627 59.0 1
  159.09926 45.0 0
  159.15131 19.0 0
  159.25992 17.0 0
  159.80392 20.0 0
  159.87769 17.0 0
  159.90849 17.0 0
  159.95792 24.0 0
  160.00066 29.0 0
  160.03683 86.0 1
  160.04471 105.0 1
  160.05611 75.0 1
  160.07509 21425.0 206
  160.11177 197.0 2
  160.13626 31.0 0
  160.30215 17.0 0
  160.40077 17.0 0
  160.60214 21.0 0
  161.0417 44.0 0
  161.05482 65.0 1
  161.07703 2832.0 27
  161.99825 25.0 0
  162.07201 18.0 0
  162.08401 147.0 1
  162.09071 43.0 0
  162.60841 34.0 0
  162.84602 17.0 0
  163.08896 17.0 0
  164.10892 18.0 0
  164.59755 17.0 0
  166.05431 44.0 0
  166.07207 58.0 1
  166.55135 26.0 0
  167.04536 26.0 0
  167.05791 41.0 0
  167.07304 362.0 3
  167.77902 24.0 0
  168.07166 129.0 1
  168.08318 80.0 1
  169.0666 73.0 1
  169.08464 140.0 1
  169.62532 64.0 1
  170.05797 30.0 0
  170.0845 25.0 0
  170.09486 182.0 2
  170.47704 30.0 0
  171.05672 28.0 0
  171.09421 28.0 0
  172.0612 48.0 0
  172.07756 317.0 3
  172.10379 43.0 0
  172.74364 36.0 0
  173.04628 22.0 0
  173.076 118.0 1
  173.11351 139.0 1
  174.09154 62.0 1
  176.0735 21.0 0
  176.08847 27.0 0
  177.03932 26.0 0
  178.05356 17.0 0
  178.06616 26.0 0
  178.08585 2208.0 21
  178.93658 17.0 0
  179.08603 240.0 2
  180.07237 48.0 0
  180.10616 46.0 0
  181.08096 56.0 1
  182.07378 80.0 1
  182.0929 41.0 0
  183.09117 45.0 0
  183.12378 37.0 0
  183.27121 17.0 0
  183.55943 25.0 0
  183.96964 17.0 0
  184.05016 25.0 0
  184.05983 52.0 1
  184.06946 85.0 1
  184.07629 153.0 1
  185.04938 25.0 0
  185.06476 21.0 0
  185.07346 24.0 0
  185.09032 40.0 0
  185.10204 41.0 0
  185.10941 71.0 1
  185.14851 22.0 0
  185.65469 18.0 0
  186.05945 29.0 0
  186.07051 42.0 0
  186.09091 417.0 4
  187.0636 83.0 1
  187.08752 973.0 9
  187.0999 112.0 1
  187.12148 23.0 0
  188.08867 63.0 1
  188.4456 17.0 0
  191.20557 29.0 0
  192.09979 63.0 1
  193.08154 30.0 0
  193.3279 21.0 0
  194.05493 38.0 0
  195.05183 20.0 0
  195.08905 42.0 0
  195.09933 55.0 1
  196.07747 27.0 0
  197.08461 22.0 0
  197.27356 18.0 0
  198.09859 73.0 1
  199.08287 335.0 3
  199.09471 79.0 1
  199.5853 18.0 0
  200.96709 55.0 1
  201.06709 49.0 0
  201.10165 4916.0 47
  201.17311 20.0 0
  201.26962 22.0 0
  202.06526 24.0 0
  202.08818 91.0 1
  202.10617 590.0 6
  203.09999 27.0 0
  203.11371 86.0 1
  203.12398 61.0 1
  204.43423 29.0 0
  204.81775 17.0 0
  206.09868 23.0 0
  206.22586 19.0 0
  207.57881 18.0 0
  208.00424 20.0 0
  208.10295 76.0 1
  208.61267 19.0 0
  208.66574 19.0 0
  209.02243 28.0 0
  209.08249 42.0 0
  210.08113 22.0 0
  210.09409 120.0 1
  210.11072 736.0 7
  210.29205 27.0 0
  211.07845 28.0 0
  211.08673 48.0 0
  211.09602 26.0 0
  211.12057 19.0 0
  212.067 20.0 0
  212.07631 64.0 1
  212.09348 32.0 0
  212.11467 20.0 0
  212.19234 30.0 0
  212.74184 18.0 0
  212.98822 23.0 0
  213.01585 17.0 0
  213.0305 23.0 0
  213.04485 27.0 0
  213.071 109.0 1
  213.10168 4432.0 43
  213.12999 37.0 0
  213.25696 21.0 0
  214.06662 41.0 0
  214.10168 255.0 2
  214.11009 508.0 5
  215.08124 19.0 0
  215.09657 27.0 0
  215.11649 609.0 6
  215.1895 17.0 0
  216.10901 76.0 1
  216.11804 27.0 0
  216.27431 23.0 0
  217.59775 19.0 0
  217.76643 19.0 0
  218.4135 20.0 0
  219.09132 19.0 0
  219.591 30.0 0
  219.64091 29.0 0
  220.14023 19.0 0
  220.83476 20.0 0
  221.0735 57.0 1
  221.09859 21.0 0
  221.44095 18.0 0
  222.0634 25.0 0
  222.10759 20.0 0
  222.58766 31.0 0
  222.75078 27.0 0
  223.08351 23.0 0
  223.11673 27.0 0
  223.30928 21.0 0
  223.60648 50.0 0
  224.10664 29.0 0
  224.14781 19.0 0
  224.94254 22.0 0
  225.10175 101.0 1
  225.11281 45.0 0
  225.13858 31.0 0
  225.23367 42.0 0
  226.10277 27.0 0
  226.12143 67.0 1
  226.27368 18.0 0
  226.88966 21.0 0
  227.31125 31.0 0
  228.07994 20.0 0
  228.12982 20.0 0
  228.47282 20.0 0
  229.442 24.0 0
  230.13979 100.0 1
  230.1492 44.0 0
  230.43802 41.0 0
  231.11093 20.0 0
  232.36644 24.0 0
  233.10101 51.0 0
  234.20258 17.0 0
  234.52013 37.0 0
  234.77258 21.0 0
  235.09311 29.0 0
  235.127 34.0 0
  236.07883 22.0 0
  236.10696 30.0 0
  237.06059 20.0 0
  237.07283 40.0 0
  237.10313 776.0 7
  237.12964 36.0 0
  238.09866 73.0 1
  238.10938 47.0 0
  238.19612 32.0 0
  238.63216 23.0 0
  239.04816 24.0 0
  239.11623 1412.0 14
  239.13638 34.0 0
  239.39075 18.0 0
  239.60681 45.0 0
  240.06432 29.0 0
  240.12337 483.0 5
  240.27579 31.0 0
  241.08693 29.0 0
  241.09692 32.0 0
  241.13213 616.0 6
  242.04382 25.0 0
  242.13821 27.0 0
  245.18173 17.0 0
  245.89053 33.0 0
  246.99298 23.0 0
  247.09183 25.0 0
  247.34296 30.0 0
  248.91917 21.0 0
  249.14378 47.0 0
  250.11426 18.0 0
  250.12212 30.0 0
  250.62039 25.0 0
  250.97662 17.0 0
  251.10977 18.0 0
  251.11801 46.0 0
  252.09831 33.0 0
  252.14185 28.0 0
  253.0634 25.0 0
  253.07455 66.0 1
  253.09825 63.0 1
  253.13229 158.0 2
  253.16145 38.0 0
  253.26289 28.0 0
  254.08887 34.0 0
  254.10728 21.0 0
  254.13084 17.0 0
  255.11342 50.0 0
  255.15427 29.0 0
  256.11853 33.0 0
  256.36938 33.0 0
  257.72455 33.0 0
  258.69196 20.0 0
  260.56454 17.0 0
  261.91727 21.0 0
  262.12296 24.0 0
  262.98251 18.0 0
  263.06619 20.0 0
  263.10916 59.0 1
  263.12103 27.0 0
  263.6055 20.0 0
  264.073 38.0 0
  264.16772 19.0 0
  264.4071 18.0 0
  264.67621 20.0 0
  264.93958 38.0 0
  265.03217 53.0 1
  265.07278 134.0 1
  265.09741 3099.0 30
  265.13358 825.0 8
  265.15402 86.0 1
  265.17972 34.0 0
  265.38937 19.0 0
  265.67044 18.0 0
  265.90649 27.0 0
  266.05902 21.0 0
  266.09375 255.0 2
  266.1077 267.0 3
  266.12119 103.0 1
  266.14169 169.0 2
  266.1568 46.0 0
  267.14743 1264.0 12
  267.16095 198.0 2
  268.07309 25.0 0
  268.11136 42.0 0
  268.13 24.0 0
  268.14963 200.0 2
  268.15881 56.0 1
  269.05032 26.0 0
  269.07019 29.0 0
  269.08994 142.0 1
  269.09897 88.0 1
  269.29327 23.0 0
  269.4516 20.0 0
  270.10333 45.0 0
  271.08765 27.0 0
  271.10681 30.0 0
  273.89383 28.0 0
  274.43219 20.0 0
  275.10999 70.0 1
  275.8974 25.0 0
  276.15714 41.0 0
  276.31366 23.0 0
  276.85794 19.0 0
  277.12387 19.0 0
  278.11905 17.0 0
  279.0892 17.0 0
  279.48923 45.0 0
  280.08185 26.0 0
  280.12958 21.0 0
  280.16467 34.0 0
  281.03961 22.0 0
  281.06635 25.0 0
  281.08749 266.0 3
  281.14398 22.0 0
  281.16876 173.0 2
  282.07825 62.0 1
  282.09637 46.0 0
  282.11539 43.0 0
  282.14679 22.0 0
  282.16858 25.0 0
  283.09085 41.0 0
  283.11389 321.0 3
  283.15829 23.0 0
  283.30701 22.0 0
  283.90424 24.0 0
  285.06183 17.0 0
  285.87091 21.0 0
  287.01193 28.0 0
  289.02942 29.0 0
  290.12726 37.0 0
  290.73602 18.0 0
  290.76675 23.0 0
  291.08435 17.0 0
  291.11249 53.0 1
  291.14868 388.0 4
  291.31113 17.0 0
  292.13263 20.0 0
  292.15268 101.0 1
  292.53409 23.0 0
  292.8201 36.0 0
  292.91986 26.0 0
  293.09927 66.0 1
  293.12967 1693.0 16
  293.7785 17.0 0
  294.12494 199.0 2
  294.24063 21.0 0
  294.61832 27.0 0
  294.89499 24.0 0
  295.10077 29.0 0
  295.13345 23.0 0
  295.15479 24.0 0
  295.38431 28.0 0
  296.12976 24.0 0
  296.14917 29.0 0
  297.03555 22.0 0
  297.12161 61.0 1
  297.31393 17.0 0
  298.38922 20.0 0
  301.48883 28.0 0
  303.11771 30.0 0
  304.54932 40.0 0
  306.33218 46.0 0
  307.09204 21.0 0
  307.13165 23.0 0
  307.14548 175.0 2
  307.17249 25.0 0
  307.65924 17.0 0
  307.86926 58.0 1
  307.88196 20.0 0
  307.93896 36.0 0
  308.1405 107.0 1
  308.95575 26.0 0
  309.13214 24.0 0
  309.15735 1487.0 14
  310.12299 31.0 0
  310.15005 251.0 2
  310.17093 37.0 0
  310.7821 20.0 0
  311.17194 24.0 0
  311.18646 33.0 0
  311.77875 45.0 0
  312.75873 17.0 0
  312.7775 23.0 0
  315.88531 23.0 0
  319.12469 72.0 1
  319.13766 132.0 1
  319.1499 126.0 1
  320.13834 25.0 0
  320.15128 21.0 0
  322.06906 27.0 0
  323.18652 59.0 1
  324.18253 57.0 1
  325.11664 78.0 1
  325.15689 672.0 6
  325.27197 37.0 0
  325.43726 23.0 0
  326.13989 21.0 0
  326.15729 121.0 1
  327.0975 37.0 0
  327.70856 22.0 0
  328.30032 18.0 0
  331.17377 28.0 0
  331.43094 19.0 0
  333.53482 17.0 0
  335.14627 67.0 1
  335.50372 17.0 0
  335.69016 18.0 0
  336.43497 18.0 0
  336.58743 17.0 0
  336.66251 17.0 0
  336.71622 27.0 0
  336.7749 26.0 0
  336.94818 17.0 0
  336.96695 23.0 0
  337.01947 20.0 0
  337.05286 23.0 0
  337.08371 114.0 1
  337.10718 366.0 4
  337.15347 26561.0 256
  337.20828 260.0 3
  337.2666 18.0 0
  337.4375 28.0 0
  337.50858 20.0 0
  337.9552 24.0 0
  338.0932 131.0 1
  338.10971 164.0 2
  338.15869 5705.0 55
  338.37277 54.0 1
  338.4371 25.0 0
  338.59531 31.0 0
  338.6329 33.0 0
  338.65271 18.0 0
  338.67358 18.0 0
  338.73105 20.0 0
  338.76657 20.0 0
  339.03036 24.0 0
  339.11444 169.0 2
  339.16107 863.0 8
  339.52234 46.0 0
  340.15207 23.0 0
  340.16507 37.0 0
  340.65051 21.0 0
  340.84671 37.0 0
  341.17694 100.0 1
  344.49075 17.0 0
  344.62732 21.0 0
  346.05746 21.0 0
  346.82468 20.0 0
  348.26108 60.0 1
  350.18414 17.0 0
  351.15579 20.0 0
  351.18494 45.0 0
  354.22015 22.0 0
  354.74997 25.0 0
  356.00211 17.0 0
  357.11002 23.0 0
  361.72736 17.0 0
  362.1051 22.0 0
  362.13593 19.0 0
  362.81583 20.0 0
  363.6835 17.0 0
  364.26511 21.0 0
  364.67587 28.0 0
  365.56158 18.0 0
  365.73111 20.0 0
  366.96472 36.0 0
  367.05759 18.0 0
  367.16705 224.0 2
  367.43011 21.0 0
  367.63959 17.0 0
  367.96524 17.0 0
  368.06366 34.0 0
  368.1441 54.0 1
  368.18509 68.0 1
  368.22797 28.0 0
  368.31186 20.0 0
  368.64832 17.0 0
  368.68347 20.0 0
  368.83786 21.0 0
  368.87033 34.0 0
  368.88196 36.0 0
  368.91101 20.0 0
  368.93481 22.0 0
  368.96698 22.0 0
  369.00989 18.0 0
  369.03351 38.0 0
  369.04935 17.0 0
  369.07672 109.0 1
  369.12119 712.0 7
  369.18002 103707.0 999
  369.2363 3195.0 31
  369.28674 325.0 3
  369.34024 17.0 0
//
