ACCESSION: MSBNK-RIKEN-PR301936
RECORD_TITLE: Genistein; LC-ESI-QTOF; MS2
DATE: 2019.03.28
AUTHORS: Tetsuya Mori, Center for Sustainable Resource Science, RIKEN
LICENSE: CC BY-NC-SA
PUBLICATION: Tsugawa H., Nakabayashi R., Mori T., Yamada Y., Takahashi M., Rai A., Sugiyama R., Yamamoto H., Nakaya T., Yamazaki M., Kooke R., Bac-Molenaar JA., Oztolan-Erol N., Keurentjes JJB., Arita M., Saito K. (2019) "A cheminformatics approach to characterize metabolomes in stable-isotope-labeled organisms" Nature Methods 16(4):295-298. [doi:10.1038/s41592-019-0358-2]
COMMENT: registered in RIKEN PlaSMA
CH$NAME: Genistein
CH$COMPOUND_CLASS: Isoflavones
CH$FORMULA: C15H10O5
CH$EXACT_MASS: 270.24
CH$SMILES: OC1=CC=C(C=C1)C1=COC2=CC(O)=CC(O)=C2C1=O
CH$IUPAC: InChI=1S/C15H10O5/c16-9-3-1-8(2-4-9)11-7-20-13-6-10(17)5-12(18)14(13)15(11)19/h1-7,16-18H
CH$LINK: INCHIKEY TZBJGXHYKVUXJN-UHFFFAOYSA-N
AC$INSTRUMENT: LC, Waters Acquity UPLC System; MS, Waters Xevo G2 Q-Tof
AC$INSTRUMENT_TYPE: LC-ESI-QTOF
AC$MASS_SPECTROMETRY: MS_TYPE MS2
AC$MASS_SPECTROMETRY: ION_MODE POSITIVE
AC$MASS_SPECTROMETRY: COLLISION_ENERGY 6V
AC$MASS_SPECTROMETRY: DESOLVATION_GAS_FLOW 800/h
AC$MASS_SPECTROMETRY: DESOLVATION_TEMPERATURE 450 C
AC$MASS_SPECTROMETRY: IONIZATION ESI
AC$CHROMATOGRAPHY: CAPILLARY_VOLTAGE +3.00 kV
AC$CHROMATOGRAPHY: COLUMN_NAME Acquity bridged ethyl hybrid C18 (1.7 um, 2.1 mm * 100 mm, Waters)
AC$CHROMATOGRAPHY: COLUMN_TEMPERATURE 40 C
AC$CHROMATOGRAPHY: FLOW_GRADIENT A/B = (99.5%/0.5% at 0 min, 99.5%/0.5% at 0.1 min, 20%/80% at 10 min, 0.5%/99.5% at 10.1 min, 0.5%/99.5% at 12.0 min, 99.5%/0.5% at 12.1 min, 99.5%/0.5% at 15.0 min)
AC$CHROMATOGRAPHY: FLOW_RATE 0.3 ml/min at 0 min, 0.3 ml/min at 10 min, 0.4 ml/min at 10.1 min, 0.4 ml/min at 14.4 min, 0.3 ml/min at 14.5 min
AC$CHROMATOGRAPHY: RETENTION_TIME 5.923517
AC$CHROMATOGRAPHY: SOLVENT A water including 0.1% formic acid
AC$CHROMATOGRAPHY: SOLVENT B acetonitrile including 0.1% formic acid
MS$FOCUSED_ION: PRECURSOR_TYPE [M+H]+
MS$FOCUSED_ION: PRECURSOR_M/Z 271.0600999
PK$SPLASH: splash10-0udl-0940000000-9e962f652852ebd37d07
PK$NUM_PEAK: 213
PK$PEAK: m/z int. rel.int.
  68.02589 6.0 6
  68.99791 23.0 23
  69.00271 21.0 21
  70.03821 10.0 10
  77.02826 9.0 9
  77.03783 6.0 6
  78.04411 8.0 8
  89.03482 7.0 7
  89.04105 12.0 12
  91.05354 182.0 182
  91.43063 7.0 7
  92.05994 14.0 14
  92.1889 5.0 5
  92.99873 9.0 9
  94.24414 7.0 7
  94.99368 8.0 8
  97.02729 7.0 7
  105.0307 8.0 8
  105.03746 13.0 13
  107.04492 9.0 9
  107.0502 20.0 20
  109.02293 11.0 11
  111.00466 26.0 26
  111.01437 7.0 7
  111.03838 6.0 6
  113.9021 6.0 6
  114.60371 9.0 9
  115.05587 72.0 72
  116.06606 6.0 6
  116.99161 9.0 9
  117.03189 13.0 13
  117.06899 6.0 6
  117.07625 27.0 27
  118.04088 6.0 6
  118.07184 6.0 6
  119.02776 16.0 16
  119.04475 74.0 74
  119.0517 36.0 36
  121.00955 16.0 16
  121.02677 87.0 87
  121.29877 6.0 6
  122.0313 6.0 6
  122.87571 7.0 7
  123.05061 10.0 10
  124.01468 6.0 6
  127.06068 7.0 7
  128.0255 6.0 6
  128.06085 65.0 65
  128.32286 7.0 7
  129.06674 20.0 20
  129.07251 26.0 26
  131.04527 65.0 65
  131.05383 25.0 25
  131.08279 25.0 25
  132.09041 7.0 7
  132.62682 6.0 6
  133.02672 26.0 26
  133.03723 6.0 6
  133.06487 17.0 17
  133.13428 8.0 8
  133.93282 7.0 7
  134.03572 7.0 7
  134.06863 13.0 13
  135.03522 7.0 7
  136.04742 7.0 7
  137.01811 15.0 15
  138.02647 6.0 6
  138.03218 12.0 12
  141.06024 40.0 40
  141.07074 236.0 236
  142.07462 57.0 57
  144.05597 6.0 6
  145.02849 153.0 153
  145.06477 66.0 66
  146.03923 6.0 6
  147.03856 6.0 6
  147.04701 40.0 40
  147.08022 39.0 39
  147.08847 6.0 6
  148.05664 6.0 6
  148.08493 14.0 14
  148.98785 8.0 8
  148.99557 6.0 6
  149.00941 25.0 25
  149.02217 245.0 245
  149.03569 7.0 7
  150.02313 14.0 14
  150.03308 8.0 8
  151.0556 7.0 7
  153.01796 1000.0 999
  153.99968 10.0 10
  154.01176 26.0 26
  154.01945 62.0 62
  154.03033 8.0 8
  154.06067 10.0 10
  154.94057 11.0 11
  155.01016 10.0 10
  155.01834 13.0 13
  155.02835 8.0 8
  155.048 33.0 33
  155.06046 9.0 9
  155.32292 5.0 5
  156.04289 15.0 15
  156.05585 25.0 25
  157.01323 5.0 5
  157.05417 6.0 6
  157.06633 22.0 22
  159.04012 60.0 60
  159.0479 51.0 51
  159.07455 21.0 21
  159.08189 31.0 31
  160.04231 5.0 5
  160.06667 7.0 7
  163.04271 7.0 7
  164.04457 8.0 8
  164.83096 6.0 6
  165.01654 94.0 94
  166.02853 7.0 7
  168.052 17.0 17
  169.04251 8.0 8
  169.05348 18.0 18
  169.06711 195.0 195
  170.06409 34.0 34
  171.04031 8.0 8
  171.4588 7.0 7
  172.21591 8.0 8
  172.92767 5.0 5
  173.0471 22.0 22
  173.05583 18.0 18
  173.06456 35.0 35
  174.07016 13.0 13
  175.07452 21.0 21
  176.04128 6.0 6
  178.0253 5.0 5
  179.05197 18.0 18
  180.06126 10.0 10
  181.06334 16.0 16
  181.08339 12.0 12
  183.03224 6.0 6
  183.04245 17.0 17
  184.05151 15.0 15
  185.06152 25.0 25
  187.03044 28.0 28
  187.04218 7.0 7
  187.05441 6.0 6
  187.0724 81.0 81
  188.07227 19.0 19
  189.04115 8.0 8
  189.07919 9.0 9
  197.03981 31.0 31
  197.05316 79.0 79
  197.06099 96.0 96
  197.0699 54.0 54
  198.05328 29.0 29
  198.06358 29.0 29
  198.07326 23.0 23
  199.05745 5.0 5
  199.06923 12.0 12
  200.04196 72.0 72
  201.0488 49.0 49
  201.05595 22.0 22
  202.06686 7.0 7
  202.24144 8.0 8
  203.02254 9.0 9
  203.03827 13.0 13
  205.01007 7.0 7
  207.05663 5.0 5
  211.02951 7.0 7
  211.03796 12.0 12
  213.04617 16.0 16
  213.0564 32.0 32
  214.05849 19.0 19
  214.33383 6.0 6
  215.02937 6.0 6
  215.05339 57.0 57
  215.06863 341.0 341
  215.09268 6.0 6
  215.10452 13.0 13
  215.90169 7.0 7
  216.02983 8.0 8
  216.05217 15.0 15
  216.07649 78.0 78
  216.105 6.0 6
  223.44917 7.0 7
  225.05664 66.0 66
  225.07526 8.0 8
  226.05637 9.0 9
  227.06001 13.0 13
  228.0414 20.0 20
  229.04919 15.0 15
  230.04816 7.0 7
  231.18938 6.0 6
  235.036 8.0 8
  236.36356 9.0 9
  242.04431 7.0 7
  242.05423 12.0 12
  243.02991 17.0 17
  243.06367 232.0 232
  243.25763 7.0 7
  243.56271 7.0 7
  244.06673 94.0 94
  245.06781 13.0 13
  245.0799 14.0 14
  252.0397 7.0 7
  253.01558 7.0 7
  253.03696 81.0 81
  253.05359 174.0 174
  254.05484 47.0 47
  255.01364 5.0 5
  255.0612 5.0 5
  271.03534 21.0 21
  271.06116 365.0 365
  271.07709 47.0 47
//
