ACCESSION: MSBNK-RIKEN-PR300785
RECORD_TITLE: Isocorydine; LC-ESI-QTOF; MS2
DATE: 2019.03.28
AUTHORS: Tetsuya Mori, Center for Sustainable Resource Science, RIKEN
LICENSE: CC BY-NC-SA
PUBLICATION: Tsugawa H., Nakabayashi R., Mori T., Yamada Y., Takahashi M., Rai A., Sugiyama R., Yamamoto H., Nakaya T., Yamazaki M., Kooke R., Bac-Molenaar JA., Oztolan-Erol N., Keurentjes JJB., Arita M., Saito K. (2019) "A cheminformatics approach to characterize metabolomes in stable-isotope-labeled organisms" Nature Methods 16(4):295-298. [doi:10.1038/s41592-019-0358-2]
COMMENT: registered in RIKEN PlaSMA
CH$NAME: Isocorydine
CH$COMPOUND_CLASS: Aporphines
CH$FORMULA: C20H23NO4
CH$EXACT_MASS: 341.407
CH$SMILES: COC1=C(O)C2=C(C[C@@H]3N(C)CCC4=CC(OC)=C(OC)C2=C34)C=C1
CH$IUPAC: InChI=1S/C20H23NO4/c1-21-8-7-12-10-15(24-3)20(25-4)18-16(12)13(21)9-11-5-6-14(23-2)19(22)17(11)18/h5-6,10,13,22H,7-9H2,1-4H3/t13-/m0/s1
CH$LINK: INCHIKEY QELDJEKNFOQJOY-ZDUSSCGKSA-N
AC$INSTRUMENT: LC, Waters Acquity UPLC System; MS, Waters Xevo G2 Q-Tof
AC$INSTRUMENT_TYPE: LC-ESI-QTOF
AC$MASS_SPECTROMETRY: MS_TYPE MS2
AC$MASS_SPECTROMETRY: ION_MODE POSITIVE
AC$MASS_SPECTROMETRY: COLLISION_ENERGY 6V
AC$MASS_SPECTROMETRY: DESOLVATION_GAS_FLOW 800/h
AC$MASS_SPECTROMETRY: DESOLVATION_TEMPERATURE 450 C
AC$MASS_SPECTROMETRY: IONIZATION ESI
AC$CHROMATOGRAPHY: CAPILLARY_VOLTAGE +3.00 kV
AC$CHROMATOGRAPHY: COLUMN_NAME Acquity bridged ethyl hybrid C18 (1.7 um, 2.1 mm * 100 mm, Waters)
AC$CHROMATOGRAPHY: COLUMN_TEMPERATURE 40 C
AC$CHROMATOGRAPHY: FLOW_GRADIENT A/B = (99.5%/0.5% at 0 min, 99.5%/0.5% at 0.1 min, 20%/80% at 10 min, 0.5%/99.5% at 10.1 min, 0.5%/99.5% at 12.0 min, 99.5%/0.5% at 12.1 min, 99.5%/0.5% at 15.0 min)
AC$CHROMATOGRAPHY: FLOW_RATE 0.3 ml/min at 0 min, 0.3 ml/min at 10 min, 0.4 ml/min at 10.1 min, 0.4 ml/min at 14.4 min, 0.3 ml/min at 14.5 min
AC$CHROMATOGRAPHY: RETENTION_TIME 3.916
AC$CHROMATOGRAPHY: SOLVENT A water including 0.1% formic acid
AC$CHROMATOGRAPHY: SOLVENT B acetonitrile including 0.1% formic acid
MS$FOCUSED_ION: PRECURSOR_TYPE [M+H]+
MS$FOCUSED_ION: PRECURSOR_M/Z 342.1699847
PK$SPLASH: splash10-00mx-0890000000-9d88647d38a3cfb4329b
PK$NUM_PEAK: 200
PK$PEAK: m/z int. rel.int.
  115.05405 18.0 18
  115.05848 10.0 10
  123.88712 6.0 6
  129.06874 6.0 6
  139.05678 7.0 7
  140.05959 7.0 7
  141.07001 11.0 11
  147.63754 7.0 7
  151.05273 17.0 17
  151.06149 12.0 12
  152.06419 114.0 114
  153.07039 162.0 162
  153.88474 5.0 5
  154.0779 69.0 69
  155.08545 16.0 16
  163.04646 9.0 9
  164.06001 42.0 42
  164.06931 8.0 8
  165.03745 9.0 9
  165.07133 1000.0 999
  166.06297 24.0 24
  166.07683 270.0 270
  167.0493 9.0 9
  167.05853 13.0 13
  167.07512 13.0 13
  167.08592 37.0 37
  168.05978 13.0 13
  168.08194 9.0 9
  168.09941 11.0 11
  169.06573 17.0 17
  170.06589 9.0 9
  176.04942 10.0 10
  176.06291 109.0 109
  177.06436 75.0 75
  177.0728 187.0 187
  178.04506 6.0 6
  178.05739 13.0 13
  178.07903 955.0 954
  178.13846 6.0 6
  179.02402 9.0 9
  179.04639 15.0 15
  179.08502 564.0 563
  180.07726 17.0 17
  180.09277 139.0 139
  181.06668 126.0 126
  181.09846 42.0 42
  182.07222 88.0 88
  183.04912 5.0 5
  183.07957 10.0 10
  184.05409 12.0 12
  188.06458 14.0 14
  189.07019 721.0 720
  189.12184 6.0 6
  190.05304 5.0 5
  190.07825 595.0 594
  191.04691 10.0 10
  191.06007 12.0 12
  191.08563 671.0 670
  192.04597 19.0 19
  192.05762 116.0 116
  192.07738 23.0 23
  192.08302 46.0 46
  192.09378 73.0 73
  192.17726 10.0 10
  193.02922 7.0 7
  193.06512 456.0 456
  193.09505 9.0 9
  193.10544 34.0 34
  194.07469 384.0 384
  194.09772 9.0 9
  195.05167 26.0 26
  195.07793 148.0 148
  196.04631 12.0 12
  196.07759 28.0 28
  197.05254 10.0 10
  197.06789 11.0 11
  197.08801 8.0 8
  197.0994 37.0 37
  198.09773 6.0 6
  200.05318 6.0 6
  200.06322 6.0 6
  201.02951 6.0 6
  201.07216 145.0 145
  201.09048 6.0 6
  202.05621 6.0 6
  202.07709 142.0 142
  202.09286 10.0 10
  203.08376 91.0 91
  204.06067 27.0 27
  204.08507 7.0 7
  204.09848 9.0 9
  205.04236 9.0 9
  205.06628 440.0 440
  205.10628 7.0 7
  206.05595 44.0 44
  206.07278 434.0 434
  207.04802 28.0 28
  207.08098 600.0 599
  208.05275 9.0 9
  208.08736 199.0 199
  209.05835 76.0 76
  209.0681 21.0 21
  209.09616 141.0 141
  210.05157 10.0 10
  210.06859 131.0 131
  210.08157 11.0 11
  210.09987 15.0 15
  210.42873 6.0 6
  211.06982 8.0 8
  212.08586 8.0 8
  217.065 52.0 52
  217.07698 26.0 26
  218.07201 149.0 149
  218.08443 17.0 17
  219.02173 5.0 5
  219.04211 24.0 24
  219.07971 331.0 331
  220.05013 79.0 79
  220.07391 20.0 20
  220.08766 98.0 98
  221.05959 331.0 331
  221.08487 12.0 12
  221.10065 20.0 20
  221.38583 5.0 5
  222.06865 378.0 378
  222.09891 11.0 11
  222.13158 5.0 5
  223.04617 26.0 26
  223.07352 89.0 89
  224.07312 6.0 6
  224.0867 26.0 26
  225.06786 8.0 8
  225.08827 42.0 42
  225.09691 25.0 25
  226.05128 6.0 6
  226.09131 11.0 11
  229.06801 10.0 10
  231.05408 8.0 8
  231.08159 192.0 192
  232.0869 44.0 44
  233.05624 43.0 43
  233.06615 52.0 52
  234.06577 97.0 97
  235.04088 10.0 10
  235.07581 407.0 407
  235.98825 9.0 9
  236.04526 7.0 7
  236.06267 19.0 19
  236.08337 345.0 345
  237.06303 95.0 95
  237.0927 340.0 340
  238.03423 6.0 6
  238.06325 664.0 663
  238.0975 30.0 30
  238.10664 8.0 8
  239.04115 6.0 6
  239.05411 19.0 19
  239.06769 80.0 80
  239.09648 25.0 25
  240.03702 6.0 6
  240.06969 12.0 12
  245.04434 5.0 5
  245.05388 12.0 12
  245.06396 7.0 7
  245.07541 9.0 9
  246.06828 28.0 28
  247.04567 8.0 8
  247.07648 598.0 597
  248.0825 182.0 182
  249.00905 6.0 6
  249.05801 20.0 20
  249.07098 12.0 12
  249.08974 16.0 16
  249.10458 5.0 5
  250.06232 55.0 55
  250.09151 10.0 10
  251.07014 13.0 13
  251.09677 8.0 8
  252.0741 13.0 13
  252.08719 8.0 8
  253.08708 202.0 202
  254.09248 21.0 21
  254.10593 7.0 7
  254.15062 6.0 6
  263.03989 6.0 6
  263.06375 18.0 18
  263.07541 31.0 31
  264.07239 25.0 25
  264.07986 65.0 65
  265.08591 135.0 135
  266.06735 7.0 7
  266.08527 28.0 28
  266.09665 12.0 12
  267.10638 6.0 6
  277.08395 13.0 13
  281.0834 16.0 16
  281.09674 6.0 6
  282.0773 7.0 7
  295.09399 6.0 6
  296.9303 7.0 7
//
