ACCESSION: MSBNK-RIKEN-PR100601
RECORD_TITLE: Protocatechuic acid; LC-ESI-QTOF; MS2; CE:Ramp 5-60 V; [M-H]-
DATE: 2016.01.19 (Created 2010.06.21, modified 2011.05.06)
AUTHORS: Matsuda F, Suzuki M, Sawada Y, Plant Science Center, RIKEN.
LICENSE: CC BY-SA
COMMENT: Acquisition and generation of the data is financially supported in part by CREST/JST.
CH$NAME: 3,4-Dihydroxybenzoic acid
CH$NAME: 3,4-Dihydroxybenzoate
CH$NAME: Protocatechuic acid
CH$NAME: Protocatechuate
CH$NAME: Catechol-4-carboxylic Acid
CH$NAME: 4-Carboxy-1,2-dihydroxybenzene
CH$COMPOUND_CLASS: Carboxylic acids
CH$FORMULA: C7H6O4
CH$EXACT_MASS: 154.02661
CH$SMILES: OC(=O)c(c1)cc(O)c(O)c1
CH$IUPAC: InChI=1S/C7H6O4/c8-5-2-1-4(7(10)11)3-6(5)9/h1-3,8-9H,(H,10,11)
CH$LINK: CAS 99-50-3
CH$LINK: CHEMSPIDER 71
CH$LINK: KAPPAVIEW KPC00917
CH$LINK: KEGG C00230
CH$LINK: KNAPSACK C00002668
CH$LINK: PUBCHEM CID:72
CH$LINK: INCHIKEY YQUVCSBJEUQKSH-UHFFFAOYSA-N
CH$LINK: COMPTOX DTXSID4021212
AC$INSTRUMENT: UPLC Q-Tof Premier, Waters
AC$INSTRUMENT_TYPE: LC-ESI-QTOF
AC$MASS_SPECTROMETRY: MS_TYPE MS2
AC$MASS_SPECTROMETRY: ION_MODE NEGATIVE
AC$MASS_SPECTROMETRY: COLLISION_ENERGY Ramp 5-60 V
AC$MASS_SPECTROMETRY: DATAFORMAT Continuum
AC$MASS_SPECTROMETRY: DESOLVATION_GAS_FLOW 600.0 L/Hr
AC$MASS_SPECTROMETRY: DESOLVATION_TEMPERATURE 400 C
AC$MASS_SPECTROMETRY: FRAGMENTATION_METHOD LOW-ENERGY CID
AC$MASS_SPECTROMETRY: IONIZATION ESI
AC$MASS_SPECTROMETRY: SOURCE_TEMPERATURE 120 C
AC$CHROMATOGRAPHY: CAPILLARY_VOLTAGE 3.0 kV
AC$CHROMATOGRAPHY: SAMPLING_CONE 23.0 V
AC$CHROMATOGRAPHY: SOLVENT A CH3CN(0.1%HCOOH)
AC$CHROMATOGRAPHY: SOLVENT B H2O(0.1%HCOOH)
MS$FOCUSED_ION: PRECURSOR_M/Z 153.01881
MS$FOCUSED_ION: PRECURSOR_TYPE [M-H]-
PK$SPLASH: splash10-0a4i-0900000000-58c9b8232fbc187217d4
PK$NUM_PEAK: 3
PK$PEAK: m/z int. rel.int.
  108.0218 124.4 146
  109.0297 851.7 999
  153.0188 293.7 344
//
