ACCESSION: MSBNK-RIKEN-PR304258
RECORD_TITLE: epsilon-Viniferin; LC-ESI-QTOF; MS2
DATE: 2019.03.28
AUTHORS: Tetsuya Mori, Center for Sustainable Resource Science, RIKEN
LICENSE: CC BY-NC-SA
PUBLICATION: Tsugawa H., Nakabayashi R., Mori T., Yamada Y., Takahashi M., Rai A., Sugiyama R., Yamamoto H., Nakaya T., Yamazaki M., Kooke R., Bac-Molenaar JA., Oztolan-Erol N., Keurentjes JJB., Arita M., Saito K. (2019) "A cheminformatics approach to characterize metabolomes in stable-isotope-labeled organisms" Nature Methods 16(4):295-298. [doi:10.1038/s41592-019-0358-2]
COMMENT: registered in RIKEN PlaSMA
CH$NAME: epsilon-Viniferin
CH$COMPOUND_CLASS: 2-arylbenzofuran flavonoids
CH$FORMULA: C28H22O6
CH$EXACT_MASS: 454.478
CH$SMILES: OC1=CC=C(\C=C\C2=CC(O)=CC3=C2[C@H]([C@@H](O3)C2=CC=C(O)C=C2)C2=CC(O)=CC(O)=C2)C=C1
CH$IUPAC: InChI=1S/C28H22O6/c29-20-7-2-16(3-8-20)1-4-18-11-24(33)15-25-26(18)27(19-12-22(31)14-23(32)13-19)28(34-25)17-5-9-21(30)10-6-17/h1-15,27-33H/b4-1+/t27-,28+/m1/s1
CH$LINK: INCHIKEY FQWLMRXWKZGLFI-YVYUXZJTSA-N
AC$INSTRUMENT: LC, Waters Acquity UPLC System; MS, Waters Xevo G2 Q-Tof
AC$INSTRUMENT_TYPE: LC-ESI-QTOF
AC$MASS_SPECTROMETRY: MS_TYPE MS2
AC$MASS_SPECTROMETRY: ION_MODE POSITIVE
AC$MASS_SPECTROMETRY: COLLISION_ENERGY 6V
AC$MASS_SPECTROMETRY: DESOLVATION_GAS_FLOW 800/h
AC$MASS_SPECTROMETRY: DESOLVATION_TEMPERATURE 450 C
AC$MASS_SPECTROMETRY: IONIZATION ESI
AC$CHROMATOGRAPHY: CAPILLARY_VOLTAGE +3.00 kV
AC$CHROMATOGRAPHY: COLUMN_NAME Acquity bridged ethyl hybrid C18 (1.7 um, 2.1 mm * 100 mm, Waters)
AC$CHROMATOGRAPHY: COLUMN_TEMPERATURE 40 C
AC$CHROMATOGRAPHY: FLOW_GRADIENT A/B = (99.5%/0.5% at 0 min, 99.5%/0.5% at 0.1 min, 20%/80% at 10 min, 0.5%/99.5% at 10.1 min, 0.5%/99.5% at 12.0 min, 99.5%/0.5% at 12.1 min, 99.5%/0.5% at 15.0 min)
AC$CHROMATOGRAPHY: FLOW_RATE 0.3 ml/min at 0 min, 0.3 ml/min at 10 min, 0.4 ml/min at 10.1 min, 0.4 ml/min at 14.4 min, 0.3 ml/min at 14.5 min
AC$CHROMATOGRAPHY: RETENTION_TIME 5.807217
AC$CHROMATOGRAPHY: SOLVENT A water including 0.1% formic acid
AC$CHROMATOGRAPHY: SOLVENT B acetonitrile including 0.1% formic acid
MS$FOCUSED_ION: PRECURSOR_TYPE [M+H]+
MS$FOCUSED_ION: PRECURSOR_M/Z 455.1489149
PK$SPLASH: splash10-0a4i-0940000000-737c60789939b7bb0251
PK$NUM_PEAK: 351
PK$PEAK: m/z int. rel.int.
  66.03992 8.0 8
  67.05815 7.0 7
  68.99376 23.0 23
  69.00079 9.0 9
  77.03862 9.0 9
  79.055 10.0 10
  85.02754 10.0 10
  91.05173 7.0 7
  91.29387 6.0 6
  93.03606 9.0 9
  94.04379 8.0 8
  96.05018 7.0 7
  103.05321 14.0 14
  105.02715 6.0 6
  105.03741 9.0 9
  106.55715 6.0 6
  107.02216 9.0 9
  107.03314 10.0 10
  107.0492 1000.0 999
  108.04924 25.0 25
  108.05341 14.0 14
  108.4305 6.0 6
  109.03001 23.0 23
  110.49879 7.0 7
  115.04379 17.0 17
  115.05194 36.0 36
  115.0574 17.0 17
  116.05682 7.0 7
  117.06805 6.0 6
  119.04151 16.0 16
  119.04686 9.0 9
  119.05582 9.0 9
  120.05753 10.0 10
  121.03185 22.0 22
  122.06776 7.0 7
  123.03626 8.0 8
  123.04234 10.0 10
  123.04976 6.0 6
  127.05325 29.0 29
  127.3143 9.0 9
  128.06024 44.0 44
  128.0713 7.0 7
  130.07341 14.0 14
  131.04066 16.0 16
  131.04951 92.0 92
  131.08443 13.0 13
  132.5789 7.0 7
  133.02376 75.0 75
  133.03468 11.0 11
  133.05946 7.0 7
  135.04442 15.0 15
  137.02081 42.0 42
  139.02959 14.0 14
  139.05267 20.0 20
  141.06804 179.0 179
  142.07245 24.0 24
  142.08105 12.0 12
  143.04701 20.0 20
  143.07336 8.0 8
  143.08046 21.0 21
  145.06529 28.0 28
  147.04108 30.0 30
  147.05107 9.0 9
  147.07999 28.0 28
  148.05179 7.0 7
  151.0565 47.0 47
  152.05528 32.0 32
  152.06371 97.0 97
  153.0401 19.0 19
  153.05168 13.0 13
  153.06966 281.0 281
  154.06976 44.0 44
  155.04958 19.0 19
  155.07372 9.0 9
  155.08119 16.0 16
  156.05838 12.0 12
  156.65714 15.0 15
  157.05968 53.0 53
  157.06946 80.0 80
  158.06026 7.0 7
  165.06841 156.0 156
  165.08128 12.0 12
  166.07341 16.0 16
  167.03745 9.0 9
  167.05339 9.0 9
  167.08 14.0 14
  167.09821 7.0 7
  168.05363 15.0 15
  168.0618 16.0 16
  169.01564 9.0 9
  169.0455 12.0 12
  169.06358 215.0 215
  169.07996 15.0 15
  170.06754 21.0 21
  171.02383 8.0 8
  171.03535 9.0 9
  171.0473 6.0 6
  171.06432 7.0 7
  171.07294 7.0 7
  171.08484 9.0 9
  171.98259 17.0 17
  172.04179 9.0 9
  173.06815 19.0 19
  174.06271 14.0 14
  174.07126 13.0 13
  174.09029 10.0 10
  176.04245 7.0 7
  179.04703 11.0 11
  179.08269 7.0 7
  180.33354 6.0 6
  181.03796 7.0 7
  181.04906 23.0 23
  181.06419 320.0 320
  182.04219 7.0 7
  182.06389 60.0 60
  182.07275 58.0 58
  183.07384 20.0 20
  183.08546 8.0 8
  184.03951 7.0 7
  184.05435 23.0 23
  185.04704 21.0 21
  185.05597 15.0 15
  185.07176 6.0 6
  187.0752 9.0 9
  189.00793 10.0 10
  189.06229 17.0 17
  190.08003 7.0 7
  191.08557 6.0 6
  191.09323 12.0 12
  193.00244 8.0 8
  193.04863 7.0 7
  193.06198 58.0 58
  194.06714 38.0 38
  194.36372 7.0 7
  195.07533 17.0 17
  195.08401 23.0 23
  197.05812 237.0 237
  197.08823 7.0 7
  197.96265 9.0 9
  198.06195 56.0 56
  198.9491 6.0 6
  199.07002 65.0 65
  199.07841 39.0 39
  200.07579 7.0 7
  201.04916 9.0 9
  201.06169 8.0 8
  202.07176 23.0 23
  202.08104 40.0 40
  203.07945 18.0 18
  204.09155 7.0 7
  205.05658 9.0 9
  205.06689 26.0 26
  206.06964 17.0 17
  207.07137 19.0 19
  207.08426 7.0 7
  208.04904 9.0 9
  208.08586 12.0 12
  209.0589 66.0 66
  209.08485 7.0 7
  210.06938 57.0 57
  211.06444 27.0 27
  211.07756 18.0 18
  211.09557 9.0 9
  213.03947 7.0 7
  213.05553 9.0 9
  214.07953 7.0 7
  215.06493 32.0 32
  215.07985 29.0 29
  215.0925 7.0 7
  216.07678 18.0 18
  216.09285 14.0 14
  217.07262 14.0 14
  217.27992 6.0 6
  218.06784 7.0 7
  219.07878 10.0 10
  219.08633 14.0 14
  219.10243 7.0 7
  220.07741 18.0 18
  220.09023 7.0 7
  220.09731 8.0 8
  221.05357 24.0 24
  221.08203 7.0 7
  221.98601 15.0 15
  222.0629 18.0 18
  222.0748 9.0 9
  222.08296 7.0 7
  222.10541 9.0 9
  223.06091 11.0 11
  223.07544 26.0 26
  223.0853 9.0 9
  223.91557 9.0 9
  224.00549 7.0 7
  224.06264 14.0 14
  225.03644 7.0 7
  225.0558 10.0 10
  225.08588 9.0 9
  226.0594 19.0 19
  226.07156 48.0 48
  226.08342 20.0 20
  227.03406 8.0 8
  227.0666 68.0 68
  227.08412 9.0 9
  227.13199 10.0 10
  228.07594 21.0 21
  228.08907 20.0 20
  228.65166 7.0 7
  229.08612 15.0 15
  229.097 25.0 25
  231.07022 16.0 16
  231.0892 10.0 10
  231.10048 7.0 7
  232.07709 18.0 18
  232.08388 7.0 7
  233.05972 9.0 9
  233.99551 7.0 7
  234.0612 7.0 7
  234.08009 19.0 19
  235.0834 17.0 17
  236.0331 10.0 10
  237.05482 17.0 17
  237.06693 7.0 7
  238.06335 7.0 7
  239.06725 113.0 113
  239.08496 42.0 42
  240.05653 8.0 8
  240.07243 6.0 6
  240.08374 31.0 31
  240.10027 7.0 7
  241.0374 16.0 16
  241.05244 7.0 7
  241.06512 7.0 7
  241.0757 6.0 6
  241.10403 7.0 7
  242.07843 14.0 14
  243.0862 45.0 45
  244.08649 7.0 7
  244.09708 7.0 7
  245.09453 31.0 31
  246.07507 9.0 9
  246.10892 6.0 6
  247.07927 6.0 6
  249.05092 9.0 9
  249.09547 9.0 9
  250.04366 9.0 9
  250.06302 37.0 37
  251.07881 24.0 24
  252.06198 9.0 9
  252.07372 9.0 9
  252.08942 27.0 27
  252.10611 7.0 7
  253.04021 14.0 14
  253.06059 17.0 17
  253.07784 10.0 10
  253.09453 9.0 9
  254.05865 7.0 7
  255.05464 18.0 18
  255.06487 9.0 9
  255.07812 7.0 7
  255.10155 8.0 8
  256.08414 13.0 13
  257.0921 17.0 17
  257.10858 7.0 7
  258.06326 15.0 15
  258.08731 6.0 6
  258.10718 7.0 7
  259.06207 7.0 7
  259.07446 7.0 7
  259.09436 7.0 7
  261.09692 41.0 41
  262.06418 11.0 11
  264.07498 7.0 7
  264.08456 14.0 14
  267.07938 7.0 7
  268.07959 10.0 10
  268.09442 8.0 8
  269.08313 9.0 9
  269.09763 14.0 14
  271.08389 6.0 6
  272.06442 7.0 7
  273.08026 19.0 19
  273.09479 33.0 33
  276.07434 27.0 27
  279.08243 28.0 28
  280.09274 22.0 22
  282.07809 7.0 7
  282.10843 14.0 14
  284.06693 11.0 11
  284.08963 8.0 8
  285.08035 21.0 21
  285.09708 9.0 9
  286.0979 9.0 9
  286.11462 8.0 8
  287.07385 10.0 10
  287.10159 7.0 7
  288.0752 7.0 7
  288.09137 15.0 15
  288.10651 9.0 9
  288.11765 7.0 7
  289.07812 6.0 6
  289.09204 15.0 15
  291.09607 7.0 7
  297.08304 22.0 22
  297.09482 26.0 26
  298.09662 7.0 7
  300.08017 9.0 9
  301.05566 7.0 7
  301.08304 9.0 9
  301.09079 17.0 17
  302.10056 7.0 7
  304.0824 7.0 7
  307.08347 15.0 15
  308.08008 9.0 9
  309.07764 7.0 7
  310.09821 7.0 7
  313.07324 20.0 20
  313.08414 16.0 16
  313.10541 9.0 9
  314.07581 8.0 8
  314.09393 6.0 6
  315.10583 24.0 24
  315.11462 7.0 7
  316.10681 10.0 10
  317.09476 14.0 14
  318.09235 8.0 8
  323.8938 7.0 7
  325.08264 6.0 6
  326.10425 16.0 16
  329.08337 23.0 23
  330.10355 12.0 12
  331.09335 24.0 24
  331.11282 7.0 7
  332.07956 20.0 20
  336.11011 8.0 8
  342.0979 6.0 6
  343.091 9.0 9
  345.07138 7.0 7
  347.08801 7.0 7
  347.11542 19.0 19
  347.439 8.0 8
  355.12692 7.0 7
  356.10886 9.0 9
  356.12097 6.0 6
  361.12375 9.0 9
  369.08762 7.0 7
  371.09802 9.0 9
  373.12909 6.0 6
  376.09552 7.0 7
  383.08948 7.0 7
  389.09537 6.0 6
  430.2261 7.0 7
  438.78967 7.0 7
//
