ACCESSION: MSBNK-RIKEN-PR306751
RECORD_TITLE: Delphinidin-3-O-sambubioside; LC-ESI-QTOF; MS2
DATE: 2019.03.28
AUTHORS: Tetsuya Mori, Center for Sustainable Resource Science, RIKEN
LICENSE: CC BY-NC-SA
PUBLICATION: Tsugawa H., Nakabayashi R., Mori T., Yamada Y., Takahashi M., Rai A., Sugiyama R., Yamamoto H., Nakaya T., Yamazaki M., Kooke R., Bac-Molenaar JA., Oztolan-Erol N., Keurentjes JJB., Arita M., Saito K. (2019) "A cheminformatics approach to characterize metabolomes in stable-isotope-labeled organisms" Nature Methods 16(4):295-298. [doi:10.1038/s41592-019-0358-2]
COMMENT: registered in RIKEN PlaSMA
CH$NAME: Delphinidin-3-O-sambubioside
CH$COMPOUND_CLASS: Anthocyanidin-3-O-glycosides
CH$FORMULA: [C26H29O16]+
CH$EXACT_MASS: 597.502
CH$SMILES: OCC1OC(OC2=C([O+]=C3C=C(O)C=C(O)C3=C2)C2=CC(O)=C(O)C(O)=C2)C(OC2OCC(O)C(O)C2O)C(O)C1O
CH$IUPAC: InChI=1S/C26H28O16/c27-6-17-20(35)21(36)24(42-25-22(37)19(34)14(32)7-38-25)26(41-17)40-16-5-10-11(29)3-9(28)4-15(10)39-23(16)8-1-12(30)18(33)13(31)2-8/h1-5,14,17,19-22,24-27,32,34-37H,6-7H2,(H4-,28,29,30,31,33)/p+1
CH$LINK: INCHIKEY TWYYVOVDSNRIJM-UHFFFAOYSA-O
AC$INSTRUMENT: LC, Waters Acquity UPLC System; MS, Waters Xevo G2 Q-Tof
AC$INSTRUMENT_TYPE: LC-ESI-QTOF
AC$MASS_SPECTROMETRY: MS_TYPE MS2
AC$MASS_SPECTROMETRY: ION_MODE NEGATIVE
AC$MASS_SPECTROMETRY: COLLISION_ENERGY 6V
AC$MASS_SPECTROMETRY: DESOLVATION_GAS_FLOW 800/h
AC$MASS_SPECTROMETRY: DESOLVATION_TEMPERATURE 450 C
AC$MASS_SPECTROMETRY: IONIZATION ESI
AC$CHROMATOGRAPHY: CAPILLARY_VOLTAGE -2.75 kV
AC$CHROMATOGRAPHY: COLUMN_NAME Acquity bridged ethyl hybrid C18 (1.7 um, 2.1 mm * 100 mm, Waters)
AC$CHROMATOGRAPHY: COLUMN_TEMPERATURE 40 C
AC$CHROMATOGRAPHY: FLOW_GRADIENT A/B = (99.5%/0.5% at 0 min, 99.5%/0.5% at 0.1 min, 20%/80% at 10 min, 0.5%/99.5% at 10.1 min, 0.5%/99.5% at 12.0 min, 99.5%/0.5% at 12.1 min, 99.5%/0.5% at 15.0 min)
AC$CHROMATOGRAPHY: FLOW_RATE 0.3 ml/min at 0 min, 0.3 ml/min at 10 min, 0.4 ml/min at 10.1 min, 0.4 ml/min at 14.4 min, 0.3 ml/min at 14.5 min
AC$CHROMATOGRAPHY: RETENTION_TIME 2.6614
AC$CHROMATOGRAPHY: SOLVENT A water including 0.1% formic acid
AC$CHROMATOGRAPHY: SOLVENT B acetonitrile including 0.1% formic acid
MS$FOCUSED_ION: PRECURSOR_TYPE [M-2H]-
MS$FOCUSED_ION: PRECURSOR_M/Z 595.12990981576
PK$SPLASH: splash10-0udi-0019010000-2469fec614c05e7e49d2
PK$NUM_PEAK: 21
PK$PEAK: m/z int. rel.int.
  124.0192 41.0 41
  158.10349 34.0 34
  164.0101 32.0 32
  200.03749 41.0 41
  228.03558 43.0 43
  239.08191 39.0 39
  257.03445 32.0 32
  271.01315 36.0 36
  272.02145 41.0 41
  299.01694 53.0 53
  300.02707 1000.0 999
  301.021 75.0 75
  301.03461 77.0 77
  325.02545 43.0 43
  328.04669 59.0 59
  356.05609 50.0 50
  366.03604 43.0 43
  369.06268 39.0 39
  396.64011 59.0 59
  595.08844 41.0 41
  595.12952 260.0 260
//
