ACCESSION: MSBNK-RIKEN-PR310591
RECORD_TITLE: Kopsinine; LC-ESI-QTOF; MS2
DATE: 2019.03.28
AUTHORS: Tetsuya Mori, Center for Sustainable Resource Science, RIKEN
LICENSE: CC BY-NC-SA
PUBLICATION: Tsugawa H., Nakabayashi R., Mori T., Yamada Y., Takahashi M., Rai A., Sugiyama R., Yamamoto H., Nakaya T., Yamazaki M., Kooke R., Bac-Molenaar JA., Oztolan-Erol N., Keurentjes JJB., Arita M., Saito K. (2019) "A cheminformatics approach to characterize metabolomes in stable-isotope-labeled organisms" Nature Methods 16(4):295-298. [doi:10.1038/s41592-019-0358-2]
COMMENT: Annotation level-1
CH$NAME: Kopsinine
CH$COMPOUND_CLASS: Alkaloids
CH$FORMULA: C21H26N2O2
CH$EXACT_MASS: 338.451
CH$SMILES: COC(=O)C1CC23CCCN4CCC5(C24)C2=CC=CC=C2NC15CC3
CH$IUPAC: InChI=1S/C21H26N2O2/c1-25-17(24)15-13-19-7-4-11-23-12-10-20(18(19)23)14-5-2-3-6-16(14)22-21(15,20)9-8-19/h2-3,5-6,15,18,22H,4,7-13H2,1H3
CH$LINK: INCHIKEY IYLRRIUNGGQRTN-UHFFFAOYSA-N
AC$INSTRUMENT: LC, Waters Acquity UPLC System; MS, Waters Xevo G2 Q-Tof
AC$INSTRUMENT_TYPE: LC-ESI-QTOF
AC$MASS_SPECTROMETRY: MS_TYPE MS2
AC$MASS_SPECTROMETRY: ION_MODE POSITIVE
AC$MASS_SPECTROMETRY: COLLISION_ENERGY 6V
AC$MASS_SPECTROMETRY: DESOLVATION_GAS_FLOW 800/h
AC$MASS_SPECTROMETRY: DESOLVATION_TEMPERATURE 450 C
AC$MASS_SPECTROMETRY: IONIZATION ESI
AC$CHROMATOGRAPHY: CAPILLARY_VOLTAGE +3.00 kV
AC$CHROMATOGRAPHY: COLUMN_NAME Acquity bridged ethyl hybrid C18 (1.7 um, 2.1 mm * 100 mm, Waters)
AC$CHROMATOGRAPHY: COLUMN_TEMPERATURE 40 C
AC$CHROMATOGRAPHY: FLOW_GRADIENT A/B = (99.5%/0.5% at 0 min, 99.5%/0.5% at 0.1 min, 20%/80% at 10 min, 0.5%/99.5% at 10.1 min, 0.5%/99.5% at 12.0 min, 99.5%/0.5% at 12.1 min, 99.5%/0.5% at 15.0 min)
AC$CHROMATOGRAPHY: FLOW_RATE 0.3 ml/min at 0 min, 0.3 ml/min at 10 min, 0.4 ml/min at 10.1 min, 0.4 ml/min at 14.4 min, 0.3 ml/min at 14.5 min
AC$CHROMATOGRAPHY: RETENTION_TIME 3.92
AC$CHROMATOGRAPHY: SOLVENT A water including 0.1% formic acid
AC$CHROMATOGRAPHY: SOLVENT B acetonitrile including 0.1% formic acid
MS$FOCUSED_ION: PRECURSOR_TYPE [M+H]+
MS$FOCUSED_ION: PRECURSOR_M/Z 339.2067
PK$SPLASH: splash10-000i-0129000000-d65c61c0b15f70d9c137
PK$NUM_PEAK: 263
PK$PEAK: m/z int. rel.int.
  67.05035 25.0 1
  70.0648 23.0 1
  77.04037 23.0 1
  87.04442 38.0 1
  87.05065 18.0 0
  91.05062 43.0 1
  96.06898 21.0 1
  96.08005 224.0 6
  97.08514 43.0 1
  97.09102 39.0 1
  108.08007 26.0 1
  110.07361 27.0 1
  110.09167 169.0 4
  115.0546 46.0 1
  118.05344 29.0 1
  118.06454 22.0 1
  119.08067 19.0 1
  120.07868 19.0 1
  120.08398 31.0 1
  122.08928 54.0 1
  123.10184 20.0 1
  124.0745 20.0 1
  124.11955 33.0 1
  129.06827 50.0 1
  130.06433 46.0 1
  131.07001 20.0 1
  131.08534 22.0 1
  136.11049 17.0 0
  136.11678 25.0 1
  142.06123 21.0 1
  144.08051 93.0 2
  145.10159 22.0 1
  148.07394 27.0 1
  148.0802 27.0 1
  149.11024 21.0 1
  150.08589 20.0 1
  151.06244 17.0 0
  154.06015 19.0 1
  154.06819 41.0 1
  155.05318 26.0 1
  156.0672 21.0 1
  156.08414 191.0 5
  157.07945 25.0 1
  158.1068 28.0 1
  158.60374 24.0 1
  161.07193 36.0 1
  166.83847 17.0 0
  167.07487 41.0 1
  168.08127 350.0 9
  168.09123 87.0 2
  169.08748 62.0 2
  170.05504 17.0 0
  170.06134 34.0 1
  170.06941 25.0 1
  170.08189 21.0 1
  170.09334 37.0 1
  170.10031 58.0 2
  172.06628 106.0 3
  172.07628 100.0 3
  173.11009 21.0 1
  177.91078 30.0 1
  180.06963 107.0 3
  180.07983 188.0 5
  180.10094 19.0 1
  181.09099 17.0 0
  182.07298 22.0 1
  182.08904 118.0 3
  182.10178 61.0 2
  183.07135 36.0 1
  183.08176 19.0 1
  183.09326 33.0 1
  183.10156 144.0 4
  184.09995 34.0 1
  184.11115 47.0 1
  184.12021 24.0 1
  186.08694 36.0 1
  186.13469 57.0 2
  186.18651 57.0 2
  187.09029 19.0 1
  188.06622 32.0 1
  191.07822 48.0 1
  192.08298 20.0 1
  192.10609 38.0 1
  194.09383 78.0 2
  194.11095 110.0 3
  195.10065 71.0 2
  195.10777 63.0 2
  196.07536 48.0 1
  196.11293 746.0 20
  197.10728 2044.0 54
  197.69833 26.0 1
  198.10561 239.0 6
  198.11327 121.0 3
  198.12935 38.0 1
  199.11929 23.0 1
  200.07076 25.0 1
  202.07869 142.0 4
  202.09605 40.0 1
  202.22989 17.0 0
  203.07469 17.0 0
  204.33643 43.0 1
  205.08719 59.0 2
  206.05406 19.0 1
  206.09682 55.0 1
  206.10429 25.0 1
  206.56834 27.0 1
  207.10622 18.0 0
  208.11139 365.0 10
  209.09665 46.0 1
  209.10979 217.0 6
  209.1232 34.0 1
  210.07645 23.0 1
  210.09187 64.0 2
  210.11026 105.0 3
  213.65154 35.0 1
  215.09335 31.0 1
  217.0623 24.0 1
  217.45062 24.0 1
  218.08638 18.0 0
  219.0658 21.0 1
  220.10126 99.0 3
  220.80743 20.0 1
  221.11195 19.0 1
  221.12328 74.0 2
  222.0956 28.0 1
  222.12869 312.0 8
  222.76381 22.0 1
  223.09727 56.0 1
  223.11653 180.0 5
  223.13554 64.0 2
  223.87538 28.0 1
  224.11288 58.0 2
  224.13222 158.0 4
  224.15268 22.0 1
  224.23657 25.0 1
  224.47321 29.0 1
  225.06802 26.0 1
  225.09677 23.0 1
  225.13736 2184.0 57
  226.10378 20.0 1
  226.12334 28.0 1
  226.14034 478.0 13
  226.15028 124.0 3
  226.16316 36.0 1
  226.51485 17.0 0
  227.15399 25.0 1
  228.06653 24.0 1
  229.10829 28.0 1
  230.30618 55.0 1
  232.20988 23.0 1
  233.98933 22.0 1
  234.10246 34.0 1
  234.11336 17.0 0
  234.12881 108.0 3
  234.13783 67.0 2
  235.11723 18.0 0
  235.133 48.0 1
  236.10652 84.0 2
  236.11388 66.0 2
  236.13336 41.0 1
  236.13943 112.0 3
  236.15556 88.0 2
  237.1163 22.0 1
  237.13809 39.0 1
  237.14615 36.0 1
  237.56361 24.0 1
  237.73499 18.0 0
  238.07353 28.0 1
  238.12445 65.0 2
  245.089 25.0 1
  248.10472 31.0 1
  248.12421 24.0 1
  248.13631 30.0 1
  248.15498 62.0 2
  249.12338 34.0 1
  250.11104 47.0 1
  250.15239 102.0 3
  251.07602 24.0 1
  251.1001 20.0 1
  251.11903 68.0 2
  251.14299 124.0 3
  251.15231 122.0 3
  251.16858 45.0 1
  251.19019 18.0 0
  251.66643 17.0 0
  251.69711 24.0 1
  252.10818 36.0 1
  252.13695 20.0 1
  252.15398 66.0 2
  252.16685 31.0 1
  253.00056 20.0 1
  253.15192 19.0 1
  253.16864 82.0 2
  254.17534 17.0 0
  257.12292 36.0 1
  261.13928 18.0 0
  262.12497 112.0 3
  262.1485 36.0 1
  263.08737 29.0 1
  264.14182 87.0 2
  266.32394 24.0 1
  266.53027 27.0 1
  268.12369 28.0 1
  268.13531 41.0 1
  268.95523 24.0 1
  269.12607 25.0 1
  270.15714 49.0 1
  272.50641 26.0 1
  273.80099 20.0 1
  276.13858 25.0 1
  278.14935 27.0 1
  278.20883 28.0 1
  279.13217 23.0 1
  279.14236 19.0 1
  279.1629 19.0 1
  279.17523 87.0 2
  279.18436 70.0 2
  279.20041 34.0 1
  279.87567 38.0 1
  280.15057 45.0 1
  280.17252 20.0 1
  280.1843 24.0 1
  281.06815 54.0 1
  282.15845 42.0 1
  283.14496 41.0 1
  294.15912 24.0 1
  294.4151 35.0 1
  296.17789 36.0 1
  302.10638 35.0 1
  305.15863 63.0 2
  306.16357 21.0 1
  306.86203 18.0 0
  307.1636 29.0 1
  307.18121 122.0 3
  308.16565 53.0 1
  308.18146 19.0 1
  309.16318 36.0 1
  310.17267 29.0 1
  311.1842 107.0 3
  311.49863 25.0 1
  313.17084 35.0 1
  314.5918 27.0 1
  316.69565 22.0 1
  321.23102 33.0 1
  329.19418 33.0 1
  332.16727 20.0 1
  337.17249 23.0 1
  337.18741 38.0 1
  337.20715 30.0 1
  337.45996 18.0 0
  338.02512 21.0 1
  338.18658 78.0 2
  338.20285 21.0 1
  338.86154 55.0 1
  338.9523 18.0 0
  338.96994 28.0 1
  339.0979 82.0 2
  339.13013 59.0 2
  339.15091 236.0 6
  339.20557 37959.0 999
  339.25937 520.0 14
  339.2941 27.0 1
  339.37589 27.0 1
//
