ACCESSION: MSBNK-RIKEN-PR307040
RECORD_TITLE: NP-000062(6); LC-ESI-QTOF; MS2
DATE: 2019.03.28
AUTHORS: Tetsuya Mori, Center for Sustainable Resource Science, RIKEN
LICENSE: CC BY-NC-SA
PUBLICATION: Tsugawa H., Nakabayashi R., Mori T., Yamada Y., Takahashi M., Rai A., Sugiyama R., Yamamoto H., Nakaya T., Yamazaki M., Kooke R., Bac-Molenaar JA., Oztolan-Erol N., Keurentjes JJB., Arita M., Saito K. (2019) "A cheminformatics approach to characterize metabolomes in stable-isotope-labeled organisms" Nature Methods 16(4):295-298. [doi:10.1038/s41592-019-0358-2]
COMMENT: registered in RIKEN PlaSMA
CH$NAME: NP-000062(6)
CH$COMPOUND_CLASS: Flavonoid 8-C-glycosides
CH$FORMULA: C26H28O14
CH$EXACT_MASS: 564.496
CH$SMILES: OCC1OC(C(O)C1O)C1=C(O)C(C2OC(CO)C(O)C(O)C2O)=C2OC(=CC(=O)C2=C1O)C1=CC=C(O)C=C1
CH$IUPAC: InChI=1S/C26H28O14/c27-6-12-17(31)21(35)23(37)26(40-12)16-20(34)15(25-22(36)18(32)13(7-28)39-25)19(33)14-10(30)5-11(38-24(14)16)8-1-3-9(29)4-2-8/h1-5,12-13,17-18,21-23,25-29,31-37H,6-7H2
CH$LINK: INCHIKEY DRLZZQRQMWQRLZ-UHFFFAOYSA-N
AC$INSTRUMENT: LC, Waters Acquity UPLC System; MS, Waters Xevo G2 Q-Tof
AC$INSTRUMENT_TYPE: LC-ESI-QTOF
AC$MASS_SPECTROMETRY: MS_TYPE MS2
AC$MASS_SPECTROMETRY: ION_MODE NEGATIVE
AC$MASS_SPECTROMETRY: COLLISION_ENERGY 6V
AC$MASS_SPECTROMETRY: DESOLVATION_GAS_FLOW 800/h
AC$MASS_SPECTROMETRY: DESOLVATION_TEMPERATURE 450 C
AC$MASS_SPECTROMETRY: IONIZATION ESI
AC$CHROMATOGRAPHY: CAPILLARY_VOLTAGE -2.75 kV
AC$CHROMATOGRAPHY: COLUMN_NAME Acquity bridged ethyl hybrid C18 (1.7 um, 2.1 mm * 100 mm, Waters)
AC$CHROMATOGRAPHY: COLUMN_TEMPERATURE 40 C
AC$CHROMATOGRAPHY: FLOW_GRADIENT A/B = (99.5%/0.5% at 0 min, 99.5%/0.5% at 0.1 min, 20%/80% at 10 min, 0.5%/99.5% at 10.1 min, 0.5%/99.5% at 12.0 min, 99.5%/0.5% at 12.1 min, 99.5%/0.5% at 15.0 min)
AC$CHROMATOGRAPHY: FLOW_RATE 0.3 ml/min at 0 min, 0.3 ml/min at 10 min, 0.4 ml/min at 10.1 min, 0.4 ml/min at 14.4 min, 0.3 ml/min at 14.5 min
AC$CHROMATOGRAPHY: RETENTION_TIME 3.638367
AC$CHROMATOGRAPHY: SOLVENT A water including 0.1% formic acid
AC$CHROMATOGRAPHY: SOLVENT B acetonitrile including 0.1% formic acid
MS$FOCUSED_ION: PRECURSOR_TYPE [M-H]-
MS$FOCUSED_ION: PRECURSOR_M/Z 563.14062914783
PK$SPLASH: splash10-0002-0494000000-451b10068b755bb17472
PK$NUM_PEAK: 287
PK$PEAK: m/z int. rel.int.
  71.01488 13.0 13
  73.03082 8.0 8
  79.01805 9.0 9
  83.01506 8.0 8
  91.05184 8.0 8
  92.02196 16.0 16
  92.0602 9.0 9
  92.34338 9.0 9
  93.03259 8.0 8
  101.01874 12.0 12
  103.05052 7.0 7
  107.05134 28.0 28
  109.02987 8.0 8
  110.95179 8.0 8
  115.05727 8.0 8
  117.03415 173.0 173
  119.04768 36.0 36
  119.35356 6.0 6
  123.04267 10.0 10
  123.53502 6.0 6
  124.0513 10.0 10
  131.05031 17.0 17
  132.02162 7.0 7
  133.07047 13.0 13
  133.86383 7.0 7
  134.03419 7.0 7
  135.00401 10.0 10
  135.03593 20.0 20
  135.04517 51.0 51
  136.04576 10.0 10
  137.02333 7.0 7
  138.03053 11.0 11
  138.9144 19.0 19
  143.04814 17.0 17
  144.05695 10.0 10
  144.06606 10.0 10
  145.02429 9.0 9
  145.03151 10.0 10
  145.06458 9.0 9
  147.04559 47.0 47
  148.77504 11.0 11
  149.02516 27.0 27
  149.05547 16.0 16
  149.06041 7.0 7
  150.03467 10.0 10
  150.98953 7.0 7
  151.03499 9.0 9
  157.23624 6.0 6
  157.5058 7.0 7
  159.04482 47.0 47
  159.07974 9.0 9
  161.02344 118.0 118
  161.06448 20.0 20
  162.03389 20.0 20
  162.99524 6.0 6
  163.00385 10.0 10
  163.03867 74.0 74
  163.04713 18.0 18
  164.04944 9.0 9
  165.0244 10.0 10
  170.06898 7.0 7
  170.33012 8.0 8
  170.84712 9.0 9
  171.04399 12.0 12
  172.03987 6.0 6
  173.01988 8.0 8
  173.05983 8.0 8
  174.02901 9.0 9
  175.01256 18.0 18
  175.03589 46.0 46
  175.04425 38.0 38
  176.04713 26.0 26
  177.01866 50.0 50
  177.04668 8.0 8
  177.05823 56.0 56
  177.18314 7.0 7
  178.06329 9.0 9
  179.03767 41.0 41
  181.06041 9.0 9
  181.10648 10.0 10
  181.34061 9.0 9
  182.04192 8.0 8
  183.04091 18.0 18
  183.0826 8.0 8
  185.02917 33.0 33
  185.06606 6.0 6
  187.03383 9.0 9
  187.04028 26.0 26
  188.01277 10.0 10
  188.04367 14.0 14
  189.00612 10.0 10
  189.01927 38.0 38
  189.05643 44.0 44
  190.01811 8.0 8
  191.0329 65.0 65
  196.05116 15.0 15
  197.05952 35.0 35
  197.09244 15.0 15
  198.05804 11.0 11
  199.03757 19.0 19
  201.01447 12.0 12
  201.05664 10.0 10
  202.02266 9.0 9
  203.0204 8.0 8
  203.0332 70.0 70
  204.03242 6.0 6
  204.04916 8.0 8
  205.0193 17.0 17
  205.05258 79.0 79
  206.0157 9.0 9
  206.073 8.0 8
  207.086 8.0 8
  209.06259 8.0 8
  209.07518 9.0 9
  209.08919 7.0 7
  210.05721 7.0 7
  210.07079 24.0 24
  211.07425 9.0 9
  215.05107 8.0 8
  215.08005 9.0 9
  216.00356 12.0 12
  217.01393 14.0 14
  217.05086 7.0 7
  218.05376 8.0 8
  218.07417 8.0 8
  219.02603 7.0 7
  219.05908 8.0 8
  221.03958 17.0 17
  223.0789 17.0 17
  224.08859 59.0 59
  225.05074 8.0 8
  225.08322 9.0 9
  225.31242 11.0 11
  227.66702 18.0 18
  228.04768 8.0 8
  229.0878 7.0 7
  231.02682 7.0 7
  233.04221 9.0 9
  233.05011 9.0 9
  234.05119 18.0 18
  235.05232 9.0 9
  235.07632 16.0 16
  237.04585 10.0 10
  237.05916 23.0 23
  237.09566 13.0 13
  238.03429 8.0 8
  238.06558 19.0 19
  239.06563 14.0 14
  240.04346 7.0 7
  241.05533 16.0 16
  245.04402 24.0 24
  247.03589 11.0 11
  247.07924 9.0 9
  247.08841 8.0 8
  248.08305 14.0 14
  249.06989 9.0 9
  250.06152 7.0 7
  251.06999 14.0 14
  251.08095 9.0 9
  252.99463 8.0 8
  253.04074 7.0 7
  253.08537 39.0 39
  254.08475 20.0 20
  254.72791 10.0 10
  255.06161 18.0 18
  255.08269 9.0 9
  257.04446 7.0 7
  261.06616 8.0 8
  262.06259 16.0 16
  263.03354 8.0 8
  263.07828 10.0 10
  264.07037 10.0 10
  265.05896 10.0 10
  266.0545 8.0 8
  266.0983 8.0 8
  267.05768 9.0 9
  267.06958 17.0 17
  267.07877 14.0 14
  268.04614 14.0 14
  268.06662 17.0 17
  268.07736 37.0 37
  269.03751 17.0 17
  269.07986 26.0 26
  269.09088 8.0 8
  270.01147 9.0 9
  270.04675 7.0 7
  271.02081 9.0 9
  272.03265 9.0 9
  275.04971 8.0 8
  275.31485 7.0 7
  276.25601 8.0 8
  277.05466 8.0 8
  277.60989 7.0 7
  278.06052 11.0 11
  278.37186 8.0 8
  279.03513 10.0 10
  279.06897 21.0 21
  281.04132 56.0 56
  281.05762 7.0 7
  282.03802 15.0 15
  282.05167 79.0 79
  283.06274 233.0 233
  284.05731 31.0 31
  284.06897 9.0 9
  290.06018 11.0 11
  291.0567 9.0 9
  291.07257 8.0 8
  293.03378 15.0 15
  293.07974 19.0 19
  294.0014 7.0 7
  294.0513 21.0 21
  294.06244 39.0 39
  294.09619 11.0 11
  295.01001 8.0 8
  295.06149 367.0 367
  295.54984 6.0 6
  296.06699 267.0 267
  296.15067 11.0 11
  297.07672 1000.0 999
  298.07916 192.0 192
  299.04944 8.0 8
  299.0806 13.0 13
  299.27597 11.0 11
  302.05511 9.0 9
  303.07968 8.0 8
  304.07385 6.0 6
  305.04596 11.0 11
  305.08292 9.0 9
  307.039 8.0 8
  307.05664 114.0 114
  307.0679 67.0 67
  307.20346 6.0 6
  308.03696 6.0 6
  308.06174 7.0 7
  308.0751 20.0 20
  308.40451 7.0 7
  309.07504 119.0 119
  310.08121 15.0 15
  311.05447 63.0 63
  315.45062 10.0 10
  319.06723 9.0 9
  320.05566 10.0 10
  321.04514 8.0 8
  321.06088 11.0 11
  321.07892 7.0 7
  322.0452 7.0 7
  323.05392 125.0 125
  323.08026 8.0 8
  324.06137 58.0 58
  325.07123 208.0 208
  326.0737 55.0 55
  329.50308 8.0 8
  333.06613 7.0 7
  334.04608 8.0 8
  335.04593 15.0 15
  335.06415 6.0 6
  336.05457 14.0 14
  337.06711 39.0 39
  337.08569 21.0 21
  338.07779 35.0 35
  340.05215 10.0 10
  344.02948 13.0 13
  346.07175 7.0 7
  348.06122 12.0 12
  349.09229 9.0 9
  350.77173 11.0 11
  351.04349 8.0 8
  351.05499 10.0 10
  353.06244 54.0 54
  353.07666 67.0 67
  354.0679 46.0 46
  362.07162 10.0 10
  365.06702 74.0 74
  365.08459 9.0 9
  366.07028 56.0 56
  369.09189 7.0 7
  377.04611 15.0 15
  377.07166 8.0 8
  381.0661 19.0 19
  383.08084 60.0 60
  389.04837 9.0 9
  391.0932 8.0 8
  395.0903 24.0 24
  395.19485 12.0 12
  397.08459 7.0 7
  437.0715 10.0 10
  467.09885 8.0 8
//
