ACCESSION: MSBNK-RIKEN-PR310590
RECORD_TITLE: Hydroxygardnutine; LC-ESI-QTOF; MS2
DATE: 2019.03.28
AUTHORS: Tetsuya Mori, Center for Sustainable Resource Science, RIKEN
LICENSE: CC BY-NC-SA
PUBLICATION: Tsugawa H., Nakabayashi R., Mori T., Yamada Y., Takahashi M., Rai A., Sugiyama R., Yamamoto H., Nakaya T., Yamazaki M., Kooke R., Bac-Molenaar JA., Oztolan-Erol N., Keurentjes JJB., Arita M., Saito K. (2019) "A cheminformatics approach to characterize metabolomes in stable-isotope-labeled organisms" Nature Methods 16(4):295-298. [doi:10.1038/s41592-019-0358-2]
COMMENT: Annotation level-1
CH$NAME: Hydroxygardnutine
CH$COMPOUND_CLASS: Alkaloids
CH$FORMULA: C20H22N2O3
CH$EXACT_MASS: 338.407
CH$SMILES: COC1=CC=C2C(NC3=C2C2OCC4C2N2CC(=CCO)C4CC32)=C1
CH$IUPAC: InChI=1S/C20H22N2O3/c1-24-11-2-3-12-15(6-11)21-18-16-7-13-10(4-5-23)8-22(16)19-14(13)9-25-20(19)17(12)18/h2-4,6,13-14,16,19-21,23H,5,7-9H2,1H3
CH$LINK: INCHIKEY OUONWRIEOZGMSQ-UHFFFAOYSA-N
AC$INSTRUMENT: LC, Waters Acquity UPLC System; MS, Waters Xevo G2 Q-Tof
AC$INSTRUMENT_TYPE: LC-ESI-QTOF
AC$MASS_SPECTROMETRY: MS_TYPE MS2
AC$MASS_SPECTROMETRY: ION_MODE POSITIVE
AC$MASS_SPECTROMETRY: COLLISION_ENERGY 6V
AC$MASS_SPECTROMETRY: DESOLVATION_GAS_FLOW 800/h
AC$MASS_SPECTROMETRY: DESOLVATION_TEMPERATURE 450 C
AC$MASS_SPECTROMETRY: IONIZATION ESI
AC$CHROMATOGRAPHY: CAPILLARY_VOLTAGE +3.00 kV
AC$CHROMATOGRAPHY: COLUMN_NAME Acquity bridged ethyl hybrid C18 (1.7 um, 2.1 mm * 100 mm, Waters)
AC$CHROMATOGRAPHY: COLUMN_TEMPERATURE 40 C
AC$CHROMATOGRAPHY: FLOW_GRADIENT A/B = (99.5%/0.5% at 0 min, 99.5%/0.5% at 0.1 min, 20%/80% at 10 min, 0.5%/99.5% at 10.1 min, 0.5%/99.5% at 12.0 min, 99.5%/0.5% at 12.1 min, 99.5%/0.5% at 15.0 min)
AC$CHROMATOGRAPHY: FLOW_RATE 0.3 ml/min at 0 min, 0.3 ml/min at 10 min, 0.4 ml/min at 10.1 min, 0.4 ml/min at 14.4 min, 0.3 ml/min at 14.5 min
AC$CHROMATOGRAPHY: RETENTION_TIME 3.6
AC$CHROMATOGRAPHY: SOLVENT A water including 0.1% formic acid
AC$CHROMATOGRAPHY: SOLVENT B acetonitrile including 0.1% formic acid
MS$FOCUSED_ION: PRECURSOR_TYPE [M+H]+
MS$FOCUSED_ION: PRECURSOR_M/Z 339.17032
PK$SPLASH: splash10-000i-0439000000-6d4774229861d9c5e60c
PK$NUM_PEAK: 535
PK$PEAK: m/z int. rel.int.
  54.91839 20.0 1
  71.0489 60.0 2
  72.04321 33.0 1
  77.03728 139.0 5
  77.69829 27.0 1
  79.05402 52.0 2
  79.05971 51.0 2
  80.05152 41.0 2
  80.4989 19.0 1
  85.06525 27.0 1
  89.61796 21.0 1
  91.04823 55.0 2
  91.0571 96.0 4
  92.03017 47.0 2
  92.04726 18.0 1
  93.06667 73.0 3
  93.07345 32.0 1
  94.0632 27.0 1
  94.06796 25.0 1
  96.08115 201.0 7
  97.06348 71.0 3
  98.28498 19.0 1
  99.15407 24.0 1
  103.03497 26.0 1
  103.04569 62.0 2
  103.05362 453.0 17
  104.05533 33.0 1
  104.06526 21.0 1
  106.04681 45.0 2
  106.06539 1018.0 37
  106.07516 63.0 2
  106.71197 21.0 1
  107.06341 31.0 1
  108.04604 38.0 1
  108.0847 79.0 3
  109.05887 42.0 2
  109.06418 49.0 2
  109.0724 18.0 1
  110.0582 82.0 3
  110.0676 25.0 1
  110.09586 163.0 6
  110.10413 50.0 2
  111.10064 27.0 1
  112.0733 57.0 2
  113.31283 18.0 1
  115.04565 23.0 1
  116.05683 37.0 1
  117.0512 24.0 1
  117.0611 63.0 2
  117.0771 29.0 1
  117.96609 32.0 1
  118.05847 73.0 3
  118.0643 162.0 6
  119.04406 20.0 1
  119.07146 126.0 5
  120.03421 29.0 1
  120.04747 26.0 1
  120.08076 2447.0 90
  120.20451 18.0 1
  121.06097 21.0 1
  121.07154 23.0 1
  121.08496 117.0 4
  122.06476 47.0 2
  123.0412 19.0 1
  123.07062 39.0 1
  124.06446 20.0 1
  124.07313 170.0 6
  124.07889 94.0 3
  126.0861 34.0 1
  126.09216 23.0 1
  127.91158 35.0 1
  129.07259 47.0 2
  130.06194 66.0 2
  130.07285 42.0 2
  131.07112 92.0 3
  132.03809 17.0 1
  132.05545 25.0 1
  132.07385 109.0 4
  132.08052 110.0 4
  133.04837 23.0 1
  133.06305 29.0 1
  134.15753 18.0 1
  136.03773 18.0 1
  136.06226 62.0 2
  136.07561 1524.0 56
  137.07297 26.0 1
  137.08276 141.0 5
  137.106 17.0 1
  138.00024 21.0 1
  138.06108 17.0 1
  138.0802 112.0 4
  138.09119 1027.0 38
  138.95442 17.0 1
  139.09421 253.0 9
  139.21773 17.0 1
  140.09787 17.0 1
  142.07617 17.0 1
  143.07542 21.0 1
  144.07782 144.0 5
  144.84795 20.0 1
  145.05812 53.0 2
  145.07471 19.0 1
  145.08212 27.0 1
  146.05791 17.0 1
  146.06291 35.0 1
  146.07187 56.0 2
  146.09312 20.0 1
  147.06314 23.0 1
  147.07301 150.0 6
  148.07127 138.0 5
  148.0804 53.0 2
  149.06595 54.0 2
  149.07262 34.0 1
  150.01064 19.0 1
  150.06761 50.0 2
  150.09219 149.0 5
  151.09273 17.0 1
  151.10312 44.0 2
  151.24631 33.0 1
  152.05565 22.0 1
  152.07724 18.0 1
  152.10583 20.0 1
  153.05481 24.0 1
  153.07536 20.0 1
  153.35252 17.0 1
  153.64178 23.0 1
  154.07584 29.0 1
  154.12634 41.0 2
  155.06984 51.0 2
  156.08084 70.0 3
  157.04695 20.0 1
  157.08185 26.0 1
  157.09041 27.0 1
  158.02162 39.0 1
  158.03172 35.0 1
  158.04759 61.0 2
  158.05905 1002.0 37
  158.62456 20.0 1
  159.04991 52.0 2
  159.0639 161.0 6
  159.07843 19.0 1
  160.05013 49.0 2
  160.07533 431.0 16
  160.08664 57.0 2
  161.08176 167.0 6
  162.08647 124.0 5
  162.09424 54.0 2
  163.08365 21.0 1
  164.06654 31.0 1
  164.09569 39.0 1
  164.1118 233.0 9
  164.13747 20.0 1
  165.08817 19.0 1
  166.07024 38.0 1
  166.07974 142.0 5
  166.08859 113.0 4
  167.05801 45.0 2
  167.06844 48.0 2
  167.09004 72.0 3
  168.07481 33.0 1
  168.40134 17.0 1
  169.04425 23.0 1
  169.08574 32.0 1
  169.67854 17.0 1
  170.05394 53.0 2
  170.06783 27.0 1
  172.06421 30.0 1
  172.08391 145.0 5
  173.02415 24.0 1
  173.0545 48.0 2
  173.0625 120.0 4
  173.084 1675.0 61
  174.01317 19.0 1
  174.06458 23.0 1
  174.08847 645.0 24
  175.09937 45.0 2
  176.10452 20.0 1
  176.54478 20.0 1
  176.61932 20.0 1
  177.34624 17.0 1
  177.94095 21.0 1
  180.08389 33.0 1
  181.0527 57.0 2
  181.08774 55.0 2
  181.09622 30.0 1
  182.09995 25.0 1
  184.06047 19.0 1
  184.07332 97.0 4
  185.06331 95.0 3
  185.11137 19.0 1
  186.05444 25.0 1
  186.07008 26.0 1
  186.08386 127.0 5
  186.09135 284.0 10
  187.09581 137.0 5
  187.10677 92.0 3
  188.06009 25.0 1
  188.07008 128.0 5
  188.09047 55.0 2
  188.09814 78.0 3
  188.11014 208.0 8
  189.06297 19.0 1
  189.077 49.0 2
  189.11018 21.0 1
  189.80168 18.0 1
  190.04355 22.0 1
  190.09984 22.0 1
  191.06453 43.0 2
  191.071 16.0 1
  192.07994 23.0 1
  193.07407 49.0 2
  193.09242 130.0 5
  194.08742 33.0 1
  194.10184 33.0 1
  195.06776 28.0 1
  195.0806 19.0 1
  196.08235 47.0 2
  196.0929 27.0 1
  196.62689 17.0 1
  197.06113 53.0 2
  197.07491 24.0 1
  197.09491 17.0 1
  198.08003 33.0 1
  198.09366 113.0 4
  198.42169 20.0 1
  199.0618 17.0 1
  199.0862 55.0 2
  199.0945 73.0 3
  200.07936 41.0 2
  200.0977 87.0 3
  200.95996 20.0 1
  201.064 18.0 1
  201.08154 47.0 2
  201.09038 32.0 1
  201.10979 20.0 1
  202.06483 33.0 1
  202.08528 831.0 31
  202.1866 20.0 1
  203.08444 78.0 3
  203.09575 184.0 7
  203.11072 41.0 2
  204.09071 19.0 1
  204.10446 95.0 3
  205.08624 38.0 1
  205.10049 17.0 1
  207.10509 22.0 1
  208.039 28.0 1
  208.07329 94.0 3
  208.10965 50.0 2
  208.17204 21.0 1
  209.08076 250.0 9
  209.09383 51.0 2
  209.7403 20.0 1
  210.0872 266.0 10
  210.10226 73.0 3
  211.08961 132.0 5
  211.10431 22.0 1
  212.09561 164.0 6
  212.10738 85.0 3
  212.11508 70.0 3
  213.07358 52.0 2
  213.08618 24.0 1
  213.10626 199.0 7
  214.08374 42.0 2
  214.10905 40.0 1
  215.06242 31.0 1
  215.08008 42.0 2
  215.14885 20.0 1
  216.10574 69.0 3
  217.08015 80.0 3
  217.09233 85.0 3
  218.00101 25.0 1
  218.09108 81.0 3
  218.10274 49.0 2
  219.07762 40.0 1
  219.09843 20.0 1
  219.10678 20.0 1
  220.09947 23.0 1
  221.07423 28.0 1
  222.08015 38.0 1
  222.09007 24.0 1
  223.08754 17.0 1
  223.09741 84.0 3
  223.12711 45.0 2
  224.10622 860.0 32
  224.13545 32.0 1
  225.07014 18.0 1
  225.10934 87.0 3
  225.12149 58.0 2
  225.81905 41.0 2
  226.06827 24.0 1
  226.08507 32.0 1
  226.10796 98.0 4
  226.12137 79.0 3
  226.13391 56.0 2
  227.08311 91.0 3
  227.13388 27.0 1
  228.09494 64.0 2
  229.09219 31.0 1
  229.27559 31.0 1
  231.09683 20.0 1
  232.06767 18.0 1
  232.10805 46.0 2
  232.11598 40.0 1
  233.09308 54.0 2
  233.43121 22.0 1
  233.49045 22.0 1
  234.0824 42.0 2
  234.10068 74.0 3
  235.09828 248.0 9
  235.12241 25.0 1
  235.14423 25.0 1
  235.71864 21.0 1
  236.10924 351.0 13
  237.10324 119.0 4
  238.11613 197.0 7
  238.13759 26.0 1
  239.09535 32.0 1
  239.11452 22.0 1
  239.58678 42.0 2
  240.09332 27.0 1
  240.13295 33.0 1
  241.15613 25.0 1
  242.09808 19.0 1
  242.10994 47.0 2
  243.09775 52.0 2
  244.10468 43.0 2
  244.13692 69.0 3
  245.10963 94.0 3
  246.08809 48.0 2
  246.11342 31.0 1
  247.08646 51.0 2
  247.09686 34.0 1
  247.10909 23.0 1
  247.1223 22.0 1
  248.0977 177.0 6
  248.11124 89.0 3
  248.17212 22.0 1
  249.03358 33.0 1
  249.08472 31.0 1
  249.09331 81.0 3
  249.10701 114.0 4
  250.10222 93.0 3
  250.11923 57.0 2
  250.13423 102.0 4
  251.0826 18.0 1
  251.09254 31.0 1
  251.11006 45.0 2
  251.12878 52.0 2
  252.07581 80.0 3
  252.09526 300.0 11
  252.11118 227.0 8
  253.08499 50.0 2
  253.11099 44.0 2
  253.13074 79.0 3
  254.12555 193.0 7
  254.14374 20.0 1
  255.10417 28.0 1
  256.13138 25.0 1
  257.08002 33.0 1
  258.11893 38.0 1
  258.67374 29.0 1
  258.88416 23.0 1
  259.0968 53.0 2
  259.97198 19.0 1
  260.08398 23.0 1
  260.09244 24.0 1
  260.1033 23.0 1
  261.08173 21.0 1
  261.09134 22.0 1
  261.11301 191.0 7
  261.12827 23.0 1
  262.10101 51.0 2
  262.10989 139.0 5
  262.12717 17.0 1
  262.41028 48.0 2
  263.11383 287.0 11
  263.13721 100.0 4
  264.08551 35.0 1
  264.09973 47.0 2
  264.11414 77.0 3
  264.12497 78.0 3
  264.14066 169.0 6
  265.08481 68.0 2
  265.09991 76.0 3
  265.11649 18.0 1
  265.13403 126.0 5
  265.21646 21.0 1
  266.10223 96.0 4
  266.1239 49.0 2
  266.13779 77.0 3
  266.15137 79.0 3
  267.10126 46.0 2
  267.12296 126.0 5
  267.13431 29.0 1
  267.51495 24.0 1
  268.12607 143.0 5
  269.13058 19.0 1
  269.14056 28.0 1
  270.14447 30.0 1
  271.13855 19.0 1
  271.15192 28.0 1
  272.10541 18.0 1
  273.09366 18.0 1
  274.08099 17.0 1
  274.1188 33.0 1
  274.12643 83.0 3
  275.1105 79.0 3
  276.08667 39.0 1
  276.12238 72.0 3
  276.1391 159.0 6
  277.10864 120.0 4
  277.13165 265.0 10
  277.93518 18.0 1
  278.1041 159.0 6
  278.1427 406.0 15
  279.0766 31.0 1
  279.11768 198.0 7
  279.14362 61.0 2
  279.62845 30.0 1
  280.11307 72.0 3
  280.12943 141.0 5
  280.14514 46.0 2
  281.10577 24.0 1
  281.13168 126.0 5
  281.14783 37.0 1
  282.12378 52.0 2
  282.13824 21.0 1
  282.14883 52.0 2
  282.16174 28.0 1
  283.13602 21.0 1
  283.42416 18.0 1
  284.04892 26.0 1
  284.11984 125.0 5
  284.1377 19.0 1
  285.11243 27.0 1
  285.12848 21.0 1
  286.11072 27.0 1
  288.12439 18.0 1
  288.14261 18.0 1
  289.14029 22.0 1
  291.09888 19.0 1
  291.15103 94.0 3
  292.00082 22.0 1
  292.11856 64.0 2
  292.13412 80.0 3
  292.78061 21.0 1
  293.0795 21.0 1
  293.11008 47.0 2
  293.13162 380.0 14
  293.17203 33.0 1
  293.56879 24.0 1
  294.10645 23.0 1
  294.12244 164.0 6
  294.13821 628.0 23
  294.16547 17.0 1
  294.33182 25.0 1
  294.38126 20.0 1
  294.88821 26.0 1
  295.10089 47.0 2
  295.12787 44.0 2
  295.13748 154.0 6
  295.1506 111.0 4
  295.20529 22.0 1
  295.86288 39.0 1
  295.90628 57.0 2
  296.11642 43.0 2
  296.13904 77.0 3
  296.15002 28.0 1
  303.51541 20.0 1
  304.12738 17.0 1
  304.14563 35.0 1
  305.11136 38.0 1
  305.14276 28.0 1
  306.13644 30.0 1
  307.12183 22.0 1
  307.14886 43.0 2
  308.13104 57.0 2
  308.14581 69.0 3
  308.15555 75.0 3
  309.07492 33.0 1
  309.09009 21.0 1
  309.11008 59.0 2
  309.13229 197.0 7
  309.15945 7711.0 283
  309.19424 17.0 1
  309.21606 19.0 1
  309.71915 32.0 1
  309.77365 19.0 1
  310.15598 919.0 34
  310.1666 1040.0 38
  310.1893 27.0 1
  310.44604 33.0 1
  310.65317 19.0 1
  311.14035 53.0 2
  311.16071 287.0 11
  311.1745 112.0 4
  311.18716 45.0 2
  311.20206 25.0 1
  312.13983 27.0 1
  312.17615 27.0 1
  313.80841 20.0 1
  314.20944 33.0 1
  315.46014 18.0 1
  319.13181 55.0 2
  319.31787 27.0 1
  321.15335 336.0 12
  321.1796 150.0 6
  322.08817 27.0 1
  322.12131 26.0 1
  322.13596 146.0 5
  322.1467 359.0 13
  322.17114 45.0 2
  322.18759 24.0 1
  323.11374 17.0 1
  323.13022 47.0 2
  323.14725 31.0 1
  323.17404 25.0 1
  324.15924 50.0 2
  330.62262 23.0 1
  332.63565 17.0 1
  334.40085 29.0 1
  337.90714 17.0 1
  338.18082 33.0 1
  338.41498 17.0 1
  338.96689 20.0 1
  339.01376 17.0 1
  339.04025 17.0 1
  339.06827 43.0 2
  339.09766 114.0 4
  339.12698 177.0 6
  339.16849 27215.0 999
  339.22302 512.0 19
  339.2919 18.0 1
  339.3194 17.0 1
//
