ACCESSION: MSBNK-RIKEN-PR310614
RECORD_TITLE: Napelline; LC-ESI-QTOF; MS2
DATE: 2019.03.28
AUTHORS: Tetsuya Mori, Center for Sustainable Resource Science, RIKEN
LICENSE: CC BY-NC-SA
PUBLICATION: Tsugawa H., Nakabayashi R., Mori T., Yamada Y., Takahashi M., Rai A., Sugiyama R., Yamamoto H., Nakaya T., Yamazaki M., Kooke R., Bac-Molenaar JA., Oztolan-Erol N., Keurentjes JJB., Arita M., Saito K. (2019) "A cheminformatics approach to characterize metabolomes in stable-isotope-labeled organisms" Nature Methods 16(4):295-298. [doi:10.1038/s41592-019-0358-2]
COMMENT: Annotation level-1
CH$NAME: Napelline
CH$COMPOUND_CLASS: Alkaloids
CH$FORMULA: C22H33NO3
CH$EXACT_MASS: 359.51
CH$SMILES: CCN1CC2(C)CCC(O)C34C1C(CC23)C12CC(C(O)CC41)C(=C)C2O
CH$IUPAC: InChI=1S/C22H33NO3/c1-4-23-10-20(3)6-5-17(25)22-15(20)7-13(18(22)23)21-9-12(11(2)19(21)26)14(24)8-16(21)22/h12-19,24-26H,2,4-10H2,1,3H3
CH$LINK: INCHIKEY AZAZKLKDEOMJBJ-UHFFFAOYSA-N
AC$INSTRUMENT: LC, Waters Acquity UPLC System; MS, Waters Xevo G2 Q-Tof
AC$INSTRUMENT_TYPE: LC-ESI-QTOF
AC$MASS_SPECTROMETRY: MS_TYPE MS2
AC$MASS_SPECTROMETRY: ION_MODE POSITIVE
AC$MASS_SPECTROMETRY: COLLISION_ENERGY 6V
AC$MASS_SPECTROMETRY: DESOLVATION_GAS_FLOW 800/h
AC$MASS_SPECTROMETRY: DESOLVATION_TEMPERATURE 450 C
AC$MASS_SPECTROMETRY: IONIZATION ESI
AC$CHROMATOGRAPHY: CAPILLARY_VOLTAGE +3.00 kV
AC$CHROMATOGRAPHY: COLUMN_NAME Acquity bridged ethyl hybrid C18 (1.7 um, 2.1 mm * 100 mm, Waters)
AC$CHROMATOGRAPHY: COLUMN_TEMPERATURE 40 C
AC$CHROMATOGRAPHY: FLOW_GRADIENT A/B = (99.5%/0.5% at 0 min, 99.5%/0.5% at 0.1 min, 20%/80% at 10 min, 0.5%/99.5% at 10.1 min, 0.5%/99.5% at 12.0 min, 99.5%/0.5% at 12.1 min, 99.5%/0.5% at 15.0 min)
AC$CHROMATOGRAPHY: FLOW_RATE 0.3 ml/min at 0 min, 0.3 ml/min at 10 min, 0.4 ml/min at 10.1 min, 0.4 ml/min at 14.4 min, 0.3 ml/min at 14.5 min
AC$CHROMATOGRAPHY: RETENTION_TIME 3.05
AC$CHROMATOGRAPHY: SOLVENT A water including 0.1% formic acid
AC$CHROMATOGRAPHY: SOLVENT B acetonitrile including 0.1% formic acid
MS$FOCUSED_ION: PRECURSOR_TYPE [M+H]+
MS$FOCUSED_ION: PRECURSOR_M/Z 360.25332
PK$SPLASH: splash10-03di-0009000000-39ce28651e084fb4517d
PK$NUM_PEAK: 295
PK$PEAK: m/z int. rel.int.
  56.05287 60.0 2
  58.06053 20.0 1
  58.06918 47.0 2
  59.35245 21.0 1
  60.15585 17.0 1
  72.07943 23.0 1
  79.05445 91.0 3
  82.06369 27.0 1
  83.0491 18.0 1
  84.07877 64.0 2
  85.08624 25.0 1
  91.05472 47.0 2
  91.06271 18.0 1
  91.72173 22.0 1
  93.07383 60.0 2
  95.08121 21.0 1
  95.08704 49.0 2
  97.06728 18.0 1
  97.08247 26.0 1
  98.09637 99.0 3
  98.09964 50.0 2
  99.09915 20.0 1
  105.05455 17.0 1
  105.06827 69.0 2
  105.07391 38.0 1
  106.07088 25.0 1
  107.04488 24.0 1
  107.08861 258.0 8
  109.10088 59.0 2
  110.09206 45.0 1
  110.10352 80.0 3
  110.98222 20.0 1
  115.04428 23.0 1
  117.05679 19.0 1
  117.07915 17.0 1
  118.07805 18.0 1
  119.08783 47.0 2
  121.10442 33.0 1
  122.09556 19.0 1
  123.11965 22.0 1
  124.10529 36.0 1
  125.11497 21.0 1
  129.07317 52.0 2
  131.07994 56.0 2
  131.08699 19.0 1
  132.06805 19.0 1
  133.03627 30.0 1
  133.06476 27.0 1
  133.09213 51.0 2
  133.09953 23.0 1
  134.59468 29.0 1
  135.07494 36.0 1
  135.08015 84.0 3
  135.08865 21.0 1
  135.09933 18.0 1
  135.21576 27.0 1
  136.12099 24.0 1
  141.07306 46.0 1
  143.08272 117.0 4
  143.09758 96.0 3
  144.04118 22.0 1
  144.08812 18.0 1
  145.1006 90.0 3
  145.11104 19.0 1
  146.0899 20.0 1
  146.10347 27.0 1
  147.1167 116.0 4
  148.12148 27.0 1
  151.07382 58.0 2
  151.08505 22.0 1
  155.05579 28.0 1
  155.09021 30.0 1
  157.06648 43.0 1
  157.10405 58.0 2
  157.11179 19.0 1
  158.1039 20.0 1
  159.07787 19.0 1
  159.11534 105.0 3
  159.1292 22.0 1
  160.00117 21.0 1
  160.11931 17.0 1
  161.0972 17.0 1
  161.12309 21.0 1
  161.13275 18.0 1
  162.12827 49.0 2
  162.3096 19.0 1
  165.0665 25.0 1
  165.07701 63.0 2
  167.08701 21.0 1
  167.99672 27.0 1
  169.09995 17.0 1
  170.10239 65.0 2
  170.11205 66.0 2
  171.11259 40.0 1
  171.11963 67.0 2
  172.08243 19.0 1
  173.09552 31.0 1
  173.12543 17.0 1
  174.12444 41.0 1
  175.1342 27.0 1
  175.28899 17.0 1
  178.08904 24.0 1
  178.94846 24.0 1
  179.08015 23.0 1
  179.11568 17.0 1
  181.10274 24.0 1
  182.10211 39.0 1
  183.11478 78.0 3
  184.12085 17.0 1
  185.09933 37.0 1
  185.13306 17.0 1
  188.12125 21.0 1
  188.13783 48.0 2
  188.15974 18.0 1
  188.42506 18.0 1
  189.12172 25.0 1
  189.14819 35.0 1
  189.15536 23.0 1
  190.15396 25.0 1
  190.16606 40.0 1
  191.16351 41.0 1
  192.08632 20.0 1
  192.09561 21.0 1
  193.10402 83.0 3
  194.09285 38.0 1
  194.10112 21.0 1
  194.11037 21.0 1
  194.11945 30.0 1
  195.10873 49.0 2
  195.11739 17.0 1
  196.13023 20.0 1
  197.07999 20.0 1
  197.14038 19.0 1
  198.0936 25.0 1
  199.11037 24.0 1
  201.12563 26.0 1
  201.7523 21.0 1
  202.40387 35.0 1
  202.7336 30.0 1
  203.10619 22.0 1
  203.14406 25.0 1
  203.15146 19.0 1
  204.21574 17.0 1
  205.10269 20.0 1
  206.1144 23.0 1
  207.11642 55.0 2
  207.76735 18.0 1
  208.11562 37.0 1
  208.6492 33.0 1
  208.83549 22.0 1
  209.13243 64.0 2
  209.14525 53.0 2
  210.13202 56.0 2
  211.14438 40.0 1
  211.27611 24.0 1
  212.12169 37.0 1
  213.12709 22.0 1
  214.16405 34.0 1
  215.16203 20.0 1
  215.17516 30.0 1
  216.11554 23.0 1
  216.74529 21.0 1
  217.10094 19.0 1
  217.28191 22.0 1
  218.11052 20.0 1
  218.72673 18.0 1
  218.88936 19.0 1
  219.01569 18.0 1
  219.12009 26.0 1
  220.12617 20.0 1
  220.40259 17.0 1
  220.66173 18.0 1
  221.13008 59.0 2
  221.1394 42.0 1
  221.5898 21.0 1
  221.9973 19.0 1
  222.11633 21.0 1
  223.13278 17.0 1
  223.14877 57.0 2
  224.17059 20.0 1
  225.14386 40.0 1
  226.12912 19.0 1
  226.5479 23.0 1
  227.14662 18.0 1
  229.18283 17.0 1
  230.16096 20.0 1
  234.14368 20.0 1
  235.13531 18.0 1
  236.11983 18.0 1
  236.27794 19.0 1
  236.79178 33.0 1
  237.16412 109.0 3
  238.17432 53.0 2
  238.27635 17.0 1
  238.43147 25.0 1
  239.17407 21.0 1
  239.5042 27.0 1
  246.18262 49.0 2
  247.18959 17.0 1
  248.1516 48.0 2
  249.17087 39.0 1
  249.42644 18.0 1
  249.47935 20.0 1
  250.16502 20.0 1
  250.5368 17.0 1
  251.14929 19.0 1
  251.18187 37.0 1
  253.19843 44.0 1
  254.5887 17.0 1
  262.15524 20.0 1
  262.18362 22.0 1
  263.18588 81.0 3
  266.19113 27.0 1
  267.16254 18.0 1
  267.21283 23.0 1
  268.14435 27.0 1
  268.17603 30.0 1
  269.31482 17.0 1
  271.2308 20.0 1
  273.41745 36.0 1
  279.17026 41.0 1
  279.18594 17.0 1
  279.2002 22.0 1
  280.19553 22.0 1
  280.21268 17.0 1
  281.19232 35.0 1
  282.18887 17.0 1
  285.18286 18.0 1
  288.42429 27.0 1
  288.99768 20.0 1
  290.05243 35.0 1
  293.20114 19.0 1
  295.20154 19.0 1
  296.21542 26.0 1
  296.23502 18.0 1
  298.21686 39.0 1
  301.19803 29.0 1
  304.89841 26.0 1
  305.71823 22.0 1
  306.71643 20.0 1
  307.20776 17.0 1
  312.62558 24.0 1
  313.23022 19.0 1
  315.24673 21.0 1
  315.94626 45.0 1
  316.20758 18.0 1
  324.22748 68.0 2
  324.2417 71.0 2
  325.21536 34.0 1
  329.54819 65.0 2
  330.18649 20.0 1
  335.4975 23.0 1
  335.97675 17.0 1
  337.5715 18.0 1
  338.73923 21.0 1
  341.21793 17.0 1
  341.74341 22.0 1
  342.00107 17.0 1
  342.16443 30.0 1
  342.1879 91.0 3
  342.20468 106.0 3
  342.24307 12678.0 407
  342.29099 42.0 1
  342.30704 37.0 1
  342.47147 18.0 1
  343.18262 21.0 1
  343.21652 85.0 3
  343.24518 2677.0 86
  343.69431 19.0 1
  344.23538 116.0 4
  344.24661 432.0 14
  344.25955 159.0 5
  344.86472 21.0 1
  345.20587 17.0 1
  345.25128 17.0 1
  345.26407 18.0 1
  345.64301 17.0 1
  347.35638 18.0 1
  350.03955 21.0 1
  350.61465 20.0 1
  353.28406 20.0 1
  354.11313 17.0 1
  358.22098 30.0 1
  358.23837 86.0 3
  359.24521 17.0 1
  359.51874 24.0 1
  360.12634 17.0 1
  360.1604 36.0 1
  360.18521 48.0 2
  360.211 136.0 4
  360.25418 31121.0 999
  360.30865 569.0 18
  360.36417 39.0 1
  360.40326 32.0 1
  360.42224 18.0 1
//
