ACCESSION: MSBNK-RIKEN-PR302206
RECORD_TITLE: Daidzein-8-C-glucoside; LC-ESI-QTOF; MS2
DATE: 2019.03.28
AUTHORS: Tetsuya Mori, Center for Sustainable Resource Science, RIKEN
LICENSE: CC BY-NC-SA
PUBLICATION: Tsugawa H., Nakabayashi R., Mori T., Yamada Y., Takahashi M., Rai A., Sugiyama R., Yamamoto H., Nakaya T., Yamazaki M., Kooke R., Bac-Molenaar JA., Oztolan-Erol N., Keurentjes JJB., Arita M., Saito K. (2019) "A cheminformatics approach to characterize metabolomes in stable-isotope-labeled organisms" Nature Methods 16(4):295-298. [doi:10.1038/s41592-019-0358-2]
COMMENT: registered in RIKEN PlaSMA
CH$NAME: Daidzein-8-C-glucoside
CH$COMPOUND_CLASS: Isoflavonoid C-glycosides
CH$FORMULA: C21H20O9
CH$EXACT_MASS: 416.382
CH$SMILES: OC[C@H]1O[C@H]([C@H](O)[C@@H](O)[C@@H]1O)C1=C(O)C=CC2=C1OC=C(C2=O)C1=CC=C(O)C=C1
CH$IUPAC: InChI=1S/C21H20O9/c22-7-14-17(26)18(27)19(28)21(30-14)15-13(24)6-5-11-16(25)12(8-29-20(11)15)9-1-3-10(23)4-2-9/h1-6,8,14,17-19,21-24,26-28H,7H2/t14-,17-,18+,19-,21+/m1/s1
CH$LINK: INCHIKEY HKEAFJYKMMKDOR-VPRICQMDSA-N
AC$INSTRUMENT: LC, Waters Acquity UPLC System; MS, Waters Xevo G2 Q-Tof
AC$INSTRUMENT_TYPE: LC-ESI-QTOF
AC$MASS_SPECTROMETRY: MS_TYPE MS2
AC$MASS_SPECTROMETRY: ION_MODE POSITIVE
AC$MASS_SPECTROMETRY: COLLISION_ENERGY 6V
AC$MASS_SPECTROMETRY: DESOLVATION_GAS_FLOW 800/h
AC$MASS_SPECTROMETRY: DESOLVATION_TEMPERATURE 450 C
AC$MASS_SPECTROMETRY: IONIZATION ESI
AC$CHROMATOGRAPHY: CAPILLARY_VOLTAGE +3.00 kV
AC$CHROMATOGRAPHY: COLUMN_NAME Acquity bridged ethyl hybrid C18 (1.7 um, 2.1 mm * 100 mm, Waters)
AC$CHROMATOGRAPHY: COLUMN_TEMPERATURE 40 C
AC$CHROMATOGRAPHY: FLOW_GRADIENT A/B = (99.5%/0.5% at 0 min, 99.5%/0.5% at 0.1 min, 20%/80% at 10 min, 0.5%/99.5% at 10.1 min, 0.5%/99.5% at 12.0 min, 99.5%/0.5% at 12.1 min, 99.5%/0.5% at 15.0 min)
AC$CHROMATOGRAPHY: FLOW_RATE 0.3 ml/min at 0 min, 0.3 ml/min at 10 min, 0.4 ml/min at 10.1 min, 0.4 ml/min at 14.4 min, 0.3 ml/min at 14.5 min
AC$CHROMATOGRAPHY: RETENTION_TIME 3.274983
AC$CHROMATOGRAPHY: SOLVENT A water including 0.1% formic acid
AC$CHROMATOGRAPHY: SOLVENT B acetonitrile including 0.1% formic acid
MS$FOCUSED_ION: PRECURSOR_TYPE [M+H]+
MS$FOCUSED_ION: PRECURSOR_M/Z 417.1180087
PK$SPLASH: splash10-014r-0490000000-db9b0b97047b376af86f
PK$NUM_PEAK: 312
PK$PEAK: m/z int. rel.int.
  55.02289 7.0 7
  57.4817 5.0 5
  91.05033 26.0 26
  91.05618 31.0 31
  93.0365 17.0 17
  94.0406 6.0 6
  94.04605 7.0 7
  95.01076 6.0 6
  95.05675 8.0 8
  104.01557 6.0 6
  104.05341 7.0 7
  105.03334 29.0 29
  105.06602 5.0 5
  106.04177 35.0 35
  107.04836 72.0 72
  108.02185 8.0 8
  108.04622 5.0 5
  115.05148 16.0 16
  115.06934 10.0 10
  117.0727 9.0 9
  118.02933 9.0 9
  118.04037 48.0 48
  119.02899 10.0 10
  119.04744 48.0 48
  119.05465 15.0 15
  120.91371 8.0 8
  121.01033 9.0 9
  121.02649 49.0 49
  121.03867 10.0 10
  122.02995 10.0 10
  122.2884 8.0 8
  128.06136 11.0 11
  129.05952 7.0 7
  129.07336 28.0 28
  131.05009 61.0 61
  132.04979 5.0 5
  133.02031 6.0 6
  133.03313 18.0 18
  134.0257 6.0 6
  134.03947 12.0 12
  135.04266 26.0 26
  140.03952 10.0 10
  141.07028 29.0 29
  142.04398 14.0 14
  142.04907 7.0 7
  143.04338 6.0 6
  144.05365 11.0 11
  144.06015 23.0 23
  145.01758 17.0 17
  145.02905 16.0 16
  145.03716 17.0 17
  146.03156 30.0 30
  147.03615 18.0 18
  147.04727 8.0 8
  148.04726 17.0 17
  149.00577 6.0 6
  149.01317 14.0 14
  149.02478 41.0 41
  152.04706 13.0 13
  152.06221 60.0 60
  153.06238 25.0 25
  153.07158 15.0 15
  154.06511 6.0 6
  154.07507 14.0 14
  155.04675 6.0 6
  155.06772 6.0 6
  155.08424 41.0 41
  155.09021 23.0 23
  156.09076 8.0 8
  157.05942 38.0 38
  157.06873 39.0 39
  158.02963 8.0 8
  158.0674 20.0 20
  158.3911 5.0 5
  159.05905 8.0 8
  160.05321 21.0 21
  161.00227 10.0 10
  161.01045 7.0 7
  161.02385 40.0 40
  161.4613 5.0 5
  162.01295 6.0 6
  162.03766 20.0 20
  163.02678 10.0 10
  163.04079 5.0 5
  164.06326 7.0 7
  165.01416 6.0 6
  165.04256 8.0 8
  165.07214 166.0 166
  166.06537 13.0 13
  166.07893 31.0 31
  167.06532 13.0 13
  167.08527 56.0 56
  167.09157 21.0 21
  167.50217 5.0 5
  168.05235 17.0 17
  168.08781 11.0 11
  169.06743 24.0 24
  169.1104 17.0 17
  170.06262 10.0 10
  170.08076 10.0 10
  170.47601 6.0 6
  171.04086 16.0 16
  171.06697 5.0 5
  173.02606 11.0 11
  173.04956 7.0 7
  173.06387 12.0 12
  174.01143 7.0 7
  175.03912 8.0 8
  175.05063 9.0 9
  175.54294 7.0 7
  176.06282 17.0 17
  177.06479 41.0 41
  177.07898 6.0 6
  178.07388 28.0 28
  179.02312 13.0 13
  179.07758 55.0 55
  179.08975 9.0 9
  179.63916 7.0 7
  180.05624 6.0 6
  181.05408 15.0 15
  181.06842 23.0 23
  181.09856 5.0 5
  182.04369 6.0 6
  182.07278 35.0 35
  183.00688 5.0 5
  183.02992 6.0 6
  183.03961 7.0 7
  183.05064 11.0 11
  183.07011 26.0 26
  183.08339 71.0 71
  183.09444 15.0 15
  183.68228 9.0 9
  184.08435 16.0 16
  185.09178 7.0 7
  187.05376 5.0 5
  189.01736 8.0 8
  189.07086 7.0 7
  190.07091 24.0 24
  191.07716 7.0 7
  191.09224 6.0 6
  192.01108 5.0 5
  192.38274 9.0 9
  193.05898 13.0 13
  193.06989 33.0 33
  194.06427 42.0 42
  194.07861 27.0 27
  194.0896 6.0 6
  195.02979 27.0 27
  195.04265 73.0 73
  195.05069 21.0 21
  195.08624 60.0 60
  196.0498 11.0 11
  196.05678 14.0 14
  196.07803 10.0 10
  196.08661 13.0 13
  197.04825 12.0 12
  197.06343 14.0 14
  197.09125 11.0 11
  198.03337 6.0 6
  198.05467 8.0 8
  198.07837 7.0 7
  198.21149 5.0 5
  199.07388 11.0 11
  201.04805 7.0 7
  201.07927 7.0 7
  202.08525 21.0 21
  203.03021 10.0 10
  203.08846 14.0 14
  204.97794 6.0 6
  205.0564 7.0 7
  205.06854 13.0 13
  205.09668 7.0 7
  206.05971 7.0 7
  207.07964 44.0 44
  208.09955 7.0 7
  209.08966 12.0 12
  210.05765 20.0 20
  211.05597 7.0 7
  211.07722 74.0 74
  212.077 30.0 30
  212.09381 17.0 17
  213.07964 28.0 28
  213.0921 8.0 8
  213.10313 7.0 7
  215.08115 25.0 25
  217.28046 7.0 7
  218.07047 12.0 12
  219.06157 6.0 6
  219.08624 23.0 23
  220.07883 11.0 11
  220.08614 5.0 5
  221.04738 8.0 8
  221.06369 41.0 41
  221.08577 18.0 18
  221.59993 6.0 6
  222.06502 20.0 20
  223.04755 14.0 14
  223.06548 14.0 14
  223.07724 89.0 89
  223.11038 6.0 6
  224.06789 6.0 6
  224.62561 5.0 5
  225.05179 13.0 13
  225.06804 13.0 13
  225.09076 28.0 28
  225.103 17.0 17
  226.05379 9.0 9
  226.06303 25.0 25
  226.0816 8.0 8
  226.09747 14.0 14
  227.04654 5.0 5
  227.06921 6.0 6
  228.07919 8.0 8
  232.09958 8.0 8
  233.08707 7.0 7
  235.06837 22.0 22
  235.0804 19.0 19
  236.0936 7.0 7
  237.0482 6.0 6
  237.05743 29.0 29
  237.07182 6.0 6
  237.07957 8.0 8
  238.0575 11.0 11
  238.06932 30.0 30
  238.09204 6.0 6
  239.02458 7.0 7
  239.05904 266.0 266
  239.0703 1000.0 999
  239.1411 6.0 6
  239.66171 5.0 5
  240.02217 10.0 10
  240.04964 12.0 12
  240.0771 615.0 614
  241.07112 48.0 48
  241.08409 74.0 74
  241.21638 7.0 7
  241.85776 6.0 6
  242.06801 6.0 6
  242.0869 48.0 48
  245.06339 6.0 6
  247.06671 17.0 17
  249.05138 10.0 10
  249.06691 11.0 11
  251.06981 19.0 19
  251.11324 23.0 23
  252.06357 9.0 9
  252.0723 10.0 10
  252.11125 10.0 10
  253.08176 12.0 12
  256.10837 5.0 5
  261.08841 6.0 6
  263.04779 8.0 8
  263.07001 21.0 21
  263.07977 33.0 33
  264.06085 5.0 5
  264.07266 25.0 25
  265.0943 13.0 13
  266.07806 6.0 6
  266.09412 9.0 9
  266.72742 6.0 6
  266.98489 8.0 8
  267.06564 460.0 460
  267.07574 166.0 166
  267.26004 5.0 5
  268.04202 20.0 20
  268.05933 171.0 171
  268.07291 425.0 425
  268.44669 6.0 6
  268.47723 7.0 7
  269.05792 10.0 10
  269.07065 36.0 36
  269.08432 49.0 49
  270.06622 5.0 5
  270.96408 6.0 6
  271.09479 6.0 6
  275.03543 7.0 7
  275.07281 7.0 7
  278.05728 6.0 6
  279.06482 95.0 95
  279.08139 11.0 11
  280.02243 6.0 6
  280.0578 26.0 26
  280.07187 15.0 15
  280.08423 13.0 13
  281.07059 66.0 66
  281.08823 13.0 13
  281.12631 7.0 7
  283.09171 10.0 10
  289.07748 9.0 9
  291.07492 6.0 6
  292.05466 5.0 5
  293.0665 6.0 6
  293.08121 18.0 18
  293.18091 6.0 6
  295.06342 13.0 13
  297.0643 38.0 38
  297.07574 54.0 54
  297.091 18.0 18
  298.07089 30.0 30
  298.08994 11.0 11
  303.04196 5.0 5
  305.06512 8.0 8
  305.08649 20.0 20
  305.10416 5.0 5
  306.08621 6.0 6
  307.08472 9.0 9
  307.09808 5.0 5
  311.0752 6.0 6
  350.50769 6.0 6
  351.04761 6.0 6
  363.41397 6.0 6
  417.11322 6.0 6
//
