ACCESSION: MSBNK-RIKEN-PR300336
RECORD_TITLE: Gardnerine; LC-ESI-QTOF; MS2
DATE: 2019.03.28
AUTHORS: Tetsuya Mori, Center for Sustainable Resource Science, RIKEN
LICENSE: CC BY-NC-SA
PUBLICATION: Tsugawa H., Nakabayashi R., Mori T., Yamada Y., Takahashi M., Rai A., Sugiyama R., Yamamoto H., Nakaya T., Yamazaki M., Kooke R., Bac-Molenaar JA., Oztolan-Erol N., Keurentjes JJB., Arita M., Saito K. (2019) "A cheminformatics approach to characterize metabolomes in stable-isotope-labeled organisms" Nature Methods 16(4):295-298. [doi:10.1038/s41592-019-0358-2]
COMMENT: registered in RIKEN PlaSMA
CH$NAME: Gardnerine
CH$COMPOUND_CLASS: Macroline alkaloids
CH$FORMULA: C20H24N2O2
CH$EXACT_MASS: 324.424
CH$SMILES: COC1=CC2=C(C=C1)C1=C(N2)[C@@H]2CC3C(CO)C(C1)N2C\C3=C\C
CH$IUPAC: InChI=1S/C20H24N2O2/c1-3-11-9-22-18-8-15-13-5-4-12(24-2)6-17(13)21-20(15)19(22)7-14(11)16(18)10-23/h3-6,14,16,18-19,21,23H,7-10H2,1-2H3/b11-3-/t14?,16?,18?,19-/m0/s1
CH$LINK: INCHIKEY RBALEJFQJCAPLN-RFEOFLAMSA-N
AC$INSTRUMENT: LC, Waters Acquity UPLC System; MS, Waters Xevo G2 Q-Tof
AC$INSTRUMENT_TYPE: LC-ESI-QTOF
AC$MASS_SPECTROMETRY: MS_TYPE MS2
AC$MASS_SPECTROMETRY: ION_MODE POSITIVE
AC$MASS_SPECTROMETRY: COLLISION_ENERGY 6V
AC$MASS_SPECTROMETRY: DESOLVATION_GAS_FLOW 800/h
AC$MASS_SPECTROMETRY: DESOLVATION_TEMPERATURE 450 C
AC$MASS_SPECTROMETRY: IONIZATION ESI
AC$CHROMATOGRAPHY: CAPILLARY_VOLTAGE +3.00 kV
AC$CHROMATOGRAPHY: COLUMN_NAME Acquity bridged ethyl hybrid C18 (1.7 um, 2.1 mm * 100 mm, Waters)
AC$CHROMATOGRAPHY: COLUMN_TEMPERATURE 40 C
AC$CHROMATOGRAPHY: FLOW_GRADIENT A/B = (99.5%/0.5% at 0 min, 99.5%/0.5% at 0.1 min, 20%/80% at 10 min, 0.5%/99.5% at 10.1 min, 0.5%/99.5% at 12.0 min, 99.5%/0.5% at 12.1 min, 99.5%/0.5% at 15.0 min)
AC$CHROMATOGRAPHY: FLOW_RATE 0.3 ml/min at 0 min, 0.3 ml/min at 10 min, 0.4 ml/min at 10.1 min, 0.4 ml/min at 14.4 min, 0.3 ml/min at 14.5 min
AC$CHROMATOGRAPHY: RETENTION_TIME 3.679583
AC$CHROMATOGRAPHY: SOLVENT A water including 0.1% formic acid
AC$CHROMATOGRAPHY: SOLVENT B acetonitrile including 0.1% formic acid
MS$FOCUSED_ION: PRECURSOR_TYPE [M+H]+
MS$FOCUSED_ION: PRECURSOR_M/Z 325.1910545
PK$SPLASH: splash10-05fu-0930000000-02061b6d458ae010b1b1
PK$NUM_PEAK: 495
PK$PEAK: m/z int. rel.int.
  67.05635 21.0 21
  67.787 8.0 8
  76.72266 12.0 12
  77.03724 42.0 42
  77.04496 11.0 11
  78.03652 7.0 7
  79.04126 9.0 9
  79.05661 18.0 18
  80.04969 26.0 26
  82.05257 17.0 17
  83.06625 12.0 12
  90.02161 13.0 13
  90.05 24.0 24
  90.34319 8.0 8
  90.86621 6.0 6
  91.04379 13.0 13
  91.0536 105.0 105
  92.04733 34.0 34
  92.06618 10.0 10
  93.02933 9.0 9
  93.04744 25.0 25
  93.05717 100.0 100
  93.0669 39.0 39
  94.0659 14.0 14
  94.07251 8.0 8
  95.04831 7.0 7
  95.06439 9.0 9
  97.05012 12.0 12
  98.87598 7.0 7
  103.0538 53.0 53
  104.05994 10.0 10
  105.05954 17.0 17
  105.06606 13.0 13
  105.07361 18.0 18
  105.85648 6.0 6
  106.0509 13.0 13
  106.0646 61.0 61
  107.04713 12.0 12
  107.05721 6.0 6
  107.07209 66.0 66
  108.07944 277.0 277
  108.73264 8.0 8
  109.08393 48.0 48
  110.06016 7.0 7
  110.09694 20.0 20
  114.5853 11.0 11
  115.05192 20.0 20
  115.05768 23.0 23
  116.04296 13.0 13
  116.06046 76.0 76
  116.06604 28.0 28
  117.02328 10.0 10
  117.04394 8.0 8
  117.05358 27.0 27
  117.06095 76.0 76
  118.05946 47.0 47
  118.06647 57.0 57
  118.07664 13.0 13
  119.06563 27.0 27
  119.07529 20.0 20
  119.08669 23.0 23
  120.07758 28.0 28
  120.08312 29.0 29
  120.32409 6.0 6
  121.06319 7.0 7
  121.08658 24.0 24
  121.0948 8.0 8
  122.05675 10.0 10
  122.06544 8.0 8
  122.09547 43.0 43
  122.74447 14.0 14
  123.05857 17.0 17
  123.06771 89.0 89
  124.06438 8.0 8
  127.05645 101.0 101
  128.03123 9.0 9
  128.06151 87.0 87
  129.0528 6.0 6
  129.0598 18.0 18
  129.07114 38.0 38
  130.06432 336.0 336
  131.04869 13.0 13
  131.05681 17.0 17
  131.06784 74.0 74
  131.07391 143.0 143
  131.14923 7.0 7
  131.95674 7.0 7
  132.04694 47.0 47
  132.07578 34.0 34
  132.08202 29.0 29
  132.42668 6.0 6
  133.05359 44.0 44
  133.08835 21.0 21
  134.03117 9.0 9
  134.07068 10.0 10
  134.09691 49.0 49
  134.10658 9.0 9
  134.21477 8.0 8
  134.70683 6.0 6
  134.90421 10.0 10
  136.07602 11.0 11
  136.11505 10.0 10
  137.08942 10.0 10
  138.06956 11.0 11
  138.08939 122.0 122
  138.09811 22.0 22
  139.05025 19.0 19
  139.08823 8.0 8
  139.09814 14.0 14
  141.04134 7.0 7
  141.05449 7.0 7
  141.06609 14.0 14
  142.06476 119.0 119
  143.04579 14.0 14
  143.05157 26.0 26
  143.07181 377.0 377
  144.05237 84.0 84
  144.05843 89.0 89
  144.06551 86.0 86
  144.07904 672.0 671
  144.11038 9.0 9
  145.05453 33.0 33
  145.06119 17.0 17
  145.08669 95.0 95
  145.14096 9.0 9
  145.79866 8.0 8
  145.89841 7.0 7
  145.99619 9.0 9
  146.04022 17.0 17
  146.06223 212.0 212
  146.08006 25.0 25
  146.09814 48.0 48
  146.27374 6.0 6
  146.28857 6.0 6
  147.05173 8.0 8
  147.06882 59.0 59
  147.08409 7.0 7
  147.09914 12.0 12
  147.74223 10.0 10
  148.07845 14.0 14
  149.11563 8.0 8
  151.06065 7.0 7
  153.052 15.0 15
  153.06035 15.0 15
  153.07095 18.0 18
  154.0448 18.0 18
  154.06267 400.0 400
  155.02525 9.0 9
  155.05914 69.0 69
  155.0713 215.0 215
  155.08656 12.0 12
  155.9774 8.0 8
  156.04927 11.0 11
  156.06909 58.0 58
  156.07796 160.0 160
  156.82253 17.0 17
  157.0704 31.0 31
  157.08324 77.0 77
  157.09109 54.0 54
  157.9305 7.0 7
  158.05743 318.0 318
  158.07495 68.0 68
  158.09164 12.0 12
  158.40918 6.0 6
  159.03833 7.0 7
  159.05258 22.0 22
  159.06656 308.0 308
  159.09009 28.0 28
  159.09784 6.0 6
  159.28062 8.0 8
  159.8679 6.0 6
  160.05406 19.0 19
  160.07431 170.0 170
  160.73294 6.0 6
  161.06277 6.0 6
  161.07329 7.0 7
  161.0835 8.0 8
  161.09518 13.0 13
  162.07954 9.0 9
  162.09547 6.0 6
  162.95624 7.0 7
  163.05284 6.0 6
  165.0564 12.0 12
  165.06558 18.0 18
  165.07425 23.0 23
  166.05019 8.0 8
  166.06291 65.0 65
  166.07153 20.0 20
  166.08459 9.0 9
  167.06822 129.0 129
  167.07774 95.0 95
  167.09877 11.0 11
  168.05933 11.0 11
  168.07867 224.0 224
  169.04593 9.0 9
  169.05952 11.0 11
  169.06741 14.0 14
  169.08287 93.0 93
  169.09492 12.0 12
  170.03737 10.0 10
  170.05907 147.0 147
  170.0829 14.0 14
  170.09134 17.0 17
  171.01654 7.0 7
  171.05769 41.0 41
  171.06664 143.0 143
  171.08797 18.0 18
  171.14029 6.0 6
  171.95111 6.0 6
  172.03641 6.0 6
  172.0444 6.0 6
  172.07362 1000.0 999
  173.04668 8.0 8
  173.05548 10.0 10
  173.08168 465.0 465
  173.71689 12.0 12
  173.73111 7.0 7
  174.07446 9.0 9
  174.08984 208.0 208
  174.32538 13.0 13
  175.09372 9.0 9
  176.53294 12.0 12
  176.81134 6.0 6
  177.02834 12.0 12
  177.06186 10.0 10
  177.06796 17.0 17
  177.08374 11.0 11
  178.06752 14.0 14
  178.07909 12.0 12
  178.08797 9.0 9
  179.06924 6.0 6
  179.07874 24.0 24
  180.07529 86.0 86
  180.08662 23.0 23
  181.07033 10.0 10
  181.08475 65.0 65
  181.09622 46.0 46
  181.6772 8.0 8
  182.04695 17.0 17
  182.06068 89.0 89
  182.08177 10.0 10
  182.08705 19.0 19
  182.09558 26.0 26
  182.70314 11.0 11
  183.05025 16.0 16
  183.0593 27.0 27
  183.07124 66.0 66
  183.0918 6.0 6
  183.10265 6.0 6
  183.87701 10.0 10
  184.04805 13.0 13
  184.06622 35.0 35
  184.07739 109.0 109
  184.09048 12.0 12
  184.32555 7.0 7
  185.06538 6.0 6
  185.08717 59.0 59
  186.04393 6.0 6
  186.07478 7.0 7
  186.09294 152.0 152
  187.09529 91.0 91
  187.10341 26.0 26
  187.2292 6.0 6
  188.08435 7.0 7
  188.10193 31.0 31
  188.11259 15.0 15
  188.95242 6.0 6
  189.07028 8.0 8
  189.07892 6.0 6
  189.1041 14.0 14
  190.0621 10.0 10
  190.08289 26.0 26
  191.0627 8.0 8
  191.0728 45.0 45
  191.08578 7.0 7
  192.07088 35.0 35
  192.08066 75.0 75
  192.09219 16.0 16
  193.06421 14.0 14
  193.08618 115.0 115
  193.0972 35.0 35
  194.05017 7.0 7
  194.06442 23.0 23
  194.09702 170.0 170
  195.06505 48.0 48
  195.08434 29.0 29
  195.09509 31.0 31
  195.1055 7.0 7
  196.04755 7.0 7
  196.05809 8.0 8
  196.07112 16.0 16
  196.08229 49.0 49
  196.10422 24.0 24
  197.06725 7.0 7
  197.07819 32.0 32
  197.08714 17.0 17
  197.14233 8.0 8
  198.0546 8.0 8
  198.08411 65.0 65
  198.10307 18.0 18
  199.08784 29.0 29
  200.10083 11.0 11
  200.10956 13.0 13
  200.5544 8.0 8
  201.06512 11.0 11
  201.09465 7.0 7
  201.10847 15.0 15
  201.41512 6.0 6
  203.07368 6.0 6
  203.08945 25.0 25
  204.07748 128.0 128
  205.06422 12.0 12
  205.08147 43.0 43
  205.09172 66.0 66
  206.06017 11.0 11
  206.07681 9.0 9
  206.09283 94.0 94
  207.05898 12.0 12
  207.08931 53.0 53
  207.10577 32.0 32
  208.04045 10.0 10
  208.07378 152.0 152
  208.09222 10.0 10
  208.1044 52.0 52
  208.11452 17.0 17
  208.17056 7.0 7
  209.08244 63.0 63
  209.10445 8.0 8
  209.12088 20.0 20
  209.13045 18.0 18
  210.06847 16.0 16
  210.08171 63.0 63
  210.09207 142.0 142
  210.10468 23.0 23
  210.12361 8.0 8
  210.61755 7.0 7
  210.87376 7.0 7
  211.088 23.0 23
  211.09799 29.0 29
  211.49527 6.0 6
  212.10086 15.0 15
  212.11864 9.0 9
  213.09335 10.0 10
  213.27809 9.0 9
  215.07901 7.0 7
  215.08926 11.0 11
  215.12068 14.0 14
  216.08487 6.0 6
  217.08118 85.0 85
  217.09402 55.0 55
  218.06953 18.0 18
  218.09653 90.0 90
  219.06763 7.0 7
  219.07431 8.0 8
  219.09045 67.0 67
  219.10721 32.0 32
  219.12813 6.0 6
  219.68915 6.0 6
  220.05574 10.0 10
  220.06752 49.0 49
  220.07968 53.0 53
  220.10492 100.0 100
  220.11351 39.0 39
  220.14838 8.0 8
  221.07295 66.0 66
  221.08707 36.0 36
  221.09973 34.0 34
  221.11218 23.0 23
  221.82323 10.0 10
  222.08629 191.0 191
  222.11455 8.0 8
  223.07579 16.0 16
  223.08336 37.0 37
  223.09528 57.0 57
  223.1111 8.0 8
  223.12573 18.0 18
  223.31558 8.0 8
  224.09972 54.0 54
  225.09532 12.0 12
  225.11108 51.0 51
  225.12886 25.0 25
  227.07347 16.0 16
  228.08855 7.0 7
  229.07359 11.0 11
  229.08929 8.0 8
  230.06044 8.0 8
  230.07849 7.0 7
  230.10057 31.0 31
  231.09924 95.0 95
  232.08687 24.0 24
  232.10106 16.0 16
  232.10869 12.0 12
  232.11974 16.0 16
  233.0838 30.0 30
  233.09622 29.0 29
  233.11365 42.0 42
  233.12727 30.0 30
  234.0898 112.0 112
  234.11926 54.0 54
  234.13419 12.0 12
  235.06741 10.0 10
  235.08467 27.0 27
  235.09979 7.0 7
  235.12125 24.0 24
  235.13582 10.0 10
  235.17816 13.0 13
  236.07608 14.0 14
  236.09766 59.0 59
  236.10777 113.0 113
  237.08972 10.0 10
  237.10066 14.0 14
  237.11516 15.0 15
  238.10074 7.0 7
  238.11984 18.0 18
  238.14046 7.0 7
  242.09082 8.0 8
  243.10905 16.0 16
  244.05621 8.0 8
  244.09546 10.0 10
  244.11374 7.0 7
  245.08478 27.0 27
  245.09677 14.0 14
  246.08304 31.0 31
  246.09863 11.0 11
  246.11934 15.0 15
  246.13535 7.0 7
  247.07602 7.0 7
  247.0854 26.0 26
  247.09914 42.0 42
  248.06566 9.0 9
  248.08771 23.0 23
  248.10278 93.0 93
  248.12903 13.0 13
  248.13828 8.0 8
  249.10106 59.0 59
  249.11188 31.0 31
  249.13547 25.0 25
  250.1002 61.0 61
  250.11893 9.0 9
  250.13165 18.0 18
  250.14691 16.0 16
  252.11328 7.0 7
  252.1433 11.0 11
  253.14206 14.0 14
  258.09912 7.0 7
  259.0947 8.0 8
  259.1145 6.0 6
  260.07327 8.0 8
  260.09955 37.0 37
  260.1113 14.0 14
  260.12323 15.0 15
  261.10428 44.0 44
  261.12512 18.0 18
  261.1376 10.0 10
  261.67245 7.0 7
  262.0267 6.0 6
  262.07681 11.0 11
  262.09607 14.0 14
  262.11523 34.0 34
  262.13071 20.0 20
  262.26953 7.0 7
  263.11087 32.0 32
  263.12027 31.0 31
  263.15515 7.0 7
  264.08566 7.0 7
  264.10587 16.0 16
  264.12128 46.0 46
  265.1188 7.0 7
  265.13455 24.0 24
  268.65076 7.0 7
  271.09436 9.0 9
  271.92017 6.0 6
  272.09277 7.0 7
  274.12317 11.0 11
  275.09119 7.0 7
  275.17938 9.0 9
  276.13177 21.0 21
  277.08499 9.0 9
  277.11417 8.0 8
  277.1246 23.0 23
  277.14133 32.0 32
  278.57059 7.0 7
  279.10828 26.0 26
  279.12857 10.0 10
  289.15515 8.0 8
  291.12711 15.0 15
  291.15533 17.0 17
  293.12399 9.0 9
  296.15302 12.0 12
  302.55838 14.0 14
  303.87823 9.0 9
  316.60373 7.0 7
  318.14493 10.0 10
  325.17743 23.0 23
  325.19162 63.0 63
//
