ACCESSION: MSBNK-RIKEN-PR300038
RECORD_TITLE: 19S-Methoxytubotaiwine; LC-ESI-QTOF; MS2
DATE: 2019.03.28
AUTHORS: Tetsuya Mori, Center for Sustainable Resource Science, RIKEN
LICENSE: CC BY-NC-SA
PUBLICATION: Tsugawa H., Nakabayashi R., Mori T., Yamada Y., Takahashi M., Rai A., Sugiyama R., Yamamoto H., Nakaya T., Yamazaki M., Kooke R., Bac-Molenaar JA., Oztolan-Erol N., Keurentjes JJB., Arita M., Saito K. (2019) "A cheminformatics approach to characterize metabolomes in stable-isotope-labeled organisms" Nature Methods 16(4):295-298. [doi:10.1038/s41592-019-0358-2]
COMMENT: registered in RIKEN PlaSMA
CH$NAME: 19S-Methoxytubotaiwine
CH$COMPOUND_CLASS: Strychnos alkaloids
CH$FORMULA: C21H26N2O3
CH$EXACT_MASS: 354.45
CH$SMILES: CO[C@H](C)C1[C@H]2N3CC[C@@]22C(NC4=CC=CC=C24)=C([C@H]1CC3)C(=O)OC
CH$IUPAC: InChI=1S/C21H26N2O3/c1-12(25-2)16-13-8-10-23-11-9-21(19(16)23)14-6-4-5-7-15(14)22-18(21)17(13)20(24)26-3/h4-7,12-13,16,19,22H,8-11H2,1-3H3/t12-,13+,16?,19-,21-/m1/s1
CH$LINK: INCHIKEY LTOOPESWVADEAE-JHOCLNBPSA-N
AC$INSTRUMENT: LC, Waters Acquity UPLC System; MS, Waters Xevo G2 Q-Tof
AC$INSTRUMENT_TYPE: LC-ESI-QTOF
AC$MASS_SPECTROMETRY: MS_TYPE MS2
AC$MASS_SPECTROMETRY: ION_MODE POSITIVE
AC$MASS_SPECTROMETRY: COLLISION_ENERGY 6V
AC$MASS_SPECTROMETRY: DESOLVATION_GAS_FLOW 800/h
AC$MASS_SPECTROMETRY: DESOLVATION_TEMPERATURE 450 C
AC$MASS_SPECTROMETRY: IONIZATION ESI
AC$CHROMATOGRAPHY: CAPILLARY_VOLTAGE +3.00 kV
AC$CHROMATOGRAPHY: COLUMN_NAME Acquity bridged ethyl hybrid C18 (1.7 um, 2.1 mm * 100 mm, Waters)
AC$CHROMATOGRAPHY: COLUMN_TEMPERATURE 40 C
AC$CHROMATOGRAPHY: FLOW_GRADIENT A/B = (99.5%/0.5% at 0 min, 99.5%/0.5% at 0.1 min, 20%/80% at 10 min, 0.5%/99.5% at 10.1 min, 0.5%/99.5% at 12.0 min, 99.5%/0.5% at 12.1 min, 99.5%/0.5% at 15.0 min)
AC$CHROMATOGRAPHY: FLOW_RATE 0.3 ml/min at 0 min, 0.3 ml/min at 10 min, 0.4 ml/min at 10.1 min, 0.4 ml/min at 14.4 min, 0.3 ml/min at 14.5 min
AC$CHROMATOGRAPHY: RETENTION_TIME 4.5546
AC$CHROMATOGRAPHY: SOLVENT A water including 0.1% formic acid
AC$CHROMATOGRAPHY: SOLVENT B acetonitrile including 0.1% formic acid
MS$FOCUSED_ION: PRECURSOR_TYPE [M+H]+
MS$FOCUSED_ION: PRECURSOR_M/Z 355.2016192
PK$SPLASH: splash10-0006-0790000000-ff3a449a006b439ccb5f
PK$NUM_PEAK: 337
PK$PEAK: m/z int. rel.int.
  59.03579 9.0 9
  59.04948 332.0 332
  60.04977 15.0 15
  61.0539 5.0 5
  68.04974 6.0 6
  69.33169 5.0 5
  70.06626 51.0 51
  71.06615 25.0 25
  71.99778 5.0 5
  73.06464 13.0 13
  73.06761 6.0 6
  79.04034 5.0 5
  79.05543 7.0 7
  84.06469 9.0 9
  85.06374 7.0 7
  91.0582 7.0 7
  93.05372 8.0 8
  93.06026 11.0 11
  102.05476 10.0 10
  104.05173 6.0 6
  105.06641 12.0 12
  106.0542 8.0 8
  109.09148 7.0 7
  110.06004 16.0 16
  115.05856 15.0 15
  116.04671 9.0 9
  116.05288 14.0 14
  117.0584 7.0 7
  118.07431 10.0 10
  119.04469 10.0 10
  119.0739 6.0 6
  120.08392 13.0 13
  122.05633 6.0 6
  122.09995 10.0 10
  128.05083 9.0 9
  128.0587 8.0 8
  128.06509 9.0 9
  130.06487 19.0 19
  130.07152 11.0 11
  131.05547 5.0 5
  131.07544 32.0 32
  132.07716 5.0 5
  134.05696 6.0 6
  140.06015 7.0 7
  141.0545 8.0 8
  141.05978 7.0 7
  142.05482 28.0 28
  142.83638 5.0 5
  143.07478 45.0 45
  144.02446 7.0 7
  144.0403 36.0 36
  144.04855 13.0 13
  144.05698 8.0 8
  144.08614 50.0 50
  145.07887 21.0 21
  145.0921 8.0 8
  152.05101 16.0 16
  152.05948 37.0 37
  152.0677 20.0 20
  153.05923 7.0 7
  153.07114 8.0 8
  154.05612 7.0 7
  154.06808 57.0 57
  154.44037 5.0 5
  156.04393 13.0 13
  156.07956 34.0 34
  156.17126 5.0 5
  157.06685 7.0 7
  157.08871 6.0 6
  158.0864 5.0 5
  158.09358 6.0 6
  163.05496 6.0 6
  163.72609 22.0 22
  165.0706 131.0 131
  166.0489 9.0 9
  166.05972 44.0 44
  166.06874 63.0 63
  166.0869 18.0 18
  167.07329 496.0 496
  168.06104 6.0 6
  168.08038 454.0 454
  169.06912 9.0 9
  169.08247 109.0 109
  169.09573 33.0 33
  170.08919 17.0 17
  170.55458 5.0 5
  171.07701 8.0 8
  171.09747 12.0 12
  176.07106 8.0 8
  177.03404 7.0 7
  177.05557 6.0 6
  177.06995 8.0 8
  177.08083 42.0 42
  177.18675 8.0 8
  178.03891 9.0 9
  178.05441 13.0 13
  178.0656 41.0 41
  178.07756 78.0 78
  179.05643 8.0 8
  179.07477 77.0 77
  179.088 9.0 9
  179.09824 6.0 6
  179.65749 12.0 12
  180.04999 17.0 17
  180.06056 27.0 27
  180.0813 487.0 487
  180.16249 6.0 6
  181.08449 124.0 124
  181.09857 55.0 55
  182.0867 24.0 24
  182.10086 64.0 64
  183.07158 8.0 8
  183.08948 14.0 14
  183.10297 15.0 15
  184.07718 8.0 8
  184.08766 13.0 13
  185.11235 9.0 9
  186.10229 7.0 7
  190.06696 8.0 8
  190.0818 8.0 8
  190.26463 6.0 6
  191.05186 7.0 7
  191.07405 248.0 248
  191.87204 6.0 6
  192.02087 16.0 16
  192.03914 6.0 6
  192.0542 36.0 36
  192.08047 486.0 486
  193.02931 5.0 5
  193.04079 15.0 15
  193.04968 7.0 7
  193.08688 775.0 774
  193.14575 5.0 5
  193.46202 6.0 6
  194.04034 7.0 7
  194.05852 81.0 81
  194.09622 1000.0 999
  194.73018 5.0 5
  195.0098 9.0 9
  195.05028 11.0 11
  195.05797 7.0 7
  195.07867 13.0 13
  195.08658 38.0 38
  195.10066 159.0 159
  195.60793 5.0 5
  196.07713 33.0 33
  196.08749 18.0 18
  196.10333 5.0 5
  196.11971 12.0 12
  196.95032 5.0 5
  197.07413 6.0 6
  197.09891 5.0 5
  197.10974 9.0 9
  198.10901 7.0 7
  198.82344 5.0 5
  199.08054 12.0 12
  202.07275 18.0 18
  203.07135 74.0 74
  204.05678 12.0 12
  204.08212 461.0 461
  205.04857 6.0 6
  205.0851 293.0 293
  205.09412 71.0 71
  205.12955 10.0 10
  206.07465 33.0 33
  206.09428 290.0 290
  206.11682 13.0 13
  207.0656 11.0 11
  207.07523 24.0 24
  207.09843 138.0 138
  207.10793 70.0 70
  208.0663 33.0 33
  208.0769 104.0 104
  208.09265 50.0 50
  208.11102 524.0 523
  208.61655 7.0 7
  208.7189 6.0 6
  209.06345 10.0 10
  209.11566 233.0 233
  210.0755 10.0 10
  210.09288 15.0 15
  210.11314 8.0 8
  210.12494 15.0 15
  211.03488 5.0 5
  211.0984 21.0 21
  214.09102 10.0 10
  215.60881 10.0 10
  216.06265 5.0 5
  216.08009 27.0 27
  216.42458 6.0 6
  217.05565 15.0 15
  217.07454 43.0 43
  217.08763 204.0 204
  217.3338 5.0 5
  217.40128 6.0 6
  218.05928 7.0 7
  218.09241 252.0 252
  219.05685 20.0 20
  219.06255 62.0 62
  219.07573 21.0 21
  219.09084 104.0 104
  219.10603 154.0 154
  220.04893 16.0 16
  220.07555 476.0 476
  220.09479 75.0 75
  220.11363 185.0 185
  221.04599 9.0 9
  221.06093 14.0 14
  221.08112 70.0 70
  221.09219 86.0 86
  221.11017 83.0 83
  221.12065 46.0 46
  222.08583 95.0 95
  222.10187 17.0 17
  222.11485 45.0 45
  222.13063 49.0 49
  223.09514 19.0 19
  223.12401 11.0 11
  223.29437 6.0 6
  224.11386 7.0 7
  224.12587 9.0 9
  224.56145 6.0 6
  225.11433 5.0 5
  227.07756 9.0 9
  227.41273 11.0 11
  227.6669 16.0 16
  228.07326 20.0 20
  228.09445 12.0 12
  228.1199 7.0 7
  228.87946 12.0 12
  229.06927 10.0 10
  229.08487 10.0 10
  229.09517 25.0 25
  230.07678 24.0 24
  230.09251 76.0 76
  231.08957 10.0 10
  231.1026 45.0 45
  232.07007 36.0 36
  232.09741 42.0 42
  232.10913 19.0 19
  233.08533 72.0 72
  233.10391 110.0 110
  233.11913 39.0 39
  234.06128 5.0 5
  234.07539 25.0 25
  234.08984 166.0 166
  234.09698 64.0 64
  234.1203 36.0 36
  234.12981 69.0 69
  235.06807 16.0 16
  235.08905 18.0 18
  235.09967 38.0 38
  235.11354 21.0 21
  235.12576 52.0 52
  235.13869 19.0 19
  235.16632 6.0 6
  236.09531 24.0 24
  236.11391 51.0 51
  236.12494 15.0 15
  236.13721 6.0 6
  237.0679 7.0 7
  237.1077 62.0 62
  237.13065 16.0 16
  237.243 5.0 5
  238.08168 9.0 9
  238.11612 9.0 9
  238.5052 7.0 7
  239.09398 23.0 23
  240.11261 6.0 6
  241.08481 13.0 13
  241.09724 12.0 12
  243.08142 7.0 7
  243.09319 10.0 10
  243.21489 6.0 6
  244.07652 65.0 65
  244.10585 18.0 18
  244.12505 9.0 9
  245.08031 50.0 50
  245.11179 42.0 42
  245.98344 8.0 8
  246.05049 6.0 6
  246.09035 240.0 240
  246.15198 8.0 8
  247.06099 14.0 14
  247.08046 72.0 72
  247.10071 39.0 39
  247.1114 27.0 27
  247.12411 41.0 41
  247.16891 6.0 6
  248.09027 31.0 31
  248.10423 40.0 40
  248.11792 29.0 29
  248.13144 23.0 23
  248.14619 8.0 8
  249.10193 28.0 28
  249.13795 25.0 25
  249.15105 6.0 6
  249.18993 5.0 5
  250.09644 7.0 7
  250.12436 7.0 7
  252.04681 7.0 7
  252.106 12.0 12
  252.13739 7.0 7
  252.60373 5.0 5
  257.10242 12.0 12
  258.07617 6.0 6
  259.08936 15.0 15
  260.10675 11.0 11
  261.08936 6.0 6
  261.10147 28.0 28
  261.1123 11.0 11
  261.13974 9.0 9
  262.1221 7.0 7
  263.10992 15.0 15
  263.1243 17.0 17
  263.1532 31.0 31
  263.25922 9.0 9
  264.1394 8.0 8
  264.15848 15.0 15
  266.10791 23.0 23
  266.13281 17.0 17
  266.146 7.0 7
  267.10837 7.0 7
  268.14243 7.0 7
  269.12027 12.0 12
  273.14157 7.0 7
  274.12411 5.0 5
  274.13345 5.0 5
  275.10556 14.0 14
  276.1333 8.0 8
  280.14188 7.0 7
  280.23981 6.0 6
  283.44119 7.0 7
  294.84845 9.0 9
  323.17099 15.0 15
  323.186 36.0 36
  324.18671 6.0 6
//
