ACCESSION: MSBNK-RIKEN-PR302794
RECORD_TITLE: Kaempferol-4'-methyl ether; LC-ESI-QTOF; MS2
DATE: 2019.03.28
AUTHORS: Tetsuya Mori, Center for Sustainable Resource Science, RIKEN
LICENSE: CC BY-NC-SA
PUBLICATION: Tsugawa H., Nakabayashi R., Mori T., Yamada Y., Takahashi M., Rai A., Sugiyama R., Yamamoto H., Nakaya T., Yamazaki M., Kooke R., Bac-Molenaar JA., Oztolan-Erol N., Keurentjes JJB., Arita M., Saito K. (2019) "A cheminformatics approach to characterize metabolomes in stable-isotope-labeled organisms" Nature Methods 16(4):295-298. [doi:10.1038/s41592-019-0358-2]
COMMENT: registered in RIKEN PlaSMA
CH$NAME: Kaempferol-4'-methyl ether
CH$COMPOUND_CLASS: Flavonols
CH$FORMULA: C16H12O6
CH$EXACT_MASS: 300.266
CH$SMILES: COC1=CC=C(C=C1)C1=C(O)C(=O)C2=C(O)C=C(O)C=C2O1
CH$IUPAC: InChI=1S/C16H12O6/c1-21-10-4-2-8(3-5-10)16-15(20)14(19)13-11(18)6-9(17)7-12(13)22-16/h2-7,17-18,20H,1H3
CH$LINK: INCHIKEY SQFSKOYWJBQGKQ-UHFFFAOYSA-N
AC$INSTRUMENT: LC, Waters Acquity UPLC System; MS, Waters Xevo G2 Q-Tof
AC$INSTRUMENT_TYPE: LC-ESI-QTOF
AC$MASS_SPECTROMETRY: MS_TYPE MS2
AC$MASS_SPECTROMETRY: ION_MODE POSITIVE
AC$MASS_SPECTROMETRY: COLLISION_ENERGY 6V
AC$MASS_SPECTROMETRY: DESOLVATION_GAS_FLOW 800/h
AC$MASS_SPECTROMETRY: DESOLVATION_TEMPERATURE 450 C
AC$MASS_SPECTROMETRY: IONIZATION ESI
AC$CHROMATOGRAPHY: CAPILLARY_VOLTAGE +3.00 kV
AC$CHROMATOGRAPHY: COLUMN_NAME Acquity bridged ethyl hybrid C18 (1.7 um, 2.1 mm * 100 mm, Waters)
AC$CHROMATOGRAPHY: COLUMN_TEMPERATURE 40 C
AC$CHROMATOGRAPHY: FLOW_GRADIENT A/B = (99.5%/0.5% at 0 min, 99.5%/0.5% at 0.1 min, 20%/80% at 10 min, 0.5%/99.5% at 10.1 min, 0.5%/99.5% at 12.0 min, 99.5%/0.5% at 12.1 min, 99.5%/0.5% at 15.0 min)
AC$CHROMATOGRAPHY: FLOW_RATE 0.3 ml/min at 0 min, 0.3 ml/min at 10 min, 0.4 ml/min at 10.1 min, 0.4 ml/min at 14.4 min, 0.3 ml/min at 14.5 min
AC$CHROMATOGRAPHY: RETENTION_TIME 7.544483
AC$CHROMATOGRAPHY: SOLVENT A water including 0.1% formic acid
AC$CHROMATOGRAPHY: SOLVENT B acetonitrile including 0.1% formic acid
MS$FOCUSED_ION: PRECURSOR_TYPE [M+H]+
MS$FOCUSED_ION: PRECURSOR_M/Z 301.0706646
PK$SPLASH: splash10-0zgr-0491000000-e123005abe674689adba
PK$NUM_PEAK: 198
PK$PEAK: m/z int. rel.int.
  67.02036 7.0 7
  68.99659 11.0 11
  69.03802 5.0 5
  78.04381 12.0 12
  81.02981 7.0 7
  91.05434 9.0 9
  92.01775 6.0 6
  92.02731 13.0 13
  97.03296 6.0 6
  106.04087 35.0 35
  107.02494 5.0 5
  107.04043 15.0 15
  107.04644 25.0 25
  107.05484 7.0 7
  108.05801 33.0 33
  109.02798 33.0 33
  109.03423 21.0 21
  119.04554 19.0 19
  121.06277 35.0 35
  121.06878 14.0 14
  124.01426 14.0 14
  125.01929 5.0 5
  126.02856 21.0 21
  128.05981 7.0 7
  129.07492 7.0 7
  133.03673 7.0 7
  133.05943 7.0 7
  133.06577 8.0 8
  134.02681 6.0 6
  134.04373 6.0 6
  135.0284 13.0 13
  135.04324 241.0 241
  136.01814 17.0 17
  136.04846 24.0 24
  137.02402 107.0 107
  138.0305 5.0 5
  139.01755 13.0 13
  139.03827 270.0 270
  140.04428 10.0 10
  140.04996 23.0 23
  141.04462 16.0 16
  142.03787 7.0 7
  144.05743 14.0 14
  145.0645 22.0 22
  146.03369 6.0 6
  147.0428 16.0 16
  149.04884 5.0 5
  149.05977 19.0 19
  150.03441 12.0 12
  152.00508 15.0 15
  152.01347 46.0 46
  152.76888 6.0 6
  153.00204 24.0 24
  153.01764 592.0 591
  153.07037 8.0 8
  154.02599 33.0 33
  154.0435 8.0 8
  155.02536 9.0 9
  156.0519 6.0 6
  157.05379 12.0 12
  158.06679 12.0 12
  159.09267 9.0 9
  160.00897 36.0 36
  160.01671 57.0 57
  161.05899 61.0 61
  162.01718 7.0 7
  162.03299 6.0 6
  162.06273 13.0 13
  164.99976 12.0 12
  165.01801 277.0 277
  166.01494 16.0 16
  166.02211 42.0 42
  170.06909 6.0 6
  171.08244 47.0 47
  172.04822 5.0 5
  173.55688 6.0 6
  174.03091 7.0 7
  174.06755 12.0 12
  174.48955 5.0 5
  175.04382 20.0 20
  175.07278 18.0 18
  176.07875 9.0 9
  183.93378 7.0 7
  184.05107 29.0 29
  185.0584 29.0 29
  187.30537 6.0 6
  187.43059 6.0 6
  187.64214 6.0 6
  188.067 8.0 8
  189.04575 7.0 7
  191.08035 6.0 6
  193.01289 5.0 5
  195.08447 6.0 6
  196.3728 7.0 7
  197.04167 6.0 6
  199.04056 6.0 6
  201.05307 105.0 105
  201.22836 8.0 8
  201.60597 6.0 6
  202.02794 5.0 5
  202.05937 35.0 35
  202.07109 17.0 17
  203.06686 19.0 19
  203.10184 6.0 6
  203.19269 6.0 6
  204.03354 5.0 5
  211.04173 8.0 8
  212.02446 10.0 10
  212.04099 23.0 23
  212.05215 37.0 37
  213.01233 6.0 6
  213.05614 86.0 86
  214.05502 22.0 22
  216.0408 13.0 13
  216.17465 5.0 5
  217.03802 11.0 11
  217.04836 11.0 11
  217.08496 6.0 6
  218.05313 6.0 6
  223.0444 5.0 5
  224.04633 8.0 8
  225.05821 5.0 5
  227.04269 6.0 6
  227.0631 14.0 14
  227.07585 11.0 11
  228.04558 6.0 6
  229.02251 11.0 11
  229.05064 455.0 455
  229.07295 14.0 14
  229.98907 6.0 6
  230.05768 828.0 827
  230.89148 6.0 6
  231.02138 9.0 9
  231.04791 23.0 23
  231.06142 111.0 111
  231.40123 8.0 8
  232.03294 25.0 25
  232.05521 7.0 7
  232.06805 16.0 16
  233.29745 6.0 6
  233.30714 10.0 10
  240.04161 31.0 31
  241.02583 6.0 6
  241.04663 86.0 86
  241.06532 8.0 8
  242.02522 9.0 9
  242.05045 19.0 19
  242.06061 28.0 28
  242.80911 6.0 6
  243.04131 17.0 17
  243.05444 10.0 10
  243.06639 8.0 8
  244.02338 6.0 6
  244.06488 14.0 14
  245.06546 6.0 6
  245.07999 43.0 43
  246.08546 11.0 11
  249.50809 8.0 8
  252.02261 6.0 6
  255.07022 32.0 32
  256.06104 7.0 7
  257.02423 11.0 11
  257.04257 201.0 201
  257.99438 8.0 8
  258.05203 1000.0 999
  259.02997 7.0 7
  259.04758 42.0 42
  259.06067 90.0 90
  259.07932 5.0 5
  259.98276 7.0 7
  260.05923 7.0 7
  269.04617 243.0 243
  270.03384 7.0 7
  270.0502 56.0 56
  271.02148 7.0 7
  271.03156 6.0 6
  271.05283 12.0 12
  272.06958 126.0 126
  272.67542 9.0 9
  273.06879 10.0 10
  285.03442 20.0 20
  285.04361 69.0 69
  286.0137 9.0 9
  286.04684 620.0 619
  287.02618 10.0 10
  287.03421 28.0 28
  287.05222 53.0 53
  288.05988 14.0 14
  289.03149 6.0 6
  289.05194 7.0 7
  289.92456 5.0 5
  296.27603 7.0 7
  299.04971 16.0 16
  300.04596 6.0 6
  300.98575 8.0 8
  301.00763 12.0 12
  301.04364 8.0 8
  301.07025 832.0 831
//
