ACCESSION: MSBNK-RIKEN-PR307206
RECORD_TITLE: (2R)-2-Hydroxy-2-phenethylglucosinolate; LC-ESI-QTOF; MS2
DATE: 2019.03.28
AUTHORS: Tetsuya Mori, Center for Sustainable Resource Science, RIKEN
LICENSE: CC BY-NC-SA
PUBLICATION: Tsugawa H., Nakabayashi R., Mori T., Yamada Y., Takahashi M., Rai A., Sugiyama R., Yamamoto H., Nakaya T., Yamazaki M., Kooke R., Bac-Molenaar JA., Oztolan-Erol N., Keurentjes JJB., Arita M., Saito K. (2019) "A cheminformatics approach to characterize metabolomes in stable-isotope-labeled organisms" Nature Methods 16(4):295-298. [doi:10.1038/s41592-019-0358-2]
COMMENT: registered in RIKEN PlaSMA
CH$NAME: (2R)-2-Hydroxy-2-phenethylglucosinolate
CH$COMPOUND_CLASS: Alkylglucosinolates
CH$FORMULA: C15H21NO10S2
CH$EXACT_MASS: 439.46
CH$SMILES: OCC1OC(SC(CC(O)C2=CC=CC=C2)=NOS(O)(=O)=O)C(O)C(O)C1O
CH$IUPAC: InChI=1S/C15H21NO10S2/c17-7-10-12(19)13(20)14(21)15(25-10)27-11(16-26-28(22,23)24)6-9(18)8-4-2-1-3-5-8/h1-5,9-10,12-15,17-21H,6-7H2,(H,22,23,24)
CH$LINK: INCHIKEY GAPDDBFHNYHZIS-UHFFFAOYSA-N
AC$INSTRUMENT: LC, Waters Acquity UPLC System; MS, Waters Xevo G2 Q-Tof
AC$INSTRUMENT_TYPE: LC-ESI-QTOF
AC$MASS_SPECTROMETRY: MS_TYPE MS2
AC$MASS_SPECTROMETRY: ION_MODE NEGATIVE
AC$MASS_SPECTROMETRY: COLLISION_ENERGY 6V
AC$MASS_SPECTROMETRY: DESOLVATION_GAS_FLOW 800/h
AC$MASS_SPECTROMETRY: DESOLVATION_TEMPERATURE 450 C
AC$MASS_SPECTROMETRY: IONIZATION ESI
AC$CHROMATOGRAPHY: CAPILLARY_VOLTAGE -2.75 kV
AC$CHROMATOGRAPHY: COLUMN_NAME Acquity bridged ethyl hybrid C18 (1.7 um, 2.1 mm * 100 mm, Waters)
AC$CHROMATOGRAPHY: COLUMN_TEMPERATURE 40 C
AC$CHROMATOGRAPHY: FLOW_GRADIENT A/B = (99.5%/0.5% at 0 min, 99.5%/0.5% at 0.1 min, 20%/80% at 10 min, 0.5%/99.5% at 10.1 min, 0.5%/99.5% at 12.0 min, 99.5%/0.5% at 12.1 min, 99.5%/0.5% at 15.0 min)
AC$CHROMATOGRAPHY: FLOW_RATE 0.3 ml/min at 0 min, 0.3 ml/min at 10 min, 0.4 ml/min at 10.1 min, 0.4 ml/min at 14.4 min, 0.3 ml/min at 14.5 min
AC$CHROMATOGRAPHY: RETENTION_TIME 2.70645
AC$CHROMATOGRAPHY: SOLVENT A water including 0.1% formic acid
AC$CHROMATOGRAPHY: SOLVENT B acetonitrile including 0.1% formic acid
MS$FOCUSED_ION: PRECURSOR_TYPE [M-H]-
MS$FOCUSED_ION: PRECURSOR_M/Z 438.05341174783
PK$SPLASH: splash10-000i-1000900000-a1e7915757ef5e19acb7
PK$NUM_PEAK: 16
PK$PEAK: m/z int. rel.int.
  79.95731 6.0 6
  95.95183 8.0 8
  96.95945 114.0 114
  98.95603 7.0 7
  135.97122 40.0 40
  153.98051 6.0 6
  195.03369 26.0 26
  196.0426 21.0 21
  242.01228 5.0 5
  259.01187 21.0 21
  260.02319 24.0 24
  274.98926 14.0 14
  275.99475 6.0 6
  332.00955 20.0 20
  358.10281 5.0 5
  438.05191 1000.0 999
//
