ACCESSION: MSBNK-RIKEN-PR301830
RECORD_TITLE: Protopine; LC-ESI-QTOF; MS2
DATE: 2019.03.28
AUTHORS: Tetsuya Mori, Center for Sustainable Resource Science, RIKEN
LICENSE: CC BY-NC-SA
PUBLICATION: Tsugawa H., Nakabayashi R., Mori T., Yamada Y., Takahashi M., Rai A., Sugiyama R., Yamamoto H., Nakaya T., Yamazaki M., Kooke R., Bac-Molenaar JA., Oztolan-Erol N., Keurentjes JJB., Arita M., Saito K. (2019) "A cheminformatics approach to characterize metabolomes in stable-isotope-labeled organisms" Nature Methods 16(4):295-298. [doi:10.1038/s41592-019-0358-2]
COMMENT: registered in RIKEN PlaSMA
CH$NAME: Protopine
CH$COMPOUND_CLASS: Protopine alkaloids
CH$FORMULA: C20H19NO5
CH$EXACT_MASS: 353.374
CH$SMILES: CN1CCC2=CC3=C(OCO3)C=C2C(=O)CC2=C(C1)C1=C(OCO1)C=C2
CH$IUPAC: InChI=1S/C20H19NO5/c1-21-5-4-13-7-18-19(25-10-24-18)8-14(13)16(22)6-12-2-3-17-20(15(12)9-21)26-11-23-17/h2-3,7-8H,4-6,9-11H2,1H3
CH$LINK: INCHIKEY GPTFURBXHJWNHR-UHFFFAOYSA-N
AC$INSTRUMENT: LC, Waters Acquity UPLC System; MS, Waters Xevo G2 Q-Tof
AC$INSTRUMENT_TYPE: LC-ESI-QTOF
AC$MASS_SPECTROMETRY: MS_TYPE MS2
AC$MASS_SPECTROMETRY: ION_MODE POSITIVE
AC$MASS_SPECTROMETRY: COLLISION_ENERGY 6V
AC$MASS_SPECTROMETRY: DESOLVATION_GAS_FLOW 800/h
AC$MASS_SPECTROMETRY: DESOLVATION_TEMPERATURE 450 C
AC$MASS_SPECTROMETRY: IONIZATION ESI
AC$CHROMATOGRAPHY: CAPILLARY_VOLTAGE +3.00 kV
AC$CHROMATOGRAPHY: COLUMN_NAME Acquity bridged ethyl hybrid C18 (1.7 um, 2.1 mm * 100 mm, Waters)
AC$CHROMATOGRAPHY: COLUMN_TEMPERATURE 40 C
AC$CHROMATOGRAPHY: FLOW_GRADIENT A/B = (99.5%/0.5% at 0 min, 99.5%/0.5% at 0.1 min, 20%/80% at 10 min, 0.5%/99.5% at 10.1 min, 0.5%/99.5% at 12.0 min, 99.5%/0.5% at 12.1 min, 99.5%/0.5% at 15.0 min)
AC$CHROMATOGRAPHY: FLOW_RATE 0.3 ml/min at 0 min, 0.3 ml/min at 10 min, 0.4 ml/min at 10.1 min, 0.4 ml/min at 14.4 min, 0.3 ml/min at 14.5 min
AC$CHROMATOGRAPHY: RETENTION_TIME 4.362817
AC$CHROMATOGRAPHY: SOLVENT A water including 0.1% formic acid
AC$CHROMATOGRAPHY: SOLVENT B acetonitrile including 0.1% formic acid
MS$FOCUSED_ION: PRECURSOR_TYPE [M+H]+
MS$FOCUSED_ION: PRECURSOR_M/Z 354.1335992
PK$SPLASH: splash10-0udi-0419000000-a0cbea48146590373050
PK$NUM_PEAK: 35
PK$PEAK: m/z int. rel.int.
  107.05022 7.0 7
  119.05013 9.0 9
  135.04243 12.0 12
  147.04738 6.0 6
  149.05995 70.0 70
  150.06395 6.0 6
  159.06711 11.0 11
  165.05183 12.0 12
  175.03726 7.0 7
  177.07027 5.0 5
  177.08064 6.0 6
  188.07228 171.0 171
  189.07747 184.0 184
  190.08051 28.0 28
  195.07973 11.0 11
  206.08005 31.0 31
  207.08035 17.0 17
  217.06404 11.0 11
  223.07518 8.0 8
  235.0741 11.0 11
  247.07007 16.0 16
  247.08441 18.0 18
  253.09111 5.0 5
  265.08823 15.0 15
  267.06732 7.0 7
  275.07336 30.0 30
  278.12369 5.0 5
  293.069 6.0 6
  295.09943 5.0 5
  320.0936 9.0 9
  323.08621 8.0 8
  336.10583 6.0 6
  336.12503 21.0 21
  354.1348 1000.0 999
  354.18954 25.0 25
//
