ACCESSION: MSBNK-RIKEN-PR310605
RECORD_TITLE: (+)-Chelidonine; LC-ESI-QTOF; MS2
DATE: 2019.03.28
AUTHORS: Tetsuya Mori, Center for Sustainable Resource Science, RIKEN
LICENSE: CC BY-NC-SA
PUBLICATION: Tsugawa H., Nakabayashi R., Mori T., Yamada Y., Takahashi M., Rai A., Sugiyama R., Yamamoto H., Nakaya T., Yamazaki M., Kooke R., Bac-Molenaar JA., Oztolan-Erol N., Keurentjes JJB., Arita M., Saito K. (2019) "A cheminformatics approach to characterize metabolomes in stable-isotope-labeled organisms" Nature Methods 16(4):295-298. [doi:10.1038/s41592-019-0358-2]
COMMENT: Annotation level-1
CH$NAME: Chelidonin
CH$NAME: (+)-Chelidonine
CH$NAME: [1,3]Benzodioxolo[5,6-c]-1,3-dioxolo[4,5-i]phenanthridin-6-ol, 5b,6,7,12b,13,14-hexahydro-13-methyl-, (5bR,6S,12bS)-
CH$COMPOUND_CLASS: Alkaloids
CH$FORMULA: C20H19NO5
CH$EXACT_MASS: 353.126323
CH$SMILES: CN1CC2=C(C=CC3=C2OCO3)[C@@H]4[C@H]1C5=CC6=C(C=C5C[C@@H]4O)OCO6
CH$IUPAC: InChI=1S/C20H19NO5/c1-21-7-13-11(2-3-15-20(13)26-9-23-15)18-14(22)4-10-5-16-17(25-8-24-16)6-12(10)19(18)21/h2-3,5-6,14,18-19,22H,4,7-9H2,1H3/t14-,18-,19+/m0/s1
CH$LINK: CAS 476-32-4
CH$LINK: CHEMSPIDER 171216
CH$LINK: COMPTOX DTXSID10878474
CH$LINK: INCHIKEY GHKISGDRQRSCII-ZOCIIQOWSA-N
CH$LINK: PUBCHEM CID:197810
AC$INSTRUMENT: LC, Waters Acquity UPLC System; MS, Waters Xevo G2 Q-Tof
AC$INSTRUMENT_TYPE: LC-ESI-QTOF
AC$MASS_SPECTROMETRY: MS_TYPE MS2
AC$MASS_SPECTROMETRY: ION_MODE POSITIVE
AC$MASS_SPECTROMETRY: COLLISION_ENERGY 6V
AC$MASS_SPECTROMETRY: DESOLVATION_GAS_FLOW 800/h
AC$MASS_SPECTROMETRY: DESOLVATION_TEMPERATURE 450 C
AC$MASS_SPECTROMETRY: IONIZATION ESI
AC$CHROMATOGRAPHY: CAPILLARY_VOLTAGE +3.00 kV
AC$CHROMATOGRAPHY: COLUMN_NAME Acquity bridged ethyl hybrid C18 (1.7 um, 2.1 mm * 100 mm, Waters)
AC$CHROMATOGRAPHY: COLUMN_TEMPERATURE 40 C
AC$CHROMATOGRAPHY: FLOW_GRADIENT A/B = (99.5%/0.5% at 0 min, 99.5%/0.5% at 0.1 min, 20%/80% at 10 min, 0.5%/99.5% at 10.1 min, 0.5%/99.5% at 12.0 min, 99.5%/0.5% at 12.1 min, 99.5%/0.5% at 15.0 min)
AC$CHROMATOGRAPHY: FLOW_RATE 0.3 ml/min at 0 min, 0.3 ml/min at 10 min, 0.4 ml/min at 10.1 min, 0.4 ml/min at 14.4 min, 0.3 ml/min at 14.5 min
AC$CHROMATOGRAPHY: RETENTION_TIME 4.52
AC$CHROMATOGRAPHY: SOLVENT A water including 0.1% formic acid
AC$CHROMATOGRAPHY: SOLVENT B acetonitrile including 0.1% formic acid
MS$FOCUSED_ION: PRECURSOR_TYPE [M+H]+
MS$FOCUSED_ION: PRECURSOR_M/Z 354.1336
PK$SPLASH: splash10-0ufr-0289000000-2abf14eb1342db2807cd
PK$NUM_PEAK: 316
PK$PEAK: m/z int. rel.int.
  79.05326 40.0 2
  93.07742 33.0 1
  103.05875 17.0 1
  115.05247 20.0 1
  115.05912 19.0 1
  116.05967 24.0 1
  118.06233 20.0 1
  118.07236 45.0 2
  119.0618 17.0 1
  123.04413 17.0 1
  131.05194 25.0 1
  131.07957 22.0 1
  134.0311 19.0 1
  134.99208 19.0 1
  135.02289 19.0 1
  135.045 1206.0 53
  135.06071 50.0 2
  136.04724 202.0 9
  137.0463 39.0 2
  143.04695 22.0 1
  143.0533 47.0 2
  143.06136 33.0 1
  144.05713 19.0 1
  146.06244 74.0 3
  147.0442 52.0 2
  149.02112 18.0 1
  149.02867 57.0 2
  149.03853 17.0 1
  149.05734 96.0 4
  149.84111 20.0 1
  151.00546 31.0 1
  151.02599 21.0 1
  151.58414 27.0 1
  153.05882 18.0 1
  158.06915 28.0 1
  159.04369 260.0 11
  159.05089 65.0 3
  159.98724 18.0 1
  160.04802 77.0 3
  161.05786 181.0 8
  161.06534 134.0 6
  162.06667 50.0 2
  162.48689 18.0 1
  163.02708 69.0 3
  163.04027 619.0 27
  164.04295 85.0 4
  164.49376 29.0 1
  165.07057 26.0 1
  165.40984 21.0 1
  168.05835 25.0 1
  169.07227 22.0 1
  172.05191 27.0 1
  173.04333 26.0 1
  173.0605 350.0 15
  173.36435 40.0 2
  174.04587 18.0 1
  174.05986 25.0 1
  175.03864 35.0 2
  175.06943 52.0 2
  175.07559 22.0 1
  175.26472 28.0 1
  176.05008 20.0 1
  176.07031 159.0 7
  176.08258 34.0 1
  177.25897 29.0 1
  178.08197 75.0 3
  179.06918 20.0 1
  179.08804 247.0 11
  180.06465 25.0 1
  180.08809 80.0 3
  181.09756 21.0 1
  182.43692 52.0 2
  184.38783 20.0 1
  186.99423 18.0 1
  187.02701 22.0 1
  187.03822 19.0 1
  187.04767 44.0 2
  188.04573 20.0 1
  188.05678 61.0 3
  188.07385 770.0 34
  189.04355 43.0 2
  189.07236 2905.0 127
  189.09479 31.0 1
  190.04437 20.0 1
  190.05318 27.0 1
  190.07764 329.0 14
  190.47162 27.0 1
  190.59123 25.0 1
  191.07007 25.0 1
  191.08212 98.0 4
  191.09261 48.0 2
  192.09169 21.0 1
  193.06348 17.0 1
  197.933 17.0 1
  200.1254 20.0 1
  201.05128 34.0 1
  201.07248 21.0 1
  201.08922 17.0 1
  202.07877 20.0 1
  202.09726 21.0 1
  203.99234 25.0 1
  205.06195 31.0 1
  205.06892 101.0 4
  205.68518 20.0 1
  206.0434 17.0 1
  207.06108 17.0 1
  207.08521 398.0 17
  208.08412 77.0 3
  209.05344 23.0 1
  209.06403 61.0 3
  209.09477 20.0 1
  209.13046 20.0 1
  210.06039 19.0 1
  211.65437 20.0 1
  211.92014 27.0 1
  216.89766 30.0 1
  217.01442 18.0 1
  217.02792 97.0 4
  217.06726 2563.0 112
  217.47966 21.0 1
  217.98312 27.0 1
  218.01395 20.0 1
  218.06483 288.0 13
  218.07506 222.0 10
  218.28294 21.0 1
  218.44559 21.0 1
  218.63881 25.0 1
  219.06778 96.0 4
  219.08025 91.0 4
  220.03702 24.0 1
  220.08836 57.0 2
  220.09972 34.0 1
  221.66534 20.0 1
  222.0237 17.0 1
  222.06006 24.0 1
  222.08139 24.0 1
  223.06433 17.0 1
  223.07845 41.0 2
  224.50621 37.0 2
  228.03987 19.0 1
  232.97702 21.0 1
  233.06628 41.0 2
  235.05696 18.0 1
  235.0739 408.0 18
  235.09665 32.0 1
  235.60878 35.0 2
  235.79262 23.0 1
  236.06587 26.0 1
  236.08246 60.0 3
  237.05301 20.0 1
  237.06961 74.0 3
  237.09326 600.0 26
  237.12975 17.0 1
  238.0778 39.0 2
  238.08557 45.0 2
  238.10927 20.0 1
  244.73677 20.0 1
  244.98297 23.0 1
  245.05179 156.0 7
  245.06348 222.0 10
  245.07921 56.0 2
  245.51338 20.0 1
  245.83575 28.0 1
  246.05713 39.0 2
  246.07646 106.0 5
  246.39101 17.0 1
  246.98853 20.0 1
  247.03265 43.0 2
  247.07715 6243.0 273
  247.12239 47.0 2
  247.18707 25.0 1
  247.34729 25.0 1
  247.91907 18.0 1
  248.03502 29.0 1
  248.08054 1172.0 51
  248.16414 17.0 1
  248.26472 18.0 1
  249.03522 35.0 2
  249.07594 88.0 4
  249.08989 62.0 3
  249.09743 70.0 3
  249.10921 47.0 2
  249.18683 17.0 1
  250.05333 22.0 1
  250.07896 19.0 1
  250.73161 24.0 1
  252.05577 25.0 1
  254.80434 25.0 1
  256.07184 17.0 1
  256.40579 24.0 1
  260.74777 24.0 1
  261.62317 21.0 1
  262.056 17.0 1
  263.06113 36.0 2
  263.07687 64.0 3
  263.36218 23.0 1
  264.07391 19.0 1
  264.08252 56.0 2
  265.04785 20.0 1
  265.08685 551.0 24
  266.08517 92.0 4
  266.0993 79.0 3
  267.06342 28.0 1
  267.09259 37.0 2
  267.88583 18.0 1
  269.81195 32.0 1
  270.45001 20.0 1
  270.73682 26.0 1
  270.7634 23.0 1
  272.09561 25.0 1
  273.26785 21.0 1
  273.55359 18.0 1
  273.67276 24.0 1
  273.83121 18.0 1
  274.06912 22.0 1
  274.2504 20.0 1
  274.9743 23.0 1
  274.98416 19.0 1
  275.01431 28.0 1
  275.02734 97.0 4
  275.0408 64.0 3
  275.07153 11974.0 523
  275.12042 42.0 2
  275.54819 17.0 1
  275.75494 37.0 2
  276.03983 46.0 2
  276.07404 3004.0 131
  276.11264 42.0 2
  276.31619 20.0 1
  276.34698 23.0 1
  276.41479 20.0 1
  277.03018 18.0 1
  277.05399 35.0 2
  277.07886 559.0 24
  278.05453 18.0 1
  278.06995 88.0 4
  278.08865 18.0 1
  278.2244 17.0 1
  279.05249 30.0 1
  279.06778 38.0 2
  279.81009 17.0 1
  282.13477 18.0 1
  286.65247 37.0 2
  287.35989 33.0 1
  288.19644 17.0 1
  292.07916 20.0 1
  293.06631 69.0 3
  293.08362 340.0 15
  293.45184 28.0 1
  294.08151 66.0 3
  294.1044 20.0 1
  295.0961 942.0 41
  295.29495 18.0 1
  296.04132 22.0 1
  296.07767 67.0 3
  296.09283 120.0 5
  296.10828 115.0 5
  297.10498 20.0 1
  300.41104 18.0 1
  303.06778 97.0 4
  303.2037 29.0 1
  304.01794 18.0 1
  304.06796 18.0 1
  304.6116 29.0 1
  305.05319 55.0 2
  305.08112 3341.0 146
  306.04114 20.0 1
  306.08951 588.0 26
  306.24115 18.0 1
  307.07941 40.0 2
  307.10049 173.0 8
  308.09442 46.0 2
  309.09537 50.0 2
  312.91782 18.0 1
  317.70471 18.0 1
  319.10416 26.0 1
  320.06647 23.0 1
  320.09744 20.0 1
  321.05542 17.0 1
  323.05042 72.0 3
  323.09229 3787.0 166
  323.12897 20.0 1
  323.26108 24.0 1
  324.04303 26.0 1
  324.05515 41.0 2
  324.09476 1027.0 45
  324.12445 25.0 1
  324.32129 24.0 1
  325.0885 45.0 2
  325.10101 110.0 5
  329.37924 18.0 1
  333.22394 17.0 1
  334.10602 28.0 1
  334.12814 53.0 2
  336.08017 33.0 1
  336.09854 38.0 2
  336.11917 449.0 20
  336.13431 183.0 8
  336.15817 20.0 1
  337.12344 109.0 5
  337.14331 54.0 2
  338.11487 40.0 2
  340.59641 27.0 1
  341.43042 18.0 1
  346.33112 21.0 1
  352.05524 18.0 1
  352.12357 22.0 1
  352.24823 20.0 1
  353.07599 17.0 1
  353.11459 45.0 2
  354.04608 21.0 1
  354.07693 42.0 2
  354.09244 100.0 4
  354.1351 22853.0 999
  354.18997 596.0 26
  354.25015 58.0 3
//
