ACCESSION: MSBNK-RIKEN-PR300542
RECORD_TITLE: Isotalatizidine; LC-ESI-QTOF; MS2
DATE: 2019.03.28
AUTHORS: Tetsuya Mori, Center for Sustainable Resource Science, RIKEN
LICENSE: CC BY-NC-SA
PUBLICATION: Tsugawa H., Nakabayashi R., Mori T., Yamada Y., Takahashi M., Rai A., Sugiyama R., Yamamoto H., Nakaya T., Yamazaki M., Kooke R., Bac-Molenaar JA., Oztolan-Erol N., Keurentjes JJB., Arita M., Saito K. (2019) "A cheminformatics approach to characterize metabolomes in stable-isotope-labeled organisms" Nature Methods 16(4):295-298. [doi:10.1038/s41592-019-0358-2]
COMMENT: registered in RIKEN PlaSMA
CH$NAME: Isotalatizidine
CH$COMPOUND_CLASS: Aconitane-type diterpenoid alkaloids
CH$FORMULA: C23H37NO5
CH$EXACT_MASS: 407.551
CH$SMILES: CCN1C[C@@]2(COC)CC[C@H](O)[C@@]34C5C[C@H]6C(O)C5[C@](O)(C[C@@H]6OC)C(CC23)C14
CH$IUPAC: InChI=1S/C23H37NO5/c1-4-24-10-21(11-28-2)6-5-17(25)23-13-7-12-15(29-3)9-22(27,18(13)19(12)26)14(20(23)24)8-16(21)23/h12-20,25-27H,4-11H2,1-3H3/t12-,13?,14?,15+,16?,17+,18?,19?,20?,21-,22+,23-/m1/s1
CH$LINK: INCHIKEY RBSZCNOWHDHRFZ-CFIIAAHPSA-N
AC$INSTRUMENT: LC, Waters Acquity UPLC System; MS, Waters Xevo G2 Q-Tof
AC$INSTRUMENT_TYPE: LC-ESI-QTOF
AC$MASS_SPECTROMETRY: MS_TYPE MS2
AC$MASS_SPECTROMETRY: ION_MODE POSITIVE
AC$MASS_SPECTROMETRY: COLLISION_ENERGY 6V
AC$MASS_SPECTROMETRY: DESOLVATION_GAS_FLOW 800/h
AC$MASS_SPECTROMETRY: DESOLVATION_TEMPERATURE 450 C
AC$MASS_SPECTROMETRY: IONIZATION ESI
AC$CHROMATOGRAPHY: CAPILLARY_VOLTAGE +3.00 kV
AC$CHROMATOGRAPHY: COLUMN_NAME Acquity bridged ethyl hybrid C18 (1.7 um, 2.1 mm * 100 mm, Waters)
AC$CHROMATOGRAPHY: COLUMN_TEMPERATURE 40 C
AC$CHROMATOGRAPHY: FLOW_GRADIENT A/B = (99.5%/0.5% at 0 min, 99.5%/0.5% at 0.1 min, 20%/80% at 10 min, 0.5%/99.5% at 10.1 min, 0.5%/99.5% at 12.0 min, 99.5%/0.5% at 12.1 min, 99.5%/0.5% at 15.0 min)
AC$CHROMATOGRAPHY: FLOW_RATE 0.3 ml/min at 0 min, 0.3 ml/min at 10 min, 0.4 ml/min at 10.1 min, 0.4 ml/min at 14.4 min, 0.3 ml/min at 14.5 min
AC$CHROMATOGRAPHY: RETENTION_TIME 2.906267
AC$CHROMATOGRAPHY: SOLVENT A water including 0.1% formic acid
AC$CHROMATOGRAPHY: SOLVENT B acetonitrile including 0.1% formic acid
MS$FOCUSED_ION: PRECURSOR_TYPE [M+H]+
MS$FOCUSED_ION: PRECURSOR_M/Z 408.2744497
PK$SPLASH: splash10-0a4l-1920000000-c39cb66ba3f41daf01a2
PK$NUM_PEAK: 675
PK$PEAK: m/z int. rel.int.
  55.05808 17.0 17
  56.04165 21.0 21
  56.05006 23.0 23
  58.05934 21.0 21
  58.06594 302.0 302
  61.02757 97.0 97
  65.04014 22.0 22
  67.04831 26.0 26
  67.0563 218.0 218
  69.07108 18.0 18
  71.01436 49.0 49
  71.04842 306.0 306
  71.05286 102.0 102
  71.08478 12.0 12
  72.05123 26.0 26
  72.06812 26.0 26
  72.08133 381.0 381
  74.0849 14.0 14
  74.37931 14.0 14
  77.77271 14.0 14
  79.05479 154.0 154
  80.04902 79.0 79
  80.05385 32.0 32
  81.06503 68.0 68
  81.07243 68.0 68
  82.06261 34.0 34
  82.06895 22.0 22
  82.07597 14.0 14
  83.04787 16.0 16
  83.07267 19.0 19
  83.59485 20.0 20
  84.08229 271.0 271
  85.02901 31.0 31
  85.06368 27.0 27
  86.06599 18.0 18
  88.07515 15.0 15
  88.08053 19.0 19
  88.38037 16.0 16
  89.12167 20.0 20
  91.03979 50.0 50
  91.05087 205.0 205
  91.05646 467.0 467
  91.06461 28.0 28
  92.05276 22.0 22
  92.05904 80.0 80
  93.06838 214.0 214
  93.07609 60.0 60
  94.04306 16.0 16
  94.06061 56.0 56
  94.06698 21.0 21
  94.07626 61.0 61
  94.1229 13.0 13
  95.05166 70.0 70
  95.07195 40.0 40
  95.08164 16.0 16
  96.05942 22.0 22
  96.07977 41.0 41
  97.06324 61.0 61
  97.06931 24.0 24
  97.08492 62.0 62
  98.07253 25.0 25
  98.08554 34.0 34
  98.09702 678.0 677
  99.07879 38.0 38
  99.1007 44.0 44
  99.44028 26.0 26
  99.58932 12.0 12
  100.07447 18.0 18
  102.09003 56.0 56
  102.09925 17.0 17
  103.03295 19.0 19
  103.03706 53.0 53
  103.05547 58.0 58
  104.0405 13.0 13
  104.10516 16.0 16
  104.79746 14.0 14
  105.03586 34.0 34
  105.06971 704.0 703
  106.07119 37.0 37
  106.08155 61.0 61
  107.0423 26.0 26
  107.05222 164.0 164
  107.06805 20.0 20
  107.0787 11.0 11
  107.08522 40.0 40
  107.77818 12.0 12
  107.82483 15.0 15
  108.08154 1000.0 999
  109.05972 20.0 20
  109.06937 43.0 43
  109.08385 44.0 44
  109.091 41.0 41
  109.10214 21.0 21
  109.8958 17.0 17
  110.08738 58.0 58
  110.09706 131.0 131
  110.14835 13.0 13
  110.91275 14.0 14
  111.02918 14.0 14
  111.0388 23.0 23
  111.04671 49.0 49
  112.07743 12.0 12
  112.11109 19.0 19
  115.04799 34.0 34
  115.05507 134.0 134
  116.0335 23.0 23
  116.05676 16.0 16
  116.06678 52.0 52
  116.11647 14.0 14
  117.05015 19.0 19
  117.05973 52.0 52
  117.07034 572.0 571
  117.24143 21.0 21
  118.07103 49.0 49
  118.08266 16.0 16
  119.04807 46.0 46
  119.07539 45.0 45
  119.08852 225.0 225
  120.05468 19.0 19
  120.06328 18.0 18
  120.09473 36.0 36
  120.64134 20.0 20
  121.04135 16.0 16
  121.06158 25.0 25
  121.06934 43.0 43
  121.08764 53.0 53
  121.09436 29.0 29
  121.1036 44.0 44
  122.06826 21.0 21
  122.08657 25.0 25
  122.09599 368.0 368
  122.12975 16.0 16
  122.30437 14.0 14
  123.03457 58.0 58
  123.04565 107.0 107
  123.08172 19.0 19
  123.09763 34.0 34
  124.0229 16.0 16
  124.04464 13.0 13
  124.07289 19.0 19
  124.09939 48.0 48
  124.11222 432.0 432
  124.19424 14.0 14
  125.0619 34.0 34
  125.11734 32.0 32
  126.0991 20.0 20
  126.10593 16.0 16
  126.13624 32.0 32
  127.04512 21.0 21
  127.0524 111.0 111
  128.04228 14.0 14
  128.06392 355.0 355
  128.09622 22.0 22
  128.10701 49.0 49
  129.07057 871.0 870
  129.0834 43.0 43
  129.1037 17.0 17
  130.03471 13.0 13
  130.06468 88.0 88
  130.07178 195.0 195
  130.12169 23.0 23
  130.41946 17.0 17
  130.83435 24.0 24
  131.04366 19.0 19
  131.05254 39.0 39
  131.0726 49.0 49
  131.08308 433.0 433
  131.08853 344.0 344
  131.12965 14.0 14
  132.08531 17.0 17
  132.0934 49.0 49
  132.68803 12.0 12
  133.06306 39.0 39
  133.07391 24.0 24
  133.09938 133.0 133
  133.1124 14.0 14
  133.20003 12.0 12
  133.53362 15.0 15
  134.10155 89.0 89
  134.11481 38.0 38
  135.07915 54.0 54
  135.10852 23.0 23
  135.13045 14.0 14
  136.08221 20.0 20
  136.10941 62.0 62
  137.0567 66.0 66
  137.06502 33.0 33
  137.09402 15.0 15
  137.10217 39.0 39
  138.12589 18.0 18
  139.07616 30.0 30
  140.10796 19.0 19
  140.86739 15.0 15
  141.06967 544.0 543
  141.11494 41.0 41
  141.82994 13.0 13
  142.07118 14.0 14
  142.07974 197.0 197
  142.11736 16.0 16
  142.12254 12.0 12
  142.59309 13.0 13
  143.06046 17.0 17
  143.0862 876.0 875
  144.09084 117.0 117
  144.09903 53.0 53
  145.06067 65.0 65
  145.09827 108.0 108
  145.10512 243.0 243
  146.07217 16.0 16
  146.09454 26.0 26
  147.08182 82.0 82
  147.11772 32.0 32
  148.07056 15.0 15
  148.10973 66.0 66
  148.12006 19.0 19
  148.16687 12.0 12
  149.06168 25.0 25
  149.06696 12.0 12
  149.11559 15.0 15
  150.06429 19.0 19
  151.10974 19.0 19
  152.06148 108.0 108
  152.10909 238.0 238
  152.14638 14.0 14
  153.05609 46.0 46
  153.06783 105.0 105
  153.07547 103.0 103
  153.10745 33.0 33
  154.06798 38.0 38
  154.08636 40.0 40
  154.12296 529.0 528
  155.06654 49.0 49
  155.08621 869.0 868
  155.13139 33.0 33
  155.67491 26.0 26
  156.0759 18.0 18
  156.08865 76.0 76
  156.09776 41.0 41
  156.12299 26.0 26
  156.14003 20.0 20
  156.60039 12.0 12
  157.06265 123.0 123
  157.10266 410.0 410
  158.05263 24.0 24
  158.07175 34.0 34
  158.08537 21.0 21
  158.09428 27.0 27
  158.10614 95.0 95
  158.25966 13.0 13
  159.07707 65.0 65
  159.08435 26.0 26
  159.12173 71.0 71
  159.36496 18.0 18
  160.08652 14.0 14
  160.11038 129.0 129
  161.09317 79.0 79
  161.12146 21.0 21
  162.12277 68.0 68
  162.13353 20.0 20
  162.3965 12.0 12
  163.0731 11.0 11
  163.08023 24.0 24
  163.11829 29.0 29
  163.13434 24.0 24
  164.10526 17.0 17
  164.34587 13.0 13
  165.05611 34.0 34
  165.07191 503.0 502
  165.09294 15.0 15
  165.11432 19.0 19
  166.07787 400.0 400
  166.39742 12.0 12
  167.06036 22.0 22
  167.07126 35.0 35
  167.08453 426.0 426
  167.09528 51.0 51
  167.12752 13.0 13
  168.08362 32.0 32
  168.09488 195.0 195
  168.11565 34.0 34
  168.94133 16.0 16
  169.06248 30.0 30
  169.0741 14.0 14
  169.08842 34.0 34
  169.10483 334.0 334
  169.4097 21.0 21
  170.06674 19.0 19
  170.07613 14.0 14
  170.11217 58.0 58
  170.47267 14.0 14
  171.07693 37.0 37
  171.08723 18.0 18
  171.10446 33.0 33
  171.11369 94.0 94
  171.12177 112.0 112
  171.75331 14.0 14
  172.05965 22.0 22
  172.1102 72.0 72
  172.11848 61.0 61
  173.05583 13.0 13
  173.09499 19.0 19
  173.11124 18.0 18
  173.13383 15.0 15
  174.08765 26.0 26
  174.10796 53.0 53
  174.12123 17.0 17
  174.13435 81.0 81
  174.77252 14.0 14
  175.13072 66.0 66
  176.14584 108.0 108
  177.15063 15.0 15
  177.92812 20.0 20
  177.99493 13.0 13
  178.07338 150.0 150
  178.08224 205.0 205
  178.1532 27.0 27
  179.05121 21.0 21
  179.08757 354.0 354
  179.10611 14.0 14
  180.02443 13.0 13
  180.07677 14.0 14
  180.09395 223.0 223
  180.13693 15.0 15
  181.061 16.0 16
  181.07484 17.0 17
  181.10063 587.0 586
  181.55005 14.0 14
  182.07292 16.0 16
  182.08842 49.0 49
  182.10681 128.0 128
  183.08109 56.0 56
  183.10168 36.0 36
  183.11069 146.0 146
  183.11829 340.0 340
  183.34567 21.0 21
  184.07948 51.0 51
  184.12036 51.0 51
  185.09036 51.0 51
  185.09979 81.0 81
  185.12607 17.0 17
  185.13666 63.0 63
  185.31978 13.0 13
  186.1068 26.0 26
  186.12503 31.0 31
  186.13823 42.0 42
  186.73535 14.0 14
  187.11661 41.0 41
  187.13484 68.0 68
  187.14645 36.0 36
  188.10873 44.0 44
  188.14236 59.0 59
  188.43463 19.0 19
  189.06538 20.0 20
  189.11375 17.0 17
  189.12849 20.0 20
  189.13721 16.0 16
  189.15314 95.0 95
  190.06822 16.0 16
  190.07982 80.0 80
  190.10608 21.0 21
  190.16225 48.0 48
  190.6595 18.0 18
  191.07368 28.0 28
  191.08618 90.0 90
  191.13361 19.0 19
  191.16473 19.0 19
  191.26494 24.0 24
  192.08672 94.0 94
  192.09488 131.0 131
  192.13831 34.0 34
  193.07246 18.0 18
  193.09572 133.0 133
  193.10464 272.0 272
  193.74306 16.0 16
  194.08498 12.0 12
  194.1013 13.0 13
  194.11063 54.0 54
  194.55357 13.0 13
  195.08104 19.0 19
  195.1002 11.0 11
  195.11784 350.0 350
  196.08636 56.0 56
  196.12318 128.0 128
  197.0752 12.0 12
  197.08714 74.0 74
  197.09804 81.0 81
  197.10684 31.0 31
  197.12195 30.0 30
  197.1331 153.0 153
  198.13776 14.0 14
  198.14461 18.0 18
  198.68713 16.0 16
  199.10558 15.0 15
  199.1165 41.0 41
  199.15022 18.0 18
  200.10291 30.0 30
  200.14667 29.0 29
  201.08665 18.0 18
  201.12596 34.0 34
  201.13602 27.0 27
  201.16374 12.0 12
  202.07518 67.0 67
  202.08586 81.0 81
  202.12334 16.0 16
  202.14778 21.0 21
  203.06645 16.0 16
  203.08205 80.0 80
  203.09671 29.0 29
  203.1073 21.0 21
  203.1158 18.0 18
  203.1649 16.0 16
  203.856 14.0 14
  204.07979 14.0 14
  204.09048 14.0 14
  204.10014 21.0 21
  205.08658 46.0 46
  205.10034 182.0 182
  205.14474 26.0 26
  205.17047 24.0 24
  206.03314 24.0 24
  206.10034 60.0 60
  206.11293 98.0 98
  206.15147 34.0 34
  206.16037 16.0 16
  206.35129 20.0 20
  207.08687 17.0 17
  207.10756 61.0 61
  207.11946 138.0 138
  207.142 28.0 28
  208.0822 28.0 28
  208.09239 53.0 53
  208.11893 59.0 59
  208.1315 49.0 49
  209.08516 14.0 14
  209.09613 45.0 45
  209.11029 26.0 26
  209.12766 78.0 78
  209.13799 51.0 51
  209.51222 13.0 13
  210.09149 28.0 28
  210.10204 19.0 19
  210.1295 24.0 24
  210.14041 27.0 27
  210.15321 17.0 17
  211.07535 30.0 30
  211.09952 26.0 26
  211.11235 123.0 123
  211.14314 70.0 70
  211.15329 19.0 19
  211.56273 19.0 19
  212.11325 46.0 46
  212.12431 41.0 41
  212.14082 20.0 20
  213.12177 13.0 13
  214.12021 30.0 30
  214.14238 38.0 38
  214.1595 27.0 27
  214.17545 17.0 17
  215.14333 39.0 39
  215.17017 45.0 45
  216.09258 47.0 47
  216.1459 33.0 33
  216.16759 13.0 13
  216.17712 31.0 31
  217.09712 205.0 205
  217.13152 27.0 27
  218.1066 124.0 124
  218.12514 28.0 28
  219.06975 21.0 21
  219.09267 24.0 24
  219.1209 115.0 115
  219.15601 36.0 36
  220.09143 14.0 14
  220.11911 82.0 82
  220.12846 65.0 65
  220.13983 30.0 30
  220.17314 45.0 45
  221.09889 47.0 47
  221.13528 127.0 127
  222.13821 70.0 70
  222.1918 18.0 18
  223.11272 17.0 17
  223.13097 12.0 12
  223.14095 27.0 27
  223.16005 26.0 26
  224.14452 93.0 93
  224.15897 17.0 17
  225.13086 37.0 37
  225.16495 14.0 14
  225.20514 15.0 15
  226.1243 18.0 18
  226.13246 39.0 39
  226.1523 86.0 86
  227.10939 24.0 24
  227.14693 16.0 16
  228.13918 36.0 36
  228.93498 24.0 24
  229.10028 66.0 66
  229.13469 34.0 34
  229.1657 31.0 31
  230.10475 20.0 20
  230.12381 51.0 51
  230.19774 14.0 14
  231.0619 12.0 12
  231.11166 18.0 18
  231.12183 24.0 24
  231.14001 18.0 18
  232.13072 36.0 36
  232.15443 16.0 16
  233.09738 19.0 19
  233.10544 14.0 14
  233.13428 27.0 27
  234.12727 13.0 13
  234.95042 12.0 12
  235.1149 46.0 46
  235.15144 31.0 31
  236.12744 13.0 13
  236.13701 18.0 18
  236.15294 26.0 26
  237.14642 23.0 23
  237.15691 33.0 33
  238.11803 14.0 14
  238.1521 13.0 13
  238.17023 36.0 36
  239.12119 36.0 36
  239.13976 15.0 15
  239.1487 22.0 22
  240.17767 18.0 18
  241.18208 25.0 25
  242.14584 13.0 13
  242.15471 17.0 17
  242.16437 27.0 27
  243.11781 20.0 20
  243.12883 63.0 63
  243.15385 16.0 16
  244.15706 16.0 16
  245.07524 19.0 19
  245.11722 31.0 31
  246.15443 14.0 14
  246.56631 13.0 13
  247.08597 21.0 21
  247.12666 21.0 21
  247.14087 46.0 46
  249.26959 16.0 16
  250.15874 34.0 34
  251.15691 38.0 38
  252.1653 17.0 17
  253.12761 16.0 16
  253.14928 21.0 21
  253.1604 58.0 58
  253.19798 17.0 17
  254.12685 19.0 19
  254.17886 14.0 14
  254.18765 21.0 21
  254.19858 12.0 12
  255.14316 15.0 15
  255.18486 24.0 24
  256.14346 12.0 12
  256.17563 35.0 35
  257.15503 88.0 88
  258.16495 20.0 20
  258.3949 27.0 27
  259.13556 19.0 19
  259.1781 18.0 18
  259.1962 18.0 18
  259.2048 12.0 12
  261.15546 40.0 40
  262.86121 15.0 15
  263.16306 19.0 19
  264.14963 14.0 14
  264.17673 12.0 12
  265.15591 31.0 31
  266.82059 25.0 25
  267.15823 30.0 30
  267.20511 15.0 15
  268.13406 24.0 24
  268.14468 22.0 22
  268.17242 12.0 12
  269.13113 26.0 26
  270.19028 49.0 49
  271.18777 13.0 13
  272.2074 21.0 21
  273.16486 14.0 14
  274.17715 25.0 25
  274.20023 22.0 22
  275.16321 13.0 13
  275.259 14.0 14
  279.17462 15.0 15
  280.15948 40.0 40
  280.18637 21.0 21
  280.21643 13.0 13
  282.16507 18.0 18
  282.47586 21.0 21
  283.17868 13.0 13
  284.2002 14.0 14
  285.18933 22.0 22
  285.20596 14.0 14
  286.21286 17.0 17
  286.56525 16.0 16
  288.17783 13.0 13
  288.21078 16.0 16
  289.19055 12.0 12
  290.13013 26.0 26
  294.18796 19.0 19
  295.009 15.0 15
  296.1666 22.0 22
  297.18921 46.0 46
  298.17792 12.0 12
  299.17886 15.0 15
  299.43701 15.0 15
  301.2001 16.0 16
  302.19315 17.0 17
  302.21268 41.0 41
  308.2084 28.0 28
  312.15222 26.0 26
  312.20132 73.0 73
  313.19446 13.0 13
  313.20667 27.0 27
  315.21918 14.0 14
  316.17914 14.0 14
  317.18146 22.0 22
  318.21082 18.0 18
  322.22592 16.0 16
  324.19473 20.0 20
  326.17545 14.0 14
  326.21222 68.0 68
  326.22534 53.0 53
  327.20834 44.0 44
  328.19482 32.0 32
  329.20605 24.0 24
  329.8392 24.0 24
  330.17749 24.0 24
  330.20618 155.0 155
  330.26459 34.0 34
  330.49863 24.0 24
  331.20615 12.0 12
  331.24277 34.0 34
  332.21747 18.0 18
  332.25327 19.0 19
  334.23706 17.0 17
  335.18127 15.0 15
  339.07346 13.0 13
  340.20297 13.0 13
  340.22321 34.0 34
  340.2468 49.0 49
  341.2182 20.0 20
  341.24792 21.0 21
  344.22461 119.0 119
  344.25366 41.0 41
  344.27512 14.0 14
  345.21744 21.0 21
  345.22903 17.0 17
  356.21576 13.0 13
  358.17709 29.0 29
  358.23413 180.0 180
  358.24661 78.0 78
  359.23865 68.0 68
  362.25485 22.0 22
  363.21796 14.0 14
  363.2334 36.0 36
  364.38858 12.0 12
  364.73792 29.0 29
  372.24658 31.0 31
  372.26559 68.0 68
  372.4715 14.0 14
  374.31635 14.0 14
  374.83371 20.0 20
  375.36691 13.0 13
  389.61017 12.0 12
  390.24335 97.0 97
  390.26608 320.0 320
  390.27753 134.0 134
  391.25677 56.0 56
  393.21942 17.0 17
  408.26236 77.0 77
//
