ACCESSION: MSBNK-RIKEN-PR303365
RECORD_TITLE: NP-000002(10); LC-ESI-QTOF; MS2
DATE: 2019.03.28
AUTHORS: Tetsuya Mori, Center for Sustainable Resource Science, RIKEN
LICENSE: CC BY-NC-SA
PUBLICATION: Tsugawa H., Nakabayashi R., Mori T., Yamada Y., Takahashi M., Rai A., Sugiyama R., Yamamoto H., Nakaya T., Yamazaki M., Kooke R., Bac-Molenaar JA., Oztolan-Erol N., Keurentjes JJB., Arita M., Saito K. (2019) "A cheminformatics approach to characterize metabolomes in stable-isotope-labeled organisms" Nature Methods 16(4):295-298. [doi:10.1038/s41592-019-0358-2]
COMMENT: registered in RIKEN PlaSMA
CH$NAME: NP-000002(10)
CH$COMPOUND_CLASS: Flavonoid 8-C-glycosides
CH$FORMULA: C27H30O15
CH$EXACT_MASS: 594.522
CH$SMILES: OCC1OC(C(O)C(O)C1O)C1=C(O)C(C2OC(CO)C(O)C(O)C2O)=C2OC(=CC(=O)C2=C1O)C1=CC=C(O)C=C1
CH$IUPAC: InChI=1S/C27H30O15/c28-6-12-17(32)21(36)23(38)26(41-12)15-19(34)14-10(31)5-11(8-1-3-9(30)4-2-8)40-25(14)16(20(15)35)27-24(39)22(37)18(33)13(7-29)42-27/h1-5,12-13,17-18,21-24,26-30,32-39H,6-7H2
CH$LINK: INCHIKEY FIAAVMJLAGNUKW-UHFFFAOYSA-N
AC$INSTRUMENT: LC, Waters Acquity UPLC System; MS, Waters Xevo G2 Q-Tof
AC$INSTRUMENT_TYPE: LC-ESI-QTOF
AC$MASS_SPECTROMETRY: MS_TYPE MS2
AC$MASS_SPECTROMETRY: ION_MODE POSITIVE
AC$MASS_SPECTROMETRY: COLLISION_ENERGY 6V
AC$MASS_SPECTROMETRY: DESOLVATION_GAS_FLOW 800/h
AC$MASS_SPECTROMETRY: DESOLVATION_TEMPERATURE 450 C
AC$MASS_SPECTROMETRY: IONIZATION ESI
AC$CHROMATOGRAPHY: CAPILLARY_VOLTAGE +3.00 kV
AC$CHROMATOGRAPHY: COLUMN_NAME Acquity bridged ethyl hybrid C18 (1.7 um, 2.1 mm * 100 mm, Waters)
AC$CHROMATOGRAPHY: COLUMN_TEMPERATURE 40 C
AC$CHROMATOGRAPHY: FLOW_GRADIENT A/B = (99.5%/0.5% at 0 min, 99.5%/0.5% at 0.1 min, 20%/80% at 10 min, 0.5%/99.5% at 10.1 min, 0.5%/99.5% at 12.0 min, 99.5%/0.5% at 12.1 min, 99.5%/0.5% at 15.0 min)
AC$CHROMATOGRAPHY: FLOW_RATE 0.3 ml/min at 0 min, 0.3 ml/min at 10 min, 0.4 ml/min at 10.1 min, 0.4 ml/min at 14.4 min, 0.3 ml/min at 14.5 min
AC$CHROMATOGRAPHY: RETENTION_TIME 3.302967
AC$CHROMATOGRAPHY: SOLVENT A water including 0.1% formic acid
AC$CHROMATOGRAPHY: SOLVENT B acetonitrile including 0.1% formic acid
MS$FOCUSED_ION: PRECURSOR_TYPE [M+H]+
MS$FOCUSED_ION: PRECURSOR_M/Z 595.1657467
PK$SPLASH: splash10-002b-0016890000-9809f2c19828048d0af2
PK$NUM_PEAK: 218
PK$PEAK: m/z int. rel.int.
  121.02304 11.0 11
  148.34816 9.0 9
  191.0383 7.0 7
  229.81615 10.0 10
  239.02983 10.0 10
  243.06508 9.0 9
  281.08426 6.0 6
  289.05292 6.0 6
  292.06552 8.0 8
  294.0527 17.0 17
  295.01715 7.0 7
  295.05777 104.0 104
  295.0679 65.0 65
  296.05859 7.0 7
  306.09933 10.0 10
  307.04581 9.0 9
  307.06329 45.0 45
  308.04803 7.0 7
  308.06406 8.0 8
  309.06445 10.0 10
  309.0813 12.0 12
  309.66821 7.0 7
  310.03802 14.0 14
  311.06287 7.0 7
  321.06271 7.0 7
  322.07391 18.0 18
  322.09152 6.0 6
  323.0607 8.0 8
  325.06671 162.0 162
  325.08609 25.0 25
  326.08325 50.0 50
  327.07544 7.0 7
  327.08435 22.0 22
  329.07629 10.0 10
  333.06357 8.0 8
  336.05228 12.0 12
  336.10052 14.0 14
  337.05133 40.0 40
  337.07513 40.0 40
  337.28516 7.0 7
  337.38879 8.0 8
  338.061 11.0 11
  338.08786 37.0 37
  347.08084 8.0 8
  349.07037 132.0 132
  349.08923 11.0 11
  350.0636 11.0 11
  350.08771 6.0 6
  351.07861 52.0 52
  351.10437 24.0 24
  355.04785 8.0 8
  355.07867 30.0 30
  357.0766 10.0 10
  360.2348 9.0 9
  361.05032 14.0 14
  362.07257 10.0 10
  363.07388 8.0 8
  363.0929 9.0 9
  365.10446 42.0 42
  366.09784 6.0 6
  366.12543 18.0 18
  367.08545 7.0 7
  372.80371 6.0 6
  373.06415 13.0 13
  375.08832 30.0 30
  376.10175 8.0 8
  377.09726 7.0 7
  378.0455 10.0 10
  378.07425 9.0 9
  378.41425 7.0 7
  378.8371 7.0 7
  379.04428 9.0 9
  379.08057 209.0 209
  380.08218 17.0 17
  380.09607 19.0 19
  381.20657 6.0 6
  381.51233 7.0 7
  385.06897 17.0 17
  386.07117 6.0 6
  390.95242 10.0 10
  391.07858 85.0 85
  392.08072 10.0 10
  392.09207 12.0 12
  392.10492 11.0 11
  394.50668 10.0 10
  399.07095 10.0 10
  401.09927 14.0 14
  402.0755 14.0 14
  403.05637 12.0 12
  403.07831 19.0 19
  403.08884 43.0 43
  403.13898 6.0 6
  404.08139 24.0 24
  404.10114 10.0 10
  405.03711 11.0 11
  405.09146 9.0 9
  406.07166 8.0 8
  409.01157 10.0 10
  409.08838 120.0 120
  409.11026 13.0 13
  410.08301 13.0 13
  410.1044 61.0 61
  410.12448 13.0 13
  410.73935 12.0 12
  413.05319 11.0 11
  415.08591 10.0 10
  416.06964 14.0 14
  416.08896 7.0 7
  417.07443 7.0 7
  417.095 6.0 6
  419.06985 8.0 8
  420.10736 10.0 10
  421.03217 6.0 6
  421.05817 16.0 16
  421.08856 30.0 30
  421.10712 25.0 25
  422.08286 22.0 22
  422.11215 7.0 7
  423.08948 8.0 8
  423.10715 8.0 8
  427.03174 8.0 8
  427.06683 10.0 10
  427.08771 71.0 71
  427.11346 71.0 71
  428.08051 21.0 21
  428.10687 24.0 24
  430.10828 16.0 16
  431.103 11.0 11
  433.02182 8.0 8
  433.09198 8.0 8
  433.10947 8.0 8
  436.49051 7.0 7
  439.10416 120.0 120
  440.10376 22.0 22
  445.08737 11.0 11
  445.10403 46.0 46
  445.1362 6.0 6
  446.09106 7.0 7
  446.1232 10.0 10
  449.11929 8.0 8
  450.14084 8.0 8
  457.05701 10.0 10
  457.10818 226.0 226
  457.12759 103.0 103
  457.14838 15.0 15
  458.1041 37.0 37
  458.12366 50.0 50
  459.07437 9.0 9
  459.09793 7.0 7
  459.12863 19.0 19
  460.1286 8.0 8
  460.18906 6.0 6
  463.091 13.0 13
  463.1077 16.0 16
  469.07077 19.0 19
  469.09106 21.0 21
  471.88239 6.0 6
  475.08826 9.0 9
  475.12231 54.0 54
  475.14334 21.0 21
  475.17758 8.0 8
  476.13141 14.0 14
  477.13037 26.0 26
  481.11536 89.0 89
  481.13641 18.0 18
  482.1232 23.0 23
  482.13495 9.0 9
  483.10507 12.0 12
  488.01663 10.0 10
  488.12399 14.0 14
  493.11819 7.0 7
  495.10931 9.0 9
  499.11539 65.0 65
  499.13858 8.0 8
  500.05399 7.0 7
  500.13489 17.0 17
  501.1405 10.0 10
  505.12051 26.0 26
  506.12747 6.0 6
  511.1279 93.0 93
  512.1286 12.0 12
  512.9281 7.0 7
  513.10663 7.0 7
  513.12964 25.0 25
  523.11353 43.0 43
  524.11945 9.0 9
  525.14526 12.0 12
  526.13409 6.0 6
  529.11548 14.0 14
  529.13239 43.0 43
  529.16772 6.0 6
  530.13745 16.0 16
  530.16748 6.0 6
  531.13989 6.0 6
  532.14935 12.0 12
  541.10199 7.0 7
  541.13776 45.0 45
  541.1629 34.0 34
  542.13531 11.0 11
  543.1366 7.0 7
  543.16663 6.0 6
  559.10504 14.0 14
  559.1452 101.0 101
  560.14618 35.0 35
  561.13647 6.0 6
  561.15668 7.0 7
  573.82666 8.0 8
  574.58063 14.0 14
  577.0993 18.0 18
  577.12122 28.0 28
  577.1626 239.0 239
  578.12988 11.0 11
  578.16522 127.0 127
  579.08453 9.0 9
  579.17004 11.0 11
  595.10291 25.0 25
  595.16498 1000.0 999
  595.23566 30.0 30
//
