ACCESSION: MSBNK-RIKEN-PR310707
RECORD_TITLE: Solanidine base -2H + 1O, O-Hex-dHex-dHex; LC-ESI-QTOF; MS2
DATE: 2019.03.28
AUTHORS: Tetsuya Mori, Center for Sustainable Resource Science, RIKEN
LICENSE: CC BY-NC-SA
PUBLICATION: Tsugawa H., Nakabayashi R., Mori T., Yamada Y., Takahashi M., Rai A., Sugiyama R., Yamamoto H., Nakaya T., Yamazaki M., Kooke R., Bac-Molenaar JA., Oztolan-Erol N., Keurentjes JJB., Arita M., Saito K. (2019) "A cheminformatics approach to characterize metabolomes in stable-isotope-labeled organisms" Nature Methods 16(4):295-298. [doi:10.1038/s41592-019-0358-2]
COMMENT: Annotation level-3
CH$NAME: Solanidine base -2H + 1O, O-Hex-dHex-dHex
CH$COMPOUND_CLASS: Steroidal saponins
CH$FORMULA: C45H71NO15
CH$EXACT_MASS: 866.055
CH$SMILES: O=C8C=C4CC(OC3OC(CO)C(OC1OC(C)C(O)C(O)C1(O))C(O)C3(OC2OC(C)C(O)C(O)C2(O)))CCC4(C)C9CCC7(C)(C(CC6N5CC(C)CCC5C(C)C67)C89)
CH$IUPAC: InChI=1S/C45H71NO15/c1-18-7-8-26-19(2)31-27(46(26)16-18)15-25-30-24(10-12-45(25,31)6)44(5)11-9-23(13-22(44)14-28(30)48)58-43-40(61-42-37(54)35(52)33(50)21(4)57-42)38(55)39(29(17-47)59-43)60-41-36(53)34(51)32(49)20(3)56-41/h14,18-21,23-27,29-43,47,49-55H,7-13,15-17H2,1-6H3
CH$LINK: INCHIKEY WEVOWEDEHQFZEV-UHFFFAOYSA-N
AC$INSTRUMENT: LC, Waters Acquity UPLC System; MS, Waters Xevo G2 Q-Tof
AC$INSTRUMENT_TYPE: LC-ESI-QTOF
AC$MASS_SPECTROMETRY: MS_TYPE MS2
AC$MASS_SPECTROMETRY: ION_MODE POSITIVE
AC$MASS_SPECTROMETRY: COLLISION_ENERGY 6V
AC$MASS_SPECTROMETRY: DESOLVATION_GAS_FLOW 800/h
AC$MASS_SPECTROMETRY: DESOLVATION_TEMPERATURE 450 C
AC$MASS_SPECTROMETRY: IONIZATION ESI
AC$CHROMATOGRAPHY: CAPILLARY_VOLTAGE +3.00 kV
AC$CHROMATOGRAPHY: COLUMN_NAME Acquity bridged ethyl hybrid C18 (1.7 um, 2.1 mm * 100 mm, Waters)
AC$CHROMATOGRAPHY: COLUMN_TEMPERATURE 40 C
AC$CHROMATOGRAPHY: FLOW_GRADIENT A/B = (99.5%/0.5% at 0 min, 99.5%/0.5% at 0.1 min, 20%/80% at 10 min, 0.5%/99.5% at 10.1 min, 0.5%/99.5% at 12.0 min, 99.5%/0.5% at 12.1 min, 99.5%/0.5% at 15.0 min)
AC$CHROMATOGRAPHY: FLOW_RATE 0.3 ml/min at 0 min, 0.3 ml/min at 10 min, 0.4 ml/min at 10.1 min, 0.4 ml/min at 14.4 min, 0.3 ml/min at 14.5 min
AC$CHROMATOGRAPHY: RETENTION_TIME 4.52
AC$CHROMATOGRAPHY: SOLVENT A water including 0.1% formic acid
AC$CHROMATOGRAPHY: SOLVENT B acetonitrile including 0.1% formic acid
MS$FOCUSED_ION: PRECURSOR_TYPE [M+H]+
MS$FOCUSED_ION: PRECURSOR_M/Z 866.4919
PK$SPLASH: splash10-014i-0000000090-c3f0188c62595fe9eeb1
PK$NUM_PEAK: 14
PK$PEAK: m/z int. rel.int.
  265.05759 30.0 15
  352.17654 25.0 13
  400.95779 30.0 15
  430.81595 18.0 9
  431.19504 24.0 12
  487.08691 17.0 9
  552.58063 25.0 13
  593.22162 19.0 10
  716.31647 18.0 9
  856.12744 21.0 11
  864.50488 22.0 11
  866.34692 17.0 9
  866.43793 74.0 38
  866.4906 1970.0 999
//
