ACCESSION: MSBNK-RIKEN-PR308910
RECORD_TITLE: Oleanane -2H, +1O, 1COOH, O-HexA-HexA; LC-ESI-QTOF; MS2
DATE: 2019.03.28
AUTHORS: Tetsuya Mori, Center for Sustainable Resource Science, RIKEN
LICENSE: CC BY-NC-SA
PUBLICATION: Tsugawa H., Nakabayashi R., Mori T., Yamada Y., Takahashi M., Rai A., Sugiyama R., Yamamoto H., Nakaya T., Yamazaki M., Kooke R., Bac-Molenaar JA., Oztolan-Erol N., Keurentjes JJB., Arita M., Saito K. (2019) "A cheminformatics approach to characterize metabolomes in stable-isotope-labeled organisms" Nature Methods 16(4):295-298. [doi:10.1038/s41592-019-0358-2]
COMMENT: Annotation level-3
CH$NAME: Oleanane -2H, +1O, 1COOH, O-HexA-HexA
CH$COMPOUND_CLASS: Triterpene saponins
CH$FORMULA: C42H64O15
CH$EXACT_MASS: 808.959
CH$SMILES: O=C(O)C7OC(OC1C(OC(C(=O)O)C(O)C1(O))OC6CCC5(C)(C(CCC3(C)(C5(CC=C2C4CC(C(=O)O)(C)CCC4(C)(CCC23(C)))))C6(C)(C)))C(O)C(O)C7(O)
CH$IUPAC: InChI=1S/C42H64O15/c1-37(2)21-10-13-42(7)22(9-8-19-20-18-39(4,36(52)53)15-14-38(20,3)16-17-41(19,42)6)40(21,5)12-11-23(37)54-35-31(27(46)26(45)30(56-35)33(50)51)57-34-28(47)24(43)25(44)29(55-34)32(48)49/h8,20-31,34-35,43-47H,9-18H2,1-7H3,(H,48,49)(H,50,51)(H,52,53)
CH$LINK: INCHIKEY BCNKILSUUHWRTG-UHFFFAOYSA-N
AC$INSTRUMENT: LC, Waters Acquity UPLC System; MS, Waters Xevo G2 Q-Tof
AC$INSTRUMENT_TYPE: LC-ESI-QTOF
AC$MASS_SPECTROMETRY: MS_TYPE MS2
AC$MASS_SPECTROMETRY: ION_MODE NEGATIVE
AC$MASS_SPECTROMETRY: COLLISION_ENERGY 6V
AC$MASS_SPECTROMETRY: DESOLVATION_GAS_FLOW 800/h
AC$MASS_SPECTROMETRY: DESOLVATION_TEMPERATURE 450 C
AC$MASS_SPECTROMETRY: IONIZATION ESI
AC$CHROMATOGRAPHY: CAPILLARY_VOLTAGE +3.00 kV
AC$CHROMATOGRAPHY: COLUMN_NAME Acquity bridged ethyl hybrid C18 (1.7 um, 2.1 mm * 100 mm, Waters)
AC$CHROMATOGRAPHY: COLUMN_TEMPERATURE 40 C
AC$CHROMATOGRAPHY: FLOW_GRADIENT A/B = (99.5%/0.5% at 0 min, 99.5%/0.5% at 0.1 min, 20%/80% at 10 min, 0.5%/99.5% at 10.1 min, 0.5%/99.5% at 12.0 min, 99.5%/0.5% at 12.1 min, 99.5%/0.5% at 15.0 min)
AC$CHROMATOGRAPHY: FLOW_RATE 0.3 ml/min at 0 min, 0.3 ml/min at 10 min, 0.4 ml/min at 10.1 min, 0.4 ml/min at 14.4 min, 0.3 ml/min at 14.5 min
AC$CHROMATOGRAPHY: RETENTION_TIME 6.45
AC$CHROMATOGRAPHY: SOLVENT A water including 0.1% formic acid
AC$CHROMATOGRAPHY: SOLVENT B acetonitrile including 0.1% formic acid
MS$FOCUSED_ION: PRECURSOR_TYPE [M-H]-
MS$FOCUSED_ION: PRECURSOR_M/Z 807.4175
PK$SPLASH: splash10-0a4i-0100000090-5ef392809d60fcff9017
PK$NUM_PEAK: 8
PK$PEAK: m/z int. rel.int.
  175.02173 24.0 52
  193.0341 38.0 83
  351.05457 18.0 39
  420.48798 20.0 44
  603.74335 18.0 39
  753.71698 27.0 59
  807.41962 458.0 999
  807.45734 47.0 103
//
