ACCESSION: MSBNK-RIKEN-PR301860
RECORD_TITLE: Chrysanthellin B; LC-ESI-QTOF; MS2
DATE: 2019.03.28
AUTHORS: Tetsuya Mori, Center for Sustainable Resource Science, RIKEN
LICENSE: CC BY-NC-SA
PUBLICATION: Tsugawa H., Nakabayashi R., Mori T., Yamada Y., Takahashi M., Rai A., Sugiyama R., Yamamoto H., Nakaya T., Yamazaki M., Kooke R., Bac-Molenaar JA., Oztolan-Erol N., Keurentjes JJB., Arita M., Saito K. (2019) "A cheminformatics approach to characterize metabolomes in stable-isotope-labeled organisms" Nature Methods 16(4):295-298. [doi:10.1038/s41592-019-0358-2]
COMMENT: registered in RIKEN PlaSMA
CH$NAME: Chrysanthellin B
CH$COMPOUND_CLASS: Triterpene saponins
CH$FORMULA: C58H94O26
CH$EXACT_MASS: 1207.364
CH$SMILES: CC1OC(OC2C(O)COC(OC3C(C)OC(OC4C(O)C(O)COC4OC(=O)C45CCC(C)(C)CC4C4=CCC6C7(C)CCC(OC8OC(CO)C(O)C(O)C8O)C(C)(CO)C7CCC6(C)C4(C)CC5O)C(O)C3O)C2O)C(O)C(O)C1O
CH$IUPAC: InChI=1S/C58H94O26/c1-23-34(64)37(67)40(70)48(77-23)82-45-28(62)21-75-47(43(45)73)81-44-24(2)78-49(42(72)39(44)69)83-46-35(65)27(61)20-76-51(46)84-52(74)58-16-15-53(3,4)17-26(58)25-9-10-31-54(5)13-12-33(80-50-41(71)38(68)36(66)29(19-59)79-50)55(6,22-60)30(54)11-14-56(31,7)57(25,8)18-32(58)63/h9,23-24,26-51,59-73H,10-22H2,1-8H3
CH$LINK: INCHIKEY WNGIVKPPGCCJNP-UHFFFAOYSA-N
AC$INSTRUMENT: LC, Waters Acquity UPLC System; MS, Waters Xevo G2 Q-Tof
AC$INSTRUMENT_TYPE: LC-ESI-QTOF
AC$MASS_SPECTROMETRY: MS_TYPE MS2
AC$MASS_SPECTROMETRY: ION_MODE POSITIVE
AC$MASS_SPECTROMETRY: COLLISION_ENERGY 6V
AC$MASS_SPECTROMETRY: DESOLVATION_GAS_FLOW 800/h
AC$MASS_SPECTROMETRY: DESOLVATION_TEMPERATURE 450 C
AC$MASS_SPECTROMETRY: IONIZATION ESI
AC$CHROMATOGRAPHY: CAPILLARY_VOLTAGE +3.00 kV
AC$CHROMATOGRAPHY: COLUMN_NAME Acquity bridged ethyl hybrid C18 (1.7 um, 2.1 mm * 100 mm, Waters)
AC$CHROMATOGRAPHY: COLUMN_TEMPERATURE 40 C
AC$CHROMATOGRAPHY: FLOW_GRADIENT A/B = (99.5%/0.5% at 0 min, 99.5%/0.5% at 0.1 min, 20%/80% at 10 min, 0.5%/99.5% at 10.1 min, 0.5%/99.5% at 12.0 min, 99.5%/0.5% at 12.1 min, 99.5%/0.5% at 15.0 min)
AC$CHROMATOGRAPHY: FLOW_RATE 0.3 ml/min at 0 min, 0.3 ml/min at 10 min, 0.4 ml/min at 10.1 min, 0.4 ml/min at 14.4 min, 0.3 ml/min at 14.5 min
AC$CHROMATOGRAPHY: RETENTION_TIME 5.791234
AC$CHROMATOGRAPHY: SOLVENT A water including 0.1% formic acid
AC$CHROMATOGRAPHY: SOLVENT B acetonitrile including 0.1% formic acid
MS$FOCUSED_ION: PRECURSOR_TYPE [M+H]+
MS$FOCUSED_ION: PRECURSOR_M/Z 1207.61061
PK$SPLASH: splash10-0ufr-0592800000-bb2c01a5f3a3c314522f
PK$NUM_PEAK: 376
PK$PEAK: m/z int. rel.int.
  49.86638 13.0 13
  69.03488 16.0 16
  71.04741 52.0 52
  85.02209 40.0 40
  85.02909 86.0 86
  86.03032 13.0 13
  87.04731 15.0 15
  91.03645 14.0 14
  95.02953 19.0 19
  95.08261 14.0 14
  95.09019 13.0 13
  97.02489 69.0 69
  97.03299 26.0 26
  97.0621 18.0 18
  105.07412 15.0 15
  107.08414 14.0 14
  109.09972 21.0 21
  109.10764 16.0 16
  110.10789 12.0 12
  111.03619 24.0 24
  111.04359 133.0 133
  112.05106 14.0 14
  115.03868 62.0 62
  119.09166 14.0 14
  123.29517 14.0 14
  125.0237 16.0 16
  127.03661 13.0 13
  127.07285 20.0 20
  129.03873 12.0 12
  129.05299 231.0 231
  130.0558 37.0 37
  131.0573 19.0 19
  132.62941 18.0 18
  133.04816 27.0 27
  133.104 13.0 13
  134.41917 12.0 12
  135.11775 12.0 12
  141.05257 19.0 19
  144.03745 14.0 14
  145.05009 41.0 41
  145.10513 18.0 18
  147.06511 320.0 320
  147.7005 13.0 13
  148.0654 43.0 43
  149.07031 13.0 13
  149.08464 14.0 14
  149.12064 14.0 14
  149.13281 88.0 88
  150.12959 12.0 12
  150.13716 27.0 27
  151.07393 32.0 32
  153.05208 32.0 32
  153.05884 21.0 21
  157.05119 14.0 14
  158.6534 13.0 13
  159.10837 14.0 14
  159.12486 14.0 14
  161.12796 16.0 16
  163.06256 44.0 44
  163.14439 46.0 46
  164.05554 15.0 15
  164.08083 13.0 13
  165.08054 17.0 17
  165.1608 12.0 12
  168.06741 17.0 17
  169.05461 12.0 12
  173.12891 52.0 52
  174.55548 17.0 17
  175.07782 31.0 31
  175.1479 13.0 13
  177.16443 115.0 115
  178.11781 14.0 14
  178.16682 12.0 12
  179.06885 44.0 44
  179.14874 14.0 14
  180.13107 24.0 24
  183.05997 13.0 13
  183.08696 17.0 17
  183.11761 12.0 12
  185.11896 16.0 16
  186.12141 18.0 18
  187.14133 30.0 30
  187.15248 196.0 196
  189.08012 12.0 12
  189.12117 20.0 20
  189.13049 12.0 12
  189.16182 128.0 128
  189.17294 16.0 16
  190.16226 39.0 39
  190.17058 32.0 32
  191.06758 19.0 19
  191.14256 18.0 18
  191.17879 27.0 27
  193.07399 20.0 20
  195.0666 16.0 16
  199.78133 16.0 16
  201.07573 62.0 62
  201.08421 14.0 14
  201.14066 12.0 12
  201.16649 158.0 158
  202.17209 14.0 14
  203.13304 27.0 27
  203.14018 70.0 70
  203.14954 45.0 45
  203.17284 22.0 22
  203.18388 62.0 62
  205.12834 32.0 32
  205.15588 90.0 90
  205.16441 35.0 35
  205.19241 11.0 11
  205.2007 16.0 16
  206.16345 25.0 25
  207.17172 43.0 43
  207.17975 124.0 124
  207.23639 13.0 13
  208.06859 14.0 14
  208.14301 16.0 16
  208.17509 27.0 27
  208.19258 22.0 22
  211.05148 18.0 18
  211.06487 46.0 46
  211.14967 14.0 14
  213.06316 14.0 14
  213.075 16.0 16
  213.16545 13.0 13
  214.16946 19.0 19
  215.15085 15.0 15
  215.17616 57.0 57
  216.18993 12.0 12
  217.19339 28.0 28
  218.19547 17.0 17
  218.20407 19.0 19
  219.13132 35.0 35
  219.1783 47.0 47
  221.08247 24.0 24
  221.15517 21.0 21
  221.17972 14.0 14
  221.19273 13.0 13
  222.16066 14.0 14
  225.05885 18.0 18
  225.07585 214.0 214
  226.06352 19.0 19
  227.17487 26.0 26
  229.07021 16.0 16
  229.08553 12.0 12
  229.11981 16.0 16
  229.15703 12.0 12
  229.16925 15.0 15
  229.19878 14.0 14
  230.15842 14.0 14
  231.07584 21.0 21
  231.08942 17.0 17
  231.16829 39.0 39
  231.18013 13.0 13
  231.20271 12.0 12
  231.21129 13.0 13
  231.22502 16.0 16
  233.17508 14.0 14
  235.15544 12.0 12
  235.17531 32.0 32
  235.20392 27.0 27
  237.07376 16.0 16
  237.16824 14.0 14
  238.68976 14.0 14
  239.08862 257.0 257
  239.10692 49.0 49
  240.10175 12.0 12
  240.18494 13.0 13
  241.06667 14.0 14
  241.19276 13.0 13
  242.04593 14.0 14
  243.0659 16.0 16
  243.09015 115.0 115
  243.21751 14.0 14
  244.0849 36.0 36
  244.10034 14.0 14
  244.69588 15.0 15
  245.15709 14.0 14
  247.15868 25.0 25
  247.16994 122.0 122
  248.17958 32.0 32
  249.15793 13.0 13
  249.19443 12.0 12
  251.19781 12.0 12
  255.09361 31.0 31
  255.20276 12.0 12
  257.10663 75.0 75
  258.1055 29.0 29
  259.07187 30.0 30
  259.12851 13.0 13
  259.19553 14.0 14
  261.06815 14.0 14
  261.08774 14.0 14
  261.10059 32.0 32
  261.10767 14.0 14
  261.18066 19.0 19
  261.19019 31.0 31
  263.20532 18.0 18
  263.25391 13.0 13
  264.16699 27.0 27
  265.09396 19.0 19
  267.21082 24.0 24
  273.09125 72.0 72
  274.10001 35.0 35
  275.1106 37.0 37
  275.12665 34.0 34
  275.18436 19.0 19
  275.47986 13.0 13
  276.13309 17.0 17
  279.10794 206.0 206
  279.12512 44.0 44
  280.11276 29.0 29
  280.21957 14.0 14
  280.62247 18.0 18
  281.11844 12.0 12
  283.22208 14.0 14
  285.18393 16.0 16
  287.16656 17.0 17
  288.21057 13.0 13
  293.11505 157.0 157
  293.13217 74.0 74
  294.48953 14.0 14
  295.09058 18.0 18
  295.25555 14.0 14
  297.22357 24.0 24
  299.22467 12.0 12
  301.17459 12.0 12
  303.19116 12.0 12
  307.24557 15.0 15
  309.11407 35.0 35
  309.12711 40.0 40
  310.11081 12.0 12
  310.13626 12.0 12
  313.21396 14.0 14
  313.24429 25.0 25
  313.25836 15.0 15
  320.96237 14.0 14
  323.73447 25.0 25
  325.21249 12.0 12
  326.22049 12.0 12
  327.23425 28.0 28
  328.22952 13.0 13
  331.233 14.0 14
  333.24722 12.0 12
  341.25336 17.0 17
  343.17987 14.0 14
  343.23517 14.0 14
  345.23654 16.0 16
  347.2536 16.0 16
  348.35471 14.0 14
  349.2908 42.0 42
  350.30728 12.0 12
  352.74722 14.0 14
  353.09802 16.0 16
  353.14255 16.0 16
  353.23938 14.0 14
  354.30551 13.0 13
  360.2735 15.0 15
  365.1019 14.0 14
  366.25827 14.0 14
  367.27908 12.0 12
  371.24979 31.0 31
  375.12845 15.0 15
  375.22217 19.0 19
  377.32697 47.0 47
  378.04343 14.0 14
  379.22992 16.0 16
  380.26157 16.0 16
  383.12256 13.0 13
  387.13617 16.0 16
  389.24915 14.0 14
  389.29993 14.0 14
  389.32178 99.0 99
  390.18127 24.0 24
  391.34253 40.0 40
  392.34158 54.0 54
  393.99762 20.0 20
  395.25989 12.0 12
  395.28217 19.0 19
  395.29337 47.0 47
  395.30838 12.0 12
  396.30817 29.0 29
  396.33041 12.0 12
  397.3241 13.0 13
  397.3461 42.0 42
  398.35153 26.0 26
  405.32361 25.0 25
  407.26202 24.0 24
  407.32834 254.0 254
  408.32346 14.0 14
  408.33673 27.0 27
  408.53027 12.0 12
  409.33405 51.0 51
  409.35306 110.0 110
  410.33832 47.0 47
  410.36188 27.0 27
  413.29208 31.0 31
  413.30759 69.0 69
  414.3147 13.0 13
  415.27664 14.0 14
  417.29736 17.0 17
  419.14929 14.0 14
  423.34488 16.0 16
  424.32623 12.0 12
  425.34213 269.0 269
  426.32242 14.0 14
  426.34888 117.0 117
  427.33276 17.0 17
  427.35501 13.0 13
  427.37317 32.0 32
  427.48703 23.0 23
  429.34464 14.0 14
  434.31958 14.0 14
  435.32736 269.0 269
  435.34305 77.0 77
  436.224 15.0 15
  436.3371 111.0 111
  437.27979 12.0 12
  441.32047 19.0 19
  441.34241 19.0 19
  442.33923 42.0 42
  443.32034 13.0 13
  443.34225 27.0 27
  443.38171 12.0 12
  444.04041 27.0 27
  451.3277 14.0 14
  452.9516 16.0 16
  453.30038 31.0 31
  453.33667 1000.0 999
  453.43097 24.0 24
  454.32211 47.0 47
  454.34323 289.0 289
  454.36133 72.0 72
  455.34937 26.0 26
  455.38492 18.0 18
  471.31293 38.0 38
  471.34702 213.0 213
  471.36288 62.0 62
  472.34665 121.0 121
  472.36667 35.0 35
  473.34372 12.0 12
  473.36182 32.0 32
  489.37961 12.0 12
  517.03387 17.0 17
  523.35278 20.0 20
  529.34607 13.0 13
  533.3678 13.0 13
  536.37476 13.0 13
  537.39087 19.0 19
  542.31171 12.0 12
  547.35193 13.0 13
  557.42352 18.0 18
  563.34918 13.0 13
  563.3703 14.0 14
  563.38672 14.0 14
  564.36829 23.0 23
  567.36987 14.0 14
  581.3902 12.0 12
  582.38574 19.0 19
  585.3877 13.0 13
  588.42255 16.0 16
  598.37347 13.0 13
  599.39343 16.0 16
  599.42346 14.0 14
  600.37561 16.0 16
  612.47955 16.0 16
  617.40839 25.0 25
  618.4054 14.0 14
  634.40643 13.0 13
  635.41724 13.0 13
  636.41974 12.0 12
  651.41547 12.0 12
  681.89514 15.0 15
  708.40973 12.0 12
  780.46722 12.0 12
  1197.03992 12.0 12
//
