ACCESSION: MSBNK-RIKEN-PR301353
RECORD_TITLE: Pseudocopsinine; LC-ESI-QTOF; MS2
DATE: 2019.03.28
AUTHORS: Tetsuya Mori, Center for Sustainable Resource Science, RIKEN
LICENSE: CC BY-NC-SA
PUBLICATION: Tsugawa H., Nakabayashi R., Mori T., Yamada Y., Takahashi M., Rai A., Sugiyama R., Yamamoto H., Nakaya T., Yamazaki M., Kooke R., Bac-Molenaar JA., Oztolan-Erol N., Keurentjes JJB., Arita M., Saito K. (2019) "A cheminformatics approach to characterize metabolomes in stable-isotope-labeled organisms" Nature Methods 16(4):295-298. [doi:10.1038/s41592-019-0358-2]
COMMENT: registered in RIKEN PlaSMA
CH$NAME: Pseudocopsinine
CH$COMPOUND_CLASS: Aspidospermatan-type alkaloids
CH$FORMULA: C21H26N2O2
CH$EXACT_MASS: 338.451
CH$SMILES: COC(=O)C1CC23CCCN4CCC5(C24)C2=CC=CC=C2NC15C3C
CH$IUPAC: InChI=1S/C21H26N2O2/c1-13-19-8-5-10-23-11-9-20(18(19)23)14-6-3-4-7-16(14)22-21(13,20)15(12-19)17(24)25-2/h3-4,6-7,13,15,18,22H,5,8-12H2,1-2H3
CH$LINK: INCHIKEY CZLWGXKWXLVFJU-UHFFFAOYSA-N
AC$INSTRUMENT: LC, Waters Acquity UPLC System; MS, Waters Xevo G2 Q-Tof
AC$INSTRUMENT_TYPE: LC-ESI-QTOF
AC$MASS_SPECTROMETRY: MS_TYPE MS2
AC$MASS_SPECTROMETRY: ION_MODE POSITIVE
AC$MASS_SPECTROMETRY: COLLISION_ENERGY 6V
AC$MASS_SPECTROMETRY: DESOLVATION_GAS_FLOW 800/h
AC$MASS_SPECTROMETRY: DESOLVATION_TEMPERATURE 450 C
AC$MASS_SPECTROMETRY: IONIZATION ESI
AC$CHROMATOGRAPHY: CAPILLARY_VOLTAGE +3.00 kV
AC$CHROMATOGRAPHY: COLUMN_NAME Acquity bridged ethyl hybrid C18 (1.7 um, 2.1 mm * 100 mm, Waters)
AC$CHROMATOGRAPHY: COLUMN_TEMPERATURE 40 C
AC$CHROMATOGRAPHY: FLOW_GRADIENT A/B = (99.5%/0.5% at 0 min, 99.5%/0.5% at 0.1 min, 20%/80% at 10 min, 0.5%/99.5% at 10.1 min, 0.5%/99.5% at 12.0 min, 99.5%/0.5% at 12.1 min, 99.5%/0.5% at 15.0 min)
AC$CHROMATOGRAPHY: FLOW_RATE 0.3 ml/min at 0 min, 0.3 ml/min at 10 min, 0.4 ml/min at 10.1 min, 0.4 ml/min at 14.4 min, 0.3 ml/min at 14.5 min
AC$CHROMATOGRAPHY: RETENTION_TIME 4.2376
AC$CHROMATOGRAPHY: SOLVENT A water including 0.1% formic acid
AC$CHROMATOGRAPHY: SOLVENT B acetonitrile including 0.1% formic acid
MS$FOCUSED_ION: PRECURSOR_TYPE [M+H]+
MS$FOCUSED_ION: PRECURSOR_M/Z 339.2067045
PK$SPLASH: splash10-000i-1009000000-54deaba89b9c15b5c46b
PK$NUM_PEAK: 16
PK$PEAK: m/z int. rel.int.
  96.08184 121.0 121
  97.08063 14.0 14
  97.08755 12.0 12
  98.00323 7.0 7
  144.08072 6.0 6
  154.06586 11.0 11
  170.06372 11.0 11
  184.06729 6.0 6
  216.10229 12.0 12
  221.118 7.0 7
  253.16476 6.0 6
  261.15497 11.0 11
  262.08511 6.0 6
  339.17065 27.0 27
  339.20706 1000.0 999
  339.24564 10.0 10
//
