ACCESSION: MSBNK-RIKEN-PR305988
RECORD_TITLE: Procyanidin B2; LC-ESI-QTOF; MS2
DATE: 2019.03.28
AUTHORS: Tetsuya Mori, Center for Sustainable Resource Science, RIKEN
LICENSE: CC BY-NC-SA
PUBLICATION: Tsugawa H., Nakabayashi R., Mori T., Yamada Y., Takahashi M., Rai A., Sugiyama R., Yamamoto H., Nakaya T., Yamazaki M., Kooke R., Bac-Molenaar JA., Oztolan-Erol N., Keurentjes JJB., Arita M., Saito K. (2019) "A cheminformatics approach to characterize metabolomes in stable-isotope-labeled organisms" Nature Methods 16(4):295-298. [doi:10.1038/s41592-019-0358-2]
COMMENT: registered in RIKEN PlaSMA
CH$NAME: Procyanidin B2
CH$NAME: 4,8'-Bi((+)-epicatechin))
CH$NAME: cis,cis'-4,8'-Bi(3,3',4',5,7-pentahydroxyflavane)
CH$NAME: (-)-Epicatechin-(4-beta-8)-(-)-epicatechin
CH$COMPOUND_CLASS: Biflavonoids and polyflavonoids
CH$FORMULA: C30H26O12
CH$EXACT_MASS: 578.14243
CH$SMILES: C1[C@H]([C@H](OC2=C1C(=CC(=C2[C@@H]3[C@H]([C@H](OC4=CC(=CC(=C34)O)O)C5=CC(=C(C=C5)O)O)O)O)O)C6=CC(=C(C=C6)O)O)O
CH$IUPAC: InChI=1S/C30H26O12/c31-13-7-20(37)24-23(8-13)41-29(12-2-4-16(33)19(36)6-12)27(40)26(24)25-21(38)10-17(34)14-9-22(39)28(42-30(14)25)11-1-3-15(32)18(35)5-11/h1-8,10,22,26-29,31-40H,9H2/t22-,26-,27-,28-,29-/m1/s1
CH$LINK: CAS 29106-49-8
CH$LINK: CHEMSPIDER 109417
CH$LINK: INCHIKEY XFZJEEAOWLFHDH-NFJBMHMQSA-N
CH$LINK: KNAPSACK C00009077
CH$LINK: PUBCHEM CID:122738
AC$INSTRUMENT: LC, Waters Acquity UPLC System; MS, Waters Xevo G2 Q-Tof
AC$INSTRUMENT_TYPE: LC-ESI-QTOF
AC$MASS_SPECTROMETRY: MS_TYPE MS2
AC$MASS_SPECTROMETRY: ION_MODE NEGATIVE
AC$MASS_SPECTROMETRY: COLLISION_ENERGY 6V
AC$MASS_SPECTROMETRY: DESOLVATION_GAS_FLOW 800/h
AC$MASS_SPECTROMETRY: DESOLVATION_TEMPERATURE 450 C
AC$MASS_SPECTROMETRY: IONIZATION ESI
AC$CHROMATOGRAPHY: CAPILLARY_VOLTAGE -2.75 kV
AC$CHROMATOGRAPHY: COLUMN_NAME Acquity bridged ethyl hybrid C18 (1.7 um, 2.1 mm * 100 mm, Waters)
AC$CHROMATOGRAPHY: COLUMN_TEMPERATURE 40 C
AC$CHROMATOGRAPHY: FLOW_GRADIENT A/B = (99.5%/0.5% at 0 min, 99.5%/0.5% at 0.1 min, 20%/80% at 10 min, 0.5%/99.5% at 10.1 min, 0.5%/99.5% at 12.0 min, 99.5%/0.5% at 12.1 min, 99.5%/0.5% at 15.0 min)
AC$CHROMATOGRAPHY: FLOW_RATE 0.3 ml/min at 0 min, 0.3 ml/min at 10 min, 0.4 ml/min at 10.1 min, 0.4 ml/min at 14.4 min, 0.3 ml/min at 14.5 min
AC$CHROMATOGRAPHY: RETENTION_TIME 3.225917
AC$CHROMATOGRAPHY: SOLVENT A water including 0.1% formic acid
AC$CHROMATOGRAPHY: SOLVENT B acetonitrile including 0.1% formic acid
MS$FOCUSED_ION: PRECURSOR_TYPE [M-H]-
MS$FOCUSED_ION: PRECURSOR_M/Z 577.13514984783
PK$SPLASH: splash10-004i-0030790000-5621b2298d7e72d76cc1
PK$NUM_PEAK: 38
PK$PEAK: m/z int. rel.int.
  125.02113 67.0 67
  177.01952 20.0 20
  240.82576 19.0 19
  243.0666 17.0 17
  245.04169 28.0 28
  246.04385 19.0 19
  274.04266 22.0 22
  287.0535 29.0 29
  287.06482 34.0 34
  288.06454 16.0 16
  289.07297 161.0 161
  290.06296 18.0 18
  290.07333 14.0 14
  299.05304 34.0 34
  355.55484 39.0 39
  371.06912 13.0 13
  382.08368 16.0 16
  397.07617 17.0 17
  400.13846 21.0 21
  407.07016 171.0 171
  408.05408 14.0 14
  408.07101 34.0 34
  408.09183 14.0 14
  422.52835 14.0 14
  423.07233 14.0 14
  425.08255 302.0 302
  426.09073 88.0 88
  427.09323 15.0 15
  427.11444 18.0 18
  449.13684 14.0 14
  451.0773 14.0 14
  451.09647 34.0 34
  451.11307 31.0 31
  452.10397 47.0 47
  533.13782 15.0 15
  559.13721 14.0 14
  576.11908 16.0 16
  577.13531 1000.0 999
//
