ACCESSION: MSBNK-RIKEN-PR100345
RECORD_TITLE: Malvidin-3-O-beta-D-galactoside; LC-ESI-QTOF; MS2; CE:Ramp 5-60 V; [M]+
DATE: 2016.01.19 (Created 2009.09.10, modified 2011.05.06)
AUTHORS: Matsuda F, Suzuki M, Sawada Y, Plant Science Center, RIKEN.
LICENSE: CC BY-SA
COMMENT: Acquisition and generation of the data is financially supported in part by CREST/JST.
CH$NAME: malvidin-3-galactoside
CH$NAME: Malv-3-Gal
CH$NAME: Primulin
CH$NAME: malvidin-3-o-beta-d-galactopyranoside
CH$NAME: Malvidin-3-O-beta-D-galactoside
CH$COMPOUND_CLASS: Anthocyanidin
CH$FORMULA: [C23H25O12]+
CH$EXACT_MASS: 493.13460
CH$SMILES: OCC(O1)C(O)C(O)C(O)C1Oc(c3)c([o+1]c(c4)c(c(O)cc(O)4)3)c(c2)cc(OC)c(O)c(OC)2
CH$IUPAC: InChI=1S/C23H24O12/c1-31-14-3-9(4-15(32-2)18(14)27)22-16(7-11-12(26)5-10(25)6-13(11)33-22)34-23-21(30)20(29)19(28)17(8-24)35-23/h3-7,17,19-21,23-24,28-30H,8H2,1-2H3,(H2-,25,26,27)/p+1/t17-,19+,20+,21-,23-/m1/s1
CH$LINK: CAS 104880-34-4
CH$LINK: CHEMSPIDER 4588440
CH$LINK: KNAPSACK C00006734
CH$LINK: PUBCHEM CID:5484292
CH$LINK: INCHIKEY PXUQTDZNOHRWLI-XSEKTIEYSA-O
AC$INSTRUMENT: UPLC Q-Tof Premier, Waters
AC$INSTRUMENT_TYPE: LC-ESI-QTOF
AC$MASS_SPECTROMETRY: MS_TYPE MS2
AC$MASS_SPECTROMETRY: ION_MODE POSITIVE
AC$MASS_SPECTROMETRY: COLLISION_ENERGY Ramp 5-60 V
AC$MASS_SPECTROMETRY: DATAFORMAT Continuum
AC$MASS_SPECTROMETRY: DATE 2008.07.28
AC$MASS_SPECTROMETRY: DESOLVATION_GAS_FLOW 600.0 L/Hr
AC$MASS_SPECTROMETRY: DESOLVATION_TEMPERATURE 420 C
AC$MASS_SPECTROMETRY: FRAGMENTATION_METHOD LOW-ENERGY CID
AC$MASS_SPECTROMETRY: IONIZATION ESI
AC$MASS_SPECTROMETRY: SCANNING 1.0 sec/scan (m/z = 50-1000)
AC$MASS_SPECTROMETRY: SOURCE_TEMPERATURE 120 C
AC$CHROMATOGRAPHY: CAPILLARY_VOLTAGE 3.0 kV
AC$CHROMATOGRAPHY: SAMPLING_CONE 23.0 V
AC$CHROMATOGRAPHY: SOLVENT A CH3CN(0.1%HCOOH)
AC$CHROMATOGRAPHY: SOLVENT B H2O(0.1%HCOOH)
MS$FOCUSED_ION: PRECURSOR_M/Z 493.13457
MS$FOCUSED_ION: PRECURSOR_TYPE [M]+
PK$SPLASH: splash10-001i-0009100000-d99156372a4c8b6ad950
PK$NUM_PEAK: 4
PK$PEAK: m/z int. rel.int.
  287.0580 649.6 120
  315.0527 1116 206
  331.0825 5410 999
  493.1346 1112 205
//
