ACCESSION: MSBNK-RIKEN-PR304319
RECORD_TITLE: Soyasaponin Bb; LC-ESI-QTOF; MS2
DATE: 2019.03.28
AUTHORS: Tetsuya Mori, Center for Sustainable Resource Science, RIKEN
LICENSE: CC BY-NC-SA
PUBLICATION: Tsugawa H., Nakabayashi R., Mori T., Yamada Y., Takahashi M., Rai A., Sugiyama R., Yamamoto H., Nakaya T., Yamazaki M., Kooke R., Bac-Molenaar JA., Oztolan-Erol N., Keurentjes JJB., Arita M., Saito K. (2019) "A cheminformatics approach to characterize metabolomes in stable-isotope-labeled organisms" Nature Methods 16(4):295-298. [doi:10.1038/s41592-019-0358-2]
COMMENT: registered in RIKEN PlaSMA
CH$NAME: Soyasaponin Bb
CH$COMPOUND_CLASS: Triterpene saponins
CH$FORMULA: C48H78O18
CH$EXACT_MASS: 943.134
CH$SMILES: C[C@@H]1O[C@@H](O[C@@H]2[C@@H](O)[C@@H](O)[C@@H](CO)O[C@H]2O[C@@H]2[C@@H](O)[C@H](O)[C@H](O[C@H]2O[C@H]2CC[C@@]3(C)[C@@H](CC[C@]4(C)[C@@H]3CC=C3[C@@H]5CC(C)(C)C[C@@H](O)[C@]5(C)CC[C@@]43C)[C@@]2(C)CO)C(O)=O)[C@H](O)[C@H](O)[C@H]1O
CH$IUPAC: InChI=1S/C48H78O18/c1-21-29(52)31(54)35(58)40(61-21)65-37-32(55)30(53)24(19-49)62-41(37)66-38-34(57)33(56)36(39(59)60)64-42(38)63-28-12-13-45(5)25(46(28,6)20-50)11-14-48(8)26(45)10-9-22-23-17-43(2,3)18-27(51)44(23,4)15-16-47(22,48)7/h9,21,23-38,40-42,49-58H,10-20H2,1-8H3,(H,59,60)/t21-,23-,24+,25+,26+,27+,28-,29-,30-,31+,32-,33-,34-,35+,36-,37+,38+,40-,41-,42+,44+,45-,46+,47+,48+/m0/s1
CH$LINK: INCHIKEY PTDAHAWQAGSZDD-IOVCITQVSA-N
AC$INSTRUMENT: LC, Waters Acquity UPLC System; MS, Waters Xevo G2 Q-Tof
AC$INSTRUMENT_TYPE: LC-ESI-QTOF
AC$MASS_SPECTROMETRY: MS_TYPE MS2
AC$MASS_SPECTROMETRY: ION_MODE POSITIVE
AC$MASS_SPECTROMETRY: COLLISION_ENERGY 6V
AC$MASS_SPECTROMETRY: DESOLVATION_GAS_FLOW 800/h
AC$MASS_SPECTROMETRY: DESOLVATION_TEMPERATURE 450 C
AC$MASS_SPECTROMETRY: IONIZATION ESI
AC$CHROMATOGRAPHY: CAPILLARY_VOLTAGE +3.00 kV
AC$CHROMATOGRAPHY: COLUMN_NAME Acquity bridged ethyl hybrid C18 (1.7 um, 2.1 mm * 100 mm, Waters)
AC$CHROMATOGRAPHY: COLUMN_TEMPERATURE 40 C
AC$CHROMATOGRAPHY: FLOW_GRADIENT A/B = (99.5%/0.5% at 0 min, 99.5%/0.5% at 0.1 min, 20%/80% at 10 min, 0.5%/99.5% at 10.1 min, 0.5%/99.5% at 12.0 min, 99.5%/0.5% at 12.1 min, 99.5%/0.5% at 15.0 min)
AC$CHROMATOGRAPHY: FLOW_RATE 0.3 ml/min at 0 min, 0.3 ml/min at 10 min, 0.4 ml/min at 10.1 min, 0.4 ml/min at 14.4 min, 0.3 ml/min at 14.5 min
AC$CHROMATOGRAPHY: RETENTION_TIME 7.092883
AC$CHROMATOGRAPHY: SOLVENT A water including 0.1% formic acid
AC$CHROMATOGRAPHY: SOLVENT B acetonitrile including 0.1% formic acid
MS$FOCUSED_ION: PRECURSOR_TYPE [M+H]+
MS$FOCUSED_ION: PRECURSOR_M/Z 943.5260921
PK$SPLASH: splash10-0006-0010511109-8da807d119b42fb55bbb
PK$NUM_PEAK: 54
PK$PEAK: m/z int. rel.int.
  129.05406 11.0 11
  141.01628 9.0 9
  147.06479 15.0 15
  159.02748 9.0 9
  163.0567 6.0 6
  163.06294 6.0 6
  177.03944 7.0 7
  177.16289 8.0 8
  189.1615 7.0 7
  191.17868 8.0 8
  201.16179 8.0 8
  203.17709 19.0 19
  205.15837 7.0 7
  207.17589 11.0 11
  217.19354 25.0 25
  219.17467 12.0 12
  221.18837 6.0 6
  233.19235 10.0 10
  247.20215 7.0 7
  247.21672 6.0 6
  273.09601 6.0 6
  305.09012 11.0 11
  309.11713 15.0 15
  315.26221 8.0 8
  323.09662 13.0 13
  339.09338 5.0 5
  365.3125 5.0 5
  383.33511 14.0 14
  405.35709 28.0 28
  406.3569 6.0 6
  423.36295 173.0 173
  424.36298 63.0 63
  441.37381 227.0 227
  442.37567 85.0 85
  443.37915 16.0 16
  459.38477 8.0 8
  581.37866 11.0 11
  581.39545 9.0 9
  599.3927 106.0 106
  600.39746 29.0 29
  605.44025 20.0 20
  617.40625 70.0 70
  618.40088 13.0 13
  618.42255 6.0 6
  635.41119 28.0 28
  636.40887 9.0 9
  636.42657 8.0 8
  781.46643 15.0 15
  782.47668 5.0 5
  797.4682 81.0 81
  798.47101 43.0 43
  799.46509 11.0 11
  943.41559 5.0 5
  943.5246 1000.0 999
//
