ACCESSION: MSBNK-RIKEN-PR306049
RECORD_TITLE: Procyanidin B1; LC-ESI-QTOF; MS2
DATE: 2019.03.28
AUTHORS: Tetsuya Mori, Center for Sustainable Resource Science, RIKEN
LICENSE: CC BY-NC-SA
PUBLICATION: Tsugawa H., Nakabayashi R., Mori T., Yamada Y., Takahashi M., Rai A., Sugiyama R., Yamamoto H., Nakaya T., Yamazaki M., Kooke R., Bac-Molenaar JA., Oztolan-Erol N., Keurentjes JJB., Arita M., Saito K. (2019) "A cheminformatics approach to characterize metabolomes in stable-isotope-labeled organisms" Nature Methods 16(4):295-298. [doi:10.1038/s41592-019-0358-2]
COMMENT: registered in RIKEN PlaSMA
CH$NAME: Procyanidin B1
CH$NAME: cis,trans''-4,8''-Bi-(3,3',4',5,7-pentahydroxyflavane)
CH$NAME: (-)-Epicatechin-(4-beta-8)-(+)-catechin
CH$COMPOUND_CLASS: Biflavonoids and polyflavonoids
CH$FORMULA: C30H26O12
CH$EXACT_MASS: 578.14243
CH$SMILES: C1[C@@H]([C@H](OC2=C1C(=CC(=C2[C@@H]3[C@H]([C@H](OC4=CC(=CC(=C34)O)O)C5=CC(=C(C=C5)O)O)O)O)O)C6=CC(=C(C=C6)O)O)O
CH$IUPAC: InChI=1S/C30H26O12/c31-13-7-20(37)24-23(8-13)41-29(12-2-4-16(33)19(36)6-12)27(40)26(24)25-21(38)10-17(34)14-9-22(39)28(42-30(14)25)11-1-3-15(32)18(35)5-11/h1-8,10,22,26-29,31-40H,9H2/t22-,26+,27+,28+,29+/m0/s1
CH$LINK: CAS 20315-25-7
CH$LINK: CHEMSPIDER 9425166
CH$LINK: INCHIKEY XFZJEEAOWLFHDH-UKWJTHFESA-N
CH$LINK: KNAPSACK C00009075
CH$LINK: PUBCHEM CID:11250133
AC$INSTRUMENT: LC, Waters Acquity UPLC System; MS, Waters Xevo G2 Q-Tof
AC$INSTRUMENT_TYPE: LC-ESI-QTOF
AC$MASS_SPECTROMETRY: MS_TYPE MS2
AC$MASS_SPECTROMETRY: ION_MODE NEGATIVE
AC$MASS_SPECTROMETRY: COLLISION_ENERGY 6V
AC$MASS_SPECTROMETRY: DESOLVATION_GAS_FLOW 800/h
AC$MASS_SPECTROMETRY: DESOLVATION_TEMPERATURE 450 C
AC$MASS_SPECTROMETRY: IONIZATION ESI
AC$CHROMATOGRAPHY: CAPILLARY_VOLTAGE -2.75 kV
AC$CHROMATOGRAPHY: COLUMN_NAME Acquity bridged ethyl hybrid C18 (1.7 um, 2.1 mm * 100 mm, Waters)
AC$CHROMATOGRAPHY: COLUMN_TEMPERATURE 40 C
AC$CHROMATOGRAPHY: FLOW_GRADIENT A/B = (99.5%/0.5% at 0 min, 99.5%/0.5% at 0.1 min, 20%/80% at 10 min, 0.5%/99.5% at 10.1 min, 0.5%/99.5% at 12.0 min, 99.5%/0.5% at 12.1 min, 99.5%/0.5% at 15.0 min)
AC$CHROMATOGRAPHY: FLOW_RATE 0.3 ml/min at 0 min, 0.3 ml/min at 10 min, 0.4 ml/min at 10.1 min, 0.4 ml/min at 14.4 min, 0.3 ml/min at 14.5 min
AC$CHROMATOGRAPHY: RETENTION_TIME 2.8429
AC$CHROMATOGRAPHY: SOLVENT A water including 0.1% formic acid
AC$CHROMATOGRAPHY: SOLVENT B acetonitrile including 0.1% formic acid
MS$FOCUSED_ION: PRECURSOR_TYPE [M-H]-
MS$FOCUSED_ION: PRECURSOR_M/Z 577.13514984783
PK$SPLASH: splash10-056r-0940000000-13b91c4c99d64bea5beb
PK$NUM_PEAK: 191
PK$PEAK: m/z int. rel.int.
  79.05302 21.0 21
  81.03294 31.0 31
  83.01204 43.0 43
  89.03433 48.0 48
  93.0291 16.0 16
  95.01216 18.0 18
  95.04605 23.0 23
  97.02708 36.0 36
  97.03127 15.0 15
  99.04543 22.0 22
  105.03047 15.0 15
  105.03705 35.0 35
  107.04921 20.0 20
  108.02227 19.0 19
  109.0271 275.0 275
  110.03667 27.0 27
  112.14541 14.0 14
  112.46014 17.0 17
  112.66727 15.0 15
  117.03665 19.0 19
  121.02564 57.0 57
  122.03225 20.0 20
  122.04051 55.0 55
  122.87241 16.0 16
  123.04288 356.0 356
  125.02339 1000.0 999
  126.02674 32.0 32
  131.0528 25.0 25
  133.0238 60.0 60
  134.80098 17.0 17
  135.00551 34.0 34
  136.01631 16.0 16
  136.04509 21.0 21
  137.02165 97.0 97
  137.02594 204.0 204
  138.02325 23.0 23
  138.03278 21.0 21
  139.03836 31.0 31
  143.04675 27.0 27
  145.02708 38.0 38
  145.06528 63.0 63
  147.00804 14.0 14
  147.04723 41.0 41
  148.02003 16.0 16
  149.02538 37.0 37
  149.06125 52.0 52
  150.02934 85.0 85
  151.04163 276.0 276
  152.03529 26.0 26
  153.05742 22.0 22
  155.05339 18.0 18
  158.03186 14.0 14
  159.04675 201.0 201
  160.05165 21.0 21
  161.01964 342.0 342
  161.02747 77.0 77
  161.0585 112.0 112
  162.03122 225.0 225
  162.06116 48.0 48
  163.00055 38.0 38
  163.00783 38.0 38
  163.04117 120.0 120
  163.25905 14.0 14
  163.94598 15.0 15
  164.00111 17.0 17
  164.00891 43.0 43
  164.01689 25.0 25
  164.97026 27.0 27
  165.01311 31.0 31
  165.02325 15.0 15
  166.01141 18.0 18
  166.02245 67.0 67
  166.34613 14.0 14
  166.71605 14.0 14
  167.0399 16.0 16
  167.05806 16.0 16
  173.03038 22.0 22
  173.7666 30.0 30
  174.02769 23.0 23
  174.0722 33.0 33
  175.03993 245.0 245
  175.06841 17.0 17
  175.07597 31.0 31
  176.03642 38.0 38
  176.05576 30.0 30
  176.08234 19.0 19
  176.98978 21.0 21
  177.0152 85.0 85
  177.05229 35.0 35
  178.01254 25.0 25
  178.0208 23.0 23
  178.32248 31.0 31
  183.05051 27.0 27
  183.0842 14.0 14
  186.06096 23.0 23
  187.03624 76.0 76
  187.04536 24.0 24
  187.05527 19.0 19
  188.04514 168.0 168
  188.06306 18.0 18
  189.01918 19.0 19
  189.0444 29.0 29
  191.02881 31.0 31
  191.82964 14.0 14
  193.48918 15.0 15
  194.04315 14.0 14
  199.03409 20.0 20
  199.0446 37.0 37
  200.01961 27.0 27
  200.04077 17.0 17
  201.05469 39.0 39
  202.05446 43.0 43
  202.06226 43.0 43
  203.03136 42.0 42
  203.04272 33.0 33
  203.07242 164.0 164
  204.07686 59.0 59
  205.01276 15.0 15
  205.04669 62.0 62
  205.05975 65.0 65
  207.04457 30.0 30
  207.08261 21.0 21
  210.03494 38.0 38
  210.66919 29.0 29
  211.03026 29.0 29
  211.03963 36.0 36
  212.04662 51.0 51
  212.06754 14.0 14
  213.01656 25.0 25
  213.05122 80.0 80
  214.02904 76.0 76
  216.02754 16.0 16
  217.04883 56.0 56
  217.08934 35.0 35
  221.08875 45.0 45
  222.06985 58.0 58
  222.08125 16.0 16
  223.78062 28.0 28
  225.05397 15.0 15
  225.09859 29.0 29
  227.02492 19.0 19
  227.03867 47.0 47
  227.07222 48.0 48
  228.03743 14.0 14
  228.04868 49.0 49
  229.04976 32.0 32
  230.05589 60.0 60
  231.03117 51.0 51
  231.06418 22.0 22
  232.0351 19.0 19
  239.03868 16.0 16
  242.03046 14.0 14
  243.03131 32.0 32
  243.10556 22.0 22
  245.0408 15.0 15
  245.08261 27.0 27
  246.04027 20.0 20
  246.05704 28.0 28
  247.06425 35.0 35
  248.07387 31.0 31
  250.05508 15.0 15
  252.64346 19.0 19
  253.04843 34.0 34
  255.03023 225.0 225
  255.07941 20.0 20
  256.02719 73.0 73
  256.04156 51.0 51
  256.05975 19.0 19
  257.04352 76.0 76
  259.04367 35.0 35
  265.04349 16.0 16
  267.03464 15.0 15
  267.05795 19.0 19
  267.06821 15.0 15
  269.03751 21.0 21
  269.04489 51.0 51
  270.04306 14.0 14
  271.06546 14.0 14
  275.06717 17.0 17
  281.04462 57.0 57
  282.0274 15.0 15
  282.04764 18.0 18
  282.41351 14.0 14
  286.04919 33.0 33
  287.0697 35.0 35
  289.07468 16.0 16
  340.08813 34.0 34
  362.05969 23.0 23
  364.08527 15.0 15
  373.06998 19.0 19
  425.10498 16.0 16
//
