ACCESSION: MSBNK-RIKEN-PR304256
RECORD_TITLE: epsilon-Viniferin; LC-ESI-QTOF; MS2
DATE: 2019.03.28
AUTHORS: Tetsuya Mori, Center for Sustainable Resource Science, RIKEN
LICENSE: CC BY-NC-SA
PUBLICATION: Tsugawa H., Nakabayashi R., Mori T., Yamada Y., Takahashi M., Rai A., Sugiyama R., Yamamoto H., Nakaya T., Yamazaki M., Kooke R., Bac-Molenaar JA., Oztolan-Erol N., Keurentjes JJB., Arita M., Saito K. (2019) "A cheminformatics approach to characterize metabolomes in stable-isotope-labeled organisms" Nature Methods 16(4):295-298. [doi:10.1038/s41592-019-0358-2]
COMMENT: registered in RIKEN PlaSMA
CH$NAME: epsilon-Viniferin
CH$COMPOUND_CLASS: 2-arylbenzofuran flavonoids
CH$FORMULA: C28H22O6
CH$EXACT_MASS: 454.478
CH$SMILES: OC1=CC=C(\C=C\C2=CC(O)=CC3=C2[C@H]([C@@H](O3)C2=CC=C(O)C=C2)C2=CC(O)=CC(O)=C2)C=C1
CH$IUPAC: InChI=1S/C28H22O6/c29-20-7-2-16(3-8-20)1-4-18-11-24(33)15-25-26(18)27(19-12-22(31)14-23(32)13-19)28(34-25)17-5-9-21(30)10-6-17/h1-15,27-33H/b4-1+/t27-,28+/m1/s1
CH$LINK: INCHIKEY FQWLMRXWKZGLFI-YVYUXZJTSA-N
AC$INSTRUMENT: LC, Waters Acquity UPLC System; MS, Waters Xevo G2 Q-Tof
AC$INSTRUMENT_TYPE: LC-ESI-QTOF
AC$MASS_SPECTROMETRY: MS_TYPE MS2
AC$MASS_SPECTROMETRY: ION_MODE POSITIVE
AC$MASS_SPECTROMETRY: COLLISION_ENERGY 6V
AC$MASS_SPECTROMETRY: DESOLVATION_GAS_FLOW 800/h
AC$MASS_SPECTROMETRY: DESOLVATION_TEMPERATURE 450 C
AC$MASS_SPECTROMETRY: IONIZATION ESI
AC$CHROMATOGRAPHY: CAPILLARY_VOLTAGE +3.00 kV
AC$CHROMATOGRAPHY: COLUMN_NAME Acquity bridged ethyl hybrid C18 (1.7 um, 2.1 mm * 100 mm, Waters)
AC$CHROMATOGRAPHY: COLUMN_TEMPERATURE 40 C
AC$CHROMATOGRAPHY: FLOW_GRADIENT A/B = (99.5%/0.5% at 0 min, 99.5%/0.5% at 0.1 min, 20%/80% at 10 min, 0.5%/99.5% at 10.1 min, 0.5%/99.5% at 12.0 min, 99.5%/0.5% at 12.1 min, 99.5%/0.5% at 15.0 min)
AC$CHROMATOGRAPHY: FLOW_RATE 0.3 ml/min at 0 min, 0.3 ml/min at 10 min, 0.4 ml/min at 10.1 min, 0.4 ml/min at 14.4 min, 0.3 ml/min at 14.5 min
AC$CHROMATOGRAPHY: RETENTION_TIME 5.807217
AC$CHROMATOGRAPHY: SOLVENT A water including 0.1% formic acid
AC$CHROMATOGRAPHY: SOLVENT B acetonitrile including 0.1% formic acid
MS$FOCUSED_ION: PRECURSOR_TYPE [M+H]+
MS$FOCUSED_ION: PRECURSOR_M/Z 455.1489149
PK$SPLASH: splash10-0aor-0693000000-ff451c01661fd7c80d2b
PK$NUM_PEAK: 265
PK$PEAK: m/z int. rel.int.
  70.48132 5.0 5
  93.03099 7.0 7
  97.90221 8.0 8
  106.98051 6.0 6
  107.04896 1000.0 999
  108.03966 12.0 12
  108.04939 40.0 40
  108.05693 13.0 13
  109.02865 10.0 10
  119.04929 23.0 23
  120.05183 5.0 5
  121.0219 26.0 26
  121.03143 7.0 7
  121.06293 10.0 10
  123.04469 46.0 46
  124.04265 7.0 7
  124.05452 15.0 15
  128.01804 6.0 6
  129.07501 5.0 5
  131.04759 13.0 13
  132.05077 6.0 6
  133.0267 66.0 66
  134.25066 5.0 5
  135.04135 14.0 14
  137.00563 5.0 5
  137.0213 91.0 91
  137.02716 39.0 39
  138.01822 5.0 5
  145.06163 10.0 10
  147.03175 5.0 5
  147.04356 13.0 13
  147.07547 11.0 11
  149.01601 7.0 7
  153.07222 10.0 10
  154.07507 5.0 5
  157.06093 15.0 15
  157.06874 12.0 12
  158.05896 5.0 5
  158.06816 24.0 24
  158.21359 5.0 5
  160.81357 7.0 7
  162.2036 7.0 7
  165.06575 7.0 7
  165.07837 6.0 6
  169.06767 25.0 25
  169.07416 11.0 11
  171.09004 7.0 7
  172.07147 6.0 6
  174.06717 11.0 11
  175.04793 6.0 6
  179.18291 9.0 9
  180.35622 8.0 8
  181.02386 5.0 5
  181.05737 26.0 26
  181.06848 30.0 30
  182.05757 6.0 6
  182.06851 8.0 8
  183.07997 10.0 10
  184.05739 6.0 6
  184.08485 9.0 9
  185.06592 5.0 5
  187.075 31.0 31
  187.62483 5.0 5
  195.0742 11.0 11
  195.08595 5.0 5
  197.02847 5.0 5
  197.0583 99.0 99
  197.07233 5.0 5
  198.05666 21.0 21
  198.0699 6.0 6
  199.07535 484.0 484
  200.03899 5.0 5
  200.05768 7.0 7
  200.08308 69.0 69
  200.35863 7.0 7
  201.07635 6.0 6
  201.08604 10.0 10
  203.0876 10.0 10
  206.07611 8.0 8
  209.05191 5.0 5
  209.0616 23.0 23
  210.06912 15.0 15
  211.07954 14.0 14
  213.03409 5.0 5
  213.0499 16.0 16
  213.05974 18.0 18
  215.03419 8.0 8
  215.04347 19.0 19
  215.06989 781.0 780
  215.09514 6.0 6
  216.07686 126.0 126
  217.07614 10.0 10
  217.0836 7.0 7
  218.07668 5.0 5
  222.09523 14.0 14
  223.06685 17.0 17
  223.07787 26.0 26
  224.0793 7.0 7
  225.05684 47.0 47
  226.05995 17.0 17
  227.05339 11.0 11
  227.07045 230.0 230
  228.07605 95.0 95
  229.08058 26.0 26
  231.08554 11.0 11
  233.05899 28.0 28
  233.09734 6.0 6
  235.07486 25.0 25
  237.05074 6.0 6
  237.92451 8.0 8
  239.0341 6.0 6
  239.06918 430.0 430
  240.05496 12.0 12
  240.06781 21.0 21
  240.07776 51.0 51
  241.0433 17.0 17
  241.05614 10.0 10
  241.08456 6.0 6
  242.04489 7.0 7
  242.06464 23.0 23
  242.08723 7.0 7
  243.03499 7.0 7
  243.06627 26.0 26
  246.56708 6.0 6
  247.04977 5.0 5
  247.07469 21.0 21
  247.0873 10.0 10
  248.07076 5.0 5
  249.04378 6.0 6
  249.08035 5.0 5
  249.09642 6.0 6
  250.07001 17.0 17
  251.04646 7.0 7
  251.07063 147.0 147
  252.06325 16.0 16
  252.08324 44.0 44
  253.05547 10.0 10
  253.07541 12.0 12
  253.09474 10.0 10
  254.04698 10.0 10
  254.06119 35.0 35
  255.06685 218.0 218
  255.09123 6.0 6
  256.06583 25.0 25
  256.07532 14.0 14
  256.08847 6.0 6
  257.10605 12.0 12
  260.07352 19.0 19
  261.08786 33.0 33
  261.09637 23.0 23
  263.10025 6.0 6
  264.07129 13.0 13
  265.07968 12.0 12
  267.06775 104.0 104
  267.09247 5.0 5
  268.07193 23.0 23
  269.08777 14.0 14
  269.10129 8.0 8
  270.68567 6.0 6
  271.07297 7.0 7
  272.09183 7.0 7
  273.08566 32.0 32
  273.0983 22.0 22
  274.05585 5.0 5
  274.0975 7.0 7
  275.09113 6.0 6
  275.10464 18.0 18
  276.07874 19.0 19
  277.08844 21.0 21
  285.05154 5.0 5
  285.08948 16.0 16
  287.07092 7.0 7
  287.10153 25.0 25
  288.07751 7.0 7
  289.08408 22.0 22
  289.10202 22.0 22
  290.09579 16.0 16
  291.08844 5.0 5
  291.11246 5.0 5
  292.1105 16.0 16
  293.08505 6.0 6
  293.12659 6.0 6
  297.09393 26.0 26
  297.10635 7.0 7
  298.10138 7.0 7
  300.07309 12.0 12
  301.0787 18.0 18
  301.10175 17.0 17
  302.09244 10.0 10
  303.11835 8.0 8
  303.44965 6.0 6
  307.09146 15.0 15
  308.08786 6.0 6
  308.10779 7.0 7
  313.08575 42.0 42
  314.09723 6.0 6
  315.08731 30.0 30
  315.10416 77.0 77
  316.10587 10.0 10
  316.12692 5.0 5
  317.08392 41.0 41
  317.0993 12.0 12
  317.14053 9.0 9
  319.10123 18.0 18
  320.09747 5.0 5
  325.07397 26.0 26
  325.09253 31.0 31
  326.08121 28.0 28
  326.61786 5.0 5
  327.07654 6.0 6
  327.09399 11.0 11
  328.11212 6.0 6
  329.06931 28.0 28
  329.08533 18.0 18
  329.09705 18.0 18
  330.08081 29.0 29
  330.09604 5.0 5
  331.0881 32.0 32
  331.1033 51.0 51
  331.12204 16.0 16
  332.06512 16.0 16
  332.10101 146.0 146
  332.12262 13.0 13
  333.06198 6.0 6
  333.09933 15.0 15
  333.10693 34.0 34
  333.12018 17.0 17
  334.11105 10.0 10
  334.12726 5.0 5
  343.08295 29.0 29
  343.09738 71.0 71
  344.10156 42.0 42
  345.08145 5.0 5
  345.11154 23.0 23
  345.13379 6.0 6
  346.10312 8.0 8
  346.45889 5.0 5
  347.08301 17.0 17
  347.09326 17.0 17
  347.10699 9.0 9
  348.04526 6.0 6
  348.09094 11.0 11
  349.08661 12.0 12
  349.10614 62.0 62
  349.11923 54.0 54
  350.10699 17.0 17
  350.12469 6.0 6
  360.10239 14.0 14
  361.10422 25.0 25
  361.11975 33.0 33
  362.10806 14.0 14
  362.12683 7.0 7
  363.14703 6.0 6
  367.13571 15.0 15
  371.13843 11.0 11
  374.11478 7.0 7
  376.10172 9.0 9
  385.97372 5.0 5
  391.13211 20.0 20
  391.14178 8.0 8
  392.13239 8.0 8
  397.1058 5.0 5
  401.10815 6.0 6
  409.16019 7.0 7
  438.14996 5.0 5
//
