ACCESSION: MSBNK-RIKEN-PR303300
RECORD_TITLE: NP-000062(6); LC-ESI-QTOF; MS2
DATE: 2019.03.28
AUTHORS: Tetsuya Mori, Center for Sustainable Resource Science, RIKEN
LICENSE: CC BY-NC-SA
PUBLICATION: Tsugawa H., Nakabayashi R., Mori T., Yamada Y., Takahashi M., Rai A., Sugiyama R., Yamamoto H., Nakaya T., Yamazaki M., Kooke R., Bac-Molenaar JA., Oztolan-Erol N., Keurentjes JJB., Arita M., Saito K. (2019) "A cheminformatics approach to characterize metabolomes in stable-isotope-labeled organisms" Nature Methods 16(4):295-298. [doi:10.1038/s41592-019-0358-2]
COMMENT: registered in RIKEN PlaSMA
CH$NAME: NP-000062(6)
CH$COMPOUND_CLASS: Flavonoid 8-C-glycosides
CH$FORMULA: C26H28O14
CH$EXACT_MASS: 564.496
CH$SMILES: OC[C@@H]1OC([C@H](O)[C@H]1O)C1=C(O)C(C2O[C@H](CO)[C@@H](O)[C@H](O)[C@H]2O)=C2OC(=CC(=O)C2=C1O)C1=CC=C(O)C=C1
CH$IUPAC: InChI=1S/C26H28O14/c27-6-12-17(31)21(35)23(37)26(40-12)16-20(34)15(25-22(36)18(32)13(7-28)39-25)19(33)14-10(30)5-11(38-24(14)16)8-1-3-9(29)4-2-8/h1-5,12-13,17-18,21-23,25-29,31-37H,6-7H2/t12-,13+,17-,18+,21+,22-,23-,25?,26?/m1/s1
CH$LINK: INCHIKEY DRLZZQRQMWQRLZ-FBMRRHFKSA-N
AC$INSTRUMENT: LC, Waters Acquity UPLC System; MS, Waters Xevo G2 Q-Tof
AC$INSTRUMENT_TYPE: LC-ESI-QTOF
AC$MASS_SPECTROMETRY: MS_TYPE MS2
AC$MASS_SPECTROMETRY: ION_MODE POSITIVE
AC$MASS_SPECTROMETRY: COLLISION_ENERGY 6V
AC$MASS_SPECTROMETRY: DESOLVATION_GAS_FLOW 800/h
AC$MASS_SPECTROMETRY: DESOLVATION_TEMPERATURE 450 C
AC$MASS_SPECTROMETRY: IONIZATION ESI
AC$CHROMATOGRAPHY: CAPILLARY_VOLTAGE +3.00 kV
AC$CHROMATOGRAPHY: COLUMN_NAME Acquity bridged ethyl hybrid C18 (1.7 um, 2.1 mm * 100 mm, Waters)
AC$CHROMATOGRAPHY: COLUMN_TEMPERATURE 40 C
AC$CHROMATOGRAPHY: FLOW_GRADIENT A/B = (99.5%/0.5% at 0 min, 99.5%/0.5% at 0.1 min, 20%/80% at 10 min, 0.5%/99.5% at 10.1 min, 0.5%/99.5% at 12.0 min, 99.5%/0.5% at 12.1 min, 99.5%/0.5% at 15.0 min)
AC$CHROMATOGRAPHY: FLOW_RATE 0.3 ml/min at 0 min, 0.3 ml/min at 10 min, 0.4 ml/min at 10.1 min, 0.4 ml/min at 14.4 min, 0.3 ml/min at 14.5 min
AC$CHROMATOGRAPHY: RETENTION_TIME 3.6386
AC$CHROMATOGRAPHY: SOLVENT A water including 0.1% formic acid
AC$CHROMATOGRAPHY: SOLVENT B acetonitrile including 0.1% formic acid
MS$FOCUSED_ION: PRECURSOR_TYPE [M+H]+
MS$FOCUSED_ION: PRECURSOR_M/Z 565.155182
PK$SPLASH: splash10-004j-0009500000-a61d8192b2487572f810
PK$NUM_PEAK: 338
PK$PEAK: m/z int. rel.int.
  78.9439 5.0 5
  102.39141 5.0 5
  121.02761 8.0 8
  132.05049 7.0 7
  133.69331 7.0 7
  163.03622 9.0 9
  185.38776 7.0 7
  211.42377 7.0 7
  218.80571 7.0 7
  224.31441 7.0 7
  224.32262 10.0 10
  250.38333 8.0 8
  251.29991 5.0 5
  255.04333 6.0 6
  255.07649 9.0 9
  265.05603 7.0 7
  271.9082 5.0 5
  275.97314 7.0 7
  276.51443 17.0 17
  283.0531 6.0 6
  284.05872 5.0 5
  293.06995 6.0 6
  294.04529 15.0 15
  294.06818 13.0 13
  294.10092 12.0 12
  295.02618 6.0 6
  295.05893 240.0 240
  295.30042 7.0 7
  296.03934 6.0 6
  296.06033 6.0 6
  296.08017 17.0 17
  297.00595 7.0 7
  297.07114 14.0 14
  298.08649 6.0 6
  304.77118 11.0 11
  306.99969 7.0 7
  307.03903 21.0 21
  307.05182 87.0 87
  307.06503 134.0 134
  308.04083 7.0 7
  308.061 37.0 37
  308.07507 6.0 6
  308.43945 6.0 6
  309.0715 11.0 11
  310.07794 9.0 9
  310.35522 5.0 5
  313.07812 11.0 11
  314.06891 14.0 14
  316.22903 10.0 10
  317.0593 9.0 9
  319.06332 8.0 8
  319.09793 9.0 9
  321.08026 15.0 15
  322.07187 9.0 9
  322.08609 8.0 8
  323.05539 8.0 8
  324.05835 6.0 6
  324.09045 11.0 11
  324.33713 6.0 6
  324.57788 6.0 6
  324.93756 7.0 7
  325.01248 12.0 12
  325.03769 14.0 14
  325.06903 491.0 491
  325.16818 7.0 7
  326.06787 65.0 65
  326.08588 54.0 54
  326.22415 6.0 6
  326.8092 5.0 5
  327.06827 17.0 17
  327.09561 10.0 10
  329.07037 7.0 7
  331.08698 16.0 16
  333.07297 6.0 6
  335.04968 8.0 8
  335.06955 7.0 7
  335.08209 12.0 12
  335.11124 7.0 7
  336.06708 21.0 21
  337.04318 16.0 16
  337.07159 362.0 362
  338.07001 69.0 69
  338.08139 54.0 54
  339.07877 6.0 6
  339.10132 5.0 5
  340.08112 7.0 7
  345.08096 6.0 6
  347.08292 23.0 23
  347.1015 20.0 20
  348.09708 5.0 5
  349.07385 300.0 300
  350.06189 14.0 14
  350.07715 36.0 36
  350.10767 5.0 5
  351.02847 10.0 10
  351.06839 54.0 54
  351.09985 19.0 19
  352.10629 7.0 7
  353.03125 7.0 7
  353.06818 8.0 8
  353.10547 8.0 8
  355.07007 39.0 39
  355.08774 81.0 81
  355.60071 8.0 8
  356.03787 11.0 11
  356.07983 25.0 25
  356.83743 6.0 6
  358.17163 6.0 6
  358.52023 6.0 6
  360.09708 7.0 7
  360.50943 8.0 8
  361.07233 83.0 83
  362.03345 7.0 7
  362.07227 37.0 37
  363.06335 13.0 13
  363.07523 31.0 31
  363.09088 13.0 13
  365.06418 8.0 8
  365.07651 16.0 16
  365.10236 55.0 55
  366.0752 19.0 19
  366.11072 28.0 28
  366.20319 5.0 5
  367.07205 19.0 19
  367.08478 7.0 7
  367.10712 8.0 8
  368.06836 6.0 6
  368.08783 8.0 8
  373.05936 21.0 21
  373.07794 6.0 6
  374.08212 14.0 14
  375.04141 6.0 6
  375.08524 51.0 51
  375.10556 6.0 6
  376.06152 6.0 6
  376.11011 6.0 6
  377.0564 6.0 6
  377.10867 10.0 10
  377.12698 8.0 8
  377.45258 6.0 6
  379.03699 17.0 17
  379.08093 1000.0 999
  379.34924 5.0 5
  379.86343 7.0 7
  380.03946 7.0 7
  380.08862 250.0 250
  380.86346 6.0 6
  381.02493 10.0 10
  381.07501 20.0 20
  381.08725 22.0 22
  382.09213 15.0 15
  382.11823 7.0 7
  383.05267 7.0 7
  383.07077 6.0 6
  384.68967 6.0 6
  385.07343 36.0 36
  385.09409 5.0 5
  386.08237 7.0 7
  387.09668 25.0 25
  389.05234 17.0 17
  389.09796 15.0 15
  390.12589 13.0 13
  391.08453 231.0 231
  392.07413 21.0 21
  392.09506 36.0 36
  392.11523 8.0 8
  393.0527 6.0 6
  393.07867 46.0 46
  393.10373 8.0 8
  395.03067 6.0 6
  396.07834 5.0 5
  397.03897 7.0 7
  397.09033 621.0 620
  397.12607 7.0 7
  397.31506 5.0 5
  398.07074 34.0 34
  398.09668 74.0 74
  398.11252 17.0 17
  399.08151 24.0 24
  399.11743 11.0 11
  400.07806 11.0 11
  400.09753 12.0 12
  401.10446 12.0 12
  401.11963 5.0 5
  402.08929 6.0 6
  402.11102 6.0 6
  403.03128 5.0 5
  403.05447 19.0 19
  403.08173 171.0 171
  403.27472 10.0 10
  404.07971 33.0 33
  404.09583 63.0 63
  405.04449 5.0 5
  405.08417 50.0 50
  405.0993 13.0 13
  405.18921 10.0 10
  406.0965 9.0 9
  406.12466 8.0 8
  406.31528 6.0 6
  407.09698 7.0 7
  407.97668 7.0 7
  409.026 9.0 9
  409.0892 186.0 186
  410.09671 50.0 50
  410.11771 5.0 5
  411.07602 10.0 10
  411.09885 12.0 12
  411.18753 5.0 5
  412.10602 13.0 13
  412.20844 6.0 6
  412.33023 6.0 6
  412.93411 5.0 5
  414.06366 5.0 5
  415.06876 28.0 28
  415.09048 66.0 66
  416.09103 6.0 6
  416.10516 7.0 7
  417.08652 32.0 32
  417.10455 22.0 22
  418.09998 8.0 8
  418.11166 8.0 8
  418.12616 6.0 6
  419.08554 16.0 16
  419.10492 18.0 18
  419.12711 11.0 11
  420.11563 23.0 23
  420.97614 7.0 7
  421.03476 9.0 9
  421.06512 12.0 12
  421.09045 140.0 140
  421.12503 8.0 8
  421.47104 7.0 7
  422.07648 12.0 12
  422.11978 8.0 8
  423.11191 6.0 6
  425.09406 7.0 7
  427.07382 29.0 29
  427.09525 124.0 124
  427.11346 47.0 47
  428.07437 21.0 21
  428.10333 21.0 21
  428.25784 5.0 5
  429.09442 23.0 23
  429.11829 7.0 7
  432.974 6.0 6
  433.01151 9.0 9
  433.07675 79.0 79
  433.091 122.0 122
  433.10785 135.0 135
  433.13049 6.0 6
  433.99817 7.0 7
  434.05338 5.0 5
  434.08737 46.0 46
  434.10428 51.0 51
  435.11063 19.0 19
  437.10077 14.0 14
  437.12039 16.0 16
  437.13757 8.0 8
  438.10593 7.0 7
  438.1243 6.0 6
  439.08112 21.0 21
  439.10358 104.0 104
  439.14862 5.0 5
  440.02032 8.0 8
  440.10416 46.0 46
  440.13242 6.0 6
  445.0798 31.0 31
  445.09866 107.0 107
  445.12335 11.0 11
  445.93353 6.0 6
  446.06461 10.0 10
  446.07693 6.0 6
  446.11017 45.0 45
  446.21246 7.0 7
  446.80334 8.0 8
  447.07068 7.0 7
  447.11215 31.0 31
  448.09396 8.0 8
  448.11411 11.0 11
  451.07947 21.0 21
  451.10669 133.0 133
  451.13348 13.0 13
  451.45648 5.0 5
  452.021 8.0 8
  452.08453 15.0 15
  452.10281 47.0 47
  452.1149 16.0 16
  453.13037 12.0 12
  453.70331 5.0 5
  457.07309 21.0 21
  457.08786 73.0 73
  457.10495 101.0 101
  457.13397 10.0 10
  458.07501 9.0 9
  458.09451 30.0 30
  458.1123 19.0 19
  459.10693 12.0 12
  462.94318 6.0 6
  462.9863 6.0 6
  463.08588 23.0 23
  463.92157 6.0 6
  464.06549 9.0 9
  465.09137 7.0 7
  469.08908 34.0 34
  469.11676 58.0 58
  469.13507 16.0 16
  469.17355 5.0 5
  470.11224 40.0 40
  471.11963 6.0 6
  471.13324 5.0 5
  475.05524 8.0 8
  475.08182 18.0 18
  475.10806 48.0 48
  476.06842 7.0 7
  476.08856 7.0 7
  476.11752 5.0 5
  478.29578 8.0 8
  481.10837 53.0 53
  482.12476 15.0 15
  493.05237 8.0 8
  493.1098 184.0 184
  494.05832 8.0 8
  494.11795 49.0 49
  495.13193 5.0 5
  499.08286 6.0 6
  499.80695 6.0 6
  511.10321 28.0 28
  511.13007 72.0 72
  511.25516 9.0 9
  512.04773 9.0 9
  512.1347 22.0 22
  519.60455 7.0 7
  529.12897 49.0 49
  529.15906 14.0 14
  529.1814 6.0 6
  530.13763 8.0 8
  530.15967 5.0 5
  547.16101 5.0 5
//
