ACCESSION: MSBNK-RIKEN-PR100646
RECORD_TITLE: Quercetin; LC-ESI-QTOF; MS2; CE:Ramp 5-60 V; [M-H]-
DATE: 2016.01.19 (Created 2010.06.21, modified 2011.05.06)
AUTHORS: Matsuda F, Suzuki M, Sawada Y, Plant Science Center, RIKEN.
LICENSE: CC BY-SA
COMMENT: Acquisition and generation of the data is financially supported in part by CREST/JST.
CH$NAME: Quercetin
CH$NAME: Quer
CH$NAME: 3,3',4',5,7-pentahydroxyflavone
CH$NAME: Flavin meletin
CH$NAME: Kvercetin
CH$NAME: Meletin
CH$NAME: Quercetol
CH$NAME: Quercetine
CH$NAME: Quertine
CH$NAME: Quercitin
CH$NAME: Sophoretin
CH$NAME: Xanthaurine
CH$NAME: 3',4',5,7-Tetrahydroxyflavan-3-ol
CH$NAME: 2-(3,4-Dihydroxyphenyl)-3,5,7-trihydroxy-4H-1-benzopyran-4-one
CH$COMPOUND_CLASS: Flavonoid
CH$FORMULA: C15H10O7
CH$EXACT_MASS: 302.04265
CH$SMILES: Oc(c3)c(O)cc(c3)C(O1)=C(O)C(=O)c(c(O)2)c(cc(O)c2)1
CH$IUPAC: InChI=1S/C15H10O7/c16-7-4-10(19)12-11(5-7)22-15(14(21)13(12)20)6-1-2-8(17)9(18)3-6/h1-5,16-19,21H
CH$LINK: CAS 117-39-5
CH$LINK: CHEMSPIDER 4444051
CH$LINK: KAPPAVIEW KPC00937
CH$LINK: KEGG C00389
CH$LINK: KNAPSACK C00004631
CH$LINK: PUBCHEM CID:5280343
CH$LINK: INCHIKEY REFJWTPEDVJJIY-UHFFFAOYSA-N
CH$LINK: COMPTOX DTXSID4021218
AC$INSTRUMENT: UPLC Q-Tof Premier, Waters
AC$INSTRUMENT_TYPE: LC-ESI-QTOF
AC$MASS_SPECTROMETRY: MS_TYPE MS2
AC$MASS_SPECTROMETRY: ION_MODE NEGATIVE
AC$MASS_SPECTROMETRY: COLLISION_ENERGY Ramp 5-60 V
AC$MASS_SPECTROMETRY: DATAFORMAT Continuum
AC$MASS_SPECTROMETRY: DESOLVATION_GAS_FLOW 600.0 L/Hr
AC$MASS_SPECTROMETRY: DESOLVATION_TEMPERATURE 400 C
AC$MASS_SPECTROMETRY: FRAGMENTATION_METHOD LOW-ENERGY CID
AC$MASS_SPECTROMETRY: IONIZATION ESI
AC$MASS_SPECTROMETRY: SOURCE_TEMPERATURE 120 C
AC$CHROMATOGRAPHY: CAPILLARY_VOLTAGE 3.0 kV
AC$CHROMATOGRAPHY: SAMPLING_CONE 23.0 V
AC$CHROMATOGRAPHY: SOLVENT A CH3CN(0.1%HCOOH)
AC$CHROMATOGRAPHY: SOLVENT B H2O(0.1%HCOOH)
MS$FOCUSED_ION: PRECURSOR_M/Z 301.03485
MS$FOCUSED_ION: PRECURSOR_TYPE [M-H]-
PK$SPLASH: splash10-0udi-1907000000-a59602c09f66e9656068
PK$NUM_PEAK: 11
PK$PEAK: m/z int. rel.int.
  65.0050 11.68 114
  83.0142 9.651 94
  107.0138 23.12 225
  121.0301 17.18 167
  149.0228 6.274 61
  151.0036 54.04 526
  160.8948 5.932 58
  178.9990 24.47 238
  282.9939 5.377 52
  300.7850 6.334 62
  301.0349 102.7 999
//
