ACCESSION: MSBNK-RIKEN-PR300706
RECORD_TITLE: Vincanidine; LC-ESI-QTOF; MS2
DATE: 2019.03.28
AUTHORS: Tetsuya Mori, Center for Sustainable Resource Science, RIKEN
LICENSE: CC BY-NC-SA
PUBLICATION: Tsugawa H., Nakabayashi R., Mori T., Yamada Y., Takahashi M., Rai A., Sugiyama R., Yamamoto H., Nakaya T., Yamazaki M., Kooke R., Bac-Molenaar JA., Oztolan-Erol N., Keurentjes JJB., Arita M., Saito K. (2019) "A cheminformatics approach to characterize metabolomes in stable-isotope-labeled organisms" Nature Methods 16(4):295-298. [doi:10.1038/s41592-019-0358-2]
COMMENT: registered in RIKEN PlaSMA
CH$NAME: Vincanidine
CH$COMPOUND_CLASS: Strychnos alkaloids
CH$FORMULA: C19H20N2O2
CH$EXACT_MASS: 308.381
CH$SMILES: C\C=C1\CN2CC[C@@]34[C@@H]2C[C@@H]1C(C=O)=C3NC1=C4C=CC=C1O
CH$IUPAC: InChI=1S/C19H20N2O2/c1-2-11-9-21-7-6-19-14-4-3-5-15(23)17(14)20-18(19)13(10-22)12(11)8-16(19)21/h2-5,10,12,16,20,23H,6-9H2,1H3/b11-2-/t12-,16-,19+/m0/s1
CH$LINK: INCHIKEY JDOFCMASVRMYJU-JYTRXFNOSA-N
AC$INSTRUMENT: LC, Waters Acquity UPLC System; MS, Waters Xevo G2 Q-Tof
AC$INSTRUMENT_TYPE: LC-ESI-QTOF
AC$MASS_SPECTROMETRY: MS_TYPE MS2
AC$MASS_SPECTROMETRY: ION_MODE POSITIVE
AC$MASS_SPECTROMETRY: COLLISION_ENERGY 6V
AC$MASS_SPECTROMETRY: DESOLVATION_GAS_FLOW 800/h
AC$MASS_SPECTROMETRY: DESOLVATION_TEMPERATURE 450 C
AC$MASS_SPECTROMETRY: IONIZATION ESI
AC$CHROMATOGRAPHY: CAPILLARY_VOLTAGE +3.00 kV
AC$CHROMATOGRAPHY: COLUMN_NAME Acquity bridged ethyl hybrid C18 (1.7 um, 2.1 mm * 100 mm, Waters)
AC$CHROMATOGRAPHY: COLUMN_TEMPERATURE 40 C
AC$CHROMATOGRAPHY: FLOW_GRADIENT A/B = (99.5%/0.5% at 0 min, 99.5%/0.5% at 0.1 min, 20%/80% at 10 min, 0.5%/99.5% at 10.1 min, 0.5%/99.5% at 12.0 min, 99.5%/0.5% at 12.1 min, 99.5%/0.5% at 15.0 min)
AC$CHROMATOGRAPHY: FLOW_RATE 0.3 ml/min at 0 min, 0.3 ml/min at 10 min, 0.4 ml/min at 10.1 min, 0.4 ml/min at 14.4 min, 0.3 ml/min at 14.5 min
AC$CHROMATOGRAPHY: RETENTION_TIME 3.37885
AC$CHROMATOGRAPHY: SOLVENT A water including 0.1% formic acid
AC$CHROMATOGRAPHY: SOLVENT B acetonitrile including 0.1% formic acid
MS$FOCUSED_ION: PRECURSOR_TYPE [M+H]+
MS$FOCUSED_ION: PRECURSOR_M/Z 309.1597543
PK$SPLASH: splash10-0080-0590000000-da6ea0053df58cac2fbe
PK$NUM_PEAK: 349
PK$PEAK: m/z int. rel.int.
  79.05964 33.0 33
  80.05629 24.0 24
  81.07089 50.0 50
  92.05196 41.0 41
  92.05757 25.0 25
  93.07383 113.0 113
  94.06535 90.0 90
  98.09773 50.0 50
  105.06754 51.0 51
  106.0584 49.0 49
  107.04469 25.0 25
  107.08769 32.0 32
  108.07389 42.0 42
  108.08409 28.0 28
  109.05046 69.0 69
  109.06367 125.0 125
  118.07031 29.0 29
  119.05794 43.0 43
  119.07587 37.0 37
  119.09456 25.0 25
  120.08393 37.0 37
  121.06639 33.0 33
  122.09489 63.0 63
  122.70551 28.0 28
  129.07167 25.0 25
  130.04445 36.0 36
  131.06512 24.0 24
  131.07864 22.0 22
  132.05276 33.0 33
  133.05186 83.0 83
  134.05351 28.0 28
  134.09192 28.0 28
  135.08403 42.0 42
  137.78694 24.0 24
  140.05405 24.0 24
  143.07008 33.0 33
  144.0542 22.0 22
  145.05841 38.0 38
  146.05588 170.0 170
  146.06473 167.0 167
  147.06473 250.0 250
  147.11319 42.0 42
  147.49803 25.0 25
  148.06248 32.0 32
  148.06778 95.0 95
  148.07777 47.0 47
  150.09172 84.0 84
  151.05701 34.0 34
  151.6953 22.0 22
  154.06642 36.0 36
  154.32248 25.0 25
  156.07515 124.0 124
  156.08394 76.0 76
  157.06686 61.0 61
  158.09732 22.0 22
  159.05902 72.0 72
  159.06665 142.0 142
  159.07265 47.0 47
  160.056 50.0 50
  160.07817 578.0 577
  162.09219 61.0 61
  163.06395 42.0 42
  163.10182 45.0 45
  166.06596 186.0 186
  167.07301 26.0 26
  167.08223 40.0 40
  167.09029 58.0 58
  168.07948 33.0 33
  169.08513 26.0 26
  169.9373 34.0 34
  170.04652 70.0 70
  170.06104 208.0 208
  171.06808 84.0 84
  171.11334 26.0 26
  172.04546 28.0 28
  172.06178 43.0 43
  172.07678 256.0 256
  172.0882 26.0 26
  173.06978 30.0 30
  173.08383 22.0 22
  174.04735 51.0 51
  174.08745 282.0 282
  174.09763 47.0 47
  175.05457 22.0 22
  175.1024 33.0 33
  176.09357 29.0 29
  179.0582 53.0 53
  179.08162 28.0 28
  179.09746 36.0 36
  180.0791 70.0 70
  181.08255 58.0 58
  181.10005 30.0 30
  182.05948 28.0 28
  182.07625 41.0 41
  183.06616 514.0 513
  184.05156 26.0 26
  184.07672 1000.0 999
  184.12837 47.0 47
  185.05194 58.0 58
  185.06781 213.0 213
  185.07722 126.0 126
  185.08636 129.0 129
  186.05496 211.0 211
  186.08119 132.0 132
  186.09622 29.0 29
  187.03548 33.0 33
  187.06476 34.0 34
  187.07654 146.0 146
  187.08636 369.0 369
  187.09689 138.0 138
  188.06369 26.0 26
  188.08838 144.0 144
  190.05569 22.0 22
  191.06691 28.0 28
  193.09694 69.0 69
  193.10648 30.0 30
  194.06546 54.0 54
  194.10039 61.0 61
  195.09358 29.0 29
  195.10788 38.0 38
  195.39885 59.0 59
  196.07698 523.0 522
  196.10405 47.0 47
  197.07486 212.0 212
  197.08342 194.0 194
  197.09251 67.0 67
  198.05093 34.0 34
  198.06151 37.0 37
  198.07399 137.0 137
  198.09576 277.0 277
  198.12283 45.0 45
  199.05649 70.0 70
  199.06929 125.0 125
  199.08965 109.0 109
  199.10986 76.0 76
  199.13495 22.0 22
  199.41158 28.0 28
  199.91479 24.0 24
  200.07042 47.0 47
  200.08049 25.0 25
  200.10016 182.0 182
  200.61066 25.0 25
  202.05055 40.0 40
  202.06908 145.0 145
  202.08215 72.0 72
  202.09334 319.0 319
  204.08571 36.0 36
  205.09868 72.0 72
  206.0994 150.0 150
  206.11371 28.0 28
  207.0609 25.0 25
  207.07729 101.0 101
  207.09343 26.0 26
  207.12491 36.0 36
  208.07654 124.0 124
  209.0472 25.0 25
  209.07713 94.0 94
  209.08606 84.0 84
  210.08211 132.0 132
  210.0947 244.0 244
  210.10555 97.0 97
  211.03696 22.0 22
  211.08041 198.0 198
  211.10793 142.0 142
  212.06906 166.0 166
  212.09692 204.0 204
  212.10893 37.0 37
  213.07181 59.0 59
  213.07835 103.0 103
  213.10966 26.0 26
  214.09813 29.0 29
  214.10703 30.0 30
  214.11597 36.0 36
  214.12621 26.0 26
  215.04523 57.0 57
  215.08206 402.0 402
  215.22829 22.0 22
  215.94116 24.0 24
  216.0849 28.0 28
  218.08932 43.0 43
  218.10037 94.0 94
  219.09027 69.0 69
  219.11049 119.0 119
  220.07368 149.0 149
  220.10056 37.0 37
  221.06784 194.0 194
  221.0849 410.0 410
  221.12471 26.0 26
  222.08144 105.0 105
  222.09352 344.0 344
  223.09131 402.0 402
  223.1021 187.0 187
  224.04346 55.0 55
  224.08044 25.0 25
  224.10033 325.0 325
  224.117 119.0 119
  224.14775 46.0 46
  225.06798 90.0 90
  225.078 38.0 38
  225.10649 212.0 212
  225.11794 82.0 82
  225.47324 25.0 25
  226.07304 41.0 41
  226.0939 32.0 32
  226.11943 267.0 267
  226.18817 38.0 38
  227.11708 82.0 82
  228.08521 111.0 111
  228.10487 29.0 29
  228.11758 38.0 38
  228.57178 22.0 22
  229.10875 32.0 32
  230.09599 87.0 87
  230.10536 28.0 28
  233.08701 387.0 387
  234.07022 58.0 58
  234.09299 208.0 208
  234.11124 38.0 38
  234.13007 22.0 22
  235.08052 161.0 161
  235.09869 319.0 319
  235.112 74.0 74
  236.05023 22.0 22
  236.10001 240.0 240
  236.11255 580.0 579
  236.13852 36.0 36
  237.0735 134.0 134
  237.09044 26.0 26
  237.10759 588.0 587
  237.12355 100.0 100
  238.05424 88.0 88
  238.08679 38.0 38
  238.12163 443.0 443
  239.08745 30.0 30
  239.11005 145.0 145
  239.13017 170.0 170
  240.08521 30.0 30
  240.09476 22.0 22
  240.12364 61.0 61
  241.985 22.0 22
  242.09256 47.0 47
  242.13022 45.0 45
  243.13242 32.0 32
  246.06671 28.0 28
  246.09297 115.0 115
  246.13141 75.0 75
  247.09311 88.0 88
  247.10458 32.0 32
  247.12163 54.0 54
  247.93454 46.0 46
  248.07014 30.0 30
  248.08418 29.0 29
  248.09653 69.0 69
  248.11072 298.0 298
  248.12328 76.0 76
  248.32542 22.0 22
  248.38249 36.0 36
  249.10649 101.0 101
  249.12302 37.0 37
  250.09238 72.0 72
  250.11525 161.0 161
  251.09396 183.0 183
  251.11317 97.0 97
  251.12904 123.0 123
  251.1483 22.0 22
  251.16039 28.0 28
  252.07341 54.0 54
  252.09271 22.0 22
  252.10445 40.0 40
  252.13264 217.0 217
  252.15088 111.0 111
  253.0648 51.0 51
  253.1028 37.0 37
  253.11177 41.0 41
  253.12144 62.0 62
  253.13803 26.0 26
  254.10938 59.0 59
  254.12012 174.0 174
  254.1299 103.0 103
  254.14566 32.0 32
  255.11427 140.0 140
  255.12257 123.0 123
  256.11658 58.0 58
  256.13748 25.0 25
  257.75784 22.0 22
  259.09821 105.0 105
  260.09274 36.0 36
  261.11075 71.0 71
  261.13245 30.0 30
  262.07504 26.0 26
  262.11194 158.0 158
  262.12851 30.0 30
  263.09744 36.0 36
  263.11707 75.0 75
  263.13141 144.0 144
  263.15717 41.0 41
  263.95142 28.0 28
  264.07587 26.0 26
  264.08969 37.0 37
  264.12219 92.0 92
  264.13889 199.0 199
  264.15384 26.0 26
  265.0903 24.0 24
  265.10294 40.0 40
  265.11816 88.0 88
  265.1293 22.0 22
  265.14468 57.0 57
  266.04337 46.0 46
  266.09271 34.0 34
  266.11661 202.0 202
  266.12982 49.0 49
  266.14703 163.0 163
  267.10529 25.0 25
  267.12375 170.0 170
  267.13995 65.0 65
  268.12634 70.0 70
  268.14838 34.0 34
  269.42648 37.0 37
  270.09686 29.0 29
  274.10889 79.0 79
  274.1347 87.0 87
  275.10968 45.0 45
  275.12024 49.0 49
  276.11243 45.0 45
  277.11249 53.0 53
  278.14026 95.0 95
  279.11963 37.0 37
  279.14905 87.0 87
  279.16327 24.0 24
  280.13248 45.0 45
  280.16412 69.0 69
  280.17633 21.0 21
  281.10593 58.0 58
  281.13327 50.0 50
  281.15921 82.0 82
  281.17004 219.0 219
  282.13669 33.0 33
  282.16022 22.0 22
  282.17316 24.0 24
  291.14536 129.0 129
  291.15872 29.0 29
  292.11493 30.0 30
  292.14813 38.0 38
  294.29382 40.0 40
  308.87143 50.0 50
  309.12369 33.0 33
  309.15067 128.0 128
  309.16141 287.0 287
  309.17142 207.0 207
//
