ACCESSION: MSBNK-RIKEN-PR020111
RECORD_TITLE: trans-Zeatin-7-glucoside; LC-ESI-QQ; MS2; CE:20.0 eV; [M+H]+
DATE: 2016.01.19 (Created 2007.12.03, modified 2011.05.06)
AUTHORS: Kojima M, Sakakibara H, Plant Science Center, RIKEN.
LICENSE: CC BY-SA
CH$NAME: trans-Zeatin-7-glucoside
CH$NAME: Raphanatin
CH$NAME: 7-beta-D-Glucopyranosylzeatin
CH$NAME: 2-Buten-1-ol, 4-((7-beta-D-glucopyranosyl-7H-purin-6-yl)amino)-2-methyl-, (E)-
CH$COMPOUND_CLASS: N/A
CH$FORMULA: C16H23N5O6
CH$EXACT_MASS: 381.16483
CH$SMILES: C/C(=C\CNC1=NC=NC2=C1N(C=N2)[C@H]3[C@@H]([C@H]([C@@H]([C@H](O3)CO)O)O)O)/CO
CH$IUPAC: InChI=1S/C16H23N5O6/c1-8(4-22)2-3-17-14-10-15(19-6-18-14)20-7-21(10)16-13(26)12(25)11(24)9(5-23)27-16/h2,6-7,9,11-13,16,22-26H,3-5H2,1H3,(H,17,18,19)/b8-2+/t9-,11-,12+,13-,16-/m1/s1
CH$LINK: CAS 38165-56-9
CH$LINK: PUBCHEM CID:6450275
CH$LINK: INCHIKEY HTDHRCLVWUEXIS-HNVSNYHQSA-N
AC$INSTRUMENT: UPLC Waters, Quattro Ultima Pt Micromass
AC$INSTRUMENT_TYPE: LC-ESI-QQ
AC$MASS_SPECTROMETRY: MS_TYPE MS2
AC$MASS_SPECTROMETRY: ION_MODE POSITIVE
AC$MASS_SPECTROMETRY: COLLISION_ENERGY 20.0 eV
AC$MASS_SPECTROMETRY: DATAFORMAT Centroid
AC$MASS_SPECTROMETRY: DESOLVATION_GAS_FLOW 565 L/Hr
AC$MASS_SPECTROMETRY: DESOLVATION_TEMPERATURE 400 C
AC$MASS_SPECTROMETRY: FRAGMENTATION_MODE LOW-ENERGY CID
AC$MASS_SPECTROMETRY: IONIZATION ESI
AC$MASS_SPECTROMETRY: SCANNING 0.2 sec/scan (m/z=50-500)
AC$MASS_SPECTROMETRY: SOURCE_TEMPERATURE 140 C
AC$CHROMATOGRAPHY: CAPILLARY_VOLTAGE 3.1 kV
AC$CHROMATOGRAPHY: COLUMN_NAME ACQUITY UPLC BEH C18 2.1 by 50 mm (Waters, Milford, MA, USA)
AC$CHROMATOGRAPHY: COLUMN_TEMPERATURE 40 C
AC$CHROMATOGRAPHY: FLOW_GRADIENT 0.1/99.9 at 0 min, 9.0/91.0 at 2 min, 12.5/87.5 at 7 min, 30/70 at 10 min, 50/50 at 12 min, 50/50 at 13 min, 99.9/0.1 at 15 min
AC$CHROMATOGRAPHY: FLOW_RATE 0.25 ml/min
AC$CHROMATOGRAPHY: RETENTION_TIME 4.95 min
AC$CHROMATOGRAPHY: SAMPLING_CONE 53 V
AC$CHROMATOGRAPHY: SOLVENT A CH3CN(0.05% HCOOH)
AC$CHROMATOGRAPHY: SOLVENT B HCOOH(0.05% CH3CN)
MS$FOCUSED_ION: FULL_SCAN_FRAGMENT_ION_PEAK 381
MS$FOCUSED_ION: PRECURSOR_M/Z 382
MS$FOCUSED_ION: PRECURSOR_TYPE [M+H]+
MS$DATA_PROCESSING: WHOLE MassLynx 4.0
PK$SPLASH: splash10-014i-0090000000-1840e64e915b680979e3
PK$NUM_PEAK: 7
PK$PEAK: m/z int. rel.int.
  135.942 296900 100
  201.828 104500 35
  219.424 49280 17
  219.963 2975000 999
  220.567 74050 25
  381.743 166000 56
  382.524 103400 35
//
