ACCESSION: MSBNK-RIKEN-PR306097
RECORD_TITLE: Okanin-4'-O-glucoside; LC-ESI-QTOF; MS2
DATE: 2019.03.28
AUTHORS: Tetsuya Mori, Center for Sustainable Resource Science, RIKEN
LICENSE: CC BY-NC-SA
PUBLICATION: Tsugawa H., Nakabayashi R., Mori T., Yamada Y., Takahashi M., Rai A., Sugiyama R., Yamamoto H., Nakaya T., Yamazaki M., Kooke R., Bac-Molenaar JA., Oztolan-Erol N., Keurentjes JJB., Arita M., Saito K. (2019) "A cheminformatics approach to characterize metabolomes in stable-isotope-labeled organisms" Nature Methods 16(4):295-298. [doi:10.1038/s41592-019-0358-2]
COMMENT: registered in RIKEN PlaSMA
CH$NAME: Okanin-4'-O-glucoside
CH$COMPOUND_CLASS: Flavonoid O-glycosides
CH$FORMULA: C21H22O11
CH$EXACT_MASS: 450.396
CH$SMILES: OCC1OC(OC2=C(O)C(O)=C(C=C2)C(=O)C=CC2=CC(O)=C(O)C=C2)C(O)C(O)C1O
CH$IUPAC: InChI=1S/C21H22O11/c22-8-15-18(28)19(29)20(30)21(32-15)31-14-6-3-10(16(26)17(14)27)11(23)4-1-9-2-5-12(24)13(25)7-9/h1-7,15,18-22,24-30H,8H2
CH$LINK: INCHIKEY XGEYXJDOVMEJNG-UHFFFAOYSA-N
AC$INSTRUMENT: LC, Waters Acquity UPLC System; MS, Waters Xevo G2 Q-Tof
AC$INSTRUMENT_TYPE: LC-ESI-QTOF
AC$MASS_SPECTROMETRY: MS_TYPE MS2
AC$MASS_SPECTROMETRY: ION_MODE NEGATIVE
AC$MASS_SPECTROMETRY: COLLISION_ENERGY 6V
AC$MASS_SPECTROMETRY: DESOLVATION_GAS_FLOW 800/h
AC$MASS_SPECTROMETRY: DESOLVATION_TEMPERATURE 450 C
AC$MASS_SPECTROMETRY: IONIZATION ESI
AC$CHROMATOGRAPHY: CAPILLARY_VOLTAGE -2.75 kV
AC$CHROMATOGRAPHY: COLUMN_NAME Acquity bridged ethyl hybrid C18 (1.7 um, 2.1 mm * 100 mm, Waters)
AC$CHROMATOGRAPHY: COLUMN_TEMPERATURE 40 C
AC$CHROMATOGRAPHY: FLOW_GRADIENT A/B = (99.5%/0.5% at 0 min, 99.5%/0.5% at 0.1 min, 20%/80% at 10 min, 0.5%/99.5% at 10.1 min, 0.5%/99.5% at 12.0 min, 99.5%/0.5% at 12.1 min, 99.5%/0.5% at 15.0 min)
AC$CHROMATOGRAPHY: FLOW_RATE 0.3 ml/min at 0 min, 0.3 ml/min at 10 min, 0.4 ml/min at 10.1 min, 0.4 ml/min at 14.4 min, 0.3 ml/min at 14.5 min
AC$CHROMATOGRAPHY: RETENTION_TIME 4.082684
AC$CHROMATOGRAPHY: SOLVENT A water including 0.1% formic acid
AC$CHROMATOGRAPHY: SOLVENT B acetonitrile including 0.1% formic acid
MS$FOCUSED_ION: PRECURSOR_TYPE [M-H]-
MS$FOCUSED_ION: PRECURSOR_M/Z 449.10893504783
PK$SPLASH: splash10-000i-0900000000-32f180183842d5cf5cf8
PK$NUM_PEAK: 17
PK$PEAK: m/z int. rel.int.
  58.93751 6.0 6
  79.05248 13.0 13
  94.00706 9.0 9
  95.01451 21.0 21
  107.01214 47.0 47
  108.0243 16.0 16
  117.03364 9.0 9
  123.00769 99.0 99
  134.03542 66.0 66
  135.0437 1000.0 999
  136.04675 85.0 85
  137.02354 11.0 11
  151.00009 65.0 65
  171.04567 9.0 9
  187.03024 7.0 7
  211.03647 8.0 8
  213.04671 6.0 6
//
