ACCESSION: MSBNK-RIKEN-PR303350
RECORD_TITLE: NP-000002(10); LC-ESI-QTOF; MS2
DATE: 2019.03.28
AUTHORS: Tetsuya Mori, Center for Sustainable Resource Science, RIKEN
LICENSE: CC BY-NC-SA
PUBLICATION: Tsugawa H., Nakabayashi R., Mori T., Yamada Y., Takahashi M., Rai A., Sugiyama R., Yamamoto H., Nakaya T., Yamazaki M., Kooke R., Bac-Molenaar JA., Oztolan-Erol N., Keurentjes JJB., Arita M., Saito K. (2019) "A cheminformatics approach to characterize metabolomes in stable-isotope-labeled organisms" Nature Methods 16(4):295-298. [doi:10.1038/s41592-019-0358-2]
COMMENT: registered in RIKEN PlaSMA
CH$NAME: NP-000002(10)
CH$COMPOUND_CLASS: Flavonoid 8-C-glycosides
CH$FORMULA: C27H30O15
CH$EXACT_MASS: 594.522
CH$SMILES: OCC1OC(C(O)C(O)C1O)C1=C(O)C(C2OC(CO)C(O)C(O)C2O)=C2OC(=CC(=O)C2=C1O)C1=CC=C(O)C=C1
CH$IUPAC: InChI=1S/C27H30O15/c28-6-12-17(32)21(36)23(38)26(41-12)15-19(34)14-10(31)5-11(8-1-3-9(30)4-2-8)40-25(14)16(20(15)35)27-24(39)22(37)18(33)13(7-29)42-27/h1-5,12-13,17-18,21-24,26-30,32-39H,6-7H2
CH$LINK: INCHIKEY FIAAVMJLAGNUKW-UHFFFAOYSA-N
AC$INSTRUMENT: LC, Waters Acquity UPLC System; MS, Waters Xevo G2 Q-Tof
AC$INSTRUMENT_TYPE: LC-ESI-QTOF
AC$MASS_SPECTROMETRY: MS_TYPE MS2
AC$MASS_SPECTROMETRY: ION_MODE POSITIVE
AC$MASS_SPECTROMETRY: COLLISION_ENERGY 6V
AC$MASS_SPECTROMETRY: DESOLVATION_GAS_FLOW 800/h
AC$MASS_SPECTROMETRY: DESOLVATION_TEMPERATURE 450 C
AC$MASS_SPECTROMETRY: IONIZATION ESI
AC$CHROMATOGRAPHY: CAPILLARY_VOLTAGE +3.00 kV
AC$CHROMATOGRAPHY: COLUMN_NAME Acquity bridged ethyl hybrid C18 (1.7 um, 2.1 mm * 100 mm, Waters)
AC$CHROMATOGRAPHY: COLUMN_TEMPERATURE 40 C
AC$CHROMATOGRAPHY: FLOW_GRADIENT A/B = (99.5%/0.5% at 0 min, 99.5%/0.5% at 0.1 min, 20%/80% at 10 min, 0.5%/99.5% at 10.1 min, 0.5%/99.5% at 12.0 min, 99.5%/0.5% at 12.1 min, 99.5%/0.5% at 15.0 min)
AC$CHROMATOGRAPHY: FLOW_RATE 0.3 ml/min at 0 min, 0.3 ml/min at 10 min, 0.4 ml/min at 10.1 min, 0.4 ml/min at 14.4 min, 0.3 ml/min at 14.5 min
AC$CHROMATOGRAPHY: RETENTION_TIME 3.302967
AC$CHROMATOGRAPHY: SOLVENT A water including 0.1% formic acid
AC$CHROMATOGRAPHY: SOLVENT B acetonitrile including 0.1% formic acid
MS$FOCUSED_ION: PRECURSOR_TYPE [M+H]+
MS$FOCUSED_ION: PRECURSOR_M/Z 595.1657467
PK$SPLASH: splash10-0adj-0049000000-3103866ff0a455c00a25
PK$NUM_PEAK: 226
PK$PEAK: m/z int. rel.int.
  52.21961 21.0 21
  81.03037 29.0 29
  93.03428 28.0 28
  106.62831 50.0 50
  119.0448 44.0 44
  121.02858 82.0 82
  122.03465 30.0 30
  139.57922 37.0 37
  145.02951 40.0 40
  146.06149 29.0 29
  147.04361 33.0 33
  159.03854 22.0 22
  159.08006 48.0 48
  161.0217 28.0 28
  161.03113 28.0 28
  163.07574 32.0 32
  175.04495 22.0 22
  177.01315 28.0 28
  177.02414 44.0 44
  183.0385 27.0 27
  186.03123 24.0 24
  189.02534 28.0 28
  189.04385 37.0 37
  191.03383 46.0 46
  193.85826 27.0 27
  197.02428 40.0 40
  197.04498 24.0 24
  198.07115 26.0 26
  199.04588 27.0 27
  201.02365 104.0 104
  202.02278 48.0 48
  203.03351 170.0 170
  203.04489 67.0 67
  203.07352 51.0 51
  204.04291 69.0 69
  205.02905 30.0 30
  207.02753 52.0 52
  211.03479 30.0 30
  211.69954 27.0 27
  214.0239 26.0 26
  215.03893 70.0 70
  215.07098 24.0 24
  219.01849 42.0 42
  219.0361 20.0 20
  226.95059 19.0 19
  227.03917 37.0 37
  229.04482 82.0 82
  231.05635 22.0 22
  233.03363 20.0 20
  235.58325 20.0 20
  239.04056 49.0 49
  241.0121 34.0 34
  241.05795 47.0 47
  244.03297 33.0 33
  245.03983 71.0 71
  247.06248 31.0 31
  251.05937 42.0 42
  251.0732 29.0 29
  253.03191 31.0 31
  255.03273 44.0 44
  255.08018 31.0 31
  257.04971 20.0 20
  257.08078 20.0 20
  263.06454 37.0 37
  265.04996 26.0 26
  267.03186 65.0 65
  267.07233 26.0 26
  268.07956 20.0 20
  269.06195 39.0 39
  272.07053 26.0 26
  273.10492 27.0 27
  279.05295 46.0 46
  279.08173 19.0 19
  280.02512 20.0 20
  281.04355 101.0 101
  281.07468 28.0 28
  282.04071 29.0 29
  282.06958 20.0 20
  282.08771 75.0 75
  283.03622 37.0 37
  283.06845 22.0 22
  284.06201 74.0 74
  284.40564 23.0 23
  285.03775 33.0 33
  290.48676 19.0 19
  291.06595 33.0 33
  292.08176 20.0 20
  292.83328 33.0 33
  293.05191 44.0 44
  293.09167 64.0 64
  294.04849 201.0 201
  294.08878 33.0 33
  295.01053 30.0 30
  295.02695 29.0 29
  295.04309 119.0 119
  295.06052 1000.0 999
  295.09421 48.0 48
  296.04797 43.0 43
  296.06436 119.0 119
  296.07935 40.0 40
  296.09341 19.0 19
  297.02087 22.0 22
  297.04065 20.0 20
  297.06757 101.0 101
  297.08365 57.0 57
  305.07159 48.0 48
  305.1188 22.0 22
  306.08658 40.0 40
  307.05795 442.0 442
  307.07269 178.0 178
  308.06 312.0 312
  308.07465 223.0 223
  308.57767 27.0 27
  309.07565 194.0 194
  309.10248 19.0 19
  310.07291 22.0 22
  311.0589 113.0 113
  313.07794 22.0 22
  314.10226 46.0 46
  317.07629 50.0 50
  319.05453 142.0 142
  319.0741 20.0 20
  320.06067 92.0 92
  321.03152 27.0 27
  321.06836 346.0 346
  321.08505 184.0 184
  322.04706 47.0 47
  322.06775 59.0 59
  322.08517 241.0 241
  322.10248 48.0 48
  322.28772 26.0 26
  322.36462 20.0 20
  323.06674 51.0 51
  323.08673 88.0 88
  323.1026 34.0 34
  324.99393 21.0 21
  325.03152 37.0 37
  325.06946 879.0 878
  325.08859 181.0 181
  326.05682 64.0 64
  326.07858 69.0 69
  326.36798 23.0 23
  327.07773 24.0 24
  327.10059 22.0 22
  332.06293 63.0 63
  333.07785 54.0 54
  335.06223 27.0 27
  335.08179 100.0 100
  335.09604 162.0 162
  336.05301 51.0 51
  336.07175 41.0 41
  336.09586 101.0 101
  337.0535 73.0 73
  337.06854 129.0 129
  337.08279 147.0 147
  338.04831 19.0 19
  338.09348 22.0 22
  338.10843 19.0 19
  339.08133 44.0 44
  340.0907 33.0 33
  345.02914 31.0 31
  346.8786 24.0 24
  347.08405 79.0 79
  347.10815 20.0 20
  349.03683 28.0 28
  349.06451 143.0 143
  349.07941 38.0 38
  350.06238 29.0 29
  350.08044 144.0 144
  351.0528 74.0 74
  351.09354 200.0 200
  351.19058 21.0 21
  352.06552 23.0 23
  352.08554 78.0 78
  352.39584 19.0 19
  353.052 23.0 23
  356.07092 38.0 38
  357.08591 30.0 30
  357.10907 19.0 19
  358.07837 44.0 44
  361.07675 147.0 147
  361.11212 28.0 28
  362.1088 31.0 31
  363.06937 23.0 23
  363.08713 120.0 120
  363.10736 44.0 44
  365.05991 22.0 22
  365.08264 30.0 30
  365.1105 62.0 62
  367.06927 59.0 59
  367.07761 23.0 23
  368.07281 28.0 28
  371.08569 51.0 51
  373.0686 26.0 26
  373.5079 20.0 20
  375.04657 57.0 57
  375.08307 81.0 81
  375.09784 39.0 39
  376.10907 20.0 20
  379.07269 93.0 93
  379.08746 23.0 23
  379.10724 26.0 26
  381.08707 29.0 29
  385.07904 61.0 61
  387.04443 33.0 33
  387.08923 59.0 59
  388.1265 29.0 29
  391.07416 50.0 50
  391.09525 27.0 27
  391.68436 34.0 34
  392.07083 22.0 22
  393.08246 26.0 26
  393.18793 19.0 19
  399.12247 29.0 29
  401.08737 29.0 29
  402.10928 38.0 38
  403.07318 26.0 26
  403.97662 24.0 24
  406.08902 46.0 46
  407.11658 24.0 24
  409.09042 58.0 58
  417.09897 30.0 30
  427.09155 20.0 20
  502.28769 21.0 21
  595.1485 31.0 31
  595.17188 141.0 141
//
