ACCESSION: MSBNK-RIKEN-PR301326
RECORD_TITLE: Mitragynine; LC-ESI-QTOF; MS2
DATE: 2019.03.28
AUTHORS: Tetsuya Mori, Center for Sustainable Resource Science, RIKEN
LICENSE: CC BY-NC-SA
PUBLICATION: Tsugawa H., Nakabayashi R., Mori T., Yamada Y., Takahashi M., Rai A., Sugiyama R., Yamamoto H., Nakaya T., Yamazaki M., Kooke R., Bac-Molenaar JA., Oztolan-Erol N., Keurentjes JJB., Arita M., Saito K. (2019) "A cheminformatics approach to characterize metabolomes in stable-isotope-labeled organisms" Nature Methods 16(4):295-298. [doi:10.1038/s41592-019-0358-2]
COMMENT: registered in RIKEN PlaSMA
CH$NAME: Mitragynine
CH$COMPOUND_CLASS: Corynanthean-type alkaloids
CH$FORMULA: C23H30N2O4
CH$EXACT_MASS: 398.503
CH$SMILES: CC[C@@H]1CN2CCC3=C(NC4=C3C(OC)=CC=C4)[C@@H]2C[C@@H]1\C(=C/OC)C(=O)OC
CH$IUPAC: InChI=1S/C23H30N2O4/c1-5-14-12-25-10-9-15-21-18(7-6-8-20(21)28-3)24-22(15)19(25)11-16(14)17(13-27-2)23(26)29-4/h6-8,13-14,16,19,24H,5,9-12H2,1-4H3/b17-13+/t14-,16+,19+/m1/s1
CH$LINK: INCHIKEY LELBFTMXCIIKKX-QVRQZEMUSA-N
AC$INSTRUMENT: LC, Waters Acquity UPLC System; MS, Waters Xevo G2 Q-Tof
AC$INSTRUMENT_TYPE: LC-ESI-QTOF
AC$MASS_SPECTROMETRY: MS_TYPE MS2
AC$MASS_SPECTROMETRY: ION_MODE POSITIVE
AC$MASS_SPECTROMETRY: COLLISION_ENERGY 6V
AC$MASS_SPECTROMETRY: DESOLVATION_GAS_FLOW 800/h
AC$MASS_SPECTROMETRY: DESOLVATION_TEMPERATURE 450 C
AC$MASS_SPECTROMETRY: IONIZATION ESI
AC$CHROMATOGRAPHY: CAPILLARY_VOLTAGE +3.00 kV
AC$CHROMATOGRAPHY: COLUMN_NAME Acquity bridged ethyl hybrid C18 (1.7 um, 2.1 mm * 100 mm, Waters)
AC$CHROMATOGRAPHY: COLUMN_TEMPERATURE 40 C
AC$CHROMATOGRAPHY: FLOW_GRADIENT A/B = (99.5%/0.5% at 0 min, 99.5%/0.5% at 0.1 min, 20%/80% at 10 min, 0.5%/99.5% at 10.1 min, 0.5%/99.5% at 12.0 min, 99.5%/0.5% at 12.1 min, 99.5%/0.5% at 15.0 min)
AC$CHROMATOGRAPHY: FLOW_RATE 0.3 ml/min at 0 min, 0.3 ml/min at 10 min, 0.4 ml/min at 10.1 min, 0.4 ml/min at 14.4 min, 0.3 ml/min at 14.5 min
AC$CHROMATOGRAPHY: RETENTION_TIME 5.539417
AC$CHROMATOGRAPHY: SOLVENT A water including 0.1% formic acid
AC$CHROMATOGRAPHY: SOLVENT B acetonitrile including 0.1% formic acid
MS$FOCUSED_ION: PRECURSOR_TYPE [M+H]+
MS$FOCUSED_ION: PRECURSOR_M/Z 399.2278339
PK$SPLASH: splash10-0abc-0910000000-f473176058d97894f110
PK$NUM_PEAK: 254
PK$PEAK: m/z int. rel.int.
  56.05186 6.0 6
  67.05537 7.0 7
  75.03447 5.0 5
  75.0412 34.0 34
  75.04612 118.0 118
  77.04289 10.0 10
  79.04973 9.0 9
  79.05505 29.0 29
  80.04939 8.0 8
  80.06021 5.0 5
  81.07219 7.0 7
  82.06673 5.0 5
  84.07796 10.0 10
  84.08248 16.0 16
  91.05567 25.0 25
  91.06097 8.0 8
  92.04879 5.0 5
  93.06966 9.0 9
  94.06802 19.0 19
  95.04886 9.0 9
  96.04944 5.0 5
  104.05072 6.0 6
  105.06805 6.0 6
  105.07336 8.0 8
  106.06824 6.0 6
  107.07699 5.0 5
  108.04854 6.0 6
  108.08164 33.0 33
  109.0608 6.0 6
  110.09797 178.0 178
  111.04364 13.0 13
  111.07563 8.0 8
  111.09625 7.0 7
  111.10166 6.0 6
  115.05575 111.0 111
  116.04834 7.0 7
  116.07052 7.0 7
  117.05332 20.0 20
  117.06316 61.0 61
  117.07032 198.0 198
  118.06446 47.0 47
  118.07198 37.0 37
  119.07571 11.0 11
  120.044 8.0 8
  120.08451 9.0 9
  121.06683 9.0 9
  121.09167 7.0 7
  122.05589 8.0 8
  122.09136 12.0 12
  122.10206 35.0 35
  123.06229 6.0 6
  123.07977 7.0 7
  123.08817 13.0 13
  124.10965 5.0 5
  127.0517 47.0 47
  127.06007 51.0 51
  128.04138 6.0 6
  128.05492 30.0 30
  128.06659 16.0 16
  129.05562 60.0 60
  129.06567 45.0 45
  130.06458 108.0 108
  131.05634 6.0 6
  131.07312 181.0 181
  132.04523 6.0 6
  132.06387 8.0 8
  132.07838 30.0 30
  133.05373 6.0 6
  134.09453 11.0 11
  135.07118 7.0 7
  136.07399 19.0 19
  137.08528 5.0 5
  138.04768 6.0 6
  138.05629 22.0 22
  139.07419 27.0 27
  142.06161 25.0 25
  142.07068 13.0 13
  143.07457 224.0 224
  144.04605 9.0 9
  144.08147 290.0 290
  145.04445 5.0 5
  145.05234 8.0 8
  145.06564 10.0 10
  145.07498 13.0 13
  145.08159 18.0 18
  145.09053 21.0 21
  146.05833 28.0 28
  146.06839 10.0 10
  146.09607 69.0 69
  146.10867 6.0 6
  147.07137 25.0 25
  148.084 11.0 11
  150.13063 5.0 5
  152.06444 12.0 12
  152.07527 59.0 59
  153.07768 8.0 8
  154.06769 22.0 22
  156.06567 5.0 5
  156.08334 19.0 19
  157.05769 15.0 15
  157.09247 13.0 13
  158.05649 22.0 22
  158.06793 9.0 9
  158.09401 8.0 8
  158.1012 6.0 6
  159.04048 7.0 7
  159.06828 1000.0 999
  159.09187 5.0 5
  160.07309 186.0 186
  161.07622 13.0 13
  162.08215 8.0 8
  162.09447 10.0 10
  163.09102 5.0 5
  165.07042 5.0 5
  165.08041 9.0 9
  166.0659 10.0 10
  166.07678 9.0 9
  166.08376 17.0 17
  167.07219 24.0 24
  167.08127 17.0 17
  168.08138 36.0 36
  168.09299 15.0 15
  169.07849 11.0 11
  169.08554 7.0 7
  169.09335 8.0 8
  169.10103 7.0 7
  170.05746 16.0 16
  170.06821 10.0 10
  170.08263 9.0 9
  171.05911 10.0 10
  171.06966 22.0 22
  172.07297 27.0 27
  172.0835 18.0 18
  172.11821 5.0 5
  173.07451 6.0 6
  173.08467 31.0 31
  174.09233 575.0 574
  175.07347 7.0 7
  175.08784 14.0 14
  175.09903 49.0 49
  177.08629 8.0 8
  178.0699 10.0 10
  178.1282 9.0 9
  180.08006 22.0 22
  180.10196 14.0 14
  181.07744 6.0 6
  181.08414 7.0 7
  181.09325 7.0 7
  182.06729 6.0 6
  182.1118 9.0 9
  182.13055 5.0 5
  183.05765 14.0 14
  183.06885 8.0 8
  184.06563 14.0 14
  184.07777 67.0 67
  184.08543 31.0 31
  185.08224 88.0 88
  186.0696 7.0 7
  186.08871 20.0 20
  187.10014 11.0 11
  189.0757 6.0 6
  191.06665 5.0 5
  192.08136 22.0 22
  193.10759 6.0 6
  194.09128 13.0 13
  194.10945 6.0 6
  195.06268 17.0 17
  195.0726 28.0 28
  196.07561 17.0 17
  197.06688 7.0 7
  197.08026 22.0 22
  197.08907 8.0 8
  197.10239 10.0 10
  197.11327 6.0 6
  198.09523 22.0 22
  199.09201 14.0 14
  200.08542 7.0 7
  200.09972 16.0 16
  200.11134 16.0 16
  204.07838 8.0 8
  205.09128 10.0 10
  206.0947 10.0 10
  206.10439 6.0 6
  207.07346 8.0 8
  208.07692 5.0 5
  209.08917 12.0 12
  209.12308 6.0 6
  210.08452 25.0 25
  210.09686 72.0 72
  211.09679 28.0 28
  211.25803 5.0 5
  212.0994 8.0 8
  213.10608 5.0 5
  216.08521 6.0 6
  218.0829 7.0 7
  218.10184 6.0 6
  220.06941 12.0 12
  220.10608 11.0 11
  221.09062 32.0 32
  222.0806 15.0 15
  222.10085 7.0 7
  223.09175 22.0 22
  223.1044 12.0 12
  224.06776 6.0 6
  224.09235 18.0 18
  224.11385 6.0 6
  225.11679 11.0 11
  226.12256 5.0 5
  232.07979 6.0 6
  233.07333 9.0 9
  233.08975 13.0 13
  234.08136 10.0 10
  234.09639 31.0 31
  234.12576 6.0 6
  235.0896 14.0 14
  236.09283 15.0 15
  236.11214 20.0 20
  237.07462 6.0 6
  237.11507 6.0 6
  238.08069 6.0 6
  238.12073 6.0 6
  239.10474 18.0 18
  239.1256 24.0 24
  240.06532 6.0 6
  240.12418 10.0 10
  246.08638 7.0 7
  246.12483 5.0 5
  247.08197 6.0 6
  247.11496 7.0 7
  248.09221 9.0 9
  248.10486 8.0 8
  248.11884 7.0 7
  249.08534 7.0 7
  249.10686 21.0 21
  249.12451 14.0 14
  250.10291 14.0 14
  250.12813 17.0 17
  251.10977 6.0 6
  252.09903 7.0 7
  255.14796 7.0 7
  260.1095 11.0 11
  263.11584 14.0 14
  263.13531 10.0 10
  264.09241 9.0 9
  265.11551 7.0 7
  265.14569 9.0 9
  277.11343 8.0 8
  277.1286 5.0 5
  277.14642 8.0 8
  280.11676 6.0 6
  291.1319 6.0 6
  305.13956 6.0 6
  310.17072 5.0 5
  323.16544 6.0 6
//
