ACCESSION: MSBNK-RIKEN-PR304266
RECORD_TITLE: epsilon-Viniferin; LC-ESI-QTOF; MS2
DATE: 2019.03.28
AUTHORS: Tetsuya Mori, Center for Sustainable Resource Science, RIKEN
LICENSE: CC BY-NC-SA
PUBLICATION: Tsugawa H., Nakabayashi R., Mori T., Yamada Y., Takahashi M., Rai A., Sugiyama R., Yamamoto H., Nakaya T., Yamazaki M., Kooke R., Bac-Molenaar JA., Oztolan-Erol N., Keurentjes JJB., Arita M., Saito K. (2019) "A cheminformatics approach to characterize metabolomes in stable-isotope-labeled organisms" Nature Methods 16(4):295-298. [doi:10.1038/s41592-019-0358-2]
COMMENT: registered in RIKEN PlaSMA
CH$NAME: epsilon-Viniferin
CH$COMPOUND_CLASS: 2-arylbenzofuran flavonoids
CH$FORMULA: C28H22O6
CH$EXACT_MASS: 454.478
CH$SMILES: OC1=CC=C(\C=C\C2=CC(O)=CC3=C2[C@H]([C@@H](O3)C2=CC=C(O)C=C2)C2=CC(O)=CC(O)=C2)C=C1
CH$IUPAC: InChI=1S/C28H22O6/c29-20-7-2-16(3-8-20)1-4-18-11-24(33)15-25-26(18)27(19-12-22(31)14-23(32)13-19)28(34-25)17-5-9-21(30)10-6-17/h1-15,27-33H/b4-1+/t27-,28+/m1/s1
CH$LINK: INCHIKEY FQWLMRXWKZGLFI-YVYUXZJTSA-N
AC$INSTRUMENT: LC, Waters Acquity UPLC System; MS, Waters Xevo G2 Q-Tof
AC$INSTRUMENT_TYPE: LC-ESI-QTOF
AC$MASS_SPECTROMETRY: MS_TYPE MS2
AC$MASS_SPECTROMETRY: ION_MODE POSITIVE
AC$MASS_SPECTROMETRY: COLLISION_ENERGY 6V
AC$MASS_SPECTROMETRY: DESOLVATION_GAS_FLOW 800/h
AC$MASS_SPECTROMETRY: DESOLVATION_TEMPERATURE 450 C
AC$MASS_SPECTROMETRY: IONIZATION ESI
AC$CHROMATOGRAPHY: CAPILLARY_VOLTAGE +3.00 kV
AC$CHROMATOGRAPHY: COLUMN_NAME Acquity bridged ethyl hybrid C18 (1.7 um, 2.1 mm * 100 mm, Waters)
AC$CHROMATOGRAPHY: COLUMN_TEMPERATURE 40 C
AC$CHROMATOGRAPHY: FLOW_GRADIENT A/B = (99.5%/0.5% at 0 min, 99.5%/0.5% at 0.1 min, 20%/80% at 10 min, 0.5%/99.5% at 10.1 min, 0.5%/99.5% at 12.0 min, 99.5%/0.5% at 12.1 min, 99.5%/0.5% at 15.0 min)
AC$CHROMATOGRAPHY: FLOW_RATE 0.3 ml/min at 0 min, 0.3 ml/min at 10 min, 0.4 ml/min at 10.1 min, 0.4 ml/min at 14.4 min, 0.3 ml/min at 14.5 min
AC$CHROMATOGRAPHY: RETENTION_TIME 5.807217
AC$CHROMATOGRAPHY: SOLVENT A water including 0.1% formic acid
AC$CHROMATOGRAPHY: SOLVENT B acetonitrile including 0.1% formic acid
MS$FOCUSED_ION: PRECURSOR_TYPE [M+H]+
MS$FOCUSED_ION: PRECURSOR_M/Z 455.1489149
PK$SPLASH: splash10-0a59-0941000000-309964e200e577576e74
PK$NUM_PEAK: 394
PK$PEAK: m/z int. rel.int.
  53.03856 7.0 7
  55.01754 6.0 6
  67.05423 15.0 15
  67.06078 10.0 10
  68.99595 8.0 8
  69.00364 8.0 8
  71.01821 10.0 10
  76.60912 9.0 9
  77.03617 15.0 15
  77.04087 52.0 52
  79.05346 6.0 6
  91.05209 40.0 40
  91.05838 27.0 27
  92.0574 8.0 8
  93.03295 10.0 10
  93.04014 7.0 7
  97.36712 7.0 7
  103.05184 18.0 18
  105.03565 64.0 64
  105.04342 20.0 20
  107.02508 12.0 12
  107.03203 11.0 11
  107.04882 1000.0 999
  107.07469 7.0 7
  107.23583 7.0 7
  107.41488 6.0 6
  108.05135 34.0 34
  108.74225 6.0 6
  109.01402 11.0 11
  109.02743 21.0 21
  109.58897 6.0 6
  114.04611 7.0 7
  115.05311 50.0 50
  115.82777 7.0 7
  116.06331 6.0 6
  116.42081 7.0 7
  117.07053 20.0 20
  119.04733 6.0 6
  119.08371 7.0 7
  121.064 13.0 13
  122.03757 9.0 9
  123.04337 87.0 87
  124.04535 7.0 7
  127.04552 6.0 6
  127.05481 8.0 8
  127.06133 24.0 24
  128.03899 7.0 7
  128.06186 53.0 53
  129.06973 20.0 20
  130.06889 7.0 7
  131.04875 63.0 63
  132.05457 15.0 15
  133.02721 115.0 115
  133.06593 6.0 6
  134.03305 11.0 11
  134.04262 9.0 9
  134.06059 7.0 7
  137.0251 16.0 16
  138.0305 7.0 7
  138.50708 8.0 8
  139.05241 16.0 16
  141.07088 200.0 200
  143.03719 6.0 6
  143.05124 9.0 9
  143.07208 15.0 15
  143.08545 58.0 58
  144.04752 7.0 7
  144.05966 17.0 17
  144.06949 8.0 8
  144.09163 7.0 7
  145.06522 22.0 22
  146.94019 7.0 7
  147.03938 11.0 11
  147.04568 37.0 37
  147.05858 6.0 6
  148.05614 6.0 6
  151.0414 6.0 6
  151.04892 7.0 7
  151.0574 18.0 18
  152.04762 29.0 29
  152.06456 134.0 134
  153.06865 323.0 323
  154.06395 7.0 7
  154.0829 8.0 8
  154.35323 6.0 6
  155.07951 15.0 15
  157.04497 7.0 7
  157.06682 93.0 93
  158.06798 6.0 6
  159.04895 7.0 7
  159.07755 17.0 17
  159.09053 7.0 7
  160.08315 7.0 7
  161.41917 6.0 6
  163.0352 7.0 7
  164.06102 6.0 6
  165.06966 174.0 174
  166.07094 8.0 8
  166.0798 21.0 21
  166.27574 10.0 10
  167.04671 6.0 6
  167.08591 15.0 15
  167.09421 7.0 7
  168.05316 26.0 26
  168.06371 13.0 13
  168.08755 8.0 8
  169.03603 7.0 7
  169.06488 136.0 136
  170.04062 9.0 9
  170.06345 16.0 16
  170.07191 66.0 66
  171.04526 6.0 6
  171.0542 6.0 6
  171.0685 28.0 28
  171.07915 68.0 68
  172.05176 7.0 7
  173.05388 19.0 19
  173.06442 7.0 7
  173.93871 9.0 9
  176.07861 7.0 7
  177.06905 28.0 28
  177.07846 6.0 6
  179.07736 8.0 8
  179.08441 14.0 14
  180.08218 8.0 8
  181.03352 9.0 9
  181.06419 486.0 486
  182.05338 6.0 6
  182.0704 123.0 123
  183.04868 7.0 7
  183.07948 22.0 22
  183.08743 8.0 8
  184.04436 10.0 10
  184.05319 28.0 28
  184.06473 9.0 9
  184.08762 8.0 8
  185.05284 6.0 6
  185.06395 7.0 7
  186.06273 27.0 27
  187.076 35.0 35
  189.06609 12.0 12
  189.0739 11.0 11
  190.07854 9.0 9
  191.07472 6.0 6
  193.04941 6.0 6
  193.06812 32.0 32
  194.06198 7.0 7
  194.0764 9.0 9
  194.08739 10.0 10
  195.02602 6.0 6
  195.04135 6.0 6
  195.07986 44.0 44
  195.94633 10.0 10
  196.07603 30.0 30
  196.08643 6.0 6
  197.05974 255.0 255
  198.05043 6.0 6
  198.06702 80.0 80
  199.04242 6.0 6
  199.07155 102.0 102
  200.07658 41.0 41
  201.07347 7.0 7
  202.06778 7.0 7
  202.08281 21.0 21
  203.07845 6.0 6
  203.08887 16.0 16
  204.05742 6.0 6
  205.05132 7.0 7
  205.06544 29.0 29
  206.05298 13.0 13
  206.07379 30.0 30
  206.10776 6.0 6
  207.06581 6.0 6
  207.07848 7.0 7
  208.06018 8.0 8
  209.06094 35.0 35
  209.10788 7.0 7
  210.0666 50.0 50
  211.07565 65.0 65
  212.07874 7.0 7
  212.08565 7.0 7
  213.05197 27.0 27
  214.05168 11.0 11
  214.0623 6.0 6
  215.07155 56.0 56
  215.09381 32.0 32
  216.0731 7.0 7
  216.0871 15.0 15
  216.10002 8.0 8
  216.26048 8.0 8
  217.09659 7.0 7
  217.10564 7.0 7
  217.89432 6.0 6
  218.06505 8.0 8
  218.07449 7.0 7
  219.07912 7.0 7
  219.09138 6.0 6
  219.38811 6.0 6
  221.06094 42.0 42
  221.07204 10.0 10
  222.06375 6.0 6
  223.07454 48.0 48
  223.08897 5.0 5
  224.07454 12.0 12
  224.08995 6.0 6
  225.05177 15.0 15
  225.06367 13.0 13
  226.02721 8.0 8
  226.0663 8.0 8
  226.08046 28.0 28
  227.06192 19.0 19
  227.0705 78.0 78
  228.0761 12.0 12
  228.08945 26.0 26
  229.06795 7.0 7
  230.03296 10.0 10
  230.07437 23.0 23
  231.07556 12.0 12
  231.08713 42.0 42
  231.1505 6.0 6
  232.07213 8.0 8
  232.08365 24.0 24
  232.15608 7.0 7
  233.06387 12.0 12
  233.08313 8.0 8
  233.10167 7.0 7
  233.75212 6.0 6
  234.04945 7.0 7
  234.093 10.0 10
  235.07675 9.0 9
  235.13699 6.0 6
  236.08426 20.0 20
  237.03654 7.0 7
  237.06059 6.0 6
  237.0984 6.0 6
  238.05168 7.0 7
  238.07069 10.0 10
  239.03552 9.0 9
  239.05824 48.0 48
  239.0773 135.0 135
  239.09248 7.0 7
  239.68918 6.0 6
  240.07874 33.0 33
  240.09637 20.0 20
  241.03871 20.0 20
  241.05609 28.0 28
  241.06682 13.0 13
  241.08591 7.0 7
  241.09862 9.0 9
  242.03041 6.0 6
  242.05948 8.0 8
  242.07199 7.0 7
  242.10695 9.0 9
  243.06409 13.0 13
  243.08339 28.0 28
  244.08992 62.0 62
  245.06133 6.0 6
  245.08997 6.0 6
  245.09647 15.0 15
  245.10922 10.0 10
  246.06142 6.0 6
  246.09372 6.0 6
  246.10663 7.0 7
  247.07068 47.0 47
  247.08199 44.0 44
  250.05946 9.0 9
  250.07112 7.0 7
  250.0793 10.0 10
  251.03949 6.0 6
  251.07431 10.0 10
  252.07326 34.0 34
  252.09433 29.0 29
  253.03732 6.0 6
  253.05101 13.0 13
  253.07422 12.0 12
  253.09514 6.0 6
  255.06184 41.0 41
  255.07628 19.0 19
  255.08862 20.0 20
  256.07712 13.0 13
  256.09 6.0 6
  256.10336 8.0 8
  257.09286 12.0 12
  257.10617 10.0 10
  258.06137 8.0 8
  258.07816 8.0 8
  258.97079 6.0 6
  259.10165 14.0 14
  261.06998 9.0 9
  261.07892 8.0 8
  261.09628 22.0 22
  262.09781 6.0 6
  263.06638 18.0 18
  264.07602 7.0 7
  264.09616 6.0 6
  265.09027 6.0 6
  266.06516 9.0 9
  267.0773 7.0 7
  267.08685 6.0 6
  268.06815 11.0 11
  268.08398 6.0 6
  268.1041 10.0 10
  269.09735 30.0 30
  270.1022 15.0 15
  271.04489 6.0 6
  271.08386 29.0 29
  272.08115 34.0 34
  272.09097 12.0 12
  272.44244 7.0 7
  273.08014 8.0 8
  273.09933 27.0 27
  274.05664 10.0 10
  274.10565 7.0 7
  276.08139 14.0 14
  277.07468 6.0 6
  277.54123 7.0 7
  279.05609 9.0 9
  279.09125 6.0 6
  279.22888 6.0 6
  280.08328 27.0 27
  280.12802 8.0 8
  281.11105 6.0 6
  284.08398 6.0 6
  284.0976 7.0 7
  285.0849 6.0 6
  285.60956 6.0 6
  287.04379 6.0 6
  287.0639 6.0 6
  287.08737 14.0 14
  287.10275 7.0 7
  288.05725 7.0 7
  288.09897 7.0 7
  289.08319 21.0 21
  290.0925 7.0 7
  292.08008 6.0 6
  293.0943 11.0 11
  295.08212 19.0 19
  296.09799 9.0 9
  297.08014 7.0 7
  297.10178 7.0 7
  298.09457 35.0 35
  299.06229 10.0 10
  299.07178 6.0 6
  299.10825 8.0 8
  300.07477 17.0 17
  301.07935 15.0 15
  303.07211 7.0 7
  303.11731 7.0 7
  306.06793 7.0 7
  308.07883 6.0 6
  309.09933 6.0 6
  311.07794 6.0 6
  311.14166 12.0 12
  313.07913 37.0 37
  313.09601 24.0 24
  314.07635 23.0 23
  314.11862 7.0 7
  315.10193 66.0 66
  316.07361 6.0 6
  316.11105 7.0 7
  317.08685 6.0 6
  318.09341 26.0 26
  319.09528 6.0 6
  319.10992 6.0 6
  323.10101 20.0 20
  323.11673 13.0 13
  324.12445 8.0 8
  325.0723 7.0 7
  326.06122 6.0 6
  327.1051 8.0 8
  327.12781 7.0 7
  328.09473 7.0 7
  329.09583 8.0 8
  330.08743 6.0 6
  330.09845 6.0 6
  331.10733 45.0 45
  332.09833 7.0 7
  332.1095 15.0 15
  333.14133 7.0 7
  334.09485 13.0 13
  334.12994 8.0 8
  343.12198 6.0 6
  344.12958 9.0 9
  347.0903 7.0 7
  347.10999 7.0 7
  353.12097 6.0 6
  358.11157 7.0 7
  365.11313 6.0 6
  372.10861 14.0 14
  372.1203 10.0 10
  373.12637 7.0 7
  383.11008 6.0 6
  399.80536 6.0 6
  419.77841 27.0 27
//
