ACCESSION: MSBNK-RIKEN-PR301850
RECORD_TITLE: Protopine; LC-ESI-QTOF; MS2
DATE: 2019.03.28
AUTHORS: Tetsuya Mori, Center for Sustainable Resource Science, RIKEN
LICENSE: CC BY-NC-SA
PUBLICATION: Tsugawa H., Nakabayashi R., Mori T., Yamada Y., Takahashi M., Rai A., Sugiyama R., Yamamoto H., Nakaya T., Yamazaki M., Kooke R., Bac-Molenaar JA., Oztolan-Erol N., Keurentjes JJB., Arita M., Saito K. (2019) "A cheminformatics approach to characterize metabolomes in stable-isotope-labeled organisms" Nature Methods 16(4):295-298. [doi:10.1038/s41592-019-0358-2]
COMMENT: registered in RIKEN PlaSMA
CH$NAME: Protopine
CH$COMPOUND_CLASS: Protopine alkaloids
CH$FORMULA: C20H19NO5
CH$EXACT_MASS: 353.374
CH$SMILES: CN1CCC2=CC3=C(OCO3)C=C2C(=O)CC2=C(C1)C1=C(OCO1)C=C2
CH$IUPAC: InChI=1S/C20H19NO5/c1-21-5-4-13-7-18-19(25-10-24-18)8-14(13)16(22)6-12-2-3-17-20(15(12)9-21)26-11-23-17/h2-3,7-8H,4-6,9-11H2,1H3
CH$LINK: INCHIKEY GPTFURBXHJWNHR-UHFFFAOYSA-N
AC$INSTRUMENT: LC, Waters Acquity UPLC System; MS, Waters Xevo G2 Q-Tof
AC$INSTRUMENT_TYPE: LC-ESI-QTOF
AC$MASS_SPECTROMETRY: MS_TYPE MS2
AC$MASS_SPECTROMETRY: ION_MODE POSITIVE
AC$MASS_SPECTROMETRY: COLLISION_ENERGY 6V
AC$MASS_SPECTROMETRY: DESOLVATION_GAS_FLOW 800/h
AC$MASS_SPECTROMETRY: DESOLVATION_TEMPERATURE 450 C
AC$MASS_SPECTROMETRY: IONIZATION ESI
AC$CHROMATOGRAPHY: CAPILLARY_VOLTAGE +3.00 kV
AC$CHROMATOGRAPHY: COLUMN_NAME Acquity bridged ethyl hybrid C18 (1.7 um, 2.1 mm * 100 mm, Waters)
AC$CHROMATOGRAPHY: COLUMN_TEMPERATURE 40 C
AC$CHROMATOGRAPHY: FLOW_GRADIENT A/B = (99.5%/0.5% at 0 min, 99.5%/0.5% at 0.1 min, 20%/80% at 10 min, 0.5%/99.5% at 10.1 min, 0.5%/99.5% at 12.0 min, 99.5%/0.5% at 12.1 min, 99.5%/0.5% at 15.0 min)
AC$CHROMATOGRAPHY: FLOW_RATE 0.3 ml/min at 0 min, 0.3 ml/min at 10 min, 0.4 ml/min at 10.1 min, 0.4 ml/min at 14.4 min, 0.3 ml/min at 14.5 min
AC$CHROMATOGRAPHY: RETENTION_TIME 4.362817
AC$CHROMATOGRAPHY: SOLVENT A water including 0.1% formic acid
AC$CHROMATOGRAPHY: SOLVENT B acetonitrile including 0.1% formic acid
MS$FOCUSED_ION: PRECURSOR_TYPE [M+H]+
MS$FOCUSED_ION: PRECURSOR_M/Z 354.1335992
PK$SPLASH: splash10-000i-0941000000-6348917ba706658b1010
PK$NUM_PEAK: 128
PK$PEAK: m/z int. rel.int.
  91.05051 5.0 5
  91.05604 10.0 10
  107.04955 27.0 27
  109.06485 9.0 9
  119.04839 28.0 28
  119.05602 10.0 10
  131.0518 7.0 7
  131.07599 5.0 5
  132.08034 8.0 8
  135.04633 77.0 77
  136.04462 6.0 6
  146.05309 8.0 8
  146.06058 13.0 13
  147.0388 17.0 17
  147.04437 23.0 23
  147.05531 6.0 6
  149.03621 7.0 7
  149.06027 374.0 374
  150.05449 6.0 6
  150.06514 26.0 26
  159.04704 6.0 6
  159.06084 19.0 19
  159.07059 34.0 34
  160.07089 9.0 9
  160.08148 6.0 6
  161.07967 6.0 6
  163.03712 6.0 6
  163.04488 5.0 5
  165.05544 108.0 108
  166.05951 13.0 13
  167.08688 12.0 12
  174.05116 7.0 7
  175.02773 6.0 6
  175.04013 32.0 32
  176.03868 5.0 5
  176.07314 15.0 15
  177.05113 9.0 9
  177.07822 38.0 38
  178.07965 12.0 12
  178.08929 35.0 35
  179.0759 7.0 7
  179.08583 22.0 22
  188.04933 8.0 8
  188.07138 849.0 848
  189.07796 1000.0 999
  190.0829 165.0 165
  191.08658 42.0 42
  192.1037 8.0 8
  195.0813 41.0 41
  196.0809 13.0 13
  201.0797 6.0 6
  204.06662 7.0 7
  205.06403 9.0 9
  206.08214 182.0 182
  207.07184 12.0 12
  207.08545 72.0 72
  208.08531 9.0 9
  209.05568 6.0 6
  209.06224 14.0 14
  217.05963 10.0 10
  217.06981 41.0 41
  219.08183 20.0 20
  223.07457 33.0 33
  223.08562 8.0 8
  225.08849 8.0 8
  225.10081 11.0 11
  233.058 14.0 14
  235.07597 86.0 86
  236.08034 22.0 22
  237.03407 6.0 6
  237.04692 8.0 8
  237.05502 18.0 18
  237.08862 26.0 26
  237.09956 10.0 10
  239.07521 6.0 6
  247.05333 6.0 6
  247.07719 195.0 195
  248.07143 19.0 19
  248.08142 18.0 18
  249.09991 9.0 9
  252.0683 7.0 7
  253.08331 6.0 6
  253.09515 11.0 11
  263.07007 46.0 46
  264.06973 5.0 5
  265.08609 66.0 66
  266.07651 5.0 5
  266.09558 23.0 23
  267.05322 9.0 9
  267.06607 34.0 34
  269.06891 5.0 5
  275.04773 6.0 6
  275.07007 251.0 251
  276.07288 32.0 32
  276.08746 10.0 10
  277.07391 7.0 7
  277.086 6.0 6
  278.11301 24.0 24
  278.12589 7.0 7
  283.08194 6.0 6
  283.09943 8.0 8
  292.08078 5.0 5
  293.0798 41.0 41
  293.09164 18.0 18
  294.0864 15.0 15
  295.09979 43.0 43
  305.06647 10.0 10
  305.07635 26.0 26
  306.09235 6.0 6
  306.1051 14.0 14
  306.12177 7.0 7
  307.10919 8.0 8
  311.08978 5.0 5
  311.09866 12.0 12
  320.0925 55.0 55
  321.09271 21.0 21
  321.10559 28.0 28
  323.0798 6.0 6
  323.09128 8.0 8
  323.10211 9.0 9
  334.10858 50.0 50
  335.11938 5.0 5
  336.1091 24.0 24
  336.12277 56.0 56
  337.11594 7.0 7
  337.13269 12.0 12
  338.11935 5.0 5
  354.13409 220.0 220
//
