ACCESSION: MSBNK-RIKEN-PR301065
RECORD_TITLE: Napelline; LC-ESI-QTOF; MS2
DATE: 2019.03.28
AUTHORS: Tetsuya Mori, Center for Sustainable Resource Science, RIKEN
LICENSE: CC BY-NC-SA
PUBLICATION: Tsugawa H., Nakabayashi R., Mori T., Yamada Y., Takahashi M., Rai A., Sugiyama R., Yamamoto H., Nakaya T., Yamazaki M., Kooke R., Bac-Molenaar JA., Oztolan-Erol N., Keurentjes JJB., Arita M., Saito K. (2019) "A cheminformatics approach to characterize metabolomes in stable-isotope-labeled organisms" Nature Methods 16(4):295-298. [doi:10.1038/s41592-019-0358-2]
COMMENT: registered in RIKEN PlaSMA
CH$NAME: Napelline
CH$COMPOUND_CLASS: Napelline-type diterpenoid alkaloids
CH$FORMULA: C22H33NO3
CH$EXACT_MASS: 359.51
CH$SMILES: CCN1C[C@]2(C)CC[C@H](O)[C@]34C1[C@H](C[C@H]23)[C@@]12C[C@H]([C@@H](O)C[C@@H]41)C(=C)[C@H]2O
CH$IUPAC: InChI=1S/C22H33NO3/c1-4-23-10-20(3)6-5-17(25)22-15(20)7-13(18(22)23)21-9-12(11(2)19(21)26)14(24)8-16(21)22/h12-19,24-26H,2,4-10H2,1,3H3/t12-,13-,14-,15+,16+,17-,18?,19+,20-,21-,22-/m0/s1
CH$LINK: INCHIKEY AZAZKLKDEOMJBJ-BOPAMEKVSA-N
AC$INSTRUMENT: LC, Waters Acquity UPLC System; MS, Waters Xevo G2 Q-Tof
AC$INSTRUMENT_TYPE: LC-ESI-QTOF
AC$MASS_SPECTROMETRY: MS_TYPE MS2
AC$MASS_SPECTROMETRY: ION_MODE POSITIVE
AC$MASS_SPECTROMETRY: COLLISION_ENERGY 6V
AC$MASS_SPECTROMETRY: DESOLVATION_GAS_FLOW 800/h
AC$MASS_SPECTROMETRY: DESOLVATION_TEMPERATURE 450 C
AC$MASS_SPECTROMETRY: IONIZATION ESI
AC$CHROMATOGRAPHY: CAPILLARY_VOLTAGE +3.00 kV
AC$CHROMATOGRAPHY: COLUMN_NAME Acquity bridged ethyl hybrid C18 (1.7 um, 2.1 mm * 100 mm, Waters)
AC$CHROMATOGRAPHY: COLUMN_TEMPERATURE 40 C
AC$CHROMATOGRAPHY: FLOW_GRADIENT A/B = (99.5%/0.5% at 0 min, 99.5%/0.5% at 0.1 min, 20%/80% at 10 min, 0.5%/99.5% at 10.1 min, 0.5%/99.5% at 12.0 min, 99.5%/0.5% at 12.1 min, 99.5%/0.5% at 15.0 min)
AC$CHROMATOGRAPHY: FLOW_RATE 0.3 ml/min at 0 min, 0.3 ml/min at 10 min, 0.4 ml/min at 10.1 min, 0.4 ml/min at 14.4 min, 0.3 ml/min at 14.5 min
AC$CHROMATOGRAPHY: RETENTION_TIME 3.05155
AC$CHROMATOGRAPHY: SOLVENT A water including 0.1% formic acid
AC$CHROMATOGRAPHY: SOLVENT B acetonitrile including 0.1% formic acid
MS$FOCUSED_ION: PRECURSOR_TYPE [M+H]+
MS$FOCUSED_ION: PRECURSOR_M/Z 360.2533204
PK$SPLASH: splash10-0a4m-2910000000-21d1624125866ebcefdc
PK$NUM_PEAK: 380
PK$PEAK: m/z int. rel.int.
  56.05273 54.0 54
  56.95399 17.0 17
  57.03115 13.0 13
  58.06475 91.0 91
  58.06808 76.0 76
  67.05314 120.0 120
  68.30329 13.0 13
  69.03327 18.0 18
  69.06776 48.0 48
  69.07066 84.0 84
  70.06136 13.0 13
  71.08934 13.0 13
  72.08247 93.0 93
  77.03905 33.0 33
  77.57092 13.0 13
  79.04054 20.0 20
  79.05497 394.0 394
  80.05756 15.0 15
  80.06509 20.0 20
  81.06668 36.0 36
  81.07146 39.0 39
  82.06583 58.0 58
  83.07198 14.0 14
  83.08532 19.0 19
  84.08131 106.0 106
  85.08655 13.0 13
  88.52123 14.0 14
  90.80269 17.0 17
  91.03043 15.0 15
  91.04307 16.0 16
  91.05476 515.0 514
  92.05515 22.0 22
  92.06169 94.0 94
  93.06038 14.0 14
  93.07172 247.0 247
  94.06631 13.0 13
  94.07168 22.0 22
  95.04671 16.0 16
  95.08258 43.0 43
  95.08823 83.0 83
  95.63007 13.0 13
  96.07986 52.0 52
  97.06934 32.0 32
  97.08879 24.0 24
  97.35206 14.0 14
  98.0938 398.0 398
  98.09914 276.0 276
  99.10226 62.0 62
  105.05285 19.0 19
  105.07069 1000.0 999
  106.07142 47.0 47
  107.04761 32.0 32
  107.06969 30.0 30
  107.08557 538.0 537
  108.04492 14.0 14
  108.07941 40.0 40
  108.08648 15.0 15
  109.06194 24.0 24
  109.09812 14.0 14
  109.10506 16.0 16
  110.09319 58.0 58
  110.09971 59.0 59
  110.16311 20.0 20
  110.43645 14.0 14
  111.04366 14.0 14
  111.09069 16.0 16
  111.09693 20.0 20
  111.10452 32.0 32
  111.82068 14.0 14
  112.88573 13.0 13
  115.05196 222.0 222
  116.04891 14.0 14
  116.05924 58.0 58
  117.02554 15.0 15
  117.07127 549.0 548
  118.07331 36.0 36
  119.06649 15.0 15
  119.08324 306.0 306
  120.08443 14.0 14
  121.06573 28.0 28
  121.09508 18.0 18
  121.10194 24.0 24
  122.09109 13.0 13
  122.09682 22.0 22
  122.69338 14.0 14
  123.04463 17.0 17
  123.08688 14.0 14
  124.10876 33.0 33
  124.11805 14.0 14
  125.05672 27.0 27
  125.11399 27.0 27
  125.12025 12.0 12
  125.5042 21.0 21
  127.0369 17.0 17
  127.05376 25.0 25
  127.83554 14.0 14
  128.05836 185.0 185
  128.06763 29.0 29
  129.04683 15.0 15
  129.06941 328.0 328
  130.07661 57.0 57
  130.08264 32.0 32
  131.08437 322.0 322
  131.45891 18.0 18
  132.05446 15.0 15
  132.08563 14.0 14
  132.09804 17.0 17
  132.10506 14.0 14
  132.61877 14.0 14
  133.05162 14.0 14
  133.06645 27.0 27
  133.08795 36.0 36
  133.09932 24.0 24
  134.1021 16.0 16
  135.06535 14.0 14
  135.07507 49.0 49
  135.08365 90.0 90
  135.10345 16.0 16
  135.11659 70.0 70
  136.11174 19.0 19
  137.11804 21.0 21
  138.121 53.0 53
  141.04991 14.0 14
  141.06546 83.0 83
  141.07114 187.0 187
  142.06216 31.0 31
  142.07765 299.0 299
  143.02017 13.0 13
  143.07726 108.0 108
  143.08807 263.0 263
  143.09578 48.0 48
  144.09171 49.0 49
  145.00055 15.0 15
  145.04617 16.0 16
  145.06592 14.0 14
  145.07333 17.0 17
  145.10205 417.0 417
  145.73209 13.0 13
  146.07587 42.0 42
  146.09387 53.0 53
  146.1075 105.0 105
  146.37752 13.0 13
  146.47043 15.0 15
  146.59312 13.0 13
  147.08481 14.0 14
  147.10327 14.0 14
  147.11594 106.0 106
  147.12669 40.0 40
  148.10573 45.0 45
  148.11726 42.0 42
  149.09846 14.0 14
  150.13312 38.0 38
  151.07608 33.0 33
  151.13109 14.0 14
  151.76053 14.0 14
  152.06584 17.0 17
  153.05968 31.0 31
  153.07089 121.0 121
  154.07675 157.0 157
  155.07729 104.0 104
  155.08878 250.0 250
  156.07399 32.0 32
  156.09233 126.0 126
  157.06656 18.0 18
  157.08815 23.0 23
  157.10234 244.0 244
  157.10896 57.0 57
  158.10165 27.0 27
  158.11328 14.0 14
  159.08316 19.0 19
  159.11041 81.0 81
  159.12199 95.0 95
  159.76424 14.0 14
  160.11258 124.0 124
  160.95819 17.0 17
  161.08762 23.0 23
  161.13136 37.0 37
  162.12424 36.0 36
  163.11269 13.0 13
  163.13113 23.0 23
  164.20366 16.0 16
  165.06526 168.0 168
  165.07454 164.0 164
  166.05074 27.0 27
  166.0744 149.0 149
  166.086 64.0 64
  167.08569 266.0 266
  168.09303 74.0 74
  168.10533 16.0 16
  169.0979 275.0 275
  170.10374 68.0 68
  171.08376 20.0 20
  171.10336 40.0 40
  171.11613 125.0 125
  171.19238 14.0 14
  172.08769 14.0 14
  172.1057 19.0 19
  172.12244 21.0 21
  173.13011 16.0 16
  173.13628 14.0 14
  174.12509 49.0 49
  174.1427 18.0 18
  175.11073 15.0 15
  176.15086 18.0 18
  177.06703 17.0 17
  178.07451 102.0 102
  178.09245 13.0 13
  179.07043 14.0 14
  179.08307 59.0 59
  179.09537 43.0 43
  180.0854 87.0 87
  180.09499 85.0 85
  181.06421 20.0 20
  181.09744 195.0 195
  181.10797 57.0 57
  181.13351 18.0 18
  182.10352 26.0 26
  182.11104 80.0 80
  183.10132 32.0 32
  183.11285 86.0 86
  183.18491 25.0 25
  184.08121 13.0 13
  184.1241 15.0 15
  185.09312 13.0 13
  185.12082 15.0 15
  185.13618 42.0 42
  186.12526 16.0 16
  186.13504 36.0 36
  187.10336 17.0 17
  187.12468 17.0 17
  188.11578 19.0 19
  188.14285 15.0 15
  188.15291 33.0 33
  189.15126 45.0 45
  190.07364 37.0 37
  190.09294 14.0 14
  190.16731 41.0 41
  191.08777 69.0 69
  191.09848 13.0 13
  192.0731 19.0 19
  192.08942 25.0 25
  192.09669 36.0 36
  193.09364 113.0 113
  193.10239 145.0 145
  193.90884 19.0 19
  194.07556 15.0 15
  194.10237 33.0 33
  194.11453 20.0 20
  195.08618 19.0 19
  195.10977 96.0 96
  195.11638 59.0 59
  195.12859 48.0 48
  196.12459 86.0 86
  197.09341 30.0 30
  197.1284 67.0 67
  197.13947 21.0 21
  198.04915 14.0 14
  198.09431 13.0 13
  198.13402 86.0 86
  199.274 13.0 13
  201.1476 18.0 18
  202.07408 13.0 13
  202.15169 19.0 19
  203.07973 20.0 20
  204.08992 71.0 71
  204.26216 24.0 24
  205.08458 14.0 14
  205.09804 112.0 112
  205.1114 16.0 16
  206.1053 30.0 30
  206.11757 17.0 17
  207.09219 15.0 15
  207.11571 90.0 90
  208.09309 13.0 13
  208.10735 17.0 17
  208.12703 89.0 89
  209.11177 16.0 16
  209.12975 25.0 25
  209.13907 16.0 16
  210.13626 53.0 53
  211.0941 14.0 14
  211.10336 17.0 17
  211.12653 15.0 15
  211.13551 17.0 17
  211.14746 13.0 13
  212.12398 16.0 16
  213.12065 15.0 15
  213.13539 17.0 17
  213.63747 14.0 14
  214.14926 13.0 13
  214.15804 23.0 23
  215.17001 15.0 15
  216.08647 15.0 15
  216.09482 22.0 22
  216.13594 13.0 13
  216.17984 18.0 18
  217.09003 17.0 17
  218.11554 23.0 23
  218.69012 15.0 15
  219.11565 14.0 14
  219.12379 18.0 18
  219.94069 17.0 17
  220.14012 19.0 19
  221.12787 21.0 21
  221.14343 13.0 13
  222.11969 34.0 34
  222.1425 20.0 20
  223.14799 20.0 20
  223.15634 22.0 22
  224.14273 39.0 39
  225.12932 22.0 22
  225.16454 57.0 57
  225.23369 18.0 18
  225.3342 14.0 14
  228.17516 14.0 14
  230.12732 15.0 15
  230.15823 17.0 17
  231.10611 13.0 13
  232.11523 13.0 13
  233.12999 24.0 24
  235.14284 33.0 33
  235.15239 13.0 13
  236.15762 17.0 17
  237.118 17.0 17
  237.1579 76.0 76
  237.17433 14.0 14
  237.21814 13.0 13
  238.15991 15.0 15
  239.14781 18.0 18
  239.17604 29.0 29
  239.18823 27.0 27
  240.16786 17.0 17
  241.17108 14.0 14
  245.12733 16.0 16
  246.41954 17.0 17
  248.16179 18.0 18
  249.14743 16.0 16
  249.15736 30.0 30
  251.13538 14.0 14
  251.14893 17.0 17
  251.17734 20.0 20
  251.18735 15.0 15
  251.19702 13.0 13
  251.21234 14.0 14
  252.15157 13.0 13
  253.14799 29.0 29
  256.20969 18.0 18
  257.12097 13.0 13
  257.93292 16.0 16
  261.14688 21.0 21
  262.60233 16.0 16
  266.19321 24.0 24
  268.16898 16.0 16
  273.93195 19.0 19
  278.19754 16.0 16
  280.21558 20.0 20
  282.23227 14.0 14
  283.19464 16.0 16
  284.16061 13.0 13
  284.18216 14.0 14
  284.19205 20.0 20
  294.18146 17.0 17
  296.20477 15.0 15
  296.22852 14.0 14
  298.22101 41.0 41
  300.16998 14.0 14
  303.77646 14.0 14
  308.19739 29.0 29
  314.2215 14.0 14
  324.22467 20.0 20
  342.22617 104.0 104
  342.24197 605.0 604
  342.27844 23.0 23
  343.21011 22.0 22
  343.23581 105.0 105
  343.26428 16.0 16
  344.24191 14.0 14
  344.25626 19.0 19
  360.2486 14.0 14
  360.26727 33.0 33
//
