ACCESSION: MSBNK-RIKEN-PR300172
RECORD_TITLE: Hirsutine; LC-ESI-QTOF; MS2
DATE: 2019.03.28
AUTHORS: Tetsuya Mori, Center for Sustainable Resource Science, RIKEN
LICENSE: CC BY-NC-SA
PUBLICATION: Tsugawa H., Nakabayashi R., Mori T., Yamada Y., Takahashi M., Rai A., Sugiyama R., Yamamoto H., Nakaya T., Yamazaki M., Kooke R., Bac-Molenaar JA., Oztolan-Erol N., Keurentjes JJB., Arita M., Saito K. (2019) "A cheminformatics approach to characterize metabolomes in stable-isotope-labeled organisms" Nature Methods 16(4):295-298. [doi:10.1038/s41592-019-0358-2]
COMMENT: registered in RIKEN PlaSMA
CH$NAME: Hirsutine
CH$COMPOUND_CLASS: Corynanthean-type alkaloids
CH$FORMULA: C22H28N2O3
CH$EXACT_MASS: 368.477
CH$SMILES: CC[C@H]1CN2CCC3=C(NC4=CC=CC=C34)[C@H]2C[C@@H]1\C(=C/OC)C(=O)OC
CH$IUPAC: InChI=1S/C22H28N2O3/c1-4-14-12-24-10-9-16-15-7-5-6-8-19(15)23-21(16)20(24)11-17(14)18(13-26-2)22(25)27-3/h5-8,13-14,17,20,23H,4,9-12H2,1-3H3/b18-13+/t14-,17-,20+/m0/s1
CH$LINK: INCHIKEY NMLUOJBSAYAYEM-AZQGJTAVSA-N
AC$INSTRUMENT: LC, Waters Acquity UPLC System; MS, Waters Xevo G2 Q-Tof
AC$INSTRUMENT_TYPE: LC-ESI-QTOF
AC$MASS_SPECTROMETRY: MS_TYPE MS2
AC$MASS_SPECTROMETRY: ION_MODE POSITIVE
AC$MASS_SPECTROMETRY: COLLISION_ENERGY 6V
AC$MASS_SPECTROMETRY: DESOLVATION_GAS_FLOW 800/h
AC$MASS_SPECTROMETRY: DESOLVATION_TEMPERATURE 450 C
AC$MASS_SPECTROMETRY: IONIZATION ESI
AC$CHROMATOGRAPHY: CAPILLARY_VOLTAGE +3.00 kV
AC$CHROMATOGRAPHY: COLUMN_NAME Acquity bridged ethyl hybrid C18 (1.7 um, 2.1 mm * 100 mm, Waters)
AC$CHROMATOGRAPHY: COLUMN_TEMPERATURE 40 C
AC$CHROMATOGRAPHY: FLOW_GRADIENT A/B = (99.5%/0.5% at 0 min, 99.5%/0.5% at 0.1 min, 20%/80% at 10 min, 0.5%/99.5% at 10.1 min, 0.5%/99.5% at 12.0 min, 99.5%/0.5% at 12.1 min, 99.5%/0.5% at 15.0 min)
AC$CHROMATOGRAPHY: FLOW_RATE 0.3 ml/min at 0 min, 0.3 ml/min at 10 min, 0.4 ml/min at 10.1 min, 0.4 ml/min at 14.4 min, 0.3 ml/min at 14.5 min
AC$CHROMATOGRAPHY: RETENTION_TIME 5.850083
AC$CHROMATOGRAPHY: SOLVENT A water including 0.1% formic acid
AC$CHROMATOGRAPHY: SOLVENT B acetonitrile including 0.1% formic acid
MS$FOCUSED_ION: PRECURSOR_TYPE [M+H]+
MS$FOCUSED_ION: PRECURSOR_M/Z 369.2172692
PK$SPLASH: splash10-0006-0941000000-a66a5fd633832f9ce101
PK$NUM_PEAK: 152
PK$PEAK: m/z int. rel.int.
  75.04391 15.0 15
  84.08218 32.0 32
  93.06876 8.0 8
  95.04855 21.0 21
  105.06853 7.0 7
  108.0759 7.0 7
  108.08144 13.0 13
  110.0954 131.0 131
  111.10129 12.0 12
  117.06961 33.0 33
  118.06171 8.0 8
  122.09702 14.0 14
  123.04274 7.0 7
  129.05392 125.0 125
  130.06322 63.0 63
  132.07945 7.0 7
  138.05464 10.0 10
  139.0739 18.0 18
  142.06523 10.0 10
  143.07425 19.0 19
  143.08755 7.0 7
  144.05232 7.0 7
  144.08047 1000.0 999
  144.11508 12.0 12
  145.08394 131.0 131
  146.08968 11.0 11
  146.09621 14.0 14
  149.09296 17.0 17
  150.09138 6.0 6
  152.10677 6.0 6
  154.11388 6.0 6
  154.12218 8.0 8
  155.06976 34.0 34
  156.06439 6.0 6
  156.08205 45.0 45
  157.08458 10.0 10
  158.09598 118.0 118
  159.0992 17.0 17
  164.1049 8.0 8
  166.08574 32.0 32
  166.12122 9.0 9
  167.07564 12.0 12
  167.09222 6.0 6
  168.07854 13.0 13
  168.10127 17.0 17
  169.08936 8.0 8
  170.09592 240.0 240
  171.08331 6.0 6
  171.09979 131.0 131
  172.10976 41.0 41
  173.11809 7.0 7
  174.09067 15.0 15
  177.09016 25.0 25
  177.09584 11.0 11
  178.12239 20.0 20
  180.0759 9.0 9
  180.08391 13.0 13
  180.1003 50.0 50
  181.08473 17.0 17
  182.09041 23.0 23
  182.09932 41.0 41
  182.11975 7.0 7
  183.099 13.0 13
  184.10443 8.0 8
  194.09807 9.0 9
  194.11734 60.0 60
  195.09879 11.0 11
  195.11729 8.0 8
  196.11443 9.0 9
  197.10904 32.0 32
  198.11111 6.0 6
  199.12283 68.0 68
  200.12688 7.0 7
  206.09657 37.0 37
  206.11229 12.0 12
  206.12083 10.0 10
  207.10143 10.0 10
  207.11716 6.0 6
  208.07521 21.0 21
  208.1032 5.0 5
  209.08012 5.0 5
  209.11852 7.0 7
  210.12639 9.0 9
  218.09306 5.0 5
  220.11412 8.0 8
  221.10149 6.0 6
  221.11099 7.0 7
  222.09103 9.0 9
  222.13034 9.0 9
  224.1096 11.0 11
  224.13313 56.0 56
  225.13789 36.0 36
  226.1436 254.0 254
  227.14639 46.0 46
  228.15442 6.0 6
  231.10063 6.0 6
  234.08673 13.0 13
  234.09717 9.0 9
  234.11652 5.0 5
  234.12842 14.0 14
  236.10759 15.0 15
  236.13443 16.0 16
  236.14284 42.0 42
  237.10657 6.0 6
  237.14711 11.0 11
  238.11606 9.0 9
  238.14168 236.0 236
  239.14684 27.0 27
  240.09453 12.0 12
  240.10599 15.0 15
  241.1069 7.0 7
  245.11908 5.0 5
  248.14449 11.0 11
  249.14088 14.0 14
  250.15434 5.0 5
  251.10355 6.0 6
  251.13205 6.0 6
  251.15437 93.0 93
  252.09425 9.0 9
  252.10724 6.0 6
  252.15329 10.0 10
  252.16229 9.0 9
  253.1692 51.0 51
  254.11702 13.0 13
  254.17331 15.0 15
  260.13977 6.0 6
  262.12558 6.0 6
  266.11853 60.0 60
  267.12222 12.0 12
  268.13901 6.0 6
  276.1265 6.0 6
  277.14255 10.0 10
  277.16608 10.0 10
  294.14954 9.0 9
  296.15494 5.0 5
  298.11026 7.0 7
  298.14499 81.0 81
  299.14871 14.0 14
  305.16055 25.0 25
  308.16858 13.0 13
  309.19351 5.0 5
  320.16025 17.0 17
  337.15637 5.0 5
  337.1922 100.0 100
  338.19601 15.0 15
  341.18491 22.0 22
  352.19229 19.0 19
  353.1925 6.0 6
  367.20486 22.0 22
  368.20282 8.0 8
  369.16507 7.0 7
  369.21509 221.0 221
//
