ACCESSION: MSBNK-RIKEN-PR308129
RECORD_TITLE: Caffeyl alcohol; LC-ESI-QTOF; MS2
DATE: 2019.03.28
AUTHORS: Tetsuya Mori, Center for Sustainable Resource Science, RIKEN
LICENSE: CC BY-NC-SA
PUBLICATION: Tsugawa H., Nakabayashi R., Mori T., Yamada Y., Takahashi M., Rai A., Sugiyama R., Yamamoto H., Nakaya T., Yamazaki M., Kooke R., Bac-Molenaar JA., Oztolan-Erol N., Keurentjes JJB., Arita M., Saito K. (2019) "A cheminformatics approach to characterize metabolomes in stable-isotope-labeled organisms" Nature Methods 16(4):295-298. [doi:10.1038/s41592-019-0358-2]
COMMENT: registered in RIKEN PlaSMA
CH$NAME: Caffeyl alcohol
CH$COMPOUND_CLASS: Cinnamyl alcohols
CH$FORMULA: C9H10O3
CH$EXACT_MASS: 166.176
CH$SMILES: OCC=CC1=CC(O)=C(O)C=C1
CH$IUPAC: InChI=1S/C9H10O3/c10-5-1-2-7-3-4-8(11)9(12)6-7/h1-4,6,10-12H,5H2
CH$LINK: INCHIKEY ZCKDCRKBURQZPT-UHFFFAOYSA-N
AC$INSTRUMENT: LC, Waters Acquity UPLC System; MS, Waters Xevo G2 Q-Tof
AC$INSTRUMENT_TYPE: LC-ESI-QTOF
AC$MASS_SPECTROMETRY: MS_TYPE MS2
AC$MASS_SPECTROMETRY: ION_MODE NEGATIVE
AC$MASS_SPECTROMETRY: COLLISION_ENERGY 6V
AC$MASS_SPECTROMETRY: DESOLVATION_GAS_FLOW 800/h
AC$MASS_SPECTROMETRY: DESOLVATION_TEMPERATURE 450 C
AC$MASS_SPECTROMETRY: IONIZATION ESI
AC$CHROMATOGRAPHY: CAPILLARY_VOLTAGE -2.75 kV
AC$CHROMATOGRAPHY: COLUMN_NAME Acquity bridged ethyl hybrid C18 (1.7 um, 2.1 mm * 100 mm, Waters)
AC$CHROMATOGRAPHY: COLUMN_TEMPERATURE 40 C
AC$CHROMATOGRAPHY: FLOW_GRADIENT A/B = (99.5%/0.5% at 0 min, 99.5%/0.5% at 0.1 min, 20%/80% at 10 min, 0.5%/99.5% at 10.1 min, 0.5%/99.5% at 12.0 min, 99.5%/0.5% at 12.1 min, 99.5%/0.5% at 15.0 min)
AC$CHROMATOGRAPHY: FLOW_RATE 0.3 ml/min at 0 min, 0.3 ml/min at 10 min, 0.4 ml/min at 10.1 min, 0.4 ml/min at 14.4 min, 0.3 ml/min at 14.5 min
AC$CHROMATOGRAPHY: RETENTION_TIME 3.1751
AC$CHROMATOGRAPHY: SOLVENT A water including 0.1% formic acid
AC$CHROMATOGRAPHY: SOLVENT B acetonitrile including 0.1% formic acid
MS$FOCUSED_ION: PRECURSOR_TYPE [M-H]-
MS$FOCUSED_ION: PRECURSOR_M/Z 165.05571774783
PK$SPLASH: splash10-00kb-0900000000-c4024756a9b54505e78d
PK$NUM_PEAK: 20
PK$PEAK: m/z int. rel.int.
  91.04961 12.0 12
  93.03032 11.0 11
  100.18028 12.0 12
  101.03844 125.0 125
  119.0451 25.0 25
  119.05137 24.0 24
  123.03197 11.0 11
  129.03252 460.0 460
  130.03641 52.0 52
  130.04524 33.0 33
  145.02469 11.0 11
  146.03035 16.0 16
  146.0378 27.0 27
  147.04428 1000.0 999
  147.06093 14.0 14
  148.048 46.0 46
  153.10104 10.0 10
  163.0367 10.0 10
  163.04654 25.0 25
  165.05458 616.0 615
//
