ACCESSION: MSBNK-RIKEN-PR302165
RECORD_TITLE: Kaempferol; LC-ESI-QTOF; MS2
DATE: 2019.03.28
AUTHORS: Tetsuya Mori, Center for Sustainable Resource Science, RIKEN
LICENSE: CC BY-NC-SA
PUBLICATION: Tsugawa H., Nakabayashi R., Mori T., Yamada Y., Takahashi M., Rai A., Sugiyama R., Yamamoto H., Nakaya T., Yamazaki M., Kooke R., Bac-Molenaar JA., Oztolan-Erol N., Keurentjes JJB., Arita M., Saito K. (2019) "A cheminformatics approach to characterize metabolomes in stable-isotope-labeled organisms" Nature Methods 16(4):295-298. [doi:10.1038/s41592-019-0358-2]
COMMENT: registered in RIKEN PlaSMA
CH$NAME: Kaempferol
CH$COMPOUND_CLASS: Flavonols
CH$FORMULA: C15H10O6
CH$EXACT_MASS: 286.239
CH$SMILES: OC1=CC=C(C=C1)C1=C(O)C(=O)C2=C(O)C=C(O)C=C2O1
CH$IUPAC: InChI=1S/C15H10O6/c16-8-3-1-7(2-4-8)15-14(20)13(19)12-10(18)5-9(17)6-11(12)21-15/h1-6,16-18,20H
CH$LINK: INCHIKEY IYRMWMYZSQPJKC-UHFFFAOYSA-N
AC$INSTRUMENT: LC, Waters Acquity UPLC System; MS, Waters Xevo G2 Q-Tof
AC$INSTRUMENT_TYPE: LC-ESI-QTOF
AC$MASS_SPECTROMETRY: MS_TYPE MS2
AC$MASS_SPECTROMETRY: ION_MODE POSITIVE
AC$MASS_SPECTROMETRY: COLLISION_ENERGY 6V
AC$MASS_SPECTROMETRY: DESOLVATION_GAS_FLOW 800/h
AC$MASS_SPECTROMETRY: DESOLVATION_TEMPERATURE 450 C
AC$MASS_SPECTROMETRY: IONIZATION ESI
AC$CHROMATOGRAPHY: CAPILLARY_VOLTAGE +3.00 kV
AC$CHROMATOGRAPHY: COLUMN_NAME Acquity bridged ethyl hybrid C18 (1.7 um, 2.1 mm * 100 mm, Waters)
AC$CHROMATOGRAPHY: COLUMN_TEMPERATURE 40 C
AC$CHROMATOGRAPHY: FLOW_GRADIENT A/B = (99.5%/0.5% at 0 min, 99.5%/0.5% at 0.1 min, 20%/80% at 10 min, 0.5%/99.5% at 10.1 min, 0.5%/99.5% at 12.0 min, 99.5%/0.5% at 12.1 min, 99.5%/0.5% at 15.0 min)
AC$CHROMATOGRAPHY: FLOW_RATE 0.3 ml/min at 0 min, 0.3 ml/min at 10 min, 0.4 ml/min at 10.1 min, 0.4 ml/min at 14.4 min, 0.3 ml/min at 14.5 min
AC$CHROMATOGRAPHY: RETENTION_TIME 6.01355
AC$CHROMATOGRAPHY: SOLVENT A water including 0.1% formic acid
AC$CHROMATOGRAPHY: SOLVENT B acetonitrile including 0.1% formic acid
MS$FOCUSED_ION: PRECURSOR_TYPE [M+H]+
MS$FOCUSED_ION: PRECURSOR_M/Z 287.0550145
PK$SPLASH: splash10-0fri-0950000000-d2cd325e5862ae79dbd7
PK$NUM_PEAK: 191
PK$PEAK: m/z int. rel.int.
  49.96534 6.0 6
  55.01791 6.0 6
  65.01807 9.0 9
  67.0163 30.0 30
  67.02335 13.0 13
  68.97956 11.0 11
  68.99812 64.0 64
  69.03354 6.0 6
  79.05008 8.0 8
  79.0574 7.0 7
  81.03449 13.0 13
  83.42618 6.0 6
  85.02764 14.0 14
  90.01994 6.0 6
  93.01418 6.0 6
  93.0333 76.0 76
  94.04123 8.0 8
  94.5939 11.0 11
  97.03316 10.0 10
  103.05336 26.0 26
  105.02232 7.0 7
  105.03275 83.0 83
  107.05051 58.0 58
  108.02713 8.0 8
  108.04635 7.0 7
  108.9982 9.0 9
  109.02813 50.0 50
  110.99738 13.0 13
  111.007 70.0 70
  111.0148 15.0 15
  115.05394 19.0 19
  117.06895 9.0 9
  119.04991 8.0 8
  121.00555 27.0 27
  121.02972 457.0 457
  121.38144 8.0 8
  121.44849 6.0 6
  121.59205 8.0 8
  122.02901 39.0 39
  123.03357 12.0 12
  124.24047 12.0 12
  125.46329 8.0 8
  126.03271 7.0 7
  127.03854 8.0 8
  127.05093 13.0 13
  127.05716 7.0 7
  128.05186 18.0 18
  128.06458 11.0 11
  129.03911 10.0 10
  129.05283 7.0 7
  129.07069 36.0 36
  130.07339 10.0 10
  133.01579 13.0 13
  133.02969 88.0 88
  135.03951 23.0 23
  135.04739 21.0 21
  135.07971 16.0 16
  136.95909 10.0 10
  137.02362 146.0 146
  138.02745 20.0 20
  139.05232 7.0 7
  141.07326 6.0 6
  141.54631 10.0 10
  142.07367 17.0 17
  143.04843 16.0 16
  143.07573 9.0 9
  145.06291 82.0 82
  145.07359 34.0 34
  146.02292 10.0 10
  147.00345 12.0 12
  147.04034 50.0 50
  147.04727 93.0 93
  147.05811 11.0 11
  151.05405 8.0 8
  152.87209 10.0 10
  152.92181 6.0 6
  152.99759 31.0 31
  153.01831 923.0 922
  153.03511 13.0 13
  154.00943 8.0 8
  154.02303 101.0 101
  154.0341 21.0 21
  155.0522 10.0 10
  157.05109 8.0 8
  157.06429 126.0 126
  157.2075 7.0 7
  158.0675 11.0 11
  158.45462 7.0 7
  159.00101 7.0 7
  160.04652 18.0 18
  160.73166 6.0 6
  161.0276 6.0 6
  161.04587 9.0 9
  161.05879 25.0 25
  162.05992 14.0 14
  165.017 369.0 369
  165.02315 210.0 210
  165.99359 6.0 6
  167.01805 6.0 6
  167.03654 8.0 8
  167.04869 17.0 17
  169.06053 18.0 18
  169.07367 7.0 7
  171.04417 72.0 72
  173.06264 28.0 28
  173.78085 9.0 9
  175.03751 21.0 21
  175.06441 8.0 8
  175.07776 16.0 16
  177.02115 12.0 12
  179.03345 6.0 6
  184.04141 6.0 6
  184.0564 16.0 16
  185.03656 6.0 6
  185.05835 93.0 93
  186.08788 11.0 11
  187.10954 6.0 6
  188.04619 15.0 15
  188.0654 16.0 16
  188.46404 13.0 13
  189.06277 15.0 15
  189.69293 8.0 8
  195.0432 14.0 14
  197.05006 7.0 7
  197.06516 16.0 16
  197.71541 6.0 6
  198.05885 7.0 7
  201.05273 24.0 24
  202.05225 10.0 10
  202.06549 13.0 13
  203.0276 6.0 6
  203.03583 8.0 8
  203.06224 27.0 27
  203.07167 38.0 38
  211.90504 6.0 6
  212.02275 13.0 13
  212.04579 10.0 10
  213.05382 183.0 183
  213.06296 99.0 99
  214.04323 6.0 6
  214.0656 35.0 35
  215.04744 14.0 14
  215.99947 6.0 6
  216.04979 11.0 11
  217.05241 8.0 8
  219.07372 14.0 14
  223.04182 12.0 12
  224.04457 7.0 7
  225.05447 9.0 9
  226.06371 8.0 8
  229.05289 50.0 50
  230.05916 25.0 25
  231.04704 28.0 28
  231.06418 54.0 54
  232.06158 12.0 12
  232.96774 7.0 7
  236.50159 10.0 10
  240.01938 6.0 6
  240.0408 7.0 7
  241.02209 12.0 12
  241.04895 138.0 138
  241.06253 25.0 25
  242.04286 7.0 7
  242.0546 12.0 12
  243.06279 6.0 6
  245.03999 8.0 8
  246.04509 7.0 7
  251.31136 8.0 8
  254.02298 12.0 12
  256.99319 7.0 7
  257.00507 7.0 7
  257.03821 24.0 24
  258.03098 7.0 7
  258.05173 162.0 162
  259.06042 112.0 112
  259.73984 6.0 6
  260.06525 39.0 39
  261.07312 10.0 10
  263.61594 6.0 6
  269.03677 7.0 7
  269.05206 11.0 11
  270.05106 18.0 18
  271.05975 8.0 8
  285.40375 6.0 6
  286.87817 7.0 7
  287.02081 27.0 27
  287.05655 1000.0 999
  287.07864 28.0 28
  287.12122 8.0 8
  287.1767 7.0 7
  287.21225 6.0 6
//
