ACCESSION: MSBNK-RIKEN-PR302904
RECORD_TITLE: Biochanin-7-O-glucoside; LC-ESI-QTOF; MS2
DATE: 2019.03.28
AUTHORS: Tetsuya Mori, Center for Sustainable Resource Science, RIKEN
LICENSE: CC BY-NC-SA
PUBLICATION: Tsugawa H., Nakabayashi R., Mori T., Yamada Y., Takahashi M., Rai A., Sugiyama R., Yamamoto H., Nakaya T., Yamazaki M., Kooke R., Bac-Molenaar JA., Oztolan-Erol N., Keurentjes JJB., Arita M., Saito K. (2019) "A cheminformatics approach to characterize metabolomes in stable-isotope-labeled organisms" Nature Methods 16(4):295-298. [doi:10.1038/s41592-019-0358-2]
COMMENT: registered in RIKEN PlaSMA
CH$NAME: Biochanin-7-O-glucoside
CH$COMPOUND_CLASS: Isoflavonoid O-glycosides
CH$FORMULA: C22H22O10
CH$EXACT_MASS: 446.408
CH$SMILES: COC1=CC=C(C=C1)C1=COC2=CC(O[C@@H]3O[C@H](CO)[C@@H](O)[C@H](O)[C@H]3O)=CC(O)=C2C1=O
CH$IUPAC: InChI=1S/C22H22O10/c1-29-11-4-2-10(3-5-11)13-9-30-15-7-12(6-14(24)17(15)18(13)25)31-22-21(28)20(27)19(26)16(8-23)32-22/h2-7,9,16,19-24,26-28H,8H2,1H3/t16-,19-,20+,21-,22-/m1/s1
CH$LINK: INCHIKEY LFEUICHQZGNOHD-RECXWPGBSA-N
AC$INSTRUMENT: LC, Waters Acquity UPLC System; MS, Waters Xevo G2 Q-Tof
AC$INSTRUMENT_TYPE: LC-ESI-QTOF
AC$MASS_SPECTROMETRY: MS_TYPE MS2
AC$MASS_SPECTROMETRY: ION_MODE POSITIVE
AC$MASS_SPECTROMETRY: COLLISION_ENERGY 6V
AC$MASS_SPECTROMETRY: DESOLVATION_GAS_FLOW 800/h
AC$MASS_SPECTROMETRY: DESOLVATION_TEMPERATURE 450 C
AC$MASS_SPECTROMETRY: IONIZATION ESI
AC$CHROMATOGRAPHY: CAPILLARY_VOLTAGE +3.00 kV
AC$CHROMATOGRAPHY: COLUMN_NAME Acquity bridged ethyl hybrid C18 (1.7 um, 2.1 mm * 100 mm, Waters)
AC$CHROMATOGRAPHY: COLUMN_TEMPERATURE 40 C
AC$CHROMATOGRAPHY: FLOW_GRADIENT A/B = (99.5%/0.5% at 0 min, 99.5%/0.5% at 0.1 min, 20%/80% at 10 min, 0.5%/99.5% at 10.1 min, 0.5%/99.5% at 12.0 min, 99.5%/0.5% at 12.1 min, 99.5%/0.5% at 15.0 min)
AC$CHROMATOGRAPHY: FLOW_RATE 0.3 ml/min at 0 min, 0.3 ml/min at 10 min, 0.4 ml/min at 10.1 min, 0.4 ml/min at 14.4 min, 0.3 ml/min at 14.5 min
AC$CHROMATOGRAPHY: RETENTION_TIME 5.73275
AC$CHROMATOGRAPHY: SOLVENT A water including 0.1% formic acid
AC$CHROMATOGRAPHY: SOLVENT B acetonitrile including 0.1% formic acid
MS$FOCUSED_ION: PRECURSOR_TYPE [M+H]+
MS$FOCUSED_ION: PRECURSOR_M/Z 447.1285734
PK$SPLASH: splash10-0udi-0690000000-04b4d6da6302bf58851a
PK$NUM_PEAK: 211
PK$PEAK: m/z int. rel.int.
  65.04066 16.0 16
  69.03687 15.0 15
  83.01008 13.0 13
  91.0549 16.0 16
  96.02065 10.0 10
  97.02277 12.0 12
  103.05165 21.0 21
  103.05787 12.0 12
  104.0335 13.0 13
  105.07191 16.0 16
  107.0472 40.0 40
  108.01632 13.0 13
  110.64843 22.0 22
  112.01261 14.0 14
  118.04105 172.0 172
  119.04138 17.0 17
  119.05109 61.0 61
  120.05107 24.0 24
  121.0092 14.0 14
  121.02248 11.0 11
  121.02821 26.0 26
  121.06962 26.0 26
  122.07162 13.0 13
  122.09634 21.0 21
  123.03574 102.0 102
  123.04494 232.0 232
  123.9984 14.0 14
  124.01553 173.0 173
  125.01679 16.0 16
  126.03419 14.0 14
  127.05151 17.0 17
  128.06018 15.0 15
  129.0703 13.0 13
  131.03827 20.0 20
  131.04778 24.0 24
  131.29628 9.0 9
  132.02306 24.0 24
  132.05461 11.0 11
  133.02512 25.0 25
  133.05569 27.0 27
  133.06372 145.0 145
  135.04105 21.0 21
  136.02036 15.0 15
  139.03572 29.0 29
  139.04613 12.0 12
  140.02774 13.0 13
  140.0372 12.0 12
  140.06398 15.0 15
  141.06717 30.0 30
  142.07812 17.0 17
  142.54483 14.0 14
  144.04214 10.0 10
  144.06265 21.0 21
  144.99608 18.0 18
  145.06389 55.0 55
  149.02367 292.0 292
  149.03922 29.0 29
  149.3391 10.0 10
  150.03259 11.0 11
  152.01184 1000.0 999
  152.04187 10.0 10
  153.01788 425.0 425
  153.05844 14.0 14
  153.07843 18.0 18
  154.01201 9.0 9
  155.04349 22.0 22
  158.02017 18.0 18
  158.03664 243.0 243
  158.07095 59.0 59
  159.03197 9.0 9
  159.03964 12.0 12
  159.08472 13.0 13
  160.03671 10.0 10
  161.05786 28.0 28
  161.08879 15.0 15
  161.09441 23.0 23
  161.10564 9.0 9
  163.04054 80.0 80
  165.06595 13.0 13
  167.04192 20.0 20
  168.03769 18.0 18
  168.05478 30.0 30
  168.06145 22.0 22
  169.06601 18.0 18
  169.07123 10.0 10
  169.76376 10.0 10
  170.74622 10.0 10
  172.06149 18.0 18
  172.08887 17.0 17
  172.59932 17.0 17
  173.04936 20.0 20
  173.05983 36.0 36
  173.10201 16.0 16
  174.10225 12.0 12
  177.06596 17.0 17
  179.03188 71.0 71
  179.08493 11.0 11
  180.03859 26.0 26
  180.04892 23.0 23
  182.59183 10.0 10
  183.04033 11.0 11
  183.07619 15.0 15
  183.09283 14.0 14
  184.0493 10.0 10
  184.08926 26.0 26
  185.01038 26.0 26
  185.05457 32.0 32
  185.06374 15.0 15
  186.05907 12.0 12
  186.0697 42.0 42
  187.06708 29.0 29
  187.07593 12.0 12
  190.12512 16.0 16
  194.95992 11.0 11
  196.03825 11.0 11
  196.0593 12.0 12
  197.0515 44.0 44
  197.06073 87.0 87
  198.02394 14.0 14
  198.04985 15.0 15
  198.06082 29.0 29
  198.07442 11.0 11
  199.03929 12.0 12
  199.06398 15.0 15
  199.07724 14.0 14
  200.04497 11.0 11
  201.05507 73.0 73
  201.09062 14.0 14
  201.1046 10.0 10
  210.07619 30.0 30
  211.0724 45.0 45
  211.45551 11.0 11
  212.04739 21.0 21
  212.05972 10.0 10
  213.05507 634.0 633
  214.02493 17.0 17
  214.0576 159.0 159
  214.0681 68.0 68
  214.08044 14.0 14
  214.45926 18.0 18
  215.0498 22.0 22
  215.06631 39.0 39
  215.56015 14.0 14
  216.03722 15.0 15
  216.05931 17.0 17
  219.0929 13.0 13
  222.11896 10.0 10
  224.0482 104.0 104
  225.01706 14.0 14
  225.03865 10.0 10
  225.05147 55.0 55
  225.06551 15.0 15
  226.06508 9.0 9
  227.06892 11.0 11
  228.04292 11.0 11
  228.06607 11.0 11
  229.08675 409.0 409
  230.08792 34.0 34
  230.09619 47.0 47
  230.10751 16.0 16
  239.0739 12.0 12
  239.37134 12.0 12
  240.07153 16.0 16
  241.03586 23.0 23
  241.05115 236.0 236
  242.0144 14.0 14
  242.02534 12.0 12
  242.05542 881.0 880
  242.07986 10.0 10
  243.05315 129.0 129
  243.07483 26.0 26
  244.06625 9.0 9
  245.33569 16.0 16
  245.95934 12.0 12
  252.04779 38.0 38
  253.02423 34.0 34
  253.05043 714.0 713
  253.55518 9.0 9
  254.05353 118.0 118
  254.07025 31.0 31
  257.07211 18.0 18
  257.08325 74.0 74
  258.71326 11.0 11
  261.21402 16.0 16
  267.05762 11.0 11
  269.01434 25.0 25
  269.04169 599.0 598
  269.0668 27.0 27
  270.02112 10.0 10
  270.0524 796.0 795
  270.08527 11.0 11
  270.26431 16.0 16
  271.03464 24.0 24
  271.04709 88.0 88
  271.0629 34.0 34
  271.07446 14.0 14
  272.04904 30.0 30
  272.07593 9.0 9
  275.24078 12.0 12
  284.78354 11.0 11
  285.07388 754.0 753
  285.29507 20.0 20
  286.06381 61.0 61
  286.08038 225.0 225
  287.06995 25.0 25
  287.08911 32.0 32
  288.74402 9.0 9
  295.75397 12.0 12
  297.92728 11.0 11
  328.95181 20.0 20
  375.94061 13.0 13
//
