ACCESSION: MSBNK-RIKEN-PR100357
RECORD_TITLE: Luteolin-3',7-di-O-glucoside; LC-ESI-QTOF; MS2; CE:Ramp 5-60 V; [M+H]+
DATE: 2016.01.19 (Created 2009.09.10, modified 2011.05.06)
AUTHORS: Matsuda F, Suzuki M, Sawada Y, Plant Science Center, RIKEN.
LICENSE: CC BY-SA
COMMENT: Acquisition and generation of the data is financially supported in part by CREST/JST.
CH$NAME: 5-hydroxy-2-[4-hydroxy-3-[(2S,3R,4S,5R,6R)-3,4,5-trihydroxy-6-(hydroxymethyl)oxan-2-yl]oxy-phenyl]-7-[(2S,3R,4S,5R,6R)-3,4,5-trihydroxy-6-(hydroxymethyl)oxan-2-yl]oxy-chromen-4-one
CH$NAME: luteolin-3',7-di-O-glucoside
CH$NAME: Luteolin 3',7-O-diglucoside
CH$NAME: Luteolin-7,3'-di-O-glucoside
CH$NAME: Lutl-3p-Glc-7-Glc
CH$COMPOUND_CLASS: Flavonoid
CH$FORMULA: C27H30O16
CH$EXACT_MASS: 610.15338
CH$SMILES: C1=CC(=C(C=C1C2=CC(=O)C3=C(C=C(C=C3O2)O[C@H]4[C@@H]([C@H]([C@@H]([C@H](O4)CO)O)O)O)O)O[C@H]5[C@@H]([C@H]([C@@H]([C@H](O5)CO)O)O)O)O
CH$IUPAC: InChI=1S/C27H30O16/c28-7-17-20(33)22(35)24(37)26(42-17)39-10-4-12(31)19-13(32)6-14(40-16(19)5-10)9-1-2-11(30)15(3-9)41-27-25(38)23(36)21(34)18(8-29)43-27/h1-6,17-18,20-31,33-38H,7-8H2/t17-,18-,20-,21-,22+,23+,24-,25-,26-,27-/m1/s1
CH$LINK: CAS 52187-80-1
CH$LINK: CHEMSPIDER 4590322
CH$LINK: COMPTOX DTXSID90200214
CH$LINK: INCHIKEY BISZYPSIZGKOFA-IPOZFMEPSA-N
CH$LINK: KNAPSACK C00004290
CH$LINK: NIKKAJI J279.475F
CH$LINK: PUBCHEM CID:5490298
AC$INSTRUMENT: UPLC Q-Tof Premier, Waters
AC$INSTRUMENT_TYPE: LC-ESI-QTOF
AC$MASS_SPECTROMETRY: MS_TYPE MS2
AC$MASS_SPECTROMETRY: ION_MODE POSITIVE
AC$MASS_SPECTROMETRY: COLLISION_ENERGY Ramp 5-60 V
AC$MASS_SPECTROMETRY: DATAFORMAT Continuum
AC$MASS_SPECTROMETRY: DATE 2008.07.28
AC$MASS_SPECTROMETRY: DESOLVATION_GAS_FLOW 600.0 L/Hr
AC$MASS_SPECTROMETRY: DESOLVATION_TEMPERATURE 420 C
AC$MASS_SPECTROMETRY: FRAGMENTATION_METHOD LOW-ENERGY CID
AC$MASS_SPECTROMETRY: IONIZATION ESI
AC$MASS_SPECTROMETRY: SCANNING 1.0 sec/scan (m/z = 50-1000)
AC$MASS_SPECTROMETRY: SOURCE_TEMPERATURE 120 C
AC$CHROMATOGRAPHY: CAPILLARY_VOLTAGE 3.0 kV
AC$CHROMATOGRAPHY: SAMPLING_CONE 23.0 V
AC$CHROMATOGRAPHY: SOLVENT A CH3CN(0.1%HCOOH)
AC$CHROMATOGRAPHY: SOLVENT B H2O(0.1%HCOOH)
MS$FOCUSED_ION: PRECURSOR_M/Z 611.16118
MS$FOCUSED_ION: PRECURSOR_TYPE [M+H]+
PK$SPLASH: splash10-000i-0090302000-33a2b4faa62c8620fbc8
PK$NUM_PEAK: 5
PK$PEAK: m/z int. rel.int.
  153.0186 32.26 21
  287.0554 1556 999
  288.0587 19.32 12
  449.1074 683.4 439
  611.1612 413.5 265
//
