ACCESSION: MSBNK-RIKEN-PR303389
RECORD_TITLE: NP-006989(12); LC-ESI-QTOF; MS2
DATE: 2019.03.28
AUTHORS: Tetsuya Mori, Center for Sustainable Resource Science, RIKEN
LICENSE: CC BY-NC-SA
PUBLICATION: Tsugawa H., Nakabayashi R., Mori T., Yamada Y., Takahashi M., Rai A., Sugiyama R., Yamamoto H., Nakaya T., Yamazaki M., Kooke R., Bac-Molenaar JA., Oztolan-Erol N., Keurentjes JJB., Arita M., Saito K. (2019) "A cheminformatics approach to characterize metabolomes in stable-isotope-labeled organisms" Nature Methods 16(4):295-298. [doi:10.1038/s41592-019-0358-2]
COMMENT: registered in RIKEN PlaSMA
CH$NAME: NP-006989(12)
CH$COMPOUND_CLASS: Flavonoid 8-C-glycosides
CH$FORMULA: C27H30O16
CH$EXACT_MASS: 610.521
CH$SMILES: OC[C@H]1O[C@H]([C@H](O)[C@@H](O)[C@@H]1O)C1=C(O)C(C2OC(CO)C(O)C(O)C2O)=C2OC(=CC(=O)C2=C1O)C1=CC(O)=C(O)C=C1
CH$IUPAC: InChI=1S/C27H30O16/c28-5-12-17(33)21(37)23(39)26(42-12)15-19(35)14-10(32)4-11(7-1-2-8(30)9(31)3-7)41-25(14)16(20(15)36)27-24(40)22(38)18(34)13(6-29)43-27/h1-4,12-13,17-18,21-24,26-31,33-40H,5-6H2/t12-,13?,17-,18?,21+,22?,23-,24?,26+,27?/m1/s1
CH$LINK: INCHIKEY ZLPSOQFIIQIIAX-FCSQLNSJSA-N
AC$INSTRUMENT: LC, Waters Acquity UPLC System; MS, Waters Xevo G2 Q-Tof
AC$INSTRUMENT_TYPE: LC-ESI-QTOF
AC$MASS_SPECTROMETRY: MS_TYPE MS2
AC$MASS_SPECTROMETRY: ION_MODE POSITIVE
AC$MASS_SPECTROMETRY: COLLISION_ENERGY 6V
AC$MASS_SPECTROMETRY: DESOLVATION_GAS_FLOW 800/h
AC$MASS_SPECTROMETRY: DESOLVATION_TEMPERATURE 450 C
AC$MASS_SPECTROMETRY: IONIZATION ESI
AC$CHROMATOGRAPHY: CAPILLARY_VOLTAGE +3.00 kV
AC$CHROMATOGRAPHY: COLUMN_NAME Acquity bridged ethyl hybrid C18 (1.7 um, 2.1 mm * 100 mm, Waters)
AC$CHROMATOGRAPHY: COLUMN_TEMPERATURE 40 C
AC$CHROMATOGRAPHY: FLOW_GRADIENT A/B = (99.5%/0.5% at 0 min, 99.5%/0.5% at 0.1 min, 20%/80% at 10 min, 0.5%/99.5% at 10.1 min, 0.5%/99.5% at 12.0 min, 99.5%/0.5% at 12.1 min, 99.5%/0.5% at 15.0 min)
AC$CHROMATOGRAPHY: FLOW_RATE 0.3 ml/min at 0 min, 0.3 ml/min at 10 min, 0.4 ml/min at 10.1 min, 0.4 ml/min at 14.4 min, 0.3 ml/min at 14.5 min
AC$CHROMATOGRAPHY: RETENTION_TIME 3.100167
AC$CHROMATOGRAPHY: SOLVENT A water including 0.1% formic acid
AC$CHROMATOGRAPHY: SOLVENT B acetonitrile including 0.1% formic acid
MS$FOCUSED_ION: PRECURSOR_TYPE [M+H]+
MS$FOCUSED_ION: PRECURSOR_M/Z 611.1606613
PK$SPLASH: splash10-03di-0008966000-eb7cc2bcdbfac576b461
PK$NUM_PEAK: 197
PK$PEAK: m/z int. rel.int.
  137.0135 9.0 9
  202.06203 6.0 6
  231.05688 7.0 7
  266.05667 5.0 5
  267.2728 5.0 5
  278.61658 8.0 8
  286.06152 5.0 5
  288.07144 7.0 7
  294.05551 7.0 7
  295.04611 5.0 5
  295.0563 5.0 5
  310.04346 12.0 12
  311.05191 83.0 83
  312.05673 17.0 17
  323.0416 14.0 14
  323.05493 35.0 35
  324.04776 9.0 9
  325.07037 28.0 28
  330.3541 7.0 7
  335.03882 9.0 9
  335.06613 5.0 5
  337.06897 18.0 18
  337.08508 5.0 5
  339.05646 8.0 8
  340.0647 9.0 9
  341.03555 18.0 18
  341.06485 139.0 139
  341.08698 14.0 14
  342.06793 66.0 66
  343.06836 11.0 11
  343.07657 5.0 5
  346.43738 7.0 7
  349.03281 5.0 5
  349.07178 16.0 16
  351.06833 10.0 10
  351.07895 8.0 8
  352.08774 12.0 12
  353.0289 6.0 6
  353.06146 92.0 92
  353.07492 60.0 60
  354.06354 15.0 15
  355.05048 5.0 5
  355.07147 8.0 8
  357.37698 6.0 6
  362.08002 6.0 6
  362.69791 6.0 6
  363.04376 5.0 5
  363.08997 7.0 7
  365.0723 56.0 56
  366.06299 6.0 6
  367.07248 14.0 14
  367.09036 7.0 7
  368.0784 14.0 14
  371.03638 9.0 9
  371.0675 36.0 36
  372.08936 15.0 15
  377.06528 41.0 41
  378.06082 6.0 6
  378.07547 5.0 5
  379.08163 9.0 9
  381.09302 19.0 19
  381.10562 15.0 15
  382.09479 5.0 5
  383.07138 14.0 14
  384.07565 7.0 7
  384.08713 7.0 7
  389.05658 9.0 9
  390.9082 8.0 8
  391.04196 8.0 8
  391.08664 5.0 5
  394.98074 7.0 7
  395.04028 19.0 19
  395.05844 24.0 24
  395.07785 151.0 151
  396.05124 5.0 5
  396.07318 34.0 34
  398.09106 13.0 13
  399.09433 5.0 5
  401.04694 6.0 6
  401.07022 11.0 11
  401.18185 6.0 6
  402.08328 6.0 6
  407.06519 36.0 36
  407.07932 60.0 60
  407.56619 5.0 5
  408.0625 7.0 7
  411.07434 7.0 7
  412.07278 6.0 6
  419.05356 7.0 7
  419.07123 19.0 19
  419.08405 31.0 31
  423.08102 8.0 8
  425.08075 90.0 90
  426.08234 18.0 18
  426.10342 7.0 7
  427.10159 5.0 5
  431.09348 6.0 6
  435.0697 5.0 5
  437.07184 14.0 14
  437.09155 28.0 28
  437.10818 18.0 18
  438.08783 11.0 11
  443.09528 110.0 110
  443.10703 44.0 44
  444.06998 12.0 12
  444.10812 31.0 31
  448.05597 6.0 6
  449.07135 7.0 7
  449.09711 6.0 6
  451.11157 10.0 10
  453.09464 6.0 6
  455.06711 12.0 12
  455.09686 62.0 62
  455.11172 19.0 19
  456.08099 12.0 12
  456.11044 5.0 5
  457.10046 9.0 9
  459.07367 5.0 5
  461.06912 10.0 10
  461.09055 34.0 34
  461.10617 18.0 18
  463.42261 8.0 8
  471.10373 5.0 5
  472.0647 7.0 7
  472.11389 7.0 7
  473.10406 225.0 225
  474.07291 8.0 8
  474.1066 79.0 79
  474.13434 9.0 9
  474.24652 9.0 9
  475.11572 16.0 16
  479.0751 8.0 8
  479.09299 7.0 7
  480.09756 9.0 9
  489.09021 10.0 10
  490.10211 6.0 6
  491.08002 16.0 16
  491.11032 68.0 68
  491.13791 30.0 30
  492.13608 5.0 5
  497.07904 35.0 35
  497.11169 67.0 67
  498.09323 10.0 10
  498.11407 20.0 20
  498.1319 7.0 7
  503.07913 11.0 11
  503.10388 13.0 13
  509.10223 6.0 6
  515.1145 26.0 26
  515.13123 26.0 26
  516.09894 11.0 11
  516.13934 10.0 10
  521.10065 22.0 22
  525.10443 10.0 10
  527.10138 39.0 39
  527.11932 55.0 55
  527.13904 15.0 15
  528.12665 26.0 26
  539.11957 88.0 88
  540.11298 28.0 28
  541.14716 5.0 5
  544.1543 5.0 5
  545.10657 12.0 12
  545.12128 25.0 25
  545.1452 6.0 6
  546.11688 7.0 7
  546.13159 9.0 9
  548.15118 7.0 7
  557.04108 9.0 9
  557.11102 16.0 16
  557.12946 26.0 26
  557.14197 9.0 9
  575.11041 23.0 23
  575.14825 86.0 86
  576.10956 12.0 12
  576.13751 15.0 15
  576.16864 8.0 8
  577.15765 12.0 12
  578.17188 5.0 5
  591.14111 8.0 8
  592.1532 9.0 9
  593.13794 145.0 145
  593.16797 73.0 73
  594.14526 54.0 54
  594.16418 49.0 49
  595.14722 8.0 8
  595.16919 11.0 11
  596.16522 5.0 5
  601.12158 8.0 8
  609.14136 8.0 8
  610.06934 6.0 6
  610.12512 11.0 11
  610.17151 16.0 16
  610.41663 7.0 7
  611.04547 5.0 5
  611.09161 25.0 25
  611.16162 1000.0 999
//
