ACCESSION: MSBNK-RIKEN-PR304315
RECORD_TITLE: Soyasaponin Ba; LC-ESI-QTOF; MS2
DATE: 2019.03.28
AUTHORS: Tetsuya Mori, Center for Sustainable Resource Science, RIKEN
LICENSE: CC BY-NC-SA
PUBLICATION: Tsugawa H., Nakabayashi R., Mori T., Yamada Y., Takahashi M., Rai A., Sugiyama R., Yamamoto H., Nakaya T., Yamazaki M., Kooke R., Bac-Molenaar JA., Oztolan-Erol N., Keurentjes JJB., Arita M., Saito K. (2019) "A cheminformatics approach to characterize metabolomes in stable-isotope-labeled organisms" Nature Methods 16(4):295-298. [doi:10.1038/s41592-019-0358-2]
COMMENT: registered in RIKEN PlaSMA
CH$NAME: Soyasaponin Ba
CH$COMPOUND_CLASS: Triterpene saponins
CH$FORMULA: C48H78O19
CH$EXACT_MASS: 959.133
CH$SMILES: CC1(C)CC(O)C2(C)CCC3(C)C(=CCC4C5(C)CCC(OC6OC(C(O)C(O)C6OC6OC(CO)C(O)C(O)C6OC6OC(CO)C(O)C(O)C6O)C(O)=O)C(C)(CO)C5CCC34C)C2C1
CH$IUPAC: InChI=1S/C48H78O19/c1-43(2)16-22-21-8-9-26-45(4)12-11-28(46(5,20-51)25(45)10-13-48(26,7)47(21,6)15-14-44(22,3)27(52)17-43)64-42-38(34(58)33(57)36(65-42)39(60)61)67-41-37(32(56)30(54)24(19-50)63-41)66-40-35(59)31(55)29(53)23(18-49)62-40/h8,22-38,40-42,49-59H,9-20H2,1-7H3,(H,60,61)
CH$LINK: INCHIKEY WFRQIKSNAYYUJZ-UHFFFAOYSA-N
AC$INSTRUMENT: LC, Waters Acquity UPLC System; MS, Waters Xevo G2 Q-Tof
AC$INSTRUMENT_TYPE: LC-ESI-QTOF
AC$MASS_SPECTROMETRY: MS_TYPE MS2
AC$MASS_SPECTROMETRY: ION_MODE POSITIVE
AC$MASS_SPECTROMETRY: COLLISION_ENERGY 6V
AC$MASS_SPECTROMETRY: DESOLVATION_GAS_FLOW 800/h
AC$MASS_SPECTROMETRY: DESOLVATION_TEMPERATURE 450 C
AC$MASS_SPECTROMETRY: IONIZATION ESI
AC$CHROMATOGRAPHY: CAPILLARY_VOLTAGE +3.00 kV
AC$CHROMATOGRAPHY: COLUMN_NAME Acquity bridged ethyl hybrid C18 (1.7 um, 2.1 mm * 100 mm, Waters)
AC$CHROMATOGRAPHY: COLUMN_TEMPERATURE 40 C
AC$CHROMATOGRAPHY: FLOW_GRADIENT A/B = (99.5%/0.5% at 0 min, 99.5%/0.5% at 0.1 min, 20%/80% at 10 min, 0.5%/99.5% at 10.1 min, 0.5%/99.5% at 12.0 min, 99.5%/0.5% at 12.1 min, 99.5%/0.5% at 15.0 min)
AC$CHROMATOGRAPHY: FLOW_RATE 0.3 ml/min at 0 min, 0.3 ml/min at 10 min, 0.4 ml/min at 10.1 min, 0.4 ml/min at 14.4 min, 0.3 ml/min at 14.5 min
AC$CHROMATOGRAPHY: RETENTION_TIME 6.969333
AC$CHROMATOGRAPHY: SOLVENT A water including 0.1% formic acid
AC$CHROMATOGRAPHY: SOLVENT B acetonitrile including 0.1% formic acid
MS$FOCUSED_ION: PRECURSOR_TYPE [M+H]+
MS$FOCUSED_ION: PRECURSOR_M/Z 959.5210067
PK$SPLASH: splash10-0ir4-1961200000-88b69e75f77e6d86fba0
PK$NUM_PEAK: 484
PK$PEAK: m/z int. rel.int.
  57.06698 9.0 9
  61.02792 24.0 24
  69.07293 20.0 20
  71.04617 9.0 9
  71.08923 10.0 10
  73.01884 9.0 9
  73.02663 26.0 26
  81.0591 10.0 10
  81.06864 43.0 43
  81.07194 18.0 18
  82.62709 8.0 8
  83.0859 20.0 20
  85.02727 183.0 183
  85.03204 97.0 97
  87.04028 21.0 21
  91.03835 208.0 208
  92.04153 12.0 12
  92.04928 8.0 8
  93.065 18.0 18
  93.07155 52.0 52
  94.07447 9.0 9
  95.01082 39.0 39
  95.08437 210.0 210
  97.01336 8.0 8
  97.02695 164.0 164
  97.03597 16.0 16
  97.11019 11.0 11
  99.03721 8.0 8
  99.04188 8.0 8
  99.08512 9.0 9
  100.0868 8.0 8
  101.0246 8.0 8
  103.03579 8.0 8
  103.04284 18.0 18
  105.06674 8.0 8
  107.08582 193.0 193
  108.0874 11.0 11
  109.02906 11.0 11
  109.06408 9.0 9
  109.10228 266.0 266
  110.71239 9.0 9
  111.04465 10.0 10
  111.05463 12.0 12
  111.07769 87.0 87
  111.11539 19.0 19
  113.02299 25.0 25
  113.09382 11.0 11
  115.03546 8.0 8
  115.0423 28.0 28
  119.07871 27.0 27
  119.08591 104.0 104
  119.10038 9.0 9
  120.07229 8.0 8
  121.08849 9.0 9
  121.10064 127.0 127
  122.08929 8.0 8
  122.10152 18.0 18
  122.10734 8.0 8
  123.0068 8.0 8
  123.1153 133.0 133
  124.11896 8.0 8
  125.09444 8.0 8
  125.13383 8.0 8
  127.0387 207.0 207
  127.65221 11.0 11
  130.78923 9.0 9
  131.02737 10.0 10
  131.07704 12.0 12
  131.08534 24.0 24
  133.10027 131.0 131
  134.10501 16.0 16
  134.26007 11.0 11
  134.29346 8.0 8
  135.1161 229.0 229
  135.12273 55.0 55
  136.11606 19.0 19
  136.12288 7.0 7
  137.09381 8.0 8
  137.12811 21.0 21
  137.13293 49.0 49
  138.12994 19.0 19
  139.11057 76.0 76
  140.99866 11.0 11
  141.0179 854.0 853
  141.31206 8.0 8
  142.02144 48.0 48
  143.01996 8.0 8
  143.08362 8.0 8
  145.01584 9.0 9
  145.02707 8.0 8
  145.04932 541.0 540
  145.10085 24.0 24
  145.10973 24.0 24
  145.11517 8.0 8
  145.82083 9.0 9
  146.05739 41.0 41
  146.10036 8.0 8
  146.10777 8.0 8
  146.34299 8.0 8
  146.67729 8.0 8
  147.05794 16.0 16
  147.11775 132.0 132
  148.11781 26.0 26
  148.65929 8.0 8
  149.09686 12.0 12
  149.13197 234.0 234
  150.13248 8.0 8
  150.14192 25.0 25
  151.09656 9.0 9
  151.10873 29.0 29
  151.14836 9.0 9
  151.15723 8.0 8
  151.76753 11.0 11
  153.19009 15.0 15
  153.75941 9.0 9
  155.35339 9.0 9
  157.10185 8.0 8
  159.02679 229.0 229
  159.03534 50.0 50
  159.11433 96.0 96
  160.02942 48.0 48
  160.10733 8.0 8
  160.11575 9.0 9
  160.12224 8.0 8
  160.74405 8.0 8
  161.1333 175.0 175
  162.13216 24.0 24
  163.04355 12.0 12
  163.06038 628.0 627
  163.1091 43.0 43
  163.14647 401.0 401
  164.05862 12.0 12
  164.0665 30.0 30
  164.1031 8.0 8
  164.14282 22.0 22
  164.91995 10.0 10
  164.97723 14.0 14
  165.05727 9.0 9
  165.09018 8.0 8
  165.12927 75.0 75
  167.14066 24.0 24
  171.11273 18.0 18
  171.12152 9.0 9
  172.12433 9.0 9
  173.00851 8.0 8
  173.1153 9.0 9
  173.13373 88.0 88
  173.7972 12.0 12
  174.14046 24.0 24
  175.13538 49.0 49
  175.14905 260.0 260
  176.15514 10.0 10
  177.0361 40.0 40
  177.04803 17.0 17
  177.13979 9.0 9
  177.1512 36.0 36
  177.16328 349.0 349
  177.48315 10.0 10
  178.12134 9.0 9
  178.16028 36.0 36
  178.17175 16.0 16
  179.13905 16.0 16
  179.18019 12.0 12
  180.1812 8.0 8
  181.07782 8.0 8
  182.15718 9.0 9
  185.14015 13.0 13
  187.12856 9.0 9
  187.14738 165.0 165
  188.14034 8.0 8
  189.04323 9.0 9
  189.11203 11.0 11
  189.16263 321.0 321
  189.65456 9.0 9
  190.1588 20.0 20
  190.17358 23.0 23
  191.13902 18.0 18
  191.14949 8.0 8
  191.17787 183.0 183
  191.89619 8.0 8
  192.14575 8.0 8
  192.17409 8.0 8
  192.18922 24.0 24
  193.15866 78.0 78
  193.16809 16.0 16
  194.11365 8.0 8
  194.1642 9.0 9
  195.1057 9.0 9
  195.17438 88.0 88
  195.57759 8.0 8
  196.1769 15.0 15
  197.13124 9.0 9
  199.14859 57.0 57
  201.13412 8.0 8
  201.14665 18.0 18
  201.16422 239.0 239
  202.16373 18.0 18
  202.17352 20.0 20
  203.14558 40.0 40
  203.17722 709.0 708
  204.17682 36.0 36
  204.18573 112.0 112
  204.19812 16.0 16
  204.94156 8.0 8
  204.98528 8.0 8
  205.129 8.0 8
  205.1599 68.0 68
  205.19487 117.0 117
  205.20808 9.0 9
  206.16014 11.0 11
  206.16829 13.0 13
  206.18774 19.0 19
  206.20027 8.0 8
  207.15025 8.0 8
  207.17302 100.0 100
  207.1833 43.0 43
  208.16447 9.0 9
  208.18811 9.0 9
  213.16014 31.0 31
  213.16881 37.0 37
  214.17113 17.0 17
  215.15501 15.0 15
  215.17897 360.0 360
  216.18156 68.0 68
  217.14969 8.0 8
  217.16179 36.0 36
  217.1931 267.0 267
  217.20045 203.0 203
  218.19737 65.0 65
  218.22139 9.0 9
  219.15248 8.0 8
  219.17386 279.0 279
  219.19867 17.0 17
  219.21355 49.0 49
  220.17148 32.0 32
  220.18636 20.0 20
  220.21797 11.0 11
  221.18655 151.0 151
  222.18413 11.0 11
  222.19287 26.0 26
  227.09236 9.0 9
  227.17387 24.0 24
  227.1851 40.0 40
  228.19429 8.0 8
  229.06769 11.0 11
  229.19376 262.0 262
  230.18317 8.0 8
  230.19318 9.0 9
  230.31267 8.0 8
  231.16147 8.0 8
  231.17744 26.0 26
  231.19928 43.0 43
  231.21414 32.0 32
  232.2048 8.0 8
  232.91931 12.0 12
  233.16946 27.0 27
  233.18837 135.0 135
  233.19742 43.0 43
  234.18834 48.0 48
  234.20018 15.0 15
  235.19086 28.0 28
  235.20605 25.0 25
  238.05035 8.0 8
  239.17918 8.0 8
  241.19441 39.0 39
  242.18233 8.0 8
  243.18018 8.0 8
  243.21068 114.0 114
  243.22784 8.0 8
  245.18517 16.0 16
  245.20966 8.0 8
  245.22 18.0 18
  246.19713 16.0 16
  246.23697 8.0 8
  247.20612 281.0 281
  247.23996 8.0 8
  248.19499 13.0 13
  248.21062 42.0 42
  253.18619 15.0 15
  253.20357 10.0 10
  255.21289 62.0 62
  256.22205 9.0 9
  257.18427 9.0 9
  257.19617 8.0 8
  257.21259 21.0 21
  257.21988 60.0 60
  257.2323 89.0 89
  258.07498 9.0 9
  258.22903 16.0 16
  259.19852 19.0 19
  259.21185 9.0 9
  259.25562 8.0 8
  260.21698 9.0 9
  260.24594 8.0 8
  261.22507 69.0 69
  261.23828 13.0 13
  262.22159 28.0 28
  265.11282 9.0 9
  265.83398 9.0 9
  266.78198 9.0 9
  267.06653 8.0 8
  267.1944 9.0 9
  267.20816 25.0 25
  267.22009 10.0 10
  268.18118 9.0 9
  268.21124 8.0 8
  268.22153 8.0 8
  269.21078 9.0 9
  269.22687 37.0 37
  269.2471 8.0 8
  271.17972 8.0 8
  271.23196 11.0 11
  271.24759 39.0 39
  272.21545 16.0 16
  272.24197 10.0 10
  273.1922 17.0 17
  273.22153 78.0 78
  273.25183 8.0 8
  274.22083 24.0 24
  275.23624 36.0 36
  275.2453 36.0 36
  276.24683 9.0 9
  277.14804 8.0 8
  281.22418 29.0 29
  281.23776 10.0 10
  282.22446 26.0 26
  283.14352 8.0 8
  283.24152 30.0 30
  283.25824 12.0 12
  284.09747 8.0 8
  285.20905 9.0 9
  285.23358 20.0 20
  285.24649 7.0 7
  285.68225 9.0 9
  286.05716 8.0 8
  286.22208 19.0 19
  286.26404 10.0 10
  287.23477 49.0 49
  287.26028 9.0 9
  288.23834 16.0 16
  288.25568 8.0 8
  290.25159 13.0 13
  290.57907 11.0 11
  293.2225 8.0 8
  295.2384 29.0 29
  295.2562 12.0 12
  295.26636 8.0 8
  297.25101 56.0 56
  298.26279 8.0 8
  299.23276 11.0 11
  299.24545 24.0 24
  299.27725 14.0 14
  301.25455 24.0 24
  302.25766 12.0 12
  303.07446 8.0 8
  305.24368 12.0 12
  307.13553 8.0 8
  307.24503 10.0 10
  307.25668 11.0 11
  308.19354 8.0 8
  309.26431 10.0 10
  311.14984 9.0 9
  311.26859 47.0 47
  311.2854 11.0 11
  312.19754 8.0 8
  312.26981 9.0 9
  312.28616 16.0 16
  313.23349 8.0 8
  313.25897 35.0 35
  313.28607 9.0 9
  314.25586 8.0 8
  315.26498 64.0 64
  316.28445 9.0 9
  321.07034 9.0 9
  321.08316 8.0 8
  322.25757 8.0 8
  323.23807 8.0 8
  323.26895 27.0 27
  323.27911 22.0 22
  325.28516 18.0 18
  327.18207 8.0 8
  327.27057 26.0 26
  329.28003 25.0 25
  330.29608 8.0 8
  333.26694 8.0 8
  335.26968 18.0 18
  336.40668 12.0 12
  338.29233 8.0 8
  340.31171 8.0 8
  341.32916 9.0 9
  343.30438 17.0 17
  348.35294 8.0 8
  349.22449 8.0 8
  350.89713 11.0 11
  351.17844 8.0 8
  351.29269 8.0 8
  351.30576 44.0 44
  352.84131 12.0 12
  353.12549 8.0 8
  353.27231 12.0 12
  353.28687 32.0 32
  355.30307 10.0 10
  363.29303 25.0 25
  363.31058 16.0 16
  364.31131 25.0 25
  364.60715 8.0 8
  365.18997 8.0 8
  365.30191 9.0 9
  365.32468 68.0 68
  366.28751 9.0 9
  366.29779 10.0 10
  366.32437 57.0 57
  367.31052 9.0 9
  367.3439 8.0 8
  368.32327 11.0 11
  369.30945 16.0 16
  370.24594 9.0 9
  370.32516 19.0 19
  371.20505 8.0 8
  377.32452 8.0 8
  379.22693 8.0 8
  379.32269 8.0 8
  380.20984 8.0 8
  381.29227 14.0 14
  381.30716 18.0 18
  381.32709 10.0 10
  382.32681 8.0 8
  383.3179 38.0 38
  383.33954 26.0 26
  383.35144 12.0 12
  383.91299 8.0 8
  384.33334 25.0 25
  384.34927 24.0 24
  385.3414 8.0 8
  393.33557 9.0 9
  394.35938 8.0 8
  395.36807 9.0 9
  405.3508 235.0 235
  406.33078 16.0 16
  406.35721 66.0 66
  407.20618 8.0 8
  407.35898 8.0 8
  407.37555 27.0 27
  407.95813 8.0 8
  408.37253 8.0 8
  411.34488 8.0 8
  411.35922 58.0 58
  412.36786 8.0 8
  421.24094 8.0 8
  421.31567 8.0 8
  423.32794 28.0 28
  423.36057 1000.0 999
  423.4361 9.0 9
  424.33484 17.0 17
  424.35596 108.0 108
  424.3721 240.0 240
  425.22455 8.0 8
  425.24057 8.0 8
  425.34476 33.0 33
  425.37521 40.0 40
  429.14746 8.0 8
  441.03894 8.0 8
  441.29974 9.0 9
  441.37109 225.0 225
  442.36191 37.0 37
  442.37866 65.0 65
  443.38516 8.0 8
  445.2529 8.0 8
  453.85229 9.0 9
  456.9527 8.0 8
  459.31354 8.0 8
  545.35278 8.0 8
  546.35669 8.0 8
  553.38617 11.0 11
  563.38617 9.0 9
  581.3548 14.0 14
  581.38989 16.0 16
  582.35468 8.0 8
  582.37115 11.0 11
  582.5968 8.0 8
  599.38361 25.0 25
  599.4101 15.0 15
  609.49792 9.0 9
  690.36517 9.0 9
//
