ACCESSION: MSBNK-RIKEN-PR301800
RECORD_TITLE: (+)-Chelidonine; LC-ESI-QTOF; MS2
DATE: 2019.03.28
AUTHORS: Tetsuya Mori, Center for Sustainable Resource Science, RIKEN
LICENSE: CC BY-NC-SA
PUBLICATION: Tsugawa H., Nakabayashi R., Mori T., Yamada Y., Takahashi M., Rai A., Sugiyama R., Yamamoto H., Nakaya T., Yamazaki M., Kooke R., Bac-Molenaar JA., Oztolan-Erol N., Keurentjes JJB., Arita M., Saito K. (2019) "A cheminformatics approach to characterize metabolomes in stable-isotope-labeled organisms" Nature Methods 16(4):295-298. [doi:10.1038/s41592-019-0358-2]
COMMENT: registered in RIKEN PlaSMA
CH$NAME: Chelidonin
CH$NAME: (+)-Chelidonine
CH$NAME: [1,3]Benzodioxolo[5,6-c]-1,3-dioxolo[4,5-i]phenanthridin-6-ol, 5b,6,7,12b,13,14-hexahydro-13-methyl-, (5bR,6S,12bS)-
CH$COMPOUND_CLASS: Hexahydrobenzophenanthridine alkaloids
CH$FORMULA: C20H19NO5
CH$EXACT_MASS: 353.126323
CH$SMILES: CN1CC2=C(C=CC3=C2OCO3)[C@@H]4[C@H]1C5=CC6=C(C=C5C[C@@H]4O)OCO6
CH$IUPAC: InChI=1S/C20H19NO5/c1-21-7-13-11(2-3-15-20(13)26-9-23-15)18-14(22)4-10-5-16-17(25-8-24-16)6-12(10)19(18)21/h2-3,5-6,14,18-19,22H,4,7-9H2,1H3/t14-,18-,19+/m0/s1
CH$LINK: CAS 476-32-4
CH$LINK: CHEMSPIDER 171216
CH$LINK: COMPTOX DTXSID10878474
CH$LINK: INCHIKEY GHKISGDRQRSCII-ZOCIIQOWSA-N
CH$LINK: PUBCHEM CID:197810
AC$INSTRUMENT: LC, Waters Acquity UPLC System; MS, Waters Xevo G2 Q-Tof
AC$INSTRUMENT_TYPE: LC-ESI-QTOF
AC$MASS_SPECTROMETRY: MS_TYPE MS2
AC$MASS_SPECTROMETRY: ION_MODE POSITIVE
AC$MASS_SPECTROMETRY: COLLISION_ENERGY 6V
AC$MASS_SPECTROMETRY: DESOLVATION_GAS_FLOW 800/h
AC$MASS_SPECTROMETRY: DESOLVATION_TEMPERATURE 450 C
AC$MASS_SPECTROMETRY: IONIZATION ESI
AC$CHROMATOGRAPHY: CAPILLARY_VOLTAGE +3.00 kV
AC$CHROMATOGRAPHY: COLUMN_NAME Acquity bridged ethyl hybrid C18 (1.7 um, 2.1 mm * 100 mm, Waters)
AC$CHROMATOGRAPHY: COLUMN_TEMPERATURE 40 C
AC$CHROMATOGRAPHY: FLOW_GRADIENT A/B = (99.5%/0.5% at 0 min, 99.5%/0.5% at 0.1 min, 20%/80% at 10 min, 0.5%/99.5% at 10.1 min, 0.5%/99.5% at 12.0 min, 99.5%/0.5% at 12.1 min, 99.5%/0.5% at 15.0 min)
AC$CHROMATOGRAPHY: FLOW_RATE 0.3 ml/min at 0 min, 0.3 ml/min at 10 min, 0.4 ml/min at 10.1 min, 0.4 ml/min at 14.4 min, 0.3 ml/min at 14.5 min
AC$CHROMATOGRAPHY: RETENTION_TIME 4.5206
AC$CHROMATOGRAPHY: SOLVENT A water including 0.1% formic acid
AC$CHROMATOGRAPHY: SOLVENT B acetonitrile including 0.1% formic acid
MS$FOCUSED_ION: PRECURSOR_TYPE [M+H]+
MS$FOCUSED_ION: PRECURSOR_M/Z 354.1335992
PK$SPLASH: splash10-0ufr-0289000000-a2c20657006488f7d824
PK$NUM_PEAK: 49
PK$PEAK: m/z int. rel.int.
  135.04578 61.0 61
  136.04778 7.0 7
  161.0605 19.0 19
  163.03529 14.0 14
  163.04289 22.0 22
  173.06288 9.0 9
  176.07303 6.0 6
  177.07559 6.0 6
  178.07935 6.0 6
  179.0825 8.0 8
  188.06783 8.0 8
  188.07594 15.0 15
  189.07227 127.0 127
  190.06953 14.0 14
  190.07953 7.0 7
  191.08206 11.0 11
  205.06337 6.0 6
  207.07884 14.0 14
  217.06523 93.0 93
  218.06546 9.0 9
  218.07507 5.0 5
  219.07738 5.0 5
  235.07385 17.0 17
  235.08145 6.0 6
  237.09201 27.0 27
  245.06094 11.0 11
  247.0759 239.0 239
  248.07997 48.0 48
  249.08745 6.0 6
  265.08768 27.0 27
  266.08752 5.0 5
  275.07089 563.0 562
  276.05237 6.0 6
  276.07397 118.0 118
  277.07758 11.0 11
  277.08774 10.0 10
  293.08926 9.0 9
  295.09714 37.0 37
  296.09766 8.0 8
  305.08139 136.0 136
  306.08472 28.0 28
  307.08679 9.0 9
  323.0921 159.0 159
  324.09595 32.0 32
  325.10239 8.0 8
  336.11539 20.0 20
  336.13324 10.0 10
  354.13309 1000.0 999
  354.18625 21.0 21
//
