ACCESSION: MSBNK-RIKEN-PR309333
RECORD_TITLE: Flavone base + 3O, 1MeO, C-Hex-FeruloylHex; LC-ESI-QTOF; MS2
DATE: 2019.03.28
AUTHORS: Tetsuya Mori, Center for Sustainable Resource Science, RIKEN
LICENSE: CC BY-NC-SA
PUBLICATION: Tsugawa H., Nakabayashi R., Mori T., Yamada Y., Takahashi M., Rai A., Sugiyama R., Yamamoto H., Nakaya T., Yamazaki M., Kooke R., Bac-Molenaar JA., Oztolan-Erol N., Keurentjes JJB., Arita M., Saito K. (2019) "A cheminformatics approach to characterize metabolomes in stable-isotope-labeled organisms" Nature Methods 16(4):295-298. [doi:10.1038/s41592-019-0358-2]
COMMENT: Annotation level-3
CH$NAME: Flavone base + 3O, 1MeO, C-Hex-FeruloylHex
CH$COMPOUND_CLASS: Ferulic acid and derivatives
CH$FORMULA: C38H40O19
CH$EXACT_MASS: 800.719
CH$SMILES: O=C(OCC5OC(OC1C(OC(CO)C(O)C1(O))C=2C(O)=CC=3OC(=CC(=O)C=3(C=2(O)))C=4C=CC(O)=C(OC)C=4)C(O)C(O)C5(O))C=CC=6C=CC(O)=C(OC)C=6
CH$IUPAC: InChI=1S/C38H40O19/c1-51-22-9-15(3-6-17(22)40)4-8-27(44)53-14-26-31(46)33(48)35(50)38(56-26)57-37-34(49)30(45)25(13-39)55-36(37)29-20(43)12-24-28(32(29)47)19(42)11-21(54-24)16-5-7-18(41)23(10-16)52-2/h3-12,25-26,30-31,33-41,43,45-50H,13-14H2,1-2H3
CH$LINK: INCHIKEY DJZOTDSGEBENPL-UHFFFAOYSA-N
AC$INSTRUMENT: LC, Waters Acquity UPLC System; MS, Waters Xevo G2 Q-Tof
AC$INSTRUMENT_TYPE: LC-ESI-QTOF
AC$MASS_SPECTROMETRY: MS_TYPE MS2
AC$MASS_SPECTROMETRY: ION_MODE NEGATIVE
AC$MASS_SPECTROMETRY: COLLISION_ENERGY 6V
AC$MASS_SPECTROMETRY: DESOLVATION_GAS_FLOW 800/h
AC$MASS_SPECTROMETRY: DESOLVATION_TEMPERATURE 450 C
AC$MASS_SPECTROMETRY: IONIZATION ESI
AC$CHROMATOGRAPHY: CAPILLARY_VOLTAGE +3.00 kV
AC$CHROMATOGRAPHY: COLUMN_NAME Acquity bridged ethyl hybrid C18 (1.7 um, 2.1 mm * 100 mm, Waters)
AC$CHROMATOGRAPHY: COLUMN_TEMPERATURE 40 C
AC$CHROMATOGRAPHY: FLOW_GRADIENT A/B = (99.5%/0.5% at 0 min, 99.5%/0.5% at 0.1 min, 20%/80% at 10 min, 0.5%/99.5% at 10.1 min, 0.5%/99.5% at 12.0 min, 99.5%/0.5% at 12.1 min, 99.5%/0.5% at 15.0 min)
AC$CHROMATOGRAPHY: FLOW_RATE 0.3 ml/min at 0 min, 0.3 ml/min at 10 min, 0.4 ml/min at 10.1 min, 0.4 ml/min at 14.4 min, 0.3 ml/min at 14.5 min
AC$CHROMATOGRAPHY: RETENTION_TIME 4.19
AC$CHROMATOGRAPHY: SOLVENT A water including 0.1% formic acid
AC$CHROMATOGRAPHY: SOLVENT B acetonitrile including 0.1% formic acid
MS$FOCUSED_ION: PRECURSOR_TYPE [M-H]-
MS$FOCUSED_ION: PRECURSOR_M/Z 799.2091
PK$SPLASH: splash10-0002-0025300900-5e32385b25308835c49c
PK$NUM_PEAK: 24
PK$PEAK: m/z int. rel.int.
  191.07187 17.0 35
  193.03902 17.0 35
  235.06026 46.0 96
  236.06607 20.0 42
  265.07294 17.0 35
  295.08212 35.0 73
  299.05798 19.0 40
  308.0278 20.0 42
  323.02859 20.0 42
  323.05811 168.0 350
  323.07828 22.0 46
  327.19296 17.0 35
  342.07123 33.0 69
  397.08591 20.0 42
  428.05658 19.0 40
  443.09323 86.0 179
  443.11487 33.0 69
  444.10324 33.0 69
  444.11826 17.0 35
  479.04599 16.0 33
  623.18146 16.0 33
  742.31116 18.0 38
  764.28894 16.0 33
  799.20117 479.0 999
//
