ACCESSION: MSBNK-RIKEN-PR300016
RECORD_TITLE: Gelsenicine; LC-ESI-QTOF; MS2
DATE: 2019.03.28
AUTHORS: Tetsuya Mori, Center for Sustainable Resource Science, RIKEN
LICENSE: CC BY-NC-SA
PUBLICATION: Tsugawa H., Nakabayashi R., Mori T., Yamada Y., Takahashi M., Rai A., Sugiyama R., Yamamoto H., Nakaya T., Yamazaki M., Kooke R., Bac-Molenaar JA., Oztolan-Erol N., Keurentjes JJB., Arita M., Saito K. (2019) "A cheminformatics approach to characterize metabolomes in stable-isotope-labeled organisms" Nature Methods 16(4):295-298. [doi:10.1038/s41592-019-0358-2]
COMMENT: registered in RIKEN PlaSMA
CH$NAME: Gelsenicine
CH$COMPOUND_CLASS: Indoles and derivatives
CH$FORMULA: C19H22N2O3
CH$EXACT_MASS: 326.396
CH$SMILES: CCC1=N[C@H]2C[C@]3([C@H]4C[C@@H]1[C@@H]2CO4)C(=O)N(OC)C1=CC=CC=C31
CH$IUPAC: InChI=1S/C19H22N2O3/c1-3-14-11-8-17-19(9-15(20-14)12(11)10-24-17)13-6-4-5-7-16(13)21(23-2)18(19)22/h4-7,11-12,15,17H,3,8-10H2,1-2H3/t11-,12+,15+,17-,19+/m1/s1
CH$LINK: INCHIKEY BIGABVPVCRHEES-NWPJSNQLSA-N
AC$INSTRUMENT: LC, Waters Acquity UPLC System; MS, Waters Xevo G2 Q-Tof
AC$INSTRUMENT_TYPE: LC-ESI-QTOF
AC$MASS_SPECTROMETRY: MS_TYPE MS2
AC$MASS_SPECTROMETRY: ION_MODE POSITIVE
AC$MASS_SPECTROMETRY: COLLISION_ENERGY 6V
AC$MASS_SPECTROMETRY: DESOLVATION_GAS_FLOW 800/h
AC$MASS_SPECTROMETRY: DESOLVATION_TEMPERATURE 450 C
AC$MASS_SPECTROMETRY: IONIZATION ESI
AC$CHROMATOGRAPHY: CAPILLARY_VOLTAGE +3.00 kV
AC$CHROMATOGRAPHY: COLUMN_NAME Acquity bridged ethyl hybrid C18 (1.7 um, 2.1 mm * 100 mm, Waters)
AC$CHROMATOGRAPHY: COLUMN_TEMPERATURE 40 C
AC$CHROMATOGRAPHY: FLOW_GRADIENT A/B = (99.5%/0.5% at 0 min, 99.5%/0.5% at 0.1 min, 20%/80% at 10 min, 0.5%/99.5% at 10.1 min, 0.5%/99.5% at 12.0 min, 99.5%/0.5% at 12.1 min, 99.5%/0.5% at 15.0 min)
AC$CHROMATOGRAPHY: FLOW_RATE 0.3 ml/min at 0 min, 0.3 ml/min at 10 min, 0.4 ml/min at 10.1 min, 0.4 ml/min at 14.4 min, 0.3 ml/min at 14.5 min
AC$CHROMATOGRAPHY: RETENTION_TIME 3.986933
AC$CHROMATOGRAPHY: SOLVENT A water including 0.1% formic acid
AC$CHROMATOGRAPHY: SOLVENT B acetonitrile including 0.1% formic acid
MS$FOCUSED_ION: PRECURSOR_TYPE [M+H]+
MS$FOCUSED_ION: PRECURSOR_M/Z 327.170319
PK$SPLASH: splash10-0a4i-1960000000-4de70b176ba00b612056
PK$NUM_PEAK: 570
PK$PEAK: m/z int. rel.int.
  56.01898 7.0 7
  56.04795 13.0 13
  57.03257 11.0 11
  64.86702 6.0 6
  67.04085 6.0 6
  68.04949 30.0 30
  69.06265 9.0 9
  70.06641 20.0 20
  71.06212 13.0 13
  71.0682 11.0 11
  71.07521 53.0 53
  72.04424 8.0 8
  77.0384 34.0 34
  78.03425 29.0 29
  79.05173 28.0 28
  80.04666 152.0 152
  80.05253 134.0 134
  80.71539 6.0 6
  81.05016 17.0 17
  81.05872 18.0 18
  81.06938 7.0 7
  81.36234 6.0 6
  81.61869 6.0 6
  81.62392 8.0 8
  82.02608 7.0 7
  82.06544 21.0 21
  82.07736 16.0 16
  84.04249 7.0 7
  84.07423 6.0 6
  84.08395 23.0 23
  85.08329 10.0 10
  86.06096 8.0 8
  90.02549 6.0 6
  90.03209 12.0 12
  90.03725 10.0 10
  90.04883 19.0 19
  91.01831 8.0 8
  91.05103 24.0 24
  91.05713 10.0 10
  92.04424 7.0 7
  92.11867 6.0 6
  93.04115 15.0 15
  93.05699 97.0 97
  93.06808 13.0 13
  93.07426 13.0 13
  93.8353 6.0 6
  94.02794 10.0 10
  94.05376 7.0 7
  94.06528 115.0 115
  94.07336 25.0 25
  95.07357 216.0 216
  95.08617 10.0 10
  95.09425 10.0 10
  95.43476 7.0 7
  96.04281 121.0 121
  96.04978 28.0 28
  96.076 19.0 19
  96.08131 51.0 51
  96.35535 9.0 9
  97.0875 13.0 13
  97.32744 6.0 6
  98.05774 25.0 25
  98.40896 6.0 6
  99.29955 6.0 6
  101.03403 19.0 19
  101.55135 7.0 7
  103.04585 15.0 15
  104.04831 17.0 17
  104.05222 33.0 33
  105.06831 22.0 22
  106.02493 7.0 7
  106.06508 103.0 103
  107.01521 11.0 11
  107.04062 17.0 17
  107.0675 22.0 22
  107.07336 72.0 72
  108.06817 16.0 16
  108.08001 1000.0 999
  109.05262 6.0 6
  109.08573 78.0 78
  110.06122 32.0 32
  110.09278 80.0 80
  111.06587 7.0 7
  111.07281 8.0 8
  111.10636 11.0 11
  112.07943 35.0 35
  114.04694 6.0 6
  115.05169 105.0 105
  115.05879 39.0 39
  116.0477 25.0 25
  116.05956 49.0 49
  117.04424 16.0 16
  117.05493 102.0 102
  117.0655 29.0 29
  117.07521 18.0 18
  117.65883 6.0 6
  118.03849 6.0 6
  118.0589 33.0 33
  118.06319 73.0 73
  119.06292 9.0 9
  119.07071 18.0 18
  120.07024 7.0 7
  120.08146 70.0 70
  120.09497 7.0 7
  120.20689 7.0 7
  121.08781 62.0 62
  121.57387 7.0 7
  122.04237 18.0 18
  122.05452 64.0 64
  122.05959 162.0 162
  122.09236 80.0 80
  122.09698 41.0 41
  122.10404 13.0 13
  122.39536 7.0 7
  123.0599 7.0 7
  123.07079 10.0 10
  123.09759 20.0 20
  123.95101 7.0 7
  124.05815 6.0 6
  124.07794 7.0 7
  124.11034 7.0 7
  124.11852 7.0 7
  125.50507 7.0 7
  127.03757 8.0 8
  127.0522 36.0 36
  127.0579 24.0 24
  128.05136 89.0 89
  128.05963 78.0 78
  129.04825 10.0 10
  129.054 19.0 19
  129.06723 27.0 27
  129.56487 9.0 9
  130.06293 97.0 97
  130.07135 57.0 57
  131.06544 23.0 23
  131.07722 15.0 15
  131.09039 7.0 7
  132.02196 6.0 6
  132.04361 126.0 126
  132.05713 10.0 10
  132.07042 33.0 33
  132.08617 39.0 39
  132.49965 6.0 6
  132.60809 6.0 6
  133.04663 7.0 7
  133.05214 6.0 6
  133.0621 19.0 19
  133.08609 18.0 18
  134.06047 17.0 17
  134.08368 7.0 7
  134.09312 7.0 7
  134.10341 34.0 34
  135.86014 6.0 6
  136.07164 36.0 36
  136.1114 34.0 34
  138.05179 6.0 6
  138.08315 24.0 24
  138.08978 33.0 33
  139.03601 9.0 9
  139.0471 10.0 10
  140.01659 17.0 17
  140.04919 67.0 67
  140.05545 38.0 38
  141.05281 20.0 20
  141.06111 46.0 46
  141.06898 25.0 25
  142.03641 9.0 9
  142.05214 7.0 7
  142.06544 147.0 147
  143.0667 46.0 46
  143.07457 56.0 56
  144.0369 6.0 6
  144.04294 8.0 8
  144.05794 11.0 11
  144.0762 39.0 39
  144.08179 113.0 113
  145.03557 9.0 9
  145.04012 21.0 21
  145.08594 23.0 23
  145.50429 6.0 6
  146.02312 68.0 68
  146.09915 55.0 55
  147.02725 8.0 8
  148.05049 11.0 11
  148.06253 7.0 7
  148.07553 10.0 10
  148.11745 6.0 6
  149.08783 7.0 7
  150.08643 32.0 32
  150.09644 9.0 9
  151.02205 8.0 8
  151.05157 102.0 102
  151.05815 67.0 67
  151.1239 12.0 12
  152.02969 9.0 9
  152.04539 46.0 46
  152.05241 170.0 170
  152.06363 51.0 51
  152.07368 28.0 28
  153.03613 8.0 8
  153.05984 34.0 34
  153.07115 51.0 51
  154.03781 7.0 7
  154.06522 161.0 161
  155.05003 12.0 12
  155.06888 30.0 30
  155.08369 11.0 11
  155.71471 12.0 12
  156.02994 6.0 6
  156.04541 7.0 7
  156.07034 34.0 34
  157.07658 9.0 9
  158.0069 10.0 10
  158.04143 8.0 8
  158.0574 14.0 14
  158.10054 8.0 8
  158.56487 6.0 6
  159.03496 8.0 8
  159.06865 8.0 8
  160.10779 9.0 9
  163.05721 15.0 15
  163.89684 8.0 8
  164.0616 45.0 45
  164.93336 8.0 8
  165.01704 10.0 10
  165.03471 7.0 7
  165.05864 392.0 392
  165.07326 73.0 73
  165.08572 15.0 15
  165.10562 7.0 7
  165.72523 6.0 6
  166.06386 310.0 310
  166.49686 7.0 7
  166.65923 7.0 7
  167.05461 15.0 15
  167.07109 256.0 256
  167.0948 10.0 10
  167.15343 6.0 6
  168.06798 46.0 46
  168.08034 195.0 195
  168.09946 6.0 6
  168.71962 8.0 8
  169.05588 7.0 7
  169.07819 17.0 17
  169.08716 75.0 75
  169.34575 6.0 6
  169.51427 13.0 13
  169.67104 6.0 6
  170.03836 7.0 7
  170.05476 32.0 32
  170.0647 33.0 33
  170.0764 13.0 13
  170.09631 15.0 15
  170.1028 6.0 6
  170.22313 6.0 6
  171.05237 6.0 6
  171.06787 8.0 8
  171.73674 6.0 6
  172.04466 7.0 7
  172.05431 14.0 14
  172.07544 12.0 12
  172.10109 11.0 11
  175.01894 6.0 6
  175.06223 8.0 8
  176.04578 23.0 23
  176.06247 7.0 7
  177.0388 7.0 7
  177.04839 43.0 43
  177.05737 88.0 88
  177.07436 11.0 11
  178.03764 12.0 12
  178.06563 807.0 806
  178.08542 15.0 15
  178.97298 8.0 8
  179.04565 7.0 7
  179.05453 21.0 21
  179.07129 119.0 119
  179.07922 79.0 79
  179.08856 50.0 50
  179.18007 7.0 7
  180.04338 10.0 10
  180.05484 9.0 9
  180.07208 133.0 133
  180.08104 369.0 369
  180.09596 37.0 37
  181.05017 7.0 7
  181.06822 20.0 20
  181.08199 175.0 175
  181.22354 6.0 6
  182.0453 6.0 6
  182.0616 104.0 104
  182.08588 162.0 162
  182.10449 19.0 19
  182.18607 9.0 9
  183.04347 8.0 8
  183.05524 31.0 31
  183.06889 244.0 244
  183.08389 41.0 41
  183.0984 16.0 16
  183.11189 7.0 7
  183.26453 7.0 7
  184.05956 43.0 43
  184.07709 63.0 63
  184.08871 7.0 7
  184.1116 17.0 17
  184.77222 6.0 6
  185.07275 7.0 7
  186.0676 11.0 11
  186.10233 10.0 10
  187.67555 9.0 9
  188.0605 6.0 6
  188.06908 11.0 11
  188.09656 9.0 9
  189.0519 7.0 7
  189.0663 12.0 12
  189.07973 13.0 13
  190.04922 47.0 47
  190.0652 239.0 239
  190.08023 44.0 44
  190.27637 18.0 18
  190.47498 9.0 9
  191.05054 10.0 10
  191.06137 53.0 53
  191.07011 159.0 159
  191.07855 97.0 97
  192.05081 11.0 11
  192.0731 56.0 56
  192.08589 114.0 114
  192.80841 7.0 7
  193.0407 18.0 18
  193.06735 12.0 12
  193.07974 116.0 116
  193.10556 9.0 9
  193.39273 7.0 7
  193.61638 7.0 7
  194.04958 11.0 11
  194.0614 23.0 23
  194.0856 16.0 16
  194.10005 33.0 33
  195.07027 127.0 127
  195.09492 54.0 54
  195.10614 28.0 28
  196.0614 43.0 43
  196.07742 176.0 176
  196.10982 22.0 22
  196.11847 38.0 38
  196.76253 6.0 6
  197.06461 67.0 67
  197.0806 69.0 69
  197.1071 9.0 9
  198.03242 12.0 12
  198.08577 21.0 21
  198.82008 7.0 7
  198.91812 6.0 6
  199.06606 9.0 9
  200.06239 7.0 7
  200.12337 6.0 6
  201.04637 10.0 10
  201.06281 32.0 32
  202.04716 16.0 16
  202.07262 223.0 223
  202.08339 42.0 42
  203.04803 6.0 6
  203.06161 19.0 19
  203.07709 60.0 60
  203.13683 7.0 7
  203.17575 7.0 7
  203.79425 9.0 9
  203.99745 11.0 11
  204.07948 495.0 495
  205.06285 9.0 9
  205.08618 109.0 109
  205.09885 23.0 23
  205.14319 14.0 14
  205.77571 7.0 7
  206.02789 8.0 8
  206.05276 41.0 41
  206.06708 41.0 41
  206.08714 331.0 331
  206.10594 78.0 78
  207.06566 49.0 49
  207.09155 306.0 306
  207.13615 12.0 12
  207.27827 8.0 8
  208.04295 14.0 14
  208.0757 333.0 333
  208.09758 123.0 123
  208.1077 88.0 88
  208.12762 13.0 13
  209.03769 8.0 8
  209.06793 47.0 47
  209.07719 53.0 53
  209.092 65.0 65
  209.10773 33.0 33
  209.11916 30.0 30
  209.9738 11.0 11
  210.07928 326.0 326
  210.10355 26.0 26
  210.11089 19.0 19
  211.07828 30.0 30
  211.09386 16.0 16
  211.11238 7.0 7
  212.0762 7.0 7
  212.11966 8.0 8
  214.05399 9.0 9
  214.0657 70.0 70
  215.05971 19.0 19
  215.07224 202.0 202
  215.32748 12.0 12
  215.76816 7.0 7
  216.06149 11.0 11
  216.07379 64.0 64
  216.08353 41.0 41
  216.09256 12.0 12
  216.33395 7.0 7
  217.06578 28.0 28
  217.08046 47.0 47
  217.08926 84.0 84
  217.10768 13.0 13
  217.24777 9.0 9
  218.00002 9.0 9
  218.05788 6.0 6
  218.0833 80.0 80
  218.1028 13.0 13
  219.01131 10.0 10
  219.07172 108.0 108
  219.0929 164.0 164
  219.10896 12.0 12
  220.04803 8.0 8
  220.07701 99.0 99
  220.09895 37.0 37
  220.11151 17.0 17
  220.12901 11.0 11
  221.06844 88.0 88
  221.08217 49.0 49
  221.10921 51.0 51
  222.06546 8.0 8
  222.08986 37.0 37
  222.10155 27.0 27
  222.11188 53.0 53
  222.12318 54.0 54
  223.03517 9.0 9
  223.08496 85.0 85
  223.10849 38.0 38
  223.13721 9.0 9
  224.05205 6.0 6
  224.08713 7.0 7
  224.09395 15.0 15
  224.1091 49.0 49
  224.1282 11.0 11
  225.07094 16.0 16
  225.0999 270.0 270
  225.13429 11.0 11
  226.06032 6.0 6
  226.10223 15.0 15
  226.11069 15.0 15
  226.61374 7.0 7
  227.07292 18.0 18
  227.10414 7.0 7
  227.94154 7.0 7
  228.05244 14.0 14
  228.08212 143.0 143
  229.05687 7.0 7
  229.08594 62.0 62
  229.10609 13.0 13
  229.36195 7.0 7
  230.09113 147.0 147
  230.10144 143.0 143
  230.19456 10.0 10
  231.08344 45.0 45
  231.09341 97.0 97
  231.10832 7.0 7
  232.05957 11.0 11
  232.06927 30.0 30
  232.08112 71.0 71
  232.09612 96.0 96
  232.11879 7.0 7
  232.91606 6.0 6
  232.97858 8.0 8
  233.04025 15.0 15
  233.0741 72.0 72
  233.08453 202.0 202
  233.09657 64.0 64
  233.10985 30.0 30
  233.12285 12.0 12
  233.34074 7.0 7
  234.08209 132.0 132
  234.09883 17.0 17
  234.1156 8.0 8
  234.12622 12.0 12
  235.02475 6.0 6
  235.05406 6.0 6
  235.08514 388.0 388
  235.12488 36.0 36
  236.0891 135.0 135
  236.10254 33.0 33
  237.08015 8.0 8
  237.09851 34.0 34
  237.11992 37.0 37
  237.14073 9.0 9
  238.10445 22.0 22
  238.12572 11.0 11
  239.11549 59.0 59
  239.12541 38.0 38
  240.12025 10.0 10
  240.13463 17.0 17
  240.97215 13.0 13
  242.09558 8.0 8
  243.09308 7.0 7
  243.11249 9.0 9
  244.09648 5.0 5
  244.10696 20.0 20
  245.10222 17.0 17
  245.1125 19.0 19
  246.07835 16.0 16
  246.09055 13.0 13
  246.1022 9.0 9
  247.0508 14.0 14
  247.09435 62.0 62
  247.13326 7.0 7
  247.49301 6.0 6
  247.95374 6.0 6
  248.08476 32.0 32
  248.09518 61.0 61
  248.11545 34.0 34
  248.13211 18.0 18
  249.07294 6.0 6
  249.1057 86.0 86
  249.11719 30.0 30
  249.12953 13.0 13
  250.10078 6.0 6
  250.11392 22.0 22
  250.12654 11.0 11
  250.15598 11.0 11
  251.00493 7.0 7
  251.07835 7.0 7
  251.08908 10.0 10
  251.11909 39.0 39
  251.15372 8.0 8
  252.12399 9.0 9
  253.12416 14.0 14
  255.10754 10.0 10
  257.22144 6.0 6
  260.08789 21.0 21
  260.10229 8.0 8
  261.11237 10.0 10
  261.12506 6.0 6
  262.11697 13.0 13
  263.11536 19.0 19
  265.12961 142.0 142
  265.14108 45.0 45
  266.13306 10.0 10
  266.14877 11.0 11
  266.83572 11.0 11
  267.10922 7.0 7
  268.1109 6.0 6
  268.14694 7.0 7
  275.12268 14.0 14
  276.10449 7.0 7
  277.134 18.0 18
  277.14386 8.0 8
  279.1456 7.0 7
  279.15836 9.0 9
  280.12671 11.0 11
  280.14459 7.0 7
  281.14227 10.0 10
  281.84766 12.0 12
  284.70441 10.0 10
  303.28665 7.0 7
  318.75574 12.0 12
//
