ACCESSION: MSBNK-RIKEN-PR303652
RECORD_TITLE: Resibufogenin; LC-ESI-QTOF; MS2
DATE: 2019.03.28
AUTHORS: Tetsuya Mori, Center for Sustainable Resource Science, RIKEN
LICENSE: CC BY-NC-SA
PUBLICATION: Tsugawa H., Nakabayashi R., Mori T., Yamada Y., Takahashi M., Rai A., Sugiyama R., Yamamoto H., Nakaya T., Yamazaki M., Kooke R., Bac-Molenaar JA., Oztolan-Erol N., Keurentjes JJB., Arita M., Saito K. (2019) "A cheminformatics approach to characterize metabolomes in stable-isotope-labeled organisms" Nature Methods 16(4):295-298. [doi:10.1038/s41592-019-0358-2]
COMMENT: registered in RIKEN PlaSMA
CH$NAME: Resibufogenin
CH$COMPOUND_CLASS: Bufanolides and derivatives
CH$FORMULA: C24H32O4
CH$EXACT_MASS: 384.516
CH$SMILES: C[C@]12CC[C@H]3[C@@H](CC[C@@H]4C[C@@H](O)CC[C@]34C)[C@]11O[C@@H]1C[C@@H]2C1=COC(=O)C=C1
CH$IUPAC: InChI=1S/C24H32O4/c1-22-9-7-16(25)11-15(22)4-5-18-17(22)8-10-23(2)19(12-20-24(18,23)28-20)14-3-6-21(26)27-13-14/h3,6,13,15-20,25H,4-5,7-12H2,1-2H3/t15-,16+,17+,18-,19-,20-,22+,23-,24-/m1/s1
CH$LINK: INCHIKEY ATLJNLYIJOCWJE-CWMZOUAVSA-N
AC$INSTRUMENT: LC, Waters Acquity UPLC System; MS, Waters Xevo G2 Q-Tof
AC$INSTRUMENT_TYPE: LC-ESI-QTOF
AC$MASS_SPECTROMETRY: MS_TYPE MS2
AC$MASS_SPECTROMETRY: ION_MODE POSITIVE
AC$MASS_SPECTROMETRY: COLLISION_ENERGY 6V
AC$MASS_SPECTROMETRY: DESOLVATION_GAS_FLOW 800/h
AC$MASS_SPECTROMETRY: DESOLVATION_TEMPERATURE 450 C
AC$MASS_SPECTROMETRY: IONIZATION ESI
AC$CHROMATOGRAPHY: CAPILLARY_VOLTAGE +3.00 kV
AC$CHROMATOGRAPHY: COLUMN_NAME Acquity bridged ethyl hybrid C18 (1.7 um, 2.1 mm * 100 mm, Waters)
AC$CHROMATOGRAPHY: COLUMN_TEMPERATURE 40 C
AC$CHROMATOGRAPHY: FLOW_GRADIENT A/B = (99.5%/0.5% at 0 min, 99.5%/0.5% at 0.1 min, 20%/80% at 10 min, 0.5%/99.5% at 10.1 min, 0.5%/99.5% at 12.0 min, 99.5%/0.5% at 12.1 min, 99.5%/0.5% at 15.0 min)
AC$CHROMATOGRAPHY: FLOW_RATE 0.3 ml/min at 0 min, 0.3 ml/min at 10 min, 0.4 ml/min at 10.1 min, 0.4 ml/min at 14.4 min, 0.3 ml/min at 14.5 min
AC$CHROMATOGRAPHY: RETENTION_TIME 7.5633
AC$CHROMATOGRAPHY: SOLVENT A water including 0.1% formic acid
AC$CHROMATOGRAPHY: SOLVENT B acetonitrile including 0.1% formic acid
MS$FOCUSED_ION: PRECURSOR_TYPE [M+H]+
MS$FOCUSED_ION: PRECURSOR_M/Z 385.237336
PK$SPLASH: splash10-0a5a-0940000000-27f9cc3eb9f0bed71495
PK$NUM_PEAK: 900
PK$PEAK: m/z int. rel.int.
  55.02041 6.0 6
  55.05227 7.0 7
  61.90616 8.0 8
  67.05447 110.0 110
  68.05878 8.0 8
  68.99947 25.0 25
  69.06539 7.0 7
  69.07031 15.0 15
  70.07404 12.0 12
  73.03056 10.0 10
  76.31331 7.0 7
  77.03572 8.0 8
  79.03349 8.0 8
  79.05125 35.0 35
  79.05804 23.0 23
  80.30042 6.0 6
  80.75419 8.0 8
  81.06827 154.0 154
  82.07265 14.0 14
  82.07774 21.0 21
  83.08602 53.0 53
  84.0873 9.0 9
  84.09592 7.0 7
  85.02158 9.0 9
  85.03004 12.0 12
  85.06686 8.0 8
  91.02954 10.0 10
  91.05303 106.0 106
  91.05737 45.0 45
  92.06211 8.0 8
  93.03597 14.0 14
  93.05189 8.0 8
  93.07043 317.0 317
  93.47021 7.0 7
  93.93411 10.0 10
  94.0751 28.0 28
  95.04601 41.0 41
  95.05191 21.0 21
  95.0686 7.0 7
  95.08594 437.0 437
  95.73606 7.0 7
  96.05175 8.0 8
  96.08734 25.0 25
  97.02625 28.0 28
  97.0571 18.0 18
  97.06634 45.0 45
  97.10181 8.0 8
  99.00441 13.0 13
  99.07999 7.0 7
  103.05412 12.0 12
  104.41701 7.0 7
  105.03268 6.0 6
  105.0693 626.0 625
  105.91634 13.0 13
  106.00948 7.0 7
  106.07315 38.0 38
  106.87395 10.0 10
  107.04671 66.0 66
  107.0527 28.0 28
  107.08603 644.0 643
  107.95412 9.0 9
  108.05256 7.0 7
  108.08395 15.0 15
  108.09251 40.0 40
  108.09975 8.0 8
  108.26283 9.0 9
  109.01711 16.0 16
  109.03136 61.0 61
  109.06715 28.0 28
  109.10118 257.0 257
  109.10674 59.0 59
  109.20033 7.0 7
  110.03015 15.0 15
  110.10149 9.0 9
  110.10857 22.0 22
  110.75736 7.0 7
  111.03433 7.0 7
  111.04711 6.0 6
  111.07634 10.0 10
  112.40529 7.0 7
  113.02235 11.0 11
  113.02901 10.0 10
  115.05454 6.0 6
  116.05921 17.0 17
  117.06851 170.0 170
  117.60983 7.0 7
  118.06782 12.0 12
  118.08 13.0 13
  118.08673 9.0 9
  119.04374 7.0 7
  119.05114 13.0 13
  119.08572 585.0 584
  120.00567 6.0 6
  120.0601 7.0 7
  120.08637 72.0 72
  120.09145 36.0 36
  121.06433 148.0 148
  121.08415 6.0 6
  121.10091 505.0 504
  121.33638 6.0 6
  122.06777 7.0 7
  122.10329 64.0 64
  122.1123 17.0 17
  123.04271 312.0 312
  123.07533 31.0 31
  123.11028 27.0 27
  123.90025 7.0 7
  124.04819 24.0 24
  124.11461 7.0 7
  125.02398 43.0 43
  125.04745 8.0 8
  125.09554 6.0 6
  125.1012 7.0 7
  125.1779 6.0 6
  125.62942 8.0 8
  126.03037 14.0 14
  126.55988 7.0 7
  127.04108 7.0 7
  128.06328 7.0 7
  128.41988 9.0 9
  128.4919 7.0 7
  129.02988 8.0 8
  129.05435 8.0 8
  129.06201 17.0 17
  129.07213 30.0 30
  130.08061 9.0 9
  131.04538 16.0 16
  131.05176 14.0 14
  131.08524 520.0 519
  131.45665 7.0 7
  131.92731 9.0 9
  132.05566 9.0 9
  132.08458 13.0 13
  132.0918 71.0 71
  132.33521 7.0 7
  133.02228 12.0 12
  133.03839 7.0 7
  133.0555 11.0 11
  133.06596 106.0 106
  133.08763 31.0 31
  133.10185 664.0 663
  133.13251 9.0 9
  134.03529 23.0 23
  134.06448 7.0 7
  134.07118 12.0 12
  134.07628 10.0 10
  134.10138 37.0 37
  134.10992 31.0 31
  135.04657 30.0 30
  135.07098 7.0 7
  135.08087 17.0 17
  135.11624 398.0 398
  136.0455 6.0 6
  136.12573 31.0 31
  136.47481 8.0 8
  137.00931 8.0 8
  137.03894 7.0 7
  137.05847 64.0 64
  137.0645 19.0 19
  139.03685 73.0 73
  139.07657 8.0 8
  140.51845 8.0 8
  140.55588 9.0 9
  140.68597 9.0 9
  140.79541 7.0 7
  140.84508 7.0 7
  140.89311 7.0 7
  141.0666 61.0 61
  141.08284 8.0 8
  142.07307 35.0 35
  142.0827 12.0 12
  142.08937 7.0 7
  143.0536 9.0 9
  143.0872 500.0 500
  143.10114 5.0 5
  143.13084 7.0 7
  144.05232 15.0 15
  144.08434 41.0 41
  144.09958 6.0 6
  145.04628 13.0 13
  145.06407 146.0 146
  145.07878 6.0 6
  145.10168 933.0 932
  145.12692 9.0 9
  145.39259 7.0 7
  145.88525 7.0 7
  146.0701 14.0 14
  146.07803 8.0 8
  146.0885 8.0 8
  146.09827 28.0 28
  146.10674 87.0 87
  147.04573 49.0 49
  147.06685 20.0 20
  147.07935 159.0 159
  147.11702 1000.0 999
  147.17607 8.0 8
  148.04433 7.0 7
  148.08644 7.0 7
  148.09425 9.0 9
  148.12291 108.0 108
  148.52745 6.0 6
  149.06355 49.0 49
  149.08646 7.0 7
  149.09355 22.0 22
  149.10205 52.0 52
  149.1313 352.0 352
  149.34653 6.0 6
  150.14088 21.0 21
  151.03682 285.0 285
  151.0439 110.0 110
  151.05565 10.0 10
  151.07045 58.0 58
  151.08185 7.0 7
  152.03137 16.0 16
  152.03992 48.0 48
  152.05516 7.0 7
  153.05174 65.0 65
  153.06325 26.0 26
  153.07309 7.0 7
  154.07318 24.0 24
  154.08264 14.0 14
  155.04907 10.0 10
  155.08661 176.0 176
  155.51044 7.0 7
  156.08696 37.0 37
  156.09712 9.0 9
  156.22594 7.0 7
  157.06509 21.0 21
  157.08043 23.0 23
  157.10181 350.0 350
  158.06757 8.0 8
  158.10023 33.0 33
  158.11156 20.0 20
  159.04669 29.0 29
  159.05898 18.0 18
  159.08145 473.0 473
  159.11662 768.0 767
  160.045 16.0 16
  160.07094 25.0 25
  160.08922 25.0 25
  160.1219 141.0 141
  161.05701 30.0 30
  161.06491 14.0 14
  161.09129 48.0 48
  161.09819 46.0 46
  161.13246 886.0 885
  161.23309 7.0 7
  161.24286 8.0 8
  162.10722 8.0 8
  162.13516 97.0 97
  162.14577 25.0 25
  162.33589 7.0 7
  163.06433 14.0 14
  163.07329 73.0 73
  163.08084 52.0 52
  163.09445 9.0 9
  163.104 7.0 7
  163.11565 13.0 13
  163.1346 7.0 7
  163.15062 84.0 84
  163.19292 7.0 7
  164.08162 15.0 15
  164.1086 8.0 8
  164.11638 8.0 8
  164.1577 14.0 14
  164.22339 8.0 8
  165.04318 7.0 7
  165.05493 25.0 25
  165.06772 49.0 49
  165.08395 24.0 24
  165.09717 33.0 33
  165.12161 7.0 7
  165.13106 7.0 7
  166.07185 17.0 17
  167.05501 6.0 6
  167.06561 10.0 10
  167.08633 55.0 55
  167.20494 7.0 7
  168.06648 14.0 14
  168.0746 6.0 6
  168.08537 9.0 9
  168.09865 6.0 6
  169.05705 7.0 7
  169.06888 24.0 24
  169.10132 220.0 220
  170.07037 30.0 30
  170.10559 43.0 43
  170.11458 14.0 14
  171.06519 7.0 7
  171.0775 76.0 76
  171.09059 6.0 6
  171.11665 310.0 310
  171.83885 6.0 6
  172.08304 9.0 9
  172.08957 7.0 7
  172.11685 40.0 40
  172.12596 8.0 8
  172.76537 8.0 8
  173.02432 7.0 7
  173.05493 48.0 48
  173.06679 12.0 12
  173.08681 61.0 61
  173.09686 107.0 107
  173.10939 21.0 21
  173.13313 291.0 291
  174.04807 9.0 9
  174.06433 18.0 18
  174.07759 8.0 8
  174.09743 18.0 18
  174.10628 13.0 13
  174.13515 8.0 8
  174.14265 6.0 6
  174.96294 9.0 9
  175.06111 12.0 12
  175.07918 171.0 171
  175.11357 55.0 55
  175.14813 157.0 157
  175.22523 13.0 13
  176.07901 18.0 18
  176.11604 22.0 22
  176.13698 9.0 9
  176.1507 7.0 7
  176.16016 9.0 9
  176.5352 8.0 8
  177.0545 23.0 23
  177.06566 6.0 6
  177.09047 225.0 225
  177.12819 8.0 8
  177.15625 22.0 22
  177.16978 8.0 8
  178.06107 7.0 7
  178.07985 7.0 7
  178.09654 15.0 15
  179.06526 13.0 13
  179.07733 7.0 7
  179.08817 18.0 18
  179.11668 12.0 12
  179.81708 13.0 13
  180.08157 7.0 7
  180.09073 25.0 25
  180.10362 8.0 8
  180.55161 6.0 6
  181.06801 35.0 35
  181.08398 17.0 17
  181.09523 43.0 43
  181.10478 113.0 113
  181.12057 7.0 7
  182.0766 16.0 16
  182.09892 14.0 14
  182.11537 13.0 13
  183.04044 9.0 9
  183.075 28.0 28
  183.08517 46.0 46
  183.09576 39.0 39
  183.11455 226.0 226
  183.12566 36.0 36
  183.15117 6.0 6
  183.64706 7.0 7
  183.88515 8.0 8
  184.0715 8.0 8
  184.08832 17.0 17
  184.09642 8.0 8
  184.11328 37.0 37
  184.12457 7.0 7
  184.81918 8.0 8
  185.06027 18.0 18
  185.09886 56.0 56
  185.13116 377.0 377
  185.15172 13.0 13
  185.40935 7.0 7
  185.51245 7.0 7
  186.12462 12.0 12
  186.13821 102.0 102
  187.07358 147.0 147
  187.08083 71.0 71
  187.0907 7.0 7
  187.1104 55.0 55
  187.11853 34.0 34
  187.14981 146.0 146
  188.08136 35.0 35
  188.1089 25.0 25
  188.14803 46.0 46
  188.16132 16.0 16
  189.0556 7.0 7
  189.0889 60.0 60
  189.10617 26.0 26
  189.12553 47.0 47
  189.13751 23.0 23
  189.16611 58.0 58
  190.06555 10.0 10
  190.08939 8.0 8
  190.10033 11.0 11
  191.06989 164.0 164
  191.08528 29.0 29
  191.09683 28.0 28
  191.10526 28.0 28
  191.14131 13.0 13
  192.07323 22.0 22
  192.07846 10.0 10
  192.11436 9.0 9
  192.40054 7.0 7
  193.08405 83.0 83
  193.09654 143.0 143
  194.09108 27.0 27
  194.10611 39.0 39
  195.06696 12.0 12
  195.0878 16.0 16
  195.11633 217.0 217
  195.13246 37.0 37
  196.08138 10.0 10
  196.11992 15.0 15
  196.12794 16.0 16
  196.71625 7.0 7
  197.0573 21.0 21
  197.07529 6.0 6
  197.09584 108.0 108
  197.12794 115.0 115
  197.13675 146.0 146
  197.60725 8.0 8
  197.89798 17.0 17
  198.09676 23.0 23
  198.10773 7.0 7
  198.12883 33.0 33
  198.13914 67.0 67
  199.06221 14.0 14
  199.0797 53.0 53
  199.10815 97.0 97
  199.11681 72.0 72
  199.14754 276.0 276
  199.16341 7.0 7
  200.07733 16.0 16
  200.08868 8.0 8
  200.11256 7.0 7
  200.12263 8.0 8
  200.14668 6.0 6
  200.15532 14.0 14
  200.43275 11.0 11
  201.05933 9.0 9
  201.09148 164.0 164
  201.12065 15.0 15
  201.12976 26.0 26
  201.16028 102.0 102
  201.17497 55.0 55
  202.10126 29.0 29
  202.14548 8.0 8
  202.15559 9.0 9
  203.05434 15.0 15
  203.07057 30.0 30
  203.08342 15.0 15
  203.09691 15.0 15
  203.10786 22.0 22
  203.11594 12.0 12
  203.1371 17.0 17
  203.15105 6.0 6
  203.1861 8.0 8
  204.06332 11.0 11
  204.07625 17.0 17
  204.08539 6.0 6
  205.06023 7.0 7
  205.086 459.0 459
  205.1091 13.0 13
  205.13052 9.0 9
  206.0871 54.0 54
  206.1039 19.0 19
  207.0761 10.0 10
  207.08543 20.0 20
  207.10005 50.0 50
  207.11591 70.0 70
  208.07774 10.0 10
  208.12102 7.0 7
  208.25198 7.0 7
  209.08675 33.0 33
  209.09816 38.0 38
  209.12711 48.0 48
  209.13467 54.0 54
  209.6656 6.0 6
  210.05077 9.0 9
  210.0955 10.0 10
  210.10394 7.0 7
  210.13844 74.0 74
  210.85765 7.0 7
  211.03278 9.0 9
  211.07323 19.0 19
  211.11264 118.0 118
  211.14352 52.0 52
  211.15227 96.0 96
  211.16385 15.0 15
  212.08478 7.0 7
  212.11572 52.0 52
  212.13884 8.0 8
  212.15727 35.0 35
  213.05997 6.0 6
  213.08839 91.0 91
  213.10709 26.0 26
  213.13141 196.0 196
  213.162 87.0 87
  213.17357 17.0 17
  214.09019 7.0 7
  214.12685 38.0 38
  214.14044 7.0 7
  214.16617 51.0 51
  215.07225 18.0 18
  215.08975 7.0 7
  215.1048 80.0 80
  215.13554 20.0 20
  215.14452 16.0 16
  215.15898 13.0 13
  215.17354 49.0 49
  215.18452 45.0 45
  215.19411 17.0 17
  215.5674 7.0 7
  216.06674 7.0 7
  216.15984 11.0 11
  216.16977 12.0 12
  216.18613 28.0 28
  216.87286 7.0 7
  217.07585 14.0 14
  217.09357 44.0 44
  217.11737 8.0 8
  217.1264 14.0 14
  217.14432 8.0 8
  217.16293 10.0 10
  217.181 16.0 16
  217.19388 25.0 25
  218.01419 12.0 12
  218.06734 7.0 7
  218.08188 7.0 7
  219.08478 10.0 10
  219.10207 165.0 165
  219.11798 24.0 24
  219.12727 6.0 6
  220.10045 19.0 19
  221.09901 40.0 40
  221.12256 39.0 39
  221.13545 77.0 77
  221.14879 9.0 9
  221.48703 8.0 8
  222.10344 20.0 20
  222.15289 7.0 7
  223.0668 13.0 13
  223.10585 50.0 50
  223.11639 46.0 46
  223.12906 10.0 10
  223.14326 24.0 24
  223.15295 80.0 80
  223.38812 7.0 7
  223.56046 7.0 7
  224.06844 10.0 10
  224.08769 9.0 9
  224.11066 13.0 13
  224.1541 14.0 14
  224.16586 8.0 8
  225.07523 8.0 8
  225.08974 14.0 14
  225.10355 7.0 7
  225.13176 79.0 79
  225.15988 100.0 100
  225.46762 7.0 7
  226.09383 6.0 6
  226.11974 18.0 18
  226.13455 14.0 14
  226.18329 12.0 12
  227.09198 18.0 18
  227.10609 131.0 131
  227.14589 26.0 26
  227.17731 30.0 30
  227.19035 21.0 21
  227.54224 6.0 6
  228.09074 7.0 7
  228.13538 10.0 10
  228.14519 8.0 8
  228.17261 16.0 16
  228.18547 10.0 10
  228.19719 7.0 7
  228.45085 9.0 9
  229.09305 7.0 7
  229.11319 24.0 24
  229.12347 97.0 97
  229.1579 26.0 26
  229.18013 20.0 20
  229.19478 36.0 36
  230.09308 7.0 7
  230.12119 16.0 16
  230.12909 23.0 23
  230.19841 17.0 17
  231.09335 6.0 6
  231.10443 47.0 47
  231.11845 6.0 6
  231.14027 18.0 18
  231.14754 15.0 15
  232.11176 12.0 12
  232.13379 11.0 11
  232.19612 8.0 8
  233.08493 8.0 8
  233.10112 7.0 7
  233.11053 16.0 16
  233.12952 43.0 43
  233.13966 20.0 20
  233.18568 7.0 7
  234.09584 8.0 8
  234.13632 7.0 7
  234.14503 8.0 8
  235.10649 20.0 20
  235.12193 14.0 14
  235.14645 54.0 54
  236.11722 7.0 7
  236.12659 12.0 12
  236.13994 7.0 7
  236.92747 7.0 7
  237.1275 13.0 13
  237.13741 12.0 12
  237.15865 74.0 74
  237.17715 9.0 9
  238.08333 7.0 7
  238.12393 19.0 19
  238.15114 7.0 7
  238.17139 33.0 33
  238.18665 12.0 12
  239.06856 7.0 7
  239.10367 106.0 106
  239.11348 35.0 35
  239.13312 14.0 14
  239.14282 27.0 27
  239.16708 35.0 35
  239.17699 70.0 70
  240.07033 7.0 7
  240.09644 7.0 7
  240.11316 54.0 54
  240.14763 16.0 16
  240.18407 33.0 33
  241.12204 217.0 217
  241.13931 26.0 26
  241.15582 7.0 7
  241.18797 22.0 22
  242.13039 16.0 16
  242.19933 7.0 7
  243.09406 10.0 10
  243.10805 37.0 37
  243.12285 6.0 6
  243.13625 50.0 50
  243.14812 19.0 19
  244.10672 7.0 7
  244.13637 17.0 17
  244.15106 6.0 6
  244.21541 8.0 8
  245.09846 8.0 8
  245.11807 63.0 63
  245.14037 7.0 7
  245.15533 14.0 14
  246.1109 11.0 11
  246.11884 7.0 7
  246.14099 20.0 20
  246.15852 7.0 7
  247.10822 6.0 6
  247.12494 51.0 51
  247.14056 28.0 28
  247.15129 18.0 18
  248.14859 48.0 48
  249.1232 28.0 28
  249.13712 7.0 7
  249.15086 7.0 7
  249.1714 27.0 27
  250.13144 20.0 20
  250.1651 9.0 9
  250.18553 7.0 7
  251.13898 22.0 22
  251.17088 16.0 16
  251.18561 81.0 81
  252.11261 8.0 8
  252.13219 15.0 15
  252.18784 27.0 27
  252.19716 11.0 11
  253.11891 71.0 71
  253.1405 7.0 7
  253.15663 6.0 6
  253.17529 42.0 42
  253.19519 440.0 440
  253.51286 9.0 9
  254.06717 10.0 10
  254.12079 25.0 25
  254.1292 15.0 15
  254.17169 17.0 17
  254.19142 49.0 49
  254.20448 209.0 209
  255.10423 11.0 11
  255.13716 55.0 55
  255.17587 6.0 6
  255.20529 188.0 188
  255.21791 101.0 101
  256.1218 7.0 7
  256.14035 10.0 10
  256.20264 7.0 7
  256.21826 88.0 88
  256.34195 7.0 7
  257.10587 24.0 24
  257.11789 66.0 66
  257.13113 18.0 18
  257.15915 20.0 20
  257.19281 17.0 17
  257.22629 7.0 7
  258.2023 9.0 9
  258.28732 7.0 7
  259.10684 6.0 6
  259.13004 112.0 112
  260.14233 9.0 9
  260.15256 14.0 14
  261.16507 20.0 20
  262.16925 50.0 50
  263.1337 10.0 10
  263.14685 7.0 7
  263.17477 24.0 24
  263.18759 10.0 10
  263.69907 8.0 8
  264.15204 7.0 7
  264.17514 8.0 8
  264.18475 7.0 7
  265.11783 32.0 32
  265.14948 7.0 7
  265.16254 8.0 8
  265.18915 37.0 37
  266.13046 16.0 16
  266.15228 9.0 9
  266.16876 15.0 15
  266.18246 15.0 15
  266.20847 14.0 14
  267.0993 7.0 7
  267.11954 10.0 10
  267.13501 65.0 65
  267.14819 19.0 19
  267.21307 7.0 7
  267.22375 8.0 8
  268.13889 15.0 15
  268.15628 10.0 10
  269.0256 6.0 6
  269.12262 8.0 8
  269.15622 24.0 24
  269.19302 9.0 9
  269.34467 8.0 8
  270.16043 24.0 24
  270.19836 9.0 9
  270.60889 8.0 8
  271.12109 7.0 7
  271.14618 43.0 43
  271.20166 52.0 52
  271.21243 45.0 45
  272.13608 6.0 6
  272.2099 24.0 24
  272.22678 29.0 29
  273.09729 9.0 9
  273.14798 28.0 28
  273.18457 15.0 15
  274.17859 10.0 10
  274.21594 8.0 8
  275.15555 7.0 7
  275.16754 18.0 18
  275.19043 7.0 7
  276.14481 7.0 7
  276.17465 12.0 12
  277.15622 16.0 16
  278.15393 17.0 17
  278.18109 7.0 7
  278.19516 31.0 31
  279.1279 10.0 10
  279.15787 7.0 7
  279.17484 21.0 21
  279.19632 18.0 18
  279.20786 59.0 59
  280.13678 14.0 14
  280.22076 17.0 17
  281.13046 10.0 10
  281.1528 53.0 53
  281.19604 6.0 6
  282.16006 7.0 7
  282.20139 8.0 8
  282.23349 6.0 6
  283.16537 14.0 14
  283.18118 7.0 7
  283.20709 13.0 13
  284.18158 8.0 8
  285.14255 46.0 46
  285.16644 14.0 14
  287.16394 14.0 14
  287.19806 9.0 9
  288.16895 18.0 18
  288.18423 6.0 6
  288.28894 8.0 8
  288.45859 8.0 8
  289.15033 8.0 8
  289.17389 7.0 7
  289.189 37.0 37
  289.20126 25.0 25
  289.22021 6.0 6
  290.15326 12.0 12
  290.19501 11.0 11
  290.20502 22.0 22
  291.1954 9.0 9
  291.21802 7.0 7
  292.18353 25.0 25
  292.21118 7.0 7
  293.14926 48.0 48
  293.16025 24.0 24
  293.18494 21.0 21
  293.22229 16.0 16
  293.23239 17.0 17
  294.16415 21.0 21
  294.18527 7.0 7
  295.16089 15.0 15
  295.17215 9.0 9
  297.12601 7.0 7
  297.15091 9.0 9
  297.18173 15.0 15
  297.22528 9.0 9
  297.23465 7.0 7
  298.14465 7.0 7
  299.17004 7.0 7
  301.18491 16.0 16
  301.21198 25.0 25
  301.85446 8.0 8
  303.16986 21.0 21
  303.19928 29.0 29
  303.21112 50.0 50
  303.23291 9.0 9
  304.2236 16.0 16
  305.18127 7.0 7
  305.20355 14.0 14
  305.24033 7.0 7
  306.16174 8.0 8
  306.20255 9.0 9
  307.15442 20.0 20
  307.16934 14.0 14
  307.19748 7.0 7
  307.21045 24.0 24
  308.1803 9.0 9
  308.21378 16.0 16
  309.18414 7.0 7
  311.15256 6.0 6
  311.16238 7.0 7
  311.23724 7.0 7
  312.1539 7.0 7
  312.21365 8.0 8
  312.23038 14.0 14
  312.24234 8.0 8
  313.20804 11.0 11
  313.71948 7.0 7
  321.19305 84.0 84
  321.22818 41.0 41
  321.24545 16.0 16
  322.1871 12.0 12
  322.20804 16.0 16
  322.22134 7.0 7
  322.23843 10.0 10
  323.15485 8.0 8
  323.19543 6.0 6
  323.22751 7.0 7
  323.23813 22.0 22
  323.24878 17.0 17
  324.19977 12.0 12
  324.23691 8.0 8
  325.18311 26.0 26
  325.21063 8.0 8
  325.22516 22.0 22
  326.1853 11.0 11
  326.2142 7.0 7
  326.22278 18.0 18
  331.20447 13.0 13
  331.22757 8.0 8
  332.21558 33.0 33
  333.20044 7.0 7
  333.22058 9.0 9
  338.20587 10.0 10
  339.22662 10.0 10
  339.24295 19.0 19
  340.18594 7.0 7
  340.21402 14.0 14
  340.86722 6.0 6
  343.66629 7.0 7
  344.18472 6.0 6
  344.74338 6.0 6
  348.12711 9.0 9
  349.19138 17.0 17
  349.20715 60.0 60
  349.22333 98.0 98
  349.2403 6.0 6
  350.20053 13.0 13
  350.21509 38.0 38
  352.49527 8.0 8
  353.40625 7.0 7
  359.5062 9.0 9
  365.31091 6.0 6
  367.19812 12.0 12
  367.22021 151.0 151
  367.24313 38.0 38
  368.21527 15.0 15
  368.23111 42.0 42
  368.24982 7.0 7
  370.22726 8.0 8
  372.99695 6.0 6
  375.0845 7.0 7
  385.23703 142.0 142
  385.34012 7.0 7
//
