ACCESSION: MSBNK-RIKEN-PR308015
RECORD_TITLE: Arctiin; LC-ESI-QTOF; MS2
DATE: 2019.03.28
AUTHORS: Tetsuya Mori, Center for Sustainable Resource Science, RIKEN
LICENSE: CC BY-NC-SA
PUBLICATION: Tsugawa H., Nakabayashi R., Mori T., Yamada Y., Takahashi M., Rai A., Sugiyama R., Yamamoto H., Nakaya T., Yamazaki M., Kooke R., Bac-Molenaar JA., Oztolan-Erol N., Keurentjes JJB., Arita M., Saito K. (2019) "A cheminformatics approach to characterize metabolomes in stable-isotope-labeled organisms" Nature Methods 16(4):295-298. [doi:10.1038/s41592-019-0358-2]
COMMENT: registered in RIKEN PlaSMA
CH$NAME: Arctiin
CH$COMPOUND_CLASS: Lignan glycosides
CH$FORMULA: C27H34O11
CH$EXACT_MASS: 534.558
CH$SMILES: COC1=C(OC)C=C(CC2COC(=O)C2CC2=CC(OC)=C(OC3OC(CO)C(O)C(O)C3O)C=C2)C=C1
CH$IUPAC: InChI=1S/C27H34O11/c1-33-18-6-4-14(10-20(18)34-2)8-16-13-36-26(32)17(16)9-15-5-7-19(21(11-15)35-3)37-27-25(31)24(30)23(29)22(12-28)38-27/h4-7,10-11,16-17,22-25,27-31H,8-9,12-13H2,1-3H3
CH$LINK: INCHIKEY XOJVHLIYNSOZOO-UHFFFAOYSA-N
AC$INSTRUMENT: LC, Waters Acquity UPLC System; MS, Waters Xevo G2 Q-Tof
AC$INSTRUMENT_TYPE: LC-ESI-QTOF
AC$MASS_SPECTROMETRY: MS_TYPE MS2
AC$MASS_SPECTROMETRY: ION_MODE NEGATIVE
AC$MASS_SPECTROMETRY: COLLISION_ENERGY 6V
AC$MASS_SPECTROMETRY: DESOLVATION_GAS_FLOW 800/h
AC$MASS_SPECTROMETRY: DESOLVATION_TEMPERATURE 450 C
AC$MASS_SPECTROMETRY: IONIZATION ESI
AC$CHROMATOGRAPHY: CAPILLARY_VOLTAGE -2.75 kV
AC$CHROMATOGRAPHY: COLUMN_NAME Acquity bridged ethyl hybrid C18 (1.7 um, 2.1 mm * 100 mm, Waters)
AC$CHROMATOGRAPHY: COLUMN_TEMPERATURE 40 C
AC$CHROMATOGRAPHY: FLOW_GRADIENT A/B = (99.5%/0.5% at 0 min, 99.5%/0.5% at 0.1 min, 20%/80% at 10 min, 0.5%/99.5% at 10.1 min, 0.5%/99.5% at 12.0 min, 99.5%/0.5% at 12.1 min, 99.5%/0.5% at 15.0 min)
AC$CHROMATOGRAPHY: FLOW_RATE 0.3 ml/min at 0 min, 0.3 ml/min at 10 min, 0.4 ml/min at 10.1 min, 0.4 ml/min at 14.4 min, 0.3 ml/min at 14.5 min
AC$CHROMATOGRAPHY: RETENTION_TIME 5.17965
AC$CHROMATOGRAPHY: SOLVENT A water including 0.1% formic acid
AC$CHROMATOGRAPHY: SOLVENT B acetonitrile including 0.1% formic acid
MS$FOCUSED_ION: PRECURSOR_TYPE [M-H]-
MS$FOCUSED_ION: PRECURSOR_M/Z 533.20283544783
PK$SPLASH: splash10-00di-0109000000-eeb028496eac03b5f374
PK$NUM_PEAK: 14
PK$PEAK: m/z int. rel.int.
  83.01218 77.0 77
  136.05453 135.0 135
  137.05338 87.0 87
  151.08005 77.0 77
  159.02165 111.0 111
  312.09915 82.0 82
  328.13947 77.0 77
  356.14114 77.0 77
  371.12424 221.0 221
  371.1528 1000.0 999
  372.15778 250.0 250
  372.17288 125.0 125
  373.147 77.0 77
  477.14685 82.0 82
//
