ACCESSION: MSBNK-RIKEN-PR303569
RECORD_TITLE: Isofraxidin; LC-ESI-QTOF; MS2
DATE: 2019.03.28
AUTHORS: Tetsuya Mori, Center for Sustainable Resource Science, RIKEN
LICENSE: CC BY-NC-SA
PUBLICATION: Tsugawa H., Nakabayashi R., Mori T., Yamada Y., Takahashi M., Rai A., Sugiyama R., Yamamoto H., Nakaya T., Yamazaki M., Kooke R., Bac-Molenaar JA., Oztolan-Erol N., Keurentjes JJB., Arita M., Saito K. (2019) "A cheminformatics approach to characterize metabolomes in stable-isotope-labeled organisms" Nature Methods 16(4):295-298. [doi:10.1038/s41592-019-0358-2]
COMMENT: registered in RIKEN PlaSMA
CH$NAME: Isofraxidin
CH$COMPOUND_CLASS: 7-hydroxycoumarins
CH$FORMULA: C11H10O5
CH$EXACT_MASS: 222.196
CH$SMILES: COC1=C(O)C(OC)=C2OC(=O)C=CC2=C1
CH$IUPAC: InChI=1S/C11H10O5/c1-14-7-5-6-3-4-8(12)16-10(6)11(15-2)9(7)13/h3-5,13H,1-2H3
CH$LINK: INCHIKEY HOEVRHHMDJKUMZ-UHFFFAOYSA-N
AC$INSTRUMENT: LC, Waters Acquity UPLC System; MS, Waters Xevo G2 Q-Tof
AC$INSTRUMENT_TYPE: LC-ESI-QTOF
AC$MASS_SPECTROMETRY: MS_TYPE MS2
AC$MASS_SPECTROMETRY: ION_MODE POSITIVE
AC$MASS_SPECTROMETRY: COLLISION_ENERGY 6V
AC$MASS_SPECTROMETRY: DESOLVATION_GAS_FLOW 800/h
AC$MASS_SPECTROMETRY: DESOLVATION_TEMPERATURE 450 C
AC$MASS_SPECTROMETRY: IONIZATION ESI
AC$CHROMATOGRAPHY: CAPILLARY_VOLTAGE +3.00 kV
AC$CHROMATOGRAPHY: COLUMN_NAME Acquity bridged ethyl hybrid C18 (1.7 um, 2.1 mm * 100 mm, Waters)
AC$CHROMATOGRAPHY: COLUMN_TEMPERATURE 40 C
AC$CHROMATOGRAPHY: FLOW_GRADIENT A/B = (99.5%/0.5% at 0 min, 99.5%/0.5% at 0.1 min, 20%/80% at 10 min, 0.5%/99.5% at 10.1 min, 0.5%/99.5% at 12.0 min, 99.5%/0.5% at 12.1 min, 99.5%/0.5% at 15.0 min)
AC$CHROMATOGRAPHY: FLOW_RATE 0.3 ml/min at 0 min, 0.3 ml/min at 10 min, 0.4 ml/min at 10.1 min, 0.4 ml/min at 14.4 min, 0.3 ml/min at 14.5 min
AC$CHROMATOGRAPHY: RETENTION_TIME 4.2761
AC$CHROMATOGRAPHY: SOLVENT A water including 0.1% formic acid
AC$CHROMATOGRAPHY: SOLVENT B acetonitrile including 0.1% formic acid
MS$FOCUSED_ION: PRECURSOR_TYPE [M+H]+
MS$FOCUSED_ION: PRECURSOR_M/Z 223.0600999
PK$SPLASH: splash10-00di-0490000000-6352180847f67abcdb58
PK$NUM_PEAK: 30
PK$PEAK: m/z int. rel.int.
  78.0456 13.0 13
  79.05693 5.0 5
  105.03299 11.0 11
  106.03921 8.0 8
  107.048 48.0 48
  117.03339 11.0 11
  123.04456 13.0 13
  133.03001 16.0 16
  134.03531 21.0 21
  135.04214 34.0 34
  152.04688 5.0 5
  161.01921 9.0 9
  161.02769 6.0 6
  162.03157 108.0 108
  163.03838 54.0 54
  164.0401 7.0 7
  178.01559 6.0 6
  178.02477 12.0 12
  179.03299 46.0 46
  180.03558 11.0 11
  190.02626 117.0 117
  191.02773 11.0 11
  207.02927 52.0 52
  208.03732 97.0 97
  209.0416 9.0 9
  222.04442 8.0 8
  222.05759 15.0 15
  223.02335 5.0 5
  223.06061 1000.0 999
  223.10492 21.0 21
//
