ACCESSION: MSBNK-RIKEN-PR301032
RECORD_TITLE: Thalsimidine; LC-ESI-QTOF; MS2
DATE: 2019.03.28
AUTHORS: Tetsuya Mori, Center for Sustainable Resource Science, RIKEN
LICENSE: CC BY-NC-SA
PUBLICATION: Tsugawa H., Nakabayashi R., Mori T., Yamada Y., Takahashi M., Rai A., Sugiyama R., Yamamoto H., Nakaya T., Yamazaki M., Kooke R., Bac-Molenaar JA., Oztolan-Erol N., Keurentjes JJB., Arita M., Saito K. (2019) "A cheminformatics approach to characterize metabolomes in stable-isotope-labeled organisms" Nature Methods 16(4):295-298. [doi:10.1038/s41592-019-0358-2]
COMMENT: registered in RIKEN PlaSMA
CH$NAME: Thalsimidine
CH$COMPOUND_CLASS: Lignans, neolignans and related compounds
CH$FORMULA: C37H38N2O7
CH$EXACT_MASS: 622.718
CH$SMILES: COC1=C2OC3=CC=C(CC4=NCCC5=CC(OC)=C(OC6=C(OC)C(OC)=C(O)C7=C6[C@@H](CC(C=C1)=C2)N(C)CC7)C=C45)C=C3
CH$IUPAC: InChI=1S/C37H38N2O7/c1-39-15-13-25-33-28(39)17-22-8-11-29(41-2)31(18-22)45-24-9-6-21(7-10-24)16-27-26-20-32(30(42-3)19-23(26)12-14-38-27)46-35(33)37(44-5)36(43-4)34(25)40/h6-11,18-20,28,40H,12-17H2,1-5H3/t28-/m1/s1
CH$LINK: INCHIKEY CLDCTFPNFRITPI-MUUNZHRXSA-N
AC$INSTRUMENT: LC, Waters Acquity UPLC System; MS, Waters Xevo G2 Q-Tof
AC$INSTRUMENT_TYPE: LC-ESI-QTOF
AC$MASS_SPECTROMETRY: MS_TYPE MS2
AC$MASS_SPECTROMETRY: ION_MODE POSITIVE
AC$MASS_SPECTROMETRY: COLLISION_ENERGY 6V
AC$MASS_SPECTROMETRY: DESOLVATION_GAS_FLOW 800/h
AC$MASS_SPECTROMETRY: DESOLVATION_TEMPERATURE 450 C
AC$MASS_SPECTROMETRY: IONIZATION ESI
AC$CHROMATOGRAPHY: CAPILLARY_VOLTAGE +3.00 kV
AC$CHROMATOGRAPHY: COLUMN_NAME Acquity bridged ethyl hybrid C18 (1.7 um, 2.1 mm * 100 mm, Waters)
AC$CHROMATOGRAPHY: COLUMN_TEMPERATURE 40 C
AC$CHROMATOGRAPHY: FLOW_GRADIENT A/B = (99.5%/0.5% at 0 min, 99.5%/0.5% at 0.1 min, 20%/80% at 10 min, 0.5%/99.5% at 10.1 min, 0.5%/99.5% at 12.0 min, 99.5%/0.5% at 12.1 min, 99.5%/0.5% at 15.0 min)
AC$CHROMATOGRAPHY: FLOW_RATE 0.3 ml/min at 0 min, 0.3 ml/min at 10 min, 0.4 ml/min at 10.1 min, 0.4 ml/min at 14.4 min, 0.3 ml/min at 14.5 min
AC$CHROMATOGRAPHY: RETENTION_TIME 3.95775
AC$CHROMATOGRAPHY: SOLVENT A water including 0.1% formic acid
AC$CHROMATOGRAPHY: SOLVENT B acetonitrile including 0.1% formic acid
MS$FOCUSED_ION: PRECURSOR_TYPE [M+H]+
MS$FOCUSED_ION: PRECURSOR_M/Z 623.275178
PK$SPLASH: splash10-00di-0000019000-acdfa418ab51dae4480b
PK$NUM_PEAK: 29
PK$PEAK: m/z int. rel.int.
  135.0822 6.0 6
  204.0649 7.0 7
  312.14139 33.0 33
  312.63623 6.0 6
  312.64825 8.0 8
  372.19687 6.0 6
  395.30695 5.0 5
  401.18524 7.0 7
  534.19202 12.0 12
  559.21796 6.0 6
  560.22162 6.0 6
  561.28931 6.0 6
  575.22015 7.0 7
  576.20795 5.0 5
  577.20532 21.0 21
  577.23505 20.0 20
  578.21899 6.0 6
  591.23901 14.0 14
  592.20856 5.0 5
  592.23444 25.0 25
  593.17834 6.0 6
  593.2254 12.0 12
  594.19867 8.0 8
  594.23645 13.0 13
  595.22516 12.0 12
  607.23328 9.0 9
  609.26093 5.0 5
  623.20947 16.0 16
  623.27588 1000.0 999
//
