ACCESSION: MSBNK-RIKEN-PR309024
RECORD_TITLE: Tricaffeoyl quinic acid; LC-ESI-QTOF; MS2
DATE: 2019.03.28
AUTHORS: Tetsuya Mori, Center for Sustainable Resource Science, RIKEN
LICENSE: CC BY-NC-SA
PUBLICATION: Tsugawa H., Nakabayashi R., Mori T., Yamada Y., Takahashi M., Rai A., Sugiyama R., Yamamoto H., Nakaya T., Yamazaki M., Kooke R., Bac-Molenaar JA., Oztolan-Erol N., Keurentjes JJB., Arita M., Saito K. (2019) "A cheminformatics approach to characterize metabolomes in stable-isotope-labeled organisms" Nature Methods 16(4):295-298. [doi:10.1038/s41592-019-0358-2]
COMMENT: Annotation level-3
CH$NAME: Tricaffeoyl quinic acid
CH$COMPOUND_CLASS: Quinic acid and derivatives
CH$FORMULA: C34H30O15
CH$EXACT_MASS: 678.599
CH$SMILES: O=C(OC3CC(O)(C(=O)O)CC(OC(=O)C=CC1=CC=C(O)C(O)=C1)C3(OC(=O)C=CC=2C=CC(O)=C(O)C=2))C=CC=4C=CC(O)=C(O)C=4
CH$IUPAC: InChI=1S/C34H30O15/c35-21-7-1-18(13-24(21)38)4-10-29(41)47-27-16-34(46,33(44)45)17-28(48-30(42)11-5-19-2-8-22(36)25(39)14-19)32(27)49-31(43)12-6-20-3-9-23(37)26(40)15-20/h1-15,27-28,32,35-40,46H,16-17H2,(H,44,45)
CH$LINK: INCHIKEY OAFXTKGAKYAFSI-UHFFFAOYSA-N
AC$INSTRUMENT: LC, Waters Acquity UPLC System; MS, Waters Xevo G2 Q-Tof
AC$INSTRUMENT_TYPE: LC-ESI-QTOF
AC$MASS_SPECTROMETRY: MS_TYPE MS2
AC$MASS_SPECTROMETRY: ION_MODE NEGATIVE
AC$MASS_SPECTROMETRY: COLLISION_ENERGY 6V
AC$MASS_SPECTROMETRY: DESOLVATION_GAS_FLOW 800/h
AC$MASS_SPECTROMETRY: DESOLVATION_TEMPERATURE 450 C
AC$MASS_SPECTROMETRY: IONIZATION ESI
AC$CHROMATOGRAPHY: CAPILLARY_VOLTAGE +3.00 kV
AC$CHROMATOGRAPHY: COLUMN_NAME Acquity bridged ethyl hybrid C18 (1.7 um, 2.1 mm * 100 mm, Waters)
AC$CHROMATOGRAPHY: COLUMN_TEMPERATURE 40 C
AC$CHROMATOGRAPHY: FLOW_GRADIENT A/B = (99.5%/0.5% at 0 min, 99.5%/0.5% at 0.1 min, 20%/80% at 10 min, 0.5%/99.5% at 10.1 min, 0.5%/99.5% at 12.0 min, 99.5%/0.5% at 12.1 min, 99.5%/0.5% at 15.0 min)
AC$CHROMATOGRAPHY: FLOW_RATE 0.3 ml/min at 0 min, 0.3 ml/min at 10 min, 0.4 ml/min at 10.1 min, 0.4 ml/min at 14.4 min, 0.3 ml/min at 14.5 min
AC$CHROMATOGRAPHY: RETENTION_TIME 5.29
AC$CHROMATOGRAPHY: SOLVENT A water including 0.1% formic acid
AC$CHROMATOGRAPHY: SOLVENT B acetonitrile including 0.1% formic acid
MS$FOCUSED_ION: PRECURSOR_TYPE [M-H]-
MS$FOCUSED_ION: PRECURSOR_M/Z 677.1525
PK$SPLASH: splash10-0fvi-0109068000-cff97c205ca76ba22536
PK$NUM_PEAK: 10
PK$PEAK: m/z int. rel.int.
  123.04288 32.0 180
  335.07266 20.0 112
  336.08774 18.0 101
  353.08572 124.0 696
  353.10306 17.0 95
  515.09662 21.0 118
  515.11743 35.0 196
  515.13708 45.0 253
  516.13019 26.0 146
  677.15302 178.0 999
//
