ACCESSION: MSBNK-RIKEN-PR307817
RECORD_TITLE: Ginkgolide C; LC-ESI-QTOF; MS2
DATE: 2019.03.28
AUTHORS: Tetsuya Mori, Center for Sustainable Resource Science, RIKEN
LICENSE: CC BY-NC-SA
PUBLICATION: Tsugawa H., Nakabayashi R., Mori T., Yamada Y., Takahashi M., Rai A., Sugiyama R., Yamamoto H., Nakaya T., Yamazaki M., Kooke R., Bac-Molenaar JA., Oztolan-Erol N., Keurentjes JJB., Arita M., Saito K. (2019) "A cheminformatics approach to characterize metabolomes in stable-isotope-labeled organisms" Nature Methods 16(4):295-298. [doi:10.1038/s41592-019-0358-2]
COMMENT: registered in RIKEN PlaSMA
CH$NAME: Ginkgolide C
CH$COMPOUND_CLASS: Ginkgolides and bilobalides
CH$FORMULA: C20H24O11
CH$EXACT_MASS: 440.401
CH$SMILES: CC1C(=O)OC2C(O)C34C5OC(=O)C3(OC3OC(=O)C(O)C43C(C5O)C(C)(C)C)C12O
CH$IUPAC: InChI=1S/C20H24O11/c1-5-12(24)28-11-8(22)18-10-6(21)7(16(2,3)4)17(18)9(23)13(25)30-15(17)31-20(18,14(26)29-10)19(5,11)27/h5-11,15,21-23,27H,1-4H3
CH$LINK: INCHIKEY AMOGMTLMADGEOQ-UHFFFAOYSA-N
AC$INSTRUMENT: LC, Waters Acquity UPLC System; MS, Waters Xevo G2 Q-Tof
AC$INSTRUMENT_TYPE: LC-ESI-QTOF
AC$MASS_SPECTROMETRY: MS_TYPE MS2
AC$MASS_SPECTROMETRY: ION_MODE NEGATIVE
AC$MASS_SPECTROMETRY: COLLISION_ENERGY 6V
AC$MASS_SPECTROMETRY: DESOLVATION_GAS_FLOW 800/h
AC$MASS_SPECTROMETRY: DESOLVATION_TEMPERATURE 450 C
AC$MASS_SPECTROMETRY: IONIZATION ESI
AC$CHROMATOGRAPHY: CAPILLARY_VOLTAGE -2.75 kV
AC$CHROMATOGRAPHY: COLUMN_NAME Acquity bridged ethyl hybrid C18 (1.7 um, 2.1 mm * 100 mm, Waters)
AC$CHROMATOGRAPHY: COLUMN_TEMPERATURE 40 C
AC$CHROMATOGRAPHY: FLOW_GRADIENT A/B = (99.5%/0.5% at 0 min, 99.5%/0.5% at 0.1 min, 20%/80% at 10 min, 0.5%/99.5% at 10.1 min, 0.5%/99.5% at 12.0 min, 99.5%/0.5% at 12.1 min, 99.5%/0.5% at 15.0 min)
AC$CHROMATOGRAPHY: FLOW_RATE 0.3 ml/min at 0 min, 0.3 ml/min at 10 min, 0.4 ml/min at 10.1 min, 0.4 ml/min at 14.4 min, 0.3 ml/min at 14.5 min
AC$CHROMATOGRAPHY: RETENTION_TIME 4.331234
AC$CHROMATOGRAPHY: SOLVENT A water including 0.1% formic acid
AC$CHROMATOGRAPHY: SOLVENT B acetonitrile including 0.1% formic acid
MS$FOCUSED_ION: PRECURSOR_TYPE [M-H]-
MS$FOCUSED_ION: PRECURSOR_M/Z 439.12458514783
PK$SPLASH: splash10-0201-4910000000-1db8694ebb6364afdcc1
PK$NUM_PEAK: 76
PK$PEAK: m/z int. rel.int.
  69.03261 286.0 286
  69.03956 45.0 45
  70.5747 65.0 65
  72.99207 400.0 400
  80.02633 43.0 43
  81.03457 54.0 54
  83.05455 56.0 56
  87.005 39.0 39
  87.01302 58.0 58
  93.03716 41.0 41
  94.03568 47.0 47
  97.02851 746.0 745
  97.06651 39.0 39
  102.0461 39.0 39
  107.04189 39.0 39
  111.04032 47.0 47
  113.02379 677.0 676
  114.03637 43.0 43
  119.0526 43.0 43
  121.03084 43.0 43
  122.02923 43.0 43
  123.00413 41.0 41
  123.00923 39.0 39
  123.04052 43.0 43
  125.02385 1000.0 999
  126.02509 39.0 39
  126.03112 54.0 54
  130.09673 39.0 39
  134.03532 97.0 97
  135.04697 116.0 116
  136.08368 47.0 47
  137.05725 45.0 45
  140.04521 43.0 43
  141.01308 52.0 52
  141.12428 39.0 39
  145.02936 43.0 43
  147.04399 43.0 43
  147.05347 39.0 39
  149.09238 39.0 39
  155.08022 39.0 39
  159.04248 39.0 39
  161.05804 43.0 43
  162.0285 39.0 39
  163.03123 39.0 39
  163.04366 43.0 43
  163.11124 97.0 97
  165.0448 39.0 39
  171.04645 47.0 47
  172.04503 39.0 39
  173.05806 82.0 82
  173.13066 39.0 39
  174.06485 153.0 153
  175.08365 39.0 39
  177.05536 39.0 39
  177.0842 45.0 45
  178.06339 45.0 45
  185.05142 58.0 58
  187.04076 90.0 90
  188.04298 39.0 39
  190.0242 45.0 45
  191.03436 58.0 58
  191.11082 84.0 84
  192.02899 43.0 43
  197.09203 41.0 41
  199.11369 60.0 60
  200.04857 39.0 39
  201.11809 56.0 56
  203.06334 39.0 39
  211.06483 39.0 39
  217.04716 43.0 43
  228.05347 47.0 47
  229.13559 54.0 54
  230.08727 45.0 45
  230.09651 41.0 41
  232.14212 43.0 43
  241.13472 43.0 43
//
