ACCESSION: MSBNK-RIKEN-PR301723
RECORD_TITLE: Procaine; LC-ESI-QTOF; MS2
DATE: 2019.03.28
AUTHORS: Tetsuya Mori, Center for Sustainable Resource Science, RIKEN
LICENSE: CC BY-NC-SA
PUBLICATION: Tsugawa H., Nakabayashi R., Mori T., Yamada Y., Takahashi M., Rai A., Sugiyama R., Yamamoto H., Nakaya T., Yamazaki M., Kooke R., Bac-Molenaar JA., Oztolan-Erol N., Keurentjes JJB., Arita M., Saito K. (2019) "A cheminformatics approach to characterize metabolomes in stable-isotope-labeled organisms" Nature Methods 16(4):295-298. [doi:10.1038/s41592-019-0358-2]
COMMENT: registered in RIKEN PlaSMA
CH$NAME: Procaine
CH$COMPOUND_CLASS: Benzoic acid esters
CH$FORMULA: C13H20N2O2
CH$EXACT_MASS: 236.315
CH$SMILES: CCN(CC)CCOC(=O)C1=CC=C(N)C=C1
CH$IUPAC: InChI=1S/C13H20N2O2/c1-3-15(4-2)9-10-17-13(16)11-5-7-12(14)8-6-11/h5-8H,3-4,9-10,14H2,1-2H3
CH$LINK: INCHIKEY MFDFERRIHVXMIY-UHFFFAOYSA-N
AC$INSTRUMENT: LC, Waters Acquity UPLC System; MS, Waters Xevo G2 Q-Tof
AC$INSTRUMENT_TYPE: LC-ESI-QTOF
AC$MASS_SPECTROMETRY: MS_TYPE MS2
AC$MASS_SPECTROMETRY: ION_MODE POSITIVE
AC$MASS_SPECTROMETRY: COLLISION_ENERGY 6V
AC$MASS_SPECTROMETRY: DESOLVATION_GAS_FLOW 800/h
AC$MASS_SPECTROMETRY: DESOLVATION_TEMPERATURE 450 C
AC$MASS_SPECTROMETRY: IONIZATION ESI
AC$CHROMATOGRAPHY: CAPILLARY_VOLTAGE +3.00 kV
AC$CHROMATOGRAPHY: COLUMN_NAME Acquity bridged ethyl hybrid C18 (1.7 um, 2.1 mm * 100 mm, Waters)
AC$CHROMATOGRAPHY: COLUMN_TEMPERATURE 40 C
AC$CHROMATOGRAPHY: FLOW_GRADIENT A/B = (99.5%/0.5% at 0 min, 99.5%/0.5% at 0.1 min, 20%/80% at 10 min, 0.5%/99.5% at 10.1 min, 0.5%/99.5% at 12.0 min, 99.5%/0.5% at 12.1 min, 99.5%/0.5% at 15.0 min)
AC$CHROMATOGRAPHY: FLOW_RATE 0.3 ml/min at 0 min, 0.3 ml/min at 10 min, 0.4 ml/min at 10.1 min, 0.4 ml/min at 14.4 min, 0.3 ml/min at 14.5 min
AC$CHROMATOGRAPHY: RETENTION_TIME 2.752083
AC$CHROMATOGRAPHY: SOLVENT A water including 0.1% formic acid
AC$CHROMATOGRAPHY: SOLVENT B acetonitrile including 0.1% formic acid
MS$FOCUSED_ION: PRECURSOR_TYPE [M+H]+
MS$FOCUSED_ION: PRECURSOR_M/Z 237.1597543
PK$SPLASH: splash10-00di-1900000000-7c9cad0a63cc1cf252d4
PK$NUM_PEAK: 29
PK$PEAK: m/z int. rel.int.
  65.03779 9.0 9
  72.08163 50.0 50
  72.54509 6.0 6
  92.03768 7.0 7
  92.04662 83.0 83
  92.05244 35.0 35
  93.04282 8.0 8
  93.05074 9.0 9
  93.06189 8.0 8
  100.11221 261.0 261
  100.6875 6.0 6
  101.1083 11.0 11
  101.11553 8.0 8
  117.74819 6.0 6
  119.04864 6.0 6
  119.74402 5.0 5
  120.02194 9.0 9
  120.04395 1000.0 999
  121.03481 6.0 6
  121.04401 32.0 32
  121.05412 8.0 8
  122.05238 12.0 12
  135.47806 5.0 5
  164.06804 54.0 54
  164.07358 120.0 120
  165.06592 6.0 6
  165.07721 13.0 13
  166.08209 8.0 8
  237.14923 8.0 8
//
