ACCESSION: MSBNK-RIKEN-PR305118
RECORD_TITLE: Convolidine; LC-ESI-QTOF; MS2
DATE: 2019.03.28
AUTHORS: Tetsuya Mori, Center for Sustainable Resource Science, RIKEN
LICENSE: CC BY-NC-SA
PUBLICATION: Tsugawa H., Nakabayashi R., Mori T., Yamada Y., Takahashi M., Rai A., Sugiyama R., Yamamoto H., Nakaya T., Yamazaki M., Kooke R., Bac-Molenaar JA., Oztolan-Erol N., Keurentjes JJB., Arita M., Saito K. (2019) "A cheminformatics approach to characterize metabolomes in stable-isotope-labeled organisms" Nature Methods 16(4):295-298. [doi:10.1038/s41592-019-0358-2]
COMMENT: registered in RIKEN PlaSMA
CH$NAME: Convolidine
CH$COMPOUND_CLASS: M-methoxybenzoic acids and derivatives
CH$FORMULA: C15H19NO4
CH$EXACT_MASS: 277.32
CH$SMILES: COC1=C(O)C=CC(=C1)C(=O)OC1CC2CCC(C1)N2
CH$IUPAC: InChI=1S/C15H19NO4/c1-19-14-6-9(2-5-13(14)17)15(18)20-12-7-10-3-4-11(8-12)16-10/h2,5-6,10-12,16-17H,3-4,7-8H2,1H3
CH$LINK: INCHIKEY GWWGRYGNRKFSSX-UHFFFAOYSA-N
AC$INSTRUMENT: LC, Waters Acquity UPLC System; MS, Waters Xevo G2 Q-Tof
AC$INSTRUMENT_TYPE: LC-ESI-QTOF
AC$MASS_SPECTROMETRY: MS_TYPE MS2
AC$MASS_SPECTROMETRY: ION_MODE NEGATIVE
AC$MASS_SPECTROMETRY: COLLISION_ENERGY 6V
AC$MASS_SPECTROMETRY: DESOLVATION_GAS_FLOW 800/h
AC$MASS_SPECTROMETRY: DESOLVATION_TEMPERATURE 450 C
AC$MASS_SPECTROMETRY: IONIZATION ESI
AC$CHROMATOGRAPHY: CAPILLARY_VOLTAGE -2.75 kV
AC$CHROMATOGRAPHY: COLUMN_NAME Acquity bridged ethyl hybrid C18 (1.7 um, 2.1 mm * 100 mm, Waters)
AC$CHROMATOGRAPHY: COLUMN_TEMPERATURE 40 C
AC$CHROMATOGRAPHY: FLOW_GRADIENT A/B = (99.5%/0.5% at 0 min, 99.5%/0.5% at 0.1 min, 20%/80% at 10 min, 0.5%/99.5% at 10.1 min, 0.5%/99.5% at 12.0 min, 99.5%/0.5% at 12.1 min, 99.5%/0.5% at 15.0 min)
AC$CHROMATOGRAPHY: FLOW_RATE 0.3 ml/min at 0 min, 0.3 ml/min at 10 min, 0.4 ml/min at 10.1 min, 0.4 ml/min at 14.4 min, 0.3 ml/min at 14.5 min
AC$CHROMATOGRAPHY: RETENTION_TIME 3.2679
AC$CHROMATOGRAPHY: SOLVENT A water including 0.1% formic acid
AC$CHROMATOGRAPHY: SOLVENT B acetonitrile including 0.1% formic acid
MS$FOCUSED_ION: PRECURSOR_TYPE [M-H]-
MS$FOCUSED_ION: PRECURSOR_M/Z 276.12413164783
PK$SPLASH: splash10-004i-0090000000-a266a617d863dec092cd
PK$NUM_PEAK: 15
PK$PEAK: m/z int. rel.int.
  107.01406 20.0 20
  123.05069 19.0 19
  150.98708 13.0 13
  151.00121 26.0 26
  151.00847 24.0 24
  167.03401 11.0 11
  167.0489 10.0 10
  168.04588 10.0 10
  252.62112 10.0 10
  261.09326 123.0 123
  261.10446 64.0 64
  262.09775 22.0 22
  263.09851 13.0 13
  263.10931 11.0 11
  276.12347 1000.0 999
//
