ACCESSION: MSBNK-RIKEN-PR310625
RECORD_TITLE: (+)-Corydaline; LC-ESI-QTOF; MS2
DATE: 2019.03.28
AUTHORS: Tetsuya Mori, Center for Sustainable Resource Science, RIKEN
LICENSE: CC BY-NC-SA
PUBLICATION: Tsugawa H., Nakabayashi R., Mori T., Yamada Y., Takahashi M., Rai A., Sugiyama R., Yamamoto H., Nakaya T., Yamazaki M., Kooke R., Bac-Molenaar JA., Oztolan-Erol N., Keurentjes JJB., Arita M., Saito K. (2019) "A cheminformatics approach to characterize metabolomes in stable-isotope-labeled organisms" Nature Methods 16(4):295-298. [doi:10.1038/s41592-019-0358-2]
COMMENT: Annotation level-1
CH$NAME: (+)-Corydaline
CH$COMPOUND_CLASS: Alkaloids
CH$FORMULA: C22H27NO4
CH$EXACT_MASS: 369.461
CH$SMILES: COC1=C(OC)C=C2C3C(C)C4=C(CN3CCC2=C1)C(OC)=C(OC)C=C4
CH$IUPAC: InChI=1S/C22H27NO4/c1-13-15-6-7-18(24-2)22(27-5)17(15)12-23-9-8-14-10-19(25-3)20(26-4)11-16(14)21(13)23/h6-7,10-11,13,21H,8-9,12H2,1-5H3
CH$LINK: INCHIKEY VRSRXLJTYQVOHC-UHFFFAOYSA-N
AC$INSTRUMENT: LC, Waters Acquity UPLC System; MS, Waters Xevo G2 Q-Tof
AC$INSTRUMENT_TYPE: LC-ESI-QTOF
AC$MASS_SPECTROMETRY: MS_TYPE MS2
AC$MASS_SPECTROMETRY: ION_MODE POSITIVE
AC$MASS_SPECTROMETRY: COLLISION_ENERGY 6V
AC$MASS_SPECTROMETRY: DESOLVATION_GAS_FLOW 800/h
AC$MASS_SPECTROMETRY: DESOLVATION_TEMPERATURE 450 C
AC$MASS_SPECTROMETRY: IONIZATION ESI
AC$CHROMATOGRAPHY: CAPILLARY_VOLTAGE +3.00 kV
AC$CHROMATOGRAPHY: COLUMN_NAME Acquity bridged ethyl hybrid C18 (1.7 um, 2.1 mm * 100 mm, Waters)
AC$CHROMATOGRAPHY: COLUMN_TEMPERATURE 40 C
AC$CHROMATOGRAPHY: FLOW_GRADIENT A/B = (99.5%/0.5% at 0 min, 99.5%/0.5% at 0.1 min, 20%/80% at 10 min, 0.5%/99.5% at 10.1 min, 0.5%/99.5% at 12.0 min, 99.5%/0.5% at 12.1 min, 99.5%/0.5% at 15.0 min)
AC$CHROMATOGRAPHY: FLOW_RATE 0.3 ml/min at 0 min, 0.3 ml/min at 10 min, 0.4 ml/min at 10.1 min, 0.4 ml/min at 14.4 min, 0.3 ml/min at 14.5 min
AC$CHROMATOGRAPHY: RETENTION_TIME 4.86
AC$CHROMATOGRAPHY: SOLVENT A water including 0.1% formic acid
AC$CHROMATOGRAPHY: SOLVENT B acetonitrile including 0.1% formic acid
MS$FOCUSED_ION: PRECURSOR_TYPE [M+H]+
MS$FOCUSED_ION: PRECURSOR_M/Z 370.20128
PK$SPLASH: splash10-00di-0519000000-a7c06ace288fe074693e
PK$NUM_PEAK: 517
PK$PEAK: m/z int. rel.int.
  74.8051 24.0 0
  75.04372 24.0 0
  77.04433 19.0 0
  79.05523 79.0 1
  79.06385 20.0 0
  80.46815 24.0 0
  82.91245 18.0 0
  90.04626 25.0 0
  91.04356 18.0 0
  91.05341 27.0 0
  97.01665 17.0 0
  101.55099 18.0 0
  103.06018 29.0 0
  104.02924 35.0 0
  105.063 102.0 1
  105.06852 288.0 4
  106.06953 24.0 0
  106.48879 21.0 0
  108.06078 21.0 0
  109.55654 18.0 0
  115.04688 25.0 0
  115.27179 18.0 0
  117.06627 36.0 1
  117.07664 20.0 0
  118.04377 24.0 0
  118.05371 37.0 1
  118.06831 43.0 1
  118.08265 30.0 0
  119.04991 59.0 1
  119.08253 31.0 0
  120.05265 41.0 1
  121.06383 110.0 2
  122.10581 21.0 0
  123.04295 59.0 1
  123.07804 30.0 0
  124.04964 24.0 0
  128.2749 17.0 0
  129.04901 20.0 0
  129.91869 17.0 0
  131.04807 41.0 1
  131.05621 49.0 1
  131.0683 48.0 1
  131.07854 156.0 2
  132.06609 25.0 0
  132.07425 59.0 1
  132.0843 30.0 0
  133.06596 563.0 8
  134.01596 25.0 0
  134.06599 54.0 1
  134.07536 93.0 1
  135.03424 101.0 1
  135.04398 202.0 3
  135.05557 56.0 1
  135.07707 133.0 2
  135.0836 365.0 5
  136.03436 50.0 1
  136.05145 1047.0 15
  137.02444 20.0 0
  137.06198 162.0 2
  137.09137 24.0 0
  137.77501 20.0 0
  138.05533 28.0 0
  138.06371 63.0 1
  138.07318 25.0 0
  138.46053 17.0 0
  143.07181 26.0 0
  143.08585 21.0 0
  143.6414 17.0 0
  144.05167 22.0 0
  145.07428 49.0 1
  145.08824 20.0 0
  146.00537 21.0 0
  146.06709 24.0 0
  147.07816 153.0 2
  147.09447 25.0 0
  148.04701 91.0 1
  148.07014 128.0 2
  148.07623 329.0 5
  148.08484 157.0 2
  148.0968 22.0 0
  149.05812 87.0 1
  149.0656 131.0 2
  149.08165 92.0 1
  149.0881 81.0 1
  149.10031 129.0 2
  150.03511 21.0 0
  150.04335 22.0 0
  150.06825 2332.0 33
  150.18758 33.0 0
  150.37697 19.0 0
  151.04974 23.0 0
  151.07529 1532.0 22
  151.16962 20.0 0
  152.07263 88.0 1
  152.08325 111.0 2
  153.07634 19.0 0
  153.09418 19.0 0
  153.52286 18.0 0
  154.33394 18.0 0
  154.80862 22.0 0
  156.07443 43.0 1
  158.07362 20.0 0
  158.97252 17.0 0
  159.04469 24.0 0
  159.06656 70.0 1
  159.07306 75.0 1
  159.08878 28.0 0
  159.10675 17.0 0
  159.8837 28.0 0
  160.06512 18.0 0
  160.07526 108.0 2
  160.08594 97.0 1
  160.20113 18.0 0
  160.23172 17.0 0
  160.82536 17.0 0
  161.05536 25.0 0
  161.07951 94.0 1
  161.09076 33.0 0
  162.04501 26.0 0
  162.05489 43.0 1
  162.08287 51.0 1
  162.09673 19.0 0
  162.10963 23.0 0
  163.07152 46.0 1
  164.05629 20.0 0
  164.067 20.0 0
  164.07675 253.0 4
  164.0851 346.0 5
  164.10329 22.0 0
  164.11569 29.0 0
  164.80757 18.0 0
  165.03033 53.0 1
  165.09109 7850.0 112
  165.15454 21.0 0
  165.53679 26.0 0
  165.88112 18.0 0
  166.08881 186.0 3
  166.09537 463.0 7
  166.66083 18.0 0
  167.08968 17.0 0
  167.10011 20.0 0
  167.10942 49.0 1
  167.52901 22.0 0
  167.58565 20.0 0
  168.61751 18.0 0
  172.08836 20.0 0
  173.05641 17.0 0
  174.05388 17.0 0
  174.07182 27.0 0
  174.08583 37.0 1
  174.76649 18.0 0
  175.07512 75.0 1
  175.08908 27.0 0
  176.04375 25.0 0
  176.06038 223.0 3
  176.06889 722.0 10
  176.07765 368.0 5
  176.08971 46.0 1
  176.11711 20.0 0
  176.1263 33.0 0
  177.05418 35.0 0
  177.07457 785.0 11
  177.08618 711.0 10
  177.09862 70.0 1
  177.6691 25.0 0
  178.07446 93.0 1
  178.08488 75.0 1
  178.09612 53.0 1
  178.22568 18.0 0
  179.0816 54.0 1
  179.10558 1248.0 18
  179.34198 21.0 0
  180.07863 23.0 0
  180.10617 121.0 2
  180.11525 115.0 2
  181.10506 43.0 1
  182.8898 33.0 0
  184.08516 31.0 0
  186.0761 39.0 1
  186.09627 36.0 1
  187.10197 20.0 0
  188.06169 55.0 1
  188.07327 31.0 0
  188.08511 32.0 0
  188.09494 65.0 1
  188.10783 26.0 0
  189.05481 19.0 0
  189.07591 92.0 1
  189.08867 89.0 1
  189.09727 61.0 1
  189.90007 20.0 0
  190.03809 30.0 0
  190.05501 24.0 0
  190.08215 761.0 11
  190.0932 363.0 5
  191.08458 144.0 2
  191.09225 174.0 2
  191.10098 131.0 2
  191.51921 17.0 0
  191.87027 17.0 0
  192.07028 93.0 1
  192.07841 67.0 1
  192.10287 14758.0 210
  192.13429 17.0 0
  192.15094 17.0 0
  193.04053 28.0 0
  193.08488 64.0 1
  193.10562 2332.0 33
  193.3093 18.0 0
  193.41809 20.0 0
  193.58411 18.0 0
  194.10194 90.0 1
  194.11302 143.0 2
  194.40723 20.0 0
  194.56395 17.0 0
  196.18282 22.0 0
  196.22884 17.0 0
  197.06248 54.0 1
  200.13477 19.0 0
  202.08505 60.0 1
  203.07526 24.0 0
  203.09741 159.0 2
  203.10909 123.0 2
  204.09595 358.0 5
  204.10593 480.0 7
  204.11574 141.0 2
  204.25783 36.0 1
  204.90604 20.0 0
  205.11003 1820.0 26
  205.17918 18.0 0
  205.60794 21.0 0
  206.11427 530.0 8
  206.12273 333.0 5
  206.24818 17.0 0
  207.11743 144.0 2
  209.09827 20.0 0
  209.40965 18.0 0
  216.97517 17.0 0
  217.11125 79.0 1
  217.40343 17.0 0
  218.07968 19.0 0
  218.09212 20.0 0
  218.10405 96.0 1
  218.11676 569.0 8
  218.14001 20.0 0
  218.19373 18.0 0
  219.07787 20.0 0
  219.11702 76.0 1
  219.13054 152.0 2
  219.14465 41.0 1
  219.93927 22.0 0
  219.95755 34.0 0
  220.92647 23.0 0
  221.77283 17.0 0
  222.97206 24.0 0
  223.07594 19.0 0
  225.9202 18.0 0
  229.45248 18.0 0
  230.26765 20.0 0
  231.7972 18.0 0
  232.90982 19.0 0
  233.08871 18.0 0
  233.10663 23.0 0
  233.22141 21.0 0
  234.11284 18.0 0
  234.46503 26.0 0
  236.17928 18.0 0
  237.08641 20.0 0
  238.05914 26.0 0
  238.09027 35.0 0
  238.13441 21.0 0
  238.72696 18.0 0
  239.21953 22.0 0
  240.16048 23.0 0
  240.77933 21.0 0
  245.09436 32.0 0
  246.10109 17.0 0
  247.63501 17.0 0
  248.07297 17.0 0
  249.09198 46.0 1
  249.12163 17.0 0
  250.09425 61.0 1
  251.08757 28.0 0
  251.13766 24.0 0
  252.48241 20.0 0
  252.60562 21.0 0
  252.74124 18.0 0
  252.80728 19.0 0
  253.11401 18.0 0
  253.12608 17.0 0
  254.1039 21.0 0
  255.13225 22.0 0
  255.84151 23.0 0
  256.1105 21.0 0
  257.12985 30.0 0
  258.52942 17.0 0
  260.0759 18.0 0
  261.08578 17.0 0
  262.22113 24.0 0
  263.11081 53.0 1
  264.1059 121.0 2
  265.09756 33.0 0
  265.11526 20.0 0
  265.14264 18.0 0
  266.04239 20.0 0
  266.12213 23.0 0
  266.13242 44.0 1
  266.1658 17.0 0
  267.13879 21.0 0
  271.74377 21.0 0
  272.48889 28.0 0
  273.53683 36.0 1
  276.12506 49.0 1
  276.74072 30.0 0
  277.03967 18.0 0
  277.06091 17.0 0
  277.07434 20.0 0
  277.11337 20.0 0
  277.1257 43.0 1
  278.08218 43.0 1
  278.09677 46.0 1
  278.11877 18.0 0
  278.13745 18.0 0
  279.0878 17.0 0
  279.1011 59.0 1
  279.11368 81.0 1
  279.13141 56.0 1
  279.14471 43.0 1
  279.15729 27.0 0
  279.43665 28.0 0
  279.64297 18.0 0
  279.90405 24.0 0
  280.05252 19.0 0
  280.09711 20.0 0
  280.1189 40.0 1
  280.12762 19.0 0
  281.07675 23.0 0
  282.09415 50.0 1
  282.12585 18.0 0
  282.14551 22.0 0
  283.25998 17.0 0
  288.10873 32.0 0
  289.09668 20.0 0
  289.13107 19.0 0
  290.12082 42.0 1
  290.14084 22.0 0
  290.14954 44.0 1
  291.10464 21.0 0
  292.09662 52.0 1
  292.11209 51.0 1
  292.12421 62.0 1
  293.07541 42.0 1
  293.09894 35.0 0
  293.12021 52.0 1
  293.12878 17.0 0
  294.11145 53.0 1
  294.12296 62.0 1
  294.1351 19.0 0
  294.1561 17.0 0
  294.89883 24.0 0
  295.12152 44.0 1
  295.1456 27.0 0
  295.40967 23.0 0
  295.51257 17.0 0
  295.64868 21.0 0
  296.09323 20.0 0
  296.11703 64.0 1
  296.13144 57.0 1
  296.14758 24.0 0
  296.15723 30.0 0
  296.16522 20.0 0
  297.11282 94.0 1
  298.10867 20.0 0
  298.13132 26.0 0
  298.14563 17.0 0
  298.51599 18.0 0
  298.66898 17.0 0
  299.14291 31.0 0
  299.46875 17.0 0
  304.03009 18.0 0
  305.11322 56.0 1
  306.10556 19.0 0
  306.11636 20.0 0
  306.13248 74.0 1
  306.15906 20.0 0
  307.10992 71.0 1
  307.12292 81.0 1
  307.14038 85.0 1
  307.17282 23.0 0
  308.09177 26.0 0
  308.12189 155.0 2
  308.13791 172.0 2
  309.11139 22.0 0
  309.12296 18.0 0
  309.14157 72.0 1
  309.16318 20.0 0
  310.08505 36.0 1
  310.10803 45.0 1
  310.13495 93.0 1
  310.15179 20.0 0
  310.17374 58.0 1
  311.10995 23.0 0
  311.12521 61.0 1
  311.14893 17.0 0
  312.12668 59.0 1
  312.14774 96.0 1
  312.16553 31.0 0
  313.16083 43.0 1
  314.14398 23.0 0
  314.15573 23.0 0
  315.65436 27.0 0
  320.14099 34.0 0
  321.13516 40.0 1
  321.15421 19.0 0
  322.14252 509.0 7
  322.16003 187.0 3
  322.20468 18.0 0
  323.11069 89.0 1
  323.13116 274.0 4
  323.15237 269.0 4
  323.16431 85.0 1
  323.18271 25.0 0
  324.11093 60.0 1
  324.1387 119.0 2
  324.16 157.0 2
  324.92566 40.0 1
  325.12894 96.0 1
  325.14493 23.0 0
  325.15973 30.0 0
  325.17279 24.0 0
  326.11954 25.0 0
  326.13641 99.0 1
  326.16513 243.0 3
  326.18591 196.0 3
  326.21213 21.0 0
  327.12949 21.0 0
  327.16644 19.0 0
  327.96274 17.0 0
  328.10623 18.0 0
  330.24557 24.0 0
  330.26773 17.0 0
  332.43555 22.0 0
  334.04578 30.0 0
  334.35983 25.0 0
  334.90802 34.0 0
  336.13647 40.0 1
  336.15244 91.0 1
  337.16092 25.0 0
  337.17233 24.0 0
  338.1261 36.0 1
  338.1449 55.0 1
  338.16025 54.0 1
  338.17715 180.0 3
  339.16077 34.0 0
  339.1713 47.0 1
  339.18097 25.0 0
  339.70532 21.0 0
  339.87537 20.0 0
  340.14105 216.0 3
  340.15326 179.0 3
  340.17331 97.0 1
  340.72733 21.0 0
  341.02567 18.0 0
  341.13678 24.0 0
  341.17029 119.0 2
  342.14618 22.0 0
  344.603 21.0 0
  346.2688 19.0 0
  347.44186 18.0 0
  351.13574 18.0 0
  352.1579 20.0 0
  352.17545 33.0 0
  353.14841 73.0 1
  353.16418 17.0 0
  353.17978 17.0 0
  353.19452 71.0 1
  353.52466 25.0 0
  353.78006 20.0 0
  354.10425 18.0 0
  354.13431 41.0 1
  354.1705 1172.0 17
  354.19769 88.0 1
  354.828 20.0 0
  355.14105 21.0 0
  355.17303 800.0 11
  355.18634 509.0 7
  355.92404 18.0 0
  356.17645 142.0 2
  356.19333 65.0 1
  357.01663 20.0 0
  357.16971 56.0 1
  357.18256 59.0 1
  357.19843 20.0 0
  358.2236 20.0 0
  363.12314 18.0 0
  364.58493 18.0 0
  366.15231 28.0 0
  366.16394 18.0 0
  367.76724 18.0 0
  368.17056 79.0 1
  368.18466 113.0 2
  368.1976 44.0 1
  369.04718 39.0 1
  369.16528 17.0 0
  369.18472 61.0 1
  369.20297 85.0 1
  369.57849 17.0 0
  369.69247 17.0 0
  369.80649 21.0 0
  369.9761 17.0 0
  370.08987 44.0 1
  370.10303 48.0 1
  370.12836 160.0 2
  370.15375 117.0 2
  370.20169 70224.0 999
  370.25708 2151.0 31
  370.30835 112.0 2
//
