ACCESSION: MSBNK-RIKEN-PR301663
RECORD_TITLE: 4-Aminoantipyrin; LC-ESI-QTOF; MS2
DATE: 2019.03.28
AUTHORS: Tetsuya Mori, Center for Sustainable Resource Science, RIKEN
LICENSE: CC BY-NC-SA
PUBLICATION: Tsugawa H., Nakabayashi R., Mori T., Yamada Y., Takahashi M., Rai A., Sugiyama R., Yamamoto H., Nakaya T., Yamazaki M., Kooke R., Bac-Molenaar JA., Oztolan-Erol N., Keurentjes JJB., Arita M., Saito K. (2019) "A cheminformatics approach to characterize metabolomes in stable-isotope-labeled organisms" Nature Methods 16(4):295-298. [doi:10.1038/s41592-019-0358-2]
COMMENT: registered in RIKEN PlaSMA
CH$NAME: 4-Aminoantipyrin
CH$COMPOUND_CLASS: Phenylpyrazoles
CH$FORMULA: C11H13N3O
CH$EXACT_MASS: 203.245
CH$SMILES: CN1N(C(=O)C(N)=C1C)C1=CC=CC=C1
CH$IUPAC: InChI=1S/C11H13N3O/c1-8-10(12)11(15)14(13(8)2)9-6-4-3-5-7-9/h3-7H,12H2,1-2H3
CH$LINK: INCHIKEY RLFWWDJHLFCNIJ-UHFFFAOYSA-N
AC$INSTRUMENT: LC, Waters Acquity UPLC System; MS, Waters Xevo G2 Q-Tof
AC$INSTRUMENT_TYPE: LC-ESI-QTOF
AC$MASS_SPECTROMETRY: MS_TYPE MS2
AC$MASS_SPECTROMETRY: ION_MODE POSITIVE
AC$MASS_SPECTROMETRY: COLLISION_ENERGY 6V
AC$MASS_SPECTROMETRY: DESOLVATION_GAS_FLOW 800/h
AC$MASS_SPECTROMETRY: DESOLVATION_TEMPERATURE 450 C
AC$MASS_SPECTROMETRY: IONIZATION ESI
AC$CHROMATOGRAPHY: CAPILLARY_VOLTAGE +3.00 kV
AC$CHROMATOGRAPHY: COLUMN_NAME Acquity bridged ethyl hybrid C18 (1.7 um, 2.1 mm * 100 mm, Waters)
AC$CHROMATOGRAPHY: COLUMN_TEMPERATURE 40 C
AC$CHROMATOGRAPHY: FLOW_GRADIENT A/B = (99.5%/0.5% at 0 min, 99.5%/0.5% at 0.1 min, 20%/80% at 10 min, 0.5%/99.5% at 10.1 min, 0.5%/99.5% at 12.0 min, 99.5%/0.5% at 12.1 min, 99.5%/0.5% at 15.0 min)
AC$CHROMATOGRAPHY: FLOW_RATE 0.3 ml/min at 0 min, 0.3 ml/min at 10 min, 0.4 ml/min at 10.1 min, 0.4 ml/min at 14.4 min, 0.3 ml/min at 14.5 min
AC$CHROMATOGRAPHY: RETENTION_TIME 2.763233
AC$CHROMATOGRAPHY: SOLVENT A water including 0.1% formic acid
AC$CHROMATOGRAPHY: SOLVENT B acetonitrile including 0.1% formic acid
MS$FOCUSED_ION: PRECURSOR_TYPE [M+H]+
MS$FOCUSED_ION: PRECURSOR_M/Z 204.1131385
PK$SPLASH: splash10-005c-4900000000-7a9d020e14c6448e0411
PK$NUM_PEAK: 37
PK$PEAK: m/z int. rel.int.
  56.04134 118.0 118
  56.04741 135.0 135
  58.0619 118.0 118
  77.04055 576.0 575
  83.06114 629.0 628
  84.06747 247.0 247
  91.05256 141.0 141
  92.04903 129.0 129
  94.06826 835.0 834
  95.07021 118.0 118
  101.04276 124.0 124
  104.04934 235.0 235
  104.05556 276.0 276
  105.05569 129.0 129
  115.05589 106.0 106
  118.06364 271.0 271
  118.06967 147.0 147
  128.05013 1000.0 999
  129.05128 241.0 241
  132.04071 135.0 135
  132.04575 100.0 100
  132.06902 306.0 306
  132.08168 341.0 341
  132.08952 241.0 241
  133.08484 141.0 141
  134.09183 229.0 229
  145.07297 100.0 100
  146.06288 176.0 176
  159.07518 129.0 129
  160.07195 235.0 235
  160.08804 294.0 294
  160.09842 106.0 106
  161.09637 271.0 271
  185.07144 106.0 106
  188.08385 100.0 100
  202.09825 124.0 124
  204.11124 271.0 271
//
