ACCESSION: MSBNK-RIKEN-PR309304
RECORD_TITLE: Luteolin 6-C-glucoside 8-C-arabinoside; LC-ESI-QTOF; MS2
DATE: 2019.03.28
AUTHORS: Tetsuya Mori, Center for Sustainable Resource Science, RIKEN
LICENSE: CC BY-NC-SA
PUBLICATION: Tsugawa H., Nakabayashi R., Mori T., Yamada Y., Takahashi M., Rai A., Sugiyama R., Yamamoto H., Nakaya T., Yamazaki M., Kooke R., Bac-Molenaar JA., Oztolan-Erol N., Keurentjes JJB., Arita M., Saito K. (2019) "A cheminformatics approach to characterize metabolomes in stable-isotope-labeled organisms" Nature Methods 16(4):295-298. [doi:10.1038/s41592-019-0358-2]
COMMENT: Annotation level-1
CH$NAME: Luteolin 6-C-glucoside 8-C-arabinoside
CH$COMPOUND_CLASS: Flavone C,C-glycosides
CH$FORMULA: C27H30O16
CH$EXACT_MASS: 610.521
CH$SMILES: O=C1C=C(OC2=C1C(O)=C(C(O)=C2C3OC(CO)C(O)C(O)C3(O))C4OC(CO)C(O)C(O)C4(O))C5=CC=C(O)C(O)=C5
CH$IUPAC: InChI=1S/C27H30O16/c28-5-12-17(33)21(37)23(39)26(42-12)15-19(35)14-10(32)4-11(7-1-2-8(30)9(31)3-7)41-25(14)16(20(15)36)27-24(40)22(38)18(34)13(6-29)43-27/h1-4,12-13,17-18,21-24,26-31,33-40H,5-6H2
CH$LINK: INCHIKEY ZLPSOQFIIQIIAX-UHFFFAOYSA-N
AC$INSTRUMENT: LC, Waters Acquity UPLC System; MS, Waters Xevo G2 Q-Tof
AC$INSTRUMENT_TYPE: LC-ESI-QTOF
AC$MASS_SPECTROMETRY: MS_TYPE MS2
AC$MASS_SPECTROMETRY: ION_MODE NEGATIVE
AC$MASS_SPECTROMETRY: COLLISION_ENERGY 6V
AC$MASS_SPECTROMETRY: DESOLVATION_GAS_FLOW 800/h
AC$MASS_SPECTROMETRY: DESOLVATION_TEMPERATURE 450 C
AC$MASS_SPECTROMETRY: IONIZATION ESI
AC$CHROMATOGRAPHY: CAPILLARY_VOLTAGE +3.00 kV
AC$CHROMATOGRAPHY: COLUMN_NAME Acquity bridged ethyl hybrid C18 (1.7 um, 2.1 mm * 100 mm, Waters)
AC$CHROMATOGRAPHY: COLUMN_TEMPERATURE 40 C
AC$CHROMATOGRAPHY: FLOW_GRADIENT A/B = (99.5%/0.5% at 0 min, 99.5%/0.5% at 0.1 min, 20%/80% at 10 min, 0.5%/99.5% at 10.1 min, 0.5%/99.5% at 12.0 min, 99.5%/0.5% at 12.1 min, 99.5%/0.5% at 15.0 min)
AC$CHROMATOGRAPHY: FLOW_RATE 0.3 ml/min at 0 min, 0.3 ml/min at 10 min, 0.4 ml/min at 10.1 min, 0.4 ml/min at 14.4 min, 0.3 ml/min at 14.5 min
AC$CHROMATOGRAPHY: RETENTION_TIME 3.08
AC$CHROMATOGRAPHY: SOLVENT A water including 0.1% formic acid
AC$CHROMATOGRAPHY: SOLVENT B acetonitrile including 0.1% formic acid
MS$FOCUSED_ION: PRECURSOR_TYPE [M-H]-
MS$FOCUSED_ION: PRECURSOR_M/Z 609.14611
PK$SPLASH: splash10-0a4i-0018519000-a97ce87621720ac33860
PK$NUM_PEAK: 165
PK$PEAK: m/z int. rel.int.
  85.06053 20.0 4
  109.02335 20.0 4
  141.1908 19.0 4
  161.05742 20.0 4
  213.05205 20.0 4
  215.02765 21.0 4
  219.02829 20.0 4
  219.59033 20.0 4
  220.07599 21.0 4
  221.05635 26.0 5
  223.06363 23.0 4
  229.00801 20.0 4
  235.06796 18.0 3
  242.58179 24.0 5
  249.05103 23.0 4
  251.03499 24.0 5
  254.04918 20.0 4
  257.03006 31.0 6
  267.03351 20.0 4
  268.06879 23.0 4
  271.06107 23.0 4
  273.07544 31.0 6
  281.63739 46.0 9
  283.04855 24.0 5
  293.03934 25.0 5
  294.04666 20.0 4
  297.03607 27.0 5
  298.04486 137.0 26
  299.05865 81.0 16
  300.06549 30.0 6
  306.06506 20.0 4
  309.06665 47.0 9
  310.05386 27.0 5
  311.0444 53.0 10
  311.06036 55.0 11
  311.09167 20.0 4
  312.05475 58.0 11
  312.06787 179.0 34
  313.03238 25.0 5
  313.06958 167.0 32
  314.83228 23.0 4
  314.94913 30.0 6
  319.04929 21.0 4
  321.03717 39.0 7
  323.05106 67.0 13
  327.03302 22.0 4
  327.04605 29.0 6
  327.06302 46.0 9
  327.77094 18.0 3
  328.07324 44.0 8
  332.74231 29.0 6
  338.99802 18.0 3
  339.05286 368.0 70
  339.26178 19.0 4
  340.05338 178.0 34
  341.05182 41.0 8
  341.06754 94.0 18
  343.05679 21.0 4
  351.04501 32.0 6
  351.07007 20.0 4
  352.05362 31.0 6
  353.05042 27.0 5
  353.07599 52.0 10
  355.06491 19.0 4
  357.05435 89.0 17
  364.0759 19.0 4
  367.0383 46.0 9
  367.04837 31.0 6
  367.06778 21.0 4
  369.06183 1668.0 320
  370.05557 338.0 65
  370.80554 19.0 4
  371.06433 197.0 38
  371.07877 73.0 14
  372.06613 45.0 9
  378.92346 24.0 5
  381.05984 183.0 35
  382.05219 39.0 7
  383.06094 20.0 4
  385.05298 20.0 4
  386.06592 22.0 4
  389.06616 19.0 4
  393.03934 25.0 5
  393.07629 24.0 5
  397.04562 21.0 4
  399.07236 979.0 188
  399.10538 32.0 6
  400.07117 128.0 25
  400.08957 40.0 8
  401.07004 48.0 9
  401.08603 33.0 6
  405.16721 24.0 5
  406.07739 29.0 6
  408.72437 18.0 3
  411.06918 171.0 33
  413.09366 22.0 4
  423.0809 41.0 8
  424.10138 41.0 8
  425.0748 31.0 6
  429.05127 27.0 5
  429.08151 258.0 49
  430.08377 22.0 4
  430.10394 65.0 12
  435.06482 21.0 4
  436.10367 18.0 3
  441.07001 19.0 4
  441.08435 20.0 4
  442.09161 45.0 9
  446.66373 18.0 3
  453.07184 22.0 4
  453.08804 27.0 5
  459.09378 201.0 39
  459.11404 24.0 5
  460.09543 22.0 4
  460.11069 24.0 5
  471.09732 191.0 37
  475.0668 18.0 3
  475.09091 68.0 13
  475.67319 25.0 5
  482.67526 29.0 6
  487.07883 34.0 7
  487.09219 29.0 6
  488.08267 19.0 4
  489.02484 20.0 4
  489.10046 1570.0 301
  489.15341 32.0 6
  489.20111 23.0 4
  489.38916 32.0 6
  490.09628 310.0 59
  490.11542 200.0 38
  491.08765 20.0 4
  491.10666 21.0 4
  499.09534 23.0 4
  501.09943 139.0 27
  502.08942 21.0 4
  502.11465 23.0 4
  507.08093 27.0 5
  509.60919 18.0 3
  517.10571 20.0 4
  519.11145 309.0 59
  520.09607 22.0 4
  520.11481 68.0 13
  520.13281 62.0 12
  521.11359 18.0 3
  522.73907 25.0 5
  531.10645 23.0 4
  532.09851 24.0 5
  543.0769 20.0 4
  544.11731 18.0 3
  544.24475 20.0 4
  549.13306 18.0 3
  561.14069 23.0 4
  562.13629 26.0 5
  573.11694 24.0 5
  573.13153 26.0 5
  579.11041 20.0 4
  580.11945 21.0 4
  580.13849 47.0 9
  589.12354 21.0 4
  591.12836 18.0 3
  600.39575 29.0 6
  607.11188 88.0 17
  607.13269 379.0 73
  608.13147 745.0 143
  609.14563 5215.0 999
//
