ACCESSION: MSBNK-RIKEN-PR300393
RECORD_TITLE: Lycoctonine; LC-ESI-QTOF; MS2
DATE: 2019.03.28
AUTHORS: Tetsuya Mori, Center for Sustainable Resource Science, RIKEN
LICENSE: CC BY-NC-SA
PUBLICATION: Tsugawa H., Nakabayashi R., Mori T., Yamada Y., Takahashi M., Rai A., Sugiyama R., Yamamoto H., Nakaya T., Yamazaki M., Kooke R., Bac-Molenaar JA., Oztolan-Erol N., Keurentjes JJB., Arita M., Saito K. (2019) "A cheminformatics approach to characterize metabolomes in stable-isotope-labeled organisms" Nature Methods 16(4):295-298. [doi:10.1038/s41592-019-0358-2]
COMMENT: registered in RIKEN PlaSMA
CH$NAME: Lycoctonine
CH$COMPOUND_CLASS: Aconitane-type diterpenoid alkaloids
CH$FORMULA: C25H41NO7
CH$EXACT_MASS: 467.603
CH$SMILES: CCN1C[C@]2(CO)CC[C@H](OC)[C@@]34[C@@H]5C[C@H]6[C@H](OC)[C@@H]5[C@](O)(C[C@@H]6OC)[C@@](O)([C@@H](OC)[C@H]23)C14
CH$IUPAC: InChI=1S/C25H41NO7/c1-6-26-11-22(12-27)8-7-16(31-3)24-14-9-13-15(30-2)10-23(28,17(14)18(13)32-4)25(29,21(24)26)20(33-5)19(22)24/h13-21,27-29H,6-12H2,1-5H3/t13-,14-,15+,16+,17-,18+,19-,20+,21?,22+,23-,24+,25-/m1/s1
CH$LINK: INCHIKEY YOTUXHIWBVZAJQ-YAEAOFIFSA-N
AC$INSTRUMENT: LC, Waters Acquity UPLC System; MS, Waters Xevo G2 Q-Tof
AC$INSTRUMENT_TYPE: LC-ESI-QTOF
AC$MASS_SPECTROMETRY: MS_TYPE MS2
AC$MASS_SPECTROMETRY: ION_MODE POSITIVE
AC$MASS_SPECTROMETRY: COLLISION_ENERGY 6V
AC$MASS_SPECTROMETRY: DESOLVATION_GAS_FLOW 800/h
AC$MASS_SPECTROMETRY: DESOLVATION_TEMPERATURE 450 C
AC$MASS_SPECTROMETRY: IONIZATION ESI
AC$CHROMATOGRAPHY: CAPILLARY_VOLTAGE +3.00 kV
AC$CHROMATOGRAPHY: COLUMN_NAME Acquity bridged ethyl hybrid C18 (1.7 um, 2.1 mm * 100 mm, Waters)
AC$CHROMATOGRAPHY: COLUMN_TEMPERATURE 40 C
AC$CHROMATOGRAPHY: FLOW_GRADIENT A/B = (99.5%/0.5% at 0 min, 99.5%/0.5% at 0.1 min, 20%/80% at 10 min, 0.5%/99.5% at 10.1 min, 0.5%/99.5% at 12.0 min, 99.5%/0.5% at 12.1 min, 99.5%/0.5% at 15.0 min)
AC$CHROMATOGRAPHY: FLOW_RATE 0.3 ml/min at 0 min, 0.3 ml/min at 10 min, 0.4 ml/min at 10.1 min, 0.4 ml/min at 14.4 min, 0.3 ml/min at 14.5 min
AC$CHROMATOGRAPHY: RETENTION_TIME 3.674817
AC$CHROMATOGRAPHY: SOLVENT A water including 0.1% formic acid
AC$CHROMATOGRAPHY: SOLVENT B acetonitrile including 0.1% formic acid
MS$FOCUSED_ION: PRECURSOR_TYPE [M+H]+
MS$FOCUSED_ION: PRECURSOR_M/Z 468.2955791
PK$SPLASH: splash10-014i-0001900000-386a1567e61c84d2d205
PK$NUM_PEAK: 35
PK$PEAK: m/z int. rel.int.
  108.08096 8.0 8
  122.09713 5.0 5
  126.09097 47.0 47
  140.10802 21.0 21
  324.19888 6.0 6
  326.2124 8.0 8
  342.20435 8.0 8
  344.21921 19.0 19
  354.20862 24.0 24
  358.23602 32.0 32
  359.24551 6.0 6
  372.21484 49.0 49
  373.20126 6.0 6
  373.22192 14.0 14
  374.22809 18.0 18
  376.24753 12.0 12
  386.21118 8.0 8
  386.23035 23.0 23
  386.24512 9.0 9
  387.22617 7.0 7
  390.25995 21.0 21
  390.27374 12.0 12
  404.24243 105.0 105
  405.24365 26.0 26
  406.25061 6.0 6
  418.24371 6.0 6
  418.25931 19.0 19
  419.26471 7.0 7
  436.26892 111.0 111
  437.26862 25.0 25
  437.29123 7.0 7
  450.28458 8.0 8
  468.23157 11.0 11
  468.29449 1000.0 999
  468.3533 18.0 18
//
