ACCESSION: MSBNK-RIKEN-PR301119
RECORD_TITLE: (+)-Corydaline; LC-ESI-QTOF; MS2
DATE: 2019.03.28
AUTHORS: Tetsuya Mori, Center for Sustainable Resource Science, RIKEN
LICENSE: CC BY-NC-SA
PUBLICATION: Tsugawa H., Nakabayashi R., Mori T., Yamada Y., Takahashi M., Rai A., Sugiyama R., Yamamoto H., Nakaya T., Yamazaki M., Kooke R., Bac-Molenaar JA., Oztolan-Erol N., Keurentjes JJB., Arita M., Saito K. (2019) "A cheminformatics approach to characterize metabolomes in stable-isotope-labeled organisms" Nature Methods 16(4):295-298. [doi:10.1038/s41592-019-0358-2]
COMMENT: registered in RIKEN PlaSMA
CH$NAME: (+)-Corydaline
CH$COMPOUND_CLASS: Protoberberine alkaloids and derivatives
CH$FORMULA: C22H27NO4
CH$EXACT_MASS: 369.461
CH$SMILES: COC1=C(OC)C=C2[C@H]3[C@@H](C)C4=C(CN3CCC2=C1)C(OC)=C(OC)C=C4
CH$IUPAC: InChI=1S/C22H27NO4/c1-13-15-6-7-18(24-2)22(27-5)17(15)12-23-9-8-14-10-19(25-3)20(26-4)11-16(14)21(13)23/h6-7,10-11,13,21H,8-9,12H2,1-5H3/t13-,21+/m0/s1
CH$LINK: INCHIKEY VRSRXLJTYQVOHC-YEJXKQKISA-N
AC$INSTRUMENT: LC, Waters Acquity UPLC System; MS, Waters Xevo G2 Q-Tof
AC$INSTRUMENT_TYPE: LC-ESI-QTOF
AC$MASS_SPECTROMETRY: MS_TYPE MS2
AC$MASS_SPECTROMETRY: ION_MODE POSITIVE
AC$MASS_SPECTROMETRY: COLLISION_ENERGY 6V
AC$MASS_SPECTROMETRY: DESOLVATION_GAS_FLOW 800/h
AC$MASS_SPECTROMETRY: DESOLVATION_TEMPERATURE 450 C
AC$MASS_SPECTROMETRY: IONIZATION ESI
AC$CHROMATOGRAPHY: CAPILLARY_VOLTAGE +3.00 kV
AC$CHROMATOGRAPHY: COLUMN_NAME Acquity bridged ethyl hybrid C18 (1.7 um, 2.1 mm * 100 mm, Waters)
AC$CHROMATOGRAPHY: COLUMN_TEMPERATURE 40 C
AC$CHROMATOGRAPHY: FLOW_GRADIENT A/B = (99.5%/0.5% at 0 min, 99.5%/0.5% at 0.1 min, 20%/80% at 10 min, 0.5%/99.5% at 10.1 min, 0.5%/99.5% at 12.0 min, 99.5%/0.5% at 12.1 min, 99.5%/0.5% at 15.0 min)
AC$CHROMATOGRAPHY: FLOW_RATE 0.3 ml/min at 0 min, 0.3 ml/min at 10 min, 0.4 ml/min at 10.1 min, 0.4 ml/min at 14.4 min, 0.3 ml/min at 14.5 min
AC$CHROMATOGRAPHY: RETENTION_TIME 4.8644
AC$CHROMATOGRAPHY: SOLVENT A water including 0.1% formic acid
AC$CHROMATOGRAPHY: SOLVENT B acetonitrile including 0.1% formic acid
MS$FOCUSED_ION: PRECURSOR_TYPE [M+H]+
MS$FOCUSED_ION: PRECURSOR_M/Z 370.2012848
PK$SPLASH: splash10-004l-0910000000-1f2e8ac1b55b9ebafcd4
PK$NUM_PEAK: 283
PK$PEAK: m/z int. rel.int.
  77.03927 13.0 13
  78.04385 5.0 5
  78.04913 8.0 8
  79.05367 50.0 50
  79.05906 13.0 13
  80.05963 5.0 5
  91.0501 37.0 37
  91.05711 45.0 45
  92.05743 11.0 11
  92.06352 14.0 14
  93.07252 18.0 18
  94.04106 5.0 5
  94.07423 5.0 5
  103.05077 23.0 23
  103.05699 60.0 60
  104.05068 8.0 8
  104.0606 22.0 22
  104.06842 6.0 6
  105.07056 125.0 125
  107.03989 10.0 10
  107.04733 45.0 45
  107.05212 38.0 38
  108.04195 6.0 6
  108.05492 25.0 25
  109.06306 7.0 7
  115.05129 11.0 11
  115.05738 26.0 26
  116.05782 8.0 8
  117.06757 34.0 34
  117.07573 5.0 5
  118.04077 20.0 20
  118.04556 7.0 7
  118.06642 22.0 22
  119.04901 32.0 32
  119.07548 6.0 6
  119.0844 10.0 10
  120.05723 41.0 41
  120.0836 6.0 6
  121.06427 129.0 129
  122.06993 33.0 33
  123.04236 5.0 5
  124.04962 12.0 12
  128.05995 15.0 15
  129.07002 5.0 5
  130.06216 35.0 35
  131.03856 7.0 7
  131.04434 17.0 17
  131.05751 28.0 28
  131.07257 367.0 367
  132.0517 13.0 13
  132.06297 17.0 17
  132.07872 52.0 52
  133.04803 10.0 10
  133.06433 102.0 102
  133.0755 17.0 17
  134.05202 8.0 8
  134.07069 96.0 96
  135.04399 149.0 149
  135.08 51.0 51
  136.04823 89.0 89
  136.05685 33.0 33
  137.05724 10.0 10
  138.05777 6.0 6
  138.06728 8.0 8
  140.06349 5.0 5
  143.04637 7.0 7
  143.07878 5.0 5
  144.08473 6.0 6
  145.0555 15.0 15
  145.06842 19.0 19
  145.08968 9.0 9
  146.06181 53.0 53
  146.07564 8.0 8
  147.04314 8.0 8
  147.05498 6.0 6
  147.06888 102.0 102
  148.03867 8.0 8
  148.05013 14.0 14
  148.05809 22.0 22
  148.07578 481.0 481
  149.05997 56.0 56
  149.07558 20.0 20
  149.08247 37.0 37
  150.0677 281.0 281
  151.05774 6.0 6
  151.07289 127.0 127
  152.08168 10.0 10
  157.06232 11.0 11
  158.05902 6.0 6
  158.07155 6.0 6
  158.0972 8.0 8
  159.04169 13.0 13
  159.0687 137.0 137
  159.08337 8.0 8
  160.04475 7.0 7
  160.0742 90.0 90
  160.09998 6.0 6
  161.05811 8.0 8
  161.06534 15.0 15
  161.07991 54.0 54
  161.08966 9.0 9
  162.05434 23.0 23
  162.07109 10.0 10
  162.08812 32.0 32
  162.09618 15.0 15
  163.07466 15.0 15
  163.08449 9.0 9
  164.07716 20.0 20
  164.08853 28.0 28
  164.10735 7.0 7
  165.09215 188.0 188
  166.00459 6.0 6
  166.08954 8.0 8
  166.09647 14.0 14
  168.07947 5.0 5
  171.06126 6.0 6
  171.07198 7.0 7
  171.08276 7.0 7
  172.08273 6.0 6
  173.05991 9.0 9
  173.08142 9.0 9
  174.05748 71.0 71
  174.07291 8.0 8
  174.08887 24.0 24
  174.09781 13.0 13
  175.05173 13.0 13
  175.06294 26.0 26
  175.07899 22.0 22
  175.83467 5.0 5
  176.07059 1000.0 999
  177.07724 487.0 487
  177.09502 24.0 24
  178.06825 13.0 13
  178.08458 63.0 63
  179.08023 6.0 6
  179.09331 5.0 5
  183.09375 6.0 6
  186.09058 5.0 5
  187.10005 6.0 6
  188.07269 24.0 24
  188.08606 9.0 9
  188.1067 5.0 5
  189.07898 29.0 29
  190.07344 18.0 18
  190.08669 186.0 186
  190.09558 54.0 54
  191.08966 52.0 52
  191.1022 6.0 6
  192.07791 6.0 6
  192.10226 821.0 820
  193.07916 5.0 5
  193.08676 11.0 11
  193.103 72.0 72
  193.12135 7.0 7
  194.07661 9.0 9
  194.10728 20.0 20
  202.08267 35.0 35
  202.09605 7.0 7
  203.08722 15.0 15
  204.09875 55.0 55
  205.11105 19.0 19
  206.11316 8.0 8
  208.08479 9.0 9
  209.09633 6.0 6
  215.08897 13.0 13
  216.08667 6.0 6
  216.10071 9.0 9
  220.07138 8.0 8
  220.09401 9.0 9
  221.09497 22.0 22
  222.0975 13.0 13
  222.11888 5.0 5
  231.06929 7.0 7
  231.0854 15.0 15
  233.08392 7.0 7
  233.09445 15.0 15
  233.11177 6.0 6
  233.34894 6.0 6
  234.10635 12.0 12
  235.07568 9.0 9
  235.10002 9.0 9
  237.08578 11.0 11
  237.11751 10.0 10
  238.08601 9.0 9
  239.09018 6.0 6
  239.10205 6.0 6
  240.09801 5.0 5
  245.08505 8.0 8
  247.11009 10.0 10
  248.08223 7.0 7
  248.1162 19.0 19
  249.07614 11.0 11
  249.10016 5.0 5
  249.11351 8.0 8
  250.08681 25.0 25
  250.106 5.0 5
  251.09566 8.0 8
  252.09102 6.0 6
  252.10339 9.0 9
  253.12283 7.0 7
  261.08347 6.0 6
  261.09195 11.0 11
  261.1102 5.0 5
  262.08521 7.0 7
  262.09891 9.0 9
  263.10413 15.0 15
  263.1153 5.0 5
  263.13403 5.0 5
  264.10739 23.0 23
  264.11905 7.0 7
  265.07452 12.0 12
  265.08936 10.0 10
  265.09796 11.0 11
  265.11707 9.0 9
  266.07587 6.0 6
  267.10745 9.0 9
  268.12982 5.0 5
  275.10815 7.0 7
  276.06339 6.0 6
  276.09964 14.0 14
  276.12875 6.0 6
  277.08105 10.0 10
  277.09198 11.0 11
  277.12967 12.0 12
  278.08472 24.0 24
  278.11353 19.0 19
  278.13687 9.0 9
  278.14468 6.0 6
  278.16953 6.0 6
  279.08429 6.0 6
  279.0936 6.0 6
  279.12225 8.0 8
  280.11102 13.0 13
  280.12769 8.0 8
  281.09644 8.0 8
  281.10718 19.0 19
  281.1442 7.0 7
  282.09241 6.0 6
  282.11072 11.0 11
  288.09396 19.0 19
  288.11276 10.0 10
  289.0925 5.0 5
  289.11041 8.0 8
  290.11795 6.0 6
  291.08008 8.0 8
  292.08661 9.0 9
  292.09805 18.0 18
  292.13089 11.0 11
  293.09198 8.0 8
  294.07501 8.0 8
  294.112 19.0 19
  295.07928 6.0 6
  295.10541 7.0 7
  296.10712 13.0 13
  296.12894 10.0 10
  296.13788 20.0 20
  297.13486 10.0 10
  304.10129 6.0 6
  306.10703 44.0 44
  306.12402 18.0 18
  306.13602 7.0 7
  307.10345 9.0 9
  307.11743 20.0 20
  307.129 10.0 10
  308.11768 16.0 16
  309.11795 11.0 11
  310.13568 6.0 6
  311.15244 6.0 6
  312.15347 5.0 5
  312.16809 7.0 7
  320.1329 7.0 7
  321.13379 5.0 5
  322.15717 19.0 19
  323.14847 7.0 7
  324.12512 23.0 23
  325.10541 8.0 8
  325.12421 11.0 11
  326.17426 6.0 6
  338.13452 7.0 7
  338.14526 7.0 7
  338.15689 6.0 6
  339.13593 7.0 7
  339.15643 5.0 5
//
