ACCESSION: MSBNK-RIKEN-PR300964
RECORD_TITLE: Pseudojervine; LC-ESI-QTOF; MS2
DATE: 2019.03.28
AUTHORS: Tetsuya Mori, Center for Sustainable Resource Science, RIKEN
LICENSE: CC BY-NC-SA
PUBLICATION: Tsugawa H., Nakabayashi R., Mori T., Yamada Y., Takahashi M., Rai A., Sugiyama R., Yamamoto H., Nakaya T., Yamazaki M., Kooke R., Bac-Molenaar JA., Oztolan-Erol N., Keurentjes JJB., Arita M., Saito K. (2019) "A cheminformatics approach to characterize metabolomes in stable-isotope-labeled organisms" Nature Methods 16(4):295-298. [doi:10.1038/s41592-019-0358-2]
COMMENT: registered in RIKEN PlaSMA
CH$NAME: Pseudojervine
CH$COMPOUND_CLASS: Steroidal saponins
CH$FORMULA: C33H49NO8
CH$EXACT_MASS: 587.754
CH$SMILES: CC1[C@@H]2NCC(C)C[C@H]2O[C@]11CCC2C3CC=C4C[C@H](CCC4(C)C3C(=O)C2=C1C)O[C@@H]1OC(CO)[C@@H](O)C(O)C1O
CH$IUPAC: InChI=1S/C33H49NO8/c1-15-11-22-26(34-13-15)17(3)33(42-22)10-8-20-21-6-5-18-12-19(40-31-30(39)29(38)27(36)23(14-35)41-31)7-9-32(18,4)25(21)28(37)24(20)16(33)2/h5,15,17,19-23,25-27,29-31,34-36,38-39H,6-14H2,1-4H3/t15?,17?,19-,20?,21?,22+,23?,25?,26-,27+,29?,30?,31+,32?,33-/m0/s1
CH$LINK: INCHIKEY HYDDDNUKNMMWBD-WJWSUNTISA-N
AC$INSTRUMENT: LC, Waters Acquity UPLC System; MS, Waters Xevo G2 Q-Tof
AC$INSTRUMENT_TYPE: LC-ESI-QTOF
AC$MASS_SPECTROMETRY: MS_TYPE MS2
AC$MASS_SPECTROMETRY: ION_MODE POSITIVE
AC$MASS_SPECTROMETRY: COLLISION_ENERGY 6V
AC$MASS_SPECTROMETRY: DESOLVATION_GAS_FLOW 800/h
AC$MASS_SPECTROMETRY: DESOLVATION_TEMPERATURE 450 C
AC$MASS_SPECTROMETRY: IONIZATION ESI
AC$CHROMATOGRAPHY: CAPILLARY_VOLTAGE +3.00 kV
AC$CHROMATOGRAPHY: COLUMN_NAME Acquity bridged ethyl hybrid C18 (1.7 um, 2.1 mm * 100 mm, Waters)
AC$CHROMATOGRAPHY: COLUMN_TEMPERATURE 40 C
AC$CHROMATOGRAPHY: FLOW_GRADIENT A/B = (99.5%/0.5% at 0 min, 99.5%/0.5% at 0.1 min, 20%/80% at 10 min, 0.5%/99.5% at 10.1 min, 0.5%/99.5% at 12.0 min, 99.5%/0.5% at 12.1 min, 99.5%/0.5% at 15.0 min)
AC$CHROMATOGRAPHY: FLOW_RATE 0.3 ml/min at 0 min, 0.3 ml/min at 10 min, 0.4 ml/min at 10.1 min, 0.4 ml/min at 14.4 min, 0.3 ml/min at 14.5 min
AC$CHROMATOGRAPHY: RETENTION_TIME 4.009517
AC$CHROMATOGRAPHY: SOLVENT A water including 0.1% formic acid
AC$CHROMATOGRAPHY: SOLVENT B acetonitrile including 0.1% formic acid
MS$FOCUSED_ION: PRECURSOR_TYPE [M+H]+
MS$FOCUSED_ION: PRECURSOR_M/Z 588.353094
PK$SPLASH: splash10-000i-0000090000-db4e51d74385cf439c4c
PK$NUM_PEAK: 8
PK$PEAK: m/z int. rel.int.
  109.1022 9.0 9
  114.09105 14.0 14
  126.12862 5.0 5
  149.09399 9.0 9
  295.20511 6.0 6
  588.28662 9.0 9
  588.35333 1000.0 999
  588.4248 20.0 20
//
