ACCESSION: MSBNK-RIKEN-PR303457
RECORD_TITLE: NP-000286(7); LC-ESI-QTOF; MS2
DATE: 2019.03.28
AUTHORS: Tetsuya Mori, Center for Sustainable Resource Science, RIKEN
LICENSE: CC BY-NC-SA
PUBLICATION: Tsugawa H., Nakabayashi R., Mori T., Yamada Y., Takahashi M., Rai A., Sugiyama R., Yamamoto H., Nakaya T., Yamazaki M., Kooke R., Bac-Molenaar JA., Oztolan-Erol N., Keurentjes JJB., Arita M., Saito K. (2019) "A cheminformatics approach to characterize metabolomes in stable-isotope-labeled organisms" Nature Methods 16(4):295-298. [doi:10.1038/s41592-019-0358-2]
COMMENT: registered in RIKEN PlaSMA
CH$NAME: NP-000286(7)
CH$COMPOUND_CLASS: Flavonoid C-glycosides
CH$FORMULA: C21H20O11
CH$EXACT_MASS: 448.38
CH$SMILES: OC[C@H]1O[C@H]([C@H](O)[C@@H](O)[C@@H]1O)C1=C(O)C2=C(OC(=CC2=O)C2=CC(O)=C(O)C=C2)C=C1O
CH$IUPAC: InChI=1S/C21H20O11/c22-6-14-17(27)19(29)20(30)21(32-14)16-11(26)5-13-15(18(16)28)10(25)4-12(31-13)7-1-2-8(23)9(24)3-7/h1-5,14,17,19-24,26-30H,6H2/t14-,17-,19+,20-,21+/m1/s1
CH$LINK: INCHIKEY ODBRNZZJSYPIDI-VJXVFPJBSA-N
AC$INSTRUMENT: LC, Waters Acquity UPLC System; MS, Waters Xevo G2 Q-Tof
AC$INSTRUMENT_TYPE: LC-ESI-QTOF
AC$MASS_SPECTROMETRY: MS_TYPE MS2
AC$MASS_SPECTROMETRY: ION_MODE POSITIVE
AC$MASS_SPECTROMETRY: COLLISION_ENERGY 6V
AC$MASS_SPECTROMETRY: DESOLVATION_GAS_FLOW 800/h
AC$MASS_SPECTROMETRY: DESOLVATION_TEMPERATURE 450 C
AC$MASS_SPECTROMETRY: IONIZATION ESI
AC$CHROMATOGRAPHY: CAPILLARY_VOLTAGE +3.00 kV
AC$CHROMATOGRAPHY: COLUMN_NAME Acquity bridged ethyl hybrid C18 (1.7 um, 2.1 mm * 100 mm, Waters)
AC$CHROMATOGRAPHY: COLUMN_TEMPERATURE 40 C
AC$CHROMATOGRAPHY: FLOW_GRADIENT A/B = (99.5%/0.5% at 0 min, 99.5%/0.5% at 0.1 min, 20%/80% at 10 min, 0.5%/99.5% at 10.1 min, 0.5%/99.5% at 12.0 min, 99.5%/0.5% at 12.1 min, 99.5%/0.5% at 15.0 min)
AC$CHROMATOGRAPHY: FLOW_RATE 0.3 ml/min at 0 min, 0.3 ml/min at 10 min, 0.4 ml/min at 10.1 min, 0.4 ml/min at 14.4 min, 0.3 ml/min at 14.5 min
AC$CHROMATOGRAPHY: RETENTION_TIME 3.589417
AC$CHROMATOGRAPHY: SOLVENT A water including 0.1% formic acid
AC$CHROMATOGRAPHY: SOLVENT B acetonitrile including 0.1% formic acid
MS$FOCUSED_ION: PRECURSOR_TYPE [M+H]+
MS$FOCUSED_ION: PRECURSOR_M/Z 449.1078379
PK$SPLASH: splash10-014j-0963000000-835d111261b08b77662f
PK$NUM_PEAK: 184
PK$PEAK: m/z int. rel.int.
  68.0635 36.0 36
  68.99463 75.0 75
  79.0569 30.0 30
  81.02818 24.0 24
  81.03473 25.0 25
  82.03949 27.0 27
  84.11543 27.0 27
  91.05749 27.0 27
  92.06197 59.0 59
  93.02703 33.0 33
  93.03504 58.0 58
  95.0507 26.0 26
  104.06135 33.0 33
  106.03926 41.0 41
  106.28392 25.0 25
  109.027 72.0 72
  111.04725 60.0 60
  120.286 24.0 24
  121.02967 41.0 41
  121.06123 33.0 33
  123.00582 177.0 177
  123.03738 39.0 39
  124.01552 51.0 51
  128.07106 39.0 39
  134.04001 36.0 36
  135.03438 70.0 70
  135.04883 160.0 160
  137.02519 110.0 110
  138.03088 57.0 57
  147.03615 33.0 33
  148.01538 28.0 28
  148.04961 21.0 21
  148.78552 20.0 20
  148.9962 59.0 59
  149.01347 114.0 114
  149.02391 238.0 238
  150.03093 116.0 116
  153.01724 60.0 60
  153.07253 38.0 38
  154.88449 20.0 20
  154.961 20.0 20
  159.03758 43.0 43
  160.9865 32.0 32
  161.02089 46.0 46
  163.03883 140.0 140
  164.03738 103.0 103
  164.04616 73.0 73
  164.99884 43.0 43
  165.02116 1000.0 999
  165.04865 28.0 28
  166.02385 590.0 589
  166.15994 23.0 23
  167.02628 20.0 20
  168.05382 25.0 25
  169.02872 30.0 30
  169.06328 39.0 39
  171.61874 36.0 36
  174.32849 21.0 21
  176.0137 26.0 26
  177.01973 69.0 69
  177.06248 45.0 45
  178.02513 27.0 27
  179.02602 32.0 32
  179.03946 44.0 44
  180.02539 30.0 30
  185.07228 46.0 46
  186.06673 21.0 21
  187.04036 137.0 137
  188.03964 25.0 25
  188.05022 69.0 69
  188.99992 28.0 28
  189.02167 32.0 32
  189.05896 28.0 28
  190.02228 52.0 52
  190.05913 24.0 24
  190.9926 32.0 32
  191.02066 28.0 28
  191.03404 130.0 130
  191.0432 28.0 28
  192.03178 27.0 27
  194.01337 27.0 27
  195.00749 33.0 33
  197.05811 26.0 26
  203.03937 59.0 59
  205.05067 27.0 27
  210.06847 63.0 63
  213.05188 31.0 31
  216.03922 34.0 34
  218.05417 39.0 39
  224.03799 32.0 32
  229.01735 43.0 43
  229.09314 27.0 27
  230.05838 34.0 34
  243.05061 25.0 25
  243.06311 127.0 127
  244.02431 20.0 20
  244.0629 32.0 32
  245.05037 30.0 30
  245.06166 37.0 37
  252.06647 50.0 50
  253.04982 36.0 36
  253.05984 30.0 30
  254.06296 41.0 41
  255.03435 44.0 44
  255.06905 25.0 25
  256.06729 40.0 40
  257.03571 25.0 25
  258.06168 27.0 27
  259.06226 25.0 25
  263.04422 58.0 58
  266.05038 20.0 20
  268.08951 25.0 25
  269.04773 24.0 24
  270.03329 24.0 24
  270.04962 57.0 57
  270.06082 20.0 20
  271.04349 71.0 71
  271.05304 58.0 58
  271.08047 40.0 40
  271.85867 39.0 39
  272.05176 26.0 26
  272.06345 108.0 108
  272.07205 52.0 52
  273.03625 28.0 28
  273.06049 41.0 41
  273.069 27.0 27
  276.06876 30.0 30
  282.05411 26.0 26
  283.03461 20.0 20
  283.05569 273.0 273
  284.05548 117.0 117
  284.07169 24.0 24
  285.02588 31.0 31
  285.04492 95.0 95
  285.07135 53.0 53
  286.04462 37.0 37
  286.0546 21.0 21
  287.04028 34.0 34
  287.05118 77.0 77
  287.06985 34.0 34
  294.05139 43.0 43
  295.02057 34.0 34
  295.05618 55.0 55
  296.07214 73.0 73
  296.82016 26.0 26
  297.06131 26.0 26
  297.08466 20.0 20
  298.06342 25.0 25
  298.08533 72.0 72
  298.86832 27.0 27
  299.0462 474.0 474
  299.05774 379.0 379
  300.06097 438.0 438
  300.08173 31.0 31
  301.05887 212.0 212
  301.07401 30.0 30
  302.06924 36.0 36
  303.83432 23.0 23
  309.07788 39.0 39
  311.0546 124.0 124
  311.07809 68.0 68
  312.06253 134.0 134
  313.06467 47.0 47
  313.08414 26.0 26
  321.0661 70.0 70
  322.082 39.0 39
  322.86621 20.0 20
  323.05753 58.0 58
  324.0419 24.0 24
  324.05145 56.0 56
  324.06769 30.0 30
  325.05591 30.0 30
  325.07498 190.0 190
  326.04617 63.0 63
  326.08072 50.0 50
  327.09698 24.0 24
  329.07236 20.0 20
  333.59766 24.0 24
  337.04977 25.0 25
  337.06146 39.0 39
  339.06757 41.0 41
  349.05878 41.0 41
  373.10437 27.0 27
  380.44852 21.0 21
//
