ACCESSION: MSBNK-RIKEN-PR301766
RECORD_TITLE: Reserpic acid; LC-ESI-QTOF; MS2
DATE: 2019.03.28
AUTHORS: Tetsuya Mori, Center for Sustainable Resource Science, RIKEN
LICENSE: CC BY-NC-SA
PUBLICATION: Tsugawa H., Nakabayashi R., Mori T., Yamada Y., Takahashi M., Rai A., Sugiyama R., Yamamoto H., Nakaya T., Yamazaki M., Kooke R., Bac-Molenaar JA., Oztolan-Erol N., Keurentjes JJB., Arita M., Saito K. (2019) "A cheminformatics approach to characterize metabolomes in stable-isotope-labeled organisms" Nature Methods 16(4):295-298. [doi:10.1038/s41592-019-0358-2]
COMMENT: registered in RIKEN PlaSMA
CH$NAME: Reserpic acid
CH$COMPOUND_CLASS: Corynanthean-type alkaloids
CH$FORMULA: C22H28N2O5
CH$EXACT_MASS: 400.475
CH$SMILES: CO[C@H]1[C@H](O)C[C@@H]2CN3CCC4=C(NC5=C4C=CC(OC)=C5)[C@H]3C[C@@H]2[C@@H]1C(O)=O
CH$IUPAC: InChI=1S/C22H28N2O5/c1-28-12-3-4-13-14-5-6-24-10-11-7-18(25)21(29-2)19(22(26)27)15(11)9-17(24)20(14)23-16(13)8-12/h3-4,8,11,15,17-19,21,23,25H,5-7,9-10H2,1-2H3,(H,26,27)/t11-,15+,17-,18-,19+,21+/m1/s1
CH$LINK: INCHIKEY JVHNBFFHWQQPLL-WOXROFTLSA-N
AC$INSTRUMENT: LC, Waters Acquity UPLC System; MS, Waters Xevo G2 Q-Tof
AC$INSTRUMENT_TYPE: LC-ESI-QTOF
AC$MASS_SPECTROMETRY: MS_TYPE MS2
AC$MASS_SPECTROMETRY: ION_MODE POSITIVE
AC$MASS_SPECTROMETRY: COLLISION_ENERGY 6V
AC$MASS_SPECTROMETRY: DESOLVATION_GAS_FLOW 800/h
AC$MASS_SPECTROMETRY: DESOLVATION_TEMPERATURE 450 C
AC$MASS_SPECTROMETRY: IONIZATION ESI
AC$CHROMATOGRAPHY: CAPILLARY_VOLTAGE +3.00 kV
AC$CHROMATOGRAPHY: COLUMN_NAME Acquity bridged ethyl hybrid C18 (1.7 um, 2.1 mm * 100 mm, Waters)
AC$CHROMATOGRAPHY: COLUMN_TEMPERATURE 40 C
AC$CHROMATOGRAPHY: FLOW_GRADIENT A/B = (99.5%/0.5% at 0 min, 99.5%/0.5% at 0.1 min, 20%/80% at 10 min, 0.5%/99.5% at 10.1 min, 0.5%/99.5% at 12.0 min, 99.5%/0.5% at 12.1 min, 99.5%/0.5% at 15.0 min)
AC$CHROMATOGRAPHY: FLOW_RATE 0.3 ml/min at 0 min, 0.3 ml/min at 10 min, 0.4 ml/min at 10.1 min, 0.4 ml/min at 14.4 min, 0.3 ml/min at 14.5 min
AC$CHROMATOGRAPHY: RETENTION_TIME 3.889867
AC$CHROMATOGRAPHY: SOLVENT A water including 0.1% formic acid
AC$CHROMATOGRAPHY: SOLVENT B acetonitrile including 0.1% formic acid
MS$FOCUSED_ION: PRECURSOR_TYPE [M+H]+
MS$FOCUSED_ION: PRECURSOR_M/Z 401.2070985
PK$SPLASH: splash10-0udi-0310900000-e036b09274a4a0bb408d
PK$NUM_PEAK: 23
PK$PEAK: m/z int. rel.int.
  117.07085 7.0 7
  143.07658 5.0 5
  159.06859 16.0 16
  160.07503 14.0 14
  162.08769 7.0 7
  174.09129 269.0 269
  175.09521 44.0 44
  178.08498 12.0 12
  188.10693 22.0 22
  208.09619 5.0 5
  210.1106 6.0 6
  226.10991 5.0 5
  228.12343 38.0 38
  236.1102 5.0 5
  240.1241 132.0 132
  241.12828 20.0 20
  322.147 9.0 9
  372.17636 6.0 6
  372.18762 10.0 10
  383.19965 7.0 7
  384.17413 8.0 8
  401.20715 1000.0 999
  401.2659 25.0 25
//
