ACCESSION: MSBNK-RIKEN-PR300257
RECORD_TITLE: Isorhynchophylline; LC-ESI-QTOF; MS2
DATE: 2019.03.28
AUTHORS: Tetsuya Mori, Center for Sustainable Resource Science, RIKEN
LICENSE: CC BY-NC-SA
PUBLICATION: Tsugawa H., Nakabayashi R., Mori T., Yamada Y., Takahashi M., Rai A., Sugiyama R., Yamamoto H., Nakaya T., Yamazaki M., Kooke R., Bac-Molenaar JA., Oztolan-Erol N., Keurentjes JJB., Arita M., Saito K. (2019) "A cheminformatics approach to characterize metabolomes in stable-isotope-labeled organisms" Nature Methods 16(4):295-298. [doi:10.1038/s41592-019-0358-2]
COMMENT: registered in RIKEN PlaSMA
CH$NAME: Isorhynchophylline
CH$COMPOUND_CLASS: Indolizidines
CH$FORMULA: C22H28N2O4
CH$EXACT_MASS: 384.476
CH$SMILES: CC[C@H]1CN2CC[C@]3([C@@H]2C[C@@H]1\C(=C/OC)C(=O)OC)C(O)=NC1=CC=CC=C31
CH$IUPAC: InChI=1S/C22H28N2O4/c1-4-14-12-24-10-9-22(17-7-5-6-8-18(17)23-21(22)26)19(24)11-15(14)16(13-27-2)20(25)28-3/h5-8,13-15,19H,4,9-12H2,1-3H3,(H,23,26)/b16-13+/t14-,15-,19-,22-/m0/s1
CH$LINK: INCHIKEY DAXYUDFNWXHGBE-VKCGGMIFSA-N
AC$INSTRUMENT: LC, Waters Acquity UPLC System; MS, Waters Xevo G2 Q-Tof
AC$INSTRUMENT_TYPE: LC-ESI-QTOF
AC$MASS_SPECTROMETRY: MS_TYPE MS2
AC$MASS_SPECTROMETRY: ION_MODE POSITIVE
AC$MASS_SPECTROMETRY: COLLISION_ENERGY 6V
AC$MASS_SPECTROMETRY: DESOLVATION_GAS_FLOW 800/h
AC$MASS_SPECTROMETRY: DESOLVATION_TEMPERATURE 450 C
AC$MASS_SPECTROMETRY: IONIZATION ESI
AC$CHROMATOGRAPHY: CAPILLARY_VOLTAGE +3.00 kV
AC$CHROMATOGRAPHY: COLUMN_NAME Acquity bridged ethyl hybrid C18 (1.7 um, 2.1 mm * 100 mm, Waters)
AC$CHROMATOGRAPHY: COLUMN_TEMPERATURE 40 C
AC$CHROMATOGRAPHY: FLOW_GRADIENT A/B = (99.5%/0.5% at 0 min, 99.5%/0.5% at 0.1 min, 20%/80% at 10 min, 0.5%/99.5% at 10.1 min, 0.5%/99.5% at 12.0 min, 99.5%/0.5% at 12.1 min, 99.5%/0.5% at 15.0 min)
AC$CHROMATOGRAPHY: FLOW_RATE 0.3 ml/min at 0 min, 0.3 ml/min at 10 min, 0.4 ml/min at 10.1 min, 0.4 ml/min at 14.4 min, 0.3 ml/min at 14.5 min
AC$CHROMATOGRAPHY: RETENTION_TIME 4.634133
AC$CHROMATOGRAPHY: SOLVENT A water including 0.1% formic acid
AC$CHROMATOGRAPHY: SOLVENT B acetonitrile including 0.1% formic acid
MS$FOCUSED_ION: PRECURSOR_TYPE [M+H]+
MS$FOCUSED_ION: PRECURSOR_M/Z 385.2121838
PK$SPLASH: splash10-01q9-0900000000-b47c326c695b2e05b1e2
PK$NUM_PEAK: 246
PK$PEAK: m/z int. rel.int.
  56.05154 8.0 8
  67.05475 5.0 5
  68.02688 11.0 11
  68.05142 9.0 9
  70.05566 5.0 5
  70.06172 11.0 11
  70.06703 22.0 22
  75.04305 18.0 18
  77.03795 6.0 6
  79.05454 22.0 22
  80.04839 22.0 22
  80.0537 18.0 18
  81.05762 8.0 8
  82.02812 7.0 7
  82.06538 35.0 35
  83.04956 8.0 8
  83.08578 6.0 6
  84.08108 15.0 15
  91.0535 56.0 56
  91.05727 22.0 22
  93.05527 26.0 26
  93.06071 8.0 8
  93.07228 25.0 25
  94.06345 46.0 46
  94.07119 16.0 16
  95.05148 14.0 14
  96.07732 9.0 9
  103.05283 6.0 6
  104.00944 6.0 6
  104.05076 22.0 22
  105.03249 5.0 5
  105.06281 8.0 8
  105.06825 19.0 19
  105.07458 5.0 5
  106.06645 19.0 19
  107.07305 6.0 6
  107.07836 8.0 8
  108.05665 27.0 27
  108.08146 188.0 188
  109.05099 31.0 31
  109.07101 9.0 9
  109.08167 9.0 9
  109.08857 16.0 16
  110.09497 91.0 91
  110.09962 32.0 32
  111.04449 31.0 31
  111.09969 19.0 19
  115.05441 312.0 312
  116.04906 36.0 36
  116.05786 31.0 31
  117.05669 215.0 215
  117.07081 43.0 43
  118.06387 185.0 185
  119.04588 6.0 6
  119.06108 10.0 10
  119.06797 18.0 18
  119.07597 7.0 7
  120.04462 17.0 17
  120.07874 13.0 13
  121.06516 16.0 16
  122.05881 7.0 7
  122.09665 17.0 17
  123.07467 16.0 16
  123.08301 52.0 52
  123.10288 6.0 6
  124.07755 12.0 12
  124.11438 25.0 25
  125.1204 6.0 6
  127.05392 19.0 19
  128.04814 58.0 58
  129.05463 23.0 23
  129.06761 13.0 13
  130.04675 6.0 6
  130.0654 589.0 588
  131.06781 92.0 92
  131.08096 9.0 9
  132.04497 376.0 376
  132.08057 575.0 574
  133.04591 34.0 34
  133.05481 12.0 12
  133.08443 74.0 74
  134.05898 31.0 31
  134.08516 11.0 11
  135.08563 7.0 7
  135.09666 6.0 6
  136.10696 6.0 6
  136.11353 6.0 6
  138.0531 23.0 23
  138.06509 6.0 6
  138.09264 5.0 5
  139.07614 6.0 6
  140.04944 44.0 44
  140.06427 5.0 5
  141.04619 5.0 5
  141.05302 7.0 7
  142.04947 15.0 15
  142.06494 682.0 681
  143.06892 173.0 173
  144.04613 26.0 26
  144.06284 13.0 13
  144.07391 51.0 51
  144.08131 168.0 168
  145.04305 11.0 11
  145.05156 18.0 18
  145.08473 36.0 36
  146.06285 33.0 33
  146.0929 22.0 22
  146.0992 8.0 8
  147.06737 9.0 9
  148.03424 6.0 6
  152.04822 18.0 18
  152.10251 12.0 12
  153.03743 8.0 8
  153.04684 12.0 12
  154.06354 165.0 165
  155.06572 21.0 21
  155.07602 9.0 9
  156.07401 7.0 7
  156.08328 26.0 26
  157.07423 6.0 6
  157.09035 8.0 8
  158.06104 340.0 340
  158.08577 8.0 8
  158.09712 17.0 17
  159.06325 88.0 88
  159.06906 43.0 43
  159.09026 100.0 100
  160.03584 9.0 9
  160.05348 11.0 11
  160.07599 1000.0 999
  161.07349 38.0 38
  161.08125 64.0 64
  161.09496 6.0 6
  161.54613 5.0 5
  162.07849 15.0 15
  162.0952 25.0 25
  164.07025 5.0 5
  165.0723 6.0 6
  166.06592 9.0 9
  166.0817 9.0 9
  167.06265 41.0 41
  167.07375 36.0 36
  168.05959 11.0 11
  168.07776 20.0 20
  168.08559 17.0 17
  169.06339 8.0 8
  169.07425 67.0 67
  169.0815 36.0 36
  170.05957 38.0 38
  170.07469 17.0 17
  170.08951 19.0 19
  170.09685 12.0 12
  171.0565 43.0 43
  171.07132 6.0 6
  171.08063 5.0 5
  171.09325 11.0 11
  171.11121 7.0 7
  172.05879 10.0 10
  172.07474 128.0 128
  174.08745 6.0 6
  178.06258 14.0 14
  179.06493 6.0 6
  179.0845 7.0 7
  181.07945 9.0 9
  182.06143 16.0 16
  182.09142 15.0 15
  182.10278 6.0 6
  183.06073 12.0 12
  183.0685 32.0 32
  183.08324 12.0 12
  184.08031 29.0 29
  184.09763 14.0 14
  184.11073 50.0 50
  185.07321 54.0 54
  185.11092 5.0 5
  186.07657 50.0 50
  186.08621 19.0 19
  187.04646 6.0 6
  187.08685 442.0 442
  188.09077 54.0 54
  190.06728 7.0 7
  192.08061 31.0 31
  193.07542 13.0 13
  194.09282 13.0 13
  195.06618 10.0 10
  195.09709 13.0 13
  196.07211 9.0 9
  196.07906 23.0 23
  196.08893 10.0 10
  196.10539 16.0 16
  196.11588 11.0 11
  197.05554 6.0 6
  197.07193 46.0 46
  197.10486 10.0 10
  198.07347 8.0 8
  198.08131 7.0 7
  198.08919 7.0 7
  199.08629 47.0 47
  200.09407 6.0 6
  201.10548 6.0 6
  208.08833 10.0 10
  208.09868 7.0 7
  209.09569 7.0 7
  209.10732 18.0 18
  210.07822 6.0 6
  210.08647 10.0 10
  210.10472 7.0 7
  210.11649 5.0 5
  211.09042 52.0 52
  211.12206 8.0 8
  212.08632 12.0 12
  212.10651 16.0 16
  213.1021 56.0 56
  213.13107 13.0 13
  213.14328 9.0 9
  214.11081 9.0 9
  219.09453 6.0 6
  222.11926 7.0 7
  225.10104 9.0 9
  235.13023 6.0 6
  237.09846 40.0 40
  237.10765 28.0 28
  238.10587 12.0 12
  238.15195 5.0 5
  239.11546 25.0 25
  241.08963 10.0 10
  241.13545 152.0 152
  242.12195 5.0 5
  242.13908 32.0 32
  243.14188 6.0 6
  249.11945 6.0 6
  250.11072 9.0 9
  251.11629 9.0 9
  263.11292 8.0 8
  265.10718 7.0 7
  265.13199 34.0 34
  265.13934 12.0 12
  266.13684 6.0 6
  267.12354 5.0 5
  267.15329 16.0 16
  269.15973 6.0 6
  281.08722 6.0 6
  281.11295 6.0 6
  291.15161 7.0 7
  303.15009 6.0 6
  385.20789 8.0 8
//
