ACCESSION: MSBNK-RIKEN-PR301493
RECORD_TITLE: 7-Hydroxymitragynine; LC-ESI-QTOF; MS2
DATE: 2019.03.28
AUTHORS: Tetsuya Mori, Center for Sustainable Resource Science, RIKEN
LICENSE: CC BY-NC-SA
PUBLICATION: Tsugawa H., Nakabayashi R., Mori T., Yamada Y., Takahashi M., Rai A., Sugiyama R., Yamamoto H., Nakaya T., Yamazaki M., Kooke R., Bac-Molenaar JA., Oztolan-Erol N., Keurentjes JJB., Arita M., Saito K. (2019) "A cheminformatics approach to characterize metabolomes in stable-isotope-labeled organisms" Nature Methods 16(4):295-298. [doi:10.1038/s41592-019-0358-2]
COMMENT: registered in RIKEN PlaSMA
CH$NAME: 7-Hydroxymitragynine
CH$COMPOUND_CLASS: Corynanthean-type alkaloids
CH$FORMULA: C23H30N2O5
CH$EXACT_MASS: 414.502
CH$SMILES: CC[C@H]1CN2CC[C@@]3(O)C(=NC4=C3C(OC)=CC=C4)[C@@H]2C[C@@H]1\C(=C/OC)C(=O)OC
CH$IUPAC: InChI=1S/C23H30N2O5/c1-5-14-12-25-10-9-23(27)20-17(7-6-8-19(20)29-3)24-21(23)18(25)11-15(14)16(13-28-2)22(26)30-4/h6-8,13-15,18,27H,5,9-12H2,1-4H3/b16-13+/t14-,15-,18-,23-/m0/s1
CH$LINK: INCHIKEY RYENLSMHLCNXJT-ZHOKILCHSA-N
AC$INSTRUMENT: LC, Waters Acquity UPLC System; MS, Waters Xevo G2 Q-Tof
AC$INSTRUMENT_TYPE: LC-ESI-QTOF
AC$MASS_SPECTROMETRY: MS_TYPE MS2
AC$MASS_SPECTROMETRY: ION_MODE POSITIVE
AC$MASS_SPECTROMETRY: COLLISION_ENERGY 6V
AC$MASS_SPECTROMETRY: DESOLVATION_GAS_FLOW 800/h
AC$MASS_SPECTROMETRY: DESOLVATION_TEMPERATURE 450 C
AC$MASS_SPECTROMETRY: IONIZATION ESI
AC$CHROMATOGRAPHY: CAPILLARY_VOLTAGE +3.00 kV
AC$CHROMATOGRAPHY: COLUMN_NAME Acquity bridged ethyl hybrid C18 (1.7 um, 2.1 mm * 100 mm, Waters)
AC$CHROMATOGRAPHY: COLUMN_TEMPERATURE 40 C
AC$CHROMATOGRAPHY: FLOW_GRADIENT A/B = (99.5%/0.5% at 0 min, 99.5%/0.5% at 0.1 min, 20%/80% at 10 min, 0.5%/99.5% at 10.1 min, 0.5%/99.5% at 12.0 min, 99.5%/0.5% at 12.1 min, 99.5%/0.5% at 15.0 min)
AC$CHROMATOGRAPHY: FLOW_RATE 0.3 ml/min at 0 min, 0.3 ml/min at 10 min, 0.4 ml/min at 10.1 min, 0.4 ml/min at 14.4 min, 0.3 ml/min at 14.5 min
AC$CHROMATOGRAPHY: RETENTION_TIME 4.260783
AC$CHROMATOGRAPHY: SOLVENT A water including 0.1% formic acid
AC$CHROMATOGRAPHY: SOLVENT B acetonitrile including 0.1% formic acid
MS$FOCUSED_ION: PRECURSOR_TYPE [M+H]+
MS$FOCUSED_ION: PRECURSOR_M/Z 415.2227485
PK$SPLASH: splash10-004i-0910000000-7928aade67d04dacc848
PK$NUM_PEAK: 301
PK$PEAK: m/z int. rel.int.
  56.04345 7.0 7
  68.04523 10.0 10
  71.06744 6.0 6
  75.04253 28.0 28
  75.04955 6.0 6
  75.12744 6.0 6
  76.81875 6.0 6
  77.0372 8.0 8
  77.04263 12.0 12
  79.0579 24.0 24
  80.0555 10.0 10
  81.05568 6.0 6
  82.02887 6.0 6
  82.06094 7.0 7
  82.06647 7.0 7
  85.02898 7.0 7
  85.0824 6.0 6
  91.05356 15.0 15
  92.05537 8.0 8
  92.21846 10.0 10
  93.05237 8.0 8
  93.06974 30.0 30
  94.0443 9.0 9
  94.06174 10.0 10
  95.04977 6.0 6
  98.06831 6.0 6
  98.09635 6.0 6
  102.03795 6.0 6
  102.0463 24.0 24
  103.05375 7.0 7
  104.03936 8.0 8
  104.05241 39.0 39
  105.0345 8.0 8
  105.03999 6.0 6
  105.07458 6.0 6
  106.04136 8.0 8
  106.06373 35.0 35
  107.0703 18.0 18
  107.08538 9.0 9
  108.0797 17.0 17
  109.05413 6.0 6
  109.65379 7.0 7
  110.055 8.0 8
  110.09098 19.0 19
  110.09864 71.0 71
  111.04612 6.0 6
  115.05186 7.0 7
  115.05696 27.0 27
  116.0479 34.0 34
  116.05228 65.0 65
  117.06029 6.0 6
  117.06673 8.0 8
  118.06535 12.0 12
  118.07275 14.0 14
  118.78903 6.0 6
  119.07632 20.0 20
  120.0427 14.0 14
  120.05694 14.0 14
  120.08543 6.0 6
  121.06053 6.0 6
  121.35867 6.0 6
  122.10246 12.0 12
  123.08283 16.0 16
  124.074 6.0 6
  124.11558 15.0 15
  125.11726 9.0 9
  127.05724 6.0 6
  128.05153 14.0 14
  129.05421 63.0 63
  129.06242 23.0 23
  130.04121 9.0 9
  130.06216 43.0 43
  130.06865 35.0 35
  131.06868 46.0 46
  131.0753 27.0 27
  132.04248 33.0 33
  132.07985 16.0 16
  132.08849 15.0 15
  133.03995 7.0 7
  133.05211 48.0 48
  133.61888 6.0 6
  134.05679 34.0 34
  134.06276 36.0 36
  134.09215 7.0 7
  135.03214 6.0 6
  135.04883 8.0 8
  135.0589 14.0 14
  135.09177 6.0 6
  135.63286 6.0 6
  136.03926 11.0 11
  136.04422 17.0 17
  136.07031 6.0 6
  136.07983 8.0 8
  137.09154 7.0 7
  137.28931 11.0 11
  138.04265 9.0 9
  139.07095 7.0 7
  139.08139 13.0 13
  142.06715 6.0 6
  143.05171 6.0 6
  143.07278 26.0 26
  144.04349 6.0 6
  144.05527 8.0 8
  144.06505 11.0 11
  144.08113 80.0 80
  145.05513 33.0 33
  145.06566 7.0 7
  145.07901 11.0 11
  146.0195 8.0 8
  146.05762 142.0 142
  146.06651 48.0 48
  146.09698 34.0 34
  147.04599 16.0 16
  147.0583 35.0 35
  147.06923 306.0 306
  147.10378 6.0 6
  148.07193 69.0 69
  148.11588 7.0 7
  149.04639 18.0 18
  149.05095 7.0 7
  149.07719 12.0 12
  149.08832 10.0 10
  150.04474 7.0 7
  150.05301 15.0 15
  150.06331 9.0 9
  151.03662 6.0 6
  152.07307 41.0 41
  154.06111 6.0 6
  154.07216 6.0 6
  155.06975 12.0 12
  155.72147 13.0 13
  156.04083 6.0 6
  156.04739 11.0 11
  156.08147 8.0 8
  157.04897 41.0 41
  157.08058 6.0 6
  158.05487 26.0 26
  159.04568 6.0 6
  159.0614 12.0 12
  159.06842 15.0 15
  159.08862 6.0 6
  160.03703 25.0 25
  160.07196 40.0 40
  160.08038 24.0 24
  160.83421 6.0 6
  161.04842 35.0 35
  161.09239 14.0 14
  162.04985 29.0 29
  162.05875 57.0 57
  162.08887 113.0 113
  162.0961 122.0 122
  162.11157 15.0 15
  163.09982 7.0 7
  167.07231 6.0 6
  167.69849 8.0 8
  169.07176 6.0 6
  170.05922 6.0 6
  170.08778 6.0 6
  170.12006 6.0 6
  172.07558 184.0 184
  172.11755 7.0 7
  172.82898 6.0 6
  173.08136 13.0 13
  173.10619 6.0 6
  174.04442 17.0 17
  174.06155 52.0 52
  174.10027 13.0 13
  174.22986 6.0 6
  175.06392 1000.0 999
  175.10634 8.0 8
  175.20172 6.0 6
  176.05182 16.0 16
  176.06766 97.0 97
  176.10481 6.0 6
  177.06178 7.0 7
  177.55771 6.0 6
  178.05444 6.0 6
  184.0592 6.0 6
  184.06744 20.0 20
  184.08429 17.0 17
  187.04593 8.0 8
  187.06111 22.0 22
  187.08626 13.0 13
  188.07022 8.0 8
  188.08217 6.0 6
  189.0739 7.0 7
  189.08475 9.0 9
  190.05937 13.0 13
  190.08601 249.0 249
  190.12526 9.0 9
  191.09145 51.0 51
  192.09172 12.0 12
  195.07089 6.0 6
  195.08838 6.0 6
  195.81192 6.0 6
  196.11366 8.0 8
  197.06554 6.0 6
  197.0761 6.0 6
  198.07014 21.0 21
  198.09398 25.0 25
  199.08046 7.0 7
  199.10413 6.0 6
  200.12497 8.0 8
  201.0787 6.0 6
  202.0956 6.0 6
  208.05548 7.0 7
  208.07982 9.0 9
  208.12213 8.0 8
  209.13786 6.0 6
  210.08673 6.0 6
  211.08868 69.0 69
  211.10326 10.0 10
  212.05016 6.0 6
  212.0849 52.0 52
  212.10501 19.0 19
  213.06534 9.0 9
  213.08093 8.0 8
  213.09218 6.0 6
  213.10338 6.0 6
  213.12045 6.0 6
  214.10141 6.0 6
  215.08824 6.0 6
  216.10161 15.0 15
  219.09068 6.0 6
  223.08272 24.0 24
  223.09381 23.0 23
  224.09735 13.0 13
  224.11299 9.0 9
  227.11963 39.0 39
  230.69308 6.0 6
  231.09276 6.0 6
  235.08751 6.0 6
  235.10341 6.0 6
  236.09515 24.0 24
  237.10016 27.0 27
  237.11081 25.0 25
  238.10583 7.0 7
  239.10541 8.0 8
  239.12064 15.0 15
  241.10449 8.0 8
  243.03157 6.0 6
  247.08702 12.0 12
  250.11342 7.0 7
  251.04314 6.0 6
  251.05359 6.0 6
  251.10138 13.0 13
  251.11015 21.0 21
  251.12265 40.0 40
  252.11374 10.0 10
  252.14247 9.0 9
  253.11514 8.0 8
  253.13216 27.0 27
  253.14482 10.0 10
  254.10071 9.0 9
  254.15001 8.0 8
  255.10789 6.0 6
  263.11566 6.0 6
  264.1095 6.0 6
  265.13419 73.0 73
  265.8548 9.0 9
  266.13513 6.0 6
  266.14655 15.0 15
  266.84442 7.0 7
  266.92853 6.0 6
  267.08395 7.0 7
  267.12988 7.0 7
  267.3649 7.0 7
  277.02655 6.0 6
  277.09256 23.0 23
  277.13409 7.0 7
  279.10898 6.0 6
  281.16208 28.0 28
  281.17401 31.0 31
  281.19025 8.0 8
  281.60275 6.0 6
  282.15198 6.0 6
  283.16675 8.0 8
  286.72217 6.0 6
  289.13776 7.0 7
  290.13712 6.0 6
  293.11292 20.0 20
  294.09964 11.0 11
  305.08118 6.0 6
  308.85413 6.0 6
  309.10953 6.0 6
  309.12479 6.0 6
  311.11099 6.0 6
  317.14456 7.0 7
  319.13678 8.0 8
  325.11484 9.0 9
  335.13629 9.0 9
  338.15036 14.0 14
  349.14435 6.0 6
  349.15698 14.0 14
  355.20981 9.0 9
  367.17969 6.0 6
  372.1842 10.0 10
  381.151 6.0 6
  381.18338 96.0 96
  382.17883 28.0 28
  382.21167 9.0 9
//
