ACCESSION: MSBNK-RIKEN-PR310751
RECORD_TITLE: Isoflavanone base + 2O, 1MeO, 2Prenyl; LC-ESI-QTOF; MS2
DATE: 2019.03.28
AUTHORS: Tetsuya Mori, Center for Sustainable Resource Science, RIKEN
LICENSE: CC BY-NC-SA
PUBLICATION: Tsugawa H., Nakabayashi R., Mori T., Yamada Y., Takahashi M., Rai A., Sugiyama R., Yamamoto H., Nakaya T., Yamazaki M., Kooke R., Bac-Molenaar JA., Oztolan-Erol N., Keurentjes JJB., Arita M., Saito K. (2019) "A cheminformatics approach to characterize metabolomes in stable-isotope-labeled organisms" Nature Methods 16(4):295-298. [doi:10.1038/s41592-019-0358-2]
COMMENT: Annotation level-3
CH$NAME: Isoflavanone base + 2O, 1MeO, 2Prenyl
CH$COMPOUND_CLASS: Prenylated pterocarpans
CH$FORMULA: C26H30O5
CH$EXACT_MASS: 422.521
CH$SMILES: OC1=CC=2OC3C4=C(OCC3(C=2(C=C1CC=C(C)C)))C=C(O)C(=C4(OC))CC=C(C)C
CH$IUPAC: InChI=1S/C26H30O5/c1-14(2)6-8-16-10-18-19-13-30-23-12-21(28)17(9-7-15(3)4)25(29-5)24(23)26(19)31-22(18)11-20(16)27/h6-7,10-12,19,26-28H,8-9,13H2,1-5H3
CH$LINK: INCHIKEY WIEKYGJSRGBBTQ-UHFFFAOYSA-N
AC$INSTRUMENT: LC, Waters Acquity UPLC System; MS, Waters Xevo G2 Q-Tof
AC$INSTRUMENT_TYPE: LC-ESI-QTOF
AC$MASS_SPECTROMETRY: MS_TYPE MS2
AC$MASS_SPECTROMETRY: ION_MODE POSITIVE
AC$MASS_SPECTROMETRY: COLLISION_ENERGY 6V
AC$MASS_SPECTROMETRY: DESOLVATION_GAS_FLOW 800/h
AC$MASS_SPECTROMETRY: DESOLVATION_TEMPERATURE 450 C
AC$MASS_SPECTROMETRY: IONIZATION ESI
AC$CHROMATOGRAPHY: CAPILLARY_VOLTAGE +3.00 kV
AC$CHROMATOGRAPHY: COLUMN_NAME Acquity bridged ethyl hybrid C18 (1.7 um, 2.1 mm * 100 mm, Waters)
AC$CHROMATOGRAPHY: COLUMN_TEMPERATURE 40 C
AC$CHROMATOGRAPHY: FLOW_GRADIENT A/B = (99.5%/0.5% at 0 min, 99.5%/0.5% at 0.1 min, 20%/80% at 10 min, 0.5%/99.5% at 10.1 min, 0.5%/99.5% at 12.0 min, 99.5%/0.5% at 12.1 min, 99.5%/0.5% at 15.0 min)
AC$CHROMATOGRAPHY: FLOW_RATE 0.3 ml/min at 0 min, 0.3 ml/min at 10 min, 0.4 ml/min at 10.1 min, 0.4 ml/min at 14.4 min, 0.3 ml/min at 14.5 min
AC$CHROMATOGRAPHY: RETENTION_TIME 9.29
AC$CHROMATOGRAPHY: SOLVENT A water including 0.1% formic acid
AC$CHROMATOGRAPHY: SOLVENT B acetonitrile including 0.1% formic acid
MS$FOCUSED_ION: PRECURSOR_TYPE [M+H]+
MS$FOCUSED_ION: PRECURSOR_M/Z 423.2168
PK$SPLASH: splash10-00di-0987700000-4146978ea90eda728965
PK$NUM_PEAK: 118
PK$PEAK: m/z int. rel.int.
  53.30061 20.0 17
  70.07206 20.0 17
  120.06017 18.0 15
  129.06447 17.0 15
  133.06342 20.0 17
  137.05899 18.0 15
  145.10185 18.0 15
  146.04399 31.0 27
  149.02203 200.0 171
  149.02756 96.0 82
  149.05832 17.0 15
  150.05719 22.0 19
  151.07042 58.0 50
  151.0771 67.0 57
  152.07376 24.0 21
  153.09253 39.0 33
  162.0647 21.0 18
  163.06395 18.0 15
  163.08374 26.0 22
  164.03082 18.0 15
  165.08929 38.0 33
  165.15302 22.0 19
  166.09279 17.0 15
  169.06996 21.0 18
  171.07791 47.0 40
  174.02711 45.0 38
  175.03204 21.0 18
  175.0741 23.0 20
  176.05055 37.0 32
  177.05057 42.0 36
  177.06491 20.0 17
  177.07307 25.0 21
  187.07617 36.0 31
  187.08119 17.0 15
  189.04927 44.0 38
  189.05649 86.0 74
  189.0849 22.0 19
  189.09329 28.0 24
  189.11552 23.0 20
  190.05492 18.0 15
  191.06058 26.0 22
  191.07481 130.0 111
  192.18176 20.0 17
  193.11891 19.0 16
  198.05893 18.0 15
  201.06432 17.0 15
  203.05997 17.0 15
  203.07172 20.0 17
  203.10637 20.0 17
  205.08661 188.0 161
  206.07724 20.0 17
  211.0808 23.0 20
  213.08609 20.0 17
  217.09862 22.0 19
  219.10674 44.0 38
  223.07565 17.0 15
  228.07895 20.0 17
  228.68237 19.0 16
  231.10562 47.0 40
  233.10521 20.0 17
  233.13298 20.0 17
  237.05675 21.0 18
  237.09756 17.0 15
  237.21982 18.0 15
  239.06496 21.0 18
  242.09131 26.0 22
  245.12366 28.0 24
  253.07809 21.0 18
  254.10175 43.0 37
  257.0585 17.0 15
  257.06824 25.0 21
  257.07797 17.0 15
  257.09949 20.0 17
  262.056 38.0 33
  265.08627 20.0 17
  268.07965 17.0 15
  269.06461 18.0 15
  269.07803 74.0 63
  269.08704 43.0 37
  279.0636 24.0 21
  279.07297 24.0 21
  280.0722 39.0 33
  281.08316 135.0 115
  282.08853 19.0 16
  283.09708 42.0 36
  283.5166 17.0 15
  287.16666 21.0 18
  290.12692 24.0 21
  293.0813 23.0 20
  293.11685 19.0 16
  293.12692 21.0 18
  299.09219 25.0 21
  307.12875 20.0 17
  311.08163 109.0 93
  311.09695 235.0 201
  312.08646 17.0 15
  312.09747 17.0 15
  313.07776 19.0 16
  313.13593 19.0 16
  319.09439 18.0 15
  325.14127 183.0 157
  325.16858 18.0 15
  326.14444 20.0 17
  326.15576 17.0 15
  336.11993 23.0 20
  337.12222 20.0 17
  337.14194 67.0 57
  338.14264 59.0 50
  367.15137 328.0 281
  368.17117 17.0 15
  369.16544 30.0 26
  382.20261 18.0 15
  394.22195 20.0 17
  406.16049 19.0 16
  421.19489 24.0 21
  423.17065 44.0 38
  423.18564 37.0 32
  423.21857 1168.0 999
//
