ACCESSION: MSBNK-RIKEN-PR300524
RECORD_TITLE: Strychnine; LC-ESI-QTOF; MS2
DATE: 2019.03.28
AUTHORS: Tetsuya Mori, Center for Sustainable Resource Science, RIKEN
LICENSE: CC BY-NC-SA
PUBLICATION: Tsugawa H., Nakabayashi R., Mori T., Yamada Y., Takahashi M., Rai A., Sugiyama R., Yamamoto H., Nakaya T., Yamazaki M., Kooke R., Bac-Molenaar JA., Oztolan-Erol N., Keurentjes JJB., Arita M., Saito K. (2019) "A cheminformatics approach to characterize metabolomes in stable-isotope-labeled organisms" Nature Methods 16(4):295-298. [doi:10.1038/s41592-019-0358-2]
COMMENT: registered in RIKEN PlaSMA
CH$NAME: Strychnine
CH$COMPOUND_CLASS: Strychnos alkaloids
CH$FORMULA: C21H22N2O2
CH$EXACT_MASS: 334.419
CH$SMILES: O=C1C[C@@H]2OCC=C3CN4CC[C@@]56[C@@H]4C[C@@H]3[C@@H]2[C@@H]5N1C1=CC=CC=C61
CH$IUPAC: InChI=1S/C21H22N2O2/c24-18-10-16-19-13-9-17-21(6-7-22(17)11-12(13)5-8-25-16)14-3-1-2-4-15(14)23(18)20(19)21/h1-5,13,16-17,19-20H,6-11H2/t13-,16-,17-,19-,20-,21+/m0/s1
CH$LINK: INCHIKEY QMGVPVSNSZLJIA-FVWCLLPLSA-N
AC$INSTRUMENT: LC, Waters Acquity UPLC System; MS, Waters Xevo G2 Q-Tof
AC$INSTRUMENT_TYPE: LC-ESI-QTOF
AC$MASS_SPECTROMETRY: MS_TYPE MS2
AC$MASS_SPECTROMETRY: ION_MODE POSITIVE
AC$MASS_SPECTROMETRY: COLLISION_ENERGY 6V
AC$MASS_SPECTROMETRY: DESOLVATION_GAS_FLOW 800/h
AC$MASS_SPECTROMETRY: DESOLVATION_TEMPERATURE 450 C
AC$MASS_SPECTROMETRY: IONIZATION ESI
AC$CHROMATOGRAPHY: CAPILLARY_VOLTAGE +3.00 kV
AC$CHROMATOGRAPHY: COLUMN_NAME Acquity bridged ethyl hybrid C18 (1.7 um, 2.1 mm * 100 mm, Waters)
AC$CHROMATOGRAPHY: COLUMN_TEMPERATURE 40 C
AC$CHROMATOGRAPHY: FLOW_GRADIENT A/B = (99.5%/0.5% at 0 min, 99.5%/0.5% at 0.1 min, 20%/80% at 10 min, 0.5%/99.5% at 10.1 min, 0.5%/99.5% at 12.0 min, 99.5%/0.5% at 12.1 min, 99.5%/0.5% at 15.0 min)
AC$CHROMATOGRAPHY: FLOW_RATE 0.3 ml/min at 0 min, 0.3 ml/min at 10 min, 0.4 ml/min at 10.1 min, 0.4 ml/min at 14.4 min, 0.3 ml/min at 14.5 min
AC$CHROMATOGRAPHY: RETENTION_TIME 3.456917
AC$CHROMATOGRAPHY: SOLVENT A water including 0.1% formic acid
AC$CHROMATOGRAPHY: SOLVENT B acetonitrile including 0.1% formic acid
MS$FOCUSED_ION: PRECURSOR_TYPE [M+H]+
MS$FOCUSED_ION: PRECURSOR_M/Z 335.1754044
PK$SPLASH: splash10-0ar0-0940000000-82a4f7086f94b54a8f96
PK$NUM_PEAK: 322
PK$PEAK: m/z int. rel.int.
  53.03947 6.0 6
  55.01844 6.0 6
  67.05405 10.0 10
  68.05853 8.0 8
  77.03207 5.0 5
  77.03931 36.0 36
  78.0389 8.0 8
  78.04337 14.0 14
  79.04936 6.0 6
  79.05664 44.0 44
  79.06231 14.0 14
  80.04627 21.0 21
  80.05384 7.0 7
  81.06873 14.0 14
  91.05405 66.0 66
  92.0386 7.0 7
  92.98088 6.0 6
  93.05499 10.0 10
  93.06023 15.0 15
  93.06979 53.0 53
  93.56135 5.0 5
  93.86971 5.0 5
  94.05657 6.0 6
  94.06257 14.0 14
  94.06953 14.0 14
  95.01396 6.0 6
  95.04919 24.0 24
  95.08394 6.0 6
  96.07217 7.0 7
  96.07977 20.0 20
  96.79341 5.0 5
  97.06412 5.0 5
  98.81087 6.0 6
  99.67907 5.0 5
  100.20884 7.0 7
  102.04639 12.0 12
  103.05412 10.0 10
  105.03585 7.0 7
  105.05488 9.0 9
  105.06822 23.0 23
  106.06089 43.0 43
  106.06763 48.0 48
  106.07647 8.0 8
  107.04794 6.0 6
  107.07476 13.0 13
  108.07454 9.0 9
  108.08021 25.0 25
  110.09617 6.0 6
  115.0546 71.0 71
  116.04788 44.0 44
  117.07037 34.0 34
  118.06644 34.0 34
  119.071 15.0 15
  119.09058 11.0 11
  120.05882 8.0 8
  121.06104 6.0 6
  121.06644 7.0 7
  121.08784 15.0 15
  122.0445 7.0 7
  122.05735 41.0 41
  122.0976 9.0 9
  123.07718 10.0 10
  124.07687 23.0 23
  125.03757 6.0 6
  127.05406 71.0 71
  128.02753 8.0 8
  128.04407 21.0 21
  128.05313 36.0 36
  128.06194 108.0 108
  129.04219 5.0 5
  129.05151 11.0 11
  129.07086 637.0 636
  130.06595 137.0 137
  130.07292 56.0 56
  131.07329 24.0 24
  131.08438 19.0 19
  132.03802 10.0 10
  132.04607 12.0 12
  132.07982 24.0 24
  134.04276 7.0 7
  134.0921 5.0 5
  139.05235 10.0 10
  140.04289 14.0 14
  141.07162 30.0 30
  142.06247 37.0 37
  142.06898 16.0 16
  143.06306 11.0 11
  143.07231 21.0 21
  143.08495 17.0 17
  144.04402 11.0 11
  144.08255 225.0 225
  145.08243 31.0 31
  145.09059 26.0 26
  145.10486 5.0 5
  148.03798 6.0 6
  148.07301 13.0 13
  151.03278 6.0 6
  151.05905 10.0 10
  151.95607 5.0 5
  152.0645 18.0 18
  152.07333 6.0 6
  154.06786 142.0 142
  155.06085 8.0 8
  155.07411 53.0 53
  155.58597 5.0 5
  155.82303 7.0 7
  156.04657 8.0 8
  156.08064 1000.0 999
  156.09901 10.0 10
  156.11182 5.0 5
  156.15552 8.0 8
  156.90565 6.0 6
  157.02733 5.0 5
  157.06352 21.0 21
  157.08455 128.0 128
  157.10545 7.0 7
  157.68567 6.0 6
  158.06346 16.0 16
  158.08061 40.0 40
  160.07678 9.0 9
  163.07571 6.0 6
  166.05214 12.0 12
  166.06703 102.0 102
  167.07248 285.0 285
  168.08086 222.0 222
  169.07614 61.0 61
  169.08684 55.0 55
  170.05946 9.0 9
  170.06587 8.0 8
  170.07761 13.0 13
  170.09418 38.0 38
  170.10191 10.0 10
  171.0937 31.0 31
  171.10748 6.0 6
  171.75639 6.0 6
  172.07484 10.0 10
  172.08809 5.0 5
  173.08238 5.0 5
  177.07028 22.0 22
  177.08273 9.0 9
  178.06277 10.0 10
  178.07217 14.0 14
  179.08652 15.0 15
  180.07857 105.0 105
  180.08702 69.0 69
  181.07651 12.0 12
  181.08939 54.0 54
  182.05841 12.0 12
  182.09406 96.0 96
  182.11198 10.0 10
  183.058 13.0 13
  183.06949 40.0 40
  183.09775 16.0 16
  184.07579 600.0 599
  184.10194 18.0 18
  184.1111 29.0 29
  185.07933 112.0 112
  185.96642 5.0 5
  186.06981 5.0 5
  186.08482 9.0 9
  186.09734 16.0 16
  187.08536 19.0 19
  189.12444 5.0 5
  190.09235 7.0 7
  191.0733 78.0 78
  191.10562 11.0 11
  191.44897 8.0 8
  192.06079 6.0 6
  192.08044 72.0 72
  193.08698 74.0 74
  194.02216 6.0 6
  194.06285 26.0 26
  194.08978 85.0 85
  194.09932 140.0 140
  195.10197 93.0 93
  196.0762 39.0 39
  196.11156 17.0 17
  197.06337 14.0 14
  197.07295 7.0 7
  197.08736 10.0 10
  198.09402 28.0 28
  200.06746 8.0 8
  202.06914 19.0 19
  203.07193 14.0 14
  203.08868 7.0 7
  204.08055 237.0 237
  205.06584 16.0 16
  205.08678 135.0 135
  206.0584 7.0 7
  206.09689 202.0 202
  207.07993 11.0 11
  207.09958 9.0 9
  207.11078 21.0 21
  208.08981 6.0 6
  208.10898 74.0 74
  209.08333 18.0 18
  209.10374 16.0 16
  210.08398 11.0 11
  210.09567 7.0 7
  210.10828 14.0 14
  212.06841 35.0 35
  214.06911 9.0 9
  216.05943 5.0 5
  216.07973 58.0 58
  217.06915 6.0 6
  217.08975 227.0 227
  217.83549 6.0 6
  218.06798 6.0 6
  218.09912 211.0 211
  218.11371 14.0 14
  218.74307 5.0 5
  219.06804 6.0 6
  219.08539 13.0 13
  219.10262 109.0 109
  220.06433 33.0 33
  220.07529 145.0 145
  220.10999 124.0 124
  221.06934 13.0 13
  221.08165 32.0 32
  221.11734 20.0 20
  222.09515 73.0 73
  222.12602 28.0 28
  223.09163 18.0 18
  223.11182 17.0 17
  224.09276 13.0 13
  224.11185 5.0 5
  228.0829 7.0 7
  229.09709 9.0 9
  230.08325 20.0 20
  230.09714 62.0 62
  231.10582 45.0 45
  232.07063 29.0 29
  232.09744 7.0 7
  232.10922 34.0 34
  232.11717 30.0 30
  233.07571 25.0 25
  233.08815 46.0 46
  233.10164 14.0 14
  234.09061 67.0 67
  234.0999 38.0 38
  234.1284 26.0 26
  235.09702 14.0 14
  235.10672 18.0 18
  235.12378 9.0 9
  235.13266 13.0 13
  235.13995 9.0 9
  236.07521 6.0 6
  236.11642 8.0 8
  237.0977 6.0 6
  237.11818 6.0 6
  238.0873 14.0 14
  238.12656 9.0 9
  240.07896 5.0 5
  241.08734 19.0 19
  242.0927 23.0 23
  242.10617 18.0 18
  243.10254 32.0 32
  243.112 14.0 14
  244.11053 55.0 55
  245.07916 5.0 5
  245.11099 20.0 20
  246.08939 43.0 43
  246.10329 21.0 21
  246.11807 7.0 7
  246.13217 29.0 29
  247.09172 6.0 6
  247.10875 18.0 18
  248.1051 32.0 32
  248.1171 18.0 18
  248.13026 6.0 6
  249.09781 9.0 9
  249.10902 11.0 11
  249.12164 7.0 7
  249.14679 12.0 12
  250.11136 6.0 6
  250.12218 9.0 9
  250.12897 5.0 5
  256.11285 15.0 15
  257.07751 22.0 22
  257.09628 17.0 17
  257.10831 15.0 15
  257.2041 5.0 5
  258.09329 28.0 28
  259.09433 16.0 16
  260.11166 7.0 7
  260.13513 5.0 5
  261.10144 26.0 26
  261.11542 6.0 6
  262.12424 50.0 50
  262.1655 6.0 6
  263.12567 15.0 15
  263.13565 6.0 6
  264.09497 14.0 14
  264.10614 26.0 26
  265.09772 5.0 5
  265.13824 6.0 6
  266.10944 8.0 8
  268.103 6.0 6
  271.08997 11.0 11
  271.10611 10.0 10
  271.13177 7.0 7
  272.09695 21.0 21
  273.10648 7.0 7
  274.12369 22.0 22
  276.11929 5.0 5
  276.12805 7.0 7
  276.14642 10.0 10
  279.11655 9.0 9
  288.1048 5.0 5
  288.12515 5.0 5
  288.13751 7.0 7
  289.13809 9.0 9
  290.13977 6.0 6
  291.15625 7.0 7
  292.14093 5.0 5
  301.14578 6.0 6
  306.33344 12.0 12
  308.14218 10.0 10
  318.14108 11.0 11
  335.1564 16.0 16
  335.17487 75.0 75
  335.207 6.0 6
//
