ACCESSION: MSBNK-RIKEN-PR309060
RECORD_TITLE: Phenylacetic acid + 2O, O-Hex; LC-ESI-QTOF; MS2
DATE: 2019.03.28
AUTHORS: Tetsuya Mori, Center for Sustainable Resource Science, RIKEN
LICENSE: CC BY-NC-SA
PUBLICATION: Tsugawa H., Nakabayashi R., Mori T., Yamada Y., Takahashi M., Rai A., Sugiyama R., Yamamoto H., Nakaya T., Yamazaki M., Kooke R., Bac-Molenaar JA., Oztolan-Erol N., Keurentjes JJB., Arita M., Saito K. (2019) "A cheminformatics approach to characterize metabolomes in stable-isotope-labeled organisms" Nature Methods 16(4):295-298. [doi:10.1038/s41592-019-0358-2]
COMMENT: Annotation level-3
CH$NAME: Phenylacetic acid + 2O, O-Hex
CH$COMPOUND_CLASS: Phenolic glycosides
CH$FORMULA: C14H18O9
CH$EXACT_MASS: 330.289
CH$SMILES: O=C(O)CC2=CC(O)=CC=C2(OC1OC(CO)C(O)C(O)C1(O))
CH$IUPAC: InChI=1S/C14H18O9/c15-5-9-11(19)12(20)13(21)14(23-9)22-8-2-1-7(16)3-6(8)4-10(17)18/h1-3,9,11-16,19-21H,4-5H2,(H,17,18)
CH$LINK: INCHIKEY MVFYXXNAFZRZAM-UHFFFAOYSA-N
AC$INSTRUMENT: LC, Waters Acquity UPLC System; MS, Waters Xevo G2 Q-Tof
AC$INSTRUMENT_TYPE: LC-ESI-QTOF
AC$MASS_SPECTROMETRY: MS_TYPE MS2
AC$MASS_SPECTROMETRY: ION_MODE NEGATIVE
AC$MASS_SPECTROMETRY: COLLISION_ENERGY 6V
AC$MASS_SPECTROMETRY: DESOLVATION_GAS_FLOW 800/h
AC$MASS_SPECTROMETRY: DESOLVATION_TEMPERATURE 450 C
AC$MASS_SPECTROMETRY: IONIZATION ESI
AC$CHROMATOGRAPHY: CAPILLARY_VOLTAGE +3.00 kV
AC$CHROMATOGRAPHY: COLUMN_NAME Acquity bridged ethyl hybrid C18 (1.7 um, 2.1 mm * 100 mm, Waters)
AC$CHROMATOGRAPHY: COLUMN_TEMPERATURE 40 C
AC$CHROMATOGRAPHY: FLOW_GRADIENT A/B = (99.5%/0.5% at 0 min, 99.5%/0.5% at 0.1 min, 20%/80% at 10 min, 0.5%/99.5% at 10.1 min, 0.5%/99.5% at 12.0 min, 99.5%/0.5% at 12.1 min, 99.5%/0.5% at 15.0 min)
AC$CHROMATOGRAPHY: FLOW_RATE 0.3 ml/min at 0 min, 0.3 ml/min at 10 min, 0.4 ml/min at 10.1 min, 0.4 ml/min at 14.4 min, 0.3 ml/min at 14.5 min
AC$CHROMATOGRAPHY: RETENTION_TIME 2.78
AC$CHROMATOGRAPHY: SOLVENT A water including 0.1% formic acid
AC$CHROMATOGRAPHY: SOLVENT B acetonitrile including 0.1% formic acid
MS$FOCUSED_ION: PRECURSOR_TYPE [M-H]-
MS$FOCUSED_ION: PRECURSOR_M/Z 329.0883
PK$SPLASH: splash10-004i-1629000000-83c38ac2a4b4f23e2b0b
PK$NUM_PEAK: 18
PK$PEAK: m/z int. rel.int.
  59.0132 25.0 74
  71.01636 16.0 47
  73.02063 17.0 50
  101.02148 47.0 139
  101.02509 16.0 47
  108.02077 20.0 59
  123.0418 36.0 107
  165.06203 16.0 47
  167.03484 50.0 148
  168.04068 21.0 62
  181.04536 17.0 50
  181.05382 30.0 89
  181.06055 26.0 77
  209.04538 53.0 157
  269.05865 17.0 50
  269.07166 50.0 148
  322.80814 25.0 74
  329.08954 337.0 999
//
