ACCESSION: MSBNK-RIKEN-PR310611
RECORD_TITLE: Vincamine; LC-ESI-QTOF; MS2
DATE: 2019.03.28
AUTHORS: Tetsuya Mori, Center for Sustainable Resource Science, RIKEN
LICENSE: CC BY-NC-SA
PUBLICATION: Tsugawa H., Nakabayashi R., Mori T., Yamada Y., Takahashi M., Rai A., Sugiyama R., Yamamoto H., Nakaya T., Yamazaki M., Kooke R., Bac-Molenaar JA., Oztolan-Erol N., Keurentjes JJB., Arita M., Saito K. (2019) "A cheminformatics approach to characterize metabolomes in stable-isotope-labeled organisms" Nature Methods 16(4):295-298. [doi:10.1038/s41592-019-0358-2]
COMMENT: Annotation level-1
CH$NAME: Vincamine
CH$COMPOUND_CLASS: Alkaloids
CH$FORMULA: C21H26N2O3
CH$EXACT_MASS: 354.45
CH$SMILES: CCC12CCCN3CCC4=C(C13)N(C1=C4C=CC=C1)C(O)(C2)C(=O)OC
CH$IUPAC: InChI=1S/C21H26N2O3/c1-3-20-10-6-11-22-12-9-15-14-7-4-5-8-16(14)23(17(15)18(20)22)21(25,13-20)19(24)26-2/h4-5,7-8,18,25H,3,6,9-13H2,1-2H3
CH$LINK: INCHIKEY RXPRRQLKFXBCSJ-UHFFFAOYSA-N
AC$INSTRUMENT: LC, Waters Acquity UPLC System; MS, Waters Xevo G2 Q-Tof
AC$INSTRUMENT_TYPE: LC-ESI-QTOF
AC$MASS_SPECTROMETRY: MS_TYPE MS2
AC$MASS_SPECTROMETRY: ION_MODE POSITIVE
AC$MASS_SPECTROMETRY: COLLISION_ENERGY 6V
AC$MASS_SPECTROMETRY: DESOLVATION_GAS_FLOW 800/h
AC$MASS_SPECTROMETRY: DESOLVATION_TEMPERATURE 450 C
AC$MASS_SPECTROMETRY: IONIZATION ESI
AC$CHROMATOGRAPHY: CAPILLARY_VOLTAGE +3.00 kV
AC$CHROMATOGRAPHY: COLUMN_NAME Acquity bridged ethyl hybrid C18 (1.7 um, 2.1 mm * 100 mm, Waters)
AC$CHROMATOGRAPHY: COLUMN_TEMPERATURE 40 C
AC$CHROMATOGRAPHY: FLOW_GRADIENT A/B = (99.5%/0.5% at 0 min, 99.5%/0.5% at 0.1 min, 20%/80% at 10 min, 0.5%/99.5% at 10.1 min, 0.5%/99.5% at 12.0 min, 99.5%/0.5% at 12.1 min, 99.5%/0.5% at 15.0 min)
AC$CHROMATOGRAPHY: FLOW_RATE 0.3 ml/min at 0 min, 0.3 ml/min at 10 min, 0.4 ml/min at 10.1 min, 0.4 ml/min at 14.4 min, 0.3 ml/min at 14.5 min
AC$CHROMATOGRAPHY: RETENTION_TIME 4.5
AC$CHROMATOGRAPHY: SOLVENT A water including 0.1% formic acid
AC$CHROMATOGRAPHY: SOLVENT B acetonitrile including 0.1% formic acid
MS$FOCUSED_ION: PRECURSOR_TYPE [M+H]+
MS$FOCUSED_ION: PRECURSOR_M/Z 355.20162
PK$SPLASH: splash10-0a4i-0149000000-b81e68a5b7ffe8921bd6
PK$NUM_PEAK: 614
PK$PEAK: m/z int. rel.int.
  55.99641 20.0 0
  58.06557 62.0 1
  69.07362 30.0 1
  69.24485 24.0 1
  70.06558 44.0 1
  73.2776 25.0 1
  79.05276 25.0 1
  83.04839 46.0 1
  84.88482 21.0 0
  85.08985 35.0 1
  93.0715 68.0 1
  95.09468 19.0 0
  96.07844 56.0 1
  105.06642 21.0 0
  105.07665 53.0 1
  106.0697 19.0 0
  107.0685 30.0 1
  108.08289 47.0 1
  110.09347 164.0 4
  110.1003 45.0 1
  110.39538 17.0 0
  111.10278 61.0 1
  112.1129 90.0 2
  112.11856 21.0 0
  116.04708 31.0 1
  117.07179 115.0 2
  118.06391 23.0 0
  118.07051 19.0 0
  119.08944 21.0 0
  120.04353 45.0 1
  121.06429 17.0 0
  121.07201 42.0 1
  121.64529 27.0 1
  121.74306 41.0 1
  122.05352 26.0 1
  122.06104 27.0 1
  122.09308 46.0 1
  123.06503 17.0 0
  123.09921 21.0 0
  123.10964 45.0 1
  123.55885 18.0 0
  124.11168 137.0 3
  124.12524 26.0 1
  124.15744 22.0 0
  125.11237 28.0 1
  125.11954 40.0 1
  127.05589 17.0 0
  127.06258 20.0 0
  128.04666 18.0 0
  129.06792 20.0 0
  130.0609 51.0 1
  130.06586 15.0 0
  130.28856 41.0 1
  131.07274 20.0 0
  131.87285 21.0 0
  133.06572 43.0 1
  133.08676 25.0 1
  134.05769 17.0 0
  134.09814 117.0 2
  135.0788 57.0 1
  135.0988 24.0 1
  136.07664 21.0 0
  136.11478 17.0 0
  137.0739 40.0 1
  137.09561 17.0 0
  138.12062 30.0 1
  138.13597 45.0 1
  139.13782 18.0 0
  140.1286 17.0 0
  141.07483 25.0 1
  141.36812 49.0 1
  142.06342 20.0 0
  142.08942 27.0 1
  143.06488 19.0 0
  143.07611 81.0 2
  143.08987 29.0 1
  143.56 20.0 0
  144.04251 21.0 0
  144.08186 2608.0 56
  145.08186 133.0 3
  145.08882 111.0 2
  145.10347 20.0 0
  145.99979 20.0 0
  146.09462 50.0 1
  146.48724 21.0 0
  148.11328 28.0 1
  148.11884 24.0 1
  150.06963 18.0 0
  150.08978 38.0 1
  150.09805 25.0 1
  151.07724 61.0 1
  152.08272 15.0 0
  152.10716 846.0 18
  153.10365 19.0 0
  154.06491 38.0 1
  154.09506 20.0 0
  154.12065 24.0 1
  155.07542 18.0 0
  156.0777 17.0 0
  156.08665 61.0 1
  158.09911 128.0 3
  158.26636 31.0 1
  159.09732 45.0 1
  160.07307 19.0 0
  160.08417 18.0 0
  160.11369 18.0 0
  162.09291 104.0 2
  163.07774 42.0 1
  163.09555 33.0 1
  163.10184 26.0 1
  163.36209 17.0 0
  164.11296 27.0 1
  165.07655 46.0 1
  165.08508 21.0 0
  165.09872 18.0 0
  166.12483 54.0 1
  167.05643 48.0 1
  167.06721 84.0 2
  168.07646 24.0 1
  168.08257 19.0 0
  170.05888 152.0 3
  170.08359 20.0 0
  170.09546 107.0 2
  170.10838 40.0 1
  171.09288 24.0 1
  171.10971 24.0 1
  172.11783 45.0 1
  172.57149 18.0 0
  172.57845 26.0 1
  173.09082 23.0 0
  174.4615 23.0 0
  176.06293 21.0 0
  178.07416 37.0 1
  178.08446 18.0 0
  178.83144 17.0 0
  180.0722 54.0 1
  180.08351 133.0 3
  180.09708 27.0 1
  180.1051 50.0 1
  181.06873 19.0 0
  181.0797 56.0 1
  181.08774 27.0 1
  181.09886 19.0 0
  182.0735 30.0 1
  182.09311 87.0 2
  182.10689 156.0 3
  182.79965 35.0 1
  182.87456 18.0 0
  183.062 21.0 0
  183.08957 22.0 0
  183.10509 71.0 2
  183.11748 19.0 0
  183.59871 18.0 0
  183.9548 20.0 0
  184.0726 20.0 0
  184.09335 61.0 1
  184.11084 19.0 0
  184.12099 20.0 0
  184.92963 23.0 0
  185.11613 56.0 1
  185.61102 24.0 1
  186.07559 19.0 0
  186.10637 24.0 1
  186.12663 45.0 1
  186.51891 21.0 0
  186.81319 22.0 0
  188.09901 17.0 0
  189.72723 20.0 0
  190.06673 18.0 0
  190.08548 17.0 0
  190.12228 17.0 0
  191.05739 46.0 1
  191.06937 64.0 1
  191.3856 19.0 0
  191.71339 21.0 0
  192.07414 22.0 0
  192.0882 116.0 2
  193.08728 59.0 1
  193.09985 39.0 1
  193.76224 19.0 0
  194.06158 28.0 1
  194.08696 20.0 0
  194.09529 63.0 1
  194.11584 307.0 7
  194.12691 50.0 1
  195.10434 130.0 3
  195.11844 65.0 1
  196.07635 31.0 1
  196.10274 80.0 2
  196.11736 40.0 1
  197.08069 20.0 0
  197.56616 45.0 1
  198.09175 26.0 1
  198.12701 89.0 2
  198.24556 36.0 1
  199.08186 19.0 0
  201.79807 24.0 1
  201.92111 24.0 1
  202.07845 17.0 0
  202.50342 17.0 0
  203.07913 24.0 1
  203.09 18.0 0
  203.78096 17.0 0
  204.08064 210.0 4
  204.09663 17.0 0
  205.07257 20.0 0
  205.09064 374.0 8
  205.1004 93.0 2
  205.82123 18.0 0
  205.89432 30.0 1
  206.07666 35.0 1
  206.09494 317.0 7
  206.10481 116.0 2
  207.07713 25.0 1
  207.10559 139.0 3
  207.11887 24.0 1
  207.98518 34.0 1
  208.07402 28.0 1
  208.11436 412.0 9
  208.46751 21.0 0
  209.10793 144.0 3
  209.12556 172.0 4
  210.10599 62.0 1
  210.11917 60.0 1
  210.13118 131.0 3
  210.45062 20.0 0
  211.1268 72.0 2
  211.14523 21.0 0
  211.26816 17.0 0
  211.67117 20.0 0
  212.11888 165.0 4
  212.13213 1062.0 23
  213.11906 24.0 1
  213.13374 214.0 5
  214.11803 20.0 0
  214.1449 20.0 0
  214.71698 17.0 0
  215.08931 20.0 0
  215.42979 24.0 1
  216.1039 18.0 0
  216.73294 21.0 0
  216.86607 34.0 1
  217.05318 36.0 1
  217.08305 39.0 1
  217.09682 45.0 1
  218.08932 75.0 2
  218.09944 54.0 1
  219.06258 23.0 0
  219.09071 66.0 1
  219.10219 195.0 4
  219.11124 219.0 5
  220.06633 17.0 0
  220.08435 37.0 1
  220.09773 81.0 2
  220.11588 347.0 7
  221.09717 44.0 1
  221.12262 350.0 7
  221.8091 19.0 0
  221.92349 20.0 0
  222.07138 19.0 0
  222.09273 17.0 0
  222.11597 89.0 2
  222.12793 248.0 5
  222.14366 17.0 0
  222.60202 17.0 0
  223.12889 107.0 2
  224.08243 42.0 1
  224.13518 210.0 4
  224.14745 119.0 3
  225.12856 22.0 0
  225.14928 92.0 2
  227.14944 20.0 0
  227.94151 32.0 1
  228.11584 32.0 1
  228.95413 20.0 0
  229.10121 56.0 1
  230.09067 62.0 1
  231.12285 33.0 1
  232.11049 57.0 1
  232.12016 99.0 2
  233.07538 25.0 1
  233.12234 87.0 2
  233.5636 21.0 0
  234.08676 42.0 1
  234.10393 20.0 0
  234.12251 500.0 11
  234.13557 402.0 9
  234.55832 17.0 0
  235.09061 44.0 1
  235.10193 25.0 1
  235.12976 273.0 6
  235.14774 34.0 1
  236.106 17.0 0
  236.13327 188.0 4
  236.14597 151.0 3
  236.15393 128.0 3
  236.16719 35.0 1
  237.0752 168.0 4
  237.09703 44.0 1
  237.10794 113.0 2
  237.14037 55.0 1
  237.16237 96.0 2
  238.09509 65.0 1
  238.12875 90.0 2
  238.1476 20.0 0
  238.15376 66.0 1
  238.39604 20.0 0
  238.48894 22.0 0
  239.07036 64.0 1
  239.0829 41.0 1
  239.09633 87.0 2
  239.10811 47.0 1
  239.12135 22.0 0
  239.16478 18.0 0
  239.72691 27.0 1
  240.10291 122.0 3
  240.13312 25.0 1
  242.43474 30.0 1
  243.11215 19.0 0
  244.31232 18.0 0
  246.11745 27.0 1
  246.133 82.0 2
  247.09045 20.0 0
  247.12485 92.0 2
  247.13434 92.0 2
  247.14694 71.0 2
  248.07845 21.0 0
  248.09381 20.0 0
  248.10799 20.0 0
  248.1304 126.0 3
  248.14966 270.0 6
  249.11279 91.0 2
  249.14064 243.0 5
  249.15492 117.0 2
  249.16428 65.0 1
  250.07695 73.0 2
  250.08949 48.0 1
  250.10339 74.0 2
  250.12352 19.0 0
  250.13879 136.0 3
  250.15729 268.0 6
  250.17735 69.0 1
  251.0209 21.0 0
  251.06866 18.0 0
  251.089 63.0 1
  251.10432 75.0 2
  251.11716 53.0 1
  251.16377 38.0 1
  251.99852 18.0 0
  252.08766 61.0 1
  252.1011 161.0 3
  252.1136 46.0 1
  252.14069 17.0 0
  252.16962 55.0 1
  253.10252 45.0 1
  253.11787 213.0 5
  253.14471 33.0 1
  253.16098 24.0 1
  253.18047 46.0 1
  254.10837 56.0 1
  254.12059 70.0 1
  254.13287 20.0 0
  254.19656 32.0 1
  254.2269 56.0 1
  255.10463 47.0 1
  256.54916 30.0 1
  257.40002 29.0 1
  258.17606 20.0 0
  260.13754 66.0 1
  261.10129 18.0 0
  261.61829 34.0 1
  262.08237 23.0 0
  262.09854 29.0 1
  262.12097 108.0 2
  262.14331 116.0 2
  262.17499 20.0 0
  263.09625 17.0 0
  263.11365 24.0 1
  263.12579 24.0 1
  263.14609 19.0 0
  264.0834 60.0 1
  264.10159 630.0 13
  264.13327 17.0 0
  264.14301 18.0 0
  264.27283 20.0 0
  264.96057 20.0 0
  265.03085 18.0 0
  265.10266 323.0 7
  265.11508 500.0 11
  266.0054 19.0 0
  266.09778 56.0 1
  266.11111 386.0 8
  266.12204 249.0 5
  266.14209 38.0 1
  266.19324 18.0 0
  266.78668 17.0 0
  267.09778 26.0 1
  267.12457 425.0 9
  267.13608 200.0 4
  267.15097 25.0 1
  267.18466 17.0 0
  267.43164 23.0 0
  267.59961 24.0 1
  268.12619 646.0 14
  268.13647 629.0 13
  268.1459 268.0 6
  268.25867 18.0 0
  269.09674 25.0 1
  269.12634 36.0 1
  269.13422 107.0 2
  269.14621 86.0 2
  270.14984 17.0 0
  270.15848 42.0 1
  271.73621 19.0 0
  272.39755 22.0 0
  272.70428 35.0 1
  273.68436 24.0 1
  274.12869 21.0 0
  274.14404 18.0 0
  275.11298 33.0 1
  275.12399 47.0 1
  275.13474 38.0 1
  275.27234 32.0 1
  276.06995 18.0 0
  276.10214 87.0 2
  276.12344 136.0 3
  276.13809 99.0 2
  276.1561 17.0 0
  277.09189 17.0 0
  277.1156 27.0 1
  277.13556 193.0 4
  277.15729 96.0 2
  277.1691 288.0 6
  278.09064 18.0 0
  278.11835 380.0 8
  278.12799 159.0 3
  278.15149 73.0 2
  278.17593 168.0 4
  278.18887 114.0 2
  278.19708 52.0 1
  279.02969 17.0 0
  279.09848 17.0 0
  279.11865 315.0 7
  279.12811 391.0 8
  279.13974 220.0 5
  279.15997 23.0 0
  279.18341 50.0 1
  279.93024 22.0 0
  280.03412 26.0 1
  280.04581 26.0 1
  280.08902 82.0 2
  280.134 4328.0 92
  280.16348 40.0 1
  280.78064 29.0 1
  281.09457 17.0 0
  281.10919 22.0 0
  281.13715 1028.0 22
  281.16672 59.0 1
  281.53766 22.0 0
  281.58044 20.0 0
  281.70245 19.0 0
  281.96674 24.0 1
  282.11285 23.0 0
  282.12491 62.0 1
  282.1413 213.0 5
  282.15533 203.0 4
  282.16934 40.0 1
  282.18143 37.0 1
  283.1412 81.0 2
  283.16388 20.0 0
  283.97195 20.0 0
  284.15988 29.0 1
  284.73978 19.0 0
  284.931 25.0 1
  285.70126 18.0 0
  287.39828 38.0 1
  288.13364 22.0 0
  288.5173 30.0 1
  289.12338 27.0 1
  290.10919 61.0 1
  290.12701 124.0 3
  290.13669 78.0 2
  290.4664 18.0 0
  291.11612 48.0 1
  291.1286 190.0 4
  291.14337 95.0 2
  291.37277 19.0 0
  291.76071 17.0 0
  292.12866 274.0 6
  292.14145 256.0 5
  292.16727 21.0 0
  293.13315 119.0 3
  293.14536 203.0 4
  293.17883 18.0 0
  293.63364 17.0 0
  293.94324 18.0 0
  294.06531 20.0 0
  294.09766 18.0 0
  294.11832 87.0 2
  294.15103 4865.0 104
  294.23727 39.0 1
  295.11188 26.0 1
  295.14606 441.0 9
  295.15918 581.0 12
  295.18185 805.0 17
  295.20096 57.0 1
  295.75171 17.0 0
  296.00272 18.0 0
  296.12692 50.0 1
  296.14212 20.0 0
  296.15555 18.0 0
  296.17923 216.0 5
  296.18985 67.0 1
  296.76282 17.0 0
  297.14444 18.0 0
  297.16003 28.0 1
  298.17096 20.0 0
  298.24164 17.0 0
  300.1279 17.0 0
  303.15601 20.0 0
  303.98898 18.0 0
  305.14328 68.0 1
  305.16611 56.0 1
  305.17722 75.0 2
  306.13071 22.0 0
  306.15103 218.0 5
  306.16443 95.0 2
  306.17828 18.0 0
  307.13345 141.0 3
  307.14606 570.0 12
  308.07806 17.0 0
  308.16168 3194.0 68
  309.01581 30.0 1
  309.0546 18.0 0
  309.11685 46.0 1
  309.15005 233.0 5
  309.16742 562.0 12
  309.35785 17.0 0
  309.59564 17.0 0
  310.15823 56.0 1
  310.18658 407.0 9
  310.39499 24.0 1
  311.15802 37.0 1
  311.18307 119.0 3
  312.17947 42.0 1
  312.19348 19.0 0
  317.19757 46.0 1
  317.55978 33.0 1
  319.14462 17.0 0
  319.18964 25.0 1
  319.38211 17.0 0
  320.16187 59.0 1
  320.17606 37.0 1
  321.05518 20.0 0
  321.17157 57.0 1
  321.18427 23.0 0
  322.18066 34.0 1
  322.34735 17.0 0
  322.8945 38.0 1
  322.9472 22.0 0
  323.16476 22.0 0
  323.78165 22.0 0
  324.15384 25.0 1
  325.15414 22.0 0
  325.20062 31.0 1
  326.16919 41.0 1
  326.83038 17.0 0
  327.17068 49.0 1
  327.18683 64.0 1
  332.06418 21.0 0
  337.103 24.0 1
  337.12265 170.0 4
  337.14795 26.0 1
  337.19095 14755.0 315
  337.2431 127.0 3
  337.27405 17.0 0
  337.30869 21.0 0
  337.87177 19.0 0
  338.14246 19.0 0
  338.19336 3348.0 71
  338.23782 33.0 1
  338.45242 18.0 0
  339.03772 18.0 0
  339.18079 82.0 2
  339.19614 342.0 7
  339.21417 74.0 2
  339.60431 19.0 0
  340.19876 55.0 1
  340.27689 18.0 0
  342.33868 18.0 0
  347.146 17.0 0
  348.05365 17.0 0
  348.86719 27.0 1
  349.1886 24.0 1
  349.40179 18.0 0
  353.17874 34.0 1
  353.19522 74.0 2
  353.23022 25.0 1
  353.77673 22.0 0
  353.93015 26.0 1
  354.18515 90.0 2
  354.20395 45.0 1
  354.25 23.0 0
  354.84866 18.0 0
  354.86273 19.0 0
  355.00528 17.0 0
  355.04779 20.0 0
  355.10089 18.0 0
  355.12686 84.0 2
  355.14859 232.0 5
  355.2034 46787.0 999
  355.25626 1212.0 26
  355.28799 18.0 0
  355.30661 34.0 1
//
