ACCESSION: MSBNK-RIKEN-PR310570
RECORD_TITLE: Rinderine; LC-ESI-QTOF; MS2
DATE: 2019.03.28
AUTHORS: Tetsuya Mori, Center for Sustainable Resource Science, RIKEN
LICENSE: CC BY-NC-SA
PUBLICATION: Tsugawa H., Nakabayashi R., Mori T., Yamada Y., Takahashi M., Rai A., Sugiyama R., Yamamoto H., Nakaya T., Yamazaki M., Kooke R., Bac-Molenaar JA., Oztolan-Erol N., Keurentjes JJB., Arita M., Saito K. (2019) "A cheminformatics approach to characterize metabolomes in stable-isotope-labeled organisms" Nature Methods 16(4):295-298. [doi:10.1038/s41592-019-0358-2]
COMMENT: Annotation level-1
CH$NAME: Rinderine
CH$COMPOUND_CLASS: Alkaloids
CH$FORMULA: C15H25NO5
CH$EXACT_MASS: 299.367
CH$SMILES: CC(C)C(O)(C(C)O)C(=O)OCC1=CCN2CCC(O)C12
CH$IUPAC: InChI=1S/C15H25NO5/c1-9(2)15(20,10(3)17)14(19)21-8-11-4-6-16-7-5-12(18)13(11)16/h4,9-10,12-13,17-18,20H,5-8H2,1-3H3
CH$LINK: INCHIKEY SFVVQRJOGUKCEG-UHFFFAOYSA-N
AC$INSTRUMENT: LC, Waters Acquity UPLC System; MS, Waters Xevo G2 Q-Tof
AC$INSTRUMENT_TYPE: LC-ESI-QTOF
AC$MASS_SPECTROMETRY: MS_TYPE MS2
AC$MASS_SPECTROMETRY: ION_MODE POSITIVE
AC$MASS_SPECTROMETRY: COLLISION_ENERGY 6V
AC$MASS_SPECTROMETRY: DESOLVATION_GAS_FLOW 800/h
AC$MASS_SPECTROMETRY: DESOLVATION_TEMPERATURE 450 C
AC$MASS_SPECTROMETRY: IONIZATION ESI
AC$CHROMATOGRAPHY: CAPILLARY_VOLTAGE +3.00 kV
AC$CHROMATOGRAPHY: COLUMN_NAME Acquity bridged ethyl hybrid C18 (1.7 um, 2.1 mm * 100 mm, Waters)
AC$CHROMATOGRAPHY: COLUMN_TEMPERATURE 40 C
AC$CHROMATOGRAPHY: FLOW_GRADIENT A/B = (99.5%/0.5% at 0 min, 99.5%/0.5% at 0.1 min, 20%/80% at 10 min, 0.5%/99.5% at 10.1 min, 0.5%/99.5% at 12.0 min, 99.5%/0.5% at 12.1 min, 99.5%/0.5% at 15.0 min)
AC$CHROMATOGRAPHY: FLOW_RATE 0.3 ml/min at 0 min, 0.3 ml/min at 10 min, 0.4 ml/min at 10.1 min, 0.4 ml/min at 14.4 min, 0.3 ml/min at 14.5 min
AC$CHROMATOGRAPHY: RETENTION_TIME 2.75
AC$CHROMATOGRAPHY: SOLVENT A water including 0.1% formic acid
AC$CHROMATOGRAPHY: SOLVENT B acetonitrile including 0.1% formic acid
MS$FOCUSED_ION: PRECURSOR_TYPE [M+H]+
MS$FOCUSED_ION: PRECURSOR_M/Z 300.18055
PK$SPLASH: splash10-0udi-1509000000-6cfedb32161cd0f6641d
PK$NUM_PEAK: 121
PK$PEAK: m/z int. rel.int.
  67.05303 66.0 2
  67.05907 21.0 1
  68.05069 41.0 2
  73.06293 30.0 1
  78.04082 46.0 2
  80.04276 22.0 1
  80.05038 134.0 5
  80.05602 45.0 2
  80.36929 37.0 1
  81.04039 21.0 1
  81.05611 29.0 1
  81.06609 20.0 1
  82.05737 36.0 1
  82.06445 266.0 10
  83.07248 29.0 1
  84.0482 21.0 1
  85.06293 33.0 1
  86.0543 25.0 1
  86.06201 22.0 1
  90.36059 17.0 1
  91.05267 72.0 3
  92.05224 48.0 2
  93.06789 37.0 1
  94.04235 22.0 1
  94.06667 872.0 33
  95.07398 415.0 16
  96.08147 910.0 34
  97.08445 84.0 3
  97.09086 21.0 1
  98.05695 19.0 1
  103.05797 52.0 2
  106.04887 27.0 1
  106.06311 18.0 1
  108.07804 237.0 9
  108.08455 111.0 4
  109.04062 25.0 1
  109.06268 37.0 1
  110.06017 85.0 3
  110.10334 17.0 1
  112.07011 17.0 1
  112.07814 82.0 3
  113.55662 28.0 1
  117.09022 40.0 1
  118.06709 85.0 3
  119.06905 47.0 2
  119.07555 17.0 1
  120.05049 29.0 1
  120.08152 1943.0 73
  121.0604 58.0 2
  121.07579 20.0 1
  121.08793 163.0 6
  122.09539 22.0 1
  122.10469 20.0 1
  123.63332 17.0 1
  125.05249 17.0 1
  126.08379 18.0 1
  127.09647 25.0 1
  129.28423 25.0 1
  137.6302 17.0 1
  138.02647 17.0 1
  138.05344 57.0 2
  138.06776 22.0 1
  138.09175 7519.0 282
  138.71918 18.0 1
  139.07729 18.0 1
  139.09785 1594.0 60
  139.12079 18.0 1
  140.09741 89.0 3
  140.10735 117.0 4
  140.63385 20.0 1
  141.10667 26.0 1
  142.34123 17.0 1
  142.48285 19.0 1
  143.229 20.0 1
  156.1022 3936.0 148
  156.12408 18.0 1
  157.1039 536.0 20
  157.12863 24.0 1
  157.15482 21.0 1
  157.79985 22.0 1
  158.09843 17.0 1
  159.10837 24.0 1
  159.39268 17.0 1
  163.80467 18.0 1
  166.12662 18.0 1
  169.47232 17.0 1
  182.30127 28.0 1
  183.3239 18.0 1
  188.21367 17.0 1
  190.77132 27.0 1
  191.05209 32.0 1
  198.73997 18.0 1
  199.91663 33.0 1
  207.379 38.0 1
  208.17781 24.0 1
  210.14238 48.0 2
  210.15698 18.0 1
  215.8513 24.0 1
  223.09042 30.0 1
  235.10298 20.0 1
  236.16411 105.0 4
  244.22325 26.0 1
  256.14297 58.0 2
  256.15161 150.0 6
  256.16495 33.0 1
  260.00253 20.0 1
  264.16168 27.0 1
  278.79489 41.0 2
  282.15756 21.0 1
  282.17264 85.0 3
  283.17081 20.0 1
  290.43317 18.0 1
  296.04575 20.0 1
  298.68591 18.0 1
  299.15176 17.0 1
  299.88641 25.0 1
  300.08365 38.0 1
  300.10117 25.0 1
  300.13568 83.0 3
  300.18161 26651.0 999
  300.23053 555.0 21
//
