ACCESSION: MSBNK-RIKEN-PR310981
RECORD_TITLE: Flavone base + 4O, C-Hex-Hex; LC-ESI-QTOF; MS2
DATE: 2019.03.28
AUTHORS: Tetsuya Mori, Center for Sustainable Resource Science, RIKEN
LICENSE: CC BY-NC-SA
PUBLICATION: Tsugawa H., Nakabayashi R., Mori T., Yamada Y., Takahashi M., Rai A., Sugiyama R., Yamamoto H., Nakaya T., Yamazaki M., Kooke R., Bac-Molenaar JA., Oztolan-Erol N., Keurentjes JJB., Arita M., Saito K. (2019) "A cheminformatics approach to characterize metabolomes in stable-isotope-labeled organisms" Nature Methods 16(4):295-298. [doi:10.1038/s41592-019-0358-2]
COMMENT: Annotation level-3
CH$NAME: Flavone base + 4O, C-Hex-Hex
CH$COMPOUND_CLASS: Flavone C-glycosides
CH$FORMULA: C27H30O16
CH$EXACT_MASS: 610.521
CH$SMILES: O=C1C=C(OC=2C=C(O)C(=C(O)C1=2)C4OC(CO)C(O)C(O)C4(OC3OC(CO)C(O)C(O)C3(O)))C5=CC=C(O)C(O)=C5
CH$IUPAC: InChI=1S/C27H30O16/c28-6-15-20(35)23(38)26(43-27-24(39)22(37)19(34)16(7-29)42-27)25(41-15)18-12(33)5-14-17(21(18)36)11(32)4-13(40-14)8-1-2-9(30)10(31)3-8/h1-5,15-16,19-20,22-31,33-39H,6-7H2
CH$LINK: INCHIKEY QWAZWXOCSOFIPS-UHFFFAOYSA-N
AC$INSTRUMENT: LC, Waters Acquity UPLC System; MS, Waters Xevo G2 Q-Tof
AC$INSTRUMENT_TYPE: LC-ESI-QTOF
AC$MASS_SPECTROMETRY: MS_TYPE MS2
AC$MASS_SPECTROMETRY: ION_MODE POSITIVE
AC$MASS_SPECTROMETRY: COLLISION_ENERGY 6V
AC$MASS_SPECTROMETRY: DESOLVATION_GAS_FLOW 800/h
AC$MASS_SPECTROMETRY: DESOLVATION_TEMPERATURE 450 C
AC$MASS_SPECTROMETRY: IONIZATION ESI
AC$CHROMATOGRAPHY: CAPILLARY_VOLTAGE +3.00 kV
AC$CHROMATOGRAPHY: COLUMN_NAME Acquity bridged ethyl hybrid C18 (1.7 um, 2.1 mm * 100 mm, Waters)
AC$CHROMATOGRAPHY: COLUMN_TEMPERATURE 40 C
AC$CHROMATOGRAPHY: FLOW_GRADIENT A/B = (99.5%/0.5% at 0 min, 99.5%/0.5% at 0.1 min, 20%/80% at 10 min, 0.5%/99.5% at 10.1 min, 0.5%/99.5% at 12.0 min, 99.5%/0.5% at 12.1 min, 99.5%/0.5% at 15.0 min)
AC$CHROMATOGRAPHY: FLOW_RATE 0.3 ml/min at 0 min, 0.3 ml/min at 10 min, 0.4 ml/min at 10.1 min, 0.4 ml/min at 14.4 min, 0.3 ml/min at 14.5 min
AC$CHROMATOGRAPHY: RETENTION_TIME 3.44
AC$CHROMATOGRAPHY: SOLVENT A water including 0.1% formic acid
AC$CHROMATOGRAPHY: SOLVENT B acetonitrile including 0.1% formic acid
MS$FOCUSED_ION: PRECURSOR_TYPE [M+H]+
MS$FOCUSED_ION: PRECURSOR_M/Z 611.1594
PK$SPLASH: splash10-03dj-0029505000-c15e5a1bd3ad67498bc0
PK$NUM_PEAK: 207
PK$PEAK: m/z int. rel.int.
  85.02815 16.0 2
  103.04253 20.0 2
  109.03977 18.0 2
  127.03109 19.0 2
  127.04501 52.0 6
  129.04437 20.0 2
  137.0258 29.0 3
  197.06264 21.0 2
  200.28311 24.0 3
  209.91315 23.0 3
  211.25833 18.0 2
  224.27991 18.0 2
  227.92529 21.0 2
  235.24706 56.0 7
  237.57782 25.0 3
  240.36864 23.0 3
  243.02454 19.0 2
  256.07532 20.0 2
  263.05658 16.0 2
  265.11124 16.0 2
  269.04462 25.0 3
  270.03629 18.0 2
  278.02875 21.0 2
  283.03793 21.0 2
  283.04782 46.0 5
  283.06647 20.0 2
  284.06049 17.0 2
  287.04007 54.0 6
  287.05869 149.0 18
  288.0614 17.0 2
  293.1199 65.0 8
  295.04623 51.0 6
  295.13086 16.0 2
  297.06363 19.0 2
  297.07755 20.0 2
  297.08917 30.0 4
  298.05304 18.0 2
  298.97156 17.0 2
  299.02466 60.0 7
  299.05661 2659.0 314
  300.01349 21.0 2
  300.05331 410.0 48
  300.06644 289.0 34
  300.08328 40.0 5
  300.21814 23.0 3
  301.05222 17.0 2
  302.0687 25.0 3
  306.11746 21.0 2
  311.04565 54.0 6
  311.0593 126.0 15
  312.88287 18.0 2
  313.0603 37.0 4
  313.07477 19.0 2
  316.00369 44.0 5
  321.073 16.0 2
  322.79214 21.0 2
  323.06604 18.0 2
  324.06479 24.0 3
  324.99362 28.0 3
  325.01559 16.0 2
  325.02783 18.0 2
  325.05142 52.0 6
  325.07529 262.0 31
  326.0495 30.0 4
  326.07077 40.0 5
  326.10034 27.0 3
  326.42673 16.0 2
  327.03162 34.0 4
  327.05551 16.0 2
  327.07806 22.0 3
  327.94067 22.0 3
  328.04764 21.0 2
  328.06647 17.0 2
  329.0275 78.0 9
  329.06583 3318.0 392
  329.42072 17.0 2
  329.64719 27.0 3
  329.90103 18.0 2
  330.00784 17.0 2
  330.01849 23.0 3
  330.06696 980.0 116
  330.08591 112.0 13
  331.06873 53.0 6
  331.09402 16.0 2
  331.46649 30.0 4
  339.04993 16.0 2
  339.08322 409.0 48
  340.07074 76.0 9
  340.09851 17.0 2
  340.63864 20.0 2
  341.03857 20.0 2
  341.08392 23.0 3
  341.11441 24.0 3
  349.05942 30.0 4
  349.07443 17.0 2
  351.07513 20.0 2
  352.01337 16.0 2
  353.00076 17.0 2
  353.01978 49.0 6
  353.06775 1911.0 226
  354.03055 39.0 5
  354.06808 455.0 54
  354.0856 64.0 8
  355.069 36.0 4
  355.08142 80.0 9
  355.09894 25.0 3
  356.07422 18.0 2
  356.08664 17.0 2
  365.02884 83.0 10
  365.07281 206.0 24
  366.01871 32.0 4
  366.05338 68.0 8
  366.0798 70.0 8
  367.05936 17.0 2
  367.08182 123.0 15
  367.12997 16.0 2
  368.06381 16.0 2
  368.07553 22.0 3
  368.09918 17.0 2
  368.48987 20.0 2
  370.052 37.0 4
  373.28421 26.0 3
  377.06467 386.0 46
  377.07965 86.0 10
  378.0705 155.0 18
  378.09122 19.0 2
  382.06888 16.0 2
  383.0773 1240.0 146
  384.07916 357.0 42
  384.39255 24.0 3
  385.06665 16.0 2
  385.08041 49.0 6
  385.09335 21.0 2
  386.0632 16.0 2
  386.07932 35.0 4
  394.06519 16.0 2
  394.99582 17.0 2
  395.03265 17.0 2
  395.07855 838.0 99
  396.07471 207.0 24
  396.99564 16.0 2
  397.08133 20.0 2
  397.72952 30.0 4
  400.51401 19.0 2
  407.9068 17.0 2
  412.83148 16.0 2
  413.07617 241.0 28
  413.09338 436.0 52
  413.16403 16.0 2
  413.95096 56.0 7
  414.01874 38.0 4
  414.08966 343.0 41
  415.09415 58.0 7
  416.09393 44.0 5
  425.45862 30.0 4
  431.02066 34.0 4
  431.06406 70.0 8
  431.08469 410.0 48
  431.1008 588.0 69
  432.06125 27.0 3
  432.08127 57.0 7
  432.10022 271.0 32
  432.12131 39.0 5
  432.99292 18.0 2
  433.0899 16.0 2
  433.1076 36.0 4
  434.1116 27.0 3
  436.39438 26.0 3
  447.08517 84.0 10
  448.0932 20.0 2
  448.11731 27.0 3
  448.69193 21.0 2
  449.02444 16.0 2
  449.03638 65.0 8
  449.07004 96.0 11
  449.10767 4141.0 489
  449.15894 17.0 2
  450.03561 17.0 2
  450.06317 68.0 8
  450.11481 1043.0 123
  451.03485 19.0 2
  451.10028 104.0 12
  451.11914 180.0 21
  451.14325 16.0 2
  452.10037 43.0 5
  452.13394 23.0 3
  472.60989 20.0 2
  491.09662 39.0 5
  493.68039 28.0 3
  543.71289 18.0 2
  566.02625 16.0 2
  567.80078 31.0 4
  575.12268 21.0 2
  593.15417 49.0 6
  593.91925 32.0 4
  593.94971 20.0 2
  594.15161 17.0 2
  609.03314 16.0 2
  609.12402 18.0 2
  609.57538 18.0 2
  609.92444 20.0 2
  610.15887 18.0 2
  611.02448 16.0 2
  611.065 71.0 8
  611.10394 112.0 13
  611.1615 8457.0 999
  611.20734 22.0 3
//
