ACCESSION: MSBNK-RIKEN-PR302116
RECORD_TITLE: Biochanin A; LC-ESI-QTOF; MS2
DATE: 2019.03.28
AUTHORS: Tetsuya Mori, Center for Sustainable Resource Science, RIKEN
LICENSE: CC BY-NC-SA
PUBLICATION: Tsugawa H., Nakabayashi R., Mori T., Yamada Y., Takahashi M., Rai A., Sugiyama R., Yamamoto H., Nakaya T., Yamazaki M., Kooke R., Bac-Molenaar JA., Oztolan-Erol N., Keurentjes JJB., Arita M., Saito K. (2019) "A cheminformatics approach to characterize metabolomes in stable-isotope-labeled organisms" Nature Methods 16(4):295-298. [doi:10.1038/s41592-019-0358-2]
COMMENT: registered in RIKEN PlaSMA
CH$NAME: Biochanin A
CH$COMPOUND_CLASS: 4'-O-methylisoflavones
CH$FORMULA: C16H12O5
CH$EXACT_MASS: 284.267
CH$SMILES: COC1=CC=C(C=C1)C1=COC2=CC(O)=CC(O)=C2C1=O
CH$IUPAC: InChI=1S/C16H12O5/c1-20-11-4-2-9(3-5-11)12-8-21-14-7-10(17)6-13(18)15(14)16(12)19/h2-8,17-18H,1H3
CH$LINK: INCHIKEY WUADCCWRTIWANL-UHFFFAOYSA-N
AC$INSTRUMENT: LC, Waters Acquity UPLC System; MS, Waters Xevo G2 Q-Tof
AC$INSTRUMENT_TYPE: LC-ESI-QTOF
AC$MASS_SPECTROMETRY: MS_TYPE MS2
AC$MASS_SPECTROMETRY: ION_MODE POSITIVE
AC$MASS_SPECTROMETRY: COLLISION_ENERGY 6V
AC$MASS_SPECTROMETRY: DESOLVATION_GAS_FLOW 800/h
AC$MASS_SPECTROMETRY: DESOLVATION_TEMPERATURE 450 C
AC$MASS_SPECTROMETRY: IONIZATION ESI
AC$CHROMATOGRAPHY: CAPILLARY_VOLTAGE +3.00 kV
AC$CHROMATOGRAPHY: COLUMN_NAME Acquity bridged ethyl hybrid C18 (1.7 um, 2.1 mm * 100 mm, Waters)
AC$CHROMATOGRAPHY: COLUMN_TEMPERATURE 40 C
AC$CHROMATOGRAPHY: FLOW_GRADIENT A/B = (99.5%/0.5% at 0 min, 99.5%/0.5% at 0.1 min, 20%/80% at 10 min, 0.5%/99.5% at 10.1 min, 0.5%/99.5% at 12.0 min, 99.5%/0.5% at 12.1 min, 99.5%/0.5% at 15.0 min)
AC$CHROMATOGRAPHY: FLOW_RATE 0.3 ml/min at 0 min, 0.3 ml/min at 10 min, 0.4 ml/min at 10.1 min, 0.4 ml/min at 14.4 min, 0.3 ml/min at 14.5 min
AC$CHROMATOGRAPHY: RETENTION_TIME 7.6348
AC$CHROMATOGRAPHY: SOLVENT A water including 0.1% formic acid
AC$CHROMATOGRAPHY: SOLVENT B acetonitrile including 0.1% formic acid
MS$FOCUSED_ION: PRECURSOR_TYPE [M+H]+
MS$FOCUSED_ION: PRECURSOR_M/Z 285.0757499
PK$SPLASH: splash10-03di-1920000000-fec9cf9f9903a81e6173
PK$NUM_PEAK: 192
PK$PEAK: m/z int. rel.int.
  63.02056 28.0 28
  67.02094 15.0 15
  69.00146 12.0 12
  71.69643 10.0 10
  77.03783 43.0 43
  78.01032 53.0 53
  78.04465 50.0 50
  80.00108 12.0 12
  83.01048 14.0 14
  85.00787 22.0 22
  89.03288 44.0 44
  89.03876 98.0 98
  90.03256 18.0 18
  90.04648 267.0 267
  90.67812 11.0 11
  90.86814 11.0 11
  91.0473 21.0 21
  91.05169 61.0 61
  91.05658 67.0 67
  92.03051 18.0 18
  93.02408 15.0 15
  95.01308 14.0 14
  96.00198 30.0 30
  96.01947 159.0 159
  97.02811 20.0 20
  102.04623 162.0 162
  103.0534 85.0 85
  104.05553 11.0 11
  105.03374 42.0 42
  105.06033 15.0 15
  106.03947 17.0 17
  106.0446 17.0 17
  106.3121 10.0 10
  107.04742 30.0 30
  108.02 37.0 37
  109.02761 16.0 16
  109.06396 20.0 20
  111.01044 33.0 33
  114.03461 14.0 14
  114.0507 22.0 22
  115.05508 326.0 326
  116.04027 17.0 17
  116.04646 13.0 13
  116.05972 111.0 111
  116.9362 14.0 14
  117.41736 13.0 13
  118.03957 36.0 36
  118.04574 91.0 91
  119.03933 17.0 17
  119.04822 10.0 10
  120.05247 14.0 14
  121.02617 26.0 26
  121.05208 26.0 26
  122.02275 17.0 17
  123.04605 26.0 26
  123.99852 37.0 37
  124.01586 222.0 222
  125.65406 22.0 22
  126.01014 18.0 18
  126.04706 18.0 18
  127.04629 20.0 20
  127.05521 133.0 133
  128.05978 82.0 82
  128.06564 99.0 99
  129.0677 136.0 136
  130.03929 187.0 187
  130.07634 13.0 13
  131.04637 80.0 80
  132.05159 17.0 17
  132.0578 22.0 22
  134.03465 23.0 23
  135.01164 11.0 11
  135.04573 29.0 29
  136.04904 18.0 18
  137.02219 17.0 17
  138.0462 20.0 20
  139.05295 225.0 225
  139.06229 35.0 35
  140.0067 12.0 12
  140.05257 13.0 13
  140.06265 50.0 50
  141.05736 15.0 15
  141.06938 227.0 227
  142.03798 24.0 24
  143.03262 21.0 21
  143.04443 147.0 147
  143.05168 34.0 34
  143.84572 10.0 10
  144.0544 50.0 50
  145.02325 19.0 19
  145.04303 17.0 17
  145.05759 131.0 131
  145.07135 40.0 40
  146.01915 20.0 20
  146.06787 21.0 21
  146.17801 17.0 17
  147.04645 29.0 29
  149.02711 16.0 16
  150.03889 12.0 12
  150.06378 22.0 22
  151.05684 33.0 33
  152.00772 85.0 85
  152.01355 79.0 79
  152.04951 20.0 20
  152.06042 78.0 78
  153.01628 289.0 289
  154.01248 37.0 37
  154.02747 23.0 23
  154.07349 14.0 14
  155.04787 26.0 26
  155.0555 15.0 15
  156.056 18.0 18
  156.0681 11.0 11
  157.02107 10.0 10
  157.05237 20.0 20
  157.06427 170.0 170
  158.03436 46.0 46
  158.0416 12.0 12
  158.07129 56.0 56
  158.28911 12.0 12
  158.55043 15.0 15
  159.02649 20.0 20
  159.03726 35.0 35
  159.0844 20.0 20
  160.04976 26.0 26
  161.10237 12.0 12
  162.0558 12.0 12
  165.07423 17.0 17
  167.04218 32.0 32
  167.05499 32.0 32
  168.06081 75.0 75
  169.06218 90.0 90
  170.59383 11.0 11
  170.98643 15.0 15
  171.04367 154.0 154
  171.05975 12.0 12
  171.08278 23.0 23
  172.05202 34.0 34
  173.02432 12.0 12
  173.05417 10.0 10
  174.06754 15.0 15
  175.03899 29.0 29
  177.0145 16.0 16
  182.08 29.0 29
  183.04713 56.0 56
  184.05211 101.0 101
  185.05202 92.0 92
  185.06367 197.0 197
  186.06467 19.0 19
  187.03482 45.0 45
  187.05162 13.0 13
  187.0686 12.0 12
  187.16695 19.0 19
  192.04231 16.0 16
  193.19667 24.0 24
  195.02264 40.0 40
  195.04396 56.0 56
  195.05409 22.0 22
  196.05309 37.0 37
  197.05658 96.0 96
  198.06265 13.0 13
  199.03839 20.0 20
  200.04861 50.0 50
  201.05365 24.0 24
  201.42218 10.0 10
  203.0345 15.0 15
  205.12245 18.0 18
  212.01636 13.0 13
  212.04463 48.0 48
  212.05276 66.0 66
  212.97874 18.0 18
  213.01488 12.0 12
  213.05289 1000.0 999
  214.06345 155.0 155
  215.03471 26.0 26
  215.05284 36.0 36
  216.04076 59.0 59
  225.05815 86.0 86
  241.04689 79.0 79
  241.05754 108.0 108
  242.04172 46.0 46
  242.0529 42.0 42
  243.06725 14.0 14
  243.07646 14.0 14
  252.04703 15.0 15
  253.0318 14.0 14
  253.0537 13.0 13
  253.06354 15.0 15
  254.05228 37.0 37
  269.03937 48.0 48
  270.04099 16.0 16
  270.05457 14.0 14
//
