ACCESSION: MSBNK-RIKEN-PR304511
RECORD_TITLE: Hydroxygardnutine; LC-ESI-QTOF; MS2
DATE: 2019.03.28
AUTHORS: Tetsuya Mori, Center for Sustainable Resource Science, RIKEN
LICENSE: CC BY-NC-SA
PUBLICATION: Tsugawa H., Nakabayashi R., Mori T., Yamada Y., Takahashi M., Rai A., Sugiyama R., Yamamoto H., Nakaya T., Yamazaki M., Kooke R., Bac-Molenaar JA., Oztolan-Erol N., Keurentjes JJB., Arita M., Saito K. (2019) "A cheminformatics approach to characterize metabolomes in stable-isotope-labeled organisms" Nature Methods 16(4):295-298. [doi:10.1038/s41592-019-0358-2]
COMMENT: registered in RIKEN PlaSMA
CH$NAME: Hydroxygardnutine
CH$COMPOUND_CLASS: Macroline alkaloids
CH$FORMULA: C20H22N2O3
CH$EXACT_MASS: 338.407
CH$SMILES: COC1=CC2=C(C=C1)C1=C(N2)C2CC3C4COC1C4N2CC3=CCO
CH$IUPAC: InChI=1S/C20H22N2O3/c1-24-11-2-3-12-15(6-11)21-18-16-7-13-10(4-5-23)8-22(16)19-14(13)9-25-20(19)17(12)18/h2-4,6,13-14,16,19-21,23H,5,7-9H2,1H3
CH$LINK: INCHIKEY OUONWRIEOZGMSQ-UHFFFAOYSA-N
AC$INSTRUMENT: LC, Waters Acquity UPLC System; MS, Waters Xevo G2 Q-Tof
AC$INSTRUMENT_TYPE: LC-ESI-QTOF
AC$MASS_SPECTROMETRY: MS_TYPE MS2
AC$MASS_SPECTROMETRY: ION_MODE NEGATIVE
AC$MASS_SPECTROMETRY: COLLISION_ENERGY 6V
AC$MASS_SPECTROMETRY: DESOLVATION_GAS_FLOW 800/h
AC$MASS_SPECTROMETRY: DESOLVATION_TEMPERATURE 450 C
AC$MASS_SPECTROMETRY: IONIZATION ESI
AC$CHROMATOGRAPHY: CAPILLARY_VOLTAGE -2.75 kV
AC$CHROMATOGRAPHY: COLUMN_NAME Acquity bridged ethyl hybrid C18 (1.7 um, 2.1 mm * 100 mm, Waters)
AC$CHROMATOGRAPHY: COLUMN_TEMPERATURE 40 C
AC$CHROMATOGRAPHY: FLOW_GRADIENT A/B = (99.5%/0.5% at 0 min, 99.5%/0.5% at 0.1 min, 20%/80% at 10 min, 0.5%/99.5% at 10.1 min, 0.5%/99.5% at 12.0 min, 99.5%/0.5% at 12.1 min, 99.5%/0.5% at 15.0 min)
AC$CHROMATOGRAPHY: FLOW_RATE 0.3 ml/min at 0 min, 0.3 ml/min at 10 min, 0.4 ml/min at 10.1 min, 0.4 ml/min at 14.4 min, 0.3 ml/min at 14.5 min
AC$CHROMATOGRAPHY: RETENTION_TIME 3.605183
AC$CHROMATOGRAPHY: SOLVENT A water including 0.1% formic acid
AC$CHROMATOGRAPHY: SOLVENT B acetonitrile including 0.1% formic acid
MS$FOCUSED_ION: PRECURSOR_TYPE [M+HCOO]-
MS$FOCUSED_ION: PRECURSOR_M/Z 383.16124545183
PK$SPLASH: splash10-000i-0109000000-3e6380b9c17eacae5eec
PK$NUM_PEAK: 21
PK$PEAK: m/z int. rel.int.
  75.54763 23.0 23
  170.06064 22.0 22
  181.05722 17.0 17
  196.05824 19.0 19
  196.06523 35.0 35
  197.07176 97.0 97
  198.0733 23.0 23
  211.08658 23.0 23
  248.09204 32.0 32
  277.09256 22.0 22
  277.11044 17.0 17
  292.12659 23.0 23
  294.14246 50.0 50
  308.35001 19.0 19
  309.1615 25.0 25
  322.13315 172.0 172
  323.13547 23.0 23
  337.15616 1000.0 999
  338.15768 261.0 261
  338.1817 23.0 23
  383.14841 26.0 26
//
