ACCESSION: MSBNK-RIKEN-PR310627
RECORD_TITLE: Voacristine; LC-ESI-QTOF; MS2
DATE: 2019.03.28
AUTHORS: Tetsuya Mori, Center for Sustainable Resource Science, RIKEN
LICENSE: CC BY-NC-SA
PUBLICATION: Tsugawa H., Nakabayashi R., Mori T., Yamada Y., Takahashi M., Rai A., Sugiyama R., Yamamoto H., Nakaya T., Yamazaki M., Kooke R., Bac-Molenaar JA., Oztolan-Erol N., Keurentjes JJB., Arita M., Saito K. (2019) "A cheminformatics approach to characterize metabolomes in stable-isotope-labeled organisms" Nature Methods 16(4):295-298. [doi:10.1038/s41592-019-0358-2]
COMMENT: Annotation level-1
CH$NAME: Voacristine
CH$COMPOUND_CLASS: Alkaloids
CH$FORMULA: C22H28N2O4
CH$EXACT_MASS: 384.476
CH$SMILES: COC(=O)C12CC3CC(C(C)O)C1N(C3)CCC1=C2NC2=CC=C(OC)C=C12
CH$IUPAC: InChI=1S/C22H28N2O4/c1-12(25)16-8-13-10-22(21(26)28-3)19-15(6-7-24(11-13)20(16)22)17-9-14(27-2)4-5-18(17)23-19/h4-5,9,12-13,16,20,23,25H,6-8,10-11H2,1-3H3
CH$LINK: INCHIKEY OYMQKBZMKFJPMH-UHFFFAOYSA-N
AC$INSTRUMENT: LC, Waters Acquity UPLC System; MS, Waters Xevo G2 Q-Tof
AC$INSTRUMENT_TYPE: LC-ESI-QTOF
AC$MASS_SPECTROMETRY: MS_TYPE MS2
AC$MASS_SPECTROMETRY: ION_MODE POSITIVE
AC$MASS_SPECTROMETRY: COLLISION_ENERGY 6V
AC$MASS_SPECTROMETRY: DESOLVATION_GAS_FLOW 800/h
AC$MASS_SPECTROMETRY: DESOLVATION_TEMPERATURE 450 C
AC$MASS_SPECTROMETRY: IONIZATION ESI
AC$CHROMATOGRAPHY: CAPILLARY_VOLTAGE +3.00 kV
AC$CHROMATOGRAPHY: COLUMN_NAME Acquity bridged ethyl hybrid C18 (1.7 um, 2.1 mm * 100 mm, Waters)
AC$CHROMATOGRAPHY: COLUMN_TEMPERATURE 40 C
AC$CHROMATOGRAPHY: FLOW_GRADIENT A/B = (99.5%/0.5% at 0 min, 99.5%/0.5% at 0.1 min, 20%/80% at 10 min, 0.5%/99.5% at 10.1 min, 0.5%/99.5% at 12.0 min, 99.5%/0.5% at 12.1 min, 99.5%/0.5% at 15.0 min)
AC$CHROMATOGRAPHY: FLOW_RATE 0.3 ml/min at 0 min, 0.3 ml/min at 10 min, 0.4 ml/min at 10.1 min, 0.4 ml/min at 14.4 min, 0.3 ml/min at 14.5 min
AC$CHROMATOGRAPHY: RETENTION_TIME 4.61
AC$CHROMATOGRAPHY: SOLVENT A water including 0.1% formic acid
AC$CHROMATOGRAPHY: SOLVENT B acetonitrile including 0.1% formic acid
MS$FOCUSED_ION: PRECURSOR_TYPE [M+H]+
MS$FOCUSED_ION: PRECURSOR_M/Z 385.21218
PK$SPLASH: splash10-000i-0129000000-27f2e324959b1956d3c7
PK$NUM_PEAK: 732
PK$PEAK: m/z int. rel.int.
  67.05544 33.0 0
  68.04795 23.0 0
  77.01954 26.0 0
  82.07128 32.0 0
  83.95536 25.0 0
  87.04761 30.0 0
  91.04808 28.0 0
  91.05494 84.0 1
  93.05049 27.0 0
  93.07171 132.0 2
  94.06615 31.0 0
  95.09369 30.0 0
  96.08024 69.0 1
  96.24556 45.0 1
  98.09004 46.0 1
  99.10497 17.0 0
  101.78525 17.0 0
  106.06519 24.0 0
  107.07095 37.0 0
  107.08355 36.0 0
  107.08878 103.0 1
  107.11756 30.0 0
  107.28803 24.0 0
  108.04282 17.0 0
  108.05137 42.0 1
  108.07964 125.0 2
  108.09826 27.0 0
  109.08166 18.0 0
  109.0983 22.0 0
  110.08853 18.0 0
  110.09944 214.0 3
  111.11153 21.0 0
  119.08733 114.0 1
  120.06352 18.0 0
  120.08175 151.0 2
  121.08707 76.0 1
  121.10181 18.0 0
  122.0732 18.0 0
  122.09467 677.0 9
  124.1225 38.0 0
  125.12531 26.0 0
  126.05539 22.0 0
  127.39691 23.0 0
  129.07214 97.0 1
  131.04868 20.0 0
  131.07289 27.0 0
  132.04359 28.0 0
  132.06276 19.0 0
  132.07587 110.0 1
  133.08044 20.0 0
  133.09734 55.0 1
  133.57202 21.0 0
  134.06558 24.0 0
  134.07138 42.0 1
  134.09578 97.0 1
  134.10194 28.0 0
  135.08977 53.0 1
  135.10484 306.0 4
  136.08643 18.0 0
  136.11241 2475.0 32
  136.1268 28.0 0
  137.06165 78.0 1
  137.08784 51.0 1
  137.11377 37.0 0
  137.12386 17.0 0
  140.06508 25.0 0
  141.06155 29.0 0
  142.02901 42.0 1
  143.05701 17.0 0
  143.07056 142.0 2
  144.07941 27.0 0
  145.04982 25.0 0
  145.06042 18.0 0
  146.07256 111.0 1
  146.09491 54.0 1
  147.08527 120.0 2
  147.09572 55.0 1
  147.10672 35.0 0
  148.06834 30.0 0
  148.07834 87.0 1
  148.10985 519.0 7
  149.11502 94.0 1
  149.12132 143.0 2
  150.91275 48.0 1
  154.06693 36.0 0
  154.11464 30.0 0
  154.37289 56.0 1
  155.07285 143.0 2
  156.0771 27.0 0
  156.08487 35.0 0
  158.06425 26.0 0
  158.07626 60.0 1
  158.09398 194.0 2
  158.10281 173.0 2
  159.04092 23.0 0
  159.06206 109.0 1
  159.07251 125.0 2
  159.09369 32.0 0
  159.10803 40.0 1
  159.96606 22.0 0
  160.02052 33.0 0
  160.06213 32.0 0
  160.07433 195.0 2
  160.0847 79.0 1
  161.0661 80.0 1
  162.08212 39.0 0
  162.0974 123.0 2
  166.0834 24.0 0
  167.05885 32.0 0
  167.07188 61.0 1
  168.0699 59.0 1
  168.08092 28.0 0
  168.0901 29.0 0
  169.07933 24.0 0
  169.08948 55.0 1
  169.0993 22.0 0
  170.05827 20.0 0
  170.08481 23.0 0
  171.06975 95.0 1
  171.09453 56.0 1
  171.78125 29.0 0
  172.07411 177.0 2
  173.0713 20.0 0
  173.08453 30.0 0
  174.04581 25.0 0
  174.07147 46.0 1
  174.0916 2170.0 28
  174.12523 36.0 0
  174.67773 36.0 0
  174.82271 24.0 0
  175.06805 18.0 0
  175.082 32.0 0
  175.09393 232.0 3
  175.3206 20.0 0
  176.09563 61.0 1
  176.10909 63.0 1
  177.09912 18.0 0
  178.99486 19.0 0
  179.09874 19.0 0
  179.10881 28.0 0
  180.0775 59.0 1
  180.10362 124.0 2
  181.09586 49.0 1
  182.04903 25.0 0
  182.06323 20.0 0
  182.0873 95.0 1
  183.05341 19.0 0
  183.06796 231.0 3
  183.0779 41.0 1
  183.50694 24.0 0
  183.59996 24.0 0
  184.07115 184.0 2
  184.08186 83.0 1
  184.11047 53.0 1
  185.06551 27.0 0
  185.0833 238.0 3
  185.11745 82.0 1
  186.07533 148.0 2
  186.09102 1087.0 14
  186.81184 38.0 0
  187.06111 22.0 0
  187.08986 396.0 5
  187.10568 48.0 1
  188.01239 24.0 0
  188.07161 30.0 0
  188.088 63.0 1
  188.10188 63.0 1
  188.11389 76.0 1
  189.10364 336.0 4
  189.1113 148.0 2
  190.08188 20.0 0
  190.10716 23.0 0
  191.10091 29.0 0
  192.04823 27.0 0
  192.09636 21.0 0
  192.11192 56.0 1
  192.16064 20.0 0
  192.89542 33.0 0
  193.06969 22.0 0
  193.08954 17.0 0
  194.01511 57.0 1
  194.05756 17.0 0
  194.08461 20.0 0
  194.10588 19.0 0
  194.11446 79.0 1
  194.12834 34.0 0
  195.06827 196.0 3
  195.09065 24.0 0
  195.12215 21.0 0
  195.61003 24.0 0
  195.67699 21.0 0
  196.03223 17.0 0
  196.0675 105.0 1
  197.04543 51.0 1
  197.06551 39.0 0
  197.08485 133.0 2
  197.10474 23.0 0
  197.86127 30.0 0
  198.08049 172.0 2
  198.09216 589.0 8
  199.06419 41.0 1
  199.08607 84.0 1
  199.09845 119.0 2
  199.23965 23.0 0
  199.9901 38.0 0
  200.07207 253.0 3
  200.10876 464.0 6
  200.27501 28.0 0
  201.06978 22.0 0
  201.08308 29.0 0
  201.10509 594.0 8
  202.10918 171.0 2
  202.1174 49.0 1
  202.98956 27.0 0
  203.11336 49.0 1
  203.1256 20.0 0
  204.10025 18.0 0
  204.11369 18.0 0
  205.104 20.0 0
  205.84544 25.0 0
  206.09093 17.0 0
  206.11243 31.0 0
  206.12044 18.0 0
  207.12924 37.0 0
  207.41362 24.0 0
  207.47374 53.0 1
  208.1067 55.0 1
  208.13707 91.0 1
  209.08151 143.0 2
  209.11047 28.0 0
  210.07098 59.0 1
  210.08525 488.0 6
  210.09453 850.0 11
  210.10956 108.0 1
  211.04683 20.0 0
  211.06749 17.0 0
  211.09369 352.0 4
  211.1122 22.0 0
  211.12366 23.0 0
  211.40068 28.0 0
  212.07558 229.0 3
  212.09576 100.0 1
  212.11005 269.0 3
  212.24899 20.0 0
  213.07497 65.0 1
  213.08997 21.0 0
  213.10188 140.0 2
  213.11218 56.0 1
  214.05946 22.0 0
  214.07083 81.0 1
  214.089 272.0 3
  214.10744 30.0 0
  214.14973 28.0 0
  214.75557 18.0 0
  214.80226 31.0 0
  215.07455 46.0 1
  215.09322 30.0 0
  215.1026 21.0 0
  215.11536 94.0 1
  215.13284 17.0 0
  216.02124 18.0 0
  216.06497 18.0 0
  216.09425 42.0 1
  216.11143 30.0 0
  216.12444 21.0 0
  218.0705 32.0 0
  218.08849 73.0 1
  218.09584 29.0 0
  218.11351 18.0 0
  218.19365 21.0 0
  219.04587 20.0 0
  219.06041 33.0 0
  219.10974 17.0 0
  220.07089 24.0 0
  221.08328 31.0 0
  221.10301 39.0 0
  221.11339 43.0 1
  221.13272 25.0 0
  221.53484 20.0 0
  222.00124 20.0 0
  222.03259 37.0 0
  222.0499 20.0 0
  222.09221 110.0 1
  222.1033 21.0 0
  223.1024 33.0 0
  223.11647 33.0 0
  224.06686 50.0 1
  224.08418 96.0 1
  224.10744 175.0 2
  224.12695 28.0 0
  224.5374 19.0 0
  225.05223 23.0 0
  225.075 107.0 1
  225.08638 25.0 0
  225.10516 115.0 1
  225.12025 38.0 0
  225.3607 18.0 0
  226.07545 63.0 1
  226.09415 185.0 2
  226.1192 51.0 1
  226.13167 27.0 0
  226.71353 17.0 0
  227.07887 56.0 1
  227.09412 20.0 0
  227.29929 21.0 0
  228.07309 20.0 0
  228.10161 258.0 3
  228.12798 33.0 0
  229.10362 18.0 0
  229.11771 18.0 0
  230.11493 20.0 0
  230.12575 43.0 1
  230.5065 24.0 0
  230.52675 49.0 1
  231.12073 54.0 1
  231.54845 29.0 0
  232.07576 18.0 0
  232.08803 74.0 1
  232.09885 204.0 3
  232.11394 20.0 0
  233.09557 61.0 1
  234.05852 47.0 1
  234.08359 34.0 0
  234.12178 82.0 1
  234.1788 35.0 0
  234.3996 20.0 0
  234.95161 22.0 0
  235.0742 17.0 0
  235.08661 25.0 0
  235.10179 89.0 1
  235.12369 86.0 1
  236.09239 27.0 0
  236.10655 206.0 3
  236.49217 25.0 0
  236.62022 17.0 0
  237.07918 123.0 2
  237.10526 162.0 2
  237.11501 44.0 1
  237.33192 23.0 0
  238.05147 17.0 0
  238.08519 277.0 4
  238.10831 35.0 0
  238.11929 56.0 1
  238.13342 46.0 1
  239.05835 25.0 0
  239.08856 76.0 1
  239.10736 41.0 1
  239.12036 153.0 2
  239.27092 30.0 0
  239.48964 35.0 0
  240.05093 17.0 0
  240.06004 21.0 0
  240.07909 19.0 0
  240.09845 85.0 1
  240.11697 134.0 2
  240.12991 56.0 1
  240.14189 48.0 1
  240.46863 36.0 0
  241.09204 51.0 1
  241.12495 60.0 1
  241.14243 34.0 0
  242.06808 33.0 0
  242.10222 43.0 1
  242.1199 18.0 0
  243.11932 31.0 0
  244.09569 439.0 6
  244.12907 45.0 1
  244.13762 54.0 1
  244.33391 21.0 0
  244.4711 28.0 0
  244.76164 21.0 0
  245.08037 19.0 0
  245.09488 83.0 1
  246.07222 29.0 0
  246.10274 237.0 3
  246.11449 408.0 5
  246.32201 25.0 0
  247.10503 63.0 1
  247.11925 117.0 1
  247.12785 63.0 1
  247.2211 22.0 0
  247.68454 17.0 0
  247.85526 47.0 1
  248.11266 87.0 1
  249.09248 95.0 1
  249.11232 141.0 2
  249.15588 18.0 0
  249.42307 26.0 0
  249.49872 29.0 0
  250.06657 21.0 0
  250.08577 62.0 1
  250.09615 45.0 1
  250.11584 68.0 1
  250.13 93.0 1
  250.14117 30.0 0
  250.36417 20.0 0
  251.0773 23.0 0
  251.09795 24.0 0
  251.11909 590.0 8
  251.13554 40.0 1
  252.10399 271.0 3
  252.12592 147.0 2
  252.13982 20.0 0
  252.18504 32.0 0
  253.08742 27.0 0
  253.10388 68.0 1
  253.11429 45.0 1
  253.13225 294.0 4
  253.13939 127.0 2
  253.15294 37.0 0
  254.10809 29.0 0
  254.12125 22.0 0
  254.13637 110.0 1
  254.35628 19.0 0
  254.72105 29.0 0
  254.74457 35.0 0
  254.99434 33.0 0
  255.04764 21.0 0
  255.08345 50.0 1
  255.09521 18.0 0
  255.15291 17.0 0
  255.86601 17.0 0
  256.09201 17.0 0
  256.69073 21.0 0
  257.09842 29.0 0
  258.07028 20.0 0
  258.10983 386.0 5
  258.11987 246.0 3
  259.09583 58.0 1
  259.11224 121.0 2
  259.12762 51.0 1
  260.10901 38.0 0
  260.12448 71.0 1
  260.13321 21.0 0
  261.10678 85.0 1
  261.1225 33.0 0
  261.13336 128.0 2
  261.35229 54.0 1
  261.4874 20.0 0
  262.09964 52.0 1
  262.11707 24.0 0
  262.12701 33.0 0
  263.09113 19.0 0
  263.11035 58.0 1
  263.13083 139.0 2
  263.15436 34.0 0
  264.0813 23.0 0
  264.10162 58.0 1
  264.11969 102.0 1
  264.13611 230.0 3
  264.16205 340.0 4
  264.1777 64.0 1
  264.27972 21.0 0
  265.09323 86.0 1
  265.11813 97.0 1
  265.1377 270.0 3
  265.16641 34.0 0
  266.05646 27.0 0
  266.10269 96.0 1
  266.12671 22.0 0
  266.15079 51.0 1
  266.16699 29.0 0
  266.86826 24.0 0
  267.1037 67.0 1
  267.12759 26.0 0
  267.15039 25.0 0
  267.74579 18.0 0
  267.82837 34.0 0
  268.09744 33.0 0
  268.11163 67.0 1
  268.76462 27.0 0
  269.10574 20.0 0
  269.7038 17.0 0
  270.10471 271.0 3
  270.12274 92.0 1
  270.47031 26.0 0
  271.11255 98.0 1
  271.12463 73.0 1
  272.04776 29.0 0
  272.07812 17.0 0
  272.11905 76.0 1
  272.13196 51.0 1
  273.10049 28.0 0
  273.1152 54.0 1
  274.10007 26.0 0
  274.11719 31.0 0
  274.16168 22.0 0
  275.08337 17.0 0
  275.13065 38.0 0
  275.38409 26.0 0
  275.94955 27.0 0
  276.12012 16.0 0
  276.12961 35.0 0
  276.14313 80.0 1
  276.17398 19.0 0
  276.58231 41.0 1
  277.10568 71.0 1
  277.13467 295.0 4
  277.1456 195.0 2
  278.11435 63.0 1
  278.14111 224.0 3
  278.15234 371.0 5
  278.16806 110.0 1
  278.36496 47.0 1
  278.90015 18.0 0
  279.10263 28.0 0
  279.12094 208.0 3
  279.14856 461.0 6
  279.99963 22.0 0
  280.01794 20.0 0
  280.12167 43.0 1
  280.13803 180.0 2
  280.15778 108.0 1
  280.1709 40.0 1
  280.811 22.0 0
  281.1575 133.0 2
  281.17792 154.0 2
  282.13123 24.0 0
  282.13931 58.0 1
  282.16974 18.0 0
  284.08676 20.0 0
  284.11862 83.0 1
  284.12991 235.0 3
  284.15033 59.0 1
  284.36246 33.0 0
  286.12964 112.0 1
  286.73425 47.0 1
  287.7056 48.0 1
  287.97504 19.0 0
  288.66467 29.0 0
  288.6828 18.0 0
  289.10376 23.0 0
  289.12537 28.0 0
  289.13593 33.0 0
  289.15784 29.0 0
  290.146 20.0 0
  290.15598 54.0 1
  290.1687 39.0 0
  290.23544 18.0 0
  291.13287 29.0 0
  291.14908 153.0 2
  292.08206 34.0 0
  292.11591 90.0 1
  292.1344 124.0 2
  292.15735 667.0 9
  293.13589 18.0 0
  293.16226 648.0 8
  293.49088 17.0 0
  293.86948 17.0 0
  294.12686 42.0 1
  294.13492 25.0 0
  294.15366 62.0 1
  294.16635 41.0 1
  294.18112 53.0 1
  294.85269 29.0 0
  296.11447 83.0 1
  296.12943 75.0 1
  297.12817 61.0 1
  298.12576 21.0 0
  299.00299 20.0 0
  300.14731 29.0 0
  300.79568 20.0 0
  301.05539 33.0 0
  301.14621 21.0 0
  302.12402 20.0 0
  304.13351 42.0 1
  304.15256 78.0 1
  304.49152 57.0 1
  304.60822 27.0 0
  305.12192 93.0 1
  305.13724 67.0 1
  306.13809 28.0 0
  306.17938 58.0 1
  306.98355 33.0 0
  307.13126 104.0 1
  307.18253 3467.0 44
  307.28571 38.0 0
  307.36899 18.0 0
  307.85608 20.0 0
  308.17407 642.0 8
  308.18338 1264.0 16
  308.21341 36.0 0
  308.62485 17.0 0
  309.15402 43.0 1
  309.18378 175.0 2
  309.19977 171.0 2
  309.2294 17.0 0
  309.32547 36.0 0
  309.88263 24.0 0
  310.19846 84.0 1
  311.11023 31.0 0
  311.13654 96.0 1
  311.14856 98.0 1
  311.35953 17.0 0
  312.14725 233.0 3
  312.16553 180.0 2
  313.14551 37.0 0
  313.15552 62.0 1
  313.16586 41.0 1
  313.65994 58.0 1
  314.1496 24.0 0
  317.51886 36.0 0
  318.25024 17.0 0
  319.14413 58.0 1
  320.12558 25.0 0
  320.14127 80.0 1
  320.16354 185.0 2
  320.32455 22.0 0
  320.41211 27.0 0
  321.16788 84.0 1
  323.13843 30.0 0
  323.17606 21.0 0
  324.13318 21.0 0
  324.15967 56.0 1
  324.18185 87.0 1
  324.19284 18.0 0
  325.19583 79.0 1
  327.99725 18.0 0
  333.14151 18.0 0
  333.15909 20.0 0
  335.09863 30.0 0
  335.1098 47.0 1
  335.12604 61.0 1
  335.14328 111.0 1
  335.1748 4780.0 61
  335.20697 44.0 1
  336.1424 74.0 1
  336.16608 390.0 5
  336.17999 658.0 8
  336.22055 18.0 0
  336.5723 20.0 0
  336.77094 17.0 0
  336.96274 17.0 0
  337.00894 18.0 0
  337.12842 20.0 0
  337.15924 110.0 1
  337.1738 106.0 1
  337.20193 35.0 0
  337.63046 18.0 0
  338.14359 20.0 0
  338.15768 53.0 1
  338.17621 74.0 1
  338.19635 50.0 1
  339.11838 28.0 0
  339.16006 17.0 0
  339.18671 74.0 1
  339.207 20.0 0
  340.17389 23.0 0
  340.19681 18.0 0
  340.21118 27.0 0
  341.17502 43.0 1
  341.54672 24.0 0
  342.31375 23.0 0
  350.16092 23.0 0
  351.16486 23.0 0
  351.29163 27.0 0
  352.17734 293.0 4
  352.19443 49.0 1
  353.16757 74.0 1
  353.18927 90.0 1
  355.15225 40.0 1
  357.73438 20.0 0
  360.94461 17.0 0
  365.18353 23.0 0
  365.66873 18.0 0
  366.85394 25.0 0
  366.88 24.0 0
  366.91107 20.0 0
  367.1246 35.0 0
  367.14066 112.0 1
  367.15717 112.0 1
  367.2016 11851.0 151
  367.25821 17.0 0
  367.31903 39.0 0
  367.33389 46.0 1
  367.36414 22.0 0
  367.40714 26.0 0
  367.46695 33.0 0
  367.48688 18.0 0
  367.62097 34.0 0
  367.63452 20.0 0
  367.9472 25.0 0
  367.9873 20.0 0
  368.00552 34.0 0
  368.07031 27.0 0
  368.0997 24.0 0
  368.14062 25.0 0
  368.16391 67.0 1
  368.20596 3102.0 40
  368.86026 20.0 0
  368.96988 19.0 0
  369.18109 54.0 1
  369.20694 474.0 6
  369.8707 33.0 0
  370.19003 85.0 1
  371.21741 18.0 0
  371.26974 21.0 0
  373.55933 23.0 0
  374.29327 41.0 1
  374.78827 24.0 0
  375.02365 23.0 0
  378.12708 20.0 0
  378.49835 28.0 0
  378.96133 39.0 0
  379.94144 20.0 0
  382.19751 18.0 0
  382.34174 29.0 0
  382.58673 18.0 0
  382.84818 18.0 0
  383.2074 48.0 1
  383.5687 21.0 0
  384.10922 35.0 0
  384.16251 55.0 1
  384.19363 82.0 1
  384.20648 32.0 0
  384.26407 33.0 0
  384.70279 29.0 0
  384.71344 18.0 0
  384.73178 18.0 0
  384.83899 17.0 0
  384.89966 20.0 0
  384.92361 19.0 0
  384.94559 20.0 0
  385.06082 29.0 0
  385.08975 50.0 1
  385.12448 180.0 2
  385.14966 625.0 8
  385.17041 372.0 5
  385.21191 78264.0 999
  385.26913 2156.0 28
  385.30429 23.0 0
  385.31952 133.0 2
//
