ACCESSION: MSBNK-RIKEN-PR305162
RECORD_TITLE: Syrosingopine; LC-ESI-QTOF; MS2
DATE: 2019.03.28
AUTHORS: Tetsuya Mori, Center for Sustainable Resource Science, RIKEN
LICENSE: CC BY-NC-SA
PUBLICATION: Tsugawa H., Nakabayashi R., Mori T., Yamada Y., Takahashi M., Rai A., Sugiyama R., Yamamoto H., Nakaya T., Yamazaki M., Kooke R., Bac-Molenaar JA., Oztolan-Erol N., Keurentjes JJB., Arita M., Saito K. (2019) "A cheminformatics approach to characterize metabolomes in stable-isotope-labeled organisms" Nature Methods 16(4):295-298. [doi:10.1038/s41592-019-0358-2]
COMMENT: registered in RIKEN PlaSMA
CH$NAME: Syrosingopine
CH$COMPOUND_CLASS: Yohimbine alkaloids
CH$FORMULA: C35H42N2O11
CH$EXACT_MASS: 666.724
CH$SMILES: CCOC(=O)OC1=C(OC)C=C(C=C1OC)C(=O)OC1CC2CN3CCC4=C(NC5=C4C=CC(OC)=C5)C3CC2C(C1OC)C(=O)OC
CH$IUPAC: InChI=1S/C35H42N2O11/c1-7-46-35(40)48-31-26(42-3)12-18(13-27(31)43-4)33(38)47-28-14-19-17-37-11-10-22-21-9-8-20(41-2)15-24(21)36-30(22)25(37)16-23(19)29(32(28)44-5)34(39)45-6/h8-9,12-13,15,19,23,25,28-29,32,36H,7,10-11,14,16-17H2,1-6H3
CH$LINK: INCHIKEY ZCDNRPPFBQDQHR-UHFFFAOYSA-N
AC$INSTRUMENT: LC, Waters Acquity UPLC System; MS, Waters Xevo G2 Q-Tof
AC$INSTRUMENT_TYPE: LC-ESI-QTOF
AC$MASS_SPECTROMETRY: MS_TYPE MS2
AC$MASS_SPECTROMETRY: ION_MODE NEGATIVE
AC$MASS_SPECTROMETRY: COLLISION_ENERGY 6V
AC$MASS_SPECTROMETRY: DESOLVATION_GAS_FLOW 800/h
AC$MASS_SPECTROMETRY: DESOLVATION_TEMPERATURE 450 C
AC$MASS_SPECTROMETRY: IONIZATION ESI
AC$CHROMATOGRAPHY: CAPILLARY_VOLTAGE -2.75 kV
AC$CHROMATOGRAPHY: COLUMN_NAME Acquity bridged ethyl hybrid C18 (1.7 um, 2.1 mm * 100 mm, Waters)
AC$CHROMATOGRAPHY: COLUMN_TEMPERATURE 40 C
AC$CHROMATOGRAPHY: FLOW_GRADIENT A/B = (99.5%/0.5% at 0 min, 99.5%/0.5% at 0.1 min, 20%/80% at 10 min, 0.5%/99.5% at 10.1 min, 0.5%/99.5% at 12.0 min, 99.5%/0.5% at 12.1 min, 99.5%/0.5% at 15.0 min)
AC$CHROMATOGRAPHY: FLOW_RATE 0.3 ml/min at 0 min, 0.3 ml/min at 10 min, 0.4 ml/min at 10.1 min, 0.4 ml/min at 14.4 min, 0.3 ml/min at 14.5 min
AC$CHROMATOGRAPHY: RETENTION_TIME 6.720133
AC$CHROMATOGRAPHY: SOLVENT A water including 0.1% formic acid
AC$CHROMATOGRAPHY: SOLVENT B acetonitrile including 0.1% formic acid
MS$FOCUSED_ION: PRECURSOR_TYPE [M-H]-
MS$FOCUSED_ION: PRECURSOR_M/Z 665.27158374783
PK$SPLASH: splash10-014l-0551096000-1827a18adce21a8e4d89
PK$NUM_PEAK: 157
PK$PEAK: m/z int. rel.int.
  79.01552 15.0 15
  102.42171 21.0 21
  106.07266 23.0 23
  109.44428 18.0 18
  121.02988 60.0 60
  122.03602 17.0 17
  123.03806 16.0 16
  137.02235 125.0 125
  138.03235 15.0 15
  150.99944 15.0 15
  151.03705 16.0 16
  152.04361 39.0 39
  165.02155 110.0 110
  166.99438 94.0 94
  167.00169 70.0 70
  167.02768 15.0 15
  167.03604 26.0 26
  168.04239 25.0 25
  181.00821 165.0 165
  181.01823 54.0 54
  182.0246 28.0 28
  183.02235 38.0 38
  187.04266 18.0 18
  193.0452 38.0 38
  195.03 467.0 467
  196.02275 21.0 21
  196.03398 20.0 20
  197.03548 15.0 15
  197.04497 19.0 19
  197.05171 21.0 21
  198.04111 15.0 15
  205.92108 27.0 27
  206.60858 15.0 15
  208.73383 15.0 15
  208.99655 68.0 68
  209.00812 121.0 121
  210.04167 26.0 26
  210.05487 184.0 184
  211.02271 24.0 24
  211.05315 51.0 51
  211.06415 16.0 16
  211.08199 15.0 15
  218.05873 21.0 21
  222.00816 17.0 17
  225.07396 67.0 67
  226.03952 20.0 20
  226.08551 16.0 16
  226.52837 15.0 15
  236.09357 26.0 26
  239.0174 187.0 187
  239.38037 16.0 16
  240.0367 17.0 17
  241.02368 39.0 39
  242.03415 16.0 16
  254.04005 16.0 16
  254.05238 23.0 23
  255.05038 141.0 141
  256.06042 22.0 22
  269.06537 550.0 549
  269.08865 29.0 29
  270.07224 35.0 35
  283.06271 18.0 18
  287.06345 17.0 17
  308.08197 17.0 17
  316.13165 21.0 21
  331.15167 15.0 15
  333.13632 16.0 16
  335.04971 16.0 16
  335.16617 16.0 16
  347.69238 15.0 15
  350.14844 15.0 15
  351.11203 21.0 21
  363.16129 15.0 15
  363.17609 39.0 39
  372.10498 15.0 15
  380.17426 56.0 56
  393.20694 27.0 27
  395.19183 32.0 32
  421.70471 21.0 21
  421.99304 19.0 19
  438.16064 15.0 15
  439.21945 22.0 22
  454.15887 16.0 16
  457.80841 17.0 17
  484.20258 36.0 36
  488.19803 17.0 17
  499.23001 20.0 20
  500.22534 15.0 15
  501.20328 15.0 15
  508.5603 15.0 15
  511.18787 21.0 21
  513.43134 15.0 15
  515.20258 19.0 19
  518.21307 19.0 19
  519.20172 20.0 20
  519.24835 21.0 21
  526.68384 25.0 25
  527.18518 19.0 19
  528.17194 15.0 15
  528.19543 33.0 33
  529.18134 16.0 16
  529.20013 20.0 20
  531.25751 18.0 18
  532.17773 21.0 21
  532.20117 18.0 18
  534.24097 23.0 23
  543.2207 16.0 16
  555.1557 62.0 62
  555.18817 40.0 40
  559.20044 17.0 17
  559.22272 25.0 25
  560.21149 38.0 38
  561.22192 17.0 17
  563.20868 17.0 17
  563.23132 15.0 15
  574.25818 16.0 16
  575.2254 35.0 35
  575.24652 36.0 36
  577.22107 145.0 145
  578.2146 217.0 217
  578.2356 215.0 215
  578.80756 16.0 16
  579.21857 114.0 114
  579.24152 34.0 34
  580.21295 16.0 16
  580.2287 39.0 39
  589.1889 33.0 33
  589.25659 26.0 26
  590.18774 17.0 17
  591.23871 41.0 41
  592.22247 68.0 68
  592.24042 74.0 74
  593.24878 727.0 726
  594.25543 229.0 229
  594.29578 15.0 15
  595.22272 15.0 15
  595.27374 19.0 19
  596.25891 22.0 22
  596.72424 23.0 23
  604.19275 18.0 18
  604.21436 15.0 15
  605.18695 21.0 21
  606.24701 48.0 48
  606.27795 15.0 15
  609.28357 18.0 18
  621.27466 61.0 61
  621.31256 17.0 17
  635.21686 18.0 18
  636.19543 15.0 15
  636.23438 15.0 15
  650.24347 546.0 545
  651.25134 204.0 204
  651.93201 22.0 22
  652.23645 15.0 15
  652.25891 24.0 24
  652.28925 22.0 22
  665.27252 1000.0 999
//
