ACCESSION: MSBNK-RIKEN-PR307180
RECORD_TITLE: 4-Methylthiobutyl glucosinolate; LC-ESI-QTOF; MS2
DATE: 2019.03.28
AUTHORS: Tetsuya Mori, Center for Sustainable Resource Science, RIKEN
LICENSE: CC BY-NC-SA
PUBLICATION: Tsugawa H., Nakabayashi R., Mori T., Yamada Y., Takahashi M., Rai A., Sugiyama R., Yamamoto H., Nakaya T., Yamazaki M., Kooke R., Bac-Molenaar JA., Oztolan-Erol N., Keurentjes JJB., Arita M., Saito K. (2019) "A cheminformatics approach to characterize metabolomes in stable-isotope-labeled organisms" Nature Methods 16(4):295-298. [doi:10.1038/s41592-019-0358-2]
COMMENT: registered in RIKEN PlaSMA
CH$NAME: 4-Methylthiobutyl glucosinolate
CH$COMPOUND_CLASS: Alkylglucosinolates
CH$FORMULA: C12H23NO9S3
CH$EXACT_MASS: 421.509
CH$SMILES: CSCCCCC(SC1OC(CO)C(O)C(O)C1O)=NOS(O)(=O)=O
CH$IUPAC: InChI=1S/C12H23NO9S3/c1-23-5-3-2-4-8(13-22-25(18,19)20)24-12-11(17)10(16)9(15)7(6-14)21-12/h7,9-12,14-17H,2-6H2,1H3,(H,18,19,20)
CH$LINK: INCHIKEY GKUMMDFLKGFCKH-UHFFFAOYSA-N
AC$INSTRUMENT: LC, Waters Acquity UPLC System; MS, Waters Xevo G2 Q-Tof
AC$INSTRUMENT_TYPE: LC-ESI-QTOF
AC$MASS_SPECTROMETRY: MS_TYPE MS2
AC$MASS_SPECTROMETRY: ION_MODE NEGATIVE
AC$MASS_SPECTROMETRY: COLLISION_ENERGY 6V
AC$MASS_SPECTROMETRY: DESOLVATION_GAS_FLOW 800/h
AC$MASS_SPECTROMETRY: DESOLVATION_TEMPERATURE 450 C
AC$MASS_SPECTROMETRY: IONIZATION ESI
AC$CHROMATOGRAPHY: CAPILLARY_VOLTAGE -2.75 kV
AC$CHROMATOGRAPHY: COLUMN_NAME Acquity bridged ethyl hybrid C18 (1.7 um, 2.1 mm * 100 mm, Waters)
AC$CHROMATOGRAPHY: COLUMN_TEMPERATURE 40 C
AC$CHROMATOGRAPHY: FLOW_GRADIENT A/B = (99.5%/0.5% at 0 min, 99.5%/0.5% at 0.1 min, 20%/80% at 10 min, 0.5%/99.5% at 10.1 min, 0.5%/99.5% at 12.0 min, 99.5%/0.5% at 12.1 min, 99.5%/0.5% at 15.0 min)
AC$CHROMATOGRAPHY: FLOW_RATE 0.3 ml/min at 0 min, 0.3 ml/min at 10 min, 0.4 ml/min at 10.1 min, 0.4 ml/min at 14.4 min, 0.3 ml/min at 14.5 min
AC$CHROMATOGRAPHY: RETENTION_TIME 2.8739
AC$CHROMATOGRAPHY: SOLVENT A water including 0.1% formic acid
AC$CHROMATOGRAPHY: SOLVENT B acetonitrile including 0.1% formic acid
MS$FOCUSED_ION: PRECURSOR_TYPE [M-H]-
MS$FOCUSED_ION: PRECURSOR_M/Z 420.04621834783
PK$SPLASH: splash10-0002-9100000000-dbb18965065934004580
PK$NUM_PEAK: 44
PK$PEAK: m/z int. rel.int.
  59.01237 10.0 10
  69.03567 6.0 6
  71.01212 20.0 20
  74.98983 303.0 303
  75.99567 12.0 12
  76.9982 6.0 6
  79.95187 25.0 25
  79.95563 82.0 82
  80.96147 8.0 8
  80.96642 20.0 20
  90.98035 6.0 6
  95.95129 440.0 440
  96.95926 1000.0 999
  97.94708 27.0 27
  97.95639 44.0 44
  98.95882 54.0 54
  98.96452 17.0 17
  101.02389 32.0 32
  113.02263 6.0 6
  119.03252 23.0 23
  127.9247 39.0 39
  135.00874 15.0 15
  138.9695 54.0 54
  139.97394 6.0 6
  145.04504 6.0 6
  161.03969 6.0 6
  163.02066 6.0 6
  164.02847 6.0 6
  166.9594 6.0 6
  168.98497 7.0 7
  172.47284 6.0 6
  178.03702 79.0 79
  179.04507 9.0 9
  180.03432 8.0 8
  195.03427 10.0 10
  199.0038 7.0 7
  226.99162 10.0 10
  240.99954 35.0 35
  242.99484 6.0 6
  259.01065 41.0 41
  260.01996 12.0 12
  261.02896 5.0 5
  274.9783 13.0 13
  339.63864 5.0 5
//
