ACCESSION: MSBNK-RIKEN-PR300195
RECORD_TITLE: Gardnutine; LC-ESI-QTOF; MS2
DATE: 2019.03.28
AUTHORS: Tetsuya Mori, Center for Sustainable Resource Science, RIKEN
LICENSE: CC BY-NC-SA
PUBLICATION: Tsugawa H., Nakabayashi R., Mori T., Yamada Y., Takahashi M., Rai A., Sugiyama R., Yamamoto H., Nakaya T., Yamazaki M., Kooke R., Bac-Molenaar JA., Oztolan-Erol N., Keurentjes JJB., Arita M., Saito K. (2019) "A cheminformatics approach to characterize metabolomes in stable-isotope-labeled organisms" Nature Methods 16(4):295-298. [doi:10.1038/s41592-019-0358-2]
COMMENT: registered in RIKEN PlaSMA
CH$NAME: Gardnutine
CH$COMPOUND_CLASS: Macroline alkaloids
CH$FORMULA: C20H22N2O2
CH$EXACT_MASS: 322.408
CH$SMILES: COC1=CC2=C(C=C1)C1=C(N2)[C@@H]2CC3C4CO[C@H]1[C@@H]4N2C\C3=C\C
CH$IUPAC: InChI=1S/C20H22N2O2/c1-3-10-8-22-16-7-13(10)14-9-24-20(19(14)22)17-12-5-4-11(23-2)6-15(12)21-18(16)17/h3-6,13-14,16,19-21H,7-9H2,1-2H3/b10-3-/t13?,14?,16-,19+,20+/m0/s1
CH$LINK: INCHIKEY XJTWLFBHBFSVRS-CRJBWSHOSA-N
AC$INSTRUMENT: LC, Waters Acquity UPLC System; MS, Waters Xevo G2 Q-Tof
AC$INSTRUMENT_TYPE: LC-ESI-QTOF
AC$MASS_SPECTROMETRY: MS_TYPE MS2
AC$MASS_SPECTROMETRY: ION_MODE POSITIVE
AC$MASS_SPECTROMETRY: COLLISION_ENERGY 6V
AC$MASS_SPECTROMETRY: DESOLVATION_GAS_FLOW 800/h
AC$MASS_SPECTROMETRY: DESOLVATION_TEMPERATURE 450 C
AC$MASS_SPECTROMETRY: IONIZATION ESI
AC$CHROMATOGRAPHY: CAPILLARY_VOLTAGE +3.00 kV
AC$CHROMATOGRAPHY: COLUMN_NAME Acquity bridged ethyl hybrid C18 (1.7 um, 2.1 mm * 100 mm, Waters)
AC$CHROMATOGRAPHY: COLUMN_TEMPERATURE 40 C
AC$CHROMATOGRAPHY: FLOW_GRADIENT A/B = (99.5%/0.5% at 0 min, 99.5%/0.5% at 0.1 min, 20%/80% at 10 min, 0.5%/99.5% at 10.1 min, 0.5%/99.5% at 12.0 min, 99.5%/0.5% at 12.1 min, 99.5%/0.5% at 15.0 min)
AC$CHROMATOGRAPHY: FLOW_RATE 0.3 ml/min at 0 min, 0.3 ml/min at 10 min, 0.4 ml/min at 10.1 min, 0.4 ml/min at 14.4 min, 0.3 ml/min at 14.5 min
AC$CHROMATOGRAPHY: RETENTION_TIME 4.419867
AC$CHROMATOGRAPHY: SOLVENT A water including 0.1% formic acid
AC$CHROMATOGRAPHY: SOLVENT B acetonitrile including 0.1% formic acid
MS$FOCUSED_ION: PRECURSOR_TYPE [M+H]+
MS$FOCUSED_ION: PRECURSOR_M/Z 323.1754044
PK$SPLASH: splash10-0a5c-1930000000-db3a3d9931bccfe15755
PK$NUM_PEAK: 347
PK$PEAK: m/z int. rel.int.
  53.03422 5.0 5
  65.03794 11.0 11
  67.05348 9.0 9
  74.05621 8.0 8
  77.03335 21.0 21
  77.03869 83.0 83
  78.03017 14.0 14
  78.04281 10.0 10
  79.05254 13.0 13
  80.04586 9.0 9
  80.05067 19.0 19
  81.03082 6.0 6
  81.05354 10.0 10
  82.05885 6.0 6
  82.68118 7.0 7
  89.03868 5.0 5
  90.04709 26.0 26
  91.02603 9.0 9
  91.05476 59.0 59
  91.06123 19.0 19
  92.04642 16.0 16
  93.0405 12.0 12
  93.05736 258.0 258
  93.06987 122.0 122
  93.07446 35.0 35
  94.05042 11.0 11
  94.05971 64.0 64
  94.0653 252.0 252
  95.04112 7.0 7
  95.06242 25.0 25
  95.07099 14.0 14
  95.07664 9.0 9
  96.04279 5.0 5
  100.86589 6.0 6
  102.04268 6.0 6
  103.05402 71.0 71
  104.04732 18.0 18
  104.05383 20.0 20
  104.06135 7.0 7
  105.0527 5.0 5
  105.06697 33.0 33
  105.07617 7.0 7
  106.04781 14.0 14
  106.06358 73.0 73
  106.07256 20.0 20
  107.07273 63.0 63
  108.06955 8.0 8
  108.0761 13.0 13
  108.08161 15.0 15
  110.08942 5.0 5
  113.16521 5.0 5
  115.05529 17.0 17
  116.06098 21.0 21
  117.05618 122.0 122
  118.04199 8.0 8
  118.05373 18.0 18
  118.06344 35.0 35
  118.06947 14.0 14
  119.07426 16.0 16
  120.08001 72.0 72
  120.08635 28.0 28
  120.09359 8.0 8
  121.05145 12.0 12
  121.08192 9.0 9
  121.08759 29.0 29
  122.09644 70.0 70
  122.10368 14.0 14
  123.099 13.0 13
  127.04861 20.0 20
  128.05148 9.0 9
  128.05736 8.0 8
  128.06485 11.0 11
  129.0565 12.0 12
  129.06584 10.0 10
  129.07379 9.0 9
  130.04475 21.0 21
  130.0551 45.0 45
  130.06506 400.0 400
  131.04665 9.0 9
  131.07059 112.0 112
  131.08423 15.0 15
  132.04051 41.0 41
  132.04802 51.0 51
  132.06169 8.0 8
  133.04678 20.0 20
  133.08212 14.0 14
  134.0632 7.0 7
  134.08223 8.0 8
  134.09047 6.0 6
  134.09862 5.0 5
  135.06496 9.0 9
  135.31351 6.0 6
  138.0936 8.0 8
  141.03867 8.0 8
  141.05016 12.0 12
  141.05634 24.0 24
  142.04448 5.0 5
  142.06392 33.0 33
  143.05788 15.0 15
  143.06944 54.0 54
  143.07578 60.0 60
  144.05145 7.0 7
  144.05956 22.0 22
  144.06683 31.0 31
  144.08029 36.0 36
  145.04002 27.0 27
  145.05428 87.0 87
  145.08214 34.0 34
  145.09129 28.0 28
  146.05823 22.0 22
  146.08344 8.0 8
  146.09393 19.0 19
  146.10283 15.0 15
  147.06711 24.0 24
  147.23938 5.0 5
  148.07013 15.0 15
  148.08032 6.0 6
  148.10986 25.0 25
  151.06035 7.0 7
  151.08795 6.0 6
  152.05278 6.0 6
  152.05914 9.0 9
  153.06314 7.0 7
  153.07205 23.0 23
  154.04758 7.0 7
  154.06152 68.0 68
  154.07407 9.0 9
  155.05464 14.0 14
  155.07462 68.0 68
  155.08698 12.0 12
  155.75238 8.0 8
  156.07152 37.0 37
  156.08073 28.0 28
  157.04788 7.0 7
  157.08366 6.0 6
  158.03418 16.0 16
  158.05966 1000.0 999
  159.06061 86.0 86
  159.0694 70.0 70
  160.07518 109.0 109
  160.64125 8.0 8
  164.16957 6.0 6
  165.062 11.0 11
  166.06284 18.0 18
  166.06897 12.0 12
  166.07838 11.0 11
  167.07132 65.0 65
  167.08434 19.0 19
  168.07088 15.0 15
  168.07796 52.0 52
  168.09332 8.0 8
  169.0462 5.0 5
  169.06107 11.0 11
  169.0757 9.0 9
  169.08618 37.0 37
  169.97757 10.0 10
  170.03722 10.0 10
  170.05339 11.0 11
  170.06548 45.0 45
  170.09424 8.0 8
  171.05458 19.0 19
  171.06943 47.0 47
  172.07062 49.0 49
  172.07959 24.0 24
  173.08156 69.0 69
  173.09004 36.0 36
  174.06786 5.0 5
  174.08331 28.0 28
  174.09216 17.0 17
  178.07874 12.0 12
  179.0621 7.0 7
  179.07399 9.0 9
  180.08189 121.0 121
  180.09204 20.0 20
  181.04724 13.0 13
  181.08438 58.0 58
  182.0573 67.0 67
  182.08963 9.0 9
  182.10347 5.0 5
  183.04987 21.0 21
  183.06317 9.0 9
  183.09007 9.0 9
  183.09883 9.0 9
  184.06474 33.0 33
  184.07941 27.0 27
  184.10262 5.0 5
  185.07253 10.0 10
  186.05519 7.0 7
  186.08224 10.0 10
  186.09036 12.0 12
  187.07906 5.0 5
  187.09085 9.0 9
  188.07135 15.0 15
  188.80759 6.0 6
  189.73956 8.0 8
  191.06804 17.0 17
  191.07579 15.0 15
  191.08688 20.0 20
  192.03316 5.0 5
  192.06334 18.0 18
  192.08128 64.0 64
  192.44818 6.0 6
  193.06163 14.0 14
  193.07681 23.0 23
  193.08881 54.0 54
  193.10022 7.0 7
  194.09036 42.0 42
  194.10362 11.0 11
  195.06705 24.0 24
  195.07581 11.0 11
  195.09447 39.0 39
  195.10857 24.0 24
  196.07602 40.0 40
  196.10301 7.0 7
  197.08279 30.0 30
  198.08014 30.0 30
  198.09479 37.0 37
  199.08067 12.0 12
  200.15466 5.0 5
  201.06337 5.0 5
  204.06439 5.0 5
  204.07898 61.0 61
  204.89336 7.0 7
  205.07735 41.0 41
  206.05563 10.0 10
  206.07056 6.0 6
  206.08589 38.0 38
  206.09842 40.0 40
  207.09317 23.0 23
  207.11076 7.0 7
  208.05083 12.0 12
  208.07304 37.0 37
  208.08243 21.0 21
  208.09572 10.0 10
  208.11787 11.0 11
  209.07419 27.0 27
  209.09071 24.0 24
  209.10374 10.0 10
  209.11493 7.0 7
  210.06444 8.0 8
  210.08176 25.0 25
  210.09094 35.0 35
  210.10149 19.0 19
  211.09886 14.0 14
  211.11719 6.0 6
  212.10045 10.0 10
  212.11726 8.0 8
  213.10591 5.0 5
  214.07756 22.0 22
  216.07986 7.0 7
  217.08807 56.0 56
  218.06862 11.0 11
  218.07892 10.0 10
  218.09578 64.0 64
  218.4883 7.0 7
  219.06746 14.0 14
  219.09341 44.0 44
  220.07715 22.0 22
  220.09523 35.0 35
  220.11255 18.0 18
  220.16718 7.0 7
  220.86395 7.0 7
  221.08395 23.0 23
  221.11012 18.0 18
  222.0751 10.0 10
  222.09143 22.0 22
  222.1261 7.0 7
  222.51111 7.0 7
  223.06078 5.0 5
  223.08014 12.0 12
  223.09674 24.0 24
  223.10887 18.0 18
  224.10342 21.0 21
  224.12865 7.0 7
  225.10403 9.0 9
  227.07721 6.0 6
  228.08852 5.0 5
  230.06534 6.0 6
  231.06662 8.0 8
  231.09497 23.0 23
  231.1078 22.0 22
  232.01756 10.0 10
  232.0737 10.0 10
  232.09276 9.0 9
  232.10229 29.0 29
  232.11885 14.0 14
  232.12689 10.0 10
  233.10394 11.0 11
  233.1225 13.0 13
  234.06427 5.0 5
  234.08607 32.0 32
  234.11655 55.0 55
  234.13133 12.0 12
  235.08583 46.0 46
  235.10258 10.0 10
  235.11845 60.0 60
  236.09149 21.0 21
  236.10359 17.0 17
  236.11455 5.0 5
  236.13159 6.0 6
  236.14293 6.0 6
  237.10378 10.0 10
  239.12721 5.0 5
  242.09497 6.0 6
  243.10336 7.0 7
  245.10751 37.0 37
  245.12808 6.0 6
  246.08139 23.0 23
  246.11435 7.0 7
  246.13391 5.0 5
  247.07681 25.0 25
  247.08595 19.0 19
  247.10254 21.0 21
  248.06071 5.0 5
  248.09377 38.0 38
  248.10727 42.0 42
  248.12032 27.0 27
  249.08981 14.0 14
  249.10632 86.0 86
  249.12709 13.0 13
  249.1432 16.0 16
  249.15759 5.0 5
  250.09918 9.0 9
  251.12242 22.0 22
  258.07318 5.0 5
  260.10385 14.0 14
  260.13101 15.0 15
  261.08298 6.0 6
  261.12927 36.0 36
  262.08914 11.0 11
  262.09784 35.0 35
  262.10922 33.0 33
  262.12354 24.0 24
  262.13541 6.0 6
  263.11734 64.0 64
  264.12466 15.0 15
  271.26459 6.0 6
  275.11557 25.0 25
  276.10883 7.0 7
  277.10605 6.0 6
  277.12985 33.0 33
  278.1091 8.0 8
  278.15787 5.0 5
  281.14493 7.0 7
  282.78244 9.0 9
  285.22931 7.0 7
  308.13895 7.0 7
//
