ACCESSION: MSBNK-RIKEN-PR300192
RECORD_TITLE: Hirsuteine; LC-ESI-QTOF; MS2
DATE: 2019.03.28
AUTHORS: Tetsuya Mori, Center for Sustainable Resource Science, RIKEN
LICENSE: CC BY-NC-SA
PUBLICATION: Tsugawa H., Nakabayashi R., Mori T., Yamada Y., Takahashi M., Rai A., Sugiyama R., Yamamoto H., Nakaya T., Yamazaki M., Kooke R., Bac-Molenaar JA., Oztolan-Erol N., Keurentjes JJB., Arita M., Saito K. (2019) "A cheminformatics approach to characterize metabolomes in stable-isotope-labeled organisms" Nature Methods 16(4):295-298. [doi:10.1038/s41592-019-0358-2]
COMMENT: registered in RIKEN PlaSMA
CH$NAME: Hirsuteine
CH$COMPOUND_CLASS: Corynanthean-type alkaloids
CH$FORMULA: C22H26N2O3
CH$EXACT_MASS: 366.461
CH$SMILES: CO\C=C(/[C@H]1C[C@H]2N(CCC3=C2NC2=CC=CC=C32)C[C@@H]1C=C)C(=O)OC
CH$IUPAC: InChI=1S/C22H26N2O3/c1-4-14-12-24-10-9-16-15-7-5-6-8-19(15)23-21(16)20(24)11-17(14)18(13-26-2)22(25)27-3/h4-8,13-14,17,20,23H,1,9-12H2,2-3H3/b18-13+/t14-,17-,20+/m0/s1
CH$LINK: INCHIKEY TZUGIFAYWNNSAO-AZQGJTAVSA-N
AC$INSTRUMENT: LC, Waters Acquity UPLC System; MS, Waters Xevo G2 Q-Tof
AC$INSTRUMENT_TYPE: LC-ESI-QTOF
AC$MASS_SPECTROMETRY: MS_TYPE MS2
AC$MASS_SPECTROMETRY: ION_MODE POSITIVE
AC$MASS_SPECTROMETRY: COLLISION_ENERGY 6V
AC$MASS_SPECTROMETRY: DESOLVATION_GAS_FLOW 800/h
AC$MASS_SPECTROMETRY: DESOLVATION_TEMPERATURE 450 C
AC$MASS_SPECTROMETRY: IONIZATION ESI
AC$CHROMATOGRAPHY: CAPILLARY_VOLTAGE +3.00 kV
AC$CHROMATOGRAPHY: COLUMN_NAME Acquity bridged ethyl hybrid C18 (1.7 um, 2.1 mm * 100 mm, Waters)
AC$CHROMATOGRAPHY: COLUMN_TEMPERATURE 40 C
AC$CHROMATOGRAPHY: FLOW_GRADIENT A/B = (99.5%/0.5% at 0 min, 99.5%/0.5% at 0.1 min, 20%/80% at 10 min, 0.5%/99.5% at 10.1 min, 0.5%/99.5% at 12.0 min, 99.5%/0.5% at 12.1 min, 99.5%/0.5% at 15.0 min)
AC$CHROMATOGRAPHY: FLOW_RATE 0.3 ml/min at 0 min, 0.3 ml/min at 10 min, 0.4 ml/min at 10.1 min, 0.4 ml/min at 14.4 min, 0.3 ml/min at 14.5 min
AC$CHROMATOGRAPHY: RETENTION_TIME 5.6757
AC$CHROMATOGRAPHY: SOLVENT A water including 0.1% formic acid
AC$CHROMATOGRAPHY: SOLVENT B acetonitrile including 0.1% formic acid
MS$FOCUSED_ION: PRECURSOR_TYPE [M+H]+
MS$FOCUSED_ION: PRECURSOR_M/Z 367.2016192
PK$SPLASH: splash10-006x-0930000000-1ae840da108aa3608247
PK$NUM_PEAK: 190
PK$PEAK: m/z int. rel.int.
  56.04787 6.0 6
  68.05087 11.0 11
  75.04468 28.0 28
  82.0642 30.0 30
  91.05293 11.0 11
  93.06927 5.0 5
  94.06495 11.0 11
  95.04971 33.0 33
  96.0808 9.0 9
  103.05492 9.0 9
  106.06709 14.0 14
  108.0664 6.0 6
  108.08083 77.0 77
  109.06506 45.0 45
  115.05184 6.0 6
  117.07114 25.0 25
  118.06504 38.0 38
  119.04935 5.0 5
  120.08014 30.0 30
  121.06454 39.0 39
  121.08601 7.0 7
  123.03828 11.0 11
  123.04636 14.0 14
  126.09071 64.0 64
  129.05359 58.0 58
  129.06897 7.0 7
  130.06464 62.0 62
  131.07133 10.0 10
  132.07935 20.0 20
  137.05417 14.0 14
  137.06198 18.0 18
  138.05121 8.0 8
  138.05893 6.0 6
  142.06792 6.0 6
  143.07166 15.0 15
  143.08565 20.0 20
  144.05272 7.0 7
  144.08037 1000.0 999
  145.08394 118.0 118
  146.05051 6.0 6
  146.05832 28.0 28
  146.09047 19.0 19
  147.08005 8.0 8
  148.07367 13.0 13
  149.05916 50.0 50
  150.09084 15.0 15
  151.06926 8.0 8
  155.07178 49.0 49
  156.07909 96.0 96
  157.08392 24.0 24
  158.08516 19.0 19
  158.09721 96.0 96
  159.09584 15.0 15
  159.10466 7.0 7
  160.07303 13.0 13
  161.06021 7.0 7
  163.07626 16.0 16
  164.06929 19.0 19
  164.1044 7.0 7
  166.08603 15.0 15
  167.07495 12.0 12
  168.07063 17.0 17
  168.08093 40.0 40
  169.0838 50.0 50
  170.0726 6.0 6
  170.09622 358.0 358
  171.09755 88.0 88
  172.07776 10.0 10
  172.11049 45.0 45
  173.11487 12.0 12
  174.09398 6.0 6
  175.07547 17.0 17
  176.09633 6.0 6
  176.10902 22.0 22
  178.08548 48.0 48
  179.08473 7.0 7
  179.09297 8.0 8
  180.07503 7.0 7
  180.1003 33.0 33
  181.08675 46.0 46
  182.08864 36.0 36
  182.09601 99.0 99
  183.0988 19.0 19
  184.09904 9.0 9
  184.11099 6.0 6
  190.08417 8.0 8
  191.07213 5.0 5
  192.07837 10.0 10
  192.10219 93.0 93
  193.0896 9.0 9
  193.10626 11.0 11
  194.0975 31.0 31
  196.11226 38.0 38
  197.10796 44.0 44
  199.12286 63.0 63
  200.13098 7.0 7
  204.10005 43.0 43
  204.11284 7.0 7
  205.0891 15.0 15
  206.08623 6.0 6
  206.0988 35.0 35
  207.10104 8.0 8
  208.07355 10.0 10
  208.11195 52.0 52
  209.11383 9.0 9
  210.11302 34.0 34
  210.12892 5.0 5
  211.11679 9.0 9
  218.09479 16.0 16
  219.10265 6.0 6
  220.07564 7.0 7
  220.11235 19.0 19
  221.10464 12.0 12
  221.11565 6.0 6
  222.09157 13.0 13
  222.10081 10.0 10
  222.11589 31.0 31
  222.13521 6.0 6
  223.09845 6.0 6
  223.12428 32.0 32
  224.12747 166.0 166
  225.108 8.0 8
  225.13303 30.0 30
  226.08888 41.0 41
  226.1324 6.0 6
  227.0878 5.0 5
  227.0959 5.0 5
  231.10625 16.0 16
  232.08188 8.0 8
  232.11388 20.0 20
  233.11845 12.0 12
  234.08937 22.0 22
  234.10341 7.0 7
  234.12752 15.0 15
  236.10263 9.0 9
  236.12941 76.0 76
  237.13551 10.0 10
  238.10576 10.0 10
  238.12276 52.0 52
  239.13014 10.0 10
  240.10223 20.0 20
  241.10213 6.0 6
  244.11119 6.0 6
  246.1142 5.0 5
  246.12685 17.0 17
  246.13948 5.0 5
  247.12085 10.0 10
  247.13168 5.0 5
  248.12566 6.0 6
  248.13383 6.0 6
  249.11053 6.0 6
  249.13861 57.0 57
  250.12663 7.0 7
  250.14822 10.0 10
  251.15405 49.0 49
  252.09561 7.0 7
  252.10892 5.0 5
  252.15697 12.0 12
  253.10597 6.0 6
  254.12077 7.0 7
  256.1153 6.0 6
  258.12524 11.0 11
  260.09464 5.0 5
  260.10583 13.0 13
  262.12695 7.0 7
  266.11896 51.0 51
  267.1217 11.0 11
  274.12329 23.0 23
  275.15591 7.0 7
  278.11496 6.0 6
  281.12851 6.0 6
  286.12442 6.0 6
  288.13138 7.0 7
  291.12122 6.0 6
  292.133 16.0 16
  298.14471 65.0 65
  299.13806 8.0 8
  303.15036 16.0 16
  306.1416 13.0 13
  306.15601 10.0 10
  307.15533 6.0 6
  318.15057 7.0 7
  335.16495 22.0 22
  335.17651 39.0 39
  336.17755 13.0 13
  338.18231 5.0 5
  339.17249 14.0 14
  350.17523 7.0 7
  365.18436 12.0 12
  367.20145 156.0 156
//
