ACCESSION: MSBNK-RIKEN-PR303051
RECORD_TITLE: Delphinidin; LC-ESI-QTOF; MS2
DATE: 2019.03.28
AUTHORS: Tetsuya Mori, Center for Sustainable Resource Science, RIKEN
LICENSE: CC BY-NC-SA
PUBLICATION: Tsugawa H., Nakabayashi R., Mori T., Yamada Y., Takahashi M., Rai A., Sugiyama R., Yamamoto H., Nakaya T., Yamazaki M., Kooke R., Bac-Molenaar JA., Oztolan-Erol N., Keurentjes JJB., Arita M., Saito K. (2019) "A cheminformatics approach to characterize metabolomes in stable-isotope-labeled organisms" Nature Methods 16(4):295-298. [doi:10.1038/s41592-019-0358-2]
COMMENT: registered in RIKEN PlaSMA
CH$NAME: Delphinidin
CH$COMPOUND_CLASS: 7-hydroxyflavonoids
CH$FORMULA: [C15H11O7]+
CH$EXACT_MASS: 303.246
CH$SMILES: OC1=CC2=[O+]C(=C(O)C=C2C(O)=C1)C1=CC(O)=C(O)C(O)=C1
CH$IUPAC: InChI=1S/C15H10O7/c16-7-3-9(17)8-5-12(20)15(22-13(8)4-7)6-1-10(18)14(21)11(19)2-6/h1-5H,(H5-,16,17,18,19,20,21)/p+1
CH$LINK: INCHIKEY JKHRCGUTYDNCLE-UHFFFAOYSA-O
AC$INSTRUMENT: LC, Waters Acquity UPLC System; MS, Waters Xevo G2 Q-Tof
AC$INSTRUMENT_TYPE: LC-ESI-QTOF
AC$MASS_SPECTROMETRY: MS_TYPE MS2
AC$MASS_SPECTROMETRY: ION_MODE POSITIVE
AC$MASS_SPECTROMETRY: COLLISION_ENERGY 6V
AC$MASS_SPECTROMETRY: DESOLVATION_GAS_FLOW 800/h
AC$MASS_SPECTROMETRY: DESOLVATION_TEMPERATURE 450 C
AC$MASS_SPECTROMETRY: IONIZATION ESI
AC$CHROMATOGRAPHY: CAPILLARY_VOLTAGE +3.00 kV
AC$CHROMATOGRAPHY: COLUMN_NAME Acquity bridged ethyl hybrid C18 (1.7 um, 2.1 mm * 100 mm, Waters)
AC$CHROMATOGRAPHY: COLUMN_TEMPERATURE 40 C
AC$CHROMATOGRAPHY: FLOW_GRADIENT A/B = (99.5%/0.5% at 0 min, 99.5%/0.5% at 0.1 min, 20%/80% at 10 min, 0.5%/99.5% at 10.1 min, 0.5%/99.5% at 12.0 min, 99.5%/0.5% at 12.1 min, 99.5%/0.5% at 15.0 min)
AC$CHROMATOGRAPHY: FLOW_RATE 0.3 ml/min at 0 min, 0.3 ml/min at 10 min, 0.4 ml/min at 10.1 min, 0.4 ml/min at 14.4 min, 0.3 ml/min at 14.5 min
AC$CHROMATOGRAPHY: RETENTION_TIME 5.374817
AC$CHROMATOGRAPHY: SOLVENT A water including 0.1% formic acid
AC$CHROMATOGRAPHY: SOLVENT B acetonitrile including 0.1% formic acid
MS$FOCUSED_ION: PRECURSOR_TYPE [M]+
MS$FOCUSED_ION: PRECURSOR_M/Z 303.0493805
PK$SPLASH: splash10-0udi-0339000000-8bdf1eb8a27176054b4d
PK$NUM_PEAK: 67
PK$PEAK: m/z int. rel.int.
  65.03914 10.0 10
  68.99848 10.0 10
  89.0387 8.0 8
  93.0321 7.0 7
  109.03327 7.0 7
  111.00103 7.0 7
  121.03123 5.0 5
  123.04383 7.0 7
  127.054 9.0 9
  129.06697 6.0 6
  131.05219 23.0 23
  137.00175 11.0 11
  137.01694 7.0 7
  137.02591 35.0 35
  145.03293 7.0 7
  149.0202 7.0 7
  153.01314 25.0 25
  153.02011 32.0 32
  153.0262 26.0 26
  154.01732 8.0 8
  155.02872 6.0 6
  155.03951 5.0 5
  155.05681 5.0 5
  163.075 7.0 7
  165.01602 15.0 15
  173.05016 9.0 9
  173.06274 29.0 29
  173.44926 7.0 7
  176.04868 7.0 7
  184.03905 10.0 10
  187.04243 12.0 12
  196.04198 9.0 9
  199.8998 10.0 10
  201.01927 7.0 7
  201.05681 26.0 26
  202.05634 9.0 9
  202.06293 15.0 15
  203.02852 5.0 5
  204.04733 12.0 12
  218.05244 10.0 10
  219.01985 11.0 11
  219.05759 10.0 10
  219.50764 5.0 5
  228.04636 8.0 8
  228.85133 6.0 6
  229.04921 81.0 81
  230.04233 5.0 5
  242.34174 5.0 5
  245.03539 10.0 10
  247.04762 10.0 10
  257.03687 11.0 11
  257.04401 28.0 28
  257.96588 7.0 7
  259.05478 8.0 8
  261.91461 7.0 7
  270.38452 7.0 7
  274.04382 5.0 5
  275.06284 12.0 12
  275.987 9.0 9
  285.03513 7.0 7
  285.04733 16.0 16
  286.02667 7.0 7
  286.03946 20.0 20
  298.75128 13.0 13
  301.03671 6.0 6
  302.04919 8.0 8
  303.04947 1000.0 999
//
