ACCESSION: MSBNK-RIKEN-PR301165
RECORD_TITLE: Karakoline; LC-ESI-QTOF; MS2
DATE: 2019.03.28
AUTHORS: Tetsuya Mori, Center for Sustainable Resource Science, RIKEN
LICENSE: CC BY-NC-SA
PUBLICATION: Tsugawa H., Nakabayashi R., Mori T., Yamada Y., Takahashi M., Rai A., Sugiyama R., Yamamoto H., Nakaya T., Yamazaki M., Kooke R., Bac-Molenaar JA., Oztolan-Erol N., Keurentjes JJB., Arita M., Saito K. (2019) "A cheminformatics approach to characterize metabolomes in stable-isotope-labeled organisms" Nature Methods 16(4):295-298. [doi:10.1038/s41592-019-0358-2]
COMMENT: registered in RIKEN PlaSMA
CH$NAME: Karakoline
CH$COMPOUND_CLASS: Aconitane-type diterpenoid alkaloids
CH$FORMULA: C22H35NO4
CH$EXACT_MASS: 377.525
CH$SMILES: CCN1C[C@]2(C)CC[C@H](O)[C@@]34[C@@H]5C[C@H]6[C@H](O)[C@@H]5[C@](O)(C[C@@H]6OC)[C@@H](C[C@H]23)C14
CH$IUPAC: InChI=1S/C22H35NO4/c1-4-23-10-20(2)6-5-16(24)22-12-7-11-14(27-3)9-21(26,17(12)18(11)25)13(19(22)23)8-15(20)22/h11-19,24-26H,4-10H2,1-3H3/t11-,12-,13+,14+,15-,16+,17-,18+,19?,20+,21+,22-/m1/s1
CH$LINK: INCHIKEY HKQZUYOVMYOFIT-VHNBHZRZSA-N
AC$INSTRUMENT: LC, Waters Acquity UPLC System; MS, Waters Xevo G2 Q-Tof
AC$INSTRUMENT_TYPE: LC-ESI-QTOF
AC$MASS_SPECTROMETRY: MS_TYPE MS2
AC$MASS_SPECTROMETRY: ION_MODE POSITIVE
AC$MASS_SPECTROMETRY: COLLISION_ENERGY 6V
AC$MASS_SPECTROMETRY: DESOLVATION_GAS_FLOW 800/h
AC$MASS_SPECTROMETRY: DESOLVATION_TEMPERATURE 450 C
AC$MASS_SPECTROMETRY: IONIZATION ESI
AC$CHROMATOGRAPHY: CAPILLARY_VOLTAGE +3.00 kV
AC$CHROMATOGRAPHY: COLUMN_NAME Acquity bridged ethyl hybrid C18 (1.7 um, 2.1 mm * 100 mm, Waters)
AC$CHROMATOGRAPHY: COLUMN_TEMPERATURE 40 C
AC$CHROMATOGRAPHY: FLOW_GRADIENT A/B = (99.5%/0.5% at 0 min, 99.5%/0.5% at 0.1 min, 20%/80% at 10 min, 0.5%/99.5% at 10.1 min, 0.5%/99.5% at 12.0 min, 99.5%/0.5% at 12.1 min, 99.5%/0.5% at 15.0 min)
AC$CHROMATOGRAPHY: FLOW_RATE 0.3 ml/min at 0 min, 0.3 ml/min at 10 min, 0.4 ml/min at 10.1 min, 0.4 ml/min at 14.4 min, 0.3 ml/min at 14.5 min
AC$CHROMATOGRAPHY: RETENTION_TIME 2.889217
AC$CHROMATOGRAPHY: SOLVENT A water including 0.1% formic acid
AC$CHROMATOGRAPHY: SOLVENT B acetonitrile including 0.1% formic acid
MS$FOCUSED_ION: PRECURSOR_TYPE [M+H]+
MS$FOCUSED_ION: PRECURSOR_M/Z 378.2638851
PK$SPLASH: splash10-06r6-2911000000-e49033b08a38354b8699
PK$NUM_PEAK: 494
PK$PEAK: m/z int. rel.int.
  54.03085 21.0 21
  58.06255 45.0 45
  58.06756 118.0 118
  59.07038 21.0 21
  61.03123 80.0 80
  62.03621 25.0 25
  67.05392 200.0 200
  68.05708 82.0 82
  68.99708 25.0 25
  69.03542 20.0 20
  69.05127 25.0 25
  69.05975 56.0 56
  69.06983 23.0 23
  69.07496 27.0 27
  70.06153 23.0 23
  71.0111 62.0 62
  71.04288 19.0 19
  71.05159 39.0 39
  72.07555 54.0 54
  72.08102 242.0 242
  72.08937 39.0 39
  73.08561 62.0 62
  76.76977 30.0 30
  77.03854 45.0 45
  79.05003 74.0 74
  79.05607 317.0 317
  81.03442 25.0 25
  81.06055 46.0 46
  81.07159 414.0 414
  82.0673 169.0 169
  84.05931 25.0 25
  84.08144 373.0 373
  84.16824 23.0 23
  85.02972 23.0 23
  85.06651 44.0 44
  85.07935 19.0 19
  85.08474 27.0 27
  85.08972 51.0 51
  86.09544 59.0 59
  86.10158 23.0 23
  88.0715 23.0 23
  89.01758 21.0 21
  91.04243 19.0 19
  91.05569 668.0 667
  91.24272 26.0 26
  92.05857 38.0 38
  92.06561 26.0 26
  92.94017 19.0 19
  92.98715 51.0 51
  93.0454 20.0 20
  93.06061 21.0 21
  93.07006 423.0 423
  93.07536 185.0 185
  94.07413 22.0 22
  95.04227 33.0 33
  95.05314 33.0 33
  95.07576 61.0 61
  95.08456 183.0 183
  95.34452 19.0 19
  96.07932 174.0 174
  96.09112 42.0 42
  97.06248 24.0 24
  98.04051 19.0 19
  98.0808 57.0 57
  98.09826 678.0 677
  99.10027 65.0 65
  100.10008 37.0 37
  101.05789 19.0 19
  101.06624 21.0 21
  103.04004 141.0 141
  103.05664 76.0 76
  104.06535 30.0 30
  105.03466 47.0 47
  105.05573 50.0 50
  105.0703 885.0 884
  106.0444 27.0 27
  106.07156 85.0 85
  106.84879 22.0 22
  107.04749 279.0 279
  107.08491 396.0 396
  108.05782 22.0 22
  108.07897 84.0 84
  108.08622 119.0 119
  108.09656 22.0 22
  109.06431 162.0 162
  109.07017 44.0 44
  109.08567 19.0 19
  109.09057 46.0 46
  109.10381 26.0 26
  110.02357 30.0 30
  110.09545 921.0 920
  110.1059 62.0 62
  111.04167 68.0 68
  111.07777 22.0 22
  111.08389 30.0 30
  111.09939 21.0 21
  111.10689 128.0 128
  111.91676 30.0 30
  112.044 34.0 34
  112.08517 24.0 24
  112.10686 71.0 71
  115.04843 19.0 19
  116.06568 142.0 142
  117.04567 19.0 19
  117.05218 23.0 23
  117.07021 434.0 434
  117.41107 24.0 24
  118.0757 58.0 58
  118.5797 20.0 20
  119.04575 56.0 56
  119.05108 146.0 146
  119.07562 22.0 22
  119.0872 403.0 403
  119.73522 19.0 19
  120.04218 22.0 22
  120.08028 21.0 21
  120.08386 39.0 39
  121.06748 183.0 183
  121.10018 27.0 27
  122.0942 244.0 244
  122.10057 275.0 275
  122.11 33.0 33
  122.88506 23.0 23
  123.0128 28.0 28
  123.0434 129.0 129
  123.05201 88.0 88
  123.0741 37.0 37
  123.08267 101.0 101
  123.09747 20.0 20
  123.10773 46.0 46
  123.11401 27.0 27
  124.09692 27.0 27
  124.11314 956.0 955
  125.06042 22.0 22
  125.10573 21.0 21
  125.11182 22.0 22
  125.12121 48.0 48
  125.32697 22.0 22
  126.06576 19.0 19
  126.12289 82.0 82
  126.13204 45.0 45
  127.05346 31.0 31
  127.1297 22.0 22
  127.34425 22.0 22
  128.05351 20.0 20
  128.06361 289.0 289
  128.64763 19.0 19
  129.0694 526.0 525
  130.0773 215.0 215
  131.04901 24.0 24
  131.08598 682.0 681
  132.01993 20.0 20
  132.08859 87.0 87
  132.09602 23.0 23
  133.04845 20.0 20
  133.06932 47.0 47
  133.10136 447.0 447
  133.10912 118.0 118
  134.09912 159.0 159
  135.04004 46.0 46
  135.07742 70.0 70
  135.08374 47.0 47
  135.10837 169.0 169
  135.11429 55.0 55
  135.1235 27.0 27
  136.08676 71.0 71
  136.09772 27.0 27
  136.1086 26.0 26
  136.11743 24.0 24
  137.04736 19.0 19
  137.05931 164.0 164
  138.06728 22.0 22
  138.131 65.0 65
  139.13937 19.0 19
  140.11313 30.0 30
  141.07178 579.0 578
  142.06639 23.0 23
  142.07579 172.0 172
  142.0826 120.0 120
  143.08543 1000.0 999
  143.47311 20.0 20
  144.0773 21.0 21
  144.08633 42.0 42
  144.09282 179.0 179
  145.05948 74.0 74
  145.06714 173.0 173
  145.10062 436.0 436
  145.10828 97.0 97
  146.08524 23.0 23
  146.10385 55.0 55
  146.11055 20.0 20
  147.06934 22.0 22
  147.10384 28.0 28
  147.11421 174.0 174
  147.13344 20.0 20
  148.11688 44.0 44
  148.125 50.0 50
  149.08636 38.0 38
  149.1317 61.0 61
  150.12955 110.0 110
  151.0779 26.0 26
  153.05301 47.0 47
  153.07126 145.0 145
  154.06468 27.0 27
  154.07829 152.0 152
  154.10234 23.0 23
  154.11816 31.0 31
  155.08441 301.0 301
  155.09198 206.0 206
  156.08678 20.0 20
  156.09746 80.0 80
  156.23454 35.0 35
  156.26643 31.0 31
  157.07082 19.0 19
  157.0936 82.0 82
  157.10226 563.0 562
  157.44785 19.0 19
  158.09117 23.0 23
  158.10335 96.0 96
  159.06633 20.0 20
  159.07907 72.0 72
  159.1003 58.0 58
  159.12019 274.0 274
  159.56558 34.0 34
  160.0965 30.0 30
  160.10867 160.0 160
  160.11772 60.0 60
  160.12811 22.0 22
  161.05511 24.0 24
  161.07063 21.0 21
  161.10986 26.0 26
  161.1176 44.0 44
  161.13168 76.0 76
  162.08957 27.0 27
  162.10248 22.0 22
  162.11922 136.0 136
  162.13054 111.0 111
  163.07689 22.0 22
  163.08864 26.0 26
  163.11182 22.0 22
  163.13683 35.0 35
  164.65366 21.0 21
  165.01712 27.0 27
  165.06758 278.0 278
  165.07614 234.0 234
  165.46384 20.0 20
  166.07629 171.0 171
  166.12646 20.0 20
  167.0865 266.0 266
  168.09523 222.0 222
  168.10364 46.0 46
  169.05951 19.0 19
  169.07822 19.0 19
  169.10081 356.0 356
  169.11259 38.0 38
  169.65353 19.0 19
  170.10695 174.0 174
  171.06894 19.0 19
  171.08485 21.0 21
  171.11467 204.0 204
  171.44931 19.0 19
  172.07677 21.0 21
  172.09351 20.0 20
  172.10851 82.0 82
  173.06049 26.0 26
  173.09576 118.0 118
  173.13374 82.0 82
  174.12598 48.0 48
  175.05962 27.0 27
  175.06784 26.0 26
  175.13608 25.0 25
  175.14854 64.0 64
  176.07217 24.0 24
  176.14435 22.0 22
  176.4319 43.0 43
  177.1622 39.0 39
  178.07625 234.0 234
  178.08803 23.0 23
  178.11438 30.0 30
  178.60295 23.0 23
  179.0827 444.0 444
  179.10924 23.0 23
  179.57761 33.0 33
  180.08882 67.0 67
  180.10344 46.0 46
  181.06526 21.0 21
  181.09224 70.0 70
  181.10583 297.0 297
  182.10307 24.0 24
  182.11214 102.0 102
  182.82333 21.0 21
  183.08067 23.0 23
  183.10477 42.0 42
  183.11577 338.0 338
  184.12048 62.0 62
  185.08789 23.0 23
  185.10115 100.0 100
  185.12956 105.0 105
  185.15179 19.0 19
  186.11578 20.0 20
  186.46852 19.0 19
  187.13329 20.0 20
  188.11436 20.0 20
  188.14066 66.0 66
  188.1494 25.0 25
  189.15038 24.0 24
  190.08195 32.0 32
  190.14946 104.0 104
  190.15945 60.0 60
  191.03404 22.0 22
  191.08493 65.0 65
  191.10042 47.0 47
  191.16466 57.0 57
  191.45003 19.0 19
  192.09586 157.0 157
  192.17805 23.0 23
  193.0974 156.0 156
  193.10847 89.0 89
  193.16374 19.0 19
  194.09769 19.0 19
  194.10997 123.0 123
  194.14906 31.0 31
  195.0589 23.0 23
  195.07387 32.0 32
  195.10245 51.0 51
  195.11696 211.0 211
  196.11792 73.0 73
  196.12962 51.0 51
  197.09703 30.0 30
  197.11664 89.0 89
  197.13591 116.0 116
  197.19153 37.0 37
  198.10406 24.0 24
  198.13158 38.0 38
  198.14188 26.0 26
  199.14647 180.0 180
  202.06894 26.0 26
  202.13002 41.0 41
  202.16154 33.0 33
  202.27635 20.0 20
  203.07646 38.0 38
  203.08994 69.0 69
  203.11595 31.0 31
  204.09224 43.0 43
  204.13054 19.0 19
  205.10536 117.0 117
  205.16109 21.0 21
  206.11234 46.0 46
  207.11377 65.0 65
  207.12958 27.0 27
  208.121 85.0 85
  209.10442 25.0 25
  209.12025 49.0 49
  209.12875 56.0 56
  210.09154 20.0 20
  210.12665 45.0 45
  211.10791 26.0 26
  211.1312 24.0 24
  211.14958 79.0 79
  212.14227 23.0 23
  213.11819 30.0 30
  213.12666 19.0 19
  213.15367 21.0 21
  214.12299 25.0 25
  214.15666 48.0 48
  214.16522 24.0 24
  215.16322 19.0 19
  216.14572 20.0 20
  217.07173 22.0 22
  217.10139 141.0 141
  217.11371 28.0 28
  217.13564 20.0 20
  218.09659 41.0 41
  218.10907 200.0 200
  218.1571 22.0 22
  219.1129 23.0 23
  219.12395 48.0 48
  219.57281 20.0 20
  219.70555 26.0 26
  220.12263 35.0 35
  220.13315 24.0 24
  222.10587 39.0 39
  222.13376 27.0 27
  222.14499 59.0 59
  223.15025 97.0 97
  223.16322 25.0 25
  224.15295 35.0 35
  224.46703 19.0 19
  225.12047 23.0 23
  225.12968 70.0 70
  225.17126 37.0 37
  226.16856 19.0 19
  227.13757 114.0 114
  227.15202 55.0 55
  227.16362 25.0 25
  228.15018 26.0 26
  228.17012 19.0 19
  231.11147 26.0 26
  232.11752 39.0 39
  235.15042 23.0 23
  236.83131 24.0 24
  237.11505 22.0 22
  237.13382 27.0 27
  237.17413 33.0 33
  238.13683 47.0 47
  241.03813 21.0 21
  241.1427 19.0 19
  241.1875 22.0 22
  243.17601 26.0 26
  243.20226 20.0 20
  244.15746 25.0 25
  244.16576 45.0 45
  245.15158 43.0 43
  246.158 31.0 31
  247.14734 22.0 22
  250.17709 33.0 33
  252.16507 19.0 19
  253.53394 23.0 23
  255.20912 22.0 22
  256.16129 24.0 24
  256.19748 32.0 32
  258.19403 26.0 26
  258.22363 26.0 26
  259.15063 61.0 61
  259.15936 24.0 24
  259.35519 20.0 20
  259.45319 22.0 22
  260.17242 19.0 19
  264.17471 19.0 19
  264.18787 21.0 21
  264.63022 28.0 28
  265.15994 21.0 21
  266.16214 26.0 26
  270.23532 21.0 21
  271.20178 21.0 21
  272.17044 26.0 26
  272.19745 20.0 20
  272.21347 26.0 26
  277.18164 19.0 19
  278.72296 23.0 23
  279.18188 30.0 30
  280.21518 19.0 19
  282.20459 26.0 26
  283.23459 56.0 56
  284.19571 25.0 25
  285.18515 26.0 26
  286.16858 27.0 27
  287.16992 21.0 21
  287.91959 19.0 19
  289.61975 53.0 53
  292.20172 25.0 25
  295.2149 28.0 28
  296.2002 21.0 21
  296.21143 24.0 24
  297.1944 21.0 21
  298.21649 24.0 24
  299.2251 23.0 23
  300.19037 23.0 23
  300.23254 102.0 102
  304.21542 49.0 49
  304.23383 23.0 23
  310.20175 49.0 49
  310.22351 187.0 187
  311.21286 20.0 20
  314.25134 19.0 19
  315.20441 26.0 26
  315.21704 24.0 24
  316.21164 24.0 24
  324.23581 19.0 19
  328.22592 406.0 406
  329.23572 23.0 23
  329.71576 19.0 19
  330.17599 22.0 22
  330.20761 24.0 24
  330.23804 26.0 26
  331.20786 24.0 24
  332.22083 134.0 134
  333.22531 22.0 22
  342.24301 88.0 88
  342.26489 32.0 32
  343.23898 58.0 58
  344.21445 20.0 20
  352.57806 22.0 22
  357.25003 21.0 21
  360.22623 19.0 19
  360.25485 698.0 697
  361.25183 225.0 225
  362.25769 20.0 20
  362.27173 42.0 42
  363.67545 22.0 22
  369.70181 19.0 19
  378.24094 19.0 19
  378.25937 131.0 131
  378.27109 171.0 171
//
