ACCESSION: MSBNK-RIKEN-PR300452
RECORD_TITLE: Emetine; LC-ESI-QTOF; MS2
DATE: 2019.03.28
AUTHORS: Tetsuya Mori, Center for Sustainable Resource Science, RIKEN
LICENSE: CC BY-NC-SA
PUBLICATION: Tsugawa H., Nakabayashi R., Mori T., Yamada Y., Takahashi M., Rai A., Sugiyama R., Yamamoto H., Nakaya T., Yamazaki M., Kooke R., Bac-Molenaar JA., Oztolan-Erol N., Keurentjes JJB., Arita M., Saito K. (2019) "A cheminformatics approach to characterize metabolomes in stable-isotope-labeled organisms" Nature Methods 16(4):295-298. [doi:10.1038/s41592-019-0358-2]
COMMENT: registered in RIKEN PlaSMA
CH$NAME: Emetine
CH$COMPOUND_CLASS: Emetine alkaloids
CH$FORMULA: C29H40N2O4
CH$EXACT_MASS: 480.649
CH$SMILES: CC[C@H]1CN2CCC3=CC(OC)=C(OC)C=C3[C@@H]2C[C@@H]1C[C@H]1NCCC2=CC(OC)=C(OC)C=C12
CH$IUPAC: InChI=1S/C29H40N2O4/c1-6-18-17-31-10-8-20-14-27(33-3)29(35-5)16-23(20)25(31)12-21(18)11-24-22-15-28(34-4)26(32-2)13-19(22)7-9-30-24/h13-16,18,21,24-25,30H,6-12,17H2,1-5H3/t18-,21-,24+,25-/m0/s1
CH$LINK: INCHIKEY AUVVAXYIELKVAI-CKBKHPSWSA-N
AC$INSTRUMENT: LC, Waters Acquity UPLC System; MS, Waters Xevo G2 Q-Tof
AC$INSTRUMENT_TYPE: LC-ESI-QTOF
AC$MASS_SPECTROMETRY: MS_TYPE MS2
AC$MASS_SPECTROMETRY: ION_MODE POSITIVE
AC$MASS_SPECTROMETRY: COLLISION_ENERGY 6V
AC$MASS_SPECTROMETRY: DESOLVATION_GAS_FLOW 800/h
AC$MASS_SPECTROMETRY: DESOLVATION_TEMPERATURE 450 C
AC$MASS_SPECTROMETRY: IONIZATION ESI
AC$CHROMATOGRAPHY: CAPILLARY_VOLTAGE +3.00 kV
AC$CHROMATOGRAPHY: COLUMN_NAME Acquity bridged ethyl hybrid C18 (1.7 um, 2.1 mm * 100 mm, Waters)
AC$CHROMATOGRAPHY: COLUMN_TEMPERATURE 40 C
AC$CHROMATOGRAPHY: FLOW_GRADIENT A/B = (99.5%/0.5% at 0 min, 99.5%/0.5% at 0.1 min, 20%/80% at 10 min, 0.5%/99.5% at 10.1 min, 0.5%/99.5% at 12.0 min, 99.5%/0.5% at 12.1 min, 99.5%/0.5% at 15.0 min)
AC$CHROMATOGRAPHY: FLOW_RATE 0.3 ml/min at 0 min, 0.3 ml/min at 10 min, 0.4 ml/min at 10.1 min, 0.4 ml/min at 14.4 min, 0.3 ml/min at 14.5 min
AC$CHROMATOGRAPHY: RETENTION_TIME 3.412183
AC$CHROMATOGRAPHY: SOLVENT A water including 0.1% formic acid
AC$CHROMATOGRAPHY: SOLVENT B acetonitrile including 0.1% formic acid
MS$FOCUSED_ION: PRECURSOR_TYPE [M+H]+
MS$FOCUSED_ION: PRECURSOR_M/Z 481.3060842
PK$SPLASH: splash10-0089-0980000000-79162caba745ca96ed0c
PK$NUM_PEAK: 211
PK$PEAK: m/z int. rel.int.
  99.50823 27.0 27
  105.07084 104.0 104
  116.06367 23.0 23
  121.06932 25.0 25
  122.06953 117.0 117
  129.0699 52.0 52
  129.19926 27.0 27
  130.06541 33.0 33
  131.06683 27.0 27
  131.07684 25.0 25
  131.36913 34.0 34
  132.05434 25.0 25
  133.06674 79.0 79
  134.03714 33.0 33
  134.06007 27.0 27
  134.06822 61.0 61
  136.03014 23.0 23
  136.08553 60.0 60
  143.09552 29.0 29
  145.06592 60.0 60
  146.07458 153.0 153
  146.08655 90.0 90
  147.06589 76.0 76
  147.07596 31.0 31
  147.08482 34.0 34
  147.17337 22.0 22
  148.06082 41.0 41
  148.08328 36.0 36
  148.09956 45.0 45
  149.04123 46.0 46
  150.05939 57.0 57
  150.07224 122.0 122
  151.05872 31.0 31
  151.0679 36.0 36
  151.07629 34.0 34
  157.06148 31.0 31
  157.0862 28.0 28
  158.05402 28.0 28
  158.38081 32.0 32
  159.03859 34.0 34
  159.04544 39.0 39
  159.06288 43.0 43
  159.07483 98.0 98
  160.07555 111.0 111
  160.09161 205.0 205
  161.06273 52.0 52
  161.07431 25.0 25
  161.08607 38.0 38
  161.1003 62.0 62
  162.06685 25.0 25
  162.07698 25.0 25
  162.09232 55.0 55
  163.05997 27.0 27
  163.07765 64.0 64
  164.08128 25.0 25
  165.08403 273.0 273
  165.09386 350.0 350
  166.08589 37.0 37
  166.09795 24.0 24
  167.08769 45.0 45
  168.08247 31.0 31
  172.08211 46.0 46
  172.91252 22.0 22
  173.08238 28.0 28
  173.09299 56.0 56
  174.06454 51.0 51
  174.07379 51.0 51
  174.09744 103.0 103
  174.10455 36.0 36
  175.07451 37.0 37
  176.00818 64.0 64
  176.06859 66.0 66
  176.07704 57.0 57
  176.09209 62.0 62
  177.08667 169.0 169
  177.09311 255.0 255
  178.07542 45.0 45
  178.08592 54.0 54
  178.09616 138.0 138
  179.09909 54.0 54
  179.10986 47.0 47
  185.08504 38.0 38
  185.09854 29.0 29
  185.11555 54.0 54
  185.12199 73.0 73
  186.09436 101.0 101
  188.08142 25.0 25
  189.07407 52.0 52
  189.0863 153.0 153
  189.10201 33.0 33
  190.08409 227.0 227
  190.0916 166.0 166
  190.09961 70.0 70
  190.11035 25.0 25
  191.08469 73.0 73
  191.0974 89.0 89
  191.12079 23.0 23
  192.07797 36.0 36
  192.10263 220.0 220
  193.10907 70.0 70
  194.11783 34.0 34
  195.24547 28.0 28
  198.09001 79.0 79
  198.10303 140.0 140
  198.11411 31.0 31
  199.0753 22.0 22
  199.08321 27.0 27
  199.10695 24.0 24
  199.13675 23.0 23
  200.1245 25.0 25
  201.08485 75.0 75
  201.11594 31.0 31
  202.0804 22.0 22
  202.10957 22.0 22
  202.1226 74.0 74
  202.15329 22.0 22
  203.09505 38.0 38
  203.10361 47.0 47
  204.09189 23.0 23
  204.10185 61.0 61
  205.10789 318.0 318
  205.23886 41.0 41
  206.11545 60.0 60
  209.01933 27.0 27
  211.0946 31.0 31
  211.10611 32.0 32
  212.11996 25.0 25
  214.11359 43.0 43
  214.12379 134.0 134
  214.14011 27.0 27
  215.11679 38.0 38
  216.08885 50.0 50
  216.10002 29.0 29
  218.12614 29.0 29
  220.12294 28.0 28
  220.14218 32.0 32
  226.1118 32.0 32
  226.12785 47.0 47
  227.08705 25.0 25
  228.09572 29.0 29
  230.1194 1000.0 999
  231.11197 52.0 52
  231.12949 292.0 292
  231.1505 24.0 24
  231.77325 24.0 24
  232.10524 31.0 31
  232.133 60.0 60
  232.14104 28.0 28
  240.09875 29.0 29
  240.11775 22.0 22
  242.11993 22.0 22
  242.15567 59.0 59
  243.11728 33.0 33
  244.13213 103.0 103
  244.14244 45.0 45
  245.1265 33.0 33
  245.14915 25.0 25
  246.13802 196.0 196
  246.15182 610.0 609
  246.17062 27.0 27
  246.53032 22.0 22
  247.12749 23.0 23
  247.14993 154.0 154
  247.17421 23.0 23
  248.15831 25.0 25
  252.1364 42.0 42
  252.48587 37.0 37
  254.11208 28.0 28
  255.12801 32.0 32
  256.1395 209.0 209
  257.12228 25.0 25
  257.14563 45.0 45
  257.17041 27.0 27
  258.12723 28.0 28
  258.14191 116.0 116
  258.16574 23.0 23
  270.16193 46.0 46
  271.151 87.0 87
  271.16364 37.0 37
  271.56296 25.0 25
  271.90189 31.0 31
  272.16498 433.0 433
  272.17661 265.0 265
  273.16974 102.0 102
  274.14993 62.0 62
  274.16745 70.0 70
  274.18536 355.0 355
  282.12689 24.0 24
  284.18259 46.0 46
  285.14606 25.0 25
  286.18207 129.0 129
  288.19284 36.0 36
  296.16501 29.0 29
  298.18713 28.0 28
  362.17911 31.0 31
  376.1958 28.0 28
  388.20047 43.0 43
  392.17758 29.0 29
  404.21875 25.0 25
  404.23099 33.0 33
  405.25024 31.0 31
  418.21774 29.0 29
  418.24414 33.0 33
  435.24023 37.0 37
  436.23279 25.0 25
  436.2551 34.0 34
  444.25476 69.0 69
  447.27054 39.0 39
  448.25769 29.0 29
  448.27084 25.0 25
  466.28903 46.0 46
//
