ACCESSION: MSBNK-RIKEN-PR300451
RECORD_TITLE: Sinomenine; LC-ESI-QTOF; MS2
DATE: 2019.03.28
AUTHORS: Tetsuya Mori, Center for Sustainable Resource Science, RIKEN
LICENSE: CC BY-NC-SA
PUBLICATION: Tsugawa H., Nakabayashi R., Mori T., Yamada Y., Takahashi M., Rai A., Sugiyama R., Yamamoto H., Nakaya T., Yamazaki M., Kooke R., Bac-Molenaar JA., Oztolan-Erol N., Keurentjes JJB., Arita M., Saito K. (2019) "A cheminformatics approach to characterize metabolomes in stable-isotope-labeled organisms" Nature Methods 16(4):295-298. [doi:10.1038/s41592-019-0358-2]
COMMENT: registered in RIKEN PlaSMA
CH$NAME: Sinomenine
CH$COMPOUND_CLASS: Morphinans
CH$FORMULA: C19H23NO4
CH$EXACT_MASS: 329.396
CH$SMILES: COC1=C[C@@H]2[C@@H]3CC4=C(C(O)=C(OC)C=C4)[C@]2(CCN3C)CC1=O
CH$IUPAC: InChI=1S/C19H23NO4/c1-20-7-6-19-10-14(21)16(24-3)9-12(19)13(20)8-11-4-5-15(23-2)18(22)17(11)19/h4-5,9,12-13,22H,6-8,10H2,1-3H3/t12-,13+,19-/m1/s1
CH$LINK: INCHIKEY INYYVPJSBIVGPH-QHRIQVFBSA-N
AC$INSTRUMENT: LC, Waters Acquity UPLC System; MS, Waters Xevo G2 Q-Tof
AC$INSTRUMENT_TYPE: LC-ESI-QTOF
AC$MASS_SPECTROMETRY: MS_TYPE MS2
AC$MASS_SPECTROMETRY: ION_MODE POSITIVE
AC$MASS_SPECTROMETRY: COLLISION_ENERGY 6V
AC$MASS_SPECTROMETRY: DESOLVATION_GAS_FLOW 800/h
AC$MASS_SPECTROMETRY: DESOLVATION_TEMPERATURE 450 C
AC$MASS_SPECTROMETRY: IONIZATION ESI
AC$CHROMATOGRAPHY: CAPILLARY_VOLTAGE +3.00 kV
AC$CHROMATOGRAPHY: COLUMN_NAME Acquity bridged ethyl hybrid C18 (1.7 um, 2.1 mm * 100 mm, Waters)
AC$CHROMATOGRAPHY: COLUMN_TEMPERATURE 40 C
AC$CHROMATOGRAPHY: FLOW_GRADIENT A/B = (99.5%/0.5% at 0 min, 99.5%/0.5% at 0.1 min, 20%/80% at 10 min, 0.5%/99.5% at 10.1 min, 0.5%/99.5% at 12.0 min, 99.5%/0.5% at 12.1 min, 99.5%/0.5% at 15.0 min)
AC$CHROMATOGRAPHY: FLOW_RATE 0.3 ml/min at 0 min, 0.3 ml/min at 10 min, 0.4 ml/min at 10.1 min, 0.4 ml/min at 14.4 min, 0.3 ml/min at 14.5 min
AC$CHROMATOGRAPHY: RETENTION_TIME 3.033383
AC$CHROMATOGRAPHY: SOLVENT A water including 0.1% formic acid
AC$CHROMATOGRAPHY: SOLVENT B acetonitrile including 0.1% formic acid
MS$FOCUSED_ION: PRECURSOR_TYPE [M+H]+
MS$FOCUSED_ION: PRECURSOR_M/Z 330.1699847
PK$SPLASH: splash10-0udi-0910000000-4de985c50c958e5ede20
PK$NUM_PEAK: 272
PK$PEAK: m/z int. rel.int.
  68.033 8.0 8
  77.04302 6.0 6
  78.04315 6.0 6
  89.03995 10.0 10
  91.04485 10.0 10
  91.05235 12.0 12
  91.05674 31.0 31
  94.02912 8.0 8
  94.04158 8.0 8
  94.06098 13.0 13
  96.07951 30.0 30
  102.04682 9.0 9
  105.06918 9.0 9
  107.07238 9.0 9
  108.04587 6.0 6
  109.66201 6.0 6
  110.09608 6.0 6
  115.05084 28.0 28
  115.05784 17.0 17
  115.08158 8.0 8
  116.0625 8.0 8
  117.05424 6.0 6
  117.07159 8.0 8
  119.04849 25.0 25
  122.03516 36.0 36
  122.0651 5.0 5
  122.09588 30.0 30
  122.95546 6.0 6
  123.0332 6.0 6
  123.07716 18.0 18
  127.05305 43.0 43
  127.0643 5.0 5
  128.05804 10.0 10
  128.06584 37.0 37
  129.06845 20.0 20
  129.07442 9.0 9
  129.99286 6.0 6
  131.04961 20.0 20
  131.89716 5.0 5
  135.03711 6.0 6
  135.42271 6.0 6
  136.04411 5.0 5
  137.06046 59.0 59
  137.0775 13.0 13
  138.0565 5.0 5
  139.05318 58.0 58
  140.06363 136.0 136
  140.08078 8.0 8
  141.05862 12.0 12
  141.06859 109.0 109
  142.07423 44.0 44
  143.03714 5.0 5
  143.08115 10.0 10
  143.09102 6.0 6
  144.04333 5.0 5
  144.05753 39.0 39
  144.08122 7.0 7
  145.06165 20.0 20
  145.07022 11.0 11
  146.06705 5.0 5
  147.04649 12.0 12
  147.09213 5.0 5
  150.04781 8.0 8
  150.08562 28.0 28
  150.09402 33.0 33
  151.03015 15.0 15
  151.05499 312.0 312
  151.09236 10.0 10
  152.03665 12.0 12
  152.06232 1000.0 999
  152.08159 10.0 10
  153.01657 8.0 8
  153.06865 870.0 869
  154.07289 77.0 77
  154.08472 7.0 7
  155.05099 69.0 69
  155.08621 27.0 27
  156.04553 7.0 7
  156.05782 28.0 28
  156.08572 11.0 11
  156.10034 9.0 9
  157.06795 22.0 22
  158.05652 7.0 7
  158.07382 10.0 10
  158.08499 6.0 6
  158.85332 8.0 8
  159.04051 9.0 9
  159.0847 8.0 8
  159.88196 5.0 5
  160.07802 9.0 9
  160.08614 8.0 8
  161.05959 19.0 19
  161.08066 7.0 7
  161.10205 6.0 6
  163.03703 5.0 5
  163.05408 6.0 6
  164.06296 36.0 36
  165.04707 7.0 7
  165.06163 110.0 110
  165.07204 215.0 215
  166.07263 58.0 58
  166.0833 20.0 20
  167.05423 7.0 7
  167.07855 14.0 14
  167.09868 9.0 9
  168.03409 16.0 16
  168.05803 442.0 442
  168.08432 6.0 6
  169.06374 152.0 152
  169.07742 11.0 11
  170.05933 7.0 7
  170.07605 40.0 40
  170.10074 7.0 7
  171.04021 28.0 28
  171.05261 8.0 8
  172.05331 36.0 36
  172.0811 5.0 5
  173.05951 45.0 45
  173.16235 5.0 5
  175.05948 7.0 7
  175.82777 5.0 5
  176.0502 6.0 6
  176.06094 25.0 25
  177.03549 6.0 6
  177.06624 41.0 41
  177.07491 25.0 25
  177.13779 6.0 6
  178.06152 8.0 8
  178.07706 129.0 129
  178.0829 58.0 58
  179.04123 44.0 44
  179.04842 162.0 162
  179.0867 77.0 77
  179.09651 17.0 17
  180.04103 11.0 11
  180.05687 175.0 175
  180.08723 29.0 29
  181.03725 8.0 8
  181.06641 438.0 438
  182.06473 64.0 64
  182.07388 61.0 61
  183.04405 57.0 57
  183.06679 12.0 12
  183.08293 48.0 48
  184.04404 12.0 12
  184.06386 29.0 29
  184.07576 11.0 11
  184.08302 8.0 8
  184.092 13.0 13
  185.05464 15.0 15
  185.09911 19.0 19
  186.07167 17.0 17
  186.10141 5.0 5
  187.06941 29.0 29
  187.07812 20.0 20
  188.05827 6.0 6
  188.07765 26.0 26
  189.03568 6.0 6
  189.05901 5.0 5
  189.07097 43.0 43
  190.0696 18.0 18
  190.07877 8.0 8
  190.09526 11.0 11
  191.03929 6.0 6
  191.0733 5.0 5
  191.08179 5.0 5
  192.05455 23.0 23
  192.06477 14.0 14
  193.04456 11.0 11
  193.06557 38.0 38
  193.07634 20.0 20
  194.03479 8.0 8
  194.06512 14.0 14
  194.07553 15.0 15
  194.09659 19.0 19
  195.04301 54.0 54
  195.07391 39.0 39
  195.0825 76.0 76
  195.17509 5.0 5
  196.05318 140.0 140
  196.0806 16.0 16
  196.08749 35.0 35
  197.04584 15.0 15
  197.06096 91.0 91
  197.08702 6.0 6
  197.10226 9.0 9
  198.03986 7.0 7
  198.06895 27.0 27
  198.08565 19.0 19
  199.05838 17.0 17
  199.0714 33.0 33
  199.08151 24.0 24
  199.09821 19.0 19
  200.07613 5.0 5
  201.05197 15.0 15
  201.09439 16.0 16
  201.10448 5.0 5
  205.06113 14.0 14
  205.06827 11.0 11
  206.01189 5.0 5
  206.06958 18.0 18
  206.98199 5.0 5
  207.00874 5.0 5
  207.02141 7.0 7
  207.04462 331.0 331
  207.07712 18.0 18
  207.0881 6.0 6
  207.1003 6.0 6
  208.04834 53.0 53
  209.05989 29.0 29
  210.05513 5.0 5
  210.07321 7.0 7
  210.08337 9.0 9
  210.09152 14.0 14
  211.05194 18.0 18
  211.07587 106.0 106
  211.09575 8.0 8
  212.05588 6.0 6
  212.07556 9.0 9
  212.08826 7.0 7
  212.64357 6.0 6
  213.05675 20.0 20
  213.06778 11.0 11
  213.07825 7.0 7
  213.09773 5.0 5
  214.10172 6.0 6
  214.50714 6.0 6
  215.0567 7.0 7
  215.07881 8.0 8
  215.10286 6.0 6
  216.0836 11.0 11
  218.07755 11.0 11
  220.04156 5.0 5
  220.11537 9.0 9
  221.03862 8.0 8
  221.06859 9.0 9
  223.067 11.0 11
  223.0762 20.0 20
  224.04918 26.0 26
  224.08881 5.0 5
  225.0553 26.0 26
  225.0636 14.0 14
  226.04773 7.0 7
  226.06425 15.0 15
  226.07338 6.0 6
  226.09885 6.0 6
  227.07043 22.0 22
  227.07846 18.0 18
  227.09901 6.0 6
  229.08728 5.0 5
  230.06744 6.0 6
  230.09705 14.0 14
  232.78023 5.0 5
  234.06432 9.0 9
  236.08871 8.0 8
  237.03418 5.0 5
  237.06149 5.0 5
  237.10849 11.0 11
  239.06104 11.0 11
  240.1066 6.0 6
  241.06641 11.0 11
  241.08934 7.0 7
  242.09183 7.0 7
  243.0735 6.0 6
  245.10652 5.0 5
  245.12315 8.0 8
  251.06851 8.0 8
  253.05933 11.0 11
  256.08258 7.0 7
  270.16266 8.0 8
  272.15228 8.0 8
  284.1098 6.0 6
//
