ACCESSION: MSBNK-RIKEN-PR303835
RECORD_TITLE: Ginkgolide B; LC-ESI-QTOF; MS2
DATE: 2019.03.28
AUTHORS: Tetsuya Mori, Center for Sustainable Resource Science, RIKEN
LICENSE: CC BY-NC-SA
PUBLICATION: Tsugawa H., Nakabayashi R., Mori T., Yamada Y., Takahashi M., Rai A., Sugiyama R., Yamamoto H., Nakaya T., Yamazaki M., Kooke R., Bac-Molenaar JA., Oztolan-Erol N., Keurentjes JJB., Arita M., Saito K. (2019) "A cheminformatics approach to characterize metabolomes in stable-isotope-labeled organisms" Nature Methods 16(4):295-298. [doi:10.1038/s41592-019-0358-2]
COMMENT: registered in RIKEN PlaSMA
CH$NAME: Ginkgolide B
CH$COMPOUND_CLASS: Ginkgolides and bilobalides
CH$FORMULA: C20H24O10
CH$EXACT_MASS: 424.402
CH$SMILES: C[C@@H]1C(=O)O[C@H]2[C@H](O)[C@@]34[C@H]5C[C@@H](C(C)(C)C)[C@@]33[C@@H](O)C(=O)O[C@H]3O[C@@]4(C(=O)O5)[C@@]12O
CH$IUPAC: InChI=1S/C20H24O10/c1-6-12(23)28-11-9(21)18-8-5-7(16(2,3)4)17(18)10(22)13(24)29-15(17)30-20(18,14(25)27-8)19(6,11)26/h6-11,15,21-22,26H,5H2,1-4H3/t6-,7+,8-,9+,10+,11+,15+,17+,18+,19-,20-/m1/s1
CH$LINK: INCHIKEY SQOJOAFXDQDRGF-MMQTXUMRSA-N
AC$INSTRUMENT: LC, Waters Acquity UPLC System; MS, Waters Xevo G2 Q-Tof
AC$INSTRUMENT_TYPE: LC-ESI-QTOF
AC$MASS_SPECTROMETRY: MS_TYPE MS2
AC$MASS_SPECTROMETRY: ION_MODE POSITIVE
AC$MASS_SPECTROMETRY: COLLISION_ENERGY 6V
AC$MASS_SPECTROMETRY: DESOLVATION_GAS_FLOW 800/h
AC$MASS_SPECTROMETRY: DESOLVATION_TEMPERATURE 450 C
AC$MASS_SPECTROMETRY: IONIZATION ESI
AC$CHROMATOGRAPHY: CAPILLARY_VOLTAGE +3.00 kV
AC$CHROMATOGRAPHY: COLUMN_NAME Acquity bridged ethyl hybrid C18 (1.7 um, 2.1 mm * 100 mm, Waters)
AC$CHROMATOGRAPHY: COLUMN_TEMPERATURE 40 C
AC$CHROMATOGRAPHY: FLOW_GRADIENT A/B = (99.5%/0.5% at 0 min, 99.5%/0.5% at 0.1 min, 20%/80% at 10 min, 0.5%/99.5% at 10.1 min, 0.5%/99.5% at 12.0 min, 99.5%/0.5% at 12.1 min, 99.5%/0.5% at 15.0 min)
AC$CHROMATOGRAPHY: FLOW_RATE 0.3 ml/min at 0 min, 0.3 ml/min at 10 min, 0.4 ml/min at 10.1 min, 0.4 ml/min at 14.4 min, 0.3 ml/min at 14.5 min
AC$CHROMATOGRAPHY: RETENTION_TIME 5.359533
AC$CHROMATOGRAPHY: SOLVENT A water including 0.1% formic acid
AC$CHROMATOGRAPHY: SOLVENT B acetonitrile including 0.1% formic acid
MS$FOCUSED_ION: PRECURSOR_TYPE [M+H]+
MS$FOCUSED_ION: PRECURSOR_M/Z 425.1442234
PK$SPLASH: splash10-0a4i-0392000000-aa5285c223176be3fc7e
PK$NUM_PEAK: 416
PK$PEAK: m/z int. rel.int.
  65.03683 28.0 28
  71.08725 41.0 41
  79.05402 28.0 28
  83.08213 35.0 35
  91.05151 43.0 43
  94.07066 41.0 41
  94.07857 25.0 25
  95.08766 32.0 32
  96.9402 25.0 25
  97.03093 53.0 53
  97.06486 59.0 59
  104.97443 50.0 50
  105.07184 85.0 85
  110.0658 28.0 28
  111.06435 25.0 25
  112.09191 37.0 37
  113.02242 29.0 29
  113.09617 31.0 31
  120.08821 31.0 31
  123.08648 49.0 49
  125.02934 25.0 25
  129.06221 35.0 35
  129.07494 25.0 25
  133.0649 32.0 32
  142.07564 25.0 25
  142.08234 31.0 31
  143.09145 26.0 26
  145.02988 26.0 26
  145.05968 134.0 134
  145.06883 165.0 165
  145.1011 184.0 184
  146.10139 32.0 32
  147.08748 63.0 63
  148.04901 26.0 26
  149.02582 76.0 76
  149.05734 59.0 59
  151.04541 75.0 75
  152.04317 56.0 56
  153.02058 25.0 25
  155.03407 35.0 35
  155.07919 29.0 29
  155.08818 60.0 60
  155.53185 49.0 49
  157.06174 29.0 29
  157.09691 26.0 26
  157.11014 38.0 38
  158.07349 25.0 25
  159.04176 26.0 26
  159.0491 47.0 47
  159.08334 66.0 66
  159.10953 32.0 32
  159.11995 32.0 32
  159.12753 26.0 26
  160.12796 29.0 29
  161.05807 78.0 78
  161.10335 50.0 50
  162.02162 25.0 25
  162.06163 44.0 44
  163.03317 60.0 60
  163.05707 25.0 25
  165.09724 26.0 26
  166.08586 26.0 26
  167.03395 34.0 34
  167.08578 84.0 84
  169.10612 54.0 54
  170.10989 35.0 35
  171.08124 91.0 91
  171.10994 63.0 63
  171.1785 26.0 26
  172.08493 43.0 43
  172.12709 25.0 25
  173.05711 32.0 32
  173.06528 32.0 32
  173.08417 29.0 29
  173.09456 159.0 159
  173.13261 29.0 29
  175.0285 26.0 26
  175.03922 59.0 59
  175.04785 37.0 37
  175.07236 62.0 62
  175.11441 25.0 25
  176.06419 31.0 31
  177.0123 25.0 25
  177.05495 93.0 93
  177.07973 26.0 26
  177.09937 26.0 26
  179.03627 109.0 109
  180.04933 26.0 26
  181.08406 25.0 25
  181.09756 25.0 25
  183.0768 37.0 37
  183.08458 29.0 29
  185.02345 31.0 31
  185.05829 29.0 29
  185.06805 40.0 40
  185.07669 32.0 32
  185.0981 369.0 369
  186.06744 29.0 29
  187.0737 29.0 29
  187.10855 128.0 128
  187.11876 29.0 29
  188.11786 72.0 72
  189.0239 122.0 122
  189.04019 26.0 26
  189.08376 26.0 26
  189.16599 34.0 34
  191.01843 32.0 32
  191.03432 34.0 34
  191.06424 53.0 53
  191.09932 34.0 34
  191.11267 81.0 81
  193.01033 25.0 25
  193.04158 31.0 31
  195.04166 54.0 54
  195.10854 29.0 29
  195.12335 94.0 94
  196.08705 31.0 31
  196.09833 29.0 29
  197.09959 150.0 150
  197.13237 26.0 26
  197.1411 40.0 40
  198.09827 65.0 65
  199.06682 96.0 96
  199.07764 99.0 99
  199.10661 26.0 26
  199.13066 29.0 29
  199.14728 46.0 46
  199.15855 26.0 26
  200.08159 25.0 25
  200.13081 32.0 32
  201.05486 74.0 74
  201.07939 31.0 31
  201.09441 191.0 191
  201.51457 57.0 57
  202.75616 28.0 28
  203.02531 26.0 26
  203.03598 29.0 29
  203.06885 122.0 122
  203.09659 60.0 60
  203.33363 25.0 25
  204.99744 25.0 25
  205.05296 28.0 28
  205.10774 49.0 49
  206.04767 28.0 28
  206.07906 31.0 31
  206.98071 26.0 26
  207.02676 166.0 166
  207.03935 63.0 63
  207.07829 37.0 37
  207.12106 51.0 51
  208.09708 40.0 40
  208.20648 25.0 25
  209.06429 26.0 26
  209.08934 31.0 31
  209.13751 44.0 44
  210.127 29.0 29
  211.06654 59.0 59
  211.0818 35.0 35
  211.11417 62.0 62
  211.14267 60.0 60
  212.0856 26.0 26
  212.11922 29.0 29
  213.06421 26.0 26
  213.09245 250.0 250
  213.13011 90.0 90
  214.05528 46.0 46
  214.09386 37.0 37
  214.12959 35.0 35
  215.03491 25.0 25
  215.06728 43.0 43
  215.07579 62.0 62
  215.09201 56.0 56
  215.11198 100.0 100
  215.13707 25.0 25
  217.04091 25.0 25
  217.05038 134.0 134
  217.06189 37.0 37
  217.10362 26.0 26
  217.11388 34.0 34
  217.12958 37.0 37
  218.42119 32.0 32
  219.0343 103.0 103
  219.06844 29.0 29
  219.09732 29.0 29
  220.09596 84.0 84
  221.04013 81.0 81
  221.06168 41.0 41
  223.04187 28.0 28
  223.06024 28.0 28
  223.07793 26.0 26
  223.1057 44.0 44
  223.12886 49.0 49
  224.08218 34.0 34
  225.08215 26.0 26
  225.09096 125.0 125
  225.12712 125.0 125
  225.14545 68.0 68
  226.07481 76.0 76
  226.09602 29.0 29
  227.04193 54.0 54
  227.09413 63.0 63
  227.11522 59.0 59
  227.13919 43.0 43
  227.15005 28.0 28
  228.12523 68.0 68
  229.04428 81.0 81
  229.0538 53.0 53
  229.08429 341.0 341
  230.08298 31.0 31
  230.12906 35.0 35
  231.08334 32.0 32
  231.09752 165.0 165
  232.105 31.0 31
  232.13531 26.0 26
  233.0415 29.0 29
  233.06303 28.0 28
  233.11072 26.0 26
  233.19586 29.0 29
  234.04805 41.0 41
  236.03395 29.0 29
  236.06311 26.0 26
  236.11903 25.0 25
  236.32329 62.0 62
  237.08203 34.0 34
  237.09727 46.0 46
  237.12015 29.0 29
  237.92389 25.0 25
  238.14735 31.0 31
  238.3185 29.0 29
  238.86253 25.0 25
  239.06935 99.0 99
  241.01703 26.0 26
  241.04555 51.0 51
  241.08299 318.0 318
  241.09959 75.0 75
  241.12567 84.0 84
  242.08093 26.0 26
  242.12781 31.0 31
  242.13727 54.0 54
  243.05853 25.0 25
  243.06693 37.0 37
  243.10976 25.0 25
  243.1245 59.0 59
  243.13583 62.0 62
  243.14601 71.0 71
  243.16142 31.0 31
  244.15416 25.0 25
  245.02467 31.0 31
  245.04521 65.0 65
  245.07404 71.0 71
  245.09505 60.0 60
  245.11288 179.0 179
  246.09087 35.0 35
  247.04662 34.0 34
  247.06818 84.0 84
  247.09122 71.0 71
  247.10599 40.0 40
  247.11508 31.0 31
  247.12863 35.0 35
  248.1358 53.0 53
  249.07912 66.0 66
  249.11572 35.0 35
  250.10181 40.0 40
  251.0688 29.0 29
  251.09834 91.0 91
  251.11902 25.0 25
  252.10995 26.0 26
  253.06439 26.0 26
  253.08797 104.0 104
  253.11133 56.0 56
  253.12328 87.0 87
  253.13019 34.0 34
  254.09473 29.0 29
  254.12428 97.0 97
  254.99905 25.0 25
  255.05901 35.0 35
  255.07227 129.0 129
  255.1133 82.0 82
  255.13318 25.0 25
  256.13205 31.0 31
  257.07816 251.0 251
  257.0921 38.0 38
  257.10803 65.0 65
  257.11716 113.0 113
  258.05264 29.0 29
  258.08734 181.0 181
  259.06696 50.0 50
  259.09457 276.0 276
  259.13284 56.0 56
  260.08441 29.0 29
  261.07495 29.0 29
  261.09 32.0 32
  261.1084 87.0 87
  261.13904 34.0 34
  262.9614 37.0 37
  263.01901 26.0 26
  263.12347 26.0 26
  264.0578 25.0 25
  264.11163 32.0 32
  265.11984 82.0 82
  267.06332 26.0 26
  268.0798 28.0 28
  268.11008 29.0 29
  269.05249 44.0 44
  269.082 132.0 132
  269.10001 32.0 32
  269.12119 325.0 325
  270.1196 60.0 60
  271.09665 107.0 107
  271.13858 78.0 78
  271.94595 26.0 26
  272.0853 29.0 29
  272.13925 25.0 25
  273.04828 28.0 28
  273.10248 29.0 29
  273.11972 32.0 32
  273.13269 43.0 43
  274.03625 25.0 25
  274.87885 29.0 29
  275.09164 149.0 149
  276.09619 56.0 56
  277.04559 29.0 29
  277.10394 25.0 25
  277.14813 28.0 28
  278.11963 44.0 44
  279.08478 38.0 38
  279.1004 221.0 221
  280.07019 53.0 53
  280.103 88.0 88
  281.07993 69.0 69
  281.12094 213.0 213
  283.09152 37.0 37
  283.11322 26.0 26
  283.15222 25.0 25
  284.1156 43.0 43
  285.06943 53.0 53
  286.07831 50.0 50
  286.13852 29.0 29
  286.72717 25.0 25
  287.05313 28.0 28
  287.09113 162.0 162
  287.11795 88.0 88
  287.13837 88.0 88
  287.30286 25.0 25
  288.12857 25.0 25
  289.08008 41.0 41
  289.10748 137.0 137
  289.13013 54.0 54
  289.14307 116.0 116
  290.1188 28.0 28
  291.05322 38.0 38
  293.08472 60.0 60
  296.10373 26.0 26
  297.11041 201.0 201
  297.13284 26.0 26
  298.07523 31.0 31
  298.11771 109.0 109
  299.12677 107.0 107
  299.13754 87.0 87
  300.12918 40.0 40
  300.13864 26.0 26
  301.08664 29.0 29
  302.03348 32.0 32
  302.08627 35.0 35
  303.08344 31.0 31
  303.12271 32.0 32
  305.10352 1000.0 999
  305.13657 26.0 26
  306.1062 184.0 184
  307.09842 107.0 107
  307.11884 25.0 25
  308.1033 26.0 26
  309.11911 60.0 60
  311.07822 29.0 29
  312.09149 25.0 25
  313.51929 56.0 56
  315.09729 47.0 47
  315.11029 78.0 78
  315.12854 106.0 106
  316.12802 35.0 35
  319.048 34.0 34
  321.0892 26.0 26
  325.09744 44.0 44
  325.11069 99.0 99
  325.12396 44.0 44
  326.05942 43.0 43
  326.0979 29.0 29
  326.10947 56.0 56
  327.13116 93.0 93
  328.11502 25.0 25
  333.14157 25.0 25
  335.03046 28.0 28
  335.095 32.0 32
  335.10544 25.0 25
  338.04825 29.0 29
  343.07855 25.0 25
  343.10358 57.0 57
  343.11942 179.0 179
  343.12817 51.0 51
  344.12888 63.0 63
  344.14487 29.0 29
  347.15414 28.0 28
  347.57492 32.0 32
  351.1391 65.0 65
  353.09644 25.0 25
  353.10794 25.0 25
  354.108 35.0 35
  361.10931 24.0 24
  361.12891 401.0 401
  362.11255 28.0 28
  362.14334 32.0 32
  364.12067 43.0 43
  371.09958 43.0 43
  371.11606 25.0 25
  425.13312 66.0 66
  425.14825 28.0 28
//
