ACCESSION: MSBNK-RIKEN-PR300130
RECORD_TITLE: Gardneramine; LC-ESI-QTOF; MS2
DATE: 2019.03.28
AUTHORS: Tetsuya Mori, Center for Sustainable Resource Science, RIKEN
LICENSE: CC BY-NC-SA
PUBLICATION: Tsugawa H., Nakabayashi R., Mori T., Yamada Y., Takahashi M., Rai A., Sugiyama R., Yamamoto H., Nakaya T., Yamazaki M., Kooke R., Bac-Molenaar JA., Oztolan-Erol N., Keurentjes JJB., Arita M., Saito K. (2019) "A cheminformatics approach to characterize metabolomes in stable-isotope-labeled organisms" Nature Methods 16(4):295-298. [doi:10.1038/s41592-019-0358-2]
COMMENT: registered in RIKEN PlaSMA
CH$NAME: Gardneramine
CH$COMPOUND_CLASS: 3-alkylindoles
CH$FORMULA: C23H28N2O5
CH$EXACT_MASS: 412.486
CH$SMILES: COC\C=C1/CN2[C@H]3CC45C2C[C@H]1[C@@H]3COC4=NC1=C5C(OC)=C(OC)C=C1OC
CH$IUPAC: InChI=1S/C23H28N2O5/c1-26-6-5-12-10-25-15-9-23-18(25)7-13(12)14(15)11-30-22(23)24-20-16(27-2)8-17(28-3)21(29-4)19(20)23/h5,8,13-15,18H,6-7,9-11H2,1-4H3/b12-5+/t13-,14+,15+,18?,23?/m1/s1
CH$LINK: INCHIKEY RIMDDIPKIZTBHU-KPDHXFAYSA-N
AC$INSTRUMENT: LC, Waters Acquity UPLC System; MS, Waters Xevo G2 Q-Tof
AC$INSTRUMENT_TYPE: LC-ESI-QTOF
AC$MASS_SPECTROMETRY: MS_TYPE MS2
AC$MASS_SPECTROMETRY: ION_MODE POSITIVE
AC$MASS_SPECTROMETRY: COLLISION_ENERGY 6V
AC$MASS_SPECTROMETRY: DESOLVATION_GAS_FLOW 800/h
AC$MASS_SPECTROMETRY: DESOLVATION_TEMPERATURE 450 C
AC$MASS_SPECTROMETRY: IONIZATION ESI
AC$CHROMATOGRAPHY: CAPILLARY_VOLTAGE +3.00 kV
AC$CHROMATOGRAPHY: COLUMN_NAME Acquity bridged ethyl hybrid C18 (1.7 um, 2.1 mm * 100 mm, Waters)
AC$CHROMATOGRAPHY: COLUMN_TEMPERATURE 40 C
AC$CHROMATOGRAPHY: FLOW_GRADIENT A/B = (99.5%/0.5% at 0 min, 99.5%/0.5% at 0.1 min, 20%/80% at 10 min, 0.5%/99.5% at 10.1 min, 0.5%/99.5% at 12.0 min, 99.5%/0.5% at 12.1 min, 99.5%/0.5% at 15.0 min)
AC$CHROMATOGRAPHY: FLOW_RATE 0.3 ml/min at 0 min, 0.3 ml/min at 10 min, 0.4 ml/min at 10.1 min, 0.4 ml/min at 14.4 min, 0.3 ml/min at 14.5 min
AC$CHROMATOGRAPHY: RETENTION_TIME 3.822467
AC$CHROMATOGRAPHY: SOLVENT A water including 0.1% formic acid
AC$CHROMATOGRAPHY: SOLVENT B acetonitrile including 0.1% formic acid
MS$FOCUSED_ION: PRECURSOR_TYPE [M+H]+
MS$FOCUSED_ION: PRECURSOR_M/Z 413.2070985
PK$SPLASH: splash10-03di-0149400000-b061fc4bd8154fea79d5
PK$NUM_PEAK: 187
PK$PEAK: m/z int. rel.int.
  82.06825 8.0 8
  91.05276 6.0 6
  93.06994 7.0 7
  95.07059 7.0 7
  97.08487 5.0 5
  106.06037 8.0 8
  106.06512 18.0 18
  106.07098 9.0 9
  107.08382 6.0 6
  118.0659 6.0 6
  119.0752 22.0 22
  120.07977 19.0 19
  120.08585 9.0 9
  121.093 6.0 6
  131.07724 9.0 9
  132.0795 13.0 13
  132.08574 7.0 7
  134.09564 16.0 16
  136.07867 5.0 5
  138.09456 12.0 12
  144.08264 12.0 12
  146.09149 8.0 8
  146.09804 30.0 30
  150.08824 6.0 6
  151.09213 6.0 6
  151.10258 6.0 6
  152.10765 17.0 17
  158.09563 14.0 14
  161.0878 7.0 7
  164.10681 15.0 15
  166.12274 9.0 9
  176.10683 5.0 5
  177.11928 5.0 5
  178.12364 13.0 13
  184.07661 7.0 7
  190.08694 7.0 7
  205.07332 6.0 6
  206.07919 18.0 18
  207.05235 12.0 12
  216.06541 6.0 6
  218.04459 27.0 27
  218.05763 11.0 11
  219.05118 8.0 8
  219.08707 7.0 7
  220.063 10.0 10
  220.09758 38.0 38
  221.06729 7.0 7
  230.0835 7.0 7
  231.0826 14.0 14
  232.06454 17.0 17
  232.08421 6.0 6
  233.06839 192.0 192
  234.06946 34.0 34
  234.08267 14.0 14
  235.06956 9.0 9
  235.08308 15.0 15
  236.08351 8.0 8
  244.08316 6.0 6
  245.03966 12.0 12
  245.05719 34.0 34
  245.092 9.0 9
  246.06575 16.0 16
  246.10161 6.0 6
  246.10995 11.0 11
  247.08189 5.0 5
  248.09195 123.0 123
  249.08501 11.0 11
  249.09686 13.0 13
  250.10036 16.0 16
  250.11841 6.0 6
  256.06381 8.0 8
  257.0545 7.0 7
  258.07397 5.0 5
  258.09232 6.0 6
  259.07288 23.0 23
  260.07629 44.0 44
  260.08823 27.0 27
  261.08774 42.0 42
  261.10385 6.0 6
  262.09854 21.0 21
  270.08157 7.0 7
  271.08942 6.0 6
  272.08954 15.0 15
  273.08926 83.0 83
  273.11377 5.0 5
  274.09274 21.0 21
  275.09601 17.0 17
  280.10089 7.0 7
  282.0654 10.0 10
  282.0817 7.0 7
  284.08835 7.0 7
  286.10056 5.0 5
  286.11487 12.0 12
  287.09436 7.0 7
  287.11304 7.0 7
  292.12097 5.0 5
  295.07593 6.0 6
  295.12064 5.0 5
  296.08719 6.0 6
  297.08231 9.0 9
  297.09506 9.0 9
  301.12515 8.0 8
  306.0741 6.0 6
  307.11212 9.0 9
  309.1022 7.0 7
  310.10291 14.0 14
  310.13733 6.0 6
  311.10941 6.0 6
  313.11636 6.0 6
  319.10648 6.0 6
  321.08978 6.0 6
  321.10397 11.0 11
  321.13138 6.0 6
  322.09656 8.0 8
  322.11401 9.0 9
  322.1412 6.0 6
  323.09518 16.0 16
  323.10754 9.0 9
  323.12753 13.0 13
  323.14648 14.0 14
  324.11554 16.0 16
  324.15427 14.0 14
  324.17883 6.0 6
  325.1062 7.0 7
  325.12003 8.0 8
  325.13461 7.0 7
  326.11679 8.0 8
  327.13571 9.0 9
  333.11737 15.0 15
  334.10205 10.0 10
  334.11533 7.0 7
  335.10596 15.0 15
  335.13986 7.0 7
  336.11111 15.0 15
  336.12689 6.0 6
  337.10043 6.0 6
  337.11823 35.0 35
  338.12573 10.0 10
  338.14478 7.0 7
  338.17267 8.0 8
  339.13089 6.0 6
  339.14642 9.0 9
  340.12592 8.0 8
  348.11853 6.0 6
  349.14551 12.0 12
  349.15662 11.0 11
  350.1423 8.0 8
  351.1308 117.0 117
  351.146 38.0 38
  352.13321 28.0 28
  353.12411 17.0 17
  353.14783 80.0 80
  353.16321 21.0 21
  354.15347 16.0 16
  354.16544 15.0 15
  355.16711 41.0 41
  356.16107 15.0 15
  356.18262 10.0 10
  356.19391 12.0 12
  359.16745 7.0 7
  365.14267 28.0 28
  365.15295 58.0 58
  366.15002 69.0 69
  366.16336 66.0 66
  367.11819 6.0 6
  367.16464 304.0 304
  368.15793 31.0 31
  368.17361 42.0 42
  369.13412 5.0 5
  369.14847 10.0 10
  369.17474 23.0 23
  369.1922 7.0 7
  370.17923 13.0 13
  370.1937 21.0 21
  381.16086 7.0 7
  381.19049 16.0 16
  382.18295 6.0 6
  383.11475 6.0 6
  383.15964 219.0 219
  384.16547 60.0 60
  397.17783 66.0 66
  398.18338 171.0 171
  399.18933 43.0 43
  400.18454 7.0 7
  413.13657 8.0 8
  413.16232 12.0 12
  413.20682 1000.0 999
//
