ACCESSION: MSBNK-RIKEN-PR309155
RECORD_TITLE: MGMG 16:3; LC-ESI-QTOF; MS2
DATE: 2019.03.28
AUTHORS: Tetsuya Mori, Center for Sustainable Resource Science, RIKEN
LICENSE: CC BY-NC-SA
PUBLICATION: Tsugawa H., Nakabayashi R., Mori T., Yamada Y., Takahashi M., Rai A., Sugiyama R., Yamamoto H., Nakaya T., Yamazaki M., Kooke R., Bac-Molenaar JA., Oztolan-Erol N., Keurentjes JJB., Arita M., Saito K. (2019) "A cheminformatics approach to characterize metabolomes in stable-isotope-labeled organisms" Nature Methods 16(4):295-298. [doi:10.1038/s41592-019-0358-2]
COMMENT: Annotation level-3
CH$NAME: MGMG 16:3
CH$COMPOUND_CLASS: Lipids
CH$FORMULA: C25H42O9
CH$EXACT_MASS: 486.602
CH$SMILES: O=C(OC(CO)COC1OC(CO)C(O)C(O)C1(O))CCCCCC=CCC=CCC=CCC
CH$IUPAC: InChI=1S/C25H42O9/c1-2-3-4-5-6-7-8-9-10-11-12-13-14-15-21(28)33-19(16-26)18-32-25-24(31)23(30)22(29)20(17-27)34-25/h3-4,6-7,9-10,19-20,22-27,29-31H,2,5,8,11-18H2,1H3
CH$LINK: INCHIKEY LJVATEUJGAWSPM-UHFFFAOYSA-N
AC$INSTRUMENT: LC, Waters Acquity UPLC System; MS, Waters Xevo G2 Q-Tof
AC$INSTRUMENT_TYPE: LC-ESI-QTOF
AC$MASS_SPECTROMETRY: MS_TYPE MS2
AC$MASS_SPECTROMETRY: ION_MODE NEGATIVE
AC$MASS_SPECTROMETRY: COLLISION_ENERGY 6V
AC$MASS_SPECTROMETRY: DESOLVATION_GAS_FLOW 800/h
AC$MASS_SPECTROMETRY: DESOLVATION_TEMPERATURE 450 C
AC$MASS_SPECTROMETRY: IONIZATION ESI
AC$CHROMATOGRAPHY: CAPILLARY_VOLTAGE +3.00 kV
AC$CHROMATOGRAPHY: COLUMN_NAME Acquity bridged ethyl hybrid C18 (1.7 um, 2.1 mm * 100 mm, Waters)
AC$CHROMATOGRAPHY: COLUMN_TEMPERATURE 40 C
AC$CHROMATOGRAPHY: FLOW_GRADIENT A/B = (99.5%/0.5% at 0 min, 99.5%/0.5% at 0.1 min, 20%/80% at 10 min, 0.5%/99.5% at 10.1 min, 0.5%/99.5% at 12.0 min, 99.5%/0.5% at 12.1 min, 99.5%/0.5% at 15.0 min)
AC$CHROMATOGRAPHY: FLOW_RATE 0.3 ml/min at 0 min, 0.3 ml/min at 10 min, 0.4 ml/min at 10.1 min, 0.4 ml/min at 14.4 min, 0.3 ml/min at 14.5 min
AC$CHROMATOGRAPHY: RETENTION_TIME 8.55
AC$CHROMATOGRAPHY: SOLVENT A water including 0.1% formic acid
AC$CHROMATOGRAPHY: SOLVENT B acetonitrile including 0.1% formic acid
MS$FOCUSED_ION: PRECURSOR_TYPE [M-H]-
MS$FOCUSED_ION: PRECURSOR_M/Z 485.2738
PK$SPLASH: splash10-0002-0090000000-283dda0dadf4c2368b69
PK$NUM_PEAK: 14
PK$PEAK: m/z int. rel.int.
  149.04611 24.0 24
  161.04407 20.0 20
  237.08905 19.0 19
  249.18571 979.0 999
  250.187 294.0 300
  250.19881 70.0 71
  251.19286 42.0 43
  253.08414 40.0 41
  253.09555 69.0 70
  253.10379 43.0 44
  254.08842 20.0 20
  254.09979 21.0 21
  485.2652 62.0 63
  485.28687 21.0 21
//
