ACCESSION: MSBNK-RIKEN-PR310704
RECORD_TITLE: Furostane base -2H + 1O, O-Hex, O-Pen-dHex; LC-ESI-QTOF; MS2
DATE: 2019.03.28
AUTHORS: Tetsuya Mori, Center for Sustainable Resource Science, RIKEN
LICENSE: CC BY-NC-SA
PUBLICATION: Tsugawa H., Nakabayashi R., Mori T., Yamada Y., Takahashi M., Rai A., Sugiyama R., Yamamoto H., Nakaya T., Yamazaki M., Kooke R., Bac-Molenaar JA., Oztolan-Erol N., Keurentjes JJB., Arita M., Saito K. (2019) "A cheminformatics approach to characterize metabolomes in stable-isotope-labeled organisms" Nature Methods 16(4):295-298. [doi:10.1038/s41592-019-0358-2]
COMMENT: Annotation level-3
CH$NAME: Furostane base -2H + 1O, O-Hex, O-Pen-dHex
CH$COMPOUND_CLASS: Steroidal saponins
CH$FORMULA: C44H72O18
CH$EXACT_MASS: 889.042
CH$SMILES: OCC8OC(OCC(C)CCC6(O)(OC5CC4C7CC=C3CC(O)CC(OC2OCC(O)C(O)C2(OC1OC(C)C(O)C(O)C1(O)))C3(C)C7(CCC4(C)C5C6(C))))C(O)C(O)C8(O)
CH$IUPAC: InChI=1S/C44H72O18/c1-18(16-56-39-36(53)35(52)33(50)28(15-45)59-39)8-11-44(55)19(2)30-27(62-44)14-25-23-7-6-21-12-22(46)13-29(43(21,5)24(23)9-10-42(25,30)4)60-41-38(32(49)26(47)17-57-41)61-40-37(54)34(51)31(48)20(3)58-40/h6,18-20,22-41,45-55H,7-17H2,1-5H3
CH$LINK: INCHIKEY HWYCRLFVQVFKPD-UHFFFAOYSA-N
AC$INSTRUMENT: LC, Waters Acquity UPLC System; MS, Waters Xevo G2 Q-Tof
AC$INSTRUMENT_TYPE: LC-ESI-QTOF
AC$MASS_SPECTROMETRY: MS_TYPE MS2
AC$MASS_SPECTROMETRY: ION_MODE POSITIVE
AC$MASS_SPECTROMETRY: COLLISION_ENERGY 6V
AC$MASS_SPECTROMETRY: DESOLVATION_GAS_FLOW 800/h
AC$MASS_SPECTROMETRY: DESOLVATION_TEMPERATURE 450 C
AC$MASS_SPECTROMETRY: IONIZATION ESI
AC$CHROMATOGRAPHY: CAPILLARY_VOLTAGE +3.00 kV
AC$CHROMATOGRAPHY: COLUMN_NAME Acquity bridged ethyl hybrid C18 (1.7 um, 2.1 mm * 100 mm, Waters)
AC$CHROMATOGRAPHY: COLUMN_TEMPERATURE 40 C
AC$CHROMATOGRAPHY: FLOW_GRADIENT A/B = (99.5%/0.5% at 0 min, 99.5%/0.5% at 0.1 min, 20%/80% at 10 min, 0.5%/99.5% at 10.1 min, 0.5%/99.5% at 12.0 min, 99.5%/0.5% at 12.1 min, 99.5%/0.5% at 15.0 min)
AC$CHROMATOGRAPHY: FLOW_RATE 0.3 ml/min at 0 min, 0.3 ml/min at 10 min, 0.4 ml/min at 10.1 min, 0.4 ml/min at 14.4 min, 0.3 ml/min at 14.5 min
AC$CHROMATOGRAPHY: RETENTION_TIME 4.48
AC$CHROMATOGRAPHY: SOLVENT A water including 0.1% formic acid
AC$CHROMATOGRAPHY: SOLVENT B acetonitrile including 0.1% formic acid
MS$FOCUSED_ION: PRECURSOR_TYPE [M-H2O+H]+
MS$FOCUSED_ION: PRECURSOR_M/Z 871.4688
PK$SPLASH: splash10-00di-0160110190-f0bec47ea95eb76810a8
PK$NUM_PEAK: 424
PK$PEAK: m/z int. rel.int.
  71.04936 17.0 1
  73.02925 17.0 1
  79.04736 33.0 2
  81.19734 16.0 1
  83.54288 21.0 1
  85.01379 17.0 1
  85.02217 36.0 2
  85.02923 210.0 13
  95.08934 36.0 2
  98.61845 20.0 1
  101.04771 35.0 2
  108.43717 26.0 2
  109.05817 17.0 1
  109.0668 26.0 2
  110.0649 17.0 1
  111.03545 16.0 1
  111.04553 18.0 1
  115.03377 23.0 1
  115.0385 16.0 1
  115.04668 27.0 2
  115.07793 60.0 4
  116.08323 20.0 1
  116.58003 16.0 1
  117.05682 29.0 2
  117.07088 16.0 1
  121.06181 18.0 1
  121.104 20.0 1
  125.05505 28.0 2
  126.0883 27.0 2
  126.38951 16.0 1
  127.11654 24.0 2
  129.05457 417.0 27
  129.38618 19.0 1
  130.05717 23.0 1
  131.08412 16.0 1
  133.04831 52.0 3
  133.08578 23.0 1
  133.73007 27.0 2
  137.13969 20.0 1
  137.78883 17.0 1
  139.04082 16.0 1
  139.06981 47.0 3
  139.07452 16.0 1
  140.53606 16.0 1
  143.07738 20.0 1
  144.31219 31.0 2
  145.05307 125.0 8
  145.12135 23.0 1
  147.0643 359.0 23
  147.11252 17.0 1
  147.11845 35.0 2
  148.06284 21.0 1
  148.18694 16.0 1
  149.1433 61.0 4
  150.12852 19.0 1
  151.08301 17.0 1
  151.10577 16.0 1
  151.11398 21.0 1
  152.0479 38.0 2
  153.12468 17.0 1
  159.11589 18.0 1
  160.11313 51.0 3
  161.13362 46.0 3
  163.05772 34.0 2
  163.11008 41.0 3
  163.12047 17.0 1
  165.06287 16.0 1
  167.10629 319.0 20
  168.11172 47.0 3
  169.05347 21.0 1
  169.10468 76.0 5
  169.11812 17.0 1
  169.13417 25.0 2
  171.06841 45.0 3
  171.12195 111.0 7
  173.88667 37.0 2
  177.42957 18.0 1
  178.12869 24.0 2
  179.06943 22.0 1
  181.05502 25.0 2
  181.11571 79.0 5
  181.1615 21.0 1
  183.10646 24.0 2
  183.1147 20.0 1
  185.13565 28.0 2
  185.30356 17.0 1
  186.65125 24.0 2
  187.11015 50.0 3
  189.12822 16.0 1
  191.11188 23.0 1
  195.06995 17.0 1
  195.11774 43.0 3
  197.13811 18.0 1
  198.12929 18.0 1
  199.14955 23.0 1
  199.15907 21.0 1
  200.15213 37.0 2
  201.16183 17.0 1
  207.05064 20.0 1
  207.06505 18.0 1
  207.07919 65.0 4
  209.12764 16.0 1
  211.1546 18.0 1
  212.05861 39.0 2
  213.15251 24.0 2
  214.16939 20.0 1
  217.07047 17.0 1
  223.60841 32.0 2
  225.06003 19.0 1
  225.07881 20.0 1
  225.1523 35.0 2
  225.16521 78.0 5
  226.22194 30.0 2
  227.15405 20.0 1
  229.10439 20.0 1
  229.15569 20.0 1
  229.1834 44.0 3
  231.08458 47.0 3
  231.79936 16.0 1
  233.11578 16.0 1
  236.12173 22.0 1
  237.06532 18.0 1
  237.16719 17.0 1
  239.13033 18.0 1
  241.19174 97.0 6
  242.19267 25.0 2
  242.217 22.0 1
  243.08665 54.0 3
  243.09663 35.0 2
  243.1087 18.0 1
  245.14638 20.0 1
  247.14087 30.0 2
  249.12567 17.0 1
  250.02885 20.0 1
  250.15714 18.0 1
  251.13832 23.0 1
  251.16772 226.0 14
  251.1756 581.0 37
  251.18497 535.0 34
  251.2012 61.0 4
  251.24991 18.0 1
  251.78125 17.0 1
  251.96877 18.0 1
  252.01842 30.0 2
  252.16528 21.0 1
  252.18164 191.0 12
  252.19742 35.0 2
  253.15575 21.0 1
  253.19521 68.0 4
  253.20918 68.0 4
  255.0878 63.0 4
  255.16936 21.0 1
  259.39417 17.0 1
  261.08582 38.0 2
  261.09409 39.0 2
  261.10727 21.0 1
  267.16989 81.0 5
  269.02988 17.0 1
  269.11612 18.0 1
  269.14523 35.0 2
  269.19101 2839.0 180
  269.24133 16.0 1
  270.18723 271.0 17
  270.19815 354.0 23
  270.22937 16.0 1
  271.1666 20.0 1
  271.18536 16.0 1
  271.20605 88.0 6
  271.21524 59.0 4
  272.20154 98.0 6
  272.21512 29.0 2
  273.0939 18.0 1
  273.14532 20.0 1
  273.17047 16.0 1
  276.35095 29.0 2
  277.10385 18.0 1
  278.07806 32.0 2
  279.10132 38.0 2
  279.12186 16.0 1
  279.20346 17.0 1
  279.21722 16.0 1
  279.49435 19.0 1
  280.11026 26.0 2
  280.22168 26.0 2
  281.1861 18.0 1
  281.21088 33.0 2
  281.2229 33.0 2
  282.11432 22.0 1
  282.22601 33.0 2
  282.23453 46.0 3
  285.18765 18.0 1
  287.15515 20.0 1
  287.16833 20.0 1
  287.18576 215.0 14
  287.20303 2083.0 132
  288.2041 615.0 39
  289.16919 20.0 1
  289.1991 96.0 6
  289.21399 52.0 3
  290.21124 28.0 2
  295.11194 17.0 1
  295.14743 26.0 2
  295.85434 43.0 3
  297.18274 16.0 1
  297.22433 23.0 1
  298.19229 16.0 1
  298.2139 16.0 1
  299.2373 64.0 4
  299.25006 19.0 1
  299.26422 21.0 1
  300.24026 20.0 1
  300.25388 49.0 3
  304.18097 32.0 2
  305.21594 16.0 1
  312.23438 16.0 1
  314.16107 18.0 1
  315.59909 16.0 1
  317.21069 18.0 1
  318.98248 36.0 2
  326.92484 16.0 1
  329.26004 39.0 2
  329.27118 28.0 2
  340.81503 34.0 2
  341.21756 28.0 2
  347.20251 66.0 4
  352.29169 49.0 3
  359.27896 18.0 1
  359.29062 17.0 1
  361.54004 31.0 2
  363.2666 18.0 1
  365.21759 44.0 3
  366.21536 52.0 3
  375.27097 23.0 1
  376.26547 18.0 1
  377.28745 140.0 9
  379.21338 16.0 1
  379.22955 16.0 1
  383.17667 17.0 1
  383.20908 17.0 1
  383.22507 50.0 3
  384.19476 20.0 1
  384.22165 49.0 3
  384.28708 21.0 1
  385.22229 16.0 1
  386.27017 21.0 1
  390.24274 41.0 3
  393.27545 18.0 1
  395.23785 20.0 1
  395.27426 42.0 3
  395.29153 173.0 11
  395.31003 37.0 2
  396.28549 19.0 1
  396.30447 80.0 5
  397.24377 41.0 3
  397.33325 19.0 1
  398.24768 16.0 1
  398.25995 23.0 1
  401.20917 85.0 5
  401.2341 66.0 4
  402.17358 21.0 1
  402.22299 33.0 2
  402.24023 18.0 1
  403.27011 16.0 1
  407.24487 30.0 2
  409.10123 16.0 1
  413.30249 687.0 44
  414.28754 37.0 2
  414.31058 33.0 2
  414.32498 16.0 1
  415.23346 35.0 2
  415.26492 28.0 2
  415.30856 65.0 4
  416.24277 30.0 2
  416.29349 16.0 1
  419.21988 57.0 4
  419.24088 297.0 19
  419.2666 85.0 5
  420.18976 17.0 1
  420.2381 144.0 9
  420.25998 45.0 3
  421.24698 17.0 1
  421.26367 23.0 1
  424.70883 24.0 2
  427.27054 18.0 1
  427.29178 22.0 1
  428.28766 21.0 1
  430.85306 18.0 1
  431.2518 20.0 1
  431.28568 50.0 3
  431.30493 178.0 11
  431.32169 290.0 18
  432.30173 50.0 3
  432.32083 153.0 10
  432.33279 42.0 3
  433.24438 100.0 6
  433.25986 29.0 2
  433.28088 28.0 2
  433.31476 16.0 1
  433.3299 20.0 1
  434.25266 60.0 4
  434.32959 16.0 1
  467.32495 18.0 1
  468.33728 16.0 1
  473.34143 17.0 1
  476.25333 17.0 1
  480.21933 22.0 1
  484.90909 24.0 2
  485.90918 18.0 1
  498.38235 20.0 1
  502.51627 24.0 2
  506.04993 21.0 1
  507.18433 18.0 1
  511.60156 27.0 2
  521.30402 25.0 2
  524.33429 21.0 1
  524.36371 16.0 1
  527.35168 18.0 1
  528.36078 34.0 2
  529.24701 27.0 2
  529.31427 17.0 1
  540.51471 32.0 2
  541.36298 49.0 3
  543.36572 22.0 1
  545.33936 89.0 6
  545.38654 28.0 2
  545.4046 16.0 1
  545.46198 24.0 2
  546.35553 22.0 1
  546.54718 17.0 1
  547.2843 39.0 2
  548.27417 42.0 3
  548.33307 16.0 1
  549.30481 38.0 2
  550.14594 24.0 2
  557.36908 16.0 1
  557.39606 20.0 1
  559.34875 35.0 2
  559.37726 41.0 3
  560.34448 20.0 1
  561.3764 23.0 1
  563.30292 17.0 1
  563.33325 38.0 2
  563.36359 121.0 8
  563.38007 92.0 6
  564.35107 48.0 3
  564.36914 88.0 6
  564.38892 82.0 5
  565.25452 44.0 3
  565.29468 239.0 15
  565.31525 207.0 13
  566.26782 38.0 2
  566.29358 92.0 6
  566.32068 34.0 2
  567.30853 83.0 5
  575.32874 17.0 1
  575.36096 52.0 3
  576.36658 41.0 3
  577.3493 18.0 1
  577.37256 17.0 1
  578.3465 17.0 1
  582.29999 16.0 1
  584.38562 16.0 1
  584.46674 20.0 1
  593.34387 32.0 2
  593.36505 34.0 2
  593.39026 18.0 1
  593.41321 23.0 1
  594.34131 33.0 2
  594.37469 18.0 1
  602.35535 17.0 1
  608.45758 36.0 2
  608.98792 21.0 1
  615.48346 47.0 3
  615.83698 20.0 1
  625.37494 24.0 2
  640.35284 29.0 2
  652.3902 18.0 1
  658.37744 30.0 2
  660.08716 22.0 1
  662.64221 20.0 1
  663.1557 16.0 1
  689.37921 16.0 1
  691.41815 18.0 1
  693.3501 17.0 1
  704.43811 24.0 2
  706.68518 29.0 2
  708.38892 16.0 1
  709.14069 16.0 1
  709.32599 41.0 3
  709.38611 355.0 23
  709.41339 1087.0 69
  709.45148 170.0 11
  709.53314 16.0 1
  710.38727 139.0 9
  710.42432 616.0 39
  710.48737 17.0 1
  711.36584 16.0 1
  711.41095 61.0 4
  711.44916 36.0 2
  712.42365 23.0 1
  725.44574 33.0 2
  726.33514 29.0 2
  726.36053 22.0 1
  727.35364 17.0 1
  739.44714 18.0 1
  740.42566 39.0 2
  752.42889 16.0 1
  761.46466 20.0 1
  762.77014 24.0 2
  798.68732 18.0 1
  832.30609 59.0 4
  835.43878 52.0 3
  836.48389 17.0 1
  843.17065 20.0 1
  854.48944 16.0 1
  856.75647 18.0 1
  860.46985 16.0 1
  870.75311 16.0 1
  871.05511 17.0 1
  871.29291 81.0 5
  871.3526 147.0 9
  871.3905 138.0 9
  871.46985 15713.0 999
  871.63757 20.0 1
//
