ACCESSION: MSBNK-RIKEN-PR303805
RECORD_TITLE: Saikosaponin a; LC-ESI-QTOF; MS2
DATE: 2019.03.28
AUTHORS: Tetsuya Mori, Center for Sustainable Resource Science, RIKEN
LICENSE: CC BY-NC-SA
PUBLICATION: Tsugawa H., Nakabayashi R., Mori T., Yamada Y., Takahashi M., Rai A., Sugiyama R., Yamamoto H., Nakaya T., Yamazaki M., Kooke R., Bac-Molenaar JA., Oztolan-Erol N., Keurentjes JJB., Arita M., Saito K. (2019) "A cheminformatics approach to characterize metabolomes in stable-isotope-labeled organisms" Nature Methods 16(4):295-298. [doi:10.1038/s41592-019-0358-2]
COMMENT: registered in RIKEN PlaSMA
CH$NAME: Saikosaponin a
CH$COMPOUND_CLASS: Triterpene saponins
CH$FORMULA: C42H68O13
CH$EXACT_MASS: 780.993
CH$SMILES: C[C@H]1O[C@@H](O[C@H]2CC[C@@]3(C)[C@@H](CC[C@]4(C)[C@@H]3C=C[C@]35OC[C@@]6(CCC(C)(C)C[C@@H]36)[C@@H](O)C[C@@]45C)[C@]2(C)CO)[C@H](O)[C@@H](O[C@@H]2O[C@H](CO)[C@@H](O)[C@H](O)[C@H]2O)[C@H]1O
CH$IUPAC: InChI=1S/C42H68O13/c1-21-28(46)33(55-34-31(49)30(48)29(47)22(18-43)53-34)32(50)35(52-21)54-27-10-11-37(4)23(38(27,5)19-44)8-12-39(6)24(37)9-13-42-25-16-36(2,3)14-15-41(25,20-51-42)26(45)17-40(39,42)7/h9,13,21-35,43-50H,8,10-12,14-20H2,1-7H3/t21-,22-,23-,24-,25-,26+,27+,28+,29-,30+,31-,32-,33+,34+,35+,37+,38+,39-,40+,41-,42+/m1/s1
CH$LINK: INCHIKEY KYWSCMDFVARMPN-MSSMMRRTSA-N
AC$INSTRUMENT: LC, Waters Acquity UPLC System; MS, Waters Xevo G2 Q-Tof
AC$INSTRUMENT_TYPE: LC-ESI-QTOF
AC$MASS_SPECTROMETRY: MS_TYPE MS2
AC$MASS_SPECTROMETRY: ION_MODE POSITIVE
AC$MASS_SPECTROMETRY: COLLISION_ENERGY 6V
AC$MASS_SPECTROMETRY: DESOLVATION_GAS_FLOW 800/h
AC$MASS_SPECTROMETRY: DESOLVATION_TEMPERATURE 450 C
AC$MASS_SPECTROMETRY: IONIZATION ESI
AC$CHROMATOGRAPHY: CAPILLARY_VOLTAGE +3.00 kV
AC$CHROMATOGRAPHY: COLUMN_NAME Acquity bridged ethyl hybrid C18 (1.7 um, 2.1 mm * 100 mm, Waters)
AC$CHROMATOGRAPHY: COLUMN_TEMPERATURE 40 C
AC$CHROMATOGRAPHY: FLOW_GRADIENT A/B = (99.5%/0.5% at 0 min, 99.5%/0.5% at 0.1 min, 20%/80% at 10 min, 0.5%/99.5% at 10.1 min, 0.5%/99.5% at 12.0 min, 99.5%/0.5% at 12.1 min, 99.5%/0.5% at 15.0 min)
AC$CHROMATOGRAPHY: FLOW_RATE 0.3 ml/min at 0 min, 0.3 ml/min at 10 min, 0.4 ml/min at 10.1 min, 0.4 ml/min at 14.4 min, 0.3 ml/min at 14.5 min
AC$CHROMATOGRAPHY: RETENTION_TIME 7.1571
AC$CHROMATOGRAPHY: SOLVENT A water including 0.1% formic acid
AC$CHROMATOGRAPHY: SOLVENT B acetonitrile including 0.1% formic acid
MS$FOCUSED_ION: PRECURSOR_TYPE [M+H]+
MS$FOCUSED_ION: PRECURSOR_M/Z 781.4732687
PK$SPLASH: splash10-0a4r-0020900100-db5207f3c6b0b8999bcb
PK$NUM_PEAK: 119
PK$PEAK: m/z int. rel.int.
  75.04872 14.0 14
  87.03799 16.0 16
  135.08629 20.0 20
  145.04799 13.0 13
  149.12836 32.0 32
  155.08365 16.0 16
  163.06058 16.0 16
  167.1044 13.0 13
  171.11751 19.0 19
  173.13658 17.0 17
  176.15417 13.0 13
  187.1385 14.0 14
  187.15057 35.0 35
  188.11711 20.0 20
  189.13901 13.0 13
  190.12791 15.0 15
  195.14012 26.0 26
  196.14078 20.0 20
  201.1637 16.0 16
  201.17537 13.0 13
  204.14131 16.0 16
  209.13567 13.0 13
  214.17876 20.0 20
  215.17726 13.0 13
  216.17773 13.0 13
  217.19623 26.0 26
  225.15698 13.0 13
  225.1662 13.0 13
  225.18451 13.0 13
  227.18816 20.0 20
  230.18895 14.0 14
  237.15012 22.0 22
  239.18689 32.0 32
  241.18109 13.0 13
  241.19586 47.0 47
  245.18945 13.0 13
  250.08707 15.0 15
  251.18845 15.0 15
  251.76703 14.0 14
  252.19246 32.0 32
  253.20111 55.0 55
  254.19403 17.0 17
  255.1674 16.0 16
  255.2133 15.0 15
  259.19815 14.0 14
  259.21426 46.0 46
  265.2016 16.0 16
  267.21527 45.0 45
  268.22223 15.0 15
  272.20148 14.0 14
  281.89847 16.0 16
  285.21399 14.0 14
  285.22678 16.0 16
  286.22726 38.0 38
  287.19305 13.0 13
  295.23544 13.0 13
  309.11768 13.0 13
  311.11319 14.0 14
  317.23285 13.0 13
  345.27121 13.0 13
  346.00543 16.0 16
  350.28046 14.0 14
  380.85934 21.0 21
  389.32837 16.0 16
  393.30313 15.0 15
  397.30496 14.0 14
  398.33105 16.0 16
  401.31357 24.0 24
  401.32562 46.0 46
  407.33279 104.0 104
  407.3555 14.0 14
  408.37067 16.0 16
  410.37143 17.0 17
  419.30844 32.0 32
  419.31937 52.0 52
  419.33804 181.0 181
  419.40665 16.0 16
  420.32574 35.0 35
  420.35007 17.0 17
  437.29547 21.0 21
  437.33218 293.0 293
  437.34702 362.0 362
  438.33777 181.0 181
  438.3598 132.0 132
  439.34702 18.0 18
  440.35175 22.0 22
  453.33652 13.0 13
  455.28149 13.0 13
  455.30157 16.0 16
  455.35367 1000.0 999
  455.40375 16.0 16
  456.31262 16.0 16
  456.34995 296.0 296
  457.35419 64.0 64
  457.5098 14.0 14
  473.35867 61.0 61
  474.36551 35.0 35
  474.38095 25.0 25
  530.8067 16.0 16
  535.37207 20.0 20
  583.39044 14.0 14
  599.81342 16.0 16
  603.42468 16.0 16
  617.42194 14.0 14
  619.40411 63.0 63
  619.42395 34.0 34
  619.44366 28.0 28
  620.4245 15.0 15
  636.44684 16.0 16
  729.37891 16.0 16
  732.70898 15.0 15
  745.47583 33.0 33
  763.45654 13.0 13
  763.49231 49.0 49
  764.45361 14.0 14
  781.3927 20.0 20
  781.46185 250.0 250
  781.48853 173.0 173
  781.5293 14.0 14
//
