ACCESSION: MSBNK-RIKEN-PR300360
RECORD_TITLE: Subsessiline; LC-ESI-QTOF; MS2
DATE: 2019.03.28
AUTHORS: Tetsuya Mori, Center for Sustainable Resource Science, RIKEN
LICENSE: CC BY-NC-SA
PUBLICATION: Tsugawa H., Nakabayashi R., Mori T., Yamada Y., Takahashi M., Rai A., Sugiyama R., Yamamoto H., Nakaya T., Yamazaki M., Kooke R., Bac-Molenaar JA., Oztolan-Erol N., Keurentjes JJB., Arita M., Saito K. (2019) "A cheminformatics approach to characterize metabolomes in stable-isotope-labeled organisms" Nature Methods 16(4):295-298. [doi:10.1038/s41592-019-0358-2]
COMMENT: registered in RIKEN PlaSMA
CH$NAME: Subsessiline
CH$COMPOUND_CLASS: Aspidospermatan-type alkaloids
CH$FORMULA: C43H48N4O6
CH$EXACT_MASS: 716.879
CH$SMILES: COC(=O)C1=C2NC3=CC=CC=C3C22CCN3C2C2(CCOC2C24CC5CC67CCOC6CCN6CCC8(C76)C6=C(N(C2)C58OC34)C(OC)=CC=C6)C1
CH$IUPAC: InChI=1S/C43H48N4O6/c1-49-29-9-5-7-27-31(29)47-23-40-21-24-20-38-13-18-51-30(38)10-15-45-16-12-42(27,35(38)45)43(24,47)53-37(40)46-17-11-41-26-6-3-4-8-28(26)44-32(41)25(33(48)50-2)22-39(34(41)46)14-19-52-36(39)40/h3-9,24,30,34-37,44H,10-23H2,1-2H3
CH$LINK: INCHIKEY RZBFPDQKWUWUCK-UHFFFAOYSA-N
AC$INSTRUMENT: LC, Waters Acquity UPLC System; MS, Waters Xevo G2 Q-Tof
AC$INSTRUMENT_TYPE: LC-ESI-QTOF
AC$MASS_SPECTROMETRY: MS_TYPE MS2
AC$MASS_SPECTROMETRY: ION_MODE POSITIVE
AC$MASS_SPECTROMETRY: COLLISION_ENERGY 6V
AC$MASS_SPECTROMETRY: DESOLVATION_GAS_FLOW 800/h
AC$MASS_SPECTROMETRY: DESOLVATION_TEMPERATURE 450 C
AC$MASS_SPECTROMETRY: IONIZATION ESI
AC$CHROMATOGRAPHY: CAPILLARY_VOLTAGE +3.00 kV
AC$CHROMATOGRAPHY: COLUMN_NAME Acquity bridged ethyl hybrid C18 (1.7 um, 2.1 mm * 100 mm, Waters)
AC$CHROMATOGRAPHY: COLUMN_TEMPERATURE 40 C
AC$CHROMATOGRAPHY: FLOW_GRADIENT A/B = (99.5%/0.5% at 0 min, 99.5%/0.5% at 0.1 min, 20%/80% at 10 min, 0.5%/99.5% at 10.1 min, 0.5%/99.5% at 12.0 min, 99.5%/0.5% at 12.1 min, 99.5%/0.5% at 15.0 min)
AC$CHROMATOGRAPHY: FLOW_RATE 0.3 ml/min at 0 min, 0.3 ml/min at 10 min, 0.4 ml/min at 10.1 min, 0.4 ml/min at 14.4 min, 0.3 ml/min at 14.5 min
AC$CHROMATOGRAPHY: RETENTION_TIME 5.79285
AC$CHROMATOGRAPHY: SOLVENT A water including 0.1% formic acid
AC$CHROMATOGRAPHY: SOLVENT B acetonitrile including 0.1% formic acid
MS$FOCUSED_ION: PRECURSOR_TYPE [M+H]+
MS$FOCUSED_ION: PRECURSOR_M/Z 717.3646617
PK$SPLASH: splash10-0002-0596101000-19887c072006a689bdc5
PK$NUM_PEAK: 336
PK$PEAK: m/z int. rel.int.
  67.0555 6.0 6
  82.06313 10.0 10
  103.05035 6.0 6
  104.73711 6.0 6
  109.06174 7.0 7
  110.06589 8.0 8
  124.0703 13.0 13
  131.74611 16.0 16
  133.10364 15.0 15
  134.04918 7.0 7
  136.07661 33.0 33
  137.08932 12.0 12
  138.09122 9.0 9
  141.03441 11.0 11
  141.07208 15.0 15
  143.07434 6.0 6
  144.0748 8.0 8
  144.0853 9.0 9
  145.06804 6.0 6
  148.07631 6.0 6
  152.07397 10.0 10
  152.09337 7.0 7
  157.32156 8.0 8
  160.07961 16.0 16
  161.08511 7.0 7
  162.13182 11.0 11
  163.09824 8.0 8
  165.11703 10.0 10
  167.07274 9.0 9
  167.67662 15.0 15
  168.04088 14.0 14
  168.05573 7.0 7
  168.08035 809.0 808
  168.46033 7.0 7
  169.08188 74.0 74
  169.09351 13.0 13
  169.59602 8.0 8
  170.08846 6.0 6
  171.78374 6.0 6
  172.07207 7.0 7
  176.07672 7.0 7
  176.10533 21.0 21
  176.11742 7.0 7
  179.12669 6.0 6
  180.07542 13.0 13
  186.6338 8.0 8
  188.0816 12.0 12
  188.09587 7.0 7
  188.10727 8.0 8
  190.07967 7.0 7
  190.72318 9.0 9
  192.09926 6.0 6
  194.04974 10.0 10
  194.90375 6.0 6
  195.06276 6.0 6
  196.03795 11.0 11
  196.06416 93.0 93
  196.07523 340.0 340
  197.08026 155.0 155
  197.4938 6.0 6
  198.08389 6.0 6
  198.10695 10.0 10
  198.12502 9.0 9
  200.1032 15.0 15
  201.11502 11.0 11
  202.08296 75.0 75
  202.09631 18.0 18
  204.09129 17.0 17
  204.10179 7.0 7
  204.11263 12.0 12
  205.0818 10.0 10
  205.10022 6.0 6
  205.11481 9.0 9
  208.09592 12.0 12
  209.05829 7.0 7
  212.06647 7.0 7
  212.08611 7.0 7
  213.07956 10.0 10
  214.08534 7.0 7
  216.08264 15.0 15
  216.10454 61.0 61
  216.11633 11.0 11
  218.09335 6.0 6
  218.10301 7.0 7
  220.0728 28.0 28
  223.08461 7.0 7
  226.09657 6.0 6
  226.11819 9.0 9
  227.13072 11.0 11
  228.07742 33.0 33
  228.10202 664.0 663
  228.55762 6.0 6
  229.09976 77.0 77
  229.11639 25.0 25
  230.06685 8.0 8
  230.10432 24.0 24
  231.0809 10.0 10
  231.11943 14.0 14
  233.13402 14.0 14
  236.07314 10.0 10
  239.08311 7.0 7
  240.48346 6.0 6
  242.15681 20.0 20
  243.10091 12.0 12
  243.11607 10.0 10
  243.12416 6.0 6
  245.07527 18.0 18
  245.0825 12.0 12
  245.10802 37.0 37
  245.12961 1000.0 999
  246.09763 6.0 6
  246.11949 59.0 59
  246.13239 81.0 81
  246.14314 34.0 34
  247.07745 7.0 7
  247.14261 24.0 24
  247.15489 7.0 7
  247.73378 7.0 7
  249.08153 8.0 8
  250.66689 8.0 8
  251.112 7.0 7
  251.13055 10.0 10
  251.93307 6.0 6
  252.09966 9.0 9
  252.1884 8.0 8
  252.8611 6.0 6
  254.12128 8.0 8
  257.13757 11.0 11
  257.16553 9.0 9
  258.11472 8.0 8
  258.14709 19.0 19
  260.11414 10.0 10
  260.16608 46.0 46
  262.07843 8.0 8
  264.12921 9.0 9
  264.15759 9.0 9
  266.11285 12.0 12
  266.15744 6.0 6
  269.17139 6.0 6
  270.14905 13.0 13
  284.17297 8.0 8
  285.15366 7.0 7
  286.17377 13.0 13
  287.13361 6.0 6
  287.15417 8.0 8
  287.17245 88.0 88
  288.17941 16.0 16
  289.09982 12.0 12
  289.20251 11.0 11
  290.14578 7.0 7
  291.14548 6.0 6
  292.15869 16.0 16
  293.1207 15.0 15
  294.15588 8.0 8
  295.15347 22.0 22
  297.17676 9.0 9
  298.16443 11.0 11
  299.17087 7.0 7
  300.18686 8.0 8
  300.75845 6.0 6
  301.18668 16.0 16
  303.14731 10.0 10
  303.15518 19.0 19
  306.4946 9.0 9
  308.1532 9.0 9
  309.15552 7.0 7
  309.16315 21.0 21
  309.18802 12.0 12
  310.17685 10.0 10
  311.17102 7.0 7
  312.05389 9.0 9
  313.17059 7.0 7
  316.10049 7.0 7
  317.06711 7.0 7
  318.14642 15.0 15
  319.11093 8.0 8
  319.12311 21.0 21
  319.15283 11.0 11
  320.10202 7.0 7
  325.57117 7.0 7
  327.14957 7.0 7
  327.16245 13.0 13
  329.13425 8.0 8
  329.15936 55.0 55
  331.12338 12.0 12
  331.15451 50.0 50
  332.14508 28.0 28
  333.13962 8.0 8
  333.16312 23.0 23
  333.47681 8.0 8
  334.16254 15.0 15
  335.13931 6.0 6
  335.18018 51.0 51
  336.16702 15.0 15
  340.15063 14.0 14
  344.28772 6.0 6
  345.13107 7.0 7
  345.15601 8.0 8
  347.04974 6.0 6
  347.06128 6.0 6
  347.08438 7.0 7
  347.11493 76.0 76
  347.1395 555.0 554
  347.17221 7.0 7
  347.35474 6.0 6
  348.10611 20.0 20
  348.13812 85.0 85
  348.16299 27.0 27
  348.69116 7.0 7
  349.1268 8.0 8
  349.15182 61.0 61
  349.17252 11.0 11
  349.18866 14.0 14
  349.20303 9.0 9
  350.19034 9.0 9
  350.98431 7.0 7
  351.2099 13.0 13
  353.1889 18.0 18
  357.14673 56.0 56
  357.16226 104.0 104
  358.01776 12.0 12
  358.11539 6.0 6
  358.12772 8.0 8
  358.15024 8.0 8
  358.16623 40.0 40
  359.15067 8.0 8
  359.16241 10.0 10
  359.18484 17.0 17
  363.21725 8.0 8
  365.15808 13.0 13
  365.18616 8.0 8
  369.20599 14.0 14
  371.22672 9.0 9
  374.60303 6.0 6
  375.15735 7.0 7
  375.20776 12.0 12
  379.12357 6.0 6
  379.16571 149.0 149
  380.15451 8.0 8
  380.17184 43.0 43
  380.19513 14.0 14
  384.08319 9.0 9
  385.1521 8.0 8
  385.21475 8.0 8
  387.21426 10.0 10
  389.17361 7.0 7
  393.21521 8.0 8
  393.40567 8.0 8
  394.2197 6.0 6
  397.46881 9.0 9
  397.54895 6.0 6
  399.20401 10.0 10
  405.19138 16.0 16
  407.56311 11.0 11
  414.17191 8.0 8
  425.19012 8.0 8
  425.22009 11.0 11
  425.25726 16.0 16
  427.2392 7.0 7
  435.23022 8.0 8
  441.18906 12.0 12
  441.22531 7.0 7
  444.16977 6.0 6
  444.22153 14.0 14
  444.54037 7.0 7
  459.2207 6.0 6
  461.26877 7.0 7
  462.27032 7.0 7
  465.21707 14.0 14
  465.24792 15.0 15
  466.1933 18.0 18
  466.40784 6.0 6
  467.20468 9.0 9
  472.17615 15.0 15
  472.21689 7.0 7
  472.24649 54.0 54
  472.28583 6.0 6
  473.19513 7.0 7
  473.22736 7.0 7
  473.27094 63.0 63
  473.28061 25.0 25
  474.26242 15.0 15
  480.60828 6.0 6
  482.22614 7.0 7
  482.2468 7.0 7
  483.26151 6.0 6
  483.28137 6.0 6
  486.23083 8.0 8
  489.60843 8.0 8
  490.24655 25.0 25
  490.26901 40.0 40
  491.19452 10.0 10
  491.25073 17.0 17
  491.27768 17.0 17
  496.25473 12.0 12
  497.25378 7.0 7
  498.21509 9.0 9
  500.23953 12.0 12
  514.27496 23.0 23
  528.29596 7.0 7
  548.18994 13.0 13
  553.24463 6.0 6
  599.22876 10.0 10
  630.29755 8.0 8
  640.21826 8.0 8
  640.33942 19.0 19
  648.12958 7.0 7
  650.28778 7.0 7
  656.32001 6.0 6
  657.3244 7.0 7
  657.35986 7.0 7
  667.25464 9.0 9
  667.33411 57.0 57
  668.30237 21.0 21
  668.34521 14.0 14
  669.3363 7.0 7
  670.35083 9.0 9
  683.32892 6.0 6
  685.24933 11.0 11
  685.27777 7.0 7
  685.33221 80.0 80
  685.36377 39.0 39
  685.39587 9.0 9
  686.27533 6.0 6
  686.35529 69.0 69
  687.20758 7.0 7
  687.28259 10.0 10
  687.35278 7.0 7
  687.37463 14.0 14
  698.19336 8.0 8
  699.35291 13.0 13
  700.32532 6.0 6
  702.25 7.0 7
  702.74249 6.0 6
  717.33325 6.0 6
  717.38409 7.0 7
//
