ACCESSION: MSBNK-RIKEN-PR303353
RECORD_TITLE: NP-000002(10); LC-ESI-QTOF; MS2
DATE: 2019.03.28
AUTHORS: Tetsuya Mori, Center for Sustainable Resource Science, RIKEN
LICENSE: CC BY-NC-SA
PUBLICATION: Tsugawa H., Nakabayashi R., Mori T., Yamada Y., Takahashi M., Rai A., Sugiyama R., Yamamoto H., Nakaya T., Yamazaki M., Kooke R., Bac-Molenaar JA., Oztolan-Erol N., Keurentjes JJB., Arita M., Saito K. (2019) "A cheminformatics approach to characterize metabolomes in stable-isotope-labeled organisms" Nature Methods 16(4):295-298. [doi:10.1038/s41592-019-0358-2]
COMMENT: registered in RIKEN PlaSMA
CH$NAME: NP-000002(10)
CH$COMPOUND_CLASS: Flavonoid 8-C-glycosides
CH$FORMULA: C27H30O15
CH$EXACT_MASS: 594.522
CH$SMILES: OCC1OC(C(O)C(O)C1O)C1=C(O)C(C2OC(CO)C(O)C(O)C2O)=C2OC(=CC(=O)C2=C1O)C1=CC=C(O)C=C1
CH$IUPAC: InChI=1S/C27H30O15/c28-6-12-17(32)21(36)23(38)26(41-12)15-19(34)14-10(31)5-11(8-1-3-9(30)4-2-8)40-25(14)16(20(15)35)27-24(39)22(37)18(33)13(7-29)42-27/h1-5,12-13,17-18,21-24,26-30,32-39H,6-7H2
CH$LINK: INCHIKEY FIAAVMJLAGNUKW-UHFFFAOYSA-N
AC$INSTRUMENT: LC, Waters Acquity UPLC System; MS, Waters Xevo G2 Q-Tof
AC$INSTRUMENT_TYPE: LC-ESI-QTOF
AC$MASS_SPECTROMETRY: MS_TYPE MS2
AC$MASS_SPECTROMETRY: ION_MODE POSITIVE
AC$MASS_SPECTROMETRY: COLLISION_ENERGY 6V
AC$MASS_SPECTROMETRY: DESOLVATION_GAS_FLOW 800/h
AC$MASS_SPECTROMETRY: DESOLVATION_TEMPERATURE 450 C
AC$MASS_SPECTROMETRY: IONIZATION ESI
AC$CHROMATOGRAPHY: CAPILLARY_VOLTAGE +3.00 kV
AC$CHROMATOGRAPHY: COLUMN_NAME Acquity bridged ethyl hybrid C18 (1.7 um, 2.1 mm * 100 mm, Waters)
AC$CHROMATOGRAPHY: COLUMN_TEMPERATURE 40 C
AC$CHROMATOGRAPHY: FLOW_GRADIENT A/B = (99.5%/0.5% at 0 min, 99.5%/0.5% at 0.1 min, 20%/80% at 10 min, 0.5%/99.5% at 10.1 min, 0.5%/99.5% at 12.0 min, 99.5%/0.5% at 12.1 min, 99.5%/0.5% at 15.0 min)
AC$CHROMATOGRAPHY: FLOW_RATE 0.3 ml/min at 0 min, 0.3 ml/min at 10 min, 0.4 ml/min at 10.1 min, 0.4 ml/min at 14.4 min, 0.3 ml/min at 14.5 min
AC$CHROMATOGRAPHY: RETENTION_TIME 3.302967
AC$CHROMATOGRAPHY: SOLVENT A water including 0.1% formic acid
AC$CHROMATOGRAPHY: SOLVENT B acetonitrile including 0.1% formic acid
MS$FOCUSED_ION: PRECURSOR_TYPE [M+H]+
MS$FOCUSED_ION: PRECURSOR_M/Z 595.1657467
PK$SPLASH: splash10-002b-0016790000-0e98923ac0784546253a
PK$NUM_PEAK: 228
PK$PEAK: m/z int. rel.int.
  54.59028 9.0 9
  89.65948 8.0 8
  177.05075 9.0 9
  199.03984 9.0 9
  200.05516 8.0 8
  215.03366 6.0 6
  227.02806 11.0 11
  242.98819 9.0 9
  252.61745 6.0 6
  267.04883 7.0 7
  280.06754 10.0 10
  283.05127 8.0 8
  283.67828 8.0 8
  285.04898 15.0 15
  294.04718 27.0 27
  295.03528 6.0 6
  295.06097 132.0 132
  296.0694 7.0 7
  296.09232 9.0 9
  307.04861 29.0 29
  307.06921 36.0 36
  308.0752 11.0 11
  309.0332 6.0 6
  309.08176 6.0 6
  313.07678 7.0 7
  315.9585 6.0 6
  316.75186 5.0 5
  319.56238 11.0 11
  320.0672 8.0 8
  320.10367 7.0 7
  321.08926 14.0 14
  322.08423 7.0 7
  323.05066 10.0 10
  323.11649 6.0 6
  324.05801 7.0 7
  325.04092 9.0 9
  325.07349 224.0 224
  326.07422 48.0 48
  326.09494 10.0 10
  328.65387 6.0 6
  329.07999 5.0 5
  333.07303 14.0 14
  335.09586 17.0 17
  337.06873 147.0 147
  337.08826 24.0 24
  337.8233 8.0 8
  338.07349 32.0 32
  338.10233 10.0 10
  343.09506 11.0 11
  345.06778 8.0 8
  347.0961 19.0 19
  348.0863 9.0 9
  349.04364 8.0 8
  349.06442 26.0 26
  350.06534 23.0 23
  351.06152 13.0 13
  351.07993 30.0 30
  351.09293 23.0 23
  352.086 7.0 7
  352.58054 8.0 8
  354.97534 18.0 18
  355.06039 11.0 11
  355.08423 53.0 53
  358.08209 12.0 12
  361.07141 16.0 16
  361.10419 9.0 9
  362.08527 26.0 26
  363.09781 7.0 7
  365.04333 6.0 6
  365.0643 11.0 11
  365.08121 7.0 7
  365.11066 15.0 15
  365.12143 5.0 5
  366.08261 13.0 13
  367.0856 15.0 15
  367.11295 9.0 9
  368.08621 10.0 10
  368.09799 10.0 10
  371.70651 8.0 8
  373.05331 7.0 7
  373.07614 32.0 32
  375.0611 9.0 9
  375.08871 39.0 39
  376.06308 14.0 14
  376.14789 13.0 13
  379.03458 14.0 14
  379.06256 58.0 58
  379.08243 194.0 194
  380.07623 23.0 23
  380.08569 9.0 9
  384.17761 6.0 6
  385.06979 20.0 20
  388.7872 6.0 6
  388.92535 6.0 6
  389.09985 8.0 8
  390.12775 15.0 15
  391.07321 66.0 66
  391.09998 12.0 12
  391.81842 9.0 9
  392.07727 7.0 7
  393.11908 6.0 6
  393.26633 8.0 8
  401.10831 7.0 7
  403.056 21.0 21
  403.08304 104.0 104
  404.04819 7.0 7
  404.07449 10.0 10
  404.09457 21.0 21
  407.10544 5.0 5
  409.04929 9.0 9
  409.08716 148.0 148
  409.10672 46.0 46
  410.03189 11.0 11
  410.08362 20.0 20
  410.10098 36.0 36
  411.1095 14.0 14
  411.41068 7.0 7
  415.12027 6.0 6
  416.07184 6.0 6
  417.11047 9.0 9
  419.07193 9.0 9
  421.09399 107.0 107
  421.11731 8.0 8
  422.07059 8.0 8
  422.10626 8.0 8
  423.08026 6.0 6
  423.09723 6.0 6
  424.48569 6.0 6
  425.08606 5.0 5
  427.07639 10.0 10
  427.1001 89.0 89
  428.10062 19.0 19
  428.13715 7.0 7
  430.73254 7.0 7
  431.12347 14.0 14
  433.07697 7.0 7
  433.10101 11.0 11
  434.10385 6.0 6
  434.31546 5.0 5
  439.08319 5.0 5
  439.10272 55.0 55
  439.11884 26.0 26
  440.10443 5.0 5
  441.09143 7.0 7
  441.10654 6.0 6
  445.09546 15.0 15
  445.11517 8.0 8
  445.79529 8.0 8
  446.07339 16.0 16
  446.10477 17.0 17
  447.12491 9.0 9
  449.12668 11.0 11
  457.07401 9.0 9
  457.1167 370.0 370
  458.06778 6.0 6
  458.1098 74.0 74
  458.13962 34.0 34
  459.12469 10.0 10
  463.09268 19.0 19
  463.11166 15.0 15
  470.06253 12.0 12
  475.11215 28.0 28
  475.13174 76.0 76
  475.19305 7.0 7
  475.62015 6.0 6
  475.98123 7.0 7
  476.05084 8.0 8
  476.12332 19.0 19
  477.10828 15.0 15
  481.04825 5.0 5
  481.11768 80.0 80
  482.00555 7.0 7
  482.10162 19.0 19
  482.1441 9.0 9
  485.1055 8.0 8
  487.10074 14.0 14
  490.09644 9.0 9
  495.11588 7.0 7
  499.11057 22.0 22
  499.1467 8.0 8
  499.15787 17.0 17
  499.22729 6.0 6
  500.09805 8.0 8
  500.11865 6.0 6
  505.12018 24.0 24
  506.07129 5.0 5
  506.11432 24.0 24
  511.09979 28.0 28
  511.12704 43.0 43
  511.14929 15.0 15
  512.11023 7.0 7
  512.12866 7.0 7
  523.12299 111.0 111
  524.1131 9.0 9
  524.13123 17.0 17
  525.1297 5.0 5
  529.12219 60.0 60
  529.14465 19.0 19
  530.12109 6.0 6
  531.13922 5.0 5
  532.15942 6.0 6
  541.07709 10.0 10
  541.13702 107.0 107
  542.12695 7.0 7
  542.16956 5.0 5
  543.133 10.0 10
  543.16168 13.0 13
  547.98676 6.0 6
  557.05725 8.0 8
  559.13397 61.0 61
  559.15631 49.0 49
  560.13818 36.0 36
  560.16437 13.0 13
  561.13068 10.0 10
  561.15613 22.0 22
  577.09784 8.0 8
  577.13501 66.0 66
  577.15747 289.0 289
  578.09363 7.0 7
  578.12726 31.0 31
  578.15698 69.0 69
  578.18311 22.0 22
  579.12775 6.0 6
  579.16632 13.0 13
  591.11365 6.0 6
  594.52283 7.0 7
  595.10211 20.0 20
  595.17047 1000.0 999
//
