ACCESSION: MSBNK-RIKEN-PR301522
RECORD_TITLE: (S,S)-(+)-Tetrandrine; LC-ESI-QTOF; MS2
DATE: 2019.03.28
AUTHORS: Tetsuya Mori, Center for Sustainable Resource Science, RIKEN
LICENSE: CC BY-NC-SA
PUBLICATION: Tsugawa H., Nakabayashi R., Mori T., Yamada Y., Takahashi M., Rai A., Sugiyama R., Yamamoto H., Nakaya T., Yamazaki M., Kooke R., Bac-Molenaar JA., Oztolan-Erol N., Keurentjes JJB., Arita M., Saito K. (2019) "A cheminformatics approach to characterize metabolomes in stable-isotope-labeled organisms" Nature Methods 16(4):295-298. [doi:10.1038/s41592-019-0358-2]
COMMENT: registered in RIKEN PlaSMA
CH$NAME: (S,S)-(+)-Tetrandrine
CH$COMPOUND_CLASS: Lignans, neolignans and related compounds
CH$FORMULA: C38H42N2O6
CH$EXACT_MASS: 622.762
CH$SMILES: COC1=C2OC3=CC=C(C[C@@H]4N(C)CCC5=CC(OC)=C(OC6=C7[C@H](CC(C=C1)=C2)N(C)CCC7=CC(OC)=C6OC)C=C45)C=C3
CH$IUPAC: InChI=1S/C38H42N2O6/c1-39-15-13-25-20-32(42-4)34-22-28(25)29(39)17-23-7-10-27(11-8-23)45-33-19-24(9-12-31(33)41-3)18-30-36-26(14-16-40(30)2)21-35(43-5)37(44-6)38(36)46-34/h7-12,19-22,29-30H,13-18H2,1-6H3/t29-,30-/m0/s1
CH$LINK: INCHIKEY WVTKBKWTSCPRNU-KYJUHHDHSA-N
AC$INSTRUMENT: LC, Waters Acquity UPLC System; MS, Waters Xevo G2 Q-Tof
AC$INSTRUMENT_TYPE: LC-ESI-QTOF
AC$MASS_SPECTROMETRY: MS_TYPE MS2
AC$MASS_SPECTROMETRY: ION_MODE POSITIVE
AC$MASS_SPECTROMETRY: COLLISION_ENERGY 6V
AC$MASS_SPECTROMETRY: DESOLVATION_GAS_FLOW 800/h
AC$MASS_SPECTROMETRY: DESOLVATION_TEMPERATURE 450 C
AC$MASS_SPECTROMETRY: IONIZATION ESI
AC$CHROMATOGRAPHY: CAPILLARY_VOLTAGE +3.00 kV
AC$CHROMATOGRAPHY: COLUMN_NAME Acquity bridged ethyl hybrid C18 (1.7 um, 2.1 mm * 100 mm, Waters)
AC$CHROMATOGRAPHY: COLUMN_TEMPERATURE 40 C
AC$CHROMATOGRAPHY: FLOW_GRADIENT A/B = (99.5%/0.5% at 0 min, 99.5%/0.5% at 0.1 min, 20%/80% at 10 min, 0.5%/99.5% at 10.1 min, 0.5%/99.5% at 12.0 min, 99.5%/0.5% at 12.1 min, 99.5%/0.5% at 15.0 min)
AC$CHROMATOGRAPHY: FLOW_RATE 0.3 ml/min at 0 min, 0.3 ml/min at 10 min, 0.4 ml/min at 10.1 min, 0.4 ml/min at 14.4 min, 0.3 ml/min at 14.5 min
AC$CHROMATOGRAPHY: RETENTION_TIME 4.186433
AC$CHROMATOGRAPHY: SOLVENT A water including 0.1% formic acid
AC$CHROMATOGRAPHY: SOLVENT B acetonitrile including 0.1% formic acid
MS$FOCUSED_ION: PRECURSOR_TYPE [M+H]+
MS$FOCUSED_ION: PRECURSOR_M/Z 623.3115635
PK$SPLASH: splash10-00e9-0957120000-9660724b27ef49d64587
PK$NUM_PEAK: 345
PK$PEAK: m/z int. rel.int.
  99.93235 20.0 20
  108.08515 14.0 14
  109.06168 20.0 20
  115.05577 21.0 21
  118.06818 19.0 19
  131.07442 18.0 18
  132.07857 24.0 24
  132.08418 29.0 29
  133.09113 25.0 25
  135.0746 21.0 21
  135.10141 16.0 16
  138.06003 18.0 18
  143.07306 27.0 27
  145.067 65.0 65
  145.08321 18.0 18
  145.09465 33.0 33
  146.05847 48.0 48
  146.09468 86.0 86
  146.10226 144.0 144
  146.98463 16.0 16
  147.08669 22.0 22
  147.0966 18.0 18
  148.10059 16.0 16
  149.07089 21.0 21
  150.07224 14.0 14
  151.07632 36.0 36
  159.05251 20.0 20
  159.08688 19.0 19
  159.10289 16.0 16
  159.11342 20.0 20
  160.07765 16.0 16
  161.06783 21.0 21
  161.09773 23.0 23
  162.0874 86.0 86
  162.10129 66.0 66
  163.06052 32.0 32
  163.08957 14.0 14
  165.08171 14.0 14
  166.08557 17.0 17
  172.02698 16.0 16
  172.0705 17.0 17
  173.08051 16.0 16
  174.05591 21.0 21
  174.06523 15.0 15
  174.09196 1000.0 999
  175.0878 116.0 116
  175.10202 143.0 143
  175.95256 20.0 20
  176.07413 93.0 93
  176.09384 21.0 21
  176.1078 150.0 150
  177.05023 19.0 19
  177.07086 15.0 15
  177.0825 39.0 39
  177.11102 14.0 14
  178.08713 22.0 22
  179.07957 25.0 25
  180.09091 29.0 29
  183.07791 14.0 14
  184.40375 14.0 14
  187.0994 21.0 21
  188.1068 16.0 16
  189.08438 21.0 21
  189.11906 58.0 58
  190.08272 127.0 127
  190.09753 16.0 16
  190.12141 16.0 16
  191.09309 55.0 55
  191.10002 70.0 70
  192.07341 18.0 18
  192.09143 71.0 71
  192.10196 120.0 120
  193.06696 16.0 16
  193.10686 16.0 16
  195.08543 32.0 32
  197.05663 14.0 14
  201.11522 15.0 15
  204.09488 85.0 85
  204.11298 14.0 14
  205.06596 24.0 24
  205.07684 17.0 17
  205.08852 15.0 15
  206.12001 88.0 88
  208.08548 39.0 39
  209.07469 30.0 30
  211.05873 16.0 16
  212.40752 16.0 16
  213.0899 34.0 34
  217.12692 24.0 24
  219.05891 21.0 21
  222.11316 16.0 16
  223.07137 16.0 16
  225.08714 16.0 16
  225.10205 21.0 21
  227.10159 23.0 23
  227.11548 76.0 76
  228.11481 16.0 16
  228.68004 15.0 15
  231.07202 17.0 17
  232.08969 21.0 21
  233.09262 14.0 14
  234.07393 27.0 27
  234.10144 16.0 16
  234.34184 15.0 15
  235.0717 53.0 53
  235.11467 19.0 19
  236.08672 15.0 15
  237.07039 25.0 25
  237.08395 35.0 35
  237.11815 16.0 16
  238.0874 17.0 17
  238.10072 20.0 20
  239.07677 15.0 15
  239.09129 25.0 25
  240.11136 37.0 37
  241.07996 16.0 16
  241.09229 19.0 19
  246.12817 19.0 19
  246.13831 17.0 17
  248.07884 50.0 50
  250.09695 16.0 16
  251.07161 16.0 16
  251.10197 21.0 21
  252.10202 21.0 21
  252.11095 56.0 56
  253.11484 16.0 16
  254.11894 14.0 14
  255.07578 27.0 27
  255.09018 20.0 20
  257.12186 20.0 20
  263.10547 16.0 16
  263.12674 16.0 16
  264.10941 17.0 17
  265.10425 16.0 16
  267.10571 15.0 15
  268.07416 16.0 16
  268.10403 26.0 26
  268.11252 20.0 20
  270.1452 16.0 16
  272.1152 17.0 17
  277.08951 15.0 15
  277.15082 17.0 17
  278.08356 33.0 33
  279.10434 19.0 19
  280.09979 32.0 32
  281.10898 34.0 34
  281.1348 22.0 22
  282.09286 30.0 30
  282.12802 56.0 56
  283.12506 16.0 16
  285.09756 14.0 14
  286.13065 19.0 19
  288.0766 18.0 18
  292.09485 15.0 15
  293.08109 19.0 19
  293.4346 23.0 23
  294.0986 22.0 22
  296.09555 14.0 14
  296.13037 36.0 36
  296.14816 14.0 14
  297.1207 18.0 18
  298.12344 17.0 17
  299.06027 16.0 16
  299.1134 16.0 16
  303.11166 18.0 18
  304.11798 17.0 17
  305.11005 18.0 18
  307.07944 21.0 21
  307.1077 18.0 18
  307.60376 15.0 15
  308.1442 27.0 27
  309.11545 14.0 14
  310.09131 16.0 16
  310.11368 15.0 15
  310.14157 16.0 16
  318.11395 55.0 55
  319.1246 34.0 34
  320.11981 44.0 44
  320.13666 77.0 77
  320.19299 14.0 14
  321.13763 25.0 25
  322.14389 21.0 21
  323.08865 16.0 16
  323.11414 38.0 38
  323.12756 37.0 37
  325.12164 14.0 14
  327.14801 44.0 44
  329.12177 20.0 20
  330.13678 19.0 19
  331.10428 35.0 35
  332.11987 16.0 16
  332.25177 14.0 14
  333.11801 14.0 14
  334.14069 17.0 17
  335.10385 25.0 25
  335.13284 19.0 19
  335.16003 14.0 14
  336.16843 21.0 21
  337.12219 48.0 48
  337.14462 16.0 16
  338.12888 86.0 86
  338.14526 85.0 85
  340.1384 21.0 21
  342.10333 16.0 16
  344.47678 16.0 16
  345.24255 16.0 16
  346.13498 27.0 27
  348.12857 17.0 17
  348.1391 15.0 15
  348.15631 15.0 15
  349.14441 46.0 46
  350.13345 80.0 80
  351.13031 44.0 44
  351.1434 21.0 21
  352.1413 17.0 17
  352.85199 14.0 14
  353.14609 16.0 16
  353.15631 18.0 18
  353.18234 16.0 16
  353.19897 15.0 15
  354.16925 39.0 39
  358.11423 18.0 18
  359.1102 14.0 14
  362.07587 15.0 15
  362.12823 15.0 15
  363.13351 15.0 15
  363.15924 84.0 84
  363.17392 16.0 16
  364.14832 15.0 15
  364.17166 30.0 30
  364.2019 16.0 16
  365.14151 17.0 17
  365.16904 16.0 16
  365.1799 15.0 15
  365.93793 20.0 20
  366.18555 27.0 27
  367.14053 20.0 20
  367.16904 15.0 15
  371.16833 16.0 16
  372.14374 15.0 15
  373.13004 14.0 14
  373.15002 14.0 14
  379.14249 27.0 27
  380.18335 17.0 17
  381.117 18.0 18
  381.14291 58.0 58
  381.15637 72.0 72
  381.17523 183.0 183
  381.19165 460.0 460
  381.57144 15.0 15
  382.12506 16.0 16
  382.18042 104.0 104
  382.19775 22.0 22
  383.16534 16.0 16
  383.20102 45.0 45
  386.15512 14.0 14
  392.11331 25.0 25
  394.14169 14.0 14
  396.19971 16.0 16
  397.1355 16.0 16
  397.1879 16.0 16
  398.13693 14.0 14
  398.17758 19.0 19
  399.17068 21.0 21
  400.12839 32.0 32
  400.15704 19.0 19
  401.15292 38.0 38
  401.16794 24.0 24
  412.12704 14.0 14
  412.15619 16.0 16
  413.1619 18.0 18
  414.17764 23.0 23
  423.20486 18.0 18
  425.15045 15.0 15
  427.39151 16.0 16
  430.17978 15.0 15
  440.00424 18.0 18
  440.17941 65.0 65
  441.19159 34.0 34
  442.17847 16.0 16
  443.18997 21.0 21
  443.23343 14.0 14
  456.20245 17.0 17
  456.21671 16.0 16
  463.16571 27.0 27
  470.18878 15.0 15
  473.08255 16.0 16
  474.17776 35.0 35
  477.20935 15.0 15
  485.25671 20.0 20
  486.13608 14.0 14
  488.18658 18.0 18
  490.16446 14.0 14
  501.22998 17.0 17
  502.17062 18.0 18
  502.20547 19.0 19
  503.34897 14.0 14
  504.18921 16.0 16
  504.21567 19.0 19
  505.16388 14.0 14
  506.21744 43.0 43
  508.16064 15.0 15
  509.27081 15.0 15
  513.18915 18.0 18
  515.16174 24.0 24
  516.19189 17.0 17
  519.8988 18.0 18
  524.21881 16.0 16
  530.16876 15.0 15
  530.20496 16.0 16
  530.23755 50.0 50
  531.13892 19.0 19
  531.18164 18.0 18
  532.13947 17.0 17
  533.14929 16.0 16
  533.17273 20.0 20
  534.18939 38.0 38
  534.22681 35.0 35
  535.25787 16.0 16
  543.20282 16.0 16
  544.18677 31.0 31
  546.20715 15.0 15
  546.22766 48.0 48
  547.19519 25.0 25
  547.21857 25.0 25
  548.24652 27.0 27
  549.26959 20.0 20
  551.22266 49.0 49
  551.26392 17.0 17
  551.28314 14.0 14
  551.32159 16.0 16
  561.23828 32.0 32
  561.26233 21.0 21
  561.28265 23.0 23
  562.27686 22.0 22
  563.24231 52.0 52
  564.21124 57.0 57
  577.23944 16.0 16
  578.26019 14.0 14
  579.23975 15.0 15
  591.24133 20.0 20
  593.2356 14.0 14
  593.26654 31.0 31
  607.26251 17.0 17
  608.29126 18.0 18
//
