ACCESSION: MSBNK-RIKEN-PR307132
RECORD_TITLE: Isovitexin(4); LC-ESI-QTOF; MS2
DATE: 2019.03.28
AUTHORS: Tetsuya Mori, Center for Sustainable Resource Science, RIKEN
LICENSE: CC BY-NC-SA
PUBLICATION: Tsugawa H., Nakabayashi R., Mori T., Yamada Y., Takahashi M., Rai A., Sugiyama R., Yamamoto H., Nakaya T., Yamazaki M., Kooke R., Bac-Molenaar JA., Oztolan-Erol N., Keurentjes JJB., Arita M., Saito K. (2019) "A cheminformatics approach to characterize metabolomes in stable-isotope-labeled organisms" Nature Methods 16(4):295-298. [doi:10.1038/s41592-019-0358-2]
COMMENT: registered in RIKEN PlaSMA
CH$NAME: Isovitexin(4)
CH$COMPOUND_CLASS: Flavonoid C-glycosides
CH$FORMULA: C21H20O10
CH$EXACT_MASS: 432.381
CH$SMILES: OCC1OC(C(O)C(O)C1O)C1=C(O)C2=C(OC(=CC2=O)C2=CC=C(O)C=C2)C=C1O
CH$IUPAC: InChI=1S/C21H20O10/c22-7-14-17(26)19(28)20(29)21(31-14)16-11(25)6-13-15(18(16)27)10(24)5-12(30-13)8-1-3-9(23)4-2-8/h1-6,14,17,19-23,25-29H,7H2
CH$LINK: INCHIKEY MYXNWGACZJSMBT-UHFFFAOYSA-N
AC$INSTRUMENT: LC, Waters Acquity UPLC System; MS, Waters Xevo G2 Q-Tof
AC$INSTRUMENT_TYPE: LC-ESI-QTOF
AC$MASS_SPECTROMETRY: MS_TYPE MS2
AC$MASS_SPECTROMETRY: ION_MODE NEGATIVE
AC$MASS_SPECTROMETRY: COLLISION_ENERGY 6V
AC$MASS_SPECTROMETRY: DESOLVATION_GAS_FLOW 800/h
AC$MASS_SPECTROMETRY: DESOLVATION_TEMPERATURE 450 C
AC$MASS_SPECTROMETRY: IONIZATION ESI
AC$CHROMATOGRAPHY: CAPILLARY_VOLTAGE -2.75 kV
AC$CHROMATOGRAPHY: COLUMN_NAME Acquity bridged ethyl hybrid C18 (1.7 um, 2.1 mm * 100 mm, Waters)
AC$CHROMATOGRAPHY: COLUMN_TEMPERATURE 40 C
AC$CHROMATOGRAPHY: FLOW_GRADIENT A/B = (99.5%/0.5% at 0 min, 99.5%/0.5% at 0.1 min, 20%/80% at 10 min, 0.5%/99.5% at 10.1 min, 0.5%/99.5% at 12.0 min, 99.5%/0.5% at 12.1 min, 99.5%/0.5% at 15.0 min)
AC$CHROMATOGRAPHY: FLOW_RATE 0.3 ml/min at 0 min, 0.3 ml/min at 10 min, 0.4 ml/min at 10.1 min, 0.4 ml/min at 14.4 min, 0.3 ml/min at 14.5 min
AC$CHROMATOGRAPHY: RETENTION_TIME 3.945533
AC$CHROMATOGRAPHY: SOLVENT A water including 0.1% formic acid
AC$CHROMATOGRAPHY: SOLVENT B acetonitrile including 0.1% formic acid
MS$FOCUSED_ION: PRECURSOR_TYPE [M-H]-
MS$FOCUSED_ION: PRECURSOR_M/Z 431.09837034783
PK$SPLASH: splash10-02u0-0940000000-3ba2454dbdac854d7357
PK$NUM_PEAK: 186
PK$PEAK: m/z int. rel.int.
  65.00404 16.0 16
  75.02166 13.0 13
  77.03876 115.0 115
  77.04572 16.0 16
  78.04095 12.0 12
  78.04396 20.0 20
  79.01968 47.0 47
  80.90203 12.0 12
  90.04162 24.0 24
  91.05523 12.0 12
  93.03613 94.0 94
  95.01043 23.0 23
  97.0294 42.0 42
  105.03749 28.0 28
  106.04633 12.0 12
  107.01398 33.0 33
  107.04111 10.0 10
  108.02203 74.0 74
  109.02831 24.0 24
  116.02785 14.0 14
  117.03436 1000.0 999
  118.04076 60.0 60
  118.0475 25.0 25
  119.01101 23.0 23
  119.05048 102.0 102
  119.05811 13.0 13
  120.0234 15.0 15
  120.34883 11.0 11
  121.02929 105.0 105
  122.03093 12.0 12
  123.00273 14.0 14
  124.34306 13.0 13
  127.05224 19.0 19
  129.03065 24.0 24
  130.0399 16.0 16
  130.04871 12.0 12
  131.01456 51.0 51
  131.04987 12.0 12
  132.01796 18.0 18
  133.02516 25.0 25
  133.03159 27.0 27
  134.03308 13.0 13
  135.00288 16.0 16
  135.01212 11.0 11
  135.04076 39.0 39
  135.0471 68.0 68
  136.01845 57.0 57
  137.0118 14.0 14
  137.04776 14.0 14
  139.02948 15.0 15
  143.02461 13.0 13
  143.05157 14.0 14
  146.03372 23.0 23
  147.00502 10.0 10
  147.01443 12.0 12
  147.04292 38.0 38
  148.0233 13.0 13
  148.04185 15.0 15
  149.99117 12.0 12
  151.01152 15.0 15
  153.06621 10.0 10
  154.03918 13.0 13
  156.06107 27.0 27
  157.0614 27.0 27
  159.04436 182.0 182
  160.04793 14.0 14
  160.05646 12.0 12
  161.02391 431.0 431
  162.03096 42.0 42
  162.9944 39.0 39
  163.00389 198.0 198
  163.03479 26.0 26
  163.04527 18.0 18
  163.05508 23.0 23
  164.01256 58.0 58
  165.01749 90.0 90
  165.06462 16.0 16
  166.02393 16.0 16
  167.06271 17.0 17
  168.05583 49.0 49
  169.02762 14.0 14
  169.05707 15.0 15
  169.0668 28.0 28
  170.8997 14.0 14
  171.00414 12.0 12
  171.04149 12.0 12
  171.05261 21.0 21
  173.05856 33.0 33
  174.02464 13.0 13
  175.00134 10.0 10
  175.01006 17.0 17
  177.01004 15.0 15
  177.02109 24.0 24
  178.01619 25.0 25
  180.05359 17.0 17
  180.06329 12.0 12
  181.06805 106.0 106
  182.03754 86.0 86
  182.0752 35.0 35
  183.03877 46.0 46
  183.04805 23.0 23
  183.08401 28.0 28
  184.03889 16.0 16
  185.03021 32.0 32
  185.06256 15.0 15
  186.03658 15.0 15
  187.04626 25.0 25
  190.99327 14.0 14
  193.05669 12.0 12
  194.06645 29.0 29
  195.04706 48.0 48
  195.08121 25.0 25
  196.04559 61.0 61
  196.08643 13.0 13
  197.06459 23.0 23
  197.07137 28.0 28
  199.06995 27.0 27
  200.0414 13.0 13
  202.06963 10.0 10
  202.99141 12.0 12
  203.07065 14.0 14
  203.88698 13.0 13
  206.06593 15.0 15
  208.05255 40.0 40
  209.05864 24.0 24
  209.06747 13.0 13
  210.03653 11.0 11
  211.04713 22.0 22
  212.04813 12.0 12
  212.08075 17.0 17
  213.04543 24.0 24
  213.05402 45.0 45
  214.063 12.0 12
  215.07777 18.0 18
  222.07846 16.0 16
  223.04576 17.0 17
  223.07458 12.0 12
  224.04741 137.0 137
  225.05307 76.0 76
  226.0675 13.0 13
  227.06866 16.0 16
  227.07504 25.0 25
  228.07857 17.0 17
  235.049 25.0 25
  237.0468 25.0 25
  237.05913 80.0 80
  237.62416 12.0 12
  238.06395 12.0 12
  239.03284 30.0 30
  239.04181 12.0 12
  239.06689 38.0 38
  240.03967 37.0 37
  240.07674 14.0 14
  248.05078 14.0 14
  249.06279 20.0 20
  250.05997 13.0 13
  250.06938 16.0 16
  253.04433 54.0 54
  253.05322 86.0 86
  254.04329 26.0 26
  254.05949 24.0 24
  255.02817 12.0 12
  255.05998 28.0 28
  256.06512 12.0 12
  267.02896 11.0 11
  268.0311 24.0 24
  268.04797 27.0 27
  269.03912 50.0 50
  269.04987 61.0 61
  269.06473 16.0 16
  278.04868 15.0 15
  279.05807 10.0 10
  281.04324 253.0 253
  281.05637 65.0 65
  282.05347 94.0 94
  283.05966 150.0 150
  284.05917 57.0 57
  284.07266 35.0 35
  294.04486 14.0 14
  295.05392 102.0 102
  295.07166 23.0 23
  296.06006 12.0 12
  297.07343 16.0 16
  308.013 16.0 16
  323.05444 11.0 11
  324.06772 30.0 30
//
