ACCESSION: MSBNK-RIKEN-PR300070
RECORD_TITLE: Koumidine; LC-ESI-QTOF; MS2
DATE: 2019.03.28
AUTHORS: Tetsuya Mori, Center for Sustainable Resource Science, RIKEN
LICENSE: CC BY-NC-SA
PUBLICATION: Tsugawa H., Nakabayashi R., Mori T., Yamada Y., Takahashi M., Rai A., Sugiyama R., Yamamoto H., Nakaya T., Yamazaki M., Kooke R., Bac-Molenaar JA., Oztolan-Erol N., Keurentjes JJB., Arita M., Saito K. (2019) "A cheminformatics approach to characterize metabolomes in stable-isotope-labeled organisms" Nature Methods 16(4):295-298. [doi:10.1038/s41592-019-0358-2]
COMMENT: registered in RIKEN PlaSMA
CH$NAME: Koumidine
CH$COMPOUND_CLASS: Macroline alkaloids
CH$FORMULA: C19H22N2O
CH$EXACT_MASS: 294.398
CH$SMILES: C\C=C1/CN2[C@H]3CC4=C(NC5=CC=CC=C45)[C@@H]2C[C@H]1[C@@H]3CO
CH$IUPAC: InChI=1S/C19H22N2O/c1-2-11-9-21-17-8-14-12-5-3-4-6-16(12)20-19(14)18(21)7-13(11)15(17)10-22/h2-6,13,15,17-18,20,22H,7-10H2,1H3/b11-2+/t13-,15+,17+,18+/m1/s1
CH$LINK: INCHIKEY VXTDUGOBAOLMED-CPEJFPLXSA-N
AC$INSTRUMENT: LC, Waters Acquity UPLC System; MS, Waters Xevo G2 Q-Tof
AC$INSTRUMENT_TYPE: LC-ESI-QTOF
AC$MASS_SPECTROMETRY: MS_TYPE MS2
AC$MASS_SPECTROMETRY: ION_MODE POSITIVE
AC$MASS_SPECTROMETRY: COLLISION_ENERGY 6V
AC$MASS_SPECTROMETRY: DESOLVATION_GAS_FLOW 800/h
AC$MASS_SPECTROMETRY: DESOLVATION_TEMPERATURE 450 C
AC$MASS_SPECTROMETRY: IONIZATION ESI
AC$CHROMATOGRAPHY: CAPILLARY_VOLTAGE +3.00 kV
AC$CHROMATOGRAPHY: COLUMN_NAME Acquity bridged ethyl hybrid C18 (1.7 um, 2.1 mm * 100 mm, Waters)
AC$CHROMATOGRAPHY: COLUMN_TEMPERATURE 40 C
AC$CHROMATOGRAPHY: FLOW_GRADIENT A/B = (99.5%/0.5% at 0 min, 99.5%/0.5% at 0.1 min, 20%/80% at 10 min, 0.5%/99.5% at 10.1 min, 0.5%/99.5% at 12.0 min, 99.5%/0.5% at 12.1 min, 99.5%/0.5% at 15.0 min)
AC$CHROMATOGRAPHY: FLOW_RATE 0.3 ml/min at 0 min, 0.3 ml/min at 10 min, 0.4 ml/min at 10.1 min, 0.4 ml/min at 14.4 min, 0.3 ml/min at 14.5 min
AC$CHROMATOGRAPHY: RETENTION_TIME 3.575733
AC$CHROMATOGRAPHY: SOLVENT A water including 0.1% formic acid
AC$CHROMATOGRAPHY: SOLVENT B acetonitrile including 0.1% formic acid
MS$FOCUSED_ION: PRECURSOR_TYPE [M+H]+
MS$FOCUSED_ION: PRECURSOR_M/Z 295.1804898
PK$SPLASH: splash10-0a4l-0950000000-3a54f008bdbf46aabc97
PK$NUM_PEAK: 358
PK$PEAK: m/z int. rel.int.
  51.28325 9.0 9
  55.05116 15.0 15
  79.05328 18.0 18
  81.05581 9.0 9
  81.06946 35.0 35
  82.063 10.0 10
  84.07677 14.0 14
  84.08395 9.0 9
  86.06348 6.0 6
  91.054 54.0 54
  91.0612 8.0 8
  92.05165 7.0 7
  92.05955 22.0 22
  93.05611 14.0 14
  93.0678 57.0 57
  93.07378 12.0 12
  94.06325 15.0 15
  94.07357 17.0 17
  96.08045 6.0 6
  96.08472 15.0 15
  97.08372 5.0 5
  103.05244 10.0 10
  105.07012 10.0 10
  105.07458 9.0 9
  106.05346 7.0 7
  106.06452 36.0 36
  107.07452 15.0 15
  107.08737 5.0 5
  107.26303 7.0 7
  108.03461 9.0 9
  108.08031 553.0 552
  109.06511 26.0 26
  109.07673 23.0 23
  109.08579 39.0 39
  109.09868 10.0 10
  110.05914 7.0 7
  110.09272 29.0 29
  110.10139 11.0 11
  111.07991 43.0 43
  112.07359 10.0 10
  112.08368 7.0 7
  115.0191 5.0 5
  115.04928 12.0 12
  115.05608 25.0 25
  116.05714 6.0 6
  117.05676 57.0 57
  117.06761 22.0 22
  117.83745 5.0 5
  118.05154 6.0 6
  118.06496 149.0 149
  119.06056 9.0 9
  119.072 16.0 16
  119.08401 18.0 18
  120.05767 10.0 10
  120.06902 10.0 10
  120.08228 174.0 174
  120.09225 16.0 16
  120.57979 8.0 8
  121.05516 10.0 10
  121.06469 6.0 6
  121.08704 158.0 158
  121.09959 5.0 5
  122.08548 18.0 18
  122.09619 182.0 182
  123.06813 28.0 28
  123.10353 22.0 22
  124.11559 17.0 17
  127.05263 25.0 25
  128.04935 5.0 5
  128.06076 62.0 62
  129.02051 5.0 5
  129.05528 5.0 5
  129.07025 270.0 270
  130.04979 25.0 25
  130.06665 313.0 313
  131.07249 200.0 200
  131.08658 38.0 38
  132.04575 6.0 6
  132.08109 91.0 91
  133.08215 17.0 17
  133.10065 14.0 14
  134.07323 5.0 5
  134.09155 99.0 99
  134.09894 96.0 96
  135.07924 17.0 17
  135.09761 41.0 41
  136.07556 25.0 25
  136.1104 24.0 24
  137.08209 9.0 9
  137.1136 10.0 10
  137.12456 6.0 6
  138.0752 24.0 24
  138.09094 625.0 624
  139.08977 16.0 16
  139.09579 34.0 34
  140.09959 24.0 24
  140.10542 18.0 18
  140.11438 7.0 7
  141.06393 6.0 6
  141.07187 6.0 6
  141.09113 5.0 5
  142.08351 12.0 12
  143.07114 136.0 136
  143.08868 31.0 31
  144.05835 22.0 22
  144.08017 1000.0 999
  145.06982 18.0 18
  145.0849 98.0 98
  146.08336 16.0 16
  146.09737 351.0 351
  147.1008 69.0 69
  148.04561 5.0 5
  148.08669 8.0 8
  148.10648 48.0 48
  148.11803 13.0 13
  148.93555 5.0 5
  150.09172 5.0 5
  150.13086 5.0 5
  150.74474 6.0 6
  152.05884 9.0 9
  152.07483 5.0 5
  152.0988 5.0 5
  152.10991 33.0 33
  152.70377 5.0 5
  153.06601 24.0 24
  154.06866 18.0 18
  155.06021 25.0 25
  155.07417 76.0 76
  156.04822 5.0 5
  156.05515 10.0 10
  156.07988 943.0 942
  157.05951 8.0 8
  157.06876 19.0 19
  157.08572 282.0 282
  158.06053 12.0 12
  158.08545 77.0 77
  158.09703 457.0 457
  159.09636 95.0 95
  159.10687 26.0 26
  159.31139 8.0 8
  160.07271 9.0 9
  160.11446 35.0 35
  161.07639 6.0 6
  161.12901 9.0 9
  161.55597 5.0 5
  164.10693 72.0 72
  165.06699 6.0 6
  166.06233 6.0 6
  166.07748 5.0 5
  166.12251 13.0 13
  166.1368 8.0 8
  167.07431 133.0 133
  168.05989 7.0 7
  168.08189 700.0 699
  169.0715 19.0 19
  169.08488 138.0 138
  170.04507 6.0 6
  170.07234 29.0 29
  170.09734 444.0 444
  171.08752 25.0 25
  171.09625 91.0 91
  171.10899 12.0 12
  172.10364 31.0 31
  173.11339 7.0 7
  173.81152 5.0 5
  179.08778 13.0 13
  180.08055 156.0 156
  181.06148 7.0 7
  181.08556 83.0 83
  181.09753 26.0 26
  182.07074 6.0 6
  182.08748 54.0 54
  182.09863 89.0 89
  182.12799 6.0 6
  183.07417 7.0 7
  183.09688 13.0 13
  183.10655 16.0 16
  184.08774 6.0 6
  184.1039 6.0 6
  184.11292 13.0 13
  186.118 6.0 6
  186.15198 11.0 11
  187.09381 10.0 10
  187.10149 9.0 9
  190.33607 6.0 6
  191.06754 8.0 8
  191.07864 28.0 28
  191.08774 7.0 7
  191.46986 5.0 5
  192.05559 6.0 6
  192.07245 8.0 8
  192.08409 39.0 39
  192.09796 8.0 8
  192.51231 8.0 8
  193.05948 15.0 15
  193.07602 49.0 49
  193.08813 158.0 158
  194.06685 14.0 14
  194.0771 8.0 8
  194.09323 161.0 161
  194.10153 145.0 145
  195.07565 6.0 6
  195.10153 192.0 192
  195.11859 11.0 11
  196.09966 25.0 25
  196.11041 157.0 157
  197.10611 17.0 17
  197.11658 10.0 10
  199.14401 7.0 7
  201.265 6.0 6
  203.08463 12.0 12
  204.07036 16.0 16
  204.08145 61.0 61
  204.09038 33.0 33
  205.05821 8.0 8
  205.09094 88.0 88
  205.10689 5.0 5
  206.06952 21.0 21
  206.09485 141.0 141
  206.67331 5.0 5
  207.08453 20.0 20
  207.10165 245.0 245
  208.11154 233.0 233
  208.13733 5.0 5
  209.10507 20.0 20
  209.11809 23.0 23
  209.12758 19.0 19
  210.08249 5.0 5
  210.10303 9.0 9
  210.11205 11.0 11
  210.1275 44.0 44
  211.09236 12.0 12
  212.3741 5.0 5
  215.11472 7.0 7
  216.06979 5.0 5
  216.0921 6.0 6
  217.06612 9.0 9
  217.08881 109.0 109
  218.09647 234.0 234
  219.07101 12.0 12
  219.09454 99.0 99
  219.10753 66.0 66
  220.07083 7.0 7
  220.08768 24.0 24
  220.11012 109.0 109
  220.11679 39.0 39
  220.20706 5.0 5
  221.10182 17.0 17
  221.11716 72.0 72
  222.07784 7.0 7
  222.09511 22.0 22
  222.12679 421.0 421
  222.17007 6.0 6
  223.12996 59.0 59
  223.14423 8.0 8
  224.07884 5.0 5
  224.09265 5.0 5
  224.10416 12.0 12
  224.12636 11.0 11
  224.14073 29.0 29
  224.15198 6.0 6
  226.12531 95.0 95
  226.1376 31.0 31
  227.12646 11.0 11
  229.06995 5.0 5
  229.08307 9.0 9
  229.10367 9.0 9
  230.08437 22.0 22
  230.1006 97.0 97
  231.06718 7.0 7
  231.08243 13.0 13
  231.10352 165.0 165
  232.11137 155.0 155
  233.05498 6.0 6
  233.10562 127.0 127
  233.11485 119.0 119
  233.14432 8.0 8
  234.0706 9.0 9
  234.10126 50.0 50
  234.11342 44.0 44
  234.12839 105.0 105
  234.15863 5.0 5
  235.10466 11.0 11
  235.12265 151.0 151
  235.29219 12.0 12
  236.12764 84.0 84
  236.14958 42.0 42
  237.12973 31.0 31
  237.16106 5.0 5
  238.12956 18.0 18
  239.10988 5.0 5
  239.15433 6.0 6
  241.13383 12.0 12
  242.1091 15.0 15
  243.10275 9.0 9
  243.12599 6.0 6
  244.10237 24.0 24
  244.11308 91.0 91
  245.08759 8.0 8
  245.12062 204.0 204
  246.0446 7.0 7
  246.10197 5.0 5
  246.11537 22.0 22
  246.12766 46.0 46
  246.14731 6.0 6
  247.1152 86.0 86
  247.12662 182.0 182
  248.10304 8.0 8
  248.12935 104.0 104
  248.14371 91.0 91
  248.69504 8.0 8
  248.90581 5.0 5
  249.11816 24.0 24
  249.1395 226.0 226
  250.11942 8.0 8
  250.14656 43.0 43
  250.16443 22.0 22
  251.08876 6.0 6
  251.11853 49.0 49
  252.12889 8.0 8
  258.12946 15.0 15
  259.11896 15.0 15
  259.13968 13.0 13
  260.14175 139.0 139
  260.16071 11.0 11
  261.13968 133.0 133
  262.13449 22.0 22
  262.14883 151.0 151
  262.9422 5.0 5
  263.11505 15.0 15
  263.13226 26.0 26
  263.15497 229.0 229
  264.12753 6.0 6
  264.15616 57.0 57
  264.17014 44.0 44
  265.13684 23.0 23
  265.17038 125.0 125
  266.14206 22.0 22
  266.15149 19.0 19
  267.15402 9.0 9
  267.16861 6.0 6
  268.15854 5.0 5
  274.1376 6.0 6
  275.13654 6.0 6
  275.15298 13.0 13
  277.16953 292.0 292
  278.14206 7.0 7
  278.15939 39.0 39
  278.17346 87.0 87
  279.14972 37.0 37
  279.18143 9.0 9
  280.16257 18.0 18
  281.16461 8.0 8
  289.70145 7.0 7
  293.1492 7.0 7
  293.17642 8.0 8
  295.1575 27.0 27
  295.18188 257.0 257
//
