ACCESSION: MSBNK-RIKEN-PR305051
RECORD_TITLE: Germinaline; LC-ESI-QTOF; MS2
DATE: 2019.03.28
AUTHORS: Tetsuya Mori, Center for Sustainable Resource Science, RIKEN
LICENSE: CC BY-NC-SA
PUBLICATION: Tsugawa H., Nakabayashi R., Mori T., Yamada Y., Takahashi M., Rai A., Sugiyama R., Yamamoto H., Nakaya T., Yamazaki M., Kooke R., Bac-Molenaar JA., Oztolan-Erol N., Keurentjes JJB., Arita M., Saito K. (2019) "A cheminformatics approach to characterize metabolomes in stable-isotope-labeled organisms" Nature Methods 16(4):295-298. [doi:10.1038/s41592-019-0358-2]
COMMENT: registered in RIKEN PlaSMA
CH$NAME: Germinaline
CH$COMPOUND_CLASS: Cerveratrum-type alkaloids
CH$FORMULA: C39H61NO13
CH$EXACT_MASS: 751.911
CH$SMILES: CCC(C)C(=O)OC1C(O)C2C(CN3CC(C)CCC3C2(C)O)C2CC34OC5(O)C(CC(O)C3C12O)C4(C)CCC5OC(=O)C(C)(O)C(C)OC(C)=O
CH$IUPAC: InChI=1S/C39H61NO13/c1-9-19(3)32(44)52-31-29(43)28-22(17-40-16-18(2)10-11-26(40)36(28,8)47)23-15-37-30(38(23,31)48)24(42)14-25-34(37,6)13-12-27(39(25,49)53-37)51-33(45)35(7,46)20(4)50-21(5)41/h18-20,22-31,42-43,46-49H,9-17H2,1-8H3
CH$LINK: INCHIKEY CPINTEKYWNYXNP-UHFFFAOYSA-N
AC$INSTRUMENT: LC, Waters Acquity UPLC System; MS, Waters Xevo G2 Q-Tof
AC$INSTRUMENT_TYPE: LC-ESI-QTOF
AC$MASS_SPECTROMETRY: MS_TYPE MS2
AC$MASS_SPECTROMETRY: ION_MODE NEGATIVE
AC$MASS_SPECTROMETRY: COLLISION_ENERGY 6V
AC$MASS_SPECTROMETRY: DESOLVATION_GAS_FLOW 800/h
AC$MASS_SPECTROMETRY: DESOLVATION_TEMPERATURE 450 C
AC$MASS_SPECTROMETRY: IONIZATION ESI
AC$CHROMATOGRAPHY: CAPILLARY_VOLTAGE -2.75 kV
AC$CHROMATOGRAPHY: COLUMN_NAME Acquity bridged ethyl hybrid C18 (1.7 um, 2.1 mm * 100 mm, Waters)
AC$CHROMATOGRAPHY: COLUMN_TEMPERATURE 40 C
AC$CHROMATOGRAPHY: FLOW_GRADIENT A/B = (99.5%/0.5% at 0 min, 99.5%/0.5% at 0.1 min, 20%/80% at 10 min, 0.5%/99.5% at 10.1 min, 0.5%/99.5% at 12.0 min, 99.5%/0.5% at 12.1 min, 99.5%/0.5% at 15.0 min)
AC$CHROMATOGRAPHY: FLOW_RATE 0.3 ml/min at 0 min, 0.3 ml/min at 10 min, 0.4 ml/min at 10.1 min, 0.4 ml/min at 14.4 min, 0.3 ml/min at 14.5 min
AC$CHROMATOGRAPHY: RETENTION_TIME 5.103483
AC$CHROMATOGRAPHY: SOLVENT A water including 0.1% formic acid
AC$CHROMATOGRAPHY: SOLVENT B acetonitrile including 0.1% formic acid
MS$FOCUSED_ION: PRECURSOR_TYPE [M-H]-
MS$FOCUSED_ION: PRECURSOR_M/Z 750.40701454783
PK$SPLASH: splash10-004i-0900000000-e800c9bb99d8ca33c5b7
PK$NUM_PEAK: 16
PK$PEAK: m/z int. rel.int.
  59.00953 9.0 9
  59.01509 51.0 51
  60.6703 9.0 9
  62.46424 8.0 8
  71.0486 27.0 27
  115.03878 8.0 8
  133.04675 26.0 26
  133.05502 20.0 20
  175.06053 1000.0 999
  175.23534 9.0 9
  175.59532 8.0 8
  176.06468 53.0 53
  177.06834 9.0 9
  202.72534 9.0 9
  298.28806 14.0 14
  572.40369 8.0 8
//
