ACCESSION: MSBNK-RIKEN-PR301149
RECORD_TITLE: Karakoline; LC-ESI-QTOF; MS2
DATE: 2019.03.28
AUTHORS: Tetsuya Mori, Center for Sustainable Resource Science, RIKEN
LICENSE: CC BY-NC-SA
PUBLICATION: Tsugawa H., Nakabayashi R., Mori T., Yamada Y., Takahashi M., Rai A., Sugiyama R., Yamamoto H., Nakaya T., Yamazaki M., Kooke R., Bac-Molenaar JA., Oztolan-Erol N., Keurentjes JJB., Arita M., Saito K. (2019) "A cheminformatics approach to characterize metabolomes in stable-isotope-labeled organisms" Nature Methods 16(4):295-298. [doi:10.1038/s41592-019-0358-2]
COMMENT: registered in RIKEN PlaSMA
CH$NAME: Karakoline
CH$COMPOUND_CLASS: Aconitane-type diterpenoid alkaloids
CH$FORMULA: C22H35NO4
CH$EXACT_MASS: 377.525
CH$SMILES: CCN1C[C@]2(C)CC[C@H](O)[C@@]34[C@@H]5C[C@H]6[C@H](O)[C@@H]5[C@](O)(C[C@@H]6OC)[C@@H](C[C@H]23)C14
CH$IUPAC: InChI=1S/C22H35NO4/c1-4-23-10-20(2)6-5-16(24)22-12-7-11-14(27-3)9-21(26,17(12)18(11)25)13(19(22)23)8-15(20)22/h11-19,24-26H,4-10H2,1-3H3/t11-,12-,13+,14+,15-,16+,17-,18+,19?,20+,21+,22-/m1/s1
CH$LINK: INCHIKEY HKQZUYOVMYOFIT-VHNBHZRZSA-N
AC$INSTRUMENT: LC, Waters Acquity UPLC System; MS, Waters Xevo G2 Q-Tof
AC$INSTRUMENT_TYPE: LC-ESI-QTOF
AC$MASS_SPECTROMETRY: MS_TYPE MS2
AC$MASS_SPECTROMETRY: ION_MODE POSITIVE
AC$MASS_SPECTROMETRY: COLLISION_ENERGY 6V
AC$MASS_SPECTROMETRY: DESOLVATION_GAS_FLOW 800/h
AC$MASS_SPECTROMETRY: DESOLVATION_TEMPERATURE 450 C
AC$MASS_SPECTROMETRY: IONIZATION ESI
AC$CHROMATOGRAPHY: CAPILLARY_VOLTAGE +3.00 kV
AC$CHROMATOGRAPHY: COLUMN_NAME Acquity bridged ethyl hybrid C18 (1.7 um, 2.1 mm * 100 mm, Waters)
AC$CHROMATOGRAPHY: COLUMN_TEMPERATURE 40 C
AC$CHROMATOGRAPHY: FLOW_GRADIENT A/B = (99.5%/0.5% at 0 min, 99.5%/0.5% at 0.1 min, 20%/80% at 10 min, 0.5%/99.5% at 10.1 min, 0.5%/99.5% at 12.0 min, 99.5%/0.5% at 12.1 min, 99.5%/0.5% at 15.0 min)
AC$CHROMATOGRAPHY: FLOW_RATE 0.3 ml/min at 0 min, 0.3 ml/min at 10 min, 0.4 ml/min at 10.1 min, 0.4 ml/min at 14.4 min, 0.3 ml/min at 14.5 min
AC$CHROMATOGRAPHY: RETENTION_TIME 2.889217
AC$CHROMATOGRAPHY: SOLVENT A water including 0.1% formic acid
AC$CHROMATOGRAPHY: SOLVENT B acetonitrile including 0.1% formic acid
MS$FOCUSED_ION: PRECURSOR_TYPE [M+H]+
MS$FOCUSED_ION: PRECURSOR_M/Z 378.2638851
PK$SPLASH: splash10-08fv-2911000000-b8088a2c9847309fffcb
PK$NUM_PEAK: 465
PK$PEAK: m/z int. rel.int.
  52.72303 34.0 34
  55.0434 20.0 20
  55.05254 20.0 20
  55.061 26.0 26
  56.04774 28.0 28
  56.05515 34.0 34
  58.06704 302.0 302
  59.07057 26.0 26
  61.02767 108.0 108
  64.97155 30.0 30
  65.04096 20.0 20
  65.63297 36.0 36
  67.05132 77.0 77
  67.05695 122.0 122
  68.06287 23.0 23
  68.924 20.0 20
  69.00208 23.0 23
  69.03738 47.0 47
  69.07654 21.0 21
  71.04352 44.0 44
  71.05346 24.0 24
  72.0192 22.0 22
  72.02959 20.0 20
  72.08184 263.0 263
  77.03517 20.0 20
  79.03941 70.0 70
  79.0483 43.0 43
  79.05622 282.0 282
  80.00611 62.0 62
  81.07092 345.0 345
  81.19227 21.0 21
  81.23237 24.0 24
  82.06436 119.0 119
  84.07786 71.0 71
  84.08388 86.0 86
  85.03304 48.0 48
  85.06454 20.0 20
  85.08514 23.0 23
  85.09078 35.0 35
  86.09676 65.0 65
  86.10381 28.0 28
  89.8921 38.0 38
  90.18188 20.0 20
  91.04076 20.0 20
  91.04674 64.0 64
  91.05531 528.0 527
  91.08575 28.0 28
  92.0648 26.0 26
  92.36741 28.0 28
  92.578 20.0 20
  93.07056 599.0 598
  94.04362 23.0 23
  94.0667 30.0 30
  95.04144 42.0 42
  95.04905 49.0 49
  95.06561 45.0 45
  95.07194 23.0 23
  95.08575 152.0 152
  95.09264 49.0 49
  96.08132 93.0 93
  96.08759 57.0 57
  96.09347 21.0 21
  98.09675 691.0 690
  101.05619 28.0 28
  103.03392 21.0 21
  103.0406 70.0 70
  104.06458 31.0 31
  105.03248 34.0 34
  105.05054 20.0 20
  105.05805 48.0 48
  105.07183 1000.0 999
  106.07689 94.0 94
  106.58076 20.0 20
  107.04256 45.0 45
  107.04838 86.0 86
  107.05688 58.0 58
  107.07964 71.0 71
  107.08715 166.0 166
  107.09132 69.0 69
  108.07323 34.0 34
  108.08644 61.0 61
  109.06776 37.0 37
  109.09726 31.0 31
  109.10889 56.0 56
  110.06923 24.0 24
  110.07879 28.0 28
  110.09712 724.0 723
  110.2991 20.0 20
  111.09772 108.0 108
  111.10606 70.0 70
  112.10949 31.0 31
  115.05476 105.0 105
  116.06081 43.0 43
  117.05792 55.0 55
  117.06904 538.0 537
  118.06864 26.0 26
  118.07428 28.0 28
  119.04459 20.0 20
  119.05401 93.0 93
  119.0857 234.0 234
  120.08293 22.0 22
  120.09061 75.0 75
  121.06394 84.0 84
  121.06927 64.0 64
  121.08963 23.0 23
  122.0844 40.0 40
  122.09615 347.0 347
  123.04575 252.0 252
  123.084 27.0 27
  124.04787 23.0 23
  124.11166 524.0 523
  124.11948 155.0 155
  124.48875 26.0 26
  125.10762 26.0 26
  125.1166 76.0 76
  125.12377 20.0 20
  126.09275 28.0 28
  126.1256 90.0 90
  126.13377 29.0 29
  126.31234 20.0 20
  127.04412 27.0 27
  127.06287 29.0 29
  127.12675 43.0 43
  127.79743 30.0 30
  128.05968 291.0 291
  128.06885 57.0 57
  128.10986 23.0 23
  129.07042 603.0 602
  129.10777 22.0 22
  130.07249 100.0 100
  130.08125 125.0 125
  130.1517 38.0 38
  130.17419 29.0 29
  130.19371 27.0 27
  131.05269 75.0 75
  131.08296 443.0 443
  131.09189 172.0 172
  132.03281 23.0 23
  132.08376 54.0 54
  132.09088 40.0 40
  132.09579 21.0 21
  133.06723 24.0 24
  133.10037 280.0 280
  134.09384 52.0 52
  134.11427 27.0 27
  135.08058 117.0 117
  135.10934 61.0 61
  135.12056 155.0 155
  136.08162 79.0 79
  136.10934 50.0 50
  137.05263 24.0 24
  137.10364 24.0 24
  137.12808 23.0 23
  138.0602 50.0 50
  138.06517 22.0 22
  140.067 28.0 28
  141.058 26.0 26
  141.07008 304.0 304
  142.06097 22.0 22
  142.07869 186.0 186
  143.06508 20.0 20
  143.08609 798.0 797
  144.05693 43.0 43
  144.07219 24.0 24
  144.07779 22.0 22
  144.08937 51.0 51
  144.09706 69.0 69
  145.06258 118.0 118
  145.08159 20.0 20
  145.08748 26.0 26
  145.10422 618.0 617
  146.0808 31.0 31
  146.09564 24.0 24
  146.10213 86.0 86
  147.07433 113.0 113
  147.11229 20.0 20
  147.11942 49.0 49
  148.12149 134.0 134
  149.09311 23.0 23
  149.1152 71.0 71
  150.11964 23.0 23
  150.12741 31.0 31
  151.06996 52.0 52
  152.06346 96.0 96
  152.16498 21.0 21
  153.06821 89.0 89
  154.07988 161.0 161
  154.22237 27.0 27
  155.07233 45.0 45
  155.08176 110.0 110
  155.08919 534.0 533
  156.08861 112.0 112
  156.09946 76.0 76
  157.01216 20.0 20
  157.06984 29.0 29
  157.09843 227.0 227
  157.10664 220.0 220
  157.17384 22.0 22
  158.10289 79.0 79
  158.1091 20.0 20
  158.12505 24.0 24
  159.07285 22.0 22
  159.10304 21.0 21
  159.11626 311.0 311
  160.08521 61.0 61
  160.11879 139.0 139
  160.14168 23.0 23
  160.53175 24.0 24
  161.09343 28.0 28
  161.13103 75.0 75
  161.13998 55.0 55
  161.3987 26.0 26
  162.00246 20.0 20
  162.12932 361.0 361
  163.11877 23.0 23
  163.13249 27.0 27
  163.14897 55.0 55
  164.14195 56.0 56
  164.15033 30.0 30
  165.04832 23.0 23
  165.06265 98.0 98
  165.07144 205.0 205
  166.06444 43.0 43
  166.07784 121.0 121
  167.0399 47.0 47
  167.08606 458.0 458
  168.09079 107.0 107
  168.09836 41.0 41
  168.95503 28.0 28
  169.02876 33.0 33
  169.08688 20.0 20
  169.10022 245.0 245
  169.11342 34.0 34
  170.02208 24.0 24
  170.07605 21.0 21
  170.09814 33.0 33
  170.10893 99.0 99
  171.07716 28.0 28
  171.11623 191.0 191
  171.16591 20.0 20
  172.08147 30.0 30
  172.11018 72.0 72
  173.08476 27.0 27
  173.10143 47.0 47
  173.12251 36.0 36
  173.13399 96.0 96
  175.08585 20.0 20
  175.11624 48.0 48
  175.14394 29.0 29
  176.1497 24.0 24
  176.5565 22.0 22
  177.14357 33.0 33
  177.14999 23.0 23
  178.07529 108.0 108
  178.97032 34.0 34
  179.07639 34.0 34
  179.08987 212.0 212
  180.09238 197.0 197
  181.05745 23.0 23
  181.09309 23.0 23
  181.10442 217.0 217
  181.11656 40.0 40
  182.06934 20.0 20
  182.11127 209.0 209
  183.08235 101.0 101
  183.11447 228.0 228
  183.12378 191.0 191
  183.9353 42.0 42
  184.08386 52.0 52
  184.11833 55.0 55
  184.12685 58.0 58
  185.07397 21.0 21
  185.08965 54.0 54
  185.09863 96.0 96
  185.1342 147.0 147
  185.25305 23.0 23
  186.1209 54.0 54
  186.13661 113.0 113
  187.12286 45.0 45
  187.13326 23.0 23
  188.1447 50.0 50
  189.12827 21.0 21
  189.14983 20.0 20
  189.16072 69.0 69
  190.11349 24.0 24
  190.15318 20.0 20
  191.09007 120.0 120
  191.15979 24.0 24
  191.17169 49.0 49
  192.09305 115.0 115
  192.17041 28.0 28
  193.09399 69.0 69
  193.10168 218.0 218
  193.13892 20.0 20
  194.06987 28.0 28
  194.10199 52.0 52
  194.1127 24.0 24
  195.0918 24.0 24
  195.11664 195.0 195
  196.09857 35.0 35
  196.12187 35.0 35
  197.09593 78.0 78
  197.11687 31.0 31
  197.13203 172.0 172
  197.14708 79.0 79
  198.10474 26.0 26
  198.13095 21.0 21
  199.10065 51.0 51
  199.11441 69.0 69
  199.14569 77.0 77
  199.15556 114.0 114
  200.13449 17.0 17
  200.14607 73.0 73
  201.12668 49.0 49
  202.07677 23.0 23
  202.13338 29.0 29
  202.1611 45.0 45
  203.0816 28.0 28
  203.09332 47.0 47
  203.16321 23.0 23
  204.08455 49.0 49
  204.09645 22.0 22
  204.10771 52.0 52
  205.09642 124.0 124
  206.09514 17.0 17
  206.1037 41.0 41
  206.15971 29.0 29
  207.11626 240.0 240
  208.11511 20.0 20
  208.12537 65.0 65
  209.09369 48.0 48
  209.1225 56.0 56
  209.13818 55.0 55
  210.13255 91.0 91
  211.10683 20.0 20
  211.12219 52.0 52
  211.14201 34.0 34
  212.12224 29.0 29
  212.13026 23.0 23
  213.16772 29.0 29
  213.45612 20.0 20
  214.09979 20.0 20
  214.15407 91.0 91
  215.0797 24.0 24
  215.14803 42.0 42
  216.10136 26.0 26
  216.17369 24.0 24
  217.10107 49.0 49
  217.11012 26.0 26
  217.13139 34.0 34
  218.10648 28.0 28
  219.11795 23.0 23
  220.11945 44.0 44
  220.15318 27.0 27
  221.14026 58.0 58
  222.10741 31.0 31
  223.10793 42.0 42
  223.16031 44.0 44
  224.10957 23.0 23
  224.14912 23.0 23
  224.17465 48.0 48
  225.15535 22.0 22
  225.17049 20.0 20
  226.10474 20.0 20
  226.13258 20.0 20
  227.12125 20.0 20
  227.14264 164.0 164
  227.15845 20.0 20
  227.18288 26.0 26
  228.09059 20.0 20
  228.14282 28.0 28
  228.16245 26.0 26
  228.1781 35.0 35
  230.11487 23.0 23
  232.12115 23.0 23
  234.11943 35.0 35
  237.15872 47.0 47
  237.17152 21.0 21
  238.1548 37.0 37
  238.16296 20.0 20
  239.13446 29.0 29
  239.17757 59.0 59
  240.14713 22.0 22
  242.18048 20.0 20
  242.19212 48.0 48
  244.16869 20.0 20
  245.16322 24.0 24
  245.17372 22.0 22
  246.18713 35.0 35
  248.20265 35.0 35
  249.1266 36.0 36
  249.1628 28.0 28
  253.14314 28.0 28
  253.15794 22.0 22
  254.15672 23.0 23
  254.1882 42.0 42
  254.19998 21.0 21
  256.1785 41.0 41
  257.13889 20.0 20
  259.16086 22.0 22
  259.17426 20.0 20
  263.17108 21.0 21
  263.18954 24.0 24
  266.15891 24.0 24
  267.15375 28.0 28
  267.1889 28.0 28
  268.16568 24.0 24
  269.16089 20.0 20
  269.18094 29.0 29
  270.14893 24.0 24
  270.18359 34.0 34
  271.18234 20.0 20
  272.20074 44.0 44
  272.24118 22.0 22
  281.19031 23.0 23
  282.19254 23.0 23
  283.17838 59.0 59
  283.19562 28.0 28
  285.1785 29.0 29
  285.47873 26.0 26
  286.18387 20.0 20
  288.26086 23.0 23
  290.2518 20.0 20
  294.23572 20.0 20
  297.18414 29.0 29
  298.22659 64.0 64
  300.20221 21.0 21
  300.22137 115.0 115
  301.2222 21.0 21
  305.2424 29.0 29
  306.81378 44.0 44
  308.18109 27.0 27
  308.20242 28.0 28
  310.21371 56.0 56
  311.22037 22.0 22
  312.22626 44.0 44
  315.2146 20.0 20
  318.198 21.0 21
  323.12909 23.0 23
  324.06573 42.0 42
  328.05612 28.0 28
  328.1955 75.0 75
  328.21786 111.0 111
  328.23898 152.0 152
  329.23737 29.0 29
  330.23343 20.0 20
  332.20447 20.0 20
  332.21698 71.0 71
  332.22961 96.0 96
  332.24167 21.0 21
  342.23123 24.0 24
  342.25253 94.0 94
  343.24365 24.0 24
  351.56903 30.0 30
  358.24875 21.0 21
  360.18497 20.0 20
  360.25385 847.0 846
  361.07941 45.0 45
  361.25177 120.0 120
  361.27747 23.0 23
  361.89163 20.0 20
  362.25491 23.0 23
  362.26956 68.0 68
  378.24823 23.0 23
  378.27261 62.0 62
//
