ACCESSION: MSBNK-RIKEN-PR308915
RECORD_TITLE: Soyasapogenol B base + O-HexA-Hex; LC-ESI-QTOF; MS2
DATE: 2019.03.28
AUTHORS: Tetsuya Mori, Center for Sustainable Resource Science, RIKEN
LICENSE: CC BY-NC-SA
PUBLICATION: Tsugawa H., Nakabayashi R., Mori T., Yamada Y., Takahashi M., Rai A., Sugiyama R., Yamamoto H., Nakaya T., Yamazaki M., Kooke R., Bac-Molenaar JA., Oztolan-Erol N., Keurentjes JJB., Arita M., Saito K. (2019) "A cheminformatics approach to characterize metabolomes in stable-isotope-labeled organisms" Nature Methods 16(4):295-298. [doi:10.1038/s41592-019-0358-2]
COMMENT: Annotation level-3
CH$NAME: Soyasapogenol B base + O-HexA-Hex
CH$COMPOUND_CLASS: Triterpene saponins
CH$FORMULA: C42H68O14
CH$EXACT_MASS: 796.992
CH$SMILES: O=C(O)C7OC(OC2CCC3(C)(C4CC=C1C5CC(C)(C)CC(O)C5(C)(CCC1(C)C4(C)(CCC3(C2(C)(CO))))))C(OC6OC(CO)C(O)C(O)C6(O))C(O)C7(O)
CH$IUPAC: InChI=1S/C42H68O14/c1-37(2)16-21-20-8-9-24-39(4)12-11-26(40(5,19-44)23(39)10-13-42(24,7)41(20,6)15-14-38(21,3)25(45)17-37)54-36-33(30(49)29(48)32(55-36)34(51)52)56-35-31(50)28(47)27(46)22(18-43)53-35/h8,21-33,35-36,43-50H,9-19H2,1-7H3,(H,51,52)
CH$LINK: INCHIKEY OKIHRVKXRCAJFQ-UHFFFAOYSA-N
AC$INSTRUMENT: LC, Waters Acquity UPLC System; MS, Waters Xevo G2 Q-Tof
AC$INSTRUMENT_TYPE: LC-ESI-QTOF
AC$MASS_SPECTROMETRY: MS_TYPE MS2
AC$MASS_SPECTROMETRY: ION_MODE NEGATIVE
AC$MASS_SPECTROMETRY: COLLISION_ENERGY 6V
AC$MASS_SPECTROMETRY: DESOLVATION_GAS_FLOW 800/h
AC$MASS_SPECTROMETRY: DESOLVATION_TEMPERATURE 450 C
AC$MASS_SPECTROMETRY: IONIZATION ESI
AC$CHROMATOGRAPHY: CAPILLARY_VOLTAGE +3.00 kV
AC$CHROMATOGRAPHY: COLUMN_NAME Acquity bridged ethyl hybrid C18 (1.7 um, 2.1 mm * 100 mm, Waters)
AC$CHROMATOGRAPHY: COLUMN_TEMPERATURE 40 C
AC$CHROMATOGRAPHY: FLOW_GRADIENT A/B = (99.5%/0.5% at 0 min, 99.5%/0.5% at 0.1 min, 20%/80% at 10 min, 0.5%/99.5% at 10.1 min, 0.5%/99.5% at 12.0 min, 99.5%/0.5% at 12.1 min, 99.5%/0.5% at 15.0 min)
AC$CHROMATOGRAPHY: FLOW_RATE 0.3 ml/min at 0 min, 0.3 ml/min at 10 min, 0.4 ml/min at 10.1 min, 0.4 ml/min at 14.4 min, 0.3 ml/min at 14.5 min
AC$CHROMATOGRAPHY: RETENTION_TIME 7.31
AC$CHROMATOGRAPHY: SOLVENT A water including 0.1% formic acid
AC$CHROMATOGRAPHY: SOLVENT B acetonitrile including 0.1% formic acid
MS$FOCUSED_ION: PRECURSOR_TYPE [M-H]-
MS$FOCUSED_ION: PRECURSOR_M/Z 795.4575
PK$SPLASH: splash10-0002-0000000900-8d7346105d71f6732953
PK$NUM_PEAK: 17
PK$PEAK: m/z int. rel.int.
  59.01376 20.0 10
  68.99579 26.0 13
  71.01415 18.0 9
  113.02858 45.0 22
  119.02802 18.0 9
  119.03764 30.0 15
  157.0177 39.0 19
  162.05022 21.0 10
  372.53778 24.0 12
  432.3981 29.0 14
  520.83472 18.0 9
  525.41284 24.0 12
  554.39069 20.0 10
  794.43805 18.0 9
  795.29517 20.0 10
  795.45374 2062.0 999
  795.55835 18.0 9
//
