ACCESSION: MSBNK-RIKEN-PR307759
RECORD_TITLE: Asiaticoside; LC-ESI-QTOF; MS2
DATE: 2019.03.28
AUTHORS: Tetsuya Mori, Center for Sustainable Resource Science, RIKEN
LICENSE: CC BY-NC-SA
PUBLICATION: Tsugawa H., Nakabayashi R., Mori T., Yamada Y., Takahashi M., Rai A., Sugiyama R., Yamamoto H., Nakaya T., Yamazaki M., Kooke R., Bac-Molenaar JA., Oztolan-Erol N., Keurentjes JJB., Arita M., Saito K. (2019) "A cheminformatics approach to characterize metabolomes in stable-isotope-labeled organisms" Nature Methods 16(4):295-298. [doi:10.1038/s41592-019-0358-2]
COMMENT: registered in RIKEN PlaSMA
CH$NAME: Asiaticoside
CH$COMPOUND_CLASS: Triterpene saponins
CH$FORMULA: C48H78O19
CH$EXACT_MASS: 959.133
CH$SMILES: CC1CCC2(CCC3(C)C(=CCC4C5(C)CC(O)C(O)C(C)(CO)C5CCC34C)C2C1C)C(=O)OC1OC(COC2OC(CO)C(OC3OC(C)C(O)C(O)C3O)C(O)C2O)C(O)C(O)C1O
CH$IUPAC: InChI=1S/C48H78O19/c1-20-10-13-48(15-14-46(6)23(29(48)21(20)2)8-9-28-44(4)16-24(51)39(60)45(5,19-50)27(44)11-12-47(28,46)7)43(61)67-42-36(58)33(55)31(53)26(65-42)18-62-40-37(59)34(56)38(25(17-49)64-40)66-41-35(57)32(54)30(52)22(3)63-41/h8,20-22,24-42,49-60H,9-19H2,1-7H3
CH$LINK: INCHIKEY WYQVAPGDARQUBT-UHFFFAOYSA-N
AC$INSTRUMENT: LC, Waters Acquity UPLC System; MS, Waters Xevo G2 Q-Tof
AC$INSTRUMENT_TYPE: LC-ESI-QTOF
AC$MASS_SPECTROMETRY: MS_TYPE MS2
AC$MASS_SPECTROMETRY: ION_MODE NEGATIVE
AC$MASS_SPECTROMETRY: COLLISION_ENERGY 6V
AC$MASS_SPECTROMETRY: DESOLVATION_GAS_FLOW 800/h
AC$MASS_SPECTROMETRY: DESOLVATION_TEMPERATURE 450 C
AC$MASS_SPECTROMETRY: IONIZATION ESI
AC$CHROMATOGRAPHY: CAPILLARY_VOLTAGE -2.75 kV
AC$CHROMATOGRAPHY: COLUMN_NAME Acquity bridged ethyl hybrid C18 (1.7 um, 2.1 mm * 100 mm, Waters)
AC$CHROMATOGRAPHY: COLUMN_TEMPERATURE 40 C
AC$CHROMATOGRAPHY: FLOW_GRADIENT A/B = (99.5%/0.5% at 0 min, 99.5%/0.5% at 0.1 min, 20%/80% at 10 min, 0.5%/99.5% at 10.1 min, 0.5%/99.5% at 12.0 min, 99.5%/0.5% at 12.1 min, 99.5%/0.5% at 15.0 min)
AC$CHROMATOGRAPHY: FLOW_RATE 0.3 ml/min at 0 min, 0.3 ml/min at 10 min, 0.4 ml/min at 10.1 min, 0.4 ml/min at 14.4 min, 0.3 ml/min at 14.5 min
AC$CHROMATOGRAPHY: RETENTION_TIME 5.205133
AC$CHROMATOGRAPHY: SOLVENT A water including 0.1% formic acid
AC$CHROMATOGRAPHY: SOLVENT B acetonitrile including 0.1% formic acid
MS$FOCUSED_ION: PRECURSOR_TYPE [M+HCOO]-
MS$FOCUSED_ION: PRECURSOR_M/Z 1003.51193315183
PK$SPLASH: splash10-000i-0420900000-d204c83b3c9ae2e5c951
PK$NUM_PEAK: 41
PK$PEAK: m/z int. rel.int.
  59.01204 10.0 10
  71.01242 7.0 7
  73.02818 16.0 16
  89.01942 5.0 5
  89.02526 10.0 10
  97.02756 16.0 16
  101.02252 237.0 237
  102.02497 10.0 10
  103.03859 15.0 15
  113.02286 17.0 17
  115.04248 6.0 6
  119.03549 16.0 16
  125.02286 56.0 56
  127.03123 5.0 5
  131.03201 10.0 10
  143.03423 56.0 56
  145.04938 10.0 10
  161.04437 113.0 113
  163.05823 84.0 84
  179.05443 8.0 8
  205.06555 31.0 31
  205.0748 31.0 31
  221.06474 70.0 70
  222.07019 6.0 6
  245.06493 17.0 17
  247.08002 131.0 131
  248.08177 11.0 11
  249.08289 7.0 7
  263.07666 15.0 15
  265.09232 6.0 6
  323.09744 53.0 53
  324.10196 6.0 6
  349.11285 7.0 7
  367.12027 34.0 34
  391.1207 6.0 6
  409.13165 33.0 33
  410.13675 7.0 7
  469.15259 47.0 47
  487.34024 1000.0 999
  488.34277 274.0 274
  489.3479 51.0 51
//
