ACCESSION: MSBNK-RIKEN-PR310662
RECORD_TITLE: Licoricesaponin G2; LC-ESI-QTOF; MS2
DATE: 2019.03.28
AUTHORS: Tetsuya Mori, Center for Sustainable Resource Science, RIKEN
LICENSE: CC BY-NC-SA
PUBLICATION: Tsugawa H., Nakabayashi R., Mori T., Yamada Y., Takahashi M., Rai A., Sugiyama R., Yamamoto H., Nakaya T., Yamazaki M., Kooke R., Bac-Molenaar JA., Oztolan-Erol N., Keurentjes JJB., Arita M., Saito K. (2019) "A cheminformatics approach to characterize metabolomes in stable-isotope-labeled organisms" Nature Methods 16(4):295-298. [doi:10.1038/s41592-019-0358-2]
COMMENT: Annotation level-1
CH$NAME: Licoricesaponin G2
CH$COMPOUND_CLASS: Triterpene saponins
CH$FORMULA: C42H62O17
CH$EXACT_MASS: 838.941
CH$SMILES: O=C(O)C7OC(OC1C(OC(C(=O)O)C(O)C1(O))OC3CCC4(C)(C5C(=O)C=C2C6CC(C(=O)O)(C)CCC6(C)(CCC2(C)C5(C)(CCC4(C3(C)(CO))))))C(O)C(O)C7(O)
CH$IUPAC: InChI=1S/C42H62O17/c1-37-11-12-38(2,36(54)55)16-19(37)18-15-20(44)31-39(3)9-8-22(40(4,17-43)21(39)7-10-42(31,6)41(18,5)14-13-37)56-35-30(26(48)25(47)29(58-35)33(52)53)59-34-27(49)23(45)24(46)28(57-34)32(50)51/h15,19,21-31,34-35,43,45-49H,7-14,16-17H2,1-6H3,(H,50,51)(H,52,53)(H,54,55)
CH$LINK: INCHIKEY WBQVRPYEEYUEBQ-UHFFFAOYSA-N
AC$INSTRUMENT: LC, Waters Acquity UPLC System; MS, Waters Xevo G2 Q-Tof
AC$INSTRUMENT_TYPE: LC-ESI-QTOF
AC$MASS_SPECTROMETRY: MS_TYPE MS2
AC$MASS_SPECTROMETRY: ION_MODE POSITIVE
AC$MASS_SPECTROMETRY: COLLISION_ENERGY 6V
AC$MASS_SPECTROMETRY: DESOLVATION_GAS_FLOW 800/h
AC$MASS_SPECTROMETRY: DESOLVATION_TEMPERATURE 450 C
AC$MASS_SPECTROMETRY: IONIZATION ESI
AC$CHROMATOGRAPHY: CAPILLARY_VOLTAGE +3.00 kV
AC$CHROMATOGRAPHY: COLUMN_NAME Acquity bridged ethyl hybrid C18 (1.7 um, 2.1 mm * 100 mm, Waters)
AC$CHROMATOGRAPHY: COLUMN_TEMPERATURE 40 C
AC$CHROMATOGRAPHY: FLOW_GRADIENT A/B = (99.5%/0.5% at 0 min, 99.5%/0.5% at 0.1 min, 20%/80% at 10 min, 0.5%/99.5% at 10.1 min, 0.5%/99.5% at 12.0 min, 99.5%/0.5% at 12.1 min, 99.5%/0.5% at 15.0 min)
AC$CHROMATOGRAPHY: FLOW_RATE 0.3 ml/min at 0 min, 0.3 ml/min at 10 min, 0.4 ml/min at 10.1 min, 0.4 ml/min at 14.4 min, 0.3 ml/min at 14.5 min
AC$CHROMATOGRAPHY: RETENTION_TIME 6.36
AC$CHROMATOGRAPHY: SOLVENT A water including 0.1% formic acid
AC$CHROMATOGRAPHY: SOLVENT B acetonitrile including 0.1% formic acid
MS$FOCUSED_ION: PRECURSOR_TYPE [M+H]+
MS$FOCUSED_ION: PRECURSOR_M/Z 839.40598
PK$SPLASH: splash10-000i-0000901040-a74ddcc2bb31f2049b61
PK$NUM_PEAK: 297
PK$PEAK: m/z int. rel.int.
  99.00521 17.0 1
  105.06674 23.0 1
  107.08927 20.0 1
  119.08768 19.0 1
  119.09444 17.0 1
  123.61902 18.0 1
  131.02727 26.0 1
  131.03844 40.0 2
  135.07294 20.0 1
  135.11945 24.0 1
  141.01691 192.0 9
  142.02132 20.0 1
  142.6288 23.0 1
  145.10167 18.0 1
  147.11459 19.0 1
  149.13344 63.0 3
  150.13538 25.0 1
  155.66147 22.0 1
  159.02672 170.0 8
  159.03607 144.0 7
  160.03639 85.0 4
  161.13358 18.0 1
  163.11728 19.0 1
  165.16467 21.0 1
  171.12787 30.0 1
  173.12161 21.0 1
  173.1364 61.0 3
  173.59866 19.0 1
  175.15054 51.0 2
  175.16116 21.0 1
  177.03911 150.0 7
  177.10242 20.0 1
  177.16766 39.0 2
  177.48035 28.0 1
  178.03746 17.0 1
  181.13774 20.0 1
  185.13887 56.0 3
  187.15089 17.0 1
  189.15805 20.0 1
  189.16942 108.0 5
  190.16603 18.0 1
  190.17258 17.0 1
  195.04024 21.0 1
  195.15518 18.0 1
  197.13113 18.0 1
  203.13582 17.0 1
  205.15987 27.0 1
  207.16811 21.0 1
  215.05373 23.0 1
  215.14218 38.0 2
  215.16592 20.0 1
  215.18829 24.0 1
  219.04512 22.0 1
  221.15193 17.0 1
  225.16315 20.0 1
  228.28401 21.0 1
  229.16301 17.0 1
  231.71315 17.0 1
  233.1496 44.0 2
  233.15767 37.0 2
  235.16321 44.0 2
  235.17842 18.0 1
  241.19484 93.0 5
  242.19916 21.0 1
  243.05373 46.0 2
  245.16586 18.0 1
  245.19473 27.0 1
  246.15787 37.0 2
  246.18117 18.0 1
  249.18666 20.0 1
  252.15567 20.0 1
  253.20261 18.0 1
  257.19156 17.0 1
  258.62784 17.0 1
  259.16794 25.0 1
  259.20734 36.0 2
  261.05975 18.0 1
  263.17294 52.0 3
  264.17032 18.0 1
  264.89838 17.0 1
  265.18832 19.0 1
  266.45557 28.0 1
  267.51251 23.0 1
  268.58939 25.0 1
  269.19492 20.0 1
  273.17874 19.0 1
  277.78308 18.0 1
  279.16193 20.0 1
  279.21173 17.0 1
  283.20596 44.0 2
  285.09961 29.0 1
  286.18314 18.0 1
  291.20279 17.0 1
  293.29999 20.0 1
  296.94373 22.0 1
  298.1387 41.0 2
  299.18979 18.0 1
  299.2012 18.0 1
  299.2207 20.0 1
  301.16888 17.0 1
  303.20462 41.0 2
  312.04352 23.0 1
  312.9566 25.0 1
  314.22607 18.0 1
  315.65463 25.0 1
  317.03735 17.0 1
  317.20859 17.0 1
  318.06091 18.0 1
  318.21078 21.0 1
  319.02231 24.0 1
  319.06259 19.0 1
  325.24496 39.0 2
  329.23834 19.0 1
  331.21228 23.0 1
  335.06369 22.0 1
  336.07236 17.0 1
  338.13229 20.0 1
  343.20349 19.0 1
  344.23163 20.0 1
  348.59656 17.0 1
  353.61844 33.0 2
  353.90781 20.0 1
  354.05688 21.0 1
  355.75037 17.0 1
  358.54703 35.0 2
  359.28851 25.0 1
  363.23453 24.0 1
  363.30618 37.0 2
  369.26019 47.0 2
  371.26974 20.0 1
  372.24469 17.0 1
  373.15735 26.0 1
  377.69632 35.0 2
  379.24353 20.0 1
  379.25439 18.0 1
  387.28711 21.0 1
  387.31387 17.0 1
  388.30536 19.0 1
  390.08963 21.0 1
  391.26395 18.0 1
  392.36023 27.0 1
  393.27731 25.0 1
  393.61618 24.0 1
  395.25961 17.0 1
  397.44467 20.0 1
  405.30972 41.0 2
  405.33151 38.0 2
  406.3096 37.0 2
  406.31927 21.0 1
  411.27951 35.0 2
  411.298 23.0 1
  412.30518 20.0 1
  415.47504 19.0 1
  420.21024 21.0 1
  421.30176 19.0 1
  422.28928 17.0 1
  423.30176 18.0 1
  423.32016 17.0 1
  423.34265 58.0 3
  424.34369 75.0 4
  429.74393 19.0 1
  433.29352 17.0 1
  433.30838 39.0 2
  433.32419 18.0 1
  434.315 38.0 2
  434.33029 47.0 2
  439.29135 18.0 1
  439.31577 267.0 13
  439.33044 131.0 6
  440.34033 89.0 4
  441.31549 18.0 1
  441.32614 50.0 2
  445.02286 18.0 1
  451.22498 21.0 1
  451.25589 25.0 1
  451.28754 93.0 5
  451.32083 2190.0 107
  452.30188 96.0 5
  452.32074 619.0 30
  452.34189 159.0 8
  452.36871 36.0 2
  453.31021 98.0 5
  453.33292 105.0 5
  453.43585 17.0 1
  454.33707 36.0 2
  454.7135 23.0 1
  458.39828 18.0 1
  462.23193 23.0 1
  469.21414 20.0 1
  469.22733 18.0 1
  469.25882 30.0 1
  469.28354 43.0 2
  469.33063 14649.0 716
  469.39093 17.0 1
  469.4267 17.0 1
  469.43985 21.0 1
  469.63818 18.0 1
  470.25183 42.0 2
  470.26489 30.0 1
  470.28543 59.0 3
  470.33377 5106.0 249
  470.42447 17.0 1
  471.30014 16.0 1
  471.34232 787.0 38
  471.83035 25.0 1
  472.32059 18.0 1
  472.34583 71.0 3
  474.42957 25.0 1
  487.25494 41.0 2
  487.27322 17.0 1
  487.34174 9595.0 469
  487.38647 31.0 2
  488.29181 41.0 2
  488.34595 3571.0 174
  488.86472 18.0 1
  489.10114 24.0 1
  489.32227 106.0 5
  489.35553 468.0 23
  490.33466 86.0 4
  490.38574 21.0 1
  491.92453 17.0 1
  494.35559 22.0 1
  495.34323 17.0 1
  495.80371 24.0 1
  499.72522 24.0 1
  501.62415 18.0 1
  513.33911 18.0 1
  518.4563 22.0 1
  526.51996 23.0 1
  532.42957 17.0 1
  534.3139 18.0 1
  538.34552 20.0 1
  544.0896 25.0 1
  557.00439 23.0 1
  557.73926 17.0 1
  559.47571 39.0 2
  584.38202 18.0 1
  589.49487 17.0 1
  591.30957 19.0 1
  591.77716 22.0 1
  592.71375 21.0 1
  598.45667 17.0 1
  620.48193 19.0 1
  626.21326 18.0 1
  627.2464 20.0 1
  627.29132 18.0 1
  627.34583 354.0 17
  627.38635 60.0 3
  628.35834 165.0 8
  628.38892 45.0 2
  629.35211 21.0 1
  629.388 17.0 1
  635.77002 20.0 1
  644.48224 21.0 1
  645.18127 18.0 1
  645.27856 17.0 1
  645.35229 292.0 14
  645.36914 602.0 29
  645.39716 217.0 11
  646.3656 371.0 18
  646.39423 121.0 6
  647.36188 34.0 2
  659.50391 20.0 1
  663.37573 1409.0 69
  664.35791 257.0 13
  664.37787 533.0 26
  665.35797 18.0 1
  665.39777 114.0 6
  666.32837 17.0 1
  666.38684 27.0 1
  675.04071 17.0 1
  680.61877 17.0 1
  682.19812 20.0 1
  691.64508 20.0 1
  726.49402 21.0 1
  747.07849 17.0 1
  748.09674 22.0 1
  803.34369 17.0 1
  803.38953 35.0 2
  803.41315 20.0 1
  804.36487 20.0 1
  821.35413 17.0 1
  821.39789 181.0 9
  821.44189 17.0 1
  822.38062 34.0 2
  822.39966 103.0 5
  823.38275 21.0 1
  830.94098 17.0 1
  838.54431 17.0 1
  838.59277 22.0 1
  839.03076 39.0 2
  839.26636 48.0 2
  839.29407 92.0 4
  839.32965 100.0 5
  839.40717 20447.0 999
  839.49957 87.0 4
  839.56342 26.0 1
//
