ACCESSION: MSBNK-RIKEN-PR300504
RECORD_TITLE: Isotalatizidine; LC-ESI-QTOF; MS2
DATE: 2019.03.28
AUTHORS: Tetsuya Mori, Center for Sustainable Resource Science, RIKEN
LICENSE: CC BY-NC-SA
PUBLICATION: Tsugawa H., Nakabayashi R., Mori T., Yamada Y., Takahashi M., Rai A., Sugiyama R., Yamamoto H., Nakaya T., Yamazaki M., Kooke R., Bac-Molenaar JA., Oztolan-Erol N., Keurentjes JJB., Arita M., Saito K. (2019) "A cheminformatics approach to characterize metabolomes in stable-isotope-labeled organisms" Nature Methods 16(4):295-298. [doi:10.1038/s41592-019-0358-2]
COMMENT: registered in RIKEN PlaSMA
CH$NAME: Isotalatizidine
CH$COMPOUND_CLASS: Aconitane-type diterpenoid alkaloids
CH$FORMULA: C23H37NO5
CH$EXACT_MASS: 407.551
CH$SMILES: CCN1C[C@@]2(COC)CC[C@H](O)[C@@]34C5C[C@H]6C(O)C5[C@](O)(C[C@@H]6OC)C(CC23)C14
CH$IUPAC: InChI=1S/C23H37NO5/c1-4-24-10-21(11-28-2)6-5-17(25)23-13-7-12-15(29-3)9-22(27,18(13)19(12)26)14(20(23)24)8-16(21)23/h12-20,25-27H,4-11H2,1-3H3/t12-,13?,14?,15+,16?,17+,18?,19?,20?,21-,22+,23-/m1/s1
CH$LINK: INCHIKEY RBSZCNOWHDHRFZ-CFIIAAHPSA-N
AC$INSTRUMENT: LC, Waters Acquity UPLC System; MS, Waters Xevo G2 Q-Tof
AC$INSTRUMENT_TYPE: LC-ESI-QTOF
AC$MASS_SPECTROMETRY: MS_TYPE MS2
AC$MASS_SPECTROMETRY: ION_MODE POSITIVE
AC$MASS_SPECTROMETRY: COLLISION_ENERGY 6V
AC$MASS_SPECTROMETRY: DESOLVATION_GAS_FLOW 800/h
AC$MASS_SPECTROMETRY: DESOLVATION_TEMPERATURE 450 C
AC$MASS_SPECTROMETRY: IONIZATION ESI
AC$CHROMATOGRAPHY: CAPILLARY_VOLTAGE +3.00 kV
AC$CHROMATOGRAPHY: COLUMN_NAME Acquity bridged ethyl hybrid C18 (1.7 um, 2.1 mm * 100 mm, Waters)
AC$CHROMATOGRAPHY: COLUMN_TEMPERATURE 40 C
AC$CHROMATOGRAPHY: FLOW_GRADIENT A/B = (99.5%/0.5% at 0 min, 99.5%/0.5% at 0.1 min, 20%/80% at 10 min, 0.5%/99.5% at 10.1 min, 0.5%/99.5% at 12.0 min, 99.5%/0.5% at 12.1 min, 99.5%/0.5% at 15.0 min)
AC$CHROMATOGRAPHY: FLOW_RATE 0.3 ml/min at 0 min, 0.3 ml/min at 10 min, 0.4 ml/min at 10.1 min, 0.4 ml/min at 14.4 min, 0.3 ml/min at 14.5 min
AC$CHROMATOGRAPHY: RETENTION_TIME 2.906267
AC$CHROMATOGRAPHY: SOLVENT A water including 0.1% formic acid
AC$CHROMATOGRAPHY: SOLVENT B acetonitrile including 0.1% formic acid
MS$FOCUSED_ION: PRECURSOR_TYPE [M+H]+
MS$FOCUSED_ION: PRECURSOR_M/Z 408.2744497
PK$SPLASH: splash10-0693-1920000000-c7efb32864b05c648b05
PK$NUM_PEAK: 676
PK$PEAK: m/z int. rel.int.
  50.3831 14.0 14
  55.05437 17.0 17
  56.05173 13.0 13
  58.05655 47.0 47
  58.06599 406.0 406
  59.04733 26.0 26
  61.02969 83.0 83
  65.0349 17.0 17
  67.05328 121.0 121
  68.02553 23.0 23
  68.59526 13.0 13
  69.07541 23.0 23
  70.06721 31.0 31
  71.01587 20.0 20
  71.04746 113.0 113
  71.05537 30.0 30
  71.07626 23.0 23
  71.08967 16.0 16
  71.23669 13.0 13
  72.07362 24.0 24
  72.08154 353.0 353
  72.54485 16.0 16
  72.67574 13.0 13
  72.84852 22.0 22
  74.0621 28.0 28
  77.03711 39.0 39
  79.05518 251.0 251
  80.05157 17.0 17
  81.05751 35.0 35
  81.06976 100.0 100
  82.04335 29.0 29
  82.06531 41.0 41
  83.05132 47.0 47
  84.07935 98.0 98
  84.08797 17.0 17
  85.02718 41.0 41
  85.06593 43.0 43
  85.08237 21.0 21
  85.0894 15.0 15
  86.09495 24.0 24
  88.04917 37.0 37
  90.26377 15.0 15
  91.05459 1000.0 999
  92.05341 20.0 20
  92.0584 26.0 26
  93.05294 14.0 14
  93.06497 87.0 87
  93.07085 190.0 190
  94.06243 20.0 20
  94.08662 13.0 13
  95.04583 17.0 17
  95.05169 49.0 49
  95.07596 25.0 25
  95.08961 13.0 13
  96.05399 32.0 32
  96.07694 38.0 38
  96.08237 39.0 39
  96.08802 17.0 17
  96.3273 16.0 16
  97.06438 56.0 56
  97.08911 17.0 17
  98.0577 17.0 17
  98.07579 20.0 20
  98.08164 45.0 45
  98.09772 644.0 643
  99.04598 18.0 18
  99.09725 43.0 43
  99.5061 14.0 14
  99.54501 16.0 16
  100.39114 17.0 17
  102.08797 32.0 32
  102.09341 35.0 35
  103.03907 17.0 17
  103.0509 62.0 62
  103.05998 13.0 13
  103.08896 13.0 13
  103.09588 41.0 41
  104.06973 20.0 20
  104.12822 13.0 13
  105.06999 576.0 575
  106.06652 13.0 13
  106.07816 47.0 47
  106.25106 15.0 15
  106.55599 13.0 13
  107.04976 135.0 135
  107.08549 137.0 137
  108.05199 50.0 50
  108.08231 865.0 864
  108.15661 18.0 18
  108.49803 18.0 18
  109.05975 19.0 19
  109.06741 32.0 32
  109.08676 84.0 84
  109.23614 17.0 17
  110.09858 182.0 182
  111.03926 12.0 12
  111.04351 33.0 33
  111.08006 18.0 18
  111.1002 15.0 15
  111.10563 20.0 20
  112.0867 14.0 14
  112.11254 59.0 59
  114.07491 17.0 17
  115.05436 131.0 131
  115.06255 18.0 18
  116.04959 14.0 14
  116.05945 20.0 20
  116.06812 15.0 15
  117.0532 38.0 38
  117.06993 535.0 534
  117.07826 168.0 168
  118.06084 17.0 17
  118.06703 13.0 13
  118.08041 38.0 38
  118.99646 20.0 20
  119.0417 14.0 14
  119.05101 69.0 69
  119.07268 14.0 14
  119.08632 229.0 229
  119.09188 73.0 73
  120.07982 35.0 35
  121.03621 15.0 15
  121.06085 18.0 18
  121.06776 68.0 68
  121.08202 44.0 44
  121.08752 30.0 30
  121.09921 14.0 14
  121.10305 31.0 31
  121.80731 15.0 15
  122.07491 49.0 49
  122.08917 81.0 81
  122.09687 326.0 326
  123.0454 257.0 257
  123.07578 44.0 44
  123.09275 20.0 20
  123.10239 57.0 57
  124.09848 40.0 40
  124.11301 494.0 494
  124.43645 19.0 19
  124.8225 14.0 14
  125.01465 32.0 32
  125.05463 29.0 29
  125.08572 25.0 25
  125.10252 73.0 73
  125.11517 106.0 106
  125.9429 13.0 13
  127.02113 18.0 18
  127.05225 24.0 24
  127.05893 19.0 19
  127.35981 16.0 16
  127.84215 13.0 13
  128.06367 511.0 510
  128.10391 50.0 50
  128.112 58.0 58
  129.02409 23.0 23
  129.05035 24.0 24
  129.0612 183.0 183
  129.0715 659.0 658
  130.04716 15.0 15
  130.06589 41.0 41
  130.07466 146.0 146
  130.12288 53.0 53
  130.15927 18.0 18
  130.93301 14.0 14
  131.03696 26.0 26
  131.04263 39.0 39
  131.05841 15.0 15
  131.07147 53.0 53
  131.08525 604.0 603
  131.48155 14.0 14
  132.07645 27.0 27
  132.08403 110.0 110
  132.09715 17.0 17
  133.06546 68.0 68
  133.08801 18.0 18
  133.10339 112.0 112
  133.10887 61.0 61
  133.43097 14.0 14
  134.10289 66.0 66
  134.63037 13.0 13
  135.07425 17.0 17
  135.08026 22.0 22
  135.12006 21.0 21
  136.1021 14.0 14
  136.11249 98.0 98
  136.64664 21.0 21
  137.05347 34.0 34
  137.06348 52.0 52
  137.09175 16.0 16
  137.09918 38.0 38
  137.11565 13.0 13
  137.1239 21.0 21
  137.7536 14.0 14
  138.05919 23.0 23
  138.1353 27.0 27
  138.56172 19.0 19
  140.09319 13.0 13
  140.10287 38.0 38
  141.06944 390.0 390
  141.08072 93.0 93
  141.1199 17.0 17
  142.00743 14.0 14
  142.069 160.0 160
  142.08093 117.0 117
  142.0934 16.0 16
  142.12222 32.0 32
  142.13138 41.0 41
  142.26236 14.0 14
  143.08029 154.0 154
  143.08664 469.0 469
  143.105 24.0 24
  143.65393 13.0 13
  144.07237 21.0 21
  144.09052 147.0 147
  144.09979 48.0 48
  144.99364 17.0 17
  145.0666 174.0 174
  145.08775 62.0 62
  145.10039 161.0 161
  145.1077 117.0 117
  146.10269 57.0 57
  146.46574 32.0 32
  147.07672 19.0 19
  147.08398 35.0 35
  147.11281 20.0 20
  148.1116 60.0 60
  148.1178 41.0 41
  149.04901 18.0 18
  149.08826 20.0 20
  149.12621 58.0 58
  151.11845 19.0 19
  152.05286 15.0 15
  152.06456 41.0 41
  152.09856 28.0 28
  152.10973 141.0 141
  153.06348 46.0 46
  153.07257 121.0 121
  153.11377 30.0 30
  154.0589 19.0 19
  154.07596 268.0 268
  154.08936 36.0 36
  154.10294 16.0 16
  154.12256 335.0 335
  154.1315 85.0 85
  155.06029 15.0 15
  155.06976 20.0 20
  155.08012 268.0 268
  155.08894 422.0 422
  155.12115 20.0 20
  155.12885 17.0 17
  155.36665 17.0 17
  155.95085 14.0 14
  156.05006 29.0 29
  156.08096 41.0 41
  156.08865 147.0 147
  156.09615 77.0 77
  156.13225 14.0 14
  156.13924 14.0 14
  156.95772 19.0 19
  157.06779 59.0 59
  157.10077 465.0 465
  157.12912 14.0 14
  157.99916 18.0 18
  158.06073 23.0 23
  158.07625 23.0 23
  158.10008 132.0 132
  159.05357 14.0 14
  159.07404 12.0 12
  159.08447 130.0 130
  159.10689 32.0 32
  159.12358 19.0 19
  159.42015 14.0 14
  159.88626 30.0 30
  160.07922 15.0 15
  160.11345 115.0 115
  161.05719 20.0 20
  161.10007 39.0 39
  161.11914 65.0 65
  161.14247 26.0 26
  162.1048 48.0 48
  162.12584 26.0 26
  163.08534 17.0 17
  164.11166 26.0 26
  164.1461 68.0 68
  164.3477 19.0 19
  165.04398 25.0 25
  165.06978 458.0 458
  165.11299 75.0 75
  165.9039 17.0 17
  166.05989 16.0 16
  166.07968 244.0 244
  166.12326 14.0 14
  167.06619 26.0 26
  167.08636 605.0 604
  167.10838 28.0 28
  167.70702 19.0 19
  168.09015 230.0 230
  169.06325 41.0 41
  169.07416 23.0 23
  169.10039 510.0 509
  169.17081 16.0 16
  169.31985 14.0 14
  169.52621 14.0 14
  170.06435 27.0 27
  170.07562 14.0 14
  170.09749 14.0 14
  170.1064 56.0 56
  170.11375 22.0 22
  171.07718 33.0 33
  171.08513 35.0 35
  171.11151 120.0 120
  171.12158 160.0 160
  171.1293 41.0 41
  172.08688 20.0 20
  172.11194 28.0 28
  173.08922 69.0 69
  173.09798 41.0 41
  173.1078 13.0 13
  173.11877 42.0 42
  173.94624 15.0 15
  174.12138 13.0 13
  174.13306 112.0 112
  175.1086 17.0 17
  175.11946 25.0 25
  175.14032 44.0 44
  176.14308 153.0 153
  176.8241 13.0 13
  177.08789 13.0 13
  177.12276 14.0 14
  177.1313 29.0 29
  177.15082 31.0 31
  178.07289 96.0 96
  178.07936 211.0 211
  178.12701 18.0 18
  179.07352 60.0 60
  179.08859 470.0 470
  179.37883 20.0 20
  180.07996 22.0 22
  180.09415 250.0 250
  180.13429 18.0 18
  181.05338 17.0 17
  181.06813 21.0 21
  181.08766 59.0 59
  181.10141 489.0 489
  182.05745 26.0 26
  182.10866 292.0 292
  182.82489 14.0 14
  183.06085 14.0 14
  183.07808 98.0 98
  183.11269 122.0 122
  183.12222 59.0 59
  183.27319 20.0 20
  184.11739 71.0 71
  184.13176 18.0 18
  185.08565 18.0 18
  185.09763 135.0 135
  185.12321 44.0 44
  185.13139 25.0 25
  185.14246 16.0 16
  185.9664 38.0 38
  186.10017 32.0 32
  186.1194 36.0 36
  186.13341 67.0 67
  187.09259 22.0 22
  187.11345 100.0 100
  187.13008 14.0 14
  187.14349 27.0 27
  188.11955 23.0 23
  188.1433 59.0 59
  189.06673 17.0 17
  189.12276 18.0 18
  189.12923 20.0 20
  189.14969 57.0 57
  190.0658 44.0 44
  190.0751 13.0 13
  190.12894 15.0 15
  190.15529 50.0 50
  190.17136 38.0 38
  191.08533 206.0 206
  191.10345 14.0 14
  191.1628 21.0 21
  191.64702 18.0 18
  192.08539 50.0 50
  192.09221 73.0 73
  192.1024 112.0 112
  192.13466 16.0 16
  192.14102 42.0 42
  193.04713 25.0 25
  193.09883 338.0 338
  193.1058 127.0 127
  193.75484 15.0 15
  194.07092 20.0 20
  194.10037 45.0 45
  194.112 105.0 105
  194.15559 35.0 35
  195.07838 13.0 13
  195.10399 15.0 15
  195.11693 231.0 231
  196.09764 32.0 32
  196.11656 25.0 25
  196.12637 50.0 50
  197.0993 99.0 99
  197.12047 46.0 46
  197.13618 255.0 255
  198.1082 31.0 31
  198.12814 17.0 17
  199.07919 17.0 17
  199.11023 15.0 15
  199.12355 15.0 15
  199.14641 17.0 17
  199.15762 15.0 15
  200.07487 17.0 17
  200.10474 15.0 15
  200.11858 14.0 14
  200.13448 22.0 22
  200.14415 19.0 19
  201.09259 43.0 43
  201.11771 45.0 45
  202.08087 46.0 46
  202.11575 30.0 30
  202.12651 36.0 36
  202.16641 55.0 55
  203.0652 15.0 15
  203.08948 91.0 91
  203.1105 44.0 44
  203.1602 46.0 46
  203.43103 15.0 15
  204.07117 13.0 13
  204.07965 27.0 27
  204.09003 52.0 52
  204.0993 50.0 50
  205.09703 125.0 125
  206.10522 64.0 64
  206.11607 24.0 24
  206.1283 20.0 20
  206.15596 29.0 29
  207.07925 24.0 24
  207.10284 45.0 45
  207.11978 72.0 72
  207.13411 18.0 18
  208.10524 19.0 19
  208.12112 14.0 14
  208.13126 17.0 17
  209.08264 21.0 21
  209.09721 59.0 59
  209.1208 29.0 29
  209.13467 134.0 134
  210.01517 15.0 15
  210.12828 33.0 33
  210.4782 16.0 16
  211.11842 24.0 24
  211.13507 50.0 50
  211.15768 25.0 25
  212.1144 15.0 15
  212.12514 21.0 21
  212.13522 20.0 20
  212.14644 29.0 29
  213.12247 15.0 15
  213.12976 25.0 25
  213.14563 19.0 19
  214.1144 32.0 32
  214.14874 13.0 13
  214.16232 38.0 38
  214.17273 22.0 22
  215.14891 20.0 20
  215.84981 14.0 14
  216.09013 33.0 33
  216.09631 17.0 17
  216.15945 13.0 13
  216.18053 20.0 20
  217.10158 173.0 173
  217.32539 20.0 20
  218.08658 11.0 11
  218.0977 62.0 62
  218.10963 92.0 92
  218.14629 36.0 36
  218.34906 14.0 14
  219.0999 25.0 25
  219.11884 91.0 91
  220.08209 17.0 17
  220.10016 16.0 16
  220.11668 17.0 17
  220.13083 43.0 43
  220.14299 40.0 40
  220.16867 21.0 21
  220.93279 21.0 21
  221.08688 25.0 25
  221.10321 20.0 20
  221.12869 44.0 44
  221.13962 108.0 108
  222.10562 15.0 15
  222.12801 47.0 47
  222.14056 77.0 77
  222.17651 20.0 20
  222.62881 15.0 15
  223.09601 20.0 20
  223.1349 35.0 35
  223.1496 79.0 79
  223.34517 13.0 13
  224.14336 20.0 20
  224.1595 17.0 17
  225.11913 50.0 50
  225.13243 119.0 119
  225.16464 14.0 14
  226.14291 17.0 17
  226.56775 17.0 17
  227.12874 17.0 17
  227.15103 97.0 97
  227.17195 16.0 16
  227.87262 26.0 26
  228.11664 18.0 18
  229.10068 16.0 16
  229.18329 20.0 20
  230.09721 21.0 21
  230.11459 29.0 29
  230.15498 32.0 32
  231.11356 40.0 40
  231.12415 32.0 32
  231.31419 26.0 26
  232.12183 38.0 38
  233.09341 19.0 19
  233.11873 14.0 14
  233.13188 26.0 26
  233.14212 41.0 41
  233.3351 19.0 19
  233.4375 14.0 14
  233.65312 29.0 29
  234.10815 15.0 15
  234.13593 53.0 53
  235.11984 67.0 67
  235.14265 35.0 35
  235.15405 32.0 32
  236.15033 14.0 14
  237.11368 25.0 25
  237.15753 33.0 33
  238.11488 29.0 29
  239.15697 15.0 15
  239.46774 14.0 14
  240.14816 21.0 21
  240.61497 15.0 15
  241.10088 21.0 21
  241.10942 12.0 12
  242.10271 25.0 25
  242.14679 22.0 22
  243.13301 23.0 23
  243.1673 15.0 15
  244.1754 14.0 14
  245.12453 14.0 14
  245.14595 17.0 17
  246.1241 15.0 15
  246.13228 15.0 15
  246.14996 13.0 13
  247.11777 23.0 23
  247.14609 17.0 17
  247.16624 16.0 16
  247.17847 23.0 23
  248.12114 31.0 31
  248.15814 20.0 20
  248.6021 14.0 14
  249.11874 26.0 26
  250.12979 16.0 16
  250.14037 39.0 39
  250.15985 18.0 18
  251.10579 16.0 16
  251.14688 25.0 25
  252.08104 18.0 18
  252.15103 17.0 17
  252.16722 31.0 31
  253.17784 14.0 14
  255.4785 16.0 16
  258.15457 23.0 23
  258.19141 22.0 22
  259.19275 29.0 29
  261.1658 14.0 14
  262.92352 16.0 16
  264.1792 16.0 16
  265.17215 30.0 30
  266.61023 13.0 13
  268.13629 18.0 18
  268.17291 31.0 31
  269.16748 20.0 20
  270.15356 84.0 84
  270.19052 14.0 14
  271.16699 19.0 19
  272.19519 33.0 33
  272.20898 13.0 13
  274.15134 24.0 24
  275.62625 15.0 15
  277.27463 18.0 18
  279.17377 37.0 37
  281.15179 21.0 21
  282.17743 17.0 17
  283.14557 28.0 28
  283.19635 20.0 20
  284.13281 14.0 14
  284.16632 21.0 21
  284.19775 23.0 23
  284.20892 19.0 19
  285.21432 20.0 20
  286.03687 21.0 21
  286.18185 16.0 16
  287.11841 24.0 24
  293.17523 36.0 36
  294.17331 20.0 20
  295.15869 20.0 20
  296.20102 44.0 44
  297.19852 15.0 15
  298.13403 21.0 21
  298.17828 35.0 35
  298.22983 43.0 43
  299.16702 19.0 19
  299.17841 37.0 37
  299.19312 30.0 30
  299.20245 19.0 19
  300.1861 20.0 20
  300.19809 21.0 21
  302.22464 15.0 15
  304.16971 20.0 20
  306.17795 14.0 14
  308.19983 37.0 37
  309.18753 17.0 17
  310.18326 19.0 19
  311.19263 49.0 49
  312.19147 89.0 89
  312.22134 28.0 28
  312.24594 36.0 36
  313.15845 23.0 23
  313.18021 38.0 38
  313.20468 20.0 20
  314.21481 17.0 17
  316.23706 48.0 48
  317.22839 13.0 13
  324.72891 14.0 14
  326.2016 15.0 15
  326.21271 14.0 14
  326.23532 13.0 13
  328.22974 37.0 37
  330.20432 59.0 59
  330.23154 15.0 15
  330.25018 22.0 22
  330.97913 14.0 14
  331.21384 17.0 17
  331.24979 19.0 19
  331.46619 14.0 14
  340.19281 18.0 18
  340.2236 166.0 166
  340.24182 80.0 80
  343.8558 13.0 13
  344.18262 21.0 21
  344.20639 20.0 20
  344.22287 46.0 46
  346.41418 13.0 13
  347.42831 15.0 15
  358.21774 56.0 56
  358.24115 200.0 200
  359.23169 23.0 23
  359.26138 22.0 22
  359.79648 18.0 18
  360.25668 13.0 13
  362.20917 15.0 15
  362.23743 129.0 129
  362.87491 15.0 15
  363.23413 20.0 20
  363.85944 16.0 16
  372.24985 49.0 49
  373.24747 14.0 14
  385.46552 14.0 14
  390.24982 118.0 118
  390.26831 354.0 354
  390.2973 21.0 21
  391.26697 50.0 50
  391.29193 36.0 36
  392.24426 17.0 17
  392.26471 19.0 19
  408.2666 69.0 69
  408.30447 23.0 23
//
