ACCESSION: MSBNK-RIKEN-PR301047
RECORD_TITLE: Thalsimidine; LC-ESI-QTOF; MS2
DATE: 2019.03.28
AUTHORS: Tetsuya Mori, Center for Sustainable Resource Science, RIKEN
LICENSE: CC BY-NC-SA
PUBLICATION: Tsugawa H., Nakabayashi R., Mori T., Yamada Y., Takahashi M., Rai A., Sugiyama R., Yamamoto H., Nakaya T., Yamazaki M., Kooke R., Bac-Molenaar JA., Oztolan-Erol N., Keurentjes JJB., Arita M., Saito K. (2019) "A cheminformatics approach to characterize metabolomes in stable-isotope-labeled organisms" Nature Methods 16(4):295-298. [doi:10.1038/s41592-019-0358-2]
COMMENT: registered in RIKEN PlaSMA
CH$NAME: Thalsimidine
CH$COMPOUND_CLASS: Lignans, neolignans and related compounds
CH$FORMULA: C37H38N2O7
CH$EXACT_MASS: 622.718
CH$SMILES: COC1=C2OC3=CC=C(CC4=NCCC5=CC(OC)=C(OC6=C(OC)C(OC)=C(O)C7=C6[C@@H](CC(C=C1)=C2)N(C)CC7)C=C45)C=C3
CH$IUPAC: InChI=1S/C37H38N2O7/c1-39-15-13-25-33-28(39)17-22-8-11-29(41-2)31(18-22)45-24-9-6-21(7-10-24)16-27-26-20-32(30(42-3)19-23(26)12-14-38-27)46-35(33)37(44-5)36(43-4)34(25)40/h6-11,18-20,28,40H,12-17H2,1-5H3/t28-/m1/s1
CH$LINK: INCHIKEY CLDCTFPNFRITPI-MUUNZHRXSA-N
AC$INSTRUMENT: LC, Waters Acquity UPLC System; MS, Waters Xevo G2 Q-Tof
AC$INSTRUMENT_TYPE: LC-ESI-QTOF
AC$MASS_SPECTROMETRY: MS_TYPE MS2
AC$MASS_SPECTROMETRY: ION_MODE POSITIVE
AC$MASS_SPECTROMETRY: COLLISION_ENERGY 6V
AC$MASS_SPECTROMETRY: DESOLVATION_GAS_FLOW 800/h
AC$MASS_SPECTROMETRY: DESOLVATION_TEMPERATURE 450 C
AC$MASS_SPECTROMETRY: IONIZATION ESI
AC$CHROMATOGRAPHY: CAPILLARY_VOLTAGE +3.00 kV
AC$CHROMATOGRAPHY: COLUMN_NAME Acquity bridged ethyl hybrid C18 (1.7 um, 2.1 mm * 100 mm, Waters)
AC$CHROMATOGRAPHY: COLUMN_TEMPERATURE 40 C
AC$CHROMATOGRAPHY: FLOW_GRADIENT A/B = (99.5%/0.5% at 0 min, 99.5%/0.5% at 0.1 min, 20%/80% at 10 min, 0.5%/99.5% at 10.1 min, 0.5%/99.5% at 12.0 min, 99.5%/0.5% at 12.1 min, 99.5%/0.5% at 15.0 min)
AC$CHROMATOGRAPHY: FLOW_RATE 0.3 ml/min at 0 min, 0.3 ml/min at 10 min, 0.4 ml/min at 10.1 min, 0.4 ml/min at 14.4 min, 0.3 ml/min at 14.5 min
AC$CHROMATOGRAPHY: RETENTION_TIME 3.95775
AC$CHROMATOGRAPHY: SOLVENT A water including 0.1% formic acid
AC$CHROMATOGRAPHY: SOLVENT B acetonitrile including 0.1% formic acid
MS$FOCUSED_ION: PRECURSOR_TYPE [M+H]+
MS$FOCUSED_ION: PRECURSOR_M/Z 623.275178
PK$SPLASH: splash10-01r6-0153390000-e5b047d6b415a95c4abf
PK$NUM_PEAK: 324
PK$PEAK: m/z int. rel.int.
  91.05433 66.0 66
  145.05658 77.0 77
  156.0453 66.0 66
  160.06416 62.0 62
  161.06424 66.0 66
  162.05219 146.0 146
  174.09177 102.0 102
  176.04521 66.0 66
  176.07384 150.0 150
  176.10435 120.0 120
  177.06696 69.0 69
  179.07356 66.0 66
  181.08441 77.0 77
  187.06335 62.0 62
  188.08649 62.0 62
  189.07669 186.0 186
  189.08127 73.0 73
  191.09532 69.0 69
  193.07785 69.0 69
  194.08832 84.0 84
  198.05083 124.0 124
  200.07399 66.0 66
  204.05649 91.0 91
  204.07065 66.0 66
  204.09106 77.0 77
  204.09941 80.0 80
  204.11227 106.0 106
  205.05916 73.0 73
  205.07333 168.0 168
  205.08194 77.0 77
  206.05807 62.0 62
  206.09019 73.0 73
  207.04614 84.0 84
  207.07544 62.0 62
  207.08549 288.0 288
  207.09677 80.0 80
  208.04718 106.0 106
  208.06201 511.0 510
  209.06194 62.0 62
  209.09383 66.0 66
  213.08437 73.0 73
  213.24544 84.0 84
  216.08255 109.0 109
  217.0905 109.0 109
  217.10568 77.0 77
  219.07243 142.0 142
  220.07553 66.0 66
  220.0858 91.0 91
  220.10689 62.0 62
  222.08003 88.0 88
  223.07361 69.0 69
  224.06033 117.0 117
  235.09241 77.0 77
  235.14224 102.0 102
  237.08327 66.0 66
  238.10872 150.0 150
  247.0995 146.0 146
  248.10425 73.0 73
  249.07401 135.0 135
  249.11238 161.0 161
  249.13971 193.0 193
  250.0799 226.0 226
  250.10579 66.0 66
  250.11815 146.0 146
  251.0798 62.0 62
  251.11218 73.0 73
  252.10536 88.0 88
  255.09457 99.0 99
  255.1051 73.0 73
  256.11032 84.0 84
  257.11548 91.0 91
  262.10782 124.0 124
  262.12802 66.0 66
  263.09796 215.0 215
  263.10535 69.0 69
  264.12375 109.0 109
  264.14682 88.0 88
  265.06656 120.0 120
  265.07901 84.0 84
  265.11307 431.0 431
  265.16879 175.0 175
  266.09756 157.0 157
  266.11673 248.0 248
  267.11661 135.0 135
  269.05511 62.0 62
  269.07193 80.0 80
  269.08536 146.0 146
  269.11621 77.0 77
  274.08276 62.0 62
  278.14035 91.0 91
  280.0575 66.0 66
  280.8725 69.0 69
  281.07117 62.0 62
  281.08322 88.0 88
  286.07788 117.0 117
  288.09204 91.0 91
  292.13702 88.0 88
  297.11526 80.0 80
  298.10471 120.0 120
  299.44113 80.0 80
  300.07034 66.0 66
  301.08621 69.0 69
  315.16498 77.0 77
  317.11151 99.0 99
  320.11005 77.0 77
  321.08197 77.0 77
  322.09274 102.0 102
  326.14584 62.0 62
  334.11313 69.0 69
  334.13406 106.0 106
  337.12723 62.0 62
  338.12967 95.0 95
  339.12143 62.0 62
  339.78769 77.0 77
  340.12543 66.0 66
  342.13629 66.0 66
  342.1579 109.0 109
  343.14655 62.0 62
  348.10678 77.0 77
  356.11121 113.0 113
  356.13159 88.0 88
  358.14389 248.0 248
  358.16187 62.0 62
  361.15402 62.0 62
  363.55307 142.0 142
  366.19028 91.0 91
  367.13211 77.0 77
  368.12338 84.0 84
  369.13428 62.0 62
  370.14209 146.0 146
  371.13782 182.0 182
  371.54825 62.0 62
  372.11923 66.0 66
  372.15152 62.0 62
  372.16745 62.0 62
  372.20056 347.0 347
  372.2775 73.0 73
  373.15887 120.0 120
  373.17075 77.0 77
  374.17551 182.0 182
  375.1579 95.0 95
  381.14249 62.0 62
  382.18896 73.0 73
  383.12744 66.0 66
  384.14972 139.0 139
  385.17245 172.0 172
  386.16669 580.0 579
  387.15283 318.0 318
  387.17148 182.0 182
  387.18762 120.0 120
  388.14505 146.0 146
  388.18042 66.0 66
  389.21408 69.0 69
  393.12469 66.0 66
  394.17056 80.0 80
  400.16669 339.0 339
  400.18579 73.0 73
  401.14432 135.0 135
  401.16135 80.0 80
  401.18729 307.0 307
  401.22229 69.0 69
  401.46786 62.0 62
  402.15939 146.0 146
  402.18988 288.0 288
  404.18054 142.0 142
  404.82062 69.0 69
  407.60825 73.0 73
  410.16159 69.0 69
  414.12097 142.0 142
  415.19104 99.0 99
  417.15689 73.0 73
  417.22247 91.0 91
  421.14743 73.0 73
  421.16724 80.0 80
  422.15802 73.0 73
  423.155 69.0 69
  424.12766 131.0 131
  431.15015 106.0 106
  432.17587 73.0 73
  434.1705 66.0 66
  435.17639 62.0 62
  438.16855 66.0 66
  440.15811 142.0 142
  442.18369 62.0 62
  442.21521 91.0 91
  444.0574 69.0 69
  446.10855 77.0 77
  446.6463 91.0 91
  451.18268 62.0 62
  452.13098 77.0 77
  457.117 91.0 91
  458.13852 66.0 66
  462.16705 88.0 88
  463.16406 88.0 88
  472.16107 128.0 128
  473.17636 69.0 69
  474.16495 62.0 62
  474.18283 80.0 80
  478.21738 190.0 190
  480.20856 88.0 88
  482.06992 77.0 77
  483.19302 95.0 95
  485.19852 73.0 73
  486.15109 168.0 168
  490.14984 66.0 66
  490.16733 102.0 102
  490.1803 73.0 73
  491.1915 109.0 109
  493.19095 69.0 69
  494.17429 66.0 66
  494.20819 66.0 66
  502.19095 66.0 66
  504.13574 128.0 128
  506.17255 66.0 66
  506.19748 314.0 314
  507.19815 172.0 172
  508.15753 62.0 62
  508.17593 99.0 99
  509.16983 66.0 66
  512.19916 88.0 88
  513.16541 69.0 69
  513.60126 62.0 62
  515.18469 99.0 99
  516.1012 88.0 88
  516.1759 193.0 193
  516.19507 175.0 175
  517.13599 62.0 62
  517.16949 84.0 84
  518.15356 168.0 168
  518.21002 66.0 66
  519.17194 259.0 259
  520.18738 135.0 135
  521.21118 73.0 73
  526.1474 102.0 102
  528.1524 69.0 69
  530.19525 62.0 62
  531.16956 201.0 201
  531.18054 88.0 88
  532.14764 69.0 69
  532.19025 142.0 142
  532.27039 80.0 80
  533.16486 84.0 84
  533.1778 153.0 153
  533.20569 99.0 99
  533.21857 186.0 186
  533.74438 62.0 62
  534.15833 73.0 73
  534.18365 237.0 237
  534.19952 314.0 314
  534.73291 62.0 62
  535.12476 120.0 120
  535.18347 263.0 263
  535.21564 91.0 91
  535.23456 69.0 69
  536.1637 131.0 131
  536.18402 139.0 139
  537.18933 230.0 230
  543.1087 66.0 66
  543.17883 109.0 109
  544.18542 161.0 161
  544.20117 135.0 135
  545.17047 186.0 186
  545.18848 62.0 62
  546.13641 80.0 80
  546.15924 99.0 99
  546.18445 139.0 139
  547.12061 73.0 73
  547.18982 128.0 128
  547.21704 66.0 66
  548.16272 193.0 193
  548.19867 204.0 204
  548.22369 164.0 164
  548.24084 69.0 69
  549.13983 73.0 73
  549.17798 168.0 168
  550.14453 62.0 62
  550.17114 88.0 88
  551.18536 66.0 66
  551.2016 91.0 91
  559.17688 186.0 186
  559.20105 131.0 131
  559.21954 73.0 73
  560.18085 77.0 77
  560.22156 182.0 182
  560.25 102.0 102
  561.17456 318.0 318
  561.20007 515.0 514
  562.14062 62.0 62
  562.18298 383.0 383
  562.22083 179.0 179
  563.10211 99.0 99
  563.13519 73.0 73
  563.1745 80.0 80
  563.19141 88.0 88
  564.19287 153.0 153
  564.43903 109.0 109
  565.23846 179.0 179
  567.22931 73.0 73
  570.3255 91.0 91
  573.21704 69.0 69
  575.22058 212.0 212
  576.17786 142.0 142
  576.21973 120.0 120
  577.1651 73.0 73
  577.19849 157.0 157
  577.22247 646.0 645
  577.26086 226.0 226
  578.14148 77.0 77
  578.20117 383.0 383
  578.24506 91.0 91
  580.25903 62.0 62
  593.15991 77.0 77
  593.20081 157.0 157
  593.22626 1000.0 999
  594.17499 73.0 73
  594.22101 292.0 292
  594.23895 343.0 343
  594.26544 77.0 77
  607.15082 139.0 139
  607.25275 168.0 168
  608.21552 91.0 91
  608.25012 255.0 255
  608.3006 62.0 62
  623.24884 62.0 62
//
