ACCESSION: MSBNK-RIKEN-PR302082
RECORD_TITLE: Biochanin A; LC-ESI-QTOF; MS2
DATE: 2019.03.28
AUTHORS: Tetsuya Mori, Center for Sustainable Resource Science, RIKEN
LICENSE: CC BY-NC-SA
PUBLICATION: Tsugawa H., Nakabayashi R., Mori T., Yamada Y., Takahashi M., Rai A., Sugiyama R., Yamamoto H., Nakaya T., Yamazaki M., Kooke R., Bac-Molenaar JA., Oztolan-Erol N., Keurentjes JJB., Arita M., Saito K. (2019) "A cheminformatics approach to characterize metabolomes in stable-isotope-labeled organisms" Nature Methods 16(4):295-298. [doi:10.1038/s41592-019-0358-2]
COMMENT: registered in RIKEN PlaSMA
CH$NAME: Biochanin A
CH$COMPOUND_CLASS: 4'-O-methylisoflavones
CH$FORMULA: C16H12O5
CH$EXACT_MASS: 284.267
CH$SMILES: COC1=CC=C(C=C1)C1=COC2=CC(O)=CC(O)=C2C1=O
CH$IUPAC: InChI=1S/C16H12O5/c1-20-11-4-2-9(3-5-11)12-8-21-14-7-10(17)6-13(18)15(14)16(12)19/h2-8,17-18H,1H3
CH$LINK: INCHIKEY WUADCCWRTIWANL-UHFFFAOYSA-N
AC$INSTRUMENT: LC, Waters Acquity UPLC System; MS, Waters Xevo G2 Q-Tof
AC$INSTRUMENT_TYPE: LC-ESI-QTOF
AC$MASS_SPECTROMETRY: MS_TYPE MS2
AC$MASS_SPECTROMETRY: ION_MODE POSITIVE
AC$MASS_SPECTROMETRY: COLLISION_ENERGY 6V
AC$MASS_SPECTROMETRY: DESOLVATION_GAS_FLOW 800/h
AC$MASS_SPECTROMETRY: DESOLVATION_TEMPERATURE 450 C
AC$MASS_SPECTROMETRY: IONIZATION ESI
AC$CHROMATOGRAPHY: CAPILLARY_VOLTAGE +3.00 kV
AC$CHROMATOGRAPHY: COLUMN_NAME Acquity bridged ethyl hybrid C18 (1.7 um, 2.1 mm * 100 mm, Waters)
AC$CHROMATOGRAPHY: COLUMN_TEMPERATURE 40 C
AC$CHROMATOGRAPHY: FLOW_GRADIENT A/B = (99.5%/0.5% at 0 min, 99.5%/0.5% at 0.1 min, 20%/80% at 10 min, 0.5%/99.5% at 10.1 min, 0.5%/99.5% at 12.0 min, 99.5%/0.5% at 12.1 min, 99.5%/0.5% at 15.0 min)
AC$CHROMATOGRAPHY: FLOW_RATE 0.3 ml/min at 0 min, 0.3 ml/min at 10 min, 0.4 ml/min at 10.1 min, 0.4 ml/min at 14.4 min, 0.3 ml/min at 14.5 min
AC$CHROMATOGRAPHY: RETENTION_TIME 7.6348
AC$CHROMATOGRAPHY: SOLVENT A water including 0.1% formic acid
AC$CHROMATOGRAPHY: SOLVENT B acetonitrile including 0.1% formic acid
MS$FOCUSED_ION: PRECURSOR_TYPE [M+H]+
MS$FOCUSED_ION: PRECURSOR_M/Z 285.0757499
PK$SPLASH: splash10-0udi-0690000000-ee8edfd5fca4444d6a5a
PK$NUM_PEAK: 251
PK$PEAK: m/z int. rel.int.
  55.12083 11.0 11
  63.08624 6.0 6
  65.03902 8.0 8
  67.02123 8.0 8
  77.03875 5.0 5
  79.05042 16.0 16
  81.036 8.0 8
  84.00674 7.0 7
  90.03572 8.0 8
  90.04252 6.0 6
  90.04941 26.0 26
  93.03684 6.0 6
  95.04958 10.0 10
  95.51506 9.0 9
  96.02021 12.0 12
  103.05353 37.0 37
  103.05875 9.0 9
  103.28511 11.0 11
  104.02343 7.0 7
  105.06979 64.0 64
  106.0716 13.0 13
  107.05025 26.0 26
  108.06076 6.0 6
  109.02584 8.0 8
  111.00624 49.0 49
  112.01527 9.0 9
  112.62682 8.0 8
  115.05573 17.0 17
  116.05499 5.0 5
  118.04163 197.0 197
  118.89536 6.0 6
  119.04338 57.0 57
  121.01641 8.0 8
  121.02821 55.0 55
  121.06165 16.0 16
  122.03151 8.0 8
  122.46404 6.0 6
  123.01389 8.0 8
  123.04288 236.0 236
  123.97755 6.0 6
  124.01513 218.0 218
  124.02805 6.0 6
  124.04668 16.0 16
  124.06532 9.0 9
  125.02022 37.0 37
  126.01928 8.0 8
  128.06006 11.0 11
  128.07208 6.0 6
  129.0695 8.0 8
  130.04263 7.0 7
  130.05692 6.0 6
  131.04543 13.0 13
  131.05296 7.0 7
  131.06717 7.0 7
  132.05653 26.0 26
  132.06734 5.0 5
  133.02625 13.0 13
  133.0648 152.0 152
  135.04248 37.0 37
  137.00912 6.0 6
  137.05133 6.0 6
  139.04587 11.0 11
  141.06633 14.0 14
  141.07117 29.0 29
  143.04282 9.0 9
  144.05545 18.0 18
  144.25584 14.0 14
  145.02306 6.0 6
  145.05539 32.0 32
  145.06754 55.0 55
  146.05576 7.0 7
  147.04314 15.0 15
  147.08015 11.0 11
  149.00046 9.0 9
  149.02452 382.0 382
  149.05554 6.0 6
  149.34653 7.0 7
  150.02531 29.0 29
  151.04515 18.0 18
  151.06079 6.0 6
  151.07326 5.0 5
  152.00984 1000.0 999
  152.05807 11.0 11
  152.99261 13.0 13
  153.01735 514.0 513
  153.06337 11.0 11
  154.00325 10.0 10
  154.01714 37.0 37
  154.02469 17.0 17
  154.31487 8.0 8
  155.05476 17.0 17
  155.83833 8.0 8
  157.02586 5.0 5
  157.06192 9.0 9
  157.07074 6.0 6
  157.95567 8.0 8
  158.00438 6.0 6
  158.02013 18.0 18
  158.03677 373.0 373
  158.06882 13.0 13
  158.3085 5.0 5
  159.03891 68.0 68
  159.07658 8.0 8
  161.05887 7.0 7
  162.07272 10.0 10
  163.03786 13.0 13
  164.49655 6.0 6
  165.04399 7.0 7
  165.06728 6.0 6
  167.04234 5.0 5
  168.0598 37.0 37
  169.06415 78.0 78
  171.04295 31.0 31
  172.05194 21.0 21
  173.01633 11.0 11
  173.05885 23.0 23
  173.08467 6.0 6
  173.10268 8.0 8
  179.03406 87.0 87
  179.04529 13.0 13
  180.03304 14.0 14
  181.21219 7.0 7
  182.03986 6.0 6
  183.03989 12.0 12
  183.04935 25.0 25
  183.08089 40.0 40
  184.03828 9.0 9
  184.04875 26.0 26
  184.50223 5.0 5
  184.65575 10.0 10
  185.02467 8.0 8
  185.05659 31.0 31
  186.03175 15.0 15
  186.06157 82.0 82
  186.06873 64.0 64
  186.07899 15.0 15
  187.02463 11.0 11
  187.05971 6.0 6
  187.07372 6.0 6
  187.08194 6.0 6
  190.49815 7.0 7
  191.03445 19.0 19
  192.03764 9.0 9
  196.056 40.0 40
  196.88826 6.0 6
  197.0563 149.0 149
  197.06602 108.0 108
  198.06725 49.0 49
  198.08192 6.0 6
  199.06221 6.0 6
  199.0723 14.0 14
  200.03841 9.0 9
  200.04932 34.0 34
  200.21838 7.0 7
  201.05148 31.0 31
  201.08847 13.0 13
  202.05556 9.0 9
  202.09625 5.0 5
  202.78085 11.0 11
  205.21945 7.0 7
  206.03226 10.0 10
  207.04816 6.0 6
  210.02997 8.0 8
  211.04283 32.0 32
  211.06677 30.0 30
  211.07974 18.0 18
  212.0314 6.0 6
  212.04213 5.0 5
  212.9928 15.0 15
  213.01891 10.0 10
  213.03506 52.0 52
  213.05496 618.0 617
  213.13402 10.0 10
  214.02257 7.0 7
  214.05864 245.0 245
  214.06599 98.0 98
  215.04997 15.0 15
  215.06029 12.0 12
  215.07701 6.0 6
  215.18756 5.0 5
  215.71651 7.0 7
  216.02817 11.0 11
  216.03839 8.0 8
  217.04538 6.0 6
  224.0535 53.0 53
  225.03247 7.0 7
  225.0545 68.0 68
  225.06238 39.0 39
  226.05869 8.0 8
  226.06683 8.0 8
  227.03792 7.0 7
  227.06119 18.0 18
  227.07094 6.0 6
  228.03804 6.0 6
  228.06575 9.0 9
  228.09097 5.0 5
  229.05888 8.0 8
  229.08669 533.0 532
  229.23895 8.0 8
  230.07434 13.0 13
  230.09073 28.0 28
  230.13167 6.0 6
  231.08737 7.0 7
  231.10692 9.0 9
  235.04059 5.0 5
  237.88326 6.0 6
  238.06429 5.0 5
  239.07547 6.0 6
  241.0038 6.0 6
  241.04825 278.0 278
  242.05775 919.0 918
  243.061 151.0 151
  243.09149 5.0 5
  243.27692 8.0 8
  244.03871 8.0 8
  244.07019 21.0 21
  248.51341 7.0 7
  251.02635 6.0 6
  251.03976 8.0 8
  252.00577 7.0 7
  252.034 59.0 59
  252.04536 32.0 32
  252.05507 15.0 15
  253.01585 10.0 10
  253.05084 584.0 583
  254.05347 128.0 128
  254.90588 8.0 8
  255.03322 9.0 9
  255.04997 7.0 7
  255.0638 23.0 23
  256.07333 21.0 21
  258.09094 5.0 5
  267.05972 9.0 9
  268.03723 8.0 8
  268.96317 5.0 5
  268.98959 6.0 6
  269.00638 7.0 7
  269.04535 821.0 820
  269.12695 6.0 6
  270.00375 10.0 10
  270.02396 36.0 36
  270.05011 654.0 653
  270.05997 284.0 284
  270.0929 8.0 8
  271.04788 26.0 26
  271.06091 52.0 52
  272.03506 5.0 5
  272.06247 25.0 25
  282.44989 9.0 9
  285.05276 22.0 22
  285.07602 604.0 603
//
