ACCESSION: MSBNK-RIKEN-PR303159
RECORD_TITLE: Myricetin-3-O-xyloside; LC-ESI-QTOF; MS2
DATE: 2019.03.28
AUTHORS: Tetsuya Mori, Center for Sustainable Resource Science, RIKEN
LICENSE: CC BY-NC-SA
PUBLICATION: Tsugawa H., Nakabayashi R., Mori T., Yamada Y., Takahashi M., Rai A., Sugiyama R., Yamamoto H., Nakaya T., Yamazaki M., Kooke R., Bac-Molenaar JA., Oztolan-Erol N., Keurentjes JJB., Arita M., Saito K. (2019) "A cheminformatics approach to characterize metabolomes in stable-isotope-labeled organisms" Nature Methods 16(4):295-298. [doi:10.1038/s41592-019-0358-2]
COMMENT: registered in RIKEN PlaSMA
CH$NAME: Myricetin-3-O-xyloside
CH$COMPOUND_CLASS: Flavonoid-3-O-glycosides
CH$FORMULA: C20H18O12
CH$EXACT_MASS: 450.352
CH$SMILES: O[C@@H]1CO[C@@H](OC2=C(OC3=CC(O)=CC(O)=C3C2=O)C2=CC(O)=C(O)C(O)=C2)[C@H](O)[C@H]1O
CH$IUPAC: InChI=1S/C20H18O12/c21-7-3-8(22)13-12(4-7)31-18(6-1-9(23)14(26)10(24)2-6)19(16(13)28)32-20-17(29)15(27)11(25)5-30-20/h1-4,11,15,17,20-27,29H,5H2/t11-,15+,17-,20+/m1/s1
CH$LINK: INCHIKEY SBEOEJNITMVWLK-CFSKSFDZSA-N
AC$INSTRUMENT: LC, Waters Acquity UPLC System; MS, Waters Xevo G2 Q-Tof
AC$INSTRUMENT_TYPE: LC-ESI-QTOF
AC$MASS_SPECTROMETRY: MS_TYPE MS2
AC$MASS_SPECTROMETRY: ION_MODE POSITIVE
AC$MASS_SPECTROMETRY: COLLISION_ENERGY 6V
AC$MASS_SPECTROMETRY: DESOLVATION_GAS_FLOW 800/h
AC$MASS_SPECTROMETRY: DESOLVATION_TEMPERATURE 450 C
AC$MASS_SPECTROMETRY: IONIZATION ESI
AC$CHROMATOGRAPHY: CAPILLARY_VOLTAGE +3.00 kV
AC$CHROMATOGRAPHY: COLUMN_NAME Acquity bridged ethyl hybrid C18 (1.7 um, 2.1 mm * 100 mm, Waters)
AC$CHROMATOGRAPHY: COLUMN_TEMPERATURE 40 C
AC$CHROMATOGRAPHY: FLOW_GRADIENT A/B = (99.5%/0.5% at 0 min, 99.5%/0.5% at 0.1 min, 20%/80% at 10 min, 0.5%/99.5% at 10.1 min, 0.5%/99.5% at 12.0 min, 99.5%/0.5% at 12.1 min, 99.5%/0.5% at 15.0 min)
AC$CHROMATOGRAPHY: FLOW_RATE 0.3 ml/min at 0 min, 0.3 ml/min at 10 min, 0.4 ml/min at 10.1 min, 0.4 ml/min at 14.4 min, 0.3 ml/min at 14.5 min
AC$CHROMATOGRAPHY: RETENTION_TIME 3.8971
AC$CHROMATOGRAPHY: SOLVENT A water including 0.1% formic acid
AC$CHROMATOGRAPHY: SOLVENT B acetonitrile including 0.1% formic acid
MS$FOCUSED_ION: PRECURSOR_TYPE [M+H]+
MS$FOCUSED_ION: PRECURSOR_M/Z 451.0871025
PK$SPLASH: splash10-014i-0009000000-bfb1e6e930ebf34b38b0
PK$NUM_PEAK: 26
PK$PEAK: m/z int. rel.int.
  57.0363 26.0 26
  129.05342 24.0 24
  130.6933 20.0 20
  147.03487 16.0 16
  192.96397 31.0 31
  193.76663 39.0 39
  271.03241 24.0 24
  273.0437 24.0 24
  287.06528 56.0 56
  301.02231 29.0 29
  301.03656 19.0 19
  318.97046 29.0 29
  319.03381 360.0 360
  319.04584 1000.0 999
  320.03714 71.0 71
  320.04764 97.0 97
  321.04926 21.0 21
  325.04236 26.0 26
  329.02457 27.0 27
  331.04221 22.0 22
  341.06485 25.0 25
  343.02899 15.0 15
  343.04044 24.0 24
  358.06137 24.0 24
  372.96121 20.0 20
  374.06113 30.0 30
//
