ACCESSION: MSBNK-RIKEN-PR302442
RECORD_TITLE: 3,5-Dimethoxycinnamic acid; LC-ESI-QTOF; MS2
DATE: 2019.03.28
AUTHORS: Tetsuya Mori, Center for Sustainable Resource Science, RIKEN
LICENSE: CC BY-NC-SA
PUBLICATION: Tsugawa H., Nakabayashi R., Mori T., Yamada Y., Takahashi M., Rai A., Sugiyama R., Yamamoto H., Nakaya T., Yamazaki M., Kooke R., Bac-Molenaar JA., Oztolan-Erol N., Keurentjes JJB., Arita M., Saito K. (2019) "A cheminformatics approach to characterize metabolomes in stable-isotope-labeled organisms" Nature Methods 16(4):295-298. [doi:10.1038/s41592-019-0358-2]
COMMENT: registered in RIKEN PlaSMA
CH$NAME: 3,5-Dimethoxycinnamic acid
CH$COMPOUND_CLASS: Coumaric acids and derivatives
CH$FORMULA: C11H12O4
CH$EXACT_MASS: 208.213
CH$SMILES: COC1=CC(\C=C\C(O)=O)=CC(OC)=C1
CH$IUPAC: InChI=1S/C11H12O4/c1-14-9-5-8(3-4-11(12)13)6-10(7-9)15-2/h3-7H,1-2H3,(H,12,13)/b4-3+
CH$LINK: INCHIKEY VLSRUFWCGBMYDJ-ONEGZZNKSA-N
AC$INSTRUMENT: LC, Waters Acquity UPLC System; MS, Waters Xevo G2 Q-Tof
AC$INSTRUMENT_TYPE: LC-ESI-QTOF
AC$MASS_SPECTROMETRY: MS_TYPE MS2
AC$MASS_SPECTROMETRY: ION_MODE POSITIVE
AC$MASS_SPECTROMETRY: COLLISION_ENERGY 6V
AC$MASS_SPECTROMETRY: DESOLVATION_GAS_FLOW 800/h
AC$MASS_SPECTROMETRY: DESOLVATION_TEMPERATURE 450 C
AC$MASS_SPECTROMETRY: IONIZATION ESI
AC$CHROMATOGRAPHY: CAPILLARY_VOLTAGE +3.00 kV
AC$CHROMATOGRAPHY: COLUMN_NAME Acquity bridged ethyl hybrid C18 (1.7 um, 2.1 mm * 100 mm, Waters)
AC$CHROMATOGRAPHY: COLUMN_TEMPERATURE 40 C
AC$CHROMATOGRAPHY: FLOW_GRADIENT A/B = (99.5%/0.5% at 0 min, 99.5%/0.5% at 0.1 min, 20%/80% at 10 min, 0.5%/99.5% at 10.1 min, 0.5%/99.5% at 12.0 min, 99.5%/0.5% at 12.1 min, 99.5%/0.5% at 15.0 min)
AC$CHROMATOGRAPHY: FLOW_RATE 0.3 ml/min at 0 min, 0.3 ml/min at 10 min, 0.4 ml/min at 10.1 min, 0.4 ml/min at 14.4 min, 0.3 ml/min at 14.5 min
AC$CHROMATOGRAPHY: RETENTION_TIME 6.255483
AC$CHROMATOGRAPHY: SOLVENT A water including 0.1% formic acid
AC$CHROMATOGRAPHY: SOLVENT B acetonitrile including 0.1% formic acid
MS$FOCUSED_ION: PRECURSOR_TYPE [M+H]+
MS$FOCUSED_ION: PRECURSOR_M/Z 209.0808353
PK$SPLASH: splash10-0a4l-0970000000-682ef92e64bdc202a6be
PK$NUM_PEAK: 28
PK$PEAK: m/z int. rel.int.
  118.95907 9.0 9
  121.09762 7.0 7
  128.90771 7.0 7
  128.95253 7.0 7
  129.48599 8.0 8
  141.98219 9.0 9
  147.05148 7.0 7
  148.05811 9.0 9
  149.06299 13.0 13
  167.05328 13.0 13
  167.06288 33.0 33
  167.07187 24.0 24
  167.08122 6.0 6
  170.53046 6.0 6
  177.05241 7.0 7
  190.83167 7.0 7
  191.06885 967.0 966
  192.06851 63.0 63
  192.07729 46.0 46
  192.0865 25.0 25
  192.89973 8.0 8
  193.07401 8.0 8
  207.06456 8.0 8
  208.07085 29.0 29
  208.08159 22.0 22
  208.39821 7.0 7
  209.04347 8.0 8
  209.08058 1000.0 999
//
