ACCESSION: MSBNK-RIKEN-PR300748
RECORD_TITLE: Cephaeline; LC-ESI-QTOF; MS2
DATE: 2019.03.28
AUTHORS: Tetsuya Mori, Center for Sustainable Resource Science, RIKEN
LICENSE: CC BY-NC-SA
PUBLICATION: Tsugawa H., Nakabayashi R., Mori T., Yamada Y., Takahashi M., Rai A., Sugiyama R., Yamamoto H., Nakaya T., Yamazaki M., Kooke R., Bac-Molenaar JA., Oztolan-Erol N., Keurentjes JJB., Arita M., Saito K. (2019) "A cheminformatics approach to characterize metabolomes in stable-isotope-labeled organisms" Nature Methods 16(4):295-298. [doi:10.1038/s41592-019-0358-2]
COMMENT: registered in RIKEN PlaSMA
CH$NAME: Cephaeline
CH$COMPOUND_CLASS: Emetine alkaloids
CH$FORMULA: C28H38N2O4
CH$EXACT_MASS: 466.622
CH$SMILES: CC[C@H]1CN2CCC3=CC(OC)=C(OC)C=C3[C@@H]2C[C@@H]1C[C@H]1NCCC2=CC(O)=C(OC)C=C12
CH$IUPAC: InChI=1S/C28H38N2O4/c1-5-17-16-30-9-7-19-13-27(33-3)28(34-4)15-22(19)24(30)11-20(17)10-23-21-14-26(32-2)25(31)12-18(21)6-8-29-23/h12-15,17,20,23-24,29,31H,5-11,16H2,1-4H3/t17-,20-,23+,24-/m0/s1
CH$LINK: INCHIKEY DTGZHCFJNDAHEN-OZEXIGSWSA-N
AC$INSTRUMENT: LC, Waters Acquity UPLC System; MS, Waters Xevo G2 Q-Tof
AC$INSTRUMENT_TYPE: LC-ESI-QTOF
AC$MASS_SPECTROMETRY: MS_TYPE MS2
AC$MASS_SPECTROMETRY: ION_MODE POSITIVE
AC$MASS_SPECTROMETRY: COLLISION_ENERGY 6V
AC$MASS_SPECTROMETRY: DESOLVATION_GAS_FLOW 800/h
AC$MASS_SPECTROMETRY: DESOLVATION_TEMPERATURE 450 C
AC$MASS_SPECTROMETRY: IONIZATION ESI
AC$CHROMATOGRAPHY: CAPILLARY_VOLTAGE +3.00 kV
AC$CHROMATOGRAPHY: COLUMN_NAME Acquity bridged ethyl hybrid C18 (1.7 um, 2.1 mm * 100 mm, Waters)
AC$CHROMATOGRAPHY: COLUMN_TEMPERATURE 40 C
AC$CHROMATOGRAPHY: FLOW_GRADIENT A/B = (99.5%/0.5% at 0 min, 99.5%/0.5% at 0.1 min, 20%/80% at 10 min, 0.5%/99.5% at 10.1 min, 0.5%/99.5% at 12.0 min, 99.5%/0.5% at 12.1 min, 99.5%/0.5% at 15.0 min)
AC$CHROMATOGRAPHY: FLOW_RATE 0.3 ml/min at 0 min, 0.3 ml/min at 10 min, 0.4 ml/min at 10.1 min, 0.4 ml/min at 14.4 min, 0.3 ml/min at 14.5 min
AC$CHROMATOGRAPHY: RETENTION_TIME 2.977767
AC$CHROMATOGRAPHY: SOLVENT A water including 0.1% formic acid
AC$CHROMATOGRAPHY: SOLVENT B acetonitrile including 0.1% formic acid
MS$FOCUSED_ION: PRECURSOR_TYPE [M+H]+
MS$FOCUSED_ION: PRECURSOR_M/Z 467.2904342
PK$SPLASH: splash10-053v-0980000000-f5b08b9143871b5409c6
PK$NUM_PEAK: 174
PK$PEAK: m/z int. rel.int.
  69.03424 67.0 67
  70.07212 62.0 62
  79.05794 62.0 62
  94.06648 40.0 40
  95.05287 49.0 49
  95.0854 40.0 40
  104.0585 51.0 51
  105.07385 116.0 116
  117.06983 69.0 69
  118.06683 65.0 65
  118.08052 62.0 62
  119.05649 116.0 116
  120.04195 49.0 49
  120.05152 76.0 76
  121.06219 33.0 33
  121.06868 80.0 80
  130.06258 73.0 73
  130.07965 67.0 67
  131.04343 78.0 78
  131.05028 91.0 91
  133.06825 73.0 73
  134.03148 47.0 47
  135.06621 38.0 38
  135.07851 274.0 274
  135.08435 129.0 129
  137.46548 71.0 71
  139.41196 69.0 69
  143.0499 145.0 145
  143.07501 73.0 73
  144.03365 60.0 60
  146.05925 40.0 40
  146.0847 53.0 53
  147.0744 53.0 53
  147.0826 60.0 60
  148.06995 45.0 45
  148.08118 102.0 102
  149.05995 98.0 98
  150.05977 125.0 125
  150.07138 209.0 209
  151.05397 47.0 47
  151.07315 234.0 234
  152.07866 60.0 60
  153.06758 107.0 107
  156.07962 62.0 62
  158.06444 49.0 49
  159.08417 116.0 116
  160.0542 111.0 111
  160.08295 71.0 71
  160.09274 189.0 189
  161.05142 67.0 67
  161.0602 49.0 49
  161.08148 91.0 91
  161.08888 38.0 38
  162.06932 45.0 45
  163.06346 129.0 129
  163.07405 69.0 69
  164.08322 187.0 187
  165.06721 62.0 62
  165.07921 53.0 53
  165.09155 303.0 303
  165.10281 87.0 87
  174.06288 62.0 62
  174.09167 45.0 45
  176.07788 89.0 89
  176.08841 38.0 38
  177.07234 58.0 58
  177.08224 236.0 236
  177.0977 69.0 69
  178.08443 45.0 45
  178.09634 122.0 122
  179.10468 73.0 73
  180.09727 45.0 45
  181.22888 71.0 71
  185.08501 49.0 49
  185.11182 56.0 56
  185.1243 138.0 138
  186.09277 53.0 53
  186.11635 47.0 47
  187.07138 62.0 62
  187.10172 98.0 98
  188.08536 167.0 167
  189.09012 53.0 53
  189.09885 143.0 143
  190.0773 425.0 425
  190.08893 249.0 249
  191.09593 143.0 143
  192.06958 209.0 209
  192.09988 479.0 479
  192.11018 183.0 183
  192.1183 87.0 87
  198.10649 67.0 67
  200.10075 80.0 80
  200.1478 38.0 38
  201.10889 151.0 151
  202.08934 51.0 51
  202.12315 185.0 185
  204.09142 45.0 45
  205.11189 341.0 341
  206.0266 49.0 49
  206.10583 102.0 102
  206.11423 56.0 56
  209.06769 73.0 73
  209.25432 80.0 80
  211.13603 45.0 45
  212.10016 78.0 78
  213.0849 47.0 47
  213.15663 62.0 62
  214.09053 40.0 40
  215.14499 42.0 42
  216.05539 38.0 38
  218.11615 98.0 98
  228.11139 80.0 80
  228.14575 45.0 45
  229.1366 65.0 65
  229.1496 91.0 91
  230.11008 278.0 278
  230.1187 499.0 499
  230.15657 47.0 47
  231.12178 171.0 171
  231.13245 388.0 388
  232.09378 49.0 49
  232.13144 47.0 47
  234.15321 96.0 96
  241.15042 56.0 56
  242.12056 140.0 140
  243.10735 38.0 38
  244.10097 107.0 107
  244.1373 192.0 192
  245.13443 47.0 47
  245.1566 51.0 51
  246.13266 151.0 151
  246.15292 1000.0 999
  247.15038 58.0 58
  247.15987 62.0 62
  254.09624 40.0 40
  254.11411 60.0 60
  254.1217 73.0 73
  254.15715 71.0 71
  256.13181 459.0 459
  257.13043 40.0 40
  257.14352 40.0 40
  257.15424 51.0 51
  258.15536 160.0 160
  258.17191 67.0 67
  259.16043 51.0 51
  260.15881 38.0 38
  261.18958 42.0 42
  266.12036 49.0 49
  270.13919 62.0 62
  272.15186 51.0 51
  272.1608 136.0 136
  272.1723 102.0 102
  272.18295 47.0 47
  273.15918 67.0 67
  273.17258 85.0 85
  273.26123 56.0 56
  274.17719 352.0 352
  284.16803 38.0 38
  286.19211 40.0 40
  288.19229 65.0 65
  289.19669 134.0 134
  296.1236 87.0 87
  298.18372 122.0 122
  310.12637 76.0 76
  314.88638 45.0 45
  351.14764 56.0 56
  351.16101 38.0 38
  374.20206 58.0 58
  379.18048 38.0 38
  402.20331 53.0 53
  414.17828 40.0 40
  420.18692 65.0 65
  432.22739 40.0 40
  435.55435 40.0 40
//
