ACCESSION: MSBNK-RIKEN-PR310934
RECORD_TITLE: Flavonol base + 4O, O-dHex, O-Hex-dHex; LC-ESI-QTOF; MS2
DATE: 2019.03.28
AUTHORS: Tetsuya Mori, Center for Sustainable Resource Science, RIKEN
LICENSE: CC BY-NC-SA
PUBLICATION: Tsugawa H., Nakabayashi R., Mori T., Yamada Y., Takahashi M., Rai A., Sugiyama R., Yamamoto H., Nakaya T., Yamazaki M., Kooke R., Bac-Molenaar JA., Oztolan-Erol N., Keurentjes JJB., Arita M., Saito K. (2019) "A cheminformatics approach to characterize metabolomes in stable-isotope-labeled organisms" Nature Methods 16(4):295-298. [doi:10.1038/s41592-019-0358-2]
COMMENT: Annotation level-2
CH$NAME: Flavonol base + 4O, O-dHex, O-Hex-dHex
CH$COMPOUND_CLASS: Flavonol O-glycosides
CH$FORMULA: C33H40O20
CH$EXACT_MASS: 756.663
CH$SMILES: O=C4C(OC2OC(CO)C(O)C(O)C2(OC1OC(C)C(O)C(O)C1(O)))=C(OC=5C=C(OC3OC(C)C(O)C(O)C3(O))C=C(O)C4=5)C6=CC=C(O)C(O)=C6
CH$IUPAC: InChI=1S/C33H40O20/c1-9-19(38)23(42)26(45)31(47-9)49-12-6-15(37)18-16(7-12)50-28(11-3-4-13(35)14(36)5-11)29(22(18)41)52-33-30(25(44)21(40)17(8-34)51-33)53-32-27(46)24(43)20(39)10(2)48-32/h3-7,9-10,17,19-21,23-27,30-40,42-46H,8H2,1-2H3
CH$LINK: INCHIKEY WLPJMCCYDZFCBL-UHFFFAOYSA-N
AC$INSTRUMENT: LC, Waters Acquity UPLC System; MS, Waters Xevo G2 Q-Tof
AC$INSTRUMENT_TYPE: LC-ESI-QTOF
AC$MASS_SPECTROMETRY: MS_TYPE MS2
AC$MASS_SPECTROMETRY: ION_MODE POSITIVE
AC$MASS_SPECTROMETRY: COLLISION_ENERGY 6V
AC$MASS_SPECTROMETRY: DESOLVATION_GAS_FLOW 800/h
AC$MASS_SPECTROMETRY: DESOLVATION_TEMPERATURE 450 C
AC$MASS_SPECTROMETRY: IONIZATION ESI
AC$CHROMATOGRAPHY: CAPILLARY_VOLTAGE +3.00 kV
AC$CHROMATOGRAPHY: COLUMN_NAME Acquity bridged ethyl hybrid C18 (1.7 um, 2.1 mm * 100 mm, Waters)
AC$CHROMATOGRAPHY: COLUMN_TEMPERATURE 40 C
AC$CHROMATOGRAPHY: FLOW_GRADIENT A/B = (99.5%/0.5% at 0 min, 99.5%/0.5% at 0.1 min, 20%/80% at 10 min, 0.5%/99.5% at 10.1 min, 0.5%/99.5% at 12.0 min, 99.5%/0.5% at 12.1 min, 99.5%/0.5% at 15.0 min)
AC$CHROMATOGRAPHY: FLOW_RATE 0.3 ml/min at 0 min, 0.3 ml/min at 10 min, 0.4 ml/min at 10.1 min, 0.4 ml/min at 14.4 min, 0.3 ml/min at 14.5 min
AC$CHROMATOGRAPHY: RETENTION_TIME 3.09
AC$CHROMATOGRAPHY: SOLVENT A water including 0.1% formic acid
AC$CHROMATOGRAPHY: SOLVENT B acetonitrile including 0.1% formic acid
MS$FOCUSED_ION: PRECURSOR_TYPE [M+H]+
MS$FOCUSED_ION: PRECURSOR_M/Z 757.2191
PK$SPLASH: splash10-0udi-0009503000-c876a90b2fbe468cc0a1
PK$NUM_PEAK: 26
PK$PEAK: m/z int. rel.int.
  129.05551 21.0 37
  147.06828 57.0 101
  303.02628 43.0 76
  303.05008 563.0 999
  304.05469 160.0 284
  305.0304 20.0 35
  306.0705 18.0 32
  346.93329 20.0 35
  448.09891 17.0 30
  449.10471 130.0 231
  449.12204 85.0 151
  449.75525 17.0 30
  450.08926 17.0 30
  450.1131 149.0 264
  451.103 18.0 32
  451.11673 20.0 35
  452.11493 17.0 30
  585.39319 18.0 32
  611.14404 37.0 66
  611.16718 85.0 151
  611.18732 25.0 44
  612.16571 96.0 170
  613.17017 35.0 62
  614.1604 18.0 32
  757.19135 17.0 30
  757.21735 38.0 67
//
