ACCESSION: MSBNK-RIKEN-PR309208
RECORD_TITLE: (Methylsulfinyl)hexyl glucosinolate; LC-ESI-QTOF; MS2
DATE: 2019.03.28
AUTHORS: Tetsuya Mori, Center for Sustainable Resource Science, RIKEN
LICENSE: CC BY-NC-SA
PUBLICATION: Tsugawa H., Nakabayashi R., Mori T., Yamada Y., Takahashi M., Rai A., Sugiyama R., Yamamoto H., Nakaya T., Yamazaki M., Kooke R., Bac-Molenaar JA., Oztolan-Erol N., Keurentjes JJB., Arita M., Saito K. (2019) "A cheminformatics approach to characterize metabolomes in stable-isotope-labeled organisms" Nature Methods 16(4):295-298. [doi:10.1038/s41592-019-0358-2]
COMMENT: Annotation level-3
CH$NAME: (Methylsulfinyl)hexyl glucosinolate
CH$COMPOUND_CLASS: Glucosinolates
CH$FORMULA: C14H27NO10S3
CH$EXACT_MASS: 465.562
CH$SMILES: O=S(C)CCCCCCC(=NOS(=O)(=O)O)SC1OC(CO)C(O)C(O)C1(O)
CH$IUPAC: InChI=1S/C14H27NO10S3/c1-27(20)7-5-3-2-4-6-10(15-25-28(21,22)23)26-14-13(19)12(18)11(17)9(8-16)24-14/h9,11-14,16-19H,2-8H2,1H3,(H,21,22,23)
CH$LINK: INCHIKEY OOGAQHVYHLPICD-UHFFFAOYSA-N
AC$INSTRUMENT: LC, Waters Acquity UPLC System; MS, Waters Xevo G2 Q-Tof
AC$INSTRUMENT_TYPE: LC-ESI-QTOF
AC$MASS_SPECTROMETRY: MS_TYPE MS2
AC$MASS_SPECTROMETRY: ION_MODE NEGATIVE
AC$MASS_SPECTROMETRY: COLLISION_ENERGY 6V
AC$MASS_SPECTROMETRY: DESOLVATION_GAS_FLOW 800/h
AC$MASS_SPECTROMETRY: DESOLVATION_TEMPERATURE 450 C
AC$MASS_SPECTROMETRY: IONIZATION ESI
AC$CHROMATOGRAPHY: CAPILLARY_VOLTAGE +3.00 kV
AC$CHROMATOGRAPHY: COLUMN_NAME Acquity bridged ethyl hybrid C18 (1.7 um, 2.1 mm * 100 mm, Waters)
AC$CHROMATOGRAPHY: COLUMN_TEMPERATURE 40 C
AC$CHROMATOGRAPHY: FLOW_GRADIENT A/B = (99.5%/0.5% at 0 min, 99.5%/0.5% at 0.1 min, 20%/80% at 10 min, 0.5%/99.5% at 10.1 min, 0.5%/99.5% at 12.0 min, 99.5%/0.5% at 12.1 min, 99.5%/0.5% at 15.0 min)
AC$CHROMATOGRAPHY: FLOW_RATE 0.3 ml/min at 0 min, 0.3 ml/min at 10 min, 0.4 ml/min at 10.1 min, 0.4 ml/min at 14.4 min, 0.3 ml/min at 14.5 min
AC$CHROMATOGRAPHY: RETENTION_TIME 2.22
AC$CHROMATOGRAPHY: SOLVENT A water including 0.1% formic acid
AC$CHROMATOGRAPHY: SOLVENT B acetonitrile including 0.1% formic acid
MS$FOCUSED_ION: PRECURSOR_TYPE [M-H]-
MS$FOCUSED_ION: PRECURSOR_M/Z 464.0702
PK$SPLASH: splash10-03di-0230900000-9a9673199d24f258a895
PK$NUM_PEAK: 16
PK$PEAK: m/z int. rel.int.
  96.95573 23.0 223
  101.02025 20.0 194
  160.01233 20.0 194
  195.02805 20.0 194
  243.0598 20.0 194
  260.01712 21.0 204
  271.01743 20.0 194
  287.05228 21.0 204
  288.06235 20.0 194
  305.05774 19.0 184
  402.064 43.0 417
  425.90018 22.0 213
  449.04977 18.0 175
  449.11826 20.0 194
  464.06189 103.0 999
  464.07922 38.0 369
//
