ACCESSION: MSBNK-RIKEN-PR303927
RECORD_TITLE: Etoposide; LC-ESI-QTOF; MS2
DATE: 2019.03.28
AUTHORS: Tetsuya Mori, Center for Sustainable Resource Science, RIKEN
LICENSE: CC BY-NC-SA
PUBLICATION: Tsugawa H., Nakabayashi R., Mori T., Yamada Y., Takahashi M., Rai A., Sugiyama R., Yamamoto H., Nakaya T., Yamazaki M., Kooke R., Bac-Molenaar JA., Oztolan-Erol N., Keurentjes JJB., Arita M., Saito K. (2019) "A cheminformatics approach to characterize metabolomes in stable-isotope-labeled organisms" Nature Methods 16(4):295-298. [doi:10.1038/s41592-019-0358-2]
COMMENT: registered in RIKEN PlaSMA
CH$NAME: Etoposide
CH$COMPOUND_CLASS: Podophyllotoxins
CH$FORMULA: C29H32O13
CH$EXACT_MASS: 588.562
CH$SMILES: COC1=CC(=CC(OC)=C1O)[C@H]1[C@@H]2[C@H](COC2=O)[C@H](O[C@@H]2O[C@@H]3CO[C@@H](C)O[C@H]3[C@H](O)[C@H]2O)C2=CC3=C(OCO3)C=C12
CH$IUPAC: InChI=1S/C29H32O13/c1-11-36-9-20-27(40-11)24(31)25(32)29(41-20)42-26-14-7-17-16(38-10-39-17)6-13(14)21(22-15(26)8-37-28(22)33)12-4-18(34-2)23(30)19(5-12)35-3/h4-7,11,15,20-22,24-27,29-32H,8-10H2,1-3H3/t11-,15+,20-,21-,22+,24-,25-,26-,27-,29+/m1/s1
CH$LINK: INCHIKEY VJJPUSNTGOMMGY-MRVIYFEKSA-N
AC$INSTRUMENT: LC, Waters Acquity UPLC System; MS, Waters Xevo G2 Q-Tof
AC$INSTRUMENT_TYPE: LC-ESI-QTOF
AC$MASS_SPECTROMETRY: MS_TYPE MS2
AC$MASS_SPECTROMETRY: ION_MODE POSITIVE
AC$MASS_SPECTROMETRY: COLLISION_ENERGY 6V
AC$MASS_SPECTROMETRY: DESOLVATION_GAS_FLOW 800/h
AC$MASS_SPECTROMETRY: DESOLVATION_TEMPERATURE 450 C
AC$MASS_SPECTROMETRY: IONIZATION ESI
AC$CHROMATOGRAPHY: CAPILLARY_VOLTAGE +3.00 kV
AC$CHROMATOGRAPHY: COLUMN_NAME Acquity bridged ethyl hybrid C18 (1.7 um, 2.1 mm * 100 mm, Waters)
AC$CHROMATOGRAPHY: COLUMN_TEMPERATURE 40 C
AC$CHROMATOGRAPHY: FLOW_GRADIENT A/B = (99.5%/0.5% at 0 min, 99.5%/0.5% at 0.1 min, 20%/80% at 10 min, 0.5%/99.5% at 10.1 min, 0.5%/99.5% at 12.0 min, 99.5%/0.5% at 12.1 min, 99.5%/0.5% at 15.0 min)
AC$CHROMATOGRAPHY: FLOW_RATE 0.3 ml/min at 0 min, 0.3 ml/min at 10 min, 0.4 ml/min at 10.1 min, 0.4 ml/min at 14.4 min, 0.3 ml/min at 14.5 min
AC$CHROMATOGRAPHY: RETENTION_TIME 5.401
AC$CHROMATOGRAPHY: SOLVENT A water including 0.1% formic acid
AC$CHROMATOGRAPHY: SOLVENT B acetonitrile including 0.1% formic acid
MS$FOCUSED_ION: PRECURSOR_TYPE [M+H]+
MS$FOCUSED_ION: PRECURSOR_M/Z 589.1915675
PK$SPLASH: splash10-004r-0490000000-a392b628925fd63f7da8
PK$NUM_PEAK: 39
PK$PEAK: m/z int. rel.int.
  99.04298 6.0 6
  127.03493 6.0 6
  129.04845 7.0 7
  145.05215 5.0 5
  154.05768 7.0 7
  173.05856 14.0 14
  174.0631 16.0 16
  181.0459 6.0 6
  185.05991 515.0 514
  186.06343 85.0 85
  186.07089 23.0 23
  187.06058 6.0 6
  187.07426 5.0 5
  199.03777 11.0 11
  199.04736 14.0 14
  201.05545 8.0 8
  217.05214 18.0 18
  229.05037 1000.0 999
  229.07805 7.0 7
  230.05534 155.0 155
  231.05112 13.0 13
  231.06557 5.0 5
  245.04633 8.0 8
  246.05202 8.0 8
  247.04909 12.0 12
  247.05801 38.0 38
  248.08049 8.0 8
  267.07166 11.0 11
  298.07626 6.0 6
  305.06409 6.0 6
  305.08374 14.0 14
  306.0802 6.0 6
  307.11392 6.0 6
  323.08945 13.0 13
  333.08026 6.0 6
  337.10876 9.0 9
  353.0928 6.0 6
  382.11118 8.0 8
  383.10226 7.0 7
//
