ACCESSION: MSBNK-RIKEN-PR300135
RECORD_TITLE: Gardneramine; LC-ESI-QTOF; MS2
DATE: 2019.03.28
AUTHORS: Tetsuya Mori, Center for Sustainable Resource Science, RIKEN
LICENSE: CC BY-NC-SA
PUBLICATION: Tsugawa H., Nakabayashi R., Mori T., Yamada Y., Takahashi M., Rai A., Sugiyama R., Yamamoto H., Nakaya T., Yamazaki M., Kooke R., Bac-Molenaar JA., Oztolan-Erol N., Keurentjes JJB., Arita M., Saito K. (2019) "A cheminformatics approach to characterize metabolomes in stable-isotope-labeled organisms" Nature Methods 16(4):295-298. [doi:10.1038/s41592-019-0358-2]
COMMENT: registered in RIKEN PlaSMA
CH$NAME: Gardneramine
CH$COMPOUND_CLASS: 3-alkylindoles
CH$FORMULA: C23H28N2O5
CH$EXACT_MASS: 412.486
CH$SMILES: COC\C=C1/CN2[C@H]3CC45C2C[C@H]1[C@@H]3COC4=NC1=C5C(OC)=C(OC)C=C1OC
CH$IUPAC: InChI=1S/C23H28N2O5/c1-26-6-5-12-10-25-15-9-23-18(25)7-13(12)14(15)11-30-22(23)24-20-16(27-2)8-17(28-3)21(29-4)19(20)23/h5,8,13-15,18H,6-7,9-11H2,1-4H3/b12-5+/t13-,14+,15+,18?,23?/m1/s1
CH$LINK: INCHIKEY RIMDDIPKIZTBHU-KPDHXFAYSA-N
AC$INSTRUMENT: LC, Waters Acquity UPLC System; MS, Waters Xevo G2 Q-Tof
AC$INSTRUMENT_TYPE: LC-ESI-QTOF
AC$MASS_SPECTROMETRY: MS_TYPE MS2
AC$MASS_SPECTROMETRY: ION_MODE POSITIVE
AC$MASS_SPECTROMETRY: COLLISION_ENERGY 6V
AC$MASS_SPECTROMETRY: DESOLVATION_GAS_FLOW 800/h
AC$MASS_SPECTROMETRY: DESOLVATION_TEMPERATURE 450 C
AC$MASS_SPECTROMETRY: IONIZATION ESI
AC$CHROMATOGRAPHY: CAPILLARY_VOLTAGE +3.00 kV
AC$CHROMATOGRAPHY: COLUMN_NAME Acquity bridged ethyl hybrid C18 (1.7 um, 2.1 mm * 100 mm, Waters)
AC$CHROMATOGRAPHY: COLUMN_TEMPERATURE 40 C
AC$CHROMATOGRAPHY: FLOW_GRADIENT A/B = (99.5%/0.5% at 0 min, 99.5%/0.5% at 0.1 min, 20%/80% at 10 min, 0.5%/99.5% at 10.1 min, 0.5%/99.5% at 12.0 min, 99.5%/0.5% at 12.1 min, 99.5%/0.5% at 15.0 min)
AC$CHROMATOGRAPHY: FLOW_RATE 0.3 ml/min at 0 min, 0.3 ml/min at 10 min, 0.4 ml/min at 10.1 min, 0.4 ml/min at 14.4 min, 0.3 ml/min at 14.5 min
AC$CHROMATOGRAPHY: RETENTION_TIME 3.822467
AC$CHROMATOGRAPHY: SOLVENT A water including 0.1% formic acid
AC$CHROMATOGRAPHY: SOLVENT B acetonitrile including 0.1% formic acid
MS$FOCUSED_ION: PRECURSOR_TYPE [M+H]+
MS$FOCUSED_ION: PRECURSOR_M/Z 413.2070985
PK$SPLASH: splash10-015c-0693000000-b854c00929bbea5cb02a
PK$NUM_PEAK: 878
PK$PEAK: m/z int. rel.int.
  66.03649 12.0 12
  67.04797 8.0 8
  67.05382 25.0 25
  70.06604 7.0 7
  77.03432 12.0 12
  77.03859 18.0 18
  77.04604 20.0 20
  78.03342 11.0 11
  79.04761 13.0 13
  79.05483 91.0 91
  80.0463 13.0 13
  80.05692 35.0 35
  80.06552 9.0 9
  81.02768 12.0 12
  81.07191 24.0 24
  82.06617 19.0 19
  82.10329 6.0 6
  83.06778 7.0 7
  85.06303 11.0 11
  91.05366 230.0 230
  91.71563 8.0 8
  92.05112 27.0 27
  92.06007 32.0 32
  92.90635 12.0 12
  93.05525 58.0 58
  93.06489 7.0 7
  93.07245 56.0 56
  94.03273 12.0 12
  94.05464 6.0 6
  94.0657 41.0 41
  95.02947 8.0 8
  95.05222 11.0 11
  95.84551 10.0 10
  99.04643 6.0 6
  99.68506 13.0 13
  102.03364 6.0 6
  103.03862 9.0 9
  103.05798 48.0 48
  104.03647 10.0 10
  104.05034 12.0 12
  104.05679 30.0 30
  105.06022 39.0 39
  105.06979 119.0 119
  106.05457 44.0 44
  106.0654 260.0 260
  106.08263 17.0 17
  106.27277 8.0 8
  107.0461 9.0 9
  107.06333 22.0 22
  107.07149 126.0 126
  107.08562 80.0 80
  108.07329 8.0 8
  108.08127 38.0 38
  108.08776 10.0 10
  109.04975 10.0 10
  109.06344 35.0 35
  109.06924 15.0 15
  110.05838 13.0 13
  111.06548 10.0 10
  115.05521 23.0 23
  116.04145 15.0 15
  116.05429 6.0 6
  116.0598 12.0 12
  117.05386 45.0 45
  117.06146 35.0 35
  117.06976 36.0 36
  118.0245 11.0 11
  118.06522 116.0 116
  119.04852 45.0 45
  119.05403 19.0 19
  119.07034 45.0 45
  119.07722 31.0 31
  119.08727 10.0 10
  120.04495 10.0 10
  120.0819 421.0 421
  121.05152 15.0 15
  121.07898 22.0 22
  121.08726 10.0 10
  122.0507 23.0 23
  122.06195 12.0 12
  122.09307 10.0 10
  123.07404 34.0 34
  123.08274 18.0 18
  123.08932 18.0 18
  124.07391 8.0 8
  125.91953 7.0 7
  126.61381 9.0 9
  127.05621 33.0 33
  128.05757 35.0 35
  128.29585 9.0 9
  129.05568 7.0 7
  129.06177 9.0 9
  129.06847 14.0 14
  130.06323 149.0 149
  130.06956 56.0 56
  131.04239 20.0 20
  131.04958 13.0 13
  131.07509 34.0 34
  131.55154 7.0 7
  132.03848 19.0 19
  132.04703 11.0 11
  132.07269 49.0 49
  132.082 174.0 174
  132.36879 7.0 7
  133.03654 13.0 13
  133.05003 18.0 18
  133.06261 8.0 8
  133.07687 23.0 23
  133.08382 63.0 63
  133.09256 20.0 20
  134.05104 22.0 22
  134.06194 30.0 30
  134.09047 32.0 32
  134.09793 60.0 60
  135.03851 7.0 7
  135.06416 12.0 12
  135.06924 8.0 8
  135.0979 18.0 18
  137.08157 12.0 12
  138.08707 17.0 17
  139.05009 9.0 9
  140.04657 6.0 6
  141.04657 18.0 18
  141.05632 20.0 20
  141.27798 10.0 10
  142.06302 10.0 10
  143.06885 31.0 31
  143.07637 48.0 48
  143.08728 9.0 9
  144.05583 17.0 17
  144.08293 48.0 48
  145.02843 8.0 8
  145.05438 36.0 36
  145.06253 23.0 23
  145.07422 9.0 9
  145.0881 29.0 29
  145.10645 9.0 9
  145.97551 8.0 8
  146.02425 7.0 7
  146.05765 71.0 71
  146.06769 22.0 22
  146.07486 7.0 7
  146.09048 59.0 59
  146.09927 110.0 110
  147.04163 7.0 7
  147.06618 34.0 34
  147.10011 12.0 12
  148.03421 32.0 32
  148.04721 14.0 14
  148.07037 17.0 17
  148.07924 7.0 7
  148.10875 29.0 29
  148.3553 9.0 9
  149.03975 8.0 8
  149.04414 20.0 20
  149.08701 21.0 21
  150.09373 21.0 21
  150.09958 11.0 11
  151.10561 10.0 10
  152.04015 17.0 17
  152.10336 17.0 17
  152.11311 20.0 20
  153.10574 10.0 10
  154.06049 7.0 7
  155.06165 19.0 19
  155.06985 11.0 11
  155.09796 7.0 7
  156.04468 10.0 10
  156.05736 7.0 7
  156.0704 20.0 20
  156.74118 8.0 8
  157.04922 9.0 9
  157.08418 53.0 53
  157.09698 14.0 14
  158.03217 8.0 8
  158.04234 10.0 10
  158.05348 11.0 11
  158.05943 33.0 33
  158.08183 12.0 12
  158.09064 49.0 49
  158.10669 19.0 19
  158.83818 9.0 9
  159.02145 7.0 7
  159.02847 10.0 10
  159.06499 16.0 16
  159.07291 7.0 7
  159.08594 10.0 10
  159.10542 9.0 9
  160.02966 8.0 8
  160.03796 31.0 31
  160.05585 18.0 18
  160.0661 17.0 17
  160.07065 8.0 8
  160.09424 13.0 13
  160.10692 16.0 16
  160.11536 8.0 8
  161.0481 39.0 39
  161.06082 15.0 15
  161.07297 23.0 23
  161.08537 43.0 43
  161.12148 8.0 8
  162.00682 9.0 9
  162.02867 9.0 9
  162.03526 7.0 7
  162.05356 206.0 206
  162.09288 20.0 20
  163.04347 21.0 21
  163.05707 36.0 36
  163.06929 7.0 7
  164.03343 29.0 29
  164.06337 14.0 14
  164.10014 9.0 9
  164.11029 15.0 15
  164.99409 7.0 7
  165.05328 10.0 10
  165.07884 16.0 16
  165.10803 19.0 19
  166.04025 19.0 19
  166.08846 11.0 11
  166.12332 16.0 16
  167.07335 16.0 16
  167.08548 9.0 9
  168.0681 9.0 9
  168.07898 9.0 9
  169.06554 9.0 9
  169.07365 8.0 8
  170.04631 17.0 17
  170.07835 14.0 14
  171.06433 30.0 30
  172.03465 9.0 9
  172.0423 41.0 41
  173.03136 9.0 9
  173.04362 20.0 20
  173.05444 9.0 9
  173.07622 7.0 7
  174.04973 80.0 80
  174.06122 29.0 29
  174.09438 25.0 25
  175.0054 10.0 10
  175.022 17.0 17
  175.05077 18.0 18
  175.06639 18.0 18
  175.07855 8.0 8
  175.097 8.0 8
  176.01729 10.0 10
  176.02663 28.0 28
  176.05795 20.0 20
  176.07248 127.0 127
  176.11385 17.0 17
  177.04543 12.0 12
  177.07933 43.0 43
  177.12286 17.0 17
  177.89172 7.0 7
  177.99953 10.0 10
  178.03008 12.0 12
  178.04408 33.0 33
  178.05553 31.0 31
  178.08116 12.0 12
  178.1256 10.0 10
  179.05595 10.0 10
  179.07733 8.0 8
  180.02666 28.0 28
  180.06506 8.0 8
  180.07149 11.0 11
  181.06075 10.0 10
  181.06726 7.0 7
  181.08269 20.0 20
  182.05435 11.0 11
  182.0784 8.0 8
  182.09068 29.0 29
  182.10838 16.0 16
  182.94865 8.0 8
  183.0473 16.0 16
  183.06627 50.0 50
  183.07646 12.0 12
  184.33237 6.0 6
  184.87468 6.0 6
  185.04004 22.0 22
  185.0665 26.0 26
  185.07652 14.0 14
  185.08621 8.0 8
  185.72108 14.0 14
  186.04501 46.0 46
  186.07848 9.0 9
  187.03453 12.0 12
  187.05202 9.0 9
  187.06104 13.0 13
  187.30321 6.0 6
  188.03265 26.0 26
  188.06134 101.0 101
  188.07521 48.0 48
  188.08452 17.0 17
  188.09932 7.0 7
  189.02011 7.0 7
  189.04453 29.0 29
  189.05473 10.0 10
  189.07582 16.0 16
  189.09328 7.0 7
  190.0264 12.0 12
  190.03813 82.0 82
  190.05168 316.0 316
  190.08363 32.0 32
  191.02933 6.0 6
  191.04225 13.0 13
  191.05522 89.0 89
  191.07579 16.0 16
  191.51022 11.0 11
  192.02661 60.0 60
  192.04346 9.0 9
  192.06216 46.0 46
  192.07407 27.0 27
  192.09418 17.0 17
  193.06943 26.0 26
  193.08214 14.0 14
  193.09288 7.0 7
  194.0475 10.0 10
  194.09593 27.0 27
  196.07584 9.0 9
  197.07272 10.0 10
  197.08252 10.0 10
  197.09189 6.0 6
  198.05948 39.0 39
  198.07166 12.0 12
  199.04301 19.0 19
  199.06082 28.0 28
  199.08578 12.0 12
  199.72926 7.0 7
  199.82013 13.0 13
  199.97397 9.0 9
  200.02919 28.0 28
  200.04434 16.0 16
  200.05391 27.0 27
  200.06415 31.0 31
  200.07484 27.0 27
  200.10046 10.0 10
  201.02333 8.0 8
  201.03006 7.0 7
  201.05183 9.0 9
  201.06822 53.0 53
  201.79648 14.0 14
  202.03511 39.0 39
  202.04552 53.0 53
  202.07573 8.0 8
  202.08995 14.0 14
  202.31163 10.0 10
  203.024 23.0 23
  203.03981 20.0 20
  203.05937 36.0 36
  203.08054 38.0 38
  203.0939 14.0 14
  203.10373 14.0 14
  203.13084 12.0 12
  204.02275 21.0 21
  204.06888 114.0 114
  204.07925 58.0 58
  205.02722 6.0 6
  205.03725 9.0 9
  205.06531 43.0 43
  205.07535 17.0 17
  205.08276 9.0 9
  205.239 7.0 7
  206.04617 32.0 32
  206.05658 35.0 35
  206.06726 12.0 12
  206.08331 29.0 29
  206.09148 60.0 60
  206.10452 14.0 14
  207.04741 19.0 19
  207.05467 8.0 8
  207.0847 25.0 25
  207.10844 12.0 12
  207.60724 22.0 22
  208.07974 15.0 15
  208.11494 7.0 7
  209.07286 16.0 16
  209.0995 13.0 13
  210.05333 7.0 7
  210.07718 25.0 25
  210.19273 10.0 10
  211.03297 9.0 9
  211.05365 17.0 17
  211.06288 11.0 11
  211.08972 15.0 15
  211.10736 7.0 7
  212.05093 8.0 8
  212.06728 61.0 61
  212.07706 21.0 21
  212.09372 22.0 22
  213.05048 7.0 7
  213.0616 17.0 17
  213.07076 15.0 15
  213.08926 6.0 6
  214.03687 9.0 9
  214.04921 15.0 15
  214.06081 8.0 8
  214.07344 29.0 29
  214.08669 28.0 28
  215.04117 41.0 41
  215.05115 28.0 28
  215.06306 15.0 15
  215.08458 7.0 7
  215.09244 7.0 7
  216.02333 7.0 7
  216.04137 11.0 11
  216.05855 9.0 9
  216.07094 71.0 71
  216.08635 11.0 11
  216.10468 6.0 6
  217.02606 19.0 19
  217.03619 28.0 28
  217.0471 51.0 51
  217.06334 120.0 120
  217.07562 48.0 48
  218.01151 10.0 10
  218.04401 1000.0 999
  218.06084 69.0 69
  218.08238 8.0 8
  218.09398 17.0 17
  218.74716 11.0 11
  219.03308 12.0 12
  219.04791 90.0 90
  219.07166 8.0 8
  219.08791 15.0 15
  219.10178 7.0 7
  220.0587 82.0 82
  220.07072 19.0 19
  220.0934 6.0 6
  220.10089 11.0 11
  221.05981 19.0 19
  221.08502 40.0 40
  221.11368 10.0 10
  221.83925 9.0 9
  222.06238 28.0 28
  222.07446 15.0 15
  222.09535 11.0 11
  223.08835 17.0 17
  224.06216 30.0 30
  224.09833 7.0 7
  224.62788 6.0 6
  225.05444 7.0 7
  225.06696 10.0 10
  225.10202 18.0 18
  225.97525 7.0 7
  226.02824 13.0 13
  226.04283 23.0 23
  226.07803 21.0 21
  226.0867 14.0 14
  227.04469 9.0 9
  227.05772 30.0 30
  227.09148 51.0 51
  228.03709 12.0 12
  228.0621 61.0 61
  228.077 20.0 20
  228.09422 17.0 17
  228.10158 24.0 24
  229.03471 14.0 14
  229.04393 17.0 17
  229.05864 55.0 55
  229.06734 51.0 51
  229.08121 15.0 15
  230.02437 8.0 8
  230.04829 66.0 66
  230.07176 68.0 68
  230.08592 23.0 23
  231.03664 60.0 60
  231.05139 38.0 38
  231.06273 50.0 50
  231.07845 43.0 43
  231.75247 6.0 6
  231.8457 9.0 9
  232.05725 253.0 253
  232.08348 72.0 72
  232.09698 13.0 13
  232.36325 9.0 9
  233.03101 16.0 16
  233.05574 65.0 65
  233.06531 198.0 198
  234.01704 10.0 10
  234.07552 68.0 68
  234.10095 19.0 19
  234.12326 9.0 9
  235.05983 8.0 8
  235.0769 17.0 17
  235.08795 7.0 7
  235.10437 31.0 31
  235.11916 16.0 16
  236.05592 14.0 14
  236.07376 17.0 17
  236.10225 7.0 7
  236.12917 9.0 9
  237.0565 42.0 42
  237.08401 12.0 12
  237.1019 30.0 30
  237.11539 24.0 24
  237.12245 16.0 16
  237.23141 7.0 7
  238.05478 32.0 32
  238.07759 59.0 59
  238.08917 13.0 13
  238.11246 7.0 7
  239.05928 46.0 46
  239.10651 19.0 19
  240.02348 6.0 6
  240.06451 35.0 35
  240.1046 28.0 28
  240.12041 12.0 12
  240.77228 7.0 7
  241.03839 7.0 7
  241.04996 11.0 11
  241.06805 9.0 9
  241.10191 7.0 7
  242.02998 10.0 10
  242.06964 8.0 8
  242.08888 32.0 32
  243.03612 29.0 29
  243.04813 50.0 50
  243.08409 17.0 17
  243.11243 8.0 8
  244.03175 30.0 30
  244.05247 85.0 85
  244.06697 23.0 23
  244.07841 34.0 34
  244.09868 14.0 14
  245.05521 86.0 86
  245.06538 30.0 30
  245.08743 6.0 6
  245.10983 32.0 32
  245.12288 15.0 15
  245.9856 12.0 12
  246.02919 16.0 16
  246.05807 25.0 25
  246.07312 67.0 67
  246.08643 17.0 17
  246.52161 9.0 9
  247.06233 21.0 21
  247.08629 35.0 35
  247.1098 6.0 6
  247.12457 20.0 20
  248.06848 10.0 10
  248.07834 27.0 27
  248.09372 11.0 11
  249.06207 8.0 8
  249.09177 15.0 15
  250.06828 15.0 15
  250.07663 48.0 48
  250.08786 10.0 10
  250.12097 7.0 7
  250.54123 10.0 10
  251.08867 12.0 12
  251.10645 17.0 17
  251.11758 20.0 20
  252.00793 9.0 9
  252.05475 49.0 49
  252.12686 9.0 9
  252.80336 6.0 6
  253.04959 16.0 16
  253.06787 33.0 33
  253.08342 10.0 10
  253.09653 27.0 27
  253.10915 14.0 14
  254.03175 7.0 7
  254.08051 39.0 39
  254.10355 8.0 8
  255.0695 8.0 8
  255.08498 16.0 16
  255.11731 9.0 9
  255.4489 10.0 10
  256.05838 30.0 30
  256.07065 6.0 6
  256.10117 24.0 24
  257.0509 22.0 22
  257.06107 32.0 32
  258.06473 23.0 23
  258.07663 36.0 36
  258.10156 31.0 31
  259.04355 10.0 10
  259.06674 33.0 33
  259.07874 35.0 35
  259.09317 32.0 32
  259.54688 7.0 7
  260.05475 9.0 9
  260.06973 13.0 13
  260.08447 27.0 27
  260.11533 13.0 13
  261.06873 14.0 14
  261.08658 29.0 29
  261.10696 17.0 17
  261.8728 8.0 8
  262.0874 42.0 42
  262.10474 19.0 19
  263.03845 10.0 10
  263.04953 7.0 7
  263.06958 12.0 12
  263.08789 17.0 17
  263.09821 11.0 11
  263.11365 7.0 7
  263.60748 10.0 10
  264.04758 9.0 9
  264.07098 7.0 7
  264.08157 26.0 26
  264.09756 51.0 51
  265.07742 19.0 19
  265.09927 20.0 20
  265.11453 9.0 9
  265.68341 9.0 9
  266.07156 32.0 32
  266.10229 17.0 17
  266.1246 19.0 19
  267.06006 45.0 45
  267.08762 10.0 10
  267.30832 15.0 15
  268.07324 12.0 12
  268.09039 12.0 12
  268.12112 16.0 16
  268.18835 7.0 7
  268.45352 7.0 7
  269.0592 36.0 36
  269.07761 6.0 6
  269.1008 10.0 10
  269.13797 9.0 9
  269.995 7.0 7
  270.07159 28.0 28
  270.08893 10.0 10
  270.09705 16.0 16
  270.33765 8.0 8
  270.56619 8.0 8
  271.04572 12.0 12
  271.07312 11.0 11
  271.10864 7.0 7
  271.93759 9.0 9
  272.0592 10.0 10
  272.0762 12.0 12
  272.0929 12.0 12
  272.13031 10.0 10
  273.08957 45.0 45
  274.07983 7.0 7
  275.0488 7.0 7
  275.08853 27.0 27
  275.11484 10.0 10
  276.0553 25.0 25
  276.07764 8.0 8
  276.10214 11.0 11
  276.12488 6.0 6
  277.064 9.0 9
  277.07993 32.0 32
  277.13544 7.0 7
  278.02853 10.0 10
  278.0741 29.0 29
  278.08871 27.0 27
  278.12189 16.0 16
  279.07135 8.0 8
  279.09048 16.0 16
  279.10522 8.0 8
  279.11661 17.0 17
  279.12811 18.0 18
  280.03873 8.0 8
  280.09796 79.0 79
  280.88672 7.0 7
  281.05997 81.0 81
  281.09424 20.0 20
  281.11118 6.0 6
  281.37173 9.0 9
  281.91495 6.0 6
  282.0408 25.0 25
  282.06268 81.0 81
  282.10226 32.0 32
  283.07523 76.0 76
  283.0928 13.0 13
  283.10831 7.0 7
  284.07376 17.0 17
  284.09274 7.0 7
  285.11655 14.0 14
  285.12604 9.0 9
  286.03528 11.0 11
  286.07907 12.0 12
  286.08801 8.0 8
  287.06204 11.0 11
  287.07755 9.0 9
  287.09534 8.0 8
  287.10196 18.0 18
  288.10086 19.0 19
  288.13831 9.0 9
  289.09171 9.0 9
  289.10629 17.0 17
  290.04462 22.0 22
  290.0791 37.0 37
  290.10342 20.0 20
  290.11627 9.0 9
  291.0415 7.0 7
  291.08026 23.0 23
  291.09604 53.0 53
  291.10864 13.0 13
  291.5687 8.0 8
  292.07294 26.0 26
  292.08975 31.0 31
  292.10855 24.0 24
  292.12344 9.0 9
  293.06161 28.0 28
  293.07822 45.0 45
  293.08957 61.0 61
  293.12128 11.0 11
  294.05356 18.0 18
  294.07117 8.0 8
  294.08649 37.0 37
  294.10458 35.0 35
  294.12418 39.0 39
  294.14948 7.0 7
  295.05814 54.0 54
  295.0715 145.0 145
  295.08453 49.0 49
  295.10873 23.0 23
  295.12836 20.0 20
  296.0683 45.0 45
  296.08209 49.0 49
  296.10895 23.0 23
  296.12424 15.0 15
  296.25293 9.0 9
  296.67813 8.0 8
  297.08469 22.0 22
  297.09988 31.0 31
  298.0918 28.0 28
  299.0993 27.0 27
  300.08215 7.0 7
  301.0975 12.0 12
  302.08246 22.0 22
  303.08295 22.0 22
  303.15475 10.0 10
  304.06595 21.0 21
  304.09796 15.0 15
  304.11069 9.0 9
  304.13791 21.0 21
  304.98529 10.0 10
  305.06143 10.0 10
  305.07214 8.0 8
  305.08981 12.0 12
  305.1022 14.0 14
  305.11792 8.0 8
  306.04904 13.0 13
  306.07101 60.0 60
  306.09402 6.0 6
  306.10864 22.0 22
  306.12109 14.0 14
  306.13739 10.0 10
  307.03299 10.0 10
  307.05969 37.0 37
  307.07574 48.0 48
  307.10452 78.0 78
  307.12027 39.0 39
  307.14078 9.0 9
  307.16293 7.0 7
  307.33459 7.0 7
  307.39783 7.0 7
  307.96942 9.0 9
  308.03552 18.0 18
  308.08347 82.0 82
  308.11572 44.0 44
  308.13232 13.0 13
  309.08755 72.0 72
  309.11591 19.0 19
  309.13406 9.0 9
  310.08514 12.0 12
  310.09714 13.0 13
  310.12222 18.0 18
  311.09991 10.0 10
  311.14395 12.0 12
  312.03848 12.0 12
  313.0752 6.0 6
  313.11804 23.0 23
  313.13132 7.0 7
  313.15134 17.0 17
  314.13351 12.0 12
  315.90219 8.0 8
  317.08292 8.0 8
  317.10721 9.0 9
  317.11948 10.0 10
  318.08057 7.0 7
  318.10031 11.0 11
  318.11096 10.0 10
  318.15018 7.0 7
  319.04123 7.0 7
  319.07477 38.0 38
  319.10318 9.0 9
  319.12347 17.0 17
  319.13553 9.0 9
  319.16379 12.0 12
  320.07449 15.0 15
  320.09113 7.0 7
  320.1116 22.0 22
  321.08023 126.0 126
  321.09851 30.0 30
  321.12454 49.0 49
  322.07935 10.0 10
  322.09366 55.0 55
  322.10629 31.0 31
  322.14478 7.0 7
  323.05191 24.0 24
  323.08862 58.0 58
  323.10419 81.0 81
  323.13443 19.0 19
  323.14429 15.0 15
  324.06784 10.0 10
  324.0936 14.0 14
  324.10577 62.0 62
  324.11862 42.0 42
  324.13583 19.0 19
  324.14908 9.0 9
  325.10098 27.0 27
  325.12283 39.0 39
  325.16342 9.0 9
  326.1275 8.0 8
  326.17932 10.0 10
  332.1008 9.0 9
  332.12881 7.0 7
  333.07581 13.0 13
  334.09784 31.0 31
  334.12897 9.0 9
  334.93121 7.0 7
  335.00327 16.0 16
  335.03314 18.0 18
  335.06107 16.0 16
  335.07077 33.0 33
  335.10263 291.0 291
  335.81747 7.0 7
  336.00259 9.0 9
  336.08838 12.0 12
  336.11176 147.0 147
  337.0762 14.0 14
  337.08878 10.0 10
  337.1105 66.0 66
  337.12088 161.0 161
  337.15204 20.0 20
  338.11899 85.0 85
  338.12888 31.0 31
  338.14648 7.0 7
  339.09006 10.0 10
  339.1301 7.0 7
  339.14096 8.0 8
  340.16119 15.0 15
  341.11676 8.0 8
  348.1441 11.0 11
  349.11844 19.0 19
  349.13174 34.0 34
  350.10568 12.0 12
  350.1369 23.0 23
  350.15424 7.0 7
  351.08176 12.0 12
  351.10138 10.0 10
  351.13385 69.0 69
  351.14914 25.0 25
  352.09238 8.0 8
  353.09311 15.0 15
  353.13162 21.0 21
  353.14517 44.0 44
  354.14517 9.0 9
  354.37158 9.0 9
  355.12463 25.0 25
  355.14508 9.0 9
  355.1626 9.0 9
  355.17401 8.0 8
  356.15677 10.0 10
  356.78796 6.0 6
  365.13913 20.0 20
  365.15198 41.0 41
  366.11899 8.0 8
  366.13409 9.0 9
  366.14771 11.0 11
  367.13031 15.0 15
  367.16144 43.0 43
  368.1644 30.0 30
  369.13669 18.0 18
  369.16788 7.0 7
  373.54404 12.0 12
  379.62872 7.0 7
  383.1586 36.0 36
  398.17389 7.0 7
  398.20935 14.0 14
  404.56906 6.0 6
  413.21271 41.0 41
//
