ACCESSION: MSBNK-RIKEN-PR300312
RECORD_TITLE: 14,15-Dehydro-16-epi-vincamine; LC-ESI-QTOF; MS2
DATE: 2019.03.28
AUTHORS: Tetsuya Mori, Center for Sustainable Resource Science, RIKEN
LICENSE: CC BY-NC-SA
PUBLICATION: Tsugawa H., Nakabayashi R., Mori T., Yamada Y., Takahashi M., Rai A., Sugiyama R., Yamamoto H., Nakaya T., Yamazaki M., Kooke R., Bac-Molenaar JA., Oztolan-Erol N., Keurentjes JJB., Arita M., Saito K. (2019) "A cheminformatics approach to characterize metabolomes in stable-isotope-labeled organisms" Nature Methods 16(4):295-298. [doi:10.1038/s41592-019-0358-2]
COMMENT: registered in RIKEN PlaSMA
CH$NAME: 14,15-Dehydro-16-epi-vincamine
CH$COMPOUND_CLASS: Eburnan-type alkaloids
CH$FORMULA: C21H24N2O3
CH$EXACT_MASS: 352.434
CH$SMILES: CC[C@]12C[C@](O)(N3C4=CC=CC=C4C4=C3[C@H]1N(CC4)CC=C2)C(=O)OC
CH$IUPAC: InChI=1S/C21H24N2O3/c1-3-20-10-6-11-22-12-9-15-14-7-4-5-8-16(14)23(17(15)18(20)22)21(25,13-20)19(24)26-2/h4-8,10,18,25H,3,9,11-13H2,1-2H3/t18-,20+,21-/m1/s1
CH$LINK: INCHIKEY BQGJXFQCMYJENQ-HLAWJBBLSA-N
AC$INSTRUMENT: LC, Waters Acquity UPLC System; MS, Waters Xevo G2 Q-Tof
AC$INSTRUMENT_TYPE: LC-ESI-QTOF
AC$MASS_SPECTROMETRY: MS_TYPE MS2
AC$MASS_SPECTROMETRY: ION_MODE POSITIVE
AC$MASS_SPECTROMETRY: COLLISION_ENERGY 6V
AC$MASS_SPECTROMETRY: DESOLVATION_GAS_FLOW 800/h
AC$MASS_SPECTROMETRY: DESOLVATION_TEMPERATURE 450 C
AC$MASS_SPECTROMETRY: IONIZATION ESI
AC$CHROMATOGRAPHY: CAPILLARY_VOLTAGE +3.00 kV
AC$CHROMATOGRAPHY: COLUMN_NAME Acquity bridged ethyl hybrid C18 (1.7 um, 2.1 mm * 100 mm, Waters)
AC$CHROMATOGRAPHY: COLUMN_TEMPERATURE 40 C
AC$CHROMATOGRAPHY: FLOW_GRADIENT A/B = (99.5%/0.5% at 0 min, 99.5%/0.5% at 0.1 min, 20%/80% at 10 min, 0.5%/99.5% at 10.1 min, 0.5%/99.5% at 12.0 min, 99.5%/0.5% at 12.1 min, 99.5%/0.5% at 15.0 min)
AC$CHROMATOGRAPHY: FLOW_RATE 0.3 ml/min at 0 min, 0.3 ml/min at 10 min, 0.4 ml/min at 10.1 min, 0.4 ml/min at 14.4 min, 0.3 ml/min at 14.5 min
AC$CHROMATOGRAPHY: RETENTION_TIME 4.255667
AC$CHROMATOGRAPHY: SOLVENT A water including 0.1% formic acid
AC$CHROMATOGRAPHY: SOLVENT B acetonitrile including 0.1% formic acid
MS$FOCUSED_ION: PRECURSOR_TYPE [M+H]+
MS$FOCUSED_ION: PRECURSOR_M/Z 353.1859691
PK$SPLASH: splash10-00kf-0950000000-5b9082851f0ff6058df8
PK$NUM_PEAK: 276
PK$PEAK: m/z int. rel.int.
  68.04933 11.0 11
  77.03351 9.0 9
  77.04003 41.0 41
  78.0414 6.0 6
  79.05507 14.0 14
  80.05158 30.0 30
  81.05268 11.0 11
  83.04231 6.0 6
  83.05002 16.0 16
  91.04346 6.0 6
  91.05402 89.0 89
  93.0538 38.0 38
  93.06914 44.0 44
  94.06496 14.0 14
  96.07805 8.0 8
  96.08396 10.0 10
  96.09164 9.0 9
  101.0368 7.0 7
  103.04794 18.0 18
  103.05389 52.0 52
  104.05562 8.0 8
  105.07008 30.0 30
  105.07577 11.0 11
  106.06548 5.0 5
  107.04514 8.0 8
  107.074 24.0 24
  107.08727 6.0 6
  108.0797 22.0 22
  109.03813 7.0 7
  109.08652 9.0 9
  115.04982 17.0 17
  115.0557 47.0 47
  116.05653 16.0 16
  117.05949 38.0 38
  117.06918 66.0 66
  117.07692 31.0 31
  118.05672 13.0 13
  118.06471 41.0 41
  118.07107 14.0 14
  119.07243 12.0 12
  120.08273 18.0 18
  120.26248 6.0 6
  121.06502 29.0 29
  122.09757 23.0 23
  127.05379 98.0 98
  128.04202 22.0 22
  128.0507 59.0 59
  128.06068 43.0 43
  129.05304 20.0 20
  129.06033 36.0 36
  129.07033 35.0 35
  129.65207 5.0 5
  130.06488 121.0 121
  130.07849 13.0 13
  131.06281 7.0 7
  131.07283 26.0 26
  131.08899 8.0 8
  132.04422 6.0 6
  132.07877 9.0 9
  139.05392 6.0 6
  140.06583 6.0 6
  141.05042 5.0 5
  141.06915 11.0 11
  142.05975 14.0 14
  142.06731 17.0 17
  143.0591 12.0 12
  143.07213 162.0 162
  143.97508 5.0 5
  144.05267 8.0 8
  144.08043 1000.0 999
  145.05031 5.0 5
  145.0851 107.0 107
  146.08089 11.0 11
  148.07487 13.0 13
  150.08665 12.0 12
  151.05197 8.0 8
  152.05914 21.0 21
  153.04979 5.0 5
  153.05972 8.0 8
  153.06784 12.0 12
  154.06473 163.0 163
  155.06853 92.0 92
  155.08557 7.0 7
  156.07089 26.0 26
  156.08275 20.0 20
  157.08301 18.0 18
  158.09651 14.0 14
  159.08118 6.0 6
  162.09151 6.0 6
  164.70241 7.0 7
  165.0683 54.0 54
  166.06732 24.0 24
  167.07341 495.0 495
  168.06641 31.0 31
  168.08064 276.0 276
  169.07579 45.0 45
  169.08997 30.0 30
  170.05804 11.0 11
  170.08061 24.0 24
  170.09549 7.0 7
  171.06047 6.0 6
  171.07854 14.0 14
  171.08522 15.0 15
  171.09671 66.0 66
  172.09616 15.0 15
  178.0674 7.0 7
  178.07883 12.0 12
  179.07529 17.0 17
  179.08371 22.0 22
  179.09332 6.0 6
  180.05577 7.0 7
  180.07909 258.0 258
  181.04849 6.0 6
  181.08736 147.0 147
  182.08444 26.0 26
  182.09698 86.0 86
  183.08087 6.0 6
  183.09857 21.0 21
  184.07936 6.0 6
  184.09962 15.0 15
  184.1144 14.0 14
  189.07233 7.0 7
  190.07227 12.0 12
  191.07161 72.0 72
  192.08046 151.0 151
  193.06882 7.0 7
  193.08902 284.0 284
  193.10832 6.0 6
  194.06215 22.0 22
  194.07874 6.0 6
  194.09389 178.0 178
  195.06479 9.0 9
  195.07643 7.0 7
  195.09346 12.0 12
  195.10069 11.0 11
  195.10989 12.0 12
  196.07422 38.0 38
  196.10507 19.0 19
  196.11282 12.0 12
  197.08752 12.0 12
  197.10567 5.0 5
  202.06134 7.0 7
  202.07291 7.0 7
  202.08374 9.0 9
  203.06789 5.0 5
  204.08099 118.0 118
  205.08488 37.0 37
  205.09534 19.0 19
  206.06636 6.0 6
  206.0862 34.0 34
  206.09984 178.0 178
  207.06192 7.0 7
  207.09492 90.0 90
  207.10724 83.0 83
  208.05565 8.0 8
  208.07784 27.0 27
  208.11169 140.0 140
  208.129 6.0 6
  209.08667 11.0 11
  209.10454 11.0 11
  209.11446 16.0 16
  210.08919 27.0 27
  211.10635 7.0 7
  215.07281 9.0 9
  216.07228 24.0 24
  216.08409 23.0 23
  217.06924 18.0 18
  217.08989 246.0 246
  218.07845 14.0 14
  218.09561 198.0 198
  219.07079 15.0 15
  219.09627 70.0 70
  219.1086 45.0 45
  220.05685 9.0 9
  220.07864 53.0 53
  220.09314 30.0 30
  220.10518 38.0 38
  220.11475 47.0 47
  221.06602 11.0 11
  221.09038 6.0 6
  221.10393 30.0 30
  221.11372 65.0 65
  221.12668 16.0 16
  222.09755 8.0 8
  222.1118 13.0 13
  222.12909 33.0 33
  222.13792 9.0 9
  223.0979 5.0 5
  223.11702 20.0 20
  224.10876 5.0 5
  224.13686 6.0 6
  229.08653 9.0 9
  229.10167 7.0 7
  230.09929 59.0 59
  230.10847 17.0 17
  231.08629 13.0 13
  231.10396 78.0 78
  232.07855 6.0 6
  232.09137 18.0 18
  232.10432 20.0 20
  232.11464 57.0 57
  233.08023 10.0 10
  233.10451 58.0 58
  233.13075 18.0 18
  234.09126 71.0 71
  234.11243 11.0 11
  234.12199 16.0 16
  234.133 6.0 6
  235.09424 39.0 39
  235.11975 15.0 15
  235.13765 5.0 5
  236.11017 49.0 49
  236.14389 10.0 10
  237.07092 6.0 6
  237.09842 14.0 14
  237.14366 7.0 7
  238.07689 28.0 28
  238.08777 66.0 66
  238.11264 5.0 5
  239.09407 27.0 27
  240.11801 6.0 6
  242.09837 11.0 11
  243.08899 8.0 8
  243.11272 11.0 11
  244.07782 5.0 5
  244.10707 12.0 12
  244.11679 13.0 13
  245.08481 6.0 6
  245.10983 53.0 53
  245.28246 6.0 6
  246.07753 5.0 5
  246.09616 10.0 10
  246.10675 19.0 19
  246.12184 34.0 34
  246.13974 9.0 9
  247.06248 6.0 6
  247.09221 9.0 9
  247.10468 7.0 7
  247.12883 33.0 33
  248.07082 11.0 11
  248.14116 6.0 6
  249.10423 6.0 6
  251.10045 40.0 40
  252.09389 9.0 9
  252.10759 27.0 27
  252.12019 7.0 7
  258.11902 15.0 15
  258.12994 6.0 6
  259.12787 11.0 11
  261.0874 7.0 7
  261.12332 7.0 7
  262.07916 11.0 11
  262.09409 34.0 34
  262.14096 5.0 5
  263.08771 8.0 8
  263.1008 12.0 12
  263.12006 26.0 26
  263.12784 9.0 9
  265.10373 8.0 8
  266.11923 13.0 13
  275.09232 43.0 43
  275.1084 6.0 6
  276.0788 6.0 6
  276.09885 50.0 50
  276.11383 38.0 38
  277.10748 46.0 46
  278.12778 11.0 11
  289.09488 6.0 6
  290.11218 25.0 25
  290.12296 35.0 35
  291.12656 12.0 12
  305.12784 17.0 17
  306.13113 8.0 8
  306.1489 8.0 8
  353.16956 5.0 5
  353.18942 33.0 33
//
