ACCESSION: MSBNK-RIKEN-PR303869
RECORD_TITLE: Asiaticoside; LC-ESI-QTOF; MS2
DATE: 2019.03.28
AUTHORS: Tetsuya Mori, Center for Sustainable Resource Science, RIKEN
LICENSE: CC BY-NC-SA
PUBLICATION: Tsugawa H., Nakabayashi R., Mori T., Yamada Y., Takahashi M., Rai A., Sugiyama R., Yamamoto H., Nakaya T., Yamazaki M., Kooke R., Bac-Molenaar JA., Oztolan-Erol N., Keurentjes JJB., Arita M., Saito K. (2019) "A cheminformatics approach to characterize metabolomes in stable-isotope-labeled organisms" Nature Methods 16(4):295-298. [doi:10.1038/s41592-019-0358-2]
COMMENT: registered in RIKEN PlaSMA
CH$NAME: Asiaticoside
CH$COMPOUND_CLASS: Triterpene saponins
CH$FORMULA: C48H78O19
CH$EXACT_MASS: 959.133
CH$SMILES: CC1CCC2(CCC3(C)C(=CCC4C5(C)CC(O)C(O)C(C)(CO)C5CCC34C)C2C1C)C(=O)OC1OC(COC2OC(CO)C(OC3OC(C)C(O)C(O)C3O)C(O)C2O)C(O)C(O)C1O
CH$IUPAC: InChI=1S/C48H78O19/c1-20-10-13-48(15-14-46(6)23(29(48)21(20)2)8-9-28-44(4)16-24(51)39(60)45(5,19-50)27(44)11-12-47(28,46)7)43(61)67-42-36(58)33(55)31(53)26(65-42)18-62-40-37(59)34(56)38(25(17-49)64-40)66-41-35(57)32(54)30(52)22(3)63-41/h8,20-22,24-42,49-60H,9-19H2,1-7H3
CH$LINK: INCHIKEY WYQVAPGDARQUBT-UHFFFAOYSA-N
AC$INSTRUMENT: LC, Waters Acquity UPLC System; MS, Waters Xevo G2 Q-Tof
AC$INSTRUMENT_TYPE: LC-ESI-QTOF
AC$MASS_SPECTROMETRY: MS_TYPE MS2
AC$MASS_SPECTROMETRY: ION_MODE POSITIVE
AC$MASS_SPECTROMETRY: COLLISION_ENERGY 6V
AC$MASS_SPECTROMETRY: DESOLVATION_GAS_FLOW 800/h
AC$MASS_SPECTROMETRY: DESOLVATION_TEMPERATURE 450 C
AC$MASS_SPECTROMETRY: IONIZATION ESI
AC$CHROMATOGRAPHY: CAPILLARY_VOLTAGE +3.00 kV
AC$CHROMATOGRAPHY: COLUMN_NAME Acquity bridged ethyl hybrid C18 (1.7 um, 2.1 mm * 100 mm, Waters)
AC$CHROMATOGRAPHY: COLUMN_TEMPERATURE 40 C
AC$CHROMATOGRAPHY: FLOW_GRADIENT A/B = (99.5%/0.5% at 0 min, 99.5%/0.5% at 0.1 min, 20%/80% at 10 min, 0.5%/99.5% at 10.1 min, 0.5%/99.5% at 12.0 min, 99.5%/0.5% at 12.1 min, 99.5%/0.5% at 15.0 min)
AC$CHROMATOGRAPHY: FLOW_RATE 0.3 ml/min at 0 min, 0.3 ml/min at 10 min, 0.4 ml/min at 10.1 min, 0.4 ml/min at 14.4 min, 0.3 ml/min at 14.5 min
AC$CHROMATOGRAPHY: RETENTION_TIME 5.20985
AC$CHROMATOGRAPHY: SOLVENT A water including 0.1% formic acid
AC$CHROMATOGRAPHY: SOLVENT B acetonitrile including 0.1% formic acid
MS$FOCUSED_ION: PRECURSOR_TYPE [M+H]+
MS$FOCUSED_ION: PRECURSOR_M/Z 959.5210067
PK$SPLASH: splash10-0pdr-1971400000-bbd2f3687a36bf5319fb
PK$NUM_PEAK: 207
PK$PEAK: m/z int. rel.int.
  57.03192 62.0 62
  71.04573 48.0 48
  79.05067 32.0 32
  85.01598 50.0 50
  85.0246 219.0 219
  85.02995 313.0 313
  87.03637 30.0 30
  87.04795 30.0 30
  91.05983 32.0 32
  93.19448 60.0 60
  95.0834 91.0 91
  97.0266 149.0 149
  99.3893 30.0 30
  103.03281 39.0 39
  105.06682 64.0 64
  107.08437 32.0 32
  109.02727 39.0 39
  109.10286 101.0 101
  111.04411 135.0 135
  111.08128 78.0 78
  119.07718 41.0 41
  119.08158 121.0 121
  121.10094 36.0 36
  123.09644 34.0 34
  125.09323 34.0 34
  127.03703 233.0 233
  128.38631 36.0 36
  129.03801 32.0 32
  129.04938 160.0 160
  129.0558 498.0 498
  133.10608 50.0 50
  135.08302 48.0 48
  144.49567 36.0 36
  145.05156 128.0 128
  145.0983 105.0 105
  145.1062 30.0 30
  146.10611 30.0 30
  147.06332 530.0 529
  147.07506 37.0 37
  147.11974 34.0 34
  148.06599 87.0 87
  148.0735 41.0 41
  149.07019 37.0 37
  149.13394 132.0 132
  152.15047 78.0 78
  157.05411 39.0 39
  159.11447 164.0 164
  159.12428 98.0 98
  161.11427 32.0 32
  161.13683 30.0 30
  163.04129 30.0 30
  163.06093 117.0 117
  163.15416 94.0 94
  165.08846 36.0 36
  165.15746 37.0 37
  171.06255 50.0 50
  173.12204 30.0 30
  173.12761 64.0 64
  174.05428 34.0 34
  175.14491 189.0 189
  176.15459 68.0 68
  177.15019 32.0 32
  177.16295 44.0 44
  178.12733 39.0 39
  178.17371 55.0 55
  179.13374 30.0 30
  183.12442 30.0 30
  185.13261 32.0 32
  187.06065 44.0 44
  187.12523 30.0 30
  187.14568 573.0 572
  188.14813 30.0 30
  188.15599 32.0 32
  188.40929 30.0 30
  189.15997 30.0 30
  189.16937 126.0 126
  190.16913 30.0 30
  191.1185 30.0 30
  191.1431 43.0 43
  191.1683 64.0 64
  191.17773 100.0 100
  191.19746 43.0 43
  192.17426 32.0 32
  193.16122 109.0 109
  199.14761 109.0 109
  200.15594 41.0 41
  201.16243 496.0 496
  201.1725 176.0 176
  201.19162 30.0 30
  202.16185 77.0 77
  203.17599 100.0 100
  205.14688 44.0 44
  205.15903 32.0 32
  205.19266 32.0 32
  207.06268 32.0 32
  213.16528 219.0 219
  214.17107 34.0 34
  215.1696 94.0 94
  215.18277 101.0 101
  216.17038 30.0 30
  216.18527 44.0 44
  217.16031 73.0 73
  217.19415 91.0 91
  217.20573 85.0 85
  219.14023 32.0 32
  219.17627 395.0 395
  220.1752 30.0 30
  221.1615 36.0 36
  225.06949 34.0 34
  225.16476 100.0 100
  226.07738 30.0 30
  227.37482 32.0 32
  229.19266 30.0 30
  233.18428 43.0 43
  233.19507 44.0 44
  235.16795 114.0 114
  236.17831 30.0 30
  237.07549 66.0 66
  238.17949 30.0 30
  241.19063 68.0 68
  241.20175 89.0 89
  243.22102 34.0 34
  247.1628 101.0 101
  247.17838 149.0 149
  248.15694 41.0 41
  249.16064 46.0 46
  252.18161 46.0 46
  253.19415 32.0 32
  255.21779 34.0 34
  256.09143 30.0 30
  256.20584 34.0 34
  257.21902 43.0 43
  259.15747 43.0 43
  259.19931 39.0 39
  259.23141 30.0 30
  261.14203 52.0 52
  261.16925 34.0 34
  261.18646 77.0 77
  262.1937 85.0 85
  265.19513 48.0 48
  267.20996 98.0 98
  269.22311 50.0 50
  273.08655 36.0 36
  273.10004 68.0 68
  281.2327 48.0 48
  282.23636 41.0 41
  283.24271 82.0 82
  285.21021 32.0 32
  286.23489 37.0 37
  286.81689 50.0 50
  287.22958 30.0 30
  290.21634 34.0 34
  291.21298 32.0 32
  292.21716 48.0 48
  293.22208 43.0 43
  298.24805 32.0 32
  301.21866 68.0 68
  303.23355 41.0 41
  305.3616 85.0 85
  309.10861 34.0 34
  311.24127 125.0 125
  311.44446 46.0 46
  314.70486 52.0 52
  317.25293 30.0 30
  327.23093 36.0 36
  335.27444 37.0 37
  340.61465 41.0 41
  341.23975 48.0 48
  343.25 37.0 37
  350.28696 37.0 37
  351.26605 89.0 89
  355.27502 36.0 36
  364.31195 46.0 46
  364.79199 30.0 30
  366.28357 32.0 32
  369.73682 41.0 41
  378.34912 36.0 36
  379.27219 36.0 36
  379.34897 64.0 64
  389.30093 30.0 30
  389.31976 96.0 96
  389.34906 36.0 36
  405.29041 46.0 46
  407.32721 1000.0 999
  407.34933 105.0 105
  408.30356 43.0 43
  408.33267 294.0 294
  409.771 32.0 32
  423.32703 39.0 39
  424.3338 71.0 71
  424.34933 48.0 48
  435.25708 41.0 41
  435.2998 62.0 62
  435.33023 215.0 215
  435.3941 48.0 48
  436.27603 36.0 36
  436.31671 30.0 30
  437.30576 32.0 32
  443.3418 30.0 30
  453.28421 103.0 103
  453.3291 270.0 270
  453.3494 133.0 133
  454.32388 37.0 37
  454.34674 190.0 190
  455.33807 32.0 32
  615.3866 46.0 46
  716.2569 36.0 36
//
