ACCESSION: MSBNK-RIKEN-PR301088
RECORD_TITLE: Ajmaline; LC-ESI-QTOF; MS2
DATE: 2019.03.28
AUTHORS: Tetsuya Mori, Center for Sustainable Resource Science, RIKEN
LICENSE: CC BY-NC-SA
PUBLICATION: Tsugawa H., Nakabayashi R., Mori T., Yamada Y., Takahashi M., Rai A., Sugiyama R., Yamamoto H., Nakaya T., Yamazaki M., Kooke R., Bac-Molenaar JA., Oztolan-Erol N., Keurentjes JJB., Arita M., Saito K. (2019) "A cheminformatics approach to characterize metabolomes in stable-isotope-labeled organisms" Nature Methods 16(4):295-298. [doi:10.1038/s41592-019-0358-2]
COMMENT: registered in RIKEN PlaSMA
CH$NAME: Ajmaline
CH$COMPOUND_CLASS: Ajmaline-sarpagine alkaloids
CH$FORMULA: C20H26N2O2
CH$EXACT_MASS: 326.44
CH$SMILES: CC[C@H]1[C@@H]2CC3[C@@H]4N(C)C5=CC=CC=C5[C@]44C[C@@H](C2[C@H]4O)N3[C@@H]1O
CH$IUPAC: InChI=1S/C20H26N2O2/c1-3-10-11-8-14-17-20(12-6-4-5-7-13(12)21(17)2)9-15(16(11)18(20)23)22(14)19(10)24/h4-7,10-11,14-19,23-24H,3,8-9H2,1-2H3/t10-,11-,14?,15-,16?,17-,18+,19+,20+/m0/s1
CH$LINK: INCHIKEY CJDRUOGAGYHKKD-UORGRDHFSA-N
AC$INSTRUMENT: LC, Waters Acquity UPLC System; MS, Waters Xevo G2 Q-Tof
AC$INSTRUMENT_TYPE: LC-ESI-QTOF
AC$MASS_SPECTROMETRY: MS_TYPE MS2
AC$MASS_SPECTROMETRY: ION_MODE POSITIVE
AC$MASS_SPECTROMETRY: COLLISION_ENERGY 6V
AC$MASS_SPECTROMETRY: DESOLVATION_GAS_FLOW 800/h
AC$MASS_SPECTROMETRY: DESOLVATION_TEMPERATURE 450 C
AC$MASS_SPECTROMETRY: IONIZATION ESI
AC$CHROMATOGRAPHY: CAPILLARY_VOLTAGE +3.00 kV
AC$CHROMATOGRAPHY: COLUMN_NAME Acquity bridged ethyl hybrid C18 (1.7 um, 2.1 mm * 100 mm, Waters)
AC$CHROMATOGRAPHY: COLUMN_TEMPERATURE 40 C
AC$CHROMATOGRAPHY: FLOW_GRADIENT A/B = (99.5%/0.5% at 0 min, 99.5%/0.5% at 0.1 min, 20%/80% at 10 min, 0.5%/99.5% at 10.1 min, 0.5%/99.5% at 12.0 min, 99.5%/0.5% at 12.1 min, 99.5%/0.5% at 15.0 min)
AC$CHROMATOGRAPHY: FLOW_RATE 0.3 ml/min at 0 min, 0.3 ml/min at 10 min, 0.4 ml/min at 10.1 min, 0.4 ml/min at 14.4 min, 0.3 ml/min at 14.5 min
AC$CHROMATOGRAPHY: RETENTION_TIME 4.126867
AC$CHROMATOGRAPHY: SOLVENT A water including 0.1% formic acid
AC$CHROMATOGRAPHY: SOLVENT B acetonitrile including 0.1% formic acid
MS$FOCUSED_ION: PRECURSOR_TYPE [M+H]+
MS$FOCUSED_ION: PRECURSOR_M/Z 327.2067045
PK$SPLASH: splash10-052f-0910000000-3e69c2f18a129c8ea340
PK$NUM_PEAK: 363
PK$PEAK: m/z int. rel.int.
  59.80841 5.0 5
  68.04978 6.0 6
  71.05289 5.0 5
  77.03839 35.0 35
  78.03551 5.0 5
  79.05485 44.0 44
  80.05035 82.0 82
  81.07129 71.0 71
  81.15986 5.0 5
  82.06405 33.0 33
  83.049 5.0 5
  86.06447 7.0 7
  88.49691 7.0 7
  91.05304 71.0 71
  92.05039 15.0 15
  92.05868 7.0 7
  93.06567 13.0 13
  94.05996 7.0 7
  94.07166 12.0 12
  95.05078 7.0 7
  95.07064 7.0 7
  95.08996 6.0 6
  96.03683 5.0 5
  96.04372 6.0 6
  96.08253 12.0 12
  98.18858 6.0 6
  103.05496 20.0 20
  104.05398 5.0 5
  105.06673 16.0 16
  105.07632 21.0 21
  106.06287 21.0 21
  106.06682 39.0 39
  107.0518 11.0 11
  107.07125 29.0 29
  107.08289 14.0 14
  108.04912 8.0 8
  108.08026 87.0 87
  108.08753 18.0 18
  109.05469 10.0 10
  109.06512 32.0 32
  110.0563 11.0 11
  110.08558 12.0 12
  110.0946 9.0 9
  110.10287 11.0 11
  112.11638 6.0 6
  112.1841 7.0 7
  115.05004 27.0 27
  115.05552 93.0 93
  116.05821 23.0 23
  117.0431 6.0 6
  117.05277 37.0 37
  117.06097 57.0 57
  117.07011 42.0 42
  118.04866 10.0 10
  118.0642 81.0 81
  119.07555 31.0 31
  119.086 18.0 18
  120.0742 22.0 22
  120.08077 45.0 45
  121.08996 14.0 14
  121.09455 6.0 6
  122.08981 12.0 12
  122.09793 8.0 8
  126.08845 11.0 11
  127.05552 30.0 30
  128.04794 63.0 63
  128.05994 53.0 53
  128.81027 7.0 7
  128.96954 8.0 8
  129.02425 7.0 7
  129.04886 5.0 5
  129.05673 30.0 30
  129.06728 32.0 32
  129.07634 27.0 27
  130.05811 37.0 37
  130.06598 227.0 227
  131.01984 7.0 7
  131.07002 142.0 142
  131.0773 120.0 120
  131.08623 15.0 15
  132.06917 6.0 6
  132.0808 102.0 102
  132.54276 7.0 7
  133.07391 5.0 5
  133.08002 14.0 14
  133.09053 14.0 14
  134.08531 8.0 8
  134.09521 21.0 21
  136.05933 8.0 8
  136.07248 12.0 12
  136.07953 11.0 11
  136.11136 13.0 13
  137.07437 8.0 8
  137.0822 7.0 7
  137.08771 5.0 5
  137.09491 5.0 5
  138.08655 6.0 6
  138.09531 23.0 23
  139.52408 5.0 5
  140.75079 5.0 5
  141.06313 6.0 6
  141.56523 7.0 7
  142.0584 14.0 14
  142.06642 40.0 40
  142.07457 11.0 11
  143.05833 15.0 15
  143.07422 294.0 294
  144.045 7.0 7
  144.05345 5.0 5
  144.08096 1000.0 999
  145.04626 5.0 5
  145.07253 6.0 6
  145.08383 86.0 86
  145.09079 81.0 81
  146.04962 10.0 10
  146.06088 23.0 23
  146.08304 15.0 15
  146.09674 42.0 42
  147.06522 7.0 7
  147.12343 5.0 5
  147.81454 6.0 6
  148.07166 10.0 10
  148.07951 14.0 14
  148.10904 13.0 13
  149.23065 5.0 5
  151.05104 12.0 12
  151.06105 6.0 6
  152.05357 10.0 10
  152.06293 24.0 24
  153.06689 17.0 17
  154.05571 8.0 8
  154.06369 33.0 33
  154.07185 22.0 22
  154.09415 6.0 6
  155.05959 11.0 11
  155.06656 23.0 23
  155.69745 6.0 6
  156.06238 13.0 13
  156.07936 146.0 146
  156.08961 22.0 22
  157.08907 356.0 356
  158.0457 5.0 5
  158.06035 34.0 34
  158.08308 56.0 56
  158.09621 696.0 695
  159.07124 19.0 19
  159.09509 53.0 53
  159.10307 48.0 48
  160.08235 9.0 9
  160.10246 12.0 12
  161.08318 8.0 8
  162.08798 6.0 6
  165.06404 35.0 35
  165.07303 18.0 18
  166.06279 32.0 32
  166.07339 15.0 15
  167.07346 349.0 349
  167.12479 5.0 5
  168.0556 8.0 8
  168.08121 344.0 344
  168.62175 5.0 5
  169.04568 8.0 8
  169.06137 12.0 12
  169.07368 18.0 18
  169.08682 179.0 179
  169.10675 10.0 10
  170.0596 5.0 5
  170.08299 49.0 49
  170.09755 108.0 108
  170.10756 18.0 18
  170.83293 6.0 6
  171.07372 16.0 16
  171.08864 33.0 33
  171.09982 50.0 50
  171.14331 6.0 6
  172.06122 7.0 7
  172.07777 84.0 84
  172.09833 16.0 16
  172.11447 55.0 55
  173.08318 18.0 18
  173.11115 9.0 9
  174.09245 43.0 43
  175.09433 8.0 8
  175.11211 5.0 5
  178.05869 11.0 11
  179.06595 14.0 14
  179.07289 39.0 39
  179.08824 10.0 10
  180.0381 7.0 7
  180.06163 6.0 6
  180.082 176.0 176
  180.99776 6.0 6
  181.06174 14.0 14
  181.09056 179.0 179
  181.11018 6.0 6
  181.95293 7.0 7
  182.09703 370.0 370
  183.06981 30.0 30
  183.0874 32.0 32
  183.09865 114.0 114
  183.11496 16.0 16
  184.07648 30.0 30
  184.08331 13.0 13
  184.09462 10.0 10
  184.11551 68.0 68
  185.0761 12.0 12
  185.0853 16.0 16
  185.10289 14.0 14
  185.11256 33.0 33
  185.12152 24.0 24
  186.09377 5.0 5
  186.11061 5.0 5
  187.10318 6.0 6
  188.0946 7.0 7
  188.84587 7.0 7
  190.09526 5.0 5
  191.07048 17.0 17
  192.08159 33.0 33
  192.13928 6.0 6
  193.06625 10.0 10
  193.08557 67.0 67
  193.09599 19.0 19
  194.06561 6.0 6
  194.07924 36.0 36
  194.09752 523.0 522
  195.07622 6.0 6
  195.10254 296.0 296
  196.06993 25.0 25
  196.07967 25.0 25
  196.09686 14.0 14
  196.1093 70.0 70
  196.12149 19.0 19
  197.0681 10.0 10
  197.08565 44.0 44
  197.11067 47.0 47
  197.13046 6.0 6
  197.78699 6.0 6
  198.08295 6.0 6
  198.09134 7.0 7
  198.09866 10.0 10
  198.12775 7.0 7
  198.63249 6.0 6
  199.12563 7.0 7
  199.21315 6.0 6
  204.07104 23.0 23
  204.08096 52.0 52
  204.42717 7.0 7
  205.08926 108.0 108
  206.08224 11.0 11
  206.09842 87.0 87
  206.55188 10.0 10
  206.85185 5.0 5
  207.07852 5.0 5
  207.09203 18.0 18
  207.10629 54.0 54
  208.09866 32.0 32
  208.11252 87.0 87
  208.1335 6.0 6
  209.08504 6.0 6
  209.10046 24.0 24
  209.10985 25.0 25
  209.12178 37.0 37
  209.93001 6.0 6
  210.08588 25.0 25
  210.12119 65.0 65
  210.13243 78.0 78
  210.93758 6.0 6
  211.09393 6.0 6
  211.12267 13.0 13
  211.13531 7.0 7
  211.57356 8.0 8
  212.11327 21.0 21
  212.14735 11.0 11
  214.4509 6.0 6
  217.05139 5.0 5
  217.08365 23.0 23
  218.08754 42.0 42
  218.09775 74.0 74
  218.15901 7.0 7
  219.09419 59.0 59
  219.11003 13.0 13
  220.07831 11.0 11
  220.1124 139.0 139
  220.86021 6.0 6
  221.10667 33.0 33
  221.11609 32.0 32
  222.06129 6.0 6
  222.09084 10.0 10
  222.09998 16.0 16
  222.12027 48.0 48
  223.08762 11.0 11
  223.11821 40.0 40
  223.12889 34.0 34
  224.10115 10.0 10
  224.11185 10.0 10
  224.14323 12.0 12
  225.1076 6.0 6
  225.20969 6.0 6
  226.11588 5.0 5
  226.12511 7.0 7
  227.12923 8.0 8
  227.24004 8.0 8
  228.12773 5.0 5
  229.89426 8.0 8
  231.09607 11.0 11
  231.10664 11.0 11
  232.1044 9.0 9
  232.11833 7.0 7
  233.10057 13.0 13
  233.10847 26.0 26
  233.12053 8.0 8
  234.0945 10.0 10
  234.12143 18.0 18
  234.14119 12.0 12
  235.12053 32.0 32
  235.14563 6.0 6
  236.10214 6.0 6
  236.11676 6.0 6
  236.12953 17.0 17
  236.13828 19.0 19
  237.11086 10.0 10
  237.12442 19.0 19
  237.14175 14.0 14
  237.15475 7.0 7
  238.11674 16.0 16
  238.12975 6.0 6
  238.15691 12.0 12
  238.30928 6.0 6
  239.1133 6.0 6
  239.15572 18.0 18
  240.15475 5.0 5
  242.09314 6.0 6
  244.11111 11.0 11
  245.12224 5.0 5
  246.06511 8.0 8
  246.09549 5.0 5
  246.11449 10.0 10
  246.1302 29.0 29
  247.1217 18.0 18
  247.13637 5.0 5
  248.13638 14.0 14
  248.14824 5.0 5
  255.12663 5.0 5
  257.12585 6.0 6
  258.129 5.0 5
  261.13113 5.0 5
  261.13831 8.0 8
  263.15787 17.0 17
  264.13354 6.0 6
  264.14438 10.0 10
  273.14481 9.0 9
  275.15518 7.0 7
  283.15039 7.0 7
  291.18021 6.0 6
  294.17215 7.0 7
  309.19849 7.0 7
  311.12735 7.0 7
  312.13977 20.0 20
  312.63458 6.0 6
  312.65091 10.0 10
  313.13791 7.0 7
  327.17801 7.0 7
  327.20413 32.0 32
//
