ACCESSION: MSBNK-RIKEN-PR100726
RECORD_TITLE: L-Homoserine; LC-ESI-QTOF; MS2; CE:Ramp 5-60 V; [M-H]-
DATE: 2016.01.19 (Created 2010.06.21, modified 2011.05.06)
AUTHORS: Matsuda F, Suzuki M, Sawada Y, Plant Science Center, RIKEN.
LICENSE: CC BY-SA
COMMENT: Acquisition and generation of the data is financially supported in part by CREST/JST.
CH$NAME: L-Homoserine
CH$NAME: Hse
CH$NAME: HoSer
CH$NAME: (S)-2-Amino-4-hydroxybutyric acid
CH$NAME: 2-Amino-4-hydroxybutanoic acid
CH$COMPOUND_CLASS: Amino acids
CH$FORMULA: C4H9NO3
CH$EXACT_MASS: 119.05824
CH$SMILES: OCC[C@H](N)C(O)=O
CH$IUPAC: InChI=1S/C4H9NO3/c5-3(1-2-6)4(7)8/h3,6H,1-2,5H2,(H,7,8)/t3-/m0/s1
CH$LINK: CAS 672-15-1
CH$LINK: CHEMSPIDER 12126
CH$LINK: KAPPAVIEW KPC00601
CH$LINK: KEGG C00263
CH$LINK: KNAPSACK C00001366
CH$LINK: PUBCHEM CID:12647
CH$LINK: INCHIKEY UKAUYVFTDYCKQA-VKHMYHEASA-N
CH$LINK: COMPTOX DTXSID5075159
AC$INSTRUMENT: UPLC Q-Tof Premier, Waters
AC$INSTRUMENT_TYPE: LC-ESI-QTOF
AC$MASS_SPECTROMETRY: MS_TYPE MS2
AC$MASS_SPECTROMETRY: ION_MODE NEGATIVE
AC$MASS_SPECTROMETRY: COLLISION_ENERGY Ramp 5-60 V
AC$MASS_SPECTROMETRY: DATAFORMAT Continuum
AC$MASS_SPECTROMETRY: DESOLVATION_GAS_FLOW 600.0 L/Hr
AC$MASS_SPECTROMETRY: DESOLVATION_TEMPERATURE 400 C
AC$MASS_SPECTROMETRY: FRAGMENTATION_METHOD LOW-ENERGY CID
AC$MASS_SPECTROMETRY: IONIZATION ESI
AC$MASS_SPECTROMETRY: SOURCE_TEMPERATURE 120 C
AC$CHROMATOGRAPHY: CAPILLARY_VOLTAGE 3.0 kV
AC$CHROMATOGRAPHY: SAMPLING_CONE 23.0 V
AC$CHROMATOGRAPHY: SOLVENT A CH3CN(0.1%HCOOH)
AC$CHROMATOGRAPHY: SOLVENT B H2O(0.1%HCOOH)
MS$FOCUSED_ION: PRECURSOR_M/Z 118.05044
MS$FOCUSED_ION: PRECURSOR_TYPE [M-H]-
PK$SPLASH: splash10-0gb9-1900000000-89eb5226702ae527a2be
PK$NUM_PEAK: 5
PK$PEAK: m/z int. rel.int.
  72.0470 7.012 93
  99.0064 10.43 138
  100.0401 44.76 592
  116.0372 3.838 51
  118.0504 75.48 999
//
