ACCESSION: MSBNK-RIKEN-PR307442
RECORD_TITLE: Isofraxidin; LC-ESI-QTOF; MS2
DATE: 2019.03.28
AUTHORS: Tetsuya Mori, Center for Sustainable Resource Science, RIKEN
LICENSE: CC BY-NC-SA
PUBLICATION: Tsugawa H., Nakabayashi R., Mori T., Yamada Y., Takahashi M., Rai A., Sugiyama R., Yamamoto H., Nakaya T., Yamazaki M., Kooke R., Bac-Molenaar JA., Oztolan-Erol N., Keurentjes JJB., Arita M., Saito K. (2019) "A cheminformatics approach to characterize metabolomes in stable-isotope-labeled organisms" Nature Methods 16(4):295-298. [doi:10.1038/s41592-019-0358-2]
COMMENT: registered in RIKEN PlaSMA
CH$NAME: Isofraxidin
CH$COMPOUND_CLASS: 7-hydroxycoumarins
CH$FORMULA: C11H10O5
CH$EXACT_MASS: 222.196
CH$SMILES: COC1=C(O)C(OC)=C2OC(=O)C=CC2=C1
CH$IUPAC: InChI=1S/C11H10O5/c1-14-7-5-6-3-4-8(12)16-10(6)11(15-2)9(7)13/h3-5,13H,1-2H3
CH$LINK: INCHIKEY HOEVRHHMDJKUMZ-UHFFFAOYSA-N
AC$INSTRUMENT: LC, Waters Acquity UPLC System; MS, Waters Xevo G2 Q-Tof
AC$INSTRUMENT_TYPE: LC-ESI-QTOF
AC$MASS_SPECTROMETRY: MS_TYPE MS2
AC$MASS_SPECTROMETRY: ION_MODE NEGATIVE
AC$MASS_SPECTROMETRY: COLLISION_ENERGY 6V
AC$MASS_SPECTROMETRY: DESOLVATION_GAS_FLOW 800/h
AC$MASS_SPECTROMETRY: DESOLVATION_TEMPERATURE 450 C
AC$MASS_SPECTROMETRY: IONIZATION ESI
AC$CHROMATOGRAPHY: CAPILLARY_VOLTAGE -2.75 kV
AC$CHROMATOGRAPHY: COLUMN_NAME Acquity bridged ethyl hybrid C18 (1.7 um, 2.1 mm * 100 mm, Waters)
AC$CHROMATOGRAPHY: COLUMN_TEMPERATURE 40 C
AC$CHROMATOGRAPHY: FLOW_GRADIENT A/B = (99.5%/0.5% at 0 min, 99.5%/0.5% at 0.1 min, 20%/80% at 10 min, 0.5%/99.5% at 10.1 min, 0.5%/99.5% at 12.0 min, 99.5%/0.5% at 12.1 min, 99.5%/0.5% at 15.0 min)
AC$CHROMATOGRAPHY: FLOW_RATE 0.3 ml/min at 0 min, 0.3 ml/min at 10 min, 0.4 ml/min at 10.1 min, 0.4 ml/min at 14.4 min, 0.3 ml/min at 14.5 min
AC$CHROMATOGRAPHY: RETENTION_TIME 4.277633
AC$CHROMATOGRAPHY: SOLVENT A water including 0.1% formic acid
AC$CHROMATOGRAPHY: SOLVENT B acetonitrile including 0.1% formic acid
MS$FOCUSED_ION: PRECURSOR_TYPE [M-H]-
MS$FOCUSED_ION: PRECURSOR_M/Z 221.04554694783
PK$SPLASH: splash10-08g3-0900000000-ff2351f3c93ce3da9871
PK$NUM_PEAK: 53
PK$PEAK: m/z int. rel.int.
  51.02107 11.0 11
  63.02133 11.0 11
  64.99713 17.0 17
  67.01656 5.0 5
  68.99146 5.0 5
  69.03701 5.0 5
  77.04261 7.0 7
  78.97747 6.0 6
  79.01711 241.0 241
  80.01528 8.0 8
  80.0259 6.0 6
  81.03357 6.0 6
  91.01778 40.0 40
  95.02042 6.0 6
  107.01228 662.0 661
  108.01125 5.0 5
  108.01772 14.0 14
  109.01586 12.0 12
  112.01211 6.0 6
  119.01254 118.0 118
  120.0155 6.0 6
  120.97327 6.0 6
  120.9913 6.0 6
  121.95226 5.0 5
  133.01863 5.0 5
  133.02687 8.0 8
  135.00728 734.0 733
  136.01173 61.0 61
  136.05557 6.0 6
  137.0148 11.0 11
  140.8622 5.0 5
  147.01102 70.0 70
  148.98578 7.0 7
  149.01263 5.0 5
  149.02583 5.0 5
  150.03534 6.0 6
  159.00462 6.0 6
  163.00145 1000.0 999
  164.00383 51.0 51
  164.01715 7.0 7
  165.00877 7.0 7
  175.0025 5.0 5
  177.01805 6.0 6
  178.02719 5.0 5
  184.18472 6.0 6
  184.44705 6.0 6
  189.01659 6.0 6
  190.99689 658.0 657
  191.99586 39.0 39
  192.00615 29.0 29
  193.00591 12.0 12
  206.02187 23.0 23
  206.03659 6.0 6
//
