ACCESSION: MSBNK-RIKEN-PR100891
RECORD_TITLE: alpha-D-Glucose 1-phosphate; LC-ESI-QTOF; MS2; CE:Ramp 5-60 V; [M-H]-
DATE: 2016.01.19 (Created 2009.09.10, modified 2011.05.06)
AUTHORS: Matsuda F, Suzuki M, Sawada Y, Plant Science Center, RIKEN.
LICENSE: CC BY-SA
COMMENT: Acquisition and generation of the data is financially supported in part by CREST/JST.
CH$NAME: alpha-D-glucose-1-phosphate
CH$NAME: alpha-Glu-1P
CH$NAME: alpha-D-Glucopyranose 1-phosphate
CH$NAME: alpha-D-Glucose 1-phosphate
CH$COMPOUND_CLASS: Natural Product; Carbohydrate; Phosphates
CH$FORMULA: C6H13O9P
CH$EXACT_MASS: 260.02972
CH$SMILES: OC[C@@H](O1)[C@@H](O)[C@H](O)[C@@H](O)C1OP(O)(O)=O
CH$IUPAC: InChI=1S/C6H13O9P/c7-1-2-3(8)4(9)5(10)6(14-2)15-16(11,12)13/h2-10H,1H2,(H2,11,12,13)/t2-,3-,4+,5-,6-/m1/s1
CH$LINK: CAS 59-56-3
CH$LINK: CHEMSPIDER 388311
CH$LINK: KEGG C00103
CH$LINK: KNAPSACK C00007482
CH$LINK: PUBCHEM CID:439165
CH$LINK: INCHIKEY HXXFSFRBOHSIMQ-VFUOTHLCSA-N
CH$LINK: COMPTOX DTXSID90889321
AC$INSTRUMENT: UPLC Q-Tof Premier, Waters
AC$INSTRUMENT_TYPE: LC-ESI-QTOF
AC$MASS_SPECTROMETRY: MS_TYPE MS2
AC$MASS_SPECTROMETRY: ION_MODE NEGATIVE
AC$MASS_SPECTROMETRY: COLLISION_ENERGY Ramp 5-60 V
AC$MASS_SPECTROMETRY: DATAFORMAT Continuum
AC$MASS_SPECTROMETRY: DATE 2008.07.29
AC$MASS_SPECTROMETRY: DESOLVATION_GAS_FLOW 600.0 L/Hr
AC$MASS_SPECTROMETRY: DESOLVATION_TEMPERATURE 420 C
AC$MASS_SPECTROMETRY: FRAGMENTATION_METHOD LOW-ENERGY CID
AC$MASS_SPECTROMETRY: IONIZATION ESI
AC$MASS_SPECTROMETRY: SCANNING 1.0 sec/scan (m/z = 50-1000)
AC$MASS_SPECTROMETRY: SOURCE_TEMPERATURE 120 C
AC$CHROMATOGRAPHY: CAPILLARY_VOLTAGE 3.0 kV
AC$CHROMATOGRAPHY: SAMPLING_CONE 23.0 V
AC$CHROMATOGRAPHY: SOLVENT A CH3CN(0.1%HCOOH)
AC$CHROMATOGRAPHY: SOLVENT B H2O(0.1%HCOOH)
MS$FOCUSED_ION: PRECURSOR_M/Z 259.02192
MS$FOCUSED_ION: PRECURSOR_TYPE [M-H]-
PK$SPLASH: splash10-004i-9030000000-cc7fbcb760461482d91a
PK$NUM_PEAK: 5
PK$PEAK: m/z int. rel.int.
  78.9599 2345 999
  96.9702 539.8 230
  138.9801 217.4 93
  241.0119 353.5 151
  259.0219 703.2 300
//
