ACCESSION: MSBNK-RIKEN-PR310995
RECORD_TITLE: Flavone base + 3O, O-HexA, C-Hex, C-Hex; LC-ESI-QTOF; MS2
DATE: 2019.03.28
AUTHORS: Tetsuya Mori, Center for Sustainable Resource Science, RIKEN
LICENSE: CC BY-NC-SA
PUBLICATION: Tsugawa H., Nakabayashi R., Mori T., Yamada Y., Takahashi M., Rai A., Sugiyama R., Yamamoto H., Nakaya T., Yamazaki M., Kooke R., Bac-Molenaar JA., Oztolan-Erol N., Keurentjes JJB., Arita M., Saito K. (2019) "A cheminformatics approach to characterize metabolomes in stable-isotope-labeled organisms" Nature Methods 16(4):295-298. [doi:10.1038/s41592-019-0358-2]
COMMENT: Annotation level-3
CH$NAME: Flavone base + 3O, O-HexA, C-Hex, C-Hex
CH$COMPOUND_CLASS: Flavone C,C,O-glycosides
CH$FORMULA: C33H38O21
CH$EXACT_MASS: 770.646
CH$SMILES: O=C(O)C6OC(OC1=CC=C(C=C1)C=2OC=4C=C(O)C(=C(O)C=4(C(=O)C=2C3OC(CO)C(O)C(O)C3(O)))C5OC(CO)C(O)C(O)C5(O))C(O)C(O)C6(O)
CH$IUPAC: InChI=1S/C33H38O21/c34-6-12-17(37)21(41)24(44)29(52-12)14-10(36)5-11-15(19(14)39)20(40)16(30-25(45)22(42)18(38)13(7-35)53-30)28(51-11)8-1-3-9(4-2-8)50-33-27(47)23(43)26(46)31(54-33)32(48)49/h1-5,12-13,17-18,21-27,29-31,33-39,41-47H,6-7H2,(H,48,49)
CH$LINK: INCHIKEY MKNZYNHECYGLOH-UHFFFAOYSA-N
AC$INSTRUMENT: LC, Waters Acquity UPLC System; MS, Waters Xevo G2 Q-Tof
AC$INSTRUMENT_TYPE: LC-ESI-QTOF
AC$MASS_SPECTROMETRY: MS_TYPE MS2
AC$MASS_SPECTROMETRY: ION_MODE POSITIVE
AC$MASS_SPECTROMETRY: COLLISION_ENERGY 6V
AC$MASS_SPECTROMETRY: DESOLVATION_GAS_FLOW 800/h
AC$MASS_SPECTROMETRY: DESOLVATION_TEMPERATURE 450 C
AC$MASS_SPECTROMETRY: IONIZATION ESI
AC$CHROMATOGRAPHY: CAPILLARY_VOLTAGE +3.00 kV
AC$CHROMATOGRAPHY: COLUMN_NAME Acquity bridged ethyl hybrid C18 (1.7 um, 2.1 mm * 100 mm, Waters)
AC$CHROMATOGRAPHY: COLUMN_TEMPERATURE 40 C
AC$CHROMATOGRAPHY: FLOW_GRADIENT A/B = (99.5%/0.5% at 0 min, 99.5%/0.5% at 0.1 min, 20%/80% at 10 min, 0.5%/99.5% at 10.1 min, 0.5%/99.5% at 12.0 min, 99.5%/0.5% at 12.1 min, 99.5%/0.5% at 15.0 min)
AC$CHROMATOGRAPHY: FLOW_RATE 0.3 ml/min at 0 min, 0.3 ml/min at 10 min, 0.4 ml/min at 10.1 min, 0.4 ml/min at 14.4 min, 0.3 ml/min at 14.5 min
AC$CHROMATOGRAPHY: RETENTION_TIME 4.68
AC$CHROMATOGRAPHY: SOLVENT A water including 0.1% formic acid
AC$CHROMATOGRAPHY: SOLVENT B acetonitrile including 0.1% formic acid
MS$FOCUSED_ION: PRECURSOR_TYPE [M+H]+
MS$FOCUSED_ION: PRECURSOR_M/Z 771.1978
PK$SPLASH: splash10-00di-0148571900-8e02c8b0a30e278c32a4
PK$NUM_PEAK: 168
PK$PEAK: m/z int. rel.int.
  92.18026 25.0 30
  95.05357 24.0 29
  107.05473 17.0 20
  147.05147 19.0 23
  149.06494 20.0 24
  149.72108 17.0 20
  154.8289 20.0 24
  166.09799 26.0 31
  193.04745 64.0 76
  197.75327 23.0 27
  206.05083 19.0 23
  216.07913 24.0 29
  217.0486 129.0 154
  234.26102 19.0 23
  235.06363 21.0 25
  241.04637 23.0 27
  241.05797 41.0 49
  251.09459 67.0 80
  253.26358 27.0 32
  257.08139 17.0 20
  259.05853 105.0 125
  259.06833 62.0 74
  260.0567 22.0 26
  274.09708 22.0 26
  278.07489 22.0 26
  283.06183 91.0 108
  283.07565 17.0 20
  284.0574 37.0 44
  287.05328 18.0 21
  301.04855 17.0 20
  301.07281 83.0 99
  301.31589 18.0 21
  304.79828 20.0 24
  315.10333 37.0 44
  317.09149 17.0 20
  318.69983 18.0 21
  323.09207 17.0 20
  324.08401 43.0 51
  325.05164 24.0 29
  325.07373 39.0 46
  325.29248 21.0 25
  326.06839 41.0 49
  328.04736 20.0 24
  338.10422 22.0 26
  338.11874 44.0 52
  339.08389 21.0 25
  341.10126 72.0 86
  342.08878 17.0 20
  343.07312 51.0 61
  343.08478 21.0 25
  344.08878 21.0 25
  350.20065 27.0 32
  354.09918 20.0 24
  359.10706 57.0 68
  363.05667 43.0 51
  365.08112 35.0 42
  365.09698 74.0 88
  366.10391 43.0 51
  367.0733 58.0 69
  367.09262 17.0 20
  368.09708 33.0 39
  375.06146 35.0 42
  379.10245 18.0 21
  379.12381 17.0 20
  381.1185 48.0 57
  383.08636 32.0 38
  383.10596 131.0 156
  384.10822 20.0 24
  384.12256 20.0 24
  389.08936 17.0 20
  389.1033 34.0 40
  389.12158 19.0 23
  391.09775 17.0 20
  397.11835 25.0 30
  398.14246 19.0 23
  405.08749 59.0 70
  407.11307 204.0 243
  419.77081 39.0 46
  425.1322 20.0 24
  425.14526 24.0 29
  426.1131 18.0 21
  427.12192 28.0 33
  429.08521 62.0 74
  431.10458 24.0 29
  431.12314 75.0 89
  435.11823 26.0 31
  443.7012 17.0 20
  445.125 19.0 23
  447.07858 20.0 24
  449.11511 70.0 83
  449.13177 17.0 20
  449.23145 21.0 25
  450.10803 36.0 43
  450.13739 23.0 27
  453.1431 28.0 33
  455.1264 18.0 21
  459.11725 17.0 20
  464.99796 19.0 23
  465.10333 23.0 27
  473.09457 20.0 24
  473.12314 41.0 49
  490.11969 42.0 50
  491.13785 22.0 26
  505.10345 19.0 23
  505.12616 17.0 20
  510.16116 29.0 35
  511.08572 20.0 24
  511.11462 76.0 90
  511.13712 20.0 24
  517.14075 26.0 31
  525.13879 18.0 21
  529.11688 34.0 40
  529.14252 64.0 76
  529.17664 18.0 21
  530.10724 54.0 64
  530.16248 18.0 21
  533.09253 17.0 20
  533.12085 19.0 23
  535.15802 27.0 32
  547.10852 28.0 33
  547.13757 90.0 107
  547.16858 36.0 43
  548.13049 78.0 93
  549.15723 17.0 20
  551.1145 23.0 27
  551.17676 23.0 27
  553.14032 41.0 49
  559.12817 24.0 29
  565.15381 105.0 125
  566.16467 42.0 50
  567.18304 23.0 27
  569.11676 18.0 21
  571.13898 57.0 68
  571.16754 22.0 26
  572.16119 40.0 48
  577.12732 20.0 24
  577.14551 21.0 25
  583.16241 17.0 20
  595.13525 91.0 108
  596.10114 19.0 23
  596.14752 35.0 42
  613.09888 45.0 54
  613.14789 88.0 105
  614.13611 17.0 20
  614.1817 25.0 30
  650.15643 20.0 24
  663.13 21.0 25
  681.14166 24.0 29
  682.13812 17.0 20
  699.15796 17.0 20
  700.1521 45.0 54
  717.12439 24.0 29
  717.16644 109.0 130
  717.20349 22.0 26
  718.15704 20.0 24
  735.17163 107.0 127
  735.20221 44.0 52
  735.22443 21.0 25
  736.06812 19.0 23
  736.09027 21.0 25
  736.16962 18.0 21
  736.19373 74.0 88
  738.17853 40.0 48
  753.14838 24.0 29
  753.19135 91.0 108
  754.19421 83.0 99
  771.09515 17.0 20
  771.20453 839.0 999
//
