ACCESSION: MSBNK-RIKEN-PR310515
RECORD_TITLE: Resibufogenin; LC-ESI-QTOF; MS2
DATE: 2019.03.28
AUTHORS: Tetsuya Mori, Center for Sustainable Resource Science, RIKEN
LICENSE: CC BY-NC-SA
PUBLICATION: Tsugawa H., Nakabayashi R., Mori T., Yamada Y., Takahashi M., Rai A., Sugiyama R., Yamamoto H., Nakaya T., Yamazaki M., Kooke R., Bac-Molenaar JA., Oztolan-Erol N., Keurentjes JJB., Arita M., Saito K. (2019) "A cheminformatics approach to characterize metabolomes in stable-isotope-labeled organisms" Nature Methods 16(4):295-298. [doi:10.1038/s41592-019-0358-2]
COMMENT: Annotation level-1
CH$NAME: Resibufogenin
CH$COMPOUND_CLASS: Bufanolides and derivatives
CH$FORMULA: C24H32O4
CH$EXACT_MASS: 384.516
CH$SMILES: C[C@]12CC[C@@H](C[C@H]1CC[C@@H]3[C@@H]2CC[C@]4([C@]35[C@H](O5)C[C@@H]4C6=COC(=O)C=C6)C)O
CH$IUPAC: InChI=1S/C24H32O4/c1-22-9-7-16(25)11-15(22)4-5-18-17(22)8-10-23(2)19(12-20-24(18,23)28-20)14-3-6-21(26)27-13-14/h3,6,13,15-20,25H,4-5,7-12H2,1-2H3/t15-,16+,17+,18-,19-,20-,22+,23-,24-/m1/s1
CH$LINK: INCHIKEY ATLJNLYIJOCWJE-CWMZOUAVSA-N
AC$INSTRUMENT: LC, Waters Acquity UPLC System; MS, Waters Xevo G2 Q-Tof
AC$INSTRUMENT_TYPE: LC-ESI-QTOF
AC$MASS_SPECTROMETRY: MS_TYPE MS2
AC$MASS_SPECTROMETRY: ION_MODE POSITIVE
AC$MASS_SPECTROMETRY: COLLISION_ENERGY 6V
AC$MASS_SPECTROMETRY: DESOLVATION_GAS_FLOW 800/h
AC$MASS_SPECTROMETRY: DESOLVATION_TEMPERATURE 450 C
AC$MASS_SPECTROMETRY: IONIZATION ESI
AC$CHROMATOGRAPHY: CAPILLARY_VOLTAGE +3.00 kV
AC$CHROMATOGRAPHY: COLUMN_NAME Acquity bridged ethyl hybrid C18 (1.7 um, 2.1 mm * 100 mm, Waters)
AC$CHROMATOGRAPHY: COLUMN_TEMPERATURE 40 C
AC$CHROMATOGRAPHY: FLOW_GRADIENT A/B = (99.5%/0.5% at 0 min, 99.5%/0.5% at 0.1 min, 20%/80% at 10 min, 0.5%/99.5% at 10.1 min, 0.5%/99.5% at 12.0 min, 99.5%/0.5% at 12.1 min, 99.5%/0.5% at 15.0 min)
AC$CHROMATOGRAPHY: FLOW_RATE 0.3 ml/min at 0 min, 0.3 ml/min at 10 min, 0.4 ml/min at 10.1 min, 0.4 ml/min at 14.4 min, 0.3 ml/min at 14.5 min
AC$CHROMATOGRAPHY: RETENTION_TIME 7.56
AC$CHROMATOGRAPHY: SOLVENT A water including 0.1% formic acid
AC$CHROMATOGRAPHY: SOLVENT B acetonitrile including 0.1% formic acid
MS$FOCUSED_ION: PRECURSOR_TYPE [M+H]+
MS$FOCUSED_ION: PRECURSOR_M/Z 385.23734
PK$SPLASH: splash10-000i-0539000000-dc3fac95a9be186d4e11
PK$NUM_PEAK: 614
PK$PEAK: m/z int. rel.int.
  55.01478 35.0 1
  57.0705 17.0 1
  67.05491 63.0 2
  69.07396 18.0 1
  74.30552 43.0 2
  74.74911 39.0 2
  78.99201 19.0 1
  79.0499 51.0 2
  79.05357 66.0 3
  81.06641 39.0 2
  81.07292 124.0 5
  83.08294 24.0 1
  83.08859 23.0 1
  84.08762 26.0 1
  91.05304 257.0 10
  93.06991 244.0 10
  94.07243 47.0 2
  94.34647 19.0 1
  95.01391 22.0 1
  95.03209 18.0 1
  95.04428 38.0 2
  95.05309 30.0 1
  95.08904 159.0 6
  96.0871 18.0 1
  97.02571 20.0 1
  97.10327 17.0 1
  98.10405 22.0 1
  99.47906 19.0 1
  105.0696 480.0 19
  106.07705 38.0 2
  107.03879 52.0 2
  107.05199 45.0 2
  107.08461 313.0 12
  108.08939 81.0 3
  109.02565 89.0 4
  109.09909 127.0 5
  109.10404 50.0 2
  111.04536 29.0 1
  114.88332 39.0 2
  115.05806 24.0 1
  116.05212 25.0 1
  116.06063 20.0 1
  117.06893 101.0 4
  118.06769 24.0 1
  119.05872 42.0 2
  119.08575 518.0 20
  120.08616 20.0 1
  121.06223 71.0 3
  121.06904 52.0 2
  121.10121 282.0 11
  122.10338 48.0 2
  122.99739 37.0 1
  123.02563 23.0 1
  123.03548 37.0 1
  123.04453 104.0 4
  123.12357 41.0 2
  124.04259 21.0 1
  125.02686 36.0 1
  125.09773 22.0 1
  127.03925 17.0 1
  127.05733 23.0 1
  129.07346 133.0 5
  130.79387 17.0 1
  131.07411 80.0 3
  131.08418 383.0 15
  132.08463 61.0 2
  132.09396 94.0 4
  132.49345 17.0 1
  133.05894 27.0 1
  133.06712 59.0 2
  133.09688 154.0 6
  133.10196 322.0 13
  134.10767 61.0 2
  135.04237 22.0 1
  135.07997 63.0 2
  135.117 199.0 8
  136.04321 19.0 1
  136.12175 17.0 1
  137.088 26.0 1
  139.04085 52.0 2
  139.38805 17.0 1
  141.05775 22.0 1
  141.07172 49.0 2
  141.08209 22.0 1
  141.72667 26.0 1
  142.06625 21.0 1
  142.07971 47.0 2
  143.03062 17.0 1
  143.0851 449.0 18
  144.08902 106.0 4
  144.09668 101.0 4
  144.24237 17.0 1
  145.06599 127.0 5
  145.09973 615.0 24
  146.10486 90.0 4
  147.0352 21.0 1
  147.04448 18.0 1
  147.07275 19.0 1
  147.08072 85.0 3
  147.11848 552.0 22
  148.03955 17.0 1
  148.09856 18.0 1
  148.11839 102.0 4
  148.12617 28.0 1
  149.04712 17.0 1
  149.06065 108.0 4
  149.0876 24.0 1
  149.09985 43.0 2
  149.13161 364.0 14
  150.1265 60.0 2
  150.13817 19.0 1
  151.03749 206.0 8
  151.04446 91.0 4
  151.07762 28.0 1
  151.11006 20.0 1
  151.15303 23.0 1
  152.03807 29.0 1
  152.06364 20.0 1
  153.04645 56.0 2
  153.05971 79.0 3
  153.07219 20.0 1
  154.08025 34.0 1
  155.08618 152.0 6
  156.09343 19.0 1
  156.78961 19.0 1
  157.06776 65.0 3
  157.0985 237.0 9
  158.07198 20.0 1
  158.1075 60.0 2
  159.04463 57.0 2
  159.0798 329.0 13
  159.11665 761.0 30
  160.08899 36.0 1
  160.11496 17.0 1
  160.12399 80.0 3
  161.05121 19.0 1
  161.05983 43.0 2
  161.09433 222.0 9
  161.11568 37.0 1
  161.12872 307.0 12
  161.13669 288.0 11
  162.06468 18.0 1
  162.1201 17.0 1
  162.13319 84.0 3
  163.06461 17.0 1
  163.07626 145.0 6
  163.09366 19.0 1
  163.11307 20.0 1
  163.14357 42.0 2
  163.15405 47.0 2
  163.16161 22.0 1
  164.08299 20.0 1
  164.14171 20.0 1
  165.06909 18.0 1
  165.07764 26.0 1
  165.08653 46.0 2
  165.21173 20.0 1
  165.72244 21.0 1
  166.06342 35.0 1
  167.07481 175.0 7
  167.08688 100.0 4
  168.08617 28.0 1
  168.09441 23.0 1
  168.10655 18.0 1
  169.05331 20.0 1
  169.07101 55.0 2
  169.07982 20.0 1
  169.10072 207.0 8
  169.11362 20.0 1
  170.06631 18.0 1
  170.10822 73.0 3
  171.07709 116.0 5
  171.09108 21.0 1
  171.11499 252.0 10
  171.12994 47.0 2
  171.62733 20.0 1
  172.1201 38.0 2
  173.05687 30.0 1
  173.06512 49.0 2
  173.10269 27.0 1
  173.132 403.0 16
  174.06787 29.0 1
  175.07887 93.0 4
  175.10846 58.0 2
  175.14465 147.0 6
  175.15294 110.0 4
  175.74823 17.0 1
  176.11494 17.0 1
  176.14388 21.0 1
  176.15082 18.0 1
  176.1636 28.0 1
  177.04756 23.0 1
  177.05553 39.0 2
  177.06395 20.0 1
  177.07544 18.0 1
  177.09047 48.0 2
  177.09865 79.0 3
  177.12523 39.0 2
  177.1483 27.0 1
  178.05705 18.0 1
  178.07814 19.0 1
  178.09729 20.0 1
  179.06604 41.0 2
  179.08081 42.0 2
  179.09259 32.0 1
  179.45161 35.0 1
  180.09013 50.0 2
  180.09598 22.0 1
  180.15179 22.0 1
  181.09863 218.0 9
  182.09024 17.0 1
  182.0963 48.0 2
  182.11766 17.0 1
  183.1133 124.0 5
  183.12654 38.0 2
  184.07771 24.0 1
  184.12445 137.0 5
  184.16293 40.0 2
  185.06496 21.0 1
  185.09177 42.0 2
  185.09845 37.0 1
  185.12218 104.0 4
  185.13237 302.0 12
  186.09358 20.0 1
  186.13431 101.0 4
  186.14569 41.0 2
  187.06567 44.0 2
  187.0762 213.0 8
  187.10928 60.0 2
  187.14665 142.0 6
  188.07611 45.0 2
  188.15672 25.0 1
  189.09233 162.0 6
  189.16109 72.0 3
  190.09021 49.0 2
  190.10707 17.0 1
  190.12653 17.0 1
  191.06255 40.0 2
  191.07361 179.0 7
  191.09863 21.0 1
  191.10855 72.0 3
  191.11896 26.0 1
  192.06726 22.0 1
  192.10094 20.0 1
  193.08424 87.0 3
  193.10257 145.0 6
  194.09195 24.0 1
  194.10234 18.0 1
  195.06717 18.0 1
  195.11473 84.0 3
  195.1234 63.0 2
  196.08044 26.0 1
  196.12096 20.0 1
  197.05598 42.0 2
  197.09669 17.0 1
  197.13367 232.0 9
  197.47041 21.0 1
  198.05573 50.0 2
  198.10274 18.0 1
  199.07338 129.0 5
  199.09241 17.0 1
  199.1013 19.0 1
  199.11615 42.0 2
  199.13022 21.0 1
  199.14803 286.0 11
  200.0761 50.0 2
  200.11295 17.0 1
  200.15706 46.0 2
  201.08131 23.0 1
  201.09563 114.0 5
  201.1107 26.0 1
  201.12042 47.0 2
  201.13258 18.0 1
  201.16176 84.0 3
  201.5218 29.0 1
  202.09581 54.0 2
  202.16776 17.0 1
  203.07462 92.0 4
  203.09425 22.0 1
  203.10574 84.0 3
  203.11513 22.0 1
  203.12996 21.0 1
  204.07306 21.0 1
  204.11337 29.0 1
  205.06894 20.0 1
  205.08617 291.0 11
  205.09589 118.0 5
  205.12817 18.0 1
  206.08363 89.0 4
  206.0957 32.0 1
  207.07281 42.0 2
  207.08775 35.0 1
  207.10185 33.0 1
  207.11824 159.0 6
  208.12376 23.0 1
  209.08682 17.0 1
  209.09433 20.0 1
  209.12523 27.0 1
  209.13574 124.0 5
  210.10289 24.0 1
  210.14148 59.0 2
  211.0414 20.0 1
  211.10609 102.0 4
  211.1178 54.0 2
  211.14749 204.0 8
  211.2019 24.0 1
  212.10686 34.0 1
  212.14346 37.0 1
  212.15146 17.0 1
  213.09671 72.0 3
  213.12253 38.0 2
  213.13441 57.0 2
  213.14748 18.0 1
  213.16414 155.0 6
  214.09346 44.0 2
  214.1241 18.0 1
  215.0826 34.0 1
  215.17259 34.0 1
  215.18628 103.0 4
  216.10408 21.0 1
  216.11626 17.0 1
  216.19069 111.0 4
  216.3801 18.0 1
  217.08569 140.0 6
  217.10681 17.0 1
  217.19217 38.0 2
  218.10942 17.0 1
  219.10231 211.0 8
  219.11646 19.0 1
  219.13037 20.0 1
  220.09969 31.0 1
  220.22354 17.0 1
  221.08821 20.0 1
  221.10391 40.0 2
  221.12697 93.0 4
  222.13486 17.0 1
  222.14664 30.0 1
  223.10568 17.0 1
  223.11638 46.0 2
  223.14543 17.0 1
  224.15466 18.0 1
  225.08485 17.0 1
  225.09625 36.0 1
  225.11531 17.0 1
  225.12733 88.0 3
  225.15584 52.0 2
  225.16605 39.0 2
  225.17769 49.0 2
  225.24054 18.0 1
  226.09511 18.0 1
  226.136 24.0 1
  226.15855 32.0 1
  227.09419 20.0 1
  227.10443 59.0 2
  227.11246 40.0 2
  227.13956 51.0 2
  227.14771 63.0 2
  227.17131 80.0 3
  227.18532 60.0 2
  228.12486 19.0 1
  228.18102 20.0 1
  228.29903 27.0 1
  229.10983 69.0 3
  229.12637 25.0 1
  229.13458 18.0 1
  229.15236 31.0 1
  229.18913 85.0 3
  229.20239 81.0 3
  230.20515 71.0 3
  231.08943 19.0 1
  231.10001 28.0 1
  231.10805 26.0 1
  231.12344 17.0 1
  231.14085 106.0 4
  231.49405 17.0 1
  232.11093 19.0 1
  232.11792 42.0 2
  232.13492 18.0 1
  232.14278 18.0 1
  233.13132 75.0 3
  233.14078 21.0 1
  235.117 31.0 1
  235.14458 20.0 1
  235.15565 32.0 1
  236.14371 60.0 2
  237.06892 21.0 1
  237.08778 22.0 1
  237.12985 46.0 2
  237.52844 18.0 1
  239.10181 181.0 7
  239.13347 26.0 1
  239.17523 29.0 1
  239.18407 65.0 3
  240.10973 42.0 2
  240.13824 17.0 1
  240.1864 26.0 1
  240.19868 17.0 1
  241.12268 352.0 14
  242.11452 26.0 1
  242.12405 21.0 1
  242.13701 17.0 1
  243.09865 18.0 1
  243.11342 29.0 1
  243.12492 55.0 2
  243.14362 57.0 2
  245.11891 59.0 2
  245.12651 21.0 1
  245.14497 18.0 1
  245.16104 41.0 2
  247.13124 38.0 2
  247.14302 99.0 4
  248.15691 17.0 1
  249.12354 24.0 1
  249.16411 25.0 1
  249.40526 27.0 1
  250.13089 35.0 1
  250.16478 47.0 2
  250.17711 47.0 2
  251.13727 36.0 1
  251.17766 22.0 1
  251.19337 23.0 1
  252.14847 18.0 1
  252.17665 17.0 1
  252.19164 78.0 3
  253.02882 25.0 1
  253.1179 84.0 3
  253.12889 107.0 4
  253.19563 975.0 39
  254.11295 28.0 1
  254.19891 222.0 9
  255.11412 18.0 1
  255.14244 106.0 4
  255.17001 30.0 1
  255.20987 822.0 32
  256.12 18.0 1
  256.14569 45.0 2
  256.20682 77.0 3
  256.22052 83.0 3
  257.1163 71.0 3
  259.1199 49.0 2
  259.1413 82.0 3
  259.73599 20.0 1
  260.12842 18.0 1
  260.14813 17.0 1
  261.14935 38.0 2
  261.16159 92.0 4
  262.16507 31.0 1
  263.15622 18.0 1
  265.1127 20.0 1
  265.12625 65.0 3
  265.15112 26.0 1
  265.2027 20.0 1
  265.38977 22.0 1
  265.90277 24.0 1
  266.21338 22.0 1
  267.13379 85.0 3
  267.14612 39.0 2
  267.16858 20.0 1
  267.17929 20.0 1
  267.21265 17.0 1
  268.15036 23.0 1
  268.17328 19.0 1
  268.2067 17.0 1
  269.15298 21.0 1
  270.14752 21.0 1
  271.13019 90.0 4
  271.14069 68.0 3
  271.18082 19.0 1
  271.19858 222.0 9
  271.21042 416.0 16
  272.13113 27.0 1
  272.19989 45.0 2
  272.21561 42.0 2
  273.1355 17.0 1
  273.17093 30.0 1
  273.22513 61.0 2
  274.18066 21.0 1
  274.22928 24.0 1
  274.27139 20.0 1
  275.14221 42.0 2
  275.16855 19.0 1
  275.17661 50.0 2
  275.95874 35.0 1
  277.19519 20.0 1
  279.00305 18.0 1
  279.14148 27.0 1
  279.20303 51.0 2
  279.22021 40.0 2
  279.43488 22.0 1
  280.18076 20.0 1
  280.18951 20.0 1
  280.21915 40.0 2
  281.17859 30.0 1
  281.20648 23.0 1
  281.22559 90.0 4
  282.23572 29.0 1
  283.16544 17.0 1
  285.13495 17.0 1
  285.14819 55.0 2
  285.16174 18.0 1
  286.05511 17.0 1
  286.1582 33.0 1
  286.17096 26.0 1
  287.19492 48.0 2
  288.18726 27.0 1
  289.15033 21.0 1
  289.15805 59.0 2
  289.18704 60.0 2
  289.19952 20.0 1
  289.22705 21.0 1
  291.17038 24.0 1
  292.18552 19.0 1
  292.94882 20.0 1
  293.14389 18.0 1
  293.18698 30.0 1
  293.2114 19.0 1
  293.23288 61.0 2
  294.14819 18.0 1
  294.15616 47.0 2
  294.16766 42.0 2
  294.23315 32.0 1
  295.16806 24.0 1
  295.23486 24.0 1
  295.24734 17.0 1
  297.1983 30.0 1
  297.54941 24.0 1
  298.18338 19.0 1
  299.15427 29.0 1
  299.16653 26.0 1
  301.20163 20.0 1
  301.21942 34.0 1
  301.42551 25.0 1
  303.12128 21.0 1
  303.21707 106.0 4
  304.03165 23.0 1
  304.20642 21.0 1
  304.22073 17.0 1
  305.17886 21.0 1
  305.22787 24.0 1
  306.18414 33.0 1
  306.20459 17.0 1
  306.23892 29.0 1
  307.1633 35.0 1
  307.20462 50.0 2
  308.94907 18.0 1
  310.2179 20.0 1
  311.03238 19.0 1
  311.17026 29.0 1
  312.1712 32.0 1
  312.18286 26.0 1
  313.19363 18.0 1
  313.21729 18.0 1
  315.71274 17.0 1
  316.18054 35.0 1
  317.18884 20.0 1
  317.2276 20.0 1
  320.89606 18.0 1
  321.20239 82.0 3
  321.21472 122.0 5
  321.23093 111.0 4
  322.18845 28.0 1
  322.20947 38.0 2
  322.22711 34.0 1
  323.16956 35.0 1
  323.21802 20.0 1
  323.2345 66.0 3
  324.22656 17.0 1
  325.20737 19.0 1
  325.24863 28.0 1
  329.18649 18.0 1
  331.19446 66.0 3
  331.20428 189.0 7
  331.22675 18.0 1
  336.73383 18.0 1
  339.19196 92.0 4
  339.23224 344.0 14
  340.21497 17.0 1
  340.24039 178.0 7
  341.90421 17.0 1
  348.96289 17.0 1
  349.18079 17.0 1
  349.21506 1302.0 51
  349.38565 36.0 1
  349.49854 20.0 1
  349.56696 24.0 1
  350.21274 180.0 7
  350.22943 188.0 7
  351.21982 58.0 2
  357.24225 92.0 4
  358.30975 24.0 1
  366.88684 18.0 1
  367.16037 24.0 1
  367.22699 1599.0 63
  367.26642 20.0 1
  368.04834 18.0 1
  368.06253 19.0 1
  368.19632 24.0 1
  368.21347 64.0 3
  368.23047 409.0 16
  369.1785 26.0 1
  369.24988 105.0 4
  370.2309 20.0 1
  372.75714 21.0 1
  372.81616 17.0 1
  380.71677 21.0 1
  384.24606 17.0 1
  384.5752 17.0 1
  385.0889 20.0 1
  385.16379 46.0 2
  385.17651 41.0 2
  385.20111 85.0 3
  385.23782 25290.0 999
  385.29456 560.0 22
  385.38977 45.0 2
//
