ACCESSION: MSBNK-RIKEN-PR308086
RECORD_TITLE: Luteolinidin; LC-ESI-QTOF; MS2
DATE: 2019.03.28
AUTHORS: Tetsuya Mori, Center for Sustainable Resource Science, RIKEN
LICENSE: CC BY-NC-SA
PUBLICATION: Tsugawa H., Nakabayashi R., Mori T., Yamada Y., Takahashi M., Rai A., Sugiyama R., Yamamoto H., Nakaya T., Yamazaki M., Kooke R., Bac-Molenaar JA., Oztolan-Erol N., Keurentjes JJB., Arita M., Saito K. (2019) "A cheminformatics approach to characterize metabolomes in stable-isotope-labeled organisms" Nature Methods 16(4):295-298. [doi:10.1038/s41592-019-0358-2]
COMMENT: registered in RIKEN PlaSMA
CH$NAME: Luteolinidin
CH$COMPOUND_CLASS: 7-hydroxyflavonoids
CH$FORMULA: C15H10O5
CH$EXACT_MASS: 270.24
CH$SMILES: OC1=CC(O)=C2C=CC(=[O+]C2=C1)C1=CC([O-])=C(O)C=C1
CH$IUPAC: InChI=1S/C15H10O5/c16-9-6-12(18)10-2-4-14(20-15(10)7-9)8-1-3-11(17)13(19)5-8/h1-7H,(H3-,16,17,18,19)
CH$LINK: INCHIKEY GDNIGMNXEKGFIP-UHFFFAOYSA-N
AC$INSTRUMENT: LC, Waters Acquity UPLC System; MS, Waters Xevo G2 Q-Tof
AC$INSTRUMENT_TYPE: LC-ESI-QTOF
AC$MASS_SPECTROMETRY: MS_TYPE MS2
AC$MASS_SPECTROMETRY: ION_MODE NEGATIVE
AC$MASS_SPECTROMETRY: COLLISION_ENERGY 6V
AC$MASS_SPECTROMETRY: DESOLVATION_GAS_FLOW 800/h
AC$MASS_SPECTROMETRY: DESOLVATION_TEMPERATURE 450 C
AC$MASS_SPECTROMETRY: IONIZATION ESI
AC$CHROMATOGRAPHY: CAPILLARY_VOLTAGE -2.75 kV
AC$CHROMATOGRAPHY: COLUMN_NAME Acquity bridged ethyl hybrid C18 (1.7 um, 2.1 mm * 100 mm, Waters)
AC$CHROMATOGRAPHY: COLUMN_TEMPERATURE 40 C
AC$CHROMATOGRAPHY: FLOW_GRADIENT A/B = (99.5%/0.5% at 0 min, 99.5%/0.5% at 0.1 min, 20%/80% at 10 min, 0.5%/99.5% at 10.1 min, 0.5%/99.5% at 12.0 min, 99.5%/0.5% at 12.1 min, 99.5%/0.5% at 15.0 min)
AC$CHROMATOGRAPHY: FLOW_RATE 0.3 ml/min at 0 min, 0.3 ml/min at 10 min, 0.4 ml/min at 10.1 min, 0.4 ml/min at 14.4 min, 0.3 ml/min at 14.5 min
AC$CHROMATOGRAPHY: RETENTION_TIME 3.586583
AC$CHROMATOGRAPHY: SOLVENT A water including 0.1% formic acid
AC$CHROMATOGRAPHY: SOLVENT B acetonitrile including 0.1% formic acid
MS$FOCUSED_ION: PRECURSOR_TYPE [M-H]-
MS$FOCUSED_ION: PRECURSOR_M/Z 269.04554694783
PK$SPLASH: splash10-014i-0390000000-df235da3b04e8c7d837e
PK$NUM_PEAK: 38
PK$PEAK: m/z int. rel.int.
  91.00034 13.0 13
  130.04041 12.0 12
  133.0285 12.0 12
  155.04922 24.0 24
  158.04242 11.0 11
  160.01585 11.0 11
  161.02428 11.0 11
  167.04866 11.0 11
  169.02159 20.0 20
  169.05823 10.0 10
  170.04176 11.0 11
  171.04721 12.0 12
  173.05605 11.0 11
  180.05107 10.0 10
  180.06213 10.0 10
  182.03304 23.0 23
  183.03166 10.0 10
  183.04062 12.0 12
  184.0585 10.0 10
  185.04486 12.0 12
  185.06029 10.0 10
  185.06883 18.0 18
  187.03528 22.0 22
  195.04378 13.0 13
  196.0537 13.0 13
  197.05875 52.0 52
  199.02597 21.0 21
  200.04585 15.0 15
  201.04593 10.0 10
  209.04623 11.0 11
  211.04037 10.0 10
  211.0547 16.0 16
  212.04729 10.0 10
  213.05754 12.0 12
  226.02428 36.0 36
  227.03281 12.0 12
  241.05022 10.0 10
  269.04495 1000.0 999
//
