ACCESSION: MSBNK-RIKEN-PR300467
RECORD_TITLE: Sinomenine; LC-ESI-QTOF; MS2
DATE: 2019.03.28
AUTHORS: Tetsuya Mori, Center for Sustainable Resource Science, RIKEN
LICENSE: CC BY-NC-SA
PUBLICATION: Tsugawa H., Nakabayashi R., Mori T., Yamada Y., Takahashi M., Rai A., Sugiyama R., Yamamoto H., Nakaya T., Yamazaki M., Kooke R., Bac-Molenaar JA., Oztolan-Erol N., Keurentjes JJB., Arita M., Saito K. (2019) "A cheminformatics approach to characterize metabolomes in stable-isotope-labeled organisms" Nature Methods 16(4):295-298. [doi:10.1038/s41592-019-0358-2]
COMMENT: registered in RIKEN PlaSMA
CH$NAME: Sinomenine
CH$COMPOUND_CLASS: Morphinans
CH$FORMULA: C19H23NO4
CH$EXACT_MASS: 329.396
CH$SMILES: COC1=C[C@@H]2[C@@H]3CC4=C(C(O)=C(OC)C=C4)[C@]2(CCN3C)CC1=O
CH$IUPAC: InChI=1S/C19H23NO4/c1-20-7-6-19-10-14(21)16(24-3)9-12(19)13(20)8-11-4-5-15(23-2)18(22)17(11)19/h4-5,9,12-13,22H,6-8,10H2,1-3H3/t12-,13+,19-/m1/s1
CH$LINK: INCHIKEY INYYVPJSBIVGPH-QHRIQVFBSA-N
AC$INSTRUMENT: LC, Waters Acquity UPLC System; MS, Waters Xevo G2 Q-Tof
AC$INSTRUMENT_TYPE: LC-ESI-QTOF
AC$MASS_SPECTROMETRY: MS_TYPE MS2
AC$MASS_SPECTROMETRY: ION_MODE POSITIVE
AC$MASS_SPECTROMETRY: COLLISION_ENERGY 6V
AC$MASS_SPECTROMETRY: DESOLVATION_GAS_FLOW 800/h
AC$MASS_SPECTROMETRY: DESOLVATION_TEMPERATURE 450 C
AC$MASS_SPECTROMETRY: IONIZATION ESI
AC$CHROMATOGRAPHY: CAPILLARY_VOLTAGE +3.00 kV
AC$CHROMATOGRAPHY: COLUMN_NAME Acquity bridged ethyl hybrid C18 (1.7 um, 2.1 mm * 100 mm, Waters)
AC$CHROMATOGRAPHY: COLUMN_TEMPERATURE 40 C
AC$CHROMATOGRAPHY: FLOW_GRADIENT A/B = (99.5%/0.5% at 0 min, 99.5%/0.5% at 0.1 min, 20%/80% at 10 min, 0.5%/99.5% at 10.1 min, 0.5%/99.5% at 12.0 min, 99.5%/0.5% at 12.1 min, 99.5%/0.5% at 15.0 min)
AC$CHROMATOGRAPHY: FLOW_RATE 0.3 ml/min at 0 min, 0.3 ml/min at 10 min, 0.4 ml/min at 10.1 min, 0.4 ml/min at 14.4 min, 0.3 ml/min at 14.5 min
AC$CHROMATOGRAPHY: RETENTION_TIME 3.033383
AC$CHROMATOGRAPHY: SOLVENT A water including 0.1% formic acid
AC$CHROMATOGRAPHY: SOLVENT B acetonitrile including 0.1% formic acid
MS$FOCUSED_ION: PRECURSOR_TYPE [M+H]+
MS$FOCUSED_ION: PRECURSOR_M/Z 330.1699847
PK$SPLASH: splash10-0udi-0910000000-6f1e172ccdff68298c36
PK$NUM_PEAK: 228
PK$PEAK: m/z int. rel.int.
  58.06681 22.0 22
  60.0792 8.0 8
  80.05747 6.0 6
  83.04464 7.0 7
  83.04918 11.0 11
  90.05291 8.0 8
  91.05533 58.0 58
  92.05167 6.0 6
  92.05717 6.0 6
  92.0641 9.0 9
  93.07036 9.0 9
  94.04774 10.0 10
  97.04958 6.0 6
  99.04221 5.0 5
  103.04999 7.0 7
  107.04691 5.0 5
  111.04488 16.0 16
  114.03966 5.0 5
  115.05244 58.0 58
  115.63399 6.0 6
  115.98224 6.0 6
  116.06301 5.0 5
  119.04986 7.0 7
  119.06561 6.0 6
  122.03325 25.0 25
  122.09892 8.0 8
  123.08231 30.0 30
  125.04214 5.0 5
  127.05647 35.0 35
  128.06113 42.0 42
  129.06323 14.0 14
  129.07269 11.0 11
  130.06882 14.0 14
  131.04269 6.0 6
  131.04817 13.0 13
  131.08896 16.0 16
  132.03401 6.0 6
  133.05482 9.0 9
  136.41891 6.0 6
  137.05913 43.0 43
  139.04074 8.0 8
  139.05376 62.0 62
  140.06126 163.0 163
  141.07043 77.0 77
  142.0737 27.0 27
  142.08194 26.0 26
  144.05684 72.0 72
  145.06071 14.0 14
  146.02882 6.0 6
  150.05069 9.0 9
  150.09035 67.0 67
  151.05429 396.0 396
  152.03511 7.0 7
  152.06094 973.0 972
  153.04884 20.0 20
  153.0696 1000.0 999
  154.07347 121.0 121
  155.04655 50.0 50
  155.0847 40.0 40
  155.10638 8.0 8
  156.05629 26.0 26
  157.05382 9.0 9
  157.06287 23.0 23
  157.10501 9.0 9
  159.03143 6.0 6
  159.04016 6.0 6
  159.05052 8.0 8
  159.07652 7.0 7
  160.0757 16.0 16
  161.05948 13.0 13
  164.06323 42.0 42
  165.07092 379.0 379
  166.07486 119.0 119
  166.0827 30.0 30
  167.04689 11.0 11
  167.05568 13.0 13
  167.08481 80.0 80
  167.09187 28.0 28
  168.05823 431.0 431
  168.07767 24.0 24
  168.09027 13.0 13
  169.05513 27.0 27
  169.0656 135.0 135
  169.11462 5.0 5
  170.03322 9.0 9
  170.07149 23.0 23
  170.07698 43.0 43
  171.04149 21.0 21
  171.07611 12.0 12
  171.08414 7.0 7
  172.02782 6.0 6
  172.04382 29.0 29
  172.0519 62.0 62
  172.06435 9.0 9
  173.05734 16.0 16
  176.05695 35.0 35
  176.06607 14.0 14
  177.06395 27.0 27
  177.07547 13.0 13
  178.06284 11.0 11
  178.07851 145.0 145
  179.0296 8.0 8
  179.05002 189.0 189
  179.07335 20.0 20
  179.07922 50.0 50
  179.08698 38.0 38
  180.05664 204.0 204
  180.07567 9.0 9
  181.06468 492.0 492
  181.08664 14.0 14
  181.76974 7.0 7
  182.05177 10.0 10
  182.06871 77.0 77
  182.0769 37.0 37
  182.09593 10.0 10
  183.03741 8.0 8
  183.04967 9.0 9
  183.08102 50.0 50
  184.01973 6.0 6
  184.0464 7.0 7
  184.05524 27.0 27
  185.05487 29.0 29
  185.06306 15.0 15
  185.0927 5.0 5
  185.10532 12.0 12
  186.06677 19.0 19
  187.03535 6.0 6
  187.07333 33.0 33
  189.07167 39.0 39
  191.0864 6.0 6
  192.0547 17.0 17
  192.08694 7.0 7
  192.10255 10.0 10
  192.51471 9.0 9
  193.06157 24.0 24
  194.0658 15.0 15
  194.07437 19.0 19
  194.28123 6.0 6
  195.03752 24.0 24
  195.04825 10.0 10
  195.06761 8.0 8
  195.08186 73.0 73
  196.02953 19.0 19
  196.04793 65.0 65
  196.05533 89.0 89
  196.06769 15.0 15
  196.08022 18.0 18
  196.09183 21.0 21
  196.09811 6.0 6
  196.44283 5.0 5
  197.05894 136.0 136
  197.07239 14.0 14
  197.09584 8.0 8
  198.06055 41.0 41
  198.06743 42.0 42
  198.08846 8.0 8
  198.45604 5.0 5
  199.03186 7.0 7
  199.07695 67.0 67
  199.09612 8.0 8
  199.20753 6.0 6
  200.07578 7.0 7
  200.25864 6.0 6
  201.05083 13.0 13
  201.0759 13.0 13
  201.09029 8.0 8
  204.078 6.0 6
  205.06868 29.0 29
  206.06104 8.0 8
  206.07248 9.0 9
  206.285 7.0 7
  207.01901 14.0 14
  207.0451 426.0 426
  207.08173 33.0 33
  207.0934 8.0 8
  208.04245 38.0 38
  208.05032 88.0 88
  208.0589 30.0 30
  208.07791 8.0 8
  208.10747 5.0 5
  209.04715 6.0 6
  209.06474 93.0 93
  210.05453 5.0 5
  210.06778 23.0 23
  211.0771 58.0 58
  211.09926 11.0 11
  212.06398 6.0 6
  212.07567 21.0 21
  212.08514 8.0 8
  212.10437 13.0 13
  213.05432 5.0 5
  213.07468 6.0 6
  213.088 12.0 12
  215.06586 11.0 11
  216.08186 6.0 6
  220.09709 6.0 6
  221.05365 12.0 12
  221.06807 14.0 14
  223.07788 29.0 29
  224.04443 23.0 23
  224.06935 6.0 6
  224.08383 9.0 9
  224.3515 6.0 6
  225.04796 12.0 12
  225.0591 13.0 13
  225.08275 15.0 15
  225.09755 11.0 11
  226.07306 20.0 20
  227.07149 12.0 12
  228.08615 12.0 12
  229.07735 6.0 6
  229.0894 15.0 15
  230.09549 19.0 19
  235.06767 5.0 5
  237.07294 7.0 7
  238.10414 5.0 5
  239.06918 12.0 12
  241.07811 5.0 5
  242.05827 6.0 6
  251.07713 7.0 7
  257.11905 5.0 5
  258.0708 5.0 5
  258.91489 6.0 6
  264.08228 5.0 5
  280.13382 6.0 6
  327.7713 6.0 6
  330.15765 14.0 14
  330.17068 8.0 8
//
