ACCESSION: MSBNK-RIKEN-PR301656
RECORD_TITLE: Sanguinarine; LC-ESI-QTOF; MS2
DATE: 2019.03.28
AUTHORS: Tetsuya Mori, Center for Sustainable Resource Science, RIKEN
LICENSE: CC BY-NC-SA
PUBLICATION: Tsugawa H., Nakabayashi R., Mori T., Yamada Y., Takahashi M., Rai A., Sugiyama R., Yamamoto H., Nakaya T., Yamazaki M., Kooke R., Bac-Molenaar JA., Oztolan-Erol N., Keurentjes JJB., Arita M., Saito K. (2019) "A cheminformatics approach to characterize metabolomes in stable-isotope-labeled organisms" Nature Methods 16(4):295-298. [doi:10.1038/s41592-019-0358-2]
COMMENT: registered in RIKEN PlaSMA
CH$NAME: Sanguinarine
CH$COMPOUND_CLASS: Quaternary benzophenanthridine alkaloids
CH$FORMULA: [C20H14NO4]+
CH$EXACT_MASS: 332.335
CH$SMILES: C[N+]1=CC2=C3OCOC3=CC=C2C2=C1C1=CC3=C(OCO3)C=C1C=C2
CH$IUPAC: InChI=1S/C20H14NO4/c1-21-8-15-12(4-5-16-20(15)25-10-22-16)13-3-2-11-6-17-18(24-9-23-17)7-14(11)19(13)21/h2-8H,9-10H2,1H3/q+1
CH$LINK: INCHIKEY INVGWHRKADIJHF-UHFFFAOYSA-N
AC$INSTRUMENT: LC, Waters Acquity UPLC System; MS, Waters Xevo G2 Q-Tof
AC$INSTRUMENT_TYPE: LC-ESI-QTOF
AC$MASS_SPECTROMETRY: MS_TYPE MS2
AC$MASS_SPECTROMETRY: ION_MODE POSITIVE
AC$MASS_SPECTROMETRY: COLLISION_ENERGY 6V
AC$MASS_SPECTROMETRY: DESOLVATION_GAS_FLOW 800/h
AC$MASS_SPECTROMETRY: DESOLVATION_TEMPERATURE 450 C
AC$MASS_SPECTROMETRY: IONIZATION ESI
AC$CHROMATOGRAPHY: CAPILLARY_VOLTAGE +3.00 kV
AC$CHROMATOGRAPHY: COLUMN_NAME Acquity bridged ethyl hybrid C18 (1.7 um, 2.1 mm * 100 mm, Waters)
AC$CHROMATOGRAPHY: COLUMN_TEMPERATURE 40 C
AC$CHROMATOGRAPHY: FLOW_GRADIENT A/B = (99.5%/0.5% at 0 min, 99.5%/0.5% at 0.1 min, 20%/80% at 10 min, 0.5%/99.5% at 10.1 min, 0.5%/99.5% at 12.0 min, 99.5%/0.5% at 12.1 min, 99.5%/0.5% at 15.0 min)
AC$CHROMATOGRAPHY: FLOW_RATE 0.3 ml/min at 0 min, 0.3 ml/min at 10 min, 0.4 ml/min at 10.1 min, 0.4 ml/min at 14.4 min, 0.3 ml/min at 14.5 min
AC$CHROMATOGRAPHY: RETENTION_TIME 4.8517
AC$CHROMATOGRAPHY: SOLVENT A water including 0.1% formic acid
AC$CHROMATOGRAPHY: SOLVENT B acetonitrile including 0.1% formic acid
MS$FOCUSED_ION: PRECURSOR_TYPE [M]+
MS$FOCUSED_ION: PRECURSOR_M/Z 332.0911858
PK$SPLASH: splash10-014i-0290000000-4bac2a7d20f9e1d82be6
PK$NUM_PEAK: 234
PK$PEAK: m/z int. rel.int.
  110.7716 6.0 6
  115.05936 9.0 9
  116.05242 9.0 9
  141.05894 11.0 11
  144.03563 15.0 15
  148.40523 7.0 7
  149.02345 7.0 7
  151.04611 10.0 10
  151.05396 25.0 25
  151.06497 8.0 8
  152.05557 22.0 22
  152.06589 16.0 16
  153.05257 7.0 7
  154.05838 19.0 19
  155.37283 7.0 7
  158.1808 12.0 12
  162.0446 12.0 12
  163.05269 55.0 55
  164.04663 7.0 7
  164.06259 30.0 30
  165.04529 10.0 10
  165.08435 14.0 14
  166.06213 22.0 22
  173.45134 7.0 7
  174.03667 14.0 14
  174.04492 8.0 8
  175.03908 13.0 13
  175.04883 25.0 25
  175.05495 65.0 65
  176.06233 257.0 257
  176.13513 6.0 6
  177.05499 60.0 60
  177.07008 120.0 120
  177.08327 10.0 10
  178.03841 6.0 6
  178.04553 10.0 10
  178.06433 14.0 14
  178.07388 37.0 37
  178.08484 7.0 7
  178.84508 7.0 7
  179.08459 22.0 22
  180.03468 6.0 6
  180.75998 7.0 7
  184.69197 9.0 9
  187.09462 10.0 10
  188.05125 8.0 8
  188.064 61.0 61
  189.0412 13.0 13
  189.05113 39.0 39
  189.06989 635.0 634
  190.0269 7.0 7
  190.06728 252.0 252
  190.18234 7.0 7
  190.31398 8.0 8
  190.84946 8.0 8
  190.97176 11.0 11
  191.05345 14.0 14
  191.06177 27.0 27
  191.07515 117.0 117
  191.09198 26.0 26
  192.07652 9.0 9
  194.07559 9.0 9
  195.06046 7.0 7
  196.15788 9.0 9
  198.45026 7.0 7
  200.06523 43.0 43
  201.03539 8.0 8
  201.05957 346.0 346
  201.08188 8.0 8
  202.04861 39.0 39
  202.06133 222.0 222
  202.07387 107.0 107
  202.08054 39.0 39
  203.03624 17.0 17
  203.04829 20.0 20
  203.0715 451.0 451
  203.07961 174.0 174
  204.01492 8.0 8
  204.04375 6.0 6
  204.05147 9.0 9
  204.06239 22.0 22
  204.08112 292.0 292
  204.52467 9.0 9
  205.04472 9.0 9
  205.06252 41.0 41
  205.08257 65.0 65
  205.09276 40.0 40
  206.06792 26.0 26
  206.08971 8.0 8
  206.09792 8.0 8
  206.11617 9.0 9
  206.12718 8.0 8
  212.05965 7.0 7
  212.11703 7.0 7
  212.23225 6.0 6
  214.035 9.0 9
  214.05843 118.0 118
  214.06532 334.0 334
  214.90266 6.0 6
  215.04282 21.0 21
  215.07297 716.0 715
  215.12466 7.0 7
  216.03841 6.0 6
  216.0547 24.0 24
  216.08052 1000.0 999
  217.00456 9.0 9
  217.02261 10.0 10
  217.05232 44.0 44
  217.08714 640.0 639
  217.32388 14.0 14
  217.85854 6.0 6
  218.03825 18.0 18
  218.05119 13.0 13
  218.06099 21.0 21
  218.07346 23.0 23
  218.09692 483.0 483
  218.15491 7.0 7
  219.0927 77.0 77
  219.11143 33.0 33
  220.09875 14.0 14
  220.12061 7.0 7
  220.18958 7.0 7
  221.09641 9.0 9
  221.72429 8.0 8
  223.04535 8.0 8
  225.26285 15.0 15
  226.05833 14.0 14
  226.07207 7.0 7
  227.06013 27.0 27
  227.07434 82.0 82
  227.69864 6.0 6
  228.06471 35.0 35
  228.08203 160.0 160
  229.0504 87.0 87
  229.08495 8.0 8
  230.03609 16.0 16
  230.05092 29.0 29
  230.06136 100.0 100
  230.08978 8.0 8
  230.09854 8.0 8
  231.06493 97.0 97
  231.07883 19.0 19
  231.10805 13.0 13
  232.02318 6.0 6
  232.04282 6.0 6
  232.05402 31.0 31
  232.07431 157.0 157
  232.10283 11.0 11
  233.02519 10.0 10
  233.07138 25.0 25
  233.08102 101.0 101
  233.10315 7.0 7
  234.03178 11.0 11
  234.05995 7.0 7
  234.07704 14.0 14
  234.09155 7.0 7
  234.66776 9.0 9
  239.77237 7.0 7
  242.05672 20.0 20
  242.07085 19.0 19
  242.08614 11.0 11
  243.0507 9.0 9
  243.06062 28.0 28
  244.04422 7.0 7
  244.07889 232.0 232
  244.59735 10.0 10
  245.04993 7.0 7
  245.07875 45.0 45
  245.0899 67.0 67
  246.04218 7.0 7
  246.05574 26.0 26
  246.07343 53.0 53
  246.09259 216.0 216
  247.05997 7.0 7
  247.09483 168.0 168
  248.10954 51.0 51
  249.34088 7.0 7
  256.08521 11.0 11
  257.06299 7.0 7
  257.08356 17.0 17
  257.39859 7.0 7
  257.57913 6.0 6
  258.04376 23.0 23
  258.05811 47.0 47
  258.07602 13.0 13
  258.08694 28.0 28
  258.10013 14.0 14
  258.91077 7.0 7
  259.0524 35.0 35
  259.06766 80.0 80
  259.34607 13.0 13
  260.04712 34.0 34
  260.06815 105.0 105
  261.0553 7.0 7
  261.08475 111.0 111
  261.14615 11.0 11
  261.82669 8.0 8
  262.06836 7.0 7
  262.09238 10.0 10
  263.08704 8.0 8
  270.37042 8.0 8
  271.0686 15.0 15
  272.0567 14.0 14
  272.07651 9.0 9
  272.91751 8.0 8
  273.08002 57.0 57
  274.05399 12.0 12
  274.07257 47.0 47
  274.08987 208.0 208
  274.35327 7.0 7
  275.04593 12.0 12
  275.05713 19.0 19
  275.07538 9.0 9
  275.08954 68.0 68
  275.56036 7.0 7
  276.10205 12.0 12
  286.0531 9.0 9
  286.06683 19.0 19
  288.0726 40.0 40
  289.05972 26.0 26
  290.07114 6.0 6
  290.08871 20.0 20
  302.05899 10.0 10
  302.07697 6.0 6
  302.27945 8.0 8
  304.09085 9.0 9
  304.69629 7.0 7
  305.50955 7.0 7
  316.0629 29.0 29
  316.07983 8.0 8
  317.06729 66.0 66
  318.04105 6.0 6
  331.0817 7.0 7
  332.09409 9.0 9
//
