ACCESSION: MSBNK-RIKEN-PR303083
RECORD_TITLE: Petunidin-3-O-beta-glucoside; LC-ESI-QTOF; MS2
DATE: 2019.03.28
AUTHORS: Tetsuya Mori, Center for Sustainable Resource Science, RIKEN
LICENSE: CC BY-NC-SA
PUBLICATION: Tsugawa H., Nakabayashi R., Mori T., Yamada Y., Takahashi M., Rai A., Sugiyama R., Yamamoto H., Nakaya T., Yamazaki M., Kooke R., Bac-Molenaar JA., Oztolan-Erol N., Keurentjes JJB., Arita M., Saito K. (2019) "A cheminformatics approach to characterize metabolomes in stable-isotope-labeled organisms" Nature Methods 16(4):295-298. [doi:10.1038/s41592-019-0358-2]
COMMENT: registered in RIKEN PlaSMA
CH$NAME: Petunidin-3-O-beta-glucoside
CH$COMPOUND_CLASS: Anthocyanidin-3-O-glycosides
CH$FORMULA: [C22H23O12]+
CH$EXACT_MASS: 479.414
CH$SMILES: COC1=CC(=CC(O)=C1O)C1=C(O[C@@H]2O[C@H](CO)[C@@H](O)[C@H](O)[C@H]2O)C=C2C(O)=CC(O)=CC2=[O+]1
CH$IUPAC: InChI=1S/C22H22O12/c1-31-14-3-8(2-12(26)17(14)27)21-15(6-10-11(25)4-9(24)5-13(10)32-21)33-22-20(30)19(29)18(28)16(7-23)34-22/h2-6,16,18-20,22-23,28-30H,7H2,1H3,(H3-,24,25,26,27)/p+1/t16-,18-,19+,20-,22-/m1/s1
CH$LINK: INCHIKEY CCQDWIRWKWIUKK-QKYBYQKWSA-O
AC$INSTRUMENT: LC, Waters Acquity UPLC System; MS, Waters Xevo G2 Q-Tof
AC$INSTRUMENT_TYPE: LC-ESI-QTOF
AC$MASS_SPECTROMETRY: MS_TYPE MS2
AC$MASS_SPECTROMETRY: ION_MODE POSITIVE
AC$MASS_SPECTROMETRY: COLLISION_ENERGY 6V
AC$MASS_SPECTROMETRY: DESOLVATION_GAS_FLOW 800/h
AC$MASS_SPECTROMETRY: DESOLVATION_TEMPERATURE 450 C
AC$MASS_SPECTROMETRY: IONIZATION ESI
AC$CHROMATOGRAPHY: CAPILLARY_VOLTAGE +3.00 kV
AC$CHROMATOGRAPHY: COLUMN_NAME Acquity bridged ethyl hybrid C18 (1.7 um, 2.1 mm * 100 mm, Waters)
AC$CHROMATOGRAPHY: COLUMN_TEMPERATURE 40 C
AC$CHROMATOGRAPHY: FLOW_GRADIENT A/B = (99.5%/0.5% at 0 min, 99.5%/0.5% at 0.1 min, 20%/80% at 10 min, 0.5%/99.5% at 10.1 min, 0.5%/99.5% at 12.0 min, 99.5%/0.5% at 12.1 min, 99.5%/0.5% at 15.0 min)
AC$CHROMATOGRAPHY: FLOW_RATE 0.3 ml/min at 0 min, 0.3 ml/min at 10 min, 0.4 ml/min at 10.1 min, 0.4 ml/min at 14.4 min, 0.3 ml/min at 14.5 min
AC$CHROMATOGRAPHY: RETENTION_TIME 3.212583
AC$CHROMATOGRAPHY: SOLVENT A water including 0.1% formic acid
AC$CHROMATOGRAPHY: SOLVENT B acetonitrile including 0.1% formic acid
MS$FOCUSED_ION: PRECURSOR_TYPE [M]+
MS$FOCUSED_ION: PRECURSOR_M/Z 479.117854
PK$SPLASH: splash10-0udi-0593000000-2028eba4d1468960105e
PK$NUM_PEAK: 152
PK$PEAK: m/z int. rel.int.
  77.036 12.0 12
  92.02467 68.0 68
  93.02624 35.0 35
  93.03172 66.0 66
  93.04201 17.0 17
  93.20199 14.0 14
  95.01237 14.0 14
  106.03407 14.0 14
  111.00615 28.0 28
  119.01408 15.0 15
  120.02179 38.0 38
  121.01773 17.0 17
  121.02503 65.0 65
  121.63582 19.0 19
  122.031 28.0 28
  123.0421 22.0 22
  126.03593 25.0 25
  126.0418 20.0 20
  129.0648 28.0 28
  131.07851 24.0 24
  133.02756 18.0 18
  136.01326 59.0 59
  137.06277 22.0 22
  139.03607 39.0 39
  139.04095 15.0 15
  144.06612 17.0 17
  145.03488 18.0 18
  148.01266 19.0 19
  149.02161 37.0 37
  151.03773 94.0 94
  151.04861 75.0 75
  151.99829 15.0 15
  152.01236 37.0 37
  152.99487 16.0 16
  153.01886 1000.0 999
  154.0097 30.0 30
  154.02295 124.0 124
  155.04201 24.0 24
  158.03764 17.0 17
  162.02927 24.0 24
  163.03413 31.0 31
  165.01868 136.0 136
  166.03348 15.0 15
  172.0529 35.0 35
  173.06369 55.0 55
  176.04886 15.0 15
  177.01685 15.0 15
  177.04944 15.0 15
  177.05914 41.0 41
  178.05936 22.0 22
  183.05692 15.0 15
  184.05278 45.0 45
  187.02037 15.0 15
  187.03999 22.0 22
  191.03571 15.0 15
  191.14207 22.0 22
  193.04816 22.0 22
  194.02077 24.0 24
  200.03003 17.0 17
  200.039 13.0 13
  200.05037 28.0 28
  200.99313 30.0 30
  201.05666 151.0 151
  202.06691 23.0 23
  202.83354 12.0 12
  203.02946 85.0 85
  204.03223 35.0 35
  204.04607 12.0 12
  205.34679 24.0 24
  212.04985 17.0 17
  213.0442 25.0 25
  215.06546 14.0 14
  217.03485 18.0 18
  217.04581 71.0 71
  217.05412 33.0 33
  218.05902 210.0 210
  219.01402 12.0 12
  219.02188 17.0 17
  219.03926 34.0 34
  221.00293 24.0 24
  225.05763 38.0 38
  225.07228 26.0 26
  228.01987 13.0 13
  228.04303 252.0 252
  228.0551 41.0 41
  228.99484 30.0 30
  229.01653 21.0 21
  229.03609 46.0 46
  229.05054 397.0 397
  230.04468 18.0 18
  230.056 42.0 42
  231.03632 24.0 24
  232.0108 15.0 15
  232.03529 54.0 54
  240.75319 19.0 19
  240.99228 15.0 15
  243.01939 19.0 19
  243.06744 18.0 18
  245.04395 272.0 272
  246.05109 104.0 104
  246.0629 48.0 48
  247.05449 50.0 50
  256.03207 23.0 23
  256.04761 54.0 54
  257.0354 86.0 86
  257.04782 165.0 165
  258.04553 27.0 27
  258.31146 15.0 15
  259.06122 19.0 19
  260.02164 34.0 34
  260.03809 20.0 20
  261.94852 15.0 15
  271.05548 34.0 34
  273.0289 56.0 56
  273.04105 214.0 214
  274.0253 14.0 14
  274.04718 407.0 407
  275.05179 39.0 39
  276.0527 12.0 12
  283.99408 12.0 12
  284.02502 39.0 39
  284.03745 60.0 60
  284.97702 19.0 19
  285.01151 25.0 25
  285.03448 305.0 305
  285.04993 56.0 56
  286.04797 71.0 71
  288.06659 24.0 24
  290.60193 17.0 17
  290.70663 14.0 14
  301.87808 20.0 20
  301.90863 14.0 14
  302.00098 26.0 26
  302.0416 752.0 751
  302.98026 17.0 17
  302.99744 13.0 13
  303.03796 66.0 66
  303.06287 30.0 30
  304.01688 15.0 15
  305.26025 14.0 14
  308.27405 42.0 42
  314.04553 12.0 12
  317.02954 12.0 12
  317.05383 71.0 71
  317.0672 203.0 203
  318.04935 24.0 24
  318.06546 19.0 19
  318.08429 47.0 47
  319.07706 19.0 19
  329.06738 12.0 12
  351.53815 17.0 17
  381.91168 17.0 17
//
