ACCESSION: MSBNK-RIKEN-PR310417
RECORD_TITLE: Triacetyl resveratrol; LC-ESI-QTOF; MS2
DATE: 2019.03.28
AUTHORS: Tetsuya Mori, Center for Sustainable Resource Science, RIKEN
LICENSE: CC BY-NC-SA
PUBLICATION: Tsugawa H., Nakabayashi R., Mori T., Yamada Y., Takahashi M., Rai A., Sugiyama R., Yamamoto H., Nakaya T., Yamazaki M., Kooke R., Bac-Molenaar JA., Oztolan-Erol N., Keurentjes JJB., Arita M., Saito K. (2019) "A cheminformatics approach to characterize metabolomes in stable-isotope-labeled organisms" Nature Methods 16(4):295-298. [doi:10.1038/s41592-019-0358-2]
COMMENT: Annotation level-1
CH$NAME: Triacetyl resveratrol
CH$COMPOUND_CLASS: Stilbene glycosides
CH$FORMULA: C20H18O6
CH$EXACT_MASS: 354.358
CH$SMILES: CC(=O)OC1=CC=C(C=CC2=CC(OC(C)=O)=CC(OC(C)=O)=C2)C=C1
CH$IUPAC: InChI=1S/C20H18O6/c1-13(21)24-18-8-6-16(7-9-18)4-5-17-10-19(25-14(2)22)12-20(11-17)26-15(3)23/h4-12H,1-3H3
CH$LINK: INCHIKEY PDAYUJSOJIMKIS-UHFFFAOYSA-N
AC$INSTRUMENT: LC, Waters Acquity UPLC System; MS, Waters Xevo G2 Q-Tof
AC$INSTRUMENT_TYPE: LC-ESI-QTOF
AC$MASS_SPECTROMETRY: MS_TYPE MS2
AC$MASS_SPECTROMETRY: ION_MODE POSITIVE
AC$MASS_SPECTROMETRY: COLLISION_ENERGY 6V
AC$MASS_SPECTROMETRY: DESOLVATION_GAS_FLOW 800/h
AC$MASS_SPECTROMETRY: DESOLVATION_TEMPERATURE 450 C
AC$MASS_SPECTROMETRY: IONIZATION ESI
AC$CHROMATOGRAPHY: CAPILLARY_VOLTAGE +3.00 kV
AC$CHROMATOGRAPHY: COLUMN_NAME Acquity bridged ethyl hybrid C18 (1.7 um, 2.1 mm * 100 mm, Waters)
AC$CHROMATOGRAPHY: COLUMN_TEMPERATURE 40 C
AC$CHROMATOGRAPHY: FLOW_GRADIENT A/B = (99.5%/0.5% at 0 min, 99.5%/0.5% at 0.1 min, 20%/80% at 10 min, 0.5%/99.5% at 10.1 min, 0.5%/99.5% at 12.0 min, 99.5%/0.5% at 12.1 min, 99.5%/0.5% at 15.0 min)
AC$CHROMATOGRAPHY: FLOW_RATE 0.3 ml/min at 0 min, 0.3 ml/min at 10 min, 0.4 ml/min at 10.1 min, 0.4 ml/min at 14.4 min, 0.3 ml/min at 14.5 min
AC$CHROMATOGRAPHY: RETENTION_TIME 8.46
AC$CHROMATOGRAPHY: SOLVENT A water including 0.1% formic acid
AC$CHROMATOGRAPHY: SOLVENT B acetonitrile including 0.1% formic acid
MS$FOCUSED_ION: PRECURSOR_TYPE [M+H]+
MS$FOCUSED_ION: PRECURSOR_M/Z 355.11761
PK$SPLASH: splash10-00di-0293000000-24e428e24035f55c715a
PK$NUM_PEAK: 172
PK$PEAK: m/z int. rel.int.
  77.0388 22.0 1
  90.264 19.0 1
  91.04041 24.0 1
  91.05489 171.0 10
  94.04532 23.0 1
  95.04813 17.0 1
  95.05235 22.0 1
  106.74044 22.0 1
  106.83147 17.0 1
  107.04979 1129.0 67
  108.05586 18.0 1
  109.02752 20.0 1
  111.04319 180.0 11
  112.04756 90.0 5
  112.05597 18.0 1
  117.06512 17.0 1
  119.03204 28.0 2
  119.04938 791.0 47
  119.06191 33.0 2
  120.05489 51.0 3
  120.07094 22.0 1
  121.02762 184.0 11
  121.06239 35.0 2
  123.04549 46.0 3
  131.05389 23.0 1
  131.08226 35.0 2
  133.06226 17.0 1
  135.01859 24.0 1
  135.03212 100.0 6
  135.04466 2704.0 160
  136.04427 174.0 10
  136.05219 165.0 10
  137.01956 49.0 3
  141.05563 20.0 1
  141.0641 59.0 3
  141.07486 20.0 1
  143.05962 18.0 1
  143.08098 26.0 2
  143.8102 17.0 1
  145.06543 190.0 11
  148.02739 20.0 1
  149.05479 17.0 1
  150.06836 27.0 2
  153.06854 17.0 1
  155.07896 25.0 1
  155.08931 75.0 4
  157.05963 18.0 1
  158.06824 24.0 1
  159.07861 40.0 2
  159.08752 26.0 2
  159.31329 20.0 1
  160.04901 20.0 1
  160.06165 20.0 1
  161.05922 20.0 1
  165.06567 239.0 14
  165.58955 24.0 1
  165.89912 29.0 2
  166.06778 19.0 1
  166.07906 101.0 6
  168.38368 31.0 2
  169.0666 55.0 3
  171.04027 39.0 2
  171.08453 18.0 1
  172.2072 18.0 1
  173.05882 18.0 1
  173.09389 23.0 1
  177.04211 23.0 1
  177.05153 59.0 3
  177.37642 24.0 1
  179.11325 20.0 1
  181.0614 24.0 1
  182.07323 20.0 1
  183.07764 519.0 31
  184.07523 26.0 2
  184.08273 38.0 2
  184.09383 48.0 3
  184.51981 24.0 1
  185.05927 27.0 2
  186.0742 17.0 1
  187.01872 17.0 1
  187.04436 31.0 2
  187.06563 18.0 1
  187.07401 45.0 3
  187.08485 44.0 3
  193.05528 24.0 1
  193.06645 127.0 8
  193.0797 65.0 4
  194.06212 41.0 2
  194.08311 27.0 2
  201.05563 24.0 1
  201.08391 19.0 1
  201.09167 21.0 1
  210.06424 17.0 1
  210.36063 35.0 2
  211.05923 20.0 1
  211.07643 538.0 32
  211.24837 21.0 1
  211.71327 24.0 1
  212.0419 18.0 1
  212.07156 52.0 3
  212.08524 122.0 7
  213.06429 17.0 1
  213.08769 38.0 2
  214.05565 20.0 1
  221.57059 24.0 1
  225.08893 20.0 1
  227.05431 18.0 1
  227.0629 20.0 1
  227.07433 23.0 1
  228.04893 20.0 1
  228.06825 139.0 8
  228.07808 481.0 29
  229.04568 61.0 4
  229.08604 9283.0 550
  229.21391 59.0 3
  230.05403 21.0 1
  230.09 1254.0 74
  230.11676 23.0 1
  230.48566 25.0 1
  230.58215 17.0 1
  230.99254 17.0 1
  231.06429 39.0 2
  231.09508 270.0 16
  231.43352 18.0 1
  231.9761 22.0 1
  234.00677 20.0 1
  235.53676 17.0 1
  239.79523 20.0 1
  242.61426 21.0 1
  243.24352 18.0 1
  245.28276 22.0 1
  248.9646 20.0 1
  253.08675 37.0 2
  256.3266 17.0 1
  256.83145 20.0 1
  268.98041 20.0 1
  270.07819 107.0 6
  270.08783 241.0 14
  270.10172 40.0 2
  271.05261 36.0 2
  271.09647 16853.0 999
  271.1427 104.0 6
  271.15973 19.0 1
  272.06015 41.0 2
  272.07565 43.0 3
  272.10184 3394.0 201
  272.2056 21.0 1
  272.86093 17.0 1
  273.10245 527.0 31
  273.59515 35.0 2
  273.65259 17.0 1
  274.07831 18.0 1
  286.32031 17.0 1
  296.10031 28.0 2
  296.40656 18.0 1
  304.78708 19.0 1
  308.44922 17.0 1
  312.09836 468.0 28
  313.05576 36.0 2
  313.10629 8215.0 487
  313.27023 18.0 1
  313.82715 17.0 1
  314.06927 30.0 2
  314.11011 1872.0 111
  314.63651 17.0 1
  315.11768 221.0 13
  316.1008 39.0 2
  316.11502 17.0 1
  317.10553 19.0 1
  331.65381 18.0 1
  354.11301 42.0 2
  355.11771 1095.0 65
//
