ACCESSION: MSBNK-RIKEN-PR303906
RECORD_TITLE: Silychrystin; LC-ESI-QTOF; MS2
DATE: 2019.03.28
AUTHORS: Tetsuya Mori, Center for Sustainable Resource Science, RIKEN
LICENSE: CC BY-NC-SA
PUBLICATION: Tsugawa H., Nakabayashi R., Mori T., Yamada Y., Takahashi M., Rai A., Sugiyama R., Yamamoto H., Nakaya T., Yamazaki M., Kooke R., Bac-Molenaar JA., Oztolan-Erol N., Keurentjes JJB., Arita M., Saito K. (2019) "A cheminformatics approach to characterize metabolomes in stable-isotope-labeled organisms" Nature Methods 16(4):295-298. [doi:10.1038/s41592-019-0358-2]
COMMENT: registered in RIKEN PlaSMA
CH$NAME: Silychrystin
CH$COMPOUND_CLASS: 2-arylbenzofuran flavonoids
CH$FORMULA: C25H22O10
CH$EXACT_MASS: 482.441
CH$SMILES: COC1=C(O)C=CC(=C1)[C@@H]1OC2=C(C=C(C=C2O)[C@H]2OC3=CC(O)=CC(O)=C3C(=O)[C@@H]2O)[C@H]1CO
CH$IUPAC: InChI=1S/C25H22O10/c1-33-18-6-10(2-3-15(18)28)23-14(9-26)13-4-11(5-17(30)25(13)35-23)24-22(32)21(31)20-16(29)7-12(27)8-19(20)34-24/h2-8,14,22-24,26-30,32H,9H2,1H3/t14-,22+,23+,24-/m1/s1
CH$LINK: INCHIKEY BMLIIPOXVWESJG-LMBCONBSSA-N
AC$INSTRUMENT: LC, Waters Acquity UPLC System; MS, Waters Xevo G2 Q-Tof
AC$INSTRUMENT_TYPE: LC-ESI-QTOF
AC$MASS_SPECTROMETRY: MS_TYPE MS2
AC$MASS_SPECTROMETRY: ION_MODE POSITIVE
AC$MASS_SPECTROMETRY: COLLISION_ENERGY 6V
AC$MASS_SPECTROMETRY: DESOLVATION_GAS_FLOW 800/h
AC$MASS_SPECTROMETRY: DESOLVATION_TEMPERATURE 450 C
AC$MASS_SPECTROMETRY: IONIZATION ESI
AC$CHROMATOGRAPHY: CAPILLARY_VOLTAGE +3.00 kV
AC$CHROMATOGRAPHY: COLUMN_NAME Acquity bridged ethyl hybrid C18 (1.7 um, 2.1 mm * 100 mm, Waters)
AC$CHROMATOGRAPHY: COLUMN_TEMPERATURE 40 C
AC$CHROMATOGRAPHY: FLOW_GRADIENT A/B = (99.5%/0.5% at 0 min, 99.5%/0.5% at 0.1 min, 20%/80% at 10 min, 0.5%/99.5% at 10.1 min, 0.5%/99.5% at 12.0 min, 99.5%/0.5% at 12.1 min, 99.5%/0.5% at 15.0 min)
AC$CHROMATOGRAPHY: FLOW_RATE 0.3 ml/min at 0 min, 0.3 ml/min at 10 min, 0.4 ml/min at 10.1 min, 0.4 ml/min at 14.4 min, 0.3 ml/min at 14.5 min
AC$CHROMATOGRAPHY: RETENTION_TIME 4.95995
AC$CHROMATOGRAPHY: SOLVENT A water including 0.1% formic acid
AC$CHROMATOGRAPHY: SOLVENT B acetonitrile including 0.1% formic acid
MS$FOCUSED_ION: PRECURSOR_TYPE [M+H]+
MS$FOCUSED_ION: PRECURSOR_M/Z 483.1285734
PK$SPLASH: splash10-0uds-0951000000-ae722f8fb401d53b9ca5
PK$NUM_PEAK: 237
PK$PEAK: m/z int. rel.int.
  65.036 50.0 50
  66.03739 35.0 35
  68.99817 25.0 25
  81.03441 24.0 24
  89.18357 28.0 28
  91.04797 26.0 26
  91.05702 26.0 26
  93.02778 33.0 33
  94.04104 31.0 31
  97.02968 24.0 24
  105.03927 30.0 30
  107.0428 25.0 25
  108.021 33.0 33
  109.03381 30.0 30
  111.04111 52.0 52
  112.04462 26.0 26
  112.11943 25.0 25
  113.05083 30.0 30
  115.05464 28.0 28
  117.03815 24.0 24
  118.04984 28.0 28
  119.04291 67.0 67
  119.04958 55.0 55
  119.47239 24.0 24
  120.0098 24.0 24
  121.0275 339.0 339
  122.03415 87.0 87
  124.05693 26.0 26
  127.05133 22.0 22
  128.06473 26.0 26
  131.04948 55.0 55
  135.03815 28.0 28
  137.05957 705.0 704
  137.07283 42.0 42
  138.06068 45.0 45
  139.03674 101.0 101
  141.03537 31.0 31
  143.05333 47.0 47
  145.02707 24.0 24
  146.03296 29.0 29
  147.04579 161.0 161
  148.02014 22.0 22
  148.04413 69.0 69
  149.01678 50.0 50
  149.02606 250.0 250
  150.02211 45.0 45
  150.03232 66.0 66
  152.05806 76.0 76
  153.00563 64.0 64
  153.019 1000.0 999
  153.04861 26.0 26
  153.05692 34.0 34
  153.07063 87.0 87
  154.02011 26.0 26
  154.06805 25.0 25
  155.04312 24.0 24
  155.08086 22.0 22
  157.06712 96.0 96
  161.02692 34.0 34
  161.05968 35.0 35
  163.03627 50.0 50
  164.0603 58.0 58
  165.06886 309.0 309
  165.08105 63.0 63
  166.08432 22.0 22
  167.04022 51.0 51
  167.04826 31.0 31
  167.08124 62.0 62
  169.05743 54.0 54
  169.06822 52.0 52
  169.09106 26.0 26
  171.44057 22.0 22
  173.06136 63.0 63
  175.04044 45.0 45
  175.07767 24.0 24
  177.06549 107.0 107
  178.05563 31.0 31
  179.07961 29.0 29
  179.09813 28.0 28
  181.06076 88.0 88
  181.07016 76.0 76
  181.0788 37.0 37
  182.05417 24.0 24
  182.06653 48.0 48
  182.07898 39.0 39
  183.06393 35.0 35
  183.07515 28.0 28
  183.08228 54.0 54
  184.04549 28.0 28
  185.05698 31.0 31
  188.0114 28.0 28
  189.05649 46.0 46
  189.07361 25.0 25
  190.07588 31.0 31
  193.06601 201.0 201
  194.06548 26.0 26
  194.07741 37.0 37
  195.01866 54.0 54
  195.03265 64.0 64
  195.07982 248.0 248
  195.09433 34.0 34
  196.03239 30.0 30
  196.41864 26.0 26
  197.06374 24.0 24
  198.058 22.0 22
  199.05595 29.0 29
  199.06824 45.0 45
  200.05585 29.0 29
  201.04053 38.0 38
  201.05 26.0 26
  203.03426 29.0 29
  204.04076 29.0 29
  205.06645 139.0 139
  206.06891 56.0 56
  208.05275 34.0 34
  209.0466 60.0 60
  209.05379 54.0 54
  209.06703 22.0 22
  210.05992 64.0 64
  210.07022 88.0 88
  211.04556 60.0 60
  211.06967 111.0 111
  211.08528 38.0 38
  212.07838 55.0 55
  213.06027 143.0 143
  213.08937 25.0 25
  218.07362 30.0 30
  218.10089 25.0 25
  219.08682 30.0 30
  220.04541 22.0 22
  221.05354 24.0 24
  221.06357 22.0 22
  221.0984 26.0 26
  222.05309 26.0 26
  222.06873 33.0 33
  223.07631 72.0 72
  223.13744 26.0 26
  225.05208 26.0 26
  225.09082 41.0 41
  226.07066 26.0 26
  227.03886 30.0 30
  227.06401 22.0 22
  228.04149 56.0 56
  228.05875 24.0 24
  229.0502 178.0 178
  231.04033 22.0 22
  231.07861 28.0 28
  234.07037 24.0 24
  235.078 63.0 63
  236.0392 26.0 26
  237.05658 212.0 212
  237.08549 41.0 41
  238.05571 106.0 106
  238.06912 104.0 104
  239.07797 28.0 28
  240.08206 22.0 22
  241.04858 47.0 47
  241.06516 35.0 35
  242.04666 26.0 26
  245.04942 33.0 33
  245.0903 29.0 29
  246.06647 30.0 30
  247.06583 45.0 45
  247.07953 22.0 22
  248.04219 22.0 22
  250.05975 75.0 75
  250.0777 26.0 26
  251.06694 84.0 84
  252.0695 37.0 37
  253.03882 28.0 28
  253.08679 59.0 59
  254.04651 54.0 54
  254.06201 24.0 24
  254.08591 26.0 26
  255.06784 30.0 30
  257.05255 45.0 45
  258.06409 31.0 31
  258.08054 30.0 30
  260.07739 29.0 29
  261.09061 28.0 28
  262.07297 30.0 30
  263.07434 30.0 30
  267.0463 22.0 22
  268.06354 50.0 50
  268.09308 24.0 24
  268.10712 26.0 26
  269.04324 22.0 22
  272.0722 22.0 22
  272.08661 37.0 37
  273.09219 39.0 39
  274.08441 26.0 26
  276.08194 31.0 31
  277.05835 26.0 26
  278.06241 25.0 25
  280.0722 22.0 22
  280.11368 25.0 25
  281.06619 25.0 25
  282.06586 22.0 22
  282.09982 31.0 31
  283.07346 62.0 62
  284.08298 31.0 31
  285.06656 64.0 64
  285.08527 35.0 35
  286.0704 30.0 30
  287.04318 22.0 22
  288.07376 22.0 22
  289.07849 62.0 62
  289.08868 25.0 25
  291.06747 24.0 24
  297.05746 28.0 28
  301.08887 22.0 22
  304.07321 33.0 33
  307.10425 24.0 24
  309.06732 24.0 24
  309.07996 24.0 24
  312.07407 22.0 22
  313.0791 56.0 56
  313.09161 66.0 66
  314.09213 38.0 38
  314.70309 24.0 24
  317.08051 42.0 42
  322.71329 26.0 26
  323.06442 26.0 26
  343.06213 37.0 37
  343.10101 24.0 24
  345.07999 132.0 132
  346.08789 22.0 22
  347.10883 28.0 28
  356.07626 33.0 33
  360.10287 24.0 24
  364.10196 29.0 29
  379.12268 47.0 47
  383.04916 22.0 22
  383.32581 22.0 22
  387.03421 33.0 33
  387.07306 22.0 22
  401.0705 35.0 35
//
