ACCESSION: MSBNK-RIKEN-PR302291
RECORD_TITLE: Procyanidin B2; LC-ESI-QTOF; MS2
DATE: 2019.03.28
AUTHORS: Tetsuya Mori, Center for Sustainable Resource Science, RIKEN
LICENSE: CC BY-NC-SA
PUBLICATION: Tsugawa H., Nakabayashi R., Mori T., Yamada Y., Takahashi M., Rai A., Sugiyama R., Yamamoto H., Nakaya T., Yamazaki M., Kooke R., Bac-Molenaar JA., Oztolan-Erol N., Keurentjes JJB., Arita M., Saito K. (2019) "A cheminformatics approach to characterize metabolomes in stable-isotope-labeled organisms" Nature Methods 16(4):295-298. [doi:10.1038/s41592-019-0358-2]
COMMENT: registered in RIKEN PlaSMA
CH$NAME: Procyanidin B2
CH$NAME: 4,8'-Bi((+)-epicatechin))
CH$NAME: cis,cis'-4,8'-Bi(3,3',4',5,7-pentahydroxyflavane)
CH$NAME: (-)-Epicatechin-(4-beta-8)-(-)-epicatechin
CH$COMPOUND_CLASS: Biflavonoids and polyflavonoids
CH$FORMULA: C30H26O12
CH$EXACT_MASS: 578.14243
CH$SMILES: C1[C@H]([C@H](OC2=C1C(=CC(=C2[C@@H]3[C@H]([C@H](OC4=CC(=CC(=C34)O)O)C5=CC(=C(C=C5)O)O)O)O)O)C6=CC(=C(C=C6)O)O)O
CH$IUPAC: InChI=1S/C30H26O12/c31-13-7-20(37)24-23(8-13)41-29(12-2-4-16(33)19(36)6-12)27(40)26(24)25-21(38)10-17(34)14-9-22(39)28(42-30(14)25)11-1-3-15(32)18(35)5-11/h1-8,10,22,26-29,31-40H,9H2/t22-,26-,27-,28-,29-/m1/s1
CH$LINK: CAS 29106-49-8
CH$LINK: CHEMSPIDER 109417
CH$LINK: INCHIKEY XFZJEEAOWLFHDH-NFJBMHMQSA-N
CH$LINK: KNAPSACK C00009077
CH$LINK: PUBCHEM CID:122738
AC$INSTRUMENT: LC, Waters Acquity UPLC System; MS, Waters Xevo G2 Q-Tof
AC$INSTRUMENT_TYPE: LC-ESI-QTOF
AC$MASS_SPECTROMETRY: MS_TYPE MS2
AC$MASS_SPECTROMETRY: ION_MODE POSITIVE
AC$MASS_SPECTROMETRY: COLLISION_ENERGY 6V
AC$MASS_SPECTROMETRY: DESOLVATION_GAS_FLOW 800/h
AC$MASS_SPECTROMETRY: DESOLVATION_TEMPERATURE 450 C
AC$MASS_SPECTROMETRY: IONIZATION ESI
AC$CHROMATOGRAPHY: CAPILLARY_VOLTAGE +3.00 kV
AC$CHROMATOGRAPHY: COLUMN_NAME Acquity bridged ethyl hybrid C18 (1.7 um, 2.1 mm * 100 mm, Waters)
AC$CHROMATOGRAPHY: COLUMN_TEMPERATURE 40 C
AC$CHROMATOGRAPHY: FLOW_GRADIENT A/B = (99.5%/0.5% at 0 min, 99.5%/0.5% at 0.1 min, 20%/80% at 10 min, 0.5%/99.5% at 10.1 min, 0.5%/99.5% at 12.0 min, 99.5%/0.5% at 12.1 min, 99.5%/0.5% at 15.0 min)
AC$CHROMATOGRAPHY: FLOW_RATE 0.3 ml/min at 0 min, 0.3 ml/min at 10 min, 0.4 ml/min at 10.1 min, 0.4 ml/min at 14.4 min, 0.3 ml/min at 14.5 min
AC$CHROMATOGRAPHY: RETENTION_TIME 3.23915
AC$CHROMATOGRAPHY: SOLVENT A water including 0.1% formic acid
AC$CHROMATOGRAPHY: SOLVENT B acetonitrile including 0.1% formic acid
MS$FOCUSED_ION: PRECURSOR_TYPE [M+H]+
MS$FOCUSED_ION: PRECURSOR_M/Z 579.1497027
PK$SPLASH: splash10-00bi-0930000000-7ca17d55214bffd392ca
PK$NUM_PEAK: 37
PK$PEAK: m/z int. rel.int.
  59.04117 208.0 208
  117.03592 408.0 408
  123.04148 975.0 974
  127.03628 283.0 283
  127.04482 867.0 866
  135.04092 1000.0 999
  136.03317 175.0 175
  136.04457 167.0 167
  138.02467 192.0 192
  139.03671 200.0 200
  139.04819 150.0 150
  149.02086 692.0 691
  149.03273 192.0 192
  151.02927 283.0 283
  157.06541 267.0 267
  159.03712 258.0 258
  163.02127 208.0 208
  163.03664 175.0 175
  163.04764 267.0 267
  173.06279 342.0 342
  175.04039 167.0 167
  192.07109 208.0 208
  198.07028 183.0 183
  203.02776 183.0 183
  215.0788 175.0 175
  217.00937 208.0 208
  229.04927 367.0 367
  229.06451 267.0 267
  241.03436 192.0 192
  243.06297 192.0 192
  253.04819 167.0 167
  257.03156 692.0 691
  258.04797 150.0 150
  271.05246 233.0 233
  288.06143 142.0 142
  307.06561 150.0 150
  322.07178 217.0 217
//
