ACCESSION: MSBNK-RIKEN-PR301975
RECORD_TITLE: Luteolin-6-C-glucoside; LC-ESI-QTOF; MS2
DATE: 2019.03.28
AUTHORS: Tetsuya Mori, Center for Sustainable Resource Science, RIKEN
LICENSE: CC BY-NC-SA
PUBLICATION: Tsugawa H., Nakabayashi R., Mori T., Yamada Y., Takahashi M., Rai A., Sugiyama R., Yamamoto H., Nakaya T., Yamazaki M., Kooke R., Bac-Molenaar JA., Oztolan-Erol N., Keurentjes JJB., Arita M., Saito K. (2019) "A cheminformatics approach to characterize metabolomes in stable-isotope-labeled organisms" Nature Methods 16(4):295-298. [doi:10.1038/s41592-019-0358-2]
COMMENT: registered in RIKEN PlaSMA
CH$NAME: Luteolin-6-C-glucoside
CH$COMPOUND_CLASS: Flavonoid C-glycosides
CH$FORMULA: C21H20O11
CH$EXACT_MASS: 448.38
CH$SMILES: OC[C@H]1O[C@H]([C@H](O)[C@@H](O)[C@@H]1O)C1=C(O)C2=C(OC(=CC2=O)C2=CC(O)=C(O)C=C2)C=C1O
CH$IUPAC: InChI=1S/C21H20O11/c22-6-14-17(27)19(29)20(30)21(32-14)16-11(26)5-13-15(18(16)28)10(25)4-12(31-13)7-1-2-8(23)9(24)3-7/h1-5,14,17,19-24,26-30H,6H2/t14-,17-,19+,20-,21+/m1/s1
CH$LINK: INCHIKEY ODBRNZZJSYPIDI-VJXVFPJBSA-N
AC$INSTRUMENT: LC, Waters Acquity UPLC System; MS, Waters Xevo G2 Q-Tof
AC$INSTRUMENT_TYPE: LC-ESI-QTOF
AC$MASS_SPECTROMETRY: MS_TYPE MS2
AC$MASS_SPECTROMETRY: ION_MODE POSITIVE
AC$MASS_SPECTROMETRY: COLLISION_ENERGY 6V
AC$MASS_SPECTROMETRY: DESOLVATION_GAS_FLOW 800/h
AC$MASS_SPECTROMETRY: DESOLVATION_TEMPERATURE 450 C
AC$MASS_SPECTROMETRY: IONIZATION ESI
AC$CHROMATOGRAPHY: CAPILLARY_VOLTAGE +3.00 kV
AC$CHROMATOGRAPHY: COLUMN_NAME Acquity bridged ethyl hybrid C18 (1.7 um, 2.1 mm * 100 mm, Waters)
AC$CHROMATOGRAPHY: COLUMN_TEMPERATURE 40 C
AC$CHROMATOGRAPHY: FLOW_GRADIENT A/B = (99.5%/0.5% at 0 min, 99.5%/0.5% at 0.1 min, 20%/80% at 10 min, 0.5%/99.5% at 10.1 min, 0.5%/99.5% at 12.0 min, 99.5%/0.5% at 12.1 min, 99.5%/0.5% at 15.0 min)
AC$CHROMATOGRAPHY: FLOW_RATE 0.3 ml/min at 0 min, 0.3 ml/min at 10 min, 0.4 ml/min at 10.1 min, 0.4 ml/min at 14.4 min, 0.3 ml/min at 14.5 min
AC$CHROMATOGRAPHY: RETENTION_TIME 3.591883
AC$CHROMATOGRAPHY: SOLVENT A water including 0.1% formic acid
AC$CHROMATOGRAPHY: SOLVENT B acetonitrile including 0.1% formic acid
MS$FOCUSED_ION: PRECURSOR_TYPE [M+H]+
MS$FOCUSED_ION: PRECURSOR_M/Z 449.1078379
PK$SPLASH: splash10-014j-0962000000-17b8b5193c93f382c80c
PK$NUM_PEAK: 254
PK$PEAK: m/z int. rel.int.
  65.01975 11.0 11
  68.98123 9.0 9
  75.958 7.0 7
  76.02397 10.0 10
  77.021 7.0 7
  77.04248 11.0 11
  79.05415 9.0 9
  81.02969 8.0 8
  81.0351 29.0 29
  85.02932 11.0 11
  89.03329 9.0 9
  89.04446 7.0 7
  91.0559 44.0 44
  92.0567 12.0 12
  95.05019 41.0 41
  103.0531 22.0 22
  107.05005 23.0 23
  108.05398 16.0 16
  109.02795 97.0 97
  111.01511 19.0 19
  115.02058 11.0 11
  115.0517 10.0 10
  117.11211 11.0 11
  119.05553 8.0 8
  121.01647 13.0 13
  121.03057 53.0 53
  121.03709 17.0 17
  121.05637 10.0 10
  122.02759 10.0 10
  123.0066 55.0 55
  123.01752 14.0 14
  123.80408 9.0 9
  124.0092 8.0 8
  124.02203 11.0 11
  125.98326 7.0 7
  128.0631 9.0 9
  131.04739 19.0 19
  133.02242 9.0 9
  133.03128 21.0 21
  134.03389 9.0 9
  134.04366 37.0 37
  135.00305 15.0 15
  135.02583 13.0 13
  135.04317 146.0 146
  136.04559 44.0 44
  137.0101 14.0 14
  137.02415 212.0 212
  139.03851 11.0 11
  141.07458 8.0 8
  145.02435 15.0 15
  147.04379 10.0 10
  149.0197 156.0 156
  149.02731 68.0 68
  150.03168 23.0 23
  150.0372 7.0 7
  153.00983 9.0 9
  153.07263 9.0 9
  154.65126 8.0 8
  156.09439 7.0 7
  157.06119 14.0 14
  158.0331 8.0 8
  159.03337 15.0 15
  159.03917 37.0 37
  159.86935 8.0 8
  161.01079 7.0 7
  161.02106 31.0 31
  161.02621 79.0 79
  162.02538 13.0 13
  162.98759 8.0 8
  163.03607 134.0 134
  164.03821 9.0 9
  164.04486 7.0 7
  164.82396 13.0 13
  164.95273 18.0 18
  165.01822 1000.0 999
  166.01004 46.0 46
  166.02567 25.0 25
  166.18222 7.0 7
  167.02391 12.0 12
  168.02673 8.0 8
  169.02745 16.0 16
  169.06778 9.0 9
  170.30667 7.0 7
  171.04384 12.0 12
  171.81253 8.0 8
  172.14964 7.0 7
  175.03711 27.0 27
  176.01096 23.0 23
  176.04483 11.0 11
  177.0175 40.0 40
  177.0536 16.0 16
  178.02267 26.0 26
  178.07811 12.0 12
  178.99594 19.0 19
  179.01137 13.0 13
  179.03308 30.0 30
  179.04115 16.0 16
  180.02991 29.0 29
  181.06537 11.0 11
  182.1983 7.0 7
  187.03685 50.0 50
  188.9774 8.0 8
  189.01244 24.0 24
  189.02293 23.0 23
  190.02533 26.0 26
  190.98305 24.0 24
  191.00797 8.0 8
  191.02853 28.0 28
  191.04259 16.0 16
  191.09297 11.0 11
  192.00911 10.0 10
  195.0273 19.0 19
  195.08279 11.0 11
  201.05479 14.0 14
  202.01793 14.0 14
  203.03616 42.0 42
  205.00919 8.0 8
  205.04623 27.0 27
  207.07973 11.0 11
  209.02101 9.0 9
  212.04739 11.0 11
  213.08533 13.0 13
  215.03145 40.0 40
  216.03372 8.0 8
  216.05054 9.0 9
  217.00923 12.0 12
  219.07579 7.0 7
  222.07855 11.0 11
  225.50081 12.0 12
  226.06331 8.0 8
  226.9868 13.0 13
  227.05444 17.0 17
  229.01729 9.0 9
  229.05222 7.0 7
  231.06787 8.0 8
  233.0661 9.0 9
  234.06558 20.0 20
  239.42371 7.0 7
  240.07077 9.0 9
  241.04036 19.0 19
  241.43468 8.0 8
  243.03337 32.0 32
  243.05852 9.0 9
  243.06839 9.0 9
  244.01997 9.0 9
  244.0601 14.0 14
  244.08302 14.0 14
  245.02368 13.0 13
  245.04649 54.0 54
  247.01772 16.0 16
  247.06906 9.0 9
  251.0752 22.0 22
  254.0612 40.0 40
  254.96292 19.0 19
  255.06294 35.0 35
  256.35028 15.0 15
  258.05267 52.0 52
  258.08209 11.0 11
  259.06003 7.0 7
  259.49884 9.0 9
  263.07703 17.0 17
  264.92557 9.0 9
  265.07898 11.0 11
  265.53461 22.0 22
  268.03137 14.0 14
  268.06375 10.0 10
  268.08017 10.0 10
  269.0278 10.0 10
  269.048 9.0 9
  270.01562 9.0 9
  270.04581 12.0 12
  270.06171 31.0 31
  271.0567 16.0 16
  272.06122 14.0 14
  272.07233 19.0 19
  273.08096 23.0 23
  282.04352 7.0 7
  283.05374 114.0 114
  283.06592 53.0 53
  283.9946 7.0 7
  284.05692 25.0 25
  285.03281 22.0 22
  285.04715 26.0 26
  286.03738 39.0 39
  286.0524 61.0 61
  287.05121 51.0 51
  287.06552 12.0 12
  291.06113 7.0 7
  293.0484 7.0 7
  295.03598 28.0 28
  295.06805 64.0 64
  296.05566 19.0 19
  296.07556 11.0 11
  297.04605 13.0 13
  297.07434 104.0 104
  297.09827 10.0 10
  297.1185 8.0 8
  298.06705 19.0 19
  299.01294 18.0 18
  299.03235 61.0 61
  299.05356 400.0 400
  299.07266 83.0 83
  300.0444 42.0 42
  300.06482 147.0 147
  300.08167 10.0 10
  301.04834 9.0 9
  301.06381 27.0 27
  301.73538 8.0 8
  302.06989 7.0 7
  302.13074 11.0 11
  309.08044 8.0 8
  310.05286 19.0 19
  310.0751 7.0 7
  310.84604 8.0 8
  311.04422 21.0 21
  311.05914 74.0 74
  311.10226 9.0 9
  311.69595 8.0 8
  312.06238 34.0 34
  312.0878 9.0 9
  313.02905 12.0 12
  313.04398 26.0 26
  313.08093 35.0 35
  316.03934 10.0 10
  320.07059 24.0 24
  322.08575 20.0 20
  323.03452 8.0 8
  323.05054 10.0 10
  324.05927 28.0 28
  324.07953 8.0 8
  325.01553 9.0 9
  325.07281 101.0 101
  325.09109 29.0 29
  325.10431 7.0 7
  326.07047 7.0 7
  326.08533 40.0 40
  326.79105 13.0 13
  329.05673 36.0 36
  329.073 44.0 44
  330.08002 8.0 8
  337.05923 18.0 18
  337.07721 16.0 16
  338.0705 28.0 28
  339.08459 8.0 8
  339.09958 12.0 12
  347.05206 10.0 10
  349.08435 8.0 8
  352.05725 9.0 9
  360.3407 16.0 16
  363.04538 7.0 7
  365.07605 11.0 11
  377.04205 8.0 8
  393.38147 9.0 9
  415.48987 7.0 7
//
