ACCESSION: MSBNK-RIKEN-PR300938
RECORD_TITLE: Hydrocotarnine; LC-ESI-QTOF; MS2
DATE: 2019.03.28
AUTHORS: Tetsuya Mori, Center for Sustainable Resource Science, RIKEN
LICENSE: CC BY-NC-SA
PUBLICATION: Tsugawa H., Nakabayashi R., Mori T., Yamada Y., Takahashi M., Rai A., Sugiyama R., Yamamoto H., Nakaya T., Yamazaki M., Kooke R., Bac-Molenaar JA., Oztolan-Erol N., Keurentjes JJB., Arita M., Saito K. (2019) "A cheminformatics approach to characterize metabolomes in stable-isotope-labeled organisms" Nature Methods 16(4):295-298. [doi:10.1038/s41592-019-0358-2]
COMMENT: registered in RIKEN PlaSMA
CH$NAME: Hydrocotarnine
CH$COMPOUND_CLASS: Tetrahydroisoquinolines
CH$FORMULA: C12H15NO3
CH$EXACT_MASS: 221.256
CH$SMILES: COC1=C2CN(C)CCC2=CC2=C1OCO2
CH$IUPAC: InChI=1S/C12H15NO3/c1-13-4-3-8-5-10-12(16-7-15-10)11(14-2)9(8)6-13/h5H,3-4,6-7H2,1-2H3
CH$LINK: INCHIKEY XXANNZJIZQTCBP-UHFFFAOYSA-N
AC$INSTRUMENT: LC, Waters Acquity UPLC System; MS, Waters Xevo G2 Q-Tof
AC$INSTRUMENT_TYPE: LC-ESI-QTOF
AC$MASS_SPECTROMETRY: MS_TYPE MS2
AC$MASS_SPECTROMETRY: ION_MODE POSITIVE
AC$MASS_SPECTROMETRY: COLLISION_ENERGY 6V
AC$MASS_SPECTROMETRY: DESOLVATION_GAS_FLOW 800/h
AC$MASS_SPECTROMETRY: DESOLVATION_TEMPERATURE 450 C
AC$MASS_SPECTROMETRY: IONIZATION ESI
AC$CHROMATOGRAPHY: CAPILLARY_VOLTAGE +3.00 kV
AC$CHROMATOGRAPHY: COLUMN_NAME Acquity bridged ethyl hybrid C18 (1.7 um, 2.1 mm * 100 mm, Waters)
AC$CHROMATOGRAPHY: COLUMN_TEMPERATURE 40 C
AC$CHROMATOGRAPHY: FLOW_GRADIENT A/B = (99.5%/0.5% at 0 min, 99.5%/0.5% at 0.1 min, 20%/80% at 10 min, 0.5%/99.5% at 10.1 min, 0.5%/99.5% at 12.0 min, 99.5%/0.5% at 12.1 min, 99.5%/0.5% at 15.0 min)
AC$CHROMATOGRAPHY: FLOW_RATE 0.3 ml/min at 0 min, 0.3 ml/min at 10 min, 0.4 ml/min at 10.1 min, 0.4 ml/min at 14.4 min, 0.3 ml/min at 14.5 min
AC$CHROMATOGRAPHY: RETENTION_TIME 3.328483
AC$CHROMATOGRAPHY: SOLVENT A water including 0.1% formic acid
AC$CHROMATOGRAPHY: SOLVENT B acetonitrile including 0.1% formic acid
MS$FOCUSED_ION: PRECURSOR_TYPE [M+H]+
MS$FOCUSED_ION: PRECURSOR_M/Z 222.1124698
PK$SPLASH: splash10-0006-4910000000-947b2d58b91e8d969467
PK$NUM_PEAK: 22
PK$PEAK: m/z int. rel.int.
  78.04585 353.0 353
  79.05689 329.0 329
  91.05009 906.0 905
  91.05628 1000.0 999
  104.04973 200.0 200
  105.03517 365.0 365
  106.06319 259.0 259
  107.04693 212.0 212
  115.06132 200.0 200
  117.05428 565.0 564
  121.06152 247.0 247
  131.07103 353.0 353
  134.03755 271.0 271
  134.0495 306.0 306
  135.06818 259.0 259
  135.08229 294.0 294
  136.0593 235.0 235
  137.06303 247.0 247
  146.03102 200.0 200
  148.0813 247.0 247
  160.08501 200.0 200
  222.10681 776.0 775
//
