ACCESSION: MSBNK-RIKEN-PR301840
RECORD_TITLE: Cinchonidine; LC-ESI-QTOF; MS2
DATE: 2019.03.28
AUTHORS: Tetsuya Mori, Center for Sustainable Resource Science, RIKEN
LICENSE: CC BY-NC-SA
PUBLICATION: Tsugawa H., Nakabayashi R., Mori T., Yamada Y., Takahashi M., Rai A., Sugiyama R., Yamamoto H., Nakaya T., Yamazaki M., Kooke R., Bac-Molenaar JA., Oztolan-Erol N., Keurentjes JJB., Arita M., Saito K. (2019) "A cheminformatics approach to characterize metabolomes in stable-isotope-labeled organisms" Nature Methods 16(4):295-298. [doi:10.1038/s41592-019-0358-2]
COMMENT: registered in RIKEN PlaSMA
CH$NAME: Cinchonidine
CH$COMPOUND_CLASS: Cinchona alkaloids
CH$FORMULA: C19H22N2O
CH$EXACT_MASS: 294.398
CH$SMILES: C=C[C@H]1CN2CC[C@H]1C[C@H]2[C@@H](C3=CC=NC4=CC=CC=C34)O
CH$IUPAC: InChI=1S/C19H22N2O/c1-2-13-12-21-10-8-14(13)11-18(21)19(22)16-7-9-20-17-6-4-3-5-15(16)17/h2-7,9,13-14,18-19,22H,1,8,10-12H2/t13-,14-,18-,19+/m0/s1
CH$LINK: INCHIKEY KMPWYEUPVWOPIM-KODHJQJWSA-N
AC$INSTRUMENT: LC, Waters Acquity UPLC System; MS, Waters Xevo G2 Q-Tof
AC$INSTRUMENT_TYPE: LC-ESI-QTOF
AC$MASS_SPECTROMETRY: MS_TYPE MS2
AC$MASS_SPECTROMETRY: ION_MODE POSITIVE
AC$MASS_SPECTROMETRY: COLLISION_ENERGY 6V
AC$MASS_SPECTROMETRY: DESOLVATION_GAS_FLOW 800/h
AC$MASS_SPECTROMETRY: DESOLVATION_TEMPERATURE 450 C
AC$MASS_SPECTROMETRY: IONIZATION ESI
AC$CHROMATOGRAPHY: CAPILLARY_VOLTAGE +3.00 kV
AC$CHROMATOGRAPHY: COLUMN_NAME Acquity bridged ethyl hybrid C18 (1.7 um, 2.1 mm * 100 mm, Waters)
AC$CHROMATOGRAPHY: COLUMN_TEMPERATURE 40 C
AC$CHROMATOGRAPHY: FLOW_GRADIENT A/B = (99.5%/0.5% at 0 min, 99.5%/0.5% at 0.1 min, 20%/80% at 10 min, 0.5%/99.5% at 10.1 min, 0.5%/99.5% at 12.0 min, 99.5%/0.5% at 12.1 min, 99.5%/0.5% at 15.0 min)
AC$CHROMATOGRAPHY: FLOW_RATE 0.3 ml/min at 0 min, 0.3 ml/min at 10 min, 0.4 ml/min at 10.1 min, 0.4 ml/min at 14.4 min, 0.3 ml/min at 14.5 min
AC$CHROMATOGRAPHY: RETENTION_TIME 3.1463
AC$CHROMATOGRAPHY: SOLVENT A water including 0.1% formic acid
AC$CHROMATOGRAPHY: SOLVENT B acetonitrile including 0.1% formic acid
MS$FOCUSED_ION: PRECURSOR_TYPE [M+H]+
MS$FOCUSED_ION: PRECURSOR_M/Z 295.1804898
PK$SPLASH: splash10-0002-0290000000-50f8a7c2c557cc824a8f
PK$NUM_PEAK: 42
PK$PEAK: m/z int. rel.int.
  65.82083 7.0 7
  79.05453 19.0 19
  81.06947 24.0 24
  110.09943 9.0 9
  122.09744 14.0 14
  130.06461 44.0 44
  131.06676 10.0 10
  134.10159 13.0 13
  136.1109 7.0 7
  142.06476 24.0 24
  142.0777 7.0 7
  143.06587 8.0 8
  145.08214 6.0 6
  154.05406 7.0 7
  154.06471 15.0 15
  154.07372 6.0 6
  156.07611 5.0 5
  157.08447 8.0 8
  165.06651 5.0 5
  166.05815 8.0 8
  166.12419 8.0 8
  167.05862 6.0 6
  167.07539 14.0 14
  168.08418 28.0 28
  180.08994 7.0 7
  181.07806 9.0 9
  184.07927 8.0 8
  185.10397 7.0 7
  189.77281 9.0 9
  196.11082 6.0 6
  197.10927 9.0 9
  204.08092 7.0 7
  206.09885 5.0 5
  223.12407 7.0 7
  234.12427 8.0 8
  235.12227 6.0 6
  249.13588 5.0 5
  277.16266 37.0 37
  277.17725 31.0 31
  278.16638 13.0 13
  279.18045 8.0 8
  295.18051 1000.0 999
//
