ACCESSION: MSBNK-RIKEN-PR301285
RECORD_TITLE: Catharanthine; LC-ESI-QTOF; MS2
DATE: 2019.03.28
AUTHORS: Tetsuya Mori, Center for Sustainable Resource Science, RIKEN
LICENSE: CC BY-NC-SA
PUBLICATION: Tsugawa H., Nakabayashi R., Mori T., Yamada Y., Takahashi M., Rai A., Sugiyama R., Yamamoto H., Nakaya T., Yamazaki M., Kooke R., Bac-Molenaar JA., Oztolan-Erol N., Keurentjes JJB., Arita M., Saito K. (2019) "A cheminformatics approach to characterize metabolomes in stable-isotope-labeled organisms" Nature Methods 16(4):295-298. [doi:10.1038/s41592-019-0358-2]
COMMENT: registered in RIKEN PlaSMA
CH$NAME: Catharanthine
CH$COMPOUND_CLASS: Ibogan-type alkaloids
CH$FORMULA: C21H24N2O2
CH$EXACT_MASS: 336.435
CH$SMILES: CCC1=C[C@@H]2CN3CCC4=C(NC5=CC=CC=C45)[C@@](C2)([C@@H]13)C(=O)OC
CH$IUPAC: InChI=1S/C21H24N2O2/c1-3-14-10-13-11-21(20(24)25-2)18-16(8-9-23(12-13)19(14)21)15-6-4-5-7-17(15)22-18/h4-7,10,13,19,22H,3,8-9,11-12H2,1-2H3/t13-,19+,21-/m0/s1
CH$LINK: INCHIKEY CMKFQVZJOWHHDV-NQZBTDCJSA-N
AC$INSTRUMENT: LC, Waters Acquity UPLC System; MS, Waters Xevo G2 Q-Tof
AC$INSTRUMENT_TYPE: LC-ESI-QTOF
AC$MASS_SPECTROMETRY: MS_TYPE MS2
AC$MASS_SPECTROMETRY: ION_MODE POSITIVE
AC$MASS_SPECTROMETRY: COLLISION_ENERGY 6V
AC$MASS_SPECTROMETRY: DESOLVATION_GAS_FLOW 800/h
AC$MASS_SPECTROMETRY: DESOLVATION_TEMPERATURE 450 C
AC$MASS_SPECTROMETRY: IONIZATION ESI
AC$CHROMATOGRAPHY: CAPILLARY_VOLTAGE +3.00 kV
AC$CHROMATOGRAPHY: COLUMN_NAME Acquity bridged ethyl hybrid C18 (1.7 um, 2.1 mm * 100 mm, Waters)
AC$CHROMATOGRAPHY: COLUMN_TEMPERATURE 40 C
AC$CHROMATOGRAPHY: FLOW_GRADIENT A/B = (99.5%/0.5% at 0 min, 99.5%/0.5% at 0.1 min, 20%/80% at 10 min, 0.5%/99.5% at 10.1 min, 0.5%/99.5% at 12.0 min, 99.5%/0.5% at 12.1 min, 99.5%/0.5% at 15.0 min)
AC$CHROMATOGRAPHY: FLOW_RATE 0.3 ml/min at 0 min, 0.3 ml/min at 10 min, 0.4 ml/min at 10.1 min, 0.4 ml/min at 14.4 min, 0.3 ml/min at 14.5 min
AC$CHROMATOGRAPHY: RETENTION_TIME 5.038217
AC$CHROMATOGRAPHY: SOLVENT A water including 0.1% formic acid
AC$CHROMATOGRAPHY: SOLVENT B acetonitrile including 0.1% formic acid
MS$FOCUSED_ION: PRECURSOR_TYPE [M+H]+
MS$FOCUSED_ION: PRECURSOR_M/Z 337.1910545
PK$SPLASH: splash10-000f-0906000000-9b586228394ce8c430bd
PK$NUM_PEAK: 21
PK$PEAK: m/z int. rel.int.
  93.07037 104.0 104
  94.07222 11.0 11
  105.0722 5.0 5
  130.06406 5.0 5
  133.06482 28.0 28
  143.071 10.0 10
  144.08098 962.0 961
  145.08469 111.0 111
  146.091 5.0 5
  165.09128 87.0 87
  166.09189 9.0 9
  168.08145 5.0 5
  173.10727 122.0 122
  174.11032 13.0 13
  174.1171 6.0 6
  205.08458 7.0 7
  218.09741 7.0 7
  229.10983 6.0 6
  305.16904 5.0 5
  337.1908 1000.0 999
  337.24298 25.0 25
//
