ACCESSION: MSBNK-RIKEN-PR300403
RECORD_TITLE: Lycoctonine; LC-ESI-QTOF; MS2
DATE: 2019.03.28
AUTHORS: Tetsuya Mori, Center for Sustainable Resource Science, RIKEN
LICENSE: CC BY-NC-SA
PUBLICATION: Tsugawa H., Nakabayashi R., Mori T., Yamada Y., Takahashi M., Rai A., Sugiyama R., Yamamoto H., Nakaya T., Yamazaki M., Kooke R., Bac-Molenaar JA., Oztolan-Erol N., Keurentjes JJB., Arita M., Saito K. (2019) "A cheminformatics approach to characterize metabolomes in stable-isotope-labeled organisms" Nature Methods 16(4):295-298. [doi:10.1038/s41592-019-0358-2]
COMMENT: registered in RIKEN PlaSMA
CH$NAME: Lycoctonine
CH$COMPOUND_CLASS: Aconitane-type diterpenoid alkaloids
CH$FORMULA: C25H41NO7
CH$EXACT_MASS: 467.603
CH$SMILES: CCN1C[C@]2(CO)CC[C@H](OC)[C@@]34[C@@H]5C[C@H]6[C@H](OC)[C@@H]5[C@](O)(C[C@@H]6OC)[C@@](O)([C@@H](OC)[C@H]23)C14
CH$IUPAC: InChI=1S/C25H41NO7/c1-6-26-11-22(12-27)8-7-16(31-3)24-14-9-13-15(30-2)10-23(28,17(14)18(13)32-4)25(29,21(24)26)20(33-5)19(22)24/h13-21,27-29H,6-12H2,1-5H3/t13-,14-,15+,16+,17-,18+,19-,20+,21?,22+,23-,24+,25-/m1/s1
CH$LINK: INCHIKEY YOTUXHIWBVZAJQ-YAEAOFIFSA-N
AC$INSTRUMENT: LC, Waters Acquity UPLC System; MS, Waters Xevo G2 Q-Tof
AC$INSTRUMENT_TYPE: LC-ESI-QTOF
AC$MASS_SPECTROMETRY: MS_TYPE MS2
AC$MASS_SPECTROMETRY: ION_MODE POSITIVE
AC$MASS_SPECTROMETRY: COLLISION_ENERGY 6V
AC$MASS_SPECTROMETRY: DESOLVATION_GAS_FLOW 800/h
AC$MASS_SPECTROMETRY: DESOLVATION_TEMPERATURE 450 C
AC$MASS_SPECTROMETRY: IONIZATION ESI
AC$CHROMATOGRAPHY: CAPILLARY_VOLTAGE +3.00 kV
AC$CHROMATOGRAPHY: COLUMN_NAME Acquity bridged ethyl hybrid C18 (1.7 um, 2.1 mm * 100 mm, Waters)
AC$CHROMATOGRAPHY: COLUMN_TEMPERATURE 40 C
AC$CHROMATOGRAPHY: FLOW_GRADIENT A/B = (99.5%/0.5% at 0 min, 99.5%/0.5% at 0.1 min, 20%/80% at 10 min, 0.5%/99.5% at 10.1 min, 0.5%/99.5% at 12.0 min, 99.5%/0.5% at 12.1 min, 99.5%/0.5% at 15.0 min)
AC$CHROMATOGRAPHY: FLOW_RATE 0.3 ml/min at 0 min, 0.3 ml/min at 10 min, 0.4 ml/min at 10.1 min, 0.4 ml/min at 14.4 min, 0.3 ml/min at 14.5 min
AC$CHROMATOGRAPHY: RETENTION_TIME 3.674817
AC$CHROMATOGRAPHY: SOLVENT A water including 0.1% formic acid
AC$CHROMATOGRAPHY: SOLVENT B acetonitrile including 0.1% formic acid
MS$FOCUSED_ION: PRECURSOR_TYPE [M+H]+
MS$FOCUSED_ION: PRECURSOR_M/Z 468.2955791
PK$SPLASH: splash10-014i-0000900000-e15c0bba3aed27dc02d2
PK$NUM_PEAK: 18
PK$PEAK: m/z int. rel.int.
  108.07927 6.0 6
  126.09152 12.0 12
  140.10834 7.0 7
  344.21722 6.0 6
  354.20535 9.0 9
  358.24341 11.0 11
  372.21701 19.0 19
  373.22144 6.0 6
  386.23364 10.0 10
  390.26047 7.0 7
  404.24274 31.0 31
  405.24716 8.0 8
  418.26099 7.0 7
  436.26608 28.0 28
  437.27097 10.0 10
  468.22995 7.0 7
  468.29486 1000.0 999
  468.35889 29.0 29
//
