ACCESSION: MSBNK-RIKEN-PR303498
RECORD_TITLE: Atractylenolide III; LC-ESI-QTOF; MS2
DATE: 2019.03.28
AUTHORS: Tetsuya Mori, Center for Sustainable Resource Science, RIKEN
LICENSE: CC BY-NC-SA
PUBLICATION: Tsugawa H., Nakabayashi R., Mori T., Yamada Y., Takahashi M., Rai A., Sugiyama R., Yamamoto H., Nakaya T., Yamazaki M., Kooke R., Bac-Molenaar JA., Oztolan-Erol N., Keurentjes JJB., Arita M., Saito K. (2019) "A cheminformatics approach to characterize metabolomes in stable-isotope-labeled organisms" Nature Methods 16(4):295-298. [doi:10.1038/s41592-019-0358-2]
COMMENT: registered in RIKEN PlaSMA
CH$NAME: Atractylenolide III
CH$COMPOUND_CLASS: Eudesmanolides, secoeudesmanolides, and derivatives
CH$FORMULA: C15H20O3
CH$EXACT_MASS: 248.322
CH$SMILES: CC1=C2C[C@H]3C(=C)CCC[C@]3(C)C[C@]2(O)OC1=O
CH$IUPAC: InChI=1S/C15H20O3/c1-9-5-4-6-14(3)8-15(17)12(7-11(9)14)10(2)13(16)18-15/h11,17H,1,4-8H2,2-3H3/t11-,14+,15-/m0/s1
CH$LINK: INCHIKEY FBMORZZOJSDNRQ-GLQYFDAESA-N
AC$INSTRUMENT: LC, Waters Acquity UPLC System; MS, Waters Xevo G2 Q-Tof
AC$INSTRUMENT_TYPE: LC-ESI-QTOF
AC$MASS_SPECTROMETRY: MS_TYPE MS2
AC$MASS_SPECTROMETRY: ION_MODE POSITIVE
AC$MASS_SPECTROMETRY: COLLISION_ENERGY 6V
AC$MASS_SPECTROMETRY: DESOLVATION_GAS_FLOW 800/h
AC$MASS_SPECTROMETRY: DESOLVATION_TEMPERATURE 450 C
AC$MASS_SPECTROMETRY: IONIZATION ESI
AC$CHROMATOGRAPHY: CAPILLARY_VOLTAGE +3.00 kV
AC$CHROMATOGRAPHY: COLUMN_NAME Acquity bridged ethyl hybrid C18 (1.7 um, 2.1 mm * 100 mm, Waters)
AC$CHROMATOGRAPHY: COLUMN_TEMPERATURE 40 C
AC$CHROMATOGRAPHY: FLOW_GRADIENT A/B = (99.5%/0.5% at 0 min, 99.5%/0.5% at 0.1 min, 20%/80% at 10 min, 0.5%/99.5% at 10.1 min, 0.5%/99.5% at 12.0 min, 99.5%/0.5% at 12.1 min, 99.5%/0.5% at 15.0 min)
AC$CHROMATOGRAPHY: FLOW_RATE 0.3 ml/min at 0 min, 0.3 ml/min at 10 min, 0.4 ml/min at 10.1 min, 0.4 ml/min at 14.4 min, 0.3 ml/min at 14.5 min
AC$CHROMATOGRAPHY: RETENTION_TIME 7.912717
AC$CHROMATOGRAPHY: SOLVENT A water including 0.1% formic acid
AC$CHROMATOGRAPHY: SOLVENT B acetonitrile including 0.1% formic acid
MS$FOCUSED_ION: PRECURSOR_TYPE [M+H]+
MS$FOCUSED_ION: PRECURSOR_M/Z 249.148521
PK$SPLASH: splash10-0006-7900000000-c86d97700cd3613f9bcd
PK$NUM_PEAK: 24
PK$PEAK: m/z int. rel.int.
  76.98773 162.0 162
  77.04292 121.0 121
  79.05087 116.0 116
  79.05898 145.0 145
  91.05659 1000.0 999
  92.05629 133.0 133
  93.07062 145.0 145
  93.07588 312.0 312
  103.05679 139.0 139
  105.06931 382.0 382
  115.05753 116.0 116
  116.05853 179.0 179
  117.06777 127.0 127
  119.0854 145.0 145
  121.06783 150.0 150
  128.06502 358.0 358
  129.07297 121.0 121
  131.05125 249.0 249
  132.09174 116.0 116
  133.06952 98.0 98
  141.06778 116.0 116
  142.07382 104.0 104
  144.08771 191.0 191
  183.08025 145.0 145
//
