ACCESSION: MSBNK-RIKEN-PR304674
RECORD_TITLE: Voacamine; LC-ESI-QTOF; MS2
DATE: 2019.03.28
AUTHORS: Tetsuya Mori, Center for Sustainable Resource Science, RIKEN
LICENSE: CC BY-NC-SA
PUBLICATION: Tsugawa H., Nakabayashi R., Mori T., Yamada Y., Takahashi M., Rai A., Sugiyama R., Yamamoto H., Nakaya T., Yamazaki M., Kooke R., Bac-Molenaar JA., Oztolan-Erol N., Keurentjes JJB., Arita M., Saito K. (2019) "A cheminformatics approach to characterize metabolomes in stable-isotope-labeled organisms" Nature Methods 16(4):295-298. [doi:10.1038/s41592-019-0358-2]
COMMENT: registered in RIKEN PlaSMA
CH$NAME: Voacamine
CH$COMPOUND_CLASS: Ibogan-type alkaloids
CH$FORMULA: C43H52N4O5
CH$EXACT_MASS: 704.912
CH$SMILES: CCC1CC2CN3CCC4=C(NC5=CC(C6CC7C(C(CC8=C6NC6=CC=CC=C86)N(C)CC7=CC)C(=O)OC)=C(OC)C=C45)C(C2)(C13)C(=O)OC
CH$IUPAC: InChI=1S/C43H52N4O5/c1-7-24-15-23-20-43(42(49)52-6)39-27(13-14-47(21-23)40(24)43)29-19-36(50-4)30(17-34(29)45-39)31-16-28-25(8-2)22-46(3)35(37(28)41(48)51-5)18-32-26-11-9-10-12-33(26)44-38(31)32/h8-12,17,19,23-24,28,31,35,37,40,44-45H,7,13-16,18,20-22H2,1-6H3
CH$LINK: INCHIKEY VCMIRXRRQJNZJT-UHFFFAOYSA-N
AC$INSTRUMENT: LC, Waters Acquity UPLC System; MS, Waters Xevo G2 Q-Tof
AC$INSTRUMENT_TYPE: LC-ESI-QTOF
AC$MASS_SPECTROMETRY: MS_TYPE MS2
AC$MASS_SPECTROMETRY: ION_MODE NEGATIVE
AC$MASS_SPECTROMETRY: COLLISION_ENERGY 6V
AC$MASS_SPECTROMETRY: DESOLVATION_GAS_FLOW 800/h
AC$MASS_SPECTROMETRY: DESOLVATION_TEMPERATURE 450 C
AC$MASS_SPECTROMETRY: IONIZATION ESI
AC$CHROMATOGRAPHY: CAPILLARY_VOLTAGE -2.75 kV
AC$CHROMATOGRAPHY: COLUMN_NAME Acquity bridged ethyl hybrid C18 (1.7 um, 2.1 mm * 100 mm, Waters)
AC$CHROMATOGRAPHY: COLUMN_TEMPERATURE 40 C
AC$CHROMATOGRAPHY: FLOW_GRADIENT A/B = (99.5%/0.5% at 0 min, 99.5%/0.5% at 0.1 min, 20%/80% at 10 min, 0.5%/99.5% at 10.1 min, 0.5%/99.5% at 12.0 min, 99.5%/0.5% at 12.1 min, 99.5%/0.5% at 15.0 min)
AC$CHROMATOGRAPHY: FLOW_RATE 0.3 ml/min at 0 min, 0.3 ml/min at 10 min, 0.4 ml/min at 10.1 min, 0.4 ml/min at 14.4 min, 0.3 ml/min at 14.5 min
AC$CHROMATOGRAPHY: RETENTION_TIME 4.938133
AC$CHROMATOGRAPHY: SOLVENT A water including 0.1% formic acid
AC$CHROMATOGRAPHY: SOLVENT B acetonitrile including 0.1% formic acid
MS$FOCUSED_ION: PRECURSOR_TYPE [M-H]-
MS$FOCUSED_ION: PRECURSOR_M/Z 703.38649434783
PK$SPLASH: splash10-0udi-0009450000-8748d3aaea161c3a6925
PK$NUM_PEAK: 163
PK$PEAK: m/z int. rel.int.
  154.04805 27.0 27
  154.05582 17.0 17
  154.10089 15.0 15
  157.04839 18.0 18
  163.06828 18.0 18
  166.06238 17.0 17
  167.06477 15.0 15
  171.06558 17.0 17
  181.07439 32.0 32
  184.06674 20.0 20
  187.06461 19.0 19
  188.07425 15.0 15
  193.98744 20.0 20
  195.09901 17.0 17
  246.10091 20.0 20
  261.10925 34.0 34
  261.93677 17.0 17
  262.14255 29.0 29
  263.12506 24.0 24
  273.09897 27.0 27
  279.14401 16.0 16
  292.12518 18.0 18
  293.13422 16.0 16
  293.15405 21.0 21
  299.11133 18.0 18
  301.14108 15.0 15
  310.11185 20.0 20
  311.24118 26.0 26
  312.11484 21.0 21
  312.13153 18.0 18
  313.19788 43.0 43
  315.14984 17.0 17
  318.12033 20.0 20
  322.13885 42.0 42
  323.11273 15.0 15
  326.13016 17.0 17
  326.14316 69.0 69
  327.1297 37.0 37
  327.15125 15.0 15
  334.15997 41.0 41
  335.18097 17.0 17
  340.12704 24.0 24
  340.14197 18.0 18
  343.41763 40.0 40
  344.19144 18.0 18
  347.17416 22.0 22
  350.11957 20.0 20
  350.16525 25.0 25
  351.17856 26.0 26
  352.14023 20.0 20
  352.17819 1000.0 999
  352.91507 19.0 19
  352.97552 15.0 15
  353.18768 482.0 482
  354.1781 35.0 35
  354.19122 37.0 37
  355.20944 23.0 23
  366.18604 20.0 20
  366.20142 19.0 19
  367.20294 221.0 221
  368.20337 29.0 29
  374.98288 18.0 18
  378.21143 15.0 15
  379.20352 230.0 230
  380.2085 21.0 21
  381.19638 19.0 19
  381.21603 49.0 49
  382.17648 17.0 17
  384.2475 17.0 17
  393.1958 23.0 23
  394.17078 18.0 18
  405.16422 18.0 18
  405.20203 19.0 19
  418.18024 16.0 16
  430.20273 20.0 20
  431.25244 24.0 24
  431.27402 26.0 26
  434.202 24.0 24
  435.20358 17.0 17
  440.92838 26.0 26
  445.22269 26.0 26
  446.24948 28.0 28
  448.2388 22.0 22
  450.18021 20.0 20
  456.24631 19.0 19
  459.19199 17.0 17
  460.20395 22.0 22
  460.25208 26.0 26
  462.18741 25.0 25
  462.21201 16.0 16
  462.25937 15.0 15
  462.28247 16.0 16
  476.22842 27.0 27
  479.2139 32.0 32
  487.23984 21.0 21
  490.23099 18.0 18
  490.26031 119.0 119
  491.25027 33.0 33
  492.21866 206.0 206
  492.24338 90.0 90
  492.26736 20.0 20
  492.67154 17.0 17
  493.22617 47.0 47
  493.24432 57.0 57
  494.237 182.0 182
  495.23425 46.0 46
  495.2485 52.0 52
  495.26367 31.0 31
  498.27521 20.0 20
  499.24957 28.0 28
  501.22009 15.0 15
  503.27792 19.0 19
  506.24023 210.0 210
  507.24762 229.0 229
  508.25833 117.0 117
  509.26175 46.0 46
  515.25037 26.0 26
  516.2323 32.0 32
  517.26984 17.0 17
  518.24371 124.0 124
  519.24249 40.0 40
  519.27466 31.0 31
  520.24603 18.0 18
  520.26471 23.0 23
  521.27057 30.0 30
  521.28473 15.0 15
  531.27832 36.0 36
  532.26434 15.0 15
  532.29388 16.0 16
  533.24963 40.0 40
  533.31525 16.0 16
  534.2511 20.0 20
  534.26788 47.0 47
  535.28943 40.0 40
  542.29767 15.0 15
  543.302 20.0 20
  544.21698 24.0 24
  548.29053 17.0 17
  549.26361 39.0 39
  549.29871 69.0 69
  550.29547 160.0 160
  550.35388 18.0 18
  551.28918 60.0 60
  573.28894 60.0 60
  574.25134 28.0 28
  575.26703 21.0 21
  584.31787 16.0 16
  585.302 21.0 21
  590.27942 20.0 20
  591.28967 17.0 17
  592.28687 17.0 17
  603.31958 18.0 18
  611.2699 17.0 17
  611.34167 15.0 15
  613.35266 23.0 23
  616.35333 15.0 15
  656.36536 40.0 40
  671.37286 16.0 16
  672.38165 20.0 20
  673.34357 39.0 39
  687.35724 19.0 19
  688.33752 20.0 20
  688.37244 16.0 16
//
