ACCESSION: MSBNK-RIKEN-PR307224
RECORD_TITLE: 7-Methylsulfinylheptyl isothiocyanate; LC-ESI-QTOF; MS2
DATE: 2019.03.28
AUTHORS: Tetsuya Mori, Center for Sustainable Resource Science, RIKEN
LICENSE: CC BY-NC-SA
PUBLICATION: Tsugawa H., Nakabayashi R., Mori T., Yamada Y., Takahashi M., Rai A., Sugiyama R., Yamamoto H., Nakaya T., Yamazaki M., Kooke R., Bac-Molenaar JA., Oztolan-Erol N., Keurentjes JJB., Arita M., Saito K. (2019) "A cheminformatics approach to characterize metabolomes in stable-isotope-labeled organisms" Nature Methods 16(4):295-298. [doi:10.1038/s41592-019-0358-2]
COMMENT: registered in RIKEN PlaSMA
CH$NAME: 7-Methylsulfinylheptyl isothiocyanate
CH$COMPOUND_CLASS: Sulfoxides
CH$FORMULA: C9H17NOS2
CH$EXACT_MASS: 219.371
CH$SMILES: CS(=O)CCCCCCCN=C=S
CH$IUPAC: InChI=1S/C9H17NOS2/c1-13(11)8-6-4-2-3-5-7-10-9-12/h2-8H2,1H3
CH$LINK: INCHIKEY OGYHCBGORZWBPH-UHFFFAOYSA-N
AC$INSTRUMENT: LC, Waters Acquity UPLC System; MS, Waters Xevo G2 Q-Tof
AC$INSTRUMENT_TYPE: LC-ESI-QTOF
AC$MASS_SPECTROMETRY: MS_TYPE MS2
AC$MASS_SPECTROMETRY: ION_MODE NEGATIVE
AC$MASS_SPECTROMETRY: COLLISION_ENERGY 6V
AC$MASS_SPECTROMETRY: DESOLVATION_GAS_FLOW 800/h
AC$MASS_SPECTROMETRY: DESOLVATION_TEMPERATURE 450 C
AC$MASS_SPECTROMETRY: IONIZATION ESI
AC$CHROMATOGRAPHY: CAPILLARY_VOLTAGE -2.75 kV
AC$CHROMATOGRAPHY: COLUMN_NAME Acquity bridged ethyl hybrid C18 (1.7 um, 2.1 mm * 100 mm, Waters)
AC$CHROMATOGRAPHY: COLUMN_TEMPERATURE 40 C
AC$CHROMATOGRAPHY: FLOW_GRADIENT A/B = (99.5%/0.5% at 0 min, 99.5%/0.5% at 0.1 min, 20%/80% at 10 min, 0.5%/99.5% at 10.1 min, 0.5%/99.5% at 12.0 min, 99.5%/0.5% at 12.1 min, 99.5%/0.5% at 15.0 min)
AC$CHROMATOGRAPHY: FLOW_RATE 0.3 ml/min at 0 min, 0.3 ml/min at 10 min, 0.4 ml/min at 10.1 min, 0.4 ml/min at 14.4 min, 0.3 ml/min at 14.5 min
AC$CHROMATOGRAPHY: RETENTION_TIME 5.4069
AC$CHROMATOGRAPHY: SOLVENT A water including 0.1% formic acid
AC$CHROMATOGRAPHY: SOLVENT B acetonitrile including 0.1% formic acid
MS$FOCUSED_ION: PRECURSOR_TYPE [M-H]-
MS$FOCUSED_ION: PRECURSOR_M/Z 218.06788004783
PK$SPLASH: splash10-014i-0930000000-e9092a16444199d1f241
PK$NUM_PEAK: 15
PK$PEAK: m/z int. rel.int.
  154.06834 222.0 222
  155.06781 120.0 120
  155.07941 111.0 111
  156.08717 519.0 518
  156.09253 162.0 162
  157.08318 255.0 255
  157.09274 97.0 97
  166.07887 144.0 144
  168.08681 1000.0 999
  170.08656 245.0 245
  175.8723 125.0 125
  200.06126 241.0 241
  201.05743 111.0 111
  218.05962 556.0 555
  218.07361 338.0 338
//
