ACCESSION: MSBNK-RIKEN-PR306774
RECORD_TITLE: Procyanidin C1; LC-ESI-QTOF; MS2
DATE: 2019.03.28
AUTHORS: Tetsuya Mori, Center for Sustainable Resource Science, RIKEN
LICENSE: CC BY-NC-SA
PUBLICATION: Tsugawa H., Nakabayashi R., Mori T., Yamada Y., Takahashi M., Rai A., Sugiyama R., Yamamoto H., Nakaya T., Yamazaki M., Kooke R., Bac-Molenaar JA., Oztolan-Erol N., Keurentjes JJB., Arita M., Saito K. (2019) "A cheminformatics approach to characterize metabolomes in stable-isotope-labeled organisms" Nature Methods 16(4):295-298. [doi:10.1038/s41592-019-0358-2]
COMMENT: registered in RIKEN PlaSMA
CH$NAME: Procyanidin C1
CH$COMPOUND_CLASS: Biflavonoids and polyflavonoids
CH$FORMULA: C45H38O18
CH$EXACT_MASS: 866.781
CH$SMILES: OC1CC2=C(OC1C1=CC(O)=C(O)C=C1)C(C1C(O)C(OC3=C(C4C(O)C(OC5=CC(O)=CC(O)=C45)C4=CC(O)=C(O)C=C4)C(O)=CC(O)=C13)C1=CC(O)=C(O)C=C1)=C(O)C=C2O
CH$IUPAC: InChI=1S/C45H38O18/c46-18-10-27(54)33-32(11-18)61-42(16-2-5-21(48)25(52)8-16)39(59)37(33)35-29(56)14-30(57)36-38(40(60)43(63-45(35)36)17-3-6-22(49)26(53)9-17)34-28(55)13-23(50)19-12-31(58)41(62-44(19)34)15-1-4-20(47)24(51)7-15/h1-11,13-14,31,37-43,46-60H,12H2
CH$LINK: INCHIKEY MOJZMWJRUKIQGL-UHFFFAOYSA-N
AC$INSTRUMENT: LC, Waters Acquity UPLC System; MS, Waters Xevo G2 Q-Tof
AC$INSTRUMENT_TYPE: LC-ESI-QTOF
AC$MASS_SPECTROMETRY: MS_TYPE MS2
AC$MASS_SPECTROMETRY: ION_MODE NEGATIVE
AC$MASS_SPECTROMETRY: COLLISION_ENERGY 6V
AC$MASS_SPECTROMETRY: DESOLVATION_GAS_FLOW 800/h
AC$MASS_SPECTROMETRY: DESOLVATION_TEMPERATURE 450 C
AC$MASS_SPECTROMETRY: IONIZATION ESI
AC$CHROMATOGRAPHY: CAPILLARY_VOLTAGE -2.75 kV
AC$CHROMATOGRAPHY: COLUMN_NAME Acquity bridged ethyl hybrid C18 (1.7 um, 2.1 mm * 100 mm, Waters)
AC$CHROMATOGRAPHY: COLUMN_TEMPERATURE 40 C
AC$CHROMATOGRAPHY: FLOW_GRADIENT A/B = (99.5%/0.5% at 0 min, 99.5%/0.5% at 0.1 min, 20%/80% at 10 min, 0.5%/99.5% at 10.1 min, 0.5%/99.5% at 12.0 min, 99.5%/0.5% at 12.1 min, 99.5%/0.5% at 15.0 min)
AC$CHROMATOGRAPHY: FLOW_RATE 0.3 ml/min at 0 min, 0.3 ml/min at 10 min, 0.4 ml/min at 10.1 min, 0.4 ml/min at 14.4 min, 0.3 ml/min at 14.5 min
AC$CHROMATOGRAPHY: RETENTION_TIME 3.463467
AC$CHROMATOGRAPHY: SOLVENT A water including 0.1% formic acid
AC$CHROMATOGRAPHY: SOLVENT B acetonitrile including 0.1% formic acid
MS$FOCUSED_ION: PRECURSOR_TYPE [M-H]-
MS$FOCUSED_ION: PRECURSOR_M/Z 865.19853794783
PK$SPLASH: splash10-004i-0891100000-45007646da892f30a58d
PK$NUM_PEAK: 103
PK$PEAK: m/z int. rel.int.
  123.0356 35.0 35
  123.04453 42.0 42
  123.04993 32.0 32
  125.02525 1000.0 999
  125.04485 33.0 33
  126.02314 119.0 119
  137.02527 43.0 43
  149.01778 40.0 40
  151.03328 45.0 45
  151.04076 73.0 73
  161.02153 290.0 290
  161.03287 35.0 35
  162.02731 37.0 37
  163.02791 37.0 37
  163.03783 68.0 68
  164.00833 119.0 119
  164.0173 58.0 58
  165.01328 37.0 37
  165.02325 102.0 102
  166.02509 52.0 52
  167.03186 82.0 82
  173.06358 37.0 37
  175.03534 155.0 155
  175.04413 48.0 48
  176.04274 37.0 37
  177.01521 62.0 62
  177.05583 43.0 43
  179.03194 37.0 37
  179.04042 35.0 35
  197.05968 38.0 38
  203.03281 55.0 55
  203.04309 33.0 33
  203.07161 30.0 30
  205.04803 50.0 50
  215.04002 38.0 38
  215.07306 120.0 120
  217.03674 47.0 47
  217.04553 53.0 53
  218.05977 47.0 47
  220.02472 38.0 38
  226.06117 37.0 37
  227.02896 63.0 63
  227.04643 45.0 45
  231.03181 53.0 53
  243.02809 287.0 287
  243.0416 78.0 78
  243.06088 67.0 67
  243.07039 48.0 48
  244.03169 149.0 149
  245.05183 107.0 107
  245.08014 77.0 77
  245.23383 37.0 37
  246.0787 45.0 45
  252.04085 33.0 33
  253.06516 38.0 38
  255.02692 72.0 72
  257.04245 70.0 70
  260.07419 33.0 33
  261.03342 97.0 97
  268.02625 62.0 62
  269.04852 174.0 174
  270.00735 48.0 48
  281.03879 33.0 33
  281.04858 47.0 47
  282.02484 43.0 43
  283.01987 38.0 38
  284.03262 47.0 47
  285.0184 33.0 33
  285.04825 182.0 182
  286.03864 30.0 30
  286.67389 30.0 30
  287.05542 50.0 50
  287.06607 38.0 38
  289.07022 100.0 100
  289.0961 32.0 32
  297.02701 30.0 30
  298.03903 52.0 52
  299.10175 43.0 43
  300.02182 32.0 32
  306.0412 33.0 33
  311.0997 33.0 33
  325.02582 43.0 43
  329.05429 47.0 47
  329.06631 37.0 37
  339.08032 33.0 33
  341.06769 30.0 30
  348.02493 55.0 55
  363.04907 45.0 45
  365.07617 77.0 77
  375.06696 60.0 60
  378.06158 33.0 33
  383.07684 32.0 32
  387.05045 45.0 45
  391.0405 37.0 37
  407.08423 192.0 192
  408.07355 65.0 65
  410.10291 33.0 33
  411.07626 129.0 129
  449.09259 78.0 78
  522.07465 35.0 35
  525.07355 37.0 37
  526.0766 30.0 30
  665.16083 37.0 37
//
