ACCESSION: MSBNK-RIKEN-PR304329
RECORD_TITLE: Licoricesaponin H2; LC-ESI-QTOF; MS2
DATE: 2019.03.28
AUTHORS: Tetsuya Mori, Center for Sustainable Resource Science, RIKEN
LICENSE: CC BY-NC-SA
PUBLICATION: Tsugawa H., Nakabayashi R., Mori T., Yamada Y., Takahashi M., Rai A., Sugiyama R., Yamamoto H., Nakaya T., Yamazaki M., Kooke R., Bac-Molenaar JA., Oztolan-Erol N., Keurentjes JJB., Arita M., Saito K. (2019) "A cheminformatics approach to characterize metabolomes in stable-isotope-labeled organisms" Nature Methods 16(4):295-298. [doi:10.1038/s41592-019-0358-2]
COMMENT: registered in RIKEN PlaSMA
CH$NAME: Licoricesaponin H2
CH$COMPOUND_CLASS: Triterpene saponins
CH$FORMULA: C42H62O16
CH$EXACT_MASS: 822.942
CH$SMILES: CC1(C)C(CCC2(C)C1CCC1(C)C2C(=O)C=C2C3CC(C)(CCC3(C)CCC12C)C(O)=O)OC1OC(C(O)C(O)C1OC1OC(C(O)C(O)C1O)C(O)=O)C(O)=O
CH$IUPAC: InChI=1S/C42H62O16/c1-37(2)21-8-11-42(7)31(20(43)16-18-19-17-39(4,36(53)54)13-12-38(19,3)14-15-41(18,42)6)40(21,5)10-9-22(37)55-35-30(26(47)25(46)29(57-35)33(51)52)58-34-27(48)23(44)24(45)28(56-34)32(49)50/h16,19,21-31,34-35,44-48H,8-15,17H2,1-7H3,(H,49,50)(H,51,52)(H,53,54)
CH$LINK: INCHIKEY LPLVUJXQOOQHMX-UHFFFAOYSA-N
AC$INSTRUMENT: LC, Waters Acquity UPLC System; MS, Waters Xevo G2 Q-Tof
AC$INSTRUMENT_TYPE: LC-ESI-QTOF
AC$MASS_SPECTROMETRY: MS_TYPE MS2
AC$MASS_SPECTROMETRY: ION_MODE POSITIVE
AC$MASS_SPECTROMETRY: COLLISION_ENERGY 6V
AC$MASS_SPECTROMETRY: DESOLVATION_GAS_FLOW 800/h
AC$MASS_SPECTROMETRY: DESOLVATION_TEMPERATURE 450 C
AC$MASS_SPECTROMETRY: IONIZATION ESI
AC$CHROMATOGRAPHY: CAPILLARY_VOLTAGE +3.00 kV
AC$CHROMATOGRAPHY: COLUMN_NAME Acquity bridged ethyl hybrid C18 (1.7 um, 2.1 mm * 100 mm, Waters)
AC$CHROMATOGRAPHY: COLUMN_TEMPERATURE 40 C
AC$CHROMATOGRAPHY: FLOW_GRADIENT A/B = (99.5%/0.5% at 0 min, 99.5%/0.5% at 0.1 min, 20%/80% at 10 min, 0.5%/99.5% at 10.1 min, 0.5%/99.5% at 12.0 min, 99.5%/0.5% at 12.1 min, 99.5%/0.5% at 15.0 min)
AC$CHROMATOGRAPHY: FLOW_RATE 0.3 ml/min at 0 min, 0.3 ml/min at 10 min, 0.4 ml/min at 10.1 min, 0.4 ml/min at 14.4 min, 0.3 ml/min at 14.5 min
AC$CHROMATOGRAPHY: RETENTION_TIME 7.03275
AC$CHROMATOGRAPHY: SOLVENT A water including 0.1% formic acid
AC$CHROMATOGRAPHY: SOLVENT B acetonitrile including 0.1% formic acid
MS$FOCUSED_ION: PRECURSOR_TYPE [M+H]+
MS$FOCUSED_ION: PRECURSOR_M/Z 823.4110624
PK$SPLASH: splash10-0udi-0894700000-d9a37fa085c14b0b19cd
PK$NUM_PEAK: 281
PK$PEAK: m/z int. rel.int.
  69.06978 13.0 13
  71.07968 14.0 14
  82.07478 14.0 14
  85.06529 25.0 25
  95.08392 99.0 99
  97.03178 15.0 15
  105.068 17.0 17
  107.0836 86.0 86
  109.0965 13.0 13
  109.10445 80.0 80
  111.0835 14.0 14
  111.11069 14.0 14
  111.12152 12.0 12
  119.07918 12.0 12
  120.08541 14.0 14
  121.09251 27.0 27
  121.09971 50.0 50
  122.06406 14.0 14
  123.109 19.0 19
  124.08312 18.0 18
  124.11683 16.0 16
  125.06494 12.0 12
  133.10205 90.0 90
  135.07587 32.0 32
  135.08417 14.0 14
  135.11606 97.0 97
  137.13321 15.0 15
  139.10524 12.0 12
  141.01373 15.0 15
  141.09506 14.0 14
  144.81042 14.0 14
  145.091 13.0 13
  147.09276 14.0 14
  147.1129 72.0 72
  149.13194 84.0 84
  150.44412 21.0 21
  151.23061 12.0 12
  159.09892 12.0 12
  159.10936 12.0 12
  159.11937 31.0 31
  160.05286 16.0 16
  161.09558 16.0 16
  161.13014 69.0 69
  163.11978 14.0 14
  163.15083 12.0 12
  165.12129 14.0 14
  167.14272 14.0 14
  171.11734 16.0 16
  173.09738 12.0 12
  173.133 37.0 37
  174.09972 19.0 19
  174.1302 14.0 14
  175.1144 14.0 14
  175.1235 17.0 17
  175.14403 148.0 148
  175.15263 54.0 54
  175.29044 13.0 13
  175.49963 25.0 25
  176.10957 12.0 12
  176.16098 15.0 15
  177.04004 51.0 51
  177.16316 93.0 93
  177.17274 22.0 22
  178.15874 17.0 17
  180.1042 14.0 14
  183.11777 14.0 14
  185.03688 16.0 16
  185.13225 20.0 20
  187.1468 46.0 46
  187.15361 12.0 12
  189.15309 30.0 30
  189.16606 164.0 164
  190.16714 24.0 24
  191.14099 44.0 44
  191.16718 28.0 28
  191.17743 37.0 37
  192.17818 17.0 17
  197.12604 26.0 26
  199.14937 29.0 29
  200.15164 26.0 26
  201.15962 36.0 36
  201.16945 22.0 22
  202.15709 14.0 14
  203.13716 45.0 45
  203.15504 25.0 25
  203.17294 42.0 42
  203.18517 14.0 14
  204.14046 12.0 12
  205.15892 13.0 13
  207.14297 14.0 14
  209.13785 12.0 12
  211.15814 12.0 12
  213.16389 71.0 71
  215.12839 12.0 12
  215.14948 12.0 12
  215.15984 61.0 61
  215.17345 14.0 14
  215.19153 15.0 15
  217.14482 20.0 20
  217.15903 143.0 143
  217.17152 14.0 14
  217.19672 17.0 17
  218.15349 25.0 25
  218.17282 12.0 12
  219.16565 38.0 38
  219.1769 65.0 65
  221.14908 25.0 25
  222.15434 14.0 14
  225.15845 25.0 25
  225.17491 12.0 12
  227.18674 48.0 48
  228.16977 12.0 12
  229.15329 14.0 14
  229.20006 25.0 25
  230.1646 12.0 12
  231.13962 14.0 14
  231.15584 12.0 12
  231.17079 29.0 29
  231.18015 68.0 68
  231.19969 23.0 23
  232.17444 16.0 16
  233.18916 12.0 12
  234.18692 14.0 14
  235.1666 110.0 110
  235.1801 39.0 39
  236.16092 23.0 23
  236.17632 12.0 12
  237.16182 12.0 12
  239.18703 12.0 12
  241.18884 19.0 19
  241.19887 35.0 35
  241.41293 14.0 14
  242.21481 15.0 15
  245.15167 86.0 86
  245.1794 13.0 13
  246.16214 17.0 17
  246.19304 12.0 12
  248.05472 14.0 14
  252.1785 12.0 12
  254.20419 25.0 25
  255.17302 12.0 12
  255.21724 14.0 14
  256.18182 12.0 12
  256.20221 12.0 12
  256.2186 14.0 14
  257.19479 27.0 27
  259.17331 14.0 14
  259.18668 16.0 16
  260.17984 12.0 12
  261.15549 14.0 14
  262.83481 12.0 12
  265.1889 12.0 12
  266.30154 16.0 16
  266.3493 14.0 14
  267.20584 29.0 29
  268.21451 17.0 17
  269.2276 23.0 23
  269.23895 13.0 13
  271.19739 24.0 24
  271.20953 47.0 47
  272.21365 14.0 14
  273.17148 29.0 29
  273.18851 27.0 27
  275.16394 13.0 13
  277.18024 28.0 28
  279.21805 27.0 27
  283.21222 14.0 14
  284.20422 12.0 12
  285.20309 12.0 12
  285.22302 93.0 93
  286.19626 14.0 14
  286.22958 35.0 35
  287.22812 12.0 12
  289.17377 13.0 13
  289.18079 32.0 32
  291.18149 13.0 13
  291.19592 14.0 14
  293.22723 48.0 48
  295.21115 16.0 16
  297.19031 13.0 13
  299.19931 29.0 29
  300.20358 14.0 14
  301.21506 16.0 16
  302.22797 14.0 14
  303.18753 27.0 27
  303.21075 12.0 12
  306.23679 16.0 16
  309.25616 12.0 12
  311.21021 15.0 15
  312.90897 12.0 12
  313.21011 22.0 22
  313.21835 12.0 12
  314.2132 12.0 12
  314.22708 12.0 12
  315.22202 32.0 32
  317.20453 12.0 12
  319.23386 16.0 16
  320.24365 16.0 16
  323.22836 12.0 12
  323.25409 15.0 15
  324.2337 14.0 14
  325.22089 23.0 23
  325.2366 15.0 15
  326.22256 12.0 12
  327.23257 14.0 14
  327.25851 12.0 12
  329.23428 12.0 12
  330.21912 12.0 12
  331.2312 15.0 15
  333.93408 12.0 12
  337.2247 12.0 12
  338.22873 17.0 17
  339.23386 25.0 25
  339.26251 14.0 14
  340.2309 12.0 12
  340.25238 13.0 13
  341.21201 14.0 14
  341.25363 12.0 12
  343.22653 14.0 14
  344.22659 12.0 12
  347.27148 13.0 13
  349.25153 16.0 16
  349.29181 20.0 20
  351.20404 12.0 12
  351.25644 12.0 12
  351.27789 18.0 18
  352.23792 12.0 12
  357.16815 12.0 12
  357.24646 35.0 35
  357.26517 14.0 14
  358.23343 12.0 12
  358.25568 12.0 12
  363.27768 18.0 18
  364.30194 14.0 14
  365.26169 12.0 12
  365.3299 14.0 14
  367.25903 14.0 14
  369.21692 18.0 18
  369.23117 38.0 38
  370.25009 14.0 14
  375.26651 14.0 14
  379.27032 12.0 12
  380.27197 14.0 14
  380.32077 12.0 12
  382.65414 14.0 14
  383.24783 41.0 41
  383.26678 23.0 23
  384.25653 29.0 29
  385.26355 12.0 12
  389.2991 30.0 30
  389.31113 48.0 48
  389.3331 29.0 29
  393.32239 12.0 12
  407.28619 12.0 12
  407.31674 26.0 26
  407.33157 41.0 41
  407.34448 29.0 29
  408.31494 29.0 29
  409.33707 26.0 26
  409.41153 14.0 14
  410.33554 12.0 12
  411.28552 26.0 26
  411.30508 14.0 14
  412.31934 14.0 14
  425.31519 17.0 17
  427.32883 16.0 16
  435.3064 81.0 81
  435.32236 66.0 66
  435.34039 29.0 29
  435.3548 14.0 14
  436.31824 28.0 28
  436.3396 41.0 41
  452.81674 12.0 12
  453.27731 32.0 32
  453.33511 1000.0 999
  453.39038 17.0 17
  454.29752 20.0 20
  454.33569 356.0 356
  455.34082 29.0 29
  456.35538 12.0 12
  668.86053 12.0 12
//
