ACCESSION: MSBNK-RIKEN-PR309238
RECORD_TITLE: Quercetin-3-O-glucosyl-6''-acetate; LC-ESI-QTOF; MS2
DATE: 2019.03.28
AUTHORS: Tetsuya Mori, Center for Sustainable Resource Science, RIKEN
LICENSE: CC BY-NC-SA
PUBLICATION: Tsugawa H., Nakabayashi R., Mori T., Yamada Y., Takahashi M., Rai A., Sugiyama R., Yamamoto H., Nakaya T., Yamazaki M., Kooke R., Bac-Molenaar JA., Oztolan-Erol N., Keurentjes JJB., Arita M., Saito K. (2019) "A cheminformatics approach to characterize metabolomes in stable-isotope-labeled organisms" Nature Methods 16(4):295-298. [doi:10.1038/s41592-019-0358-2]
COMMENT: Annotation level-1
CH$NAME: Quercetin-3-O-glucosyl-6''-acetate
CH$COMPOUND_CLASS: Flavonol O-glycosides
CH$FORMULA: C23H22O13
CH$EXACT_MASS: 506.416
CH$SMILES: CC(=O)OCC1OC(OC2=C(OC3=CC(O)=CC(O)=C3C2=O)C2=CC(O)=C(O)C=C2)C(O)C(O)C1O
CH$IUPAC: InChI=1S/C23H22O13/c1-8(24)33-7-15-17(29)19(31)20(32)23(35-15)36-22-18(30)16-13(28)5-10(25)6-14(16)34-21(22)9-2-3-11(26)12(27)4-9/h2-6,15,17,19-20,23,25-29,31-32H,7H2,1H3
CH$LINK: INCHIKEY IGLUNMMNDNWZOA-UHFFFAOYSA-N
AC$INSTRUMENT: LC, Waters Acquity UPLC System; MS, Waters Xevo G2 Q-Tof
AC$INSTRUMENT_TYPE: LC-ESI-QTOF
AC$MASS_SPECTROMETRY: MS_TYPE MS2
AC$MASS_SPECTROMETRY: ION_MODE NEGATIVE
AC$MASS_SPECTROMETRY: COLLISION_ENERGY 6V
AC$MASS_SPECTROMETRY: DESOLVATION_GAS_FLOW 800/h
AC$MASS_SPECTROMETRY: DESOLVATION_TEMPERATURE 450 C
AC$MASS_SPECTROMETRY: IONIZATION ESI
AC$CHROMATOGRAPHY: CAPILLARY_VOLTAGE +3.00 kV
AC$CHROMATOGRAPHY: COLUMN_NAME Acquity bridged ethyl hybrid C18 (1.7 um, 2.1 mm * 100 mm, Waters)
AC$CHROMATOGRAPHY: COLUMN_TEMPERATURE 40 C
AC$CHROMATOGRAPHY: FLOW_GRADIENT A/B = (99.5%/0.5% at 0 min, 99.5%/0.5% at 0.1 min, 20%/80% at 10 min, 0.5%/99.5% at 10.1 min, 0.5%/99.5% at 12.0 min, 99.5%/0.5% at 12.1 min, 99.5%/0.5% at 15.0 min)
AC$CHROMATOGRAPHY: FLOW_RATE 0.3 ml/min at 0 min, 0.3 ml/min at 10 min, 0.4 ml/min at 10.1 min, 0.4 ml/min at 14.4 min, 0.3 ml/min at 14.5 min
AC$CHROMATOGRAPHY: RETENTION_TIME 4.45
AC$CHROMATOGRAPHY: SOLVENT A water including 0.1% formic acid
AC$CHROMATOGRAPHY: SOLVENT B acetonitrile including 0.1% formic acid
MS$FOCUSED_ION: PRECURSOR_TYPE [M-H]-
MS$FOCUSED_ION: PRECURSOR_M/Z 505.09876
PK$SPLASH: splash10-0zfr-0059070000-ecff1b48e2b7b4236fd0
PK$NUM_PEAK: 118
PK$PEAK: m/z int. rel.int.
  108.01832 66.0 7
  109.0287 18.0 2
  124.99055 19.0 2
  134.02664 20.0 2
  135.00294 41.0 4
  137.0199 29.0 3
  141.27165 20.0 2
  148.00854 20.0 2
  148.0164 31.0 3
  151.00482 234.0 24
  151.01077 82.0 8
  152.00893 25.0 3
  163.00449 113.0 11
  163.03943 40.0 4
  164.01382 24.0 2
  164.03764 23.0 2
  165.01294 21.0 2
  165.69702 30.0 3
  171.05023 23.0 2
  178.98749 38.0 4
  178.99858 217.0 22
  183.04854 20.0 2
  184.0502 24.0 2
  186.03111 19.0 2
  190.99367 41.0 4
  192.86221 27.0 3
  193.01027 25.0 3
  199.03651 30.0 3
  201.0518 49.0 5
  203.04369 18.0 2
  214.02542 21.0 2
  217.01149 18.0 2
  219.82503 18.0 2
  226.02087 18.0 2
  226.03792 27.0 3
  227.02066 27.0 3
  227.03467 75.0 8
  228.04195 29.0 3
  229.04321 20.0 2
  229.05215 31.0 3
  230.03729 18.0 2
  239.03696 31.0 3
  240.04681 42.0 4
  241.00896 23.0 2
  241.02527 20.0 2
  242.0304 52.0 5
  243.02277 267.0 27
  243.03636 59.0 6
  244.03995 86.0 9
  245.04231 74.0 7
  246.05037 25.0 3
  254.01985 153.0 15
  254.03827 36.0 4
  255.02902 1613.0 162
  255.07014 34.0 3
  256.03183 153.0 15
  263.05972 24.0 2
  263.84204 32.0 3
  264.42465 23.0 2
  265.24918 41.0 4
  270.01141 25.0 3
  270.0213 81.0 8
  271.02328 3260.0 328
  272.02499 528.0 53
  272.04138 142.0 14
  272.07074 19.0 2
  273.0296 45.0 5
  273.05109 20.0 2
  273.56439 24.0 2
  274.03552 26.0 3
  274.34546 25.0 3
  281.901 24.0 2
  283.00851 29.0 3
  283.01868 54.0 5
  283.03931 20.0 2
  284.03195 27.0 3
  290.29568 20.0 2
  294.05368 21.0 2
  298.00684 19.0 2
  298.22952 21.0 2
  299.0148 201.0 20
  299.0546 30.0 3
  299.4469 18.0 2
  300.02557 7132.0 718
  300.18018 20.0 2
  301.03162 4440.0 447
  301.1799 19.0 2
  302.02921 241.0 24
  302.04077 419.0 42
  303.02789 36.0 4
  303.04913 39.0 4
  304.97046 25.0 3
  314.03653 24.0 2
  343.03128 43.0 4
  343.0452 81.0 8
  351.23373 34.0 3
  353.08578 42.0 4
  363.65518 31.0 3
  379.06808 25.0 3
  388.84311 20.0 2
  395.08707 20.0 2
  419.82013 20.0 2
  446.0816 31.0 3
  451.06467 21.0 2
  454.33441 19.0 2
  463.08038 146.0 15
  463.10373 106.0 11
  464.08466 128.0 13
  465.11133 19.0 2
  482.23059 37.0 4
  503.06717 72.0 7
  503.10031 50.0 5
  504.07303 61.0 6
  504.09799 48.0 5
  504.11539 16.0 2
  504.97189 22.0 2
  505.09692 9927.0 999
  505.15179 40.0 4
//
