ACCESSION: MSBNK-RIKEN-PR301538
RECORD_TITLE: (-)-Eburnamonine; LC-ESI-QTOF; MS2
DATE: 2019.03.28
AUTHORS: Tetsuya Mori, Center for Sustainable Resource Science, RIKEN
LICENSE: CC BY-NC-SA
PUBLICATION: Tsugawa H., Nakabayashi R., Mori T., Yamada Y., Takahashi M., Rai A., Sugiyama R., Yamamoto H., Nakaya T., Yamazaki M., Kooke R., Bac-Molenaar JA., Oztolan-Erol N., Keurentjes JJB., Arita M., Saito K. (2019) "A cheminformatics approach to characterize metabolomes in stable-isotope-labeled organisms" Nature Methods 16(4):295-298. [doi:10.1038/s41592-019-0358-2]
COMMENT: registered in RIKEN PlaSMA
CH$NAME: (-)-Eburnamonine
CH$COMPOUND_CLASS: Eburnan-type alkaloids
CH$FORMULA: C19H22N2O
CH$EXACT_MASS: 294.398
CH$SMILES: CCC12CCCN3CCC4=C(C13)N(C1=CC=CC=C41)C(=O)C2
CH$IUPAC: InChI=1S/C19H22N2O/c1-2-19-9-5-10-20-11-8-14-13-6-3-4-7-15(13)21(16(22)12-19)17(14)18(19)20/h3-4,6-7,18H,2,5,8-12H2,1H3
CH$LINK: INCHIKEY WYJAPUKIYAZSEM-UHFFFAOYSA-N
AC$INSTRUMENT: LC, Waters Acquity UPLC System; MS, Waters Xevo G2 Q-Tof
AC$INSTRUMENT_TYPE: LC-ESI-QTOF
AC$MASS_SPECTROMETRY: MS_TYPE MS2
AC$MASS_SPECTROMETRY: ION_MODE POSITIVE
AC$MASS_SPECTROMETRY: COLLISION_ENERGY 6V
AC$MASS_SPECTROMETRY: DESOLVATION_GAS_FLOW 800/h
AC$MASS_SPECTROMETRY: DESOLVATION_TEMPERATURE 450 C
AC$MASS_SPECTROMETRY: IONIZATION ESI
AC$CHROMATOGRAPHY: CAPILLARY_VOLTAGE +3.00 kV
AC$CHROMATOGRAPHY: COLUMN_NAME Acquity bridged ethyl hybrid C18 (1.7 um, 2.1 mm * 100 mm, Waters)
AC$CHROMATOGRAPHY: COLUMN_TEMPERATURE 40 C
AC$CHROMATOGRAPHY: FLOW_GRADIENT A/B = (99.5%/0.5% at 0 min, 99.5%/0.5% at 0.1 min, 20%/80% at 10 min, 0.5%/99.5% at 10.1 min, 0.5%/99.5% at 12.0 min, 99.5%/0.5% at 12.1 min, 99.5%/0.5% at 15.0 min)
AC$CHROMATOGRAPHY: FLOW_RATE 0.3 ml/min at 0 min, 0.3 ml/min at 10 min, 0.4 ml/min at 10.1 min, 0.4 ml/min at 14.4 min, 0.3 ml/min at 14.5 min
AC$CHROMATOGRAPHY: RETENTION_TIME 4.648283
AC$CHROMATOGRAPHY: SOLVENT A water including 0.1% formic acid
AC$CHROMATOGRAPHY: SOLVENT B acetonitrile including 0.1% formic acid
MS$FOCUSED_ION: PRECURSOR_TYPE [M+H]+
MS$FOCUSED_ION: PRECURSOR_M/Z 295.1804898
PK$SPLASH: splash10-01c0-0940000000-dd4c47158d545bfa68a3
PK$NUM_PEAK: 332
PK$PEAK: m/z int. rel.int.
  65.037 10.0 10
  67.05551 58.0 58
  68.0395 12.0 12
  70.03725 9.0 9
  70.06277 29.0 29
  72.08432 14.0 14
  77.03342 17.0 17
  77.04034 34.0 34
  79.05609 56.0 56
  80.0451 27.0 27
  80.05005 29.0 29
  80.05939 11.0 11
  81.03503 28.0 28
  81.06924 26.0 26
  82.06309 11.0 11
  83.07556 62.0 62
  84.08552 18.0 18
  87.3358 11.0 11
  90.04341 9.0 9
  90.04858 30.0 30
  91.04627 9.0 9
  91.05479 130.0 130
  92.04808 12.0 12
  92.05485 12.0 12
  92.06046 23.0 23
  93.03757 39.0 39
  93.05795 8.0 8
  93.06915 33.0 33
  93.07478 42.0 42
  93.6923 9.0 9
  94.02812 9.0 9
  94.05761 13.0 13
  94.0654 51.0 51
  94.07291 18.0 18
  95.04251 8.0 8
  95.05028 11.0 11
  95.06689 10.0 10
  95.07931 15.0 15
  95.08625 64.0 64
  96.07896 20.0 20
  96.19556 10.0 10
  96.71802 8.0 8
  98.0122 13.0 13
  99.1004 12.0 12
  101.03694 22.0 22
  103.05151 19.0 19
  103.05699 10.0 10
  103.12124 9.0 9
  104.0628 9.0 9
  105.03452 23.0 23
  105.06284 8.0 8
  105.07024 64.0 64
  106.0636 17.0 17
  107.05004 8.0 8
  107.08108 21.0 21
  107.08681 27.0 27
  108.07229 10.0 10
  108.08827 19.0 19
  109.05093 12.0 12
  109.07275 8.0 8
  109.08578 29.0 29
  110.09026 10.0 10
  110.09496 13.0 13
  111.10617 9.0 9
  114.05432 8.0 8
  115.05105 57.0 57
  115.05608 72.0 72
  115.21333 17.0 17
  116.05136 19.0 19
  117.03532 10.0 10
  117.05241 36.0 36
  117.05981 42.0 42
  117.07168 21.0 21
  118.06554 38.0 38
  118.07274 21.0 21
  119.04661 11.0 11
  119.0715 23.0 23
  119.0893 32.0 32
  121.06067 22.0 22
  122.0709 21.0 21
  123.07745 10.0 10
  123.08347 8.0 8
  123.10856 13.0 13
  124.07748 29.0 29
  124.09682 9.0 9
  127.05485 41.0 41
  128.01341 9.0 9
  128.04097 10.0 10
  128.05276 57.0 57
  128.06134 27.0 27
  129.05228 14.0 14
  129.06995 63.0 63
  129.48459 8.0 8
  130.06664 183.0 183
  131.06932 39.0 39
  131.07935 33.0 33
  132.04233 9.0 9
  132.06995 9.0 9
  132.07875 55.0 55
  132.09024 13.0 13
  133.05057 11.0 11
  134.06242 9.0 9
  134.08377 9.0 9
  134.09846 11.0 11
  136.06624 11.0 11
  139.04553 8.0 8
  140.06209 11.0 11
  141.06107 11.0 11
  141.07535 22.0 22
  141.55157 11.0 11
  142.067 88.0 88
  142.08226 8.0 8
  143.05682 14.0 14
  143.07074 83.0 83
  144.07391 81.0 81
  144.08203 267.0 267
  145.07961 20.0 20
  145.09392 10.0 10
  146.09325 11.0 11
  148.93942 8.0 8
  150.13057 8.0 8
  151.05399 8.0 8
  152.05946 26.0 26
  152.06615 26.0 26
  153.05293 8.0 8
  153.06941 14.0 14
  154.03456 20.0 20
  154.06467 280.0 280
  154.59613 10.0 10
  154.77435 8.0 8
  155.07222 85.0 85
  155.07877 28.0 28
  156.06958 32.0 32
  156.08231 47.0 47
  157.05478 11.0 11
  157.09474 31.0 31
  158.05753 8.0 8
  158.08592 8.0 8
  158.1012 12.0 12
  164.06157 16.0 16
  165.06215 8.0 8
  165.07474 27.0 27
  166.01704 12.0 12
  166.06345 31.0 31
  166.0704 47.0 47
  167.04308 16.0 16
  167.05498 37.0 37
  167.07416 984.0 983
  167.17137 8.0 8
  167.71786 13.0 13
  167.96593 9.0 9
  168.05609 10.0 10
  168.0811 738.0 737
  168.11955 16.0 16
  169.06754 10.0 10
  169.08366 106.0 106
  169.09134 121.0 121
  170.06741 9.0 9
  170.09889 34.0 34
  171.09105 17.0 17
  172.06822 9.0 9
  174.09402 15.0 15
  177.28426 18.0 18
  178.0612 60.0 60
  178.07719 30.0 30
  178.08513 21.0 21
  179.0359 13.0 13
  179.06277 28.0 28
  179.07249 57.0 57
  179.08502 16.0 16
  180.08134 1000.0 999
  181.01088 9.0 9
  181.05699 14.0 14
  181.08495 325.0 325
  181.09103 174.0 174
  181.10422 27.0 27
  181.60318 9.0 9
  181.77995 9.0 9
  182.05531 37.0 37
  182.06497 40.0 40
  182.08057 12.0 12
  182.09622 233.0 233
  182.1076 79.0 79
  183.0511 8.0 8
  183.0681 22.0 22
  183.09984 46.0 46
  183.51363 12.0 12
  184.0666 8.0 8
  184.07996 21.0 21
  184.09767 11.0 11
  184.1093 33.0 33
  185.07776 8.0 8
  185.83855 8.0 8
  189.04633 10.0 10
  190.06842 18.0 18
  191.06061 9.0 9
  191.07664 99.0 99
  192.0804 156.0 156
  192.27309 9.0 9
  193.08696 170.0 170
  193.09532 159.0 159
  194.06363 27.0 27
  194.0945 400.0 400
  194.10324 314.0 314
  195.05798 11.0 11
  195.06883 55.0 55
  195.1006 404.0 404
  195.79239 29.0 29
  196.07532 258.0 258
  196.09373 8.0 8
  196.10777 29.0 29
  196.11969 15.0 15
  196.2278 16.0 16
  197.0692 17.0 17
  197.08594 265.0 265
  197.11237 19.0 19
  198.07091 8.0 8
  198.08856 58.0 58
  198.12767 21.0 21
  198.14516 17.0 17
  198.48238 9.0 9
  199.86563 9.0 9
  202.07465 10.0 10
  203.06529 8.0 8
  204.05952 8.0 8
  204.08377 41.0 41
  204.10185 12.0 12
  205.09186 66.0 66
  205.20923 8.0 8
  206.08765 46.0 46
  206.09831 195.0 195
  207.06937 21.0 21
  207.08748 32.0 32
  207.10696 41.0 41
  207.11798 15.0 15
  207.16986 8.0 8
  208.06537 21.0 21
  208.07727 109.0 109
  208.11382 275.0 275
  208.24519 12.0 12
  209.07954 87.0 87
  209.09196 40.0 40
  209.11227 99.0 99
  209.12433 25.0 25
  209.23576 10.0 10
  210.09003 146.0 146
  210.10655 23.0 23
  210.12889 12.0 12
  211.09456 46.0 46
  211.1021 46.0 46
  211.12531 17.0 17
  212.10199 12.0 12
  212.11169 13.0 13
  216.0824 29.0 29
  216.71523 10.0 10
  217.08614 26.0 26
  217.1292 9.0 9
  218.10178 44.0 44
  219.02737 10.0 10
  219.06783 37.0 37
  219.09514 9.0 9
  219.1105 8.0 8
  220.05154 10.0 10
  220.07404 47.0 47
  220.09404 8.0 8
  220.10631 39.0 39
  220.11516 51.0 51
  220.12862 22.0 22
  221.07915 48.0 48
  221.0943 23.0 23
  222.04486 12.0 12
  222.0687 28.0 28
  222.09171 495.0 495
  222.12183 25.0 25
  222.14478 10.0 10
  222.86131 13.0 13
  223.07076 12.0 12
  223.0961 154.0 154
  223.11011 140.0 140
  223.12444 211.0 211
  223.14317 15.0 15
  223.1729 10.0 10
  224.0871 28.0 28
  224.10628 395.0 395
  224.11975 82.0 82
  224.13266 61.0 61
  224.14226 22.0 22
  225.11423 76.0 76
  225.13332 32.0 32
  226.11876 10.0 10
  226.13226 16.0 16
  227.12407 12.0 12
  230.10078 8.0 8
  231.399 13.0 13
  233.07903 12.0 12
  233.1073 10.0 10
  234.07297 9.0 9
  234.08339 14.0 14
  234.09477 46.0 46
  235.08994 51.0 51
  235.10262 58.0 58
  235.11833 11.0 11
  236.09456 35.0 35
  236.10394 125.0 125
  236.11215 56.0 56
  236.15295 12.0 12
  236.19666 11.0 11
  237.11143 124.0 124
  237.12918 23.0 23
  238.12209 81.0 81
  238.13539 10.0 10
  238.14787 9.0 9
  238.16533 11.0 11
  239.13542 20.0 20
  240.12567 12.0 12
  248.08902 8.0 8
  248.11493 9.0 9
  248.1506 9.0 9
  249.10315 11.0 11
  249.11211 8.0 8
  249.12836 11.0 11
  249.1411 17.0 17
  250.15456 11.0 11
  251.84843 8.0 8
  252.11604 12.0 12
  252.14098 12.0 12
  253.13776 9.0 9
  253.14742 9.0 9
  254.16254 11.0 11
  257.00528 8.0 8
  264.13705 16.0 16
  265.13959 8.0 8
//
