ACCESSION: MSBNK-RIKEN-PR101030
RECORD_TITLE: Quercetin-3-Arabinoside; LC-ESI-QTOF; MS2; CE:Ramp 5-60 V; [M+H]+
DATE: 2016.01.19 (Created 2009.09.10, modified 2011.05.06)
AUTHORS: Matsuda F, Suzuki M, Sawada Y, Plant Science Center, RIKEN.
LICENSE: CC BY-SA
COMMENT: Acquisition and generation of the data is financially supported in part by CREST/JST.
CH$NAME: Quercetin-3-Arabinoside
CH$NAME: Quer-3-Ara
CH$NAME: Guajavarin
CH$COMPOUND_CLASS: Flavonoid
CH$FORMULA: C20H18O11
CH$EXACT_MASS: 434.08491
CH$SMILES: Oc(c4)c(O)cc(c4)C(O1)=C(OC(O3)C(O)C(O)C(O)C3)C(=O)c(c(O)2)c(cc(O)c2)1
CH$IUPAC: InChI=1S/C20H18O11/c21-8-4-11(24)14-13(5-8)30-18(7-1-2-9(22)10(23)3-7)19(16(14)27)31-20-17(28)15(26)12(25)6-29-20/h1-5,12,15,17,20-26,28H,6H2/t12-,15-,17+,20-/m0/s1
CH$LINK: CAS 22255-13-6
CH$LINK: CHEMSPIDER 4587174
CH$LINK: KNAPSACK C00005368
CH$LINK: PUBCHEM CID:5481224
CH$LINK: INCHIKEY PZZRDJXEMZMZFD-IEGSVRCHSA-N
CH$LINK: COMPTOX DTXSID60176795
AC$INSTRUMENT: UPLC Q-Tof Premier, Waters
AC$INSTRUMENT_TYPE: LC-ESI-QTOF
AC$MASS_SPECTROMETRY: MS_TYPE MS2
AC$MASS_SPECTROMETRY: ION_MODE POSITIVE
AC$MASS_SPECTROMETRY: COLLISION_ENERGY Ramp 5-60 V
AC$MASS_SPECTROMETRY: DATAFORMAT Continuum
AC$MASS_SPECTROMETRY: DESOLVATION_GAS_FLOW 600.0 L/Hr
AC$MASS_SPECTROMETRY: DESOLVATION_TEMPERATURE 400 C
AC$MASS_SPECTROMETRY: FRAGMENTATION_METHOD LOW-ENERGY CID
AC$MASS_SPECTROMETRY: IONIZATION ESI
AC$MASS_SPECTROMETRY: SOURCE_TEMPERATURE 120 C
AC$CHROMATOGRAPHY: CAPILLARY_VOLTAGE 3.0 kV
AC$CHROMATOGRAPHY: SAMPLING_CONE 23.0 V
AC$CHROMATOGRAPHY: SOLVENT A CH3CN(0.1%HCOOH)
AC$CHROMATOGRAPHY: SOLVENT B H2O(0.1%HCOOH)
MS$FOCUSED_ION: PRECURSOR_M/Z 435.09273
MS$FOCUSED_ION: PRECURSOR_TYPE [M+H]+
PK$SPLASH: splash10-0udi-0109000000-057c927f170dde2b4d04
PK$NUM_PEAK: 10
PK$PEAK: m/z int. rel.int.
  73.0298 679.9 104
  137.0232 249.3 38
  153.0179 348.8 53
  165.0177 201.8 31
  201.0543 134.8 21
  229.0495 338.4 52
  257.0445 200.8 31
  303.0483 6529 999
  304.0539 219.4 34
  435.0927 127.7 20
//
