ACCESSION: MSBNK-RIKEN-PR303758
RECORD_TITLE: Swertiamarin; LC-ESI-QTOF; MS2
DATE: 2019.03.28
AUTHORS: Tetsuya Mori, Center for Sustainable Resource Science, RIKEN
LICENSE: CC BY-NC-SA
PUBLICATION: Tsugawa H., Nakabayashi R., Mori T., Yamada Y., Takahashi M., Rai A., Sugiyama R., Yamamoto H., Nakaya T., Yamazaki M., Kooke R., Bac-Molenaar JA., Oztolan-Erol N., Keurentjes JJB., Arita M., Saito K. (2019) "A cheminformatics approach to characterize metabolomes in stable-isotope-labeled organisms" Nature Methods 16(4):295-298. [doi:10.1038/s41592-019-0358-2]
COMMENT: registered in RIKEN PlaSMA
CH$NAME: Swertiamarin
CH$COMPOUND_CLASS: O-glycosyl compounds
CH$FORMULA: C16H22O10
CH$EXACT_MASS: 374.342
CH$SMILES: OC[C@H]1O[C@@H](O[C@@H]2OC=C3C(=O)OCC[C@@]3(O)[C@H]2C=C)[C@H](O)[C@@H](O)[C@@H]1O
CH$IUPAC: InChI=1S/C16H22O10/c1-2-7-14(24-6-8-13(21)23-4-3-16(7,8)22)26-15-12(20)11(19)10(18)9(5-17)25-15/h2,6-7,9-12,14-15,17-20,22H,1,3-5H2/t7-,9+,10+,11-,12+,14-,15-,16+/m0/s1
CH$LINK: INCHIKEY HEYZWPRKKUGDCR-QBXMEVCASA-N
AC$INSTRUMENT: LC, Waters Acquity UPLC System; MS, Waters Xevo G2 Q-Tof
AC$INSTRUMENT_TYPE: LC-ESI-QTOF
AC$MASS_SPECTROMETRY: MS_TYPE MS2
AC$MASS_SPECTROMETRY: ION_MODE POSITIVE
AC$MASS_SPECTROMETRY: COLLISION_ENERGY 6V
AC$MASS_SPECTROMETRY: DESOLVATION_GAS_FLOW 800/h
AC$MASS_SPECTROMETRY: DESOLVATION_TEMPERATURE 450 C
AC$MASS_SPECTROMETRY: IONIZATION ESI
AC$CHROMATOGRAPHY: CAPILLARY_VOLTAGE +3.00 kV
AC$CHROMATOGRAPHY: COLUMN_NAME Acquity bridged ethyl hybrid C18 (1.7 um, 2.1 mm * 100 mm, Waters)
AC$CHROMATOGRAPHY: COLUMN_TEMPERATURE 40 C
AC$CHROMATOGRAPHY: FLOW_GRADIENT A/B = (99.5%/0.5% at 0 min, 99.5%/0.5% at 0.1 min, 20%/80% at 10 min, 0.5%/99.5% at 10.1 min, 0.5%/99.5% at 12.0 min, 99.5%/0.5% at 12.1 min, 99.5%/0.5% at 15.0 min)
AC$CHROMATOGRAPHY: FLOW_RATE 0.3 ml/min at 0 min, 0.3 ml/min at 10 min, 0.4 ml/min at 10.1 min, 0.4 ml/min at 14.4 min, 0.3 ml/min at 14.5 min
AC$CHROMATOGRAPHY: RETENTION_TIME 3.1978
AC$CHROMATOGRAPHY: SOLVENT A water including 0.1% formic acid
AC$CHROMATOGRAPHY: SOLVENT B acetonitrile including 0.1% formic acid
MS$FOCUSED_ION: PRECURSOR_TYPE [M+H]+
MS$FOCUSED_ION: PRECURSOR_M/Z 375.1285734
PK$SPLASH: splash10-0002-0910000000-42bf75305e342c47ed56
PK$NUM_PEAK: 18
PK$PEAK: m/z int. rel.int.
  143.03467 22.0 22
  148.92844 12.0 12
  167.07419 26.0 26
  177.03668 22.0 22
  177.05295 140.0 140
  195.0397 12.0 12
  195.06474 1000.0 999
  196.06911 158.0 158
  213.0715 209.0 209
  213.08466 43.0 43
  214.07979 26.0 26
  262.07626 10.0 10
  321.08044 10.0 10
  339.1102 23.0 23
  357.11047 10.0 10
  358.11142 11.0 11
  374.14969 16.0 16
  375.12302 84.0 84
//
