ACCESSION: MSBNK-RIKEN-PR310472
RECORD_TITLE: Quercetin 3-O-[2''-O-(6'''-O-p-coumaroyl)-b-D-glucopyranosyl]-a-L-rhamnopyranoside; LC-ESI-QTOF; MS2
DATE: 2019.03.28
AUTHORS: Tetsuya Mori, Center for Sustainable Resource Science, RIKEN
LICENSE: CC BY-NC-SA
PUBLICATION: Tsugawa H., Nakabayashi R., Mori T., Yamada Y., Takahashi M., Rai A., Sugiyama R., Yamamoto H., Nakaya T., Yamazaki M., Kooke R., Bac-Molenaar JA., Oztolan-Erol N., Keurentjes JJB., Arita M., Saito K. (2019) "A cheminformatics approach to characterize metabolomes in stable-isotope-labeled organisms" Nature Methods 16(4):295-298. [doi:10.1038/s41592-019-0358-2]
COMMENT: Annotation level-1
CH$NAME: Quercetin 3-O-[2''-O-(6'''-O-p-coumaroyl)-b-D-glucopyranosyl]-a-L-rhamnopyranoside
CH$COMPOUND_CLASS: Flavonol O-glycosides
CH$FORMULA: C36H36O18
CH$EXACT_MASS: 756.666
CH$SMILES: CC1OC(OC2=C(OC3=CC(O)=CC(O)=C3C2=O)C2=CC(O)=C(O)C=C2)C(OC2OC(COC(=O)C=CC3=CC=C(O)C=C3)C(O)C(O)C2O)C(O)C1O
CH$IUPAC: InChI=1S/C36H36O18/c1-14-26(43)30(47)34(54-35-31(48)29(46)27(44)23(52-35)13-49-24(42)9-4-15-2-6-17(37)7-3-15)36(50-14)53-33-28(45)25-21(41)11-18(38)12-22(25)51-32(33)16-5-8-19(39)20(40)10-16/h2-12,14,23,26-27,29-31,34-41,43-44,46-48H,13H2,1H3
CH$LINK: INCHIKEY LSMKTLJKBSXMMR-UHFFFAOYSA-N
AC$INSTRUMENT: LC, Waters Acquity UPLC System; MS, Waters Xevo G2 Q-Tof
AC$INSTRUMENT_TYPE: LC-ESI-QTOF
AC$MASS_SPECTROMETRY: MS_TYPE MS2
AC$MASS_SPECTROMETRY: ION_MODE POSITIVE
AC$MASS_SPECTROMETRY: COLLISION_ENERGY 6V
AC$MASS_SPECTROMETRY: DESOLVATION_GAS_FLOW 800/h
AC$MASS_SPECTROMETRY: DESOLVATION_TEMPERATURE 450 C
AC$MASS_SPECTROMETRY: IONIZATION ESI
AC$CHROMATOGRAPHY: CAPILLARY_VOLTAGE +3.00 kV
AC$CHROMATOGRAPHY: COLUMN_NAME Acquity bridged ethyl hybrid C18 (1.7 um, 2.1 mm * 100 mm, Waters)
AC$CHROMATOGRAPHY: COLUMN_TEMPERATURE 40 C
AC$CHROMATOGRAPHY: FLOW_GRADIENT A/B = (99.5%/0.5% at 0 min, 99.5%/0.5% at 0.1 min, 20%/80% at 10 min, 0.5%/99.5% at 10.1 min, 0.5%/99.5% at 12.0 min, 99.5%/0.5% at 12.1 min, 99.5%/0.5% at 15.0 min)
AC$CHROMATOGRAPHY: FLOW_RATE 0.3 ml/min at 0 min, 0.3 ml/min at 10 min, 0.4 ml/min at 10.1 min, 0.4 ml/min at 14.4 min, 0.3 ml/min at 14.5 min
AC$CHROMATOGRAPHY: RETENTION_TIME 4.67
AC$CHROMATOGRAPHY: SOLVENT A water including 0.1% formic acid
AC$CHROMATOGRAPHY: SOLVENT B acetonitrile including 0.1% formic acid
MS$FOCUSED_ION: PRECURSOR_TYPE [M+H]+
MS$FOCUSED_ION: PRECURSOR_M/Z 757.19744
PK$SPLASH: splash10-0a4j-0924300500-84f40c7f2b61b163ab9d
PK$NUM_PEAK: 188
PK$PEAK: m/z int. rel.int.
  81.03674 17.0 3
  85.02675 45.0 8
  91.05161 20.0 3
  95.05087 24.0 4
  97.02703 18.0 3
  104.2142 21.0 4
  107.04892 64.0 11
  109.02942 19.0 3
  110.03593 19.0 3
  111.04058 21.0 4
  111.04706 53.0 9
  127.03268 21.0 4
  144.1465 42.0 7
  145.0484 64.0 11
  146.69858 20.0 3
  146.93285 24.0 4
  147.00775 36.0 6
  147.02164 31.0 5
  147.04434 5710.0 999
  147.35287 18.0 3
  148.04764 702.0 123
  149.05128 68.0 12
  149.06538 32.0 6
  151.01013 28.0 5
  151.02701 18.0 3
  151.04462 120.0 21
  157.07993 25.0 4
  160.05197 20.0 3
  160.06358 33.0 6
  161.05688 33.0 6
  164.21964 21.0 4
  165.05583 1377.0 241
  165.08769 24.0 4
  166.06033 17.0 3
  169.04712 160.0 28
  169.05663 32.0 6
  170.05029 20.0 3
  171.04878 27.0 5
  173.06052 23.0 4
  174.64857 21.0 4
  177.02205 24.0 4
  186.03845 20.0 3
  186.08118 18.0 3
  201.09308 20.0 3
  207.05968 18.0 3
  211.07086 35.0 6
  213.09967 78.0 14
  215.0383 17.0 3
  215.07159 83.0 15
  216.07565 18.0 3
  231.02788 22.0 4
  231.10237 42.0 7
  232.08345 17.0 3
  232.83856 17.0 3
  237.07234 75.0 13
  239.07123 53.0 9
  240.08519 17.0 3
  241.09128 17.0 3
  242.05495 21.0 4
  247.09857 17.0 3
  255.09514 37.0 6
  257.05536 121.0 21
  257.08252 601.0 105
  258.08578 54.0 9
  260.09946 21.0 4
  273.07135 41.0 7
  275.08484 91.0 16
  275.09808 22.0 4
  276.10449 27.0 5
  277.10077 21.0 4
  287.09503 17.0 3
  291.09073 637.0 111
  292.08908 107.0 19
  293.08984 127.0 22
  293.10376 203.0 36
  294.09814 28.0 5
  294.10663 20.0 3
  297.08289 20.0 3
  303.05066 1333.0 233
  304.06018 136.0 24
  305.05716 20.0 3
  305.06787 21.0 4
  309.09644 1592.0 279
  309.56183 18.0 3
  310.10117 490.0 86
  311.09515 45.0 8
  313.0108 25.0 4
  314.10126 21.0 4
  316.04739 18.0 3
  327.04184 33.0 6
  327.05661 64.0 11
  331.12009 21.0 4
  341.30899 32.0 6
  345.04227 47.0 8
  345.06329 297.0 52
  346.05978 41.0 7
  353.047 25.0 4
  364.11392 22.0 4
  364.70728 27.0 5
  369.07156 51.0 9
  370.06885 19.0 3
  378.14255 20.0 3
  389.189 24.0 4
  395.07315 45.0 8
  396.09006 22.0 4
  399.71069 23.0 4
  401.11017 21.0 4
  401.11856 48.0 8
  401.13336 53.0 9
  402.13882 59.0 10
  402.19812 17.0 3
  404.1413 17.0 3
  413.08954 108.0 19
  414.10257 59.0 10
  417.11127 17.0 3
  418.6647 21.0 4
  419.12613 442.0 77
  419.13913 461.0 81
  420.12088 18.0 3
  420.13281 36.0 6
  420.14917 96.0 17
  421.13812 20.0 3
  421.15121 30.0 5
  431.08456 96.0 17
  431.10373 98.0 17
  433.10742 20.0 3
  434.09442 20.0 3
  437.12601 37.0 6
  437.14359 221.0 39
  437.15823 138.0 24
  438.14093 63.0 11
  438.1554 26.0 5
  439.14813 22.0 4
  449.06299 22.0 4
  449.09518 220.0 38
  449.11343 463.0 81
  449.20972 22.0 4
  449.38809 27.0 5
  450.10284 32.0 6
  450.11865 59.0 10
  451.11987 42.0 7
  453.07523 30.0 5
  455.13797 38.0 7
  455.15979 321.0 56
  456.1095 20.0 3
  456.14691 48.0 8
  456.1615 89.0 16
  456.50824 22.0 4
  456.60901 18.0 3
  456.92258 20.0 3
  457.15268 29.0 5
  457.78076 19.0 3
  466.34381 23.0 4
  469.84467 20.0 3
  473.10822 21.0 4
  488.52484 17.0 3
  489.12225 17.0 3
  491.12338 18.0 3
  491.24042 20.0 3
  492.10571 18.0 3
  507.0788 17.0 3
  510.17957 22.0 4
  540.14166 20.0 3
  595.16626 20.0 3
  598.13788 22.0 4
  598.17804 17.0 3
  608.64819 29.0 5
  611.13959 19.0 3
  612.14154 22.0 4
  613.1394 17.0 3
  635.14264 21.0 4
  636.13312 44.0 8
  647.30493 36.0 6
  653.13495 18.0 3
  653.16003 93.0 16
  653.19452 27.0 5
  654.14874 38.0 7
  655.13623 20.0 3
  655.18451 21.0 4
  739.13971 17.0 3
  739.2121 19.0 3
  740.13879 79.0 14
  741.17737 20.0 3
  757.01672 23.0 4
  757.12823 20.0 3
  757.19904 4827.0 845
  757.26807 43.0 8
  757.31476 20.0 3
//
