ACCESSION: MSBNK-RIKEN-PR305235
RECORD_TITLE: Reserpic acid; LC-ESI-QTOF; MS2
DATE: 2019.03.28
AUTHORS: Tetsuya Mori, Center for Sustainable Resource Science, RIKEN
LICENSE: CC BY-NC-SA
PUBLICATION: Tsugawa H., Nakabayashi R., Mori T., Yamada Y., Takahashi M., Rai A., Sugiyama R., Yamamoto H., Nakaya T., Yamazaki M., Kooke R., Bac-Molenaar JA., Oztolan-Erol N., Keurentjes JJB., Arita M., Saito K. (2019) "A cheminformatics approach to characterize metabolomes in stable-isotope-labeled organisms" Nature Methods 16(4):295-298. [doi:10.1038/s41592-019-0358-2]
COMMENT: registered in RIKEN PlaSMA
CH$NAME: Reserpic acid
CH$COMPOUND_CLASS: Corynanthean-type alkaloids
CH$FORMULA: C22H28N2O5
CH$EXACT_MASS: 400.475
CH$SMILES: COC1C(O)CC2CN3CCC4=C(NC5=C4C=CC(OC)=C5)C3CC2C1C(O)=O
CH$IUPAC: InChI=1S/C22H28N2O5/c1-28-12-3-4-13-14-5-6-24-10-11-7-18(25)21(29-2)19(22(26)27)15(11)9-17(24)20(14)23-16(13)8-12/h3-4,8,11,15,17-19,21,23,25H,5-7,9-10H2,1-2H3,(H,26,27)
CH$LINK: INCHIKEY JVHNBFFHWQQPLL-UHFFFAOYSA-N
AC$INSTRUMENT: LC, Waters Acquity UPLC System; MS, Waters Xevo G2 Q-Tof
AC$INSTRUMENT_TYPE: LC-ESI-QTOF
AC$MASS_SPECTROMETRY: MS_TYPE MS2
AC$MASS_SPECTROMETRY: ION_MODE NEGATIVE
AC$MASS_SPECTROMETRY: COLLISION_ENERGY 6V
AC$MASS_SPECTROMETRY: DESOLVATION_GAS_FLOW 800/h
AC$MASS_SPECTROMETRY: DESOLVATION_TEMPERATURE 450 C
AC$MASS_SPECTROMETRY: IONIZATION ESI
AC$CHROMATOGRAPHY: CAPILLARY_VOLTAGE -2.75 kV
AC$CHROMATOGRAPHY: COLUMN_NAME Acquity bridged ethyl hybrid C18 (1.7 um, 2.1 mm * 100 mm, Waters)
AC$CHROMATOGRAPHY: COLUMN_TEMPERATURE 40 C
AC$CHROMATOGRAPHY: FLOW_GRADIENT A/B = (99.5%/0.5% at 0 min, 99.5%/0.5% at 0.1 min, 20%/80% at 10 min, 0.5%/99.5% at 10.1 min, 0.5%/99.5% at 12.0 min, 99.5%/0.5% at 12.1 min, 99.5%/0.5% at 15.0 min)
AC$CHROMATOGRAPHY: FLOW_RATE 0.3 ml/min at 0 min, 0.3 ml/min at 10 min, 0.4 ml/min at 10.1 min, 0.4 ml/min at 14.4 min, 0.3 ml/min at 14.5 min
AC$CHROMATOGRAPHY: RETENTION_TIME 3.89345
AC$CHROMATOGRAPHY: SOLVENT A water including 0.1% formic acid
AC$CHROMATOGRAPHY: SOLVENT B acetonitrile including 0.1% formic acid
MS$FOCUSED_ION: PRECURSOR_TYPE [M-H]-
MS$FOCUSED_ION: PRECURSOR_M/Z 399.19254554783
PK$SPLASH: splash10-0002-0009000000-3299c9b1b85d771a7343
PK$NUM_PEAK: 8
PK$PEAK: m/z int. rel.int.
  305.16385 36.0 36
  308.14563 5.0 5
  323.17563 158.0 158
  324.16699 7.0 7
  324.18405 14.0 14
  355.20084 19.0 19
  398.1763 6.0 6
  399.19073 1000.0 999
//
