ACCESSION: MSBNK-RIKEN-PR303619
RECORD_TITLE: Bufalin; LC-ESI-QTOF; MS2
DATE: 2019.03.28
AUTHORS: Tetsuya Mori, Center for Sustainable Resource Science, RIKEN
LICENSE: CC BY-NC-SA
PUBLICATION: Tsugawa H., Nakabayashi R., Mori T., Yamada Y., Takahashi M., Rai A., Sugiyama R., Yamamoto H., Nakaya T., Yamazaki M., Kooke R., Bac-Molenaar JA., Oztolan-Erol N., Keurentjes JJB., Arita M., Saito K. (2019) "A cheminformatics approach to characterize metabolomes in stable-isotope-labeled organisms" Nature Methods 16(4):295-298. [doi:10.1038/s41592-019-0358-2]
COMMENT: registered in RIKEN PlaSMA
CH$NAME: Bufalin
CH$COMPOUND_CLASS: Bufanolides and derivatives
CH$FORMULA: C24H34O4
CH$EXACT_MASS: 386.532
CH$SMILES: C[C@]12CC[C@H]3[C@@H](CC[C@@H]4C[C@@H](O)CC[C@]34C)[C@@]1(O)CC[C@@H]2C1=COC(=O)C=C1
CH$IUPAC: InChI=1S/C24H34O4/c1-22-10-7-17(25)13-16(22)4-5-20-19(22)8-11-23(2)18(9-12-24(20,23)27)15-3-6-21(26)28-14-15/h3,6,14,16-20,25,27H,4-5,7-13H2,1-2H3/t16-,17+,18-,19+,20-,22+,23-,24+/m1/s1
CH$LINK: INCHIKEY QEEBRPGZBVVINN-BMPKRDENSA-N
AC$INSTRUMENT: LC, Waters Acquity UPLC System; MS, Waters Xevo G2 Q-Tof
AC$INSTRUMENT_TYPE: LC-ESI-QTOF
AC$MASS_SPECTROMETRY: MS_TYPE MS2
AC$MASS_SPECTROMETRY: ION_MODE POSITIVE
AC$MASS_SPECTROMETRY: COLLISION_ENERGY 6V
AC$MASS_SPECTROMETRY: DESOLVATION_GAS_FLOW 800/h
AC$MASS_SPECTROMETRY: DESOLVATION_TEMPERATURE 450 C
AC$MASS_SPECTROMETRY: IONIZATION ESI
AC$CHROMATOGRAPHY: CAPILLARY_VOLTAGE +3.00 kV
AC$CHROMATOGRAPHY: COLUMN_NAME Acquity bridged ethyl hybrid C18 (1.7 um, 2.1 mm * 100 mm, Waters)
AC$CHROMATOGRAPHY: COLUMN_TEMPERATURE 40 C
AC$CHROMATOGRAPHY: FLOW_GRADIENT A/B = (99.5%/0.5% at 0 min, 99.5%/0.5% at 0.1 min, 20%/80% at 10 min, 0.5%/99.5% at 10.1 min, 0.5%/99.5% at 12.0 min, 99.5%/0.5% at 12.1 min, 99.5%/0.5% at 15.0 min)
AC$CHROMATOGRAPHY: FLOW_RATE 0.3 ml/min at 0 min, 0.3 ml/min at 10 min, 0.4 ml/min at 10.1 min, 0.4 ml/min at 14.4 min, 0.3 ml/min at 14.5 min
AC$CHROMATOGRAPHY: RETENTION_TIME 6.99085
AC$CHROMATOGRAPHY: SOLVENT A water including 0.1% formic acid
AC$CHROMATOGRAPHY: SOLVENT B acetonitrile including 0.1% formic acid
MS$FOCUSED_ION: PRECURSOR_TYPE [M+H]+
MS$FOCUSED_ION: PRECURSOR_M/Z 387.252986
PK$SPLASH: splash10-0a4j-0951000000-1f009e6596bbf0b05bce
PK$NUM_PEAK: 724
PK$PEAK: m/z int. rel.int.
  55.05427 10.0 10
  56.05763 11.0 11
  56.52133 9.0 9
  57.2412 8.0 8
  67.0551 52.0 52
  67.0612 7.0 7
  67.60815 10.0 10
  77.04607 6.0 6
  79.04714 8.0 8
  79.05493 63.0 63
  80.0619 7.0 7
  81.04042 7.0 7
  81.0695 316.0 316
  82.075 39.0 39
  83.04793 9.0 9
  83.08199 13.0 13
  83.08759 47.0 47
  85.09888 6.0 6
  86.21391 9.0 9
  87.89246 7.0 7
  91.04542 14.0 14
  91.05543 91.0 91
  91.4818 7.0 7
  93.0706 204.0 204
  95.00973 11.0 11
  95.01512 23.0 23
  95.04726 16.0 16
  95.06685 9.0 9
  95.08547 259.0 259
  96.0843 17.0 17
  97.0293 56.0 56
  97.06761 9.0 9
  99.00658 11.0 11
  99.05043 8.0 8
  99.07977 22.0 22
  99.16147 7.0 7
  100.04984 12.0 12
  102.5348 13.0 13
  103.05568 7.0 7
  105.04759 6.0 6
  105.05642 7.0 7
  105.07042 292.0 292
  105.35334 7.0 7
  106.07121 9.0 9
  106.07816 7.0 7
  107.04592 36.0 36
  107.05376 25.0 25
  107.06628 10.0 10
  107.08501 650.0 649
  108.05315 12.0 12
  108.05782 9.0 9
  108.08698 68.0 68
  108.0947 22.0 22
  108.13052 9.0 9
  108.88642 7.0 7
  109.0275 43.0 43
  109.06086 22.0 22
  109.06756 20.0 20
  109.10046 370.0 370
  109.12639 7.0 7
  109.77325 8.0 8
  110.10216 16.0 16
  111.0494 7.0 7
  111.0752 9.0 9
  111.10972 9.0 9
  113.01897 17.0 17
  114.95393 6.0 6
  115.03955 6.0 6
  116.71136 9.0 9
  117.07065 84.0 84
  117.12514 8.0 8
  117.89751 7.0 7
  118.2461 8.0 8
  119.04257 23.0 23
  119.05049 16.0 16
  119.06422 7.0 7
  119.07097 11.0 11
  119.08529 406.0 406
  120.07568 8.0 8
  120.08617 17.0 17
  120.09572 6.0 6
  121.05756 9.0 9
  121.06609 75.0 75
  121.1015 627.0 626
  122.09444 31.0 31
  122.10552 36.0 36
  123.03363 9.0 9
  123.04328 124.0 124
  123.08645 24.0 24
  123.11514 73.0 73
  123.12182 29.0 29
  124.05118 9.0 9
  124.06875 7.0 7
  125.06403 11.0 11
  125.09941 17.0 17
  127.07642 8.0 8
  127.93596 8.0 8
  128.07036 8.0 8
  129.05461 6.0 6
  129.0625 20.0 20
  129.0692 34.0 34
  129.07649 25.0 25
  130.07315 28.0 28
  130.67487 9.0 9
  131.04919 21.0 21
  131.05583 18.0 18
  131.08553 303.0 303
  132.08679 36.0 36
  132.09471 24.0 24
  132.14072 6.0 6
  133.02672 8.0 8
  133.06648 45.0 45
  133.07588 17.0 17
  133.10133 476.0 476
  134.0666 23.0 23
  134.09836 22.0 22
  134.10629 62.0 62
  134.25679 9.0 9
  134.49185 13.0 13
  135.00949 6.0 6
  135.04378 194.0 194
  135.0786 44.0 44
  135.08694 14.0 14
  135.11742 507.0 506
  136.04831 8.0 8
  136.11656 33.0 33
  137.05748 86.0 86
  137.06532 42.0 42
  137.09654 35.0 35
  137.1143 9.0 9
  137.12688 15.0 15
  138.05334 13.0 13
  138.06229 22.0 22
  138.13556 11.0 11
  138.94357 7.0 7
  139.0269 9.0 9
  139.06984 8.0 8
  139.07703 10.0 10
  139.67625 13.0 13
  139.6835 9.0 9
  141.06783 6.0 6
  141.0753 17.0 17
  142.05687 14.0 14
  142.07327 14.0 14
  142.0867 20.0 20
  142.89813 7.0 7
  143.02921 8.0 8
  143.08324 119.0 119
  143.08995 113.0 113
  144.09038 45.0 45
  145.05461 10.0 10
  145.06549 29.0 29
  145.08495 7.0 7
  145.10246 660.0 659
  145.40996 8.0 8
  146.06686 6.0 6
  146.10277 19.0 19
  146.11212 17.0 17
  147.04456 24.0 24
  147.06541 10.0 10
  147.08051 169.0 169
  147.11803 732.0 731
  147.19975 11.0 11
  148.08949 12.0 12
  148.11865 85.0 85
  148.12927 20.0 20
  149.04799 14.0 14
  149.06024 73.0 73
  149.09804 54.0 54
  149.11473 8.0 8
  149.13222 414.0 414
  149.1539 7.0 7
  150.06729 16.0 16
  150.13655 96.0 96
  150.36923 6.0 6
  151.07834 27.0 27
  151.08623 10.0 10
  151.11975 14.0 14
  151.14069 9.0 9
  153.0728 11.0 11
  153.12506 7.0 7
  154.24039 8.0 8
  155.07953 47.0 47
  155.08789 99.0 99
  156.0928 19.0 19
  156.68459 8.0 8
  157.06158 6.0 6
  157.07053 17.0 17
  157.0836 13.0 13
  157.10178 301.0 301
  158.09677 11.0 11
  158.10466 36.0 36
  158.11324 29.0 29
  159.0741 31.0 31
  159.08215 70.0 70
  159.09236 19.0 19
  159.10522 53.0 53
  159.1169 567.0 566
  159.13467 12.0 12
  159.54016 7.0 7
  160.12027 108.0 108
  161.06087 64.0 64
  161.09651 344.0 344
  161.13242 759.0 758
  161.20473 8.0 8
  161.44289 7.0 7
  162.07083 6.0 6
  162.08693 9.0 9
  162.09538 25.0 25
  162.10219 11.0 11
  162.12819 13.0 13
  162.13832 97.0 97
  162.15408 9.0 9
  163.07086 7.0 7
  163.07803 6.0 6
  163.10178 13.0 13
  163.1111 39.0 39
  163.14156 44.0 44
  163.15147 58.0 58
  163.2989 9.0 9
  165.05269 14.0 14
  165.06152 20.0 20
  165.06731 6.0 6
  165.08856 42.0 42
  165.1268 16.0 16
  166.04141 8.0 8
  166.06006 17.0 17
  167.06705 63.0 63
  167.08173 31.0 31
  168.08076 13.0 13
  168.8652 9.0 9
  169.0638 6.0 6
  169.09978 166.0 166
  169.17657 9.0 9
  170.07423 9.0 9
  170.09776 16.0 16
  170.10646 8.0 8
  171.06268 8.0 8
  171.07797 39.0 39
  171.08948 8.0 8
  171.11499 312.0 312
  171.12302 82.0 82
  171.42453 11.0 11
  171.61298 8.0 8
  172.0759 14.0 14
  172.0918 8.0 8
  172.11559 26.0 26
  172.12369 15.0 15
  172.13481 6.0 6
  173.05931 22.0 22
  173.09767 117.0 117
  173.11032 30.0 30
  173.13304 393.0 393
  174.09631 9.0 9
  174.10307 7.0 7
  174.11871 12.0 12
  174.13702 61.0 61
  175.06197 7.0 7
  175.07884 89.0 89
  175.09248 9.0 9
  175.11134 60.0 60
  175.12646 9.0 9
  175.14838 274.0 274
  175.39323 7.0 7
  175.53134 6.0 6
  176.07014 8.0 8
  176.11497 6.0 6
  176.14784 47.0 47
  177.08768 93.0 93
  177.12656 6.0 6
  178.06779 8.0 8
  179.06775 17.0 17
  179.08521 34.0 34
  179.099 7.0 7
  179.10876 16.0 16
  180.09637 6.0 6
  180.14508 7.0 7
  181.0699 8.0 8
  181.08119 8.0 8
  181.10162 95.0 95
  181.83151 7.0 7
  182.09843 6.0 6
  182.10999 20.0 20
  183.0827 58.0 58
  183.11572 147.0 147
  183.13231 20.0 20
  184.08096 7.0 7
  184.10721 8.0 8
  184.12372 54.0 54
  185.06219 8.0 8
  185.09964 61.0 61
  185.13261 241.0 241
  186.06905 8.0 8
  186.09676 21.0 21
  186.13412 24.0 24
  186.15666 11.0 11
  187.07678 63.0 63
  187.11003 49.0 49
  187.11708 38.0 38
  187.15167 196.0 196
  187.19533 6.0 6
  188.11447 8.0 8
  188.12596 9.0 9
  188.14404 14.0 14
  188.15578 39.0 39
  189.07289 11.0 11
  189.08527 54.0 54
  189.09557 83.0 83
  189.12222 37.0 37
  189.13002 38.0 38
  189.16653 49.0 49
  189.22185 8.0 8
  190.09149 30.0 30
  191.09764 28.0 28
  191.10521 60.0 60
  191.11699 12.0 12
  191.14673 7.0 7
  192.10402 6.0 6
  192.10922 16.0 16
  192.13884 7.0 7
  192.15271 12.0 12
  193.07945 8.0 8
  193.08821 9.0 9
  193.12935 9.0 9
  193.64413 8.0 8
  194.10011 8.0 8
  194.11211 10.0 10
  194.74521 7.0 7
  195.05486 11.0 11
  195.06956 16.0 16
  195.082 8.0 8
  195.10498 13.0 13
  195.11612 84.0 84
  196.11543 11.0 11
  196.12727 30.0 30
  197.10069 67.0 67
  197.12289 14.0 14
  197.13522 156.0 156
  198.13739 19.0 19
  198.14369 6.0 6
  198.8559 6.0 6
  199.06876 36.0 36
  199.07996 12.0 12
  199.11263 121.0 121
  199.14902 391.0 391
  199.44252 8.0 8
  200.07985 13.0 13
  200.1098 29.0 29
  200.11884 8.0 8
  200.13889 6.0 6
  200.15132 17.0 17
  200.15952 39.0 39
  200.80402 8.0 8
  200.89819 9.0 9
  201.08354 30.0 30
  201.0929 108.0 108
  201.10403 15.0 15
  201.12366 79.0 79
  201.16377 291.0 291
  202.08907 19.0 19
  202.11227 9.0 9
  202.17003 22.0 22
  203.09108 11.0 11
  203.104 89.0 89
  203.12012 9.0 9
  203.13835 47.0 47
  203.14926 7.0 7
  203.18369 7.0 7
  204.10138 8.0 8
  204.11118 16.0 16
  204.15103 9.0 9
  205.11816 19.0 19
  207.08467 9.0 9
  207.10275 16.0 16
  207.11438 36.0 36
  207.12329 27.0 27
  207.13872 13.0 13
  208.12326 6.0 6
  209.09442 45.0 45
  209.11038 6.0 6
  209.12904 65.0 65
  209.13826 43.0 43
  210.09404 6.0 6
  210.12888 30.0 30
  210.14105 46.0 46
  211.04381 14.0 14
  211.11159 55.0 55
  211.13405 34.0 34
  211.14755 162.0 162
  212.1631 22.0 22
  212.54784 6.0 6
  212.8822 8.0 8
  213.07324 8.0 8
  213.08815 17.0 17
  213.12152 29.0 29
  213.1321 43.0 43
  213.16161 127.0 127
  213.18359 9.0 9
  214.0363 6.0 6
  214.09029 6.0 6
  214.12291 6.0 6
  214.13976 18.0 18
  214.15926 29.0 29
  214.17352 40.0 40
  215.06728 11.0 11
  215.10129 32.0 32
  215.11285 26.0 26
  215.12903 15.0 15
  215.14272 115.0 115
  215.17543 256.0 256
  216.09929 23.0 23
  216.11099 15.0 15
  216.1519 6.0 6
  216.1774 9.0 9
  216.18936 15.0 15
  216.20242 7.0 7
  217.12152 89.0 89
  217.15816 6.0 6
  217.17294 9.0 9
  217.19707 41.0 41
  217.41887 8.0 8
  218.10757 8.0 8
  218.12477 15.0 15
  218.19795 22.0 22
  219.1049 15.0 15
  219.1179 8.0 8
  219.1344 17.0 17
  220.14139 9.0 9
  220.26282 6.0 6
  220.70883 7.0 7
  221.10587 7.0 7
  221.12065 22.0 22
  221.13559 60.0 60
  222.10255 19.0 19
  222.90982 7.0 7
  223.09544 11.0 11
  223.10847 24.0 24
  223.11871 25.0 25
  223.14716 55.0 55
  224.10612 13.0 13
  224.11557 13.0 13
  224.14571 8.0 8
  224.15633 36.0 36
  225.09047 6.0 6
  225.1194 26.0 26
  225.13048 78.0 78
  225.16345 38.0 38
  225.17102 33.0 33
  226.08652 6.0 6
  226.12657 38.0 38
  226.15309 14.0 14
  226.1732 31.0 31
  227.10461 29.0 29
  227.14423 127.0 127
  227.17978 132.0 132
  229.12079 92.0 92
  229.13092 39.0 39
  229.14827 16.0 16
  229.15727 25.0 25
  229.19621 71.0 71
  229.21867 15.0 15
  230.12607 9.0 9
  230.15984 6.0 6
  231.03636 8.0 8
  231.0992 8.0 8
  231.12167 8.0 8
  231.13977 93.0 93
  231.17076 10.0 10
  231.20256 8.0 8
  231.80901 7.0 7
  232.09465 6.0 6
  232.13847 6.0 6
  233.10437 14.0 14
  233.12022 18.0 18
  233.1525 15.0 15
  233.65092 20.0 20
  234.13521 8.0 8
  235.10846 10.0 10
  235.14215 93.0 93
  236.16522 8.0 8
  236.29819 7.0 7
  237.07899 13.0 13
  237.12437 39.0 39
  237.14268 8.0 8
  237.1615 95.0 95
  238.13292 30.0 30
  239.14171 72.0 72
  239.16125 7.0 7
  239.18001 70.0 70
  239.1871 35.0 35
  240.13809 9.0 9
  240.15134 7.0 7
  240.17798 21.0 21
  240.19403 7.0 7
  241.09805 19.0 19
  241.11734 71.0 71
  241.15163 25.0 25
  241.19508 36.0 36
  241.20578 15.0 15
  241.26714 7.0 7
  242.12227 30.0 30
  242.20027 8.0 8
  243.13394 88.0 88
  243.14313 98.0 98
  243.19246 7.0 7
  243.21445 16.0 16
  244.1364 19.0 19
  244.1456 17.0 17
  245.13739 11.0 11
  245.14871 56.0 56
  245.15982 23.0 23
  245.27367 7.0 7
  245.8974 11.0 11
  246.12973 16.0 16
  246.16212 17.0 17
  247.12056 7.0 7
  247.13994 16.0 16
  247.1691 17.0 17
  248.14096 8.0 8
  248.18483 9.0 9
  248.63367 8.0 8
  249.12154 14.0 14
  249.16496 63.0 63
  250.13216 11.0 11
  250.16937 64.0 64
  251.1425 88.0 88
  251.17294 82.0 82
  251.18382 72.0 72
  252.02373 6.0 6
  252.1467 22.0 22
  252.1741 14.0 14
  252.18932 42.0 42
  252.53252 10.0 10
  252.62547 9.0 9
  253.1187 7.0 7
  253.14726 8.0 8
  253.16792 36.0 36
  253.19559 178.0 178
  254.17537 6.0 6
  254.19907 71.0 71
  254.75978 6.0 6
  255.07582 7.0 7
  255.10013 8.0 8
  255.10948 6.0 6
  255.13487 56.0 56
  255.15236 39.0 39
  255.17378 22.0 22
  255.21033 1000.0 999
  255.70059 9.0 9
  256.03864 8.0 8
  256.12823 6.0 6
  256.13754 27.0 27
  256.21289 284.0 284
  256.22867 46.0 46
  257.14725 67.0 67
  257.15784 66.0 66
  257.18909 7.0 7
  257.21515 6.0 6
  257.22571 26.0 26
  257.66193 11.0 11
  257.7146 8.0 8
  258.15616 11.0 11
  258.22876 12.0 12
  258.50577 11.0 11
  259.13959 21.0 21
  259.15448 28.0 28
  259.16888 8.0 8
  260.16763 7.0 7
  261.14563 7.0 7
  261.16217 6.0 6
  262.15259 7.0 7
  262.16736 11.0 11
  263.1337 9.0 9
  263.15411 10.0 10
  263.17276 32.0 32
  263.18469 29.0 29
  263.19473 20.0 20
  263.59406 9.0 9
  264.14307 8.0 8
  264.18442 18.0 18
  265.15833 31.0 31
  265.19241 33.0 33
  265.20367 37.0 37
  266.15582 8.0 8
  266.20453 56.0 56
  267.17169 8.0 8
  267.21024 176.0 176
  268.1929 7.0 7
  268.21091 36.0 36
  268.22229 11.0 11
  269.1499 84.0 84
  269.16296 108.0 108
  269.1889 47.0 47
  269.2226 15.0 15
  270.15271 20.0 20
  270.16327 50.0 50
  270.19754 8.0 8
  271.16241 28.0 28
  271.18207 36.0 36
  271.19717 9.0 9
  271.20804 33.0 33
  272.15164 6.0 6
  273.16177 6.0 6
  273.17877 8.0 8
  273.1889 6.0 6
  273.21445 28.0 28
  273.22617 7.0 7
  274.16898 8.0 8
  274.20972 9.0 9
  274.21985 8.0 8
  274.77032 8.0 8
  275.1409 9.0 9
  275.17487 15.0 15
  277.15738 8.0 8
  277.16748 15.0 15
  277.19489 28.0 28
  278.17303 15.0 15
  278.20367 23.0 23
  278.56586 6.0 6
  279.23898 6.0 6
  281.15836 33.0 33
  281.18906 31.0 31
  281.23941 11.0 11
  282.16434 10.0 10
  283.16455 98.0 98
  283.62949 16.0 16
  284.18002 13.0 13
  284.21585 8.0 8
  285.19119 8.0 8
  285.22424 39.0 39
  287.16629 9.0 9
  287.18695 17.0 17
  287.20428 9.0 9
  288.15875 8.0 8
  289.17117 11.0 11
  289.18631 23.0 23
  289.19559 23.0 23
  290.19095 8.0 8
  291.16971 32.0 32
  291.19919 60.0 60
  291.21561 73.0 73
  292.15274 9.0 9
  292.20117 15.0 15
  292.21762 32.0 32
  293.21014 8.0 8
  294.19934 8.0 8
  295.16895 97.0 97
  295.18567 27.0 27
  295.1933 13.0 13
  296.16129 8.0 8
  296.17526 31.0 31
  296.24564 6.0 6
  296.78055 11.0 11
  297.1799 10.0 10
  300.21454 10.0 10
  303.21924 22.0 22
  303.22827 9.0 9
  304.88074 8.0 8
  305.19009 19.0 19
  305.21906 48.0 48
  305.23029 100.0 100
  305.24243 22.0 22
  306.16446 7.0 7
  306.18927 8.0 8
  306.21814 8.0 8
  307.20706 17.0 17
  307.24338 22.0 22
  309.18646 15.0 15
  309.19656 22.0 22
  309.55017 6.0 6
  310.18625 15.0 15
  310.20312 28.0 28
  310.37689 8.0 8
  311.18692 8.0 8
  313.1882 11.0 11
  313.39807 8.0 8
  315.20343 32.0 32
  315.21741 15.0 15
  316.21255 13.0 13
  316.2243 7.0 7
  320.51926 7.0 7
  322.19925 7.0 7
  323.18097 10.0 10
  323.20056 38.0 38
  323.23441 77.0 77
  323.2475 20.0 20
  324.2178 11.0 11
  324.23645 43.0 43
  325.71729 9.0 9
  333.22 134.0 134
  334.21271 9.0 9
  334.22665 31.0 31
  336.2168 8.0 8
  336.22986 13.0 13
  340.24365 6.0 6
  341.24866 24.0 24
  342.25748 11.0 11
  349.20535 9.0 9
  351.20883 50.0 50
  351.22733 275.0 275
  351.2395 159.0 159
  351.43817 7.0 7
  351.48495 7.0 7
  352.20789 8.0 8
  352.23135 117.0 117
  352.24762 37.0 37
  352.40869 13.0 13
  353.04828 6.0 6
  353.22693 8.0 8
  353.24341 7.0 7
  355.78326 6.0 6
  369.20465 9.0 9
  369.24359 815.0 814
  369.52277 9.0 9
  370.13315 10.0 10
  370.16827 20.0 20
  370.2197 8.0 8
  370.23868 45.0 45
  370.25461 96.0 96
  371.24069 15.0 15
  381.7298 10.0 10
  381.86142 6.0 6
  387.25073 480.0 480
  387.27078 77.0 77
//
