ACCESSION: MSBNK-RIKEN-PR303340
RECORD_TITLE: NP-000004(11); LC-ESI-QTOF; MS2
DATE: 2019.03.28
AUTHORS: Tetsuya Mori, Center for Sustainable Resource Science, RIKEN
LICENSE: CC BY-NC-SA
PUBLICATION: Tsugawa H., Nakabayashi R., Mori T., Yamada Y., Takahashi M., Rai A., Sugiyama R., Yamamoto H., Nakaya T., Yamazaki M., Kooke R., Bac-Molenaar JA., Oztolan-Erol N., Keurentjes JJB., Arita M., Saito K. (2019) "A cheminformatics approach to characterize metabolomes in stable-isotope-labeled organisms" Nature Methods 16(4):295-298. [doi:10.1038/s41592-019-0358-2]
COMMENT: registered in RIKEN PlaSMA
CH$NAME: NP-000004(11)
CH$COMPOUND_CLASS: Flavonoid 8-C-glycosides
CH$FORMULA: C26H28O14
CH$EXACT_MASS: 564.496
CH$SMILES: OC[C@@H]1OC([C@H](O)[C@H]1O)C1=C2OC(=CC(=O)C2=C(O)C(C2O[C@H](CO)[C@@H](O)[C@H](O)[C@H]2O)=C1O)C1=CC=C(O)C=C1
CH$IUPAC: InChI=1S/C26H28O14/c27-6-12-17(31)21(35)23(37)25(39-12)15-19(33)14-10(30)5-11(8-1-3-9(29)4-2-8)38-24(14)16(20(15)34)26-22(36)18(32)13(7-28)40-26/h1-5,12-13,17-18,21-23,25-29,31-37H,6-7H2/t12-,13+,17-,18+,21+,22-,23-,25?,26?/m1/s1
CH$LINK: INCHIKEY TUIJPUWSXVFWSH-FBMRRHFKSA-N
AC$INSTRUMENT: LC, Waters Acquity UPLC System; MS, Waters Xevo G2 Q-Tof
AC$INSTRUMENT_TYPE: LC-ESI-QTOF
AC$MASS_SPECTROMETRY: MS_TYPE MS2
AC$MASS_SPECTROMETRY: ION_MODE POSITIVE
AC$MASS_SPECTROMETRY: COLLISION_ENERGY 6V
AC$MASS_SPECTROMETRY: DESOLVATION_GAS_FLOW 800/h
AC$MASS_SPECTROMETRY: DESOLVATION_TEMPERATURE 450 C
AC$MASS_SPECTROMETRY: IONIZATION ESI
AC$CHROMATOGRAPHY: CAPILLARY_VOLTAGE +3.00 kV
AC$CHROMATOGRAPHY: COLUMN_NAME Acquity bridged ethyl hybrid C18 (1.7 um, 2.1 mm * 100 mm, Waters)
AC$CHROMATOGRAPHY: COLUMN_TEMPERATURE 40 C
AC$CHROMATOGRAPHY: FLOW_GRADIENT A/B = (99.5%/0.5% at 0 min, 99.5%/0.5% at 0.1 min, 20%/80% at 10 min, 0.5%/99.5% at 10.1 min, 0.5%/99.5% at 12.0 min, 99.5%/0.5% at 12.1 min, 99.5%/0.5% at 15.0 min)
AC$CHROMATOGRAPHY: FLOW_RATE 0.3 ml/min at 0 min, 0.3 ml/min at 10 min, 0.4 ml/min at 10.1 min, 0.4 ml/min at 14.4 min, 0.3 ml/min at 14.5 min
AC$CHROMATOGRAPHY: RETENTION_TIME 3.55055
AC$CHROMATOGRAPHY: SOLVENT A water including 0.1% formic acid
AC$CHROMATOGRAPHY: SOLVENT B acetonitrile including 0.1% formic acid
MS$FOCUSED_ION: PRECURSOR_TYPE [M+H]+
MS$FOCUSED_ION: PRECURSOR_M/Z 565.155182
PK$SPLASH: splash10-052b-0149000000-6b820aca4c415acda56f
PK$NUM_PEAK: 243
PK$PEAK: m/z int. rel.int.
  68.99667 28.0 28
  85.02872 30.0 30
  120.05345 18.0 18
  121.02679 56.0 56
  121.03416 56.0 56
  139.05655 22.0 22
  143.05386 33.0 33
  145.02692 45.0 45
  145.03676 35.0 35
  155.04607 22.0 22
  159.04179 40.0 40
  161.02505 26.0 26
  163.03778 27.0 27
  165.01614 24.0 24
  171.04753 34.0 34
  173.01204 28.0 28
  173.02179 29.0 29
  175.04083 51.0 51
  177.01556 32.0 32
  185.02382 18.0 18
  187.03731 59.0 59
  189.01695 51.0 51
  189.02362 171.0 171
  191.01974 24.0 24
  191.0278 17.0 17
  193.04411 44.0 44
  197.02182 20.0 20
  197.05505 19.0 19
  198.06279 18.0 18
  199.04312 23.0 23
  199.31696 20.0 20
  201.01379 29.0 29
  201.04588 25.0 25
  202.92738 26.0 26
  203.03325 137.0 137
  204.0388 15.0 15
  207.0258 16.0 16
  210.02821 18.0 18
  211.03668 15.0 15
  213.01611 17.0 17
  213.06317 49.0 49
  215.02885 36.0 36
  215.03877 50.0 50
  217.04871 22.0 22
  218.05775 22.0 22
  228.03571 62.0 62
  230.05888 31.0 31
  230.98418 20.0 20
  231.01158 36.0 36
  233.04588 33.0 33
  233.0545 38.0 38
  239.02164 19.0 19
  239.0361 40.0 40
  239.07239 48.0 48
  243.03203 34.0 34
  244.33177 21.0 21
  248.02232 19.0 19
  253.08218 15.0 15
  255.03162 21.0 21
  255.06012 28.0 28
  255.07352 26.0 26
  257.02652 28.0 28
  257.04504 15.0 15
  257.06555 36.0 36
  259.05612 20.0 20
  261.62012 34.0 34
  263.05493 15.0 15
  265.04623 31.0 31
  268.06998 23.0 23
  269.07495 46.0 46
  271.06223 37.0 37
  273.0368 33.0 33
  279.04071 17.0 17
  279.07111 37.0 37
  280.06686 20.0 20
  280.07526 59.0 59
  281.03354 16.0 16
  281.06448 45.0 45
  281.07712 46.0 46
  283.06577 94.0 94
  283.07935 25.0 25
  285.04483 23.0 23
  288.0679 15.0 15
  291.0694 51.0 51
  292.05789 29.0 29
  292.07336 52.0 52
  292.99573 22.0 22
  293.08426 78.0 78
  293.09372 41.0 41
  294.04184 108.0 108
  294.05756 45.0 45
  294.07523 22.0 22
  294.10022 15.0 15
  294.55289 22.0 22
  295.06119 1000.0 999
  296.05679 55.0 55
  296.06909 71.0 71
  297.05569 13.0 13
  297.07178 108.0 108
  297.08734 80.0 80
  298.07483 40.0 40
  298.08722 28.0 28
  301.07867 18.0 18
  303.06039 15.0 15
  305.08218 20.0 20
  307.05008 103.0 103
  307.06342 271.0 271
  307.10242 45.0 45
  308.04947 50.0 50
  308.07211 386.0 386
  308.09351 26.0 26
  309.02582 23.0 23
  309.07382 221.0 221
  310.05267 17.0 17
  310.07565 39.0 39
  310.08633 113.0 113
  313.07043 17.0 17
  315.06564 33.0 33
  317.08557 21.0 21
  318.09268 19.0 19
  319.05661 128.0 128
  319.07916 24.0 24
  320.06796 84.0 84
  320.07907 33.0 33
  320.11389 40.0 40
  320.12711 15.0 15
  321.04425 18.0 18
  321.06052 23.0 23
  321.08026 458.0 458
  321.54236 17.0 17
  322.06906 42.0 42
  322.08423 143.0 143
  322.10193 49.0 49
  323.06088 23.0 23
  323.07626 22.0 22
  323.09512 47.0 47
  324.09692 18.0 18
  324.28574 18.0 18
  325.07278 329.0 329
  325.08487 85.0 85
  325.29004 15.0 15
  325.34882 15.0 15
  326.07043 89.0 89
  330.09006 28.0 28
  331.06149 23.0 23
  331.08295 20.0 20
  332.09445 21.0 21
  333.0614 21.0 21
  333.07895 240.0 240
  334.06589 52.0 52
  334.0816 96.0 96
  335.0246 17.0 17
  335.0795 46.0 46
  335.09634 135.0 135
  336.05859 72.0 72
  336.0813 17.0 17
  337.0676 166.0 166
  337.07742 102.0 102
  337.09946 15.0 15
  337.37531 20.0 20
  338.06818 43.0 43
  338.08469 31.0 31
  339.08548 88.0 88
  341.05426 29.0 29
  342.10443 26.0 26
  343.09634 27.0 27
  344.7312 15.0 15
  345.0632 19.0 19
  345.07849 24.0 24
  345.10541 21.0 21
  345.2449 18.0 18
  347.06128 15.0 15
  347.08667 100.0 100
  348.09509 40.0 40
  349.06781 238.0 238
  349.09537 22.0 22
  350.0834 32.0 32
  350.10092 25.0 25
  351.07852 91.0 91
  351.09042 58.0 58
  353.08649 48.0 48
  355.08527 35.0 35
  356.08292 17.0 17
  357.06638 16.0 16
  358.09515 22.0 22
  359.08344 17.0 17
  359.09506 16.0 16
  359.37073 22.0 22
  360.06433 28.0 28
  360.09073 21.0 21
  361.05618 24.0 24
  361.07806 143.0 143
  361.11319 15.0 15
  362.0755 29.0 29
  363.06479 22.0 22
  363.08014 107.0 107
  363.10233 21.0 21
  363.12265 20.0 20
  365.06393 19.0 19
  366.07339 28.0 28
  367.07239 19.0 19
  368.10834 19.0 19
  369.07806 22.0 22
  372.98203 22.0 22
  373.06631 77.0 77
  374.07983 26.0 26
  374.11911 23.0 23
  375.06863 57.0 57
  375.08441 24.0 24
  375.10168 23.0 23
  375.65256 16.0 16
  376.07703 22.0 22
  376.08896 22.0 22
  377.06357 43.0 43
  377.08563 41.0 41
  377.10449 25.0 25
  379.07819 80.0 80
  380.09521 35.0 35
  382.76913 15.0 15
  387.07019 32.0 32
  387.10489 15.0 15
  389.09222 26.0 26
  390.11813 24.0 24
  391.07242 98.0 98
  391.09476 58.0 58
  392.0954 15.0 15
  393.59039 31.0 31
  395.44229 15.0 15
  399.09604 24.0 24
  403.07913 25.0 25
  403.09482 52.0 52
  405.09143 30.0 30
  408.94 27.0 27
  409.07947 23.0 23
  415.06082 28.0 28
  415.07983 74.0 74
  416.0993 16.0 16
  429.09119 22.0 22
  429.11777 32.0 32
  430.10687 20.0 20
  433.09174 21.0 21
  439.08932 23.0 23
  457.08701 26.0 26
//
