ACCESSION: MSBNK-RIKEN-PR040171
RECORD_TITLE: Peltatoside; LC-ESI-QTOF; MS2; CE:Ramp 5-60 V; [M+H]+
DATE: 2016.01.19 (Created 2008.02.14, modified 2011.05.06)
AUTHORS: Matsuda F, Plant Science Center, RIKEN.
LICENSE: CC BY-SA
CH$NAME: quercetin-3-O-arabinoglucoside
CH$NAME: Peltatoside
CH$NAME: Quer_3_Ara
CH$NAME: 2-(3,4-dihydroxyphenyl)-5,7-dihydroxy-3-[(2S,3R,4S,5S,6R)-3,4,5-trihydroxy-6-[[(2S,3R,4S,5S)-3,4,5-trihydroxyoxan-2-yl]oxymethyl]oxan-2-yl]oxychromen-4-one
CH$COMPOUND_CLASS: Natural Product
CH$FORMULA: C26H28O16
CH$EXACT_MASS: 596.13773
CH$SMILES: c(c5)(O)cc(c(c52)C(C(OC(O3)C(C(C(C3COC(C(O)4)OCC(O)C4O)O)O)O)=C(O2)c(c1)ccc(O)c1O)=O)O
CH$IUPAC: InChI=1S/C26H28O16/c27-9-4-12(30)16-14(5-9)40-23(8-1-2-10(28)11(29)3-8)24(19(16)34)42-26-22(37)20(35)18(33)15(41-26)7-39-25-21(36)17(32)13(31)6-38-25/h1-5,13,15,17-18,20-22,25-33,35-37H,6-7H2/t13-,15+,17-,18+,20-,21+,22+,25-,26-/m0/s1
CH$LINK: CAS 23284-18-6
CH$LINK: PUBCHEM CID:5484066
CH$LINK: INCHIKEY YNMFDPCLPIMRFD-KSPKLRDJSA-N
CH$LINK: COMPTOX DTXSID90945976
AC$INSTRUMENT: UPLC Q-Tof Premier, Waters
AC$INSTRUMENT_TYPE: LC-ESI-QTOF
AC$MASS_SPECTROMETRY: MS_TYPE MS2
AC$MASS_SPECTROMETRY: ION_MODE POSITIVE
AC$MASS_SPECTROMETRY: COLLISION_ENERGY Ramp 5-60 V
AC$MASS_SPECTROMETRY: DATAFORMAT Continuum
AC$MASS_SPECTROMETRY: DESOLVATION_GAS_FLOW 600.0 L/Hr
AC$MASS_SPECTROMETRY: DESOLVATION_TEMPERATURE 400 C
AC$MASS_SPECTROMETRY: FRAGMENTATION_METHOD LOW-ENERGY CID
AC$MASS_SPECTROMETRY: IONIZATION ESI
AC$MASS_SPECTROMETRY: SCANNING 1.0 sec/scan (m/z = 50-1000)
AC$MASS_SPECTROMETRY: SOURCE_TEMPERATURE 120 C
AC$CHROMATOGRAPHY: CAPILLARY_VOLTAGE 3.0 kV
AC$CHROMATOGRAPHY: SAMPLING_CONE 23.0 V
AC$CHROMATOGRAPHY: SOLVENT A CH3CN(0.1%HCOOH)
AC$CHROMATOGRAPHY: SOLVENT B H2O(0.1%HCOOH)
MS$FOCUSED_ION: FULL_SCAN_FRAGMENT_ION_PEAK 597.1
MS$FOCUSED_ION: ION_TYPE [M+H]+
MS$DATA_PROCESSING: WHOLE MassLynx 4.1
PK$SPLASH: splash10-0udi-0009000000-7378a55ac8a7cbbab047
PK$NUM_PEAK: 18
PK$PEAK: m/z int. rel.int.
  73.0188 475.2 29
  85.0209 391.3 24
  97.0230 245 15
  115.0351 259.4 16
  133.0478 218.2 13
  137.0207 164.5 10
  145.0482 239.7 15
  153.0163 197.4 12
  165.0175 205.4 12
  229.0488 301.9 18
  257.0440 209.5 13
  303.0490 15910 999
  303.1367 876.7 55
  304.0512 404.5 25
  435.0922 373.9 23
  465.1024 695.4 43
  597.1456 1649 103
  597.3448 173.3 10
//
