ACCESSION: MSBNK-RIKEN-PR301431
RECORD_TITLE: Dehydrosalsolidine; LC-ESI-QTOF; MS2
DATE: 2019.03.28
AUTHORS: Tetsuya Mori, Center for Sustainable Resource Science, RIKEN
LICENSE: CC BY-NC-SA
PUBLICATION: Tsugawa H., Nakabayashi R., Mori T., Yamada Y., Takahashi M., Rai A., Sugiyama R., Yamamoto H., Nakaya T., Yamazaki M., Kooke R., Bac-Molenaar JA., Oztolan-Erol N., Keurentjes JJB., Arita M., Saito K. (2019) "A cheminformatics approach to characterize metabolomes in stable-isotope-labeled organisms" Nature Methods 16(4):295-298. [doi:10.1038/s41592-019-0358-2]
COMMENT: registered in RIKEN PlaSMA
CH$NAME: Dehydrosalsolidine
CH$COMPOUND_CLASS: Dihydroisoquinolines
CH$FORMULA: C12H15NO2
CH$EXACT_MASS: 205.257
CH$SMILES: COC1=C(OC)C=C2C(C)=NCCC2=C1
CH$IUPAC: InChI=1S/C12H15NO2/c1-8-10-7-12(15-3)11(14-2)6-9(10)4-5-13-8/h6-7H,4-5H2,1-3H3
CH$LINK: INCHIKEY VASUQTGZAPZKFK-UHFFFAOYSA-N
AC$INSTRUMENT: LC, Waters Acquity UPLC System; MS, Waters Xevo G2 Q-Tof
AC$INSTRUMENT_TYPE: LC-ESI-QTOF
AC$MASS_SPECTROMETRY: MS_TYPE MS2
AC$MASS_SPECTROMETRY: ION_MODE POSITIVE
AC$MASS_SPECTROMETRY: COLLISION_ENERGY 6V
AC$MASS_SPECTROMETRY: DESOLVATION_GAS_FLOW 800/h
AC$MASS_SPECTROMETRY: DESOLVATION_TEMPERATURE 450 C
AC$MASS_SPECTROMETRY: IONIZATION ESI
AC$CHROMATOGRAPHY: CAPILLARY_VOLTAGE +3.00 kV
AC$CHROMATOGRAPHY: COLUMN_NAME Acquity bridged ethyl hybrid C18 (1.7 um, 2.1 mm * 100 mm, Waters)
AC$CHROMATOGRAPHY: COLUMN_TEMPERATURE 40 C
AC$CHROMATOGRAPHY: FLOW_GRADIENT A/B = (99.5%/0.5% at 0 min, 99.5%/0.5% at 0.1 min, 20%/80% at 10 min, 0.5%/99.5% at 10.1 min, 0.5%/99.5% at 12.0 min, 99.5%/0.5% at 12.1 min, 99.5%/0.5% at 15.0 min)
AC$CHROMATOGRAPHY: FLOW_RATE 0.3 ml/min at 0 min, 0.3 ml/min at 10 min, 0.4 ml/min at 10.1 min, 0.4 ml/min at 14.4 min, 0.3 ml/min at 14.5 min
AC$CHROMATOGRAPHY: RETENTION_TIME 2.931217
AC$CHROMATOGRAPHY: SOLVENT A water including 0.1% formic acid
AC$CHROMATOGRAPHY: SOLVENT B acetonitrile including 0.1% formic acid
MS$FOCUSED_ION: PRECURSOR_TYPE [M+H]+
MS$FOCUSED_ION: PRECURSOR_M/Z 206.1175552
PK$SPLASH: splash10-0a4i-0590000000-4ebdec8307db10a2df2e
PK$NUM_PEAK: 20
PK$PEAK: m/z int. rel.int.
  132.08284 12.0 12
  144.08086 15.0 15
  145.08833 36.0 36
  146.09265 8.0 8
  160.07408 16.0 16
  161.08441 14.0 14
  162.09172 101.0 101
  163.09021 6.0 6
  163.09708 8.0 8
  173.08466 5.0 5
  174.09251 21.0 21
  176.06577 6.0 6
  176.07185 15.0 15
  188.06839 17.0 17
  190.08644 219.0 219
  191.09247 81.0 81
  191.09918 36.0 36
  192.09741 15.0 15
  206.11749 1000.0 999
  206.15778 30.0 30
//
