ACCESSION: MSBNK-RIKEN-PR100264
RECORD_TITLE: (-)-Epicatechin; LC-ESI-QTOF; MS2; CE:Ramp 5-60 V; [M+H]+
DATE: 2016.01.19 (Created 2009.09.10, modified 2011.05.06)
AUTHORS: Matsuda F, Suzuki M, Sawada Y, Plant Science Center, RIKEN.
LICENSE: CC BY-SA
COMMENT: Acquisition and generation of the data is financially supported in part by CREST/JST.
CH$NAME: (-)-Epicatechin
CH$NAME: (-)-3,3',4',5,7-Pentahydroxyflavan
CH$NAME: EpCt_mi
CH$COMPOUND_CLASS: Flavonoid
CH$FORMULA: C15H14O6
CH$EXACT_MASS: 290.07904
CH$SMILES: C1[C@H]([C@H](OC2=CC(=CC(=C21)O)O)C3=CC(=C(C=C3)O)O)O
CH$IUPAC: InChI=1S/C15H14O6/c16-8-4-11(18)9-6-13(20)15(21-14(9)5-8)7-1-2-10(17)12(19)3-7/h1-5,13,15-20H,6H2/t13-,15-/m1/s1
CH$LINK: CAS 17334-50-8
CH$LINK: CHEMSPIDER 65230
CH$LINK: KAPPAVIEW KPC00503
CH$LINK: KEGG C09727
CH$LINK: KNAPSACK C00000956
CH$LINK: PUBCHEM CID:72276
CH$LINK: INCHIKEY PFTAWBLQPZVEMU-UKRRQHHQSA-N
CH$LINK: COMPTOX DTXSID4045133
AC$INSTRUMENT: UPLC Q-Tof Premier, Waters
AC$INSTRUMENT_TYPE: LC-ESI-QTOF
AC$MASS_SPECTROMETRY: MS_TYPE MS2
AC$MASS_SPECTROMETRY: ION_MODE POSITIVE
AC$MASS_SPECTROMETRY: COLLISION_ENERGY Ramp 5-60 V
AC$MASS_SPECTROMETRY: DATAFORMAT Continuum
AC$MASS_SPECTROMETRY: DESOLVATION_GAS_FLOW 600.0 L/Hr
AC$MASS_SPECTROMETRY: DESOLVATION_TEMPERATURE 400 C
AC$MASS_SPECTROMETRY: FRAGMENTATION_METHOD LOW-ENERGY CID
AC$MASS_SPECTROMETRY: IONIZATION ESI
AC$MASS_SPECTROMETRY: SOURCE_TEMPERATURE 120 C
AC$CHROMATOGRAPHY: CAPILLARY_VOLTAGE 3.0 kV
AC$CHROMATOGRAPHY: SAMPLING_CONE 23.0 V
AC$CHROMATOGRAPHY: SOLVENT A CH3CN(0.1%HCOOH)
AC$CHROMATOGRAPHY: SOLVENT B H2O(0.1%HCOOH)
MS$FOCUSED_ION: PRECURSOR_M/Z 291.08683
MS$FOCUSED_ION: PRECURSOR_TYPE [M+H]+
PK$SPLASH: splash10-0079-0900000000-1c23cf9e8aa258a986ad
PK$NUM_PEAK: 5
PK$PEAK: m/z int. rel.int.
  123.0446 658.8 727
  139.0397 905 999
  147.0453 204.5 226
  165.0555 129.8 143
  291.0868 127.8 141
//
