ACCESSION: MSBNK-RIKEN-PR310517
RECORD_TITLE: Cinobufagin; LC-ESI-QTOF; MS2
DATE: 2019.03.28
AUTHORS: Tetsuya Mori, Center for Sustainable Resource Science, RIKEN
LICENSE: CC BY-NC-SA
PUBLICATION: Tsugawa H., Nakabayashi R., Mori T., Yamada Y., Takahashi M., Rai A., Sugiyama R., Yamamoto H., Nakaya T., Yamazaki M., Kooke R., Bac-Molenaar JA., Oztolan-Erol N., Keurentjes JJB., Arita M., Saito K. (2019) "A cheminformatics approach to characterize metabolomes in stable-isotope-labeled organisms" Nature Methods 16(4):295-298. [doi:10.1038/s41592-019-0358-2]
COMMENT: Annotation level-1
CH$NAME: Cinobufagin
CH$COMPOUND_CLASS: Bufanolides and derivatives
CH$FORMULA: C26H34O6
CH$EXACT_MASS: 442.552
CH$SMILES: CC(=O)O[C@@H]1[C@@H]([C@]2(CC[C@H]3[C@H]([C@@]24[C@@H]1O4)CC[C@H]5[C@@]3(CC[C@@H](C5)O)C)C)C6=COC(=O)C=C6
CH$IUPAC: InChI=1S/C26H34O6/c1-14(27)31-22-21(15-4-7-20(29)30-13-15)25(3)11-9-18-19(26(25)23(22)32-26)6-5-16-12-17(28)8-10-24(16,18)2/h4,7,13,16-19,21-23,28H,5-6,8-12H2,1-3H3/t16-,17+,18+,19-,21+,22-,23-,24+,25-,26-/m1/s1
CH$LINK: INCHIKEY SCULJPGYOQQXTK-OLRINKBESA-N
AC$INSTRUMENT: LC, Waters Acquity UPLC System; MS, Waters Xevo G2 Q-Tof
AC$INSTRUMENT_TYPE: LC-ESI-QTOF
AC$MASS_SPECTROMETRY: MS_TYPE MS2
AC$MASS_SPECTROMETRY: ION_MODE POSITIVE
AC$MASS_SPECTROMETRY: COLLISION_ENERGY 6V
AC$MASS_SPECTROMETRY: DESOLVATION_GAS_FLOW 800/h
AC$MASS_SPECTROMETRY: DESOLVATION_TEMPERATURE 450 C
AC$MASS_SPECTROMETRY: IONIZATION ESI
AC$CHROMATOGRAPHY: CAPILLARY_VOLTAGE +3.00 kV
AC$CHROMATOGRAPHY: COLUMN_NAME Acquity bridged ethyl hybrid C18 (1.7 um, 2.1 mm * 100 mm, Waters)
AC$CHROMATOGRAPHY: COLUMN_TEMPERATURE 40 C
AC$CHROMATOGRAPHY: FLOW_GRADIENT A/B = (99.5%/0.5% at 0 min, 99.5%/0.5% at 0.1 min, 20%/80% at 10 min, 0.5%/99.5% at 10.1 min, 0.5%/99.5% at 12.0 min, 99.5%/0.5% at 12.1 min, 99.5%/0.5% at 15.0 min)
AC$CHROMATOGRAPHY: FLOW_RATE 0.3 ml/min at 0 min, 0.3 ml/min at 10 min, 0.4 ml/min at 10.1 min, 0.4 ml/min at 14.4 min, 0.3 ml/min at 14.5 min
AC$CHROMATOGRAPHY: RETENTION_TIME 7.51
AC$CHROMATOGRAPHY: SOLVENT A water including 0.1% formic acid
AC$CHROMATOGRAPHY: SOLVENT B acetonitrile including 0.1% formic acid
MS$FOCUSED_ION: PRECURSOR_TYPE [M+H]+
MS$FOCUSED_ION: PRECURSOR_M/Z 443.24282
PK$SPLASH: splash10-0006-0642900000-21691708b14d7aea53d4
PK$NUM_PEAK: 667
PK$PEAK: m/z int. rel.int.
  62.54538 21.0 1
  67.05412 104.0 3
  69.07038 21.0 1
  81.02448 31.0 1
  81.0379 55.0 2
  81.0702 176.0 6
  83.0499 18.0 1
  83.08706 48.0 2
  91.05373 170.0 6
  93.06512 60.0 2
  93.07076 16.0 1
  94.07413 65.0 2
  95.01367 38.0 1
  95.04671 89.0 3
  95.05394 18.0 1
  95.08311 245.0 8
  95.09079 108.0 4
  96.08884 47.0 2
  102.08328 18.0 1
  105.058 23.0 1
  105.06976 390.0 13
  106.06844 21.0 1
  106.07607 17.0 1
  107.0502 65.0 2
  107.06016 23.0 1
  107.07535 57.0 2
  107.08479 472.0 16
  108.08573 17.0 1
  108.44338 19.0 1
  109.02844 231.0 8
  109.06301 42.0 1
  109.10026 200.0 7
  110.03349 20.0 1
  110.10276 18.0 1
  111.02861 19.0 1
  111.11964 18.0 1
  111.96731 24.0 1
  112.12444 22.0 1
  113.58083 18.0 1
  115.05757 21.0 1
  117.06244 96.0 3
  117.07283 65.0 2
  117.56082 18.0 1
  118.07695 50.0 2
  119.0694 19.0 1
  119.0843 414.0 14
  120.08531 35.0 1
  121.02531 62.0 2
  121.03198 75.0 2
  121.06844 102.0 3
  121.10165 221.0 7
  121.10731 103.0 3
  122.06779 24.0 1
  122.07679 30.0 1
  123.04407 438.0 14
  123.07532 32.0 1
  123.11566 40.0 1
  124.08689 22.0 1
  124.31783 22.0 1
  125.03021 32.0 1
  127.03226 20.0 1
  127.05431 17.0 1
  129.06898 96.0 3
  129.21776 20.0 1
  130.07523 20.0 1
  131.0854 596.0 20
  132.08463 22.0 1
  132.09175 23.0 1
  133.06821 115.0 4
  133.09135 48.0 2
  133.10161 379.0 12
  134.06331 17.0 1
  134.10228 37.0 1
  135.04373 163.0 5
  135.07787 73.0 2
  135.11444 287.0 9
  135.1192 155.0 5
  135.33562 21.0 1
  136.04124 18.0 1
  136.12355 86.0 3
  137.05788 116.0 4
  137.09451 23.0 1
  137.12288 22.0 1
  139.03432 20.0 1
  139.04233 68.0 2
  140.04482 53.0 2
  141.0322 17.0 1
  141.06644 72.0 2
  141.07516 27.0 1
  142.45726 21.0 1
  143.07938 61.0 2
  143.08815 161.0 5
  144.08615 17.0 1
  144.09312 39.0 1
  145.06612 66.0 2
  145.0997 558.0 18
  146.10439 79.0 3
  147.04657 47.0 2
  147.0721 28.0 1
  147.08089 119.0 4
  147.11673 469.0 15
  147.69951 17.0 1
  148.12105 61.0 2
  149.0233 137.0 5
  149.06046 152.0 5
  149.11176 24.0 1
  149.13272 228.0 8
  149.23741 21.0 1
  150.03078 18.0 1
  150.10678 19.0 1
  150.13672 22.0 1
  150.14676 17.0 1
  151.03819 1091.0 36
  151.0808 20.0 1
  151.11624 35.0 1
  152.03979 82.0 3
  152.04662 87.0 3
  152.08066 23.0 1
  153.0208 21.0 1
  153.0555 20.0 1
  153.06769 50.0 2
  153.07457 19.0 1
  154.05341 17.0 1
  155.07625 25.0 1
  155.08679 127.0 4
  155.57097 17.0 1
  156.08069 22.0 1
  156.09148 102.0 3
  156.09845 41.0 1
  157.05731 33.0 1
  157.07283 20.0 1
  157.09686 118.0 4
  157.10626 117.0 4
  158.0666 22.0 1
  158.0795 24.0 1
  158.09906 28.0 1
  158.10873 21.0 1
  159.07921 255.0 8
  159.11563 849.0 28
  160.07991 24.0 1
  160.11852 41.0 1
  161.03479 21.0 1
  161.05875 154.0 5
  161.09291 33.0 1
  161.13084 432.0 14
  161.95261 28.0 1
  162.06317 18.0 1
  162.1235 41.0 1
  162.13686 17.0 1
  163.03697 358.0 12
  163.05276 36.0 1
  163.07368 24.0 1
  163.0816 19.0 1
  163.11328 38.0 1
  163.1373 37.0 1
  164.04254 40.0 1
  165.04303 25.0 1
  165.05432 46.0 2
  165.06233 70.0 2
  165.0869 18.0 1
  166.02681 17.0 1
  166.05305 17.0 1
  166.06165 21.0 1
  166.08492 20.0 1
  167.00388 17.0 1
  167.03683 105.0 3
  167.07117 20.0 1
  167.08527 118.0 4
  167.09627 17.0 1
  168.08943 48.0 2
  169.04678 44.0 1
  169.10555 107.0 4
  170.05591 17.0 1
  170.10661 30.0 1
  171.07275 25.0 1
  171.08302 38.0 1
  171.10233 20.0 1
  171.11528 342.0 11
  172.11966 37.0 1
  173.05705 106.0 3
  173.06427 50.0 2
  173.10057 41.0 1
  173.13148 293.0 10
  174.0657 23.0 1
  174.12805 17.0 1
  174.13625 54.0 2
  174.14449 19.0 1
  175.04057 37.0 1
  175.07477 440.0 15
  175.11176 18.0 1
  175.15137 187.0 6
  176.07654 20.0 1
  176.14372 18.0 1
  176.1534 26.0 1
  177.05315 236.0 8
  177.09073 20.0 1
  177.09738 22.0 1
  177.12561 68.0 2
  177.16043 20.0 1
  177.21332 20.0 1
  178.05751 38.0 1
  178.06847 40.0 1
  178.36311 26.0 1
  179.0611 20.0 1
  179.07608 124.0 4
  179.09038 23.0 1
  179.12515 20.0 1
  180.07195 71.0 2
  180.09343 43.0 1
  181.05441 36.0 1
  181.09288 36.0 1
  181.10229 103.0 3
  182.09718 32.0 1
  182.11877 22.0 1
  183.03676 17.0 1
  183.07629 83.0 3
  183.09201 40.0 1
  183.11131 98.0 3
  183.12157 97.0 3
  183.90155 17.0 1
  184.12096 37.0 1
  184.98526 17.0 1
  185.04988 22.0 1
  185.06186 33.0 1
  185.06808 18.0 1
  185.08838 70.0 2
  185.09747 18.0 1
  185.12497 77.0 3
  185.13492 85.0 3
  185.54231 23.0 1
  186.13905 28.0 1
  186.14796 20.0 1
  187.08501 18.0 1
  187.10179 18.0 1
  187.11073 20.0 1
  187.12062 29.0 1
  187.14812 1694.0 56
  188.07373 27.0 1
  188.08472 19.0 1
  188.11642 18.0 1
  188.14517 145.0 5
  188.15503 236.0 8
  189.09512 103.0 3
  189.15549 87.0 3
  189.16661 63.0 2
  190.09526 24.0 1
  190.16733 32.0 1
  191.06905 101.0 3
  191.10374 20.0 1
  191.14491 17.0 1
  192.06874 48.0 2
  193.09428 36.0 1
  193.103 41.0 1
  193.15704 29.0 1
  193.70911 29.0 1
  194.06532 30.0 1
  194.1066 76.0 3
  195.07266 18.0 1
  195.11656 338.0 11
  195.17461 22.0 1
  196.08783 23.0 1
  196.11356 19.0 1
  197.09462 117.0 4
  197.11131 18.0 1
  197.12991 104.0 3
  198.06688 20.0 1
  198.09885 23.0 1
  198.13692 18.0 1
  199.05971 17.0 1
  199.07536 198.0 7
  199.10995 84.0 3
  199.13989 24.0 1
  199.15388 116.0 4
  200.07581 18.0 1
  200.14613 20.0 1
  201.06461 20.0 1
  201.09323 239.0 8
  201.11652 58.0 2
  201.13199 79.0 3
  201.16676 64.0 2
  202.09633 60.0 2
  203.07124 181.0 6
  203.0833 34.0 1
  203.1039 46.0 2
  203.1398 18.0 1
  203.17902 786.0 26
  204.06729 17.0 1
  204.07405 54.0 2
  204.09335 42.0 1
  204.11865 26.0 1
  204.18452 25.0 1
  204.19168 67.0 2
  205.08521 95.0 3
  205.10576 115.0 4
  205.15942 178.0 6
  206.16597 21.0 1
  207.11342 108.0 4
  207.1256 18.0 1
  208.12587 20.0 1
  209.0407 52.0 2
  209.07581 30.0 1
  209.09398 92.0 3
  209.10367 80.0 3
  209.13313 170.0 6
  210.06842 22.0 1
  210.10419 20.0 1
  210.13673 59.0 2
  210.54306 19.0 1
  211.0661 23.0 1
  211.09457 35.0 1
  211.11511 98.0 3
  211.14806 116.0 4
  211.44006 18.0 1
  212.11696 33.0 1
  212.15874 24.0 1
  213.09151 90.0 3
  213.12154 103.0 3
  213.13994 20.0 1
  213.16478 336.0 11
  214.1707 206.0 7
  215.06299 46.0 2
  215.07127 36.0 1
  215.10571 32.0 1
  215.11682 20.0 1
  215.13437 20.0 1
  215.14139 18.0 1
  215.17964 1036.0 34
  215.61598 18.0 1
  216.04829 20.0 1
  216.08392 17.0 1
  216.10529 27.0 1
  216.11418 38.0 1
  216.18321 360.0 12
  217.08578 86.0 3
  217.10829 48.0 2
  217.11861 40.0 1
  217.14999 22.0 1
  217.19695 20.0 1
  218.11707 18.0 1
  218.16451 17.0 1
  218.85596 24.0 1
  219.11758 162.0 5
  219.13594 27.0 1
  220.00031 20.0 1
  220.10489 20.0 1
  220.12306 20.0 1
  220.62424 20.0 1
  221.08504 33.0 1
  221.09688 124.0 4
  221.11618 37.0 1
  221.13292 107.0 4
  222.0629 19.0 1
  222.1046 18.0 1
  223.07138 32.0 1
  223.10258 60.0 2
  223.11613 24.0 1
  223.12819 23.0 1
  223.14754 37.0 1
  223.47997 19.0 1
  224.12671 26.0 1
  224.15166 40.0 1
  225.07877 18.0 1
  225.09175 21.0 1
  225.12007 63.0 2
  225.13077 47.0 2
  225.16574 139.0 5
  225.77477 18.0 1
  226.15924 27.0 1
  227.07314 19.0 1
  227.10323 175.0 6
  227.11629 21.0 1
  227.14273 63.0 2
  227.18265 132.0 4
  228.18651 85.0 3
  228.44751 24.0 1
  229.06741 47.0 2
  229.08186 17.0 1
  229.11008 25.0 1
  229.13174 24.0 1
  229.15533 95.0 3
  230.08684 21.0 1
  231.08408 23.0 1
  231.0977 58.0 2
  231.10907 57.0 2
  231.13391 17.0 1
  231.17088 68.0 2
  231.32024 43.0 1
  232.10876 21.0 1
  232.11931 25.0 1
  232.13199 20.0 1
  233.10103 25.0 1
  233.11687 23.0 1
  233.19188 129.0 4
  233.38393 20.0 1
  233.45238 29.0 1
  234.14558 21.0 1
  235.1049 21.0 1
  235.11427 20.0 1
  235.14546 74.0 2
  236.15649 35.0 1
  236.59088 23.0 1
  237.0831 31.0 1
  237.13292 54.0 2
  237.1725 24.0 1
  238.09178 24.0 1
  238.13457 57.0 2
  239.05588 17.0 1
  239.08669 18.0 1
  239.0988 48.0 2
  239.11203 21.0 1
  239.16974 21.0 1
  240.10663 18.0 1
  240.11699 20.0 1
  240.17755 41.0 1
  241.08496 57.0 2
  241.11694 22.0 1
  241.13092 76.0 3
  241.18411 22.0 1
  242.09018 19.0 1
  243.1073 61.0 2
  243.13138 60.0 2
  243.17125 63.0 2
  243.18118 30.0 1
  245.09387 20.0 1
  245.11333 58.0 2
  245.14014 17.0 1
  245.26488 20.0 1
  246.10245 21.0 1
  246.1436 23.0 1
  247.10504 53.0 2
  247.11554 18.0 1
  247.15633 17.0 1
  247.16904 25.0 1
  248.16679 21.0 1
  249.13527 36.0 1
  249.16812 34.0 1
  250.06812 25.0 1
  251.09669 17.0 1
  251.10976 24.0 1
  251.11961 17.0 1
  251.13242 23.0 1
  251.15114 18.0 1
  251.17824 425.0 14
  251.24893 20.0 1
  252.19083 182.0 6
  253.11685 64.0 2
  253.13391 20.0 1
  253.1479 28.0 1
  253.16354 35.0 1
  253.17934 47.0 2
  253.19774 127.0 4
  254.12469 22.0 1
  254.19672 73.0 2
  254.2093 22.0 1
  255.09711 80.0 3
  255.10725 115.0 4
  255.13887 133.0 4
  255.16658 64.0 2
  255.17871 70.0 2
  255.20564 23.0 1
  255.77486 24.0 1
  256.13937 25.0 1
  256.17416 19.0 1
  256.18597 34.0 1
  257.11661 265.0 9
  257.70273 24.0 1
  257.82382 20.0 1
  258.12338 34.0 1
  259.14508 39.0 1
  261.0975 17.0 1
  261.15765 49.0 2
  261.18243 41.0 1
  262.06366 20.0 1
  262.40179 33.0 1
  263.13498 19.0 1
  263.14798 20.0 1
  265.12082 68.0 2
  265.19003 31.0 1
  266.11063 21.0 1
  266.1344 66.0 2
  267.20895 33.0 1
  268.11819 18.0 1
  268.21622 20.0 1
  269.11099 18.0 1
  269.18457 320.0 11
  269.19794 98.0 3
  269.21063 18.0 1
  270.0983 23.0 1
  270.11484 19.0 1
  270.19055 73.0 2
  270.2019 28.0 1
  271.10248 26.0 1
  271.13806 83.0 3
  271.20865 42.0 1
  273.14157 20.0 1
  273.16855 20.0 1
  273.18033 17.0 1
  275.13895 21.0 1
  275.17264 17.0 1
  276.60712 20.0 1
  277.13797 48.0 2
  277.16058 89.0 3
  277.19458 99.0 3
  277.20251 41.0 1
  278.1315 42.0 1
  278.19525 17.0 1
  278.61197 17.0 1
  279.14053 35.0 1
  279.21332 23.0 1
  280.13571 26.0 1
  280.21701 21.0 1
  281.14258 35.0 1
  281.19321 32.0 1
  281.20346 17.0 1
  281.46671 18.0 1
  283.12939 111.0 4
  283.16135 41.0 1
  284.14151 23.0 1
  284.15884 17.0 1
  284.72888 23.0 1
  285.13947 19.0 1
  285.15649 20.0 1
  285.31396 42.0 1
  285.57242 38.0 1
  287.13818 20.0 1
  287.17102 42.0 1
  287.19135 45.0 1
  287.20847 21.0 1
  288.18588 43.0 1
  288.202 22.0 1
  289.12866 28.0 1
  289.14081 25.0 1
  290.26202 17.0 1
  290.67551 20.0 1
  291.12375 27.0 1
  291.13452 21.0 1
  291.16663 72.0 2
  291.21478 118.0 4
  292.13385 17.0 1
  292.14536 26.0 1
  293.12439 23.0 1
  293.15588 19.0 1
  293.19907 22.0 1
  293.21164 20.0 1
  293.57986 26.0 1
  295.12845 17.0 1
  295.17468 63.0 2
  295.20242 20.0 1
  296.1489 20.0 1
  297.96857 17.0 1
  299.39377 27.0 1
  301.16217 18.0 1
  301.18692 59.0 2
  301.22336 17.0 1
  302.16891 21.0 1
  302.1947 29.0 1
  303.17633 21.0 1
  305.1463 17.0 1
  305.15915 37.0 1
  305.18008 51.0 2
  305.19675 23.0 1
  305.2095 31.0 1
  306.18661 21.0 1
  306.56024 36.0 1
  307.15579 36.0 1
  308.17072 35.0 1
  309.14984 24.0 1
  309.17349 40.0 1
  309.20294 17.0 1
  309.22079 66.0 2
  309.2413 27.0 1
  309.75735 18.0 1
  310.03363 18.0 1
  310.19193 21.0 1
  311.16803 29.0 1
  314.18558 18.0 1
  319.17108 81.0 3
  319.2052 222.0 7
  319.21884 67.0 2
  319.23926 21.0 1
  320.21622 63.0 2
  320.22989 27.0 1
  321.15405 20.0 1
  321.17969 23.0 1
  321.20303 18.0 1
  321.22437 95.0 3
  322.19516 39.0 1
  323.16409 21.0 1
  323.20197 133.0 4
  323.21127 56.0 2
  329.19327 251.0 8
  329.89664 17.0 1
  330.19385 43.0 1
  332.15652 17.0 1
  334.69629 18.0 1
  337.19135 43.0 1
  337.21313 468.0 15
  338.08246 17.0 1
  338.1918 17.0 1
  338.21344 36.0 1
  338.22385 124.0 4
  338.2417 41.0 1
  338.5672 23.0 1
  339.18948 21.0 1
  339.21237 21.0 1
  339.23148 81.0 3
  339.7619 18.0 1
  341.16351 57.0 2
  341.20554 20.0 1
  347.19928 1038.0 34
  348.2038 309.0 10
  348.22253 28.0 1
  349.17755 17.0 1
  349.18912 41.0 1
  349.21844 18.0 1
  350.19943 19.0 1
  352.44504 26.0 1
  352.89062 24.0 1
  353.76169 17.0 1
  355.22046 72.0 2
  356.22729 25.0 1
  360.64392 20.0 1
  362.5181 22.0 1
  365.00732 23.0 1
  365.13632 19.0 1
  365.16202 20.0 1
  365.17972 17.0 1
  365.21185 2597.0 86
  365.25177 20.0 1
  365.29706 20.0 1
  366.16177 19.0 1
  366.17865 18.0 1
  366.21399 823.0 27
  366.78946 21.0 1
  367.21356 155.0 5
  374.23279 20.0 1
  380.42606 31.0 1
  383.17709 20.0 1
  383.22101 548.0 18
  383.24066 65.0 2
  384.21814 99.0 3
  384.23492 20.0 1
  386.71768 17.0 1
  389.77783 17.0 1
  399.33359 17.0 1
  401.19904 27.0 1
  401.23706 765.0 25
  402.21359 28.0 1
  402.2345 173.0 6
  403.24536 21.0 1
  406.13391 19.0 1
  407.2337 24.0 1
  407.521 19.0 1
  420.38022 30.0 1
  425.22794 17.0 1
  425.2449 24.0 1
  425.25952 30.0 1
  426.23129 45.0 1
  427.77618 17.0 1
  430.51062 29.0 1
  440.57736 18.0 1
  442.94113 17.0 1
  443.10526 17.0 1
  443.13937 19.0 1
  443.17303 109.0 4
  443.2431 30304.0 999
  443.30545 698.0 23
//
