ACCESSION: MSBNK-RIKEN-PR302837
RECORD_TITLE: Quercetin; LC-ESI-QTOF; MS2
DATE: 2019.03.28
AUTHORS: Tetsuya Mori, Center for Sustainable Resource Science, RIKEN
LICENSE: CC BY-NC-SA
PUBLICATION: Tsugawa H., Nakabayashi R., Mori T., Yamada Y., Takahashi M., Rai A., Sugiyama R., Yamamoto H., Nakaya T., Yamazaki M., Kooke R., Bac-Molenaar JA., Oztolan-Erol N., Keurentjes JJB., Arita M., Saito K. (2019) "A cheminformatics approach to characterize metabolomes in stable-isotope-labeled organisms" Nature Methods 16(4):295-298. [doi:10.1038/s41592-019-0358-2]
COMMENT: registered in RIKEN PlaSMA
CH$NAME: Quercetin
CH$COMPOUND_CLASS: Flavonols
CH$FORMULA: C15H10O7
CH$EXACT_MASS: 302.238
CH$SMILES: OC1=CC(O)=C2C(OC(=C(O)C2=O)C2=CC(O)=C(O)C=C2)=C1
CH$IUPAC: InChI=1S/C15H10O7/c16-7-4-10(19)12-11(5-7)22-15(14(21)13(12)20)6-1-2-8(17)9(18)3-6/h1-5,16-19,21H
CH$LINK: INCHIKEY REFJWTPEDVJJIY-UHFFFAOYSA-N
AC$INSTRUMENT: LC, Waters Acquity UPLC System; MS, Waters Xevo G2 Q-Tof
AC$INSTRUMENT_TYPE: LC-ESI-QTOF
AC$MASS_SPECTROMETRY: MS_TYPE MS2
AC$MASS_SPECTROMETRY: ION_MODE POSITIVE
AC$MASS_SPECTROMETRY: COLLISION_ENERGY 6V
AC$MASS_SPECTROMETRY: DESOLVATION_GAS_FLOW 800/h
AC$MASS_SPECTROMETRY: DESOLVATION_TEMPERATURE 450 C
AC$MASS_SPECTROMETRY: IONIZATION ESI
AC$CHROMATOGRAPHY: CAPILLARY_VOLTAGE +3.00 kV
AC$CHROMATOGRAPHY: COLUMN_NAME Acquity bridged ethyl hybrid C18 (1.7 um, 2.1 mm * 100 mm, Waters)
AC$CHROMATOGRAPHY: COLUMN_TEMPERATURE 40 C
AC$CHROMATOGRAPHY: FLOW_GRADIENT A/B = (99.5%/0.5% at 0 min, 99.5%/0.5% at 0.1 min, 20%/80% at 10 min, 0.5%/99.5% at 10.1 min, 0.5%/99.5% at 12.0 min, 99.5%/0.5% at 12.1 min, 99.5%/0.5% at 15.0 min)
AC$CHROMATOGRAPHY: FLOW_RATE 0.3 ml/min at 0 min, 0.3 ml/min at 10 min, 0.4 ml/min at 10.1 min, 0.4 ml/min at 14.4 min, 0.3 ml/min at 14.5 min
AC$CHROMATOGRAPHY: RETENTION_TIME 5.3665
AC$CHROMATOGRAPHY: SOLVENT A water including 0.1% formic acid
AC$CHROMATOGRAPHY: SOLVENT B acetonitrile including 0.1% formic acid
MS$FOCUSED_ION: PRECURSOR_TYPE [M+H]+
MS$FOCUSED_ION: PRECURSOR_M/Z 303.0499291
PK$SPLASH: splash10-056r-1910000000-ae7f008ef832a0a89a09
PK$NUM_PEAK: 110
PK$PEAK: m/z int. rel.int.
  54.04259 63.0 63
  55.01376 102.0 102
  67.02016 87.0 87
  68.99423 78.0 78
  69.00085 247.0 247
  69.03381 86.0 86
  74.16622 33.0 33
  77.03983 190.0 190
  78.13023 32.0 32
  79.02164 46.0 46
  81.02309 46.0 46
  81.03437 112.0 112
  91.02243 39.0 39
  91.03992 56.0 56
  91.05473 54.0 54
  93.03062 82.0 82
  93.03839 32.0 32
  95.04642 46.0 46
  95.0545 50.0 50
  97.02953 41.0 41
  101.03676 89.0 89
  103.05508 143.0 143
  104.05708 123.0 123
  105.03539 113.0 113
  105.03902 52.0 52
  105.06812 138.0 138
  106.03764 145.0 145
  108.01277 65.0 65
  108.01902 41.0 41
  109.01997 69.0 69
  109.03072 275.0 275
  109.05926 41.0 41
  109.94201 33.0 33
  110.0289 80.0 80
  110.03402 61.0 61
  115.05298 227.0 227
  116.05958 46.0 46
  117.06971 80.0 80
  118.02705 33.0 33
  119.0515 61.0 61
  121.02139 39.0 39
  121.06222 54.0 54
  122.04136 48.0 48
  123.0444 197.0 197
  126.04134 74.0 74
  126.04675 59.0 59
  126.84465 43.0 43
  127.05412 1000.0 999
  128.06268 383.0 383
  129.07246 39.0 39
  131.04872 193.0 193
  132.06227 48.0 48
  133.03772 37.0 37
  134.03542 41.0 41
  135.00606 78.0 78
  135.03897 87.0 87
  137.01056 52.0 52
  137.0239 325.0 325
  137.03046 271.0 271
  138.02061 46.0 46
  139.04886 58.0 58
  139.05649 45.0 45
  143.04471 41.0 41
  145.06807 50.0 50
  145.07463 45.0 45
  146.02892 50.0 50
  147.08366 32.0 32
  149.01602 43.0 43
  149.05826 50.0 50
  152.05942 69.0 69
  152.99077 48.0 48
  153.00354 45.0 45
  153.01788 563.0 562
  154.01405 56.0 56
  154.02156 35.0 35
  155.04955 619.0 618
  159.03841 82.0 82
  160.15974 32.0 32
  163.03348 110.0 110
  165.0204 48.0 48
  173.04805 67.0 67
  173.05807 48.0 48
  173.06702 50.0 50
  175.03577 50.0 50
  176.04016 86.0 86
  176.04683 37.0 37
  177.04007 33.0 33
  178.0574 46.0 46
  179.02141 43.0 43
  179.02965 119.0 119
  179.03749 74.0 74
  183.04416 43.0 43
  184.03876 46.0 46
  187.0421 87.0 87
  189.01508 56.0 56
  200.05095 78.0 78
  201.05403 177.0 177
  203.03485 197.0 197
  203.05109 95.0 95
  212.02809 37.0 37
  212.05934 54.0 54
  215.03171 46.0 46
  229.04514 126.0 126
  229.06097 33.0 33
  238.02939 78.0 78
  241.85716 52.0 52
  257.04068 89.0 89
  278.41672 52.0 52
  285.03357 58.0 58
  300.99573 39.0 39
//
