ACCESSION: MSBNK-RIKEN-PR310595
RECORD_TITLE: Yohimbic Acid; LC-ESI-QTOF; MS2
DATE: 2019.03.28
AUTHORS: Tetsuya Mori, Center for Sustainable Resource Science, RIKEN
LICENSE: CC BY-NC-SA
PUBLICATION: Tsugawa H., Nakabayashi R., Mori T., Yamada Y., Takahashi M., Rai A., Sugiyama R., Yamamoto H., Nakaya T., Yamazaki M., Kooke R., Bac-Molenaar JA., Oztolan-Erol N., Keurentjes JJB., Arita M., Saito K. (2019) "A cheminformatics approach to characterize metabolomes in stable-isotope-labeled organisms" Nature Methods 16(4):295-298. [doi:10.1038/s41592-019-0358-2]
COMMENT: Annotation level-1
CH$NAME: Yohimbic Acid
CH$COMPOUND_CLASS: Alkaloids
CH$FORMULA: C20H24N2O3
CH$EXACT_MASS: 340.423
CH$SMILES: OC1CCC2CN3CCC4=C(NC5=C4C=CC=C5)C3CC2C1C(O)=O
CH$IUPAC: InChI=1S/C20H24N2O3/c23-17-6-5-11-10-22-8-7-13-12-3-1-2-4-15(12)21-19(13)16(22)9-14(11)18(17)20(24)25/h1-4,11,14,16-18,21,23H,5-10H2,(H,24,25)
CH$LINK: INCHIKEY AADVZSXPNRLYLV-UHFFFAOYSA-N
AC$INSTRUMENT: LC, Waters Acquity UPLC System; MS, Waters Xevo G2 Q-Tof
AC$INSTRUMENT_TYPE: LC-ESI-QTOF
AC$MASS_SPECTROMETRY: MS_TYPE MS2
AC$MASS_SPECTROMETRY: ION_MODE POSITIVE
AC$MASS_SPECTROMETRY: COLLISION_ENERGY 6V
AC$MASS_SPECTROMETRY: DESOLVATION_GAS_FLOW 800/h
AC$MASS_SPECTROMETRY: DESOLVATION_TEMPERATURE 450 C
AC$MASS_SPECTROMETRY: IONIZATION ESI
AC$CHROMATOGRAPHY: CAPILLARY_VOLTAGE +3.00 kV
AC$CHROMATOGRAPHY: COLUMN_NAME Acquity bridged ethyl hybrid C18 (1.7 um, 2.1 mm * 100 mm, Waters)
AC$CHROMATOGRAPHY: COLUMN_TEMPERATURE 40 C
AC$CHROMATOGRAPHY: FLOW_GRADIENT A/B = (99.5%/0.5% at 0 min, 99.5%/0.5% at 0.1 min, 20%/80% at 10 min, 0.5%/99.5% at 10.1 min, 0.5%/99.5% at 12.0 min, 99.5%/0.5% at 12.1 min, 99.5%/0.5% at 15.0 min)
AC$CHROMATOGRAPHY: FLOW_RATE 0.3 ml/min at 0 min, 0.3 ml/min at 10 min, 0.4 ml/min at 10.1 min, 0.4 ml/min at 14.4 min, 0.3 ml/min at 14.5 min
AC$CHROMATOGRAPHY: RETENTION_TIME 3.82
AC$CHROMATOGRAPHY: SOLVENT A water including 0.1% formic acid
AC$CHROMATOGRAPHY: SOLVENT B acetonitrile including 0.1% formic acid
MS$FOCUSED_ION: PRECURSOR_TYPE [M+H]+
MS$FOCUSED_ION: PRECURSOR_M/Z 341.18597
PK$SPLASH: splash10-0006-0809000000-e26cbfb3219264c90447
PK$NUM_PEAK: 232
PK$PEAK: m/z int. rel.int.
  71.67553 17.0 1
  78.04481 32.0 1
  80.00648 17.0 1
  89.03864 24.0 1
  94.06745 56.0 2
  94.34805 17.0 1
  96.04498 17.0 1
  105.0732 60.0 2
  105.07748 27.0 1
  106.03551 33.0 1
  106.04707 24.0 1
  106.06349 17.0 1
  106.07122 18.0 1
  107.06828 18.0 1
  108.08825 18.0 1
  108.59689 24.0 1
  110.09666 22.0 1
  115.05145 119.0 4
  115.05944 109.0 3
  115.99301 26.0 1
  117.05928 114.0 3
  117.07137 588.0 18
  118.07087 28.0 1
  119.04633 41.0 1
  119.08695 44.0 1
  121.07023 18.0 1
  122.09333 41.0 1
  123.10345 19.0 1
  126.95705 21.0 1
  127.00497 20.0 1
  127.04341 46.0 1
  127.0506 131.0 4
  127.05641 122.0 4
  127.06599 28.0 1
  128.04285 21.0 1
  128.05263 101.0 3
  128.06099 18.0 1
  130.04837 22.0 1
  130.06453 111.0 3
  130.99059 24.0 1
  131.07869 25.0 1
  131.08659 17.0 1
  132.06757 22.0 1
  132.08418 34.0 1
  133.06729 18.0 1
  133.56032 17.0 1
  134.05266 17.0 1
  134.0833 21.0 1
  134.0952 175.0 5
  134.10716 32.0 1
  135.0835 43.0 1
  136.11333 46.0 1
  137.05925 17.0 1
  138.06415 18.0 1
  139.09091 17.0 1
  142.05792 17.0 1
  142.06718 23.0 1
  143.07336 409.0 13
  143.09076 18.0 1
  143.12173 32.0 1
  143.12814 20.0 1
  143.85617 24.0 1
  143.96288 20.0 1
  144.034 75.0 2
  144.04765 35.0 1
  144.05995 75.0 2
  144.08035 17468.0 534
  144.11508 95.0 3
  144.14984 22.0 1
  144.19316 22.0 1
  144.22467 21.0 1
  144.41379 23.0 1
  144.98903 21.0 1
  145.08478 1948.0 60
  146.08549 158.0 5
  146.09793 107.0 3
  146.66754 17.0 1
  148.11638 43.0 1
  150.12865 20.0 1
  151.08138 38.0 1
  151.09544 20.0 1
  154.0654 24.0 1
  156.07703 22.0 1
  158.08794 34.0 1
  158.09706 129.0 4
  159.00507 17.0 1
  159.10921 47.0 1
  162.07016 18.0 1
  162.08931 204.0 6
  162.09978 34.0 1
  162.50233 20.0 1
  162.82935 35.0 1
  163.07664 17.0 1
  163.09587 44.0 1
  164.07016 24.0 1
  165.10857 21.0 1
  166.11902 33.0 1
  166.31186 17.0 1
  168.07381 21.0 1
  168.08427 20.0 1
  169.07878 18.0 1
  169.08855 20.0 1
  170.09319 18.0 1
  178.96674 18.0 1
  180.08434 47.0 1
  180.10045 641.0 20
  181.10902 70.0 2
  182.09335 17.0 1
  183.09918 27.0 1
  183.41278 31.0 1
  184.07603 27.0 1
  185.09775 24.0 1
  185.26802 18.0 1
  193.59341 22.0 1
  194.08888 17.0 1
  194.0983 21.0 1
  195.10977 38.0 1
  196.09697 38.0 1
  196.12642 46.0 1
  197.07901 31.0 1
  198.0853 60.0 2
  198.11302 4931.0 151
  199.1167 547.0 17
  199.66455 29.0 1
  200.12131 49.0 1
  201.1188 19.0 1
  202.30807 21.0 1
  202.41647 20.0 1
  203.57547 19.0 1
  204.10123 17.0 1
  206.12233 56.0 2
  207.08487 45.0 1
  208.11575 24.0 1
  209.11884 21.0 1
  210.08832 54.0 2
  210.11324 1031.0 32
  210.13771 20.0 1
  211.09436 26.0 1
  211.10693 18.0 1
  211.12115 97.0 3
  211.99904 17.0 1
  212.12991 80.0 2
  218.10109 69.0 2
  218.75565 20.0 1
  219.09776 40.0 1
  219.11499 21.0 1
  220.11081 105.0 3
  221.11038 17.0 1
  226.11942 17.0 1
  231.0974 17.0 1
  233.1199 38.0 1
  233.33412 20.0 1
  234.12363 18.0 1
  234.1315 28.0 1
  235.11748 23.0 1
  235.13689 19.0 1
  236.06927 20.0 1
  236.11911 21.0 1
  236.47212 21.0 1
  238.15227 19.0 1
  241.71474 30.0 1
  245.12772 27.0 1
  246.12703 65.0 2
  248.13391 24.0 1
  248.14536 20.0 1
  250.13144 19.0 1
  250.15749 22.0 1
  250.7337 20.0 1
  251.16269 37.0 1
  252.04474 22.0 1
  254.08864 19.0 1
  258.11322 21.0 1
  260.13239 32.0 1
  260.14728 20.0 1
  261.14679 18.0 1
  261.16647 23.0 1
  262.1239 18.0 1
  262.16876 23.0 1
  263.91519 21.0 1
  264.31979 18.0 1
  266.15341 17.0 1
  267.15225 23.0 1
  267.17621 19.0 1
  268.17709 17.0 1
  276.14816 22.0 1
  277.16925 50.0 2
  278.1601 20.0 1
  278.17383 27.0 1
  279.19724 47.0 1
  282.26245 20.0 1
  286.72998 25.0 1
  289.15002 17.0 1
  290.03009 36.0 1
  292.13773 78.0 2
  293.11682 29.0 1
  294.14352 49.0 1
  294.15799 42.0 1
  297.16672 18.0 1
  298.11002 20.0 1
  298.65631 17.0 1
  306.11761 20.0 1
  306.16025 38.0 1
  310.11032 20.0 1
  310.12234 22.0 1
  310.15125 39.0 1
  311.13116 47.0 1
  312.15482 285.0 9
  313.1629 18.0 1
  315.10797 21.0 1
  321.39087 22.0 1
  323.17593 47.0 1
  323.23047 17.0 1
  324.16208 150.0 5
  325.15479 18.0 1
  326.15887 26.0 1
  328.35687 19.0 1
  328.74072 20.0 1
  330.34402 39.0 1
  336.68146 27.0 1
  339.17322 20.0 1
  340.16312 21.0 1
  340.18088 70.0 2
  340.3559 17.0 1
  340.64636 17.0 1
  340.69193 22.0 1
  341.01645 17.0 1
  341.07907 24.0 1
  341.10809 94.0 3
  341.13504 67.0 2
  341.1857 32664.0 999
  341.23865 802.0 25
  341.353 17.0 1
//
