ACCESSION: MSBNK-RIKEN-PR310421
RECORD_TITLE: Pseudojervine; LC-ESI-QTOF; MS2
DATE: 2019.03.28
AUTHORS: Tetsuya Mori, Center for Sustainable Resource Science, RIKEN
LICENSE: CC BY-NC-SA
PUBLICATION: Tsugawa H., Nakabayashi R., Mori T., Yamada Y., Takahashi M., Rai A., Sugiyama R., Yamamoto H., Nakaya T., Yamazaki M., Kooke R., Bac-Molenaar JA., Oztolan-Erol N., Keurentjes JJB., Arita M., Saito K. (2019) "A cheminformatics approach to characterize metabolomes in stable-isotope-labeled organisms" Nature Methods 16(4):295-298. [doi:10.1038/s41592-019-0358-2]
COMMENT: Annotation level-1
CH$NAME: Pseudojervine
CH$COMPOUND_CLASS: Steroidal saponins
CH$FORMULA: C33H49NO8
CH$EXACT_MASS: 587.754
CH$SMILES: CC1C2NCC(C)CC2OC11CCC2C3CC=C4CC(CCC4(C)C3C(=O)C2=C1C)OC1OC(CO)C(O)C(O)C1O
CH$IUPAC: InChI=1S/C33H49NO8/c1-15-11-22-26(34-13-15)17(3)33(42-22)10-8-20-21-6-5-18-12-19(40-31-30(39)29(38)27(36)23(14-35)41-31)7-9-32(18,4)25(21)28(37)24(20)16(33)2/h5,15,17,19-23,25-27,29-31,34-36,38-39H,6-14H2,1-4H3
CH$LINK: INCHIKEY HYDDDNUKNMMWBD-UHFFFAOYSA-N
AC$INSTRUMENT: LC, Waters Acquity UPLC System; MS, Waters Xevo G2 Q-Tof
AC$INSTRUMENT_TYPE: LC-ESI-QTOF
AC$MASS_SPECTROMETRY: MS_TYPE MS2
AC$MASS_SPECTROMETRY: ION_MODE POSITIVE
AC$MASS_SPECTROMETRY: COLLISION_ENERGY 6V
AC$MASS_SPECTROMETRY: DESOLVATION_GAS_FLOW 800/h
AC$MASS_SPECTROMETRY: DESOLVATION_TEMPERATURE 450 C
AC$MASS_SPECTROMETRY: IONIZATION ESI
AC$CHROMATOGRAPHY: CAPILLARY_VOLTAGE +3.00 kV
AC$CHROMATOGRAPHY: COLUMN_NAME Acquity bridged ethyl hybrid C18 (1.7 um, 2.1 mm * 100 mm, Waters)
AC$CHROMATOGRAPHY: COLUMN_TEMPERATURE 40 C
AC$CHROMATOGRAPHY: FLOW_GRADIENT A/B = (99.5%/0.5% at 0 min, 99.5%/0.5% at 0.1 min, 20%/80% at 10 min, 0.5%/99.5% at 10.1 min, 0.5%/99.5% at 12.0 min, 99.5%/0.5% at 12.1 min, 99.5%/0.5% at 15.0 min)
AC$CHROMATOGRAPHY: FLOW_RATE 0.3 ml/min at 0 min, 0.3 ml/min at 10 min, 0.4 ml/min at 10.1 min, 0.4 ml/min at 14.4 min, 0.3 ml/min at 14.5 min
AC$CHROMATOGRAPHY: RETENTION_TIME 4.01
AC$CHROMATOGRAPHY: SOLVENT A water including 0.1% formic acid
AC$CHROMATOGRAPHY: SOLVENT B acetonitrile including 0.1% formic acid
MS$FOCUSED_ION: PRECURSOR_TYPE [M+H]+
MS$FOCUSED_ION: PRECURSOR_M/Z 588.35309
PK$SPLASH: splash10-000i-0000090000-065ad51ca2ef469fcf46
PK$NUM_PEAK: 422
PK$PEAK: m/z int. rel.int.
  57.03299 25.0 0
  67.04955 25.0 0
  67.05824 70.0 1
  69.03514 38.0 1
  70.0683 44.0 1
  71.07001 18.0 0
  81.06672 18.0 0
  83.05123 51.0 1
  83.08035 24.0 0
  84.0712 23.0 0
  84.07983 237.0 3
  85.03029 22.0 0
  88.55009 24.0 0
  91.04041 26.0 0
  91.05972 30.0 0
  93.06298 22.0 0
  93.07295 18.0 0
  96.077 20.0 0
  96.08316 38.0 1
  97.02792 42.0 1
  98.09866 60.0 1
  101.07265 25.0 0
  102.09134 56.0 1
  102.09788 18.0 0
  105.07095 57.0 1
  105.62546 20.0 0
  107.08289 24.0 0
  108.09006 24.0 0
  108.09505 29.0 0
  109.08571 19.0 0
  109.10022 328.0 4
  109.10599 200.0 3
  110.10528 45.0 1
  111.08067 21.0 0
  112.08521 21.0 0
  113.07956 24.0 0
  114.0703 18.0 0
  114.09193 838.0 11
  115.09631 59.0 1
  117.07056 18.0 0
  119.0667 17.0 0
  119.0858 20.0 0
  119.09225 24.0 0
  120.08413 21.0 0
  121.10468 229.0 3
  121.56781 22.0 0
  121.76089 17.0 0
  122.11122 33.0 0
  124.11156 21.0 0
  125.0806 21.0 0
  125.10626 57.0 1
  126.12689 384.0 5
  127.03507 37.0 1
  131.07379 20.0 0
  131.08429 94.0 1
  133.09831 73.0 1
  133.10674 17.0 0
  135.10687 17.0 0
  135.12105 56.0 1
  137.09273 59.0 1
  137.11533 45.0 1
  140.0993 18.0 0
  140.11018 24.0 0
  141.07094 24.0 0
  143.0898 44.0 1
  144.08719 19.0 0
  145.05031 20.0 0
  145.06668 41.0 1
  145.09756 164.0 2
  145.10583 59.0 1
  146.10706 26.0 0
  147.07961 21.0 0
  147.08655 35.0 0
  147.10428 22.0 0
  147.11423 68.0 1
  147.37265 20.0 0
  147.94669 23.0 0
  149.09547 689.0 9
  149.10635 17.0 0
  150.09779 125.0 2
  152.14697 83.0 1
  152.18613 24.0 0
  155.08685 32.0 0
  156.09254 19.0 0
  157.09314 62.0 1
  157.0995 101.0 1
  157.10907 20.0 0
  158.11024 45.0 1
  159.10063 22.0 0
  159.11087 24.0 0
  159.13147 37.0 1
  160.11777 24.0 0
  161.08902 48.0 1
  161.11742 20.0 0
  161.13853 20.0 0
  162.1382 52.0 1
  163.10533 33.0 0
  164.11668 40.0 1
  167.08257 27.0 0
  171.10753 33.0 0
  171.1172 56.0 1
  172.07614 18.0 0
  172.12248 20.0 0
  173.09422 101.0 1
  173.10362 37.0 1
  173.12314 41.0 1
  173.1306 24.0 0
  174.13763 71.0 1
  175.11131 51.0 1
  175.11864 18.0 0
  179.07571 20.0 0
  179.09373 26.0 0
  180.09659 29.0 0
  182.10379 39.0 1
  183.11639 62.0 1
  184.45941 20.0 0
  185.09769 47.0 1
  185.14311 23.0 0
  185.24326 27.0 0
  186.0495 17.0 0
  187.10316 25.0 0
  187.116 171.0 2
  187.14398 20.0 0
  189.11476 18.0 0
  189.12929 47.0 1
  190.16397 21.0 0
  193.09741 43.0 1
  196.32275 27.0 0
  197.0983 20.0 0
  197.12349 18.0 0
  197.13647 61.0 1
  199.09853 21.0 0
  199.13818 21.0 0
  199.15555 18.0 0
  199.24207 18.0 0
  200.15079 35.0 0
  201.1293 76.0 1
  201.16826 20.0 0
  202.12399 20.0 0
  205.15712 20.0 0
  207.11708 48.0 1
  207.13634 51.0 1
  209.11601 25.0 0
  209.13022 18.0 0
  210.14349 57.0 1
  211.11504 136.0 2
  211.14224 17.0 0
  211.15538 24.0 0
  212.10646 17.0 0
  212.15135 30.0 0
  213.11462 45.0 1
  213.131 171.0 2
  213.16301 17.0 0
  213.18085 20.0 0
  214.13133 39.0 1
  214.94078 20.0 0
  215.17804 20.0 0
  216.3652 17.0 0
  217.1624 28.0 0
  218.11485 17.0 0
  219.11229 24.0 0
  221.14185 21.0 0
  222.13362 26.0 0
  223.15111 40.0 1
  224.15544 33.0 0
  225.11928 22.0 0
  225.13342 77.0 1
  225.16191 105.0 1
  225.17371 21.0 0
  225.85803 19.0 0
  226.12262 19.0 0
  227.11165 24.0 0
  227.1308 27.0 0
  227.14906 31.0 0
  227.15746 24.0 0
  227.60049 20.0 0
  228.14189 23.0 0
  229.16447 21.0 0
  230.15932 20.0 0
  231.11446 43.0 1
  233.13251 72.0 1
  235.14651 17.0 0
  235.15852 23.0 0
  236.12741 18.0 0
  236.16133 55.0 1
  237.13391 19.0 0
  237.16231 48.0 1
  238.09918 25.0 0
  238.15565 17.0 0
  239.13907 41.0 1
  239.15196 24.0 0
  240.1467 57.0 1
  240.15907 25.0 0
  241.16287 50.0 1
  243.18097 22.0 0
  245.16473 63.0 1
  245.17914 21.0 0
  245.49129 31.0 0
  246.13721 58.0 1
  247.14072 31.0 0
  248.16168 22.0 0
  249.16832 19.0 0
  251.14815 21.0 0
  252.14694 25.0 0
  253.14008 23.0 0
  253.16193 66.0 1
  254.1515 47.0 1
  254.16415 27.0 0
  255.14819 42.0 1
  255.18181 25.0 0
  256.15451 17.0 0
  256.17273 20.0 0
  257.1456 18.0 0
  259.14203 20.0 0
  262.14966 20.0 0
  262.16391 18.0 0
  263.18887 44.0 1
  265.18021 17.0 0
  265.18991 29.0 0
  265.20312 20.0 0
  266.16714 22.0 0
  266.19751 19.0 0
  267.17963 17.0 0
  267.2048 42.0 1
  267.22046 76.0 1
  267.96393 27.0 0
  268.17743 20.0 0
  268.22345 27.0 0
  271.21194 20.0 0
  273.16476 20.0 0
  275.18338 18.0 0
  275.19727 22.0 0
  276.1803 18.0 0
  276.19141 41.0 1
  277.17862 22.0 0
  277.19257 71.0 1
  277.20398 125.0 2
  278.19128 20.0 0
  278.20618 25.0 0
  279.16122 17.0 0
  280.18112 22.0 0
  281.18994 18.0 0
  283.21341 17.0 0
  285.1662 22.0 0
  289.20151 51.0 1
  290.17401 17.0 0
  290.86725 21.0 0
  292.20615 17.0 0
  292.22009 19.0 0
  293.17917 47.0 1
  293.19858 103.0 1
  293.40445 23.0 0
  293.51227 38.0 1
  293.9411 21.0 0
  295.20544 411.0 6
  295.22433 137.0 2
  296.13361 17.0 0
  296.21011 55.0 1
  296.22247 30.0 0
  298.32758 37.0 1
  299.10736 28.0 0
  299.17731 57.0 1
  301.20129 25.0 0
  302.16763 22.0 0
  303.22906 40.0 1
  305.21936 33.0 0
  305.8844 18.0 0
  306.21832 21.0 0
  307.21457 20.0 0
  307.77692 18.0 0
  311.18661 22.0 0
  311.20328 69.0 1
  311.21216 20.0 0
  312.1944 30.0 0
  313.18982 17.0 0
  313.21863 43.0 1
  314.19244 27.0 0
  314.20801 17.0 0
  314.22992 17.0 0
  315.242 30.0 0
  317.18936 22.0 0
  318.64493 38.0 1
  319.19318 22.0 0
  322.14142 33.0 0
  326.63922 20.0 0
  327.21136 21.0 0
  327.95673 21.0 0
  330.21375 17.0 0
  330.24655 23.0 0
  333.23352 18.0 0
  334.23447 22.0 0
  335.20746 19.0 0
  336.7457 17.0 0
  339.86295 18.0 0
  340.23047 24.0 0
  344.77179 17.0 0
  345.25452 20.0 0
  348.74075 24.0 0
  352.12344 21.0 0
  354.07776 32.0 0
  354.44989 37.0 1
  355.23856 22.0 0
  356.24515 42.0 1
  357.02185 30.0 0
  357.93881 17.0 0
  361.17938 23.0 0
  361.23215 43.0 1
  361.69611 31.0 0
  362.18353 22.0 0
  363.2623 20.0 0
  363.75266 18.0 0
  365.24005 20.0 0
  367.80402 24.0 0
  369.24548 42.0 1
  371.58881 17.0 0
  373.24954 20.0 0
  373.26752 20.0 0
  373.72351 44.0 1
  374.25616 19.0 0
  374.27094 18.0 0
  374.44632 21.0 0
  375.96365 25.0 0
  382.28131 20.0 0
  383.05991 23.0 0
  384.1297 21.0 0
  385.96063 20.0 0
  387.60651 17.0 0
  388.83536 18.0 0
  390.25388 25.0 0
  390.29819 19.0 0
  391.24799 21.0 0
  391.27063 22.0 0
  393.15338 27.0 0
  396.27942 17.0 0
  396.68311 23.0 0
  399.83548 17.0 0
  406.89508 30.0 0
  408.30252 20.0 0
  408.34192 23.0 0
  416.94003 25.0 0
  422.30252 20.0 0
  423.18594 30.0 0
  424.56894 21.0 0
  426.29309 24.0 0
  431.35324 20.0 0
  432.2041 20.0 0
  440.68594 18.0 0
  443.67191 24.0 0
  444.66669 23.0 0
  445.36343 27.0 0
  447.75763 17.0 0
  450.79236 33.0 0
  451.1749 18.0 0
  452.85413 18.0 0
  454.43484 24.0 0
  460.53384 24.0 0
  461.95889 18.0 0
  471.7373 19.0 0
  472.27972 19.0 0
  474.64832 21.0 0
  478.15872 17.0 0
  482.03201 20.0 0
  497.21341 28.0 0
  497.23752 18.0 0
  497.25922 49.0 1
  507.94028 24.0 0
  511.28738 23.0 0
  512.2597 20.0 0
  512.28699 22.0 0
  513.26416 23.0 0
  513.29987 24.0 0
  516.9566 22.0 0
  519.29175 20.0 0
  524.52423 21.0 0
  528.9989 25.0 0
  541.30286 24.0 0
  544.35962 17.0 0
  554.30603 36.0 0
  556.6452 20.0 0
  556.85126 18.0 0
  563.14764 19.0 0
  563.58942 23.0 0
  570.19965 18.0 0
  570.21893 21.0 0
  570.27948 29.0 0
  570.3114 77.0 1
  570.34009 306.0 4
  571.12793 18.0 0
  571.33331 98.0 1
  571.36755 68.0 1
  572.34094 51.0 1
  572.37299 49.0 1
  572.53381 18.0 0
  577.64069 18.0 0
  578.41937 17.0 0
  581.27704 19.0 0
  582.06189 35.0 0
  582.43701 17.0 0
  582.87653 17.0 0
  584.41888 17.0 0
  585.59686 17.0 0
  586.09216 17.0 0
  587.08331 17.0 0
  587.26172 17.0 0
  587.43176 18.0 0
  587.52063 18.0 0
  587.57104 65.0 1
  587.70435 48.0 1
  587.79889 18.0 0
  587.87677 19.0 0
  587.91016 37.0 1
  588.06036 17.0 0
  588.12012 44.0 1
  588.20953 58.0 1
  588.23541 140.0 2
  588.26111 247.0 3
  588.28632 382.0 5
  588.30969 188.0 3
  588.35358 73648.0 999
  588.42548 1334.0 18
  588.47968 113.0 2
  588.54578 35.0 0
//
