ACCESSION: MSBNK-RIKEN-PR304033
RECORD_TITLE: Schisandrin; LC-ESI-QTOF; MS2
DATE: 2019.03.28
AUTHORS: Tetsuya Mori, Center for Sustainable Resource Science, RIKEN
LICENSE: CC BY-NC-SA
PUBLICATION: Tsugawa H., Nakabayashi R., Mori T., Yamada Y., Takahashi M., Rai A., Sugiyama R., Yamamoto H., Nakaya T., Yamazaki M., Kooke R., Bac-Molenaar JA., Oztolan-Erol N., Keurentjes JJB., Arita M., Saito K. (2019) "A cheminformatics approach to characterize metabolomes in stable-isotope-labeled organisms" Nature Methods 16(4):295-298. [doi:10.1038/s41592-019-0358-2]
COMMENT: registered in RIKEN PlaSMA
CH$NAME: Schisandrin
CH$COMPOUND_CLASS: Hydrolyzable tannins
CH$FORMULA: C24H32O7
CH$EXACT_MASS: 432.513
CH$SMILES: COC1=C(OC)C(OC)=C2C(CC(C)C(C)(O)CC3=CC(OC)=C(OC)C(OC)=C23)=C1
CH$IUPAC: InChI=1S/C24H32O7/c1-13-9-14-10-16(26-3)20(28-5)22(30-7)18(14)19-15(12-24(13,2)25)11-17(27-4)21(29-6)23(19)31-8/h10-11,13,25H,9,12H2,1-8H3
CH$LINK: INCHIKEY YEFOAORQXAOVJQ-UHFFFAOYSA-N
AC$INSTRUMENT: LC, Waters Acquity UPLC System; MS, Waters Xevo G2 Q-Tof
AC$INSTRUMENT_TYPE: LC-ESI-QTOF
AC$MASS_SPECTROMETRY: MS_TYPE MS2
AC$MASS_SPECTROMETRY: ION_MODE POSITIVE
AC$MASS_SPECTROMETRY: COLLISION_ENERGY 6V
AC$MASS_SPECTROMETRY: DESOLVATION_GAS_FLOW 800/h
AC$MASS_SPECTROMETRY: DESOLVATION_TEMPERATURE 450 C
AC$MASS_SPECTROMETRY: IONIZATION ESI
AC$CHROMATOGRAPHY: CAPILLARY_VOLTAGE +3.00 kV
AC$CHROMATOGRAPHY: COLUMN_NAME Acquity bridged ethyl hybrid C18 (1.7 um, 2.1 mm * 100 mm, Waters)
AC$CHROMATOGRAPHY: COLUMN_TEMPERATURE 40 C
AC$CHROMATOGRAPHY: FLOW_GRADIENT A/B = (99.5%/0.5% at 0 min, 99.5%/0.5% at 0.1 min, 20%/80% at 10 min, 0.5%/99.5% at 10.1 min, 0.5%/99.5% at 12.0 min, 99.5%/0.5% at 12.1 min, 99.5%/0.5% at 15.0 min)
AC$CHROMATOGRAPHY: FLOW_RATE 0.3 ml/min at 0 min, 0.3 ml/min at 10 min, 0.4 ml/min at 10.1 min, 0.4 ml/min at 14.4 min, 0.3 ml/min at 14.5 min
AC$CHROMATOGRAPHY: RETENTION_TIME 7.655766
AC$CHROMATOGRAPHY: SOLVENT A water including 0.1% formic acid
AC$CHROMATOGRAPHY: SOLVENT B acetonitrile including 0.1% formic acid
MS$FOCUSED_ION: PRECURSOR_TYPE [M+H]+
MS$FOCUSED_ION: PRECURSOR_M/Z 433.2220798
PK$SPLASH: splash10-0fsi-0009000000-4ca86772e934bee86ed9
PK$NUM_PEAK: 307
PK$PEAK: m/z int. rel.int.
  69.06783 9.0 9
  105.0565 8.0 8
  125.06024 8.0 8
  137.10388 8.0 8
  147.08389 8.0 8
  151.61903 10.0 10
  168.07988 8.0 8
  173.08481 9.0 9
  177.14268 9.0 9
  178.09378 8.0 8
  180.07097 8.0 8
  182.08304 9.0 9
  187.06212 11.0 11
  190.09912 10.0 10
  195.10124 8.0 8
  200.30341 8.0 8
  204.09485 9.0 9
  204.10367 8.0 8
  216.10327 8.0 8
  220.10435 8.0 8
  229.08354 12.0 12
  229.12364 9.0 9
  232.10695 11.0 11
  235.1416 9.0 9
  241.12695 10.0 10
  244.0697 8.0 8
  245.10995 9.0 9
  254.4794 18.0 18
  255.10609 8.0 8
  256.06763 8.0 8
  256.08243 10.0 10
  257.07721 8.0 8
  257.11993 11.0 11
  259.00372 8.0 8
  259.08902 24.0 24
  261.08899 8.0 8
  261.10205 8.0 8
  261.34689 8.0 8
  263.09674 8.0 8
  265.11844 8.0 8
  266.08563 8.0 8
  267.09146 9.0 9
  267.13474 8.0 8
  269.07864 18.0 18
  269.10498 8.0 8
  269.11523 8.0 8
  270.08105 10.0 10
  270.11124 17.0 17
  271.0947 26.0 26
  271.10626 8.0 8
  272.11108 9.0 9
  274.07556 8.0 8
  274.52249 16.0 16
  276.099 11.0 11
  277.11282 8.0 8
  277.13327 8.0 8
  278.13205 10.0 10
  279.133 16.0 16
  281.78983 10.0 10
  282.09857 11.0 11
  283.08545 8.0 8
  283.10278 9.0 9
  283.12619 11.0 11
  284.1004 36.0 36
  284.13559 9.0 9
  284.14694 8.0 8
  285.01688 15.0 15
  285.07202 8.0 8
  285.08578 8.0 8
  285.10895 38.0 38
  286.10971 8.0 8
  286.11987 8.0 8
  287.12122 8.0 8
  287.13232 10.0 10
  287.16458 13.0 13
  288.11038 16.0 16
  291.69177 11.0 11
  293.07404 8.0 8
  295.74252 8.0 8
  296.0983 10.0 10
  296.10999 19.0 19
  298.1188 8.0 8
  298.14038 8.0 8
  298.15079 8.0 8
  299.08078 23.0 23
  299.09863 11.0 11
  299.11371 9.0 9
  299.12405 19.0 19
  299.14035 33.0 33
  300.07617 8.0 8
  300.10574 68.0 68
  300.12845 11.0 11
  301.07666 9.0 9
  301.09995 47.0 47
  301.1192 12.0 12
  303.09061 9.0 9
  305.09586 9.0 9
  305.1131 8.0 8
  305.13782 10.0 10
  306.11456 8.0 8
  306.14307 8.0 8
  307.11075 9.0 9
  307.125 8.0 8
  307.1427 13.0 13
  307.73148 10.0 10
  308.12543 9.0 9
  309.11151 16.0 16
  309.14371 8.0 8
  309.15366 9.0 9
  310.10141 8.0 8
  310.12741 25.0 25
  310.1517 8.0 8
  310.16611 16.0 16
  311.08212 8.0 8
  311.10101 29.0 29
  311.1286 51.0 51
  311.68887 8.0 8
  312.07556 8.0 8
  312.13745 37.0 37
  312.16068 10.0 10
  312.28552 12.0 12
  313.10632 151.0 151
  313.12869 8.0 8
  313.21521 8.0 8
  314.07056 8.0 8
  314.11395 81.0 81
  314.24472 8.0 8
  314.9234 8.0 8
  315.11359 171.0 171
  315.13275 113.0 113
  315.18506 9.0 9
  316.08731 57.0 57
  316.12936 51.0 51
  317.10104 30.0 30
  318.12109 9.0 9
  318.13104 8.0 8
  320.12863 10.0 10
  320.14175 8.0 8
  321.09668 9.0 9
  321.11359 9.0 9
  321.12357 8.0 8
  321.13803 19.0 19
  322.10693 8.0 8
  322.11795 37.0 37
  322.14105 26.0 26
  322.16138 100.0 100
  323.08011 10.0 10
  323.11041 9.0 9
  323.14124 51.0 51
  323.15302 67.0 67
  323.16901 8.0 8
  324.13977 24.0 24
  324.15332 10.0 10
  325.13556 34.0 34
  325.15894 9.0 9
  326.11322 36.0 36
  326.13052 11.0 11
  326.15143 46.0 46
  326.17441 8.0 8
  327.10062 15.0 15
  327.11792 72.0 72
  327.13425 29.0 29
  327.16449 33.0 33
  328.10065 19.0 19
  328.13019 388.0 388
  328.15359 35.0 35
  328.17297 8.0 8
  329.09891 62.0 62
  329.1156 58.0 58
  329.13733 175.0 175
  329.44937 8.0 8
  330.09937 46.0 46
  330.11319 32.0 32
  330.1297 70.0 70
  330.14871 107.0 107
  330.16693 40.0 40
  331.11481 327.0 327
  331.1348 58.0 58
  331.15305 25.0 25
  331.2757 9.0 9
  332.10797 70.0 70
  332.12836 222.0 222
  332.15042 11.0 11
  333.08163 9.0 9
  333.12378 18.0 18
  333.13742 25.0 25
  333.259 9.0 9
  335.12979 13.0 13
  336.13699 12.0 12
  337.10736 8.0 8
  337.12762 19.0 19
  337.14249 33.0 33
  338.04016 8.0 8
  338.10654 17.0 17
  338.14853 464.0 464
  338.17923 11.0 11
  339.10938 8.0 8
  339.12637 28.0 28
  339.14453 37.0 37
  339.16086 72.0 72
  340.13004 9.0 9
  340.16132 34.0 34
  341.02264 8.0 8
  341.13516 25.0 25
  341.16376 29.0 29
  341.18411 30.0 30
  342.11536 9.0 9
  342.14059 157.0 157
  342.15344 283.0 283
  342.18384 8.0 8
  343.12115 61.0 61
  343.13855 26.0 26
  343.1593 58.0 58
  343.33517 8.0 8
  344.0864 8.0 8
  344.12619 55.0 55
  344.14514 13.0 13
  344.16232 19.0 19
  344.17377 8.0 8
  345.11203 9.0 9
  345.13422 70.0 70
  346.10358 12.0 12
  346.13831 428.0 428
  346.15631 78.0 78
  346.41733 9.0 9
  347.13895 31.0 31
  347.15613 60.0 60
  348.11432 8.0 8
  348.142 12.0 12
  348.15604 9.0 9
  348.47305 17.0 17
  351.15448 20.0 20
  352.1192 8.0 8
  352.16519 8.0 8
  352.17648 10.0 10
  353.11066 8.0 8
  353.14258 81.0 81
  353.17395 412.0 412
  353.18542 176.0 176
  354.11487 8.0 8
  354.13211 40.0 40
  354.14966 118.0 118
  354.172 96.0 96
  354.19049 44.0 44
  354.67249 15.0 15
  355.13647 32.0 32
  355.14963 62.0 62
  355.19351 21.0 21
  356.1163 8.0 8
  356.14767 11.0 11
  356.17004 8.0 8
  357.12891 38.0 38
  357.15656 14.0 14
  358.04987 8.0 8
  358.13654 37.0 37
  358.1489 43.0 43
  358.17334 8.0 8
  358.18494 9.0 9
  358.21976 8.0 8
  359.1445 31.0 31
  359.15842 43.0 43
  359.19659 10.0 10
  360.13583 8.0 8
  360.15652 21.0 21
  361.15826 24.0 24
  361.17575 19.0 19
  365.17072 8.0 8
  367.18701 11.0 11
  368.1665 35.0 35
  369.13171 25.0 25
  369.17154 1000.0 999
  370.13208 16.0 16
  370.17474 155.0 155
  371.15399 26.0 26
  371.17795 8.0 8
  372.16202 16.0 16
  373.1633 15.0 15
  373.48361 8.0 8
  383.17551 8.0 8
  383.45584 8.0 8
  384.19531 549.0 548
  385.13812 10.0 10
  385.16205 151.0 151
  385.1828 69.0 69
  385.20236 88.0 88
  386.14911 9.0 9
  386.16202 20.0 20
  386.1756 16.0 16
  386.19351 9.0 9
  386.20541 8.0 8
  387.18762 33.0 33
  396.82816 18.0 18
  399.16495 8.0 8
  399.18542 20.0 20
  400.15506 8.0 8
  400.17581 40.0 40
  400.19363 48.0 48
  401.17075 9.0 9
  401.18817 15.0 15
  402.31525 12.0 12
  403.1651 8.0 8
  405.18356 14.0 14
  414.55585 9.0 9
  415.13849 9.0 9
  415.18634 11.0 11
  415.20871 10.0 10
  427.16617 8.0 8
//
