ACCESSION: MSBNK-RIKEN-PR300232
RECORD_TITLE: Hirsuteine; LC-ESI-QTOF; MS2
DATE: 2019.03.28
AUTHORS: Tetsuya Mori, Center for Sustainable Resource Science, RIKEN
LICENSE: CC BY-NC-SA
PUBLICATION: Tsugawa H., Nakabayashi R., Mori T., Yamada Y., Takahashi M., Rai A., Sugiyama R., Yamamoto H., Nakaya T., Yamazaki M., Kooke R., Bac-Molenaar JA., Oztolan-Erol N., Keurentjes JJB., Arita M., Saito K. (2019) "A cheminformatics approach to characterize metabolomes in stable-isotope-labeled organisms" Nature Methods 16(4):295-298. [doi:10.1038/s41592-019-0358-2]
COMMENT: registered in RIKEN PlaSMA
CH$NAME: Hirsuteine
CH$COMPOUND_CLASS: Corynanthean-type alkaloids
CH$FORMULA: C22H26N2O3
CH$EXACT_MASS: 366.461
CH$SMILES: CO\C=C(/[C@H]1C[C@H]2N(CCC3=C2NC2=CC=CC=C32)C[C@@H]1C=C)C(=O)OC
CH$IUPAC: InChI=1S/C22H26N2O3/c1-4-14-12-24-10-9-16-15-7-5-6-8-19(15)23-21(16)20(24)11-17(14)18(13-26-2)22(25)27-3/h4-8,13-14,17,20,23H,1,9-12H2,2-3H3/b18-13+/t14-,17-,20+/m0/s1
CH$LINK: INCHIKEY TZUGIFAYWNNSAO-AZQGJTAVSA-N
AC$INSTRUMENT: LC, Waters Acquity UPLC System; MS, Waters Xevo G2 Q-Tof
AC$INSTRUMENT_TYPE: LC-ESI-QTOF
AC$MASS_SPECTROMETRY: MS_TYPE MS2
AC$MASS_SPECTROMETRY: ION_MODE POSITIVE
AC$MASS_SPECTROMETRY: COLLISION_ENERGY 6V
AC$MASS_SPECTROMETRY: DESOLVATION_GAS_FLOW 800/h
AC$MASS_SPECTROMETRY: DESOLVATION_TEMPERATURE 450 C
AC$MASS_SPECTROMETRY: IONIZATION ESI
AC$CHROMATOGRAPHY: CAPILLARY_VOLTAGE +3.00 kV
AC$CHROMATOGRAPHY: COLUMN_NAME Acquity bridged ethyl hybrid C18 (1.7 um, 2.1 mm * 100 mm, Waters)
AC$CHROMATOGRAPHY: COLUMN_TEMPERATURE 40 C
AC$CHROMATOGRAPHY: FLOW_GRADIENT A/B = (99.5%/0.5% at 0 min, 99.5%/0.5% at 0.1 min, 20%/80% at 10 min, 0.5%/99.5% at 10.1 min, 0.5%/99.5% at 12.0 min, 99.5%/0.5% at 12.1 min, 99.5%/0.5% at 15.0 min)
AC$CHROMATOGRAPHY: FLOW_RATE 0.3 ml/min at 0 min, 0.3 ml/min at 10 min, 0.4 ml/min at 10.1 min, 0.4 ml/min at 14.4 min, 0.3 ml/min at 14.5 min
AC$CHROMATOGRAPHY: RETENTION_TIME 5.6757
AC$CHROMATOGRAPHY: SOLVENT A water including 0.1% formic acid
AC$CHROMATOGRAPHY: SOLVENT B acetonitrile including 0.1% formic acid
MS$FOCUSED_ION: PRECURSOR_TYPE [M+H]+
MS$FOCUSED_ION: PRECURSOR_M/Z 367.2016192
PK$SPLASH: splash10-0006-0930000000-b5514a61dde8f5f79ea3
PK$NUM_PEAK: 181
PK$PEAK: m/z int. rel.int.
  68.05033 11.0 11
  75.04516 31.0 31
  82.06535 34.0 34
  91.05386 16.0 16
  94.06384 6.0 6
  95.04884 28.0 28
  105.03369 5.0 5
  106.06522 10.0 10
  108.07408 12.0 12
  108.08206 56.0 56
  109.0655 49.0 49
  109.08622 6.0 6
  110.07027 6.0 6
  115.05385 6.0 6
  117.06973 17.0 17
  118.06578 31.0 31
  119.0491 6.0 6
  120.0755 9.0 9
  120.08176 8.0 8
  121.06483 28.0 28
  122.0955 5.0 5
  123.04617 12.0 12
  123.07806 6.0 6
  126.09126 49.0 49
  128.05852 6.0 6
  129.05409 37.0 37
  129.07166 9.0 9
  130.05798 11.0 11
  130.06453 38.0 38
  131.07291 8.0 8
  132.07912 18.0 18
  137.06012 29.0 29
  138.05598 12.0 12
  142.0681 8.0 8
  143.07407 20.0 20
  143.08588 10.0 10
  144.08072 1000.0 999
  144.11578 8.0 8
  145.08377 131.0 131
  146.06113 17.0 17
  146.09601 6.0 6
  147.08369 7.0 7
  148.07167 6.0 6
  148.08112 9.0 9
  149.05984 53.0 53
  150.05843 7.0 7
  150.08974 10.0 10
  151.07274 7.0 7
  154.06284 7.0 7
  155.07249 46.0 46
  156.08066 79.0 79
  157.08507 21.0 21
  158.05887 8.0 8
  158.09636 103.0 103
  159.09781 7.0 7
  160.07758 13.0 13
  162.09404 5.0 5
  163.07617 9.0 9
  164.06541 10.0 10
  164.07228 15.0 15
  164.10605 6.0 6
  166.08742 17.0 17
  167.06723 13.0 13
  167.07558 15.0 15
  168.07907 36.0 36
  168.08586 15.0 15
  169.08687 48.0 48
  170.09659 308.0 308
  171.09186 23.0 23
  171.10081 50.0 50
  172.07906 13.0 13
  172.11145 48.0 48
  174.08928 12.0 12
  175.07854 11.0 11
  176.06888 7.0 7
  176.10062 7.0 7
  176.10786 9.0 9
  178.08527 54.0 54
  180.08125 17.0 17
  180.10303 33.0 33
  181.08551 32.0 32
  182.09654 122.0 122
  183.09851 20.0 20
  184.09991 10.0 10
  184.10939 6.0 6
  190.08696 13.0 13
  192.07687 7.0 7
  192.10201 90.0 90
  193.09018 11.0 11
  193.10188 11.0 11
  194.09662 27.0 27
  195.10335 8.0 8
  196.10843 18.0 18
  196.11871 14.0 14
  197.10759 30.0 30
  199.12178 67.0 67
  200.12206 7.0 7
  200.12968 7.0 7
  204.08383 13.0 13
  204.10046 38.0 38
  204.10861 19.0 19
  205.08765 9.0 9
  205.10841 9.0 9
  206.0925 33.0 33
  206.10379 13.0 13
  207.09492 7.0 7
  207.10724 7.0 7
  208.07954 15.0 15
  208.11369 33.0 33
  209.11533 13.0 13
  210.11275 37.0 37
  211.12125 6.0 6
  218.09268 19.0 19
  220.1104 15.0 15
  221.1124 8.0 8
  222.11736 44.0 44
  223.12184 25.0 25
  224.12833 157.0 157
  225.13474 37.0 37
  226.08788 46.0 46
  227.08849 11.0 11
  230.10193 6.0 6
  231.10645 10.0 10
  232.11078 17.0 17
  232.11974 7.0 7
  233.12236 11.0 11
  234.09303 33.0 33
  234.12512 18.0 18
  235.11743 6.0 6
  236.10603 5.0 5
  236.1194 23.0 23
  236.12885 54.0 54
  237.11458 7.0 7
  237.13521 10.0 10
  238.12335 52.0 52
  239.13058 9.0 9
  240.09872 12.0 12
  240.10966 6.0 6
  243.10522 9.0 9
  244.10909 11.0 11
  246.127 25.0 25
  247.12602 21.0 21
  248.10983 6.0 6
  248.13309 6.0 6
  249.11519 5.0 5
  249.13989 70.0 70
  250.14615 12.0 12
  251.09195 6.0 6
  251.15527 54.0 54
  252.10393 15.0 15
  252.15581 7.0 7
  254.10596 7.0 7
  254.12619 5.0 5
  256.11444 7.0 7
  258.11963 16.0 16
  258.13293 9.0 9
  259.10538 6.0 6
  260.11057 13.0 13
  266.1188 45.0 45
  267.12262 8.0 8
  274.12048 14.0 14
  275.15332 11.0 11
  275.16205 8.0 8
  278.12204 6.0 6
  281.12302 6.0 6
  286.12625 8.0 8
  288.13315 8.0 8
  291.12479 8.0 8
  292.13644 10.0 10
  298.147 52.0 52
  299.15036 8.0 8
  303.15234 11.0 11
  306.1488 20.0 20
  324.15799 5.0 5
  335.17557 70.0 70
  336.17218 8.0 8
  336.18744 6.0 6
  339.16794 10.0 10
  365.18011 12.0 12
  365.19586 8.0 8
  367.20172 137.0 137
//
