ACCESSION: MSBNK-RIKEN-PR304607
RECORD_TITLE: 5(S)-5-carboxystrictosidine; LC-ESI-QTOF; MS2
DATE: 2019.03.28
AUTHORS: Tetsuya Mori, Center for Sustainable Resource Science, RIKEN
LICENSE: CC BY-NC-SA
PUBLICATION: Tsugawa H., Nakabayashi R., Mori T., Yamada Y., Takahashi M., Rai A., Sugiyama R., Yamamoto H., Nakaya T., Yamazaki M., Kooke R., Bac-Molenaar JA., Oztolan-Erol N., Keurentjes JJB., Arita M., Saito K. (2019) "A cheminformatics approach to characterize metabolomes in stable-isotope-labeled organisms" Nature Methods 16(4):295-298. [doi:10.1038/s41592-019-0358-2]
COMMENT: registered in RIKEN PlaSMA
CH$NAME: 5(S)-5-carboxystrictosidine
CH$COMPOUND_CLASS: Terpene glycosides
CH$FORMULA: C28H34N2O11
CH$EXACT_MASS: 574.583
CH$SMILES: COC(=O)C1=COC(OC2OC(CO)C(O)C(O)C2O)C(C=C)C1CC1NC(CC2=C1NC1=CC=CC=C21)C(O)=O
CH$IUPAC: InChI=1S/C28H34N2O11/c1-3-12-14(8-18-21-15(9-19(29-18)25(35)36)13-6-4-5-7-17(13)30-21)16(26(37)38-2)11-39-27(12)41-28-24(34)23(33)22(32)20(10-31)40-28/h3-7,11-12,14,18-20,22-24,27-34H,1,8-10H2,2H3,(H,35,36)
CH$LINK: INCHIKEY LHKZIVMTXZLOTP-UHFFFAOYSA-N
AC$INSTRUMENT: LC, Waters Acquity UPLC System; MS, Waters Xevo G2 Q-Tof
AC$INSTRUMENT_TYPE: LC-ESI-QTOF
AC$MASS_SPECTROMETRY: MS_TYPE MS2
AC$MASS_SPECTROMETRY: ION_MODE NEGATIVE
AC$MASS_SPECTROMETRY: COLLISION_ENERGY 6V
AC$MASS_SPECTROMETRY: DESOLVATION_GAS_FLOW 800/h
AC$MASS_SPECTROMETRY: DESOLVATION_TEMPERATURE 450 C
AC$MASS_SPECTROMETRY: IONIZATION ESI
AC$CHROMATOGRAPHY: CAPILLARY_VOLTAGE -2.75 kV
AC$CHROMATOGRAPHY: COLUMN_NAME Acquity bridged ethyl hybrid C18 (1.7 um, 2.1 mm * 100 mm, Waters)
AC$CHROMATOGRAPHY: COLUMN_TEMPERATURE 40 C
AC$CHROMATOGRAPHY: FLOW_GRADIENT A/B = (99.5%/0.5% at 0 min, 99.5%/0.5% at 0.1 min, 20%/80% at 10 min, 0.5%/99.5% at 10.1 min, 0.5%/99.5% at 12.0 min, 99.5%/0.5% at 12.1 min, 99.5%/0.5% at 15.0 min)
AC$CHROMATOGRAPHY: FLOW_RATE 0.3 ml/min at 0 min, 0.3 ml/min at 10 min, 0.4 ml/min at 10.1 min, 0.4 ml/min at 14.4 min, 0.3 ml/min at 14.5 min
AC$CHROMATOGRAPHY: RETENTION_TIME 4.13065
AC$CHROMATOGRAPHY: SOLVENT A water including 0.1% formic acid
AC$CHROMATOGRAPHY: SOLVENT B acetonitrile including 0.1% formic acid
MS$FOCUSED_ION: PRECURSOR_TYPE [M-H]-
MS$FOCUSED_ION: PRECURSOR_M/Z 573.20898344783
PK$SPLASH: splash10-00ko-1920000000-ba28b2ab756566f933da
PK$NUM_PEAK: 128
PK$PEAK: m/z int. rel.int.
  59.01311 47.0 47
  67.01665 33.0 33
  69.03207 42.0 42
  71.01011 62.0 62
  74.00809 44.0 44
  74.02519 49.0 49
  75.00533 39.0 39
  83.04932 37.0 37
  85.02643 107.0 107
  89.02337 327.0 327
  94.02837 105.0 105
  95.01337 70.0 70
  95.05376 47.0 47
  97.03098 33.0 33
  100.03605 46.0 46
  100.04324 81.0 81
  101.02245 276.0 276
  101.03623 46.0 46
  104.05105 42.0 42
  105.03576 167.0 167
  108.04494 39.0 39
  111.88531 33.0 33
  112.01753 58.0 58
  113.02226 118.0 118
  116.04655 120.0 120
  116.05296 77.0 77
  117.05037 53.0 53
  119.03313 105.0 105
  119.04356 44.0 44
  119.05546 81.0 81
  121.03061 86.0 86
  122.02271 221.0 221
  122.03537 91.0 91
  123.02424 40.0 40
  123.0454 60.0 60
  127.03908 214.0 214
  132.04877 32.0 32
  134.03548 35.0 35
  135.04881 53.0 53
  141.04172 40.0 40
  142.06502 1000.0 999
  143.0686 49.0 49
  147.03801 33.0 33
  147.04622 83.0 83
  147.48396 35.0 35
  148.04427 65.0 65
  150.05843 88.0 88
  153.05952 35.0 35
  155.0677 35.0 35
  156.06316 81.0 81
  156.07246 223.0 223
  156.08437 153.0 153
  157.0728 35.0 35
  157.08395 40.0 40
  159.02722 35.0 35
  165.0554 58.0 58
  166.0657 102.0 102
  167.05609 139.0 139
  167.06866 139.0 139
  168.05693 44.0 44
  168.0676 72.0 72
  168.08452 65.0 65
  169.07378 494.0 494
  169.08102 350.0 350
  170.06235 62.0 62
  170.07504 83.0 83
  170.0864 35.0 35
  172.0313 44.0 44
  173.06725 46.0 46
  174.05492 42.0 42
  179.06917 116.0 116
  180.06146 79.0 79
  180.07764 83.0 83
  181.07353 174.0 174
  181.08566 137.0 137
  182.37611 32.0 32
  183.08975 44.0 44
  183.09508 97.0 97
  184.09599 51.0 51
  185.10333 237.0 237
  192.08279 67.0 67
  193.0748 51.0 51
  194.05777 32.0 32
  195.09285 39.0 39
  196.08411 49.0 49
  197.07204 37.0 37
  199.99344 32.0 32
  204.06815 40.0 40
  204.08348 54.0 54
  207.09386 35.0 35
  208.08594 81.0 81
  208.10019 47.0 47
  209.08499 33.0 33
  210.12292 35.0 35
  217.08023 37.0 37
  219.06914 58.0 58
  219.0914 44.0 44
  219.10489 44.0 44
  220.07771 69.0 69
  220.10243 42.0 42
  221.06523 49.0 49
  221.11586 58.0 58
  222.0752 32.0 32
  232.10402 76.0 76
  233.11609 67.0 67
  234.08516 35.0 35
  235.08389 40.0 40
  237.06421 35.0 35
  243.06052 35.0 35
  247.09679 149.0 149
  248.07899 49.0 49
  256.09998 53.0 53
  260.11182 35.0 35
  265.10336 134.0 134
  267.10272 47.0 47
  267.11295 32.0 32
  270.11502 72.0 72
  271.08533 39.0 39
  273.11078 44.0 44
  274.0896 70.0 70
  274.11108 105.0 105
  275.08142 42.0 42
  275.10168 56.0 56
  282.1008 67.0 67
  286.10361 40.0 40
  289.13559 39.0 39
  298.11374 35.0 35
  316.09338 44.0 44
//
