ACCESSION: MSBNK-RIKEN-PR300277
RECORD_TITLE: Isorhynchophylline; LC-ESI-QTOF; MS2
DATE: 2019.03.28
AUTHORS: Tetsuya Mori, Center for Sustainable Resource Science, RIKEN
LICENSE: CC BY-NC-SA
PUBLICATION: Tsugawa H., Nakabayashi R., Mori T., Yamada Y., Takahashi M., Rai A., Sugiyama R., Yamamoto H., Nakaya T., Yamazaki M., Kooke R., Bac-Molenaar JA., Oztolan-Erol N., Keurentjes JJB., Arita M., Saito K. (2019) "A cheminformatics approach to characterize metabolomes in stable-isotope-labeled organisms" Nature Methods 16(4):295-298. [doi:10.1038/s41592-019-0358-2]
COMMENT: registered in RIKEN PlaSMA
CH$NAME: Isorhynchophylline
CH$COMPOUND_CLASS: Indolizidines
CH$FORMULA: C22H28N2O4
CH$EXACT_MASS: 384.476
CH$SMILES: CC[C@H]1CN2CC[C@]3([C@@H]2C[C@@H]1\C(=C/OC)C(=O)OC)C(O)=NC1=CC=CC=C31
CH$IUPAC: InChI=1S/C22H28N2O4/c1-4-14-12-24-10-9-22(17-7-5-6-8-18(17)23-21(22)26)19(24)11-15(14)16(13-27-2)20(25)28-3/h5-8,13-15,19H,4,9-12H2,1-3H3,(H,23,26)/b16-13+/t14-,15-,19-,22-/m0/s1
CH$LINK: INCHIKEY DAXYUDFNWXHGBE-VKCGGMIFSA-N
AC$INSTRUMENT: LC, Waters Acquity UPLC System; MS, Waters Xevo G2 Q-Tof
AC$INSTRUMENT_TYPE: LC-ESI-QTOF
AC$MASS_SPECTROMETRY: MS_TYPE MS2
AC$MASS_SPECTROMETRY: ION_MODE POSITIVE
AC$MASS_SPECTROMETRY: COLLISION_ENERGY 6V
AC$MASS_SPECTROMETRY: DESOLVATION_GAS_FLOW 800/h
AC$MASS_SPECTROMETRY: DESOLVATION_TEMPERATURE 450 C
AC$MASS_SPECTROMETRY: IONIZATION ESI
AC$CHROMATOGRAPHY: CAPILLARY_VOLTAGE +3.00 kV
AC$CHROMATOGRAPHY: COLUMN_NAME Acquity bridged ethyl hybrid C18 (1.7 um, 2.1 mm * 100 mm, Waters)
AC$CHROMATOGRAPHY: COLUMN_TEMPERATURE 40 C
AC$CHROMATOGRAPHY: FLOW_GRADIENT A/B = (99.5%/0.5% at 0 min, 99.5%/0.5% at 0.1 min, 20%/80% at 10 min, 0.5%/99.5% at 10.1 min, 0.5%/99.5% at 12.0 min, 99.5%/0.5% at 12.1 min, 99.5%/0.5% at 15.0 min)
AC$CHROMATOGRAPHY: FLOW_RATE 0.3 ml/min at 0 min, 0.3 ml/min at 10 min, 0.4 ml/min at 10.1 min, 0.4 ml/min at 14.4 min, 0.3 ml/min at 14.5 min
AC$CHROMATOGRAPHY: RETENTION_TIME 4.634133
AC$CHROMATOGRAPHY: SOLVENT A water including 0.1% formic acid
AC$CHROMATOGRAPHY: SOLVENT B acetonitrile including 0.1% formic acid
MS$FOCUSED_ION: PRECURSOR_TYPE [M+H]+
MS$FOCUSED_ION: PRECURSOR_M/Z 385.2121838
PK$SPLASH: splash10-01q9-0900000000-e9d1d17058c9a69589fd
PK$NUM_PEAK: 244
PK$PEAK: m/z int. rel.int.
  55.05368 5.0 5
  67.04001 8.0 8
  67.05489 11.0 11
  70.06187 11.0 11
  70.06628 12.0 12
  75.04496 18.0 18
  77.03395 7.0 7
  77.03829 13.0 13
  78.03683 11.0 11
  79.05401 20.0 20
  80.03813 5.0 5
  80.04967 21.0 21
  80.06205 8.0 8
  81.05563 5.0 5
  81.06187 9.0 9
  81.07194 9.0 9
  82.0625 47.0 47
  82.07365 7.0 7
  83.05564 8.0 8
  83.07263 5.0 5
  84.08189 10.0 10
  85.02276 5.0 5
  91.04928 23.0 23
  91.05633 34.0 34
  93.06007 26.0 26
  93.06856 20.0 20
  93.07451 13.0 13
  94.05858 15.0 15
  94.06573 50.0 50
  95.04932 8.0 8
  95.08572 12.0 12
  103.05406 18.0 18
  104.05002 13.0 13
  105.03717 7.0 7
  105.06757 27.0 27
  105.07308 20.0 20
  106.06384 20.0 20
  107.07366 6.0 6
  108.04327 14.0 14
  108.05451 11.0 11
  108.06063 10.0 10
  108.06812 11.0 11
  108.08066 198.0 198
  109.05067 36.0 36
  109.06282 7.0 7
  109.08109 13.0 13
  109.08714 11.0 11
  110.076 6.0 6
  110.08724 11.0 11
  110.09732 94.0 94
  111.04456 26.0 26
  115.05357 258.0 258
  116.03858 8.0 8
  116.05138 42.0 42
  116.06181 18.0 18
  117.05669 232.0 232
  117.06827 21.0 21
  118.06379 208.0 208
  119.06721 27.0 27
  119.07638 8.0 8
  120.04505 10.0 10
  120.07562 8.0 8
  120.08411 6.0 6
  121.04862 5.0 5
  121.08532 5.0 5
  122.06577 11.0 11
  122.08937 8.0 8
  122.09782 16.0 16
  123.08022 52.0 52
  124.11069 14.0 14
  127.05239 20.0 20
  127.05872 17.0 17
  128.03427 6.0 6
  128.05025 90.0 90
  129.04759 11.0 11
  129.0544 22.0 22
  129.07108 11.0 11
  130.02824 7.0 7
  130.0656 580.0 579
  131.05092 6.0 6
  131.06587 73.0 73
  131.07745 12.0 12
  132.04428 396.0 396
  132.08054 626.0 625
  133.04787 33.0 33
  133.06404 21.0 21
  133.08333 90.0 90
  134.04967 5.0 5
  134.05948 9.0 9
  134.09618 16.0 16
  135.07983 6.0 6
  136.04332 6.0 6
  136.0778 9.0 9
  136.10942 9.0 9
  138.05464 13.0 13
  139.07007 9.0 9
  140.05063 70.0 70
  141.0554 8.0 8
  142.06461 633.0 632
  143.05626 17.0 17
  143.07001 128.0 128
  144.04568 36.0 36
  144.08046 209.0 209
  145.05225 30.0 30
  145.06175 5.0 5
  145.08282 21.0 21
  145.09215 9.0 9
  146.0575 37.0 37
  146.10004 13.0 13
  148.07216 6.0 6
  148.11497 7.0 7
  150.09367 9.0 9
  151.06807 12.0 12
  152.04741 19.0 19
  153.04039 6.0 6
  153.05362 22.0 22
  154.04535 8.0 8
  154.06499 238.0 238
  155.05704 11.0 11
  155.07253 20.0 20
  156.08087 6.0 6
  158.03101 7.0 7
  158.04076 10.0 10
  158.0596 341.0 341
  158.08176 10.0 10
  158.09816 12.0 12
  159.04967 7.0 7
  159.06569 108.0 108
  159.09064 104.0 104
  160.05327 16.0 16
  160.07625 1000.0 999
  160.10031 7.0 7
  161.04153 6.0 6
  161.08023 146.0 146
  162.09555 17.0 17
  164.10921 9.0 9
  165.05873 6.0 6
  166.06628 7.0 7
  166.08852 7.0 7
  167.05632 13.0 13
  167.06316 43.0 43
  167.07671 17.0 17
  168.06723 13.0 13
  168.082 22.0 22
  169.05885 6.0 6
  169.07216 40.0 40
  169.08104 55.0 55
  170.04741 6.0 6
  170.06039 24.0 24
  170.0851 14.0 14
  170.09673 20.0 20
  171.05359 42.0 42
  171.0928 6.0 6
  172.05365 6.0 6
  172.07475 152.0 152
  172.09212 8.0 8
  172.11224 8.0 8
  173.0685 6.0 6
  173.0769 6.0 6
  179.06735 8.0 8
  180.05386 5.0 5
  180.07407 5.0 5
  181.08022 6.0 6
  182.09401 18.0 18
  183.0697 28.0 28
  183.09247 24.0 24
  184.06535 12.0 12
  184.07732 26.0 26
  184.09911 22.0 22
  184.10977 26.0 26
  185.07205 74.0 74
  185.10385 15.0 15
  186.07802 67.0 67
  187.08701 469.0 469
  188.09175 65.0 65
  191.06937 7.0 7
  192.07562 11.0 11
  192.0856 9.0 9
  193.07211 6.0 6
  194.09517 13.0 13
  195.08858 8.0 8
  195.1002 12.0 12
  196.05908 10.0 10
  196.07326 16.0 16
  196.08315 6.0 6
  196.10974 10.0 10
  197.06677 25.0 25
  197.07463 35.0 35
  197.09467 8.0 8
  197.10582 6.0 6
  198.07162 6.0 6
  198.08203 13.0 13
  198.0928 19.0 19
  199.08545 45.0 45
  199.12602 6.0 6
  200.10396 6.0 6
  200.11249 9.0 9
  204.07346 7.0 7
  207.09529 8.0 8
  208.09816 5.0 5
  209.07283 8.0 8
  209.08333 13.0 13
  209.10754 5.0 5
  210.08388 12.0 12
  210.09387 8.0 8
  211.08868 56.0 56
  212.09315 43.0 43
  213.10008 109.0 109
  213.11667 9.0 9
  214.11006 11.0 11
  214.12944 8.0 8
  215.11462 6.0 6
  221.1042 16.0 16
  222.0766 7.0 7
  222.12407 10.0 10
  223.09309 10.0 10
  223.12038 5.0 5
  226.11925 6.0 6
  237.09087 9.0 9
  237.10515 53.0 53
  237.1364 6.0 6
  238.10129 12.0 12
  238.11096 6.0 6
  239.11148 7.0 7
  239.12025 22.0 22
  240.12001 5.0 5
  241.10437 7.0 7
  241.13622 168.0 168
  241.24702 5.0 5
  242.1386 14.0 14
  251.12227 8.0 8
  263.11636 7.0 7
  263.13571 5.0 5
  265.09906 6.0 6
  265.12201 5.0 5
  265.13892 14.0 14
  266.12683 10.0 10
  266.13785 7.0 7
  267.1532 17.0 17
  268.14026 8.0 8
  279.1546 6.0 6
  281.08798 9.0 9
  281.13065 5.0 5
  291.14413 5.0 5
//
