ACCESSION: MSBNK-RIKEN-PR302032
RECORD_TITLE: Kaempferol-3-O-robinoside-7-O-rhamnoside; LC-ESI-QTOF; MS2
DATE: 2019.03.28
AUTHORS: Tetsuya Mori, Center for Sustainable Resource Science, RIKEN
LICENSE: CC BY-NC-SA
PUBLICATION: Tsugawa H., Nakabayashi R., Mori T., Yamada Y., Takahashi M., Rai A., Sugiyama R., Yamamoto H., Nakaya T., Yamazaki M., Kooke R., Bac-Molenaar JA., Oztolan-Erol N., Keurentjes JJB., Arita M., Saito K. (2019) "A cheminformatics approach to characterize metabolomes in stable-isotope-labeled organisms" Nature Methods 16(4):295-298. [doi:10.1038/s41592-019-0358-2]
COMMENT: registered in RIKEN PlaSMA
CH$NAME: Kaempferol-3-O-robinoside-7-O-rhamnoside
CH$COMPOUND_CLASS: Flavonoid-7-O-glycosides
CH$FORMULA: C33H40O19
CH$EXACT_MASS: 740.664
CH$SMILES: C[C@@H]1O[C@@H](OC[C@H]2O[C@@H](OC3=C(OC4=CC(O[C@@H]5O[C@@H](C)[C@H](O)[C@@H](O)[C@H]5O)=CC(O)=C4C3=O)C3=CC=C(O)C=C3)[C@H](O)[C@@H](O)[C@H]2O)[C@H](O)[C@H](O)[C@H]1O
CH$IUPAC: InChI=1S/C33H40O19/c1-10-19(36)23(40)26(43)31(47-10)46-9-17-21(38)25(42)28(45)33(51-17)52-30-22(39)18-15(35)7-14(49-32-27(44)24(41)20(37)11(2)48-32)8-16(18)50-29(30)12-3-5-13(34)6-4-12/h3-8,10-11,17,19-21,23-28,31-38,40-45H,9H2,1-2H3/t10-,11-,17+,19-,20-,21-,23+,24+,25-,26+,27+,28+,31+,32-,33-/m0/s1
CH$LINK: INCHIKEY PEFASEPMJYRQBW-HKWQTAEVSA-N
AC$INSTRUMENT: LC, Waters Acquity UPLC System; MS, Waters Xevo G2 Q-Tof
AC$INSTRUMENT_TYPE: LC-ESI-QTOF
AC$MASS_SPECTROMETRY: MS_TYPE MS2
AC$MASS_SPECTROMETRY: ION_MODE POSITIVE
AC$MASS_SPECTROMETRY: COLLISION_ENERGY 6V
AC$MASS_SPECTROMETRY: DESOLVATION_GAS_FLOW 800/h
AC$MASS_SPECTROMETRY: DESOLVATION_TEMPERATURE 450 C
AC$MASS_SPECTROMETRY: IONIZATION ESI
AC$CHROMATOGRAPHY: CAPILLARY_VOLTAGE +3.00 kV
AC$CHROMATOGRAPHY: COLUMN_NAME Acquity bridged ethyl hybrid C18 (1.7 um, 2.1 mm * 100 mm, Waters)
AC$CHROMATOGRAPHY: COLUMN_TEMPERATURE 40 C
AC$CHROMATOGRAPHY: FLOW_GRADIENT A/B = (99.5%/0.5% at 0 min, 99.5%/0.5% at 0.1 min, 20%/80% at 10 min, 0.5%/99.5% at 10.1 min, 0.5%/99.5% at 12.0 min, 99.5%/0.5% at 12.1 min, 99.5%/0.5% at 15.0 min)
AC$CHROMATOGRAPHY: FLOW_RATE 0.3 ml/min at 0 min, 0.3 ml/min at 10 min, 0.4 ml/min at 10.1 min, 0.4 ml/min at 14.4 min, 0.3 ml/min at 14.5 min
AC$CHROMATOGRAPHY: RETENTION_TIME 3.552233
AC$CHROMATOGRAPHY: SOLVENT A water including 0.1% formic acid
AC$CHROMATOGRAPHY: SOLVENT B acetonitrile including 0.1% formic acid
MS$FOCUSED_ION: PRECURSOR_TYPE [M+H]+
MS$FOCUSED_ION: PRECURSOR_M/Z 741.2236555
PK$SPLASH: splash10-000x-0000540900-3f87adedae7b6579e48a
PK$NUM_PEAK: 20
PK$PEAK: m/z int. rel.int.
  147.06483 7.0 7
  286.3515 6.0 6
  287.04688 20.0 20
  287.0574 15.0 15
  309.11057 6.0 6
  433.07272 8.0 8
  433.1106 499.0 499
  434.11719 137.0 137
  435.11255 26.0 26
  436.12738 6.0 6
  579.17072 24.0 24
  580.17096 10.0 10
  595.10187 14.0 14
  595.16772 376.0 376
  596.15393 62.0 62
  596.17426 68.0 68
  597.16675 10.0 10
  741.12335 10.0 10
  741.15186 32.0 32
  741.22125 1000.0 999
//
