ACCESSION: MSBNK-RIKEN-PR306488
RECORD_TITLE: Hesperetin-7-O-neohesperidoside; LC-ESI-QTOF; MS2
DATE: 2019.03.28
AUTHORS: Tetsuya Mori, Center for Sustainable Resource Science, RIKEN
LICENSE: CC BY-NC-SA
PUBLICATION: Tsugawa H., Nakabayashi R., Mori T., Yamada Y., Takahashi M., Rai A., Sugiyama R., Yamamoto H., Nakaya T., Yamazaki M., Kooke R., Bac-Molenaar JA., Oztolan-Erol N., Keurentjes JJB., Arita M., Saito K. (2019) "A cheminformatics approach to characterize metabolomes in stable-isotope-labeled organisms" Nature Methods 16(4):295-298. [doi:10.1038/s41592-019-0358-2]
COMMENT: registered in RIKEN PlaSMA
CH$NAME: Hesperetin-7-O-neohesperidoside
CH$COMPOUND_CLASS: Flavonoid-7-O-glycosides
CH$FORMULA: C28H34O15
CH$EXACT_MASS: 610.565
CH$SMILES: COC1=C(O)C=C(C=C1)C1CC(=O)C2=C(O)C=C(OC3OC(CO)C(O)C(O)C3OC3OC(C)C(O)C(O)C3O)C=C2O1
CH$IUPAC: InChI=1S/C28H34O15/c1-10-21(33)23(35)25(37)27(39-10)43-26-24(36)22(34)19(9-29)42-28(26)40-12-6-14(31)20-15(32)8-17(41-18(20)7-12)11-3-4-16(38-2)13(30)5-11/h3-7,10,17,19,21-31,33-37H,8-9H2,1-2H3
CH$LINK: INCHIKEY ARGKVCXINMKCAZ-UHFFFAOYSA-N
AC$INSTRUMENT: LC, Waters Acquity UPLC System; MS, Waters Xevo G2 Q-Tof
AC$INSTRUMENT_TYPE: LC-ESI-QTOF
AC$MASS_SPECTROMETRY: MS_TYPE MS2
AC$MASS_SPECTROMETRY: ION_MODE NEGATIVE
AC$MASS_SPECTROMETRY: COLLISION_ENERGY 6V
AC$MASS_SPECTROMETRY: DESOLVATION_GAS_FLOW 800/h
AC$MASS_SPECTROMETRY: DESOLVATION_TEMPERATURE 450 C
AC$MASS_SPECTROMETRY: IONIZATION ESI
AC$CHROMATOGRAPHY: CAPILLARY_VOLTAGE -2.75 kV
AC$CHROMATOGRAPHY: COLUMN_NAME Acquity bridged ethyl hybrid C18 (1.7 um, 2.1 mm * 100 mm, Waters)
AC$CHROMATOGRAPHY: COLUMN_TEMPERATURE 40 C
AC$CHROMATOGRAPHY: FLOW_GRADIENT A/B = (99.5%/0.5% at 0 min, 99.5%/0.5% at 0.1 min, 20%/80% at 10 min, 0.5%/99.5% at 10.1 min, 0.5%/99.5% at 12.0 min, 99.5%/0.5% at 12.1 min, 99.5%/0.5% at 15.0 min)
AC$CHROMATOGRAPHY: FLOW_RATE 0.3 ml/min at 0 min, 0.3 ml/min at 10 min, 0.4 ml/min at 10.1 min, 0.4 ml/min at 14.4 min, 0.3 ml/min at 14.5 min
AC$CHROMATOGRAPHY: RETENTION_TIME 4.609183
AC$CHROMATOGRAPHY: SOLVENT A water including 0.1% formic acid
AC$CHROMATOGRAPHY: SOLVENT B acetonitrile including 0.1% formic acid
MS$FOCUSED_ION: PRECURSOR_TYPE [M-H]-
MS$FOCUSED_ION: PRECURSOR_M/Z 609.18249394783
PK$SPLASH: splash10-0w29-0971000000-3840f221e3f96e5b4b5e
PK$NUM_PEAK: 218
PK$PEAK: m/z int. rel.int.
  55.84489 6.0 6
  67.83254 7.0 7
  71.01291 20.0 20
  82.00337 9.0 9
  83.01169 8.0 8
  87.00527 6.0 6
  88.03661 6.0 6
  96.02261 8.0 8
  97.51002 8.0 8
  107.01257 82.0 82
  108.01566 14.0 14
  108.02439 6.0 6
  108.44527 6.0 6
  112.78822 7.0 7
  114.06651 8.0 8
  118.03558 8.0 8
  122.00653 8.0 8
  124.01851 9.0 9
  125.02138 93.0 93
  125.02864 44.0 44
  125.87192 6.0 6
  125.99269 8.0 8
  126.02485 7.0 7
  126.03104 8.0 8
  131.01308 9.0 9
  131.02873 8.0 8
  132.0217 8.0 8
  133.02626 5.0 5
  134.03697 140.0 140
  135.00201 8.0 8
  135.03729 28.0 28
  135.048 10.0 10
  136.0148 123.0 123
  136.03706 9.0 9
  137.02254 12.0 12
  138.03972 16.0 16
  144.6264 8.0 8
  145.03625 6.0 6
  146.04071 13.0 13
  148.00764 6.0 6
  149.01807 9.0 9
  149.05846 68.0 68
  149.06989 8.0 8
  151.00276 527.0 526
  152.00523 53.0 53
  152.01201 34.0 34
  154.01196 6.0 6
  155.04729 7.0 7
  157.03323 5.0 5
  157.74547 8.0 8
  158.03554 48.0 48
  159.03914 18.0 18
  159.04634 6.0 6
  160.01566 17.0 17
  161.02525 12.0 12
  162.03171 19.0 19
  162.99783 8.0 8
  164.00993 1000.0 999
  164.4635 11.0 11
  165.0154 50.0 50
  165.02249 25.0 25
  166.01479 16.0 16
  166.02271 11.0 11
  168.04605 7.0 7
  169.08095 9.0 9
  170.06955 13.0 13
  172.05029 28.0 28
  172.06264 6.0 6
  172.84535 6.0 6
  173.02658 6.0 6
  173.0587 46.0 46
  174.02885 247.0 247
  174.06718 8.0 8
  174.67931 6.0 6
  174.99644 20.0 20
  175.00554 24.0 24
  175.03952 49.0 49
  176.00964 22.0 22
  176.02887 6.0 6
  176.04549 15.0 15
  176.26677 8.0 8
  177.01317 17.0 17
  177.04544 7.0 7
  177.46805 7.0 7
  178.02997 26.0 26
  179.03056 9.0 9
  184.02158 6.0 6
  185.02774 23.0 23
  185.05951 11.0 11
  187.03336 22.0 22
  187.04312 26.0 26
  187.07965 6.0 6
  187.08923 11.0 11
  188.00259 8.0 8
  188.01511 8.0 8
  188.02257 7.0 7
  188.04472 59.0 59
  189.05524 6.0 6
  190.03236 5.0 5
  191.06241 12.0 12
  191.07109 39.0 39
  192.07054 8.0 8
  193.00687 16.0 16
  194.02956 7.0 7
  196.05183 33.0 33
  198.03055 53.0 53
  199.03888 286.0 286
  199.99789 7.0 7
  200.01111 18.0 18
  200.04753 103.0 103
  201.01726 234.0 234
  201.04501 21.0 21
  201.05577 30.0 30
  202.01355 7.0 7
  202.02438 35.0 35
  202.03421 17.0 17
  203.00284 8.0 8
  203.01312 9.0 9
  203.03578 17.0 17
  203.04539 6.0 6
  207.04318 11.0 11
  209.05557 7.0 7
  210.05711 6.0 6
  211.04507 33.0 33
  212.03918 6.0 6
  212.05037 9.0 9
  213.05589 46.0 46
  214.06261 120.0 120
  215.01866 12.0 12
  215.03525 116.0 116
  215.04828 22.0 22
  215.06747 30.0 30
  215.07422 12.0 12
  216.04514 33.0 33
  216.06778 9.0 9
  216.94084 7.0 7
  217.04607 43.0 43
  217.05519 35.0 35
  218.01193 9.0 9
  218.05612 8.0 8
  218.06635 11.0 11
  222.03586 10.0 10
  223.02628 7.0 7
  223.04732 17.0 17
  224.04562 82.0 82
  225.04153 6.0 6
  225.05711 7.0 7
  225.06552 5.0 5
  227.02704 14.0 14
  227.0358 53.0 53
  227.04807 8.0 8
  227.08977 6.0 6
  229.0486 7.0 7
  229.08299 9.0 9
  230.01749 8.0 8
  230.05103 21.0 21
  230.07898 7.0 7
  233.07771 25.0 25
  238.04865 6.0 6
  238.06126 6.0 6
  239.06491 14.0 14
  240.0379 82.0 82
  241.05005 163.0 163
  242.05656 422.0 422
  243.02165 6.0 6
  243.05237 13.0 13
  243.06812 37.0 37
  250.0325 8.0 8
  254.0612 15.0 15
  257.02618 7.0 7
  257.04944 15.0 15
  257.06027 8.0 8
  257.08038 67.0 67
  257.09171 19.0 19
  258.04166 29.0 29
  258.05692 42.0 42
  259.87512 12.0 12
  265.04926 5.0 5
  267.02283 5.0 5
  268.02869 38.0 38
  268.04462 56.0 56
  269.03876 24.0 24
  271.05688 6.0 6
  272.0705 7.0 7
  276.03775 7.0 7
  282.04944 6.0 6
  283.04639 41.0 41
  283.06055 34.0 34
  284.03787 6.0 6
  284.06873 8.0 8
  285.04303 76.0 76
  285.55859 11.0 11
  286.02789 18.0 18
  286.04913 289.0 289
  286.08865 7.0 7
  287.03888 15.0 15
  287.05374 72.0 72
  287.1254 7.0 7
  288.04645 7.0 7
  292.41269 10.0 10
  295.04044 7.0 7
  297.08212 5.0 5
  301.07031 422.0 422
  301.10532 6.0 6
  302.03827 5.0 5
  302.06436 18.0 18
  302.07767 27.0 27
  303.06717 8.0 8
  303.08813 9.0 9
  310.0423 7.0 7
  328.05573 6.0 6
  329.06128 9.0 9
  339.09875 6.0 6
  340.05804 8.0 8
  368.03766 8.0 8
  433.11404 5.0 5
  609.17413 39.0 39
  609.19415 106.0 106
//
