ACCESSION: MSBNK-RIKEN-PR300176
RECORD_TITLE: Humantenine; LC-ESI-QTOF; MS2
DATE: 2019.03.28
AUTHORS: Tetsuya Mori, Center for Sustainable Resource Science, RIKEN
LICENSE: CC BY-NC-SA
PUBLICATION: Tsugawa H., Nakabayashi R., Mori T., Yamada Y., Takahashi M., Rai A., Sugiyama R., Yamamoto H., Nakaya T., Yamazaki M., Kooke R., Bac-Molenaar JA., Oztolan-Erol N., Keurentjes JJB., Arita M., Saito K. (2019) "A cheminformatics approach to characterize metabolomes in stable-isotope-labeled organisms" Nature Methods 16(4):295-298. [doi:10.1038/s41592-019-0358-2]
COMMENT: registered in RIKEN PlaSMA
CH$NAME: Humantenine
CH$COMPOUND_CLASS: Gelsemium alkaloids
CH$FORMULA: C21H26N2O3
CH$EXACT_MASS: 354.45
CH$SMILES: CON1C(=O)[C@@]2(C[C@H]3[C@H]4CO[C@H]2C[C@@H]4\C(CN3C)=C\C)C2=CC=CC=C12
CH$IUPAC: InChI=1S/C21H26N2O3/c1-4-13-11-22(2)18-10-21(19-9-14(13)15(18)12-26-19)16-7-5-6-8-17(16)23(25-3)20(21)24/h4-8,14-15,18-19H,9-12H2,1-3H3/b13-4+/t14-,15+,18+,19+,21+/m1/s1
CH$LINK: INCHIKEY SJKRPUOXUNOPOP-HEXYGZIHSA-N
AC$INSTRUMENT: LC, Waters Acquity UPLC System; MS, Waters Xevo G2 Q-Tof
AC$INSTRUMENT_TYPE: LC-ESI-QTOF
AC$MASS_SPECTROMETRY: MS_TYPE MS2
AC$MASS_SPECTROMETRY: ION_MODE POSITIVE
AC$MASS_SPECTROMETRY: COLLISION_ENERGY 6V
AC$MASS_SPECTROMETRY: DESOLVATION_GAS_FLOW 800/h
AC$MASS_SPECTROMETRY: DESOLVATION_TEMPERATURE 450 C
AC$MASS_SPECTROMETRY: IONIZATION ESI
AC$CHROMATOGRAPHY: CAPILLARY_VOLTAGE +3.00 kV
AC$CHROMATOGRAPHY: COLUMN_NAME Acquity bridged ethyl hybrid C18 (1.7 um, 2.1 mm * 100 mm, Waters)
AC$CHROMATOGRAPHY: COLUMN_TEMPERATURE 40 C
AC$CHROMATOGRAPHY: FLOW_GRADIENT A/B = (99.5%/0.5% at 0 min, 99.5%/0.5% at 0.1 min, 20%/80% at 10 min, 0.5%/99.5% at 10.1 min, 0.5%/99.5% at 12.0 min, 99.5%/0.5% at 12.1 min, 99.5%/0.5% at 15.0 min)
AC$CHROMATOGRAPHY: FLOW_RATE 0.3 ml/min at 0 min, 0.3 ml/min at 10 min, 0.4 ml/min at 10.1 min, 0.4 ml/min at 14.4 min, 0.3 ml/min at 14.5 min
AC$CHROMATOGRAPHY: RETENTION_TIME 4.632933
AC$CHROMATOGRAPHY: SOLVENT A water including 0.1% formic acid
AC$CHROMATOGRAPHY: SOLVENT B acetonitrile including 0.1% formic acid
MS$FOCUSED_ION: PRECURSOR_TYPE [M+H]+
MS$FOCUSED_ION: PRECURSOR_M/Z 355.2016192
PK$SPLASH: splash10-00di-0910000000-1ef40a25b81b8f0328fc
PK$NUM_PEAK: 400
PK$PEAK: m/z int. rel.int.
  57.05387 6.0 6
  66.04488 5.0 5
  67.04575 8.0 8
  70.06478 20.0 20
  72.07664 8.0 8
  72.08176 6.0 6
  77.03159 7.0 7
  77.03925 21.0 21
  78.03722 7.0 7
  79.05453 37.0 37
  80.04707 17.0 17
  80.06002 11.0 11
  80.06548 5.0 5
  81.03613 10.0 10
  81.04819 6.0 6
  81.06945 41.0 41
  82.06361 55.0 55
  82.07188 13.0 13
  84.08334 18.0 18
  85.08505 7.0 7
  89.0307 6.0 6
  91.04066 8.0 8
  91.05421 80.0 80
  92.05353 15.0 15
  93.05145 7.0 7
  93.05822 29.0 29
  93.06337 43.0 43
  93.06732 25.0 25
  93.07376 25.0 25
  94.04273 7.0 7
  94.05196 11.0 11
  94.06554 136.0 136
  95.06827 20.0 20
  95.07435 22.0 22
  95.0867 15.0 15
  96.07558 20.0 20
  96.08106 34.0 34
  98.06086 10.0 10
  98.09689 10.0 10
  103.0558 28.0 28
  104.04433 9.0 9
  104.0502 20.0 20
  105.03107 8.0 8
  105.06971 143.0 143
  106.06231 34.0 34
  106.07076 17.0 17
  106.07612 17.0 17
  107.05489 9.0 9
  107.06713 96.0 96
  107.07279 214.0 214
  108.04701 8.0 8
  108.06276 7.0 7
  108.08025 472.0 472
  108.09414 5.0 5
  108.95145 6.0 6
  109.06579 28.0 28
  109.08163 24.0 24
  109.08733 49.0 49
  109.10217 7.0 7
  110.05952 7.0 7
  110.08453 6.0 6
  110.09154 24.0 24
  110.09756 47.0 47
  111.10227 5.0 5
  112.07495 7.0 7
  112.1132 10.0 10
  113.11906 7.0 7
  114.04861 6.0 6
  115.04629 9.0 9
  115.05408 36.0 36
  115.05988 14.0 14
  116.05207 6.0 6
  116.06374 12.0 12
  117.0344 6.0 6
  117.06937 64.0 64
  118.06557 59.0 59
  118.07907 13.0 13
  119.06799 8.0 8
  119.08448 62.0 62
  120.06258 7.0 7
  120.08054 665.0 664
  121.06882 8.0 8
  121.08795 324.0 324
  122.06915 11.0 11
  122.07867 18.0 18
  122.09641 1000.0 999
  123.06924 5.0 5
  123.08735 13.0 13
  123.09422 30.0 30
  123.10181 111.0 111
  123.11204 9.0 9
  124.07498 9.0 9
  124.11562 9.0 9
  126.42726 5.0 5
  127.05403 14.0 14
  128.04745 16.0 16
  128.05435 63.0 63
  128.06866 11.0 11
  129.05713 19.0 19
  129.06924 53.0 53
  130.0648 114.0 114
  131.07172 45.0 45
  131.08646 25.0 25
  131.77008 9.0 9
  131.99092 5.0 5
  132.02448 11.0 11
  132.04396 321.0 321
  132.06364 10.0 10
  132.0809 97.0 97
  132.08759 28.0 28
  133.03914 10.0 10
  133.05023 38.0 38
  133.089 64.0 64
  133.10155 7.0 7
  134.05128 5.0 5
  134.09517 341.0 341
  135.07951 9.0 9
  135.09471 31.0 31
  135.10056 77.0 77
  135.11156 9.0 9
  136.07509 13.0 13
  136.0899 7.0 7
  136.11069 307.0 307
  137.08167 11.0 11
  137.10806 10.0 10
  137.11725 16.0 16
  137.12421 14.0 14
  138.05334 6.0 6
  138.0824 5.0 5
  138.09357 8.0 8
  138.11441 7.0 7
  139.09425 6.0 6
  140.05084 6.0 6
  141.06963 13.0 13
  142.05214 7.0 7
  142.06285 17.0 17
  142.07108 20.0 20
  142.07864 9.0 9
  143.06512 11.0 11
  143.07529 29.0 29
  143.08139 10.0 10
  144.0488 9.0 9
  144.06673 8.0 8
  144.07996 51.0 51
  145.04977 6.0 6
  145.05606 11.0 11
  145.08272 37.0 37
  146.02237 24.0 24
  146.03569 6.0 6
  146.06062 34.0 34
  146.09633 169.0 169
  147.05644 5.0 5
  147.07951 11.0 11
  147.09589 20.0 20
  147.10623 44.0 44
  148.071 26.0 26
  148.07866 7.0 7
  148.10858 114.0 114
  148.11681 38.0 38
  149.12715 5.0 5
  150.07852 18.0 18
  150.08704 32.0 32
  150.09367 43.0 43
  150.11516 17.0 17
  150.12788 63.0 63
  151.0549 29.0 29
  151.06583 8.0 8
  151.08997 10.0 10
  151.09837 14.0 14
  151.12607 9.0 9
  152.05914 8.0 8
  152.10738 47.0 47
  153.06339 6.0 6
  153.07825 6.0 6
  154.06764 44.0 44
  155.06737 6.0 6
  155.07405 9.0 9
  156.07083 13.0 13
  156.08029 18.0 18
  157.05309 12.0 12
  157.08583 9.0 9
  158.04906 9.0 9
  158.06052 29.0 29
  158.06873 15.0 15
  158.09729 30.0 30
  159.07391 7.0 7
  159.09489 9.0 9
  159.10216 17.0 17
  160.06721 15.0 15
  160.10754 43.0 43
  160.11557 30.0 30
  162.05769 8.0 8
  162.06523 6.0 6
  162.12964 38.0 38
  163.12753 6.0 6
  164.05128 6.0 6
  164.09491 12.0 12
  164.10817 71.0 71
  164.14539 15.0 15
  165.05818 22.0 22
  165.07007 16.0 16
  165.08086 5.0 5
  165.10715 5.0 5
  166.04875 12.0 12
  166.06573 79.0 79
  167.05316 5.0 5
  167.07195 63.0 63
  167.09177 6.0 6
  168.07166 34.0 34
  168.08234 22.0 22
  169.07072 5.0 5
  169.08875 7.0 7
  170.05646 17.0 17
  170.07953 13.0 13
  170.09325 16.0 16
  171.09367 6.0 6
  172.06427 7.0 7
  172.07436 10.0 10
  172.11374 8.0 8
  176.07921 8.0 8
  176.10779 36.0 36
  178.06041 49.0 49
  178.0714 33.0 33
  178.12059 72.0 72
  178.12668 38.0 38
  179.07701 24.0 24
  179.0873 13.0 13
  179.13048 15.0 15
  180.07961 104.0 104
  180.08932 19.0 19
  181.07538 27.0 27
  181.08765 36.0 36
  182.05701 22.0 22
  182.06993 29.0 29
  182.07919 16.0 16
  182.09926 30.0 30
  183.05823 6.0 6
  183.07361 31.0 31
  183.09416 7.0 7
  183.10387 10.0 10
  184.06604 12.0 12
  184.0816 42.0 42
  184.11443 14.0 14
  185.07463 17.0 17
  186.08682 5.0 5
  190.07169 11.0 11
  190.97391 5.0 5
  191.06749 12.0 12
  191.07671 27.0 27
  192.07204 13.0 13
  192.0813 29.0 29
  192.14304 14.0 14
  193.06531 8.0 8
  193.08754 15.0 15
  193.09599 14.0 14
  194.09143 35.0 35
  194.10179 37.0 37
  195.09006 7.0 7
  195.09695 18.0 18
  195.10835 10.0 10
  196.06798 11.0 11
  196.07622 19.0 19
  196.10922 9.0 9
  197.07812 7.0 7
  197.08661 17.0 17
  197.10765 12.0 12
  197.1208 8.0 8
  198.06102 8.0 8
  201.06743 5.0 5
  201.07649 6.0 6
  202.06606 10.0 10
  202.07629 19.0 19
  203.07495 6.0 6
  203.08568 13.0 13
  204.07323 26.0 26
  204.08212 49.0 49
  205.08617 73.0 73
  205.09393 29.0 29
  206.07642 8.0 8
  206.09543 42.0 42
  206.10612 7.0 7
  207.09238 11.0 11
  207.10628 11.0 11
  208.05907 7.0 7
  208.07256 32.0 32
  208.08995 13.0 13
  208.10371 9.0 9
  208.1104 23.0 23
  208.12531 7.0 7
  208.49782 5.0 5
  209.11328 10.0 10
  210.06526 6.0 6
  210.07553 13.0 13
  210.09183 25.0 25
  210.13646 5.0 5
  211.08743 55.0 55
  214.07262 23.0 23
  215.06775 11.0 11
  215.09073 21.0 21
  216.07999 31.0 31
  217.08459 25.0 25
  217.09425 42.0 42
  218.08989 53.0 53
  218.09923 22.0 22
  219.09764 21.0 21
  220.07455 22.0 22
  220.09966 7.0 7
  220.10977 15.0 15
  221.086 14.0 14
  221.10645 28.0 28
  222.07275 7.0 7
  222.0918 12.0 12
  222.10892 9.0 9
  223.10155 13.0 13
  223.13757 10.0 10
  224.11403 14.0 14
  224.15269 7.0 7
  225.10349 33.0 33
  226.07788 9.0 9
  226.08656 5.0 5
  226.11356 5.0 5
  227.06641 9.0 9
  227.0777 25.0 25
  228.08206 34.0 34
  229.05675 7.0 7
  229.08958 18.0 18
  230.07664 7.0 7
  230.08699 25.0 25
  230.10312 18.0 18
  231.10466 10.0 10
  232.06078 6.0 6
  232.06966 10.0 10
  232.09488 6.0 6
  232.108 12.0 12
  232.11783 6.0 6
  233.0816 33.0 33
  233.09496 12.0 12
  233.12222 13.0 13
  234.08075 11.0 11
  234.10124 6.0 6
  234.12718 27.0 27
  234.14238 6.0 6
  235.08929 7.0 7
  235.09885 6.0 6
  235.12936 8.0 8
  236.06027 6.0 6
  236.07552 7.0 7
  236.09326 7.0 7
  236.11526 13.0 13
  236.15118 8.0 8
  237.09198 7.0 7
  237.10426 10.0 10
  238.12135 7.0 7
  239.12642 6.0 6
  240.08498 6.0 6
  241.08965 53.0 53
  242.08665 10.0 10
  242.09941 17.0 17
  243.09702 12.0 12
  243.37265 5.0 5
  244.11127 15.0 15
  245.04932 6.0 6
  245.0916 6.0 6
  245.10687 5.0 5
  246.07121 10.0 10
  246.08986 41.0 41
  247.09641 23.0 23
  247.12546 11.0 11
  248.0954 18.0 18
  249.09172 18.0 18
  249.10321 12.0 12
  250.10896 11.0 11
  250.14046 15.0 15
  251.11008 15.0 15
  258.09161 19.0 19
  259.07986 11.0 11
  260.0954 6.0 6
  262.11292 9.0 9
  263.1218 12.0 12
  264.12317 9.0 9
  265.13101 13.0 13
  275.12695 8.0 8
  277.12967 9.0 9
  278.12302 7.0 7
  278.14233 11.0 11
  279.14612 9.0 9
  281.17691 8.0 8
  289.11807 5.0 5
  291.15131 5.0 5
  293.16241 7.0 7
  295.16772 5.0 5
  308.81256 7.0 7
  309.15677 190.0 190
  309.17337 34.0 34
  310.1586 29.0 29
  310.17349 11.0 11
  311.16907 7.0 7
  323.17233 28.0 28
  323.19556 7.0 7
  355.2049 14.0 14
//
