ACCESSION: MSBNK-RIKEN-PR040155
RECORD_TITLE: Prunin; LC-ESI-QTOF; MS2; CE:30 V; [M+H]+
DATE: 2016.01.19 (Created 2008.02.14, modified 2011.05.06)
AUTHORS: Matsuda F, Plant Science Center, RIKEN.
LICENSE: CC BY-SA
CH$NAME: naringenin-7-O-glucoside
CH$NAME: Prunin
CH$NAME: Nari_7_Glc
CH$NAME: (2S)-5-hydroxy-2-(4-hydroxyphenyl)-7-[(2S,3R,4S,5R,6R)-3,4,5-trihydroxy-6-(hydroxymethyl)oxan-2-yl]oxy-chroman-4-one
CH$COMPOUND_CLASS: Natural Product
CH$FORMULA: C21H22O10
CH$EXACT_MASS: 434.12130
CH$SMILES: OCC(O1)C(O)C(O)C(O)C1Oc(c4)cc(O2)c(c(O)4)C(=O)CC(c(c3)ccc(O)c3)2
CH$IUPAC: InChI=1S/C21H22O10/c22-8-16-18(26)19(27)20(28)21(31-16)29-11-5-12(24)17-13(25)7-14(30-15(17)6-11)9-1-3-10(23)4-2-9/h1-6,14,16,18-24,26-28H,7-8H2/t14-,16+,18+,19-,20+,21+/m0/s1
CH$LINK: CAS 529-55-5
CH$LINK: KEGG C09099
CH$LINK: KNAPSACK C00000998
CH$LINK: PUBCHEM CID:92794
CH$LINK: INCHIKEY DLIKSSGEMUFQOK-SFTVRKLSSA-N
AC$INSTRUMENT: UPLC Q-Tof Premier, Waters
AC$INSTRUMENT_TYPE: LC-ESI-QTOF
AC$MASS_SPECTROMETRY: MS_TYPE MS2
AC$MASS_SPECTROMETRY: ION_MODE POSITIVE
AC$MASS_SPECTROMETRY: COLLISION_ENERGY 30 V
AC$MASS_SPECTROMETRY: DATAFORMAT Continuum
AC$MASS_SPECTROMETRY: DESOLVATION_GAS_FLOW 600.0 L/Hr
AC$MASS_SPECTROMETRY: DESOLVATION_TEMPERATURE 400 C
AC$MASS_SPECTROMETRY: FRAGMENTATION_METHOD LOW-ENERGY CID
AC$MASS_SPECTROMETRY: IONIZATION ESI
AC$MASS_SPECTROMETRY: SCANNING 1.0 sec/scan (m/z = 50-1000)
AC$MASS_SPECTROMETRY: SOURCE_TEMPERATURE 120 C
AC$CHROMATOGRAPHY: CAPILLARY_VOLTAGE 3.0 kV
AC$CHROMATOGRAPHY: SAMPLING_CONE 23.0 V
AC$CHROMATOGRAPHY: SOLVENT A CH3CN(0.1%HCOOH)
AC$CHROMATOGRAPHY: SOLVENT B H2O(0.1%HCOOH)
MS$FOCUSED_ION: FULL_SCAN_FRAGMENT_ION_PEAK 435.1
MS$FOCUSED_ION: ION_TYPE [M+H]+
MS$DATA_PROCESSING: WHOLE MassLynx 4.1
PK$SPLASH: splash10-0uka-0930000000-1e71961ea26405bf0b66
PK$NUM_PEAK: 10
PK$PEAK: m/z int. rel.int.
  119.0489 1081 46
  123.0442 722.6 31
  147.0459 13580 589
  147.1095 3427 148
  153.0205 23000 999
  153.0853 5856 254
  154.0239 740.2 32
  273.0811 16330 709
  273.1672 3101 134
  274.0844 1159 50
//
