ACCESSION: MSBNK-RIKEN-PR308053
RECORD_TITLE: Phillyrin; LC-ESI-QTOF; MS2
DATE: 2019.03.28
AUTHORS: Tetsuya Mori, Center for Sustainable Resource Science, RIKEN
LICENSE: CC BY-NC-SA
PUBLICATION: Tsugawa H., Nakabayashi R., Mori T., Yamada Y., Takahashi M., Rai A., Sugiyama R., Yamamoto H., Nakaya T., Yamazaki M., Kooke R., Bac-Molenaar JA., Oztolan-Erol N., Keurentjes JJB., Arita M., Saito K. (2019) "A cheminformatics approach to characterize metabolomes in stable-isotope-labeled organisms" Nature Methods 16(4):295-298. [doi:10.1038/s41592-019-0358-2]
COMMENT: registered in RIKEN PlaSMA
CH$NAME: Phillyrin
CH$COMPOUND_CLASS: Lignan glycosides
CH$FORMULA: C27H34O11
CH$EXACT_MASS: 534.558
CH$SMILES: COC1=C(OC)C=C(C=C1)C1OCC2C1COC2C1=CC(OC)=C(OC2OC(CO)C(O)C(O)C2O)C=C1
CH$IUPAC: InChI=1S/C27H34O11/c1-32-17-6-4-13(8-19(17)33-2)25-15-11-36-26(16(15)12-35-25)14-5-7-18(20(9-14)34-3)37-27-24(31)23(30)22(29)21(10-28)38-27/h4-9,15-16,21-31H,10-12H2,1-3H3
CH$LINK: INCHIKEY KFFCKOBAHMGTMW-UHFFFAOYSA-N
AC$INSTRUMENT: LC, Waters Acquity UPLC System; MS, Waters Xevo G2 Q-Tof
AC$INSTRUMENT_TYPE: LC-ESI-QTOF
AC$MASS_SPECTROMETRY: MS_TYPE MS2
AC$MASS_SPECTROMETRY: ION_MODE NEGATIVE
AC$MASS_SPECTROMETRY: COLLISION_ENERGY 6V
AC$MASS_SPECTROMETRY: DESOLVATION_GAS_FLOW 800/h
AC$MASS_SPECTROMETRY: DESOLVATION_TEMPERATURE 450 C
AC$MASS_SPECTROMETRY: IONIZATION ESI
AC$CHROMATOGRAPHY: CAPILLARY_VOLTAGE -2.75 kV
AC$CHROMATOGRAPHY: COLUMN_NAME Acquity bridged ethyl hybrid C18 (1.7 um, 2.1 mm * 100 mm, Waters)
AC$CHROMATOGRAPHY: COLUMN_TEMPERATURE 40 C
AC$CHROMATOGRAPHY: FLOW_GRADIENT A/B = (99.5%/0.5% at 0 min, 99.5%/0.5% at 0.1 min, 20%/80% at 10 min, 0.5%/99.5% at 10.1 min, 0.5%/99.5% at 12.0 min, 99.5%/0.5% at 12.1 min, 99.5%/0.5% at 15.0 min)
AC$CHROMATOGRAPHY: FLOW_RATE 0.3 ml/min at 0 min, 0.3 ml/min at 10 min, 0.4 ml/min at 10.1 min, 0.4 ml/min at 14.4 min, 0.3 ml/min at 14.5 min
AC$CHROMATOGRAPHY: RETENTION_TIME 5.128117
AC$CHROMATOGRAPHY: SOLVENT A water including 0.1% formic acid
AC$CHROMATOGRAPHY: SOLVENT B acetonitrile including 0.1% formic acid
MS$FOCUSED_ION: PRECURSOR_TYPE [M+HCOO]-
MS$FOCUSED_ION: PRECURSOR_M/Z 579.20831475183
PK$SPLASH: splash10-00di-0009000000-ff604430375d2a6374f8
PK$NUM_PEAK: 27
PK$PEAK: m/z int. rel.int.
  71.01482 8.0 8
  85.03396 8.0 8
  101.02329 39.0 39
  137.05888 9.0 9
  161.04686 9.0 9
  162.02847 7.0 7
  182.05725 10.0 10
  191.97327 9.0 9
  203.62794 7.0 7
  234.05402 11.0 11
  356.12152 136.0 136
  356.13303 122.0 122
  356.15677 13.0 13
  357.12042 50.0 50
  357.1377 15.0 15
  358.11444 10.0 10
  358.16443 8.0 8
  371.15118 1000.0 999
  371.18155 9.0 9
  372.04498 12.0 12
  372.15335 183.0 183
  372.40982 8.0 8
  372.72626 7.0 7
  373.14859 9.0 9
  373.15979 29.0 29
  375.32764 8.0 8
  376.27002 7.0 7
//
