ACCESSION: MSBNK-RIKEN-PR302366
RECORD_TITLE: Quercetin-3-O-vicianoside; LC-ESI-QTOF; MS2
DATE: 2019.03.28
AUTHORS: Tetsuya Mori, Center for Sustainable Resource Science, RIKEN
LICENSE: CC BY-NC-SA
PUBLICATION: Tsugawa H., Nakabayashi R., Mori T., Yamada Y., Takahashi M., Rai A., Sugiyama R., Yamamoto H., Nakaya T., Yamazaki M., Kooke R., Bac-Molenaar JA., Oztolan-Erol N., Keurentjes JJB., Arita M., Saito K. (2019) "A cheminformatics approach to characterize metabolomes in stable-isotope-labeled organisms" Nature Methods 16(4):295-298. [doi:10.1038/s41592-019-0358-2]
COMMENT: registered in RIKEN PlaSMA
CH$NAME: Quercetin-3-O-vicianoside
CH$COMPOUND_CLASS: Flavonoid-3-O-glycosides
CH$FORMULA: C26H28O16
CH$EXACT_MASS: 596.494
CH$SMILES: O[C@H]1CO[C@@H](OC[C@H]2O[C@@H](OC3=C(OC4=CC(O)=CC(O)=C4C3=O)C3=CC(O)=C(O)C=C3)[C@H](O)[C@@H](O)[C@@H]2O)[C@H](O)[C@H]1O
CH$IUPAC: InChI=1S/C26H28O16/c27-9-4-12(30)16-14(5-9)40-23(8-1-2-10(28)11(29)3-8)24(19(16)34)42-26-22(37)20(35)18(33)15(41-26)7-39-25-21(36)17(32)13(31)6-38-25/h1-5,13,15,17-18,20-22,25-33,35-37H,6-7H2/t13-,15+,17-,18+,20-,21+,22+,25-,26-/m0/s1
CH$LINK: INCHIKEY YNMFDPCLPIMRFD-KSPKLRDJSA-N
AC$INSTRUMENT: LC, Waters Acquity UPLC System; MS, Waters Xevo G2 Q-Tof
AC$INSTRUMENT_TYPE: LC-ESI-QTOF
AC$MASS_SPECTROMETRY: MS_TYPE MS2
AC$MASS_SPECTROMETRY: ION_MODE POSITIVE
AC$MASS_SPECTROMETRY: COLLISION_ENERGY 6V
AC$MASS_SPECTROMETRY: DESOLVATION_GAS_FLOW 800/h
AC$MASS_SPECTROMETRY: DESOLVATION_TEMPERATURE 450 C
AC$MASS_SPECTROMETRY: IONIZATION ESI
AC$CHROMATOGRAPHY: CAPILLARY_VOLTAGE +3.00 kV
AC$CHROMATOGRAPHY: COLUMN_NAME Acquity bridged ethyl hybrid C18 (1.7 um, 2.1 mm * 100 mm, Waters)
AC$CHROMATOGRAPHY: COLUMN_TEMPERATURE 40 C
AC$CHROMATOGRAPHY: FLOW_GRADIENT A/B = (99.5%/0.5% at 0 min, 99.5%/0.5% at 0.1 min, 20%/80% at 10 min, 0.5%/99.5% at 10.1 min, 0.5%/99.5% at 12.0 min, 99.5%/0.5% at 12.1 min, 99.5%/0.5% at 15.0 min)
AC$CHROMATOGRAPHY: FLOW_RATE 0.3 ml/min at 0 min, 0.3 ml/min at 10 min, 0.4 ml/min at 10.1 min, 0.4 ml/min at 14.4 min, 0.3 ml/min at 14.5 min
AC$CHROMATOGRAPHY: RETENTION_TIME 3.699367
AC$CHROMATOGRAPHY: SOLVENT A water including 0.1% formic acid
AC$CHROMATOGRAPHY: SOLVENT B acetonitrile including 0.1% formic acid
MS$FOCUSED_ION: PRECURSOR_TYPE [M+H]+
MS$FOCUSED_ION: PRECURSOR_M/Z 597.1450113
PK$SPLASH: splash10-0udi-0009110000-c38bf402ff645f40dffd
PK$NUM_PEAK: 36
PK$PEAK: m/z int. rel.int.
  97.02806 29.0 29
  115.03958 23.0 23
  127.0349 6.0 6
  127.04107 7.0 7
  128.03943 5.0 5
  133.04454 6.0 6
  133.05519 12.0 12
  145.05032 12.0 12
  163.0603 6.0 6
  193.47008 5.0 5
  229.4288 5.0 5
  259.08484 11.0 11
  260.08862 11.0 11
  286.043 5.0 5
  302.98819 6.0 6
  303.00595 24.0 24
  303.05045 1000.0 999
  303.17981 5.0 5
  304.05258 162.0 162
  305.00714 7.0 7
  305.05621 46.0 46
  370.06696 7.0 7
  435.05191 5.0 5
  435.07639 14.0 14
  435.09616 30.0 30
  435.12039 10.0 10
  435.40466 5.0 5
  465.10028 80.0 80
  465.12305 16.0 16
  466.11453 19.0 19
  557.3634 8.0 8
  577.15198 12.0 12
  597.07764 6.0 6
  597.10504 11.0 11
  597.1449 128.0 128
  597.17731 12.0 12
//
