ACCESSION: MSBNK-RIKEN-PR301495
RECORD_TITLE: (S,S)-(+)-Tetrandrine; LC-ESI-QTOF; MS2
DATE: 2019.03.28
AUTHORS: Tetsuya Mori, Center for Sustainable Resource Science, RIKEN
LICENSE: CC BY-NC-SA
PUBLICATION: Tsugawa H., Nakabayashi R., Mori T., Yamada Y., Takahashi M., Rai A., Sugiyama R., Yamamoto H., Nakaya T., Yamazaki M., Kooke R., Bac-Molenaar JA., Oztolan-Erol N., Keurentjes JJB., Arita M., Saito K. (2019) "A cheminformatics approach to characterize metabolomes in stable-isotope-labeled organisms" Nature Methods 16(4):295-298. [doi:10.1038/s41592-019-0358-2]
COMMENT: registered in RIKEN PlaSMA
CH$NAME: (S,S)-(+)-Tetrandrine
CH$COMPOUND_CLASS: Lignans, neolignans and related compounds
CH$FORMULA: C38H42N2O6
CH$EXACT_MASS: 622.762
CH$SMILES: COC1=C2OC3=CC=C(C[C@@H]4N(C)CCC5=CC(OC)=C(OC6=C7[C@H](CC(C=C1)=C2)N(C)CCC7=CC(OC)=C6OC)C=C45)C=C3
CH$IUPAC: InChI=1S/C38H42N2O6/c1-39-15-13-25-20-32(42-4)34-22-28(25)29(39)17-23-7-10-27(11-8-23)45-33-19-24(9-12-31(33)41-3)18-30-36-26(14-16-40(30)2)21-35(43-5)37(44-6)38(36)46-34/h7-12,19-22,29-30H,13-18H2,1-6H3/t29-,30-/m0/s1
CH$LINK: INCHIKEY WVTKBKWTSCPRNU-KYJUHHDHSA-N
AC$INSTRUMENT: LC, Waters Acquity UPLC System; MS, Waters Xevo G2 Q-Tof
AC$INSTRUMENT_TYPE: LC-ESI-QTOF
AC$MASS_SPECTROMETRY: MS_TYPE MS2
AC$MASS_SPECTROMETRY: ION_MODE POSITIVE
AC$MASS_SPECTROMETRY: COLLISION_ENERGY 6V
AC$MASS_SPECTROMETRY: DESOLVATION_GAS_FLOW 800/h
AC$MASS_SPECTROMETRY: DESOLVATION_TEMPERATURE 450 C
AC$MASS_SPECTROMETRY: IONIZATION ESI
AC$CHROMATOGRAPHY: CAPILLARY_VOLTAGE +3.00 kV
AC$CHROMATOGRAPHY: COLUMN_NAME Acquity bridged ethyl hybrid C18 (1.7 um, 2.1 mm * 100 mm, Waters)
AC$CHROMATOGRAPHY: COLUMN_TEMPERATURE 40 C
AC$CHROMATOGRAPHY: FLOW_GRADIENT A/B = (99.5%/0.5% at 0 min, 99.5%/0.5% at 0.1 min, 20%/80% at 10 min, 0.5%/99.5% at 10.1 min, 0.5%/99.5% at 12.0 min, 99.5%/0.5% at 12.1 min, 99.5%/0.5% at 15.0 min)
AC$CHROMATOGRAPHY: FLOW_RATE 0.3 ml/min at 0 min, 0.3 ml/min at 10 min, 0.4 ml/min at 10.1 min, 0.4 ml/min at 14.4 min, 0.3 ml/min at 14.5 min
AC$CHROMATOGRAPHY: RETENTION_TIME 4.186433
AC$CHROMATOGRAPHY: SOLVENT A water including 0.1% formic acid
AC$CHROMATOGRAPHY: SOLVENT B acetonitrile including 0.1% formic acid
MS$FOCUSED_ION: PRECURSOR_TYPE [M+H]+
MS$FOCUSED_ION: PRECURSOR_M/Z 623.3115635
PK$SPLASH: splash10-00di-0000019000-600b23b04a2d46f9a361
PK$NUM_PEAK: 30
PK$PEAK: m/z int. rel.int.
  174.08629 10.0 10
  175.08202 8.0 8
  176.1156 5.0 5
  191.09341 21.0 21
  192.09685 8.0 8
  309.10355 9.0 9
  381.14575 7.0 7
  381.1752 40.0 40
  381.18674 25.0 25
  383.14655 6.0 6
  399.14999 6.0 6
  486.20117 8.0 8
  516.26477 5.0 5
  535.23822 8.0 8
  550.23572 5.0 5
  560.22662 8.0 8
  576.24677 8.0 8
  580.22656 6.0 6
  580.2655 20.0 20
  581.27307 7.0 7
  581.29028 5.0 5
  592.23242 5.0 5
  592.25269 24.0 24
  592.27594 24.0 24
  593.255 11.0 11
  593.2785 15.0 15
  594.29382 5.0 5
  623.24194 14.0 14
  623.31274 1000.0 999
  623.3689 6.0 6
//
