ACCESSION: MSBNK-RIKEN-PR309045
RECORD_TITLE: Chalcone base + 3O, 1Prenyl; LC-ESI-QTOF; MS2
DATE: 2019.03.28
AUTHORS: Tetsuya Mori, Center for Sustainable Resource Science, RIKEN
LICENSE: CC BY-NC-SA
PUBLICATION: Tsugawa H., Nakabayashi R., Mori T., Yamada Y., Takahashi M., Rai A., Sugiyama R., Yamamoto H., Nakaya T., Yamazaki M., Kooke R., Bac-Molenaar JA., Oztolan-Erol N., Keurentjes JJB., Arita M., Saito K. (2019) "A cheminformatics approach to characterize metabolomes in stable-isotope-labeled organisms" Nature Methods 16(4):295-298. [doi:10.1038/s41592-019-0358-2]
COMMENT: Annotation level-3
CH$NAME: Chalcone base + 3O, 1Prenyl
CH$COMPOUND_CLASS: Prenylated chalcones
CH$FORMULA: C20H20O4
CH$EXACT_MASS: 324.376
CH$SMILES: O=C(C=CC=1C=CC(O)=C(C=1)CC=C(C)C)C=2C=CC(O)=CC=2(O)
CH$IUPAC: InChI=1S/C20H20O4/c1-13(2)3-6-15-11-14(4-9-18(15)22)5-10-19(23)17-8-7-16(21)12-20(17)24/h3-5,7-12,21-22,24H,6H2,1-2H3
CH$LINK: INCHIKEY TVUGLERLRIQATC-UHFFFAOYSA-N
AC$INSTRUMENT: LC, Waters Acquity UPLC System; MS, Waters Xevo G2 Q-Tof
AC$INSTRUMENT_TYPE: LC-ESI-QTOF
AC$MASS_SPECTROMETRY: MS_TYPE MS2
AC$MASS_SPECTROMETRY: ION_MODE NEGATIVE
AC$MASS_SPECTROMETRY: COLLISION_ENERGY 6V
AC$MASS_SPECTROMETRY: DESOLVATION_GAS_FLOW 800/h
AC$MASS_SPECTROMETRY: DESOLVATION_TEMPERATURE 450 C
AC$MASS_SPECTROMETRY: IONIZATION ESI
AC$CHROMATOGRAPHY: CAPILLARY_VOLTAGE +3.00 kV
AC$CHROMATOGRAPHY: COLUMN_NAME Acquity bridged ethyl hybrid C18 (1.7 um, 2.1 mm * 100 mm, Waters)
AC$CHROMATOGRAPHY: COLUMN_TEMPERATURE 40 C
AC$CHROMATOGRAPHY: FLOW_GRADIENT A/B = (99.5%/0.5% at 0 min, 99.5%/0.5% at 0.1 min, 20%/80% at 10 min, 0.5%/99.5% at 10.1 min, 0.5%/99.5% at 12.0 min, 99.5%/0.5% at 12.1 min, 99.5%/0.5% at 15.0 min)
AC$CHROMATOGRAPHY: FLOW_RATE 0.3 ml/min at 0 min, 0.3 ml/min at 10 min, 0.4 ml/min at 10.1 min, 0.4 ml/min at 14.4 min, 0.3 ml/min at 14.5 min
AC$CHROMATOGRAPHY: RETENTION_TIME 8.57
AC$CHROMATOGRAPHY: SOLVENT A water including 0.1% formic acid
AC$CHROMATOGRAPHY: SOLVENT B acetonitrile including 0.1% formic acid
MS$FOCUSED_ION: PRECURSOR_TYPE [M-H]-
MS$FOCUSED_ION: PRECURSOR_M/Z 323.1276
PK$SPLASH: splash10-00di-0729000000-1bdde6c47a7cb9dcf8b9
PK$NUM_PEAK: 29
PK$PEAK: m/z int. rel.int.
  91.02055 20.0 27
  107.0479 18.0 24
  132.04967 25.0 33
  132.05664 24.0 32
  132.06445 21.0 28
  133.02448 25.0 33
  134.03445 18.0 24
  135.00388 63.0 84
  135.01126 76.0 101
  135.04301 68.0 91
  136.01523 22.0 29
  145.06537 25.0 33
  147.0381 18.0 24
  158.03816 30.0 40
  172.05174 18.0 24
  175.09389 21.0 28
  187.10759 48.0 64
  187.11533 88.0 117
  188.11142 18.0 24
  188.12312 20.0 27
  201.08969 64.0 85
  201.09848 27.0 36
  202.11229 19.0 25
  214.09328 22.0 29
  219.10428 20.0 27
  253.07588 18.0 24
  281.11108 19.0 25
  323.12543 749.0 999
  323.17801 18.0 24
//
