ACCESSION: MSBNK-RIKEN-PR300053
RECORD_TITLE: Voacristine; LC-ESI-QTOF; MS2
DATE: 2019.03.28
AUTHORS: Tetsuya Mori, Center for Sustainable Resource Science, RIKEN
LICENSE: CC BY-NC-SA
PUBLICATION: Tsugawa H., Nakabayashi R., Mori T., Yamada Y., Takahashi M., Rai A., Sugiyama R., Yamamoto H., Nakaya T., Yamazaki M., Kooke R., Bac-Molenaar JA., Oztolan-Erol N., Keurentjes JJB., Arita M., Saito K. (2019) "A cheminformatics approach to characterize metabolomes in stable-isotope-labeled organisms" Nature Methods 16(4):295-298. [doi:10.1038/s41592-019-0358-2]
COMMENT: registered in RIKEN PlaSMA
CH$NAME: Voacristine
CH$COMPOUND_CLASS: Ibogan-type alkaloids
CH$FORMULA: C22H28N2O4
CH$EXACT_MASS: 384.476
CH$SMILES: COC(=O)[C@@]12C[C@H]3C[C@H]([C@H](C)O)[C@@H]1N(C3)CCC1=C2NC2=C1C=C(OC)C=C2
CH$IUPAC: InChI=1S/C22H28N2O4/c1-12(25)16-8-13-10-22(21(26)28-3)19-15(6-7-24(11-13)20(16)22)17-9-14(27-2)4-5-18(17)23-19/h4-5,9,12-13,16,20,23,25H,6-8,10-11H2,1-3H3/t12-,13+,16+,20-,22+/m0/s1
CH$LINK: INCHIKEY OYMQKBZMKFJPMH-VJMPXSKLSA-N
AC$INSTRUMENT: LC, Waters Acquity UPLC System; MS, Waters Xevo G2 Q-Tof
AC$INSTRUMENT_TYPE: LC-ESI-QTOF
AC$MASS_SPECTROMETRY: MS_TYPE MS2
AC$MASS_SPECTROMETRY: ION_MODE POSITIVE
AC$MASS_SPECTROMETRY: COLLISION_ENERGY 6V
AC$MASS_SPECTROMETRY: DESOLVATION_GAS_FLOW 800/h
AC$MASS_SPECTROMETRY: DESOLVATION_TEMPERATURE 450 C
AC$MASS_SPECTROMETRY: IONIZATION ESI
AC$CHROMATOGRAPHY: CAPILLARY_VOLTAGE +3.00 kV
AC$CHROMATOGRAPHY: COLUMN_NAME Acquity bridged ethyl hybrid C18 (1.7 um, 2.1 mm * 100 mm, Waters)
AC$CHROMATOGRAPHY: COLUMN_TEMPERATURE 40 C
AC$CHROMATOGRAPHY: FLOW_GRADIENT A/B = (99.5%/0.5% at 0 min, 99.5%/0.5% at 0.1 min, 20%/80% at 10 min, 0.5%/99.5% at 10.1 min, 0.5%/99.5% at 12.0 min, 99.5%/0.5% at 12.1 min, 99.5%/0.5% at 15.0 min)
AC$CHROMATOGRAPHY: FLOW_RATE 0.3 ml/min at 0 min, 0.3 ml/min at 10 min, 0.4 ml/min at 10.1 min, 0.4 ml/min at 14.4 min, 0.3 ml/min at 14.5 min
AC$CHROMATOGRAPHY: RETENTION_TIME 4.611467
AC$CHROMATOGRAPHY: SOLVENT A water including 0.1% formic acid
AC$CHROMATOGRAPHY: SOLVENT B acetonitrile including 0.1% formic acid
MS$FOCUSED_ION: PRECURSOR_TYPE [M+H]+
MS$FOCUSED_ION: PRECURSOR_M/Z 385.2121838
PK$SPLASH: splash10-00kr-0349000000-4af52b27b6c8c7e2e9ff
PK$NUM_PEAK: 181
PK$PEAK: m/z int. rel.int.
  93.07083 11.0 11
  98.09755 5.0 5
  107.08678 11.0 11
  108.08154 13.0 13
  110.09299 14.0 14
  110.09962 13.0 13
  119.08482 14.0 14
  121.0865 12.0 12
  122.09661 87.0 87
  123.09563 6.0 6
  134.09743 10.0 10
  135.10327 21.0 21
  136.11183 286.0 286
  137.11461 23.0 23
  146.06882 6.0 6
  147.0769 13.0 13
  147.08345 15.0 15
  148.07452 5.0 5
  148.11209 53.0 53
  149.11916 6.0 6
  158.09669 39.0 39
  159.10097 5.0 5
  160.06549 7.0 7
  160.07445 27.0 27
  161.07669 6.0 6
  162.09331 18.0 18
  172.07455 18.0 18
  173.07915 6.0 6
  174.09171 213.0 213
  175.09386 38.0 38
  177.09079 6.0 6
  180.09769 8.0 8
  184.07396 23.0 23
  185.07579 12.0 12
  186.09103 97.0 97
  187.0903 8.0 8
  187.09695 13.0 13
  188.10019 31.0 31
  188.10944 13.0 13
  189.09821 23.0 23
  192.10236 12.0 12
  194.11652 18.0 18
  195.1281 8.0 8
  197.0811 9.0 9
  198.09047 65.0 65
  199.0882 19.0 19
  200.07697 7.0 7
  200.09213 12.0 12
  200.10873 52.0 52
  201.10251 54.0 54
  202.10509 10.0 10
  203.11581 10.0 10
  206.11813 23.0 23
  210.08516 34.0 34
  210.09355 69.0 69
  211.09468 15.0 15
  212.10677 18.0 18
  214.08159 46.0 46
  214.09117 31.0 31
  215.089 6.0 6
  215.11684 7.0 7
  215.12727 6.0 6
  224.10352 11.0 11
  224.11288 12.0 12
  225.0759 5.0 5
  226.08424 29.0 29
  228.10156 14.0 14
  232.08998 13.0 13
  232.10301 15.0 15
  237.10365 12.0 12
  238.08426 35.0 35
  238.09694 17.0 17
  238.11626 12.0 12
  239.09169 8.0 8
  239.12479 8.0 8
  240.10315 12.0 12
  244.08681 9.0 9
  244.09921 23.0 23
  245.10208 7.0 7
  246.09497 9.0 9
  246.11354 55.0 55
  247.11412 18.0 18
  249.10632 5.0 5
  249.1243 5.0 5
  250.12747 8.0 8
  251.09187 6.0 6
  251.11073 9.0 9
  251.11957 15.0 15
  252.10422 22.0 22
  252.12764 19.0 19
  253.10403 7.0 7
  253.12418 12.0 12
  253.13805 17.0 17
  255.119 5.0 5
  258.10599 34.0 34
  258.11411 77.0 77
  259.11096 10.0 10
  260.12161 9.0 9
  260.13467 9.0 9
  262.11862 7.0 7
  263.13074 7.0 7
  264.11136 6.0 6
  264.13425 15.0 15
  264.14474 14.0 14
  265.09824 29.0 29
  265.12918 8.0 8
  265.1456 12.0 12
  266.10114 12.0 12
  266.11597 9.0 9
  266.15253 8.0 8
  267.10287 7.0 7
  270.10999 48.0 48
  270.11932 24.0 24
  271.11493 8.0 8
  272.12698 14.0 14
  276.12683 5.0 5
  276.13528 6.0 6
  277.13232 7.0 7
  278.15222 68.0 68
  279.14551 37.0 37
  279.1618 12.0 12
  280.12531 7.0 7
  280.14487 9.0 9
  280.15533 6.0 6
  281.15643 12.0 12
  282.11478 8.0 8
  283.11856 5.0 5
  284.12628 46.0 46
  285.1308 9.0 9
  290.14285 8.0 8
  290.15659 7.0 7
  291.14273 8.0 8
  292.13129 14.0 14
  292.15604 34.0 34
  292.16629 15.0 15
  293.16461 26.0 26
  296.12305 14.0 14
  296.13394 7.0 7
  297.13043 9.0 9
  304.13263 7.0 7
  306.13678 7.0 7
  306.1687 13.0 13
  307.15158 9.0 9
  307.18106 427.0 427
  308.15091 7.0 7
  308.18552 165.0 165
  309.18411 11.0 11
  309.19495 12.0 12
  311.14209 17.0 17
  312.14838 27.0 27
  312.16519 7.0 7
  313.16107 6.0 6
  318.14777 9.0 9
  319.14896 12.0 12
  320.1423 15.0 15
  320.16 10.0 10
  321.14642 7.0 7
  321.16074 6.0 6
  324.17813 8.0 8
  335.13773 11.0 11
  335.17517 520.0 519
  336.14737 6.0 6
  336.17917 157.0 157
  337.18259 11.0 11
  338.16245 11.0 11
  338.17749 6.0 6
  339.2027 7.0 7
  351.17188 7.0 7
  352.17062 14.0 14
  352.18518 19.0 19
  365.17188 5.0 5
  365.18866 11.0 11
  367.14615 8.0 8
  367.20068 1000.0 999
  368.15021 6.0 6
  368.16916 6.0 6
  368.2052 281.0 281
  369.20963 48.0 48
  370.20844 6.0 6
  385.17303 27.0 27
  385.21124 578.0 577
//
