ACCESSION: MSBNK-RIKEN-PR300782
RECORD_TITLE: Remerine; LC-ESI-QTOF; MS2
DATE: 2019.03.28
AUTHORS: Tetsuya Mori, Center for Sustainable Resource Science, RIKEN
LICENSE: CC BY-NC-SA
PUBLICATION: Tsugawa H., Nakabayashi R., Mori T., Yamada Y., Takahashi M., Rai A., Sugiyama R., Yamamoto H., Nakaya T., Yamazaki M., Kooke R., Bac-Molenaar JA., Oztolan-Erol N., Keurentjes JJB., Arita M., Saito K. (2019) "A cheminformatics approach to characterize metabolomes in stable-isotope-labeled organisms" Nature Methods 16(4):295-298. [doi:10.1038/s41592-019-0358-2]
COMMENT: registered in RIKEN PlaSMA
CH$NAME: Remerine
CH$COMPOUND_CLASS: Aporphines
CH$FORMULA: C18H17NO2
CH$EXACT_MASS: 279.339
CH$SMILES: CN1CCC2=CC3=C(OCO3)C3=C2C1CC1=CC=CC=C31
CH$IUPAC: InChI=1S/C18H17NO2/c1-19-7-6-12-9-15-18(21-10-20-15)17-13-5-3-2-4-11(13)8-14(19)16(12)17/h2-5,9,14H,6-8,10H2,1H3
CH$LINK: INCHIKEY JCTYWRARKVGOBK-UHFFFAOYSA-N
AC$INSTRUMENT: LC, Waters Acquity UPLC System; MS, Waters Xevo G2 Q-Tof
AC$INSTRUMENT_TYPE: LC-ESI-QTOF
AC$MASS_SPECTROMETRY: MS_TYPE MS2
AC$MASS_SPECTROMETRY: ION_MODE POSITIVE
AC$MASS_SPECTROMETRY: COLLISION_ENERGY 6V
AC$MASS_SPECTROMETRY: DESOLVATION_GAS_FLOW 800/h
AC$MASS_SPECTROMETRY: DESOLVATION_TEMPERATURE 450 C
AC$MASS_SPECTROMETRY: IONIZATION ESI
AC$CHROMATOGRAPHY: CAPILLARY_VOLTAGE +3.00 kV
AC$CHROMATOGRAPHY: COLUMN_NAME Acquity bridged ethyl hybrid C18 (1.7 um, 2.1 mm * 100 mm, Waters)
AC$CHROMATOGRAPHY: COLUMN_TEMPERATURE 40 C
AC$CHROMATOGRAPHY: FLOW_GRADIENT A/B = (99.5%/0.5% at 0 min, 99.5%/0.5% at 0.1 min, 20%/80% at 10 min, 0.5%/99.5% at 10.1 min, 0.5%/99.5% at 12.0 min, 99.5%/0.5% at 12.1 min, 99.5%/0.5% at 15.0 min)
AC$CHROMATOGRAPHY: FLOW_RATE 0.3 ml/min at 0 min, 0.3 ml/min at 10 min, 0.4 ml/min at 10.1 min, 0.4 ml/min at 14.4 min, 0.3 ml/min at 14.5 min
AC$CHROMATOGRAPHY: RETENTION_TIME 4.893517
AC$CHROMATOGRAPHY: SOLVENT A water including 0.1% formic acid
AC$CHROMATOGRAPHY: SOLVENT B acetonitrile including 0.1% formic acid
MS$FOCUSED_ION: PRECURSOR_TYPE [M+H]+
MS$FOCUSED_ION: PRECURSOR_M/Z 280.1332052
PK$SPLASH: splash10-0006-0970000000-20407865fe6d775e5cec
PK$NUM_PEAK: 36
PK$PEAK: m/z int. rel.int.
  165.07214 26.0 26
  178.07942 125.0 125
  179.08459 53.0 53
  189.0717 62.0 62
  190.07822 202.0 202
  191.05469 7.0 7
  191.08591 1000.0 999
  192.08983 187.0 187
  193.09203 17.0 17
  193.10049 63.0 63
  194.10785 5.0 5
  201.0697 209.0 209
  202.07677 114.0 114
  203.08559 144.0 144
  204.08855 25.0 25
  206.07121 14.0 14
  207.08072 17.0 17
  218.06786 10.0 10
  219.08089 373.0 373
  220.08197 60.0 60
  220.09062 24.0 24
  221.07117 5.0 5
  221.08563 6.0 6
  221.09561 15.0 15
  222.06964 7.0 7
  231.07219 9.0 9
  231.08539 16.0 16
  232.08806 23.0 23
  233.09857 7.0 7
  234.06972 5.0 5
  247.06624 9.0 9
  247.07828 5.0 5
  248.07123 6.0 6
  249.09177 359.0 359
  250.09557 61.0 61
  251.0914 6.0 6
//
