ACCESSION: MSBNK-RIKEN-PR310453
RECORD_TITLE: Gardneramine; LC-ESI-QTOF; MS2
DATE: 2019.03.28
AUTHORS: Tetsuya Mori, Center for Sustainable Resource Science, RIKEN
LICENSE: CC BY-NC-SA
PUBLICATION: Tsugawa H., Nakabayashi R., Mori T., Yamada Y., Takahashi M., Rai A., Sugiyama R., Yamamoto H., Nakaya T., Yamazaki M., Kooke R., Bac-Molenaar JA., Oztolan-Erol N., Keurentjes JJB., Arita M., Saito K. (2019) "A cheminformatics approach to characterize metabolomes in stable-isotope-labeled organisms" Nature Methods 16(4):295-298. [doi:10.1038/s41592-019-0358-2]
COMMENT: Annotation level-1
CH$NAME: Gardneramine
CH$COMPOUND_CLASS: Indole and derivatives
CH$FORMULA: C23H28N2O5
CH$EXACT_MASS: 412.486
CH$SMILES: COCC=C1CN2C3CC45C2CC1C3COC4=NC1=C5C(OC)=C(OC)C=C1OC
CH$IUPAC: InChI=1S/C23H28N2O5/c1-26-6-5-12-10-25-15-9-23-18(25)7-13(12)14(15)11-30-22(23)24-20-16(27-2)8-17(28-3)21(29-4)19(20)23/h5,8,13-15,18H,6-7,9-11H2,1-4H3
CH$LINK: INCHIKEY RIMDDIPKIZTBHU-UHFFFAOYSA-N
AC$INSTRUMENT: LC, Waters Acquity UPLC System; MS, Waters Xevo G2 Q-Tof
AC$INSTRUMENT_TYPE: LC-ESI-QTOF
AC$MASS_SPECTROMETRY: MS_TYPE MS2
AC$MASS_SPECTROMETRY: ION_MODE POSITIVE
AC$MASS_SPECTROMETRY: COLLISION_ENERGY 6V
AC$MASS_SPECTROMETRY: DESOLVATION_GAS_FLOW 800/h
AC$MASS_SPECTROMETRY: DESOLVATION_TEMPERATURE 450 C
AC$MASS_SPECTROMETRY: IONIZATION ESI
AC$CHROMATOGRAPHY: CAPILLARY_VOLTAGE +3.00 kV
AC$CHROMATOGRAPHY: COLUMN_NAME Acquity bridged ethyl hybrid C18 (1.7 um, 2.1 mm * 100 mm, Waters)
AC$CHROMATOGRAPHY: COLUMN_TEMPERATURE 40 C
AC$CHROMATOGRAPHY: FLOW_GRADIENT A/B = (99.5%/0.5% at 0 min, 99.5%/0.5% at 0.1 min, 20%/80% at 10 min, 0.5%/99.5% at 10.1 min, 0.5%/99.5% at 12.0 min, 99.5%/0.5% at 12.1 min, 99.5%/0.5% at 15.0 min)
AC$CHROMATOGRAPHY: FLOW_RATE 0.3 ml/min at 0 min, 0.3 ml/min at 10 min, 0.4 ml/min at 10.1 min, 0.4 ml/min at 14.4 min, 0.3 ml/min at 14.5 min
AC$CHROMATOGRAPHY: RETENTION_TIME 3.82
AC$CHROMATOGRAPHY: SOLVENT A water including 0.1% formic acid
AC$CHROMATOGRAPHY: SOLVENT B acetonitrile including 0.1% formic acid
MS$FOCUSED_ION: PRECURSOR_TYPE [M+H]+
MS$FOCUSED_ION: PRECURSOR_M/Z 413.2071
PK$SPLASH: splash10-03di-0023900000-707c7929fa8a4d2d9cc4
PK$NUM_PEAK: 710
PK$PEAK: m/z int. rel.int.
  56.04695 20.0 0
  79.05264 42.0 1
  79.0607 20.0 0
  80.03831 21.0 0
  82.05734 28.0 1
  82.06409 49.0 1
  85.05579 37.0 1
  85.66145 18.0 0
  87.38323 50.0 1
  91.04884 17.0 0
  91.05296 55.0 1
  92.05122 55.0 1
  93.05953 23.0 0
  94.05921 24.0 0
  94.06685 23.0 0
  95.04261 34.0 1
  95.07221 21.0 0
  96.04816 17.0 0
  96.07175 41.0 1
  97.08576 21.0 0
  100.08551 24.0 0
  103.05384 57.0 1
  103.48029 21.0 0
  105.06543 85.0 2
  105.07594 37.0 1
  106.05772 49.0 1
  106.06527 138.0 3
  106.07533 76.0 1
  106.65079 33.0 1
  107.06395 25.0 0
  107.07287 18.0 0
  107.08232 27.0 0
  108.0825 21.0 0
  108.09272 33.0 1
  109.06082 66.0 1
  115.0498 28.0 1
  115.05734 32.0 1
  115.61996 20.0 0
  117.05878 25.0 0
  117.10874 22.0 0
  119.06816 97.0 2
  119.08994 59.0 1
  120.03889 24.0 0
  120.07671 153.0 3
  120.0853 25.0 0
  121.08337 32.0 1
  121.09116 39.0 1
  121.3111 38.0 1
  121.63927 28.0 1
  123.01889 35.0 1
  124.07166 30.0 1
  125.07658 19.0 0
  126.09205 23.0 0
  128.06462 24.0 0
  128.10841 21.0 0
  129.0575 50.0 1
  130.06239 26.0 0
  132.06131 39.0 1
  132.08237 190.0 3
  133.08223 27.0 0
  133.0925 106.0 2
  134.06029 30.0 1
  134.09442 148.0 3
  134.1002 62.0 1
  135.09853 17.0 0
  136.08638 30.0 1
  137.09697 62.0 1
  138.08495 54.0 1
  138.10707 46.0 1
  142.06535 35.0 1
  145.03671 20.0 0
  145.08421 77.0 1
  146.07594 41.0 1
  146.09779 104.0 2
  146.10524 52.0 1
  147.08559 67.0 1
  147.40065 31.0 1
  147.56009 19.0 0
  149.06067 26.0 0
  149.07811 22.0 0
  149.12004 24.0 0
  150.08888 17.0 0
  150.09779 29.0 1
  151.09558 44.0 1
  152.10364 20.0 0
  152.11568 31.0 1
  152.79318 33.0 1
  153.10873 43.0 1
  156.05299 40.0 1
  157.20438 20.0 0
  158.05826 17.0 0
  158.09055 205.0 4
  159.10339 39.0 1
  160.04965 38.0 1
  160.0672 36.0 1
  160.10754 17.0 0
  161.05078 23.0 0
  161.07727 34.0 1
  161.08388 40.0 1
  161.09042 30.0 1
  162.05067 26.0 0
  164.09991 63.0 1
  164.10771 165.0 3
  165.10289 65.0 1
  165.11552 87.0 2
  165.39897 20.0 0
  166.04253 42.0 1
  166.06053 27.0 0
  166.08357 58.0 1
  166.11761 138.0 3
  167.12402 63.0 1
  167.13475 49.0 1
  167.75301 20.0 0
  170.08421 17.0 0
  170.10687 29.0 1
  171.05008 44.0 1
  171.09438 37.0 1
  171.10309 21.0 0
  174.05164 41.0 1
  174.26976 23.0 0
  175.05644 31.0 1
  176.0303 26.0 0
  176.06194 73.0 1
  176.07468 71.0 1
  176.11757 23.0 0
  177.0757 26.0 0
  177.08261 33.0 1
  177.11227 24.0 0
  178.03897 37.0 1
  178.05019 17.0 0
  178.0685 83.0 2
  178.12216 90.0 2
  179.11952 19.0 0
  180.10663 42.0 1
  180.13081 21.0 0
  181.03218 29.0 1
  184.06621 21.0 0
  188.05173 19.0 0
  188.06421 25.0 0
  188.10269 20.0 0
  188.59119 17.0 0
  190.04126 19.0 0
  190.04959 32.0 1
  190.08517 62.0 1
  190.11787 27.0 0
  191.05969 35.0 1
  191.08723 29.0 1
  192.03253 81.0 1
  192.0605 24.0 0
  192.08609 31.0 1
  192.09656 18.0 0
  192.10428 31.0 1
  193.13466 42.0 1
  194.11511 25.0 0
  197.04948 17.0 0
  199.04491 24.0 0
  199.65964 23.0 0
  200.0703 22.0 0
  200.0793 23.0 0
  201.10873 19.0 0
  202.0403 18.0 0
  202.08472 36.0 1
  203.01665 17.0 0
  204.05447 74.0 1
  204.06831 190.0 3
  205.0672 39.0 1
  205.07726 79.0 1
  205.0925 22.0 0
  206.05707 25.0 0
  206.06601 40.0 1
  206.07982 241.0 4
  206.09563 45.0 1
  207.0455 71.0 1
  207.08292 47.0 1
  207.1042 109.0 2
  207.39444 28.0 1
  208.0506 31.0 1
  209.08501 35.0 1
  210.06921 26.0 0
  211.06973 21.0 0
  211.2235 42.0 1
  212.06889 27.0 0
  212.08067 20.0 0
  213.02225 26.0 0
  213.06863 27.0 0
  214.07324 24.0 0
  215.04353 58.0 1
  215.10141 33.0 1
  216.02499 37.0 1
  216.05676 23.0 0
  216.06386 32.0 1
  216.08073 41.0 1
  217.03802 20.0 0
  217.05847 93.0 2
  217.07812 22.0 0
  217.11238 28.0 1
  218.04097 528.0 10
  218.04758 257.0 5
  218.08018 41.0 1
  219.03978 33.0 1
  219.05429 45.0 1
  219.06503 56.0 1
  219.08759 40.0 1
  219.10832 28.0 1
  219.9175 19.0 0
  220.01439 36.0 1
  220.05452 114.0 2
  220.065 139.0 3
  220.09256 189.0 3
  220.10896 20.0 0
  221.05389 17.0 0
  221.06387 63.0 1
  221.0914 18.0 0
  221.5284 23.0 0
  222.07063 152.0 3
  222.08723 28.0 1
  222.10706 57.0 1
  223.0708 68.0 1
  223.07666 24.0 0
  223.4209 20.0 0
  226.06544 22.0 0
  227.04738 37.0 1
  227.07547 30.0 1
  227.08511 27.0 0
  227.0941 19.0 0
  228.10657 30.0 1
  228.23573 18.0 0
  229.05885 170.0 3
  230.03673 22.0 0
  230.063 72.0 1
  230.08076 74.0 1
  230.34348 19.0 0
  230.40233 26.0 0
  230.69667 34.0 1
  230.76523 18.0 0
  231.03206 45.0 1
  231.04118 78.0 1
  231.05354 30.0 1
  231.07481 97.0 2
  231.08272 102.0 2
  231.09245 51.0 1
  232.03725 51.0 1
  232.05719 111.0 2
  232.09148 108.0 2
  232.10133 37.0 1
  233.06944 1806.0 33
  233.10614 19.0 0
  233.76625 21.0 0
  234.04454 34.0 1
  234.06413 89.0 2
  234.07362 342.0 6
  234.10204 50.0 1
  234.11703 66.0 1
  235.06868 70.0 1
  235.08945 57.0 1
  236.07764 24.0 0
  236.0854 33.0 1
  237.09377 45.0 1
  238.04797 26.0 0
  238.07483 19.0 0
  238.16658 17.0 0
  239.08311 21.0 0
  239.09578 17.0 0
  240.10316 24.0 0
  241.00746 24.0 0
  241.05737 48.0 1
  241.07109 44.0 1
  241.08148 70.0 1
  242.03796 31.0 1
  242.0632 30.0 1
  242.06898 74.0 1
  242.08875 28.0 1
  242.10452 19.0 0
  243.04471 18.0 0
  243.08144 124.0 2
  243.91629 20.0 0
  243.94618 32.0 1
  244.04138 27.0 0
  244.08484 33.0 1
  244.09245 64.0 1
  244.36728 25.0 0
  244.6553 24.0 0
  245.05023 181.0 3
  245.06552 200.0 4
  245.08937 233.0 4
  245.10287 48.0 1
  246.05489 64.0 1
  246.06966 122.0 2
  246.08737 118.0 2
  246.10756 39.0 1
  246.1179 39.0 1
  246.26057 18.0 0
  247.04256 17.0 0
  247.07904 22.0 0
  247.09863 61.0 1
  248.07462 169.0 3
  248.09103 1143.0 21
  248.2877 18.0 0
  249.05872 33.0 1
  249.08624 39.0 1
  249.09708 163.0 3
  250.0977 20.0 0
  250.14714 35.0 1
  251.09824 20.0 0
  251.1178 30.0 1
  252.12946 57.0 1
  253.05533 29.0 1
  253.10323 28.0 1
  254.04301 20.0 0
  254.07683 23.0 0
  254.09274 27.0 0
  255.07312 17.0 0
  255.11462 21.0 0
  255.34117 20.0 0
  256.06152 85.0 2
  256.08148 18.0 0
  256.09717 18.0 0
  256.87036 29.0 1
  257.06482 47.0 1
  257.44806 17.0 0
  258.05984 46.0 1
  258.08191 48.0 1
  258.09833 27.0 0
  259.07166 186.0 3
  259.10776 51.0 1
  260.07315 188.0 3
  260.08612 173.0 3
  260.10089 38.0 1
  261.07297 65.0 1
  261.08759 211.0 4
  262.07486 24.0 0
  262.09125 59.0 1
  262.1026 104.0 2
  262.45569 17.0 0
  262.78583 20.0 0
  263.07593 19.0 0
  263.09299 54.0 1
  263.10907 67.0 1
  263.12244 41.0 1
  264.09271 32.0 1
  264.9581 17.0 0
  265.06454 22.0 0
  265.08124 18.0 0
  265.09641 48.0 1
  265.13129 21.0 0
  266.09259 18.0 0
  266.10904 28.0 1
  267.07376 21.0 0
  268.01086 22.0 0
  268.09811 22.0 0
  269.0582 61.0 1
  269.1069 40.0 1
  270.06696 29.0 1
  270.08191 29.0 1
  270.0986 44.0 1
  270.43604 27.0 0
  270.77747 18.0 0
  271.06763 35.0 1
  271.08392 107.0 2
  271.09821 18.0 0
  271.22629 17.0 0
  271.86688 18.0 0
  273.03967 88.0 2
  273.0856 495.0 9
  273.12039 20.0 0
  273.8512 21.0 0
  274.07809 35.0 1
  274.09613 108.0 2
  274.90274 18.0 0
  275.1019 123.0 2
  276.05576 18.0 0
  276.10825 33.0 1
  277.09708 21.0 0
  277.10913 39.0 1
  277.12732 59.0 1
  277.13889 32.0 1
  278.05594 25.0 0
  278.06619 46.0 1
  278.10248 25.0 0
  278.11719 17.0 0
  279.07028 22.0 0
  279.08707 24.0 0
  279.12479 30.0 1
  280.05811 33.0 1
  280.07257 50.0 1
  280.09653 24.0 0
  280.11707 19.0 0
  280.46655 34.0 1
  280.99649 29.0 1
  281.05411 25.0 0
  281.06616 30.0 1
  281.09747 22.0 0
  281.13 40.0 1
  282.04361 26.0 0
  282.06909 154.0 3
  282.08005 128.0 2
  282.11182 29.0 1
  283.07074 94.0 2
  283.08383 33.0 1
  283.20837 29.0 1
  284.06946 48.0 1
  284.10443 56.0 1
  285.12241 42.0 1
  286.0946 53.0 1
  286.10553 45.0 1
  286.12686 63.0 1
  287.09534 71.0 1
  287.10904 41.0 1
  287.12643 17.0 0
  287.92444 20.0 0
  288.08401 17.0 0
  288.1196 55.0 1
  288.1282 49.0 1
  288.89392 25.0 0
  289.11826 20.0 0
  289.4819 17.0 0
  290.08456 20.0 0
  290.10135 64.0 1
  290.11545 19.0 0
  290.71213 30.0 1
  291.09436 20.0 0
  291.12048 35.0 1
  291.13095 27.0 0
  292.06552 63.0 1
  292.08078 23.0 0
  292.09497 47.0 1
  292.13062 20.0 0
  293.08978 40.0 1
  293.10522 35.0 1
  293.24448 27.0 0
  293.95898 44.0 1
  294.07895 22.0 0
  295.03448 26.0 0
  295.07239 43.0 1
  295.10709 29.0 1
  295.15506 33.0 1
  296.07825 61.0 1
  296.1246 31.0 1
  296.13647 29.0 1
  296.14523 25.0 0
  297.07852 62.0 1
  297.08798 107.0 2
  297.10025 27.0 0
  297.62933 21.0 0
  298.08914 59.0 1
  298.12967 62.0 1
  299.06064 17.0 0
  299.09204 122.0 2
  299.11121 28.0 1
  301.11676 18.0 0
  301.21216 42.0 1
  301.78024 18.0 0
  303.04895 18.0 0
  303.08963 41.0 1
  303.10223 61.0 1
  303.939 22.0 0
  304.08542 30.0 1
  304.1192 20.0 0
  306.07269 23.0 0
  306.09839 76.0 1
  306.11163 61.0 1
  306.13321 28.0 1
  306.5517 32.0 1
  307.06665 24.0 0
  307.08212 39.0 1
  307.10809 67.0 1
  307.13306 31.0 1
  307.14743 31.0 1
  308.06079 47.0 1
  308.11606 38.0 1
  309.07428 43.0 1
  309.08896 133.0 2
  309.13739 45.0 1
  310.09558 41.0 1
  310.11017 62.0 1
  310.15262 43.0 1
  310.1669 37.0 1
  310.61783 17.0 0
  310.90924 23.0 0
  310.99289 19.0 0
  311.08234 51.0 1
  311.11612 54.0 1
  311.1326 47.0 1
  311.15121 33.0 1
  311.16125 38.0 1
  312.09967 18.0 0
  312.11478 91.0 2
  312.12985 30.0 1
  313.02966 20.0 0
  313.12164 118.0 2
  315.12756 40.0 1
  316.10074 61.0 1
  317.09732 28.0 1
  317.1394 18.0 0
  318.11923 18.0 0
  319.09439 65.0 1
  319.11383 21.0 0
  319.13937 17.0 0
  321.08575 63.0 1
  321.10165 39.0 1
  321.1311 30.0 1
  321.15292 17.0 0
  321.80988 22.0 0
  322.108 55.0 1
  322.12521 40.0 1
  322.1402 21.0 0
  322.77908 20.0 0
  323.06625 19.0 0
  323.09494 215.0 4
  323.11453 115.0 2
  323.13742 87.0 2
  324.09705 22.0 0
  324.11441 24.0 0
  324.12271 48.0 1
  324.13791 40.0 1
  324.15585 92.0 2
  324.16357 31.0 1
  324.26764 18.0 0
  325.11249 112.0 2
  325.13107 20.0 0
  325.15195 29.0 1
  325.16626 22.0 0
  326.07809 17.0 0
  326.09982 69.0 1
  326.1275 87.0 2
  326.19257 21.0 0
  326.61536 18.0 0
  327.11392 30.0 1
  327.14514 20.0 0
  328.1315 33.0 1
  329.11026 21.0 0
  329.5672 28.0 1
  330.6828 23.0 0
  331.12711 42.0 1
  331.17679 28.0 1
  332.11633 52.0 1
  333.09167 38.0 1
  333.11536 20.0 0
  333.12628 18.0 0
  333.14014 17.0 0
  333.23047 41.0 1
  334.09732 113.0 2
  334.1098 113.0 2
  334.13379 51.0 1
  335.09811 208.0 4
  335.1124 122.0 2
  335.13733 22.0 0
  335.147 24.0 0
  336.08115 95.0 2
  336.10547 115.0 2
  336.13049 145.0 3
  336.19098 17.0 0
  337.04691 23.0 0
  337.06851 23.0 0
  337.11563 274.0 5
  337.13226 96.0 2
  337.16394 108.0 2
  338.09494 27.0 0
  338.1105 87.0 2
  338.12216 39.0 1
  338.15207 226.0 4
  338.17108 42.0 1
  339.12888 41.0 1
  339.14716 177.0 3
  340.09756 27.0 0
  340.12692 94.0 2
  340.29971 45.0 1
  340.73956 21.0 0
  342.25668 49.0 1
  344.22284 39.0 1
  345.51801 44.0 1
  347.13266 19.0 0
  347.1481 23.0 0
  348.05554 20.0 0
  348.11783 18.0 0
  348.14343 26.0 0
  349.1192 42.0 1
  349.14459 239.0 4
  349.57962 47.0 1
  350.10129 38.0 1
  350.12265 64.0 1
  350.14008 57.0 1
  350.1644 32.0 1
  351.10666 56.0 1
  351.12738 362.0 7
  351.14246 308.0 6
  352.10098 24.0 0
  352.12137 124.0 2
  352.14249 123.0 2
  352.15643 27.0 0
  352.39954 18.0 0
  352.5564 33.0 1
  353.11465 64.0 1
  353.14529 475.0 9
  353.17694 34.0 1
  353.18762 38.0 1
  353.7558 17.0 0
  354.11633 23.0 0
  354.146 223.0 4
  354.1651 116.0 2
  354.39621 25.0 0
  355.14224 25.0 0
  355.16058 236.0 4
  355.18146 24.0 0
  356.17657 21.0 0
  356.19168 25.0 0
  356.26172 27.0 0
  357.12357 61.0 1
  357.15048 36.0 1
  357.17941 54.0 1
  359.13702 27.0 0
  359.15601 148.0 3
  364.85284 26.0 0
  365.134 261.0 5
  365.15985 401.0 7
  366.03775 23.0 0
  366.14185 242.0 4
  366.15775 736.0 14
  367.02051 17.0 0
  367.0343 55.0 1
  367.12057 36.0 1
  367.13788 171.0 3
  367.16501 1713.0 31
  367.43637 24.0 0
  367.55975 63.0 1
  367.694 18.0 0
  367.76193 17.0 0
  368.12671 19.0 0
  368.15912 397.0 7
  368.17862 124.0 2
  368.75513 17.0 0
  369.13803 67.0 1
  369.17255 43.0 1
  369.87402 20.0 0
  369.98425 20.0 0
  370.1658 56.0 1
  370.18765 139.0 3
  370.32883 54.0 1
  370.58267 32.0 1
  371.14728 18.0 0
  371.19418 85.0 2
  371.215 21.0 0
  372.19473 27.0 0
  372.40659 17.0 0
  372.47333 20.0 0
  379.15649 25.0 0
  381.16742 127.0 2
  381.20035 50.0 1
  382.147 67.0 1
  382.17139 73.0 1
  382.18723 56.0 1
  383.11826 100.0 2
  383.15817 1405.0 26
  384.1185 47.0 1
  384.14944 150.0 3
  384.16556 110.0 2
  384.18503 24.0 0
  384.21078 38.0 1
  385.16092 92.0 2
  385.17499 28.0 1
  386.32611 25.0 0
  386.83243 36.0 1
  387.98282 22.0 0
  392.52341 20.0 0
  396.80997 17.0 0
  396.86035 20.0 0
  397.08698 25.0 0
  397.17346 505.0 9
  397.26703 27.0 0
  397.49139 19.0 0
  397.56433 20.0 0
  398.14941 47.0 1
  398.18219 1465.0 27
  398.22577 38.0 1
  398.3237 21.0 0
  398.38235 25.0 0
  398.6712 22.0 0
  398.92706 18.0 0
  399.08484 18.0 0
  399.12515 33.0 1
  399.16135 37.0 1
  399.18765 383.0 7
  399.92648 30.0 1
  400.05588 28.0 1
  400.17987 37.0 1
  400.19458 20.0 0
  400.89493 30.0 1
  401.88876 20.0 0
  405.15265 17.0 0
  405.68979 25.0 0
  405.72714 20.0 0
  409.5256 17.0 0
  409.55161 18.0 0
  411.16751 24.0 0
  411.8923 33.0 1
  411.92178 18.0 0
  412.13449 17.0 0
  412.20102 23.0 0
  412.71957 18.0 0
  412.77866 17.0 0
  412.95441 18.0 0
  413.0036 42.0 1
  413.07111 53.0 1
  413.13556 388.0 7
  413.15323 270.0 5
  413.2059 54431.0 999
  413.26535 992.0 18
  413.3067 37.0 1
  413.3671 24.0 0
  413.39536 47.0 1
//
