ACCESSION: MSBNK-RIKEN-PR310606
RECORD_TITLE: Protopine; LC-ESI-QTOF; MS2
DATE: 2019.03.28
AUTHORS: Tetsuya Mori, Center for Sustainable Resource Science, RIKEN
LICENSE: CC BY-NC-SA
PUBLICATION: Tsugawa H., Nakabayashi R., Mori T., Yamada Y., Takahashi M., Rai A., Sugiyama R., Yamamoto H., Nakaya T., Yamazaki M., Kooke R., Bac-Molenaar JA., Oztolan-Erol N., Keurentjes JJB., Arita M., Saito K. (2019) "A cheminformatics approach to characterize metabolomes in stable-isotope-labeled organisms" Nature Methods 16(4):295-298. [doi:10.1038/s41592-019-0358-2]
COMMENT: Annotation level-1
CH$NAME: Protopine
CH$COMPOUND_CLASS: Alkaloids
CH$FORMULA: C20H19NO5
CH$EXACT_MASS: 353.374
CH$SMILES: CN1CCC2=CC3=C(OCO3)C=C2C(=O)CC2=C(C1)C1=C(OCO1)C=C2
CH$IUPAC: InChI=1S/C20H19NO5/c1-21-5-4-13-7-18-19(25-10-24-18)8-14(13)16(22)6-12-2-3-17-20(15(12)9-21)26-11-23-17/h2-3,7-8H,4-6,9-11H2,1H3
CH$LINK: INCHIKEY GPTFURBXHJWNHR-UHFFFAOYSA-N
AC$INSTRUMENT: LC, Waters Acquity UPLC System; MS, Waters Xevo G2 Q-Tof
AC$INSTRUMENT_TYPE: LC-ESI-QTOF
AC$MASS_SPECTROMETRY: MS_TYPE MS2
AC$MASS_SPECTROMETRY: ION_MODE POSITIVE
AC$MASS_SPECTROMETRY: COLLISION_ENERGY 6V
AC$MASS_SPECTROMETRY: DESOLVATION_GAS_FLOW 800/h
AC$MASS_SPECTROMETRY: DESOLVATION_TEMPERATURE 450 C
AC$MASS_SPECTROMETRY: IONIZATION ESI
AC$CHROMATOGRAPHY: CAPILLARY_VOLTAGE +3.00 kV
AC$CHROMATOGRAPHY: COLUMN_NAME Acquity bridged ethyl hybrid C18 (1.7 um, 2.1 mm * 100 mm, Waters)
AC$CHROMATOGRAPHY: COLUMN_TEMPERATURE 40 C
AC$CHROMATOGRAPHY: FLOW_GRADIENT A/B = (99.5%/0.5% at 0 min, 99.5%/0.5% at 0.1 min, 20%/80% at 10 min, 0.5%/99.5% at 10.1 min, 0.5%/99.5% at 12.0 min, 99.5%/0.5% at 12.1 min, 99.5%/0.5% at 15.0 min)
AC$CHROMATOGRAPHY: FLOW_RATE 0.3 ml/min at 0 min, 0.3 ml/min at 10 min, 0.4 ml/min at 10.1 min, 0.4 ml/min at 14.4 min, 0.3 ml/min at 14.5 min
AC$CHROMATOGRAPHY: RETENTION_TIME 4.36
AC$CHROMATOGRAPHY: SOLVENT A water including 0.1% formic acid
AC$CHROMATOGRAPHY: SOLVENT B acetonitrile including 0.1% formic acid
MS$FOCUSED_ION: PRECURSOR_TYPE [M+H]+
MS$FOCUSED_ION: PRECURSOR_M/Z 354.1336
PK$SPLASH: splash10-0udi-0529000000-011b4a783ef21f2ecca3
PK$NUM_PEAK: 318
PK$PEAK: m/z int. rel.int.
  58.06511 19.0 1
  59.76117 22.0 1
  74.01943 18.0 1
  79.05568 17.0 1
  91.01349 22.0 1
  91.05491 94.0 3
  91.0591 143.0 5
  92.05301 18.0 1
  103.04633 17.0 1
  103.05721 30.0 1
  107.03827 75.0 2
  107.04884 109.0 4
  107.05663 103.0 3
  108.05766 44.0 1
  109.06551 61.0 2
  117.02551 19.0 1
  119.01962 17.0 1
  119.03058 22.0 1
  119.04852 228.0 8
  120.05751 31.0 1
  126.02673 27.0 1
  129.02748 36.0 1
  130.06937 29.0 1
  131.04971 68.0 2
  131.07593 32.0 1
  131.56462 36.0 1
  132.07765 21.0 1
  135.04596 311.0 10
  136.04787 116.0 4
  137.05199 19.0 1
  137.067 18.0 1
  142.85069 37.0 1
  143.04988 27.0 1
  144.08133 18.0 1
  147.04271 158.0 5
  147.05191 27.0 1
  148.01477 25.0 1
  148.06116 17.0 1
  149.04538 46.0 2
  149.06047 2329.0 77
  149.56432 22.0 1
  150.06509 174.0 6
  151.05702 18.0 1
  151.06737 75.0 2
  151.49171 17.0 1
  152.06422 20.0 1
  155.88853 18.0 1
  159.01773 32.0 1
  159.02901 23.0 1
  159.03665 81.0 3
  159.04602 73.0 2
  159.06299 101.0 3
  159.07315 369.0 12
  160.0517 43.0 1
  160.06873 55.0 2
  160.07706 119.0 4
  161.0589 58.0 2
  161.07826 27.0 1
  161.0876 69.0 2
  162.09026 17.0 1
  163.03905 216.0 7
  164.06232 21.0 1
  164.07794 55.0 2
  164.96207 32.0 1
  165.05499 774.0 26
  165.12289 21.0 1
  166.05814 74.0 2
  167.04893 25.0 1
  167.08707 100.0 3
  167.10051 29.0 1
  169.08316 20.0 1
  172.05138 49.0 2
  172.94182 19.0 1
  173.05699 86.0 3
  174.0596 78.0 3
  175.04019 346.0 11
  175.06424 18.0 1
  176.04155 50.0 2
  176.07256 150.0 5
  177.06181 17.0 1
  177.07471 226.0 7
  177.09012 53.0 2
  178.05696 30.0 1
  178.06522 24.0 1
  178.0849 195.0 6
  178.09636 70.0 2
  179.04877 18.0 1
  179.08754 133.0 4
  179.0947 55.0 2
  180.08458 20.0 1
  180.10109 20.0 1
  181.05942 50.0 2
  181.26859 44.0 1
  183.85941 19.0 1
  185.04576 17.0 1
  186.45497 21.0 1
  186.48914 20.0 1
  187.0401 24.0 1
  187.46014 20.0 1
  188.02991 24.0 1
  188.07117 5552.0 183
  189.02069 22.0 1
  189.04778 31.0 1
  189.07855 5996.0 198
  189.77452 17.0 1
  190.05971 29.0 1
  190.07646 477.0 16
  190.08456 932.0 31
  191.07698 47.0 2
  191.09303 95.0 3
  192.05869 17.0 1
  192.06741 26.0 1
  192.10461 92.0 3
  193.10051 48.0 2
  194.07837 18.0 1
  195.08026 365.0 12
  196.08458 18.0 1
  197.08951 20.0 1
  197.86409 20.0 1
  198.09454 19.0 1
  202.0853 59.0 2
  204.06898 67.0 2
  205.06281 127.0 4
  205.07884 43.0 1
  206.08269 1130.0 37
  207.02019 20.0 1
  207.03479 20.0 1
  207.0755 134.0 4
  207.08646 433.0 14
  207.27126 18.0 1
  208.08658 40.0 1
  209.02827 29.0 1
  209.06023 205.0 7
  210.05469 20.0 1
  210.06696 88.0 3
  210.09941 19.0 1
  211.0688 36.0 1
  211.51756 31.0 1
  213.38274 18.0 1
  214.55688 17.0 1
  216.50407 29.0 1
  217.06677 361.0 12
  218.0583 23.0 1
  218.06975 79.0 3
  219.07608 49.0 2
  219.08353 55.0 2
  220.09036 35.0 1
  220.98166 18.0 1
  221.06688 18.0 1
  221.08147 29.0 1
  221.10095 28.0 1
  222.06445 27.0 1
  222.39618 17.0 1
  223.07639 288.0 9
  225.09163 159.0 5
  227.09891 27.0 1
  231.89795 41.0 1
  233.03929 23.0 1
  233.05476 21.0 1
  233.07021 20.0 1
  233.07996 21.0 1
  233.11345 23.0 1
  234.08685 22.0 1
  234.95483 20.0 1
  235.06372 74.0 2
  235.07777 344.0 11
  235.70813 28.0 1
  236.09087 23.0 1
  236.1205 40.0 1
  237.05634 40.0 1
  237.0661 58.0 2
  237.08958 293.0 10
  238.04649 20.0 1
  238.06279 39.0 1
  238.08383 61.0 2
  238.09827 20.0 1
  238.11061 31.0 1
  239.05937 17.0 1
  242.0488 19.0 1
  245.06213 107.0 4
  246.07286 36.0 1
  247.06387 166.0 5
  247.0771 941.0 31
  248.05176 97.0 3
  248.07268 89.0 3
  248.0883 123.0 4
  248.35466 19.0 1
  249.07817 38.0 1
  249.09302 47.0 2
  249.11713 27.0 1
  250.18015 17.0 1
  251.06718 48.0 2
  253.08969 67.0 2
  253.8994 19.0 1
  254.08051 20.0 1
  254.09383 58.0 2
  255.11134 28.0 1
  256.56143 18.0 1
  257.80658 36.0 1
  259.07584 30.0 1
  261.07361 24.0 1
  261.09708 25.0 1
  262.0542 21.0 1
  262.08966 17.0 1
  263.06494 71.0 2
  263.07956 74.0 2
  264.07797 39.0 1
  264.10037 31.0 1
  264.95645 24.0 1
  265.05084 41.0 1
  265.08228 336.0 11
  265.09982 40.0 1
  266.06497 20.0 1
  266.07806 25.0 1
  266.09332 42.0 1
  266.10333 18.0 1
  266.60406 20.0 1
  267.052 36.0 1
  267.06747 198.0 7
  267.09372 25.0 1
  267.93915 19.0 1
  268.08685 20.0 1
  269.08142 121.0 4
  275.07117 1166.0 38
  276.048 17.0 1
  276.06082 77.0 3
  276.07886 233.0 8
  276.09674 27.0 1
  277.09158 125.0 4
  278.11926 288.0 9
  279.00037 20.0 1
  279.07217 73.0 2
  279.12744 60.0 2
  280.06546 63.0 2
  281.06668 24.0 1
  281.09238 19.0 1
  283.09464 143.0 5
  284.10043 90.0 3
  284.12384 21.0 1
  284.44989 18.0 1
  284.58447 33.0 1
  285.35223 41.0 1
  289.07745 35.0 1
  291.07263 18.0 1
  292.10184 18.0 1
  292.12094 18.0 1
  292.9635 24.0 1
  293.08917 220.0 7
  295.08914 175.0 6
  295.10556 104.0 3
  296.06561 20.0 1
  296.08713 17.0 1
  296.81314 19.0 1
  301.28665 18.0 1
  304.08994 46.0 2
  304.10342 54.0 2
  305.07028 75.0 2
  305.08209 191.0 6
  305.10876 20.0 1
  306.07391 83.0 3
  306.09253 17.0 1
  306.11456 148.0 5
  307.02042 18.0 1
  307.07779 20.0 1
  307.09268 66.0 2
  307.11807 55.0 2
  309.10788 46.0 2
  309.52792 17.0 1
  311.08582 44.0 1
  312.10327 23.0 1
  312.40753 24.0 1
  316.38034 17.0 1
  318.08316 21.0 1
  318.11502 21.0 1
  320.0741 24.0 1
  320.09036 356.0 12
  321.08203 38.0 1
  321.09753 102.0 3
  321.11108 97.0 3
  321.26968 27.0 1
  321.31644 17.0 1
  322.09598 84.0 3
  322.21378 25.0 1
  323.08832 203.0 7
  323.0979 152.0 5
  323.68677 24.0 1
  324.0961 39.0 1
  324.12103 17.0 1
  326.13953 17.0 1
  330.49573 28.0 1
  332.09006 61.0 2
  334.09384 23.0 1
  334.10535 74.0 2
  334.12201 134.0 4
  335.11273 23.0 1
  335.24832 20.0 1
  336.10602 57.0 2
  336.12683 590.0 19
  337.13638 100.0 3
  340.28363 19.0 1
  347.37488 17.0 1
  348.31589 20.0 1
  351.29483 20.0 1
  352.91589 20.0 1
  353.15573 20.0 1
  353.29272 20.0 1
  353.67908 20.0 1
  353.75974 20.0 1
  353.81564 17.0 1
  353.8428 17.0 1
  354.00412 22.0 1
  354.05835 17.0 1
  354.07947 182.0 6
  354.09787 27.0 1
  354.13382 30321.0 999
  354.18814 737.0 24
  354.22455 24.0 1
  354.2388 20.0 1
//
