ACCESSION: MSBNK-RIKEN-PR300464
RECORD_TITLE: Emetine; LC-ESI-QTOF; MS2
DATE: 2019.03.28
AUTHORS: Tetsuya Mori, Center for Sustainable Resource Science, RIKEN
LICENSE: CC BY-NC-SA
PUBLICATION: Tsugawa H., Nakabayashi R., Mori T., Yamada Y., Takahashi M., Rai A., Sugiyama R., Yamamoto H., Nakaya T., Yamazaki M., Kooke R., Bac-Molenaar JA., Oztolan-Erol N., Keurentjes JJB., Arita M., Saito K. (2019) "A cheminformatics approach to characterize metabolomes in stable-isotope-labeled organisms" Nature Methods 16(4):295-298. [doi:10.1038/s41592-019-0358-2]
COMMENT: registered in RIKEN PlaSMA
CH$NAME: Emetine
CH$COMPOUND_CLASS: Emetine alkaloids
CH$FORMULA: C29H40N2O4
CH$EXACT_MASS: 480.649
CH$SMILES: CC[C@H]1CN2CCC3=CC(OC)=C(OC)C=C3[C@@H]2C[C@@H]1C[C@H]1NCCC2=CC(OC)=C(OC)C=C12
CH$IUPAC: InChI=1S/C29H40N2O4/c1-6-18-17-31-10-8-20-14-27(33-3)29(35-5)16-23(20)25(31)12-21(18)11-24-22-15-28(34-4)26(32-2)13-19(22)7-9-30-24/h13-16,18,21,24-25,30H,6-12,17H2,1-5H3/t18-,21-,24+,25-/m0/s1
CH$LINK: INCHIKEY AUVVAXYIELKVAI-CKBKHPSWSA-N
AC$INSTRUMENT: LC, Waters Acquity UPLC System; MS, Waters Xevo G2 Q-Tof
AC$INSTRUMENT_TYPE: LC-ESI-QTOF
AC$MASS_SPECTROMETRY: MS_TYPE MS2
AC$MASS_SPECTROMETRY: ION_MODE POSITIVE
AC$MASS_SPECTROMETRY: COLLISION_ENERGY 6V
AC$MASS_SPECTROMETRY: DESOLVATION_GAS_FLOW 800/h
AC$MASS_SPECTROMETRY: DESOLVATION_TEMPERATURE 450 C
AC$MASS_SPECTROMETRY: IONIZATION ESI
AC$CHROMATOGRAPHY: CAPILLARY_VOLTAGE +3.00 kV
AC$CHROMATOGRAPHY: COLUMN_NAME Acquity bridged ethyl hybrid C18 (1.7 um, 2.1 mm * 100 mm, Waters)
AC$CHROMATOGRAPHY: COLUMN_TEMPERATURE 40 C
AC$CHROMATOGRAPHY: FLOW_GRADIENT A/B = (99.5%/0.5% at 0 min, 99.5%/0.5% at 0.1 min, 20%/80% at 10 min, 0.5%/99.5% at 10.1 min, 0.5%/99.5% at 12.0 min, 99.5%/0.5% at 12.1 min, 99.5%/0.5% at 15.0 min)
AC$CHROMATOGRAPHY: FLOW_RATE 0.3 ml/min at 0 min, 0.3 ml/min at 10 min, 0.4 ml/min at 10.1 min, 0.4 ml/min at 14.4 min, 0.3 ml/min at 14.5 min
AC$CHROMATOGRAPHY: RETENTION_TIME 3.412183
AC$CHROMATOGRAPHY: SOLVENT A water including 0.1% formic acid
AC$CHROMATOGRAPHY: SOLVENT B acetonitrile including 0.1% formic acid
MS$FOCUSED_ION: PRECURSOR_TYPE [M+H]+
MS$FOCUSED_ION: PRECURSOR_M/Z 481.3060842
PK$SPLASH: splash10-001j-0390800000-3503e5f4a3da8425f57e
PK$NUM_PEAK: 162
PK$PEAK: m/z int. rel.int.
  84.08237 7.0 7
  124.12001 13.0 13
  146.06531 10.0 10
  147.06792 7.0 7
  147.08037 7.0 7
  150.08337 6.0 6
  151.07501 10.0 10
  151.08261 9.0 9
  153.09026 7.0 7
  160.09149 6.0 6
  162.08635 20.0 20
  164.08511 8.0 8
  165.08669 15.0 15
  165.0977 13.0 13
  165.75894 7.0 7
  166.09209 14.0 14
  168.98004 11.0 11
  169.12427 10.0 10
  170.33409 6.0 6
  174.04674 10.0 10
  176.10069 15.0 15
  177.0789 5.0 5
  177.09149 65.0 65
  178.09879 18.0 18
  179.10231 47.0 47
  180.11758 8.0 8
  189.09128 15.0 15
  189.10159 7.0 7
  190.07454 7.0 7
  190.09727 12.0 12
  191.08594 12.0 12
  191.10783 19.0 19
  191.117 25.0 25
  192.09593 58.0 58
  192.10478 58.0 58
  192.11671 9.0 9
  193.09369 5.0 5
  193.10182 10.0 10
  193.12151 12.0 12
  193.80737 6.0 6
  194.11624 137.0 137
  194.136 7.0 7
  195.12029 9.0 9
  195.133 11.0 11
  201.08919 12.0 12
  202.09058 9.0 9
  203.10234 12.0 12
  204.09596 12.0 12
  205.11017 24.0 24
  206.10854 22.0 22
  206.11859 15.0 15
  207.11296 6.0 6
  210.15135 6.0 6
  210.42183 6.0 6
  213.89729 7.0 7
  214.62598 7.0 7
  215.11632 6.0 6
  217.13095 10.0 10
  218.11314 21.0 21
  218.12473 7.0 7
  219.14456 5.0 5
  220.13289 20.0 20
  220.14609 6.0 6
  221.11766 5.0 5
  221.14229 6.0 6
  222.1474 7.0 7
  223.14061 7.0 7
  223.16289 8.0 8
  226.13943 10.0 10
  230.11856 8.0 8
  230.12929 6.0 6
  231.12656 14.0 14
  233.14203 8.0 8
  242.12587 7.0 7
  243.12032 15.0 15
  243.13388 15.0 15
  244.14268 20.0 20
  245.15903 7.0 7
  246.1489 588.0 587
  246.25204 6.0 6
  247.15205 93.0 93
  247.1608 26.0 26
  248.16298 7.0 7
  249.16072 12.0 12
  251.7021 5.0 5
  257.1492 22.0 22
  257.16879 7.0 7
  258.15115 11.0 11
  259.14532 9.0 9
  260.15762 7.0 7
  270.14844 6.0 6
  270.46594 14.0 14
  271.73093 6.0 6
  272.16272 185.0 185
  273.16586 34.0 34
  273.18533 7.0 7
  273.98227 7.0 7
  274.1456 10.0 10
  274.1709 90.0 90
  274.18146 299.0 299
  274.21649 6.0 6
  275.18185 51.0 51
  276.168 13.0 13
  276.19629 11.0 11
  277.2088 8.0 8
  285.15747 8.0 8
  285.60666 5.0 5
  286.15665 8.0 8
  286.17609 34.0 34
  286.19098 14.0 14
  288.18521 11.0 11
  288.20322 17.0 17
  290.19467 7.0 7
  295.13559 7.0 7
  296.15604 8.0 8
  300.20306 34.0 34
  301.20621 7.0 7
  303.21561 6.0 6
  306.11874 13.0 13
  351.1713 7.0 7
  382.19177 8.0 8
  386.25882 6.0 6
  388.84204 8.0 8
  392.17838 8.0 8
  400.25113 6.0 6
  403.23901 8.0 8
  409.17563 5.0 5
  409.24161 6.0 6
  419.21078 5.0 5
  420.2847 7.0 7
  430.2514 12.0 12
  433.2663 17.0 17
  435.24841 12.0 12
  436.22696 7.0 7
  436.25256 16.0 16
  437.25778 8.0 8
  446.22586 7.0 7
  448.22244 6.0 6
  448.24826 14.0 14
  449.26401 26.0 26
  450.28122 7.0 7
  451.2453 8.0 8
  451.27408 5.0 5
  455.25946 6.0 6
  462.26352 7.0 7
  462.27878 7.0 7
  463.28214 7.0 7
  464.22623 7.0 7
  464.27203 144.0 144
  464.29163 192.0 192
  464.89261 7.0 7
  465.22488 5.0 5
  465.28452 69.0 69
  466.28015 15.0 15
  466.29578 9.0 9
  466.35959 5.0 5
  479.28961 27.0 27
  479.30905 34.0 34
  480.29034 18.0 18
  481.23358 10.0 10
  481.26196 68.0 68
  481.30774 1000.0 999
//
