ACCESSION: MSBNK-RIKEN-PR310566
RECORD_TITLE: Koumidine; LC-ESI-QTOF; MS2
DATE: 2019.03.28
AUTHORS: Tetsuya Mori, Center for Sustainable Resource Science, RIKEN
LICENSE: CC BY-NC-SA
PUBLICATION: Tsugawa H., Nakabayashi R., Mori T., Yamada Y., Takahashi M., Rai A., Sugiyama R., Yamamoto H., Nakaya T., Yamazaki M., Kooke R., Bac-Molenaar JA., Oztolan-Erol N., Keurentjes JJB., Arita M., Saito K. (2019) "A cheminformatics approach to characterize metabolomes in stable-isotope-labeled organisms" Nature Methods 16(4):295-298. [doi:10.1038/s41592-019-0358-2]
COMMENT: Annotation level-1
CH$NAME: Koumidine
CH$COMPOUND_CLASS: Alkaloids
CH$FORMULA: C19H22N2O
CH$EXACT_MASS: 294.398
CH$SMILES: CC=C1CN2C3CC4=C(NC5=CC=CC=C45)C2CC1C3CO
CH$IUPAC: InChI=1S/C19H22N2O/c1-2-11-9-21-17-8-14-12-5-3-4-6-16(12)20-19(14)18(21)7-13(11)15(17)10-22/h2-6,13,15,17-18,20,22H,7-10H2,1H3
CH$LINK: INCHIKEY VXTDUGOBAOLMED-UHFFFAOYSA-N
AC$INSTRUMENT: LC, Waters Acquity UPLC System; MS, Waters Xevo G2 Q-Tof
AC$INSTRUMENT_TYPE: LC-ESI-QTOF
AC$MASS_SPECTROMETRY: MS_TYPE MS2
AC$MASS_SPECTROMETRY: ION_MODE POSITIVE
AC$MASS_SPECTROMETRY: COLLISION_ENERGY 6V
AC$MASS_SPECTROMETRY: DESOLVATION_GAS_FLOW 800/h
AC$MASS_SPECTROMETRY: DESOLVATION_TEMPERATURE 450 C
AC$MASS_SPECTROMETRY: IONIZATION ESI
AC$CHROMATOGRAPHY: CAPILLARY_VOLTAGE +3.00 kV
AC$CHROMATOGRAPHY: COLUMN_NAME Acquity bridged ethyl hybrid C18 (1.7 um, 2.1 mm * 100 mm, Waters)
AC$CHROMATOGRAPHY: COLUMN_TEMPERATURE 40 C
AC$CHROMATOGRAPHY: FLOW_GRADIENT A/B = (99.5%/0.5% at 0 min, 99.5%/0.5% at 0.1 min, 20%/80% at 10 min, 0.5%/99.5% at 10.1 min, 0.5%/99.5% at 12.0 min, 99.5%/0.5% at 12.1 min, 99.5%/0.5% at 15.0 min)
AC$CHROMATOGRAPHY: FLOW_RATE 0.3 ml/min at 0 min, 0.3 ml/min at 10 min, 0.4 ml/min at 10.1 min, 0.4 ml/min at 14.4 min, 0.3 ml/min at 14.5 min
AC$CHROMATOGRAPHY: RETENTION_TIME 3.58
AC$CHROMATOGRAPHY: SOLVENT A water including 0.1% formic acid
AC$CHROMATOGRAPHY: SOLVENT B acetonitrile including 0.1% formic acid
MS$FOCUSED_ION: PRECURSOR_TYPE [M+H]+
MS$FOCUSED_ION: PRECURSOR_M/Z 295.18049
PK$SPLASH: splash10-0002-0390000000-1ca5b6df461dff02f788
PK$NUM_PEAK: 443
PK$PEAK: m/z int. rel.int.
  55.01755 20.0 0
  58.0662 23.0 0
  71.0459 28.0 1
  72.12263 20.0 0
  75.01463 17.0 0
  79.0533 24.0 1
  81.06993 34.0 1
  82.05396 26.0 1
  82.06893 37.0 1
  84.08385 83.0 2
  86.0602 35.0 1
  86.11031 21.0 0
  87.82236 18.0 0
  91.05586 203.0 4
  91.49139 17.0 0
  92.04797 21.0 0
  93.05563 23.0 0
  93.06077 70.0 1
  93.06745 96.0 2
  94.04452 30.0 1
  94.06413 90.0 2
  94.97451 17.0 0
  95.08816 24.0 1
  96.07785 33.0 1
  96.08245 35.0 1
  96.09306 25.0 1
  98.09697 18.0 0
  103.05209 67.0 1
  104.05824 29.0 1
  105.0284 22.0 0
  105.06874 35.0 1
  106.06114 56.0 1
  106.06739 58.0 1
  106.83118 17.0 0
  107.08324 37.0 1
  108.04008 17.0 0
  108.06776 43.0 1
  108.08067 1176.0 25
  109.06687 77.0 2
  109.08526 215.0 4
  109.83607 17.0 0
  110.01857 36.0 1
  110.0949 198.0 4
  111.07483 17.0 0
  111.08066 50.0 1
  113.08049 31.0 1
  113.22009 21.0 0
  117.03966 27.0 1
  117.0573 139.0 3
  117.06889 103.0 2
  117.07473 71.0 1
  118.06587 102.0 2
  119.06127 20.0 0
  119.07391 112.0 2
  119.42242 18.0 0
  120.06789 21.0 0
  120.07651 131.0 3
  120.08243 293.0 6
  121.05191 20.0 0
  121.08167 116.0 2
  121.08972 201.0 4
  121.14661 17.0 0
  122.06362 50.0 1
  122.09615 596.0 12
  123.06581 31.0 1
  123.07181 46.0 1
  123.10023 93.0 2
  123.98293 30.0 1
  124.11047 22.0 0
  125.08117 47.0 1
  126.0782 23.0 0
  126.08778 19.0 0
  127.05747 22.0 0
  127.313 17.0 0
  128.04782 38.0 1
  128.06085 200.0 4
  128.10834 20.0 0
  129.05989 108.0 2
  129.07008 488.0 10
  129.08092 36.0 1
  130.06654 864.0 18
  131.05907 64.0 1
  131.07353 524.0 11
  131.08904 40.0 1
  132.06606 21.0 0
  132.08197 340.0 7
  133.08434 71.0 1
  133.09399 22.0 0
  133.6846 22.0 0
  134.07579 22.0 0
  134.09178 126.0 3
  134.09836 480.0 10
  134.16118 28.0 1
  135.09657 103.0 2
  135.10522 55.0 1
  136.11224 40.0 1
  136.58325 29.0 1
  137.08226 17.0 0
  138.07393 76.0 2
  138.09145 1863.0 39
  139.09637 153.0 3
  140.1033 73.0 2
  141.07101 23.0 0
  142.08081 23.0 0
  143.04704 18.0 0
  143.07437 412.0 9
  143.08681 88.0 2
  144.08066 2466.0 51
  144.09583 24.0 1
  144.26308 20.0 0
  145.0737 127.0 3
  145.08403 387.0 8
  146.06377 20.0 0
  146.07484 41.0 1
  146.09518 1104.0 23
  146.81111 18.0 0
  147.0818 132.0 3
  147.09859 111.0 2
  147.1075 58.0 1
  148.11012 121.0 3
  149.06036 24.0 1
  149.08774 17.0 0
  150.05368 24.0 1
  151.10092 28.0 1
  152.07002 23.0 0
  152.10834 146.0 3
  153.06316 27.0 1
  153.06892 21.0 0
  153.11192 26.0 1
  154.06281 50.0 1
  155.05597 29.0 1
  155.06685 83.0 2
  155.07826 172.0 4
  156.05901 142.0 3
  156.0806 2374.0 49
  156.10727 24.0 1
  157.05753 59.0 1
  157.0722 43.0 1
  157.08772 808.0 17
  158.06302 71.0 1
  158.09573 1543.0 32
  159.08134 38.0 1
  159.09378 122.0 3
  159.46864 67.0 1
  160.05817 37.0 1
  160.10532 76.0 2
  160.11462 64.0 1
  164.10863 346.0 7
  164.12238 21.0 0
  165.05724 26.0 1
  165.06879 35.0 1
  165.07622 99.0 2
  165.09915 20.0 0
  166.06656 26.0 1
  166.08252 33.0 1
  166.59734 20.0 0
  167.06444 128.0 3
  167.07512 389.0 8
  167.81349 18.0 0
  167.87389 25.0 1
  168.05345 33.0 1
  168.06041 41.0 1
  168.07628 804.0 17
  168.08589 875.0 18
  169.05772 23.0 0
  169.07164 126.0 3
  169.0818 211.0 4
  169.09531 147.0 3
  170.07396 16.0 0
  170.09509 1067.0 22
  170.11603 40.0 1
  171.04149 18.0 0
  171.09964 235.0 5
  171.11067 66.0 1
  172.11267 49.0 1
  179.0786 48.0 1
  180.06194 34.0 1
  180.07381 161.0 3
  180.08255 400.0 8
  181.06535 25.0 1
  181.08359 319.0 7
  181.09599 63.0 1
  182.07277 21.0 0
  182.08368 143.0 3
  182.09732 153.0 3
  183.08293 42.0 1
  183.09378 35.0 1
  184.09116 57.0 1
  184.10904 151.0 3
  184.12184 17.0 0
  184.51337 26.0 1
  185.10794 103.0 2
  186.09149 106.0 2
  187.12143 22.0 0
  187.57407 22.0 0
  188.09508 20.0 0
  190.06883 42.0 1
  190.32315 17.0 0
  191.07549 152.0 3
  192.06662 36.0 1
  192.0799 139.0 3
  193.03009 24.0 1
  193.07141 23.0 0
  193.08627 354.0 7
  194.05423 21.0 0
  194.07033 20.0 0
  194.08934 185.0 4
  194.09908 706.0 15
  195.09535 177.0 4
  195.10483 298.0 6
  195.15712 20.0 0
  195.94508 21.0 0
  196.0824 23.0 0
  196.10391 219.0 5
  196.1178 138.0 3
  196.87355 49.0 1
  197.07542 44.0 1
  197.10413 23.0 0
  197.11536 42.0 1
  198.09346 26.0 1
  198.13103 45.0 1
  201.10193 33.0 1
  201.4052 23.0 0
  202.05583 44.0 1
  203.09525 32.0 1
  203.63741 18.0 0
  203.99283 25.0 1
  204.06479 17.0 0
  204.0817 457.0 10
  204.29332 23.0 0
  204.98117 23.0 0
  205.08762 253.0 5
  205.09825 103.0 2
  205.20908 32.0 1
  206.08035 156.0 3
  206.09476 490.0 10
  206.30122 17.0 0
  206.76501 23.0 0
  207.0838 83.0 2
  207.09767 528.0 11
  207.10677 385.0 8
  207.17418 30.0 1
  208.1037 226.0 5
  208.11151 544.0 11
  209.088 25.0 1
  209.10141 43.0 1
  209.11488 104.0 2
  209.21527 17.0 0
  210.02109 42.0 1
  210.12547 112.0 2
  211.13098 37.0 1
  211.32529 67.0 1
  211.64465 24.0 1
  212.13481 48.0 1
  215.08946 26.0 1
  217.06091 52.0 1
  217.08937 536.0 11
  217.0993 131.0 3
  218.0687 20.0 0
  218.09244 493.0 10
  218.1012 256.0 5
  218.53542 18.0 0
  219.08694 45.0 1
  219.09998 378.0 8
  219.29024 42.0 1
  220.09586 211.0 4
  220.11252 436.0 9
  221.09511 57.0 1
  221.10776 186.0 4
  221.11665 129.0 3
  221.1291 62.0 1
  221.85197 17.0 0
  222.07573 25.0 1
  222.09558 38.0 1
  222.12697 1298.0 27
  223.09108 19.0 0
  223.10115 49.0 1
  223.12331 172.0 4
  223.13156 127.0 3
  223.25595 21.0 0
  224.10735 83.0 2
  224.11751 40.0 1
  224.13448 32.0 1
  224.14662 97.0 2
  225.10747 18.0 0
  225.1187 21.0 0
  225.12827 17.0 0
  225.14732 57.0 1
  226.10545 32.0 1
  226.12303 161.0 3
  226.13737 35.0 1
  226.97922 33.0 1
  227.09128 53.0 1
  227.12428 27.0 1
  227.13747 37.0 1
  227.16406 20.0 0
  227.18497 25.0 1
  228.138 33.0 1
  229.0838 26.0 1
  229.09596 18.0 0
  230.07339 20.0 0
  230.09532 337.0 7
  230.11221 61.0 1
  231.10059 312.0 7
  231.11465 252.0 5
  232.1055 136.0 3
  232.11351 257.0 5
  232.48537 26.0 1
  233.08746 33.0 1
  233.10654 225.0 5
  233.12309 81.0 2
  233.13831 29.0 1
  233.29411 17.0 0
  234.08128 43.0 1
  234.1124 274.0 6
  234.12856 374.0 8
  234.15091 35.0 1
  235.10706 27.0 1
  235.12665 490.0 10
  235.14076 91.0 2
  236.12752 122.0 3
  236.14125 111.0 2
  236.15472 26.0 1
  237.10757 18.0 0
  237.1351 112.0 2
  237.15541 44.0 1
  237.34993 39.0 1
  238.12135 99.0 2
  238.15044 25.0 1
  239.16571 33.0 1
  239.40526 18.0 0
  239.52751 25.0 1
  240.14046 43.0 1
  241.50667 17.0 0
  243.09894 68.0 1
  243.10561 25.0 1
  243.26599 18.0 0
  243.50441 20.0 0
  244.10155 57.0 1
  244.12016 213.0 4
  244.95232 41.0 1
  245.09792 45.0 1
  245.12215 221.0 5
  245.13518 40.0 1
  245.38249 26.0 1
  246.12845 239.0 5
  246.77254 17.0 0
  247.1208 419.0 9
  247.13618 142.0 3
  248.09644 45.0 1
  248.11777 81.0 2
  248.14197 740.0 15
  248.1525 166.0 3
  249.10982 20.0 0
  249.12224 84.0 2
  249.14674 212.0 4
  249.16963 31.0 1
  249.68997 19.0 0
  250.12013 45.0 1
  250.13274 26.0 1
  250.14833 181.0 4
  250.16779 18.0 0
  251.06949 20.0 0
  251.11748 75.0 2
  251.14053 49.0 1
  251.67775 33.0 1
  252.1077 31.0 1
  252.13034 39.0 1
  252.15028 25.0 1
  252.43855 18.0 0
  253.13574 28.0 1
  253.17162 17.0 0
  254.1431 23.0 0
  258.13144 84.0 2
  259.1326 57.0 1
  260.121 49.0 1
  260.13596 248.0 5
  260.14459 701.0 15
  261.13696 267.0 6
  261.14618 224.0 5
  261.16492 49.0 1
  262.12799 75.0 2
  262.13815 143.0 3
  262.15396 156.0 3
  262.16818 32.0 1
  263.13226 43.0 1
  263.14951 148.0 3
  263.15829 487.0 10
  264.11295 21.0 0
  264.13593 49.0 1
  264.15613 212.0 4
  264.16876 144.0 3
  264.88123 28.0 1
  265.0813 40.0 1
  265.12628 20.0 0
  265.14062 125.0 3
  265.17117 1128.0 24
  266.13501 41.0 1
  266.14749 51.0 1
  266.16776 106.0 2
  266.18436 40.0 1
  266.48587 22.0 0
  266.55273 17.0 0
  266.93442 37.0 1
  267.16486 23.0 0
  267.17938 58.0 1
  274.83698 40.0 1
  275.15182 58.0 1
  276.16199 56.0 1
  276.95169 17.0 0
  277.13162 28.0 1
  277.1709 3463.0 72
  277.71811 17.0 0
  277.90936 28.0 1
  278.09375 22.0 0
  278.13486 46.0 1
  278.15323 242.0 5
  278.16611 667.0 14
  278.18228 122.0 3
  278.80011 18.0 0
  279.14261 60.0 1
  279.15497 233.0 5
  279.17303 19.0 0
  279.19308 17.0 0
  280.02652 32.0 1
  280.138 58.0 1
  282.16571 17.0 0
  286.54071 27.0 1
  292.7428 19.0 0
  293.1449 50.0 1
  293.15619 20.0 0
  294.16965 50.0 1
  294.6803 48.0 1
  294.72769 19.0 0
  294.94919 19.0 0
  294.98175 18.0 0
  294.99316 26.0 1
  295.07584 17.0 0
  295.1181 207.0 4
  295.13449 143.0 3
  295.18054 47922.0 999
  295.22971 1361.0 28
  295.27457 54.0 1
//
