ACCESSION: MSBNK-RIKEN-PR300994
RECORD_TITLE: Laudanosine; LC-ESI-QTOF; MS2
DATE: 2019.03.28
AUTHORS: Tetsuya Mori, Center for Sustainable Resource Science, RIKEN
LICENSE: CC BY-NC-SA
PUBLICATION: Tsugawa H., Nakabayashi R., Mori T., Yamada Y., Takahashi M., Rai A., Sugiyama R., Yamamoto H., Nakaya T., Yamazaki M., Kooke R., Bac-Molenaar JA., Oztolan-Erol N., Keurentjes JJB., Arita M., Saito K. (2019) "A cheminformatics approach to characterize metabolomes in stable-isotope-labeled organisms" Nature Methods 16(4):295-298. [doi:10.1038/s41592-019-0358-2]
COMMENT: registered in RIKEN PlaSMA
CH$NAME: Laudanosine
CH$COMPOUND_CLASS: Benzylisoquinolines
CH$FORMULA: C21H27NO4
CH$EXACT_MASS: 357.45
CH$SMILES: COC1=C(OC)C=C(CC2N(C)CCC3=CC(OC)=C(OC)C=C23)C=C1
CH$IUPAC: InChI=1S/C21H27NO4/c1-22-9-8-15-12-20(25-4)21(26-5)13-16(15)17(22)10-14-6-7-18(23-2)19(11-14)24-3/h6-7,11-13,17H,8-10H2,1-5H3
CH$LINK: INCHIKEY KGPAYJZAMGEDIQ-UHFFFAOYSA-N
AC$INSTRUMENT: LC, Waters Acquity UPLC System; MS, Waters Xevo G2 Q-Tof
AC$INSTRUMENT_TYPE: LC-ESI-QTOF
AC$MASS_SPECTROMETRY: MS_TYPE MS2
AC$MASS_SPECTROMETRY: ION_MODE POSITIVE
AC$MASS_SPECTROMETRY: COLLISION_ENERGY 6V
AC$MASS_SPECTROMETRY: DESOLVATION_GAS_FLOW 800/h
AC$MASS_SPECTROMETRY: DESOLVATION_TEMPERATURE 450 C
AC$MASS_SPECTROMETRY: IONIZATION ESI
AC$CHROMATOGRAPHY: CAPILLARY_VOLTAGE +3.00 kV
AC$CHROMATOGRAPHY: COLUMN_NAME Acquity bridged ethyl hybrid C18 (1.7 um, 2.1 mm * 100 mm, Waters)
AC$CHROMATOGRAPHY: COLUMN_TEMPERATURE 40 C
AC$CHROMATOGRAPHY: FLOW_GRADIENT A/B = (99.5%/0.5% at 0 min, 99.5%/0.5% at 0.1 min, 20%/80% at 10 min, 0.5%/99.5% at 10.1 min, 0.5%/99.5% at 12.0 min, 99.5%/0.5% at 12.1 min, 99.5%/0.5% at 15.0 min)
AC$CHROMATOGRAPHY: FLOW_RATE 0.3 ml/min at 0 min, 0.3 ml/min at 10 min, 0.4 ml/min at 10.1 min, 0.4 ml/min at 14.4 min, 0.3 ml/min at 14.5 min
AC$CHROMATOGRAPHY: RETENTION_TIME 4.2568
AC$CHROMATOGRAPHY: SOLVENT A water including 0.1% formic acid
AC$CHROMATOGRAPHY: SOLVENT B acetonitrile including 0.1% formic acid
MS$FOCUSED_ION: PRECURSOR_TYPE [M+H]+
MS$FOCUSED_ION: PRECURSOR_M/Z 358.2012848
PK$SPLASH: splash10-0k96-0910000000-6fa0cc5056f9a69f1076
PK$NUM_PEAK: 329
PK$PEAK: m/z int. rel.int.
  77.03767 47.0 47
  78.0439 7.0 7
  78.05429 6.0 6
  79.05276 12.0 12
  79.05752 14.0 14
  79.06212 6.0 6
  80.06514 20.0 20
  90.04776 22.0 22
  91.05268 77.0 77
  91.05835 86.0 86
  91.16019 6.0 6
  92.05218 5.0 5
  92.06014 12.0 12
  92.06693 6.0 6
  93.07048 17.0 17
  95.05857 14.0 14
  95.08638 7.0 7
  101.04524 7.0 7
  103.04644 20.0 20
  103.05475 105.0 105
  104.05595 6.0 6
  105.03394 16.0 16
  105.05527 9.0 9
  105.06851 78.0 78
  106.04307 40.0 40
  107.03036 5.0 5
  107.04881 368.0 368
  108.05565 169.0 169
  109.0275 8.0 8
  109.06366 19.0 19
  109.06994 9.0 9
  110.07646 8.0 8
  115.0337 7.0 7
  115.05527 120.0 120
  116.04997 14.0 14
  116.06128 75.0 75
  117.05895 9.0 9
  117.07196 31.0 31
  117.08056 8.0 8
  117.2788 8.0 8
  117.78783 6.0 6
  118.02775 8.0 8
  118.03645 21.0 21
  118.04513 24.0 24
  118.07053 7.0 7
  119.04589 19.0 19
  119.05343 7.0 7
  119.08324 9.0 9
  121.06387 84.0 84
  122.03933 6.0 6
  122.0598 9.0 9
  122.06708 15.0 15
  123.04157 6.0 6
  123.0744 15.0 15
  125.06314 11.0 11
  126.41455 6.0 6
  127.03386 10.0 10
  127.04853 22.0 22
  127.05572 110.0 110
  128.06082 159.0 159
  129.03484 10.0 10
  129.07143 86.0 86
  130.06819 29.0 29
  130.07825 8.0 8
  131.04306 36.0 36
  131.05142 142.0 142
  131.0723 7.0 7
  131.09161 7.0 7
  131.16737 6.0 6
  132.05545 20.0 20
  132.07196 6.0 6
  132.08163 21.0 21
  132.24104 5.0 5
  133.03053 20.0 20
  133.0645 21.0 21
  133.0732 13.0 13
  133.08762 19.0 19
  133.09338 17.0 17
  134.05873 18.0 18
  134.07338 20.0 20
  134.09651 16.0 16
  135.01555 6.0 6
  135.04451 202.0 202
  135.08195 9.0 9
  135.10139 12.0 12
  136.05104 145.0 145
  137.05338 7.0 7
  137.06087 6.0 6
  137.61743 6.0 6
  138.06161 12.0 12
  141.07066 19.0 19
  141.08127 6.0 6
  141.68929 6.0 6
  142.03784 5.0 5
  142.05003 5.0 5
  142.08403 6.0 6
  143.04776 274.0 274
  143.05646 40.0 40
  143.06868 7.0 7
  144.05228 43.0 43
  144.05873 105.0 105
  144.08156 67.0 67
  144.92007 7.0 7
  145.06194 75.0 75
  145.06886 69.0 69
  145.08884 258.0 258
  146.05701 17.0 17
  146.07344 56.0 56
  146.08815 23.0 23
  146.0965 13.0 13
  147.04634 23.0 23
  147.0715 44.0 44
  147.09482 7.0 7
  148.04822 6.0 6
  148.05389 16.0 16
  148.09416 7.0 7
  149.06047 29.0 29
  149.06822 8.0 8
  149.08102 7.0 7
  150.05775 15.0 15
  150.06955 87.0 87
  150.72231 6.0 6
  151.07507 817.0 816
  151.85548 6.0 6
  152.06216 16.0 16
  152.07848 86.0 86
  152.08484 27.0 27
  153.06116 6.0 6
  153.07254 8.0 8
  153.07944 7.0 7
  154.08368 6.0 6
  155.0428 7.0 7
  155.05318 12.0 12
  156.05762 18.0 18
  157.06383 9.0 9
  158.02414 6.0 6
  158.04077 6.0 6
  158.07297 302.0 302
  159.04507 190.0 190
  159.06642 8.0 8
  159.07924 86.0 86
  160.05824 12.0 12
  160.07451 61.0 61
  161.05676 21.0 21
  161.06715 7.0 7
  161.07794 44.0 44
  161.08665 87.0 87
  162.05594 7.0 7
  162.07675 10.0 10
  162.09154 378.0 378
  163.08168 14.0 14
  163.09998 35.0 35
  163.11111 6.0 6
  164.06721 8.0 8
  164.07889 6.0 6
  164.47243 6.0 6
  164.49709 6.0 6
  165.06546 25.0 25
  165.07272 31.0 31
  165.08739 12.0 12
  165.09802 15.0 15
  166.07944 54.0 54
  167.06133 8.0 8
  167.08649 40.0 40
  168.08505 10.0 10
  172.0625 8.0 8
  173.058 11.0 11
  173.08437 44.0 44
  173.09467 8.0 8
  174.05563 16.0 16
  174.06805 110.0 110
  174.09731 68.0 68
  175.06758 11.0 11
  175.08589 12.0 12
  176.05525 5.0 5
  176.06877 14.0 14
  177.07414 34.0 34
  177.09396 6.0 6
  178.07973 34.0 34
  178.10014 9.0 9
  179.08609 27.0 27
  180.06061 6.0 6
  180.08528 6.0 6
  181.0629 6.0 6
  181.11119 13.0 13
  182.07076 17.0 17
  182.07912 11.0 11
  182.10289 14.0 14
  183.07733 31.0 31
  183.27357 8.0 8
  183.4201 9.0 9
  185.12425 7.0 7
  188.07268 69.0 69
  189.04782 6.0 6
  189.07565 18.0 18
  189.08931 10.0 10
  190.05881 18.0 18
  190.08641 1000.0 999
  191.08514 162.0 162
  191.09258 237.0 237
  192.09888 27.0 27
  193.04642 6.0 6
  193.06818 12.0 12
  193.10072 21.0 21
  194.06343 20.0 20
  194.07513 36.0 36
  195.08022 47.0 47
  195.15039 6.0 6
  196.09503 6.0 6
  197.06575 6.0 6
  197.0881 6.0 6
  197.09627 19.0 19
  198.06331 8.0 8
  198.10852 6.0 6
  199.07803 7.0 7
  201.0701 6.0 6
  202.07346 31.0 31
  202.08847 6.0 6
  203.06438 8.0 8
  203.08649 8.0 8
  203.09494 7.0 7
  204.09879 16.0 16
  205.0545 6.0 6
  205.07141 8.0 8
  206.06865 22.0 22
  206.11816 201.0 201
  207.07835 37.0 37
  207.12111 36.0 36
  208.0735 14.0 14
  208.09235 26.0 26
  209.05598 7.0 7
  209.06459 5.0 5
  209.07643 6.0 6
  209.08823 11.0 11
  209.1004 75.0 75
  210.05698 11.0 11
  210.09418 6.0 6
  210.10472 6.0 6
  210.11234 8.0 8
  211.0782 9.0 9
  211.08745 10.0 10
  211.11429 12.0 12
  212.08315 17.0 17
  212.097 11.0 11
  215.07674 12.0 12
  218.06531 6.0 6
  218.07695 6.0 6
  219.07762 67.0 67
  220.08228 11.0 11
  220.08865 27.0 27
  221.05527 7.0 7
  221.09412 54.0 54
  221.92867 8.0 8
  222.06577 6.0 6
  222.07562 6.0 6
  222.10208 11.0 11
  223.07176 64.0 64
  223.09161 8.0 8
  223.1024 7.0 7
  224.08392 47.0 47
  225.03957 6.0 6
  225.05554 9.0 9
  225.07721 14.0 14
  225.09274 38.0 38
  226.05916 7.0 7
  226.09973 26.0 26
  227.10085 6.0 6
  233.06042 5.0 5
  233.09135 5.0 5
  234.05942 9.0 9
  234.06772 8.0 8
  235.07101 19.0 19
  235.07892 6.0 6
  236.08751 11.0 11
  237.08566 54.0 54
  237.10899 11.0 11
  238.09491 61.0 61
  238.12059 12.0 12
  238.57109 9.0 9
  240.06581 5.0 5
  241.07285 10.0 10
  241.12785 17.0 17
  242.08336 7.0 7
  242.09439 12.0 12
  242.74553 7.0 7
  243.09048 7.0 7
  247.08795 7.0 7
  248.08784 6.0 6
  249.07031 5.0 5
  249.08691 19.0 19
  249.10088 15.0 15
  250.08141 12.0 12
  250.10139 7.0 7
  250.11417 6.0 6
  251.08028 16.0 16
  251.09608 6.0 6
  251.11189 7.0 7
  252.10719 14.0 14
  252.57301 10.0 10
  253.09315 14.0 14
  253.12842 18.0 18
  254.09093 18.0 18
  255.06224 7.0 7
  257.69485 6.0 6
  259.26743 6.0 6
  263.09903 9.0 9
  264.09988 6.0 6
  264.11844 7.0 7
  265.08783 6.0 6
  265.09891 9.0 9
  265.11899 6.0 6
  266.0722 7.0 7
  267.0751 7.0 7
  267.1012 6.0 6
  269.12543 13.0 13
  270.10846 16.0 16
  271.0921 7.0 7
  279.11185 5.0 5
  281.07733 8.0 8
  281.11551 6.0 6
  285.10629 9.0 9
  294.12637 6.0 6
  296.12616 14.0 14
  297.10919 13.0 13
  312.92157 7.0 7
  338.09897 8.0 8
  342.53607 6.0 6
  358.19415 28.0 28
  358.20538 36.0 36
//
