ACCESSION: MSBNK-RIKEN-PR310648
RECORD_TITLE: Isoreserpin; LC-ESI-QTOF; MS2
DATE: 2019.03.28
AUTHORS: Tetsuya Mori, Center for Sustainable Resource Science, RIKEN
LICENSE: CC BY-NC-SA
PUBLICATION: Tsugawa H., Nakabayashi R., Mori T., Yamada Y., Takahashi M., Rai A., Sugiyama R., Yamamoto H., Nakaya T., Yamazaki M., Kooke R., Bac-Molenaar JA., Oztolan-Erol N., Keurentjes JJB., Arita M., Saito K. (2019) "A cheminformatics approach to characterize metabolomes in stable-isotope-labeled organisms" Nature Methods 16(4):295-298. [doi:10.1038/s41592-019-0358-2]
COMMENT: Annotation level-1
CH$NAME: Isoreserpin
CH$COMPOUND_CLASS: Alkaloids
CH$FORMULA: C33H40N2O9
CH$EXACT_MASS: 608.688
CH$SMILES: CO[C@H]1[C@@H](C[C@@H]2CN3CCC4=C([C@@H]3C[C@@H]2[C@@H]1C(=O)OC)NC5=C4C=CC(=C5)OC)OC(=O)C6=CC(=C(C(=C6)OC)OC)OC
CH$IUPAC: InChI=1S/C33H40N2O9/c1-38-19-7-8-20-21-9-10-35-16-18-13-27(44-32(36)17-11-25(39-2)30(41-4)26(12-17)40-3)31(42-5)28(33(37)43-6)22(18)15-24(35)29(21)34-23(20)14-19/h7-8,11-12,14,18,22,24,27-28,31,34H,9-10,13,15-16H2,1-6H3/t18-,22+,24+,27-,28+,31+/m1/s1
CH$LINK: INCHIKEY QEVHRUUCFGRFIF-VPHNHGCZSA-N
AC$INSTRUMENT: LC, Waters Acquity UPLC System; MS, Waters Xevo G2 Q-Tof
AC$INSTRUMENT_TYPE: LC-ESI-QTOF
AC$MASS_SPECTROMETRY: MS_TYPE MS2
AC$MASS_SPECTROMETRY: ION_MODE POSITIVE
AC$MASS_SPECTROMETRY: COLLISION_ENERGY 6V
AC$MASS_SPECTROMETRY: DESOLVATION_GAS_FLOW 800/h
AC$MASS_SPECTROMETRY: DESOLVATION_TEMPERATURE 450 C
AC$MASS_SPECTROMETRY: IONIZATION ESI
AC$CHROMATOGRAPHY: CAPILLARY_VOLTAGE +3.00 kV
AC$CHROMATOGRAPHY: COLUMN_NAME Acquity bridged ethyl hybrid C18 (1.7 um, 2.1 mm * 100 mm, Waters)
AC$CHROMATOGRAPHY: COLUMN_TEMPERATURE 40 C
AC$CHROMATOGRAPHY: FLOW_GRADIENT A/B = (99.5%/0.5% at 0 min, 99.5%/0.5% at 0.1 min, 20%/80% at 10 min, 0.5%/99.5% at 10.1 min, 0.5%/99.5% at 12.0 min, 99.5%/0.5% at 12.1 min, 99.5%/0.5% at 15.0 min)
AC$CHROMATOGRAPHY: FLOW_RATE 0.3 ml/min at 0 min, 0.3 ml/min at 10 min, 0.4 ml/min at 10.1 min, 0.4 ml/min at 14.4 min, 0.3 ml/min at 14.5 min
AC$CHROMATOGRAPHY: RETENTION_TIME 6.12
AC$CHROMATOGRAPHY: SOLVENT A water including 0.1% formic acid
AC$CHROMATOGRAPHY: SOLVENT B acetonitrile including 0.1% formic acid
MS$FOCUSED_ION: PRECURSOR_TYPE [M+H]+
MS$FOCUSED_ION: PRECURSOR_M/Z 609.28066
PK$SPLASH: splash10-0a4i-0311109000-643ecce7afcdf2f8c85c
PK$NUM_PEAK: 494
PK$PEAK: m/z int. rel.int.
  70.06411 24.0 0
  71.05059 20.0 0
  79.05682 24.0 0
  91.05091 18.0 0
  98.33502 22.0 0
  106.06561 31.0 0
  107.06631 23.0 0
  109.06513 42.0 1
  111.04337 19.0 0
  111.05201 22.0 0
  114.35487 20.0 0
  117.05594 18.0 0
  118.06602 18.0 0
  119.36361 18.0 0
  120.07836 23.0 0
  122.12263 17.0 0
  123.08324 19.0 0
  130.35062 25.0 0
  131.04373 18.0 0
  131.04926 20.0 0
  132.07721 17.0 0
  132.08667 35.0 1
  132.37006 24.0 0
  133.08205 24.0 0
  134.06454 17.0 0
  135.06389 24.0 0
  137.08096 21.0 0
  139.07899 61.0 1
  139.09103 19.0 0
  142.06238 35.0 1
  143.05969 20.0 0
  143.0686 35.0 1
  144.05829 24.0 0
  144.07907 21.0 0
  144.43106 22.0 0
  147.07848 48.0 1
  147.08701 18.0 0
  148.06383 27.0 0
  148.07567 272.0 4
  148.56699 19.0 0
  149.06081 18.0 0
  149.08598 26.0 0
  149.15623 22.0 0
  150.08728 20.0 0
  152.05965 26.0 0
  152.6886 22.0 0
  155.06923 20.0 0
  156.08803 24.0 0
  156.12061 17.0 0
  156.74251 17.0 0
  158.05342 48.0 1
  158.08672 22.0 0
  159.00902 24.0 0
  159.05168 20.0 0
  159.062 41.0 1
  159.0744 133.0 2
  159.08965 20.0 0
  160.05042 24.0 0
  160.07535 193.0 3
  160.75998 18.0 0
  161.09607 18.0 0
  161.9933 21.0 0
  162.08455 18.0 0
  162.09154 43.0 1
  163.07414 24.0 0
  163.09496 18.0 0
  164.10791 23.0 0
  164.84401 20.0 0
  165.07823 25.0 0
  166.08417 89.0 1
  166.27795 22.0 0
  167.06934 158.0 2
  168.08075 28.0 0
  168.32266 18.0 0
  169.08134 22.0 0
  172.07677 17.0 0
  172.46855 20.0 0
  173.07654 19.0 0
  174.04312 20.0 0
  174.05972 39.0 1
  174.09169 6101.0 95
  175.07303 46.0 1
  175.09222 779.0 12
  175.25458 24.0 0
  176.09042 62.0 1
  176.11015 226.0 4
  176.94304 18.0 0
  177.10844 22.0 0
  178.08528 36.0 1
  178.09357 18.0 0
  179.06979 28.0 0
  179.07657 46.0 1
  179.21423 21.0 0
  179.46938 22.0 0
  180.03693 21.0 0
  181.08693 22.0 0
  182.09464 25.0 0
  184.07784 25.0 0
  185.08218 20.0 0
  186.09241 120.0 2
  187.09763 20.0 0
  188.10468 130.0 2
  190.06694 25.0 0
  190.08138 43.0 1
  190.10728 17.0 0
  190.62544 20.0 0
  192.07343 20.0 0
  192.10097 1021.0 16
  192.14896 27.0 0
  192.58702 25.0 0
  193.08376 24.0 0
  193.09445 58.0 1
  193.10925 122.0 2
  194.50827 23.0 0
  194.91417 25.0 0
  195.01274 25.0 0
  195.03091 75.0 1
  195.06598 11056.0 172
  195.10963 34.0 1
  196.05254 70.0 1
  196.06927 1125.0 18
  196.3075 20.0 0
  196.89021 17.0 0
  197.0401 21.0 0
  197.06932 126.0 2
  197.07967 52.0 1
  197.41289 17.0 0
  197.61133 17.0 0
  198.07654 46.0 1
  198.09242 73.0 1
  198.26472 17.0 0
  199.10033 40.0 1
  200.07245 31.0 0
  200.10774 186.0 3
  200.12192 31.0 0
  201.09729 50.0 1
  201.10895 63.0 1
  201.37859 24.0 0
  202.09875 32.0 0
  202.13177 30.0 0
  202.32707 18.0 0
  203.12035 17.0 0
  203.13481 17.0 0
  203.68867 23.0 0
  204.10373 146.0 2
  205.10458 59.0 1
  205.11417 22.0 0
  206.11743 21.0 0
  206.12793 20.0 0
  207.09674 25.0 0
  208.0936 23.0 0
  209.119 21.0 0
  210.08456 20.0 0
  210.09167 38.0 1
  211.10048 36.0 1
  212.10921 49.0 1
  213.09108 26.0 0
  213.09846 20.0 0
  213.72392 18.0 0
  214.08232 32.0 0
  214.10179 22.0 0
  214.11212 57.0 1
  215.11642 158.0 2
  215.12959 23.0 0
  215.29436 18.0 0
  216.06433 24.0 0
  219.03423 19.0 0
  221.00023 18.0 0
  221.06874 18.0 0
  222.117 64.0 1
  223.11722 17.0 0
  224.08879 39.0 1
  224.10381 44.0 1
  224.12892 1046.0 16
  224.15059 18.0 0
  225.03737 26.0 0
  225.11644 46.0 1
  225.12981 190.0 3
  226.11342 20.0 0
  226.13094 81.0 1
  227.11075 42.0 1
  228.12016 86.0 1
  229.12785 32.0 0
  229.13583 20.0 0
  229.70924 19.0 0
  234.07449 19.0 0
  235.07755 19.0 0
  236.02669 18.0 0
  236.09103 21.0 0
  236.12877 2105.0 33
  236.9209 26.0 0
  236.95393 20.0 0
  237.11122 86.0 1
  237.13326 345.0 5
  238.12245 60.0 1
  238.13182 112.0 2
  239.1297 20.0 0
  239.14194 31.0 0
  242.14471 41.0 1
  243.10748 19.0 0
  244.26067 22.0 0
  246.09631 21.0 0
  248.10121 21.0 0
  249.07053 18.0 0
  250.1244 21.0 0
  251.12756 44.0 1
  252.14711 24.0 0
  252.56847 25.0 0
  253.1147 23.0 0
  253.13657 65.0 1
  254.13855 102.0 2
  254.14792 50.0 1
  255.13707 17.0 0
  255.35596 17.0 0
  257.58139 20.0 0
  260.09302 26.0 0
  260.10815 52.0 1
  261.09851 22.0 0
  261.11865 20.0 0
  262.11835 60.0 1
  262.13501 53.0 1
  264.13333 51.0 1
  264.79593 21.0 0
  265.10086 25.0 0
  265.11078 35.0 1
  266.12442 33.0 1
  266.13992 57.0 1
  267.57352 21.0 0
  268.15369 17.0 0
  269.36819 17.0 0
  271.10379 20.0 0
  273.11441 25.0 0
  273.12643 22.0 0
  274.12115 25.0 0
  276.1174 36.0 1
  276.13553 37.0 1
  276.24789 25.0 0
  278.52917 17.0 0
  279.14758 57.0 1
  280.13669 24.0 0
  281.14938 20.0 0
  284.10596 19.0 0
  284.11969 17.0 0
  286.14453 19.0 0
  286.37924 18.0 0
  288.15582 21.0 0
  289.14322 72.0 1
  290.11948 41.0 1
  291.14771 25.0 0
  296.90482 17.0 0
  298.11462 21.0 0
  300.10922 22.0 0
  300.23398 41.0 1
  301.61975 17.0 0
  304.12689 22.0 0
  304.15033 28.0 0
  305.13702 35.0 1
  305.16684 39.0 1
  306.10495 25.0 0
  306.17163 55.0 1
  307.15421 18.0 0
  308.15814 23.0 0
  310.14432 17.0 0
  312.52856 25.0 0
  313.71375 18.0 0
  314.15695 19.0 0
  316.13333 17.0 0
  317.15271 17.0 0
  322.15445 40.0 1
  323.06851 20.0 0
  323.15353 20.0 0
  327.01028 22.0 0
  327.26398 23.0 0
  330.97348 29.0 0
  331.46426 17.0 0
  331.60577 20.0 0
  332.91245 18.0 0
  333.1539 38.0 1
  334.12433 70.0 1
  334.14996 28.0 0
  336.12265 20.0 0
  336.16 207.0 3
  336.83548 37.0 1
  337.11334 21.0 0
  337.13666 120.0 2
  337.16397 42.0 1
  337.17352 37.0 1
  338.1442 20.0 0
  339.12994 17.0 0
  339.57834 26.0 0
  340.29556 17.0 0
  341.19064 17.0 0
  341.80542 28.0 0
  347.17349 22.0 0
  348.1235 33.0 1
  348.16196 106.0 2
  349.16891 50.0 1
  350.15527 22.0 0
  351.71753 24.0 0
  352.55835 32.0 0
  352.87756 19.0 0
  353.11203 24.0 0
  353.13184 49.0 1
  354.12793 20.0 0
  354.14597 21.0 0
  354.15991 41.0 1
  354.18384 24.0 0
  356.18066 33.0 1
  358.04239 23.0 0
  360.95392 26.0 0
  363.15088 20.0 0
  363.1684 17.0 0
  364.16824 18.0 0
  364.80783 17.0 0
  365.14679 40.0 1
  365.18314 972.0 15
  365.19614 263.0 4
  365.21478 17.0 0
  366.15598 51.0 1
  366.19019 321.0 5
  367.15436 25.0 0
  367.19742 57.0 1
  368.14914 348.0 5
  368.18768 127.0 2
  369.15051 127.0 2
  369.19467 20.0 0
  369.51279 17.0 0
  370.16342 21.0 0
  370.18234 24.0 0
  370.22531 27.0 0
  370.71063 18.0 0
  371.59674 17.0 0
  375.68542 36.0 1
  376.09598 18.0 0
  380.15378 23.0 0
  380.18378 26.0 0
  381.16898 18.0 0
  381.2016 28.0 0
  382.64502 55.0 1
  382.73923 17.0 0
  384.06555 22.0 0
  386.19318 38.0 1
  387.21564 17.0 0
  388.77545 17.0 0
  390.43039 27.0 0
  395.19925 47.0 1
  395.21588 21.0 0
  396.18591 17.0 0
  396.68832 18.0 0
  396.93085 20.0 0
  396.98846 17.0 0
  397.1069 17.0 0
  397.14066 39.0 1
  397.15918 50.0 1
  397.1799 111.0 2
  397.21182 5931.0 92
  397.26181 17.0 0
  397.28354 18.0 0
  397.39655 20.0 0
  397.47079 26.0 0
  398.03323 17.0 0
  398.10214 22.0 0
  398.15927 44.0 1
  398.21405 1669.0 26
  398.24142 62.0 1
  398.89957 19.0 0
  398.90927 51.0 1
  399.22369 239.0 4
  400.21582 21.0 0
  402.16003 81.0 1
  403.78098 25.0 0
  404.14209 27.0 0
  404.17438 38.0 1
  405.17404 47.0 1
  405.7753 29.0 0
  407.17636 27.0 0
  407.86972 37.0 1
  408.37476 21.0 0
  408.9238 18.0 0
  409.4339 17.0 0
  411.1301 27.0 0
  412.84848 17.0 0
  413.21063 88.0 1
  414.20071 18.0 0
  415.46362 17.0 0
  415.52347 18.0 0
  416.16812 35.0 1
  417.60919 18.0 0
  421.5629 24.0 0
  422.8862 29.0 0
  425.48074 20.0 0
  430.78842 22.0 0
  431.20538 27.0 0
  433.44489 25.0 0
  434.17392 63.0 1
  434.20044 25.0 0
  435.3378 36.0 1
  435.43839 26.0 0
  435.86124 17.0 0
  435.97327 18.0 0
  436.00217 20.0 0
  436.10803 21.0 0
  436.19385 742.0 12
  436.20679 308.0 5
  436.37241 18.0 0
  437.17773 17.0 0
  437.19989 123.0 2
  437.22943 29.0 0
  437.78564 28.0 0
  438.15384 27.0 0
  438.21124 58.0 1
  440.77908 27.0 0
  441.09726 17.0 0
  445.43115 19.0 0
  448.112 48.0 1
  448.1507 125.0 2
  448.19479 5462.0 85
  448.23627 29.0 0
  448.91855 19.0 0
  449.10001 20.0 0
  449.14856 40.0 1
  449.19366 1216.0 19
  449.20877 641.0 10
  449.23929 48.0 1
  450.14655 21.0 0
  450.18985 72.0 1
  450.20981 226.0 4
  451.20847 20.0 0
  452.20694 33.0 1
  453.02518 17.0 0
  465.83994 25.0 0
  473.28476 17.0 0
  473.32932 20.0 0
  483.73596 25.0 0
  487.50592 30.0 0
  496.31482 17.0 0
  498.85678 24.0 0
  501.52869 21.0 0
  506.66684 47.0 1
  508.2403 39.0 1
  509.12372 19.0 0
  509.6947 22.0 0
  516.52881 19.0 0
  522.96881 20.0 0
  524.80688 21.0 0
  529.14233 22.0 0
  531.78278 18.0 0
  534.37042 21.0 0
  534.71375 24.0 0
  537.12646 20.0 0
  537.34509 22.0 0
  540.39435 22.0 0
  542.86127 22.0 0
  546.9165 17.0 0
  557.9541 17.0 0
  560.22137 39.0 1
  574.22888 20.0 0
  574.85028 18.0 0
  577.23151 42.0 1
  577.25513 169.0 3
  578.26111 93.0 1
  578.28326 25.0 0
  591.24542 20.0 0
  591.26501 19.0 0
  591.29089 21.0 0
  593.25568 21.0 0
  593.99084 22.0 0
  594.87878 22.0 0
  595.61285 18.0 0
  598.61481 26.0 0
  598.67682 17.0 0
  598.88977 20.0 0
  598.9408 21.0 0
  599.6922 18.0 0
  604.38281 17.0 0
  606.47754 37.0 1
  606.86548 21.0 0
  607.27246 51.0 1
  607.36511 20.0 0
  607.84375 17.0 0
  608.25952 62.0 1
  608.28265 21.0 0
  608.32806 29.0 0
  608.35272 20.0 0
  608.72412 28.0 0
  609.08893 36.0 1
  609.12079 51.0 1
  609.14978 56.0 1
  609.1792 328.0 5
  609.20813 380.0 6
  609.28082 64202.0 999
  609.35376 1191.0 19
  609.45905 19.0 0
  609.4743 17.0 0
//
