ACCESSION: MSBNK-RIKEN-PR303656
RECORD_TITLE: Resibufogenin; LC-ESI-QTOF; MS2
DATE: 2019.03.28
AUTHORS: Tetsuya Mori, Center for Sustainable Resource Science, RIKEN
LICENSE: CC BY-NC-SA
PUBLICATION: Tsugawa H., Nakabayashi R., Mori T., Yamada Y., Takahashi M., Rai A., Sugiyama R., Yamamoto H., Nakaya T., Yamazaki M., Kooke R., Bac-Molenaar JA., Oztolan-Erol N., Keurentjes JJB., Arita M., Saito K. (2019) "A cheminformatics approach to characterize metabolomes in stable-isotope-labeled organisms" Nature Methods 16(4):295-298. [doi:10.1038/s41592-019-0358-2]
COMMENT: registered in RIKEN PlaSMA
CH$NAME: Resibufogenin
CH$COMPOUND_CLASS: Bufanolides and derivatives
CH$FORMULA: C24H32O4
CH$EXACT_MASS: 384.516
CH$SMILES: C[C@]12CC[C@H]3[C@@H](CC[C@@H]4C[C@@H](O)CC[C@]34C)[C@]11O[C@@H]1C[C@@H]2C1=COC(=O)C=C1
CH$IUPAC: InChI=1S/C24H32O4/c1-22-9-7-16(25)11-15(22)4-5-18-17(22)8-10-23(2)19(12-20-24(18,23)28-20)14-3-6-21(26)27-13-14/h3,6,13,15-20,25H,4-5,7-12H2,1-2H3/t15-,16+,17+,18-,19-,20-,22+,23-,24-/m1/s1
CH$LINK: INCHIKEY ATLJNLYIJOCWJE-CWMZOUAVSA-N
AC$INSTRUMENT: LC, Waters Acquity UPLC System; MS, Waters Xevo G2 Q-Tof
AC$INSTRUMENT_TYPE: LC-ESI-QTOF
AC$MASS_SPECTROMETRY: MS_TYPE MS2
AC$MASS_SPECTROMETRY: ION_MODE POSITIVE
AC$MASS_SPECTROMETRY: COLLISION_ENERGY 6V
AC$MASS_SPECTROMETRY: DESOLVATION_GAS_FLOW 800/h
AC$MASS_SPECTROMETRY: DESOLVATION_TEMPERATURE 450 C
AC$MASS_SPECTROMETRY: IONIZATION ESI
AC$CHROMATOGRAPHY: CAPILLARY_VOLTAGE +3.00 kV
AC$CHROMATOGRAPHY: COLUMN_NAME Acquity bridged ethyl hybrid C18 (1.7 um, 2.1 mm * 100 mm, Waters)
AC$CHROMATOGRAPHY: COLUMN_TEMPERATURE 40 C
AC$CHROMATOGRAPHY: FLOW_GRADIENT A/B = (99.5%/0.5% at 0 min, 99.5%/0.5% at 0.1 min, 20%/80% at 10 min, 0.5%/99.5% at 10.1 min, 0.5%/99.5% at 12.0 min, 99.5%/0.5% at 12.1 min, 99.5%/0.5% at 15.0 min)
AC$CHROMATOGRAPHY: FLOW_RATE 0.3 ml/min at 0 min, 0.3 ml/min at 10 min, 0.4 ml/min at 10.1 min, 0.4 ml/min at 14.4 min, 0.3 ml/min at 14.5 min
AC$CHROMATOGRAPHY: RETENTION_TIME 7.5633
AC$CHROMATOGRAPHY: SOLVENT A water including 0.1% formic acid
AC$CHROMATOGRAPHY: SOLVENT B acetonitrile including 0.1% formic acid
MS$FOCUSED_ION: PRECURSOR_TYPE [M+H]+
MS$FOCUSED_ION: PRECURSOR_M/Z 385.237336
PK$SPLASH: splash10-05po-2900000000-dcdfcc0a1ac0594d0490
PK$NUM_PEAK: 378
PK$PEAK: m/z int. rel.int.
  53.03917 8.0 8
  55.05687 9.0 9
  57.03602 8.0 8
  63.00732 8.0 8
  65.03934 19.0 19
  67.05487 113.0 113
  68.06035 12.0 12
  68.99399 18.0 18
  68.99955 22.0 22
  69.03782 7.0 7
  69.06732 17.0 17
  69.07362 7.0 7
  69.88206 9.0 9
  70.0378 10.0 10
  71.05349 17.0 17
  77.01659 9.0 9
  77.02828 16.0 16
  77.03591 28.0 28
  77.04095 73.0 73
  78.04075 8.0 8
  79.05364 467.0 467
  79.57587 8.0 8
  79.93217 10.0 10
  80.052 8.0 8
  80.05746 8.0 8
  81.03081 9.0 9
  81.03538 7.0 7
  81.04613 22.0 22
  81.05743 7.0 7
  81.06978 389.0 389
  81.60003 7.0 7
  82.03317 9.0 9
  82.07113 15.0 15
  82.0777 7.0 7
  82.46561 10.0 10
  83.00343 9.0 9
  83.01638 7.0 7
  83.04949 39.0 39
  84.08952 8.0 8
  85.02896 9.0 9
  85.2551 11.0 11
  87.00529 15.0 15
  87.01229 7.0 7
  88.25069 8.0 8
  91.04109 27.0 27
  91.0545 993.0 992
  91.08887 7.0 7
  91.19363 10.0 10
  91.41282 7.0 7
  92.05945 146.0 146
  93.05702 14.0 14
  93.06929 455.0 455
  94.073 29.0 29
  95.03303 14.0 14
  95.04003 7.0 7
  95.04967 144.0 144
  95.08426 98.0 98
  95.08867 104.0 104
  96.05086 8.0 8
  96.08793 15.0 15
  97.03004 10.0 10
  97.09383 7.0 7
  99.00451 7.0 7
  99.01041 7.0 7
  103.05447 34.0 34
  104.05946 31.0 31
  104.40664 7.0 7
  104.54234 8.0 8
  105.07029 1000.0 999
  105.41093 7.0 7
  106.044 18.0 18
  106.06071 15.0 15
  106.06799 25.0 25
  106.07428 99.0 99
  106.99631 7.0 7
  107.04951 102.0 102
  107.08562 385.0 385
  107.12262 7.0 7
  107.87438 8.0 8
  108.04867 7.0 7
  108.08491 7.0 7
  108.09406 23.0 23
  109.02859 98.0 98
  109.05938 11.0 11
  109.06502 22.0 22
  109.10039 33.0 33
  110.99535 8.0 8
  111.00752 9.0 9
  111.01263 8.0 8
  111.04465 23.0 23
  111.07066 16.0 16
  114.02115 11.0 11
  115.05435 187.0 187
  116.03057 7.0 7
  116.05936 100.0 100
  117.07037 467.0 467
  118.06539 10.0 10
  118.07429 55.0 55
  118.08128 8.0 8
  119.04939 54.0 54
  119.08507 467.0 467
  120.08438 38.0 38
  120.09173 21.0 21
  121.06086 15.0 15
  121.06527 25.0 25
  121.09896 55.0 55
  121.10611 45.0 45
  122.02929 13.0 13
  122.10307 10.0 10
  122.40948 8.0 8
  123.04434 187.0 187
  123.07168 9.0 9
  124.047 8.0 8
  125.01978 20.0 20
  126.02475 7.0 7
  126.04588 8.0 8
  127.05472 59.0 59
  127.06453 13.0 13
  128.06056 311.0 311
  129.0697 349.0 349
  130.0554 13.0 13
  130.07736 161.0 161
  131.04872 7.0 7
  131.05814 7.0 7
  131.07132 15.0 15
  131.08644 653.0 652
  132.04854 9.0 9
  132.07852 22.0 22
  132.09023 53.0 53
  133.06429 68.0 68
  133.09508 66.0 66
  133.10167 92.0 92
  134.07425 11.0 11
  134.10709 17.0 17
  134.11444 12.0 12
  134.4259 8.0 8
  135.04243 26.0 26
  135.07201 9.0 9
  135.08145 22.0 22
  135.08932 7.0 7
  135.10873 8.0 8
  135.11703 49.0 49
  136.11447 9.0 9
  136.14246 7.0 7
  137.44974 7.0 7
  139.03511 20.0 20
  141.06963 161.0 161
  142.07516 159.0 159
  142.08205 57.0 57
  142.18239 9.0 9
  143.08533 320.0 320
  143.33717 7.0 7
  144.0453 7.0 7
  144.05313 37.0 37
  144.06094 24.0 24
  144.08847 80.0 80
  144.09695 19.0 19
  145.04182 8.0 8
  145.05392 18.0 18
  145.06746 48.0 48
  145.07861 12.0 12
  145.09251 51.0 51
  145.1019 264.0 264
  146.06456 20.0 20
  146.09267 10.0 10
  146.10205 25.0 25
  146.10934 22.0 22
  147.07202 23.0 23
  147.08008 54.0 54
  147.09944 7.0 7
  147.1075 14.0 14
  147.11868 111.0 111
  148.05087 9.0 9
  148.1185 16.0 16
  148.20079 7.0 7
  148.23395 7.0 7
  149.05714 18.0 18
  149.09393 8.0 8
  149.10219 17.0 17
  149.1313 7.0 7
  151.03694 46.0 46
  151.04979 16.0 16
  151.07916 22.0 22
  152.0562 26.0 26
  152.06241 61.0 61
  153.069 132.0 132
  154.07802 139.0 139
  155.08293 132.0 132
  155.09152 62.0 62
  156.05458 8.0 8
  156.08011 23.0 23
  156.09216 88.0 88
  156.10159 20.0 20
  157.0665 58.0 58
  157.08064 11.0 11
  157.09012 38.0 38
  157.10092 143.0 143
  157.11696 7.0 7
  157.26016 7.0 7
  158.07307 29.0 29
  158.10785 16.0 16
  158.13425 8.0 8
  159.07974 142.0 142
  159.08867 25.0 25
  159.10948 35.0 35
  159.11696 172.0 172
  160.07962 9.0 9
  160.08582 9.0 9
  160.09344 15.0 15
  160.12639 7.0 7
  161.05557 8.0 8
  161.10022 14.0 14
  161.11423 11.0 11
  161.13062 68.0 68
  165.05052 24.0 24
  165.05702 35.0 35
  165.07182 223.0 223
  166.05972 7.0 7
  166.07361 96.0 96
  167.0788 32.0 32
  167.08792 88.0 88
  167.11154 15.0 15
  168.06383 15.0 15
  168.08813 78.0 78
  168.09979 22.0 22
  169.06267 9.0 9
  169.06903 28.0 28
  169.08478 7.0 7
  169.10132 132.0 132
  170.0732 16.0 16
  170.08809 9.0 9
  170.10849 59.0 59
  171.07494 14.0 14
  171.0845 20.0 20
  171.1124 35.0 35
  171.12306 9.0 9
  172.05019 8.0 8
  172.09003 8.0 8
  172.11165 14.0 14
  172.12138 10.0 10
  173.05867 22.0 22
  173.06657 10.0 10
  173.08813 13.0 13
  173.13037 7.0 7
  173.13902 27.0 27
  174.05844 8.0 8
  174.1073 7.0 7
  174.1339 16.0 16
  174.14787 11.0 11
  174.84511 7.0 7
  175.07742 26.0 26
  175.11191 13.0 13
  177.04678 9.0 9
  177.06693 10.0 10
  177.12276 9.0 9
  178.05325 8.0 8
  178.06573 9.0 9
  178.07303 22.0 22
  178.08157 21.0 21
  179.06566 8.0 8
  179.08429 136.0 136
  179.10173 19.0 19
  180.09125 75.0 75
  180.72069 9.0 9
  181.06262 50.0 50
  181.09256 55.0 55
  181.09981 83.0 83
  181.11031 21.0 21
  182.07205 40.0 40
  182.10237 15.0 15
  182.11223 18.0 18
  183.07954 44.0 44
  183.10374 28.0 28
  183.11525 50.0 50
  185.05698 15.0 15
  185.08289 12.0 12
  185.09547 50.0 50
  185.13051 23.0 23
  185.13646 65.0 65
  186.07027 10.0 10
  186.9041 8.0 8
  187.0589 9.0 9
  187.07761 15.0 15
  187.08472 9.0 9
  187.14954 9.0 9
  188.07512 9.0 9
  188.08258 19.0 19
  189.0658 8.0 8
  189.07727 7.0 7
  189.08551 7.0 7
  189.12212 23.0 23
  190.06532 10.0 10
  190.08122 20.0 20
  191.06906 8.0 8
  191.08347 41.0 41
  191.09322 19.0 19
  191.10854 7.0 7
  192.09146 38.0 38
  193.10182 54.0 54
  194.1084 35.0 35
  194.11664 26.0 26
  195.07828 19.0 19
  195.11769 67.0 67
  196.07077 8.0 8
  196.08609 14.0 14
  196.12625 45.0 45
  197.0607 10.0 10
  197.09378 8.0 8
  197.10922 10.0 10
  197.12781 23.0 23
  199.13506 8.0 8
  199.15395 33.0 33
  200.11655 20.0 20
  201.08522 7.0 7
  201.1347 7.0 7
  202.05705 8.0 8
  202.07372 25.0 25
  202.16924 10.0 10
  203.08667 11.0 11
  204.08725 19.0 19
  204.17891 7.0 7
  205.06201 48.0 48
  205.08682 34.0 34
  205.0955 14.0 14
  205.10541 9.0 9
  207.11613 15.0 15
  209.09172 38.0 38
  209.13091 8.0 8
  210.14047 8.0 8
  211.07645 10.0 10
  211.08408 8.0 8
  211.15855 16.0 16
  212.15125 8.0 8
  213.09354 15.0 15
  213.12085 16.0 16
  213.12604 9.0 9
  213.15744 7.0 7
  214.1662 10.0 10
  215.08636 8.0 8
  217.1024 17.0 17
  219.11502 22.0 22
  220.1274 9.0 9
  222.13 8.0 8
  223.10857 9.0 9
  223.14256 18.0 18
  224.07658 12.0 12
  228.0782 23.0 23
  228.09724 7.0 7
  231.10425 8.0 8
  232.12744 29.0 29
  232.63336 7.0 7
  233.09183 10.0 10
  233.12277 9.0 9
  233.1322 12.0 12
  235.11711 8.0 8
  235.14293 9.0 9
  235.15645 8.0 8
  237.15475 9.0 9
  237.16451 9.0 9
  238.16794 9.0 9
  239.18111 10.0 10
  239.55029 7.0 7
  240.10706 13.0 13
  245.08559 7.0 7
  245.13025 9.0 9
  247.14638 22.0 22
  251.91754 11.0 11
  257.12015 7.0 7
  259.10339 8.0 8
  260.1488 7.0 7
  261.16617 13.0 13
  261.19266 7.0 7
  272.53036 15.0 15
  285.14865 9.0 9
  314.1033 7.0 7
  321.22205 9.0 9
  354.63916 7.0 7
  378.18387 8.0 8
//
