ACCESSION: MSBNK-RIKEN-PR300505
RECORD_TITLE: Strychnine; LC-ESI-QTOF; MS2
DATE: 2019.03.28
AUTHORS: Tetsuya Mori, Center for Sustainable Resource Science, RIKEN
LICENSE: CC BY-NC-SA
PUBLICATION: Tsugawa H., Nakabayashi R., Mori T., Yamada Y., Takahashi M., Rai A., Sugiyama R., Yamamoto H., Nakaya T., Yamazaki M., Kooke R., Bac-Molenaar JA., Oztolan-Erol N., Keurentjes JJB., Arita M., Saito K. (2019) "A cheminformatics approach to characterize metabolomes in stable-isotope-labeled organisms" Nature Methods 16(4):295-298. [doi:10.1038/s41592-019-0358-2]
COMMENT: registered in RIKEN PlaSMA
CH$NAME: Strychnine
CH$COMPOUND_CLASS: Strychnos alkaloids
CH$FORMULA: C21H22N2O2
CH$EXACT_MASS: 334.419
CH$SMILES: O=C1C[C@@H]2OCC=C3CN4CC[C@@]56[C@@H]4C[C@@H]3[C@@H]2[C@@H]5N1C1=CC=CC=C61
CH$IUPAC: InChI=1S/C21H22N2O2/c24-18-10-16-19-13-9-17-21(6-7-22(17)11-12(13)5-8-25-16)14-3-1-2-4-15(14)23(18)20(19)21/h1-5,13,16-17,19-20H,6-11H2/t13-,16-,17-,19-,20-,21+/m0/s1
CH$LINK: INCHIKEY QMGVPVSNSZLJIA-FVWCLLPLSA-N
AC$INSTRUMENT: LC, Waters Acquity UPLC System; MS, Waters Xevo G2 Q-Tof
AC$INSTRUMENT_TYPE: LC-ESI-QTOF
AC$MASS_SPECTROMETRY: MS_TYPE MS2
AC$MASS_SPECTROMETRY: ION_MODE POSITIVE
AC$MASS_SPECTROMETRY: COLLISION_ENERGY 6V
AC$MASS_SPECTROMETRY: DESOLVATION_GAS_FLOW 800/h
AC$MASS_SPECTROMETRY: DESOLVATION_TEMPERATURE 450 C
AC$MASS_SPECTROMETRY: IONIZATION ESI
AC$CHROMATOGRAPHY: CAPILLARY_VOLTAGE +3.00 kV
AC$CHROMATOGRAPHY: COLUMN_NAME Acquity bridged ethyl hybrid C18 (1.7 um, 2.1 mm * 100 mm, Waters)
AC$CHROMATOGRAPHY: COLUMN_TEMPERATURE 40 C
AC$CHROMATOGRAPHY: FLOW_GRADIENT A/B = (99.5%/0.5% at 0 min, 99.5%/0.5% at 0.1 min, 20%/80% at 10 min, 0.5%/99.5% at 10.1 min, 0.5%/99.5% at 12.0 min, 99.5%/0.5% at 12.1 min, 99.5%/0.5% at 15.0 min)
AC$CHROMATOGRAPHY: FLOW_RATE 0.3 ml/min at 0 min, 0.3 ml/min at 10 min, 0.4 ml/min at 10.1 min, 0.4 ml/min at 14.4 min, 0.3 ml/min at 14.5 min
AC$CHROMATOGRAPHY: RETENTION_TIME 3.456917
AC$CHROMATOGRAPHY: SOLVENT A water including 0.1% formic acid
AC$CHROMATOGRAPHY: SOLVENT B acetonitrile including 0.1% formic acid
MS$FOCUSED_ION: PRECURSOR_TYPE [M+H]+
MS$FOCUSED_ION: PRECURSOR_M/Z 335.1754044
PK$SPLASH: splash10-0a7i-0940000000-6602030e8670fd09b3c3
PK$NUM_PEAK: 367
PK$PEAK: m/z int. rel.int.
  53.28967 9.0 9
  55.01942 6.0 6
  55.05046 6.0 6
  56.04762 6.0 6
  67.05423 11.0 11
  69.03321 5.0 5
  70.07066 5.0 5
  71.01696 6.0 6
  71.04353 5.0 5
  77.0382 28.0 28
  77.04448 10.0 10
  78.01633 6.0 6
  78.04109 7.0 7
  79.05223 33.0 33
  79.05737 19.0 19
  80.04744 9.0 9
  81.03246 7.0 7
  81.05494 10.0 10
  81.06808 34.0 34
  81.07428 11.0 11
  82.06901 11.0 11
  82.07407 7.0 7
  83.04257 10.0 10
  83.07112 8.0 8
  90.7747 5.0 5
  91.04323 5.0 5
  91.05613 81.0 81
  93.05418 17.0 17
  93.06308 19.0 19
  93.07011 34.0 34
  94.06684 38.0 38
  95.01341 7.0 7
  95.04724 7.0 7
  95.07778 5.0 5
  96.04945 9.0 9
  96.082 5.0 5
  97.07823 8.0 8
  100.61035 7.0 7
  103.0547 19.0 19
  103.06777 9.0 9
  104.0648 6.0 6
  105.07368 17.0 17
  106.06461 44.0 44
  107.16537 6.0 6
  108.07566 22.0 22
  108.08349 36.0 36
  113.20097 7.0 7
  115.05528 50.0 50
  115.33949 8.0 8
  116.57984 6.0 6
  117.02393 9.0 9
  117.05064 9.0 9
  117.05744 29.0 29
  117.07125 11.0 11
  117.078 19.0 19
  118.0577 5.0 5
  118.06811 28.0 28
  122.05537 13.0 13
  122.06171 10.0 10
  124.07307 15.0 15
  127.0508 16.0 16
  127.05948 33.0 33
  128.04805 21.0 21
  128.05719 85.0 85
  128.06508 57.0 57
  128.0724 12.0 12
  128.22202 5.0 5
  128.97159 6.0 6
  129.02875 14.0 14
  129.04591 12.0 12
  129.07039 675.0 674
  129.75797 7.0 7
  130.06398 102.0 102
  130.07141 91.0 91
  131.04536 12.0 12
  131.07143 18.0 18
  131.08533 10.0 10
  132.0475 8.0 8
  132.05685 12.0 12
  132.07607 12.0 12
  132.08221 8.0 8
  134.10545 9.0 9
  135.09459 7.0 7
  139.05254 14.0 14
  139.98505 7.0 7
  140.05415 22.0 22
  141.078 9.0 9
  142.06902 20.0 20
  142.08087 18.0 18
  143.0719 33.0 33
  143.07829 22.0 22
  143.82376 6.0 6
  144.04239 7.0 7
  144.0799 175.0 175
  145.05429 6.0 6
  145.06262 5.0 5
  145.07722 12.0 12
  145.08835 24.0 24
  146.065 5.0 5
  146.09793 10.0 10
  146.86368 6.0 6
  147.07585 5.0 5
  148.07941 6.0 6
  150.63522 8.0 8
  152.05841 20.0 20
  153.069 7.0 7
  154.05374 10.0 10
  154.06062 26.0 26
  154.06888 76.0 76
  155.05608 19.0 19
  155.07402 78.0 78
  156.0248 9.0 9
  156.04027 6.0 6
  156.05696 24.0 24
  156.08125 1000.0 999
  156.67871 6.0 6
  157.05246 16.0 16
  157.05672 8.0 8
  157.07089 8.0 8
  157.0881 94.0 94
  158.0666 11.0 11
  158.09483 15.0 15
  158.5257 6.0 6
  158.86072 8.0 8
  159.04494 9.0 9
  159.06624 8.0 8
  160.11266 6.0 6
  161.07907 8.0 8
  161.13179 7.0 7
  162.09613 9.0 9
  165.0728 22.0 22
  166.0475 10.0 10
  166.06233 89.0 89
  166.07437 70.0 70
  166.79364 9.0 9
  167.048 7.0 7
  167.07599 223.0 223
  167.09441 11.0 11
  168.0687 70.0 70
  168.08147 173.0 173
  168.12846 5.0 5
  169.07271 36.0 36
  169.08115 50.0 50
  169.09473 25.0 25
  170.06477 30.0 30
  170.0759 11.0 11
  170.09593 106.0 106
  171.07242 7.0 7
  171.08835 26.0 26
  171.09871 7.0 7
  173.0808 7.0 7
  175.05704 7.0 7
  176.06628 26.0 26
  177.06953 6.0 6
  178.06947 7.0 7
  178.07951 26.0 26
  179.06679 7.0 7
  179.07375 11.0 11
  179.08409 8.0 8
  180.06024 6.0 6
  180.08163 142.0 142
  181.06683 5.0 5
  181.08179 15.0 15
  181.09259 48.0 48
  181.58627 7.0 7
  182.07356 5.0 5
  182.08789 49.0 49
  182.0997 69.0 69
  182.1086 20.0 20
  183.06635 34.0 34
  183.07635 45.0 45
  183.08864 10.0 10
  183.10349 22.0 22
  183.1171 7.0 7
  184.07118 267.0 267
  184.08105 332.0 332
  184.11331 15.0 15
  185.08116 112.0 112
  185.09415 15.0 15
  185.1115 10.0 10
  186.0686 20.0 20
  186.08347 16.0 16
  186.70129 5.0 5
  190.067 11.0 11
  191.06877 55.0 55
  191.07738 43.0 43
  191.09439 10.0 10
  192.0751 48.0 48
  192.08493 59.0 59
  193.06737 10.0 10
  193.0865 31.0 31
  193.09608 36.0 36
  193.11493 7.0 7
  194.04588 11.0 11
  194.06662 51.0 51
  194.09801 276.0 276
  194.31624 11.0 11
  195.08945 24.0 24
  195.10439 18.0 18
  196.07039 17.0 17
  196.08269 45.0 45
  196.13237 7.0 7
  197.05441 9.0 9
  197.08195 35.0 35
  198.09425 40.0 40
  199.06317 5.0 5
  199.09866 26.0 26
  200.0601 6.0 6
  200.07806 5.0 5
  200.08904 5.0 5
  203.08333 31.0 31
  203.99785 10.0 10
  204.05618 11.0 11
  204.07524 53.0 53
  204.0849 94.0 94
  204.10814 7.0 7
  205.08221 55.0 55
  205.09319 65.0 65
  205.98741 6.0 6
  206.09113 49.0 49
  206.09821 125.0 125
  206.11046 19.0 19
  207.06358 7.0 7
  207.08102 7.0 7
  207.10449 47.0 47
  208.09753 7.0 7
  209.09758 13.0 13
  209.91579 5.0 5
  210.06496 8.0 8
  210.09267 14.0 14
  210.11523 9.0 9
  211.07623 7.0 7
  211.0896 10.0 10
  211.09714 7.0 7
  212.06882 9.0 9
  212.08725 6.0 6
  212.12238 7.0 7
  215.10185 10.0 10
  216.07565 43.0 43
  216.91425 7.0 7
  217.08174 77.0 77
  217.0903 110.0 110
  218.07698 16.0 16
  218.08693 80.0 80
  218.09904 107.0 107
  219.06638 10.0 10
  219.07697 9.0 9
  219.10323 74.0 74
  220.04999 7.0 7
  220.07208 65.0 65
  220.08176 55.0 55
  220.09323 24.0 24
  220.11444 25.0 25
  220.12581 27.0 27
  221.07631 44.0 44
  221.08873 16.0 16
  221.10934 6.0 6
  221.12184 7.0 7
  222.09566 92.0 92
  222.12854 13.0 13
  222.13852 10.0 10
  222.36775 6.0 6
  223.10095 6.0 6
  223.13622 19.0 19
  224.11336 11.0 11
  226.09067 6.0 6
  228.07765 19.0 19
  228.09189 13.0 13
  229.06761 18.0 18
  229.08492 7.0 7
  229.09428 5.0 5
  230.08363 9.0 9
  230.0966 61.0 61
  230.10942 7.0 7
  231.08681 6.0 6
  231.10414 60.0 60
  231.11993 6.0 6
  232.06407 13.0 13
  232.08157 10.0 10
  232.11537 48.0 48
  233.08006 35.0 35
  233.101 6.0 6
  234.05276 12.0 12
  234.08583 19.0 19
  234.09944 57.0 57
  234.1214 19.0 19
  234.13202 15.0 15
  235.07787 13.0 13
  235.08955 23.0 23
  235.09642 14.0 14
  235.10974 7.0 7
  236.0928 10.0 10
  236.12349 14.0 14
  236.1355 7.0 7
  238.10738 5.0 5
  240.07877 6.0 6
  242.0867 6.0 6
  242.10126 11.0 11
  243.09138 14.0 14
  243.10211 14.0 14
  243.11131 7.0 7
  244.10661 42.0 42
  245.06084 10.0 10
  245.09932 9.0 9
  245.1185 6.0 6
  246.08336 17.0 17
  246.10257 44.0 44
  246.12924 15.0 15
  247.09758 34.0 34
  247.11597 8.0 8
  247.14165 8.0 8
  248.08302 15.0 15
  248.11136 83.0 83
  249.09924 9.0 9
  249.11572 11.0 11
  254.06171 9.0 9
  254.08624 6.0 6
  254.10872 7.0 7
  256.0946 6.0 6
  256.10849 15.0 15
  257.08032 21.0 21
  257.11087 10.0 10
  258.08392 12.0 12
  258.10648 15.0 15
  258.11911 12.0 12
  259.09958 5.0 5
  259.12274 6.0 6
  260.10571 5.0 5
  261.10785 14.0 14
  261.12244 8.0 8
  261.13455 12.0 12
  261.15244 6.0 6
  262.09332 11.0 11
  262.11975 34.0 34
  262.1348 19.0 19
  263.09042 6.0 6
  263.13721 13.0 13
  264.05408 6.0 6
  264.09888 16.0 16
  264.11093 22.0 22
  264.13806 15.0 15
  264.16302 9.0 9
  265.11722 12.0 12
  265.53601 6.0 6
  269.0853 6.0 6
  270.07849 8.0 8
  272.11444 27.0 27
  273.10205 8.0 8
  274.1199 7.0 7
  274.14545 6.0 6
  277.18555 6.0 6
  284.11569 6.0 6
  286.11942 6.0 6
  288.13812 6.0 6
  288.15009 7.0 7
  289.16928 8.0 8
  291.13919 5.0 5
  291.1582 12.0 12
  302.12366 9.0 9
  303.16489 7.0 7
  306.14267 5.0 5
  306.17679 8.0 8
  307.15973 5.0 5
  311.30371 5.0 5
  327.58194 5.0 5
  335.16879 23.0 23
  335.18481 39.0 39
//
