ACCESSION: MSBNK-RIKEN-PR303894
RECORD_TITLE: Silychrystin; LC-ESI-QTOF; MS2
DATE: 2019.03.28
AUTHORS: Tetsuya Mori, Center for Sustainable Resource Science, RIKEN
LICENSE: CC BY-NC-SA
PUBLICATION: Tsugawa H., Nakabayashi R., Mori T., Yamada Y., Takahashi M., Rai A., Sugiyama R., Yamamoto H., Nakaya T., Yamazaki M., Kooke R., Bac-Molenaar JA., Oztolan-Erol N., Keurentjes JJB., Arita M., Saito K. (2019) "A cheminformatics approach to characterize metabolomes in stable-isotope-labeled organisms" Nature Methods 16(4):295-298. [doi:10.1038/s41592-019-0358-2]
COMMENT: registered in RIKEN PlaSMA
CH$NAME: Silychrystin
CH$COMPOUND_CLASS: 2-arylbenzofuran flavonoids
CH$FORMULA: C25H22O10
CH$EXACT_MASS: 482.441
CH$SMILES: COC1=C(O)C=CC(=C1)[C@@H]1OC2=C(C=C(C=C2O)[C@H]2OC3=CC(O)=CC(O)=C3C(=O)[C@@H]2O)[C@H]1CO
CH$IUPAC: InChI=1S/C25H22O10/c1-33-18-6-10(2-3-15(18)28)23-14(9-26)13-4-11(5-17(30)25(13)35-23)24-22(32)21(31)20-16(29)7-12(27)8-19(20)34-24/h2-8,14,22-24,26-30,32H,9H2,1H3/t14-,22+,23+,24-/m1/s1
CH$LINK: INCHIKEY BMLIIPOXVWESJG-LMBCONBSSA-N
AC$INSTRUMENT: LC, Waters Acquity UPLC System; MS, Waters Xevo G2 Q-Tof
AC$INSTRUMENT_TYPE: LC-ESI-QTOF
AC$MASS_SPECTROMETRY: MS_TYPE MS2
AC$MASS_SPECTROMETRY: ION_MODE POSITIVE
AC$MASS_SPECTROMETRY: COLLISION_ENERGY 6V
AC$MASS_SPECTROMETRY: DESOLVATION_GAS_FLOW 800/h
AC$MASS_SPECTROMETRY: DESOLVATION_TEMPERATURE 450 C
AC$MASS_SPECTROMETRY: IONIZATION ESI
AC$CHROMATOGRAPHY: CAPILLARY_VOLTAGE +3.00 kV
AC$CHROMATOGRAPHY: COLUMN_NAME Acquity bridged ethyl hybrid C18 (1.7 um, 2.1 mm * 100 mm, Waters)
AC$CHROMATOGRAPHY: COLUMN_TEMPERATURE 40 C
AC$CHROMATOGRAPHY: FLOW_GRADIENT A/B = (99.5%/0.5% at 0 min, 99.5%/0.5% at 0.1 min, 20%/80% at 10 min, 0.5%/99.5% at 10.1 min, 0.5%/99.5% at 12.0 min, 99.5%/0.5% at 12.1 min, 99.5%/0.5% at 15.0 min)
AC$CHROMATOGRAPHY: FLOW_RATE 0.3 ml/min at 0 min, 0.3 ml/min at 10 min, 0.4 ml/min at 10.1 min, 0.4 ml/min at 14.4 min, 0.3 ml/min at 14.5 min
AC$CHROMATOGRAPHY: RETENTION_TIME 4.95995
AC$CHROMATOGRAPHY: SOLVENT A water including 0.1% formic acid
AC$CHROMATOGRAPHY: SOLVENT B acetonitrile including 0.1% formic acid
MS$FOCUSED_ION: PRECURSOR_TYPE [M+H]+
MS$FOCUSED_ION: PRECURSOR_M/Z 483.1285734
PK$SPLASH: splash10-0udr-0893100000-8fa102680a0368144c98
PK$NUM_PEAK: 270
PK$PEAK: m/z int. rel.int.
  69.03246 21.0 21
  93.03518 10.0 10
  107.05217 9.0 9
  111.03714 11.0 11
  111.04573 11.0 11
  121.06492 12.0 12
  122.0327 20.0 20
  123.04373 18.0 18
  127.03587 23.0 23
  130.04224 11.0 11
  131.04791 27.0 27
  133.03911 17.0 17
  133.0489 20.0 20
  133.06076 9.0 9
  133.54729 9.0 9
  135.04308 36.0 36
  137.0601 668.0 667
  138.05833 10.0 10
  139.03207 12.0 12
  139.04431 21.0 21
  140.04247 9.0 9
  147.04387 20.0 20
  148.04883 15.0 15
  149.01503 12.0 12
  149.02328 66.0 66
  149.03253 23.0 23
  149.0545 11.0 11
  150.02454 16.0 16
  150.03224 10.0 10
  151.07266 46.0 46
  153.01878 1000.0 999
  153.04929 16.0 16
  154.0248 87.0 87
  155.03136 15.0 15
  159.03961 21.0 21
  160.04617 9.0 9
  160.33376 9.0 9
  161.0498 13.0 13
  161.06061 37.0 37
  161.07031 26.0 26
  163.07111 12.0 12
  167.03267 108.0 108
  168.0433 21.0 21
  175.03609 10.0 10
  177.05093 35.0 35
  178.07388 9.0 9
  179.03192 28.0 28
  179.06885 13.0 13
  181.02214 10.0 10
  183.03687 12.0 12
  187.03952 9.0 9
  193.0654 14.0 14
  195.02934 249.0 249
  195.08252 10.0 10
  196.03554 37.0 37
  201.05695 10.0 10
  203.036 46.0 46
  205.06187 10.0 10
  209.06451 14.0 14
  210.06178 15.0 15
  211.07797 11.0 11
  213.05075 11.0 11
  213.09244 9.0 9
  213.10307 13.0 13
  215.03882 16.0 16
  217.054 13.0 13
  217.91449 28.0 28
  221.04732 51.0 51
  221.06641 58.0 58
  222.06479 26.0 26
  223.07442 30.0 30
  223.08232 9.0 9
  225.08601 11.0 11
  225.09654 11.0 11
  227.06276 50.0 50
  227.07326 20.0 20
  228.0312 10.0 10
  228.07677 19.0 19
  231.06953 10.0 10
  233.06082 15.0 15
  235.08632 11.0 11
  237.0545 73.0 73
  237.08263 22.0 22
  238.06044 21.0 21
  238.08443 22.0 22
  239.07462 53.0 53
  240.07501 10.0 10
  241.10088 11.0 11
  242.05862 14.0 14
  249.0563 37.0 37
  250.0665 49.0 49
  251.02657 12.0 12
  251.07224 118.0 118
  251.08791 16.0 16
  251.35121 14.0 14
  252.09686 12.0 12
  253.06996 9.0 9
  253.08784 97.0 97
  254.08904 21.0 21
  254.41852 9.0 9
  255.05902 37.0 37
  255.06927 44.0 44
  257.04355 73.0 73
  257.06573 9.0 9
  257.07486 10.0 10
  258.07327 10.0 10
  258.0896 62.0 62
  258.10367 17.0 17
  259.09604 28.0 28
  259.72293 13.0 13
  261.0661 11.0 11
  261.08252 31.0 31
  261.12039 11.0 11
  263.06873 9.0 9
  263.07587 25.0 25
  264.08493 11.0 11
  265.02402 11.0 11
  265.047 89.0 89
  265.06378 27.0 27
  265.08707 13.0 13
  265.09702 9.0 9
  265.11011 11.0 11
  266.04599 16.0 16
  266.06653 15.0 15
  267.05276 12.0 12
  268.06027 11.0 11
  268.06927 14.0 14
  269.07248 23.0 23
  269.09253 13.0 13
  270.08484 12.0 12
  270.09619 34.0 34
  270.19547 17.0 17
  271.05972 10.0 10
  271.08987 91.0 91
  271.09927 93.0 93
  271.10876 25.0 25
  272.104 74.0 74
  273.03076 10.0 10
  273.11252 11.0 11
  277.04007 30.0 30
  277.05066 10.0 10
  278.04965 12.0 12
  278.09323 9.0 9
  279.06647 22.0 22
  280.06454 19.0 19
  281.08005 60.0 60
  281.09222 30.0 30
  282.06427 14.0 14
  282.08447 31.0 31
  282.09982 9.0 9
  283.05298 53.0 53
  283.06567 126.0 126
  283.09872 113.0 113
  283.11728 10.0 10
  284.07288 23.0 23
  284.10474 12.0 12
  285.03772 60.0 60
  285.0773 9.0 9
  289.08191 11.0 11
  289.40738 13.0 13
  291.06116 14.0 14
  293.03714 11.0 11
  293.07401 15.0 15
  293.08676 22.0 22
  294.06104 17.0 17
  294.09113 26.0 26
  295.05847 11.0 11
  295.07111 23.0 23
  295.09445 10.0 10
  296.0697 13.0 13
  296.08447 15.0 15
  297.0748 40.0 40
  299.05063 9.0 9
  299.06052 35.0 35
  299.09384 58.0 58
  299.10504 16.0 16
  300.07043 11.0 11
  300.09296 12.0 12
  302.08334 14.0 14
  303.01376 20.0 20
  303.05847 21.0 21
  305.08936 12.0 12
  305.11584 11.0 11
  306.64874 12.0 12
  307.06476 10.0 10
  309.07053 59.0 59
  309.0827 55.0 55
  309.12106 10.0 10
  310.05515 10.0 10
  310.07608 11.0 11
  310.47327 10.0 10
  311.05518 106.0 106
  311.09668 13.0 13
  312.0495 10.0 10
  313.06674 11.0 11
  314.05069 9.0 9
  315.65915 9.0 9
  317.42599 15.0 15
  320.10925 10.0 10
  321.07147 43.0 43
  322.06192 10.0 10
  323.10117 9.0 9
  325.11237 15.0 15
  330.0712 12.0 12
  330.09174 20.0 20
  331.05954 21.0 21
  331.08878 16.0 16
  334.07471 27.0 27
  335.08591 10.0 10
  336.11957 14.0 14
  339.07672 11.0 11
  339.09958 23.0 23
  341.08337 16.0 16
  346.08752 11.0 11
  346.09888 11.0 11
  347.11224 9.0 9
  351.08109 32.0 32
  351.10284 10.0 10
  352.09644 15.0 15
  357.06729 12.0 12
  357.08731 9.0 9
  358.09079 18.0 18
  359.08704 16.0 16
  361.08871 11.0 11
  361.11246 21.0 21
  361.13226 12.0 12
  362.09708 13.0 13
  363.08389 10.0 10
  369.07593 27.0 27
  370.08142 10.0 10
  376.09079 25.0 25
  379.11612 111.0 111
  380.08255 9.0 9
  380.11566 10.0 10
  380.13055 30.0 30
  383.09256 9.0 9
  386.06616 13.0 13
  386.08612 14.0 14
  387.09113 27.0 27
  389.09686 25.0 25
  391.11133 68.0 68
  391.12848 15.0 15
  392.09348 15.0 15
  392.12241 27.0 27
  402.11917 11.0 11
  403.06836 12.0 12
  403.08685 25.0 25
  404.08389 31.0 31
  405.0954 9.0 9
  406.1011 12.0 12
  407.07806 13.0 13
  407.11346 114.0 114
  407.13007 48.0 48
  408.10245 22.0 22
  408.12518 40.0 40
  408.15012 10.0 10
  409.11288 15.0 15
  414.07153 25.0 25
  415.08237 11.0 11
  417.09433 30.0 30
  417.11243 22.0 22
  418.09528 30.0 30
  418.11038 9.0 9
  421.08319 12.0 12
  428.14905 12.0 12
  435.08853 16.0 16
  435.11002 42.0 42
  435.12881 17.0 17
  436.10748 15.0 15
  449.10953 12.0 12
//
