ACCESSION: MSBNK-RIKEN-PR304349
RECORD_TITLE: Ginsenoside F1; LC-ESI-QTOF; MS2
DATE: 2019.03.28
AUTHORS: Tetsuya Mori, Center for Sustainable Resource Science, RIKEN
LICENSE: CC BY-NC-SA
PUBLICATION: Tsugawa H., Nakabayashi R., Mori T., Yamada Y., Takahashi M., Rai A., Sugiyama R., Yamamoto H., Nakaya T., Yamazaki M., Kooke R., Bac-Molenaar JA., Oztolan-Erol N., Keurentjes JJB., Arita M., Saito K. (2019) "A cheminformatics approach to characterize metabolomes in stable-isotope-labeled organisms" Nature Methods 16(4):295-298. [doi:10.1038/s41592-019-0358-2]
COMMENT: registered in RIKEN PlaSMA
CH$NAME: Ginsenoside F1
CH$COMPOUND_CLASS: Triterpene saponins
CH$FORMULA: C36H62O9
CH$EXACT_MASS: 638.883
CH$SMILES: CC(C)=CCC[C@](C)(O[C@@H]1O[C@H](CO)[C@@H](O)[C@H](O)[C@H]1O)[C@H]1CC[C@]2(C)[C@@H]1[C@H](O)C[C@@H]1[C@@]3(C)CC[C@H](O)C(C)(C)[C@@H]3[C@@H](O)C[C@@]21C
CH$IUPAC: InChI=1S/C36H62O9/c1-19(2)10-9-13-36(8,45-31-29(43)28(42)27(41)23(18-37)44-31)20-11-15-34(6)26(20)21(38)16-24-33(5)14-12-25(40)32(3,4)30(33)22(39)17-35(24,34)7/h10,20-31,37-43H,9,11-18H2,1-8H3/t20-,21+,22-,23+,24+,25-,26-,27+,28-,29+,30-,31-,33+,34+,35+,36-/m0/s1
CH$LINK: INCHIKEY XNGXWSFSJIQMNC-FIYORUNESA-N
AC$INSTRUMENT: LC, Waters Acquity UPLC System; MS, Waters Xevo G2 Q-Tof
AC$INSTRUMENT_TYPE: LC-ESI-QTOF
AC$MASS_SPECTROMETRY: MS_TYPE MS2
AC$MASS_SPECTROMETRY: ION_MODE POSITIVE
AC$MASS_SPECTROMETRY: COLLISION_ENERGY 6V
AC$MASS_SPECTROMETRY: DESOLVATION_GAS_FLOW 800/h
AC$MASS_SPECTROMETRY: DESOLVATION_TEMPERATURE 450 C
AC$MASS_SPECTROMETRY: IONIZATION ESI
AC$CHROMATOGRAPHY: CAPILLARY_VOLTAGE +3.00 kV
AC$CHROMATOGRAPHY: COLUMN_NAME Acquity bridged ethyl hybrid C18 (1.7 um, 2.1 mm * 100 mm, Waters)
AC$CHROMATOGRAPHY: COLUMN_TEMPERATURE 40 C
AC$CHROMATOGRAPHY: FLOW_GRADIENT A/B = (99.5%/0.5% at 0 min, 99.5%/0.5% at 0.1 min, 20%/80% at 10 min, 0.5%/99.5% at 10.1 min, 0.5%/99.5% at 12.0 min, 99.5%/0.5% at 12.1 min, 99.5%/0.5% at 15.0 min)
AC$CHROMATOGRAPHY: FLOW_RATE 0.3 ml/min at 0 min, 0.3 ml/min at 10 min, 0.4 ml/min at 10.1 min, 0.4 ml/min at 14.4 min, 0.3 ml/min at 14.5 min
AC$CHROMATOGRAPHY: RETENTION_TIME 6.58855
AC$CHROMATOGRAPHY: SOLVENT A water including 0.1% formic acid
AC$CHROMATOGRAPHY: SOLVENT B acetonitrile including 0.1% formic acid
MS$FOCUSED_ION: PRECURSOR_TYPE [M+H]+
MS$FOCUSED_ION: PRECURSOR_M/Z 639.44666
PK$SPLASH: splash10-0ab9-0130901000-918126ffa1c6ea483953
PK$NUM_PEAK: 29
PK$PEAK: m/z int. rel.int.
  95.08746 233.0 233
  147.11739 256.0 256
  148.12204 221.0 221
  149.12749 186.0 186
  151.11823 198.0 198
  203.18663 267.0 267
  205.15715 244.0 244
  217.20914 198.0 198
  236.20615 198.0 198
  241.19237 186.0 186
  248.20726 279.0 279
  255.202 186.0 186
  269.20737 198.0 198
  323.27478 186.0 186
  379.30405 186.0 186
  423.36935 500.0 500
  424.34534 628.0 627
  424.37625 186.0 186
  425.3678 198.0 198
  441.35486 186.0 186
  441.37469 663.0 662
  442.37845 198.0 198
  443.38937 209.0 209
  459.37897 1000.0 999
  459.40283 547.0 546
  461.38663 186.0 186
  603.41882 453.0 453
  639.39783 198.0 198
  639.44958 186.0 186
//
