ACCESSION: MSBNK-RIKEN-PR300767
RECORD_TITLE: Iso-gamma-fagarine; LC-ESI-QTOF; MS2
DATE: 2019.03.28
AUTHORS: Tetsuya Mori, Center for Sustainable Resource Science, RIKEN
LICENSE: CC BY-NC-SA
PUBLICATION: Tsugawa H., Nakabayashi R., Mori T., Yamada Y., Takahashi M., Rai A., Sugiyama R., Yamamoto H., Nakaya T., Yamazaki M., Kooke R., Bac-Molenaar JA., Oztolan-Erol N., Keurentjes JJB., Arita M., Saito K. (2019) "A cheminformatics approach to characterize metabolomes in stable-isotope-labeled organisms" Nature Methods 16(4):295-298. [doi:10.1038/s41592-019-0358-2]
COMMENT: registered in RIKEN PlaSMA
CH$NAME: Iso-gamma-fagarine
CH$COMPOUND_CLASS: Furanoquinolines
CH$FORMULA: C13H11NO3
CH$EXACT_MASS: 229.235
CH$SMILES: COC1=CC=CC2=C1N(C)C1=C(C=CO1)C2=O
CH$IUPAC: InChI=1S/C13H11NO3/c1-14-11-8(4-3-5-10(11)16-2)12(15)9-6-7-17-13(9)14/h3-7H,1-2H3
CH$LINK: INCHIKEY VNBUMBNLPGLBML-UHFFFAOYSA-N
AC$INSTRUMENT: LC, Waters Acquity UPLC System; MS, Waters Xevo G2 Q-Tof
AC$INSTRUMENT_TYPE: LC-ESI-QTOF
AC$MASS_SPECTROMETRY: MS_TYPE MS2
AC$MASS_SPECTROMETRY: ION_MODE POSITIVE
AC$MASS_SPECTROMETRY: COLLISION_ENERGY 6V
AC$MASS_SPECTROMETRY: DESOLVATION_GAS_FLOW 800/h
AC$MASS_SPECTROMETRY: DESOLVATION_TEMPERATURE 450 C
AC$MASS_SPECTROMETRY: IONIZATION ESI
AC$CHROMATOGRAPHY: CAPILLARY_VOLTAGE +3.00 kV
AC$CHROMATOGRAPHY: COLUMN_NAME Acquity bridged ethyl hybrid C18 (1.7 um, 2.1 mm * 100 mm, Waters)
AC$CHROMATOGRAPHY: COLUMN_TEMPERATURE 40 C
AC$CHROMATOGRAPHY: FLOW_GRADIENT A/B = (99.5%/0.5% at 0 min, 99.5%/0.5% at 0.1 min, 20%/80% at 10 min, 0.5%/99.5% at 10.1 min, 0.5%/99.5% at 12.0 min, 99.5%/0.5% at 12.1 min, 99.5%/0.5% at 15.0 min)
AC$CHROMATOGRAPHY: FLOW_RATE 0.3 ml/min at 0 min, 0.3 ml/min at 10 min, 0.4 ml/min at 10.1 min, 0.4 ml/min at 14.4 min, 0.3 ml/min at 14.5 min
AC$CHROMATOGRAPHY: RETENTION_TIME 5.589417
AC$CHROMATOGRAPHY: SOLVENT A water including 0.1% formic acid
AC$CHROMATOGRAPHY: SOLVENT B acetonitrile including 0.1% formic acid
MS$FOCUSED_ION: PRECURSOR_TYPE [M+H]+
MS$FOCUSED_ION: PRECURSOR_M/Z 230.0811697
PK$SPLASH: splash10-00ei-1900000000-4303147c9982fbac9bb8
PK$NUM_PEAK: 197
PK$PEAK: m/z int. rel.int.
  55.02206 10.0 10
  77.03827 174.0 174
  77.04346 98.0 98
  78.04498 23.0 23
  79.0545 15.0 15
  80.03085 13.0 13
  82.41121 8.0 8
  85.2243 10.0 10
  87.68491 8.0 8
  88.00323 8.0 8
  89.03729 309.0 309
  89.04173 107.0 107
  90.02547 10.0 10
  90.04134 39.0 39
  90.04637 69.0 69
  91.01784 18.0 18
  91.02314 11.0 11
  91.04467 10.0 10
  91.05326 14.0 14
  91.06026 12.0 12
  93.0369 30.0 30
  95.01331 8.0 8
  96.01725 11.0 11
  101.03983 30.0 30
  102.04027 64.0 64
  102.04877 93.0 93
  102.82679 9.0 9
  103.05122 88.0 88
  103.0563 210.0 210
  103.40662 12.0 12
  103.60435 10.0 10
  104.04866 52.0 52
  104.05395 140.0 140
  105.02628 9.0 9
  105.03288 21.0 21
  105.05763 12.0 12
  106.02593 10.0 10
  106.06182 13.0 13
  106.82285 12.0 12
  107.04422 61.0 61
  107.05483 62.0 62
  109.01319 12.0 12
  110.74639 11.0 11
  113.01035 10.0 10
  113.03384 15.0 15
  113.04253 25.0 25
  114.02401 14.0 14
  114.03135 29.0 29
  114.0443 43.0 43
  114.05011 14.0 14
  115.05518 86.0 86
  115.06174 37.0 37
  115.54387 9.0 9
  116.01054 16.0 16
  116.02098 8.0 8
  116.04728 188.0 188
  116.05458 184.0 184
  117.03422 35.0 35
  117.05125 22.0 22
  117.05743 54.0 54
  117.06366 14.0 14
  117.42216 11.0 11
  118.01096 8.0 8
  118.02475 9.0 9
  118.04153 34.0 34
  118.06635 12.0 12
  119.0285 15.0 15
  119.29046 14.0 14
  120.02225 8.0 8
  120.04616 157.0 157
  121.01949 9.0 9
  127.04855 13.0 13
  127.76961 15.0 15
  128.03119 11.0 11
  128.0502 454.0 454
  128.79878 8.0 8
  129.03096 11.0 11
  129.05064 62.0 62
  129.05765 47.0 47
  130.01396 12.0 12
  130.02538 8.0 8
  130.03226 12.0 12
  130.04297 49.0 49
  130.06549 748.0 747
  130.41237 9.0 9
  130.81291 11.0 11
  130.85262 10.0 10
  131.04655 180.0 180
  131.05246 167.0 167
  131.06396 146.0 146
  131.07251 105.0 105
  131.41995 8.0 8
  131.7859 8.0 8
  132.04558 61.0 61
  132.05739 14.0 14
  132.06577 8.0 8
  132.08231 9.0 9
  133.04999 48.0 48
  133.05748 34.0 34
  133.06386 16.0 16
  133.26189 14.0 14
  135.04779 15.0 15
  139.04547 16.0 16
  139.84174 12.0 12
  140.02985 8.0 8
  140.03645 14.0 14
  140.05017 236.0 236
  140.06082 28.0 28
  140.81018 8.0 8
  141.05064 24.0 24
  141.06102 19.0 19
  142.03622 26.0 26
  142.04649 14.0 14
  142.06244 45.0 45
  142.07176 20.0 20
  142.94106 15.0 15
  144.02361 9.0 9
  144.03792 70.0 70
  144.04695 62.0 62
  145.05161 23.0 23
  146.02127 39.0 39
  147.0204 10.0 10
  147.04013 12.0 12
  150.79297 15.0 15
  155.50043 22.0 22
  156.01439 10.0 10
  156.03925 84.0 84
  156.04623 103.0 103
  156.06337 29.0 29
  156.0713 16.0 16
  157.02538 14.0 14
  157.0345 19.0 19
  157.05174 69.0 69
  157.55423 9.0 9
  158.03705 10.0 10
  158.05344 102.0 102
  158.06253 263.0 263
  159.04631 36.0 36
  159.05554 27.0 27
  159.06682 26.0 26
  159.07394 22.0 22
  160.04764 28.0 28
  160.05569 20.0 20
  160.07043 10.0 10
  160.76236 8.0 8
  161.04333 20.0 20
  162.05298 12.0 12
  168.02715 11.0 11
  168.03954 83.0 83
  168.05093 52.0 52
  168.06366 12.0 12
  168.76743 13.0 13
  169.05463 55.0 55
  170.03513 15.0 15
  170.06181 148.0 148
  170.07706 13.0 13
  171.0603 20.0 20
  171.11496 8.0 8
  171.88182 11.0 11
  172.03928 1000.0 999
  172.3558 9.0 9
  172.681 10.0 10
  173.02588 9.0 9
  173.03731 32.0 32
  173.04816 21.0 21
  173.05856 12.0 12
  174.05936 14.0 14
  175.48259 10.0 10
  179.5927 11.0 11
  181.29984 13.0 13
  184.00546 10.0 10
  185.05067 88.0 88
  185.55075 13.0 13
  186.03598 12.0 12
  186.05336 426.0 426
  186.06554 47.0 47
  186.96936 8.0 8
  187.04805 23.0 23
  187.06403 237.0 237
  188.06161 13.0 13
  198.03793 14.0 14
  198.05237 21.0 21
  200.05455 12.0 12
  205.81564 10.0 10
  212.00323 11.0 11
  212.02362 22.0 22
  212.03838 150.0 150
  213.03572 17.0 17
  213.04744 14.0 14
  214.03114 18.0 18
  214.04329 47.0 47
  214.05234 70.0 70
  215.04871 42.0 42
  215.06049 21.0 21
  216.06502 11.0 11
  216.08095 10.0 10
  230.08362 163.0 163
//
