ACCESSION: MSBNK-RIKEN-PR303215
RECORD_TITLE: 2'-Hydroxyflavanone; LC-ESI-QTOF; MS2
DATE: 2019.03.28
AUTHORS: Tetsuya Mori, Center for Sustainable Resource Science, RIKEN
LICENSE: CC BY-NC-SA
PUBLICATION: Tsugawa H., Nakabayashi R., Mori T., Yamada Y., Takahashi M., Rai A., Sugiyama R., Yamamoto H., Nakaya T., Yamazaki M., Kooke R., Bac-Molenaar JA., Oztolan-Erol N., Keurentjes JJB., Arita M., Saito K. (2019) "A cheminformatics approach to characterize metabolomes in stable-isotope-labeled organisms" Nature Methods 16(4):295-298. [doi:10.1038/s41592-019-0358-2]
COMMENT: registered in RIKEN PlaSMA
CH$NAME: 2'-Hydroxyflavanone
CH$COMPOUND_CLASS: Flavanones
CH$FORMULA: C15H12O3
CH$EXACT_MASS: 240.258
CH$SMILES: OC1=CC=CC=C1C1CC(=O)C2=CC=CC=C2O1
CH$IUPAC: InChI=1S/C15H12O3/c16-12-7-3-1-5-10(12)15-9-13(17)11-6-2-4-8-14(11)18-15/h1-8,15-16H,9H2
CH$LINK: INCHIKEY KZKWCKFDCPVDFJ-UHFFFAOYSA-N
AC$INSTRUMENT: LC, Waters Acquity UPLC System; MS, Waters Xevo G2 Q-Tof
AC$INSTRUMENT_TYPE: LC-ESI-QTOF
AC$MASS_SPECTROMETRY: MS_TYPE MS2
AC$MASS_SPECTROMETRY: ION_MODE POSITIVE
AC$MASS_SPECTROMETRY: COLLISION_ENERGY 6V
AC$MASS_SPECTROMETRY: DESOLVATION_GAS_FLOW 800/h
AC$MASS_SPECTROMETRY: DESOLVATION_TEMPERATURE 450 C
AC$MASS_SPECTROMETRY: IONIZATION ESI
AC$CHROMATOGRAPHY: CAPILLARY_VOLTAGE +3.00 kV
AC$CHROMATOGRAPHY: COLUMN_NAME Acquity bridged ethyl hybrid C18 (1.7 um, 2.1 mm * 100 mm, Waters)
AC$CHROMATOGRAPHY: COLUMN_TEMPERATURE 40 C
AC$CHROMATOGRAPHY: FLOW_GRADIENT A/B = (99.5%/0.5% at 0 min, 99.5%/0.5% at 0.1 min, 20%/80% at 10 min, 0.5%/99.5% at 10.1 min, 0.5%/99.5% at 12.0 min, 99.5%/0.5% at 12.1 min, 99.5%/0.5% at 15.0 min)
AC$CHROMATOGRAPHY: FLOW_RATE 0.3 ml/min at 0 min, 0.3 ml/min at 10 min, 0.4 ml/min at 10.1 min, 0.4 ml/min at 14.4 min, 0.3 ml/min at 14.5 min
AC$CHROMATOGRAPHY: RETENTION_TIME 7.4505
AC$CHROMATOGRAPHY: SOLVENT A water including 0.1% formic acid
AC$CHROMATOGRAPHY: SOLVENT B acetonitrile including 0.1% formic acid
MS$FOCUSED_ION: PRECURSOR_TYPE [M+H]+
MS$FOCUSED_ION: PRECURSOR_M/Z 241.0859207
PK$SPLASH: splash10-00di-1900000000-3504f7e075280c45e0dc
PK$NUM_PEAK: 45
PK$PEAK: m/z int. rel.int.
  65.01801 5.0 5
  65.03289 18.0 18
  65.03877 26.0 26
  65.9436 10.0 10
  66.03647 9.0 9
  66.04237 7.0 7
  91.04851 7.0 7
  93.03505 153.0 153
  94.03793 8.0 8
  104.05517 7.0 7
  117.07218 6.0 6
  117.88521 6.0 6
  119.04862 10.0 10
  120.97459 19.0 19
  121.01166 10.0 10
  121.02706 1000.0 999
  122.02722 57.0 57
  122.03272 41.0 41
  122.04269 8.0 8
  123.03194 13.0 13
  123.32186 6.0 6
  128.05646 13.0 13
  144.96518 7.0 7
  150.14488 5.0 5
  151.04683 8.0 8
  152.06642 31.0 31
  153.06117 15.0 15
  154.84198 10.0 10
  157.06537 9.0 9
  167.09927 8.0 8
  171.07877 11.0 11
  181.05843 19.0 19
  181.06967 11.0 11
  181.07858 7.0 7
  182.06418 6.0 6
  195.07332 6.0 6
  197.06374 9.0 9
  198.0663 13.0 13
  198.28452 7.0 7
  204.42229 7.0 7
  223.07591 17.0 17
  223.0873 6.0 6
  224.07985 26.0 26
  241.06267 9.0 9
  241.08839 8.0 8
//
