ACCESSION: MSBNK-RIKEN-PR303383
RECORD_TITLE: NP-006989(12); LC-ESI-QTOF; MS2
DATE: 2019.03.28
AUTHORS: Tetsuya Mori, Center for Sustainable Resource Science, RIKEN
LICENSE: CC BY-NC-SA
PUBLICATION: Tsugawa H., Nakabayashi R., Mori T., Yamada Y., Takahashi M., Rai A., Sugiyama R., Yamamoto H., Nakaya T., Yamazaki M., Kooke R., Bac-Molenaar JA., Oztolan-Erol N., Keurentjes JJB., Arita M., Saito K. (2019) "A cheminformatics approach to characterize metabolomes in stable-isotope-labeled organisms" Nature Methods 16(4):295-298. [doi:10.1038/s41592-019-0358-2]
COMMENT: registered in RIKEN PlaSMA
CH$NAME: NP-006989(12)
CH$COMPOUND_CLASS: Flavonoid 8-C-glycosides
CH$FORMULA: C27H30O16
CH$EXACT_MASS: 610.521
CH$SMILES: OC[C@H]1O[C@H]([C@H](O)[C@@H](O)[C@@H]1O)C1=C(O)C(C2OC(CO)C(O)C(O)C2O)=C2OC(=CC(=O)C2=C1O)C1=CC(O)=C(O)C=C1
CH$IUPAC: InChI=1S/C27H30O16/c28-5-12-17(33)21(37)23(39)26(42-12)15-19(35)14-10(32)4-11(7-1-2-8(30)9(31)3-7)41-25(14)16(20(15)36)27-24(40)22(38)18(34)13(6-29)43-27/h1-4,12-13,17-18,21-24,26-31,33-40H,5-6H2/t12-,13?,17-,18?,21+,22?,23-,24?,26+,27?/m1/s1
CH$LINK: INCHIKEY ZLPSOQFIIQIIAX-FCSQLNSJSA-N
AC$INSTRUMENT: LC, Waters Acquity UPLC System; MS, Waters Xevo G2 Q-Tof
AC$INSTRUMENT_TYPE: LC-ESI-QTOF
AC$MASS_SPECTROMETRY: MS_TYPE MS2
AC$MASS_SPECTROMETRY: ION_MODE POSITIVE
AC$MASS_SPECTROMETRY: COLLISION_ENERGY 6V
AC$MASS_SPECTROMETRY: DESOLVATION_GAS_FLOW 800/h
AC$MASS_SPECTROMETRY: DESOLVATION_TEMPERATURE 450 C
AC$MASS_SPECTROMETRY: IONIZATION ESI
AC$CHROMATOGRAPHY: CAPILLARY_VOLTAGE +3.00 kV
AC$CHROMATOGRAPHY: COLUMN_NAME Acquity bridged ethyl hybrid C18 (1.7 um, 2.1 mm * 100 mm, Waters)
AC$CHROMATOGRAPHY: COLUMN_TEMPERATURE 40 C
AC$CHROMATOGRAPHY: FLOW_GRADIENT A/B = (99.5%/0.5% at 0 min, 99.5%/0.5% at 0.1 min, 20%/80% at 10 min, 0.5%/99.5% at 10.1 min, 0.5%/99.5% at 12.0 min, 99.5%/0.5% at 12.1 min, 99.5%/0.5% at 15.0 min)
AC$CHROMATOGRAPHY: FLOW_RATE 0.3 ml/min at 0 min, 0.3 ml/min at 10 min, 0.4 ml/min at 10.1 min, 0.4 ml/min at 14.4 min, 0.3 ml/min at 14.5 min
AC$CHROMATOGRAPHY: RETENTION_TIME 3.100167
AC$CHROMATOGRAPHY: SOLVENT A water including 0.1% formic acid
AC$CHROMATOGRAPHY: SOLVENT B acetonitrile including 0.1% formic acid
MS$FOCUSED_ION: PRECURSOR_TYPE [M+H]+
MS$FOCUSED_ION: PRECURSOR_M/Z 611.1606613
PK$SPLASH: splash10-054y-0008910000-01c028b42f3779962074
PK$NUM_PEAK: 299
PK$PEAK: m/z int. rel.int.
  79.7131 12.0 12
  103.04161 9.0 9
  137.02171 9.0 9
  138.02438 23.0 23
  177.01558 14.0 14
  189.0148 14.0 14
  205.44012 8.0 8
  219.02911 11.0 11
  221.85405 11.0 11
  230.01596 14.0 14
  247.51613 12.0 12
  259.05743 11.0 11
  275.1264 12.0 12
  279.27319 9.0 9
  280.06433 13.0 13
  280.28226 12.0 12
  283.23877 23.0 23
  285.03766 14.0 14
  286.51187 17.0 17
  300.05804 11.0 11
  303.33926 13.0 13
  305.03403 21.0 21
  310.40796 15.0 15
  311.05182 266.0 266
  312.05844 45.0 45
  313.72275 11.0 11
  316.98914 10.0 10
  319.09998 12.0 12
  321.05096 10.0 10
  322.05582 14.0 14
  323.02084 10.0 10
  323.04309 81.0 81
  323.0582 179.0 179
  324.05789 81.0 81
  325.06525 13.0 13
  325.73383 14.0 14
  326.05966 15.0 15
  329.0582 12.0 12
  329.08035 17.0 17
  330.43201 9.0 9
  335.06607 10.0 10
  337.07758 27.0 27
  338.78732 8.0 8
  339.04996 34.0 34
  340.02176 10.0 10
  340.04544 16.0 16
  340.84009 9.0 9
  340.90964 16.0 16
  341.00067 16.0 16
  341.0296 13.0 13
  341.06339 1000.0 999
  341.1105 26.0 26
  341.17313 11.0 11
  341.35571 11.0 11
  342.00751 12.0 12
  342.0687 225.0 225
  343.06714 27.0 27
  345.07202 17.0 17
  347.08765 30.0 30
  351.00775 11.0 11
  351.03613 12.0 12
  351.07626 35.0 35
  352.08194 34.0 34
  352.86362 10.0 10
  353.02698 9.0 9
  353.05655 230.0 230
  353.07208 354.0 354
  354.04639 8.0 8
  354.06879 131.0 131
  354.08646 22.0 22
  354.23419 9.0 9
  354.40604 13.0 13
  354.71432 12.0 12
  355.03387 10.0 10
  355.0802 10.0 10
  361.00937 13.0 13
  362.07324 19.0 19
  363.08218 10.0 10
  363.09802 23.0 23
  364.9957 17.0 17
  365.01099 10.0 10
  365.06036 230.0 230
  365.09003 34.0 34
  366.06097 55.0 55
  366.07645 51.0 51
  367.08401 65.0 65
  367.66312 9.0 9
  368.06418 15.0 15
  369.06039 11.0 11
  370.04361 8.0 8
  370.75525 16.0 16
  371.0687 169.0 169
  371.08041 204.0 204
  372.08667 70.0 70
  374.07559 10.0 10
  374.36929 9.0 9
  375.10028 9.0 9
  377.05505 131.0 131
  377.07224 81.0 81
  378.07635 51.0 51
  379.02347 9.0 9
  379.04453 12.0 12
  379.08987 36.0 36
  381.07214 15.0 15
  381.09827 81.0 81
  382.09592 40.0 40
  383.07135 81.0 81
  383.09225 30.0 30
  388.21442 14.0 14
  389.03357 10.0 10
  389.05307 46.0 46
  389.07129 28.0 28
  390.06982 48.0 48
  391.04434 12.0 12
  391.07852 90.0 90
  392.05383 8.0 8
  393.04993 41.0 41
  393.06638 45.0 45
  394.07111 9.0 9
  395.02933 19.0 19
  395.07581 928.0 927
  396.04578 9.0 9
  396.07996 243.0 243
  396.16891 8.0 8
  397.0618 29.0 29
  397.08725 37.0 37
  397.25705 11.0 11
  401.04999 31.0 31
  402.0672 22.0 22
  404.07663 17.0 17
  405.09 22.0 22
  405.09961 12.0 12
  406.06186 10.0 10
  406.10272 9.0 9
  407.07532 317.0 317
  408.0741 69.0 69
  408.51431 8.0 8
  409.0817 87.0 87
  415.07135 17.0 17
  417.08334 12.0 12
  418.07382 10.0 10
  419.03122 12.0 12
  419.06628 151.0 151
  419.07837 253.0 253
  419.10367 16.0 16
  419.97928 12.0 12
  420.07025 94.0 94
  420.10529 8.0 8
  421.08728 10.0 10
  421.09912 30.0 30
  422.07501 13.0 13
  423.04636 8.0 8
  423.09262 14.0 14
  424.05542 13.0 13
  424.07913 25.0 25
  425.03955 10.0 10
  425.08743 644.0 643
  426.09186 178.0 178
  426.46091 14.0 14
  427.10153 35.0 35
  427.1131 10.0 10
  427.40942 22.0 22
  428.07449 9.0 9
  429.09436 8.0 8
  431.07571 41.0 41
  431.09415 23.0 23
  431.10779 10.0 10
  433.07278 12.0 12
  433.09583 37.0 37
  433.11374 10.0 10
  435.11298 12.0 12
  436.06952 11.0 11
  437.04919 30.0 30
  437.08591 567.0 566
  437.17691 22.0 22
  438.06409 24.0 24
  438.08688 22.0 22
  438.09872 56.0 56
  438.15634 9.0 9
  439.09988 99.0 99
  442.0892 8.0 8
  443.05222 37.0 37
  443.08679 215.0 215
  443.10138 225.0 225
  443.15033 18.0 18
  444.05115 10.0 10
  444.07364 31.0 31
  444.09177 92.0 92
  444.11169 78.0 78
  445.06424 17.0 17
  445.09155 41.0 41
  445.10449 41.0 41
  446.08255 10.0 10
  446.11719 20.0 20
  447.07623 19.0 19
  447.09445 22.0 22
  447.55142 9.0 9
  448.08447 11.0 11
  449.08597 84.0 84
  449.12521 14.0 14
  450.09506 32.0 32
  450.14981 11.0 11
  451.40503 10.0 10
  455.02963 11.0 11
  455.061 17.0 17
  455.09763 358.0 358
  455.16806 9.0 9
  456.0798 54.0 54
  456.10321 69.0 69
  457.1109 14.0 14
  458.6506 8.0 8
  459.12079 13.0 13
  459.90909 12.0 12
  460.08307 14.0 14
  461.00272 8.0 8
  461.07355 56.0 56
  461.08917 61.0 61
  461.10815 35.0 35
  465.12357 31.0 31
  466.13031 15.0 15
  467.09116 25.0 25
  467.11096 10.0 10
  468.09875 9.0 9
  470.09277 11.0 11
  471.70825 11.0 11
  473.06772 37.0 37
  473.10513 454.0 454
  473.14594 11.0 11
  474.06998 12.0 12
  474.10883 84.0 84
  474.13275 20.0 20
  475.10141 12.0 12
  475.11884 24.0 24
  478.09891 18.0 18
  479.03839 14.0 14
  479.07251 30.0 30
  479.10364 45.0 45
  480.10114 14.0 14
  481.9144 13.0 13
  483.11404 8.0 8
  485.08078 41.0 41
  485.10876 14.0 14
  486.09332 36.0 36
  487.12039 12.0 12
  491.0303 14.0 14
  491.09534 53.0 53
  491.12262 34.0 34
  492.0788 20.0 20
  492.10248 23.0 23
  493.09363 10.0 10
  493.1254 29.0 29
  494.12167 12.0 12
  497.09311 149.0 149
  497.1142 158.0 158
  497.14362 9.0 9
  497.48584 8.0 8
  498.09619 25.0 25
  498.12003 48.0 48
  498.14288 12.0 12
  503.08844 112.0 112
  503.12021 12.0 12
  504.06079 17.0 17
  504.08102 22.0 22
  504.10959 27.0 27
  509.08746 14.0 14
  509.10681 36.0 36
  510.70633 9.0 9
  512.15576 14.0 14
  514.11163 12.0 12
  515.10327 20.0 20
  515.12903 54.0 54
  516.12891 36.0 36
  521.0863 19.0 19
  521.1145 102.0 102
  522.05243 12.0 12
  522.1217 13.0 13
  523.1098 24.0 24
  527.08936 16.0 16
  527.11487 86.0 86
  528.04865 16.0 16
  528.10443 26.0 26
  529.11261 21.0 21
  534.5993 9.0 9
  538.8623 12.0 12
  539.1015 98.0 98
  539.12225 121.0 121
  540.10181 10.0 10
  540.12006 37.0 37
  540.97577 12.0 12
  542.12097 10.0 10
  545.10004 12.0 12
  546.12567 9.0 9
  557.11908 71.0 71
  557.14929 18.0 18
  557.35791 9.0 9
  558.078 10.0 10
  564.21692 10.0 10
  575.14417 11.0 11
  576.25653 16.0 16
//
