ACCESSION: MSBNK-RIKEN-PR306803
RECORD_TITLE: Quercetin-3-O-xyloside; LC-ESI-QTOF; MS2
DATE: 2019.03.28
AUTHORS: Tetsuya Mori, Center for Sustainable Resource Science, RIKEN
LICENSE: CC BY-NC-SA
PUBLICATION: Tsugawa H., Nakabayashi R., Mori T., Yamada Y., Takahashi M., Rai A., Sugiyama R., Yamamoto H., Nakaya T., Yamazaki M., Kooke R., Bac-Molenaar JA., Oztolan-Erol N., Keurentjes JJB., Arita M., Saito K. (2019) "A cheminformatics approach to characterize metabolomes in stable-isotope-labeled organisms" Nature Methods 16(4):295-298. [doi:10.1038/s41592-019-0358-2]
COMMENT: registered in RIKEN PlaSMA
CH$NAME: Quercetin-3-O-xyloside
CH$COMPOUND_CLASS: Flavonoid-3-O-glycosides
CH$FORMULA: C20H18O11
CH$EXACT_MASS: 434.353
CH$SMILES: OC1COC(OC2=C(OC3=CC(O)=CC(O)=C3C2=O)C2=CC(O)=C(O)C=C2)C(O)C1O
CH$IUPAC: InChI=1S/C20H18O11/c21-8-4-11(24)14-13(5-8)30-18(7-1-2-9(22)10(23)3-7)19(16(14)27)31-20-17(28)15(26)12(25)6-29-20/h1-5,12,15,17,20-26,28H,6H2
CH$LINK: INCHIKEY PZZRDJXEMZMZFD-UHFFFAOYSA-N
AC$INSTRUMENT: LC, Waters Acquity UPLC System; MS, Waters Xevo G2 Q-Tof
AC$INSTRUMENT_TYPE: LC-ESI-QTOF
AC$MASS_SPECTROMETRY: MS_TYPE MS2
AC$MASS_SPECTROMETRY: ION_MODE NEGATIVE
AC$MASS_SPECTROMETRY: COLLISION_ENERGY 6V
AC$MASS_SPECTROMETRY: DESOLVATION_GAS_FLOW 800/h
AC$MASS_SPECTROMETRY: DESOLVATION_TEMPERATURE 450 C
AC$MASS_SPECTROMETRY: IONIZATION ESI
AC$CHROMATOGRAPHY: CAPILLARY_VOLTAGE -2.75 kV
AC$CHROMATOGRAPHY: COLUMN_NAME Acquity bridged ethyl hybrid C18 (1.7 um, 2.1 mm * 100 mm, Waters)
AC$CHROMATOGRAPHY: COLUMN_TEMPERATURE 40 C
AC$CHROMATOGRAPHY: FLOW_GRADIENT A/B = (99.5%/0.5% at 0 min, 99.5%/0.5% at 0.1 min, 20%/80% at 10 min, 0.5%/99.5% at 10.1 min, 0.5%/99.5% at 12.0 min, 99.5%/0.5% at 12.1 min, 99.5%/0.5% at 15.0 min)
AC$CHROMATOGRAPHY: FLOW_RATE 0.3 ml/min at 0 min, 0.3 ml/min at 10 min, 0.4 ml/min at 10.1 min, 0.4 ml/min at 14.4 min, 0.3 ml/min at 14.5 min
AC$CHROMATOGRAPHY: RETENTION_TIME 4.164767
AC$CHROMATOGRAPHY: SOLVENT A water including 0.1% formic acid
AC$CHROMATOGRAPHY: SOLVENT B acetonitrile including 0.1% formic acid
MS$FOCUSED_ION: PRECURSOR_TYPE [M-H]-
MS$FOCUSED_ION: PRECURSOR_M/Z 433.07763494783
PK$SPLASH: splash10-00di-0590000000-f7e70c3badc7c3bc357b
PK$NUM_PEAK: 158
PK$PEAK: m/z int. rel.int.
  64.59586 9.0 9
  65.00317 29.0 29
  78.01382 14.0 14
  79.01569 11.0 11
  92.99467 8.0 8
  95.64828 9.0 9
  103.05802 10.0 10
  107.01273 132.0 132
  108.0211 73.0 73
  109.02311 15.0 15
  109.03072 27.0 27
  117.03491 8.0 8
  119.0059 8.0 8
  119.01208 21.0 21
  119.55064 12.0 12
  121.02219 23.0 23
  121.02951 79.0 79
  123.01613 10.0 10
  127.0513 12.0 12
  132.01201 11.0 11
  133.02692 10.0 10
  133.0323 8.0 8
  133.05952 11.0 11
  135.00714 50.0 50
  139.05444 7.0 7
  142.01526 8.0 8
  142.04579 9.0 9
  143.05153 41.0 41
  144.0517 14.0 14
  145.03204 34.0 34
  146.0387 10.0 10
  147.0081 22.0 22
  147.03918 11.0 11
  148.01544 121.0 121
  149.02411 30.0 30
  149.66115 9.0 9
  150.99457 14.0 14
  151.0023 25.0 25
  152.00594 16.0 16
  152.01872 13.0 13
  154.04485 7.0 7
  155.04585 23.0 23
  155.76086 7.0 7
  157.02431 19.0 19
  158.03561 40.0 40
  159.04521 50.0 50
  160.00745 10.0 10
  160.02032 23.0 23
  162.99991 90.0 90
  164.01112 49.0 49
  165.02074 10.0 10
  165.0313 12.0 12
  167.05406 9.0 9
  167.55399 7.0 7
  169.02394 15.0 15
  169.03378 8.0 8
  171.0403 67.0 67
  171.05154 23.0 23
  172.05557 26.0 26
  173.02229 7.0 7
  173.03253 7.0 7
  173.05763 10.0 10
  174.03096 7.0 7
  175.04063 40.0 40
  176.03593 13.0 13
  177.04001 7.0 7
  178.99428 9.0 9
  179.01187 13.0 13
  182.03212 31.0 31
  183.04259 54.0 54
  184.00638 7.0 7
  184.03871 15.0 15
  185.02179 65.0 65
  186.02861 8.0 8
  187.03955 133.0 133
  188.04306 49.0 49
  190.02342 9.0 9
  190.03047 9.0 9
  190.05157 8.0 8
  193.01094 9.0 9
  197.02536 26.0 26
  198.01791 7.0 7
  198.03052 85.0 85
  199.01331 9.0 9
  199.0401 248.0 248
  200.04024 7.0 7
  200.78004 8.0 8
  201.01593 104.0 104
  201.04822 10.0 10
  202.0168 47.0 47
  203.01907 17.0 17
  203.03065 28.0 28
  203.039 46.0 46
  204.0347 7.0 7
  204.04462 17.0 17
  206.41147 8.0 8
  206.70869 12.0 12
  209.00932 13.0 13
  210.03493 7.0 7
  210.97525 11.0 11
  211.03862 121.0 121
  212.01102 7.0 7
  212.04114 9.0 9
  213.0219 30.0 30
  213.63644 8.0 8
  214.02991 21.0 21
  215.03168 191.0 191
  216.03751 7.0 7
  216.04729 9.0 9
  216.11018 7.0 7
  216.51646 10.0 10
  224.532 7.0 7
  225.00952 7.0 7
  225.02272 43.0 43
  226.02121 31.0 31
  226.03421 47.0 47
  226.99561 7.0 7
  227.03436 274.0 274
  228.03207 8.0 8
  228.04314 14.0 14
  229.01384 63.0 63
  230.01126 10.0 10
  230.0208 7.0 7
  239.0365 10.0 10
  240.0452 7.0 7
  241.00896 50.0 50
  242.01602 102.0 102
  242.03221 16.0 16
  242.80884 7.0 7
  243.03032 419.0 419
  244.03658 73.0 73
  245.02802 21.0 21
  245.05022 10.0 10
  253.0052 8.0 8
  253.01414 10.0 10
  254.01927 63.0 63
  254.03394 9.0 9
  255.02881 367.0 367
  256.02313 44.0 44
  256.03613 33.0 33
  257.03537 8.0 8
  267.02637 12.0 12
  270.02954 10.0 10
  270.98212 7.0 7
  271.02472 1000.0 999
  271.0459 28.0 28
  272.02618 171.0 171
  272.26752 7.0 7
  273.01263 15.0 15
  273.03302 26.0 26
  273.04691 16.0 16
  274.03738 12.0 12
  281.01355 9.0 9
  299.01804 25.0 25
  300.02682 25.0 25
  301.03857 11.0 11
  350.69794 13.0 13
  379.81625 7.0 7
//
