ACCESSION: MSBNK-RIKEN-PR301565
RECORD_TITLE: Vincamine; LC-ESI-QTOF; MS2
DATE: 2019.03.28
AUTHORS: Tetsuya Mori, Center for Sustainable Resource Science, RIKEN
LICENSE: CC BY-NC-SA
PUBLICATION: Tsugawa H., Nakabayashi R., Mori T., Yamada Y., Takahashi M., Rai A., Sugiyama R., Yamamoto H., Nakaya T., Yamazaki M., Kooke R., Bac-Molenaar JA., Oztolan-Erol N., Keurentjes JJB., Arita M., Saito K. (2019) "A cheminformatics approach to characterize metabolomes in stable-isotope-labeled organisms" Nature Methods 16(4):295-298. [doi:10.1038/s41592-019-0358-2]
COMMENT: registered in RIKEN PlaSMA
CH$NAME: Vincamine
CH$COMPOUND_CLASS: Eburnan-type alkaloids
CH$FORMULA: C21H26N2O3
CH$EXACT_MASS: 354.45
CH$SMILES: CCC12CCCN3CCC4=C(C13)N(C1=CC=CC=C41)C(O)(C2)C(=O)OC
CH$IUPAC: InChI=1S/C21H26N2O3/c1-3-20-10-6-11-22-12-9-15-14-7-4-5-8-16(14)23(17(15)18(20)22)21(25,13-20)19(24)26-2/h4-5,7-8,18,25H,3,6,9-13H2,1-2H3
CH$LINK: INCHIKEY RXPRRQLKFXBCSJ-UHFFFAOYSA-N
AC$INSTRUMENT: LC, Waters Acquity UPLC System; MS, Waters Xevo G2 Q-Tof
AC$INSTRUMENT_TYPE: LC-ESI-QTOF
AC$MASS_SPECTROMETRY: MS_TYPE MS2
AC$MASS_SPECTROMETRY: ION_MODE POSITIVE
AC$MASS_SPECTROMETRY: COLLISION_ENERGY 6V
AC$MASS_SPECTROMETRY: DESOLVATION_GAS_FLOW 800/h
AC$MASS_SPECTROMETRY: DESOLVATION_TEMPERATURE 450 C
AC$MASS_SPECTROMETRY: IONIZATION ESI
AC$CHROMATOGRAPHY: CAPILLARY_VOLTAGE +3.00 kV
AC$CHROMATOGRAPHY: COLUMN_NAME Acquity bridged ethyl hybrid C18 (1.7 um, 2.1 mm * 100 mm, Waters)
AC$CHROMATOGRAPHY: COLUMN_TEMPERATURE 40 C
AC$CHROMATOGRAPHY: FLOW_GRADIENT A/B = (99.5%/0.5% at 0 min, 99.5%/0.5% at 0.1 min, 20%/80% at 10 min, 0.5%/99.5% at 10.1 min, 0.5%/99.5% at 12.0 min, 99.5%/0.5% at 12.1 min, 99.5%/0.5% at 15.0 min)
AC$CHROMATOGRAPHY: FLOW_RATE 0.3 ml/min at 0 min, 0.3 ml/min at 10 min, 0.4 ml/min at 10.1 min, 0.4 ml/min at 14.4 min, 0.3 ml/min at 14.5 min
AC$CHROMATOGRAPHY: RETENTION_TIME 4.50125
AC$CHROMATOGRAPHY: SOLVENT A water including 0.1% formic acid
AC$CHROMATOGRAPHY: SOLVENT B acetonitrile including 0.1% formic acid
MS$FOCUSED_ION: PRECURSOR_TYPE [M+H]+
MS$FOCUSED_ION: PRECURSOR_M/Z 355.2016192
PK$SPLASH: splash10-0016-0294000000-c95004ee0d7980dabf5e
PK$NUM_PEAK: 209
PK$PEAK: m/z int. rel.int.
  93.07103 8.0 8
  98.09881 8.0 8
  105.07148 10.0 10
  107.08935 12.0 12
  110.09879 29.0 29
  112.11569 14.0 14
  117.06197 5.0 5
  117.07013 6.0 6
  122.05898 11.0 11
  124.11339 21.0 21
  129.06975 6.0 6
  130.06883 16.0 16
  131.0666 6.0 6
  131.08638 6.0 6
  132.08328 9.0 9
  134.06157 6.0 6
  134.09254 8.0 8
  134.0974 17.0 17
  136.07297 6.0 6
  138.09471 9.0 9
  138.12521 7.0 7
  138.13306 7.0 7
  143.07027 15.0 15
  144.08122 408.0 408
  145.0636 6.0 6
  145.08504 51.0 51
  146.09378 8.0 8
  151.07765 14.0 14
  152.10825 173.0 173
  153.10652 11.0 11
  153.11703 8.0 8
  156.08369 19.0 19
  158.09846 32.0 32
  162.09061 41.0 41
  162.10469 5.0 5
  163.0986 5.0 5
  168.08234 15.0 15
  169.08459 9.0 9
  170.06401 10.0 10
  170.09567 10.0 10
  173.11328 6.0 6
  180.08189 24.0 24
  182.09818 30.0 30
  183.10442 11.0 11
  184.07713 13.0 13
  184.11353 8.0 8
  194.09431 14.0 14
  194.11966 57.0 57
  195.10481 8.0 8
  196.09666 16.0 16
  198.09129 9.0 9
  202.08647 8.0 8
  204.06689 6.0 6
  205.09042 12.0 12
  206.08961 15.0 15
  206.09723 18.0 18
  207.09979 15.0 15
  207.12173 8.0 8
  208.07828 6.0 6
  208.10249 5.0 5
  208.11525 40.0 40
  208.12752 7.0 7
  209.12219 34.0 34
  210.1286 42.0 42
  212.13069 230.0 230
  213.1326 35.0 35
  214.13329 5.0 5
  218.0981 10.0 10
  219.09044 7.0 7
  219.10648 26.0 26
  220.10533 33.0 33
  220.11864 18.0 18
  221.12047 31.0 31
  222.09354 7.0 7
  222.11185 5.0 5
  222.13048 51.0 51
  223.12527 5.0 5
  223.13554 20.0 20
  224.11734 10.0 10
  224.14388 42.0 42
  224.1553 8.0 8
  225.14549 13.0 13
  232.10825 7.0 7
  232.121 11.0 11
  233.11942 9.0 9
  234.12837 101.0 101
  234.1463 6.0 6
  235.12593 23.0 23
  235.1378 15.0 15
  235.14545 7.0 7
  236.10696 6.0 6
  236.13058 13.0 13
  236.14421 59.0 59
  237.07593 6.0 6
  237.13564 6.0 6
  237.14722 26.0 26
  238.08932 11.0 11
  238.1189 6.0 6
  238.13229 6.0 6
  238.14293 6.0 6
  238.15393 8.0 8
  238.1684 7.0 7
  239.09511 26.0 26
  240.10173 11.0 11
  240.11333 8.0 8
  246.12703 26.0 26
  247.13802 7.0 7
  248.10327 6.0 6
  248.12859 18.0 18
  248.14217 63.0 63
  249.12148 10.0 10
  249.14545 41.0 41
  249.15511 21.0 21
  250.09303 7.0 7
  250.13725 7.0 7
  250.161 51.0 51
  251.09378 12.0 12
  252.08669 7.0 7
  252.10443 28.0 28
  253.11415 31.0 31
  253.17178 18.0 18
  254.11787 17.0 17
  260.14294 13.0 13
  261.14304 6.0 6
  262.11856 13.0 13
  262.12955 13.0 13
  262.1644 9.0 9
  263.12094 6.0 6
  263.15439 5.0 5
  264.0983 16.0 16
  264.11279 18.0 18
  264.13602 6.0 6
  265.11127 131.0 131
  265.13416 7.0 7
  266.12006 93.0 93
  266.15152 16.0 16
  267.1268 81.0 81
  267.18408 5.0 5
  268.12473 66.0 66
  268.13416 164.0 164
  269.13733 37.0 37
  270.14392 23.0 23
  274.12897 7.0 7
  275.11945 13.0 13
  276.10657 10.0 10
  276.12 14.0 14
  276.13077 10.0 10
  276.14978 9.0 9
  277.11017 6.0 6
  277.13306 8.0 8
  277.14401 9.0 9
  277.16806 69.0 69
  278.10757 8.0 8
  278.11896 24.0 24
  278.13968 7.0 7
  278.15628 20.0 20
  278.16898 12.0 12
  278.18158 14.0 14
  279.12344 110.0 110
  280.07297 5.0 5
  280.10187 11.0 11
  280.13379 746.0 745
  281.10205 6.0 6
  281.13773 183.0 183
  282.1445 77.0 77
  283.15805 10.0 10
  290.10974 11.0 11
  290.12512 10.0 10
  291.12476 42.0 42
  292.13333 68.0 68
  293.1246 15.0 15
  293.14053 44.0 44
  293.16675 15.0 15
  294.12335 20.0 20
  294.14905 883.0 882
  295.14944 114.0 114
  295.16608 121.0 121
  295.18097 80.0 80
  295.19 33.0 33
  296.15378 28.0 28
  296.17865 29.0 29
  296.19656 15.0 15
  305.16794 26.0 26
  306.14624 35.0 35
  306.15866 16.0 16
  306.17606 12.0 12
  307.15005 85.0 85
  308.13763 16.0 16
  308.16345 563.0 562
  309.16068 106.0 106
  309.17276 80.0 80
  310.14777 5.0 5
  310.17068 36.0 36
  310.18747 11.0 11
  311.1778 11.0 11
  320.15915 15.0 15
  320.16895 30.0 30
  326.15375 7.0 7
  326.17615 15.0 15
  337.15295 28.0 28
  337.19171 1000.0 999
  338.16364 19.0 19
  338.19748 236.0 236
  339.19348 27.0 27
  339.21417 5.0 5
  340.19928 7.0 7
  354.17603 6.0 6
  355.19693 96.0 96
  355.21182 73.0 73
//
