ACCESSION: MSBNK-RIKEN-PR301857
RECORD_TITLE: Chrysanthellin B; LC-ESI-QTOF; MS2
DATE: 2019.03.28
AUTHORS: Tetsuya Mori, Center for Sustainable Resource Science, RIKEN
LICENSE: CC BY-NC-SA
PUBLICATION: Tsugawa H., Nakabayashi R., Mori T., Yamada Y., Takahashi M., Rai A., Sugiyama R., Yamamoto H., Nakaya T., Yamazaki M., Kooke R., Bac-Molenaar JA., Oztolan-Erol N., Keurentjes JJB., Arita M., Saito K. (2019) "A cheminformatics approach to characterize metabolomes in stable-isotope-labeled organisms" Nature Methods 16(4):295-298. [doi:10.1038/s41592-019-0358-2]
COMMENT: registered in RIKEN PlaSMA
CH$NAME: Chrysanthellin B
CH$COMPOUND_CLASS: Triterpene saponins
CH$FORMULA: C58H94O26
CH$EXACT_MASS: 1207.364
CH$SMILES: CC1OC(OC2C(O)COC(OC3C(C)OC(OC4C(O)C(O)COC4OC(=O)C45CCC(C)(C)CC4C4=CCC6C7(C)CCC(OC8OC(CO)C(O)C(O)C8O)C(C)(CO)C7CCC6(C)C4(C)CC5O)C(O)C3O)C2O)C(O)C(O)C1O
CH$IUPAC: InChI=1S/C58H94O26/c1-23-34(64)37(67)40(70)48(77-23)82-45-28(62)21-75-47(43(45)73)81-44-24(2)78-49(42(72)39(44)69)83-46-35(65)27(61)20-76-51(46)84-52(74)58-16-15-53(3,4)17-26(58)25-9-10-31-54(5)13-12-33(80-50-41(71)38(68)36(66)29(19-59)79-50)55(6,22-60)30(54)11-14-56(31,7)57(25,8)18-32(58)63/h9,23-24,26-51,59-73H,10-22H2,1-8H3
CH$LINK: INCHIKEY WNGIVKPPGCCJNP-UHFFFAOYSA-N
AC$INSTRUMENT: LC, Waters Acquity UPLC System; MS, Waters Xevo G2 Q-Tof
AC$INSTRUMENT_TYPE: LC-ESI-QTOF
AC$MASS_SPECTROMETRY: MS_TYPE MS2
AC$MASS_SPECTROMETRY: ION_MODE POSITIVE
AC$MASS_SPECTROMETRY: COLLISION_ENERGY 6V
AC$MASS_SPECTROMETRY: DESOLVATION_GAS_FLOW 800/h
AC$MASS_SPECTROMETRY: DESOLVATION_TEMPERATURE 450 C
AC$MASS_SPECTROMETRY: IONIZATION ESI
AC$CHROMATOGRAPHY: CAPILLARY_VOLTAGE +3.00 kV
AC$CHROMATOGRAPHY: COLUMN_NAME Acquity bridged ethyl hybrid C18 (1.7 um, 2.1 mm * 100 mm, Waters)
AC$CHROMATOGRAPHY: COLUMN_TEMPERATURE 40 C
AC$CHROMATOGRAPHY: FLOW_GRADIENT A/B = (99.5%/0.5% at 0 min, 99.5%/0.5% at 0.1 min, 20%/80% at 10 min, 0.5%/99.5% at 10.1 min, 0.5%/99.5% at 12.0 min, 99.5%/0.5% at 12.1 min, 99.5%/0.5% at 15.0 min)
AC$CHROMATOGRAPHY: FLOW_RATE 0.3 ml/min at 0 min, 0.3 ml/min at 10 min, 0.4 ml/min at 10.1 min, 0.4 ml/min at 14.4 min, 0.3 ml/min at 14.5 min
AC$CHROMATOGRAPHY: RETENTION_TIME 5.791234
AC$CHROMATOGRAPHY: SOLVENT A water including 0.1% formic acid
AC$CHROMATOGRAPHY: SOLVENT B acetonitrile including 0.1% formic acid
MS$FOCUSED_ION: PRECURSOR_TYPE [M+H]+
MS$FOCUSED_ION: PRECURSOR_M/Z 1207.61061
PK$SPLASH: splash10-0abi-3071916503-43a0945157ea27db97fb
PK$NUM_PEAK: 345
PK$PEAK: m/z int. rel.int.
  103.04462 9.0 9
  111.04819 10.0 10
  124.33863 17.0 17
  129.05153 12.0 12
  137.01993 12.0 12
  141.87926 14.0 14
  147.06128 25.0 25
  147.0762 9.0 9
  173.04919 12.0 12
  174.03877 9.0 9
  175.0583 13.0 13
  177.16818 10.0 10
  189.16078 10.0 10
  189.17474 10.0 10
  198.08904 12.0 12
  203.17313 18.0 18
  203.18826 10.0 10
  204.149 12.0 12
  205.1678 17.0 17
  207.16963 20.0 20
  207.17964 23.0 23
  210.48331 9.0 9
  214.17178 10.0 10
  217.19249 15.0 15
  217.20712 20.0 20
  221.07301 9.0 9
  221.12613 9.0 9
  222.87415 9.0 9
  223.17683 10.0 10
  225.07909 67.0 67
  229.15903 10.0 10
  238.15587 10.0 10
  239.1028 12.0 12
  241.19 9.0 9
  243.08896 92.0 92
  243.11235 12.0 12
  247.17162 9.0 9
  257.08453 10.0 10
  257.10437 12.0 12
  261.09109 22.0 22
  265.09332 9.0 9
  273.10507 19.0 19
  275.11118 35.0 35
  275.1665 10.0 10
  279.09552 37.0 37
  279.11014 92.0 92
  280.11295 9.0 9
  286.21695 9.0 9
  288.55786 15.0 15
  293.12354 155.0 155
  294.10965 20.0 20
  294.13303 12.0 12
  295.1058 18.0 18
  297.12543 12.0 12
  299.20724 9.0 9
  309.11316 39.0 39
  309.12546 32.0 32
  310.10959 9.0 9
  311.10379 10.0 10
  311.11493 13.0 13
  311.23294 9.0 9
  312.12808 10.0 10
  313.11438 10.0 10
  327.12076 21.0 21
  327.19495 10.0 10
  342.78424 12.0 12
  343.22659 10.0 10
  343.24026 13.0 13
  345.23782 11.0 11
  349.29007 12.0 12
  353.11377 9.0 9
  353.23279 10.0 10
  354.11453 13.0 13
  356.96634 9.0 9
  371.14526 9.0 9
  373.14374 9.0 9
  375.13339 12.0 12
  375.23291 9.0 9
  383.12415 15.0 15
  383.22598 10.0 10
  386.27084 12.0 12
  389.13986 39.0 39
  389.15475 29.0 29
  389.31091 9.0 9
  390.3255 10.0 10
  391.33624 10.0 10
  392.33472 16.0 16
  392.34488 10.0 10
  396.29501 14.0 14
  397.336 12.0 12
  397.35132 9.0 9
  401.15283 13.0 13
  402.16876 9.0 9
  407.13913 11.0 11
  407.28683 12.0 12
  407.33322 60.0 60
  408.30896 9.0 9
  408.34354 33.0 33
  409.32916 12.0 12
  409.35486 19.0 19
  410.36896 9.0 9
  411.15311 9.0 9
  413.30569 20.0 20
  414.29071 11.0 11
  414.30798 12.0 12
  419.14984 11.0 11
  420.15161 11.0 11
  423.32489 12.0 12
  424.33832 9.0 9
  425.16589 72.0 72
  425.33246 56.0 56
  425.3501 34.0 34
  426.3504 19.0 19
  427.35699 30.0 30
  430.91638 18.0 18
  435.32556 68.0 68
  435.35165 11.0 11
  436.23361 9.0 9
  436.30087 10.0 10
  441.15173 9.0 9
  441.16647 15.0 15
  441.3205 9.0 9
  441.35776 9.0 9
  442.32864 13.0 13
  442.63898 10.0 10
  443.33844 10.0 10
  451.32388 13.0 13
  453.29102 10.0 10
  453.33466 459.0 459
  453.35941 29.0 29
  454.18561 11.0 11
  454.34253 165.0 165
  454.8027 9.0 9
  455.14011 10.0 10
  455.18527 32.0 32
  455.34671 23.0 23
  456.16315 11.0 11
  458.64514 23.0 23
  459.18692 9.0 9
  470.09973 10.0 10
  471.3443 495.0 495
  471.38669 10.0 10
  471.78659 9.0 9
  472.32242 23.0 23
  472.35437 184.0 184
  472.3837 11.0 11
  473.35257 10.0 10
  473.37903 11.0 11
  475.37561 14.0 14
  489.35629 89.0 89
  490.36221 10.0 10
  492.36707 9.0 9
  521.15906 10.0 10
  521.18219 11.0 11
  521.35059 9.0 9
  524.38422 13.0 13
  530.82532 9.0 9
  535.19153 9.0 9
  535.36194 11.0 11
  536.91711 14.0 14
  544.15216 12.0 12
  552.19592 11.0 11
  552.422 9.0 9
  553.37488 9.0 9
  557.19708 15.0 15
  557.21307 10.0 10
  559.20142 14.0 14
  563.38373 10.0 10
  565.38983 9.0 9
  569.20551 10.0 10
  571.35284 9.0 9
  573.20319 21.0 21
  573.39819 9.0 9
  581.37738 28.0 28
  582.36279 9.0 9
  582.3833 24.0 24
  583.11108 9.0 9
  586.2793 9.0 9
  587.2229 28.0 28
  587.37469 13.0 13
  587.39526 36.0 36
  587.44025 9.0 9
  588.21735 20.0 20
  598.39478 14.0 14
  599.38617 73.0 73
  599.42609 12.0 12
  600.38379 37.0 37
  600.4129 38.0 38
  601.39301 11.0 11
  604.37238 9.0 9
  605.24335 14.0 14
  605.29712 9.0 9
  605.8219 11.0 11
  608.02832 9.0 9
  615.38324 13.0 13
  616.40594 9.0 9
  617.39923 198.0 198
  617.42603 55.0 55
  617.50214 10.0 10
  618.40369 63.0 63
  619.41553 10.0 10
  620.4151 20.0 20
  621.40417 22.0 22
  628.37518 9.0 9
  633.37689 25.0 25
  633.414 37.0 37
  634.3963 9.0 9
  634.42297 20.0 20
  635.3548 11.0 11
  635.41248 415.0 415
  636.19104 9.0 9
  636.37683 11.0 11
  636.42126 216.0 216
  637.42664 55.0 55
  638.41553 15.0 15
  650.94391 9.0 9
  651.37738 26.0 26
  651.41113 82.0 82
  652.40118 32.0 32
  652.42639 28.0 28
  652.44824 10.0 10
  653.41034 9.0 9
  669.08685 18.0 18
  713.42694 10.0 10
  720.23676 9.0 9
  727.39783 9.0 9
  727.4422 21.0 21
  728.44855 17.0 17
  729.41486 9.0 9
  732.44037 10.0 10
  736.47272 9.0 9
  736.49878 9.0 9
  743.45831 9.0 9
  744.46466 9.0 9
  745.27832 9.0 9
  745.4165 11.0 11
  746.44293 11.0 11
  747.39697 11.0 11
  747.44611 11.0 11
  748.46033 9.0 9
  757.8634 13.0 13
  763.46484 30.0 30
  764.47131 21.0 21
  767.42645 9.0 9
  767.44336 26.0 26
  767.4696 19.0 19
  768.44781 32.0 32
  768.48053 42.0 42
  769.48163 11.0 11
  779.4306 35.0 35
  779.46228 12.0 12
  780.42017 9.0 9
  781.40045 9.0 9
  781.46075 160.0 160
  781.48944 146.0 146
  782.41119 22.0 22
  782.4599 84.0 84
  782.49066 110.0 110
  783.43488 18.0 18
  783.46368 96.0 96
  783.49854 9.0 9
  784.44513 18.0 18
  785.4743 10.0 10
  789.45111 12.0 12
  797.39642 10.0 10
  797.4303 21.0 21
  797.46777 182.0 182
  798.44849 11.0 11
  798.48651 84.0 84
  799.47351 19.0 19
  799.51172 10.0 10
  814.03076 10.0 10
  814.54504 9.0 9
  841.45892 9.0 9
  844.4101 9.0 9
  857.46179 9.0 9
  859.47607 9.0 9
  860.49701 18.0 18
  889.47522 10.0 10
  890.47601 9.0 9
  891.48792 15.0 15
  893.51349 11.0 11
  908.53149 11.0 11
  911.47565 9.0 9
  911.51947 9.0 9
  913.41052 9.0 9
  913.43231 10.0 10
  913.4751 38.0 38
  913.51019 149.0 149
  913.55731 28.0 28
  914.5072 111.0 111
  915.51605 9.0 9
  915.56232 9.0 9
  915.92938 9.0 9
  925.48517 9.0 9
  925.53314 14.0 14
  926.50446 18.0 18
  926.53094 10.0 10
  928.51349 10.0 10
  929.48297 34.0 34
  929.51575 50.0 50
  930.50568 32.0 32
  931.52075 11.0 11
  932.36926 12.0 12
  932.50964 9.0 9
  933.4895 9.0 9
  943.44995 9.0 9
  943.51105 51.0 51
  943.53619 157.0 157
  944.53241 33.0 33
  944.55994 32.0 32
  944.64471 9.0 9
  945.5097 29.0 29
  946.57324 10.0 10
  1022.51318 12.0 12
  1040.55798 14.0 14
  1045.55493 37.0 37
  1045.58276 37.0 37
  1045.62231 9.0 9
  1046.53601 19.0 19
  1046.57056 20.0 20
  1046.62842 10.0 10
  1047.49072 11.0 11
  1047.56873 12.0 12
  1047.59851 10.0 10
  1048.5426 13.0 13
  1048.57568 19.0 19
  1057.52063 12.0 12
  1057.55383 9.0 9
  1059.54907 11.0 11
  1061.57361 23.0 23
  1075.55029 251.0 251
  1075.62793 23.0 23
  1075.79675 9.0 9
  1076.57007 169.0 169
  1077.57239 45.0 45
  1077.60559 28.0 28
  1078.60034 29.0 29
  1078.63892 9.0 9
  1174.57532 9.0 9
  1185.69434 9.0 9
  1206.21045 9.0 9
  1207.5166 22.0 22
  1207.60486 1000.0 999
  1207.72571 10.0 10
//
