ACCESSION: MSBNK-RIKEN-PR302128
RECORD_TITLE: Acacetin; LC-ESI-QTOF; MS2
DATE: 2019.03.28
AUTHORS: Tetsuya Mori, Center for Sustainable Resource Science, RIKEN
LICENSE: CC BY-NC-SA
PUBLICATION: Tsugawa H., Nakabayashi R., Mori T., Yamada Y., Takahashi M., Rai A., Sugiyama R., Yamamoto H., Nakaya T., Yamazaki M., Kooke R., Bac-Molenaar JA., Oztolan-Erol N., Keurentjes JJB., Arita M., Saito K. (2019) "A cheminformatics approach to characterize metabolomes in stable-isotope-labeled organisms" Nature Methods 16(4):295-298. [doi:10.1038/s41592-019-0358-2]
COMMENT: registered in RIKEN PlaSMA
CH$NAME: Acacetin
CH$COMPOUND_CLASS: 4'-O-methylated flavonoids
CH$FORMULA: C16H12O5
CH$EXACT_MASS: 284.267
CH$SMILES: COC1=CC=C(C=C1)C1=CC(=O)C2=C(O)C=C(O)C=C2O1
CH$IUPAC: InChI=1S/C16H12O5/c1-20-11-4-2-9(3-5-11)14-8-13(19)16-12(18)6-10(17)7-15(16)21-14/h2-8,17-18H,1H3
CH$LINK: INCHIKEY DANYIYRPLHHOCZ-UHFFFAOYSA-N
AC$INSTRUMENT: LC, Waters Acquity UPLC System; MS, Waters Xevo G2 Q-Tof
AC$INSTRUMENT_TYPE: LC-ESI-QTOF
AC$MASS_SPECTROMETRY: MS_TYPE MS2
AC$MASS_SPECTROMETRY: ION_MODE POSITIVE
AC$MASS_SPECTROMETRY: COLLISION_ENERGY 6V
AC$MASS_SPECTROMETRY: DESOLVATION_GAS_FLOW 800/h
AC$MASS_SPECTROMETRY: DESOLVATION_TEMPERATURE 450 C
AC$MASS_SPECTROMETRY: IONIZATION ESI
AC$CHROMATOGRAPHY: CAPILLARY_VOLTAGE +3.00 kV
AC$CHROMATOGRAPHY: COLUMN_NAME Acquity bridged ethyl hybrid C18 (1.7 um, 2.1 mm * 100 mm, Waters)
AC$CHROMATOGRAPHY: COLUMN_TEMPERATURE 40 C
AC$CHROMATOGRAPHY: FLOW_GRADIENT A/B = (99.5%/0.5% at 0 min, 99.5%/0.5% at 0.1 min, 20%/80% at 10 min, 0.5%/99.5% at 10.1 min, 0.5%/99.5% at 12.0 min, 99.5%/0.5% at 12.1 min, 99.5%/0.5% at 15.0 min)
AC$CHROMATOGRAPHY: FLOW_RATE 0.3 ml/min at 0 min, 0.3 ml/min at 10 min, 0.4 ml/min at 10.1 min, 0.4 ml/min at 14.4 min, 0.3 ml/min at 14.5 min
AC$CHROMATOGRAPHY: RETENTION_TIME 7.376033
AC$CHROMATOGRAPHY: SOLVENT A water including 0.1% formic acid
AC$CHROMATOGRAPHY: SOLVENT B acetonitrile including 0.1% formic acid
MS$FOCUSED_ION: PRECURSOR_TYPE [M+H]+
MS$FOCUSED_ION: PRECURSOR_M/Z 285.0757499
PK$SPLASH: splash10-0udi-1940000000-38e24083a3c367e6b14c
PK$NUM_PEAK: 62
PK$PEAK: m/z int. rel.int.
  67.01794 22.0 22
  69.03276 28.0 28
  69.03722 5.0 5
  81.03453 7.0 7
  83.01509 7.0 7
  88.03051 6.0 6
  89.04046 8.0 8
  90.04591 39.0 39
  92.02173 9.0 9
  92.02755 7.0 7
  96.02352 6.0 6
  97.01763 7.0 7
  97.02398 18.0 18
  97.03083 11.0 11
  105.03741 12.0 12
  107.04742 10.0 10
  111.00629 6.0 6
  111.01625 9.0 9
  115.05494 7.0 7
  116.02776 5.0 5
  116.0611 6.0 6
  121.02975 5.0 5
  124.01632 26.0 26
  125.02779 9.0 9
  126.04733 9.0 9
  127.05292 5.0 5
  128.06261 6.0 6
  129.06598 19.0 19
  133.03455 9.0 9
  133.05774 6.0 6
  135.00072 9.0 9
  136.01427 14.0 14
  139.05032 6.0 6
  143.05147 8.0 8
  146.0553 6.0 6
  152.96254 6.0 6
  152.98299 8.0 8
  152.99828 19.0 19
  153.0183 1000.0 999
  154.02339 97.0 97
  155.02554 11.0 11
  157.05673 7.0 7
  159.04276 5.0 5
  168.05777 22.0 22
  195.04474 8.0 8
  197.06367 15.0 15
  199.036 5.0 5
  203.02444 18.0 18
  203.03905 23.0 23
  213.04077 15.0 15
  213.05684 62.0 62
  214.05136 12.0 12
  214.06874 9.0 9
  223.04013 10.0 10
  227.02779 6.0 6
  241.0325 7.0 7
  241.05188 63.0 63
  241.06537 16.0 16
  242.0596 370.0 370
  243.06001 25.0 25
  285.06577 9.0 9
  285.07825 14.0 14
//
