ACCESSION: MSBNK-RIKEN-PR303889
RECORD_TITLE: Silychrystin; LC-ESI-QTOF; MS2
DATE: 2019.03.28
AUTHORS: Tetsuya Mori, Center for Sustainable Resource Science, RIKEN
LICENSE: CC BY-NC-SA
PUBLICATION: Tsugawa H., Nakabayashi R., Mori T., Yamada Y., Takahashi M., Rai A., Sugiyama R., Yamamoto H., Nakaya T., Yamazaki M., Kooke R., Bac-Molenaar JA., Oztolan-Erol N., Keurentjes JJB., Arita M., Saito K. (2019) "A cheminformatics approach to characterize metabolomes in stable-isotope-labeled organisms" Nature Methods 16(4):295-298. [doi:10.1038/s41592-019-0358-2]
COMMENT: registered in RIKEN PlaSMA
CH$NAME: Silychrystin
CH$COMPOUND_CLASS: 2-arylbenzofuran flavonoids
CH$FORMULA: C25H22O10
CH$EXACT_MASS: 482.441
CH$SMILES: COC1=C(O)C=CC(=C1)[C@@H]1OC2=C(C=C(C=C2O)[C@H]2OC3=CC(O)=CC(O)=C3C(=O)[C@@H]2O)[C@H]1CO
CH$IUPAC: InChI=1S/C25H22O10/c1-33-18-6-10(2-3-15(18)28)23-14(9-26)13-4-11(5-17(30)25(13)35-23)24-22(32)21(31)20-16(29)7-12(27)8-19(20)34-24/h2-8,14,22-24,26-30,32H,9H2,1H3/t14-,22+,23+,24-/m1/s1
CH$LINK: INCHIKEY BMLIIPOXVWESJG-LMBCONBSSA-N
AC$INSTRUMENT: LC, Waters Acquity UPLC System; MS, Waters Xevo G2 Q-Tof
AC$INSTRUMENT_TYPE: LC-ESI-QTOF
AC$MASS_SPECTROMETRY: MS_TYPE MS2
AC$MASS_SPECTROMETRY: ION_MODE POSITIVE
AC$MASS_SPECTROMETRY: COLLISION_ENERGY 6V
AC$MASS_SPECTROMETRY: DESOLVATION_GAS_FLOW 800/h
AC$MASS_SPECTROMETRY: DESOLVATION_TEMPERATURE 450 C
AC$MASS_SPECTROMETRY: IONIZATION ESI
AC$CHROMATOGRAPHY: CAPILLARY_VOLTAGE +3.00 kV
AC$CHROMATOGRAPHY: COLUMN_NAME Acquity bridged ethyl hybrid C18 (1.7 um, 2.1 mm * 100 mm, Waters)
AC$CHROMATOGRAPHY: COLUMN_TEMPERATURE 40 C
AC$CHROMATOGRAPHY: FLOW_GRADIENT A/B = (99.5%/0.5% at 0 min, 99.5%/0.5% at 0.1 min, 20%/80% at 10 min, 0.5%/99.5% at 10.1 min, 0.5%/99.5% at 12.0 min, 99.5%/0.5% at 12.1 min, 99.5%/0.5% at 15.0 min)
AC$CHROMATOGRAPHY: FLOW_RATE 0.3 ml/min at 0 min, 0.3 ml/min at 10 min, 0.4 ml/min at 10.1 min, 0.4 ml/min at 14.4 min, 0.3 ml/min at 14.5 min
AC$CHROMATOGRAPHY: RETENTION_TIME 4.95995
AC$CHROMATOGRAPHY: SOLVENT A water including 0.1% formic acid
AC$CHROMATOGRAPHY: SOLVENT B acetonitrile including 0.1% formic acid
MS$FOCUSED_ION: PRECURSOR_TYPE [M+H]+
MS$FOCUSED_ION: PRECURSOR_M/Z 483.1285734
PK$SPLASH: splash10-0udr-0431900000-d8c0862b7a7989fc71d8
PK$NUM_PEAK: 221
PK$PEAK: m/z int. rel.int.
  97.04353 13.0 13
  111.04367 23.0 23
  113.02506 10.0 10
  121.06479 17.0 17
  123.0435 41.0 41
  131.04884 35.0 35
  135.04308 44.0 44
  135.0502 15.0 15
  137.0464 26.0 26
  137.05965 391.0 391
  138.06212 51.0 51
  147.05113 12.0 12
  148.99886 11.0 11
  149.0125 13.0 13
  149.02074 28.0 28
  149.02971 25.0 25
  149.05382 28.0 28
  150.06853 11.0 11
  152.99994 29.0 29
  153.0152 283.0 283
  153.02298 224.0 224
  154.02461 32.0 32
  155.03278 13.0 13
  157.02657 13.0 13
  161.06601 22.0 22
  165.01859 12.0 12
  165.07106 10.0 10
  166.05212 15.0 15
  167.03345 88.0 88
  167.08253 13.0 13
  168.03409 12.0 12
  168.0504 12.0 12
  175.04517 13.0 13
  181.86874 11.0 11
  183.0787 10.0 10
  187.04874 16.0 16
  192.03862 15.0 15
  193.0656 10.0 10
  194.07599 13.0 13
  195.02837 139.0 139
  195.07991 31.0 31
  196.03685 15.0 15
  197.0508 22.0 22
  202.08195 12.0 12
  203.03964 17.0 17
  204.03511 11.0 11
  209.05997 41.0 41
  210.05429 14.0 14
  210.07217 10.0 10
  211.07901 33.0 33
  221.04951 12.0 12
  222.05731 18.0 18
  223.08299 10.0 10
  224.08978 14.0 14
  225.08461 34.0 34
  226.06055 10.0 10
  226.09312 12.0 12
  229.05098 34.0 34
  229.08896 10.0 10
  237.02136 11.0 11
  237.04564 13.0 13
  237.07393 15.0 15
  237.08893 13.0 13
  238.07472 17.0 17
  239.06932 37.0 37
  243.07506 11.0 11
  249.06561 14.0 14
  250.04907 21.0 21
  251.07172 40.0 40
  252.07405 25.0 25
  253.07767 20.0 20
  253.08716 11.0 11
  255.04973 12.0 12
  255.06212 18.0 18
  255.07515 11.0 11
  256.06564 12.0 12
  256.07703 10.0 10
  257.03006 14.0 14
  257.04749 12.0 12
  257.05704 10.0 10
  258.05939 16.0 16
  258.08417 11.0 11
  258.09601 25.0 25
  258.1062 14.0 14
  259.0358 10.0 10
  259.09717 63.0 63
  260.09396 12.0 12
  261.04819 14.0 14
  264.07605 10.0 10
  265.04483 26.0 26
  265.07724 14.0 14
  267.07117 12.0 12
  269.08444 21.0 21
  270.08951 62.0 62
  271.0661 11.0 11
  271.09418 62.0 62
  272.09814 18.0 18
  272.1163 25.0 25
  273.10342 12.0 12
  277.04678 29.0 29
  278.06711 10.0 10
  278.30338 11.0 11
  279.0607 34.0 34
  279.0788 13.0 13
  280.07654 18.0 18
  281.05295 11.0 11
  281.07452 14.0 14
  281.0918 10.0 10
  282.07993 23.0 23
  282.09439 10.0 10
  283.05563 28.0 28
  283.08331 12.0 12
  283.09619 11.0 11
  284.05502 12.0 12
  284.08185 11.0 11
  285.04382 12.0 12
  287.10226 11.0 11
  293.07614 11.0 11
  293.60614 10.0 10
  294.05972 11.0 11
  295.08093 10.0 10
  295.09131 12.0 12
  296.05338 29.0 29
  297.09659 12.0 12
  297.116 10.0 10
  299.07333 21.0 21
  300.06671 15.0 15
  301.07959 15.0 15
  303.07462 12.0 12
  305.07687 13.0 13
  307.05988 23.0 23
  307.07031 14.0 14
  309.07373 50.0 50
  311.04825 37.0 37
  311.06381 23.0 23
  313.06662 10.0 10
  313.08078 39.0 39
  316.09 12.0 12
  318.04291 12.0 12
  323.06207 14.0 14
  323.08304 13.0 13
  327.08667 36.0 36
  328.08014 14.0 14
  328.09439 12.0 12
  329.04843 14.0 14
  330.08466 10.0 10
  331.04062 10.0 10
  341.06253 21.0 21
  343.09598 10.0 10
  347.07822 18.0 18
  347.10242 12.0 12
  351.05576 10.0 10
  351.0932 11.0 11
  357.06998 12.0 12
  357.08209 15.0 15
  358.06732 11.0 11
  359.06625 20.0 20
  359.08374 17.0 17
  372.69269 10.0 10
  374.12842 10.0 10
  375.08942 24.0 24
  375.1264 26.0 26
  379.10278 26.0 26
  379.11838 27.0 27
  380.13666 21.0 21
  383.71191 12.0 12
  387.07819 10.0 10
  388.11465 13.0 13
  390.10529 29.0 29
  391.10263 14.0 14
  391.11481 21.0 21
  403.05283 11.0 11
  403.07132 11.0 11
  405.09406 10.0 10
  407.03638 10.0 10
  407.0946 75.0 75
  407.12186 92.0 92
  408.10403 12.0 12
  408.1225 74.0 74
  409.1167 11.0 11
  409.13113 11.0 11
  417.08188 49.0 49
  418.09644 10.0 10
  418.11261 12.0 12
  419.1041 14.0 14
  419.12592 12.0 12
  421.10974 10.0 10
  423.09534 17.0 17
  433.09399 21.0 21
  435.10358 416.0 416
  435.11826 246.0 246
  435.15024 14.0 14
  436.09372 13.0 13
  436.11072 74.0 74
  436.17453 21.0 21
  437.07059 12.0 12
  437.10046 22.0 22
  437.12308 85.0 85
  441.14212 10.0 10
  447.09534 45.0 45
  447.11224 49.0 49
  448.09314 20.0 20
  448.12042 13.0 13
  452.09573 10.0 10
  452.12317 33.0 33
  453.06543 11.0 11
  453.08249 11.0 11
  453.11838 1000.0 999
  454.08527 33.0 33
  454.12051 364.0 364
  455.10571 11.0 11
  455.13736 24.0 24
  462.4415 15.0 15
  462.91064 12.0 12
  464.10336 13.0 13
  464.1301 23.0 23
  465.11472 49.0 49
  482.12738 11.0 11
  483.07715 40.0 40
  483.12964 447.0 447
  483.20486 10.0 10
//
