ACCESSION: MSBNK-RIKEN-PR301937
RECORD_TITLE: isorhamnetin; LC-ESI-QTOF; MS2
DATE: 2019.03.28
AUTHORS: Tetsuya Mori, Center for Sustainable Resource Science, RIKEN
LICENSE: CC BY-NC-SA
PUBLICATION: Tsugawa H., Nakabayashi R., Mori T., Yamada Y., Takahashi M., Rai A., Sugiyama R., Yamamoto H., Nakaya T., Yamazaki M., Kooke R., Bac-Molenaar JA., Oztolan-Erol N., Keurentjes JJB., Arita M., Saito K. (2019) "A cheminformatics approach to characterize metabolomes in stable-isotope-labeled organisms" Nature Methods 16(4):295-298. [doi:10.1038/s41592-019-0358-2]
COMMENT: registered in RIKEN PlaSMA
CH$NAME: isorhamnetin
CH$COMPOUND_CLASS: Flavonols
CH$FORMULA: C16H12O7
CH$EXACT_MASS: 316.265
CH$SMILES: COC1=C(O)C=CC(=C1)C1=C(O)C(=O)C2=C(O)C=C(O)C=C2O1
CH$IUPAC: InChI=1S/C16H12O7/c1-22-11-4-7(2-3-9(11)18)16-15(21)14(20)13-10(19)5-8(17)6-12(13)23-16/h2-6,17-19,21H,1H3
CH$LINK: INCHIKEY IZQSVPBOUDKVDZ-UHFFFAOYSA-N
AC$INSTRUMENT: LC, Waters Acquity UPLC System; MS, Waters Xevo G2 Q-Tof
AC$INSTRUMENT_TYPE: LC-ESI-QTOF
AC$MASS_SPECTROMETRY: MS_TYPE MS2
AC$MASS_SPECTROMETRY: ION_MODE POSITIVE
AC$MASS_SPECTROMETRY: COLLISION_ENERGY 6V
AC$MASS_SPECTROMETRY: DESOLVATION_GAS_FLOW 800/h
AC$MASS_SPECTROMETRY: DESOLVATION_TEMPERATURE 450 C
AC$MASS_SPECTROMETRY: IONIZATION ESI
AC$CHROMATOGRAPHY: CAPILLARY_VOLTAGE +3.00 kV
AC$CHROMATOGRAPHY: COLUMN_NAME Acquity bridged ethyl hybrid C18 (1.7 um, 2.1 mm * 100 mm, Waters)
AC$CHROMATOGRAPHY: COLUMN_TEMPERATURE 40 C
AC$CHROMATOGRAPHY: FLOW_GRADIENT A/B = (99.5%/0.5% at 0 min, 99.5%/0.5% at 0.1 min, 20%/80% at 10 min, 0.5%/99.5% at 10.1 min, 0.5%/99.5% at 12.0 min, 99.5%/0.5% at 12.1 min, 99.5%/0.5% at 15.0 min)
AC$CHROMATOGRAPHY: FLOW_RATE 0.3 ml/min at 0 min, 0.3 ml/min at 10 min, 0.4 ml/min at 10.1 min, 0.4 ml/min at 14.4 min, 0.3 ml/min at 14.5 min
AC$CHROMATOGRAPHY: RETENTION_TIME 6.135867
AC$CHROMATOGRAPHY: SOLVENT A water including 0.1% formic acid
AC$CHROMATOGRAPHY: SOLVENT B acetonitrile including 0.1% formic acid
MS$FOCUSED_ION: PRECURSOR_TYPE [M+H]+
MS$FOCUSED_ION: PRECURSOR_M/Z 317.0655792
PK$SPLASH: splash10-0udi-0493000000-c3bf58a70577301093b1
PK$NUM_PEAK: 209
PK$PEAK: m/z int. rel.int.
  65.03677 13.0 13
  82.02634 6.0 6
  92.02357 43.0 43
  92.03529 14.0 14
  93.0326 68.0 68
  94.04162 5.0 5
  97.40266 6.0 6
  109.02486 7.0 7
  111.0383 7.0 7
  117.06892 6.0 6
  120.02187 18.0 18
  120.95654 5.0 5
  121.02704 107.0 107
  123.04406 15.0 15
  123.05051 6.0 6
  125.02409 5.0 5
  126.02856 23.0 23
  132.05222 11.0 11
  132.41026 7.0 7
  133.02635 8.0 8
  136.01816 6.0 6
  136.9984 6.0 6
  137.0193 15.0 15
  137.05229 6.0 6
  139.03162 19.0 19
  139.03946 31.0 31
  144.73288 9.0 9
  145.05775 6.0 6
  146.02802 8.0 8
  150.02635 9.0 9
  150.03358 8.0 8
  151.03644 110.0 110
  152.00931 13.0 13
  152.99036 14.0 14
  153.01755 1000.0 999
  153.98009 8.0 8
  154.01303 7.0 7
  154.0247 65.0 65
  155.02693 24.0 24
  156.54944 5.0 5
  156.99506 13.0 13
  157.05923 7.0 7
  161.02802 11.0 11
  161.05928 7.0 7
  162.89923 5.0 5
  163.00423 6.0 6
  163.0419 13.0 13
  165.01581 26.0 26
  165.0226 25.0 25
  166.01971 8.0 8
  166.03333 10.0 10
  168.03291 21.0 21
  173.05116 9.0 9
  174.06544 12.0 12
  175.07005 8.0 8
  176.04382 6.0 6
  179.03302 36.0 36
  181.03908 6.0 6
  182.53284 7.0 7
  182.99355 8.0 8
  183.04266 23.0 23
  184.05026 14.0 14
  184.05542 6.0 6
  184.85979 6.0 6
  187.02359 5.0 5
  187.03743 26.0 26
  189.0567 9.0 9
  189.06616 11.0 11
  190.02242 6.0 6
  190.06703 16.0 16
  191.03189 8.0 8
  192.03651 6.0 6
  196.0343 9.0 9
  198.40909 5.0 5
  198.47025 6.0 6
  199.04504 7.0 7
  199.54176 10.0 10
  200.01093 8.0 8
  200.05312 12.0 12
  201.03036 6.0 6
  201.05432 91.0 91
  202.06021 25.0 25
  202.0703 6.0 6
  203.03229 106.0 106
  203.04703 14.0 14
  204.0336 12.0 12
  204.04616 8.0 8
  205.04976 11.0 11
  208.14958 8.0 8
  208.43178 8.0 8
  211.04507 5.0 5
  213.04521 13.0 13
  213.06015 7.0 7
  213.119 5.0 5
  215.03299 6.0 6
  215.06252 11.0 11
  217.03845 30.0 30
  217.05334 91.0 91
  217.05995 27.0 27
  217.08514 5.0 5
  218.01521 7.0 7
  218.04369 7.0 7
  218.05612 57.0 57
  218.06477 22.0 22
  219.0144 6.0 6
  219.02919 58.0 58
  219.06442 16.0 16
  219.07799 11.0 11
  219.22948 6.0 6
  220.03946 14.0 14
  221.04474 13.0 13
  225.96098 6.0 6
  226.21335 7.0 7
  227.02629 5.0 5
  227.96207 9.0 9
  228.00797 6.0 6
  228.01965 12.0 12
  228.04329 171.0 171
  229.00171 7.0 7
  229.04822 356.0 356
  229.05884 135.0 135
  229.99257 7.0 7
  230.05159 87.0 87
  230.06407 10.0 10
  231.02246 55.0 55
  231.03795 17.0 17
  231.04956 8.0 8
  231.06136 5.0 5
  232.02692 6.0 6
  232.03606 6.0 6
  233.03886 6.0 6
  233.0506 26.0 26
  234.05188 13.0 13
  236.68463 5.0 5
  239.03755 37.0 37
  242.35013 13.0 13
  243.02751 5.0 5
  243.07169 19.0 19
  245.03102 41.0 41
  245.04407 136.0 136
  245.05255 78.0 78
  246.00342 7.0 7
  246.02454 13.0 13
  246.0518 161.0 161
  246.06396 39.0 39
  247.02322 22.0 22
  247.05339 32.0 32
  248.05394 6.0 6
  256.0267 7.0 7
  256.03677 17.0 17
  256.04611 11.0 11
  256.99426 7.0 7
  257.04745 216.0 216
  258.052 35.0 35
  258.06561 11.0 11
  259.02652 10.0 10
  260.02356 25.0 25
  260.03305 48.0 48
  261.04721 7.0 7
  261.08191 10.0 10
  264.53864 7.0 7
  267.86423 5.0 5
  269.03079 5.0 5
  271.05368 10.0 10
  271.06656 23.0 23
  273.02213 8.0 8
  273.03937 148.0 148
  273.98318 8.0 8
  274.00543 5.0 5
  274.04965 499.0 499
  274.07297 12.0 12
  275.0498 88.0 88
  276.02975 6.0 6
  276.04807 17.0 17
  276.07025 16.0 16
  276.31696 5.0 5
  277.04684 7.0 7
  281.70526 10.0 10
  283.98465 8.0 8
  284.01602 8.0 8
  284.03995 59.0 59
  284.96899 8.0 8
  284.99509 26.0 26
  285.03943 464.0 464
  286.01431 5.0 5
  286.043 54.0 54
  286.05386 30.0 30
  287.02869 13.0 13
  287.04672 5.0 5
  288.02521 7.0 7
  288.0495 5.0 5
  288.92972 6.0 6
  296.34598 6.0 6
  300.01358 14.0 14
  301.04254 30.0 30
  301.98395 6.0 6
  301.99744 8.0 8
  302.01822 35.0 35
  302.0437 840.0 839
  302.20621 5.0 5
  302.50327 8.0 8
  302.99445 8.0 8
  303.04489 142.0 142
  303.05743 52.0 52
  303.81992 8.0 8
  304.03354 20.0 20
  304.05115 8.0 8
  315.05505 9.0 9
  317.06525 299.0 299
//
