ACCESSION: MSBNK-RIKEN-PR301104
RECORD_TITLE: L-Oxonoreleagnine; LC-ESI-QTOF; MS2
DATE: 2019.03.28
AUTHORS: Tetsuya Mori, Center for Sustainable Resource Science, RIKEN
LICENSE: CC BY-NC-SA
PUBLICATION: Tsugawa H., Nakabayashi R., Mori T., Yamada Y., Takahashi M., Rai A., Sugiyama R., Yamamoto H., Nakaya T., Yamazaki M., Kooke R., Bac-Molenaar JA., Oztolan-Erol N., Keurentjes JJB., Arita M., Saito K. (2019) "A cheminformatics approach to characterize metabolomes in stable-isotope-labeled organisms" Nature Methods 16(4):295-298. [doi:10.1038/s41592-019-0358-2]
COMMENT: registered in RIKEN PlaSMA
CH$NAME: L-Oxonoreleagnine
CH$COMPOUND_CLASS: Beta carbolines
CH$FORMULA: C11H10N2O
CH$EXACT_MASS: 186.214
CH$SMILES: OC1=NCCC2=C1NC1=CC=CC=C21
CH$IUPAC: InChI=1S/C11H10N2O/c14-11-10-8(5-6-12-11)7-3-1-2-4-9(7)13-10/h1-4,13H,5-6H2,(H,12,14)
CH$LINK: INCHIKEY FZHZQHNKCPJTNQ-UHFFFAOYSA-N
AC$INSTRUMENT: LC, Waters Acquity UPLC System; MS, Waters Xevo G2 Q-Tof
AC$INSTRUMENT_TYPE: LC-ESI-QTOF
AC$MASS_SPECTROMETRY: MS_TYPE MS2
AC$MASS_SPECTROMETRY: ION_MODE POSITIVE
AC$MASS_SPECTROMETRY: COLLISION_ENERGY 6V
AC$MASS_SPECTROMETRY: DESOLVATION_GAS_FLOW 800/h
AC$MASS_SPECTROMETRY: DESOLVATION_TEMPERATURE 450 C
AC$MASS_SPECTROMETRY: IONIZATION ESI
AC$CHROMATOGRAPHY: CAPILLARY_VOLTAGE +3.00 kV
AC$CHROMATOGRAPHY: COLUMN_NAME Acquity bridged ethyl hybrid C18 (1.7 um, 2.1 mm * 100 mm, Waters)
AC$CHROMATOGRAPHY: COLUMN_TEMPERATURE 40 C
AC$CHROMATOGRAPHY: FLOW_GRADIENT A/B = (99.5%/0.5% at 0 min, 99.5%/0.5% at 0.1 min, 20%/80% at 10 min, 0.5%/99.5% at 10.1 min, 0.5%/99.5% at 12.0 min, 99.5%/0.5% at 12.1 min, 99.5%/0.5% at 15.0 min)
AC$CHROMATOGRAPHY: FLOW_RATE 0.3 ml/min at 0 min, 0.3 ml/min at 10 min, 0.4 ml/min at 10.1 min, 0.4 ml/min at 14.4 min, 0.3 ml/min at 14.5 min
AC$CHROMATOGRAPHY: RETENTION_TIME 5.526134
AC$CHROMATOGRAPHY: SOLVENT A water including 0.1% formic acid
AC$CHROMATOGRAPHY: SOLVENT B acetonitrile including 0.1% formic acid
MS$FOCUSED_ION: PRECURSOR_TYPE [M+H]+
MS$FOCUSED_ION: PRECURSOR_M/Z 187.0865894
PK$SPLASH: splash10-014i-0900000000-86282c8c9a457cc8c44a
PK$NUM_PEAK: 21
PK$PEAK: m/z int. rel.int.
  77.03852 77.0 77
  91.05598 69.0 69
  102.04352 85.0 85
  103.04327 97.0 97
  103.05482 69.0 69
  113.03111 73.0 73
  115.05435 1000.0 999
  116.04619 105.0 105
  116.05745 73.0 73
  117.05659 174.0 174
  128.05342 73.0 73
  129.0533 109.0 109
  130.06371 413.0 413
  130.07411 69.0 69
  131.07014 97.0 97
  141.06161 73.0 73
  142.06709 85.0 85
  144.07787 73.0 73
  187.06812 81.0 81
  187.08496 146.0 146
  187.09293 247.0 247
//
