ACCESSION: MSBNK-RIKEN-PR301214
RECORD_TITLE: Acetylaconitine; LC-ESI-QTOF; MS2
DATE: 2019.03.28
AUTHORS: Tetsuya Mori, Center for Sustainable Resource Science, RIKEN
LICENSE: CC BY-NC-SA
PUBLICATION: Tsugawa H., Nakabayashi R., Mori T., Yamada Y., Takahashi M., Rai A., Sugiyama R., Yamamoto H., Nakaya T., Yamazaki M., Kooke R., Bac-Molenaar JA., Oztolan-Erol N., Keurentjes JJB., Arita M., Saito K. (2019) "A cheminformatics approach to characterize metabolomes in stable-isotope-labeled organisms" Nature Methods 16(4):295-298. [doi:10.1038/s41592-019-0358-2]
COMMENT: registered in RIKEN PlaSMA
CH$NAME: Acetylaconitine
CH$COMPOUND_CLASS: Aconitane-type diterpenoid alkaloids
CH$FORMULA: C36H49NO12
CH$EXACT_MASS: 687.783
CH$SMILES: CCN1CC2(COC)[C@H]3C(OC)C4[C@@H]1C3([C@@H]1C[C@@]3(O)C(OC(=O)C5=CC=CC=C5)[C@@H]1[C@]4(OC(C)=O)C(O)[C@@H]3OC)C(CC2OC(C)=O)OC
CH$IUPAC: InChI=1S/C36H49NO12/c1-8-37-16-33(17-43-4)22(47-18(2)38)14-23(44-5)35-21-15-34(42)30(48-32(41)20-12-10-9-11-13-20)24(21)36(49-19(3)39,29(40)31(34)46-7)25(28(35)37)26(45-6)27(33)35/h9-13,21-31,40,42H,8,14-17H2,1-7H3/t21-,22?,23?,24-,25?,26?,27-,28-,29?,30?,31+,33?,34-,35?,36-/m1/s1
CH$LINK: INCHIKEY RIPYIJVYDYCPKW-WEVHBWGYSA-N
AC$INSTRUMENT: LC, Waters Acquity UPLC System; MS, Waters Xevo G2 Q-Tof
AC$INSTRUMENT_TYPE: LC-ESI-QTOF
AC$MASS_SPECTROMETRY: MS_TYPE MS2
AC$MASS_SPECTROMETRY: ION_MODE POSITIVE
AC$MASS_SPECTROMETRY: COLLISION_ENERGY 6V
AC$MASS_SPECTROMETRY: DESOLVATION_GAS_FLOW 800/h
AC$MASS_SPECTROMETRY: DESOLVATION_TEMPERATURE 450 C
AC$MASS_SPECTROMETRY: IONIZATION ESI
AC$CHROMATOGRAPHY: CAPILLARY_VOLTAGE +3.00 kV
AC$CHROMATOGRAPHY: COLUMN_NAME Acquity bridged ethyl hybrid C18 (1.7 um, 2.1 mm * 100 mm, Waters)
AC$CHROMATOGRAPHY: COLUMN_TEMPERATURE 40 C
AC$CHROMATOGRAPHY: FLOW_GRADIENT A/B = (99.5%/0.5% at 0 min, 99.5%/0.5% at 0.1 min, 20%/80% at 10 min, 0.5%/99.5% at 10.1 min, 0.5%/99.5% at 12.0 min, 99.5%/0.5% at 12.1 min, 99.5%/0.5% at 15.0 min)
AC$CHROMATOGRAPHY: FLOW_RATE 0.3 ml/min at 0 min, 0.3 ml/min at 10 min, 0.4 ml/min at 10.1 min, 0.4 ml/min at 14.4 min, 0.3 ml/min at 14.5 min
AC$CHROMATOGRAPHY: RETENTION_TIME 6.173483
AC$CHROMATOGRAPHY: SOLVENT A water including 0.1% formic acid
AC$CHROMATOGRAPHY: SOLVENT B acetonitrile including 0.1% formic acid
MS$FOCUSED_ION: PRECURSOR_TYPE [M+H]+
MS$FOCUSED_ION: PRECURSOR_M/Z 688.3327525
PK$SPLASH: splash10-0aor-0973330000-bd9889f32d848c77ec84
PK$NUM_PEAK: 574
PK$PEAK: m/z int. rel.int.
  56.05217 14.0 14
  58.06604 22.0 22
  71.04967 25.0 25
  72.07976 8.0 8
  75.04517 14.0 14
  77.04076 11.0 11
  77.04656 5.0 5
  81.07085 6.0 6
  84.0758 7.0 7
  84.08386 12.0 12
  87.04561 7.0 7
  88.07253 7.0 7
  88.08136 13.0 13
  96.08538 7.0 7
  102.09332 6.0 6
  105.01727 5.0 5
  105.03463 1000.0 999
  106.03229 18.0 18
  106.03922 51.0 51
  107.03342 6.0 6
  108.07722 21.0 21
  108.08327 25.0 25
  109.06593 20.0 20
  110.07366 6.0 6
  110.09798 18.0 18
  111.08019 55.0 55
  111.08875 7.0 7
  114.0873 10.0 10
  115.0778 7.0 7
  116.06271 5.0 5
  117.0456 10.0 10
  117.06798 13.0 13
  118.07511 13.0 13
  120.08118 6.0 6
  121.05928 10.0 10
  121.06718 25.0 25
  122.06856 5.0 5
  122.09464 7.0 7
  122.10243 15.0 15
  123.08089 8.0 8
  125.05229 5.0 5
  125.06055 5.0 5
  128.06396 6.0 6
  129.06789 44.0 44
  130.06367 8.0 8
  131.04549 6.0 6
  131.05293 10.0 10
  131.08589 32.0 32
  132.05791 5.0 5
  132.08397 11.0 11
  133.06343 5.0 5
  134.09929 19.0 19
  135.08302 10.0 10
  136.07898 7.0 7
  137.05952 48.0 48
  138.09296 6.0 6
  139.07379 7.0 7
  140.10262 11.0 11
  141.07065 26.0 26
  141.09344 22.0 22
  141.09836 14.0 14
  143.06934 8.0 8
  143.08348 14.0 14
  144.08145 7.0 7
  144.10666 6.0 6
  145.06644 8.0 8
  145.08981 9.0 9
  146.03856 15.0 15
  146.0925 17.0 17
  146.10007 16.0 16
  147.04761 16.0 16
  147.08372 34.0 34
  148.10991 14.0 14
  149.05765 5.0 5
  150.06775 6.0 6
  152.09657 13.0 13
  152.10701 99.0 99
  153.0687 11.0 11
  153.11215 20.0 20
  154.07953 8.0 8
  154.12471 31.0 31
  155.08908 29.0 29
  156.08063 8.0 8
  156.12248 6.0 6
  157.06883 6.0 6
  157.09961 12.0 12
  158.08922 6.0 6
  158.09734 14.0 14
  158.10696 8.0 8
  159.07506 7.0 7
  159.08282 20.0 20
  159.10136 12.0 12
  159.10844 6.0 6
  160.08026 12.0 12
  160.10812 19.0 19
  160.11588 13.0 13
  161.06154 13.0 13
  161.09517 31.0 31
  162.09062 12.0 12
  162.09657 23.0 23
  162.11122 7.0 7
  163.08243 8.0 8
  163.09268 6.0 6
  163.10555 5.0 5
  164.11168 8.0 8
  164.99257 6.0 6
  165.05672 19.0 19
  165.07811 16.0 16
  165.09592 9.0 9
  165.11458 5.0 5
  166.0703 6.0 6
  167.06732 9.0 9
  167.08151 9.0 9
  167.08835 17.0 17
  169.06581 29.0 29
  170.09349 5.0 5
  171.07838 13.0 13
  171.08939 12.0 12
  171.1087 6.0 6
  172.1127 28.0 28
  173.09863 17.0 17
  174.06439 12.0 12
  174.09337 144.0 144
  174.13008 9.0 9
  175.08989 15.0 15
  175.09851 33.0 33
  175.11172 6.0 6
  176.09761 11.0 11
  177.05614 11.0 11
  177.09064 6.0 6
  178.06113 5.0 5
  178.06917 5.0 5
  178.1221 21.0 21
  179.07648 11.0 11
  179.0862 27.0 27
  180.07791 9.0 9
  180.10162 7.0 7
  181.06728 5.0 5
  181.10342 17.0 17
  182.1001 18.0 18
  182.12169 7.0 7
  183.08647 10.0 10
  183.10361 20.0 20
  184.05084 7.0 7
  184.08759 6.0 6
  184.10133 7.0 7
  184.11462 73.0 73
  185.05531 8.0 8
  185.09602 20.0 20
  185.12013 28.0 28
  186.1132 15.0 15
  186.12349 29.0 29
  186.13315 22.0 22
  187.06638 6.0 6
  187.07739 13.0 13
  187.09093 7.0 7
  187.13164 10.0 10
  188.05634 9.0 9
  188.07179 71.0 71
  188.10452 17.0 17
  189.07558 11.0 11
  190.05852 7.0 7
  190.07611 20.0 20
  190.0881 26.0 26
  190.12387 22.0 22
  191.06998 7.0 7
  191.08113 14.0 14
  191.09021 19.0 19
  191.12862 9.0 9
  192.09198 15.0 15
  192.12981 6.0 6
  193.06395 11.0 11
  193.10541 40.0 40
  194.10373 7.0 7
  195.06926 5.0 5
  195.08446 18.0 18
  195.09659 10.0 10
  196.10223 5.0 5
  196.12227 9.0 9
  197.07779 5.0 5
  197.09473 7.0 7
  197.11751 11.0 11
  198.09319 5.0 5
  198.10907 10.0 10
  198.12801 17.0 17
  198.14696 10.0 10
  199.08014 5.0 5
  199.12587 9.0 9
  201.10461 6.0 6
  202.06746 18.0 18
  202.07872 22.0 22
  202.08981 12.0 12
  202.09843 11.0 11
  202.12366 21.0 21
  203.08055 16.0 16
  203.09152 28.0 28
  203.12302 5.0 5
  204.08182 7.0 7
  204.099 23.0 23
  204.1091 12.0 12
  204.12759 6.0 6
  204.1373 29.0 29
  205.0607 8.0 8
  205.0692 7.0 7
  205.10037 80.0 80
  205.1252 5.0 5
  205.1498 8.0 8
  206.07945 7.0 7
  206.08977 10.0 10
  206.10133 14.0 14
  206.11023 20.0 20
  207.06296 7.0 7
  207.08382 28.0 28
  207.11514 17.0 17
  208.09233 9.0 9
  208.11079 12.0 12
  208.12379 5.0 5
  209.08435 6.0 6
  209.09679 44.0 44
  209.12305 11.0 11
  210.10751 7.0 7
  210.12469 20.0 20
  212.10791 7.0 7
  212.14629 5.0 5
  213.10703 7.0 7
  214.09315 5.0 5
  215.08073 17.0 17
  215.09418 38.0 38
  215.12819 11.0 11
  216.08873 5.0 5
  216.09744 10.0 10
  216.10941 7.0 7
  216.1349 8.0 8
  216.14442 7.0 7
  217.0988 65.0 65
  218.05901 14.0 14
  218.07123 8.0 8
  218.08199 11.0 11
  218.11041 17.0 17
  218.1545 279.0 279
  219.08171 38.0 38
  219.11617 28.0 28
  219.15643 9.0 9
  219.16576 25.0 25
  220.08208 10.0 10
  220.09625 9.0 9
  220.16934 5.0 5
  221.07838 8.0 8
  221.09834 24.0 24
  221.14404 7.0 7
  222.06912 5.0 5
  222.10399 11.0 11
  222.12428 17.0 17
  223.11668 17.0 17
  224.09987 7.0 7
  224.11819 10.0 10
  225.09322 28.0 28
  225.11058 6.0 6
  228.10027 8.0 8
  228.14125 9.0 9
  229.09575 9.0 9
  230.10593 9.0 9
  230.12204 9.0 9
  232.0865 30.0 30
  232.10234 5.0 5
  233.0639 9.0 9
  233.09512 79.0 79
  234.06853 5.0 5
  234.09497 22.0 22
  234.10626 29.0 29
  235.11415 47.0 47
  235.14035 6.0 6
  236.07968 5.0 5
  236.10948 8.0 8
  236.1469 6.0 6
  237.09073 23.0 23
  237.12938 28.0 28
  238.12646 8.0 8
  239.10834 13.0 13
  239.13062 7.0 7
  240.10524 22.0 22
  241.12672 21.0 21
  242.15379 8.0 8
  243.07967 14.0 14
  244.1713 6.0 6
  245.09604 19.0 19
  246.10237 15.0 15
  246.11916 8.0 8
  247.10222 7.0 7
  247.11313 27.0 27
  247.14288 7.0 7
  248.07368 9.0 9
  248.09006 7.0 7
  248.10649 11.0 11
  248.15419 6.0 6
  249.09578 25.0 25
  249.12146 14.0 14
  249.13585 21.0 21
  250.08072 6.0 6
  250.09955 11.0 11
  250.11009 11.0 11
  250.13065 24.0 24
  251.10556 31.0 31
  251.13011 15.0 15
  254.12732 6.0 6
  254.14531 12.0 12
  255.13925 7.0 7
  256.12558 8.0 8
  257.10278 5.0 5
  257.11844 6.0 6
  258.14197 11.0 11
  259.07574 5.0 5
  259.11459 14.0 14
  261.09137 69.0 69
  261.12045 7.0 7
  261.1492 5.0 5
  262.10367 12.0 12
  262.11194 5.0 5
  262.13977 5.0 5
  262.16486 8.0 8
  263.10718 33.0 33
  263.1394 12.0 12
  264.12878 10.0 10
  264.14059 13.0 13
  265.01602 7.0 7
  265.10095 11.0 11
  265.12186 30.0 30
  266.1315 9.0 9
  266.16107 9.0 9
  267.12164 11.0 11
  267.14206 7.0 7
  268.12891 10.0 10
  269.13211 7.0 7
  269.14084 7.0 7
  269.15802 5.0 5
  272.13477 8.0 8
  272.1481 17.0 17
  272.17487 7.0 7
  273.07617 5.0 5
  273.09201 11.0 11
  274.13022 8.0 8
  275.10883 35.0 35
  276.14685 14.0 14
  277.13116 11.0 11
  277.14276 6.0 6
  278.09 6.0 6
  278.10226 8.0 8
  278.13425 8.0 8
  278.17572 8.0 8
  279.09595 6.0 6
  279.10718 21.0 21
  279.13739 13.0 13
  280.10608 6.0 6
  280.13739 6.0 6
  280.16479 7.0 7
  281.14551 9.0 9
  281.17773 6.0 6
  282.14673 9.0 9
  284.13458 7.0 7
  286.11786 8.0 8
  288.142 6.0 6
  289.09128 6.0 6
  290.09738 11.0 11
  290.1554 71.0 71
  291.12387 15.0 15
  291.16385 15.0 15
  292.14764 8.0 8
  293.11017 12.0 12
  293.13071 22.0 22
  294.12723 20.0 20
  294.14203 5.0 5
  294.1774 6.0 6
  294.1922 8.0 8
  295.13217 7.0 7
  296.13266 9.0 9
  296.16196 22.0 22
  297.14648 18.0 18
  298.13574 8.0 8
  299.08313 5.0 5
  302.16046 6.0 6
  304.1358 7.0 7
  304.17255 6.0 6
  305.11398 5.0 5
  305.1282 18.0 18
  305.15253 31.0 31
  306.13086 5.0 5
  306.151 41.0 41
  306.16379 15.0 15
  307.12613 9.0 9
  307.14404 6.0 6
  307.15894 11.0 11
  308.13815 7.0 7
  308.15875 5.0 5
  308.17404 10.0 10
  309.16953 15.0 15
  309.18896 6.0 6
  310.10944 18.0 18
  310.1268 7.0 7
  310.17551 10.0 10
  310.1925 11.0 11
  312.1608 6.0 6
  315.17667 5.0 5
  318.15988 24.0 24
  319.15744 11.0 11
  320.16098 9.0 9
  322.14764 18.0 18
  322.17575 54.0 54
  322.19824 14.0 14
  323.15109 15.0 15
  323.17615 7.0 7
  324.16385 12.0 12
  325.15192 17.0 17
  325.20746 13.0 13
  326.16403 5.0 5
  326.18637 14.0 14
  326.20184 19.0 19
  326.21719 35.0 35
  327.21298 9.0 9
  327.94995 5.0 5
  328.19073 12.0 12
  329.20587 9.0 9
  332.13934 5.0 5
  335.15118 9.0 9
  336.20154 5.0 5
  337.14581 9.0 9
  337.17465 5.0 5
  338.16196 6.0 6
  338.18088 8.0 8
  339.18692 13.0 13
  340.17328 7.0 7
  341.19873 6.0 6
  342.14069 7.0 7
  342.18225 6.0 6
  344.16644 7.0 7
  350.14664 5.0 5
  350.17697 98.0 98
  351.17419 21.0 21
  351.19122 5.0 5
  352.1608 5.0 5
  352.18839 16.0 16
  353.20554 7.0 7
  354.17148 7.0 7
  354.20901 244.0 244
  355.21146 41.0 41
  355.22888 9.0 9
  356.19144 16.0 16
  356.22342 8.0 8
  357.16675 10.0 10
  358.23325 6.0 6
  359.23627 10.0 10
  368.19257 16.0 16
  370.20999 10.0 10
  371.19336 8.0 8
  374.21402 8.0 8
  382.18863 12.0 12
  382.2037 44.0 44
  383.11511 6.0 6
  383.20956 10.0 10
  384.18619 9.0 9
  384.21021 6.0 6
  384.22784 6.0 6
  385.17593 9.0 9
  385.21686 5.0 5
  386.19186 16.0 16
  386.23209 107.0 107
  387.23474 29.0 29
  387.25024 7.0 7
  388.21957 11.0 11
  392.21948 5.0 5
  398.17627 8.0 8
  410.15436 8.0 8
  410.19916 210.0 210
  411.20102 70.0 70
  413.15271 6.0 6
  414.22177 40.0 40
  414.23505 47.0 47
  415.23575 17.0 17
  418.18796 5.0 5
  418.24548 12.0 12
  418.27536 15.0 15
  426.17966 5.0 5
  426.20825 6.0 6
  428.18265 5.0 5
  428.4921 6.0 6
  441.19888 6.0 6
  442.20566 15.0 15
  442.22162 8.0 8
  443.22531 6.0 6
  444.19049 7.0 7
  444.21851 19.0 19
  445.20029 8.0 8
  446.19745 24.0 24
  446.255 169.0 169
  446.28864 6.0 6
  447.1835 6.0 6
  447.2226 6.0 6
  447.25104 38.0 38
  447.28583 11.0 11
  448.25882 13.0 13
  449.20013 7.0 7
  460.18643 7.0 7
  460.2121 10.0 10
  460.23364 12.0 12
  460.25336 13.0 13
  461.242 6.0 6
  462.19983 8.0 8
  472.21725 40.0 40
  473.19916 7.0 7
  473.21732 12.0 12
  473.57132 5.0 5
  476.13272 6.0 6
  476.24265 240.0 240
  476.29776 6.0 6
  477.24164 50.0 50
  477.28253 7.0 7
  478.21521 53.0 53
  478.22971 25.0 25
  478.25391 17.0 17
  479.20956 9.0 9
  479.23108 13.0 13
  490.22162 6.0 6
  490.24261 7.0 7
  492.22052 6.0 6
  492.24136 15.0 15
  504.22672 34.0 34
  504.24939 68.0 68
  505.20535 5.0 5
  505.24194 34.0 34
  505.27618 12.0 12
  505.88391 6.0 6
  506.24695 16.0 16
  508.23355 11.0 11
  508.26343 53.0 53
  508.29175 10.0 10
  509.28693 19.0 19
  510.21716 8.0 8
  510.24228 13.0 13
  510.26782 6.0 6
  511.29703 9.0 9
  522.23932 6.0 6
  536.23529 36.0 36
  536.26477 289.0 289
  537.23413 12.0 12
  537.27435 146.0 146
  537.30774 9.0 9
  538.25299 7.0 7
  538.27209 20.0 20
  539.26031 8.0 8
  564.24792 17.0 17
  564.27148 12.0 12
  565.24597 7.0 7
  566.26849 8.0 8
  568.25568 24.0 24
  568.29181 238.0 238
  569.29089 40.0 40
  569.31207 54.0 54
  570.28137 9.0 9
  570.30609 10.0 10
  570.32416 15.0 15
  571.30078 5.0 5
  585.62726 5.0 5
  595.81696 6.0 6
  596.27649 58.0 58
  596.29675 96.0 96
  597.27905 21.0 21
  597.32739 6.0 6
  598.30145 6.0 6
  628.26392 11.0 11
  628.31641 248.0 248
  629.31067 60.0 60
  629.33643 14.0 14
  630.32715 19.0 19
  688.32959 21.0 21
  688.35437 8.0 8
//
