ACCESSION: MSBNK-RIKEN-PR300190
RECORD_TITLE: Gardnutine; LC-ESI-QTOF; MS2
DATE: 2019.03.28
AUTHORS: Tetsuya Mori, Center for Sustainable Resource Science, RIKEN
LICENSE: CC BY-NC-SA
PUBLICATION: Tsugawa H., Nakabayashi R., Mori T., Yamada Y., Takahashi M., Rai A., Sugiyama R., Yamamoto H., Nakaya T., Yamazaki M., Kooke R., Bac-Molenaar JA., Oztolan-Erol N., Keurentjes JJB., Arita M., Saito K. (2019) "A cheminformatics approach to characterize metabolomes in stable-isotope-labeled organisms" Nature Methods 16(4):295-298. [doi:10.1038/s41592-019-0358-2]
COMMENT: registered in RIKEN PlaSMA
CH$NAME: Gardnutine
CH$COMPOUND_CLASS: Macroline alkaloids
CH$FORMULA: C20H22N2O2
CH$EXACT_MASS: 322.408
CH$SMILES: COC1=CC2=C(C=C1)C1=C(N2)[C@@H]2CC3C4CO[C@H]1[C@@H]4N2C\C3=C\C
CH$IUPAC: InChI=1S/C20H22N2O2/c1-3-10-8-22-16-7-13(10)14-9-24-20(19(14)22)17-12-5-4-11(23-2)6-15(12)21-18(16)17/h3-6,13-14,16,19-21H,7-9H2,1-2H3/b10-3-/t13?,14?,16-,19+,20+/m0/s1
CH$LINK: INCHIKEY XJTWLFBHBFSVRS-CRJBWSHOSA-N
AC$INSTRUMENT: LC, Waters Acquity UPLC System; MS, Waters Xevo G2 Q-Tof
AC$INSTRUMENT_TYPE: LC-ESI-QTOF
AC$MASS_SPECTROMETRY: MS_TYPE MS2
AC$MASS_SPECTROMETRY: ION_MODE POSITIVE
AC$MASS_SPECTROMETRY: COLLISION_ENERGY 6V
AC$MASS_SPECTROMETRY: DESOLVATION_GAS_FLOW 800/h
AC$MASS_SPECTROMETRY: DESOLVATION_TEMPERATURE 450 C
AC$MASS_SPECTROMETRY: IONIZATION ESI
AC$CHROMATOGRAPHY: CAPILLARY_VOLTAGE +3.00 kV
AC$CHROMATOGRAPHY: COLUMN_NAME Acquity bridged ethyl hybrid C18 (1.7 um, 2.1 mm * 100 mm, Waters)
AC$CHROMATOGRAPHY: COLUMN_TEMPERATURE 40 C
AC$CHROMATOGRAPHY: FLOW_GRADIENT A/B = (99.5%/0.5% at 0 min, 99.5%/0.5% at 0.1 min, 20%/80% at 10 min, 0.5%/99.5% at 10.1 min, 0.5%/99.5% at 12.0 min, 99.5%/0.5% at 12.1 min, 99.5%/0.5% at 15.0 min)
AC$CHROMATOGRAPHY: FLOW_RATE 0.3 ml/min at 0 min, 0.3 ml/min at 10 min, 0.4 ml/min at 10.1 min, 0.4 ml/min at 14.4 min, 0.3 ml/min at 14.5 min
AC$CHROMATOGRAPHY: RETENTION_TIME 4.419867
AC$CHROMATOGRAPHY: SOLVENT A water including 0.1% formic acid
AC$CHROMATOGRAPHY: SOLVENT B acetonitrile including 0.1% formic acid
MS$FOCUSED_ION: PRECURSOR_TYPE [M+H]+
MS$FOCUSED_ION: PRECURSOR_M/Z 323.1754044
PK$SPLASH: splash10-00di-1980000000-33e955f4c1b7b3e851ba
PK$NUM_PEAK: 296
PK$PEAK: m/z int. rel.int.
  68.04749 5.0 5
  68.05598 7.0 7
  77.04082 13.0 13
  79.05226 10.0 10
  80.04581 9.0 9
  80.05154 17.0 17
  81.05554 7.0 7
  82.06499 11.0 11
  91.0524 45.0 45
  93.05595 66.0 66
  93.0687 134.0 134
  94.0647 357.0 357
  94.07566 7.0 7
  95.04034 7.0 7
  95.04948 17.0 17
  95.0631 9.0 9
  95.06797 18.0 18
  95.07481 6.0 6
  96.07035 8.0 8
  96.08585 5.0 5
  105.06989 20.0 20
  107.06932 28.0 28
  107.07668 18.0 18
  108.08012 58.0 58
  109.08729 8.0 8
  117.05676 29.0 29
  118.06585 24.0 24
  119.06737 19.0 19
  119.07677 15.0 15
  120.04315 8.0 8
  120.05659 6.0 6
  120.08008 581.0 580
  121.06344 6.0 6
  121.08025 48.0 48
  121.08907 35.0 35
  122.06566 6.0 6
  122.09568 1000.0 999
  123.10001 87.0 87
  124.10675 5.0 5
  131.07167 19.0 19
  131.07719 6.0 6
  132.0448 9.0 9
  132.08121 24.0 24
  133.05191 23.0 23
  133.06183 7.0 7
  134.05164 6.0 6
  134.09473 56.0 56
  134.10294 10.0 10
  135.09633 5.0 5
  136.07747 14.0 14
  136.10583 8.0 8
  136.11646 7.0 7
  138.09865 6.0 6
  143.07019 20.0 20
  144.07916 14.0 14
  145.0513 10.0 10
  146.08615 9.0 9
  146.09683 71.0 71
  146.10768 8.0 8
  147.06885 34.0 34
  148.07726 74.0 74
  148.11148 113.0 113
  149.08812 6.0 6
  149.11072 8.0 8
  150.08981 84.0 84
  151.09418 6.0 6
  155.07289 29.0 29
  155.0813 9.0 9
  156.06352 7.0 7
  157.05214 6.0 6
  157.0815 12.0 12
  158.04016 5.0 5
  158.05952 297.0 297
  159.06021 22.0 22
  159.06914 32.0 32
  160.05112 7.0 7
  160.06168 8.0 8
  160.07512 138.0 138
  161.07411 6.0 6
  161.08174 10.0 10
  162.07668 9.0 9
  162.08878 11.0 11
  168.07581 6.0 6
  170.05963 12.0 12
  170.09825 13.0 13
  171.05328 7.0 7
  171.07112 6.0 6
  171.10583 6.0 6
  172.06485 8.0 8
  172.07399 27.0 27
  173.0386 8.0 8
  173.05103 5.0 5
  173.08342 755.0 754
  174.04948 7.0 7
  174.08969 287.0 287
  175.09177 18.0 18
  176.06595 7.0 7
  176.09453 7.0 7
  177.03149 6.0 6
  180.08383 13.0 13
  181.09102 16.0 16
  182.06142 8.0 8
  182.08392 7.0 7
  182.29436 6.0 6
  183.06606 14.0 14
  184.06288 7.0 7
  184.07414 12.0 12
  185.05461 6.0 6
  185.08315 21.0 21
  185.1001 6.0 6
  186.09056 189.0 189
  187.07964 10.0 10
  187.09021 26.0 26
  187.09691 21.0 21
  188.07059 70.0 70
  188.10591 158.0 158
  189.06769 7.0 7
  189.0786 12.0 12
  189.09712 6.0 6
  189.10747 18.0 18
  192.0835 7.0 7
  193.06728 6.0 6
  193.09117 63.0 63
  195.07278 7.0 7
  195.10173 16.0 16
  196.0717 8.0 8
  196.08701 7.0 7
  197.06622 5.0 5
  197.07771 29.0 29
  197.0864 31.0 31
  197.09322 11.0 11
  198.08803 57.0 57
  199.07477 9.0 9
  199.08972 70.0 70
  200.0681 32.0 32
  200.08319 16.0 16
  200.10487 17.0 17
  201.10591 13.0 13
  202.07085 16.0 16
  202.08533 93.0 93
  206.08559 6.0 6
  207.09242 5.0 5
  208.07585 16.0 16
  209.08299 65.0 65
  209.09596 6.0 6
  210.08524 69.0 69
  210.09668 23.0 23
  211.0878 19.0 19
  211.09859 20.0 20
  212.09367 44.0 44
  212.10976 51.0 51
  213.09587 27.0 27
  213.10579 29.0 29
  214.07753 11.0 11
  214.08725 13.0 13
  214.1246 7.0 7
  215.07744 30.0 30
  215.08707 22.0 22
  216.09885 20.0 20
  216.10707 10.0 10
  217.10669 5.0 5
  218.08064 7.0 7
  218.09068 9.0 9
  219.10016 10.0 10
  219.10954 9.0 9
  220.06743 6.0 6
  220.07941 7.0 7
  221.07927 16.0 16
  222.09117 10.0 10
  223.09857 58.0 58
  224.08934 22.0 22
  224.10602 186.0 186
  224.16591 6.0 6
  225.05771 6.0 6
  225.09149 11.0 11
  225.11287 23.0 23
  225.12398 8.0 8
  226.08255 15.0 15
  226.10507 14.0 14
  226.12328 28.0 28
  227.07968 49.0 49
  227.12923 8.0 8
  228.08165 21.0 21
  228.14227 8.0 8
  229.09944 10.0 10
  230.08098 6.0 6
  234.07393 9.0 9
  234.09346 27.0 27
  235.09938 54.0 54
  235.12483 15.0 15
  236.08601 6.0 6
  236.10661 54.0 54
  237.07883 7.0 7
  237.10493 9.0 9
  237.11459 17.0 17
  238.0799 12.0 12
  238.12315 70.0 70
  239.09834 6.0 6
  239.11967 9.0 9
  239.13101 10.0 10
  240.12865 12.0 12
  240.14198 9.0 9
  242.13446 7.0 7
  245.12758 7.0 7
  245.89388 5.0 5
  246.09134 6.0 6
  247.09688 23.0 23
  247.11916 35.0 35
  248.11217 29.0 29
  248.12885 17.0 17
  249.10248 163.0 163
  249.14459 7.0 7
  250.09297 17.0 17
  250.10742 19.0 19
  250.13016 52.0 52
  250.14789 53.0 53
  251.08827 7.0 7
  251.11772 11.0 11
  251.13109 22.0 22
  251.14815 12.0 12
  252.09175 25.0 25
  252.10762 24.0 24
  252.12135 23.0 23
  252.13123 20.0 20
  252.15346 10.0 10
  253.09642 20.0 20
  254.12975 5.0 5
  254.14272 13.0 13
  257.1163 10.0 10
  260.10886 8.0 8
  261.10571 12.0 12
  261.13803 197.0 197
  262.08914 13.0 13
  262.10815 7.0 7
  262.11896 19.0 19
  262.13065 36.0 36
  262.14453 19.0 19
  262.1561 6.0 6
  263.09735 11.0 11
  263.11615 55.0 55
  263.12552 71.0 71
  263.14853 16.0 16
  264.1113 39.0 39
  264.12613 32.0 32
  264.13516 34.0 34
  265.09927 7.0 7
  265.11755 6.0 6
  265.1391 34.0 34
  265.15735 7.0 7
  266.11826 19.0 19
  266.13525 9.0 9
  266.14517 15.0 15
  266.15546 6.0 6
  266.17746 5.0 5
  273.14212 7.0 7
  275.12595 8.0 8
  276.12137 20.0 20
  276.13684 36.0 36
  276.15359 11.0 11
  277.13382 284.0 284
  278.13943 280.0 280
  278.16428 10.0 10
  279.11139 9.0 9
  279.13464 33.0 33
  279.14828 46.0 46
  279.16431 15.0 15
  280.12759 6.0 6
  280.15256 7.0 7
  281.12906 6.0 6
  289.13348 8.0 8
  290.13654 16.0 16
  291.10437 11.0 11
  291.12912 9.0 9
  291.14673 34.0 34
  291.15582 11.0 11
  292.14279 16.0 16
  292.15939 25.0 25
  293.09918 5.0 5
  293.12378 8.0 8
  293.16519 778.0 777
  293.19263 5.0 5
  294.12753 12.0 12
  294.14642 14.0 14
  294.16284 112.0 112
  294.17346 68.0 68
  295.13287 8.0 8
  295.15308 15.0 15
  295.17276 35.0 35
  295.18347 24.0 24
  305.16132 9.0 9
  305.17941 11.0 11
  307.14893 7.0 7
  308.14905 6.0 6
  323.15137 7.0 7
  323.16644 41.0 41
  323.17612 130.0 130
//
