ACCESSION: MSBNK-RIKEN-PR100184
RECORD_TITLE: N-Methyl-DL-Alanine; LC-ESI-QTOF; MS2; CE:Ramp 5-60 V; [M+H]+
DATE: 2016.01.19 (Created 2009.09.10, modified 2011.05.06)
AUTHORS: Matsuda F, Suzuki M, Sawada Y, Plant Science Center, RIKEN.
LICENSE: CC BY-SA
COMMENT: Acquisition and generation of the data is financially supported in part by CREST/JST.
CH$NAME: N-Methyl-DL-Alanine
CH$NAME: N-Me-DL-Ala
CH$NAME: DL-N-Methylalanine
CH$COMPOUND_CLASS: Amino acids
CH$FORMULA: C4H9NO2
CH$EXACT_MASS: 103.06333
CH$SMILES: CNC(C)C(O)=O
CH$IUPAC: InChI=1S/C4H9NO2/c1-3(5-2)4(6)7/h3,5H,1-2H3,(H,6,7)/t3-/m0/s1
CH$LINK: CAS 600-21-5
CH$LINK: CHEMSPIDER 4450824
CH$LINK: KEGG C02721
CH$LINK: PUBCHEM CID:5288725
CH$LINK: INCHIKEY GDFAOVXKHJXLEI-VKHMYHEASA-N
CH$LINK: COMPTOX DTXSID30959936
AC$INSTRUMENT: UPLC Q-Tof Premier, Waters
AC$INSTRUMENT_TYPE: LC-ESI-QTOF
AC$MASS_SPECTROMETRY: MS_TYPE MS2
AC$MASS_SPECTROMETRY: ION_MODE POSITIVE
AC$MASS_SPECTROMETRY: COLLISION_ENERGY Ramp 5-60 V
AC$MASS_SPECTROMETRY: DATAFORMAT Continuum
AC$MASS_SPECTROMETRY: DATE 2008.07.25
AC$MASS_SPECTROMETRY: DESOLVATION_GAS_FLOW 600.0 L/Hr
AC$MASS_SPECTROMETRY: DESOLVATION_TEMPERATURE 420 C
AC$MASS_SPECTROMETRY: FRAGMENTATION_METHOD LOW-ENERGY CID
AC$MASS_SPECTROMETRY: IONIZATION ESI
AC$MASS_SPECTROMETRY: SCANNING 1.0 sec/scan (m/z = 50-1000)
AC$MASS_SPECTROMETRY: SOURCE_TEMPERATURE 120 C
AC$CHROMATOGRAPHY: CAPILLARY_VOLTAGE 3.0 kV
AC$CHROMATOGRAPHY: SAMPLING_CONE 23.0 V
AC$CHROMATOGRAPHY: SOLVENT A CH3CN(0.1%HCOOH)
AC$CHROMATOGRAPHY: SOLVENT B H2O(0.1%HCOOH)
MS$FOCUSED_ION: PRECURSOR_M/Z 104.07113
MS$FOCUSED_ION: PRECURSOR_TYPE [M+H]+
PK$SPLASH: splash10-0pb9-9600000000-fe7eceb9dc8b739c5ec0
PK$NUM_PEAK: 2
PK$PEAK: m/z int. rel.int.
  58.0658 36.46 999
  104.0711 26.64 730
//
