ACCESSION: MSBNK-RIKEN-PR300278
RECORD_TITLE: Calycanthine; LC-ESI-QTOF; MS2
DATE: 2019.03.28
AUTHORS: Tetsuya Mori, Center for Sustainable Resource Science, RIKEN
LICENSE: CC BY-NC-SA
PUBLICATION: Tsugawa H., Nakabayashi R., Mori T., Yamada Y., Takahashi M., Rai A., Sugiyama R., Yamamoto H., Nakaya T., Yamazaki M., Kooke R., Bac-Molenaar JA., Oztolan-Erol N., Keurentjes JJB., Arita M., Saito K. (2019) "A cheminformatics approach to characterize metabolomes in stable-isotope-labeled organisms" Nature Methods 16(4):295-298. [doi:10.1038/s41592-019-0358-2]
COMMENT: registered in RIKEN PlaSMA
CH$NAME: Calycanthine
CH$COMPOUND_CLASS: Aminoquinolines and derivatives
CH$FORMULA: C22H26N4
CH$EXACT_MASS: 346.478
CH$SMILES: CN1CC[C@@]23[C@@H]4NC5=CC=CC=C5[C@]2(CCN4C)[C@@H]1NC1=CC=CC=C31
CH$IUPAC: InChI=1S/C22H26N4/c1-25-13-11-22-16-8-4-5-9-17(16)23-19(25)21(22)12-14-26(2)20(22)24-18-10-6-3-7-15(18)21/h3-10,19-20,23-24H,11-14H2,1-2H3/t19-,20-,21-,22-/m1/s1
CH$LINK: INCHIKEY XSYCDVWYEVUDKQ-GXRSIYKFSA-N
AC$INSTRUMENT: LC, Waters Acquity UPLC System; MS, Waters Xevo G2 Q-Tof
AC$INSTRUMENT_TYPE: LC-ESI-QTOF
AC$MASS_SPECTROMETRY: MS_TYPE MS2
AC$MASS_SPECTROMETRY: ION_MODE POSITIVE
AC$MASS_SPECTROMETRY: COLLISION_ENERGY 6V
AC$MASS_SPECTROMETRY: DESOLVATION_GAS_FLOW 800/h
AC$MASS_SPECTROMETRY: DESOLVATION_TEMPERATURE 450 C
AC$MASS_SPECTROMETRY: IONIZATION ESI
AC$CHROMATOGRAPHY: CAPILLARY_VOLTAGE +3.00 kV
AC$CHROMATOGRAPHY: COLUMN_NAME Acquity bridged ethyl hybrid C18 (1.7 um, 2.1 mm * 100 mm, Waters)
AC$CHROMATOGRAPHY: COLUMN_TEMPERATURE 40 C
AC$CHROMATOGRAPHY: FLOW_GRADIENT A/B = (99.5%/0.5% at 0 min, 99.5%/0.5% at 0.1 min, 20%/80% at 10 min, 0.5%/99.5% at 10.1 min, 0.5%/99.5% at 12.0 min, 99.5%/0.5% at 12.1 min, 99.5%/0.5% at 15.0 min)
AC$CHROMATOGRAPHY: FLOW_RATE 0.3 ml/min at 0 min, 0.3 ml/min at 10 min, 0.4 ml/min at 10.1 min, 0.4 ml/min at 14.4 min, 0.3 ml/min at 14.5 min
AC$CHROMATOGRAPHY: RETENTION_TIME 2.574817
AC$CHROMATOGRAPHY: SOLVENT A water including 0.1% formic acid
AC$CHROMATOGRAPHY: SOLVENT B acetonitrile including 0.1% formic acid
MS$FOCUSED_ION: PRECURSOR_TYPE [M+H]+
MS$FOCUSED_ION: PRECURSOR_M/Z 347.2230233
PK$SPLASH: splash10-0002-0698000000-668491ff366d8a9fb448
PK$NUM_PEAK: 137
PK$PEAK: m/z int. rel.int.
  84.08126 12.0 12
  96.08116 19.0 19
  115.04735 6.0 6
  115.0547 7.0 7
  120.08286 13.0 13
  130.06377 110.0 110
  130.06982 34.0 34
  131.06328 41.0 41
  131.07196 15.0 15
  132.06641 5.0 5
  132.08014 61.0 61
  132.08965 17.0 17
  143.07759 19.0 19
  144.06033 7.0 7
  144.07419 42.0 42
  144.08157 79.0 79
  145.08246 7.0 7
  145.08955 11.0 11
  146.65776 6.0 6
  147.09435 6.0 6
  158.07549 8.0 8
  159.08917 6.0 6
  160.09471 8.0 8
  168.06702 10.0 10
  168.07571 44.0 44
  168.08646 10.0 10
  170.09041 11.0 11
  172.07986 6.0 6
  172.09158 12.0 12
  173.10481 168.0 168
  174.10989 27.0 27
  175.10051 7.0 7
  175.10963 22.0 22
  175.12582 10.0 10
  175.13826 11.0 11
  176.1264 9.0 9
  180.07841 20.0 20
  181.07994 7.0 7
  182.08679 7.0 7
  182.10049 24.0 24
  183.08339 13.0 13
  183.09485 32.0 32
  183.31194 8.0 8
  185.10614 50.0 50
  187.12151 5.0 5
  196.06276 13.0 13
  196.13823 10.0 10
  197.09546 6.0 6
  197.1024 7.0 7
  199.12166 24.0 24
  207.0956 9.0 9
  209.09425 7.0 7
  209.10583 12.0 12
  210.11208 15.0 15
  211.11644 40.0 40
  211.12518 60.0 60
  211.23161 8.0 8
  212.12614 46.0 46
  215.15279 6.0 6
  217.08992 7.0 7
  218.65245 10.0 10
  223.11249 19.0 19
  223.12184 18.0 18
  224.13585 10.0 10
  228.07599 9.0 9
  231.03737 5.0 5
  231.10501 15.0 15
  232.08502 16.0 16
  232.09737 89.0 89
  232.11472 5.0 5
  233.10353 86.0 86
  234.1021 7.0 7
  234.11397 12.0 12
  241.05994 5.0 5
  245.31316 7.0 7
  246.1134 16.0 16
  247.09126 6.0 6
  247.1118 50.0 50
  247.12399 150.0 150
  248.12228 45.0 45
  248.63362 5.0 5
  249.12535 5.0 5
  254.0976 6.0 6
  255.08505 19.0 19
  256.08832 25.0 25
  256.11108 18.0 18
  257.10376 49.0 49
  257.42441 10.0 10
  258.09833 6.0 6
  258.11203 6.0 6
  259.09985 6.0 6
  259.1145 25.0 25
  259.12631 84.0 84
  260.11557 26.0 26
  260.13159 13.0 13
  267.07941 7.0 7
  269.11096 26.0 26
  270.09973 12.0 12
  270.1149 41.0 41
  271.11725 10.0 10
  272.11108 7.0 7
  273.1347 43.0 43
  273.14743 15.0 15
  274.14825 10.0 10
  275.14749 8.0 8
  282.116 8.0 8
  285.11325 7.0 7
  285.13806 163.0 163
  286.12753 7.0 7
  286.14008 7.0 7
  288.1283 13.0 13
  289.14825 7.0 7
  290.11374 5.0 5
  290.12851 10.0 10
  290.14352 13.0 13
  290.16721 94.0 94
  291.15323 6.0 6
  291.17059 9.0 9
  304.17694 56.0 56
  304.19525 14.0 14
  305.19308 33.0 33
  307.70322 7.0 7
  316.12872 7.0 7
  316.15326 12.0 12
  316.17731 229.0 229
  316.18878 78.0 78
  316.61362 6.0 6
  317.16998 11.0 11
  317.18707 53.0 53
  317.31195 6.0 6
  324.13058 5.0 5
  329.15024 10.0 10
  346.42215 6.0 6
  346.93988 6.0 6
  347.16751 5.0 5
  347.18677 24.0 24
  347.22363 1000.0 999
//
