ACCESSION: MSBNK-RIKEN-PR301325
RECORD_TITLE: Germinaline; LC-ESI-QTOF; MS2
DATE: 2019.03.28
AUTHORS: Tetsuya Mori, Center for Sustainable Resource Science, RIKEN
LICENSE: CC BY-NC-SA
PUBLICATION: Tsugawa H., Nakabayashi R., Mori T., Yamada Y., Takahashi M., Rai A., Sugiyama R., Yamamoto H., Nakaya T., Yamazaki M., Kooke R., Bac-Molenaar JA., Oztolan-Erol N., Keurentjes JJB., Arita M., Saito K. (2019) "A cheminformatics approach to characterize metabolomes in stable-isotope-labeled organisms" Nature Methods 16(4):295-298. [doi:10.1038/s41592-019-0358-2]
COMMENT: registered in RIKEN PlaSMA
CH$NAME: Germinaline
CH$COMPOUND_CLASS: Cerveratrum-type alkaloids
CH$FORMULA: C39H61NO13
CH$EXACT_MASS: 751.911
CH$SMILES: CCC(C)C(=O)OC1C(O)C2C(CN3CC(C)CCC3C2(C)O)C2CC34OC5(O)C(CC(O)C3C12O)C4(C)CCC5OC(=O)C(C)(O)C(C)OC(C)=O
CH$IUPAC: InChI=1S/C39H61NO13/c1-9-19(3)32(44)52-31-29(43)28-22(17-40-16-18(2)10-11-26(40)36(28,8)47)23-15-37-30(38(23,31)48)24(42)14-25-34(37,6)13-12-27(39(25,49)53-37)51-33(45)35(7,46)20(4)50-21(5)41/h18-20,22-31,42-43,46-49H,9-17H2,1-8H3
CH$LINK: INCHIKEY CPINTEKYWNYXNP-UHFFFAOYSA-N
AC$INSTRUMENT: LC, Waters Acquity UPLC System; MS, Waters Xevo G2 Q-Tof
AC$INSTRUMENT_TYPE: LC-ESI-QTOF
AC$MASS_SPECTROMETRY: MS_TYPE MS2
AC$MASS_SPECTROMETRY: ION_MODE POSITIVE
AC$MASS_SPECTROMETRY: COLLISION_ENERGY 6V
AC$MASS_SPECTROMETRY: DESOLVATION_GAS_FLOW 800/h
AC$MASS_SPECTROMETRY: DESOLVATION_TEMPERATURE 450 C
AC$MASS_SPECTROMETRY: IONIZATION ESI
AC$CHROMATOGRAPHY: CAPILLARY_VOLTAGE +3.00 kV
AC$CHROMATOGRAPHY: COLUMN_NAME Acquity bridged ethyl hybrid C18 (1.7 um, 2.1 mm * 100 mm, Waters)
AC$CHROMATOGRAPHY: COLUMN_TEMPERATURE 40 C
AC$CHROMATOGRAPHY: FLOW_GRADIENT A/B = (99.5%/0.5% at 0 min, 99.5%/0.5% at 0.1 min, 20%/80% at 10 min, 0.5%/99.5% at 10.1 min, 0.5%/99.5% at 12.0 min, 99.5%/0.5% at 12.1 min, 99.5%/0.5% at 15.0 min)
AC$CHROMATOGRAPHY: FLOW_RATE 0.3 ml/min at 0 min, 0.3 ml/min at 10 min, 0.4 ml/min at 10.1 min, 0.4 ml/min at 14.4 min, 0.3 ml/min at 14.5 min
AC$CHROMATOGRAPHY: RETENTION_TIME 5.038466
AC$CHROMATOGRAPHY: SOLVENT A water including 0.1% formic acid
AC$CHROMATOGRAPHY: SOLVENT B acetonitrile including 0.1% formic acid
MS$FOCUSED_ION: PRECURSOR_TYPE [M+H]+
MS$FOCUSED_ION: PRECURSOR_M/Z 752.4215675
PK$SPLASH: splash10-0a4i-0110797200-786c742ac2dbc04d3b39
PK$NUM_PEAK: 234
PK$PEAK: m/z int. rel.int.
  98.09747 38.0 38
  99.0462 16.0 16
  112.11194 16.0 16
  112.11898 27.0 27
  113.32553 13.0 13
  131.07494 11.0 11
  147.07968 17.0 17
  154.1201 111.0 111
  154.13048 81.0 81
  155.12636 53.0 53
  160.10591 16.0 16
  162.12689 14.0 14
  163.07367 18.0 18
  165.11655 16.0 16
  166.12337 11.0 11
  175.11365 21.0 21
  192.12294 16.0 16
  192.13248 24.0 24
  194.15971 17.0 17
  200.07983 21.0 21
  200.11905 13.0 13
  209.13661 15.0 15
  217.06281 18.0 18
  218.11143 15.0 15
  219.12503 15.0 15
  221.13869 13.0 13
  223.16312 19.0 19
  227.13623 12.0 12
  229.05188 12.0 12
  229.75854 11.0 11
  233.0956 11.0 11
  237.12512 13.0 13
  248.11053 15.0 15
  248.1667 18.0 18
  251.14597 23.0 23
  253.12187 17.0 17
  256.13693 17.0 17
  265.12344 12.0 12
  276.25244 13.0 13
  277.12988 18.0 18
  278.1676 12.0 12
  295.18005 12.0 12
  297.14066 11.0 11
  300.57211 11.0 11
  319.94617 11.0 11
  324.21759 20.0 20
  344.19559 13.0 13
  348.37918 13.0 13
  352.22226 17.0 17
  359.17856 13.0 13
  367.20895 11.0 11
  370.25394 15.0 15
  373.24643 13.0 13
  379.69626 13.0 13
  384.40753 12.0 12
  385.19406 11.0 11
  391.1113 17.0 17
  392.25836 13.0 13
  392.27359 27.0 27
  405.23196 11.0 11
  406.28717 11.0 11
  410.07812 13.0 13
  410.25552 17.0 17
  410.28021 55.0 55
  411.22681 11.0 11
  411.2688 40.0 40
  412.28009 13.0 13
  413.18661 12.0 12
  419.87555 11.0 11
  420.233 22.0 22
  420.25204 24.0 24
  420.27676 34.0 34
  421.26584 11.0 11
  424.86029 11.0 11
  425.32712 11.0 11
  427.20911 15.0 15
  428.24673 11.0 11
  428.2637 25.0 25
  428.29062 40.0 40
  429.27478 24.0 24
  429.29156 11.0 11
  432.63077 13.0 13
  433.78867 16.0 16
  438.08365 17.0 17
  438.24258 110.0 110
  438.26407 375.0 375
  438.30112 11.0 11
  439.2399 25.0 25
  439.25586 41.0 41
  439.28137 21.0 21
  439.29224 11.0 11
  440.26089 13.0 13
  440.29153 17.0 17
  446.6506 15.0 15
  452.6669 16.0 16
  456.23074 86.0 86
  456.27893 1000.0 999
  457.0589 11.0 11
  457.27783 264.0 264
  458.25095 13.0 13
  458.41269 11.0 11
  458.51343 11.0 11
  460.24918 13.0 13
  465.86792 13.0 13
  474.27911 73.0 73
  474.2981 12.0 12
  475.13498 17.0 17
  475.28787 11.0 11
  476.30295 15.0 15
  502.51871 13.0 13
  508.39578 15.0 15
  518.30121 24.0 24
  518.31702 22.0 22
  521.30066 24.0 24
  522.32965 15.0 15
  532.37299 22.0 22
  536.26038 11.0 11
  536.28912 33.0 33
  536.349 14.0 14
  537.2901 29.0 29
  540.3031 26.0 26
  540.31995 76.0 76
  540.3396 17.0 17
  541.30188 33.0 33
  541.32202 40.0 40
  541.33728 41.0 41
  541.35748 32.0 32
  542.34412 13.0 13
  542.36353 11.0 11
  550.30682 15.0 15
  552.31952 11.0 11
  553.31171 12.0 12
  553.97675 15.0 15
  554.29309 58.0 58
  554.30981 41.0 41
  556.33038 11.0 11
  558.19824 13.0 13
  558.29456 84.0 84
  558.34167 868.0 867
  558.40625 11.0 11
  558.79565 15.0 15
  558.92358 11.0 11
  559.22864 11.0 11
  559.31396 36.0 36
  559.34467 255.0 255
  559.36462 115.0 115
  560.32123 49.0 49
  560.35181 54.0 54
  561.16089 19.0 19
  561.33569 24.0 24
  565.48822 12.0 12
  568.30267 11.0 11
  568.33368 13.0 13
  569.33722 34.0 34
  572.20837 11.0 11
  572.30627 11.0 11
  572.32568 26.0 26
  572.34631 26.0 26
  573.27118 12.0 12
  573.31622 22.0 22
  576.31763 11.0 11
  576.35657 54.0 54
  578.30371 15.0 15
  579.30322 11.0 11
  579.34106 11.0 11
  580.3111 15.0 15
  583.32941 13.0 13
  583.56421 19.0 19
  583.84698 20.0 20
  594.37189 13.0 13
  595.74927 13.0 13
  596.26904 11.0 11
  596.30237 89.0 89
  596.32513 186.0 186
  596.36865 15.0 15
  597.27985 11.0 11
  597.33197 103.0 103
  597.36047 16.0 16
  598.08911 15.0 15
  598.29199 15.0 15
  598.34894 22.0 22
  598.98669 13.0 13
  605.05511 15.0 15
  614.22461 25.0 25
  614.27258 37.0 37
  614.30725 195.0 195
  614.3316 717.0 716
  614.42291 11.0 11
  615.23969 11.0 11
  615.30304 43.0 43
  615.33221 215.0 215
  615.36688 59.0 59
  616.297 17.0 17
  616.3407 55.0 55
  617.35632 11.0 11
  627.50677 11.0 11
  632.26752 23.0 23
  632.2923 27.0 27
  632.33911 541.0 540
  633.08643 20.0 20
  633.30859 48.0 48
  633.33368 181.0 181
  633.37506 45.0 45
  634.34308 13.0 13
  634.36523 14.0 14
  634.41473 11.0 11
  650.32556 12.0 12
  650.35999 29.0 29
  651.37061 11.0 11
  674.3819 11.0 11
  674.4071 13.0 13
  675.39166 15.0 15
  676.4599 21.0 21
  698.37543 13.0 13
  699.37024 13.0 13
  699.39301 11.0 11
  699.44055 11.0 11
  701.3797 18.0 18
  716.37769 73.0 73
  716.4151 76.0 76
  717.41461 54.0 54
  717.65967 13.0 13
  733.43323 28.0 28
  734.29828 13.0 13
  734.3595 68.0 68
  734.39465 99.0 99
  734.42456 269.0 269
  735.40668 58.0 58
  735.42944 49.0 49
  735.45538 13.0 13
  736.39642 13.0 13
  752.30817 11.0 11
  752.40625 33.0 33
  752.44684 20.0 20
//
