ACCESSION: MSBNK-RIKEN-PR300580
RECORD_TITLE: Hypaconitine; LC-ESI-QTOF; MS2
DATE: 2019.03.28
AUTHORS: Tetsuya Mori, Center for Sustainable Resource Science, RIKEN
LICENSE: CC BY-NC-SA
PUBLICATION: Tsugawa H., Nakabayashi R., Mori T., Yamada Y., Takahashi M., Rai A., Sugiyama R., Yamamoto H., Nakaya T., Yamazaki M., Kooke R., Bac-Molenaar JA., Oztolan-Erol N., Keurentjes JJB., Arita M., Saito K. (2019) "A cheminformatics approach to characterize metabolomes in stable-isotope-labeled organisms" Nature Methods 16(4):295-298. [doi:10.1038/s41592-019-0358-2]
COMMENT: registered in RIKEN PlaSMA
CH$NAME: Hypaconitine
CH$COMPOUND_CLASS: Aconitane-type diterpenoid alkaloids
CH$FORMULA: C33H45NO10
CH$EXACT_MASS: 615.72
CH$SMILES: COC[C@@]12CC[C@H](OC)[C@@]34[C@@H]5C[C@@]6(O)[C@H](OC(=O)C7=CC=CC=C7)[C@@H]5[C@@](OC(C)=O)([C@@H]([C@H](OC)[C@H]13)C4N(C)C2)[C@@H](O)[C@@H]6OC
CH$IUPAC: InChI=1S/C33H45NO10/c1-17(35)44-33-21-19(14-31(38,28(42-6)26(33)36)27(21)43-29(37)18-10-8-7-9-11-18)32-20(40-4)12-13-30(16-39-3)15-34(2)25(32)22(33)23(41-5)24(30)32/h7-11,19-28,36,38H,12-16H2,1-6H3/t19-,20+,21-,22+,23+,24-,25?,26+,27-,28+,30+,31-,32+,33-/m1/s1
CH$LINK: INCHIKEY FIDOCHXHMJHKRW-VHQVDBNASA-N
AC$INSTRUMENT: LC, Waters Acquity UPLC System; MS, Waters Xevo G2 Q-Tof
AC$INSTRUMENT_TYPE: LC-ESI-QTOF
AC$MASS_SPECTROMETRY: MS_TYPE MS2
AC$MASS_SPECTROMETRY: ION_MODE POSITIVE
AC$MASS_SPECTROMETRY: COLLISION_ENERGY 6V
AC$MASS_SPECTROMETRY: DESOLVATION_GAS_FLOW 800/h
AC$MASS_SPECTROMETRY: DESOLVATION_TEMPERATURE 450 C
AC$MASS_SPECTROMETRY: IONIZATION ESI
AC$CHROMATOGRAPHY: CAPILLARY_VOLTAGE +3.00 kV
AC$CHROMATOGRAPHY: COLUMN_NAME Acquity bridged ethyl hybrid C18 (1.7 um, 2.1 mm * 100 mm, Waters)
AC$CHROMATOGRAPHY: COLUMN_TEMPERATURE 40 C
AC$CHROMATOGRAPHY: FLOW_GRADIENT A/B = (99.5%/0.5% at 0 min, 99.5%/0.5% at 0.1 min, 20%/80% at 10 min, 0.5%/99.5% at 10.1 min, 0.5%/99.5% at 12.0 min, 99.5%/0.5% at 12.1 min, 99.5%/0.5% at 15.0 min)
AC$CHROMATOGRAPHY: FLOW_RATE 0.3 ml/min at 0 min, 0.3 ml/min at 10 min, 0.4 ml/min at 10.1 min, 0.4 ml/min at 14.4 min, 0.3 ml/min at 14.5 min
AC$CHROMATOGRAPHY: RETENTION_TIME 5.970783
AC$CHROMATOGRAPHY: SOLVENT A water including 0.1% formic acid
AC$CHROMATOGRAPHY: SOLVENT B acetonitrile including 0.1% formic acid
MS$FOCUSED_ION: PRECURSOR_TYPE [M+H]+
MS$FOCUSED_ION: PRECURSOR_M/Z 616.3116231
PK$SPLASH: splash10-0btl-0976310000-6f1008a6b81613ae295a
PK$NUM_PEAK: 589
PK$PEAK: m/z int. rel.int.
  58.06819 7.0 7
  68.04983 5.0 5
  70.06967 8.0 8
  71.04974 12.0 12
  77.03732 13.0 13
  77.04187 7.0 7
  79.05912 10.0 10
  81.03148 6.0 6
  84.083 12.0 12
  87.07305 6.0 6
  88.07306 20.0 20
  88.07758 40.0 40
  91.05399 31.0 31
  91.73929 6.0 6
  94.0658 53.0 53
  94.07277 10.0 10
  95.06841 6.0 6
  96.06832 6.0 6
  96.08201 8.0 8
  97.8194 7.0 7
  100.07392 8.0 8
  103.05532 7.0 7
  105.00933 6.0 6
  105.03451 1000.0 999
  105.06937 21.0 21
  106.03695 66.0 66
  107.05295 10.0 10
  107.07579 10.0 10
  108.07397 6.0 6
  108.08401 55.0 55
  109.06364 8.0 8
  110.09482 16.0 16
  114.09252 19.0 19
  117.07573 16.0 16
  119.04774 9.0 9
  119.08597 6.0 6
  120.0877 8.0 8
  121.06506 15.0 15
  121.09174 9.0 9
  122.06647 6.0 6
  122.10135 12.0 12
  123.04486 12.0 12
  123.07745 8.0 8
  124.07522 6.0 6
  126.08984 25.0 25
  129.07109 20.0 20
  131.04906 8.0 8
  131.08649 57.0 57
  132.07321 6.0 6
  132.09218 15.0 15
  133.0928 15.0 15
  134.09628 19.0 19
  135.08145 6.0 6
  135.10632 5.0 5
  137.0663 17.0 17
  137.09473 5.0 5
  138.0941 21.0 21
  138.10416 5.0 5
  139.09004 7.0 7
  140.1071 105.0 105
  140.11441 21.0 21
  141.06737 12.0 12
  141.07425 18.0 18
  141.1111 7.0 7
  142.08151 9.0 9
  143.07985 9.0 9
  143.08641 14.0 14
  144.06067 6.0 6
  144.08046 6.0 6
  145.06447 7.0 7
  145.09981 6.0 6
  146.03485 20.0 20
  146.0621 9.0 9
  146.06863 8.0 8
  146.09688 30.0 30
  146.10652 9.0 9
  147.04547 68.0 68
  147.0807 27.0 27
  147.10269 14.0 14
  148.04199 10.0 10
  148.05298 18.0 18
  148.07448 12.0 12
  148.08069 18.0 18
  149.06555 13.0 13
  149.08614 8.0 8
  149.10091 21.0 21
  150.08795 6.0 6
  151.10349 8.0 8
  152.74965 5.0 5
  153.07388 14.0 14
  154.12178 6.0 6
  155.0844 8.0 8
  155.09288 6.0 6
  156.09135 10.0 10
  157.06549 13.0 13
  157.09697 8.0 8
  158.07893 18.0 18
  158.09247 18.0 18
  158.09906 50.0 50
  159.0522 5.0 5
  159.07535 7.0 7
  159.08197 16.0 16
  159.10126 10.0 10
  160.07271 19.0 19
  160.07973 16.0 16
  160.08752 10.0 10
  160.0983 6.0 6
  160.11443 45.0 45
  161.05962 7.0 7
  162.09422 13.0 13
  163.11349 11.0 11
  163.76538 6.0 6
  164.10568 10.0 10
  164.11195 14.0 14
  165.05655 11.0 11
  165.07225 19.0 19
  165.11151 13.0 13
  166.07744 7.0 7
  166.08351 6.0 6
  166.12004 8.0 8
  167.08496 14.0 14
  167.09251 7.0 7
  169.06541 10.0 10
  169.09023 9.0 9
  170.09071 7.0 7
  170.11548 9.0 9
  171.07498 10.0 10
  171.08707 9.0 9
  171.1028 19.0 19
  172.07805 7.0 7
  172.11182 42.0 42
  173.09602 7.0 7
  173.1178 9.0 9
  174.04637 11.0 11
  174.05711 11.0 11
  174.13069 8.0 8
  175.06241 21.0 21
  175.11278 9.0 9
  176.06618 18.0 18
  176.07666 19.0 19
  176.11172 13.0 13
  177.04445 6.0 6
  177.05075 8.0 8
  177.06003 18.0 18
  178.08116 6.0 6
  178.12222 10.0 10
  178.13062 10.0 10
  179.08716 29.0 29
  179.1022 6.0 6
  179.87314 5.0 5
  180.09486 5.0 5
  180.14561 5.0 5
  181.05911 6.0 6
  181.08673 8.0 8
  181.10182 13.0 13
  182.06876 5.0 5
  182.10304 6.0 6
  182.11401 7.0 7
  183.0701 5.0 5
  184.08409 6.0 6
  184.11787 22.0 22
  185.0489 8.0 8
  185.08119 5.0 5
  185.10141 16.0 16
  186.06236 9.0 9
  186.10175 5.0 5
  186.12878 40.0 40
  187.0639 6.0 6
  188.07037 6.0 6
  188.92804 6.0 6
  189.0778 27.0 27
  189.09052 5.0 5
  190.08716 41.0 41
  190.12465 10.0 10
  191.08263 11.0 11
  191.09499 13.0 13
  192.07333 6.0 6
  192.09673 37.0 37
  192.13771 6.0 6
  192.1451 6.0 6
  193.06532 6.0 6
  193.07959 6.0 6
  193.10268 60.0 60
  194.10222 7.0 7
  195.08176 27.0 27
  195.09807 8.0 8
  195.11531 13.0 13
  196.08472 10.0 10
  196.11737 29.0 29
  197.05324 5.0 5
  197.06407 7.0 7
  197.08989 15.0 15
  197.12067 11.0 11
  198.08853 5.0 5
  198.12924 12.0 12
  199.06956 14.0 14
  199.08801 5.0 5
  199.13284 6.0 6
  199.741 5.0 5
  200.08958 8.0 8
  201.08694 5.0 5
  202.08372 34.0 34
  203.07867 12.0 12
  203.09105 23.0 23
  204.1032 21.0 21
  204.13289 15.0 15
  204.14613 6.0 6
  205.07184 10.0 10
  205.0826 6.0 6
  205.10277 39.0 39
  205.12386 20.0 20
  206.09357 9.0 9
  206.15446 91.0 91
  207.06764 5.0 5
  207.07785 17.0 17
  207.08961 5.0 5
  207.11951 35.0 35
  207.15785 6.0 6
  208.08629 11.0 11
  208.10956 5.0 5
  208.11919 6.0 6
  209.05174 5.0 5
  209.07657 6.0 6
  209.09845 30.0 30
  209.11967 7.0 7
  209.13078 7.0 7
  209.14406 8.0 8
  210.0656 6.0 6
  210.08925 10.0 10
  210.10468 16.0 16
  210.13269 10.0 10
  210.1525 8.0 8
  211.06796 6.0 6
  211.10075 9.0 9
  211.11644 8.0 8
  211.76241 5.0 5
  212.11899 7.0 7
  213.08621 7.0 7
  214.09111 11.0 11
  214.12944 12.0 12
  215.0947 9.0 9
  215.12415 6.0 6
  217.10274 22.0 22
  217.11053 14.0 14
  218.07643 5.0 5
  218.10411 14.0 14
  218.11758 7.0 7
  219.07642 6.0 6
  219.08681 16.0 16
  219.10193 7.0 7
  219.11685 10.0 10
  220.08197 7.0 7
  220.09979 16.0 16
  220.11349 7.0 7
  220.13147 5.0 5
  221.09776 25.0 25
  221.12033 8.0 8
  222.09889 8.0 8
  222.12697 14.0 14
  223.07799 13.0 13
  223.10236 6.0 6
  223.1132 30.0 30
  223.13785 8.0 8
  224.09799 14.0 14
  225.09396 11.0 11
  225.11272 6.0 6
  225.12724 11.0 11
  225.13576 10.0 10
  226.12375 6.0 6
  227.08615 5.0 5
  227.12047 6.0 6
  228.10596 6.0 6
  228.13982 17.0 17
  229.13142 8.0 8
  229.14465 6.0 6
  230.09544 8.0 8
  230.10782 6.0 6
  230.11736 8.0 8
  230.15791 11.0 11
  231.08183 21.0 21
  231.10365 8.0 8
  232.08969 15.0 15
  232.17059 5.0 5
  233.1059 5.0 5
  234.06445 13.0 13
  234.0755 8.0 8
  234.10226 27.0 27
  234.12457 15.0 15
  235.06328 5.0 5
  235.07648 29.0 29
  235.11369 67.0 67
  235.13939 5.0 5
  236.07646 13.0 13
  236.09239 5.0 5
  236.11235 24.0 24
  236.1386 10.0 10
  236.16159 7.0 7
  236.1799 7.0 7
  237.09052 9.0 9
  237.13271 26.0 26
  238.1001 15.0 15
  238.12875 20.0 20
  239.08871 5.0 5
  239.10562 8.0 8
  239.11566 26.0 26
  239.14462 13.0 13
  240.14505 7.0 7
  242.11908 6.0 6
  244.10211 7.0 7
  245.08632 10.0 10
  245.09912 16.0 16
  245.11037 11.0 11
  245.14371 6.0 6
  246.11639 11.0 11
  246.13599 6.0 6
  247.10637 13.0 13
  247.11826 24.0 24
  247.13329 8.0 8
  248.08754 15.0 15
  248.10965 5.0 5
  248.11824 10.0 10
  248.13361 8.0 8
  248.15239 8.0 8
  249.08517 21.0 21
  249.11263 7.0 7
  250.10124 17.0 17
  250.12553 18.0 18
  250.16721 19.0 19
  251.10266 22.0 22
  251.11971 7.0 7
  252.1022 6.0 6
  252.1219 8.0 8
  252.14195 22.0 22
  253.08948 10.0 10
  253.12445 12.0 12
  253.15297 7.0 7
  254.12282 5.0 5
  254.13713 6.0 6
  254.14519 7.0 7
  254.15616 9.0 9
  256.14359 9.0 9
  257.09338 8.0 8
  258.09656 5.0 5
  259.15845 6.0 6
  260.10782 10.0 10
  260.13898 5.0 5
  260.17047 6.0 6
  261.09567 10.0 10
  261.13626 9.0 9
  262.09598 17.0 17
  263.07025 9.0 9
  263.09213 17.0 17
  263.11038 149.0 149
  264.11002 46.0 46
  264.13474 18.0 18
  264.14664 16.0 16
  265.12308 41.0 41
  265.15506 13.0 13
  266.13202 12.0 12
  266.18414 6.0 6
  267.0596 8.0 8
  267.10593 5.0 5
  267.13531 7.0 7
  268.11472 6.0 6
  268.18231 7.0 7
  269.11517 6.0 6
  269.17059 6.0 6
  274.1037 6.0 6
  275.10873 37.0 37
  275.12631 6.0 6
  276.10898 7.0 7
  276.13177 5.0 5
  277.12738 8.0 8
  277.1412 12.0 12
  278.11826 18.0 18
  278.15503 26.0 26
  278.16681 5.0 5
  279.12781 7.0 7
  279.13882 17.0 17
  279.16028 7.0 7
  279.16895 10.0 10
  280.12039 11.0 11
  280.13126 10.0 10
  280.14899 12.0 12
  280.79233 5.0 5
  281.1066 6.0 6
  281.11954 5.0 5
  282.12192 10.0 10
  282.15045 40.0 40
  282.18552 18.0 18
  283.14972 5.0 5
  284.11673 7.0 7
  284.13016 7.0 7
  284.17337 15.0 15
  286.17767 5.0 5
  289.13684 7.0 7
  292.13959 7.0 7
  292.70779 5.0 5
  293.12552 9.0 9
  293.14536 39.0 39
  293.15738 13.0 13
  294.11462 6.0 6
  294.1506 39.0 39
  294.18427 6.0 6
  295.12204 13.0 13
  295.14066 42.0 42
  295.15591 28.0 28
  296.14514 11.0 11
  296.16031 26.0 26
  296.17407 8.0 8
  297.12183 7.0 7
  297.15469 16.0 16
  298.18115 11.0 11
  300.15363 7.0 7
  302.1814 11.0 11
  303.18814 10.0 10
  304.15393 12.0 12
  305.14047 6.0 6
  306.00189 5.0 5
  306.12872 7.0 7
  306.14072 21.0 21
  306.16391 19.0 19
  307.13678 14.0 14
  307.15594 9.0 9
  308.15979 7.0 7
  309.16458 5.0 5
  310.11292 5.0 5
  310.13275 6.0 6
  310.14844 17.0 17
  310.16309 37.0 37
  310.18259 182.0 182
  311.13916 9.0 9
  311.16727 13.0 13
  311.18225 14.0 14
  311.19531 11.0 11
  312.13516 13.0 13
  312.16641 9.0 9
  312.19583 5.0 5
  313.20395 7.0 7
  314.15179 9.0 9
  314.17474 19.0 19
  314.19199 22.0 22
  314.21094 37.0 37
  314.22726 9.0 9
  315.18619 7.0 7
  315.2106 19.0 19
  320.16666 7.0 7
  326.14209 10.0 10
  326.17691 7.0 7
  326.20419 5.0 5
  327.18579 9.0 9
  330.16367 6.0 6
  332.18683 5.0 5
  336.10828 5.0 5
  338.0947 8.0 8
  338.13901 11.0 11
  338.17734 676.0 675
  338.21445 5.0 5
  339.14774 10.0 10
  339.17737 175.0 175
  340.14163 10.0 10
  340.16266 11.0 11
  340.17996 12.0 12
  340.19748 10.0 10
  341.15689 6.0 6
  341.19809 6.0 6
  342.12546 5.0 5
  342.17349 11.0 11
  342.20731 348.0 348
  342.22812 36.0 36
  343.18719 10.0 10
  343.20148 45.0 45
  343.21866 40.0 40
  344.17258 7.0 7
  344.19867 25.0 25
  347.15088 7.0 7
  350.1727 6.0 6
  352.17953 6.0 6
  355.18118 6.0 6
  356.19308 16.0 16
  356.21457 6.0 6
  356.23077 7.0 7
  357.19308 6.0 6
  358.15488 10.0 10
  358.2041 14.0 14
  359.17606 6.0 6
  360.15665 6.0 6
  364.21884 8.0 8
  370.16638 10.0 10
  370.18878 16.0 16
  370.20731 53.0 53
  371.18619 6.0 6
  371.21133 8.0 8
  374.18915 11.0 11
  374.2103 9.0 9
  374.23645 40.0 40
  374.25629 6.0 6
  375.25107 8.0 8
  384.2196 6.0 6
  385.1445 7.0 7
  386.20264 6.0 6
  387.13489 5.0 5
  387.19519 5.0 5
  388.21292 6.0 6
  390.18387 5.0 5
  390.2301 11.0 11
  400.20685 7.0 7
  402.16562 6.0 6
  402.22583 19.0 19
  402.24731 6.0 6
  404.19864 7.0 7
  405.17041 7.0 7
  405.20734 6.0 6
  406.18314 8.0 8
  406.21106 6.0 6
  410.22729 6.0 6
  417.19101 7.0 7
  418.18927 9.0 9
  418.21381 10.0 10
  419.20151 5.0 5
  422.18213 7.0 7
  422.2027 7.0 7
  428.1817 13.0 13
  431.18973 5.0 5
  432.16641 6.0 6
  432.18478 16.0 16
  432.21286 35.0 35
  432.22897 28.0 28
  433.22437 38.0 38
  434.19308 10.0 10
  434.21948 10.0 10
  434.23935 7.0 7
  446.21088 12.0 12
  446.24976 8.0 8
  447.20355 9.0 9
  448.23608 6.0 6
  449.21646 6.0 6
  450.18411 5.0 5
  450.19727 5.0 5
  460.20111 39.0 39
  460.22238 46.0 46
  461.19394 7.0 7
  461.21375 17.0 17
  462.21863 8.0 8
  464.21301 109.0 109
  464.24423 201.0 201
  464.27036 23.0 23
  465.17529 8.0 8
  465.2088 48.0 48
  465.24069 40.0 40
  465.26373 15.0 15
  465.83096 5.0 5
  466.22409 9.0 9
  466.24329 14.0 14
  466.26041 17.0 17
  478.19046 6.0 6
  492.19238 10.0 10
  492.24527 169.0 169
  493.24612 65.0 65
  493.28336 5.0 5
  494.22556 5.0 5
  494.25275 9.0 9
  496.19702 8.0 8
  496.2258 36.0 36
  496.27151 173.0 173
  496.31342 5.0 5
  497.22662 19.0 19
  497.27673 22.0 22
  497.29523 20.0 20
  498.26187 8.0 8
  522.24585 5.0 5
  522.26245 7.0 7
  524.22345 8.0 8
  524.26593 296.0 296
  524.29028 49.0 49
  525.23157 11.0 11
  525.25824 36.0 36
  525.27393 69.0 69
  526.24359 12.0 12
  526.27246 9.0 9
  527.30762 5.0 5
  556.2699 16.0 16
  556.2962 99.0 99
  556.31946 17.0 17
  557.26941 8.0 8
  557.30255 37.0 37
  584.28864 15.0 15
  616.2934 8.0 8
  616.32257 8.0 8
//
