ACCESSION: MSBNK-RIKEN-PR301238
RECORD_TITLE: Senecionine; LC-ESI-QTOF; MS2
DATE: 2019.03.28
AUTHORS: Tetsuya Mori, Center for Sustainable Resource Science, RIKEN
LICENSE: CC BY-NC-SA
PUBLICATION: Tsugawa H., Nakabayashi R., Mori T., Yamada Y., Takahashi M., Rai A., Sugiyama R., Yamamoto H., Nakaya T., Yamazaki M., Kooke R., Bac-Molenaar JA., Oztolan-Erol N., Keurentjes JJB., Arita M., Saito K. (2019) "A cheminformatics approach to characterize metabolomes in stable-isotope-labeled organisms" Nature Methods 16(4):295-298. [doi:10.1038/s41592-019-0358-2]
COMMENT: registered in RIKEN PlaSMA
CH$NAME: Senecionine
CH$COMPOUND_CLASS: Macrolides and analogues
CH$FORMULA: C18H25NO5
CH$EXACT_MASS: 335.4
CH$SMILES: C\C=C1\C[C@@H](C)[C@@](C)(O)C(=O)OCC2=CCN3CC[C@@H](OC1=O)[C@@H]23
CH$IUPAC: InChI=1S/C18H25NO5/c1-4-12-9-11(2)18(3,22)17(21)23-10-13-5-7-19-8-6-14(15(13)19)24-16(12)20/h4-5,11,14-15,22H,6-10H2,1-3H3/b12-4-/t11-,14-,15-,18-/m1/s1
CH$LINK: INCHIKEY HKODIGSRFALUTA-JTLQZVBZSA-N
AC$INSTRUMENT: LC, Waters Acquity UPLC System; MS, Waters Xevo G2 Q-Tof
AC$INSTRUMENT_TYPE: LC-ESI-QTOF
AC$MASS_SPECTROMETRY: MS_TYPE MS2
AC$MASS_SPECTROMETRY: ION_MODE POSITIVE
AC$MASS_SPECTROMETRY: COLLISION_ENERGY 6V
AC$MASS_SPECTROMETRY: DESOLVATION_GAS_FLOW 800/h
AC$MASS_SPECTROMETRY: DESOLVATION_TEMPERATURE 450 C
AC$MASS_SPECTROMETRY: IONIZATION ESI
AC$CHROMATOGRAPHY: CAPILLARY_VOLTAGE +3.00 kV
AC$CHROMATOGRAPHY: COLUMN_NAME Acquity bridged ethyl hybrid C18 (1.7 um, 2.1 mm * 100 mm, Waters)
AC$CHROMATOGRAPHY: COLUMN_TEMPERATURE 40 C
AC$CHROMATOGRAPHY: FLOW_GRADIENT A/B = (99.5%/0.5% at 0 min, 99.5%/0.5% at 0.1 min, 20%/80% at 10 min, 0.5%/99.5% at 10.1 min, 0.5%/99.5% at 12.0 min, 99.5%/0.5% at 12.1 min, 99.5%/0.5% at 15.0 min)
AC$CHROMATOGRAPHY: FLOW_RATE 0.3 ml/min at 0 min, 0.3 ml/min at 10 min, 0.4 ml/min at 10.1 min, 0.4 ml/min at 14.4 min, 0.3 ml/min at 14.5 min
AC$CHROMATOGRAPHY: RETENTION_TIME 3.796233
AC$CHROMATOGRAPHY: SOLVENT A water including 0.1% formic acid
AC$CHROMATOGRAPHY: SOLVENT B acetonitrile including 0.1% formic acid
MS$FOCUSED_ION: PRECURSOR_TYPE [M+H]+
MS$FOCUSED_ION: PRECURSOR_M/Z 336.1805494
PK$SPLASH: splash10-000i-3915000000-e4842e6b651fc69d6f80
PK$NUM_PEAK: 143
PK$PEAK: m/z int. rel.int.
  59.05365 13.0 13
  67.05421 38.0 38
  68.05338 21.0 21
  70.06789 7.0 7
  71.04879 13.0 13
  77.03656 15.0 15
  78.03468 8.0 8
  79.05379 37.0 37
  80.04597 18.0 18
  81.05598 7.0 7
  81.07207 57.0 57
  82.06186 15.0 15
  82.06726 9.0 9
  82.07764 15.0 15
  84.04581 11.0 11
  85.0657 9.0 9
  91.05511 70.0 70
  92.05818 13.0 13
  93.05878 7.0 7
  93.07108 82.0 82
  94.06566 425.0 425
  94.82938 8.0 8
  94.89107 7.0 7
  95.06619 56.0 56
  95.08662 9.0 9
  96.04882 9.0 9
  96.07961 130.0 130
  101.06179 9.0 9
  103.03804 8.0 8
  103.04137 17.0 17
  103.05394 33.0 33
  104.061 7.0 7
  105.06046 7.0 7
  105.06998 18.0 18
  106.03935 10.0 10
  107.0583 11.0 11
  107.07515 7.0 7
  107.08749 42.0 42
  107.09623 8.0 8
  108.07658 18.0 18
  108.08279 26.0 26
  108.08772 28.0 28
  108.52833 7.0 7
  109.0833 7.0 7
  109.09599 33.0 33
  110.09201 38.0 38
  110.09743 53.0 53
  111.03994 8.0 8
  111.09927 11.0 11
  112.07867 28.0 28
  118.06297 30.0 30
  118.06787 9.0 9
  119.03533 10.0 10
  119.21173 7.0 7
  120.06431 12.0 12
  120.08165 651.0 650
  121.06209 10.0 10
  121.0716 21.0 21
  121.08359 106.0 106
  121.09391 25.0 25
  121.10497 8.0 8
  122.09135 40.0 40
  122.09878 80.0 80
  122.11121 9.0 9
  123.11671 12.0 12
  124.08498 19.0 19
  125.08632 12.0 12
  125.1006 117.0 117
  126.09125 7.0 7
  126.09601 16.0 16
  127.07498 10.0 10
  131.38902 10.0 10
  131.60077 7.0 7
  133.10741 7.0 7
  135.08086 64.0 64
  136.07411 7.0 7
  137.08217 15.0 15
  137.09782 9.0 9
  137.71881 8.0 8
  138.09044 574.0 573
  139.03882 14.0 14
  139.08041 11.0 11
  139.0947 36.0 36
  140.11374 14.0 14
  142.68559 7.0 7
  147.10451 9.0 9
  153.07845 9.0 9
  153.09108 96.0 96
  153.10599 7.0 7
  156.07622 9.0 9
  156.10031 18.0 18
  160.11157 7.0 7
  160.11653 19.0 19
  163.07306 9.0 9
  163.09531 7.0 7
  164.73505 8.0 8
  171.11821 8.0 8
  174.09636 11.0 11
  174.13133 13.0 13
  181.08417 11.0 11
  182.49126 11.0 11
  188.14926 14.0 14
  193.24684 8.0 8
  198.19653 8.0 8
  206.38806 9.0 9
  211.27943 9.0 9
  218.12169 22.0 22
  218.14427 9.0 9
  220.12152 14.0 14
  220.1427 7.0 7
  221.12952 8.0 8
  223.11188 7.0 7
  234.1602 8.0 8
  238.14592 29.0 29
  246.17529 9.0 9
  248.16451 21.0 21
  248.1787 9.0 9
  250.07149 7.0 7
  261.33365 7.0 7
  266.17487 10.0 10
  274.18362 8.0 8
  287.86929 7.0 7
  288.18628 13.0 13
  290.16644 24.0 24
  290.18188 9.0 9
  291.16467 8.0 8
  291.18048 12.0 12
  291.8009 18.0 18
  292.18973 15.0 15
  292.20615 8.0 8
  294.11029 7.0 7
  306.14456 13.0 13
  308.13483 7.0 7
  308.16019 16.0 16
  308.18683 386.0 386
  308.21396 9.0 9
  309.13785 7.0 7
  309.19113 67.0 67
  309.20892 9.0 9
  321.39438 13.0 13
  335.91821 7.0 7
  336.15167 38.0 38
  336.17993 1000.0 999
//
