ACCESSION: MSBNK-RIKEN-PR300958
RECORD_TITLE: Hydrocotarnine; LC-ESI-QTOF; MS2
DATE: 2019.03.28
AUTHORS: Tetsuya Mori, Center for Sustainable Resource Science, RIKEN
LICENSE: CC BY-NC-SA
PUBLICATION: Tsugawa H., Nakabayashi R., Mori T., Yamada Y., Takahashi M., Rai A., Sugiyama R., Yamamoto H., Nakaya T., Yamazaki M., Kooke R., Bac-Molenaar JA., Oztolan-Erol N., Keurentjes JJB., Arita M., Saito K. (2019) "A cheminformatics approach to characterize metabolomes in stable-isotope-labeled organisms" Nature Methods 16(4):295-298. [doi:10.1038/s41592-019-0358-2]
COMMENT: registered in RIKEN PlaSMA
CH$NAME: Hydrocotarnine
CH$COMPOUND_CLASS: Tetrahydroisoquinolines
CH$FORMULA: C12H15NO3
CH$EXACT_MASS: 221.256
CH$SMILES: COC1=C2CN(C)CCC2=CC2=C1OCO2
CH$IUPAC: InChI=1S/C12H15NO3/c1-13-4-3-8-5-10-12(16-7-15-10)11(14-2)9(8)6-13/h5H,3-4,6-7H2,1-2H3
CH$LINK: INCHIKEY XXANNZJIZQTCBP-UHFFFAOYSA-N
AC$INSTRUMENT: LC, Waters Acquity UPLC System; MS, Waters Xevo G2 Q-Tof
AC$INSTRUMENT_TYPE: LC-ESI-QTOF
AC$MASS_SPECTROMETRY: MS_TYPE MS2
AC$MASS_SPECTROMETRY: ION_MODE POSITIVE
AC$MASS_SPECTROMETRY: COLLISION_ENERGY 6V
AC$MASS_SPECTROMETRY: DESOLVATION_GAS_FLOW 800/h
AC$MASS_SPECTROMETRY: DESOLVATION_TEMPERATURE 450 C
AC$MASS_SPECTROMETRY: IONIZATION ESI
AC$CHROMATOGRAPHY: CAPILLARY_VOLTAGE +3.00 kV
AC$CHROMATOGRAPHY: COLUMN_NAME Acquity bridged ethyl hybrid C18 (1.7 um, 2.1 mm * 100 mm, Waters)
AC$CHROMATOGRAPHY: COLUMN_TEMPERATURE 40 C
AC$CHROMATOGRAPHY: FLOW_GRADIENT A/B = (99.5%/0.5% at 0 min, 99.5%/0.5% at 0.1 min, 20%/80% at 10 min, 0.5%/99.5% at 10.1 min, 0.5%/99.5% at 12.0 min, 99.5%/0.5% at 12.1 min, 99.5%/0.5% at 15.0 min)
AC$CHROMATOGRAPHY: FLOW_RATE 0.3 ml/min at 0 min, 0.3 ml/min at 10 min, 0.4 ml/min at 10.1 min, 0.4 ml/min at 14.4 min, 0.3 ml/min at 14.5 min
AC$CHROMATOGRAPHY: RETENTION_TIME 3.328483
AC$CHROMATOGRAPHY: SOLVENT A water including 0.1% formic acid
AC$CHROMATOGRAPHY: SOLVENT B acetonitrile including 0.1% formic acid
MS$FOCUSED_ION: PRECURSOR_TYPE [M+H]+
MS$FOCUSED_ION: PRECURSOR_M/Z 222.1124698
PK$SPLASH: splash10-00fr-5950000000-ccaa8799361e21320984
PK$NUM_PEAK: 19
PK$PEAK: m/z int. rel.int.
  77.03652 120.0 120
  77.04221 352.0 352
  78.04623 310.0 310
  91.04668 190.0 190
  92.06618 120.0 120
  105.02735 148.0 148
  107.06808 211.0 211
  111.30189 120.0 120
  112.2497 141.0 141
  118.06635 148.0 148
  120.0866 120.0 120
  130.05273 148.0 148
  134.05562 176.0 176
  134.85896 127.0 127
  146.06543 169.0 169
  149.08096 120.0 120
  161.04443 120.0 120
  205.05215 120.0 120
  222.11412 1000.0 999
//
