ACCESSION: MSBNK-RIKEN-PR300294
RECORD_TITLE: Gelsemine; LC-ESI-QTOF; MS2
DATE: 2019.03.28
AUTHORS: Tetsuya Mori, Center for Sustainable Resource Science, RIKEN
LICENSE: CC BY-NC-SA
PUBLICATION: Tsugawa H., Nakabayashi R., Mori T., Yamada Y., Takahashi M., Rai A., Sugiyama R., Yamamoto H., Nakaya T., Yamazaki M., Kooke R., Bac-Molenaar JA., Oztolan-Erol N., Keurentjes JJB., Arita M., Saito K. (2019) "A cheminformatics approach to characterize metabolomes in stable-isotope-labeled organisms" Nature Methods 16(4):295-298. [doi:10.1038/s41592-019-0358-2]
COMMENT: registered in RIKEN PlaSMA
CH$NAME: Gelsemine
CH$COMPOUND_CLASS: Gelsemium alkaloids
CH$FORMULA: C20H22N2O2
CH$EXACT_MASS: 322.408
CH$SMILES: CN1C[C@@]2(C=C)C3C[C@H]4OC[C@@H]3[C@@H]1[C@@H]2[C@@]41C(O)=NC2=CC=CC=C12
CH$IUPAC: InChI=1S/C20H22N2O2/c1-3-19-10-22(2)16-11-9-24-15(8-13(11)19)20(17(16)19)12-6-4-5-7-14(12)21-18(20)23/h3-7,11,13,15-17H,1,8-10H2,2H3,(H,21,23)/t11-,13?,15+,16+,17-,19-,20-/m0/s1
CH$LINK: INCHIKEY NFYYATWFXNPTRM-ICFOCEFXSA-N
AC$INSTRUMENT: LC, Waters Acquity UPLC System; MS, Waters Xevo G2 Q-Tof
AC$INSTRUMENT_TYPE: LC-ESI-QTOF
AC$MASS_SPECTROMETRY: MS_TYPE MS2
AC$MASS_SPECTROMETRY: ION_MODE POSITIVE
AC$MASS_SPECTROMETRY: COLLISION_ENERGY 6V
AC$MASS_SPECTROMETRY: DESOLVATION_GAS_FLOW 800/h
AC$MASS_SPECTROMETRY: DESOLVATION_TEMPERATURE 450 C
AC$MASS_SPECTROMETRY: IONIZATION ESI
AC$CHROMATOGRAPHY: CAPILLARY_VOLTAGE +3.00 kV
AC$CHROMATOGRAPHY: COLUMN_NAME Acquity bridged ethyl hybrid C18 (1.7 um, 2.1 mm * 100 mm, Waters)
AC$CHROMATOGRAPHY: COLUMN_TEMPERATURE 40 C
AC$CHROMATOGRAPHY: FLOW_GRADIENT A/B = (99.5%/0.5% at 0 min, 99.5%/0.5% at 0.1 min, 20%/80% at 10 min, 0.5%/99.5% at 10.1 min, 0.5%/99.5% at 12.0 min, 99.5%/0.5% at 12.1 min, 99.5%/0.5% at 15.0 min)
AC$CHROMATOGRAPHY: FLOW_RATE 0.3 ml/min at 0 min, 0.3 ml/min at 10 min, 0.4 ml/min at 10.1 min, 0.4 ml/min at 14.4 min, 0.3 ml/min at 14.5 min
AC$CHROMATOGRAPHY: RETENTION_TIME 3.21075
AC$CHROMATOGRAPHY: SOLVENT A water including 0.1% formic acid
AC$CHROMATOGRAPHY: SOLVENT B acetonitrile including 0.1% formic acid
MS$FOCUSED_ION: PRECURSOR_TYPE [M+H]+
MS$FOCUSED_ION: PRECURSOR_M/Z 323.1754044
PK$SPLASH: splash10-01dj-1930000000-ff20a9bac12255ea886c
PK$NUM_PEAK: 300
PK$PEAK: m/z int. rel.int.
  58.03167 15.0 15
  67.05554 9.0 9
  68.05576 24.0 24
  69.83288 9.0 9
  70.06587 1000.0 999
  70.48537 9.0 9
  70.7628 9.0 9
  71.06254 18.0 18
  71.06885 20.0 20
  71.07457 21.0 21
  72.36736 9.0 9
  77.02313 10.0 10
  77.03114 16.0 16
  77.03668 37.0 37
  79.05119 14.0 14
  83.07587 11.0 11
  86.04996 13.0 13
  88.08628 18.0 18
  91.04573 37.0 37
  91.0533 276.0 276
  92.0517 15.0 15
  92.05824 25.0 25
  92.28438 10.0 10
  92.97657 14.0 14
  94.07398 19.0 19
  95.06994 10.0 10
  103.02869 14.0 14
  103.04971 9.0 9
  103.05906 32.0 32
  104.04163 14.0 14
  104.04886 21.0 21
  104.0593 31.0 31
  105.02316 15.0 15
  105.06116 20.0 20
  105.07066 67.0 67
  106.04665 13.0 13
  106.06177 66.0 66
  107.07019 9.0 9
  107.07636 19.0 19
  108.076 12.0 12
  108.0868 14.0 14
  108.10638 9.0 9
  109.08319 17.0 17
  115.04503 16.0 16
  115.05361 188.0 188
  115.79483 10.0 10
  116.04803 16.0 16
  116.05712 11.0 11
  116.06684 48.0 48
  117.0565 34.0 34
  117.06685 156.0 156
  117.07326 46.0 46
  118.06117 25.0 25
  118.06748 33.0 33
  118.07397 27.0 27
  119.05206 10.0 10
  119.07458 17.0 17
  119.08253 15.0 15
  119.09128 26.0 26
  119.3159 9.0 9
  120.04648 10.0 10
  120.06753 16.0 16
  120.0802 141.0 141
  121.05536 14.0 14
  121.0734 13.0 13
  121.08895 26.0 26
  121.0929 12.0 12
  122.08546 9.0 9
  122.09999 22.0 22
  127.04544 17.0 17
  127.05943 16.0 16
  127.31764 13.0 13
  128.03775 24.0 24
  128.05058 234.0 234
  128.0647 20.0 20
  129.04193 17.0 17
  129.05493 20.0 20
  129.06244 10.0 10
  129.07278 26.0 26
  130.05469 47.0 47
  130.06592 208.0 208
  130.07594 20.0 20
  131.05037 12.0 12
  131.06709 72.0 72
  131.08374 39.0 39
  132.03424 47.0 47
  132.04433 221.0 221
  132.05634 28.0 28
  132.06886 24.0 24
  132.0818 57.0 57
  133.04918 14.0 14
  133.06061 25.0 25
  133.06874 9.0 9
  133.08716 10.0 10
  133.64867 9.0 9
  134.07611 11.0 11
  134.09346 13.0 13
  135.10344 23.0 23
  136.07317 9.0 9
  139.05621 28.0 28
  140.02901 13.0 13
  140.04568 18.0 18
  140.0544 69.0 69
  141.05397 10.0 10
  141.06403 10.0 10
  142.05954 14.0 14
  142.0717 13.0 13
  143.07704 17.0 17
  144.07964 15.0 15
  144.08865 12.0 12
  145.06146 13.0 13
  145.08208 35.0 35
  145.12718 10.0 10
  146.05679 81.0 81
  146.06662 89.0 89
  146.09668 89.0 89
  147.10313 45.0 45
  148.10271 9.0 9
  148.11584 41.0 41
  149.10582 24.0 24
  151.05261 96.0 96
  151.05867 74.0 74
  152.03542 10.0 10
  152.06087 104.0 104
  154.05695 45.0 45
  154.07082 39.0 39
  155.08101 20.0 20
  155.34393 15.0 15
  157.05821 10.0 10
  157.06909 17.0 17
  157.08578 15.0 15
  158.05203 30.0 30
  158.06824 9.0 9
  159.0354 28.0 28
  159.06276 9.0 9
  159.09985 12.0 12
  160.12337 11.0 11
  162.05289 14.0 14
  162.1245 27.0 27
  163.05734 35.0 35
  163.66968 10.0 10
  165.04684 19.0 19
  165.05458 35.0 35
  165.06934 148.0 148
  165.07843 18.0 18
  165.10468 10.0 10
  166.06194 138.0 138
  166.07161 79.0 79
  167.05847 36.0 36
  167.0723 603.0 602
  167.09402 13.0 13
  168.06821 17.0 17
  168.07863 105.0 105
  168.59016 9.0 9
  169.09058 10.0 10
  170.06129 9.0 9
  173.07555 41.0 41
  175.09671 10.0 10
  176.05325 23.0 23
  176.06113 15.0 15
  177.04146 24.0 24
  177.05887 346.0 346
  177.07341 21.0 21
  177.69618 10.0 10
  177.91454 9.0 9
  178.06474 322.0 322
  179.04007 11.0 11
  179.0714 108.0 108
  180.04147 13.0 13
  180.0638 27.0 27
  180.08087 148.0 148
  181.21654 18.0 18
  181.9854 18.0 18
  182.06685 35.0 35
  182.09326 12.0 12
  182.20808 9.0 9
  183.08273 21.0 21
  183.09157 15.0 15
  183.10197 9.0 9
  184.06302 12.0 12
  189.07248 83.0 83
  190.03743 13.0 13
  190.05351 45.0 45
  190.06984 106.0 106
  190.12531 13.0 13
  191.02466 9.0 9
  191.06534 47.0 47
  191.07646 83.0 83
  191.09474 12.0 12
  191.8853 9.0 9
  192.07516 127.0 127
  192.08148 64.0 64
  192.09805 13.0 13
  193.07956 19.0 19
  193.09106 47.0 47
  193.83199 9.0 9
  194.05702 12.0 12
  194.06897 26.0 26
  194.08803 13.0 13
  194.09993 13.0 13
  195.06615 767.0 766
  195.09578 34.0 34
  195.42569 20.0 20
  196.06221 36.0 36
  196.07487 216.0 216
  196.10266 14.0 14
  196.11166 18.0 18
  197.09181 15.0 15
  199.09413 29.0 29
  200.06718 13.0 13
  200.16959 9.0 9
  201.05377 22.0 22
  201.06503 34.0 34
  201.07437 33.0 33
  202.06108 47.0 47
  202.07507 82.0 82
  202.08438 23.0 23
  203.05626 26.0 26
  203.0731 331.0 331
  203.11684 9.0 9
  204.03943 9.0 9
  204.04871 24.0 24
  204.07878 178.0 178
  204.08783 58.0 58
  205.08797 66.0 66
  205.09866 28.0 28
  205.16898 10.0 10
  206.05595 9.0 9
  206.08369 40.0 40
  206.09648 9.0 9
  207.06488 28.0 28
  207.09343 28.0 28
  207.1046 18.0 18
  208.0649 83.0 83
  208.07674 101.0 101
  208.11076 12.0 12
  209.07843 50.0 50
  209.7108 9.0 9
  210.09309 74.0 74
  211.09241 31.0 31
  214.13226 15.0 15
  215.03932 10.0 10
  215.06773 19.0 19
  215.07939 34.0 34
  215.08838 23.0 23
  216.05861 11.0 11
  216.08009 130.0 130
  216.0912 58.0 58
  217.05374 20.0 20
  217.06184 14.0 14
  217.08929 282.0 282
  217.1451 9.0 9
  217.6095 12.0 12
  217.82695 10.0 10
  218.07172 9.0 9
  218.08267 43.0 43
  218.0979 274.0 274
  218.34689 10.0 10
  219.07982 9.0 9
  219.09982 49.0 49
  219.10832 39.0 39
  220.05161 12.0 12
  220.06882 42.0 42
  220.08186 41.0 41
  220.10382 24.0 24
  220.11658 27.0 27
  220.43547 12.0 12
  221.08044 32.0 32
  222.07605 25.0 25
  222.09933 40.0 40
  223.07704 12.0 12
  224.13301 12.0 12
  227.07091 26.0 26
  228.07651 27.0 27
  229.05202 15.0 15
  229.09404 9.0 9
  230.0862 11.0 11
  232.04329 11.0 11
  232.10974 9.0 9
  233.05223 9.0 9
  233.06842 39.0 39
  233.08876 10.0 10
  234.09253 36.0 36
  235.09546 18.0 18
  235.10814 9.0 9
  236.104 54.0 54
  237.11752 9.0 9
  240.08272 27.0 27
  241.08215 36.0 36
  244.10948 9.0 9
  245.08055 12.0 12
  247.10181 11.0 11
  249.10277 12.0 12
  254.09483 9.0 9
  255.08524 11.0 11
  263.12213 15.0 15
  266.91074 9.0 9
  273.10043 16.0 16
  273.14917 14.0 14
  319.3938 14.0 14
//
