ACCESSION: MSBNK-RIKEN-PR305578
RECORD_TITLE: Naringenin; LC-ESI-QTOF; MS2
DATE: 2019.03.28
AUTHORS: Tetsuya Mori, Center for Sustainable Resource Science, RIKEN
LICENSE: CC BY-NC-SA
PUBLICATION: Tsugawa H., Nakabayashi R., Mori T., Yamada Y., Takahashi M., Rai A., Sugiyama R., Yamamoto H., Nakaya T., Yamazaki M., Kooke R., Bac-Molenaar JA., Oztolan-Erol N., Keurentjes JJB., Arita M., Saito K. (2019) "A cheminformatics approach to characterize metabolomes in stable-isotope-labeled organisms" Nature Methods 16(4):295-298. [doi:10.1038/s41592-019-0358-2]
COMMENT: registered in RIKEN PlaSMA
CH$NAME: Naringenin
CH$COMPOUND_CLASS: Flavanones
CH$FORMULA: C15H12O5
CH$EXACT_MASS: 272.256
CH$SMILES: OC1=CC=C(C=C1)C1CC(=O)C2=C(O)C=C(O)C=C2O1
CH$IUPAC: InChI=1S/C15H12O5/c16-9-3-1-8(2-4-9)13-7-12(19)15-11(18)5-10(17)6-14(15)20-13/h1-6,13,16-18H,7H2
CH$LINK: INCHIKEY FTVWIRXFELQLPI-UHFFFAOYSA-N
AC$INSTRUMENT: LC, Waters Acquity UPLC System; MS, Waters Xevo G2 Q-Tof
AC$INSTRUMENT_TYPE: LC-ESI-QTOF
AC$MASS_SPECTROMETRY: MS_TYPE MS2
AC$MASS_SPECTROMETRY: ION_MODE NEGATIVE
AC$MASS_SPECTROMETRY: COLLISION_ENERGY 6V
AC$MASS_SPECTROMETRY: DESOLVATION_GAS_FLOW 800/h
AC$MASS_SPECTROMETRY: DESOLVATION_TEMPERATURE 450 C
AC$MASS_SPECTROMETRY: IONIZATION ESI
AC$CHROMATOGRAPHY: CAPILLARY_VOLTAGE -2.75 kV
AC$CHROMATOGRAPHY: COLUMN_NAME Acquity bridged ethyl hybrid C18 (1.7 um, 2.1 mm * 100 mm, Waters)
AC$CHROMATOGRAPHY: COLUMN_TEMPERATURE 40 C
AC$CHROMATOGRAPHY: FLOW_GRADIENT A/B = (99.5%/0.5% at 0 min, 99.5%/0.5% at 0.1 min, 20%/80% at 10 min, 0.5%/99.5% at 10.1 min, 0.5%/99.5% at 12.0 min, 99.5%/0.5% at 12.1 min, 99.5%/0.5% at 15.0 min)
AC$CHROMATOGRAPHY: FLOW_RATE 0.3 ml/min at 0 min, 0.3 ml/min at 10 min, 0.4 ml/min at 10.1 min, 0.4 ml/min at 14.4 min, 0.3 ml/min at 14.5 min
AC$CHROMATOGRAPHY: RETENTION_TIME 5.957833
AC$CHROMATOGRAPHY: SOLVENT A water including 0.1% formic acid
AC$CHROMATOGRAPHY: SOLVENT B acetonitrile including 0.1% formic acid
MS$FOCUSED_ION: PRECURSOR_TYPE [M-H]-
MS$FOCUSED_ION: PRECURSOR_M/Z 271.06119704783
PK$SPLASH: splash10-014i-1900000000-139c82adb7a073822b5d
PK$NUM_PEAK: 41
PK$PEAK: m/z int. rel.int.
  63.02323 25.0 25
  65.00255 89.0 89
  80.02542 13.0 13
  83.01173 145.0 145
  84.01203 7.0 7
  89.03741 5.0 5
  93.03352 82.0 82
  107.01248 224.0 224
  108.0162 31.0 31
  109.02865 5.0 5
  109.03342 6.0 6
  117.03305 18.0 18
  117.41328 6.0 6
  119.04861 1000.0 999
  120.05044 97.0 97
  120.05843 8.0 8
  121.03279 11.0 11
  121.05235 7.0 7
  121.05766 7.0 7
  125.01898 10.0 10
  133.03362 11.0 11
  134.03601 7.0 7
  136.01556 10.0 10
  143.04657 31.0 31
  145.02806 23.0 23
  146.03346 9.0 9
  151.00107 133.0 133
  152.00531 29.0 29
  156.06598 6.0 6
  158.06529 6.0 6
  159.04314 6.0 6
  161.05881 37.0 37
  167.04726 9.0 9
  177.02075 28.0 28
  183.04478 7.0 7
  185.05759 11.0 11
  185.06511 14.0 14
  187.03903 63.0 63
  199.06812 7.0 7
  209.05373 6.0 6
  224.04323 6.0 6
//
