ACCESSION: MSBNK-RIKEN-PR308931
RECORD_TITLE: Soyasapogenol B + dHex + Hex + HexA + malonyl; LC-ESI-QTOF; MS2
DATE: 2019.03.28
AUTHORS: Tetsuya Mori, Center for Sustainable Resource Science, RIKEN
LICENSE: CC BY-NC-SA
PUBLICATION: Tsugawa H., Nakabayashi R., Mori T., Yamada Y., Takahashi M., Rai A., Sugiyama R., Yamamoto H., Nakaya T., Yamazaki M., Kooke R., Bac-Molenaar JA., Oztolan-Erol N., Keurentjes JJB., Arita M., Saito K. (2019) "A cheminformatics approach to characterize metabolomes in stable-isotope-labeled organisms" Nature Methods 16(4):295-298. [doi:10.1038/s41592-019-0358-2]
COMMENT: Annotation level-3
CH$NAME: Soyasapogenol B + dHex + Hex + HexA + malonyl
CH$COMPOUND_CLASS: Triterpene saponins
CH$FORMULA: C51H80O21
CH$EXACT_MASS: 1029.18
CH$SMILES: O=C(O)CC(=O)OC6CC(C)(C)CC7C5=CCC4C8(C)(CCC(OC3OC(C(=O)O)C(O)C(O)C3(OC2OC(CO)C(O)C(O)C2(OC1OC(C)C(O)C(O)C1(O))))C(C)(CO)C8(CCC4(C)C5(C)CCC67(C)))
CH$IUPAC: InChI=1S/C51H80O21/c1-22-32(57)34(59)38(63)43(66-22)71-40-35(60)33(58)25(20-52)67-44(40)72-41-37(62)36(61)39(42(64)65)70-45(41)69-28-12-13-48(5)26(49(28,6)21-53)11-14-51(8)27(48)10-9-23-24-18-46(2,3)19-29(68-31(56)17-30(54)55)47(24,4)15-16-50(23,51)7/h9,22,24-29,32-41,43-45,52-53,57-63H,10-21H2,1-8H3,(H,54,55)(H,64,65)
CH$LINK: INCHIKEY UZZVCPOZXWRBFO-UHFFFAOYSA-N
AC$INSTRUMENT: LC, Waters Acquity UPLC System; MS, Waters Xevo G2 Q-Tof
AC$INSTRUMENT_TYPE: LC-ESI-QTOF
AC$MASS_SPECTROMETRY: MS_TYPE MS2
AC$MASS_SPECTROMETRY: ION_MODE NEGATIVE
AC$MASS_SPECTROMETRY: COLLISION_ENERGY 6V
AC$MASS_SPECTROMETRY: DESOLVATION_GAS_FLOW 800/h
AC$MASS_SPECTROMETRY: DESOLVATION_TEMPERATURE 450 C
AC$MASS_SPECTROMETRY: IONIZATION ESI
AC$CHROMATOGRAPHY: CAPILLARY_VOLTAGE +3.00 kV
AC$CHROMATOGRAPHY: COLUMN_NAME Acquity bridged ethyl hybrid C18 (1.7 um, 2.1 mm * 100 mm, Waters)
AC$CHROMATOGRAPHY: COLUMN_TEMPERATURE 40 C
AC$CHROMATOGRAPHY: FLOW_GRADIENT A/B = (99.5%/0.5% at 0 min, 99.5%/0.5% at 0.1 min, 20%/80% at 10 min, 0.5%/99.5% at 10.1 min, 0.5%/99.5% at 12.0 min, 99.5%/0.5% at 12.1 min, 99.5%/0.5% at 15.0 min)
AC$CHROMATOGRAPHY: FLOW_RATE 0.3 ml/min at 0 min, 0.3 ml/min at 10 min, 0.4 ml/min at 10.1 min, 0.4 ml/min at 14.4 min, 0.3 ml/min at 14.5 min
AC$CHROMATOGRAPHY: RETENTION_TIME 6.73
AC$CHROMATOGRAPHY: SOLVENT A water including 0.1% formic acid
AC$CHROMATOGRAPHY: SOLVENT B acetonitrile including 0.1% formic acid
MS$FOCUSED_ION: PRECURSOR_TYPE [M-H]-
MS$FOCUSED_ION: PRECURSOR_M/Z 1027.5129
PK$SPLASH: splash10-0059-9000000007-0d2877066d123ef1252d
PK$NUM_PEAK: 9
PK$PEAK: m/z int. rel.int.
  101.02583 22.0 88
  639.72235 19.0 76
  838.46381 23.0 92
  983.49713 58.0 233
  983.54126 84.0 337
  985.49274 20.0 80
  985.53735 19.0 76
  986.5296 18.0 72
  1027.50879 249.0 999
//
