ACCESSION: MSBNK-RIKEN-PR309393
RECORD_TITLE: Anthraquinone base + 1O, MeOH; LC-ESI-QTOF; MS2
DATE: 2019.03.28
AUTHORS: Tetsuya Mori, Center for Sustainable Resource Science, RIKEN
LICENSE: CC BY-NC-SA
PUBLICATION: Tsugawa H., Nakabayashi R., Mori T., Yamada Y., Takahashi M., Rai A., Sugiyama R., Yamamoto H., Nakaya T., Yamazaki M., Kooke R., Bac-Molenaar JA., Oztolan-Erol N., Keurentjes JJB., Arita M., Saito K. (2019) "A cheminformatics approach to characterize metabolomes in stable-isotope-labeled organisms" Nature Methods 16(4):295-298. [doi:10.1038/s41592-019-0358-2]
COMMENT: Annotation level-3
CH$NAME: Anthraquinone base + 1O, MeOH
CH$COMPOUND_CLASS: Anthraquinones
CH$FORMULA: C15H10O4
CH$EXACT_MASS: 254.241
CH$SMILES: O=C1C=3C=C(C=CC=3(C(=O)C=2C(O)=CC=CC1=2))CO
CH$IUPAC: InChI=1S/C15H10O4/c16-7-8-4-5-9-11(6-8)14(18)10-2-1-3-12(17)13(10)15(9)19/h1-6,16-17H,7H2
CH$LINK: INCHIKEY DGGHVFUGMGGLON-UHFFFAOYSA-N
AC$INSTRUMENT: LC, Waters Acquity UPLC System; MS, Waters Xevo G2 Q-Tof
AC$INSTRUMENT_TYPE: LC-ESI-QTOF
AC$MASS_SPECTROMETRY: MS_TYPE MS2
AC$MASS_SPECTROMETRY: ION_MODE NEGATIVE
AC$MASS_SPECTROMETRY: COLLISION_ENERGY 6V
AC$MASS_SPECTROMETRY: DESOLVATION_GAS_FLOW 800/h
AC$MASS_SPECTROMETRY: DESOLVATION_TEMPERATURE 450 C
AC$MASS_SPECTROMETRY: IONIZATION ESI
AC$CHROMATOGRAPHY: CAPILLARY_VOLTAGE +3.00 kV
AC$CHROMATOGRAPHY: COLUMN_NAME Acquity bridged ethyl hybrid C18 (1.7 um, 2.1 mm * 100 mm, Waters)
AC$CHROMATOGRAPHY: COLUMN_TEMPERATURE 40 C
AC$CHROMATOGRAPHY: FLOW_GRADIENT A/B = (99.5%/0.5% at 0 min, 99.5%/0.5% at 0.1 min, 20%/80% at 10 min, 0.5%/99.5% at 10.1 min, 0.5%/99.5% at 12.0 min, 99.5%/0.5% at 12.1 min, 99.5%/0.5% at 15.0 min)
AC$CHROMATOGRAPHY: FLOW_RATE 0.3 ml/min at 0 min, 0.3 ml/min at 10 min, 0.4 ml/min at 10.1 min, 0.4 ml/min at 14.4 min, 0.3 ml/min at 14.5 min
AC$CHROMATOGRAPHY: RETENTION_TIME 8.49
AC$CHROMATOGRAPHY: SOLVENT A water including 0.1% formic acid
AC$CHROMATOGRAPHY: SOLVENT B acetonitrile including 0.1% formic acid
MS$FOCUSED_ION: PRECURSOR_TYPE [M-H]-
MS$FOCUSED_ION: PRECURSOR_M/Z 253.0487
PK$SPLASH: splash10-004i-0290000000-610257d7cc7759feefb6
PK$NUM_PEAK: 14
PK$PEAK: m/z int. rel.int.
  70.99992 16.0 57
  142.06807 23.0 81
  169.06096 19.0 67
  170.99522 32.0 113
  181.06651 25.0 89
  195.04294 23.0 81
  208.04941 66.0 234
  209.04927 42.0 149
  210.06221 26.0 92
  224.03728 37.0 131
  224.04532 32.0 113
  225.05142 282.0 999
  225.07321 20.0 71
  251.09975 19.0 67
//
