ACCESSION: MSBNK-RIKEN-PR100206
RECORD_TITLE: Thymine; LC-ESI-QTOF; MS2; CE:Ramp 5-60 V; [M+H]+
DATE: 2016.01.19 (Created 2009.09.10, modified 2011.05.06)
AUTHORS: Matsuda F, Suzuki M, Sawada Y, Plant Science Center, RIKEN.
LICENSE: CC BY-SA
COMMENT: Acquisition and generation of the data is financially supported in part by CREST/JST.
CH$NAME: Thymine
CH$NAME: T
CH$NAME: 2,4-Dihydroxy-5-methylpyrimidine
CH$NAME: 5-Methyluracil
CH$NAME: 5-Methylpyrimidine-2,4-diol
CH$COMPOUND_CLASS: Pyrimidines
CH$FORMULA: C5H6N2O2
CH$EXACT_MASS: 126.04293
CH$SMILES: CC(=C1)C(=O)NC(=O)N1
CH$IUPAC: InChI=1S/C5H6N2O2/c1-3-2-6-5(9)7-4(3)8/h2H,1H3,(H2,6,7,8,9)
CH$LINK: CAS 65-71-4
CH$LINK: CHEMSPIDER 1103
CH$LINK: KAPPAVIEW KPC01022
CH$LINK: KEGG C00178
CH$LINK: KNAPSACK C00001511
CH$LINK: PUBCHEM CID:1135
CH$LINK: INCHIKEY RWQNBRDOKXIBIV-UHFFFAOYSA-N
CH$LINK: COMPTOX DTXSID4052342
AC$INSTRUMENT: UPLC Q-Tof Premier, Waters
AC$INSTRUMENT_TYPE: LC-ESI-QTOF
AC$MASS_SPECTROMETRY: MS_TYPE MS2
AC$MASS_SPECTROMETRY: ION_MODE POSITIVE
AC$MASS_SPECTROMETRY: COLLISION_ENERGY Ramp 5-60 V
AC$MASS_SPECTROMETRY: DATAFORMAT Continuum
AC$MASS_SPECTROMETRY: DESOLVATION_GAS_FLOW 600.0 L/Hr
AC$MASS_SPECTROMETRY: DESOLVATION_TEMPERATURE 400 C
AC$MASS_SPECTROMETRY: FRAGMENTATION_METHOD LOW-ENERGY CID
AC$MASS_SPECTROMETRY: IONIZATION ESI
AC$MASS_SPECTROMETRY: SOURCE_TEMPERATURE 120 C
AC$CHROMATOGRAPHY: CAPILLARY_VOLTAGE 3.0 kV
AC$CHROMATOGRAPHY: SAMPLING_CONE 23.0 V
AC$CHROMATOGRAPHY: SOLVENT A CH3CN(0.1%HCOOH)
AC$CHROMATOGRAPHY: SOLVENT B H2O(0.1%HCOOH)
MS$FOCUSED_ION: PRECURSOR_M/Z 127.05073
MS$FOCUSED_ION: PRECURSOR_TYPE [M+H]+
PK$SPLASH: splash10-004i-0900000000-97549ff58b84351d860c
PK$NUM_PEAK: 4
PK$PEAK: m/z int. rel.int.
  84.0447 57.64 109
  109.0401 56.87 108
  110.0248 188.4 358
  127.0507 526.1 999
//
