ACCESSION: MSBNK-RIKEN-PR307053
RECORD_TITLE: NP-000004(11); LC-ESI-QTOF; MS2
DATE: 2019.03.28
AUTHORS: Tetsuya Mori, Center for Sustainable Resource Science, RIKEN
LICENSE: CC BY-NC-SA
PUBLICATION: Tsugawa H., Nakabayashi R., Mori T., Yamada Y., Takahashi M., Rai A., Sugiyama R., Yamamoto H., Nakaya T., Yamazaki M., Kooke R., Bac-Molenaar JA., Oztolan-Erol N., Keurentjes JJB., Arita M., Saito K. (2019) "A cheminformatics approach to characterize metabolomes in stable-isotope-labeled organisms" Nature Methods 16(4):295-298. [doi:10.1038/s41592-019-0358-2]
COMMENT: registered in RIKEN PlaSMA
CH$NAME: NP-000004(11)
CH$COMPOUND_CLASS: Flavonoid 8-C-glycosides
CH$FORMULA: C26H28O14
CH$EXACT_MASS: 564.496
CH$SMILES: OCC1OC(C(O)C1O)C1=C2OC(=CC(=O)C2=C(O)C(C2OC(CO)C(O)C(O)C2O)=C1O)C1=CC=C(O)C=C1
CH$IUPAC: InChI=1S/C26H28O14/c27-6-12-17(31)21(35)23(37)25(39-12)15-19(33)14-10(30)5-11(8-1-3-9(29)4-2-8)38-24(14)16(20(15)34)26-22(36)18(32)13(7-28)40-26/h1-5,12-13,17-18,21-23,25-29,31-37H,6-7H2
CH$LINK: INCHIKEY TUIJPUWSXVFWSH-UHFFFAOYSA-N
AC$INSTRUMENT: LC, Waters Acquity UPLC System; MS, Waters Xevo G2 Q-Tof
AC$INSTRUMENT_TYPE: LC-ESI-QTOF
AC$MASS_SPECTROMETRY: MS_TYPE MS2
AC$MASS_SPECTROMETRY: ION_MODE NEGATIVE
AC$MASS_SPECTROMETRY: COLLISION_ENERGY 6V
AC$MASS_SPECTROMETRY: DESOLVATION_GAS_FLOW 800/h
AC$MASS_SPECTROMETRY: DESOLVATION_TEMPERATURE 450 C
AC$MASS_SPECTROMETRY: IONIZATION ESI
AC$CHROMATOGRAPHY: CAPILLARY_VOLTAGE -2.75 kV
AC$CHROMATOGRAPHY: COLUMN_NAME Acquity bridged ethyl hybrid C18 (1.7 um, 2.1 mm * 100 mm, Waters)
AC$CHROMATOGRAPHY: COLUMN_TEMPERATURE 40 C
AC$CHROMATOGRAPHY: FLOW_GRADIENT A/B = (99.5%/0.5% at 0 min, 99.5%/0.5% at 0.1 min, 20%/80% at 10 min, 0.5%/99.5% at 10.1 min, 0.5%/99.5% at 12.0 min, 99.5%/0.5% at 12.1 min, 99.5%/0.5% at 15.0 min)
AC$CHROMATOGRAPHY: FLOW_RATE 0.3 ml/min at 0 min, 0.3 ml/min at 10 min, 0.4 ml/min at 10.1 min, 0.4 ml/min at 14.4 min, 0.3 ml/min at 14.5 min
AC$CHROMATOGRAPHY: RETENTION_TIME 3.550883
AC$CHROMATOGRAPHY: SOLVENT A water including 0.1% formic acid
AC$CHROMATOGRAPHY: SOLVENT B acetonitrile including 0.1% formic acid
MS$FOCUSED_ION: PRECURSOR_TYPE [M-H]-
MS$FOCUSED_ION: PRECURSOR_M/Z 563.14062914783
PK$SPLASH: splash10-0002-0595000000-7fc38c4c27b963ee1068
PK$NUM_PEAK: 204
PK$PEAK: m/z int. rel.int.
  93.02943 15.0 15
  93.03474 18.0 18
  95.01307 15.0 15
  107.04918 11.0 11
  109.02465 16.0 16
  114.02641 13.0 13
  117.02913 62.0 62
  117.03726 141.0 141
  119.0461 27.0 27
  121.03211 14.0 14
  129.21263 12.0 12
  131.05634 15.0 15
  133.02455 12.0 12
  133.03375 32.0 32
  133.05937 12.0 12
  135.04181 12.0 12
  135.04878 51.0 51
  135.05627 18.0 18
  136.04984 13.0 13
  145.02423 16.0 16
  145.03108 23.0 23
  147.04175 56.0 56
  148.01538 21.0 21
  149.02348 16.0 16
  149.05995 14.0 14
  149.06546 13.0 13
  150.02997 36.0 36
  152.00067 15.0 15
  155.05385 12.0 12
  157.02895 19.0 19
  159.04277 51.0 51
  159.05266 18.0 18
  159.08412 35.0 35
  161.02441 107.0 107
  161.06781 17.0 17
  162.03084 47.0 47
  162.03915 28.0 28
  163.04134 69.0 69
  169.07022 16.0 16
  173.02003 13.0 13
  173.05005 15.0 15
  173.05809 21.0 21
  174.03455 12.0 12
  175.03685 134.0 134
  177.02153 75.0 75
  177.05696 90.0 90
  178.05833 27.0 27
  179.02452 13.0 13
  181.07072 12.0 12
  182.03023 11.0 11
  182.07198 19.0 19
  183.0771 19.0 19
  185.05438 12.0 12
  186.0307 15.0 15
  187.05614 14.0 14
  188.00536 15.0 15
  188.0183 19.0 19
  189.01323 26.0 26
  189.02228 14.0 14
  189.05174 33.0 33
  189.06345 28.0 28
  191.03328 119.0 119
  195.047 12.0 12
  196.06042 25.0 25
  197.09673 21.0 21
  197.10974 11.0 11
  198.02528 11.0 11
  199.0428 11.0 11
  203.02525 29.0 29
  204.0378 18.0 18
  204.04791 15.0 15
  205.04523 16.0 16
  205.05632 13.0 13
  206.05263 18.0 18
  207.07645 21.0 21
  208.05792 34.0 34
  209.05986 14.0 14
  209.10303 12.0 12
  210.0645 44.0 44
  211.04253 12.0 12
  213.05539 14.0 14
  216.07738 12.0 12
  217.04668 43.0 43
  219.03244 12.0 12
  220.64735 19.0 19
  224.07506 12.0 12
  225.04475 15.0 15
  225.05998 22.0 22
  225.08327 15.0 15
  225.0936 12.0 12
  226.09972 16.0 16
  228.07532 15.0 15
  230.01579 16.0 16
  230.0347 15.0 15
  233.03699 11.0 11
  233.05019 19.0 19
  237.05904 18.0 18
  237.09032 13.0 13
  238.0593 12.0 12
  238.07138 25.0 25
  241.05554 18.0 18
  242.05186 17.0 17
  243.07745 22.0 22
  244.04716 19.0 19
  245.04405 12.0 12
  247.05849 13.0 13
  249.0504 18.0 18
  250.05313 15.0 15
  252.05113 15.0 15
  252.07837 15.0 15
  252.54233 11.0 11
  253.05687 16.0 16
  253.07681 16.0 16
  253.0898 41.0 41
  254.08357 11.0 11
  254.0956 18.0 18
  258.05685 13.0 13
  266.06039 11.0 11
  267.06369 11.0 11
  267.07416 41.0 41
  267.37891 12.0 12
  268.02777 15.0 15
  268.04532 16.0 16
  268.07312 15.0 15
  268.08582 15.0 15
  269.04379 30.0 30
  273.09506 12.0 12
  277.04761 18.0 18
  279.0657 12.0 12
  280.02969 21.0 21
  281.04279 140.0 140
  281.07797 15.0 15
  282.05585 102.0 102
  282.06476 40.0 40
  283.06158 199.0 199
  283.08661 14.0 14
  284.07199 30.0 30
  287.05591 19.0 19
  288.06812 12.0 12
  289.08807 16.0 16
  290.02203 19.0 19
  291.06342 31.0 31
  293.08084 27.0 27
  294.04984 16.0 16
  295.0549 123.0 123
  295.07269 31.0 31
  296.07022 282.0 282
  297.07693 1000.0 999
  298.07669 170.0 170
  299.08685 31.0 31
  300.07584 40.0 40
  306.04352 13.0 13
  307.04855 52.0 52
  307.06183 54.0 54
  308.03189 11.0 11
  308.0517 11.0 11
  308.06555 31.0 31
  308.09552 12.0 12
  309.07129 33.0 33
  309.08398 53.0 53
  310.04926 15.0 15
  310.07413 41.0 41
  310.08621 72.0 72
  311.022 12.0 12
  311.04837 41.0 41
  319.05652 13.0 13
  320.06357 12.0 12
  321.03986 17.0 17
  322.04684 64.0 64
  323.05252 111.0 111
  323.06528 24.0 24
  324.0538 28.0 28
  324.06854 53.0 53
  325.0553 14.0 14
  325.07562 223.0 223
  326.07852 38.0 38
  335.05615 25.0 25
  336.08963 17.0 17
  337.07181 156.0 156
  339.05887 13.0 13
  345.07193 16.0 16
  347.04871 17.0 17
  347.07242 11.0 11
  351.05917 20.0 20
  353.06686 217.0 217
  354.07358 11.0 11
  354.0889 11.0 11
  355.06677 28.0 28
  355.08249 29.0 29
  356.09 14.0 14
  364.83887 12.0 12
  365.05252 50.0 50
  365.06696 28.0 28
  365.09064 11.0 11
  366.0791 16.0 16
  372.07568 18.0 18
  377.04553 11.0 11
  383.08301 59.0 59
  384.08414 47.0 47
  390.07693 18.0 18
  407.07394 15.0 15
  409.09903 16.0 16
  419.06891 12.0 12
  498.81531 11.0 11
//
