ACCESSION: MSBNK-RIKEN-PR310410
RECORD_TITLE: 5(S)-5-carboxystrictosidine; LC-ESI-QTOF; MS2
DATE: 2019.03.28
AUTHORS: Tetsuya Mori, Center for Sustainable Resource Science, RIKEN
LICENSE: CC BY-NC-SA
PUBLICATION: Tsugawa H., Nakabayashi R., Mori T., Yamada Y., Takahashi M., Rai A., Sugiyama R., Yamamoto H., Nakaya T., Yamazaki M., Kooke R., Bac-Molenaar JA., Oztolan-Erol N., Keurentjes JJB., Arita M., Saito K. (2019) "A cheminformatics approach to characterize metabolomes in stable-isotope-labeled organisms" Nature Methods 16(4):295-298. [doi:10.1038/s41592-019-0358-2]
COMMENT: Annotation level-1
CH$NAME: 5(S)-5-carboxystrictosidine
CH$COMPOUND_CLASS: Terpene glycosides
CH$FORMULA: C28H34N2O11
CH$EXACT_MASS: 574.583
CH$SMILES: COC(=O)C1=COC(OC2OC(CO)C(O)C(O)C2O)C(C=C)C1CC1NC(CC2=C1NC1=C2C=CC=C1)C(O)=O
CH$IUPAC: InChI=1S/C28H34N2O11/c1-3-12-14(8-18-21-15(9-19(29-18)25(35)36)13-6-4-5-7-17(13)30-21)16(26(37)38-2)11-39-27(12)41-28-24(34)23(33)22(32)20(10-31)40-28/h3-7,11-12,14,18-20,22-24,27-34H,1,8-10H2,2H3,(H,35,36)
CH$LINK: INCHIKEY LHKZIVMTXZLOTP-UHFFFAOYSA-N
AC$INSTRUMENT: LC, Waters Acquity UPLC System; MS, Waters Xevo G2 Q-Tof
AC$INSTRUMENT_TYPE: LC-ESI-QTOF
AC$MASS_SPECTROMETRY: MS_TYPE MS2
AC$MASS_SPECTROMETRY: ION_MODE POSITIVE
AC$MASS_SPECTROMETRY: COLLISION_ENERGY 6V
AC$MASS_SPECTROMETRY: DESOLVATION_GAS_FLOW 800/h
AC$MASS_SPECTROMETRY: DESOLVATION_TEMPERATURE 450 C
AC$MASS_SPECTROMETRY: IONIZATION ESI
AC$CHROMATOGRAPHY: CAPILLARY_VOLTAGE +3.00 kV
AC$CHROMATOGRAPHY: COLUMN_NAME Acquity bridged ethyl hybrid C18 (1.7 um, 2.1 mm * 100 mm, Waters)
AC$CHROMATOGRAPHY: COLUMN_TEMPERATURE 40 C
AC$CHROMATOGRAPHY: FLOW_GRADIENT A/B = (99.5%/0.5% at 0 min, 99.5%/0.5% at 0.1 min, 20%/80% at 10 min, 0.5%/99.5% at 10.1 min, 0.5%/99.5% at 12.0 min, 99.5%/0.5% at 12.1 min, 99.5%/0.5% at 15.0 min)
AC$CHROMATOGRAPHY: FLOW_RATE 0.3 ml/min at 0 min, 0.3 ml/min at 10 min, 0.4 ml/min at 10.1 min, 0.4 ml/min at 14.4 min, 0.3 ml/min at 14.5 min
AC$CHROMATOGRAPHY: RETENTION_TIME 4.13
AC$CHROMATOGRAPHY: SOLVENT A water including 0.1% formic acid
AC$CHROMATOGRAPHY: SOLVENT B acetonitrile including 0.1% formic acid
MS$FOCUSED_ION: PRECURSOR_TYPE [M+H]+
MS$FOCUSED_ION: PRECURSOR_M/Z 575.22354
PK$SPLASH: splash10-004i-0346290000-ad0f3d40d56b0989ac59
PK$NUM_PEAK: 866
PK$PEAK: m/z int. rel.int.
  60.50617 27.0 1
  79.06325 32.0 1
  81.03194 57.0 1
  83.01257 44.0 1
  85.02881 153.0 4
  87.0423 35.0 1
  87.0478 42.0 1
  91.0387 28.0 1
  95.04794 46.0 1
  96.08443 17.0 0
  97.01526 26.0 1
  97.02161 48.0 1
  97.02946 77.0 2
  99.0452 33.0 1
  99.10639 19.0 0
  103.03635 32.0 1
  103.05471 30.0 1
  105.07043 28.0 1
  106.06486 23.0 1
  107.05241 69.0 2
  109.03217 35.0 1
  109.06574 20.0 1
  115.04015 24.0 1
  115.89429 17.0 0
  116.04205 22.0 1
  117.04712 28.0 1
  117.06425 23.0 1
  118.06451 26.0 1
  119.07239 20.0 1
  121.07035 24.0 1
  122.02923 22.0 1
  122.51185 20.0 1
  123.04626 35.0 1
  125.02179 30.0 1
  125.04924 25.0 1
  127.03176 58.0 1
  127.04067 23.0 1
  130.06528 593.0 15
  131.05174 66.0 2
  131.06886 102.0 3
  131.07919 39.0 1
  132.07883 17.0 0
  132.11644 22.0 1
  135.02982 19.0 0
  135.04411 101.0 3
  137.04993 25.0 1
  137.06021 25.0 1
  139.03949 240.0 6
  139.05121 36.0 1
  140.04933 37.0 1
  140.06946 26.0 1
  141.04698 25.0 1
  141.0545 31.0 1
  143.0713 40.0 1
  144.04607 24.0 1
  144.06522 47.0 1
  144.08064 1410.0 36
  144.25052 18.0 0
  145.04628 149.0 4
  145.05627 22.0 1
  145.08292 114.0 3
  146.06187 558.0 14
  147.06129 25.0 1
  147.06833 23.0 1
  148.04091 21.0 1
  148.07957 22.0 1
  149.02924 29.0 1
  149.17314 26.0 1
  150.09703 33.0 1
  151.03217 86.0 2
  151.04352 119.0 3
  151.9803 20.0 1
  153.05168 20.0 1
  153.06697 24.0 1
  154.06271 170.0 4
  155.07237 50.0 1
  156.06393 24.0 1
  156.07909 194.0 5
  157.07936 43.0 1
  157.09076 19.0 0
  157.54237 39.0 1
  157.59184 18.0 0
  158.05963 18.0 0
  158.07146 23.0 1
  158.08311 49.0 1
  158.0966 366.0 9
  159.04311 60.0 2
  159.09322 123.0 3
  160.07713 19.0 0
  160.10156 29.0 1
  161.05804 27.0 1
  161.07428 24.0 1
  163.07983 41.0 1
  163.09637 33.0 1
  164.15407 33.0 1
  165.01012 24.0 1
  165.0537 1613.0 41
  166.05862 195.0 5
  167.06743 156.0 4
  167.07936 55.0 1
  168.0807 868.0 22
  169.0786 757.0 19
  169.09854 37.0 1
  170.04488 22.0 1
  170.05902 124.0 3
  170.08174 143.0 4
  170.09875 26.0 1
  171.09724 33.0 1
  171.11119 26.0 1
  172.05736 34.0 1
  172.07835 51.0 1
  172.0898 17.0 0
  172.68884 17.0 0
  172.96364 37.0 1
  173.05467 24.0 1
  174.08974 28.0 1
  175.03255 37.0 1
  175.04359 27.0 1
  175.50281 21.0 1
  176.06201 62.0 2
  176.06914 50.0 1
  176.46584 27.0 1
  177.05058 126.0 3
  177.07852 43.0 1
  178.0706 30.0 1
  178.08675 17.0 0
  179.0686 40.0 1
  180.05574 21.0 1
  180.07146 73.0 2
  180.08003 143.0 4
  180.0887 28.0 1
  180.10701 33.0 1
  180.60846 41.0 1
  181.04555 19.0 0
  181.08832 132.0 3
  182.04895 19.0 0
  182.07317 21.0 1
  182.09621 195.0 5
  183.05943 27.0 1
  183.07274 158.0 4
  183.09152 24.0 1
  183.10313 33.0 1
  183.81213 17.0 0
  184.06306 43.0 1
  184.07397 78.0 2
  184.08876 28.0 1
  185.06433 67.0 2
  185.09775 66.0 2
  186.05606 25.0 1
  186.08987 68.0 2
  186.10045 29.0 1
  186.84067 30.0 1
  187.03596 17.0 0
  187.0592 25.0 1
  188.04849 70.0 2
  188.07101 4189.0 106
  188.86465 42.0 1
  189.05237 26.0 1
  189.06328 161.0 4
  189.07471 609.0 15
  190.04858 27.0 1
  190.0793 144.0 4
  190.60941 17.0 0
  191.05812 67.0 2
  191.07397 118.0 3
  192.07837 46.0 1
  193.08678 27.0 1
  194.05597 64.0 2
  194.07834 52.0 1
  194.09175 23.0 1
  194.10089 61.0 2
  195.04805 28.0 1
  195.07469 25.0 1
  195.10139 18.0 0
  195.10803 19.0 0
  196.0766 47.0 1
  196.11577 26.0 1
  196.12657 30.0 1
  196.14964 34.0 1
  197.09317 31.0 1
  198.08067 94.0 2
  199.87477 18.0 0
  200.06851 501.0 13
  200.07828 165.0 4
  200.74445 22.0 1
  200.7972 44.0 1
  201.06839 66.0 2
  201.07785 214.0 5
  201.44519 20.0 1
  202.08366 82.0 2
  202.10068 27.0 1
  203.02953 22.0 1
  203.07338 17.0 0
  204.07481 22.0 1
  204.63646 24.0 1
  205.08075 46.0 1
  205.09537 155.0 4
  206.08249 88.0 2
  206.10092 87.0 2
  206.79341 17.0 0
  207.06158 21.0 1
  207.08003 55.0 1
  208.05025 25.0 1
  208.0732 60.0 2
  208.09175 87.0 2
  208.10004 120.0 3
  208.11687 17.0 0
  208.16487 27.0 1
  208.55 20.0 1
  209.05368 36.0 1
  209.06976 77.0 2
  209.08307 89.0 2
  209.11275 62.0 2
  209.44456 17.0 0
  210.0491 17.0 0
  210.05789 19.0 0
  210.06976 27.0 1
  210.08861 215.0 5
  210.12274 81.0 2
  211.08502 45.0 1
  212.07324 20.0 1
  212.09137 25.0 1
  212.1163 22.0 1
  213.05302 25.0 1
  213.07951 134.0 3
  213.09303 17.0 0
  214.04169 30.0 1
  214.08841 787.0 20
  214.51523 24.0 1
  214.90942 24.0 1
  215.07013 118.0 3
  215.08339 802.0 20
  216.06636 18.0 0
  216.08107 181.0 5
  216.09843 25.0 1
  217.05299 66.0 2
  217.07974 42.0 1
  217.09584 409.0 10
  217.76175 18.0 0
  218.03506 29.0 1
  218.04814 29.0 1
  218.06822 76.0 2
  218.084 69.0 2
  218.09975 100.0 3
  219.0968 43.0 1
  220.00716 17.0 0
  220.06451 43.0 1
  220.07542 159.0 4
  220.09041 49.0 1
  220.11322 183.0 5
  220.16595 24.0 1
  221.08426 89.0 2
  221.09879 22.0 1
  221.11182 39.0 1
  221.12004 23.0 1
  222.00443 20.0 1
  222.0386 18.0 0
  222.07918 30.0 1
  222.09009 135.0 3
  222.1199 50.0 1
  222.34521 18.0 0
  223.06798 17.0 0
  223.0824 25.0 1
  223.09261 27.0 1
  224.06827 164.0 4
  224.08551 99.0 2
  224.10895 23.0 1
  224.29008 18.0 0
  224.40372 29.0 1
  224.73914 27.0 1
  225.06367 20.0 1
  225.07721 26.0 1
  225.1114 17.0 0
  226.07675 34.0 1
  226.08682 157.0 4
  226.10962 87.0 2
  226.12625 65.0 2
  227.05663 43.0 1
  227.08339 17.0 0
  227.09875 22.0 1
  227.10869 22.0 1
  227.11876 26.0 1
  228.08231 33.0 1
  229.08749 24.0 1
  229.30307 28.0 1
  230.0809 96.0 2
  230.09904 213.0 5
  231.09113 21.0 1
  231.11111 542.0 14
  231.12172 167.0 4
  232.06531 26.0 1
  232.10985 39.0 1
  232.11943 28.0 1
  232.83018 19.0 0
  232.91425 33.0 1
  233.0743 22.0 1
  233.1073 18.0 0
  233.12424 55.0 1
  234.09395 138.0 3
  234.1201 66.0 2
  234.13667 31.0 1
  235.05458 18.0 0
  235.062 20.0 1
  235.09744 97.0 2
  235.11551 23.0 1
  235.13152 30.0 1
  236.07251 47.0 1
  236.08194 32.0 1
  236.10114 26.0 1
  236.11069 22.0 1
  236.52682 18.0 0
  236.79369 48.0 1
  236.98401 20.0 1
  237.05806 17.0 0
  237.09586 28.0 1
  238.06171 69.0 2
  238.08705 961.0 24
  238.12901 76.0 2
  239.07423 57.0 1
  239.09332 378.0 10
  240.07721 27.0 1
  240.09727 54.0 1
  240.1046 154.0 4
  241.08565 19.0 0
  241.10008 132.0 3
  241.46709 23.0 1
  242.10353 21.0 1
  244.10648 79.0 2
  244.11861 164.0 4
  244.38411 36.0 1
  245.09251 26.0 1
  245.11276 126.0 3
  246.06024 21.0 1
  246.08777 34.0 1
  246.12762 59.0 1
  247.02582 18.0 0
  247.06693 17.0 0
  247.0932 136.0 3
  247.1181 26.0 1
  247.13924 28.0 1
  248.05324 79.0 2
  248.06851 454.0 11
  248.10052 19.0 0
  249.07379 145.0 4
  249.08733 106.0 3
  249.11755 21.0 1
  249.13527 29.0 1
  249.21696 21.0 1
  249.84792 33.0 1
  250.04755 52.0 1
  250.07077 171.0 4
  250.07973 322.0 8
  250.11877 20.0 1
  251.08824 18.0 0
  252.09108 110.0 3
  252.10698 151.0 4
  252.14223 38.0 1
  252.334 17.0 0
  253.10487 82.0 2
  254.08098 180.0 5
  254.12259 27.0 1
  255.00278 25.0 1
  255.07506 42.0 1
  255.09889 36.0 1
  255.1212 46.0 1
  256.08981 45.0 1
  256.11139 77.0 2
  256.12177 71.0 2
  257.07568 21.0 1
  257.11395 25.0 1
  257.12192 40.0 1
  258.09406 109.0 3
  259.09976 96.0 2
  259.11395 22.0 1
  260.08984 23.0 1
  260.10492 98.0 2
  260.12146 36.0 1
  260.14316 26.0 1
  260.98077 18.0 0
  261.10815 21.0 1
  262.06949 33.0 1
  262.07761 45.0 1
  262.10394 40.0 1
  262.1236 84.0 2
  262.14035 32.0 1
  263.06921 33.0 1
  263.08353 29.0 1
  263.09525 35.0 1
  263.12595 113.0 3
  263.14157 27.0 1
  263.34366 24.0 1
  263.7966 21.0 1
  264.09146 65.0 2
  264.11533 22.0 1
  264.12808 35.0 1
  264.13687 42.0 1
  264.14713 48.0 1
  265.08414 110.0 3
  265.09747 364.0 9
  265.1264 41.0 1
  265.14185 53.0 1
  266.06696 98.0 2
  266.08069 133.0 3
  266.09747 241.0 6
  266.11554 100.0 3
  266.4017 22.0 1
  267.05927 23.0 1
  267.07516 119.0 3
  267.09607 66.0 2
  267.11584 132.0 3
  268.07669 20.0 1
  268.09039 26.0 1
  268.10287 21.0 1
  268.86819 17.0 0
  269.09647 17.0 0
  270.06375 22.0 1
  270.08353 54.0 1
  270.11258 315.0 8
  271.09393 22.0 1
  271.11343 174.0 4
  271.12363 47.0 1
  272.08554 57.0 1
  272.10446 359.0 9
  272.12381 52.0 1
  272.14273 34.0 1
  273.10132 21.0 1
  273.11249 48.0 1
  274.08047 33.0 1
  274.10245 57.0 1
  274.11856 161.0 4
  275.09738 43.0 1
  275.74615 30.0 1
  276.0788 88.0 2
  276.10669 175.0 4
  276.25406 32.0 1
  277.08206 28.0 1
  277.09854 20.0 1
  278.06497 20.0 1
  278.07343 26.0 1
  278.08838 32.0 1
  279.08472 24.0 1
  279.12299 36.0 1
  280.09607 31.0 1
  280.12408 155.0 4
  280.13696 226.0 6
  280.96292 27.0 1
  281.08609 17.0 0
  281.68045 20.0 1
  281.72482 17.0 0
  282.08881 61.0 2
  282.11032 81.0 2
  282.13498 69.0 2
  283.09601 113.0 3
  283.11407 20.0 1
  283.13248 22.0 1
  283.14392 21.0 1
  284.07538 21.0 1
  284.08551 24.0 1
  284.10489 29.0 1
  284.13144 18.0 0
  286.09244 82.0 2
  286.85135 25.0 1
  287.09204 32.0 1
  288.08194 38.0 1
  288.09094 18.0 0
  288.12576 48.0 1
  289.10495 59.0 1
  289.12234 45.0 1
  289.13992 44.0 1
  289.99319 25.0 1
  290.08548 45.0 1
  290.11179 314.0 8
  290.12259 272.0 7
  290.63815 26.0 1
  290.75394 28.0 1
  291.07095 30.0 1
  291.08215 38.0 1
  291.11319 82.0 2
  291.12726 102.0 3
  291.14285 38.0 1
  291.49011 40.0 1
  292.09851 76.0 2
  292.1369 53.0 1
  292.14896 59.0 1
  292.81979 18.0 0
  293.0658 20.0 1
  293.09592 280.0 7
  293.12979 760.0 19
  293.14835 55.0 1
  294.03912 45.0 1
  294.06384 86.0 2
  294.07584 147.0 4
  294.08887 50.0 1
  294.10336 63.0 2
  294.13098 166.0 4
  294.14417 82.0 2
  295.08578 371.0 9
  295.12042 21.0 1
  295.13077 34.0 1
  296.08456 74.0 2
  296.10147 35.0 1
  296.11826 28.0 1
  297.09021 45.0 1
  297.09897 19.0 0
  297.9942 22.0 1
  298.08487 38.0 1
  298.09976 80.0 2
  298.11499 50.0 1
  298.24689 17.0 0
  299.11072 62.0 2
  299.12338 25.0 1
  299.15045 24.0 1
  299.67743 57.0 1
  300.06537 80.0 2
  300.07922 23.0 1
  300.09778 137.0 3
  300.11282 117.0 3
  300.1413 18.0 0
  301.07062 18.0 0
  301.09506 68.0 2
  301.10693 119.0 3
  301.11798 73.0 2
  302.06073 47.0 1
  302.1145 143.0 4
  302.12869 45.0 1
  303.1431 17.0 0
  304.10345 18.0 0
  304.13824 85.0 2
  304.15808 25.0 1
  305.07373 19.0 0
  305.09412 30.0 1
  305.13239 58.0 1
  306.12329 90.0 2
  307.1145 54.0 1
  307.13809 75.0 2
  307.59613 18.0 0
  308.10648 98.0 2
  308.12399 601.0 15
  308.23758 24.0 1
  309.08963 23.0 1
  309.09958 51.0 1
  309.1358 57.0 1
  309.15103 29.0 1
  309.87036 40.0 1
  310.08896 39.0 1
  310.12204 42.0 1
  311.08243 158.0 4
  311.10443 1412.0 36
  311.13855 143.0 4
  311.15039 51.0 1
  311.28445 25.0 1
  311.31363 18.0 0
  312.1066 311.0 8
  312.15326 97.0 2
  312.47906 50.0 1
  313.08844 17.0 0
  313.10248 112.0 3
  313.12543 78.0 2
  313.1485 41.0 1
  313.61856 18.0 0
  314.1123 32.0 1
  315.19812 35.0 1
  316.13037 22.0 1
  316.84177 20.0 1
  317.06964 40.0 1
  317.1279 121.0 3
  318.09909 238.0 6
  318.11182 290.0 7
  318.1351 134.0 3
  319.08078 22.0 1
  319.10886 62.0 2
  319.13284 66.0 2
  319.32758 34.0 1
  320.12265 37.0 1
  320.13406 18.0 0
  320.28372 22.0 1
  321.14484 35.0 1
  321.15982 27.0 1
  322.09131 23.0 1
  322.10992 22.0 1
  322.1424 736.0 19
  322.73465 21.0 1
  323.06207 24.0 1
  323.10651 17.0 0
  323.13861 65.0 2
  323.15372 97.0 2
  323.18024 31.0 1
  325.08817 39.0 1
  325.11774 253.0 6
  325.13138 116.0 3
  325.15433 17.0 0
  326.05902 17.0 0
  326.09628 130.0 3
  326.11655 331.0 8
  326.13205 84.0 2
  326.36563 23.0 1
  327.03891 25.0 1
  327.11215 601.0 15
  327.14279 70.0 2
  328.10675 240.0 6
  328.1362 35.0 1
  329.108 41.0 1
  329.13782 32.0 1
  331.13715 38.0 1
  331.50925 38.0 1
  332.13205 96.0 2
  333.12466 20.0 1
  334.12836 32.0 1
  334.13977 33.0 1
  335.09219 68.0 2
  335.14011 1376.0 35
  335.17224 35.0 1
  336.08426 27.0 1
  336.12024 69.0 2
  336.14627 198.0 5
  336.1875 37.0 1
  337.11935 99.0 2
  337.14246 28.0 1
  338.12164 45.0 1
  338.13937 95.0 2
  338.83307 17.0 0
  339.13803 81.0 2
  339.255 22.0 1
  340.09772 25.0 1
  340.12405 31.0 1
  340.15521 959.0 24
  340.29977 17.0 0
  341.11832 39.0 1
  341.14972 227.0 6
  341.16431 247.0 6
  341.74701 17.0 0
  342.14072 40.0 1
  342.17084 20.0 1
  342.18237 19.0 0
  343.03876 29.0 1
  343.12927 2353.0 59
  343.6153 22.0 1
  344.06674 29.0 1
  344.08224 18.0 0
  344.09634 26.0 1
  344.12845 553.0 14
  344.15128 121.0 3
  344.7041 19.0 0
  344.77103 35.0 1
  345.01834 21.0 1
  345.11594 54.0 1
  345.1304 37.0 1
  346.07233 34.0 1
  346.11023 544.0 14
  346.61456 52.0 1
  347.10886 94.0 2
  347.14078 18.0 0
  349.17847 21.0 1
  349.5997 21.0 1
  350.06689 29.0 1
  350.1077 42.0 1
  350.14084 136.0 3
  351.17493 33.0 1
  351.41153 45.0 1
  351.9733 25.0 1
  352.16721 27.0 1
  353.15704 20.0 1
  354.15567 20.0 1
  357.5448 27.0 1
  360.10104 20.0 1
  360.12766 75.0 2
  360.14365 41.0 1
  361.69604 40.0 1
  362.11734 17.0 0
  362.21317 18.0 0
  363.1326 673.0 17
  363.30179 20.0 1
  364.07083 21.0 1
  364.09747 161.0 4
  364.11765 453.0 11
  364.13297 387.0 10
  364.8049 17.0 0
  365.10583 49.0 1
  365.13605 145.0 4
  365.15359 31.0 1
  366.13681 52.0 1
  367.12836 54.0 1
  367.16022 193.0 5
  368.17038 22.0 1
  368.18155 24.0 1
  376.86945 29.0 1
  377.15021 119.0 3
  377.17163 20.0 1
  378.04602 18.0 0
  378.08542 18.0 0
  378.13657 1090.0 27
  378.15005 303.0 8
  379.1105 56.0 1
  379.13977 250.0 6
  380.12787 48.0 1
  381.08136 32.0 1
  381.09695 110.0 3
  381.12027 94.0 2
  381.14722 1615.0 41
  381.17548 22.0 1
  381.2944 20.0 1
  381.67972 24.0 1
  382.13947 190.0 5
  382.15173 363.0 9
  383.08218 30.0 1
  383.14261 20.0 1
  384.14401 40.0 1
  384.72479 31.0 1
  384.85629 20.0 1
  385.13181 28.0 1
  386.66052 36.0 1
  387.88773 26.0 1
  388.76358 21.0 1
  389.13171 19.0 0
  389.19629 22.0 1
  390.55371 20.0 1
  393.11615 46.0 1
  393.14633 24.0 1
  393.1687 20.0 1
  393.18961 23.0 1
  395.09192 17.0 0
  395.10437 25.0 1
  395.11737 27.0 1
  395.16113 3009.0 76
  395.92111 23.0 1
  395.97839 36.0 1
  396.06445 41.0 1
  396.08899 164.0 4
  396.14764 4352.0 110
  396.17505 179.0 5
  396.45413 22.0 1
  396.75827 18.0 0
  397.11993 134.0 3
  397.14676 1184.0 30
  397.28311 24.0 1
  397.74292 18.0 0
  397.81354 18.0 0
  398.05688 24.0 1
  398.11966 45.0 1
  398.15643 233.0 6
  398.17691 36.0 1
  398.68945 24.0 1
  401.99557 17.0 0
  404.13055 26.0 1
  405.14169 18.0 0
  405.2048 18.0 0
  407.11542 29.0 1
  409.75793 20.0 1
  410.2626 18.0 0
  411.2001 20.0 1
  411.46646 38.0 1
  412.20676 18.0 0
  413.09644 73.0 2
  413.11481 59.0 1
  413.12967 117.0 3
  413.17017 7567.0 191
  413.26987 28.0 1
  413.48181 36.0 1
  413.5957 18.0 0
  414.01254 36.0 1
  414.02722 45.0 1
  414.0972 23.0 1
  414.13031 41.0 1
  414.17456 2281.0 57
  415.13562 20.0 1
  415.16965 291.0 7
  415.18588 172.0 4
  415.20352 25.0 1
  415.465 17.0 0
  416.18658 21.0 1
  417.11301 21.0 1
  417.54456 17.0 0
  418.19269 23.0 1
  424.7883 22.0 1
  429.14148 36.0 1
  429.89792 22.0 1
  430.28421 27.0 1
  432.1709 19.0 0
  435.15271 23.0 1
  435.3074 23.0 1
  437.18777 57.0 1
  438.2496 17.0 0
  442.17908 18.0 0
  444.92603 18.0 0
  447.37442 29.0 1
  449.0285 19.0 0
  455.1351 33.0 1
  455.1976 20.0 1
  456.13687 27.0 1
  456.18503 24.0 1
  458.14072 35.0 1
  462.14178 24.0 1
  471.09396 20.0 1
  473.15088 42.0 1
  473.19879 32.0 1
  476.09753 20.0 1
  478.57626 21.0 1
  479.17648 24.0 1
  481.18256 25.0 1
  487.98663 42.0 1
  488.18997 46.0 1
  490.15939 20.0 1
  491.03659 18.0 0
  493.1944 17.0 0
  496.50018 22.0 1
  498.84726 25.0 1
  502.16446 20.0 1
  502.20187 61.0 2
  502.21899 18.0 0
  503.21027 57.0 1
  504.36185 33.0 1
  505.17685 20.0 1
  506.17883 18.0 0
  507.16214 28.0 1
  507.17941 28.0 1
  508.18442 37.0 1
  509.16498 26.0 1
  512.20087 60.0 2
  513.19122 18.0 0
  514.23157 35.0 1
  517.10339 20.0 1
  521.17761 19.0 0
  521.19415 20.0 1
  524.19916 20.0 1
  525.17645 45.0 1
  526.15039 19.0 0
  526.19092 27.0 1
  529.21362 136.0 3
  529.2431 17.0 0
  530.22571 41.0 1
  531.21759 30.0 1
  539.20288 20.0 1
  540.17792 17.0 0
  543.19537 181.0 5
  543.22577 37.0 1
  544.18146 46.0 1
  544.20081 34.0 1
  545.20062 33.0 1
  546.21716 21.0 1
  557.17999 18.0 0
  557.20044 33.0 1
  557.23102 85.0 2
  558.01813 33.0 1
  558.14594 148.0 4
  558.20142 1711.0 43
  558.24164 17.0 0
  558.69171 33.0 1
  559.00128 23.0 1
  559.18286 173.0 4
  559.20514 543.0 14
  560.20032 101.0 3
  560.21576 85.0 2
  561.73273 17.0 0
  562.17975 23.0 1
  564.14545 17.0 0
  566.00354 19.0 0
  573.97241 30.0 1
  574.21649 23.0 1
  574.39685 18.0 0
  575.06067 27.0 1
  575.12469 159.0 4
  575.14679 343.0 9
  575.17047 192.0 5
  575.22363 39644.0 999
  575.2937 661.0 17
  575.34711 24.0 1
//
