ACCESSION: MSBNK-RIKEN-PR310654
RECORD_TITLE: Acetylaconitine; LC-ESI-QTOF; MS2
DATE: 2019.03.28
AUTHORS: Tetsuya Mori, Center for Sustainable Resource Science, RIKEN
LICENSE: CC BY-NC-SA
PUBLICATION: Tsugawa H., Nakabayashi R., Mori T., Yamada Y., Takahashi M., Rai A., Sugiyama R., Yamamoto H., Nakaya T., Yamazaki M., Kooke R., Bac-Molenaar JA., Oztolan-Erol N., Keurentjes JJB., Arita M., Saito K. (2019) "A cheminformatics approach to characterize metabolomes in stable-isotope-labeled organisms" Nature Methods 16(4):295-298. [doi:10.1038/s41592-019-0358-2]
COMMENT: Annotation level-1
CH$NAME: Acetylaconitine
CH$COMPOUND_CLASS: Alkaloids
CH$FORMULA: C36H49NO12
CH$EXACT_MASS: 687.783
CH$SMILES: CCN1CC2(COC)C3C(OC)C4C1C3(C1CC3(O)C(OC(=O)C5=CC=CC=C5)C1C4(OC(C)=O)C(O)C3OC)C(CC2OC(C)=O)OC
CH$IUPAC: InChI=1S/C36H49NO12/c1-8-37-16-33(17-43-4)22(47-18(2)38)14-23(44-5)35-21-15-34(42)30(48-32(41)20-12-10-9-11-13-20)24(21)36(49-19(3)39,29(40)31(34)46-7)25(28(35)37)26(45-6)27(33)35/h9-13,21-31,40,42H,8,14-17H2,1-7H3
CH$LINK: INCHIKEY RIPYIJVYDYCPKW-UHFFFAOYSA-N
AC$INSTRUMENT: LC, Waters Acquity UPLC System; MS, Waters Xevo G2 Q-Tof
AC$INSTRUMENT_TYPE: LC-ESI-QTOF
AC$MASS_SPECTROMETRY: MS_TYPE MS2
AC$MASS_SPECTROMETRY: ION_MODE POSITIVE
AC$MASS_SPECTROMETRY: COLLISION_ENERGY 6V
AC$MASS_SPECTROMETRY: DESOLVATION_GAS_FLOW 800/h
AC$MASS_SPECTROMETRY: DESOLVATION_TEMPERATURE 450 C
AC$MASS_SPECTROMETRY: IONIZATION ESI
AC$CHROMATOGRAPHY: CAPILLARY_VOLTAGE +3.00 kV
AC$CHROMATOGRAPHY: COLUMN_NAME Acquity bridged ethyl hybrid C18 (1.7 um, 2.1 mm * 100 mm, Waters)
AC$CHROMATOGRAPHY: COLUMN_TEMPERATURE 40 C
AC$CHROMATOGRAPHY: FLOW_GRADIENT A/B = (99.5%/0.5% at 0 min, 99.5%/0.5% at 0.1 min, 20%/80% at 10 min, 0.5%/99.5% at 10.1 min, 0.5%/99.5% at 12.0 min, 99.5%/0.5% at 12.1 min, 99.5%/0.5% at 15.0 min)
AC$CHROMATOGRAPHY: FLOW_RATE 0.3 ml/min at 0 min, 0.3 ml/min at 10 min, 0.4 ml/min at 10.1 min, 0.4 ml/min at 14.4 min, 0.3 ml/min at 14.5 min
AC$CHROMATOGRAPHY: RETENTION_TIME 6.17
AC$CHROMATOGRAPHY: SOLVENT A water including 0.1% formic acid
AC$CHROMATOGRAPHY: SOLVENT B acetonitrile including 0.1% formic acid
MS$FOCUSED_ION: PRECURSOR_TYPE [M+H]+
MS$FOCUSED_ION: PRECURSOR_M/Z 688.33275
PK$SPLASH: splash10-000i-0000019000-8e45f728e1d2e5d17817
PK$NUM_PEAK: 516
PK$PEAK: m/z int. rel.int.
  50.32804 34.0 1
  58.06467 63.0 1
  93.8904 33.0 1
  103.98466 26.0 0
  105.01474 24.0 0
  105.03086 137.0 2
  105.03607 202.0 3
  106.0273 17.0 0
  106.03861 40.0 1
  106.54414 17.0 0
  106.99645 25.0 0
  108.08105 20.0 0
  109.06296 24.0 0
  109.08521 18.0 0
  111.07922 76.0 1
  121.07282 21.0 0
  122.08926 20.0 0
  122.0972 17.0 0
  129.06664 22.0 0
  135.0833 18.0 0
  135.55864 19.0 0
  137.05966 72.0 1
  141.08751 44.0 1
  142.07254 36.0 1
  143.06927 21.0 0
  152.09744 39.0 1
  152.10886 68.0 1
  152.1147 17.0 0
  153.09677 20.0 0
  154.12267 17.0 0
  155.08467 23.0 0
  156.53699 27.0 0
  159.07658 21.0 0
  160.10356 22.0 0
  161.05273 20.0 0
  161.06285 27.0 0
  161.32788 22.0 0
  162.09366 18.0 0
  163.03995 17.0 0
  167.0858 27.0 0
  167.12726 37.0 1
  172.10898 33.0 1
  174.06606 23.0 0
  174.09175 20.0 0
  175.0881 39.0 1
  179.0773 27.0 0
  181.0844 23.0 0
  181.0947 18.0 0
  182.09344 20.0 0
  184.08875 28.0 0
  184.11121 70.0 1
  185.10033 22.0 0
  187.03699 18.0 0
  187.07249 20.0 0
  188.07385 80.0 1
  189.07278 18.0 0
  190.0827 41.0 1
  190.1187 28.0 0
  191.07156 18.0 0
  191.09053 17.0 0
  191.10634 24.0 0
  193.09927 21.0 0
  195.08409 20.0 0
  198.13336 18.0 0
  201.08717 83.0 1
  202.07208 20.0 0
  202.0833 24.0 0
  202.09201 28.0 0
  204.10176 21.0 0
  205.09167 27.0 0
  205.10051 18.0 0
  206.11487 19.0 0
  207.07561 20.0 0
  208.07603 19.0 0
  208.1875 24.0 0
  211.12819 45.0 1
  211.42786 27.0 0
  215.08087 38.0 1
  216.10312 18.0 0
  216.13406 19.0 0
  216.14525 18.0 0
  217.14285 17.0 0
  218.08017 20.0 0
  218.15511 239.0 4
  219.08113 25.0 0
  220.0988 19.0 0
  221.0959 19.0 0
  222.11946 45.0 1
  223.11368 18.0 0
  224.12085 31.0 1
  225.12105 23.0 0
  227.10313 45.0 1
  231.07608 20.0 0
  231.11507 24.0 0
  232.08815 20.0 0
  233.09612 41.0 1
  233.10788 21.0 0
  233.1158 18.0 0
  234.1123 26.0 0
  235.11368 40.0 1
  235.3382 22.0 0
  236.11043 18.0 0
  237.0681 21.0 0
  237.08192 22.0 0
  239.1011 20.0 0
  243.07306 20.0 0
  243.08476 18.0 0
  243.14226 18.0 0
  244.0981 17.0 0
  248.12666 22.0 0
  248.14609 17.0 0
  249.11317 18.0 0
  249.14723 27.0 0
  250.11626 19.0 0
  250.14262 26.0 0
  251.10756 22.0 0
  252.117 24.0 0
  258.14877 20.0 0
  259.07742 27.0 0
  259.1105 23.0 0
  261.0881 19.0 0
  263.11099 41.0 1
  263.15573 30.0 1
  266.12738 35.0 1
  266.60858 17.0 0
  267.08017 21.0 0
  274.1217 22.0 0
  276.10742 31.0 1
  277.077 24.0 0
  277.12488 46.0 1
  278.10678 22.0 0
  278.15933 25.0 0
  279.09814 41.0 1
  279.13739 18.0 0
  279.43137 18.0 0
  280.14407 22.0 0
  282.14014 18.0 0
  283.12076 23.0 0
  287.06381 50.0 1
  287.12943 21.0 0
  289.14566 25.0 0
  290.12274 23.0 0
  291.70636 18.0 0
  292.14777 17.0 0
  293.11179 70.0 1
  293.12592 68.0 1
  293.15228 58.0 1
  294.14175 23.0 0
  295.20566 22.0 0
  296.12119 18.0 0
  297.11063 21.0 0
  299.13608 47.0 1
  300.12698 20.0 0
  304.63617 32.0 1
  307.08826 20.0 0
  307.14496 66.0 1
  309.17514 20.0 0
  311.12909 18.0 0
  315.1709 22.0 0
  318.15567 44.0 1
  320.1709 26.0 0
  320.4455 20.0 0
  320.5047 23.0 0
  321.1507 18.0 0
  323.14761 19.0 0
  325.1218 46.0 1
  325.1445 78.0 1
  325.20337 17.0 0
  326.1412 17.0 0
  326.18851 23.0 0
  326.21631 18.0 0
  326.23669 26.0 0
  327.14093 18.0 0
  327.59058 18.0 0
  329.11118 20.0 0
  330.70996 17.0 0
  331.88678 21.0 0
  332.16647 31.0 1
  336.16492 17.0 0
  337.31116 21.0 0
  337.73291 25.0 0
  339.16168 20.0 0
  340.18851 31.0 1
  340.59158 19.0 0
  341.19519 18.0 0
  343.68683 18.0 0
  346.939 19.0 0
  350.16336 121.0 2
  350.17935 155.0 3
  350.19949 24.0 0
  351.18542 50.0 1
  351.5419 21.0 0
  351.9679 18.0 0
  352.19189 35.0 1
  352.21027 23.0 0
  354.19989 134.0 2
  354.21768 20.0 0
  355.21118 57.0 1
  356.20392 28.0 0
  357.17453 19.0 0
  357.19269 30.0 1
  359.05249 17.0 0
  361.42917 17.0 0
  364.20645 36.0 1
  366.20309 30.0 1
  367.29977 20.0 0
  368.18665 18.0 0
  368.77475 21.0 0
  369.71155 28.0 0
  371.11368 17.0 0
  371.80865 38.0 1
  373.11612 18.0 0
  374.59647 20.0 0
  375.51379 38.0 1
  377.60254 17.0 0
  381.10172 21.0 0
  381.82596 27.0 0
  382.19321 45.0 1
  382.21094 43.0 1
  382.6084 23.0 0
  383.18988 17.0 0
  383.91388 21.0 0
  384.19806 25.0 0
  386.2193 60.0 1
  386.22812 23.0 0
  387.19885 18.0 0
  387.87073 27.0 0
  390.35281 22.0 0
  392.39059 29.0 0
  393.53293 17.0 0
  395.13379 29.0 0
  396.21451 24.0 0
  398.17331 25.0 0
  399.69836 21.0 0
  399.90292 19.0 0
  401.14938 22.0 0
  401.21576 28.0 0
  401.45578 22.0 0
  403.6929 22.0 0
  407.66443 18.0 0
  409.61053 26.0 0
  410.06561 19.0 0
  410.19852 345.0 6
  410.84097 27.0 0
  411.1994 51.0 1
  411.21194 54.0 1
  411.43402 20.0 0
  412.21274 24.0 0
  414.15674 24.0 0
  414.19522 22.0 0
  414.22424 99.0 2
  414.24478 17.0 0
  414.42358 43.0 1
  415.23599 26.0 0
  417.93881 28.0 0
  418.20224 17.0 0
  418.23145 19.0 0
  418.24521 50.0 1
  418.50369 19.0 0
  418.5246 28.0 0
  419.20172 35.0 1
  419.23627 20.0 0
  419.2951 26.0 0
  419.39658 31.0 1
  419.93314 50.0 1
  422.04611 20.0 0
  422.10156 18.0 0
  428.17133 25.0 0
  428.19553 22.0 0
  433.24524 22.0 0
  434.35669 20.0 0
  435.11627 19.0 0
  435.90204 19.0 0
  440.77747 17.0 0
  442.21588 24.0 0
  442.3847 18.0 0
  443.11743 21.0 0
  443.18808 18.0 0
  444.52725 20.0 0
  446.15958 17.0 0
  446.20065 24.0 0
  446.25409 147.0 2
  446.2681 96.0 2
  446.69806 28.0 0
  447.16708 17.0 0
  447.18021 17.0 0
  447.20453 51.0 1
  447.26962 41.0 1
  447.61703 19.0 0
  448.7225 23.0 0
  449.21286 18.0 0
  450.09787 18.0 0
  457.46011 22.0 0
  461.05914 17.0 0
  461.2179 39.0 1
  464.26923 25.0 0
  464.3941 18.0 0
  468.01398 17.0 0
  472.19836 143.0 2
  473.19479 46.0 1
  473.22705 62.0 1
  473.39563 21.0 0
  474.23038 41.0 1
  474.89633 19.0 0
  476.10196 18.0 0
  476.19907 36.0 1
  476.2326 147.0 2
  476.25293 288.0 5
  477.10388 24.0 0
  477.15274 20.0 0
  477.21744 20.0 0
  477.23624 49.0 1
  477.24869 87.0 1
  477.94205 21.0 0
  477.95566 17.0 0
  478.25491 23.0 0
  478.38528 24.0 0
  478.61893 33.0 1
  479.20483 19.0 0
  479.37012 52.0 1
  480.60745 30.0 1
  480.75613 25.0 0
  487.22754 18.0 0
  491.52838 18.0 0
  492.25223 35.0 1
  493.26007 24.0 0
  493.56549 21.0 0
  494.66476 20.0 0
  494.94629 20.0 0
  495.49469 27.0 0
  495.8494 26.0 0
  496.25562 29.0 0
  502.47266 37.0 1
  503.23004 17.0 0
  504.19598 40.0 1
  504.23169 167.0 3
  504.24948 176.0 3
  505.19196 26.0 0
  505.2124 48.0 1
  505.23157 135.0 2
  505.24731 79.0 1
  505.46332 17.0 0
  505.97873 19.0 0
  506.25034 20.0 0
  507.14377 42.0 1
  507.21768 37.0 1
  507.25125 27.0 0
  507.29111 17.0 0
  508.17657 47.0 1
  508.25394 65.0 1
  508.27594 81.0 1
  508.29669 20.0 0
  509.26794 33.0 1
  509.28839 20.0 0
  510.26596 70.0 1
  510.98019 22.0 0
  511.23926 21.0 0
  511.25629 18.0 0
  511.46622 17.0 0
  511.81332 22.0 0
  512.5498 30.0 1
  512.96246 20.0 0
  514.15845 17.0 0
  516.19891 25.0 0
  516.38666 18.0 0
  518.01678 17.0 0
  518.71753 20.0 0
  518.74963 21.0 0
  520.27325 19.0 0
  522.52362 18.0 0
  523.05615 20.0 0
  524.25751 20.0 0
  526.65656 20.0 0
  527.46588 29.0 0
  527.54199 19.0 0
  528.67285 26.0 0
  529.48529 47.0 1
  533.7002 24.0 0
  535.85223 21.0 0
  536.07837 24.0 0
  536.20996 93.0 2
  536.2641 1545.0 26
  536.30597 54.0 1
  536.34827 43.0 1
  537.07794 20.0 0
  537.20801 21.0 0
  537.25177 241.0 4
  537.27203 350.0 6
  537.29248 129.0 2
  537.53107 43.0 1
  537.54352 20.0 0
  537.63708 29.0 0
  537.72351 17.0 0
  538.26123 39.0 1
  538.29291 20.0 0
  539.36926 28.0 0
  540.58362 21.0 0
  546.93958 19.0 0
  555.72705 17.0 0
  559.47064 30.0 1
  559.51917 23.0 0
  562.17896 34.0 1
  564.25873 40.0 1
  564.27667 26.0 0
  564.30133 18.0 0
  565.25549 20.0 0
  565.66461 17.0 0
  566.51324 18.0 0
  568.20154 54.0 1
  568.27563 531.0 9
  568.29114 1606.0 27
  568.44806 21.0 0
  568.49072 17.0 0
  569.28363 238.0 4
  569.30042 338.0 6
  569.68195 17.0 0
  570.06299 19.0 0
  570.25745 35.0 1
  570.28748 73.0 1
  570.30884 65.0 1
  570.33398 25.0 0
  570.88849 30.0 1
  571.07837 18.0 0
  571.21771 18.0 0
  571.37726 55.0 1
  576.20105 27.0 0
  582.29291 17.0 0
  584.78546 18.0 0
  586.73676 18.0 0
  587.24915 18.0 0
  594.28198 18.0 0
  595.98071 17.0 0
  596.19757 20.0 0
  596.23932 146.0 2
  596.28662 1503.0 25
  596.35345 55.0 1
  597.23993 19.0 0
  597.27631 369.0 6
  597.30615 218.0 4
  597.49792 20.0 0
  598.1875 43.0 1
  598.26074 28.0 0
  598.30261 164.0 3
  598.57086 19.0 0
  600.72607 20.0 0
  609.3241 29.0 0
  610.72705 17.0 0
  610.88745 18.0 0
  615.2804 21.0 0
  615.98755 26.0 0
  617.17786 18.0 0
  623.40912 19.0 0
  625.09113 21.0 0
  626.89551 32.0 1
  627.02631 17.0 0
  627.63116 19.0 0
  628.13867 20.0 0
  628.21265 78.0 1
  628.26105 321.0 5
  628.31201 7734.0 131
  628.38184 58.0 1
  628.59015 30.0 1
  628.62549 20.0 0
  629.24927 184.0 3
  629.32074 2425.0 41
  629.42035 30.0 1
  629.71033 21.0 0
  629.86688 18.0 0
  630.18158 20.0 0
  630.30872 587.0 10
  630.33234 295.0 5
  630.84082 31.0 1
  631.04016 25.0 0
  631.29669 62.0 1
  631.32812 57.0 1
  631.51257 23.0 0
  632.4469 53.0 1
  632.88635 17.0 0
  637.1806 18.0 0
  642.28467 33.0 1
  643.57196 20.0 0
  644.51129 17.0 0
  648.04913 25.0 0
  651.32465 25.0 0
  656.29309 72.0 1
  656.60107 20.0 0
  657.37445 25.0 0
  658.07288 17.0 0
  659.71667 35.0 1
  663.78015 25.0 0
  665.62695 27.0 0
  666.6037 22.0 0
  667.11005 18.0 0
  672.50281 22.0 0
  674.18073 20.0 0
  675.17029 18.0 0
  676.2124 18.0 0
  676.66113 20.0 0
  677.6015 22.0 0
  677.98438 27.0 0
  680.1416 20.0 0
  683.75574 55.0 1
  684.5285 18.0 0
  685.10516 17.0 0
  685.58191 17.0 0
  687.44324 23.0 0
  687.46545 18.0 0
  687.50671 17.0 0
  688.15967 101.0 2
  688.19495 53.0 1
  688.2453 711.0 12
  688.27734 194.0 3
  688.33264 59015.0 999
  688.40796 744.0 13
  688.47119 37.0 1
  688.49426 17.0 0
//
