ACCESSION: MSBNK-RIKEN-PR300155
RECORD_TITLE: Gardneramine; LC-ESI-QTOF; MS2
DATE: 2019.03.28
AUTHORS: Tetsuya Mori, Center for Sustainable Resource Science, RIKEN
LICENSE: CC BY-NC-SA
PUBLICATION: Tsugawa H., Nakabayashi R., Mori T., Yamada Y., Takahashi M., Rai A., Sugiyama R., Yamamoto H., Nakaya T., Yamazaki M., Kooke R., Bac-Molenaar JA., Oztolan-Erol N., Keurentjes JJB., Arita M., Saito K. (2019) "A cheminformatics approach to characterize metabolomes in stable-isotope-labeled organisms" Nature Methods 16(4):295-298. [doi:10.1038/s41592-019-0358-2]
COMMENT: registered in RIKEN PlaSMA
CH$NAME: Gardneramine
CH$COMPOUND_CLASS: 3-alkylindoles
CH$FORMULA: C23H28N2O5
CH$EXACT_MASS: 412.486
CH$SMILES: COC\C=C1/CN2[C@H]3CC45C2C[C@H]1[C@@H]3COC4=NC1=C5C(OC)=C(OC)C=C1OC
CH$IUPAC: InChI=1S/C23H28N2O5/c1-26-6-5-12-10-25-15-9-23-18(25)7-13(12)14(15)11-30-22(23)24-20-16(27-2)8-17(28-3)21(29-4)19(20)23/h5,8,13-15,18H,6-7,9-11H2,1-4H3/b12-5+/t13-,14+,15+,18?,23?/m1/s1
CH$LINK: INCHIKEY RIMDDIPKIZTBHU-KPDHXFAYSA-N
AC$INSTRUMENT: LC, Waters Acquity UPLC System; MS, Waters Xevo G2 Q-Tof
AC$INSTRUMENT_TYPE: LC-ESI-QTOF
AC$MASS_SPECTROMETRY: MS_TYPE MS2
AC$MASS_SPECTROMETRY: ION_MODE POSITIVE
AC$MASS_SPECTROMETRY: COLLISION_ENERGY 6V
AC$MASS_SPECTROMETRY: DESOLVATION_GAS_FLOW 800/h
AC$MASS_SPECTROMETRY: DESOLVATION_TEMPERATURE 450 C
AC$MASS_SPECTROMETRY: IONIZATION ESI
AC$CHROMATOGRAPHY: CAPILLARY_VOLTAGE +3.00 kV
AC$CHROMATOGRAPHY: COLUMN_NAME Acquity bridged ethyl hybrid C18 (1.7 um, 2.1 mm * 100 mm, Waters)
AC$CHROMATOGRAPHY: COLUMN_TEMPERATURE 40 C
AC$CHROMATOGRAPHY: FLOW_GRADIENT A/B = (99.5%/0.5% at 0 min, 99.5%/0.5% at 0.1 min, 20%/80% at 10 min, 0.5%/99.5% at 10.1 min, 0.5%/99.5% at 12.0 min, 99.5%/0.5% at 12.1 min, 99.5%/0.5% at 15.0 min)
AC$CHROMATOGRAPHY: FLOW_RATE 0.3 ml/min at 0 min, 0.3 ml/min at 10 min, 0.4 ml/min at 10.1 min, 0.4 ml/min at 14.4 min, 0.3 ml/min at 14.5 min
AC$CHROMATOGRAPHY: RETENTION_TIME 3.822467
AC$CHROMATOGRAPHY: SOLVENT A water including 0.1% formic acid
AC$CHROMATOGRAPHY: SOLVENT B acetonitrile including 0.1% formic acid
MS$FOCUSED_ION: PRECURSOR_TYPE [M+H]+
MS$FOCUSED_ION: PRECURSOR_M/Z 413.2070985
PK$SPLASH: splash10-014i-0692000000-4de5a58fbf43a501d7e2
PK$NUM_PEAK: 996
PK$PEAK: m/z int. rel.int.
  65.02766 9.0 9
  67.05465 8.0 8
  67.72279 7.0 7
  67.92416 8.0 8
  71.05213 19.0 19
  77.032 15.0 15
  77.03655 30.0 30
  77.04228 9.0 9
  78.04357 15.0 15
  79.05426 143.0 143
  80.05396 24.0 24
  81.04809 12.0 12
  81.0628 17.0 17
  81.07004 10.0 10
  81.21707 7.0 7
  82.03645 9.0 9
  86.61717 6.0 6
  91.04076 10.0 10
  91.0534 180.0 180
  91.46793 8.0 8
  92.0394 6.0 6
  92.05288 17.0 17
  92.06871 11.0 11
  92.52901 10.0 10
  93.03805 8.0 8
  93.05606 67.0 67
  93.07044 26.0 26
  94.0639 33.0 33
  95.05022 36.0 36
  98.05684 16.0 16
  100.07459 9.0 9
  103.0344 7.0 7
  103.05396 26.0 26
  103.06005 26.0 26
  104.01241 7.0 7
  104.04433 10.0 10
  104.05689 18.0 18
  104.063 9.0 9
  105.04237 8.0 8
  105.06965 157.0 157
  106.0361 14.0 14
  106.06544 377.0 377
  106.08199 13.0 13
  107.05871 10.0 10
  107.0715 118.0 118
  107.08604 26.0 26
  108.08014 45.0 45
  109.06136 32.0 32
  109.06901 9.0 9
  109.08156 8.0 8
  110.03046 6.0 6
  110.06056 11.0 11
  110.07208 9.0 9
  111.07827 10.0 10
  115.05321 53.0 53
  116.03934 6.0 6
  116.04634 23.0 23
  117.05269 17.0 17
  117.0577 69.0 69
  117.06638 51.0 51
  117.0742 27.0 27
  117.07963 13.0 13
  118.04182 12.0 12
  118.05776 21.0 21
  118.06562 81.0 81
  119.04449 8.0 8
  119.06305 15.0 15
  119.07478 74.0 74
  119.0862 32.0 32
  120.04646 8.0 8
  120.06346 20.0 20
  120.07844 391.0 391
  120.09159 12.0 12
  121.05003 14.0 14
  121.08305 37.0 37
  121.09287 12.0 12
  121.10308 8.0 8
  121.2203 9.0 9
  122.08237 11.0 11
  122.09136 10.0 10
  122.50826 8.0 8
  123.07655 30.0 30
  123.08546 27.0 27
  124.08073 24.0 24
  125.02071 8.0 8
  127.0119 15.0 15
  127.03889 8.0 8
  127.05051 18.0 18
  128.05315 29.0 29
  128.05956 10.0 10
  129.06715 18.0 18
  130.05635 29.0 29
  130.06508 105.0 105
  131.03783 6.0 6
  131.04497 20.0 20
  131.05794 11.0 11
  131.06909 40.0 40
  131.07652 60.0 60
  131.08203 26.0 26
  132.02545 9.0 9
  132.03609 20.0 20
  132.04327 26.0 26
  132.05173 6.0 6
  132.06465 21.0 21
  132.07948 203.0 203
  132.09845 14.0 14
  133.02716 10.0 10
  133.05408 29.0 29
  133.06651 42.0 42
  133.08482 64.0 64
  133.72484 7.0 7
  134.02489 14.0 14
  134.0334 9.0 9
  134.04749 12.0 12
  134.06055 85.0 85
  134.08737 15.0 15
  134.09731 66.0 66
  134.56718 7.0 7
  134.74251 10.0 10
  135.03818 6.0 6
  135.06618 11.0 11
  135.09779 12.0 12
  136.03661 20.0 20
  136.06935 32.0 32
  136.76523 9.0 9
  137.0545 8.0 8
  137.08693 7.0 7
  137.09586 22.0 22
  137.10597 20.0 20
  137.70488 6.0 6
  138.08968 47.0 47
  139.0551 18.0 18
  139.09328 12.0 12
  140.05255 8.0 8
  140.10471 16.0 16
  141.06743 35.0 35
  142.05193 8.0 8
  142.06834 18.0 18
  143.0611 18.0 18
  143.07378 46.0 46
  144.03296 7.0 7
  144.04526 8.0 8
  144.06595 33.0 33
  144.08115 89.0 89
  145.05064 17.0 17
  145.05762 32.0 32
  145.0665 12.0 12
  145.07179 8.0 8
  145.08549 82.0 82
  145.66217 8.0 8
  146.02498 11.0 11
  146.03404 8.0 8
  146.04083 14.0 14
  146.04955 15.0 15
  146.05972 92.0 92
  146.06662 42.0 42
  146.09416 150.0 150
  146.10049 75.0 75
  146.10834 21.0 21
  146.57187 10.0 10
  147.0179 6.0 6
  147.02679 11.0 11
  147.03282 11.0 11
  147.04527 9.0 9
  147.06058 12.0 12
  147.07109 8.0 8
  147.09897 42.0 42
  147.53946 8.0 8
  148.03207 18.0 18
  148.03955 69.0 69
  148.0564 28.0 28
  148.07335 38.0 38
  148.08551 15.0 15
  148.10574 10.0 10
  148.11354 8.0 8
  149.04955 18.0 18
  149.06949 11.0 11
  149.08647 26.0 26
  149.09451 6.0 6
  149.11702 9.0 9
  149.96527 8.0 8
  150.09181 25.0 25
  151.03632 9.0 9
  151.09935 9.0 9
  152.04713 6.0 6
  152.07494 8.0 8
  152.10802 74.0 74
  152.36803 15.0 15
  153.04602 27.0 27
  153.07703 10.0 10
  154.05159 8.0 8
  154.06651 37.0 37
  154.68504 8.0 8
  155.0593 19.0 19
  155.06599 17.0 17
  155.07315 18.0 18
  156.03545 17.0 17
  156.08163 82.0 82
  157.08841 36.0 36
  158.03084 11.0 11
  158.05678 15.0 15
  158.08522 18.0 18
  158.09651 48.0 48
  159.02501 18.0 18
  159.03896 21.0 21
  159.05902 12.0 12
  159.06761 9.0 9
  159.07965 8.0 8
  159.1091 8.0 8
  160.02087 9.0 9
  160.03926 55.0 55
  160.04793 14.0 14
  160.07466 60.0 60
  160.11157 24.0 24
  160.2888 7.0 7
  161.01616 13.0 13
  161.03651 33.0 33
  161.05106 31.0 31
  161.07986 27.0 27
  161.08713 23.0 23
  161.11565 11.0 11
  161.34724 12.0 12
  161.90788 13.0 13
  162.0396 11.0 11
  162.0486 55.0 55
  162.05605 138.0 138
  162.06618 22.0 22
  162.08574 11.0 11
  162.91539 7.0 7
  163.05544 42.0 42
  163.07208 8.0 8
  164.04037 18.0 18
  164.06541 31.0 31
  164.07657 17.0 17
  164.0948 28.0 28
  164.10841 16.0 16
  164.5932 9.0 9
  165.03795 14.0 14
  165.07478 18.0 18
  165.10324 12.0 12
  165.10968 15.0 15
  166.03838 6.0 6
  166.07106 8.0 8
  166.08475 11.0 11
  166.11752 8.0 8
  167.07085 6.0 6
  168.05603 17.0 17
  168.06822 25.0 25
  168.08356 12.0 12
  169.05176 12.0 12
  169.08734 9.0 9
  170.05315 16.0 16
  170.06055 43.0 43
  170.0726 7.0 7
  170.10059 18.0 18
  171.05087 51.0 51
  171.05994 14.0 14
  171.07114 20.0 20
  172.03619 73.0 73
  172.07338 29.0 29
  172.1144 20.0 20
  172.60413 8.0 8
  173.0291 9.0 9
  173.04239 14.0 14
  173.08794 34.0 34
  173.12057 8.0 8
  174.04715 22.0 22
  174.05714 44.0 44
  174.06639 18.0 18
  174.3261 14.0 14
  175.02808 18.0 18
  175.06342 50.0 50
  175.08592 8.0 8
  175.11583 8.0 8
  176.00612 11.0 11
  176.03468 29.0 29
  176.0515 8.0 8
  176.06982 172.0 172
  176.07741 48.0 48
  176.09972 11.0 11
  176.15436 8.0 8
  176.47971 7.0 7
  176.57286 8.0 8
  177.03445 12.0 12
  177.04503 32.0 32
  177.05464 14.0 14
  177.07248 94.0 94
  177.08195 15.0 15
  178.04448 21.0 21
  178.05524 39.0 39
  178.07172 10.0 10
  178.08276 8.0 8
  178.12413 26.0 26
  179.04935 12.0 12
  179.06816 15.0 15
  179.92033 10.0 10
  180.02499 21.0 21
  180.07875 16.0 16
  180.31363 8.0 8
  180.46082 8.0 8
  180.93196 15.0 15
  181.0515 11.0 11
  181.06572 9.0 9
  181.07693 15.0 15
  181.08788 26.0 26
  181.21178 18.0 18
  181.30559 6.0 6
  182.03363 9.0 9
  182.04738 11.0 11
  182.07477 17.0 17
  182.08939 24.0 24
  182.10611 8.0 8
  182.14706 8.0 8
  183.05617 18.0 18
  183.07034 28.0 28
  183.40559 10.0 10
  184.06396 36.0 36
  184.07387 8.0 8
  184.18973 20.0 20
  184.8084 7.0 7
  184.95355 15.0 15
  185.03018 19.0 19
  185.05392 45.0 45
  185.0697 38.0 38
  186.01036 20.0 20
  186.05898 58.0 58
  186.071 18.0 18
  186.09157 16.0 16
  187.02577 11.0 11
  187.05278 44.0 44
  187.06123 34.0 34
  187.0761 11.0 11
  188.0229 23.0 23
  188.033 17.0 17
  188.0452 9.0 9
  188.05936 10.0 10
  188.06842 24.0 24
  188.07547 17.0 17
  189.0181 15.0 15
  189.0416 41.0 41
  189.05342 46.0 46
  189.06375 26.0 26
  189.08061 64.0 64
  189.10654 12.0 12
  189.40932 8.0 8
  190.0265 20.0 20
  190.04857 577.0 576
  190.07393 9.0 9
  190.11679 6.0 6
  190.18137 8.0 8
  190.82466 8.0 8
  191.04849 39.0 39
  191.05832 99.0 99
  191.07709 18.0 18
  191.09021 36.0 36
  192.0005 29.0 29
  192.02869 127.0 127
  192.05952 46.0 46
  192.06989 28.0 28
  192.08372 32.0 32
  192.22368 8.0 8
  193.46548 12.0 12
  194.04646 23.0 23
  194.06454 12.0 12
  194.08423 9.0 9
  194.10419 16.0 16
  195.06908 12.0 12
  195.07649 18.0 18
  195.08887 15.0 15
  195.10066 35.0 35
  196.07573 9.0 9
  197.03438 19.0 19
  197.04314 7.0 7
  197.08311 34.0 34
  198.056 30.0 30
  198.07626 19.0 19
  198.08502 7.0 7
  198.09882 8.0 8
  198.12224 14.0 14
  198.9866 7.0 7
  199.02512 7.0 7
  199.03943 18.0 18
  199.05066 39.0 39
  199.06323 42.0 42
  199.08679 62.0 62
  199.59315 11.0 11
  200.03018 9.0 9
  200.04169 6.0 6
  200.05504 20.0 20
  200.06438 64.0 64
  200.07645 8.0 8
  200.30508 8.0 8
  201.01889 27.0 27
  201.0314 20.0 20
  201.04477 12.0 12
  201.06746 8.0 8
  201.10072 12.0 12
  202.02538 7.0 7
  202.04308 79.0 79
  202.05309 66.0 66
  202.0793 27.0 27
  202.09627 36.0 36
  202.9922 7.0 7
  203.02148 78.0 78
  203.0276 30.0 30
  203.04352 35.0 35
  203.05194 26.0 26
  203.0612 17.0 17
  203.09068 9.0 9
  203.10071 10.0 10
  204.03142 31.0 31
  204.04964 8.0 8
  204.06068 80.0 80
  204.06985 106.0 106
  204.09857 11.0 11
  204.25508 7.0 7
  204.88652 8.0 8
  205.03279 9.0 9
  205.06833 65.0 65
  205.07822 94.0 94
  205.10617 7.0 7
  206.03705 7.0 7
  206.04869 38.0 38
  206.06709 8.0 8
  206.0822 44.0 44
  206.09714 21.0 21
  207.03587 8.0 8
  207.05414 58.0 58
  207.06694 12.0 12
  207.08725 13.0 13
  207.1133 40.0 40
  208.04565 9.0 9
  208.05814 15.0 15
  208.07979 16.0 16
  208.11009 19.0 19
  208.74475 12.0 12
  209.06888 18.0 18
  209.09261 23.0 23
  209.10509 9.0 9
  210.05603 10.0 10
  210.06837 12.0 12
  210.08539 37.0 37
  210.09969 12.0 12
  211.05569 22.0 22
  211.06387 21.0 21
  211.1227 11.0 11
  212.05531 22.0 22
  212.07323 47.0 47
  212.08734 14.0 14
  212.10571 12.0 12
  212.34776 17.0 17
  212.96136 7.0 7
  213.03072 8.0 8
  213.04167 35.0 35
  213.06824 63.0 63
  214.03609 29.0 29
  214.05769 8.0 8
  214.07867 8.0 8
  214.08751 15.0 15
  214.65994 6.0 6
  215.02242 17.0 17
  215.0396 45.0 45
  215.05931 70.0 70
  215.07051 28.0 28
  215.0849 10.0 10
  215.09358 9.0 9
  216.0265 12.0 12
  216.04214 18.0 18
  216.06206 232.0 232
  216.0818 35.0 35
  216.09349 21.0 21
  216.1102 10.0 10
  216.42065 9.0 9
  216.98927 11.0 11
  217.03767 80.0 80
  217.05313 83.0 83
  217.06256 301.0 301
  217.78249 7.0 7
  218.04405 1000.0 999
  218.06116 95.0 95
  218.07973 50.0 50
  218.10155 11.0 11
  219.03833 65.0 65
  219.04936 140.0 140
  219.06769 8.0 8
  219.07767 8.0 8
  219.08984 8.0 8
  219.1044 9.0 9
  220.03593 23.0 23
  220.05341 26.0 26
  220.06169 47.0 47
  220.08255 36.0 36
  220.09578 15.0 15
  220.14392 9.0 9
  220.29361 6.0 6
  221.06441 35.0 35
  221.09337 41.0 41
  222.08003 17.0 17
  222.09271 27.0 27
  222.13225 14.0 14
  223.06528 32.0 32
  223.09171 20.0 20
  223.10152 20.0 20
  224.03584 11.0 11
  224.06651 24.0 24
  224.08493 7.0 7
  224.0943 11.0 11
  225.05243 14.0 14
  226.04074 13.0 13
  226.05273 23.0 23
  226.07047 28.0 28
  226.08339 40.0 40
  226.09927 8.0 8
  226.47017 11.0 11
  227.03476 9.0 9
  227.04459 8.0 8
  227.08023 47.0 47
  227.09198 24.0 24
  227.11786 14.0 14
  227.83751 8.0 8
  228.06346 139.0 139
  228.08495 15.0 15
  228.09091 6.0 6
  228.10727 12.0 12
  229.06293 86.0 86
  229.12512 17.0 17
  229.97157 8.0 8
  230.05167 47.0 47
  230.07156 110.0 110
  230.08131 38.0 38
  230.11847 20.0 20
  230.98531 19.0 19
  231.03615 33.0 33
  231.04605 76.0 76
  231.06729 34.0 34
  231.1021 25.0 25
  232.01704 6.0 6
  232.02383 11.0 11
  232.03798 32.0 32
  232.05502 137.0 137
  232.06291 119.0 119
  232.08235 7.0 7
  232.09673 33.0 33
  232.79684 6.0 6
  232.98134 8.0 8
  233.04553 32.0 32
  233.06667 244.0 244
  233.08556 23.0 23
  233.10529 8.0 8
  234.05225 9.0 9
  234.06573 59.0 59
  234.08447 64.0 64
  234.09978 18.0 18
  234.18683 8.0 8
  235.05228 20.0 20
  235.06474 37.0 37
  235.08206 23.0 23
  235.10275 24.0 24
  235.12202 8.0 8
  236.02074 9.0 9
  236.05083 9.0 9
  236.06357 53.0 53
  236.07219 15.0 15
  236.09233 16.0 16
  237.05861 31.0 31
  237.07588 36.0 36
  237.09361 22.0 22
  237.1069 16.0 16
  237.12198 15.0 15
  237.13394 7.0 7
  237.40901 9.0 9
  238.04948 22.0 22
  238.07036 41.0 41
  238.08923 30.0 30
  238.11266 8.0 8
  238.286 10.0 10
  238.36052 8.0 8
  239.05545 14.0 14
  239.08269 15.0 15
  239.0943 11.0 11
  239.11769 8.0 8
  240.03737 9.0 9
  240.05933 24.0 24
  240.0713 30.0 30
  240.10326 12.0 12
  241.04323 14.0 14
  241.0649 53.0 53
  241.09077 12.0 12
  241.77435 13.0 13
  242.04024 46.0 46
  242.05835 8.0 8
  242.07011 32.0 32
  242.08173 23.0 23
  242.32729 6.0 6
  243.01599 9.0 9
  243.04135 123.0 123
  243.06537 8.0 8
  243.07675 15.0 15
  243.10185 9.0 9
  244.04269 37.0 37
  244.05569 120.0 120
  244.06895 50.0 50
  244.09041 12.0 12
  244.10036 9.0 9
  245.02022 8.0 8
  245.04156 46.0 46
  245.0551 164.0 164
  245.08846 42.0 42
  246.03232 19.0 19
  246.0526 9.0 9
  246.05945 24.0 24
  246.07068 18.0 18
  246.09097 44.0 44
  246.81084 7.0 7
  247.05463 12.0 12
  247.06454 22.0 22
  247.08015 35.0 35
  247.10022 6.0 6
  247.13562 6.0 6
  248.08121 27.0 27
  248.10216 21.0 21
  248.11453 6.0 6
  248.12959 7.0 7
  248.97537 11.0 11
  249.07428 22.0 22
  249.08438 13.0 13
  249.10022 30.0 30
  249.11142 13.0 13
  250.06177 7.0 7
  250.09734 9.0 9
  250.1342 25.0 25
  250.36261 7.0 7
  250.93941 14.0 14
  251.02054 9.0 9
  251.04617 7.0 7
  251.06035 25.0 25
  251.08157 39.0 39
  251.10318 13.0 13
  251.18539 13.0 13
  252.02002 8.0 8
  252.05612 51.0 51
  252.07494 13.0 13
  252.10757 24.0 24
  253.04715 21.0 21
  253.06567 30.0 30
  253.08147 43.0 43
  253.09727 10.0 10
  254.03149 9.0 9
  254.05119 12.0 12
  254.06474 18.0 18
  254.07635 52.0 52
  254.10507 9.0 9
  254.12593 12.0 12
  254.26755 9.0 9
  255.04686 13.0 13
  255.06932 13.0 13
  255.09241 21.0 21
  255.40215 7.0 7
  256.04333 11.0 11
  256.05701 24.0 24
  256.07126 19.0 19
  256.08578 26.0 26
  257.03418 6.0 6
  257.05502 72.0 72
  257.07687 14.0 14
  257.11636 6.0 6
  258.04111 13.0 13
  258.06635 105.0 105
  258.07773 39.0 39
  258.08856 15.0 15
  258.11429 10.0 10
  258.79877 6.0 6
  259.04977 8.0 8
  259.07065 88.0 88
  259.08698 44.0 44
  259.10986 47.0 47
  260.0528 11.0 11
  260.07458 9.0 9
  260.08493 20.0 20
  260.10385 15.0 15
  260.11435 11.0 11
  261.05057 11.0 11
  261.07458 15.0 15
  261.09225 37.0 37
  261.10806 16.0 16
  261.12738 15.0 15
  261.28546 9.0 9
  261.41592 9.0 9
  261.99826 6.0 6
  262.04773 27.0 27
  262.05801 10.0 10
  262.07782 8.0 8
  262.08984 19.0 19
  262.1088 65.0 65
  262.13083 7.0 7
  262.59586 10.0 10
  262.85364 7.0 7
  263.07532 28.0 28
  263.09921 7.0 7
  263.12057 24.0 24
  264.06903 8.0 8
  264.08173 8.0 8
  264.10303 42.0 42
  264.16904 6.0 6
  265.05579 12.0 12
  265.06897 77.0 77
  265.09995 20.0 20
  265.11411 14.0 14
  265.14694 8.0 8
  265.17654 9.0 9
  266.04727 10.0 10
  266.07639 33.0 33
  266.11041 49.0 49
  266.63922 6.0 6
  267.04559 17.0 17
  267.07358 43.0 43
  267.09 34.0 34
  267.33115 8.0 8
  268.05365 7.0 7
  268.10422 45.0 45
  268.13501 29.0 29
  268.25229 8.0 8
  268.99823 9.0 9
  269.05307 28.0 28
  269.06061 57.0 57
  269.07547 50.0 50
  269.09637 52.0 52
  269.12173 7.0 7
  270.03455 8.0 8
  270.04797 7.0 7
  270.06427 32.0 32
  270.08414 34.0 34
  271.0618 8.0 8
  272.07019 9.0 9
  272.40137 7.0 7
  273.04257 24.0 24
  273.07709 15.0 15
  273.09094 47.0 47
  273.10791 19.0 19
  274.07767 23.0 23
  274.08939 17.0 17
  274.10178 8.0 8
  275.04437 14.0 14
  275.08139 30.0 30
  275.09262 40.0 40
  275.11694 15.0 15
  276.0647 13.0 13
  276.08878 35.0 35
  276.10342 42.0 42
  277.05722 14.0 14
  277.0726 17.0 17
  277.08591 19.0 19
  277.10745 23.0 23
  277.13849 9.0 9
  278.05731 13.0 13
  278.07538 38.0 38
  278.08566 42.0 42
  278.10205 14.0 14
  278.11569 33.0 33
  278.14362 7.0 7
  278.15854 10.0 10
  279.06729 64.0 64
  279.08801 32.0 32
  279.13052 12.0 12
  280.05322 26.0 26
  280.07672 37.0 37
  280.09479 28.0 28
  280.11395 38.0 38
  281.05157 107.0 107
  281.0643 32.0 32
  281.09271 28.0 28
  281.10928 10.0 10
  281.13565 8.0 8
  282.0351 6.0 6
  282.05392 21.0 21
  282.06583 31.0 31
  282.07718 64.0 64
  282.10263 38.0 38
  283.06342 6.0 6
  283.07986 50.0 50
  283.86624 8.0 8
  284.06775 8.0 8
  284.08267 34.0 34
  285.10486 14.0 14
  285.49567 9.0 9
  287.11273 12.0 12
  288.06277 9.0 9
  288.09119 11.0 11
  288.11002 27.0 27
  289.09573 8.0 8
  290.06015 8.0 8
  290.07333 35.0 35
  290.08521 15.0 15
  290.09906 20.0 20
  290.11264 14.0 14
  291.06631 35.0 35
  291.08975 38.0 38
  291.11383 22.0 22
  292.06534 8.0 8
  292.08298 38.0 38
  292.10065 14.0 14
  292.11307 18.0 18
  292.14816 8.0 8
  293.03717 12.0 12
  293.05078 47.0 47
  293.06442 18.0 18
  293.09329 32.0 32
  293.10672 25.0 25
  293.31372 7.0 7
  294.06445 28.0 28
  294.07947 59.0 59
  294.10776 42.0 42
  294.15762 13.0 13
  295.01953 6.0 6
  295.05295 30.0 30
  295.07309 207.0 207
  295.10251 90.0 90
  295.1145 35.0 35
  295.13364 8.0 8
  295.14563 20.0 20
  296.05188 16.0 16
  296.08517 92.0 92
  296.10397 7.0 7
  296.1283 8.0 8
  296.14224 12.0 12
  297.06851 14.0 14
  297.08691 29.0 29
  297.10403 6.0 6
  297.11969 8.0 8
  298.0885 29.0 29
  299.08392 8.0 8
  299.10376 9.0 9
  300.11258 12.0 12
  300.12756 9.0 9
  301.10257 9.0 9
  301.11441 15.0 15
  301.78397 7.0 7
  302.02039 7.0 7
  302.10355 9.0 9
  302.11212 19.0 19
  302.40045 9.0 9
  303.07623 45.0 45
  303.09598 14.0 14
  303.12265 18.0 18
  304.06741 22.0 22
  304.08682 37.0 37
  304.11423 8.0 8
  305.08542 6.0 6
  305.10107 32.0 32
  305.13043 31.0 31
  306.06897 8.0 8
  306.08673 40.0 40
  306.10004 19.0 19
  306.11578 10.0 10
  306.12637 16.0 16
  307.03296 8.0 8
  307.06528 91.0 91
  307.0878 33.0 33
  307.1069 63.0 63
  307.11765 45.0 45
  307.1467 7.0 7
  307.16245 15.0 15
  308.05759 22.0 22
  308.06802 62.0 62
  308.08441 56.0 56
  308.09369 30.0 30
  308.11569 44.0 44
  308.1293 26.0 26
  308.1434 17.0 17
  308.20361 11.0 11
  309.00922 11.0 11
  309.07907 108.0 108
  309.11121 27.0 27
  309.15515 15.0 15
  309.79276 8.0 8
  310.08554 35.0 35
  310.11209 31.0 31
  310.13248 31.0 31
  311.09909 35.0 35
  311.12457 9.0 9
  311.36322 12.0 12
  311.91751 16.0 16
  312.11279 15.0 15
  313.09366 8.0 8
  313.12558 19.0 19
  314.10291 8.0 8
  315.13086 12.0 12
  316.12759 8.0 8
  317.05927 10.0 10
  317.08429 25.0 25
  317.09778 12.0 12
  318.08362 25.0 25
  318.09781 23.0 23
  319.05597 10.0 10
  319.07684 9.0 9
  319.09399 27.0 27
  319.11172 31.0 31
  320.06772 7.0 7
  320.08447 29.0 29
  320.10892 7.0 7
  320.12653 8.0 8
  320.16275 20.0 20
  321.02475 14.0 14
  321.05045 7.0 7
  321.07697 65.0 65
  321.09106 67.0 67
  321.12839 32.0 32
  321.23767 6.0 6
  322.08749 65.0 65
  322.10065 68.0 68
  322.14053 16.0 16
  323.03592 9.0 9
  323.08932 41.0 41
  323.1026 132.0 132
  323.12637 15.0 15
  323.14127 23.0 23
  323.15323 17.0 17
  324.08087 11.0 11
  324.09723 30.0 30
  324.11139 36.0 36
  324.1312 9.0 9
  324.83063 9.0 9
  325.12155 33.0 33
  326.08502 7.0 7
  326.91833 8.0 8
  328.14474 7.0 7
  332.07233 8.0 8
  332.09152 8.0 8
  333.07687 14.0 14
  333.11594 25.0 25
  334.08688 10.0 10
  334.10471 15.0 15
  334.11938 42.0 42
  335.10153 394.0 394
  335.12958 11.0 11
  336.08047 24.0 24
  336.11182 124.0 124
  337.08743 48.0 48
  337.10715 78.0 78
  337.12393 60.0 60
  338.10394 6.0 6
  338.12314 44.0 44
  339.1243 8.0 8
  339.14679 12.0 12
  340.13126 9.0 9
  340.16483 8.0 8
  346.02051 6.0 6
  346.10077 6.0 6
  349.09952 8.0 8
  350.13229 18.0 18
  350.15726 9.0 9
  351.10428 23.0 23
  351.12808 77.0 77
  351.14215 61.0 61
  351.78464 15.0 15
  352.08829 8.0 8
  352.10135 19.0 19
  352.11819 15.0 15
  352.13937 45.0 45
  352.15234 16.0 16
  352.43518 9.0 9
  353.09711 18.0 18
  353.11121 27.0 27
  353.14536 28.0 28
  354.16437 11.0 11
  354.59839 20.0 20
  355.11816 23.0 23
  355.13522 7.0 7
  355.16074 21.0 21
  356.18094 11.0 11
  357.17215 12.0 12
  357.71671 7.0 7
  357.75064 11.0 11
  360.13293 8.0 8
  365.12595 12.0 12
  365.14819 26.0 26
  365.16119 22.0 22
  366.15652 19.0 19
  367.1066 13.0 13
  367.13089 26.0 26
  367.14307 53.0 53
  367.15826 19.0 19
  367.17447 16.0 16
  368.12262 8.0 8
  368.17072 9.0 9
  369.18594 10.0 10
  370.14465 9.0 9
  381.18152 6.0 6
  383.08865 8.0 8
  383.11221 7.0 7
  383.147 16.0 16
  383.16342 40.0 40
  384.16553 16.0 16
  397.16803 18.0 18
  413.17978 10.0 10
  413.21597 9.0 9
//
