ACCESSION: MSBNK-RIKEN-PR310642
RECORD_TITLE: Lycoctonine; LC-ESI-QTOF; MS2
DATE: 2019.03.28
AUTHORS: Tetsuya Mori, Center for Sustainable Resource Science, RIKEN
LICENSE: CC BY-NC-SA
PUBLICATION: Tsugawa H., Nakabayashi R., Mori T., Yamada Y., Takahashi M., Rai A., Sugiyama R., Yamamoto H., Nakaya T., Yamazaki M., Kooke R., Bac-Molenaar JA., Oztolan-Erol N., Keurentjes JJB., Arita M., Saito K. (2019) "A cheminformatics approach to characterize metabolomes in stable-isotope-labeled organisms" Nature Methods 16(4):295-298. [doi:10.1038/s41592-019-0358-2]
COMMENT: Annotation level-1
CH$NAME: Lycoctonine
CH$COMPOUND_CLASS: Alkaloids
CH$FORMULA: C25H41NO7
CH$EXACT_MASS: 467.603
CH$SMILES: CCN1CC2(CO)CCC(OC)C34C5CC6C(OC)C5C(O)(CC6OC)C(O)(C(OC)C23)C14
CH$IUPAC: InChI=1S/C25H41NO7/c1-6-26-11-22(12-27)8-7-16(31-3)24-14-9-13-15(30-2)10-23(28,17(14)18(13)32-4)25(29,21(24)26)20(33-5)19(22)24/h13-21,27-29H,6-12H2,1-5H3
CH$LINK: INCHIKEY YOTUXHIWBVZAJQ-UHFFFAOYSA-N
AC$INSTRUMENT: LC, Waters Acquity UPLC System; MS, Waters Xevo G2 Q-Tof
AC$INSTRUMENT_TYPE: LC-ESI-QTOF
AC$MASS_SPECTROMETRY: MS_TYPE MS2
AC$MASS_SPECTROMETRY: ION_MODE POSITIVE
AC$MASS_SPECTROMETRY: COLLISION_ENERGY 6V
AC$MASS_SPECTROMETRY: DESOLVATION_GAS_FLOW 800/h
AC$MASS_SPECTROMETRY: DESOLVATION_TEMPERATURE 450 C
AC$MASS_SPECTROMETRY: IONIZATION ESI
AC$CHROMATOGRAPHY: CAPILLARY_VOLTAGE +3.00 kV
AC$CHROMATOGRAPHY: COLUMN_NAME Acquity bridged ethyl hybrid C18 (1.7 um, 2.1 mm * 100 mm, Waters)
AC$CHROMATOGRAPHY: COLUMN_TEMPERATURE 40 C
AC$CHROMATOGRAPHY: FLOW_GRADIENT A/B = (99.5%/0.5% at 0 min, 99.5%/0.5% at 0.1 min, 20%/80% at 10 min, 0.5%/99.5% at 10.1 min, 0.5%/99.5% at 12.0 min, 99.5%/0.5% at 12.1 min, 99.5%/0.5% at 15.0 min)
AC$CHROMATOGRAPHY: FLOW_RATE 0.3 ml/min at 0 min, 0.3 ml/min at 10 min, 0.4 ml/min at 10.1 min, 0.4 ml/min at 14.4 min, 0.3 ml/min at 14.5 min
AC$CHROMATOGRAPHY: RETENTION_TIME 3.67
AC$CHROMATOGRAPHY: SOLVENT A water including 0.1% formic acid
AC$CHROMATOGRAPHY: SOLVENT B acetonitrile including 0.1% formic acid
MS$FOCUSED_ION: PRECURSOR_TYPE [M+H]+
MS$FOCUSED_ION: PRECURSOR_M/Z 468.29558
PK$SPLASH: splash10-014i-0001900000-e98f264bcd965687d0a4
PK$NUM_PEAK: 1113
PK$PEAK: m/z int. rel.int.
  55.01905 20.0 0
  56.04695 22.0 0
  58.06841 128.0 1
  60.05881 18.0 0
  60.08306 85.0 1
  65.03773 25.0 0
  68.73892 25.0 0
  71.03632 19.0 0
  71.05212 43.0 0
  72.07567 20.0 0
  72.08166 19.0 0
  75.03633 25.0 0
  75.04409 246.0 2
  75.05139 43.0 0
  76.04768 25.0 0
  76.05336 39.0 0
  79.05231 51.0 0
  79.33613 29.0 0
  81.07377 19.0 0
  82.06645 30.0 0
  84.07876 99.0 1
  84.08495 86.0 1
  85.02296 28.0 0
  85.03127 22.0 0
  85.05429 25.0 0
  85.06627 108.0 1
  86.06106 91.0 1
  87.04514 20.0 0
  88.07463 37.0 0
  91.05603 128.0 1
  91.89922 22.0 0
  91.91965 21.0 0
  93.06895 22.0 0
  94.06735 40.0 0
  95.04695 69.0 1
  95.08321 27.0 0
  95.17305 17.0 0
  96.08055 340.0 3
  97.08241 21.0 0
  97.0891 17.0 0
  98.09789 23.0 0
  98.10289 36.0 0
  99.08311 22.0 0
  100.07755 34.0 0
  101.06483 23.0 0
  102.08755 22.0 0
  102.09488 26.0 0
  102.76381 50.0 0
  103.05846 35.0 0
  105.07112 111.0 1
  107.0568 21.0 0
  107.07378 20.0 0
  107.08436 31.0 0
  108.05361 18.0 0
  108.08009 384.0 3
  108.08638 147.0 1
  108.14297 18.0 0
  109.05951 30.0 0
  109.06471 28.0 0
  109.0743 76.0 1
  109.0877 21.0 0
  109.70055 31.0 0
  110.05664 36.0 0
  110.0888 29.0 0
  110.09745 171.0 1
  111.10139 47.0 0
  112.07529 23.0 0
  112.08273 46.0 0
  112.1116 82.0 1
  114.08106 44.0 0
  114.08992 45.0 0
  114.09431 31.0 0
  114.10278 39.0 0
  114.12453 36.0 0
  115.05383 34.0 0
  116.10946 25.0 0
  116.83584 17.0 0
  117.06535 18.0 0
  118.07448 29.0 0
  119.05028 20.0 0
  119.08176 26.0 0
  119.08847 25.0 0
  120.05587 38.0 0
  120.08605 34.0 0
  121.0574 18.0 0
  121.06627 18.0 0
  121.08729 45.0 0
  122.05859 28.0 0
  122.09689 457.0 3
  123.07896 20.0 0
  123.08578 42.0 0
  123.09693 57.0 0
  124.06853 36.0 0
  124.10772 129.0 1
  125.05836 117.0 1
  125.06651 38.0 0
  126.06541 25.0 0
  126.09197 1643.0 12
  127.08828 30.0 0
  127.09549 119.0 1
  127.73528 17.0 0
  129.06557 18.0 0
  129.07155 45.0 0
  130.07437 52.0 0
  130.08351 107.0 1
  130.09242 37.0 0
  131.08601 24.0 0
  131.09219 38.0 0
  132.05167 41.0 0
  132.07834 18.0 0
  133.05675 26.0 0
  133.07146 58.0 0
  133.09912 22.0 0
  134.09372 38.0 0
  135.08116 22.0 0
  135.09006 18.0 0
  136.07237 30.0 0
  136.08646 19.0 0
  136.09447 31.0 0
  136.10361 23.0 0
  136.11436 104.0 1
  137.06363 84.0 1
  137.12317 25.0 0
  137.41588 36.0 0
  138.09094 316.0 2
  138.10141 45.0 0
  139.06 25.0 0
  139.09877 106.0 1
  140.07788 41.0 0
  140.0889 49.0 0
  140.10825 1270.0 10
  141.06657 20.0 0
  141.08037 22.0 0
  141.10081 33.0 0
  141.1091 30.0 0
  141.11638 23.0 0
  142.07962 74.0 1
  142.10605 30.0 0
  142.12556 30.0 0
  143.07787 26.0 0
  143.09013 114.0 1
  143.34268 27.0 0
  144.09293 49.0 0
  144.10245 44.0 0
  145.05835 24.0 0
  145.06656 55.0 0
  146.09807 40.0 0
  147.06755 30.0 0
  148.11224 41.0 0
  149.09688 26.0 0
  149.11174 57.0 0
  150.08876 18.0 0
  150.0995 24.0 0
  151.07474 58.0 0
  151.07947 146.0 1
  151.09991 46.0 0
  152.08031 78.0 1
  152.10612 50.0 0
  153.06702 43.0 0
  154.07852 40.0 0
  154.12321 216.0 2
  154.13351 73.0 1
  155.08368 71.0 1
  155.09221 50.0 0
  155.1275 58.0 0
  156.09512 23.0 0
  156.10373 68.0 1
  157.05664 27.0 0
  157.08238 53.0 0
  157.10066 55.0 0
  157.10706 44.0 0
  157.70085 21.0 0
  158.07552 29.0 0
  158.1019 22.0 0
  158.11201 55.0 0
  159.08095 48.0 0
  159.12181 33.0 0
  159.18697 18.0 0
  160.10687 35.0 0
  160.11687 49.0 0
  161.08199 43.0 0
  161.09479 30.0 0
  161.1244 51.0 0
  161.99393 21.0 0
  162.06284 22.0 0
  162.09509 45.0 0
  162.13104 48.0 0
  163.08269 22.0 0
  163.13814 33.0 0
  163.89616 29.0 0
  165.06396 21.0 0
  165.1073 24.0 0
  166.0789 25.0 0
  166.08835 17.0 0
  166.10033 48.0 0
  167.07095 42.0 0
  167.08463 80.0 1
  168.08269 28.0 0
  168.093 25.0 0
  169.04475 30.0 0
  169.10289 59.0 0
  169.11221 24.0 0
  170.07542 71.0 1
  170.10413 41.0 0
  170.11031 27.0 0
  170.53539 18.0 0
  170.59338 57.0 0
  171.08501 142.0 1
  171.10252 21.0 0
  171.11201 23.0 0
  172.07719 20.0 0
  172.10695 27.0 0
  172.11902 44.0 0
  173.05592 17.0 0
  173.08994 76.0 1
  173.0979 78.0 1
  173.66194 17.0 0
  174.09462 89.0 1
  174.12585 62.0 0
  174.13535 74.0 1
  174.94002 36.0 0
  175.08049 49.0 0
  175.0903 25.0 0
  175.10091 20.0 0
  175.13103 57.0 0
  175.1452 28.0 0
  176.10925 51.0 0
  176.11824 55.0 0
  176.14569 23.0 0
  177.09116 24.0 0
  177.11989 42.0 0
  177.14667 23.0 0
  178.07965 23.0 0
  178.08672 38.0 0
  178.11969 28.0 0
  179.07373 44.0 0
  179.08238 72.0 1
  179.09575 36.0 0
  180.08923 31.0 0
  180.09978 33.0 0
  180.98892 20.0 0
  181.05798 49.0 0
  181.06975 39.0 0
  181.08586 67.0 1
  181.09978 168.0 1
  181.10898 68.0 1
  181.12318 23.0 0
  182.10992 49.0 0
  183.07599 26.0 0
  183.09233 22.0 0
  183.34193 20.0 0
  183.99303 24.0 0
  184.10748 28.0 0
  184.11919 37.0 0
  184.48082 20.0 0
  184.49338 17.0 0
  184.98532 33.0 0
  185.09651 157.0 1
  186.10274 29.0 0
  186.1373 54.0 0
  187.08176 20.0 0
  187.1041 55.0 0
  187.11609 50.0 0
  187.77177 30.0 0
  188.07581 21.0 0
  188.1073 135.0 1
  188.13695 59.0 0
  189.10095 32.0 0
  189.11198 24.0 0
  189.15063 38.0 0
  189.95566 17.0 0
  190.09105 20.0 0
  190.09979 39.0 0
  190.12216 38.0 0
  190.16255 21.0 0
  190.23683 28.0 0
  190.48911 17.0 0
  191.07436 23.0 0
  191.08791 60.0 0
  191.10815 43.0 0
  191.12883 73.0 1
  191.88051 28.0 0
  192.07898 21.0 0
  192.09259 88.0 1
  192.10172 45.0 0
  192.11424 35.0 0
  192.13258 65.0 0
  193.07722 49.0 0
  193.09842 131.0 1
  193.10985 33.0 0
  194.09415 45.0 0
  194.10812 101.0 1
  195.08179 98.0 1
  195.12325 115.0 1
  195.50504 40.0 0
  196.1115 21.0 0
  196.17093 19.0 0
  197.09784 25.0 0
  197.11876 43.0 0
  197.1302 22.0 0
  198.08704 28.0 0
  198.10095 26.0 0
  198.1337 110.0 1
  199.07777 41.0 0
  199.116 60.0 0
  199.12526 35.0 0
  199.13564 30.0 0
  199.1485 20.0 0
  199.53914 18.0 0
  200.13634 27.0 0
  200.14859 33.0 0
  201.0769 97.0 1
  201.09267 87.0 1
  201.10274 26.0 0
  201.12669 52.0 0
  201.15518 27.0 0
  202.06587 37.0 0
  202.08041 67.0 1
  202.35117 18.0 0
  203.08591 28.0 0
  203.09532 45.0 0
  203.11038 90.0 1
  203.13519 107.0 1
  204.09238 118.0 1
  204.1001 42.0 0
  204.13304 82.0 1
  204.1454 78.0 1
  205.08563 60.0 0
  205.10045 70.0 1
  205.14052 27.0 0
  206.06436 28.0 0
  206.10226 24.0 0
  206.11244 19.0 0
  207.08461 42.0 0
  207.11655 89.0 1
  207.12413 100.0 1
  207.1627 17.0 0
  208.08998 20.0 0
  208.10606 23.0 0
  208.12234 46.0 0
  209.11142 39.0 0
  209.13762 24.0 0
  210.04388 26.0 0
  210.06151 57.0 0
  210.10675 34.0 0
  210.13248 167.0 1
  210.56656 17.0 0
  211.08354 20.0 0
  211.09389 40.0 0
  211.11166 95.0 1
  211.12495 38.0 0
  211.1487 99.0 1
  212.07536 33.0 0
  212.1011 20.0 0
  212.11627 64.0 0
  212.14603 64.0 0
  212.16212 40.0 0
  213.08275 21.0 0
  213.09781 49.0 0
  213.12749 19.0 0
  213.17055 22.0 0
  213.73029 26.0 0
  214.12642 86.0 1
  214.23138 19.0 0
  214.47929 18.0 0
  215.09383 42.0 0
  215.10995 106.0 1
  215.14145 24.0 0
  216.08511 24.0 0
  216.10277 30.0 0
  216.13336 103.0 1
  216.14066 106.0 1
  216.15266 27.0 0
  217.09177 38.0 0
  217.10204 24.0 0
  217.13715 30.0 0
  217.15262 33.0 0
  218.10315 17.0 0
  218.11462 61.0 0
  218.12164 62.0 0
  218.15448 83.0 1
  219.06497 28.0 0
  219.101 38.0 0
  219.11966 343.0 3
  219.14865 56.0 0
  219.84767 17.0 0
  220.04088 30.0 0
  220.09171 30.0 0
  220.11168 152.0 1
  220.13387 148.0 1
  220.1691 83.0 1
  220.97174 43.0 0
  221.10432 119.0 1
  221.13049 160.0 1
  221.14191 118.0 1
  221.15594 20.0 0
  222.09682 20.0 0
  222.1246 44.0 0
  222.13242 59.0 0
  222.1554 43.0 0
  223.08714 20.0 0
  223.11934 122.0 1
  223.14868 46.0 0
  223.47885 17.0 0
  223.82486 17.0 0
  224.11635 89.0 1
  224.14798 175.0 1
  224.4825 18.0 0
  225.11873 59.0 0
  225.1292 129.0 1
  225.16739 18.0 0
  226.09761 55.0 0
  226.1143 31.0 0
  226.13046 104.0 1
  227.09714 20.0 0
  227.12767 19.0 0
  227.59308 24.0 0
  228.10626 28.0 0
  228.1384 41.0 0
  228.14941 44.0 0
  229.09596 24.0 0
  229.14293 21.0 0
  230.1257 23.0 0
  230.15215 59.0 0
  231.12292 126.0 1
  231.14986 37.0 0
  231.1606 23.0 0
  231.17293 20.0 0
  233.10359 58.0 0
  233.12772 33.0 0
  233.14017 75.0 1
  234.10898 55.0 0
  234.12428 46.0 0
  234.13916 51.0 0
  234.15041 19.0 0
  235.11072 191.0 1
  235.13347 64.0 0
  236.12114 41.0 0
  236.13704 23.0 0
  236.14676 41.0 0
  236.16501 17.0 0
  236.17461 27.0 0
  237.09669 20.0 0
  237.13449 224.0 2
  237.14709 43.0 0
  237.47787 33.0 0
  238.11252 21.0 0
  238.12732 49.0 0
  238.13687 153.0 1
  238.16054 64.0 0
  238.17305 22.0 0
  239.10158 24.0 0
  239.11624 37.0 0
  239.13695 64.0 0
  239.15009 69.0 1
  240.15485 28.0 0
  241.10751 45.0 0
  241.11847 27.0 0
  241.13901 24.0 0
  241.18512 19.0 0
  242.15425 104.0 1
  242.7417 17.0 0
  243.10672 68.0 1
  243.11775 20.0 0
  244.07213 33.0 0
  244.14314 93.0 1
  245.1545 22.0 0
  246.11143 78.0 1
  246.1548 193.0 1
  247.10762 131.0 1
  247.12418 47.0 0
  247.16028 28.0 0
  248.09468 26.0 0
  248.11739 21.0 0
  248.14546 54.0 0
  248.16255 40.0 0
  248.6626 35.0 0
  248.94743 26.0 0
  249.14038 108.0 1
  249.16121 88.0 1
  249.36302 19.0 0
  250.06807 20.0 0
  250.1118 24.0 0
  250.13319 45.0 0
  250.16165 130.0 1
  251.09792 50.0 0
  251.16139 52.0 0
  251.30708 30.0 0
  251.77266 20.0 0
  252.14145 107.0 1
  252.1573 67.0 1
  252.55125 48.0 0
  253.12282 74.0 1
  253.16452 40.0 0
  254.11122 32.0 0
  254.12549 25.0 0
  254.14104 34.0 0
  254.16238 74.0 1
  254.63806 40.0 0
  255.12131 62.0 0
  255.13649 24.0 0
  255.16902 38.0 0
  255.41031 18.0 0
  256.13034 57.0 0
  256.17212 42.0 0
  256.23221 34.0 0
  256.88641 17.0 0
  257.10272 30.0 0
  257.11911 42.0 0
  257.13416 89.0 1
  258.15436 57.0 0
  258.18665 25.0 0
  259.10828 33.0 0
  259.11807 23.0 0
  260.11725 54.0 0
  260.15512 20.0 0
  260.43759 19.0 0
  260.91394 18.0 0
  261.12094 25.0 0
  261.14194 61.0 0
  261.16449 26.0 0
  262.09769 57.0 0
  262.12106 27.0 0
  262.14615 49.0 0
  262.1911 26.0 0
  262.48862 46.0 0
  262.52661 25.0 0
  263.07565 21.0 0
  263.10571 21.0 0
  263.11923 23.0 0
  263.69324 37.0 0
  264.14471 54.0 0
  264.17288 97.0 1
  264.18417 26.0 0
  264.2153 19.0 0
  265.10123 19.0 0
  265.11493 16.0 0
  265.12457 36.0 0
  265.14932 24.0 0
  266.11023 66.0 1
  266.14468 25.0 0
  266.15714 57.0 0
  266.16626 38.0 0
  266.18301 21.0 0
  266.1897 50.0 0
  267.12735 30.0 0
  267.13858 55.0 0
  267.15387 54.0 0
  267.17346 63.0 0
  267.24405 22.0 0
  267.82336 25.0 0
  268.09717 29.0 0
  268.1412 22.0 0
  268.17401 91.0 1
  268.45969 50.0 0
  268.99866 25.0 0
  269.14926 24.0 0
  269.16425 75.0 1
  269.47314 17.0 0
  269.5546 51.0 0
  270.00775 17.0 0
  270.03891 27.0 0
  270.12268 29.0 0
  270.1626 21.0 0
  270.9501 26.0 0
  271.13376 84.0 1
  271.16171 58.0 0
  271.76746 24.0 0
  272.16211 110.0 1
  272.17743 22.0 0
  273.15344 33.0 0
  273.16397 19.0 0
  273.18091 45.0 0
  274.15765 48.0 0
  274.18253 34.0 0
  274.20261 23.0 0
  274.43387 25.0 0
  274.48105 26.0 0
  275.13928 27.0 0
  275.15945 17.0 0
  276.17395 100.0 1
  276.67334 31.0 0
  277.11813 48.0 0
  277.1456 17.0 0
  277.16367 29.0 0
  277.19321 40.0 0
  277.33463 28.0 0
  277.76923 19.0 0
  277.8537 30.0 0
  278.12079 27.0 0
  278.14401 20.0 0
  278.15771 48.0 0
  278.17389 20.0 0
  279.12317 24.0 0
  279.14102 78.0 1
  279.7486 29.0 0
  280.16205 70.0 1
  280.22906 18.0 0
  280.51688 18.0 0
  281.03473 27.0 0
  281.14215 20.0 0
  281.15317 21.0 0
  281.17746 46.0 0
  282.15161 21.0 0
  282.16895 27.0 0
  283.11478 19.0 0
  283.1315 30.0 0
  283.18695 77.0 1
  283.20004 62.0 0
  283.21475 27.0 0
  283.38358 20.0 0
  283.86581 21.0 0
  283.89148 50.0 0
  283.9415 17.0 0
  284.12888 34.0 0
  284.16476 133.0 1
  284.17862 37.0 0
  284.19882 24.0 0
  284.55704 22.0 0
  285.03253 17.0 0
  285.14633 19.0 0
  285.16803 68.0 1
  285.36499 27.0 0
  286.18271 33.0 0
  286.215 17.0 0
  287.02908 41.0 0
  287.14001 17.0 0
  287.18237 83.0 1
  287.85141 17.0 0
  288.1604 32.0 0
  288.18137 25.0 0
  288.20267 88.0 1
  289.05042 24.0 0
  289.16211 22.0 0
  289.17191 21.0 0
  290.33881 26.0 0
  291.14575 21.0 0
  291.17648 17.0 0
  291.26389 22.0 0
  292.17331 18.0 0
  292.32672 35.0 0
  292.72925 22.0 0
  293.09613 20.0 0
  293.1514 98.0 1
  293.18024 17.0 0
  293.73166 21.0 0
  293.75208 35.0 0
  294.03586 33.0 0
  294.15686 30.0 0
  294.17462 46.0 0
  294.19147 79.0 1
  295.11282 25.0 0
  295.15967 22.0 0
  295.17252 40.0 0
  295.18268 20.0 0
  295.67001 33.0 0
  296.1579 129.0 1
  296.16733 47.0 0
  296.18637 85.0 1
  296.20053 189.0 1
  296.37759 21.0 0
  296.70029 25.0 0
  296.76132 36.0 0
  297.14813 137.0 1
  297.19556 17.0 0
  298.14139 21.0 0
  298.17429 101.0 1
  298.21829 48.0 0
  298.59222 30.0 0
  298.67966 18.0 0
  298.79181 19.0 0
  299.14484 18.0 0
  299.18091 17.0 0
  299.19189 20.0 0
  299.66266 19.0 0
  300.15167 17.0 0
  300.18222 55.0 0
  300.19632 43.0 0
  300.29691 33.0 0
  301.54205 18.0 0
  302.16727 47.0 0
  302.2048 84.0 1
  302.56717 20.0 0
  302.69443 18.0 0
  302.97641 30.0 0
  304.15805 40.0 0
  304.17261 66.0 1
  304.19583 39.0 0
  305.19769 28.0 0
  305.89694 28.0 0
  306.19086 19.0 0
  306.54874 20.0 0
  308.15631 24.0 0
  308.17093 59.0 0
  308.20676 77.0 1
  309.14761 25.0 0
  309.17319 21.0 0
  309.9097 24.0 0
  310.13443 23.0 0
  310.15091 34.0 0
  310.17413 17.0 0
  310.19461 25.0 0
  311.06958 36.0 0
  311.15622 45.0 0
  311.17599 68.0 1
  311.19968 18.0 0
  312.17908 100.0 1
  312.19373 144.0 1
  312.21304 46.0 0
  312.24625 40.0 0
  312.65976 21.0 0
  313.15454 28.0 0
  313.17157 38.0 0
  313.18304 25.0 0
  313.20923 20.0 0
  314.15656 20.0 0
  314.20871 241.0 2
  314.23215 25.0 0
  314.88547 32.0 0
  314.91342 26.0 0
  315.1806 47.0 0
  315.22403 22.0 0
  315.33966 29.0 0
  315.8291 19.0 0
  316.18259 111.0 1
  316.21109 34.0 0
  316.76892 21.0 0
  316.99707 18.0 0
  317.19397 17.0 0
  317.20651 33.0 0
  318.19363 21.0 0
  318.86884 21.0 0
  319.06293 28.0 0
  319.22812 24.0 0
  320.19662 35.0 0
  320.22153 27.0 0
  320.23181 28.0 0
  320.71826 35.0 0
  322.12842 18.0 0
  322.1756 93.0 1
  322.19379 51.0 0
  322.89362 19.0 0
  323.09778 24.0 0
  323.17654 32.0 0
  323.19028 34.0 0
  323.28351 19.0 0
  323.44888 17.0 0
  324.07767 18.0 0
  324.19339 451.0 3
  325.13318 35.0 0
  325.15933 23.0 0
  325.19217 17.0 0
  325.20706 33.0 0
  325.23471 35.0 0
  326.17822 37.0 0
  326.21524 664.0 5
  326.36008 27.0 0
  326.84351 23.0 0
  327.15933 34.0 0
  327.17648 27.0 0
  327.20239 21.0 0
  327.22006 122.0 1
  328.14792 40.0 0
  328.18051 23.0 0
  328.18866 60.0 0
  328.20853 50.0 0
  328.22565 104.0 1
  328.26932 25.0 0
  328.5256 40.0 0
  329.14651 29.0 0
  329.16669 28.0 0
  329.19327 38.0 0
  330.1983 80.0 1
  330.22626 30.0 0
  331.14621 18.0 0
  331.22263 50.0 0
  331.24554 48.0 0
  333.40906 23.0 0
  333.58237 32.0 0
  334.1347 26.0 0
  336.11304 22.0 0
  336.16879 21.0 0
  336.19843 43.0 0
  336.21246 38.0 0
  336.37479 23.0 0
  337.17856 36.0 0
  337.19751 19.0 0
  338.21362 18.0 0
  338.29984 22.0 0
  340.1636 28.0 0
  340.18466 225.0 2
  340.20645 144.0 1
  340.65771 28.0 0
  340.98108 45.0 0
  341.18716 28.0 0
  341.20087 71.0 1
  341.7157 20.0 0
  342.1723 28.0 0
  342.19415 160.0 1
  342.207 125.0 1
  342.22037 94.0 1
  342.23526 45.0 0
  342.76648 19.0 0
  343.18881 92.0 1
  343.21426 116.0 1
  343.23599 22.0 0
  344.16818 52.0 0
  344.19556 91.0 1
  344.22461 903.0 7
  344.26819 27.0 0
  344.44839 24.0 0
  345.19107 38.0 0
  345.22089 264.0 2
  345.24054 54.0 0
  346.20309 30.0 0
  346.7634 17.0 0
  349.46988 20.0 0
  351.07822 20.0 0
  352.35254 28.0 0
  353.28302 24.0 0
  354.168 24.0 0
  354.19815 314.0 2
  354.21005 1028.0 8
  354.38049 18.0 0
  354.47998 17.0 0
  355.15662 70.0 1
  355.20334 169.0 1
  355.22336 100.0 1
  355.25317 34.0 0
  355.77917 17.0 0
  355.8179 27.0 0
  356.198 68.0 1
  356.22394 516.0 4
  356.72174 24.0 0
  357.06683 18.0 0
  357.17068 25.0 0
  357.20117 84.0 1
  357.21936 83.0 1
  357.23575 19.0 0
  358.18216 29.0 0
  358.19559 23.0 0
  358.23959 1690.0 13
  358.6337 33.0 0
  358.66162 18.0 0
  359.18399 25.0 0
  359.20346 23.0 0
  359.23361 181.0 1
  359.24945 423.0 3
  359.68826 28.0 0
  360.21603 41.0 0
  360.2424 24.0 0
  361.25006 33.0 0
  362.23367 121.0 1
  362.25421 36.0 0
  363.01025 28.0 0
  363.2558 19.0 0
  363.76263 22.0 0
  364.76682 39.0 0
  367.96948 36.0 0
  368.21756 100.0 1
  368.93365 18.0 0
  369.27261 20.0 0
  369.65991 37.0 0
  370.14713 23.0 0
  370.19931 20.0 0
  370.86667 24.0 0
  370.98676 17.0 0
  371.17291 30.0 0
  371.2117 20.0 0
  371.51721 24.0 0
  371.77554 17.0 0
  371.87701 27.0 0
  372.13892 26.0 0
  372.18228 58.0 0
  372.21921 2398.0 18
  372.5007 18.0 0
  372.77823 17.0 0
  373.16696 25.0 0
  373.21326 254.0 2
  373.22412 318.0 2
  374.02271 27.0 0
  374.08325 25.0 0
  374.15549 21.0 0
  374.20538 34.0 0
  374.2294 624.0 5
  374.26089 60.0 0
  374.27014 30.0 0
  374.73627 28.0 0
  375.21347 30.0 0
  375.22824 19.0 0
  375.24783 17.0 0
  375.30325 17.0 0
  376.14807 28.0 0
  376.22311 133.0 1
  376.24753 814.0 6
  376.2674 199.0 2
  376.44632 20.0 0
  377.18039 30.0 0
  377.24771 128.0 1
  377.26398 25.0 0
  377.95767 42.0 0
  378.20801 21.0 0
  378.25204 26.0 0
  378.26608 19.0 0
  378.37399 27.0 0
  379.23785 24.0 0
  379.47452 21.0 0
  380.39099 22.0 0
  380.95724 28.0 0
  382.24838 21.0 0
  384.39673 23.0 0
  385.95792 24.0 0
  386.13016 33.0 0
  386.17517 30.0 0
  386.20309 136.0 1
  386.22415 788.0 6
  386.23782 860.0 7
  386.26819 20.0 0
  386.42343 21.0 0
  387.21109 53.0 0
  387.24173 623.0 5
  388.12518 32.0 0
  388.20316 27.0 0
  388.24387 139.0 1
  388.41794 17.0 0
  388.50507 42.0 0
  389.25385 35.0 0
  389.40308 38.0 0
  390.11771 26.0 0
  390.1651 26.0 0
  390.20673 33.0 0
  390.23648 220.0 2
  390.26746 1329.0 10
  390.30768 17.0 0
  391.11285 37.0 0
  391.14896 21.0 0
  391.19089 36.0 0
  391.23843 31.0 0
  391.2597 144.0 1
  391.27795 85.0 1
  391.64279 20.0 0
  391.77933 36.0 0
  391.82761 41.0 0
  392.24338 18.0 0
  392.48959 35.0 0
  392.54657 19.0 0
  393.25626 17.0 0
  393.91397 17.0 0
  395.93082 19.0 0
  397.74484 33.0 0
  398.45914 17.0 0
  399.82455 17.0 0
  400.25745 38.0 0
  401.15039 23.0 0
  403.55228 20.0 0
  403.84464 19.0 0
  404.11371 54.0 0
  404.14917 20.0 0
  404.19296 44.0 0
  404.23639 1746.0 13
  404.24954 2536.0 19
  404.2973 71.0 1
  404.35867 17.0 0
  404.5191 21.0 0
  404.93063 19.0 0
  405.18423 60.0 0
  405.20258 20.0 0
  405.24606 1049.0 8
  405.30508 23.0 0
  405.57065 21.0 0
  405.72501 48.0 0
  405.79086 23.0 0
  405.81625 51.0 0
  405.97711 34.0 0
  406.01114 18.0 0
  406.25308 194.0 1
  406.28485 79.0 1
  406.34418 18.0 0
  406.41998 37.0 0
  406.61658 41.0 0
  406.74466 19.0 0
  407.05133 18.0 0
  407.10376 17.0 0
  407.23581 30.0 0
  407.25858 43.0 0
  407.43808 17.0 0
  407.99078 18.0 0
  408.31024 24.0 0
  408.66846 18.0 0
  410.51245 30.0 0
  410.60797 24.0 0
  412.18536 19.0 0
  412.39703 17.0 0
  412.62979 35.0 0
  413.95834 32.0 0
  416.24768 20.0 0
  417.24481 21.0 0
  417.61462 23.0 0
  417.85028 24.0 0
  418.24344 286.0 2
  418.25931 939.0 7
  418.44043 20.0 0
  418.88083 21.0 0
  419.07227 21.0 0
  419.12958 25.0 0
  419.173 44.0 0
  419.18655 29.0 0
  419.21179 21.0 0
  419.23117 31.0 0
  419.25897 160.0 1
  419.28394 174.0 1
  419.42859 17.0 0
  420.25769 18.0 0
  420.2952 27.0 0
  421.2453 17.0 0
  421.66849 29.0 0
  422.34952 43.0 0
  423.30963 19.0 0
  423.51166 31.0 0
  423.74863 18.0 0
  424.24094 25.0 0
  426.27628 24.0 0
  426.44458 51.0 0
  428.49945 27.0 0
  430.64133 22.0 0
  430.73099 37.0 0
  433.44434 29.0 0
  435.6666 20.0 0
  435.73486 36.0 0
  436.16617 18.0 0
  436.18484 40.0 0
  436.20081 23.0 0
  436.23001 91.0 1
  436.27048 3666.0 28
  436.32968 38.0 0
  436.46866 44.0 0
  436.54694 20.0 0
  436.56897 21.0 0
  437.10913 52.0 0
  437.27615 1287.0 10
  437.30731 63.0 0
  437.62128 56.0 0
  437.71625 25.0 0
  437.95987 29.0 0
  438.00568 35.0 0
  438.07874 20.0 0
  438.23245 85.0 1
  438.27246 207.0 2
  438.28888 76.0 1
  438.42566 23.0 0
  438.44931 24.0 0
  438.67804 22.0 0
  438.87357 42.0 0
  439.01495 24.0 0
  439.10294 22.0 0
  441.09 17.0 0
  441.64484 17.0 0
  442.27264 22.0 0
  445.36346 25.0 0
  449.58414 36.0 0
  449.6069 24.0 0
  450.18842 24.0 0
  450.27765 495.0 4
  450.30371 57.0 0
  451.21323 29.0 0
  451.2951 20.0 0
  451.31287 72.0 1
  452.83502 33.0 0
  453.29749 44.0 0
  454.12585 21.0 0
  454.1683 25.0 0
  454.98648 36.0 0
  457.13632 36.0 0
  459.36371 34.0 0
  459.48773 28.0 0
  459.98654 20.0 0
  460.3631 21.0 0
  461.6691 17.0 0
  462.64117 17.0 0
  462.8035 20.0 0
  463.63354 21.0 0
  463.95856 38.0 0
  465.88528 23.0 0
  465.9361 18.0 0
  466.18701 36.0 0
  466.23721 25.0 0
  466.25299 21.0 0
  466.6861 17.0 0
  466.69931 19.0 0
  466.85394 17.0 0
  466.87146 19.0 0
  467.09415 18.0 0
  467.19275 44.0 0
  467.22122 17.0 0
  467.41241 18.0 0
  467.73853 19.0 0
  467.75787 18.0 0
  467.79187 27.0 0
  467.81955 18.0 0
  467.88022 17.0 0
  467.93991 39.0 0
  467.99384 25.0 0
  468.07513 43.0 0
  468.12616 38.0 0
  468.15692 69.0 1
  468.19073 196.0 1
  468.21945 543.0 4
  468.24475 500.0 4
  468.29779 131867.0 999
  468.3616 3646.0 28
  468.41864 495.0 4
  468.45731 79.0 1
  468.49106 41.0 0
//
