ACCESSION: MSBNK-RIKEN-PR300036
RECORD_TITLE: Gelsenicine; LC-ESI-QTOF; MS2
DATE: 2019.03.28
AUTHORS: Tetsuya Mori, Center for Sustainable Resource Science, RIKEN
LICENSE: CC BY-NC-SA
PUBLICATION: Tsugawa H., Nakabayashi R., Mori T., Yamada Y., Takahashi M., Rai A., Sugiyama R., Yamamoto H., Nakaya T., Yamazaki M., Kooke R., Bac-Molenaar JA., Oztolan-Erol N., Keurentjes JJB., Arita M., Saito K. (2019) "A cheminformatics approach to characterize metabolomes in stable-isotope-labeled organisms" Nature Methods 16(4):295-298. [doi:10.1038/s41592-019-0358-2]
COMMENT: registered in RIKEN PlaSMA
CH$NAME: Gelsenicine
CH$COMPOUND_CLASS: Indoles and derivatives
CH$FORMULA: C19H22N2O3
CH$EXACT_MASS: 326.396
CH$SMILES: CCC1=N[C@H]2C[C@]3([C@H]4C[C@@H]1[C@@H]2CO4)C(=O)N(OC)C1=CC=CC=C31
CH$IUPAC: InChI=1S/C19H22N2O3/c1-3-14-11-8-17-19(9-15(20-14)12(11)10-24-17)13-6-4-5-7-16(13)21(23-2)18(19)22/h4-7,11-12,15,17H,3,8-10H2,1-2H3/t11-,12+,15+,17-,19+/m1/s1
CH$LINK: INCHIKEY BIGABVPVCRHEES-NWPJSNQLSA-N
AC$INSTRUMENT: LC, Waters Acquity UPLC System; MS, Waters Xevo G2 Q-Tof
AC$INSTRUMENT_TYPE: LC-ESI-QTOF
AC$MASS_SPECTROMETRY: MS_TYPE MS2
AC$MASS_SPECTROMETRY: ION_MODE POSITIVE
AC$MASS_SPECTROMETRY: COLLISION_ENERGY 6V
AC$MASS_SPECTROMETRY: DESOLVATION_GAS_FLOW 800/h
AC$MASS_SPECTROMETRY: DESOLVATION_TEMPERATURE 450 C
AC$MASS_SPECTROMETRY: IONIZATION ESI
AC$CHROMATOGRAPHY: CAPILLARY_VOLTAGE +3.00 kV
AC$CHROMATOGRAPHY: COLUMN_NAME Acquity bridged ethyl hybrid C18 (1.7 um, 2.1 mm * 100 mm, Waters)
AC$CHROMATOGRAPHY: COLUMN_TEMPERATURE 40 C
AC$CHROMATOGRAPHY: FLOW_GRADIENT A/B = (99.5%/0.5% at 0 min, 99.5%/0.5% at 0.1 min, 20%/80% at 10 min, 0.5%/99.5% at 10.1 min, 0.5%/99.5% at 12.0 min, 99.5%/0.5% at 12.1 min, 99.5%/0.5% at 15.0 min)
AC$CHROMATOGRAPHY: FLOW_RATE 0.3 ml/min at 0 min, 0.3 ml/min at 10 min, 0.4 ml/min at 10.1 min, 0.4 ml/min at 14.4 min, 0.3 ml/min at 14.5 min
AC$CHROMATOGRAPHY: RETENTION_TIME 3.986933
AC$CHROMATOGRAPHY: SOLVENT A water including 0.1% formic acid
AC$CHROMATOGRAPHY: SOLVENT B acetonitrile including 0.1% formic acid
MS$FOCUSED_ION: PRECURSOR_TYPE [M+H]+
MS$FOCUSED_ION: PRECURSOR_M/Z 327.170319
PK$SPLASH: splash10-0a7i-1960000000-b7b9e20a6e4013b0ced9
PK$NUM_PEAK: 525
PK$PEAK: m/z int. rel.int.
  56.04972 21.0 21
  64.40829 7.0 7
  66.04519 8.0 8
  67.03914 11.0 11
  67.04803 12.0 12
  67.05553 27.0 27
  68.05068 11.0 11
  70.06713 69.0 69
  70.0745 7.0 7
  71.07053 21.0 21
  71.07786 13.0 13
  72.0431 9.0 9
  72.07703 13.0 13
  77.03712 40.0 40
  79.0519 6.0 6
  80.03655 23.0 23
  80.04805 178.0 178
  80.05355 117.0 117
  80.06647 9.0 9
  81.05227 29.0 29
  81.06774 7.0 7
  81.56042 6.0 6
  82.06796 33.0 33
  82.07719 6.0 6
  84.08028 25.0 25
  85.55171 5.0 5
  90.03764 6.0 6
  91.04459 10.0 10
  91.05215 36.0 36
  91.05982 16.0 16
  92.02737 6.0 6
  92.04771 11.0 11
  92.05824 7.0 7
  93.0289 5.0 5
  93.04073 7.0 7
  93.05725 103.0 103
  93.07175 17.0 17
  94.06348 74.0 74
  94.06894 61.0 61
  95.06969 57.0 57
  95.07493 100.0 100
  95.08395 22.0 22
  96.0428 53.0 53
  96.07676 9.0 9
  96.08773 22.0 22
  97.05111 21.0 21
  98.0967 8.0 8
  103.04111 5.0 5
  103.05431 37.0 37
  104.04578 36.0 36
  104.05399 9.0 9
  105.06089 7.0 7
  105.07107 14.0 14
  106.0548 7.0 7
  106.06326 54.0 54
  107.03281 6.0 6
  107.03918 8.0 8
  107.07238 6.0 6
  107.08483 12.0 12
  107.69418 6.0 6
  108.0201 16.0 16
  108.04692 6.0 6
  108.08111 1000.0 999
  108.24823 5.0 5
  109.05128 5.0 5
  109.08439 66.0 66
  110.06109 10.0 10
  110.08304 6.0 6
  110.09589 43.0 43
  110.10233 12.0 12
  110.99144 6.0 6
  111.07338 9.0 9
  112.07437 6.0 6
  115.04399 9.0 9
  115.05311 69.0 69
  115.06152 7.0 7
  116.04917 14.0 14
  116.05576 29.0 29
  116.06562 10.0 10
  117.05069 8.0 8
  117.0601 38.0 38
  117.07706 8.0 8
  117.7729 6.0 6
  117.99688 6.0 6
  118.04134 7.0 7
  118.06573 56.0 56
  119.07533 7.0 7
  120.03026 6.0 6
  120.04189 12.0 12
  120.05219 11.0 11
  120.07104 7.0 7
  120.08443 58.0 58
  120.09707 9.0 9
  121.08054 18.0 18
  121.08797 16.0 16
  121.09551 10.0 10
  122.04726 8.0 8
  122.05817 86.0 86
  122.06429 48.0 48
  122.0965 108.0 108
  122.10514 30.0 30
  123.06458 9.0 9
  123.09068 7.0 7
  124.06996 5.0 5
  124.11344 5.0 5
  124.92703 8.0 8
  126.71009 10.0 10
  127.02324 8.0 8
  127.0571 36.0 36
  128.04872 56.0 56
  128.06306 14.0 14
  129.05313 6.0 6
  129.06306 26.0 26
  129.16083 11.0 11
  130.06683 117.0 117
  131.0675 9.0 9
  131.07397 31.0 31
  132.02617 11.0 11
  132.04233 96.0 96
  132.05885 14.0 14
  132.07407 25.0 25
  132.08333 24.0 24
  133.03365 7.0 7
  133.04971 14.0 14
  133.08417 5.0 5
  134.04788 7.0 7
  134.0667 5.0 5
  134.09261 8.0 8
  135.07005 14.0 14
  135.1102 6.0 6
  136.07228 11.0 11
  136.08331 8.0 8
  136.1107 53.0 53
  137.07344 6.0 6
  138.0463 18.0 18
  138.08549 14.0 14
  138.09694 16.0 16
  138.54346 9.0 9
  139.01352 6.0 6
  139.04144 20.0 20
  139.05487 13.0 13
  140.04724 46.0 46
  141.04851 9.0 9
  141.05965 12.0 12
  142.06473 57.0 57
  143.04031 6.0 6
  143.06908 49.0 49
  143.07701 51.0 51
  144.04002 10.0 10
  144.07535 54.0 54
  144.08232 108.0 108
  145.04897 23.0 23
  145.08528 33.0 33
  145.98253 7.0 7
  146.0262 43.0 43
  146.06114 22.0 22
  146.09149 14.0 14
  146.10307 18.0 18
  147.03261 9.0 9
  147.09258 8.0 8
  148.06108 6.0 6
  148.07098 16.0 16
  148.08321 5.0 5
  150.09311 65.0 65
  150.12456 9.0 9
  150.91675 5.0 5
  151.04935 69.0 69
  151.05777 64.0 64
  151.06825 14.0 14
  152.05357 41.0 41
  152.06593 19.0 19
  152.0943 12.0 12
  152.11444 6.0 6
  152.30243 5.0 5
  152.60516 6.0 6
  153.05971 41.0 41
  153.06842 35.0 35
  154.00491 6.0 6
  154.05124 7.0 7
  154.06474 165.0 165
  155.01653 12.0 12
  155.07301 33.0 33
  155.08356 23.0 23
  155.1183 13.0 13
  155.55833 8.0 8
  156.04103 21.0 21
  156.05019 21.0 21
  156.07378 17.0 17
  156.08243 6.0 6
  156.75452 6.0 6
  156.94118 7.0 7
  157.04454 6.0 6
  157.05176 6.0 6
  157.07899 14.0 14
  157.09738 18.0 18
  157.23334 7.0 7
  158.04427 6.0 6
  158.06027 29.0 29
  159.09337 20.0 20
  160.036 6.0 6
  160.07265 15.0 15
  160.08215 8.0 8
  161.52715 6.0 6
  163.05806 7.0 7
  164.04037 10.0 10
  164.05124 27.0 27
  164.06433 13.0 13
  164.11415 5.0 5
  165.02408 6.0 6
  165.04227 16.0 16
  165.05325 90.0 90
  165.06091 280.0 280
  165.07501 34.0 34
  165.09183 7.0 7
  166.06337 176.0 176
  166.07529 34.0 34
  166.08281 11.0 11
  166.22438 9.0 9
  167.04588 6.0 6
  167.0554 11.0 11
  167.07329 257.0 257
  167.08833 24.0 24
  167.38863 5.0 5
  167.98538 6.0 6
  168.06067 15.0 15
  168.08107 182.0 182
  169.05341 24.0 24
  169.07124 33.0 33
  169.08095 55.0 55
  169.09384 10.0 10
  169.51462 8.0 8
  170.03979 6.0 6
  170.0589 80.0 80
  170.07149 6.0 6
  170.10201 7.0 7
  171.06328 11.0 11
  175.05464 6.0 6
  175.06316 6.0 6
  177.05806 26.0 26
  177.0648 18.0 18
  177.0854 13.0 13
  177.85762 7.0 7
  178.03308 6.0 6
  178.04967 39.0 39
  178.06413 661.0 660
  178.08177 47.0 47
  178.12372 5.0 5
  178.93985 6.0 6
  179.04591 10.0 10
  179.05624 20.0 20
  179.0674 118.0 118
  179.07765 136.0 136
  179.08788 87.0 87
  179.62758 9.0 9
  180.04559 6.0 6
  180.05626 19.0 19
  180.08078 508.0 507
  180.24715 9.0 9
  181.05643 13.0 13
  181.06464 20.0 20
  181.0791 38.0 38
  181.08846 143.0 143
  182.01096 11.0 11
  182.05458 57.0 57
  182.06662 44.0 44
  182.084 95.0 95
  182.0937 37.0 37
  182.10478 13.0 13
  183.02774 13.0 13
  183.04393 8.0 8
  183.06818 277.0 277
  183.09061 70.0 70
  183.11343 5.0 5
  184.05505 6.0 6
  184.07277 127.0 127
  184.08977 11.0 11
  185.06325 6.0 6
  185.08087 17.0 17
  185.10844 13.0 13
  187.0495 5.0 5
  187.08308 5.0 5
  188.05251 6.0 6
  188.06039 11.0 11
  189.05295 19.0 19
  189.0784 30.0 30
  190.04343 8.0 8
  190.06606 217.0 217
  191.02676 9.0 9
  191.06593 96.0 96
  191.0755 196.0 196
  191.09016 14.0 14
  192.03088 11.0 11
  192.07617 118.0 118
  192.08406 91.0 91
  193.05385 5.0 5
  193.06396 8.0 8
  193.07689 65.0 65
  193.08656 109.0 109
  193.09908 26.0 26
  193.91808 5.0 5
  194.05424 58.0 58
  194.06383 21.0 21
  194.07973 17.0 17
  194.09212 38.0 38
  194.10289 8.0 8
  195.05551 13.0 13
  195.07072 97.0 97
  195.0956 56.0 56
  195.72015 7.0 7
  196.03978 8.0 8
  196.04851 11.0 11
  196.06061 23.0 23
  196.07594 231.0 231
  196.09557 21.0 21
  196.10727 30.0 30
  196.11586 18.0 18
  196.54173 10.0 10
  196.64494 7.0 7
  197.07527 56.0 56
  197.08719 30.0 30
  197.1183 15.0 15
  198.071 15.0 15
  198.07898 17.0 17
  198.11229 8.0 8
  198.32507 11.0 11
  198.66551 5.0 5
  199.07709 8.0 8
  199.0853 7.0 7
  201.05653 5.0 5
  201.06337 9.0 9
  201.07787 6.0 6
  202.0629 56.0 56
  202.0737 111.0 111
  202.08153 58.0 58
  202.09325 16.0 16
  203.0672 21.0 21
  203.0744 43.0 43
  203.08926 43.0 43
  203.09521 18.0 18
  204.03683 6.0 6
  204.04874 24.0 24
  204.06248 32.0 32
  204.07945 400.0 400
  205.08195 106.0 106
  205.09286 15.0 15
  205.2074 6.0 6
  205.99689 6.0 6
  206.04454 10.0 10
  206.06548 55.0 55
  206.08449 84.0 84
  206.09666 235.0 235
  207.07173 17.0 17
  207.08655 83.0 83
  207.09409 177.0 177
  207.10948 19.0 19
  208.05452 13.0 13
  208.06593 58.0 58
  208.07759 126.0 126
  208.0948 117.0 117
  208.10382 92.0 92
  209.04486 7.0 7
  209.05638 6.0 6
  209.0768 89.0 89
  209.09865 22.0 22
  209.11119 18.0 18
  210.06129 23.0 23
  210.08076 288.0 288
  210.1123 17.0 17
  210.12152 16.0 16
  210.18825 7.0 7
  211.0722 13.0 13
  211.09129 53.0 53
  211.11783 8.0 8
  212.06058 7.0 7
  212.07339 25.0 25
  212.08516 9.0 9
  212.09973 13.0 13
  212.81549 9.0 9
  213.08495 5.0 5
  214.04106 11.0 11
  214.06721 102.0 102
  215.05272 28.0 28
  215.06946 163.0 163
  215.08076 63.0 63
  216.07352 81.0 81
  216.36479 5.0 5
  217.06927 39.0 39
  217.07674 82.0 82
  217.09016 38.0 38
  217.99022 21.0 21
  218.02602 8.0 8
  218.07404 26.0 26
  218.08429 51.0 51
  218.09883 39.0 39
  219.0491 7.0 7
  219.06401 29.0 29
  219.07664 26.0 26
  219.09464 156.0 156
  219.10954 23.0 23
  220.07095 20.0 20
  220.08162 27.0 27
  220.09459 34.0 34
  220.10463 58.0 58
  221.07222 76.0 76
  221.0997 26.0 26
  221.10918 69.0 69
  222.06052 6.0 6
  222.07483 16.0 16
  222.09325 52.0 52
  222.12029 18.0 18
  222.13358 16.0 16
  222.54518 14.0 14
  223.08395 124.0 124
  223.0985 26.0 26
  223.12144 35.0 35
  223.13068 46.0 46
  224.07147 6.0 6
  224.08241 14.0 14
  224.10268 27.0 27
  224.11314 29.0 29
  224.12866 15.0 15
  225.092 83.0 83
  225.10483 136.0 136
  225.11787 19.0 19
  226.09659 18.0 18
  227.05533 6.0 6
  227.06924 18.0 18
  227.07903 5.0 5
  227.34258 5.0 5
  228.07898 42.0 42
  228.08553 83.0 83
  229.07115 26.0 26
  229.08087 39.0 39
  229.09283 28.0 28
  229.09943 18.0 18
  230.06885 10.0 10
  230.08359 81.0 81
  230.0963 268.0 268
  230.11165 42.0 42
  230.18349 5.0 5
  231.07234 6.0 6
  231.08676 57.0 57
  231.09895 88.0 88
  231.94997 5.0 5
  232.06319 14.0 14
  232.0762 29.0 29
  232.08398 33.0 33
  232.09657 36.0 36
  233.03275 9.0 9
  233.07831 146.0 146
  233.08762 165.0 165
  233.11122 18.0 18
  234.07318 24.0 24
  234.09268 82.0 82
  234.11812 6.0 6
  235.02655 9.0 9
  235.07999 142.0 142
  235.09166 173.0 173
  235.11218 26.0 26
  235.13387 8.0 8
  236.07002 7.0 7
  236.08307 17.0 17
  236.09164 16.0 16
  236.10286 19.0 19
  236.13722 22.0 22
  236.14735 16.0 16
  236.23303 6.0 6
  236.33969 6.0 6
  237.07401 7.0 7
  237.10144 101.0 101
  238.10336 14.0 14
  238.13995 8.0 8
  239.11513 48.0 48
  239.12413 16.0 16
  241.10081 5.0 5
  243.1114 7.0 7
  243.24411 6.0 6
  245.07619 5.0 5
  245.97195 7.0 7
  246.09378 13.0 13
  246.10518 6.0 6
  246.1151 7.0 7
  247.07777 28.0 28
  247.08827 24.0 24
  247.10704 27.0 27
  247.1244 18.0 18
  247.13295 11.0 11
  248.09729 90.0 90
  248.11299 48.0 48
  248.12566 9.0 9
  249.08557 10.0 10
  249.09888 44.0 44
  249.11433 20.0 20
  250.10393 78.0 78
  250.12662 15.0 15
  251.13882 6.0 6
  253.12703 8.0 8
  255.12564 7.0 7
  261.1015 7.0 7
  261.10983 7.0 7
  262.10522 7.0 7
  262.11734 8.0 8
  262.13058 13.0 13
  262.41446 7.0 7
  263.11911 12.0 12
  264.12711 6.0 6
  265.13297 104.0 104
  266.13165 15.0 15
  266.1452 9.0 9
  266.15448 11.0 11
  267.11298 13.0 13
  267.1459 7.0 7
  267.15741 6.0 6
  268.12634 6.0 6
  268.15179 7.0 7
  269.80124 6.0 6
  277.13983 27.0 27
  279.11313 7.0 7
  279.14029 28.0 28
  280.14932 16.0 16
  295.13196 6.0 6
  296.10394 10.0 10
  296.16019 16.0 16
  327.13528 8.0 8
  327.16492 33.0 33
//
