ACCESSION: MSBNK-RIKEN-PR300340
RECORD_TITLE: Subsessiline; LC-ESI-QTOF; MS2
DATE: 2019.03.28
AUTHORS: Tetsuya Mori, Center for Sustainable Resource Science, RIKEN
LICENSE: CC BY-NC-SA
PUBLICATION: Tsugawa H., Nakabayashi R., Mori T., Yamada Y., Takahashi M., Rai A., Sugiyama R., Yamamoto H., Nakaya T., Yamazaki M., Kooke R., Bac-Molenaar JA., Oztolan-Erol N., Keurentjes JJB., Arita M., Saito K. (2019) "A cheminformatics approach to characterize metabolomes in stable-isotope-labeled organisms" Nature Methods 16(4):295-298. [doi:10.1038/s41592-019-0358-2]
COMMENT: registered in RIKEN PlaSMA
CH$NAME: Subsessiline
CH$COMPOUND_CLASS: Aspidospermatan-type alkaloids
CH$FORMULA: C43H48N4O6
CH$EXACT_MASS: 716.879
CH$SMILES: COC(=O)C1=C2NC3=CC=CC=C3C22CCN3C2C2(CCOC2C24CC5CC67CCOC6CCN6CCC8(C76)C6=C(N(C2)C58OC34)C(OC)=CC=C6)C1
CH$IUPAC: InChI=1S/C43H48N4O6/c1-49-29-9-5-7-27-31(29)47-23-40-21-24-20-38-13-18-51-30(38)10-15-45-16-12-42(27,35(38)45)43(24,47)53-37(40)46-17-11-41-26-6-3-4-8-28(26)44-32(41)25(33(48)50-2)22-39(34(41)46)14-19-52-36(39)40/h3-9,24,30,34-37,44H,10-23H2,1-2H3
CH$LINK: INCHIKEY RZBFPDQKWUWUCK-UHFFFAOYSA-N
AC$INSTRUMENT: LC, Waters Acquity UPLC System; MS, Waters Xevo G2 Q-Tof
AC$INSTRUMENT_TYPE: LC-ESI-QTOF
AC$MASS_SPECTROMETRY: MS_TYPE MS2
AC$MASS_SPECTROMETRY: ION_MODE POSITIVE
AC$MASS_SPECTROMETRY: COLLISION_ENERGY 6V
AC$MASS_SPECTROMETRY: DESOLVATION_GAS_FLOW 800/h
AC$MASS_SPECTROMETRY: DESOLVATION_TEMPERATURE 450 C
AC$MASS_SPECTROMETRY: IONIZATION ESI
AC$CHROMATOGRAPHY: CAPILLARY_VOLTAGE +3.00 kV
AC$CHROMATOGRAPHY: COLUMN_NAME Acquity bridged ethyl hybrid C18 (1.7 um, 2.1 mm * 100 mm, Waters)
AC$CHROMATOGRAPHY: COLUMN_TEMPERATURE 40 C
AC$CHROMATOGRAPHY: FLOW_GRADIENT A/B = (99.5%/0.5% at 0 min, 99.5%/0.5% at 0.1 min, 20%/80% at 10 min, 0.5%/99.5% at 10.1 min, 0.5%/99.5% at 12.0 min, 99.5%/0.5% at 12.1 min, 99.5%/0.5% at 15.0 min)
AC$CHROMATOGRAPHY: FLOW_RATE 0.3 ml/min at 0 min, 0.3 ml/min at 10 min, 0.4 ml/min at 10.1 min, 0.4 ml/min at 14.4 min, 0.3 ml/min at 14.5 min
AC$CHROMATOGRAPHY: RETENTION_TIME 5.79285
AC$CHROMATOGRAPHY: SOLVENT A water including 0.1% formic acid
AC$CHROMATOGRAPHY: SOLVENT B acetonitrile including 0.1% formic acid
MS$FOCUSED_ION: PRECURSOR_TYPE [M+H]+
MS$FOCUSED_ION: PRECURSOR_M/Z 717.3646617
PK$SPLASH: splash10-0002-0596201000-679ca337e7f07b6e3628
PK$NUM_PEAK: 287
PK$PEAK: m/z int. rel.int.
  85.70602 11.0 11
  110.0554 10.0 10
  134.05487 17.0 17
  135.07074 14.0 14
  149.08231 17.0 17
  149.76302 15.0 15
  150.09238 16.0 16
  150.09959 9.0 9
  153.5233 17.0 17
  156.0795 13.0 13
  160.07571 19.0 19
  161.96797 20.0 20
  163.85886 10.0 10
  164.10614 15.0 15
  166.07236 10.0 10
  166.09021 8.0 8
  167.07399 9.0 9
  168.04677 28.0 28
  168.07985 918.0 917
  169.0623 19.0 19
  169.08 60.0 60
  169.0907 24.0 24
  170.08789 9.0 9
  170.09871 11.0 11
  174.09285 9.0 9
  175.19232 13.0 13
  176.09914 12.0 12
  176.10657 27.0 27
  180.08424 8.0 8
  184.06786 19.0 19
  185.07973 15.0 15
  188.07697 9.0 9
  188.10982 22.0 22
  189.10425 11.0 11
  190.35272 9.0 9
  192.48524 11.0 11
  194.04929 8.0 8
  194.05992 32.0 32
  194.06935 9.0 9
  195.99532 9.0 9
  196.04985 8.0 8
  196.07571 374.0 374
  197.0666 24.0 24
  197.08559 8.0 8
  197.11432 10.0 10
  198.07143 11.0 11
  198.0858 14.0 14
  200.10074 12.0 12
  201.09724 9.0 9
  201.13147 18.0 18
  202.07767 39.0 39
  202.09091 61.0 61
  203.07671 10.0 10
  203.10155 9.0 9
  203.12561 20.0 20
  204.10071 60.0 60
  204.11313 9.0 9
  205.10739 40.0 40
  207.89716 18.0 18
  208.15205 8.0 8
  209.09348 13.0 13
  209.8656 8.0 8
  209.91525 10.0 10
  210.13467 8.0 8
  212.07596 67.0 67
  216.10303 34.0 34
  222.11314 11.0 11
  223.08104 10.0 10
  224.07187 11.0 11
  224.10739 9.0 9
  225.76924 9.0 9
  227.10234 8.0 8
  228.03284 12.0 12
  228.10002 506.0 505
  229.07094 9.0 9
  229.08951 10.0 10
  229.10175 82.0 82
  229.11005 48.0 48
  229.13425 10.0 10
  230.10561 13.0 13
  230.12489 39.0 39
  230.16223 13.0 13
  231.11079 27.0 27
  232.11922 13.0 13
  232.13356 14.0 14
  233.10333 10.0 10
  237.10881 14.0 14
  238.09433 23.0 23
  238.12602 12.0 12
  240.46307 10.0 10
  242.13264 8.0 8
  242.15411 13.0 13
  243.10086 11.0 11
  244.87857 12.0 12
  245.08833 14.0 14
  245.10091 65.0 65
  245.12833 1000.0 999
  245.8298 8.0 8
  246.12747 111.0 111
  246.1387 42.0 42
  246.16621 15.0 15
  247.13835 14.0 14
  249.12338 19.0 19
  250.11316 8.0 8
  251.05476 8.0 8
  251.12042 10.0 10
  252.09439 31.0 31
  252.14294 13.0 13
  253.13893 23.0 23
  257.1582 8.0 8
  257.16943 14.0 14
  258.15067 31.0 31
  260.11716 9.0 9
  260.1684 27.0 27
  261.09842 11.0 11
  261.60907 9.0 9
  262.0929 16.0 16
  263.12216 12.0 12
  264.09201 10.0 10
  266.10773 18.0 18
  266.1467 27.0 27
  269.13049 12.0 12
  271.1517 8.0 8
  275.11276 8.0 8
  275.12549 10.0 10
  284.172 15.0 15
  285.1376 15.0 15
  287.15182 25.0 25
  287.17349 106.0 106
  287.19205 8.0 8
  289.12964 22.0 22
  290.11945 13.0 13
  291.14908 18.0 18
  294.15158 13.0 13
  296.1756 8.0 8
  298.16608 10.0 10
  301.14047 8.0 8
  301.15909 8.0 8
  303.15503 28.0 28
  305.13489 12.0 12
  309.1665 29.0 29
  309.74762 14.0 14
  312.13391 9.0 9
  315.21796 16.0 16
  319.15448 13.0 13
  319.17984 9.0 9
  320.12021 13.0 13
  320.14944 37.0 37
  320.16849 11.0 11
  321.14505 11.0 11
  321.16113 17.0 17
  323.1806 11.0 11
  325.1543 11.0 11
  326.19305 12.0 12
  328.15552 13.0 13
  329.14893 23.0 23
  330.17072 20.0 20
  331.02249 9.0 9
  331.12299 8.0 8
  331.13751 15.0 15
  331.15656 22.0 22
  331.18628 10.0 10
  332.14755 10.0 10
  333.12167 15.0 15
  333.13675 8.0 8
  333.15131 25.0 25
  333.16513 24.0 24
  334.17596 9.0 9
  335.15735 57.0 57
  335.1752 100.0 100
  335.1929 28.0 28
  336.14255 8.0 8
  336.1882 26.0 26
  336.1954 12.0 12
  337.19522 15.0 15
  339.16531 23.0 23
  344.0282 8.0 8
  345.64401 10.0 10
  346.77484 14.0 14
  347.10831 17.0 17
  347.13855 733.0 732
  348.1105 11.0 11
  348.129 46.0 46
  348.14511 201.0 201
  349.13364 15.0 15
  349.17673 13.0 13
  349.18823 26.0 26
  350.13037 9.0 9
  351.21323 16.0 16
  352.20868 25.0 25
  356.01132 9.0 9
  356.13083 8.0 8
  356.92554 10.0 10
  357.1326 8.0 8
  357.15717 79.0 79
  357.1777 20.0 20
  358.12683 20.0 20
  358.16382 39.0 39
  358.18036 8.0 8
  359.14365 15.0 15
  359.1669 12.0 12
  359.64185 8.0 8
  361.15262 18.0 18
  361.20264 10.0 10
  363.18985 11.0 11
  368.1904 8.0 8
  375.15683 15.0 15
  379.11096 8.0 8
  379.16 163.0 163
  379.18668 9.0 9
  379.22662 13.0 13
  380.15747 15.0 15
  380.18896 12.0 12
  381.16449 12.0 12
  389.17734 19.0 19
  389.21335 9.0 9
  392.19431 8.0 8
  392.2226 8.0 8
  399.21997 9.0 9
  401.23526 16.0 16
  406.2117 10.0 10
  413.21432 14.0 14
  414.17017 14.0 14
  415.19037 11.0 11
  427.23141 11.0 11
  428.25391 21.0 21
  429.23334 15.0 15
  429.37314 8.0 8
  430.21881 14.0 14
  439.24551 15.0 15
  445.58466 11.0 11
  455.22095 10.0 10
  455.23828 8.0 8
  456.25198 14.0 14
  457.22485 15.0 15
  457.25269 9.0 9
  461.24847 30.0 30
  466.20294 9.0 9
  468.1713 11.0 11
  472.2189 13.0 13
  472.23096 30.0 30
  472.26089 109.0 109
  473.21854 14.0 14
  473.2413 13.0 13
  473.26968 41.0 41
  474.23193 10.0 10
  475.17471 17.0 17
  489.78421 8.0 8
  490.24393 30.0 30
  490.28061 59.0 59
  491.2547 15.0 15
  491.27045 55.0 55
  491.29156 22.0 22
  492.21542 13.0 13
  495.20609 17.0 17
  499.21698 10.0 10
  504.21115 10.0 10
  514.20905 8.0 8
  526.1958 12.0 12
  531.25775 13.0 13
  546.54211 9.0 9
  576.28906 8.0 8
  586.76965 9.0 9
  642.23773 14.0 14
  656.29938 11.0 11
  667.32367 47.0 47
  667.34924 20.0 20
  668.09283 8.0 8
  668.31116 26.0 26
  669.09949 8.0 8
  669.30896 12.0 12
  669.80768 8.0 8
  685.29315 18.0 18
  685.34973 104.0 104
  686.24603 9.0 9
  686.32257 95.0 95
  686.35504 65.0 65
  687.32776 37.0 37
  687.35852 36.0 36
  688.32703 16.0 16
  688.36163 14.0 14
  699.34857 30.0 30
  699.41144 17.0 17
  699.83923 9.0 9
  700.36359 10.0 10
  701.37506 9.0 9
  717.36664 41.0 41
//
