ACCESSION: MSBNK-RIKEN-PR310749
RECORD_TITLE: Dihydrostilbene base + 4O, 2Prenyl; LC-ESI-QTOF; MS2
DATE: 2019.03.28
AUTHORS: Tetsuya Mori, Center for Sustainable Resource Science, RIKEN
LICENSE: CC BY-NC-SA
PUBLICATION: Tsugawa H., Nakabayashi R., Mori T., Yamada Y., Takahashi M., Rai A., Sugiyama R., Yamamoto H., Nakaya T., Yamazaki M., Kooke R., Bac-Molenaar JA., Oztolan-Erol N., Keurentjes JJB., Arita M., Saito K. (2019) "A cheminformatics approach to characterize metabolomes in stable-isotope-labeled organisms" Nature Methods 16(4):295-298. [doi:10.1038/s41592-019-0358-2]
COMMENT: Annotation level-3
CH$NAME: Dihydrostilbene base + 4O, 2Prenyl
CH$COMPOUND_CLASS: Prenylated stilbenes
CH$FORMULA: C24H30O4
CH$EXACT_MASS: 382.5
CH$SMILES: OC=1C=CC(=CC=1(O))CCC=2C(=C(O)C=C(O)C=2CC=C(C)C)CC=C(C)C
CH$IUPAC: InChI=1S/C24H30O4/c1-15(2)5-9-19-18(11-7-17-8-12-21(25)24(28)13-17)20(10-6-16(3)4)23(27)14-22(19)26/h5-6,8,12-14,25-28H,7,9-11H2,1-4H3
CH$LINK: INCHIKEY QFAPONVNJTUMHF-UHFFFAOYSA-N
AC$INSTRUMENT: LC, Waters Acquity UPLC System; MS, Waters Xevo G2 Q-Tof
AC$INSTRUMENT_TYPE: LC-ESI-QTOF
AC$MASS_SPECTROMETRY: MS_TYPE MS2
AC$MASS_SPECTROMETRY: ION_MODE POSITIVE
AC$MASS_SPECTROMETRY: COLLISION_ENERGY 6V
AC$MASS_SPECTROMETRY: DESOLVATION_GAS_FLOW 800/h
AC$MASS_SPECTROMETRY: DESOLVATION_TEMPERATURE 450 C
AC$MASS_SPECTROMETRY: IONIZATION ESI
AC$CHROMATOGRAPHY: CAPILLARY_VOLTAGE +3.00 kV
AC$CHROMATOGRAPHY: COLUMN_NAME Acquity bridged ethyl hybrid C18 (1.7 um, 2.1 mm * 100 mm, Waters)
AC$CHROMATOGRAPHY: COLUMN_TEMPERATURE 40 C
AC$CHROMATOGRAPHY: FLOW_GRADIENT A/B = (99.5%/0.5% at 0 min, 99.5%/0.5% at 0.1 min, 20%/80% at 10 min, 0.5%/99.5% at 10.1 min, 0.5%/99.5% at 12.0 min, 99.5%/0.5% at 12.1 min, 99.5%/0.5% at 15.0 min)
AC$CHROMATOGRAPHY: FLOW_RATE 0.3 ml/min at 0 min, 0.3 ml/min at 10 min, 0.4 ml/min at 10.1 min, 0.4 ml/min at 14.4 min, 0.3 ml/min at 14.5 min
AC$CHROMATOGRAPHY: RETENTION_TIME 7.84
AC$CHROMATOGRAPHY: SOLVENT A water including 0.1% formic acid
AC$CHROMATOGRAPHY: SOLVENT B acetonitrile including 0.1% formic acid
MS$FOCUSED_ION: PRECURSOR_TYPE [M+H]+
MS$FOCUSED_ION: PRECURSOR_M/Z 383.2219
PK$SPLASH: splash10-003r-0349000000-e0b9300247117ef3c792
PK$NUM_PEAK: 132
PK$PEAK: m/z int. rel.int.
  62.22761 19.0 7
  69.05843 25.0 9
  69.0672 160.0 57
  69.07392 79.0 28
  75.06743 18.0 6
  97.06659 22.0 8
  105.07082 25.0 9
  119.05106 21.0 8
  121.06223 18.0 6
  123.02735 23.0 8
  123.04399 683.0 244
  123.07489 22.0 8
  124.04428 61.0 22
  131.03839 21.0 8
  131.05016 25.0 9
  134.05701 18.0 6
  135.04469 84.0 30
  137.02859 25.0 9
  137.06035 649.0 232
  138.05724 43.0 15
  139.03683 17.0 6
  139.06522 21.0 8
  147.0513 17.0 6
  148.06055 23.0 8
  149.05756 41.0 15
  150.05843 18.0 6
  152.07623 18.0 6
  152.08333 34.0 12
  153.07457 17.0 6
  160.18333 20.0 7
  161.05627 93.0 33
  161.06488 24.0 9
  162.06114 19.0 7
  162.52649 20.0 7
  163.07785 51.0 18
  166.09277 20.0 7
  173.0961 18.0 6
  177.08778 20.0 7
  180.08664 40.0 14
  187.11327 24.0 9
  188.08344 25.0 9
  189.09044 39.0 14
  190.08862 18.0 6
  191.10648 64.0 23
  191.11746 35.0 13
  192.12384 30.0 11
  193.19493 30.0 11
  194.13019 21.0 8
  196.08151 20.0 7
  198.09824 22.0 8
  201.06126 17.0 6
  201.09023 20.0 7
  202.08611 18.0 6
  202.09293 21.0 8
  203.10559 110.0 39
  204.10387 40.0 14
  205.1017 51.0 18
  205.1176 36.0 13
  206.13977 18.0 6
  207.07457 20.0 7
  210.06798 23.0 8
  211.07448 22.0 8
  211.08418 21.0 8
  213.10095 22.0 8
  214.09369 17.0 6
  217.12523 25.0 9
  218.08766 18.0 6
  223.07866 45.0 16
  225.08508 17.0 6
  225.10571 27.0 10
  225.9454 24.0 9
  228.08287 18.0 6
  234.06444 27.0 10
  235.69089 20.0 7
  238.06133 29.0 10
  239.06476 23.0 8
  243.0946 41.0 15
  243.10298 43.0 15
  245.08734 18.0 6
  247.00923 44.0 16
  247.16432 35.0 13
  247.17487 62.0 22
  253.10283 52.0 19
  253.11992 27.0 10
  254.0912 23.0 8
  255.1048 42.0 15
  255.11368 26.0 9
  256.0752 31.0 11
  257.08566 170.0 61
  258.08762 89.0 32
  259.04657 24.0 9
  259.08331 23.0 8
  259.09805 273.0 98
  260.09854 20.0 7
  261.08212 21.0 8
  261.99207 48.0 17
  269.07867 19.0 7
  270.13324 20.0 7
  271.09583 579.0 207
  271.10623 215.0 77
  272.09558 235.0 84
  272.11569 18.0 6
  273.10242 59.0 21
  273.71512 30.0 11
  277.19162 17.0 6
  279.13663 36.0 13
  281.14731 22.0 8
  303.599 23.0 8
  310.15179 17.0 6
  313.13739 24.0 9
  314.14764 27.0 10
  314.16116 32.0 11
  315.15656 258.0 92
  316.16397 18.0 6
  317.17902 17.0 6
  325.16211 21.0 8
  326.92847 21.0 8
  327.09842 19.0 7
  327.11307 51.0 18
  327.16071 1868.0 669
  328.11307 17.0 6
  328.16278 474.0 170
  329.07062 20.0 7
  329.1619 39.0 14
  330.15881 19.0 7
  364.19165 26.0 9
  381.05823 17.0 6
  382.21991 81.0 29
  383.1059 22.0 8
  383.13928 18.0 6
  383.18518 18.0 6
  383.2233 2791.0 999
//
