ACCESSION: MSBNK-RIKEN-PR302411
RECORD_TITLE: Cyanidin; LC-ESI-QTOF; MS2
DATE: 2019.03.28
AUTHORS: Tetsuya Mori, Center for Sustainable Resource Science, RIKEN
LICENSE: CC BY-NC-SA
PUBLICATION: Tsugawa H., Nakabayashi R., Mori T., Yamada Y., Takahashi M., Rai A., Sugiyama R., Yamamoto H., Nakaya T., Yamazaki M., Kooke R., Bac-Molenaar JA., Oztolan-Erol N., Keurentjes JJB., Arita M., Saito K. (2019) "A cheminformatics approach to characterize metabolomes in stable-isotope-labeled organisms" Nature Methods 16(4):295-298. [doi:10.1038/s41592-019-0358-2]
COMMENT: registered in RIKEN PlaSMA
CH$NAME: Cyanidin
CH$COMPOUND_CLASS: 7-hydroxyflavonoids
CH$FORMULA: [C15H11O6]+
CH$EXACT_MASS: 287.247
CH$SMILES: OC1=CC2=[O+]C(=C(O)C=C2C(O)=C1)C1=CC(O)=C(O)C=C1
CH$IUPAC: InChI=1S/C15H10O6/c16-8-4-11(18)9-6-13(20)15(21-14(9)5-8)7-1-2-10(17)12(19)3-7/h1-6H,(H4-,16,17,18,19,20)/p+1
CH$LINK: INCHIKEY VEVZSMAEJFVWIL-UHFFFAOYSA-O
AC$INSTRUMENT: LC, Waters Acquity UPLC System; MS, Waters Xevo G2 Q-Tof
AC$INSTRUMENT_TYPE: LC-ESI-QTOF
AC$MASS_SPECTROMETRY: MS_TYPE MS2
AC$MASS_SPECTROMETRY: ION_MODE POSITIVE
AC$MASS_SPECTROMETRY: COLLISION_ENERGY 6V
AC$MASS_SPECTROMETRY: DESOLVATION_GAS_FLOW 800/h
AC$MASS_SPECTROMETRY: DESOLVATION_TEMPERATURE 450 C
AC$MASS_SPECTROMETRY: IONIZATION ESI
AC$CHROMATOGRAPHY: CAPILLARY_VOLTAGE +3.00 kV
AC$CHROMATOGRAPHY: COLUMN_NAME Acquity bridged ethyl hybrid C18 (1.7 um, 2.1 mm * 100 mm, Waters)
AC$CHROMATOGRAPHY: COLUMN_TEMPERATURE 40 C
AC$CHROMATOGRAPHY: FLOW_GRADIENT A/B = (99.5%/0.5% at 0 min, 99.5%/0.5% at 0.1 min, 20%/80% at 10 min, 0.5%/99.5% at 10.1 min, 0.5%/99.5% at 12.0 min, 99.5%/0.5% at 12.1 min, 99.5%/0.5% at 15.0 min)
AC$CHROMATOGRAPHY: FLOW_RATE 0.3 ml/min at 0 min, 0.3 ml/min at 10 min, 0.4 ml/min at 10.1 min, 0.4 ml/min at 14.4 min, 0.3 ml/min at 14.5 min
AC$CHROMATOGRAPHY: RETENTION_TIME 6.022717
AC$CHROMATOGRAPHY: SOLVENT A water including 0.1% formic acid
AC$CHROMATOGRAPHY: SOLVENT B acetonitrile including 0.1% formic acid
MS$FOCUSED_ION: PRECURSOR_TYPE [M]+
MS$FOCUSED_ION: PRECURSOR_M/Z 287.0544659
PK$SPLASH: splash10-000i-0290000000-c88fb80a9a7b23dfa5ed
PK$NUM_PEAK: 25
PK$PEAK: m/z int. rel.int.
  109.02796 34.0 34
  111.01212 38.0 38
  121.02566 41.0 41
  121.03374 32.0 32
  135.03874 19.0 19
  137.03174 18.0 18
  153.0193 97.0 97
  153.02541 36.0 36
  164.97276 16.0 16
  165.02599 47.0 47
  166.01221 17.0 17
  171.04329 18.0 18
  172.04863 15.0 15
  213.05331 57.0 57
  214.06226 47.0 47
  225.05113 13.0 13
  229.05618 20.0 20
  241.05519 15.0 15
  245.04738 15.0 15
  258.04321 36.0 36
  285.04541 18.0 18
  286.05835 14.0 14
  287.04016 143.0 143
  287.05429 1000.0 999
  287.0849 15.0 15
//
