ACCESSION: MSBNK-RIKEN-PR300353
RECORD_TITLE: Gelsevirine; LC-ESI-QTOF; MS2
DATE: 2019.03.28
AUTHORS: Tetsuya Mori, Center for Sustainable Resource Science, RIKEN
LICENSE: CC BY-NC-SA
PUBLICATION: Tsugawa H., Nakabayashi R., Mori T., Yamada Y., Takahashi M., Rai A., Sugiyama R., Yamamoto H., Nakaya T., Yamazaki M., Kooke R., Bac-Molenaar JA., Oztolan-Erol N., Keurentjes JJB., Arita M., Saito K. (2019) "A cheminformatics approach to characterize metabolomes in stable-isotope-labeled organisms" Nature Methods 16(4):295-298. [doi:10.1038/s41592-019-0358-2]
COMMENT: registered in RIKEN PlaSMA
CH$NAME: Gelsevirine
CH$COMPOUND_CLASS: Gelsemium alkaloids
CH$FORMULA: C21H24N2O3
CH$EXACT_MASS: 352.434
CH$SMILES: CON1C(=O)[C@@]2([C@H]3[C@H]4[C@H]5CO[C@@H]2C[C@H]5[C@@]3(CN4C)C=C)C2=CC=CC=C12
CH$IUPAC: InChI=1S/C21H24N2O3/c1-4-20-11-22(2)17-12-10-26-16(9-14(12)20)21(18(17)20)13-7-5-6-8-15(13)23(25-3)19(21)24/h4-8,12,14,16-18H,1,9-11H2,2-3H3/t12-,14+,16+,17+,18-,20-,21-/m0/s1
CH$LINK: INCHIKEY SSSCMFCWHWCCEH-MTYPYGCKSA-N
AC$INSTRUMENT: LC, Waters Acquity UPLC System; MS, Waters Xevo G2 Q-Tof
AC$INSTRUMENT_TYPE: LC-ESI-QTOF
AC$MASS_SPECTROMETRY: MS_TYPE MS2
AC$MASS_SPECTROMETRY: ION_MODE POSITIVE
AC$MASS_SPECTROMETRY: COLLISION_ENERGY 6V
AC$MASS_SPECTROMETRY: DESOLVATION_GAS_FLOW 800/h
AC$MASS_SPECTROMETRY: DESOLVATION_TEMPERATURE 450 C
AC$MASS_SPECTROMETRY: IONIZATION ESI
AC$CHROMATOGRAPHY: CAPILLARY_VOLTAGE +3.00 kV
AC$CHROMATOGRAPHY: COLUMN_NAME Acquity bridged ethyl hybrid C18 (1.7 um, 2.1 mm * 100 mm, Waters)
AC$CHROMATOGRAPHY: COLUMN_TEMPERATURE 40 C
AC$CHROMATOGRAPHY: FLOW_GRADIENT A/B = (99.5%/0.5% at 0 min, 99.5%/0.5% at 0.1 min, 20%/80% at 10 min, 0.5%/99.5% at 10.1 min, 0.5%/99.5% at 12.0 min, 99.5%/0.5% at 12.1 min, 99.5%/0.5% at 15.0 min)
AC$CHROMATOGRAPHY: FLOW_RATE 0.3 ml/min at 0 min, 0.3 ml/min at 10 min, 0.4 ml/min at 10.1 min, 0.4 ml/min at 14.4 min, 0.3 ml/min at 14.5 min
AC$CHROMATOGRAPHY: RETENTION_TIME 4.0535
AC$CHROMATOGRAPHY: SOLVENT A water including 0.1% formic acid
AC$CHROMATOGRAPHY: SOLVENT B acetonitrile including 0.1% formic acid
MS$FOCUSED_ION: PRECURSOR_TYPE [M+H]+
MS$FOCUSED_ION: PRECURSOR_M/Z 353.1859691
PK$SPLASH: splash10-03kc-0491000000-f7f56442bfeeb73d6b4a
PK$NUM_PEAK: 577
PK$PEAK: m/z int. rel.int.
  53.59434 5.0 5
  57.0571 8.0 8
  58.06474 6.0 6
  68.04687 21.0 21
  68.05239 8.0 8
  69.05422 7.0 7
  69.81786 5.0 5
  70.04034 11.0 11
  70.04768 8.0 8
  70.0652 94.0 94
  71.07405 20.0 20
  73.05473 11.0 11
  79.05597 5.0 5
  80.04481 9.0 9
  80.05263 17.0 17
  82.04434 6.0 6
  82.06616 59.0 59
  83.05077 8.0 8
  83.06827 7.0 7
  83.07303 17.0 17
  84.07935 11.0 11
  85.08454 17.0 17
  86.05662 20.0 20
  86.06376 15.0 15
  86.60489 6.0 6
  87.06116 18.0 18
  87.07086 10.0 10
  88.06432 6.0 6
  88.07628 12.0 12
  91.05242 28.0 28
  93.06945 13.0 13
  94.05212 10.0 10
  94.06802 33.0 33
  95.07169 37.0 37
  96.06661 7.0 7
  96.07789 78.0 78
  97.08718 25.0 25
  98.09273 18.0 18
  99.0695 8.0 8
  100.07202 37.0 37
  100.0784 37.0 37
  102.0877 6.0 6
  106.05589 8.0 8
  106.0629 10.0 10
  106.07481 17.0 17
  107.05362 5.0 5
  107.07335 55.0 55
  108.05535 7.0 7
  108.06587 7.0 7
  108.07935 149.0 149
  108.08403 117.0 117
  109.08697 50.0 50
  109.09516 8.0 8
  110.0565 44.0 44
  110.06718 7.0 7
  110.07732 18.0 18
  110.09579 460.0 460
  110.11012 6.0 6
  111.06728 11.0 11
  111.0978 56.0 56
  111.10741 8.0 8
  112.07056 33.0 33
  115.0563 22.0 22
  115.09598 9.0 9
  116.06044 11.0 11
  117.05893 10.0 10
  117.0697 13.0 13
  118.07438 34.0 34
  119.07154 7.0 7
  119.08536 7.0 7
  119.12682 6.0 6
  120.07867 140.0 140
  120.08733 28.0 28
  121.06297 7.0 7
  121.08734 100.0 100
  121.09957 5.0 5
  122.08383 13.0 13
  122.09532 59.0 59
  123.08933 6.0 6
  123.10004 12.0 12
  124.07203 6.0 6
  124.38683 7.0 7
  125.08183 9.0 9
  126.07287 9.0 9
  126.0892 46.0 46
  127.0937 8.0 8
  128.0462 6.0 6
  128.05827 13.0 13
  128.0645 6.0 6
  128.96478 5.0 5
  129.0629 17.0 17
  129.06938 9.0 9
  129.07648 9.0 9
  130.06009 15.0 15
  130.06569 33.0 33
  130.07504 9.0 9
  130.0826 6.0 6
  131.06703 8.0 8
  131.07422 55.0 55
  131.08749 22.0 22
  132.04402 50.0 50
  132.06116 11.0 11
  132.0789 142.0 142
  132.09171 20.0 20
  133.03749 16.0 16
  133.07484 12.0 12
  133.08881 90.0 90
  133.09563 34.0 34
  134.05823 6.0 6
  134.07173 8.0 8
  134.09129 50.0 50
  134.09843 101.0 101
  135.0594 9.0 9
  135.07481 12.0 12
  135.10298 18.0 18
  136.07237 12.0 12
  136.10596 6.0 6
  137.08971 6.0 6
  138.07819 15.0 15
  138.09175 28.0 28
  139.09619 39.0 39
  141.07637 9.0 9
  142.07292 35.0 35
  143.07393 11.0 11
  144.04698 7.0 7
  145.04448 8.0 8
  145.05301 26.0 26
  145.09358 5.0 5
  145.59773 9.0 9
  146.00053 7.0 7
  146.02402 12.0 12
  146.06317 36.0 36
  146.08862 31.0 31
  146.09761 63.0 63
  147.08212 5.0 5
  147.09648 38.0 38
  148.06924 14.0 14
  148.0762 8.0 8
  148.11313 24.0 24
  148.55865 6.0 6
  149.0732 5.0 5
  149.11722 23.0 23
  150.08652 52.0 52
  150.09464 43.0 43
  150.12833 5.0 5
  151.09851 197.0 197
  155.05559 12.0 12
  156.06441 11.0 11
  156.08087 62.0 62
  157.05876 6.0 6
  157.08601 14.0 14
  158.03749 12.0 12
  158.04967 10.0 10
  158.05908 25.0 25
  158.06676 25.0 25
  158.09471 37.0 37
  158.11208 12.0 12
  159.07802 8.0 8
  159.08707 15.0 15
  159.10085 69.0 69
  160.07071 14.0 14
  160.08195 9.0 9
  160.10201 13.0 13
  160.1093 52.0 52
  160.11989 11.0 11
  161.0699 27.0 27
  161.08524 9.0 9
  161.09599 7.0 7
  162.0547 8.0 8
  162.07109 7.0 7
  162.09219 6.0 6
  162.11267 7.0 7
  162.1239 16.0 16
  163.13541 11.0 11
  164.10114 18.0 18
  164.11246 36.0 36
  165.06271 12.0 12
  166.06352 47.0 47
  167.06985 33.0 33
  167.07722 36.0 36
  167.09352 11.0 11
  168.06828 10.0 10
  168.08044 7.0 7
  169.07793 7.0 7
  169.08881 5.0 5
  170.06265 17.0 17
  170.08719 6.0 6
  171.06598 14.0 14
  171.07593 6.0 6
  171.10262 9.0 9
  171.30042 6.0 6
  172.06537 6.0 6
  172.07852 34.0 34
  172.10042 20.0 20
  172.10822 25.0 25
  172.11528 21.0 21
  173.0726 7.0 7
  173.0847 8.0 8
  173.10062 6.0 6
  173.1183 12.0 12
  173.12624 5.0 5
  175.08438 15.0 15
  175.09979 6.0 6
  176.10446 48.0 48
  177.1154 7.0 7
  178.04379 7.0 7
  178.06557 19.0 19
  178.08296 11.0 11
  179.08575 9.0 9
  179.12791 6.0 6
  180.08035 37.0 37
  181.08789 15.0 15
  182.0565 38.0 38
  182.09267 12.0 12
  183.06625 42.0 42
  183.07533 26.0 26
  183.0997 8.0 8
  184.07481 125.0 125
  184.09282 16.0 16
  185.08401 25.0 25
  186.07747 7.0 7
  186.08611 8.0 8
  186.1324 27.0 27
  187.05742 7.0 7
  187.08463 16.0 16
  188.07217 5.0 5
  188.09615 11.0 11
  189.07507 7.0 7
  190.06721 9.0 9
  190.1008 11.0 11
  190.11844 31.0 31
  190.12947 32.0 32
  191.12625 9.0 9
  192.08362 6.0 6
  193.07738 11.0 11
  193.08917 17.0 17
  194.05946 19.0 19
  194.0985 67.0 67
  195.06633 72.0 72
  195.09264 18.0 18
  195.10222 7.0 7
  196.07628 165.0 165
  196.10245 67.0 67
  196.15063 5.0 5
  197.07437 73.0 73
  198.04541 6.0 6
  198.07033 6.0 6
  198.08466 23.0 23
  198.12047 9.0 9
  198.48495 8.0 8
  199.06133 11.0 11
  199.08243 11.0 11
  199.09224 14.0 14
  200.08324 6.0 6
  202.04834 6.0 6
  203.06189 10.0 10
  203.07658 5.0 5
  203.08598 5.0 5
  203.09863 7.0 7
  204.07413 25.0 25
  204.09152 21.0 21
  204.14505 7.0 7
  205.09656 23.0 23
  206.0874 28.0 28
  206.10022 62.0 62
  207.05931 6.0 6
  207.07513 11.0 11
  207.10179 16.0 16
  207.11459 9.0 9
  207.56142 6.0 6
  208.07718 139.0 139
  208.10887 6.0 6
  208.16899 7.0 7
  209.08121 79.0 79
  209.09665 7.0 7
  209.10541 11.0 11
  209.1367 8.0 8
  209.92052 7.0 7
  210.08525 50.0 50
  210.09685 34.0 34
  211.08736 307.0 307
  211.10149 28.0 28
  212.06522 33.0 33
  212.07591 28.0 28
  212.09207 65.0 65
  212.10765 9.0 9
  212.14261 7.0 7
  213.06 5.0 5
  213.06862 5.0 5
  213.09375 48.0 48
  214.07655 7.0 7
  215.08995 7.0 7
  216.07846 32.0 32
  216.10289 6.0 6
  217.07251 6.0 6
  217.08873 24.0 24
  217.1012 23.0 23
  218.08728 23.0 23
  218.10185 84.0 84
  219.09088 14.0 14
  219.10153 14.0 14
  219.11137 15.0 15
  219.12083 9.0 9
  219.53185 5.0 5
  220.07449 52.0 52
  220.09004 10.0 10
  220.10417 42.0 42
  220.11546 30.0 30
  220.13277 25.0 25
  220.1451 9.0 9
  220.22607 6.0 6
  221.05144 6.0 6
  221.07953 35.0 35
  221.09044 60.0 60
  221.10519 23.0 23
  221.11414 19.0 19
  221.12897 11.0 11
  221.14153 7.0 7
  222.06647 11.0 11
  222.08702 97.0 97
  222.09917 25.0 25
  222.11436 9.0 9
  222.1232 13.0 13
  222.13434 24.0 24
  222.80583 6.0 6
  223.07843 21.0 21
  223.09543 34.0 34
  223.1091 37.0 37
  223.12299 6.0 6
  224.05551 6.0 6
  224.09486 51.0 51
  224.11958 12.0 12
  225.07317 12.0 12
  225.09828 68.0 68
  226.07437 6.0 6
  226.08453 6.0 6
  227.07559 25.0 25
  228.07611 17.0 17
  229.10597 6.0 6
  230.08472 9.0 9
  230.09653 48.0 48
  231.07321 10.0 10
  231.09186 18.0 18
  231.10457 29.0 29
  231.1144 41.0 41
  231.13332 6.0 6
  232.06021 10.0 10
  232.0771 10.0 10
  232.09267 6.0 6
  232.11569 66.0 66
  233.07828 32.0 32
  233.09077 43.0 43
  233.11079 28.0 28
  234.09084 166.0 166
  234.11455 39.0 39
  234.12479 19.0 19
  234.13461 18.0 18
  234.47115 8.0 8
  235.07309 13.0 13
  235.09621 62.0 62
  235.12004 18.0 18
  235.13666 17.0 17
  235.1656 7.0 7
  235.93489 6.0 6
  236.02451 9.0 9
  236.10243 62.0 62
  236.11217 62.0 62
  236.12129 38.0 38
  236.22566 7.0 7
  237.07222 19.0 19
  237.10428 202.0 202
  237.13571 6.0 6
  237.50525 7.0 7
  238.08191 52.0 52
  238.09613 20.0 20
  238.108 38.0 38
  238.12186 41.0 41
  238.56374 8.0 8
  239.10939 33.0 33
  239.12408 36.0 36
  240.07188 5.0 5
  240.09784 30.0 30
  240.11772 8.0 8
  241.08829 12.0 12
  241.10452 5.0 5
  242.04724 11.0 11
  242.08279 26.0 26
  242.09729 204.0 204
  243.103 26.0 26
  244.06136 13.0 13
  244.08395 25.0 25
  244.11496 96.0 96
  245.05803 7.0 7
  245.06796 20.0 20
  245.09016 12.0 12
  245.1235 34.0 34
  246.05914 11.0 11
  246.07164 20.0 20
  246.09315 171.0 171
  246.12701 49.0 49
  247.09473 74.0 74
  247.11678 17.0 17
  247.1324 26.0 26
  247.52449 7.0 7
  248.05377 12.0 12
  248.06549 10.0 10
  248.09444 34.0 34
  248.10896 200.0 200
  248.15356 6.0 6
  248.80705 7.0 7
  249.05992 5.0 5
  249.09691 94.0 94
  249.11218 72.0 72
  249.13097 11.0 11
  249.14215 6.0 6
  249.15398 11.0 11
  249.37274 6.0 6
  250.08331 6.0 6
  250.09958 26.0 26
  250.12088 101.0 101
  250.15013 7.0 7
  250.4411 7.0 7
  251.09354 24.0 24
  251.1161 112.0 112
  251.15341 19.0 19
  251.77449 10.0 10
  252.08371 7.0 7
  252.10765 8.0 8
  252.11905 28.0 28
  252.1774 10.0 10
  252.87236 11.0 11
  253.08772 13.0 13
  253.09785 12.0 12
  253.13908 13.0 13
  254.08015 13.0 13
  254.09787 69.0 69
  254.12346 9.0 9
  255.09499 11.0 11
  255.11227 10.0 10
  256.10971 29.0 29
  257.07904 5.0 5
  257.0946 14.0 14
  257.10358 9.0 9
  258.07999 20.0 20
  258.09427 100.0 100
  258.11914 6.0 6
  258.13168 6.0 6
  259.09494 20.0 20
  259.10596 6.0 6
  259.13028 14.0 14
  260.07477 28.0 28
  260.10745 684.0 683
  261.11209 220.0 220
  261.14127 24.0 24
  261.15726 14.0 14
  262.08591 23.0 23
  262.10318 48.0 48
  262.12256 132.0 132
  262.15527 62.0 62
  262.17188 12.0 12
  263.06693 9.0 9
  263.09479 18.0 18
  263.11395 52.0 52
  263.12814 94.0 94
  263.15631 20.0 20
  263.17017 12.0 12
  264.12732 82.0 82
  264.14258 20.0 20
  264.8519 8.0 8
  265.09512 9.0 9
  265.12234 10.0 10
  265.13727 50.0 50
  265.15036 9.0 9
  266.0618 7.0 7
  266.1167 6.0 6
  266.13065 10.0 10
  267.12442 5.0 5
  267.13266 5.0 5
  268.12366 19.0 19
  269.1413 10.0 10
  270.08249 6.0 6
  272.0498 6.0 6
  272.10513 217.0 217
  273.09131 49.0 49
  273.11282 162.0 162
  273.13303 17.0 17
  274.08624 6.0 6
  274.10666 13.0 13
  274.11563 38.0 38
  274.12738 11.0 11
  275.09058 6.0 6
  275.11215 51.0 51
  275.12421 30.0 30
  275.14084 20.0 20
  275.15494 18.0 18
  275.17889 7.0 7
  276.10379 30.0 30
  276.12961 16.0 16
  276.15378 22.0 22
  276.16318 49.0 49
  276.72702 6.0 6
  276.77719 5.0 5
  277.11002 7.0 7
  277.12598 39.0 39
  277.138 68.0 68
  277.16403 12.0 12
  278.1095 10.0 10
  278.13004 27.0 27
  278.14728 10.0 10
  279.10297 8.0 8
  279.11926 67.0 67
  279.14426 15.0 15
  279.15552 15.0 15
  280.10648 11.0 11
  280.13489 8.0 8
  280.16721 211.0 211
  280.23404 6.0 6
  281.10486 7.0 7
  281.11743 23.0 23
  281.14926 5.0 5
  281.17133 35.0 35
  282.1185 6.0 6
  285.1413 6.0 6
  289.08356 7.0 7
  289.10077 25.0 25
  289.13394 278.0 278
  289.24561 5.0 5
  289.73602 8.0 8
  290.11655 19.0 19
  290.13828 90.0 90
  291.10776 18.0 18
  291.14932 639.0 638
  292.11432 6.0 6
  292.12714 18.0 18
  292.13644 25.0 25
  292.15869 156.0 156
  292.38641 8.0 8
  293.10056 10.0 10
  293.13864 30.0 30
  293.16074 74.0 74
  294.17142 110.0 110
  294.18906 11.0 11
  294.20877 6.0 6
  294.23373 6.0 6
  295.15894 19.0 19
  295.18188 22.0 22
  296.18488 6.0 6
  296.55099 6.0 6
  303.1232 17.0 17
  303.13577 58.0 58
  303.15176 157.0 157
  304.13092 15.0 15
  304.15042 72.0 72
  304.1619 46.0 46
  304.52496 8.0 8
  305.13962 6.0 6
  305.15726 42.0 42
  305.17227 21.0 21
  306.01727 5.0 5
  307.12918 23.0 23
  307.14435 96.0 96
  307.15695 35.0 35
  308.14368 24.0 24
  317.26321 8.0 8
  319.14093 6.0 6
  321.1355 10.0 10
  321.16284 116.0 116
  322.1268 17.0 17
  322.16763 1000.0 999
  323.1492 27.0 27
  323.16638 83.0 83
  323.17639 171.0 171
  324.17871 50.0 50
  340.70114 9.0 9
  351.17365 7.0 7
  353.16788 12.0 12
  353.18747 86.0 86
//
