ACCESSION: MSBNK-RIKEN-PR301863
RECORD_TITLE: Chrysanthellin B; LC-ESI-QTOF; MS2
DATE: 2019.03.28
AUTHORS: Tetsuya Mori, Center for Sustainable Resource Science, RIKEN
LICENSE: CC BY-NC-SA
PUBLICATION: Tsugawa H., Nakabayashi R., Mori T., Yamada Y., Takahashi M., Rai A., Sugiyama R., Yamamoto H., Nakaya T., Yamazaki M., Kooke R., Bac-Molenaar JA., Oztolan-Erol N., Keurentjes JJB., Arita M., Saito K. (2019) "A cheminformatics approach to characterize metabolomes in stable-isotope-labeled organisms" Nature Methods 16(4):295-298. [doi:10.1038/s41592-019-0358-2]
COMMENT: registered in RIKEN PlaSMA
CH$NAME: Chrysanthellin B
CH$COMPOUND_CLASS: Triterpene saponins
CH$FORMULA: C58H94O26
CH$EXACT_MASS: 1207.364
CH$SMILES: CC1OC(OC2C(O)COC(OC3C(C)OC(OC4C(O)C(O)COC4OC(=O)C45CCC(C)(C)CC4C4=CCC6C7(C)CCC(OC8OC(CO)C(O)C(O)C8O)C(C)(CO)C7CCC6(C)C4(C)CC5O)C(O)C3O)C2O)C(O)C(O)C1O
CH$IUPAC: InChI=1S/C58H94O26/c1-23-34(64)37(67)40(70)48(77-23)82-45-28(62)21-75-47(43(45)73)81-44-24(2)78-49(42(72)39(44)69)83-46-35(65)27(61)20-76-51(46)84-52(74)58-16-15-53(3,4)17-26(58)25-9-10-31-54(5)13-12-33(80-50-41(71)38(68)36(66)29(19-59)79-50)55(6,22-60)30(54)11-14-56(31,7)57(25,8)18-32(58)63/h9,23-24,26-51,59-73H,10-22H2,1-8H3
CH$LINK: INCHIKEY WNGIVKPPGCCJNP-UHFFFAOYSA-N
AC$INSTRUMENT: LC, Waters Acquity UPLC System; MS, Waters Xevo G2 Q-Tof
AC$INSTRUMENT_TYPE: LC-ESI-QTOF
AC$MASS_SPECTROMETRY: MS_TYPE MS2
AC$MASS_SPECTROMETRY: ION_MODE POSITIVE
AC$MASS_SPECTROMETRY: COLLISION_ENERGY 6V
AC$MASS_SPECTROMETRY: DESOLVATION_GAS_FLOW 800/h
AC$MASS_SPECTROMETRY: DESOLVATION_TEMPERATURE 450 C
AC$MASS_SPECTROMETRY: IONIZATION ESI
AC$CHROMATOGRAPHY: CAPILLARY_VOLTAGE +3.00 kV
AC$CHROMATOGRAPHY: COLUMN_NAME Acquity bridged ethyl hybrid C18 (1.7 um, 2.1 mm * 100 mm, Waters)
AC$CHROMATOGRAPHY: COLUMN_TEMPERATURE 40 C
AC$CHROMATOGRAPHY: FLOW_GRADIENT A/B = (99.5%/0.5% at 0 min, 99.5%/0.5% at 0.1 min, 20%/80% at 10 min, 0.5%/99.5% at 10.1 min, 0.5%/99.5% at 12.0 min, 99.5%/0.5% at 12.1 min, 99.5%/0.5% at 15.0 min)
AC$CHROMATOGRAPHY: FLOW_RATE 0.3 ml/min at 0 min, 0.3 ml/min at 10 min, 0.4 ml/min at 10.1 min, 0.4 ml/min at 14.4 min, 0.3 ml/min at 14.5 min
AC$CHROMATOGRAPHY: RETENTION_TIME 5.791234
AC$CHROMATOGRAPHY: SOLVENT A water including 0.1% formic acid
AC$CHROMATOGRAPHY: SOLVENT B acetonitrile including 0.1% formic acid
MS$FOCUSED_ION: PRECURSOR_TYPE [M+H]+
MS$FOCUSED_ION: PRECURSOR_M/Z 1207.61061
PK$SPLASH: splash10-0fk9-0031914200-f98c544fab1111bf936a
PK$NUM_PEAK: 369
PK$PEAK: m/z int. rel.int.
  54.27212 9.0 9
  56.38235 11.0 11
  58.83543 9.0 9
  60.13538 10.0 10
  68.25858 12.0 12
  73.40553 9.0 9
  81.86145 10.0 10
  82.28062 10.0 10
  85.02779 8.0 8
  97.02686 20.0 20
  97.03017 8.0 8
  102.39687 9.0 9
  106.35271 12.0 12
  111.04305 40.0 40
  113.05177 10.0 10
  122.55114 10.0 10
  127.0268 13.0 13
  127.04053 10.0 10
  129.05087 35.0 35
  149.03865 8.0 8
  149.13095 42.0 42
  154.0988 9.0 9
  154.29131 10.0 10
  159.06694 9.0 9
  163.03693 13.0 13
  165.07019 19.0 19
  165.07645 15.0 15
  167.78848 9.0 9
  170.97575 15.0 15
  186.90834 12.0 12
  189.16083 9.0 9
  192.74997 9.0 9
  199.1469 9.0 9
  200.48756 9.0 9
  203.14035 9.0 9
  203.1519 9.0 9
  205.15643 21.0 21
  207.05981 12.0 12
  207.17798 42.0 42
  213.17075 9.0 9
  219.09081 10.0 10
  221.189 8.0 8
  225.0645 32.0 32
  225.07744 85.0 85
  225.09531 12.0 12
  229.05347 12.0 12
  231.00688 10.0 10
  231.08469 13.0 13
  231.09436 10.0 10
  233.18594 11.0 11
  239.07104 28.0 28
  239.09055 113.0 113
  243.08134 41.0 41
  243.0947 12.0 12
  244.08249 9.0 9
  247.16371 14.0 14
  247.17635 27.0 27
  250.04454 9.0 9
  255.08458 9.0 9
  255.09285 9.0 9
  257.09897 39.0 39
  257.10992 63.0 63
  259.10678 20.0 20
  260.47653 10.0 10
  261.11127 9.0 9
  262.0885 9.0 9
  266.68835 10.0 10
  273.09274 76.0 76
  273.11032 8.0 8
  274.10037 30.0 30
  275.10968 18.0 18
  276.10138 11.0 11
  277.91599 12.0 12
  279.10678 145.0 145
  279.13153 10.0 10
  280.09692 22.0 22
  280.10855 42.0 42
  281.11325 10.0 10
  283.45621 11.0 11
  287.203 9.0 9
  288.1991 9.0 9
  288.89551 13.0 13
  293.10257 21.0 21
  293.12286 333.0 333
  293.13333 121.0 121
  294.12177 42.0 42
  294.13702 22.0 22
  295.09766 23.0 23
  295.11148 8.0 8
  295.12979 37.0 37
  296.10641 10.0 10
  301.0932 9.0 9
  301.23401 9.0 9
  309.05713 9.0 9
  309.09937 23.0 23
  309.11557 95.0 95
  309.13278 34.0 34
  310.12521 48.0 48
  311.10977 17.0 17
  311.14584 10.0 10
  313.24939 10.0 10
  321.83374 9.0 9
  326.21832 9.0 9
  327.13431 9.0 9
  339.10684 9.0 9
  339.44717 9.0 9
  344.71527 10.0 10
  351.11191 14.0 14
  351.32892 10.0 10
  353.08939 8.0 8
  353.11279 18.0 18
  353.14554 21.0 21
  357.11023 9.0 9
  357.1261 9.0 9
  357.14151 10.0 10
  366.05289 10.0 10
  369.11325 15.0 15
  369.32065 10.0 10
  370.11252 11.0 11
  371.11688 8.0 8
  371.1337 48.0 48
  371.99747 9.0 9
  375.23312 9.0 9
  376.31909 9.0 9
  380.19513 11.0 11
  389.13751 56.0 56
  389.17734 11.0 11
  389.32141 32.0 32
  390.50116 10.0 10
  391.21185 12.0 12
  391.32672 15.0 15
  395.30585 10.0 10
  396.27313 10.0 10
  400.3515 14.0 14
  401.15619 8.0 8
  405.13361 12.0 12
  405.14697 9.0 9
  406.1438 25.0 25
  406.95905 9.0 9
  407.16769 9.0 9
  407.26947 11.0 11
  407.31177 23.0 23
  407.33466 121.0 121
  408.29059 10.0 10
  408.33237 68.0 68
  409.34134 39.0 39
  409.35999 19.0 19
  410.29858 8.0 8
  410.34329 10.0 10
  411.1579 19.0 19
  413.28378 11.0 11
  413.302 9.0 9
  413.32355 21.0 21
  414.30374 8.0 8
  419.1579 11.0 11
  420.15143 8.0 8
  423.81201 12.0 12
  424.34369 8.0 8
  425.16571 64.0 64
  425.1828 19.0 19
  425.33456 10.0 10
  425.35162 9.0 9
  426.17914 11.0 11
  426.33566 10.0 10
  426.35757 27.0 27
  427.34137 10.0 10
  427.36267 23.0 23
  428.39539 11.0 11
  430.93094 9.0 9
  431.31299 10.0 10
  433.15921 9.0 9
  435.32993 121.0 121
  436.3183 9.0 9
  436.33209 28.0 28
  437.33127 28.0 28
  437.34662 12.0 12
  441.14627 46.0 46
  441.1828 8.0 8
  441.32614 9.0 9
  442.32361 9.0 9
  443.34555 13.0 13
  448.35938 9.0 9
  452.29373 8.0 8
  453.25476 13.0 13
  453.33469 614.0 613
  453.34753 231.0 231
  454.31165 41.0 41
  454.34122 272.0 272
  454.36554 15.0 15
  455.16617 10.0 10
  455.18213 32.0 32
  455.32764 17.0 17
  455.34763 24.0 24
  456.19742 12.0 12
  456.33276 10.0 10
  456.35104 9.0 9
  457.00162 8.0 8
  461.1698 9.0 9
  469.33224 8.0 8
  470.64984 8.0 8
  471.15588 8.0 8
  471.28467 8.0 8
  471.34613 1000.0 999
  472.34235 215.0 215
  472.35999 185.0 185
  473.33929 18.0 18
  473.35721 20.0 20
  473.63232 11.0 11
  474.35498 9.0 9
  489.3381 14.0 14
  489.36646 127.0 127
  490.35663 29.0 29
  490.37302 24.0 24
  491.36252 10.0 10
  493.36703 13.0 13
  495.32657 9.0 9
  500.10321 8.0 8
  507.39606 11.0 11
  513.36835 10.0 10
  515.16034 10.0 10
  515.29126 9.0 9
  525.32251 17.0 17
  528.58075 15.0 15
  533.35956 10.0 10
  537.38647 28.0 28
  544.13855 8.0 8
  545.26154 11.0 11
  549.35657 10.0 10
  550.36218 23.0 23
  551.21545 14.0 14
  553.37085 12.0 12
  557.39758 8.0 8
  563.35876 19.0 19
  563.38043 10.0 10
  565.38983 10.0 10
  567.20361 10.0 10
  568.38135 21.0 21
  571.24542 9.0 9
  571.40186 9.0 9
  572.40125 9.0 9
  573.39856 13.0 13
  581.37872 126.0 126
  581.39722 49.0 49
  582.37872 15.0 15
  583.37567 9.0 9
  584.40411 9.0 9
  586.39954 10.0 10
  587.3811 8.0 8
  589.42847 17.0 17
  592.05707 9.0 9
  597.42035 9.0 9
  599.36505 28.0 28
  599.38965 146.0 146
  599.41962 47.0 47
  600.36108 8.0 8
  600.38873 15.0 15
  600.41534 48.0 48
  602.89807 14.0 14
  603.38251 17.0 17
  604.40228 9.0 9
  605.3905 9.0 9
  605.42914 10.0 10
  615.35962 11.0 11
  615.3999 41.0 41
  616.37488 10.0 10
  616.40063 19.0 19
  617.40363 313.0 313
  618.39185 40.0 40
  618.4234 69.0 69
  618.44989 8.0 8
  619.39679 10.0 10
  619.42743 9.0 9
  619.47778 10.0 10
  621.37488 11.0 11
  621.39917 18.0 18
  622.42712 9.0 9
  626.49457 9.0 9
  631.38312 9.0 9
  631.40295 9.0 9
  631.67078 9.0 9
  633.39459 83.0 83
  634.38318 17.0 17
  635.37262 18.0 18
  635.39825 114.0 114
  635.41943 477.0 477
  635.49414 10.0 10
  636.36536 14.0 14
  636.42224 185.0 185
  637.39606 8.0 8
  637.41577 43.0 43
  638.41266 9.0 9
  651.36377 22.0 22
  651.40643 116.0 116
  651.435 37.0 37
  652.41125 10.0 10
  652.67267 18.0 18
  653.39154 11.0 11
  653.43665 24.0 24
  653.84296 9.0 9
  654.23395 8.0 8
  661.38391 14.0 14
  666.20074 10.0 10
  682.46051 11.0 11
  683.62915 10.0 10
  710.43219 11.0 11
  710.66638 12.0 12
  713.45703 9.0 9
  714.32037 13.0 13
  726.45306 9.0 9
  727.42975 25.0 25
  727.45056 15.0 15
  731.4032 8.0 8
  731.42572 12.0 12
  731.44745 10.0 10
  743.42523 15.0 15
  743.44928 15.0 15
  744.46057 12.0 12
  745.46063 27.0 27
  746.44385 22.0 22
  747.45044 12.0 12
  749.47717 10.0 10
  750.48834 10.0 10
  761.44287 26.0 26
  761.47217 17.0 17
  763.47919 10.0 10
  764.48187 21.0 21
  766.54163 8.0 8
  767.42859 29.0 29
  767.46924 29.0 29
  767.72601 12.0 12
  768.47589 43.0 43
  768.52594 8.0 8
  769.45294 15.0 15
  778.4455 8.0 8
  779.45673 69.0 69
  780.45728 43.0 43
  780.48376 10.0 10
  781.45038 64.0 64
  781.48236 185.0 185
  781.51062 36.0 36
  781.71887 10.0 10
  782.48102 92.0 92
  783.46045 8.0 8
  783.51196 8.0 8
  784.45551 10.0 10
  784.4975 10.0 10
  797.36536 8.0 8
  797.39423 10.0 10
  797.45728 90.0 90
  797.48438 120.0 120
  798.45087 59.0 59
  798.47577 38.0 38
  799.48157 8.0 8
  800.50616 8.0 8
  802.06433 11.0 11
  837.50867 8.0 8
  859.46869 9.0 9
  889.4917 10.0 10
  894.51404 9.0 9
  899.48029 10.0 10
  929.48761 12.0 12
  930.5249 28.0 28
  931.53699 9.0 9
  943.53113 14.0 14
  943.55969 25.0 25
  944.51031 9.0 9
  1112.47302 15.0 15
  1187.21313 8.0 8
  1207.62793 9.0 9
//
