ACCESSION: MSBNK-RIKEN-PR303341
RECORD_TITLE: NP-000002(10); LC-ESI-QTOF; MS2
DATE: 2019.03.28
AUTHORS: Tetsuya Mori, Center for Sustainable Resource Science, RIKEN
LICENSE: CC BY-NC-SA
PUBLICATION: Tsugawa H., Nakabayashi R., Mori T., Yamada Y., Takahashi M., Rai A., Sugiyama R., Yamamoto H., Nakaya T., Yamazaki M., Kooke R., Bac-Molenaar JA., Oztolan-Erol N., Keurentjes JJB., Arita M., Saito K. (2019) "A cheminformatics approach to characterize metabolomes in stable-isotope-labeled organisms" Nature Methods 16(4):295-298. [doi:10.1038/s41592-019-0358-2]
COMMENT: registered in RIKEN PlaSMA
CH$NAME: NP-000002(10)
CH$COMPOUND_CLASS: Flavonoid 8-C-glycosides
CH$FORMULA: C27H30O15
CH$EXACT_MASS: 594.522
CH$SMILES: OCC1OC(C(O)C(O)C1O)C1=C(O)C(C2OC(CO)C(O)C(O)C2O)=C2OC(=CC(=O)C2=C1O)C1=CC=C(O)C=C1
CH$IUPAC: InChI=1S/C27H30O15/c28-6-12-17(32)21(36)23(38)26(41-12)15-19(34)14-10(31)5-11(8-1-3-9(30)4-2-8)40-25(14)16(20(15)35)27-24(39)22(37)18(33)13(7-29)42-27/h1-5,12-13,17-18,21-24,26-30,32-39H,6-7H2
CH$LINK: INCHIKEY FIAAVMJLAGNUKW-UHFFFAOYSA-N
AC$INSTRUMENT: LC, Waters Acquity UPLC System; MS, Waters Xevo G2 Q-Tof
AC$INSTRUMENT_TYPE: LC-ESI-QTOF
AC$MASS_SPECTROMETRY: MS_TYPE MS2
AC$MASS_SPECTROMETRY: ION_MODE POSITIVE
AC$MASS_SPECTROMETRY: COLLISION_ENERGY 6V
AC$MASS_SPECTROMETRY: DESOLVATION_GAS_FLOW 800/h
AC$MASS_SPECTROMETRY: DESOLVATION_TEMPERATURE 450 C
AC$MASS_SPECTROMETRY: IONIZATION ESI
AC$CHROMATOGRAPHY: CAPILLARY_VOLTAGE +3.00 kV
AC$CHROMATOGRAPHY: COLUMN_NAME Acquity bridged ethyl hybrid C18 (1.7 um, 2.1 mm * 100 mm, Waters)
AC$CHROMATOGRAPHY: COLUMN_TEMPERATURE 40 C
AC$CHROMATOGRAPHY: FLOW_GRADIENT A/B = (99.5%/0.5% at 0 min, 99.5%/0.5% at 0.1 min, 20%/80% at 10 min, 0.5%/99.5% at 10.1 min, 0.5%/99.5% at 12.0 min, 99.5%/0.5% at 12.1 min, 99.5%/0.5% at 15.0 min)
AC$CHROMATOGRAPHY: FLOW_RATE 0.3 ml/min at 0 min, 0.3 ml/min at 10 min, 0.4 ml/min at 10.1 min, 0.4 ml/min at 14.4 min, 0.3 ml/min at 14.5 min
AC$CHROMATOGRAPHY: RETENTION_TIME 3.302967
AC$CHROMATOGRAPHY: SOLVENT A water including 0.1% formic acid
AC$CHROMATOGRAPHY: SOLVENT B acetonitrile including 0.1% formic acid
MS$FOCUSED_ION: PRECURSOR_TYPE [M+H]+
MS$FOCUSED_ION: PRECURSOR_M/Z 595.1657467
PK$SPLASH: splash10-0002-0018790000-1f25e87568b88ed20429
PK$NUM_PEAK: 221
PK$PEAK: m/z int. rel.int.
  121.08922 7.0 7
  203.03812 7.0 7
  241.05083 8.0 8
  269.04419 10.0 10
  294.05127 23.0 23
  294.98788 15.0 15
  295.03775 12.0 12
  295.05157 48.0 48
  295.06238 63.0 63
  296.06229 45.0 45
  296.07687 10.0 10
  297.09702 10.0 10
  307.06534 40.0 40
  308.06226 19.0 19
  308.0751 16.0 16
  309.05521 10.0 10
  309.06799 11.0 11
  313.07562 10.0 10
  314.07556 19.0 19
  317.09488 7.0 7
  319.0611 15.0 15
  321.07074 39.0 39
  321.09119 21.0 21
  321.48444 16.0 16
  322.07782 7.0 7
  325.04086 24.0 24
  325.06293 98.0 98
  325.0769 115.0 115
  326.0722 35.0 35
  328.07974 11.0 11
  328.09091 11.0 11
  333.08337 7.0 7
  335.05524 8.0 8
  335.08368 16.0 16
  335.10562 8.0 8
  337.06824 217.0 217
  337.08075 70.0 70
  339.09201 9.0 9
  347.05188 10.0 10
  347.09323 15.0 15
  347.11288 7.0 7
  348.0799 9.0 9
  348.29474 7.0 7
  348.78088 13.0 13
  349.05875 17.0 17
  349.07486 48.0 48
  350.06952 17.0 17
  350.08517 18.0 18
  350.11191 7.0 7
  351.05048 9.0 9
  351.10043 13.0 13
  352.07208 7.0 7
  352.08698 13.0 13
  355.06714 24.0 24
  355.07602 48.0 48
  356.09326 23.0 23
  361.05493 19.0 19
  361.06818 22.0 22
  361.1011 11.0 11
  361.1207 20.0 20
  361.28827 10.0 10
  361.84286 7.0 7
  363.0834 32.0 32
  364.10159 7.0 7
  364.82315 7.0 7
  365.10544 19.0 19
  365.12012 7.0 7
  371.07281 10.0 10
  373.06415 27.0 27
  373.54831 7.0 7
  375.04648 10.0 10
  375.09229 30.0 30
  376.07455 10.0 10
  376.09637 7.0 7
  377.0997 15.0 15
  377.11429 9.0 9
  379.02094 7.0 7
  379.04413 17.0 17
  379.07947 75.0 75
  379.09601 59.0 59
  379.25378 9.0 9
  380.07861 39.0 39
  380.09198 16.0 16
  381.10828 11.0 11
  382.05957 10.0 10
  382.07565 7.0 7
  384.98306 10.0 10
  385.06482 9.0 9
  387.07791 13.0 13
  388.07495 12.0 12
  391.05487 9.0 9
  391.07156 53.0 53
  391.086 59.0 59
  391.10312 9.0 9
  392.07309 21.0 21
  392.08829 7.0 7
  393.08972 8.0 8
  395.0611 9.0 9
  399.07242 7.0 7
  401.08405 8.0 8
  401.10297 8.0 8
  403.02139 7.0 7
  403.07022 87.0 87
  409.06235 8.0 8
  409.09119 81.0 81
  409.11652 33.0 33
  409.12787 11.0 11
  410.0903 29.0 29
  411.11594 12.0 12
  415.06183 8.0 8
  415.11252 7.0 7
  417.09149 16.0 16
  418.11258 9.0 9
  420.11905 12.0 12
  420.13168 8.0 8
  421.03369 7.0 7
  421.06042 13.0 13
  421.08533 67.0 67
  421.10632 16.0 16
  421.98767 7.0 7
  427.05856 19.0 19
  427.09482 24.0 24
  427.11108 23.0 23
  428.08698 22.0 22
  428.11688 12.0 12
  429.10321 11.0 11
  433.08203 13.0 13
  433.11047 10.0 10
  437.81055 7.0 7
  439.06223 8.0 8
  439.08423 20.0 20
  439.10355 71.0 71
  439.12329 16.0 16
  440.04959 7.0 7
  440.11191 8.0 8
  445.08292 13.0 13
  445.09775 10.0 10
  446.0929 14.0 14
  451.09363 14.0 14
  457.07166 14.0 14
  457.10486 131.0 131
  457.12274 162.0 162
  458.07312 15.0 15
  458.10318 51.0 51
  458.12759 41.0 41
  458.14194 12.0 12
  459.10837 12.0 12
  459.1344 16.0 16
  460.11261 8.0 8
  463.11115 17.0 17
  469.06122 10.0 10
  471.11566 8.0 8
  471.13791 10.0 10
  473.88651 12.0 12
  475.09003 10.0 10
  475.11374 54.0 54
  475.13397 69.0 69
  476.11057 17.0 17
  476.13852 18.0 18
  477.11258 7.0 7
  481.01367 11.0 11
  481.07654 28.0 28
  481.10641 86.0 86
  481.15268 7.0 7
  481.43896 7.0 7
  481.66434 8.0 8
  482.05176 8.0 8
  482.12161 15.0 15
  483.05774 7.0 7
  483.13049 12.0 12
  483.14444 12.0 12
  487.11368 28.0 28
  494.12051 8.0 8
  495.13885 7.0 7
  499.11755 25.0 25
  499.13507 15.0 15
  500.10733 14.0 14
  501.11774 12.0 12
  505.10519 25.0 25
  511.08853 8.0 8
  511.1116 8.0 8
  511.13559 44.0 44
  512.10693 8.0 8
  512.12537 7.0 7
  512.14825 9.0 9
  523.11163 24.0 24
  523.12555 92.0 92
  524.14215 12.0 12
  529.12012 35.0 35
  529.14471 12.0 12
  530.11151 19.0 19
  530.13324 10.0 10
  541.13458 37.0 37
  541.93329 10.0 10
  542.14447 21.0 21
  543.13696 21.0 21
  543.15845 12.0 12
  559.11993 17.0 17
  559.15723 65.0 65
  559.19403 10.0 10
  560.14417 28.0 28
  560.54352 7.0 7
  561.10071 15.0 15
  561.32581 8.0 8
  576.19751 7.0 7
  577.11731 28.0 28
  577.13934 121.0 121
  577.17072 126.0 126
  578.11987 15.0 15
  578.14148 8.0 8
  578.16614 18.0 18
  578.18945 15.0 15
  579.17969 40.0 40
  579.20251 8.0 8
  580.15582 14.0 14
  584.63708 7.0 7
  585.92401 7.0 7
  589.8186 7.0 7
  595.16144 1000.0 999
  595.2713 7.0 7
  595.32111 10.0 10
//
