ACCESSION: MSBNK-RIKEN-PR100411
RECORD_TITLE: 1-Methylnicotinamide; LC-ESI-QTOF; MS2; CE:Ramp 5-60 V; [M]+
DATE: 2016.01.19 (Created 2009.09.10, modified 2011.05.06)
AUTHORS: Matsuda F, Suzuki M, Sawada Y, Plant Science Center, RIKEN.
LICENSE: CC BY-SA
COMMENT: Acquisition and generation of the data is financially supported in part by CREST/JST.
CH$NAME: 1-Methylnicotinamide
CH$NAME: N-Methylnicotinic acid amide
CH$NAME: 3-Carbamoyl-1-methylpyridinium
CH$NAME: Nicotinamide methiodide
CH$COMPOUND_CLASS: Nicotinamide
CH$FORMULA: [C7H9N2O]+
CH$EXACT_MASS: 137.07149
CH$SMILES: NC(=O)c(c1)c[n+1](C)cc1
CH$IUPAC: InChI=1S/C7H8N2O/c1-9-4-2-3-6(5-9)7(8)10/h2-5H,1H3,(H-,8,10)/p+1
CH$LINK: CAS 3106-60-3
CH$LINK: CHEMSPIDER 444
CH$LINK: KEGG C02918
CH$LINK: PUBCHEM CID:457
CH$LINK: INCHIKEY LDHMAVIPBRSVRG-UHFFFAOYSA-O
CH$LINK: COMPTOX DTXSID10185019
AC$INSTRUMENT: UPLC Q-Tof Premier, Waters
AC$INSTRUMENT_TYPE: LC-ESI-QTOF
AC$MASS_SPECTROMETRY: MS_TYPE MS2
AC$MASS_SPECTROMETRY: ION_MODE POSITIVE
AC$MASS_SPECTROMETRY: COLLISION_ENERGY Ramp 5-60 V
AC$MASS_SPECTROMETRY: DATAFORMAT Continuum
AC$MASS_SPECTROMETRY: DATE 2008.07.28
AC$MASS_SPECTROMETRY: DESOLVATION_GAS_FLOW 600.0 L/Hr
AC$MASS_SPECTROMETRY: DESOLVATION_TEMPERATURE 420 C
AC$MASS_SPECTROMETRY: FRAGMENTATION_METHOD LOW-ENERGY CID
AC$MASS_SPECTROMETRY: IONIZATION ESI
AC$MASS_SPECTROMETRY: SCANNING 1.0 sec/scan (m/z = 50-1000)
AC$MASS_SPECTROMETRY: SOURCE_TEMPERATURE 120 C
AC$CHROMATOGRAPHY: CAPILLARY_VOLTAGE 3.0 kV
AC$CHROMATOGRAPHY: SAMPLING_CONE 23.0 V
AC$CHROMATOGRAPHY: SOLVENT A CH3CN(0.1%HCOOH)
AC$CHROMATOGRAPHY: SOLVENT B H2O(0.1%HCOOH)
MS$FOCUSED_ION: PRECURSOR_M/Z 137.07146
MS$FOCUSED_ION: PRECURSOR_TYPE [M]+
PK$SPLASH: splash10-000l-6900000000-360fb882a925f7e9edc9
PK$NUM_PEAK: 4
PK$PEAK: m/z int. rel.int.
  78.0370 457.9 93
  92.0527 944.1 191
  94.0681 2298 466
  137.0715 4928 999
//
