ACCESSION: MSBNK-RIKEN-PR301301
RECORD_TITLE: 9-Nitro-20(S)-camptothecin; LC-ESI-QTOF; MS2
DATE: 2019.03.28
AUTHORS: Tetsuya Mori, Center for Sustainable Resource Science, RIKEN
LICENSE: CC BY-NC-SA
PUBLICATION: Tsugawa H., Nakabayashi R., Mori T., Yamada Y., Takahashi M., Rai A., Sugiyama R., Yamamoto H., Nakaya T., Yamazaki M., Kooke R., Bac-Molenaar JA., Oztolan-Erol N., Keurentjes JJB., Arita M., Saito K. (2019) "A cheminformatics approach to characterize metabolomes in stable-isotope-labeled organisms" Nature Methods 16(4):295-298. [doi:10.1038/s41592-019-0358-2]
COMMENT: registered in RIKEN PlaSMA
CH$NAME: 9-Nitro-20(S)-camptothecin
CH$COMPOUND_CLASS: Camptothecins
CH$FORMULA: C20H15N3O6
CH$EXACT_MASS: 393.355
CH$SMILES: CC[C@@]1(O)C(=O)OCC2=C1C=C1N(CC3=CC4=C(C=CC=C4N(=O)=O)N=C13)C2=O
CH$IUPAC: InChI=1S/C20H15N3O6/c1-2-20(26)13-7-16-17-10(8-22(16)18(24)12(13)9-29-19(20)25)6-11-14(21-17)4-3-5-15(11)23(27)28/h3-7,26H,2,8-9H2,1H3/t20-/m0/s1
CH$LINK: INCHIKEY VHXNKPBCCMUMSW-FQEVSTJZSA-N
AC$INSTRUMENT: LC, Waters Acquity UPLC System; MS, Waters Xevo G2 Q-Tof
AC$INSTRUMENT_TYPE: LC-ESI-QTOF
AC$MASS_SPECTROMETRY: MS_TYPE MS2
AC$MASS_SPECTROMETRY: ION_MODE POSITIVE
AC$MASS_SPECTROMETRY: COLLISION_ENERGY 6V
AC$MASS_SPECTROMETRY: DESOLVATION_GAS_FLOW 800/h
AC$MASS_SPECTROMETRY: DESOLVATION_TEMPERATURE 450 C
AC$MASS_SPECTROMETRY: IONIZATION ESI
AC$CHROMATOGRAPHY: CAPILLARY_VOLTAGE +3.00 kV
AC$CHROMATOGRAPHY: COLUMN_NAME Acquity bridged ethyl hybrid C18 (1.7 um, 2.1 mm * 100 mm, Waters)
AC$CHROMATOGRAPHY: COLUMN_TEMPERATURE 40 C
AC$CHROMATOGRAPHY: FLOW_GRADIENT A/B = (99.5%/0.5% at 0 min, 99.5%/0.5% at 0.1 min, 20%/80% at 10 min, 0.5%/99.5% at 10.1 min, 0.5%/99.5% at 12.0 min, 99.5%/0.5% at 12.1 min, 99.5%/0.5% at 15.0 min)
AC$CHROMATOGRAPHY: FLOW_RATE 0.3 ml/min at 0 min, 0.3 ml/min at 10 min, 0.4 ml/min at 10.1 min, 0.4 ml/min at 14.4 min, 0.3 ml/min at 14.5 min
AC$CHROMATOGRAPHY: RETENTION_TIME 5.86515
AC$CHROMATOGRAPHY: SOLVENT A water including 0.1% formic acid
AC$CHROMATOGRAPHY: SOLVENT B acetonitrile including 0.1% formic acid
MS$FOCUSED_ION: PRECURSOR_TYPE [M+H]+
MS$FOCUSED_ION: PRECURSOR_M/Z 394.1033617
PK$SPLASH: splash10-0006-0019000000-8e97bad0a609020b386f
PK$NUM_PEAK: 47
PK$PEAK: m/z int. rel.int.
  217.06801 5.0 5
  218.08955 12.0 12
  220.09303 5.0 5
  235.08865 19.0 19
  236.08687 5.0 5
  238.07741 8.0 8
  245.06042 5.0 5
  246.05659 6.0 6
  247.0793 8.0 8
  247.09407 24.0 24
  248.09052 26.0 26
  264.07098 5.0 5
  265.0809 21.0 21
  286.10004 5.0 5
  291.05219 12.0 12
  291.06641 53.0 53
  292.06305 10.0 10
  292.07504 12.0 12
  292.08469 15.0 15
  292.11975 6.0 6
  293.07529 64.0 64
  293.10086 8.0 8
  294.08386 5.0 5
  302.09702 7.0 7
  304.12137 189.0 189
  305.10577 9.0 9
  305.12518 25.0 25
  306.12119 6.0 6
  309.06845 5.0 5
  319.08017 5.0 5
  320.07306 6.0 6
  320.11618 6.0 6
  322.09427 6.0 6
  336.05789 7.0 7
  337.07138 13.0 13
  348.09827 24.0 24
  348.11163 20.0 20
  348.12863 6.0 6
  350.1131 124.0 124
  351.1134 24.0 24
  365.05319 15.0 15
  365.06607 30.0 30
  365.08597 10.0 10
  366.06802 6.0 6
  394.03677 5.0 5
  394.10089 1000.0 999
  394.16431 5.0 5
//
