ACCESSION: MSBNK-RIKEN-PR308826
RECORD_TITLE: Silychrystin; LC-ESI-QTOF; MS2
DATE: 2019.03.28
AUTHORS: Tetsuya Mori, Center for Sustainable Resource Science, RIKEN
LICENSE: CC BY-NC-SA
PUBLICATION: Tsugawa H., Nakabayashi R., Mori T., Yamada Y., Takahashi M., Rai A., Sugiyama R., Yamamoto H., Nakaya T., Yamazaki M., Kooke R., Bac-Molenaar JA., Oztolan-Erol N., Keurentjes JJB., Arita M., Saito K. (2019) "A cheminformatics approach to characterize metabolomes in stable-isotope-labeled organisms" Nature Methods 16(4):295-298. [doi:10.1038/s41592-019-0358-2]
COMMENT: Annotation level-1
CH$NAME: Silychrystin
CH$COMPOUND_CLASS: Arylbenzofuran flavonoids
CH$FORMULA: C25H22O10
CH$EXACT_MASS: 482.441
CH$SMILES: COC1=C(O)C=CC(=C1)C1OC2=C(C=C(C=C2O)C2OC3=C(C(O)=CC(O)=C3)C(=O)C2O)C1CO
CH$IUPAC: InChI=1S/C25H22O10/c1-33-18-6-10(2-3-15(18)28)23-14(9-26)13-4-11(5-17(30)25(13)35-23)24-22(32)21(31)20-16(29)7-12(27)8-19(20)34-24/h2-8,14,22-24,26-30,32H,9H2,1H3
CH$LINK: INCHIKEY BMLIIPOXVWESJG-UHFFFAOYSA-N
AC$INSTRUMENT: LC, Waters Acquity UPLC System; MS, Waters Xevo G2 Q-Tof
AC$INSTRUMENT_TYPE: LC-ESI-QTOF
AC$MASS_SPECTROMETRY: MS_TYPE MS2
AC$MASS_SPECTROMETRY: ION_MODE NEGATIVE
AC$MASS_SPECTROMETRY: COLLISION_ENERGY 6V
AC$MASS_SPECTROMETRY: DESOLVATION_GAS_FLOW 800/h
AC$MASS_SPECTROMETRY: DESOLVATION_TEMPERATURE 450 C
AC$MASS_SPECTROMETRY: IONIZATION ESI
AC$CHROMATOGRAPHY: CAPILLARY_VOLTAGE +3.00 kV
AC$CHROMATOGRAPHY: COLUMN_NAME Acquity bridged ethyl hybrid C18 (1.7 um, 2.1 mm * 100 mm, Waters)
AC$CHROMATOGRAPHY: COLUMN_TEMPERATURE 40 C
AC$CHROMATOGRAPHY: FLOW_GRADIENT A/B = (99.5%/0.5% at 0 min, 99.5%/0.5% at 0.1 min, 20%/80% at 10 min, 0.5%/99.5% at 10.1 min, 0.5%/99.5% at 12.0 min, 99.5%/0.5% at 12.1 min, 99.5%/0.5% at 15.0 min)
AC$CHROMATOGRAPHY: FLOW_RATE 0.3 ml/min at 0 min, 0.3 ml/min at 10 min, 0.4 ml/min at 10.1 min, 0.4 ml/min at 14.4 min, 0.3 ml/min at 14.5 min
AC$CHROMATOGRAPHY: RETENTION_TIME 4.96
AC$CHROMATOGRAPHY: SOLVENT A water including 0.1% formic acid
AC$CHROMATOGRAPHY: SOLVENT B acetonitrile including 0.1% formic acid
MS$FOCUSED_ION: PRECURSOR_TYPE [M-H]-
MS$FOCUSED_ION: PRECURSOR_M/Z 481.11402
PK$SPLASH: splash10-003r-0414900000-276b5666376fc6aa45ef
PK$NUM_PEAK: 163
PK$PEAK: m/z int. rel.int.
  64.99705 18.0 5
  93.03111 19.0 5
  108.02294 21.0 6
  109.03174 25.0 7
  122.04039 19.0 5
  125.02328 1190.0 338
  126.02119 24.0 7
  126.02858 72.0 20
  137.02222 72.0 20
  138.99045 20.0 6
  151.00322 119.0 34
  152.01233 211.0 60
  153.01056 18.0 5
  153.01918 67.0 19
  154.02139 20.0 6
  155.79811 21.0 6
  163.01003 30.0 9
  163.03754 22.0 6
  173.69008 20.0 6
  175.04265 19.0 5
  178.9726 19.0 5
  178.9998 626.0 178
  179.99516 76.0 22
  180.00728 116.0 33
  181.01137 46.0 13
  181.02249 19.0 5
  185.06023 19.0 5
  189.04782 18.0 5
  191.03503 20.0 6
  195.02472 20.0 6
  197.06104 25.0 7
  200.04451 22.0 6
  207.54221 18.0 5
  209.05669 23.0 7
  223.03194 18.0 5
  225.0538 36.0 10
  226.07291 29.0 8
  227.02571 21.0 6
  228.03593 20.0 6
  228.04637 25.0 7
  237.05215 26.0 7
  237.0724 20.0 6
  239.03749 18.0 5
  241.06306 23.0 7
  242.05121 65.0 18
  242.0629 21.0 6
  253.08498 20.0 6
  255.06715 40.0 11
  256.07623 27.0 8
  257.71997 23.0 7
  262.06754 20.0 6
  265.05188 20.0 6
  266.06265 21.0 6
  267.05975 84.0 24
  268.07178 56.0 16
  272.06808 20.0 6
  273.05716 24.0 7
  273.0845 20.0 6
  277.08099 22.0 6
  279.0596 18.0 5
  280.05096 18.0 5
  280.15485 21.0 6
  282.08582 18.0 5
  283.06796 20.0 6
  289.08749 25.0 7
  290.02432 18.0 5
  292.08124 29.0 8
  292.10095 22.0 6
  293.06796 23.0 7
  293.0856 27.0 8
  294.04413 20.0 6
  294.0827 23.0 7
  295.04156 23.0 7
  295.05701 31.0 9
  295.86432 24.0 7
  296.07037 27.0 8
  296.09186 20.0 6
  299.09219 41.0 12
  303.10117 28.0 8
  305.0813 29.0 8
  307.05078 20.0 6
  307.06357 60.0 17
  308.06845 18.0 5
  309.08231 20.0 6
  309.11929 18.0 5
  310.048 24.0 7
  310.06247 19.0 5
  311.10751 20.0 6
  316.06662 37.0 11
  319.05927 20.0 6
  321.06201 18.0 5
  322.04489 84.0 24
  322.07532 41.0 12
  323.06012 29.0 8
  323.0784 20.0 6
  323.0932 58.0 16
  324.09338 20.0 6
  325.06888 627.0 178
  326.07666 75.0 21
  327.0777 74.0 21
  327.254 20.0 6
  330.0914 19.0 5
  332.07382 44.0 12
  333.07437 18.0 5
  335.08978 20.0 6
  335.10706 27.0 8
  336.09912 20.0 6
  337.04092 18.0 5
  337.06531 92.0 26
  338.06583 21.0 6
  341.09665 25.0 7
  342.05829 20.0 6
  345.07022 18.0 5
  346.07648 20.0 6
  347.10034 28.0 8
  349.09924 20.0 6
  350.06677 21.0 6
  351.0921 62.0 18
  355.06949 120.0 34
  355.08206 518.0 147
  356.08728 61.0 17
  357.08295 18.0 5
  362.09756 27.0 8
  363.10675 19.0 5
  365.10187 62.0 18
  366.12595 22.0 6
  374.08411 38.0 11
  376.08832 38.0 11
  378.1084 26.0 7
  379.10989 18.0 5
  384.67398 18.0 5
  389.09845 20.0 6
  389.11594 38.0 11
  396.11154 20.0 6
  398.34006 18.0 5
  402.07022 20.0 6
  404.10321 41.0 12
  407.10074 48.0 14
  416.08102 31.0 9
  416.1131 21.0 6
  419.11276 95.0 27
  419.13681 22.0 6
  423.10498 156.0 44
  424.11716 20.0 6
  430.10275 20.0 6
  433.09573 505.0 143
  434.08591 46.0 13
  434.10275 44.0 12
  435.11227 153.0 43
  436.10321 18.0 5
  437.12622 41.0 12
  445.07886 27.0 8
  446.11029 18.0 5
  451.10193 457.0 130
  452.10638 99.0 28
  453.09625 18.0 5
  453.11829 106.0 30
  455.125 18.0 5
  463.07965 50.0 14
  463.10437 292.0 83
  464.09894 28.0 8
  474.56018 20.0 6
  481.11194 3517.0 999
//
