ACCESSION: MSBNK-RIKEN-PR303620
RECORD_TITLE: Bufalin; LC-ESI-QTOF; MS2
DATE: 2019.03.28
AUTHORS: Tetsuya Mori, Center for Sustainable Resource Science, RIKEN
LICENSE: CC BY-NC-SA
PUBLICATION: Tsugawa H., Nakabayashi R., Mori T., Yamada Y., Takahashi M., Rai A., Sugiyama R., Yamamoto H., Nakaya T., Yamazaki M., Kooke R., Bac-Molenaar JA., Oztolan-Erol N., Keurentjes JJB., Arita M., Saito K. (2019) "A cheminformatics approach to characterize metabolomes in stable-isotope-labeled organisms" Nature Methods 16(4):295-298. [doi:10.1038/s41592-019-0358-2]
COMMENT: registered in RIKEN PlaSMA
CH$NAME: Bufalin
CH$COMPOUND_CLASS: Bufanolides and derivatives
CH$FORMULA: C24H34O4
CH$EXACT_MASS: 386.532
CH$SMILES: C[C@]12CC[C@H]3[C@@H](CC[C@@H]4C[C@@H](O)CC[C@]34C)[C@@]1(O)CC[C@@H]2C1=COC(=O)C=C1
CH$IUPAC: InChI=1S/C24H34O4/c1-22-10-7-17(25)13-16(22)4-5-20-19(22)8-11-23(2)18(9-12-24(20,23)27)15-3-6-21(26)28-14-15/h3,6,14,16-20,25,27H,4-5,7-13H2,1-2H3/t16-,17+,18-,19+,20-,22+,23-,24+/m1/s1
CH$LINK: INCHIKEY QEEBRPGZBVVINN-BMPKRDENSA-N
AC$INSTRUMENT: LC, Waters Acquity UPLC System; MS, Waters Xevo G2 Q-Tof
AC$INSTRUMENT_TYPE: LC-ESI-QTOF
AC$MASS_SPECTROMETRY: MS_TYPE MS2
AC$MASS_SPECTROMETRY: ION_MODE POSITIVE
AC$MASS_SPECTROMETRY: COLLISION_ENERGY 6V
AC$MASS_SPECTROMETRY: DESOLVATION_GAS_FLOW 800/h
AC$MASS_SPECTROMETRY: DESOLVATION_TEMPERATURE 450 C
AC$MASS_SPECTROMETRY: IONIZATION ESI
AC$CHROMATOGRAPHY: CAPILLARY_VOLTAGE +3.00 kV
AC$CHROMATOGRAPHY: COLUMN_NAME Acquity bridged ethyl hybrid C18 (1.7 um, 2.1 mm * 100 mm, Waters)
AC$CHROMATOGRAPHY: COLUMN_TEMPERATURE 40 C
AC$CHROMATOGRAPHY: FLOW_GRADIENT A/B = (99.5%/0.5% at 0 min, 99.5%/0.5% at 0.1 min, 20%/80% at 10 min, 0.5%/99.5% at 10.1 min, 0.5%/99.5% at 12.0 min, 99.5%/0.5% at 12.1 min, 99.5%/0.5% at 15.0 min)
AC$CHROMATOGRAPHY: FLOW_RATE 0.3 ml/min at 0 min, 0.3 ml/min at 10 min, 0.4 ml/min at 10.1 min, 0.4 ml/min at 14.4 min, 0.3 ml/min at 14.5 min
AC$CHROMATOGRAPHY: RETENTION_TIME 6.99085
AC$CHROMATOGRAPHY: SOLVENT A water including 0.1% formic acid
AC$CHROMATOGRAPHY: SOLVENT B acetonitrile including 0.1% formic acid
MS$FOCUSED_ION: PRECURSOR_TYPE [M+H]+
MS$FOCUSED_ION: PRECURSOR_M/Z 387.252986
PK$SPLASH: splash10-05nf-2900000000-41e4383e7903da82f9ca
PK$NUM_PEAK: 380
PK$PEAK: m/z int. rel.int.
  53.03038 9.0 9
  55.05161 19.0 19
  55.0576 18.0 18
  58.79025 6.0 6
  67.0404 9.0 9
  67.05455 155.0 155
  68.05675 9.0 9
  69.07159 40.0 40
  77.03714 75.0 75
  77.0444 32.0 32
  77.06685 6.0 6
  79.04545 18.0 18
  79.05495 241.0 241
  79.11001 6.0 6
  79.85172 6.0 6
  80.04874 8.0 8
  80.0565 7.0 7
  81.03935 10.0 10
  81.04779 5.0 5
  81.07019 238.0 238
  82.07097 20.0 20
  82.07552 13.0 13
  83.04719 9.0 9
  83.05295 9.0 9
  83.08127 10.0 10
  83.0868 6.0 6
  83.93068 9.0 9
  85.01413 10.0 10
  89.67115 11.0 11
  91.02942 8.0 8
  91.05408 666.0 665
  92.04977 11.0 11
  92.0548 23.0 23
  92.05914 29.0 29
  92.15939 7.0 7
  92.3892 6.0 6
  93.05332 8.0 8
  93.0703 486.0 486
  93.58314 5.0 5
  94.04075 11.0 11
  94.07217 20.0 20
  94.55843 6.0 6
  94.79437 5.0 5
  95.00871 13.0 13
  95.04281 8.0 8
  95.04984 36.0 36
  95.05554 15.0 15
  95.08426 290.0 290
  96.0872 30.0 30
  96.09393 6.0 6
  97.02732 7.0 7
  97.03384 17.0 17
  97.06309 7.0 7
  97.49565 6.0 6
  103.05112 34.0 34
  103.05816 42.0 42
  105.05009 19.0 19
  105.06982 1000.0 999
  105.20243 6.0 6
  106.0395 6.0 6
  106.07396 71.0 71
  107.05107 102.0 102
  107.08467 390.0 390
  107.10461 9.0 9
  107.9571 6.0 6
  108.08822 42.0 42
  108.09644 11.0 11
  109.02725 53.0 53
  109.04842 6.0 6
  109.07082 13.0 13
  109.08782 18.0 18
  109.10066 92.0 92
  109.73253 6.0 6
  111.04237 9.0 9
  111.18037 8.0 8
  113.02244 9.0 9
  113.05888 6.0 6
  115.04301 14.0 14
  115.05631 83.0 83
  115.16881 7.0 7
  116.0596 67.0 67
  117.06977 359.0 359
  118.05664 6.0 6
  118.06728 15.0 15
  118.0768 33.0 33
  118.97888 5.0 5
  119.0491 35.0 35
  119.06369 6.0 6
  119.08462 601.0 600
  119.11095 7.0 7
  120.05705 7.0 7
  120.0705 7.0 7
  120.08472 29.0 29
  120.09289 22.0 22
  121.06506 64.0 64
  121.07348 23.0 23
  121.09069 13.0 13
  121.10189 148.0 148
  122.06594 14.0 14
  122.10601 7.0 7
  123.04105 15.0 15
  123.04936 46.0 46
  123.0816 19.0 19
  123.11182 13.0 13
  123.11853 33.0 33
  124.05013 14.0 14
  124.07432 5.0 5
  124.12009 9.0 9
  124.13123 6.0 6
  124.27411 8.0 8
  127.05548 27.0 27
  128.03499 6.0 6
  128.06082 168.0 168
  128.07291 24.0 24
  129.0668 125.0 125
  129.07349 118.0 118
  130.0759 156.0 156
  130.08585 19.0 19
  130.99266 5.0 5
  131.04527 33.0 33
  131.05212 14.0 14
  131.0844 505.0 504
  131.70306 7.0 7
  132.0495 16.0 16
  132.06142 12.0 12
  132.09421 40.0 40
  133.04317 9.0 9
  133.06532 45.0 45
  133.07957 9.0 9
  133.10139 523.0 522
  134.10364 34.0 34
  134.11154 30.0 30
  135.03569 6.0 6
  135.04976 32.0 32
  135.08134 28.0 28
  135.10847 7.0 7
  135.11694 64.0 64
  136.05127 6.0 6
  136.11742 6.0 6
  136.12567 6.0 6
  137.05449 13.0 13
  137.06235 15.0 15
  137.09517 8.0 8
  138.06831 12.0 12
  140.06535 11.0 11
  141.07083 206.0 206
  141.42934 8.0 8
  141.94521 7.0 7
  142.07724 154.0 154
  142.08737 13.0 13
  142.65857 6.0 6
  143.04987 11.0 11
  143.08463 321.0 321
  144.06995 5.0 5
  144.08986 87.0 87
  144.09924 35.0 35
  145.06487 88.0 88
  145.10034 347.0 347
  146.07329 85.0 85
  146.10103 27.0 27
  146.10724 38.0 38
  146.68013 7.0 7
  147.03983 11.0 11
  147.04715 28.0 28
  147.07518 57.0 57
  147.08206 67.0 67
  147.11754 225.0 225
  148.05159 5.0 5
  148.08424 13.0 13
  148.11057 6.0 6
  148.11908 13.0 13
  149.06276 12.0 12
  149.08907 7.0 7
  149.11647 6.0 6
  149.12393 7.0 7
  149.13461 23.0 23
  151.03491 6.0 6
  151.11266 7.0 7
  152.10826 6.0 6
  153.05626 12.0 12
  153.06984 126.0 126
  154.07239 54.0 54
  154.08286 28.0 28
  154.59076 5.0 5
  154.68895 9.0 9
  155.08122 48.0 48
  155.08832 117.0 117
  156.09175 76.0 76
  157.05852 14.0 14
  157.09734 80.0 80
  157.1048 54.0 54
  158.06708 8.0 8
  158.07521 6.0 6
  158.09898 17.0 17
  158.10995 62.0 62
  158.9722 6.0 6
  159.04549 8.0 8
  159.0641 15.0 15
  159.07986 38.0 38
  159.09599 7.0 7
  159.11801 145.0 145
  159.77995 9.0 9
  160.08421 33.0 33
  160.09309 9.0 9
  160.11708 37.0 37
  160.50819 5.0 5
  160.96831 7.0 7
  161.02707 6.0 6
  161.06731 19.0 19
  161.0818 13.0 13
  161.09749 81.0 81
  161.1288 61.0 61
  161.13631 68.0 68
  162.10648 12.0 12
  162.13625 12.0 12
  163.07108 6.0 6
  163.10539 13.0 13
  165.05605 6.0 6
  165.0677 46.0 46
  165.07521 33.0 33
  166.05397 8.0 8
  166.06316 6.0 6
  166.07712 62.0 62
  166.11459 5.0 5
  167.07735 35.0 35
  167.08803 86.0 86
  168.05446 14.0 14
  168.07103 9.0 9
  168.09077 75.0 75
  168.10431 15.0 15
  169.101 159.0 159
  170.07225 16.0 16
  170.08585 19.0 19
  170.105 11.0 11
  170.3295 6.0 6
  171.07799 59.0 59
  171.09921 7.0 7
  171.11816 97.0 97
  172.12163 20.0 20
  173.05763 14.0 14
  173.10011 34.0 34
  173.11578 7.0 7
  173.13098 102.0 102
  173.13663 46.0 46
  174.05769 6.0 6
  174.06711 6.0 6
  174.10501 7.0 7
  174.13457 15.0 15
  174.14873 14.0 14
  175.07838 5.0 5
  175.14857 7.0 7
  176.11551 6.0 6
  178.07619 28.0 28
  178.08548 5.0 5
  179.07869 27.0 27
  179.09128 17.0 17
  180.09477 24.0 24
  181.07326 11.0 11
  181.09343 46.0 46
  181.10225 84.0 84
  181.11607 7.0 7
  182.06792 7.0 7
  182.10295 54.0 54
  182.11208 32.0 32
  183.08353 21.0 21
  183.1127 25.0 25
  183.12064 93.0 93
  184.08342 18.0 18
  184.10774 6.0 6
  184.12271 19.0 19
  185.07466 7.0 7
  185.08531 7.0 7
  185.09412 18.0 18
  185.12102 17.0 17
  185.12956 40.0 40
  186.0952 10.0 10
  186.12915 13.0 13
  187.07289 10.0 10
  187.08156 12.0 12
  187.11351 13.0 13
  187.1492 24.0 24
  189.08379 10.0 10
  189.09062 26.0 26
  189.13332 7.0 7
  192.07196 6.0 6
  192.0847 18.0 18
  192.09319 45.0 45
  193.09265 7.0 7
  193.10254 21.0 21
  194.06699 14.0 14
  194.10994 22.0 22
  195.08113 6.0 6
  195.1178 66.0 66
  196.13307 14.0 14
  197.11346 7.0 7
  197.12744 12.0 12
  197.1333 28.0 28
  198.10806 11.0 11
  198.12888 7.0 7
  198.13986 7.0 7
  199.06982 14.0 14
  199.10965 9.0 9
  199.14958 59.0 59
  200.08754 6.0 6
  200.09747 6.0 6
  201.1055 7.0 7
  201.15868 6.0 6
  202.15819 6.0 6
  202.17055 6.0 6
  203.08461 14.0 14
  205.07146 10.0 10
  205.1001 34.0 34
  205.1192 5.0 5
  206.10185 8.0 8
  206.11455 15.0 15
  207.08215 15.0 15
  207.10902 21.0 21
  207.12332 25.0 25
  207.99229 6.0 6
  208.0957 5.0 5
  209.09462 6.0 6
  209.13071 14.0 14
  209.14169 31.0 31
  211.10042 6.0 6
  211.11455 10.0 10
  211.12228 8.0 8
  211.14609 29.0 29
  211.15628 6.0 6
  211.21368 8.0 8
  212.1463 17.0 17
  212.15855 18.0 18
  213.0963 7.0 7
  213.15767 9.0 9
  214.12508 7.0 7
  214.13797 11.0 11
  214.16391 10.0 10
  216.14792 6.0 6
  217.09235 6.0 6
  219.11507 14.0 14
  220.095 7.0 7
  221.13313 28.0 28
  222.14868 8.0 8
  223.1586 9.0 9
  227.10793 17.0 17
  229.16345 9.0 9
  231.16948 7.0 7
  232.14691 10.0 10
  233.13376 14.0 14
  234.14954 6.0 6
  234.81161 7.0 7
  235.15154 22.0 22
  237.13528 8.0 8
  237.16701 8.0 8
  239.14229 5.0 5
  239.17485 11.0 11
  239.18098 6.0 6
  239.89276 5.0 5
  240.17812 5.0 5
  240.26027 6.0 6
  242.12508 6.0 6
  242.72453 6.0 6
  246.13538 6.0 6
  248.01703 6.0 6
  249.11292 11.0 11
  249.15572 8.0 8
  251.17773 7.0 7
  256.21249 10.0 10
  259.35675 6.0 6
  261.15585 6.0 6
  262.14734 8.0 8
  265.18732 7.0 7
  274.17303 10.0 10
  277.19409 9.0 9
  281.14896 5.0 5
  285.16055 5.0 5
  289.16821 7.0 7
  295.19949 11.0 11
  307.20993 7.0 7
  324.68466 5.0 5
  369.23483 16.0 16
//
