ACCESSION: MSBNK-RIKEN-PR305656
RECORD_TITLE: Biochanin A; LC-ESI-QTOF; MS2
DATE: 2019.03.28
AUTHORS: Tetsuya Mori, Center for Sustainable Resource Science, RIKEN
LICENSE: CC BY-NC-SA
PUBLICATION: Tsugawa H., Nakabayashi R., Mori T., Yamada Y., Takahashi M., Rai A., Sugiyama R., Yamamoto H., Nakaya T., Yamazaki M., Kooke R., Bac-Molenaar JA., Oztolan-Erol N., Keurentjes JJB., Arita M., Saito K. (2019) "A cheminformatics approach to characterize metabolomes in stable-isotope-labeled organisms" Nature Methods 16(4):295-298. [doi:10.1038/s41592-019-0358-2]
COMMENT: registered in RIKEN PlaSMA
CH$NAME: Biochanin A
CH$COMPOUND_CLASS: 4'-O-methylisoflavones
CH$FORMULA: C16H12O5
CH$EXACT_MASS: 284.267
CH$SMILES: COC1=CC=C(C=C1)C1=COC2=CC(O)=CC(O)=C2C1=O
CH$IUPAC: InChI=1S/C16H12O5/c1-20-11-4-2-9(3-5-11)12-8-21-14-7-10(17)6-13(18)15(14)16(12)19/h2-8,17-18H,1H3
CH$LINK: INCHIKEY WUADCCWRTIWANL-UHFFFAOYSA-N
AC$INSTRUMENT: LC, Waters Acquity UPLC System; MS, Waters Xevo G2 Q-Tof
AC$INSTRUMENT_TYPE: LC-ESI-QTOF
AC$MASS_SPECTROMETRY: MS_TYPE MS2
AC$MASS_SPECTROMETRY: ION_MODE NEGATIVE
AC$MASS_SPECTROMETRY: COLLISION_ENERGY 6V
AC$MASS_SPECTROMETRY: DESOLVATION_GAS_FLOW 800/h
AC$MASS_SPECTROMETRY: DESOLVATION_TEMPERATURE 450 C
AC$MASS_SPECTROMETRY: IONIZATION ESI
AC$CHROMATOGRAPHY: CAPILLARY_VOLTAGE -2.75 kV
AC$CHROMATOGRAPHY: COLUMN_NAME Acquity bridged ethyl hybrid C18 (1.7 um, 2.1 mm * 100 mm, Waters)
AC$CHROMATOGRAPHY: COLUMN_TEMPERATURE 40 C
AC$CHROMATOGRAPHY: FLOW_GRADIENT A/B = (99.5%/0.5% at 0 min, 99.5%/0.5% at 0.1 min, 20%/80% at 10 min, 0.5%/99.5% at 10.1 min, 0.5%/99.5% at 12.0 min, 99.5%/0.5% at 12.1 min, 99.5%/0.5% at 15.0 min)
AC$CHROMATOGRAPHY: FLOW_RATE 0.3 ml/min at 0 min, 0.3 ml/min at 10 min, 0.4 ml/min at 10.1 min, 0.4 ml/min at 14.4 min, 0.3 ml/min at 14.5 min
AC$CHROMATOGRAPHY: RETENTION_TIME 7.614033
AC$CHROMATOGRAPHY: SOLVENT A water including 0.1% formic acid
AC$CHROMATOGRAPHY: SOLVENT B acetonitrile including 0.1% formic acid
MS$FOCUSED_ION: PRECURSOR_TYPE [M-H]-
MS$FOCUSED_ION: PRECURSOR_M/Z 283.06119704783
PK$SPLASH: splash10-0159-0090000000-bbfc04fec88dd781b2a0
PK$NUM_PEAK: 33
PK$PEAK: m/z int. rel.int.
  104.02506 19.0 19
  132.02113 46.0 46
  134.03284 8.0 8
  135.00816 13.0 13
  151.0036 13.0 13
  154.04015 9.0 9
  167.0493 39.0 39
  179.04572 8.0 8
  183.04472 17.0 17
  184.04759 12.0 12
  184.05656 9.0 9
  194.04056 5.0 5
  195.04465 45.0 45
  196.05254 26.0 26
  197.05565 5.0 5
  198.03142 6.0 6
  210.03113 12.0 12
  211.03922 123.0 123
  212.03967 12.0 12
  212.0545 12.0 12
  223.03877 33.0 33
  224.04814 46.0 46
  226.02559 19.0 19
  239.03525 102.0 102
  240.03856 58.0 58
  240.04622 19.0 19
  241.0379 6.0 6
  267.02979 170.0 170
  268.03671 767.0 766
  269.04089 162.0 162
  270.04276 15.0 15
  283.06 1000.0 999
  283.1066 6.0 6
//
