ACCESSION: MSBNK-RIKEN-PR301291
RECORD_TITLE: 12-Cytisineacetamide; LC-ESI-QTOF; MS2
DATE: 2019.03.28
AUTHORS: Tetsuya Mori, Center for Sustainable Resource Science, RIKEN
LICENSE: CC BY-NC-SA
PUBLICATION: Tsugawa H., Nakabayashi R., Mori T., Yamada Y., Takahashi M., Rai A., Sugiyama R., Yamamoto H., Nakaya T., Yamazaki M., Kooke R., Bac-Molenaar JA., Oztolan-Erol N., Keurentjes JJB., Arita M., Saito K. (2019) "A cheminformatics approach to characterize metabolomes in stable-isotope-labeled organisms" Nature Methods 16(4):295-298. [doi:10.1038/s41592-019-0358-2]
COMMENT: registered in RIKEN PlaSMA
CH$NAME: 12-Cytisineacetamide
CH$COMPOUND_CLASS: Cytisine and derivatives
CH$FORMULA: C13H17N3O2
CH$EXACT_MASS: 247.298
CH$SMILES: OC(=N)CN1C[C@H]2C[C@@H](C1)C1=CC=CC(=O)N1C2
CH$IUPAC: InChI=1S/C13H17N3O2/c14-12(17)8-15-5-9-4-10(7-15)11-2-1-3-13(18)16(11)6-9/h1-3,9-10H,4-8H2,(H2,14,17)/t9-,10+/m1/s1
CH$LINK: INCHIKEY MRVHCCZFXHOQOT-ZJUUUORDSA-N
AC$INSTRUMENT: LC, Waters Acquity UPLC System; MS, Waters Xevo G2 Q-Tof
AC$INSTRUMENT_TYPE: LC-ESI-QTOF
AC$MASS_SPECTROMETRY: MS_TYPE MS2
AC$MASS_SPECTROMETRY: ION_MODE POSITIVE
AC$MASS_SPECTROMETRY: COLLISION_ENERGY 6V
AC$MASS_SPECTROMETRY: DESOLVATION_GAS_FLOW 800/h
AC$MASS_SPECTROMETRY: DESOLVATION_TEMPERATURE 450 C
AC$MASS_SPECTROMETRY: IONIZATION ESI
AC$CHROMATOGRAPHY: CAPILLARY_VOLTAGE +3.00 kV
AC$CHROMATOGRAPHY: COLUMN_NAME Acquity bridged ethyl hybrid C18 (1.7 um, 2.1 mm * 100 mm, Waters)
AC$CHROMATOGRAPHY: COLUMN_TEMPERATURE 40 C
AC$CHROMATOGRAPHY: FLOW_GRADIENT A/B = (99.5%/0.5% at 0 min, 99.5%/0.5% at 0.1 min, 20%/80% at 10 min, 0.5%/99.5% at 10.1 min, 0.5%/99.5% at 12.0 min, 99.5%/0.5% at 12.1 min, 99.5%/0.5% at 15.0 min)
AC$CHROMATOGRAPHY: FLOW_RATE 0.3 ml/min at 0 min, 0.3 ml/min at 10 min, 0.4 ml/min at 10.1 min, 0.4 ml/min at 14.4 min, 0.3 ml/min at 14.5 min
AC$CHROMATOGRAPHY: RETENTION_TIME 2.17865
AC$CHROMATOGRAPHY: SOLVENT A water including 0.1% formic acid
AC$CHROMATOGRAPHY: SOLVENT B acetonitrile including 0.1% formic acid
MS$FOCUSED_ION: PRECURSOR_TYPE [M+H]+
MS$FOCUSED_ION: PRECURSOR_M/Z 248.1393533
PK$SPLASH: splash10-0udi-2950000000-bed80bf88633da56e6da
PK$NUM_PEAK: 90
PK$PEAK: m/z int. rel.int.
  57.98045 7.0 7
  58.06679 105.0 105
  58.07364 22.0 22
  58.51772 7.0 7
  59.06566 8.0 8
  70.06622 15.0 15
  73.04929 10.0 10
  73.07649 137.0 137
  73.08022 74.0 74
  74.07336 8.0 8
  74.08334 16.0 16
  80.05067 8.0 8
  82.06776 17.0 17
  82.07432 12.0 12
  84.04224 9.0 9
  84.0509 9.0 9
  85.67447 7.0 7
  93.05943 16.0 16
  94.06664 56.0 56
  95.07884 12.0 12
  96.0339 9.0 9
  96.08254 16.0 16
  101.04341 7.0 7
  101.07162 982.0 981
  101.78123 9.0 9
  102.07371 35.0 35
  102.07846 12.0 12
  108.07581 29.0 29
  108.08271 28.0 28
  110.06254 9.0 9
  117.05157 12.0 12
  117.06647 19.0 19
  118.06302 9.0 9
  122.06268 31.0 31
  123.09397 8.0 8
  127.05581 9.0 9
  129.06978 9.0 9
  130.0555 8.0 8
  131.07497 17.0 17
  132.05072 9.0 9
  132.07666 9.0 9
  133.05188 29.0 29
  133.06311 11.0 11
  134.05923 32.0 32
  134.0937 9.0 9
  135.06624 11.0 11
  142.06367 67.0 67
  143.0471 10.0 10
  144.07997 7.0 7
  144.09227 19.0 19
  145.04564 12.0 12
  146.04105 8.0 8
  146.05461 41.0 41
  146.06142 149.0 149
  147.05737 7.0 7
  147.06982 7.0 7
  148.0762 50.0 50
  150.12779 7.0 7
  151.08817 25.0 25
  152.08748 9.0 9
  154.06696 8.0 8
  158.06479 9.0 9
  159.07001 9.0 9
  160.07544 314.0 314
  161.07372 73.0 73
  161.08786 25.0 25
  161.15614 12.0 12
  161.39609 7.0 7
  162.08638 38.0 38
  162.09639 10.0 10
  163.08212 11.0 11
  163.0954 9.0 9
  170.15262 7.0 7
  172.07811 16.0 16
  173.06902 21.0 21
  175.08984 10.0 10
  175.09897 18.0 18
  187.09015 7.0 7
  188.12585 10.0 10
  200.1951 7.0 7
  201.07123 8.0 8
  201.09372 11.0 11
  202.0912 13.0 13
  203.08821 8.0 8
  203.11952 1000.0 999
  203.93863 9.0 9
  204.12425 61.0 61
  204.13368 39.0 39
  205.13675 15.0 15
  248.14264 276.0 276
//
