ACCESSION: MSBNK-RIKEN-PR310573
RECORD_TITLE: Vincanidine; LC-ESI-QTOF; MS2
DATE: 2019.03.28
AUTHORS: Tetsuya Mori, Center for Sustainable Resource Science, RIKEN
LICENSE: CC BY-NC-SA
PUBLICATION: Tsugawa H., Nakabayashi R., Mori T., Yamada Y., Takahashi M., Rai A., Sugiyama R., Yamamoto H., Nakaya T., Yamazaki M., Kooke R., Bac-Molenaar JA., Oztolan-Erol N., Keurentjes JJB., Arita M., Saito K. (2019) "A cheminformatics approach to characterize metabolomes in stable-isotope-labeled organisms" Nature Methods 16(4):295-298. [doi:10.1038/s41592-019-0358-2]
COMMENT: Annotation level-1
CH$NAME: Vincanidine
CH$COMPOUND_CLASS: Alkaloids
CH$FORMULA: C19H20N2O2
CH$EXACT_MASS: 308.381
CH$SMILES: CC=C1CN2CCC34C2CC1C(C=O)=C3NC1=C4C=CC=C1O
CH$IUPAC: InChI=1S/C19H20N2O2/c1-2-11-9-21-7-6-19-14-4-3-5-15(23)17(14)20-18(19)13(10-22)12(11)8-16(19)21/h2-5,10,12,16,20,23H,6-9H2,1H3
CH$LINK: INCHIKEY JDOFCMASVRMYJU-UHFFFAOYSA-N
AC$INSTRUMENT: LC, Waters Acquity UPLC System; MS, Waters Xevo G2 Q-Tof
AC$INSTRUMENT_TYPE: LC-ESI-QTOF
AC$MASS_SPECTROMETRY: MS_TYPE MS2
AC$MASS_SPECTROMETRY: ION_MODE POSITIVE
AC$MASS_SPECTROMETRY: COLLISION_ENERGY 6V
AC$MASS_SPECTROMETRY: DESOLVATION_GAS_FLOW 800/h
AC$MASS_SPECTROMETRY: DESOLVATION_TEMPERATURE 450 C
AC$MASS_SPECTROMETRY: IONIZATION ESI
AC$CHROMATOGRAPHY: CAPILLARY_VOLTAGE +3.00 kV
AC$CHROMATOGRAPHY: COLUMN_NAME Acquity bridged ethyl hybrid C18 (1.7 um, 2.1 mm * 100 mm, Waters)
AC$CHROMATOGRAPHY: COLUMN_TEMPERATURE 40 C
AC$CHROMATOGRAPHY: FLOW_GRADIENT A/B = (99.5%/0.5% at 0 min, 99.5%/0.5% at 0.1 min, 20%/80% at 10 min, 0.5%/99.5% at 10.1 min, 0.5%/99.5% at 12.0 min, 99.5%/0.5% at 12.1 min, 99.5%/0.5% at 15.0 min)
AC$CHROMATOGRAPHY: FLOW_RATE 0.3 ml/min at 0 min, 0.3 ml/min at 10 min, 0.4 ml/min at 10.1 min, 0.4 ml/min at 14.4 min, 0.3 ml/min at 14.5 min
AC$CHROMATOGRAPHY: RETENTION_TIME 3.38
AC$CHROMATOGRAPHY: SOLVENT A water including 0.1% formic acid
AC$CHROMATOGRAPHY: SOLVENT B acetonitrile including 0.1% formic acid
MS$FOCUSED_ION: PRECURSOR_TYPE [M+H]+
MS$FOCUSED_ION: PRECURSOR_M/Z 309.15975
PK$SPLASH: splash10-0a4i-0479000000-82f869c1bc98e313b139
PK$NUM_PEAK: 294
PK$PEAK: m/z int. rel.int.
  60.09291 37.0 4
  81.06834 61.0 6
  81.25935 38.0 4
  93.0628 18.0 2
  95.07977 28.0 3
  98.09507 47.0 4
  105.0562 43.0 4
  105.06834 35.0 3
  105.0726 17.0 2
  108.08868 28.0 3
  109.08271 51.0 5
  117.06988 29.0 3
  118.06617 20.0 2
  122.09177 19.0 2
  122.09883 76.0 7
  122.21286 17.0 2
  127.05801 21.0 2
  128.05702 18.0 2
  129.07326 27.0 3
  130.06445 26.0 2
  132.07524 40.0 4
  132.08418 22.0 2
  133.04608 21.0 2
  133.07562 23.0 2
  134.04482 34.0 3
  134.06342 36.0 3
  134.0818 21.0 2
  134.09294 19.0 2
  134.09958 33.0 3
  134.56555 18.0 2
  135.1021 19.0 2
  136.07935 43.0 4
  136.10657 25.0 2
  140.05814 24.0 2
  142.06079 25.0 2
  144.08817 30.0 3
  146.06129 322.0 31
  147.06155 28.0 3
  147.06737 20.0 2
  148.06401 34.0 3
  148.07394 17.0 2
  152.0739 27.0 3
  154.06473 104.0 10
  155.07123 33.0 3
  158.06053 41.0 4
  158.09607 38.0 4
  160.07329 175.0 17
  161.06654 32.0 3
  161.082 41.0 4
  162.08517 33.0 3
  162.51657 54.0 5
  166.06676 91.0 9
  167.07281 109.0 10
  168.07162 48.0 5
  168.08505 19.0 2
  170.00626 22.0 2
  170.02429 20.0 2
  170.05495 25.0 2
  170.06467 111.0 11
  172.06287 44.0 4
  172.07961 82.0 8
  172.11354 28.0 3
  173.07428 25.0 2
  173.08348 62.0 6
  174.0916 173.0 16
  177.47119 27.0 3
  178.07497 25.0 2
  178.09608 21.0 2
  179.05301 22.0 2
  179.08578 23.0 2
  180.07591 26.0 2
  180.08595 66.0 6
  181.29503 18.0 2
  182.05969 55.0 5
  182.09679 20.0 2
  183.06821 77.0 7
  183.08548 24.0 2
  183.09338 25.0 2
  184.07507 338.0 32
  184.6839 58.0 6
  185.07057 340.0 32
  185.08662 39.0 4
  186.05283 108.0 10
  186.08015 27.0 3
  187.06467 21.0 2
  187.09019 222.0 21
  187.53926 20.0 2
  188.04066 18.0 2
  188.0706 17.0 2
  189.0627 22.0 2
  189.66791 20.0 2
  190.06567 22.0 2
  191.06958 49.0 5
  192.07845 58.0 6
  193.09283 30.0 3
  193.10678 24.0 2
  194.10204 37.0 4
  194.80109 34.0 3
  195.09384 21.0 2
  195.60638 27.0 3
  196.061 33.0 3
  196.07884 459.0 44
  197.06989 130.0 12
  197.08308 30.0 3
  197.09444 25.0 2
  198.07237 23.0 2
  198.09229 85.0 8
  198.13226 18.0 2
  199.04956 23.0 2
  199.05858 54.0 5
  199.07008 26.0 2
  199.0768 26.0 2
  199.08484 20.0 2
  200.05843 31.0 3
  200.07127 55.0 5
  200.09409 46.0 4
  200.10431 59.0 6
  202.06235 24.0 2
  202.08351 60.0 6
  202.09462 38.0 4
  203.08046 27.0 3
  203.09172 57.0 5
  203.10141 52.0 5
  204.07811 36.0 3
  204.09641 29.0 3
  205.08279 55.0 5
  205.67532 20.0 2
  206.1125 19.0 2
  207.06476 65.0 6
  207.07401 49.0 5
  208.07733 86.0 8
  208.09683 24.0 2
  209.08907 96.0 9
  209.82677 18.0 2
  210.03827 17.0 2
  210.08945 110.0 10
  211.08582 28.0 3
  211.0948 31.0 3
  211.2758 18.0 2
  212.07454 33.0 3
  212.10054 109.0 10
  212.11249 25.0 2
  213.10645 25.0 2
  213.12175 38.0 4
  215.05508 21.0 2
  215.0802 222.0 21
  216.08223 92.0 9
  217.05602 32.0 3
  217.08601 48.0 5
  218.0764 22.0 2
  218.09142 25.0 2
  218.10364 25.0 2
  219.08081 33.0 3
  220.06755 41.0 4
  220.07803 17.0 2
  220.96162 24.0 2
  221.08621 55.0 5
  221.12561 35.0 3
  221.80241 44.0 4
  222.07014 21.0 2
  222.08292 24.0 2
  222.09415 65.0 6
  222.13031 28.0 3
  223.09032 287.0 27
  223.1021 146.0 14
  223.11526 30.0 3
  224.0695 61.0 6
  224.09764 145.0 14
  224.11182 117.0 11
  224.19817 23.0 2
  225.07549 37.0 4
  225.10069 115.0 11
  225.11197 25.0 2
  226.09065 37.0 4
  226.11931 46.0 4
  226.14157 32.0 3
  227.07452 18.0 2
  227.08296 24.0 2
  227.119 74.0 7
  230.09503 17.0 2
  231.10696 21.0 2
  233.07881 18.0 2
  233.09415 23.0 2
  233.28506 18.0 2
  234.07248 28.0 3
  234.0905 108.0 10
  234.10623 44.0 4
  235.08908 25.0 2
  235.10562 46.0 4
  235.11504 43.0 4
  236.06795 19.0 2
  236.07909 50.0 5
  236.09259 108.0 10
  236.10886 286.0 27
  236.63953 18.0 2
  237.10518 50.0 5
  237.11839 73.0 7
  237.83977 28.0 3
  238.07608 29.0 3
  238.08824 47.0 4
  238.11069 140.0 13
  238.11967 322.0 31
  238.12845 96.0 9
  238.2139 27.0 3
  239.07028 23.0 2
  239.09418 62.0 6
  239.1284 77.0 7
  240.09018 49.0 5
  240.1084 27.0 3
  240.55255 18.0 2
  240.56691 18.0 2
  242.11008 17.0 2
  242.11833 46.0 4
  242.27031 17.0 2
  243.11198 20.0 2
  245.08435 36.0 3
  246.09123 17.0 2
  247.09137 100.0 10
  248.09294 69.0 7
  248.1078 22.0 2
  248.12389 27.0 3
  249.07683 40.0 4
  249.105 28.0 3
  249.11287 78.0 7
  249.12779 66.0 6
  250.10159 32.0 3
  250.12248 18.0 2
  250.80249 18.0 2
  251.0885 20.0 2
  251.10353 69.0 7
  251.12514 21.0 2
  251.82414 33.0 3
  252.10983 57.0 5
  252.12416 33.0 3
  252.14441 210.0 20
  253.11131 29.0 3
  253.1355 23.0 2
  253.14832 23.0 2
  254.08727 17.0 2
  254.11162 92.0 9
  254.12427 27.0 3
  254.13606 19.0 2
  255.12534 23.0 2
  256.12003 41.0 4
  257.30838 24.0 2
  259.09586 20.0 2
  259.1087 19.0 2
  260.0871 23.0 2
  260.09705 26.0 2
  260.11154 23.0 2
  262.1257 63.0 6
  263.08978 23.0 2
  263.11774 20.0 2
  264.06012 26.0 2
  264.10455 39.0 4
  264.14127 299.0 28
  265.12057 57.0 5
  265.13702 75.0 7
  266.12021 239.0 23
  266.1528 36.0 3
  267.1037 41.0 4
  267.12891 57.0 5
  268.12692 33.0 3
  268.15823 20.0 2
  269.15652 24.0 2
  271.58466 23.0 2
  274.12427 89.0 8
  276.12158 45.0 4
  277.09467 29.0 3
  278.10211 37.0 4
  278.1196 22.0 2
  278.14493 41.0 4
  279.15115 49.0 5
  280.12286 70.0 7
  280.14105 204.0 19
  280.16333 47.0 4
  281.09424 27.0 3
  281.12872 21.0 2
  281.13657 63.0 6
  281.1644 135.0 13
  281.17688 23.0 2
  282.14865 21.0 2
  282.17255 19.0 2
  286.12405 24.0 2
  289.13065 17.0 2
  291.15109 123.0 12
  296.13879 20.0 2
  301.71686 41.0 4
  305.92981 25.0 2
  308.14243 19.0 2
  309.11075 114.0 11
  309.15988 10486.0 999
  309.19583 21.0 2
  309.21118 38.0 4
//
