ACCESSION: MSBNK-RIKEN-PR305324
RECORD_TITLE: Ginsenoside Re; LC-ESI-QTOF; MS2
DATE: 2019.03.28
AUTHORS: Tetsuya Mori, Center for Sustainable Resource Science, RIKEN
LICENSE: CC BY-NC-SA
PUBLICATION: Tsugawa H., Nakabayashi R., Mori T., Yamada Y., Takahashi M., Rai A., Sugiyama R., Yamamoto H., Nakaya T., Yamazaki M., Kooke R., Bac-Molenaar JA., Oztolan-Erol N., Keurentjes JJB., Arita M., Saito K. (2019) "A cheminformatics approach to characterize metabolomes in stable-isotope-labeled organisms" Nature Methods 16(4):295-298. [doi:10.1038/s41592-019-0358-2]
COMMENT: registered in RIKEN PlaSMA
CH$NAME: Ginsenoside Re
CH$COMPOUND_CLASS: Triterpene saponins
CH$FORMULA: C48H82O18
CH$EXACT_MASS: 947.166
CH$SMILES: C[C@H]1[C@@H]([C@H]([C@H]([C@@H](O1)O[C@@H]2[C@H]([C@@H]([C@H](O[C@H]2O[C@H]3C[C@@]4([C@H](C[C@H]([C@H]5[C@]4(CC[C@@H]5[C@](C)(CCC=C(C)C)O[C@H]6[C@@H]([C@H]([C@@H]([C@H](O6)CO)O)O)O)C)O)[C@@]7([C@@H]3C([C@H](CC7)O)(C)C)C)C)CO)O)O)O)O)O
CH$IUPAC: InChI=1S/C48H82O18/c1-21(2)11-10-14-48(9,66-42-38(60)35(57)32(54)26(19-49)63-42)23-12-16-46(7)30(23)24(51)17-28-45(6)15-13-29(52)44(4,5)40(45)25(18-47(28,46)8)62-43-39(36(58)33(55)27(20-50)64-43)65-41-37(59)34(56)31(53)22(3)61-41/h11,22-43,49-60H,10,12-20H2,1-9H3/t22-,23-,24+,25-,26+,27+,28+,29-,30-,31-,32+,33+,34+,35-,36-,37+,38+,39+,40-,41-,42-,43+,45+,46+,47+,48-/m0/s1
CH$LINK: INCHIKEY PWAOOJDMFUQOKB-WCZZMFLVSA-N
AC$INSTRUMENT: LC, Waters Acquity UPLC System; MS, Waters Xevo G2 Q-Tof
AC$INSTRUMENT_TYPE: LC-ESI-QTOF
AC$MASS_SPECTROMETRY: MS_TYPE MS2
AC$MASS_SPECTROMETRY: ION_MODE NEGATIVE
AC$MASS_SPECTROMETRY: COLLISION_ENERGY 6V
AC$MASS_SPECTROMETRY: DESOLVATION_GAS_FLOW 800/h
AC$MASS_SPECTROMETRY: DESOLVATION_TEMPERATURE 450 C
AC$MASS_SPECTROMETRY: IONIZATION ESI
AC$CHROMATOGRAPHY: CAPILLARY_VOLTAGE -2.75 kV
AC$CHROMATOGRAPHY: COLUMN_NAME Acquity bridged ethyl hybrid C18 (1.7 um, 2.1 mm * 100 mm, Waters)
AC$CHROMATOGRAPHY: COLUMN_TEMPERATURE 40 C
AC$CHROMATOGRAPHY: FLOW_GRADIENT A/B = (99.5%/0.5% at 0 min, 99.5%/0.5% at 0.1 min, 20%/80% at 10 min, 0.5%/99.5% at 10.1 min, 0.5%/99.5% at 12.0 min, 99.5%/0.5% at 12.1 min, 99.5%/0.5% at 15.0 min)
AC$CHROMATOGRAPHY: FLOW_RATE 0.3 ml/min at 0 min, 0.3 ml/min at 10 min, 0.4 ml/min at 10.1 min, 0.4 ml/min at 14.4 min, 0.3 ml/min at 14.5 min
AC$CHROMATOGRAPHY: RETENTION_TIME 4.79045
AC$CHROMATOGRAPHY: SOLVENT A water including 0.1% formic acid
AC$CHROMATOGRAPHY: SOLVENT B acetonitrile including 0.1% formic acid
MS$FOCUSED_ION: PRECURSOR_TYPE [M+HCOO]-
MS$FOCUSED_ION: PRECURSOR_M/Z 991.54831865183
PK$SPLASH: splash10-0imr-3900201000-2a5bdceb9981d05a11d9
PK$NUM_PEAK: 125
PK$PEAK: m/z int. rel.int.
  59.01269 166.0 166
  60.0148 12.0 12
  67.98007 10.0 10
  71.0117 247.0 247
  72.01504 21.0 21
  73.0207 11.0 11
  73.02872 67.0 67
  81.0293 25.0 25
  83.00759 11.0 11
  83.01511 11.0 11
  85.02834 70.0 70
  87.00919 40.0 40
  88.01332 11.0 11
  88.04601 12.0 12
  88.57162 10.0 10
  88.72584 11.0 11
  89.02333 758.0 757
  89.28814 10.0 10
  91.15202 11.0 11
  96.99869 15.0 15
  97.03157 28.0 28
  99.00826 43.0 43
  101.02288 1000.0 999
  102.02513 20.0 20
  103.03837 205.0 205
  109.02707 14.0 14
  109.03294 17.0 17
  113.0228 614.0 613
  115.04024 25.0 25
  119.0336 515.0 514
  120.0383 27.0 27
  125.02176 11.0 11
  127.03784 10.0 10
  128.0424 12.0 12
  129.01517 14.0 14
  129.02058 10.0 10
  131.02837 22.0 22
  131.03687 49.0 49
  143.03403 228.0 228
  144.03442 19.0 19
  145.0408 19.0 19
  145.05054 10.0 10
  146.04977 9.0 9
  147.41568 12.0 12
  149.03973 11.0 11
  149.05229 10.0 10
  159.0262 102.0 102
  161.00563 11.0 11
  161.04411 736.0 735
  161.15187 10.0 10
  163.0585 60.0 60
  179.05382 229.0 229
  180.05203 11.0 11
  180.06322 21.0 21
  205.06239 29.0 29
  205.07275 77.0 77
  233.80156 9.0 9
  257.05246 10.0 10
  302.49622 14.0 14
  308.36227 15.0 15
  333.93457 11.0 11
  337.72839 10.0 10
  346.21725 12.0 12
  391.26694 9.0 9
  424.68427 12.0 12
  427.48993 12.0 12
  434.11316 13.0 13
  457.36633 21.0 21
  473.58609 9.0 9
  475.37949 658.0 657
  475.42783 12.0 12
  476.38605 142.0 142
  477.38348 30.0 30
  477.40747 11.0 11
  478.36749 9.0 9
  527.38361 11.0 11
  531.40417 18.0 18
  571.40942 9.0 9
  590.41559 9.0 9
  601.41638 23.0 23
  602.40778 12.0 12
  605.46393 10.0 10
  615.40778 9.0 9
  619.41895 95.0 95
  620.41638 43.0 43
  621.39899 11.0 11
  622.42456 14.0 14
  622.44824 10.0 10
  623.79205 12.0 12
  637.36847 13.0 13
  637.42645 405.0 405
  638.26666 10.0 10
  638.44629 87.0 87
  639.42163 22.0 22
  639.44592 9.0 9
  640.39581 13.0 13
  640.46344 11.0 11
  665.45483 15.0 15
  674.45782 9.0 9
  765.46796 22.0 22
  765.52911 9.0 9
  766.47876 11.0 11
  766.49884 12.0 12
  766.52844 11.0 11
  767.52686 12.0 12
  781.47461 12.0 12
  781.50635 9.0 9
  783.48145 137.0 137
  784.44495 10.0 10
  784.48181 47.0 47
  784.51184 32.0 32
  785.50696 11.0 11
  786.50879 10.0 10
  799.49078 19.0 19
  800.51685 9.0 9
  800.86328 10.0 10
  902.33459 11.0 11
  945.49902 33.0 33
  945.54663 78.0 78
  946.51575 24.0 24
  946.55139 48.0 48
  947.508 12.0 12
  947.53326 15.0 15
  947.565 19.0 19
  950.55078 11.0 11
//
