ACCESSION: MSBNK-RIKEN-PR310635
RECORD_TITLE: Reserpic acid; LC-ESI-QTOF; MS2
DATE: 2019.03.28
AUTHORS: Tetsuya Mori, Center for Sustainable Resource Science, RIKEN
LICENSE: CC BY-NC-SA
PUBLICATION: Tsugawa H., Nakabayashi R., Mori T., Yamada Y., Takahashi M., Rai A., Sugiyama R., Yamamoto H., Nakaya T., Yamazaki M., Kooke R., Bac-Molenaar JA., Oztolan-Erol N., Keurentjes JJB., Arita M., Saito K. (2019) "A cheminformatics approach to characterize metabolomes in stable-isotope-labeled organisms" Nature Methods 16(4):295-298. [doi:10.1038/s41592-019-0358-2]
COMMENT: Annotation level-1
CH$NAME: Reserpic acid
CH$COMPOUND_CLASS: Alkaloids
CH$FORMULA: C22H28N2O5
CH$EXACT_MASS: 400.475
CH$SMILES: COC1C(O)CC2CN3CCC4=C(NC5=C4C=CC(OC)=C5)C3CC2C1C(O)=O
CH$IUPAC: InChI=1S/C22H28N2O5/c1-28-12-3-4-13-14-5-6-24-10-11-7-18(25)21(29-2)19(22(26)27)15(11)9-17(24)20(14)23-16(13)8-12/h3-4,8,11,15,17-19,21,23,25H,5-7,9-10H2,1-2H3,(H,26,27)
CH$LINK: INCHIKEY JVHNBFFHWQQPLL-UHFFFAOYSA-N
AC$INSTRUMENT: LC, Waters Acquity UPLC System; MS, Waters Xevo G2 Q-Tof
AC$INSTRUMENT_TYPE: LC-ESI-QTOF
AC$MASS_SPECTROMETRY: MS_TYPE MS2
AC$MASS_SPECTROMETRY: ION_MODE POSITIVE
AC$MASS_SPECTROMETRY: COLLISION_ENERGY 6V
AC$MASS_SPECTROMETRY: DESOLVATION_GAS_FLOW 800/h
AC$MASS_SPECTROMETRY: DESOLVATION_TEMPERATURE 450 C
AC$MASS_SPECTROMETRY: IONIZATION ESI
AC$CHROMATOGRAPHY: CAPILLARY_VOLTAGE +3.00 kV
AC$CHROMATOGRAPHY: COLUMN_NAME Acquity bridged ethyl hybrid C18 (1.7 um, 2.1 mm * 100 mm, Waters)
AC$CHROMATOGRAPHY: COLUMN_TEMPERATURE 40 C
AC$CHROMATOGRAPHY: FLOW_GRADIENT A/B = (99.5%/0.5% at 0 min, 99.5%/0.5% at 0.1 min, 20%/80% at 10 min, 0.5%/99.5% at 10.1 min, 0.5%/99.5% at 12.0 min, 99.5%/0.5% at 12.1 min, 99.5%/0.5% at 15.0 min)
AC$CHROMATOGRAPHY: FLOW_RATE 0.3 ml/min at 0 min, 0.3 ml/min at 10 min, 0.4 ml/min at 10.1 min, 0.4 ml/min at 14.4 min, 0.3 ml/min at 14.5 min
AC$CHROMATOGRAPHY: RETENTION_TIME 3.89
AC$CHROMATOGRAPHY: SOLVENT A water including 0.1% formic acid
AC$CHROMATOGRAPHY: SOLVENT B acetonitrile including 0.1% formic acid
MS$FOCUSED_ION: PRECURSOR_TYPE [M+H]+
MS$FOCUSED_ION: PRECURSOR_M/Z 401.2071
PK$SPLASH: splash10-0udi-0431900000-2a40cdc3aa9cc5e7128b
PK$NUM_PEAK: 480
PK$PEAK: m/z int. rel.int.
  70.06923 25.0 1
  79.05499 21.0 0
  80.05164 18.0 0
  85.06584 28.0 1
  90.97185 17.0 0
  91.02903 27.0 1
  91.05258 83.0 2
  93.05826 20.0 0
  93.07013 37.0 1
  94.06563 22.0 1
  97.06359 27.0 1
  105.07299 28.0 1
  106.06561 22.0 1
  107.03403 18.0 0
  107.06425 22.0 1
  107.07571 99.0 2
  108.01932 19.0 0
  108.08213 45.0 1
  109.06586 26.0 1
  110.09631 17.0 0
  115.05231 83.0 2
  117.05174 37.0 1
  117.06049 20.0 0
  117.07159 40.0 1
  118.05747 37.0 1
  118.0634 23.0 1
  118.07792 24.0 1
  120.08225 68.0 2
  123.07137 25.0 1
  123.07815 22.0 1
  123.08737 23.0 1
  124.04494 18.0 0
  124.07883 20.0 0
  126.28703 26.0 1
  128.05711 20.0 0
  128.24336 20.0 0
  129.06519 19.0 0
  130.05626 26.0 1
  130.0677 75.0 2
  130.07236 51.0 1
  130.93375 31.0 1
  131.04408 20.0 0
  131.07507 194.0 5
  132.04837 49.0 1
  132.08304 74.0 2
  133.06155 21.0 0
  134.09488 69.0 2
  135.06519 18.0 0
  135.08693 53.0 1
  135.87552 17.0 0
  137.05646 21.0 0
  138.05731 25.0 1
  138.09036 52.0 1
  140.06216 20.0 0
  140.07629 30.0 1
  142.05983 112.0 3
  142.0681 23.0 1
  142.09492 31.0 1
  143.0582 47.0 1
  143.06934 166.0 4
  143.07719 81.0 2
  144.05989 38.0 1
  144.07185 22.0 1
  144.08095 89.0 2
  145.05795 23.0 1
  145.07562 19.0 0
  145.08571 47.0 1
  146.05797 62.0 1
  146.08038 20.0 0
  146.0952 20.0 0
  147.03488 27.0 1
  147.05431 28.0 1
  147.08286 62.0 1
  147.09573 23.0 1
  147.11044 38.0 1
  148.07681 160.0 4
  149.06091 21.0 0
  149.09639 18.0 0
  150.05275 42.0 1
  150.09633 18.0 0
  150.11447 17.0 0
  152.06622 30.0 1
  152.07843 26.0 1
  152.10925 31.0 1
  153.11591 18.0 0
  157.05737 29.0 1
  158.06218 18.0 0
  158.43674 18.0 0
  159.02061 33.0 1
  159.06984 883.0 21
  159.42857 18.0 0
  159.72517 17.0 0
  160.06848 97.0 2
  160.07527 291.0 7
  161.0609 50.0 1
  161.07436 49.0 1
  161.08426 226.0 5
  161.0914 81.0 2
  161.10217 18.0 0
  162.09215 329.0 8
  162.67467 46.0 1
  163.09192 29.0 1
  163.10051 68.0 2
  164.07555 25.0 1
  164.11107 28.0 1
  165.09709 27.0 1
  166.08255 27.0 1
  166.08971 19.0 0
  166.09885 20.0 0
  167.08258 23.0 1
  169.08577 25.0 1
  169.31348 39.0 1
  170.05826 19.0 0
  170.067 26.0 1
  170.09085 18.0 0
  170.82219 17.0 0
  171.08421 19.0 0
  172.07385 20.0 0
  172.0833 75.0 2
  173.06523 17.0 0
  173.08118 55.0 1
  173.09151 55.0 1
  173.45317 17.0 0
  174.05182 49.0 1
  174.06398 68.0 2
  174.09196 11022.0 260
  174.12822 42.0 1
  174.17032 39.0 1
  174.27623 33.0 1
  174.63824 17.0 0
  175.06261 23.0 1
  175.0735 64.0 2
  175.09531 1720.0 41
  176.0618 17.0 0
  176.06856 59.0 1
  176.08777 20.0 0
  176.10341 141.0 3
  176.20457 17.0 0
  177.2847 21.0 0
  178.08568 296.0 7
  178.09433 205.0 5
  178.11928 21.0 0
  178.88203 17.0 0
  179.06618 18.0 0
  179.08533 132.0 3
  179.09456 78.0 2
  180.09105 22.0 1
  180.10486 22.0 1
  181.09181 20.0 0
  182.07713 46.0 1
  182.08467 27.0 1
  182.11794 17.0 0
  182.29166 25.0 1
  183.09087 20.0 0
  184.07646 65.0 2
  184.25011 20.0 0
  186.09564 104.0 2
  187.06062 19.0 0
  187.09584 141.0 3
  187.10988 34.0 1
  188.0638 17.0 0
  188.10851 1235.0 29
  189.07269 21.0 0
  189.11186 126.0 3
  189.12523 42.0 1
  190.08942 179.0 4
  190.11212 22.0 1
  192.11098 24.0 1
  193.06169 29.0 1
  193.08408 58.0 1
  194.0771 54.0 1
  194.08618 71.0 2
  194.11897 27.0 1
  196.06598 42.0 1
  196.09036 146.0 3
  196.10121 167.0 4
  196.65111 17.0 0
  197.09357 28.0 1
  197.10448 51.0 1
  198.07697 26.0 1
  198.0882 48.0 1
  198.09543 47.0 1
  199.09088 46.0 1
  199.10669 44.0 1
  199.15701 42.0 1
  200.05618 26.0 1
  200.1037 17.0 0
  200.11075 56.0 1
  201.10435 27.0 1
  202.08937 55.0 1
  202.11794 20.0 0
  204.09198 24.0 1
  204.10641 69.0 2
  204.93178 22.0 1
  207.11287 30.0 1
  208.0658 41.0 1
  208.09154 73.0 2
  208.09842 153.0 4
  208.11324 20.0 0
  209.08252 20.0 0
  210.08345 77.0 2
  210.09476 41.0 1
  210.11206 166.0 4
  211.0997 24.0 1
  211.11359 99.0 2
  211.20052 19.0 0
  212.09453 18.0 0
  212.11131 140.0 3
  214.11081 91.0 2
  214.68811 19.0 0
  215.11745 28.0 1
  216.48495 19.0 0
  221.59247 41.0 1
  222.07042 20.0 0
  222.08765 17.0 0
  222.0988 67.0 2
  222.11501 197.0 5
  222.13469 63.0 1
  223.08546 20.0 0
  223.11661 71.0 2
  224.09415 68.0 2
  224.10953 38.0 1
  225.09525 21.0 0
  225.11588 50.0 1
  225.91843 20.0 0
  226.09103 59.0 1
  226.10483 307.0 7
  226.11765 224.0 5
  226.13402 27.0 1
  227.11139 138.0 3
  227.13235 21.0 0
  228.08214 18.0 0
  228.09435 80.0 2
  228.12419 2202.0 52
  229.11485 42.0 1
  229.12558 49.0 1
  229.13817 81.0 2
  230.08315 38.0 1
  230.1243 25.0 1
  230.13249 17.0 0
  231.11148 23.0 1
  231.13571 28.0 1
  231.90009 20.0 0
  233.1853 17.0 0
  233.68936 23.0 1
  234.08649 20.0 0
  235.09622 18.0 0
  235.10999 53.0 1
  236.10805 183.0 4
  236.12868 38.0 1
  237.11162 71.0 2
  237.12393 23.0 1
  237.16748 17.0 0
  238.10207 26.0 1
  238.11555 101.0 2
  238.12726 229.0 5
  238.14249 40.0 1
  239.11078 53.0 1
  239.13118 111.0 3
  239.14139 43.0 1
  240.05417 27.0 1
  240.08107 43.0 1
  240.09706 80.0 2
  240.12491 4878.0 115
  240.19829 18.0 0
  240.21841 21.0 0
  240.2536 22.0 1
  240.28598 20.0 0
  240.40224 19.0 0
  241.08157 17.0 0
  241.12737 949.0 22
  242.11591 23.0 1
  242.12802 30.0 1
  242.13773 39.0 1
  242.14714 17.0 0
  242.22861 24.0 1
  243.08755 33.0 1
  243.11699 44.0 1
  244.11595 17.0 0
  244.14781 33.0 1
  244.85719 18.0 0
  245.08849 19.0 0
  245.09837 27.0 1
  245.49895 22.0 1
  247.08191 20.0 0
  247.10689 21.0 0
  248.09134 20.0 0
  248.11128 46.0 1
  248.1228 18.0 0
  249.11035 82.0 2
  249.25945 32.0 1
  250.10489 20.0 0
  250.12584 137.0 3
  250.13365 45.0 1
  251.12169 101.0 2
  251.13297 95.0 2
  252.11861 27.0 1
  252.13895 91.0 2
  252.15102 62.0 1
  254.15958 20.0 0
  254.74728 20.0 0
  254.7998 19.0 0
  258.1044 20.0 0
  258.95157 37.0 1
  260.10434 18.0 0
  260.12219 25.0 1
  261.09299 20.0 0
  261.12015 50.0 1
  262.1088 17.0 0
  262.13397 36.0 1
  262.14862 20.0 0
  262.1853 17.0 0
  262.90143 24.0 1
  263.14111 43.0 1
  264.05511 32.0 1
  264.12515 64.0 2
  264.13776 30.0 1
  265.14575 17.0 0
  266.11099 49.0 1
  267.07925 21.0 0
  267.19055 24.0 1
  268.13339 47.0 1
  268.15314 20.0 0
  269.08533 30.0 1
  271.63553 17.0 0
  272.13129 23.0 1
  273.1062 109.0 3
  274.11325 17.0 0
  274.12503 69.0 2
  274.39456 17.0 0
  275.09293 31.0 1
  275.12579 141.0 3
  275.14011 20.0 0
  276.14624 155.0 4
  276.75162 19.0 0
  277.1001 34.0 1
  277.11652 25.0 1
  277.14203 34.0 1
  277.16272 78.0 2
  278.13214 17.0 0
  278.14709 38.0 1
  278.16058 31.0 1
  280.1163 25.0 1
  280.13919 20.0 0
  286.08163 20.0 0
  288.14975 24.0 1
  289.12234 71.0 2
  289.13766 22.0 1
  289.15585 21.0 0
  290.11353 20.0 0
  290.16498 41.0 1
  291.13766 24.0 1
  291.17657 18.0 0
  293.11569 20.0 0
  293.14304 20.0 0
  293.15393 24.0 1
  294.14163 35.0 1
  294.1608 92.0 2
  295.11884 22.0 1
  295.40369 17.0 0
  296.12869 21.0 0
  296.15314 21.0 0
  301.1109 20.0 0
  301.60645 20.0 0
  302.12454 18.0 0
  304.12579 32.0 1
  305.10446 19.0 0
  306.11237 29.0 1
  306.15146 27.0 1
  306.20602 17.0 0
  307.12286 44.0 1
  307.16617 40.0 1
  307.18097 22.0 1
  308.13931 55.0 1
  308.16373 38.0 1
  309.18884 36.0 1
  310.17178 17.0 0
  310.18616 19.0 0
  312.17432 23.0 1
  315.11658 25.0 1
  317.9209 17.0 0
  318.20917 24.0 1
  320.11832 18.0 0
  322.12189 39.0 1
  322.13635 130.0 3
  322.15295 47.0 1
  322.17456 29.0 1
  322.19382 18.0 0
  323.05527 20.0 0
  323.14822 49.0 1
  323.16928 66.0 2
  323.18903 20.0 0
  324.16074 40.0 1
  325.19708 29.0 1
  326.13589 18.0 0
  326.15033 29.0 1
  326.18668 17.0 0
  328.28195 24.0 1
  329.13861 25.0 1
  330.67935 38.0 1
  332.13391 21.0 0
  333.15268 24.0 1
  334.13657 111.0 3
  334.15842 106.0 2
  334.62253 35.0 1
  335.10263 18.0 0
  335.14731 18.0 0
  336.72357 28.0 1
  337.11826 28.0 1
  337.92395 20.0 0
  339.87686 25.0 1
  340.11313 24.0 1
  340.13089 18.0 0
  340.15106 38.0 1
  340.20471 38.0 1
  341.12817 18.0 0
  341.14822 39.0 1
  341.15967 39.0 1
  342.16727 24.0 1
  344.14771 24.0 1
  348.45331 18.0 0
  351.16272 132.0 3
  351.18179 43.0 1
  352.14166 38.0 1
  352.16153 172.0 4
  353.12534 23.0 1
  354.15933 88.0 2
  354.17435 111.0 3
  355.07153 27.0 1
  355.15543 17.0 0
  358.08789 26.0 1
  358.1517 29.0 1
  358.16763 24.0 1
  365.15479 17.0 0
  366.14081 33.0 1
  366.16199 20.0 0
  366.17816 67.0 2
  367.16821 51.0 1
  367.21033 23.0 1
  369.17737 17.0 0
  369.19333 38.0 1
  370.14886 17.0 0
  370.16461 82.0 2
  370.18103 70.0 2
  371.15967 20.0 0
  371.17911 25.0 1
  371.25214 21.0 0
  372.18259 547.0 13
  373.15668 25.0 1
  373.1781 113.0 3
  373.19711 131.0 3
  375.19934 24.0 1
  382.20312 25.0 1
  383.16614 39.0 1
  383.20053 363.0 9
  383.60965 25.0 1
  384.1814 522.0 12
  384.21622 17.0 0
  385.1622 18.0 0
  385.19186 91.0 2
  386.16617 28.0 1
  390.04904 27.0 1
  394.39157 18.0 0
  395.95129 18.0 0
  399.16272 24.0 1
  399.17914 118.0 3
  399.19861 142.0 3
  399.5412 20.0 0
  400.18991 91.0 2
  400.20547 199.0 5
  400.68933 17.0 0
  400.90649 17.0 0
  401.06625 20.0 0
  401.0965 61.0 1
  401.13831 80.0 2
  401.15228 281.0 7
  401.20496 42417.0 999
  401.26047 863.0 20
  401.27029 361.0 9
  401.37384 21.0 0
//
