ACCESSION: MSBNK-RIKEN-PR301349
RECORD_TITLE: Germinaline; LC-ESI-QTOF; MS2
DATE: 2019.03.28
AUTHORS: Tetsuya Mori, Center for Sustainable Resource Science, RIKEN
LICENSE: CC BY-NC-SA
PUBLICATION: Tsugawa H., Nakabayashi R., Mori T., Yamada Y., Takahashi M., Rai A., Sugiyama R., Yamamoto H., Nakaya T., Yamazaki M., Kooke R., Bac-Molenaar JA., Oztolan-Erol N., Keurentjes JJB., Arita M., Saito K. (2019) "A cheminformatics approach to characterize metabolomes in stable-isotope-labeled organisms" Nature Methods 16(4):295-298. [doi:10.1038/s41592-019-0358-2]
COMMENT: registered in RIKEN PlaSMA
CH$NAME: Germinaline
CH$COMPOUND_CLASS: Cerveratrum-type alkaloids
CH$FORMULA: C39H61NO13
CH$EXACT_MASS: 751.911
CH$SMILES: CCC(C)C(=O)OC1C(O)C2C(CN3CC(C)CCC3C2(C)O)C2CC34OC5(O)C(CC(O)C3C12O)C4(C)CCC5OC(=O)C(C)(O)C(C)OC(C)=O
CH$IUPAC: InChI=1S/C39H61NO13/c1-9-19(3)32(44)52-31-29(43)28-22(17-40-16-18(2)10-11-26(40)36(28,8)47)23-15-37-30(38(23,31)48)24(42)14-25-34(37,6)13-12-27(39(25,49)53-37)51-33(45)35(7,46)20(4)50-21(5)41/h18-20,22-31,42-43,46-49H,9-17H2,1-8H3
CH$LINK: INCHIKEY CPINTEKYWNYXNP-UHFFFAOYSA-N
AC$INSTRUMENT: LC, Waters Acquity UPLC System; MS, Waters Xevo G2 Q-Tof
AC$INSTRUMENT_TYPE: LC-ESI-QTOF
AC$MASS_SPECTROMETRY: MS_TYPE MS2
AC$MASS_SPECTROMETRY: ION_MODE POSITIVE
AC$MASS_SPECTROMETRY: COLLISION_ENERGY 6V
AC$MASS_SPECTROMETRY: DESOLVATION_GAS_FLOW 800/h
AC$MASS_SPECTROMETRY: DESOLVATION_TEMPERATURE 450 C
AC$MASS_SPECTROMETRY: IONIZATION ESI
AC$CHROMATOGRAPHY: CAPILLARY_VOLTAGE +3.00 kV
AC$CHROMATOGRAPHY: COLUMN_NAME Acquity bridged ethyl hybrid C18 (1.7 um, 2.1 mm * 100 mm, Waters)
AC$CHROMATOGRAPHY: COLUMN_TEMPERATURE 40 C
AC$CHROMATOGRAPHY: FLOW_GRADIENT A/B = (99.5%/0.5% at 0 min, 99.5%/0.5% at 0.1 min, 20%/80% at 10 min, 0.5%/99.5% at 10.1 min, 0.5%/99.5% at 12.0 min, 99.5%/0.5% at 12.1 min, 99.5%/0.5% at 15.0 min)
AC$CHROMATOGRAPHY: FLOW_RATE 0.3 ml/min at 0 min, 0.3 ml/min at 10 min, 0.4 ml/min at 10.1 min, 0.4 ml/min at 14.4 min, 0.3 ml/min at 14.5 min
AC$CHROMATOGRAPHY: RETENTION_TIME 5.038466
AC$CHROMATOGRAPHY: SOLVENT A water including 0.1% formic acid
AC$CHROMATOGRAPHY: SOLVENT B acetonitrile including 0.1% formic acid
MS$FOCUSED_ION: PRECURSOR_TYPE [M+H]+
MS$FOCUSED_ION: PRECURSOR_M/Z 752.4215675
PK$SPLASH: splash10-0a4i-0100977200-6fad928119cb9dbef906
PK$NUM_PEAK: 237
PK$PEAK: m/z int. rel.int.
  69.03104 15.0 15
  81.06789 13.0 13
  83.0524 15.0 15
  88.49699 13.0 13
  89.06373 10.0 10
  97.05831 19.0 19
  99.05032 11.0 11
  112.11346 13.0 13
  129.06834 12.0 12
  142.11954 11.0 11
  154.10298 10.0 10
  154.11324 13.0 13
  154.12245 14.0 14
  154.12897 27.0 27
  155.12373 16.0 16
  161.12029 10.0 10
  162.12885 22.0 22
  166.10681 14.0 14
  166.1246 10.0 10
  174.13562 14.0 14
  180.13374 11.0 11
  180.14627 11.0 11
  183.08447 11.0 11
  188.14354 12.0 12
  190.12338 39.0 39
  192.11137 12.0 12
  192.14064 26.0 26
  193.1452 22.0 22
  193.15912 15.0 15
  204.1234 11.0 11
  221.13493 14.0 14
  225.13063 12.0 12
  227.10771 10.0 10
  228.9646 16.0 16
  236.12422 10.0 10
  247.13145 11.0 11
  251.18967 16.0 16
  259.34006 11.0 11
  261.18204 13.0 13
  263.1218 11.0 11
  267.1384 17.0 17
  269.15533 15.0 15
  273.18555 10.0 10
  276.65396 12.0 12
  279.13956 11.0 11
  285.15466 13.0 13
  296.17993 11.0 11
  297.16257 12.0 12
  315.60162 11.0 11
  316.17844 17.0 17
  344.17227 19.0 19
  368.271 13.0 13
  370.20035 12.0 12
  378.61905 17.0 17
  379.51535 12.0 12
  384.79147 10.0 10
  385.83191 13.0 13
  385.9043 10.0 10
  390.23727 15.0 15
  392.26126 10.0 10
  392.27347 10.0 10
  394.07526 16.0 16
  402.23596 13.0 13
  408.24304 14.0 14
  410.16754 11.0 11
  410.25961 36.0 36
  410.27481 53.0 53
  410.29092 22.0 22
  411.28012 14.0 14
  413.28265 10.0 10
  415.03021 14.0 14
  420.19019 13.0 13
  420.23825 23.0 23
  420.25632 34.0 34
  420.26892 32.0 32
  421.25598 11.0 11
  428.25793 14.0 14
  428.27936 29.0 29
  429.29086 13.0 13
  430.3172 10.0 10
  438.1969 13.0 13
  438.22806 48.0 48
  438.25708 325.0 325
  438.27612 116.0 116
  438.30438 10.0 10
  438.32056 18.0 18
  439.19992 11.0 11
  439.24316 10.0 10
  439.26801 144.0 144
  439.28079 42.0 42
  439.29901 16.0 16
  440.27701 10.0 10
  441.26126 12.0 12
  441.36835 13.0 13
  456.09253 10.0 10
  456.22495 35.0 35
  456.24423 90.0 90
  456.27591 1000.0 999
  456.71899 12.0 12
  457.23895 11.0 11
  457.27374 210.0 210
  457.30353 14.0 14
  458.27026 21.0 21
  458.28876 11.0 11
  458.52261 12.0 12
  458.56833 10.0 10
  460.28845 12.0 12
  461.52328 10.0 10
  474.08301 15.0 15
  474.28619 54.0 54
  474.30536 46.0 46
  475.2951 33.0 33
  476.224 10.0 10
  483.43579 15.0 15
  490.30643 10.0 10
  512.35541 14.0 14
  520.27118 10.0 10
  536.26434 10.0 10
  536.2818 18.0 18
  536.31268 11.0 11
  537.2948 10.0 10
  538.27698 11.0 11
  540.15369 11.0 11
  540.30847 15.0 15
  540.33112 58.0 58
  540.34955 54.0 54
  541.30518 13.0 13
  541.33051 32.0 32
  543.48553 11.0 11
  550.06189 11.0 11
  554.27991 10.0 10
  554.31799 35.0 35
  555.33679 19.0 19
  555.46173 14.0 14
  556.32483 29.0 29
  557.3269 45.0 45
  557.34564 28.0 28
  558.13464 10.0 10
  558.28204 24.0 24
  558.34943 674.0 673
  559.30078 29.0 29
  559.32458 99.0 99
  559.35522 165.0 165
  559.38708 11.0 11
  560.34094 20.0 20
  560.37561 11.0 11
  561.34918 23.0 23
  568.34613 10.0 10
  568.99634 20.0 20
  571.28723 11.0 11
  572.30713 10.0 10
  572.34717 11.0 11
  574.32465 11.0 11
  574.3457 38.0 38
  575.33972 10.0 10
  576.03729 14.0 14
  576.33832 42.0 42
  576.36224 18.0 18
  577.32916 13.0 13
  577.36853 11.0 11
  578.29138 58.0 58
  578.3316 23.0 23
  578.42126 13.0 13
  579.25909 21.0 21
  580.31653 12.0 12
  586.34668 11.0 11
  586.36359 14.0 14
  596.28461 23.0 23
  596.32861 304.0 304
  596.3869 12.0 12
  597.32465 148.0 148
  598.31464 13.0 13
  598.33704 22.0 22
  614.30225 77.0 77
  614.33411 571.0 570
  614.99567 14.0 14
  615.31287 77.0 77
  615.34296 121.0 121
  615.39648 13.0 13
  615.6972 10.0 10
  616.34613 11.0 11
  616.37921 11.0 11
  617.33209 11.0 11
  620.77325 11.0 11
  622.05316 13.0 13
  629.51208 10.0 10
  630.09735 10.0 10
  632.22571 14.0 14
  632.2514 10.0 10
  632.27692 21.0 21
  632.30743 42.0 42
  632.33051 205.0 205
  632.34534 558.0 557
  632.39081 14.0 14
  632.73163 10.0 10
  633.25513 10.0 10
  633.3269 140.0 140
  633.35382 102.0 102
  633.38068 72.0 72
  633.40295 15.0 15
  634.34473 45.0 45
  634.36823 21.0 21
  635.35132 31.0 31
  636.36267 13.0 13
  636.43103 11.0 11
  651.28558 10.0 10
  654.37659 14.0 14
  656.35046 10.0 10
  656.37134 10.0 10
  666.67682 14.0 14
  675.37433 12.0 12
  698.38544 11.0 11
  698.42792 33.0 33
  699.39709 11.0 11
  716.35272 11.0 11
  716.39001 86.0 86
  716.41852 26.0 26
  716.44366 14.0 14
  717.38544 23.0 23
  717.41913 21.0 21
  718.39966 11.0 11
  732.40894 10.0 10
  733.39984 29.0 29
  734.33795 26.0 26
  734.35828 22.0 22
  734.41376 235.0 235
  734.85358 15.0 15
  735.39703 85.0 85
  735.42493 66.0 66
  735.47339 12.0 12
  735.56763 10.0 10
  736.40216 26.0 26
  736.42419 17.0 17
  736.45929 27.0 27
  738.64661 15.0 15
  752.34021 14.0 14
  752.40356 10.0 10
//
