ACCESSION: MSBNK-RIKEN-PR306598
RECORD_TITLE: Biochanin-7-O-glucoside; LC-ESI-QTOF; MS2
DATE: 2019.03.28
AUTHORS: Tetsuya Mori, Center for Sustainable Resource Science, RIKEN
LICENSE: CC BY-NC-SA
PUBLICATION: Tsugawa H., Nakabayashi R., Mori T., Yamada Y., Takahashi M., Rai A., Sugiyama R., Yamamoto H., Nakaya T., Yamazaki M., Kooke R., Bac-Molenaar JA., Oztolan-Erol N., Keurentjes JJB., Arita M., Saito K. (2019) "A cheminformatics approach to characterize metabolomes in stable-isotope-labeled organisms" Nature Methods 16(4):295-298. [doi:10.1038/s41592-019-0358-2]
COMMENT: registered in RIKEN PlaSMA
CH$NAME: Biochanin-7-O-glucoside
CH$COMPOUND_CLASS: Isoflavonoid O-glycosides
CH$FORMULA: C22H22O10
CH$EXACT_MASS: 446.408
CH$SMILES: COC1=CC=C(C=C1)C1=COC2=CC(OC3OC(CO)C(O)C(O)C3O)=CC(O)=C2C1=O
CH$IUPAC: InChI=1S/C22H22O10/c1-29-11-4-2-10(3-5-11)13-9-30-15-7-12(6-14(24)17(15)18(13)25)31-22-21(28)20(27)19(26)16(8-23)32-22/h2-7,9,16,19-24,26-28H,8H2,1H3
CH$LINK: INCHIKEY LFEUICHQZGNOHD-UHFFFAOYSA-N
AC$INSTRUMENT: LC, Waters Acquity UPLC System; MS, Waters Xevo G2 Q-Tof
AC$INSTRUMENT_TYPE: LC-ESI-QTOF
AC$MASS_SPECTROMETRY: MS_TYPE MS2
AC$MASS_SPECTROMETRY: ION_MODE NEGATIVE
AC$MASS_SPECTROMETRY: COLLISION_ENERGY 6V
AC$MASS_SPECTROMETRY: DESOLVATION_GAS_FLOW 800/h
AC$MASS_SPECTROMETRY: DESOLVATION_TEMPERATURE 450 C
AC$MASS_SPECTROMETRY: IONIZATION ESI
AC$CHROMATOGRAPHY: CAPILLARY_VOLTAGE -2.75 kV
AC$CHROMATOGRAPHY: COLUMN_NAME Acquity bridged ethyl hybrid C18 (1.7 um, 2.1 mm * 100 mm, Waters)
AC$CHROMATOGRAPHY: COLUMN_TEMPERATURE 40 C
AC$CHROMATOGRAPHY: FLOW_GRADIENT A/B = (99.5%/0.5% at 0 min, 99.5%/0.5% at 0.1 min, 20%/80% at 10 min, 0.5%/99.5% at 10.1 min, 0.5%/99.5% at 12.0 min, 99.5%/0.5% at 12.1 min, 99.5%/0.5% at 15.0 min)
AC$CHROMATOGRAPHY: FLOW_RATE 0.3 ml/min at 0 min, 0.3 ml/min at 10 min, 0.4 ml/min at 10.1 min, 0.4 ml/min at 14.4 min, 0.3 ml/min at 14.5 min
AC$CHROMATOGRAPHY: RETENTION_TIME 5.755017
AC$CHROMATOGRAPHY: SOLVENT A water including 0.1% formic acid
AC$CHROMATOGRAPHY: SOLVENT B acetonitrile including 0.1% formic acid
MS$FOCUSED_ION: PRECURSOR_TYPE [M-H]-
MS$FOCUSED_ION: PRECURSOR_M/Z 445.11402044783
PK$SPLASH: splash10-001i-0090000000-6fd273f81d4c8733135f
PK$NUM_PEAK: 35
PK$PEAK: m/z int. rel.int.
  132.01895 9.0 9
  174.60571 6.0 6
  180.06024 10.0 10
  183.07684 6.0 6
  207.02142 6.0 6
  210.0676 5.0 5
  212.03778 5.0 5
  219.03204 7.0 7
  226.02147 7.0 7
  239.0154 6.0 6
  239.02739 5.0 5
  240.03435 16.0 16
  246.46965 11.0 11
  255.06145 7.0 7
  264.03781 6.0 6
  267.02097 11.0 11
  267.03574 26.0 26
  267.05545 9.0 9
  267.06766 7.0 7
  268.034 244.0 244
  268.06552 6.0 6
  269.02921 15.0 15
  269.04431 35.0 35
  282.05765 10.0 10
  283.05942 1000.0 999
  284.06265 197.0 197
  285.0639 18.0 18
  286.06238 7.0 7
  297.07294 7.0 7
  305.07892 13.0 13
  306.08328 13.0 13
  307.06027 5.0 5
  325.06815 8.0 8
  363.70917 7.0 7
  399.09674 6.0 6
//
