ACCESSION: MSBNK-RIKEN-PR306198
RECORD_TITLE: Apigenin-8-C-glucoside-2'-rhamnoside; LC-ESI-QTOF; MS2
DATE: 2019.03.28
AUTHORS: Tetsuya Mori, Center for Sustainable Resource Science, RIKEN
LICENSE: CC BY-NC-SA
PUBLICATION: Tsugawa H., Nakabayashi R., Mori T., Yamada Y., Takahashi M., Rai A., Sugiyama R., Yamamoto H., Nakaya T., Yamazaki M., Kooke R., Bac-Molenaar JA., Oztolan-Erol N., Keurentjes JJB., Arita M., Saito K. (2019) "A cheminformatics approach to characterize metabolomes in stable-isotope-labeled organisms" Nature Methods 16(4):295-298. [doi:10.1038/s41592-019-0358-2]
COMMENT: registered in RIKEN PlaSMA
CH$NAME: Apigenin-8-C-glucoside-2'-rhamnoside
CH$COMPOUND_CLASS: Flavonoid 8-C-glycosides
CH$FORMULA: C27H30O14
CH$EXACT_MASS: 578.523
CH$SMILES: C[C@H]1[C@@H]([C@H]([C@H]([C@@H](O1)O[C@@H]2[C@H]([C@@H]([C@H](O[C@H]2C3=C(C=C(C4=C3OC(=CC4=O)C5=CC=C(C=C5)O)O)O)CO)O)O)O)O)O
CH$IUPAC: InChI=1S/C27H30O14/c1-9-19(33)21(35)23(37)27(38-9)41-26-22(36)20(34)16(8-28)40-25(26)18-13(31)6-12(30)17-14(32)7-15(39-24(17)18)10-2-4-11(29)5-3-10/h2-7,9,16,19-23,25-31,33-37H,8H2,1H3/t9-,16+,19-,20+,21+,22-,23+,25-,26+,27-/m0/s1
CH$LINK: INCHIKEY LYGPBZVKGHHTIE-HUBYJIGHSA-N
AC$INSTRUMENT: LC, Waters Acquity UPLC System; MS, Waters Xevo G2 Q-Tof
AC$INSTRUMENT_TYPE: LC-ESI-QTOF
AC$MASS_SPECTROMETRY: MS_TYPE MS2
AC$MASS_SPECTROMETRY: ION_MODE NEGATIVE
AC$MASS_SPECTROMETRY: COLLISION_ENERGY 6V
AC$MASS_SPECTROMETRY: DESOLVATION_GAS_FLOW 800/h
AC$MASS_SPECTROMETRY: DESOLVATION_TEMPERATURE 450 C
AC$MASS_SPECTROMETRY: IONIZATION ESI
AC$CHROMATOGRAPHY: CAPILLARY_VOLTAGE -2.75 kV
AC$CHROMATOGRAPHY: COLUMN_NAME Acquity bridged ethyl hybrid C18 (1.7 um, 2.1 mm * 100 mm, Waters)
AC$CHROMATOGRAPHY: COLUMN_TEMPERATURE 40 C
AC$CHROMATOGRAPHY: FLOW_GRADIENT A/B = (99.5%/0.5% at 0 min, 99.5%/0.5% at 0.1 min, 20%/80% at 10 min, 0.5%/99.5% at 10.1 min, 0.5%/99.5% at 12.0 min, 99.5%/0.5% at 12.1 min, 99.5%/0.5% at 15.0 min)
AC$CHROMATOGRAPHY: FLOW_RATE 0.3 ml/min at 0 min, 0.3 ml/min at 10 min, 0.4 ml/min at 10.1 min, 0.4 ml/min at 14.4 min, 0.3 ml/min at 14.5 min
AC$CHROMATOGRAPHY: RETENTION_TIME 3.85705
AC$CHROMATOGRAPHY: SOLVENT A water including 0.1% formic acid
AC$CHROMATOGRAPHY: SOLVENT B acetonitrile including 0.1% formic acid
MS$FOCUSED_ION: PRECURSOR_TYPE [M-H]-
MS$FOCUSED_ION: PRECURSOR_M/Z 577.15627914783
PK$SPLASH: splash10-0006-0091000000-b894bfb0827fc38627a9
PK$NUM_PEAK: 18
PK$PEAK: m/z int. rel.int.
  89.01963 6.0 6
  101.02329 10.0 10
  269.04886 5.0 5
  281.04016 8.0 8
  283.056 10.0 10
  293.04321 1000.0 999
  294.04642 178.0 178
  295.04813 29.0 29
  296.0452 6.0 6
  311.05258 110.0 110
  312.05911 20.0 20
  323.05179 7.0 7
  323.06067 16.0 16
  335.05399 7.0 7
  341.06662 17.0 17
  413.08536 107.0 107
  413.10889 6.0 6
  414.09143 22.0 22
//
