ACCESSION: MSBNK-RIKEN-PR300481
RECORD_TITLE: Hyoscyamine; LC-ESI-QTOF; MS2
DATE: 2019.03.28
AUTHORS: Tetsuya Mori, Center for Sustainable Resource Science, RIKEN
LICENSE: CC BY-NC-SA
PUBLICATION: Tsugawa H., Nakabayashi R., Mori T., Yamada Y., Takahashi M., Rai A., Sugiyama R., Yamamoto H., Nakaya T., Yamazaki M., Kooke R., Bac-Molenaar JA., Oztolan-Erol N., Keurentjes JJB., Arita M., Saito K. (2019) "A cheminformatics approach to characterize metabolomes in stable-isotope-labeled organisms" Nature Methods 16(4):295-298. [doi:10.1038/s41592-019-0358-2]
COMMENT: registered in RIKEN PlaSMA
CH$NAME: Hyoscyamine
CH$COMPOUND_CLASS: Tropane alkaloids
CH$FORMULA: C17H23NO3
CH$EXACT_MASS: 289.375
CH$SMILES: CN1[C@H]2CC[C@@H]1CC(C2)OC(=O)[C@H](CO)C1=CC=CC=C1
CH$IUPAC: InChI=1S/C17H23NO3/c1-18-13-7-8-14(18)10-15(9-13)21-17(20)16(11-19)12-5-3-2-4-6-12/h2-6,13-16,19H,7-11H2,1H3/t13-,14+,15?,16-/m1/s1
CH$LINK: INCHIKEY RKUNBYITZUJHSG-VFSICIBPSA-N
AC$INSTRUMENT: LC, Waters Acquity UPLC System; MS, Waters Xevo G2 Q-Tof
AC$INSTRUMENT_TYPE: LC-ESI-QTOF
AC$MASS_SPECTROMETRY: MS_TYPE MS2
AC$MASS_SPECTROMETRY: ION_MODE POSITIVE
AC$MASS_SPECTROMETRY: COLLISION_ENERGY 6V
AC$MASS_SPECTROMETRY: DESOLVATION_GAS_FLOW 800/h
AC$MASS_SPECTROMETRY: DESOLVATION_TEMPERATURE 450 C
AC$MASS_SPECTROMETRY: IONIZATION ESI
AC$CHROMATOGRAPHY: CAPILLARY_VOLTAGE +3.00 kV
AC$CHROMATOGRAPHY: COLUMN_NAME Acquity bridged ethyl hybrid C18 (1.7 um, 2.1 mm * 100 mm, Waters)
AC$CHROMATOGRAPHY: COLUMN_TEMPERATURE 40 C
AC$CHROMATOGRAPHY: FLOW_GRADIENT A/B = (99.5%/0.5% at 0 min, 99.5%/0.5% at 0.1 min, 20%/80% at 10 min, 0.5%/99.5% at 10.1 min, 0.5%/99.5% at 12.0 min, 99.5%/0.5% at 12.1 min, 99.5%/0.5% at 15.0 min)
AC$CHROMATOGRAPHY: FLOW_RATE 0.3 ml/min at 0 min, 0.3 ml/min at 10 min, 0.4 ml/min at 10.1 min, 0.4 ml/min at 14.4 min, 0.3 ml/min at 14.5 min
AC$CHROMATOGRAPHY: RETENTION_TIME 3.589617
AC$CHROMATOGRAPHY: SOLVENT A water including 0.1% formic acid
AC$CHROMATOGRAPHY: SOLVENT B acetonitrile including 0.1% formic acid
MS$FOCUSED_ION: PRECURSOR_TYPE [M+H]+
MS$FOCUSED_ION: PRECURSOR_M/Z 290.1750701
PK$SPLASH: splash10-00dl-6910000000-e5f46b9259d974419e5f
PK$NUM_PEAK: 28
PK$PEAK: m/z int. rel.int.
  67.05302 15.0 15
  67.05743 16.0 16
  70.06641 11.0 11
  77.03959 25.0 25
  79.05444 8.0 8
  82.06597 26.0 26
  83.07427 16.0 16
  91.05522 109.0 109
  92.05383 6.0 6
  93.07057 551.0 550
  94.07354 49.0 49
  95.07115 11.0 11
  95.0853 43.0 43
  96.08173 31.0 31
  98.09643 14.0 14
  103.05425 29.0 29
  109.08978 9.0 9
  121.06467 36.0 36
  122.06839 6.0 6
  122.09852 5.0 5
  124.11286 1000.0 999
  124.14511 17.0 17
  125.11644 146.0 146
  140.10841 13.0 13
  142.12379 44.0 44
  260.16281 5.0 5
  260.17114 8.0 8
  290.17587 142.0 142
//
