ACCESSION: MSBNK-RIKEN-PR303913
RECORD_TITLE: Silychrystin; LC-ESI-QTOF; MS2
DATE: 2019.03.28
AUTHORS: Tetsuya Mori, Center for Sustainable Resource Science, RIKEN
LICENSE: CC BY-NC-SA
PUBLICATION: Tsugawa H., Nakabayashi R., Mori T., Yamada Y., Takahashi M., Rai A., Sugiyama R., Yamamoto H., Nakaya T., Yamazaki M., Kooke R., Bac-Molenaar JA., Oztolan-Erol N., Keurentjes JJB., Arita M., Saito K. (2019) "A cheminformatics approach to characterize metabolomes in stable-isotope-labeled organisms" Nature Methods 16(4):295-298. [doi:10.1038/s41592-019-0358-2]
COMMENT: registered in RIKEN PlaSMA
CH$NAME: Silychrystin
CH$COMPOUND_CLASS: 2-arylbenzofuran flavonoids
CH$FORMULA: C25H22O10
CH$EXACT_MASS: 482.441
CH$SMILES: COC1=C(O)C=CC(=C1)[C@@H]1OC2=C(C=C(C=C2O)[C@H]2OC3=CC(O)=CC(O)=C3C(=O)[C@@H]2O)[C@H]1CO
CH$IUPAC: InChI=1S/C25H22O10/c1-33-18-6-10(2-3-15(18)28)23-14(9-26)13-4-11(5-17(30)25(13)35-23)24-22(32)21(31)20-16(29)7-12(27)8-19(20)34-24/h2-8,14,22-24,26-30,32H,9H2,1H3/t14-,22+,23+,24-/m1/s1
CH$LINK: INCHIKEY BMLIIPOXVWESJG-LMBCONBSSA-N
AC$INSTRUMENT: LC, Waters Acquity UPLC System; MS, Waters Xevo G2 Q-Tof
AC$INSTRUMENT_TYPE: LC-ESI-QTOF
AC$MASS_SPECTROMETRY: MS_TYPE MS2
AC$MASS_SPECTROMETRY: ION_MODE POSITIVE
AC$MASS_SPECTROMETRY: COLLISION_ENERGY 6V
AC$MASS_SPECTROMETRY: DESOLVATION_GAS_FLOW 800/h
AC$MASS_SPECTROMETRY: DESOLVATION_TEMPERATURE 450 C
AC$MASS_SPECTROMETRY: IONIZATION ESI
AC$CHROMATOGRAPHY: CAPILLARY_VOLTAGE +3.00 kV
AC$CHROMATOGRAPHY: COLUMN_NAME Acquity bridged ethyl hybrid C18 (1.7 um, 2.1 mm * 100 mm, Waters)
AC$CHROMATOGRAPHY: COLUMN_TEMPERATURE 40 C
AC$CHROMATOGRAPHY: FLOW_GRADIENT A/B = (99.5%/0.5% at 0 min, 99.5%/0.5% at 0.1 min, 20%/80% at 10 min, 0.5%/99.5% at 10.1 min, 0.5%/99.5% at 12.0 min, 99.5%/0.5% at 12.1 min, 99.5%/0.5% at 15.0 min)
AC$CHROMATOGRAPHY: FLOW_RATE 0.3 ml/min at 0 min, 0.3 ml/min at 10 min, 0.4 ml/min at 10.1 min, 0.4 ml/min at 14.4 min, 0.3 ml/min at 14.5 min
AC$CHROMATOGRAPHY: RETENTION_TIME 4.95995
AC$CHROMATOGRAPHY: SOLVENT A water including 0.1% formic acid
AC$CHROMATOGRAPHY: SOLVENT B acetonitrile including 0.1% formic acid
MS$FOCUSED_ION: PRECURSOR_TYPE [M+H]+
MS$FOCUSED_ION: PRECURSOR_M/Z 483.1285734
PK$SPLASH: splash10-0udr-0973100000-b39a37c66d80ca251773
PK$NUM_PEAK: 266
PK$PEAK: m/z int. rel.int.
  83.01653 13.0 13
  109.07031 13.0 13
  111.00302 16.0 16
  111.00835 14.0 14
  111.04511 26.0 26
  119.04394 11.0 11
  121.06195 19.0 19
  123.04195 70.0 70
  125.05923 13.0 13
  127.04125 28.0 28
  131.04453 11.0 11
  135.04172 34.0 34
  135.04854 17.0 17
  136.82487 13.0 13
  137.02896 19.0 19
  137.06024 603.0 602
  138.05566 11.0 11
  138.06308 13.0 13
  138.07253 14.0 14
  139.0311 13.0 13
  139.04318 11.0 11
  139.68723 22.0 22
  147.02802 11.0 11
  147.04227 12.0 12
  148.04572 19.0 19
  149.02277 205.0 205
  149.06081 71.0 71
  149.09969 17.0 17
  150.03242 14.0 14
  151.03557 12.0 12
  151.04372 13.0 13
  151.07205 35.0 35
  152.98196 12.0 12
  153.00279 28.0 28
  153.01717 1000.0 999
  153.39026 19.0 19
  154.01201 14.0 14
  154.02182 138.0 138
  155.0191 11.0 11
  161.06541 53.0 53
  162.06029 17.0 17
  162.06877 40.0 40
  163.0414 13.0 13
  165.01099 19.0 19
  166.07544 20.0 20
  166.52968 11.0 11
  167.03041 79.0 79
  167.03664 95.0 95
  167.07675 11.0 11
  167.08905 17.0 17
  168.02994 17.0 17
  168.04117 14.0 14
  169.03818 26.0 26
  175.03354 15.0 15
  175.05174 24.0 24
  177.01787 38.0 38
  187.04019 17.0 17
  189.05031 33.0 33
  189.05861 15.0 15
  193.05525 17.0 17
  193.06683 25.0 25
  195.02594 237.0 237
  195.04378 12.0 12
  195.09369 11.0 11
  196.0206 14.0 14
  196.03535 52.0 52
  196.07719 12.0 12
  196.08966 13.0 13
  197.03333 11.0 11
  197.08507 22.0 22
  199.0752 42.0 42
  199.08437 42.0 42
  200.05786 11.0 11
  201.04936 19.0 19
  202.62169 12.0 12
  203.0303 28.0 28
  204.02554 13.0 13
  206.03752 18.0 18
  211.07014 28.0 28
  213.09828 21.0 21
  217.04631 13.0 13
  217.93341 13.0 13
  218.06187 15.0 15
  221.05513 28.0 28
  222.06825 30.0 30
  223.08092 19.0 19
  224.07161 40.0 40
  225.04166 14.0 14
  225.08911 56.0 56
  227.06618 13.0 13
  228.04434 11.0 11
  228.06932 15.0 15
  228.07944 48.0 48
  229.08694 11.0 11
  230.05736 13.0 13
  232.06113 19.0 19
  234.73669 18.0 18
  236.04251 32.0 32
  237.05394 29.0 29
  237.09781 16.0 16
  238.06425 28.0 28
  238.10638 14.0 14
  239.0385 11.0 11
  239.05989 54.0 54
  240.08083 11.0 11
  241.08357 15.0 15
  243.06773 15.0 15
  243.10464 19.0 19
  249.05521 43.0 43
  249.0939 13.0 13
  250.08147 13.0 13
  251.06131 35.0 35
  251.07103 93.0 93
  251.09203 14.0 14
  252.05502 17.0 17
  252.06886 24.0 24
  252.07962 28.0 28
  252.97719 18.0 18
  253.08226 46.0 46
  255.06393 48.0 48
  255.09949 11.0 11
  256.07773 15.0 15
  257.03766 73.0 73
  257.0513 89.0 89
  257.51724 11.0 11
  258.04614 13.0 13
  258.07568 24.0 24
  258.08585 15.0 15
  259.09354 12.0 12
  259.10599 11.0 11
  261.06131 29.0 29
  261.07599 16.0 16
  262.06561 15.0 15
  262.07712 13.0 13
  263.06458 35.0 35
  263.07932 12.0 12
  265.03214 11.0 11
  265.0462 34.0 34
  265.08292 12.0 12
  267.05716 12.0 12
  268.069 17.0 17
  269.07462 63.0 63
  269.08762 81.0 81
  270.08493 93.0 93
  271.06549 14.0 14
  271.09537 169.0 169
  271.11264 11.0 11
  272.10443 26.0 26
  273.48425 12.0 12
  277.05212 29.0 29
  279.05106 13.0 13
  279.06149 13.0 13
  279.0748 13.0 13
  280.07205 39.0 39
  281.03159 13.0 13
  281.04544 17.0 17
  281.06085 17.0 17
  281.07297 42.0 42
  281.08371 52.0 52
  283.05606 137.0 137
  283.0802 13.0 13
  283.09232 15.0 15
  283.10272 11.0 11
  284.07117 19.0 19
  284.08496 28.0 28
  284.10876 11.0 11
  285.03445 13.0 13
  285.06827 13.0 13
  285.08569 13.0 13
  285.11356 18.0 18
  286.10992 24.0 24
  290.09338 13.0 13
  293.03098 15.0 15
  293.04614 48.0 48
  293.07596 17.0 17
  293.08853 44.0 44
  294.04886 26.0 26
  295.05667 83.0 83
  295.08826 11.0 11
  296.09735 13.0 13
  297.07388 42.0 42
  297.10553 11.0 11
  298.03754 11.0 11
  298.07602 17.0 17
  298.14688 11.0 11
  299.04102 19.0 19
  299.09216 29.0 29
  300.05075 13.0 13
  301.01724 19.0 19
  301.08606 14.0 14
  307.10492 13.0 13
  309.07217 27.0 27
  309.08926 16.0 16
  311.02768 14.0 14
  311.0531 69.0 69
  312.05545 13.0 13
  313.04877 15.0 15
  313.08475 11.0 11
  314.09109 24.0 24
  315.08289 11.0 11
  319.0932 24.0 24
  319.10565 21.0 21
  321.08279 11.0 11
  323.08899 12.0 12
  324.08252 12.0 12
  326.1106 13.0 13
  327.07645 18.0 18
  327.08743 14.0 14
  328.08908 13.0 13
  329.08142 11.0 11
  331.05075 12.0 12
  331.06662 14.0 14
  333.10254 14.0 14
  335.08514 14.0 14
  338.11078 13.0 13
  343.06232 26.0 26
  347.08734 11.0 11
  349.10696 11.0 11
  351.04422 14.0 14
  351.08975 28.0 28
  352.09061 18.0 18
  358.08374 27.0 27
  359.09274 43.0 43
  360.09967 27.0 27
  361.10254 25.0 25
  361.11301 30.0 30
  369.05881 11.0 11
  370.10138 11.0 11
  370.33856 12.0 12
  373.09634 19.0 19
  375.0795 12.0 12
  375.24469 13.0 13
  376.08737 16.0 16
  379.07538 11.0 11
  379.09158 16.0 16
  379.1171 169.0 169
  380.12384 60.0 60
  380.80081 16.0 16
  383.09418 15.0 15
  385.07291 17.0 17
  389.08533 14.0 14
  389.13327 11.0 11
  390.11099 13.0 13
  391.12439 27.0 27
  392.10336 36.0 36
  394.01697 11.0 11
  398.05243 11.0 11
  400.10037 13.0 13
  401.09943 13.0 13
  402.09943 12.0 12
  405.10147 14.0 14
  406.11676 31.0 31
  407.11212 214.0 214
  408.09668 13.0 13
  408.11984 58.0 58
  410.12256 17.0 17
  417.08438 36.0 36
  417.10184 25.0 25
  418.08243 11.0 11
  419.10812 24.0 24
  419.12497 11.0 11
  429.11887 17.0 17
  435.11041 51.0 51
  438.11154 13.0 13
  454.09393 13.0 13
  464.12952 11.0 11
//
