ACCESSION: MSBNK-RIKEN-PR300742
RECORD_TITLE: Ormosanine; LC-ESI-QTOF; MS2
DATE: 2019.03.28
AUTHORS: Tetsuya Mori, Center for Sustainable Resource Science, RIKEN
LICENSE: CC BY-NC-SA
PUBLICATION: Tsugawa H., Nakabayashi R., Mori T., Yamada Y., Takahashi M., Rai A., Sugiyama R., Yamamoto H., Nakaya T., Yamazaki M., Kooke R., Bac-Molenaar JA., Oztolan-Erol N., Keurentjes JJB., Arita M., Saito K. (2019) "A cheminformatics approach to characterize metabolomes in stable-isotope-labeled organisms" Nature Methods 16(4):295-298. [doi:10.1038/s41592-019-0358-2]
COMMENT: registered in RIKEN PlaSMA
CH$NAME: Ormosanine
CH$COMPOUND_CLASS: Ormosia-type alkaloids
CH$FORMULA: C20H35N3
CH$EXACT_MASS: 317.521
CH$SMILES: C1CC[C@@H](NC1)[C@]12C[C@@H](C[C@@H]3CCCN[C@@H]13)[C@H]1CCCCN1C2
CH$IUPAC: InChI=1S/C20H35N3/c1-3-9-21-18(8-1)20-13-16(12-15-6-5-10-22-19(15)20)17-7-2-4-11-23(17)14-20/h15-19,21-22H,1-14H2/t15-,16+,17+,18+,19+,20+/m0/s1
CH$LINK: INCHIKEY YUKCLPPRYNXRAF-RFVXBFLTSA-N
AC$INSTRUMENT: LC, Waters Acquity UPLC System; MS, Waters Xevo G2 Q-Tof
AC$INSTRUMENT_TYPE: LC-ESI-QTOF
AC$MASS_SPECTROMETRY: MS_TYPE MS2
AC$MASS_SPECTROMETRY: ION_MODE POSITIVE
AC$MASS_SPECTROMETRY: COLLISION_ENERGY 6V
AC$MASS_SPECTROMETRY: DESOLVATION_GAS_FLOW 800/h
AC$MASS_SPECTROMETRY: DESOLVATION_TEMPERATURE 450 C
AC$MASS_SPECTROMETRY: IONIZATION ESI
AC$CHROMATOGRAPHY: CAPILLARY_VOLTAGE +3.00 kV
AC$CHROMATOGRAPHY: COLUMN_NAME Acquity bridged ethyl hybrid C18 (1.7 um, 2.1 mm * 100 mm, Waters)
AC$CHROMATOGRAPHY: COLUMN_TEMPERATURE 40 C
AC$CHROMATOGRAPHY: FLOW_GRADIENT A/B = (99.5%/0.5% at 0 min, 99.5%/0.5% at 0.1 min, 20%/80% at 10 min, 0.5%/99.5% at 10.1 min, 0.5%/99.5% at 12.0 min, 99.5%/0.5% at 12.1 min, 99.5%/0.5% at 15.0 min)
AC$CHROMATOGRAPHY: FLOW_RATE 0.3 ml/min at 0 min, 0.3 ml/min at 10 min, 0.4 ml/min at 10.1 min, 0.4 ml/min at 14.4 min, 0.3 ml/min at 14.5 min
AC$CHROMATOGRAPHY: RETENTION_TIME 2.244817
AC$CHROMATOGRAPHY: SOLVENT A water including 0.1% formic acid
AC$CHROMATOGRAPHY: SOLVENT B acetonitrile including 0.1% formic acid
MS$FOCUSED_ION: PRECURSOR_TYPE [M+H]+
MS$FOCUSED_ION: PRECURSOR_M/Z 318.2903746
PK$SPLASH: splash10-014i-2129000000-3a28eaacff6d6e85305b
PK$NUM_PEAK: 53
PK$PEAK: m/z int. rel.int.
  84.08116 94.0 94
  85.08742 9.0 9
  96.07878 9.0 9
  96.08569 11.0 11
  97.09088 6.0 6
  98.09679 169.0 169
  99.10194 11.0 11
  106.07014 9.0 9
  122.09427 6.0 6
  124.11371 14.0 14
  125.11716 5.0 5
  131.08041 5.0 5
  134.08937 6.0 6
  136.10968 6.0 6
  147.10196 7.0 7
  147.12057 5.0 5
  151.13332 5.0 5
  158.10837 6.0 6
  159.11865 7.0 7
  173.13135 13.0 13
  173.91785 7.0 7
  175.14204 7.0 7
  185.1297 5.0 5
  187.14529 5.0 5
  194.17635 6.0 6
  194.85692 7.0 7
  195.18832 5.0 5
  218.1875 8.0 8
  218.19934 17.0 17
  219.18796 6.0 6
  223.1855 5.0 5
  223.21446 8.0 8
  230.19638 6.0 6
  233.18597 10.0 10
  233.19995 78.0 78
  234.20656 6.0 6
  235.194 7.0 7
  235.21753 124.0 124
  236.21182 14.0 14
  236.22307 7.0 7
  287.23764 7.0 7
  287.25259 14.0 14
  290.27246 6.0 6
  301.26361 42.0 42
  302.22668 7.0 7
  302.27271 28.0 28
  316.27039 24.0 24
  316.28421 31.0 31
  317.27631 22.0 22
  318.20056 7.0 7
  318.23911 6.0 6
  318.25757 5.0 5
  318.29208 1000.0 999
//
