ACCESSION: MSBNK-RIKEN-PR304257
RECORD_TITLE: trans-pterostilbene; LC-ESI-QTOF; MS2
DATE: 2019.03.28
AUTHORS: Tetsuya Mori, Center for Sustainable Resource Science, RIKEN
LICENSE: CC BY-NC-SA
PUBLICATION: Tsugawa H., Nakabayashi R., Mori T., Yamada Y., Takahashi M., Rai A., Sugiyama R., Yamamoto H., Nakaya T., Yamazaki M., Kooke R., Bac-Molenaar JA., Oztolan-Erol N., Keurentjes JJB., Arita M., Saito K. (2019) "A cheminformatics approach to characterize metabolomes in stable-isotope-labeled organisms" Nature Methods 16(4):295-298. [doi:10.1038/s41592-019-0358-2]
COMMENT: registered in RIKEN PlaSMA
CH$NAME: trans-pterostilbene
CH$COMPOUND_CLASS: Stilbenes
CH$FORMULA: C16H16O3
CH$EXACT_MASS: 256.301
CH$SMILES: COC1=CC(\C=C\C2=CC=C(O)C=C2)=CC(OC)=C1
CH$IUPAC: InChI=1S/C16H16O3/c1-18-15-9-13(10-16(11-15)19-2)4-3-12-5-7-14(17)8-6-12/h3-11,17H,1-2H3/b4-3+
CH$LINK: INCHIKEY VLEUZFDZJKSGMX-ONEGZZNKSA-N
AC$INSTRUMENT: LC, Waters Acquity UPLC System; MS, Waters Xevo G2 Q-Tof
AC$INSTRUMENT_TYPE: LC-ESI-QTOF
AC$MASS_SPECTROMETRY: MS_TYPE MS2
AC$MASS_SPECTROMETRY: ION_MODE POSITIVE
AC$MASS_SPECTROMETRY: COLLISION_ENERGY 6V
AC$MASS_SPECTROMETRY: DESOLVATION_GAS_FLOW 800/h
AC$MASS_SPECTROMETRY: DESOLVATION_TEMPERATURE 450 C
AC$MASS_SPECTROMETRY: IONIZATION ESI
AC$CHROMATOGRAPHY: CAPILLARY_VOLTAGE +3.00 kV
AC$CHROMATOGRAPHY: COLUMN_NAME Acquity bridged ethyl hybrid C18 (1.7 um, 2.1 mm * 100 mm, Waters)
AC$CHROMATOGRAPHY: COLUMN_TEMPERATURE 40 C
AC$CHROMATOGRAPHY: FLOW_GRADIENT A/B = (99.5%/0.5% at 0 min, 99.5%/0.5% at 0.1 min, 20%/80% at 10 min, 0.5%/99.5% at 10.1 min, 0.5%/99.5% at 12.0 min, 99.5%/0.5% at 12.1 min, 99.5%/0.5% at 15.0 min)
AC$CHROMATOGRAPHY: FLOW_RATE 0.3 ml/min at 0 min, 0.3 ml/min at 10 min, 0.4 ml/min at 10.1 min, 0.4 ml/min at 14.4 min, 0.3 ml/min at 14.5 min
AC$CHROMATOGRAPHY: RETENTION_TIME 8.020467
AC$CHROMATOGRAPHY: SOLVENT A water including 0.1% formic acid
AC$CHROMATOGRAPHY: SOLVENT B acetonitrile including 0.1% formic acid
MS$FOCUSED_ION: PRECURSOR_TYPE [M+H]+
MS$FOCUSED_ION: PRECURSOR_M/Z 257.1172208
PK$SPLASH: splash10-090r-0930000000-45f8de8431f9ce6f6063
PK$NUM_PEAK: 268
PK$PEAK: m/z int. rel.int.
  55.66029 9.0 9
  58.59237 9.0 9
  68.99278 9.0 9
  77.03902 40.0 40
  78.04759 14.0 14
  79.05308 79.0 79
  79.05688 45.0 45
  81.51376 19.0 19
  83.05119 20.0 20
  83.86793 11.0 11
  84.96017 9.0 9
  91.03796 9.0 9
  91.05265 324.0 324
  92.02928 15.0 15
  92.05826 17.0 17
  92.06394 26.0 26
  93.0686 11.0 11
  95.04745 23.0 23
  96.21359 18.0 18
  103.048 57.0 57
  103.05507 160.0 160
  104.02978 12.0 12
  104.05278 12.0 12
  104.71998 9.0 9
  105.02885 32.0 32
  105.0379 10.0 10
  105.0464 10.0 10
  105.06517 179.0 179
  105.07148 314.0 314
  106.03805 36.0 36
  106.06182 9.0 9
  106.06886 21.0 21
  107.04951 321.0 321
  108.0455 9.0 9
  108.05404 13.0 13
  108.06053 11.0 11
  109.06294 56.0 56
  110.06658 15.0 15
  111.04068 20.0 20
  111.04987 12.0 12
  112.05321 9.0 9
  115.05862 29.0 29
  116.05421 10.0 10
  117.07445 9.0 9
  118.02011 13.0 13
  118.03122 19.0 19
  118.04461 11.0 11
  119.03371 12.0 12
  119.05006 237.0 237
  120.05407 91.0 91
  121.02724 75.0 75
  121.03672 23.0 23
  121.06494 380.0 380
  122.03168 11.0 11
  122.03751 22.0 22
  123.04163 38.0 38
  123.04991 9.0 9
  123.0777 31.0 31
  124.03004 11.0 11
  124.04482 16.0 16
  124.05183 80.0 80
  125.05438 11.0 11
  127.05289 33.0 33
  129.07568 30.0 30
  131.04471 32.0 32
  131.05304 34.0 34
  131.08305 10.0 10
  131.93713 10.0 10
  132.052 24.0 24
  133.01567 11.0 11
  133.02625 92.0 92
  133.03322 32.0 32
  133.06421 260.0 260
  133.07346 30.0 30
  133.09143 13.0 13
  134.02695 37.0 37
  134.03513 21.0 21
  134.06274 21.0 21
  134.07059 40.0 40
  135.04007 31.0 31
  135.05376 9.0 9
  135.07112 46.0 46
  135.07907 101.0 101
  136.03488 9.0 9
  136.05154 18.0 18
  137.05022 33.0 33
  137.05688 77.0 77
  137.06244 144.0 144
  138.06729 81.0 81
  140.06563 15.0 15
  140.0788 9.0 9
  141.06241 34.0 34
  141.07507 14.0 14
  142.04236 26.0 26
  143.04962 11.0 11
  143.07874 37.0 37
  143.09055 27.0 27
  143.25714 13.0 13
  144.04927 11.0 11
  144.05798 32.0 32
  145.06107 25.0 25
  145.06917 41.0 41
  146.07257 17.0 17
  148.05125 114.0 114
  149.05765 284.0 284
  149.08568 14.0 14
  150.05939 22.0 22
  150.0717 9.0 9
  151.05426 37.0 37
  151.07338 58.0 58
  152.05565 41.0 41
  152.06728 43.0 43
  152.07735 26.0 26
  153.06773 323.0 323
  154.07458 177.0 177
  154.14246 11.0 11
  155.0744 23.0 23
  155.08369 56.0 56
  156.06456 14.0 14
  156.08765 21.0 21
  157.06465 117.0 117
  159.07617 48.0 48
  159.08966 13.0 13
  161.05307 12.0 12
  161.95584 13.0 13
  162.12881 9.0 9
  163.07423 13.0 13
  164.04721 9.0 9
  164.06175 55.0 55
  164.07643 27.0 27
  164.08574 51.0 51
  165.04955 11.0 11
  165.07007 801.0 800
  165.52068 9.0 9
  166.05479 9.0 9
  166.0713 105.0 105
  166.07893 27.0 27
  167.04869 11.0 11
  167.08139 46.0 46
  167.09682 14.0 14
  168.05815 32.0 32
  168.09029 27.0 27
  168.10559 14.0 14
  169.05203 11.0 11
  169.07327 19.0 19
  170.06616 48.0 48
  170.07674 61.0 61
  171.04442 10.0 10
  171.056 9.0 9
  171.06911 36.0 36
  171.08073 130.0 130
  171.08673 49.0 49
  171.09824 11.0 11
  172.08965 11.0 11
  172.31541 22.0 22
  174.06801 12.0 12
  176.05841 11.0 11
  176.06685 10.0 10
  176.12886 11.0 11
  176.25999 15.0 15
  177.0619 27.0 27
  177.07201 91.0 91
  177.13254 19.0 19
  178.06934 72.0 72
  178.08049 107.0 107
  179.07274 25.0 25
  179.08812 62.0 62
  180.04578 9.0 9
  180.05589 13.0 13
  180.08371 11.0 11
  181.04936 72.0 72
  181.06531 1000.0 999
  181.81024 13.0 13
  182.06795 276.0 276
  182.07629 296.0 296
  183.08084 282.0 282
  184.04602 9.0 9
  184.05374 15.0 15
  184.0862 111.0 111
  184.81746 12.0 12
  185.05072 24.0 24
  185.06383 80.0 80
  185.09378 28.0 28
  187.08669 9.0 9
  189.02927 9.0 9
  189.73528 19.0 19
  190.07393 21.0 21
  191.04338 9.0 9
  191.18137 9.0 9
  192.05449 50.0 50
  192.06772 10.0 10
  193.05901 66.0 66
  193.06851 54.0 54
  194.03688 15.0 15
  194.07159 232.0 232
  195.05708 11.0 11
  195.07034 55.0 55
  195.08206 187.0 187
  195.08858 64.0 64
  196.05788 9.0 9
  196.077 24.0 24
  197.05978 48.0 48
  197.06863 13.0 13
  197.08888 59.0 59
  197.10349 47.0 47
  198.06247 44.0 44
  198.07828 21.0 21
  198.10728 20.0 20
  198.81239 9.0 9
  198.9516 10.0 10
  199.07545 423.0 423
  200.07545 14.0 14
  200.08473 62.0 62
  200.79736 9.0 9
  201.2282 15.0 15
  202.07607 9.0 9
  207.06758 15.0 15
  208.08463 38.0 38
  208.99135 14.0 14
  209.04532 12.0 12
  209.06085 139.0 139
  210.00534 9.0 9
  210.04594 30.0 30
  210.06381 350.0 350
  210.07585 162.0 162
  210.10631 9.0 9
  211.02762 9.0 9
  211.07692 913.0 912
  211.10645 12.0 12
  212.01468 11.0 11
  212.0444 11.0 11
  212.07762 72.0 72
  212.08833 85.0 85
  212.82635 11.0 11
  213.09282 208.0 208
  214.08786 10.0 10
  214.52742 12.0 12
  216.38132 9.0 9
  223.08478 18.0 18
  224.08154 35.0 35
  224.12186 11.0 11
  225.05034 9.0 9
  225.07195 26.0 26
  225.09367 290.0 290
  226.06737 18.0 18
  226.10226 220.0 220
  227.02518 13.0 13
  227.03879 9.0 9
  227.06725 263.0 263
  227.10023 53.0 53
  228.0554 22.0 22
  228.07191 35.0 35
  228.08307 36.0 36
  228.09964 9.0 9
  229.07426 11.0 11
  229.08757 15.0 15
  240.07269 48.0 48
  240.16672 9.0 9
  241.08647 165.0 165
  241.98112 15.0 15
  242.07961 27.0 27
  242.08905 120.0 120
  242.10329 109.0 109
  243.09682 49.0 49
  255.07875 11.0 11
  256.11969 23.0 23
  257.11877 85.0 85
  257.12784 23.0 23
//
