ACCESSION: MSBNK-RIKEN-PR301240
RECORD_TITLE: Guan-fu base Y; LC-ESI-QTOF; MS2
DATE: 2019.03.28
AUTHORS: Tetsuya Mori, Center for Sustainable Resource Science, RIKEN
LICENSE: CC BY-NC-SA
PUBLICATION: Tsugawa H., Nakabayashi R., Mori T., Yamada Y., Takahashi M., Rai A., Sugiyama R., Yamamoto H., Nakaya T., Yamazaki M., Kooke R., Bac-Molenaar JA., Oztolan-Erol N., Keurentjes JJB., Arita M., Saito K. (2019) "A cheminformatics approach to characterize metabolomes in stable-isotope-labeled organisms" Nature Methods 16(4):295-298. [doi:10.1038/s41592-019-0358-2]
COMMENT: registered in RIKEN PlaSMA
CH$NAME: Guan-fu base Y
CH$COMPOUND_CLASS: Atisane diterpenoids
CH$FORMULA: C22H29NO5
CH$EXACT_MASS: 387.476
CH$SMILES: CC(=O)OC1C[C@@]2(C)CN3[C@H]4CC56CC(=C)[C@@H]7C(O)[C@H]5[C@](C1)([C@@H]24)C3[C@@]6(O)C7O
CH$IUPAC: InChI=1S/C22H29NO5/c1-9-4-20-7-12-15-19(3)5-11(28-10(2)24)6-21(15)16(20)14(25)13(9)17(26)22(20,27)18(21)23(12)8-19/h11-18,25-27H,1,4-8H2,2-3H3/t11?,12-,13+,14?,15+,16+,17?,18?,19-,20?,21-,22-/m0/s1
CH$LINK: INCHIKEY XGTNTUKODZZCGL-LFXJTNOVSA-N
AC$INSTRUMENT: LC, Waters Acquity UPLC System; MS, Waters Xevo G2 Q-Tof
AC$INSTRUMENT_TYPE: LC-ESI-QTOF
AC$MASS_SPECTROMETRY: MS_TYPE MS2
AC$MASS_SPECTROMETRY: ION_MODE POSITIVE
AC$MASS_SPECTROMETRY: COLLISION_ENERGY 6V
AC$MASS_SPECTROMETRY: DESOLVATION_GAS_FLOW 800/h
AC$MASS_SPECTROMETRY: DESOLVATION_TEMPERATURE 450 C
AC$MASS_SPECTROMETRY: IONIZATION ESI
AC$CHROMATOGRAPHY: CAPILLARY_VOLTAGE +3.00 kV
AC$CHROMATOGRAPHY: COLUMN_NAME Acquity bridged ethyl hybrid C18 (1.7 um, 2.1 mm * 100 mm, Waters)
AC$CHROMATOGRAPHY: COLUMN_TEMPERATURE 40 C
AC$CHROMATOGRAPHY: FLOW_GRADIENT A/B = (99.5%/0.5% at 0 min, 99.5%/0.5% at 0.1 min, 20%/80% at 10 min, 0.5%/99.5% at 10.1 min, 0.5%/99.5% at 12.0 min, 99.5%/0.5% at 12.1 min, 99.5%/0.5% at 15.0 min)
AC$CHROMATOGRAPHY: FLOW_RATE 0.3 ml/min at 0 min, 0.3 ml/min at 10 min, 0.4 ml/min at 10.1 min, 0.4 ml/min at 14.4 min, 0.3 ml/min at 14.5 min
AC$CHROMATOGRAPHY: RETENTION_TIME 3.030383
AC$CHROMATOGRAPHY: SOLVENT A water including 0.1% formic acid
AC$CHROMATOGRAPHY: SOLVENT B acetonitrile including 0.1% formic acid
MS$FOCUSED_ION: PRECURSOR_TYPE [M+H]+
MS$FOCUSED_ION: PRECURSOR_M/Z 388.2118495
PK$SPLASH: splash10-01ox-0950000000-32fc12d54dcbfb2b3b0b
PK$NUM_PEAK: 256
PK$PEAK: m/z int. rel.int.
  57.03342 11.0 11
  77.04278 8.0 8
  79.04921 11.0 11
  79.05473 42.0 42
  81.072 6.0 6
  85.04752 6.0 6
  91.05439 100.0 100
  92.05807 6.0 6
  93.07139 145.0 145
  94.06358 5.0 5
  94.07379 8.0 8
  95.05164 6.0 6
  96.0834 6.0 6
  103.05589 28.0 28
  105.07023 306.0 306
  106.07269 23.0 23
  107.05074 6.0 6
  107.08635 46.0 46
  108.07557 5.0 5
  108.08702 6.0 6
  109.10134 6.0 6
  115.04362 7.0 7
  115.05521 33.0 33
  116.05317 6.0 6
  116.06096 19.0 19
  116.06625 16.0 16
  117.06165 9.0 9
  117.06567 21.0 21
  117.07174 31.0 31
  119.07636 16.0 16
  119.08635 30.0 30
  120.08299 12.0 12
  121.06293 21.0 21
  121.10088 39.0 39
  121.11083 7.0 7
  122.10673 11.0 11
  128.06459 17.0 17
  129.07008 138.0 138
  130.05885 13.0 13
  130.07434 32.0 32
  130.08148 13.0 13
  131.06635 9.0 9
  131.0854 111.0 111
  132.08298 12.0 12
  132.08772 5.0 5
  133.08119 9.0 9
  133.10739 6.0 6
  134.07111 7.0 7
  134.10042 8.0 8
  136.07178 5.0 5
  141.06944 11.0 11
  142.07478 9.0 9
  143.06636 34.0 34
  143.07591 73.0 73
  143.08984 6.0 6
  144.0569 8.0 8
  144.08142 1000.0 999
  145.05829 10.0 10
  145.06775 10.0 10
  145.08197 85.0 85
  145.08929 69.0 69
  145.10561 10.0 10
  146.0929 18.0 18
  146.10118 25.0 25
  147.07532 9.0 9
  147.0831 16.0 16
  149.09598 44.0 44
  150.09273 10.0 10
  153.06505 8.0 8
  154.04727 6.0 6
  154.08432 10.0 10
  155.07724 27.0 27
  155.08766 22.0 22
  156.07361 14.0 14
  156.08276 21.0 21
  156.09282 26.0 26
  157.06247 5.0 5
  157.07315 7.0 7
  157.08742 84.0 84
  157.10587 6.0 6
  158.07904 18.0 18
  158.09731 209.0 209
  159.0853 10.0 10
  159.09506 17.0 17
  159.10678 9.0 9
  159.11528 7.0 7
  160.07529 5.0 5
  160.08168 11.0 11
  160.10648 14.0 14
  160.11426 15.0 15
  161.07919 6.0 6
  165.063 5.0 5
  165.0737 10.0 10
  165.61421 5.0 5
  166.07373 16.0 16
  167.07101 6.0 6
  167.09206 21.0 21
  168.05055 6.0 6
  168.08797 21.0 21
  170.09271 11.0 11
  170.10144 6.0 6
  170.11713 8.0 8
  171.07777 7.0 7
  171.10336 11.0 11
  172.10915 22.0 22
  173.08553 13.0 13
  173.09778 5.0 5
  178.07306 8.0 8
  178.08292 21.0 21
  179.0851 33.0 33
  179.09525 7.0 7
  180.07979 15.0 15
  180.09312 16.0 16
  181.088 33.0 33
  181.09676 13.0 13
  181.1048 5.0 5
  182.08641 9.0 9
  182.10002 33.0 33
  183.10265 16.0 16
  183.11717 6.0 6
  184.118 6.0 6
  186.07521 6.0 6
  186.08896 8.0 8
  191.07755 19.0 19
  191.09047 24.0 24
  192.07497 6.0 6
  192.09253 51.0 51
  193.08835 24.0 24
  193.10129 38.0 38
  193.78639 6.0 6
  194.06886 6.0 6
  194.09166 22.0 22
  194.10271 10.0 10
  194.10983 10.0 10
  195.07205 8.0 8
  195.09183 6.0 6
  195.10617 26.0 26
  195.12015 13.0 13
  196.10651 7.0 7
  196.11996 14.0 14
  197.10983 11.0 11
  198.12215 16.0 16
  198.12833 28.0 28
  199.08459 6.0 6
  199.12883 8.0 8
  199.15341 6.0 6
  200.10818 11.0 11
  203.07294 6.0 6
  203.0891 27.0 27
  203.92862 5.0 5
  204.08691 5.0 5
  204.10146 10.0 10
  205.0968 10.0 10
  205.11063 18.0 18
  206.09384 7.0 7
  206.10599 10.0 10
  206.1163 10.0 10
  207.10086 12.0 12
  207.10966 31.0 31
  207.12448 6.0 6
  208.10231 8.0 8
  208.11403 34.0 34
  209.09981 8.0 8
  209.12013 20.0 20
  210.12465 36.0 36
  211.12695 9.0 9
  212.13582 7.0 7
  216.09248 6.0 6
  217.08914 10.0 10
  217.1093 7.0 7
  218.1066 17.0 17
  218.11905 11.0 11
  219.10287 11.0 11
  219.11348 26.0 26
  219.12595 5.0 5
  220.10486 23.0 23
  220.11583 23.0 23
  220.12833 18.0 18
  221.1154 11.0 11
  221.12534 18.0 18
  221.13593 16.0 16
  222.12427 28.0 28
  222.13393 20.0 20
  223.1002 7.0 7
  223.11388 7.0 7
  223.13666 6.0 6
  224.1042 5.0 5
  226.12959 6.0 6
  230.10141 5.0 5
  231.11314 6.0 6
  232.10419 26.0 26
  232.12439 52.0 52
  233.1102 11.0 11
  234.13239 27.0 27
  234.14308 14.0 14
  235.12756 8.0 8
  235.13924 9.0 9
  236.1131 8.0 8
  236.1478 16.0 16
  246.10411 6.0 6
  246.12259 6.0 6
  247.09554 7.0 7
  247.14174 9.0 9
  248.14171 70.0 70
  249.14549 29.0 29
  249.15707 15.0 15
  250.12196 24.0 24
  250.15263 11.0 11
  253.13159 5.0 5
  254.18721 17.0 17
  259.13611 10.0 10
  260.12582 9.0 9
  260.15051 6.0 6
  261.1546 15.0 15
  262.13644 10.0 10
  262.15787 36.0 36
  262.1734 16.0 16
  263.16589 164.0 164
  263.1806 27.0 27
  264.129 17.0 17
  264.17578 579.0 578
  265.17844 109.0 109
  265.53821 8.0 8
  266.17392 9.0 9
  266.1973 6.0 6
  275.16183 8.0 8
  276.13559 38.0 38
  276.15079 8.0 8
  277.13367 8.0 8
  277.14609 28.0 28
  277.16138 12.0 12
  278.15179 6.0 6
  282.15448 8.0 8
  282.17856 13.0 13
  282.19034 8.0 8
  291.155 6.0 6
  292.13495 6.0 6
  292.17172 251.0 251
  293.17328 71.0 71
  294.18127 12.0 12
  310.1749 36.0 36
  310.18845 7.0 7
  311.18289 16.0 16
  323.17493 19.0 19
  323.19345 18.0 18
  324.17987 13.0 13
  324.19489 32.0 32
  325.19318 13.0 13
  328.19388 38.0 38
  329.16193 7.0 7
  329.18817 6.0 6
  329.20566 5.0 5
  352.17694 6.0 6
  352.20184 10.0 10
  388.20334 12.0 12
  388.21948 15.0 15
//
