ACCESSION: MSBNK-RIKEN-PR302767
RECORD_TITLE: Kaempferol-4'-methyl ether; LC-ESI-QTOF; MS2
DATE: 2019.03.28
AUTHORS: Tetsuya Mori, Center for Sustainable Resource Science, RIKEN
LICENSE: CC BY-NC-SA
PUBLICATION: Tsugawa H., Nakabayashi R., Mori T., Yamada Y., Takahashi M., Rai A., Sugiyama R., Yamamoto H., Nakaya T., Yamazaki M., Kooke R., Bac-Molenaar JA., Oztolan-Erol N., Keurentjes JJB., Arita M., Saito K. (2019) "A cheminformatics approach to characterize metabolomes in stable-isotope-labeled organisms" Nature Methods 16(4):295-298. [doi:10.1038/s41592-019-0358-2]
COMMENT: registered in RIKEN PlaSMA
CH$NAME: Kaempferol-4'-methyl ether
CH$COMPOUND_CLASS: Flavonols
CH$FORMULA: C16H12O6
CH$EXACT_MASS: 300.266
CH$SMILES: COC1=CC=C(C=C1)C1=C(O)C(=O)C2=C(O)C=C(O)C=C2O1
CH$IUPAC: InChI=1S/C16H12O6/c1-21-10-4-2-8(3-5-10)16-15(20)14(19)13-11(18)6-9(17)7-12(13)22-16/h2-7,17-18,20H,1H3
CH$LINK: INCHIKEY SQFSKOYWJBQGKQ-UHFFFAOYSA-N
AC$INSTRUMENT: LC, Waters Acquity UPLC System; MS, Waters Xevo G2 Q-Tof
AC$INSTRUMENT_TYPE: LC-ESI-QTOF
AC$MASS_SPECTROMETRY: MS_TYPE MS2
AC$MASS_SPECTROMETRY: ION_MODE POSITIVE
AC$MASS_SPECTROMETRY: COLLISION_ENERGY 6V
AC$MASS_SPECTROMETRY: DESOLVATION_GAS_FLOW 800/h
AC$MASS_SPECTROMETRY: DESOLVATION_TEMPERATURE 450 C
AC$MASS_SPECTROMETRY: IONIZATION ESI
AC$CHROMATOGRAPHY: CAPILLARY_VOLTAGE +3.00 kV
AC$CHROMATOGRAPHY: COLUMN_NAME Acquity bridged ethyl hybrid C18 (1.7 um, 2.1 mm * 100 mm, Waters)
AC$CHROMATOGRAPHY: COLUMN_TEMPERATURE 40 C
AC$CHROMATOGRAPHY: FLOW_GRADIENT A/B = (99.5%/0.5% at 0 min, 99.5%/0.5% at 0.1 min, 20%/80% at 10 min, 0.5%/99.5% at 10.1 min, 0.5%/99.5% at 12.0 min, 99.5%/0.5% at 12.1 min, 99.5%/0.5% at 15.0 min)
AC$CHROMATOGRAPHY: FLOW_RATE 0.3 ml/min at 0 min, 0.3 ml/min at 10 min, 0.4 ml/min at 10.1 min, 0.4 ml/min at 14.4 min, 0.3 ml/min at 14.5 min
AC$CHROMATOGRAPHY: RETENTION_TIME 7.544483
AC$CHROMATOGRAPHY: SOLVENT A water including 0.1% formic acid
AC$CHROMATOGRAPHY: SOLVENT B acetonitrile including 0.1% formic acid
MS$FOCUSED_ION: PRECURSOR_TYPE [M+H]+
MS$FOCUSED_ION: PRECURSOR_M/Z 301.0706646
PK$SPLASH: splash10-0fir-1940000000-01854514fc30a04123d2
PK$NUM_PEAK: 192
PK$PEAK: m/z int. rel.int.
  49.9972 38.0 38
  50.01113 27.0 27
  67.01273 22.0 22
  68.96571 27.0 27
  68.98109 22.0 22
  68.99709 167.0 167
  69.03721 42.0 42
  70.14828 17.0 17
  71.01516 19.0 19
  77.03654 80.0 80
  77.04205 48.0 48
  78.03396 34.0 34
  78.04508 102.0 102
  78.06319 37.0 37
  79.01944 24.0 24
  79.04068 24.0 24
  79.05317 45.0 45
  81.0331 40.0 40
  83.00948 34.0 34
  85.0239 27.0 27
  85.03305 21.0 21
  91.04182 20.0 20
  91.05596 34.0 34
  92.02644 25.0 25
  92.05978 38.0 38
  93.04022 21.0 21
  95.01102 35.0 35
  95.04637 29.0 29
  96.01537 71.0 71
  96.02306 72.0 72
  96.02797 51.0 51
  101.03759 22.0 22
  103.02611 21.0 21
  103.05461 141.0 141
  103.21922 22.0 22
  105.03333 168.0 168
  105.0427 21.0 21
  105.06204 17.0 17
  105.28232 21.0 21
  106.03331 53.0 53
  106.04482 75.0 75
  107.05096 81.0 81
  108.01378 28.0 28
  108.02348 127.0 127
  108.05157 26.0 26
  108.30418 20.0 20
  108.82114 18.0 18
  109.0228 37.0 37
  111.00393 32.0 32
  111.01084 29.0 29
  112.85801 18.0 18
  115.05491 69.0 69
  116.06667 19.0 19
  116.98557 16.0 16
  117.06744 104.0 104
  118.04308 61.0 61
  119.01103 18.0 18
  119.04563 62.0 62
  119.05453 18.0 18
  120.02324 72.0 72
  120.03173 16.0 16
  121.02903 185.0 185
  121.06802 15.0 15
  124.01374 433.0 433
  124.99257 24.0 24
  126.02828 17.0 17
  127.05002 26.0 26
  127.05685 108.0 108
  128.06154 157.0 157
  129.0519 36.0 36
  129.06458 71.0 71
  130.0347 29.0 29
  130.04292 20.0 20
  131.04391 59.0 59
  131.05167 109.0 109
  132.06035 19.0 19
  133.06335 38.0 38
  134.03653 82.0 82
  134.04315 18.0 18
  135.00485 21.0 21
  135.02081 24.0 24
  135.02834 28.0 28
  135.04639 65.0 65
  136.01361 19.0 19
  136.04945 27.0 27
  137.01872 136.0 136
  138.02541 19.0 19
  139.04945 19.0 19
  139.05782 71.0 71
  140.06143 34.0 34
  143.04651 15.0 15
  143.05278 21.0 21
  144.00684 24.0 24
  144.05421 15.0 15
  145.05699 37.0 37
  146.03148 77.0 77
  146.06773 57.0 57
  147.03624 15.0 15
  147.04991 39.0 39
  150.03407 36.0 36
  150.62593 41.0 41
  151.04022 42.0 42
  152.01038 114.0 114
  152.99605 22.0 22
  153.0183 587.0 586
  153.06789 18.0 18
  154.00482 15.0 15
  154.01762 20.0 20
  154.99588 30.0 30
  155.04544 177.0 177
  155.05373 291.0 291
  155.24376 20.0 20
  156.05548 43.0 43
  157.05421 20.0 20
  159.04321 48.0 48
  159.05551 17.0 17
  160.04294 45.0 45
  161.02283 18.0 18
  161.05037 56.0 56
  161.06541 129.0 129
  163.03909 15.0 15
  165.0229 41.0 41
  168.04924 35.0 35
  168.06186 44.0 44
  171.05441 40.0 40
  173.01723 33.0 33
  173.02351 40.0 40
  173.0517 107.0 107
  173.06219 64.0 64
  174.06517 27.0 27
  175.04294 24.0 24
  176.04335 16.0 16
  176.05113 23.0 23
  177.04599 18.0 18
  178.02753 29.0 29
  180.19495 34.0 34
  181.01543 31.0 31
  183.04788 381.0 381
  184.04024 25.0 25
  184.05276 89.0 89
  185.0499 16.0 16
  185.24113 33.0 33
  187.039 212.0 212
  188.04648 21.0 21
  189.0007 25.0 25
  189.02968 27.0 27
  192.01454 29.0 29
  197.02145 20.0 20
  201.01448 18.0 18
  201.04665 130.0 130
  201.06178 296.0 296
  201.0925 26.0 26
  202.04485 30.0 30
  202.05229 58.0 58
  202.0641 121.0 121
  203.02342 52.0 52
  203.03717 89.0 89
  204.03801 46.0 46
  211.04274 38.0 38
  212.0351 25.0 25
  212.04596 29.0 29
  212.05371 17.0 17
  213.05237 116.0 116
  213.06285 44.0 44
  215.02371 17.0 17
  215.03253 25.0 25
  216.0481 25.0 25
  218.05882 20.0 20
  219.02527 71.0 71
  227.97736 19.0 19
  228.03813 59.0 59
  228.64523 17.0 17
  229.02612 84.0 84
  229.05023 1000.0 999
  229.99768 21.0 21
  230.03947 20.0 20
  230.05257 194.0 194
  230.08327 25.0 25
  239.02026 17.0 17
  241.04758 18.0 18
  242.05336 19.0 19
  243.0199 44.0 44
  257.02655 18.0 18
  257.04648 21.0 21
  259.05994 31.0 31
  259.84705 15.0 15
  268.45944 42.0 42
  269.04654 54.0 54
  271.03317 18.0 18
  271.06757 19.0 19
  284.02872 19.0 19
  285.05038 15.0 15
//
