ACCESSION: MSBNK-RIKEN-PR310568
RECORD_TITLE: (-)-Eburnamonine; LC-ESI-QTOF; MS2
DATE: 2019.03.28
AUTHORS: Tetsuya Mori, Center for Sustainable Resource Science, RIKEN
LICENSE: CC BY-NC-SA
PUBLICATION: Tsugawa H., Nakabayashi R., Mori T., Yamada Y., Takahashi M., Rai A., Sugiyama R., Yamamoto H., Nakaya T., Yamazaki M., Kooke R., Bac-Molenaar JA., Oztolan-Erol N., Keurentjes JJB., Arita M., Saito K. (2019) "A cheminformatics approach to characterize metabolomes in stable-isotope-labeled organisms" Nature Methods 16(4):295-298. [doi:10.1038/s41592-019-0358-2]
COMMENT: Annotation level-1
CH$NAME: (-)-Eburnamonine
CH$COMPOUND_CLASS: Alkaloids
CH$FORMULA: C19H22N2O
CH$EXACT_MASS: 294.398
CH$SMILES: CCC12CCCN3CCC4=C(C13)N(C1=C4C=CC=C1)C(=O)C2
CH$IUPAC: InChI=1S/C19H22N2O/c1-2-19-9-5-10-20-11-8-14-13-6-3-4-7-15(13)21(16(22)12-19)17(14)18(19)20/h3-4,6-7,18H,2,5,8-12H2,1H3
CH$LINK: INCHIKEY WYJAPUKIYAZSEM-UHFFFAOYSA-N
AC$INSTRUMENT: LC, Waters Acquity UPLC System; MS, Waters Xevo G2 Q-Tof
AC$INSTRUMENT_TYPE: LC-ESI-QTOF
AC$MASS_SPECTROMETRY: MS_TYPE MS2
AC$MASS_SPECTROMETRY: ION_MODE POSITIVE
AC$MASS_SPECTROMETRY: COLLISION_ENERGY 6V
AC$MASS_SPECTROMETRY: DESOLVATION_GAS_FLOW 800/h
AC$MASS_SPECTROMETRY: DESOLVATION_TEMPERATURE 450 C
AC$MASS_SPECTROMETRY: IONIZATION ESI
AC$CHROMATOGRAPHY: CAPILLARY_VOLTAGE +3.00 kV
AC$CHROMATOGRAPHY: COLUMN_NAME Acquity bridged ethyl hybrid C18 (1.7 um, 2.1 mm * 100 mm, Waters)
AC$CHROMATOGRAPHY: COLUMN_TEMPERATURE 40 C
AC$CHROMATOGRAPHY: FLOW_GRADIENT A/B = (99.5%/0.5% at 0 min, 99.5%/0.5% at 0.1 min, 20%/80% at 10 min, 0.5%/99.5% at 10.1 min, 0.5%/99.5% at 12.0 min, 99.5%/0.5% at 12.1 min, 99.5%/0.5% at 15.0 min)
AC$CHROMATOGRAPHY: FLOW_RATE 0.3 ml/min at 0 min, 0.3 ml/min at 10 min, 0.4 ml/min at 10.1 min, 0.4 ml/min at 14.4 min, 0.3 ml/min at 14.5 min
AC$CHROMATOGRAPHY: RETENTION_TIME 4.65
AC$CHROMATOGRAPHY: SOLVENT A water including 0.1% formic acid
AC$CHROMATOGRAPHY: SOLVENT B acetonitrile including 0.1% formic acid
MS$FOCUSED_ION: PRECURSOR_TYPE [M+H]+
MS$FOCUSED_ION: PRECURSOR_M/Z 295.18049
PK$SPLASH: splash10-0002-0190000000-47a49001c7587731713d
PK$NUM_PEAK: 427
PK$PEAK: m/z int. rel.int.
  53.02247 17.0 0
  65.03653 24.0 1
  67.04176 22.0 0
  69.03519 27.0 1
  69.06847 38.0 1
  70.06339 134.0 3
  70.06826 177.0 4
  72.07764 27.0 1
  77.03727 23.0 0
  79.05692 20.0 0
  80.05338 19.0 0
  81.03652 29.0 1
  81.04177 18.0 0
  81.05859 25.0 1
  81.07256 17.0 0
  82.06421 21.0 0
  82.06821 33.0 1
  83.0461 18.0 0
  83.07022 104.0 2
  83.08078 18.0 0
  84.07207 40.0 1
  84.0816 608.0 13
  85.08228 20.0 0
  91.05524 56.0 1
  92.05772 17.0 0
  94.05987 21.0 0
  95.08553 134.0 3
  97.0817 27.0 1
  97.3865 21.0 0
  98.09108 45.0 1
  98.09895 35.0 1
  98.20399 17.0 0
  98.72943 23.0 0
  105.07037 80.0 2
  106.06837 18.0 0
  106.07482 23.0 0
  107.0479 25.0 1
  107.08714 82.0 2
  109.08732 41.0 1
  109.09961 60.0 1
  109.18539 22.0 0
  110.06056 29.0 1
  110.09521 33.0 1
  111.08169 68.0 1
  112.08862 20.0 0
  112.11115 64.0 1
  115.06104 25.0 1
  117.00874 18.0 0
  117.04491 24.0 1
  117.06639 28.0 1
  117.07232 66.0 1
  118.05981 24.0 1
  118.06676 53.0 1
  119.04787 19.0 0
  119.07249 19.0 0
  119.08127 36.0 1
  119.08926 26.0 1
  121.06972 58.0 1
  121.08941 32.0 1
  121.10229 22.0 0
  122.05822 70.0 2
  122.09802 60.0 1
  122.10317 19.0 0
  123.08105 69.0 1
  124.07652 212.0 5
  124.09924 19.0 0
  124.10835 37.0 1
  124.11541 25.0 1
  125.08078 18.0 0
  127.05499 17.0 0
  127.06184 55.0 1
  127.5351 27.0 1
  128.05798 27.0 1
  129.06467 25.0 1
  129.07645 22.0 0
  130.06374 87.0 2
  130.07341 17.0 0
  131.03897 33.0 1
  131.06616 95.0 2
  131.0764 30.0 1
  131.47144 20.0 0
  132.08035 231.0 5
  132.09283 24.0 1
  133.06189 39.0 1
  133.07771 22.0 0
  133.08482 25.0 1
  134.06441 44.0 1
  134.10085 86.0 2
  135.06421 26.0 1
  135.08067 66.0 1
  136.09566 34.0 1
  136.10913 33.0 1
  136.71393 30.0 1
  137.11783 21.0 0
  137.25172 34.0 1
  138.08098 19.0 0
  138.0905 99.0 2
  140.40364 19.0 0
  143.09071 26.0 1
  144.04886 18.0 0
  144.08072 1070.0 23
  144.43039 17.0 0
  145.08409 185.0 4
  145.2235 17.0 0
  146.06192 47.0 1
  146.08946 18.0 0
  146.09799 42.0 1
  146.1049 27.0 1
  147.10023 25.0 1
  150.06856 21.0 0
  150.09195 274.0 6
  151.09204 49.0 1
  152.09615 44.0 1
  152.10701 508.0 11
  153.06952 42.0 1
  153.09753 17.0 0
  153.10497 30.0 1
  153.1127 42.0 1
  154.07997 43.0 1
  154.67125 19.0 0
  156.07314 25.0 1
  156.08121 68.0 1
  156.08769 34.0 1
  157.08655 57.0 1
  158.05774 106.0 2
  158.09143 42.0 1
  158.09897 62.0 1
  158.22092 17.0 0
  160.08238 25.0 1
  160.11523 23.0 0
  164.11189 53.0 1
  164.57982 22.0 0
  165.06053 26.0 1
  165.07399 27.0 1
  165.10472 17.0 0
  166.06792 23.0 0
  166.07986 27.0 1
  167.05746 58.0 1
  167.07326 152.0 3
  167.22498 23.0 0
  167.73906 17.0 0
  168.05946 29.0 1
  168.07861 557.0 12
  168.98189 17.0 0
  169.00195 33.0 1
  169.0668 17.0 0
  169.07848 78.0 2
  169.08688 199.0 4
  170.05621 18.0 0
  170.06615 37.0 1
  170.0833 47.0 1
  170.10066 86.0 2
  171.06133 51.0 1
  171.09508 17.0 0
  172.06389 43.0 1
  172.07619 21.0 0
  172.09488 43.0 1
  172.11459 81.0 2
  173.25107 19.0 0
  173.35881 17.0 0
  174.69901 20.0 0
  174.78543 26.0 1
  176.52625 21.0 0
  178.06686 18.0 0
  178.07919 18.0 0
  180.04425 20.0 0
  180.06647 58.0 1
  180.07898 349.0 8
  181.08275 237.0 5
  181.09395 72.0 2
  182.06441 49.0 1
  182.0936 412.0 9
  183.06787 29.0 1
  183.09409 52.0 1
  183.10919 73.0 2
  183.34038 18.0 0
  183.87009 28.0 1
  184.07336 133.0 3
  184.1058 63.0 1
  184.1138 206.0 4
  185.07895 20.0 0
  185.09296 22.0 0
  185.10973 168.0 4
  186.09326 52.0 1
  186.13002 17.0 0
  191.07256 31.0 1
  192.07843 26.0 1
  192.09827 27.0 1
  193.06647 17.0 0
  193.07928 55.0 1
  193.08705 58.0 1
  193.10464 29.0 1
  194.06216 18.0 0
  194.09506 223.0 5
  195.06401 33.0 1
  195.08942 43.0 1
  195.10347 505.0 11
  195.12366 26.0 1
  195.73396 25.0 1
  196.06723 312.0 7
  196.07788 411.0 9
  196.10852 201.0 4
  196.12137 37.0 1
  196.18752 21.0 0
  196.6601 25.0 1
  197.04581 26.0 1
  197.06236 24.0 1
  197.08269 891.0 19
  197.11118 38.0 1
  197.66893 22.0 0
  198.07004 29.0 1
  198.08357 107.0 2
  198.09309 206.0 4
  198.12381 251.0 5
  198.13789 109.0 2
  199.09409 78.0 2
  199.12447 26.0 1
  199.13275 29.0 1
  199.2858 21.0 0
  200.47345 36.0 1
  200.85167 17.0 0
  201.61469 20.0 0
  202.35371 20.0 0
  202.4205 20.0 0
  203.07912 17.0 0
  203.60818 25.0 1
  204.05917 45.0 1
  204.08038 17.0 0
  205.09302 53.0 1
  205.57693 23.0 0
  206.08728 155.0 3
  206.10066 59.0 1
  207.07117 35.0 1
  207.08789 39.0 1
  207.10004 71.0 2
  207.11128 153.0 3
  208.07281 88.0 2
  208.08569 20.0 0
  208.11131 237.0 5
  209.086 108.0 2
  209.10463 107.0 2
  209.11758 232.0 5
  209.12634 61.0 1
  209.42868 18.0 0
  209.80865 17.0 0
  210.0724 17.0 0
  210.08632 221.0 5
  210.09677 154.0 3
  210.11383 74.0 2
  210.12836 361.0 8
  210.15778 18.0 0
  210.3981 21.0 0
  211.05759 28.0 1
  211.07695 21.0 0
  211.09642 207.0 4
  211.11273 41.0 1
  211.12697 20.0 0
  211.1355 18.0 0
  211.38635 21.0 0
  212.08656 24.0 1
  212.10457 311.0 7
  213.1084 23.0 0
  213.11501 77.0 2
  214.20648 28.0 1
  215.5981 27.0 1
  217.41667 17.0 0
  217.54482 24.0 1
  219.10022 27.0 1
  219.10861 42.0 1
  220.06836 110.0 2
  220.08505 50.0 1
  220.11261 44.0 1
  220.12106 55.0 1
  221.08781 72.0 2
  221.10637 62.0 1
  221.11934 86.0 2
  222.06398 54.0 1
  222.0914 563.0 12
  222.12718 213.0 5
  222.13805 36.0 1
  223.09424 611.0 13
  223.10405 380.0 8
  223.1414 36.0 1
  223.58461 17.0 0
  224.08952 56.0 1
  224.10738 634.0 14
  224.13217 821.0 18
  224.14909 161.0 3
  224.51291 27.0 1
  224.84932 21.0 0
  225.11647 740.0 16
  225.13602 178.0 4
  226.0192 20.0 0
  226.09142 53.0 1
  226.11668 693.0 15
  226.12831 584.0 13
  226.41495 20.0 0
  226.87991 25.0 1
  227.12195 141.0 3
  227.1375 42.0 1
  227.14474 17.0 0
  231.10609 20.0 0
  231.42378 44.0 1
  231.72569 17.0 0
  232.0959 18.0 0
  233.08336 77.0 2
  233.72041 19.0 0
  234.08054 146.0 3
  234.0939 32.0 1
  234.10272 21.0 0
  234.12512 37.0 1
  234.65678 21.0 0
  235.07571 24.0 1
  235.0983 342.0 7
  235.12718 20.0 0
  236.10533 495.0 11
  236.13884 114.0 2
  236.1532 231.0 5
  236.62341 18.0 0
  237.08617 19.0 0
  237.10947 427.0 9
  237.12555 79.0 2
  237.14986 69.0 1
  237.16481 17.0 0
  238.08752 43.0 1
  238.12099 4500.0 97
  238.15898 186.0 4
  238.17738 19.0 0
  238.25009 17.0 0
  238.88882 19.0 0
  239.10811 127.0 3
  239.12444 615.0 13
  239.13361 277.0 6
  239.15651 88.0 2
  239.45821 18.0 0
  240.10638 26.0 1
  240.1236 55.0 1
  240.13411 53.0 1
  240.14284 35.0 1
  240.16579 24.0 1
  240.61453 18.0 0
  241.8726 22.0 0
  243.07541 21.0 0
  243.65894 26.0 1
  244.09102 25.0 1
  245.12054 23.0 0
  246.89944 31.0 1
  247.04001 21.0 0
  247.13437 29.0 1
  248.08263 24.0 1
  248.1076 87.0 2
  248.1507 78.0 2
  249.08408 17.0 0
  249.11522 471.0 10
  250.09288 24.0 1
  250.12077 159.0 3
  250.15796 182.0 4
  251.1163 138.0 3
  251.13272 72.0 2
  251.14011 38.0 1
  252.07686 26.0 1
  252.10008 19.0 0
  252.10915 29.0 1
  252.13857 1295.0 28
  253.12283 29.0 1
  253.13799 235.0 5
  253.16353 983.0 21
  253.17325 811.0 17
  253.8484 21.0 0
  254.1272 23.0 0
  254.14227 36.0 1
  254.15363 65.0 1
  254.17131 264.0 6
  254.47946 21.0 0
  255.13565 25.0 1
  255.17978 24.0 1
  255.5117 20.0 0
  257.88821 24.0 1
  261.85468 20.0 0
  263.12784 116.0 3
  264.13351 584.0 13
  264.14615 285.0 6
  264.30048 26.0 1
  265.1131 17.0 0
  265.13208 65.0 1
  265.15073 55.0 1
  266.11343 25.0 1
  266.15369 2606.0 56
  266.29138 21.0 0
  266.35043 19.0 0
  266.61038 18.0 0
  267.12949 51.0 1
  267.15311 503.0 11
  267.16345 487.0 11
  267.18604 17.0 0
  267.46048 24.0 1
  268.16101 141.0 3
  270.11032 23.0 0
  275.43643 20.0 0
  276.25208 20.0 0
  277.17853 17.0 0
  278.13394 18.0 0
  278.15106 174.0 4
  278.17227 29.0 1
  279.14194 20.0 0
  279.16223 76.0 2
  280.14496 20.0 0
  286.4711 21.0 0
  286.80969 25.0 1
  289.03546 22.0 0
  289.78351 17.0 0
  293.13995 21.0 0
  293.75772 17.0 0
  294.18121 21.0 0
  294.64395 20.0 0
  294.75452 17.0 0
  294.79001 17.0 0
  295.04282 21.0 0
  295.05765 24.0 1
  295.09903 17.0 0
  295.12485 102.0 2
  295.13803 173.0 4
  295.18048 46312.0 999
  295.23038 1350.0 29
  295.27393 47.0 1
  295.28619 33.0 1
  295.31696 41.0 1
//
