ACCESSION: MSBNK-RIKEN-PR100638
RECORD_TITLE: Daidzein; LC-ESI-QTOF; MS2; CE:30 V; [M-H]-
DATE: 2016.01.19 (Created 2010.06.21, modified 2011.05.06)
AUTHORS: Matsuda F, Suzuki M, Sawada Y, Plant Science Center, RIKEN.
LICENSE: CC BY-SA
COMMENT: Acquisition and generation of the data is financially supported in part by CREST/JST.
CH$NAME: Daidzein
CH$NAME: Ddze
CH$NAME: 4',7-dihydroxyisoflavone
CH$NAME: Daidzeol
CH$NAME: 7-Hydroxy-3-(4-hydroxyphenyl)-4-benzopyrone
CH$NAME: 7-Hydroxy-3-(4-hydroxy?phenyl)-4H-1-benzo?pyran-4-one
CH$NAME: 7-Hydroxy-3-(4-hydroxy?phenyl)?chromone
CH$COMPOUND_CLASS: Isoflavones
CH$FORMULA: C15H10O4
CH$EXACT_MASS: 254.05791
CH$SMILES: Oc(c3)ccc(c3)C(=C1)C(=O)c(c2)c(cc(O)c2)O1
CH$IUPAC: InChI=1S/C15H10O4/c16-10-3-1-9(2-4-10)13-8-19-14-7-11(17)5-6-12(14)15(13)18/h1-8,16-17H
CH$LINK: CAS 486-66-8
CH$LINK: CHEMSPIDER 4445025
CH$LINK: KAPPAVIEW KPC01261
CH$LINK: KEGG C10208
CH$LINK: KNAPSACK C00009380
CH$LINK: PUBCHEM CID:5281708
CH$LINK: INCHIKEY ZQSIJRDFPHDXIC-UHFFFAOYSA-N
CH$LINK: COMPTOX DTXSID9022310
AC$INSTRUMENT: UPLC Q-Tof Premier, Waters
AC$INSTRUMENT_TYPE: LC-ESI-QTOF
AC$MASS_SPECTROMETRY: MS_TYPE MS2
AC$MASS_SPECTROMETRY: ION_MODE NEGATIVE
AC$MASS_SPECTROMETRY: COLLISION_ENERGY 30 V
AC$MASS_SPECTROMETRY: DATAFORMAT Continuum
AC$MASS_SPECTROMETRY: DESOLVATION_GAS_FLOW 600.0 L/Hr
AC$MASS_SPECTROMETRY: DESOLVATION_TEMPERATURE 400 C
AC$MASS_SPECTROMETRY: FRAGMENTATION_METHOD LOW-ENERGY CID
AC$MASS_SPECTROMETRY: IONIZATION ESI
AC$MASS_SPECTROMETRY: SOURCE_TEMPERATURE 120 C
AC$CHROMATOGRAPHY: CAPILLARY_VOLTAGE 3.0 kV
AC$CHROMATOGRAPHY: SAMPLING_CONE 23.0 V
AC$CHROMATOGRAPHY: SOLVENT A CH3CN(0.1%HCOOH)
AC$CHROMATOGRAPHY: SOLVENT B H2O(0.1%HCOOH)
MS$FOCUSED_ION: PRECURSOR_M/Z 253.05011
MS$FOCUSED_ION: PRECURSOR_TYPE [M-H]-
PK$SPLASH: splash10-0089-2970000000-957251cfedf313d0c4ac
PK$NUM_PEAK: 19
PK$PEAK: m/z int. rel.int.
  89.0396 201.8 97
  91.0190 2089 999
  117.0341 249.2 119
  132.0210 1672 800
  133.0291 1669 798
  135.0083 848.7 406
  167.0494 208.7 100
  169.0655 331.3 158
  180.0575 848.9 406
  182.0372 196.4 94
  195.0444 1118 535
  196.0523 590.7 282
  197.0598 255.8 122
  208.0525 1845 882
  209.0606 421.3 201
  223.0395 2054 982
  224.0475 1050 502
  225.0553 281.3 135
  253.0501 963.6 461
//
