ACCESSION: MSBNK-RIKEN-PR300792
RECORD_TITLE: Remerine; LC-ESI-QTOF; MS2
DATE: 2019.03.28
AUTHORS: Tetsuya Mori, Center for Sustainable Resource Science, RIKEN
LICENSE: CC BY-NC-SA
PUBLICATION: Tsugawa H., Nakabayashi R., Mori T., Yamada Y., Takahashi M., Rai A., Sugiyama R., Yamamoto H., Nakaya T., Yamazaki M., Kooke R., Bac-Molenaar JA., Oztolan-Erol N., Keurentjes JJB., Arita M., Saito K. (2019) "A cheminformatics approach to characterize metabolomes in stable-isotope-labeled organisms" Nature Methods 16(4):295-298. [doi:10.1038/s41592-019-0358-2]
COMMENT: registered in RIKEN PlaSMA
CH$NAME: Remerine
CH$COMPOUND_CLASS: Aporphines
CH$FORMULA: C18H17NO2
CH$EXACT_MASS: 279.339
CH$SMILES: CN1CCC2=CC3=C(OCO3)C3=C2C1CC1=CC=CC=C31
CH$IUPAC: InChI=1S/C18H17NO2/c1-19-7-6-12-9-15-18(21-10-20-15)17-13-5-3-2-4-11(13)8-14(19)16(12)17/h2-5,9,14H,6-8,10H2,1H3
CH$LINK: INCHIKEY JCTYWRARKVGOBK-UHFFFAOYSA-N
AC$INSTRUMENT: LC, Waters Acquity UPLC System; MS, Waters Xevo G2 Q-Tof
AC$INSTRUMENT_TYPE: LC-ESI-QTOF
AC$MASS_SPECTROMETRY: MS_TYPE MS2
AC$MASS_SPECTROMETRY: ION_MODE POSITIVE
AC$MASS_SPECTROMETRY: COLLISION_ENERGY 6V
AC$MASS_SPECTROMETRY: DESOLVATION_GAS_FLOW 800/h
AC$MASS_SPECTROMETRY: DESOLVATION_TEMPERATURE 450 C
AC$MASS_SPECTROMETRY: IONIZATION ESI
AC$CHROMATOGRAPHY: CAPILLARY_VOLTAGE +3.00 kV
AC$CHROMATOGRAPHY: COLUMN_NAME Acquity bridged ethyl hybrid C18 (1.7 um, 2.1 mm * 100 mm, Waters)
AC$CHROMATOGRAPHY: COLUMN_TEMPERATURE 40 C
AC$CHROMATOGRAPHY: FLOW_GRADIENT A/B = (99.5%/0.5% at 0 min, 99.5%/0.5% at 0.1 min, 20%/80% at 10 min, 0.5%/99.5% at 10.1 min, 0.5%/99.5% at 12.0 min, 99.5%/0.5% at 12.1 min, 99.5%/0.5% at 15.0 min)
AC$CHROMATOGRAPHY: FLOW_RATE 0.3 ml/min at 0 min, 0.3 ml/min at 10 min, 0.4 ml/min at 10.1 min, 0.4 ml/min at 14.4 min, 0.3 ml/min at 14.5 min
AC$CHROMATOGRAPHY: RETENTION_TIME 4.893517
AC$CHROMATOGRAPHY: SOLVENT A water including 0.1% formic acid
AC$CHROMATOGRAPHY: SOLVENT B acetonitrile including 0.1% formic acid
MS$FOCUSED_ION: PRECURSOR_TYPE [M+H]+
MS$FOCUSED_ION: PRECURSOR_M/Z 280.1332052
PK$SPLASH: splash10-000t-0290000000-eb87f38c0b27ca5c0e3e
PK$NUM_PEAK: 37
PK$PEAK: m/z int. rel.int.
  165.07077 23.0 23
  166.07402 6.0 6
  178.07726 67.0 67
  179.07089 6.0 6
  179.08121 13.0 13
  179.08844 11.0 11
  189.06743 55.0 55
  189.08542 6.0 6
  190.07281 71.0 71
  190.08101 73.0 73
  191.08524 394.0 394
  192.08907 62.0 62
  193.10083 21.0 21
  194.10271 8.0 8
  201.06223 25.0 25
  201.07167 105.0 105
  202.07686 53.0 53
  203.08585 59.0 59
  204.09088 7.0 7
  207.07626 12.0 12
  207.08434 20.0 20
  218.06621 6.0 6
  219.05037 6.0 6
  219.08202 197.0 197
  220.08308 32.0 32
  220.0936 15.0 15
  221.08772 9.0 9
  221.10306 8.0 8
  231.08707 5.0 5
  237.08875 7.0 7
  249.09065 1000.0 999
  249.13475 14.0 14
  250.09375 203.0 203
  251.0921 11.0 11
  251.10451 5.0 5
  280.13248 729.0 728
  280.17999 10.0 10
//
