ACCESSION: MSBNK-RIKEN-PR301848
RECORD_TITLE: Cinchonidine; LC-ESI-QTOF; MS2
DATE: 2019.03.28
AUTHORS: Tetsuya Mori, Center for Sustainable Resource Science, RIKEN
LICENSE: CC BY-NC-SA
PUBLICATION: Tsugawa H., Nakabayashi R., Mori T., Yamada Y., Takahashi M., Rai A., Sugiyama R., Yamamoto H., Nakaya T., Yamazaki M., Kooke R., Bac-Molenaar JA., Oztolan-Erol N., Keurentjes JJB., Arita M., Saito K. (2019) "A cheminformatics approach to characterize metabolomes in stable-isotope-labeled organisms" Nature Methods 16(4):295-298. [doi:10.1038/s41592-019-0358-2]
COMMENT: registered in RIKEN PlaSMA
CH$NAME: Cinchonidine
CH$COMPOUND_CLASS: Cinchona alkaloids
CH$FORMULA: C19H22N2O
CH$EXACT_MASS: 294.398
CH$SMILES: C=C[C@H]1CN2CC[C@H]1C[C@H]2[C@@H](C3=CC=NC4=CC=CC=C34)O
CH$IUPAC: InChI=1S/C19H22N2O/c1-2-13-12-21-10-8-14(13)11-18(21)19(22)16-7-9-20-17-6-4-3-5-15(16)17/h2-7,9,13-14,18-19,22H,1,8,10-12H2/t13-,14-,18-,19+/m0/s1
CH$LINK: INCHIKEY KMPWYEUPVWOPIM-KODHJQJWSA-N
AC$INSTRUMENT: LC, Waters Acquity UPLC System; MS, Waters Xevo G2 Q-Tof
AC$INSTRUMENT_TYPE: LC-ESI-QTOF
AC$MASS_SPECTROMETRY: MS_TYPE MS2
AC$MASS_SPECTROMETRY: ION_MODE POSITIVE
AC$MASS_SPECTROMETRY: COLLISION_ENERGY 6V
AC$MASS_SPECTROMETRY: DESOLVATION_GAS_FLOW 800/h
AC$MASS_SPECTROMETRY: DESOLVATION_TEMPERATURE 450 C
AC$MASS_SPECTROMETRY: IONIZATION ESI
AC$CHROMATOGRAPHY: CAPILLARY_VOLTAGE +3.00 kV
AC$CHROMATOGRAPHY: COLUMN_NAME Acquity bridged ethyl hybrid C18 (1.7 um, 2.1 mm * 100 mm, Waters)
AC$CHROMATOGRAPHY: COLUMN_TEMPERATURE 40 C
AC$CHROMATOGRAPHY: FLOW_GRADIENT A/B = (99.5%/0.5% at 0 min, 99.5%/0.5% at 0.1 min, 20%/80% at 10 min, 0.5%/99.5% at 10.1 min, 0.5%/99.5% at 12.0 min, 99.5%/0.5% at 12.1 min, 99.5%/0.5% at 15.0 min)
AC$CHROMATOGRAPHY: FLOW_RATE 0.3 ml/min at 0 min, 0.3 ml/min at 10 min, 0.4 ml/min at 10.1 min, 0.4 ml/min at 14.4 min, 0.3 ml/min at 14.5 min
AC$CHROMATOGRAPHY: RETENTION_TIME 3.1463
AC$CHROMATOGRAPHY: SOLVENT A water including 0.1% formic acid
AC$CHROMATOGRAPHY: SOLVENT B acetonitrile including 0.1% formic acid
MS$FOCUSED_ION: PRECURSOR_TYPE [M+H]+
MS$FOCUSED_ION: PRECURSOR_M/Z 295.1804898
PK$SPLASH: splash10-001j-1940000000-b8e445a79f6ecfd8ecc2
PK$NUM_PEAK: 171
PK$PEAK: m/z int. rel.int.
  55.05301 41.0 41
  68.05213 37.0 37
  68.0563 55.0 55
  68.06549 26.0 26
  79.0518 206.0 206
  80.0521 38.0 38
  80.0563 29.0 29
  80.7444 35.0 35
  81.06087 41.0 41
  81.06985 540.0 539
  82.05887 43.0 43
  82.06615 41.0 41
  82.07699 35.0 35
  91.04876 80.0 80
  91.05456 32.0 32
  93.0605 28.0 28
  93.07476 40.0 40
  95.07112 83.0 83
  95.0789 32.0 32
  96.0753 78.0 78
  96.08227 58.0 58
  105.07024 55.0 55
  108.0773 199.0 199
  108.08337 87.0 87
  108.08723 41.0 41
  110.08875 164.0 164
  110.10079 38.0 38
  115.06009 60.0 60
  117.07043 90.0 90
  118.053 46.0 46
  119.07294 52.0 52
  119.0871 26.0 26
  121.08538 48.0 48
  122.09857 176.0 176
  123.09293 35.0 35
  124.0804 40.0 40
  128.04845 58.0 58
  130.03346 31.0 31
  130.06323 554.0 553
  130.07021 221.0 221
  130.07947 35.0 35
  131.06453 94.0 94
  131.07277 67.0 67
  132.08351 80.0 80
  133.09087 32.0 32
  134.09143 51.0 51
  134.09875 104.0 104
  135.09723 121.0 121
  136.11174 164.0 164
  138.77499 57.0 57
  138.91325 31.0 31
  142.04739 34.0 34
  142.0611 63.0 63
  142.06555 170.0 170
  143.06883 224.0 224
  143.08012 81.0 81
  143.62946 32.0 32
  144.08359 186.0 186
  144.34572 51.0 51
  147.06593 28.0 28
  150.12631 32.0 32
  153.66396 26.0 26
  154.05402 100.0 100
  154.06424 230.0 230
  154.07458 44.0 44
  155.06737 29.0 29
  155.07683 127.0 127
  156.04715 49.0 49
  156.06844 144.0 144
  156.08012 452.0 452
  157.07661 26.0 26
  157.08464 55.0 55
  158.05412 31.0 31
  159.06339 83.0 83
  159.0808 29.0 29
  160.07596 35.0 35
  166.05473 41.0 41
  166.10345 32.0 32
  166.12032 71.0 71
  166.13249 41.0 41
  167.06064 58.0 58
  167.07146 69.0 69
  167.0838 58.0 58
  168.07764 242.0 242
  168.08615 199.0 199
  169.07765 31.0 31
  169.08533 83.0 83
  170.05466 40.0 40
  171.06102 32.0 32
  171.07121 51.0 51
  171.09865 129.0 129
  172.07368 89.0 89
  173.0815 31.0 31
  174.08026 29.0 29
  180.07744 115.0 115
  181.09485 37.0 37
  181.10463 29.0 29
  181.57283 26.0 26
  182.08351 26.0 26
  182.09456 41.0 41
  182.10722 38.0 38
  182.73282 26.0 26
  183.07608 26.0 26
  184.05661 28.0 28
  184.08148 31.0 31
  191.07368 126.0 126
  191.38861 26.0 26
  192.07339 32.0 32
  192.09975 29.0 29
  193.07726 28.0 28
  193.08733 69.0 69
  194.08597 44.0 44
  194.09767 60.0 60
  195.09201 26.0 26
  195.10307 52.0 52
  196.10898 130.0 130
  197.11403 77.0 77
  203.08865 46.0 46
  204.07387 28.0 28
  204.08556 28.0 28
  206.08936 31.0 31
  206.10112 120.0 120
  206.10693 43.0 43
  207.09229 43.0 43
  207.10672 32.0 32
  208.10313 29.0 29
  209.11053 104.0 104
  209.11996 32.0 32
  210.13966 40.0 40
  214.13258 29.0 29
  218.07196 46.0 46
  218.09151 26.0 26
  218.10292 66.0 66
  218.11395 51.0 51
  219.09895 29.0 29
  219.12309 26.0 26
  221.08716 29.0 29
  221.1051 31.0 31
  221.11649 103.0 103
  221.1255 26.0 26
  222.1353 26.0 26
  223.10847 35.0 35
  223.1174 32.0 32
  223.14154 43.0 43
  224.14937 26.0 26
  225.12772 43.0 43
  232.12288 31.0 31
  233.12703 51.0 51
  234.12573 26.0 26
  234.13831 55.0 55
  235.11467 63.0 63
  235.12628 133.0 133
  236.12386 48.0 48
  236.14066 104.0 104
  242.10168 31.0 31
  247.11934 32.0 32
  247.24637 31.0 31
  248.1362 95.0 95
  248.14925 35.0 35
  252.14758 81.0 81
  261.12817 31.0 31
  261.14719 44.0 44
  277.16446 374.0 374
  277.18359 219.0 219
  278.1604 67.0 67
  278.17969 109.0 109
  279.18314 26.0 26
  280.16827 31.0 31
  282.77734 31.0 31
  295.16629 153.0 153
  295.18048 1000.0 999
//
