ACCESSION: MSBNK-RIKEN-PR310987
RECORD_TITLE: Apigenin-6-C-glucoside-7-O-glucoside; LC-ESI-QTOF; MS2
DATE: 2019.03.28
AUTHORS: Tetsuya Mori, Center for Sustainable Resource Science, RIKEN
LICENSE: CC BY-NC-SA
PUBLICATION: Tsugawa H., Nakabayashi R., Mori T., Yamada Y., Takahashi M., Rai A., Sugiyama R., Yamamoto H., Nakaya T., Yamazaki M., Kooke R., Bac-Molenaar JA., Oztolan-Erol N., Keurentjes JJB., Arita M., Saito K. (2019) "A cheminformatics approach to characterize metabolomes in stable-isotope-labeled organisms" Nature Methods 16(4):295-298. [doi:10.1038/s41592-019-0358-2]
COMMENT: Annotation level-1
CH$NAME: Apigenin-6-C-glucoside-7-O-glucoside
CH$COMPOUND_CLASS: Flavone C,O-glycosides
CH$FORMULA: C27H30O15
CH$EXACT_MASS: 594.522
CH$SMILES: O=C2C=C(OC=3C=C(OC1OC(CO)C(O)C(O)C1(O))C(=C(O)C2=3)C4OC(CO)C(O)C(O)C4(O))C5=CC=C(O)C=C5
CH$IUPAC: InChI=1S/C27H30O15/c28-7-15-19(32)22(35)24(37)26(40-15)18-14(41-27-25(38)23(36)20(33)16(8-29)42-27)6-13-17(21(18)34)11(31)5-12(39-13)9-1-3-10(30)4-2-9/h1-6,15-16,19-20,22-30,32-38H,7-8H2
CH$LINK: INCHIKEY HGUVPEBGCAVWID-UHFFFAOYSA-N
AC$INSTRUMENT: LC, Waters Acquity UPLC System; MS, Waters Xevo G2 Q-Tof
AC$INSTRUMENT_TYPE: LC-ESI-QTOF
AC$MASS_SPECTROMETRY: MS_TYPE MS2
AC$MASS_SPECTROMETRY: ION_MODE POSITIVE
AC$MASS_SPECTROMETRY: COLLISION_ENERGY 6V
AC$MASS_SPECTROMETRY: DESOLVATION_GAS_FLOW 800/h
AC$MASS_SPECTROMETRY: DESOLVATION_TEMPERATURE 450 C
AC$MASS_SPECTROMETRY: IONIZATION ESI
AC$CHROMATOGRAPHY: CAPILLARY_VOLTAGE +3.00 kV
AC$CHROMATOGRAPHY: COLUMN_NAME Acquity bridged ethyl hybrid C18 (1.7 um, 2.1 mm * 100 mm, Waters)
AC$CHROMATOGRAPHY: COLUMN_TEMPERATURE 40 C
AC$CHROMATOGRAPHY: FLOW_GRADIENT A/B = (99.5%/0.5% at 0 min, 99.5%/0.5% at 0.1 min, 20%/80% at 10 min, 0.5%/99.5% at 10.1 min, 0.5%/99.5% at 12.0 min, 99.5%/0.5% at 12.1 min, 99.5%/0.5% at 15.0 min)
AC$CHROMATOGRAPHY: FLOW_RATE 0.3 ml/min at 0 min, 0.3 ml/min at 10 min, 0.4 ml/min at 10.1 min, 0.4 ml/min at 14.4 min, 0.3 ml/min at 14.5 min
AC$CHROMATOGRAPHY: RETENTION_TIME 3.52
AC$CHROMATOGRAPHY: SOLVENT A water including 0.1% formic acid
AC$CHROMATOGRAPHY: SOLVENT B acetonitrile including 0.1% formic acid
MS$FOCUSED_ION: PRECURSOR_TYPE [M+H]+
MS$FOCUSED_ION: PRECURSOR_M/Z 595.16575
PK$SPLASH: splash10-000t-0039240000-1c65de5bb5bdf57e2e1b
PK$NUM_PEAK: 172
PK$PEAK: m/z int. rel.int.
  97.02612 17.0 3
  121.03014 26.0 5
  127.04176 25.0 5
  173.02319 29.0 5
  197.25522 20.0 4
  202.53087 27.0 5
  215.31209 24.0 4
  263.35934 18.0 3
  267.05023 20.0 4
  267.06494 18.0 3
  271.0509 130.0 24
  271.06284 113.0 21
  271.07788 52.0 9
  272.06488 60.0 11
  277.74814 18.0 3
  281.08047 21.0 4
  282.08356 40.0 7
  282.70215 19.0 3
  282.80133 23.0 4
  282.96347 17.0 3
  282.99701 18.0 3
  283.01862 24.0 4
  283.035 210.0 38
  283.05865 3234.0 590
  284.00391 19.0 3
  284.03134 21.0 4
  284.0636 502.0 92
  284.33685 20.0 4
  285.06018 43.0 8
  285.0719 107.0 20
  285.10147 25.0 5
  290.08804 17.0 3
  295.03922 28.0 5
  295.05719 118.0 22
  295.0704 35.0 6
  296.06384 111.0 20
  297.03137 20.0 4
  297.06808 58.0 11
  305.07806 19.0 3
  307.04688 26.0 5
  307.06125 21.0 4
  308.0592 22.0 4
  309.03464 112.0 20
  309.04745 29.0 5
  309.07294 495.0 90
  310.08408 41.0 7
  311.06036 44.0 8
  311.09833 18.0 3
  313.021 28.0 5
  313.04214 72.0 13
  313.07016 2608.0 476
  314.04807 72.0 13
  314.07428 658.0 120
  315.0816 50.0 9
  323.03668 17.0 3
  323.08911 294.0 54
  323.10849 34.0 6
  323.3533 18.0 3
  324.08841 86.0 16
  324.10437 33.0 6
  325.02429 34.0 6
  325.07108 42.0 8
  326.10513 25.0 5
  327.08023 37.0 7
  333.00934 28.0 5
  333.06726 30.0 5
  334.05548 17.0 3
  335.05258 33.0 6
  335.47806 20.0 4
  335.71262 20.0 4
  337.01758 18.0 3
  337.04095 122.0 22
  337.07144 2395.0 437
  337.81137 28.0 5
  338.00909 22.0 4
  338.05798 126.0 23
  338.07434 506.0 92
  338.73923 17.0 3
  339.05469 38.0 7
  339.07275 20.0 4
  343.07669 19.0 3
  349.06354 325.0 59
  349.08145 160.0 29
  350.07327 23.0 4
  351.07489 85.0 16
  351.09308 65.0 12
  352.09433 29.0 5
  354.05933 29.0 5
  355.08215 32.0 6
  355.09967 25.0 5
  357.16156 30.0 5
  358.67911 17.0 3
  361.05292 59.0 11
  361.07239 421.0 77
  362.05869 17.0 3
  362.08011 53.0 10
  366.82108 27.0 5
  367.00174 18.0 3
  367.05612 119.0 22
  367.07324 514.0 94
  367.09024 750.0 137
  367.14694 34.0 6
  368.00885 25.0 5
  368.05615 68.0 12
  368.08188 399.0 73
  368.10251 29.0 5
  369.08115 24.0 4
  369.38766 25.0 5
  370.25525 20.0 4
  372.35889 17.0 3
  376.08762 17.0 3
  378.98227 20.0 4
  379.08203 1172.0 214
  379.52386 19.0 3
  380.07892 152.0 28
  380.09537 76.0 14
  380.6738 31.0 6
  381.08731 96.0 18
  384.6918 17.0 3
  389.01392 17.0 3
  397.03137 26.0 5
  397.09247 1147.0 209
  398.07761 37.0 7
  398.0957 146.0 27
  399.08997 45.0 8
  415.05704 33.0 6
  415.1019 1583.0 289
  416.07297 41.0 7
  416.10339 371.0 68
  416.13495 71.0 13
  417.073 24.0 4
  417.11285 140.0 26
  433.07327 29.0 5
  433.11371 1264.0 231
  433.32315 17.0 3
  434.08377 34.0 6
  434.11572 407.0 74
  435.11688 18.0 3
  436.4086 28.0 5
  447.99164 31.0 6
  449.63849 17.0 3
  475.12881 334.0 61
  476.11307 20.0 4
  476.13022 69.0 13
  477.18179 18.0 3
  494.12109 42.0 8
  499.12201 45.0 8
  499.1427 25.0 5
  500.12436 46.0 8
  528.96234 21.0 4
  529.0838 45.0 8
  529.15991 27.0 5
  530.12549 24.0 4
  541.10431 20.0 4
  541.14111 84.0 15
  545.28937 23.0 4
  559.13837 52.0 9
  560.18774 17.0 3
  562.13641 19.0 3
  569.81995 24.0 4
  577.10858 42.0 8
  577.15668 1221.0 223
  577.25653 17.0 3
  578.14185 106.0 19
  578.16699 192.0 35
  579.13654 20.0 4
  579.16638 57.0 10
  583.84808 17.0 3
  595.02588 43.0 8
  595.04553 20.0 4
  595.099 76.0 14
  595.1673 5473.0 999
//
