ACCESSION: MSBNK-RIKEN-PR311074
RECORD_TITLE: Scoparone; LC-ESI-QTOF; MS2
DATE: 2019.03.28
AUTHORS: Tetsuya Mori, Center for Sustainable Resource Science, RIKEN
LICENSE: CC BY-NC-SA
PUBLICATION: Tsugawa H., Nakabayashi R., Mori T., Yamada Y., Takahashi M., Rai A., Sugiyama R., Yamamoto H., Nakaya T., Yamazaki M., Kooke R., Bac-Molenaar JA., Oztolan-Erol N., Keurentjes JJB., Arita M., Saito K. (2019) "A cheminformatics approach to characterize metabolomes in stable-isotope-labeled organisms" Nature Methods 16(4):295-298. [doi:10.1038/s41592-019-0358-2]
COMMENT: Annotation level-1
CH$NAME: Scoparone
CH$COMPOUND_CLASS: Coumarin and derivatives
CH$FORMULA: C11H10O4
CH$EXACT_MASS: 206.197
CH$SMILES: O=C1OC2=CC(OC)=C(OC)C=C2(C=C1)
CH$IUPAC: InChI=1S/C11H10O4/c1-13-9-5-7-3-4-11(12)15-8(7)6-10(9)14-2/h3-6H,1-2H3
CH$LINK: INCHIKEY GUAFOGOEJLSQBT-UHFFFAOYSA-N
AC$INSTRUMENT: LC, Waters Acquity UPLC System; MS, Waters Xevo G2 Q-Tof
AC$INSTRUMENT_TYPE: LC-ESI-QTOF
AC$MASS_SPECTROMETRY: MS_TYPE MS2
AC$MASS_SPECTROMETRY: ION_MODE POSITIVE
AC$MASS_SPECTROMETRY: COLLISION_ENERGY 6V
AC$MASS_SPECTROMETRY: DESOLVATION_GAS_FLOW 800/h
AC$MASS_SPECTROMETRY: DESOLVATION_TEMPERATURE 450 C
AC$MASS_SPECTROMETRY: IONIZATION ESI
AC$CHROMATOGRAPHY: CAPILLARY_VOLTAGE +3.00 kV
AC$CHROMATOGRAPHY: COLUMN_NAME Acquity bridged ethyl hybrid C18 (1.7 um, 2.1 mm * 100 mm, Waters)
AC$CHROMATOGRAPHY: COLUMN_TEMPERATURE 40 C
AC$CHROMATOGRAPHY: FLOW_GRADIENT A/B = (99.5%/0.5% at 0 min, 99.5%/0.5% at 0.1 min, 20%/80% at 10 min, 0.5%/99.5% at 10.1 min, 0.5%/99.5% at 12.0 min, 99.5%/0.5% at 12.1 min, 99.5%/0.5% at 15.0 min)
AC$CHROMATOGRAPHY: FLOW_RATE 0.3 ml/min at 0 min, 0.3 ml/min at 10 min, 0.4 ml/min at 10.1 min, 0.4 ml/min at 14.4 min, 0.3 ml/min at 14.5 min
AC$CHROMATOGRAPHY: RETENTION_TIME 5
AC$CHROMATOGRAPHY: SOLVENT A water including 0.1% formic acid
AC$CHROMATOGRAPHY: SOLVENT B acetonitrile including 0.1% formic acid
MS$FOCUSED_ION: PRECURSOR_TYPE [M+H]+
MS$FOCUSED_ION: PRECURSOR_M/Z 207.06519
PK$SPLASH: splash10-0a4i-0690000000-f776fc1e8e95763cf83d
PK$NUM_PEAK: 134
PK$PEAK: m/z int. rel.int.
  77.0415 57.0 2
  78.04695 48.0 2
  79.05471 136.0 6
  80.06174 24.0 1
  89.03924 95.0 4
  90.04875 112.0 5
  91.03931 24.0 1
  91.05405 297.0 13
  102.04687 28.0 1
  103.0415 33.0 1
  104.05479 37.0 2
  105.0341 57.0 2
  106.04021 18.0 1
  106.04787 21.0 1
  107.04935 925.0 40
  107.06166 14.0 1
  108.04594 18.0 1
  108.05757 230.0 10
  109.05712 19.0 1
  117.02512 20.0 1
  117.03239 18.0 1
  117.52409 28.0 1
  118.03449 17.0 1
  118.04145 42.0 2
  118.31796 29.0 1
  119.04548 46.0 2
  119.05031 109.0 5
  119.06172 18.0 1
  120.05437 21.0 1
  120.06116 18.0 1
  121.02538 64.0 3
  121.04256 20.0 1
  121.05338 27.0 1
  121.06509 171.0 7
  121.15308 22.0 1
  122.03617 17.0 1
  122.07256 27.0 1
  123.07719 24.0 1
  124.08765 27.0 1
  124.85536 17.0 1
  127.69841 25.0 1
  128.02832 21.0 1
  129.03271 62.0 3
  131.6402 28.0 1
  132.79535 26.0 1
  133.0078 20.0 1
  133.02527 35.0 2
  134.03395 123.0 5
  134.04343 19.0 1
  135.02798 58.0 3
  135.04492 437.0 19
  135.0536 68.0 3
  135.62607 44.0 2
  135.9753 37.0 2
  136.05119 444.0 19
  136.06198 59.0 3
  137.04759 27.0 1
  137.06189 17.0 1
  138.06262 19.0 1
  142.28079 22.0 1
  143.95728 24.0 1
  145.02554 80.0 4
  146.03535 663.0 29
  147.04091 185.0 8
  147.05304 26.0 1
  147.40581 21.0 1
  148.03204 20.0 1
  148.05061 643.0 28
  149.04094 41.0 2
  149.05704 17.0 1
  149.06325 20.0 1
  150.05614 18.0 1
  151.04976 22.0 1
  151.07492 3577.0 157
  151.12013 40.0 2
  151.61194 20.0 1
  152.07697 290.0 13
  152.08533 84.0 4
  153.07822 70.0 3
  153.09026 45.0 2
  155.21761 17.0 1
  156.57043 20.0 1
  156.6537 21.0 1
  156.87146 17.0 1
  156.90466 20.0 1
  158.13628 20.0 1
  158.95944 17.0 1
  161.30292 22.0 1
  162.00806 17.0 1
  162.02721 128.0 6
  162.03772 101.0 4
  163.0376 746.0 33
  163.04399 682.0 30
  163.06439 20.0 1
  163.07343 58.0 3
  163.09348 31.0 1
  164.03021 20.0 1
  164.04724 242.0 11
  165.03537 20.0 1
  165.04663 37.0 2
  173.0229 39.0 2
  173.43141 29.0 1
  174.03447 65.0 3
  175.02252 27.0 1
  175.02995 22.0 1
  175.04077 42.0 2
  175.04832 21.0 1
  176.04846 24.0 1
  178.05589 25.0 1
  178.06342 108.0 5
  179.06982 1247.0 55
  179.78853 21.0 1
  181.07748 57.0 2
  189.26598 46.0 2
  191.02109 217.0 9
  191.034 1832.0 80
  191.06693 17.0 1
  191.27917 28.0 1
  192.03983 1444.0 63
  192.16605 21.0 1
  193.02682 19.0 1
  193.04262 145.0 6
  203.03539 18.0 1
  203.94324 20.0 1
  204.09 21.0 1
  205.70921 20.0 1
  206.03516 20.0 1
  206.05849 629.0 28
  206.16405 20.0 1
  206.24373 20.0 1
  206.79048 18.0 1
  207.03474 19.0 1
  207.065 22831.0 999
  207.10616 428.0 19
//
