ACCESSION: MSBNK-RIKEN-PR310724
RECORD_TITLE: Furostane base -2H + O-Hex, O-Hex-dHex-dHex; LC-ESI-QTOF; MS2
DATE: 2019.03.28
AUTHORS: Tetsuya Mori, Center for Sustainable Resource Science, RIKEN
LICENSE: CC BY-NC-SA
PUBLICATION: Tsugawa H., Nakabayashi R., Mori T., Yamada Y., Takahashi M., Rai A., Sugiyama R., Yamamoto H., Nakaya T., Yamazaki M., Kooke R., Bac-Molenaar JA., Oztolan-Erol N., Keurentjes JJB., Arita M., Saito K. (2019) "A cheminformatics approach to characterize metabolomes in stable-isotope-labeled organisms" Nature Methods 16(4):295-298. [doi:10.1038/s41592-019-0358-2]
COMMENT: Annotation level-3
CH$NAME: Furostane base -2H + O-Hex, O-Hex-dHex-dHex
CH$COMPOUND_CLASS: Steroidal saponins
CH$FORMULA: C51H84O22
CH$EXACT_MASS: 1049.211
CH$SMILES: OCC9OC(OCC(C)CCC7(O)(OC6CC5C8CC=C4CC(OC3OC(CO)C(OC1OC(C)C(O)C(O)C1(O))C(O)C3(OC2OC(C)C(O)C(O)C2(O)))CCC4(C)C8(CCC5(C)C6C7(C))))C(O)C(O)C9(O)
CH$IUPAC: InChI=1S/C51H84O22/c1-20(19-65-45-39(60)38(59)35(56)30(17-52)69-45)9-14-51(64)21(2)32-29(73-51)16-28-26-8-7-24-15-25(10-12-49(24,5)27(26)11-13-50(28,32)6)68-48-44(72-47-41(62)37(58)34(55)23(4)67-47)42(63)43(31(18-53)70-48)71-46-40(61)36(57)33(54)22(3)66-46/h7,20-23,25-48,52-64H,8-19H2,1-6H3
CH$LINK: INCHIKEY LVTJOONKWUXEFR-UHFFFAOYSA-N
AC$INSTRUMENT: LC, Waters Acquity UPLC System; MS, Waters Xevo G2 Q-Tof
AC$INSTRUMENT_TYPE: LC-ESI-QTOF
AC$MASS_SPECTROMETRY: MS_TYPE MS2
AC$MASS_SPECTROMETRY: ION_MODE POSITIVE
AC$MASS_SPECTROMETRY: COLLISION_ENERGY 6V
AC$MASS_SPECTROMETRY: DESOLVATION_GAS_FLOW 800/h
AC$MASS_SPECTROMETRY: DESOLVATION_TEMPERATURE 450 C
AC$MASS_SPECTROMETRY: IONIZATION ESI
AC$CHROMATOGRAPHY: CAPILLARY_VOLTAGE +3.00 kV
AC$CHROMATOGRAPHY: COLUMN_NAME Acquity bridged ethyl hybrid C18 (1.7 um, 2.1 mm * 100 mm, Waters)
AC$CHROMATOGRAPHY: COLUMN_TEMPERATURE 40 C
AC$CHROMATOGRAPHY: FLOW_GRADIENT A/B = (99.5%/0.5% at 0 min, 99.5%/0.5% at 0.1 min, 20%/80% at 10 min, 0.5%/99.5% at 10.1 min, 0.5%/99.5% at 12.0 min, 99.5%/0.5% at 12.1 min, 99.5%/0.5% at 15.0 min)
AC$CHROMATOGRAPHY: FLOW_RATE 0.3 ml/min at 0 min, 0.3 ml/min at 10 min, 0.4 ml/min at 10.1 min, 0.4 ml/min at 14.4 min, 0.3 ml/min at 14.5 min
AC$CHROMATOGRAPHY: RETENTION_TIME 5.05
AC$CHROMATOGRAPHY: SOLVENT A water including 0.1% formic acid
AC$CHROMATOGRAPHY: SOLVENT B acetonitrile including 0.1% formic acid
MS$FOCUSED_ION: PRECURSOR_TYPE [M-H2O+H]+
MS$FOCUSED_ION: PRECURSOR_M/Z 1031.5415
PK$SPLASH: splash10-001i-9130100020-9dd4824cb0491d17dfc9
PK$NUM_PEAK: 126
PK$PEAK: m/z int. rel.int.
  85.00674 22.0 6
  98.63284 38.0 10
  105.52512 20.0 5
  111.0474 25.0 7
  115.08395 18.0 5
  125.09647 18.0 5
  127.03967 17.0 5
  128.12126 17.0 5
  129.05345 175.0 48
  129.06259 25.0 7
  130.05367 21.0 6
  130.06027 35.0 10
  143.08481 17.0 5
  145.04655 27.0 7
  147.06514 113.0 31
  149.13084 20.0 5
  163.05899 33.0 9
  167.10571 111.0 30
  168.10866 20.0 5
  171.11591 20.0 5
  199.05904 30.0 8
  199.07014 18.0 5
  199.1394 18.0 5
  201.08369 20.0 5
  213.07639 21.0 6
  217.06458 22.0 6
  231.08173 26.0 7
  231.0954 27.0 7
  233.18333 28.0 8
  237.08096 30.0 8
  240.09985 22.0 6
  253.18895 69.0 19
  253.20271 183.0 50
  254.20009 77.0 21
  255.07671 19.0 5
  255.0867 25.0 7
  255.2076 19.0 5
  256.19983 21.0 6
  257.09229 32.0 9
  257.11267 18.0 5
  257.12177 20.0 5
  258.10068 24.0 7
  262.1387 20.0 5
  269.14191 21.0 6
  271.20853 282.0 77
  272.2066 95.0 26
  274.35699 21.0 6
  275.116 21.0 6
  283.25311 18.0 5
  293.08954 28.0 8
  293.10947 41.0 11
  293.12375 60.0 16
  304.85507 17.0 5
  308.64438 21.0 6
  309.11072 49.0 13
  310.11557 17.0 5
  315.22452 17.0 5
  359.24673 20.0 5
  370.71277 21.0 6
  379.29132 81.0 22
  383.14087 18.0 5
  395.26785 18.0 5
  397.31223 49.0 13
  398.30609 22.0 6
  398.3179 26.0 7
  411.02466 17.0 5
  415.28949 18.0 5
  415.31012 213.0 58
  415.32217 167.0 46
  415.34998 18.0 5
  415.50079 17.0 5
  416.2854 17.0 5
  416.32022 113.0 31
  417.31302 17.0 5
  420.11832 17.0 5
  433.2467 30.0 8
  465.28964 19.0 5
  489.27377 25.0 7
  490.34949 27.0 7
  499.23898 17.0 5
  525.23065 33.0 9
  548.15076 22.0 6
  559.36737 56.0 15
  561.36151 20.0 5
  562.39954 17.0 5
  577.37396 100.0 27
  577.40222 18.0 5
  578.34528 19.0 5
  578.38177 44.0 12
  579.38434 18.0 5
  581.67676 17.0 5
  620.36993 19.0 5
  623.97333 22.0 6
  648.10968 31.0 9
  686.41638 18.0 5
  689.37097 20.0 5
  707.4743 22.0 6
  719.43799 20.0 5
  723.42004 58.0 16
  725.33057 20.0 5
  725.39612 76.0 21
  726.3678 44.0 12
  773.23926 39.0 11
  807.46722 20.0 5
  849.43652 18.0 5
  866.31842 38.0 10
  869.39935 20.0 5
  869.45648 185.0 51
  869.49225 430.0 118
  869.53546 39.0 11
  870.44897 23.0 6
  870.49036 214.0 59
  870.53046 34.0 9
  871.48615 67.0 18
  872.45453 21.0 6
  873.94745 55.0 15
  947.50647 21.0 6
  999.38782 22.0 6
  1015.51459 17.0 5
  1030.51611 17.0 5
  1030.54895 17.0 5
  1031.30908 18.0 5
  1031.39258 29.0 8
  1031.46082 61.0 17
  1031.53992 3638.0 999
  1031.64661 17.0 5
//
