ACCESSION: MSBNK-RIKEN-PR306985
RECORD_TITLE: Kaempferol-3-O-glucoside-2''-p-coumaroyl; LC-ESI-QTOF; MS2
DATE: 2019.03.28
AUTHORS: Tetsuya Mori, Center for Sustainable Resource Science, RIKEN
LICENSE: CC BY-NC-SA
PUBLICATION: Tsugawa H., Nakabayashi R., Mori T., Yamada Y., Takahashi M., Rai A., Sugiyama R., Yamamoto H., Nakaya T., Yamazaki M., Kooke R., Bac-Molenaar JA., Oztolan-Erol N., Keurentjes JJB., Arita M., Saito K. (2019) "A cheminformatics approach to characterize metabolomes in stable-isotope-labeled organisms" Nature Methods 16(4):295-298. [doi:10.1038/s41592-019-0358-2]
COMMENT: registered in RIKEN PlaSMA
CH$NAME: Kaempferol-3-O-glucoside-2''-p-coumaroyl
CH$COMPOUND_CLASS: Flavonoid-3-O-glycosides
CH$FORMULA: C30H26O13
CH$EXACT_MASS: 594.525
CH$SMILES: OCC1OC(OC2=C(OC3=CC(O)=CC(O)=C3C2=O)C2=CC=C(O)C=C2)C(OC(=O)C=CC2=CC=C(O)C=C2)C(O)C1O
CH$IUPAC: InChI=1S/C30H26O13/c31-13-21-24(37)26(39)29(42-22(36)10-3-14-1-6-16(32)7-2-14)30(41-21)43-28-25(38)23-19(35)11-18(34)12-20(23)40-27(28)15-4-8-17(33)9-5-15/h1-12,21,24,26,29-35,37,39H,13H2
CH$LINK: INCHIKEY IKONEAPXVKTZFF-UHFFFAOYSA-N
AC$INSTRUMENT: LC, Waters Acquity UPLC System; MS, Waters Xevo G2 Q-Tof
AC$INSTRUMENT_TYPE: LC-ESI-QTOF
AC$MASS_SPECTROMETRY: MS_TYPE MS2
AC$MASS_SPECTROMETRY: ION_MODE NEGATIVE
AC$MASS_SPECTROMETRY: COLLISION_ENERGY 6V
AC$MASS_SPECTROMETRY: DESOLVATION_GAS_FLOW 800/h
AC$MASS_SPECTROMETRY: DESOLVATION_TEMPERATURE 450 C
AC$MASS_SPECTROMETRY: IONIZATION ESI
AC$CHROMATOGRAPHY: CAPILLARY_VOLTAGE -2.75 kV
AC$CHROMATOGRAPHY: COLUMN_NAME Acquity bridged ethyl hybrid C18 (1.7 um, 2.1 mm * 100 mm, Waters)
AC$CHROMATOGRAPHY: COLUMN_TEMPERATURE 40 C
AC$CHROMATOGRAPHY: FLOW_GRADIENT A/B = (99.5%/0.5% at 0 min, 99.5%/0.5% at 0.1 min, 20%/80% at 10 min, 0.5%/99.5% at 10.1 min, 0.5%/99.5% at 12.0 min, 99.5%/0.5% at 12.1 min, 99.5%/0.5% at 15.0 min)
AC$CHROMATOGRAPHY: FLOW_RATE 0.3 ml/min at 0 min, 0.3 ml/min at 10 min, 0.4 ml/min at 10.1 min, 0.4 ml/min at 14.4 min, 0.3 ml/min at 14.5 min
AC$CHROMATOGRAPHY: RETENTION_TIME 5.31575
AC$CHROMATOGRAPHY: SOLVENT A water including 0.1% formic acid
AC$CHROMATOGRAPHY: SOLVENT B acetonitrile including 0.1% formic acid
MS$FOCUSED_ION: PRECURSOR_TYPE [M-H]-
MS$FOCUSED_ION: PRECURSOR_M/Z 593.13006444783
PK$SPLASH: splash10-000i-0090010000-9fef9a574d032923a3e9
PK$NUM_PEAK: 27
PK$PEAK: m/z int. rel.int.
  65.00314 5.0 5
  119.04533 6.0 6
  145.02676 26.0 26
  151.00056 33.0 33
  162.9985 6.0 6
  163.0363 13.0 13
  165.05147 7.0 7
  213.05403 13.0 13
  227.02742 10.0 10
  227.03802 7.0 7
  229.05084 8.0 8
  241.05386 9.0 9
  255.02731 6.0 6
  257.039 13.0 13
  257.05112 18.0 18
  283.01562 8.0 8
  284.02499 5.0 5
  284.03299 14.0 14
  284.04425 9.0 9
  285.03925 1000.0 999
  286.03702 51.0 51
  286.04468 127.0 127
  287.0426 22.0 22
  307.0816 94.0 94
  308.08356 17.0 17
  447.09091 10.0 10
  593.13031 177.0 177
//
