ACCESSION: MSBNK-RIKEN-PR303963
RECORD_TITLE: Justicidin G; LC-ESI-QTOF; MS2
DATE: 2019.03.28
AUTHORS: Tetsuya Mori, Center for Sustainable Resource Science, RIKEN
LICENSE: CC BY-NC-SA
PUBLICATION: Tsugawa H., Nakabayashi R., Mori T., Yamada Y., Takahashi M., Rai A., Sugiyama R., Yamamoto H., Nakaya T., Yamazaki M., Kooke R., Bac-Molenaar JA., Oztolan-Erol N., Keurentjes JJB., Arita M., Saito K. (2019) "A cheminformatics approach to characterize metabolomes in stable-isotope-labeled organisms" Nature Methods 16(4):295-298. [doi:10.1038/s41592-019-0358-2]
COMMENT: registered in RIKEN PlaSMA
CH$NAME: Justicidin G
CH$COMPOUND_CLASS: Arylnaphthalene lignans
CH$FORMULA: C21H14O7
CH$EXACT_MASS: 378.336
CH$SMILES: COC1=C2OCOC2=CC2=C(C3=C(C=C12)C(=O)OC3)C1=CC=C2OCOC2=C1
CH$IUPAC: InChI=1S/C21H14O7/c1-23-19-12-5-13-14(7-24-21(13)22)18(11(12)6-17-20(19)28-9-27-17)10-2-3-15-16(4-10)26-8-25-15/h2-6H,7-9H2,1H3
CH$LINK: INCHIKEY VINGQMQXGDIELG-UHFFFAOYSA-N
AC$INSTRUMENT: LC, Waters Acquity UPLC System; MS, Waters Xevo G2 Q-Tof
AC$INSTRUMENT_TYPE: LC-ESI-QTOF
AC$MASS_SPECTROMETRY: MS_TYPE MS2
AC$MASS_SPECTROMETRY: ION_MODE POSITIVE
AC$MASS_SPECTROMETRY: COLLISION_ENERGY 6V
AC$MASS_SPECTROMETRY: DESOLVATION_GAS_FLOW 800/h
AC$MASS_SPECTROMETRY: DESOLVATION_TEMPERATURE 450 C
AC$MASS_SPECTROMETRY: IONIZATION ESI
AC$CHROMATOGRAPHY: CAPILLARY_VOLTAGE +3.00 kV
AC$CHROMATOGRAPHY: COLUMN_NAME Acquity bridged ethyl hybrid C18 (1.7 um, 2.1 mm * 100 mm, Waters)
AC$CHROMATOGRAPHY: COLUMN_TEMPERATURE 40 C
AC$CHROMATOGRAPHY: FLOW_GRADIENT A/B = (99.5%/0.5% at 0 min, 99.5%/0.5% at 0.1 min, 20%/80% at 10 min, 0.5%/99.5% at 10.1 min, 0.5%/99.5% at 12.0 min, 99.5%/0.5% at 12.1 min, 99.5%/0.5% at 15.0 min)
AC$CHROMATOGRAPHY: FLOW_RATE 0.3 ml/min at 0 min, 0.3 ml/min at 10 min, 0.4 ml/min at 10.1 min, 0.4 ml/min at 14.4 min, 0.3 ml/min at 14.5 min
AC$CHROMATOGRAPHY: RETENTION_TIME 8.934183
AC$CHROMATOGRAPHY: SOLVENT A water including 0.1% formic acid
AC$CHROMATOGRAPHY: SOLVENT B acetonitrile including 0.1% formic acid
MS$FOCUSED_ION: PRECURSOR_TYPE [M+H]+
MS$FOCUSED_ION: PRECURSOR_M/Z 379.0812292
PK$SPLASH: splash10-004i-0009000000-5a9e92dc04bc908d9894
PK$NUM_PEAK: 11
PK$PEAK: m/z int. rel.int.
  305.0798 12.0 12
  320.06342 8.0 8
  335.09225 145.0 145
  336.09564 45.0 45
  349.07089 71.0 71
  350.06604 10.0 10
  350.07962 15.0 15
  378.05966 9.0 9
  378.07471 46.0 46
  379.0799 1000.0 999
  379.13412 8.0 8
//
