ACCESSION: MSBNK-RIKEN-PR040107
RECORD_TITLE: Robinin; LC-ESI-QTOF; MS2; CE:30 V; [M+H]+
DATE: 2016.01.19 (Created 2008.01.09, modified 2011.05.06)
AUTHORS: Matsuda F, Plant Science Center, RIKEN.
LICENSE: CC BY-SA
CH$NAME: kaempferol-3-O-robinoside-7-O-rhamnoside
CH$NAME: Robinin
CH$NAME: Kaem_3_Rob__7_Rha
CH$NAME: 5-hydroxy-2-(4-hydroxyphenyl)-7-[(2R,3R,4R,5S,6S)-3,4,5-trihydroxy-6-methyl-oxan-2-yl]oxy-3-[(2S,3R,4S,5S,6R)-3,4,5-trihydroxy-6-[[(2R,3R,4R,5S,6S)-3,4,5-trihydroxy-6-methyl-oxan-2-yl]oxymethyl]oxan-2-yl]oxy-chromen-4-one
CH$COMPOUND_CLASS: Natural Product
CH$FORMULA: C33H40O19
CH$EXACT_MASS: 740.21638
CH$SMILES: [C@@H]([C@@H](O)5)(O)[C@@H](O[C@H](CO[C@@H]([C@H](O)6)O[C@H]([C@H](O)[C@H]6O)C)[C@@H]5O)OC(=C3c(c4)ccc(O)c4)C(c(c(O3)1)c(O)cc(O[C@H](O2)[C@@H]([C@H](O)[C@H]([C@@H]2C)O)O)c1)=O
CH$IUPAC: InChI=1S/C33H40O19/c1-10-19(36)23(40)26(43)31(47-10)46-9-17-21(38)25(42)28(45)33(51-17)52-30-22(39)18-15(35)7-14(49-32-27(44)24(41)20(37)11(2)48-32)8-16(18)50-29(30)12-3-5-13(34)6-4-12/h3-8,10-11,17,19-21,23-28,31-38,40-45H,9H2,1-2H3/t10-,11-,17+,19-,20-,21-,23+,24+,25-,26+,27+,28+,31+,32-,33-/m0/s1
CH$LINK: CAS 301-19-9
CH$LINK: KEGG C10178
CH$LINK: PUBCHEM CID:5281693
CH$LINK: INCHIKEY PEFASEPMJYRQBW-HKWQTAEVSA-N
AC$INSTRUMENT: UPLC Q-Tof Premier, Waters
AC$INSTRUMENT_TYPE: LC-ESI-QTOF
AC$MASS_SPECTROMETRY: MS_TYPE MS2
AC$MASS_SPECTROMETRY: ION_MODE POSITIVE
AC$MASS_SPECTROMETRY: COLLISION_ENERGY 30 V
AC$MASS_SPECTROMETRY: DATAFORMAT Continuum
AC$MASS_SPECTROMETRY: DESOLVATION_GAS_FLOW 600.0 L/Hr
AC$MASS_SPECTROMETRY: DESOLVATION_TEMPERATURE 400 C
AC$MASS_SPECTROMETRY: FRAGMENTATION_METHOD LOW-ENERGY CID
AC$MASS_SPECTROMETRY: IONIZATION ESI
AC$MASS_SPECTROMETRY: SCANNING 1.0 sec/scan (m/z = 50-1000)
AC$MASS_SPECTROMETRY: SOURCE_TEMPERATURE 120 C
AC$CHROMATOGRAPHY: CAPILLARY_VOLTAGE 3.0 kV
AC$CHROMATOGRAPHY: SAMPLING_CONE 23.0 V
AC$CHROMATOGRAPHY: SOLVENT A CH3CN(0.1%HCOOH)
AC$CHROMATOGRAPHY: SOLVENT B H2O(0.1%HCOOH)
MS$FOCUSED_ION: FULL_SCAN_FRAGMENT_ION_PEAK 741.2
MS$FOCUSED_ION: ION_TYPE [M+H]+
MS$DATA_PROCESSING: WHOLE MassLynx 4.1
PK$SPLASH: splash10-000i-0090100000-097bca168314699736ab
PK$NUM_PEAK: 6
PK$PEAK: m/z int. rel.int.
  85.0222 770.3 47
  129.0536 519.1 32
  287.0577 16110 999
  287.1465 2270 140
  288.0608 417.9 25
  433.1183 2495 154
//
