ACCESSION: MSBNK-RIKEN-PR303491
RECORD_TITLE: 7-Methylsulfenylheptyl isothiocyanate; LC-ESI-QTOF; MS2
DATE: 2019.03.28
AUTHORS: Tetsuya Mori, Center for Sustainable Resource Science, RIKEN
LICENSE: CC BY-NC-SA
PUBLICATION: Tsugawa H., Nakabayashi R., Mori T., Yamada Y., Takahashi M., Rai A., Sugiyama R., Yamamoto H., Nakaya T., Yamazaki M., Kooke R., Bac-Molenaar JA., Oztolan-Erol N., Keurentjes JJB., Arita M., Saito K. (2019) "A cheminformatics approach to characterize metabolomes in stable-isotope-labeled organisms" Nature Methods 16(4):295-298. [doi:10.1038/s41592-019-0358-2]
COMMENT: registered in RIKEN PlaSMA
CH$NAME: 7-Methylsulfenylheptyl isothiocyanate
CH$COMPOUND_CLASS: Isothiocyanates
CH$FORMULA: C9H17NS2
CH$EXACT_MASS: 203.372
CH$SMILES: CSCCCCCCCN=C=S
CH$IUPAC: InChI=1S/C9H17NS2/c1-12-8-6-4-2-3-5-7-10-9-11/h2-8H2,1H3
CH$LINK: INCHIKEY LDIRGNDMTOGVRB-UHFFFAOYSA-N
AC$INSTRUMENT: LC, Waters Acquity UPLC System; MS, Waters Xevo G2 Q-Tof
AC$INSTRUMENT_TYPE: LC-ESI-QTOF
AC$MASS_SPECTROMETRY: MS_TYPE MS2
AC$MASS_SPECTROMETRY: ION_MODE POSITIVE
AC$MASS_SPECTROMETRY: COLLISION_ENERGY 6V
AC$MASS_SPECTROMETRY: DESOLVATION_GAS_FLOW 800/h
AC$MASS_SPECTROMETRY: DESOLVATION_TEMPERATURE 450 C
AC$MASS_SPECTROMETRY: IONIZATION ESI
AC$CHROMATOGRAPHY: CAPILLARY_VOLTAGE +3.00 kV
AC$CHROMATOGRAPHY: COLUMN_NAME Acquity bridged ethyl hybrid C18 (1.7 um, 2.1 mm * 100 mm, Waters)
AC$CHROMATOGRAPHY: COLUMN_TEMPERATURE 40 C
AC$CHROMATOGRAPHY: FLOW_GRADIENT A/B = (99.5%/0.5% at 0 min, 99.5%/0.5% at 0.1 min, 20%/80% at 10 min, 0.5%/99.5% at 10.1 min, 0.5%/99.5% at 12.0 min, 99.5%/0.5% at 12.1 min, 99.5%/0.5% at 15.0 min)
AC$CHROMATOGRAPHY: FLOW_RATE 0.3 ml/min at 0 min, 0.3 ml/min at 10 min, 0.4 ml/min at 10.1 min, 0.4 ml/min at 14.4 min, 0.3 ml/min at 14.5 min
AC$CHROMATOGRAPHY: RETENTION_TIME 9.19045
AC$CHROMATOGRAPHY: SOLVENT A water including 0.1% formic acid
AC$CHROMATOGRAPHY: SOLVENT B acetonitrile including 0.1% formic acid
MS$FOCUSED_ION: PRECURSOR_TYPE [M+H]+
MS$FOCUSED_ION: PRECURSOR_M/Z 204.0875184
PK$SPLASH: splash10-0a4i-2910000000-3d7975ccee5dc2878c46
PK$NUM_PEAK: 38
PK$PEAK: m/z int. rel.int.
  55.05374 54.0 54
  61.00838 37.0 37
  63.02549 20.0 20
  69.06218 17.0 17
  69.06907 58.0 58
  75.0265 31.0 31
  78.58169 16.0 16
  83.07221 15.0 15
  84.08301 23.0 23
  94.06643 23.0 23
  95.08529 15.0 15
  97.10047 153.0 153
  100.01862 20.0 20
  105.24725 23.0 23
  108.08139 41.0 41
  114.03447 44.0 44
  123.10619 196.0 196
  128.04221 25.0 25
  129.07278 39.0 39
  131.08578 86.0 86
  132.07033 15.0 15
  143.37346 15.0 15
  145.10445 122.0 122
  145.4659 15.0 15
  146.10521 50.0 50
  151.65829 25.0 25
  156.08485 1000.0 999
  157.06834 17.0 17
  157.08607 15.0 15
  157.09462 22.0 22
  157.8806 23.0 23
  158.0625 20.0 20
  158.08308 44.0 44
  202.12633 104.0 104
  203.13448 21.0 21
  204.09181 161.0 161
  204.10434 29.0 29
  204.11945 33.0 33
//
