ACCESSION: MSBNK-RIKEN-PR301429
RECORD_TITLE: Papaverine; LC-ESI-QTOF; MS2
DATE: 2019.03.28
AUTHORS: Tetsuya Mori, Center for Sustainable Resource Science, RIKEN
LICENSE: CC BY-NC-SA
PUBLICATION: Tsugawa H., Nakabayashi R., Mori T., Yamada Y., Takahashi M., Rai A., Sugiyama R., Yamamoto H., Nakaya T., Yamazaki M., Kooke R., Bac-Molenaar JA., Oztolan-Erol N., Keurentjes JJB., Arita M., Saito K. (2019) "A cheminformatics approach to characterize metabolomes in stable-isotope-labeled organisms" Nature Methods 16(4):295-298. [doi:10.1038/s41592-019-0358-2]
COMMENT: registered in RIKEN PlaSMA
CH$NAME: Papaverine
CH$COMPOUND_CLASS: Benzylisoquinolines
CH$FORMULA: C20H21NO4
CH$EXACT_MASS: 339.391
CH$SMILES: COC1=C(OC)C=C(CC2=NC=CC3=CC(OC)=C(OC)C=C23)C=C1
CH$IUPAC: InChI=1S/C20H21NO4/c1-22-17-6-5-13(10-18(17)23-2)9-16-15-12-20(25-4)19(24-3)11-14(15)7-8-21-16/h5-8,10-12H,9H2,1-4H3
CH$LINK: INCHIKEY XQYZDYMELSJDRZ-UHFFFAOYSA-N
AC$INSTRUMENT: LC, Waters Acquity UPLC System; MS, Waters Xevo G2 Q-Tof
AC$INSTRUMENT_TYPE: LC-ESI-QTOF
AC$MASS_SPECTROMETRY: MS_TYPE MS2
AC$MASS_SPECTROMETRY: ION_MODE POSITIVE
AC$MASS_SPECTROMETRY: COLLISION_ENERGY 6V
AC$MASS_SPECTROMETRY: DESOLVATION_GAS_FLOW 800/h
AC$MASS_SPECTROMETRY: DESOLVATION_TEMPERATURE 450 C
AC$MASS_SPECTROMETRY: IONIZATION ESI
AC$CHROMATOGRAPHY: CAPILLARY_VOLTAGE +3.00 kV
AC$CHROMATOGRAPHY: COLUMN_NAME Acquity bridged ethyl hybrid C18 (1.7 um, 2.1 mm * 100 mm, Waters)
AC$CHROMATOGRAPHY: COLUMN_TEMPERATURE 40 C
AC$CHROMATOGRAPHY: FLOW_GRADIENT A/B = (99.5%/0.5% at 0 min, 99.5%/0.5% at 0.1 min, 20%/80% at 10 min, 0.5%/99.5% at 10.1 min, 0.5%/99.5% at 12.0 min, 99.5%/0.5% at 12.1 min, 99.5%/0.5% at 15.0 min)
AC$CHROMATOGRAPHY: FLOW_RATE 0.3 ml/min at 0 min, 0.3 ml/min at 10 min, 0.4 ml/min at 10.1 min, 0.4 ml/min at 14.4 min, 0.3 ml/min at 14.5 min
AC$CHROMATOGRAPHY: RETENTION_TIME 4.491683
AC$CHROMATOGRAPHY: SOLVENT A water including 0.1% formic acid
AC$CHROMATOGRAPHY: SOLVENT B acetonitrile including 0.1% formic acid
MS$FOCUSED_ION: PRECURSOR_TYPE [M+H]+
MS$FOCUSED_ION: PRECURSOR_M/Z 340.1543346
PK$SPLASH: splash10-0a4i-0951000000-ec26d42a946de1df0a3a
PK$NUM_PEAK: 300
PK$PEAK: m/z int. rel.int.
  68.28346 5.0 5
  77.03896 16.0 16
  91.05638 33.0 33
  95.05066 112.0 112
  100.54238 6.0 6
  102.04768 23.0 23
  103.04479 14.0 14
  103.05475 212.0 212
  104.04782 9.0 9
  104.05984 26.0 26
  104.06393 11.0 11
  107.05016 63.0 63
  108.05814 21.0 21
  114.04202 18.0 18
  114.04895 13.0 13
  115.04153 11.0 11
  115.05438 129.0 129
  116.04975 43.0 43
  116.06255 28.0 28
  117.05064 8.0 8
  117.05851 27.0 27
  117.06761 14.0 14
  118.03709 9.0 9
  118.06325 26.0 26
  118.07093 20.0 20
  119.04908 14.0 14
  119.07059 7.0 7
  121.06174 9.0 9
  121.06685 11.0 11
  123.044 107.0 107
  124.05044 7.0 7
  127.04554 39.0 39
  128.03555 36.0 36
  128.05051 426.0 426
  128.19817 6.0 6
  129.05571 135.0 135
  130.06441 245.0 245
  130.07863 12.0 12
  130.99292 7.0 7
  131.05017 321.0 321
  131.07582 54.0 54
  132.05185 44.0 44
  132.06532 10.0 10
  133.02847 41.0 41
  133.04729 5.0 5
  133.06725 10.0 10
  134.06354 6.0 6
  135.03743 23.0 23
  135.04561 23.0 23
  135.05269 9.0 9
  137.40916 8.0 8
  140.04214 34.0 34
  140.05101 129.0 129
  140.07664 6.0 6
  141.05487 80.0 80
  141.06581 12.0 12
  142.05464 17.0 17
  142.06531 109.0 109
  142.07455 28.0 28
  142.50548 7.0 7
  143.03831 7.0 7
  143.05244 20.0 20
  143.0759 29.0 29
  144.04367 88.0 88
  144.05078 46.0 46
  144.06583 7.0 7
  144.07375 10.0 10
  144.08699 7.0 7
  145.04022 6.0 6
  145.05249 48.0 48
  145.06311 64.0 64
  145.08453 8.0 8
  146.05635 13.0 13
  146.06406 36.0 36
  147.00821 6.0 6
  147.05257 11.0 11
  147.07483 7.0 7
  148.05334 46.0 46
  149.04912 6.0 6
  149.05702 9.0 9
  151.06592 10.0 10
  151.07376 26.0 26
  154.06815 13.0 13
  155.04007 10.0 10
  155.07146 11.0 11
  156.04478 576.0 575
  156.0681 7.0 7
  157.0289 12.0 12
  157.04701 77.0 77
  157.0546 67.0 67
  157.06934 5.0 5
  158.02837 13.0 13
  158.04498 20.0 20
  158.06052 550.0 549
  159.04178 42.0 42
  159.06627 187.0 187
  159.07329 49.0 49
  160.05075 32.0 32
  160.0675 32.0 32
  160.07512 37.0 37
  160.08633 5.0 5
  160.09935 6.0 6
  161.05113 7.0 7
  161.06255 17.0 17
  161.08113 11.0 11
  162.0567 9.0 9
  162.06636 7.0 7
  170.04527 19.0 19
  170.06213 123.0 123
  171.04384 26.0 26
  171.06863 1000.0 999
  171.10931 5.0 5
  172.0338 10.0 10
  172.0415 23.0 23
  172.0621 27.0 27
  172.07266 143.0 143
  172.0807 40.0 40
  173.04077 22.0 22
  173.07712 12.0 12
  174.05841 58.0 58
  174.06926 19.0 19
  174.09381 11.0 11
  174.16252 5.0 5
  175.05771 9.0 9
  175.06651 30.0 30
  175.07762 48.0 48
  175.09758 14.0 14
  175.83687 7.0 7
  176.07904 19.0 19
  179.07021 17.0 17
  180.07942 34.0 34
  181.08478 15.0 15
  181.09377 7.0 7
  182.09622 8.0 8
  183.07397 22.0 22
  184.07834 36.0 36
  185.97845 6.0 6
  186.0551 517.0 516
  187.06154 244.0 244
  188.06786 39.0 39
  189.08095 32.0 32
  190.08829 20.0 20
  191.07359 12.0 12
  192.0808 31.0 31
  193.06361 9.0 9
  193.0838 6.0 6
  194.06023 8.0 8
  194.08568 6.0 6
  194.09839 14.0 14
  195.08423 6.0 6
  195.1022 7.0 7
  196.06038 6.0 6
  196.07611 57.0 57
  197.07787 16.0 16
  197.08698 7.0 7
  198.05339 5.0 5
  198.08713 7.0 7
  198.09518 7.0 7
  202.0589 6.0 6
  202.08667 362.0 362
  202.1042 11.0 11
  203.09039 61.0 61
  204.07959 61.0 61
  204.09911 6.0 6
  205.06773 8.0 8
  205.08337 24.0 24
  205.09456 16.0 16
  206.09312 41.0 41
  207.07312 7.0 7
  207.09927 7.0 7
  208.07253 47.0 47
  208.08185 33.0 33
  208.11603 6.0 6
  209.08479 35.0 35
  209.09467 27.0 27
  210.08711 45.0 45
  210.09993 13.0 13
  211.06822 10.0 10
  211.09386 15.0 15
  212.06934 8.0 8
  216.07922 6.0 6
  217.07976 13.0 13
  218.10132 9.0 9
  218.1142 11.0 11
  219.07072 14.0 14
  219.10748 7.0 7
  220.07732 140.0 140
  221.06471 10.0 10
  221.08095 69.0 69
  221.09386 11.0 11
  222.05798 8.0 8
  222.09236 170.0 170
  223.06407 7.0 7
  223.08136 6.0 6
  223.09517 54.0 54
  223.10692 18.0 18
  224.06143 8.0 8
  224.07355 44.0 44
  224.08171 19.0 19
  224.10406 23.0 23
  224.12126 8.0 8
  225.07593 35.0 35
  225.08789 11.0 11
  227.08443 8.0 8
  232.06963 16.0 16
  232.08565 22.0 22
  233.08128 69.0 69
  233.12549 6.0 6
  234.08163 25.0 25
  234.09097 96.0 96
  234.10001 56.0 56
  235.06093 14.0 14
  235.08649 19.0 19
  235.09828 54.0 54
  235.1088 24.0 24
  236.0717 50.0 50
  236.10515 30.0 30
  237.06413 12.0 12
  237.08139 13.0 13
  237.12128 7.0 7
  238.07932 24.0 24
  238.09285 38.0 38
  239.09268 13.0 13
  239.84738 5.0 5
  240.10185 61.0 61
  241.07574 8.0 8
  241.09755 12.0 12
  241.11287 8.0 8
  247.09471 6.0 6
  248.07263 56.0 56
  248.10728 13.0 13
  249.06461 15.0 15
  249.07991 67.0 67
  250.06174 6.0 6
  250.0872 199.0 199
  251.09105 84.0 84
  252.10104 197.0 197
  253.0854 6.0 6
  253.10779 22.0 22
  253.11816 12.0 12
  254.09274 7.0 7
  255.10672 7.0 7
  255.72923 5.0 5
  261.07532 12.0 12
  261.09216 7.0 7
  262.06696 7.0 7
  262.08771 72.0 72
  263.08234 11.0 11
  263.09344 45.0 45
  263.10461 17.0 17
  264.08655 10.0 10
  264.10263 61.0 61
  265.07614 6.0 6
  265.11014 18.0 18
  266.07376 10.0 10
  266.08261 33.0 33
  266.11929 58.0 58
  266.48062 5.0 5
  267.08304 19.0 19
  268.1398 6.0 6
  278.07974 116.0 116
  278.09576 25.0 25
  278.12234 7.0 7
  279.08563 93.0 93
  280.07043 22.0 22
  280.09674 624.0 623
  280.12228 7.0 7
  281.0621 8.0 8
  281.07645 18.0 18
  281.10275 149.0 149
  282.10324 18.0 18
  282.11642 13.0 13
  288.06335 5.0 5
  290.06552 5.0 5
  290.08652 8.0 8
  292.08163 5.0 5
  292.10297 12.0 12
  293.10608 11.0 11
  294.09601 6.0 6
  294.11142 50.0 50
  295.1149 11.0 11
  296.12677 25.0 25
  297.13925 6.0 6
  306.07785 34.0 34
  306.10318 20.0 20
  308.06213 17.0 17
  308.09103 634.0 633
  308.10184 279.0 279
  309.08981 92.0 92
  309.10101 100.0 100
  310.09689 26.0 26
  322.11707 18.0 18
  323.11859 18.0 18
  324.10657 26.0 26
  324.12122 83.0 83
  324.13626 38.0 38
  325.09488 7.0 7
  325.11328 13.0 13
  325.13223 29.0 29
  340.16348 16.0 16
//
