ACCESSION: MSBNK-RIKEN-PR307288
RECORD_TITLE: [6]-Gingerol; LC-ESI-QTOF; MS2
DATE: 2019.03.28
AUTHORS: Tetsuya Mori, Center for Sustainable Resource Science, RIKEN
LICENSE: CC BY-NC-SA
PUBLICATION: Tsugawa H., Nakabayashi R., Mori T., Yamada Y., Takahashi M., Rai A., Sugiyama R., Yamamoto H., Nakaya T., Yamazaki M., Kooke R., Bac-Molenaar JA., Oztolan-Erol N., Keurentjes JJB., Arita M., Saito K. (2019) "A cheminformatics approach to characterize metabolomes in stable-isotope-labeled organisms" Nature Methods 16(4):295-298. [doi:10.1038/s41592-019-0358-2]
COMMENT: registered in RIKEN PlaSMA
CH$NAME: 6-Gingerol
CH$NAME: (5S)-5-Hydroxy-1-(4-hydroxy-3-methoxyphenyl)-3-decanone
CH$COMPOUND_CLASS: Gingerols
CH$FORMULA: C17H26O4
CH$EXACT_MASS: 294.18311
CH$SMILES: CCCCC[C@@H](CC(=O)CCC1=CC(=C(C=C1)O)OC)O
CH$IUPAC: InChI=1S/C17H26O4/c1-3-4-5-6-14(18)12-15(19)9-7-13-8-10-16(20)17(11-13)21-2/h8,10-11,14,18,20H,3-7,9,12H2,1-2H3/t14-/m0/s1
CH$LINK: CAS 23513-14-6
CH$LINK: COMPTOX DTXSID3041035
CH$LINK: INCHIKEY NLDDIKRKFXEWBK-AWEZNQCLSA-N
CH$LINK: NIKKAJI J46.683B
CH$LINK: PUBCHEM CID:442793
AC$INSTRUMENT: LC, Waters Acquity UPLC System; MS, Waters Xevo G2 Q-Tof
AC$INSTRUMENT_TYPE: LC-ESI-QTOF
AC$MASS_SPECTROMETRY: MS_TYPE MS2
AC$MASS_SPECTROMETRY: ION_MODE NEGATIVE
AC$MASS_SPECTROMETRY: COLLISION_ENERGY 6V
AC$MASS_SPECTROMETRY: DESOLVATION_GAS_FLOW 800/h
AC$MASS_SPECTROMETRY: DESOLVATION_TEMPERATURE 450 C
AC$MASS_SPECTROMETRY: IONIZATION ESI
AC$CHROMATOGRAPHY: CAPILLARY_VOLTAGE -2.75 kV
AC$CHROMATOGRAPHY: COLUMN_NAME Acquity bridged ethyl hybrid C18 (1.7 um, 2.1 mm * 100 mm, Waters)
AC$CHROMATOGRAPHY: COLUMN_TEMPERATURE 40 C
AC$CHROMATOGRAPHY: FLOW_GRADIENT A/B = (99.5%/0.5% at 0 min, 99.5%/0.5% at 0.1 min, 20%/80% at 10 min, 0.5%/99.5% at 10.1 min, 0.5%/99.5% at 12.0 min, 99.5%/0.5% at 12.1 min, 99.5%/0.5% at 15.0 min)
AC$CHROMATOGRAPHY: FLOW_RATE 0.3 ml/min at 0 min, 0.3 ml/min at 10 min, 0.4 ml/min at 10.1 min, 0.4 ml/min at 14.4 min, 0.3 ml/min at 14.5 min
AC$CHROMATOGRAPHY: RETENTION_TIME 7.4492
AC$CHROMATOGRAPHY: SOLVENT A water including 0.1% formic acid
AC$CHROMATOGRAPHY: SOLVENT B acetonitrile including 0.1% formic acid
MS$FOCUSED_ION: PRECURSOR_TYPE [M-H]-
MS$FOCUSED_ION: PRECURSOR_M/Z 293.17583284783
PK$SPLASH: splash10-0006-5390000000-0ebb3a518bb46eed767d
PK$NUM_PEAK: 11
PK$PEAK: m/z int. rel.int.
  57.03057 45.0 45
  91.00124 41.0 41
  99.07535 151.0 151
  99.08091 394.0 394
  178.05936 80.0 80
  193.08315 262.0 262
  193.09863 37.0 37
  275.15643 41.0 41
  291.11157 43.0 43
  292.129 49.0 49
  293.17514 1000.0 999
//
