ACCESSION: MSBNK-RIKEN-PR300099
RECORD_TITLE: Tabersonine; LC-ESI-QTOF; MS2
DATE: 2019.03.28
AUTHORS: Tetsuya Mori, Center for Sustainable Resource Science, RIKEN
LICENSE: CC BY-NC-SA
PUBLICATION: Tsugawa H., Nakabayashi R., Mori T., Yamada Y., Takahashi M., Rai A., Sugiyama R., Yamamoto H., Nakaya T., Yamazaki M., Kooke R., Bac-Molenaar JA., Oztolan-Erol N., Keurentjes JJB., Arita M., Saito K. (2019) "A cheminformatics approach to characterize metabolomes in stable-isotope-labeled organisms" Nature Methods 16(4):295-298. [doi:10.1038/s41592-019-0358-2]
COMMENT: registered in RIKEN PlaSMA
CH$NAME: Tabersonine
CH$COMPOUND_CLASS: Plumeran-type alkaloids
CH$FORMULA: C21H24N2O2
CH$EXACT_MASS: 336.435
CH$SMILES: CC[C@@]12CC(C(=O)OC)=C3NC4=CC=CC=C4[C@@]33CCN(CC=C1)[C@@H]23
CH$IUPAC: InChI=1S/C21H24N2O2/c1-3-20-9-6-11-23-12-10-21(19(20)23)15-7-4-5-8-16(15)22-17(21)14(13-20)18(24)25-2/h4-9,19,22H,3,10-13H2,1-2H3/t19-,20-,21-/m0/s1
CH$LINK: INCHIKEY FNGGIPWAZSFKCN-ACRUOGEOSA-N
AC$INSTRUMENT: LC, Waters Acquity UPLC System; MS, Waters Xevo G2 Q-Tof
AC$INSTRUMENT_TYPE: LC-ESI-QTOF
AC$MASS_SPECTROMETRY: MS_TYPE MS2
AC$MASS_SPECTROMETRY: ION_MODE POSITIVE
AC$MASS_SPECTROMETRY: COLLISION_ENERGY 6V
AC$MASS_SPECTROMETRY: DESOLVATION_GAS_FLOW 800/h
AC$MASS_SPECTROMETRY: DESOLVATION_TEMPERATURE 450 C
AC$MASS_SPECTROMETRY: IONIZATION ESI
AC$CHROMATOGRAPHY: CAPILLARY_VOLTAGE +3.00 kV
AC$CHROMATOGRAPHY: COLUMN_NAME Acquity bridged ethyl hybrid C18 (1.7 um, 2.1 mm * 100 mm, Waters)
AC$CHROMATOGRAPHY: COLUMN_TEMPERATURE 40 C
AC$CHROMATOGRAPHY: FLOW_GRADIENT A/B = (99.5%/0.5% at 0 min, 99.5%/0.5% at 0.1 min, 20%/80% at 10 min, 0.5%/99.5% at 10.1 min, 0.5%/99.5% at 12.0 min, 99.5%/0.5% at 12.1 min, 99.5%/0.5% at 15.0 min)
AC$CHROMATOGRAPHY: FLOW_RATE 0.3 ml/min at 0 min, 0.3 ml/min at 10 min, 0.4 ml/min at 10.1 min, 0.4 ml/min at 14.4 min, 0.3 ml/min at 14.5 min
AC$CHROMATOGRAPHY: RETENTION_TIME 5.19835
AC$CHROMATOGRAPHY: SOLVENT A water including 0.1% formic acid
AC$CHROMATOGRAPHY: SOLVENT B acetonitrile including 0.1% formic acid
MS$FOCUSED_ION: PRECURSOR_TYPE [M+H]+
MS$FOCUSED_ION: PRECURSOR_M/Z 337.1910545
PK$SPLASH: splash10-014i-0920000000-c2e542c87a54df7a008d
PK$NUM_PEAK: 238
PK$PEAK: m/z int. rel.int.
  53.03834 5.0 5
  65.03185 6.0 6
  67.04274 6.0 6
  67.05242 22.0 22
  68.05794 6.0 6
  74.44376 5.0 5
  77.03812 48.0 48
  78.03405 8.0 8
  79.05087 16.0 16
  79.06093 13.0 13
  80.04511 15.0 15
  80.05144 39.0 39
  81.06972 52.0 52
  91.05019 21.0 21
  91.05491 66.0 66
  92.04694 17.0 17
  93.05722 80.0 80
  93.06593 17.0 17
  93.07472 14.0 14
  94.06713 38.0 38
  95.06327 8.0 8
  95.07509 6.0 6
  95.08051 16.0 16
  95.08617 25.0 25
  105.06445 18.0 18
  105.07228 11.0 11
  106.06496 121.0 121
  106.84108 5.0 5
  107.06351 10.0 10
  107.07149 38.0 38
  107.07758 15.0 15
  108.07323 33.0 33
  108.07812 40.0 40
  108.08452 23.0 23
  109.08366 7.0 7
  110.10326 5.0 5
  114.25214 7.0 7
  115.04475 31.0 31
  115.05479 145.0 145
  116.04521 5.0 5
  116.05623 51.0 51
  117.04057 6.0 6
  117.0465 6.0 6
  117.05681 37.0 37
  118.0595 15.0 15
  118.06558 31.0 31
  118.07404 8.0 8
  119.07253 58.0 58
  120.07146 8.0 8
  120.0799 26.0 26
  120.08583 28.0 28
  120.09399 7.0 7
  121.07829 7.0 7
  121.08521 23.0 23
  121.09364 7.0 7
  122.08444 5.0 5
  122.09628 19.0 19
  127.05282 55.0 55
  128.03204 5.0 5
  128.05034 49.0 49
  128.05826 66.0 66
  128.06639 62.0 62
  129.04845 6.0 6
  129.06816 224.0 224
  130.05196 12.0 12
  130.06613 194.0 194
  131.06657 30.0 30
  131.07428 20.0 20
  132.08081 82.0 82
  132.09088 11.0 11
  133.08267 7.0 7
  133.09024 6.0 6
  134.09613 104.0 104
  136.10739 30.0 30
  136.11525 11.0 11
  137.11626 13.0 13
  138.59229 13.0 13
  140.04831 10.0 10
  140.06001 8.0 8
  140.06784 9.0 9
  141.06999 198.0 198
  142.0426 6.0 6
  142.05824 20.0 20
  142.06699 107.0 107
  143.0683 52.0 52
  143.07617 84.0 84
  143.08771 23.0 23
  143.8239 6.0 6
  144.04387 9.0 9
  144.05302 5.0 5
  144.08153 157.0 157
  145.08633 8.0 8
  146.09106 10.0 10
  146.10359 14.0 14
  146.44757 6.0 6
  147.09987 8.0 8
  151.04901 7.0 7
  151.05634 21.0 21
  152.06047 13.0 13
  153.05588 50.0 50
  153.07269 13.0 13
  154.06544 317.0 317
  155.02812 8.0 8
  155.07153 173.0 173
  156.04173 6.0 6
  156.07927 171.0 171
  157.08319 53.0 53
  157.09656 7.0 7
  158.08842 19.0 19
  160.06839 7.0 7
  160.07448 15.0 15
  160.10313 6.0 6
  162.09563 8.0 8
  165.05106 5.0 5
  165.73604 6.0 6
  166.0643 60.0 60
  167.07253 1000.0 999
  167.35139 7.0 7
  168.05876 14.0 14
  168.07928 936.0 935
  169.07129 21.0 21
  169.08127 102.0 102
  169.0905 43.0 43
  170.04472 8.0 8
  170.05635 6.0 6
  170.06548 39.0 39
  170.09167 99.0 99
  170.10445 22.0 22
  171.0853 11.0 11
  171.09789 38.0 38
  171.10696 5.0 5
  174.09294 7.0 7
  178.06874 6.0 6
  179.09267 10.0 10
  180.07791 59.0 59
  181.05122 26.0 26
  181.06851 6.0 6
  181.07634 18.0 18
  182.05383 27.0 27
  182.07603 11.0 11
  182.10121 7.0 7
  183.07271 5.0 5
  183.09462 7.0 7
  184.07887 12.0 12
  186.12149 5.0 5
  191.07277 30.0 30
  192.08403 9.0 9
  193.08745 21.0 21
  194.09142 12.0 12
  194.09921 15.0 15
  195.08142 11.0 11
  195.09233 17.0 17
  196.0778 27.0 27
  202.09317 5.0 5
  204.05984 16.0 16
  204.08096 49.0 49
  204.10608 8.0 8
  205.07283 7.0 7
  205.08836 34.0 34
  206.07523 12.0 12
  206.09128 78.0 78
  206.10684 15.0 15
  206.11609 7.0 7
  207.09891 46.0 46
  208.06168 5.0 5
  208.08983 17.0 17
  208.1086 17.0 17
  209.06848 6.0 6
  213.07826 5.0 5
  216.07397 10.0 10
  217.07506 16.0 16
  217.09436 14.0 14
  218.09248 52.0 52
  218.1093 9.0 9
  219.08376 62.0 62
  219.09709 86.0 86
  220.07744 10.0 10
  220.0912 26.0 26
  220.10854 40.0 40
  221.09961 10.0 10
  230.08022 9.0 9
  230.10219 29.0 29
  231.08574 20.0 20
  231.10365 34.0 34
  232.07983 7.0 7
  232.10272 77.0 77
  232.11699 9.0 9
  233.06602 7.0 7
  233.0799 14.0 14
  233.10063 57.0 57
  233.1116 104.0 104
  234.06523 5.0 5
  234.09915 20.0 20
  234.10837 22.0 22
  234.12068 22.0 22
  234.13625 10.0 10
  235.10454 7.0 7
  235.12314 26.0 26
  235.14059 6.0 6
  236.12767 5.0 5
  236.14066 9.0 9
  237.12433 6.0 6
  243.0856 6.0 6
  244.09183 10.0 10
  244.10443 13.0 13
  245.09996 25.0 25
  245.11623 38.0 38
  246.09471 9.0 9
  246.11095 37.0 37
  246.11784 20.0 20
  247.09694 14.0 14
  247.12122 100.0 100
  248.09824 17.0 17
  248.13272 35.0 35
  249.13255 35.0 35
  249.1432 19.0 19
  250.13997 15.0 15
  251.15758 5.0 5
  256.10355 11.0 11
  257.10037 7.0 7
  257.10858 18.0 18
  258.11743 10.0 10
  259.11765 13.0 13
  261.14069 5.0 5
  262.14249 10.0 10
  270.1257 7.0 7
  271.13031 6.0 6
  273.10324 14.0 14
  274.15112 5.0 5
  275.11591 23.0 23
  275.1593 5.0 5
  276.11502 10.0 10
  276.13107 15.0 15
  276.14203 6.0 6
  277.16403 7.0 7
  289.11823 6.0 6
  319.30371 6.0 6
  332.59503 10.0 10
//
