ACCESSION: MSBNK-RIKEN-PR301859
RECORD_TITLE: Chrysanthellin B; LC-ESI-QTOF; MS2
DATE: 2019.03.28
AUTHORS: Tetsuya Mori, Center for Sustainable Resource Science, RIKEN
LICENSE: CC BY-NC-SA
PUBLICATION: Tsugawa H., Nakabayashi R., Mori T., Yamada Y., Takahashi M., Rai A., Sugiyama R., Yamamoto H., Nakaya T., Yamazaki M., Kooke R., Bac-Molenaar JA., Oztolan-Erol N., Keurentjes JJB., Arita M., Saito K. (2019) "A cheminformatics approach to characterize metabolomes in stable-isotope-labeled organisms" Nature Methods 16(4):295-298. [doi:10.1038/s41592-019-0358-2]
COMMENT: registered in RIKEN PlaSMA
CH$NAME: Chrysanthellin B
CH$COMPOUND_CLASS: Triterpene saponins
CH$FORMULA: C58H94O26
CH$EXACT_MASS: 1207.364
CH$SMILES: CC1OC(OC2C(O)COC(OC3C(C)OC(OC4C(O)C(O)COC4OC(=O)C45CCC(C)(C)CC4C4=CCC6C7(C)CCC(OC8OC(CO)C(O)C(O)C8O)C(C)(CO)C7CCC6(C)C4(C)CC5O)C(O)C3O)C2O)C(O)C(O)C1O
CH$IUPAC: InChI=1S/C58H94O26/c1-23-34(64)37(67)40(70)48(77-23)82-45-28(62)21-75-47(43(45)73)81-44-24(2)78-49(42(72)39(44)69)83-46-35(65)27(61)20-76-51(46)84-52(74)58-16-15-53(3,4)17-26(58)25-9-10-31-54(5)13-12-33(80-50-41(71)38(68)36(66)29(19-59)79-50)55(6,22-60)30(54)11-14-56(31,7)57(25,8)18-32(58)63/h9,23-24,26-51,59-73H,10-22H2,1-8H3
CH$LINK: INCHIKEY WNGIVKPPGCCJNP-UHFFFAOYSA-N
AC$INSTRUMENT: LC, Waters Acquity UPLC System; MS, Waters Xevo G2 Q-Tof
AC$INSTRUMENT_TYPE: LC-ESI-QTOF
AC$MASS_SPECTROMETRY: MS_TYPE MS2
AC$MASS_SPECTROMETRY: ION_MODE POSITIVE
AC$MASS_SPECTROMETRY: COLLISION_ENERGY 6V
AC$MASS_SPECTROMETRY: DESOLVATION_GAS_FLOW 800/h
AC$MASS_SPECTROMETRY: DESOLVATION_TEMPERATURE 450 C
AC$MASS_SPECTROMETRY: IONIZATION ESI
AC$CHROMATOGRAPHY: CAPILLARY_VOLTAGE +3.00 kV
AC$CHROMATOGRAPHY: COLUMN_NAME Acquity bridged ethyl hybrid C18 (1.7 um, 2.1 mm * 100 mm, Waters)
AC$CHROMATOGRAPHY: COLUMN_TEMPERATURE 40 C
AC$CHROMATOGRAPHY: FLOW_GRADIENT A/B = (99.5%/0.5% at 0 min, 99.5%/0.5% at 0.1 min, 20%/80% at 10 min, 0.5%/99.5% at 10.1 min, 0.5%/99.5% at 12.0 min, 99.5%/0.5% at 12.1 min, 99.5%/0.5% at 15.0 min)
AC$CHROMATOGRAPHY: FLOW_RATE 0.3 ml/min at 0 min, 0.3 ml/min at 10 min, 0.4 ml/min at 10.1 min, 0.4 ml/min at 14.4 min, 0.3 ml/min at 14.5 min
AC$CHROMATOGRAPHY: RETENTION_TIME 5.791234
AC$CHROMATOGRAPHY: SOLVENT A water including 0.1% formic acid
AC$CHROMATOGRAPHY: SOLVENT B acetonitrile including 0.1% formic acid
MS$FOCUSED_ION: PRECURSOR_TYPE [M+H]+
MS$FOCUSED_ION: PRECURSOR_M/Z 1207.61061
PK$SPLASH: splash10-0fki-0031915300-a1a09945eb0372d8426b
PK$NUM_PEAK: 353
PK$PEAK: m/z int. rel.int.
  97.01413 10.0 10
  105.06728 11.0 11
  111.04015 25.0 25
  111.04819 20.0 20
  115.03744 25.0 25
  131.24423 11.0 11
  135.06599 11.0 11
  144.21693 31.0 31
  145.02626 11.0 11
  147.01686 10.0 10
  147.06345 11.0 11
  149.13576 12.0 12
  163.06085 12.0 12
  165.07222 40.0 40
  166.05612 24.0 24
  178.18068 15.0 15
  179.06677 12.0 12
  187.15068 16.0 16
  188.82973 11.0 11
  189.69969 10.0 10
  190.16499 24.0 24
  191.17082 10.0 10
  193.04558 10.0 10
  195.13535 10.0 10
  201.16766 11.0 11
  203.14774 24.0 24
  205.15665 48.0 48
  207.16162 17.0 17
  207.17564 54.0 54
  219.20102 18.0 18
  223.17839 13.0 13
  225.07957 86.0 86
  225.11087 14.0 14
  229.08047 13.0 13
  236.20811 15.0 15
  237.08014 10.0 10
  238.07356 10.0 10
  239.07648 11.0 11
  239.09167 44.0 44
  241.05742 12.0 12
  243.09018 50.0 50
  247.16975 20.0 20
  248.16841 14.0 14
  249.14592 10.0 10
  250.15038 20.0 20
  255.0856 26.0 26
  257.10333 95.0 95
  257.22293 12.0 12
  258.10556 25.0 25
  259.07834 10.0 10
  260.08792 25.0 25
  261.09448 25.0 25
  263.46121 20.0 20
  266.09125 10.0 10
  266.42853 10.0 10
  273.08636 37.0 37
  273.09665 35.0 35
  273.35019 10.0 10
  275.10596 12.0 12
  277.1196 11.0 11
  279.09518 128.0 128
  279.10617 202.0 202
  280.11017 62.0 62
  280.13104 10.0 10
  281.11185 20.0 20
  287.19547 11.0 11
  287.20663 10.0 10
  293.08261 18.0 18
  293.12622 364.0 364
  293.14258 20.0 20
  294.12149 33.0 33
  294.13776 36.0 36
  295.11185 25.0 25
  296.11441 10.0 10
  297.11182 10.0 10
  297.19345 16.0 16
  303.93436 11.0 11
  309.12045 291.0 291
  310.10211 12.0 12
  310.12198 31.0 31
  310.86066 14.0 14
  312.13596 13.0 13
  313.17065 12.0 12
  315.54407 12.0 12
  321.09692 16.0 16
  322.11325 10.0 10
  323.2377 10.0 10
  327.13443 10.0 10
  333.12607 12.0 12
  334.12408 12.0 12
  338.45276 10.0 10
  338.92749 12.0 12
  339.11349 12.0 12
  342.98129 10.0 10
  345.24625 11.0 11
  349.28708 12.0 12
  353.15778 20.0 20
  357.11151 11.0 11
  357.13858 11.0 11
  360.61145 14.0 14
  363.08481 11.0 11
  371.117 10.0 10
  388.29739 12.0 12
  389.14389 69.0 69
  389.31238 20.0 20
  390.14874 20.0 20
  390.32874 14.0 14
  391.34277 22.0 22
  393.34601 12.0 12
  395.2655 11.0 11
  396.31241 14.0 14
  401.15134 11.0 11
  402.13376 20.0 20
  405.1257 13.0 13
  405.14618 11.0 11
  406.15311 11.0 11
  407.14905 37.0 37
  407.27368 21.0 21
  407.31403 56.0 56
  407.33496 67.0 67
  408.15836 10.0 10
  408.33295 11.0 11
  408.3486 10.0 10
  409.34058 69.0 69
  409.36386 22.0 22
  410.3446 34.0 34
  411.12494 11.0 11
  411.1394 11.0 11
  411.15305 10.0 10
  413.28836 10.0 10
  413.30475 13.0 13
  413.33438 13.0 13
  414.31238 46.0 46
  415.91714 11.0 11
  416.46021 13.0 13
  417.32932 10.0 10
  419.13818 11.0 11
  419.16223 24.0 24
  420.13443 14.0 14
  421.33527 11.0 11
  423.31186 15.0 15
  425.16049 95.0 95
  425.18024 52.0 52
  425.32446 76.0 76
  425.34665 25.0 25
  425.36856 11.0 11
  426.17899 11.0 11
  426.33618 16.0 16
  426.35696 20.0 20
  427.0838 11.0 11
  428.3703 14.0 14
  430.50327 11.0 11
  435.32657 102.0 102
  436.19873 12.0 12
  436.3139 14.0 14
  436.33267 25.0 25
  438.33594 12.0 12
  438.35504 10.0 10
  441.15375 38.0 38
  441.34216 13.0 13
  442.16379 10.0 10
  443.35202 12.0 12
  444.36926 10.0 10
  453.25214 27.0 27
  453.30109 24.0 24
  453.33881 712.0 711
  454.09195 13.0 13
  454.18454 10.0 10
  454.32269 110.0 110
  454.33975 189.0 189
  454.35431 109.0 109
  455.15399 33.0 33
  455.18176 37.0 37
  455.33557 37.0 37
  455.35434 10.0 10
  456.08405 19.0 19
  456.17532 10.0 10
  456.35034 24.0 24
  456.36777 12.0 12
  457.15927 11.0 11
  457.18945 25.0 25
  463.36694 10.0 10
  466.38007 13.0 13
  466.7337 11.0 11
  469.32889 11.0 11
  469.54071 10.0 10
  471.24948 12.0 12
  471.31274 37.0 37
  471.34454 1000.0 999
  471.39075 18.0 18
  472.30713 10.0 10
  472.33313 116.0 116
  472.35272 268.0 268
  472.40042 12.0 12
  472.48871 17.0 17
  473.33752 33.0 33
  473.35895 53.0 53
  487.31796 10.0 10
  487.33215 15.0 15
  489.34402 77.0 77
  489.36597 78.0 78
  489.38904 26.0 26
  490.29938 12.0 12
  490.34662 39.0 39
  491.35782 12.0 12
  497.20599 14.0 14
  512.50848 11.0 11
  515.19769 10.0 10
  515.29974 13.0 13
  516.18256 11.0 11
  521.17944 19.0 19
  522.35193 17.0 17
  535.37384 24.0 24
  543.31995 11.0 11
  549.34619 11.0 11
  551.19849 11.0 11
  554.43073 11.0 11
  556.38977 11.0 11
  556.61084 14.0 14
  558.37775 11.0 11
  561.37091 12.0 12
  563.37726 51.0 51
  564.38617 11.0 11
  567.36603 24.0 24
  568.37561 11.0 11
  569.3302 22.0 22
  571.39343 10.0 10
  573.40948 11.0 11
  581.30792 11.0 11
  581.38312 95.0 95
  582.38477 68.0 68
  583.40466 14.0 14
  585.36615 13.0 13
  585.38928 10.0 10
  586.37042 12.0 12
  587.24243 10.0 10
  588.35864 13.0 13
  588.44324 13.0 13
  589.21753 11.0 11
  599.3996 280.0 280
  599.46423 13.0 13
  599.76489 10.0 10
  600.38507 34.0 34
  600.40649 131.0 131
  601.38147 24.0 24
  603.39703 11.0 11
  606.26703 13.0 13
  615.39716 13.0 13
  616.41803 11.0 11
  617.33954 15.0 15
  617.40125 265.0 265
  618.38513 80.0 80
  618.40894 123.0 123
  619.30792 12.0 12
  619.38184 15.0 15
  619.39905 18.0 18
  619.42163 14.0 14
  621.38892 17.0 17
  621.41547 36.0 36
  622.42371 33.0 33
  624.39868 12.0 12
  627.4007 14.0 14
  629.37506 17.0 17
  633.34729 10.0 10
  633.38745 51.0 51
  633.41046 77.0 77
  634.30499 12.0 12
  634.41132 22.0 22
  635.40704 412.0 412
  635.43243 228.0 228
  636.30164 22.0 22
  636.35492 27.0 27
  636.39789 67.0 67
  636.42523 261.0 261
  637.40588 47.0 47
  637.4325 55.0 55
  638.39386 11.0 11
  641.20435 28.0 28
  650.68512 10.0 10
  651.3219 12.0 12
  651.34296 10.0 10
  651.36902 22.0 22
  651.41956 180.0 180
  652.41357 99.0 99
  653.38904 12.0 12
  653.44562 11.0 11
  677.40894 11.0 11
  679.41626 14.0 14
  682.67255 17.0 17
  692.40234 10.0 10
  693.38513 20.0 20
  710.43243 10.0 10
  713.46429 11.0 11
  720.92377 12.0 12
  722.43781 15.0 15
  727.40784 10.0 10
  727.44098 10.0 10
  728.46356 11.0 11
  729.42365 14.0 14
  733.38324 12.0 12
  737.49255 10.0 10
  743.44531 48.0 48
  745.39069 12.0 12
  745.42957 20.0 20
  745.4599 42.0 42
  746.44983 12.0 12
  746.47601 22.0 22
  747.45081 10.0 10
  749.44849 32.0 32
  761.4375 14.0 14
  763.46906 48.0 48
  764.45148 11.0 11
  764.47552 10.0 10
  765.427 12.0 12
  767.38916 12.0 12
  767.45203 52.0 52
  768.48883 15.0 15
  769.43982 10.0 10
  779.45172 69.0 69
  779.56519 11.0 11
  780.46179 49.0 49
  781.41125 22.0 22
  781.46686 201.0 201
  782.48792 177.0 177
  783.48352 20.0 20
  783.52386 11.0 11
  784.47595 56.0 56
  797.36511 12.0 12
  797.43854 43.0 43
  797.45825 98.0 98
  797.4892 87.0 87
  798.48358 140.0 140
  798.97449 11.0 11
  799.42981 24.0 24
  799.48553 12.0 12
  799.73718 12.0 12
  829.56885 10.0 10
  877.49066 14.0 14
  881.53406 14.0 14
  890.15778 16.0 16
  899.48639 10.0 10
  911.51251 10.0 10
  913.4715 10.0 10
  913.5401 14.0 14
  915.47235 11.0 11
  930.53839 18.0 18
  931.47961 12.0 12
  943.50238 36.0 36
  943.55481 11.0 11
  944.5343 12.0 12
  1023.78302 21.0 21
  1077.59241 10.0 10
  1092.77466 11.0 11
//
