ACCESSION: MSBNK-RIKEN-PR100315
RECORD_TITLE: L-allo-Threonine; LC-ESI-QTOF; MS2; CE:Ramp 5-60 V; [M+H]+
DATE: 2016.01.19 (Created 2009.09.10, modified 2011.05.06)
AUTHORS: Matsuda F, Suzuki M, Sawada Y, Plant Science Center, RIKEN.
LICENSE: CC BY-SA
COMMENT: Acquisition and generation of the data is financially supported in part by CREST/JST.
CH$NAME: L-allo-Threonine
CH$NAME: allo-Thr
CH$NAME: L-Allothreonine
CH$NAME: (2S,3S)-2-Amino-3-hydroxybutyric Acid
CH$COMPOUND_CLASS: Amino acids
CH$FORMULA: C4H9NO3
CH$EXACT_MASS: 119.05824
CH$SMILES: C[C@@H]([C@@H](C(=O)O)N)O
CH$IUPAC: InChI=1S/C4H9NO3/c1-2(6)3(5)4(7)8/h2-3,6H,5H2,1H3,(H,7,8)/t2-,3-/m0/s1
CH$LINK: CAS 28954-12-3
CH$LINK: CHEMSPIDER 89699
CH$LINK: KAPPAVIEW KPC00668
CH$LINK: KEGG C05519
CH$LINK: PUBCHEM CID:99289
CH$LINK: INCHIKEY AYFVYJQAPQTCCC-HRFVKAFMSA-N
CH$LINK: COMPTOX DTXSID10183151
AC$INSTRUMENT: UPLC Q-Tof Premier, Waters
AC$INSTRUMENT_TYPE: LC-ESI-QTOF
AC$MASS_SPECTROMETRY: MS_TYPE MS2
AC$MASS_SPECTROMETRY: ION_MODE POSITIVE
AC$MASS_SPECTROMETRY: COLLISION_ENERGY Ramp 5-60 V
AC$MASS_SPECTROMETRY: DATAFORMAT Continuum
AC$MASS_SPECTROMETRY: DESOLVATION_GAS_FLOW 600.0 L/Hr
AC$MASS_SPECTROMETRY: DESOLVATION_TEMPERATURE 400 C
AC$MASS_SPECTROMETRY: FRAGMENTATION_MODE LOW-ENERGY CID
AC$MASS_SPECTROMETRY: IONIZATION ESI
AC$MASS_SPECTROMETRY: SOURCE_TEMPERATURE 120 C
AC$CHROMATOGRAPHY: CAPILLARY_VOLTAGE 3.0 kV
AC$CHROMATOGRAPHY: SAMPLING_CONE 23.0 V
AC$CHROMATOGRAPHY: SOLVENT A CH3CN(0.1%HCOOH)
AC$CHROMATOGRAPHY: SOLVENT B H2O(0.1%HCOOH)
MS$FOCUSED_ION: PRECURSOR_M/Z 120.06604
MS$FOCUSED_ION: PRECURSOR_TYPE [M+H]+
PK$SPLASH: splash10-0fk9-9700000000-af60cc91d30ce48f55f0
PK$NUM_PEAK: 5
PK$PEAK: m/z int. rel.int.
  56.0505 38.57 216
  74.0604 169.6 950
  84.0442 89.26 500
  102.0545 178.3 999
  120.0660 56.35 316
//
