ACCESSION: MSBNK-RIKEN-PR100330
RECORD_TITLE: 3,5-Dimethoxycinnamic acid; LC-ESI-QTOF; MS2; CE:Ramp 5-60 V; [M+H]+
DATE: 2016.01.19 (Created 2009.09.10, modified 2011.05.06)
AUTHORS: Matsuda F, Suzuki M, Sawada Y, Plant Science Center, RIKEN.
LICENSE: CC BY-SA
COMMENT: Acquisition and generation of the data is financially supported in part by CREST/JST.
CH$NAME: 3,5-Dimethoxycinnamic acid
CH$NAME: 3,5-Dimethoxyphenyl-2-propenoic acid
CH$NAME: 3,5-Dimethoxycinnamic acid (predominantly trans)
CH$COMPOUND_CLASS: Carboxylic acids
CH$FORMULA: C11H12O4
CH$EXACT_MASS: 208.07356
CH$SMILES: COc(c1)cc(C=CC(O)=O)cc(OC)1
CH$IUPAC: InChI=1S/C11H12O4/c1-14-9-5-8(3-4-11(12)13)6-10(7-9)15-2/h3-7H,1-2H3,(H,12,13)
CH$LINK: CAS 16909-11-8
CH$LINK: CHEMSPIDER 4482195
CH$LINK: PUBCHEM CID:5324677
CH$LINK: INCHIKEY VLSRUFWCGBMYDJ-UHFFFAOYSA-N
CH$LINK: COMPTOX DTXSID20937586
AC$INSTRUMENT: UPLC Q-Tof Premier, Waters
AC$INSTRUMENT_TYPE: LC-ESI-QTOF
AC$MASS_SPECTROMETRY: MS_TYPE MS2
AC$MASS_SPECTROMETRY: ION_MODE POSITIVE
AC$MASS_SPECTROMETRY: COLLISION_ENERGY Ramp 5-60 V
AC$MASS_SPECTROMETRY: DATAFORMAT Continuum
AC$MASS_SPECTROMETRY: DESOLVATION_GAS_FLOW 600.0 L/Hr
AC$MASS_SPECTROMETRY: DESOLVATION_TEMPERATURE 400 C
AC$MASS_SPECTROMETRY: FRAGMENTATION_METHOD LOW-ENERGY CID
AC$MASS_SPECTROMETRY: IONIZATION ESI
AC$MASS_SPECTROMETRY: SOURCE_TEMPERATURE 120 C
AC$CHROMATOGRAPHY: CAPILLARY_VOLTAGE 3.0 kV
AC$CHROMATOGRAPHY: SAMPLING_CONE 23.0 V
AC$CHROMATOGRAPHY: SOLVENT A CH3CN(0.1%HCOOH)
AC$CHROMATOGRAPHY: SOLVENT B H2O(0.1%HCOOH)
MS$FOCUSED_ION: PRECURSOR_M/Z 209.08136
MS$FOCUSED_ION: PRECURSOR_TYPE [M+H]+
PK$SPLASH: splash10-01oy-3910000000-3c0c89f3676a81960ca9
PK$NUM_PEAK: 12
PK$PEAK: m/z int. rel.int.
  90.5288 5.895 210
  99.5369 28.08 999
  100.5356 14.4 512
  111.0466 22.94 816
  112.0438 8.005 285
  117.0258 4.574 163
  135.0419 3.546 126
  135.9047 4.526 161
  138.0024 3.846 137
  191.0589 10.8 384
  193.0328 19.14 681
  209.0814 10.61 377
//
