ACCESSION: MSBNK-RIKEN-PR300418
RECORD_TITLE: Lycoctonine; LC-ESI-QTOF; MS2
DATE: 2019.03.28
AUTHORS: Tetsuya Mori, Center for Sustainable Resource Science, RIKEN
LICENSE: CC BY-NC-SA
PUBLICATION: Tsugawa H., Nakabayashi R., Mori T., Yamada Y., Takahashi M., Rai A., Sugiyama R., Yamamoto H., Nakaya T., Yamazaki M., Kooke R., Bac-Molenaar JA., Oztolan-Erol N., Keurentjes JJB., Arita M., Saito K. (2019) "A cheminformatics approach to characterize metabolomes in stable-isotope-labeled organisms" Nature Methods 16(4):295-298. [doi:10.1038/s41592-019-0358-2]
COMMENT: registered in RIKEN PlaSMA
CH$NAME: Lycoctonine
CH$COMPOUND_CLASS: Aconitane-type diterpenoid alkaloids
CH$FORMULA: C25H41NO7
CH$EXACT_MASS: 467.603
CH$SMILES: CCN1C[C@]2(CO)CC[C@H](OC)[C@@]34[C@@H]5C[C@H]6[C@H](OC)[C@@H]5[C@](O)(C[C@@H]6OC)[C@@](O)([C@@H](OC)[C@H]23)C14
CH$IUPAC: InChI=1S/C25H41NO7/c1-6-26-11-22(12-27)8-7-16(31-3)24-14-9-13-15(30-2)10-23(28,17(14)18(13)32-4)25(29,21(24)26)20(33-5)19(22)24/h13-21,27-29H,6-12H2,1-5H3/t13-,14-,15+,16+,17-,18+,19-,20+,21?,22+,23-,24+,25-/m1/s1
CH$LINK: INCHIKEY YOTUXHIWBVZAJQ-YAEAOFIFSA-N
AC$INSTRUMENT: LC, Waters Acquity UPLC System; MS, Waters Xevo G2 Q-Tof
AC$INSTRUMENT_TYPE: LC-ESI-QTOF
AC$MASS_SPECTROMETRY: MS_TYPE MS2
AC$MASS_SPECTROMETRY: ION_MODE POSITIVE
AC$MASS_SPECTROMETRY: COLLISION_ENERGY 6V
AC$MASS_SPECTROMETRY: DESOLVATION_GAS_FLOW 800/h
AC$MASS_SPECTROMETRY: DESOLVATION_TEMPERATURE 450 C
AC$MASS_SPECTROMETRY: IONIZATION ESI
AC$CHROMATOGRAPHY: CAPILLARY_VOLTAGE +3.00 kV
AC$CHROMATOGRAPHY: COLUMN_NAME Acquity bridged ethyl hybrid C18 (1.7 um, 2.1 mm * 100 mm, Waters)
AC$CHROMATOGRAPHY: COLUMN_TEMPERATURE 40 C
AC$CHROMATOGRAPHY: FLOW_GRADIENT A/B = (99.5%/0.5% at 0 min, 99.5%/0.5% at 0.1 min, 20%/80% at 10 min, 0.5%/99.5% at 10.1 min, 0.5%/99.5% at 12.0 min, 99.5%/0.5% at 12.1 min, 99.5%/0.5% at 15.0 min)
AC$CHROMATOGRAPHY: FLOW_RATE 0.3 ml/min at 0 min, 0.3 ml/min at 10 min, 0.4 ml/min at 10.1 min, 0.4 ml/min at 14.4 min, 0.3 ml/min at 14.5 min
AC$CHROMATOGRAPHY: RETENTION_TIME 3.674817
AC$CHROMATOGRAPHY: SOLVENT A water including 0.1% formic acid
AC$CHROMATOGRAPHY: SOLVENT B acetonitrile including 0.1% formic acid
MS$FOCUSED_ION: PRECURSOR_TYPE [M+H]+
MS$FOCUSED_ION: PRECURSOR_M/Z 468.2955791
PK$SPLASH: splash10-0a6u-1941000000-de8d31a9434030799f09
PK$NUM_PEAK: 963
PK$PEAK: m/z int. rel.int.
  55.02092 5.0 5
  55.02681 6.0 6
  55.8961 5.0 5
  56.05298 27.0 27
  58.06475 22.0 22
  58.07223 8.0 8
  67.05648 15.0 15
  68.04361 9.0 9
  68.05295 6.0 6
  70.02683 5.0 5
  70.06715 6.0 6
  71.02619 5.0 5
  71.05009 115.0 115
  71.0769 6.0 6
  72.03666 6.0 6
  72.08111 58.0 58
  75.03059 6.0 6
  75.04566 247.0 247
  77.03613 6.0 6
  77.03922 12.0 12
  79.05543 53.0 53
  80.04922 17.0 17
  81.03316 16.0 16
  81.06819 24.0 24
  81.07309 13.0 13
  82.04148 5.0 5
  82.05652 7.0 7
  82.0661 41.0 41
  82.07609 7.0 7
  83.04958 23.0 23
  84.08189 124.0 124
  85.02328 18.0 18
  85.0338 60.0 60
  85.06479 11.0 11
  85.07011 6.0 6
  85.36807 6.0 6
  86.03084 6.0 6
  86.06148 33.0 33
  87.04539 49.0 49
  88.05201 14.0 14
  88.07471 20.0 20
  89.06152 5.0 5
  91.03159 6.0 6
  91.05516 233.0 233
  92.05611 18.0 18
  93.03818 5.0 5
  93.07013 49.0 49
  94.06714 27.0 27
  95.04819 25.0 25
  95.07458 9.0 9
  95.08312 6.0 6
  95.08773 15.0 15
  96.05087 8.0 8
  96.05637 7.0 7
  96.08156 486.0 486
  96.20594 6.0 6
  97.05162 5.0 5
  97.0652 32.0 32
  97.08298 21.0 21
  98.06138 15.0 15
  98.09649 52.0 52
  98.10648 11.0 11
  99.10278 5.0 5
  100.07701 7.0 7
  100.11071 9.0 9
  101.05956 17.0 17
  102.08585 9.0 9
  102.09278 12.0 12
  103.05389 31.0 31
  105.03704 10.0 10
  105.04487 6.0 6
  105.07079 80.0 80
  105.69504 8.0 8
  106.06621 20.0 20
  106.07806 7.0 7
  107.02369 5.0 5
  107.0499 114.0 114
  107.07334 14.0 14
  108.04524 16.0 16
  108.05216 30.0 30
  108.08161 1000.0 999
  109.06608 68.0 68
  109.08717 129.0 129
  110.03419 8.0 8
  110.05925 20.0 20
  110.06606 11.0 11
  110.07224 6.0 6
  110.08567 8.0 8
  110.09661 188.0 188
  110.19867 7.0 7
  111.06691 5.0 5
  111.0705 13.0 13
  111.07893 8.0 8
  111.08644 6.0 6
  111.09847 7.0 7
  111.1087 6.0 6
  111.84552 10.0 10
  112.07595 54.0 54
  112.08244 20.0 20
  112.1119 6.0 6
  113.0628 7.0 7
  113.08002 5.0 5
  114.06568 5.0 5
  114.07507 9.0 9
  114.09167 171.0 171
  115.05521 47.0 47
  115.09018 6.0 6
  115.09685 33.0 33
  116.06062 10.0 10
  116.07136 5.0 5
  116.07802 6.0 6
  117.05977 9.0 9
  117.07048 187.0 187
  118.03844 10.0 10
  118.06666 7.0 7
  118.07269 6.0 6
  118.6962 8.0 8
  119.04971 121.0 121
  119.0807 12.0 12
  119.08875 43.0 43
  120.07893 17.0 17
  120.08685 8.0 8
  120.59193 6.0 6
  121.03806 6.0 6
  121.0657 83.0 83
  121.07294 18.0 18
  121.08365 13.0 13
  121.09255 37.0 37
  122.06148 7.0 7
  122.06655 18.0 18
  122.09716 368.0 368
  123.08018 63.0 63
  123.09351 9.0 9
  123.10469 47.0 47
  124.06644 9.0 9
  124.07545 56.0 56
  124.11265 143.0 143
  125.05138 10.0 10
  125.05846 28.0 28
  125.06703 11.0 11
  125.08459 5.0 5
  126.05524 5.0 5
  126.07491 6.0 6
  126.09212 393.0 393
  127.05419 41.0 41
  127.0684 8.0 8
  127.08598 8.0 8
  127.09618 36.0 36
  128.06082 68.0 68
  128.07036 23.0 23
  128.09859 8.0 8
  128.10689 29.0 29
  129.07224 237.0 237
  129.12041 7.0 7
  130.039 6.0 6
  130.07033 70.0 70
  130.07851 52.0 52
  130.08577 22.0 22
  130.51743 5.0 5
  131.04964 26.0 26
  131.06651 9.0 9
  131.07681 38.0 38
  131.08722 85.0 85
  132.05171 15.0 15
  132.05862 18.0 18
  132.0761 11.0 11
  132.08299 28.0 28
  132.09445 22.0 22
  133.06396 54.0 54
  133.08659 17.0 17
  133.09818 12.0 12
  134.06865 10.0 10
  134.08324 30.0 30
  134.0943 52.0 52
  134.10307 60.0 60
  134.47501 8.0 8
  135.04733 6.0 6
  135.07484 10.0 10
  135.08449 39.0 39
  135.10387 54.0 54
  135.11769 10.0 10
  136.06699 6.0 6
  136.07843 28.0 28
  136.11304 45.0 45
  137.05727 145.0 145
  137.06363 62.0 62
  138.0593 12.0 12
  138.06828 6.0 6
  138.07771 8.0 8
  138.09207 334.0 334
  138.13234 8.0 8
  139.07227 14.0 14
  139.09296 53.0 53
  139.36633 6.0 6
  140.08574 8.0 8
  140.10782 406.0 406
  140.23875 5.0 5
  141.05023 5.0 5
  141.05972 11.0 11
  141.07158 166.0 166
  141.10548 29.0 29
  141.11224 55.0 55
  142.07051 17.0 17
  142.0773 40.0 40
  142.08496 17.0 17
  142.11307 6.0 6
  143.07135 12.0 12
  143.08583 92.0 92
  143.0981 9.0 9
  144.05742 29.0 29
  144.08516 31.0 31
  144.09363 24.0 24
  144.10277 22.0 22
  145.03014 5.0 5
  145.05731 45.0 45
  145.06468 56.0 56
  145.07785 7.0 7
  145.0876 16.0 16
  145.10429 68.0 68
  146.05884 7.0 7
  146.07246 26.0 26
  146.09799 41.0 41
  147.08089 81.0 81
  147.09451 34.0 34
  147.10277 20.0 20
  147.41228 9.0 9
  148.07393 20.0 20
  148.08879 23.0 23
  148.10913 76.0 76
  149.0517 5.0 5
  149.0589 20.0 20
  149.07114 9.0 9
  149.0925 26.0 26
  149.09926 17.0 17
  149.11646 8.0 8
  150.0851 19.0 19
  150.09386 11.0 11
  151.06778 11.0 11
  151.0761 53.0 53
  151.10503 6.0 6
  152.05708 9.0 9
  152.06671 15.0 15
  152.0741 7.0 7
  152.08339 7.0 7
  152.10262 14.0 14
  152.11279 8.0 8
  153.06979 130.0 130
  154.0618 7.0 7
  154.07104 31.0 31
  154.0807 54.0 54
  154.09608 5.0 5
  154.11972 48.0 48
  154.12917 15.0 15
  154.13559 7.0 7
  155.06575 6.0 6
  155.08585 166.0 166
  155.12817 11.0 11
  156.08261 12.0 12
  156.08846 25.0 25
  156.10684 12.0 12
  157.04781 9.0 9
  157.06729 43.0 43
  157.0806 26.0 26
  157.09772 29.0 29
  157.10379 84.0 84
  158.05937 8.0 8
  158.0658 28.0 28
  158.09738 56.0 56
  158.10706 16.0 16
  158.11588 8.0 8
  159.08319 69.0 69
  159.09729 17.0 17
  159.10893 23.0 23
  159.22528 13.0 13
  159.70621 7.0 7
  160.07762 18.0 18
  160.0887 5.0 5
  160.11333 171.0 171
  161.06064 10.0 10
  161.08282 6.0 6
  161.09032 21.0 21
  161.10187 8.0 8
  161.11809 28.0 28
  161.12585 15.0 15
  162.06854 19.0 19
  162.07332 9.0 9
  162.10292 10.0 10
  162.13089 115.0 115
  163.07025 11.0 11
  163.08159 24.0 24
  163.09265 7.0 7
  163.10229 16.0 16
  163.1329 8.0 8
  163.14008 6.0 6
  163.84973 6.0 6
  164.10303 20.0 20
  164.11026 33.0 33
  164.1394 5.0 5
  164.14743 6.0 6
  165.07043 137.0 137
  165.08133 22.0 22
  165.09624 15.0 15
  166.06944 25.0 25
  166.07994 102.0 102
  166.11172 8.0 8
  166.12755 7.0 7
  166.23824 7.0 7
  167.06271 9.0 9
  167.08624 200.0 200
  167.12885 5.0 5
  168.05716 5.0 5
  168.07864 22.0 22
  168.0862 21.0 21
  168.09451 33.0 33
  169.06059 10.0 10
  169.06975 23.0 23
  169.08784 28.0 28
  169.10223 105.0 105
  170.06352 15.0 15
  170.09315 53.0 53
  170.11842 6.0 6
  171.06911 18.0 18
  171.08054 66.0 66
  171.10329 18.0 18
  171.10869 11.0 11
  171.17503 10.0 10
  172.07799 23.0 23
  172.11124 93.0 93
  173.05672 8.0 8
  173.09064 13.0 13
  173.09932 46.0 46
  173.11496 24.0 24
  173.1256 27.0 27
  174.08049 8.0 8
  174.09509 45.0 45
  174.11835 18.0 18
  174.12906 64.0 64
  175.06648 10.0 10
  175.09787 25.0 25
  175.11465 20.0 20
  175.13028 17.0 17
  175.14032 20.0 20
  176.09352 5.0 5
  176.10657 23.0 23
  176.11467 11.0 11
  176.14308 18.0 18
  177.07524 18.0 18
  177.09081 5.0 5
  177.10608 8.0 8
  178.07443 58.0 58
  178.08214 71.0 71
  178.12074 32.0 32
  178.13127 5.0 5
  178.15788 5.0 5
  179.08582 176.0 176
  180.0713 6.0 6
  180.09218 109.0 109
  180.1377 10.0 10
  180.16359 8.0 8
  181.05472 5.0 5
  181.06552 15.0 15
  181.08812 36.0 36
  181.10106 143.0 143
  182.0724 17.0 17
  182.10551 45.0 45
  183.06273 14.0 14
  183.07298 24.0 24
  183.08163 62.0 62
  183.10561 19.0 19
  183.11699 67.0 67
  183.12608 16.0 16
  184.08844 14.0 14
  184.11726 55.0 55
  185.05754 11.0 11
  185.09113 22.0 22
  185.10298 30.0 30
  185.11757 8.0 8
  186.06134 5.0 5
  186.0704 8.0 8
  186.09012 27.0 27
  186.12546 25.0 25
  186.13344 26.0 26
  186.92075 6.0 6
  187.07077 10.0 10
  187.0817 11.0 11
  187.09323 6.0 6
  187.10677 29.0 29
  187.11867 7.0 7
  187.13007 12.0 12
  187.14043 14.0 14
  187.49554 6.0 6
  188.07922 7.0 7
  188.10648 95.0 95
  188.13237 19.0 19
  188.14799 70.0 70
  188.16208 12.0 12
  189.03825 5.0 5
  189.07591 9.0 9
  189.10542 6.0 6
  189.11894 9.0 9
  189.15005 5.0 5
  190.0687 7.0 7
  190.0787 36.0 36
  190.11583 39.0 39
  190.12465 90.0 90
  190.14729 6.0 6
  191.05719 7.0 7
  191.08215 37.0 37
  191.09177 72.0 72
  191.12012 20.0 20
  191.13069 20.0 20
  192.07901 19.0 19
  192.0939 49.0 49
  192.12642 10.0 10
  192.13725 50.0 50
  192.1474 14.0 14
  193.10081 207.0 207
  193.13741 7.0 7
  193.15622 11.0 11
  194.06694 9.0 9
  194.07619 22.0 22
  194.09711 8.0 8
  194.11142 49.0 49
  195.07423 28.0 28
  195.08327 36.0 36
  195.10411 33.0 33
  195.12143 65.0 65
  195.82689 5.0 5
  196.05699 6.0 6
  196.07858 8.0 8
  196.08629 38.0 38
  196.11736 32.0 32
  197.06734 6.0 6
  197.08441 17.0 17
  197.10175 29.0 29
  197.11394 6.0 6
  197.12473 11.0 11
  197.13693 36.0 36
  197.5632 11.0 11
  198.0614 7.0 7
  198.09071 9.0 9
  198.09923 22.0 22
  198.12036 18.0 18
  198.12895 39.0 39
  199.06462 8.0 8
  199.09351 6.0 6
  199.1012 12.0 12
  199.11607 15.0 15
  199.13234 14.0 14
  199.14961 14.0 14
  200.07933 10.0 10
  200.10374 25.0 25
  200.11327 25.0 25
  200.12692 12.0 12
  200.14371 38.0 38
  200.15184 9.0 9
  200.74107 7.0 7
  201.09627 7.0 7
  201.12411 31.0 31
  201.13568 13.0 13
  201.15324 17.0 17
  202.07225 14.0 14
  202.07988 37.0 37
  202.12436 71.0 71
  202.15782 14.0 14
  203.08568 76.0 76
  203.10199 11.0 11
  203.12167 16.0 16
  203.13708 6.0 6
  203.22185 8.0 8
  203.42461 8.0 8
  203.49216 6.0 6
  204.07504 5.0 5
  204.08563 27.0 27
  204.09669 50.0 50
  204.10561 31.0 31
  204.12785 11.0 11
  204.14337 27.0 27
  204.16927 8.0 8
  205.05643 6.0 6
  205.07074 10.0 10
  205.09146 39.0 39
  205.10181 107.0 107
  205.13757 5.0 5
  206.07248 7.0 7
  206.0793 18.0 18
  206.10072 12.0 12
  206.11365 50.0 50
  206.1626 8.0 8
  207.07527 9.0 9
  207.09662 9.0 9
  207.11145 45.0 45
  207.12125 23.0 23
  207.15356 8.0 8
  207.31717 6.0 6
  207.33049 6.0 6
  208.08655 36.0 36
  208.10075 5.0 5
  208.11787 21.0 21
  208.1293 25.0 25
  208.15579 6.0 6
  209.08847 9.0 9
  209.10004 63.0 63
  209.12668 24.0 24
  209.13663 39.0 39
  210.09291 17.0 17
  210.10713 11.0 11
  210.12721 63.0 63
  210.14032 16.0 16
  210.56041 5.0 5
  211.1051 28.0 28
  211.11534 25.0 25
  211.13217 34.0 34
  211.14096 20.0 20
  212.07828 15.0 15
  212.10921 37.0 37
  212.12923 18.0 18
  212.14348 20.0 20
  213.06516 6.0 6
  213.08966 9.0 9
  213.11491 21.0 21
  213.15721 15.0 15
  214.1096 10.0 10
  214.12578 53.0 53
  214.15727 15.0 15
  214.16911 7.0 7
  215.07661 11.0 11
  215.0854 35.0 35
  215.10188 11.0 11
  215.11613 7.0 7
  215.12914 12.0 12
  216.09395 56.0 56
  216.10448 13.0 13
  216.13835 59.0 59
  217.10458 23.0 23
  217.12463 10.0 10
  217.14053 17.0 17
  217.15285 14.0 14
  218.06969 20.0 20
  218.07967 6.0 6
  218.09448 9.0 9
  218.10471 27.0 27
  218.1192 22.0 22
  218.1537 19.0 19
  219.07968 22.0 22
  219.09038 14.0 14
  219.10991 34.0 34
  219.12027 76.0 76
  219.13419 9.0 9
  219.16551 8.0 8
  219.17561 6.0 6
  220.0733 9.0 9
  220.08897 32.0 32
  220.10243 19.0 19
  220.11635 30.0 30
  220.13506 40.0 40
  220.14461 20.0 20
  220.17224 18.0 18
  221.0779 10.0 10
  221.09785 63.0 63
  221.12572 49.0 49
  221.14148 38.0 38
  222.09929 35.0 35
  222.11081 9.0 9
  222.13133 44.0 44
  222.14902 18.0 18
  222.1586 15.0 15
  222.17783 5.0 5
  222.86597 7.0 7
  223.08598 12.0 12
  223.11272 53.0 53
  223.12454 30.0 30
  223.14622 20.0 20
  224.08218 5.0 5
  224.10176 11.0 11
  224.1158 7.0 7
  224.13098 8.0 8
  224.14688 35.0 35
  224.82404 5.0 5
  225.12405 37.0 37
  225.14606 9.0 9
  225.15524 7.0 7
  226.08031 11.0 11
  226.11549 6.0 6
  226.12756 32.0 32
  226.1629 26.0 26
  227.08363 14.0 14
  227.10852 6.0 6
  227.12781 21.0 21
  227.14069 11.0 11
  227.15891 6.0 6
  228.09003 9.0 9
  228.10522 8.0 8
  228.11757 14.0 14
  228.13629 12.0 12
  228.14616 8.0 8
  228.17146 7.0 7
  228.18039 5.0 5
  229.08112 7.0 7
  229.09215 26.0 26
  229.10538 10.0 10
  229.14044 25.0 25
  230.13823 24.0 24
  230.155 18.0 18
  231.07814 26.0 26
  231.11897 23.0 23
  232.08812 11.0 11
  232.09645 15.0 15
  232.11256 22.0 22
  232.12346 22.0 22
  232.1413 9.0 9
  233.07845 6.0 6
  233.10371 47.0 47
  233.12109 11.0 11
  233.13733 9.0 9
  234.08195 6.0 6
  234.09901 29.0 29
  234.11549 6.0 6
  234.12875 19.0 19
  234.14792 9.0 9
  235.07877 10.0 10
  235.09346 16.0 16
  235.11362 10.0 10
  235.12965 29.0 29
  235.16167 11.0 11
  235.38615 5.0 5
  236.08327 5.0 5
  236.11169 8.0 8
  236.12302 16.0 16
  236.13216 19.0 19
  236.14943 9.0 9
  237.1216 57.0 57
  237.13223 24.0 24
  237.15796 9.0 9
  238.10962 10.0 10
  238.1244 50.0 50
  238.14272 15.0 15
  238.16263 26.0 26
  239.11096 17.0 17
  239.12852 31.0 31
  239.14787 18.0 18
  239.17253 16.0 16
  240.10175 15.0 15
  240.13097 12.0 12
  240.14056 11.0 11
  240.16321 6.0 6
  240.17644 7.0 7
  240.29427 9.0 9
  240.67209 6.0 6
  241.1003 12.0 12
  241.12048 20.0 20
  241.17386 10.0 10
  242.10788 14.0 14
  242.12175 12.0 12
  242.16 6.0 6
  243.11624 10.0 10
  243.13791 5.0 5
  243.15991 18.0 18
  244.07397 5.0 5
  244.08595 10.0 10
  244.11794 6.0 6
  244.1356 28.0 28
  244.15433 11.0 11
  245.12296 6.0 6
  245.14572 8.0 8
  246.1071 20.0 20
  246.13336 28.0 28
  246.15326 23.0 23
  246.17471 8.0 8
  246.19955 5.0 5
  246.32886 5.0 5
  247.09373 7.0 7
  247.10591 24.0 24
  247.11472 53.0 53
  247.13228 7.0 7
  247.14992 15.0 15
  248.08846 5.0 5
  248.09821 5.0 5
  248.1151 8.0 8
  248.12846 20.0 20
  248.14999 45.0 45
  249.08931 5.0 5
  249.11069 10.0 10
  249.13612 24.0 24
  249.14856 18.0 18
  250.09995 9.0 9
  250.10832 9.0 9
  250.12544 14.0 14
  250.15753 24.0 24
  250.16635 22.0 22
  251.09824 6.0 6
  251.10681 29.0 29
  251.14622 20.0 20
  251.16702 15.0 15
  251.17703 9.0 9
  252.10435 5.0 5
  252.1353 15.0 15
  252.14638 45.0 45
  252.17482 12.0 12
  252.18367 11.0 11
  253.13071 13.0 13
  253.16019 17.0 17
  253.18057 5.0 5
  253.21097 11.0 11
  254.117 11.0 11
  254.16383 12.0 12
  254.17603 8.0 8
  255.07457 6.0 6
  255.13206 8.0 8
  255.15668 25.0 25
  255.1777 8.0 8
  256.12766 14.0 14
  256.16589 27.0 27
  257.07623 5.0 5
  257.1347 6.0 6
  257.17001 6.0 6
  258.1174 5.0 5
  258.14639 10.0 10
  258.15613 9.0 9
  258.18723 5.0 5
  259.10049 10.0 10
  259.10953 35.0 35
  259.14297 9.0 9
  259.1546 7.0 7
  259.36053 5.0 5
  260.13596 12.0 12
  260.159 11.0 11
  261.09216 8.0 8
  261.1109 12.0 12
  262.12674 22.0 22
  262.14868 15.0 15
  263.10925 8.0 8
  263.13342 22.0 22
  263.16281 9.0 9
  264.12482 9.0 9
  264.1377 8.0 8
  264.14948 15.0 15
  264.164 44.0 44
  264.18427 20.0 20
  265.12866 29.0 29
  265.14542 18.0 18
  265.17078 12.0 12
  265.18796 6.0 6
  266.12836 21.0 21
  266.15823 44.0 44
  267.13116 30.0 30
  267.14767 9.0 9
  268.07516 9.0 9
  268.15677 8.0 8
  268.17664 13.0 13
  268.18863 7.0 7
  269.04306 5.0 5
  269.14151 10.0 10
  269.17657 26.0 26
  270.04834 6.0 6
  270.14749 30.0 30
  270.16232 16.0 16
  270.17361 6.0 6
  270.19308 5.0 5
  271.13278 17.0 17
  271.1842 11.0 11
  272.12775 8.0 8
  272.14761 7.0 7
  272.15985 20.0 20
  272.1691 11.0 11
  273.17621 11.0 11
  274.12393 5.0 5
  274.1427 31.0 31
  275.64581 5.0 5
  276.13901 11.0 11
  276.16083 17.0 17
  276.18655 20.0 20
  277.11136 6.0 6
  277.13037 10.0 10
  277.14587 8.0 8
  278.14401 6.0 6
  278.15796 19.0 19
  278.17841 8.0 8
  279.13644 17.0 17
  279.15106 7.0 7
  279.16742 12.0 12
  280.13641 20.0 20
  280.16962 43.0 43
  280.18124 18.0 18
  281.16638 32.0 32
  282.15875 6.0 6
  282.16901 7.0 7
  282.18918 29.0 29
  283.12131 5.0 5
  283.13654 13.0 13
  283.17108 6.0 6
  283.17978 11.0 11
  283.19504 14.0 14
  284.12161 6.0 6
  284.14157 6.0 6
  284.16562 99.0 99
  284.19446 24.0 24
  284.21631 12.0 12
  284.80219 6.0 6
  285.19821 6.0 6
  286.14191 5.0 5
  286.18115 7.0 7
  286.19669 9.0 9
  287.16879 6.0 6
  287.17761 16.0 16
  287.19461 5.0 5
  288.15427 11.0 11
  288.20218 5.0 5
  289.14709 9.0 9
  289.16992 7.0 7
  290.15164 18.0 18
  290.16846 8.0 8
  290.18405 10.0 10
  292.17337 13.0 13
  293.146 15.0 15
  293.164 5.0 5
  293.1813 6.0 6
  294.16205 17.0 17
  294.17719 13.0 13
  294.19073 41.0 41
  295.13174 9.0 9
  295.15762 18.0 18
  295.18646 11.0 11
  296.16534 27.0 27
  296.18863 15.0 15
  296.20047 25.0 25
  297.14343 10.0 10
  297.19513 11.0 11
  298.16812 6.0 6
  298.21048 10.0 10
  300.15552 8.0 8
  300.17316 11.0 11
  300.19778 21.0 21
  301.17914 6.0 6
  302.17126 9.0 9
  304.15042 7.0 7
  304.16623 14.0 14
  305.19824 6.0 6
  306.15533 8.0 8
  308.16071 10.0 10
  308.17459 11.0 11
  309.15244 9.0 9
  310.16992 12.0 12
  310.18198 14.0 14
  311.18423 9.0 9
  312.15277 7.0 7
  312.16766 5.0 5
  312.18341 18.0 18
  312.19696 78.0 78
  312.2179 12.0 12
  313.19064 15.0 15
  313.2066 19.0 19
  314.17691 13.0 13
  314.21399 27.0 27
  315.19901 12.0 12
  315.22113 13.0 13
  316.17441 5.0 5
  316.18942 10.0 10
  316.23108 5.0 5
  317.17285 6.0 6
  317.22119 13.0 13
  317.24228 7.0 7
  322.16608 13.0 13
  322.18329 65.0 65
  323.189 14.0 14
  324.17618 16.0 16
  324.19257 28.0 28
  325.20154 34.0 34
  326.17572 5.0 5
  326.19141 21.0 21
  326.21024 67.0 67
  326.22211 48.0 48
  327.21762 37.0 37
  328.22119 16.0 16
  330.19156 10.0 10
  330.20926 23.0 23
  331.20932 8.0 8
  332.15744 6.0 6
  332.18954 5.0 5
  332.23315 6.0 6
  333.24222 5.0 5
  336.19183 16.0 16
  336.2135 5.0 5
  337.20972 6.0 6
  339.7218 7.0 7
  340.13177 6.0 6
  340.16464 5.0 5
  340.18961 45.0 45
  340.20016 73.0 73
  342.1962 37.0 37
  342.20847 18.0 18
  343.18051 7.0 7
  343.21814 22.0 22
  344.19437 10.0 10
  344.21585 58.0 58
  344.22882 46.0 46
  344.24677 29.0 29
  345.20578 12.0 12
  345.2229 31.0 31
  345.24188 9.0 9
  346.20807 6.0 6
  346.23291 8.0 8
  348.20648 6.0 6
  351.01947 8.0 8
  352.19571 11.0 11
  354.19687 12.0 12
  354.21255 61.0 61
  355.20929 38.0 38
  355.22647 19.0 19
  356.19669 8.0 8
  356.21988 34.0 34
  356.23547 13.0 13
  357.22696 6.0 6
  357.23911 13.0 13
  358.21561 10.0 10
  358.23871 138.0 138
  358.25821 20.0 20
  359.02603 7.0 7
  359.21121 13.0 13
  359.22635 10.0 10
  359.24707 10.0 10
  360.23703 9.0 9
  361.22101 5.0 5
  362.23648 14.0 14
  365.34433 7.0 7
  371.2207 8.0 8
  372.19604 31.0 31
  372.21576 159.0 159
  373.2196 57.0 57
  373.24493 5.0 5
  374.21909 21.0 21
  374.24023 58.0 58
  374.43182 6.0 6
  375.24594 8.0 8
  376.21002 6.0 6
  376.25201 64.0 64
  376.27911 5.0 5
  377.26459 13.0 13
  378.23199 7.0 7
  386.22208 19.0 19
  386.23969 46.0 46
  386.25705 6.0 6
  387.22177 12.0 12
  387.23633 27.0 27
  390.22049 5.0 5
  390.2366 8.0 8
  390.25543 18.0 18
  390.26831 25.0 25
  391.26569 18.0 18
  394.26913 6.0 6
  403.86087 7.0 7
  404.20789 5.0 5
  404.24548 103.0 103
  405.25595 13.0 13
  406.24759 9.0 9
  416.24789 9.0 9
  418.24954 13.0 13
  418.27356 19.0 19
  436.26938 15.0 15
  436.29858 9.0 9
  466.6752 8.0 8
  468.29642 54.0 54
  468.31436 13.0 13
//
