ACCESSION: MSBNK-RIKEN-PR300174
RECORD_TITLE: Hydroxygardnutine; LC-ESI-QTOF; MS2
DATE: 2019.03.28
AUTHORS: Tetsuya Mori, Center for Sustainable Resource Science, RIKEN
LICENSE: CC BY-NC-SA
PUBLICATION: Tsugawa H., Nakabayashi R., Mori T., Yamada Y., Takahashi M., Rai A., Sugiyama R., Yamamoto H., Nakaya T., Yamazaki M., Kooke R., Bac-Molenaar JA., Oztolan-Erol N., Keurentjes JJB., Arita M., Saito K. (2019) "A cheminformatics approach to characterize metabolomes in stable-isotope-labeled organisms" Nature Methods 16(4):295-298. [doi:10.1038/s41592-019-0358-2]
COMMENT: registered in RIKEN PlaSMA
CH$NAME: Hydroxygardnutine
CH$COMPOUND_CLASS: Macroline alkaloids
CH$FORMULA: C20H22N2O3
CH$EXACT_MASS: 338.407
CH$SMILES: COC1=CC2=C(C=C1)C1=C(N2)[C@@H]2C[C@@H]3[C@@H]4CO[C@H]1[C@@H]4N2C\C3=C\CO
CH$IUPAC: InChI=1S/C20H22N2O3/c1-24-11-2-3-12-15(6-11)21-18-16-7-13-10(4-5-23)8-22(16)19-14(13)9-25-20(19)17(12)18/h2-4,6,13-14,16,19-21,23H,5,7-9H2,1H3/b10-4-/t13-,14-,16-,19+,20+/m0/s1
CH$LINK: INCHIKEY OUONWRIEOZGMSQ-NUUNSNFRSA-N
AC$INSTRUMENT: LC, Waters Acquity UPLC System; MS, Waters Xevo G2 Q-Tof
AC$INSTRUMENT_TYPE: LC-ESI-QTOF
AC$MASS_SPECTROMETRY: MS_TYPE MS2
AC$MASS_SPECTROMETRY: ION_MODE POSITIVE
AC$MASS_SPECTROMETRY: COLLISION_ENERGY 6V
AC$MASS_SPECTROMETRY: DESOLVATION_GAS_FLOW 800/h
AC$MASS_SPECTROMETRY: DESOLVATION_TEMPERATURE 450 C
AC$MASS_SPECTROMETRY: IONIZATION ESI
AC$CHROMATOGRAPHY: CAPILLARY_VOLTAGE +3.00 kV
AC$CHROMATOGRAPHY: COLUMN_NAME Acquity bridged ethyl hybrid C18 (1.7 um, 2.1 mm * 100 mm, Waters)
AC$CHROMATOGRAPHY: COLUMN_TEMPERATURE 40 C
AC$CHROMATOGRAPHY: FLOW_GRADIENT A/B = (99.5%/0.5% at 0 min, 99.5%/0.5% at 0.1 min, 20%/80% at 10 min, 0.5%/99.5% at 10.1 min, 0.5%/99.5% at 12.0 min, 99.5%/0.5% at 12.1 min, 99.5%/0.5% at 15.0 min)
AC$CHROMATOGRAPHY: FLOW_RATE 0.3 ml/min at 0 min, 0.3 ml/min at 10 min, 0.4 ml/min at 10.1 min, 0.4 ml/min at 14.4 min, 0.3 ml/min at 14.5 min
AC$CHROMATOGRAPHY: RETENTION_TIME 3.602583
AC$CHROMATOGRAPHY: SOLVENT A water including 0.1% formic acid
AC$CHROMATOGRAPHY: SOLVENT B acetonitrile including 0.1% formic acid
MS$FOCUSED_ION: PRECURSOR_TYPE [M+H]+
MS$FOCUSED_ION: PRECURSOR_M/Z 339.170319
PK$SPLASH: splash10-0a4i-1930000000-97f635fe5f6bfb29b05d
PK$NUM_PEAK: 354
PK$PEAK: m/z int. rel.int.
  63.02067 6.0 6
  65.03781 6.0 6
  67.03984 8.0 8
  68.04963 9.0 9
  70.03039 6.0 6
  70.06528 5.0 5
  74.05883 8.0 8
  77.03008 8.0 8
  77.03855 100.0 100
  77.04268 46.0 46
  78.03253 8.0 8
  78.04841 7.0 7
  79.05395 56.0 56
  80.02448 8.0 8
  80.03996 10.0 10
  80.05099 42.0 42
  80.05688 26.0 26
  80.062 8.0 8
  81.05922 6.0 6
  82.06245 19.0 19
  82.06776 6.0 6
  90.42037 6.0 6
  91.04507 9.0 9
  91.0541 147.0 147
  92.04774 10.0 10
  92.05399 21.0 21
  92.06169 9.0 9
  93.04339 9.0 9
  93.05547 20.0 20
  93.06106 23.0 23
  93.06994 34.0 34
  94.06568 46.0 46
  94.07548 22.0 22
  95.07156 5.0 5
  96.04257 12.0 12
  97.06763 11.0 11
  98.05772 15.0 15
  102.00293 5.0 5
  102.04596 11.0 11
  103.01512 6.0 6
  103.05502 157.0 157
  104.04242 9.0 9
  104.05458 23.0 23
  104.29926 6.0 6
  105.05623 11.0 11
  105.06626 6.0 6
  106.06546 264.0 264
  107.0407 5.0 5
  107.06339 7.0 7
  107.06953 18.0 18
  108.07048 6.0 6
  108.07824 21.0 21
  108.08397 21.0 21
  110.09265 11.0 11
  110.30286 8.0 8
  115.05576 8.0 8
  116.05247 21.0 21
  116.0613 12.0 12
  117.05762 96.0 96
  118.05856 23.0 23
  118.06484 46.0 46
  118.07069 38.0 38
  119.04278 8.0 8
  119.06398 18.0 18
  119.07523 33.0 33
  120.06348 14.0 14
  120.07998 67.0 67
  121.06146 6.0 6
  121.08597 19.0 19
  122.05708 11.0 11
  123.06823 18.0 18
  124.07478 6.0 6
  124.08025 7.0 7
  125.08395 6.0 6
  127.05434 12.0 12
  128.05705 19.0 19
  128.06796 27.0 27
  129.0439 6.0 6
  129.0589 25.0 25
  129.06641 6.0 6
  129.74147 9.0 9
  130.03186 5.0 5
  130.04967 12.0 12
  130.06511 293.0 293
  130.84497 7.0 7
  131.06534 38.0 38
  131.07307 58.0 58
  131.09496 13.0 13
  132.03113 7.0 7
  132.04355 55.0 55
  132.05357 6.0 6
  132.06442 7.0 7
  132.08212 9.0 9
  132.08746 7.0 7
  133.04594 11.0 11
  133.05499 35.0 35
  133.06221 11.0 11
  134.04944 6.0 6
  136.07066 16.0 16
  138.0658 6.0 6
  138.08939 30.0 30
  141.0584 16.0 16
  142.03989 9.0 9
  142.0565 9.0 9
  142.06789 38.0 38
  143.06339 13.0 13
  143.07434 100.0 100
  143.64381 5.0 5
  144.02896 6.0 6
  144.05511 21.0 21
  144.08246 66.0 66
  145.03377 6.0 6
  145.05011 50.0 50
  145.06004 59.0 59
  145.0845 51.0 51
  145.09235 22.0 22
  146.06204 25.0 25
  147.062 29.0 29
  148.03131 5.0 5
  148.07135 12.0 12
  149.07928 8.0 8
  150.0865 6.0 6
  150.10318 12.0 12
  152.06369 10.0 10
  153.07579 6.0 6
  154.06438 38.0 38
  155.07114 52.0 52
  156.04713 5.0 5
  156.06493 20.0 20
  156.077 22.0 22
  156.0858 8.0 8
  156.20609 9.0 9
  157.04865 5.0 5
  157.05719 22.0 22
  157.07056 6.0 6
  157.08444 11.0 11
  158.05959 1000.0 999
  159.03696 8.0 8
  159.06285 178.0 178
  159.08556 5.0 5
  159.35454 9.0 9
  160.07034 58.0 58
  160.07976 35.0 35
  161.07896 13.0 13
  161.17197 7.0 7
  162.07414 7.0 7
  162.46667 6.0 6
  164.05447 6.0 6
  164.0721 10.0 10
  165.06677 21.0 21
  166.06464 14.0 14
  166.07326 9.0 9
  167.03918 8.0 8
  167.06995 52.0 52
  168.01662 6.0 6
  168.06781 10.0 10
  168.08398 59.0 59
  169.04163 11.0 11
  169.08051 21.0 21
  169.09258 6.0 6
  170.05942 58.0 58
  170.08035 6.0 6
  171.05708 13.0 13
  171.07234 51.0 51
  172.0549 15.0 15
  172.07494 58.0 58
  173.04532 9.0 9
  173.07466 63.0 63
  173.08482 167.0 167
  174.05957 6.0 6
  174.08273 47.0 47
  174.09729 24.0 24
  175.05646 6.0 6
  178.07552 30.0 30
  180.06963 15.0 15
  180.07962 63.0 63
  180.0945 10.0 10
  181.08243 40.0 40
  181.08997 32.0 32
  182.06259 17.0 17
  182.07481 5.0 5
  182.08481 13.0 13
  182.09494 5.0 5
  183.06635 50.0 50
  183.07913 12.0 12
  183.09526 9.0 9
  184.06186 10.0 10
  184.07632 23.0 23
  185.06273 12.0 12
  185.07292 27.0 27
  186.05136 10.0 10
  186.08792 19.0 19
  186.09639 19.0 19
  187.08586 6.0 6
  187.09908 8.0 8
  189.0666 5.0 5
  190.06061 9.0 9
  191.07399 18.0 18
  192.08153 52.0 52
  193.07079 12.0 12
  193.08206 21.0 21
  193.09052 58.0 58
  193.10266 8.0 8
  194.09451 55.0 55
  195.06483 6.0 6
  195.07762 5.0 5
  195.10124 26.0 26
  196.07805 49.0 49
  196.10214 10.0 10
  197.07251 36.0 36
  197.08366 28.0 28
  197.09344 8.0 8
  198.08679 21.0 21
  199.0593 8.0 8
  199.08243 10.0 10
  199.09213 23.0 23
  199.17207 7.0 7
  200.05452 12.0 12
  200.07089 18.0 18
  201.09116 9.0 9
  203.07399 10.0 10
  203.08511 46.0 46
  204.08252 62.0 62
  205.08003 15.0 15
  205.089 5.0 5
  206.05412 16.0 16
  206.0807 43.0 43
  206.09369 33.0 33
  207.10034 46.0 46
  207.11395 8.0 8
  208.07014 26.0 26
  208.08624 12.0 12
  208.09772 24.0 24
  208.10855 7.0 7
  209.07335 9.0 9
  209.08749 42.0 42
  210.08565 50.0 50
  210.09941 17.0 17
  210.13129 9.0 9
  211.08199 18.0 18
  211.09703 11.0 11
  212.07581 8.0 8
  213.08879 5.0 5
  216.08371 14.0 14
  217.08887 19.0 19
  217.10182 5.0 5
  218.08775 30.0 30
  218.09799 30.0 30
  219.08051 28.0 28
  219.10683 52.0 52
  219.22852 11.0 11
  220.05406 15.0 15
  220.07742 37.0 37
  220.09459 24.0 24
  220.10356 27.0 27
  221.03006 9.0 9
  221.07271 11.0 11
  221.08386 6.0 6
  221.38898 13.0 13
  222.06239 6.0 6
  222.07271 12.0 12
  222.10556 6.0 6
  222.11678 6.0 6
  223.07909 9.0 9
  223.10004 13.0 13
  223.11459 6.0 6
  224.09581 11.0 11
  225.11346 11.0 11
  226.07404 5.0 5
  228.06972 8.0 8
  228.07916 5.0 5
  228.09529 15.0 15
  230.10202 12.0 12
  232.09561 10.0 10
  232.10677 27.0 27
  232.11664 11.0 11
  232.50848 7.0 7
  233.07504 8.0 8
  233.08382 7.0 7
  233.10419 12.0 12
  233.12292 13.0 13
  234.06059 6.0 6
  234.0719 11.0 11
  234.08833 48.0 48
  234.11057 6.0 6
  234.12434 9.0 9
  235.07208 19.0 19
  235.08549 13.0 13
  235.10144 16.0 16
  236.08783 16.0 16
  236.10733 29.0 29
  236.12383 9.0 9
  237.11212 6.0 6
  238.06903 6.0 6
  238.08798 14.0 14
  243.09586 10.0 10
  243.22209 6.0 6
  244.064 8.0 8
  244.08894 11.0 11
  245.07994 19.0 19
  245.1181 20.0 20
  246.08844 7.0 7
  246.11513 14.0 14
  246.13017 10.0 10
  247.08514 36.0 36
  247.09901 22.0 22
  247.13268 17.0 17
  248.09181 59.0 59
  248.10353 9.0 9
  248.12375 16.0 16
  248.1355 8.0 8
  249.10277 32.0 32
  249.11682 7.0 7
  249.12723 5.0 5
  250.08401 9.0 9
  250.10199 6.0 6
  250.11734 13.0 13
  251.12135 11.0 11
  257.10898 15.0 15
  258.09909 9.0 9
  258.11511 11.0 11
  260.09323 18.0 18
  261.0994 14.0 14
  261.1123 15.0 15
  262.09674 7.0 7
  262.1123 5.0 5
  262.12509 11.0 11
  263.09692 18.0 18
  263.1113 20.0 20
  263.1196 25.0 25
  263.13138 23.0 23
  264.09439 6.0 6
  264.12134 11.0 11
  264.13394 14.0 14
  265.11298 6.0 6
  265.13049 8.0 8
  266.11548 6.0 6
  270.11972 6.0 6
  275.11313 7.0 7
  275.12308 7.0 7
  275.96738 6.0 6
  277.09674 13.0 13
  277.12106 23.0 23
  277.1394 17.0 17
  278.08206 5.0 5
  278.10403 6.0 6
  278.14093 22.0 22
  279.1004 10.0 10
  279.11581 20.0 20
  279.27097 6.0 6
  293.13385 29.0 29
  293.14948 13.0 13
  294.13898 14.0 14
  334.12189 6.0 6
//
