ACCESSION: MSBNK-RIKEN-PR301283
RECORD_TITLE: 12-Cytisineacetamide; LC-ESI-QTOF; MS2
DATE: 2019.03.28
AUTHORS: Tetsuya Mori, Center for Sustainable Resource Science, RIKEN
LICENSE: CC BY-NC-SA
PUBLICATION: Tsugawa H., Nakabayashi R., Mori T., Yamada Y., Takahashi M., Rai A., Sugiyama R., Yamamoto H., Nakaya T., Yamazaki M., Kooke R., Bac-Molenaar JA., Oztolan-Erol N., Keurentjes JJB., Arita M., Saito K. (2019) "A cheminformatics approach to characterize metabolomes in stable-isotope-labeled organisms" Nature Methods 16(4):295-298. [doi:10.1038/s41592-019-0358-2]
COMMENT: registered in RIKEN PlaSMA
CH$NAME: 12-Cytisineacetamide
CH$COMPOUND_CLASS: Cytisine and derivatives
CH$FORMULA: C13H17N3O2
CH$EXACT_MASS: 247.298
CH$SMILES: OC(=N)CN1C[C@H]2C[C@@H](C1)C1=CC=CC(=O)N1C2
CH$IUPAC: InChI=1S/C13H17N3O2/c14-12(17)8-15-5-9-4-10(7-15)11-2-1-3-13(18)16(11)6-9/h1-3,9-10H,4-8H2,(H2,14,17)/t9-,10+/m1/s1
CH$LINK: INCHIKEY MRVHCCZFXHOQOT-ZJUUUORDSA-N
AC$INSTRUMENT: LC, Waters Acquity UPLC System; MS, Waters Xevo G2 Q-Tof
AC$INSTRUMENT_TYPE: LC-ESI-QTOF
AC$MASS_SPECTROMETRY: MS_TYPE MS2
AC$MASS_SPECTROMETRY: ION_MODE POSITIVE
AC$MASS_SPECTROMETRY: COLLISION_ENERGY 6V
AC$MASS_SPECTROMETRY: DESOLVATION_GAS_FLOW 800/h
AC$MASS_SPECTROMETRY: DESOLVATION_TEMPERATURE 450 C
AC$MASS_SPECTROMETRY: IONIZATION ESI
AC$CHROMATOGRAPHY: CAPILLARY_VOLTAGE +3.00 kV
AC$CHROMATOGRAPHY: COLUMN_NAME Acquity bridged ethyl hybrid C18 (1.7 um, 2.1 mm * 100 mm, Waters)
AC$CHROMATOGRAPHY: COLUMN_TEMPERATURE 40 C
AC$CHROMATOGRAPHY: FLOW_GRADIENT A/B = (99.5%/0.5% at 0 min, 99.5%/0.5% at 0.1 min, 20%/80% at 10 min, 0.5%/99.5% at 10.1 min, 0.5%/99.5% at 12.0 min, 99.5%/0.5% at 12.1 min, 99.5%/0.5% at 15.0 min)
AC$CHROMATOGRAPHY: FLOW_RATE 0.3 ml/min at 0 min, 0.3 ml/min at 10 min, 0.4 ml/min at 10.1 min, 0.4 ml/min at 14.4 min, 0.3 ml/min at 14.5 min
AC$CHROMATOGRAPHY: RETENTION_TIME 2.17865
AC$CHROMATOGRAPHY: SOLVENT A water including 0.1% formic acid
AC$CHROMATOGRAPHY: SOLVENT B acetonitrile including 0.1% formic acid
MS$FOCUSED_ION: PRECURSOR_TYPE [M+H]+
MS$FOCUSED_ION: PRECURSOR_M/Z 248.1393533
PK$SPLASH: splash10-0002-0190000000-51e67c0949c305beee65
PK$NUM_PEAK: 12
PK$PEAK: m/z int. rel.int.
  58.06575 10.0 10
  73.07616 6.0 6
  101.07125 111.0 111
  146.05588 8.0 8
  146.06334 6.0 6
  160.0665 13.0 13
  160.07816 11.0 11
  191.11703 6.0 6
  203.11775 218.0 218
  204.12187 31.0 31
  248.13867 1000.0 999
  248.18422 22.0 22
//
