ACCESSION: MSBNK-RIKEN-PR310953
RECORD_TITLE: Flavone base + 3O, O-AcetylHex; LC-ESI-QTOF; MS2
DATE: 2019.03.28
AUTHORS: Tetsuya Mori, Center for Sustainable Resource Science, RIKEN
LICENSE: CC BY-NC-SA
PUBLICATION: Tsugawa H., Nakabayashi R., Mori T., Yamada Y., Takahashi M., Rai A., Sugiyama R., Yamamoto H., Nakaya T., Yamazaki M., Kooke R., Bac-Molenaar JA., Oztolan-Erol N., Keurentjes JJB., Arita M., Saito K. (2019) "A cheminformatics approach to characterize metabolomes in stable-isotope-labeled organisms" Nature Methods 16(4):295-298. [doi:10.1038/s41592-019-0358-2]
COMMENT: Annotation level-3
CH$NAME: Flavone base + 3O, O-AcetylHex
CH$COMPOUND_CLASS: Flavone O-glycosides
CH$FORMULA: C23H22O11
CH$EXACT_MASS: 474.418
CH$SMILES: O=C(OCC4OC(OC1=CC(O)=C2C(=O)C=C(OC2(=C1))C3=CC=C(O)C=C3)C(O)C(O)C4(O))C
CH$IUPAC: InChI=1S/C23H22O11/c1-10(24)31-9-18-20(28)21(29)22(30)23(34-18)32-13-6-14(26)19-15(27)8-16(33-17(19)7-13)11-2-4-12(25)5-3-11/h2-8,18,20-23,25-26,28-30H,9H2,1H3
CH$LINK: INCHIKEY LYFXRHUNCZZUTQ-UHFFFAOYSA-N
AC$INSTRUMENT: LC, Waters Acquity UPLC System; MS, Waters Xevo G2 Q-Tof
AC$INSTRUMENT_TYPE: LC-ESI-QTOF
AC$MASS_SPECTROMETRY: MS_TYPE MS2
AC$MASS_SPECTROMETRY: ION_MODE POSITIVE
AC$MASS_SPECTROMETRY: COLLISION_ENERGY 6V
AC$MASS_SPECTROMETRY: DESOLVATION_GAS_FLOW 800/h
AC$MASS_SPECTROMETRY: DESOLVATION_TEMPERATURE 450 C
AC$MASS_SPECTROMETRY: IONIZATION ESI
AC$CHROMATOGRAPHY: CAPILLARY_VOLTAGE +3.00 kV
AC$CHROMATOGRAPHY: COLUMN_NAME Acquity bridged ethyl hybrid C18 (1.7 um, 2.1 mm * 100 mm, Waters)
AC$CHROMATOGRAPHY: COLUMN_TEMPERATURE 40 C
AC$CHROMATOGRAPHY: FLOW_GRADIENT A/B = (99.5%/0.5% at 0 min, 99.5%/0.5% at 0.1 min, 20%/80% at 10 min, 0.5%/99.5% at 10.1 min, 0.5%/99.5% at 12.0 min, 99.5%/0.5% at 12.1 min, 99.5%/0.5% at 15.0 min)
AC$CHROMATOGRAPHY: FLOW_RATE 0.3 ml/min at 0 min, 0.3 ml/min at 10 min, 0.4 ml/min at 10.1 min, 0.4 ml/min at 14.4 min, 0.3 ml/min at 14.5 min
AC$CHROMATOGRAPHY: RETENTION_TIME 5.14
AC$CHROMATOGRAPHY: SOLVENT A water including 0.1% formic acid
AC$CHROMATOGRAPHY: SOLVENT B acetonitrile including 0.1% formic acid
MS$FOCUSED_ION: PRECURSOR_TYPE [M+H]+
MS$FOCUSED_ION: PRECURSOR_M/Z 475.1292
PK$SPLASH: splash10-00di-0090300000-45e0a78dbd4516693351
PK$NUM_PEAK: 14
PK$PEAK: m/z int. rel.int.
  185.03491 24.0 86
  191.92888 21.0 75
  215.06636 20.0 72
  270.99573 27.0 97
  271.04471 37.0 132
  271.06271 279.0 999
  272.0611 77.0 276
  272.07132 20.0 72
  285.0936 21.0 75
  386.93445 29.0 104
  457.20859 17.0 61
  460.255 17.0 61
  475.11078 69.0 247
  475.12363 104.0 372
//
