ACCESSION: MSBNK-RIKEN-PR300302
RECORD_TITLE: 14,15-Dehydro-16-epi-vincamine; LC-ESI-QTOF; MS2
DATE: 2019.03.28
AUTHORS: Tetsuya Mori, Center for Sustainable Resource Science, RIKEN
LICENSE: CC BY-NC-SA
PUBLICATION: Tsugawa H., Nakabayashi R., Mori T., Yamada Y., Takahashi M., Rai A., Sugiyama R., Yamamoto H., Nakaya T., Yamazaki M., Kooke R., Bac-Molenaar JA., Oztolan-Erol N., Keurentjes JJB., Arita M., Saito K. (2019) "A cheminformatics approach to characterize metabolomes in stable-isotope-labeled organisms" Nature Methods 16(4):295-298. [doi:10.1038/s41592-019-0358-2]
COMMENT: registered in RIKEN PlaSMA
CH$NAME: 14,15-Dehydro-16-epi-vincamine
CH$COMPOUND_CLASS: Eburnan-type alkaloids
CH$FORMULA: C21H24N2O3
CH$EXACT_MASS: 352.434
CH$SMILES: CC[C@]12C[C@](O)(N3C4=CC=CC=C4C4=C3[C@H]1N(CC4)CC=C2)C(=O)OC
CH$IUPAC: InChI=1S/C21H24N2O3/c1-3-20-10-6-11-22-12-9-15-14-7-4-5-8-16(14)23(17(15)18(20)22)21(25,13-20)19(24)26-2/h4-8,10,18,25H,3,9,11-13H2,1-2H3/t18-,20+,21-/m1/s1
CH$LINK: INCHIKEY BQGJXFQCMYJENQ-HLAWJBBLSA-N
AC$INSTRUMENT: LC, Waters Acquity UPLC System; MS, Waters Xevo G2 Q-Tof
AC$INSTRUMENT_TYPE: LC-ESI-QTOF
AC$MASS_SPECTROMETRY: MS_TYPE MS2
AC$MASS_SPECTROMETRY: ION_MODE POSITIVE
AC$MASS_SPECTROMETRY: COLLISION_ENERGY 6V
AC$MASS_SPECTROMETRY: DESOLVATION_GAS_FLOW 800/h
AC$MASS_SPECTROMETRY: DESOLVATION_TEMPERATURE 450 C
AC$MASS_SPECTROMETRY: IONIZATION ESI
AC$CHROMATOGRAPHY: CAPILLARY_VOLTAGE +3.00 kV
AC$CHROMATOGRAPHY: COLUMN_NAME Acquity bridged ethyl hybrid C18 (1.7 um, 2.1 mm * 100 mm, Waters)
AC$CHROMATOGRAPHY: COLUMN_TEMPERATURE 40 C
AC$CHROMATOGRAPHY: FLOW_GRADIENT A/B = (99.5%/0.5% at 0 min, 99.5%/0.5% at 0.1 min, 20%/80% at 10 min, 0.5%/99.5% at 10.1 min, 0.5%/99.5% at 12.0 min, 99.5%/0.5% at 12.1 min, 99.5%/0.5% at 15.0 min)
AC$CHROMATOGRAPHY: FLOW_RATE 0.3 ml/min at 0 min, 0.3 ml/min at 10 min, 0.4 ml/min at 10.1 min, 0.4 ml/min at 14.4 min, 0.3 ml/min at 14.5 min
AC$CHROMATOGRAPHY: RETENTION_TIME 4.255667
AC$CHROMATOGRAPHY: SOLVENT A water including 0.1% formic acid
AC$CHROMATOGRAPHY: SOLVENT B acetonitrile including 0.1% formic acid
MS$FOCUSED_ION: PRECURSOR_TYPE [M+H]+
MS$FOCUSED_ION: PRECURSOR_M/Z 353.1859691
PK$SPLASH: splash10-0006-0982000000-74bf3817cc78fed5912a
PK$NUM_PEAK: 194
PK$PEAK: m/z int. rel.int.
  68.04804 7.0 7
  69.07062 7.0 7
  70.065 8.0 8
  70.06979 6.0 6
  79.05251 9.0 9
  83.04839 6.0 6
  93.06897 14.0 14
  94.06631 19.0 19
  96.0812 35.0 35
  105.07032 5.0 5
  108.08131 13.0 13
  118.06583 7.0 7
  120.07641 15.0 15
  121.07171 7.0 7
  121.08319 8.0 8
  122.09657 8.0 8
  129.07201 7.0 7
  130.06567 26.0 26
  131.07201 9.0 9
  132.0833 5.0 5
  133.06596 12.0 12
  142.07384 6.0 6
  144.04187 6.0 6
  144.08043 1000.0 999
  144.11363 5.0 5
  145.07387 16.0 16
  145.08444 99.0 99
  146.08794 10.0 10
  146.09946 7.0 7
  148.07407 37.0 37
  150.09285 38.0 38
  154.06277 15.0 15
  154.07103 7.0 7
  156.07141 6.0 6
  156.08521 7.0 7
  157.08235 6.0 6
  158.09673 31.0 31
  162.09375 12.0 12
  166.06555 7.0 7
  167.0701 18.0 18
  168.08028 87.0 87
  169.08105 28.0 28
  170.07977 5.0 5
  170.0932 16.0 16
  170.10445 6.0 6
  171.07019 5.0 5
  171.09204 191.0 191
  172.07561 12.0 12
  172.09111 26.0 26
  173.09798 5.0 5
  180.08281 31.0 31
  180.09921 5.0 5
  181.08827 37.0 37
  182.08295 10.0 10
  182.09801 28.0 28
  183.09483 10.0 10
  184.10764 10.0 10
  192.08093 8.0 8
  193.09073 28.0 28
  194.05531 6.0 6
  194.09871 19.0 19
  195.1089 9.0 9
  196.06892 5.0 5
  196.10587 14.0 14
  196.1147 21.0 21
  197.11078 11.0 11
  197.12183 7.0 7
  198.12894 13.0 13
  205.08856 9.0 9
  206.09663 12.0 12
  207.09073 6.0 6
  207.0988 11.0 11
  208.07941 13.0 13
  208.10333 28.0 28
  208.11351 64.0 64
  209.10123 6.0 6
  209.11737 16.0 16
  210.09389 97.0 97
  210.12604 30.0 30
  211.0909 11.0 11
  211.10384 14.0 14
  211.12886 7.0 7
  217.08812 9.0 9
  218.09407 6.0 6
  218.1039 8.0 8
  219.10426 18.0 18
  220.10155 11.0 11
  220.11404 5.0 5
  221.10513 6.0 6
  221.12085 19.0 19
  222.12231 40.0 40
  222.13185 61.0 61
  223.118 23.0 23
  223.12959 21.0 21
  223.13867 13.0 13
  224.10562 6.0 6
  224.13005 15.0 15
  228.09962 48.0 48
  228.11075 20.0 20
  229.09798 9.0 9
  231.1021 9.0 9
  232.1015 8.0 8
  232.11536 23.0 23
  233.11813 10.0 10
  234.13173 11.0 11
  235.10069 11.0 11
  235.13721 10.0 10
  236.09448 7.0 7
  236.10634 12.0 12
  236.13448 10.0 10
  237.09874 6.0 6
  237.11198 8.0 8
  237.13503 7.0 7
  237.14951 6.0 6
  238.11624 17.0 17
  238.1256 18.0 18
  239.09859 19.0 19
  239.12241 6.0 6
  240.09639 17.0 17
  244.10814 10.0 10
  244.12032 11.0 11
  245.11998 8.0 8
  246.11752 15.0 15
  246.12796 57.0 57
  247.09389 5.0 5
  247.13005 44.0 44
  247.13992 47.0 47
  248.11386 12.0 12
  248.14194 31.0 31
  249.13887 15.0 15
  251.14415 7.0 7
  251.15805 27.0 27
  252.10237 140.0 140
  253.10876 31.0 31
  254.11871 11.0 11
  261.13553 6.0 6
  262.08939 6.0 6
  262.12457 5.0 5
  263.09122 9.0 9
  263.11594 10.0 10
  263.13269 5.0 5
  264.12247 13.0 13
  264.13632 35.0 35
  264.14667 15.0 15
  265.12704 7.0 7
  265.14185 16.0 16
  268.13443 59.0 59
  270.11261 58.0 58
  271.12018 12.0 12
  274.11102 7.0 7
  274.12607 20.0 20
  275.13367 5.0 5
  275.14905 6.0 6
  275.16031 14.0 14
  276.10568 10.0 10
  276.16467 18.0 18
  277.09714 9.0 9
  277.11261 42.0 42
  278.1109 15.0 15
  279.12262 8.0 8
  280.1235 8.0 8
  280.13489 20.0 20
  290.10928 10.0 10
  290.12256 9.0 9
  291.10788 13.0 13
  291.12921 14.0 14
  292.11865 5.0 5
  292.12918 6.0 6
  292.14145 9.0 9
  293.16489 74.0 74
  294.15765 17.0 17
  294.17395 12.0 12
  295.12283 5.0 5
  296.13452 6.0 6
  298.13913 13.0 13
  298.15207 13.0 13
  299.14676 7.0 7
  303.1521 7.0 7
  304.13043 10.0 10
  305.12259 21.0 21
  305.13602 17.0 17
  306.14566 136.0 136
  306.16064 26.0 26
  307.15302 21.0 21
  308.15863 11.0 11
  323.13956 14.0 14
  324.13467 7.0 7
  324.16504 28.0 28
  325.16183 6.0 6
  335.16959 45.0 45
  335.18243 40.0 40
  336.1741 18.0 18
  336.19003 11.0 11
  353.18747 133.0 133
//
