ACCESSION: MSBNK-RIKEN-PR300691
RECORD_TITLE: Vincanidine; LC-ESI-QTOF; MS2
DATE: 2019.03.28
AUTHORS: Tetsuya Mori, Center for Sustainable Resource Science, RIKEN
LICENSE: CC BY-NC-SA
PUBLICATION: Tsugawa H., Nakabayashi R., Mori T., Yamada Y., Takahashi M., Rai A., Sugiyama R., Yamamoto H., Nakaya T., Yamazaki M., Kooke R., Bac-Molenaar JA., Oztolan-Erol N., Keurentjes JJB., Arita M., Saito K. (2019) "A cheminformatics approach to characterize metabolomes in stable-isotope-labeled organisms" Nature Methods 16(4):295-298. [doi:10.1038/s41592-019-0358-2]
COMMENT: registered in RIKEN PlaSMA
CH$NAME: Vincanidine
CH$COMPOUND_CLASS: Strychnos alkaloids
CH$FORMULA: C19H20N2O2
CH$EXACT_MASS: 308.381
CH$SMILES: C\C=C1\CN2CC[C@@]34[C@@H]2C[C@@H]1C(C=O)=C3NC1=C4C=CC=C1O
CH$IUPAC: InChI=1S/C19H20N2O2/c1-2-11-9-21-7-6-19-14-4-3-5-15(23)17(14)20-18(19)13(10-22)12(11)8-16(19)21/h2-5,10,12,16,20,23H,6-9H2,1H3/b11-2-/t12-,16-,19+/m0/s1
CH$LINK: INCHIKEY JDOFCMASVRMYJU-JYTRXFNOSA-N
AC$INSTRUMENT: LC, Waters Acquity UPLC System; MS, Waters Xevo G2 Q-Tof
AC$INSTRUMENT_TYPE: LC-ESI-QTOF
AC$MASS_SPECTROMETRY: MS_TYPE MS2
AC$MASS_SPECTROMETRY: ION_MODE POSITIVE
AC$MASS_SPECTROMETRY: COLLISION_ENERGY 6V
AC$MASS_SPECTROMETRY: DESOLVATION_GAS_FLOW 800/h
AC$MASS_SPECTROMETRY: DESOLVATION_TEMPERATURE 450 C
AC$MASS_SPECTROMETRY: IONIZATION ESI
AC$CHROMATOGRAPHY: CAPILLARY_VOLTAGE +3.00 kV
AC$CHROMATOGRAPHY: COLUMN_NAME Acquity bridged ethyl hybrid C18 (1.7 um, 2.1 mm * 100 mm, Waters)
AC$CHROMATOGRAPHY: COLUMN_TEMPERATURE 40 C
AC$CHROMATOGRAPHY: FLOW_GRADIENT A/B = (99.5%/0.5% at 0 min, 99.5%/0.5% at 0.1 min, 20%/80% at 10 min, 0.5%/99.5% at 10.1 min, 0.5%/99.5% at 12.0 min, 99.5%/0.5% at 12.1 min, 99.5%/0.5% at 15.0 min)
AC$CHROMATOGRAPHY: FLOW_RATE 0.3 ml/min at 0 min, 0.3 ml/min at 10 min, 0.4 ml/min at 10.1 min, 0.4 ml/min at 14.4 min, 0.3 ml/min at 14.5 min
AC$CHROMATOGRAPHY: RETENTION_TIME 3.37885
AC$CHROMATOGRAPHY: SOLVENT A water including 0.1% formic acid
AC$CHROMATOGRAPHY: SOLVENT B acetonitrile including 0.1% formic acid
MS$FOCUSED_ION: PRECURSOR_TYPE [M+H]+
MS$FOCUSED_ION: PRECURSOR_M/Z 309.1597543
PK$SPLASH: splash10-0v5a-0950000000-ef1626e546c4b188cfac
PK$NUM_PEAK: 268
PK$PEAK: m/z int. rel.int.
  67.046 56.0 56
  79.05319 54.0 54
  79.29235 48.0 48
  79.45277 40.0 40
  80.04532 29.0 29
  81.04431 29.0 29
  91.04429 38.0 38
  91.05025 27.0 27
  92.05576 40.0 40
  92.06112 72.0 72
  93.05644 35.0 35
  94.06396 110.0 110
  95.05489 48.0 48
  101.03534 40.0 40
  101.78317 27.0 27
  102.03036 45.0 45
  102.03529 30.0 30
  105.05786 29.0 29
  107.03967 43.0 43
  115.04711 72.0 72
  115.05596 243.0 243
  115.06378 30.0 30
  116.05521 77.0 77
  117.05418 27.0 27
  117.06006 45.0 45
  118.06306 29.0 29
  118.07175 40.0 40
  119.06438 109.0 109
  120.0298 46.0 46
  120.09116 51.0 51
  127.04585 72.0 72
  127.05798 126.0 126
  128.04558 66.0 66
  128.06255 29.0 29
  129.05383 53.0 53
  129.06828 59.0 59
  129.07462 136.0 136
  130.0529 34.0 34
  130.06198 221.0 221
  130.07137 144.0 144
  130.86162 37.0 37
  131.04945 29.0 29
  131.0634 74.0 74
  131.07181 29.0 29
  132.50328 46.0 46
  133.0275 32.0 32
  133.04344 75.0 75
  134.04614 29.0 29
  134.90562 32.0 32
  139.04741 82.0 82
  140.04692 51.0 51
  140.20799 35.0 35
  141.06966 58.0 58
  141.07809 38.0 38
  141.69528 29.0 29
  142.06189 117.0 117
  143.06932 46.0 46
  144.05251 43.0 43
  144.08159 50.0 50
  145.05125 34.0 34
  145.08598 32.0 32
  145.97136 53.0 53
  146.05479 120.0 120
  146.06531 232.0 232
  146.62679 59.0 59
  147.06464 107.0 107
  148.0538 32.0 32
  148.08026 53.0 53
  151.05399 270.0 270
  152.04362 40.0 40
  152.05197 170.0 170
  152.06656 101.0 101
  152.07417 37.0 37
  152.24084 27.0 27
  153.05092 38.0 38
  153.0649 27.0 27
  154.06633 523.0 522
  155.07298 168.0 168
  155.08183 48.0 48
  156.06685 34.0 34
  156.07701 34.0 34
  156.08441 85.0 85
  158.0619 101.0 101
  158.72443 42.0 42
  159.06522 189.0 189
  159.07735 88.0 88
  160.06714 30.0 30
  160.07716 78.0 78
  161.07655 69.0 69
  164.05661 38.0 38
  165.06042 30.0 30
  165.07094 168.0 168
  166.06561 264.0 264
  167.06476 288.0 288
  167.07314 595.0 594
  167.09679 35.0 35
  168.05243 27.0 27
  168.06738 40.0 40
  168.07863 120.0 120
  168.08707 94.0 94
  169.06703 32.0 32
  169.08356 166.0 166
  170.04507 96.0 96
  170.06277 373.0 373
  170.08749 53.0 53
  171.04881 48.0 48
  171.06799 192.0 192
  171.10187 40.0 40
  172.05804 77.0 77
  172.06857 27.0 27
  173.06529 45.0 45
  173.07416 37.0 37
  174.05078 54.0 54
  174.07648 38.0 38
  174.10365 27.0 27
  176.05031 30.0 30
  176.06615 106.0 106
  177.06931 46.0 46
  178.06476 45.0 45
  178.07605 75.0 75
  179.07013 64.0 64
  179.09106 78.0 78
  179.9989 29.0 29
  180.07558 227.0 227
  181.05811 82.0 82
  181.0786 37.0 37
  181.08539 38.0 38
  181.09941 59.0 59
  181.11566 48.0 48
  182.06268 32.0 32
  182.07063 59.0 59
  182.08199 86.0 86
  182.10431 58.0 58
  183.06517 482.0 482
  183.07272 438.0 438
  183.10794 32.0 32
  184.0703 160.0 160
  184.08107 133.0 133
  185.05708 30.0 30
  185.07634 166.0 166
  186.04915 30.0 30
  186.57454 34.0 34
  187.08452 109.0 109
  187.1044 32.0 32
  189.06601 42.0 42
  190.05365 86.0 86
  190.07436 142.0 142
  190.84985 50.0 50
  191.06694 139.0 139
  191.08548 150.0 150
  191.09726 38.0 38
  192.06158 32.0 32
  192.07637 341.0 341
  192.08975 256.0 256
  193.06732 35.0 35
  193.07996 142.0 142
  193.0873 75.0 75
  194.06033 62.0 62
  194.09666 237.0 237
  195.08856 35.0 35
  195.09546 35.0 35
  195.10922 72.0 72
  196.05528 35.0 35
  196.07823 1000.0 999
  196.09595 83.0 83
  197.07971 171.0 171
  197.67354 29.0 29
  198.0724 34.0 34
  199.06773 98.0 98
  199.08073 69.0 69
  201.06131 38.0 38
  202.0665 43.0 43
  203.07359 38.0 38
  204.06299 78.0 78
  204.07625 568.0 567
  204.08733 202.0 202
  204.10971 27.0 27
  204.84706 42.0 42
  205.0766 170.0 170
  205.09355 66.0 66
  205.31395 29.0 29
  206.06711 40.0 40
  206.08189 147.0 147
  206.1021 90.0 90
  207.06468 30.0 30
  207.07579 107.0 107
  208.07669 325.0 325
  208.09933 56.0 56
  208.11102 53.0 53
  209.06773 82.0 82
  209.07492 179.0 179
  209.08725 174.0 174
  209.61102 29.0 29
  210.09734 158.0 158
  212.10464 32.0 32
  214.10756 59.0 59
  215.0748 74.0 74
  215.0965 64.0 64
  216.07077 61.0 61
  216.07825 146.0 146
  216.08942 74.0 74
  217.07442 32.0 32
  217.08813 104.0 104
  218.05995 53.0 53
  218.09892 61.0 61
  219.05804 27.0 27
  219.097 72.0 72
  219.10477 74.0 74
  220.06389 182.0 182
  220.07745 477.0 477
  220.08914 307.0 307
  221.03285 38.0 38
  221.08145 139.0 139
  221.09587 133.0 133
  221.98448 27.0 27
  222.05531 67.0 67
  222.07341 168.0 168
  222.0843 290.0 290
  222.72884 27.0 27
  223.09256 158.0 158
  223.10257 117.0 117
  224.10246 32.0 32
  224.12071 34.0 34
  227.05946 29.0 29
  228.08118 75.0 75
  229.08353 34.0 34
  229.11046 27.0 27
  230.06709 32.0 32
  230.08978 112.0 112
  231.09221 85.0 85
  231.09885 35.0 35
  232.08292 75.0 75
  232.09964 53.0 53
  233.08067 115.0 115
  233.09509 174.0 174
  234.08745 320.0 320
  234.0983 168.0 168
  235.08759 181.0 181
  235.10155 64.0 64
  235.14171 54.0 54
  236.07401 190.0 190
  236.10056 109.0 109
  236.11623 53.0 53
  236.15779 27.0 27
  237.09872 53.0 53
  237.11098 162.0 162
  239.11328 38.0 38
  241.09303 61.0 61
  242.06636 32.0 32
  244.07555 34.0 34
  247.07289 34.0 34
  247.09752 118.0 118
  247.10437 45.0 45
  249.0807 48.0 48
  249.11882 64.0 64
  250.08786 45.0 45
  250.10225 64.0 64
  251.05847 46.0 46
  251.11905 128.0 128
  260.08777 67.0 67
  261.09012 34.0 34
  261.10019 38.0 38
  265.14706 29.0 29
  266.11993 30.0 30
  266.13412 91.0 91
  275.121 34.0 34
  279.11694 58.0 58
  279.14066 82.0 82
//
