ACCESSION: MSBNK-RIKEN-PR310522
RECORD_TITLE: Silychrystin; LC-ESI-QTOF; MS2
DATE: 2019.03.28
AUTHORS: Tetsuya Mori, Center for Sustainable Resource Science, RIKEN
LICENSE: CC BY-NC-SA
PUBLICATION: Tsugawa H., Nakabayashi R., Mori T., Yamada Y., Takahashi M., Rai A., Sugiyama R., Yamamoto H., Nakaya T., Yamazaki M., Kooke R., Bac-Molenaar JA., Oztolan-Erol N., Keurentjes JJB., Arita M., Saito K. (2019) "A cheminformatics approach to characterize metabolomes in stable-isotope-labeled organisms" Nature Methods 16(4):295-298. [doi:10.1038/s41592-019-0358-2]
COMMENT: Annotation level-1
CH$NAME: Silychrystin
CH$COMPOUND_CLASS: Arylbenzofuran flavonoids
CH$FORMULA: C25H22O10
CH$EXACT_MASS: 482.441
CH$SMILES: COC1=C(O)C=CC(=C1)C1OC2=C(C=C(C=C2O)C2OC3=C(C(O)=CC(O)=C3)C(=O)C2O)C1CO
CH$IUPAC: InChI=1S/C25H22O10/c1-33-18-6-10(2-3-15(18)28)23-14(9-26)13-4-11(5-17(30)25(13)35-23)24-22(32)21(31)20-16(29)7-12(27)8-19(20)34-24/h2-8,14,22-24,26-30,32H,9H2,1H3
CH$LINK: INCHIKEY BMLIIPOXVWESJG-UHFFFAOYSA-N
AC$INSTRUMENT: LC, Waters Acquity UPLC System; MS, Waters Xevo G2 Q-Tof
AC$INSTRUMENT_TYPE: LC-ESI-QTOF
AC$MASS_SPECTROMETRY: MS_TYPE MS2
AC$MASS_SPECTROMETRY: ION_MODE POSITIVE
AC$MASS_SPECTROMETRY: COLLISION_ENERGY 6V
AC$MASS_SPECTROMETRY: DESOLVATION_GAS_FLOW 800/h
AC$MASS_SPECTROMETRY: DESOLVATION_TEMPERATURE 450 C
AC$MASS_SPECTROMETRY: IONIZATION ESI
AC$CHROMATOGRAPHY: CAPILLARY_VOLTAGE +3.00 kV
AC$CHROMATOGRAPHY: COLUMN_NAME Acquity bridged ethyl hybrid C18 (1.7 um, 2.1 mm * 100 mm, Waters)
AC$CHROMATOGRAPHY: COLUMN_TEMPERATURE 40 C
AC$CHROMATOGRAPHY: FLOW_GRADIENT A/B = (99.5%/0.5% at 0 min, 99.5%/0.5% at 0.1 min, 20%/80% at 10 min, 0.5%/99.5% at 10.1 min, 0.5%/99.5% at 12.0 min, 99.5%/0.5% at 12.1 min, 99.5%/0.5% at 15.0 min)
AC$CHROMATOGRAPHY: FLOW_RATE 0.3 ml/min at 0 min, 0.3 ml/min at 10 min, 0.4 ml/min at 10.1 min, 0.4 ml/min at 14.4 min, 0.3 ml/min at 14.5 min
AC$CHROMATOGRAPHY: RETENTION_TIME 4.96
AC$CHROMATOGRAPHY: SOLVENT A water including 0.1% formic acid
AC$CHROMATOGRAPHY: SOLVENT B acetonitrile including 0.1% formic acid
MS$FOCUSED_ION: PRECURSOR_TYPE [M+H]+
MS$FOCUSED_ION: PRECURSOR_M/Z 483.12857
PK$SPLASH: splash10-0udr-0431900000-b3bbca043dd98c90d088
PK$NUM_PEAK: 221
PK$PEAK: m/z int. rel.int.
  97.04353 21.0 13
  111.04367 37.0 23
  113.02506 17.0 10
  121.06479 27.0 17
  123.0435 66.0 40
  131.04884 57.0 35
  135.04308 71.0 44
  135.0502 24.0 15
  137.0464 42.0 26
  137.05965 637.0 391
  138.06212 83.0 51
  147.05113 20.0 12
  148.99886 18.0 11
  149.0125 21.0 13
  149.02074 45.0 28
  149.02971 41.0 25
  149.05382 45.0 28
  150.06853 18.0 11
  152.99994 47.0 29
  153.0152 460.0 282
  153.02298 365.0 224
  154.02461 52.0 32
  155.03278 21.0 13
  157.02657 21.0 13
  161.06601 36.0 22
  165.01859 19.0 12
  165.07106 17.0 10
  166.05212 24.0 15
  167.03345 143.0 88
  167.08253 21.0 13
  168.03409 20.0 12
  168.0504 20.0 12
  175.04517 21.0 13
  181.86874 18.0 11
  183.0787 17.0 10
  187.04874 26.0 16
  192.03862 25.0 15
  193.0656 17.0 10
  194.07599 21.0 13
  195.02837 226.0 139
  195.07991 50.0 31
  196.03685 25.0 15
  197.0508 36.0 22
  202.08195 20.0 12
  203.03964 28.0 17
  204.03511 18.0 11
  209.05997 67.0 41
  210.05429 22.0 14
  210.07217 17.0 10
  211.07901 54.0 33
  221.04951 20.0 12
  222.05731 30.0 18
  223.08299 17.0 10
  224.08978 23.0 14
  225.08461 55.0 34
  226.06055 17.0 10
  226.09312 20.0 12
  229.05098 56.0 34
  229.08896 17.0 10
  237.02136 18.0 11
  237.04564 21.0 13
  237.07393 25.0 15
  237.08893 21.0 13
  238.07472 27.0 17
  239.06932 60.0 37
  243.07506 18.0 11
  249.06561 22.0 14
  250.04907 35.0 21
  251.07172 65.0 40
  252.07405 41.0 25
  253.07767 32.0 20
  253.08716 18.0 11
  255.04973 19.0 12
  255.06212 29.0 18
  255.07515 18.0 11
  256.06564 20.0 12
  256.07703 17.0 10
  257.03006 23.0 14
  257.04749 19.0 12
  257.05704 17.0 10
  258.05939 26.0 16
  258.08417 18.0 11
  258.09601 40.0 25
  258.1062 22.0 14
  259.0358 17.0 10
  259.09717 103.0 63
  260.09396 20.0 12
  261.04819 23.0 14
  264.07605 17.0 10
  265.04483 42.0 26
  265.07724 23.0 14
  267.07117 20.0 12
  269.08444 35.0 21
  270.08951 101.0 62
  271.0661 18.0 11
  271.09418 101.0 62
  272.09814 29.0 18
  272.1163 40.0 25
  273.10342 20.0 12
  277.04678 47.0 29
  278.06711 17.0 10
  278.30338 18.0 11
  279.0607 55.0 34
  279.0788 21.0 13
  280.07654 30.0 18
  281.05295 18.0 11
  281.07452 23.0 14
  281.0918 17.0 10
  282.07993 37.0 23
  282.09439 17.0 10
  283.05563 46.0 28
  283.08331 20.0 12
  283.09619 18.0 11
  284.05502 20.0 12
  284.08185 18.0 11
  285.04382 20.0 12
  287.10226 18.0 11
  293.07614 18.0 11
  293.60614 17.0 10
  294.05972 18.0 11
  295.08093 17.0 10
  295.09131 19.0 12
  296.05338 48.0 29
  297.09659 20.0 12
  297.116 17.0 10
  299.07333 35.0 21
  300.06671 24.0 15
  301.07959 24.0 15
  303.07462 20.0 12
  305.07687 21.0 13
  307.05988 37.0 23
  307.07031 23.0 14
  309.07373 82.0 50
  311.04825 61.0 37
  311.06381 38.0 23
  313.06662 17.0 10
  313.08078 64.0 39
  316.09 20.0 12
  318.04291 20.0 12
  323.06207 23.0 14
  323.08304 21.0 13
  327.08667 58.0 36
  328.08014 22.0 14
  328.09439 20.0 12
  329.04843 23.0 14
  330.08466 17.0 10
  331.04062 17.0 10
  341.06253 35.0 21
  343.09598 17.0 10
  347.07822 29.0 18
  347.10242 20.0 12
  351.05576 17.0 10
  351.0932 18.0 11
  357.06998 19.0 12
  357.08209 25.0 15
  358.06732 18.0 11
  359.06625 32.0 20
  359.08374 27.0 17
  372.69269 17.0 10
  374.12842 17.0 10
  375.08942 39.0 24
  375.1264 43.0 26
  379.10278 43.0 26
  379.11838 44.0 27
  380.13666 35.0 21
  383.71191 20.0 12
  387.07819 17.0 10
  388.11465 21.0 13
  390.10529 47.0 29
  391.10263 23.0 14
  391.11481 34.0 21
  403.05283 18.0 11
  403.07132 18.0 11
  405.09406 17.0 10
  407.03638 17.0 10
  407.0946 122.0 75
  407.12186 150.0 92
  408.10403 19.0 12
  408.1225 121.0 74
  409.1167 18.0 11
  409.13113 18.0 11
  417.08188 80.0 49
  418.09644 17.0 10
  418.11261 20.0 12
  419.1041 23.0 14
  419.12592 19.0 12
  421.10974 17.0 10
  423.09534 27.0 17
  433.09399 34.0 21
  435.10358 678.0 416
  435.11826 401.0 246
  435.15024 22.0 14
  436.09372 21.0 13
  436.11072 121.0 74
  436.17453 34.0 21
  437.07059 20.0 12
  437.10046 36.0 22
  437.12308 138.0 85
  441.14212 17.0 10
  447.09534 73.0 45
  447.11224 79.0 48
  448.09314 33.0 20
  448.12042 21.0 13
  452.09573 17.0 10
  452.12317 53.0 33
  453.06543 18.0 11
  453.08249 18.0 11
  453.11838 1628.0 999
  454.08527 53.0 33
  454.12051 592.0 363
  455.10571 18.0 11
  455.13736 39.0 24
  462.4415 25.0 15
  462.91064 19.0 12
  464.10336 21.0 13
  464.1301 37.0 23
  465.11472 80.0 49
  482.12738 18.0 11
  483.07715 65.0 40
  483.12964 727.0 446
  483.20486 17.0 10
//
