ACCESSION: MSBNK-RIKEN-PR304327
RECORD_TITLE: Licoricesaponin G2; LC-ESI-QTOF; MS2
DATE: 2019.03.28
AUTHORS: Tetsuya Mori, Center for Sustainable Resource Science, RIKEN
LICENSE: CC BY-NC-SA
PUBLICATION: Tsugawa H., Nakabayashi R., Mori T., Yamada Y., Takahashi M., Rai A., Sugiyama R., Yamamoto H., Nakaya T., Yamazaki M., Kooke R., Bac-Molenaar JA., Oztolan-Erol N., Keurentjes JJB., Arita M., Saito K. (2019) "A cheminformatics approach to characterize metabolomes in stable-isotope-labeled organisms" Nature Methods 16(4):295-298. [doi:10.1038/s41592-019-0358-2]
COMMENT: registered in RIKEN PlaSMA
CH$NAME: Licoricesaponin G2
CH$COMPOUND_CLASS: Triterpene saponins
CH$FORMULA: C42H62O17
CH$EXACT_MASS: 838.941
CH$SMILES: C[C@]12CC[C@@](C)(C[C@H]1C1=CC(=O)[C@@H]3[C@@]4(C)CC[C@H](O[C@@H]5O[C@@H]([C@@H](O)[C@H](O)[C@H]5O[C@@H]5O[C@@H]([C@@H](O)[C@H](O)[C@H]5O)C(O)=O)C(O)=O)[C@](C)(CO)[C@@H]4CC[C@@]3(C)[C@]1(C)CC2)C(O)=O
CH$IUPAC: InChI=1S/C42H62O17/c1-37-11-12-38(2,36(54)55)16-19(37)18-15-20(44)31-39(3)9-8-22(40(4,17-43)21(39)7-10-42(31,6)41(18,5)14-13-37)56-35-30(26(48)25(47)29(58-35)33(52)53)59-34-27(49)23(45)24(46)28(57-34)32(50)51/h15,19,21-31,34-35,43,45-49H,7-14,16-17H2,1-6H3,(H,50,51)(H,52,53)(H,54,55)/t19-,21+,22-,23-,24-,25-,26-,27+,28-,29-,30+,31+,34-,35+,37+,38-,39-,40+,41+,42+/m0/s1
CH$LINK: INCHIKEY WBQVRPYEEYUEBQ-OJVDLISWSA-N
AC$INSTRUMENT: LC, Waters Acquity UPLC System; MS, Waters Xevo G2 Q-Tof
AC$INSTRUMENT_TYPE: LC-ESI-QTOF
AC$MASS_SPECTROMETRY: MS_TYPE MS2
AC$MASS_SPECTROMETRY: ION_MODE POSITIVE
AC$MASS_SPECTROMETRY: COLLISION_ENERGY 6V
AC$MASS_SPECTROMETRY: DESOLVATION_GAS_FLOW 800/h
AC$MASS_SPECTROMETRY: DESOLVATION_TEMPERATURE 450 C
AC$MASS_SPECTROMETRY: IONIZATION ESI
AC$CHROMATOGRAPHY: CAPILLARY_VOLTAGE +3.00 kV
AC$CHROMATOGRAPHY: COLUMN_NAME Acquity bridged ethyl hybrid C18 (1.7 um, 2.1 mm * 100 mm, Waters)
AC$CHROMATOGRAPHY: COLUMN_TEMPERATURE 40 C
AC$CHROMATOGRAPHY: FLOW_GRADIENT A/B = (99.5%/0.5% at 0 min, 99.5%/0.5% at 0.1 min, 20%/80% at 10 min, 0.5%/99.5% at 10.1 min, 0.5%/99.5% at 12.0 min, 99.5%/0.5% at 12.1 min, 99.5%/0.5% at 15.0 min)
AC$CHROMATOGRAPHY: FLOW_RATE 0.3 ml/min at 0 min, 0.3 ml/min at 10 min, 0.4 ml/min at 10.1 min, 0.4 ml/min at 14.4 min, 0.3 ml/min at 14.5 min
AC$CHROMATOGRAPHY: RETENTION_TIME 6.355767
AC$CHROMATOGRAPHY: SOLVENT A water including 0.1% formic acid
AC$CHROMATOGRAPHY: SOLVENT B acetonitrile including 0.1% formic acid
MS$FOCUSED_ION: PRECURSOR_TYPE [M+H]+
MS$FOCUSED_ION: PRECURSOR_M/Z 839.405977
PK$SPLASH: splash10-014r-0431900000-189f67b41c2ce31a313b
PK$NUM_PEAK: 236
PK$PEAK: m/z int. rel.int.
  81.0694 20.0 20
  85.02522 21.0 21
  85.032 20.0 20
  89.02531 6.0 6
  93.07167 19.0 19
  95.08592 25.0 25
  97.0631 6.0 6
  101.02457 8.0 8
  103.03908 7.0 7
  105.07053 10.0 10
  107.07907 11.0 11
  107.08449 27.0 27
  109.09801 20.0 20
  111.08694 5.0 5
  113.02338 13.0 13
  119.08108 17.0 17
  119.08784 30.0 30
  121.10221 50.0 50
  122.10616 6.0 6
  123.0077 7.0 7
  123.07581 6.0 6
  123.11428 9.0 9
  123.12126 9.0 9
  125.09576 8.0 8
  129.94214 5.0 5
  131.03217 14.0 14
  131.03902 6.0 6
  131.08589 15.0 15
  133.09645 24.0 24
  133.10687 8.0 8
  135.03954 6.0 6
  135.08195 33.0 33
  135.10025 9.0 9
  135.11566 59.0 59
  136.12109 13.0 13
  140.99672 5.0 5
  141.00397 15.0 15
  141.01999 300.0 300
  142.01897 14.0 14
  142.02528 10.0 10
  142.09752 8.0 8
  143.0921 9.0 9
  145.10255 20.0 20
  146.10583 12.0 12
  147.08214 5.0 5
  147.11813 47.0 47
  149.09576 12.0 12
  149.12106 14.0 14
  149.13368 47.0 47
  157.09619 20.0 20
  157.10239 13.0 13
  159.00606 7.0 7
  159.02773 88.0 88
  159.03658 32.0 32
  159.11449 25.0 25
  160.11528 9.0 9
  160.12282 7.0 7
  161.13002 31.0 31
  161.13725 10.0 10
  163.11101 14.0 14
  163.14655 58.0 58
  165.12376 11.0 11
  169.13057 9.0 9
  171.11478 7.0 7
  171.12396 7.0 7
  173.12962 57.0 57
  175.1088 12.0 12
  175.11783 7.0 7
  175.14748 87.0 87
  176.15372 10.0 10
  177.04095 11.0 11
  177.13152 8.0 8
  177.1653 17.0 17
  178.04291 6.0 6
  187.14966 38.0 38
  189.12164 7.0 7
  189.14061 9.0 9
  189.16716 105.0 105
  192.14589 7.0 7
  197.12613 8.0 8
  197.13992 11.0 11
  199.14906 35.0 35
  200.15468 10.0 10
  201.168 20.0 20
  202.17412 7.0 7
  203.14516 22.0 22
  205.12973 9.0 9
  205.15311 20.0 20
  205.16222 38.0 38
  206.16051 7.0 7
  206.91826 6.0 6
  207.142 8.0 8
  207.16368 8.0 8
  211.14589 8.0 8
  211.15489 13.0 13
  213.15553 11.0 11
  215.13373 12.0 12
  215.14633 25.0 25
  215.17769 10.0 10
  216.15155 16.0 16
  217.15976 109.0 109
  217.18661 7.0 7
  218.16275 27.0 27
  219.16527 7.0 7
  221.1586 14.0 14
  225.16342 10.0 10
  227.10428 12.0 12
  227.17474 22.0 22
  227.18896 12.0 12
  227.20845 5.0 5
  229.16081 18.0 18
  229.19839 10.0 10
  233.15558 52.0 52
  233.16725 13.0 13
  235.16968 91.0 91
  236.17613 8.0 8
  239.18031 33.0 33
  241.19444 49.0 49
  241.21591 6.0 6
  245.15439 7.0 7
  245.1913 12.0 12
  249.14896 20.0 20
  251.1868 14.0 14
  253.19547 14.0 14
  255.15912 5.0 5
  259.15982 12.0 12
  259.20282 13.0 13
  261.14484 9.0 9
  261.18488 12.0 12
  263.12686 18.0 18
  263.16107 24.0 24
  265.18637 8.0 8
  265.19672 8.0 8
  265.21225 9.0 9
  269.18628 11.0 11
  271.2041 28.0 28
  273.19699 11.0 11
  275.16272 19.0 19
  275.19186 9.0 9
  275.2012 7.0 7
  279.10574 5.0 5
  279.22162 6.0 6
  283.18585 7.0 7
  283.20581 30.0 30
  283.22794 7.0 7
  284.20615 8.0 8
  285.22116 17.0 17
  287.2049 20.0 20
  289.17422 7.0 7
  291.20322 10.0 10
  295.1604 6.0 6
  299.19586 26.0 26
  299.2435 5.0 5
  301.2182 12.0 12
  303.18921 6.0 6
  303.20456 28.0 28
  309.22781 10.0 10
  311.25305 10.0 10
  315.19257 14.0 14
  315.23367 14.0 14
  317.21658 59.0 59
  318.21219 7.0 7
  318.23074 7.0 7
  323.23715 7.0 7
  329.21954 9.0 9
  331.2337 9.0 9
  339.22855 18.0 18
  343.22992 7.0 7
  349.25784 10.0 10
  351.23959 10.0 10
  353.24777 7.0 7
  355.20242 6.0 6
  357.2478 8.0 8
  359.25671 8.0 8
  365.2742 16.0 16
  371.26215 15.0 15
  375.31454 10.0 10
  377.32681 11.0 11
  387.29987 32.0 32
  388.31665 7.0 7
  393.26733 8.0 8
  393.28934 12.0 12
  393.30496 32.0 32
  393.32169 17.0 17
  394.28488 7.0 7
  395.2677 11.0 11
  395.32071 14.0 14
  405.31506 103.0 103
  405.34653 19.0 19
  406.31143 39.0 39
  406.33011 8.0 8
  409.27591 13.0 13
  410.28519 7.0 7
  411.28726 25.0 25
  412.28943 17.0 17
  421.3064 8.0 8
  422.31033 7.0 7
  423.31348 43.0 43
  423.3353 59.0 59
  424.31741 11.0 11
  424.32932 24.0 24
  425.34293 7.0 7
  433.27188 9.0 9
  433.31567 88.0 88
  434.30301 16.0 16
  434.32465 19.0 19
  435.32083 7.0 7
  439.29526 17.0 17
  439.32443 126.0 126
  440.31427 49.0 49
  440.33707 12.0 12
  441.32538 21.0 21
  451.27448 11.0 11
  451.32242 352.0 352
  452.2923 12.0 12
  452.31973 41.0 41
  452.33524 73.0 73
  453.33881 11.0 11
  469.26022 7.0 7
  469.2735 8.0 8
  469.29294 11.0 11
  469.33078 1000.0 999
  470.29364 7.0 7
  470.33514 300.0 300
  471.33344 40.0 40
  471.35999 12.0 12
  472.35504 6.0 6
  487.29303 16.0 16
  487.34167 468.0 468
  487.38226 7.0 7
  488.31445 12.0 12
  488.34207 128.0 128
  488.35693 62.0 62
  489.34824 31.0 31
  609.31842 7.0 7
  839.41486 7.0 7
//
