ACCESSION: MSBNK-RIKEN-PR100946
RECORD_TITLE: Kaempferol-3-O-beta-D-galactoside-7-O-alpha-L-rhamnoside; LC-ESI-QTOF; MS2; CE:Ramp 5-60 V; [M-H]-
DATE: 2016.01.19 (Created 2010.06.21, modified 2011.05.06)
AUTHORS: Matsuda F, Suzuki M, Sawada Y, Plant Science Center, RIKEN.
LICENSE: CC BY-SA
COMMENT: Acquisition and generation of the data is financially supported in part by CREST/JST.
CH$NAME: Kaempferol-3-O-beta-D-galactoside-7-O-alpha-L-rhamnoside
CH$NAME: Kaem-3-Gal-7-Rha
CH$NAME: Kaempferol-3-galactoside-7-rhamnoside
CH$COMPOUND_CLASS: Flavonoid
CH$FORMULA: C27H30O15
CH$EXACT_MASS: 594.15847
CH$SMILES: C(C1O)(C)OC(Oc(c5)cc(O2)c(c5O)C(C(OC(O4)C(C(C(C4CO)O)O)O)=C(c(c3)ccc(O)c3)2)=O)C(C1O)O
CH$IUPAC: InChI=1S/C27H30O15/c1-9-17(31)20(34)22(36)26(38-9)39-12-6-13(30)16-14(7-12)40-24(10-2-4-11(29)5-3-10)25(19(16)33)42-27-23(37)21(35)18(32)15(8-28)41-27/h2-7,9,15,17-18,20-23,26-32,34-37H,8H2,1H3/t9-,15+,17-,18-,20+,21-,22+,23+,26-,27-/m0/s1
CH$LINK: CAS 38784-79-1
CH$LINK: KNAPSACK C00005178
CH$LINK: INCHIKEY JYXSWDCPHRTYGU-VYARGGPUSA-N
AC$INSTRUMENT: UPLC Q-Tof Premier, Waters
AC$INSTRUMENT_TYPE: LC-ESI-QTOF
AC$MASS_SPECTROMETRY: MS_TYPE MS2
AC$MASS_SPECTROMETRY: ION_MODE NEGATIVE
AC$MASS_SPECTROMETRY: COLLISION_ENERGY Ramp 5-60 V
AC$MASS_SPECTROMETRY: DATAFORMAT Continuum
AC$MASS_SPECTROMETRY: DESOLVATION_GAS_FLOW 600.0 L/Hr
AC$MASS_SPECTROMETRY: DESOLVATION_TEMPERATURE 400 C
AC$MASS_SPECTROMETRY: FRAGMENTATION_METHOD LOW-ENERGY CID
AC$MASS_SPECTROMETRY: IONIZATION ESI
AC$MASS_SPECTROMETRY: SOURCE_TEMPERATURE 120 C
AC$CHROMATOGRAPHY: CAPILLARY_VOLTAGE 3.0 kV
AC$CHROMATOGRAPHY: SAMPLING_CONE 23.0 V
AC$CHROMATOGRAPHY: SOLVENT A CH3CN(0.1%HCOOH)
AC$CHROMATOGRAPHY: SOLVENT B H2O(0.1%HCOOH)
MS$FOCUSED_ION: PRECURSOR_M/Z 593.15064
MS$FOCUSED_ION: PRECURSOR_TYPE [M-H]-
PK$SPLASH: splash10-001l-0090440000-58fcf1f063c5304ba5c5
PK$NUM_PEAK: 13
PK$PEAK: m/z int. rel.int.
  227.0365 373.7 64
  255.0308 1967 338
  256.0370 303.2 52
  283.0258 5812 999
  284.0338 1600 275
  285.0428 3127 537
  286.0473 348.3 60
  430.0934 2339 402
  431.1008 871.1 150
  447.0956 3590 617
  448.1012 521 90
  593.1506 5209 895
  594.1625 1062 183
//
