ACCESSION: MSBNK-RIKEN-PR310594
RECORD_TITLE: Papaverine; LC-ESI-QTOF; MS2
DATE: 2019.03.28
AUTHORS: Tetsuya Mori, Center for Sustainable Resource Science, RIKEN
LICENSE: CC BY-NC-SA
PUBLICATION: Tsugawa H., Nakabayashi R., Mori T., Yamada Y., Takahashi M., Rai A., Sugiyama R., Yamamoto H., Nakaya T., Yamazaki M., Kooke R., Bac-Molenaar JA., Oztolan-Erol N., Keurentjes JJB., Arita M., Saito K. (2019) "A cheminformatics approach to characterize metabolomes in stable-isotope-labeled organisms" Nature Methods 16(4):295-298. [doi:10.1038/s41592-019-0358-2]
COMMENT: Annotation level-1
CH$NAME: Papaverine
CH$COMPOUND_CLASS: Alkaloids
CH$FORMULA: C20H21NO4
CH$EXACT_MASS: 339.391
CH$SMILES: COC1=CC=C(CC2=NC=CC3=CC(OC)=C(OC)C=C23)C=C1OC
CH$IUPAC: InChI=1S/C20H21NO4/c1-22-17-6-5-13(10-18(17)23-2)9-16-15-12-20(25-4)19(24-3)11-14(15)7-8-21-16/h5-8,10-12H,9H2,1-4H3
CH$LINK: INCHIKEY XQYZDYMELSJDRZ-UHFFFAOYSA-N
AC$INSTRUMENT: LC, Waters Acquity UPLC System; MS, Waters Xevo G2 Q-Tof
AC$INSTRUMENT_TYPE: LC-ESI-QTOF
AC$MASS_SPECTROMETRY: MS_TYPE MS2
AC$MASS_SPECTROMETRY: ION_MODE POSITIVE
AC$MASS_SPECTROMETRY: COLLISION_ENERGY 6V
AC$MASS_SPECTROMETRY: DESOLVATION_GAS_FLOW 800/h
AC$MASS_SPECTROMETRY: DESOLVATION_TEMPERATURE 450 C
AC$MASS_SPECTROMETRY: IONIZATION ESI
AC$CHROMATOGRAPHY: CAPILLARY_VOLTAGE +3.00 kV
AC$CHROMATOGRAPHY: COLUMN_NAME Acquity bridged ethyl hybrid C18 (1.7 um, 2.1 mm * 100 mm, Waters)
AC$CHROMATOGRAPHY: COLUMN_TEMPERATURE 40 C
AC$CHROMATOGRAPHY: FLOW_GRADIENT A/B = (99.5%/0.5% at 0 min, 99.5%/0.5% at 0.1 min, 20%/80% at 10 min, 0.5%/99.5% at 10.1 min, 0.5%/99.5% at 12.0 min, 99.5%/0.5% at 12.1 min, 99.5%/0.5% at 15.0 min)
AC$CHROMATOGRAPHY: FLOW_RATE 0.3 ml/min at 0 min, 0.3 ml/min at 10 min, 0.4 ml/min at 10.1 min, 0.4 ml/min at 14.4 min, 0.3 ml/min at 14.5 min
AC$CHROMATOGRAPHY: RETENTION_TIME 4.49
AC$CHROMATOGRAPHY: SOLVENT A water including 0.1% formic acid
AC$CHROMATOGRAPHY: SOLVENT B acetonitrile including 0.1% formic acid
MS$FOCUSED_ION: PRECURSOR_TYPE [M+H]+
MS$FOCUSED_ION: PRECURSOR_M/Z 340.15433
PK$SPLASH: splash10-0006-0129000000-00e0a83cd55ba34cca45
PK$NUM_PEAK: 503
PK$PEAK: m/z int. rel.int.
  71.90758 24.0 0
  75.03912 25.0 0
  91.05379 52.0 1
  95.03867 17.0 0
  95.04929 110.0 1
  95.0556 17.0 0
  97.71223 19.0 0
  101.60741 27.0 0
  103.05929 37.0 0
  106.91759 27.0 0
  107.0491 23.0 0
  107.05384 17.0 0
  107.36626 20.0 0
  108.05724 78.0 1
  114.05094 18.0 0
  115.04139 17.0 0
  115.05315 126.0 2
  116.05093 24.0 0
  117.07026 25.0 0
  117.07616 21.0 0
  119.0726 25.0 0
  121.06008 34.0 0
  121.06852 57.0 1
  122.03597 21.0 0
  122.06683 26.0 0
  123.03203 82.0 1
  123.04227 355.0 5
  123.05082 164.0 2
  124.0498 69.0 1
  124.05832 25.0 0
  127.03677 21.0 0
  128.03494 25.0 0
  128.047 134.0 2
  128.06525 36.0 0
  129.62714 20.0 0
  129.68414 23.0 0
  129.87766 17.0 0
  130.03156 47.0 1
  130.04434 20.0 0
  130.06046 21.0 0
  130.06848 115.0 2
  131.04747 161.0 2
  131.05551 30.0 0
  131.06477 35.0 0
  131.07204 39.0 1
  131.07925 52.0 1
  131.47537 20.0 0
  132.05966 43.0 1
  133.0322 25.0 0
  133.06148 19.0 0
  133.0687 65.0 1
  135.04802 40.0 1
  136.05528 67.0 1
  136.72928 28.0 0
  137.0578 92.0 1
  139.07112 17.0 0
  140.04533 17.0 0
  141.05637 134.0 2
  141.06866 57.0 1
  142.04535 37.0 0
  142.05257 20.0 0
  142.06432 162.0 2
  142.07033 171.0 2
  142.8853 21.0 0
  143.06152 22.0 0
  143.07121 25.0 0
  143.07825 64.0 1
  144.04472 17.0 0
  144.06194 26.0 0
  144.07669 25.0 0
  145.05704 20.0 0
  145.06456 54.0 1
  145.0713 18.0 0
  146.0334 17.0 0
  146.06059 141.0 2
  146.07169 50.0 1
  146.82097 17.0 0
  147.0439 20.0 0
  147.07664 84.0 1
  148.05235 338.0 4
  149.06085 74.0 1
  151.07709 105.0 1
  151.08351 30.0 0
  152.08061 53.0 1
  154.07355 17.0 0
  155.02924 37.0 0
  155.04108 27.0 0
  155.07349 30.0 0
  155.99226 29.0 0
  156.00487 19.0 0
  156.0134 47.0 1
  156.04459 365.0 5
  156.08174 22.0 0
  157.04468 69.0 1
  157.05313 81.0 1
  157.06311 27.0 0
  157.08684 73.0 1
  157.66226 27.0 0
  158.06056 547.0 7
  158.1028 36.0 0
  158.55038 20.0 0
  159.02501 19.0 0
  159.06723 408.0 5
  159.09734 21.0 0
  159.99144 20.0 0
  160.04796 83.0 1
  160.05812 46.0 1
  160.06624 57.0 1
  160.07674 45.0 1
  160.08488 54.0 1
  160.15999 20.0 0
  161.04971 23.0 0
  161.05992 68.0 1
  161.58211 17.0 0
  161.97385 26.0 0
  162.058 38.0 0
  162.0681 89.0 1
  162.37262 24.0 0
  166.82361 21.0 0
  170.06026 576.0 8
  170.8221 17.0 0
  170.91328 20.0 0
  171.04187 99.0 1
  171.06789 5219.0 69
  171.1712 24.0 0
  171.20222 19.0 0
  171.46179 20.0 0
  172.03038 19.0 0
  172.03828 63.0 1
  172.04712 116.0 2
  172.07179 1549.0 20
  172.27988 21.0 0
  173.05452 17.0 0
  173.06738 38.0 0
  173.08098 76.0 1
  173.10559 17.0 0
  174.05289 95.0 1
  174.06773 83.0 1
  174.09085 59.0 1
  175.06609 75.0 1
  175.07188 183.0 2
  175.08029 337.0 4
  175.09532 26.0 0
  175.94391 35.0 0
  176.06548 39.0 1
  176.07375 43.0 1
  177.07146 18.0 0
  177.48901 20.0 0
  183.0799 27.0 0
  184.07326 18.0 0
  185.61943 19.0 0
  186.01514 19.0 0
  186.02371 32.0 0
  186.05731 1026.0 13
  187.01309 19.0 0
  187.03807 33.0 0
  187.04985 134.0 2
  187.06125 910.0 12
  187.7469 33.0 0
  187.77196 17.0 0
  188.04419 17.0 0
  188.06015 123.0 2
  188.06946 410.0 5
  188.08913 20.0 0
  189.07672 303.0 4
  190.07452 27.0 0
  190.08282 49.0 1
  190.72136 18.0 0
  191.0826 20.0 0
  192.08382 28.0 0
  192.9411 28.0 0
  193.06676 30.0 0
  194.09793 30.0 0
  194.36858 18.0 0
  194.55348 28.0 0
  194.98238 21.0 0
  195.06589 24.0 0
  195.90002 20.0 0
  196.07903 20.0 0
  197.45534 17.0 0
  200.06316 17.0 0
  200.07314 35.0 0
  200.6889 25.0 0
  201.03389 30.0 0
  201.64349 23.0 0
  201.78288 38.0 0
  202.02451 41.0 1
  202.03448 42.0 1
  202.04564 84.0 1
  202.0571 101.0 1
  202.08591 15554.0 204
  202.13071 114.0 1
  202.28548 18.0 0
  203.02614 17.0 0
  203.06461 57.0 1
  203.09048 2922.0 38
  203.13773 18.0 0
  203.4841 17.0 0
  204.08969 239.0 3
  204.10368 105.0 1
  204.28186 17.0 0
  204.44472 18.0 0
  205.09875 34.0 0
  207.56549 18.0 0
  207.80719 18.0 0
  207.88921 19.0 0
  208.06128 25.0 0
  208.07704 53.0 1
  208.08586 47.0 1
  208.95702 20.0 0
  209.0719 35.0 0
  209.08823 20.0 0
  210.09056 62.0 1
  210.10187 17.0 0
  211.07855 31.0 0
  211.1292 22.0 0
  212.06357 20.0 0
  212.38588 17.0 0
  214.88629 19.0 0
  215.39931 17.0 0
  215.91167 20.0 0
  216.73764 20.0 0
  217.08151 17.0 0
  217.23836 21.0 0
  217.69379 19.0 0
  218.07729 19.0 0
  218.09137 33.0 0
  218.1026 23.0 0
  219.58267 21.0 0
  219.77365 18.0 0
  220.05981 26.0 0
  220.07257 139.0 2
  220.14294 17.0 0
  220.19247 18.0 0
  220.81168 19.0 0
  221.11113 24.0 0
  221.40184 19.0 0
  221.64627 27.0 0
  221.90138 17.0 0
  222.0699 37.0 0
  222.09064 17.0 0
  223.08261 24.0 0
  223.09665 44.0 1
  223.66594 18.0 0
  223.81351 19.0 0
  224.10587 41.0 1
  224.16663 21.0 0
  224.96632 19.0 0
  225.08199 18.0 0
  225.98706 18.0 0
  226.32085 21.0 0
  227.08615 38.0 0
  227.10098 19.0 0
  227.13811 19.0 0
  230.70779 17.0 0
  230.96153 20.0 0
  232.10217 35.0 0
  232.50606 37.0 0
  233.07928 21.0 0
  233.10406 19.0 0
  233.5602 17.0 0
  234.08847 128.0 2
  234.21214 18.0 0
  235.06589 20.0 0
  235.08293 20.0 0
  235.10246 82.0 1
  236.06718 20.0 0
  236.0843 39.0 1
  236.1078 153.0 2
  236.28008 32.0 0
  236.28923 20.0 0
  236.76736 17.0 0
  237.06508 24.0 0
  237.07336 22.0 0
  237.11064 17.0 0
  237.82976 27.0 0
  238.08194 44.0 1
  238.09421 32.0 0
  238.18007 17.0 0
  238.38962 25.0 0
  238.73003 20.0 0
  238.79306 19.0 0
  239.08412 30.0 0
  239.10384 18.0 0
  239.93605 30.0 0
  240.0968 102.0 1
  240.10742 27.0 0
  241.10048 21.0 0
  241.11876 18.0 0
  245.2382 21.0 0
  248.05795 31.0 0
  248.11072 137.0 2
  248.21292 18.0 0
  249.07663 19.0 0
  249.11772 160.0 2
  250.04913 23.0 0
  250.07069 32.0 0
  250.09077 104.0 1
  250.12126 75.0 1
  250.33698 18.0 0
  250.76704 20.0 0
  251.08409 43.0 1
  251.09625 98.0 1
  252.07355 87.0 1
  252.09695 351.0 5
  252.1077 284.0 4
  253.11069 46.0 1
  253.43509 27.0 0
  253.88905 17.0 0
  254.08769 38.0 0
  254.11897 80.0 1
  256.11185 21.0 0
  258.47699 20.0 0
  260.10822 28.0 0
  261.06323 17.0 0
  261.08939 17.0 0
  261.09976 25.0 0
  261.11234 45.0 1
  261.27383 18.0 0
  262.08246 31.0 0
  263.0892 127.0 2
  263.10464 52.0 1
  263.52209 22.0 0
  264.09137 160.0 2
  264.10999 207.0 3
  265.05872 21.0 0
  265.08554 38.0 0
  265.11041 68.0 1
  265.12195 24.0 0
  266.07236 21.0 0
  266.08606 22.0 0
  266.10931 78.0 1
  266.12106 338.0 4
  266.5824 33.0 0
  267.07996 65.0 1
  267.12021 86.0 1
  267.12988 96.0 1
  267.38159 21.0 0
  268.08539 20.0 0
  268.10159 29.0 0
  268.12039 25.0 0
  269.13055 41.0 1
  274.24023 33.0 0
  275.06424 26.0 0
  275.09683 22.0 0
  276.08487 22.0 0
  276.61566 20.0 0
  277.0379 22.0 0
  278.08405 163.0 2
  278.09271 99.0 1
  278.11288 102.0 1
  278.13153 31.0 0
  279.07968 106.0 1
  279.09296 127.0 2
  279.11078 39.0 1
  279.12384 102.0 1
  280.06348 29.0 0
  280.09439 1459.0 19
  280.13104 50.0 1
  280.28174 18.0 0
  280.39996 24.0 0
  281.0506 22.0 0
  281.08823 76.0 1
  281.10712 331.0 4
  281.12302 22.0 0
  281.15698 17.0 0
  281.69989 23.0 0
  282.07266 18.0 0
  282.09219 110.0 1
  282.10919 199.0 3
  282.1196 97.0 1
  283.11008 43.0 1
  283.12067 37.0 0
  283.66364 23.0 0
  284.06943 18.0 0
  285.98788 42.0 1
  286.13763 34.0 0
  286.24365 17.0 0
  287.67593 41.0 1
  288.4567 31.0 0
  288.5582 23.0 0
  290.05414 46.0 1
  290.0787 22.0 0
  291.08066 18.0 0
  291.09467 18.0 0
  292.0787 82.0 1
  292.09271 97.0 1
  292.74393 17.0 0
  293.05353 26.0 0
  293.07629 22.0 0
  293.09277 67.0 1
  293.11557 33.0 0
  293.62372 22.0 0
  293.76324 19.0 0
  294.10709 167.0 2
  294.11734 404.0 5
  294.20822 18.0 0
  294.87344 31.0 0
  295.03378 23.0 0
  295.08829 52.0 1
  295.11948 563.0 7
  296.08252 39.0 1
  296.10123 18.0 0
  296.1282 2229.0 29
  297.09802 41.0 1
  297.10922 76.0 1
  297.13354 377.0 5
  297.5527 17.0 0
  298.10666 23.0 0
  298.13678 35.0 0
  298.15311 17.0 0
  306.09186 19.0 0
  306.10223 20.0 0
  307.13077 21.0 0
  307.60782 17.0 0
  307.69562 20.0 0
  308.05658 19.0 0
  308.08975 1661.0 22
  308.10504 348.0 5
  308.1283 43.0 1
  308.14011 27.0 0
  309.01984 23.0 0
  309.04126 19.0 0
  309.06631 33.0 0
  309.0921 392.0 5
  309.1091 158.0 2
  309.13849 30.0 0
  309.14917 19.0 0
  309.16589 26.0 0
  310.07098 17.0 0
  310.10464 437.0 6
  310.11993 135.0 2
  310.82178 18.0 0
  311.08734 20.0 0
  311.1084 39.0 1
  311.13101 17.0 0
  311.91492 17.0 0
  311.9509 24.0 0
  312.11276 18.0 0
  312.12344 47.0 1
  313.09421 17.0 0
  313.63354 22.0 0
  316.69119 25.0 0
  322.09637 109.0 1
  322.10855 103.0 1
  322.13351 20.0 0
  323.12518 28.0 0
  323.16409 27.0 0
  323.7937 26.0 0
  323.88239 25.0 0
  323.95297 24.0 0
  324.01379 42.0 1
  324.04041 18.0 0
  324.06094 103.0 1
  324.07483 60.0 1
  324.12198 14774.0 194
  324.15396 50.0 1
  324.17114 86.0 1
  324.18024 37.0 0
  324.34509 18.0 0
  324.52573 27.0 0
  325.06436 21.0 0
  325.07455 27.0 0
  325.1265 4785.0 63
  325.15918 92.0 1
  325.40616 21.0 0
  325.86505 17.0 0
  325.88705 17.0 0
  326.00922 17.0 0
  326.02493 18.0 0
  326.09061 21.0 0
  326.13254 739.0 10
  326.15628 45.0 1
  326.1817 21.0 0
  327.11099 19.0 0
  327.1366 80.0 1
  327.70337 20.0 0
  328.11789 39.0 1
  329.01981 17.0 0
  329.33252 22.0 0
  330.83066 18.0 0
  330.88651 22.0 0
  332.186 17.0 0
  333.60486 17.0 0
  335.15842 27.0 0
  336.70172 21.0 0
  338.86859 19.0 0
  338.92081 23.0 0
  339.07489 18.0 0
  339.19473 20.0 0
  339.46533 27.0 0
  339.67184 17.0 0
  339.73102 18.0 0
  339.82309 44.0 1
  339.86682 18.0 0
  340.04984 18.0 0
  340.07608 90.0 1
  340.09409 114.0 1
  340.10626 156.0 2
  340.15448 76049.0 999
  340.20761 2315.0 30
  340.2558 287.0 4
  340.31934 18.0 0
//
