ACCESSION: MSBNK-RIKEN-PR300137
RECORD_TITLE: Hirsutine; LC-ESI-QTOF; MS2
DATE: 2019.03.28
AUTHORS: Tetsuya Mori, Center for Sustainable Resource Science, RIKEN
LICENSE: CC BY-NC-SA
PUBLICATION: Tsugawa H., Nakabayashi R., Mori T., Yamada Y., Takahashi M., Rai A., Sugiyama R., Yamamoto H., Nakaya T., Yamazaki M., Kooke R., Bac-Molenaar JA., Oztolan-Erol N., Keurentjes JJB., Arita M., Saito K. (2019) "A cheminformatics approach to characterize metabolomes in stable-isotope-labeled organisms" Nature Methods 16(4):295-298. [doi:10.1038/s41592-019-0358-2]
COMMENT: registered in RIKEN PlaSMA
CH$NAME: Hirsutine
CH$COMPOUND_CLASS: Corynanthean-type alkaloids
CH$FORMULA: C22H28N2O3
CH$EXACT_MASS: 368.477
CH$SMILES: CC[C@H]1CN2CCC3=C(NC4=CC=CC=C34)[C@H]2C[C@@H]1\C(=C/OC)C(=O)OC
CH$IUPAC: InChI=1S/C22H28N2O3/c1-4-14-12-24-10-9-16-15-7-5-6-8-19(15)23-21(16)20(24)11-17(14)18(13-26-2)22(25)27-3/h5-8,13-14,17,20,23H,4,9-12H2,1-3H3/b18-13+/t14-,17-,20+/m0/s1
CH$LINK: INCHIKEY NMLUOJBSAYAYEM-AZQGJTAVSA-N
AC$INSTRUMENT: LC, Waters Acquity UPLC System; MS, Waters Xevo G2 Q-Tof
AC$INSTRUMENT_TYPE: LC-ESI-QTOF
AC$MASS_SPECTROMETRY: MS_TYPE MS2
AC$MASS_SPECTROMETRY: ION_MODE POSITIVE
AC$MASS_SPECTROMETRY: COLLISION_ENERGY 6V
AC$MASS_SPECTROMETRY: DESOLVATION_GAS_FLOW 800/h
AC$MASS_SPECTROMETRY: DESOLVATION_TEMPERATURE 450 C
AC$MASS_SPECTROMETRY: IONIZATION ESI
AC$CHROMATOGRAPHY: CAPILLARY_VOLTAGE +3.00 kV
AC$CHROMATOGRAPHY: COLUMN_NAME Acquity bridged ethyl hybrid C18 (1.7 um, 2.1 mm * 100 mm, Waters)
AC$CHROMATOGRAPHY: COLUMN_TEMPERATURE 40 C
AC$CHROMATOGRAPHY: FLOW_GRADIENT A/B = (99.5%/0.5% at 0 min, 99.5%/0.5% at 0.1 min, 20%/80% at 10 min, 0.5%/99.5% at 10.1 min, 0.5%/99.5% at 12.0 min, 99.5%/0.5% at 12.1 min, 99.5%/0.5% at 15.0 min)
AC$CHROMATOGRAPHY: FLOW_RATE 0.3 ml/min at 0 min, 0.3 ml/min at 10 min, 0.4 ml/min at 10.1 min, 0.4 ml/min at 14.4 min, 0.3 ml/min at 14.5 min
AC$CHROMATOGRAPHY: RETENTION_TIME 5.850083
AC$CHROMATOGRAPHY: SOLVENT A water including 0.1% formic acid
AC$CHROMATOGRAPHY: SOLVENT B acetonitrile including 0.1% formic acid
MS$FOCUSED_ION: PRECURSOR_TYPE [M+H]+
MS$FOCUSED_ION: PRECURSOR_M/Z 369.2172692
PK$SPLASH: splash10-0006-0910000000-37c1dbe0e632d1568a35
PK$NUM_PEAK: 143
PK$PEAK: m/z int. rel.int.
  75.04344 58.0 58
  77.0374 12.0 12
  82.06129 11.0 11
  84.08076 46.0 46
  91.05123 11.0 11
  91.05708 21.0 21
  93.06647 19.0 19
  94.07308 5.0 5
  95.04969 28.0 28
  103.05332 14.0 14
  104.05398 6.0 6
  105.06951 13.0 13
  106.06477 16.0 16
  107.06291 5.0 5
  107.08437 6.0 6
  108.04952 7.0 7
  108.08075 36.0 36
  110.09624 55.0 55
  115.05411 73.0 73
  116.05346 22.0 22
  117.05186 14.0 14
  117.06892 149.0 149
  118.05695 5.0 5
  118.06525 28.0 28
  118.0732 12.0 12
  120.07743 5.0 5
  121.06528 8.0 8
  121.08858 6.0 6
  122.09635 33.0 33
  123.03978 6.0 6
  123.04704 8.0 8
  123.07912 8.0 8
  126.04932 6.0 6
  127.0461 18.0 18
  127.05563 82.0 82
  128.04956 31.0 31
  128.05919 49.0 49
  129.05168 33.0 33
  129.06105 21.0 21
  129.06984 34.0 34
  129.07806 9.0 9
  130.06509 128.0 128
  131.06784 14.0 14
  131.07664 9.0 9
  132.07735 8.0 8
  133.06027 6.0 6
  134.10194 6.0 6
  138.09512 5.0 5
  139.07422 8.0 8
  142.05983 12.0 12
  142.06738 28.0 28
  143.0726 243.0 243
  144.05611 10.0 10
  144.08018 1000.0 999
  145.0757 20.0 20
  145.08383 127.0 127
  146.05746 6.0 6
  146.09067 11.0 11
  146.09671 7.0 7
  151.05943 13.0 13
  151.06645 7.0 7
  152.06258 17.0 17
  152.0713 7.0 7
  153.07101 27.0 27
  153.0808 6.0 6
  154.06581 79.0 79
  155.07181 123.0 123
  156.06935 14.0 14
  156.07999 41.0 41
  157.08948 27.0 27
  158.06067 6.0 6
  158.09348 54.0 54
  165.06146 6.0 6
  165.06894 16.0 16
  166.05891 7.0 7
  166.08846 5.0 5
  167.07262 103.0 103
  168.07994 107.0 107
  169.07996 34.0 34
  169.08897 14.0 14
  170.09554 58.0 58
  171.10175 15.0 15
  179.07233 10.0 10
  180.07985 128.0 128
  181.08812 31.0 31
  182.0885 11.0 11
  182.09764 23.0 23
  183.08527 10.0 10
  183.09601 7.0 7
  183.10818 7.0 7
  191.06549 9.0 9
  191.07307 20.0 20
  192.07967 32.0 32
  193.08023 14.0 14
  193.09076 21.0 21
  194.09511 66.0 66
  195.10141 18.0 18
  196.08414 5.0 5
  196.10126 9.0 9
  196.11177 9.0 9
  197.11093 8.0 8
  204.0816 52.0 52
  205.09117 29.0 29
  206.08769 26.0 26
  206.09752 49.0 49
  207.09209 6.0 6
  207.10312 34.0 34
  208.06775 6.0 6
  208.07858 18.0 18
  208.09914 11.0 11
  208.10773 17.0 17
  208.12291 5.0 5
  209.07822 7.0 7
  209.10913 9.0 9
  217.08571 18.0 18
  218.09315 31.0 31
  219.07675 6.0 6
  219.09937 13.0 13
  220.09941 9.0 9
  220.11086 13.0 13
  221.08951 10.0 10
  221.1087 52.0 52
  222.09496 15.0 15
  222.10706 14.0 14
  222.11572 12.0 12
  222.13124 11.0 11
  223.12247 8.0 8
  224.14864 6.0 6
  225.13306 5.0 5
  230.09477 7.0 7
  231.09554 11.0 11
  232.10509 18.0 18
  233.10875 6.0 6
  234.11374 11.0 11
  235.13313 7.0 7
  236.11136 8.0 8
  236.13509 6.0 6
  246.11992 6.0 6
  247.13095 8.0 8
  251.10913 6.0 6
  251.1543 8.0 8
  260.10651 6.0 6
  261.10516 6.0 6
//
