ACCESSION: MSBNK-RIKEN-PR040189
RECORD_TITLE: Quercetin 3-(6-O-acetyl-beta-glucoside); LC-ESI-QTOF; MS2; CE:Ramp 5-60 V; [M-H]-
DATE: 2016.01.19 (Created 2008.03.03, modified 2011.05.06)
AUTHORS: Matsuda F, Plant Science Center, RIKEN.
LICENSE: CC BY-SA
CH$NAME: Quercetin-3-O-glucose-6''-acetate
CH$NAME: Quercetin 3-(6''-acetylglucoside)
CH$NAME: Quercetin 3-(6-O-acetyl-beta-glucoside)
CH$COMPOUND_CLASS: Natural Product
CH$FORMULA: C23H22O13
CH$EXACT_MASS: 506.10604
CH$SMILES: CC(=O)OCC(O1)C(O)C(O)C(O)C1OC(C(=O)3)=C(Oc(c4)c(c(O)cc(O)4)3)c(c2)cc(O)c(O)c2
CH$IUPAC: InChI=1S/C23H22O13/c1-8(24)33-7-15-17(29)19(31)20(32)23(35-15)36-22-18(30)16-13(28)5-10(25)6-14(16)34-21(22)9-2-3-11(26)12(27)4-9/h2-6,15,17,19-20,23,25-29,31-32H,7H2,1H3/t15-,17-,19+,20-,23+/m1/s1
CH$LINK: CAS 54542-51-7
CH$LINK: KNAPSACK C00005955
CH$LINK: INCHIKEY IGLUNMMNDNWZOA-LNNZMUSMSA-N
AC$INSTRUMENT: UPLC Q-Tof Premier, Waters
AC$INSTRUMENT_TYPE: LC-ESI-QTOF
AC$MASS_SPECTROMETRY: MS_TYPE MS2
AC$MASS_SPECTROMETRY: ION_MODE NEGATIVE
AC$MASS_SPECTROMETRY: COLLISION_ENERGY Ramp 5-60 V
AC$MASS_SPECTROMETRY: DATAFORMAT Continuum
AC$MASS_SPECTROMETRY: DESOLVATION_GAS_FLOW 600.0 L/Hr
AC$MASS_SPECTROMETRY: DESOLVATION_TEMPERATURE 400 C
AC$MASS_SPECTROMETRY: FRAGMENTATION_METHOD LOW-ENERGY CID
AC$MASS_SPECTROMETRY: IONIZATION ESI
AC$MASS_SPECTROMETRY: SCANNING 1.0 sec/scan (m/z = 50-1000)
AC$MASS_SPECTROMETRY: SOURCE_TEMPERATURE 120 C
AC$CHROMATOGRAPHY: CAPILLARY_VOLTAGE 3.0 kV
AC$CHROMATOGRAPHY: SAMPLING_CONE 23.0 V
AC$CHROMATOGRAPHY: SOLVENT A CH3CN(0.1%HCOOH)
AC$CHROMATOGRAPHY: SOLVENT B H2O(0.1%HCOOH)
MS$FOCUSED_ION: FULL_SCAN_FRAGMENT_ION_PEAK 505.1
MS$FOCUSED_ION: ION_TYPE [M-H]-
MS$DATA_PROCESSING: WHOLE MassLynx 4.1
PK$SPLASH: splash10-0pb9-0179080000-893dce9eb365ba4330d9
PK$NUM_PEAK: 23
PK$PEAK: m/z int. rel.int.
  107.0130 98.63 11
  108.0215 115.4 13
  148.0167 112.1 12
  151.0032 473.3 53
  163.0031 140.1 15
  178.9977 235.5 26
  199.0396 162.2 18
  211.0395 109.8 12
  215.0339 104.8 11
  226.0265 156.3 17
  227.0343 327.7 36
  243.0294 976.9 110
  254.0201 164.4 18
  255.0291 1799 202
  271.0240 4198 473
  272.0298 292.7 32
  299.0187 109 12
  300.0269 6659 750
  301.0343 2740 308
  302.0355 140.7 15
  463.0892 188.9 21
  505.0982 8864 999
  506.1018 552.1 62
//
