ACCESSION: MSBNK-RIKEN-PR305814
RECORD_TITLE: Kaempferol; LC-ESI-QTOF; MS2
DATE: 2019.03.28
AUTHORS: Tetsuya Mori, Center for Sustainable Resource Science, RIKEN
LICENSE: CC BY-NC-SA
PUBLICATION: Tsugawa H., Nakabayashi R., Mori T., Yamada Y., Takahashi M., Rai A., Sugiyama R., Yamamoto H., Nakaya T., Yamazaki M., Kooke R., Bac-Molenaar JA., Oztolan-Erol N., Keurentjes JJB., Arita M., Saito K. (2019) "A cheminformatics approach to characterize metabolomes in stable-isotope-labeled organisms" Nature Methods 16(4):295-298. [doi:10.1038/s41592-019-0358-2]
COMMENT: registered in RIKEN PlaSMA
CH$NAME: Kaempferol
CH$COMPOUND_CLASS: Flavonols
CH$FORMULA: C15H10O6
CH$EXACT_MASS: 286.239
CH$SMILES: OC1=CC=C(C=C1)C1=C(O)C(=O)C2=C(O)C=C(O)C=C2O1
CH$IUPAC: InChI=1S/C15H10O6/c16-8-3-1-7(2-4-8)15-14(20)13(19)12-10(18)5-9(17)6-11(12)21-15/h1-6,16-18,20H
CH$LINK: INCHIKEY IYRMWMYZSQPJKC-UHFFFAOYSA-N
AC$INSTRUMENT: LC, Waters Acquity UPLC System; MS, Waters Xevo G2 Q-Tof
AC$INSTRUMENT_TYPE: LC-ESI-QTOF
AC$MASS_SPECTROMETRY: MS_TYPE MS2
AC$MASS_SPECTROMETRY: ION_MODE NEGATIVE
AC$MASS_SPECTROMETRY: COLLISION_ENERGY 6V
AC$MASS_SPECTROMETRY: DESOLVATION_GAS_FLOW 800/h
AC$MASS_SPECTROMETRY: DESOLVATION_TEMPERATURE 450 C
AC$MASS_SPECTROMETRY: IONIZATION ESI
AC$CHROMATOGRAPHY: CAPILLARY_VOLTAGE -2.75 kV
AC$CHROMATOGRAPHY: COLUMN_NAME Acquity bridged ethyl hybrid C18 (1.7 um, 2.1 mm * 100 mm, Waters)
AC$CHROMATOGRAPHY: COLUMN_TEMPERATURE 40 C
AC$CHROMATOGRAPHY: FLOW_GRADIENT A/B = (99.5%/0.5% at 0 min, 99.5%/0.5% at 0.1 min, 20%/80% at 10 min, 0.5%/99.5% at 10.1 min, 0.5%/99.5% at 12.0 min, 99.5%/0.5% at 12.1 min, 99.5%/0.5% at 15.0 min)
AC$CHROMATOGRAPHY: FLOW_RATE 0.3 ml/min at 0 min, 0.3 ml/min at 10 min, 0.4 ml/min at 10.1 min, 0.4 ml/min at 14.4 min, 0.3 ml/min at 14.5 min
AC$CHROMATOGRAPHY: RETENTION_TIME 5.995067
AC$CHROMATOGRAPHY: SOLVENT A water including 0.1% formic acid
AC$CHROMATOGRAPHY: SOLVENT B acetonitrile including 0.1% formic acid
MS$FOCUSED_ION: PRECURSOR_TYPE [M-H]-
MS$FOCUSED_ION: PRECURSOR_M/Z 285.04046154783
PK$SPLASH: splash10-052u-0930000000-da8609a34c556eb0a61d
PK$NUM_PEAK: 204
PK$PEAK: m/z int. rel.int.
  53.64627 30.0 30
  63.01734 23.0 23
  63.0237 138.0 138
  65.00063 87.0 87
  79.01598 29.0 29
  81.03125 30.0 30
  83.00649 21.0 21
  83.01234 136.0 136
  89.03407 28.0 28
  91.0163 69.0 69
  92.0276 134.0 134
  92.9914 21.0 21
  93.03376 577.0 576
  93.999 28.0 28
  95.01176 82.0 82
  95.01649 36.0 36
  95.03555 41.0 41
  96.01356 29.0 29
  101.03481 23.0 23
  103.05641 35.0 35
  105.02984 74.0 74
  105.04145 29.0 29
  106.91168 22.0 22
  107.01111 325.0 325
  108.01707 199.0 199
  108.02193 186.0 186
  109.02617 295.0 295
  109.77622 30.0 30
  114.21191 23.0 23
  115.0498 27.0 27
  115.0566 50.0 50
  117.03434 368.0 368
  118.03796 82.0 82
  119.01536 103.0 103
  119.03259 32.0 32
  119.0475 151.0 151
  119.05638 27.0 27
  120.01946 56.0 56
  120.05084 28.0 28
  121.02718 91.0 91
  122.04163 23.0 23
  123.00461 23.0 23
  123.01289 49.0 49
  123.04446 29.0 29
  127.05532 27.0 27
  129.02907 53.0 53
  129.07025 36.0 36
  129.22562 27.0 27
  130.03571 56.0 56
  130.0443 63.0 63
  131.04852 290.0 290
  131.05675 43.0 43
  132.01704 55.0 55
  132.04842 74.0 74
  133.02873 240.0 240
  133.05046 29.0 29
  133.06554 34.0 34
  134.47523 27.0 27
  134.58742 28.0 28
  135.00546 229.0 229
  135.01219 118.0 118
  135.04396 41.0 41
  136.01215 91.0 91
  136.01709 220.0 220
  137.0242 229.0 229
  137.06932 25.0 25
  139.05698 30.0 30
  141.06625 87.0 87
  142.65337 33.0 33
  143.0491 570.0 569
  143.063 21.0 21
  143.07704 22.0 22
  144.05334 30.0 30
  145.02748 634.0 633
  145.03323 188.0 188
  145.05342 39.0 39
  145.06534 101.0 101
  146.02896 45.0 45
  146.0379 76.0 76
  147.00667 54.0 54
  147.03635 29.0 29
  148.9864 23.0 23
  151.00166 299.0 299
  151.03708 47.0 47
  154.04053 239.0 239
  154.04692 95.0 95
  155.05344 245.0 245
  155.70155 21.0 21
  156.05229 267.0 267
  157.02805 125.0 125
  157.03471 98.0 98
  157.06281 280.0 280
  157.7392 29.0 29
  157.79567 21.0 21
  158.02614 86.0 86
  158.03822 365.0 365
  158.06693 116.0 116
  158.07652 30.0 30
  159.0428 1000.0 999
  160.01619 25.0 25
  160.04495 156.0 156
  161.01775 130.0 130
  161.02409 219.0 219
  161.05511 33.0 33
  161.06577 30.0 30
  162.02908 73.0 73
  163.00172 161.0 161
  163.03909 28.0 28
  164.00955 333.0 333
  165.01758 170.0 170
  167.04623 209.0 209
  167.05771 36.0 36
  168.05644 168.0 168
  168.06757 23.0 23
  169.02876 84.0 84
  169.06299 234.0 234
  171.02126 28.0 28
  171.0435 271.0 271
  172.04382 47.0 47
  172.05577 61.0 61
  173.02165 121.0 121
  173.05455 73.0 73
  174.02165 25.0 25
  174.03156 87.0 87
  174.07216 27.0 27
  175.03796 82.0 82
  175.04391 29.0 29
  179.04463 27.0 27
  180.04938 41.0 41
  181.0293 33.0 33
  182.03123 113.0 113
  182.04294 25.0 25
  183.04442 401.0 401
  183.06177 23.0 23
  184.0432 122.0 122
  184.05769 195.0 195
  185.02502 53.0 53
  185.05214 199.0 199
  185.06082 413.0 413
  186.05219 22.0 22
  186.06517 49.0 49
  187.03865 587.0 586
  188.04163 117.0 117
  188.06332 23.0 23
  190.06323 27.0 27
  190.99287 91.0 91
  190.99892 33.0 33
  191.0403 39.0 39
  191.99846 90.0 90
  192.00824 32.0 32
  193.02068 25.0 25
  195.03389 40.0 40
  195.04219 22.0 22
  196.04861 87.0 87
  196.06279 25.0 25
  196.19124 38.0 38
  196.47595 26.0 26
  198.03206 60.0 60
  199.03897 40.0 40
  200.04308 38.0 38
  201.04916 80.0 80
  201.05898 109.0 109
  202.03001 39.0 39
  202.05948 63.0 63
  210.03053 74.0 74
  211.03682 481.0 481
  211.04906 111.0 111
  212.03569 118.0 118
  212.05008 40.0 40
  213.00871 48.0 48
  213.02284 76.0 76
  213.04677 95.0 95
  214.01715 86.0 86
  214.02759 159.0 159
  215.03517 28.0 28
  216.03256 23.0 23
  219.03279 32.0 32
  220.02745 27.0 27
  221.03796 39.0 39
  227.03134 728.0 727
  227.11804 22.0 22
  228.03448 34.0 34
  228.04695 69.0 69
  229.05492 185.0 185
  230.24271 46.0 46
  238.02827 27.0 27
  239.01891 22.0 22
  239.03339 325.0 325
  240.02943 144.0 144
  240.05324 32.0 32
  241.0484 83.0 83
  243.02628 127.0 127
  243.03665 43.0 43
  255.02824 374.0 374
  256.03036 53.0 53
  256.04065 129.0 129
  257.03662 32.0 32
  266.0322 25.0 25
  267.03152 186.0 186
  268.03534 174.0 174
  269.0415 36.0 36
  279.2204 21.0 21
  284.04147 21.0 21
  285.04108 947.0 946
//
