ACCESSION: MSBNK-RIKEN-PR301550
RECORD_TITLE: Vincamine; LC-ESI-QTOF; MS2
DATE: 2019.03.28
AUTHORS: Tetsuya Mori, Center for Sustainable Resource Science, RIKEN
LICENSE: CC BY-NC-SA
PUBLICATION: Tsugawa H., Nakabayashi R., Mori T., Yamada Y., Takahashi M., Rai A., Sugiyama R., Yamamoto H., Nakaya T., Yamazaki M., Kooke R., Bac-Molenaar JA., Oztolan-Erol N., Keurentjes JJB., Arita M., Saito K. (2019) "A cheminformatics approach to characterize metabolomes in stable-isotope-labeled organisms" Nature Methods 16(4):295-298. [doi:10.1038/s41592-019-0358-2]
COMMENT: registered in RIKEN PlaSMA
CH$NAME: Vincamine
CH$COMPOUND_CLASS: Eburnan-type alkaloids
CH$FORMULA: C21H26N2O3
CH$EXACT_MASS: 354.45
CH$SMILES: CCC12CCCN3CCC4=C(C13)N(C1=CC=CC=C41)C(O)(C2)C(=O)OC
CH$IUPAC: InChI=1S/C21H26N2O3/c1-3-20-10-6-11-22-12-9-15-14-7-4-5-8-16(14)23(17(15)18(20)22)21(25,13-20)19(24)26-2/h4-5,7-8,18,25H,3,6,9-13H2,1-2H3
CH$LINK: INCHIKEY RXPRRQLKFXBCSJ-UHFFFAOYSA-N
AC$INSTRUMENT: LC, Waters Acquity UPLC System; MS, Waters Xevo G2 Q-Tof
AC$INSTRUMENT_TYPE: LC-ESI-QTOF
AC$MASS_SPECTROMETRY: MS_TYPE MS2
AC$MASS_SPECTROMETRY: ION_MODE POSITIVE
AC$MASS_SPECTROMETRY: COLLISION_ENERGY 6V
AC$MASS_SPECTROMETRY: DESOLVATION_GAS_FLOW 800/h
AC$MASS_SPECTROMETRY: DESOLVATION_TEMPERATURE 450 C
AC$MASS_SPECTROMETRY: IONIZATION ESI
AC$CHROMATOGRAPHY: CAPILLARY_VOLTAGE +3.00 kV
AC$CHROMATOGRAPHY: COLUMN_NAME Acquity bridged ethyl hybrid C18 (1.7 um, 2.1 mm * 100 mm, Waters)
AC$CHROMATOGRAPHY: COLUMN_TEMPERATURE 40 C
AC$CHROMATOGRAPHY: FLOW_GRADIENT A/B = (99.5%/0.5% at 0 min, 99.5%/0.5% at 0.1 min, 20%/80% at 10 min, 0.5%/99.5% at 10.1 min, 0.5%/99.5% at 12.0 min, 99.5%/0.5% at 12.1 min, 99.5%/0.5% at 15.0 min)
AC$CHROMATOGRAPHY: FLOW_RATE 0.3 ml/min at 0 min, 0.3 ml/min at 10 min, 0.4 ml/min at 10.1 min, 0.4 ml/min at 14.4 min, 0.3 ml/min at 14.5 min
AC$CHROMATOGRAPHY: RETENTION_TIME 4.50125
AC$CHROMATOGRAPHY: SOLVENT A water including 0.1% formic acid
AC$CHROMATOGRAPHY: SOLVENT B acetonitrile including 0.1% formic acid
MS$FOCUSED_ION: PRECURSOR_TYPE [M+H]+
MS$FOCUSED_ION: PRECURSOR_M/Z 355.2016192
PK$SPLASH: splash10-0016-0294000000-0496a7006958158a7cf7
PK$NUM_PEAK: 248
PK$PEAK: m/z int. rel.int.
  70.06699 22.0 22
  91.05656 7.0 7
  98.09524 12.0 12
  105.06619 8.0 8
  108.079 6.0 6
  110.09854 23.0 23
  111.10434 10.0 10
  112.11208 9.0 9
  119.08912 7.0 7
  121.06829 5.0 5
  122.0676 5.0 5
  122.09354 14.0 14
  123.06748 6.0 6
  123.08205 12.0 12
  124.11242 34.0 34
  130.06528 17.0 17
  130.07411 6.0 6
  132.07924 5.0 5
  134.09746 19.0 19
  134.106 14.0 14
  135.08392 8.0 8
  138.13249 6.0 6
  143.06984 8.0 8
  144.08125 464.0 464
  145.07442 8.0 8
  145.08635 68.0 68
  146.10036 8.0 8
  148.07507 8.0 8
  149.08983 8.0 8
  150.09331 8.0 8
  152.09204 10.0 10
  152.10689 173.0 173
  153.0956 5.0 5
  153.11092 30.0 30
  156.07761 19.0 19
  156.08275 8.0 8
  158.09389 15.0 15
  158.10048 19.0 19
  162.07803 6.0 6
  162.09119 18.0 18
  162.10135 6.0 6
  164.10356 8.0 8
  165.08519 5.0 5
  168.08232 7.0 7
  170.064 11.0 11
  170.09555 23.0 23
  172.10715 6.0 6
  180.08092 12.0 12
  181.0873 20.0 20
  182.09605 9.0 9
  183.09721 9.0 9
  184.10919 8.0 8
  185.11081 5.0 5
  192.0788 7.0 7
  192.11053 5.0 5
  193.08894 7.0 7
  194.06616 7.0 7
  194.09364 16.0 16
  194.11783 44.0 44
  194.12421 16.0 16
  195.11067 13.0 13
  195.12125 10.0 10
  196.09639 8.0 8
  196.10757 12.0 12
  198.09155 11.0 11
  198.1113 10.0 10
  198.13358 5.0 5
  199.13188 6.0 6
  203.08574 5.0 5
  204.1017 5.0 5
  205.0863 13.0 13
  206.08118 6.0 6
  206.09514 25.0 25
  207.10149 13.0 13
  207.11118 10.0 10
  207.12143 5.0 5
  208.09952 9.0 9
  208.1149 52.0 52
  209.11829 46.0 46
  210.11906 21.0 21
  210.12909 13.0 13
  211.1252 10.0 10
  212.12878 251.0 251
  212.15018 6.0 6
  213.11334 6.0 6
  213.12813 18.0 18
  213.13666 26.0 26
  216.09937 8.0 8
  217.10089 5.0 5
  218.09465 10.0 10
  218.11728 11.0 11
  219.09404 15.0 15
  219.10518 10.0 10
  219.11249 10.0 10
  220.10251 7.0 7
  220.11304 38.0 38
  221.10909 24.0 24
  221.12419 28.0 28
  222.10316 10.0 10
  222.12167 23.0 23
  222.13324 41.0 41
  223.13057 16.0 16
  223.14005 6.0 6
  224.11108 6.0 6
  224.13913 54.0 54
  224.15683 5.0 5
  225.14883 7.0 7
  231.10339 10.0 10
  232.11345 11.0 11
  233.0842 9.0 9
  233.11774 14.0 14
  234.09409 7.0 7
  234.12234 53.0 53
  234.13441 58.0 58
  235.1084 11.0 11
  235.13324 54.0 54
  236.11084 10.0 10
  236.13353 26.0 26
  236.14297 30.0 30
  236.15311 14.0 14
  237.08081 7.0 7
  237.12289 8.0 8
  237.1403 12.0 12
  237.1543 20.0 20
  238.0905 9.0 9
  238.16039 11.0 11
  239.09645 29.0 29
  240.09558 17.0 17
  246.10684 6.0 6
  246.12721 21.0 21
  247.12752 10.0 10
  248.11018 10.0 10
  248.14278 68.0 68
  248.1543 15.0 15
  249.11627 5.0 5
  249.13274 19.0 19
  249.14906 65.0 65
  250.09248 11.0 11
  250.12746 12.0 12
  250.15561 55.0 55
  250.16725 22.0 22
  251.09427 7.0 7
  251.16026 11.0 11
  251.17397 12.0 12
  252.08923 16.0 16
  252.1049 23.0 23
  252.16916 7.0 7
  253.10703 41.0 41
  253.12442 9.0 9
  253.16626 17.0 17
  254.11032 17.0 17
  254.12534 15.0 15
  254.17825 9.0 9
  260.14468 11.0 11
  261.11737 8.0 8
  261.15042 5.0 5
  262.10638 9.0 9
  262.12808 14.0 14
  262.13791 12.0 12
  263.11633 7.0 7
  263.13205 11.0 11
  263.15079 8.0 8
  264.10132 38.0 38
  264.13931 7.0 7
  265.10925 108.0 108
  265.1301 7.0 7
  266.10333 24.0 24
  266.11765 73.0 73
  266.1326 13.0 13
  267.12253 77.0 77
  267.14847 13.0 13
  268.10849 6.0 6
  268.13208 209.0 209
  269.1048 6.0 6
  269.12714 11.0 11
  269.14227 32.0 32
  276.10785 7.0 7
  276.12854 18.0 18
  276.14798 13.0 13
  277.12885 22.0 22
  277.17072 88.0 88
  278.12067 28.0 28
  278.15536 14.0 14
  278.17593 38.0 38
  279.10202 6.0 6
  279.12466 60.0 60
  279.13657 46.0 46
  279.18921 5.0 5
  280.09695 22.0 22
  280.13449 789.0 788
  281.13608 195.0 195
  282.13095 17.0 17
  282.14621 59.0 59
  282.18069 6.0 6
  283.15085 14.0 14
  290.11847 17.0 17
  291.11319 16.0 16
  291.12494 23.0 23
  292.12451 38.0 38
  292.13647 44.0 44
  293.13989 53.0 53
  293.15787 15.0 15
  294.09671 6.0 6
  294.11847 6.0 6
  294.14853 894.0 893
  295.12338 8.0 8
  295.14777 67.0 67
  295.16077 226.0 226
  295.17801 98.0 98
  296.14078 9.0 9
  296.15598 14.0 14
  296.16772 21.0 21
  296.19019 25.0 25
  297.14804 7.0 7
  297.19684 5.0 5
  305.14871 5.0 5
  305.16321 27.0 27
  305.18326 8.0 8
  306.1478 33.0 33
  306.16617 13.0 13
  307.13651 42.0 42
  307.15277 45.0 45
  307.17834 6.0 6
  308.1149 6.0 6
  308.16183 567.0 566
  309.14545 37.0 37
  309.15906 107.0 107
  309.17468 55.0 55
  310.15964 18.0 18
  310.18036 36.0 36
  310.20053 6.0 6
  311.17059 7.0 7
  320.15414 19.0 19
  320.16867 21.0 21
  320.18961 5.0 5
  321.16141 6.0 6
  322.16656 6.0 6
  337.13495 6.0 6
  337.15338 9.0 9
  337.18927 1000.0 999
  338.14737 8.0 8
  338.17474 49.0 49
  338.19244 200.0 200
  339.18896 20.0 20
  339.20193 28.0 28
  355.16528 6.0 6
  355.19971 120.0 120
  355.22144 19.0 19
//
