ACCESSION: MSBNK-RIKEN-PR303598
RECORD_TITLE: Cinobufagin; LC-ESI-QTOF; MS2
DATE: 2019.03.28
AUTHORS: Tetsuya Mori, Center for Sustainable Resource Science, RIKEN
LICENSE: CC BY-NC-SA
PUBLICATION: Tsugawa H., Nakabayashi R., Mori T., Yamada Y., Takahashi M., Rai A., Sugiyama R., Yamamoto H., Nakaya T., Yamazaki M., Kooke R., Bac-Molenaar JA., Oztolan-Erol N., Keurentjes JJB., Arita M., Saito K. (2019) "A cheminformatics approach to characterize metabolomes in stable-isotope-labeled organisms" Nature Methods 16(4):295-298. [doi:10.1038/s41592-019-0358-2]
COMMENT: registered in RIKEN PlaSMA
CH$NAME: Cinobufagin
CH$COMPOUND_CLASS: Bufanolides and derivatives
CH$FORMULA: C26H34O6
CH$EXACT_MASS: 442.552
CH$SMILES: CC(=O)O[C@H]1[C@H]2O[C@]22[C@@H]3CC[C@@H]4C[C@@H](O)CC[C@]4(C)[C@H]3CC[C@]2(C)[C@H]1C1=COC(=O)C=C1
CH$IUPAC: InChI=1S/C26H34O6/c1-14(27)31-22-21(15-4-7-20(29)30-13-15)25(3)11-9-18-19(26(25)23(22)32-26)6-5-16-12-17(28)8-10-24(16,18)2/h4,7,13,16-19,21-23,28H,5-6,8-12H2,1-3H3/t16-,17+,18+,19-,21+,22-,23-,24+,25-,26-/m1/s1
CH$LINK: INCHIKEY SCULJPGYOQQXTK-OLRINKBESA-N
AC$INSTRUMENT: LC, Waters Acquity UPLC System; MS, Waters Xevo G2 Q-Tof
AC$INSTRUMENT_TYPE: LC-ESI-QTOF
AC$MASS_SPECTROMETRY: MS_TYPE MS2
AC$MASS_SPECTROMETRY: ION_MODE POSITIVE
AC$MASS_SPECTROMETRY: COLLISION_ENERGY 6V
AC$MASS_SPECTROMETRY: DESOLVATION_GAS_FLOW 800/h
AC$MASS_SPECTROMETRY: DESOLVATION_TEMPERATURE 450 C
AC$MASS_SPECTROMETRY: IONIZATION ESI
AC$CHROMATOGRAPHY: CAPILLARY_VOLTAGE +3.00 kV
AC$CHROMATOGRAPHY: COLUMN_NAME Acquity bridged ethyl hybrid C18 (1.7 um, 2.1 mm * 100 mm, Waters)
AC$CHROMATOGRAPHY: COLUMN_TEMPERATURE 40 C
AC$CHROMATOGRAPHY: FLOW_GRADIENT A/B = (99.5%/0.5% at 0 min, 99.5%/0.5% at 0.1 min, 20%/80% at 10 min, 0.5%/99.5% at 10.1 min, 0.5%/99.5% at 12.0 min, 99.5%/0.5% at 12.1 min, 99.5%/0.5% at 15.0 min)
AC$CHROMATOGRAPHY: FLOW_RATE 0.3 ml/min at 0 min, 0.3 ml/min at 10 min, 0.4 ml/min at 10.1 min, 0.4 ml/min at 14.4 min, 0.3 ml/min at 14.5 min
AC$CHROMATOGRAPHY: RETENTION_TIME 7.508033
AC$CHROMATOGRAPHY: SOLVENT A water including 0.1% formic acid
AC$CHROMATOGRAPHY: SOLVENT B acetonitrile including 0.1% formic acid
MS$FOCUSED_ION: PRECURSOR_TYPE [M+H]+
MS$FOCUSED_ION: PRECURSOR_M/Z 443.2428153
PK$SPLASH: splash10-0k9j-0941000000-44eeb5d41c20e21bfdad
PK$NUM_PEAK: 679
PK$PEAK: m/z int. rel.int.
  67.05711 37.0 37
  68.05683 11.0 11
  69.07131 7.0 7
  71.08562 6.0 6
  79.05463 42.0 42
  80.05968 6.0 6
  81.06442 19.0 19
  81.07022 111.0 111
  82.0722 23.0 23
  82.10307 8.0 8
  83.08683 50.0 50
  85.09824 12.0 12
  91.0468 5.0 5
  91.05587 58.0 58
  92.06062 13.0 13
  93.06902 155.0 155
  93.21321 7.0 7
  94.07451 6.0 6
  94.97314 5.0 5
  95.0097 5.0 5
  95.03998 14.0 14
  95.04781 87.0 87
  95.086 229.0 229
  96.09247 20.0 20
  96.96471 5.0 5
  97.06515 17.0 17
  97.10236 23.0 23
  97.30314 7.0 7
  98.10818 10.0 10
  99.04634 7.0 7
  100.27248 9.0 9
  100.6931 9.0 9
  103.05637 14.0 14
  105.03857 5.0 5
  105.06953 208.0 208
  105.08473 5.0 5
  105.87377 6.0 6
  106.03511 5.0 5
  106.07387 34.0 34
  107.04951 59.0 59
  107.08533 354.0 354
  108.08744 49.0 49
  109.00438 6.0 6
  109.03003 179.0 179
  109.06243 10.0 10
  109.10159 152.0 152
  110.01839 6.0 6
  110.02869 23.0 23
  110.03518 24.0 24
  110.103 25.0 25
  111.04256 6.0 6
  111.04882 6.0 6
  112.08965 6.0 6
  113.30579 7.0 7
  115.03028 7.0 7
  117.06834 54.0 54
  118.07861 6.0 6
  119.04108 5.0 5
  119.04777 6.0 6
  119.07234 11.0 11
  119.08471 223.0 223
  120.09079 33.0 33
  121.02299 11.0 11
  121.02921 31.0 31
  121.06518 137.0 137
  121.08402 10.0 10
  121.10215 336.0 336
  122.02913 6.0 6
  122.06951 8.0 8
  122.09911 5.0 5
  122.10473 11.0 11
  123.02996 6.0 6
  123.04275 137.0 137
  123.0808 20.0 20
  123.11471 19.0 19
  124.08559 7.0 7
  125.02103 47.0 47
  125.03046 10.0 10
  125.06087 8.0 8
  125.08706 5.0 5
  125.09586 5.0 5
  125.10147 6.0 6
  127.03903 5.0 5
  128.06326 16.0 16
  128.3437 5.0 5
  129.06821 28.0 28
  129.07449 14.0 14
  130.07446 14.0 14
  131.04802 20.0 20
  131.05458 6.0 6
  131.07222 9.0 9
  131.08589 257.0 257
  132.08841 28.0 28
  133.02872 11.0 11
  133.06606 44.0 44
  133.10167 392.0 392
  134.10193 40.0 40
  135.04391 89.0 89
  135.07559 26.0 26
  135.08502 13.0 13
  135.09695 9.0 9
  135.1165 389.0 389
  136.11378 12.0 12
  136.1208 29.0 29
  136.13222 8.0 8
  137.05608 12.0 12
  137.09697 11.0 11
  137.12857 6.0 6
  139.02811 6.0 6
  139.03836 33.0 33
  139.15244 8.0 8
  140.04399 11.0 11
  141.07056 48.0 48
  143.05142 13.0 13
  143.08397 217.0 217
  144.08405 21.0 21
  144.57375 8.0 8
  145.06363 45.0 45
  145.10028 397.0 397
  145.91536 10.0 10
  146.06029 9.0 9
  146.07292 8.0 8
  146.10519 58.0 58
  147.04263 14.0 14
  147.04953 13.0 13
  147.06392 5.0 5
  147.07399 39.0 39
  147.08255 58.0 58
  147.11758 357.0 357
  148.0865 11.0 11
  148.11932 63.0 63
  149.00029 6.0 6
  149.02388 74.0 74
  149.04205 5.0 5
  149.05992 143.0 143
  149.09587 10.0 10
  149.13202 119.0 119
  149.13968 31.0 31
  150.06335 21.0 21
  150.13403 9.0 9
  151.03789 768.0 767
  151.07162 13.0 13
  151.11472 9.0 9
  152.02657 6.0 6
  152.03842 20.0 20
  152.04662 21.0 21
  153.04535 16.0 16
  153.05255 10.0 10
  153.07339 15.0 15
  153.43015 7.0 7
  153.45534 6.0 6
  154.06581 6.0 6
  155.03519 7.0 7
  155.08549 113.0 113
  155.09772 10.0 10
  156.06999 6.0 6
  156.08453 15.0 15
  156.0921 18.0 18
  157.06581 117.0 117
  157.08205 7.0 7
  157.10103 167.0 167
  158.06612 10.0 10
  158.10298 17.0 17
  158.94144 7.0 7
  159.04468 18.0 18
  159.07938 96.0 96
  159.11633 462.0 462
  160.1142 9.0 9
  160.12636 71.0 71
  160.17892 11.0 11
  160.27356 6.0 6
  161.05437 41.0 41
  161.06372 36.0 36
  161.08882 13.0 13
  161.09531 32.0 32
  161.11935 28.0 28
  161.13289 230.0 230
  162.13248 45.0 45
  163.03802 106.0 106
  163.06664 7.0 7
  163.07849 16.0 16
  163.10919 9.0 9
  163.11713 11.0 11
  164.04202 18.0 18
  165.05338 42.0 42
  165.06613 18.0 18
  166.02747 6.0 6
  166.05391 9.0 9
  166.07545 6.0 6
  167.03029 35.0 35
  167.03685 22.0 22
  167.07495 14.0 14
  167.08359 37.0 37
  167.09148 12.0 12
  167.82289 5.0 5
  168.03886 14.0 14
  168.09114 9.0 9
  168.12225 7.0 7
  169.0575 15.0 15
  169.08691 10.0 10
  169.10123 88.0 88
  170.10432 16.0 16
  170.11293 10.0 10
  171.07942 100.0 100
  171.1067 11.0 11
  171.11603 55.0 55
  172.08046 14.0 14
  172.12727 15.0 15
  173.0614 36.0 36
  173.07176 7.0 7
  173.09743 81.0 81
  173.13113 236.0 236
  174.06305 21.0 21
  174.09666 18.0 18
  174.13713 27.0 27
  175.05629 6.0 6
  175.075 236.0 236
  175.10182 6.0 6
  175.10837 13.0 13
  175.14523 54.0 54
  176.07404 17.0 17
  176.08575 6.0 6
  176.15544 14.0 14
  176.34282 5.0 5
  177.03316 5.0 5
  177.05359 95.0 95
  177.06279 19.0 19
  177.08867 23.0 23
  178.06026 5.0 5
  178.07932 11.0 11
  178.81801 7.0 7
  179.06671 21.0 21
  179.08443 26.0 26
  180.07199 6.0 6
  180.08972 24.0 24
  180.09973 11.0 11
  181.0508 24.0 24
  181.07317 6.0 6
  181.09978 96.0 96
  181.7885 7.0 7
  182.10565 25.0 25
  183.07724 116.0 116
  183.10989 42.0 42
  183.11682 163.0 163
  184.07439 6.0 6
  184.08385 11.0 11
  184.11974 37.0 37
  185.05952 27.0 27
  185.09805 46.0 46
  185.13045 119.0 119
  185.15092 10.0 10
  186.10263 12.0 12
  186.13626 16.0 16
  186.14587 17.0 17
  187.07657 72.0 72
  187.11452 36.0 36
  187.14748 1000.0 999
  187.1718 6.0 6
  188.07457 25.0 25
  188.15186 129.0 129
  189.09181 53.0 53
  189.10393 6.0 6
  189.13095 18.0 18
  189.15742 26.0 26
  189.16525 22.0 22
  189.20868 6.0 6
  190.09683 10.0 10
  191.06319 16.0 16
  191.07155 19.0 19
  191.08528 10.0 10
  191.09674 11.0 11
  191.10538 5.0 5
  191.13019 8.0 8
  191.18297 5.0 5
  192.06894 6.0 6
  192.09439 11.0 11
  193.08165 9.0 9
  193.09944 61.0 61
  193.10881 34.0 34
  194.00391 9.0 9
  194.07175 6.0 6
  194.10336 17.0 17
  195.07945 46.0 46
  195.10869 46.0 46
  195.11957 52.0 52
  196.07956 11.0 11
  196.1217 17.0 17
  196.1342 5.0 5
  196.16284 5.0 5
  197.09557 83.0 83
  197.12238 14.0 14
  197.13631 86.0 86
  198.10226 13.0 13
  198.14529 18.0 18
  199.07341 29.0 29
  199.08344 11.0 11
  199.10852 35.0 35
  199.13708 11.0 11
  199.15079 91.0 91
  200.10864 6.0 6
  200.15019 18.0 18
  201.04823 10.0 10
  201.06186 12.0 12
  201.09064 95.0 95
  201.11711 11.0 11
  201.12331 22.0 22
  201.15125 19.0 19
  201.16196 21.0 21
  202.09627 6.0 6
  202.13713 7.0 7
  202.17166 9.0 9
  203.04524 6.0 6
  203.06343 21.0 21
  203.07211 83.0 83
  203.10773 11.0 11
  203.1449 6.0 6
  203.17963 149.0 149
  204.07437 22.0 22
  204.17514 23.0 23
  204.27274 8.0 8
  205.08443 13.0 13
  205.10036 19.0 19
  205.15007 17.0 17
  205.15829 31.0 31
  206.06677 7.0 7
  206.10191 7.0 7
  206.1655 8.0 8
  207.10992 10.0 10
  207.11642 21.0 21
  208.08382 10.0 10
  208.11479 23.0 23
  209.09668 66.0 66
  209.10466 54.0 54
  209.13066 74.0 74
  209.14453 19.0 19
  210.10201 32.0 32
  210.13863 15.0 15
  211.07593 17.0 17
  211.08459 7.0 7
  211.11005 143.0 143
  211.14709 63.0 63
  212.11533 27.0 27
  212.15401 30.0 30
  212.16399 5.0 5
  212.39572 7.0 7
  212.81834 6.0 6
  213.0925 88.0 88
  213.13194 10.0 10
  213.14903 9.0 9
  213.16399 87.0 87
  214.09541 10.0 10
  214.16805 80.0 80
  215.06892 29.0 29
  215.09091 10.0 10
  215.10275 8.0 8
  215.11121 10.0 10
  215.13127 19.0 19
  215.14682 6.0 6
  215.18019 467.0 467
  216.11128 17.0 17
  216.14781 5.0 5
  216.1799 55.0 55
  217.08157 31.0 31
  217.09071 22.0 22
  217.12183 20.0 20
  217.19518 25.0 25
  218.07462 7.0 7
  218.11133 17.0 17
  218.20441 6.0 6
  219.0784 6.0 6
  219.11772 57.0 57
  220.09489 7.0 7
  220.10301 6.0 6
  220.12538 13.0 13
  221.07124 7.0 7
  221.09663 53.0 53
  221.12831 6.0 6
  221.13995 32.0 32
  222.08772 6.0 6
  222.13162 12.0 12
  222.15393 13.0 13
  223.08131 10.0 10
  223.10234 14.0 14
  223.11617 31.0 31
  223.1241 11.0 11
  223.14574 10.0 10
  223.15344 31.0 31
  223.90228 11.0 11
  224.07695 18.0 18
  224.11008 18.0 18
  224.14761 9.0 9
  225.08197 16.0 16
  225.09149 20.0 20
  225.12816 34.0 34
  225.15807 25.0 25
  225.17786 10.0 10
  226.08218 8.0 8
  226.15852 5.0 5
  226.16521 18.0 18
  227.08009 9.0 9
  227.10941 144.0 144
  227.12947 6.0 6
  227.14787 17.0 17
  227.17159 13.0 13
  227.18129 33.0 33
  228.11163 12.0 12
  228.15163 8.0 8
  228.18553 31.0 31
  229.08427 8.0 8
  229.09818 7.0 7
  229.10754 5.0 5
  229.12224 24.0 24
  229.13434 7.0 7
  229.15402 6.0 6
  229.16632 5.0 5
  229.1963 7.0 7
  230.112 9.0 9
  230.12708 17.0 17
  230.13686 6.0 6
  231.07675 14.0 14
  231.10463 30.0 30
  231.11534 22.0 22
  231.17549 11.0 11
  231.5141 6.0 6
  232.08104 10.0 10
  232.17897 14.0 14
  233.09502 19.0 19
  233.12953 40.0 40
  233.14142 11.0 11
  233.16161 8.0 8
  234.09607 6.0 6
  234.73248 7.0 7
  235.11035 22.0 22
  235.13737 16.0 16
  235.15082 54.0 54
  236.11317 11.0 11
  236.15065 18.0 18
  237.08528 45.0 45
  237.09564 37.0 37
  237.11453 16.0 16
  237.1295 41.0 41
  237.14157 15.0 15
  237.16547 65.0 65
  238.09567 16.0 16
  238.12605 17.0 17
  238.16873 17.0 17
  238.18106 13.0 13
  239.08859 9.0 9
  239.10574 109.0 109
  239.14978 6.0 6
  239.18063 20.0 20
  240.10434 41.0 41
  240.11772 10.0 10
  241.08571 13.0 13
  241.1104 14.0 14
  241.12096 53.0 53
  241.13805 7.0 7
  241.15926 17.0 17
  241.19186 24.0 24
  242.0795 12.0 12
  242.12131 15.0 15
  242.13225 6.0 6
  243.08011 6.0 6
  243.10115 5.0 5
  243.13484 19.0 19
  244.13289 17.0 17
  244.16232 7.0 7
  245.11906 27.0 27
  245.13359 40.0 40
  245.19394 7.0 7
  246.13313 10.0 10
  246.14769 13.0 13
  247.11455 14.0 14
  247.13345 16.0 16
  247.15152 5.0 5
  247.16728 12.0 12
  248.15617 7.0 7
  249.1237 39.0 39
  249.15857 12.0 12
  250.09235 7.0 7
  250.4279 8.0 8
  251.10277 46.0 46
  251.17825 124.0 124
  252.11024 6.0 6
  252.16591 13.0 13
  252.18709 20.0 20
  252.1951 45.0 45
  253.09897 7.0 7
  253.11969 32.0 32
  253.12984 21.0 21
  253.14261 9.0 9
  253.15733 11.0 11
  253.19392 146.0 146
  254.12811 9.0 9
  254.19769 36.0 36
  254.2106 37.0 37
  255.08546 5.0 5
  255.10271 80.0 80
  255.1402 23.0 23
  255.17278 26.0 26
  255.71988 7.0 7
  256.07971 6.0 6
  256.10492 15.0 15
  256.14789 9.0 9
  256.21616 6.0 6
  257.09659 7.0 7
  257.11551 55.0 55
  257.14203 12.0 12
  257.15503 7.0 7
  258.11725 24.0 24
  259.09445 6.0 6
  259.11548 18.0 18
  259.14505 21.0 21
  259.16165 15.0 15
  260.09152 6.0 6
  260.16635 6.0 6
  261.12933 10.0 10
  261.16422 16.0 16
  262.16745 15.0 15
  263.09579 17.0 17
  263.13705 8.0 8
  263.14645 11.0 11
  263.18164 42.0 42
  264.1427 13.0 13
  265.12488 56.0 56
  265.15619 11.0 11
  265.16687 11.0 11
  266.13016 15.0 15
  266.13733 7.0 7
  267.1178 7.0 7
  267.13699 11.0 11
  267.19699 6.0 6
  268.64401 6.0 6
  269.1058 10.0 10
  269.13904 8.0 8
  269.15656 11.0 11
  269.18976 43.0 43
  270.11792 8.0 8
  270.16217 5.0 5
  270.19839 22.0 22
  271.12289 10.0 10
  271.13513 15.0 15
  271.14511 12.0 12
  271.19965 10.0 10
  271.26236 6.0 6
  272.21683 6.0 6
  273.03528 5.0 5
  273.12347 6.0 6
  273.13959 18.0 18
  273.15619 15.0 15
  273.16928 13.0 13
  274.16989 18.0 18
  275.17825 23.0 23
  276.13632 10.0 10
  277.11557 13.0 13
  277.15622 25.0 25
  277.20071 40.0 40
  278.1329 12.0 12
  278.18051 6.0 6
  279.13669 17.0 17
  279.17224 25.0 25
  279.20499 14.0 14
  280.13098 6.0 6
  280.17889 6.0 6
  281.15793 13.0 13
  281.19022 8.0 8
  282.12424 5.0 5
  282.15485 6.0 6
  282.22058 6.0 6
  283.1196 10.0 10
  283.13126 32.0 32
  283.14868 11.0 11
  283.17566 14.0 14
  284.17645 7.0 7
  285.15347 9.0 9
  285.16855 12.0 12
  286.14709 11.0 11
  287.14645 10.0 10
  287.18353 18.0 18
  288.18881 7.0 7
  289.15771 5.0 5
  289.19937 7.0 7
  290.15103 10.0 10
  291.13358 18.0 18
  291.17252 7.0 7
  291.20755 29.0 29
  292.13043 9.0 9
  292.15088 5.0 5
  292.21854 9.0 9
  293.14777 23.0 23
  293.18317 8.0 8
  295.12961 10.0 10
  295.16434 19.0 19
  295.20163 20.0 20
  295.47012 5.0 5
  297.15204 14.0 14
  297.18365 16.0 16
  299.14273 6.0 6
  300.18649 7.0 7
  301.15897 7.0 7
  301.19632 49.0 49
  302.18768 9.0 9
  302.20151 33.0 33
  303.21747 12.0 12
  304.14664 8.0 8
  304.17606 6.0 6
  305.14651 18.0 18
  305.1604 9.0 9
  305.17798 7.0 7
  305.19238 18.0 18
  306.15424 17.0 17
  306.16751 13.0 13
  306.18887 17.0 17
  309.14755 15.0 15
  309.22952 13.0 13
  310.22256 23.0 23
  310.5517 13.0 13
  311.15268 9.0 9
  313.13754 6.0 6
  313.18527 8.0 8
  314.16687 5.0 5
  319.16171 13.0 13
  319.20721 72.0 72
  320.20557 17.0 17
  320.21976 25.0 25
  321.13977 5.0 5
  321.18607 31.0 31
  321.21844 21.0 21
  322.19177 8.0 8
  322.2363 7.0 7
  323.13086 6.0 6
  323.16821 17.0 17
  323.20212 64.0 64
  324.20609 14.0 14
  324.55933 5.0 5
  329.18906 57.0 57
  330.1908 15.0 15
  330.20828 11.0 11
  332.20135 11.0 11
  337.21759 54.0 54
  338.14474 9.0 9
  338.17297 6.0 6
  338.21164 7.0 7
  339.19391 6.0 6
  339.20822 10.0 10
  341.02029 5.0 5
  341.89432 7.0 7
  347.19577 128.0 128
  347.21661 25.0 25
  348.1972 25.0 25
  348.20898 31.0 31
  355.20667 10.0 10
  355.23215 6.0 6
  365.0274 6.0 6
  365.2084 204.0 204
  365.23053 21.0 21
  366.19919 26.0 26
  366.21869 93.0 93
  366.95715 6.0 6
  367.21579 9.0 9
  383.18048 5.0 5
  383.19391 6.0 6
  383.22229 83.0 83
  384.2261 31.0 31
  385.22607 18.0 18
  388.19067 5.0 5
  395.65094 8.0 8
  401.2121 47.0 47
  401.2388 175.0 175
  402.22412 20.0 20
  402.23563 43.0 43
  403.22745 6.0 6
  403.2449 10.0 10
  407.22238 6.0 6
  407.52872 6.0 6
  408.9801 6.0 6
  425.2326 9.0 9
  443.23459 27.0 27
  443.2514 42.0 42
//
