ACCESSION: MSBNK-RIKEN-PR301646
RECORD_TITLE: Sanguinarine; LC-ESI-QTOF; MS2
DATE: 2019.03.28
AUTHORS: Tetsuya Mori, Center for Sustainable Resource Science, RIKEN
LICENSE: CC BY-NC-SA
PUBLICATION: Tsugawa H., Nakabayashi R., Mori T., Yamada Y., Takahashi M., Rai A., Sugiyama R., Yamamoto H., Nakaya T., Yamazaki M., Kooke R., Bac-Molenaar JA., Oztolan-Erol N., Keurentjes JJB., Arita M., Saito K. (2019) "A cheminformatics approach to characterize metabolomes in stable-isotope-labeled organisms" Nature Methods 16(4):295-298. [doi:10.1038/s41592-019-0358-2]
COMMENT: registered in RIKEN PlaSMA
CH$NAME: Sanguinarine
CH$COMPOUND_CLASS: Quaternary benzophenanthridine alkaloids
CH$FORMULA: [C20H14NO4]+
CH$EXACT_MASS: 332.335
CH$SMILES: C[N+]1=CC2=C3OCOC3=CC=C2C2=C1C1=CC3=C(OCO3)C=C1C=C2
CH$IUPAC: InChI=1S/C20H14NO4/c1-21-8-15-12(4-5-16-20(15)25-10-22-16)13-3-2-11-6-17-18(24-9-23-17)7-14(11)19(13)21/h2-8H,9-10H2,1H3/q+1
CH$LINK: INCHIKEY INVGWHRKADIJHF-UHFFFAOYSA-N
AC$INSTRUMENT: LC, Waters Acquity UPLC System; MS, Waters Xevo G2 Q-Tof
AC$INSTRUMENT_TYPE: LC-ESI-QTOF
AC$MASS_SPECTROMETRY: MS_TYPE MS2
AC$MASS_SPECTROMETRY: ION_MODE POSITIVE
AC$MASS_SPECTROMETRY: COLLISION_ENERGY 6V
AC$MASS_SPECTROMETRY: DESOLVATION_GAS_FLOW 800/h
AC$MASS_SPECTROMETRY: DESOLVATION_TEMPERATURE 450 C
AC$MASS_SPECTROMETRY: IONIZATION ESI
AC$CHROMATOGRAPHY: CAPILLARY_VOLTAGE +3.00 kV
AC$CHROMATOGRAPHY: COLUMN_NAME Acquity bridged ethyl hybrid C18 (1.7 um, 2.1 mm * 100 mm, Waters)
AC$CHROMATOGRAPHY: COLUMN_TEMPERATURE 40 C
AC$CHROMATOGRAPHY: FLOW_GRADIENT A/B = (99.5%/0.5% at 0 min, 99.5%/0.5% at 0.1 min, 20%/80% at 10 min, 0.5%/99.5% at 10.1 min, 0.5%/99.5% at 12.0 min, 99.5%/0.5% at 12.1 min, 99.5%/0.5% at 15.0 min)
AC$CHROMATOGRAPHY: FLOW_RATE 0.3 ml/min at 0 min, 0.3 ml/min at 10 min, 0.4 ml/min at 10.1 min, 0.4 ml/min at 14.4 min, 0.3 ml/min at 14.5 min
AC$CHROMATOGRAPHY: RETENTION_TIME 4.8517
AC$CHROMATOGRAPHY: SOLVENT A water including 0.1% formic acid
AC$CHROMATOGRAPHY: SOLVENT B acetonitrile including 0.1% formic acid
MS$FOCUSED_ION: PRECURSOR_TYPE [M]+
MS$FOCUSED_ION: PRECURSOR_M/Z 332.0911858
PK$SPLASH: splash10-014i-0290000000-0f0e67f2ccc53ba8fb0e
PK$NUM_PEAK: 216
PK$PEAK: m/z int. rel.int.
  116.05368 16.0 16
  148.05847 14.0 14
  150.04004 10.0 10
  151.04909 11.0 11
  151.05884 48.0 48
  152.05835 14.0 14
  153.05501 17.0 17
  155.07191 12.0 12
  158.15816 9.0 9
  162.05009 12.0 12
  163.04991 10.0 10
  163.05844 8.0 8
  164.05977 76.0 76
  164.06874 11.0 11
  165.06879 40.0 40
  165.07668 19.0 19
  172.91493 11.0 11
  174.05055 23.0 23
  175.03941 10.0 10
  175.05229 81.0 81
  175.06897 14.0 14
  176.041 26.0 26
  176.06273 119.0 119
  176.07269 16.0 16
  177.05072 11.0 11
  177.06329 91.0 91
  177.07553 18.0 18
  177.85489 9.0 9
  178.07764 75.0 75
  179.06993 8.0 8
  179.08072 26.0 26
  180.03735 9.0 9
  183.06165 8.0 8
  187.05106 11.0 11
  187.06042 10.0 10
  188.05682 41.0 41
  188.06494 75.0 75
  189.04567 10.0 10
  189.0699 702.0 701
  189.13017 8.0 8
  189.14961 8.0 8
  190.06145 137.0 137
  190.07036 135.0 135
  190.08054 129.0 129
  191.06886 26.0 26
  191.07811 20.0 20
  191.08835 10.0 10
  191.09863 9.0 9
  191.9028 9.0 9
  192.07675 9.0 9
  192.08504 8.0 8
  192.09639 10.0 10
  193.06831 9.0 9
  193.07796 14.0 14
  195.04219 10.0 10
  200.04048 19.0 19
  200.06346 76.0 76
  201.05908 367.0 367
  202.03879 12.0 12
  202.04951 24.0 24
  202.06871 290.0 290
  202.07776 71.0 71
  203.04634 12.0 12
  203.07187 453.0 453
  203.08803 42.0 42
  204.04633 15.0 15
  204.05789 48.0 48
  204.08208 373.0 373
  204.09589 18.0 18
  204.9068 8.0 8
  205.04982 11.0 11
  205.06508 65.0 65
  205.08807 86.0 86
  206.06485 15.0 15
  206.1022 13.0 13
  207.08301 13.0 13
  212.06754 9.0 9
  214.05797 134.0 134
  214.0674 323.0 323
  214.86069 11.0 11
  215.03761 9.0 9
  215.07256 728.0 727
  216.08035 1000.0 999
  216.28795 14.0 14
  216.87503 9.0 9
  217.07861 214.0 214
  217.09264 416.0 416
  217.78023 10.0 10
  218.04967 13.0 13
  218.0683 30.0 30
  218.08208 100.0 100
  218.09648 445.0 445
  218.62634 8.0 8
  219.06844 10.0 10
  219.08731 54.0 54
  219.10469 123.0 123
  220.05963 10.0 10
  220.07578 20.0 20
  220.08333 15.0 15
  222.07407 8.0 8
  225.05826 18.0 18
  226.06194 8.0 8
  226.0858 11.0 11
  227.04744 15.0 15
  227.05753 9.0 9
  227.0744 70.0 70
  227.08748 9.0 9
  228.07881 68.0 68
  228.09007 39.0 39
  228.96622 8.0 8
  229.05536 86.0 86
  229.07773 20.0 20
  229.09099 38.0 38
  229.69781 10.0 10
  230.02951 9.0 9
  230.04831 30.0 30
  230.06064 134.0 134
  230.0831 10.0 10
  230.09969 39.0 39
  231.033 9.0 9
  231.04575 37.0 37
  231.0639 119.0 119
  231.07422 43.0 43
  232.04855 33.0 33
  232.06859 115.0 115
  232.08159 159.0 159
  232.9458 9.0 9
  233.05237 33.0 33
  233.08116 137.0 137
  233.09975 15.0 15
  233.10863 15.0 15
  234.08473 19.0 19
  234.27588 9.0 9
  235.07202 8.0 8
  235.09082 11.0 11
  237.07797 13.0 13
  240.07692 20.0 20
  242.05989 20.0 20
  243.06073 13.0 13
  243.07278 18.0 18
  243.0925 11.0 11
  244.05374 16.0 16
  244.07536 316.0 316
  244.24284 13.0 13
  245.05507 10.0 10
  245.0681 21.0 21
  245.08221 77.0 77
  245.09279 56.0 56
  246.06564 21.0 21
  246.08752 127.0 127
  246.09869 117.0 117
  247.04552 8.0 8
  247.06052 19.0 19
  247.07132 10.0 10
  247.09677 119.0 119
  247.11288 13.0 13
  248.10558 41.0 41
  248.11646 27.0 27
  249.11794 12.0 12
  249.90868 9.0 9
  255.0648 12.0 12
  256.08853 12.0 12
  257.08008 21.0 21
  258.04245 10.0 10
  258.05853 25.0 25
  258.06668 22.0 22
  258.07843 11.0 11
  258.98065 14.0 14
  259.04181 32.0 32
  259.05267 61.0 61
  259.06659 105.0 105
  259.07751 28.0 28
  260.07025 182.0 182
  260.41022 10.0 10
  261.01929 12.0 12
  261.02884 10.0 10
  261.0705 46.0 46
  261.08386 82.0 82
  262.08432 36.0 36
  262.09808 41.0 41
  270.06503 11.0 11
  272.06717 37.0 37
  272.07645 30.0 30
  273.08218 10.0 10
  273.09695 16.0 16
  274.04105 10.0 10
  274.05533 9.0 9
  274.08847 94.0 94
  274.10965 16.0 16
  275.03622 11.0 11
  275.08499 16.0 16
  275.09619 49.0 49
  275.10562 26.0 26
  276.06943 9.0 9
  276.10788 10.0 10
  276.13171 10.0 10
  284.9584 10.0 10
  285.03958 12.0 12
  286.05029 38.0 38
  286.08044 24.0 24
  287.04514 10.0 10
  287.05826 54.0 54
  287.07101 8.0 8
  288.05945 60.0 60
  288.06824 88.0 88
  288.08093 13.0 13
  289.06372 9.0 9
  289.07492 40.0 40
  290.08133 18.0 18
  306.07733 17.0 17
  316.05011 54.0 54
  316.06891 61.0 61
  317.0676 34.0 34
  318.08438 8.0 8
  322.97192 10.0 10
  332.10272 9.0 9
//
