ACCESSION: MSBNK-RIKEN-PR303885
RECORD_TITLE: Asiaticoside; LC-ESI-QTOF; MS2
DATE: 2019.03.28
AUTHORS: Tetsuya Mori, Center for Sustainable Resource Science, RIKEN
LICENSE: CC BY-NC-SA
PUBLICATION: Tsugawa H., Nakabayashi R., Mori T., Yamada Y., Takahashi M., Rai A., Sugiyama R., Yamamoto H., Nakaya T., Yamazaki M., Kooke R., Bac-Molenaar JA., Oztolan-Erol N., Keurentjes JJB., Arita M., Saito K. (2019) "A cheminformatics approach to characterize metabolomes in stable-isotope-labeled organisms" Nature Methods 16(4):295-298. [doi:10.1038/s41592-019-0358-2]
COMMENT: registered in RIKEN PlaSMA
CH$NAME: Asiaticoside
CH$COMPOUND_CLASS: Triterpene saponins
CH$FORMULA: C48H78O19
CH$EXACT_MASS: 959.133
CH$SMILES: CC1CCC2(CCC3(C)C(=CCC4C5(C)CC(O)C(O)C(C)(CO)C5CCC34C)C2C1C)C(=O)OC1OC(COC2OC(CO)C(OC3OC(C)C(O)C(O)C3O)C(O)C2O)C(O)C(O)C1O
CH$IUPAC: InChI=1S/C48H78O19/c1-20-10-13-48(15-14-46(6)23(29(48)21(20)2)8-9-28-44(4)16-24(51)39(60)45(5,19-50)27(44)11-12-47(28,46)7)43(61)67-42-36(58)33(55)31(53)26(65-42)18-62-40-37(59)34(56)38(25(17-49)64-40)66-41-35(57)32(54)30(52)22(3)63-41/h8,20-22,24-42,49-60H,9-19H2,1-7H3
CH$LINK: INCHIKEY WYQVAPGDARQUBT-UHFFFAOYSA-N
AC$INSTRUMENT: LC, Waters Acquity UPLC System; MS, Waters Xevo G2 Q-Tof
AC$INSTRUMENT_TYPE: LC-ESI-QTOF
AC$MASS_SPECTROMETRY: MS_TYPE MS2
AC$MASS_SPECTROMETRY: ION_MODE POSITIVE
AC$MASS_SPECTROMETRY: COLLISION_ENERGY 6V
AC$MASS_SPECTROMETRY: DESOLVATION_GAS_FLOW 800/h
AC$MASS_SPECTROMETRY: DESOLVATION_TEMPERATURE 450 C
AC$MASS_SPECTROMETRY: IONIZATION ESI
AC$CHROMATOGRAPHY: CAPILLARY_VOLTAGE +3.00 kV
AC$CHROMATOGRAPHY: COLUMN_NAME Acquity bridged ethyl hybrid C18 (1.7 um, 2.1 mm * 100 mm, Waters)
AC$CHROMATOGRAPHY: COLUMN_TEMPERATURE 40 C
AC$CHROMATOGRAPHY: FLOW_GRADIENT A/B = (99.5%/0.5% at 0 min, 99.5%/0.5% at 0.1 min, 20%/80% at 10 min, 0.5%/99.5% at 10.1 min, 0.5%/99.5% at 12.0 min, 99.5%/0.5% at 12.1 min, 99.5%/0.5% at 15.0 min)
AC$CHROMATOGRAPHY: FLOW_RATE 0.3 ml/min at 0 min, 0.3 ml/min at 10 min, 0.4 ml/min at 10.1 min, 0.4 ml/min at 14.4 min, 0.3 ml/min at 14.5 min
AC$CHROMATOGRAPHY: RETENTION_TIME 5.20985
AC$CHROMATOGRAPHY: SOLVENT A water including 0.1% formic acid
AC$CHROMATOGRAPHY: SOLVENT B acetonitrile including 0.1% formic acid
MS$FOCUSED_ION: PRECURSOR_TYPE [M+H]+
MS$FOCUSED_ION: PRECURSOR_M/Z 959.5210067
PK$SPLASH: splash10-000i-1961500000-477b0433aa539ece5a0d
PK$NUM_PEAK: 180
PK$PEAK: m/z int. rel.int.
  71.05096 60.0 60
  73.0291 43.0 43
  75.04502 53.0 53
  83.04739 103.0 103
  85.02782 702.0 701
  86.03006 53.0 53
  95.08341 63.0 63
  97.02473 55.0 55
  103.0385 83.0 83
  107.08545 45.0 45
  109.10545 138.0 138
  110.1027 53.0 53
  111.041 63.0 63
  111.08062 45.0 45
  116.26019 43.0 43
  119.0841 143.0 143
  119.08968 60.0 60
  120.08411 43.0 43
  125.09579 140.0 140
  126.1023 43.0 43
  127.0321 50.0 50
  127.04154 53.0 53
  128.04201 95.0 95
  129.05396 1000.0 999
  130.05646 113.0 113
  134.0961 63.0 63
  135.10416 50.0 50
  135.11656 83.0 83
  145.04829 333.0 333
  145.09627 48.0 48
  145.10416 100.0 100
  145.40196 43.0 43
  147.0652 419.0 419
  147.11537 45.0 45
  148.07678 48.0 48
  149.12798 88.0 88
  151.07603 50.0 50
  151.11003 50.0 50
  152.11021 50.0 50
  159.09714 53.0 53
  159.11995 383.0 383
  159.5563 43.0 43
  161.12131 43.0 43
  161.13051 73.0 73
  163.05934 110.0 110
  163.07251 65.0 65
  163.14578 80.0 80
  164.49983 43.0 43
  165.06973 48.0 48
  165.12755 48.0 48
  173.11603 43.0 43
  173.13127 45.0 45
  173.13945 53.0 53
  175.1414 213.0 213
  175.15501 105.0 105
  176.15285 50.0 50
  178.17171 45.0 45
  179.21419 100.0 100
  180.14563 78.0 78
  185.10385 50.0 50
  186.13628 45.0 45
  187.05655 50.0 50
  187.1385 198.0 198
  187.14787 526.0 525
  188.15067 100.0 100
  189.16176 424.0 424
  190.17163 50.0 50
  190.9353 68.0 68
  191.17085 105.0 105
  191.17928 133.0 133
  193.16069 43.0 43
  197.12973 50.0 50
  199.14783 173.0 173
  200.15651 75.0 75
  201.16171 125.0 125
  201.17076 95.0 95
  202.16489 50.0 50
  203.15837 50.0 50
  203.17094 130.0 130
  203.18353 195.0 195
  204.06847 45.0 45
  205.15773 105.0 105
  205.20093 70.0 70
  207.16869 45.0 45
  209.08104 75.0 75
  213.07076 50.0 50
  213.14511 43.0 43
  213.15921 311.0 311
  213.17186 138.0 138
  214.17261 50.0 50
  215.15979 45.0 45
  215.18381 153.0 153
  216.18855 43.0 43
  217.15674 50.0 50
  218.19916 58.0 58
  219.17331 564.0 563
  221.15591 63.0 63
  221.18417 60.0 60
  223.15794 43.0 43
  223.16983 48.0 48
  228.18074 48.0 48
  229.16551 45.0 45
  229.19891 50.0 50
  230.16859 68.0 68
  231.17088 105.0 105
  231.1842 80.0 80
  231.20833 45.0 45
  232.174 85.0 85
  232.21446 53.0 53
  233.19069 60.0 60
  233.20343 50.0 50
  235.16821 233.0 233
  236.14162 105.0 105
  236.1687 65.0 65
  237.08286 105.0 105
  239.17285 45.0 45
  241.18269 50.0 50
  241.20168 43.0 43
  245.17809 70.0 70
  247.16982 248.0 248
  248.17627 60.0 60
  249.17511 50.0 50
  255.08047 115.0 115
  255.09378 95.0 95
  259.16873 50.0 50
  261.1759 80.0 80
  261.18484 55.0 55
  262.18933 93.0 93
  264.18698 43.0 43
  267.19977 95.0 95
  268.21838 63.0 63
  269.17288 43.0 43
  269.23428 45.0 45
  273.09583 45.0 45
  282.22256 43.0 43
  283.21017 55.0 55
  289.19925 48.0 48
  300.23352 55.0 55
  311.23981 103.0 103
  319.25027 45.0 45
  326.29224 45.0 45
  327.24463 98.0 98
  328.23642 73.0 73
  340.27814 45.0 45
  341.23468 75.0 75
  343.25235 55.0 55
  353.24579 43.0 43
  367.26227 58.0 58
  377.33234 60.0 60
  379.33627 48.0 48
  389.32553 163.0 163
  390.31424 118.0 118
  392.33456 68.0 68
  396.29257 48.0 48
  399.3045 48.0 48
  405.31311 50.0 50
  407.28882 50.0 50
  407.30231 45.0 45
  407.33075 629.0 628
  407.34497 353.0 353
  407.36838 45.0 45
  408.3244 303.0 303
  408.34726 113.0 113
  409.34601 85.0 85
  411.32526 50.0 50
  414.98163 43.0 43
  418.34384 43.0 43
  435.31287 65.0 65
  435.33362 697.0 696
  436.31583 100.0 100
  436.33752 241.0 241
  437.33023 53.0 53
  437.34943 50.0 50
  451.29761 45.0 45
  453.32755 802.0 801
  453.35797 90.0 90
  454.35727 93.0 93
  457.36752 48.0 48
  472.3421 45.0 45
  490.34772 43.0 43
//
