ACCESSION: MSBNK-RIKEN-PR301839
RECORD_TITLE: Protopine; LC-ESI-QTOF; MS2
DATE: 2019.03.28
AUTHORS: Tetsuya Mori, Center for Sustainable Resource Science, RIKEN
LICENSE: CC BY-NC-SA
PUBLICATION: Tsugawa H., Nakabayashi R., Mori T., Yamada Y., Takahashi M., Rai A., Sugiyama R., Yamamoto H., Nakaya T., Yamazaki M., Kooke R., Bac-Molenaar JA., Oztolan-Erol N., Keurentjes JJB., Arita M., Saito K. (2019) "A cheminformatics approach to characterize metabolomes in stable-isotope-labeled organisms" Nature Methods 16(4):295-298. [doi:10.1038/s41592-019-0358-2]
COMMENT: registered in RIKEN PlaSMA
CH$NAME: Protopine
CH$COMPOUND_CLASS: Protopine alkaloids
CH$FORMULA: C20H19NO5
CH$EXACT_MASS: 353.374
CH$SMILES: CN1CCC2=CC3=C(OCO3)C=C2C(=O)CC2=C(C1)C1=C(OCO1)C=C2
CH$IUPAC: InChI=1S/C20H19NO5/c1-21-5-4-13-7-18-19(25-10-24-18)8-14(13)16(22)6-12-2-3-17-20(15(12)9-21)26-11-23-17/h2-3,7-8H,4-6,9-11H2,1H3
CH$LINK: INCHIKEY GPTFURBXHJWNHR-UHFFFAOYSA-N
AC$INSTRUMENT: LC, Waters Acquity UPLC System; MS, Waters Xevo G2 Q-Tof
AC$INSTRUMENT_TYPE: LC-ESI-QTOF
AC$MASS_SPECTROMETRY: MS_TYPE MS2
AC$MASS_SPECTROMETRY: ION_MODE POSITIVE
AC$MASS_SPECTROMETRY: COLLISION_ENERGY 6V
AC$MASS_SPECTROMETRY: DESOLVATION_GAS_FLOW 800/h
AC$MASS_SPECTROMETRY: DESOLVATION_TEMPERATURE 450 C
AC$MASS_SPECTROMETRY: IONIZATION ESI
AC$CHROMATOGRAPHY: CAPILLARY_VOLTAGE +3.00 kV
AC$CHROMATOGRAPHY: COLUMN_NAME Acquity bridged ethyl hybrid C18 (1.7 um, 2.1 mm * 100 mm, Waters)
AC$CHROMATOGRAPHY: COLUMN_TEMPERATURE 40 C
AC$CHROMATOGRAPHY: FLOW_GRADIENT A/B = (99.5%/0.5% at 0 min, 99.5%/0.5% at 0.1 min, 20%/80% at 10 min, 0.5%/99.5% at 10.1 min, 0.5%/99.5% at 12.0 min, 99.5%/0.5% at 12.1 min, 99.5%/0.5% at 15.0 min)
AC$CHROMATOGRAPHY: FLOW_RATE 0.3 ml/min at 0 min, 0.3 ml/min at 10 min, 0.4 ml/min at 10.1 min, 0.4 ml/min at 14.4 min, 0.3 ml/min at 14.5 min
AC$CHROMATOGRAPHY: RETENTION_TIME 4.362817
AC$CHROMATOGRAPHY: SOLVENT A water including 0.1% formic acid
AC$CHROMATOGRAPHY: SOLVENT B acetonitrile including 0.1% formic acid
MS$FOCUSED_ION: PRECURSOR_TYPE [M+H]+
MS$FOCUSED_ION: PRECURSOR_M/Z 354.1335992
PK$SPLASH: splash10-000i-0920000000-19306e1d1110f8504d71
PK$NUM_PEAK: 208
PK$PEAK: m/z int. rel.int.
  74.83061 5.0 5
  77.03139 13.0 13
  77.04018 38.0 38
  79.0401 6.0 6
  79.0517 9.0 9
  79.05853 10.0 10
  81.07146 10.0 10
  89.49551 6.0 6
  90.95953 6.0 6
  91.04264 11.0 11
  91.05601 104.0 104
  92.05862 7.0 7
  93.07079 6.0 6
  102.04603 10.0 10
  103.04548 8.0 8
  103.05492 53.0 53
  107.04701 22.0 22
  107.05298 30.0 30
  107.74232 6.0 6
  108.04992 8.0 8
  109.07222 7.0 7
  115.05376 16.0 16
  117.0356 17.0 17
  117.0658 9.0 9
  118.05857 8.0 8
  118.06499 11.0 11
  119.04862 131.0 131
  120.04724 8.0 8
  123.44682 7.0 7
  129.03244 8.0 8
  130.04964 9.0 9
  130.06528 114.0 114
  131.04541 9.0 9
  131.05463 9.0 9
  131.07013 66.0 66
  131.07716 71.0 71
  132.0766 31.0 31
  132.08363 31.0 31
  133.09004 6.0 6
  135.045 95.0 95
  136.05112 10.0 10
  138.05492 7.0 7
  141.07256 6.0 6
  143.2887 5.0 5
  144.04791 11.0 11
  144.07431 8.0 8
  146.05263 9.0 9
  146.06015 7.0 7
  146.06633 7.0 7
  147.04356 175.0 175
  148.0433 18.0 18
  148.59265 7.0 7
  149.02866 5.0 5
  149.06015 172.0 172
  150.0625 18.0 18
  151.04523 13.0 13
  151.05347 13.0 13
  152.06154 51.0 51
  152.07825 5.0 5
  153.05951 7.0 7
  153.07013 11.0 11
  154.06818 10.0 10
  158.0491 7.0 7
  158.06592 10.0 10
  159.03888 19.0 19
  159.06802 227.0 227
  160.0517 6.0 6
  160.06955 64.0 64
  160.07535 126.0 126
  161.0576 11.0 11
  161.0722 11.0 11
  161.08011 21.0 21
  162.06346 7.0 7
  163.02698 8.0 8
  163.04503 25.0 25
  163.05229 19.0 19
  163.07512 6.0 6
  164.0569 9.0 9
  164.92493 6.0 6
  165.04987 16.0 16
  165.06848 59.0 59
  166.06824 11.0 11
  166.08075 23.0 23
  167.04265 11.0 11
  167.06984 8.0 8
  167.0869 79.0 79
  171.04271 5.0 5
  172.07585 11.0 11
  173.05536 7.0 7
  174.05336 50.0 50
  174.06107 27.0 27
  175.03369 8.0 8
  175.06065 24.0 24
  176.04623 5.0 5
  176.06136 34.0 34
  176.07112 18.0 18
  176.07985 9.0 9
  177.06517 67.0 67
  177.07475 77.0 77
  178.04076 9.0 9
  178.05458 5.0 5
  178.07809 226.0 226
  178.09569 9.0 9
  179.04091 7.0 7
  179.05275 9.0 9
  179.08505 162.0 162
  180.08887 33.0 33
  181.0519 7.0 7
  188.07028 1000.0 999
  189.07103 807.0 806
  190.0576 14.0 14
  190.07809 242.0 242
  191.07253 31.0 31
  191.08572 78.0 78
  192.06252 27.0 27
  193.06474 18.0 18
  193.08527 7.0 7
  193.76439 5.0 5
  194.06161 9.0 9
  195.08203 30.0 30
  197.9169 5.0 5
  201.06725 9.0 9
  201.0787 8.0 8
  202.07472 8.0 8
  203.07436 7.0 7
  204.06209 9.0 9
  204.071 9.0 9
  205.06163 49.0 49
  205.07059 25.0 25
  205.08365 8.0 8
  206.06381 27.0 27
  206.07587 27.0 27
  207.07872 104.0 104
  208.05605 7.0 7
  208.08611 22.0 22
  208.09442 10.0 10
  209.04503 11.0 11
  209.06218 127.0 127
  210.06329 25.0 25
  211.06645 8.0 8
  216.08247 6.0 6
  217.05305 17.0 17
  217.06453 70.0 70
  217.07394 35.0 35
  218.05182 5.0 5
  218.06898 37.0 37
  218.09103 13.0 13
  219.07329 6.0 6
  219.07996 19.0 19
  221.05721 15.0 15
  221.08809 8.0 8
  222.07028 20.0 20
  223.0768 16.0 16
  232.04948 11.0 11
  233.08203 14.0 14
  233.24913 7.0 7
  234.07137 14.0 14
  234.09901 13.0 13
  235.05547 12.0 12
  235.0668 22.0 22
  235.08482 22.0 22
  235.09944 7.0 7
  236.07289 12.0 12
  237.05574 6.0 6
  237.09767 8.0 8
  238.05869 11.0 11
  238.07822 7.0 7
  238.09555 9.0 9
  246.07588 12.0 12
  246.10065 6.0 6
  247.0489 6.0 6
  247.07002 22.0 22
  247.07843 57.0 57
  247.08725 15.0 15
  248.07039 9.0 9
  248.08432 19.0 19
  248.10367 5.0 5
  249.0562 12.0 12
  249.07869 7.0 7
  250.05991 9.0 9
  250.07109 8.0 8
  254.3999 6.0 6
  262.08087 26.0 26
  262.09262 14.0 14
  263.0636 13.0 13
  263.0788 17.0 17
  263.09143 11.0 11
  265.08838 15.0 15
  275.05115 7.0 7
  275.06671 17.0 17
  276.07587 7.0 7
  276.09753 11.0 11
  276.121 5.0 5
  277.06577 12.0 12
  279.06668 10.0 10
  280.08292 6.0 6
  282.90784 7.0 7
  290.07431 9.0 9
  292.07407 7.0 7
  292.10382 9.0 9
  293.08286 13.0 13
  304.09631 5.0 5
  306.08133 7.0 7
  320.08627 8.0 8
  320.09573 26.0 26
  321.09109 11.0 11
  325.15695 5.0 5
  354.14209 6.0 6
//
