ACCESSION: MSBNK-RIKEN-PR308296
RECORD_TITLE: trans-piceid; LC-ESI-QTOF; MS2
DATE: 2019.03.28
AUTHORS: Tetsuya Mori, Center for Sustainable Resource Science, RIKEN
LICENSE: CC BY-NC-SA
PUBLICATION: Tsugawa H., Nakabayashi R., Mori T., Yamada Y., Takahashi M., Rai A., Sugiyama R., Yamamoto H., Nakaya T., Yamazaki M., Kooke R., Bac-Molenaar JA., Oztolan-Erol N., Keurentjes JJB., Arita M., Saito K. (2019) "A cheminformatics approach to characterize metabolomes in stable-isotope-labeled organisms" Nature Methods 16(4):295-298. [doi:10.1038/s41592-019-0358-2]
COMMENT: registered in RIKEN PlaSMA
CH$NAME: trans-piceid
CH$COMPOUND_CLASS: Stilbene glycosides
CH$FORMULA: C20H22O8
CH$EXACT_MASS: 390.388
CH$SMILES: OCC1OC(OC2=CC(C=CC3=CC=C(O)C=C3)=CC(O)=C2)C(O)C(O)C1O
CH$IUPAC: InChI=1S/C20H22O8/c21-10-16-17(24)18(25)19(26)20(28-16)27-15-8-12(7-14(23)9-15)2-1-11-3-5-13(22)6-4-11/h1-9,16-26H,10H2
CH$LINK: INCHIKEY HSTZMXCBWJGKHG-UHFFFAOYSA-N
AC$INSTRUMENT: LC, Waters Acquity UPLC System; MS, Waters Xevo G2 Q-Tof
AC$INSTRUMENT_TYPE: LC-ESI-QTOF
AC$MASS_SPECTROMETRY: MS_TYPE MS2
AC$MASS_SPECTROMETRY: ION_MODE NEGATIVE
AC$MASS_SPECTROMETRY: COLLISION_ENERGY 6V
AC$MASS_SPECTROMETRY: DESOLVATION_GAS_FLOW 800/h
AC$MASS_SPECTROMETRY: DESOLVATION_TEMPERATURE 450 C
AC$MASS_SPECTROMETRY: IONIZATION ESI
AC$CHROMATOGRAPHY: CAPILLARY_VOLTAGE -2.75 kV
AC$CHROMATOGRAPHY: COLUMN_NAME Acquity bridged ethyl hybrid C18 (1.7 um, 2.1 mm * 100 mm, Waters)
AC$CHROMATOGRAPHY: COLUMN_TEMPERATURE 40 C
AC$CHROMATOGRAPHY: FLOW_GRADIENT A/B = (99.5%/0.5% at 0 min, 99.5%/0.5% at 0.1 min, 20%/80% at 10 min, 0.5%/99.5% at 10.1 min, 0.5%/99.5% at 12.0 min, 99.5%/0.5% at 12.1 min, 99.5%/0.5% at 15.0 min)
AC$CHROMATOGRAPHY: FLOW_RATE 0.3 ml/min at 0 min, 0.3 ml/min at 10 min, 0.4 ml/min at 10.1 min, 0.4 ml/min at 14.4 min, 0.3 ml/min at 14.5 min
AC$CHROMATOGRAPHY: RETENTION_TIME 4.042817
AC$CHROMATOGRAPHY: SOLVENT A water including 0.1% formic acid
AC$CHROMATOGRAPHY: SOLVENT B acetonitrile including 0.1% formic acid
MS$FOCUSED_ION: PRECURSOR_TYPE [M-H]-
MS$FOCUSED_ION: PRECURSOR_M/Z 389.12419124783
PK$SPLASH: splash10-0006-0900000000-9e6493761d0ea1a98177
PK$NUM_PEAK: 37
PK$PEAK: m/z int. rel.int.
  107.01743 12.0 12
  115.05191 11.0 11
  117.03363 34.0 34
  118.04398 11.0 11
  119.04748 42.0 42
  141.07471 23.0 23
  142.04007 12.0 12
  142.08092 12.0 12
  143.04802 1000.0 999
  144.05655 22.0 22
  146.03482 12.0 12
  156.05588 41.0 41
  156.19341 11.0 11
  157.0627 107.0 107
  159.0808 85.0 85
  167.0481 14.0 14
  169.06885 11.0 11
  180.05876 95.0 95
  181.06451 144.0 144
  181.07863 10.0 10
  182.02863 12.0 12
  182.06677 55.0 55
  182.07417 73.0 73
  183.0359 12.0 12
  183.07045 15.0 15
  183.08701 44.0 44
  184.03798 11.0 11
  184.04881 45.0 45
  185.05954 187.0 187
  186.06093 29.0 29
  197.05215 11.0 11
  199.06792 10.0 10
  225.04436 11.0 11
  225.05585 40.0 40
  225.06441 36.0 36
  227.07059 63.0 63
  250.05969 10.0 10
//
