ACCESSION: MSBNK-RIKEN-PR300621
RECORD_TITLE: Palmatine; LC-ESI-QTOF; MS2
DATE: 2019.03.28
AUTHORS: Tetsuya Mori, Center for Sustainable Resource Science, RIKEN
LICENSE: CC BY-NC-SA
PUBLICATION: Tsugawa H., Nakabayashi R., Mori T., Yamada Y., Takahashi M., Rai A., Sugiyama R., Yamamoto H., Nakaya T., Yamazaki M., Kooke R., Bac-Molenaar JA., Oztolan-Erol N., Keurentjes JJB., Arita M., Saito K. (2019) "A cheminformatics approach to characterize metabolomes in stable-isotope-labeled organisms" Nature Methods 16(4):295-298. [doi:10.1038/s41592-019-0358-2]
COMMENT: registered in RIKEN PlaSMA
CH$NAME: Palmatine
CH$COMPOUND_CLASS: Protoberberine alkaloids and derivatives
CH$FORMULA: [C21H22NO4]+
CH$EXACT_MASS: 352.41
CH$SMILES: COC1=C(OC)C=C2C(CC[N+]3=C2C=C2C=CC(OC)=C(OC)C2=C3)=C1
CH$IUPAC: InChI=1S/C21H22NO4/c1-23-18-6-5-13-9-17-15-11-20(25-3)19(24-2)10-14(15)7-8-22(17)12-16(13)21(18)26-4/h5-6,9-12H,7-8H2,1-4H3/q+1
CH$LINK: INCHIKEY QUCQEUCGKKTEBI-UHFFFAOYSA-N
AC$INSTRUMENT: LC, Waters Acquity UPLC System; MS, Waters Xevo G2 Q-Tof
AC$INSTRUMENT_TYPE: LC-ESI-QTOF
AC$MASS_SPECTROMETRY: MS_TYPE MS2
AC$MASS_SPECTROMETRY: ION_MODE POSITIVE
AC$MASS_SPECTROMETRY: COLLISION_ENERGY 6V
AC$MASS_SPECTROMETRY: DESOLVATION_GAS_FLOW 800/h
AC$MASS_SPECTROMETRY: DESOLVATION_TEMPERATURE 450 C
AC$MASS_SPECTROMETRY: IONIZATION ESI
AC$CHROMATOGRAPHY: CAPILLARY_VOLTAGE +3.00 kV
AC$CHROMATOGRAPHY: COLUMN_NAME Acquity bridged ethyl hybrid C18 (1.7 um, 2.1 mm * 100 mm, Waters)
AC$CHROMATOGRAPHY: COLUMN_TEMPERATURE 40 C
AC$CHROMATOGRAPHY: FLOW_GRADIENT A/B = (99.5%/0.5% at 0 min, 99.5%/0.5% at 0.1 min, 20%/80% at 10 min, 0.5%/99.5% at 10.1 min, 0.5%/99.5% at 12.0 min, 99.5%/0.5% at 12.1 min, 99.5%/0.5% at 15.0 min)
AC$CHROMATOGRAPHY: FLOW_RATE 0.3 ml/min at 0 min, 0.3 ml/min at 10 min, 0.4 ml/min at 10.1 min, 0.4 ml/min at 14.4 min, 0.3 ml/min at 14.5 min
AC$CHROMATOGRAPHY: RETENTION_TIME 4.955133
AC$CHROMATOGRAPHY: SOLVENT A water including 0.1% formic acid
AC$CHROMATOGRAPHY: SOLVENT B acetonitrile including 0.1% formic acid
MS$FOCUSED_ION: PRECURSOR_TYPE [M]+
MS$FOCUSED_ION: PRECURSOR_M/Z 352.153786
PK$SPLASH: splash10-0udi-0019000000-e0f9ff1d3c5fc68c96cb
PK$NUM_PEAK: 33
PK$PEAK: m/z int. rel.int.
  250.09021 6.0 6
  263.09201 8.0 8
  264.1044 6.0 6
  275.09341 6.0 6
  276.10043 6.0 6
  278.07687 16.0 16
  278.08884 6.0 6
  279.08453 10.0 10
  291.0947 5.0 5
  291.12885 13.0 13
  292.09641 69.0 69
  293.10516 24.0 24
  294.11154 76.0 76
  295.11813 11.0 11
  304.09641 12.0 12
  305.09497 5.0 5
  307.12 8.0 8
  308.12799 148.0 148
  309.13303 33.0 33
  320.09058 38.0 38
  320.12637 42.0 42
  321.0932 23.0 23
  321.10559 16.0 16
  321.13309 5.0 5
  322.10614 75.0 75
  323.11328 16.0 16
  334.10187 13.0 13
  336.12314 231.0 231
  337.12863 189.0 189
  338.13086 36.0 36
  352.10794 8.0 8
  352.15448 1000.0 999
  352.20798 29.0 29
//
