ACCESSION: MSBNK-RIKEN-PR306368
RECORD_TITLE: (-)-Epicatechin; LC-ESI-QTOF; MS2
DATE: 2019.03.28
AUTHORS: Tetsuya Mori, Center for Sustainable Resource Science, RIKEN
LICENSE: CC BY-NC-SA
PUBLICATION: Tsugawa H., Nakabayashi R., Mori T., Yamada Y., Takahashi M., Rai A., Sugiyama R., Yamamoto H., Nakaya T., Yamazaki M., Kooke R., Bac-Molenaar JA., Oztolan-Erol N., Keurentjes JJB., Arita M., Saito K. (2019) "A cheminformatics approach to characterize metabolomes in stable-isotope-labeled organisms" Nature Methods 16(4):295-298. [doi:10.1038/s41592-019-0358-2]
COMMENT: registered in RIKEN PlaSMA
CH$NAME: (-)-Epicatechin
CH$COMPOUND_CLASS: Catechins
CH$FORMULA: C15H14O6
CH$EXACT_MASS: 290.271
CH$SMILES: C1[C@H]([C@H](OC2=CC(=CC(=C21)O)O)C3=CC(=C(C=C3)O)O)O
CH$IUPAC: InChI=1S/C15H14O6/c16-8-4-11(18)9-6-13(20)15(21-14(9)5-8)7-1-2-10(17)12(19)3-7/h1-5,13,15-20H,6H2/t13-,15-/m1/s1
CH$LINK: INCHIKEY PFTAWBLQPZVEMU-UKRRQHHQSA-N
AC$INSTRUMENT: LC, Waters Acquity UPLC System; MS, Waters Xevo G2 Q-Tof
AC$INSTRUMENT_TYPE: LC-ESI-QTOF
AC$MASS_SPECTROMETRY: MS_TYPE MS2
AC$MASS_SPECTROMETRY: ION_MODE NEGATIVE
AC$MASS_SPECTROMETRY: COLLISION_ENERGY 6V
AC$MASS_SPECTROMETRY: DESOLVATION_GAS_FLOW 800/h
AC$MASS_SPECTROMETRY: DESOLVATION_TEMPERATURE 450 C
AC$MASS_SPECTROMETRY: IONIZATION ESI
AC$CHROMATOGRAPHY: CAPILLARY_VOLTAGE -2.75 kV
AC$CHROMATOGRAPHY: COLUMN_NAME Acquity bridged ethyl hybrid C18 (1.7 um, 2.1 mm * 100 mm, Waters)
AC$CHROMATOGRAPHY: COLUMN_TEMPERATURE 40 C
AC$CHROMATOGRAPHY: FLOW_GRADIENT A/B = (99.5%/0.5% at 0 min, 99.5%/0.5% at 0.1 min, 20%/80% at 10 min, 0.5%/99.5% at 10.1 min, 0.5%/99.5% at 12.0 min, 99.5%/0.5% at 12.1 min, 99.5%/0.5% at 15.0 min)
AC$CHROMATOGRAPHY: FLOW_RATE 0.3 ml/min at 0 min, 0.3 ml/min at 10 min, 0.4 ml/min at 10.1 min, 0.4 ml/min at 14.4 min, 0.3 ml/min at 14.5 min
AC$CHROMATOGRAPHY: RETENTION_TIME 3.429833
AC$CHROMATOGRAPHY: SOLVENT A water including 0.1% formic acid
AC$CHROMATOGRAPHY: SOLVENT B acetonitrile including 0.1% formic acid
MS$FOCUSED_ION: PRECURSOR_TYPE [M-H]-
MS$FOCUSED_ION: PRECURSOR_M/Z 289.07176174783
PK$SPLASH: splash10-000i-0290000000-a521fb67df626b443785
PK$NUM_PEAK: 41
PK$PEAK: m/z int. rel.int.
  109.02625 19.0 19
  109.03293 9.0 9
  110.03566 5.0 5
  123.04771 10.0 10
  125.02047 75.0 75
  135.04033 10.0 10
  135.04813 8.0 8
  137.02275 33.0 33
  147.04558 6.0 6
  151.03662 20.0 20
  152.04135 5.0 5
  161.05518 14.0 14
  161.0623 13.0 13
  165.0168 20.0 20
  165.02657 7.0 7
  167.03018 44.0 44
  167.03674 13.0 13
  175.03114 5.0 5
  175.04118 11.0 11
  176.04019 6.0 6
  179.03494 67.0 67
  180.03069 7.0 7
  183.04964 5.0 5
  185.05983 8.0 8
  187.03949 18.0 18
  188.04324 31.0 31
  203.06895 101.0 101
  204.07361 29.0 29
  205.04947 138.0 138
  217.08463 5.0 5
  221.08064 10.0 10
  229.05247 7.0 7
  231.0273 10.0 10
  245.07986 338.0 338
  246.08511 53.0 53
  247.06033 6.0 6
  247.0847 6.0 6
  260.05984 9.0 9
  271.05591 27.0 27
  271.06473 11.0 11
  289.06982 1000.0 999
//
