ACCESSION: MSBNK-RIKEN-PR100340
RECORD_TITLE: 1-Lauroyl-2-hydroxy-sn-glycero-3-phosphocholine; LC-ESI-QTOF; MS2; CE:Ramp 5-60 V; [M+H]+
DATE: 2016.01.19 (Created 2009.09.10, modified 2013.08.05)
AUTHORS: Matsuda F, Suzuki M, Sawada Y, Plant Science Center, RIKEN.
LICENSE: CC BY-SA
COMMENT: Acquisition and generation of the data is financially supported in part by CREST/JST.
CH$NAME: 1-Lauroyl-2-hydroxy-sn-glycero-3-phosphocholine
CH$NAME: 12:0 LysoPC
CH$NAME: 1-Dodecanoyllysolecithin
CH$NAME: Phosphocholine,1-Lauroyl-2-Hydroxy-sn-Glycero-3-
CH$COMPOUND_CLASS: Glycerophospholipids
CH$FORMULA: C20H42NO7P
CH$EXACT_MASS: 439.26989
CH$SMILES: CCCCCCCCCCCC(=O)OCC(O)COP([O-1])(=O)OCC[N+1](C)(C)C
CH$IUPAC: InChI=1S/C20H42NO7P/c1-5-6-7-8-9-10-11-12-13-14-20(23)26-17-19(22)18-28-29(24,25)27-16-15-21(2,3)4/h19,22H,5-18H2,1-4H3/t19-/m1/s1
CH$LINK: CAS 20559-18-6
CH$LINK: CHEMSPIDER 2308038
CH$LINK: LIPIDMAPS LMGP01050009
CH$LINK: PUBCHEM CID:460605
CH$LINK: INCHIKEY BWKILASWCLJPBO-LJQANCHMSA-N
CH$LINK: COMPTOX DTXSID50942749
AC$INSTRUMENT: UPLC Q-Tof Premier, Waters
AC$INSTRUMENT_TYPE: LC-ESI-QTOF
AC$MASS_SPECTROMETRY: MS_TYPE MS2
AC$MASS_SPECTROMETRY: ION_MODE POSITIVE
AC$MASS_SPECTROMETRY: COLLISION_ENERGY Ramp 5-60 V
AC$MASS_SPECTROMETRY: DATAFORMAT Continuum
AC$MASS_SPECTROMETRY: DATE 2008.07.28
AC$MASS_SPECTROMETRY: DESOLVATION_GAS_FLOW 600.0 L/Hr
AC$MASS_SPECTROMETRY: DESOLVATION_TEMPERATURE 420 C
AC$MASS_SPECTROMETRY: FRAGMENTATION_METHOD LOW-ENERGY CID
AC$MASS_SPECTROMETRY: IONIZATION ESI
AC$MASS_SPECTROMETRY: SCANNING 1.0 sec/scan (m/z = 50-1000)
AC$MASS_SPECTROMETRY: SOURCE_TEMPERATURE 120 C
AC$CHROMATOGRAPHY: CAPILLARY_VOLTAGE 3.0 kV
AC$CHROMATOGRAPHY: SAMPLING_CONE 23.0 V
AC$CHROMATOGRAPHY: SOLVENT A CH3CN(0.1%HCOOH)
AC$CHROMATOGRAPHY: SOLVENT B H2O(0.1%HCOOH)
MS$FOCUSED_ION: PRECURSOR_M/Z 440.27716
MS$FOCUSED_ION: PRECURSOR_TYPE [M+H]+
PK$SPLASH: splash10-0f8i-2900200000-a118845e398dfd908a5c
PK$NUM_PEAK: 6
PK$PEAK: m/z int. rel.int.
  86.0998 3846 519
  104.1109 5732 773
  125.0051 2685 362
  184.0780 7408 999
  422.2807 961.9 130
  440.2777 3357 453
//
