ACCESSION: MSBNK-RIKEN-PR307091
RECORD_TITLE: NP-000002(10); LC-ESI-QTOF; MS2
DATE: 2019.03.28
AUTHORS: Tetsuya Mori, Center for Sustainable Resource Science, RIKEN
LICENSE: CC BY-NC-SA
PUBLICATION: Tsugawa H., Nakabayashi R., Mori T., Yamada Y., Takahashi M., Rai A., Sugiyama R., Yamamoto H., Nakaya T., Yamazaki M., Kooke R., Bac-Molenaar JA., Oztolan-Erol N., Keurentjes JJB., Arita M., Saito K. (2019) "A cheminformatics approach to characterize metabolomes in stable-isotope-labeled organisms" Nature Methods 16(4):295-298. [doi:10.1038/s41592-019-0358-2]
COMMENT: registered in RIKEN PlaSMA
CH$NAME: NP-000002(10)
CH$COMPOUND_CLASS: Flavonoid 8-C-glycosides
CH$FORMULA: C27H30O15
CH$EXACT_MASS: 594.522
CH$SMILES: OCC1OC(C(O)C(O)C1O)C1=C(O)C(C2OC(CO)C(O)C(O)C2O)=C2OC(=CC(=O)C2=C1O)C1=CC=C(O)C=C1
CH$IUPAC: InChI=1S/C27H30O15/c28-6-12-17(32)21(36)23(38)26(41-12)15-19(34)14-10(31)5-11(8-1-3-9(30)4-2-8)40-25(14)16(20(15)35)27-24(39)22(37)18(33)13(7-29)42-27/h1-5,12-13,17-18,21-24,26-30,32-39H,6-7H2
CH$LINK: INCHIKEY FIAAVMJLAGNUKW-UHFFFAOYSA-N
AC$INSTRUMENT: LC, Waters Acquity UPLC System; MS, Waters Xevo G2 Q-Tof
AC$INSTRUMENT_TYPE: LC-ESI-QTOF
AC$MASS_SPECTROMETRY: MS_TYPE MS2
AC$MASS_SPECTROMETRY: ION_MODE NEGATIVE
AC$MASS_SPECTROMETRY: COLLISION_ENERGY 6V
AC$MASS_SPECTROMETRY: DESOLVATION_GAS_FLOW 800/h
AC$MASS_SPECTROMETRY: DESOLVATION_TEMPERATURE 450 C
AC$MASS_SPECTROMETRY: IONIZATION ESI
AC$CHROMATOGRAPHY: CAPILLARY_VOLTAGE -2.75 kV
AC$CHROMATOGRAPHY: COLUMN_NAME Acquity bridged ethyl hybrid C18 (1.7 um, 2.1 mm * 100 mm, Waters)
AC$CHROMATOGRAPHY: COLUMN_TEMPERATURE 40 C
AC$CHROMATOGRAPHY: FLOW_GRADIENT A/B = (99.5%/0.5% at 0 min, 99.5%/0.5% at 0.1 min, 20%/80% at 10 min, 0.5%/99.5% at 10.1 min, 0.5%/99.5% at 12.0 min, 99.5%/0.5% at 12.1 min, 99.5%/0.5% at 15.0 min)
AC$CHROMATOGRAPHY: FLOW_RATE 0.3 ml/min at 0 min, 0.3 ml/min at 10 min, 0.4 ml/min at 10.1 min, 0.4 ml/min at 14.4 min, 0.3 ml/min at 14.5 min
AC$CHROMATOGRAPHY: RETENTION_TIME 3.3031
AC$CHROMATOGRAPHY: SOLVENT A water including 0.1% formic acid
AC$CHROMATOGRAPHY: SOLVENT B acetonitrile including 0.1% formic acid
MS$FOCUSED_ION: PRECURSOR_TYPE [M-H]-
MS$FOCUSED_ION: PRECURSOR_M/Z 593.15119384783
PK$SPLASH: splash10-0002-0395000000-d240efea00562a5f93f2
PK$NUM_PEAK: 177
PK$PEAK: m/z int. rel.int.
  91.05528 13.0 13
  93.03423 17.0 17
  95.00867 19.0 19
  96.53137 15.0 15
  97.02898 14.0 14
  107.01325 18.0 18
  107.04922 12.0 12
  109.02693 23.0 23
  115.0537 17.0 17
  117.03068 34.0 34
  117.03503 69.0 69
  119.04697 34.0 34
  123.00523 19.0 19
  132.05391 13.0 13
  132.05966 17.0 17
  133.02946 10.0 10
  133.07004 17.0 17
  135.04683 56.0 56
  147.04523 15.0 15
  149.02068 14.0 14
  150.06677 11.0 11
  156.03857 13.0 13
  159.04982 12.0 12
  160.0536 12.0 12
  161.0183 10.0 10
  161.02536 33.0 33
  161.04895 11.0 11
  161.06183 48.0 48
  163.03871 11.0 11
  165.01506 12.0 12
  173.02393 29.0 29
  173.03075 13.0 13
  173.05753 37.0 37
  173.23227 25.0 25
  174.03102 11.0 11
  175.03519 68.0 68
  177.02208 17.0 17
  177.05307 46.0 46
  178.06163 11.0 11
  179.02473 11.0 11
  179.03409 25.0 25
  179.95378 20.0 20
  180.04004 11.0 11
  181.06984 15.0 15
  182.0278 12.0 12
  182.03554 13.0 13
  184.05869 12.0 12
  185.02432 13.0 13
  187.03874 24.0 24
  188.03505 15.0 15
  189.01294 11.0 11
  189.05666 28.0 28
  191.03661 34.0 34
  191.0661 11.0 11
  193.03865 15.0 15
  197.05544 12.0 12
  198.02402 14.0 14
  199.03796 11.0 11
  201.05583 11.0 11
  203.0305 32.0 32
  203.03815 11.0 11
  205.00658 14.0 14
  205.0368 18.0 18
  205.0459 15.0 15
  207.08221 13.0 13
  210.06599 10.0 10
  211.03885 16.0 16
  217.05032 24.0 24
  218.73424 17.0 17
  219.87689 12.0 12
  224.04109 30.0 30
  224.08012 53.0 53
  225.04982 13.0 13
  225.0845 15.0 15
  225.09758 35.0 35
  226.03787 20.0 20
  226.06177 14.0 14
  227.03325 12.0 12
  236.04509 30.0 30
  237.04506 17.0 17
  237.05829 12.0 12
  238.05544 11.0 11
  238.06696 25.0 25
  239.02644 12.0 12
  239.06761 22.0 22
  241.72499 10.0 10
  245.05208 15.0 15
  245.28929 14.0 14
  247.08357 15.0 15
  251.06668 29.0 29
  251.08189 12.0 12
  253.07201 43.0 43
  253.0974 50.0 50
  256.03351 13.0 13
  263.07172 12.0 12
  265.04703 18.0 18
  266.05667 18.0 18
  267.07312 15.0 15
  268.07056 79.0 79
  268.07962 37.0 37
  269.03821 14.0 14
  269.073 12.0 12
  277.04294 13.0 13
  277.05676 12.0 12
  279.06616 16.0 16
  281.05054 14.0 14
  281.08813 10.0 10
  282.05798 101.0 101
  283.0546 65.0 65
  283.06757 145.0 145
  284.05853 21.0 21
  284.68063 11.0 11
  292.49564 13.0 13
  293.03784 10.0 10
  294.05386 12.0 12
  295.05966 110.0 110
  295.06879 40.0 40
  296.06723 288.0 288
  297.04971 16.0 16
  297.07755 1000.0 999
  297.10236 18.0 18
  298.07135 58.0 58
  298.08017 155.0 155
  298.1015 9.0 9
  298.54477 13.0 13
  299.08316 25.0 25
  302.05417 10.0 10
  305.03885 11.0 11
  306.06631 20.0 20
  307.05707 50.0 50
  307.07736 15.0 15
  308.07452 45.0 45
  309.03708 20.0 20
  309.06604 33.0 33
  309.07993 65.0 65
  310.07831 48.0 48
  310.13998 19.0 19
  311.04471 33.0 33
  311.06366 38.0 38
  322.03284 13.0 13
  323.05609 88.0 88
  323.07834 32.0 32
  323.10306 11.0 11
  324.06116 72.0 72
  324.07901 46.0 46
  325.06781 182.0 182
  325.082 59.0 59
  326.06934 54.0 54
  326.08597 33.0 33
  335.05191 57.0 57
  337.06323 22.0 22
  337.08054 60.0 60
  338.0658 24.0 24
  338.08316 13.0 13
  339.08417 39.0 39
  344.54196 14.0 14
  350.07571 11.0 11
  351.05399 33.0 33
  353.06235 81.0 81
  353.07959 91.0 91
  353.84583 12.0 12
  354.04788 24.0 24
  354.0726 13.0 13
  355.06497 11.0 11
  355.08005 49.0 49
  356.09528 24.0 24
  362.07043 15.0 15
  365.06259 33.0 33
  365.07965 23.0 23
  366.0723 18.0 18
  379.08951 22.0 22
  383.07693 162.0 162
  383.09854 22.0 22
  384.07718 11.0 11
  395.06174 14.0 14
  413.1012 13.0 13
  419.09399 13.0 13
//
