ACCESSION: MSBNK-RIKEN-PR310427
RECORD_TITLE: Hydrocotarnine; LC-ESI-QTOF; MS2
DATE: 2019.03.28
AUTHORS: Tetsuya Mori, Center for Sustainable Resource Science, RIKEN
LICENSE: CC BY-NC-SA
PUBLICATION: Tsugawa H., Nakabayashi R., Mori T., Yamada Y., Takahashi M., Rai A., Sugiyama R., Yamamoto H., Nakaya T., Yamazaki M., Kooke R., Bac-Molenaar JA., Oztolan-Erol N., Keurentjes JJB., Arita M., Saito K. (2019) "A cheminformatics approach to characterize metabolomes in stable-isotope-labeled organisms" Nature Methods 16(4):295-298. [doi:10.1038/s41592-019-0358-2]
COMMENT: Annotation level-1
CH$NAME: Hydrocotarnine
CH$COMPOUND_CLASS: Others
CH$FORMULA: C12H15NO3
CH$EXACT_MASS: 221.256
CH$SMILES: COC1=C2CN(C)CCC2=CC2=C1OCO2
CH$IUPAC: InChI=1S/C12H15NO3/c1-13-4-3-8-5-10-12(16-7-15-10)11(14-2)9(8)6-13/h5H,3-4,6-7H2,1-2H3
CH$LINK: INCHIKEY XXANNZJIZQTCBP-UHFFFAOYSA-N
AC$INSTRUMENT: LC, Waters Acquity UPLC System; MS, Waters Xevo G2 Q-Tof
AC$INSTRUMENT_TYPE: LC-ESI-QTOF
AC$MASS_SPECTROMETRY: MS_TYPE MS2
AC$MASS_SPECTROMETRY: ION_MODE POSITIVE
AC$MASS_SPECTROMETRY: COLLISION_ENERGY 6V
AC$MASS_SPECTROMETRY: DESOLVATION_GAS_FLOW 800/h
AC$MASS_SPECTROMETRY: DESOLVATION_TEMPERATURE 450 C
AC$MASS_SPECTROMETRY: IONIZATION ESI
AC$CHROMATOGRAPHY: CAPILLARY_VOLTAGE +3.00 kV
AC$CHROMATOGRAPHY: COLUMN_NAME Acquity bridged ethyl hybrid C18 (1.7 um, 2.1 mm * 100 mm, Waters)
AC$CHROMATOGRAPHY: COLUMN_TEMPERATURE 40 C
AC$CHROMATOGRAPHY: FLOW_GRADIENT A/B = (99.5%/0.5% at 0 min, 99.5%/0.5% at 0.1 min, 20%/80% at 10 min, 0.5%/99.5% at 10.1 min, 0.5%/99.5% at 12.0 min, 99.5%/0.5% at 12.1 min, 99.5%/0.5% at 15.0 min)
AC$CHROMATOGRAPHY: FLOW_RATE 0.3 ml/min at 0 min, 0.3 ml/min at 10 min, 0.4 ml/min at 10.1 min, 0.4 ml/min at 14.4 min, 0.3 ml/min at 14.5 min
AC$CHROMATOGRAPHY: RETENTION_TIME 3.33
AC$CHROMATOGRAPHY: SOLVENT A water including 0.1% formic acid
AC$CHROMATOGRAPHY: SOLVENT B acetonitrile including 0.1% formic acid
MS$FOCUSED_ION: PRECURSOR_TYPE [M+H]+
MS$FOCUSED_ION: PRECURSOR_M/Z 222.11247
PK$SPLASH: splash10-00di-0590000000-1911581d73fc04e85e3d
PK$NUM_PEAK: 134
PK$PEAK: m/z int. rel.int.
  55.02202 34.0 2
  77.03854 22.0 1
  83.04946 17.0 1
  91.04646 20.0 1
  91.05562 115.0 8
  92.02534 20.0 1
  92.02974 18.0 1
  93.06223 45.0 3
  93.06877 99.0 6
  97.06658 23.0 2
  102.50506 26.0 2
  103.05284 19.0 1
  105.07274 72.0 5
  106.06558 37.0 2
  107.08849 30.0 2
  108.05386 17.0 1
  108.06096 37.0 2
  108.87965 26.0 2
  115.04962 20.0 1
  117.06551 22.0 1
  119.05096 103.0 7
  120.073 18.0 1
  120.08701 17.0 1
  121.03405 38.0 2
  121.06391 101.0 7
  121.07265 54.0 4
  126.09203 65.0 4
  127.25652 23.0 2
  129.07274 17.0 1
  131.29416 20.0 1
  132.0748 32.0 2
  132.08664 84.0 5
  133.02934 60.0 4
  133.04907 24.0 2
  133.06618 203.0 13
  134.05986 85.0 6
  134.07169 17.0 1
  134.09529 26.0 2
  135.03947 35.0 2
  135.08109 135.0 9
  136.07175 17.0 1
  138.06735 17.0 1
  140.03328 18.0 1
  141.24295 18.0 1
  145.04596 18.0 1
  145.70538 20.0 1
  146.03656 24.0 2
  147.03804 26.0 2
  147.05972 19.0 1
  147.06967 19.0 1
  148.05576 36.0 2
  148.07634 21.0 1
  149.06133 73.0 5
  149.06818 98.0 6
  149.08707 42.0 3
  150.08736 20.0 1
  152.05351 18.0 1
  159.04712 18.0 1
  160.06485 19.0 1
  160.07536 124.0 8
  161.06039 87.0 6
  161.07912 22.0 1
  161.09007 43.0 3
  162.04541 27.0 2
  162.05858 57.0 4
  162.06664 21.0 1
  162.08705 39.0 3
  162.09573 19.0 1
  163.07346 190.0 12
  164.04774 67.0 4
  164.08694 22.0 1
  164.10049 66.0 4
  164.10693 223.0 15
  164.12024 22.0 1
  165.04236 23.0 2
  165.05594 306.0 20
  165.06857 20.0 1
  165.08813 30.0 2
  166.05324 22.0 1
  166.06429 85.0 6
  169.85081 17.0 1
  175.07191 68.0 4
  175.0818 26.0 2
  176.06967 31.0 2
  177.07642 21.0 1
  178.05505 31.0 2
  178.06552 51.0 3
  178.8308 19.0 1
  178.98148 20.0 1
  179.03059 17.0 1
  179.07111 3094.0 202
  179.09154 44.0 3
  179.17291 25.0 2
  180.06622 76.0 5
  180.07645 208.0 14
  180.08862 50.0 3
  180.36497 32.0 2
  181.08694 20.0 1
  183.87212 20.0 1
  189.49925 18.0 1
  190.089 28.0 2
  191.06572 107.0 7
  191.0739 250.0 16
  191.10048 20.0 1
  192.07071 39.0 3
  192.10229 139.0 9
  193.06508 17.0 1
  193.0869 1407.0 92
  193.11134 24.0 2
  194.07222 23.0 2
  194.09383 254.0 17
  194.11215 17.0 1
  195.10243 21.0 1
  205.06172 20.0 1
  205.08855 144.0 9
  205.32756 23.0 2
  206.06342 22.0 1
  206.08223 20.0 1
  206.09442 28.0 2
  207.06509 25.0 2
  207.08168 62.0 4
  207.0914 23.0 2
  218.63402 18.0 1
  220.08824 25.0 2
  220.10097 85.0 6
  221.70772 20.0 1
  221.89029 19.0 1
  221.9268 43.0 3
  222.00839 21.0 1
  222.04274 19.0 1
  222.08499 150.0 10
  222.1138 15288.0 999
  222.15454 243.0 16
  222.20142 17.0 1
//
