ACCESSION: MSBNK-RIKEN-PR300209
RECORD_TITLE: Kopsinine; LC-ESI-QTOF; MS2
DATE: 2019.03.28
AUTHORS: Tetsuya Mori, Center for Sustainable Resource Science, RIKEN
LICENSE: CC BY-NC-SA
PUBLICATION: Tsugawa H., Nakabayashi R., Mori T., Yamada Y., Takahashi M., Rai A., Sugiyama R., Yamamoto H., Nakaya T., Yamazaki M., Kooke R., Bac-Molenaar JA., Oztolan-Erol N., Keurentjes JJB., Arita M., Saito K. (2019) "A cheminformatics approach to characterize metabolomes in stable-isotope-labeled organisms" Nature Methods 16(4):295-298. [doi:10.1038/s41592-019-0358-2]
COMMENT: registered in RIKEN PlaSMA
CH$NAME: Kopsinine
CH$COMPOUND_CLASS: Aspidofractine alkaloids
CH$FORMULA: C21H26N2O2
CH$EXACT_MASS: 338.451
CH$SMILES: COC(=O)[C@@H]1C[C@]23CCCN4CC[C@]5(C24)C2=CC=CC=C2N[C@]15CC3
CH$IUPAC: InChI=1S/C21H26N2O2/c1-25-17(24)15-13-19-7-4-11-23-12-10-20(18(19)23)14-5-2-3-6-16(14)22-21(15,20)9-8-19/h2-3,5-6,15,18,22H,4,7-13H2,1H3/t15-,18?,19+,20+,21+/m0/s1
CH$LINK: INCHIKEY IYLRRIUNGGQRTN-GKCDKPGPSA-N
AC$INSTRUMENT: LC, Waters Acquity UPLC System; MS, Waters Xevo G2 Q-Tof
AC$INSTRUMENT_TYPE: LC-ESI-QTOF
AC$MASS_SPECTROMETRY: MS_TYPE MS2
AC$MASS_SPECTROMETRY: ION_MODE POSITIVE
AC$MASS_SPECTROMETRY: COLLISION_ENERGY 6V
AC$MASS_SPECTROMETRY: DESOLVATION_GAS_FLOW 800/h
AC$MASS_SPECTROMETRY: DESOLVATION_TEMPERATURE 450 C
AC$MASS_SPECTROMETRY: IONIZATION ESI
AC$CHROMATOGRAPHY: CAPILLARY_VOLTAGE +3.00 kV
AC$CHROMATOGRAPHY: COLUMN_NAME Acquity bridged ethyl hybrid C18 (1.7 um, 2.1 mm * 100 mm, Waters)
AC$CHROMATOGRAPHY: COLUMN_TEMPERATURE 40 C
AC$CHROMATOGRAPHY: FLOW_GRADIENT A/B = (99.5%/0.5% at 0 min, 99.5%/0.5% at 0.1 min, 20%/80% at 10 min, 0.5%/99.5% at 10.1 min, 0.5%/99.5% at 12.0 min, 99.5%/0.5% at 12.1 min, 99.5%/0.5% at 15.0 min)
AC$CHROMATOGRAPHY: FLOW_RATE 0.3 ml/min at 0 min, 0.3 ml/min at 10 min, 0.4 ml/min at 10.1 min, 0.4 ml/min at 14.4 min, 0.3 ml/min at 14.5 min
AC$CHROMATOGRAPHY: RETENTION_TIME 3.923133
AC$CHROMATOGRAPHY: SOLVENT A water including 0.1% formic acid
AC$CHROMATOGRAPHY: SOLVENT B acetonitrile including 0.1% formic acid
MS$FOCUSED_ION: PRECURSOR_TYPE [M+H]+
MS$FOCUSED_ION: PRECURSOR_M/Z 339.2067045
PK$SPLASH: splash10-000i-0249000000-f51d5776d68bee822ec3
PK$NUM_PEAK: 41
PK$PEAK: m/z int. rel.int.
  87.04554 8.0 8
  96.08177 6.0 6
  110.09704 5.0 5
  124.10991 7.0 7
  156.08449 9.0 9
  168.0813 5.0 5
  182.09105 10.0 10
  183.10617 8.0 8
  194.09541 18.0 18
  196.11241 50.0 50
  197.10722 168.0 168
  198.11188 25.0 25
  202.08653 10.0 10
  208.11214 23.0 23
  208.11986 8.0 8
  209.11911 5.0 5
  221.11559 7.0 7
  222.11769 6.0 6
  222.12976 11.0 11
  223.12611 15.0 15
  224.12862 11.0 11
  225.10329 7.0 7
  225.1395 263.0 263
  226.14282 50.0 50
  234.12086 9.0 9
  234.13187 13.0 13
  236.14421 9.0 9
  237.14104 8.0 8
  251.15512 18.0 18
  252.16377 9.0 9
  264.15387 5.0 5
  279.1499 11.0 11
  282.1459 7.0 7
  307.18085 14.0 14
  308.15555 6.0 6
  308.1676 5.0 5
  311.17224 13.0 13
  339.1481 8.0 8
  339.16269 20.0 20
  339.20709 1000.0 999
  339.23602 7.0 7
//
