ACCESSION: MSBNK-RIKEN-PR302372
RECORD_TITLE: Quercetin-3-O-vicianoside; LC-ESI-QTOF; MS2
DATE: 2019.03.28
AUTHORS: Tetsuya Mori, Center for Sustainable Resource Science, RIKEN
LICENSE: CC BY-NC-SA
PUBLICATION: Tsugawa H., Nakabayashi R., Mori T., Yamada Y., Takahashi M., Rai A., Sugiyama R., Yamamoto H., Nakaya T., Yamazaki M., Kooke R., Bac-Molenaar JA., Oztolan-Erol N., Keurentjes JJB., Arita M., Saito K. (2019) "A cheminformatics approach to characterize metabolomes in stable-isotope-labeled organisms" Nature Methods 16(4):295-298. [doi:10.1038/s41592-019-0358-2]
COMMENT: registered in RIKEN PlaSMA
CH$NAME: Quercetin-3-O-vicianoside
CH$COMPOUND_CLASS: Flavonoid-3-O-glycosides
CH$FORMULA: C26H28O16
CH$EXACT_MASS: 596.494
CH$SMILES: O[C@H]1CO[C@@H](OC[C@H]2O[C@@H](OC3=C(OC4=CC(O)=CC(O)=C4C3=O)C3=CC(O)=C(O)C=C3)[C@H](O)[C@@H](O)[C@@H]2O)[C@H](O)[C@H]1O
CH$IUPAC: InChI=1S/C26H28O16/c27-9-4-12(30)16-14(5-9)40-23(8-1-2-10(28)11(29)3-8)24(19(16)34)42-26-22(37)20(35)18(33)15(41-26)7-39-25-21(36)17(32)13(31)6-38-25/h1-5,13,15,17-18,20-22,25-33,35-37H,6-7H2/t13-,15+,17-,18+,20-,21+,22+,25-,26-/m0/s1
CH$LINK: INCHIKEY YNMFDPCLPIMRFD-KSPKLRDJSA-N
AC$INSTRUMENT: LC, Waters Acquity UPLC System; MS, Waters Xevo G2 Q-Tof
AC$INSTRUMENT_TYPE: LC-ESI-QTOF
AC$MASS_SPECTROMETRY: MS_TYPE MS2
AC$MASS_SPECTROMETRY: ION_MODE POSITIVE
AC$MASS_SPECTROMETRY: COLLISION_ENERGY 6V
AC$MASS_SPECTROMETRY: DESOLVATION_GAS_FLOW 800/h
AC$MASS_SPECTROMETRY: DESOLVATION_TEMPERATURE 450 C
AC$MASS_SPECTROMETRY: IONIZATION ESI
AC$CHROMATOGRAPHY: CAPILLARY_VOLTAGE +3.00 kV
AC$CHROMATOGRAPHY: COLUMN_NAME Acquity bridged ethyl hybrid C18 (1.7 um, 2.1 mm * 100 mm, Waters)
AC$CHROMATOGRAPHY: COLUMN_TEMPERATURE 40 C
AC$CHROMATOGRAPHY: FLOW_GRADIENT A/B = (99.5%/0.5% at 0 min, 99.5%/0.5% at 0.1 min, 20%/80% at 10 min, 0.5%/99.5% at 10.1 min, 0.5%/99.5% at 12.0 min, 99.5%/0.5% at 12.1 min, 99.5%/0.5% at 15.0 min)
AC$CHROMATOGRAPHY: FLOW_RATE 0.3 ml/min at 0 min, 0.3 ml/min at 10 min, 0.4 ml/min at 10.1 min, 0.4 ml/min at 14.4 min, 0.3 ml/min at 14.5 min
AC$CHROMATOGRAPHY: RETENTION_TIME 3.699367
AC$CHROMATOGRAPHY: SOLVENT A water including 0.1% formic acid
AC$CHROMATOGRAPHY: SOLVENT B acetonitrile including 0.1% formic acid
MS$FOCUSED_ION: PRECURSOR_TYPE [M+H]+
MS$FOCUSED_ION: PRECURSOR_M/Z 597.1450113
PK$SPLASH: splash10-0f6t-0007290000-4841af62757de2a908fa
PK$NUM_PEAK: 32
PK$PEAK: m/z int. rel.int.
  133.03769 10.0 10
  145.04559 5.0 5
  146.04967 6.0 6
  164.05984 12.0 12
  259.0856 27.0 27
  303.0014 18.0 18
  303.04929 683.0 682
  304.04816 37.0 37
  304.06262 25.0 25
  305.01889 7.0 7
  305.05121 24.0 24
  306.04639 6.0 6
  345.04828 6.0 6
  368.30524 6.0 6
  383.73413 6.0 6
  399.0582 5.0 5
  435.06638 18.0 18
  435.08795 76.0 76
  435.10895 17.0 17
  436.09491 19.0 19
  436.11694 6.0 6
  437.09204 6.0 6
  437.10895 7.0 7
  465.09872 46.0 46
  465.11362 82.0 82
  466.09824 13.0 13
  467.08163 7.0 7
  467.11209 6.0 6
  467.12979 7.0 7
  596.14417 5.0 5
  596.97375 7.0 7
  597.14838 1000.0 999
//
