ACCESSION: MSBNK-RIKEN-PR301704
RECORD_TITLE: Rhoeadine; LC-ESI-QTOF; MS2
DATE: 2019.03.28
AUTHORS: Tetsuya Mori, Center for Sustainable Resource Science, RIKEN
LICENSE: CC BY-NC-SA
PUBLICATION: Tsugawa H., Nakabayashi R., Mori T., Yamada Y., Takahashi M., Rai A., Sugiyama R., Yamamoto H., Nakaya T., Yamazaki M., Kooke R., Bac-Molenaar JA., Oztolan-Erol N., Keurentjes JJB., Arita M., Saito K. (2019) "A cheminformatics approach to characterize metabolomes in stable-isotope-labeled organisms" Nature Methods 16(4):295-298. [doi:10.1038/s41592-019-0358-2]
COMMENT: registered in RIKEN PlaSMA
CH$NAME: Rhoeadine
CH$COMPOUND_CLASS: Rhoeadine alkaloids
CH$FORMULA: C21H21NO6
CH$EXACT_MASS: 383.4
CH$SMILES: CO[C@H]1O[C@H]2[C@H](N(C)CCC3=CC4=C(OCO4)C=C23)C2=C1C1=C(OCO1)C=C2
CH$IUPAC: InChI=1S/C21H21NO6/c1-22-6-5-11-7-15-16(26-9-25-15)8-13(11)19-18(22)12-3-4-14-20(27-10-24-14)17(12)21(23-2)28-19/h3-4,7-8,18-19,21H,5-6,9-10H2,1-2H3/t18-,19-,21+/m1/s1
CH$LINK: INCHIKEY XRBIHOLQAKITPP-SBHAEUEKSA-N
AC$INSTRUMENT: LC, Waters Acquity UPLC System; MS, Waters Xevo G2 Q-Tof
AC$INSTRUMENT_TYPE: LC-ESI-QTOF
AC$MASS_SPECTROMETRY: MS_TYPE MS2
AC$MASS_SPECTROMETRY: ION_MODE POSITIVE
AC$MASS_SPECTROMETRY: COLLISION_ENERGY 6V
AC$MASS_SPECTROMETRY: DESOLVATION_GAS_FLOW 800/h
AC$MASS_SPECTROMETRY: DESOLVATION_TEMPERATURE 450 C
AC$MASS_SPECTROMETRY: IONIZATION ESI
AC$CHROMATOGRAPHY: CAPILLARY_VOLTAGE +3.00 kV
AC$CHROMATOGRAPHY: COLUMN_NAME Acquity bridged ethyl hybrid C18 (1.7 um, 2.1 mm * 100 mm, Waters)
AC$CHROMATOGRAPHY: COLUMN_TEMPERATURE 40 C
AC$CHROMATOGRAPHY: FLOW_GRADIENT A/B = (99.5%/0.5% at 0 min, 99.5%/0.5% at 0.1 min, 20%/80% at 10 min, 0.5%/99.5% at 10.1 min, 0.5%/99.5% at 12.0 min, 99.5%/0.5% at 12.1 min, 99.5%/0.5% at 15.0 min)
AC$CHROMATOGRAPHY: FLOW_RATE 0.3 ml/min at 0 min, 0.3 ml/min at 10 min, 0.4 ml/min at 10.1 min, 0.4 ml/min at 14.4 min, 0.3 ml/min at 14.5 min
AC$CHROMATOGRAPHY: RETENTION_TIME 4.648417
AC$CHROMATOGRAPHY: SOLVENT A water including 0.1% formic acid
AC$CHROMATOGRAPHY: SOLVENT B acetonitrile including 0.1% formic acid
MS$FOCUSED_ION: PRECURSOR_TYPE [M+H]+
MS$FOCUSED_ION: PRECURSOR_M/Z 384.1441639
PK$SPLASH: splash10-000l-0971000000-33c68a1f5cf3c27c9197
PK$NUM_PEAK: 472
PK$PEAK: m/z int. rel.int.
  65.03694 11.0 11
  74.06019 10.0 10
  77.04189 7.0 7
  79.0555 13.0 13
  79.06054 7.0 7
  83.2857 7.0 7
  90.99746 8.0 8
  91.0423 11.0 11
  91.05751 105.0 105
  101.03516 8.0 8
  102.03939 12.0 12
  103.04736 13.0 13
  103.05634 94.0 94
  104.04578 7.0 7
  104.0541 14.0 14
  104.06297 52.0 52
  104.07085 14.0 14
  105.0367 23.0 23
  105.05486 11.0 11
  105.06911 7.0 7
  106.01492 7.0 7
  107.04978 8.0 8
  108.74175 8.0 8
  112.58175 9.0 9
  115.05673 11.0 11
  116.04602 10.0 10
  116.06026 13.0 13
  117.05676 62.0 62
  117.07222 9.0 9
  118.06326 23.0 23
  118.07139 16.0 16
  119.05174 26.0 26
  119.05835 29.0 29
  120.08418 8.0 8
  124.03001 8.0 8
  126.55558 14.0 14
  128.05426 8.0 8
  129.06816 7.0 7
  129.38815 10.0 10
  130.04283 17.0 17
  130.06688 132.0 132
  130.41353 8.0 8
  130.68358 11.0 11
  131.04999 118.0 118
  131.06606 29.0 29
  131.07303 103.0 103
  132.0472 19.0 19
  132.05779 17.0 17
  132.08194 91.0 91
  132.09625 10.0 10
  133.07971 30.0 30
  134.0318 8.0 8
  134.09567 14.0 14
  134.10385 8.0 8
  135.04539 99.0 99
  135.05505 17.0 17
  135.44499 7.0 7
  137.03568 9.0 9
  144.06467 7.0 7
  144.08484 8.0 8
  145.05722 21.0 21
  145.0713 19.0 19
  146.05873 30.0 30
  146.0647 29.0 29
  147.03975 75.0 75
  147.04671 45.0 45
  147.07031 21.0 21
  148.04651 24.0 24
  148.0607 54.0 54
  148.08302 12.0 12
  149.01393 9.0 9
  149.03868 7.0 7
  149.04767 19.0 19
  149.05983 31.0 31
  150.07243 12.0 12
  151.04007 8.0 8
  151.05287 57.0 57
  151.05843 32.0 32
  152.05994 60.0 60
  152.07204 31.0 31
  153.06044 13.0 13
  153.07007 9.0 9
  153.07846 11.0 11
  154.06456 8.0 8
  154.07378 8.0 8
  155.04913 10.0 10
  155.05542 12.0 12
  155.31802 8.0 8
  156.0809 7.0 7
  158.04858 31.0 31
  158.06349 12.0 12
  159.04585 89.0 89
  159.06947 70.0 70
  159.29373 8.0 8
  160.02296 14.0 14
  160.04185 8.0 8
  160.05579 27.0 27
  160.07738 103.0 103
  160.09033 8.0 8
  161.01862 18.0 18
  161.04811 164.0 164
  161.06093 105.0 105
  161.08171 33.0 33
  162.03874 12.0 12
  162.05573 27.0 27
  162.06221 7.0 7
  162.07515 10.0 10
  162.09027 19.0 19
  162.10458 7.0 7
  163.03496 33.0 33
  163.04668 38.0 38
  163.0666 10.0 10
  164.05193 19.0 19
  164.28691 10.0 10
  165.04417 14.0 14
  165.05165 10.0 10
  165.07329 202.0 202
  166.05902 10.0 10
  166.07301 18.0 18
  167.05502 8.0 8
  167.07083 8.0 8
  167.08438 11.0 11
  172.0265 7.0 7
  172.04239 8.0 8
  173.056 11.0 11
  173.92581 12.0 12
  174.0202 8.0 8
  174.04732 21.0 21
  174.05692 65.0 65
  174.06314 21.0 21
  174.08914 15.0 15
  175.06357 157.0 157
  175.07056 83.0 83
  176.04042 17.0 17
  176.06361 167.0 167
  176.08098 16.0 16
  176.42087 10.0 10
  177.05032 14.0 14
  177.06532 128.0 128
  177.07733 207.0 207
  177.24054 7.0 7
  178.01997 10.0 10
  178.04744 9.0 9
  178.05533 11.0 11
  178.07112 41.0 41
  178.08301 158.0 158
  178.32834 7.0 7
  179.0667 10.0 10
  179.08534 66.0 66
  179.09863 43.0 43
  180.07491 19.0 19
  180.09305 30.0 30
  180.38683 21.0 21
  181.06432 15.0 15
  183.08357 7.0 7
  183.68002 7.0 7
  184.07692 9.0 9
  184.30449 8.0 8
  184.84941 10.0 10
  186.05095 17.0 17
  186.06171 15.0 15
  187.05153 46.0 46
  187.11304 12.0 12
  188.07178 691.0 690
  189.04675 7.0 7
  189.07138 611.0 610
  189.09006 21.0 21
  189.37024 9.0 9
  190.01646 8.0 8
  190.03752 10.0 10
  190.04861 44.0 44
  190.07018 92.0 92
  190.08722 1000.0 999
  190.89143 7.0 7
  191.04622 14.0 14
  191.05482 8.0 8
  191.07248 17.0 17
  191.0851 133.0 133
  191.10219 49.0 49
  191.67946 8.0 8
  192.08354 19.0 19
  192.09351 9.0 9
  193.05659 27.0 27
  193.06583 47.0 47
  193.08075 18.0 18
  193.09698 15.0 15
  194.05321 9.0 9
  194.07315 17.0 17
  194.08783 16.0 16
  194.09848 9.0 9
  195.04695 17.0 17
  195.06909 7.0 7
  195.08929 8.0 8
  196.05078 10.0 10
  197.05759 9.0 9
  197.06635 8.0 8
  199.83035 13.0 13
  200.06856 8.0 8
  201.05876 16.0 16
  201.0721 10.0 10
  202.06355 14.0 14
  202.07268 25.0 25
  202.0843 10.0 10
  203.04184 7.0 7
  203.06 7.0 7
  203.07455 10.0 10
  203.08908 7.0 7
  203.09952 37.0 37
  204.04454 11.0 11
  204.06435 9.0 9
  204.08224 75.0 75
  204.32458 8.0 8
  205.03754 8.0 8
  205.05913 184.0 184
  205.06923 351.0 351
  205.08769 41.0 41
  205.10344 8.0 8
  206.06819 103.0 103
  206.08279 17.0 17
  206.10046 24.0 24
  207.04994 10.0 10
  207.05794 10.0 10
  207.08214 66.0 66
  207.09306 7.0 7
  208.05025 23.0 23
  208.07898 8.0 8
  208.98711 8.0 8
  209.04021 8.0 8
  209.05943 38.0 38
  209.07024 23.0 23
  209.0899 14.0 14
  210.05943 8.0 8
  210.08313 8.0 8
  211.05695 19.0 19
  211.06879 8.0 8
  213.44795 7.0 7
  215.04233 16.0 16
  215.0537 21.0 21
  216.05467 23.0 23
  216.0717 15.0 15
  217.05167 22.0 22
  217.06245 111.0 111
  217.07484 34.0 34
  217.08737 41.0 41
  217.09703 19.0 19
  217.92245 12.0 12
  218.0312 14.0 14
  218.05545 7.0 7
  218.07283 55.0 55
  218.09052 40.0 40
  218.1015 23.0 23
  218.45853 10.0 10
  219.06415 31.0 31
  219.08392 48.0 48
  219.10493 16.0 16
  219.39578 9.0 9
  220.07458 41.0 41
  220.08607 19.0 19
  221.05965 124.0 124
  221.06891 40.0 40
  221.08635 19.0 19
  222.06987 32.0 32
  222.09215 16.0 16
  222.10611 10.0 10
  223.05424 8.0 8
  223.06105 23.0 23
  223.07452 74.0 74
  224.07538 7.0 7
  225.0697 7.0 7
  229.04726 8.0 8
  229.07739 7.0 7
  232.03302 11.0 11
  232.0524 19.0 19
  232.08904 7.0 7
  233.03787 29.0 29
  233.05417 141.0 141
  233.06754 177.0 177
  233.09068 51.0 51
  234.05177 33.0 33
  234.07164 53.0 53
  234.08917 33.0 33
  234.10048 11.0 11
  235.06721 69.0 69
  235.07658 71.0 71
  235.08768 87.0 87
  235.10086 17.0 17
  236.06061 20.0 20
  236.07802 98.0 98
  236.10596 31.0 31
  236.11304 11.0 11
  237.02306 10.0 10
  237.0471 10.0 10
  237.09431 30.0 30
  238.06091 9.0 9
  238.06787 23.0 23
  238.0813 14.0 14
  238.97243 7.0 7
  241.08098 8.0 8
  242.9081 8.0 8
  243.02188 14.0 14
  243.04214 8.0 8
  243.17581 8.0 8
  244.06589 14.0 14
  244.09903 9.0 9
  244.72124 19.0 19
  245.05043 19.0 19
  245.06357 38.0 38
  245.07234 35.0 35
  245.14958 13.0 13
  246.05817 82.0 82
  246.08011 9.0 9
  246.09236 12.0 12
  247.05449 16.0 16
  247.06546 81.0 81
  247.07822 126.0 126
  247.10289 7.0 7
  248.0573 18.0 18
  248.07024 9.0 9
  248.07947 9.0 9
  248.09218 15.0 15
  248.11644 8.0 8
  249.03766 8.0 8
  249.05963 32.0 32
  249.07439 58.0 58
  249.09119 16.0 16
  250.06406 18.0 18
  250.08078 63.0 63
  250.09491 35.0 35
  251.05931 20.0 20
  251.0853 59.0 59
  251.55125 8.0 8
  255.82559 8.0 8
  258.08542 18.0 18
  259.07275 16.0 16
  260.02441 21.0 21
  260.06821 7.0 7
  260.29919 7.0 7
  261.0351 35.0 35
  261.05267 51.0 51
  261.06757 95.0 95
  261.08237 80.0 80
  261.09872 19.0 19
  261.12216 7.0 7
  262.04407 10.0 10
  262.0639 23.0 23
  262.07822 70.0 70
  262.09201 56.0 56
  262.1109 9.0 9
  262.30142 7.0 7
  263.06104 20.0 20
  263.07806 126.0 126
  263.09796 48.0 48
  263.28522 12.0 12
  264.05923 29.0 29
  264.08698 43.0 43
  264.10291 43.0 43
  264.11639 12.0 12
  265.10684 10.0 10
  266.06464 7.0 7
  266.12897 14.0 14
  266.57962 8.0 8
  272.05347 12.0 12
  273.04156 21.0 21
  274.04507 7.0 7
  274.05878 26.0 26
  274.08209 9.0 9
  274.09241 8.0 8
  274.10254 7.0 7
  275.04608 27.0 27
  275.06174 35.0 35
  275.0759 84.0 84
  275.10635 23.0 23
  276.02554 8.0 8
  276.05176 17.0 17
  276.07581 72.0 72
  276.09317 38.0 38
  276.10492 103.0 103
  277.04852 8.0 8
  277.05923 20.0 20
  277.07248 17.0 17
  277.08603 54.0 54
  277.10522 8.0 8
  277.11923 7.0 7
  277.84131 8.0 8
  278.08005 75.0 75
  278.10352 22.0 22
  279.04233 10.0 10
  279.07693 7.0 7
  279.08789 7.0 7
  279.10074 13.0 13
  279.81647 11.0 11
  280.08887 10.0 10
  280.32675 7.0 7
  282.24698 8.0 8
  285.70026 8.0 8
  288.07281 8.0 8
  289.07568 10.0 10
  289.61261 13.0 13
  290.04016 25.0 25
  290.07159 14.0 14
  290.09357 64.0 64
  290.52023 7.0 7
  290.74948 10.0 10
  291.05106 15.0 15
  291.0824 42.0 42
  291.09546 33.0 33
  291.12152 7.0 7
  292.03668 8.0 8
  292.04587 12.0 12
  292.06155 8.0 8
  292.08438 27.0 27
  292.09589 101.0 101
  293.07489 17.0 17
  293.09857 35.0 35
  293.11127 21.0 21
  294.04391 13.0 13
  294.05792 13.0 13
  294.07083 25.0 25
  294.08405 30.0 30
  294.11652 10.0 10
  294.258 10.0 10
  295.08273 11.0 11
  295.1293 8.0 8
  300.14127 7.0 7
  303.0311 10.0 10
  303.06296 35.0 35
  303.08029 44.0 44
  303.22372 10.0 10
  304.04367 10.0 10
  304.06128 19.0 19
  304.0737 23.0 23
  304.08929 15.0 15
  304.09662 32.0 32
  304.11252 7.0 7
  304.18234 8.0 8
  305.05545 10.0 10
  305.07233 8.0 8
  305.10403 7.0 7
  305.12039 10.0 10
  306.06271 8.0 8
  306.08707 19.0 19
  306.09705 10.0 10
  308.08707 16.0 16
  308.10355 12.0 12
  309.10614 15.0 15
  310.09442 10.0 10
  314.06503 10.0 10
  316.05948 10.0 10
  316.07626 10.0 10
  318.04782 7.0 7
  318.06937 60.0 60
  318.08197 82.0 82
  319.0162 11.0 11
  319.06808 10.0 10
  319.10797 10.0 10
  320.08884 378.0 378
  320.11261 78.0 78
  321.07733 17.0 17
  321.09052 28.0 28
  321.10626 47.0 47
  322.04398 10.0 10
  322.06821 8.0 8
  322.09659 7.0 7
  323.10098 7.0 7
  332.09872 8.0 8
  332.11639 8.0 8
  333.10059 8.0 8
  335.06381 8.0 8
  337.10461 9.0 9
  350.0954 7.0 7
  350.59338 7.0 7
  364.04556 7.0 7
//
