ACCESSION: MSBNK-RIKEN-PR306590
RECORD_TITLE: Hesperetin; LC-ESI-QTOF; MS2
DATE: 2019.03.28
AUTHORS: Tetsuya Mori, Center for Sustainable Resource Science, RIKEN
LICENSE: CC BY-NC-SA
PUBLICATION: Tsugawa H., Nakabayashi R., Mori T., Yamada Y., Takahashi M., Rai A., Sugiyama R., Yamamoto H., Nakaya T., Yamazaki M., Kooke R., Bac-Molenaar JA., Oztolan-Erol N., Keurentjes JJB., Arita M., Saito K. (2019) "A cheminformatics approach to characterize metabolomes in stable-isotope-labeled organisms" Nature Methods 16(4):295-298. [doi:10.1038/s41592-019-0358-2]
COMMENT: registered in RIKEN PlaSMA
CH$NAME: Hesperetin
CH$COMPOUND_CLASS: 4'-O-methylated flavonoids
CH$FORMULA: C16H14O6
CH$EXACT_MASS: 302.282
CH$SMILES: COC1=C(O)C=C(C=C1)C1CC(=O)C2=C(O)C=C(O)C=C2O1
CH$IUPAC: InChI=1S/C16H14O6/c1-21-13-3-2-8(4-10(13)18)14-7-12(20)16-11(19)5-9(17)6-15(16)22-14/h2-6,14,17-19H,7H2,1H3
CH$LINK: INCHIKEY AIONOLUJZLIMTK-UHFFFAOYSA-N
AC$INSTRUMENT: LC, Waters Acquity UPLC System; MS, Waters Xevo G2 Q-Tof
AC$INSTRUMENT_TYPE: LC-ESI-QTOF
AC$MASS_SPECTROMETRY: MS_TYPE MS2
AC$MASS_SPECTROMETRY: ION_MODE NEGATIVE
AC$MASS_SPECTROMETRY: COLLISION_ENERGY 6V
AC$MASS_SPECTROMETRY: DESOLVATION_GAS_FLOW 800/h
AC$MASS_SPECTROMETRY: DESOLVATION_TEMPERATURE 450 C
AC$MASS_SPECTROMETRY: IONIZATION ESI
AC$CHROMATOGRAPHY: CAPILLARY_VOLTAGE -2.75 kV
AC$CHROMATOGRAPHY: COLUMN_NAME Acquity bridged ethyl hybrid C18 (1.7 um, 2.1 mm * 100 mm, Waters)
AC$CHROMATOGRAPHY: COLUMN_TEMPERATURE 40 C
AC$CHROMATOGRAPHY: FLOW_GRADIENT A/B = (99.5%/0.5% at 0 min, 99.5%/0.5% at 0.1 min, 20%/80% at 10 min, 0.5%/99.5% at 10.1 min, 0.5%/99.5% at 12.0 min, 99.5%/0.5% at 12.1 min, 99.5%/0.5% at 15.0 min)
AC$CHROMATOGRAPHY: FLOW_RATE 0.3 ml/min at 0 min, 0.3 ml/min at 10 min, 0.4 ml/min at 10.1 min, 0.4 ml/min at 14.4 min, 0.3 ml/min at 14.5 min
AC$CHROMATOGRAPHY: RETENTION_TIME 6.167617
AC$CHROMATOGRAPHY: SOLVENT A water including 0.1% formic acid
AC$CHROMATOGRAPHY: SOLVENT B acetonitrile including 0.1% formic acid
MS$FOCUSED_ION: PRECURSOR_TYPE [M-H]-
MS$FOCUSED_ION: PRECURSOR_M/Z 301.07176174783
PK$SPLASH: splash10-0ly9-0920000000-b15343eb2c50a3405b63
PK$NUM_PEAK: 197
PK$PEAK: m/z int. rel.int.
  63.02005 15.0 15
  65.00337 79.0 79
  65.00751 28.0 28
  80.02545 43.0 43
  83.01202 64.0 64
  93.03371 8.0 8
  95.00941 7.0 7
  95.01534 6.0 6
  96.01988 16.0 16
  102.04938 6.0 6
  105.9523 7.0 7
  107.0127 354.0 354
  107.83123 5.0 5
  108.01908 644.0 643
  108.99184 6.0 6
  109.02316 55.0 55
  109.03421 6.0 6
  114.25189 7.0 7
  116.76648 6.0 6
  117.03053 10.0 10
  119.01116 16.0 16
  119.01713 9.0 9
  120.01688 21.0 21
  120.02218 11.0 11
  120.03024 10.0 10
  121.0271 14.0 14
  121.03243 10.0 10
  124.0089 10.0 10
  124.01766 45.0 45
  125.02226 68.0 68
  125.03083 9.0 9
  127.04758 7.0 7
  127.18616 6.0 6
  129.02861 16.0 16
  129.03683 5.0 5
  130.04501 10.0 10
  133.02754 38.0 38
  133.03287 17.0 17
  134.03613 475.0 475
  135.02875 5.0 5
  135.04388 223.0 223
  136.01454 957.0 956
  136.05191 20.0 20
  136.5941 6.0 6
  136.76604 10.0 10
  137.01968 61.0 61
  137.04776 6.0 6
  138.01721 16.0 16
  141.03067 9.0 9
  142.03363 9.0 9
  142.03813 18.0 18
  143.04831 12.0 12
  145.06714 19.0 19
  146.03555 6.0 6
  148.05171 19.0 19
  149.02596 7.0 7
  149.0578 34.0 34
  149.99268 6.0 6
  151.00252 619.0 618
  151.95726 6.0 6
  152.00301 69.0 69
  152.00879 60.0 60
  152.01782 19.0 19
  153.00468 24.0 24
  153.0162 14.0 14
  153.83833 7.0 7
  155.04463 13.0 13
  156.01895 7.0 7
  156.05498 15.0 15
  157.02463 15.0 15
  157.05933 6.0 6
  158.036 83.0 83
  158.34929 6.0 6
  159.02924 7.0 7
  159.03941 8.0 8
  160.01158 25.0 25
  160.04474 7.0 7
  161.02045 8.0 8
  162.02013 6.0 6
  162.06195 6.0 6
  163.00214 6.0 6
  163.01755 8.0 8
  163.54053 5.0 5
  164.00986 1000.0 999
  164.49875 13.0 13
  165.01622 205.0 205
  166.0127 6.0 6
  166.02313 8.0 8
  167.93039 7.0 7
  168.05954 7.0 7
  169.03758 17.0 17
  169.06477 7.0 7
  170.03946 7.0 7
  171.04726 56.0 56
  172.01479 7.0 7
  172.05391 60.0 60
  173.02318 92.0 92
  173.05379 9.0 9
  174.03082 146.0 146
  174.06325 6.0 6
  175.03703 135.0 135
  175.16432 8.0 8
  176.04628 68.0 68
  176.84341 7.0 7
  177.0179 84.0 84
  177.04823 16.0 16
  179.04868 8.0 8
  183.03847 18.0 18
  184.02409 8.0 8
  184.05217 6.0 6
  185.01694 15.0 15
  185.033 11.0 11
  185.04837 10.0 10
  185.05786 32.0 32
  186.07147 6.0 6
  187.03473 11.0 11
  187.04324 11.0 11
  188.04738 51.0 51
  189.03232 9.0 9
  190.05562 7.0 7
  194.72763 10.0 10
  196.05481 6.0 6
  197.01392 6.0 6
  197.05067 14.0 14
  197.05872 33.0 33
  198.03 46.0 46
  198.05888 9.0 9
  199.03758 234.0 234
  200.00351 6.0 6
  200.04272 80.0 80
  201.01535 120.0 120
  201.02747 20.0 20
  201.04179 10.0 10
  201.0531 27.0 27
  202.01949 18.0 18
  202.0282 35.0 35
  202.23149 6.0 6
  203.03062 44.0 44
  203.9451 6.0 6
  204.03572 8.0 8
  210.03821 8.0 8
  211.04163 12.0 12
  212.04198 5.0 5
  212.0533 15.0 15
  213.04182 9.0 9
  213.05782 75.0 75
  214.05914 96.0 96
  214.07321 10.0 10
  215.03296 58.0 58
  215.0433 14.0 14
  215.071 9.0 9
  216.03673 56.0 56
  216.05098 7.0 7
  217.04185 32.0 32
  217.05656 9.0 9
  217.57495 9.0 9
  218.04288 6.0 6
  218.05408 18.0 18
  218.06046 8.0 8
  223.03732 17.0 17
  223.047 8.0 8
  224.04587 8.0 8
  225.0154 14.0 14
  226.02434 6.0 6
  226.05797 7.0 7
  227.02969 57.0 57
  228.03387 22.0 22
  231.0108 7.0 7
  239.03319 9.0 9
  240.03749 39.0 39
  240.05649 8.0 8
  241.03461 12.0 12
  241.04865 77.0 77
  241.06316 19.0 19
  242.05363 67.0 67
  242.06403 25.0 25
  243.01311 9.0 9
  243.02928 6.0 6
  243.05267 36.0 36
  244.0322 5.0 5
  251.02594 6.0 6
  257.04224 18.0 18
  258.05359 7.0 7
  258.06335 6.0 6
  259.06607 8.0 8
  268.03574 39.0 39
  268.06345 6.0 6
  269.05212 5.0 5
  283.01132 7.0 7
  283.58356 9.0 9
  285.04044 142.0 142
  286.01031 7.0 7
  286.03461 17.0 17
  286.0592 19.0 19
  301.06854 39.0 39
  301.07922 11.0 11
  301.09695 9.0 9
//
