ACCESSION: MSBNK-RIKEN-PR300169
RECORD_TITLE: Hydroxygardnutine; LC-ESI-QTOF; MS2
DATE: 2019.03.28
AUTHORS: Tetsuya Mori, Center for Sustainable Resource Science, RIKEN
LICENSE: CC BY-NC-SA
PUBLICATION: Tsugawa H., Nakabayashi R., Mori T., Yamada Y., Takahashi M., Rai A., Sugiyama R., Yamamoto H., Nakaya T., Yamazaki M., Kooke R., Bac-Molenaar JA., Oztolan-Erol N., Keurentjes JJB., Arita M., Saito K. (2019) "A cheminformatics approach to characterize metabolomes in stable-isotope-labeled organisms" Nature Methods 16(4):295-298. [doi:10.1038/s41592-019-0358-2]
COMMENT: registered in RIKEN PlaSMA
CH$NAME: Hydroxygardnutine
CH$COMPOUND_CLASS: Macroline alkaloids
CH$FORMULA: C20H22N2O3
CH$EXACT_MASS: 338.407
CH$SMILES: COC1=CC2=C(C=C1)C1=C(N2)[C@@H]2C[C@@H]3[C@@H]4CO[C@H]1[C@@H]4N2C\C3=C\CO
CH$IUPAC: InChI=1S/C20H22N2O3/c1-24-11-2-3-12-15(6-11)21-18-16-7-13-10(4-5-23)8-22(16)19-14(13)9-25-20(19)17(12)18/h2-4,6,13-14,16,19-21,23H,5,7-9H2,1H3/b10-4-/t13-,14-,16-,19+,20+/m0/s1
CH$LINK: INCHIKEY OUONWRIEOZGMSQ-NUUNSNFRSA-N
AC$INSTRUMENT: LC, Waters Acquity UPLC System; MS, Waters Xevo G2 Q-Tof
AC$INSTRUMENT_TYPE: LC-ESI-QTOF
AC$MASS_SPECTROMETRY: MS_TYPE MS2
AC$MASS_SPECTROMETRY: ION_MODE POSITIVE
AC$MASS_SPECTROMETRY: COLLISION_ENERGY 6V
AC$MASS_SPECTROMETRY: DESOLVATION_GAS_FLOW 800/h
AC$MASS_SPECTROMETRY: DESOLVATION_TEMPERATURE 450 C
AC$MASS_SPECTROMETRY: IONIZATION ESI
AC$CHROMATOGRAPHY: CAPILLARY_VOLTAGE +3.00 kV
AC$CHROMATOGRAPHY: COLUMN_NAME Acquity bridged ethyl hybrid C18 (1.7 um, 2.1 mm * 100 mm, Waters)
AC$CHROMATOGRAPHY: COLUMN_TEMPERATURE 40 C
AC$CHROMATOGRAPHY: FLOW_GRADIENT A/B = (99.5%/0.5% at 0 min, 99.5%/0.5% at 0.1 min, 20%/80% at 10 min, 0.5%/99.5% at 10.1 min, 0.5%/99.5% at 12.0 min, 99.5%/0.5% at 12.1 min, 99.5%/0.5% at 15.0 min)
AC$CHROMATOGRAPHY: FLOW_RATE 0.3 ml/min at 0 min, 0.3 ml/min at 10 min, 0.4 ml/min at 10.1 min, 0.4 ml/min at 14.4 min, 0.3 ml/min at 14.5 min
AC$CHROMATOGRAPHY: RETENTION_TIME 3.602583
AC$CHROMATOGRAPHY: SOLVENT A water including 0.1% formic acid
AC$CHROMATOGRAPHY: SOLVENT B acetonitrile including 0.1% formic acid
MS$FOCUSED_ION: PRECURSOR_TYPE [M+H]+
MS$FOCUSED_ION: PRECURSOR_M/Z 339.170319
PK$SPLASH: splash10-05fr-0962000000-7390c4a458b0123f3bd0
PK$NUM_PEAK: 374
PK$PEAK: m/z int. rel.int.
  51.37632 6.0 6
  55.05354 5.0 5
  67.05513 6.0 6
  70.06585 7.0 7
  77.03734 27.0 27
  79.04994 8.0 8
  79.05577 24.0 24
  80.02894 9.0 9
  81.05678 6.0 6
  82.06623 20.0 20
  82.07247 6.0 6
  86.49677 8.0 8
  91.04934 10.0 10
  91.05633 29.0 29
  92.03857 6.0 6
  92.04981 19.0 19
  93.05849 6.0 6
  93.06638 18.0 18
  93.07178 32.0 32
  94.06144 7.0 7
  94.07539 13.0 13
  95.051 14.0 14
  95.07234 13.0 13
  96.07052 8.0 8
  96.08177 46.0 46
  97.08074 5.0 5
  103.04486 8.0 8
  103.05544 112.0 112
  104.05371 7.0 7
  104.06329 12.0 12
  105.06094 8.0 8
  105.06769 28.0 28
  106.05112 13.0 13
  106.06518 347.0 347
  107.04405 5.0 5
  107.06712 31.0 31
  107.53446 5.0 5
  108.08062 15.0 15
  110.06043 30.0 30
  110.09604 94.0 94
  111.09309 7.0 7
  111.09849 13.0 13
  112.10188 10.0 10
  116.05318 8.0 8
  117.06923 7.0 7
  118.06351 117.0 117
  119.06756 13.0 13
  119.07645 9.0 9
  120.05839 12.0 12
  120.08051 808.0 807
  120.25008 6.0 6
  121.05645 16.0 16
  121.06657 19.0 19
  121.08294 43.0 43
  122.09532 15.0 15
  123.07188 5.0 5
  123.08032 7.0 7
  124.07437 71.0 71
  125.07391 17.0 17
  127.04861 9.0 9
  129.0695 16.0 16
  130.07146 5.0 5
  130.07819 7.0 7
  131.06886 13.0 13
  131.07666 7.0 7
  134.09581 10.0 10
  134.1414 6.0 6
  136.07607 427.0 427
  137.06827 6.0 6
  137.07927 40.0 40
  137.08521 12.0 12
  138.09076 202.0 202
  139.0925 21.0 21
  142.06593 14.0 14
  143.07466 23.0 23
  144.056 18.0 18
  144.08195 63.0 63
  145.05287 13.0 13
  146.07016 6.0 6
  147.06091 11.0 11
  147.06885 27.0 27
  147.07716 11.0 11
  148.05666 8.0 8
  148.06885 44.0 44
  148.07788 77.0 77
  149.08575 5.0 5
  150.09004 62.0 62
  150.09915 9.0 9
  151.09293 9.0 9
  151.1062 10.0 10
  152.076 11.0 11
  153.0724 5.0 5
  154.06146 8.0 8
  155.05966 10.0 10
  155.07207 11.0 11
  156.07771 16.0 16
  157.09271 8.0 8
  158.05966 213.0 213
  159.06136 47.0 47
  159.0703 33.0 33
  159.08226 7.0 7
  160.07057 74.0 74
  160.07584 167.0 167
  161.07651 42.0 42
  161.08914 12.0 12
  162.08372 20.0 20
  162.09291 42.0 42
  164.10551 40.0 40
  164.11227 11.0 11
  166.05266 6.0 6
  166.06734 9.0 9
  166.0853 16.0 16
  167.0966 5.0 5
  171.07507 10.0 10
  172.07397 9.0 9
  173.0406 11.0 11
  173.08385 848.0 847
  174.05692 10.0 10
  174.08641 261.0 261
  174.09532 84.0 84
  175.09256 27.0 27
  175.10307 5.0 5
  176.06364 14.0 14
  176.09302 7.0 7
  177.0643 5.0 5
  181.08687 7.0 7
  182.06789 7.0 7
  182.09462 5.0 5
  184.07111 13.0 13
  185.08089 12.0 12
  185.09435 8.0 8
  186.07521 7.0 7
  186.09195 99.0 99
  187.08913 30.0 30
  187.10207 7.0 7
  188.0583 34.0 34
  188.07048 108.0 108
  188.09981 36.0 36
  188.10779 89.0 89
  189.07178 6.0 6
  189.10182 10.0 10
  193.039 6.0 6
  193.05557 6.0 6
  193.08255 12.0 12
  193.09033 35.0 35
  194.08893 20.0 20
  195.07315 8.0 8
  195.08565 5.0 5
  196.07782 19.0 19
  197.07747 67.0 67
  197.09521 11.0 11
  198.06252 9.0 9
  198.08698 50.0 50
  198.09875 26.0 26
  199.07639 42.0 42
  199.09665 15.0 15
  200.06664 24.0 24
  200.08665 8.0 8
  200.097 11.0 11
  200.10562 17.0 17
  201.08173 11.0 11
  201.10359 13.0 13
  201.11684 9.0 9
  202.07707 15.0 15
  202.08936 110.0 110
  203.08588 8.0 8
  204.07121 11.0 11
  204.08244 9.0 9
  204.10237 8.0 8
  205.08812 6.0 6
  206.09375 7.0 7
  209.08067 61.0 61
  209.08876 20.0 20
  210.09253 35.0 35
  211.08083 20.0 20
  211.09729 24.0 24
  212.07022 13.0 13
  212.09201 17.0 17
  212.10744 67.0 67
  212.12613 5.0 5
  213.0636 17.0 17
  213.07784 6.0 6
  213.09689 27.0 27
  213.11067 29.0 29
  213.11754 10.0 10
  213.5773 5.0 5
  214.08971 11.0 11
  215.06737 11.0 11
  215.07893 7.0 7
  215.09033 9.0 9
  216.08434 8.0 8
  216.09802 9.0 9
  216.10767 6.0 6
  217.07968 5.0 5
  217.09927 12.0 12
  218.07994 5.0 5
  220.06999 10.0 10
  220.07878 7.0 7
  220.09131 5.0 5
  220.10371 8.0 8
  220.11865 23.0 23
  222.08774 7.0 7
  222.09778 8.0 8
  223.09724 26.0 26
  223.11003 6.0 6
  224.07782 8.0 8
  224.09969 113.0 113
  224.11174 66.0 66
  225.10365 21.0 21
  225.1176 32.0 32
  226.0529 6.0 6
  226.09059 12.0 12
  226.11255 10.0 10
  226.11923 21.0 21
  226.13109 14.0 14
  227.08131 41.0 41
  227.12383 8.0 8
  227.13199 6.0 6
  228.07866 7.0 7
  231.10403 16.0 16
  232.06163 6.0 6
  233.06625 6.0 6
  233.08849 7.0 7
  234.08939 32.0 32
  234.10455 5.0 5
  234.11929 12.0 12
  235.07727 6.0 6
  235.09387 39.0 39
  235.1049 14.0 14
  236.10551 52.0 52
  237.09683 20.0 20
  237.11096 21.0 21
  238.08185 10.0 10
  238.10905 16.0 16
  238.12001 24.0 24
  238.13182 7.0 7
  239.09282 8.0 8
  239.11316 14.0 14
  239.1212 33.0 33
  240.09851 15.0 15
  241.10045 9.0 9
  241.147 6.0 6
  242.0905 5.0 5
  243.11229 6.0 6
  243.12364 7.0 7
  245.11418 13.0 13
  246.07231 5.0 5
  246.09277 8.0 8
  247.08794 6.0 6
  247.09842 14.0 14
  248.07957 15.0 15
  248.09494 23.0 23
  248.11572 15.0 15
  248.64746 8.0 8
  249.0536 5.0 5
  249.07234 6.0 6
  249.09253 19.0 19
  249.10098 32.0 32
  249.11276 42.0 42
  249.12198 11.0 11
  250.10886 44.0 44
  250.12721 33.0 33
  251.08316 11.0 11
  251.12952 19.0 19
  252.09349 21.0 21
  252.10335 37.0 37
  252.12506 10.0 10
  252.14073 11.0 11
  252.15149 6.0 6
  253.09863 9.0 9
  253.11023 13.0 13
  253.14055 5.0 5
  254.08485 5.0 5
  254.09433 6.0 6
  255.11255 7.0 7
  256.12436 12.0 12
  256.13748 20.0 20
  257.11954 14.0 14
  258.11234 6.0 6
  259.10477 18.0 18
  259.13599 7.0 7
  260.10626 14.0 14
  261.09619 9.0 9
  261.11981 25.0 25
  262.09354 22.0 22
  262.12299 16.0 16
  262.13412 12.0 12
  263.09662 17.0 17
  263.12238 131.0 131
  264.10397 14.0 14
  264.11639 20.0 20
  264.12885 40.0 40
  264.14352 17.0 17
  265.08435 24.0 24
  265.10135 26.0 26
  265.12897 17.0 17
  265.14886 12.0 12
  266.10794 27.0 27
  266.13705 21.0 21
  267.11072 14.0 14
  268.13422 23.0 23
  269.11584 15.0 15
  269.13181 15.0 15
  273.10309 7.0 7
  274.12729 6.0 6
  275.10629 7.0 7
  275.11667 13.0 13
  276.10083 6.0 6
  276.12201 40.0 40
  276.13577 25.0 25
  276.15289 9.0 9
  277.09866 20.0 20
  277.13498 147.0 147
  277.15515 24.0 24
  278.11249 29.0 29
  278.13596 163.0 163
  279.08481 5.0 5
  279.10468 29.0 29
  279.12048 41.0 41
  279.13544 32.0 32
  279.1524 21.0 21
  280.10635 19.0 19
  280.12112 44.0 44
  280.13516 11.0 11
  281.12778 14.0 14
  281.13635 7.0 7
  282.12061 8.0 8
  282.14587 24.0 24
  283.1572 7.0 7
  286.13013 7.0 7
  288.10245 6.0 6
  289.10336 5.0 5
  289.11209 8.0 8
  289.12601 13.0 13
  289.14056 11.0 11
  291.11194 10.0 10
  291.12347 8.0 8
  291.14615 37.0 37
  291.7767 9.0 9
  292.11273 10.0 10
  292.13486 28.0 28
  292.15948 6.0 6
  293.0928 9.0 9
  293.12891 181.0 181
  293.17242 7.0 7
  294.0936 5.0 5
  294.12726 98.0 98
  294.13757 255.0 255
  295.10471 6.0 6
  295.13788 52.0 52
  296.11465 5.0 5
  296.13403 12.0 12
  296.14548 7.0 7
  304.12405 9.0 9
  306.13843 9.0 9
  307.12933 18.0 18
  307.15085 21.0 21
  308.13885 5.0 5
  308.14828 7.0 7
  309.08975 16.0 16
  309.11887 40.0 40
  309.16037 1000.0 999
  310.12946 14.0 14
  310.16174 253.0 253
  311.16299 12.0 12
  321.14548 8.0 8
  321.15833 28.0 28
  321.17188 6.0 6
  322.15118 18.0 18
  322.16855 7.0 7
  324.14035 9.0 9
  324.16736 5.0 5
  339.16708 50.0 50
  339.18317 23.0 23
//
