ACCESSION: MSBNK-RIKEN-PR301728
RECORD_TITLE: Chelerythrine; LC-ESI-QTOF; MS2
DATE: 2019.03.28
AUTHORS: Tetsuya Mori, Center for Sustainable Resource Science, RIKEN
LICENSE: CC BY-NC-SA
PUBLICATION: Tsugawa H., Nakabayashi R., Mori T., Yamada Y., Takahashi M., Rai A., Sugiyama R., Yamamoto H., Nakaya T., Yamazaki M., Kooke R., Bac-Molenaar JA., Oztolan-Erol N., Keurentjes JJB., Arita M., Saito K. (2019) "A cheminformatics approach to characterize metabolomes in stable-isotope-labeled organisms" Nature Methods 16(4):295-298. [doi:10.1038/s41592-019-0358-2]
COMMENT: registered in RIKEN PlaSMA
CH$NAME: Chelerythrine
CH$COMPOUND_CLASS: Quaternary benzophenanthridine alkaloids
CH$FORMULA: [C21H18NO4]+
CH$EXACT_MASS: 348.378
CH$SMILES: COC1=C(OC)C2=C[N+](C)=C3C4=CC5=C(OCO5)C=C4C=CC3=C2C=C1
CH$IUPAC: InChI=1S/C21H18NO4/c1-22-10-16-13(6-7-17(23-2)21(16)24-3)14-5-4-12-8-18-19(26-11-25-18)9-15(12)20(14)22/h4-10H,11H2,1-3H3/q+1
CH$LINK: INCHIKEY LLEJIEBFSOEYIV-UHFFFAOYSA-N
AC$INSTRUMENT: LC, Waters Acquity UPLC System; MS, Waters Xevo G2 Q-Tof
AC$INSTRUMENT_TYPE: LC-ESI-QTOF
AC$MASS_SPECTROMETRY: MS_TYPE MS2
AC$MASS_SPECTROMETRY: ION_MODE POSITIVE
AC$MASS_SPECTROMETRY: COLLISION_ENERGY 6V
AC$MASS_SPECTROMETRY: DESOLVATION_GAS_FLOW 800/h
AC$MASS_SPECTROMETRY: DESOLVATION_TEMPERATURE 450 C
AC$MASS_SPECTROMETRY: IONIZATION ESI
AC$CHROMATOGRAPHY: CAPILLARY_VOLTAGE +3.00 kV
AC$CHROMATOGRAPHY: COLUMN_NAME Acquity bridged ethyl hybrid C18 (1.7 um, 2.1 mm * 100 mm, Waters)
AC$CHROMATOGRAPHY: COLUMN_TEMPERATURE 40 C
AC$CHROMATOGRAPHY: FLOW_GRADIENT A/B = (99.5%/0.5% at 0 min, 99.5%/0.5% at 0.1 min, 20%/80% at 10 min, 0.5%/99.5% at 10.1 min, 0.5%/99.5% at 12.0 min, 99.5%/0.5% at 12.1 min, 99.5%/0.5% at 15.0 min)
AC$CHROMATOGRAPHY: FLOW_RATE 0.3 ml/min at 0 min, 0.3 ml/min at 10 min, 0.4 ml/min at 10.1 min, 0.4 ml/min at 14.4 min, 0.3 ml/min at 14.5 min
AC$CHROMATOGRAPHY: RETENTION_TIME 5.30245
AC$CHROMATOGRAPHY: SOLVENT A water including 0.1% formic acid
AC$CHROMATOGRAPHY: SOLVENT B acetonitrile including 0.1% formic acid
MS$FOCUSED_ION: PRECURSOR_TYPE [M]+
MS$FOCUSED_ION: PRECURSOR_M/Z 348.1224859
PK$SPLASH: splash10-0f8c-0091000000-dde541c28f6f2055ed9e
PK$NUM_PEAK: 350
PK$PEAK: m/z int. rel.int.
  118.06944 6.0 6
  132.63281 5.0 5
  141.05472 6.0 6
  144.68427 6.0 6
  151.05472 45.0 45
  152.05194 7.0 7
  152.06284 6.0 6
  153.07317 9.0 9
  160.08354 5.0 5
  161.03781 6.0 6
  163.03279 7.0 7
  163.05406 7.0 7
  163.34204 8.0 8
  164.05597 6.0 6
  164.06894 5.0 5
  165.06522 6.0 6
  165.07184 7.0 7
  165.08144 11.0 11
  168.10658 8.0 8
  173.27943 5.0 5
  174.06606 6.0 6
  175.06165 12.0 12
  176.0627 80.0 80
  177.05147 13.0 13
  177.06789 59.0 59
  177.08067 19.0 19
  177.08656 7.0 7
  178.05502 8.0 8
  178.06413 22.0 22
  178.08112 12.0 12
  179.06735 12.0 12
  179.08881 9.0 9
  179.63615 8.0 8
  185.03326 7.0 7
  187.05345 20.0 20
  188.04863 6.0 6
  188.0563 5.0 5
  188.06677 7.0 7
  189.05505 28.0 28
  189.06384 50.0 50
  189.07439 34.0 34
  189.76117 7.0 7
  189.84882 5.0 5
  190.05083 11.0 11
  190.06108 30.0 30
  191.06717 30.0 30
  191.08255 20.0 20
  192.04771 8.0 8
  192.08881 24.0 24
  192.12447 9.0 9
  200.06506 12.0 12
  201.05313 12.0 12
  201.07166 29.0 29
  202.05856 34.0 34
  202.06866 22.0 22
  202.07951 10.0 10
  202.17444 6.0 6
  202.73665 5.0 5
  202.77135 5.0 5
  203.04068 20.0 20
  203.07425 194.0 194
  203.09196 11.0 11
  203.11757 6.0 6
  204.02362 6.0 6
  204.03647 8.0 8
  204.04706 7.0 7
  204.06175 29.0 29
  204.08046 564.0 563
  204.74593 8.0 8
  205.03328 8.0 8
  205.0667 57.0 57
  205.08621 73.0 73
  205.10043 16.0 16
  205.1964 7.0 7
  206.05783 10.0 10
  206.07455 5.0 5
  206.09618 15.0 15
  206.1051 41.0 41
  207.06888 12.0 12
  207.0802 5.0 5
  207.09805 17.0 17
  207.10626 8.0 8
  208.07343 9.0 9
  208.47113 7.0 7
  210.61122 10.0 10
  212.97487 6.0 6
  213.06851 13.0 13
  214.06056 107.0 107
  214.07356 67.0 67
  214.12405 5.0 5
  215.06422 22.0 22
  215.07729 93.0 93
  215.54523 6.0 6
  216.07091 85.0 85
  216.08388 172.0 172
  216.72461 6.0 6
  217.06134 28.0 28
  217.08965 175.0 175
  217.10921 6.0 6
  217.27069 8.0 8
  217.32463 14.0 14
  217.59935 6.0 6
  217.67154 6.0 6
  217.68907 6.0 6
  218.05962 16.0 16
  218.07883 34.0 34
  218.09689 284.0 284
  218.10591 79.0 79
  218.12999 6.0 6
  218.15742 7.0 7
  218.21326 8.0 8
  219.0183 16.0 16
  219.05063 8.0 8
  219.06371 34.0 34
  219.07982 12.0 12
  219.09514 35.0 35
  219.1091 51.0 51
  220.05801 6.0 6
  220.06514 10.0 10
  220.07272 8.0 8
  220.0881 34.0 34
  220.10564 12.0 12
  220.44818 8.0 8
  221.04614 8.0 8
  221.07909 9.0 9
  221.0921 13.0 13
  221.32465 6.0 6
  221.9371 12.0 12
  222.09688 8.0 8
  226.05629 10.0 10
  227.07068 26.0 26
  227.08098 28.0 28
  227.74512 5.0 5
  228.05782 27.0 27
  228.08063 216.0 216
  228.09764 13.0 13
  229.04327 7.0 7
  229.05966 6.0 6
  229.07227 10.0 10
  229.08829 94.0 94
  230.04541 10.0 10
  230.05984 70.0 70
  230.07933 45.0 45
  230.0975 115.0 115
  231.05208 6.0 6
  231.07263 102.0 102
  231.09491 12.0 12
  231.10501 6.0 6
  231.11436 6.0 6
  232.0298 6.0 6
  232.04962 14.0 14
  232.07556 1000.0 999
  232.11166 11.0 11
  232.11801 6.0 6
  232.63524 6.0 6
  232.90344 5.0 5
  233.04794 6.0 6
  233.07259 117.0 117
  233.08231 330.0 330
  233.82489 7.0 7
  234.08167 65.0 65
  234.09288 147.0 147
  234.17593 8.0 8
  234.5081 7.0 7
  235.07249 8.0 8
  235.08582 23.0 23
  235.10091 29.0 29
  235.1122 9.0 9
  235.18042 11.0 11
  235.72247 7.0 7
  236.07878 9.0 9
  236.62894 6.0 6
  237.73438 6.0 6
  237.88776 8.0 8
  241.08562 7.0 7
  242.06688 11.0 11
  242.09015 6.0 6
  243.06786 29.0 29
  243.38107 7.0 7
  244.02547 8.0 8
  244.05431 16.0 16
  244.0766 155.0 155
  244.17593 8.0 8
  244.65239 5.0 5
  245.03642 6.0 6
  245.05948 29.0 29
  245.07098 44.0 44
  245.08337 54.0 54
  245.84882 9.0 9
  246.05943 8.0 8
  246.07265 20.0 20
  246.09102 420.0 420
  246.12511 9.0 9
  247.04196 7.0 7
  247.05521 33.0 33
  247.06207 82.0 82
  247.07838 61.0 61
  247.09947 172.0 172
  247.34836 7.0 7
  247.84889 12.0 12
  248.04401 5.0 5
  248.05516 6.0 6
  248.07419 20.0 20
  248.10458 95.0 95
  249.1102 6.0 6
  249.1281 7.0 7
  250.05699 13.0 13
  250.75505 6.0 6
  250.78014 8.0 8
  251.72188 6.0 6
  256.07889 38.0 38
  257.04462 5.0 5
  257.07108 33.0 33
  257.08685 22.0 22
  258.05927 44.0 44
  258.07816 9.0 9
  258.09293 24.0 24
  259.05966 100.0 100
  259.08255 6.0 6
  259.10565 7.0 7
  260.0683 230.0 230
  260.09772 17.0 17
  260.11142 15.0 15
  261.03949 8.0 8
  261.07715 161.0 161
  262.05563 6.0 6
  262.08401 80.0 80
  262.10455 15.0 15
  263.09293 37.0 37
  264.09238 6.0 6
  269.06424 14.0 14
  270.07144 6.0 6
  270.10611 5.0 5
  271.06805 15.0 15
  271.07895 8.0 8
  272.06561 82.0 82
  272.07855 51.0 51
  273.06735 41.0 41
  273.08209 22.0 22
  273.09625 7.0 7
  273.83832 7.0 7
  274.01749 12.0 12
  274.03922 52.0 52
  274.04922 37.0 37
  274.07489 111.0 111
  274.091 357.0 357
  275.03601 41.0 41
  275.05377 261.0 261
  275.07031 168.0 168
  275.09131 154.0 154
  275.17502 8.0 8
  276.06015 78.0 78
  276.09787 68.0 68
  276.12274 7.0 7
  276.24261 6.0 6
  277.02881 6.0 6
  277.09131 16.0 16
  277.10425 30.0 30
  277.16855 6.0 6
  282.31769 8.0 8
  284.96747 6.0 6
  285.07053 8.0 8
  286.06009 9.0 9
  286.0871 100.0 100
  287.01605 5.0 5
  287.04773 13.0 13
  287.06171 27.0 27
  287.07956 33.0 33
  287.09573 37.0 37
  288.03531 7.0 7
  288.06732 116.0 116
  288.09082 68.0 68
  288.1077 33.0 33
  289.03339 9.0 9
  289.05508 14.0 14
  289.07495 75.0 75
  289.08337 34.0 34
  289.10852 17.0 17
  289.90802 6.0 6
  290.08041 823.0 822
  291.05585 7.0 7
  291.08582 175.0 175
  291.12573 7.0 7
  291.15967 7.0 7
  291.92496 5.0 5
  292.61334 10.0 10
  293.09717 11.0 11
  299.23001 7.0 7
  300.04199 6.0 6
  300.06482 12.0 12
  300.07834 6.0 6
  301.01456 6.0 6
  301.05383 17.0 17
  301.07523 27.0 27
  301.95969 8.0 8
  302.01196 10.0 10
  302.05939 19.0 19
  302.06952 67.0 67
  302.08585 91.0 91
  302.10001 20.0 20
  303.04773 14.0 14
  303.0809 55.0 55
  303.09695 25.0 25
  303.1713 8.0 8
  304.08069 42.0 42
  304.09668 222.0 222
  304.11526 51.0 51
  304.49347 7.0 7
  305.09601 12.0 12
  305.11435 12.0 12
  305.12695 11.0 11
  306.09894 23.0 23
  307.88031 11.0 11
  309.33646 10.0 10
  312.07581 6.0 6
  314.04105 7.0 7
  314.06201 8.0 8
  314.08252 49.0 49
  315.04187 13.0 13
  315.05673 25.0 25
  315.06833 12.0 12
  315.09094 12.0 12
  316.03989 29.0 29
  316.06049 132.0 132
  316.09482 49.0 49
  316.1113 11.0 11
  317.01331 7.0 7
  317.05356 35.0 35
  317.06961 61.0 61
  317.08588 27.0 27
  317.10394 8.0 8
  317.11533 7.0 7
  317.3111 6.0 6
  318.06747 38.0 38
  318.08615 6.0 6
  319.05615 6.0 6
  319.08685 19.0 19
  330.02673 7.0 7
  330.04245 8.0 8
  330.06299 99.0 99
  330.07947 111.0 111
  330.09521 37.0 37
  331.07822 26.0 26
  331.09125 14.0 14
  332.0661 8.0 8
  332.09424 110.0 110
  333.0787 7.0 7
  333.11166 12.0 12
  334.08368 9.0 9
  348.12189 18.0 18
//
