ACCESSION: MSBNK-RIKEN-PR300303
RECORD_TITLE: Tubotaiwine; LC-ESI-QTOF; MS2
DATE: 2019.03.28
AUTHORS: Tetsuya Mori, Center for Sustainable Resource Science, RIKEN
LICENSE: CC BY-NC-SA
PUBLICATION: Tsugawa H., Nakabayashi R., Mori T., Yamada Y., Takahashi M., Rai A., Sugiyama R., Yamamoto H., Nakaya T., Yamazaki M., Kooke R., Bac-Molenaar JA., Oztolan-Erol N., Keurentjes JJB., Arita M., Saito K. (2019) "A cheminformatics approach to characterize metabolomes in stable-isotope-labeled organisms" Nature Methods 16(4):295-298. [doi:10.1038/s41592-019-0358-2]
COMMENT: registered in RIKEN PlaSMA
CH$NAME: Tubotaiwine
CH$COMPOUND_CLASS: Strychnos alkaloids
CH$FORMULA: C20H24N2O2
CH$EXACT_MASS: 324.424
CH$SMILES: CCC1C2N3CCC22C(NC4=CC=CC=C24)=C(C1CC3)C(=O)OC
CH$IUPAC: InChI=1S/C20H24N2O2/c1-3-12-13-8-10-22-11-9-20(18(12)22)14-6-4-5-7-15(14)21-17(20)16(13)19(23)24-2/h4-7,12-13,18,21H,3,8-11H2,1-2H3
CH$LINK: INCHIKEY RLAKWLFUMAABBE-UHFFFAOYSA-N
AC$INSTRUMENT: LC, Waters Acquity UPLC System; MS, Waters Xevo G2 Q-Tof
AC$INSTRUMENT_TYPE: LC-ESI-QTOF
AC$MASS_SPECTROMETRY: MS_TYPE MS2
AC$MASS_SPECTROMETRY: ION_MODE POSITIVE
AC$MASS_SPECTROMETRY: COLLISION_ENERGY 6V
AC$MASS_SPECTROMETRY: DESOLVATION_GAS_FLOW 800/h
AC$MASS_SPECTROMETRY: DESOLVATION_TEMPERATURE 450 C
AC$MASS_SPECTROMETRY: IONIZATION ESI
AC$CHROMATOGRAPHY: CAPILLARY_VOLTAGE +3.00 kV
AC$CHROMATOGRAPHY: COLUMN_NAME Acquity bridged ethyl hybrid C18 (1.7 um, 2.1 mm * 100 mm, Waters)
AC$CHROMATOGRAPHY: COLUMN_TEMPERATURE 40 C
AC$CHROMATOGRAPHY: FLOW_GRADIENT A/B = (99.5%/0.5% at 0 min, 99.5%/0.5% at 0.1 min, 20%/80% at 10 min, 0.5%/99.5% at 10.1 min, 0.5%/99.5% at 12.0 min, 99.5%/0.5% at 12.1 min, 99.5%/0.5% at 15.0 min)
AC$CHROMATOGRAPHY: FLOW_RATE 0.3 ml/min at 0 min, 0.3 ml/min at 10 min, 0.4 ml/min at 10.1 min, 0.4 ml/min at 14.4 min, 0.3 ml/min at 14.5 min
AC$CHROMATOGRAPHY: RETENTION_TIME 4.920516
AC$CHROMATOGRAPHY: SOLVENT A water including 0.1% formic acid
AC$CHROMATOGRAPHY: SOLVENT B acetonitrile including 0.1% formic acid
MS$FOCUSED_ION: PRECURSOR_TYPE [M+H]+
MS$FOCUSED_ION: PRECURSOR_M/Z 325.1910545
PK$SPLASH: splash10-0006-0090000000-e4b4bb11fca152f7af25
PK$NUM_PEAK: 46
PK$PEAK: m/z int. rel.int.
  168.08357 11.0 11
  180.07841 9.0 9
  181.08707 5.0 5
  193.088 16.0 16
  194.09636 33.0 33
  195.09421 10.0 10
  207.10352 14.0 14
  208.07394 6.0 6
  208.08894 5.0 5
  208.10081 13.0 13
  208.11087 24.0 24
  209.10501 9.0 9
  209.11699 7.0 7
  210.12553 12.0 12
  211.12564 5.0 5
  220.11403 9.0 9
  221.11391 7.0 7
  222.08328 8.0 8
  222.09329 25.0 25
  222.12741 65.0 65
  223.08565 6.0 6
  223.13309 6.0 6
  234.12654 6.0 6
  235.12668 6.0 6
  236.10695 7.0 7
  236.12067 8.0 8
  236.13327 22.0 22
  236.14494 22.0 22
  237.13147 6.0 6
  237.13937 14.0 14
  237.15147 7.0 7
  238.12881 16.0 16
  263.1203 6.0 6
  264.1347 13.0 13
  264.15121 8.0 8
  265.13379 22.0 22
  265.15698 8.0 8
  265.17502 12.0 12
  293.1073 6.0 6
  293.12949 8.0 8
  293.16574 1000.0 999
  293.21402 10.0 10
  294.16772 238.0 238
  295.15857 8.0 8
  295.17532 23.0 23
  325.18958 10.0 10
//
