ACCESSION: MSBNK-RIKEN-PR307857
RECORD_TITLE: Silychrystin; LC-ESI-QTOF; MS2
DATE: 2019.03.28
AUTHORS: Tetsuya Mori, Center for Sustainable Resource Science, RIKEN
LICENSE: CC BY-NC-SA
PUBLICATION: Tsugawa H., Nakabayashi R., Mori T., Yamada Y., Takahashi M., Rai A., Sugiyama R., Yamamoto H., Nakaya T., Yamazaki M., Kooke R., Bac-Molenaar JA., Oztolan-Erol N., Keurentjes JJB., Arita M., Saito K. (2019) "A cheminformatics approach to characterize metabolomes in stable-isotope-labeled organisms" Nature Methods 16(4):295-298. [doi:10.1038/s41592-019-0358-2]
COMMENT: registered in RIKEN PlaSMA
CH$NAME: Silychrystin
CH$COMPOUND_CLASS: 2-arylbenzofuran flavonoids
CH$FORMULA: C25H22O10
CH$EXACT_MASS: 482.441
CH$SMILES: COC1=C(O)C=CC(=C1)C1OC2=C(C=C(C=C2O)C2OC3=CC(O)=CC(O)=C3C(=O)C2O)C1CO
CH$IUPAC: InChI=1S/C25H22O10/c1-33-18-6-10(2-3-15(18)28)23-14(9-26)13-4-11(5-17(30)25(13)35-23)24-22(32)21(31)20-16(29)7-12(27)8-19(20)34-24/h2-8,14,22-24,26-30,32H,9H2,1H3
CH$LINK: INCHIKEY BMLIIPOXVWESJG-UHFFFAOYSA-N
AC$INSTRUMENT: LC, Waters Acquity UPLC System; MS, Waters Xevo G2 Q-Tof
AC$INSTRUMENT_TYPE: LC-ESI-QTOF
AC$MASS_SPECTROMETRY: MS_TYPE MS2
AC$MASS_SPECTROMETRY: ION_MODE NEGATIVE
AC$MASS_SPECTROMETRY: COLLISION_ENERGY 6V
AC$MASS_SPECTROMETRY: DESOLVATION_GAS_FLOW 800/h
AC$MASS_SPECTROMETRY: DESOLVATION_TEMPERATURE 450 C
AC$MASS_SPECTROMETRY: IONIZATION ESI
AC$CHROMATOGRAPHY: CAPILLARY_VOLTAGE -2.75 kV
AC$CHROMATOGRAPHY: COLUMN_NAME Acquity bridged ethyl hybrid C18 (1.7 um, 2.1 mm * 100 mm, Waters)
AC$CHROMATOGRAPHY: COLUMN_TEMPERATURE 40 C
AC$CHROMATOGRAPHY: FLOW_GRADIENT A/B = (99.5%/0.5% at 0 min, 99.5%/0.5% at 0.1 min, 20%/80% at 10 min, 0.5%/99.5% at 10.1 min, 0.5%/99.5% at 12.0 min, 99.5%/0.5% at 12.1 min, 99.5%/0.5% at 15.0 min)
AC$CHROMATOGRAPHY: FLOW_RATE 0.3 ml/min at 0 min, 0.3 ml/min at 10 min, 0.4 ml/min at 10.1 min, 0.4 ml/min at 14.4 min, 0.3 ml/min at 14.5 min
AC$CHROMATOGRAPHY: RETENTION_TIME 4.955217
AC$CHROMATOGRAPHY: SOLVENT A water including 0.1% formic acid
AC$CHROMATOGRAPHY: SOLVENT B acetonitrile including 0.1% formic acid
MS$FOCUSED_ION: PRECURSOR_TYPE [M-H]-
MS$FOCUSED_ION: PRECURSOR_M/Z 481.11402044783
PK$SPLASH: splash10-004i-0950000000-3347b960f6e45831eaca
PK$NUM_PEAK: 160
PK$PEAK: m/z int. rel.int.
  64.99959 16.0 16
  70.00476 17.0 17
  82.0043 15.0 15
  83.01064 62.0 62
  84.99305 19.0 19
  96.02078 15.0 15
  105.03029 15.0 15
  107.00922 78.0 78
  107.01553 77.0 77
  107.05119 16.0 16
  108.01521 16.0 16
  109.00922 15.0 15
  109.02906 16.0 16
  110.02581 15.0 15
  121.02965 61.0 61
  122.03384 20.0 20
  124.01617 68.0 68
  124.0364 20.0 20
  125.02341 1000.0 999
  126.02591 30.0 30
  126.03149 45.0 45
  127.02598 17.0 17
  132.02405 16.0 16
  134.04164 15.0 15
  135.00385 20.0 20
  135.04057 19.0 19
  136.04874 17.0 17
  141.06987 44.0 44
  145.57191 15.0 15
  146.03929 31.0 31
  148.01434 19.0 19
  151.00014 311.0 311
  152.00377 81.0 81
  152.01114 162.0 162
  153.01466 70.0 70
  153.02199 60.0 60
  154.02631 15.0 15
  155.01939 15.0 15
  159.0419 34.0 34
  160.0163 15.0 15
  160.05382 16.0 16
  161.0284 15.0 15
  162.03262 17.0 17
  162.99974 16.0 16
  163.03757 48.0 48
  165.04579 32.0 32
  166.0374 15.0 15
  173.02669 19.0 19
  174.02472 20.0 20
  174.03256 14.0 14
  174.63345 19.0 19
  178.01248 15.0 15
  179.03006 16.0 16
  180.04269 16.0 16
  182.03711 44.0 44
  183.0424 16.0 16
  186.06396 15.0 15
  187.03975 16.0 16
  188.04825 15.0 15
  191.02606 32.0 32
  192.04027 17.0 17
  197.06696 31.0 31
  197.17009 17.0 17
  199.04074 47.0 47
  200.04675 19.0 19
  201.05696 15.0 15
  207.05 18.0 18
  209.05328 19.0 19
  211.04205 54.0 54
  211.06892 21.0 21
  212.08867 18.0 18
  213.05252 19.0 19
  214.08832 15.0 15
  221.05641 15.0 15
  224.045 19.0 19
  224.05664 17.0 17
  224.0733 16.0 16
  225.05107 18.0 18
  226.02118 23.0 23
  226.0663 17.0 17
  227.03905 21.0 21
  227.06357 16.0 16
  228.04428 45.0 45
  229.00156 17.0 17
  232.03384 23.0 23
  233.05807 17.0 17
  236.0481 15.0 15
  236.08408 16.0 16
  237.04816 45.0 45
  238.05615 23.0 23
  238.06548 15.0 15
  239.03444 19.0 19
  240.04539 52.0 52
  240.07544 20.0 20
  241.03322 21.0 21
  241.04915 30.0 30
  241.08054 17.0 17
  242.03423 15.0 15
  248.05412 15.0 15
  249.05051 15.0 15
  252.07892 36.0 36
  253.05487 22.0 22
  255.05353 34.0 34
  255.0675 62.0 62
  255.09236 16.0 16
  256.07022 38.0 38
  256.07938 34.0 34
  258.06955 16.0 16
  261.0827 19.0 19
  262.05487 19.0 19
  263.0704 16.0 16
  264.04749 15.0 15
  264.08163 31.0 31
  266.05716 37.0 37
  266.0683 15.0 15
  266.0889 16.0 16
  267.05899 15.0 15
  267.07352 15.0 15
  268.0585 15.0 15
  270.08682 16.0 16
  274.06165 31.0 31
  274.12802 17.0 17
  275.07507 17.0 17
  277.04202 30.0 30
  278.056 15.0 15
  279.06204 15.0 15
  280.05402 18.0 18
  281.04758 16.0 16
  281.08554 23.0 23
  281.10059 21.0 21
  282.05637 19.0 19
  283.05124 25.0 25
  284.06641 15.0 15
  284.07654 18.0 18
  287.06317 17.0 17
  289.11075 16.0 16
  291.05304 15.0 15
  292.07175 15.0 15
  293.04428 67.0 67
  294.04263 19.0 19
  294.08554 25.0 25
  294.09354 16.0 16
  295.03787 16.0 16
  297.02689 19.0 19
  302.07272 25.0 25
  303.07706 23.0 23
  305.04654 22.0 22
  307.064 27.0 27
  309.05463 15.0 15
  310.05014 19.0 19
  310.09189 24.0 24
  311.05725 16.0 16
  316.06754 15.0 15
  318.0834 34.0 34
  321.0535 16.0 16
  322.05106 15.0 15
  333.06982 16.0 16
  345.07883 17.0 17
  349.06854 19.0 19
  361.08151 18.0 18
//
