ACCESSION: MSBNK-RIKEN-PR300358
RECORD_TITLE: Gelsevirine; LC-ESI-QTOF; MS2
DATE: 2019.03.28
AUTHORS: Tetsuya Mori, Center for Sustainable Resource Science, RIKEN
LICENSE: CC BY-NC-SA
PUBLICATION: Tsugawa H., Nakabayashi R., Mori T., Yamada Y., Takahashi M., Rai A., Sugiyama R., Yamamoto H., Nakaya T., Yamazaki M., Kooke R., Bac-Molenaar JA., Oztolan-Erol N., Keurentjes JJB., Arita M., Saito K. (2019) "A cheminformatics approach to characterize metabolomes in stable-isotope-labeled organisms" Nature Methods 16(4):295-298. [doi:10.1038/s41592-019-0358-2]
COMMENT: registered in RIKEN PlaSMA
CH$NAME: Gelsevirine
CH$COMPOUND_CLASS: Gelsemium alkaloids
CH$FORMULA: C21H24N2O3
CH$EXACT_MASS: 352.434
CH$SMILES: CON1C(=O)[C@@]2([C@H]3[C@H]4[C@H]5CO[C@@H]2C[C@H]5[C@@]3(CN4C)C=C)C2=CC=CC=C12
CH$IUPAC: InChI=1S/C21H24N2O3/c1-4-20-11-22(2)17-12-10-26-16(9-14(12)20)21(18(17)20)13-7-5-6-8-15(13)23(25-3)19(21)24/h4-8,12,14,16-18H,1,9-11H2,2-3H3/t12-,14+,16+,17+,18-,20-,21-/m0/s1
CH$LINK: INCHIKEY SSSCMFCWHWCCEH-MTYPYGCKSA-N
AC$INSTRUMENT: LC, Waters Acquity UPLC System; MS, Waters Xevo G2 Q-Tof
AC$INSTRUMENT_TYPE: LC-ESI-QTOF
AC$MASS_SPECTROMETRY: MS_TYPE MS2
AC$MASS_SPECTROMETRY: ION_MODE POSITIVE
AC$MASS_SPECTROMETRY: COLLISION_ENERGY 6V
AC$MASS_SPECTROMETRY: DESOLVATION_GAS_FLOW 800/h
AC$MASS_SPECTROMETRY: DESOLVATION_TEMPERATURE 450 C
AC$MASS_SPECTROMETRY: IONIZATION ESI
AC$CHROMATOGRAPHY: CAPILLARY_VOLTAGE +3.00 kV
AC$CHROMATOGRAPHY: COLUMN_NAME Acquity bridged ethyl hybrid C18 (1.7 um, 2.1 mm * 100 mm, Waters)
AC$CHROMATOGRAPHY: COLUMN_TEMPERATURE 40 C
AC$CHROMATOGRAPHY: FLOW_GRADIENT A/B = (99.5%/0.5% at 0 min, 99.5%/0.5% at 0.1 min, 20%/80% at 10 min, 0.5%/99.5% at 10.1 min, 0.5%/99.5% at 12.0 min, 99.5%/0.5% at 12.1 min, 99.5%/0.5% at 15.0 min)
AC$CHROMATOGRAPHY: FLOW_RATE 0.3 ml/min at 0 min, 0.3 ml/min at 10 min, 0.4 ml/min at 10.1 min, 0.4 ml/min at 14.4 min, 0.3 ml/min at 14.5 min
AC$CHROMATOGRAPHY: RETENTION_TIME 4.0535
AC$CHROMATOGRAPHY: SOLVENT A water including 0.1% formic acid
AC$CHROMATOGRAPHY: SOLVENT B acetonitrile including 0.1% formic acid
MS$FOCUSED_ION: PRECURSOR_TYPE [M+H]+
MS$FOCUSED_ION: PRECURSOR_M/Z 353.1859691
PK$SPLASH: splash10-016r-1980000000-116d512f4b8caf207027
PK$NUM_PEAK: 508
PK$PEAK: m/z int. rel.int.
  55.01522 11.0 11
  57.03223 15.0 15
  58.06189 18.0 18
  66.32779 20.0 20
  67.05376 14.0 14
  68.04774 15.0 15
  68.05471 48.0 48
  69.02996 14.0 14
  69.03684 12.0 12
  70.04039 23.0 23
  70.0657 69.0 69
  70.06952 22.0 22
  71.07398 33.0 33
  77.04105 47.0 47
  78.04573 11.0 11
  79.04816 15.0 15
  79.05381 56.0 56
  79.05938 27.0 27
  80.04626 16.0 16
  80.06618 25.0 25
  81.06477 25.0 25
  81.06947 58.0 58
  82.06163 30.0 30
  83.06641 41.0 41
  86.05362 17.0 17
  86.06031 63.0 63
  87.07051 14.0 14
  89.03301 19.0 19
  90.02647 29.0 29
  91.05405 191.0 191
  92.05128 22.0 22
  93.05819 11.0 11
  93.06669 22.0 22
  93.07594 15.0 15
  94.06683 218.0 218
  95.07728 19.0 19
  95.92137 12.0 12
  96.07951 209.0 209
  97.08176 14.0 14
  97.0882 30.0 30
  98.05414 28.0 28
  100.06535 15.0 15
  100.07381 38.0 38
  102.04307 21.0 21
  103.05031 17.0 17
  104.05169 12.0 12
  104.0601 14.0 14
  104.06596 14.0 14
  105.03053 18.0 18
  105.06865 26.0 26
  106.0666 54.0 54
  106.07378 11.0 11
  107.0721 56.0 56
  107.07869 43.0 43
  108.05966 16.0 16
  108.08348 207.0 207
  108.18866 18.0 18
  109.05512 16.0 16
  109.0614 19.0 19
  109.09129 54.0 54
  110.03181 23.0 23
  110.06586 20.0 20
  110.09484 371.0 371
  111.10137 40.0 40
  113.2387 11.0 11
  113.85001 12.0 12
  114.01676 13.0 13
  115.04425 39.0 39
  115.05428 71.0 71
  116.04873 49.0 49
  116.06017 31.0 31
  117.0528 43.0 43
  117.06994 65.0 65
  118.06448 104.0 104
  118.0769 15.0 15
  119.0628 61.0 61
  119.06996 16.0 16
  119.08647 38.0 38
  120.04636 24.0 24
  120.05825 20.0 20
  120.08058 406.0 406
  121.08447 72.0 72
  122.0563 29.0 29
  122.09833 37.0 37
  124.80527 16.0 16
  125.8686 13.0 13
  126.09148 43.0 43
  127.04017 11.0 11
  127.04585 40.0 40
  127.05598 90.0 90
  128.04938 173.0 173
  128.06042 27.0 27
  129.05927 41.0 41
  129.0694 212.0 212
  130.04578 13.0 13
  130.05676 75.0 75
  130.06575 358.0 358
  130.55507 12.0 12
  131.04878 25.0 25
  131.06311 21.0 21
  131.07301 92.0 92
  131.08469 17.0 17
  131.9951 14.0 14
  132.02768 12.0 12
  132.04173 225.0 225
  132.04944 114.0 114
  132.06711 19.0 19
  132.08394 182.0 182
  133.05322 18.0 18
  133.06409 15.0 15
  133.08577 106.0 106
  134.05803 11.0 11
  134.09486 87.0 87
  135.09311 19.0 19
  136.07079 32.0 32
  136.07829 56.0 56
  139.04782 42.0 42
  139.05492 38.0 38
  140.04938 213.0 213
  141.05431 11.0 11
  141.07042 77.0 77
  142.06363 81.0 81
  143.01062 11.0 11
  143.07254 84.0 84
  143.08168 18.0 18
  144.04277 11.0 11
  144.0649 13.0 13
  144.07986 138.0 138
  144.08759 38.0 38
  145.06622 39.0 39
  145.08261 32.0 32
  145.09 44.0 44
  146.02438 32.0 32
  146.05133 13.0 13
  146.06136 35.0 35
  146.07162 17.0 17
  146.09895 59.0 59
  147.02716 13.0 13
  147.09657 12.0 12
  147.1041 24.0 24
  149.11577 14.0 14
  150.08006 57.0 57
  150.08974 62.0 62
  150.10007 12.0 12
  151.05194 20.0 20
  151.05945 48.0 48
  151.09416 14.0 14
  152.03896 11.0 11
  152.05202 49.0 49
  152.0629 15.0 15
  152.23856 11.0 11
  153.00841 15.0 15
  153.0611 96.0 96
  153.07106 79.0 79
  154.06393 275.0 275
  154.0722 37.0 37
  155.06729 73.0 73
  155.09218 11.0 11
  156.04077 44.0 44
  156.0473 16.0 16
  156.06604 68.0 68
  156.08153 185.0 185
  156.2262 13.0 13
  156.8298 21.0 21
  157.07304 55.0 55
  157.0889 43.0 43
  157.94916 20.0 20
  158.06024 81.0 81
  158.08525 23.0 23
  158.09247 46.0 46
  159.06241 76.0 76
  159.10564 48.0 48
  160.0782 16.0 16
  160.10002 15.0 15
  160.11623 19.0 19
  161.04762 16.0 16
  161.05528 40.0 40
  161.11356 16.0 16
  161.50607 12.0 12
  162.08861 11.0 11
  164.03629 29.0 29
  164.0582 16.0 16
  165.05109 39.0 39
  165.06253 73.0 73
  165.07233 128.0 128
  165.78978 12.0 12
  165.94792 11.0 11
  166.03508 12.0 12
  166.0448 33.0 33
  166.06532 1000.0 999
  167.03088 19.0 19
  167.05861 45.0 45
  167.06485 135.0 135
  167.07538 212.0 212
  167.08902 19.0 19
  168.02626 24.0 24
  168.05888 51.0 51
  168.07791 105.0 105
  168.16212 14.0 14
  168.45351 11.0 11
  169.05122 28.0 28
  169.07245 29.0 29
  169.08984 30.0 30
  170.02499 11.0 11
  170.05959 64.0 64
  170.42941 25.0 25
  171.04214 23.0 23
  171.09312 13.0 13
  172.4127 12.0 12
  173.10452 17.0 17
  176.04018 16.0 16
  176.11459 20.0 20
  177.06187 115.0 115
  177.07318 49.0 49
  178.01917 17.0 17
  178.04842 38.0 38
  178.06552 128.0 128
  178.07802 76.0 76
  178.08704 17.0 17
  178.43735 11.0 11
  178.86732 17.0 17
  179.05258 14.0 14
  179.05977 27.0 27
  179.07416 101.0 101
  179.08769 82.0 82
  179.1133 17.0 17
  180.07152 61.0 61
  180.0845 357.0 357
  181.06219 14.0 14
  181.06703 29.0 29
  181.07614 33.0 33
  181.08902 91.0 91
  181.10365 52.0 52
  181.16203 12.0 12
  181.85567 11.0 11
  182.04787 24.0 24
  182.05956 126.0 126
  182.07178 11.0 11
  182.10945 16.0 16
  183.05788 42.0 42
  183.07071 68.0 68
  183.08252 20.0 20
  183.09291 29.0 29
  183.10545 37.0 37
  183.7849 12.0 12
  184.06262 23.0 23
  184.07298 77.0 77
  184.08171 81.0 81
  185.08272 30.0 30
  187.0847 33.0 33
  187.8943 18.0 18
  189.04184 38.0 38
  189.05408 29.0 29
  189.07164 90.0 90
  190.04425 20.0 20
  190.06279 163.0 163
  190.07018 76.0 76
  190.08043 28.0 28
  191.07202 40.0 40
  191.08011 51.0 51
  191.12627 20.0 20
  191.77673 20.0 20
  192.0731 55.0 55
  192.08234 172.0 172
  192.09032 112.0 112
  193.08473 75.0 75
  193.10164 42.0 42
  194.03957 16.0 16
  194.05687 30.0 30
  194.06693 25.0 25
  194.09117 40.0 40
  194.10284 33.0 33
  195.06448 102.0 102
  195.0834 20.0 20
  195.10503 42.0 42
  196.05348 43.0 43
  196.073 102.0 102
  196.08975 19.0 19
  196.09863 22.0 22
  196.11934 24.0 24
  197.06932 162.0 162
  197.65662 15.0 15
  198.05231 60.0 60
  198.06548 34.0 34
  198.10254 22.0 22
  199.08498 14.0 14
  201.05867 49.0 49
  201.07666 64.0 64
  201.92796 22.0 22
  202.0239 16.0 16
  202.05196 13.0 13
  202.06241 73.0 73
  202.07425 99.0 99
  202.08694 16.0 16
  203.02606 15.0 15
  203.04863 11.0 11
  203.07268 187.0 187
  204.04927 19.0 19
  204.06963 68.0 68
  204.08354 323.0 323
  204.0954 75.0 75
  205.0744 40.0 40
  205.08994 139.0 139
  205.11015 26.0 26
  206.05762 16.0 16
  206.09543 133.0 133
  206.1181 14.0 14
  207.07381 14.0 14
  207.09258 83.0 83
  207.11241 56.0 56
  207.60602 18.0 18
  208.05115 22.0 22
  208.06444 34.0 34
  208.07695 246.0 246
  208.11281 90.0 90
  209.07799 67.0 67
  209.10078 21.0 21
  210.08629 108.0 108
  210.10936 15.0 15
  211.05717 56.0 56
  211.07208 62.0 62
  211.08432 425.0 425
  211.09181 189.0 189
  211.10985 14.0 14
  211.7762 14.0 14
  212.07324 51.0 51
  212.0853 11.0 11
  212.09824 11.0 11
  213.10202 31.0 31
  214.02377 13.0 13
  214.06717 31.0 31
  214.90259 11.0 11
  215.07149 200.0 200
  215.08208 113.0 113
  215.09224 55.0 55
  216.06079 43.0 43
  216.08383 623.0 622
  216.1884 13.0 13
  216.69121 15.0 15
  217.07472 42.0 42
  217.08566 133.0 133
  217.09358 243.0 243
  217.10849 15.0 15
  217.97928 14.0 14
  218.06258 22.0 22
  218.08453 65.0 65
  218.09181 141.0 141
  218.10922 42.0 42
  218.77751 14.0 14
  219.06413 16.0 16
  219.07472 43.0 43
  219.09441 186.0 186
  219.10735 56.0 56
  219.11786 15.0 15
  219.97244 15.0 15
  220.05548 15.0 15
  220.06534 51.0 51
  220.08466 62.0 62
  220.09836 32.0 32
  220.11514 96.0 96
  221.08855 33.0 33
  222.0659 35.0 35
  222.08389 96.0 96
  222.09219 148.0 148
  223.30078 15.0 15
  224.06065 21.0 21
  224.06873 12.0 12
  224.09392 22.0 22
  224.12314 33.0 33
  225.0513 18.0 18
  225.07678 22.0 22
  225.10284 43.0 43
  225.834 11.0 11
  226.06075 37.0 37
  226.07475 49.0 49
  227.0484 19.0 19
  227.07187 599.0 598
  227.53166 11.0 11
  228.08197 482.0 482
  228.10612 22.0 22
  229.05428 24.0 24
  229.06874 47.0 47
  229.08789 73.0 73
  229.09859 27.0 27
  230.07263 16.0 16
  230.09595 407.0 407
  230.41141 12.0 12
  231.08118 50.0 50
  231.09491 81.0 81
  231.10632 117.0 117
  232.06412 14.0 14
  232.08255 55.0 55
  232.10158 114.0 114
  232.11526 73.0 73
  233.08492 183.0 183
  233.10455 34.0 34
  233.98697 14.0 14
  234.08575 56.0 56
  234.09996 67.0 67
  234.13457 12.0 12
  235.05637 14.0 14
  235.073 34.0 34
  235.08981 102.0 102
  235.13557 13.0 13
  236.07179 16.0 16
  236.12285 31.0 31
  236.4525 14.0 14
  237.09464 20.0 20
  237.10669 100.0 100
  237.78072 12.0 12
  238.07692 20.0 20
  238.10274 11.0 11
  239.12697 42.0 42
  240.07101 61.0 61
  240.08383 113.0 113
  240.09869 21.0 21
  240.13133 14.0 14
  241.06749 14.0 14
  241.08704 287.0 287
  241.09758 151.0 151
  242.08043 65.0 65
  242.09731 466.0 466
  243.10117 154.0 154
  243.11707 96.0 96
  244.07217 101.0 101
  244.10461 56.0 56
  244.11543 38.0 38
  244.12978 14.0 14
  245.07782 29.0 29
  245.10782 46.0 46
  245.12752 33.0 33
  246.06519 20.0 20
  246.09229 153.0 153
  247.07735 24.0 24
  247.09007 11.0 11
  247.11603 12.0 12
  248.06906 29.0 29
  248.08336 33.0 33
  248.10373 110.0 110
  248.1369 17.0 17
  249.09995 118.0 118
  249.12361 19.0 19
  250.07759 12.0 12
  250.12866 11.0 11
  250.8918 18.0 18
  251.12479 27.0 27
  252.09114 19.0 19
  253.07741 25.0 25
  253.08696 24.0 24
  254.05757 23.0 23
  254.08592 13.0 13
  254.10249 141.0 141
  255.10194 24.0 24
  256.07648 14.0 14
  257.0795 52.0 52
  258.09174 56.0 56
  258.10971 57.0 57
  259.09363 47.0 47
  260.09964 76.0 76
  260.1106 71.0 71
  260.13446 31.0 31
  261.05099 27.0 27
  261.09869 48.0 48
  261.11237 64.0 64
  261.14212 31.0 31
  261.94449 13.0 13
  262.11417 15.0 15
  263.07574 12.0 12
  263.10614 29.0 29
  263.11798 73.0 73
  263.14407 15.0 15
  263.67697 16.0 16
  265.12799 17.0 17
  265.44943 12.0 12
  269.01355 11.0 11
  269.08734 17.0 17
  269.11029 29.0 29
  271.08701 22.0 22
  271.12286 11.0 11
  272.09702 22.0 22
  272.10986 69.0 69
  272.80923 14.0 14
  273.12695 14.0 14
  274.11383 18.0 18
  275.10928 19.0 19
  275.12585 13.0 13
  277.14291 32.0 32
  287.12683 22.0 22
  288.12286 14.0 14
  289.1293 46.0 46
  291.1066 17.0 17
  291.12048 11.0 11
  291.14175 14.0 14
  291.17175 12.0 12
  295.21906 11.0 11
  301.12668 17.0 17
  304.14005 17.0 17
  307.15683 16.0 16
  315.86752 12.0 12
  317.86887 20.0 20
  321.15729 12.0 12
  322.17032 35.0 35
  323.17026 12.0 12
  331.55185 43.0 43
  337.20547 22.0 22
  353.15549 18.0 18
  353.1712 38.0 38
  353.19171 69.0 69
//
