ACCESSION: MSBNK-RIKEN-PR302971
RECORD_TITLE: Maritimetin-6-O-glucoside; LC-ESI-QTOF; MS2
DATE: 2019.03.28
AUTHORS: Tetsuya Mori, Center for Sustainable Resource Science, RIKEN
LICENSE: CC BY-NC-SA
PUBLICATION: Tsugawa H., Nakabayashi R., Mori T., Yamada Y., Takahashi M., Rai A., Sugiyama R., Yamamoto H., Nakaya T., Yamazaki M., Kooke R., Bac-Molenaar JA., Oztolan-Erol N., Keurentjes JJB., Arita M., Saito K. (2019) "A cheminformatics approach to characterize metabolomes in stable-isotope-labeled organisms" Nature Methods 16(4):295-298. [doi:10.1038/s41592-019-0358-2]
COMMENT: registered in RIKEN PlaSMA
CH$NAME: Maritimetin-6-O-glucoside
CH$COMPOUND_CLASS: Aurone O-glycosides
CH$FORMULA: C21H20O11
CH$EXACT_MASS: 448.38
CH$SMILES: OC[C@H]1O[C@@H](OC2=C(O)C3=C(C=C2)C(=O)\C(O3)=C\C2=CC(O)=C(O)C=C2)[C@H](O)[C@@H](O)[C@@H]1O
CH$IUPAC: InChI=1S/C21H20O11/c22-7-14-16(26)18(28)19(29)21(32-14)31-12-4-2-9-15(25)13(30-20(9)17(12)27)6-8-1-3-10(23)11(24)5-8/h1-6,14,16,18-19,21-24,26-29H,7H2/b13-6-/t14-,16-,18+,19-,21-/m1/s1
CH$LINK: INCHIKEY SYRURBPRFQUYQS-RHEJLWEFSA-N
AC$INSTRUMENT: LC, Waters Acquity UPLC System; MS, Waters Xevo G2 Q-Tof
AC$INSTRUMENT_TYPE: LC-ESI-QTOF
AC$MASS_SPECTROMETRY: MS_TYPE MS2
AC$MASS_SPECTROMETRY: ION_MODE POSITIVE
AC$MASS_SPECTROMETRY: COLLISION_ENERGY 6V
AC$MASS_SPECTROMETRY: DESOLVATION_GAS_FLOW 800/h
AC$MASS_SPECTROMETRY: DESOLVATION_TEMPERATURE 450 C
AC$MASS_SPECTROMETRY: IONIZATION ESI
AC$CHROMATOGRAPHY: CAPILLARY_VOLTAGE +3.00 kV
AC$CHROMATOGRAPHY: COLUMN_NAME Acquity bridged ethyl hybrid C18 (1.7 um, 2.1 mm * 100 mm, Waters)
AC$CHROMATOGRAPHY: COLUMN_TEMPERATURE 40 C
AC$CHROMATOGRAPHY: FLOW_GRADIENT A/B = (99.5%/0.5% at 0 min, 99.5%/0.5% at 0.1 min, 20%/80% at 10 min, 0.5%/99.5% at 10.1 min, 0.5%/99.5% at 12.0 min, 99.5%/0.5% at 12.1 min, 99.5%/0.5% at 15.0 min)
AC$CHROMATOGRAPHY: FLOW_RATE 0.3 ml/min at 0 min, 0.3 ml/min at 10 min, 0.4 ml/min at 10.1 min, 0.4 ml/min at 14.4 min, 0.3 ml/min at 14.5 min
AC$CHROMATOGRAPHY: RETENTION_TIME 3.98575
AC$CHROMATOGRAPHY: SOLVENT A water including 0.1% formic acid
AC$CHROMATOGRAPHY: SOLVENT B acetonitrile including 0.1% formic acid
MS$FOCUSED_ION: PRECURSOR_TYPE [M+H]+
MS$FOCUSED_ION: PRECURSOR_M/Z 449.1078379
PK$SPLASH: splash10-000i-0190000000-f8e4bc6f9c95e1fd5a1d
PK$NUM_PEAK: 46
PK$PEAK: m/z int. rel.int.
  106.02888 7.0 7
  124.00592 10.0 10
  128.05884 9.0 9
  133.02303 7.0 7
  153.0118 61.0 61
  153.01935 74.0 74
  156.95253 13.0 13
  157.06891 15.0 15
  160.99081 6.0 6
  161.00111 7.0 7
  161.02246 40.0 40
  167.05217 5.0 5
  179.56508 6.0 6
  185.05228 12.0 12
  186.06891 6.0 6
  189.05699 8.0 8
  195.07709 16.0 16
  197.07405 5.0 5
  204.03386 6.0 6
  204.07204 8.0 8
  210.63898 6.0 6
  213.04678 16.0 16
  213.06029 7.0 7
  214.05276 10.0 10
  214.06189 5.0 5
  218.05254 7.0 7
  231.04779 10.0 10
  231.05818 24.0 24
  231.07794 9.0 9
  241.0472 38.0 38
  257.04385 17.0 17
  259.04776 16.0 16
  269.03574 12.0 12
  285.0462 7.0 7
  286.05121 8.0 8
  287.01193 8.0 8
  287.05414 1000.0 999
  287.50143 5.0 5
  288.03912 46.0 46
  288.05795 104.0 104
  288.07361 19.0 19
  288.94977 8.0 8
  289.0528 17.0 17
  290.06262 7.0 7
  449.08282 29.0 29
  449.10992 95.0 95
//
