ACCESSION: MSBNK-RIKEN-PR300891
RECORD_TITLE: Anthranoyllycoctonine; LC-ESI-QTOF; MS2
DATE: 2019.03.28
AUTHORS: Tetsuya Mori, Center for Sustainable Resource Science, RIKEN
LICENSE: CC BY-NC-SA
PUBLICATION: Tsugawa H., Nakabayashi R., Mori T., Yamada Y., Takahashi M., Rai A., Sugiyama R., Yamamoto H., Nakaya T., Yamazaki M., Kooke R., Bac-Molenaar JA., Oztolan-Erol N., Keurentjes JJB., Arita M., Saito K. (2019) "A cheminformatics approach to characterize metabolomes in stable-isotope-labeled organisms" Nature Methods 16(4):295-298. [doi:10.1038/s41592-019-0358-2]
COMMENT: registered in RIKEN PlaSMA
CH$NAME: Anthranoyllycoctonine
CH$COMPOUND_CLASS: Aconitane-type diterpenoid alkaloids
CH$FORMULA: C32H46N2O8
CH$EXACT_MASS: 586.726
CH$SMILES: CCN1C[C@]2(COC(=O)C3=CC=CC=C3N)CC[C@H](OC)[C@@]34[C@@H]5C[C@H]6[C@H](OC)[C@@H]5[C@](O)(C[C@@H]6OC)[C@@](O)([C@@H](OC)[C@H]23)C14
CH$IUPAC: InChI=1S/C32H46N2O8/c1-6-34-15-29(16-42-27(35)17-9-7-8-10-20(17)33)12-11-22(39-3)31-19-13-18-21(38-2)14-30(36,23(19)24(18)40-4)32(37,28(31)34)26(41-5)25(29)31/h7-10,18-19,21-26,28,36-37H,6,11-16,33H2,1-5H3/t18-,19-,21+,22+,23-,24+,25-,26+,28?,29+,30-,31+,32-/m1/s1
CH$LINK: INCHIKEY NNDHDYDFEDRMGH-CAEIVAEBSA-N
AC$INSTRUMENT: LC, Waters Acquity UPLC System; MS, Waters Xevo G2 Q-Tof
AC$INSTRUMENT_TYPE: LC-ESI-QTOF
AC$MASS_SPECTROMETRY: MS_TYPE MS2
AC$MASS_SPECTROMETRY: ION_MODE POSITIVE
AC$MASS_SPECTROMETRY: COLLISION_ENERGY 6V
AC$MASS_SPECTROMETRY: DESOLVATION_GAS_FLOW 800/h
AC$MASS_SPECTROMETRY: DESOLVATION_TEMPERATURE 450 C
AC$MASS_SPECTROMETRY: IONIZATION ESI
AC$CHROMATOGRAPHY: CAPILLARY_VOLTAGE +3.00 kV
AC$CHROMATOGRAPHY: COLUMN_NAME Acquity bridged ethyl hybrid C18 (1.7 um, 2.1 mm * 100 mm, Waters)
AC$CHROMATOGRAPHY: COLUMN_TEMPERATURE 40 C
AC$CHROMATOGRAPHY: FLOW_GRADIENT A/B = (99.5%/0.5% at 0 min, 99.5%/0.5% at 0.1 min, 20%/80% at 10 min, 0.5%/99.5% at 10.1 min, 0.5%/99.5% at 12.0 min, 99.5%/0.5% at 12.1 min, 99.5%/0.5% at 15.0 min)
AC$CHROMATOGRAPHY: FLOW_RATE 0.3 ml/min at 0 min, 0.3 ml/min at 10 min, 0.4 ml/min at 10.1 min, 0.4 ml/min at 14.4 min, 0.3 ml/min at 14.5 min
AC$CHROMATOGRAPHY: RETENTION_TIME 5.499933
AC$CHROMATOGRAPHY: SOLVENT A water including 0.1% formic acid
AC$CHROMATOGRAPHY: SOLVENT B acetonitrile including 0.1% formic acid
MS$FOCUSED_ION: PRECURSOR_TYPE [M+H]+
MS$FOCUSED_ION: PRECURSOR_M/Z 587.3326929
PK$SPLASH: splash10-00di-0932100000-40b61c6ee0408ed7d371
PK$NUM_PEAK: 419
PK$PEAK: m/z int. rel.int.
  58.06568 12.0 12
  58.07015 9.0 9
  71.05151 22.0 22
  72.07738 5.0 5
  72.08857 11.0 11
  75.04192 28.0 28
  75.04605 82.0 82
  79.05512 8.0 8
  82.06836 6.0 6
  85.02357 12.0 12
  85.06464 5.0 5
  91.05683 9.0 9
  92.05013 38.0 38
  92.05479 14.0 14
  93.06053 11.0 11
  93.07155 10.0 10
  94.0686 6.0 6
  96.07928 9.0 9
  98.0605 7.0 7
  101.0603 7.0 7
  105.07175 33.0 33
  108.06306 5.0 5
  108.08168 437.0 437
  109.06595 10.0 10
  109.07246 8.0 8
  109.08429 53.0 53
  110.09422 25.0 25
  110.10095 7.0 7
  111.06865 6.0 6
  112.07117 5.0 5
  114.08751 9.0 9
  114.09663 14.0 14
  115.05563 15.0 15
  117.06812 12.0 12
  118.07714 6.0 6
  119.04792 25.0 25
  119.088 9.0 9
  120.04504 1000.0 999
  120.08574 7.0 7
  121.04851 107.0 107
  121.06606 15.0 15
  121.0876 26.0 26
  121.0947 12.0 12
  122.04683 7.0 7
  122.07275 6.0 6
  122.09785 323.0 323
  123.0815 10.0 10
  123.09322 7.0 7
  123.10539 21.0 21
  124.10564 14.0 14
  124.11355 29.0 29
  126.09219 31.0 31
  128.06277 21.0 21
  128.11026 9.0 9
  129.07167 34.0 34
  130.0726 11.0 11
  131.05313 6.0 6
  131.08832 8.0 8
  132.08209 7.0 7
  133.06317 7.0 7
  133.07185 7.0 7
  134.0616 10.0 10
  134.09451 24.0 24
  135.08234 27.0 27
  135.10616 10.0 10
  136.07594 27.0 27
  136.11533 12.0 12
  137.05946 21.0 21
  137.0661 6.0 6
  137.08838 6.0 6
  138.08865 35.0 35
  138.09727 11.0 11
  139.09752 11.0 11
  140.106 14.0 14
  140.11243 14.0 14
  141.07117 22.0 22
  143.08684 24.0 24
  144.08984 6.0 6
  145.06416 10.0 10
  145.0934 6.0 6
  145.10323 23.0 23
  147.0782 12.0 12
  147.09996 5.0 5
  148.1165 22.0 22
  149.0943 6.0 6
  149.11899 9.0 9
  150.0938 23.0 23
  150.12895 5.0 5
  151.0757 6.0 6
  154.07573 11.0 11
  154.1205 9.0 9
  155.08333 18.0 18
  156.08783 11.0 11
  157.06374 9.0 9
  157.09099 7.0 7
  157.10728 14.0 14
  158.07567 5.0 5
  158.09824 16.0 16
  158.11028 9.0 9
  158.14214 7.0 7
  159.07152 9.0 9
  159.08311 27.0 27
  160.11009 37.0 37
  161.11882 9.0 9
  162.09622 7.0 7
  163.10147 6.0 6
  163.13757 6.0 6
  165.07016 14.0 14
  166.07956 8.0 8
  166.12492 6.0 6
  167.08524 20.0 20
  167.09227 11.0 11
  168.07507 10.0 10
  169.09096 6.0 6
  169.09906 8.0 8
  170.06454 5.0 5
  170.11337 8.0 8
  171.07988 28.0 28
  171.11221 9.0 9
  172.11392 29.0 29
  173.08983 9.0 9
  173.10176 16.0 16
  173.34891 6.0 6
  174.08038 5.0 5
  174.09644 10.0 10
  174.12625 22.0 22
  175.11375 6.0 6
  175.12511 5.0 5
  176.14178 5.0 5
  178.07997 20.0 20
  179.0737 7.0 7
  179.08505 20.0 20
  180.08109 8.0 8
  180.09456 14.0 14
  181.06763 19.0 19
  181.09985 29.0 29
  181.10898 10.0 10
  183.08667 7.0 7
  183.12083 15.0 15
  184.11501 8.0 8
  185.09602 10.0 10
  185.10283 9.0 9
  185.11922 8.0 8
  186.12106 5.0 5
  186.1293 13.0 13
  187.07289 8.0 8
  187.09264 8.0 8
  187.13577 10.0 10
  188.1192 6.0 6
  189.06958 7.0 7
  190.12611 10.0 10
  191.0871 19.0 19
  191.09436 18.0 18
  191.72957 6.0 6
  192.08788 9.0 9
  192.09773 18.0 18
  192.14137 6.0 6
  193.10165 43.0 43
  194.11041 11.0 11
  195.07562 11.0 11
  195.10036 9.0 9
  195.1189 26.0 26
  196.07602 6.0 6
  196.08929 8.0 8
  196.11971 11.0 11
  197.09059 11.0 11
  197.12865 11.0 11
  198.1113 9.0 9
  198.12582 13.0 13
  199.08177 6.0 6
  199.11177 6.0 6
  200.10562 5.0 5
  200.14851 11.0 11
  201.08517 6.0 6
  201.11604 7.0 7
  201.12389 11.0 11
  202.08224 6.0 6
  202.12386 40.0 40
  203.08527 15.0 15
  203.10394 12.0 12
  203.13081 9.0 9
  203.13744 6.0 6
  204.08923 9.0 9
  204.09831 16.0 16
  204.13518 10.0 10
  204.14888 8.0 8
  205.10138 28.0 28
  206.10588 17.0 17
  207.084 8.0 8
  207.11224 19.0 19
  207.12141 18.0 18
  208.09058 6.0 6
  208.72827 6.0 6
  209.09465 13.0 13
  209.10336 10.0 10
  209.11253 9.0 9
  209.11853 6.0 6
  209.13371 10.0 10
  210.1002 6.0 6
  210.12328 8.0 8
  210.14308 9.0 9
  211.11053 23.0 23
  211.13028 6.0 6
  211.13866 11.0 11
  212.10037 8.0 8
  213.09654 8.0 8
  213.11823 10.0 10
  214.08852 5.0 5
  214.12161 16.0 16
  215.08539 5.0 5
  216.09319 10.0 10
  216.13016 11.0 11
  216.14226 11.0 11
  217.10388 19.0 19
  218.07962 8.0 8
  218.11725 9.0 9
  219.073 6.0 6
  219.1057 9.0 9
  219.11909 43.0 43
  219.16313 5.0 5
  220.11664 15.0 15
  221.09476 24.0 24
  221.12756 13.0 13
  221.13605 20.0 20
  221.14526 7.0 7
  222.12662 17.0 17
  223.11261 23.0 23
  224.10573 10.0 10
  224.11879 6.0 6
  224.13159 9.0 9
  225.12469 8.0 8
  225.14635 8.0 8
  226.11734 6.0 6
  226.12709 7.0 7
  226.13652 9.0 9
  227.12843 6.0 6
  228.13431 22.0 22
  230.11668 8.0 8
  230.1273 6.0 6
  230.1582 6.0 6
  231.11694 19.0 19
  232.12691 16.0 16
  233.10382 11.0 11
  233.13617 11.0 11
  234.10318 5.0 5
  234.13351 10.0 10
  235.11259 26.0 26
  235.14822 8.0 8
  236.13814 12.0 12
  237.09334 5.0 5
  237.11745 6.0 6
  237.13028 19.0 19
  237.14105 9.0 9
  238.12581 7.0 7
  238.13991 6.0 6
  238.15926 9.0 9
  239.13678 13.0 13
  240.1364 15.0 15
  243.97351 5.0 5
  244.13676 7.0 7
  246.1468 7.0 7
  247.11565 13.0 13
  247.13379 5.0 5
  247.14549 8.0 8
  248.14525 16.0 16
  248.15463 12.0 12
  249.12538 10.0 10
  250.12428 6.0 6
  250.1423 13.0 13
  250.16565 8.0 8
  251.13225 7.0 7
  251.14407 9.0 9
  252.11215 5.0 5
  252.12474 7.0 7
  252.14587 11.0 11
  252.15536 5.0 5
  252.17365 8.0 8
  253.13506 8.0 8
  253.14439 11.0 11
  253.16295 12.0 12
  254.17554 6.0 6
  255.16318 5.0 5
  256.17664 7.0 7
  257.13025 14.0 14
  258.1499 11.0 11
  258.16281 8.0 8
  260.11707 9.0 9
  261.12253 6.0 6
  261.15207 10.0 10
  262.12469 18.0 18
  262.15515 14.0 14
  262.65079 6.0 6
  263.13608 7.0 7
  264.11716 8.0 8
  264.13568 6.0 6
  264.17508 9.0 9
  265.12405 7.0 7
  265.15814 5.0 5
  266.15442 28.0 28
  268.1684 11.0 11
  269.1629 11.0 11
  270.17902 5.0 5
  271.15906 6.0 6
  276.13528 9.0 9
  276.17487 32.0 32
  278.14258 5.0 5
  278.1593 8.0 8
  279.13763 12.0 12
  280.16022 8.0 8
  280.1774 16.0 16
  281.16132 10.0 10
  283.16522 7.0 7
  284.15179 9.0 9
  286.12537 6.0 6
  286.14523 5.0 5
  294.19312 8.0 8
  296.1937 12.0 12
  297.16925 10.0 10
  298.16357 5.0 5
  300.18576 7.0 7
  300.19812 11.0 11
  304.16101 11.0 11
  304.18234 13.0 13
  308.15991 15.0 15
  308.17618 7.0 7
  308.19257 16.0 16
  308.20453 17.0 17
  310.17358 13.0 13
  312.18909 27.0 27
  312.20499 22.0 22
  314.16013 7.0 7
  315.17776 6.0 6
  322.18619 25.0 25
  323.19949 9.0 9
  324.18735 9.0 9
  326.16956 6.0 6
  326.1973 23.0 23
  326.21606 36.0 36
  327.22067 10.0 10
  328.19827 6.0 6
  329.23679 6.0 6
  336.19614 17.0 17
  337.20105 10.0 10
  339.17612 5.0 5
  340.17575 10.0 10
  340.19519 6.0 6
  340.22037 26.0 26
  342.20782 12.0 12
  342.23526 7.0 7
  344.19885 9.0 9
  344.21198 24.0 24
  344.22638 12.0 12
  354.2085 94.0 94
  355.19861 9.0 9
  355.21414 27.0 27
  356.17856 8.0 8
  356.21414 8.0 8
  357.18997 8.0 8
  358.19525 6.0 6
  358.20978 9.0 9
  358.22485 18.0 18
  358.24298 59.0 59
  359.2374 6.0 6
  359.25153 5.0 5
  368.20828 9.0 9
  368.23083 17.0 17
  372.21094 27.0 27
  372.22226 33.0 33
  372.23611 34.0 34
  372.2655 6.0 6
  373.22687 14.0 14
  374.23074 6.0 6
  376.24887 26.0 26
  377.25043 5.0 5
  386.23434 130.0 130
  387.24091 26.0 26
  388.2514 8.0 8
  390.26547 15.0 15
  391.19717 5.0 5
  391.25681 6.0 6
  397.21475 6.0 6
  400.25406 11.0 11
  402.20758 7.0 7
  404.2005 5.0 5
  404.23807 110.0 110
  404.25894 46.0 46
  405.24896 45.0 45
  416.24057 5.0 5
  418.22778 7.0 7
  418.26968 19.0 19
  419.26578 14.0 14
  434.25925 5.0 5
  436.24384 9.0 9
  436.27249 46.0 46
  437.26334 10.0 10
  437.28915 6.0 6
  445.24976 8.0 8
  445.26273 8.0 8
  468.28363 17.0 17
  468.30899 32.0 32
  469.28506 10.0 10
  474.24805 6.0 6
  477.28284 16.0 16
  478.27811 8.0 8
  481.26276 8.0 8
  491.23862 8.0 8
  491.25674 6.0 6
  495.28903 9.0 9
  505.27109 27.0 27
  505.28629 11.0 11
  506.3046 6.0 6
  509.28677 7.0 7
  523.27478 25.0 25
  523.30499 6.0 6
  537.28711 7.0 7
  538.30115 6.0 6
  555.30188 11.0 11
  585.32068 5.0 5
  587.33197 33.0 33
//
