ACCESSION: MSBNK-RIKEN-PR310576
RECORD_TITLE: Gelsemine; LC-ESI-QTOF; MS2
DATE: 2019.03.28
AUTHORS: Tetsuya Mori, Center for Sustainable Resource Science, RIKEN
LICENSE: CC BY-NC-SA
PUBLICATION: Tsugawa H., Nakabayashi R., Mori T., Yamada Y., Takahashi M., Rai A., Sugiyama R., Yamamoto H., Nakaya T., Yamazaki M., Kooke R., Bac-Molenaar JA., Oztolan-Erol N., Keurentjes JJB., Arita M., Saito K. (2019) "A cheminformatics approach to characterize metabolomes in stable-isotope-labeled organisms" Nature Methods 16(4):295-298. [doi:10.1038/s41592-019-0358-2]
COMMENT: Annotation level-1
CH$NAME: Gelsemine
CH$COMPOUND_CLASS: Alkaloids
CH$FORMULA: C20H22N2O2
CH$EXACT_MASS: 322.408
CH$SMILES: CN1CC2(C=C)C3CC4OCC3C1C2C41C(=O)NC2=C1C=CC=C2
CH$IUPAC: InChI=1S/C20H22N2O2/c1-3-19-10-22(2)16-11-9-24-15(8-13(11)19)20(17(16)19)12-6-4-5-7-14(12)21-18(20)23/h3-7,11,13,15-17H,1,8-10H2,2H3,(H,21,23)
CH$LINK: INCHIKEY NFYYATWFXNPTRM-UHFFFAOYSA-N
AC$INSTRUMENT: LC, Waters Acquity UPLC System; MS, Waters Xevo G2 Q-Tof
AC$INSTRUMENT_TYPE: LC-ESI-QTOF
AC$MASS_SPECTROMETRY: MS_TYPE MS2
AC$MASS_SPECTROMETRY: ION_MODE POSITIVE
AC$MASS_SPECTROMETRY: COLLISION_ENERGY 6V
AC$MASS_SPECTROMETRY: DESOLVATION_GAS_FLOW 800/h
AC$MASS_SPECTROMETRY: DESOLVATION_TEMPERATURE 450 C
AC$MASS_SPECTROMETRY: IONIZATION ESI
AC$CHROMATOGRAPHY: CAPILLARY_VOLTAGE +3.00 kV
AC$CHROMATOGRAPHY: COLUMN_NAME Acquity bridged ethyl hybrid C18 (1.7 um, 2.1 mm * 100 mm, Waters)
AC$CHROMATOGRAPHY: COLUMN_TEMPERATURE 40 C
AC$CHROMATOGRAPHY: FLOW_GRADIENT A/B = (99.5%/0.5% at 0 min, 99.5%/0.5% at 0.1 min, 20%/80% at 10 min, 0.5%/99.5% at 10.1 min, 0.5%/99.5% at 12.0 min, 99.5%/0.5% at 12.1 min, 99.5%/0.5% at 15.0 min)
AC$CHROMATOGRAPHY: FLOW_RATE 0.3 ml/min at 0 min, 0.3 ml/min at 10 min, 0.4 ml/min at 10.1 min, 0.4 ml/min at 14.4 min, 0.3 ml/min at 14.5 min
AC$CHROMATOGRAPHY: RETENTION_TIME 3.21
AC$CHROMATOGRAPHY: SOLVENT A water including 0.1% formic acid
AC$CHROMATOGRAPHY: SOLVENT B acetonitrile including 0.1% formic acid
MS$FOCUSED_ION: PRECURSOR_TYPE [M+H]+
MS$FOCUSED_ION: PRECURSOR_M/Z 323.1754
PK$SPLASH: splash10-00di-0129000000-e28684f01b026188602a
PK$NUM_PEAK: 386
PK$PEAK: m/z int. rel.int.
  70.05073 18.0 0
  70.05819 182.0 3
  70.06472 1476.0 27
  70.26843 20.0 0
  70.97995 25.0 0
  71.06813 209.0 4
  72.05793 20.0 0
  72.08033 29.0 1
  83.04895 38.0 1
  86.06046 222.0 4
  88.07391 142.0 3
  88.0789 106.0 2
  90.98849 31.0 1
  91.05065 64.0 1
  91.05621 54.0 1
  93.06493 21.0 0
  94.06 20.0 0
  96.08168 21.0 0
  102.06951 19.0 0
  103.05256 41.0 1
  104.05001 30.0 1
  105.0612 72.0 1
  105.07292 65.0 1
  105.33665 17.0 0
  106.06947 27.0 0
  107.06093 28.0 1
  108.08022 72.0 1
  108.44955 25.0 0
  109.08108 25.0 0
  112.07311 20.0 0
  115.04758 58.0 1
  115.05275 25.0 0
  116.05391 24.0 0
  116.06459 86.0 2
  117.06356 157.0 3
  117.07205 246.0 5
  118.29594 21.0 0
  119.07795 20.0 0
  119.09013 27.0 0
  121.04842 29.0 1
  122.06712 25.0 0
  122.08055 40.0 1
  122.0877 25.0 0
  122.9263 18.0 0
  123.10358 32.0 1
  124.44814 72.0 1
  126.60542 19.0 0
  127.04784 31.0 1
  128.03918 30.0 1
  129.04869 25.0 0
  129.05353 18.0 0
  129.06992 94.0 2
  130.06104 45.0 1
  130.06876 123.0 2
  131.06459 22.0 0
  131.07156 29.0 1
  131.08401 790.0 15
  131.09979 29.0 1
  132.005 27.0 0
  132.03914 292.0 5
  132.04726 148.0 3
  132.07903 88.0 2
  132.08591 65.0 1
  132.09436 45.0 1
  133.06523 23.0 0
  133.08871 27.0 0
  134.05702 64.0 1
  134.06366 97.0 2
  134.09328 78.0 1
  134.10124 104.0 2
  135.10286 33.0 1
  136.07779 20.0 0
  136.10847 66.0 1
  141.04443 22.0 0
  141.06676 37.0 1
  142.0634 54.0 1
  143.07715 20.0 0
  144.05983 18.0 0
  144.08125 41.0 1
  145.07628 25.0 0
  146.01338 35.0 1
  146.05592 280.0 5
  146.0647 342.0 6
  146.09544 174.0 3
  146.50583 17.0 0
  147.05867 81.0 1
  147.1035 27.0 0
  147.21495 19.0 0
  147.61194 18.0 0
  147.91092 31.0 1
  148.06209 41.0 1
  148.07661 44.0 1
  148.10951 50.0 1
  148.1158 58.0 1
  149.10936 29.0 1
  149.57932 26.0 0
  150.09669 25.0 0
  152.89201 26.0 0
  153.05904 18.0 0
  154.07153 27.0 0
  155.07759 59.0 1
  155.09383 23.0 0
  158.03825 19.0 0
  158.05664 152.0 3
  158.06714 217.0 4
  159.05875 65.0 1
  159.065 140.0 3
  159.077 488.0 9
  159.14085 21.0 0
  160.0329 35.0 1
  160.06372 34.0 1
  160.08284 95.0 2
  160.11232 67.0 1
  161.11523 46.0 1
  161.12415 61.0 1
  162.09227 17.0 0
  162.10365 39.0 1
  162.12627 143.0 3
  162.13603 27.0 0
  162.21066 20.0 0
  163.1322 30.0 1
  164.09174 28.0 1
  165.11549 41.0 1
  166.0489 33.0 1
  166.05676 46.0 1
  167.0641 19.0 0
  167.07523 88.0 2
  167.92722 17.0 0
  168.07344 56.0 1
  168.08383 27.0 0
  169.06744 27.0 0
  170.08481 29.0 1
  172.07272 124.0 2
  172.11148 18.0 0
  173.10828 17.0 0
  173.12396 32.0 1
  174.08942 17.0 0
  175.10335 24.0 0
  176.06323 22.0 0
  177.04758 22.0 0
  177.97923 18.0 0
  178.03505 26.0 0
  178.06206 182.0 3
  178.07216 169.0 3
  178.11757 17.0 0
  178.12456 44.0 1
  178.66026 17.0 0
  179.05704 19.0 0
  179.90904 27.0 0
  180.0688 33.0 1
  180.0771 44.0 1
  180.08838 105.0 2
  181.08098 27.0 0
  182.05421 72.0 1
  182.06261 21.0 0
  182.09459 25.0 0
  184.07489 129.0 2
  184.08148 101.0 2
  184.69513 24.0 0
  185.08458 29.0 1
  186.05988 40.0 1
  187.05934 24.0 0
  187.08548 20.0 0
  190.06218 39.0 1
  190.08391 26.0 0
  190.11163 23.0 0
  190.12248 66.0 1
  190.27808 18.0 0
  190.64297 17.0 0
  191.07272 38.0 1
  191.08224 89.0 2
  191.12773 60.0 1
  191.13734 63.0 1
  192.08095 74.0 1
  192.09515 35.0 1
  192.10083 19.0 0
  192.13226 68.0 1
  192.24168 25.0 0
  193.08234 113.0 2
  194.10789 88.0 2
  195.04839 26.0 0
  195.06667 1306.0 24
  195.10483 33.0 1
  196.04208 29.0 1
  196.06485 117.0 2
  196.07523 610.0 11
  196.0992 24.0 0
  197.05696 44.0 1
  197.08209 234.0 4
  197.62517 17.0 0
  198.60989 20.0 0
  199.61777 20.0 0
  200.19347 58.0 1
  201.07434 30.0 1
  202.06241 19.0 0
  202.0746 62.0 1
  203.06543 29.0 1
  203.07835 79.0 1
  203.08771 48.0 1
  204.08122 47.0 1
  205.08214 56.0 1
  206.41748 27.0 0
  207.04608 24.0 0
  207.06714 20.0 0
  207.07974 25.0 0
  207.84486 17.0 0
  208.07793 389.0 7
  208.11269 140.0 3
  209.08203 94.0 2
  209.10437 76.0 1
  210.06178 40.0 1
  210.09213 625.0 11
  210.11726 73.0 1
  211.0918 122.0 2
  211.12836 31.0 1
  212.06992 49.0 1
  212.09012 18.0 0
  212.10269 39.0 1
  213.09683 23.0 0
  214.06523 24.0 0
  214.09227 34.0 1
  215.96165 55.0 1
  216.0239 18.0 0
  216.07437 42.0 1
  216.08089 90.0 2
  216.12177 18.0 0
  217.07768 98.0 2
  217.08737 91.0 2
  217.27542 21.0 0
  218.09605 926.0 17
  218.12115 25.0 0
  219.00481 32.0 1
  219.10057 123.0 2
  219.1125 27.0 0
  220.07092 152.0 3
  220.0847 57.0 1
  220.10086 51.0 1
  220.11742 146.0 3
  220.6165 21.0 0
  221.07938 23.0 0
  221.10681 22.0 0
  221.13168 23.0 0
  222.08139 29.0 1
  222.09203 96.0 2
  222.10191 46.0 1
  223.09148 23.0 0
  223.13315 86.0 2
  223.30838 27.0 0
  224.10033 47.0 1
  225.11093 19.0 0
  226.12627 33.0 1
  227.07683 17.0 0
  228.00298 29.0 1
  228.08456 51.0 1
  228.51302 19.0 0
  229.10713 23.0 0
  230.08313 34.0 1
  230.09962 83.0 2
  231.09798 65.0 1
  232.11523 26.0 0
  232.24014 20.0 0
  234.07036 33.0 1
  234.08557 33.0 1
  234.11005 28.0 1
  235.10193 17.0 0
  235.13713 29.0 1
  236.06624 53.0 1
  236.08154 56.0 1
  236.10736 2851.0 52
  236.13106 63.0 1
  236.22453 22.0 0
  237.0824 107.0 2
  237.10776 347.0 6
  237.12106 174.0 3
  237.96878 21.0 0
  238.08676 104.0 2
  238.11899 919.0 17
  238.13223 171.0 3
  238.83546 18.0 0
  239.1252 357.0 7
  240.09193 21.0 0
  241.09874 39.0 1
  241.14497 31.0 1
  241.32326 25.0 0
  242.09329 34.0 1
  243.06525 21.0 0
  243.10545 28.0 1
  244.10355 32.0 1
  244.1113 76.0 1
  245.12421 27.0 0
  245.71857 29.0 1
  246.0466 28.0 1
  246.08295 26.0 0
  246.09357 18.0 0
  246.11726 25.0 0
  247.0941 51.0 1
  247.10458 36.0 1
  247.12114 31.0 1
  248.11357 48.0 1
  249.10654 19.0 0
  250.09004 18.0 0
  251.11983 63.0 1
  251.29111 17.0 0
  252.12845 38.0 1
  252.51476 27.0 0
  254.09358 50.0 1
  256.12024 50.0 1
  258.08673 26.0 0
  258.10532 28.0 1
  258.47827 21.0 0
  259.06378 26.0 0
  259.10678 17.0 0
  259.43594 27.0 0
  261.10464 25.0 0
  262.11087 96.0 2
  262.12488 155.0 3
  263.07462 32.0 1
  263.10614 85.0 2
  263.12814 31.0 1
  263.88138 17.0 0
  264.13876 123.0 2
  264.15387 47.0 1
  265.12729 40.0 1
  266.11932 23.0 0
  266.13333 27.0 0
  272.09998 24.0 0
  273.14233 22.0 0
  274.10358 17.0 0
  274.12485 255.0 5
  274.38495 17.0 0
  275.09924 35.0 1
  275.13104 17.0 0
  275.98355 28.0 1
  276.12811 20.0 0
  276.14999 17.0 0
  277.11307 30.0 1
  277.12381 21.0 0
  277.15759 23.0 0
  277.99634 28.0 1
  279.14377 20.0 0
  279.32465 39.0 1
  279.62607 17.0 0
  280.13177 34.0 1
  280.14267 100.0 2
  280.16324 39.0 1
  281.16101 18.0 0
  285.51822 22.0 0
  286.10803 20.0 0
  292.11478 20.0 0
  292.13965 78.0 1
  293.09409 39.0 1
  293.11038 25.0 0
  293.12305 33.0 1
  293.13531 44.0 1
  293.15997 51.0 1
  293.17102 32.0 1
  294.18936 40.0 1
  295.17566 28.0 1
  296.18735 25.0 0
  297.53607 17.0 0
  299.73895 27.0 0
  304.05981 18.0 0
  305.16788 97.0 2
  316.93173 22.0 0
  320.86606 18.0 0
  321.55154 17.0 0
  321.77188 20.0 0
  321.91479 17.0 0
  321.96878 25.0 0
  322.15646 42.0 1
  322.54218 18.0 0
  322.59842 17.0 0
  322.75052 26.0 0
  322.93185 18.0 0
  322.97574 18.0 0
  322.98737 28.0 1
  323.03467 55.0 1
  323.06067 44.0 1
  323.08209 25.0 0
  323.10098 234.0 4
  323.11981 447.0 8
  323.1369 97.0 2
  323.17514 54325.0 999
  323.22803 1373.0 25
  323.27258 52.0 1
  323.31833 23.0 0
//
