ACCESSION: MSBNK-RIKEN-PR301082
RECORD_TITLE: Thalsimidine; LC-ESI-QTOF; MS2
DATE: 2019.03.28
AUTHORS: Tetsuya Mori, Center for Sustainable Resource Science, RIKEN
LICENSE: CC BY-NC-SA
PUBLICATION: Tsugawa H., Nakabayashi R., Mori T., Yamada Y., Takahashi M., Rai A., Sugiyama R., Yamamoto H., Nakaya T., Yamazaki M., Kooke R., Bac-Molenaar JA., Oztolan-Erol N., Keurentjes JJB., Arita M., Saito K. (2019) "A cheminformatics approach to characterize metabolomes in stable-isotope-labeled organisms" Nature Methods 16(4):295-298. [doi:10.1038/s41592-019-0358-2]
COMMENT: registered in RIKEN PlaSMA
CH$NAME: Thalsimidine
CH$COMPOUND_CLASS: Lignans, neolignans and related compounds
CH$FORMULA: C37H38N2O7
CH$EXACT_MASS: 622.718
CH$SMILES: COC1=C2OC3=CC=C(CC4=NCCC5=CC(OC)=C(OC6=C(OC)C(OC)=C(O)C7=C6[C@@H](CC(C=C1)=C2)N(C)CC7)C=C45)C=C3
CH$IUPAC: InChI=1S/C37H38N2O7/c1-39-15-13-25-33-28(39)17-22-8-11-29(41-2)31(18-22)45-24-9-6-21(7-10-24)16-27-26-20-32(30(42-3)19-23(26)12-14-38-27)46-35(33)37(44-5)36(43-4)34(25)40/h6-11,18-20,28,40H,12-17H2,1-5H3/t28-/m1/s1
CH$LINK: INCHIKEY CLDCTFPNFRITPI-MUUNZHRXSA-N
AC$INSTRUMENT: LC, Waters Acquity UPLC System; MS, Waters Xevo G2 Q-Tof
AC$INSTRUMENT_TYPE: LC-ESI-QTOF
AC$MASS_SPECTROMETRY: MS_TYPE MS2
AC$MASS_SPECTROMETRY: ION_MODE POSITIVE
AC$MASS_SPECTROMETRY: COLLISION_ENERGY 6V
AC$MASS_SPECTROMETRY: DESOLVATION_GAS_FLOW 800/h
AC$MASS_SPECTROMETRY: DESOLVATION_TEMPERATURE 450 C
AC$MASS_SPECTROMETRY: IONIZATION ESI
AC$CHROMATOGRAPHY: CAPILLARY_VOLTAGE +3.00 kV
AC$CHROMATOGRAPHY: COLUMN_NAME Acquity bridged ethyl hybrid C18 (1.7 um, 2.1 mm * 100 mm, Waters)
AC$CHROMATOGRAPHY: COLUMN_TEMPERATURE 40 C
AC$CHROMATOGRAPHY: FLOW_GRADIENT A/B = (99.5%/0.5% at 0 min, 99.5%/0.5% at 0.1 min, 20%/80% at 10 min, 0.5%/99.5% at 10.1 min, 0.5%/99.5% at 12.0 min, 99.5%/0.5% at 12.1 min, 99.5%/0.5% at 15.0 min)
AC$CHROMATOGRAPHY: FLOW_RATE 0.3 ml/min at 0 min, 0.3 ml/min at 10 min, 0.4 ml/min at 10.1 min, 0.4 ml/min at 14.4 min, 0.3 ml/min at 14.5 min
AC$CHROMATOGRAPHY: RETENTION_TIME 3.95775
AC$CHROMATOGRAPHY: SOLVENT A water including 0.1% formic acid
AC$CHROMATOGRAPHY: SOLVENT B acetonitrile including 0.1% formic acid
MS$FOCUSED_ION: PRECURSOR_TYPE [M+H]+
MS$FOCUSED_ION: PRECURSOR_M/Z 623.275178
PK$SPLASH: splash10-00di-0000059000-a752e72fbe52bf3efad9
PK$NUM_PEAK: 60
PK$PEAK: m/z int. rel.int.
  205.1133 8.0 8
  208.06801 9.0 9
  264.13562 8.0 8
  265.08902 6.0 6
  265.10275 6.0 6
  282.1044 12.0 12
  284.11536 7.0 7
  310.11072 6.0 6
  338.13541 7.0 7
  386.12808 6.0 6
  386.18716 11.0 11
  387.19431 6.0 6
  401.17679 7.0 7
  401.19171 5.0 5
  402.16547 12.0 12
  404.19614 6.0 6
  417.19287 7.0 7
  417.21265 15.0 15
  418.22369 7.0 7
  433.2095 6.0 6
  440.16977 6.0 6
  485.2164 7.0 7
  535.18982 9.0 9
  559.19031 6.0 6
  561.18762 7.0 7
  561.22144 7.0 7
  562.18689 31.0 31
  564.22424 11.0 11
  566.21881 14.0 14
  567.23938 5.0 5
  576.20807 22.0 22
  577.17584 11.0 11
  577.20374 24.0 24
  577.23309 32.0 32
  578.19476 12.0 12
  578.21997 7.0 7
  578.25006 7.0 7
  579.35675 6.0 6
  580.21838 15.0 15
  582.24878 8.0 8
  591.23456 24.0 24
  591.25433 30.0 30
  591.28021 6.0 6
  592.22839 97.0 97
  592.24805 101.0 101
  593.23511 97.0 97
  593.26642 19.0 19
  594.17474 7.0 7
  594.23218 17.0 17
  594.26508 16.0 16
  595.22491 7.0 7
  595.25757 6.0 6
  607.2309 12.0 12
  607.27338 13.0 13
  608.21722 11.0 11
  608.24835 8.0 8
  623.18073 9.0 9
  623.20209 18.0 18
  623.23718 47.0 47
  623.27765 1000.0 999
//
