ACCESSION: MSBNK-RIKEN-PR305115
RECORD_TITLE: Yohimbic Acid; LC-ESI-QTOF; MS2
DATE: 2019.03.28
AUTHORS: Tetsuya Mori, Center for Sustainable Resource Science, RIKEN
LICENSE: CC BY-NC-SA
PUBLICATION: Tsugawa H., Nakabayashi R., Mori T., Yamada Y., Takahashi M., Rai A., Sugiyama R., Yamamoto H., Nakaya T., Yamazaki M., Kooke R., Bac-Molenaar JA., Oztolan-Erol N., Keurentjes JJB., Arita M., Saito K. (2019) "A cheminformatics approach to characterize metabolomes in stable-isotope-labeled organisms" Nature Methods 16(4):295-298. [doi:10.1038/s41592-019-0358-2]
COMMENT: registered in RIKEN PlaSMA
CH$NAME: Yohimbic Acid
CH$COMPOUND_CLASS: Corynanthean-type alkaloids
CH$FORMULA: C20H24N2O3
CH$EXACT_MASS: 340.423
CH$SMILES: OC1CCC2CN3CCC4=C(NC5=CC=CC=C45)C3CC2C1C(O)=O
CH$IUPAC: InChI=1S/C20H24N2O3/c23-17-6-5-11-10-22-8-7-13-12-3-1-2-4-15(12)21-19(13)16(22)9-14(11)18(17)20(24)25/h1-4,11,14,16-18,21,23H,5-10H2,(H,24,25)
CH$LINK: INCHIKEY AADVZSXPNRLYLV-UHFFFAOYSA-N
AC$INSTRUMENT: LC, Waters Acquity UPLC System; MS, Waters Xevo G2 Q-Tof
AC$INSTRUMENT_TYPE: LC-ESI-QTOF
AC$MASS_SPECTROMETRY: MS_TYPE MS2
AC$MASS_SPECTROMETRY: ION_MODE NEGATIVE
AC$MASS_SPECTROMETRY: COLLISION_ENERGY 6V
AC$MASS_SPECTROMETRY: DESOLVATION_GAS_FLOW 800/h
AC$MASS_SPECTROMETRY: DESOLVATION_TEMPERATURE 450 C
AC$MASS_SPECTROMETRY: IONIZATION ESI
AC$CHROMATOGRAPHY: CAPILLARY_VOLTAGE -2.75 kV
AC$CHROMATOGRAPHY: COLUMN_NAME Acquity bridged ethyl hybrid C18 (1.7 um, 2.1 mm * 100 mm, Waters)
AC$CHROMATOGRAPHY: COLUMN_TEMPERATURE 40 C
AC$CHROMATOGRAPHY: FLOW_GRADIENT A/B = (99.5%/0.5% at 0 min, 99.5%/0.5% at 0.1 min, 20%/80% at 10 min, 0.5%/99.5% at 10.1 min, 0.5%/99.5% at 12.0 min, 99.5%/0.5% at 12.1 min, 99.5%/0.5% at 15.0 min)
AC$CHROMATOGRAPHY: FLOW_RATE 0.3 ml/min at 0 min, 0.3 ml/min at 10 min, 0.4 ml/min at 10.1 min, 0.4 ml/min at 14.4 min, 0.3 ml/min at 14.5 min
AC$CHROMATOGRAPHY: RETENTION_TIME 3.814383
AC$CHROMATOGRAPHY: SOLVENT A water including 0.1% formic acid
AC$CHROMATOGRAPHY: SOLVENT B acetonitrile including 0.1% formic acid
MS$FOCUSED_ION: PRECURSOR_TYPE [M-H]-
MS$FOCUSED_ION: PRECURSOR_M/Z 339.17141614783
PK$SPLASH: splash10-00kf-0920000000-a1ba8aa87aac80ee02a3
PK$NUM_PEAK: 28
PK$PEAK: m/z int. rel.int.
  116.04583 154.0 154
  117.05723 90.0 90
  142.0654 1000.0 999
  143.07901 72.0 72
  144.08401 147.0 147
  154.06158 104.0 104
  155.05716 82.0 82
  157.07336 90.0 90
  169.07504 444.0 444
  169.23714 133.0 133
  179.07114 79.0 79
  180.06367 82.0 82
  180.0807 93.0 93
  181.0854 68.0 68
  183.10049 115.0 115
  192.0719 97.0 97
  194.08038 82.0 82
  194.09262 86.0 86
  195.09489 111.0 111
  205.29604 72.0 72
  220.09225 65.0 65
  220.09938 79.0 79
  221.11815 161.0 161
  232.12186 65.0 65
  233.1104 82.0 82
  260.16638 75.0 75
  277.16223 136.0 136
  339.16791 72.0 72
//
