ACCESSION: MSBNK-RIKEN-PR301262
RECORD_TITLE: Senecionine; LC-ESI-QTOF; MS2
DATE: 2019.03.28
AUTHORS: Tetsuya Mori, Center for Sustainable Resource Science, RIKEN
LICENSE: CC BY-NC-SA
PUBLICATION: Tsugawa H., Nakabayashi R., Mori T., Yamada Y., Takahashi M., Rai A., Sugiyama R., Yamamoto H., Nakaya T., Yamazaki M., Kooke R., Bac-Molenaar JA., Oztolan-Erol N., Keurentjes JJB., Arita M., Saito K. (2019) "A cheminformatics approach to characterize metabolomes in stable-isotope-labeled organisms" Nature Methods 16(4):295-298. [doi:10.1038/s41592-019-0358-2]
COMMENT: registered in RIKEN PlaSMA
CH$NAME: Senecionine
CH$COMPOUND_CLASS: Macrolides and analogues
CH$FORMULA: C18H25NO5
CH$EXACT_MASS: 335.4
CH$SMILES: C\C=C1\C[C@@H](C)[C@@](C)(O)C(=O)OCC2=CCN3CC[C@@H](OC1=O)[C@@H]23
CH$IUPAC: InChI=1S/C18H25NO5/c1-4-12-9-11(2)18(3,22)17(21)23-10-13-5-7-19-8-6-14(15(13)19)24-16(12)20/h4-5,11,14-15,22H,6-10H2,1-3H3/b12-4-/t11-,14-,15-,18-/m1/s1
CH$LINK: INCHIKEY HKODIGSRFALUTA-JTLQZVBZSA-N
AC$INSTRUMENT: LC, Waters Acquity UPLC System; MS, Waters Xevo G2 Q-Tof
AC$INSTRUMENT_TYPE: LC-ESI-QTOF
AC$MASS_SPECTROMETRY: MS_TYPE MS2
AC$MASS_SPECTROMETRY: ION_MODE POSITIVE
AC$MASS_SPECTROMETRY: COLLISION_ENERGY 6V
AC$MASS_SPECTROMETRY: DESOLVATION_GAS_FLOW 800/h
AC$MASS_SPECTROMETRY: DESOLVATION_TEMPERATURE 450 C
AC$MASS_SPECTROMETRY: IONIZATION ESI
AC$CHROMATOGRAPHY: CAPILLARY_VOLTAGE +3.00 kV
AC$CHROMATOGRAPHY: COLUMN_NAME Acquity bridged ethyl hybrid C18 (1.7 um, 2.1 mm * 100 mm, Waters)
AC$CHROMATOGRAPHY: COLUMN_TEMPERATURE 40 C
AC$CHROMATOGRAPHY: FLOW_GRADIENT A/B = (99.5%/0.5% at 0 min, 99.5%/0.5% at 0.1 min, 20%/80% at 10 min, 0.5%/99.5% at 10.1 min, 0.5%/99.5% at 12.0 min, 99.5%/0.5% at 12.1 min, 99.5%/0.5% at 15.0 min)
AC$CHROMATOGRAPHY: FLOW_RATE 0.3 ml/min at 0 min, 0.3 ml/min at 10 min, 0.4 ml/min at 10.1 min, 0.4 ml/min at 14.4 min, 0.3 ml/min at 14.5 min
AC$CHROMATOGRAPHY: RETENTION_TIME 3.796233
AC$CHROMATOGRAPHY: SOLVENT A water including 0.1% formic acid
AC$CHROMATOGRAPHY: SOLVENT B acetonitrile including 0.1% formic acid
MS$FOCUSED_ION: PRECURSOR_TYPE [M+H]+
MS$FOCUSED_ION: PRECURSOR_M/Z 336.1805494
PK$SPLASH: splash10-000i-3905000000-5c928d7011ea4abb64c2
PK$NUM_PEAK: 164
PK$PEAK: m/z int. rel.int.
  57.47463 6.0 6
  67.04893 6.0 6
  67.05447 8.0 8
  68.04868 21.0 21
  68.05282 21.0 21
  68.06461 6.0 6
  69.03836 12.0 12
  71.04878 7.0 7
  76.37006 12.0 12
  77.04099 46.0 46
  78.04069 7.0 7
  79.05898 7.0 7
  80.03894 7.0 7
  80.04816 13.0 13
  80.05196 18.0 18
  81.02872 6.0 6
  81.05742 29.0 29
  81.06741 14.0 14
  81.0721 16.0 16
  82.06159 7.0 7
  82.06837 8.0 8
  82.07611 6.0 6
  83.05139 14.0 14
  83.05755 12.0 12
  83.07307 6.0 6
  84.08338 6.0 6
  86.05935 6.0 6
  86.06493 8.0 8
  86.76837 6.0 6
  88.05064 13.0 13
  91.04922 17.0 17
  91.05602 24.0 24
  91.06341 7.0 7
  92.04398 9.0 9
  93.05434 11.0 11
  93.0674 45.0 45
  93.07878 33.0 33
  94.04881 8.0 8
  94.06532 318.0 318
  94.96347 6.0 6
  95.0678 33.0 33
  95.07455 8.0 8
  95.17834 6.0 6
  96.07134 6.0 6
  96.08224 72.0 72
  97.08171 8.0 8
  98.06241 6.0 6
  98.21986 8.0 8
  99.85792 6.0 6
  103.04826 25.0 25
  103.05338 60.0 60
  103.0638 12.0 12
  105.05727 17.0 17
  105.06799 31.0 31
  107.0692 20.0 20
  107.07729 8.0 8
  107.08523 27.0 27
  107.09361 13.0 13
  108.07247 6.0 6
  108.0819 49.0 49
  109.056 7.0 7
  109.06738 30.0 30
  109.0821 7.0 7
  109.08968 9.0 9
  109.09608 27.0 27
  109.10867 7.0 7
  109.79864 7.0 7
  110.05984 8.0 8
  110.07227 9.0 9
  110.09881 59.0 59
  111.07974 15.0 15
  111.10992 6.0 6
  112.08064 6.0 6
  118.04372 7.0 7
  118.04931 7.0 7
  118.0602 8.0 8
  118.06582 6.0 6
  118.0751 8.0 8
  119.05596 10.0 10
  120.06261 9.0 9
  120.08234 600.0 599
  120.21004 7.0 7
  120.90143 6.0 6
  121.05797 7.0 7
  121.08064 35.0 35
  121.08996 72.0 72
  121.13383 6.0 6
  121.56815 8.0 8
  121.71039 7.0 7
  122.07936 6.0 6
  122.09861 55.0 55
  123.09689 27.0 27
  124.11575 10.0 10
  125.0536 5.0 5
  125.05904 15.0 15
  125.09805 46.0 46
  125.11101 31.0 31
  125.32525 6.0 6
  126.09793 8.0 8
  133.09053 10.0 10
  133.10124 6.0 6
  133.10658 7.0 7
  134.09584 6.0 6
  135.0797 32.0 32
  137.09155 11.0 11
  138.06255 10.0 10
  138.09113 391.0 391
  139.07881 8.0 8
  139.09581 40.0 40
  139.1055 15.0 15
  140.07495 6.0 6
  140.08707 11.0 11
  140.10854 26.0 26
  140.12163 7.0 7
  148.116 7.0 7
  150.08208 8.0 8
  150.13504 6.0 6
  152.11301 6.0 6
  153.07278 7.0 7
  153.08525 40.0 40
  153.0955 60.0 60
  154.08067 7.0 7
  156.10468 15.0 15
  159.77869 12.0 12
  161.10742 7.0 7
  163.12634 6.0 6
  172.56705 7.0 7
  174.13345 19.0 19
  177.51498 7.0 7
  183.08784 7.0 7
  193.13567 8.0 8
  196.41978 6.0 6
  206.11903 19.0 19
  210.58116 7.0 7
  213.10933 12.0 12
  220.12473 27.0 27
  220.1442 15.0 15
  225.08131 6.0 6
  229.15895 7.0 7
  238.09576 6.0 6
  238.12825 6.0 6
  238.16289 6.0 6
  248.16577 7.0 7
  262.16736 6.0 6
  263.05634 7.0 7
  266.17474 7.0 7
  266.19852 11.0 11
  274.16635 7.0 7
  290.15604 9.0 9
  290.17151 43.0 43
  292.18222 15.0 15
  292.1973 14.0 14
  293.2052 7.0 7
  306.18341 7.0 7
  308.15982 6.0 6
  308.18234 309.0 309
  308.19724 113.0 113
  309.18677 44.0 44
  309.1994 15.0 15
  309.67166 7.0 7
  318.17584 15.0 15
  335.85291 7.0 7
  336.18167 1000.0 999
  336.24039 7.0 7
//
