ACCESSION: MSBNK-RIKEN-PR300918
RECORD_TITLE: Cinchonine; LC-ESI-QTOF; MS2
DATE: 2019.03.28
AUTHORS: Tetsuya Mori, Center for Sustainable Resource Science, RIKEN
LICENSE: CC BY-NC-SA
PUBLICATION: Tsugawa H., Nakabayashi R., Mori T., Yamada Y., Takahashi M., Rai A., Sugiyama R., Yamamoto H., Nakaya T., Yamazaki M., Kooke R., Bac-Molenaar JA., Oztolan-Erol N., Keurentjes JJB., Arita M., Saito K. (2019) "A cheminformatics approach to characterize metabolomes in stable-isotope-labeled organisms" Nature Methods 16(4):295-298. [doi:10.1038/s41592-019-0358-2]
COMMENT: registered in RIKEN PlaSMA
CH$NAME: Cinchonine
CH$COMPOUND_CLASS: Cinchona alkaloids
CH$FORMULA: C19H22N2O
CH$EXACT_MASS: 294.398
CH$SMILES: C=C[C@H]1CN2CC[C@H]1C[C@@H]2[C@H](C3=CC=NC4=CC=CC=C34)O
CH$IUPAC: InChI=1S/C19H22N2O/c1-2-13-12-21-10-8-14(13)11-18(21)19(22)16-7-9-20-17-6-4-3-5-15(16)17/h2-7,9,13-14,18-19,22H,1,8,10-12H2/t13-,14-,18+,19-/m0/s1
CH$LINK: INCHIKEY KMPWYEUPVWOPIM-QAMTZSDWSA-N
AC$INSTRUMENT: LC, Waters Acquity UPLC System; MS, Waters Xevo G2 Q-Tof
AC$INSTRUMENT_TYPE: LC-ESI-QTOF
AC$MASS_SPECTROMETRY: MS_TYPE MS2
AC$MASS_SPECTROMETRY: ION_MODE POSITIVE
AC$MASS_SPECTROMETRY: COLLISION_ENERGY 6V
AC$MASS_SPECTROMETRY: DESOLVATION_GAS_FLOW 800/h
AC$MASS_SPECTROMETRY: DESOLVATION_TEMPERATURE 450 C
AC$MASS_SPECTROMETRY: IONIZATION ESI
AC$CHROMATOGRAPHY: CAPILLARY_VOLTAGE +3.00 kV
AC$CHROMATOGRAPHY: COLUMN_NAME Acquity bridged ethyl hybrid C18 (1.7 um, 2.1 mm * 100 mm, Waters)
AC$CHROMATOGRAPHY: COLUMN_TEMPERATURE 40 C
AC$CHROMATOGRAPHY: FLOW_GRADIENT A/B = (99.5%/0.5% at 0 min, 99.5%/0.5% at 0.1 min, 20%/80% at 10 min, 0.5%/99.5% at 10.1 min, 0.5%/99.5% at 12.0 min, 99.5%/0.5% at 12.1 min, 99.5%/0.5% at 15.0 min)
AC$CHROMATOGRAPHY: FLOW_RATE 0.3 ml/min at 0 min, 0.3 ml/min at 10 min, 0.4 ml/min at 10.1 min, 0.4 ml/min at 14.4 min, 0.3 ml/min at 14.5 min
AC$CHROMATOGRAPHY: RETENTION_TIME 3.091267
AC$CHROMATOGRAPHY: SOLVENT A water including 0.1% formic acid
AC$CHROMATOGRAPHY: SOLVENT B acetonitrile including 0.1% formic acid
MS$FOCUSED_ION: PRECURSOR_TYPE [M+H]+
MS$FOCUSED_ION: PRECURSOR_M/Z 295.1804898
PK$SPLASH: splash10-014i-0910000000-3bb2019704fb4d34ac8a
PK$NUM_PEAK: 29
PK$PEAK: m/z int. rel.int.
  81.07082 102.0 102
  91.05764 93.0 93
  101.04112 76.0 76
  103.05448 173.0 173
  115.05456 280.0 280
  116.0643 102.0 102
  127.05126 80.0 80
  128.04195 76.0 76
  130.07021 369.0 369
  133.08435 80.0 80
  144.07848 93.0 93
  154.06851 76.0 76
  156.08676 93.0 93
  158.05696 191.0 191
  166.06581 147.0 147
  167.07887 1000.0 999
  172.08232 98.0 98
  176.05537 84.0 84
  182.09206 204.0 204
  184.06421 120.0 120
  191.07915 80.0 80
  203.08147 76.0 76
  206.10077 107.0 107
  219.07495 80.0 80
  219.10007 98.0 98
  220.74779 93.0 93
  232.09607 76.0 76
  233.10381 89.0 89
  235.12302 133.0 133
//
