ACCESSION: MSBNK-RIKEN-PR020148
RECORD_TITLE: Gibberellin A8; LC-ESI-QQ; MS2; CE:10.0 eV; [M-H]-
DATE: 2016.01.19 (Created 2007.08.31, modified 2011.05.06)
AUTHORS: Kojima M, Sakakibara H, Plant Science Center, RIKEN.
LICENSE: CC BY-SA
CH$NAME: Gibberellin A8
CH$NAME: 2beta-Hydroxygibberellin 1
CH$COMPOUND_CLASS: N/A
CH$FORMULA: C19H24O7
CH$EXACT_MASS: 364.15220
CH$SMILES: OC(=O)C(C321)C([H])(C(C)54)C(CC(O)C(O)5)(OC(=O)4)C([H])(CCC(O)(C(=C)C3)C2)1
CH$IUPAC: InChI=1S/C19H24O7/c1-8-5-17-7-18(8,25)4-3-10(17)19-6-9(20)13(21)16(2,15(24)26-19)12(19)11(17)14(22)23/h9-13,20-21,25H,1,3-7H2,2H3,(H,22,23)/t9-,10+,11+,12+,13-,16-,17-,18-,19+/m0/s1
CH$LINK: CHEBI CHEBI:28861
CH$LINK: KEGG C03579
CH$LINK: PUBCHEM SID:6371 CID:440051
CH$LINK: INCHIKEY WZRRJZYYGOOHRC-UQJCXHNCSA-N
AC$INSTRUMENT: UPLC Waters, Quattro Ultima Pt Micromass
AC$INSTRUMENT_TYPE: LC-ESI-QQ
AC$MASS_SPECTROMETRY: MS_TYPE MS2
AC$MASS_SPECTROMETRY: ION_MODE NEGATIVE
AC$MASS_SPECTROMETRY: COLLISION_ENERGY 10.0 eV
AC$MASS_SPECTROMETRY: DATAFORMAT Centroid
AC$MASS_SPECTROMETRY: DESOLVATION_GAS_FLOW 565 L/Hr
AC$MASS_SPECTROMETRY: DESOLVATION_TEMPERATURE 400 C
AC$MASS_SPECTROMETRY: FRAGMENTATION_MODE LOW-ENERGY CID
AC$MASS_SPECTROMETRY: IONIZATION ESI
AC$MASS_SPECTROMETRY: SCANNING 0.2 sec/scan (m/z=50-500)
AC$MASS_SPECTROMETRY: SOURCE_TEMPERATURE 140 C
AC$CHROMATOGRAPHY: CAPILLARY_VOLTAGE 3.1 kV
AC$CHROMATOGRAPHY: COLUMN_NAME ACQUITY UPLC BEH C18 2.1 by 50 mm (Waters, Milford, MA, USA)
AC$CHROMATOGRAPHY: COLUMN_TEMPERATURE 40 C
AC$CHROMATOGRAPHY: FLOW_GRADIENT 0.1/99.9 at 0 min, 9.0/91.0 at 2 min, 12.5/87.5 at 7 min, 30/70 at 10 min, 50/50 at 12 min, 50/50 at 13 min, 99.9/0.1 at 15 min
AC$CHROMATOGRAPHY: FLOW_RATE 0.25 ml/min
AC$CHROMATOGRAPHY: RETENTION_TIME 2.84 min
AC$CHROMATOGRAPHY: SAMPLING_CONE 53 V
AC$CHROMATOGRAPHY: SOLVENT A CH3CN(0.05% HCOOH)
AC$CHROMATOGRAPHY: SOLVENT B HCOOH(0.05% CH3CN)
MS$FOCUSED_ION: FULL_SCAN_FRAGMENT_ION_PEAK 364
MS$FOCUSED_ION: PRECURSOR_M/Z 363
MS$FOCUSED_ION: PRECURSOR_TYPE [M-H]-
MS$DATA_PROCESSING: WHOLE MassLynx 4.0
PK$SPLASH: splash10-03di-0019000000-845d453b57345aaa9b21
PK$NUM_PEAK: 10
PK$PEAK: m/z int. rel.int.
  160.678 19150 12
  256.633 19210 12
  257.329 75300 48
  274.933 245300 157
  275.636 15690 10
  318.633 55040 35
  319.437 53380 34
  362.341 124000 79
  362.984 1559000 999
  363.586 128000 82
//
