ACCESSION: MSBNK-RIKEN-PR310753
RECORD_TITLE: Licodione base + 2Prenyl; LC-ESI-QTOF; MS2
DATE: 2019.03.28
AUTHORS: Tetsuya Mori, Center for Sustainable Resource Science, RIKEN
LICENSE: CC BY-NC-SA
PUBLICATION: Tsugawa H., Nakabayashi R., Mori T., Yamada Y., Takahashi M., Rai A., Sugiyama R., Yamamoto H., Nakaya T., Yamazaki M., Kooke R., Bac-Molenaar JA., Oztolan-Erol N., Keurentjes JJB., Arita M., Saito K. (2019) "A cheminformatics approach to characterize metabolomes in stable-isotope-labeled organisms" Nature Methods 16(4):295-298. [doi:10.1038/s41592-019-0358-2]
COMMENT: Annotation level-3
CH$NAME: Licodione base + 2Prenyl
CH$COMPOUND_CLASS: Prenylated licodiones
CH$FORMULA: C25H28O5
CH$EXACT_MASS: 408.494
CH$SMILES: O=C(C=C(O)C=1C=CC(O)=C(C=1)CC=C(C)C)C=2C=C(C(O)=CC=2(O))CC=C(C)C
CH$IUPAC: InChI=1S/C25H28O5/c1-15(2)5-7-17-11-18(9-10-21(17)26)22(27)13-24(29)20-12-19(8-6-16(3)4)23(28)14-25(20)30/h5-6,9-14,26-28,30H,7-8H2,1-4H3
CH$LINK: INCHIKEY FFPFIAFZJXSGDK-UHFFFAOYSA-N
AC$INSTRUMENT: LC, Waters Acquity UPLC System; MS, Waters Xevo G2 Q-Tof
AC$INSTRUMENT_TYPE: LC-ESI-QTOF
AC$MASS_SPECTROMETRY: MS_TYPE MS2
AC$MASS_SPECTROMETRY: ION_MODE POSITIVE
AC$MASS_SPECTROMETRY: COLLISION_ENERGY 6V
AC$MASS_SPECTROMETRY: DESOLVATION_GAS_FLOW 800/h
AC$MASS_SPECTROMETRY: DESOLVATION_TEMPERATURE 450 C
AC$MASS_SPECTROMETRY: IONIZATION ESI
AC$CHROMATOGRAPHY: CAPILLARY_VOLTAGE +3.00 kV
AC$CHROMATOGRAPHY: COLUMN_NAME Acquity bridged ethyl hybrid C18 (1.7 um, 2.1 mm * 100 mm, Waters)
AC$CHROMATOGRAPHY: COLUMN_TEMPERATURE 40 C
AC$CHROMATOGRAPHY: FLOW_GRADIENT A/B = (99.5%/0.5% at 0 min, 99.5%/0.5% at 0.1 min, 20%/80% at 10 min, 0.5%/99.5% at 10.1 min, 0.5%/99.5% at 12.0 min, 99.5%/0.5% at 12.1 min, 99.5%/0.5% at 15.0 min)
AC$CHROMATOGRAPHY: FLOW_RATE 0.3 ml/min at 0 min, 0.3 ml/min at 10 min, 0.4 ml/min at 10.1 min, 0.4 ml/min at 14.4 min, 0.3 ml/min at 14.5 min
AC$CHROMATOGRAPHY: RETENTION_TIME 9.52
AC$CHROMATOGRAPHY: SOLVENT A water including 0.1% formic acid
AC$CHROMATOGRAPHY: SOLVENT B acetonitrile including 0.1% formic acid
MS$FOCUSED_ION: PRECURSOR_TYPE [M+H]+
MS$FOCUSED_ION: PRECURSOR_M/Z 409.2021
PK$SPLASH: splash10-0a4i-0590100000-a8b0d6b9095e5a8a9547
PK$NUM_PEAK: 21
PK$PEAK: m/z int. rel.int.
  133.02711 18.0 26
  133.03415 22.0 32
  133.10257 27.0 39
  134.03618 43.0 62
  137.02168 17.0 25
  147.04321 32.0 46
  147.05081 20.0 29
  149.02165 79.0 114
  150.02956 62.0 90
  165.04901 22.0 32
  188.98233 23.0 33
  189.08005 24.0 35
  189.09343 61.0 88
  190.09598 23.0 33
  203.10863 17.0 25
  205.08475 692.0 999
  206.09607 18.0 26
  353.12952 20.0 29
  355.13474 18.0 26
  409.18469 43.0 62
  409.20792 88.0 127
//
