ACCESSION: MSBNK-RIKEN-PR100210
RECORD_TITLE: Tyramine; LC-ESI-QTOF; MS2; CE:Ramp 5-60 V; [M+H]+
DATE: 2016.01.19 (Created 2009.09.10, modified 2011.05.06)
AUTHORS: Matsuda F, Suzuki M, Sawada Y, Plant Science Center, RIKEN.
LICENSE: CC BY-SA
COMMENT: Acquisition and generation of the data is financially supported in part by CREST/JST.
CH$NAME: Tyramine
CH$NAME: 4-Hydroxyphenethylamine
CH$NAME: Uteramine
CH$NAME: 4-Hydroxy-beta-phenylethylamine
CH$NAME: 2-(4-Hydroxyphenyl)ethylamine
CH$NAME: 4-(2-Aminoethyl)phenol
CH$NAME: Systogene
CH$NAME: Tyrosamine
CH$COMPOUND_CLASS: Alkylamines
CH$FORMULA: C8H11NO
CH$EXACT_MASS: 137.08406
CH$SMILES: NCCc(c1)ccc(O)c1
CH$IUPAC: InChI=1S/C8H11NO/c9-6-5-7-1-3-8(10)4-2-7/h1-4,10H,5-6,9H2
CH$LINK: CAS 51-67-2
CH$LINK: CHEMSPIDER 5408
CH$LINK: KAPPAVIEW KPC01059
CH$LINK: KEGG C00483
CH$LINK: KNAPSACK C00001435
CH$LINK: PUBCHEM CID:5610
CH$LINK: INCHIKEY DZGWFCGJZKJUFP-UHFFFAOYSA-N
CH$LINK: COMPTOX DTXSID2043874
AC$INSTRUMENT: UPLC Q-Tof Premier, Waters
AC$INSTRUMENT_TYPE: LC-ESI-QTOF
AC$MASS_SPECTROMETRY: MS_TYPE MS2
AC$MASS_SPECTROMETRY: ION_MODE POSITIVE
AC$MASS_SPECTROMETRY: COLLISION_ENERGY Ramp 5-60 V
AC$MASS_SPECTROMETRY: DATAFORMAT Continuum
AC$MASS_SPECTROMETRY: DESOLVATION_GAS_FLOW 600.0 L/Hr
AC$MASS_SPECTROMETRY: DESOLVATION_TEMPERATURE 400 C
AC$MASS_SPECTROMETRY: FRAGMENTATION_METHOD LOW-ENERGY CID
AC$MASS_SPECTROMETRY: IONIZATION ESI
AC$MASS_SPECTROMETRY: SOURCE_TEMPERATURE 120 C
AC$CHROMATOGRAPHY: CAPILLARY_VOLTAGE 3.0 kV
AC$CHROMATOGRAPHY: SAMPLING_CONE 23.0 V
AC$CHROMATOGRAPHY: SOLVENT A CH3CN(0.1%HCOOH)
AC$CHROMATOGRAPHY: SOLVENT B H2O(0.1%HCOOH)
MS$FOCUSED_ION: PRECURSOR_M/Z 138.09186
MS$FOCUSED_ION: PRECURSOR_TYPE [M+H]+
PK$SPLASH: splash10-00di-4900000000-8944003750ac547c2024
PK$NUM_PEAK: 6
PK$PEAK: m/z int. rel.int.
  77.0385 532.5 254
  91.0542 349.3 167
  93.0698 340.7 163
  103.0541 416.3 199
  121.0633 2091 999
  138.0919 33.45 16
//
