ACCESSION: MSBNK-RIKEN-PR308699
RECORD_TITLE: Ginsenoside Ro; LC-ESI-QTOF; MS2
DATE: 2019.03.28
AUTHORS: Tetsuya Mori, Center for Sustainable Resource Science, RIKEN
LICENSE: CC BY-NC-SA
PUBLICATION: Tsugawa H., Nakabayashi R., Mori T., Yamada Y., Takahashi M., Rai A., Sugiyama R., Yamamoto H., Nakaya T., Yamazaki M., Kooke R., Bac-Molenaar JA., Oztolan-Erol N., Keurentjes JJB., Arita M., Saito K. (2019) "A cheminformatics approach to characterize metabolomes in stable-isotope-labeled organisms" Nature Methods 16(4):295-298. [doi:10.1038/s41592-019-0358-2]
COMMENT: Annotation level-1
CH$NAME: Ginsenoside Ro
CH$COMPOUND_CLASS: Triterpene saponins
CH$FORMULA: C48H76O19
CH$EXACT_MASS: 957.117
CH$SMILES: CC1(C)CCC2(CCC3(C)C(=CCC4C5(C)CCC(OC6OC(C(O)C(O)C6OC6OC(CO)C(O)C(O)C6O)C(O)=O)C(C)(C)C5CCC34C)C2C1)C(=O)OC1OC(CO)C(O)C(O)C1O
CH$IUPAC: InChI=1S/C48H76O19/c1-43(2)14-16-48(42(61)67-40-35(58)31(54)29(52)24(20-50)63-40)17-15-46(6)21(22(48)18-43)8-9-26-45(5)12-11-27(44(3,4)25(45)10-13-47(26,46)7)64-41-37(33(56)32(55)36(65-41)38(59)60)66-39-34(57)30(53)28(51)23(19-49)62-39/h8,22-37,39-41,49-58H,9-20H2,1-7H3,(H,59,60)
CH$LINK: INCHIKEY NFZYDZXHKFHPGA-UHFFFAOYSA-N
AC$INSTRUMENT: LC, Waters Acquity UPLC System; MS, Waters Xevo G2 Q-Tof
AC$INSTRUMENT_TYPE: LC-ESI-QTOF
AC$MASS_SPECTROMETRY: MS_TYPE MS2
AC$MASS_SPECTROMETRY: ION_MODE NEGATIVE
AC$MASS_SPECTROMETRY: COLLISION_ENERGY 6V
AC$MASS_SPECTROMETRY: DESOLVATION_GAS_FLOW 800/h
AC$MASS_SPECTROMETRY: DESOLVATION_TEMPERATURE 450 C
AC$MASS_SPECTROMETRY: IONIZATION ESI
AC$CHROMATOGRAPHY: CAPILLARY_VOLTAGE +3.00 kV
AC$CHROMATOGRAPHY: COLUMN_NAME Acquity bridged ethyl hybrid C18 (1.7 um, 2.1 mm * 100 mm, Waters)
AC$CHROMATOGRAPHY: COLUMN_TEMPERATURE 40 C
AC$CHROMATOGRAPHY: FLOW_GRADIENT A/B = (99.5%/0.5% at 0 min, 99.5%/0.5% at 0.1 min, 20%/80% at 10 min, 0.5%/99.5% at 10.1 min, 0.5%/99.5% at 12.0 min, 99.5%/0.5% at 12.1 min, 99.5%/0.5% at 15.0 min)
AC$CHROMATOGRAPHY: FLOW_RATE 0.3 ml/min at 0 min, 0.3 ml/min at 10 min, 0.4 ml/min at 10.1 min, 0.4 ml/min at 14.4 min, 0.3 ml/min at 14.5 min
AC$CHROMATOGRAPHY: RETENTION_TIME 6.19
AC$CHROMATOGRAPHY: SOLVENT A water including 0.1% formic acid
AC$CHROMATOGRAPHY: SOLVENT B acetonitrile including 0.1% formic acid
MS$FOCUSED_ION: PRECURSOR_TYPE [M-H]-
MS$FOCUSED_ION: PRECURSOR_M/Z 955.4908
PK$SPLASH: splash10-0a4i-0000000009-f4707095e7239c2f6bd0
PK$NUM_PEAK: 63
PK$PEAK: m/z int. rel.int.
  84.93647 20.0 2
  89.02755 28.0 3
  95.98003 18.0 2
  113.02567 22.0 2
  119.03379 42.0 4
  154.25037 24.0 2
  161.04553 52.0 5
  162.04297 23.0 2
  320.0715 25.0 3
  444.79541 18.0 2
  464.25916 19.0 2
  467.85577 18.0 2
  472.95227 20.0 2
  511.72299 20.0 2
  514.37463 30.0 3
  519.02618 22.0 2
  522.55042 20.0 2
  523.33942 18.0 2
  523.37073 106.0 11
  524.388 19.0 2
  525.38165 18.0 2
  534.60529 18.0 2
  539.75781 20.0 2
  541.95844 23.0 2
  544.68951 21.0 2
  569.39868 36.0 4
  571.39594 20.0 2
  575.5835 18.0 2
  587.3877 24.0 2
  593.05579 20.0 2
  596.41144 23.0 2
  613.35455 19.0 2
  613.38397 18.0 2
  615.34473 19.0 2
  621.63422 33.0 3
  654.25128 20.0 2
  667.90369 23.0 2
  690.4541 18.0 2
  731.41876 29.0 3
  731.44727 55.0 6
  732.4408 26.0 3
  734.93134 20.0 2
  749.44598 18.0 2
  757.39209 18.0 2
  774.41724 21.0 2
  775.3786 26.0 3
  775.43927 20.0 2
  776.44635 23.0 2
  793.43848 335.0 34
  794.44012 189.0 19
  795.43848 77.0 8
  795.47125 24.0 2
  796.948 24.0 2
  867.25006 20.0 2
  881.36841 23.0 2
  888.95148 18.0 2
  893.79407 20.0 2
  902.90454 24.0 2
  937.02417 23.0 2
  953.03583 21.0 2
  954.66357 28.0 3
  955.48938 9821.0 999
  955.5578 83.0 8
//
