ACCESSION: MSBNK-RIKEN-PR302065
RECORD_TITLE: Myricetin; LC-ESI-QTOF; MS2
DATE: 2019.03.28
AUTHORS: Tetsuya Mori, Center for Sustainable Resource Science, RIKEN
LICENSE: CC BY-NC-SA
PUBLICATION: Tsugawa H., Nakabayashi R., Mori T., Yamada Y., Takahashi M., Rai A., Sugiyama R., Yamamoto H., Nakaya T., Yamazaki M., Kooke R., Bac-Molenaar JA., Oztolan-Erol N., Keurentjes JJB., Arita M., Saito K. (2019) "A cheminformatics approach to characterize metabolomes in stable-isotope-labeled organisms" Nature Methods 16(4):295-298. [doi:10.1038/s41592-019-0358-2]
COMMENT: registered in RIKEN PlaSMA
CH$NAME: Myricetin
CH$COMPOUND_CLASS: Flavonols
CH$FORMULA: C15H10O8
CH$EXACT_MASS: 318.237
CH$SMILES: OC1=CC(O)=C2C(OC(=C(O)C2=O)C2=CC(O)=C(O)C(O)=C2)=C1
CH$IUPAC: InChI=1S/C15H10O8/c16-6-3-7(17)11-10(4-6)23-15(14(22)13(11)21)5-1-8(18)12(20)9(19)2-5/h1-4,16-20,22H
CH$LINK: INCHIKEY IKMDFBPHZNJCSN-UHFFFAOYSA-N
AC$INSTRUMENT: LC, Waters Acquity UPLC System; MS, Waters Xevo G2 Q-Tof
AC$INSTRUMENT_TYPE: LC-ESI-QTOF
AC$MASS_SPECTROMETRY: MS_TYPE MS2
AC$MASS_SPECTROMETRY: ION_MODE POSITIVE
AC$MASS_SPECTROMETRY: COLLISION_ENERGY 6V
AC$MASS_SPECTROMETRY: DESOLVATION_GAS_FLOW 800/h
AC$MASS_SPECTROMETRY: DESOLVATION_TEMPERATURE 450 C
AC$MASS_SPECTROMETRY: IONIZATION ESI
AC$CHROMATOGRAPHY: CAPILLARY_VOLTAGE +3.00 kV
AC$CHROMATOGRAPHY: COLUMN_NAME Acquity bridged ethyl hybrid C18 (1.7 um, 2.1 mm * 100 mm, Waters)
AC$CHROMATOGRAPHY: COLUMN_TEMPERATURE 40 C
AC$CHROMATOGRAPHY: FLOW_GRADIENT A/B = (99.5%/0.5% at 0 min, 99.5%/0.5% at 0.1 min, 20%/80% at 10 min, 0.5%/99.5% at 10.1 min, 0.5%/99.5% at 12.0 min, 99.5%/0.5% at 12.1 min, 99.5%/0.5% at 15.0 min)
AC$CHROMATOGRAPHY: FLOW_RATE 0.3 ml/min at 0 min, 0.3 ml/min at 10 min, 0.4 ml/min at 10.1 min, 0.4 ml/min at 14.4 min, 0.3 ml/min at 14.5 min
AC$CHROMATOGRAPHY: RETENTION_TIME 4.672667
AC$CHROMATOGRAPHY: SOLVENT A water including 0.1% formic acid
AC$CHROMATOGRAPHY: SOLVENT B acetonitrile including 0.1% formic acid
MS$FOCUSED_ION: PRECURSOR_TYPE [M+H]+
MS$FOCUSED_ION: PRECURSOR_M/Z 319.0448437
PK$SPLASH: splash10-0uxs-0971000000-d215accd87b1d1e7789c
PK$NUM_PEAK: 151
PK$PEAK: m/z int. rel.int.
  68.50441 10.0 10
  77.02767 10.0 10
  90.39175 13.0 13
  91.05755 20.0 20
  93.02913 18.0 18
  105.03767 17.0 17
  109.02755 24.0 24
  109.55315 10.0 10
  110.02801 41.0 41
  110.99677 31.0 31
  111.00646 84.0 84
  111.01556 21.0 21
  112.00893 29.0 29
  115.37528 12.0 12
  121.02771 56.0 56
  123.03966 11.0 11
  123.04646 13.0 13
  125.02187 29.0 29
  133.02733 20.0 20
  135.04407 16.0 16
  137.01143 13.0 13
  137.02138 205.0 205
  138.03041 18.0 18
  139.04214 46.0 46
  146.06041 11.0 11
  147.04395 16.0 16
  149.02202 15.0 15
  153.01755 1000.0 999
  154.0154 35.0 35
  154.0253 23.0 23
  154.06042 18.0 18
  157.02856 17.0 17
  159.0448 13.0 13
  161.02548 29.0 29
  161.05684 55.0 55
  161.06483 54.0 54
  162.05994 10.0 10
  164.99493 32.0 32
  165.01183 96.0 96
  165.01903 173.0 173
  165.02812 49.0 49
  165.0441 32.0 32
  166.02052 90.0 90
  166.03093 16.0 16
  167.81374 12.0 12
  168.83594 21.0 21
  171.04623 12.0 12
  172.03816 22.0 22
  173.06203 27.0 27
  174.06279 21.0 21
  175.02086 32.0 32
  175.03284 11.0 11
  177.01425 12.0 12
  177.05251 24.0 24
  179.01447 17.0 17
  179.03499 220.0 220
  180.0412 16.0 16
  181.07214 12.0 12
  189.05276 69.0 69
  190.05948 14.0 14
  191.02979 12.0 12
  192.03915 18.0 18
  192.9962 25.0 25
  194.00125 12.0 12
  194.02151 17.0 17
  194.41653 10.0 10
  195.02831 21.0 21
  195.03571 18.0 18
  196.03229 14.0 14
  198.04736 11.0 11
  199.03784 51.0 51
  199.04903 28.0 28
  203.03268 83.0 83
  203.04585 13.0 13
  204.03893 24.0 24
  205.04353 28.0 28
  207.02626 57.0 57
  207.03612 31.0 31
  207.04752 10.0 10
  207.06453 15.0 15
  208.02786 44.0 44
  209.05511 16.0 16
  211.04782 14.0 14
  212.62044 10.0 10
  215.02541 16.0 16
  215.04703 16.0 16
  216.04854 12.0 12
  217.03134 41.0 41
  217.04922 361.0 361
  217.17696 17.0 17
  218.05843 39.0 39
  219.05048 13.0 13
  219.0629 16.0 16
  220.03619 13.0 13
  221.01756 10.0 10
  222.0446 12.0 12
  227.0325 31.0 31
  227.04494 17.0 17
  228.83191 12.0 12
  229.03923 28.0 28
  229.05031 14.0 14
  231.02396 14.0 14
  231.03636 33.0 33
  232.03566 10.0 10
  234.05074 12.0 12
  235.05869 32.0 32
  235.07201 12.0 12
  240.02736 21.0 21
  241.05341 14.0 14
  243.01912 15.0 15
  244.00301 14.0 14
  244.04356 23.0 23
  244.20091 10.0 10
  244.9709 12.0 12
  245.03889 184.0 184
  245.04816 416.0 416
  245.90501 10.0 10
  246.05591 65.0 65
  247.04314 27.0 27
  248.03456 20.0 20
  249.03726 23.0 23
  254.99873 13.0 13
  255.024 69.0 69
  255.0363 89.0 89
  255.54002 12.0 12
  261.0329 12.0 12
  262.04181 13.0 13
  263.05667 61.0 61
  271.02405 12.0 12
  273.01324 16.0 16
  273.0383 154.0 154
  274.0322 30.0 30
  274.05405 18.0 18
  275.04224 25.0 25
  275.0553 18.0 18
  275.08096 12.0 12
  285.03287 10.0 10
  285.05234 15.0 15
  290.0405 25.0 25
  290.05072 17.0 17
  291.04184 36.0 36
  292.04929 19.0 19
  300.77512 10.0 10
  301.01672 13.0 13
  301.02921 35.0 35
  301.54419 14.0 14
  302.03482 17.0 17
  318.96304 12.0 12
  319.02756 44.0 44
  319.0448 257.0 257
  319.0946 12.0 12
//
