ACCESSION: MSBNK-RIKEN-PR300039
RECORD_TITLE: Voacristine; LC-ESI-QTOF; MS2
DATE: 2019.03.28
AUTHORS: Tetsuya Mori, Center for Sustainable Resource Science, RIKEN
LICENSE: CC BY-NC-SA
PUBLICATION: Tsugawa H., Nakabayashi R., Mori T., Yamada Y., Takahashi M., Rai A., Sugiyama R., Yamamoto H., Nakaya T., Yamazaki M., Kooke R., Bac-Molenaar JA., Oztolan-Erol N., Keurentjes JJB., Arita M., Saito K. (2019) "A cheminformatics approach to characterize metabolomes in stable-isotope-labeled organisms" Nature Methods 16(4):295-298. [doi:10.1038/s41592-019-0358-2]
COMMENT: registered in RIKEN PlaSMA
CH$NAME: Voacristine
CH$COMPOUND_CLASS: Ibogan-type alkaloids
CH$FORMULA: C22H28N2O4
CH$EXACT_MASS: 384.476
CH$SMILES: COC(=O)[C@@]12C[C@H]3C[C@H]([C@H](C)O)[C@@H]1N(C3)CCC1=C2NC2=C1C=C(OC)C=C2
CH$IUPAC: InChI=1S/C22H28N2O4/c1-12(25)16-8-13-10-22(21(26)28-3)19-15(6-7-24(11-13)20(16)22)17-9-14(27-2)4-5-18(17)23-19/h4-5,9,12-13,16,20,23,25H,6-8,10-11H2,1-3H3/t12-,13+,16+,20-,22+/m0/s1
CH$LINK: INCHIKEY OYMQKBZMKFJPMH-VJMPXSKLSA-N
AC$INSTRUMENT: LC, Waters Acquity UPLC System; MS, Waters Xevo G2 Q-Tof
AC$INSTRUMENT_TYPE: LC-ESI-QTOF
AC$MASS_SPECTROMETRY: MS_TYPE MS2
AC$MASS_SPECTROMETRY: ION_MODE POSITIVE
AC$MASS_SPECTROMETRY: COLLISION_ENERGY 6V
AC$MASS_SPECTROMETRY: DESOLVATION_GAS_FLOW 800/h
AC$MASS_SPECTROMETRY: DESOLVATION_TEMPERATURE 450 C
AC$MASS_SPECTROMETRY: IONIZATION ESI
AC$CHROMATOGRAPHY: CAPILLARY_VOLTAGE +3.00 kV
AC$CHROMATOGRAPHY: COLUMN_NAME Acquity bridged ethyl hybrid C18 (1.7 um, 2.1 mm * 100 mm, Waters)
AC$CHROMATOGRAPHY: COLUMN_TEMPERATURE 40 C
AC$CHROMATOGRAPHY: FLOW_GRADIENT A/B = (99.5%/0.5% at 0 min, 99.5%/0.5% at 0.1 min, 20%/80% at 10 min, 0.5%/99.5% at 10.1 min, 0.5%/99.5% at 12.0 min, 99.5%/0.5% at 12.1 min, 99.5%/0.5% at 15.0 min)
AC$CHROMATOGRAPHY: FLOW_RATE 0.3 ml/min at 0 min, 0.3 ml/min at 10 min, 0.4 ml/min at 10.1 min, 0.4 ml/min at 14.4 min, 0.3 ml/min at 14.5 min
AC$CHROMATOGRAPHY: RETENTION_TIME 4.611467
AC$CHROMATOGRAPHY: SOLVENT A water including 0.1% formic acid
AC$CHROMATOGRAPHY: SOLVENT B acetonitrile including 0.1% formic acid
MS$FOCUSED_ION: PRECURSOR_TYPE [M+H]+
MS$FOCUSED_ION: PRECURSOR_M/Z 385.2121838
PK$SPLASH: splash10-08fs-0980000000-4f61681c5bf4aefa60cb
PK$NUM_PEAK: 812
PK$PEAK: m/z int. rel.int.
  55.05294 22.0 22
  56.05246 5.0 5
  63.6555 7.0 7
  65.03838 12.0 12
  67.05502 28.0 28
  70.06541 13.0 13
  73.06544 7.0 7
  77.04095 34.0 34
  77.82387 9.0 9
  78.03268 5.0 5
  79.04951 8.0 8
  79.05543 54.0 54
  80.04704 40.0 40
  80.0522 56.0 56
  80.60631 6.0 6
  81.05063 7.0 7
  81.05816 34.0 34
  81.07051 35.0 35
  82.06164 7.0 7
  82.06612 9.0 9
  83.03551 7.0 7
  85.07882 7.0 7
  86.10478 6.0 6
  88.83858 10.0 10
  90.25106 7.0 7
  90.27045 5.0 5
  91.05418 290.0 290
  91.07669 6.0 6
  91.5524 8.0 8
  92.02465 11.0 11
  92.05749 47.0 47
  92.06235 11.0 11
  92.39349 6.0 6
  93.05511 62.0 62
  93.0699 194.0 194
  94.04978 13.0 13
  94.06562 81.0 81
  94.08192 9.0 9
  94.40718 6.0 6
  94.51464 5.0 5
  95.05746 6.0 6
  95.06679 9.0 9
  95.07455 28.0 28
  95.08279 59.0 59
  95.61295 6.0 6
  96.0461 7.0 7
  96.07257 7.0 7
  96.08028 48.0 48
  97.11433 6.0 6
  98.0868 6.0 6
  98.09027 15.0 15
  98.09882 10.0 10
  101.45064 5.0 5
  102.04942 5.0 5
  102.52936 5.0 5
  103.04693 14.0 14
  103.05331 21.0 21
  104.04718 23.0 23
  104.06098 18.0 18
  105.04548 5.0 5
  105.05856 9.0 9
  105.06727 62.0 62
  105.0757 15.0 15
  106.02291 5.0 5
  106.04903 6.0 6
  106.06438 69.0 69
  106.28979 8.0 8
  106.32815 6.0 6
  107.04305 6.0 6
  107.06608 10.0 10
  107.07027 18.0 18
  107.07835 35.0 35
  107.08655 32.0 32
  108.06171 5.0 5
  108.07719 53.0 53
  108.0821 125.0 125
  108.0947 6.0 6
  109.04868 6.0 6
  109.08072 5.0 5
  109.3552 7.0 7
  110.09795 28.0 28
  113.11824 7.0 7
  115.05543 76.0 76
  115.91768 7.0 7
  116.04777 14.0 14
  116.06548 24.0 24
  116.88956 12.0 12
  117.05606 28.0 28
  117.06952 71.0 71
  118.05134 20.0 20
  118.06599 42.0 42
  118.07278 19.0 19
  118.07659 8.0 8
  119.07166 56.0 56
  119.08571 71.0 71
  120.04393 8.0 8
  120.07283 33.0 33
  120.08121 65.0 65
  121.07549 15.0 15
  121.08578 131.0 131
  121.09373 44.0 44
  122.06255 9.0 9
  122.07564 6.0 6
  122.09601 354.0 354
  122.99572 6.0 6
  123.09947 28.0 28
  124.11785 19.0 19
  127.05396 40.0 40
  127.7678 9.0 9
  128.04178 6.0 6
  128.04678 7.0 7
  128.06506 6.0 6
  129.0139 8.0 8
  129.04651 6.0 6
  129.06294 10.0 10
  129.0739 22.0 22
  130.05051 16.0 16
  130.06424 70.0 70
  130.07025 18.0 18
  131.07025 124.0 124
  131.07773 69.0 69
  132.04506 24.0 24
  132.05951 7.0 7
  132.06839 7.0 7
  132.08084 29.0 29
  133.05771 18.0 18
  133.08899 37.0 37
  133.09911 6.0 6
  134.08447 21.0 21
  134.09616 90.0 90
  135.10347 431.0 431
  135.83258 7.0 7
  136.07617 33.0 33
  136.09389 51.0 51
  136.11197 728.0 727
  136.23834 6.0 6
  136.8989 6.0 6
  137.06348 8.0 8
  137.11264 31.0 31
  137.11784 22.0 22
  137.99423 11.0 11
  138.09346 9.0 9
  138.12199 8.0 8
  138.88425 7.0 7
  139.05386 15.0 15
  139.59135 21.0 21
  140.05972 10.0 10
  140.06706 8.0 8
  141.05304 38.0 38
  141.06145 7.0 7
  142.06259 110.0 110
  143.04765 32.0 32
  143.05891 22.0 22
  143.07193 301.0 301
  143.07761 130.0 130
  143.09085 7.0 7
  143.64958 5.0 5
  143.68329 6.0 6
  144.04425 18.0 18
  144.05479 44.0 44
  144.06436 19.0 19
  144.07983 79.0 79
  144.35675 5.0 5
  145.04247 6.0 6
  145.06033 51.0 51
  145.07544 14.0 14
  145.08754 14.0 14
  145.09395 25.0 25
  145.9865 9.0 9
  146.05498 34.0 34
  146.06305 27.0 27
  146.07407 10.0 10
  146.07993 22.0 22
  146.09038 38.0 38
  146.10095 11.0 11
  146.14238 9.0 9
  147.06052 19.0 19
  147.06755 32.0 32
  147.08063 26.0 26
  147.09862 19.0 19
  147.59798 5.0 5
  148.07312 6.0 6
  148.08305 6.0 6
  148.09605 37.0 37
  148.11244 172.0 172
  149.11903 30.0 30
  150.08524 10.0 10
  150.12473 7.0 7
  150.68051 8.0 8
  152.62189 8.0 8
  153.06931 6.0 6
  153.22078 6.0 6
  153.2879 6.0 6
  153.43973 10.0 10
  154.03844 14.0 14
  154.06404 308.0 308
  154.94083 8.0 8
  155.04097 6.0 6
  155.05331 58.0 58
  155.0715 504.0 503
  155.52498 6.0 6
  155.92612 7.0 7
  156.05025 13.0 13
  156.06842 38.0 38
  156.07675 43.0 43
  156.09052 8.0 8
  156.96149 6.0 6
  157.06117 25.0 25
  157.06952 15.0 15
  157.07954 29.0 29
  157.08829 67.0 67
  158.05121 10.0 10
  158.06247 44.0 44
  158.07219 47.0 47
  158.09259 50.0 50
  158.10815 13.0 13
  159.06602 501.0 500
  159.0864 23.0 23
  159.10045 14.0 14
  160.06494 43.0 43
  160.07558 252.0 252
  160.10565 22.0 22
  160.11598 6.0 6
  160.29636 6.0 6
  161.07355 78.0 78
  162.0771 13.0 13
  162.09457 16.0 16
  162.79823 6.0 6
  163.06528 6.0 6
  163.08113 7.0 7
  164.04955 7.0 7
  164.05739 10.0 10
  164.10637 7.0 7
  165.06348 13.0 13
  165.07269 22.0 22
  165.99104 6.0 6
  166.05035 17.0 17
  166.06732 83.0 83
  166.07433 51.0 51
  166.38524 6.0 6
  167.0007 8.0 8
  167.05211 20.0 20
  167.073 723.0 722
  167.15729 6.0 6
  168.04599 8.0 8
  168.05399 10.0 10
  168.0797 352.0 352
  168.34406 9.0 9
  168.7209 6.0 6
  169.04706 47.0 47
  169.0562 52.0 52
  169.06816 16.0 16
  169.0836 122.0 122
  169.09529 28.0 28
  169.58333 9.0 9
  170.054 93.0 93
  170.06328 28.0 28
  170.08087 42.0 42
  170.09758 22.0 22
  170.31961 5.0 5
  170.82487 9.0 9
  171.02728 17.0 17
  171.05495 30.0 30
  171.069 123.0 123
  171.08855 27.0 27
  171.10013 7.0 7
  172.04202 10.0 10
  172.07031 105.0 105
  172.07678 263.0 263
  172.10236 17.0 17
  172.11961 15.0 15
  172.75981 7.0 7
  173.08351 188.0 188
  173.11108 6.0 6
  174.04829 16.0 16
  174.07271 78.0 78
  174.07828 148.0 148
  174.09163 451.0 451
  175.06018 9.0 9
  175.06902 8.0 8
  175.08238 24.0 24
  175.09245 33.0 33
  176.11084 27.0 27
  177.08174 23.0 23
  177.09665 15.0 15
  178.06708 31.0 31
  179.05258 16.0 16
  179.06511 11.0 11
  179.07431 24.0 24
  179.0862 15.0 15
  179.57111 9.0 9
  180.04321 8.0 8
  180.05913 9.0 9
  180.07942 155.0 155
  180.61293 5.0 5
  180.74281 7.0 7
  180.98174 11.0 11
  181.04189 25.0 25
  181.07268 11.0 11
  181.086 119.0 119
  181.09358 79.0 79
  181.13582 6.0 6
  182.06015 60.0 60
  182.07329 7.0 7
  182.09152 79.0 79
  182.56805 7.0 7
  183.0614 115.0 115
  183.07098 335.0 335
  183.09886 26.0 26
  183.68626 10.0 10
  184.01743 9.0 9
  184.05309 11.0 11
  184.0688 161.0 161
  184.07733 290.0 290
  184.09572 12.0 12
  184.10686 8.0 8
  184.12138 9.0 9
  184.4809 15.0 15
  185.05371 17.0 17
  185.08041 290.0 290
  185.11952 32.0 32
  185.2785 6.0 6
  185.87785 7.0 7
  185.89235 7.0 7
  186.05652 58.0 58
  186.07224 53.0 53
  186.08887 322.0 322
  186.09666 229.0 229
  186.11021 25.0 25
  186.12553 6.0 6
  186.13701 8.0 8
  187.05734 10.0 10
  187.07558 25.0 25
  187.08836 103.0 103
  187.09665 64.0 64
  187.10565 12.0 12
  187.53104 6.0 6
  188.09415 48.0 48
  188.11386 10.0 10
  189.07571 15.0 15
  189.09637 24.0 24
  189.11324 11.0 11
  189.46384 7.0 7
  190.10248 22.0 22
  191.06248 8.0 8
  191.0705 7.0 7
  191.08096 8.0 8
  192.08284 91.0 91
  192.64056 7.0 7
  193.06573 11.0 11
  193.07677 17.0 17
  193.09012 77.0 77
  193.09985 28.0 28
  194.06154 30.0 30
  194.08223 22.0 22
  194.09975 30.0 30
  194.49313 7.0 7
  194.91641 10.0 10
  195.03093 6.0 6
  195.04749 11.0 11
  195.06705 664.0 663
  195.09145 49.0 49
  195.10684 36.0 36
  195.17018 5.0 5
  195.25143 9.0 9
  195.6852 10.0 10
  196.04755 27.0 27
  196.07509 282.0 282
  196.09323 38.0 38
  196.10071 19.0 19
  196.84915 5.0 5
  197.04852 8.0 8
  197.08151 276.0 276
  197.10463 7.0 7
  197.22597 6.0 6
  198.05125 10.0 10
  198.05952 11.0 11
  198.09055 513.0 512
  198.1292 9.0 9
  198.50311 8.0 8
  198.67041 6.0 6
  199.01965 5.0 5
  199.04808 10.0 10
  199.06033 29.0 29
  199.08267 123.0 123
  199.09755 129.0 129
  199.45651 6.0 6
  200.05159 7.0 7
  200.06618 81.0 81
  200.07875 26.0 26
  200.10822 214.0 214
  201.08989 33.0 33
  201.10045 66.0 66
  201.1109 14.0 14
  202.0869 6.0 6
  202.10048 8.0 8
  204.08171 66.0 66
  204.09016 57.0 57
  204.101 23.0 23
  205.0822 26.0 26
  205.09421 21.0 21
  206.07449 29.0 29
  206.08466 43.0 43
  206.09633 34.0 34
  206.1134 51.0 51
  206.12119 29.0 29
  207.06848 38.0 38
  207.08847 51.0 51
  207.10281 54.0 54
  208.07922 147.0 147
  208.10002 119.0 119
  208.12262 7.0 7
  209.05873 38.0 38
  209.06902 19.0 19
  209.0835 161.0 161
  209.10954 193.0 193
  209.12978 9.0 9
  209.57388 7.0 7
  209.75191 8.0 8
  210.04279 13.0 13
  210.05714 16.0 16
  210.07298 60.0 60
  210.09082 1000.0 999
  210.12408 42.0 42
  210.34683 9.0 9
  211.0629 23.0 23
  211.09613 397.0 397
  211.12053 10.0 10
  212.07091 41.0 41
  212.08292 29.0 29
  212.09993 104.0 104
  212.12515 13.0 13
  212.14868 20.0 20
  213.00945 7.0 7
  213.0748 30.0 30
  213.10338 48.0 48
  213.1154 13.0 13
  213.42572 14.0 14
  214.0558 6.0 6
  214.08275 48.0 48
  214.09441 20.0 20
  214.11296 7.0 7
  215.09529 33.0 33
  215.10191 14.0 14
  215.13838 13.0 13
  216.06512 17.0 17
  216.08379 22.0 22
  216.0905 9.0 9
  216.40337 5.0 5
  217.08647 13.0 13
  217.09341 13.0 13
  217.32573 5.0 5
  218.06779 7.0 7
  218.07483 7.0 7
  218.09883 71.0 71
  219.06718 15.0 15
  219.09024 18.0 18
  219.10271 40.0 40
  219.11324 7.0 7
  220.03641 10.0 10
  220.06026 8.0 8
  220.06958 28.0 28
  220.0817 51.0 51
  220.09804 18.0 18
  220.11284 25.0 25
  220.13106 13.0 13
  220.37677 5.0 5
  220.61684 5.0 5
  220.89673 5.0 5
  221.06725 18.0 18
  221.0873 48.0 48
  221.10522 28.0 28
  221.12904 17.0 17
  221.70383 9.0 9
  222.04483 7.0 7
  222.0605 37.0 37
  222.08473 124.0 124
  222.09991 104.0 104
  222.12712 5.0 5
  223.05501 23.0 23
  223.06549 33.0 33
  223.0788 14.0 14
  223.09669 141.0 141
  223.11858 24.0 24
  224.05368 10.0 10
  224.06413 24.0 24
  224.08383 33.0 33
  224.09239 108.0 108
  224.10799 246.0 246
  224.14725 6.0 6
  225.0775 25.0 25
  225.10294 185.0 185
  225.12267 12.0 12
  225.17874 7.0 7
  225.25558 6.0 6
  226.05141 7.0 7
  226.07164 19.0 19
  226.07841 51.0 51
  226.08931 38.0 38
  226.10216 12.0 12
  226.1185 8.0 8
  227.07285 7.0 7
  227.09192 20.0 20
  227.12259 8.0 8
  228.07686 13.0 13
  228.10034 26.0 26
  228.12128 8.0 8
  228.13768 9.0 9
  229.08426 8.0 8
  229.09773 5.0 5
  230.07024 6.0 6
  230.10222 11.0 11
  230.11876 11.0 11
  231.07887 7.0 7
  231.09639 7.0 7
  231.10701 13.0 13
  231.68384 17.0 17
  232.07448 40.0 40
  232.09424 12.0 12
  232.11185 44.0 44
  233.06639 8.0 8
  233.08359 56.0 56
  233.10246 10.0 10
  233.11417 37.0 37
  233.12767 23.0 23
  234.0563 6.0 6
  234.06714 7.0 7
  234.08519 127.0 127
  234.09322 95.0 95
  234.11923 120.0 120
  234.63405 6.0 6
  235.07347 18.0 18
  235.08669 76.0 76
  235.0997 203.0 203
  235.114 71.0 71
  235.1237 70.0 70
  235.14142 24.0 24
  235.16565 8.0 8
  236.07001 8.0 8
  236.09616 218.0 218
  236.11517 22.0 22
  236.13445 20.0 20
  236.14581 6.0 6
  237.00055 6.0 6
  237.03328 8.0 8
  237.07481 69.0 69
  237.10347 342.0 342
  237.1387 17.0 17
  237.14841 15.0 15
  237.28014 7.0 7
  238.08101 39.0 39
  238.10803 259.0 259
  238.12389 53.0 53
  238.16422 15.0 15
  238.60338 8.0 8
  239.08302 51.0 51
  239.1178 220.0 220
  240.07703 8.0 8
  240.09091 8.0 8
  240.12175 75.0 75
  241.09653 13.0 13
  241.11006 6.0 6
  242.10074 22.0 22
  243.09442 8.0 8
  244.06844 11.0 11
  244.08864 13.0 13
  244.10089 28.0 28
  245.07329 12.0 12
  245.09357 12.0 12
  245.11423 8.0 8
  246.07649 21.0 21
  246.08987 35.0 35
  246.28146 5.0 5
  246.5193 7.0 7
  247.09125 43.0 43
  247.10634 22.0 22
  247.13214 14.0 14
  247.45096 6.0 6
  247.77402 5.0 5
  247.91571 5.0 5
  248.06789 20.0 20
  248.08704 64.0 64
  248.10616 263.0 263
  248.1342 61.0 61
  248.14856 17.0 17
  248.46359 6.0 6
  249.07523 34.0 34
  249.10208 86.0 86
  249.11421 144.0 144
  249.14095 146.0 146
  249.16687 20.0 20
  249.80634 6.0 6
  250.05409 20.0 20
  250.06664 22.0 22
  250.08878 18.0 18
  250.11099 146.0 146
  250.1281 54.0 54
  250.15652 15.0 15
  250.69394 8.0 8
  250.99539 5.0 5
  251.07249 16.0 16
  251.0909 70.0 70
  251.11714 566.0 565
  251.12569 206.0 206
  252.09134 29.0 29
  252.10892 125.0 125
  252.13461 87.0 87
  252.16702 6.0 6
  252.8728 8.0 8
  253.07762 8.0 8
  253.10681 8.0 8
  253.12206 78.0 78
  253.1378 201.0 201
  254.0883 51.0 51
  254.09937 11.0 11
  254.12231 19.0 19
  254.13344 40.0 40
  255.0816 8.0 8
  255.11305 12.0 12
  255.1351 10.0 10
  255.66568 6.0 6
  256.14713 7.0 7
  256.16928 18.0 18
  258.10266 11.0 11
  258.11813 11.0 11
  258.14432 7.0 7
  259.67947 11.0 11
  260.09668 10.0 10
  260.11829 7.0 7
  260.15128 5.0 5
  261.05151 7.0 7
  261.07251 11.0 11
  261.08859 23.0 23
  261.11023 22.0 22
  261.1203 31.0 31
  261.14362 17.0 17
  261.62546 6.0 6
  262.09351 24.0 24
  262.10721 42.0 42
  262.12442 72.0 72
  262.14383 33.0 33
  263.08606 7.0 7
  263.10297 27.0 27
  263.11807 136.0 136
  263.15189 141.0 141
  263.16171 88.0 88
  264.08319 20.0 20
  264.09888 50.0 50
  264.12332 127.0 127
  264.13684 156.0 156
  264.16534 471.0 471
  264.55099 6.0 6
  264.7182 6.0 6
  264.97238 5.0 5
  265.07892 26.0 26
  265.09845 57.0 57
  265.11841 56.0 56
  265.13663 175.0 175
  265.16498 142.0 142
  265.18781 8.0 8
  266.09235 5.0 5
  266.11252 11.0 11
  266.13498 12.0 12
  266.14212 29.0 29
  266.15558 7.0 7
  266.1694 5.0 5
  266.17938 5.0 5
  267.10818 7.0 7
  267.11722 12.0 12
  267.14929 6.0 6
  267.18582 9.0 9
  268.10162 26.0 26
  268.11841 34.0 34
  269.09927 8.0 8
  269.13004 8.0 8
  269.17319 7.0 7
  270.11682 15.0 15
  270.12411 7.0 7
  270.46643 5.0 5
  271.1026 7.0 7
  271.11215 7.0 7
  273.07382 5.0 5
  273.13113 7.0 7
  274.13062 13.0 13
  275.03641 9.0 9
  275.09134 10.0 10
  275.133 22.0 22
  275.14374 23.0 23
  275.15799 7.0 7
  276.08456 16.0 16
  276.11346 30.0 30
  276.12442 35.0 35
  276.13831 15.0 15
  276.15585 40.0 40
  276.16647 14.0 14
  277.09692 24.0 24
  277.11917 74.0 74
  277.13599 273.0 273
  277.1597 8.0 8
  277.49921 7.0 7
  278.03479 11.0 11
  278.09598 9.0 9
  278.11191 15.0 15
  278.13046 36.0 36
  278.14059 45.0 45
  278.15347 83.0 83
  278.16962 23.0 23
  278.26193 8.0 8
  279.10898 21.0 21
  279.12143 9.0 9
  279.14575 157.0 157
  279.16479 68.0 68
  279.19556 7.0 7
  279.34448 7.0 7
  279.6626 6.0 6
  280.11615 17.0 17
  280.15295 36.0 36
  281.09592 14.0 14
  281.10934 10.0 10
  281.15186 12.0 12
  281.17032 9.0 9
  282.09436 7.0 7
  283.12051 8.0 8
  283.1615 6.0 6
  284.12946 29.0 29
  286.1405 7.0 7
  287.10281 6.0 6
  287.11346 5.0 5
  288.13455 6.0 6
  289.09482 7.0 7
  289.12979 24.0 24
  290.14017 46.0 46
  291.08276 8.0 8
  291.09741 8.0 8
  291.11182 18.0 18
  291.12549 35.0 35
  291.15097 261.0 261
  292.08295 9.0 9
  292.09998 8.0 8
  292.12091 30.0 30
  292.13797 42.0 42
  292.15265 236.0 236
  292.16769 206.0 206
  293.13651 6.0 6
  293.16171 237.0 237
  294.11081 17.0 17
  294.15573 10.0 10
  294.16568 15.0 15
  295.07349 7.0 7
  295.10718 9.0 9
  295.12454 8.0 8
  295.14557 15.0 15
  295.16223 8.0 8
  296.11554 29.0 29
  296.12985 17.0 17
  297.0939 7.0 7
  298.16742 6.0 6
  299.1362 7.0 7
  302.12329 13.0 13
  303.14719 12.0 12
  304.13141 25.0 25
  304.7843 7.0 7
  305.13693 34.0 34
  305.15097 18.0 18
  305.16153 16.0 16
  306.13727 24.0 24
  306.18411 6.0 6
  307.03021 7.0 7
  307.13538 9.0 9
  307.14551 12.0 12
  307.17993 233.0 233
  308.13202 13.0 13
  308.15686 8.0 8
  308.17233 18.0 18
  308.18649 61.0 61
  309.1127 6.0 6
  309.15927 18.0 18
  309.18726 8.0 8
  309.19864 6.0 6
  309.40384 7.0 7
  310.3013 5.0 5
  311.12601 29.0 29
  311.1412 24.0 24
  311.15747 33.0 33
  312.15198 11.0 11
  315.71762 8.0 8
  318.15814 7.0 7
  319.12335 6.0 6
  319.15024 28.0 28
  320.14188 12.0 12
  320.16208 14.0 14
  320.25458 14.0 14
  321.12463 9.0 9
  323.13992 17.0 17
  323.16455 6.0 6
  323.17242 14.0 14
  324.17316 62.0 62
  324.19464 88.0 88
  325.17542 21.0 21
  325.19263 11.0 11
  335.15762 14.0 14
  335.18643 29.0 29
  336.18436 23.0 23
  338.16849 9.0 9
  351.15051 9.0 9
  351.17386 12.0 12
  352.18173 41.0 41
  354.18408 6.0 6
  367.15878 5.0 5
  367.19321 16.0 16
  368.21048 9.0 9
  369.99139 5.0 5
//
