ACCESSION: MSBNK-RIKEN-PR303377
RECORD_TITLE: NP-006989(12); LC-ESI-QTOF; MS2
DATE: 2019.03.28
AUTHORS: Tetsuya Mori, Center for Sustainable Resource Science, RIKEN
LICENSE: CC BY-NC-SA
PUBLICATION: Tsugawa H., Nakabayashi R., Mori T., Yamada Y., Takahashi M., Rai A., Sugiyama R., Yamamoto H., Nakaya T., Yamazaki M., Kooke R., Bac-Molenaar JA., Oztolan-Erol N., Keurentjes JJB., Arita M., Saito K. (2019) "A cheminformatics approach to characterize metabolomes in stable-isotope-labeled organisms" Nature Methods 16(4):295-298. [doi:10.1038/s41592-019-0358-2]
COMMENT: registered in RIKEN PlaSMA
CH$NAME: NP-006989(12)
CH$COMPOUND_CLASS: Flavonoid 8-C-glycosides
CH$FORMULA: C27H30O16
CH$EXACT_MASS: 610.521
CH$SMILES: OC[C@H]1O[C@H]([C@H](O)[C@@H](O)[C@@H]1O)C1=C(O)C(C2OC(CO)C(O)C(O)C2O)=C2OC(=CC(=O)C2=C1O)C1=CC(O)=C(O)C=C1
CH$IUPAC: InChI=1S/C27H30O16/c28-5-12-17(33)21(37)23(39)26(42-12)15-19(35)14-10(32)4-11(7-1-2-8(30)9(31)3-7)41-25(14)16(20(15)36)27-24(40)22(38)18(34)13(6-29)43-27/h1-4,12-13,17-18,21-24,26-31,33-40H,5-6H2/t12-,13?,17-,18?,21+,22?,23-,24?,26+,27?/m1/s1
CH$LINK: INCHIKEY ZLPSOQFIIQIIAX-FCSQLNSJSA-N
AC$INSTRUMENT: LC, Waters Acquity UPLC System; MS, Waters Xevo G2 Q-Tof
AC$INSTRUMENT_TYPE: LC-ESI-QTOF
AC$MASS_SPECTROMETRY: MS_TYPE MS2
AC$MASS_SPECTROMETRY: ION_MODE POSITIVE
AC$MASS_SPECTROMETRY: COLLISION_ENERGY 6V
AC$MASS_SPECTROMETRY: DESOLVATION_GAS_FLOW 800/h
AC$MASS_SPECTROMETRY: DESOLVATION_TEMPERATURE 450 C
AC$MASS_SPECTROMETRY: IONIZATION ESI
AC$CHROMATOGRAPHY: CAPILLARY_VOLTAGE +3.00 kV
AC$CHROMATOGRAPHY: COLUMN_NAME Acquity bridged ethyl hybrid C18 (1.7 um, 2.1 mm * 100 mm, Waters)
AC$CHROMATOGRAPHY: COLUMN_TEMPERATURE 40 C
AC$CHROMATOGRAPHY: FLOW_GRADIENT A/B = (99.5%/0.5% at 0 min, 99.5%/0.5% at 0.1 min, 20%/80% at 10 min, 0.5%/99.5% at 10.1 min, 0.5%/99.5% at 12.0 min, 99.5%/0.5% at 12.1 min, 99.5%/0.5% at 15.0 min)
AC$CHROMATOGRAPHY: FLOW_RATE 0.3 ml/min at 0 min, 0.3 ml/min at 10 min, 0.4 ml/min at 10.1 min, 0.4 ml/min at 14.4 min, 0.3 ml/min at 14.5 min
AC$CHROMATOGRAPHY: RETENTION_TIME 3.100167
AC$CHROMATOGRAPHY: SOLVENT A water including 0.1% formic acid
AC$CHROMATOGRAPHY: SOLVENT B acetonitrile including 0.1% formic acid
MS$FOCUSED_ION: PRECURSOR_TYPE [M+H]+
MS$FOCUSED_ION: PRECURSOR_M/Z 611.1606613
PK$SPLASH: splash10-03di-0007956000-f3d8caae8be8204fdf6b
PK$NUM_PEAK: 240
PK$PEAK: m/z int. rel.int.
  137.02487 6.0 6
  218.85333 9.0 9
  267.07199 6.0 6
  283.03864 6.0 6
  283.06311 12.0 12
  302.0737 9.0 9
  309.03345 8.0 8
  310.04984 6.0 6
  311.03787 13.0 13
  311.05719 14.0 14
  311.07089 6.0 6
  312.06015 6.0 6
  312.08069 6.0 6
  313.05508 6.0 6
  314.0658 7.0 7
  323.01422 8.0 8
  323.0235 13.0 13
  323.04681 27.0 27
  323.05682 91.0 91
  324.05188 15.0 15
  324.06534 11.0 11
  325.05963 26.0 26
  329.07877 13.0 13
  330.06839 9.0 9
  334.09344 6.0 6
  335.05325 9.0 9
  337.01465 5.0 5
  337.073 29.0 29
  338.03757 6.0 6
  339.04257 5.0 5
  340.06631 6.0 6
  341.06412 209.0 209
  342.06485 38.0 38
  343.07327 16.0 16
  343.08514 6.0 6
  347.04623 7.0 7
  349.06613 6.0 6
  349.08698 6.0 6
  351.06821 10.0 10
  351.08914 14.0 14
  352.05881 10.0 10
  352.09918 9.0 9
  353.02689 9.0 9
  353.0531 23.0 23
  353.06866 119.0 119
  354.0607 25.0 25
  359.09863 7.0 7
  360.07108 6.0 6
  363.08594 35.0 35
  364.07812 6.0 6
  365.05493 38.0 38
  365.07019 75.0 75
  366.06128 24.0 24
  366.6066 5.0 5
  367.05786 11.0 11
  367.08566 28.0 28
  367.11633 7.0 7
  368.09943 5.0 5
  368.12677 8.0 8
  369.05594 15.0 15
  370.08951 5.0 5
  371.07321 36.0 36
  371.08981 24.0 24
  372.08365 10.0 10
  372.0947 11.0 11
  377.04941 14.0 14
  377.08124 19.0 19
  377.10764 9.0 9
  378.07062 10.0 10
  379.06165 11.0 11
  379.0769 15.0 15
  379.09637 13.0 13
  381.09778 38.0 38
  381.11459 6.0 6
  384.0831 6.0 6
  387.07431 6.0 6
  389.06198 10.0 10
  389.75766 7.0 7
  391.05701 11.0 11
  391.07181 17.0 17
  391.0871 14.0 14
  392.0899 6.0 6
  393.06497 12.0 12
  394.03528 5.0 5
  394.05997 5.0 5
  395.05814 38.0 38
  395.07538 165.0 165
  396.02219 6.0 6
  396.06396 19.0 19
  396.07779 12.0 12
  404.07645 10.0 10
  404.94064 5.0 5
  407.05887 21.0 21
  407.07233 88.0 88
  408.0817 28.0 28
  410.08734 11.0 11
  410.10406 5.0 5
  413.07776 12.0 12
  417.04373 8.0 8
  417.10803 5.0 5
  419.07285 88.0 88
  419.09296 36.0 36
  420.07584 8.0 8
  420.08899 10.0 10
  421.08173 6.0 6
  425.07733 77.0 77
  425.103 51.0 51
  425.98956 7.0 7
  426.07431 16.0 16
  426.10046 18.0 18
  431.06763 6.0 6
  431.08493 15.0 15
  432.08408 15.0 15
  435.06631 11.0 11
  437.07983 82.0 82
  437.10284 39.0 39
  438.07153 18.0 18
  438.09485 25.0 25
  443.05746 10.0 10
  443.08209 72.0 72
  443.10577 92.0 92
  443.11957 27.0 27
  444.08139 13.0 13
  444.10986 17.0 17
  444.99054 6.0 6
  445.05658 5.0 5
  445.08777 8.0 8
  446.09888 6.0 6
  449.07874 29.0 29
  452.07748 10.0 10
  453.08859 7.0 7
  455.0477 6.0 6
  455.08725 51.0 51
  455.10385 59.0 59
  456.06866 8.0 8
  456.0957 5.0 5
  456.11124 10.0 10
  456.12912 7.0 7
  461.09149 20.0 20
  461.11877 11.0 11
  462.07849 19.0 19
  462.09433 8.0 8
  463.09476 9.0 9
  463.25931 6.0 6
  467.07599 5.0 5
  467.09735 9.0 9
  471.11203 17.0 17
  472.10242 6.0 6
  472.11554 6.0 6
  473.05569 6.0 6
  473.07343 11.0 11
  473.10825 237.0 237
  473.23077 8.0 8
  474.08679 17.0 17
  474.11325 62.0 62
  474.13116 31.0 31
  475.09753 5.0 5
  479.09067 15.0 15
  479.12314 8.0 8
  485.09991 12.0 12
  489.11237 8.0 8
  490.12881 5.0 5
  491.05368 6.0 6
  491.09134 14.0 14
  491.11746 114.0 114
  491.14893 6.0 6
  492.10294 10.0 10
  492.12579 10.0 10
  492.14285 6.0 6
  497.06122 10.0 10
  497.09592 60.0 60
  497.13016 17.0 17
  498.12482 25.0 25
  503.07141 18.0 18
  503.0932 6.0 6
  503.12909 6.0 6
  504.08466 8.0 8
  509.10571 12.0 12
  510.10696 6.0 6
  510.64798 5.0 5
  515.09204 5.0 5
  515.1228 54.0 54
  516.11322 20.0 20
  516.13354 20.0 20
  517.13007 9.0 9
  521.11597 10.0 10
  522.10443 10.0 10
  523.10205 7.0 7
  527.11389 44.0 44
  527.13562 17.0 17
  528.11176 23.0 23
  528.12561 9.0 9
  528.14392 5.0 5
  533.29614 6.0 6
  539.08813 11.0 11
  539.11359 34.0 34
  539.1449 14.0 14
  540.03705 6.0 6
  540.10645 15.0 15
  540.12976 16.0 16
  544.14111 10.0 10
  545.10974 12.0 12
  545.13281 42.0 42
  545.15479 17.0 17
  546.12646 11.0 11
  548.11615 6.0 6
  557.12244 116.0 116
  557.15936 7.0 7
  557.41589 13.0 13
  558.1178 6.0 6
  558.13947 32.0 32
  559.15521 12.0 12
  563.38361 6.0 6
  573.11029 6.0 6
  575.07758 6.0 6
  575.10596 13.0 13
  575.14569 92.0 92
  576.09625 9.0 9
  576.14478 15.0 15
  577.17133 5.0 5
  591.08051 11.0 11
  593.07745 6.0 6
  593.14478 251.0 251
  593.98608 5.0 5
  594.11884 17.0 17
  594.15857 34.0 34
  595.14844 13.0 13
  595.17859 24.0 24
  597.16388 7.0 7
  609.13751 20.0 20
  609.17053 7.0 7
  609.26001 6.0 6
  610.13672 16.0 16
  610.90601 5.0 5
  611.02887 11.0 11
  611.06934 21.0 21
  611.09863 19.0 19
  611.16113 1000.0 999
  611.17749 309.0 309
  611.22101 14.0 14
//
