ACCESSION: MSBNK-RIKEN-PR305125
RECORD_TITLE: Yohimbic Acid; LC-ESI-QTOF; MS2
DATE: 2019.03.28
AUTHORS: Tetsuya Mori, Center for Sustainable Resource Science, RIKEN
LICENSE: CC BY-NC-SA
PUBLICATION: Tsugawa H., Nakabayashi R., Mori T., Yamada Y., Takahashi M., Rai A., Sugiyama R., Yamamoto H., Nakaya T., Yamazaki M., Kooke R., Bac-Molenaar JA., Oztolan-Erol N., Keurentjes JJB., Arita M., Saito K. (2019) "A cheminformatics approach to characterize metabolomes in stable-isotope-labeled organisms" Nature Methods 16(4):295-298. [doi:10.1038/s41592-019-0358-2]
COMMENT: registered in RIKEN PlaSMA
CH$NAME: Yohimbic Acid
CH$COMPOUND_CLASS: Corynanthean-type alkaloids
CH$FORMULA: C20H24N2O3
CH$EXACT_MASS: 340.423
CH$SMILES: OC1CCC2CN3CCC4=C(NC5=CC=CC=C45)C3CC2C1C(O)=O
CH$IUPAC: InChI=1S/C20H24N2O3/c23-17-6-5-11-10-22-8-7-13-12-3-1-2-4-15(12)21-19(13)16(22)9-14(11)18(17)20(24)25/h1-4,11,14,16-18,21,23H,5-10H2,(H,24,25)
CH$LINK: INCHIKEY AADVZSXPNRLYLV-UHFFFAOYSA-N
AC$INSTRUMENT: LC, Waters Acquity UPLC System; MS, Waters Xevo G2 Q-Tof
AC$INSTRUMENT_TYPE: LC-ESI-QTOF
AC$MASS_SPECTROMETRY: MS_TYPE MS2
AC$MASS_SPECTROMETRY: ION_MODE NEGATIVE
AC$MASS_SPECTROMETRY: COLLISION_ENERGY 6V
AC$MASS_SPECTROMETRY: DESOLVATION_GAS_FLOW 800/h
AC$MASS_SPECTROMETRY: DESOLVATION_TEMPERATURE 450 C
AC$MASS_SPECTROMETRY: IONIZATION ESI
AC$CHROMATOGRAPHY: CAPILLARY_VOLTAGE -2.75 kV
AC$CHROMATOGRAPHY: COLUMN_NAME Acquity bridged ethyl hybrid C18 (1.7 um, 2.1 mm * 100 mm, Waters)
AC$CHROMATOGRAPHY: COLUMN_TEMPERATURE 40 C
AC$CHROMATOGRAPHY: FLOW_GRADIENT A/B = (99.5%/0.5% at 0 min, 99.5%/0.5% at 0.1 min, 20%/80% at 10 min, 0.5%/99.5% at 10.1 min, 0.5%/99.5% at 12.0 min, 99.5%/0.5% at 12.1 min, 99.5%/0.5% at 15.0 min)
AC$CHROMATOGRAPHY: FLOW_RATE 0.3 ml/min at 0 min, 0.3 ml/min at 10 min, 0.4 ml/min at 10.1 min, 0.4 ml/min at 14.4 min, 0.3 ml/min at 14.5 min
AC$CHROMATOGRAPHY: RETENTION_TIME 3.814383
AC$CHROMATOGRAPHY: SOLVENT A water including 0.1% formic acid
AC$CHROMATOGRAPHY: SOLVENT B acetonitrile including 0.1% formic acid
MS$FOCUSED_ION: PRECURSOR_TYPE [M-H]-
MS$FOCUSED_ION: PRECURSOR_M/Z 339.17141614783
PK$SPLASH: splash10-000i-0159000000-a982e8c3a2f20e69007c
PK$NUM_PEAK: 53
PK$PEAK: m/z int. rel.int.
  60.98946 6.0 6
  69.0324 6.0 6
  130.07097 14.0 14
  142.06676 5.0 5
  154.05862 6.0 6
  154.06335 12.0 12
  155.07227 14.0 14
  155.08182 5.0 5
  156.08386 6.0 6
  168.07527 6.0 6
  169.07231 6.0 6
  169.08282 14.0 14
  170.07819 6.0 6
  178.09177 11.0 11
  180.08154 7.0 7
  183.09241 8.0 8
  192.10518 5.0 5
  193.07884 5.0 5
  195.09103 7.0 7
  208.08817 6.0 6
  209.10741 6.0 6
  211.13254 18.0 18
  220.10353 5.0 5
  220.60435 8.0 8
  221.112 13.0 13
  222.10759 5.0 5
  222.13954 8.0 8
  231.22028 9.0 9
  265.17892 8.0 8
  267.14383 6.0 6
  275.14938 6.0 6
  276.1514 9.0 9
  277.17032 326.0 326
  278.16837 30.0 30
  278.19431 6.0 6
  278.81985 9.0 9
  291.13983 6.0 6
  291.15021 6.0 6
  293.15775 16.0 16
  293.16681 52.0 52
  295.17905 93.0 93
  296.17517 20.0 20
  296.19324 13.0 13
  299.34705 6.0 6
  299.42511 7.0 7
  319.12717 6.0 6
  321.08124 8.0 8
  321.14154 5.0 5
  321.1586 35.0 35
  321.1796 7.0 7
  322.16443 22.0 22
  323.16827 7.0 7
  339.16959 1000.0 999
//
