ACCESSION: MSBNK-RIKEN-PR100712
RECORD_TITLE: (S)-3-Amino-5-methylhexanoic acid; LC-ESI-QTOF; MS2; CE:Ramp 5-60 V; [M-H]-
DATE: 2016.01.19 (Created 2009.09.10, modified 2012.10.22)
AUTHORS: Matsuda F, Suzuki M, Sawada Y, Plant Science Center, RIKEN.
LICENSE: CC BY-SA
COMMENT: Acquisition and generation of the data is financially supported in part by CREST/JST.
CH$NAME: L-beta-Homoleucine
CH$NAME: (S)-3-Amino-5-methylhexanoic acid
CH$COMPOUND_CLASS: Amino acids
CH$FORMULA: C7H15NO2
CH$EXACT_MASS: 145.11028
CH$SMILES: CC(C)CC(N)CC(O)=O
CH$IUPAC: InChI=1S/C7H15NO2/c1-5(2)3-6(8)4-7(9)10/h5-6H,3-4,8H2,1-2H3,(H,9,10)/t6-/m0/s1
CH$LINK: CAS 96386-92-4
CH$LINK: CHEMSPIDER 2042253
CH$LINK: PUBCHEM CID:2761525
CH$LINK: INCHIKEY MLYMSIKVLAPCAK-LURJTMIESA-N
CH$LINK: COMPTOX DTXSID70375813
AC$INSTRUMENT: UPLC Q-Tof Premier, Waters
AC$INSTRUMENT_TYPE: LC-ESI-QTOF
AC$MASS_SPECTROMETRY: MS_TYPE MS2
AC$MASS_SPECTROMETRY: ION_MODE NEGATIVE
AC$MASS_SPECTROMETRY: COLLISION_ENERGY Ramp 5-60 V
AC$MASS_SPECTROMETRY: DATAFORMAT Continuum
AC$MASS_SPECTROMETRY: DATE 2008.07.28
AC$MASS_SPECTROMETRY: DESOLVATION_GAS_FLOW 600.0 L/Hr
AC$MASS_SPECTROMETRY: DESOLVATION_TEMPERATURE 420 C
AC$MASS_SPECTROMETRY: FRAGMENTATION_METHOD LOW-ENERGY CID
AC$MASS_SPECTROMETRY: IONIZATION ESI
AC$MASS_SPECTROMETRY: SCANNING 1.0 sec/scan (m/z = 50-1000)
AC$MASS_SPECTROMETRY: SOURCE_TEMPERATURE 120 C
AC$CHROMATOGRAPHY: CAPILLARY_VOLTAGE 3.0 kV
AC$CHROMATOGRAPHY: SAMPLING_CONE 23.0 V
AC$CHROMATOGRAPHY: SOLVENT A CH3CN(0.1%HCOOH)
AC$CHROMATOGRAPHY: SOLVENT B H2O(0.1%HCOOH)
MS$FOCUSED_ION: PRECURSOR_M/Z 144.10247
MS$FOCUSED_ION: PRECURSOR_TYPE [M-H]-
PK$SPLASH: splash10-0006-0900000000-9260d300b6cc54d8a9ba
PK$NUM_PEAK: 2
PK$PEAK: m/z int. rel.int.
  143.8994 21.91 240
  144.1025 91.36 999
//
