ACCESSION: MSBNK-RIKEN-PR300262
RECORD_TITLE: Isorhynchophylline; LC-ESI-QTOF; MS2
DATE: 2019.03.28
AUTHORS: Tetsuya Mori, Center for Sustainable Resource Science, RIKEN
LICENSE: CC BY-NC-SA
PUBLICATION: Tsugawa H., Nakabayashi R., Mori T., Yamada Y., Takahashi M., Rai A., Sugiyama R., Yamamoto H., Nakaya T., Yamazaki M., Kooke R., Bac-Molenaar JA., Oztolan-Erol N., Keurentjes JJB., Arita M., Saito K. (2019) "A cheminformatics approach to characterize metabolomes in stable-isotope-labeled organisms" Nature Methods 16(4):295-298. [doi:10.1038/s41592-019-0358-2]
COMMENT: registered in RIKEN PlaSMA
CH$NAME: Isorhynchophylline
CH$COMPOUND_CLASS: Indolizidines
CH$FORMULA: C22H28N2O4
CH$EXACT_MASS: 384.476
CH$SMILES: CC[C@H]1CN2CC[C@]3([C@@H]2C[C@@H]1\C(=C/OC)C(=O)OC)C(O)=NC1=CC=CC=C31
CH$IUPAC: InChI=1S/C22H28N2O4/c1-4-14-12-24-10-9-22(17-7-5-6-8-18(17)23-21(22)26)19(24)11-15(14)16(13-27-2)20(25)28-3/h5-8,13-15,19H,4,9-12H2,1-3H3,(H,23,26)/b16-13+/t14-,15-,19-,22-/m0/s1
CH$LINK: INCHIKEY DAXYUDFNWXHGBE-VKCGGMIFSA-N
AC$INSTRUMENT: LC, Waters Acquity UPLC System; MS, Waters Xevo G2 Q-Tof
AC$INSTRUMENT_TYPE: LC-ESI-QTOF
AC$MASS_SPECTROMETRY: MS_TYPE MS2
AC$MASS_SPECTROMETRY: ION_MODE POSITIVE
AC$MASS_SPECTROMETRY: COLLISION_ENERGY 6V
AC$MASS_SPECTROMETRY: DESOLVATION_GAS_FLOW 800/h
AC$MASS_SPECTROMETRY: DESOLVATION_TEMPERATURE 450 C
AC$MASS_SPECTROMETRY: IONIZATION ESI
AC$CHROMATOGRAPHY: CAPILLARY_VOLTAGE +3.00 kV
AC$CHROMATOGRAPHY: COLUMN_NAME Acquity bridged ethyl hybrid C18 (1.7 um, 2.1 mm * 100 mm, Waters)
AC$CHROMATOGRAPHY: COLUMN_TEMPERATURE 40 C
AC$CHROMATOGRAPHY: FLOW_GRADIENT A/B = (99.5%/0.5% at 0 min, 99.5%/0.5% at 0.1 min, 20%/80% at 10 min, 0.5%/99.5% at 10.1 min, 0.5%/99.5% at 12.0 min, 99.5%/0.5% at 12.1 min, 99.5%/0.5% at 15.0 min)
AC$CHROMATOGRAPHY: FLOW_RATE 0.3 ml/min at 0 min, 0.3 ml/min at 10 min, 0.4 ml/min at 10.1 min, 0.4 ml/min at 14.4 min, 0.3 ml/min at 14.5 min
AC$CHROMATOGRAPHY: RETENTION_TIME 4.634133
AC$CHROMATOGRAPHY: SOLVENT A water including 0.1% formic acid
AC$CHROMATOGRAPHY: SOLVENT B acetonitrile including 0.1% formic acid
MS$FOCUSED_ION: PRECURSOR_TYPE [M+H]+
MS$FOCUSED_ION: PRECURSOR_M/Z 385.2121838
PK$SPLASH: splash10-000i-0119000000-cb1bfdbe96c86e6f7d97
PK$NUM_PEAK: 25
PK$PEAK: m/z int. rel.int.
  108.08049 10.0 10
  110.09531 10.0 10
  132.04404 7.0 7
  132.07954 10.0 10
  142.06381 10.0 10
  144.08182 5.0 5
  158.05954 12.0 12
  160.0742 75.0 75
  161.07339 6.0 6
  187.08643 43.0 43
  188.08842 6.0 6
  213.10191 7.0 7
  215.11891 9.0 9
  241.13393 149.0 149
  242.13724 25.0 25
  265.13751 6.0 6
  267.14981 40.0 40
  268.15424 6.0 6
  269.16635 22.0 22
  321.1586 16.0 16
  353.18619 139.0 139
  354.19 27.0 27
  385.21396 1000.0 999
  385.27118 31.0 31
  385.32358 5.0 5
//
