ACCESSION: MSBNK-RIKEN-PR309340
RECORD_TITLE: 12:4+3O fatty acyl hexoside; LC-ESI-QTOF; MS2
DATE: 2019.03.28
AUTHORS: Tetsuya Mori, Center for Sustainable Resource Science, RIKEN
LICENSE: CC BY-NC-SA
PUBLICATION: Tsugawa H., Nakabayashi R., Mori T., Yamada Y., Takahashi M., Rai A., Sugiyama R., Yamamoto H., Nakaya T., Yamazaki M., Kooke R., Bac-Molenaar JA., Oztolan-Erol N., Keurentjes JJB., Arita M., Saito K. (2019) "A cheminformatics approach to characterize metabolomes in stable-isotope-labeled organisms" Nature Methods 16(4):295-298. [doi:10.1038/s41592-019-0358-2]
COMMENT: Annotation level-3
CH$NAME: 12:4+3O fatty acyl hexoside
CH$COMPOUND_CLASS: Fatty acyl hexosides
CH$FORMULA: C18H28O9
CH$EXACT_MASS: 388.413
CH$SMILES: O=C(O)CC2CCC(=O)C2(CC=CCCOC1OC(CO)C(O)C(O)C1(O))
CH$IUPAC: InChI=1S/C18H28O9/c19-9-13-15(23)16(24)17(25)18(27-13)26-7-3-1-2-4-11-10(8-14(21)22)5-6-12(11)20/h1-2,10-11,13,15-19,23-25H,3-9H2,(H,21,22)
CH$LINK: INCHIKEY JFDNMLUPLXZXGV-UHFFFAOYSA-N
AC$INSTRUMENT: LC, Waters Acquity UPLC System; MS, Waters Xevo G2 Q-Tof
AC$INSTRUMENT_TYPE: LC-ESI-QTOF
AC$MASS_SPECTROMETRY: MS_TYPE MS2
AC$MASS_SPECTROMETRY: ION_MODE NEGATIVE
AC$MASS_SPECTROMETRY: COLLISION_ENERGY 6V
AC$MASS_SPECTROMETRY: DESOLVATION_GAS_FLOW 800/h
AC$MASS_SPECTROMETRY: DESOLVATION_TEMPERATURE 450 C
AC$MASS_SPECTROMETRY: IONIZATION ESI
AC$CHROMATOGRAPHY: CAPILLARY_VOLTAGE +3.00 kV
AC$CHROMATOGRAPHY: COLUMN_NAME Acquity bridged ethyl hybrid C18 (1.7 um, 2.1 mm * 100 mm, Waters)
AC$CHROMATOGRAPHY: COLUMN_TEMPERATURE 40 C
AC$CHROMATOGRAPHY: FLOW_GRADIENT A/B = (99.5%/0.5% at 0 min, 99.5%/0.5% at 0.1 min, 20%/80% at 10 min, 0.5%/99.5% at 10.1 min, 0.5%/99.5% at 12.0 min, 99.5%/0.5% at 12.1 min, 99.5%/0.5% at 15.0 min)
AC$CHROMATOGRAPHY: FLOW_RATE 0.3 ml/min at 0 min, 0.3 ml/min at 10 min, 0.4 ml/min at 10.1 min, 0.4 ml/min at 14.4 min, 0.3 ml/min at 14.5 min
AC$CHROMATOGRAPHY: RETENTION_TIME 3.4
AC$CHROMATOGRAPHY: SOLVENT A water including 0.1% formic acid
AC$CHROMATOGRAPHY: SOLVENT B acetonitrile including 0.1% formic acid
MS$FOCUSED_ION: PRECURSOR_TYPE [M-H]-
MS$FOCUSED_ION: PRECURSOR_M/Z 387.1656
PK$SPLASH: splash10-000i-0109000000-c528f162c3ffa6cfeb4b
PK$NUM_PEAK: 16
PK$PEAK: m/z int. rel.int.
  59.01358 47.0 28
  83.01598 33.0 20
  89.0215 28.0 17
  101.02573 113.0 68
  109.05954 21.0 13
  113.02206 22.0 13
  119.02928 24.0 15
  119.0385 81.0 49
  163.10968 21.0 13
  178.97581 20.0 12
  207.09837 129.0 78
  207.11446 30.0 18
  224.03763 20.0 12
  342.13898 19.0 11
  369.16312 20.0 12
  387.16412 1653.0 999
//
