ACCESSION: MSBNK-RIKEN-PR300270
RECORD_TITLE: 5(S)-5-carboxystrictosidine; LC-ESI-QTOF; MS2
DATE: 2019.03.28
AUTHORS: Tetsuya Mori, Center for Sustainable Resource Science, RIKEN
LICENSE: CC BY-NC-SA
PUBLICATION: Tsugawa H., Nakabayashi R., Mori T., Yamada Y., Takahashi M., Rai A., Sugiyama R., Yamamoto H., Nakaya T., Yamazaki M., Kooke R., Bac-Molenaar JA., Oztolan-Erol N., Keurentjes JJB., Arita M., Saito K. (2019) "A cheminformatics approach to characterize metabolomes in stable-isotope-labeled organisms" Nature Methods 16(4):295-298. [doi:10.1038/s41592-019-0358-2]
COMMENT: registered in RIKEN PlaSMA
CH$NAME: 5(S)-5-carboxystrictosidine
CH$COMPOUND_CLASS: Terpene glycosides
CH$FORMULA: C28H34N2O11
CH$EXACT_MASS: 574.583
CH$SMILES: COC(=O)C1=CO[C@@H](O[C@@H]2O[C@H](CO)[C@@H](O)[C@H](O)[C@H]2O)[C@H](C=C)[C@@H]1C[C@@H]1N[C@@H](CC2=C1NC1=CC=CC=C21)C(O)=O
CH$IUPAC: InChI=1S/C28H34N2O11/c1-3-12-14(8-18-21-15(9-19(29-18)25(35)36)13-6-4-5-7-17(13)30-21)16(26(37)38-2)11-39-27(12)41-28-24(34)23(33)22(32)20(10-31)40-28/h3-7,11-12,14,18-20,22-24,27-34H,1,8-10H2,2H3,(H,35,36)/t12-,14+,18+,19+,20-,22-,23+,24-,27+,28+/m1/s1
CH$LINK: INCHIKEY LHKZIVMTXZLOTP-RMKGEEGASA-N
AC$INSTRUMENT: LC, Waters Acquity UPLC System; MS, Waters Xevo G2 Q-Tof
AC$INSTRUMENT_TYPE: LC-ESI-QTOF
AC$MASS_SPECTROMETRY: MS_TYPE MS2
AC$MASS_SPECTROMETRY: ION_MODE POSITIVE
AC$MASS_SPECTROMETRY: COLLISION_ENERGY 6V
AC$MASS_SPECTROMETRY: DESOLVATION_GAS_FLOW 800/h
AC$MASS_SPECTROMETRY: DESOLVATION_TEMPERATURE 450 C
AC$MASS_SPECTROMETRY: IONIZATION ESI
AC$CHROMATOGRAPHY: CAPILLARY_VOLTAGE +3.00 kV
AC$CHROMATOGRAPHY: COLUMN_NAME Acquity bridged ethyl hybrid C18 (1.7 um, 2.1 mm * 100 mm, Waters)
AC$CHROMATOGRAPHY: COLUMN_TEMPERATURE 40 C
AC$CHROMATOGRAPHY: FLOW_GRADIENT A/B = (99.5%/0.5% at 0 min, 99.5%/0.5% at 0.1 min, 20%/80% at 10 min, 0.5%/99.5% at 10.1 min, 0.5%/99.5% at 12.0 min, 99.5%/0.5% at 12.1 min, 99.5%/0.5% at 15.0 min)
AC$CHROMATOGRAPHY: FLOW_RATE 0.3 ml/min at 0 min, 0.3 ml/min at 10 min, 0.4 ml/min at 10.1 min, 0.4 ml/min at 14.4 min, 0.3 ml/min at 14.5 min
AC$CHROMATOGRAPHY: RETENTION_TIME 4.13255
AC$CHROMATOGRAPHY: SOLVENT A water including 0.1% formic acid
AC$CHROMATOGRAPHY: SOLVENT B acetonitrile including 0.1% formic acid
MS$FOCUSED_ION: PRECURSOR_TYPE [M+H]+
MS$FOCUSED_ION: PRECURSOR_M/Z 575.2235364
PK$SPLASH: splash10-000j-0569000000-4ac870a03aeedf7fbbfd
PK$NUM_PEAK: 414
PK$PEAK: m/z int. rel.int.
  81.03317 14.0 14
  81.07524 6.0 6
  85.02784 56.0 56
  87.04301 8.0 8
  91.04235 7.0 7
  97.02876 28.0 28
  103.04174 9.0 9
  106.07243 5.0 5
  107.05039 14.0 14
  109.02567 15.0 15
  109.03016 6.0 6
  115.03958 6.0 6
  118.06349 10.0 10
  123.04417 25.0 25
  124.04437 9.0 9
  124.07462 9.0 9
  127.03936 44.0 44
  130.06499 166.0 166
  131.07498 7.0 7
  132.04456 6.0 6
  132.08139 13.0 13
  133.08554 12.0 12
  135.04698 5.0 5
  136.04366 7.0 7
  138.05714 6.0 6
  139.03828 68.0 68
  140.04276 6.0 6
  140.06377 5.0 5
  141.05362 9.0 9
  144.06248 7.0 7
  144.08086 221.0 221
  145.04906 24.0 24
  145.05588 11.0 11
  145.07028 7.0 7
  145.08556 23.0 23
  146.06256 69.0 69
  146.08791 7.0 7
  151.0369 40.0 40
  151.04541 16.0 16
  152.03972 6.0 6
  153.05634 9.0 9
  154.06476 7.0 7
  154.47925 5.0 5
  155.07173 9.0 9
  156.07964 53.0 53
  157.08553 13.0 13
  158.08931 25.0 25
  158.09676 64.0 64
  159.04256 29.0 29
  159.09457 12.0 12
  160.07405 7.0 7
  161.05594 9.0 9
  163.04012 10.0 10
  164.06853 7.0 7
  165.0233 7.0 7
  165.04062 9.0 9
  165.05574 314.0 314
  166.05754 43.0 43
  167.06015 7.0 7
  167.07291 14.0 14
  168.08063 67.0 67
  169.05421 9.0 9
  169.07729 129.0 129
  170.05885 6.0 6
  170.07756 17.0 17
  170.09129 25.0 25
  171.07498 5.0 5
  175.07097 6.0 6
  176.06845 14.0 14
  176.37456 5.0 5
  177.05719 30.0 30
  180.08104 34.0 34
  180.10516 13.0 13
  181.08383 7.0 7
  182.04482 5.0 5
  182.09534 24.0 24
  183.061 16.0 16
  183.07927 8.0 8
  184.07501 8.0 8
  185.10338 5.0 5
  185.11072 7.0 7
  188.0544 21.0 21
  188.07057 1000.0 999
  189.05408 7.0 7
  189.07532 134.0 134
  190.07159 10.0 10
  190.08301 12.0 12
  191.06917 30.0 30
  193.09387 7.0 7
  194.07646 6.0 6
  195.07817 9.0 9
  195.09502 6.0 6
  196.0751 7.0 7
  197.08075 7.0 7
  197.11766 9.0 9
  198.0724 6.0 6
  198.08382 9.0 9
  200.06938 133.0 133
  201.07501 23.0 23
  202.0769 18.0 18
  202.08575 24.0 24
  203.0889 9.0 9
  204.06502 8.0 8
  204.08904 8.0 8
  205.09476 30.0 30
  206.06036 6.0 6
  206.09857 19.0 19
  207.07414 5.0 5
  208.06744 9.0 9
  208.07614 17.0 17
  208.0977 31.0 31
  208.11203 17.0 17
  209.08334 18.0 18
  209.10033 10.0 10
  210.08682 27.0 27
  210.09947 6.0 6
  212.06871 8.0 8
  213.0808 23.0 23
  214.08589 201.0 201
  215.05708 5.0 5
  215.06772 23.0 23
  215.08278 139.0 139
  216.06827 5.0 5
  216.10657 5.0 5
  217.0788 8.0 8
  217.09764 48.0 48
  218.04585 7.0 7
  218.06989 6.0 6
  218.08957 9.0 9
  218.10489 6.0 6
  219.07689 6.0 6
  220.07491 6.0 6
  220.09056 6.0 6
  220.11177 27.0 27
  221.07285 7.0 7
  221.08847 7.0 7
  221.10844 12.0 12
  222.10802 10.0 10
  224.06499 17.0 17
  224.0779 11.0 11
  224.09105 5.0 5
  225.07448 23.0 23
  225.71776 6.0 6
  226.08018 16.0 16
  226.09644 6.0 6
  226.10841 29.0 29
  229.08981 10.0 10
  230.09074 7.0 7
  231.11319 89.0 89
  232.10553 11.0 11
  232.1185 29.0 29
  234.0932 11.0 11
  234.1237 19.0 19
  234.13362 7.0 7
  235.06589 15.0 15
  236.07571 16.0 16
  237.09589 13.0 13
  238.08519 161.0 161
  238.11304 16.0 16
  238.1268 6.0 6
  239.08839 53.0 53
  239.10333 8.0 8
  239.12216 5.0 5
  239.13449 6.0 6
  240.10158 9.0 9
  241.09799 6.0 6
  242.10457 8.0 8
  244.11476 61.0 61
  246.09052 11.0 11
  246.1292 14.0 14
  247.11986 10.0 10
  247.13805 11.0 11
  248.06917 56.0 56
  248.08182 32.0 32
  248.11099 8.0 8
  249.06845 9.0 9
  249.08279 13.0 13
  249.1048 7.0 7
  250.07185 13.0 13
  250.08611 12.0 12
  250.12041 9.0 9
  251.06979 6.0 6
  251.08084 13.0 13
  251.09375 18.0 18
  252.09773 25.0 25
  253.10661 7.0 7
  254.0609 8.0 8
  254.08743 23.0 23
  254.09831 7.0 7
  255.07423 6.0 6
  256.08191 8.0 8
  257.08264 7.0 7
  258.09552 5.0 5
  259.10867 7.0 7
  260.11087 9.0 9
  262.08725 12.0 12
  262.10458 5.0 5
  262.12247 55.0 55
  262.13712 8.0 8
  263.07129 8.0 8
  263.08667 13.0 13
  263.11819 7.0 7
  264.10135 17.0 17
  264.13831 26.0 26
  264.15244 5.0 5
  265.09586 143.0 143
  265.112 17.0 17
  265.13385 6.0 6
  265.1478 13.0 13
  266.08163 17.0 17
  266.10764 31.0 31
  266.11896 20.0 20
  267.08136 9.0 9
  267.11526 34.0 34
  268.09509 11.0 11
  269.11737 5.0 5
  270.07965 8.0 8
  270.11426 67.0 67
  272.08936 12.0 12
  272.10425 42.0 42
  272.11533 32.0 32
  273.0947 5.0 5
  273.11191 22.0 22
  273.14468 7.0 7
  274.08792 13.0 13
  274.10703 18.0 18
  274.11804 11.0 11
  274.13107 5.0 5
  275.12912 8.0 8
  276.06342 12.0 12
  276.10587 34.0 34
  277.07935 14.0 14
  278.07614 8.0 8
  278.09546 9.0 9
  278.10953 6.0 6
  279.08783 8.0 8
  279.12164 5.0 5
  280.09338 9.0 9
  280.13898 41.0 41
  281.09952 13.0 13
  281.11343 8.0 8
  282.0975 28.0 28
  283.08707 6.0 6
  283.10495 14.0 14
  286.08035 9.0 9
  288.11301 7.0 7
  289.104 10.0 10
  289.12207 8.0 8
  289.14197 7.0 7
  290.12 119.0 119
  290.13068 35.0 35
  291.10767 13.0 13
  291.12494 22.0 22
  291.53323 5.0 5
  292.10385 13.0 13
  293.09433 50.0 50
  293.12872 124.0 124
  294.05988 6.0 6
  294.07538 66.0 66
  294.11142 17.0 17
  294.13568 55.0 55
  295.08331 114.0 114
  295.12689 13.0 13
  295.14285 9.0 9
  295.15625 9.0 9
  296.07797 10.0 10
  296.09683 17.0 17
  298.11017 13.0 13
  299.10913 11.0 11
  299.13757 6.0 6
  300.10257 87.0 87
  301.07925 6.0 6
  301.1011 30.0 30
  301.12686 7.0 7
  302.0986 7.0 7
  302.12335 13.0 13
  303.12201 6.0 6
  304.10504 14.0 14
  304.11789 11.0 11
  304.13647 21.0 21
  305.13733 8.0 8
  306.09955 7.0 7
  306.11105 7.0 7
  307.11002 13.0 13
  308.11548 55.0 55
  308.12924 125.0 125
  309.07843 17.0 17
  309.10474 21.0 21
  309.13107 13.0 13
  310.07733 6.0 6
  310.13474 7.0 7
  311.07205 12.0 12
  311.10306 344.0 344
  311.1441 28.0 28
  312.09698 30.0 30
  312.10757 25.0 25
  312.11877 21.0 21
  312.1525 9.0 9
  313.09842 6.0 6
  313.11105 23.0 23
  313.13593 6.0 6
  317.11218 5.0 5
  317.133 42.0 42
  318.05484 6.0 6
  318.082 9.0 9
  318.11093 74.0 74
  318.12473 23.0 23
  319.10925 17.0 17
  319.12027 13.0 13
  319.13416 12.0 12
  319.15488 7.0 7
  320.12439 21.0 21
  320.14114 10.0 10
  321.14243 15.0 15
  322.14142 184.0 184
  322.15402 65.0 65
  323.14792 42.0 42
  324.11935 6.0 6
  324.13107 12.0 12
  324.14749 7.0 7
  325.10364 12.0 12
  325.12045 67.0 67
  326.09402 30.0 30
  326.1091 84.0 84
  326.13071 9.0 9
  327.08847 10.0 10
  327.11084 49.0 49
  327.13037 30.0 30
  328.09637 13.0 13
  328.11206 24.0 24
  328.12396 13.0 13
  329.11346 16.0 16
  332.11951 13.0 13
  332.13721 10.0 10
  335.08127 5.0 5
  335.13855 281.0 281
  336.11993 47.0 47
  336.14426 56.0 56
  337.13132 17.0 17
  338.14185 10.0 10
  340.13095 15.0 15
  340.15607 143.0 143
  341.13464 7.0 7
  341.15109 13.0 13
  341.16467 13.0 13
  341.17569 6.0 6
  342.15405 11.0 11
  343.07675 7.0 7
  343.10089 7.0 7
  343.13144 224.0 224
  344.11496 9.0 9
  344.12863 30.0 30
  344.14182 17.0 17
  345.12604 17.0 17
  346.10599 113.0 113
  347.10168 14.0 14
  347.11237 25.0 25
  347.12643 6.0 6
  348.11725 7.0 7
  349.14359 5.0 5
  350.12817 15.0 15
  350.14554 18.0 18
  351.14957 16.0 16
  352.15671 7.0 7
  353.13791 10.0 10
  360.11987 28.0 28
  360.13055 12.0 12
  361.12881 10.0 10
  363.09845 5.0 5
  363.13556 130.0 130
  364.06876 9.0 9
  364.10223 28.0 28
  364.12051 115.0 115
  364.14545 28.0 28
  365.1221 46.0 46
  367.16687 29.0 29
  368.15424 6.0 6
  368.17416 9.0 9
  369.11758 6.0 6
  369.18015 6.0 6
  375.12723 5.0 5
  377.1445 18.0 18
  377.15802 5.0 5
  378.09283 9.0 9
  378.13596 217.0 217
  379.13705 56.0 56
  379.15228 12.0 12
  381.11932 18.0 18
  381.14551 115.0 115
  382.12216 10.0 10
  382.14725 24.0 24
  382.16446 11.0 11
  395.12448 7.0 7
  395.16187 260.0 260
  396.06882 8.0 8
  396.09195 16.0 16
  396.14536 682.0 681
  396.17224 33.0 33
  397.14883 242.0 242
  398.14474 22.0 22
  398.1582 13.0 13
  413.14038 22.0 22
  413.17133 182.0 182
  413.20258 14.0 14
  414.17227 38.0 38
  415.17307 6.0 6
  455.18051 5.0 5
  558.15942 6.0 6
  558.17963 25.0 25
  558.20276 57.0 57
  558.22803 10.0 10
  559.2027 25.0 25
  575.21924 8.0 8
  575.2406 23.0 23
//
