ACCESSION: MSBNK-RIKEN-PR300249
RECORD_TITLE: Gelsemine; LC-ESI-QTOF; MS2
DATE: 2019.03.28
AUTHORS: Tetsuya Mori, Center for Sustainable Resource Science, RIKEN
LICENSE: CC BY-NC-SA
PUBLICATION: Tsugawa H., Nakabayashi R., Mori T., Yamada Y., Takahashi M., Rai A., Sugiyama R., Yamamoto H., Nakaya T., Yamazaki M., Kooke R., Bac-Molenaar JA., Oztolan-Erol N., Keurentjes JJB., Arita M., Saito K. (2019) "A cheminformatics approach to characterize metabolomes in stable-isotope-labeled organisms" Nature Methods 16(4):295-298. [doi:10.1038/s41592-019-0358-2]
COMMENT: registered in RIKEN PlaSMA
CH$NAME: Gelsemine
CH$COMPOUND_CLASS: Gelsemium alkaloids
CH$FORMULA: C20H22N2O2
CH$EXACT_MASS: 322.408
CH$SMILES: CN1C[C@@]2(C=C)C3C[C@H]4OC[C@@H]3[C@@H]1[C@@H]2[C@@]41C(O)=NC2=CC=CC=C12
CH$IUPAC: InChI=1S/C20H22N2O2/c1-3-19-10-22(2)16-11-9-24-15(8-13(11)19)20(17(16)19)12-6-4-5-7-14(12)21-18(20)23/h3-7,11,13,15-17H,1,8-10H2,2H3,(H,21,23)/t11-,13?,15+,16+,17-,19-,20-/m0/s1
CH$LINK: INCHIKEY NFYYATWFXNPTRM-ICFOCEFXSA-N
AC$INSTRUMENT: LC, Waters Acquity UPLC System; MS, Waters Xevo G2 Q-Tof
AC$INSTRUMENT_TYPE: LC-ESI-QTOF
AC$MASS_SPECTROMETRY: MS_TYPE MS2
AC$MASS_SPECTROMETRY: ION_MODE POSITIVE
AC$MASS_SPECTROMETRY: COLLISION_ENERGY 6V
AC$MASS_SPECTROMETRY: DESOLVATION_GAS_FLOW 800/h
AC$MASS_SPECTROMETRY: DESOLVATION_TEMPERATURE 450 C
AC$MASS_SPECTROMETRY: IONIZATION ESI
AC$CHROMATOGRAPHY: CAPILLARY_VOLTAGE +3.00 kV
AC$CHROMATOGRAPHY: COLUMN_NAME Acquity bridged ethyl hybrid C18 (1.7 um, 2.1 mm * 100 mm, Waters)
AC$CHROMATOGRAPHY: COLUMN_TEMPERATURE 40 C
AC$CHROMATOGRAPHY: FLOW_GRADIENT A/B = (99.5%/0.5% at 0 min, 99.5%/0.5% at 0.1 min, 20%/80% at 10 min, 0.5%/99.5% at 10.1 min, 0.5%/99.5% at 12.0 min, 99.5%/0.5% at 12.1 min, 99.5%/0.5% at 15.0 min)
AC$CHROMATOGRAPHY: FLOW_RATE 0.3 ml/min at 0 min, 0.3 ml/min at 10 min, 0.4 ml/min at 10.1 min, 0.4 ml/min at 14.4 min, 0.3 ml/min at 14.5 min
AC$CHROMATOGRAPHY: RETENTION_TIME 3.21075
AC$CHROMATOGRAPHY: SOLVENT A water including 0.1% formic acid
AC$CHROMATOGRAPHY: SOLVENT B acetonitrile including 0.1% formic acid
MS$FOCUSED_ION: PRECURSOR_TYPE [M+H]+
MS$FOCUSED_ION: PRECURSOR_M/Z 323.1754044
PK$SPLASH: splash10-00dr-2792000000-8abbdefadaf36d3ab8ca
PK$NUM_PEAK: 248
PK$PEAK: m/z int. rel.int.
  55.03883 6.0 6
  67.05634 7.0 7
  69.0685 7.0 7
  70.02856 7.0 7
  70.05157 22.0 22
  70.06548 637.0 636
  71.06796 39.0 39
  72.08356 12.0 12
  83.07387 5.0 5
  86.04416 5.0 5
  86.06074 63.0 63
  88.07417 41.0 41
  91.05187 41.0 41
  92.04313 5.0 5
  93.06956 6.0 6
  93.10475 5.0 5
  94.06284 18.0 18
  94.06867 11.0 11
  96.08977 6.0 6
  103.04907 5.0 5
  105.05926 6.0 6
  105.06553 20.0 20
  105.07224 8.0 8
  107.01106 5.0 5
  108.0846 15.0 15
  109.0879 16.0 16
  115.0555 38.0 38
  116.06432 10.0 10
  117.05882 20.0 20
  117.07013 76.0 76
  117.0795 9.0 9
  118.06479 18.0 18
  118.07459 15.0 15
  118.07952 15.0 15
  119.06917 8.0 8
  119.08588 17.0 17
  120.03761 6.0 6
  120.08746 7.0 7
  121.06686 14.0 14
  121.09148 7.0 7
  122.0688 7.0 7
  128.04897 19.0 19
  129.06999 21.0 21
  130.06664 24.0 24
  131.08243 169.0 169
  132.0451 91.0 91
  132.05928 5.0 5
  132.08136 28.0 28
  132.09196 11.0 11
  133.04597 10.0 10
  133.05705 12.0 12
  133.08395 8.0 8
  133.09415 7.0 7
  134.04253 10.0 10
  134.05801 27.0 27
  134.06546 9.0 9
  134.09648 38.0 38
  135.10493 21.0 21
  141.06476 8.0 8
  141.07277 15.0 15
  141.771 5.0 5
  143.07442 6.0 6
  143.08727 7.0 7
  144.08557 10.0 10
  145.08937 10.0 10
  146.05956 141.0 141
  146.09605 13.0 13
  147.03546 6.0 6
  147.05322 8.0 8
  147.0647 14.0 14
  147.07831 11.0 11
  147.10608 8.0 8
  148.10007 5.0 5
  148.11192 25.0 25
  149.07782 8.0 8
  150.1028 11.0 11
  150.61636 5.0 5
  158.06107 112.0 112
  159.04518 9.0 9
  159.05841 11.0 11
  159.07817 79.0 79
  159.08597 18.0 18
  160.07417 25.0 25
  160.0869 45.0 45
  160.10779 23.0 23
  161.12611 12.0 12
  162.05157 8.0 8
  162.11821 6.0 6
  162.12788 9.0 9
  163.10043 9.0 9
  163.14137 7.0 7
  164.10515 6.0 6
  165.07797 7.0 7
  165.1115 9.0 9
  166.06458 9.0 9
  167.0696 9.0 9
  168.07948 13.0 13
  169.09637 5.0 5
  170.05225 9.0 9
  171.05191 13.0 13
  172.07303 25.0 25
  173.08087 8.0 8
  178.05513 20.0 20
  178.06624 70.0 70
  179.06694 17.0 17
  180.08049 16.0 16
  180.0927 6.0 6
  182.06349 13.0 13
  182.10147 8.0 8
  183.05884 8.0 8
  183.0695 12.0 12
  184.05847 8.0 8
  184.07585 47.0 47
  188.07512 12.0 12
  190.0638 7.0 7
  190.11548 9.0 9
  190.12317 17.0 17
  191.08319 19.0 19
  191.1261 53.0 53
  191.14291 9.0 9
  192.08092 20.0 20
  192.13147 13.0 13
  193.08305 6.0 6
  193.44046 5.0 5
  194.08755 5.0 5
  194.98073 10.0 10
  195.04703 6.0 6
  195.06615 351.0 351
  196.07391 303.0 303
  197.06367 10.0 10
  197.08109 75.0 75
  198.08839 21.0 21
  203.07761 7.0 7
  204.07887 6.0 6
  206.09438 21.0 21
  207.03957 6.0 6
  208.05954 9.0 9
  208.07739 92.0 92
  208.11671 26.0 26
  209.07317 46.0 46
  209.09071 9.0 9
  210.09183 217.0 217
  210.12379 6.0 6
  210.43909 5.0 5
  211.09062 14.0 14
  212.10802 6.0 6
  212.53981 7.0 7
  215.07184 7.0 7
  216.08142 12.0 12
  217.08134 31.0 31
  217.09277 12.0 12
  218.04953 8.0 8
  218.06175 8.0 8
  218.0825 22.0 22
  218.09674 228.0 228
  218.114 10.0 10
  219.09689 47.0 47
  220.06972 19.0 19
  220.07831 10.0 10
  220.11311 49.0 49
  221.07092 8.0 8
  221.11514 20.0 20
  221.13147 6.0 6
  222.08774 32.0 32
  222.10004 7.0 7
  223.08826 11.0 11
  223.10156 19.0 19
  223.88045 5.0 5
  224.09122 7.0 7
  224.11067 24.0 24
  225.1002 5.0 5
  225.11218 8.0 8
  228.07724 11.0 11
  230.09755 31.0 31
  230.11232 6.0 6
  231.10707 13.0 13
  233.07909 29.0 29
  234.08313 16.0 16
  234.09261 33.0 33
  235.12917 7.0 7
  236.04269 6.0 6
  236.07901 32.0 32
  236.10797 865.0 864
  236.1433 9.0 9
  237.08936 13.0 13
  237.10645 122.0 122
  237.11864 62.0 62
  238.0954 16.0 16
  238.12103 213.0 213
  238.12904 75.0 75
  238.53911 7.0 7
  239.1077 13.0 13
  239.12515 51.0 51
  239.14485 5.0 5
  241.09338 5.0 5
  242.09871 7.0 7
  243.09277 7.0 7
  244.10629 14.0 14
  244.11855 11.0 11
  246.08453 9.0 9
  246.09221 27.0 27
  248.09372 7.0 7
  248.10783 7.0 7
  249.12863 5.0 5
  250.10709 7.0 7
  250.12155 15.0 15
  251.11374 10.0 10
  252.12614 17.0 17
  253.15048 9.0 9
  254.15735 6.0 6
  256.08072 6.0 6
  256.10706 7.0 7
  257.12268 8.0 8
  258.12347 8.0 8
  259.10184 14.0 14
  259.12454 7.0 7
  260.10748 11.0 11
  260.11984 5.0 5
  260.38596 6.0 6
  261.11383 9.0 9
  262.11465 28.0 28
  262.13498 27.0 27
  263.11218 10.0 10
  263.12268 10.0 10
  264.12604 8.0 8
  264.14224 20.0 20
  265.14346 7.0 7
  266.14856 8.0 8
  274.11734 38.0 38
  274.12787 22.0 22
  274.13715 8.0 8
  275.12256 6.0 6
  276.1348 7.0 7
  278.13547 17.0 17
  279.15253 24.0 24
  280.13123 12.0 12
  287.15787 10.0 10
  288.28519 6.0 6
  290.14575 5.0 5
  292.12955 7.0 7
  293.13278 12.0 12
  293.16077 14.0 14
  293.17776 5.0 5
  322.82861 5.0 5
  323.0939 8.0 8
  323.13034 31.0 31
  323.14771 23.0 23
  323.17419 1000.0 999
//
