ACCESSION: MSBNK-RIKEN-PR306276
RECORD_TITLE: Apigenin-8-C-glucoside; LC-ESI-QTOF; MS2
DATE: 2019.03.28
AUTHORS: Tetsuya Mori, Center for Sustainable Resource Science, RIKEN
LICENSE: CC BY-NC-SA
PUBLICATION: Tsugawa H., Nakabayashi R., Mori T., Yamada Y., Takahashi M., Rai A., Sugiyama R., Yamamoto H., Nakaya T., Yamazaki M., Kooke R., Bac-Molenaar JA., Oztolan-Erol N., Keurentjes JJB., Arita M., Saito K. (2019) "A cheminformatics approach to characterize metabolomes in stable-isotope-labeled organisms" Nature Methods 16(4):295-298. [doi:10.1038/s41592-019-0358-2]
COMMENT: registered in RIKEN PlaSMA
CH$NAME: Apigenin-8-C-glucoside
CH$COMPOUND_CLASS: Flavonoid 8-C-glycosides
CH$FORMULA: C21H20O10
CH$EXACT_MASS: 432.381
CH$SMILES: C1=CC(=CC=C1C2=CC(=O)C3=C(O2)C(=C(C=C3O)O)[C@H]4[C@@H]([C@H]([C@@H]([C@H](O4)CO)O)O)O)O
CH$IUPAC: InChI=1S/C21H20O10/c22-7-14-17(27)18(28)19(29)21(31-14)16-11(25)5-10(24)15-12(26)6-13(30-20(15)16)8-1-3-9(23)4-2-8/h1-6,14,17-19,21-25,27-29H,7H2/t14-,17-,18+,19-,21+/m1/s1
CH$LINK: INCHIKEY SGEWCQFRYRRZDC-VPRICQMDSA-N
AC$INSTRUMENT: LC, Waters Acquity UPLC System; MS, Waters Xevo G2 Q-Tof
AC$INSTRUMENT_TYPE: LC-ESI-QTOF
AC$MASS_SPECTROMETRY: MS_TYPE MS2
AC$MASS_SPECTROMETRY: ION_MODE NEGATIVE
AC$MASS_SPECTROMETRY: COLLISION_ENERGY 6V
AC$MASS_SPECTROMETRY: DESOLVATION_GAS_FLOW 800/h
AC$MASS_SPECTROMETRY: DESOLVATION_TEMPERATURE 450 C
AC$MASS_SPECTROMETRY: IONIZATION ESI
AC$CHROMATOGRAPHY: CAPILLARY_VOLTAGE -2.75 kV
AC$CHROMATOGRAPHY: COLUMN_NAME Acquity bridged ethyl hybrid C18 (1.7 um, 2.1 mm * 100 mm, Waters)
AC$CHROMATOGRAPHY: COLUMN_TEMPERATURE 40 C
AC$CHROMATOGRAPHY: FLOW_GRADIENT A/B = (99.5%/0.5% at 0 min, 99.5%/0.5% at 0.1 min, 20%/80% at 10 min, 0.5%/99.5% at 10.1 min, 0.5%/99.5% at 12.0 min, 99.5%/0.5% at 12.1 min, 99.5%/0.5% at 15.0 min)
AC$CHROMATOGRAPHY: FLOW_RATE 0.3 ml/min at 0 min, 0.3 ml/min at 10 min, 0.4 ml/min at 10.1 min, 0.4 ml/min at 14.4 min, 0.3 ml/min at 14.5 min
AC$CHROMATOGRAPHY: RETENTION_TIME 3.964417
AC$CHROMATOGRAPHY: SOLVENT A water including 0.1% formic acid
AC$CHROMATOGRAPHY: SOLVENT B acetonitrile including 0.1% formic acid
MS$FOCUSED_ION: PRECURSOR_TYPE [M-H]-
MS$FOCUSED_ION: PRECURSOR_M/Z 431.09837034783
PK$SPLASH: splash10-02ti-1920000000-0eccedce1d3e18585be2
PK$NUM_PEAK: 187
PK$PEAK: m/z int. rel.int.
  52.02482 13.0 13
  77.03803 177.0 177
  77.94724 10.0 10
  78.04182 20.0 20
  79.01879 66.0 66
  80.02189 11.0 11
  83.01135 23.0 23
  84.01224 19.0 19
  89.00264 17.0 17
  91.02185 21.0 21
  91.0536 12.0 12
  92.02609 11.0 11
  92.05474 14.0 14
  93.03391 220.0 220
  94.82864 11.0 11
  95.01565 10.0 10
  95.04018 11.0 11
  95.04833 42.0 42
  103.01542 14.0 14
  105.03528 21.0 21
  107.01221 58.0 58
  107.03902 12.0 12
  107.04678 26.0 26
  108.02066 34.0 34
  109.04519 20.0 20
  113.02293 13.0 13
  113.76534 11.0 11
  116.02602 15.0 15
  117.03344 1000.0 999
  118.03678 83.0 83
  119.01344 25.0 25
  119.04777 86.0 86
  120.02133 28.0 28
  120.05865 10.0 10
  121.02333 70.0 70
  121.02958 148.0 148
  121.04199 32.0 32
  123.04256 21.0 21
  129.03265 14.0 14
  130.04042 31.0 31
  131.00951 11.0 11
  131.01945 15.0 15
  131.04816 14.0 14
  133.02771 30.0 30
  135.00381 23.0 23
  135.01186 20.0 20
  135.04469 519.0 518
  136.01309 23.0 23
  136.04861 25.0 25
  136.4442 10.0 10
  137.0215 49.0 49
  143.04887 16.0 16
  145.0276 75.0 75
  145.06302 22.0 22
  146.03096 15.0 15
  146.0354 38.0 38
  148.01297 31.0 31
  148.02097 64.0 64
  148.04068 17.0 17
  149.02402 79.0 79
  150.99904 11.0 11
  151.04408 11.0 11
  155.05804 11.0 11
  156.05914 18.0 18
  157.06989 13.0 13
  158.04135 12.0 12
  158.0611 14.0 14
  159.04231 154.0 154
  159.40643 20.0 20
  160.01981 14.0 14
  160.04628 21.0 21
  160.05344 18.0 18
  161.02467 428.0 428
  161.1732 10.0 10
  162.03343 42.0 42
  162.06711 15.0 15
  162.99982 52.0 52
  163.03586 124.0 124
  163.04726 65.0 65
  164.00951 44.0 44
  164.04027 11.0 11
  165.02077 26.0 26
  165.05981 12.0 12
  165.07028 12.0 12
  167.04768 38.0 38
  168.05751 25.0 25
  169.05006 13.0 13
  169.06456 102.0 102
  169.07607 21.0 21
  170.06444 15.0 15
  171.04445 32.0 32
  171.0721 16.0 16
  171.0822 11.0 11
  172.0161 14.0 14
  172.05626 15.0 15
  173.06004 61.0 61
  175.0416 36.0 36
  177.06815 11.0 11
  179.03871 20.0 20
  179.05141 25.0 25
  180.04953 10.0 10
  181.06242 47.0 47
  182.03169 14.0 14
  182.04152 27.0 27
  182.07237 15.0 15
  183.03889 25.0 25
  183.06454 17.0 17
  183.07562 25.0 25
  185.05786 12.0 12
  186.03308 11.0 11
  186.06155 14.0 14
  187.00238 11.0 11
  187.04469 24.0 24
  188.04008 13.0 13
  189.02292 23.0 23
  190.02478 11.0 11
  191.02397 11.0 11
  192.05243 27.0 27
  193.00645 13.0 13
  194.0722 38.0 38
  194.67055 14.0 14
  195.04372 103.0 103
  196.04767 32.0 32
  196.05495 45.0 45
  197.06645 13.0 13
  197.16197 18.0 18
  199.0343 12.0 12
  199.04419 11.0 11
  199.08194 18.0 18
  201.04935 11.0 11
  205.01117 11.0 11
  206.17529 13.0 13
  207.04439 42.0 42
  209.04823 18.0 18
  209.05875 17.0 17
  210.0407 11.0 11
  211.03856 42.0 42
  211.06865 23.0 23
  213.0377 16.0 16
  214.05862 13.0 13
  215.06914 29.0 29
  216.00586 50.0 50
  220.05203 13.0 13
  221.0629 11.0 11
  222.06848 34.0 34
  223.04233 21.0 21
  224.04552 56.0 56
  225.05389 14.0 14
  226.06274 12.0 12
  227.07397 11.0 11
  233.05342 19.0 19
  237.05772 51.0 51
  238.05914 12.0 12
  239.07275 51.0 51
  240.02843 13.0 13
  240.04364 95.0 95
  250.02939 24.0 24
  251.04045 21.0 21
  251.07405 12.0 12
  252.03365 14.0 14
  253.05008 37.0 37
  254.05673 13.0 13
  255.05511 11.0 11
  256.04385 13.0 13
  262.05869 11.0 11
  266.0578 12.0 12
  267.02707 67.0 67
  267.05194 12.0 12
  268.02246 11.0 11
  268.03757 60.0 60
  269.04269 67.0 67
  269.05234 25.0 25
  270.04199 12.0 12
  271.05292 12.0 12
  277.03369 12.0 12
  280.03717 40.0 40
  281.0473 77.0 77
  282.04144 29.0 29
  282.05737 37.0 37
  283.05298 61.0 61
  283.06161 195.0 195
  284.05908 38.0 38
  284.07632 25.0 25
  295.05188 10.0 10
  296.06714 13.0 13
  305.05087 12.0 12
  335.9024 11.0 11
//
