ACCESSION: MSBNK-RIKEN-PR100850
RECORD_TITLE: 2-Hydroxyphenylacetic acid; LC-ESI-QTOF; MS2; CE:Ramp 5-60 V; [M-H]-
DATE: 2016.01.19 (Created 2010.06.21, modified 2011.05.06)
AUTHORS: Matsuda F, Suzuki M, Sawada Y, Plant Science Center, RIKEN.
LICENSE: CC BY-SA
COMMENT: Acquisition and generation of the data is financially supported in part by CREST/JST.
CH$NAME: 2-Hydroxyphenylacetic acid
CH$NAME: 2-Hydroxyphenylacetate
CH$NAME: 2-Hydroxy-2-phenylacetic Acid
CH$COMPOUND_CLASS: N/A
CH$FORMULA: C8H8O3
CH$EXACT_MASS: 152.04734
CH$SMILES: OC(=O)Cc(c1)c(O)ccc1
CH$IUPAC: InChI=1S/C8H8O3/c9-7-4-2-1-3-6(7)5-8(10)11/h1-4,9H,5H2,(H,10,11)
CH$LINK: CAS 614-75-5
CH$LINK: CHEMSPIDER 11476
CH$LINK: KEGG C05852
CH$LINK: PUBCHEM CID:11970
CH$LINK: INCHIKEY CCVYRRGZDBSHFU-UHFFFAOYSA-N
CH$LINK: COMPTOX DTXSID1060633
AC$INSTRUMENT: UPLC Q-Tof Premier, Waters
AC$INSTRUMENT_TYPE: LC-ESI-QTOF
AC$MASS_SPECTROMETRY: MS_TYPE MS2
AC$MASS_SPECTROMETRY: ION_MODE NEGATIVE
AC$MASS_SPECTROMETRY: COLLISION_ENERGY Ramp 5-60 V
AC$MASS_SPECTROMETRY: DATAFORMAT Continuum
AC$MASS_SPECTROMETRY: DESOLVATION_GAS_FLOW 600.0 L/Hr
AC$MASS_SPECTROMETRY: DESOLVATION_TEMPERATURE 400 C
AC$MASS_SPECTROMETRY: FRAGMENTATION_METHOD LOW-ENERGY CID
AC$MASS_SPECTROMETRY: IONIZATION ESI
AC$MASS_SPECTROMETRY: SOURCE_TEMPERATURE 120 C
AC$CHROMATOGRAPHY: CAPILLARY_VOLTAGE 3.0 kV
AC$CHROMATOGRAPHY: SAMPLING_CONE 23.0 V
AC$CHROMATOGRAPHY: SOLVENT A CH3CN(0.1%HCOOH)
AC$CHROMATOGRAPHY: SOLVENT B H2O(0.1%HCOOH)
MS$FOCUSED_ION: PRECURSOR_M/Z 151.03954
MS$FOCUSED_ION: PRECURSOR_TYPE [M-H]-
PK$SPLASH: splash10-0a4i-0900000000-e7c99cfd03a6c025cf2c
PK$NUM_PEAK: 2
PK$PEAK: m/z int. rel.int.
  107.0497 1375 999
  151.0395 143.7 104
//
