ACCESSION: MSBNK-RIKEN-PR100204
RECORD_TITLE: Thiamine monophosphate; LC-ESI-QTOF; MS2; CE:Ramp 5-60 V; [M]+
DATE: 2016.01.19 (Created 2009.09.10, modified 2011.05.06)
AUTHORS: Matsuda F, Suzuki M, Sawada Y, Plant Science Center, RIKEN.
LICENSE: CC BY-SA
COMMENT: Acquisition and generation of the data is financially supported in part by CREST/JST.
CH$NAME: Thiamine monophosphate
CH$NAME: TMP
CH$NAME: Thiamine-P
CH$NAME: Vitamin B1 phosphate
CH$NAME: Aneurine monophosphate
CH$COMPOUND_CLASS: Natural Product; Thiamine; phosphates
CH$FORMULA: [C12H18N4O4PS]+
CH$EXACT_MASS: 345.07864
CH$SMILES: Cc(n2)nc(N)c(c2)C[n+1](c1)c(C)c(CCOP(O)(O)=O)s1
CH$IUPAC: InChI=1S/C12H17N4O4PS/c1-8-11(3-4-20-21(17,18)19)22-7-16(8)6-10-5-14-9(2)15-12(10)13/h5,7H,3-4,6H2,1-2H3,(H3-,13,14,15,17,18,19)/p+1
CH$LINK: CAS 10023-48-0
CH$LINK: CHEMSPIDER 1099
CH$LINK: KAPPAVIEW KPC01015
CH$LINK: KEGG C01081
CH$LINK: KNAPSACK C00019628
CH$LINK: PUBCHEM CID:1131
CH$LINK: INCHIKEY HZSAJDVWZRBGIF-UHFFFAOYSA-O
CH$LINK: COMPTOX DTXSID6048389
AC$INSTRUMENT: UPLC Q-Tof Premier, Waters
AC$INSTRUMENT_TYPE: LC-ESI-QTOF
AC$MASS_SPECTROMETRY: MS_TYPE MS2
AC$MASS_SPECTROMETRY: ION_MODE POSITIVE
AC$MASS_SPECTROMETRY: COLLISION_ENERGY Ramp 5-60 V
AC$MASS_SPECTROMETRY: DATAFORMAT Continuum
AC$MASS_SPECTROMETRY: DATE 2008.07.25
AC$MASS_SPECTROMETRY: DESOLVATION_GAS_FLOW 600.0 L/Hr
AC$MASS_SPECTROMETRY: DESOLVATION_TEMPERATURE 420 C
AC$MASS_SPECTROMETRY: FRAGMENTATION_METHOD LOW-ENERGY CID
AC$MASS_SPECTROMETRY: IONIZATION ESI
AC$MASS_SPECTROMETRY: SCANNING 1.0 sec/scan (m/z = 50-1000)
AC$MASS_SPECTROMETRY: SOURCE_TEMPERATURE 120 C
AC$CHROMATOGRAPHY: CAPILLARY_VOLTAGE 3.0 kV
AC$CHROMATOGRAPHY: SAMPLING_CONE 23.0 V
AC$CHROMATOGRAPHY: SOLVENT A CH3CN(0.1%HCOOH)
AC$CHROMATOGRAPHY: SOLVENT B H2O(0.1%HCOOH)
MS$FOCUSED_ION: PRECURSOR_M/Z 345.07861
MS$FOCUSED_ION: PRECURSOR_TYPE [M]+
PK$SPLASH: splash10-00di-1901000000-4475f61c9eb04bc2edd6
PK$NUM_PEAK: 5
PK$PEAK: m/z int. rel.int.
  81.0459 408.7 156
  122.0721 2612 999
  126.0392 541 207
  224.0169 312.1 119
  345.0786 396.9 152
//
