ACCESSION: MSBNK-RIKEN-PR303371
RECORD_TITLE: NP-000002(10); LC-ESI-QTOF; MS2
DATE: 2019.03.28
AUTHORS: Tetsuya Mori, Center for Sustainable Resource Science, RIKEN
LICENSE: CC BY-NC-SA
PUBLICATION: Tsugawa H., Nakabayashi R., Mori T., Yamada Y., Takahashi M., Rai A., Sugiyama R., Yamamoto H., Nakaya T., Yamazaki M., Kooke R., Bac-Molenaar JA., Oztolan-Erol N., Keurentjes JJB., Arita M., Saito K. (2019) "A cheminformatics approach to characterize metabolomes in stable-isotope-labeled organisms" Nature Methods 16(4):295-298. [doi:10.1038/s41592-019-0358-2]
COMMENT: registered in RIKEN PlaSMA
CH$NAME: NP-000002(10)
CH$COMPOUND_CLASS: Flavonoid 8-C-glycosides
CH$FORMULA: C27H30O15
CH$EXACT_MASS: 594.522
CH$SMILES: OCC1OC(C(O)C(O)C1O)C1=C(O)C(C2OC(CO)C(O)C(O)C2O)=C2OC(=CC(=O)C2=C1O)C1=CC=C(O)C=C1
CH$IUPAC: InChI=1S/C27H30O15/c28-6-12-17(32)21(36)23(38)26(41-12)15-19(34)14-10(31)5-11(8-1-3-9(30)4-2-8)40-25(14)16(20(15)35)27-24(39)22(37)18(33)13(7-29)42-27/h1-5,12-13,17-18,21-24,26-30,32-39H,6-7H2
CH$LINK: INCHIKEY FIAAVMJLAGNUKW-UHFFFAOYSA-N
AC$INSTRUMENT: LC, Waters Acquity UPLC System; MS, Waters Xevo G2 Q-Tof
AC$INSTRUMENT_TYPE: LC-ESI-QTOF
AC$MASS_SPECTROMETRY: MS_TYPE MS2
AC$MASS_SPECTROMETRY: ION_MODE POSITIVE
AC$MASS_SPECTROMETRY: COLLISION_ENERGY 6V
AC$MASS_SPECTROMETRY: DESOLVATION_GAS_FLOW 800/h
AC$MASS_SPECTROMETRY: DESOLVATION_TEMPERATURE 450 C
AC$MASS_SPECTROMETRY: IONIZATION ESI
AC$CHROMATOGRAPHY: CAPILLARY_VOLTAGE +3.00 kV
AC$CHROMATOGRAPHY: COLUMN_NAME Acquity bridged ethyl hybrid C18 (1.7 um, 2.1 mm * 100 mm, Waters)
AC$CHROMATOGRAPHY: COLUMN_TEMPERATURE 40 C
AC$CHROMATOGRAPHY: FLOW_GRADIENT A/B = (99.5%/0.5% at 0 min, 99.5%/0.5% at 0.1 min, 20%/80% at 10 min, 0.5%/99.5% at 10.1 min, 0.5%/99.5% at 12.0 min, 99.5%/0.5% at 12.1 min, 99.5%/0.5% at 15.0 min)
AC$CHROMATOGRAPHY: FLOW_RATE 0.3 ml/min at 0 min, 0.3 ml/min at 10 min, 0.4 ml/min at 10.1 min, 0.4 ml/min at 14.4 min, 0.3 ml/min at 14.5 min
AC$CHROMATOGRAPHY: RETENTION_TIME 3.302967
AC$CHROMATOGRAPHY: SOLVENT A water including 0.1% formic acid
AC$CHROMATOGRAPHY: SOLVENT B acetonitrile including 0.1% formic acid
MS$FOCUSED_ION: PRECURSOR_TYPE [M+H]+
MS$FOCUSED_ION: PRECURSOR_M/Z 595.1657467
PK$SPLASH: splash10-004i-0009810000-f81a09580cf32ad34be0
PK$NUM_PEAK: 211
PK$PEAK: m/z int. rel.int.
  103.04508 13.0 13
  115.4221 14.0 14
  190.02159 16.0 16
  196.1559 13.0 13
  294.04617 23.0 23
  295.05905 164.0 164
  296.05844 93.0 93
  296.07236 34.0 34
  297.0863 19.0 19
  307.06366 259.0 259
  308.05405 16.0 16
  309.03455 24.0 24
  309.05405 27.0 27
  311.04883 13.0 13
  313.06689 40.0 40
  314.0733 16.0 16
  323.05234 51.0 51
  325.07379 1000.0 999
  325.0961 45.0 45
  325.11642 18.0 18
  326.06097 62.0 62
  326.07571 89.0 89
  333.09912 16.0 16
  335.09048 13.0 13
  337.04144 23.0 23
  337.0621 217.0 217
  337.0752 295.0 295
  338.04791 23.0 23
  338.07025 24.0 24
  338.08066 30.0 30
  338.09268 19.0 19
  339.05014 15.0 15
  339.09039 47.0 47
  342.60138 15.0 15
  347.50558 14.0 14
  348.06934 16.0 16
  349.0658 357.0 357
  349.07816 125.0 125
  349.09494 34.0 34
  350.06097 33.0 33
  350.0845 116.0 116
  351.04367 20.0 20
  351.09305 69.0 69
  351.89844 19.0 19
  352.07864 31.0 31
  355.04239 20.0 20
  355.06143 56.0 56
  355.07599 167.0 167
  355.08749 155.0 155
  356.0795 30.0 30
  356.09546 59.0 59
  361.01318 14.0 14
  361.07166 128.0 128
  361.55615 33.0 33
  363.06235 23.0 23
  365.06882 16.0 16
  365.09351 36.0 36
  365.10498 22.0 22
  366.08154 29.0 29
  366.11163 49.0 49
  367.08209 31.0 31
  367.09384 24.0 24
  368.08929 21.0 21
  373.08005 16.0 16
  375.04495 44.0 44
  375.08707 60.0 60
  377.05853 32.0 32
  379.04443 16.0 16
  379.0809 766.0 765
  379.15317 19.0 19
  380.08441 243.0 243
  380.09674 104.0 104
  381.0824 58.0 58
  385.07544 30.0 30
  386.04288 14.0 14
  387.08197 21.0 21
  387.12112 14.0 14
  388.35474 16.0 16
  389.04782 24.0 24
  389.10251 21.0 21
  391.05304 40.0 40
  391.08395 432.0 432
  392.07922 152.0 152
  393.1033 13.0 13
  395.68402 13.0 13
  397.07291 15.0 15
  397.08517 22.0 22
  398.09375 24.0 24
  401.11102 19.0 19
  402.09702 14.0 14
  403.08759 218.0 218
  403.12778 21.0 21
  404.00592 13.0 13
  404.06973 90.0 90
  404.0874 26.0 26
  404.10464 16.0 16
  405.09631 17.0 17
  409.04318 23.0 23
  409.08948 492.0 492
  409.13004 13.0 13
  409.19632 19.0 19
  410.09146 95.0 95
  410.11282 21.0 21
  411.08633 16.0 16
  411.09882 13.0 13
  415.07465 54.0 54
  415.08865 33.0 33
  415.11182 26.0 26
  417.04407 16.0 16
  417.06042 26.0 26
  417.09924 32.0 32
  417.11633 24.0 24
  418.10208 27.0 27
  419.08401 19.0 19
  421.08258 97.0 97
  421.10071 426.0 426
  422.09525 91.0 91
  422.11188 31.0 31
  423.0947 37.0 37
  423.1044 18.0 18
  425.10291 29.0 29
  427.09808 518.0 517
  427.13736 32.0 32
  428.06845 19.0 19
  428.10706 188.0 188
  428.17435 13.0 13
  429.09274 46.0 46
  431.10526 13.0 13
  431.12009 19.0 19
  433.01935 13.0 13
  433.09177 15.0 15
  433.12961 19.0 19
  434.08829 17.0 17
  435.06143 17.0 17
  435.10315 72.0 72
  438.92093 14.0 14
  439.09152 287.0 287
  439.11853 102.0 102
  440.09714 107.0 107
  442.10452 29.0 29
  444.99753 13.0 13
  445.05786 26.0 26
  445.08505 65.0 65
  445.09808 138.0 138
  445.14441 13.0 13
  446.0903 62.0 62
  448.1022 36.0 36
  449.09042 17.0 17
  449.13794 15.0 15
  450.98727 15.0 15
  452.73154 23.0 23
  457.07059 17.0 17
  457.10638 400.0 400
  457.13699 44.0 44
  458.10919 134.0 134
  458.18427 19.0 19
  459.11401 33.0 33
  463.05194 18.0 18
  463.08716 78.0 78
  463.10468 100.0 100
  464.10574 54.0 54
  467.17352 17.0 17
  469.06778 23.0 23
  469.08655 43.0 43
  469.10349 122.0 122
  470.09674 15.0 15
  475.09778 39.0 39
  475.11346 88.0 88
  475.62479 19.0 19
  476.12048 16.0 16
  478.09384 19.0 19
  478.15247 16.0 16
  481.0975 26.0 26
  481.121 96.0 96
  482.09894 73.0 73
  482.12042 43.0 43
  484.12689 21.0 21
  485.63171 17.0 17
  487.03448 17.0 17
  487.10544 78.0 78
  493.10245 68.0 68
  493.11838 66.0 66
  494.02985 14.0 14
  494.11771 40.0 40
  499.11169 32.0 32
  499.12112 14.0 14
  500.13116 19.0 19
  505.10751 51.0 51
  506.11166 26.0 26
  506.13019 39.0 39
  506.85873 14.0 14
  511.12061 19.0 19
  512.06909 16.0 16
  512.12274 23.0 23
  517.14056 27.0 27
  523.04681 16.0 16
  523.08105 20.0 20
  523.12946 188.0 188
  524.12714 30.0 30
  524.13898 13.0 13
  525.1394 27.0 27
  530.86633 19.0 19
  540.99524 14.0 14
  541.12 59.0 59
  541.13837 133.0 133
  542.12213 31.0 31
  542.15332 19.0 19
  544.13733 16.0 16
  559.15204 16.0 16
  560.1618 30.0 30
  595.14465 16.0 16
//
