ACCESSION: MSBNK-RIKEN-PR303881
RECORD_TITLE: Asiaticoside; LC-ESI-QTOF; MS2
DATE: 2019.03.28
AUTHORS: Tetsuya Mori, Center for Sustainable Resource Science, RIKEN
LICENSE: CC BY-NC-SA
PUBLICATION: Tsugawa H., Nakabayashi R., Mori T., Yamada Y., Takahashi M., Rai A., Sugiyama R., Yamamoto H., Nakaya T., Yamazaki M., Kooke R., Bac-Molenaar JA., Oztolan-Erol N., Keurentjes JJB., Arita M., Saito K. (2019) "A cheminformatics approach to characterize metabolomes in stable-isotope-labeled organisms" Nature Methods 16(4):295-298. [doi:10.1038/s41592-019-0358-2]
COMMENT: registered in RIKEN PlaSMA
CH$NAME: Asiaticoside
CH$COMPOUND_CLASS: Triterpene saponins
CH$FORMULA: C48H78O19
CH$EXACT_MASS: 959.133
CH$SMILES: CC1CCC2(CCC3(C)C(=CCC4C5(C)CC(O)C(O)C(C)(CO)C5CCC34C)C2C1C)C(=O)OC1OC(COC2OC(CO)C(OC3OC(C)C(O)C(O)C3O)C(O)C2O)C(O)C(O)C1O
CH$IUPAC: InChI=1S/C48H78O19/c1-20-10-13-48(15-14-46(6)23(29(48)21(20)2)8-9-28-44(4)16-24(51)39(60)45(5,19-50)27(44)11-12-47(28,46)7)43(61)67-42-36(58)33(55)31(53)26(65-42)18-62-40-37(59)34(56)38(25(17-49)64-40)66-41-35(57)32(54)30(52)22(3)63-41/h8,20-22,24-42,49-60H,9-19H2,1-7H3
CH$LINK: INCHIKEY WYQVAPGDARQUBT-UHFFFAOYSA-N
AC$INSTRUMENT: LC, Waters Acquity UPLC System; MS, Waters Xevo G2 Q-Tof
AC$INSTRUMENT_TYPE: LC-ESI-QTOF
AC$MASS_SPECTROMETRY: MS_TYPE MS2
AC$MASS_SPECTROMETRY: ION_MODE POSITIVE
AC$MASS_SPECTROMETRY: COLLISION_ENERGY 6V
AC$MASS_SPECTROMETRY: DESOLVATION_GAS_FLOW 800/h
AC$MASS_SPECTROMETRY: DESOLVATION_TEMPERATURE 450 C
AC$MASS_SPECTROMETRY: IONIZATION ESI
AC$CHROMATOGRAPHY: CAPILLARY_VOLTAGE +3.00 kV
AC$CHROMATOGRAPHY: COLUMN_NAME Acquity bridged ethyl hybrid C18 (1.7 um, 2.1 mm * 100 mm, Waters)
AC$CHROMATOGRAPHY: COLUMN_TEMPERATURE 40 C
AC$CHROMATOGRAPHY: FLOW_GRADIENT A/B = (99.5%/0.5% at 0 min, 99.5%/0.5% at 0.1 min, 20%/80% at 10 min, 0.5%/99.5% at 10.1 min, 0.5%/99.5% at 12.0 min, 99.5%/0.5% at 12.1 min, 99.5%/0.5% at 15.0 min)
AC$CHROMATOGRAPHY: FLOW_RATE 0.3 ml/min at 0 min, 0.3 ml/min at 10 min, 0.4 ml/min at 10.1 min, 0.4 ml/min at 14.4 min, 0.3 ml/min at 14.5 min
AC$CHROMATOGRAPHY: RETENTION_TIME 5.20985
AC$CHROMATOGRAPHY: SOLVENT A water including 0.1% formic acid
AC$CHROMATOGRAPHY: SOLVENT B acetonitrile including 0.1% formic acid
MS$FOCUSED_ION: PRECURSOR_TYPE [M+H]+
MS$FOCUSED_ION: PRECURSOR_M/Z 959.5210067
PK$SPLASH: splash10-0udi-0121900000-86bf9d2bb173f077caa3
PK$NUM_PEAK: 184
PK$PEAK: m/z int. rel.int.
  83.04872 6.0 6
  85.03201 7.0 7
  93.07428 11.0 11
  101.05937 9.0 9
  111.07771 8.0 8
  125.09586 57.0 57
  125.11783 17.0 17
  127.04082 7.0 7
  129.05267 102.0 102
  129.06216 20.0 20
  130.06073 19.0 19
  131.05502 7.0 7
  145.03596 7.0 7
  147.02675 12.0 12
  147.06061 76.0 76
  147.07137 29.0 29
  148.07121 8.0 8
  149.66789 8.0 8
  156.73228 8.0 8
  162.0741 8.0 8
  163.0518 25.0 25
  163.06212 34.0 34
  165.07491 38.0 38
  166.07187 9.0 9
  166.08325 8.0 8
  167.0927 7.0 7
  173.12625 6.0 6
  173.13353 7.0 7
  175.15074 7.0 7
  187.14536 30.0 30
  188.15546 6.0 6
  201.16994 15.0 15
  205.16267 9.0 9
  205.19281 9.0 9
  206.1609 29.0 29
  207.14214 7.0 7
  209.15938 11.0 11
  214.16383 8.0 8
  215.1832 8.0 8
  219.17458 17.0 17
  228.09961 7.0 7
  233.18625 18.0 18
  233.1954 7.0 7
  235.1723 26.0 26
  236.16386 7.0 7
  236.17668 6.0 6
  237.07059 8.0 8
  237.08087 7.0 7
  238.08568 15.0 15
  243.17445 8.0 8
  247.17197 53.0 53
  247.18616 8.0 8
  249.18468 10.0 10
  249.19533 10.0 10
  255.07828 34.0 34
  255.09454 31.0 31
  256.0921 7.0 7
  257.07721 7.0 7
  257.20383 12.0 12
  258.11673 9.0 9
  259.17056 15.0 15
  260.0708 7.0 7
  261.18091 16.0 16
  261.19046 8.0 8
  263.16461 9.0 9
  266.46021 7.0 7
  273.07285 7.0 7
  273.0914 44.0 44
  273.10431 69.0 69
  274.08508 9.0 9
  274.09924 16.0 16
  274.35352 7.0 7
  275.10565 9.0 9
  281.22552 10.0 10
  286.34375 6.0 6
  287.20294 6.0 6
  289.07895 8.0 8
  289.09399 16.0 16
  291.10049 7.0 7
  293.11148 10.0 10
  296.93896 10.0 10
  297.73645 7.0 7
  309.09036 17.0 17
  309.11987 291.0 291
  310.10754 13.0 13
  310.12329 56.0 56
  311.12985 28.0 28
  311.73016 7.0 7
  325.12857 15.0 15
  326.12494 6.0 6
  327.21951 8.0 8
  329.24011 9.0 9
  341.22961 7.0 7
  341.2569 43.0 43
  341.27515 7.0 7
  342.24255 7.0 7
  343.25012 8.0 8
  345.26233 10.0 10
  377.3175 7.0 7
  389.3226 6.0 6
  390.30328 8.0 8
  395.29166 19.0 19
  395.32416 8.0 8
  396.27307 9.0 9
  405.30222 7.0 7
  407.26993 7.0 7
  407.32916 217.0 217
  407.36484 14.0 14
  408.19958 7.0 7
  408.32706 55.0 55
  408.34845 32.0 32
  409.33249 21.0 21
  410.36465 7.0 7
  423.29861 9.0 9
  423.32794 6.0 6
  424.33588 8.0 8
  425.30508 13.0 13
  425.32706 7.0 7
  426.33112 7.0 7
  435.14423 8.0 8
  435.29169 7.0 7
  435.31876 111.0 111
  435.33319 70.0 70
  435.35751 24.0 24
  436.30096 7.0 7
  436.32834 46.0 46
  436.35269 11.0 11
  437.30594 9.0 9
  438.34659 7.0 7
  438.73871 7.0 7
  439.75278 6.0 6
  441.33743 7.0 7
  443.34613 8.0 8
  443.36032 7.0 7
  444.35635 9.0 9
  451.95877 6.0 6
  453.29797 16.0 16
  453.33743 1000.0 999
  453.41702 8.0 8
  453.77896 7.0 7
  454.29453 15.0 15
  454.34436 276.0 276
  454.49823 7.0 7
  455.09818 10.0 10
  455.34256 93.0 93
  455.36459 13.0 13
  463.08481 7.0 7
  466.16772 8.0 8
  467.18024 10.0 10
  471.17346 8.0 8
  471.34549 332.0 332
  472.31668 20.0 20
  472.35037 76.0 76
  473.1701 6.0 6
  473.35144 22.0 22
  473.36157 9.0 9
  474.34055 8.0 8
  476.19727 7.0 7
  489.34384 41.0 41
  489.3674 104.0 104
  489.39786 6.0 6
  490.34406 13.0 13
  490.37265 15.0 15
  491.36435 21.0 21
  546.20264 7.0 7
  563.36151 7.0 7
  581.37573 6.0 6
  615.367 7.0 7
  616.40564 7.0 7
  617.39661 9.0 9
  618.41425 6.0 6
  634.34125 6.0 6
  635.38934 11.0 11
  635.41412 23.0 23
  636.41479 6.0 6
  637.422 18.0 18
  651.37372 7.0 7
  651.39294 14.0 14
  651.41718 13.0 13
  652.41876 9.0 9
  653.39307 7.0 7
  755.52423 10.0 10
  813.46155 7.0 7
  815.46613 7.0 7
//
