ACCESSION: MSBNK-RIKEN-PR303345
RECORD_TITLE: Sinapic acid; LC-ESI-QTOF; MS2
DATE: 2019.03.28
AUTHORS: Tetsuya Mori, Center for Sustainable Resource Science, RIKEN
LICENSE: CC BY-NC-SA
PUBLICATION: Tsugawa H., Nakabayashi R., Mori T., Yamada Y., Takahashi M., Rai A., Sugiyama R., Yamamoto H., Nakaya T., Yamazaki M., Kooke R., Bac-Molenaar JA., Oztolan-Erol N., Keurentjes JJB., Arita M., Saito K. (2019) "A cheminformatics approach to characterize metabolomes in stable-isotope-labeled organisms" Nature Methods 16(4):295-298. [doi:10.1038/s41592-019-0358-2]
COMMENT: registered in RIKEN PlaSMA
CH$NAME: Sinapic acid
CH$NAME: 3,5-dimethoxy-4-hydroxycinnamic acid
CH$NAME: 3-(4-hydroxy-3,5-dimethoxy-phenyl)prop-2-enoic acid
CH$COMPOUND_CLASS: Hydroxycinnamic acids
CH$FORMULA: C11H12O5
CH$EXACT_MASS: 224.06847
CH$SMILES: COC1=CC(=CC(=C1O)OC)/C=C/C(=O)O
CH$IUPAC: InChI=1S/C11H12O5/c1-15-8-5-7(3-4-10(12)13)6-9(16-2)11(8)14/h3-6,14H,1-2H3,(H,12,13)/b4-3+
CH$LINK: CAS 530-59-6
CH$LINK: CHEBI CHEBI:15714
CH$LINK: CHEMSPIDER 553361
CH$LINK: COMPTOX DTXSID40862129
CH$LINK: INCHIKEY PCMORTLOPMLEFB-ONEGZZNKSA-N
CH$LINK: KAPPAVIEW KPC00975
CH$LINK: KEGG C00482
CH$LINK: KNAPSACK C00002776
CH$LINK: NIKKAJI J11.713G
CH$LINK: PUBCHEM CID:637775
AC$INSTRUMENT: LC, Waters Acquity UPLC System; MS, Waters Xevo G2 Q-Tof
AC$INSTRUMENT_TYPE: LC-ESI-QTOF
AC$MASS_SPECTROMETRY: MS_TYPE MS2
AC$MASS_SPECTROMETRY: ION_MODE POSITIVE
AC$MASS_SPECTROMETRY: COLLISION_ENERGY 6V
AC$MASS_SPECTROMETRY: DESOLVATION_GAS_FLOW 800/h
AC$MASS_SPECTROMETRY: DESOLVATION_TEMPERATURE 450 C
AC$MASS_SPECTROMETRY: IONIZATION ESI
AC$CHROMATOGRAPHY: CAPILLARY_VOLTAGE +3.00 kV
AC$CHROMATOGRAPHY: COLUMN_NAME Acquity bridged ethyl hybrid C18 (1.7 um, 2.1 mm * 100 mm, Waters)
AC$CHROMATOGRAPHY: COLUMN_TEMPERATURE 40 C
AC$CHROMATOGRAPHY: FLOW_GRADIENT A/B = (99.5%/0.5% at 0 min, 99.5%/0.5% at 0.1 min, 20%/80% at 10 min, 0.5%/99.5% at 10.1 min, 0.5%/99.5% at 12.0 min, 99.5%/0.5% at 12.1 min, 99.5%/0.5% at 15.0 min)
AC$CHROMATOGRAPHY: FLOW_RATE 0.3 ml/min at 0 min, 0.3 ml/min at 10 min, 0.4 ml/min at 10.1 min, 0.4 ml/min at 14.4 min, 0.3 ml/min at 14.5 min
AC$CHROMATOGRAPHY: RETENTION_TIME 4.206284
AC$CHROMATOGRAPHY: SOLVENT A water including 0.1% formic acid
AC$CHROMATOGRAPHY: SOLVENT B acetonitrile including 0.1% formic acid
MS$FOCUSED_ION: PRECURSOR_TYPE [M+H]+
MS$FOCUSED_ION: PRECURSOR_M/Z 225.0757499
PK$SPLASH: splash10-0ab9-0090000000-d0697c16e18bbe1b51df
PK$NUM_PEAK: 21
PK$PEAK: m/z int. rel.int.
  140.9957 22.0 22
  147.04617 14.0 14
  175.02931 45.0 45
  175.04341 50.0 50
  176.04422 26.0 26
  179.03511 14.0 14
  182.9794 14.0 14
  183.06032 26.0 26
  206.97247 16.0 16
  207.03429 14.0 14
  207.06657 1000.0 999
  208.04836 17.0 17
  208.06845 73.0 73
  208.07506 21.0 21
  209.04109 11.0 11
  209.59201 11.0 11
  224.04736 23.0 23
  224.06662 370.0 370
  224.07585 147.0 147
  225.05611 11.0 11
  225.07578 187.0 187
//
