ACCESSION: MSBNK-RIKEN-PR300714
RECORD_TITLE: Ormosanine; LC-ESI-QTOF; MS2
DATE: 2019.03.28
AUTHORS: Tetsuya Mori, Center for Sustainable Resource Science, RIKEN
LICENSE: CC BY-NC-SA
PUBLICATION: Tsugawa H., Nakabayashi R., Mori T., Yamada Y., Takahashi M., Rai A., Sugiyama R., Yamamoto H., Nakaya T., Yamazaki M., Kooke R., Bac-Molenaar JA., Oztolan-Erol N., Keurentjes JJB., Arita M., Saito K. (2019) "A cheminformatics approach to characterize metabolomes in stable-isotope-labeled organisms" Nature Methods 16(4):295-298. [doi:10.1038/s41592-019-0358-2]
COMMENT: registered in RIKEN PlaSMA
CH$NAME: Ormosanine
CH$COMPOUND_CLASS: Ormosia-type alkaloids
CH$FORMULA: C20H35N3
CH$EXACT_MASS: 317.521
CH$SMILES: C1CC[C@@H](NC1)[C@]12C[C@@H](C[C@@H]3CCCN[C@@H]13)[C@H]1CCCCN1C2
CH$IUPAC: InChI=1S/C20H35N3/c1-3-9-21-18(8-1)20-13-16(12-15-6-5-10-22-19(15)20)17-7-2-4-11-23(17)14-20/h15-19,21-22H,1-14H2/t15-,16+,17+,18+,19+,20+/m0/s1
CH$LINK: INCHIKEY YUKCLPPRYNXRAF-RFVXBFLTSA-N
AC$INSTRUMENT: LC, Waters Acquity UPLC System; MS, Waters Xevo G2 Q-Tof
AC$INSTRUMENT_TYPE: LC-ESI-QTOF
AC$MASS_SPECTROMETRY: MS_TYPE MS2
AC$MASS_SPECTROMETRY: ION_MODE POSITIVE
AC$MASS_SPECTROMETRY: COLLISION_ENERGY 6V
AC$MASS_SPECTROMETRY: DESOLVATION_GAS_FLOW 800/h
AC$MASS_SPECTROMETRY: DESOLVATION_TEMPERATURE 450 C
AC$MASS_SPECTROMETRY: IONIZATION ESI
AC$CHROMATOGRAPHY: CAPILLARY_VOLTAGE +3.00 kV
AC$CHROMATOGRAPHY: COLUMN_NAME Acquity bridged ethyl hybrid C18 (1.7 um, 2.1 mm * 100 mm, Waters)
AC$CHROMATOGRAPHY: COLUMN_TEMPERATURE 40 C
AC$CHROMATOGRAPHY: FLOW_GRADIENT A/B = (99.5%/0.5% at 0 min, 99.5%/0.5% at 0.1 min, 20%/80% at 10 min, 0.5%/99.5% at 10.1 min, 0.5%/99.5% at 12.0 min, 99.5%/0.5% at 12.1 min, 99.5%/0.5% at 15.0 min)
AC$CHROMATOGRAPHY: FLOW_RATE 0.3 ml/min at 0 min, 0.3 ml/min at 10 min, 0.4 ml/min at 10.1 min, 0.4 ml/min at 14.4 min, 0.3 ml/min at 14.5 min
AC$CHROMATOGRAPHY: RETENTION_TIME 2.244817
AC$CHROMATOGRAPHY: SOLVENT A water including 0.1% formic acid
AC$CHROMATOGRAPHY: SOLVENT B acetonitrile including 0.1% formic acid
MS$FOCUSED_ION: PRECURSOR_TYPE [M+H]+
MS$FOCUSED_ION: PRECURSOR_M/Z 318.2903746
PK$SPLASH: splash10-014i-0009000000-4108b88712a1bb0d7a4a
PK$NUM_PEAK: 23
PK$PEAK: m/z int. rel.int.
  83.08823 5.0 5
  84.0792 7.0 7
  84.08387 12.0 12
  96.08182 10.0 10
  98.09593 13.0 13
  109.10431 6.0 6
  136.11125 7.0 7
  204.1573 5.0 5
  209.20978 6.0 6
  233.20628 9.0 9
  234.19579 8.0 8
  235.2122 20.0 20
  236.22522 10.0 10
  262.23096 6.0 6
  299.2587 8.0 8
  301.25247 6.0 6
  309.94504 7.0 7
  316.26157 6.0 6
  316.27942 6.0 6
  317.2811 12.0 12
  318.22482 6.0 6
  318.25684 15.0 15
  318.2908 1000.0 999
//
