ACCESSION: MSBNK-RIKEN-PR040029
RECORD_TITLE: Kaempferol; LC-ESI-QTOF; MS2; CE:Ramp 5-60 eV; [M+H]+
DATE: 2016.01.19 (Created 2007.11.09, modified 2011.05.06)
AUTHORS: Matsuda F, Plant Science Center, RIKEN.
LICENSE: CC BY-SA
CH$NAME: 3,4',5,7-tetrahydroxyflavone
CH$NAME: Kaempferol
CH$NAME: Kaem
CH$NAME: 3,5,7-trihydroxy-2-(4-hydroxyphenyl)chromen-4-one
CH$COMPOUND_CLASS: Natural Product
CH$FORMULA: C15H10O6
CH$EXACT_MASS: 286.04774
CH$SMILES: Oc(c3)ccc(c3)C(O1)=C(O)C(=O)c(c(O)2)c(cc(O)c2)1
CH$IUPAC: InChI=1S/C15H10O6/c16-8-3-1-7(2-4-8)15-14(20)13(19)12-10(18)5-9(17)6-11(12)21-15/h1-6,16-18,20H
CH$LINK: CAS 520-18-3
CH$LINK: KEGG C05903
CH$LINK: PUBCHEM CID:5280863
CH$LINK: INCHIKEY IYRMWMYZSQPJKC-UHFFFAOYSA-N
CH$LINK: COMPTOX DTXSID7020768
AC$INSTRUMENT: UPLC Q-Tof Premier, Waters
AC$INSTRUMENT_TYPE: LC-ESI-QTOF
AC$MASS_SPECTROMETRY: MS_TYPE MS2
AC$MASS_SPECTROMETRY: ION_MODE POSITIVE
AC$MASS_SPECTROMETRY: COLLISION_ENERGY Ramp 5-60 eV
AC$MASS_SPECTROMETRY: DATAFORMAT Continuum
AC$MASS_SPECTROMETRY: DESOLVATION_GAS_FLOW 600.0 L/Hr
AC$MASS_SPECTROMETRY: DESOLVATION_TEMPERATURE 400 C
AC$MASS_SPECTROMETRY: FRAGMENTATION_METHOD LOW-ENERGY CID
AC$MASS_SPECTROMETRY: IONIZATION ESI
AC$MASS_SPECTROMETRY: SCANNING 1.0 sec/scan (m/z = 50-1000)
AC$MASS_SPECTROMETRY: SOURCE_TEMPERATURE 120 C
AC$CHROMATOGRAPHY: CAPILLARY_VOLTAGE 3.0 kV
AC$CHROMATOGRAPHY: SAMPLING_CONE 23.0 V
AC$CHROMATOGRAPHY: SOLVENT A CH3CN(0.1%HCOOH)
AC$CHROMATOGRAPHY: SOLVENT B H2O(0.1%HCOOH)
MS$FOCUSED_ION: FULL_SCAN_FRAGMENT_ION_PEAK 287
MS$FOCUSED_ION: ION_TYPE [M+H]+
MS$DATA_PROCESSING: WHOLE MassLynx 4.1
PK$SPLASH: splash10-000i-0290000000-5573e7fd91cf25805a11
PK$NUM_PEAK: 22
PK$PEAK: m/z int. rel.int.
  68.9875 730 26
  77.0304 352 12
  93.0281 474 17
  105.0297 289 10
  107.0456 437 15
  111.0045 332 11
  115.0519 334 12
  121.0263 1792 64
  128.0604 432 15
  137.0226 586 21
  147.0437 416 14
  153.0182 3184 114
  157.0649 557 20
  165.0187 1240 44
  185.0607 293 10
  213.0558 977 35
  231.0665 301 10
  241.0511 428 15
  258.0534 656 23
  287.0556 27740 999
  287.1405 1556 56
  288.0591 1813 65
//
