ACCESSION: MSBNK-RIKEN-PR300248
RECORD_TITLE: Calycanthine; LC-ESI-QTOF; MS2
DATE: 2019.03.28
AUTHORS: Tetsuya Mori, Center for Sustainable Resource Science, RIKEN
LICENSE: CC BY-NC-SA
PUBLICATION: Tsugawa H., Nakabayashi R., Mori T., Yamada Y., Takahashi M., Rai A., Sugiyama R., Yamamoto H., Nakaya T., Yamazaki M., Kooke R., Bac-Molenaar JA., Oztolan-Erol N., Keurentjes JJB., Arita M., Saito K. (2019) "A cheminformatics approach to characterize metabolomes in stable-isotope-labeled organisms" Nature Methods 16(4):295-298. [doi:10.1038/s41592-019-0358-2]
COMMENT: registered in RIKEN PlaSMA
CH$NAME: Calycanthine
CH$COMPOUND_CLASS: Aminoquinolines and derivatives
CH$FORMULA: C22H26N4
CH$EXACT_MASS: 346.478
CH$SMILES: CN1CC[C@@]23[C@@H]4NC5=CC=CC=C5[C@]2(CCN4C)[C@@H]1NC1=CC=CC=C31
CH$IUPAC: InChI=1S/C22H26N4/c1-25-13-11-22-16-8-4-5-9-17(16)23-19(25)21(22)12-14-26(2)20(22)24-18-10-6-3-7-15(18)21/h3-10,19-20,23-24H,11-14H2,1-2H3/t19-,20-,21-,22-/m1/s1
CH$LINK: INCHIKEY XSYCDVWYEVUDKQ-GXRSIYKFSA-N
AC$INSTRUMENT: LC, Waters Acquity UPLC System; MS, Waters Xevo G2 Q-Tof
AC$INSTRUMENT_TYPE: LC-ESI-QTOF
AC$MASS_SPECTROMETRY: MS_TYPE MS2
AC$MASS_SPECTROMETRY: ION_MODE POSITIVE
AC$MASS_SPECTROMETRY: COLLISION_ENERGY 6V
AC$MASS_SPECTROMETRY: DESOLVATION_GAS_FLOW 800/h
AC$MASS_SPECTROMETRY: DESOLVATION_TEMPERATURE 450 C
AC$MASS_SPECTROMETRY: IONIZATION ESI
AC$CHROMATOGRAPHY: CAPILLARY_VOLTAGE +3.00 kV
AC$CHROMATOGRAPHY: COLUMN_NAME Acquity bridged ethyl hybrid C18 (1.7 um, 2.1 mm * 100 mm, Waters)
AC$CHROMATOGRAPHY: COLUMN_TEMPERATURE 40 C
AC$CHROMATOGRAPHY: FLOW_GRADIENT A/B = (99.5%/0.5% at 0 min, 99.5%/0.5% at 0.1 min, 20%/80% at 10 min, 0.5%/99.5% at 10.1 min, 0.5%/99.5% at 12.0 min, 99.5%/0.5% at 12.1 min, 99.5%/0.5% at 15.0 min)
AC$CHROMATOGRAPHY: FLOW_RATE 0.3 ml/min at 0 min, 0.3 ml/min at 10 min, 0.4 ml/min at 10.1 min, 0.4 ml/min at 14.4 min, 0.3 ml/min at 14.5 min
AC$CHROMATOGRAPHY: RETENTION_TIME 2.574817
AC$CHROMATOGRAPHY: SOLVENT A water including 0.1% formic acid
AC$CHROMATOGRAPHY: SOLVENT B acetonitrile including 0.1% formic acid
MS$FOCUSED_ION: PRECURSOR_TYPE [M+H]+
MS$FOCUSED_ION: PRECURSOR_M/Z 347.2230233
PK$SPLASH: splash10-05aj-0490000000-7deaf5390cda5825f6ee
PK$NUM_PEAK: 144
PK$PEAK: m/z int. rel.int.
  84.07757 28.0 28
  96.07498 51.0 51
  96.08209 129.0 129
  96.08836 83.0 83
  98.09237 32.0 32
  109.56782 25.0 25
  118.06266 19.0 19
  119.07464 32.0 32
  128.05956 25.0 25
  130.06462 590.0 589
  130.1561 21.0 21
  131.06407 24.0 24
  132.06279 23.0 23
  132.07381 110.0 110
  132.08174 438.0 438
  133.07945 39.0 39
  142.06335 24.0 24
  143.08571 34.0 34
  144.07971 542.0 541
  145.08287 56.0 56
  155.06529 28.0 28
  156.0836 24.0 24
  158.09927 50.0 50
  159.08566 47.0 47
  159.0943 23.0 23
  160.09386 33.0 33
  168.0809 91.0 91
  170.07628 23.0 23
  170.09248 35.0 35
  170.77847 28.0 28
  171.09229 21.0 21
  171.1022 26.0 26
  171.11308 54.0 54
  171.93314 22.0 22
  172.10312 55.0 55
  172.11826 21.0 21
  173.10732 683.0 682
  174.10741 62.0 62
  174.1218 26.0 26
  176.02461 23.0 23
  179.33311 27.0 27
  180.07979 213.0 213
  181.08325 23.0 23
  182.08667 19.0 19
  182.09523 28.0 28
  183.10315 28.0 28
  184.10458 33.0 33
  185.0928 21.0 21
  185.11076 60.0 60
  187.11894 23.0 23
  196.09659 26.0 26
  198.1066 27.0 27
  199.11739 27.0 27
  199.13544 31.0 31
  200.1272 47.0 47
  204.08144 34.0 34
  208.09494 19.0 19
  209.11195 28.0 28
  211.09795 64.0 64
  211.1228 460.0 460
  211.194 34.0 34
  212.11998 41.0 41
  217.07773 23.0 23
  218.07124 28.0 28
  219.0843 26.0 26
  220.08926 33.0 33
  220.12297 23.0 23
  222.11229 24.0 24
  223.12265 65.0 65
  223.14255 21.0 21
  224.12128 30.0 30
  231.07814 30.0 30
  231.08646 49.0 49
  232.09514 161.0 161
  232.10661 186.0 186
  232.97884 99.0 99
  233.0827 18.0 18
  233.09282 58.0 58
  233.11385 399.0 399
  233.17564 19.0 19
  234.10913 224.0 224
  241.09473 24.0 24
  243.09592 46.0 46
  243.10605 40.0 40
  244.07431 30.0 30
  244.09843 104.0 104
  245.10393 23.0 23
  245.11609 46.0 46
  246.11725 23.0 23
  247.05576 24.0 24
  247.06863 22.0 22
  247.12241 1000.0 999
  248.12207 178.0 178
  248.13284 46.0 46
  249.13454 25.0 25
  256.08875 24.0 24
  256.10114 43.0 43
  256.11407 19.0 19
  257.08102 25.0 25
  257.10526 149.0 149
  257.12317 116.0 116
  258.1033 58.0 58
  259.11334 167.0 167
  259.12561 767.0 766
  260.11041 75.0 75
  260.12503 112.0 112
  260.1369 89.0 89
  261.11581 19.0 19
  261.13232 19.0 19
  268.10049 32.0 32
  268.11069 32.0 32
  269.09506 24.0 24
  269.11176 43.0 43
  270.11984 246.0 246
  271.10684 24.0 24
  271.12875 26.0 26
  273.09766 19.0 19
  273.13541 130.0 130
  273.1524 60.0 60
  273.91992 19.0 19
  274.13712 25.0 25
  274.15598 57.0 57
  275.14389 24.0 24
  275.1575 22.0 22
  283.13181 51.0 51
  285.10651 34.0 34
  285.11844 39.0 39
  285.14172 567.0 566
  285.76123 27.0 27
  287.14642 23.0 23
  288.1608 88.0 88
  289.15146 21.0 21
  290.15906 32.0 32
  290.17459 126.0 126
  290.19708 19.0 19
  291.16788 91.0 91
  304.17545 57.0 57
  316.17032 87.0 87
  316.19406 33.0 33
  317.18198 69.0 69
  318.51721 44.0 44
  347.19495 54.0 54
  347.2157 28.0 28
  347.23328 43.0 43
//
