ACCESSION: MSBNK-RIKEN-PR310640
RECORD_TITLE: Isomajdine; LC-ESI-QTOF; MS2
DATE: 2019.03.28
AUTHORS: Tetsuya Mori, Center for Sustainable Resource Science, RIKEN
LICENSE: CC BY-NC-SA
PUBLICATION: Tsugawa H., Nakabayashi R., Mori T., Yamada Y., Takahashi M., Rai A., Sugiyama R., Yamamoto H., Nakaya T., Yamazaki M., Kooke R., Bac-Molenaar JA., Oztolan-Erol N., Keurentjes JJB., Arita M., Saito K. (2019) "A cheminformatics approach to characterize metabolomes in stable-isotope-labeled organisms" Nature Methods 16(4):295-298. [doi:10.1038/s41592-019-0358-2]
COMMENT: Annotation level-1
CH$NAME: Isomajdine
CH$COMPOUND_CLASS: Alkaloids
CH$FORMULA: C23H28N2O6
CH$EXACT_MASS: 428.485
CH$SMILES: COC(=O)C1=COC(C)C2CN3CCC4(C3CC12)C(=O)NC1=C4C=CC(OC)=C1OC
CH$IUPAC: InChI=1S/C23H28N2O6/c1-12-14-10-25-8-7-23(18(25)9-13(14)15(11-31-12)21(26)30-4)16-5-6-17(28-2)20(29-3)19(16)24-22(23)27/h5-6,11-14,18H,7-10H2,1-4H3,(H,24,27)
CH$LINK: INCHIKEY TTZWEOINXHJHCY-UHFFFAOYSA-N
AC$INSTRUMENT: LC, Waters Acquity UPLC System; MS, Waters Xevo G2 Q-Tof
AC$INSTRUMENT_TYPE: LC-ESI-QTOF
AC$MASS_SPECTROMETRY: MS_TYPE MS2
AC$MASS_SPECTROMETRY: ION_MODE POSITIVE
AC$MASS_SPECTROMETRY: COLLISION_ENERGY 6V
AC$MASS_SPECTROMETRY: DESOLVATION_GAS_FLOW 800/h
AC$MASS_SPECTROMETRY: DESOLVATION_TEMPERATURE 450 C
AC$MASS_SPECTROMETRY: IONIZATION ESI
AC$CHROMATOGRAPHY: CAPILLARY_VOLTAGE +3.00 kV
AC$CHROMATOGRAPHY: COLUMN_NAME Acquity bridged ethyl hybrid C18 (1.7 um, 2.1 mm * 100 mm, Waters)
AC$CHROMATOGRAPHY: COLUMN_TEMPERATURE 40 C
AC$CHROMATOGRAPHY: FLOW_GRADIENT A/B = (99.5%/0.5% at 0 min, 99.5%/0.5% at 0.1 min, 20%/80% at 10 min, 0.5%/99.5% at 10.1 min, 0.5%/99.5% at 12.0 min, 99.5%/0.5% at 12.1 min, 99.5%/0.5% at 15.0 min)
AC$CHROMATOGRAPHY: FLOW_RATE 0.3 ml/min at 0 min, 0.3 ml/min at 10 min, 0.4 ml/min at 10.1 min, 0.4 ml/min at 14.4 min, 0.3 ml/min at 14.5 min
AC$CHROMATOGRAPHY: RETENTION_TIME 4.48
AC$CHROMATOGRAPHY: SOLVENT A water including 0.1% formic acid
AC$CHROMATOGRAPHY: SOLVENT B acetonitrile including 0.1% formic acid
MS$FOCUSED_ION: PRECURSOR_TYPE [M+H]+
MS$FOCUSED_ION: PRECURSOR_M/Z 429.20201
PK$SPLASH: splash10-004i-0243900000-7876cebd20919194b321
PK$NUM_PEAK: 1064
PK$PEAK: m/z int. rel.int.
  56.05183 22.0 0
  57.96324 18.0 0
  58.0626 23.0 0
  58.06753 36.0 0
  63.25345 22.0 0
  68.0498 25.0 0
  70.06617 238.0 2
  70.5891 22.0 0
  71.53242 25.0 0
  75.12778 26.0 0
  75.58562 23.0 0
  79.05309 27.0 0
  80.05045 187.0 1
  82.06596 20.0 0
  87.04501 50.0 0
  87.3844 47.0 0
  89.92816 27.0 0
  93.05991 41.0 0
  93.07373 51.0 0
  93.62637 27.0 0
  95.05214 54.0 0
  95.08382 27.0 0
  96.01996 36.0 0
  96.05087 25.0 0
  96.08066 54.0 0
  97.02621 32.0 0
  103.05652 18.0 0
  103.14294 20.0 0
  105.07217 40.0 0
  106.06192 54.0 0
  107.06177 20.0 0
  107.07215 30.0 0
  108.04633 39.0 0
  108.06324 22.0 0
  108.08318 730.0 5
  109.06348 34.0 0
  109.07188 57.0 0
  109.08471 39.0 0
  109.09366 22.0 0
  111.03798 17.0 0
  111.85455 17.0 0
  116.04845 35.0 0
  117.05769 32.0 0
  119.07457 27.0 0
  119.47897 19.0 0
  120.04023 52.0 0
  120.04848 31.0 0
  120.46059 19.0 0
  120.55105 18.0 0
  121.06833 24.0 0
  121.09235 48.0 0
  122.04744 18.0 0
  122.08972 27.0 0
  122.09772 32.0 0
  123.04121 37.0 0
  123.04601 34.0 0
  123.0768 34.0 0
  123.09254 51.0 0
  123.10206 48.0 0
  124.03941 367.0 3
  124.0603 45.0 0
  125.04466 20.0 0
  127.9488 19.0 0
  130.05209 21.0 0
  130.06586 325.0 2
  131.04233 24.0 0
  131.06999 182.0 1
  131.08461 48.0 0
  132.06206 24.0 0
  132.08426 98.0 1
  133.06468 43.0 0
  134.05115 18.0 0
  134.06604 46.0 0
  135.04871 66.0 0
  135.9537 31.0 0
  136.06831 22.0 0
  136.07718 18.0 0
  136.0854 31.0 0
  136.11494 29.0 0
  137.05363 71.0 1
  138.05907 31.0 0
  139.02966 17.0 0
  139.03987 103.0 1
  139.07458 61.0 0
  140.0401 21.0 0
  142.39507 24.0 0
  143.07544 77.0 1
  144.07387 27.0 0
  144.15996 17.0 0
  144.93781 21.0 0
  145.05598 42.0 0
  146.06009 253.0 2
  146.07169 39.0 0
  146.69693 22.0 0
  147.04265 29.0 0
  147.06627 174.0 1
  147.8262 20.0 0
  148.04955 42.0 0
  148.07726 83.0 1
  149.05556 118.0 1
  149.07922 88.0 1
  150.05646 51.0 0
  150.08618 43.0 0
  150.09514 179.0 1
  151.07065 25.0 0
  151.0779 80.0 1
  153.05141 19.0 0
  154.05701 24.0 0
  155.05727 21.0 0
  155.07108 58.0 0
  155.08699 35.0 0
  156.00371 20.0 0
  156.07468 25.0 0
  157.8857 23.0 0
  157.9819 32.0 0
  158.0547 321.0 2
  158.06366 459.0 3
  158.09804 32.0 0
  158.13425 25.0 0
  159.0246 25.0 0
  159.04883 61.0 0
  159.06091 149.0 1
  159.07022 390.0 3
  160.00288 25.0 0
  160.0596 87.0 1
  160.07712 1091.0 8
  161.0508 35.0 0
  161.06453 32.0 0
  161.07835 268.0 2
  161.08577 764.0 6
  162.05862 184.0 1
  162.07658 34.0 0
  162.08978 263.0 2
  162.10498 103.0 1
  162.1599 19.0 0
  163.04878 21.0 0
  163.06131 34.0 0
  163.07188 52.0 0
  163.0844 63.0 0
  163.10146 30.0 0
  163.71202 18.0 0
  164.04153 26.0 0
  164.05138 46.0 0
  164.06885 35.0 0
  164.07784 20.0 0
  164.09731 42.0 0
  164.1071 141.0 1
  164.74065 28.0 0
  165.10699 57.0 0
  167.04549 17.0 0
  167.0574 52.0 0
  167.07057 123.0 1
  167.09543 25.0 0
  168.07111 18.0 0
  169.08469 52.0 0
  169.86049 28.0 0
  170.09624 57.0 0
  171.07556 56.0 0
  172.04179 645.0 5
  172.05707 86.0 1
  172.07816 137.0 1
  172.08899 19.0 0
  172.7682 33.0 0
  173.04141 203.0 2
  173.05124 78.0 1
  173.07561 30.0 0
  173.08322 29.0 0
  173.09479 69.0 1
  173.76149 24.0 0
  174.05235 388.0 3
  174.0639 224.0 2
  174.07666 18.0 0
  174.08852 51.0 0
  174.0984 18.0 0
  174.81041 18.0 0
  175.05791 290.0 2
  175.07806 222.0 2
  176.0582 78.0 1
  176.06963 220.0 2
  176.07785 243.0 2
  176.09032 35.0 0
  176.11217 17.0 0
  177.03397 17.0 0
  177.0522 29.0 0
  177.07817 365.0 3
  177.09149 52.0 0
  177.09964 23.0 0
  177.30898 17.0 0
  178.05231 44.0 0
  178.08691 2271.0 17
  179.07339 23.0 0
  179.08261 151.0 1
  179.09344 168.0 1
  179.12079 21.0 0
  179.43221 31.0 0
  180.06079 20.0 0
  180.07626 53.0 0
  180.08983 31.0 0
  180.10344 107.0 1
  180.35991 32.0 0
  180.98706 26.0 0
  182.43678 33.0 0
  183.07297 63.0 0
  183.67419 20.0 0
  184.07971 81.0 1
  185.0621 33.0 0
  185.09305 43.0 0
  186.04865 69.0 1
  186.05884 45.0 0
  186.3873 18.0 0
  186.71184 31.0 0
  187.03766 65.0 0
  187.06267 2122.0 16
  187.06989 658.0 5
  187.15372 18.0 0
  188.02475 53.0 0
  188.04189 71.0 1
  188.07138 1296.0 10
  188.26434 24.0 0
  188.89777 46.0 0
  189.05029 27.0 0
  189.07866 6213.0 46
  189.11572 43.0 0
  189.89098 46.0 0
  190.00233 17.0 0
  190.03247 51.0 0
  190.05367 552.0 4
  190.08588 1167.0 9
  190.53435 24.0 0
  190.9879 18.0 0
  191.05478 45.0 0
  191.08981 264.0 2
  191.81432 17.0 0
  192.0307 46.0 0
  192.04335 28.0 0
  192.06628 1501.0 11
  192.07928 295.0 2
  192.10059 1139.0 8
  192.11421 143.0 1
  192.16357 53.0 0
  193.07101 230.0 2
  193.10277 76.0 1
  193.1129 131.0 1
  193.15225 18.0 0
  193.33363 39.0 0
  193.59264 17.0 0
  193.82431 49.0 0
  194.07779 47.0 0
  195.08459 36.0 0
  195.61707 29.0 0
  196.07608 20.0 0
  197.08101 43.0 0
  197.19179 31.0 0
  198.73758 18.0 0
  199.05219 26.0 0
  199.06462 115.0 1
  199.08307 22.0 0
  199.08995 30.0 0
  199.24193 20.0 0
  199.86017 23.0 0
  200.0717 63.0 0
  200.0976 25.0 0
  200.108 56.0 0
  200.85551 42.0 0
  201.08232 74.0 1
  202.05049 44.0 0
  202.07799 106.0 1
  202.08887 228.0 2
  203.0724 82.0 1
  204.06924 603.0 4
  204.10243 245.0 2
  204.11348 45.0 0
  204.64261 21.0 0
  204.71431 23.0 0
  205.0041 27.0 0
  205.03612 40.0 0
  205.04704 30.0 0
  205.07457 1626.0 12
  205.11044 44.0 0
  205.67915 30.0 0
  205.77214 25.0 0
  206.06332 85.0 1
  206.07663 378.0 3
  207.07552 17.0 0
  207.08632 30.0 0
  207.09483 40.0 0
  207.37314 21.0 0
  208.07916 25.0 0
  208.09479 140.0 1
  208.76057 17.0 0
  209.08839 26.0 0
  209.10504 20.0 0
  209.92171 18.0 0
  210.09293 20.0 0
  210.1151 1037.0 8
  211.04761 20.0 0
  211.06381 58.0 0
  211.07455 28.0 0
  211.10297 46.0 0
  211.11543 93.0 1
  211.65871 17.0 0
  212.04594 25.0 0
  212.05803 39.0 0
  212.09987 17.0 0
  212.11478 20.0 0
  212.12526 26.0 0
  213.02849 45.0 0
  213.05434 56.0 0
  213.06439 31.0 0
  213.07832 34.0 0
  213.08865 33.0 0
  214.05331 24.0 0
  214.07729 24.0 0
  214.08701 41.0 0
  214.11041 315.0 2
  215.06787 47.0 0
  215.07736 31.0 0
  215.10176 31.0 0
  215.12062 25.0 0
  216.05775 27.0 0
  216.06967 52.0 0
  216.09183 475.0 4
  216.10316 140.0 1
  216.11469 19.0 0
  216.61438 17.0 0
  217.06856 35.0 0
  217.08214 70.0 1
  217.0954 71.0 1
  217.10585 17.0 0
  217.85477 21.0 0
  217.9968 18.0 0
  218.00505 28.0 0
  218.02637 22.0 0
  218.05264 28.0 0
  218.08112 3942.0 29
  218.11298 117.0 1
  218.13197 27.0 0
  218.21205 20.0 0
  218.44421 55.0 0
  219.0668 40.0 0
  219.07852 150.0 1
  219.09059 455.0 3
  219.11034 42.0 0
  219.19905 37.0 0
  219.53972 17.0 0
  219.7941 17.0 0
  219.99881 73.0 1
  220.01953 61.0 0
  220.04489 53.0 0
  220.06026 322.0 2
  220.09727 20003.0 149
  220.13875 308.0 2
  220.17291 50.0 0
  220.18115 37.0 0
  220.21721 64.0 0
  220.26091 18.0 0
  220.27058 26.0 0
  220.3618 17.0 0
  220.61397 20.0 0
  221.06857 41.0 0
  221.10213 2881.0 21
  221.39153 22.0 0
  221.43539 19.0 0
  221.66983 20.0 0
  221.82394 46.0 0
  221.99294 17.0 0
  222.05118 19.0 0
  222.09383 89.0 1
  222.10526 487.0 4
  222.17999 18.0 0
  222.24368 30.0 0
  222.26471 22.0 0
  222.7917 21.0 0
  222.84767 17.0 0
  223.07906 23.0 0
  223.10023 109.0 1
  223.11125 75.0 1
  223.1284 63.0 0
  223.17741 17.0 0
  223.2433 24.0 0
  223.62386 39.0 0
  223.66388 46.0 0
  223.99843 33.0 0
  224.09236 19.0 0
  224.12596 194.0 1
  224.26404 17.0 0
  224.42061 17.0 0
  224.54007 20.0 0
  224.86119 21.0 0
  225.22136 17.0 0
  225.83267 17.0 0
  226.11182 18.0 0
  226.57454 21.0 0
  227.11987 17.0 0
  228.04605 33.0 0
  228.07556 29.0 0
  228.08604 22.0 0
  228.90877 28.0 0
  229.0562 22.0 0
  229.07265 77.0 1
  229.09082 149.0 1
  229.10403 170.0 1
  229.21944 18.0 0
  229.93036 38.0 0
  230.07533 237.0 2
  230.10478 1877.0 14
  230.11414 642.0 5
  230.13029 45.0 0
  230.77933 25.0 0
  231.06224 30.0 0
  231.08826 119.0 1
  231.10419 147.0 1
  231.11656 267.0 2
  231.20857 33.0 0
  231.34254 23.0 0
  232.07478 40.0 0
  232.09785 366.0 3
  232.12192 35.0 0
  233.08153 47.0 0
  233.09651 169.0 1
  233.13258 97.0 1
  233.58804 18.0 0
  234.0386 27.0 0
  234.08952 26.0 0
  234.1042 64.0 0
  234.1317 20.0 0
  234.22079 20.0 0
  235.10556 29.0 0
  235.26895 27.0 0
  235.42674 20.0 0
  236.10298 38.0 0
  236.11633 32.0 0
  237.0511 30.0 0
  237.0649 30.0 0
  237.10867 27.0 0
  237.13628 21.0 0
  238.30655 17.0 0
  239.08672 18.0 0
  240.02812 34.0 0
  240.07249 30.0 0
  240.0874 131.0 1
  241.08496 19.0 0
  241.11588 18.0 0
  242.09987 43.0 0
  242.10753 35.0 0
  242.11896 33.0 0
  243.06609 76.0 1
  243.08044 217.0 2
  243.10982 20.0 0
  243.38889 29.0 0
  243.72269 22.0 0
  244.08786 186.0 1
  244.10062 43.0 0
  244.10939 23.0 0
  244.61411 21.0 0
  245.07521 39.0 0
  245.08936 105.0 1
  245.09862 48.0 0
  245.13011 51.0 0
  245.15524 18.0 0
  245.41478 21.0 0
  245.63356 17.0 0
  245.82591 25.0 0
  246.08969 32.0 0
  246.10274 145.0 1
  246.11273 105.0 1
  246.14151 61.0 0
  247.08067 20.0 0
  247.11115 505.0 4
  247.13162 40.0 0
  247.15134 48.0 0
  247.90916 25.0 0
  247.97716 19.0 0
  248.069 20.0 0
  248.08073 20.0 0
  248.10785 123.0 1
  248.92464 27.0 0
  249.12234 25.0 0
  249.13594 42.0 0
  250.1367 27.0 0
  250.47192 18.0 0
  250.65956 29.0 0
  250.74002 17.0 0
  251.00255 17.0 0
  251.12242 35.0 0
  251.94684 20.0 0
  252.3407 30.0 0
  252.78123 21.0 0
  253.01985 28.0 0
  253.03152 25.0 0
  253.09639 29.0 0
  253.13951 26.0 0
  253.2769 22.0 0
  253.73622 28.0 0
  253.82547 22.0 0
  254.13075 26.0 0
  255.05814 23.0 0
  255.06909 35.0 0
  255.10132 47.0 0
  255.11049 25.0 0
  255.95514 18.0 0
  256.07877 19.0 0
  256.10849 52.0 0
  256.12427 37.0 0
  256.14691 30.0 0
  256.46414 34.0 0
  257.07462 34.0 0
  257.10007 180.0 1
  257.17004 41.0 0
  258.08328 19.0 0
  258.09763 173.0 1
  258.1188 44.0 0
  258.15884 26.0 0
  258.29065 17.0 0
  258.54233 29.0 0
  258.88062 20.0 0
  259.08807 37.0 0
  259.10834 317.0 2
  259.12296 105.0 1
  259.25519 39.0 0
  260.11212 28.0 0
  261.07755 46.0 0
  261.09186 85.0 1
  261.12424 4725.0 35
  261.19934 19.0 0
  261.78827 20.0 0
  261.8941 17.0 0
  262.09521 21.0 0
  262.12665 773.0 6
  262.14154 112.0 1
  262.21887 19.0 0
  262.61066 24.0 0
  263.0752 18.0 0
  263.09399 58.0 0
  263.10776 30.0 0
  263.11734 55.0 0
  263.12692 82.0 1
  263.1571 41.0 0
  263.21762 22.0 0
  263.48328 23.0 0
  264.0907 135.0 1
  265.08511 27.0 0
  265.09851 49.0 0
  265.10892 47.0 0
  265.27252 33.0 0
  265.91602 25.0 0
  266.09671 88.0 1
  266.13666 21.0 0
  266.15228 21.0 0
  266.35693 17.0 0
  266.58975 18.0 0
  267.05936 87.0 1
  267.07361 72.0 1
  267.11234 26.0 0
  267.16064 32.0 0
  267.57043 28.0 0
  267.97476 18.0 0
  268.06995 26.0 0
  268.20209 26.0 0
  268.35434 17.0 0
  268.68484 22.0 0
  268.87393 19.0 0
  269.11136 57.0 0
  269.13037 31.0 0
  269.64328 20.0 0
  270.09039 56.0 0
  270.11707 22.0 0
  270.13062 22.0 0
  270.51306 18.0 0
  270.61563 41.0 0
  270.92468 17.0 0
  271.06265 26.0 0
  271.11102 87.0 1
  271.14902 24.0 0
  272.12045 60.0 0
  272.60385 18.0 0
  272.68936 34.0 0
  272.85471 17.0 0
  273.04208 25.0 0
  273.05841 18.0 0
  273.08426 21.0 0
  273.09158 50.0 0
  273.12534 5002.0 37
  274.09082 27.0 0
  274.12659 676.0 5
  274.14432 96.0 1
  274.58823 33.0 0
  274.60721 25.0 0
  274.91388 20.0 0
  275.01569 17.0 0
  275.04938 39.0 0
  275.0831 19.0 0
  275.10672 57.0 0
  275.14215 431.0 3
  275.17062 18.0 0
  275.18567 28.0 0
  275.45163 20.0 0
  276.0014 18.0 0
  276.12314 82.0 1
  276.13739 65.0 0
  276.14743 72.0 1
  277.09998 50.0 0
  277.12036 57.0 0
  277.16092 38.0 0
  279.87213 17.0 0
  280.08267 26.0 0
  280.09531 30.0 0
  280.64606 31.0 0
  281.10373 46.0 0
  282.08817 56.0 0
  282.10675 94.0 1
  282.15524 41.0 0
  282.83957 20.0 0
  282.91089 18.0 0
  283.0993 20.0 0
  283.12991 34.0 0
  283.14407 19.0 0
  283.81793 43.0 0
  283.83334 23.0 0
  284.11514 29.0 0
  284.12448 54.0 0
  284.43903 35.0 0
  284.53287 24.0 0
  285.11313 47.0 0
  285.12924 127.0 1
  285.59564 26.0 0
  285.85391 71.0 1
  286.11478 58.0 0
  287.14886 20.0 0
  287.263 20.0 0
  288.93433 25.0 0
  289.12238 28.0 0
  289.15991 19.0 0
  289.42456 17.0 0
  289.62256 26.0 0
  290.11597 24.0 0
  290.15933 108.0 1
  290.41852 27.0 0
  291.08203 45.0 0
  291.10132 23.0 0
  291.93069 35.0 0
  292.05801 70.0 1
  292.08389 288.0 2
  292.1008 37.0 0
  292.13168 78.0 1
  292.56064 30.0 0
  292.84637 22.0 0
  293.08017 51.0 0
  293.13412 44.0 0
  293.90915 32.0 0
  294.06271 17.0 0
  294.10236 46.0 0
  294.13577 20.0 0
  294.98615 25.0 0
  295.06827 39.0 0
  295.08081 30.0 0
  295.14056 20.0 0
  296.07654 39.0 0
  296.11346 24.0 0
  296.16318 34.0 0
  297.08087 17.0 0
  297.09497 19.0 0
  297.12402 689.0 5
  297.14331 157.0 1
  297.15823 43.0 0
  297.42642 32.0 0
  298.07977 17.0 0
  298.09991 18.0 0
  298.11621 61.0 0
  298.12729 143.0 1
  298.14072 166.0 1
  299.03815 24.0 0
  299.09534 30.0 0
  299.11151 58.0 0
  299.13809 2009.0 15
  299.48581 45.0 0
  299.58334 45.0 0
  300.09238 21.0 0
  300.11789 69.0 1
  300.14435 330.0 2
  300.18243 37.0 0
  300.43832 18.0 0
  300.50485 27.0 0
  301.11353 24.0 0
  301.12292 22.0 0
  301.14163 154.0 1
  301.15573 733.0 5
  302.15414 145.0 1
  302.16656 37.0 0
  302.39374 21.0 0
  303.16434 36.0 0
  304.06589 22.0 0
  305.12671 29.0 0
  305.40085 46.0 0
  306.07651 24.0 0
  306.78836 46.0 0
  307.10272 44.0 0
  307.13287 25.0 0
  307.14865 23.0 0
  308.07327 28.0 0
  308.11697 67.0 0
  308.5686 26.0 0
  309.09528 41.0 0
  309.11465 22.0 0
  309.13321 30.0 0
  309.16809 35.0 0
  310.04663 22.0 0
  310.06799 30.0 0
  310.08426 125.0 1
  310.09918 260.0 2
  310.11682 20.0 0
  310.13757 70.0 1
  311.09378 25.0 0
  311.12485 24.0 0
  311.14233 110.0 1
  311.72748 28.0 0
  312.14328 26.0 0
  313.11823 55.0 0
  313.1348 70.0 1
  313.15961 125.0 1
  313.17462 22.0 0
  313.31241 27.0 0
  313.44269 22.0 0
  313.92474 27.0 0
  314.11676 22.0 0
  314.1387 21.0 0
  314.16241 48.0 0
  314.77051 33.0 0
  315.12228 51.0 0
  315.13593 21.0 0
  316.48581 17.0 0
  317.08014 22.0 0
  317.22208 35.0 0
  317.42191 24.0 0
  317.76334 29.0 0
  318.13855 119.0 1
  319.13794 27.0 0
  319.99924 26.0 0
  320.13348 22.0 0
  320.15854 32.0 0
  322.13226 18.0 0
  322.14514 26.0 0
  323.09521 18.0 0
  323.14597 39.0 0
  323.17554 38.0 0
  324.08435 23.0 0
  324.11389 20.0 0
  324.1619 57.0 0
  325.04669 21.0 0
  325.11664 1977.0 15
  325.12811 1448.0 11
  325.15521 584.0 4
  325.19003 30.0 0
  325.20184 20.0 0
  325.23355 33.0 0
  325.25555 25.0 0
  325.55591 23.0 0
  326.01697 31.0 0
  326.04694 34.0 0
  326.09805 123.0 1
  326.11801 564.0 4
  326.13135 308.0 2
  326.15427 81.0 1
  326.17639 37.0 0
  326.73029 18.0 0
  326.85794 18.0 0
  327.10046 73.0 1
  327.12756 31.0 0
  327.15784 515.0 4
  327.17157 1300.0 10
  327.23727 45.0 0
  327.82043 18.0 0
  328.1268 17.0 0
  328.14368 47.0 0
  328.15433 44.0 0
  328.17407 323.0 2
  328.19421 22.0 0
  329.05646 33.0 0
  329.09494 22.0 0
  329.11081 106.0 1
  329.1225 100.0 1
  329.13568 73.0 1
  329.17105 30.0 0
  329.20273 40.0 0
  329.26974 20.0 0
  329.87158 17.0 0
  330.12436 43.0 0
  330.84851 18.0 0
  331.08783 24.0 0
  331.44897 17.0 0
  331.47165 17.0 0
  333.27304 17.0 0
  333.73303 33.0 0
  334.36121 20.0 0
  335.10196 30.0 0
  335.13977 69.0 1
  336.10696 25.0 0
  336.14178 107.0 1
  337.1539 99.0 1
  337.18359 18.0 0
  338.11395 30.0 0
  338.13846 57.0 0
  338.16193 31.0 0
  339.15512 18.0 0
  339.17163 20.0 0
  339.1864 21.0 0
  339.3309 21.0 0
  339.63016 21.0 0
  340.10028 18.0 0
  341.11331 55.0 0
  341.1225 20.0 0
  341.15073 62.0 0
  341.1792 62.0 0
  341.19345 44.0 0
  341.20627 22.0 0
  342.10403 28.0 0
  342.11801 68.0 1
  342.18314 25.0 0
  342.51105 25.0 0
  343.10077 18.0 0
  343.12231 103.0 1
  343.13644 266.0 2
  343.17151 22.0 0
  343.53409 17.0 0
  343.81107 31.0 0
  344.04993 22.0 0
  344.12131 68.0 1
  344.16006 30.0 0
  344.18008 21.0 0
  344.3699 26.0 0
  345.65262 18.0 0
  345.79877 31.0 0
  346.13876 36.0 0
  346.15622 21.0 0
  346.73483 17.0 0
  347.10471 17.0 0
  348.13245 25.0 0
  348.96765 23.0 0
  349.08182 28.0 0
  349.10889 26.0 0
  350.11569 22.0 0
  350.37183 17.0 0
  351.16791 290.0 2
  351.63672 31.0 0
  352.12448 22.0 0
  352.14258 21.0 0
  352.16965 141.0 1
  352.18945 19.0 0
  353.09561 18.0 0
  353.11865 89.0 1
  353.151 1447.0 11
  353.19254 30.0 0
  353.40793 17.0 0
  353.66147 23.0 0
  354.03247 21.0 0
  354.06613 24.0 0
  354.12524 56.0 0
  354.15442 584.0 4
  354.63226 33.0 0
  354.72174 54.0 0
  355.10699 20.0 0
  355.1333 56.0 0
  355.16251 130.0 1
  355.19809 27.0 0
  356.03897 18.0 0
  356.14948 50.0 0
  356.1691 25.0 0
  357.14929 45.0 0
  357.1936 20.0 0
  358.14786 70.0 1
  359.89606 21.0 0
  361.03186 18.0 0
  361.13168 19.0 0
  361.15549 26.0 0
  361.75388 21.0 0
  363.12924 31.0 0
  363.285 23.0 0
  364.13968 122.0 1
  364.24792 18.0 0
  365.15851 51.0 0
  365.64825 36.0 0
  366.11279 28.0 0
  366.18481 27.0 0
  367.1615 168.0 1
  368.10126 18.0 0
  368.16287 20.0 0
  368.18057 32.0 0
  369.0838 20.0 0
  369.13535 22.0 0
  369.17792 1669.0 12
  370.12677 30.0 0
  370.1535 30.0 0
  370.18701 351.0 3
  370.58423 23.0 0
  370.70096 29.0 0
  370.73715 17.0 0
  371.15912 21.0 0
  371.17096 19.0 0
  371.20251 20.0 0
  371.38467 18.0 0
  371.71155 36.0 0
  371.9516 17.0 0
  373.17206 17.0 0
  376.88907 17.0 0
  376.99237 33.0 0
  377.14969 24.0 0
  377.45135 20.0 0
  379.15302 103.0 1
  379.16837 396.0 3
  380.17102 65.0 0
  381.13455 27.0 0
  381.15454 42.0 0
  381.1723 46.0 0
  381.57709 36.0 0
  382.14853 98.0 1
  382.16284 66.0 0
  382.18692 36.0 0
  382.42117 40.0 0
  382.78714 22.0 0
  383.12161 30.0 0
  383.14221 101.0 1
  383.16418 34.0 0
  383.81882 20.0 0
  385.09573 18.0 0
  385.13669 17.0 0
  385.17206 464.0 3
  385.34348 36.0 0
  385.98483 25.0 0
  386.16531 42.0 0
  386.18915 70.0 1
  387.17963 23.0 0
  387.19177 35.0 0
  388.28857 26.0 0
  389.48569 20.0 0
  389.58691 17.0 0
  390.35931 32.0 0
  393.85962 23.0 0
  394.5014 39.0 0
  395.16669 97.0 1
  395.45425 18.0 0
  396.16101 22.0 0
  396.65021 19.0 0
  396.81323 17.0 0
  396.94901 38.0 0
  396.96426 27.0 0
  397.0206 23.0 0
  397.05923 57.0 0
  397.07874 71.0 1
  397.12326 393.0 3
  397.17545 29579.0 220
  397.23416 554.0 4
  397.38324 18.0 0
  397.41589 18.0 0
  397.47006 25.0 0
  397.52704 18.0 0
  397.686 19.0 0
  397.86172 31.0 0
  397.92374 18.0 0
  397.94635 18.0 0
  398.07898 48.0 0
  398.09885 22.0 0
  398.11581 36.0 0
  398.1347 250.0 2
  398.17926 7332.0 54
  398.23315 17.0 0
  398.48203 40.0 0
  398.50018 41.0 0
  398.52704 24.0 0
  398.59665 17.0 0
  398.62885 23.0 0
  398.71017 31.0 0
  398.79184 28.0 0
  398.88263 20.0 0
  398.92944 20.0 0
  398.9437 19.0 0
  399.06384 21.0 0
  399.17886 1210.0 9
  399.21365 50.0 0
  399.27069 48.0 0
  399.28107 20.0 0
  399.62994 18.0 0
  399.72995 30.0 0
  399.87219 17.0 0
  400.18295 112.0 1
  400.2045 57.0 0
  400.54355 20.0 0
  401.1669 23.0 0
  401.20441 80.0 1
  401.22803 31.0 0
  402.19083 23.0 0
  402.21414 65.0 0
  403.13989 17.0 0
  404.12665 19.0 0
  404.97342 26.0 0
  405.01968 27.0 0
  407.20932 17.0 0
  407.61511 27.0 0
  407.64252 34.0 0
  408.91461 44.0 0
  409.72119 42.0 0
  411.19513 42.0 0
  412.06943 29.0 0
  412.43744 22.0 0
  413.15863 65.0 0
  413.17746 95.0 1
  414.17484 53.0 0
  414.18845 28.0 0
  414.4856 18.0 0
  415.43033 17.0 0
  415.918 33.0 0
  416.6611 26.0 0
  418.1207 22.0 0
  419.07236 18.0 0
  419.48251 18.0 0
  419.56393 18.0 0
  419.95981 20.0 0
  420.86337 24.0 0
  421.16055 18.0 0
  421.20163 17.0 0
  421.88309 18.0 0
  421.90802 20.0 0
  421.95343 17.0 0
  422.34744 39.0 0
  422.51181 18.0 0
  423.11176 18.0 0
  423.89615 66.0 0
  424.0499 23.0 0
  424.23801 18.0 0
  425.62659 33.0 0
  426.27289 17.0 0
  426.29141 18.0 0
  426.58591 27.0 0
  426.87894 25.0 0
  427.07901 48.0 0
  427.10983 27.0 0
  427.12262 17.0 0
  427.18298 473.0 4
  427.25345 17.0 0
  427.44824 19.0 0
  427.54565 30.0 0
  427.8334 18.0 0
  427.95908 23.0 0
  428.02719 23.0 0
  428.05362 17.0 0
  428.18185 268.0 2
  428.20993 39.0 0
  428.24808 17.0 0
  428.5574 21.0 0
  428.59012 21.0 0
  428.77365 39.0 0
  428.80334 17.0 0
  428.8381 44.0 0
  428.93033 29.0 0
  428.9639 17.0 0
  428.99048 18.0 0
  429.05731 40.0 0
  429.08453 170.0 1
  429.11624 230.0 2
  429.13385 914.0 7
  429.20193 134517.0 999
  429.26215 4299.0 32
  429.31549 839.0 6
  429.34497 23.0 0
  429.37891 123.0 1
//
