ACCESSION: MSBNK-RIKEN-PR100148
RECORD_TITLE: Indoleacetic acid; LC-ESI-QTOF; MS2; CE:Ramp 5-60 V; [M+H]+
DATE: 2016.01.19 (Created 2009.09.10, modified 2011.05.06)
AUTHORS: Matsuda F, Suzuki M, Sawada Y, Plant Science Center, RIKEN.
LICENSE: CC BY-SA
COMMENT: Acquisition and generation of the data is financially supported in part by CREST/JST.
CH$NAME: 3-Indoleacetic acid
CH$NAME: IAA
CH$NAME: 3-IAA
CH$NAME: Indoleacetate
CH$NAME: Indole-3-acetic acid
CH$NAME: Heteroauxin
CH$NAME: Rhizopin
CH$NAME: omega-Skatole carboxylic acid
CH$NAME: Rhizopon A
CH$NAME: Indoleacetic acid
CH$COMPOUND_CLASS: Indole
CH$FORMULA: C10H9NO2
CH$EXACT_MASS: 175.06333
CH$SMILES: C1=CC=C2C(=C1)C(=CN2)CC(=O)O
CH$IUPAC: InChI=1S/C10H9NO2/c12-10(13)5-7-6-11-9-4-2-1-3-8(7)9/h1-4,6,11H,5H2,(H,12,13)
CH$LINK: CAS 87-51-4
CH$LINK: CHEMSPIDER 780
CH$LINK: KAPPAVIEW KPC00325
CH$LINK: KEGG C00954
CH$LINK: KNAPSACK C00000100
CH$LINK: PUBCHEM CID:802
CH$LINK: INCHIKEY SEOVTRFCIGRIMH-UHFFFAOYSA-N
CH$LINK: COMPTOX DTXSID5020738
AC$INSTRUMENT: UPLC Q-Tof Premier, Waters
AC$INSTRUMENT_TYPE: LC-ESI-QTOF
AC$MASS_SPECTROMETRY: MS_TYPE MS2
AC$MASS_SPECTROMETRY: ION_MODE POSITIVE
AC$MASS_SPECTROMETRY: COLLISION_ENERGY Ramp 5-60 V
AC$MASS_SPECTROMETRY: DATAFORMAT Continuum
AC$MASS_SPECTROMETRY: DESOLVATION_GAS_FLOW 600.0 L/Hr
AC$MASS_SPECTROMETRY: DESOLVATION_TEMPERATURE 400 C
AC$MASS_SPECTROMETRY: FRAGMENTATION_METHOD LOW-ENERGY CID
AC$MASS_SPECTROMETRY: IONIZATION ESI
AC$MASS_SPECTROMETRY: SOURCE_TEMPERATURE 120 C
AC$CHROMATOGRAPHY: CAPILLARY_VOLTAGE 3.0 kV
AC$CHROMATOGRAPHY: SAMPLING_CONE 23.0 V
AC$CHROMATOGRAPHY: SOLVENT A CH3CN(0.1%HCOOH)
AC$CHROMATOGRAPHY: SOLVENT B H2O(0.1%HCOOH)
MS$FOCUSED_ION: PRECURSOR_M/Z 176.07113
MS$FOCUSED_ION: PRECURSOR_TYPE [M+H]+
PK$SPLASH: splash10-004i-0900000000-abd6ffb9975b465cf0a3
PK$NUM_PEAK: 3
PK$PEAK: m/z int. rel.int.
  130.0654 26.73 140
  176.0318 6.039 32
  176.0711 191.4 999
//
