ACCESSION: MSBNK-RIKEN-PR300884
RECORD_TITLE: Cinchonine; LC-ESI-QTOF; MS2
DATE: 2019.03.28
AUTHORS: Tetsuya Mori, Center for Sustainable Resource Science, RIKEN
LICENSE: CC BY-NC-SA
PUBLICATION: Tsugawa H., Nakabayashi R., Mori T., Yamada Y., Takahashi M., Rai A., Sugiyama R., Yamamoto H., Nakaya T., Yamazaki M., Kooke R., Bac-Molenaar JA., Oztolan-Erol N., Keurentjes JJB., Arita M., Saito K. (2019) "A cheminformatics approach to characterize metabolomes in stable-isotope-labeled organisms" Nature Methods 16(4):295-298. [doi:10.1038/s41592-019-0358-2]
COMMENT: registered in RIKEN PlaSMA
CH$NAME: Cinchonine
CH$COMPOUND_CLASS: Cinchona alkaloids
CH$FORMULA: C19H22N2O
CH$EXACT_MASS: 294.398
CH$SMILES: C=C[C@H]1CN2CC[C@H]1C[C@@H]2[C@H](C3=CC=NC4=CC=CC=C34)O
CH$IUPAC: InChI=1S/C19H22N2O/c1-2-13-12-21-10-8-14(13)11-18(21)19(22)16-7-9-20-17-6-4-3-5-15(16)17/h2-7,9,13-14,18-19,22H,1,8,10-12H2/t13-,14-,18+,19-/m0/s1
CH$LINK: INCHIKEY KMPWYEUPVWOPIM-QAMTZSDWSA-N
AC$INSTRUMENT: LC, Waters Acquity UPLC System; MS, Waters Xevo G2 Q-Tof
AC$INSTRUMENT_TYPE: LC-ESI-QTOF
AC$MASS_SPECTROMETRY: MS_TYPE MS2
AC$MASS_SPECTROMETRY: ION_MODE POSITIVE
AC$MASS_SPECTROMETRY: COLLISION_ENERGY 6V
AC$MASS_SPECTROMETRY: DESOLVATION_GAS_FLOW 800/h
AC$MASS_SPECTROMETRY: DESOLVATION_TEMPERATURE 450 C
AC$MASS_SPECTROMETRY: IONIZATION ESI
AC$CHROMATOGRAPHY: CAPILLARY_VOLTAGE +3.00 kV
AC$CHROMATOGRAPHY: COLUMN_NAME Acquity bridged ethyl hybrid C18 (1.7 um, 2.1 mm * 100 mm, Waters)
AC$CHROMATOGRAPHY: COLUMN_TEMPERATURE 40 C
AC$CHROMATOGRAPHY: FLOW_GRADIENT A/B = (99.5%/0.5% at 0 min, 99.5%/0.5% at 0.1 min, 20%/80% at 10 min, 0.5%/99.5% at 10.1 min, 0.5%/99.5% at 12.0 min, 99.5%/0.5% at 12.1 min, 99.5%/0.5% at 15.0 min)
AC$CHROMATOGRAPHY: FLOW_RATE 0.3 ml/min at 0 min, 0.3 ml/min at 10 min, 0.4 ml/min at 10.1 min, 0.4 ml/min at 14.4 min, 0.3 ml/min at 14.5 min
AC$CHROMATOGRAPHY: RETENTION_TIME 3.091267
AC$CHROMATOGRAPHY: SOLVENT A water including 0.1% formic acid
AC$CHROMATOGRAPHY: SOLVENT B acetonitrile including 0.1% formic acid
MS$FOCUSED_ION: PRECURSOR_TYPE [M+H]+
MS$FOCUSED_ION: PRECURSOR_M/Z 295.1804898
PK$SPLASH: splash10-001j-1950000000-eb1243fafe03d6b775b0
PK$NUM_PEAK: 113
PK$PEAK: m/z int. rel.int.
  67.05643 94.0 94
  70.06433 39.0 39
  77.04343 35.0 35
  79.04956 88.0 88
  79.05454 157.0 157
  80.0573 35.0 35
  81.07366 330.0 330
  82.06179 35.0 35
  82.06718 61.0 61
  91.04995 35.0 35
  93.06331 49.0 49
  96.08069 86.0 86
  96.0868 35.0 35
  97.08817 41.0 41
  103.05666 39.0 39
  108.07878 179.0 179
  108.08531 41.0 41
  109.08584 202.0 202
  109.1068 55.0 55
  110.09208 61.0 61
  110.09871 102.0 102
  115.46465 49.0 49
  119.08031 43.0 43
  120.07555 39.0 39
  120.08044 53.0 53
  121.0957 35.0 35
  122.09386 53.0 53
  124.09987 43.0 43
  124.11508 41.0 41
  130.05446 31.0 31
  130.06459 841.0 840
  131.06306 39.0 39
  132.07947 35.0 35
  134.09492 141.0 141
  134.10223 47.0 47
  135.10448 51.0 51
  136.11008 161.0 161
  137.11029 55.0 55
  138.12437 37.0 37
  140.13802 35.0 35
  141.06967 59.0 59
  142.06181 86.0 86
  142.06842 177.0 177
  144.06993 51.0 51
  144.08702 132.0 132
  154.06461 314.0 314
  155.07394 122.0 122
  156.06415 53.0 53
  156.08267 320.0 320
  157.05804 35.0 35
  157.0914 55.0 55
  159.07697 86.0 86
  164.11331 41.0 41
  166.11639 134.0 134
  166.12868 41.0 41
  166.80043 35.0 35
  167.07103 187.0 187
  167.1277 37.0 37
  168.0798 212.0 212
  168.09288 35.0 35
  168.11926 45.0 45
  169.06766 41.0 41
  169.07576 138.0 138
  169.09024 90.0 90
  169.09734 41.0 41
  170.0959 112.0 112
  170.10881 96.0 96
  172.07693 57.0 57
  180.07396 39.0 39
  180.0874 240.0 240
  181.08061 49.0 49
  181.08731 55.0 55
  182.0649 94.0 94
  182.0858 35.0 35
  184.07451 79.0 79
  184.08875 61.0 61
  185.08243 77.0 77
  192.08775 41.0 41
  193.06827 37.0 37
  194.09433 88.0 88
  194.1022 98.0 98
  195.09715 45.0 45
  196.11301 77.0 77
  198.11287 47.0 47
  204.08356 43.0 43
  206.09505 81.0 81
  210.12845 49.0 49
  216.07434 41.0 41
  216.08365 67.0 67
  217.09048 41.0 41
  220.11122 41.0 41
  221.11028 124.0 124
  223.11957 57.0 57
  223.12724 35.0 35
  224.14313 53.0 53
  229.32571 45.0 45
  231.11061 35.0 35
  232.11304 183.0 183
  234.12703 265.0 265
  234.13853 45.0 45
  235.12718 77.0 77
  236.13014 200.0 200
  236.15305 61.0 61
  237.13695 37.0 37
  247.13106 63.0 63
  248.14713 143.0 143
  252.13359 49.0 49
  252.15115 51.0 51
  267.93085 35.0 35
  277.17102 507.0 506
  278.1738 226.0 226
  293.14212 43.0 43
  295.18329 1000.0 999
//
