ACCESSION: MSBNK-RIKEN-PR301999
RECORD_TITLE: Luteolin-6-C-glucoside; LC-ESI-QTOF; MS2
DATE: 2019.03.28
AUTHORS: Tetsuya Mori, Center for Sustainable Resource Science, RIKEN
LICENSE: CC BY-NC-SA
PUBLICATION: Tsugawa H., Nakabayashi R., Mori T., Yamada Y., Takahashi M., Rai A., Sugiyama R., Yamamoto H., Nakaya T., Yamazaki M., Kooke R., Bac-Molenaar JA., Oztolan-Erol N., Keurentjes JJB., Arita M., Saito K. (2019) "A cheminformatics approach to characterize metabolomes in stable-isotope-labeled organisms" Nature Methods 16(4):295-298. [doi:10.1038/s41592-019-0358-2]
COMMENT: registered in RIKEN PlaSMA
CH$NAME: Luteolin-6-C-glucoside
CH$COMPOUND_CLASS: Flavonoid C-glycosides
CH$FORMULA: C21H20O11
CH$EXACT_MASS: 448.38
CH$SMILES: OC[C@H]1O[C@H]([C@H](O)[C@@H](O)[C@@H]1O)C1=C(O)C2=C(OC(=CC2=O)C2=CC(O)=C(O)C=C2)C=C1O
CH$IUPAC: InChI=1S/C21H20O11/c22-6-14-17(27)19(29)20(30)21(32-14)16-11(26)5-13-15(18(16)28)10(25)4-12(31-13)7-1-2-8(23)9(24)3-7/h1-5,14,17,19-24,26-30H,6H2/t14-,17-,19+,20-,21+/m1/s1
CH$LINK: INCHIKEY ODBRNZZJSYPIDI-VJXVFPJBSA-N
AC$INSTRUMENT: LC, Waters Acquity UPLC System; MS, Waters Xevo G2 Q-Tof
AC$INSTRUMENT_TYPE: LC-ESI-QTOF
AC$MASS_SPECTROMETRY: MS_TYPE MS2
AC$MASS_SPECTROMETRY: ION_MODE POSITIVE
AC$MASS_SPECTROMETRY: COLLISION_ENERGY 6V
AC$MASS_SPECTROMETRY: DESOLVATION_GAS_FLOW 800/h
AC$MASS_SPECTROMETRY: DESOLVATION_TEMPERATURE 450 C
AC$MASS_SPECTROMETRY: IONIZATION ESI
AC$CHROMATOGRAPHY: CAPILLARY_VOLTAGE +3.00 kV
AC$CHROMATOGRAPHY: COLUMN_NAME Acquity bridged ethyl hybrid C18 (1.7 um, 2.1 mm * 100 mm, Waters)
AC$CHROMATOGRAPHY: COLUMN_TEMPERATURE 40 C
AC$CHROMATOGRAPHY: FLOW_GRADIENT A/B = (99.5%/0.5% at 0 min, 99.5%/0.5% at 0.1 min, 20%/80% at 10 min, 0.5%/99.5% at 10.1 min, 0.5%/99.5% at 12.0 min, 99.5%/0.5% at 12.1 min, 99.5%/0.5% at 15.0 min)
AC$CHROMATOGRAPHY: FLOW_RATE 0.3 ml/min at 0 min, 0.3 ml/min at 10 min, 0.4 ml/min at 10.1 min, 0.4 ml/min at 14.4 min, 0.3 ml/min at 14.5 min
AC$CHROMATOGRAPHY: RETENTION_TIME 3.591883
AC$CHROMATOGRAPHY: SOLVENT A water including 0.1% formic acid
AC$CHROMATOGRAPHY: SOLVENT B acetonitrile including 0.1% formic acid
MS$FOCUSED_ION: PRECURSOR_TYPE [M+H]+
MS$FOCUSED_ION: PRECURSOR_M/Z 449.1078379
PK$SPLASH: splash10-014j-0963000000-8a53b72b579a7a8e3660
PK$NUM_PEAK: 243
PK$PEAK: m/z int. rel.int.
  57.97443 11.0 11
  61.03227 10.0 10
  73.02406 14.0 14
  81.03873 8.0 8
  81.06291 14.0 14
  85.0237 24.0 24
  89.04083 13.0 13
  91.04108 8.0 8
  91.05038 21.0 21
  91.05457 9.0 9
  93.03126 8.0 8
  95.05346 10.0 10
  103.03226 9.0 9
  105.00345 8.0 8
  105.03412 9.0 9
  107.01099 22.0 22
  109.01745 20.0 20
  109.03106 32.0 32
  113.29529 10.0 10
  115.05569 10.0 10
  117.0685 11.0 11
  118.0393 10.0 10
  119.05129 8.0 8
  121.02528 50.0 50
  123.00915 41.0 41
  124.00462 13.0 13
  124.00989 12.0 12
  130.99612 9.0 9
  135.00929 16.0 16
  135.04532 109.0 109
  135.26189 15.0 15
  136.03979 16.0 16
  136.04846 16.0 16
  137.02359 193.0 193
  138.02405 19.0 19
  138.02956 23.0 23
  138.0547 14.0 14
  138.15889 7.0 7
  145.0253 34.0 34
  146.04088 9.0 9
  147.0126 8.0 8
  147.03548 16.0 16
  147.0435 16.0 16
  149.02281 148.0 148
  149.06274 8.0 8
  153.01176 22.0 22
  159.03822 13.0 13
  159.04463 22.0 22
  159.05133 13.0 13
  160.05421 8.0 8
  160.99548 9.0 9
  161.01874 44.0 44
  161.02748 90.0 90
  161.0379 12.0 12
  162.9982 16.0 16
  163.00601 23.0 23
  163.04121 145.0 145
  164.04228 10.0 10
  164.79796 10.0 10
  164.98698 10.0 10
  165.00238 34.0 34
  165.0191 1000.0 999
  165.06944 10.0 10
  166.01144 19.0 19
  166.02501 84.0 84
  166.56772 9.0 9
  167.01663 11.0 11
  167.03157 22.0 22
  168.0898 16.0 16
  171.04584 28.0 28
  173.02386 73.0 73
  174.0323 9.0 9
  174.38332 8.0 8
  175.041 50.0 50
  176.00146 7.0 7
  176.97725 8.0 8
  176.99652 14.0 14
  177.01385 32.0 32
  177.02336 15.0 15
  177.05099 13.0 13
  178.02904 8.0 8
  179.01694 19.0 19
  179.03276 36.0 36
  179.04474 11.0 11
  181.06198 14.0 14
  186.07106 10.0 10
  187.03905 103.0 103
  187.72778 9.0 9
  188.99156 12.0 12
  189.01587 12.0 12
  189.02548 30.0 30
  189.63631 10.0 10
  190.01015 10.0 10
  190.99686 10.0 10
  191.00725 24.0 24
  191.03577 45.0 45
  191.04945 28.0 28
  193.06116 10.0 10
  195.08479 9.0 9
  197.64975 20.0 20
  199.04323 10.0 10
  199.06296 13.0 13
  201.0459 9.0 9
  202.03929 7.0 7
  202.33766 8.0 8
  203.02875 27.0 27
  203.03937 44.0 44
  204.37587 7.0 7
  205.00572 15.0 15
  205.03993 31.0 31
  205.05743 8.0 8
  206.98969 8.0 8
  209.0564 10.0 10
  215.02434 29.0 29
  215.03465 36.0 36
  215.05983 10.0 10
  215.06938 9.0 9
  216.04591 8.0 8
  216.05466 8.0 8
  217.02786 14.0 14
  217.55067 11.0 11
  217.96292 12.0 12
  218.05663 9.0 9
  219.03276 18.0 18
  222.03441 13.0 13
  223.06992 8.0 8
  226.06615 13.0 13
  227.06792 8.0 8
  229.0468 8.0 8
  231.0658 11.0 11
  239.07629 8.0 8
  240.06992 16.0 16
  241.05304 8.0 8
  243.03012 25.0 25
  243.04588 19.0 19
  243.06432 26.0 26
  244.13965 11.0 11
  245.0464 48.0 48
  246.0601 12.0 12
  249.06421 7.0 7
  251.03162 14.0 14
  251.05254 10.0 10
  254.0336 9.0 9
  255.06599 38.0 38
  256.06839 16.0 16
  258.04709 21.0 21
  258.064 34.0 34
  258.54016 7.0 7
  261.04575 11.0 11
  262.63855 12.0 12
  264.90817 8.0 8
  265.03995 9.0 9
  265.08871 10.0 10
  268.03799 12.0 12
  269.04587 11.0 11
  270.00238 7.0 7
  270.07413 8.0 8
  270.36575 14.0 14
  271.05865 21.0 21
  272.06201 36.0 36
  272.07486 24.0 24
  273.06741 10.0 10
  276.05234 10.0 10
  277.93497 8.0 8
  279.06149 17.0 17
  281.05051 10.0 10
  282.04944 7.0 7
  282.06018 14.0 14
  282.99908 11.0 11
  283.0506 32.0 32
  283.06244 152.0 152
  283.07709 70.0 70
  283.08658 21.0 21
  283.15543 29.0 29
  284.07794 9.0 9
  285.03357 11.0 11
  285.06525 10.0 10
  286.02133 8.0 8
  286.05316 29.0 29
  286.06482 24.0 24
  287.02325 7.0 7
  287.0632 29.0 29
  293.03998 15.0 15
  293.08264 8.0 8
  294.33234 8.0 8
  295.04166 8.0 8
  295.06412 106.0 106
  295.08356 8.0 8
  296.05447 8.0 8
  297.07513 135.0 135
  297.08844 46.0 46
  298.07184 9.0 9
  298.09283 16.0 16
  299.0412 114.0 114
  299.05801 513.0 512
  300.0043 8.0 8
  300.06183 260.0 260
  300.09048 42.0 42
  301.07083 30.0 30
  302.05984 10.0 10
  307.39728 12.0 12
  309.06216 20.0 20
  309.08795 11.0 11
  310.04468 9.0 9
  311.0213 15.0 15
  311.04074 15.0 15
  311.05139 27.0 27
  311.06238 40.0 40
  311.08182 13.0 13
  312.04825 10.0 10
  313.02963 8.0 8
  313.05035 37.0 37
  313.07532 33.0 33
  315.05109 8.0 8
  321.0769 47.0 47
  322.18155 8.0 8
  323.05734 38.0 38
  324.04306 42.0 42
  324.06482 31.0 31
  325.05447 20.0 20
  325.07251 120.0 120
  326.06522 21.0 21
  326.08173 14.0 14
  327.0593 8.0 8
  327.09412 19.0 19
  327.10272 9.0 9
  329.0636 11.0 11
  329.07516 13.0 13
  330.07022 21.0 21
  335.07312 11.0 11
  336.06067 16.0 16
  336.07639 10.0 10
  337.06433 24.0 24
  337.0817 11.0 11
  339.07727 21.0 21
  340.02939 7.0 7
  347.04666 8.0 8
  365.04242 8.0 8
  377.0657 13.0 13
  404.00613 13.0 13
  421.0062 8.0 8
  444.70276 7.0 7
  447.0834 9.0 9
//
