ACCESSION: MSBNK-RIKEN-PR301715
RECORD_TITLE: Ethylrhoeagenine; LC-ESI-QTOF; MS2
DATE: 2019.03.28
AUTHORS: Tetsuya Mori, Center for Sustainable Resource Science, RIKEN
LICENSE: CC BY-NC-SA
PUBLICATION: Tsugawa H., Nakabayashi R., Mori T., Yamada Y., Takahashi M., Rai A., Sugiyama R., Yamamoto H., Nakaya T., Yamazaki M., Kooke R., Bac-Molenaar JA., Oztolan-Erol N., Keurentjes JJB., Arita M., Saito K. (2019) "A cheminformatics approach to characterize metabolomes in stable-isotope-labeled organisms" Nature Methods 16(4):295-298. [doi:10.1038/s41592-019-0358-2]
COMMENT: registered in RIKEN PlaSMA
CH$NAME: Ethylrhoeagenine
CH$COMPOUND_CLASS: Rhoeadine alkaloids
CH$FORMULA: C22H23NO6
CH$EXACT_MASS: 397.427
CH$SMILES: CCO[C@H]1O[C@H]2[C@H](N(C)CCC3=CC4=C(OCO4)C=C23)C2=C1C1=C(OCO1)C=C2
CH$IUPAC: InChI=1S/C22H23NO6/c1-3-24-22-18-13(4-5-15-21(18)28-11-25-15)19-20(29-22)14-9-17-16(26-10-27-17)8-12(14)6-7-23(19)2/h4-5,8-9,19-20,22H,3,6-7,10-11H2,1-2H3/t19-,20-,22+/m1/s1
CH$LINK: INCHIKEY RKBDCPZCGRWNMP-SJBKTWHCSA-N
AC$INSTRUMENT: LC, Waters Acquity UPLC System; MS, Waters Xevo G2 Q-Tof
AC$INSTRUMENT_TYPE: LC-ESI-QTOF
AC$MASS_SPECTROMETRY: MS_TYPE MS2
AC$MASS_SPECTROMETRY: ION_MODE POSITIVE
AC$MASS_SPECTROMETRY: COLLISION_ENERGY 6V
AC$MASS_SPECTROMETRY: DESOLVATION_GAS_FLOW 800/h
AC$MASS_SPECTROMETRY: DESOLVATION_TEMPERATURE 450 C
AC$MASS_SPECTROMETRY: IONIZATION ESI
AC$CHROMATOGRAPHY: CAPILLARY_VOLTAGE +3.00 kV
AC$CHROMATOGRAPHY: COLUMN_NAME Acquity bridged ethyl hybrid C18 (1.7 um, 2.1 mm * 100 mm, Waters)
AC$CHROMATOGRAPHY: COLUMN_TEMPERATURE 40 C
AC$CHROMATOGRAPHY: FLOW_GRADIENT A/B = (99.5%/0.5% at 0 min, 99.5%/0.5% at 0.1 min, 20%/80% at 10 min, 0.5%/99.5% at 10.1 min, 0.5%/99.5% at 12.0 min, 99.5%/0.5% at 12.1 min, 99.5%/0.5% at 15.0 min)
AC$CHROMATOGRAPHY: FLOW_RATE 0.3 ml/min at 0 min, 0.3 ml/min at 10 min, 0.4 ml/min at 10.1 min, 0.4 ml/min at 14.4 min, 0.3 ml/min at 14.5 min
AC$CHROMATOGRAPHY: RETENTION_TIME 5.150367
AC$CHROMATOGRAPHY: SOLVENT A water including 0.1% formic acid
AC$CHROMATOGRAPHY: SOLVENT B acetonitrile including 0.1% formic acid
MS$FOCUSED_ION: PRECURSOR_TYPE [M+H]+
MS$FOCUSED_ION: PRECURSOR_M/Z 398.1598139
PK$SPLASH: splash10-000l-0981000000-f9d109f16932eea916a5
PK$NUM_PEAK: 433
PK$PEAK: m/z int. rel.int.
  65.03964 18.0 18
  77.03651 11.0 11
  77.04789 15.0 15
  77.67017 7.0 7
  79.05669 21.0 21
  80.04819 8.0 8
  89.03838 8.0 8
  91.05406 93.0 93
  91.49368 9.0 9
  94.05949 9.0 9
  102.39282 9.0 9
  103.05038 12.0 12
  103.05568 20.0 20
  103.06567 16.0 16
  104.05586 20.0 20
  104.06858 18.0 18
  115.04385 15.0 15
  115.05518 24.0 24
  116.06009 8.0 8
  117.02782 8.0 8
  117.05745 21.0 21
  117.06525 7.0 7
  117.30257 8.0 8
  118.05303 20.0 20
  118.06552 45.0 45
  118.08814 9.0 9
  119.04578 27.0 27
  119.05309 26.0 26
  119.07126 9.0 9
  121.04224 7.0 7
  121.06403 7.0 7
  128.04932 7.0 7
  129.02582 7.0 7
  129.06554 9.0 9
  130.0351 10.0 10
  130.04037 21.0 21
  130.06331 99.0 99
  130.06996 21.0 21
  131.04353 47.0 47
  131.05127 108.0 108
  131.06911 52.0 52
  131.07614 45.0 45
  131.12975 10.0 10
  132.03226 9.0 9
  132.04413 13.0 13
  132.06235 14.0 14
  132.07861 74.0 74
  132.08693 11.0 11
  133.03346 14.0 14
  133.04851 20.0 20
  133.07611 10.0 10
  133.08551 7.0 7
  134.09511 8.0 8
  135.02637 9.0 9
  135.03531 25.0 25
  135.04292 95.0 95
  135.04816 45.0 45
  135.76865 7.0 7
  136.05168 17.0 17
  140.05075 7.0 7
  144.08408 12.0 12
  145.06352 34.0 34
  145.08707 21.0 21
  146.03096 7.0 7
  146.06111 41.0 41
  147.03477 9.0 9
  147.04594 38.0 38
  147.06888 11.0 11
  147.07501 9.0 9
  148.04045 24.0 24
  148.0544 46.0 46
  149.01898 20.0 20
  149.05475 49.0 49
  149.06239 45.0 45
  150.06328 20.0 20
  151.05612 9.0 9
  157.02203 22.0 22
  158.05064 10.0 10
  158.06329 11.0 11
  159.03378 8.0 8
  159.04489 26.0 26
  159.05635 20.0 20
  159.06665 124.0 124
  159.16919 8.0 8
  160.02332 11.0 11
  160.05933 42.0 42
  160.06958 26.0 26
  160.07945 71.0 71
  160.21509 7.0 7
  161.04877 130.0 130
  161.06931 47.0 47
  161.08322 23.0 23
  161.09317 14.0 14
  162.02551 7.0 7
  162.05118 29.0 29
  162.05913 29.0 29
  162.09584 9.0 9
  163.02472 16.0 16
  163.0351 12.0 12
  163.04324 9.0 9
  163.90826 9.0 9
  164.03471 7.0 7
  164.04424 8.0 8
  164.06079 7.0 7
  165.011 15.0 15
  165.07108 140.0 140
  166.07175 44.0 44
  167.07152 10.0 10
  167.08337 7.0 7
  168.05031 8.0 8
  168.0876 8.0 8
  168.09818 10.0 10
  168.40337 7.0 7
  171.05049 9.0 9
  171.05933 9.0 9
  172.0314 8.0 8
  172.04045 10.0 10
  174.05164 47.0 47
  174.05951 27.0 27
  174.09181 10.0 10
  175.03426 9.0 9
  175.06033 163.0 163
  175.0704 114.0 114
  176.02649 8.0 8
  176.05957 152.0 152
  176.06857 68.0 68
  176.07558 32.0 32
  176.12071 9.0 9
  176.92123 11.0 11
  177.0385 7.0 7
  177.06483 257.0 257
  177.07506 158.0 158
  177.09242 8.0 8
  178.05766 22.0 22
  178.07159 64.0 64
  179.07639 28.0 28
  179.08832 45.0 45
  181.06749 7.0 7
  185.06343 11.0 11
  185.81836 9.0 9
  186.06055 9.0 9
  187.04207 9.0 9
  187.05499 25.0 25
  187.06204 24.0 24
  187.07278 7.0 7
  188.0511 11.0 11
  188.06847 459.0 459
  188.07709 283.0 283
  189.03163 7.0 7
  189.0444 11.0 11
  189.07089 461.0 461
  189.08719 24.0 24
  190.03383 9.0 9
  190.05495 190.0 190
  190.08488 1000.0 999
  190.34187 8.0 8
  191.04373 18.0 18
  191.07805 84.0 84
  191.09009 128.0 128
  192.03954 10.0 10
  192.06064 27.0 27
  192.07947 7.0 7
  192.09782 20.0 20
  193.02417 9.0 9
  193.05254 14.0 14
  193.06328 30.0 30
  193.07718 17.0 17
  193.09383 24.0 24
  193.12718 9.0 9
  195.07143 7.0 7
  195.07866 10.0 10
  196.07887 9.0 9
  196.08722 8.0 8
  198.05444 12.0 12
  200.08345 11.0 11
  201.06726 9.0 9
  201.07896 11.0 11
  201.12242 8.0 8
  202.07962 34.0 34
  203.06204 20.0 20
  203.07539 20.0 20
  203.09462 18.0 18
  203.10358 10.0 10
  204.03127 16.0 16
  204.0596 11.0 11
  204.07994 26.0 26
  205.02382 7.0 7
  205.05737 181.0 181
  205.06645 419.0 419
  205.09 9.0 9
  205.68954 11.0 11
  206.0616 24.0 24
  206.06953 48.0 48
  206.08228 9.0 9
  207.08414 71.0 71
  207.10533 13.0 13
  208.047 9.0 9
  208.10011 9.0 9
  208.11052 11.0 11
  209.05322 20.0 20
  209.06728 40.0 40
  209.07907 9.0 9
  210.05179 20.0 20
  215.0415 7.0 7
  215.07082 7.0 7
  215.07983 28.0 28
  216.07712 8.0 8
  216.46533 12.0 12
  217.05333 61.0 61
  217.06749 133.0 133
  217.0928 7.0 7
  218.0614 33.0 33
  218.07439 42.0 42
  218.09415 15.0 15
  218.10912 9.0 9
  218.8472 8.0 8
  219.05014 8.0 8
  219.06152 17.0 17
  219.09248 8.0 8
  219.1046 13.0 13
  220.0553 11.0 11
  220.07416 7.0 7
  220.08904 23.0 23
  220.09845 8.0 8
  220.16077 9.0 9
  221.05066 16.0 16
  221.0614 40.0 40
  221.07993 43.0 43
  222.05659 16.0 16
  222.07704 14.0 14
  222.10844 13.0 13
  223.06198 16.0 16
  223.07373 24.0 24
  223.11472 7.0 7
  223.52148 7.0 7
  224.06567 9.0 9
  225.05698 8.0 8
  225.08138 7.0 7
  226.08702 9.0 9
  227.0658 10.0 10
  228.07451 11.0 11
  229.89615 8.0 8
  231.05792 9.0 9
  231.07016 8.0 8
  232.08316 25.0 25
  233.03738 17.0 17
  233.04886 61.0 61
  233.064 398.0 398
  233.10143 9.0 9
  234.04099 8.0 8
  234.05701 18.0 18
  234.07169 26.0 26
  234.08452 21.0 21
  234.0965 77.0 77
  235.06694 66.0 66
  235.07558 157.0 157
  236.0448 11.0 11
  236.06822 68.0 68
  236.07642 66.0 66
  236.11038 30.0 30
  236.13481 8.0 8
  236.57344 12.0 12
  237.05573 9.0 9
  237.07028 16.0 16
  238.11623 20.0 20
  239.06468 7.0 7
  243.83401 11.0 11
  245.04662 14.0 14
  245.06047 121.0 121
  245.0733 93.0 93
  246.04308 11.0 11
  246.06204 57.0 57
  246.07391 52.0 52
  246.08765 39.0 39
  247.06998 98.0 98
  247.07922 70.0 70
  247.08853 44.0 44
  247.10291 8.0 8
  248.06392 66.0 66
  248.07555 26.0 26
  249.0433 10.0 10
  249.05641 17.0 17
  249.07236 22.0 22
  249.08197 19.0 19
  249.09074 18.0 18
  250.04552 8.0 8
  250.07785 51.0 51
  250.09288 92.0 92
  251.05193 9.0 9
  251.07115 41.0 41
  251.0898 34.0 34
  252.04349 11.0 11
  252.09393 27.0 27
  252.72681 12.0 12
  258.10486 7.0 7
  258.68036 7.0 7
  258.87466 13.0 13
  259.04901 7.0 7
  260.0542 13.0 13
  260.06436 9.0 9
  261.03436 60.0 60
  261.05487 107.0 107
  261.06784 48.0 48
  261.07886 24.0 24
  261.08859 17.0 17
  261.52002 10.0 10
  262.00519 7.0 7
  262.03488 9.0 9
  262.04987 20.0 20
  262.0629 33.0 33
  262.07346 52.0 52
  262.09412 128.0 128
  262.44498 10.0 10
  263.03052 7.0 7
  263.07294 43.0 43
  263.08838 80.0 80
  263.09995 88.0 88
  263.45709 11.0 11
  264.06354 9.0 9
  264.07718 35.0 35
  264.09137 49.0 49
  264.10263 103.0 103
  264.30197 10.0 10
  265.08542 13.0 13
  265.09418 23.0 23
  266.06183 14.0 14
  266.08673 10.0 10
  266.10822 19.0 19
  266.12402 9.0 9
  268.13141 8.0 8
  268.14261 9.0 9
  268.33261 8.0 8
  269.07349 13.0 13
  272.06073 9.0 9
  272.07138 11.0 11
  273.0639 37.0 37
  273.07495 23.0 23
  273.15732 10.0 10
  274.00616 7.0 7
  274.05579 18.0 18
  274.07068 9.0 9
  274.09308 64.0 64
  275.05338 8.0 8
  275.06329 11.0 11
  275.08817 26.0 26
  275.10559 9.0 9
  275.96851 8.0 8
  276.05701 43.0 43
  276.06894 53.0 53
  276.10574 124.0 124
  277.03314 7.0 7
  277.06543 39.0 39
  277.0799 27.0 27
  277.09647 15.0 15
  277.12988 10.0 10
  277.99158 8.0 8
  278.06644 16.0 16
  278.08102 35.0 35
  278.09402 12.0 12
  278.15848 10.0 10
  279.06061 9.0 9
  279.07196 8.0 8
  279.09073 18.0 18
  280.10025 18.0 18
  281.06433 9.0 9
  288.08554 10.0 10
  288.10535 8.0 8
  289.07242 24.0 24
  289.96979 9.0 9
  290.0477 16.0 16
  290.07578 50.0 50
  291.05014 8.0 8
  291.0629 41.0 41
  291.08487 30.0 30
  291.10208 14.0 14
  292.06879 25.0 25
  292.08508 62.0 62
  292.10458 53.0 53
  293.08713 7.0 7
  293.12811 9.0 9
  293.73392 9.0 9
  294.05768 14.0 14
  294.07718 59.0 59
  294.10361 39.0 39
  295.04184 19.0 19
  295.07767 8.0 8
  297.11484 8.0 8
  300.98849 11.0 11
  301.04251 10.0 10
  301.12173 7.0 7
  303.04721 7.0 7
  303.06177 26.0 26
  303.07773 16.0 16
  304.04401 8.0 8
  304.05762 41.0 41
  304.0878 49.0 49
  304.82825 11.0 11
  305.04459 10.0 10
  305.0589 14.0 14
  305.08224 26.0 26
  305.10858 14.0 14
  305.11807 8.0 8
  305.84592 9.0 9
  306.07056 33.0 33
  306.10175 17.0 17
  306.11581 11.0 11
  307.05731 16.0 16
  307.06732 16.0 16
  308.07391 18.0 18
  308.09256 35.0 35
  308.11026 26.0 26
  309.0947 7.0 7
  315.81339 14.0 14
  315.94962 8.0 8
  318.06946 48.0 48
  318.0899 43.0 43
  319.08557 23.0 23
  320.06543 39.0 39
  320.08759 311.0 311
  320.1041 123.0 123
  320.12231 10.0 10
  321.09027 40.0 40
  321.10114 31.0 31
  322.0994 11.0 11
  322.11478 16.0 16
  332.08218 7.0 7
  333.09738 7.0 7
  334.09384 9.0 9
  334.10452 15.0 15
  335.10739 7.0 7
  336.0914 33.0 33
  337.08118 23.0 23
  381.32501 9.0 9
//
