ACCESSION: MSBNK-RIKEN-PR300680
RECORD_TITLE: Amygdalin; LC-ESI-QTOF; MS2
DATE: 2019.03.28
AUTHORS: Tetsuya Mori, Center for Sustainable Resource Science, RIKEN
LICENSE: CC BY-NC-SA
PUBLICATION: Tsugawa H., Nakabayashi R., Mori T., Yamada Y., Takahashi M., Rai A., Sugiyama R., Yamamoto H., Nakaya T., Yamazaki M., Kooke R., Bac-Molenaar JA., Oztolan-Erol N., Keurentjes JJB., Arita M., Saito K. (2019) "A cheminformatics approach to characterize metabolomes in stable-isotope-labeled organisms" Nature Methods 16(4):295-298. [doi:10.1038/s41592-019-0358-2]
COMMENT: registered in RIKEN PlaSMA
CH$NAME: Amygdalin
CH$COMPOUND_CLASS: Cyanogenic glycosides
CH$FORMULA: C20H27NO11
CH$EXACT_MASS: 457.432
CH$SMILES: OC[C@H]1O[C@@H](OC[C@H]2O[C@@H](O[C@@H](C#N)C3=CC=CC=C3)[C@H](O)[C@@H](O)[C@@H]2O)[C@H](O)[C@@H](O)[C@@H]1O
CH$IUPAC: InChI=1S/C20H27NO11/c21-6-10(9-4-2-1-3-5-9)30-20-18(28)16(26)14(24)12(32-20)8-29-19-17(27)15(25)13(23)11(7-22)31-19/h1-5,10-20,22-28H,7-8H2/t10-,11+,12+,13+,14+,15-,16-,17+,18+,19+,20+/m0/s1
CH$LINK: INCHIKEY XUCIJNAGGSZNQT-JHSLDZJXSA-N
AC$INSTRUMENT: LC, Waters Acquity UPLC System; MS, Waters Xevo G2 Q-Tof
AC$INSTRUMENT_TYPE: LC-ESI-QTOF
AC$MASS_SPECTROMETRY: MS_TYPE MS2
AC$MASS_SPECTROMETRY: ION_MODE POSITIVE
AC$MASS_SPECTROMETRY: COLLISION_ENERGY 6V
AC$MASS_SPECTROMETRY: DESOLVATION_GAS_FLOW 800/h
AC$MASS_SPECTROMETRY: DESOLVATION_TEMPERATURE 450 C
AC$MASS_SPECTROMETRY: IONIZATION ESI
AC$CHROMATOGRAPHY: CAPILLARY_VOLTAGE +3.00 kV
AC$CHROMATOGRAPHY: COLUMN_NAME Acquity bridged ethyl hybrid C18 (1.7 um, 2.1 mm * 100 mm, Waters)
AC$CHROMATOGRAPHY: COLUMN_TEMPERATURE 40 C
AC$CHROMATOGRAPHY: FLOW_GRADIENT A/B = (99.5%/0.5% at 0 min, 99.5%/0.5% at 0.1 min, 20%/80% at 10 min, 0.5%/99.5% at 10.1 min, 0.5%/99.5% at 12.0 min, 99.5%/0.5% at 12.1 min, 99.5%/0.5% at 15.0 min)
AC$CHROMATOGRAPHY: FLOW_RATE 0.3 ml/min at 0 min, 0.3 ml/min at 10 min, 0.4 ml/min at 10.1 min, 0.4 ml/min at 14.4 min, 0.3 ml/min at 14.5 min
AC$CHROMATOGRAPHY: RETENTION_TIME 3.319517
AC$CHROMATOGRAPHY: SOLVENT A water including 0.1% formic acid
AC$CHROMATOGRAPHY: SOLVENT B acetonitrile including 0.1% formic acid
MS$FOCUSED_ION: PRECURSOR_TYPE [M+H]+
MS$FOCUSED_ION: PRECURSOR_M/Z 458.1656871
PK$SPLASH: splash10-0a4i-0434900000-3dad4ba7241b0caa1bf2
PK$NUM_PEAK: 28
PK$PEAK: m/z int. rel.int.
  127.03143 42.0 42
  127.04274 50.0 50
  145.04919 46.0 46
  145.05481 40.0 40
  146.03773 27.0 27
  162.07312 24.0 24
  163.04153 22.0 22
  163.06424 301.0 301
  164.05954 28.0 28
  247.08585 23.0 23
  253.08781 23.0 23
  271.07629 21.0 21
  278.09552 47.0 47
  278.10843 42.0 42
  289.03146 32.0 32
  289.09515 26.0 26
  296.11499 132.0 132
  296.12762 38.0 38
  297.11923 26.0 26
  297.12994 39.0 39
  320.11093 18.0 18
  325.0824 22.0 22
  325.09293 58.0 58
  325.11526 357.0 357
  326.11508 90.0 90
  458.12344 43.0 43
  458.16263 1000.0 999
  458.20599 45.0 45
//
