ACCESSION: MSBNK-RIKEN-PR310732
RECORD_TITLE: Solasodine base + 2H, 1Acetyl, O-Hex, O-Hex-Hex-Hex-Pen; LC-ESI-QTOF; MS2
DATE: 2019.03.28
AUTHORS: Tetsuya Mori, Center for Sustainable Resource Science, RIKEN
LICENSE: CC BY-NC-SA
PUBLICATION: Tsugawa H., Nakabayashi R., Mori T., Yamada Y., Takahashi M., Rai A., Sugiyama R., Yamamoto H., Nakaya T., Yamazaki M., Kooke R., Bac-Molenaar JA., Oztolan-Erol N., Keurentjes JJB., Arita M., Saito K. (2019) "A cheminformatics approach to characterize metabolomes in stable-isotope-labeled organisms" Nature Methods 16(4):295-298. [doi:10.1038/s41592-019-0358-2]
COMMENT: Annotation level-3
CH$NAME: Solasodine base + 2H, 1Acetyl, O-Hex, O-Hex-Hex-Hex-Pen
CH$COMPOUND_CLASS: Steroidal saponins
CH$FORMULA: C58H95NO29
CH$EXACT_MASS: 1270.376
CH$SMILES: CC1C2C(CC3C4CCC5CC(CCC5(C)C4CCC23C)OC2OC(CO)C(OC3OC(CO)C(OC4OCC(O)C(O)C4O)C(O)C3OC3OC(CO)C(O)C(O)C3O)C(O)C2O)OC11NCC(COC2OC(CO)C(O)C(O)C2O)CC1OC(C)=O
CH$IUPAC: InChI=1S/C58H95NO29/c1-21-36-30(88-58(21)35(79-22(2)64)11-23(14-59-58)19-77-51-44(73)40(69)38(67)31(15-60)81-51)13-28-26-6-5-24-12-25(7-9-56(24,3)27(26)8-10-57(28,36)4)80-53-46(75)42(71)48(33(17-62)83-53)86-55-50(87-54-45(74)41(70)39(68)32(16-61)82-54)47(76)49(34(18-63)84-55)85-52-43(72)37(66)29(65)20-78-52/h21,23-55,59-63,65-76H,5-20H2,1-4H3
CH$LINK: INCHIKEY JNSUDLCASPZEHI-UHFFFAOYSA-N
AC$INSTRUMENT: LC, Waters Acquity UPLC System; MS, Waters Xevo G2 Q-Tof
AC$INSTRUMENT_TYPE: LC-ESI-QTOF
AC$MASS_SPECTROMETRY: MS_TYPE MS2
AC$MASS_SPECTROMETRY: ION_MODE POSITIVE
AC$MASS_SPECTROMETRY: COLLISION_ENERGY 6V
AC$MASS_SPECTROMETRY: DESOLVATION_GAS_FLOW 800/h
AC$MASS_SPECTROMETRY: DESOLVATION_TEMPERATURE 450 C
AC$MASS_SPECTROMETRY: IONIZATION ESI
AC$CHROMATOGRAPHY: CAPILLARY_VOLTAGE +3.00 kV
AC$CHROMATOGRAPHY: COLUMN_NAME Acquity bridged ethyl hybrid C18 (1.7 um, 2.1 mm * 100 mm, Waters)
AC$CHROMATOGRAPHY: COLUMN_TEMPERATURE 40 C
AC$CHROMATOGRAPHY: FLOW_GRADIENT A/B = (99.5%/0.5% at 0 min, 99.5%/0.5% at 0.1 min, 20%/80% at 10 min, 0.5%/99.5% at 10.1 min, 0.5%/99.5% at 12.0 min, 99.5%/0.5% at 12.1 min, 99.5%/0.5% at 15.0 min)
AC$CHROMATOGRAPHY: FLOW_RATE 0.3 ml/min at 0 min, 0.3 ml/min at 10 min, 0.4 ml/min at 10.1 min, 0.4 ml/min at 14.4 min, 0.3 ml/min at 14.5 min
AC$CHROMATOGRAPHY: RETENTION_TIME 3.95
AC$CHROMATOGRAPHY: SOLVENT A water including 0.1% formic acid
AC$CHROMATOGRAPHY: SOLVENT B acetonitrile including 0.1% formic acid
MS$FOCUSED_ION: PRECURSOR_TYPE [M+H]+
MS$FOCUSED_ION: PRECURSOR_M/Z 1270.6066
PK$SPLASH: splash10-00di-0090000000-5886f304a26c09870f9c
PK$NUM_PEAK: 23
PK$PEAK: m/z int. rel.int.
  81.36186 22.0 11
  592.28595 20.0 10
  659.42236 17.0 9
  833.59021 32.0 16
  913.16882 16.0 8
  1030.49414 24.0 12
  1031.16406 20.0 10
  1090.4928 21.0 11
  1100.6167 34.0 17
  1210.55859 24.0 12
  1210.59436 65.0 33
  1211.30627 17.0 9
  1211.56836 45.0 23
  1211.60242 35.0 18
  1212.53174 16.0 8
  1213.57141 16.0 8
  1237.48401 16.0 8
  1268.60291 16.0 8
  1269.59509 16.0 8
  1270.06812 19.0 10
  1270.36816 16.0 8
  1270.39624 16.0 8
  1270.60181 1945.0 999
//
