ACCESSION: MSBNK-RIKEN-PR310431
RECORD_TITLE: Aristolochic acid B; LC-ESI-QTOF; MS2
DATE: 2019.03.28
AUTHORS: Tetsuya Mori, Center for Sustainable Resource Science, RIKEN
LICENSE: CC BY-NC-SA
PUBLICATION: Tsugawa H., Nakabayashi R., Mori T., Yamada Y., Takahashi M., Rai A., Sugiyama R., Yamamoto H., Nakaya T., Yamazaki M., Kooke R., Bac-Molenaar JA., Oztolan-Erol N., Keurentjes JJB., Arita M., Saito K. (2019) "A cheminformatics approach to characterize metabolomes in stable-isotope-labeled organisms" Nature Methods 16(4):295-298. [doi:10.1038/s41592-019-0358-2]
COMMENT: Annotation level-1
CH$NAME: Aristolochic acid B
CH$COMPOUND_CLASS: Others
CH$FORMULA: C16H9NO6
CH$EXACT_MASS: 311.249
CH$SMILES: OC(=O)C1=CC2=C(OCO2)C2=C1C(=CC1=CC=CC=C21)[N+]([O-])=O
CH$IUPAC: InChI=1S/C16H9NO6/c18-16(19)10-6-12-15(23-7-22-12)14-9-4-2-1-3-8(9)5-11(13(10)14)17(20)21/h1-6H,7H2,(H,18,19)
CH$LINK: INCHIKEY MEEXETVZNQYRSP-UHFFFAOYSA-N
AC$INSTRUMENT: LC, Waters Acquity UPLC System; MS, Waters Xevo G2 Q-Tof
AC$INSTRUMENT_TYPE: LC-ESI-QTOF
AC$MASS_SPECTROMETRY: MS_TYPE MS2
AC$MASS_SPECTROMETRY: ION_MODE POSITIVE
AC$MASS_SPECTROMETRY: COLLISION_ENERGY 6V
AC$MASS_SPECTROMETRY: DESOLVATION_GAS_FLOW 800/h
AC$MASS_SPECTROMETRY: DESOLVATION_TEMPERATURE 450 C
AC$MASS_SPECTROMETRY: IONIZATION ESI
AC$CHROMATOGRAPHY: CAPILLARY_VOLTAGE +3.00 kV
AC$CHROMATOGRAPHY: COLUMN_NAME Acquity bridged ethyl hybrid C18 (1.7 um, 2.1 mm * 100 mm, Waters)
AC$CHROMATOGRAPHY: COLUMN_TEMPERATURE 40 C
AC$CHROMATOGRAPHY: FLOW_GRADIENT A/B = (99.5%/0.5% at 0 min, 99.5%/0.5% at 0.1 min, 20%/80% at 10 min, 0.5%/99.5% at 10.1 min, 0.5%/99.5% at 12.0 min, 99.5%/0.5% at 12.1 min, 99.5%/0.5% at 15.0 min)
AC$CHROMATOGRAPHY: FLOW_RATE 0.3 ml/min at 0 min, 0.3 ml/min at 10 min, 0.4 ml/min at 10.1 min, 0.4 ml/min at 14.4 min, 0.3 ml/min at 14.5 min
AC$CHROMATOGRAPHY: RETENTION_TIME 7.55
AC$CHROMATOGRAPHY: SOLVENT A water including 0.1% formic acid
AC$CHROMATOGRAPHY: SOLVENT B acetonitrile including 0.1% formic acid
MS$FOCUSED_ION: PRECURSOR_TYPE [M+H]+
MS$FOCUSED_ION: PRECURSOR_M/Z 312.05026
PK$SPLASH: splash10-0pc0-0960000000-22f2f2c63efe9830b70d
PK$NUM_PEAK: 12
PK$PEAK: m/z int. rel.int.
  152.0497 63.0 999
  155.06166 21.0 333
  155.07195 22.0 349
  166.58122 17.0 270
  180.04015 30.0 476
  183.04276 18.0 285
  208.04645 39.0 618
  220.03407 18.0 285
  236.01982 21.0 333
  251.03586 17.0 270
  265.05035 21.0 333
  312.0502 17.0 270
//
