ACCESSION: MSBNK-RIKEN-PR310578
RECORD_TITLE: Gardnerine; LC-ESI-QTOF; MS2
DATE: 2019.03.28
AUTHORS: Tetsuya Mori, Center for Sustainable Resource Science, RIKEN
LICENSE: CC BY-NC-SA
PUBLICATION: Tsugawa H., Nakabayashi R., Mori T., Yamada Y., Takahashi M., Rai A., Sugiyama R., Yamamoto H., Nakaya T., Yamazaki M., Kooke R., Bac-Molenaar JA., Oztolan-Erol N., Keurentjes JJB., Arita M., Saito K. (2019) "A cheminformatics approach to characterize metabolomes in stable-isotope-labeled organisms" Nature Methods 16(4):295-298. [doi:10.1038/s41592-019-0358-2]
COMMENT: Annotation level-1
CH$NAME: Gardnerine
CH$COMPOUND_CLASS: Alkaloids
CH$FORMULA: C20H24N2O2
CH$EXACT_MASS: 324.424
CH$SMILES: COC1=CC=C2C(NC3=C2CC2C(CO)C4CC3N2CC4=CC)=C1
CH$IUPAC: InChI=1S/C20H24N2O2/c1-3-11-9-22-18-8-15-13-5-4-12(24-2)6-17(13)21-20(15)19(22)7-14(11)16(18)10-23/h3-6,14,16,18-19,21,23H,7-10H2,1-2H3
CH$LINK: INCHIKEY RBALEJFQJCAPLN-UHFFFAOYSA-N
AC$INSTRUMENT: LC, Waters Acquity UPLC System; MS, Waters Xevo G2 Q-Tof
AC$INSTRUMENT_TYPE: LC-ESI-QTOF
AC$MASS_SPECTROMETRY: MS_TYPE MS2
AC$MASS_SPECTROMETRY: ION_MODE POSITIVE
AC$MASS_SPECTROMETRY: COLLISION_ENERGY 6V
AC$MASS_SPECTROMETRY: DESOLVATION_GAS_FLOW 800/h
AC$MASS_SPECTROMETRY: DESOLVATION_TEMPERATURE 450 C
AC$MASS_SPECTROMETRY: IONIZATION ESI
AC$CHROMATOGRAPHY: CAPILLARY_VOLTAGE +3.00 kV
AC$CHROMATOGRAPHY: COLUMN_NAME Acquity bridged ethyl hybrid C18 (1.7 um, 2.1 mm * 100 mm, Waters)
AC$CHROMATOGRAPHY: COLUMN_TEMPERATURE 40 C
AC$CHROMATOGRAPHY: FLOW_GRADIENT A/B = (99.5%/0.5% at 0 min, 99.5%/0.5% at 0.1 min, 20%/80% at 10 min, 0.5%/99.5% at 10.1 min, 0.5%/99.5% at 12.0 min, 99.5%/0.5% at 12.1 min, 99.5%/0.5% at 15.0 min)
AC$CHROMATOGRAPHY: FLOW_RATE 0.3 ml/min at 0 min, 0.3 ml/min at 10 min, 0.4 ml/min at 10.1 min, 0.4 ml/min at 14.4 min, 0.3 ml/min at 14.5 min
AC$CHROMATOGRAPHY: RETENTION_TIME 3.68
AC$CHROMATOGRAPHY: SOLVENT A water including 0.1% formic acid
AC$CHROMATOGRAPHY: SOLVENT B acetonitrile including 0.1% formic acid
MS$FOCUSED_ION: PRECURSOR_TYPE [M+H]+
MS$FOCUSED_ION: PRECURSOR_M/Z 325.19105
PK$SPLASH: splash10-004i-0859000000-a5b26bcf1fbb552627c8
PK$NUM_PEAK: 532
PK$PEAK: m/z int. rel.int.
  61.60199 17.0 1
  68.04654 19.0 1
  68.06025 28.0 1
  79.05065 28.0 1
  80.04604 39.0 1
  82.06469 26.0 1
  83.08412 27.0 1
  84.07979 66.0 2
  86.04878 21.0 1
  89.4557 18.0 1
  91.0535 27.0 1
  93.05814 82.0 2
  93.06867 29.0 1
  94.06393 34.0 1
  95.08504 38.0 1
  96.07469 31.0 1
  97.44123 18.0 1
  97.92088 18.0 1
  98.09286 46.0 1
  100.914 22.0 1
  101.12767 52.0 2
  105.06701 35.0 1
  105.07547 44.0 1
  106.05976 65.0 2
  106.0645 19.0 1
  107.08449 58.0 2
  107.93499 18.0 1
  108.06644 29.0 1
  108.08033 2019.0 59
  108.10455 19.0 1
  109.06587 105.0 3
  109.08401 179.0 5
  109.09326 25.0 1
  110.06223 75.0 2
  110.09341 64.0 2
  110.84909 20.0 1
  111.08133 93.0 3
  111.09071 19.0 1
  111.10162 41.0 1
  115.0397 17.0 1
  116.04932 21.0 1
  116.05424 21.0 1
  117.05232 110.0 3
  117.06473 18.0 1
  118.06342 104.0 3
  119.05521 20.0 1
  119.57605 24.0 1
  120.08101 242.0 7
  120.09806 17.0 1
  121.05875 120.0 4
  121.07535 40.0 1
  121.0822 60.0 2
  121.09286 70.0 2
  122.08049 25.0 1
  122.0958 314.0 9
  123.06349 30.0 1
  123.06929 21.0 1
  123.07903 18.0 1
  123.09711 26.0 1
  123.71489 19.0 1
  126.09117 76.0 2
  127.05311 25.0 1
  128.05972 36.0 1
  128.0679 44.0 1
  129.03568 28.0 1
  129.0717 84.0 2
  130.06406 70.0 2
  131.05594 31.0 1
  131.07004 88.0 3
  132.03288 33.0 1
  132.06734 56.0 2
  132.07518 130.0 4
  133.06529 28.0 1
  133.08319 17.0 1
  133.09 35.0 1
  134.08812 110.0 3
  134.09648 242.0 7
  135.1019 19.0 1
  136.08282 36.0 1
  136.11281 74.0 2
  138.05165 38.0 1
  138.07487 40.0 1
  138.09081 2705.0 80
  139.08183 47.0 1
  139.09695 252.0 7
  140.06396 20.0 1
  140.1049 158.0 5
  140.44302 17.0 1
  141.10844 18.0 1
  142.06293 88.0 3
  143.03998 20.0 1
  143.04756 20.0 1
  143.05957 20.0 1
  143.06586 80.0 2
  143.07323 42.0 1
  144.01077 24.0 1
  144.05013 54.0 2
  144.05995 32.0 1
  144.07503 139.0 4
  144.08522 89.0 3
  144.74609 34.0 1
  145.06055 60.0 2
  145.0876 69.0 2
  145.09546 18.0 1
  146.01665 17.0 1
  146.04779 61.0 2
  146.05624 169.0 5
  146.06335 102.0 3
  146.07999 46.0 1
  146.09132 345.0 10
  146.09741 837.0 25
  146.88048 23.0 1
  147.06635 137.0 4
  147.08267 100.0 3
  147.09805 89.0 3
  147.186 17.0 1
  148.07306 207.0 6
  148.10121 68.0 2
  148.11201 227.0 7
  148.12096 33.0 1
  149.04645 21.0 1
  149.08362 26.0 1
  149.11842 41.0 1
  150.09999 41.0 1
  151.09801 36.0 1
  151.6407 20.0 1
  152.10027 103.0 3
  152.10915 71.0 2
  153.07443 18.0 1
  153.10983 70.0 2
  154.04886 28.0 1
  154.05969 91.0 3
  155.07224 247.0 7
  155.57246 41.0 1
  156.07137 18.0 1
  156.07834 26.0 1
  157.08682 283.0 8
  157.09787 39.0 1
  157.63519 36.0 1
  158.05479 198.0 6
  158.06523 94.0 3
  158.09023 17.0 1
  159.04921 31.0 1
  159.06049 101.0 3
  159.0674 133.0 4
  159.07623 281.0 8
  159.91573 36.0 1
  160.07712 672.0 20
  160.11032 120.0 4
  160.11847 130.0 4
  161.07506 180.0 5
  161.08446 689.0 20
  161.11154 21.0 1
  162.07332 58.0 2
  162.09026 235.0 7
  162.13181 19.0 1
  163.08971 28.0 1
  163.0976 17.0 1
  164.08882 30.0 1
  164.10489 250.0 7
  164.41855 49.0 1
  165.11053 41.0 1
  166.06448 154.0 5
  166.1127 24.0 1
  167.0697 195.0 6
  167.07942 173.0 5
  168.07909 66.0 2
  168.08977 41.0 1
  168.52252 30.0 1
  169.06212 24.0 1
  169.08615 257.0 8
  170.06342 196.0 6
  170.08534 24.0 1
  170.26073 18.0 1
  171.06848 275.0 8
  172.00598 39.0 1
  172.04745 35.0 1
  172.05499 21.0 1
  172.07574 1274.0 37
  172.48203 17.0 1
  173.02022 20.0 1
  173.05779 18.0 1
  173.06288 49.0 1
  173.08049 845.0 25
  174.02487 29.0 1
  174.05998 98.0 3
  174.07108 137.0 4
  174.09015 3699.0 109
  174.12798 25.0 1
  174.16522 18.0 1
  175.0945 531.0 16
  175.12323 55.0 2
  176.08174 20.0 1
  176.09352 146.0 4
  176.1097 64.0 2
  176.53966 24.0 1
  177.10004 38.0 1
  177.62051 30.0 1
  178.12305 31.0 1
  180.07985 93.0 3
  180.59996 18.0 1
  181.0808 33.0 1
  181.08946 68.0 2
  182.05775 21.0 1
  182.06863 17.0 1
  182.08234 30.0 1
  182.1032 20.0 1
  183.05847 108.0 3
  183.06732 255.0 8
  183.1026 25.0 1
  184.0582 26.0 1
  184.06664 77.0 2
  184.07478 89.0 3
  184.08488 41.0 1
  184.6539 27.0 1
  184.78932 21.0 1
  185.08424 207.0 6
  185.2115 25.0 1
  185.67986 20.0 1
  186.05502 22.0 1
  186.06833 22.0 1
  186.09169 1769.0 52
  186.10486 178.0 5
  186.12489 22.0 1
  186.93916 25.0 1
  187.0607 43.0 1
  187.09859 2524.0 74
  187.17329 21.0 1
  188.04294 29.0 1
  188.07314 124.0 4
  188.10568 2989.0 88
  188.97084 20.0 1
  189.09868 104.0 3
  189.11017 603.0 18
  189.75769 21.0 1
  190.08203 24.0 1
  190.10431 59.0 2
  190.11348 34.0 1
  190.12004 31.0 1
  191.07329 17.0 1
  191.25177 20.0 1
  192.08948 28.0 1
  193.08511 50.0 1
  193.10609 33.0 1
  193.69508 21.0 1
  194.06917 28.0 1
  194.08911 19.0 1
  195.05353 20.0 1
  195.1109 30.0 1
  196.06314 27.0 1
  196.07805 38.0 1
  196.08948 55.0 2
  196.1669 36.0 1
  197.07936 134.0 4
  198.06001 20.0 1
  198.09148 1189.0 35
  199.07719 87.0 3
  199.08675 95.0 3
  199.09821 174.0 5
  200.07741 42.0 1
  200.10429 1192.0 35
  200.1163 169.0 5
  201.10463 171.0 5
  201.11444 201.0 6
  202.11647 123.0 4
  205.08409 50.0 1
  206.08986 89.0 3
  207.10249 63.0 2
  208.06316 33.0 1
  208.07254 81.0 2
  208.08871 25.0 1
  209.08139 70.0 2
  209.09532 33.0 1
  209.1257 47.0 1
  209.78181 23.0 1
  210.07597 43.0 1
  210.08963 340.0 10
  210.1144 50.0 1
  210.12172 25.0 1
  211.09669 90.0 3
  211.10513 62.0 2
  212.10205 156.0 5
  212.11162 72.0 2
  213.10628 50.0 1
  213.12463 59.0 2
  214.10194 35.0 1
  214.12132 71.0 2
  215.09314 27.0 1
  215.10709 76.0 2
  215.12189 52.0 2
  216.08835 22.0 1
  216.09756 20.0 1
  216.12167 25.0 1
  217.08502 20.0 1
  218.07169 28.0 1
  218.09227 47.0 1
  218.10175 46.0 1
  218.11743 18.0 1
  219.09181 53.0 2
  219.10873 30.0 1
  219.11717 37.0 1
  220.08646 37.0 1
  220.10603 24.0 1
  220.90977 20.0 1
  221.06808 35.0 1
  221.0864 38.0 1
  221.10429 23.0 1
  221.12183 29.0 1
  222.06082 37.0 1
  222.09053 474.0 14
  222.11314 23.0 1
  222.12798 21.0 1
  223.05309 36.0 1
  223.0957 527.0 16
  223.33127 23.0 1
  224.10327 427.0 13
  224.1151 93.0 3
  224.40244 21.0 1
  225.05923 20.0 1
  225.09583 25.0 1
  225.11325 231.0 7
  225.73183 17.0 1
  226.06555 20.0 1
  226.11911 325.0 10
  226.13458 20.0 1
  227.11516 18.0 1
  228.11377 30.0 1
  228.13046 79.0 2
  228.14934 34.0 1
  231.09851 52.0 2
  232.07811 52.0 2
  232.09712 27.0 1
  232.10645 20.0 1
  233.08681 43.0 1
  234.09094 232.0 7
  235.09489 207.0 6
  235.12772 28.0 1
  236.09575 165.0 5
  236.10716 402.0 12
  236.11813 62.0 2
  236.13495 21.0 1
  236.72726 35.0 1
  237.07584 40.0 1
  237.105 177.0 5
  237.11617 367.0 11
  238.08289 26.0 1
  238.09225 37.0 1
  238.11256 130.0 4
  238.12422 312.0 9
  239.1031 21.0 1
  239.1165 27.0 1
  239.13034 114.0 3
  239.17046 17.0 1
  240.08778 25.0 1
  240.11108 56.0 2
  240.1413 56.0 2
  241.14255 17.0 1
  241.15553 17.0 1
  242.10965 17.0 1
  242.12329 21.0 1
  242.26587 17.0 1
  244.09898 20.0 1
  245.10307 18.0 1
  246.07391 53.0 2
  246.08931 99.0 3
  247.0961 74.0 2
  247.81268 33.0 1
  248.0601 24.0 1
  248.10355 147.0 4
  248.11343 68.0 2
  248.12933 26.0 1
  249.0575 30.0 1
  249.1021 333.0 10
  249.11731 212.0 6
  250.08554 18.0 1
  250.1138 213.0 6
  250.13332 126.0 4
  251.10616 53.0 2
  251.12296 289.0 9
  252.11073 118.0 3
  252.1357 2053.0 60
  253.07436 30.0 1
  253.11816 45.0 1
  253.14563 290.0 9
  253.16014 17.0 1
  253.31409 18.0 1
  254.12155 235.0 7
  254.15012 152.0 4
  254.25763 18.0 1
  254.82648 17.0 1
  255.10919 72.0 2
  255.15187 50.0 1
  256.11462 23.0 1
  256.13419 70.0 2
  256.5018 17.0 1
  256.66891 17.0 1
  258.12286 72.0 2
  259.13324 66.0 2
  259.15964 26.0 1
  260.09421 100.0 3
  260.10416 178.0 5
  261.0976 258.0 8
  261.11893 122.0 4
  261.13367 21.0 1
  262.09021 39.0 1
  262.10553 80.0 2
  262.12524 262.0 8
  263.10828 95.0 3
  263.12723 173.0 5
  263.14175 30.0 1
  263.16083 23.0 1
  264.11725 30.0 1
  264.13516 354.0 10
  264.83917 18.0 1
  265.10114 33.0 1
  265.12988 228.0 7
  265.14258 290.0 9
  266.13919 107.0 3
  266.15475 40.0 1
  266.1637 20.0 1
  267.05606 20.0 1
  267.10974 26.0 1
  267.14423 30.0 1
  268.11737 22.0 1
  268.14294 37.0 1
  269.12946 20.0 1
  270.14706 61.0 2
  271.1528 24.0 1
  274.06 49.0 1
  274.1145 88.0 3
  274.12732 17.0 1
  275.08313 41.0 1
  275.12503 294.0 9
  275.15161 42.0 1
  276.13345 353.0 10
  276.15393 22.0 1
  276.17111 46.0 1
  276.18454 30.0 1
  277.11853 201.0 6
  277.13177 228.0 7
  277.14008 111.0 3
  277.15192 57.0 2
  278.11551 20.0 1
  278.133 222.0 7
  278.1503 579.0 17
  279.12888 65.0 2
  279.15085 402.0 12
  279.16388 70.0 2
  279.1781 22.0 1
  280.11307 47.0 1
  280.15228 143.0 4
  280.17224 34.0 1
  280.94858 17.0 1
  281.12573 44.0 1
  281.1358 42.0 1
  282.13742 158.0 5
  282.1524 341.0 10
  282.16959 51.0 2
  282.33597 17.0 1
  282.50003 18.0 1
  283.14822 107.0 3
  284.17242 21.0 1
  288.15463 24.0 1
  289.98123 28.0 1
  290.10687 36.0 1
  290.12851 38.0 1
  290.15155 314.0 9
  290.16568 145.0 4
  290.49799 22.0 1
  291.09537 29.0 1
  291.14389 317.0 9
  292.12973 32.0 1
  292.14587 225.0 7
  292.15768 201.0 6
  292.17136 162.0 5
  293.10297 21.0 1
  293.12335 17.0 1
  293.14291 25.0 1
  293.15607 86.0 3
  293.16837 170.0 5
  293.19559 51.0 2
  294.13736 21.0 1
  294.16968 410.0 12
  295.14664 44.0 1
  295.15683 100.0 3
  295.17932 644.0 19
  295.19415 131.0 4
  295.93588 23.0 1
  296.14838 76.0 2
  296.17947 199.0 6
  296.19299 43.0 1
  297.15436 70.0 2
  297.19345 23.0 1
  298.18256 24.0 1
  303.53796 31.0 1
  305.16428 66.0 2
  307.10403 18.0 1
  307.13916 23.0 1
  307.17154 1244.0 37
  307.18396 1918.0 56
  307.20346 196.0 6
  307.62683 17.0 1
  308.13892 111.0 3
  308.1593 249.0 7
  308.17996 695.0 20
  308.21216 24.0 1
  308.26117 31.0 1
  308.70444 17.0 1
  308.94019 33.0 1
  309.11255 20.0 1
  309.14679 25.0 1
  309.16574 142.0 4
  310.16241 63.0 2
  311.18155 82.0 2
  318.36859 29.0 1
  320.38248 20.0 1
  322.28204 20.0 1
  323.16818 36.0 1
  323.17932 23.0 1
  323.25357 18.0 1
  324.14993 21.0 1
  324.16879 49.0 1
  324.59698 25.0 1
  324.96286 18.0 1
  325.00266 38.0 1
  325.10596 23.0 1
  325.13882 96.0 3
  325.14865 82.0 2
  325.19073 33941.0 999
  325.24234 904.0 27
  325.27176 20.0 1
  325.38144 18.0 1
//
