ACCESSION: MSBNK-RIKEN-PR309114
RECORD_TITLE: FA 18:0+2O+SO4; LC-ESI-QTOF; MS2
DATE: 2019.03.28
AUTHORS: Tetsuya Mori, Center for Sustainable Resource Science, RIKEN
LICENSE: CC BY-NC-SA
PUBLICATION: Tsugawa H., Nakabayashi R., Mori T., Yamada Y., Takahashi M., Rai A., Sugiyama R., Yamamoto H., Nakaya T., Yamazaki M., Kooke R., Bac-Molenaar JA., Oztolan-Erol N., Keurentjes JJB., Arita M., Saito K. (2019) "A cheminformatics approach to characterize metabolomes in stable-isotope-labeled organisms" Nature Methods 16(4):295-298. [doi:10.1038/s41592-019-0358-2]
COMMENT: Annotation level-3
CH$NAME: FA 18:0+2O+SO4
CH$COMPOUND_CLASS: Oxidized fatty acids
CH$FORMULA: C18H36O7S
CH$EXACT_MASS: 396.544
CH$SMILES: CCCCCCCCC(O)C(O)CCCCCCCC(=O)OS(O)(=O)=O
CH$IUPAC: InChI=1S/C18H36O7S/c1-2-3-4-5-7-10-13-16(19)17(20)14-11-8-6-9-12-15-18(21)25-26(22,23)24/h16-17,19-20H,2-15H2,1H3,(H,22,23,24)
CH$LINK: INCHIKEY SODLPGVKTPLRNA-UHFFFAOYSA-N
AC$INSTRUMENT: LC, Waters Acquity UPLC System; MS, Waters Xevo G2 Q-Tof
AC$INSTRUMENT_TYPE: LC-ESI-QTOF
AC$MASS_SPECTROMETRY: MS_TYPE MS2
AC$MASS_SPECTROMETRY: ION_MODE NEGATIVE
AC$MASS_SPECTROMETRY: COLLISION_ENERGY 6V
AC$MASS_SPECTROMETRY: DESOLVATION_GAS_FLOW 800/h
AC$MASS_SPECTROMETRY: DESOLVATION_TEMPERATURE 450 C
AC$MASS_SPECTROMETRY: IONIZATION ESI
AC$CHROMATOGRAPHY: CAPILLARY_VOLTAGE +3.00 kV
AC$CHROMATOGRAPHY: COLUMN_NAME Acquity bridged ethyl hybrid C18 (1.7 um, 2.1 mm * 100 mm, Waters)
AC$CHROMATOGRAPHY: COLUMN_TEMPERATURE 40 C
AC$CHROMATOGRAPHY: FLOW_GRADIENT A/B = (99.5%/0.5% at 0 min, 99.5%/0.5% at 0.1 min, 20%/80% at 10 min, 0.5%/99.5% at 10.1 min, 0.5%/99.5% at 12.0 min, 99.5%/0.5% at 12.1 min, 99.5%/0.5% at 15.0 min)
AC$CHROMATOGRAPHY: FLOW_RATE 0.3 ml/min at 0 min, 0.3 ml/min at 10 min, 0.4 ml/min at 10.1 min, 0.4 ml/min at 14.4 min, 0.3 ml/min at 14.5 min
AC$CHROMATOGRAPHY: RETENTION_TIME 5.44
AC$CHROMATOGRAPHY: SOLVENT A water including 0.1% formic acid
AC$CHROMATOGRAPHY: SOLVENT B acetonitrile including 0.1% formic acid
MS$FOCUSED_ION: PRECURSOR_TYPE [M-H]-
MS$FOCUSED_ION: PRECURSOR_M/Z 395.2095
PK$SPLASH: splash10-0002-2009000000-ac3ed7a928a89cce1c2d
PK$NUM_PEAK: 10
PK$PEAK: m/z int. rel.int.
  86.0229 25.0 4
  96.95999 1673.0 270
  97.96116 37.0 6
  98.95102 21.0 3
  98.95554 60.0 10
  98.9608 25.0 4
  200.94019 21.0 3
  227.35776 47.0 8
  376.50378 21.0 3
  395.21127 6181.0 999
//
