ACCESSION: MSBNK-RIKEN-PR302164
RECORD_TITLE: isosakuranetin-7-O-rutinoside; LC-ESI-QTOF; MS2
DATE: 2019.03.28
AUTHORS: Tetsuya Mori, Center for Sustainable Resource Science, RIKEN
LICENSE: CC BY-NC-SA
PUBLICATION: Tsugawa H., Nakabayashi R., Mori T., Yamada Y., Takahashi M., Rai A., Sugiyama R., Yamamoto H., Nakaya T., Yamazaki M., Kooke R., Bac-Molenaar JA., Oztolan-Erol N., Keurentjes JJB., Arita M., Saito K. (2019) "A cheminformatics approach to characterize metabolomes in stable-isotope-labeled organisms" Nature Methods 16(4):295-298. [doi:10.1038/s41592-019-0358-2]
COMMENT: registered in RIKEN PlaSMA
CH$NAME: isosakuranetin-7-O-rutinoside
CH$COMPOUND_CLASS: Flavonoid-7-O-glycosides
CH$FORMULA: C28H34O14
CH$EXACT_MASS: 594.566
CH$SMILES: COC1=CC=C(C=C1)[C@@H]1CC(=O)C2=C(O)C=C(O[C@@H]3O[C@H](CO[C@@H]4O[C@@H](C)[C@H](O)[C@@H](O)[C@H]4O)[C@@H](O)[C@H](O)[C@H]3O)C=C2O1
CH$IUPAC: InChI=1S/C28H34O14/c1-11-21(31)23(33)25(35)27(39-11)38-10-19-22(32)24(34)26(36)28(42-19)40-14-7-15(29)20-16(30)9-17(41-18(20)8-14)12-3-5-13(37-2)6-4-12/h3-8,11,17,19,21-29,31-36H,9-10H2,1-2H3/t11-,17-,19+,21-,22+,23+,24-,25+,26+,27+,28+/m0/s1
CH$LINK: INCHIKEY RMCRQBAILCLJGU-HIBKWJPLSA-N
AC$INSTRUMENT: LC, Waters Acquity UPLC System; MS, Waters Xevo G2 Q-Tof
AC$INSTRUMENT_TYPE: LC-ESI-QTOF
AC$MASS_SPECTROMETRY: MS_TYPE MS2
AC$MASS_SPECTROMETRY: ION_MODE POSITIVE
AC$MASS_SPECTROMETRY: COLLISION_ENERGY 6V
AC$MASS_SPECTROMETRY: DESOLVATION_GAS_FLOW 800/h
AC$MASS_SPECTROMETRY: DESOLVATION_TEMPERATURE 450 C
AC$MASS_SPECTROMETRY: IONIZATION ESI
AC$CHROMATOGRAPHY: CAPILLARY_VOLTAGE +3.00 kV
AC$CHROMATOGRAPHY: COLUMN_NAME Acquity bridged ethyl hybrid C18 (1.7 um, 2.1 mm * 100 mm, Waters)
AC$CHROMATOGRAPHY: COLUMN_TEMPERATURE 40 C
AC$CHROMATOGRAPHY: FLOW_GRADIENT A/B = (99.5%/0.5% at 0 min, 99.5%/0.5% at 0.1 min, 20%/80% at 10 min, 0.5%/99.5% at 10.1 min, 0.5%/99.5% at 12.0 min, 99.5%/0.5% at 12.1 min, 99.5%/0.5% at 15.0 min)
AC$CHROMATOGRAPHY: FLOW_RATE 0.3 ml/min at 0 min, 0.3 ml/min at 10 min, 0.4 ml/min at 10.1 min, 0.4 ml/min at 14.4 min, 0.3 ml/min at 14.5 min
AC$CHROMATOGRAPHY: RETENTION_TIME 5.327617
AC$CHROMATOGRAPHY: SOLVENT A water including 0.1% formic acid
AC$CHROMATOGRAPHY: SOLVENT B acetonitrile including 0.1% formic acid
MS$FOCUSED_ION: PRECURSOR_TYPE [M+H]+
MS$FOCUSED_ION: PRECURSOR_M/Z 595.2021322
PK$SPLASH: splash10-000i-1291000000-7f610e075f1fb9ccbe5d
PK$NUM_PEAK: 94
PK$PEAK: m/z int. rel.int.
  71.04507 29.0 29
  71.0509 15.0 15
  83.04895 11.0 11
  85.02139 26.0 26
  85.02808 77.0 77
  85.03358 28.0 28
  86.03076 7.0 7
  88.03907 7.0 7
  92.30553 6.0 6
  109.07096 7.0 7
  129.05548 112.0 112
  129.06424 17.0 17
  146.05476 13.0 13
  152.80212 6.0 6
  153.01889 100.0 100
  154.02301 10.0 10
  161.05249 45.0 45
  161.06227 16.0 16
  163.06424 6.0 6
  165.02525 20.0 20
  177.02168 7.0 7
  179.02594 12.0 12
  179.03664 12.0 12
  185.14986 6.0 6
  186.76883 7.0 7
  191.02986 7.0 7
  193.95262 7.0 7
  195.01129 11.0 11
  195.02721 157.0 157
  206.56773 9.0 9
  207.00951 10.0 10
  217.04382 9.0 9
  219.01961 16.0 16
  219.0323 66.0 66
  220.03722 27.0 27
  231.02708 13.0 13
  231.04832 9.0 9
  232.03001 8.0 8
  232.09625 7.0 7
  240.44109 7.0 7
  245.04889 29.0 29
  245.06163 8.0 8
  246.04305 20.0 20
  249.02985 7.0 7
  255.07773 6.0 6
  257.25766 8.0 8
  262.0365 7.0 7
  263.00079 10.0 10
  263.02673 13.0 13
  263.05621 128.0 128
  264.06058 27.0 27
  273.03372 6.0 6
  281.04755 6.0 6
  281.06259 28.0 28
  281.07693 13.0 13
  282.07043 18.0 18
  285.02707 9.0 9
  286.66422 6.0 6
  287.03406 24.0 24
  287.09146 1000.0 999
  288.03842 14.0 14
  288.09317 184.0 184
  289.10648 6.0 6
  299.08698 7.0 7
  299.10117 14.0 14
  300.07141 7.0 7
  309.15311 15.0 15
  311.08487 22.0 22
  311.09564 16.0 16
  313.06735 12.0 12
  325.09067 7.0 7
  329.08844 14.0 14
  329.10382 36.0 36
  330.09558 15.0 15
  339.10336 7.0 7
  349.10181 8.0 8
  353.09241 20.0 20
  353.10864 29.0 29
  353.12558 6.0 6
  354.10532 15.0 15
  359.0835 7.0 7
  363.56262 11.0 11
  365.10349 14.0 14
  377.08258 10.0 10
  379.11447 31.0 31
  380.13593 7.0 7
  397.12799 7.0 7
  398.14859 8.0 8
  413.11523 16.0 16
  413.1308 9.0 9
  415.12708 8.0 8
  415.1564 7.0 7
  425.08359 7.0 7
  433.15799 6.0 6
//
