ACCESSION: MSBNK-RIKEN-PR310588
RECORD_TITLE: Tabersonine; LC-ESI-QTOF; MS2
DATE: 2019.03.28
AUTHORS: Tetsuya Mori, Center for Sustainable Resource Science, RIKEN
LICENSE: CC BY-NC-SA
PUBLICATION: Tsugawa H., Nakabayashi R., Mori T., Yamada Y., Takahashi M., Rai A., Sugiyama R., Yamamoto H., Nakaya T., Yamazaki M., Kooke R., Bac-Molenaar JA., Oztolan-Erol N., Keurentjes JJB., Arita M., Saito K. (2019) "A cheminformatics approach to characterize metabolomes in stable-isotope-labeled organisms" Nature Methods 16(4):295-298. [doi:10.1038/s41592-019-0358-2]
COMMENT: Annotation level-1
CH$NAME: Tabersonine
CH$COMPOUND_CLASS: Alkaloids
CH$FORMULA: C21H24N2O2
CH$EXACT_MASS: 336.435
CH$SMILES: CCC12CC(C(=O)OC)=C3NC4=CC=CC=C4C33CCN(CC=C1)C23
CH$IUPAC: InChI=1S/C21H24N2O2/c1-3-20-9-6-11-23-12-10-21(19(20)23)15-7-4-5-8-16(15)22-17(21)14(13-20)18(24)25-2/h4-9,19,22H,3,10-13H2,1-2H3
CH$LINK: INCHIKEY FNGGIPWAZSFKCN-UHFFFAOYSA-N
AC$INSTRUMENT: LC, Waters Acquity UPLC System; MS, Waters Xevo G2 Q-Tof
AC$INSTRUMENT_TYPE: LC-ESI-QTOF
AC$MASS_SPECTROMETRY: MS_TYPE MS2
AC$MASS_SPECTROMETRY: ION_MODE POSITIVE
AC$MASS_SPECTROMETRY: COLLISION_ENERGY 6V
AC$MASS_SPECTROMETRY: DESOLVATION_GAS_FLOW 800/h
AC$MASS_SPECTROMETRY: DESOLVATION_TEMPERATURE 450 C
AC$MASS_SPECTROMETRY: IONIZATION ESI
AC$CHROMATOGRAPHY: CAPILLARY_VOLTAGE +3.00 kV
AC$CHROMATOGRAPHY: COLUMN_NAME Acquity bridged ethyl hybrid C18 (1.7 um, 2.1 mm * 100 mm, Waters)
AC$CHROMATOGRAPHY: COLUMN_TEMPERATURE 40 C
AC$CHROMATOGRAPHY: FLOW_GRADIENT A/B = (99.5%/0.5% at 0 min, 99.5%/0.5% at 0.1 min, 20%/80% at 10 min, 0.5%/99.5% at 10.1 min, 0.5%/99.5% at 12.0 min, 99.5%/0.5% at 12.1 min, 99.5%/0.5% at 15.0 min)
AC$CHROMATOGRAPHY: FLOW_RATE 0.3 ml/min at 0 min, 0.3 ml/min at 10 min, 0.4 ml/min at 10.1 min, 0.4 ml/min at 14.4 min, 0.3 ml/min at 14.5 min
AC$CHROMATOGRAPHY: RETENTION_TIME 5.2
AC$CHROMATOGRAPHY: SOLVENT A water including 0.1% formic acid
AC$CHROMATOGRAPHY: SOLVENT B acetonitrile including 0.1% formic acid
MS$FOCUSED_ION: PRECURSOR_TYPE [M+H]+
MS$FOCUSED_ION: PRECURSOR_M/Z 337.19105
PK$SPLASH: splash10-000i-0439000000-afa25088973d7dda1d7f
PK$NUM_PEAK: 491
PK$PEAK: m/z int. rel.int.
  67.05489 101.0 2
  68.04468 27.0 1
  79.05322 58.0 1
  80.04391 55.0 1
  80.05216 25.0 1
  81.03942 19.0 0
  81.04654 33.0 1
  81.06523 39.0 1
  81.07278 52.0 1
  82.06312 21.0 0
  91.05352 83.0 2
  91.06052 78.0 2
  92.04981 29.0 1
  93.05652 163.0 4
  93.07246 177.0 4
  94.05977 32.0 1
  94.0656 34.0 1
  94.07887 27.0 1
  95.07355 28.0 1
  96.08611 47.0 1
  103.05585 46.0 1
  105.06935 25.0 1
  106.04738 44.0 1
  106.06512 74.0 2
  107.01403 28.0 1
  107.0713 250.0 6
  107.07503 114.0 3
  107.08511 50.0 1
  107.09403 27.0 1
  108.08157 426.0 10
  108.8176 30.0 1
  109.08877 17.0 0
  109.10208 64.0 1
  110.09205 132.0 3
  112.40228 28.0 1
  115.05198 75.0 2
  116.67011 18.0 0
  116.88897 21.0 0
  117.06589 62.0 1
  118.06223 72.0 2
  118.0677 41.0 1
  119.06994 27.0 1
  119.08041 64.0 1
  119.08952 98.0 2
  120.03438 40.0 1
  120.07449 17.0 0
  120.08076 63.0 1
  121.08494 33.0 1
  122.06652 30.0 1
  122.08295 52.0 1
  122.09563 1071.0 25
  123.09339 29.0 1
  123.10519 26.0 1
  124.11711 24.0 1
  124.19015 24.0 1
  126.12154 23.0 1
  128.01445 28.0 1
  128.04889 30.0 1
  128.05518 43.0 1
  128.07143 19.0 0
  128.72021 53.0 1
  129.03935 44.0 1
  129.05077 45.0 1
  129.06839 123.0 3
  129.07477 71.0 2
  130.0285 21.0 0
  130.05411 62.0 1
  130.06767 296.0 7
  131.07387 51.0 1
  132.04756 31.0 1
  132.07176 18.0 0
  132.08087 59.0 1
  133.84052 20.0 0
  134.07797 32.0 1
  134.08516 72.0 2
  134.09583 353.0 8
  134.40309 25.0 1
  135.0721 23.0 1
  135.09349 22.0 1
  136.08879 21.0 0
  136.11145 2414.0 56
  137.10875 129.0 3
  137.11627 189.0 4
  139.05341 28.0 1
  140.86189 23.0 1
  140.92752 34.0 1
  141.0605 83.0 2
  141.07156 95.0 2
  142.06551 129.0 3
  143.06001 55.0 1
  143.08348 145.0 3
  143.52078 18.0 0
  144.0536 57.0 1
  144.071 83.0 2
  144.08038 695.0 16
  144.09683 49.0 1
  144.54526 17.0 0
  145.07776 80.0 2
  145.08815 25.0 1
  146.08839 193.0 4
  146.68115 17.0 0
  147.06258 33.0 1
  147.10765 20.0 0
  148.07489 17.0 0
  151.0508 21.0 0
  154.05034 73.0 2
  154.06432 386.0 9
  155.07477 197.0 5
  155.45505 38.0 1
  155.8662 30.0 1
  156.05405 24.0 1
  156.06233 58.0 1
  156.07939 1447.0 33
  156.09366 17.0 0
  156.11342 35.0 1
  157.06993 33.0 1
  157.086 331.0 8
  157.96359 27.0 1
  158.05997 18.0 0
  158.09645 130.0 3
  159.09663 17.0 0
  160.0715 64.0 1
  160.08141 21.0 0
  162.08533 168.0 4
  162.0932 104.0 2
  163.09909 23.0 1
  163.67683 38.0 1
  164.85666 20.0 0
  166.05157 20.0 0
  167.04996 49.0 1
  167.07249 971.0 22
  167.59981 21.0 0
  168.03453 18.0 0
  168.0493 108.0 2
  168.08044 6512.0 151
  168.64853 17.0 0
  168.99153 42.0 1
  169.04552 91.0 2
  169.05534 22.0 1
  169.08394 1155.0 27
  169.44653 17.0 0
  170.02786 33.0 1
  170.05943 354.0 8
  170.07072 51.0 1
  170.097 1830.0 42
  171.0439 27.0 1
  171.0885 137.0 3
  171.09544 338.0 8
  171.89545 17.0 0
  172.08308 57.0 1
  172.10149 26.0 1
  172.11137 59.0 1
  172.17255 18.0 0
  173.64896 37.0 1
  174.08588 99.0 2
  174.09547 32.0 1
  174.79601 21.0 0
  175.09888 44.0 1
  175.1745 20.0 0
  175.46855 20.0 0
  176.55492 18.0 0
  177.08771 28.0 1
  177.90004 17.0 0
  179.08047 58.0 1
  180.06679 79.0 2
  180.07999 29.0 1
  180.54066 17.0 0
  180.78754 18.0 0
  181.05246 21.0 0
  181.0883 21.0 0
  181.98845 24.0 1
  182.05893 24.0 1
  182.08119 39.0 1
  182.1022 59.0 1
  182.11313 27.0 1
  183.01891 34.0 1
  183.06705 18.0 0
  183.07622 46.0 1
  183.08665 66.0 2
  183.09967 20.0 0
  184.07356 136.0 3
  184.08031 103.0 2
  184.09247 96.0 2
  184.10262 99.0 2
  184.12161 47.0 1
  184.13286 20.0 0
  184.54094 17.0 0
  184.85512 17.0 0
  185.06963 29.0 1
  185.07993 62.0 1
  185.10709 64.0 1
  185.55276 24.0 1
  186.00162 25.0 1
  186.08936 32.0 1
  187.08725 51.0 1
  188.02913 39.0 1
  188.06071 43.0 1
  188.07135 17.0 0
  188.08505 20.0 0
  188.09801 20.0 0
  189.06027 22.0 1
  189.06998 45.0 1
  189.08575 19.0 0
  191.08014 30.0 1
  193.09091 21.0 0
  194.09105 52.0 1
  194.0988 42.0 1
  194.11829 73.0 2
  194.12846 26.0 1
  194.94344 19.0 0
  195.06937 17.0 0
  195.09497 17.0 0
  196.03661 22.0 1
  196.077 2271.0 53
  196.10703 117.0 3
  196.12373 37.0 1
  197.07808 481.0 11
  197.10892 42.0 1
  198.03848 20.0 0
  198.05545 32.0 1
  198.06905 25.0 1
  198.07771 63.0 1
  198.09076 226.0 5
  198.12018 81.0 2
  198.25122 25.0 1
  198.69548 17.0 0
  198.84105 20.0 0
  199.0618 45.0 1
  199.08249 54.0 1
  199.96675 19.0 0
  200.09158 29.0 1
  200.10492 123.0 3
  200.12422 32.0 1
  201.0965 17.0 0
  201.2419 24.0 1
  202.08412 108.0 2
  202.09509 66.0 2
  202.10753 34.0 1
  202.51494 25.0 1
  202.84843 40.0 1
  203.09241 101.0 2
  204.05946 18.0 0
  204.08524 96.0 2
  205.07419 28.0 1
  205.08754 86.0 2
  205.69261 20.0 0
  206.10254 52.0 1
  206.11429 107.0 2
  206.12401 140.0 3
  206.377 25.0 1
  207.06624 28.0 1
  207.09537 41.0 1
  207.11848 28.0 1
  208.07085 17.0 0
  208.09537 21.0 0
  208.11282 125.0 3
  208.50876 18.0 0
  208.79939 24.0 1
  209.10526 24.0 1
  210.09399 113.0 3
  213.0708 20.0 0
  213.10484 26.0 1
  214.07582 17.0 0
  214.09108 126.0 3
  216.01422 17.0 0
  216.03168 67.0 2
  216.10197 590.0 14
  216.72766 17.0 0
  217.07773 54.0 1
  217.09346 113.0 3
  217.10739 31.0 1
  218.00681 30.0 1
  218.09799 109.0 3
  218.11554 17.0 0
  219.08247 72.0 2
  219.0936 147.0 3
  219.1032 99.0 2
  220.08566 55.0 1
  220.10002 108.0 2
  220.10861 84.0 2
  221.07922 25.0 1
  221.10269 125.0 3
  221.11156 125.0 3
  221.12489 29.0 1
  221.13464 28.0 1
  222.08611 37.0 1
  222.10783 19.0 0
  222.11925 86.0 2
  222.13283 18.0 0
  223.08742 38.0 1
  223.11754 71.0 2
  224.10011 20.0 0
  224.1189 25.0 1
  225.14052 23.0 1
  227.90952 18.0 0
  228.07573 35.0 1
  228.10204 4237.0 98
  228.90436 17.0 0
  229.07796 23.0 1
  229.10048 676.0 16
  229.11169 179.0 4
  230.11273 461.0 11
  230.12892 104.0 2
  231.0892 40.0 1
  231.10349 203.0 5
  231.12077 124.0 3
  231.74593 32.0 1
  232.06702 17.0 0
  232.08897 42.0 1
  232.11559 165.0 4
  233.08711 18.0 0
  233.10466 227.0 5
  233.11826 63.0 1
  233.1302 59.0 1
  233.98404 33.0 1
  234.09555 50.0 1
  234.11018 55.0 1
  234.12138 63.0 1
  234.13835 32.0 1
  234.98764 41.0 1
  235.07056 32.0 1
  235.09261 20.0 0
  235.12393 261.0 6
  235.13477 120.0 3
  236.12523 91.0 2
  236.13406 96.0 2
  236.14983 71.0 2
  236.16206 44.0 1
  236.36337 17.0 0
  237.12437 18.0 0
  237.13908 58.0 1
  237.94475 28.0 1
  238.325 18.0 0
  239.69704 23.0 1
  242.10672 110.0 3
  243.11415 31.0 1
  243.12772 42.0 1
  243.50334 28.0 1
  244.10155 19.0 0
  244.12132 31.0 1
  245.10983 34.0 1
  245.12857 43.0 1
  246.09074 26.0 1
  246.11511 58.0 1
  246.12688 64.0 1
  246.13899 18.0 0
  247.0788 18.0 0
  247.0854 43.0 1
  247.10335 20.0 0
  247.1244 506.0 12
  247.78633 39.0 1
  248.09477 43.0 1
  248.12933 267.0 6
  248.14703 104.0 2
  248.16261 51.0 1
  248.59163 33.0 1
  249.08218 20.0 0
  249.0979 53.0 1
  249.13864 2161.0 50
  250.11111 29.0 1
  250.12323 61.0 1
  250.13872 250.0 6
  250.15253 161.0 4
  250.16939 68.0 2
  251.14809 26.0 1
  254.09314 21.0 0
  254.11554 23.0 1
  255.10809 23.0 1
  256.11929 38.0 1
  257.02884 25.0 1
  257.09747 32.0 1
  257.10614 20.0 0
  258.07773 23.0 1
  260.11169 29.0 1
  260.1282 85.0 2
  260.15576 49.0 1
  261.1344 24.0 1
  261.14929 44.0 1
  261.28333 19.0 0
  262.11761 28.0 1
  262.13751 138.0 3
  263.12222 19.0 0
  263.14011 51.0 1
  263.16202 22.0 1
  264.11749 42.0 1
  264.15189 110.0 3
  264.1705 20.0 0
  265.13089 17.0 0
  265.1608 23.0 1
  266.42834 20.0 0
  268.55789 38.0 1
  272.12531 25.0 1
  273.28888 25.0 1
  273.47531 40.0 1
  273.8046 25.0 1
  273.95227 19.0 0
  274.07114 25.0 1
  274.11151 17.0 0
  275.05753 40.0 1
  275.12103 337.0 8
  275.15881 34.0 1
  275.43079 20.0 0
  276.116 73.0 2
  276.14401 132.0 3
  276.20679 27.0 1
  276.31381 18.0 0
  276.65405 18.0 0
  277.08755 17.0 0
  277.11685 126.0 3
  277.13272 158.0 4
  277.16083 423.0 10
  277.17099 924.0 21
  277.19043 49.0 1
  277.41003 27.0 1
  277.81323 21.0 0
  278.03845 24.0 1
  278.12939 83.0 2
  278.16125 103.0 2
  278.17825 363.0 8
  278.49677 18.0 0
  279.15137 26.0 1
  279.16742 92.0 2
  279.17905 27.0 1
  280.11011 17.0 0
  280.15857 26.0 1
  281.12799 17.0 0
  281.27191 24.0 1
  282.14761 51.0 1
  282.15811 31.0 1
  285.15637 23.0 1
  285.48441 20.0 0
  287.1189 81.0 2
  287.14661 21.0 0
  287.16052 22.0 1
  288.16016 17.0 0
  289.14493 29.0 1
  289.1554 18.0 0
  294.1554 33.0 1
  295.86844 24.0 1
  298.965 48.0 1
  303.13321 188.0 4
  303.15195 285.0 7
  303.99973 27.0 1
  304.14154 47.0 1
  304.15448 64.0 1
  305.09689 52.0 1
  305.12946 47.0 1
  305.15549 2166.0 50
  305.16589 6618.0 153
  305.20395 31.0 1
  306.1098 26.0 1
  306.12146 23.0 1
  306.14087 73.0 2
  306.16821 1970.0 46
  307.14105 117.0 3
  307.15765 83.0 2
  307.17273 104.0 2
  307.18875 45.0 1
  307.5462 18.0 0
  307.88943 36.0 1
  308.14929 18.0 0
  308.18637 39.0 1
  309.13635 113.0 3
  309.14938 63.0 1
  309.16055 82.0 2
  309.70306 18.0 0
  310.16556 38.0 1
  312.62537 19.0 0
  320.16669 20.0 0
  320.37769 26.0 1
  320.57376 27.0 1
  329.48199 26.0 1
  330.60403 18.0 0
  334.32077 21.0 0
  335.16595 132.0 3
  335.18665 87.0 2
  335.52795 18.0 0
  336.17175 37.0 1
  336.55441 17.0 0
  336.78543 32.0 1
  336.81467 27.0 1
  336.84354 38.0 1
  336.98248 19.0 0
  337.07306 71.0 2
  337.09503 48.0 1
  337.11804 199.0 5
  337.14474 230.0 5
  337.19144 43195.0 999
  337.24481 1164.0 27
  337.29483 34.0 1
  337.30905 31.0 1
//
