ACCESSION: MSBNK-RIKEN-PR020105
RECORD_TITLE: Isopentenyladenine; LC-ESI-QQ; MS2; CE:10.0 eV; [M+H]+
DATE: 2016.01.19 (Created 2007.12.03, modified 2011.05.06)
AUTHORS: Kojima M, Sakakibara H, Plant Science Center, RIKEN.
LICENSE: CC BY-SA
CH$NAME: Isopentenyladenine
CH$NAME: 6-(gamma,gamma-Dimethylallylamino)purine
CH$NAME: N6-(3-Methylbut-2-enyl)adenine
CH$NAME: N6-(delta2-Isopentenyl)-adenine
CH$NAME: N6-Dimethylallyladenine
CH$COMPOUND_CLASS: N/A
CH$FORMULA: C10H15N5
CH$EXACT_MASS: 205.13275
CH$SMILES: CC(C)=CCNC(=N2)C(N=1)C(N=C2)NC1
CH$IUPAC: InChI=1S/C10H15N5/c1-7(2)3-4-11-9-8-10(13-5-12-8)15-6-14-9/h3,5-6,8,10H,4H2,1-2H3,(H,12,13)(H,11,14,15)
CH$LINK: CAS 2365-40-4
CH$LINK: CHEBI CHEBI:17660
CH$LINK: KEGG C04083
CH$LINK: NIKKAJI J120.788A
CH$LINK: PUBCHEM SID:6776 CID:92180
CH$LINK: INCHIKEY DIMSEFDETYWFFK-UHFFFAOYSA-N
AC$INSTRUMENT: UPLC Waters, Quattro Ultima Pt Micromass
AC$INSTRUMENT_TYPE: LC-ESI-QQ
AC$MASS_SPECTROMETRY: MS_TYPE MS2
AC$MASS_SPECTROMETRY: ION_MODE POSITIVE
AC$MASS_SPECTROMETRY: COLLISION_ENERGY 10.0 eV
AC$MASS_SPECTROMETRY: DATAFORMAT Centroid
AC$MASS_SPECTROMETRY: DESOLVATION_GAS_FLOW 565 L/Hr
AC$MASS_SPECTROMETRY: DESOLVATION_TEMPERATURE 400 C
AC$MASS_SPECTROMETRY: FRAGMENTATION_MODE LOW-ENERGY CID
AC$MASS_SPECTROMETRY: IONIZATION ESI
AC$MASS_SPECTROMETRY: SCANNING 0.2 sec/scan (m/z=50-500)
AC$MASS_SPECTROMETRY: SOURCE_TEMPERATURE 140 C
AC$CHROMATOGRAPHY: CAPILLARY_VOLTAGE 3.1 kV
AC$CHROMATOGRAPHY: COLUMN_NAME ACQUITY UPLC BEH C18 2.1 by 50 mm (Waters, Milford, MA, USA)
AC$CHROMATOGRAPHY: COLUMN_TEMPERATURE 40 C
AC$CHROMATOGRAPHY: FLOW_GRADIENT 0.1/99.9 at 0 min, 9.0/91.0 at 2 min, 12.5/87.5 at 7 min, 30/70 at 10 min, 50/50 at 12 min, 50/50 at 13 min, 99.9/0.1 at 15 min
AC$CHROMATOGRAPHY: FLOW_RATE 0.25 ml/min
AC$CHROMATOGRAPHY: RETENTION_TIME 11.72 min
AC$CHROMATOGRAPHY: SAMPLING_CONE 53 V
AC$CHROMATOGRAPHY: SOLVENT A CH3CN(0.05% HCOOH)
AC$CHROMATOGRAPHY: SOLVENT B HCOOH(0.05% CH3CN)
MS$FOCUSED_ION: FULL_SCAN_FRAGMENT_ION_PEAK 203
MS$FOCUSED_ION: PRECURSOR_M/Z 206
MS$FOCUSED_ION: PRECURSOR_TYPE [M+H]+
MS$DATA_PROCESSING: WHOLE MassLynx 4.0
PK$SPLASH: splash10-0f79-0950000000-35597aef6e07f181eb6a
PK$NUM_PEAK: 5
PK$PEAK: m/z int. rel.int.
  68.801 733000 67
  98.736 128300 12
  135.847 1.092E+7 999
  147.840 4349000 398
  203.948 9277000 849
//
