ACCESSION: MSBNK-RIKEN-PR100989
RECORD_TITLE: Kaempferitrin; LC-ESI-QTOF; MS2; CE:Ramp 5-60 V; [M-H]-
DATE: 2016.01.19 (Created 2009.09.10, modified 2011.05.06)
AUTHORS: Matsuda F, Suzuki M, Sawada Y, Plant Science Center, RIKEN.
LICENSE: CC BY-SA
COMMENT: Acquisition and generation of the data is financially supported in part by CREST/JST.
CH$NAME: Kaempferitrin
CH$NAME: 3-Rha-7-Rha Kaempferol
CH$NAME: Kaempferol-3-O-rhamnoside-7-O-rhamnoside
CH$NAME: 3,4',5,7-Tetrahydroxyflavone 3,7-dirhamnoside
CH$NAME: 3,7-Bis[(6-deoxy-alpha-L-mannopyranosyl)oxy]-5-hydroxy-2-(4-hydroxyphenyl)-4H-1-benzopyran-4-one
CH$NAME: Lespedin
CH$NAME: Lespenephryl
CH$COMPOUND_CLASS: Flavonoid
CH$FORMULA: C27H30O14
CH$EXACT_MASS: 578.16356
CH$SMILES: C[C@H]1[C@@H]([C@H]([C@H]([C@@H](O1)OC2=CC(=C3C(=C2)OC(=C(C3=O)O[C@H]4[C@@H]([C@@H]([C@H]([C@@H](O4)C)O)O)O)C5=CC=C(C=C5)O)O)O)O)O
CH$IUPAC: InChI=1S/C27H30O14/c1-9-17(30)20(33)22(35)26(37-9)39-13-7-14(29)16-15(8-13)40-24(11-3-5-12(28)6-4-11)25(19(16)32)41-27-23(36)21(34)18(31)10(2)38-27/h3-10,17-18,20-23,26-31,33-36H,1-2H3/t9-,10-,17-,18-,20+,21+,22+,23+,26-,27-/m0/s1
CH$LINK: CAS 482-38-2
CH$LINK: CHEMSPIDER 4588900
CH$LINK: COMPTOX DTXSID90197458
CH$LINK: INCHIKEY PUPKKEQDLNREIM-QNSQPKOQSA-N
CH$LINK: KNAPSACK C00005189
CH$LINK: PUBCHEM CID:5486199
AC$INSTRUMENT: UPLC Q-Tof Premier, Waters
AC$INSTRUMENT_TYPE: LC-ESI-QTOF
AC$MASS_SPECTROMETRY: MS_TYPE MS2
AC$MASS_SPECTROMETRY: ION_MODE NEGATIVE
AC$MASS_SPECTROMETRY: COLLISION_ENERGY Ramp 5-60 V
AC$MASS_SPECTROMETRY: DATAFORMAT Continuum
AC$MASS_SPECTROMETRY: DATE 2008.09.29
AC$MASS_SPECTROMETRY: DESOLVATION_GAS_FLOW 600.0 L/Hr
AC$MASS_SPECTROMETRY: DESOLVATION_TEMPERATURE 420 C
AC$MASS_SPECTROMETRY: FRAGMENTATION_METHOD LOW-ENERGY CID
AC$MASS_SPECTROMETRY: IONIZATION ESI
AC$MASS_SPECTROMETRY: SCANNING 1.0 sec/scan (m/z = 50-1000)
AC$MASS_SPECTROMETRY: SOURCE_TEMPERATURE 120 C
AC$CHROMATOGRAPHY: CAPILLARY_VOLTAGE 3.0 kV
AC$CHROMATOGRAPHY: SAMPLING_CONE 23.0 V
AC$CHROMATOGRAPHY: SOLVENT A CH3CN(0.1%HCOOH)
AC$CHROMATOGRAPHY: SOLVENT B H2O(0.1%HCOOH)
MS$FOCUSED_ION: PRECURSOR_M/Z 577.15573
MS$FOCUSED_ION: PRECURSOR_TYPE [M-H]-
PK$SPLASH: splash10-0040-0090330000-998d0d022b030064ef8a
PK$NUM_PEAK: 10
PK$PEAK: m/z int. rel.int.
  255.0311 1505 263
  283.0259 4090 716
  284.0325 757.7 133
  285.0416 5706 999
  286.0470 701.8 123
  430.0936 1348 236
  431.1004 2798 490
  432.1079 415.8 73
  577.1557 4313 755
  578.1671 975.1 171
//
