ACCESSION: MSBNK-RIKEN-PR300156
RECORD_TITLE: Humantenine; LC-ESI-QTOF; MS2
DATE: 2019.03.28
AUTHORS: Tetsuya Mori, Center for Sustainable Resource Science, RIKEN
LICENSE: CC BY-NC-SA
PUBLICATION: Tsugawa H., Nakabayashi R., Mori T., Yamada Y., Takahashi M., Rai A., Sugiyama R., Yamamoto H., Nakaya T., Yamazaki M., Kooke R., Bac-Molenaar JA., Oztolan-Erol N., Keurentjes JJB., Arita M., Saito K. (2019) "A cheminformatics approach to characterize metabolomes in stable-isotope-labeled organisms" Nature Methods 16(4):295-298. [doi:10.1038/s41592-019-0358-2]
COMMENT: registered in RIKEN PlaSMA
CH$NAME: Humantenine
CH$COMPOUND_CLASS: Gelsemium alkaloids
CH$FORMULA: C21H26N2O3
CH$EXACT_MASS: 354.45
CH$SMILES: CON1C(=O)[C@@]2(C[C@H]3[C@H]4CO[C@H]2C[C@@H]4\C(CN3C)=C\C)C2=CC=CC=C12
CH$IUPAC: InChI=1S/C21H26N2O3/c1-4-13-11-22(2)18-10-21(19-9-14(13)15(18)12-26-19)16-7-5-6-8-17(16)23(25-3)20(21)24/h4-8,14-15,18-19H,9-12H2,1-3H3/b13-4+/t14-,15+,18+,19+,21+/m1/s1
CH$LINK: INCHIKEY SJKRPUOXUNOPOP-HEXYGZIHSA-N
AC$INSTRUMENT: LC, Waters Acquity UPLC System; MS, Waters Xevo G2 Q-Tof
AC$INSTRUMENT_TYPE: LC-ESI-QTOF
AC$MASS_SPECTROMETRY: MS_TYPE MS2
AC$MASS_SPECTROMETRY: ION_MODE POSITIVE
AC$MASS_SPECTROMETRY: COLLISION_ENERGY 6V
AC$MASS_SPECTROMETRY: DESOLVATION_GAS_FLOW 800/h
AC$MASS_SPECTROMETRY: DESOLVATION_TEMPERATURE 450 C
AC$MASS_SPECTROMETRY: IONIZATION ESI
AC$CHROMATOGRAPHY: CAPILLARY_VOLTAGE +3.00 kV
AC$CHROMATOGRAPHY: COLUMN_NAME Acquity bridged ethyl hybrid C18 (1.7 um, 2.1 mm * 100 mm, Waters)
AC$CHROMATOGRAPHY: COLUMN_TEMPERATURE 40 C
AC$CHROMATOGRAPHY: FLOW_GRADIENT A/B = (99.5%/0.5% at 0 min, 99.5%/0.5% at 0.1 min, 20%/80% at 10 min, 0.5%/99.5% at 10.1 min, 0.5%/99.5% at 12.0 min, 99.5%/0.5% at 12.1 min, 99.5%/0.5% at 15.0 min)
AC$CHROMATOGRAPHY: FLOW_RATE 0.3 ml/min at 0 min, 0.3 ml/min at 10 min, 0.4 ml/min at 10.1 min, 0.4 ml/min at 14.4 min, 0.3 ml/min at 14.5 min
AC$CHROMATOGRAPHY: RETENTION_TIME 4.632933
AC$CHROMATOGRAPHY: SOLVENT A water including 0.1% formic acid
AC$CHROMATOGRAPHY: SOLVENT B acetonitrile including 0.1% formic acid
MS$FOCUSED_ION: PRECURSOR_TYPE [M+H]+
MS$FOCUSED_ION: PRECURSOR_M/Z 355.2016192
PK$SPLASH: splash10-00di-0910000000-60f42f94b497eef78194
PK$NUM_PEAK: 425
PK$PEAK: m/z int. rel.int.
  55.05189 6.0 6
  67.05598 11.0 11
  68.05179 19.0 19
  69.03497 8.0 8
  70.05856 7.0 7
  70.06555 17.0 17
  77.03657 14.0 14
  77.04242 11.0 11
  78.00103 7.0 7
  79.05222 47.0 47
  79.05806 20.0 20
  81.06121 12.0 12
  81.06931 37.0 37
  81.07458 13.0 13
  82.05255 6.0 6
  82.06561 52.0 52
  83.0733 7.0 7
  84.04678 6.0 6
  84.07809 37.0 37
  84.08757 8.0 8
  85.08902 7.0 7
  86.05576 8.0 8
  89.03304 6.0 6
  91.04225 7.0 7
  91.05358 85.0 85
  92.03653 7.0 7
  92.05444 9.0 9
  92.06142 12.0 12
  93.05503 43.0 43
  93.06205 28.0 28
  93.06924 32.0 32
  94.04881 6.0 6
  94.06476 154.0 154
  95.04725 16.0 16
  95.0734 62.0 62
  95.08138 8.0 8
  95.09178 6.0 6
  96.05565 6.0 6
  96.07655 31.0 31
  96.08276 27.0 27
  97.05494 8.0 8
  98.06029 15.0 15
  98.09204 11.0 11
  102.03767 5.0 5
  103.05373 16.0 16
  104.04557 28.0 28
  104.0525 15.0 15
  104.68755 5.0 5
  105.07087 112.0 112
  105.07977 13.0 13
  106.05391 6.0 6
  106.05891 14.0 14
  106.06773 30.0 30
  107.03175 8.0 8
  107.0529 14.0 14
  107.07239 193.0 193
  107.08918 11.0 11
  108.06412 28.0 28
  108.07935 571.0 570
  108.39757 5.0 5
  109.0668 27.0 27
  109.08331 79.0 79
  109.09933 8.0 8
  109.99992 10.0 10
  110.05718 20.0 20
  110.08241 18.0 18
  110.09405 57.0 57
  110.10442 13.0 13
  111.09391 9.0 9
  112.07822 9.0 9
  115.04637 18.0 18
  115.06045 9.0 9
  116.04919 12.0 12
  116.06189 9.0 9
  117.05167 7.0 7
  117.06286 22.0 22
  117.07118 38.0 38
  118.06174 30.0 30
  118.06978 20.0 20
  118.08037 11.0 11
  119.07196 15.0 15
  119.08348 70.0 70
  120.07925 589.0 588
  120.16003 6.0 6
  121.08755 278.0 278
  122.0654 11.0 11
  122.07891 15.0 15
  122.09581 1000.0 999
  123.0966 35.0 35
  123.10504 36.0 36
  123.11438 5.0 5
  124.11218 7.0 7
  125.07925 6.0 6
  127.05918 9.0 9
  128.04115 13.0 13
  128.05212 48.0 48
  128.06361 5.0 5
  128.65439 5.0 5
  129.06456 35.0 35
  129.07278 45.0 45
  129.07843 15.0 15
  130.05792 53.0 53
  130.06754 104.0 104
  131.04019 6.0 6
  131.0703 29.0 29
  131.0822 7.0 7
  132.04401 283.0 283
  132.08015 112.0 112
  133.04051 6.0 6
  133.05013 23.0 23
  133.06061 10.0 10
  133.06763 15.0 15
  133.0867 81.0 81
  133.11472 7.0 7
  134.04665 9.0 9
  134.08333 13.0 13
  134.09557 342.0 342
  135.06245 7.0 7
  135.07744 9.0 9
  135.0937 42.0 42
  135.1041 80.0 80
  135.75522 7.0 7
  136.0695 9.0 9
  136.08183 14.0 14
  136.1105 328.0 328
  137.08232 37.0 37
  137.11365 15.0 15
  138.12781 5.0 5
  139.05325 6.0 6
  140.10606 14.0 14
  141.06291 5.0 5
  141.07436 12.0 12
  142.04961 5.0 5
  142.06367 22.0 22
  142.07347 8.0 8
  143.0648 11.0 11
  143.07646 20.0 20
  143.08513 11.0 11
  144.06068 14.0 14
  144.07819 72.0 72
  145.02028 7.0 7
  145.05646 11.0 11
  145.08408 7.0 7
  145.09593 13.0 13
  146.01909 20.0 20
  146.02785 18.0 18
  146.04773 8.0 8
  146.05804 30.0 30
  146.06459 11.0 11
  146.09427 188.0 188
  146.11156 6.0 6
  147.0531 6.0 6
  147.06306 13.0 13
  147.0726 6.0 6
  147.09042 8.0 8
  147.1049 52.0 52
  148.02751 7.0 7
  148.07721 15.0 15
  148.09175 6.0 6
  148.11229 71.0 71
  149.1105 7.0 7
  149.12306 9.0 9
  150.07538 6.0 6
  150.08302 29.0 29
  150.09311 73.0 73
  150.11459 15.0 15
  150.12668 85.0 85
  151.04813 11.0 11
  151.05765 16.0 16
  151.06509 6.0 6
  151.0939 34.0 34
  151.11037 7.0 7
  151.12555 8.0 8
  152.03798 11.0 11
  152.05582 5.0 5
  152.06987 12.0 12
  152.10463 32.0 32
  152.11296 22.0 22
  152.12886 6.0 6
  153.0636 5.0 5
  154.05995 9.0 9
  154.07172 13.0 13
  156.04166 14.0 14
  156.07718 73.0 73
  157.05542 7.0 7
  157.07957 5.0 5
  157.08717 7.0 7
  158.03743 6.0 6
  158.05232 26.0 26
  158.06302 71.0 71
  158.07625 24.0 24
  158.09407 57.0 57
  159.06145 6.0 6
  159.06972 6.0 6
  159.09894 9.0 9
  160.07359 12.0 12
  160.10828 37.0 37
  161.0699 6.0 6
  161.1109 7.0 7
  161.12383 8.0 8
  162.05521 5.0 5
  162.08315 8.0 8
  162.09427 25.0 25
  162.1246 39.0 39
  162.13028 16.0 16
  163.09749 9.0 9
  163.12991 13.0 13
  164.09253 6.0 6
  164.10701 77.0 77
  165.06438 33.0 33
  165.08002 28.0 28
  165.10716 13.0 13
  166.0607 47.0 47
  166.06895 54.0 54
  167.05811 8.0 8
  167.07013 45.0 45
  167.07599 21.0 21
  167.08745 16.0 16
  168.06995 15.0 15
  168.07671 21.0 21
  168.08365 25.0 25
  168.09102 10.0 10
  169.06831 8.0 8
  169.0905 20.0 20
  170.06322 16.0 16
  170.0737 5.0 5
  170.09007 9.0 9
  170.10085 23.0 23
  171.06204 11.0 11
  171.10982 8.0 8
  171.89847 6.0 6
  172.07567 13.0 13
  173.08134 6.0 6
  174.05896 7.0 7
  174.09595 8.0 8
  175.37022 8.0 8
  176.05779 8.0 8
  176.10229 35.0 35
  178.06044 21.0 21
  178.06723 47.0 47
  178.11284 42.0 42
  178.12172 83.0 83
  179.06348 30.0 30
  179.1086 6.0 6
  179.1239 7.0 7
  180.05533 12.0 12
  180.07419 88.0 88
  181.05769 10.0 10
  181.07364 8.0 8
  181.08652 13.0 13
  181.1068 7.0 7
  182.05383 6.0 6
  182.07635 5.0 5
  182.08955 9.0 9
  182.10162 28.0 28
  183.05931 12.0 12
  183.06989 42.0 42
  184.04671 6.0 6
  184.07144 17.0 17
  184.07988 31.0 31
  184.09688 9.0 9
  189.06815 10.0 10
  190.06084 15.0 15
  190.07396 15.0 15
  190.12675 6.0 6
  191.06355 11.0 11
  191.07196 19.0 19
  191.08217 22.0 22
  192.07533 16.0 16
  192.14026 24.0 24
  193.06886 6.0 6
  193.09122 52.0 52
  193.88985 6.0 6
  194.0701 5.0 5
  194.07962 20.0 20
  194.09789 70.0 70
  195.09227 28.0 28
  196.08224 21.0 21
  196.1062 12.0 12
  197.07237 16.0 16
  197.08716 8.0 8
  197.10573 12.0 12
  198.06752 9.0 9
  198.08748 9.0 9
  198.10086 9.0 9
  199.08684 13.0 13
  201.02875 5.0 5
  201.05956 7.0 7
  201.07019 18.0 18
  202.08482 13.0 13
  203.07217 21.0 21
  203.08897 6.0 6
  204.07059 45.0 45
  204.0842 33.0 33
  205.07069 13.0 13
  205.08371 13.0 13
  205.09825 5.0 5
  206.05215 6.0 6
  206.07332 12.0 12
  206.08301 25.0 25
  206.09859 15.0 15
  207.09196 13.0 13
  207.10085 17.0 17
  207.11089 14.0 14
  208.07715 41.0 41
  208.10669 17.0 17
  209.07077 9.0 9
  209.11166 10.0 10
  209.2316 6.0 6
  210.06621 8.0 8
  210.08363 9.0 9
  211.09048 11.0 11
  212.06552 5.0 5
  212.07547 12.0 12
  213.6927 9.0 9
  214.06227 11.0 11
  215.04665 8.0 8
  215.07719 23.0 23
  215.08696 11.0 11
  215.9006 7.0 7
  216.07506 13.0 13
  216.08372 26.0 26
  216.09064 8.0 8
  217.08501 64.0 64
  218.07915 8.0 8
  218.09181 28.0 28
  218.10866 5.0 5
  218.11905 6.0 6
  219.09515 7.0 7
  219.11349 8.0 8
  220.07256 9.0 9
  220.08246 8.0 8
  220.10693 15.0 15
  220.12163 9.0 9
  221.08051 13.0 13
  221.10072 5.0 5
  221.1179 5.0 5
  222.09319 16.0 16
  222.11241 9.0 9
  222.12445 13.0 13
  223.08171 19.0 19
  223.10027 7.0 7
  223.12471 16.0 16
  224.1194 6.0 6
  224.14012 18.0 18
  225.09412 10.0 10
  225.10754 18.0 18
  226.05965 10.0 10
  227.06845 31.0 31
  228.07286 46.0 46
  228.09607 7.0 7
  229.07413 10.0 10
  229.08537 17.0 17
  230.07329 14.0 14
  230.08585 20.0 20
  230.09978 41.0 41
  231.09668 10.0 10
  232.06102 9.0 9
  232.07288 12.0 12
  233.0688 18.0 18
  233.0826 30.0 30
  234.08104 11.0 11
  234.09026 15.0 15
  234.10457 12.0 12
  234.12021 11.0 11
  235.09422 7.0 7
  236.10236 12.0 12
  236.14194 7.0 7
  237.13925 10.0 10
  238.09486 9.0 9
  238.1322 10.0 10
  239.10422 7.0 7
  239.1342 20.0 20
  239.22401 8.0 8
  241.07153 13.0 13
  241.08017 26.0 26
  241.0943 18.0 18
  242.09515 37.0 37
  243.09772 6.0 6
  244.11911 8.0 8
  245.09059 13.0 13
  245.71234 5.0 5
  246.08441 5.0 5
  246.09779 18.0 18
  247.10732 15.0 15
  248.07298 7.0 7
  248.10381 15.0 15
  248.12898 5.0 5
  248.87474 6.0 6
  249.09059 19.0 19
  249.11246 12.0 12
  249.12726 5.0 5
  250.12291 6.0 6
  250.14664 6.0 6
  251.10075 6.0 6
  251.11646 18.0 18
  251.13216 7.0 7
  251.14812 6.0 6
  252.12645 7.0 7
  255.1095 6.0 6
  256.09579 8.0 8
  258.09692 8.0 8
  259.11514 7.0 7
  260.09174 7.0 7
  260.12589 6.0 6
  261.09433 14.0 14
  263.11658 8.0 8
  265.13638 8.0 8
  275.09714 5.0 5
  278.11993 9.0 9
  279.14139 12.0 12
  279.16113 9.0 9
  282.18033 13.0 13
  282.19437 9.0 9
  283.16425 7.0 7
  287.12012 8.0 8
  294.15109 6.0 6
  294.1814 6.0 6
  309.14532 77.0 77
  309.1615 79.0 79
  309.185 9.0 9
  310.15729 11.0 11
  310.17676 33.0 33
  323.17096 12.0 12
  323.17911 7.0 7
//
