ACCESSION: MSBNK-RIKEN-PR302002
RECORD_TITLE: Kaempferol-3-O-robinoside-7-O-rhamnoside; LC-ESI-QTOF; MS2
DATE: 2019.03.28
AUTHORS: Tetsuya Mori, Center for Sustainable Resource Science, RIKEN
LICENSE: CC BY-NC-SA
PUBLICATION: Tsugawa H., Nakabayashi R., Mori T., Yamada Y., Takahashi M., Rai A., Sugiyama R., Yamamoto H., Nakaya T., Yamazaki M., Kooke R., Bac-Molenaar JA., Oztolan-Erol N., Keurentjes JJB., Arita M., Saito K. (2019) "A cheminformatics approach to characterize metabolomes in stable-isotope-labeled organisms" Nature Methods 16(4):295-298. [doi:10.1038/s41592-019-0358-2]
COMMENT: registered in RIKEN PlaSMA
CH$NAME: Kaempferol-3-O-robinoside-7-O-rhamnoside
CH$COMPOUND_CLASS: Flavonoid-7-O-glycosides
CH$FORMULA: C33H40O19
CH$EXACT_MASS: 740.664
CH$SMILES: C[C@@H]1O[C@@H](OC[C@H]2O[C@@H](OC3=C(OC4=CC(O[C@@H]5O[C@@H](C)[C@H](O)[C@@H](O)[C@H]5O)=CC(O)=C4C3=O)C3=CC=C(O)C=C3)[C@H](O)[C@@H](O)[C@H]2O)[C@H](O)[C@H](O)[C@H]1O
CH$IUPAC: InChI=1S/C33H40O19/c1-10-19(36)23(40)26(43)31(47-10)46-9-17-21(38)25(42)28(45)33(51-17)52-30-22(39)18-15(35)7-14(49-32-27(44)24(41)20(37)11(2)48-32)8-16(18)50-29(30)12-3-5-13(34)6-4-12/h3-8,10-11,17,19-21,23-28,31-38,40-45H,9H2,1-2H3/t10-,11-,17+,19-,20-,21-,23+,24+,25-,26+,27+,28+,31+,32-,33-/m0/s1
CH$LINK: INCHIKEY PEFASEPMJYRQBW-HKWQTAEVSA-N
AC$INSTRUMENT: LC, Waters Acquity UPLC System; MS, Waters Xevo G2 Q-Tof
AC$INSTRUMENT_TYPE: LC-ESI-QTOF
AC$MASS_SPECTROMETRY: MS_TYPE MS2
AC$MASS_SPECTROMETRY: ION_MODE POSITIVE
AC$MASS_SPECTROMETRY: COLLISION_ENERGY 6V
AC$MASS_SPECTROMETRY: DESOLVATION_GAS_FLOW 800/h
AC$MASS_SPECTROMETRY: DESOLVATION_TEMPERATURE 450 C
AC$MASS_SPECTROMETRY: IONIZATION ESI
AC$CHROMATOGRAPHY: CAPILLARY_VOLTAGE +3.00 kV
AC$CHROMATOGRAPHY: COLUMN_NAME Acquity bridged ethyl hybrid C18 (1.7 um, 2.1 mm * 100 mm, Waters)
AC$CHROMATOGRAPHY: COLUMN_TEMPERATURE 40 C
AC$CHROMATOGRAPHY: FLOW_GRADIENT A/B = (99.5%/0.5% at 0 min, 99.5%/0.5% at 0.1 min, 20%/80% at 10 min, 0.5%/99.5% at 10.1 min, 0.5%/99.5% at 12.0 min, 99.5%/0.5% at 12.1 min, 99.5%/0.5% at 15.0 min)
AC$CHROMATOGRAPHY: FLOW_RATE 0.3 ml/min at 0 min, 0.3 ml/min at 10 min, 0.4 ml/min at 10.1 min, 0.4 ml/min at 14.4 min, 0.3 ml/min at 14.5 min
AC$CHROMATOGRAPHY: RETENTION_TIME 3.552233
AC$CHROMATOGRAPHY: SOLVENT A water including 0.1% formic acid
AC$CHROMATOGRAPHY: SOLVENT B acetonitrile including 0.1% formic acid
MS$FOCUSED_ION: PRECURSOR_TYPE [M+H]+
MS$FOCUSED_ION: PRECURSOR_M/Z 741.2236555
PK$SPLASH: splash10-0019-0090830200-0ff0c43077a716617823
PK$NUM_PEAK: 55
PK$PEAK: m/z int. rel.int.
  71.05469 5.0 5
  99.0414 15.0 15
  106.64626 6.0 6
  111.04383 5.0 5
  127.03457 12.0 12
  127.0499 6.0 6
  129.04662 29.0 29
  129.05789 11.0 11
  130.05937 7.0 7
  147.05638 5.0 5
  147.07239 13.0 13
  163.0773 5.0 5
  165.0858 6.0 6
  182.90279 6.0 6
  199.0587 6.0 6
  266.07941 10.0 10
  270.62277 5.0 5
  287.0528 1000.0 999
  287.98795 6.0 6
  288.03333 21.0 21
  288.06122 165.0 165
  289.04428 8.0 8
  289.05954 26.0 26
  295.21359 5.0 5
  312.06479 5.0 5
  329.05908 10.0 10
  356.14484 6.0 6
  367.01309 7.0 7
  412.21542 9.0 9
  415.10312 5.0 5
  433.09976 351.0 351
  433.11615 305.0 305
  433.13046 208.0 208
  434.09726 41.0 41
  434.11789 204.0 204
  434.1438 45.0 45
  435.11194 13.0 13
  435.13483 9.0 9
  436.12845 12.0 12
  449.09406 7.0 7
  579.15399 13.0 13
  579.18909 11.0 11
  580.17438 5.0 5
  581.34015 5.0 5
  583.61823 6.0 6
  595.15259 139.0 139
  595.1795 158.0 158
  596.09265 5.0 5
  596.15332 72.0 72
  596.20398 39.0 39
  597.15173 28.0 28
  597.17645 19.0 19
  741.15637 11.0 11
  741.20056 166.0 166
  741.2439 207.0 207
//
