ACCESSION: MSBNK-RIKEN-PR307802
RECORD_TITLE: Ginkgolide C; LC-ESI-QTOF; MS2
DATE: 2019.03.28
AUTHORS: Tetsuya Mori, Center for Sustainable Resource Science, RIKEN
LICENSE: CC BY-NC-SA
PUBLICATION: Tsugawa H., Nakabayashi R., Mori T., Yamada Y., Takahashi M., Rai A., Sugiyama R., Yamamoto H., Nakaya T., Yamazaki M., Kooke R., Bac-Molenaar JA., Oztolan-Erol N., Keurentjes JJB., Arita M., Saito K. (2019) "A cheminformatics approach to characterize metabolomes in stable-isotope-labeled organisms" Nature Methods 16(4):295-298. [doi:10.1038/s41592-019-0358-2]
COMMENT: registered in RIKEN PlaSMA
CH$NAME: Ginkgolide C
CH$COMPOUND_CLASS: Ginkgolides and bilobalides
CH$FORMULA: C20H24O11
CH$EXACT_MASS: 440.401
CH$SMILES: CC1C(=O)OC2C(O)C34C5OC(=O)C3(OC3OC(=O)C(O)C43C(C5O)C(C)(C)C)C12O
CH$IUPAC: InChI=1S/C20H24O11/c1-5-12(24)28-11-8(22)18-10-6(21)7(16(2,3)4)17(18)9(23)13(25)30-15(17)31-20(18,14(26)29-10)19(5,11)27/h5-11,15,21-23,27H,1-4H3
CH$LINK: INCHIKEY AMOGMTLMADGEOQ-UHFFFAOYSA-N
AC$INSTRUMENT: LC, Waters Acquity UPLC System; MS, Waters Xevo G2 Q-Tof
AC$INSTRUMENT_TYPE: LC-ESI-QTOF
AC$MASS_SPECTROMETRY: MS_TYPE MS2
AC$MASS_SPECTROMETRY: ION_MODE NEGATIVE
AC$MASS_SPECTROMETRY: COLLISION_ENERGY 6V
AC$MASS_SPECTROMETRY: DESOLVATION_GAS_FLOW 800/h
AC$MASS_SPECTROMETRY: DESOLVATION_TEMPERATURE 450 C
AC$MASS_SPECTROMETRY: IONIZATION ESI
AC$CHROMATOGRAPHY: CAPILLARY_VOLTAGE -2.75 kV
AC$CHROMATOGRAPHY: COLUMN_NAME Acquity bridged ethyl hybrid C18 (1.7 um, 2.1 mm * 100 mm, Waters)
AC$CHROMATOGRAPHY: COLUMN_TEMPERATURE 40 C
AC$CHROMATOGRAPHY: FLOW_GRADIENT A/B = (99.5%/0.5% at 0 min, 99.5%/0.5% at 0.1 min, 20%/80% at 10 min, 0.5%/99.5% at 10.1 min, 0.5%/99.5% at 12.0 min, 99.5%/0.5% at 12.1 min, 99.5%/0.5% at 15.0 min)
AC$CHROMATOGRAPHY: FLOW_RATE 0.3 ml/min at 0 min, 0.3 ml/min at 10 min, 0.4 ml/min at 10.1 min, 0.4 ml/min at 14.4 min, 0.3 ml/min at 14.5 min
AC$CHROMATOGRAPHY: RETENTION_TIME 4.331234
AC$CHROMATOGRAPHY: SOLVENT A water including 0.1% formic acid
AC$CHROMATOGRAPHY: SOLVENT B acetonitrile including 0.1% formic acid
MS$FOCUSED_ION: PRECURSOR_TYPE [M-H]-
MS$FOCUSED_ION: PRECURSOR_M/Z 439.12458514783
PK$SPLASH: splash10-001i-0429200000-be75176d156e700e319e
PK$NUM_PEAK: 115
PK$PEAK: m/z int. rel.int.
  72.99249 26.0 26
  82.08027 6.0 6
  83.04498 5.0 5
  85.02264 6.0 6
  85.03111 11.0 11
  97.02884 5.0 5
  99.69784 6.0 6
  113.02515 99.0 99
  114.03083 10.0 10
  118.50366 6.0 6
  121.02392 6.0 6
  125.02313 274.0 274
  126.0237 28.0 28
  130.00711 7.0 7
  131.04842 7.0 7
  134.03342 5.0 5
  135.04274 16.0 16
  137.0571 5.0 5
  141.0204 42.0 42
  142.02414 13.0 13
  143.03178 15.0 15
  149.1012 5.0 5
  159.07742 5.0 5
  165.11612 8.0 8
  166.04842 6.0 6
  173.09111 8.0 8
  174.05991 7.0 7
  174.07051 16.0 16
  175.1106 9.0 9
  177.09113 12.0 12
  185.0649 6.0 6
  191.11363 6.0 6
  192.03807 7.0 7
  193.04501 5.0 5
  193.11826 6.0 6
  195.10435 6.0 6
  200.06102 7.0 7
  202.06808 11.0 11
  203.07051 5.0 5
  207.09897 14.0 14
  210.11781 6.0 6
  214.12842 5.0 5
  219.11404 7.0 7
  220.06688 6.0 6
  220.10672 6.0 6
  229.11557 5.0 5
  230.09492 6.0 6
  230.10742 6.0 6
  231.13396 11.0 11
  231.14484 16.0 16
  232.13622 7.0 7
  233.16002 6.0 6
  235.13867 5.0 5
  241.11983 6.0 6
  242.10408 8.0 8
  242.12299 6.0 6
  247.09644 6.0 6
  247.55472 5.0 5
  248.09607 11.0 11
  248.13567 6.0 6
  249.15294 7.0 7
  250.15381 6.0 6
  257.12067 5.0 5
  259.13565 47.0 47
  260.12503 5.0 5
  260.13684 12.0 12
  265.15756 5.0 5
  275.12933 13.0 13
  276.14267 5.0 5
  277.15021 27.0 27
  277.75519 7.0 7
  278.14587 11.0 11
  279.11465 6.0 6
  280.147 6.0 6
  281.13074 11.0 11
  285.11322 6.0 6
  292.10504 6.0 6
  297.09192 5.0 5
  300.97845 7.0 7
  303.1051 5.0 5
  303.12854 10.0 10
  307.1246 5.0 5
  309.13925 6.0 6
  319.11975 13.0 13
  320.48529 6.0 6
  321.12994 59.0 59
  321.14371 14.0 14
  322.12991 11.0 11
  322.14447 11.0 11
  323.14938 11.0 11
  337.1315 11.0 11
  339.15704 5.0 5
  347.1113 6.0 6
  355.14758 5.0 5
  365.1149 13.0 13
  365.12567 25.0 25
  366.13358 7.0 7
  377.11267 6.0 6
  377.34 10.0 10
  383.13153 1000.0 999
  383.16919 6.0 6
  384.13864 122.0 122
  384.16919 5.0 5
  385.00278 5.0 5
  385.12738 6.0 6
  385.13571 16.0 16
  385.15781 5.0 5
  386.7782 6.0 6
  387.13635 6.0 6
  395.12552 11.0 11
  396.1391 7.0 7
  411.12375 77.0 77
  412.14322 10.0 10
  413.11655 10.0 10
  439.12198 328.0 328
//
