ACCESSION: MSBNK-RIKEN-PR305663
RECORD_TITLE: Quercetin-3-O-glucosyl-6''-acetate; LC-ESI-QTOF; MS2
DATE: 2019.03.28
AUTHORS: Tetsuya Mori, Center for Sustainable Resource Science, RIKEN
LICENSE: CC BY-NC-SA
PUBLICATION: Tsugawa H., Nakabayashi R., Mori T., Yamada Y., Takahashi M., Rai A., Sugiyama R., Yamamoto H., Nakaya T., Yamazaki M., Kooke R., Bac-Molenaar JA., Oztolan-Erol N., Keurentjes JJB., Arita M., Saito K. (2019) "A cheminformatics approach to characterize metabolomes in stable-isotope-labeled organisms" Nature Methods 16(4):295-298. [doi:10.1038/s41592-019-0358-2]
COMMENT: registered in RIKEN PlaSMA
CH$NAME: Quercetin-3-O-glucosyl-6''-acetate
CH$COMPOUND_CLASS: Flavonoid-3-O-glycosides
CH$FORMULA: C23H22O13
CH$EXACT_MASS: 506.416
CH$SMILES: CC(=O)OCC1OC(OC2=C(OC3=CC(O)=CC(O)=C3C2=O)C2=CC(O)=C(O)C=C2)C(O)C(O)C1O
CH$IUPAC: InChI=1S/C23H22O13/c1-8(24)33-7-15-17(29)19(31)20(32)23(35-15)36-22-18(30)16-13(28)5-10(25)6-14(16)34-21(22)9-2-3-11(26)12(27)4-9/h2-6,15,17,19-20,23,25-29,31-32H,7H2,1H3
CH$LINK: INCHIKEY IGLUNMMNDNWZOA-UHFFFAOYSA-N
AC$INSTRUMENT: LC, Waters Acquity UPLC System; MS, Waters Xevo G2 Q-Tof
AC$INSTRUMENT_TYPE: LC-ESI-QTOF
AC$MASS_SPECTROMETRY: MS_TYPE MS2
AC$MASS_SPECTROMETRY: ION_MODE NEGATIVE
AC$MASS_SPECTROMETRY: COLLISION_ENERGY 6V
AC$MASS_SPECTROMETRY: DESOLVATION_GAS_FLOW 800/h
AC$MASS_SPECTROMETRY: DESOLVATION_TEMPERATURE 450 C
AC$MASS_SPECTROMETRY: IONIZATION ESI
AC$CHROMATOGRAPHY: CAPILLARY_VOLTAGE -2.75 kV
AC$CHROMATOGRAPHY: COLUMN_NAME Acquity bridged ethyl hybrid C18 (1.7 um, 2.1 mm * 100 mm, Waters)
AC$CHROMATOGRAPHY: COLUMN_TEMPERATURE 40 C
AC$CHROMATOGRAPHY: FLOW_GRADIENT A/B = (99.5%/0.5% at 0 min, 99.5%/0.5% at 0.1 min, 20%/80% at 10 min, 0.5%/99.5% at 10.1 min, 0.5%/99.5% at 12.0 min, 99.5%/0.5% at 12.1 min, 99.5%/0.5% at 15.0 min)
AC$CHROMATOGRAPHY: FLOW_RATE 0.3 ml/min at 0 min, 0.3 ml/min at 10 min, 0.4 ml/min at 10.1 min, 0.4 ml/min at 14.4 min, 0.3 ml/min at 14.5 min
AC$CHROMATOGRAPHY: RETENTION_TIME 4.4452
AC$CHROMATOGRAPHY: SOLVENT A water including 0.1% formic acid
AC$CHROMATOGRAPHY: SOLVENT B acetonitrile including 0.1% formic acid
MS$FOCUSED_ION: PRECURSOR_TYPE [M-H]-
MS$FOCUSED_ION: PRECURSOR_M/Z 505.09876434783
PK$SPLASH: splash10-0udi-0149000000-e22a134d67cef9a034fd
PK$NUM_PEAK: 30
PK$PEAK: m/z int. rel.int.
  121.03104 5.0 5
  151.0029 69.0 69
  152.00764 8.0 8
  163.00104 12.0 12
  178.99745 60.0 60
  199.0405 5.0 5
  226.02861 6.0 6
  227.03635 9.0 9
  229.04741 8.0 8
  242.01962 9.0 9
  243.02557 26.0 26
  245.03868 5.0 5
  254.02527 20.0 20
  255.02818 148.0 148
  256.02203 6.0 6
  256.03458 29.0 29
  257.03561 8.0 8
  270.01486 12.0 12
  271.02432 298.0 298
  272.02655 68.0 68
  273.02722 14.0 14
  273.04559 9.0 9
  283.02536 14.0 14
  298.00354 6.0 6
  299.01776 16.0 16
  300.02698 1000.0 999
  301.03198 327.0 327
  302.01978 14.0 14
  302.0369 56.0 56
  303.04333 15.0 15
//
