ACCESSION: MSBNK-RIKEN-PR300902
RECORD_TITLE: Anthranoyllycoctonine; LC-ESI-QTOF; MS2
DATE: 2019.03.28
AUTHORS: Tetsuya Mori, Center for Sustainable Resource Science, RIKEN
LICENSE: CC BY-NC-SA
PUBLICATION: Tsugawa H., Nakabayashi R., Mori T., Yamada Y., Takahashi M., Rai A., Sugiyama R., Yamamoto H., Nakaya T., Yamazaki M., Kooke R., Bac-Molenaar JA., Oztolan-Erol N., Keurentjes JJB., Arita M., Saito K. (2019) "A cheminformatics approach to characterize metabolomes in stable-isotope-labeled organisms" Nature Methods 16(4):295-298. [doi:10.1038/s41592-019-0358-2]
COMMENT: registered in RIKEN PlaSMA
CH$NAME: Anthranoyllycoctonine
CH$COMPOUND_CLASS: Aconitane-type diterpenoid alkaloids
CH$FORMULA: C32H46N2O8
CH$EXACT_MASS: 586.726
CH$SMILES: CCN1C[C@]2(COC(=O)C3=CC=CC=C3N)CC[C@H](OC)[C@@]34[C@@H]5C[C@H]6[C@H](OC)[C@@H]5[C@](O)(C[C@@H]6OC)[C@@](O)([C@@H](OC)[C@H]23)C14
CH$IUPAC: InChI=1S/C32H46N2O8/c1-6-34-15-29(16-42-27(35)17-9-7-8-10-20(17)33)12-11-22(39-3)31-19-13-18-21(38-2)14-30(36,23(19)24(18)40-4)32(37,28(31)34)26(41-5)25(29)31/h7-10,18-19,21-26,28,36-37H,6,11-16,33H2,1-5H3/t18-,19-,21+,22+,23-,24+,25-,26+,28?,29+,30-,31+,32-/m1/s1
CH$LINK: INCHIKEY NNDHDYDFEDRMGH-CAEIVAEBSA-N
AC$INSTRUMENT: LC, Waters Acquity UPLC System; MS, Waters Xevo G2 Q-Tof
AC$INSTRUMENT_TYPE: LC-ESI-QTOF
AC$MASS_SPECTROMETRY: MS_TYPE MS2
AC$MASS_SPECTROMETRY: ION_MODE POSITIVE
AC$MASS_SPECTROMETRY: COLLISION_ENERGY 6V
AC$MASS_SPECTROMETRY: DESOLVATION_GAS_FLOW 800/h
AC$MASS_SPECTROMETRY: DESOLVATION_TEMPERATURE 450 C
AC$MASS_SPECTROMETRY: IONIZATION ESI
AC$CHROMATOGRAPHY: CAPILLARY_VOLTAGE +3.00 kV
AC$CHROMATOGRAPHY: COLUMN_NAME Acquity bridged ethyl hybrid C18 (1.7 um, 2.1 mm * 100 mm, Waters)
AC$CHROMATOGRAPHY: COLUMN_TEMPERATURE 40 C
AC$CHROMATOGRAPHY: FLOW_GRADIENT A/B = (99.5%/0.5% at 0 min, 99.5%/0.5% at 0.1 min, 20%/80% at 10 min, 0.5%/99.5% at 10.1 min, 0.5%/99.5% at 12.0 min, 99.5%/0.5% at 12.1 min, 99.5%/0.5% at 15.0 min)
AC$CHROMATOGRAPHY: FLOW_RATE 0.3 ml/min at 0 min, 0.3 ml/min at 10 min, 0.4 ml/min at 10.1 min, 0.4 ml/min at 14.4 min, 0.3 ml/min at 14.5 min
AC$CHROMATOGRAPHY: RETENTION_TIME 5.499933
AC$CHROMATOGRAPHY: SOLVENT A water including 0.1% formic acid
AC$CHROMATOGRAPHY: SOLVENT B acetonitrile including 0.1% formic acid
MS$FOCUSED_ION: PRECURSOR_TYPE [M+H]+
MS$FOCUSED_ION: PRECURSOR_M/Z 587.3326929
PK$SPLASH: splash10-000i-0000090000-d46158791669bc0f9de8
PK$NUM_PEAK: 32
PK$PEAK: m/z int. rel.int.
  108.08176 22.0 22
  120.04546 23.0 23
  122.09846 7.0 7
  354.20911 14.0 14
  368.22208 5.0 5
  386.23276 25.0 25
  387.23929 7.0 7
  404.22968 6.0 6
  404.2457 11.0 11
  436.26611 9.0 9
  437.27908 6.0 6
  468.29709 15.0 15
  477.26663 6.0 6
  477.28583 6.0 6
  491.25162 6.0 6
  505.26968 14.0 14
  509.30475 7.0 7
  510.30249 6.0 6
  523.28174 44.0 44
  524.28668 9.0 9
  537.29785 13.0 13
  555.29755 33.0 33
  555.3172 27.0 27
  556.30182 7.0 7
  556.31696 12.0 12
  569.2962 5.0 5
  569.32092 9.0 9
  585.31042 8.0 8
  586.33124 9.0 9
  587.27155 18.0 18
  587.33344 1000.0 999
  587.40613 11.0 11
//
