ACCESSION: MSBNK-RIKEN-PR308678
RECORD_TITLE: Ginsenoside Rg3(S-FORM); LC-ESI-QTOF; MS2
DATE: 2019.03.28
AUTHORS: Tetsuya Mori, Center for Sustainable Resource Science, RIKEN
LICENSE: CC BY-NC-SA
PUBLICATION: Tsugawa H., Nakabayashi R., Mori T., Yamada Y., Takahashi M., Rai A., Sugiyama R., Yamamoto H., Nakaya T., Yamazaki M., Kooke R., Bac-Molenaar JA., Oztolan-Erol N., Keurentjes JJB., Arita M., Saito K. (2019) "A cheminformatics approach to characterize metabolomes in stable-isotope-labeled organisms" Nature Methods 16(4):295-298. [doi:10.1038/s41592-019-0358-2]
COMMENT: Annotation level-1
CH$NAME: Ginsenoside Rg3(S-FORM)
CH$COMPOUND_CLASS: Triterpenoids
CH$FORMULA: C42H72O13
CH$EXACT_MASS: 785.025
CH$SMILES: CC(C)=CCCC(C)(O)C1CCC2(C)C1C(O)CC1C3(C)CCC(OC4OC(CO)C(O)C(O)C4OC4OC(CO)C(O)C(O)C4O)C(C)(C)C3CCC21C
CH$IUPAC: InChI=1S/C42H72O13/c1-21(2)10-9-14-42(8,51)22-11-16-41(7)29(22)23(45)18-27-39(5)15-13-28(38(3,4)26(39)12-17-40(27,41)6)54-37-35(33(49)31(47)25(20-44)53-37)55-36-34(50)32(48)30(46)24(19-43)52-36/h10,22-37,43-51H,9,11-20H2,1-8H3
CH$LINK: INCHIKEY RWXIFXNRCLMQCD-UHFFFAOYSA-N
AC$INSTRUMENT: LC, Waters Acquity UPLC System; MS, Waters Xevo G2 Q-Tof
AC$INSTRUMENT_TYPE: LC-ESI-QTOF
AC$MASS_SPECTROMETRY: MS_TYPE MS2
AC$MASS_SPECTROMETRY: ION_MODE NEGATIVE
AC$MASS_SPECTROMETRY: COLLISION_ENERGY 6V
AC$MASS_SPECTROMETRY: DESOLVATION_GAS_FLOW 800/h
AC$MASS_SPECTROMETRY: DESOLVATION_TEMPERATURE 450 C
AC$MASS_SPECTROMETRY: IONIZATION ESI
AC$CHROMATOGRAPHY: CAPILLARY_VOLTAGE +3.00 kV
AC$CHROMATOGRAPHY: COLUMN_NAME Acquity bridged ethyl hybrid C18 (1.7 um, 2.1 mm * 100 mm, Waters)
AC$CHROMATOGRAPHY: COLUMN_TEMPERATURE 40 C
AC$CHROMATOGRAPHY: FLOW_GRADIENT A/B = (99.5%/0.5% at 0 min, 99.5%/0.5% at 0.1 min, 20%/80% at 10 min, 0.5%/99.5% at 10.1 min, 0.5%/99.5% at 12.0 min, 99.5%/0.5% at 12.1 min, 99.5%/0.5% at 15.0 min)
AC$CHROMATOGRAPHY: FLOW_RATE 0.3 ml/min at 0 min, 0.3 ml/min at 10 min, 0.4 ml/min at 10.1 min, 0.4 ml/min at 14.4 min, 0.3 ml/min at 14.5 min
AC$CHROMATOGRAPHY: RETENTION_TIME 8.2
AC$CHROMATOGRAPHY: SOLVENT A water including 0.1% formic acid
AC$CHROMATOGRAPHY: SOLVENT B acetonitrile including 0.1% formic acid
MS$FOCUSED_ION: PRECURSOR_TYPE [M+HCOO]-
MS$FOCUSED_ION: PRECURSOR_M/Z 829.4955
PK$SPLASH: splash10-001i-0000000910-e8c8af7b6f114d5dcee3
PK$NUM_PEAK: 128
PK$PEAK: m/z int. rel.int.
  58.63617 20.0 1
  59.01334 49.0 2
  71.0107 64.0 3
  73.02991 20.0 1
  83.01364 45.0 2
  85.01759 17.0 1
  85.02785 20.0 1
  85.03221 18.0 1
  87.00461 19.0 1
  87.01025 56.0 2
  89.02356 85.0 4
  90.02982 21.0 1
  97.02939 59.0 2
  101.01058 16.0 1
  101.02358 512.0 22
  102.02183 16.0 1
  103.02785 22.0 1
  113.02489 286.0 12
  114.02481 16.0 1
  119.03337 272.0 12
  126.55486 18.0 1
  129.01324 24.0 1
  131.03539 78.0 3
  138.71674 16.0 1
  141.01822 28.0 1
  142.27141 16.0 1
  143.03293 70.0 3
  149.04463 16.0 1
  159.01904 37.0 2
  159.03053 219.0 9
  161.04401 1000.0 42
  162.05067 40.0 2
  177.55708 24.0 1
  179.04871 29.0 1
  212.58826 16.0 1
  221.07162 18.0 1
  222.08156 17.0 1
  246.43983 16.0 1
  247.23972 26.0 1
  319.28131 18.0 1
  322.12784 16.0 1
  325.99176 17.0 1
  329.44046 16.0 1
  331.27252 16.0 1
  368.6394 20.0 1
  372.10144 25.0 1
  375.27554 17.0 1
  376.28259 22.0 1
  381.79199 29.0 1
  400.98239 16.0 1
  403.31757 20.0 1
  430.17435 16.0 1
  441.34711 17.0 1
  442.03909 28.0 1
  444.37302 27.0 1
  444.4834 29.0 1
  450.32166 16.0 1
  459.36963 118.0 5
  459.38663 295.0 12
  459.4223 21.0 1
  460.26285 26.0 1
  460.3743 86.0 4
  460.392 119.0 5
  464.71796 17.0 1
  466.43677 20.0 1
  467.38898 17.0 1
  480.97858 21.0 1
  483.79593 17.0 1
  486.01062 16.0 1
  487.19699 20.0 1
  502.30209 16.0 1
  513.40839 21.0 1
  515.5921 16.0 1
  529.38538 16.0 1
  537.33899 18.0 1
  538.44025 20.0 1
  539.66962 26.0 1
  579.67792 22.0 1
  603.42487 35.0 1
  609.57458 19.0 1
  615.46924 27.0 1
  621.43658 910.0 38
  621.52246 17.0 1
  622.03314 17.0 1
  622.43817 366.0 15
  623.41968 18.0 1
  623.44867 66.0 3
  623.47986 17.0 1
  624.48779 33.0 1
  625.21832 18.0 1
  626.88843 20.0 1
  629.77124 17.0 1
  669.04376 28.0 1
  684.69836 16.0 1
  697.96881 16.0 1
  724.14197 16.0 1
  731.63574 16.0 1
  732.93408 21.0 1
  767.08252 17.0 1
  769.23285 29.0 1
  770.03546 16.0 1
  772.65692 23.0 1
  779.28278 16.0 1
  783.27496 18.0 1
  783.4906 23614.0 999
  783.56531 166.0 7
  783.60651 30.0 1
  783.68042 17.0 1
  784.42059 22.0 1
  784.49231 11343.0 480
  784.55481 20.0 1
  785.49445 2688.0 114
  785.8609 16.0 1
  786.4834 256.0 11
  786.50598 414.0 18
  786.56165 16.0 1
  787.48718 54.0 2
  787.51422 35.0 1
  787.63055 16.0 1
  787.95251 17.0 1
  788.48163 16.0 1
  789.13208 33.0 1
  793.43585 16.0 1
  810.24506 44.0 2
  829.1521 17.0 1
  829.49335 5633.0 238
  829.55743 18.0 1
  829.60468 21.0 1
//
