ACCESSION: MSBNK-RIKEN-PR303833
RECORD_TITLE: Saikosaponin a; LC-ESI-QTOF; MS2
DATE: 2019.03.28
AUTHORS: Tetsuya Mori, Center for Sustainable Resource Science, RIKEN
LICENSE: CC BY-NC-SA
PUBLICATION: Tsugawa H., Nakabayashi R., Mori T., Yamada Y., Takahashi M., Rai A., Sugiyama R., Yamamoto H., Nakaya T., Yamazaki M., Kooke R., Bac-Molenaar JA., Oztolan-Erol N., Keurentjes JJB., Arita M., Saito K. (2019) "A cheminformatics approach to characterize metabolomes in stable-isotope-labeled organisms" Nature Methods 16(4):295-298. [doi:10.1038/s41592-019-0358-2]
COMMENT: registered in RIKEN PlaSMA
CH$NAME: Saikosaponin a
CH$COMPOUND_CLASS: Triterpene saponins
CH$FORMULA: C42H68O13
CH$EXACT_MASS: 780.993
CH$SMILES: C[C@H]1O[C@@H](O[C@H]2CC[C@@]3(C)[C@@H](CC[C@]4(C)[C@@H]3C=C[C@]35OC[C@@]6(CCC(C)(C)C[C@@H]36)[C@@H](O)C[C@@]45C)[C@]2(C)CO)[C@H](O)[C@@H](O[C@@H]2O[C@H](CO)[C@@H](O)[C@H](O)[C@H]2O)[C@H]1O
CH$IUPAC: InChI=1S/C42H68O13/c1-21-28(46)33(55-34-31(49)30(48)29(47)22(18-43)53-34)32(50)35(52-21)54-27-10-11-37(4)23(38(27,5)19-44)8-12-39(6)24(37)9-13-42-25-16-36(2,3)14-15-41(25,20-51-42)26(45)17-40(39,42)7/h9,13,21-35,43-50H,8,10-12,14-20H2,1-7H3/t21-,22-,23-,24-,25-,26+,27+,28+,29-,30+,31-,32-,33+,34+,35+,37+,38+,39-,40+,41-,42+/m1/s1
CH$LINK: INCHIKEY KYWSCMDFVARMPN-MSSMMRRTSA-N
AC$INSTRUMENT: LC, Waters Acquity UPLC System; MS, Waters Xevo G2 Q-Tof
AC$INSTRUMENT_TYPE: LC-ESI-QTOF
AC$MASS_SPECTROMETRY: MS_TYPE MS2
AC$MASS_SPECTROMETRY: ION_MODE POSITIVE
AC$MASS_SPECTROMETRY: COLLISION_ENERGY 6V
AC$MASS_SPECTROMETRY: DESOLVATION_GAS_FLOW 800/h
AC$MASS_SPECTROMETRY: DESOLVATION_TEMPERATURE 450 C
AC$MASS_SPECTROMETRY: IONIZATION ESI
AC$CHROMATOGRAPHY: CAPILLARY_VOLTAGE +3.00 kV
AC$CHROMATOGRAPHY: COLUMN_NAME Acquity bridged ethyl hybrid C18 (1.7 um, 2.1 mm * 100 mm, Waters)
AC$CHROMATOGRAPHY: COLUMN_TEMPERATURE 40 C
AC$CHROMATOGRAPHY: FLOW_GRADIENT A/B = (99.5%/0.5% at 0 min, 99.5%/0.5% at 0.1 min, 20%/80% at 10 min, 0.5%/99.5% at 10.1 min, 0.5%/99.5% at 12.0 min, 99.5%/0.5% at 12.1 min, 99.5%/0.5% at 15.0 min)
AC$CHROMATOGRAPHY: FLOW_RATE 0.3 ml/min at 0 min, 0.3 ml/min at 10 min, 0.4 ml/min at 10.1 min, 0.4 ml/min at 14.4 min, 0.3 ml/min at 14.5 min
AC$CHROMATOGRAPHY: RETENTION_TIME 7.1571
AC$CHROMATOGRAPHY: SOLVENT A water including 0.1% formic acid
AC$CHROMATOGRAPHY: SOLVENT B acetonitrile including 0.1% formic acid
MS$FOCUSED_ION: PRECURSOR_TYPE [M+H]+
MS$FOCUSED_ION: PRECURSOR_M/Z 781.4732687
PK$SPLASH: splash10-001i-0000804900-f3bd233908141f013af0
PK$NUM_PEAK: 52
PK$PEAK: m/z int. rel.int.
  273.1001 14.0 14
  393.32193 18.0 18
  412.87567 12.0 12
  419.29633 14.0 14
  419.33585 48.0 48
  420.32657 12.0 12
  420.34021 14.0 14
  437.30646 17.0 17
  437.32718 77.0 77
  437.33902 143.0 143
  437.35574 255.0 255
  438.33725 38.0 38
  438.35623 39.0 39
  439.34003 32.0 32
  453.33044 12.0 12
  455.32941 61.0 61
  455.35074 263.0 263
  456.3577 93.0 93
  457.35031 52.0 52
  457.39258 12.0 12
  473.29947 12.0 12
  473.36548 132.0 132
  475.36221 20.0 20
  565.39996 13.0 13
  601.42889 12.0 12
  601.44391 18.0 18
  608.50256 30.0 30
  617.45209 12.0 12
  618.42291 16.0 16
  619.37665 24.0 24
  619.41168 134.0 134
  619.43542 154.0 154
  620.37708 12.0 12
  620.42023 113.0 113
  620.45172 22.0 22
  621.4043 15.0 15
  621.44543 17.0 17
  622.41052 11.0 11
  622.43097 15.0 15
  635.40649 13.0 13
  636.43005 13.0 13
  637.43707 20.0 20
  668.38422 14.0 14
  746.43396 19.0 19
  746.45135 32.0 32
  747.47894 13.0 13
  763.44 26.0 26
  763.47388 57.0 57
  771.5647 13.0 13
  781.41296 24.0 24
  781.47198 1000.0 999
  781.49628 255.0 255
//
