ACCESSION: MSBNK-RIKEN-PR308783
RECORD_TITLE: Quercetin 3-O-[2''-O-(6'''-O-p-coumaroyl)-b-D-glucopyranosyl]-a-L-rhamnopyranoside; LC-ESI-QTOF; MS2
DATE: 2019.03.28
AUTHORS: Tetsuya Mori, Center for Sustainable Resource Science, RIKEN
LICENSE: CC BY-NC-SA
PUBLICATION: Tsugawa H., Nakabayashi R., Mori T., Yamada Y., Takahashi M., Rai A., Sugiyama R., Yamamoto H., Nakaya T., Yamazaki M., Kooke R., Bac-Molenaar JA., Oztolan-Erol N., Keurentjes JJB., Arita M., Saito K. (2019) "A cheminformatics approach to characterize metabolomes in stable-isotope-labeled organisms" Nature Methods 16(4):295-298. [doi:10.1038/s41592-019-0358-2]
COMMENT: Annotation level-1
CH$NAME: Quercetin 3-O-[2''-O-(6'''-O-p-coumaroyl)-b-D-glucopyranosyl]-a-L-rhamnopyranoside
CH$COMPOUND_CLASS: Flavonol O-glycosides
CH$FORMULA: C36H36O18
CH$EXACT_MASS: 756.666
CH$SMILES: CC1OC(OC2=C(OC3=CC(O)=CC(O)=C3C2=O)C2=CC(O)=C(O)C=C2)C(OC2OC(COC(=O)C=CC3=CC=C(O)C=C3)C(O)C(O)C2O)C(O)C1O
CH$IUPAC: InChI=1S/C36H36O18/c1-14-26(43)30(47)34(54-35-31(48)29(46)27(44)23(52-35)13-49-24(42)9-4-15-2-6-17(37)7-3-15)36(50-14)53-33-28(45)25-21(41)11-18(38)12-22(25)51-32(33)16-5-8-19(39)20(40)10-16/h2-12,14,23,26-27,29-31,34-41,43-44,46-48H,13H2,1H3
CH$LINK: INCHIKEY LSMKTLJKBSXMMR-UHFFFAOYSA-N
AC$INSTRUMENT: LC, Waters Acquity UPLC System; MS, Waters Xevo G2 Q-Tof
AC$INSTRUMENT_TYPE: LC-ESI-QTOF
AC$MASS_SPECTROMETRY: MS_TYPE MS2
AC$MASS_SPECTROMETRY: ION_MODE NEGATIVE
AC$MASS_SPECTROMETRY: COLLISION_ENERGY 6V
AC$MASS_SPECTROMETRY: DESOLVATION_GAS_FLOW 800/h
AC$MASS_SPECTROMETRY: DESOLVATION_TEMPERATURE 450 C
AC$MASS_SPECTROMETRY: IONIZATION ESI
AC$CHROMATOGRAPHY: CAPILLARY_VOLTAGE +3.00 kV
AC$CHROMATOGRAPHY: COLUMN_NAME Acquity bridged ethyl hybrid C18 (1.7 um, 2.1 mm * 100 mm, Waters)
AC$CHROMATOGRAPHY: COLUMN_TEMPERATURE 40 C
AC$CHROMATOGRAPHY: FLOW_GRADIENT A/B = (99.5%/0.5% at 0 min, 99.5%/0.5% at 0.1 min, 20%/80% at 10 min, 0.5%/99.5% at 10.1 min, 0.5%/99.5% at 12.0 min, 99.5%/0.5% at 12.1 min, 99.5%/0.5% at 15.0 min)
AC$CHROMATOGRAPHY: FLOW_RATE 0.3 ml/min at 0 min, 0.3 ml/min at 10 min, 0.4 ml/min at 10.1 min, 0.4 ml/min at 14.4 min, 0.3 ml/min at 14.5 min
AC$CHROMATOGRAPHY: RETENTION_TIME 4.68
AC$CHROMATOGRAPHY: SOLVENT A water including 0.1% formic acid
AC$CHROMATOGRAPHY: SOLVENT B acetonitrile including 0.1% formic acid
MS$FOCUSED_ION: PRECURSOR_TYPE [M-H]-
MS$FOCUSED_ION: PRECURSOR_M/Z 755.18289
PK$SPLASH: splash10-0a4i-0003003900-9541eddb7085e3bc2d28
PK$NUM_PEAK: 90
PK$PEAK: m/z int. rel.int.
  71.0127 20.0 1
  119.05092 33.0 2
  125.02237 19.0 1
  135.7951 18.0 1
  151.00291 40.0 3
  163.0374 18.0 1
  163.04485 25.0 2
  173.05321 31.0 2
  178.99472 211.0 15
  179.99905 18.0 1
  181.00832 21.0 1
  215.03183 20.0 1
  249.07707 20.0 1
  254.03494 22.0 2
  255.02658 21.0 1
  255.043 19.0 1
  271.01398 28.0 2
  271.02756 41.0 3
  272.02682 16.0 1
  272.03766 52.0 4
  273.82678 20.0 1
  282.04605 24.0 2
  289.7381 19.0 1
  298.01294 20.0 1
  298.0444 25.0 2
  298.99866 21.0 1
  299.01492 208.0 14
  300.02548 3440.0 239
  300.41449 18.0 1
  301.03299 1215.0 84
  302.02136 35.0 2
  302.03638 209.0 15
  302.056 22.0 2
  311.44159 18.0 1
  325.02222 18.0 1
  343.09222 19.0 1
  354.44348 25.0 2
  356.05923 20.0 1
  361.75702 18.0 1
  373.04074 21.0 1
  377.29825 25.0 2
  383.25955 18.0 1
  385.08429 18.0 1
  385.87976 19.0 1
  390.77097 18.0 1
  399.13239 33.0 2
  416.56128 21.0 1
  421.02463 21.0 1
  424.63425 21.0 1
  425.76205 19.0 1
  441.06351 18.0 1
  444.08698 21.0 1
  445.89337 19.0 1
  446.5163 20.0 1
  447.08643 18.0 1
  487.08957 22.0 2
  488.95941 24.0 2
  505.10806 44.0 3
  535.02252 19.0 1
  542.55359 19.0 1
  543.64606 23.0 2
  567.86737 20.0 1
  578.84412 20.0 1
  591.13715 24.0 2
  593.14868 38.0 3
  594.14899 27.0 2
  608.14429 21.0 1
  609.14709 4538.0 316
  609.7674 20.0 1
  610.14886 1061.0 74
  610.19727 42.0 3
  611.15216 208.0 14
  611.17743 68.0 5
  612.14502 18.0 1
  613.96228 21.0 1
  627.63232 20.0 1
  669.74835 18.0 1
  674.95728 20.0 1
  693.76971 18.0 1
  696.15771 19.0 1
  753.1405 23.0 2
  753.16968 60.0 4
  754.11884 19.0 1
  754.15472 60.0 4
  754.18628 93.0 6
  754.93066 18.0 1
  755.12054 19.0 1
  755.18262 14367.0 999
  755.23578 34.0 2
  755.30048 19.0 1
//
