ACCESSION: MSBNK-RIKEN-PR310547
RECORD_TITLE: Deoxyvasicinone; LC-ESI-QTOF; MS2
DATE: 2019.03.28
AUTHORS: Tetsuya Mori, Center for Sustainable Resource Science, RIKEN
LICENSE: CC BY-NC-SA
PUBLICATION: Tsugawa H., Nakabayashi R., Mori T., Yamada Y., Takahashi M., Rai A., Sugiyama R., Yamamoto H., Nakaya T., Yamazaki M., Kooke R., Bac-Molenaar JA., Oztolan-Erol N., Keurentjes JJB., Arita M., Saito K. (2019) "A cheminformatics approach to characterize metabolomes in stable-isotope-labeled organisms" Nature Methods 16(4):295-298. [doi:10.1038/s41592-019-0358-2]
COMMENT: Annotation level-1
CH$NAME: Deoxyvasicinone
CH$COMPOUND_CLASS: Alkaloids
CH$FORMULA: C11H10N2O
CH$EXACT_MASS: 186.214
CH$SMILES: O=C1N2CCCC2=NC2=C1C=CC=C2
CH$IUPAC: InChI=1S/C11H10N2O/c14-11-8-4-1-2-5-9(8)12-10-6-3-7-13(10)11/h1-2,4-5H,3,6-7H2
CH$LINK: INCHIKEY VARHXCYGZKSOOO-UHFFFAOYSA-N
AC$INSTRUMENT: LC, Waters Acquity UPLC System; MS, Waters Xevo G2 Q-Tof
AC$INSTRUMENT_TYPE: LC-ESI-QTOF
AC$MASS_SPECTROMETRY: MS_TYPE MS2
AC$MASS_SPECTROMETRY: ION_MODE POSITIVE
AC$MASS_SPECTROMETRY: COLLISION_ENERGY 6V
AC$MASS_SPECTROMETRY: DESOLVATION_GAS_FLOW 800/h
AC$MASS_SPECTROMETRY: DESOLVATION_TEMPERATURE 450 C
AC$MASS_SPECTROMETRY: IONIZATION ESI
AC$CHROMATOGRAPHY: CAPILLARY_VOLTAGE +3.00 kV
AC$CHROMATOGRAPHY: COLUMN_NAME Acquity bridged ethyl hybrid C18 (1.7 um, 2.1 mm * 100 mm, Waters)
AC$CHROMATOGRAPHY: COLUMN_TEMPERATURE 40 C
AC$CHROMATOGRAPHY: FLOW_GRADIENT A/B = (99.5%/0.5% at 0 min, 99.5%/0.5% at 0.1 min, 20%/80% at 10 min, 0.5%/99.5% at 10.1 min, 0.5%/99.5% at 12.0 min, 99.5%/0.5% at 12.1 min, 99.5%/0.5% at 15.0 min)
AC$CHROMATOGRAPHY: FLOW_RATE 0.3 ml/min at 0 min, 0.3 ml/min at 10 min, 0.4 ml/min at 10.1 min, 0.4 ml/min at 14.4 min, 0.3 ml/min at 14.5 min
AC$CHROMATOGRAPHY: RETENTION_TIME 3.94
AC$CHROMATOGRAPHY: SOLVENT A water including 0.1% formic acid
AC$CHROMATOGRAPHY: SOLVENT B acetonitrile including 0.1% formic acid
MS$FOCUSED_ION: PRECURSOR_TYPE [M+H]+
MS$FOCUSED_ION: PRECURSOR_M/Z 187.08659
PK$SPLASH: splash10-000i-0900000000-222c1e29a97226cb27e7
PK$NUM_PEAK: 119
PK$PEAK: m/z int. rel.int.
  65.0387 48.0 1
  68.04916 63.0 1
  68.05238 109.0 2
  68.41602 19.0 0
  69.03008 19.0 0
  77.03973 239.0 5
  86.85039 25.0 1
  89.04084 44.0 1
  89.228 29.0 1
  90.02892 21.0 0
  90.04053 23.0 1
  92.04912 339.0 8
  93.0526 32.0 1
  103.03761 17.0 0
  104.05159 24.0 1
  110.0638 22.0 0
  115.05422 356.0 8
  116.0267 17.0 0
  116.04399 57.0 1
  116.05236 302.0 7
  116.06071 70.0 2
  117.04329 28.0 1
  117.04884 18.0 0
  117.06703 37.0 1
  117.07475 45.0 1
  118.06729 23.0 1
  118.33529 21.0 0
  119.03348 24.0 1
  119.05571 37.0 1
  119.06158 17.0 0
  120.04461 292.0 7
  121.04578 19.0 0
  121.11528 25.0 1
  127.05416 24.0 1
  127.24134 18.0 0
  127.31519 18.0 0
  129.04233 75.0 2
  129.05103 31.0 1
  130.02147 69.0 2
  130.03081 18.0 0
  131.0347 47.0 1
  131.05966 18.0 0
  132.04056 207.0 5
  132.07903 23.0 1
  132.08847 17.0 0
  133.08054 45.0 1
  134.21568 25.0 1
  138.37009 28.0 1
  139.13402 19.0 0
  141.47545 25.0 1
  142.06148 79.0 2
  143.04941 19.0 0
  144.01042 17.0 0
  144.02173 28.0 1
  144.02879 53.0 1
  144.04555 295.0 7
  144.07066 34.0 1
  144.08339 422.0 9
  145.0248 25.0 1
  145.04158 168.0 4
  145.0498 132.0 3
  145.08679 24.0 1
  146.04343 23.0 1
  146.0576 301.0 7
  146.06563 80.0 2
  146.07372 21.0 0
  147.05489 32.0 1
  147.06206 26.0 1
  147.07227 27.0 1
  149.92419 17.0 0
  155.82111 20.0 0
  157.07869 24.0 1
  157.08569 17.0 0
  158.05777 20.0 0
  159.05591 71.0 2
  159.06386 23.0 1
  159.08968 20.0 0
  159.09801 56.0 1
  160.06943 37.0 1
  160.07751 20.0 0
  160.14478 20.0 0
  161.06357 63.0 1
  161.07738 18.0 0
  162.0771 21.0 0
  162.83856 19.0 0
  164.26729 17.0 0
  167.04712 25.0 1
  167.06241 27.0 1
  169.06618 78.0 2
  169.07906 274.0 6
  169.37131 21.0 0
  170.05746 154.0 3
  170.06831 80.0 2
  170.07961 69.0 2
  171.05913 37.0 1
  171.06601 29.0 1
  171.63803 22.0 0
  172.03612 23.0 1
  172.7213 30.0 1
  173.21542 33.0 1
  175.47516 36.0 1
  183.5154 19.0 0
  183.80382 28.0 1
  184.84761 18.0 0
  185.06384 126.0 3
  185.07057 277.0 6
  185.22964 29.0 1
  185.85973 19.0 0
  186.07739 77.0 2
  186.93921 37.0 1
  186.98071 18.0 0
  187.04454 52.0 1
  187.05562 48.0 1
  187.08679 44795.0 999
  187.12552 1368.0 31
  187.14969 36.0 1
  187.16312 54.0 1
  187.2487 53.0 1
  187.25722 18.0 0
//
