ACCESSION: MSBNK-RIKEN-PR301680
RECORD_TITLE: Rhoeadine; LC-ESI-QTOF; MS2
DATE: 2019.03.28
AUTHORS: Tetsuya Mori, Center for Sustainable Resource Science, RIKEN
LICENSE: CC BY-NC-SA
PUBLICATION: Tsugawa H., Nakabayashi R., Mori T., Yamada Y., Takahashi M., Rai A., Sugiyama R., Yamamoto H., Nakaya T., Yamazaki M., Kooke R., Bac-Molenaar JA., Oztolan-Erol N., Keurentjes JJB., Arita M., Saito K. (2019) "A cheminformatics approach to characterize metabolomes in stable-isotope-labeled organisms" Nature Methods 16(4):295-298. [doi:10.1038/s41592-019-0358-2]
COMMENT: registered in RIKEN PlaSMA
CH$NAME: Rhoeadine
CH$COMPOUND_CLASS: Rhoeadine alkaloids
CH$FORMULA: C21H21NO6
CH$EXACT_MASS: 383.4
CH$SMILES: CO[C@H]1O[C@H]2[C@H](N(C)CCC3=CC4=C(OCO4)C=C23)C2=C1C1=C(OCO1)C=C2
CH$IUPAC: InChI=1S/C21H21NO6/c1-22-6-5-11-7-15-16(26-9-25-15)8-13(11)19-18(22)12-3-4-14-20(27-10-24-14)17(12)21(23-2)28-19/h3-4,7-8,18-19,21H,5-6,9-10H2,1-2H3/t18-,19-,21+/m1/s1
CH$LINK: INCHIKEY XRBIHOLQAKITPP-SBHAEUEKSA-N
AC$INSTRUMENT: LC, Waters Acquity UPLC System; MS, Waters Xevo G2 Q-Tof
AC$INSTRUMENT_TYPE: LC-ESI-QTOF
AC$MASS_SPECTROMETRY: MS_TYPE MS2
AC$MASS_SPECTROMETRY: ION_MODE POSITIVE
AC$MASS_SPECTROMETRY: COLLISION_ENERGY 6V
AC$MASS_SPECTROMETRY: DESOLVATION_GAS_FLOW 800/h
AC$MASS_SPECTROMETRY: DESOLVATION_TEMPERATURE 450 C
AC$MASS_SPECTROMETRY: IONIZATION ESI
AC$CHROMATOGRAPHY: CAPILLARY_VOLTAGE +3.00 kV
AC$CHROMATOGRAPHY: COLUMN_NAME Acquity bridged ethyl hybrid C18 (1.7 um, 2.1 mm * 100 mm, Waters)
AC$CHROMATOGRAPHY: COLUMN_TEMPERATURE 40 C
AC$CHROMATOGRAPHY: FLOW_GRADIENT A/B = (99.5%/0.5% at 0 min, 99.5%/0.5% at 0.1 min, 20%/80% at 10 min, 0.5%/99.5% at 10.1 min, 0.5%/99.5% at 12.0 min, 99.5%/0.5% at 12.1 min, 99.5%/0.5% at 15.0 min)
AC$CHROMATOGRAPHY: FLOW_RATE 0.3 ml/min at 0 min, 0.3 ml/min at 10 min, 0.4 ml/min at 10.1 min, 0.4 ml/min at 14.4 min, 0.3 ml/min at 14.5 min
AC$CHROMATOGRAPHY: RETENTION_TIME 4.648417
AC$CHROMATOGRAPHY: SOLVENT A water including 0.1% formic acid
AC$CHROMATOGRAPHY: SOLVENT B acetonitrile including 0.1% formic acid
MS$FOCUSED_ION: PRECURSOR_TYPE [M+H]+
MS$FOCUSED_ION: PRECURSOR_M/Z 384.1441639
PK$SPLASH: splash10-002u-0981000000-4c73c10d1791ead25cae
PK$NUM_PEAK: 457
PK$PEAK: m/z int. rel.int.
  58.47616 7.0 7
  71.06917 7.0 7
  71.07426 9.0 9
  77.02458 7.0 7
  77.03951 75.0 75
  79.05533 24.0 24
  89.04067 17.0 17
  91.0434 15.0 15
  91.05582 136.0 136
  92.061 38.0 38
  93.06633 7.0 7
  94.06392 7.0 7
  95.92999 7.0 7
  102.04961 32.0 32
  103.04623 11.0 11
  103.05453 115.0 115
  104.05035 18.0 18
  104.06155 42.0 42
  105.06252 7.0 7
  105.07327 7.0 7
  106.06542 6.0 6
  107.04543 6.0 6
  108.05507 7.0 7
  108.07763 12.0 12
  114.30559 10.0 10
  115.05283 25.0 25
  116.06327 9.0 9
  117.03655 24.0 24
  117.05669 59.0 59
  117.06953 27.0 27
  117.83925 6.0 6
  118.0628 37.0 37
  118.06767 17.0 17
  119.04873 57.0 57
  119.0646 16.0 16
  121.0456 7.0 7
  121.06297 18.0 18
  130.03596 7.0 7
  130.06424 115.0 115
  131.03838 22.0 22
  131.0502 195.0 195
  131.07018 62.0 62
  131.07594 68.0 68
  131.59053 7.0 7
  132.05162 15.0 15
  132.06291 15.0 15
  132.07994 159.0 159
  133.03119 6.0 6
  133.04553 7.0 7
  133.05072 19.0 19
  133.08023 27.0 27
  133.08925 27.0 27
  134.0881 9.0 9
  134.09525 6.0 6
  134.80937 13.0 13
  135.04448 143.0 143
  136.64694 7.0 7
  142.02888 8.0 8
  142.07256 7.0 7
  143.05199 11.0 11
  144.07843 18.0 18
  145.05608 31.0 31
  145.0665 13.0 13
  145.08731 7.0 7
  145.09842 11.0 11
  146.06009 66.0 66
  146.08719 9.0 9
  147.03891 34.0 34
  147.04807 58.0 58
  147.06966 10.0 10
  148.04503 97.0 97
  148.0726 7.0 7
  148.08295 12.0 12
  148.40013 9.0 9
  149.06226 100.0 100
  149.97469 8.0 8
  150.06107 23.0 23
  151.04686 9.0 9
  151.06462 22.0 22
  152.04657 13.0 13
  152.06482 30.0 30
  152.07449 12.0 12
  153.06374 15.0 15
  153.07524 44.0 44
  154.04213 7.0 7
  154.08075 9.0 9
  155.05153 9.0 9
  156.03903 17.0 17
  158.06125 27.0 27
  158.17683 9.0 9
  159.03352 8.0 8
  159.04222 37.0 37
  159.05022 30.0 30
  159.06726 97.0 97
  160.00555 7.0 7
  160.04689 29.0 29
  160.06503 42.0 42
  160.07228 50.0 50
  160.07991 60.0 60
  161.04099 35.0 35
  161.05168 114.0 114
  161.06334 86.0 86
  161.08388 8.0 8
  161.81213 10.0 10
  162.0524 15.0 15
  162.06715 8.0 8
  162.0741 15.0 15
  163.04044 77.0 77
  163.07433 9.0 9
  163.08478 11.0 11
  164.05527 9.0 9
  164.07381 8.0 8
  165.07118 270.0 270
  165.08974 10.0 10
  166.06859 20.0 20
  166.07512 32.0 32
  167.07161 25.0 25
  167.0843 18.0 18
  168.09213 9.0 9
  172.03674 8.0 8
  173.05153 7.0 7
  173.08522 7.0 7
  174.02278 12.0 12
  174.05159 36.0 36
  174.06371 7.0 7
  175.037 22.0 22
  175.04327 16.0 16
  175.0647 252.0 252
  176.03566 9.0 9
  176.06447 233.0 233
  176.09985 9.0 9
  177.07013 485.0 485
  178.05612 22.0 22
  178.07326 101.0 101
  178.08235 75.0 75
  179.05293 9.0 9
  179.07062 12.0 12
  179.08507 112.0 112
  179.09496 16.0 16
  180.06157 14.0 14
  180.07983 17.0 17
  180.0865 10.0 10
  181.0675 34.0 34
  182.073 18.0 18
  182.87076 11.0 11
  185.06056 7.0 7
  185.07614 12.0 12
  186.05763 7.0 7
  187.01848 9.0 9
  187.04398 9.0 9
  187.05379 29.0 29
  187.06454 16.0 16
  187.07281 12.0 12
  188.02789 7.0 7
  188.05119 44.0 44
  188.07193 666.0 665
  188.08833 30.0 30
  188.65749 8.0 8
  188.75851 7.0 7
  189.07236 692.0 691
  189.91394 7.0 7
  190.05051 77.0 77
  190.06075 71.0 71
  190.08525 1000.0 999
  190.18419 22.0 22
  191.04024 10.0 10
  191.04994 58.0 58
  191.06686 28.0 28
  191.08696 109.0 109
  191.5715 9.0 9
  192.07675 16.0 16
  192.08893 11.0 11
  192.9705 9.0 9
  193.06552 29.0 29
  193.6911 9.0 9
  194.0515 24.0 24
  194.06386 8.0 8
  194.21013 8.0 8
  195.03423 7.0 7
  195.0659 6.0 6
  195.08264 15.0 15
  195.09241 7.0 7
  197.11803 8.0 8
  199.91028 7.0 7
  200.05586 6.0 6
  200.06989 9.0 9
  201.08142 7.0 7
  201.1339 7.0 7
  202.0723 27.0 27
  203.06084 37.0 37
  203.08191 36.0 36
  203.09544 10.0 10
  204.05354 13.0 13
  204.07578 37.0 37
  204.08542 28.0 28
  204.31281 9.0 9
  205.00272 9.0 9
  205.02983 9.0 9
  205.05794 281.0 281
  205.06905 320.0 320
  205.08858 28.0 28
  205.33763 6.0 6
  206.0499 7.0 7
  206.06139 45.0 45
  206.0726 155.0 155
  206.09621 20.0 20
  207.03743 16.0 16
  207.06847 22.0 22
  207.08069 86.0 86
  207.09488 18.0 18
  207.10794 7.0 7
  207.58369 15.0 15
  208.07364 29.0 29
  208.11398 18.0 18
  208.3864 9.0 9
  208.80928 6.0 6
  209.05798 27.0 27
  209.06694 27.0 27
  209.08107 7.0 7
  209.15544 7.0 7
  210.06769 36.0 36
  210.13599 7.0 7
  211.05646 7.0 7
  211.06822 7.0 7
  211.95522 6.0 6
  214.06746 12.0 12
  215.05234 43.0 43
  215.07388 7.0 7
  215.61697 7.0 7
  216.03026 13.0 13
  216.05127 8.0 8
  216.08105 25.0 25
  216.08929 10.0 10
  217.04865 22.0 22
  217.0657 220.0 220
  218.07088 15.0 15
  218.08113 16.0 16
  218.09245 44.0 44
  218.10591 7.0 7
  219.06517 29.0 29
  219.07735 28.0 28
  219.088 15.0 15
  219.101 12.0 12
  219.11359 28.0 28
  219.1288 12.0 12
  219.71394 7.0 7
  220.04471 6.0 6
  220.05562 9.0 9
  220.08214 68.0 68
  220.11226 7.0 7
  221.0562 38.0 38
  221.06996 19.0 19
  221.08733 15.0 15
  221.47954 6.0 6
  222.06192 35.0 35
  222.07222 22.0 22
  222.09016 27.0 27
  223.07545 58.0 58
  223.09337 7.0 7
  224.23213 6.0 6
  225.07574 7.0 7
  226.08286 16.0 16
  227.04745 6.0 6
  228.08481 7.0 7
  229.09996 10.0 10
  231.03542 14.0 14
  232.04799 8.0 8
  232.06352 9.0 9
  232.07687 83.0 83
  233.02499 11.0 11
  233.05124 144.0 144
  233.06064 308.0 308
  233.08731 32.0 32
  233.36089 10.0 10
  233.69765 7.0 7
  233.86385 11.0 11
  233.90221 9.0 9
  234.0517 16.0 16
  234.06256 36.0 36
  234.0732 52.0 52
  234.09175 96.0 96
  234.22266 8.0 8
  235.03917 9.0 9
  235.07344 206.0 206
  236.07867 78.0 78
  236.09912 8.0 8
  236.11264 34.0 34
  236.97095 6.0 6
  237.04877 7.0 7
  237.06935 6.0 6
  237.08072 18.0 18
  237.10164 7.0 7
  238.08722 13.0 13
  239.60364 7.0 7
  243.05902 9.0 9
  244.0489 18.0 18
  244.06859 9.0 9
  245.05287 27.0 27
  245.06474 108.0 108
  246.06401 100.0 100
  246.09384 56.0 56
  247.05266 9.0 9
  247.0675 80.0 80
  247.07928 112.0 112
  248.07326 83.0 83
  248.08913 20.0 20
  248.10449 9.0 9
  248.12711 7.0 7
  248.9256 9.0 9
  249.06247 34.0 34
  249.07982 86.0 86
  249.09523 8.0 8
  250.04063 9.0 9
  250.06384 24.0 24
  250.0818 59.0 59
  250.09387 61.0 61
  250.10611 9.0 9
  250.12306 7.0 7
  251.05121 9.0 9
  251.07043 27.0 27
  251.08508 10.0 10
  251.10081 14.0 14
  252.07278 10.0 10
  252.08659 7.0 7
  252.10455 6.0 6
  253.09001 6.0 6
  258.26025 7.0 7
  259.06476 21.0 21
  259.08389 16.0 16
  260.05869 6.0 6
  260.07297 52.0 52
  260.99246 6.0 6
  261.03 17.0 17
  261.05426 49.0 49
  261.06729 42.0 42
  261.08026 58.0 58
  261.09503 6.0 6
  261.11545 10.0 10
  262.03842 11.0 11
  262.0575 32.0 32
  262.07159 39.0 39
  262.09143 159.0 159
  262.1178 6.0 6
  263.05246 12.0 12
  263.07126 120.0 120
  263.08868 101.0 101
  263.10635 13.0 13
  264.06345 32.0 32
  264.07715 19.0 19
  264.09497 25.0 25
  264.1059 37.0 37
  264.29138 7.0 7
  265.05869 15.0 15
  265.09433 8.0 8
  265.10843 16.0 16
  265.40784 6.0 6
  266.06467 7.0 7
  266.07465 9.0 9
  266.09167 6.0 6
  267.07578 9.0 9
  267.1431 14.0 14
  268.11844 7.0 7
  273.06528 28.0 28
  274.04541 18.0 18
  274.06274 10.0 10
  274.08716 75.0 75
  275.04501 27.0 27
  275.06299 35.0 35
  275.0766 25.0 25
  275.09515 69.0 69
  276.06396 43.0 43
  276.09238 38.0 38
  276.10645 57.0 57
  277.05371 11.0 11
  277.07773 131.0 131
  277.10767 71.0 71
  278.06238 29.0 29
  278.08109 135.0 135
  278.11392 8.0 8
  278.18317 7.0 7
  278.23373 7.0 7
  279.01486 7.0 7
  279.08447 7.0 7
  279.9931 8.0 8
  280.09348 15.0 15
  281.29584 7.0 7
  287.07892 7.0 7
  288.05981 17.0 17
  288.08221 7.0 7
  289.05081 10.0 10
  289.07141 12.0 12
  289.08273 12.0 12
  290.07675 91.0 91
  290.09772 56.0 56
  290.1196 6.0 6
  291.04926 7.0 7
  291.0708 44.0 44
  291.08856 52.0 52
  291.11038 13.0 13
  291.14621 8.0 8
  292.07471 18.0 18
  292.09201 69.0 69
  292.1048 54.0 54
  293.07364 41.0 41
  293.0961 9.0 9
  293.12161 8.0 8
  293.55771 9.0 9
  294.07785 81.0 81
  294.09711 7.0 7
  295.09308 15.0 15
  296.12454 7.0 7
  302.10294 20.0 20
  303.06131 32.0 32
  303.07339 14.0 14
  304.03049 7.0 7
  304.06787 16.0 16
  304.09854 44.0 44
  305.0498 6.0 6
  305.0679 13.0 13
  305.0824 7.0 7
  305.09644 10.0 10
  305.11087 20.0 20
  306.06085 20.0 20
  306.08105 21.0 21
  307.07367 8.0 8
  307.20615 8.0 8
  308.02396 9.0 9
  308.08459 10.0 10
  308.09921 44.0 44
  309.09967 12.0 12
  318.04849 12.0 12
  318.06146 18.0 18
  318.07767 49.0 49
  318.16479 14.0 14
  319.08472 18.0 18
  319.91104 7.0 7
  320.05856 7.0 7
  320.09164 514.0 513
  321.05484 9.0 9
  321.08234 21.0 21
  321.09943 79.0 79
  322.07248 17.0 17
  322.11655 17.0 17
  324.11987 7.0 7
  325.13742 7.0 7
  325.647 7.0 7
  330.0737 9.0 9
  332.0849 7.0 7
  333.09824 7.0 7
  334.11938 22.0 22
  334.17267 8.0 8
  336.07867 20.0 20
  336.10385 9.0 9
  337.09366 13.0 13
  337.11194 6.0 6
  342.56265 9.0 9
  352.11337 7.0 7
//
