ACCESSION: MSBNK-RIKEN-PR304855
RECORD_TITLE: Amygdalin; LC-ESI-QTOF; MS2
DATE: 2019.03.28
AUTHORS: Tetsuya Mori, Center for Sustainable Resource Science, RIKEN
LICENSE: CC BY-NC-SA
PUBLICATION: Tsugawa H., Nakabayashi R., Mori T., Yamada Y., Takahashi M., Rai A., Sugiyama R., Yamamoto H., Nakaya T., Yamazaki M., Kooke R., Bac-Molenaar JA., Oztolan-Erol N., Keurentjes JJB., Arita M., Saito K. (2019) "A cheminformatics approach to characterize metabolomes in stable-isotope-labeled organisms" Nature Methods 16(4):295-298. [doi:10.1038/s41592-019-0358-2]
COMMENT: registered in RIKEN PlaSMA
CH$NAME: Amygdalin
CH$COMPOUND_CLASS: Cyanogenic glycosides
CH$FORMULA: C20H27NO11
CH$EXACT_MASS: 457.432
CH$SMILES: C1=CC=C(C=C1)[C@H](C#N)O[C@H]2[C@@H]([C@H]([C@@H]([C@H](O2)CO[C@H]3[C@@H]([C@H]([C@@H]([C@H](O3)CO)O)O)O)O)O)O
CH$IUPAC: InChI=1S/C20H27NO11/c21-6-10(9-4-2-1-3-5-9)30-20-18(28)16(26)14(24)12(32-20)8-29-19-17(27)15(25)13(23)11(7-22)31-19/h1-5,10-20,22-28H,7-8H2/t10-,11+,12+,13+,14+,15-,16-,17+,18+,19+,20+/m0/s1
CH$LINK: INCHIKEY XUCIJNAGGSZNQT-JHSLDZJXSA-N
AC$INSTRUMENT: LC, Waters Acquity UPLC System; MS, Waters Xevo G2 Q-Tof
AC$INSTRUMENT_TYPE: LC-ESI-QTOF
AC$MASS_SPECTROMETRY: MS_TYPE MS2
AC$MASS_SPECTROMETRY: ION_MODE NEGATIVE
AC$MASS_SPECTROMETRY: COLLISION_ENERGY 6V
AC$MASS_SPECTROMETRY: DESOLVATION_GAS_FLOW 800/h
AC$MASS_SPECTROMETRY: DESOLVATION_TEMPERATURE 450 C
AC$MASS_SPECTROMETRY: IONIZATION ESI
AC$CHROMATOGRAPHY: CAPILLARY_VOLTAGE -2.75 kV
AC$CHROMATOGRAPHY: COLUMN_NAME Acquity bridged ethyl hybrid C18 (1.7 um, 2.1 mm * 100 mm, Waters)
AC$CHROMATOGRAPHY: COLUMN_TEMPERATURE 40 C
AC$CHROMATOGRAPHY: FLOW_GRADIENT A/B = (99.5%/0.5% at 0 min, 99.5%/0.5% at 0.1 min, 20%/80% at 10 min, 0.5%/99.5% at 10.1 min, 0.5%/99.5% at 12.0 min, 99.5%/0.5% at 12.1 min, 99.5%/0.5% at 15.0 min)
AC$CHROMATOGRAPHY: FLOW_RATE 0.3 ml/min at 0 min, 0.3 ml/min at 10 min, 0.4 ml/min at 10.1 min, 0.4 ml/min at 14.4 min, 0.3 ml/min at 14.5 min
AC$CHROMATOGRAPHY: RETENTION_TIME 3.327617
AC$CHROMATOGRAPHY: SOLVENT A water including 0.1% formic acid
AC$CHROMATOGRAPHY: SOLVENT B acetonitrile including 0.1% formic acid
MS$FOCUSED_ION: PRECURSOR_TYPE [M-H]-
MS$FOCUSED_ION: PRECURSOR_M/Z 456.15113424783
PK$SPLASH: splash10-00di-0319300000-a54adebc664cd0c8513a
PK$NUM_PEAK: 35
PK$PEAK: m/z int. rel.int.
  59.01165 5.0 5
  89.02341 37.0 37
  101.02461 41.0 41
  113.0197 15.0 15
  119.03072 23.0 23
  119.03625 27.0 27
  125.01942 14.0 14
  125.02695 26.0 26
  131.03481 15.0 15
  139.04527 7.0 7
  143.03636 43.0 43
  144.03955 7.0 7
  146.85677 5.0 5
  149.04828 5.0 5
  161.04439 74.0 74
  167.03384 9.0 9
  179.05487 176.0 176
  188.05392 8.0 8
  189.05678 9.0 9
  221.06705 96.0 96
  222.0713 6.0 6
  223.06735 5.0 5
  233.06163 5.0 5
  245.05075 7.0 7
  245.06609 8.0 8
  263.07501 40.0 40
  263.08768 7.0 7
  264.07718 6.0 6
  294.08963 7.0 7
  294.10324 17.0 17
  323.09744 1000.0 999
  324.1015 145.0 145
  325.08548 6.0 6
  325.10831 18.0 18
  456.15082 516.0 515
//
