ACCESSION: MSBNK-RIKEN-PR300371
RECORD_TITLE: Gardnerine; LC-ESI-QTOF; MS2
DATE: 2019.03.28
AUTHORS: Tetsuya Mori, Center for Sustainable Resource Science, RIKEN
LICENSE: CC BY-NC-SA
PUBLICATION: Tsugawa H., Nakabayashi R., Mori T., Yamada Y., Takahashi M., Rai A., Sugiyama R., Yamamoto H., Nakaya T., Yamazaki M., Kooke R., Bac-Molenaar JA., Oztolan-Erol N., Keurentjes JJB., Arita M., Saito K. (2019) "A cheminformatics approach to characterize metabolomes in stable-isotope-labeled organisms" Nature Methods 16(4):295-298. [doi:10.1038/s41592-019-0358-2]
COMMENT: registered in RIKEN PlaSMA
CH$NAME: Gardnerine
CH$COMPOUND_CLASS: Macroline alkaloids
CH$FORMULA: C20H24N2O2
CH$EXACT_MASS: 324.424
CH$SMILES: COC1=CC2=C(C=C1)C1=C(N2)[C@@H]2CC3C(CO)C(C1)N2C\C3=C\C
CH$IUPAC: InChI=1S/C20H24N2O2/c1-3-11-9-22-18-8-15-13-5-4-12(24-2)6-17(13)21-20(15)19(22)7-14(11)16(18)10-23/h3-6,14,16,18-19,21,23H,7-10H2,1-2H3/b11-3-/t14?,16?,18?,19-/m0/s1
CH$LINK: INCHIKEY RBALEJFQJCAPLN-RFEOFLAMSA-N
AC$INSTRUMENT: LC, Waters Acquity UPLC System; MS, Waters Xevo G2 Q-Tof
AC$INSTRUMENT_TYPE: LC-ESI-QTOF
AC$MASS_SPECTROMETRY: MS_TYPE MS2
AC$MASS_SPECTROMETRY: ION_MODE POSITIVE
AC$MASS_SPECTROMETRY: COLLISION_ENERGY 6V
AC$MASS_SPECTROMETRY: DESOLVATION_GAS_FLOW 800/h
AC$MASS_SPECTROMETRY: DESOLVATION_TEMPERATURE 450 C
AC$MASS_SPECTROMETRY: IONIZATION ESI
AC$CHROMATOGRAPHY: CAPILLARY_VOLTAGE +3.00 kV
AC$CHROMATOGRAPHY: COLUMN_NAME Acquity bridged ethyl hybrid C18 (1.7 um, 2.1 mm * 100 mm, Waters)
AC$CHROMATOGRAPHY: COLUMN_TEMPERATURE 40 C
AC$CHROMATOGRAPHY: FLOW_GRADIENT A/B = (99.5%/0.5% at 0 min, 99.5%/0.5% at 0.1 min, 20%/80% at 10 min, 0.5%/99.5% at 10.1 min, 0.5%/99.5% at 12.0 min, 99.5%/0.5% at 12.1 min, 99.5%/0.5% at 15.0 min)
AC$CHROMATOGRAPHY: FLOW_RATE 0.3 ml/min at 0 min, 0.3 ml/min at 10 min, 0.4 ml/min at 10.1 min, 0.4 ml/min at 14.4 min, 0.3 ml/min at 14.5 min
AC$CHROMATOGRAPHY: RETENTION_TIME 3.679583
AC$CHROMATOGRAPHY: SOLVENT A water including 0.1% formic acid
AC$CHROMATOGRAPHY: SOLVENT B acetonitrile including 0.1% formic acid
MS$FOCUSED_ION: PRECURSOR_TYPE [M+H]+
MS$FOCUSED_ION: PRECURSOR_M/Z 325.1910545
PK$SPLASH: splash10-0079-0950000000-5a883e03f13cb6281f0b
PK$NUM_PEAK: 342
PK$PEAK: m/z int. rel.int.
  79.0539 7.0 7
  80.05173 5.0 5
  81.07004 7.0 7
  82.0647 8.0 8
  83.05173 6.0 6
  84.04562 6.0 6
  91.05515 36.0 36
  93.0563 11.0 11
  93.0697 15.0 15
  94.05952 6.0 6
  95.06837 7.0 7
  105.06651 16.0 16
  106.06664 13.0 13
  107.07212 10.0 10
  107.08354 6.0 6
  108.06251 8.0 8
  108.08062 503.0 502
  109.06917 8.0 8
  109.08592 31.0 31
  110.08601 6.0 6
  110.09715 29.0 29
  110.36478 5.0 5
  111.08076 11.0 11
  111.09921 10.0 10
  112.0756 6.0 6
  117.0585 16.0 16
  117.06521 7.0 7
  117.07217 7.0 7
  118.06499 32.0 32
  119.06874 6.0 6
  119.08185 12.0 12
  120.07773 33.0 33
  120.08391 17.0 17
  121.08061 13.0 13
  121.08898 33.0 33
  122.07319 5.0 5
  122.09519 105.0 105
  123.10304 6.0 6
  128.20541 5.0 5
  129.06775 13.0 13
  129.07878 11.0 11
  131.07437 44.0 44
  131.08493 7.0 7
  132.0679 7.0 7
  133.04906 27.0 27
  133.06552 11.0 11
  134.08521 14.0 14
  134.09593 119.0 119
  135.06773 5.0 5
  135.0748 5.0 5
  135.10054 13.0 13
  135.10915 5.0 5
  136.07173 11.0 11
  138.07004 9.0 9
  138.09074 596.0 595
  139.09523 42.0 42
  139.1039 8.0 8
  140.09666 10.0 10
  140.10689 23.0 23
  140.12737 5.0 5
  141.11195 7.0 7
  142.06447 8.0 8
  142.25224 6.0 6
  143.0723 13.0 13
  143.07805 7.0 7
  144.05392 26.0 26
  144.08057 34.0 34
  145.05768 8.0 8
  145.09006 27.0 27
  146.05806 43.0 43
  146.06863 9.0 9
  146.09552 231.0 231
  147.07072 49.0 49
  147.10123 31.0 31
  148.06694 10.0 10
  148.07736 23.0 23
  148.10938 16.0 16
  149.08003 9.0 9
  149.08664 6.0 6
  150.08771 25.0 25
  151.99397 8.0 8
  152.06819 5.0 5
  152.10068 12.0 12
  152.11223 9.0 9
  154.05109 6.0 6
  154.06711 25.0 25
  155.06876 29.0 29
  155.07724 29.0 29
  156.07497 9.0 9
  156.08289 16.0 16
  157.06709 5.0 5
  157.07982 15.0 15
  157.09016 10.0 10
  157.09662 13.0 13
  158.0535 9.0 9
  158.06279 31.0 31
  158.07402 6.0 6
  159.04794 10.0 10
  159.05644 13.0 13
  159.0676 26.0 26
  159.07761 10.0 10
  160.07619 153.0 153
  160.11334 50.0 50
  161.06062 13.0 13
  161.08115 207.0 207
  161.11501 7.0 7
  162.08702 51.0 51
  162.09979 9.0 9
  163.09125 9.0 9
  163.10101 9.0 9
  164.10632 30.0 30
  164.11203 11.0 11
  165.1114 5.0 5
  166.05711 9.0 9
  166.06792 29.0 29
  167.07149 26.0 26
  168.08214 25.0 25
  168.08946 7.0 7
  168.9449 8.0 8
  169.08501 49.0 49
  169.09265 25.0 25
  170.05713 13.0 13
  170.07002 6.0 6
  170.08864 9.0 9
  170.12599 7.0 7
  171.06676 31.0 31
  172.01022 8.0 8
  172.02444 9.0 9
  172.04611 5.0 5
  172.07478 333.0 333
  172.80362 6.0 6
  173.08264 315.0 315
  174.09105 1000.0 999
  175.09329 145.0 145
  176.09619 12.0 12
  178.07706 10.0 10
  181.09428 10.0 10
  182.05452 9.0 9
  182.06099 9.0 9
  183.04373 6.0 6
  183.06764 89.0 89
  184.07327 24.0 24
  184.0881 8.0 8
  184.11339 13.0 13
  185.0831 67.0 67
  185.10742 6.0 6
  186.05423 18.0 18
  186.09082 570.0 569
  187.09914 769.0 768
  188.0715 9.0 9
  188.10669 678.0 677
  189.1089 96.0 96
  190.08842 8.0 8
  190.11014 6.0 6
  193.08057 10.0 10
  193.09583 5.0 5
  195.10553 8.0 8
  196.07719 5.0 5
  196.08607 6.0 6
  197.0768 29.0 29
  197.08794 38.0 38
  198.0625 6.0 6
  198.08675 170.0 170
  198.09673 139.0 139
  199.08052 26.0 26
  199.0919 70.0 70
  199.10368 27.0 27
  200.07047 8.0 8
  200.08871 21.0 21
  200.10623 238.0 238
  201.10435 62.0 62
  201.11641 57.0 57
  202.08437 10.0 10
  203.12639 7.0 7
  204.08261 7.0 7
  204.09062 8.0 8
  206.09085 17.0 17
  208.07057 11.0 11
  208.07864 8.0 8
  208.1096 10.0 10
  209.022 5.0 5
  209.10919 12.0 12
  210.07864 11.0 11
  210.09135 75.0 75
  210.11122 6.0 6
  211.08049 8.0 8
  211.09888 43.0 43
  211.108 16.0 16
  212.10428 40.0 40
  213.10286 20.0 20
  214.11905 15.0 15
  215.11438 8.0 8
  217.08798 14.0 14
  218.0914 17.0 17
  218.10135 10.0 10
  219.10889 6.0 6
  220.09593 6.0 6
  221.08209 11.0 11
  221.11711 17.0 17
  221.12796 6.0 6
  222.09116 44.0 44
  222.12714 7.0 7
  223.09856 147.0 147
  224.08676 12.0 12
  224.10789 84.0 84
  225.10339 37.0 37
  225.11987 44.0 44
  226.1226 44.0 44
  227.11307 9.0 9
  227.12367 12.0 12
  227.1328 6.0 6
  231.10196 9.0 9
  232.07245 8.0 8
  232.08794 7.0 7
  232.10735 6.0 6
  233.06927 8.0 8
  233.09099 9.0 9
  234.09 48.0 48
  235.07608 6.0 6
  235.09048 17.0 17
  235.10101 19.0 19
  235.11549 7.0 7
  236.08694 14.0 14
  236.09688 46.0 46
  236.11133 64.0 64
  237.09618 27.0 27
  237.11249 140.0 140
  238.09567 8.0 8
  238.12157 60.0 60
  239.07678 5.0 5
  239.11288 8.0 8
  239.12679 32.0 32
  240.08104 7.0 7
  241.11816 8.0 8
  242.1151 6.0 6
  246.07405 8.0 8
  246.09966 25.0 25
  247.09866 19.0 19
  248.10381 23.0 23
  248.11514 25.0 25
  248.12679 8.0 8
  248.1402 6.0 6
  249.1039 46.0 46
  249.1131 49.0 49
  249.12675 24.0 24
  250.11519 101.0 101
  250.1301 24.0 24
  250.15384 7.0 7
  251.09132 8.0 8
  251.10475 11.0 11
  251.11655 41.0 41
  251.12898 47.0 47
  251.14496 7.0 7
  252.09966 13.0 13
  252.13716 316.0 316
  253.10797 37.0 37
  253.14211 75.0 75
  254.11853 24.0 24
  254.13947 12.0 12
  254.1537 10.0 10
  255.13731 6.0 6
  255.15189 11.0 11
  256.13354 15.0 15
  256.14276 16.0 16
  257.12723 6.0 6
  258.13147 9.0 9
  259.13419 13.0 13
  259.14505 9.0 9
  260.10635 91.0 91
  261.0939 6.0 6
  261.11383 37.0 37
  261.1366 11.0 11
  262.10175 7.0 7
  262.11905 48.0 48
  262.13089 35.0 35
  263.06607 8.0 8
  263.12036 105.0 105
  263.12988 32.0 32
  263.16647 12.0 12
  264.10736 12.0 12
  264.13477 98.0 98
  265.11661 19.0 19
  265.13708 135.0 135
  266.13364 68.0 68
  266.1543 12.0 12
  267.13809 20.0 20
  274.12524 42.0 42
  275.11755 16.0 16
  275.12579 42.0 42
  275.1434 21.0 21
  275.15625 31.0 31
  276.12555 15.0 15
  276.14893 18.0 18
  277.1293 154.0 154
  277.14365 67.0 67
  277.16022 9.0 9
  278.13388 89.0 89
  278.15152 72.0 72
  278.16083 21.0 21
  279.14648 139.0 139
  279.16876 14.0 14
  280.13882 15.0 15
  280.15311 36.0 36
  280.17096 21.0 21
  281.12393 26.0 26
  281.1376 8.0 8
  281.16458 10.0 10
  282.15549 10.0 10
  289.13477 6.0 6
  289.1481 12.0 12
  290.12332 6.0 6
  290.15222 65.0 65
  290.16913 9.0 9
  291.15076 85.0 85
  291.15985 46.0 46
  292.13925 14.0 14
  292.15833 127.0 127
  293.12164 6.0 6
  293.14594 11.0 11
  293.1615 53.0 53
  293.17581 47.0 47
  294.15823 8.0 8
  294.17358 30.0 30
  295.13397 9.0 9
  295.14969 22.0 22
  295.18085 44.0 44
  296.1452 8.0 8
  296.15616 17.0 17
  296.17752 28.0 28
  297.16702 5.0 5
  301.80984 7.0 7
  305.15903 8.0 8
  305.16818 11.0 11
  306.13889 9.0 9
  307.18161 142.0 142
  308.16092 51.0 51
  308.17242 52.0 52
  309.16806 6.0 6
  309.1825 5.0 5
  310.1655 9.0 9
  325.17117 17.0 17
  325.19138 122.0 122
//
