ACCESSION: MSBNK-RIKEN-PR310629
RECORD_TITLE: Isorhynchophylline; LC-ESI-QTOF; MS2
DATE: 2019.03.28
AUTHORS: Tetsuya Mori, Center for Sustainable Resource Science, RIKEN
LICENSE: CC BY-NC-SA
PUBLICATION: Tsugawa H., Nakabayashi R., Mori T., Yamada Y., Takahashi M., Rai A., Sugiyama R., Yamamoto H., Nakaya T., Yamazaki M., Kooke R., Bac-Molenaar JA., Oztolan-Erol N., Keurentjes JJB., Arita M., Saito K. (2019) "A cheminformatics approach to characterize metabolomes in stable-isotope-labeled organisms" Nature Methods 16(4):295-298. [doi:10.1038/s41592-019-0358-2]
COMMENT: Annotation level-1
CH$NAME: Isorhynchophylline
CH$COMPOUND_CLASS: Alkaloids
CH$FORMULA: C22H28N2O4
CH$EXACT_MASS: 384.476
CH$SMILES: CCC1CN2CCC3(C2CC1C(=COC)C(=O)OC)C(=O)NC1=CC=CC=C31
CH$IUPAC: InChI=1S/C22H28N2O4/c1-4-14-12-24-10-9-22(17-7-5-6-8-18(17)23-21(22)26)19(24)11-15(14)16(13-27-2)20(25)28-3/h5-8,13-15,19H,4,9-12H2,1-3H3,(H,23,26)
CH$LINK: INCHIKEY DAXYUDFNWXHGBE-UHFFFAOYSA-N
AC$INSTRUMENT: LC, Waters Acquity UPLC System; MS, Waters Xevo G2 Q-Tof
AC$INSTRUMENT_TYPE: LC-ESI-QTOF
AC$MASS_SPECTROMETRY: MS_TYPE MS2
AC$MASS_SPECTROMETRY: ION_MODE POSITIVE
AC$MASS_SPECTROMETRY: COLLISION_ENERGY 6V
AC$MASS_SPECTROMETRY: DESOLVATION_GAS_FLOW 800/h
AC$MASS_SPECTROMETRY: DESOLVATION_TEMPERATURE 450 C
AC$MASS_SPECTROMETRY: IONIZATION ESI
AC$CHROMATOGRAPHY: CAPILLARY_VOLTAGE +3.00 kV
AC$CHROMATOGRAPHY: COLUMN_NAME Acquity bridged ethyl hybrid C18 (1.7 um, 2.1 mm * 100 mm, Waters)
AC$CHROMATOGRAPHY: COLUMN_TEMPERATURE 40 C
AC$CHROMATOGRAPHY: FLOW_GRADIENT A/B = (99.5%/0.5% at 0 min, 99.5%/0.5% at 0.1 min, 20%/80% at 10 min, 0.5%/99.5% at 10.1 min, 0.5%/99.5% at 12.0 min, 99.5%/0.5% at 12.1 min, 99.5%/0.5% at 15.0 min)
AC$CHROMATOGRAPHY: FLOW_RATE 0.3 ml/min at 0 min, 0.3 ml/min at 10 min, 0.4 ml/min at 10.1 min, 0.4 ml/min at 14.4 min, 0.3 ml/min at 14.5 min
AC$CHROMATOGRAPHY: RETENTION_TIME 4.63
AC$CHROMATOGRAPHY: SOLVENT A water including 0.1% formic acid
AC$CHROMATOGRAPHY: SOLVENT B acetonitrile including 0.1% formic acid
MS$FOCUSED_ION: PRECURSOR_TYPE [M+H]+
MS$FOCUSED_ION: PRECURSOR_M/Z 385.21218
PK$SPLASH: splash10-000i-0229000000-e2f3157ed40afc47efad
PK$NUM_PEAK: 740
PK$PEAK: m/z int. rel.int.
  56.05056 56.0 0
  56.62207 18.0 0
  59.05064 24.0 0
  66.46705 18.0 0
  68.04738 19.0 0
  69.26389 32.0 0
  70.06456 116.0 1
  70.15305 19.0 0
  73.70808 26.0 0
  75.04453 19.0 0
  79.05332 31.0 0
  81.06743 21.0 0
  81.07251 18.0 0
  82.062 26.0 0
  82.06996 61.0 0
  83.81644 20.0 0
  84.07333 26.0 0
  84.08366 30.0 0
  85.0293 24.0 0
  85.0839 38.0 0
  91.04742 37.0 0
  91.05678 177.0 1
  91.46555 37.0 0
  91.57078 18.0 0
  91.83591 33.0 0
  92.76518 18.0 0
  93.03594 36.0 0
  93.06553 52.0 0
  93.07246 144.0 1
  94.06497 82.0 1
  94.07394 62.0 1
  95.0409 36.0 0
  95.08592 27.0 0
  96.02683 25.0 0
  97.06465 51.0 0
  97.06947 43.0 0
  98.09704 50.0 0
  104.18085 17.0 0
  105.07269 94.0 1
  106.04217 33.0 0
  106.06708 122.0 1
  107.04704 25.0 0
  107.07133 20.0 0
  107.08834 98.0 1
  107.65601 21.0 0
  108.03991 26.0 0
  108.05053 22.0 0
  108.08024 1083.0 9
  108.38124 25.0 0
  109.05082 31.0 0
  109.08748 108.0 1
  110.04626 25.0 0
  110.06777 25.0 0
  110.09577 603.0 5
  110.10298 128.0 1
  110.11282 25.0 0
  111.04179 195.0 2
  111.04805 205.0 2
  111.07699 18.0 0
  111.09863 54.0 0
  111.10429 52.0 0
  111.833 27.0 0
  112.04684 18.0 0
  112.10786 20.0 0
  114.51266 17.0 0
  115.05453 137.0 1
  115.06733 32.0 0
  116.06156 20.0 0
  116.06809 20.0 0
  117.05218 47.0 0
  117.0582 83.0 1
  117.07014 36.0 0
  117.08235 46.0 0
  117.28764 18.0 0
  118.03412 43.0 0
  118.06871 187.0 2
  119.04757 25.0 0
  120.04158 23.0 0
  120.07869 18.0 0
  120.08357 25.0 0
  120.10506 32.0 0
  120.398 19.0 0
  120.51727 22.0 0
  121.06455 45.0 0
  122.08557 64.0 1
  122.10078 26.0 0
  123.08133 343.0 3
  123.09818 24.0 0
  124.09132 39.0 0
  124.10966 174.0 1
  125.05756 16.0 0
  125.06413 73.0 1
  125.07896 30.0 0
  125.09445 68.0 1
  126.10114 45.0 0
  127.07787 30.0 0
  128.04686 55.0 0
  129.04135 36.0 0
  129.05548 234.0 2
  130.01546 22.0 0
  130.05206 84.0 1
  130.06346 324.0 3
  130.07158 104.0 1
  130.28816 17.0 0
  131.06456 50.0 0
  131.07294 36.0 0
  131.08478 47.0 0
  131.78427 23.0 0
  131.86246 27.0 0
  131.97054 17.0 0
  132.02934 60.0 0
  132.03995 247.0 2
  132.0468 423.0 3
  132.08151 1527.0 12
  133.06326 51.0 0
  133.07416 24.0 0
  133.08745 135.0 1
  133.12473 23.0 0
  134.05438 64.0 1
  134.06004 85.0 1
  134.10225 21.0 0
  135.08479 31.0 0
  135.09998 20.0 0
  135.98463 31.0 0
  136.04842 26.0 0
  136.07805 21.0 0
  136.08322 26.0 0
  136.11568 44.0 0
  136.92525 22.0 0
  137.11586 37.0 0
  137.2886 22.0 0
  137.65802 19.0 0
  138.05554 149.0 1
  138.08742 45.0 0
  138.12424 23.0 0
  138.83289 30.0 0
  139.02734 30.0 0
  139.05795 28.0 0
  139.07147 44.0 0
  139.0773 144.0 1
  139.11195 25.0 0
  140.66702 24.0 0
  141.05287 50.0 0
  141.07683 45.0 0
  141.09172 33.0 0
  142.04993 41.0 0
  142.06474 1043.0 8
  143.04382 23.0 0
  143.06207 82.0 1
  143.06941 125.0 1
  143.07668 136.0 1
  143.29338 21.0 0
  143.40686 19.0 0
  144.07048 62.0 1
  144.0822 545.0 4
  145.05557 26.0 0
  145.08899 65.0 1
  146.05905 68.0 1
  146.08264 41.0 0
  146.09323 45.0 0
  147.07137 25.0 0
  147.08543 30.0 0
  147.81544 20.0 0
  148.01573 21.0 0
  148.06323 43.0 0
  148.07399 162.0 1
  148.08296 29.0 0
  148.11107 51.0 0
  149.29053 17.0 0
  150.05618 23.0 0
  150.09137 87.0 1
  151.05774 18.0 0
  151.06938 105.0 1
  151.08028 27.0 0
  151.18501 45.0 0
  152.04393 27.0 0
  152.07327 43.0 0
  152.11028 61.0 0
  153.05411 33.0 0
  153.07384 46.0 0
  153.08673 181.0 1
  153.09471 143.0 1
  154.05878 21.0 0
  154.06854 161.0 1
  154.08116 51.0 0
  155.0565 40.0 0
  156.04059 21.0 0
  157.08469 21.0 0
  158.05779 1430.0 12
  158.06761 365.0 3
  158.09505 414.0 3
  158.88614 28.0 0
  158.994 17.0 0
  159.06573 306.0 2
  159.08881 184.0 1
  159.09665 126.0 1
  159.35588 22.0 0
  160.00838 32.0 0
  160.0305 42.0 0
  160.04552 23.0 0
  160.05446 65.0 1
  160.07561 9410.0 76
  160.09784 19.0 0
  160.11169 55.0 0
  160.12096 17.0 0
  161.05881 69.0 1
  161.07526 512.0 4
  161.08211 815.0 7
  161.09425 45.0 0
  162.07658 26.0 0
  162.09241 191.0 2
  162.45702 20.0 0
  162.68872 21.0 0
  163.08203 87.0 1
  163.09563 20.0 0
  163.10478 17.0 0
  164.04144 20.0 0
  164.06775 109.0 1
  164.11246 49.0 0
  164.74776 22.0 0
  165.08995 35.0 0
  166.0898 81.0 1
  166.11638 28.0 0
  167.05621 29.0 0
  167.08514 21.0 0
  167.09497 39.0 0
  167.10867 162.0 1
  168.08107 25.0 0
  168.1026 19.0 0
  169.05103 33.0 0
  169.07961 176.0 1
  169.21953 29.0 0
  170.04776 33.0 0
  170.06046 57.0 0
  170.0858 78.0 1
  170.10037 164.0 1
  171.03122 23.0 0
  171.05949 18.0 0
  171.08368 33.0 0
  171.09697 175.0 1
  171.20743 17.0 0
  171.35402 18.0 0
  172.06245 38.0 0
  172.07227 188.0 2
  172.08185 225.0 2
  172.09669 54.0 0
  172.10435 59.0 0
  172.11502 31.0 0
  172.69327 21.0 0
  173.0703 34.0 0
  173.08049 50.0 0
  173.56436 27.0 0
  174.07397 22.0 0
  174.09196 99.0 1
  174.46872 21.0 0
  175.097 60.0 0
  176.10402 103.0 1
  176.50589 30.0 0
  177.03964 30.0 0
  177.0789 37.0 0
  177.0898 31.0 0
  177.09666 21.0 0
  178.07584 28.0 0
  178.08571 47.0 0
  179.0845 71.0 1
  179.10251 20.0 0
  179.12305 21.0 0
  181.07269 22.0 0
  181.0948 31.0 0
  182.06468 18.0 0
  182.08466 28.0 0
  182.10278 35.0 0
  183.10156 103.0 1
  184.0589 25.0 0
  184.07362 59.0 0
  184.11081 183.0 1
  185.0687 191.0 2
  185.11252 50.0 0
  185.12086 19.0 0
  185.22365 38.0 0
  186.05733 24.0 0
  186.07861 192.0 2
  186.09424 266.0 2
  186.98782 23.0 0
  187.03285 36.0 0
  187.04858 38.0 0
  187.06374 146.0 1
  187.08652 5546.0 45
  187.12866 21.0 0
  187.17007 19.0 0
  188.05887 56.0 0
  188.07108 77.0 1
  188.08861 843.0 7
  188.71552 17.0 0
  189.09793 32.0 0
  192.08829 68.0 1
  192.0975 25.0 0
  192.11815 17.0 0
  192.17476 22.0 0
  193.082 40.0 0
  193.09207 40.0 0
  194.0631 33.0 0
  194.09158 20.0 0
  194.1057 70.0 1
  194.12259 181.0 1
  195.09019 42.0 0
  195.11491 24.0 0
  195.12471 34.0 0
  195.1819 24.0 0
  195.98854 47.0 0
  196.08916 36.0 0
  196.1106 174.0 1
  196.12947 126.0 1
  197.06834 18.0 0
  197.08052 58.0 0
  197.11497 24.0 0
  197.13957 30.0 0
  198.06801 26.0 0
  198.08459 84.0 1
  198.09511 34.0 0
  198.79091 37.0 0
  199.02339 28.0 0
  199.07436 30.0 0
  199.08536 106.0 1
  199.09808 35.0 0
  199.42458 33.0 0
  200.08296 18.0 0
  200.9039 35.0 0
  201.10257 219.0 2
  201.88202 22.0 0
  202.07372 26.0 0
  202.10541 27.0 0
  204.62956 18.0 0
  205.00729 52.0 0
  205.06979 20.0 0
  206.06584 37.0 0
  206.10468 67.0 1
  206.12807 50.0 0
  207.04338 34.0 0
  207.84639 30.0 0
  208.10487 31.0 0
  208.1315 20.0 0
  209.09499 21.0 0
  210.08781 103.0 1
  210.09618 113.0 1
  210.10944 32.0 0
  210.96118 45.0 0
  211.08919 77.0 1
  211.10429 64.0 1
  211.37703 43.0 0
  211.57806 18.0 0
  212.05556 20.0 0
  212.09621 161.0 1
  212.11108 92.0 1
  212.11984 44.0 0
  213.09703 725.0 6
  213.10631 517.0 4
  213.1199 90.0 1
  213.14818 67.0 1
  213.33226 20.0 0
  213.49759 48.0 0
  214.07745 17.0 0
  214.09909 175.0 1
  214.1153 45.0 0
  214.13628 62.0 1
  214.27849 23.0 0
  214.3439 29.0 0
  214.63757 19.0 0
  214.95103 20.0 0
  215.06677 25.0 0
  215.11934 1397.0 11
  216.10558 30.0 0
  216.11909 78.0 1
  216.13017 20.0 0
  216.85477 28.0 0
  216.95166 23.0 0
  217.118 25.0 0
  217.50108 32.0 0
  219.10527 34.0 0
  220.11246 33.0 0
  221.11922 60.0 0
  221.14958 17.0 0
  222.06671 22.0 0
  222.09534 59.0 0
  223.12181 41.0 0
  223.13174 19.0 0
  224.00381 18.0 0
  224.03778 26.0 0
  224.07738 36.0 0
  224.09598 30.0 0
  224.1355 62.0 1
  225.10431 89.0 1
  226.10117 22.0 0
  226.11288 62.0 1
  226.1438 778.0 6
  226.21767 31.0 0
  226.39029 30.0 0
  226.92619 21.0 0
  227.11726 33.0 0
  227.14467 27.0 0
  227.298 25.0 0
  227.42644 18.0 0
  228.14609 47.0 0
  228.15529 18.0 0
  228.74506 24.0 0
  230.32001 17.0 0
  230.50169 20.0 0
  230.83279 17.0 0
  231.40285 33.0 0
  232.11284 22.0 0
  232.68326 25.0 0
  232.84222 34.0 0
  233.11398 29.0 0
  234.09068 30.0 0
  235.1084 39.0 0
  235.125 18.0 0
  235.13687 19.0 0
  235.86636 32.0 0
  236.08521 22.0 0
  236.12094 58.0 0
  236.42722 21.0 0
  236.52583 17.0 0
  236.88197 28.0 0
  237.04546 27.0 0
  237.09605 100.0 1
  237.11313 59.0 0
  237.12387 26.0 0
  238.12276 31.0 0
  238.58676 32.0 0
  239.11472 115.0 1
  239.13045 45.0 0
  239.3504 32.0 0
  239.82617 36.0 0
  239.9399 17.0 0
  240.11713 21.0 0
  240.15594 90.0 1
  240.31728 23.0 0
  240.35429 18.0 0
  240.43733 37.0 0
  240.53925 22.0 0
  240.60371 29.0 0
  240.89162 30.0 0
  240.90904 24.0 0
  240.96797 19.0 0
  241.01154 23.0 0
  241.0697 39.0 0
  241.0948 216.0 2
  241.13284 19636.0 158
  241.1754 280.0 2
  241.21713 32.0 0
  241.2569 24.0 0
  241.29778 37.0 0
  241.61629 20.0 0
  241.81023 17.0 0
  241.97237 25.0 0
  242.00522 66.0 1
  242.05272 31.0 0
  242.11426 91.0 1
  242.13626 3424.0 28
  242.26886 17.0 0
  242.53549 18.0 0
  242.68916 20.0 0
  243.13612 430.0 3
  243.15918 74.0 1
  244.14212 39.0 0
  245.1111 40.0 0
  245.42261 25.0 0
  245.53656 29.0 0
  246.6252 18.0 0
  247.02271 29.0 0
  247.12125 17.0 0
  247.59087 17.0 0
  247.75896 23.0 0
  248.11398 29.0 0
  248.2081 32.0 0
  249.10341 39.0 0
  249.13736 20.0 0
  249.85292 34.0 0
  249.95995 21.0 0
  250.07315 27.0 0
  250.10017 67.0 1
  250.11504 86.0 1
  250.39052 41.0 0
  251.10217 50.0 0
  251.12596 141.0 1
  251.13739 47.0 0
  251.45691 17.0 0
  252.04781 63.0 1
  252.09932 23.0 0
  252.50606 21.0 0
  252.63663 22.0 0
  253.07605 29.0 0
  253.12828 54.0 0
  253.17653 28.0 0
  253.43921 27.0 0
  254.19951 17.0 0
  256.8006 29.0 0
  257.50558 19.0 0
  258.54083 21.0 0
  259.10135 21.0 0
  259.3548 28.0 0
  259.66718 27.0 0
  259.84167 31.0 0
  260.01086 23.0 0
  260.70453 27.0 0
  260.90948 18.0 0
  261.10382 17.0 0
  261.25229 27.0 0
  261.6131 42.0 0
  262.27545 17.0 0
  262.36829 39.0 0
  263.09909 31.0 0
  263.9534 24.0 0
  264.74673 17.0 0
  264.84244 18.0 0
  264.85089 18.0 0
  265.09729 220.0 2
  265.13068 795.0 6
  265.14288 205.0 2
  266.04922 18.0 0
  266.09326 37.0 0
  266.12967 155.0 1
  266.13861 146.0 1
  266.15027 54.0 0
  266.55792 25.0 0
  266.96204 17.0 0
  267.01953 41.0 0
  267.09482 46.0 0
  267.11401 318.0 3
  267.14883 4748.0 38
  267.17145 63.0 1
  267.23959 17.0 0
  267.66861 23.0 0
  268.0228 20.0 0
  268.12534 36.0 0
  268.14911 1018.0 8
  268.16364 322.0 3
  268.35101 20.0 0
  269.08789 22.0 0
  269.10983 80.0 1
  269.12793 96.0 1
  269.1658 2528.0 20
  269.3783 22.0 0
  270.17221 517.0 4
  270.18704 61.0 0
  270.79965 28.0 0
  271.17108 23.0 0
  271.18881 18.0 0
  272.18289 17.0 0
  272.82126 22.0 0
  272.93222 23.0 0
  274.11374 32.0 0
  275.11755 21.0 0
  275.8479 24.0 0
  276.79172 20.0 0
  277.1348 101.0 1
  278.15472 25.0 0
  279.76855 33.0 0
  280.14987 17.0 0
  280.49942 78.0 1
  281.00287 30.0 0
  281.0813 46.0 0
  281.12131 33.0 0
  281.1344 206.0 2
  282.09195 38.0 0
  282.13293 19.0 0
  283.79358 57.0 0
  283.8974 28.0 0
  285.83795 46.0 0
  288.12543 18.0 0
  289.00259 20.0 0
  289.11865 25.0 0
  289.6008 20.0 0
  290.14624 19.0 0
  291.06888 43.0 0
  291.13669 44.0 0
  292.17166 39.0 0
  293.15268 25.0 0
  293.16925 161.0 1
  293.56866 20.0 0
  294.17426 60.0 0
  295.00336 23.0 0
  295.13855 52.0 0
  296.14841 18.0 0
  297.07993 30.0 0
  297.11313 99.0 1
  297.12872 172.0 1
  297.14102 99.0 1
  297.15454 16.0 0
  298.13171 208.0 2
  298.15424 21.0 0
  299.05234 17.0 0
  302.81848 20.0 0
  303.14319 179.0 1
  303.15729 175.0 1
  303.42349 27.0 0
  304.15195 23.0 0
  305.13138 21.0 0
  305.95139 20.0 0
  307.04401 28.0 0
  309.11182 27.0 0
  309.13568 45.0 0
  309.15436 19.0 0
  310.13535 24.0 0
  310.16962 21.0 0
  310.74545 18.0 0
  311.12558 41.0 0
  311.15085 26.0 0
  311.19098 22.0 0
  311.3446 18.0 0
  311.84109 30.0 0
  315.11536 18.0 0
  315.20078 20.0 0
  317.45963 22.0 0
  319.14478 27.0 0
  320.14606 45.0 0
  320.81729 21.0 0
  321.13385 36.0 0
  321.16226 2046.0 17
  321.28601 46.0 0
  322.14536 231.0 2
  322.16544 511.0 4
  322.22302 32.0 0
  322.26297 18.0 0
  322.8913 35.0 0
  323.16391 73.0 1
  325.14548 25.0 0
  325.17261 21.0 0
  325.19586 77.0 1
  326.14011 21.0 0
  329.93582 26.0 0
  330.15823 27.0 0
  330.92078 51.0 0
  331.48572 21.0 0
  332.5943 17.0 0
  333.62271 30.0 0
  333.98438 28.0 0
  335.1564 48.0 0
  335.16858 128.0 1
  335.18341 107.0 1
  335.2005 25.0 0
  336.13202 26.0 0
  336.17972 21.0 0
  337.32874 24.0 0
  337.58548 24.0 0
  338.68314 38.0 0
  340.34933 23.0 0
  342.16333 17.0 0
  343.05783 18.0 0
  344.16049 24.0 0
  345.59378 20.0 0
  347.12378 38.0 0
  348.16193 19.0 0
  351.16183 17.0 0
  351.24146 28.0 0
  351.49548 17.0 0
  352.45715 20.0 0
  352.56653 17.0 0
  352.8999 23.0 0
  353.1174 179.0 1
  353.13211 219.0 2
  353.14392 224.0 2
  353.1864 17694.0 143
  353.23959 110.0 1
  353.33533 22.0 0
  353.4545 17.0 0
  353.53519 34.0 0
  353.66861 34.0 0
  353.71262 19.0 0
  354.11884 57.0 0
  354.14743 47.0 0
  354.18771 4172.0 34
  354.22269 20.0 0
  354.30917 17.0 0
  354.41122 20.0 0
  354.51743 17.0 0
  354.61545 24.0 0
  354.67648 30.0 0
  354.69284 24.0 0
  354.88727 17.0 0
  354.90277 17.0 0
  355.14114 51.0 0
  355.19281 645.0 5
  355.49561 21.0 0
  355.57162 20.0 0
  356.20618 63.0 1
  356.38467 17.0 0
  356.97565 17.0 0
  357.12305 33.0 0
  358.26431 20.0 0
  361.08444 47.0 0
  361.46997 35.0 0
  362.39307 32.0 0
  365.70703 28.0 0
  367.56085 25.0 0
  368.20694 24.0 0
  371.85373 22.0 0
  372.18027 57.0 0
  374.12976 17.0 0
  374.16519 19.0 0
  374.93161 24.0 0
  375.69882 17.0 0
  376.17102 21.0 0
  377.30569 21.0 0
  377.76099 18.0 0
  377.94324 20.0 0
  378.85071 17.0 0
  380.44672 18.0 0
  380.80466 17.0 0
  381.224 20.0 0
  383.11591 24.0 0
  383.16891 151.0 1
  383.18951 150.0 1
  383.20639 185.0 1
  383.76929 17.0 0
  384.00964 20.0 0
  384.20651 131.0 1
  384.21948 65.0 1
  384.23618 25.0 0
  384.34219 26.0 0
  384.379 17.0 0
  384.59946 17.0 0
  384.61151 20.0 0
  384.71603 17.0 0
  384.73599 24.0 0
  384.77124 36.0 0
  384.81131 23.0 0
  384.89233 35.0 0
  384.91846 20.0 0
  384.97296 27.0 0
  385.01065 69.0 1
  385.03952 74.0 1
  385.07428 63.0 1
  385.11319 292.0 2
  385.14685 904.0 7
  385.17142 151.0 1
  385.21207 123844.0 999
  385.26929 3669.0 30
  385.32047 448.0 4
  385.38318 104.0 1
//
