ACCESSION: MSBNK-RIKEN-PR040121
RECORD_TITLE: Kaempferol-3-O-rutinoside; LC-ESI-QTOF; MS2; CE:30 V; [M+Na]+
DATE: 2016.01.19 (Created 2008.01.09, modified 2011.05.06)
AUTHORS: Matsuda F, Plant Science Center, RIKEN.
LICENSE: CC BY-SA
CH$NAME: Kaempferol-3-O-rutinoside
CH$NAME: Nicotiflorin
CH$NAME: Kaem_3_Glc_6pp_Rha
CH$NAME: 5,7-dihydroxy-2-(4-hydroxyphenyl)-3-[(2S,3R,4S,5S,6R)-3,4,5-trihydroxy-6-[[(2R,3R,4R,5R,6S)-3,4,5-trihydroxy-6-methyloxan-2-yl]oxymethyl]oxan-2-yl]oxychromen-4-one
CH$COMPOUND_CLASS: Natural Product
CH$FORMULA: C27H30O15
CH$EXACT_MASS: 594.15847
CH$SMILES: c(c5)(O)cc(c(c51)C(C(OC(O3)C(C(C(C3COC(C4O)OC(C(C4O)O)C)O)O)O)=C(c(c2)ccc(O)c2)O1)=O)O
CH$IUPAC: InChI=1S/C27H30O15/c1-9-17(31)20(34)22(36)26(39-9)38-8-15-18(32)21(35)23(37)27(41-15)42-25-19(33)16-13(30)6-12(29)7-14(16)40-24(25)10-2-4-11(28)5-3-10/h2-7,9,15,17-18,20-23,26-32,34-37H,8H2,1H3/t9-,15+,17-,18+,20+,21-,22+,23+,26+,27-/m0/s1
CH$LINK: CAS 17650-84-9
CH$LINK: PUBCHEM CID:5318767
CH$LINK: INCHIKEY RTATXGUCZHCSNG-QHWHWDPRSA-N
CH$LINK: COMPTOX DTXSID50938804
AC$INSTRUMENT: UPLC Q-Tof Premier, Waters
AC$INSTRUMENT_TYPE: LC-ESI-QTOF
AC$MASS_SPECTROMETRY: MS_TYPE MS2
AC$MASS_SPECTROMETRY: ION_MODE POSITIVE
AC$MASS_SPECTROMETRY: COLLISION_ENERGY 30 V
AC$MASS_SPECTROMETRY: DATAFORMAT Continuum
AC$MASS_SPECTROMETRY: DESOLVATION_GAS_FLOW 600.0 L/Hr
AC$MASS_SPECTROMETRY: DESOLVATION_TEMPERATURE 400 C
AC$MASS_SPECTROMETRY: FRAGMENTATION_METHOD LOW-ENERGY CID
AC$MASS_SPECTROMETRY: IONIZATION ESI
AC$MASS_SPECTROMETRY: SCANNING 1.0 sec/scan (m/z = 50-1000)
AC$MASS_SPECTROMETRY: SOURCE_TEMPERATURE 120 C
AC$CHROMATOGRAPHY: CAPILLARY_VOLTAGE 3.0 kV
AC$CHROMATOGRAPHY: SAMPLING_CONE 23.0 V
AC$CHROMATOGRAPHY: SOLVENT A CH3CN(0.1%HCOOH)
AC$CHROMATOGRAPHY: SOLVENT B H2O(0.1%HCOOH)
MS$FOCUSED_ION: FULL_SCAN_FRAGMENT_ION_PEAK 617.1
MS$FOCUSED_ION: ION_TYPE [M+Na]+
MS$DATA_PROCESSING: WHOLE MassLynx 4.1
PK$SPLASH: splash10-0159-0007009000-21e288572c861fe55cf7
PK$NUM_PEAK: 10
PK$PEAK: m/z int. rel.int.
  185.0418 92.29 22
  308.0289 414.4 99
  309.0360 522.4 125
  309.1286 90.96 21
  331.0986 2685 645
  331.1920 459.7 110
  471.0903 411.3 98
  617.1483 4157 999
  617.2750 390.5 93
  618.1498 231.1 55
//
