ACCESSION: MSBNK-RIKEN-PR303728
RECORD_TITLE: Delphinidin 3-galactoside; LC-ESI-QTOF; MS2
DATE: 2019.03.28
AUTHORS: Tetsuya Mori, Center for Sustainable Resource Science, RIKEN
LICENSE: CC BY-NC-SA
PUBLICATION: Tsugawa H., Nakabayashi R., Mori T., Yamada Y., Takahashi M., Rai A., Sugiyama R., Yamamoto H., Nakaya T., Yamazaki M., Kooke R., Bac-Molenaar JA., Oztolan-Erol N., Keurentjes JJB., Arita M., Saito K. (2019) "A cheminformatics approach to characterize metabolomes in stable-isotope-labeled organisms" Nature Methods 16(4):295-298. [doi:10.1038/s41592-019-0358-2]
COMMENT: registered in RIKEN PlaSMA
CH$NAME: Delphinidin 3-galactoside
CH$COMPOUND_CLASS: Anthocyanidin-3-O-glycosides
CH$FORMULA: [C21H21O12]+
CH$EXACT_MASS: 465.387
CH$SMILES: OCC1OC(OC2=C([O+]=C3C=C(O)C=C(O)C3=C2)C2=CC(O)=C(O)C(O)=C2)C(O)C(O)C1O
CH$IUPAC: InChI=1S/C21H20O12/c22-6-15-17(28)18(29)19(30)21(33-15)32-14-5-9-10(24)3-8(23)4-13(9)31-20(14)7-1-11(25)16(27)12(26)2-7/h1-5,15,17-19,21-22,28-30H,6H2,(H4-,23,24,25,26,27)/p+1
CH$LINK: INCHIKEY XENHPQQLDPAYIJ-UHFFFAOYSA-O
AC$INSTRUMENT: LC, Waters Acquity UPLC System; MS, Waters Xevo G2 Q-Tof
AC$INSTRUMENT_TYPE: LC-ESI-QTOF
AC$MASS_SPECTROMETRY: MS_TYPE MS2
AC$MASS_SPECTROMETRY: ION_MODE POSITIVE
AC$MASS_SPECTROMETRY: COLLISION_ENERGY 6V
AC$MASS_SPECTROMETRY: DESOLVATION_GAS_FLOW 800/h
AC$MASS_SPECTROMETRY: DESOLVATION_TEMPERATURE 450 C
AC$MASS_SPECTROMETRY: IONIZATION ESI
AC$CHROMATOGRAPHY: CAPILLARY_VOLTAGE +3.00 kV
AC$CHROMATOGRAPHY: COLUMN_NAME Acquity bridged ethyl hybrid C18 (1.7 um, 2.1 mm * 100 mm, Waters)
AC$CHROMATOGRAPHY: COLUMN_TEMPERATURE 40 C
AC$CHROMATOGRAPHY: FLOW_GRADIENT A/B = (99.5%/0.5% at 0 min, 99.5%/0.5% at 0.1 min, 20%/80% at 10 min, 0.5%/99.5% at 10.1 min, 0.5%/99.5% at 12.0 min, 99.5%/0.5% at 12.1 min, 99.5%/0.5% at 15.0 min)
AC$CHROMATOGRAPHY: FLOW_RATE 0.3 ml/min at 0 min, 0.3 ml/min at 10 min, 0.4 ml/min at 10.1 min, 0.4 ml/min at 14.4 min, 0.3 ml/min at 14.5 min
AC$CHROMATOGRAPHY: RETENTION_TIME 2.6148
AC$CHROMATOGRAPHY: SOLVENT A water including 0.1% formic acid
AC$CHROMATOGRAPHY: SOLVENT B acetonitrile including 0.1% formic acid
MS$FOCUSED_ION: PRECURSOR_TYPE [M]+
MS$FOCUSED_ION: PRECURSOR_M/Z 465.102204
PK$SPLASH: splash10-0udi-0769000000-e14e071ea36cad9d620d
PK$NUM_PEAK: 109
PK$PEAK: m/z int. rel.int.
  81.06608 8.0 8
  97.02739 5.0 5
  105.0686 5.0 5
  109.02784 12.0 12
  111.00542 14.0 14
  116.06229 7.0 7
  117.06302 6.0 6
  117.06986 11.0 11
  121.02198 9.0 9
  121.03264 12.0 12
  121.06646 6.0 6
  125.02308 27.0 27
  127.05551 6.0 6
  128.06026 18.0 18
  129.07071 13.0 13
  131.04552 11.0 11
  133.03632 9.0 9
  133.07401 7.0 7
  135.0103 8.0 8
  135.03828 6.0 6
  135.04462 11.0 11
  135.05339 6.0 6
  136.05551 5.0 5
  137.02205 7.0 7
  138.02698 7.0 7
  139.03845 8.0 8
  144.05579 6.0 6
  145.02638 10.0 10
  145.05925 13.0 13
  145.0675 41.0 41
  145.07907 9.0 9
  147.03934 8.0 8
  149.0204 45.0 45
  149.032 12.0 12
  150.00946 6.0 6
  150.03108 64.0 64
  152.03528 11.0 11
  153.006 13.0 13
  153.01817 94.0 94
  155.04323 10.0 10
  155.05063 18.0 18
  157.06519 23.0 23
  159.03316 7.0 7
  159.04355 18.0 18
  160.04556 6.0 6
  160.05644 11.0 11
  160.81786 5.0 5
  161.05463 10.0 10
  163.03696 25.0 25
  163.04713 6.0 6
  164.03645 9.0 9
  165.01524 16.0 16
  165.02551 6.0 6
  166.03146 7.0 7
  171.04709 23.0 23
  173.02661 44.0 44
  173.05751 63.0 63
  173.06854 13.0 13
  174.42984 7.0 7
  177.0127 7.0 7
  177.04706 9.0 9
  179.0345 11.0 11
  183.04773 43.0 43
  184.05348 7.0 7
  187.03448 10.0 10
  187.04192 22.0 22
  188.04721 11.0 11
  189.05328 5.0 5
  191.03348 12.0 12
  192.04463 14.0 14
  193.96361 6.0 6
  201.03232 6.0 6
  201.0546 49.0 49
  202.05682 32.0 32
  203.03511 5.0 5
  205.03581 14.0 14
  205.05554 9.0 9
  211.04602 6.0 6
  212.05081 10.0 10
  213.05533 15.0 15
  214.05969 17.0 17
  215.03368 9.0 9
  216.04088 5.0 5
  217.04681 6.0 6
  219.01891 5.0 5
  219.06221 9.0 9
  228.04768 9.0 9
  229.05019 265.0 265
  230.04614 43.0 43
  230.0594 9.0 9
  239.0296 5.0 5
  240.04428 6.0 6
  247.05952 19.0 19
  256.03452 5.0 5
  257.00092 8.0 8
  257.03281 51.0 51
  257.04272 154.0 154
  258.05051 43.0 43
  270.36154 6.0 6
  275.05612 10.0 10
  285.03778 10.0 10
  285.05145 6.0 6
  302.95383 5.0 5
  303.00699 14.0 14
  303.05057 1000.0 999
  304.05258 107.0 107
  304.06549 34.0 34
  305.04581 19.0 19
  305.06409 10.0 10
//
