ACCESSION: MSBNK-RIKEN-PR301990
RECORD_TITLE: Luteolin-6-C-glucoside; LC-ESI-QTOF; MS2
DATE: 2019.03.28
AUTHORS: Tetsuya Mori, Center for Sustainable Resource Science, RIKEN
LICENSE: CC BY-NC-SA
PUBLICATION: Tsugawa H., Nakabayashi R., Mori T., Yamada Y., Takahashi M., Rai A., Sugiyama R., Yamamoto H., Nakaya T., Yamazaki M., Kooke R., Bac-Molenaar JA., Oztolan-Erol N., Keurentjes JJB., Arita M., Saito K. (2019) "A cheminformatics approach to characterize metabolomes in stable-isotope-labeled organisms" Nature Methods 16(4):295-298. [doi:10.1038/s41592-019-0358-2]
COMMENT: registered in RIKEN PlaSMA
CH$NAME: Luteolin-6-C-glucoside
CH$COMPOUND_CLASS: Flavonoid C-glycosides
CH$FORMULA: C21H20O11
CH$EXACT_MASS: 448.38
CH$SMILES: OC[C@H]1O[C@H]([C@H](O)[C@@H](O)[C@@H]1O)C1=C(O)C2=C(OC(=CC2=O)C2=CC(O)=C(O)C=C2)C=C1O
CH$IUPAC: InChI=1S/C21H20O11/c22-6-14-17(27)19(29)20(30)21(32-14)16-11(26)5-13-15(18(16)28)10(25)4-12(31-13)7-1-2-8(23)9(24)3-7/h1-5,14,17,19-24,26-30H,6H2/t14-,17-,19+,20-,21+/m1/s1
CH$LINK: INCHIKEY ODBRNZZJSYPIDI-VJXVFPJBSA-N
AC$INSTRUMENT: LC, Waters Acquity UPLC System; MS, Waters Xevo G2 Q-Tof
AC$INSTRUMENT_TYPE: LC-ESI-QTOF
AC$MASS_SPECTROMETRY: MS_TYPE MS2
AC$MASS_SPECTROMETRY: ION_MODE POSITIVE
AC$MASS_SPECTROMETRY: COLLISION_ENERGY 6V
AC$MASS_SPECTROMETRY: DESOLVATION_GAS_FLOW 800/h
AC$MASS_SPECTROMETRY: DESOLVATION_TEMPERATURE 450 C
AC$MASS_SPECTROMETRY: IONIZATION ESI
AC$CHROMATOGRAPHY: CAPILLARY_VOLTAGE +3.00 kV
AC$CHROMATOGRAPHY: COLUMN_NAME Acquity bridged ethyl hybrid C18 (1.7 um, 2.1 mm * 100 mm, Waters)
AC$CHROMATOGRAPHY: COLUMN_TEMPERATURE 40 C
AC$CHROMATOGRAPHY: FLOW_GRADIENT A/B = (99.5%/0.5% at 0 min, 99.5%/0.5% at 0.1 min, 20%/80% at 10 min, 0.5%/99.5% at 10.1 min, 0.5%/99.5% at 12.0 min, 99.5%/0.5% at 12.1 min, 99.5%/0.5% at 15.0 min)
AC$CHROMATOGRAPHY: FLOW_RATE 0.3 ml/min at 0 min, 0.3 ml/min at 10 min, 0.4 ml/min at 10.1 min, 0.4 ml/min at 14.4 min, 0.3 ml/min at 14.5 min
AC$CHROMATOGRAPHY: RETENTION_TIME 3.591883
AC$CHROMATOGRAPHY: SOLVENT A water including 0.1% formic acid
AC$CHROMATOGRAPHY: SOLVENT B acetonitrile including 0.1% formic acid
MS$FOCUSED_ION: PRECURSOR_TYPE [M+H]+
MS$FOCUSED_ION: PRECURSOR_M/Z 449.1078379
PK$SPLASH: splash10-0002-0039500000-91450e42ea9ac0a022e3
PK$NUM_PEAK: 148
PK$PEAK: m/z int. rel.int.
  85.03339 12.0 12
  112.98004 5.0 5
  135.04555 9.0 9
  137.01775 7.0 7
  145.02548 13.0 13
  149.14178 6.0 6
  163.02968 6.0 6
  163.04633 7.0 7
  165.01314 10.0 10
  165.01974 13.0 13
  166.01736 6.0 6
  175.0385 6.0 6
  177.01208 21.0 21
  177.02823 5.0 5
  179.02426 10.0 10
  181.0345 7.0 7
  189.12407 5.0 5
  190.99323 11.0 11
  191.00711 7.0 7
  191.02913 15.0 15
  191.38095 9.0 9
  197.0601 7.0 7
  212.08119 6.0 6
  213.01523 8.0 8
  215.03578 13.0 13
  231.03635 11.0 11
  245.03888 7.0 7
  246.03084 5.0 5
  246.06062 7.0 7
  255.05113 7.0 7
  261.0285 9.0 9
  266.47632 6.0 6
  266.55637 6.0 6
  269.04294 6.0 6
  270.01944 5.0 5
  271.05154 6.0 6
  272.41782 5.0 5
  274.04306 6.0 6
  283.02454 11.0 11
  283.05569 50.0 50
  284.05637 10.0 10
  286.0426 7.0 7
  287.05661 46.0 46
  288.04984 5.0 5
  293.29553 5.0 5
  297.04425 12.0 12
  297.07767 26.0 26
  297.09729 5.0 5
  298.08038 11.0 11
  298.97495 5.0 5
  299.05429 797.0 796
  300.02554 6.0 6
  300.03784 13.0 13
  300.05313 77.0 77
  300.06573 76.0 76
  301.05453 12.0 12
  301.07169 20.0 20
  307.06561 5.0 5
  309.34085 7.0 7
  311.02032 5.0 5
  311.04926 60.0 60
  311.06757 50.0 50
  311.09924 8.0 8
  313.06396 9.0 9
  313.08481 6.0 6
  314.08646 9.0 9
  321.06732 11.0 11
  321.08398 20.0 20
  323.08817 11.0 11
  324.0596 32.0 32
  324.99713 5.0 5
  325.0596 59.0 59
  325.07568 99.0 99
  325.09698 8.0 8
  326.0166 5.0 5
  326.06808 8.0 8
  326.0871 15.0 15
  326.14963 5.0 5
  327.05109 7.0 7
  327.06427 7.0 7
  329.06299 435.0 435
  329.07486 161.0 161
  330.06244 38.0 38
  330.07468 101.0 101
  331.06393 7.0 7
  331.07886 20.0 20
  336.06546 10.0 10
  337.06198 21.0 21
  338.07706 25.0 25
  339.07166 38.0 38
  339.08994 116.0 116
  340.07825 10.0 10
  340.09219 20.0 20
  345.46005 9.0 9
  349.05893 10.0 10
  349.07532 29.0 29
  350.06967 8.0 8
  351.04913 6.0 6
  351.09732 6.0 6
  353.01389 6.0 6
  353.06491 262.0 262
  354.02353 5.0 5
  354.06345 44.0 44
  354.07785 29.0 29
  355.07413 6.0 6
  364.99744 6.0 6
  365.02365 9.0 9
  365.06583 117.0 117
  366.04385 7.0 7
  366.06055 13.0 13
  367.04779 6.0 6
  367.07748 15.0 15
  367.09326 5.0 5
  375.04382 6.0 6
  377.03891 14.0 14
  377.06894 125.0 125
  378.06247 18.0 18
  379.06705 6.0 6
  383.0491 27.0 27
  383.06674 121.0 121
  383.08157 92.0 92
  384.07474 86.0 86
  385.07959 20.0 20
  395.04407 6.0 6
  395.07407 150.0 150
  396.03989 13.0 13
  396.08084 26.0 26
  411.07587 13.0 13
  413.06998 31.0 31
  413.08844 183.0 183
  414.05853 8.0 8
  414.07764 18.0 18
  414.09909 6.0 6
  415.49249 5.0 5
  417.09857 5.0 5
  431.09369 226.0 226
  431.10645 92.0 92
  431.98245 5.0 5
  432.08533 22.0 22
  432.10263 32.0 32
  432.11591 14.0 14
  433.09686 9.0 9
  433.12067 6.0 6
  447.07837 6.0 6
  447.10031 20.0 20
  449.05786 12.0 12
  449.10611 1000.0 999
  449.17487 6.0 6
//
