ACCESSION: MSBNK-RIKEN-PR300791
RECORD_TITLE: Cyclo(proline-leucine); LC-ESI-QTOF; MS2
DATE: 2019.03.28
AUTHORS: Tetsuya Mori, Center for Sustainable Resource Science, RIKEN
LICENSE: CC BY-NC-SA
PUBLICATION: Tsugawa H., Nakabayashi R., Mori T., Yamada Y., Takahashi M., Rai A., Sugiyama R., Yamamoto H., Nakaya T., Yamazaki M., Kooke R., Bac-Molenaar JA., Oztolan-Erol N., Keurentjes JJB., Arita M., Saito K. (2019) "A cheminformatics approach to characterize metabolomes in stable-isotope-labeled organisms" Nature Methods 16(4):295-298. [doi:10.1038/s41592-019-0358-2]
COMMENT: registered in RIKEN PlaSMA
CH$NAME: Cyclo(proline-leucine)
CH$COMPOUND_CLASS: Alpha amino acids and derivatives
CH$FORMULA: C11H18N2O2
CH$EXACT_MASS: 210.277
CH$SMILES: CC(C)CC1N=C(O)C2CCCN2C1=O
CH$IUPAC: InChI=1S/C11H18N2O2/c1-7(2)6-8-11(15)13-5-3-4-9(13)10(14)12-8/h7-9H,3-6H2,1-2H3,(H,12,14)
CH$LINK: INCHIKEY SZJNCZMRZAUNQT-UHFFFAOYSA-N
AC$INSTRUMENT: LC, Waters Acquity UPLC System; MS, Waters Xevo G2 Q-Tof
AC$INSTRUMENT_TYPE: LC-ESI-QTOF
AC$MASS_SPECTROMETRY: MS_TYPE MS2
AC$MASS_SPECTROMETRY: ION_MODE POSITIVE
AC$MASS_SPECTROMETRY: COLLISION_ENERGY 6V
AC$MASS_SPECTROMETRY: DESOLVATION_GAS_FLOW 800/h
AC$MASS_SPECTROMETRY: DESOLVATION_TEMPERATURE 450 C
AC$MASS_SPECTROMETRY: IONIZATION ESI
AC$CHROMATOGRAPHY: CAPILLARY_VOLTAGE +3.00 kV
AC$CHROMATOGRAPHY: COLUMN_NAME Acquity bridged ethyl hybrid C18 (1.7 um, 2.1 mm * 100 mm, Waters)
AC$CHROMATOGRAPHY: COLUMN_TEMPERATURE 40 C
AC$CHROMATOGRAPHY: FLOW_GRADIENT A/B = (99.5%/0.5% at 0 min, 99.5%/0.5% at 0.1 min, 20%/80% at 10 min, 0.5%/99.5% at 10.1 min, 0.5%/99.5% at 12.0 min, 99.5%/0.5% at 12.1 min, 99.5%/0.5% at 15.0 min)
AC$CHROMATOGRAPHY: FLOW_RATE 0.3 ml/min at 0 min, 0.3 ml/min at 10 min, 0.4 ml/min at 10.1 min, 0.4 ml/min at 14.4 min, 0.3 ml/min at 14.5 min
AC$CHROMATOGRAPHY: RETENTION_TIME 4.02605
AC$CHROMATOGRAPHY: SOLVENT A water including 0.1% formic acid
AC$CHROMATOGRAPHY: SOLVENT B acetonitrile including 0.1% formic acid
MS$FOCUSED_ION: PRECURSOR_TYPE [M+H]+
MS$FOCUSED_ION: PRECURSOR_M/Z 211.1441043
PK$SPLASH: splash10-03di-1190000000-7dfb0cf5cefc8996c47a
PK$NUM_PEAK: 20
PK$PEAK: m/z int. rel.int.
  70.06151 44.0 44
  70.06664 48.0 48
  86.09767 60.0 60
  98.06281 60.0 60
  99.06276 5.0 5
  112.03146 5.0 5
  114.08605 25.0 25
  114.09348 18.0 18
  127.08425 16.0 16
  138.12813 50.0 50
  139.13258 9.0 9
  146.55649 7.0 7
  154.07372 7.0 7
  155.15245 9.0 9
  166.11809 7.0 7
  183.14546 30.0 30
  194.11737 6.0 6
  210.99776 5.0 5
  211.11795 20.0 20
  211.14499 1000.0 999
//
