ACCESSION: MSBNK-RIKEN-PR100289
RECORD_TITLE: L-beta-Homotyrosine; LC-ESI-QTOF; MS2; CE:Ramp 5-60 V; [M+H]+
DATE: 2016.01.19 (Created 2009.09.10, modified 2011.05.06)
AUTHORS: Matsuda F, Suzuki M, Sawada Y, Plant Science Center, RIKEN.
LICENSE: CC BY-SA
COMMENT: Acquisition and generation of the data is financially supported in part by CREST/JST.
CH$NAME: L-beta-Homotyrosine
CH$NAME: (S)-3-Amino-4-(4-hydroxyphenyl)butyric acid
CH$COMPOUND_CLASS: Amino acids
CH$FORMULA: C10H13NO3
CH$EXACT_MASS: 195.08954
CH$SMILES: OC(=O)CC(N)Cc(c1)ccc(O)c1
CH$IUPAC: InChI=1S/C10H13NO3/c11-8(6-10(13)14)5-7-1-3-9(12)4-2-7/h1-4,8,12H,5-6,11H2,(H,13,14)/t8-/m1/s1
CH$LINK: CHEMSPIDER 2042281
CH$LINK: NIKKAJI J57.553D
CH$LINK: PUBCHEM CID:2761554
CH$LINK: INCHIKEY VUNPIAMEJXBAFP-MRVPVSSYSA-N
AC$INSTRUMENT: UPLC Q-Tof Premier, Waters
AC$INSTRUMENT_TYPE: LC-ESI-QTOF
AC$MASS_SPECTROMETRY: MS_TYPE MS2
AC$MASS_SPECTROMETRY: ION_MODE POSITIVE
AC$MASS_SPECTROMETRY: COLLISION_ENERGY Ramp 5-60 V
AC$MASS_SPECTROMETRY: DATAFORMAT Continuum
AC$MASS_SPECTROMETRY: DATE 2008.07.28
AC$MASS_SPECTROMETRY: DESOLVATION_GAS_FLOW 600.0 L/Hr
AC$MASS_SPECTROMETRY: DESOLVATION_TEMPERATURE 420 C
AC$MASS_SPECTROMETRY: FRAGMENTATION_METHOD LOW-ENERGY CID
AC$MASS_SPECTROMETRY: IONIZATION ESI
AC$MASS_SPECTROMETRY: SCANNING 1.0 sec/scan (m/z = 50-1000)
AC$MASS_SPECTROMETRY: SOURCE_TEMPERATURE 120 C
AC$CHROMATOGRAPHY: CAPILLARY_VOLTAGE 3.0 kV
AC$CHROMATOGRAPHY: SAMPLING_CONE 23.0 V
AC$CHROMATOGRAPHY: SOLVENT A CH3CN(0.1%HCOOH)
AC$CHROMATOGRAPHY: SOLVENT B H2O(0.1%HCOOH)
MS$FOCUSED_ION: PRECURSOR_M/Z 196.09734
MS$FOCUSED_ION: PRECURSOR_TYPE [M+H]+
PK$SPLASH: splash10-001r-1900000000-f5b35a51eb71bdd8a479
PK$NUM_PEAK: 8
PK$PEAK: m/z int. rel.int.
  91.0552 776.5 325
  105.0710 906.3 379
  119.0508 350.6 147
  133.0658 2387 999
  136.0770 1368 573
  161.0612 373.9 156
  179.0707 1083 453
  196.0973 431.7 181
//
