ACCESSION: MSBNK-RIKEN-PR304303
RECORD_TITLE: Soyasaponin Bb; LC-ESI-QTOF; MS2
DATE: 2019.03.28
AUTHORS: Tetsuya Mori, Center for Sustainable Resource Science, RIKEN
LICENSE: CC BY-NC-SA
PUBLICATION: Tsugawa H., Nakabayashi R., Mori T., Yamada Y., Takahashi M., Rai A., Sugiyama R., Yamamoto H., Nakaya T., Yamazaki M., Kooke R., Bac-Molenaar JA., Oztolan-Erol N., Keurentjes JJB., Arita M., Saito K. (2019) "A cheminformatics approach to characterize metabolomes in stable-isotope-labeled organisms" Nature Methods 16(4):295-298. [doi:10.1038/s41592-019-0358-2]
COMMENT: registered in RIKEN PlaSMA
CH$NAME: Soyasaponin Bb
CH$COMPOUND_CLASS: Triterpene saponins
CH$FORMULA: C48H78O18
CH$EXACT_MASS: 943.134
CH$SMILES: C[C@@H]1O[C@@H](O[C@@H]2[C@@H](O)[C@@H](O)[C@@H](CO)O[C@H]2O[C@@H]2[C@@H](O)[C@H](O)[C@H](O[C@H]2O[C@H]2CC[C@@]3(C)[C@@H](CC[C@]4(C)[C@@H]3CC=C3[C@@H]5CC(C)(C)C[C@@H](O)[C@]5(C)CC[C@@]43C)[C@@]2(C)CO)C(O)=O)[C@H](O)[C@H](O)[C@H]1O
CH$IUPAC: InChI=1S/C48H78O18/c1-21-29(52)31(54)35(58)40(61-21)65-37-32(55)30(53)24(19-49)62-41(37)66-38-34(57)33(56)36(39(59)60)64-42(38)63-28-12-13-45(5)25(46(28,6)20-50)11-14-48(8)26(45)10-9-22-23-17-43(2,3)18-27(51)44(23,4)15-16-47(22,48)7/h9,21,23-38,40-42,49-58H,10-20H2,1-8H3,(H,59,60)/t21-,23-,24+,25+,26+,27+,28-,29-,30-,31+,32-,33-,34-,35+,36-,37+,38+,40-,41-,42+,44+,45-,46+,47+,48+/m0/s1
CH$LINK: INCHIKEY PTDAHAWQAGSZDD-IOVCITQVSA-N
AC$INSTRUMENT: LC, Waters Acquity UPLC System; MS, Waters Xevo G2 Q-Tof
AC$INSTRUMENT_TYPE: LC-ESI-QTOF
AC$MASS_SPECTROMETRY: MS_TYPE MS2
AC$MASS_SPECTROMETRY: ION_MODE POSITIVE
AC$MASS_SPECTROMETRY: COLLISION_ENERGY 6V
AC$MASS_SPECTROMETRY: DESOLVATION_GAS_FLOW 800/h
AC$MASS_SPECTROMETRY: DESOLVATION_TEMPERATURE 450 C
AC$MASS_SPECTROMETRY: IONIZATION ESI
AC$CHROMATOGRAPHY: CAPILLARY_VOLTAGE +3.00 kV
AC$CHROMATOGRAPHY: COLUMN_NAME Acquity bridged ethyl hybrid C18 (1.7 um, 2.1 mm * 100 mm, Waters)
AC$CHROMATOGRAPHY: COLUMN_TEMPERATURE 40 C
AC$CHROMATOGRAPHY: FLOW_GRADIENT A/B = (99.5%/0.5% at 0 min, 99.5%/0.5% at 0.1 min, 20%/80% at 10 min, 0.5%/99.5% at 10.1 min, 0.5%/99.5% at 12.0 min, 99.5%/0.5% at 12.1 min, 99.5%/0.5% at 15.0 min)
AC$CHROMATOGRAPHY: FLOW_RATE 0.3 ml/min at 0 min, 0.3 ml/min at 10 min, 0.4 ml/min at 10.1 min, 0.4 ml/min at 14.4 min, 0.3 ml/min at 14.5 min
AC$CHROMATOGRAPHY: RETENTION_TIME 7.092883
AC$CHROMATOGRAPHY: SOLVENT A water including 0.1% formic acid
AC$CHROMATOGRAPHY: SOLVENT B acetonitrile including 0.1% formic acid
MS$FOCUSED_ION: PRECURSOR_TYPE [M+H]+
MS$FOCUSED_ION: PRECURSOR_M/Z 943.5260921
PK$SPLASH: splash10-0fi3-1971200000-7d906783ffde6b387d47
PK$NUM_PEAK: 532
PK$PEAK: m/z int. rel.int.
  67.36834 14.0 14
  69.03458 13.0 13
  69.06079 10.0 10
  71.03583 10.0 10
  71.0494 134.0 134
  71.71146 18.0 18
  73.02924 11.0 11
  75.04306 34.0 34
  75.05037 11.0 11
  75.52268 11.0 11
  81.06805 32.0 32
  82.07384 35.0 35
  83.04916 53.0 53
  84.08958 11.0 11
  85.01443 19.0 19
  85.02855 341.0 341
  87.03282 9.0 9
  88.05161 17.0 17
  90.37443 9.0 9
  91.03919 22.0 22
  93.06741 21.0 21
  95.08665 270.0 270
  97.03001 113.0 113
  97.06397 29.0 29
  97.10067 34.0 34
  97.62218 12.0 12
  99.03474 9.0 9
  99.04095 9.0 9
  99.0775 12.0 12
  101.02314 11.0 11
  101.0626 14.0 14
  101.68327 9.0 9
  105.05208 10.0 10
  105.06622 25.0 25
  105.07357 19.0 19
  106.06756 11.0 11
  107.08605 147.0 147
  108.08978 10.0 10
  109.02746 10.0 10
  109.10094 391.0 391
  109.11301 13.0 13
  109.65858 10.0 10
  110.10508 22.0 22
  111.04453 39.0 39
  111.0517 9.0 9
  111.07974 94.0 94
  111.08829 10.0 10
  111.99818 9.0 9
  113.00164 18.0 18
  113.02079 21.0 21
  113.02745 12.0 12
  119.08182 39.0 39
  119.08774 47.0 47
  119.66296 10.0 10
  121.09902 121.0 121
  122.09564 11.0 11
  122.11193 14.0 14
  123.00958 28.0 28
  123.09238 13.0 13
  123.10702 10.0 10
  123.11687 146.0 146
  124.11616 13.0 13
  124.12363 10.0 10
  125.09557 21.0 21
  125.1281 9.0 9
  127.03059 9.0 9
  127.04028 43.0 43
  127.11135 9.0 9
  129.0399 10.0 10
  129.05499 401.0 401
  129.06798 10.0 10
  129.33821 12.0 12
  130.05769 53.0 53
  131.09245 33.0 33
  133.08652 21.0 21
  133.10197 139.0 139
  134.10365 39.0 39
  134.1169 12.0 12
  135.11652 279.0 279
  136.12042 26.0 26
  136.12503 11.0 11
  137.10066 12.0 12
  137.12711 21.0 21
  137.133 46.0 46
  137.14185 10.0 10
  138.09253 11.0 11
  139.03894 11.0 11
  139.10909 101.0 101
  139.38007 10.0 10
  140.12134 11.0 11
  141.01808 876.0 875
  142.02249 32.0 32
  142.56644 10.0 10
  145.04706 61.0 61
  145.05411 22.0 22
  145.0983 46.0 46
  145.10965 9.0 9
  145.70131 10.0 10
  147.04372 12.0 12
  147.06511 101.0 101
  147.11526 127.0 127
  147.12299 90.0 90
  148.06056 9.0 9
  148.06802 10.0 10
  148.07808 16.0 16
  148.11777 12.0 12
  148.12982 13.0 13
  149.13203 315.0 315
  150.13614 49.0 49
  150.14438 11.0 11
  150.7919 9.0 9
  151.10684 13.0 13
  151.11627 12.0 12
  151.14488 20.0 20
  151.15408 13.0 13
  152.11066 21.0 21
  152.12102 11.0 11
  152.13696 9.0 9
  153.13054 9.0 9
  153.13809 11.0 11
  157.04713 9.0 9
  157.05293 11.0 11
  158.10036 16.0 16
  159.02975 336.0 336
  159.06662 13.0 13
  159.1122 80.0 80
  159.12181 30.0 30
  160.03879 10.0 10
  160.11971 11.0 11
  160.12648 19.0 19
  160.49394 10.0 10
  161.10165 9.0 9
  161.13136 250.0 250
  162.1356 10.0 10
  162.14183 19.0 19
  163.05879 130.0 130
  163.09819 14.0 14
  163.10536 10.0 10
  163.12045 12.0 12
  163.13148 13.0 13
  163.14944 303.0 303
  164.06721 13.0 13
  164.1472 9.0 9
  164.15369 11.0 11
  165.01147 10.0 10
  165.02124 10.0 10
  165.06364 11.0 11
  165.10945 11.0 11
  165.12511 53.0 53
  165.13405 45.0 45
  165.15532 25.0 25
  166.13254 10.0 10
  167.14328 38.0 38
  169.09702 9.0 9
  171.05132 11.0 11
  171.06673 20.0 20
  171.07535 10.0 10
  171.11034 44.0 44
  171.12445 11.0 11
  172.0717 14.0 14
  172.12071 10.0 10
  173.04445 20.0 20
  173.09206 13.0 13
  173.12761 67.0 67
  173.13826 56.0 56
  174.04245 10.0 10
  174.13405 19.0 19
  174.53894 14.0 14
  175.14713 419.0 419
  176.15073 37.0 37
  176.15968 10.0 10
  176.43678 11.0 11
  177.02757 26.0 26
  177.04147 66.0 66
  177.05859 15.0 15
  177.1259 21.0 21
  177.14304 15.0 15
  177.16185 412.0 412
  178.04147 20.0 20
  178.16794 42.0 42
  179.14142 30.0 30
  179.18369 40.0 40
  180.17909 11.0 11
  183.0287 12.0 12
  183.05698 13.0 13
  183.09261 11.0 11
  185.12944 11.0 11
  186.7379 9.0 9
  187.10722 9.0 9
  187.14781 280.0 280
  188.14653 21.0 21
  188.15881 25.0 25
  189.16338 444.0 444
  190.16789 104.0 104
  191.1416 53.0 53
  191.1739 114.0 114
  191.1824 104.0 104
  192.18535 9.0 9
  193.15781 137.0 137
  193.20312 10.0 10
  194.16116 57.0 57
  194.18216 9.0 9
  195.17154 141.0 141
  195.18411 24.0 24
  196.18198 18.0 18
  199.06592 11.0 11
  199.13942 31.0 31
  201.14696 9.0 9
  201.16373 233.0 233
  201.1803 27.0 27
  202.16945 69.0 69
  203.13582 30.0 30
  203.15158 10.0 10
  203.17992 967.0 966
  203.24979 18.0 18
  203.37944 11.0 11
  203.42671 10.0 10
  204.146 11.0 11
  204.15378 13.0 13
  204.16783 29.0 29
  204.18405 106.0 106
  205.13101 14.0 14
  205.16011 73.0 73
  205.19612 87.0 87
  206.16447 20.0 20
  206.19421 36.0 36
  207.17015 106.0 106
  207.18161 78.0 78
  207.2086 9.0 9
  208.17311 29.0 29
  208.18748 21.0 21
  208.87228 10.0 10
  209.05725 10.0 10
  209.08522 10.0 10
  209.18065 10.0 10
  211.14345 30.0 30
  212.15015 10.0 10
  212.81308 9.0 9
  213.07219 23.0 23
  213.16098 42.0 42
  214.03847 11.0 11
  214.17735 36.0 36
  215.12387 11.0 11
  215.13443 11.0 11
  215.1487 20.0 20
  215.17943 313.0 313
  216.06146 9.0 9
  216.18132 86.0 86
  216.21169 11.0 11
  217.15141 26.0 26
  217.19458 576.0 575
  217.21303 19.0 19
  218.19809 87.0 87
  219.1131 9.0 9
  219.1586 18.0 18
  219.17497 336.0 336
  219.20093 9.0 9
  219.21896 9.0 9
  220.18066 97.0 97
  220.21704 20.0 20
  221.18333 86.0 86
  221.1935 121.0 121
  221.20825 9.0 9
  222.19557 33.0 33
  223.0587 19.0 19
  223.06619 23.0 23
  223.20245 32.0 32
  226.45258 9.0 9
  227.13985 11.0 11
  227.17216 39.0 39
  227.18477 67.0 67
  228.17821 22.0 22
  228.19255 11.0 11
  229.02521 14.0 14
  229.19481 419.0 419
  230.19604 36.0 36
  230.20471 39.0 39
  230.30559 9.0 9
  231.02069 11.0 11
  231.1627 10.0 10
  231.1769 32.0 32
  231.19456 9.0 9
  231.21283 41.0 41
  231.22552 11.0 11
  232.21523 13.0 13
  233.05257 11.0 11
  233.16541 9.0 9
  233.18964 142.0 142
  233.20757 18.0 18
  234.19141 9.0 9
  235.19135 14.0 14
  235.20479 19.0 19
  236.19725 12.0 12
  241.07732 9.0 9
  241.17581 11.0 11
  241.19545 43.0 43
  243.05275 13.0 13
  243.20967 181.0 181
  244.21748 41.0 41
  244.37706 12.0 12
  244.71786 11.0 11
  245.16803 9.0 9
  245.1902 88.0 88
  245.2066 14.0 14
  246.17188 9.0 9
  246.19211 20.0 20
  247.13574 12.0 12
  247.19157 45.0 45
  247.20766 245.0 245
  247.23169 11.0 11
  248.21227 65.0 65
  248.69568 10.0 10
  249.18068 11.0 11
  251.17445 10.0 10
  252.09633 10.0 10
  253.18178 12.0 12
  253.19649 11.0 11
  253.20792 9.0 9
  254.203 21.0 21
  254.21422 11.0 11
  255.04141 9.0 9
  255.07721 20.0 20
  255.19749 28.0 28
  255.21399 104.0 104
  256.09412 15.0 15
  256.21124 24.0 24
  256.9696 10.0 10
  257.18289 9.0 9
  257.20395 18.0 18
  257.2222 59.0 59
  257.2319 80.0 80
  258.20602 13.0 13
  258.22272 11.0 11
  258.24203 23.0 23
  259.07657 21.0 21
  259.20175 20.0 20
  259.21454 50.0 50
  259.24374 11.0 11
  259.80176 9.0 9
  261.06998 10.0 10
  261.22241 125.0 125
  262.23447 25.0 25
  263.21698 10.0 10
  265.23599 9.0 9
  267.21191 20.0 20
  267.97235 9.0 9
  268.21368 12.0 12
  268.23047 9.0 9
  269.03955 10.0 10
  269.06198 14.0 14
  269.21677 38.0 38
  269.22861 85.0 85
  270.21143 9.0 9
  270.22247 10.0 10
  271.20377 10.0 10
  271.21814 10.0 10
  271.23364 51.0 51
  271.25259 29.0 29
  272.20905 45.0 45
  272.24951 11.0 11
  273.18475 11.0 11
  273.21957 67.0 67
  273.23181 36.0 36
  273.8869 11.0 11
  274.22922 10.0 10
  275.22281 17.0 17
  275.23761 102.0 102
  275.79355 10.0 10
  276.25 10.0 10
  277.16119 16.0 16
  278.25287 9.0 9
  278.97662 11.0 11
  280.15018 9.0 9
  281.22614 22.0 22
  281.40918 11.0 11
  282.23422 11.0 11
  282.24353 9.0 9
  283.2392 44.0 44
  283.25021 65.0 65
  284.24466 19.0 19
  285.06183 12.0 12
  285.2193 28.0 28
  285.22791 10.0 10
  285.25424 46.0 46
  287.08185 13.0 13
  287.1925 10.0 10
  287.23383 37.0 37
  287.24716 22.0 22
  289.25134 14.0 14
  295.22998 18.0 18
  295.241 25.0 25
  295.62878 11.0 11
  296.24951 10.0 10
  297.25409 81.0 81
  297.92218 11.0 11
  298.25119 21.0 21
  298.27203 18.0 18
  299.23315 11.0 11
  299.26587 10.0 10
  300.24802 44.0 44
  301.25626 29.0 29
  302.29221 20.0 20
  305.09268 31.0 31
  305.12738 10.0 10
  306.09256 11.0 11
  309.12698 9.0 9
  309.25836 18.0 18
  310.11731 10.0 10
  310.26035 20.0 20
  311.26721 59.0 59
  311.2767 19.0 19
  312.28033 22.0 22
  313.25256 71.0 71
  315.0365 10.0 10
  315.16214 10.0 10
  315.24908 13.0 13
  315.26749 42.0 42
  315.31335 18.0 18
  315.56909 10.0 10
  316.24478 10.0 10
  316.27148 21.0 21
  323.23355 19.0 19
  323.27032 9.0 9
  325.15039 10.0 10
  325.27844 9.0 9
  325.31073 10.0 10
  327.26706 9.0 9
  329.18463 10.0 10
  329.27194 37.0 37
  329.28516 88.0 88
  330.28558 16.0 16
  333.93802 9.0 9
  335.26727 18.0 18
  339.01221 16.0 16
  339.26205 11.0 11
  339.30804 10.0 10
  341.03958 9.0 9
  343.28983 11.0 11
  351.1694 22.0 22
  351.3009 10.0 10
  352.17587 10.0 10
  352.29977 13.0 13
  353.18585 13.0 13
  355.29889 10.0 10
  361.19135 13.0 13
  362.30414 9.0 9
  363.2955 16.0 16
  364.31256 36.0 36
  365.0788 10.0 10
  365.26523 13.0 13
  365.31161 45.0 45
  365.32428 125.0 125
  366.23929 13.0 13
  366.32208 76.0 76
  366.7374 10.0 10
  367.29797 19.0 19
  367.34518 18.0 18
  368.33148 9.0 9
  369.31274 107.0 107
  369.84503 9.0 9
  371.28961 10.0 10
  375.79935 11.0 11
  377.30725 10.0 10
  379.20233 10.0 10
  379.32303 10.0 10
  379.5134 10.0 10
  380.31537 11.0 11
  381.29764 23.0 23
  381.32449 10.0 10
  382.31833 10.0 10
  383.31796 45.0 45
  383.33478 57.0 57
  383.362 9.0 9
  384.31894 10.0 10
  384.34308 10.0 10
  391.20377 14.0 14
  391.22824 10.0 10
  391.3476 12.0 12
  393.35464 20.0 20
  395.37289 28.0 28
  405.22504 10.0 10
  405.35284 265.0 265
  405.37463 25.0 25
  406.3392 10.0 10
  406.35922 95.0 95
  407.36029 25.0 25
  411.3642 63.0 63
  411.38184 9.0 9
  411.8988 14.0 14
  412.37134 33.0 33
  415.85547 10.0 10
  421.34857 9.0 9
  423.32431 21.0 21
  423.36172 1000.0 999
  423.3999 10.0 10
  423.99026 9.0 9
  424.32346 20.0 20
  424.36829 411.0 411
  424.39584 22.0 22
  425.33987 10.0 10
  425.36435 26.0 26
  426.35565 11.0 11
  431.32187 14.0 14
  431.33585 13.0 13
  435.3074 12.0 12
  435.34961 9.0 9
  436.38345 10.0 10
  438.32782 10.0 10
  441.36047 57.0 57
  441.37943 168.0 168
  441.42072 11.0 11
  442.38364 91.0 91
  443.37939 11.0 11
  451.34616 16.0 16
  453.38083 10.0 10
  462.93674 11.0 11
  493.35107 9.0 9
  528.33209 13.0 13
  538.88599 21.0 21
  545.35126 21.0 21
  554.3999 11.0 11
  563.38391 9.0 9
  581.38 21.0 21
  582.39856 33.0 33
  583.39862 10.0 10
  599.40564 28.0 28
  600.41736 25.0 25
  604.3233 12.0 12
  679.70325 11.0 11
  797.47253 9.0 9
  799.78564 9.0 9
  943.53094 9.0 9
//
