ACCESSION: MSBNK-RIKEN-PR305810
RECORD_TITLE: Luteolin-8-C-glucoside; LC-ESI-QTOF; MS2
DATE: 2019.03.28
AUTHORS: Tetsuya Mori, Center for Sustainable Resource Science, RIKEN
LICENSE: CC BY-NC-SA
PUBLICATION: Tsugawa H., Nakabayashi R., Mori T., Yamada Y., Takahashi M., Rai A., Sugiyama R., Yamamoto H., Nakaya T., Yamazaki M., Kooke R., Bac-Molenaar JA., Oztolan-Erol N., Keurentjes JJB., Arita M., Saito K. (2019) "A cheminformatics approach to characterize metabolomes in stable-isotope-labeled organisms" Nature Methods 16(4):295-298. [doi:10.1038/s41592-019-0358-2]
COMMENT: registered in RIKEN PlaSMA
CH$NAME: Luteolin-8-C-glucoside
CH$COMPOUND_CLASS: Flavonoid 8-C-glycosides
CH$FORMULA: C21H20O11
CH$EXACT_MASS: 448.38
CH$SMILES: OCC1OC(C(O)C(O)C1O)C1=C(O)C=C(O)C2=C1OC(=CC2=O)C1=CC(O)=C(O)C=C1
CH$IUPAC: InChI=1S/C21H20O11/c22-6-14-17(28)18(29)19(30)21(32-14)16-11(26)4-10(25)15-12(27)5-13(31-20(15)16)7-1-2-8(23)9(24)3-7/h1-5,14,17-19,21-26,28-30H,6H2
CH$LINK: INCHIKEY PLAPMLGJVGLZOV-UHFFFAOYSA-N
AC$INSTRUMENT: LC, Waters Acquity UPLC System; MS, Waters Xevo G2 Q-Tof
AC$INSTRUMENT_TYPE: LC-ESI-QTOF
AC$MASS_SPECTROMETRY: MS_TYPE MS2
AC$MASS_SPECTROMETRY: ION_MODE NEGATIVE
AC$MASS_SPECTROMETRY: COLLISION_ENERGY 6V
AC$MASS_SPECTROMETRY: DESOLVATION_GAS_FLOW 800/h
AC$MASS_SPECTROMETRY: DESOLVATION_TEMPERATURE 450 C
AC$MASS_SPECTROMETRY: IONIZATION ESI
AC$CHROMATOGRAPHY: CAPILLARY_VOLTAGE -2.75 kV
AC$CHROMATOGRAPHY: COLUMN_NAME Acquity bridged ethyl hybrid C18 (1.7 um, 2.1 mm * 100 mm, Waters)
AC$CHROMATOGRAPHY: COLUMN_TEMPERATURE 40 C
AC$CHROMATOGRAPHY: FLOW_GRADIENT A/B = (99.5%/0.5% at 0 min, 99.5%/0.5% at 0.1 min, 20%/80% at 10 min, 0.5%/99.5% at 10.1 min, 0.5%/99.5% at 12.0 min, 99.5%/0.5% at 12.1 min, 99.5%/0.5% at 15.0 min)
AC$CHROMATOGRAPHY: FLOW_RATE 0.3 ml/min at 0 min, 0.3 ml/min at 10 min, 0.4 ml/min at 10.1 min, 0.4 ml/min at 14.4 min, 0.3 ml/min at 14.5 min
AC$CHROMATOGRAPHY: RETENTION_TIME 3.7038
AC$CHROMATOGRAPHY: SOLVENT A water including 0.1% formic acid
AC$CHROMATOGRAPHY: SOLVENT B acetonitrile including 0.1% formic acid
MS$FOCUSED_ION: PRECURSOR_TYPE [M-H]-
MS$FOCUSED_ION: PRECURSOR_M/Z 447.09328504783
PK$SPLASH: splash10-004j-0297000000-8e35b6fe8dfc140e2ff6
PK$NUM_PEAK: 161
PK$PEAK: m/z int. rel.int.
  83.01039 8.0 8
  105.03298 7.0 7
  109.02959 11.0 11
  125.20998 10.0 10
  133.02583 52.0 52
  133.03461 28.0 28
  134.02969 13.0 13
  135.04169 9.0 9
  143.08342 12.0 12
  145.02902 5.0 5
  147.04192 47.0 47
  148.01547 16.0 16
  148.04741 11.0 11
  151.04068 7.0 7
  155.09145 6.0 6
  160.00896 8.0 8
  161.02242 9.0 9
  162.02551 12.0 12
  162.99956 21.0 21
  163.03703 47.0 47
  164.01759 9.0 9
  165.01752 55.0 55
  165.03197 6.0 6
  173.15916 8.0 8
  174.02553 6.0 6
  175.03069 14.0 14
  175.03712 30.0 30
  175.04755 21.0 21
  175.07889 6.0 6
  177.01207 5.0 5
  177.01797 10.0 10
  177.05154 6.0 6
  178.99492 7.0 7
  179.03568 24.0 24
  181.0571 5.0 5
  189.01738 6.0 6
  190.02959 6.0 6
  190.99101 5.0 5
  191.02979 58.0 58
  191.04761 10.0 10
  192.04037 7.0 7
  193.00298 7.0 7
  193.01949 10.0 10
  193.07219 7.0 7
  193.42912 7.0 7
  195.04544 8.0 8
  197.02174 13.0 13
  197.05655 7.0 7
  199.03351 12.0 12
  199.0423 19.0 19
  201.02048 11.0 11
  203.03616 13.0 13
  205.01666 9.0 9
  205.05455 5.0 5
  211.03427 5.0 5
  211.07306 5.0 5
  212.04149 6.0 6
  212.04961 5.0 5
  212.07477 6.0 6
  213.0428 15.0 15
  213.05586 6.0 6
  215.02917 12.0 12
  215.04715 7.0 7
  217.04729 6.0 6
  217.05502 13.0 13
  221.0352 6.0 6
  223.08354 7.0 7
  225.04845 9.0 9
  226.97324 13.0 13
  227.03384 17.0 17
  227.06593 8.0 8
  227.13609 7.0 7
  229.04259 5.0 5
  230.04178 5.0 5
  230.69174 7.0 7
  231.02737 7.0 7
  231.05859 7.0 7
  231.07445 6.0 6
  233.06262 6.0 6
  234.03545 5.0 5
  239.03157 5.0 5
  240.03542 12.0 12
  240.05238 5.0 5
  241.04019 17.0 17
  242.01067 6.0 6
  242.02435 6.0 6
  242.05063 7.0 7
  243.02153 13.0 13
  243.05464 14.0 14
  251.03812 8.0 8
  253.03593 8.0 8
  253.04874 16.0 16
  254.06702 7.0 7
  255.03136 21.0 21
  255.0533 7.0 7
  255.06511 30.0 30
  256.02826 10.0 10
  257.03598 6.0 6
  261.37604 5.0 5
  265.05548 7.0 7
  267.03281 6.0 6
  269.04193 34.0 34
  270.05679 6.0 6
  281.04916 5.0 5
  282.05423 5.0 5
  283.0531 23.0 23
  283.06784 5.0 5
  284.03372 166.0 166
  284.0546 7.0 7
  285.01901 14.0 14
  285.04111 181.0 181
  286.02979 8.0 8
  286.04422 14.0 14
  287.02472 7.0 7
  287.06357 7.0 7
  293.03305 5.0 5
  295.06064 8.0 8
  295.30603 5.0 5
  297.0289 93.0 93
  297.03949 373.0 373
  297.07928 5.0 5
  298.04456 255.0 255
  298.991 8.0 8
  299.05606 531.0 530
  299.39041 5.0 5
  300.05832 82.0 82
  301.05493 10.0 10
  302.05515 5.0 5
  309.03708 17.0 17
  311.05408 106.0 106
  312.05618 12.0 12
  312.07022 6.0 6
  313.04675 6.0 6
  314.03619 6.0 6
  324.02182 35.0 35
  324.0383 5.0 5
  325.02414 6.0 6
  325.04013 18.0 18
  326.04715 6.0 6
  327.05005 1000.0 999
  327.08932 6.0 6
  328.05322 178.0 178
  329.04172 9.0 9
  329.05219 12.0 12
  329.06564 19.0 19
  330.06592 6.0 6
  337.03784 8.0 8
  337.06094 8.0 8
  338.08243 6.0 6
  339.04092 38.0 38
  339.05707 28.0 28
  340.04349 16.0 16
  355.08368 5.0 5
  357.02795 6.0 6
  357.05826 103.0 103
  357.07663 37.0 37
  358.04056 5.0 5
  369.04865 6.0 6
  369.0636 20.0 20
  393.05847 6.0 6
  418.09982 12.0 12
//
