ACCESSION: MSBNK-RIKEN-PR311184
RECORD_TITLE: Rhoeadine; LC-ESI-QTOF; MS2
DATE: 2019.03.28
AUTHORS: Tetsuya Mori, Center for Sustainable Resource Science, RIKEN
LICENSE: CC BY-NC-SA
PUBLICATION: Tsugawa H., Nakabayashi R., Mori T., Yamada Y., Takahashi M., Rai A., Sugiyama R., Yamamoto H., Nakaya T., Yamazaki M., Kooke R., Bac-Molenaar JA., Oztolan-Erol N., Keurentjes JJB., Arita M., Saito K. (2019) "A cheminformatics approach to characterize metabolomes in stable-isotope-labeled organisms" Nature Methods 16(4):295-298. [doi:10.1038/s41592-019-0358-2]
COMMENT: Annotation level-1
CH$NAME: Rhoeadine
CH$COMPOUND_CLASS: Alkaloids
CH$FORMULA: C21H21NO6
CH$EXACT_MASS: 383.4
CH$SMILES: COC1OC2C(N(C)CCC3=C2C=C2OCOC2=C3)C2=C1C1=C(OCO1)C=C2
CH$IUPAC: InChI=1S/C21H21NO6/c1-22-6-5-11-7-15-16(26-9-25-15)8-13(11)19-18(22)12-3-4-14-20(27-10-24-14)17(12)21(23-2)28-19/h3-4,7-8,18-19,21H,5-6,9-10H2,1-2H3
CH$LINK: INCHIKEY XRBIHOLQAKITPP-UHFFFAOYSA-N
AC$INSTRUMENT: LC, Waters Acquity UPLC System; MS, Waters Xevo G2 Q-Tof
AC$INSTRUMENT_TYPE: LC-ESI-QTOF
AC$MASS_SPECTROMETRY: MS_TYPE MS2
AC$MASS_SPECTROMETRY: ION_MODE POSITIVE
AC$MASS_SPECTROMETRY: COLLISION_ENERGY 6V
AC$MASS_SPECTROMETRY: DESOLVATION_GAS_FLOW 800/h
AC$MASS_SPECTROMETRY: DESOLVATION_TEMPERATURE 450 C
AC$MASS_SPECTROMETRY: IONIZATION ESI
AC$CHROMATOGRAPHY: CAPILLARY_VOLTAGE +3.00 kV
AC$CHROMATOGRAPHY: COLUMN_NAME Acquity bridged ethyl hybrid C18 (1.7 um, 2.1 mm * 100 mm, Waters)
AC$CHROMATOGRAPHY: COLUMN_TEMPERATURE 40 C
AC$CHROMATOGRAPHY: FLOW_GRADIENT A/B = (99.5%/0.5% at 0 min, 99.5%/0.5% at 0.1 min, 20%/80% at 10 min, 0.5%/99.5% at 10.1 min, 0.5%/99.5% at 12.0 min, 99.5%/0.5% at 12.1 min, 99.5%/0.5% at 15.0 min)
AC$CHROMATOGRAPHY: FLOW_RATE 0.3 ml/min at 0 min, 0.3 ml/min at 10 min, 0.4 ml/min at 10.1 min, 0.4 ml/min at 14.4 min, 0.3 ml/min at 14.5 min
AC$CHROMATOGRAPHY: RETENTION_TIME 4.65
AC$CHROMATOGRAPHY: SOLVENT A water including 0.1% formic acid
AC$CHROMATOGRAPHY: SOLVENT B acetonitrile including 0.1% formic acid
MS$FOCUSED_ION: PRECURSOR_TYPE [M+H]+
MS$FOCUSED_ION: PRECURSOR_M/Z 384.14416
PK$SPLASH: splash10-0ue9-0329000000-644fe3b5139e78e493b7
PK$NUM_PEAK: 395
PK$PEAK: m/z int. rel.int.
  91.05283 37.0 2
  105.06818 20.0 1
  105.07533 20.0 1
  105.27263 37.0 2
  115.49012 17.0 1
  130.06134 79.0 5
  131.05 76.0 5
  132.04636 55.0 4
  132.05673 45.0 3
  132.0799 64.0 4
  133.36684 33.0 2
  135.02757 18.0 1
  135.04727 19.0 1
  135.05443 20.0 1
  136.04778 20.0 1
  140.04872 31.0 2
  145.07063 18.0 1
  147.0405 56.0 4
  148.02037 20.0 1
  148.04549 98.0 7
  148.05545 39.0 3
  149.02069 49.0 3
  149.0367 33.0 2
  149.06169 313.0 21
  150.06944 23.0 2
  151.64684 26.0 2
  158.05951 17.0 1
  159.04286 44.0 3
  159.05403 25.0 2
  159.06958 61.0 4
  160.07397 32.0 2
  160.71196 29.0 2
  161.02684 17.0 1
  161.03987 23.0 2
  161.05801 140.0 9
  162.08076 52.0 3
  162.17897 25.0 2
  163.03719 99.0 7
  163.06635 71.0 5
  163.07704 122.0 8
  164.04108 45.0 3
  164.05548 21.0 1
  164.34927 36.0 2
  165.06705 20.0 1
  166.06123 27.0 2
  168.03178 23.0 2
  172.07158 21.0 1
  174.04465 27.0 2
  175.03935 19.0 1
  175.05562 18.0 1
  175.06767 149.0 10
  175.07855 77.0 5
  176.05066 21.0 1
  176.07036 153.0 10
  177.05936 40.0 3
  177.06937 95.0 6
  177.08496 59.0 4
  179.08868 47.0 3
  181.07101 20.0 1
  186.05247 29.0 2
  187.99454 17.0 1
  188.02359 27.0 2
  188.03088 23.0 2
  188.04556 41.0 3
  188.07014 3418.0 230
  188.13469 17.0 1
  189.0285 19.0 1
  189.05115 30.0 2
  189.07852 1059.0 71
  189.73996 40.0 3
  190.02805 23.0 2
  190.04935 390.0 26
  190.08658 7308.0 491
  190.12163 24.0 2
  191.04646 91.0 6
  191.06691 25.0 2
  191.0871 671.0 45
  191.09416 519.0 35
  192.08194 22.0 1
  192.09526 35.0 2
  193.06377 61.0 4
  193.09695 32.0 2
  193.43887 31.0 2
  193.85553 22.0 1
  195.0793 38.0 3
  195.09402 19.0 1
  195.5246 24.0 2
  199.56387 17.0 1
  201.06693 19.0 1
  203.09138 20.0 1
  204.06476 80.0 5
  204.08206 20.0 1
  204.09515 26.0 2
  204.29819 21.0 1
  205.06247 322.0 22
  205.07416 149.0 10
  206.06624 127.0 9
  207.03235 17.0 1
  207.07753 97.0 7
  207.08846 17.0 1
  208.11057 27.0 2
  209.04668 20.0 1
  209.05998 19.0 1
  210.82103 21.0 1
  211.36893 18.0 1
  212.06342 30.0 2
  213.07182 20.0 1
  213.87196 31.0 2
  216.05266 25.0 2
  216.06743 23.0 2
  217.05377 82.0 6
  217.0679 125.0 8
  217.08545 20.0 1
  218.06955 17.0 1
  219.06819 22.0 1
  219.0813 42.0 3
  220.07169 45.0 3
  220.94177 26.0 2
  221.05353 74.0 5
  221.06209 75.0 5
  222.88354 20.0 1
  223.06453 21.0 1
  223.08107 53.0 4
  223.08698 20.0 1
  223.10536 20.0 1
  223.11578 21.0 1
  225.09712 45.0 3
  227.86133 19.0 1
  228.46423 17.0 1
  230.09119 20.0 1
  232.0425 49.0 3
  232.89259 17.0 1
  233.02251 20.0 1
  233.06085 452.0 30
  233.07756 22.0 1
  234.06271 102.0 7
  234.09654 47.0 3
  235.04601 21.0 1
  235.07503 566.0 38
  235.10179 18.0 1
  236.04482 24.0 2
  236.07687 135.0 9
  236.11142 22.0 1
  237.05379 119.0 8
  237.08333 22.0 1
  237.09659 29.0 2
  237.11104 28.0 2
  237.12157 20.0 1
  238.05191 18.0 1
  238.09888 51.0 3
  239.79135 17.0 1
  242.90665 28.0 2
  245.06519 137.0 9
  246.0679 68.0 5
  246.08839 74.0 5
  246.09813 52.0 3
  247.0018 18.0 1
  247.07341 155.0 10
  247.09427 20.0 1
  248.05206 17.0 1
  248.07884 121.0 8
  248.10623 23.0 2
  249.04437 45.0 3
  249.05573 135.0 9
  249.08363 18.0 1
  249.12233 27.0 2
  250.07848 72.0 5
  250.08975 81.0 5
  250.33606 30.0 2
  251.05679 20.0 1
  251.07353 179.0 12
  252.07744 22.0 1
  252.10336 39.0 3
  253.08392 24.0 2
  257.07257 19.0 1
  257.95575 39.0 3
  258.08752 23.0 2
  259.08289 26.0 2
  261.04498 139.0 9
  261.05707 238.0 16
  261.07413 68.0 5
  261.59372 17.0 1
  262.06158 91.0 6
  262.0777 75.0 5
  262.09006 105.0 7
  263.07059 598.0 40
  263.07999 204.0 14
  263.10236 63.0 4
  263.70892 20.0 1
  264.07379 184.0 12
  264.10736 21.0 1
  265.08286 45.0 3
  265.09335 17.0 1
  265.10654 19.0 1
  265.90369 17.0 1
  266.05475 18.0 1
  266.10535 28.0 2
  266.11398 24.0 2
  267.05692 18.0 1
  267.06915 44.0 3
  268.13062 37.0 2
  268.14111 59.0 4
  268.71146 24.0 2
  269.14645 43.0 3
  269.2272 20.0 1
  271.04688 33.0 2
  273.05508 62.0 4
  274.05075 21.0 1
  274.07196 20.0 1
  274.09738 17.0 1
  275.0524 51.0 3
  275.07489 144.0 10
  275.09192 44.0 3
  275.10681 21.0 1
  276.06894 40.0 3
  276.08063 25.0 2
  276.10129 59.0 4
  276.11108 42.0 3
  277.07495 135.0 9
  277.0907 39.0 3
  277.10477 47.0 3
  277.1174 27.0 2
  277.53558 21.0 1
  278.04031 27.0 2
  278.0546 20.0 1
  278.06601 27.0 2
  278.0845 119.0 8
  278.11975 23.0 2
  279.05307 47.0 3
  279.07162 143.0 10
  280.07272 44.0 3
  281.05191 22.0 1
  281.06921 17.0 1
  281.08514 18.0 1
  281.50507 19.0 1
  282.11679 43.0 3
  282.15756 20.0 1
  289.04599 23.0 2
  289.09103 30.0 2
  289.75601 17.0 1
  290.06387 22.0 1
  290.08566 117.0 8
  290.48773 17.0 1
  291.02283 26.0 2
  291.06625 472.0 32
  291.08133 149.0 10
  292.0452 19.0 1
  292.06552 70.0 5
  292.08374 62.0 4
  292.09384 49.0 3
  292.11496 20.0 1
  293.06363 66.0 4
  293.07928 280.0 19
  294.07938 138.0 9
  294.11392 184.0 12
  295.05228 70.0 5
  295.10446 38.0 3
  295.11868 24.0 2
  301.04095 26.0 2
  302.97192 20.0 1
  303.00513 40.0 3
  303.04352 132.0 9
  303.06381 1327.0 89
  303.10236 39.0 3
  303.46817 21.0 1
  304.05325 100.0 7
  304.07028 295.0 20
  304.0947 128.0 9
  304.10736 52.0 3
  305.05566 46.0 3
  305.08252 43.0 3
  305.10385 32.0 2
  305.11868 40.0 3
  305.17996 23.0 2
  305.62036 23.0 2
  306.04819 20.0 1
  306.07074 41.0 3
  306.09473 20.0 1
  306.10455 21.0 1
  306.12268 18.0 1
  307.03204 23.0 2
  307.04752 26.0 2
  307.07098 17.0 1
  307.10339 22.0 1
  307.69885 19.0 1
  308.05066 21.0 1
  308.06436 85.0 6
  308.09982 132.0 9
  309.07471 218.0 15
  310.07288 31.0 2
  310.09381 19.0 1
  310.95764 20.0 1
  312.1106 23.0 2
  313.55222 20.0 1
  317.07635 60.0 4
  318.06671 25.0 2
  318.08231 57.0 4
  319.04724 20.0 1
  319.06293 77.0 5
  319.07843 100.0 7
  319.0986 27.0 2
  319.86215 30.0 2
  320.04675 18.0 1
  320.06427 118.0 8
  320.09003 1585.0 107
  320.1272 18.0 1
  321.03848 20.0 1
  321.06833 222.0 15
  321.08658 407.0 27
  321.10263 264.0 18
  322.05029 39.0 3
  322.08691 187.0 13
  322.10934 138.0 9
  322.12665 26.0 2
  323.06833 41.0 3
  323.10553 117.0 8
  323.12799 21.0 1
  324.08881 17.0 1
  324.11945 47.0 3
  324.13373 102.0 7
  324.34839 20.0 1
  325.12619 46.0 3
  326.08453 19.0 1
  326.13098 24.0 2
  327.82385 17.0 1
  330.07269 17.0 1
  332.09082 27.0 2
  332.10434 18.0 1
  333.09064 21.0 1
  333.10739 70.0 5
  334.03455 42.0 3
  334.05814 24.0 2
  334.07318 70.0 5
  334.10669 1992.0 134
  335.04416 18.0 1
  335.0621 46.0 3
  335.08408 23.0 2
  335.10248 172.0 12
  335.12021 526.0 35
  335.94266 17.0 1
  336.07266 76.0 5
  336.08801 71.0 5
  336.11462 121.0 8
  336.12622 29.0 2
  337.07608 84.0 6
  337.08963 146.0 10
  337.10153 109.0 7
  337.1333 22.0 1
  338.08163 39.0 3
  338.10202 60.0 4
  338.95901 20.0 1
  339.104 20.0 1
  347.70352 30.0 2
  350.10242 24.0 2
  351.83691 29.0 2
  352.02725 42.0 3
  352.06363 123.0 8
  352.11655 14522.0 976
  352.1694 76.0 5
  352.27075 22.0 1
  353.05612 36.0 2
  353.07477 35.0 2
  353.1196 3464.0 233
  353.26697 22.0 1
  353.56137 18.0 1
  354.04059 24.0 2
  354.08206 20.0 1
  354.12305 458.0 31
  354.38489 18.0 1
  355.02563 20.0 1
  355.10678 35.0 2
  355.12637 19.0 1
  355.14001 30.0 2
  355.70483 50.0 3
  355.82397 26.0 2
  356.09656 20.0 1
  358.21817 20.0 1
  359.75192 27.0 2
  366.0835 19.0 1
  366.13181 539.0 36
  366.15063 83.0 6
  367.12427 69.0 5
  367.14294 52.0 3
  368.12814 20.0 1
  375.17932 17.0 1
  377.16687 20.0 1
  382.11777 25.0 2
  383.08768 17.0 1
  383.8978 20.0 1
  384.07016 39.0 3
  384.08649 121.0 8
  384.14191 14859.0 999
  384.19757 329.0 22
  384.24203 30.0 2
  384.26617 25.0 2
//
