ACCESSION: MSBNK-RIKEN-PR300212
RECORD_TITLE: Hirsuteine; LC-ESI-QTOF; MS2
DATE: 2019.03.28
AUTHORS: Tetsuya Mori, Center for Sustainable Resource Science, RIKEN
LICENSE: CC BY-NC-SA
PUBLICATION: Tsugawa H., Nakabayashi R., Mori T., Yamada Y., Takahashi M., Rai A., Sugiyama R., Yamamoto H., Nakaya T., Yamazaki M., Kooke R., Bac-Molenaar JA., Oztolan-Erol N., Keurentjes JJB., Arita M., Saito K. (2019) "A cheminformatics approach to characterize metabolomes in stable-isotope-labeled organisms" Nature Methods 16(4):295-298. [doi:10.1038/s41592-019-0358-2]
COMMENT: registered in RIKEN PlaSMA
CH$NAME: Hirsuteine
CH$COMPOUND_CLASS: Corynanthean-type alkaloids
CH$FORMULA: C22H26N2O3
CH$EXACT_MASS: 366.461
CH$SMILES: CO\C=C(/[C@H]1C[C@H]2N(CCC3=C2NC2=CC=CC=C32)C[C@@H]1C=C)C(=O)OC
CH$IUPAC: InChI=1S/C22H26N2O3/c1-4-14-12-24-10-9-16-15-7-5-6-8-19(15)23-21(16)20(24)11-17(14)18(13-26-2)22(25)27-3/h4-8,13-14,17,20,23H,1,9-12H2,2-3H3/b18-13+/t14-,17-,20+/m0/s1
CH$LINK: INCHIKEY TZUGIFAYWNNSAO-AZQGJTAVSA-N
AC$INSTRUMENT: LC, Waters Acquity UPLC System; MS, Waters Xevo G2 Q-Tof
AC$INSTRUMENT_TYPE: LC-ESI-QTOF
AC$MASS_SPECTROMETRY: MS_TYPE MS2
AC$MASS_SPECTROMETRY: ION_MODE POSITIVE
AC$MASS_SPECTROMETRY: COLLISION_ENERGY 6V
AC$MASS_SPECTROMETRY: DESOLVATION_GAS_FLOW 800/h
AC$MASS_SPECTROMETRY: DESOLVATION_TEMPERATURE 450 C
AC$MASS_SPECTROMETRY: IONIZATION ESI
AC$CHROMATOGRAPHY: CAPILLARY_VOLTAGE +3.00 kV
AC$CHROMATOGRAPHY: COLUMN_NAME Acquity bridged ethyl hybrid C18 (1.7 um, 2.1 mm * 100 mm, Waters)
AC$CHROMATOGRAPHY: COLUMN_TEMPERATURE 40 C
AC$CHROMATOGRAPHY: FLOW_GRADIENT A/B = (99.5%/0.5% at 0 min, 99.5%/0.5% at 0.1 min, 20%/80% at 10 min, 0.5%/99.5% at 10.1 min, 0.5%/99.5% at 12.0 min, 99.5%/0.5% at 12.1 min, 99.5%/0.5% at 15.0 min)
AC$CHROMATOGRAPHY: FLOW_RATE 0.3 ml/min at 0 min, 0.3 ml/min at 10 min, 0.4 ml/min at 10.1 min, 0.4 ml/min at 14.4 min, 0.3 ml/min at 14.5 min
AC$CHROMATOGRAPHY: RETENTION_TIME 5.6757
AC$CHROMATOGRAPHY: SOLVENT A water including 0.1% formic acid
AC$CHROMATOGRAPHY: SOLVENT B acetonitrile including 0.1% formic acid
MS$FOCUSED_ION: PRECURSOR_TYPE [M+H]+
MS$FOCUSED_ION: PRECURSOR_M/Z 367.2016192
PK$SPLASH: splash10-0006-0930000000-3544adaeddb0b8eb4910
PK$NUM_PEAK: 192
PK$PEAK: m/z int. rel.int.
  68.04725 8.0 8
  75.04172 13.0 13
  75.04729 12.0 12
  80.0505 8.0 8
  82.06417 25.0 25
  91.05019 6.0 6
  94.06699 7.0 7
  95.04846 24.0 24
  103.05297 5.0 5
  106.06444 21.0 21
  108.08064 73.0 73
  109.06445 52.0 52
  109.08372 11.0 11
  115.05291 13.0 13
  117.07114 13.0 13
  118.06433 35.0 35
  119.07094 6.0 6
  120.07986 24.0 24
  121.0645 41.0 41
  121.08504 6.0 6
  122.09693 5.0 5
  123.0402 7.0 7
  123.04671 7.0 7
  123.08157 6.0 6
  126.08666 18.0 18
  126.09243 31.0 31
  129.05539 45.0 45
  129.06859 11.0 11
  130.06442 57.0 57
  131.07205 14.0 14
  132.05858 7.0 7
  132.07518 7.0 7
  132.08228 13.0 13
  136.07176 8.0 8
  137.06055 30.0 30
  138.05258 9.0 9
  142.06825 10.0 10
  143.07556 7.0 7
  143.08546 10.0 10
  144.05173 9.0 9
  144.08047 1000.0 999
  144.11571 8.0 8
  145.08359 108.0 108
  146.06096 28.0 28
  146.08971 10.0 10
  147.08063 6.0 6
  148.07474 5.0 5
  149.05998 46.0 46
  150.0602 5.0 5
  150.08778 7.0 7
  150.09441 8.0 8
  151.0739 15.0 15
  155.0708 38.0 38
  156.08041 89.0 89
  157.08319 15.0 15
  158.09616 90.0 90
  159.1001 16.0 16
  160.06813 5.0 5
  160.07558 11.0 11
  161.06065 6.0 6
  162.09225 9.0 9
  163.07909 11.0 11
  164.06773 8.0 8
  166.08022 7.0 7
  166.08792 5.0 5
  167.07144 22.0 22
  168.08115 36.0 36
  169.08511 49.0 49
  170.09569 305.0 305
  171.09705 66.0 66
  172.07224 7.0 7
  172.11142 47.0 47
  173.11665 6.0 6
  174.0923 17.0 17
  175.07292 12.0 12
  176.10455 13.0 13
  178.08655 50.0 50
  180.07048 6.0 6
  180.08414 31.0 31
  180.1011 17.0 17
  180.10966 9.0 9
  181.08524 37.0 37
  182.0957 129.0 129
  183.09848 24.0 24
  184.10019 14.0 14
  190.08681 9.0 9
  191.07457 6.0 6
  192.08267 13.0 13
  192.10214 72.0 72
  193.08664 7.0 7
  193.10335 11.0 11
  194.06572 6.0 6
  194.09451 21.0 21
  195.10622 10.0 10
  196.1093 19.0 19
  197.10889 34.0 34
  199.11241 12.0 12
  199.12251 60.0 60
  200.11893 6.0 6
  200.13158 6.0 6
  204.1013 46.0 46
  205.0882 6.0 6
  205.10535 11.0 11
  206.09355 32.0 32
  207.10355 18.0 18
  208.07675 16.0 16
  208.10201 11.0 11
  208.11337 33.0 33
  209.08545 7.0 7
  209.10567 8.0 8
  209.11531 9.0 9
  210.11082 26.0 26
  210.12079 15.0 15
  211.12038 5.0 5
  217.09082 10.0 10
  218.09862 16.0 16
  220.11192 19.0 19
  221.11168 12.0 12
  222.09294 11.0 11
  222.10777 16.0 16
  222.1203 15.0 15
  222.13515 5.0 5
  223.1046 10.0 10
  223.12488 21.0 21
  224.10292 9.0 9
  224.12778 165.0 165
  225.1335 41.0 41
  226.08669 45.0 45
  226.12982 7.0 7
  227.09608 10.0 10
  231.10851 8.0 8
  232.11154 18.0 18
  233.11639 8.0 8
  234.0873 22.0 22
  234.12556 16.0 16
  235.09708 5.0 5
  235.12996 6.0 6
  236.12331 32.0 32
  236.13199 42.0 42
  237.13022 15.0 15
  238.08328 6.0 6
  238.09331 6.0 6
  238.12386 51.0 51
  239.12604 6.0 6
  240.10207 21.0 21
  243.09888 5.0 5
  244.11064 7.0 7
  245.11433 5.0 5
  246.08907 9.0 9
  246.10571 5.0 5
  246.12781 23.0 23
  247.12537 12.0 12
  248.1273 9.0 9
  249.10716 7.0 7
  249.12921 13.0 13
  249.14006 35.0 35
  250.14653 11.0 11
  251.15414 60.0 60
  252.10068 12.0 12
  252.15639 9.0 9
  254.11488 8.0 8
  258.1268 8.0 8
  259.10492 6.0 6
  259.13364 10.0 10
  260.1106 15.0 15
  261.10944 6.0 6
  266.11694 48.0 48
  267.13358 5.0 5
  274.12607 21.0 21
  275.14868 12.0 12
  276.13821 7.0 7
  276.15717 6.0 6
  278.14005 5.0 5
  280.12872 6.0 6
  286.12424 6.0 6
  292.12891 6.0 6
  298.14108 47.0 47
  298.15237 15.0 15
  299.1517 13.0 13
  303.15192 13.0 13
  306.14813 8.0 8
  306.1615 6.0 6
  318.15005 6.0 6
  335.17508 61.0 61
  336.173 11.0 11
  336.18384 10.0 10
  339.15872 13.0 13
  339.1781 7.0 7
  365.18088 8.0 8
  365.19272 10.0 10
  366.19089 5.0 5
  367.20151 105.0 105
//
