ACCESSION: MSBNK-RIKEN-PR040039
RECORD_TITLE: Myricetin; LC-ESI-QTOF; MS2; CE:30 eV; [M+H]+
DATE: 2016.01.19 (Created 2007.11.09, modified 2011.05.06)
AUTHORS: Matsuda F, Plant Science Center, RIKEN.
LICENSE: CC BY-SA
CH$NAME: 3,3',4',5,5',7-hexahydroxyflavone
CH$NAME: Myricetin
CH$NAME: Myrc
CH$NAME: 3,5,7-trihydroxy-2-(3,4,5-trihydroxyphenyl)chromen-4-one
CH$COMPOUND_CLASS: Natural Product
CH$FORMULA: C15H10O8
CH$EXACT_MASS: 318.03757
CH$SMILES: Oc(c3)cc(O1)c(c(O)3)C(=O)C(O)=C1c(c2)cc(O)c(O)c(O)2
CH$IUPAC: InChI=1S/C15H10O8/c16-6-3-7(17)11-10(4-6)23-15(14(22)13(11)21)5-1-8(18)12(20)9(19)2-5/h1-4,16-20,22H
CH$LINK: CAS 529-44-2
CH$LINK: KEGG C10107
CH$LINK: KNAPSACK C00001071
CH$LINK: PUBCHEM CID:5281672
CH$LINK: INCHIKEY IKMDFBPHZNJCSN-UHFFFAOYSA-N
CH$LINK: COMPTOX DTXSID8022400
AC$INSTRUMENT: UPLC Q-Tof Premier, Waters
AC$INSTRUMENT_TYPE: LC-ESI-QTOF
AC$MASS_SPECTROMETRY: MS_TYPE MS2
AC$MASS_SPECTROMETRY: ION_MODE POSITIVE
AC$MASS_SPECTROMETRY: COLLISION_ENERGY 30 eV
AC$MASS_SPECTROMETRY: DATAFORMAT Continuum
AC$MASS_SPECTROMETRY: DESOLVATION_GAS_FLOW 600.0 L/Hr
AC$MASS_SPECTROMETRY: DESOLVATION_TEMPERATURE 400 C
AC$MASS_SPECTROMETRY: FRAGMENTATION_METHOD LOW-ENERGY CID
AC$MASS_SPECTROMETRY: IONIZATION ESI
AC$MASS_SPECTROMETRY: SCANNING 1.0 sec/scan (m/z = 50-1000)
AC$MASS_SPECTROMETRY: SOURCE_TEMPERATURE 120 C
AC$CHROMATOGRAPHY: CAPILLARY_VOLTAGE 3.0 kV
AC$CHROMATOGRAPHY: SAMPLING_CONE 23.0 V
AC$CHROMATOGRAPHY: SOLVENT A CH3CN(0.1%HCOOH)
AC$CHROMATOGRAPHY: SOLVENT B H2O(0.1%HCOOH)
MS$FOCUSED_ION: FULL_SCAN_FRAGMENT_ION_PEAK 319
MS$FOCUSED_ION: ION_TYPE [M+H]+
MS$DATA_PROCESSING: WHOLE MassLynx 4.1
PK$SPLASH: splash10-0uxr-0950000000-55c90a0d932630c6d644
PK$NUM_PEAK: 34
PK$PEAK: m/z int. rel.int.
  68.9871 362 101
  109.0248 358 100
  111.0042 391 109
  121.0260 114 31
  121.0632 116 32
  125.0214 224 62
  137.0223 660 184
  139.0380 114 31
  147.0434 163 45
  153.0181 3568 999
  153.0817 390 109
  161.0594 220 61
  165.0183 647 181
  166.0269 151 42
  171.0443 253 70
  175.0395 139 38
  177.0549 125 34
  179.0340 469 131
  189.0548 490 137
  195.0300 149 41
  199.0402 248 69
  203.0349 416 116
  217.0503 1704 477
  217.1265 147 41
  219.0301 194 54
  227.0354 194 54
  231.0304 115 32
  244.0383 180 50
  245.0451 1495 418
  245.1273 111 31
  255.0293 221 61
  273.0399 693 194
  290.0424 150 41
  319.0454 246 68
//
