ACCESSION: MSBNK-RIKEN-PR303333
RECORD_TITLE: NP-000004(11); LC-ESI-QTOF; MS2
DATE: 2019.03.28
AUTHORS: Tetsuya Mori, Center for Sustainable Resource Science, RIKEN
LICENSE: CC BY-NC-SA
PUBLICATION: Tsugawa H., Nakabayashi R., Mori T., Yamada Y., Takahashi M., Rai A., Sugiyama R., Yamamoto H., Nakaya T., Yamazaki M., Kooke R., Bac-Molenaar JA., Oztolan-Erol N., Keurentjes JJB., Arita M., Saito K. (2019) "A cheminformatics approach to characterize metabolomes in stable-isotope-labeled organisms" Nature Methods 16(4):295-298. [doi:10.1038/s41592-019-0358-2]
COMMENT: registered in RIKEN PlaSMA
CH$NAME: NP-000004(11)
CH$COMPOUND_CLASS: Flavonoid 8-C-glycosides
CH$FORMULA: C26H28O14
CH$EXACT_MASS: 564.496
CH$SMILES: OC[C@@H]1OC([C@H](O)[C@H]1O)C1=C2OC(=CC(=O)C2=C(O)C(C2O[C@H](CO)[C@@H](O)[C@H](O)[C@H]2O)=C1O)C1=CC=C(O)C=C1
CH$IUPAC: InChI=1S/C26H28O14/c27-6-12-17(31)21(35)23(37)25(39-12)15-19(33)14-10(30)5-11(8-1-3-9(29)4-2-8)38-24(14)16(20(15)34)26-22(36)18(32)13(7-28)40-26/h1-5,12-13,17-18,21-23,25-29,31-37H,6-7H2/t12-,13+,17-,18+,21+,22-,23-,25?,26?/m1/s1
CH$LINK: INCHIKEY TUIJPUWSXVFWSH-FBMRRHFKSA-N
AC$INSTRUMENT: LC, Waters Acquity UPLC System; MS, Waters Xevo G2 Q-Tof
AC$INSTRUMENT_TYPE: LC-ESI-QTOF
AC$MASS_SPECTROMETRY: MS_TYPE MS2
AC$MASS_SPECTROMETRY: ION_MODE POSITIVE
AC$MASS_SPECTROMETRY: COLLISION_ENERGY 6V
AC$MASS_SPECTROMETRY: DESOLVATION_GAS_FLOW 800/h
AC$MASS_SPECTROMETRY: DESOLVATION_TEMPERATURE 450 C
AC$MASS_SPECTROMETRY: IONIZATION ESI
AC$CHROMATOGRAPHY: CAPILLARY_VOLTAGE +3.00 kV
AC$CHROMATOGRAPHY: COLUMN_NAME Acquity bridged ethyl hybrid C18 (1.7 um, 2.1 mm * 100 mm, Waters)
AC$CHROMATOGRAPHY: COLUMN_TEMPERATURE 40 C
AC$CHROMATOGRAPHY: FLOW_GRADIENT A/B = (99.5%/0.5% at 0 min, 99.5%/0.5% at 0.1 min, 20%/80% at 10 min, 0.5%/99.5% at 10.1 min, 0.5%/99.5% at 12.0 min, 99.5%/0.5% at 12.1 min, 99.5%/0.5% at 15.0 min)
AC$CHROMATOGRAPHY: FLOW_RATE 0.3 ml/min at 0 min, 0.3 ml/min at 10 min, 0.4 ml/min at 10.1 min, 0.4 ml/min at 14.4 min, 0.3 ml/min at 14.5 min
AC$CHROMATOGRAPHY: RETENTION_TIME 3.55055
AC$CHROMATOGRAPHY: SOLVENT A water including 0.1% formic acid
AC$CHROMATOGRAPHY: SOLVENT B acetonitrile including 0.1% formic acid
MS$FOCUSED_ION: PRECURSOR_TYPE [M+H]+
MS$FOCUSED_ION: PRECURSOR_M/Z 565.155182
PK$SPLASH: splash10-0592-0149000000-e36f5b32f6b4cd8dfe13
PK$NUM_PEAK: 328
PK$PEAK: m/z int. rel.int.
  85.02406 21.0 21
  93.03748 24.0 24
  93.07246 27.0 27
  97.06517 25.0 25
  103.0392 22.0 22
  115.05399 23.0 23
  115.06006 19.0 19
  117.05 13.0 13
  119.04247 21.0 21
  119.05054 86.0 86
  121.00841 24.0 24
  121.01778 26.0 26
  121.02613 163.0 163
  121.03417 89.0 89
  122.02726 24.0 24
  122.03185 70.0 70
  123.03338 16.0 16
  125.19497 22.0 22
  135.03812 18.0 18
  135.06209 14.0 14
  137.02286 17.0 17
  145.02435 37.0 37
  145.03163 72.0 72
  146.60635 12.0 12
  147.02605 23.0 23
  152.06474 29.0 29
  155.04222 19.0 19
  155.04964 21.0 21
  157.02481 16.0 16
  159.05269 15.0 15
  163.03717 13.0 13
  173.0161 54.0 54
  173.02905 21.0 21
  173.05762 33.0 33
  174.02217 25.0 25
  175.03917 50.0 50
  177.01611 67.0 67
  177.02477 39.0 39
  177.04283 16.0 16
  179.08554 29.0 29
  186.03311 30.0 30
  187.03207 27.0 27
  187.04314 31.0 31
  189.02237 91.0 91
  189.05099 16.0 16
  190.02228 15.0 15
  190.35876 14.0 14
  191.04385 16.0 16
  198.15559 19.0 19
  199.03551 54.0 54
  201.02173 35.0 35
  203.0242 17.0 17
  203.0363 99.0 99
  204.045 46.0 46
  205.04501 51.0 51
  207.0307 18.0 18
  209.05832 40.0 40
  210.14127 14.0 14
  210.9162 23.0 23
  211.04308 31.0 31
  211.32962 19.0 19
  213.01045 25.0 25
  213.06288 27.0 27
  215.04276 35.0 35
  216.03752 15.0 15
  217.04298 14.0 14
  217.05353 34.0 34
  218.0242 16.0 16
  219.02229 12.0 12
  221.04678 16.0 16
  221.06313 21.0 21
  225.05013 16.0 16
  226.88145 21.0 21
  227.03162 26.0 26
  227.03761 14.0 14
  228.07156 19.0 19
  228.49588 15.0 15
  229.00652 15.0 15
  229.0403 34.0 34
  231.04411 19.0 19
  232.03777 26.0 26
  233.0571 20.0 20
  237.04779 13.0 13
  239.07542 21.0 21
  240.06377 12.0 12
  241.04416 20.0 20
  241.0533 46.0 46
  243.0105 21.0 21
  243.56908 18.0 18
  245.04263 31.0 31
  245.05186 27.0 27
  251.03717 20.0 20
  253.02971 14.0 14
  253.05368 23.0 23
  253.0891 16.0 16
  255.01073 14.0 14
  255.0396 26.0 26
  255.05209 15.0 15
  256.04431 21.0 21
  257.0343 34.0 34
  257.05005 51.0 51
  258.04086 14.0 14
  259.05365 25.0 25
  259.06079 12.0 12
  259.07727 41.0 41
  261.08701 14.0 14
  263.07803 20.0 20
  264.07523 37.0 37
  267.02808 33.0 33
  267.06769 44.0 44
  268.06668 12.0 12
  268.08051 68.0 68
  269.05328 58.0 58
  270.08365 15.0 15
  271.05664 16.0 16
  273.04337 28.0 28
  276.06281 13.0 13
  278.01593 31.0 31
  279.06006 43.0 43
  279.07376 17.0 17
  279.15265 17.0 17
  280.06183 39.0 39
  280.07751 19.0 19
  280.20908 15.0 15
  281.04202 13.0 13
  281.08212 16.0 16
  283.05927 111.0 111
  284.05978 43.0 43
  284.07471 15.0 15
  284.50964 14.0 14
  285.04681 25.0 25
  285.06076 26.0 26
  286.98514 21.0 21
  289.09375 61.0 61
  293.08237 96.0 96
  294.02783 19.0 19
  294.04639 98.0 98
  294.05685 74.0 74
  294.08392 19.0 19
  295.06168 1000.0 999
  295.09363 37.0 37
  295.11133 24.0 24
  295.91464 12.0 12
  296.02911 20.0 20
  296.05859 79.0 79
  296.07349 101.0 101
  297.03839 20.0 20
  297.0585 19.0 19
  297.07733 52.0 52
  297.08676 56.0 56
  298.09079 18.0 18
  299.08435 22.0 22
  303.08426 24.0 24
  304.06494 13.0 13
  304.07999 16.0 16
  305.06912 12.0 12
  305.08215 32.0 32
  306.08887 15.0 15
  307.03262 89.0 89
  307.05557 271.0 271
  307.06802 186.0 186
  307.10315 29.0 29
  307.86346 14.0 14
  308.06738 403.0 403
  308.08957 16.0 16
  309.06732 107.0 107
  309.07639 245.0 245
  310.07419 19.0 19
  310.09464 52.0 52
  311.09244 14.0 14
  312.078 21.0 21
  313.05487 29.0 29
  313.08044 19.0 19
  315.06195 21.0 21
  316.06238 29.0 29
  317.07602 71.0 71
  317.09882 21.0 21
  318.09314 16.0 16
  319.04544 34.0 34
  319.06787 61.0 61
  320.04095 16.0 16
  320.07098 96.0 96
  321.07617 986.0 985
  321.2565 13.0 13
  322.02786 14.0 14
  322.05002 42.0 42
  322.07834 91.0 91
  322.09314 169.0 169
  322.26706 15.0 15
  323.05878 31.0 31
  323.08755 97.0 97
  323.09964 69.0 69
  324.03979 20.0 20
  324.04959 18.0 18
  324.08902 15.0 15
  324.10339 21.0 21
  325.00217 15.0 15
  325.05173 29.0 29
  325.07104 339.0 339
  326.07138 46.0 46
  327.07635 52.0 52
  330.07773 14.0 14
  331.06689 14.0 14
  331.10968 17.0 17
  332.02609 26.0 26
  333.00742 18.0 18
  333.05496 49.0 49
  333.07297 101.0 101
  333.08557 128.0 128
  333.10602 29.0 29
  334.05887 13.0 13
  334.07986 126.0 126
  335.02264 16.0 16
  335.05307 14.0 14
  335.07431 109.0 109
  335.09973 86.0 86
  335.11487 34.0 34
  336.05048 36.0 36
  336.08304 24.0 24
  336.10574 32.0 32
  337.02621 18.0 18
  337.05182 70.0 70
  337.06674 127.0 127
  337.08401 49.0 49
  337.10883 14.0 14
  338.08276 76.0 76
  338.10507 36.0 36
  339.0795 58.0 58
  339.09747 39.0 39
  341.27304 12.0 12
  342.09439 14.0 14
  342.57184 13.0 13
  343.09396 16.0 16
  344.05844 21.0 21
  345.04761 34.0 34
  345.06967 215.0 215
  346.08295 113.0 113
  346.10214 21.0 21
  346.39865 24.0 24
  347.07709 16.0 16
  347.09396 153.0 153
  347.64554 18.0 18
  348.09302 15.0 15
  348.11002 15.0 15
  349.04456 44.0 44
  349.073 291.0 291
  350.0762 22.0 22
  350.08798 12.0 12
  351.03595 20.0 20
  351.06891 71.0 71
  351.08609 141.0 141
  352.08319 34.0 34
  352.10016 16.0 16
  353.06415 19.0 19
  353.09955 20.0 20
  353.1156 21.0 21
  355.08344 13.0 13
  357.07492 15.0 15
  357.10901 16.0 16
  358.0267 12.0 12
  358.08783 13.0 13
  359.08615 18.0 18
  359.09695 26.0 26
  361.07239 127.0 127
  362.04797 13.0 13
  362.06174 22.0 22
  362.08481 25.0 25
  363.07669 49.0 49
  363.09689 55.0 55
  363.32645 13.0 13
  364.0802 26.0 26
  365.10016 16.0 16
  366.10971 16.0 16
  367.06555 14.0 14
  367.09668 15.0 15
  368.0925 13.0 13
  369.08429 13.0 13
  373.05515 38.0 38
  373.07648 97.0 97
  373.11038 66.0 66
  374.08734 41.0 41
  374.11447 14.0 14
  375.05499 33.0 33
  375.08948 77.0 77
  376.08789 31.0 31
  376.10971 13.0 13
  377.08252 14.0 14
  378.07315 19.0 19
  379.08691 78.0 78
  380.08484 51.0 51
  385.07016 18.0 18
  387.09244 32.0 32
  388.08887 14.0 14
  388.715 24.0 24
  389.10336 39.0 39
  391.05746 26.0 26
  391.08475 90.0 90
  391.10602 30.0 30
  392.07614 34.0 34
  392.09622 34.0 34
  393.05481 15.0 15
  393.25366 33.0 33
  399.07687 32.0 32
  399.09811 12.0 12
  401.10944 29.0 29
  401.2663 13.0 13
  403.07074 14.0 14
  403.10022 34.0 34
  405.09943 25.0 25
  405.11945 23.0 23
  406.0816 22.0 22
  406.11896 38.0 38
  406.16376 12.0 12
  408.0921 26.0 26
  409.07254 12.0 12
  411.10187 16.0 16
  415.07135 56.0 56
  416.08719 22.0 22
  420.12021 16.0 16
  425.12054 18.0 18
  427.11145 30.0 30
  429.08945 12.0 12
  429.10657 12.0 12
  431.3092 20.0 20
  433.09183 12.0 12
  445.08679 19.0 19
  447.09888 21.0 21
  563.7713 14.0 14
//
