ACCESSION: MSBNK-RIKEN-PR300019
RECORD_TITLE: Voacristine; LC-ESI-QTOF; MS2
DATE: 2019.03.28
AUTHORS: Tetsuya Mori, Center for Sustainable Resource Science, RIKEN
LICENSE: CC BY-NC-SA
PUBLICATION: Tsugawa H., Nakabayashi R., Mori T., Yamada Y., Takahashi M., Rai A., Sugiyama R., Yamamoto H., Nakaya T., Yamazaki M., Kooke R., Bac-Molenaar JA., Oztolan-Erol N., Keurentjes JJB., Arita M., Saito K. (2019) "A cheminformatics approach to characterize metabolomes in stable-isotope-labeled organisms" Nature Methods 16(4):295-298. [doi:10.1038/s41592-019-0358-2]
COMMENT: registered in RIKEN PlaSMA
CH$NAME: Voacristine
CH$COMPOUND_CLASS: Ibogan-type alkaloids
CH$FORMULA: C22H28N2O4
CH$EXACT_MASS: 384.476
CH$SMILES: COC(=O)[C@@]12C[C@H]3C[C@H]([C@H](C)O)[C@@H]1N(C3)CCC1=C2NC2=C1C=C(OC)C=C2
CH$IUPAC: InChI=1S/C22H28N2O4/c1-12(25)16-8-13-10-22(21(26)28-3)19-15(6-7-24(11-13)20(16)22)17-9-14(27-2)4-5-18(17)23-19/h4-5,9,12-13,16,20,23,25H,6-8,10-11H2,1-3H3/t12-,13+,16+,20-,22+/m0/s1
CH$LINK: INCHIKEY OYMQKBZMKFJPMH-VJMPXSKLSA-N
AC$INSTRUMENT: LC, Waters Acquity UPLC System; MS, Waters Xevo G2 Q-Tof
AC$INSTRUMENT_TYPE: LC-ESI-QTOF
AC$MASS_SPECTROMETRY: MS_TYPE MS2
AC$MASS_SPECTROMETRY: ION_MODE POSITIVE
AC$MASS_SPECTROMETRY: COLLISION_ENERGY 6V
AC$MASS_SPECTROMETRY: DESOLVATION_GAS_FLOW 800/h
AC$MASS_SPECTROMETRY: DESOLVATION_TEMPERATURE 450 C
AC$MASS_SPECTROMETRY: IONIZATION ESI
AC$CHROMATOGRAPHY: CAPILLARY_VOLTAGE +3.00 kV
AC$CHROMATOGRAPHY: COLUMN_NAME Acquity bridged ethyl hybrid C18 (1.7 um, 2.1 mm * 100 mm, Waters)
AC$CHROMATOGRAPHY: COLUMN_TEMPERATURE 40 C
AC$CHROMATOGRAPHY: FLOW_GRADIENT A/B = (99.5%/0.5% at 0 min, 99.5%/0.5% at 0.1 min, 20%/80% at 10 min, 0.5%/99.5% at 10.1 min, 0.5%/99.5% at 12.0 min, 99.5%/0.5% at 12.1 min, 99.5%/0.5% at 15.0 min)
AC$CHROMATOGRAPHY: FLOW_RATE 0.3 ml/min at 0 min, 0.3 ml/min at 10 min, 0.4 ml/min at 10.1 min, 0.4 ml/min at 14.4 min, 0.3 ml/min at 14.5 min
AC$CHROMATOGRAPHY: RETENTION_TIME 4.611467
AC$CHROMATOGRAPHY: SOLVENT A water including 0.1% formic acid
AC$CHROMATOGRAPHY: SOLVENT B acetonitrile including 0.1% formic acid
MS$FOCUSED_ION: PRECURSOR_TYPE [M+H]+
MS$FOCUSED_ION: PRECURSOR_M/Z 385.2121838
PK$SPLASH: splash10-000i-0980000000-081c4ee580b61ce7bc98
PK$NUM_PEAK: 790
PK$PEAK: m/z int. rel.int.
  55.05573 9.0 9
  59.00917 10.0 10
  67.05542 48.0 48
  69.07179 23.0 23
  77.03416 8.0 8
  77.03824 20.0 20
  78.24626 6.0 6
  79.04066 7.0 7
  79.05112 22.0 22
  79.057 34.0 34
  80.04646 25.0 25
  80.05235 20.0 20
  80.06258 19.0 19
  81.05355 9.0 9
  81.06796 39.0 39
  81.07639 19.0 19
  82.06532 24.0 24
  85.0666 17.0 17
  90.97338 6.0 6
  91.04407 34.0 34
  91.0536 200.0 200
  91.06316 12.0 12
  92.05051 21.0 21
  92.05815 23.0 23
  93.05468 51.0 51
  93.07027 172.0 172
  93.21187 6.0 6
  93.86338 6.0 6
  94.06551 127.0 127
  94.08292 15.0 15
  94.33143 7.0 7
  95.0668 16.0 16
  95.07255 10.0 10
  95.07748 10.0 10
  95.08815 12.0 12
  95.23962 6.0 6
  96.04563 10.0 10
  96.07014 11.0 11
  96.08078 41.0 41
  98.0958 7.0 7
  100.87959 6.0 6
  101.01202 7.0 7
  101.17435 15.0 15
  103.02422 6.0 6
  103.04771 14.0 14
  103.05642 10.0 10
  104.05801 7.0 7
  105.02709 10.0 10
  105.06005 11.0 11
  105.07072 33.0 33
  106.06513 48.0 48
  106.07243 15.0 15
  106.20113 6.0 6
  107.0526 7.0 7
  107.07465 60.0 60
  107.08775 74.0 74
  108.05911 10.0 10
  108.08016 144.0 144
  108.09276 15.0 15
  110.05991 30.0 30
  110.09944 57.0 57
  110.78371 6.0 6
  111.08296 11.0 11
  112.05293 12.0 12
  113.1128 6.0 6
  115.03271 6.0 6
  115.05592 48.0 48
  116.04158 14.0 14
  116.05091 22.0 22
  116.05987 31.0 31
  117.04205 8.0 8
  117.05272 15.0 15
  117.05808 34.0 34
  117.07034 34.0 34
  117.92973 7.0 7
  118.05145 8.0 8
  118.06693 68.0 68
  118.07961 28.0 28
  119.04088 11.0 11
  119.04691 6.0 6
  119.06108 14.0 14
  119.07135 27.0 27
  119.08555 130.0 130
  120.04935 6.0 6
  120.0576 31.0 31
  120.07922 112.0 112
  120.09266 8.0 8
  120.11034 6.0 6
  120.21194 10.0 10
  121.06268 10.0 10
  121.08905 202.0 202
  122.06035 9.0 9
  122.07796 10.0 10
  122.09492 448.0 448
  122.58878 9.0 9
  122.88856 8.0 8
  123.0593 7.0 7
  123.07323 16.0 16
  123.09707 16.0 16
  123.10274 9.0 9
  125.1043 10.0 10
  125.70655 7.0 7
  126.17278 6.0 6
  127.01935 8.0 8
  127.05473 30.0 30
  128.05057 6.0 6
  128.05756 12.0 12
  128.06282 27.0 27
  128.94649 7.0 7
  129.06035 21.0 21
  129.07202 31.0 31
  130.05324 12.0 12
  130.063 55.0 55
  131.05959 15.0 15
  131.07675 181.0 181
  131.21951 8.0 8
  132.04282 7.0 7
  132.06688 9.0 9
  132.07942 69.0 69
  133.05386 41.0 41
  133.06668 39.0 39
  133.08807 32.0 32
  133.65848 11.0 11
  134.06108 6.0 6
  134.06628 18.0 18
  134.09721 125.0 125
  134.6671 7.0 7
  134.81798 6.0 6
  135.07709 14.0 14
  135.08412 10.0 10
  135.10463 468.0 468
  136.0757 13.0 13
  136.11185 640.0 639
  136.13138 17.0 17
  136.15639 6.0 6
  136.93826 6.0 6
  137.05679 9.0 9
  137.10425 33.0 33
  137.11522 82.0 82
  137.20169 7.0 7
  138.09233 7.0 7
  139.05684 39.0 39
  140.03969 10.0 10
  140.06297 34.0 34
  141.0528 23.0 23
  141.06052 30.0 30
  142.06174 23.0 23
  142.06744 26.0 26
  142.08301 6.0 6
  143.03943 13.0 13
  143.04468 9.0 9
  143.07329 327.0 327
  143.13559 11.0 11
  143.70978 8.0 8
  144.05145 42.0 42
  144.06046 46.0 46
  144.0818 70.0 70
  144.09047 9.0 9
  145.02431 17.0 17
  145.04684 25.0 25
  145.05563 44.0 44
  145.06381 74.0 74
  145.07237 16.0 16
  145.08681 50.0 50
  146.0565 33.0 33
  146.07498 31.0 31
  146.09088 81.0 81
  147.06706 27.0 27
  147.07367 41.0 41
  147.10216 35.0 35
  148.0699 57.0 57
  148.07742 15.0 15
  148.08856 22.0 22
  148.11223 158.0 158
  148.12318 17.0 17
  148.14194 7.0 7
  149.11978 21.0 21
  149.12796 15.0 15
  150.07129 12.0 12
  151.03014 8.0 8
  151.10606 10.0 10
  152.05161 9.0 9
  152.3078 10.0 10
  153.06302 6.0 6
  153.07829 6.0 6
  154.03827 16.0 16
  154.04912 21.0 21
  154.06635 356.0 356
  154.08745 6.0 6
  154.12648 11.0 11
  154.89206 7.0 7
  155.07239 435.0 435
  155.71606 10.0 10
  156.05031 9.0 9
  156.05804 8.0 8
  156.0732 79.0 79
  156.08124 67.0 67
  156.09409 19.0 19
  156.20108 8.0 8
  157.04636 20.0 20
  157.05644 10.0 10
  157.06419 9.0 9
  157.08597 157.0 157
  157.46953 6.0 6
  158.03658 9.0 9
  158.05682 38.0 38
  158.07106 22.0 22
  158.08406 47.0 47
  158.09579 86.0 86
  158.55083 9.0 9
  159.03464 9.0 9
  159.05112 38.0 38
  159.06682 325.0 325
  159.07355 116.0 116
  159.08902 12.0 12
  159.10056 17.0 17
  160.04262 9.0 9
  160.05289 6.0 6
  160.07544 204.0 204
  160.10486 7.0 7
  160.11101 12.0 12
  161.06412 15.0 15
  161.08379 48.0 48
  162.08383 11.0 11
  162.09312 73.0 73
  162.32938 6.0 6
  163.79803 7.0 7
  164.10646 6.0 6
  165.07022 8.0 8
  165.15215 7.0 7
  165.97565 9.0 9
  166.06856 31.0 31
  166.07777 20.0 20
  166.0889 7.0 7
  166.11769 11.0 11
  166.25502 14.0 14
  166.82419 9.0 9
  167.03561 10.0 10
  167.04578 9.0 9
  167.0744 903.0 902
  167.19533 9.0 9
  167.31451 6.0 6
  167.32526 8.0 8
  167.98917 12.0 12
  168.04878 7.0 7
  168.0636 71.0 71
  168.07933 281.0 281
  168.09 54.0 54
  168.53993 7.0 7
  169.05161 70.0 70
  169.05905 37.0 37
  169.07289 31.0 31
  169.08533 143.0 143
  169.26587 10.0 10
  169.81799 6.0 6
  170.04166 20.0 20
  170.05098 65.0 65
  170.05824 50.0 50
  170.0677 57.0 57
  170.08073 25.0 25
  170.09271 20.0 20
  170.10449 7.0 7
  171.04588 17.0 17
  171.05638 56.0 56
  171.06517 177.0 177
  171.08479 15.0 15
  171.12181 7.0 7
  171.15848 6.0 6
  172.04666 11.0 11
  172.06802 85.0 85
  172.07793 198.0 198
  172.08911 37.0 37
  172.10971 12.0 12
  172.14857 7.0 7
  173.07004 33.0 33
  173.08064 161.0 161
  173.09283 29.0 29
  173.10622 7.0 7
  173.63811 10.0 10
  173.75653 8.0 8
  174.09018 490.0 490
  174.2402 20.0 20
  175.08607 24.0 24
  175.09793 55.0 55
  175.51114 6.0 6
  176.06718 20.0 20
  176.0938 23.0 23
  176.10962 21.0 21
  178.06398 16.0 16
  178.07169 23.0 23
  178.12512 14.0 14
  179.07156 63.0 63
  179.08575 6.0 6
  180.05159 13.0 13
  180.07784 49.0 49
  180.08595 42.0 42
  181.05318 31.0 31
  181.07454 54.0 54
  181.08952 292.0 292
  181.56226 6.0 6
  182.05829 125.0 125
  182.08858 104.0 104
  182.09908 17.0 17
  183.06273 156.0 156
  183.06955 302.0 302
  183.09576 39.0 39
  184.03279 18.0 18
  184.03905 6.0 6
  184.05704 35.0 35
  184.07344 383.0 383
  184.10213 24.0 24
  184.11034 10.0 10
  184.12013 11.0 11
  185.06171 22.0 22
  185.08188 239.0 239
  185.1171 7.0 7
  185.13364 8.0 8
  185.54855 6.0 6
  185.772 10.0 10
  186.00903 7.0 7
  186.05827 47.0 47
  186.07715 72.0 72
  186.09207 518.0 517
  187.06317 26.0 26
  187.08951 50.0 50
  187.10577 33.0 33
  188.01318 10.0 10
  188.08794 12.0 12
  188.09697 38.0 38
  188.10693 67.0 67
  189.0815 25.0 25
  189.10167 11.0 11
  189.11104 10.0 10
  190.08504 53.0 53
  191.06723 26.0 26
  191.08316 8.0 8
  191.98654 16.0 16
  192.07205 46.0 46
  192.08531 17.0 17
  192.10269 17.0 17
  193.07436 9.0 9
  193.08655 70.0 70
  193.10182 17.0 17
  194.06114 10.0 10
  194.07745 18.0 18
  194.08609 23.0 23
  194.09804 40.0 40
  194.11603 13.0 13
  194.97505 6.0 6
  195.02371 8.0 8
  195.03957 8.0 8
  195.06834 548.0 547
  195.09706 50.0 50
  195.62146 9.0 9
  196.04419 49.0 49
  196.07524 225.0 225
  196.09512 21.0 21
  196.11411 17.0 17
  196.94592 10.0 10
  197.05426 23.0 23
  197.06409 34.0 34
  197.08365 221.0 221
  197.10846 38.0 38
  198.04744 10.0 10
  198.05562 11.0 11
  198.09087 452.0 452
  198.1385 7.0 7
  199.06783 8.0 8
  199.08934 176.0 176
  199.10159 58.0 58
  200.064 54.0 54
  200.07126 17.0 17
  200.08997 16.0 16
  200.10924 137.0 137
  201.06735 20.0 20
  201.08908 46.0 46
  201.10208 51.0 51
  202.08727 7.0 7
  202.11633 7.0 7
  203.07991 7.0 7
  203.09454 6.0 6
  204.06509 17.0 17
  204.07712 63.0 63
  204.08943 35.0 35
  204.63504 10.0 10
  205.07114 11.0 11
  205.08873 35.0 35
  205.10349 18.0 18
  206.06219 6.0 6
  206.07231 8.0 8
  206.08572 45.0 45
  206.09824 69.0 69
  206.12325 10.0 10
  207.05771 6.0 6
  207.06764 22.0 22
  207.08867 38.0 38
  207.1003 44.0 44
  208.07965 68.0 68
  208.09589 121.0 121
  208.11179 15.0 15
  208.13387 10.0 10
  208.62354 6.0 6
  209.04768 15.0 15
  209.05806 8.0 8
  209.08456 168.0 168
  209.10739 108.0 108
  209.19771 8.0 8
  209.44214 6.0 6
  210.04732 10.0 10
  210.09062 1000.0 999
  210.11455 48.0 48
  211.03644 14.0 14
  211.05788 19.0 19
  211.07129 32.0 32
  211.08638 93.0 93
  211.09697 138.0 138
  211.11066 10.0 10
  211.1283 8.0 8
  212.0554 7.0 7
  212.06802 31.0 31
  212.07797 25.0 25
  212.09764 70.0 70
  212.10915 17.0 17
  212.12433 16.0 16
  212.1423 27.0 27
  212.15529 13.0 13
  213.05322 7.0 7
  213.07312 30.0 30
  213.08351 23.0 23
  213.09477 28.0 28
  213.10944 74.0 74
  213.11807 16.0 16
  213.70793 15.0 15
  214.02592 12.0 12
  214.08711 106.0 106
  214.10094 19.0 19
  214.14169 7.0 7
  215.08749 25.0 25
  215.11642 25.0 25
  215.6109 6.0 6
  216.06862 9.0 9
  216.08559 23.0 23
  216.09529 12.0 12
  217.07904 16.0 16
  217.08972 22.0 22
  217.28539 9.0 9
  217.29504 8.0 8
  218.07463 18.0 18
  218.09077 37.0 37
  218.09871 116.0 116
  219.05927 9.0 9
  219.09384 39.0 39
  219.10857 22.0 22
  220.07292 28.0 28
  220.0851 30.0 30
  220.10307 97.0 97
  220.11812 21.0 21
  221.06169 9.0 9
  221.08389 109.0 109
  221.10339 26.0 26
  221.1228 25.0 25
  221.4131 8.0 8
  222.04759 6.0 6
  222.05867 19.0 19
  222.07721 27.0 27
  222.09039 70.0 70
  222.11758 62.0 62
  222.1322 35.0 35
  222.75557 7.0 7
  223.06009 27.0 27
  223.07268 7.0 7
  223.08347 31.0 31
  223.09808 37.0 37
  223.10826 13.0 13
  223.12317 17.0 17
  223.13361 13.0 13
  224.06195 20.0 20
  224.09129 129.0 129
  224.10533 207.0 207
  224.117 66.0 66
  225.07178 23.0 23
  225.09613 70.0 70
  225.10811 60.0 60
  225.12181 12.0 12
  226.06848 9.0 9
  226.07895 25.0 25
  226.09125 44.0 44
  226.1178 37.0 37
  227.11671 7.0 7
  227.12814 6.0 6
  227.14934 7.0 7
  228.08885 6.0 6
  229.12135 6.0 6
  230.09654 13.0 13
  230.1711 7.0 7
  231.09085 11.0 11
  231.10149 19.0 19
  232.06491 15.0 15
  232.07411 24.0 24
  232.1024 43.0 43
  232.11906 20.0 20
  233.08188 95.0 95
  233.1042 11.0 11
  233.12196 86.0 86
  233.92255 7.0 7
  234.03583 6.0 6
  234.07913 50.0 50
  234.09593 183.0 183
  234.11528 33.0 33
  234.12822 47.0 47
  234.2168 7.0 7
  235.06236 16.0 16
  235.08209 52.0 52
  235.0983 200.0 200
  235.12465 142.0 142
  235.14079 20.0 20
  235.60431 10.0 10
  236.08594 77.0 77
  236.09912 261.0 261
  236.12097 50.0 50
  236.13567 22.0 22
  236.1463 14.0 14
  236.43901 7.0 7
  236.782 6.0 6
  237.06268 7.0 7
  237.101 488.0 488
  237.21371 7.0 7
  237.36342 7.0 7
  237.71687 15.0 15
  238.08585 103.0 103
  238.1058 93.0 93
  238.11443 146.0 146
  238.13971 8.0 8
  238.29262 7.0 7
  239.06523 26.0 26
  239.08289 22.0 22
  239.09854 24.0 24
  239.11299 87.0 87
  239.12357 156.0 156
  239.14233 7.0 7
  240.09013 17.0 17
  240.10925 6.0 6
  240.12384 14.0 14
  240.13777 19.0 19
  241.10387 62.0 62
  241.14043 19.0 19
  242.10283 21.0 21
  242.2513 7.0 7
  243.09604 9.0 9
  244.09544 15.0 15
  245.08015 6.0 6
  245.09061 7.0 7
  245.11426 28.0 28
  246.04942 14.0 14
  246.07373 12.0 12
  246.08797 35.0 35
  246.09947 10.0 10
  246.13013 14.0 14
  246.87161 7.0 7
  247.07962 24.0 24
  247.08678 10.0 10
  247.10646 45.0 45
  247.12573 14.0 14
  247.13374 13.0 13
  247.22856 7.0 7
  248.03703 9.0 9
  248.09084 58.0 58
  248.10512 125.0 125
  248.12987 63.0 63
  248.14638 7.0 7
  248.83098 10.0 10
  249.01289 13.0 13
  249.06934 9.0 9
  249.10498 123.0 123
  249.11728 70.0 70
  249.13956 219.0 219
  250.07054 6.0 6
  250.08865 46.0 46
  250.1055 27.0 27
  250.11745 93.0 93
  250.12984 63.0 63
  250.1497 10.0 10
  250.16241 13.0 13
  250.57892 15.0 15
  251.08043 25.0 25
  251.11533 509.0 508
  251.12581 219.0 219
  251.14371 19.0 19
  251.6498 11.0 11
  252.09238 26.0 26
  252.10507 55.0 55
  252.12358 205.0 205
  252.13847 58.0 58
  253.08339 7.0 7
  253.09918 25.0 25
  253.11774 26.0 26
  253.13324 229.0 229
  254.09862 18.0 18
  254.12016 10.0 10
  254.13315 49.0 49
  254.14769 29.0 29
  254.75597 14.0 14
  255.08987 25.0 25
  256.08539 9.0 9
  256.10971 12.0 12
  256.82663 6.0 6
  257.1171 7.0 7
  258.09357 14.0 14
  258.11798 6.0 6
  260.10437 38.0 38
  260.11899 20.0 20
  261.11472 31.0 31
  261.13864 8.0 8
  261.16119 9.0 9
  261.77896 7.0 7
  262.06464 7.0 7
  262.07455 7.0 7
  262.1008 21.0 21
  262.11673 158.0 158
  262.13 43.0 43
  262.14362 22.0 22
  262.15503 10.0 10
  263.06421 11.0 11
  263.07333 13.0 13
  263.09485 15.0 15
  263.11722 140.0 140
  263.13663 80.0 80
  263.155 347.0 347
  263.22867 7.0 7
  263.67392 8.0 8
  264.03589 6.0 6
  264.08698 43.0 43
  264.10587 11.0 11
  264.12616 45.0 45
  264.13998 96.0 96
  264.15005 179.0 179
  264.16727 333.0 333
  264.65729 6.0 6
  264.68356 9.0 9
  265.07602 10.0 10
  265.09592 64.0 64
  265.11725 92.0 92
  265.14105 73.0 73
  265.15958 155.0 155
  265.17316 68.0 68
  266.09464 14.0 14
  266.1076 56.0 56
  266.1282 18.0 18
  266.14136 20.0 20
  266.17795 28.0 28
  266.22845 6.0 6
  267.09174 16.0 16
  267.09924 9.0 9
  267.11224 9.0 9
  267.12357 23.0 23
  267.13708 6.0 6
  268.07913 11.0 11
  268.09457 13.0 13
  268.11099 38.0 38
  269.08734 12.0 12
  269.09897 7.0 7
  269.11594 13.0 13
  269.13263 16.0 16
  269.79782 22.0 22
  271.00229 13.0 13
  271.12421 10.0 10
  272.09259 11.0 11
  273.09457 9.0 9
  273.11646 12.0 12
  274.08905 6.0 6
  274.11179 10.0 10
  274.12509 11.0 11
  275.11533 11.0 11
  275.12888 17.0 17
  275.14252 6.0 6
  276.08008 12.0 12
  276.10052 14.0 14
  276.11026 16.0 16
  276.12579 31.0 31
  276.13968 20.0 20
  276.16528 9.0 9
  276.78012 7.0 7
  276.79825 7.0 7
  277.08887 14.0 14
  277.11563 43.0 43
  277.13794 251.0 251
  278.08627 11.0 11
  278.09946 20.0 20
  278.12418 36.0 36
  278.13254 90.0 90
  278.1554 15.0 15
  278.17612 6.0 6
  279.08371 7.0 7
  279.11285 73.0 73
  279.14877 162.0 162
  280.08911 9.0 9
  280.12054 10.0 10
  280.13049 8.0 8
  280.14832 20.0 20
  280.15979 10.0 10
  281.0968 9.0 9
  281.13541 9.0 9
  281.16379 11.0 11
  282.0278 6.0 6
  282.05786 7.0 7
  282.1171 11.0 11
  283.10562 16.0 16
  283.15479 7.0 7
  285.13416 10.0 10
  286.13901 14.0 14
  287.10532 12.0 12
  287.12256 20.0 20
  288.10129 7.0 7
  289.11383 7.0 7
  290.10522 12.0 12
  290.13699 48.0 48
  291.10959 9.0 9
  291.14917 282.0 282
  291.1655 33.0 33
  292.0979 15.0 15
  292.11963 7.0 7
  292.15613 371.0 371
  292.16821 108.0 108
  292.2142 10.0 10
  293.13516 13.0 13
  293.16977 173.0 173
  293.91656 6.0 6
  294.11658 8.0 8
  294.17938 7.0 7
  295.0965 9.0 9
  295.12082 8.0 8
  296.08368 9.0 9
  296.11206 20.0 20
  296.12262 12.0 12
  297.12976 9.0 9
  298.19806 6.0 6
  301.14127 13.0 13
  302.1236 11.0 11
  303.13864 21.0 21
  303.1651 14.0 14
  304.13379 11.0 11
  304.16129 9.0 9
  305.12128 6.0 6
  305.138 37.0 37
  305.1604 14.0 14
  305.17801 36.0 36
  305.53925 6.0 6
  306.12518 41.0 41
  306.18054 7.0 7
  307.06381 7.0 7
  307.13553 10.0 10
  307.1506 23.0 23
  307.17926 178.0 178
  307.19339 57.0 57
  308.15033 11.0 11
  308.16968 16.0 16
  308.18912 79.0 79
  309.12042 8.0 8
  309.16116 11.0 11
  309.20526 7.0 7
  311.12692 22.0 22
  311.14056 26.0 26
  311.15811 17.0 17
  312.13852 20.0 20
  316.21756 7.0 7
  318.14594 19.0 19
  318.16891 10.0 10
  319.11978 10.0 10
  319.9274 7.0 7
  320.16013 17.0 17
  321.13263 7.0 7
  321.1492 10.0 10
  323.17111 42.0 42
  324.14072 8.0 8
  324.17645 96.0 96
  324.19333 23.0 23
  324.21655 11.0 11
  325.18805 33.0 33
  335.18481 19.0 19
  336.15756 10.0 10
  336.17896 9.0 9
  337.15897 19.0 19
  340.20782 7.0 7
  350.12897 6.0 6
  352.17014 20.0 20
  352.18869 7.0 7
  354.17886 13.0 13
  367.19449 22.0 22
  367.20853 17.0 17
  380.99274 6.0 6
//
