ACCESSION: MSBNK-RIKEN-PR301826
RECORD_TITLE: Protopine; LC-ESI-QTOF; MS2
DATE: 2019.03.28
AUTHORS: Tetsuya Mori, Center for Sustainable Resource Science, RIKEN
LICENSE: CC BY-NC-SA
PUBLICATION: Tsugawa H., Nakabayashi R., Mori T., Yamada Y., Takahashi M., Rai A., Sugiyama R., Yamamoto H., Nakaya T., Yamazaki M., Kooke R., Bac-Molenaar JA., Oztolan-Erol N., Keurentjes JJB., Arita M., Saito K. (2019) "A cheminformatics approach to characterize metabolomes in stable-isotope-labeled organisms" Nature Methods 16(4):295-298. [doi:10.1038/s41592-019-0358-2]
COMMENT: registered in RIKEN PlaSMA
CH$NAME: Protopine
CH$COMPOUND_CLASS: Protopine alkaloids
CH$FORMULA: C20H19NO5
CH$EXACT_MASS: 353.374
CH$SMILES: CN1CCC2=CC3=C(OCO3)C=C2C(=O)CC2=C(C1)C1=C(OCO1)C=C2
CH$IUPAC: InChI=1S/C20H19NO5/c1-21-5-4-13-7-18-19(25-10-24-18)8-14(13)16(22)6-12-2-3-17-20(15(12)9-21)26-11-23-17/h2-3,7-8H,4-6,9-11H2,1H3
CH$LINK: INCHIKEY GPTFURBXHJWNHR-UHFFFAOYSA-N
AC$INSTRUMENT: LC, Waters Acquity UPLC System; MS, Waters Xevo G2 Q-Tof
AC$INSTRUMENT_TYPE: LC-ESI-QTOF
AC$MASS_SPECTROMETRY: MS_TYPE MS2
AC$MASS_SPECTROMETRY: ION_MODE POSITIVE
AC$MASS_SPECTROMETRY: COLLISION_ENERGY 6V
AC$MASS_SPECTROMETRY: DESOLVATION_GAS_FLOW 800/h
AC$MASS_SPECTROMETRY: DESOLVATION_TEMPERATURE 450 C
AC$MASS_SPECTROMETRY: IONIZATION ESI
AC$CHROMATOGRAPHY: CAPILLARY_VOLTAGE +3.00 kV
AC$CHROMATOGRAPHY: COLUMN_NAME Acquity bridged ethyl hybrid C18 (1.7 um, 2.1 mm * 100 mm, Waters)
AC$CHROMATOGRAPHY: COLUMN_TEMPERATURE 40 C
AC$CHROMATOGRAPHY: FLOW_GRADIENT A/B = (99.5%/0.5% at 0 min, 99.5%/0.5% at 0.1 min, 20%/80% at 10 min, 0.5%/99.5% at 10.1 min, 0.5%/99.5% at 12.0 min, 99.5%/0.5% at 12.1 min, 99.5%/0.5% at 15.0 min)
AC$CHROMATOGRAPHY: FLOW_RATE 0.3 ml/min at 0 min, 0.3 ml/min at 10 min, 0.4 ml/min at 10.1 min, 0.4 ml/min at 14.4 min, 0.3 ml/min at 14.5 min
AC$CHROMATOGRAPHY: RETENTION_TIME 4.362817
AC$CHROMATOGRAPHY: SOLVENT A water including 0.1% formic acid
AC$CHROMATOGRAPHY: SOLVENT B acetonitrile including 0.1% formic acid
MS$FOCUSED_ION: PRECURSOR_TYPE [M+H]+
MS$FOCUSED_ION: PRECURSOR_M/Z 354.1335992
PK$SPLASH: splash10-000i-0920000000-fc5ceef6dce9491c11ec
PK$NUM_PEAK: 217
PK$PEAK: m/z int. rel.int.
  71.0144 7.0 7
  77.03214 10.0 10
  77.04088 48.0 48
  79.05227 16.0 16
  84.04304 8.0 8
  89.03223 12.0 12
  91.05441 130.0 130
  92.05762 25.0 25
  93.06963 5.0 5
  94.04562 6.0 6
  102.05061 6.0 6
  103.05226 25.0 25
  103.0589 10.0 10
  107.04594 30.0 30
  107.05305 71.0 71
  107.06953 7.0 7
  108.05458 9.0 9
  115.04398 7.0 7
  115.0555 24.0 24
  117.03043 8.0 8
  117.03899 8.0 8
  118.03445 14.0 14
  118.06121 12.0 12
  119.03938 10.0 10
  119.05101 93.0 93
  119.06873 8.0 8
  123.37687 9.0 9
  126.05194 6.0 6
  127.05559 15.0 15
  130.05505 15.0 15
  130.06073 44.0 44
  130.06839 71.0 71
  130.28293 6.0 6
  131.04262 18.0 18
  131.04944 18.0 18
  131.05894 15.0 15
  131.07066 112.0 112
  131.07819 114.0 114
  131.22025 7.0 7
  132.08453 48.0 48
  133.08603 16.0 16
  135.01643 5.0 5
  135.04422 85.0 85
  135.05325 22.0 22
  141.25626 5.0 5
  144.0578 5.0 5
  144.07912 9.0 9
  144.08942 12.0 12
  146.06075 6.0 6
  147.03796 56.0 56
  147.04869 69.0 69
  147.05669 19.0 19
  148.04042 8.0 8
  148.05208 14.0 14
  148.06778 9.0 9
  148.6808 5.0 5
  149.0607 234.0 234
  150.0556 15.0 15
  150.06633 22.0 22
  151.05077 8.0 8
  151.05827 19.0 19
  151.06844 16.0 16
  152.05376 7.0 7
  152.0632 29.0 29
  153.07002 59.0 59
  154.06691 9.0 9
  157.03322 9.0 9
  158.06288 17.0 17
  159.04878 15.0 15
  159.06444 210.0 210
  159.07434 59.0 59
  160.04785 9.0 9
  160.07462 151.0 151
  160.08653 29.0 29
  161.04468 7.0 7
  161.06235 29.0 29
  161.07364 6.0 6
  161.08403 16.0 16
  161.60919 5.0 5
  162.09865 8.0 8
  163.03596 15.0 15
  163.04982 29.0 29
  164.06155 14.0 14
  164.07373 5.0 5
  165.06465 40.0 40
  165.07249 31.0 31
  165.08228 25.0 25
  166.07401 26.0 26
  167.0551 6.0 6
  167.07684 24.0 24
  167.09496 41.0 41
  168.08421 9.0 9
  169.09448 5.0 5
  171.03682 8.0 8
  172.0766 7.0 7
  174.05107 82.0 82
  175.04349 21.0 21
  176.06105 26.0 26
  176.07411 8.0 8
  177.05243 20.0 20
  177.07312 114.0 114
  177.08897 8.0 8
  177.63243 10.0 10
  178.05392 14.0 14
  178.073 109.0 109
  178.08365 68.0 68
  178.09578 6.0 6
  179.04166 8.0 8
  179.08078 71.0 71
  179.091 108.0 108
  180.07722 8.0 8
  180.09117 28.0 28
  181.07155 8.0 8
  187.04109 9.0 9
  187.06148 8.0 8
  188.02361 6.0 6
  188.0713 1000.0 999
  189.02333 7.0 7
  189.05392 31.0 31
  189.07341 808.0 807
  190.07649 162.0 162
  191.0517 5.0 5
  191.06268 6.0 6
  191.08263 48.0 48
  191.09335 37.0 37
  192.05338 7.0 7
  192.06244 8.0 8
  193.07239 11.0 11
  195.07315 29.0 29
  195.08379 13.0 13
  195.1001 5.0 5
  201.08124 6.0 6
  202.07928 20.0 20
  203.09908 8.0 8
  204.0603 10.0 10
  204.08167 5.0 5
  205.0607 22.0 22
  205.071 39.0 39
  206.06393 18.0 18
  206.07573 29.0 29
  206.09077 11.0 11
  207.08369 87.0 87
  208.05659 11.0 11
  208.08881 10.0 10
  208.10294 5.0 5
  209.06039 120.0 120
  209.08257 9.0 9
  210.06274 9.0 9
  210.07387 10.0 10
  212.00005 5.0 5
  214.9998 7.0 7
  215.04913 5.0 5
  217.05981 63.0 63
  217.07407 61.0 61
  218.00513 5.0 5
  218.05882 8.0 8
  218.07602 42.0 42
  218.09128 13.0 13
  218.11475 5.0 5
  219.06769 12.0 12
  220.07127 6.0 6
  220.09683 9.0 9
  220.12045 7.0 7
  221.06744 9.0 9
  222.06323 36.0 36
  222.07608 9.0 9
  223.06636 11.0 11
  224.04993 6.0 6
  224.09938 10.0 10
  226.06187 5.0 5
  233.05293 7.0 7
  233.06946 15.0 15
  234.06779 8.0 8
  235.07877 52.0 52
  236.06659 9.0 9
  236.10139 5.0 5
  237.05809 11.0 11
  237.1024 12.0 12
  238.10304 10.0 10
  245.07146 5.0 5
  246.06526 15.0 15
  246.07649 7.0 7
  246.08813 9.0 9
  247.0645 21.0 21
  247.0831 65.0 65
  247.10689 7.0 7
  248.07382 6.0 6
  248.08499 11.0 11
  252.08499 5.0 5
  260.97449 6.0 6
  261.06598 9.0 9
  262.09067 24.0 24
  262.11804 5.0 5
  263.06949 16.0 16
  263.09613 8.0 8
  264.07858 9.0 9
  274.08575 9.0 9
  275.07861 5.0 5
  276.10236 19.0 19
  276.19592 7.0 7
  277.08154 8.0 8
  277.12241 6.0 6
  278.10751 5.0 5
  279.06705 10.0 10
  279.12946 6.0 6
  288.06879 9.0 9
  290.08817 6.0 6
  291.07581 8.0 8
  292.10306 10.0 10
  293.09058 7.0 7
  304.12051 8.0 8
  306.06573 9.0 9
  320.09396 14.0 14
  320.1778 6.0 6
  321.10193 10.0 10
  333.08142 6.0 6
  333.10419 8.0 8
//
