ACCESSION: MSBNK-RIKEN-PR100654
RECORD_TITLE: Keracyanin; LC-ESI-QTOF; MS2; CE:30 V; [M-2H]-
DATE: 2016.01.19 (Created 2009.09.10, modified 2011.05.06)
AUTHORS: Matsuda F, Suzuki M, Sawada Y, Plant Science Center, RIKEN.
LICENSE: CC BY-SA
COMMENT: Acquisition and generation of the data is financially supported in part by CREST/JST.
CH$NAME: Keracyanin
CH$NAME: Cynd-Rut
CH$NAME: cyanidin-3-O-rutinoside
CH$NAME: Rutinosyl-3-cyanidine
CH$NAME: cyaninoside
CH$NAME: Cyanidin 3-O-rhamnosylglucoside
CH$NAME: Cyanidin 3-rhamnoglucoside
CH$COMPOUND_CLASS: Anthocyanidin
CH$FORMULA: [C27H31O15]+
CH$EXACT_MASS: 595.16630
CH$SMILES: c(c(c([o+1]2)c(O[C@H](O4)[C@@H]([C@H]([C@@H]([C@H]4CO[C@@H]([C@@H]5O)O[C@H]([C@@H]([C@H]5O)O)C)O)O)O)cc(c(O)3)c(cc(O)c3)2)1)c(O)c(O)cc1
CH$IUPAC: InChI=1S/C27H30O15/c1-9-19(32)21(34)23(36)26(39-9)38-8-18-20(33)22(35)24(37)27(42-18)41-17-7-12-14(30)5-11(28)6-16(12)40-25(17)10-2-3-13(29)15(31)4-10/h2-7,9,18-24,26-27,32-37H,8H2,1H3,(H3-,28,29,30,31)/p+1/t9-,18+,19-,20+,21+,22-,23+,24+,26+,27+/m0/s1
CH$LINK: CAS 18719-76-1
CH$LINK: CHEMSPIDER 390288
CH$LINK: KEGG C08620
CH$LINK: KNAPSACK C00002376
CH$LINK: PUBCHEM CID:441674
CH$LINK: INCHIKEY USNPULRDBDVJAO-FXCAAIILSA-O
AC$INSTRUMENT: UPLC Q-Tof Premier, Waters
AC$INSTRUMENT_TYPE: LC-ESI-QTOF
AC$MASS_SPECTROMETRY: MS_TYPE MS2
AC$MASS_SPECTROMETRY: ION_MODE NEGATIVE
AC$MASS_SPECTROMETRY: COLLISION_ENERGY 30 V
AC$MASS_SPECTROMETRY: DATAFORMAT Continuum
AC$MASS_SPECTROMETRY: DATE 2008.07.28
AC$MASS_SPECTROMETRY: DESOLVATION_GAS_FLOW 600.0 L/Hr
AC$MASS_SPECTROMETRY: DESOLVATION_TEMPERATURE 420 C
AC$MASS_SPECTROMETRY: FRAGMENTATION_METHOD LOW-ENERGY CID
AC$MASS_SPECTROMETRY: IONIZATION ESI
AC$MASS_SPECTROMETRY: SCANNING 1.0 sec/scan (m/z = 50-1000)
AC$MASS_SPECTROMETRY: SOURCE_TEMPERATURE 120 C
AC$CHROMATOGRAPHY: CAPILLARY_VOLTAGE 3.0 kV
AC$CHROMATOGRAPHY: SAMPLING_CONE 23.0 V
AC$CHROMATOGRAPHY: SOLVENT A CH3CN(0.1%HCOOH)
AC$CHROMATOGRAPHY: SOLVENT B H2O(0.1%HCOOH)
MS$FOCUSED_ION: PRECURSOR_M/Z 593.15066
MS$FOCUSED_ION: PRECURSOR_TYPE [M-2H]-
PK$SPLASH: splash10-001r-0090000000-3fbc8f30a8f68e2b6b12
PK$NUM_PEAK: 8
PK$PEAK: m/z int. rel.int.
  125.0253 151.4 54
  147.0095 65.65 24
  257.0472 55.63 20
  283.0271 107.8 39
  284.0344 2780 999
  285.0423 1563 562
  299.0586 170.2 61
  593.1506 56.6 20
//
