ACCESSION: MSBNK-RIKEN-PR300306
RECORD_TITLE: 14,15-Dehydro-16-epi-vincamine; LC-ESI-QTOF; MS2
DATE: 2019.03.28
AUTHORS: Tetsuya Mori, Center for Sustainable Resource Science, RIKEN
LICENSE: CC BY-NC-SA
PUBLICATION: Tsugawa H., Nakabayashi R., Mori T., Yamada Y., Takahashi M., Rai A., Sugiyama R., Yamamoto H., Nakaya T., Yamazaki M., Kooke R., Bac-Molenaar JA., Oztolan-Erol N., Keurentjes JJB., Arita M., Saito K. (2019) "A cheminformatics approach to characterize metabolomes in stable-isotope-labeled organisms" Nature Methods 16(4):295-298. [doi:10.1038/s41592-019-0358-2]
COMMENT: registered in RIKEN PlaSMA
CH$NAME: 14,15-Dehydro-16-epi-vincamine
CH$COMPOUND_CLASS: Eburnan-type alkaloids
CH$FORMULA: C21H24N2O3
CH$EXACT_MASS: 352.434
CH$SMILES: CC[C@]12C[C@](O)(N3C4=CC=CC=C4C4=C3[C@H]1N(CC4)CC=C2)C(=O)OC
CH$IUPAC: InChI=1S/C21H24N2O3/c1-3-20-10-6-11-22-12-9-15-14-7-4-5-8-16(14)23(17(15)18(20)22)21(25,13-20)19(24)26-2/h4-8,10,18,25H,3,9,11-13H2,1-2H3/t18-,20+,21-/m1/s1
CH$LINK: INCHIKEY BQGJXFQCMYJENQ-HLAWJBBLSA-N
AC$INSTRUMENT: LC, Waters Acquity UPLC System; MS, Waters Xevo G2 Q-Tof
AC$INSTRUMENT_TYPE: LC-ESI-QTOF
AC$MASS_SPECTROMETRY: MS_TYPE MS2
AC$MASS_SPECTROMETRY: ION_MODE POSITIVE
AC$MASS_SPECTROMETRY: COLLISION_ENERGY 6V
AC$MASS_SPECTROMETRY: DESOLVATION_GAS_FLOW 800/h
AC$MASS_SPECTROMETRY: DESOLVATION_TEMPERATURE 450 C
AC$MASS_SPECTROMETRY: IONIZATION ESI
AC$CHROMATOGRAPHY: CAPILLARY_VOLTAGE +3.00 kV
AC$CHROMATOGRAPHY: COLUMN_NAME Acquity bridged ethyl hybrid C18 (1.7 um, 2.1 mm * 100 mm, Waters)
AC$CHROMATOGRAPHY: COLUMN_TEMPERATURE 40 C
AC$CHROMATOGRAPHY: FLOW_GRADIENT A/B = (99.5%/0.5% at 0 min, 99.5%/0.5% at 0.1 min, 20%/80% at 10 min, 0.5%/99.5% at 10.1 min, 0.5%/99.5% at 12.0 min, 99.5%/0.5% at 12.1 min, 99.5%/0.5% at 15.0 min)
AC$CHROMATOGRAPHY: FLOW_RATE 0.3 ml/min at 0 min, 0.3 ml/min at 10 min, 0.4 ml/min at 10.1 min, 0.4 ml/min at 14.4 min, 0.3 ml/min at 14.5 min
AC$CHROMATOGRAPHY: RETENTION_TIME 4.255667
AC$CHROMATOGRAPHY: SOLVENT A water including 0.1% formic acid
AC$CHROMATOGRAPHY: SOLVENT B acetonitrile including 0.1% formic acid
MS$FOCUSED_ION: PRECURSOR_TYPE [M+H]+
MS$FOCUSED_ION: PRECURSOR_M/Z 353.1859691
PK$SPLASH: splash10-0udi-0219000000-cdb2e6ffa9c5dcdd3238
PK$NUM_PEAK: 40
PK$PEAK: m/z int. rel.int.
  144.08038 208.0 208
  145.08464 22.0 22
  148.07614 5.0 5
  150.09065 6.0 6
  168.08011 24.0 24
  171.09106 31.0 31
  182.09735 8.0 8
  193.08754 6.0 6
  194.09401 8.0 8
  207.10191 7.0 7
  208.097 8.0 8
  208.10724 6.0 6
  210.08636 10.0 10
  210.09988 8.0 8
  222.12627 17.0 17
  228.10146 10.0 10
  232.10818 6.0 6
  246.12839 9.0 9
  247.13272 18.0 18
  251.15575 9.0 9
  252.09996 18.0 18
  252.11188 6.0 6
  264.13553 8.0 8
  268.13345 18.0 18
  270.10623 6.0 6
  270.11407 11.0 11
  274.12326 6.0 6
  277.1048 5.0 5
  280.12524 8.0 8
  293.1666 23.0 23
  298.14044 8.0 8
  305.13165 7.0 7
  306.14093 18.0 18
  306.15259 23.0 23
  307.14566 8.0 8
  324.16083 17.0 17
  335.17627 47.0 47
  336.17834 13.0 13
  353.18655 1000.0 999
  353.2406 26.0 26
//
