ACCESSION: MSBNK-RIKEN-PR301960
RECORD_TITLE: Genistein; LC-ESI-QTOF; MS2
DATE: 2019.03.28
AUTHORS: Tetsuya Mori, Center for Sustainable Resource Science, RIKEN
LICENSE: CC BY-NC-SA
PUBLICATION: Tsugawa H., Nakabayashi R., Mori T., Yamada Y., Takahashi M., Rai A., Sugiyama R., Yamamoto H., Nakaya T., Yamazaki M., Kooke R., Bac-Molenaar JA., Oztolan-Erol N., Keurentjes JJB., Arita M., Saito K. (2019) "A cheminformatics approach to characterize metabolomes in stable-isotope-labeled organisms" Nature Methods 16(4):295-298. [doi:10.1038/s41592-019-0358-2]
COMMENT: registered in RIKEN PlaSMA
CH$NAME: Genistein
CH$COMPOUND_CLASS: Isoflavones
CH$FORMULA: C15H10O5
CH$EXACT_MASS: 270.24
CH$SMILES: OC1=CC=C(C=C1)C1=COC2=CC(O)=CC(O)=C2C1=O
CH$IUPAC: InChI=1S/C15H10O5/c16-9-3-1-8(2-4-9)11-7-20-13-6-10(17)5-12(18)14(13)15(11)19/h1-7,16-18H
CH$LINK: INCHIKEY TZBJGXHYKVUXJN-UHFFFAOYSA-N
AC$INSTRUMENT: LC, Waters Acquity UPLC System; MS, Waters Xevo G2 Q-Tof
AC$INSTRUMENT_TYPE: LC-ESI-QTOF
AC$MASS_SPECTROMETRY: MS_TYPE MS2
AC$MASS_SPECTROMETRY: ION_MODE POSITIVE
AC$MASS_SPECTROMETRY: COLLISION_ENERGY 6V
AC$MASS_SPECTROMETRY: DESOLVATION_GAS_FLOW 800/h
AC$MASS_SPECTROMETRY: DESOLVATION_TEMPERATURE 450 C
AC$MASS_SPECTROMETRY: IONIZATION ESI
AC$CHROMATOGRAPHY: CAPILLARY_VOLTAGE +3.00 kV
AC$CHROMATOGRAPHY: COLUMN_NAME Acquity bridged ethyl hybrid C18 (1.7 um, 2.1 mm * 100 mm, Waters)
AC$CHROMATOGRAPHY: COLUMN_TEMPERATURE 40 C
AC$CHROMATOGRAPHY: FLOW_GRADIENT A/B = (99.5%/0.5% at 0 min, 99.5%/0.5% at 0.1 min, 20%/80% at 10 min, 0.5%/99.5% at 10.1 min, 0.5%/99.5% at 12.0 min, 99.5%/0.5% at 12.1 min, 99.5%/0.5% at 15.0 min)
AC$CHROMATOGRAPHY: FLOW_RATE 0.3 ml/min at 0 min, 0.3 ml/min at 10 min, 0.4 ml/min at 10.1 min, 0.4 ml/min at 14.4 min, 0.3 ml/min at 14.5 min
AC$CHROMATOGRAPHY: RETENTION_TIME 5.923517
AC$CHROMATOGRAPHY: SOLVENT A water including 0.1% formic acid
AC$CHROMATOGRAPHY: SOLVENT B acetonitrile including 0.1% formic acid
MS$FOCUSED_ION: PRECURSOR_TYPE [M+H]+
MS$FOCUSED_ION: PRECURSOR_M/Z 271.0600999
PK$SPLASH: splash10-0uxu-1940000000-75452d9d64b163792fb2
PK$NUM_PEAK: 209
PK$PEAK: m/z int. rel.int.
  65.02351 6.0 6
  65.03668 16.0 16
  65.04165 6.0 6
  67.01592 18.0 18
  67.01917 7.0 7
  68.99078 6.0 6
  68.99904 41.0 41
  69.03814 7.0 7
  77.02778 7.0 7
  79.04784 8.0 8
  89.03876 8.0 8
  90.04407 7.0 7
  91.00948 6.0 6
  91.01913 17.0 17
  91.03204 6.0 6
  91.05413 344.0 344
  92.05763 33.0 33
  93.03328 10.0 10
  95.00976 9.0 9
  95.01611 17.0 17
  97.02666 13.0 13
  103.05862 16.0 16
  105.03226 9.0 9
  107.04844 26.0 26
  108.04993 6.0 6
  109.03326 6.0 6
  111.00108 13.0 13
  111.00777 27.0 27
  111.016 6.0 6
  115.05339 43.0 43
  116.05927 7.0 7
  117.02998 7.0 7
  117.05996 9.0 9
  117.07058 24.0 24
  118.0375 11.0 11
  118.04659 5.0 5
  119.04926 155.0 155
  119.08765 7.0 7
  120.05569 6.0 6
  121.02279 18.0 18
  121.02837 68.0 68
  121.05913 7.0 7
  123.01051 14.0 14
  127.03828 5.0 5
  127.05449 27.0 27
  127.97395 9.0 9
  128.05499 10.0 10
  128.06485 28.0 28
  129.06758 19.0 19
  131.04413 22.0 22
  131.04904 66.0 66
  131.08452 28.0 28
  132.04904 12.0 12
  133.01688 6.0 6
  133.02745 17.0 17
  133.06068 6.0 6
  134.03497 18.0 18
  134.06265 5.0 5
  135.01968 6.0 6
  135.0437 6.0 6
  137.02669 21.0 21
  137.03603 8.0 8
  138.02301 9.0 9
  141.02087 10.0 10
  141.04416 6.0 6
  141.06932 187.0 187
  142.06458 5.0 5
  142.0744 10.0 10
  143.87679 6.0 6
  144.05585 8.0 8
  145.00331 7.0 7
  145.02753 126.0 126
  145.06523 65.0 65
  146.02911 17.0 17
  146.03632 7.0 7
  146.06758 8.0 8
  146.0894 8.0 8
  147.02458 6.0 6
  147.04303 48.0 48
  147.08018 32.0 32
  149.02071 110.0 110
  149.02759 205.0 205
  150.03137 40.0 40
  151.02966 8.0 8
  152.04352 15.0 15
  152.06851 11.0 11
  152.75459 6.0 6
  152.8085 7.0 7
  152.99586 18.0 18
  153.01816 1000.0 999
  153.06805 7.0 7
  153.07373 6.0 6
  154.02072 55.0 55
  154.03003 10.0 10
  154.25775 7.0 7
  155.02164 11.0 11
  155.03816 6.0 6
  155.04945 47.0 47
  156.04887 7.0 7
  156.5898 6.0 6
  156.96596 7.0 7
  157.06204 24.0 24
  157.70074 5.0 5
  158.0722 9.0 9
  159.03859 50.0 50
  159.04607 81.0 81
  159.07118 9.0 9
  159.07973 26.0 26
  159.09044 9.0 9
  160.05052 33.0 33
  160.08037 9.0 9
  161.05309 9.0 9
  163.02954 11.0 11
  163.04167 17.0 17
  164.041 16.0 16
  165.01738 91.0 91
  165.07237 8.0 8
  166.56209 7.0 7
  168.05861 10.0 10
  169.06442 238.0 238
  169.08432 8.0 8
  169.88356 6.0 6
  170.05444 8.0 8
  170.07239 34.0 34
  171.03242 10.0 10
  172.05058 13.0 13
  173.03152 6.0 6
  173.05594 26.0 26
  173.06706 14.0 14
  174.05469 15.0 15
  174.22844 7.0 7
  175.07288 27.0 27
  175.95242 6.0 6
  176.0732 7.0 7
  179.05382 10.0 10
  181.05368 11.0 11
  181.06514 29.0 29
  183.02347 9.0 9
  183.04352 35.0 35
  183.05 11.0 11
  184.04385 13.0 13
  184.05484 5.0 5
  184.41412 9.0 9
  185.06165 28.0 28
  186.03946 7.0 7
  186.06161 7.0 7
  187.03217 24.0 24
  187.0397 18.0 18
  187.05032 9.0 9
  187.06746 27.0 27
  187.07707 45.0 45
  187.0862 17.0 17
  188.07932 11.0 11
  191.03337 5.0 5
  191.03897 11.0 11
  197.06094 371.0 371
  198.04492 7.0 7
  198.06133 32.0 32
  199.06902 26.0 26
  200.04523 43.0 43
  200.0593 7.0 7
  201.03578 13.0 13
  201.04784 9.0 9
  201.05887 23.0 23
  203.04089 14.0 14
  203.06815 7.0 7
  207.04262 12.0 12
  210.96443 6.0 6
  211.04282 19.0 19
  213.03537 6.0 6
  213.0517 34.0 34
  213.05942 18.0 18
  214.05774 6.0 6
  214.06862 8.0 8
  215.04419 19.0 19
  215.06065 108.0 108
  215.07123 414.0 414
  216.05943 9.0 9
  216.06804 25.0 25
  216.08014 31.0 31
  216.09889 10.0 10
  217.05107 11.0 11
  219.54105 6.0 6
  225.02104 9.0 9
  225.03337 15.0 15
  225.05869 55.0 55
  226.05971 39.0 39
  227.05965 11.0 11
  227.07008 20.0 20
  228.04216 22.0 22
  228.07423 8.0 8
  229.04974 18.0 18
  229.062 6.0 6
  241.02922 6.0 6
  241.04691 10.0 10
  242.05107 20.0 20
  242.06165 6.0 6
  243.0632 265.0 265
  244.03775 7.0 7
  244.0602 7.0 7
  244.07356 23.0 23
  253.05396 222.0 222
  254.0314 7.0 7
  254.05354 49.0 49
  255.06291 7.0 7
  259.33365 7.0 7
  270.99338 6.0 6
  271.0253 11.0 11
  271.06104 371.0 371
//
