ACCESSION: MSBNK-RIKEN-PR303942
RECORD_TITLE: Enterodiol; LC-ESI-QTOF; MS2
DATE: 2019.03.28
AUTHORS: Tetsuya Mori, Center for Sustainable Resource Science, RIKEN
LICENSE: CC BY-NC-SA
PUBLICATION: Tsugawa H., Nakabayashi R., Mori T., Yamada Y., Takahashi M., Rai A., Sugiyama R., Yamamoto H., Nakaya T., Yamazaki M., Kooke R., Bac-Molenaar JA., Oztolan-Erol N., Keurentjes JJB., Arita M., Saito K. (2019) "A cheminformatics approach to characterize metabolomes in stable-isotope-labeled organisms" Nature Methods 16(4):295-298. [doi:10.1038/s41592-019-0358-2]
COMMENT: registered in RIKEN PlaSMA
CH$NAME: Enterodiol
CH$COMPOUND_CLASS: Dibenzylbutanediol lignans
CH$FORMULA: C18H22O4
CH$EXACT_MASS: 302.37
CH$SMILES: OC[C@H](CC1=CC(O)=CC=C1)[C@H](CO)CC1=CC(O)=CC=C1
CH$IUPAC: InChI=1S/C18H22O4/c19-11-15(7-13-3-1-5-17(21)9-13)16(12-20)8-14-4-2-6-18(22)10-14/h1-6,9-10,15-16,19-22H,7-8,11-12H2/t15-,16-/m0/s1
CH$LINK: INCHIKEY DWONJCNDULPHLV-HOTGVXAUSA-N
AC$INSTRUMENT: LC, Waters Acquity UPLC System; MS, Waters Xevo G2 Q-Tof
AC$INSTRUMENT_TYPE: LC-ESI-QTOF
AC$MASS_SPECTROMETRY: MS_TYPE MS2
AC$MASS_SPECTROMETRY: ION_MODE POSITIVE
AC$MASS_SPECTROMETRY: COLLISION_ENERGY 6V
AC$MASS_SPECTROMETRY: DESOLVATION_GAS_FLOW 800/h
AC$MASS_SPECTROMETRY: DESOLVATION_TEMPERATURE 450 C
AC$MASS_SPECTROMETRY: IONIZATION ESI
AC$CHROMATOGRAPHY: CAPILLARY_VOLTAGE +3.00 kV
AC$CHROMATOGRAPHY: COLUMN_NAME Acquity bridged ethyl hybrid C18 (1.7 um, 2.1 mm * 100 mm, Waters)
AC$CHROMATOGRAPHY: COLUMN_TEMPERATURE 40 C
AC$CHROMATOGRAPHY: FLOW_GRADIENT A/B = (99.5%/0.5% at 0 min, 99.5%/0.5% at 0.1 min, 20%/80% at 10 min, 0.5%/99.5% at 10.1 min, 0.5%/99.5% at 12.0 min, 99.5%/0.5% at 12.1 min, 99.5%/0.5% at 15.0 min)
AC$CHROMATOGRAPHY: FLOW_RATE 0.3 ml/min at 0 min, 0.3 ml/min at 10 min, 0.4 ml/min at 10.1 min, 0.4 ml/min at 14.4 min, 0.3 ml/min at 14.5 min
AC$CHROMATOGRAPHY: RETENTION_TIME 5.26195
AC$CHROMATOGRAPHY: SOLVENT A water including 0.1% formic acid
AC$CHROMATOGRAPHY: SOLVENT B acetonitrile including 0.1% formic acid
MS$FOCUSED_ION: PRECURSOR_TYPE [M+H]+
MS$FOCUSED_ION: PRECURSOR_M/Z 303.1590856
PK$SPLASH: splash10-0aor-0940000000-d29a8c4955190f3b08d4
PK$NUM_PEAK: 31
PK$PEAK: m/z int. rel.int.
  92.05529 37.0 37
  95.48875 34.0 34
  103.05389 31.0 31
  107.03499 45.0 45
  107.0496 1000.0 999
  108.04549 32.0 32
  117.07012 29.0 29
  132.05977 32.0 32
  133.0645 333.0 333
  134.06735 73.0 73
  135.08563 62.0 62
  135.6304 34.0 34
  141.07092 75.0 75
  142.08073 41.0 41
  145.06595 86.0 86
  147.08182 271.0 271
  148.08684 62.0 62
  148.33873 28.0 28
  154.07323 44.0 44
  159.07693 170.0 170
  159.08582 112.0 112
  160.08328 179.0 179
  177.08597 32.0 32
  179.07486 29.0 29
  211.06731 32.0 32
  221.0981 109.0 109
  267.13986 794.0 793
  268.125 52.0 52
  268.1456 364.0 364
  285.15213 99.0 99
  286.15027 44.0 44
//
