ACCESSION: MSBNK-RIKEN-PR308797
RECORD_TITLE: Hesperetin-7-O-neohesperidoside; LC-ESI-QTOF; MS2
DATE: 2019.03.28
AUTHORS: Tetsuya Mori, Center for Sustainable Resource Science, RIKEN
LICENSE: CC BY-NC-SA
PUBLICATION: Tsugawa H., Nakabayashi R., Mori T., Yamada Y., Takahashi M., Rai A., Sugiyama R., Yamamoto H., Nakaya T., Yamazaki M., Kooke R., Bac-Molenaar JA., Oztolan-Erol N., Keurentjes JJB., Arita M., Saito K. (2019) "A cheminformatics approach to characterize metabolomes in stable-isotope-labeled organisms" Nature Methods 16(4):295-298. [doi:10.1038/s41592-019-0358-2]
COMMENT: Annotation level-1
CH$NAME: Hesperetin-7-O-neohesperidoside
CH$COMPOUND_CLASS: Flavanone O-glycosides
CH$FORMULA: C28H34O15
CH$EXACT_MASS: 610.565
CH$SMILES: COC1=C(O)C=C(C=C1)C1CC(=O)C2=C(O)C=C(OC3OC(CO)C(O)C(O)C3OC3OC(C)C(O)C(O)C3O)C=C2O1
CH$IUPAC: InChI=1S/C28H34O15/c1-10-21(33)23(35)25(37)27(39-10)43-26-24(36)22(34)19(9-29)42-28(26)40-12-6-14(31)20-15(32)8-17(41-18(20)7-12)11-3-4-16(38-2)13(30)5-11/h3-7,10,17,19,21-31,33-37H,8-9H2,1-2H3
CH$LINK: INCHIKEY ARGKVCXINMKCAZ-UHFFFAOYSA-N
AC$INSTRUMENT: LC, Waters Acquity UPLC System; MS, Waters Xevo G2 Q-Tof
AC$INSTRUMENT_TYPE: LC-ESI-QTOF
AC$MASS_SPECTROMETRY: MS_TYPE MS2
AC$MASS_SPECTROMETRY: ION_MODE NEGATIVE
AC$MASS_SPECTROMETRY: COLLISION_ENERGY 6V
AC$MASS_SPECTROMETRY: DESOLVATION_GAS_FLOW 800/h
AC$MASS_SPECTROMETRY: DESOLVATION_TEMPERATURE 450 C
AC$MASS_SPECTROMETRY: IONIZATION ESI
AC$CHROMATOGRAPHY: CAPILLARY_VOLTAGE +3.00 kV
AC$CHROMATOGRAPHY: COLUMN_NAME Acquity bridged ethyl hybrid C18 (1.7 um, 2.1 mm * 100 mm, Waters)
AC$CHROMATOGRAPHY: COLUMN_TEMPERATURE 40 C
AC$CHROMATOGRAPHY: FLOW_GRADIENT A/B = (99.5%/0.5% at 0 min, 99.5%/0.5% at 0.1 min, 20%/80% at 10 min, 0.5%/99.5% at 10.1 min, 0.5%/99.5% at 12.0 min, 99.5%/0.5% at 12.1 min, 99.5%/0.5% at 15.0 min)
AC$CHROMATOGRAPHY: FLOW_RATE 0.3 ml/min at 0 min, 0.3 ml/min at 10 min, 0.4 ml/min at 10.1 min, 0.4 ml/min at 14.4 min, 0.3 ml/min at 14.5 min
AC$CHROMATOGRAPHY: RETENTION_TIME 4.61
AC$CHROMATOGRAPHY: SOLVENT A water including 0.1% formic acid
AC$CHROMATOGRAPHY: SOLVENT B acetonitrile including 0.1% formic acid
MS$FOCUSED_ION: PRECURSOR_TYPE [M-H]-
MS$FOCUSED_ION: PRECURSOR_M/Z 609.18249
PK$SPLASH: splash10-0pb9-0028009000-7f12331917ee3069ab3e
PK$NUM_PEAK: 184
PK$PEAK: m/z int. rel.int.
  73.02517 20.0 1
  87.04383 24.0 2
  101.02344 45.0 3
  103.03345 23.0 2
  110.03214 23.0 2
  125.02402 218.0 15
  127.02625 23.0 2
  130.04222 19.0 1
  135.0414 18.0 1
  135.04857 19.0 1
  149.06009 28.0 2
  150.0659 24.0 2
  151.00456 253.0 17
  152.00044 29.0 2
  162.036 25.0 2
  163.62584 18.0 1
  163.98909 18.0 1
  164.00537 40.0 3
  164.01521 162.0 11
  164.34277 24.0 2
  165.01518 30.0 2
  167.03981 20.0 1
  173.05232 20.0 1
  174.03149 54.0 4
  174.87871 36.0 2
  174.998 25.0 2
  177.02071 25.0 2
  185.02151 39.0 3
  185.45984 30.0 2
  193.76624 25.0 2
  198.03603 30.0 2
  199.03574 99.0 7
  200.00452 28.0 2
  200.0489 30.0 2
  201.01514 20.0 1
  201.02658 22.0 1
  202.06482 28.0 2
  203.0179 21.0 1
  213.05855 36.0 2
  215.03226 38.0 3
  215.04118 29.0 2
  215.05867 18.0 1
  215.07123 110.0 7
  217.01511 24.0 2
  217.03322 24.0 2
  217.04433 50.0 3
  225.05157 75.0 5
  226.59917 20.0 1
  227.03436 54.0 4
  227.06383 32.0 2
  229.0435 20.0 1
  232.0757 25.0 2
  233.08543 100.0 7
  235.02203 35.0 2
  239.07561 25.0 2
  240.03687 86.0 6
  240.06078 43.0 3
  241.04878 44.0 3
  242.05719 315.0 21
  243.05836 93.0 6
  244.02176 18.0 1
  244.03181 23.0 2
  244.04156 20.0 1
  244.0616 23.0 2
  255.02933 19.0 1
  257.0838 166.0 11
  258.05591 55.0 4
  258.07159 54.0 4
  259.05072 20.0 1
  259.43256 18.0 1
  263.47028 25.0 2
  266.05557 42.0 3
  268.026 18.0 1
  271.0575 43.0 3
  272.06662 23.0 2
  274.03918 25.0 2
  277.58066 33.0 2
  281.05151 22.0 1
  282.05118 23.0 2
  282.41406 18.0 1
  283.05777 310.0 21
  284.05972 28.0 2
  285.07358 21.0 1
  285.08224 26.0 2
  286.04651 589.0 40
  286.06781 27.0 2
  287.05142 164.0 11
  287.06293 40.0 3
  291.69968 19.0 1
  292.11951 20.0 1
  295.94894 18.0 1
  297.06369 18.0 1
  299.05539 20.0 1
  301.0705 8909.0 600
  301.09979 62.0 4
  301.29251 20.0 1
  302.0755 1623.0 109
  303.07181 232.0 16
  303.08792 25.0 2
  303.75137 23.0 2
  307.05978 44.0 3
  307.62778 20.0 1
  310.02838 20.0 1
  310.06058 29.0 2
  313.91077 20.0 1
  315.09668 55.0 4
  316.07733 20.0 1
  325.03842 20.0 1
  325.06299 220.0 15
  325.07571 261.0 18
  326.07306 82.0 6
  328.08191 27.0 2
  329.86972 20.0 1
  336.99683 21.0 1
  338.08817 30.0 2
  341.0643 20.0 1
  342.08475 24.0 2
  342.76169 25.0 2
  343.07437 347.0 23
  343.08713 407.0 27
  343.43338 21.0 1
  344.08292 59.0 4
  344.86676 22.0 1
  345.08481 22.0 1
  355.06952 24.0 2
  355.17142 30.0 2
  356.0864 20.0 1
  357.08762 46.0 3
  367.06702 36.0 2
  367.08691 18.0 1
  368.08792 52.0 4
  369.17947 26.0 2
  371.40765 22.0 1
  372.89731 31.0 2
  372.91736 22.0 1
  373.0914 78.0 5
  374.71341 26.0 2
  378.89374 20.0 1
  383.73395 25.0 2
  385.0907 38.0 3
  387.10367 23.0 2
  393.09616 18.0 1
  395.08578 22.0 1
  396.36124 24.0 2
  399.07248 27.0 2
  403.09076 87.0 6
  403.10916 25.0 2
  404.10727 59.0 4
  405.11203 30.0 2
  409.09518 28.0 2
  413.19623 21.0 1
  418.17151 21.0 1
  429.12109 20.0 1
  431.8768 47.0 3
  444.11304 25.0 2
  445.11365 64.0 4
  446.09766 23.0 2
  447.12473 41.0 3
  448.12183 26.0 2
  448.14523 34.0 2
  459.12805 31.0 2
  461.14456 20.0 1
  462.74313 24.0 2
  463.12552 18.0 1
  464.12299 20.0 1
  464.58954 18.0 1
  472.78128 22.0 1
  473.14084 39.0 3
  489.13849 546.0 37
  489.17603 33.0 2
  490.14206 87.0 6
  494.82483 22.0 1
  504.91165 29.0 2
  513.13464 23.0 2
  540.96448 21.0 1
  574.16577 21.0 1
  591.16998 22.0 1
  593.18256 19.0 1
  594.1507 20.0 1
  595.16467 22.0 1
  607.89459 19.0 1
  609.18359 14822.0 999
  609.23352 34.0 2
  609.2666 55.0 4
//
