ACCESSION: MSBNK-RIKEN-PR300173
RECORD_TITLE: Koumine; LC-ESI-QTOF; MS2
DATE: 2019.03.28
AUTHORS: Tetsuya Mori, Center for Sustainable Resource Science, RIKEN
LICENSE: CC BY-NC-SA
PUBLICATION: Tsugawa H., Nakabayashi R., Mori T., Yamada Y., Takahashi M., Rai A., Sugiyama R., Yamamoto H., Nakaya T., Yamazaki M., Kooke R., Bac-Molenaar JA., Oztolan-Erol N., Keurentjes JJB., Arita M., Saito K. (2019) "A cheminformatics approach to characterize metabolomes in stable-isotope-labeled organisms" Nature Methods 16(4):295-298. [doi:10.1038/s41592-019-0358-2]
COMMENT: registered in RIKEN PlaSMA
CH$NAME: Koumine
CH$COMPOUND_CLASS: 3-alkylindoles
CH$FORMULA: C20H22N2O
CH$EXACT_MASS: 306.409
CH$SMILES: CN1C[C@@]2(C=C)[C@@H]3C[C@@H]4OC[C@@H]3[C@@H]1C[C@]21C4=NC2=CC=CC=C12
CH$IUPAC: InChI=1S/C20H22N2O/c1-3-19-11-22(2)16-9-20(19)13-6-4-5-7-15(13)21-18(20)17-8-14(19)12(16)10-23-17/h3-7,12,14,16-17H,1,8-11H2,2H3/t12-,14+,16-,17-,19-,20-/m0/s1
CH$LINK: INCHIKEY VTLYEMHGPMGUOT-XMHJOAAQSA-N
AC$INSTRUMENT: LC, Waters Acquity UPLC System; MS, Waters Xevo G2 Q-Tof
AC$INSTRUMENT_TYPE: LC-ESI-QTOF
AC$MASS_SPECTROMETRY: MS_TYPE MS2
AC$MASS_SPECTROMETRY: ION_MODE POSITIVE
AC$MASS_SPECTROMETRY: COLLISION_ENERGY 6V
AC$MASS_SPECTROMETRY: DESOLVATION_GAS_FLOW 800/h
AC$MASS_SPECTROMETRY: DESOLVATION_TEMPERATURE 450 C
AC$MASS_SPECTROMETRY: IONIZATION ESI
AC$CHROMATOGRAPHY: CAPILLARY_VOLTAGE +3.00 kV
AC$CHROMATOGRAPHY: COLUMN_NAME Acquity bridged ethyl hybrid C18 (1.7 um, 2.1 mm * 100 mm, Waters)
AC$CHROMATOGRAPHY: COLUMN_TEMPERATURE 40 C
AC$CHROMATOGRAPHY: FLOW_GRADIENT A/B = (99.5%/0.5% at 0 min, 99.5%/0.5% at 0.1 min, 20%/80% at 10 min, 0.5%/99.5% at 10.1 min, 0.5%/99.5% at 12.0 min, 99.5%/0.5% at 12.1 min, 99.5%/0.5% at 15.0 min)
AC$CHROMATOGRAPHY: FLOW_RATE 0.3 ml/min at 0 min, 0.3 ml/min at 10 min, 0.4 ml/min at 10.1 min, 0.4 ml/min at 14.4 min, 0.3 ml/min at 14.5 min
AC$CHROMATOGRAPHY: RETENTION_TIME 3.584467
AC$CHROMATOGRAPHY: SOLVENT A water including 0.1% formic acid
AC$CHROMATOGRAPHY: SOLVENT B acetonitrile including 0.1% formic acid
MS$FOCUSED_ION: PRECURSOR_TYPE [M+H]+
MS$FOCUSED_ION: PRECURSOR_M/Z 307.1804898
PK$SPLASH: splash10-0159-0970000000-b0478b99c4cce3e7db69
PK$NUM_PEAK: 315
PK$PEAK: m/z int. rel.int.
  67.04903 5.0 5
  67.05647 10.0 10
  68.04913 6.0 6
  70.0472 6.0 6
  70.06444 55.0 55
  70.06838 61.0 61
  72.07845 6.0 6
  75.44148 10.0 10
  76.99226 5.0 5
  77.03947 26.0 26
  77.04617 8.0 8
  79.05161 32.0 32
  80.04938 9.0 9
  81.03532 8.0 8
  81.05756 28.0 28
  81.77058 7.0 7
  82.05156 5.0 5
  82.06744 17.0 17
  83.07048 29.0 29
  85.08505 9.0 9
  86.05934 7.0 7
  91.05614 37.0 37
  93.05443 16.0 16
  93.06717 16.0 16
  94.05257 8.0 8
  94.06521 59.0 59
  96.08067 14.0 14
  101.03044 10.0 10
  104.04679 5.0 5
  104.05151 7.0 7
  107.07272 28.0 28
  108.06339 10.0 10
  108.07565 6.0 6
  115.05712 32.0 32
  116.04362 6.0 6
  116.06341 10.0 10
  117.05485 58.0 58
  117.06134 22.0 22
  117.06852 22.0 22
  118.0643 20.0 20
  118.0779 5.0 5
  119.07066 10.0 10
  120.08009 115.0 115
  120.09058 5.0 5
  120.63734 6.0 6
  121.08553 13.0 13
  122.09843 8.0 8
  122.10236 18.0 18
  127.03342 10.0 10
  127.05483 16.0 16
  128.04097 10.0 10
  128.05247 19.0 19
  128.06422 31.0 31
  129.04509 11.0 11
  129.05141 9.0 9
  129.06596 20.0 20
  129.07352 39.0 39
  130.04694 5.0 5
  130.06441 116.0 116
  131.04463 5.0 5
  131.0564 9.0 9
  131.06873 6.0 6
  131.27147 7.0 7
  132.02623 5.0 5
  132.07686 17.0 17
  133.08087 23.0 23
  133.08846 55.0 55
  134.07739 6.0 6
  134.08693 7.0 7
  134.09314 28.0 28
  135.10002 18.0 18
  137.89789 12.0 12
  139.0529 15.0 15
  140.04973 51.0 51
  141.07295 28.0 28
  141.6714 5.0 5
  142.05937 10.0 10
  142.07269 8.0 8
  142.0816 11.0 11
  143.06659 10.0 10
  143.07513 43.0 43
  144.07755 41.0 41
  145.06238 9.0 9
  145.08572 14.0 14
  146.08328 5.0 5
  146.09843 6.0 6
  146.10538 7.0 7
  146.17606 11.0 11
  147.0851 8.0 8
  148.06982 6.0 6
  148.10254 7.0 7
  148.10982 19.0 19
  151.05405 64.0 64
  152.04951 29.0 29
  152.06244 88.0 88
  153.05545 18.0 18
  153.48976 6.0 6
  154.05727 14.0 14
  154.06783 55.0 55
  154.07491 13.0 13
  155.0675 36.0 36
  155.08064 6.0 6
  156.06305 13.0 13
  156.06917 10.0 10
  156.07875 21.0 21
  156.08806 19.0 19
  157.07899 20.0 20
  158.05296 6.0 6
  158.0594 13.0 13
  158.07007 10.0 10
  159.06398 10.0 10
  162.05652 7.0 7
  163.05154 5.0 5
  164.05908 6.0 6
  165.05409 7.0 7
  165.06294 34.0 34
  165.07506 38.0 38
  166.05785 28.0 28
  166.06673 85.0 85
  166.07495 32.0 32
  167.01884 6.0 6
  167.04208 6.0 6
  167.07312 743.0 742
  167.5808 6.0 6
  168.05153 18.0 18
  168.08035 435.0 435
  168.17339 8.0 8
  168.57802 5.0 5
  169.07265 33.0 33
  169.08145 45.0 45
  169.09625 14.0 14
  170.09538 9.0 9
  170.10793 6.0 6
  171.0894 10.0 10
  173.08333 5.0 5
  173.09431 5.0 5
  175.40875 6.0 6
  176.06204 27.0 27
  176.10634 14.0 14
  176.59824 6.0 6
  177.06297 14.0 14
  177.07352 14.0 14
  177.08252 5.0 5
  177.10394 7.0 7
  178.06342 75.0 75
  178.07738 45.0 45
  179.03322 6.0 6
  179.05443 21.0 21
  179.06656 74.0 74
  179.07419 116.0 116
  179.09473 17.0 17
  180.05519 11.0 11
  180.08101 793.0 792
  180.13235 5.0 5
  181.07137 30.0 30
  181.0795 123.0 123
  181.0872 286.0 286
  181.34769 5.0 5
  182.05293 8.0 8
  182.08601 22.0 22
  182.095 42.0 42
  183.06505 8.0 8
  183.09061 15.0 15
  183.1039 6.0 6
  188.04726 8.0 8
  188.09987 6.0 6
  189.06122 7.0 7
  189.07129 28.0 28
  190.04895 10.0 10
  190.05795 5.0 5
  190.07512 35.0 35
  190.08653 5.0 5
  191.0743 131.0 131
  191.08064 50.0 50
  191.8484 8.0 8
  192.05901 6.0 6
  192.08121 192.0 192
  192.67375 6.0 6
  193.05557 8.0 8
  193.08475 217.0 217
  193.10191 43.0 43
  193.88118 5.0 5
  194.06586 5.0 5
  194.0871 77.0 77
  194.09877 168.0 168
  194.25105 12.0 12
  195.06384 8.0 8
  195.07266 5.0 5
  195.09666 25.0 25
  195.10822 13.0 13
  196.04276 11.0 11
  196.07407 227.0 227
  196.10274 6.0 6
  196.11629 17.0 17
  197.07565 23.0 23
  197.08464 45.0 45
  197.09474 11.0 11
  197.11353 10.0 10
  197.46552 6.0 6
  199.08141 7.0 7
  199.10103 6.0 6
  201.07059 8.0 8
  201.97891 6.0 6
  202.0672 18.0 18
  202.08125 51.0 51
  202.78395 5.0 5
  203.06177 10.0 10
  203.07208 33.0 33
  203.08093 46.0 46
  204.02676 5.0 5
  204.08099 1000.0 999
  205.06854 28.0 28
  205.08624 412.0 412
  206.05902 7.0 7
  206.08995 199.0 199
  206.09995 168.0 168
  207.08105 9.0 9
  207.09782 92.0 92
  208.08623 10.0 10
  208.09457 31.0 31
  208.1087 8.0 8
  208.1217 20.0 20
  209.07932 6.0 6
  209.09839 10.0 10
  209.10907 14.0 14
  210.09846 7.0 7
  210.10712 6.0 6
  210.12756 10.0 10
  210.86502 7.0 7
  214.0665 8.0 8
  214.07578 5.0 5
  215.08699 17.0 17
  216.07886 108.0 108
  216.08727 68.0 68
  216.15715 5.0 5
  217.06253 6.0 6
  217.08771 580.0 579
  218.09489 332.0 332
  218.11288 33.0 33
  219.05057 6.0 6
  219.08159 23.0 23
  219.10364 49.0 49
  220.07503 7.0 7
  220.10359 80.0 80
  220.11684 86.0 86
  220.80827 8.0 8
  220.97368 7.0 7
  221.0778 15.0 15
  221.10619 73.0 73
  222.08911 9.0 9
  222.10216 10.0 10
  222.11734 6.0 6
  223.10945 7.0 7
  224.11798 5.0 5
  225.80467 6.0 6
  227.08618 9.0 9
  227.40953 11.0 11
  228.07904 59.0 59
  228.11986 7.0 7
  229.0864 32.0 32
  229.09685 16.0 16
  230.07397 11.0 11
  230.0975 207.0 207
  230.15697 6.0 6
  231.08246 12.0 12
  231.1012 179.0 179
  232.06264 9.0 9
  232.09169 38.0 38
  232.10968 74.0 74
  233.10844 11.0 11
  233.12163 13.0 13
  234.06409 6.0 6
  234.0843 12.0 12
  234.1001 10.0 10
  234.12251 20.0 20
  234.14059 6.0 6
  235.1136 9.0 9
  235.12846 14.0 14
  236.13791 34.0 34
  237.10872 6.0 6
  238.10983 11.0 11
  238.12082 17.0 17
  238.13608 6.0 6
  241.05243 9.0 9
  241.06358 9.0 9
  241.09377 30.0 30
  242.09489 81.0 81
  243.08098 12.0 12
  243.09471 21.0 21
  243.11002 40.0 40
  244.05704 7.0 7
  244.09283 6.0 6
  244.11436 59.0 59
  245.07195 9.0 9
  245.1169 5.0 5
  245.12607 16.0 16
  246.09216 8.0 8
  246.1286 19.0 19
  247.12961 31.0 31
  248.10834 8.0 8
  248.1407 6.0 6
  249.14459 6.0 6
  251.09201 6.0 6
  251.11858 11.0 11
  251.45178 5.0 5
  254.09441 7.0 7
  255.10272 5.0 5
  256.10416 25.0 25
  260.11743 6.0 6
  261.13733 6.0 6
  261.15533 8.0 8
  279.50943 9.0 9
  298.05405 5.0 5
  307.16513 10.0 10
  307.18155 23.0 23
//
