ACCESSION: MSBNK-RIKEN-PR303594
RECORD_TITLE: Cinobufagin; LC-ESI-QTOF; MS2
DATE: 2019.03.28
AUTHORS: Tetsuya Mori, Center for Sustainable Resource Science, RIKEN
LICENSE: CC BY-NC-SA
PUBLICATION: Tsugawa H., Nakabayashi R., Mori T., Yamada Y., Takahashi M., Rai A., Sugiyama R., Yamamoto H., Nakaya T., Yamazaki M., Kooke R., Bac-Molenaar JA., Oztolan-Erol N., Keurentjes JJB., Arita M., Saito K. (2019) "A cheminformatics approach to characterize metabolomes in stable-isotope-labeled organisms" Nature Methods 16(4):295-298. [doi:10.1038/s41592-019-0358-2]
COMMENT: registered in RIKEN PlaSMA
CH$NAME: Cinobufagin
CH$COMPOUND_CLASS: Bufanolides and derivatives
CH$FORMULA: C26H34O6
CH$EXACT_MASS: 442.552
CH$SMILES: CC(=O)O[C@H]1[C@H]2O[C@]22[C@@H]3CC[C@@H]4C[C@@H](O)CC[C@]4(C)[C@H]3CC[C@]2(C)[C@H]1C1=COC(=O)C=C1
CH$IUPAC: InChI=1S/C26H34O6/c1-14(27)31-22-21(15-4-7-20(29)30-13-15)25(3)11-9-18-19(26(25)23(22)32-26)6-5-16-12-17(28)8-10-24(16,18)2/h4,7,13,16-19,21-23,28H,5-6,8-12H2,1-3H3/t16-,17+,18+,19-,21+,22-,23-,24+,25-,26-/m1/s1
CH$LINK: INCHIKEY SCULJPGYOQQXTK-OLRINKBESA-N
AC$INSTRUMENT: LC, Waters Acquity UPLC System; MS, Waters Xevo G2 Q-Tof
AC$INSTRUMENT_TYPE: LC-ESI-QTOF
AC$MASS_SPECTROMETRY: MS_TYPE MS2
AC$MASS_SPECTROMETRY: ION_MODE POSITIVE
AC$MASS_SPECTROMETRY: COLLISION_ENERGY 6V
AC$MASS_SPECTROMETRY: DESOLVATION_GAS_FLOW 800/h
AC$MASS_SPECTROMETRY: DESOLVATION_TEMPERATURE 450 C
AC$MASS_SPECTROMETRY: IONIZATION ESI
AC$CHROMATOGRAPHY: CAPILLARY_VOLTAGE +3.00 kV
AC$CHROMATOGRAPHY: COLUMN_NAME Acquity bridged ethyl hybrid C18 (1.7 um, 2.1 mm * 100 mm, Waters)
AC$CHROMATOGRAPHY: COLUMN_TEMPERATURE 40 C
AC$CHROMATOGRAPHY: FLOW_GRADIENT A/B = (99.5%/0.5% at 0 min, 99.5%/0.5% at 0.1 min, 20%/80% at 10 min, 0.5%/99.5% at 10.1 min, 0.5%/99.5% at 12.0 min, 99.5%/0.5% at 12.1 min, 99.5%/0.5% at 15.0 min)
AC$CHROMATOGRAPHY: FLOW_RATE 0.3 ml/min at 0 min, 0.3 ml/min at 10 min, 0.4 ml/min at 10.1 min, 0.4 ml/min at 14.4 min, 0.3 ml/min at 14.5 min
AC$CHROMATOGRAPHY: RETENTION_TIME 7.508033
AC$CHROMATOGRAPHY: SOLVENT A water including 0.1% formic acid
AC$CHROMATOGRAPHY: SOLVENT B acetonitrile including 0.1% formic acid
MS$FOCUSED_ION: PRECURSOR_TYPE [M+H]+
MS$FOCUSED_ION: PRECURSOR_M/Z 443.2428153
PK$SPLASH: splash10-0k9i-0940000000-c807639b7535722dc44c
PK$NUM_PEAK: 656
PK$PEAK: m/z int. rel.int.
  57.03089 6.0 6
  67.05356 40.0 40
  69.06767 8.0 8
  69.07485 12.0 12
  79.05073 15.0 15
  79.05605 25.0 25
  81.03323 5.0 5
  81.06963 184.0 184
  82.0718 8.0 8
  83.04487 6.0 6
  83.07962 8.0 8
  83.08527 11.0 11
  91.05101 11.0 11
  91.05635 39.0 39
  91.67873 14.0 14
  93.07041 206.0 206
  94.07463 14.0 14
  95.0489 108.0 108
  95.07921 38.0 38
  95.08647 182.0 182
  96.05708 11.0 11
  96.08872 9.0 9
  97.06535 13.0 13
  97.09962 8.0 8
  102.28773 7.0 7
  103.05083 7.0 7
  103.26917 5.0 5
  104.42397 7.0 7
  105.05983 15.0 15
  105.07084 265.0 265
  106.07619 14.0 14
  107.04461 16.0 16
  107.0502 39.0 39
  107.06777 15.0 15
  107.08619 302.0 302
  107.3763 7.0 7
  108.05508 8.0 8
  108.0854 12.0 12
  108.09135 40.0 40
  109.02882 211.0 211
  109.06383 18.0 18
  109.10027 80.0 80
  110.0325 20.0 20
  110.10223 15.0 15
  111.07932 12.0 12
  111.11818 13.0 13
  112.0489 5.0 5
  117.06924 86.0 86
  119.08565 196.0 196
  119.09731 6.0 6
  119.34804 9.0 9
  120.0843 13.0 13
  120.09007 27.0 27
  121.02576 29.0 29
  121.06275 25.0 25
  121.06952 31.0 31
  121.1013 283.0 283
  121.29983 6.0 6
  122.0318 7.0 7
  122.09719 8.0 8
  122.10705 15.0 15
  123.00896 5.0 5
  123.04407 250.0 250
  123.07162 6.0 6
  123.0802 26.0 26
  123.11645 32.0 32
  124.04633 11.0 11
  125.02393 22.0 22
  125.04426 5.0 5
  125.05675 6.0 6
  125.06564 5.0 5
  126.02968 10.0 10
  127.61414 5.0 5
  129.07024 43.0 43
  129.07971 7.0 7
  129.74911 6.0 6
  130.07698 8.0 8
  130.08327 5.0 5
  131.04712 30.0 30
  131.08601 259.0 259
  132.08679 16.0 16
  132.09467 9.0 9
  132.10486 6.0 6
  133.04314 6.0 6
  133.06516 24.0 24
  133.10179 367.0 367
  133.12302 5.0 5
  133.69287 5.0 5
  133.70082 6.0 6
  134.10381 27.0 27
  134.11078 8.0 8
  134.43935 5.0 5
  134.97427 5.0 5
  135.04659 59.0 59
  135.08237 19.0 19
  135.11708 459.0 459
  136.04631 11.0 11
  136.11949 42.0 42
  136.37779 8.0 8
  137.05493 16.0 16
  137.06248 40.0 40
  137.09297 31.0 31
  137.12904 5.0 5
  137.34984 10.0 10
  138.09753 8.0 8
  139.03522 16.0 16
  139.04379 10.0 10
  141.06712 27.0 27
  141.07562 19.0 19
  142.06973 8.0 8
  143.0862 195.0 195
  144.05667 5.0 5
  144.08286 11.0 11
  144.09177 20.0 20
  145.06366 33.0 33
  145.0724 18.0 18
  145.08791 11.0 11
  145.10107 297.0 297
  146.10616 44.0 44
  147.04605 20.0 20
  147.06786 9.0 9
  147.08122 62.0 62
  147.0946 8.0 8
  147.11679 331.0 331
  147.89612 5.0 5
  148.07475 8.0 8
  148.0845 21.0 21
  148.12003 46.0 46
  148.12811 8.0 8
  149.00565 5.0 5
  149.02414 80.0 80
  149.05983 93.0 93
  149.09659 29.0 29
  149.11731 14.0 14
  149.13297 131.0 131
  150.06755 11.0 11
  150.13826 22.0 22
  151.03925 741.0 740
  151.07123 15.0 15
  151.11028 25.0 25
  152.02989 10.0 10
  152.04176 100.0 100
  152.08865 10.0 10
  153.01921 18.0 18
  153.05345 38.0 38
  153.85979 6.0 6
  154.07698 17.0 17
  155.03265 6.0 6
  155.08513 84.0 84
  156.08676 8.0 8
  156.89688 7.0 7
  157.0636 125.0 125
  157.10257 186.0 186
  158.07233 6.0 6
  158.09995 7.0 7
  158.10931 29.0 29
  159.04643 12.0 12
  159.06779 8.0 8
  159.07999 93.0 93
  159.09372 7.0 7
  159.11717 485.0 485
  160.0863 16.0 16
  160.12135 64.0 64
  161.05701 44.0 44
  161.0666 33.0 33
  161.0894 19.0 19
  161.10048 31.0 31
  161.13301 294.0 294
  162.06001 12.0 12
  162.09795 15.0 15
  162.13837 35.0 35
  163.03122 16.0 16
  163.04109 92.0 92
  163.06197 6.0 6
  163.07597 40.0 40
  163.11194 5.0 5
  163.40749 6.0 6
  164.12279 7.0 7
  165.04893 47.0 47
  165.06815 46.0 46
  165.57423 8.0 8
  166.07855 11.0 11
  167.02553 17.0 17
  167.03323 65.0 65
  167.06815 16.0 16
  167.08363 45.0 45
  167.09755 5.0 5
  167.11061 5.0 5
  168.03914 11.0 11
  168.09644 5.0 5
  169.04218 9.0 9
  169.05367 17.0 17
  169.06598 7.0 7
  169.08713 16.0 16
  169.10199 115.0 115
  170.01192 5.0 5
  170.06702 9.0 9
  170.1035 10.0 10
  170.11063 9.0 9
  171.07922 86.0 86
  171.08583 45.0 45
  171.11592 97.0 97
  171.12364 43.0 43
  172.11668 30.0 30
  172.12608 22.0 22
  173.05782 48.0 48
  173.07962 9.0 9
  173.08809 12.0 12
  173.09857 46.0 46
  173.13231 214.0 214
  174.06345 19.0 19
  174.09781 7.0 7
  174.10918 10.0 10
  174.13806 16.0 16
  175.02716 6.0 6
  175.04556 24.0 24
  175.07513 199.0 199
  175.11143 15.0 15
  175.12204 10.0 10
  175.15027 60.0 60
  175.15955 14.0 14
  176.07921 35.0 35
  176.15254 14.0 14
  176.16699 10.0 10
  177.03641 8.0 8
  177.05388 85.0 85
  177.09097 35.0 35
  177.12805 17.0 17
  177.16316 10.0 10
  178.04965 7.0 7
  178.05634 10.0 10
  178.07849 19.0 19
  178.16531 5.0 5
  179.06099 8.0 8
  179.07072 16.0 16
  179.08888 22.0 22
  179.76379 8.0 8
  180.08298 10.0 10
  181.0452 11.0 11
  181.06941 9.0 9
  181.10278 105.0 105
  182.10416 26.0 26
  183.08156 72.0 72
  183.10623 18.0 18
  183.11763 107.0 107
  184.08333 6.0 6
  184.09004 10.0 10
  184.11797 16.0 16
  184.12801 15.0 15
  185.05634 40.0 40
  185.09933 69.0 69
  185.12476 40.0 40
  185.13416 64.0 64
  185.15085 5.0 5
  186.09146 5.0 5
  186.13802 18.0 18
  187.07582 42.0 42
  187.10962 48.0 48
  187.14903 1000.0 999
  188.07433 9.0 9
  188.12117 16.0 16
  188.13654 9.0 9
  188.15132 140.0 140
  189.06079 11.0 11
  189.09164 34.0 34
  189.13428 8.0 8
  189.1682 39.0 39
  190.09026 6.0 6
  190.09619 10.0 10
  190.15959 15.0 15
  190.17543 5.0 5
  191.06206 16.0 16
  191.07182 36.0 36
  191.08415 13.0 13
  191.10754 5.0 5
  193.04926 6.0 6
  193.10159 72.0 72
  194.10625 20.0 20
  195.08223 41.0 41
  195.11758 121.0 121
  196.08437 18.0 18
  196.11955 9.0 9
  196.13084 14.0 14
  197.09682 74.0 74
  197.13071 92.0 92
  198.09796 21.0 21
  198.10562 15.0 15
  198.14424 21.0 21
  199.0623 8.0 8
  199.07729 45.0 45
  199.10902 16.0 16
  199.11697 15.0 15
  199.12865 10.0 10
  199.14374 34.0 34
  199.15332 54.0 54
  200.07845 12.0 12
  200.12274 12.0 12
  200.14993 10.0 10
  200.15767 29.0 29
  201.09256 49.0 49
  201.11824 5.0 5
  201.12537 9.0 9
  201.15704 9.0 9
  201.1716 22.0 22
  202.10019 10.0 10
  202.13147 10.0 10
  202.179 8.0 8
  203.05528 8.0 8
  203.07069 86.0 86
  203.13585 5.0 5
  203.17923 226.0 226
  204.14906 5.0 5
  204.17392 11.0 11
  204.18867 9.0 9
  205.06335 10.0 10
  205.08453 69.0 69
  205.10719 5.0 5
  205.13196 5.0 5
  205.16017 49.0 49
  205.18687 10.0 10
  206.08182 5.0 5
  206.09781 8.0 8
  206.16122 7.0 7
  206.3597 5.0 5
  207.07953 11.0 11
  207.10435 12.0 12
  207.11554 43.0 43
  209.095 51.0 51
  209.12849 47.0 47
  209.1386 25.0 25
  210.09738 21.0 21
  210.10834 6.0 6
  210.13058 19.0 19
  210.14362 12.0 12
  210.8623 15.0 15
  211.06445 6.0 6
  211.07709 12.0 12
  211.1088 80.0 80
  211.11934 26.0 26
  211.14587 86.0 86
  212.11629 15.0 15
  212.15346 41.0 41
  213.09103 46.0 46
  213.1066 16.0 16
  213.13017 22.0 22
  213.14676 6.0 6
  213.16243 142.0 142
  214.0909 12.0 12
  214.10095 6.0 6
  214.17247 74.0 74
  215.0713 19.0 19
  215.09915 18.0 18
  215.10866 18.0 18
  215.1411 40.0 40
  215.15671 17.0 17
  215.18059 551.0 550
  216.0909 8.0 8
  216.13989 9.0 9
  216.18045 100.0 100
  216.19072 24.0 24
  217.08112 12.0 12
  217.08932 60.0 60
  217.19971 23.0 23
  218.07823 8.0 8
  218.09351 18.0 18
  219.10582 9.0 9
  219.12012 27.0 27
  220.11983 16.0 16
  221.08321 15.0 15
  221.09882 27.0 27
  221.11205 8.0 8
  221.12883 19.0 19
  221.14082 9.0 9
  222.09888 7.0 7
  222.13792 20.0 20
  223.08038 29.0 29
  223.10187 13.0 13
  223.10786 33.0 33
  223.11742 18.0 18
  223.13713 21.0 21
  223.1563 31.0 31
  224.0815 8.0 8
  224.12076 8.0 8
  224.76193 7.0 7
  225.07616 5.0 5
  225.09047 36.0 36
  225.1283 34.0 34
  225.1433 15.0 15
  225.15785 21.0 21
  225.17082 14.0 14
  226.0979 14.0 14
  226.12473 10.0 10
  226.17557 15.0 15
  227.07443 11.0 11
  227.10693 110.0 110
  227.13438 8.0 8
  227.15013 29.0 29
  227.17902 77.0 77
  228.07938 5.0 5
  228.10022 10.0 10
  228.11772 30.0 30
  228.13905 10.0 10
  228.18585 13.0 13
  229.0778 8.0 8
  229.09138 37.0 37
  229.11566 44.0 44
  229.12424 34.0 34
  229.15453 10.0 10
  229.16705 13.0 13
  229.18665 10.0 10
  230.11563 5.0 5
  230.1411 6.0 6
  231.11945 8.0 8
  231.14081 5.0 5
  231.17976 10.0 10
  231.73947 5.0 5
  233.08754 7.0 7
  233.10371 9.0 9
  233.13525 30.0 30
  233.19144 31.0 31
  234.10049 8.0 8
  234.11769 6.0 6
  235.10828 23.0 23
  235.14656 39.0 39
  235.15829 12.0 12
  236.17322 15.0 15
  237.09407 87.0 87
  237.1335 18.0 18
  237.15416 15.0 15
  237.16679 40.0 40
  237.18141 7.0 7
  238.09972 14.0 14
  238.13408 14.0 14
  238.17804 23.0 23
  239.10309 83.0 83
  239.1149 48.0 48
  239.13567 21.0 21
  239.17212 9.0 9
  239.18541 6.0 6
  240.10574 22.0 22
  240.18471 6.0 6
  240.62273 6.0 6
  241.10713 11.0 11
  241.12379 78.0 78
  241.15282 6.0 6
  241.19525 12.0 12
  242.11368 9.0 9
  242.12537 14.0 14
  243.1013 12.0 12
  243.14223 26.0 26
  243.17509 14.0 14
  244.10109 6.0 6
  245.0939 9.0 9
  245.13403 50.0 50
  245.16153 5.0 5
  246.12813 9.0 9
  246.13954 11.0 11
  247.10612 38.0 38
  247.12624 12.0 12
  247.16209 9.0 9
  248.14931 15.0 15
  249.10107 5.0 5
  249.12312 24.0 24
  249.14946 11.0 11
  250.13374 9.0 9
  250.16328 5.0 5
  251.09395 14.0 14
  251.10367 45.0 45
  251.13826 7.0 7
  251.15385 19.0 19
  251.17842 163.0 163
  252.10507 9.0 9
  252.11658 7.0 7
  252.14516 10.0 10
  252.158 5.0 5
  252.18692 90.0 90
  253.11821 56.0 56
  253.16063 16.0 16
  253.19559 85.0 85
  254.1781 5.0 5
  254.19847 29.0 29
  255.07617 7.0 7
  255.08929 8.0 8
  255.10321 76.0 76
  255.12746 11.0 11
  255.14011 8.0 8
  255.16673 8.0 8
  255.18346 16.0 16
  255.21754 7.0 7
  255.70161 13.0 13
  256.14441 11.0 11
  256.18112 14.0 14
  257.12067 95.0 95
  258.11432 9.0 9
  258.1257 22.0 22
  258.14246 15.0 15
  258.15277 10.0 10
  259.10837 6.0 6
  259.11758 6.0 6
  259.13388 16.0 16
  259.14832 29.0 29
  260.13391 14.0 14
  260.15216 7.0 7
  260.16046 6.0 6
  261.13678 10.0 10
  261.172 22.0 22
  262.13626 5.0 5
  262.17386 5.0 5
  263.11621 9.0 9
  263.14374 42.0 42
  263.17966 10.0 10
  264.14917 11.0 11
  265.12708 59.0 59
  265.43576 5.0 5
  266.15732 11.0 11
  267.12799 12.0 12
  267.13968 16.0 16
  267.1701 8.0 8
  267.18237 7.0 7
  268.13519 6.0 6
  268.151 8.0 8
  268.18018 5.0 5
  269.11502 8.0 8
  269.12332 22.0 22
  269.19049 31.0 31
  269.65854 5.0 5
  270.12927 5.0 5
  270.1846 5.0 5
  270.19772 18.0 18
  271.1329 25.0 25
  271.14627 16.0 16
  271.21002 10.0 10
  272.11548 5.0 5
  272.13037 11.0 11
  272.14758 6.0 6
  273.13602 14.0 14
  273.16779 8.0 8
  274.13397 13.0 13
  274.15625 9.0 9
  275.14346 6.0 6
  275.15494 6.0 6
  275.17581 15.0 15
  277.121 16.0 16
  277.13678 9.0 9
  277.1499 9.0 9
  277.16507 17.0 17
  277.18796 27.0 27
  277.20029 16.0 16
  278.16101 9.0 9
  279.13879 15.0 15
  280.13675 8.0 8
  281.13913 12.0 12
  281.15433 17.0 17
  282.15573 7.0 7
  282.1662 7.0 7
  283.13446 20.0 20
  283.14804 5.0 5
  283.16586 12.0 12
  283.17719 10.0 10
  284.1478 12.0 12
  287.11832 5.0 5
  287.18655 41.0 41
  288.19556 10.0 10
  289.15997 10.0 10
  291.13876 29.0 29
  291.17853 23.0 23
  291.19162 8.0 8
  291.20685 14.0 14
  291.21912 17.0 17
  292.14413 5.0 5
  292.17981 9.0 9
  292.21545 37.0 37
  293.15768 8.0 8
  293.19437 5.0 5
  294.16016 5.0 5
  295.15524 9.0 9
  295.17575 13.0 13
  295.21472 10.0 10
  296.17105 8.0 8
  297.14563 16.0 16
  297.16397 6.0 6
  297.20865 10.0 10
  299.15399 10.0 10
  299.2424 5.0 5
  300.16193 5.0 5
  301.14468 6.0 6
  301.18768 9.0 9
  301.20044 17.0 17
  302.15912 9.0 9
  302.1868 9.0 9
  304.13333 7.0 7
  304.1781 8.0 8
  304.20486 6.0 6
  305.15225 10.0 10
  305.16815 14.0 14
  305.18964 29.0 29
  306.05954 8.0 8
  306.15842 5.0 5
  306.16638 10.0 10
  306.186 11.0 11
  306.19916 12.0 12
  307.16541 12.0 12
  309.14078 5.0 5
  309.15665 8.0 8
  309.19165 7.0 7
  309.22433 19.0 19
  311.17819 18.0 18
  311.90768 5.0 5
  312.18292 5.0 5
  317.15616 5.0 5
  319.17294 48.0 48
  319.19699 22.0 22
  319.21326 70.0 70
  320.20969 30.0 30
  320.22879 7.0 7
  321.19318 23.0 23
  322.19208 8.0 8
  322.20895 13.0 13
  323.1586 14.0 14
  323.17413 13.0 13
  323.20163 44.0 44
  324.14917 5.0 5
  324.20563 23.0 23
  325.20554 11.0 11
  329.18289 10.0 10
  329.20059 9.0 9
  331.19391 6.0 6
  332.17444 16.0 16
  337.18726 23.0 23
  337.21494 52.0 52
  337.22565 31.0 31
  338.2262 19.0 19
  339.19107 17.0 17
  340.21716 9.0 9
  347.19751 153.0 153
  347.20987 80.0 80
  348.20526 48.0 48
  355.21954 9.0 9
  355.23618 9.0 9
  365.19717 45.0 45
  365.21298 147.0 147
  366.20227 11.0 11
  366.22064 32.0 32
  367.21967 8.0 8
  383.22061 48.0 48
  384.21536 11.0 11
  384.22702 28.0 28
  401.1962 7.0 7
  401.23532 209.0 209
  402.2124 9.0 9
  402.24673 86.0 86
  403.24097 8.0 8
  425.4472 6.0 6
  442.21869 5.0 5
  443.22885 11.0 11
  443.24945 29.0 29
//
