ACCESSION: MSBNK-RIKEN-PR310412
RECORD_TITLE: Isohernandezine; LC-ESI-QTOF; MS2
DATE: 2019.03.28
AUTHORS: Tetsuya Mori, Center for Sustainable Resource Science, RIKEN
LICENSE: CC BY-NC-SA
PUBLICATION: Tsugawa H., Nakabayashi R., Mori T., Yamada Y., Takahashi M., Rai A., Sugiyama R., Yamamoto H., Nakaya T., Yamazaki M., Kooke R., Bac-Molenaar JA., Oztolan-Erol N., Keurentjes JJB., Arita M., Saito K. (2019) "A cheminformatics approach to characterize metabolomes in stable-isotope-labeled organisms" Nature Methods 16(4):295-298. [doi:10.1038/s41592-019-0358-2]
COMMENT: Annotation level-1
CH$NAME: Isohernandezine
CH$COMPOUND_CLASS: Tannins
CH$FORMULA: C39H44N2O7
CH$EXACT_MASS: 652.788
CH$SMILES: COC1=CC=C2CC3N(C)CCC4=C3C(OC3=CC5=C(CCN(C)C5CC5=CC=C(OC1=C2)C=C5)C=C3OC)=C(OC)C(OC)=C4OC
CH$IUPAC: InChI=1S/C39H44N2O7/c1-40-16-14-25-21-32(43-4)34-22-28(25)29(40)18-23-8-11-26(12-9-23)47-33-20-24(10-13-31(33)42-3)19-30-35-27(15-17-41(30)2)36(44-5)38(45-6)39(46-7)37(35)48-34/h8-13,20-22,29-30H,14-19H2,1-7H3
CH$LINK: INCHIKEY FUZMQNZACIFDBL-UHFFFAOYSA-N
AC$INSTRUMENT: LC, Waters Acquity UPLC System; MS, Waters Xevo G2 Q-Tof
AC$INSTRUMENT_TYPE: LC-ESI-QTOF
AC$MASS_SPECTROMETRY: MS_TYPE MS2
AC$MASS_SPECTROMETRY: ION_MODE POSITIVE
AC$MASS_SPECTROMETRY: COLLISION_ENERGY 6V
AC$MASS_SPECTROMETRY: DESOLVATION_GAS_FLOW 800/h
AC$MASS_SPECTROMETRY: DESOLVATION_TEMPERATURE 450 C
AC$MASS_SPECTROMETRY: IONIZATION ESI
AC$CHROMATOGRAPHY: CAPILLARY_VOLTAGE +3.00 kV
AC$CHROMATOGRAPHY: COLUMN_NAME Acquity bridged ethyl hybrid C18 (1.7 um, 2.1 mm * 100 mm, Waters)
AC$CHROMATOGRAPHY: COLUMN_TEMPERATURE 40 C
AC$CHROMATOGRAPHY: FLOW_GRADIENT A/B = (99.5%/0.5% at 0 min, 99.5%/0.5% at 0.1 min, 20%/80% at 10 min, 0.5%/99.5% at 10.1 min, 0.5%/99.5% at 12.0 min, 99.5%/0.5% at 12.1 min, 99.5%/0.5% at 15.0 min)
AC$CHROMATOGRAPHY: FLOW_RATE 0.3 ml/min at 0 min, 0.3 ml/min at 10 min, 0.4 ml/min at 10.1 min, 0.4 ml/min at 14.4 min, 0.3 ml/min at 14.5 min
AC$CHROMATOGRAPHY: RETENTION_TIME 4.41
AC$CHROMATOGRAPHY: SOLVENT A water including 0.1% formic acid
AC$CHROMATOGRAPHY: SOLVENT B acetonitrile including 0.1% formic acid
MS$FOCUSED_ION: PRECURSOR_TYPE [M+H]+
MS$FOCUSED_ION: PRECURSOR_M/Z 653.32213
PK$SPLASH: splash10-0udi-0100109000-8069836acb8c9c12e694
PK$NUM_PEAK: 156
PK$PEAK: m/z int. rel.int.
  144.08 25.0 3
  146.09756 21.0 3
  160.06982 22.0 3
  162.08557 20.0 2
  162.09241 78.0 9
  163.07088 17.0 2
  174.07159 18.0 2
  174.09026 76.0 9
  174.10115 22.0 3
  175.10928 19.0 2
  176.07178 24.0 3
  178.08803 44.0 5
  189.08971 17.0 2
  189.11156 21.0 3
  191.0789 17.0 2
  191.09584 468.0 56
  192.07298 23.0 3
  192.09868 294.0 35
  193.06932 20.0 2
  193.10104 46.0 6
  202.08598 26.0 3
  203.12633 22.0 3
  204.10423 85.0 10
  205.10416 18.0 2
  207.03783 17.0 2
  209.0639 20.0 2
  213.09801 25.0 3
  221.10089 20.0 2
  227.10959 20.0 2
  233.10461 25.0 3
  236.11684 23.0 3
  245.28488 17.0 2
  248.08351 23.0 3
  249.14594 20.0 2
  250.09619 19.0 2
  252.10005 17.0 2
  263.11462 21.0 3
  268.10309 28.0 3
  279.1102 17.0 2
  279.12714 28.0 3
  281.13644 53.0 6
  281.14911 20.0 2
  283.65466 17.0 2
  291.31699 24.0 3
  298.12192 18.0 2
  305.14484 69.0 8
  310.15237 22.0 3
  311.65646 24.0 3
  315.18198 28.0 3
  323.14279 30.0 4
  323.15771 27.0 3
  324.11957 25.0 3
  327.12411 19.0 2
  327.16821 69.0 8
  327.66605 115.0 14
  328.17294 72.0 9
  328.32327 27.0 3
  337.14133 18.0 2
  338.1329 19.0 2
  347.74591 17.0 2
  351.32413 18.0 2
  355.16116 23.0 3
  363.3367 19.0 2
  368.1619 32.0 4
  370.18823 22.0 3
  378.15417 20.0 2
  379.17401 22.0 3
  385.13971 24.0 3
  386.23883 23.0 3
  393.95227 26.0 3
  395.18344 40.0 5
  399.14365 34.0 4
  399.1828 18.0 2
  400.1647 29.0 3
  401.14758 18.0 2
  403.16272 26.0 3
  411.13364 20.0 2
  411.14655 28.0 3
  411.17996 98.0 12
  411.19235 150.0 18
  411.20752 175.0 21
  412.16379 21.0 3
  412.17816 34.0 4
  412.19681 89.0 11
  414.14337 17.0 2
  414.20511 33.0 4
  415.16837 35.0 4
  426.22345 20.0 2
  432.18777 17.0 2
  432.21631 65.0 8
  433.24319 23.0 3
  446.20157 17.0 2
  459.20844 21.0 3
  460.17212 18.0 2
  460.20627 26.0 3
  460.22833 22.0 3
  461.46191 19.0 2
  462.24033 24.0 3
  463.22183 19.0 2
  478.1665 24.0 3
  486.23331 18.0 2
  492.51727 19.0 2
  499.2337 19.0 2
  503.14545 24.0 3
  515.85498 27.0 3
  516.23462 25.0 3
  526.19244 17.0 2
  532.22589 33.0 4
  535.20532 20.0 2
  561.23578 20.0 2
  564.26642 25.0 3
  566.23505 20.0 2
  576.24274 20.0 2
  578.26886 21.0 3
  579.27649 21.0 3
  580.24139 38.0 5
  581.17682 18.0 2
  581.28168 20.0 2
  581.30383 19.0 2
  590.28369 21.0 3
  591.22766 20.0 2
  591.30255 22.0 3
  591.80933 20.0 2
  593.25226 26.0 3
  595.30457 18.0 2
  601.72711 17.0 2
  606.18268 17.0 2
  606.26324 19.0 2
  607.1806 19.0 2
  607.23969 18.0 2
  607.26617 44.0 5
  608.27185 18.0 2
  608.92139 17.0 2
  610.26917 18.0 2
  610.30011 37.0 4
  611.17896 18.0 2
  611.88367 20.0 2
  621.2597 18.0 2
  621.30304 31.0 4
  622.23773 19.0 2
  622.28198 365.0 44
  622.33466 17.0 2
  623.28784 197.0 24
  624.30237 58.0 7
  624.77197 17.0 2
  625.28876 17.0 2
  625.30811 30.0 4
  632.19238 20.0 2
  651.28699 21.0 3
  653.19537 42.0 5
  653.22931 114.0 14
  653.25775 159.0 19
  653.3241 8350.0 999
  653.39923 41.0 5
  653.42767 20.0 2
  653.4585 18.0 2
//
