ACCESSION: MSBNK-RIKEN-PR300095
RECORD_TITLE: Koumidine; LC-ESI-QTOF; MS2
DATE: 2019.03.28
AUTHORS: Tetsuya Mori, Center for Sustainable Resource Science, RIKEN
LICENSE: CC BY-NC-SA
PUBLICATION: Tsugawa H., Nakabayashi R., Mori T., Yamada Y., Takahashi M., Rai A., Sugiyama R., Yamamoto H., Nakaya T., Yamazaki M., Kooke R., Bac-Molenaar JA., Oztolan-Erol N., Keurentjes JJB., Arita M., Saito K. (2019) "A cheminformatics approach to characterize metabolomes in stable-isotope-labeled organisms" Nature Methods 16(4):295-298. [doi:10.1038/s41592-019-0358-2]
COMMENT: registered in RIKEN PlaSMA
CH$NAME: Koumidine
CH$COMPOUND_CLASS: Macroline alkaloids
CH$FORMULA: C19H22N2O
CH$EXACT_MASS: 294.398
CH$SMILES: C\C=C1/CN2[C@H]3CC4=C(NC5=CC=CC=C45)[C@@H]2C[C@H]1[C@@H]3CO
CH$IUPAC: InChI=1S/C19H22N2O/c1-2-11-9-21-17-8-14-12-5-3-4-6-16(12)20-19(14)18(21)7-13(11)15(17)10-22/h2-6,13,15,17-18,20,22H,7-10H2,1H3/b11-2+/t13-,15+,17+,18+/m1/s1
CH$LINK: INCHIKEY VXTDUGOBAOLMED-CPEJFPLXSA-N
AC$INSTRUMENT: LC, Waters Acquity UPLC System; MS, Waters Xevo G2 Q-Tof
AC$INSTRUMENT_TYPE: LC-ESI-QTOF
AC$MASS_SPECTROMETRY: MS_TYPE MS2
AC$MASS_SPECTROMETRY: ION_MODE POSITIVE
AC$MASS_SPECTROMETRY: COLLISION_ENERGY 6V
AC$MASS_SPECTROMETRY: DESOLVATION_GAS_FLOW 800/h
AC$MASS_SPECTROMETRY: DESOLVATION_TEMPERATURE 450 C
AC$MASS_SPECTROMETRY: IONIZATION ESI
AC$CHROMATOGRAPHY: CAPILLARY_VOLTAGE +3.00 kV
AC$CHROMATOGRAPHY: COLUMN_NAME Acquity bridged ethyl hybrid C18 (1.7 um, 2.1 mm * 100 mm, Waters)
AC$CHROMATOGRAPHY: COLUMN_TEMPERATURE 40 C
AC$CHROMATOGRAPHY: FLOW_GRADIENT A/B = (99.5%/0.5% at 0 min, 99.5%/0.5% at 0.1 min, 20%/80% at 10 min, 0.5%/99.5% at 10.1 min, 0.5%/99.5% at 12.0 min, 99.5%/0.5% at 12.1 min, 99.5%/0.5% at 15.0 min)
AC$CHROMATOGRAPHY: FLOW_RATE 0.3 ml/min at 0 min, 0.3 ml/min at 10 min, 0.4 ml/min at 10.1 min, 0.4 ml/min at 14.4 min, 0.3 ml/min at 14.5 min
AC$CHROMATOGRAPHY: RETENTION_TIME 3.575733
AC$CHROMATOGRAPHY: SOLVENT A water including 0.1% formic acid
AC$CHROMATOGRAPHY: SOLVENT B acetonitrile including 0.1% formic acid
MS$FOCUSED_ION: PRECURSOR_TYPE [M+H]+
MS$FOCUSED_ION: PRECURSOR_M/Z 295.1804898
PK$SPLASH: splash10-00l6-0930000000-2b978b84deb6caa77f22
PK$NUM_PEAK: 309
PK$PEAK: m/z int. rel.int.
  50.27509 11.0 11
  56.05382 14.0 14
  63.02583 14.0 14
  67.04794 12.0 12
  67.05474 10.0 10
  69.0312 14.0 14
  77.03748 90.0 90
  77.04379 66.0 66
  78.0369 12.0 12
  79.04916 12.0 12
  79.0553 14.0 14
  80.05099 17.0 17
  80.05922 15.0 15
  81.05335 41.0 41
  81.07101 18.0 18
  83.07395 16.0 16
  83.08366 19.0 19
  83.24197 25.0 25
  89.03906 43.0 43
  90.03605 14.0 14
  90.04034 16.0 16
  90.05183 18.0 18
  91.0537 158.0 158
  92.05407 108.0 108
  92.85184 12.0 12
  93.048 69.0 69
  93.05933 178.0 178
  93.06979 78.0 78
  94.05422 17.0 17
  94.0641 98.0 98
  95.06892 11.0 11
  100.0715 10.0 10
  103.04716 20.0 20
  103.05705 113.0 113
  104.04294 40.0 40
  105.06934 39.0 39
  106.05825 24.0 24
  106.06577 101.0 101
  107.07316 75.0 75
  107.08649 12.0 12
  108.06554 16.0 16
  108.07533 132.0 132
  108.08167 393.0 393
  109.07767 14.0 14
  109.0901 14.0 14
  110.06084 16.0 16
  115.04718 43.0 43
  115.05599 70.0 70
  116.05117 23.0 23
  116.05931 11.0 11
  116.06749 12.0 12
  117.04401 23.0 23
  117.05706 155.0 155
  117.06789 152.0 152
  118.06242 135.0 135
  118.06908 51.0 51
  118.13566 10.0 10
  118.35375 14.0 14
  119.04296 18.0 18
  119.06375 34.0 34
  119.0725 75.0 75
  120.07797 204.0 204
  121.08347 80.0 80
  121.09415 22.0 22
  122.05754 14.0 14
  122.06245 13.0 13
  122.08914 15.0 15
  122.09811 15.0 15
  123.06075 17.0 17
  123.06899 82.0 82
  125.67162 10.0 10
  126.04367 30.0 30
  126.09119 20.0 20
  126.41933 14.0 14
  127.02517 36.0 36
  127.05461 210.0 210
  128.05132 164.0 164
  128.05995 350.0 350
  128.06657 310.0 310
  129.03944 24.0 24
  129.05836 89.0 89
  129.07059 457.0 457
  130.03279 27.0 27
  130.06454 798.0 797
  130.08102 18.0 18
  130.63243 11.0 11
  131.07022 387.0 387
  131.07964 72.0 72
  132.08107 85.0 85
  132.09204 11.0 11
  133.44356 12.0 12
  134.09828 73.0 73
  135.16234 12.0 12
  135.55244 10.0 10
  136.07909 34.0 34
  137.08553 25.0 25
  138.03911 10.0 10
  138.07904 35.0 35
  138.09245 73.0 73
  139.05446 47.0 47
  139.09644 12.0 12
  140.09032 14.0 14
  141.03955 12.0 12
  141.05519 16.0 16
  141.06238 31.0 31
  141.07607 31.0 31
  142.06126 12.0 12
  142.06847 50.0 50
  142.07713 14.0 14
  142.31989 19.0 19
  143.05309 16.0 16
  143.07253 430.0 430
  143.6149 12.0 12
  143.78587 10.0 10
  144.04857 18.0 18
  144.06723 22.0 22
  144.08008 464.0 464
  144.2207 10.0 10
  144.73293 11.0 11
  144.83807 14.0 14
  145.07324 12.0 12
  145.07892 20.0 20
  146.0676 19.0 19
  146.09271 82.0 82
  147.08281 10.0 10
  147.10361 12.0 12
  150.08592 12.0 12
  150.92479 16.0 16
  152.06117 156.0 156
  152.73972 10.0 10
  153.00598 11.0 11
  153.07352 10.0 10
  154.03978 11.0 11
  154.06479 381.0 381
  155.06483 63.0 63
  155.07137 204.0 204
  155.90419 20.0 20
  156.07335 242.0 242
  156.08238 530.0 529
  156.29036 22.0 22
  157.07681 23.0 23
  157.0874 75.0 75
  157.12784 10.0 10
  157.94742 13.0 13
  158.09419 41.0 41
  164.05562 31.0 31
  164.07335 14.0 14
  164.88271 21.0 21
  165.05261 15.0 15
  165.06549 76.0 76
  165.07257 47.0 47
  165.08003 16.0 16
  166.05682 20.0 20
  166.06441 53.0 53
  166.0802 18.0 18
  166.09488 12.0 12
  167.07246 1000.0 999
  167.11142 23.0 23
  168.02277 23.0 23
  168.05453 27.0 27
  168.0798 620.0 619
  169.07765 86.0 86
  169.08527 140.0 140
  170.09622 52.0 52
  171.11005 12.0 12
  177.06975 12.0 12
  178.04117 16.0 16
  178.06682 37.0 37
  178.08093 53.0 53
  178.7224 12.0 12
  179.05858 19.0 19
  179.07497 48.0 48
  179.62947 17.0 17
  180.03149 14.0 14
  180.04895 14.0 14
  180.05716 27.0 27
  180.07941 454.0 454
  181.06195 12.0 12
  181.07777 57.0 57
  181.08704 104.0 104
  182.06175 29.0 29
  182.08646 41.0 41
  182.10249 26.0 26
  182.8187 10.0 10
  183.08113 20.0 20
  183.09901 16.0 16
  184.09169 28.0 28
  184.10443 14.0 14
  187.05901 14.0 14
  189.07483 23.0 23
  189.25455 10.0 10
  190.06595 17.0 17
  190.07906 24.0 24
  191.05768 12.0 12
  191.07292 254.0 254
  191.08122 60.0 60
  191.10263 12.0 12
  192.04317 20.0 20
  192.06171 12.0 12
  192.08261 323.0 323
  192.09984 16.0 16
  193.07265 53.0 53
  193.08716 395.0 395
  193.10156 49.0 49
  194.0963 405.0 405
  195.07367 14.0 14
  195.0914 80.0 80
  195.10916 146.0 146
  195.57567 11.0 11
  196.07874 12.0 12
  196.1104 24.0 24
  201.05035 12.0 12
  202.077 68.0 68
  202.14751 20.0 20
  202.94867 12.0 12
  203.06029 18.0 18
  203.08757 45.0 45
  203.59151 12.0 12
  204.05612 36.0 36
  204.08086 302.0 302
  205.0657 41.0 41
  205.08067 246.0 246
  205.09082 143.0 143
  206.0486 12.0 12
  206.09143 284.0 284
  206.1004 165.0 165
  207.09157 173.0 173
  207.10466 219.0 219
  207.11604 23.0 23
  208.11388 43.0 43
  209.10971 28.0 28
  209.12622 30.0 30
  214.06718 10.0 10
  216.07199 40.0 40
  216.08365 108.0 108
  216.10112 20.0 20
  217.06836 20.0 20
  217.09221 384.0 384
  217.09993 113.0 113
  218.0735 11.0 11
  218.09439 300.0 300
  218.1615 14.0 14
  219.08754 108.0 108
  219.10541 54.0 54
  219.16664 32.0 32
  220.09737 70.0 70
  220.11208 25.0 25
  220.13603 18.0 18
  221.09532 17.0 17
  221.10733 45.0 45
  222.13255 75.0 75
  223.13881 15.0 15
  224.10843 15.0 15
  226.0773 29.0 29
  228.06985 68.0 68
  228.08537 111.0 111
  229.06909 12.0 12
  229.08424 19.0 19
  229.11221 14.0 14
  229.74141 11.0 11
  230.08551 71.0 71
  230.09599 306.0 306
  230.11095 27.0 27
  230.41519 13.0 13
  231.06436 10.0 10
  231.08913 37.0 37
  231.09935 149.0 149
  231.11583 27.0 27
  231.41708 11.0 11
  231.54068 11.0 11
  232.0954 68.0 68
  232.10886 133.0 133
  232.2701 11.0 11
  233.11223 105.0 105
  233.12027 79.0 79
  234.11795 41.0 41
  234.12601 27.0 27
  235.11765 40.0 40
  236.12146 34.0 34
  241.0809 13.0 13
  241.09421 40.0 40
  242.06015 15.0 15
  242.07291 14.0 14
  242.09579 64.0 64
  243.09418 127.0 127
  244.09163 12.0 12
  244.10242 50.0 50
  244.11064 137.0 137
  244.34053 15.0 15
  245.10016 37.0 37
  245.11679 36.0 36
  246.11028 24.0 24
  246.123 27.0 27
  246.13124 19.0 19
  247.10965 14.0 14
  247.12239 53.0 53
  248.12816 89.0 89
  249.13715 25.0 25
  259.13635 15.0 15
  260.12796 12.0 12
  261.12347 12.0 12
  261.13809 12.0 12
  261.1488 33.0 33
  262.1445 14.0 14
  262.1615 20.0 20
  263.15283 12.0 12
  279.16119 24.0 24
  295.16751 32.0 32
  295.1813 136.0 136
//
