ACCESSION: MSBNK-RIKEN-PR303591
RECORD_TITLE: Cinobufagin; LC-ESI-QTOF; MS2
DATE: 2019.03.28
AUTHORS: Tetsuya Mori, Center for Sustainable Resource Science, RIKEN
LICENSE: CC BY-NC-SA
PUBLICATION: Tsugawa H., Nakabayashi R., Mori T., Yamada Y., Takahashi M., Rai A., Sugiyama R., Yamamoto H., Nakaya T., Yamazaki M., Kooke R., Bac-Molenaar JA., Oztolan-Erol N., Keurentjes JJB., Arita M., Saito K. (2019) "A cheminformatics approach to characterize metabolomes in stable-isotope-labeled organisms" Nature Methods 16(4):295-298. [doi:10.1038/s41592-019-0358-2]
COMMENT: registered in RIKEN PlaSMA
CH$NAME: Cinobufagin
CH$COMPOUND_CLASS: Bufanolides and derivatives
CH$FORMULA: C26H34O6
CH$EXACT_MASS: 442.552
CH$SMILES: CC(=O)O[C@H]1[C@H]2O[C@]22[C@@H]3CC[C@@H]4C[C@@H](O)CC[C@]4(C)[C@H]3CC[C@]2(C)[C@H]1C1=COC(=O)C=C1
CH$IUPAC: InChI=1S/C26H34O6/c1-14(27)31-22-21(15-4-7-20(29)30-13-15)25(3)11-9-18-19(26(25)23(22)32-26)6-5-16-12-17(28)8-10-24(16,18)2/h4,7,13,16-19,21-23,28H,5-6,8-12H2,1-3H3/t16-,17+,18+,19-,21+,22-,23-,24+,25-,26-/m1/s1
CH$LINK: INCHIKEY SCULJPGYOQQXTK-OLRINKBESA-N
AC$INSTRUMENT: LC, Waters Acquity UPLC System; MS, Waters Xevo G2 Q-Tof
AC$INSTRUMENT_TYPE: LC-ESI-QTOF
AC$MASS_SPECTROMETRY: MS_TYPE MS2
AC$MASS_SPECTROMETRY: ION_MODE POSITIVE
AC$MASS_SPECTROMETRY: COLLISION_ENERGY 6V
AC$MASS_SPECTROMETRY: DESOLVATION_GAS_FLOW 800/h
AC$MASS_SPECTROMETRY: DESOLVATION_TEMPERATURE 450 C
AC$MASS_SPECTROMETRY: IONIZATION ESI
AC$CHROMATOGRAPHY: CAPILLARY_VOLTAGE +3.00 kV
AC$CHROMATOGRAPHY: COLUMN_NAME Acquity bridged ethyl hybrid C18 (1.7 um, 2.1 mm * 100 mm, Waters)
AC$CHROMATOGRAPHY: COLUMN_TEMPERATURE 40 C
AC$CHROMATOGRAPHY: FLOW_GRADIENT A/B = (99.5%/0.5% at 0 min, 99.5%/0.5% at 0.1 min, 20%/80% at 10 min, 0.5%/99.5% at 10.1 min, 0.5%/99.5% at 12.0 min, 99.5%/0.5% at 12.1 min, 99.5%/0.5% at 15.0 min)
AC$CHROMATOGRAPHY: FLOW_RATE 0.3 ml/min at 0 min, 0.3 ml/min at 10 min, 0.4 ml/min at 10.1 min, 0.4 ml/min at 14.4 min, 0.3 ml/min at 14.5 min
AC$CHROMATOGRAPHY: RETENTION_TIME 7.508033
AC$CHROMATOGRAPHY: SOLVENT A water including 0.1% formic acid
AC$CHROMATOGRAPHY: SOLVENT B acetonitrile including 0.1% formic acid
MS$FOCUSED_ION: PRECURSOR_TYPE [M+H]+
MS$FOCUSED_ION: PRECURSOR_M/Z 443.2428153
PK$SPLASH: splash10-0a4l-1910000000-aff08f9ff44ae3b78b04
PK$NUM_PEAK: 586
PK$PEAK: m/z int. rel.int.
  55.05685 20.0 20
  55.21277 8.0 8
  58.40065 7.0 7
  65.03776 7.0 7
  65.52304 9.0 9
  66.2343 7.0 7
  67.04282 10.0 10
  67.05362 112.0 112
  67.0593 47.0 47
  67.24973 8.0 8
  68.05685 20.0 20
  69.07139 36.0 36
  70.07525 6.0 6
  71.01359 8.0 8
  71.75368 6.0 6
  75.74135 10.0 10
  77.02258 6.0 6
  77.03011 7.0 7
  77.03796 109.0 109
  79.03981 7.0 7
  79.05438 288.0 288
  79.85869 6.0 6
  80.05678 60.0 60
  81.0313 41.0 41
  81.03705 7.0 7
  81.05939 7.0 7
  81.07065 236.0 236
  82.07137 32.0 32
  83.01434 7.0 7
  83.04145 14.0 14
  83.05173 22.0 22
  83.08372 23.0 23
  83.0908 13.0 13
  84.08575 8.0 8
  85.06277 6.0 6
  90.10825 9.0 9
  91.04051 22.0 22
  91.05383 532.0 531
  91.60432 6.0 6
  92.05779 74.0 74
  92.34283 6.0 6
  93.0322 12.0 12
  93.0395 6.0 6
  93.07004 474.0 474
  93.57824 8.0 8
  94.06203 9.0 9
  94.06876 7.0 7
  94.07602 24.0 24
  94.28732 7.0 7
  95.05024 325.0 325
  95.08526 331.0 331
  96.05183 7.0 7
  96.08619 8.0 8
  96.74896 6.0 6
  97.03109 9.0 9
  97.05801 10.0 10
  97.06881 13.0 13
  97.09821 20.0 20
  97.69617 8.0 8
  97.77299 11.0 11
  98.0344 7.0 7
  98.06464 8.0 8
  98.06991 9.0 9
  98.74996 9.0 9
  101.7028 7.0 7
  102.05066 10.0 10
  103.04528 7.0 7
  103.05371 71.0 71
  104.98837 6.0 6
  105.03122 35.0 35
  105.03883 19.0 19
  105.04823 7.0 7
  105.05676 50.0 50
  105.06914 1000.0 999
  105.24625 6.0 6
  106.03304 8.0 8
  106.0723 94.0 94
  107.04565 62.0 62
  107.05091 47.0 47
  107.06994 14.0 14
  107.08601 462.0 462
  107.91647 6.0 6
  108.03288 12.0 12
  108.0888 45.0 45
  108.09697 7.0 7
  109.00821 6.0 6
  109.02843 385.0 385
  109.06194 41.0 41
  109.08998 18.0 18
  109.09953 48.0 48
  109.10645 28.0 28
  109.11436 7.0 7
  110.03234 52.0 52
  110.06684 15.0 15
  111.00604 10.0 10
  111.04105 13.0 13
  111.05106 6.0 6
  112.04788 9.0 9
  113.01501 8.0 8
  113.22234 6.0 6
  114.86881 7.0 7
  115.02734 6.0 6
  115.03512 19.0 19
  115.05462 109.0 109
  115.21475 10.0 10
  116.06056 40.0 40
  117.03894 8.0 8
  117.06909 384.0 384
  117.79853 6.0 6
  118.07867 29.0 29
  118.08427 10.0 10
  118.73565 7.0 7
  119.04916 49.0 49
  119.08606 516.0 515
  119.88216 8.0 8
  120.08858 48.0 48
  120.09591 30.0 30
  120.11291 7.0 7
  120.90797 7.0 7
  121.00056 11.0 11
  121.02878 192.0 192
  121.06212 92.0 92
  121.07024 51.0 51
  121.0905 6.0 6
  121.10147 119.0 119
  121.55925 6.0 6
  122.1049 14.0 14
  122.84817 9.0 9
  123.00639 20.0 20
  123.03889 74.0 74
  123.04446 146.0 146
  123.07784 14.0 14
  124.05106 12.0 12
  125.01846 33.0 33
  125.03246 17.0 17
  125.83771 11.0 11
  127.04913 14.0 14
  127.05589 37.0 37
  127.76443 10.0 10
  128.06194 281.0 281
  128.15074 6.0 6
  128.3725 6.0 6
  128.56792 7.0 7
  129.06949 529.0 528
  129.09749 6.0 6
  129.52573 6.0 6
  130.07039 40.0 40
  130.07729 135.0 135
  130.08994 6.0 6
  130.19611 7.0 7
  131.05054 57.0 57
  131.06523 14.0 14
  131.08534 825.0 824
  131.13037 7.0 7
  132.05296 7.0 7
  132.08792 113.0 113
  132.0966 24.0 24
  133.0246 9.0 9
  133.02989 8.0 8
  133.04947 10.0 10
  133.06487 113.0 113
  133.10132 385.0 385
  134.03807 9.0 9
  134.06398 6.0 6
  134.0723 18.0 18
  134.09738 21.0 21
  134.10803 28.0 28
  135.04825 14.0 14
  135.08061 16.0 16
  135.09877 15.0 15
  135.11119 21.0 21
  135.11835 79.0 79
  136.04953 8.0 8
  136.08978 8.0 8
  136.11635 21.0 21
  136.12834 8.0 8
  137.0573 24.0 24
  137.09483 8.0 8
  138.02582 6.0 6
  139.01817 13.0 13
  139.03983 74.0 74
  139.05757 8.0 8
  141.07092 198.0 198
  141.08138 7.0 7
  142.07182 65.0 65
  142.07776 218.0 218
  142.10152 7.0 7
  142.17409 9.0 9
  143.05072 8.0 8
  143.08591 460.0 460
  143.36559 7.0 7
  144.05141 8.0 8
  144.06065 18.0 18
  144.0672 7.0 7
  144.08955 94.0 94
  144.09668 41.0 41
  144.32509 6.0 6
  145.03291 7.0 7
  145.06265 33.0 33
  145.07008 17.0 17
  145.08664 30.0 30
  145.10175 616.0 615
  145.11333 24.0 24
  145.57396 7.0 7
  146.06253 17.0 17
  146.07317 6.0 6
  146.10139 45.0 45
  146.10817 54.0 54
  147.04677 24.0 24
  147.08095 127.0 127
  147.10294 17.0 17
  147.11736 200.0 200
  147.21237 6.0 6
  148.05208 16.0 16
  148.07765 11.0 11
  148.08485 6.0 6
  148.12038 31.0 31
  149.02089 66.0 66
  149.06049 89.0 89
  149.11597 6.0 6
  149.13651 52.0 52
  150.10976 6.0 6
  150.13786 6.0 6
  151.03862 255.0 255
  151.05905 8.0 8
  151.07135 6.0 6
  152.05026 27.0 27
  152.06174 28.0 28
  152.63994 6.0 6
  153.03687 8.0 8
  153.05467 9.0 9
  153.06992 172.0 172
  153.84328 8.0 8
  154.06348 8.0 8
  154.07321 46.0 46
  154.08044 83.0 83
  155.04842 12.0 12
  155.08382 160.0 160
  155.09227 58.0 58
  155.41052 6.0 6
  156.08911 101.0 101
  156.1076 10.0 10
  157.06496 264.0 264
  157.10083 306.0 306
  157.12164 6.0 6
  157.66348 6.0 6
  158.06876 72.0 72
  158.10379 89.0 89
  159.03523 6.0 6
  159.07832 49.0 49
  159.08789 13.0 13
  159.11598 362.0 362
  160.05415 8.0 8
  160.06464 6.0 6
  160.08295 8.0 8
  160.12158 58.0 58
  160.13338 9.0 9
  160.89189 9.0 9
  160.89874 6.0 6
  161.05191 20.0 20
  161.06065 97.0 97
  161.09149 12.0 12
  161.09937 9.0 9
  161.12933 78.0 78
  161.13965 23.0 23
  162.11372 8.0 8
  163.03835 23.0 23
  163.076 15.0 15
  164.71666 8.0 8
  165.05098 20.0 20
  165.06905 211.0 211
  166.07736 211.0 211
  167.02777 14.0 14
  167.03938 11.0 11
  167.08487 236.0 236
  168.08281 30.0 30
  168.09404 83.0 83
  169.0385 8.0 8
  169.06023 35.0 35
  169.06824 24.0 24
  169.09952 227.0 227
  170.05891 6.0 6
  170.07256 23.0 23
  170.08946 13.0 13
  170.10306 56.0 56
  170.11234 12.0 12
  171.07106 13.0 13
  171.08044 62.0 62
  171.09541 20.0 20
  171.11777 82.0 82
  171.13077 9.0 9
  172.04485 7.0 7
  172.08156 31.0 31
  172.11612 23.0 23
  172.12788 59.0 59
  173.05473 10.0 10
  173.06448 12.0 12
  173.09636 38.0 38
  173.13266 106.0 106
  174.13611 29.0 29
  174.14696 15.0 15
  175.04181 17.0 17
  175.06482 21.0 21
  175.07542 107.0 107
  175.11414 19.0 19
  175.14371 20.0 20
  175.14978 10.0 10
  176.06273 8.0 8
  176.07755 20.0 20
  176.08546 8.0 8
  176.64178 7.0 7
  177.06776 8.0 8
  177.08673 15.0 15
  177.09477 7.0 7
  178.06039 6.0 6
  178.07617 121.0 121
  178.50766 6.0 6
  179.08356 161.0 161
  179.0972 20.0 20
  180.09306 105.0 105
  181.05869 25.0 25
  181.0695 41.0 41
  181.09854 178.0 178
  181.11057 17.0 17
  181.43582 10.0 10
  182.05807 6.0 6
  182.07188 43.0 43
  182.09825 25.0 25
  182.10625 23.0 23
  183.03693 7.0 7
  183.06435 14.0 14
  183.07716 48.0 48
  183.09462 8.0 8
  183.11874 116.0 116
  183.31081 6.0 6
  184.08487 25.0 25
  184.0956 7.0 7
  184.10213 6.0 6
  184.11955 62.0 62
  184.75214 13.0 13
  185.06326 29.0 29
  185.09537 37.0 37
  185.13419 47.0 47
  185.14067 23.0 23
  186.0975 10.0 10
  186.10617 7.0 7
  186.13599 13.0 13
  186.14427 6.0 6
  187.06416 12.0 12
  187.07352 53.0 53
  187.1104 18.0 18
  187.13373 18.0 18
  187.1481 246.0 246
  187.79181 13.0 13
  188.08054 10.0 10
  188.11575 7.0 7
  188.15114 51.0 51
  188.16054 11.0 11
  189.06108 10.0 10
  189.07417 8.0 8
  189.1008 9.0 9
  189.15543 8.0 8
  190.13695 6.0 6
  191.07484 33.0 33
  191.08954 45.0 45
  191.18715 6.0 6
  192.07872 11.0 11
  192.08778 45.0 45
  192.0993 12.0 12
  193.06003 6.0 6
  193.0705 9.0 9
  193.1026 167.0 167
  194.07251 13.0 13
  194.0874 8.0 8
  194.1116 57.0 57
  195.05948 6.0 6
  195.07378 27.0 27
  195.08678 23.0 23
  195.09749 8.0 8
  195.11082 36.0 36
  195.11771 133.0 133
  196.0619 7.0 7
  196.08044 8.0 8
  196.09627 7.0 7
  196.11012 10.0 10
  196.12038 13.0 13
  196.12759 11.0 11
  197.01497 6.0 6
  197.05917 9.0 9
  197.09445 35.0 35
  197.10515 11.0 11
  197.13333 42.0 42
  198.06042 20.0 20
  198.07823 7.0 7
  198.09848 7.0 7
  198.12582 16.0 16
  199.07951 14.0 14
  199.10988 7.0 7
  199.11728 6.0 6
  199.14819 73.0 73
  199.18729 8.0 8
  200.11797 7.0 7
  200.15689 15.0 15
  200.16289 6.0 6
  201.06284 22.0 22
  201.08504 7.0 7
  201.09892 13.0 13
  201.15773 13.0 13
  202.07996 29.0 29
  203.064 17.0 17
  203.07861 52.0 52
  203.08798 30.0 30
  204.00449 8.0 8
  204.09204 25.0 25
  204.10365 20.0 20
  204.77531 8.0 8
  205.08556 9.0 9
  205.10204 64.0 64
  206.05997 7.0 7
  206.07277 10.0 10
  206.10875 48.0 48
  207.0155 7.0 7
  207.08159 34.0 34
  207.11217 25.0 25
  208.09052 16.0 16
  208.09972 7.0 7
  208.1219 19.0 19
  209.05942 7.0 7
  209.09602 42.0 42
  209.10736 6.0 6
  209.12976 30.0 30
  209.14157 8.0 8
  210.06226 6.0 6
  210.08597 6.0 6
  210.09743 7.0 7
  210.1066 7.0 7
  210.13908 24.0 24
  211.04787 6.0 6
  211.07678 6.0 6
  211.10384 15.0 15
  211.11145 21.0 21
  211.11998 12.0 12
  211.1519 16.0 16
  212.11925 7.0 7
  212.14925 8.0 8
  212.15491 17.0 17
  212.17155 10.0 10
  213.08661 8.0 8
  213.13171 10.0 10
  214.17366 20.0 20
  215.06564 7.0 7
  215.1512 17.0 17
  215.17645 34.0 34
  215.47191 10.0 10
  216.10028 18.0 18
  216.29584 10.0 10
  217.09979 13.0 13
  217.11076 7.0 7
  217.16258 6.0 6
  218.11072 28.0 28
  219.08478 14.0 14
  219.11046 12.0 12
  219.12025 21.0 21
  220.08748 10.0 10
  220.11821 10.0 10
  220.12845 8.0 8
  220.13766 7.0 7
  221.09282 33.0 33
  221.10648 6.0 6
  221.13672 21.0 21
  221.71893 8.0 8
  222.09386 41.0 41
  222.13464 14.0 14
  223.07874 19.0 19
  223.0907 8.0 8
  223.10349 7.0 7
  223.11469 16.0 16
  223.12148 6.0 6
  223.14287 21.0 21
  223.15263 17.0 17
  224.16309 7.0 7
  225.08121 11.0 11
  225.10269 6.0 6
  225.12109 6.0 6
  225.1678 12.0 12
  227.09819 7.0 7
  227.18285 6.0 6
  229.09779 32.0 32
  229.11606 9.0 9
  230.09914 15.0 15
  230.1171 10.0 10
  231.08653 6.0 6
  231.10661 12.0 12
  231.11757 16.0 16
  232.11424 7.0 7
  232.13263 14.0 14
  233.06929 6.0 6
  233.13495 36.0 36
  234.13617 12.0 12
  234.93306 7.0 7
  235.10719 9.0 9
  235.13184 8.0 8
  235.14296 8.0 8
  235.1618 8.0 8
  236.06519 7.0 7
  236.0775 6.0 6
  236.10617 6.0 6
  237.12038 9.0 9
  237.16425 18.0 18
  237.17471 7.0 7
  238.0943 8.0 8
  239.13654 9.0 9
  241.11108 7.0 7
  241.15327 6.0 6
  242.11761 23.0 23
  243.07805 6.0 6
  243.11435 8.0 8
  243.12563 15.0 15
  244.125 7.0 7
  245.11807 8.0 8
  245.13113 10.0 10
  246.12715 9.0 9
  247.14569 6.0 6
  248.15538 7.0 7
  249.42052 7.0 7
  250.16948 6.0 6
  250.18221 10.0 10
  251.1087 7.0 7
  251.14439 6.0 6
  253.09224 8.0 8
  253.19528 13.0 13
  254.20171 8.0 8
  255.08778 16.0 16
  255.10123 9.0 9
  255.13605 6.0 6
  259.11615 12.0 12
  261.08792 9.0 9
  261.17041 24.0 24
  262.13043 30.0 30
  262.17175 6.0 6
  263.10699 6.0 6
  263.1824 7.0 7
  264.06696 8.0 8
  264.27576 6.0 6
  268.12622 6.0 6
  269.16904 7.0 7
  269.18616 10.0 10
  269.19498 6.0 6
  270.14044 15.0 15
  271.14798 8.0 8
  272.14645 17.0 17
  273.15866 6.0 6
  275.13092 10.0 10
  275.14313 6.0 6
  276.16165 7.0 7
  277.12518 7.0 7
  277.16385 6.0 6
  279.49234 7.0 7
  286.32422 11.0 11
  288.15173 6.0 6
  289.12137 7.0 7
  289.1528 8.0 8
  289.16162 8.0 8
  291.17456 7.0 7
  292.21237 6.0 6
  292.22302 7.0 7
  292.40323 7.0 7
  295.16257 9.0 9
  299.13333 6.0 6
  304.14551 6.0 6
  305.18201 7.0 7
  312.19037 7.0 7
  314.15366 7.0 7
  315.06824 7.0 7
  318.1535 17.0 17
  318.18866 7.0 7
  330.60202 9.0 9
  331.78964 6.0 6
  337.16641 6.0 6
  338.54294 7.0 7
  385.12186 6.0 6
  387.4614 7.0 7
  388.7594 8.0 8
  408.80652 6.0 6
  443.21027 8.0 8
  443.24344 75.0 75
//
