ACCESSION: MSBNK-RIKEN-PR303310
RECORD_TITLE: NP-000062(6); LC-ESI-QTOF; MS2
DATE: 2019.03.28
AUTHORS: Tetsuya Mori, Center for Sustainable Resource Science, RIKEN
LICENSE: CC BY-NC-SA
PUBLICATION: Tsugawa H., Nakabayashi R., Mori T., Yamada Y., Takahashi M., Rai A., Sugiyama R., Yamamoto H., Nakaya T., Yamazaki M., Kooke R., Bac-Molenaar JA., Oztolan-Erol N., Keurentjes JJB., Arita M., Saito K. (2019) "A cheminformatics approach to characterize metabolomes in stable-isotope-labeled organisms" Nature Methods 16(4):295-298. [doi:10.1038/s41592-019-0358-2]
COMMENT: registered in RIKEN PlaSMA
CH$NAME: NP-000062(6)
CH$COMPOUND_CLASS: Flavonoid 8-C-glycosides
CH$FORMULA: C26H28O14
CH$EXACT_MASS: 564.496
CH$SMILES: OC[C@@H]1OC([C@H](O)[C@H]1O)C1=C(O)C(C2O[C@H](CO)[C@@H](O)[C@H](O)[C@H]2O)=C2OC(=CC(=O)C2=C1O)C1=CC=C(O)C=C1
CH$IUPAC: InChI=1S/C26H28O14/c27-6-12-17(31)21(35)23(37)26(40-12)16-20(34)15(25-22(36)18(32)13(7-28)39-25)19(33)14-10(30)5-11(38-24(14)16)8-1-3-9(29)4-2-8/h1-5,12-13,17-18,21-23,25-29,31-37H,6-7H2/t12-,13+,17-,18+,21+,22-,23-,25?,26?/m1/s1
CH$LINK: INCHIKEY DRLZZQRQMWQRLZ-FBMRRHFKSA-N
AC$INSTRUMENT: LC, Waters Acquity UPLC System; MS, Waters Xevo G2 Q-Tof
AC$INSTRUMENT_TYPE: LC-ESI-QTOF
AC$MASS_SPECTROMETRY: MS_TYPE MS2
AC$MASS_SPECTROMETRY: ION_MODE POSITIVE
AC$MASS_SPECTROMETRY: COLLISION_ENERGY 6V
AC$MASS_SPECTROMETRY: DESOLVATION_GAS_FLOW 800/h
AC$MASS_SPECTROMETRY: DESOLVATION_TEMPERATURE 450 C
AC$MASS_SPECTROMETRY: IONIZATION ESI
AC$CHROMATOGRAPHY: CAPILLARY_VOLTAGE +3.00 kV
AC$CHROMATOGRAPHY: COLUMN_NAME Acquity bridged ethyl hybrid C18 (1.7 um, 2.1 mm * 100 mm, Waters)
AC$CHROMATOGRAPHY: COLUMN_TEMPERATURE 40 C
AC$CHROMATOGRAPHY: FLOW_GRADIENT A/B = (99.5%/0.5% at 0 min, 99.5%/0.5% at 0.1 min, 20%/80% at 10 min, 0.5%/99.5% at 10.1 min, 0.5%/99.5% at 12.0 min, 99.5%/0.5% at 12.1 min, 99.5%/0.5% at 15.0 min)
AC$CHROMATOGRAPHY: FLOW_RATE 0.3 ml/min at 0 min, 0.3 ml/min at 10 min, 0.4 ml/min at 10.1 min, 0.4 ml/min at 14.4 min, 0.3 ml/min at 14.5 min
AC$CHROMATOGRAPHY: RETENTION_TIME 3.6386
AC$CHROMATOGRAPHY: SOLVENT A water including 0.1% formic acid
AC$CHROMATOGRAPHY: SOLVENT B acetonitrile including 0.1% formic acid
MS$FOCUSED_ION: PRECURSOR_TYPE [M+H]+
MS$FOCUSED_ION: PRECURSOR_M/Z 565.155182
PK$SPLASH: splash10-05i1-0149000000-52cabe0801adb6f2e593
PK$NUM_PEAK: 359
PK$PEAK: m/z int. rel.int.
  67.17989 15.0 15
  67.47681 12.0 12
  69.03289 22.0 22
  91.05342 13.0 13
  105.075 26.0 26
  106.03838 14.0 14
  119.02213 28.0 28
  119.04694 98.0 98
  119.0515 37.0 37
  119.06062 12.0 12
  121.02837 527.0 526
  123.02953 30.0 30
  123.04716 28.0 28
  129.03342 14.0 14
  145.0182 21.0 21
  145.02939 39.0 39
  146.03841 12.0 12
  157.07301 17.0 17
  159.04765 35.0 35
  160.0477 17.0 17
  161.02811 26.0 26
  163.04619 34.0 34
  173.0222 26.0 26
  173.03215 12.0 12
  173.0563 18.0 18
  175.03253 19.0 19
  176.98033 17.0 17
  177.01718 63.0 63
  178.02167 22.0 22
  178.04974 16.0 16
  179.02666 24.0 24
  179.03175 12.0 12
  181.05539 17.0 17
  181.0645 12.0 12
  183.0822 17.0 17
  185.05573 21.0 21
  187.03331 17.0 17
  188.96358 17.0 17
  189.01508 111.0 111
  189.02545 67.0 67
  190.02972 37.0 37
  193.01646 12.0 12
  197.02951 17.0 17
  197.05843 24.0 24
  198.34471 15.0 15
  199.03662 93.0 93
  199.04744 23.0 23
  200.05582 12.0 12
  201.01494 70.0 70
  201.05421 17.0 17
  202.0527 15.0 15
  203.00479 12.0 12
  203.01955 54.0 54
  203.0425 98.0 98
  203.06625 15.0 15
  204.07631 16.0 16
  205.007 24.0 24
  207.82915 13.0 13
  209.04785 14.0 14
  209.06068 33.0 33
  211.0331 12.0 12
  211.04692 33.0 33
  211.06635 23.0 23
  212.05341 24.0 24
  213.05402 40.0 40
  213.09019 12.0 12
  215.02922 91.0 91
  215.04391 50.0 50
  216.01816 15.0 15
  216.05373 21.0 21
  217.03625 26.0 26
  217.05605 30.0 30
  217.80472 17.0 17
  218.0161 12.0 12
  218.04785 18.0 18
  219.03325 60.0 60
  219.1474 21.0 21
  220.02663 14.0 14
  223.07793 12.0 12
  225.05882 28.0 28
  226.02539 15.0 15
  227.0217 14.0 14
  227.03334 72.0 72
  227.0696 19.0 19
  228.03258 16.0 16
  229.05341 19.0 19
  230.05182 15.0 15
  231.03049 16.0 16
  231.04015 31.0 31
  231.06537 12.0 12
  233.0291 17.0 17
  237.0625 28.0 28
  241.04575 41.0 41
  242.03465 13.0 13
  242.06671 14.0 14
  242.99962 21.0 21
  243.02638 28.0 28
  243.07054 17.0 17
  244.03378 26.0 26
  245.03969 30.0 30
  247.84192 17.0 17
  251.33276 19.0 19
  253.04233 20.0 20
  253.08702 24.0 24
  254.65439 34.0 34
  255.02792 86.0 86
  256.026 40.0 40
  256.03452 16.0 16
  256.23862 12.0 12
  257.0372 20.0 20
  257.04712 21.0 21
  259.96561 19.0 19
  266.04843 28.0 28
  266.05667 21.0 21
  267.0303 28.0 28
  267.04321 16.0 16
  267.06067 19.0 19
  267.069 56.0 56
  268.06207 19.0 19
  268.07312 35.0 35
  269.04395 14.0 14
  270.04822 21.0 21
  271.0679 24.0 24
  273.01691 19.0 19
  273.03558 23.0 23
  277.07742 13.0 13
  279.06339 102.0 102
  279.08368 15.0 15
  280.06366 35.0 35
  281.03577 15.0 15
  281.0434 35.0 35
  281.07901 86.0 86
  281.10098 20.0 20
  282.08536 12.0 12
  283.02753 19.0 19
  283.06348 128.0 128
  284.06516 16.0 16
  285.03754 39.0 39
  287.06992 12.0 12
  290.36929 15.0 15
  291.06049 27.0 27
  292.03717 17.0 17
  292.05386 17.0 17
  292.06473 15.0 15
  292.08243 19.0 19
  292.73196 15.0 15
  293.08142 108.0 108
  293.10016 13.0 13
  294.04889 331.0 331
  294.05774 115.0 115
  294.27362 19.0 19
  295.03799 70.0 70
  295.0621 1000.0 999
  295.09372 59.0 59
  295.32172 13.0 13
  296.06003 120.0 120
  296.07193 107.0 107
  296.09891 30.0 30
  297.0748 204.0 204
  298.04605 15.0 15
  298.07669 35.0 35
  298.08844 13.0 13
  303.05362 21.0 21
  303.07056 19.0 19
  304.05191 17.0 17
  304.07678 21.0 21
  305.06589 30.0 30
  305.08984 37.0 37
  305.57477 15.0 15
  306.06671 26.0 26
  306.07776 17.0 17
  307.06137 566.0 565
  307.07291 205.0 205
  307.11441 18.0 18
  307.84613 12.0 12
  308.03888 19.0 19
  308.06238 355.0 355
  308.07535 125.0 125
  308.97714 14.0 14
  309.06357 160.0 160
  309.07623 288.0 288
  309.09738 39.0 39
  310.04361 45.0 45
  310.08023 66.0 66
  310.09958 26.0 26
  311.06345 37.0 37
  313.06131 12.0 12
  313.07196 21.0 21
  313.09021 33.0 33
  315.05817 16.0 16
  317.07446 75.0 75
  318.06735 14.0 14
  318.09015 41.0 41
  318.10172 27.0 27
  318.72272 14.0 14
  319.05978 66.0 66
  319.09293 73.0 73
  320.06717 176.0 176
  320.08643 35.0 35
  321.03912 17.0 17
  321.07791 609.0 608
  321.1041 51.0 51
  321.16586 17.0 17
  322.0379 14.0 14
  322.08286 322.0 322
  322.11469 19.0 19
  323.06497 39.0 39
  323.08737 224.0 224
  324.0943 15.0 15
  324.11343 35.0 35
  325.01859 44.0 44
  325.0705 820.0 819
  325.0899 72.0 72
  326.05801 24.0 24
  326.07303 127.0 127
  326.08591 64.0 64
  326.10062 20.0 20
  328.0798 26.0 26
  328.10278 25.0 25
  329.06851 18.0 18
  329.08731 68.0 68
  330.09027 36.0 36
  331.0986 44.0 44
  331.70953 30.0 30
  332.09128 15.0 15
  333.05038 13.0 13
  333.0788 257.0 257
  333.20648 12.0 12
  334.0665 18.0 18
  334.08716 118.0 118
  334.51517 15.0 15
  334.63202 13.0 13
  335.03848 29.0 29
  335.06244 22.0 22
  335.07599 77.0 77
  335.09058 227.0 227
  336.05014 59.0 59
  336.06482 37.0 37
  336.07864 19.0 19
  336.10352 12.0 12
  337.04599 35.0 35
  337.05521 91.0 91
  337.0719 154.0 154
  337.08405 131.0 131
  337.10712 50.0 50
  338.05084 22.0 22
  338.05933 49.0 49
  338.07867 35.0 35
  339.05185 15.0 15
  339.07645 31.0 31
  340.04007 13.0 13
  340.07391 26.0 26
  343.08609 22.0 22
  344.06851 17.0 17
  345.07803 93.0 93
  345.09641 39.0 39
  346.08438 68.0 68
  347.0679 37.0 37
  347.09109 226.0 226
  348.05957 21.0 21
  348.07523 41.0 41
  348.10361 14.0 14
  349.0083 17.0 17
  349.04132 17.0 17
  349.07047 149.0 149
  349.08289 98.0 98
  349.11392 30.0 30
  349.12601 24.0 24
  350.0798 76.0 76
  350.10538 21.0 21
  350.50452 12.0 12
  351.03644 30.0 30
  351.05518 21.0 21
  351.08646 320.0 320
  352.08453 26.0 26
  352.10599 37.0 37
  353.09818 37.0 37
  353.93671 12.0 12
  354.09058 30.0 30
  357.07697 30.0 30
  359.05975 21.0 21
  359.08444 63.0 63
  360.07489 12.0 12
  360.09018 12.0 12
  361.04135 34.0 34
  361.07318 130.0 130
  361.11713 14.0 14
  361.13669 23.0 23
  362.07468 12.0 12
  363.06213 51.0 51
  363.09308 67.0 67
  363.10703 18.0 18
  364.04822 15.0 15
  364.09595 46.0 46
  364.10678 19.0 19
  365.07465 12.0 12
  365.09949 33.0 33
  365.11829 14.0 14
  366.0741 33.0 33
  366.21997 12.0 12
  367.05414 19.0 19
  367.07159 35.0 35
  370.54938 12.0 12
  372.64609 17.0 17
  372.89252 12.0 12
  373.01123 12.0 12
  373.06189 57.0 57
  373.07971 49.0 49
  373.5806 15.0 15
  374.08731 122.0 122
  375.0451 13.0 13
  375.08838 84.0 84
  376.06641 14.0 14
  376.09018 17.0 17
  377.10544 79.0 79
  378.08691 74.0 74
  378.99854 14.0 14
  379.06714 59.0 59
  379.09467 26.0 26
  380.06317 14.0 14
  380.08615 14.0 14
  380.10275 19.0 19
  381.09021 24.0 24
  383.08661 17.0 17
  383.14041 15.0 15
  385.07312 34.0 34
  385.09772 31.0 31
  386.07492 21.0 21
  387.03091 17.0 17
  387.07623 19.0 19
  388.06665 15.0 15
  389.06033 17.0 17
  389.10849 41.0 41
  390.06998 19.0 19
  391.043 30.0 30
  391.07947 14.0 14
  391.10297 12.0 12
  392.07458 12.0 12
  392.09784 17.0 17
  392.12057 15.0 15
  397.08304 15.0 15
  399.10025 16.0 16
  403.05676 14.0 14
  403.07916 30.0 30
  404.10287 13.0 13
  405.08875 37.0 37
  408.07657 12.0 12
  408.10736 15.0 15
  409.1095 17.0 17
  417.10544 13.0 13
  420.0787 24.0 24
  421.08411 23.0 23
  428.10532 16.0 16
  433.09619 14.0 14
  433.11096 13.0 13
  441.45227 19.0 19
  445.06485 15.0 15
  457.09146 22.0 22
  565.15228 17.0 17
//
