ACCESSION: MSBNK-RIKEN-PR100143
RECORD_TITLE: Guanosine 5'-diphosphoglucose; LC-ESI-QTOF; MS2; CE:Ramp 5-60 V; [M+H]+
DATE: 2016.01.19 (Created 2009.09.10, modified 2011.05.06)
AUTHORS: Matsuda F, Suzuki M, Sawada Y, Plant Science Center, RIKEN.
LICENSE: CC BY-SA
COMMENT: Acquisition and generation of the data is financially supported in part by CREST/JST.
CH$NAME: Guanosine 5'-diphosphoglucose
CH$NAME: GDPG
CH$NAME: GDP-glucose
CH$NAME: GDP-Glc
CH$COMPOUND_CLASS: Nucleotide-carbohydrates
CH$FORMULA: C16H25N5O16P2
CH$EXACT_MASS: 605.07715
CH$SMILES: OCC(O1)C(O)C(O)C(O)C1OP(O)(=O)OP(O)(=O)OCC(O2)C(O)C(O)C2n(c4)c(N=3)c(n4)C(=O)NC(N)3
CH$IUPAC: InChI=1S/C16H25N5O16P2/c17-16-19-12-6(13(28)20-16)18-3-21(12)14-10(26)8(24)5(34-14)2-33-38(29,30)37-39(31,32)36-15-11(27)9(25)7(23)4(1-22)35-15/h3-5,7-11,14-15,22-27H,1-2H2,(H,29,30)(H,31,32)(H3,17,19,20,28)/t4-,5-,7-,8-,9+,10-,11-,14-,15-/m1/s1
CH$LINK: CAS 5750-57-2
CH$LINK: CHEMSPIDER 388364
CH$LINK: KEGG C00394
CH$LINK: PUBCHEM CID:439225
CH$LINK: INCHIKEY MVMSCBBUIHUTGJ-LRJDVEEWSA-N
AC$INSTRUMENT: UPLC Q-Tof Premier, Waters
AC$INSTRUMENT_TYPE: LC-ESI-QTOF
AC$MASS_SPECTROMETRY: MS_TYPE MS2
AC$MASS_SPECTROMETRY: ION_MODE POSITIVE
AC$MASS_SPECTROMETRY: COLLISION_ENERGY Ramp 5-60 V
AC$MASS_SPECTROMETRY: DATAFORMAT Continuum
AC$MASS_SPECTROMETRY: DATE 2008.07.25
AC$MASS_SPECTROMETRY: DESOLVATION_GAS_FLOW 600.0 L/Hr
AC$MASS_SPECTROMETRY: DESOLVATION_TEMPERATURE 420 C
AC$MASS_SPECTROMETRY: FRAGMENTATION_METHOD LOW-ENERGY CID
AC$MASS_SPECTROMETRY: IONIZATION ESI
AC$MASS_SPECTROMETRY: SCANNING 1.0 sec/scan (m/z = 50-1000)
AC$MASS_SPECTROMETRY: SOURCE_TEMPERATURE 120 C
AC$CHROMATOGRAPHY: CAPILLARY_VOLTAGE 3.0 kV
AC$CHROMATOGRAPHY: SAMPLING_CONE 23.0 V
AC$CHROMATOGRAPHY: SOLVENT A CH3CN(0.1%HCOOH)
AC$CHROMATOGRAPHY: SOLVENT B H2O(0.1%HCOOH)
MS$FOCUSED_ION: PRECURSOR_M/Z 606.08495
MS$FOCUSED_ION: PRECURSOR_TYPE [M+H]+
PK$SPLASH: splash10-0a4i-0000109000-616669b0fcdf7df9f689
PK$NUM_PEAK: 4
PK$PEAK: m/z int. rel.int.
  444.0401 5.963 229
  605.8243 1.756 67
  605.9110 1.646 63
  606.0850 26.06 999
//
