ACCESSION: MSBNK-RIKEN-PR302167
RECORD_TITLE: Luteolin-8-C-glucoside; LC-ESI-QTOF; MS2
DATE: 2019.03.28
AUTHORS: Tetsuya Mori, Center for Sustainable Resource Science, RIKEN
LICENSE: CC BY-NC-SA
PUBLICATION: Tsugawa H., Nakabayashi R., Mori T., Yamada Y., Takahashi M., Rai A., Sugiyama R., Yamamoto H., Nakaya T., Yamazaki M., Kooke R., Bac-Molenaar JA., Oztolan-Erol N., Keurentjes JJB., Arita M., Saito K. (2019) "A cheminformatics approach to characterize metabolomes in stable-isotope-labeled organisms" Nature Methods 16(4):295-298. [doi:10.1038/s41592-019-0358-2]
COMMENT: registered in RIKEN PlaSMA
CH$NAME: Luteolin-8-C-glucoside
CH$COMPOUND_CLASS: Flavonoid 8-C-glycosides
CH$FORMULA: C21H20O11
CH$EXACT_MASS: 448.38
CH$SMILES: OC[C@H]1O[C@H]([C@H](O)[C@@H](O)[C@@H]1O)C1=C(O)C=C(O)C2=C1OC(=CC2=O)C1=CC(O)=C(O)C=C1
CH$IUPAC: InChI=1S/C21H20O11/c22-6-14-17(28)18(29)19(30)21(32-14)16-11(26)4-10(25)15-12(27)5-13(31-20(15)16)7-1-2-8(23)9(24)3-7/h1-5,14,17-19,21-26,28-30H,6H2/t14-,17-,18+,19-,21+/m1/s1
CH$LINK: INCHIKEY PLAPMLGJVGLZOV-VPRICQMDSA-N
AC$INSTRUMENT: LC, Waters Acquity UPLC System; MS, Waters Xevo G2 Q-Tof
AC$INSTRUMENT_TYPE: LC-ESI-QTOF
AC$MASS_SPECTROMETRY: MS_TYPE MS2
AC$MASS_SPECTROMETRY: ION_MODE POSITIVE
AC$MASS_SPECTROMETRY: COLLISION_ENERGY 6V
AC$MASS_SPECTROMETRY: DESOLVATION_GAS_FLOW 800/h
AC$MASS_SPECTROMETRY: DESOLVATION_TEMPERATURE 450 C
AC$MASS_SPECTROMETRY: IONIZATION ESI
AC$CHROMATOGRAPHY: CAPILLARY_VOLTAGE +3.00 kV
AC$CHROMATOGRAPHY: COLUMN_NAME Acquity bridged ethyl hybrid C18 (1.7 um, 2.1 mm * 100 mm, Waters)
AC$CHROMATOGRAPHY: COLUMN_TEMPERATURE 40 C
AC$CHROMATOGRAPHY: FLOW_GRADIENT A/B = (99.5%/0.5% at 0 min, 99.5%/0.5% at 0.1 min, 20%/80% at 10 min, 0.5%/99.5% at 10.1 min, 0.5%/99.5% at 12.0 min, 99.5%/0.5% at 12.1 min, 99.5%/0.5% at 15.0 min)
AC$CHROMATOGRAPHY: FLOW_RATE 0.3 ml/min at 0 min, 0.3 ml/min at 10 min, 0.4 ml/min at 10.1 min, 0.4 ml/min at 14.4 min, 0.3 ml/min at 14.5 min
AC$CHROMATOGRAPHY: RETENTION_TIME 3.715683
AC$CHROMATOGRAPHY: SOLVENT A water including 0.1% formic acid
AC$CHROMATOGRAPHY: SOLVENT B acetonitrile including 0.1% formic acid
MS$FOCUSED_ION: PRECURSOR_TYPE [M+H]+
MS$FOCUSED_ION: PRECURSOR_M/Z 449.1078379
PK$SPLASH: splash10-0w9a-0695000000-5af1e6f327abbcf64286
PK$NUM_PEAK: 352
PK$PEAK: m/z int. rel.int.
  50.13616 16.0 16
  69.01443 30.0 30
  69.03086 11.0 11
  69.70889 11.0 11
  79.01461 59.0 59
  80.01714 11.0 11
  81.03362 19.0 19
  81.03809 11.0 11
  81.07134 10.0 10
  81.36824 10.0 10
  82.03775 24.0 24
  82.76203 10.0 10
  85.02856 40.0 40
  89.03665 24.0 24
  89.04791 13.0 13
  93.03047 10.0 10
  95.00308 13.0 13
  95.01267 24.0 24
  97.02572 20.0 20
  97.03167 10.0 10
  105.0266 12.0 12
  109.02657 62.0 62
  109.03918 22.0 22
  110.02927 13.0 13
  110.0361 13.0 13
  110.0423 11.0 11
  111.0114 19.0 19
  111.04341 37.0 37
  117.02915 19.0 19
  117.04031 18.0 18
  121.0271 33.0 33
  122.03056 12.0 12
  122.99595 21.0 21
  123.00544 39.0 39
  123.04283 31.0 31
  124.00682 11.0 11
  125.02025 27.0 27
  125.02856 18.0 18
  126.03217 16.0 16
  129.03188 14.0 14
  129.07707 20.0 20
  130.03848 16.0 16
  131.01645 11.0 11
  131.04318 37.0 37
  132.56097 10.0 10
  133.03014 28.0 28
  134.03757 12.0 12
  135.03592 34.0 34
  135.04388 49.0 49
  135.04993 80.0 80
  136.01335 11.0 11
  136.04141 13.0 13
  136.0499 120.0 120
  136.5788 10.0 10
  136.96632 10.0 10
  136.99916 39.0 39
  137.0071 48.0 48
  137.02136 665.0 664
  137.03059 73.0 73
  137.05339 25.0 25
  138.02742 121.0 121
  138.03433 68.0 68
  138.3642 11.0 11
  139.02461 28.0 28
  139.03319 19.0 19
  139.66971 10.0 10
  141.06956 53.0 53
  141.21178 17.0 17
  142.07143 10.0 10
  143.00945 12.0 12
  143.03883 25.0 25
  144.01796 16.0 16
  144.05258 34.0 34
  144.12227 13.0 13
  145.01248 10.0 10
  145.02545 11.0 11
  146.04619 17.0 17
  147.0488 16.0 16
  149.01768 19.0 19
  149.02551 69.0 69
  150.02129 12.0 12
  151.03606 14.0 14
  151.04706 12.0 12
  152.04701 21.0 21
  152.05902 20.0 20
  153.00276 19.0 19
  157.05704 10.0 10
  157.07158 11.0 11
  159.04202 39.0 39
  160.07614 15.0 15
  160.96808 11.0 11
  161.00174 15.0 15
  161.01607 71.0 71
  161.02402 118.0 118
  161.06213 30.0 30
  162.06 13.0 13
  162.8607 24.0 24
  163.02036 20.0 20
  163.03345 48.0 48
  163.04207 38.0 38
  164.03377 11.0 11
  164.18408 21.0 21
  165.01663 260.0 260
  165.05693 16.0 16
  165.85474 10.0 10
  166.02567 48.0 48
  166.03215 16.0 16
  167.03052 10.0 10
  167.04456 17.0 17
  167.09291 18.0 18
  168.91875 15.0 15
  169.06563 19.0 19
  171.03391 16.0 16
  171.045 26.0 26
  172.04408 13.0 13
  172.05215 25.0 25
  173.05856 24.0 24
  173.12088 11.0 11
  174.03252 10.0 10
  174.99973 16.0 16
  175.02594 10.0 10
  175.03612 25.0 25
  175.04298 11.0 11
  176.9959 20.0 20
  177.01163 50.0 50
  177.02011 29.0 29
  177.05457 19.0 19
  177.99593 15.0 15
  178.03621 10.0 10
  178.06526 45.0 45
  179.02553 37.0 37
  179.03615 118.0 118
  181.05705 13.0 13
  183.04538 15.0 15
  183.07886 19.0 19
  184.05321 17.0 17
  185.02745 16.0 16
  185.06075 19.0 19
  187.01726 13.0 13
  187.03601 73.0 73
  187.04369 35.0 35
  187.07933 17.0 17
  188.05118 15.0 15
  188.07368 25.0 25
  189.02895 22.0 22
  189.04216 16.0 16
  189.05042 16.0 16
  189.06219 25.0 25
  191.03072 58.0 58
  191.03917 16.0 16
  192.04593 42.0 42
  193.04213 13.0 13
  194.0784 12.0 12
  195.07254 10.0 10
  196.05046 22.0 22
  197.05515 47.0 47
  197.06886 17.0 17
  198.06691 15.0 15
  198.08105 44.0 44
  198.14102 24.0 24
  199.03191 16.0 16
  199.07324 17.0 17
  200.06123 17.0 17
  201.02089 11.0 11
  201.05296 25.0 25
  201.86603 11.0 11
  202.08984 12.0 12
  203.0217 13.0 13
  203.03279 43.0 43
  203.04156 57.0 57
  204.03761 12.0 12
  204.99458 16.0 16
  205.04301 13.0 13
  205.06068 38.0 38
  206.61606 16.0 16
  207.0271 22.0 22
  207.04456 11.0 11
  208.03459 18.0 18
  209.0741 14.0 14
  209.09753 13.0 13
  210.07349 12.0 12
  211.02649 11.0 11
  211.04056 26.0 26
  212.0809 19.0 19
  213.05161 44.0 44
  213.06007 71.0 71
  214.06293 26.0 26
  215.03323 18.0 18
  215.04626 44.0 44
  215.07034 10.0 10
  216.07719 11.0 11
  217.01317 13.0 13
  217.04436 29.0 29
  217.0517 29.0 29
  218.04831 15.0 15
  222.05655 15.0 15
  224.07526 10.0 10
  225.05455 14.0 14
  225.99457 12.0 12
  226.05214 29.0 29
  226.06129 25.0 25
  226.07655 32.0 32
  226.47046 22.0 22
  227.05269 22.0 22
  227.06165 61.0 61
  227.07254 181.0 181
  227.88028 11.0 11
  229.00674 12.0 12
  229.04816 193.0 193
  229.05862 119.0 119
  229.21042 12.0 12
  230.05296 30.0 30
  230.06009 26.0 26
  233.0484 16.0 16
  233.12393 11.0 11
  235.02515 15.0 15
  236.03949 12.0 12
  236.05457 11.0 11
  237.04388 37.0 37
  237.05006 16.0 16
  237.06262 14.0 14
  239.0347 13.0 13
  240.04175 12.0 12
  240.07983 13.0 13
  243.02525 75.0 75
  243.06972 178.0 178
  244.03355 11.0 11
  244.06544 25.0 25
  244.07472 54.0 54
  245.04083 13.0 13
  245.08412 40.0 40
  246.06998 10.0 10
  246.92015 14.0 14
  247.03557 10.0 10
  250.05983 46.0 46
  252.29547 13.0 13
  253.02014 14.0 14
  253.04904 17.0 17
  254.06039 17.0 17
  254.07103 53.0 53
  254.33606 10.0 10
  255.04886 10.0 10
  255.06595 26.0 26
  255.07896 16.0 16
  256.05673 20.0 20
  257.04404 73.0 73
  257.06628 13.0 13
  258.03848 16.0 16
  258.05243 44.0 44
  259.05893 24.0 24
  259.06729 69.0 69
  263.04843 26.0 26
  265.04977 31.0 31
  265.08627 15.0 15
  266.05341 11.0 11
  269.04785 20.0 20
  270.05557 19.0 19
  270.07013 22.0 22
  271.02814 30.0 30
  271.05942 629.0 628
  271.08389 29.0 29
  272.03174 43.0 43
  272.06332 394.0 394
  272.07623 156.0 156
  273.02774 12.0 12
  273.07022 99.0 99
  273.08057 88.0 88
  273.17606 11.0 11
  279.06277 30.0 30
  279.07404 27.0 27
  281.05008 32.0 32
  282.03821 20.0 20
  282.05087 76.0 76
  282.0697 19.0 19
  283.05441 71.0 71
  284.05499 15.0 15
  284.07358 29.0 29
  285.11005 10.0 10
  286.03046 17.0 17
  286.05804 35.0 35
  287.0101 29.0 29
  287.05179 71.0 71
  287.0668 45.0 45
  293.06189 20.0 20
  294.07803 15.0 15
  295.03143 12.0 12
  295.04971 57.0 57
  295.06262 49.0 49
  295.07608 32.0 32
  296.05133 25.0 25
  296.06253 31.0 31
  296.07953 11.0 11
  296.14526 16.0 16
  297.05942 11.0 11
  298.86765 11.0 11
  299.02478 61.0 61
  299.05463 988.0 987
  299.07919 22.0 22
  299.77435 12.0 12
  300.03162 13.0 13
  300.06403 1000.0 999
  301.06757 300.0 300
  301.08063 79.0 79
  301.17178 21.0 21
  302.06473 43.0 43
  302.08005 40.0 40
  303.54239 10.0 10
  307.05222 10.0 10
  309.06784 30.0 30
  309.08878 19.0 19
  311.02765 37.0 37
  311.05377 260.0 260
  311.0657 118.0 118
  312.01938 10.0 10
  312.05844 73.0 73
  312.95004 26.0 26
  313.02374 21.0 21
  313.05118 53.0 53
  313.06699 265.0 265
  313.0809 205.0 205
  313.27408 16.0 16
  314.07407 50.0 50
  314.08493 16.0 16
  315.06778 25.0 25
  318.24057 11.0 11
  320.08807 11.0 11
  321.04077 11.0 11
  321.06351 11.0 11
  323.03006 10.0 10
  323.0546 37.0 37
  323.06479 12.0 12
  324.06134 98.0 98
  325.06097 71.0 71
  325.07111 167.0 167
  326.07227 10.0 10
  327.05569 14.0 14
  329.06879 188.0 188
  329.0867 16.0 16
  330.06613 16.0 16
  331.07214 12.0 12
  337.0484 11.0 11
  337.0766 40.0 40
  337.0961 10.0 10
  339.06503 17.0 17
  339.08286 97.0 97
  339.10287 13.0 13
  340.06393 22.0 22
  340.09052 20.0 20
  341.05719 20.0 20
  351.03329 11.0 11
  351.05145 23.0 23
  353.06076 22.0 22
//
