ACCESSION: MSBNK-RIKEN-PR307111
RECORD_TITLE: NP-006989(12); LC-ESI-QTOF; MS2
DATE: 2019.03.28
AUTHORS: Tetsuya Mori, Center for Sustainable Resource Science, RIKEN
LICENSE: CC BY-NC-SA
PUBLICATION: Tsugawa H., Nakabayashi R., Mori T., Yamada Y., Takahashi M., Rai A., Sugiyama R., Yamamoto H., Nakaya T., Yamazaki M., Kooke R., Bac-Molenaar JA., Oztolan-Erol N., Keurentjes JJB., Arita M., Saito K. (2019) "A cheminformatics approach to characterize metabolomes in stable-isotope-labeled organisms" Nature Methods 16(4):295-298. [doi:10.1038/s41592-019-0358-2]
COMMENT: registered in RIKEN PlaSMA
CH$NAME: NP-006989(12)
CH$COMPOUND_CLASS: Flavonoid 8-C-glycosides
CH$FORMULA: C27H30O16
CH$EXACT_MASS: 610.521
CH$SMILES: OCC1OC(C(O)C(O)C1O)C1=C(O)C(C2OC(CO)C(O)C(O)C2O)=C2OC(=CC(=O)C2=C1O)C1=CC(O)=C(O)C=C1
CH$IUPAC: InChI=1S/C27H30O16/c28-5-12-17(33)21(37)23(39)26(42-12)15-19(35)14-10(32)4-11(7-1-2-8(30)9(31)3-7)41-25(14)16(20(15)36)27-24(40)22(38)18(34)13(6-29)43-27/h1-4,12-13,17-18,21-24,26-31,33-40H,5-6H2
CH$LINK: INCHIKEY ZLPSOQFIIQIIAX-UHFFFAOYSA-N
AC$INSTRUMENT: LC, Waters Acquity UPLC System; MS, Waters Xevo G2 Q-Tof
AC$INSTRUMENT_TYPE: LC-ESI-QTOF
AC$MASS_SPECTROMETRY: MS_TYPE MS2
AC$MASS_SPECTROMETRY: ION_MODE NEGATIVE
AC$MASS_SPECTROMETRY: COLLISION_ENERGY 6V
AC$MASS_SPECTROMETRY: DESOLVATION_GAS_FLOW 800/h
AC$MASS_SPECTROMETRY: DESOLVATION_TEMPERATURE 450 C
AC$MASS_SPECTROMETRY: IONIZATION ESI
AC$CHROMATOGRAPHY: CAPILLARY_VOLTAGE -2.75 kV
AC$CHROMATOGRAPHY: COLUMN_NAME Acquity bridged ethyl hybrid C18 (1.7 um, 2.1 mm * 100 mm, Waters)
AC$CHROMATOGRAPHY: COLUMN_TEMPERATURE 40 C
AC$CHROMATOGRAPHY: FLOW_GRADIENT A/B = (99.5%/0.5% at 0 min, 99.5%/0.5% at 0.1 min, 20%/80% at 10 min, 0.5%/99.5% at 10.1 min, 0.5%/99.5% at 12.0 min, 99.5%/0.5% at 12.1 min, 99.5%/0.5% at 15.0 min)
AC$CHROMATOGRAPHY: FLOW_RATE 0.3 ml/min at 0 min, 0.3 ml/min at 10 min, 0.4 ml/min at 10.1 min, 0.4 ml/min at 14.4 min, 0.3 ml/min at 14.5 min
AC$CHROMATOGRAPHY: RETENTION_TIME 3.077283
AC$CHROMATOGRAPHY: SOLVENT A water including 0.1% formic acid
AC$CHROMATOGRAPHY: SOLVENT B acetonitrile including 0.1% formic acid
MS$FOCUSED_ION: PRECURSOR_TYPE [M-H]-
MS$FOCUSED_ION: PRECURSOR_M/Z 609.14610844783
PK$SPLASH: splash10-03di-0269000000-480bf05b6ecc1e6ea771
PK$NUM_PEAK: 228
PK$PEAK: m/z int. rel.int.
  65.0001 35.0 35
  96.01426 28.0 28
  97.03452 30.0 30
  103.05695 44.0 44
  107.04755 40.0 40
  108.02161 28.0 28
  109.02986 63.0 63
  115.3679 24.0 24
  116.02668 27.0 27
  123.26945 24.0 24
  133.02182 87.0 87
  133.03075 197.0 197
  134.02614 32.0 32
  135.03987 33.0 33
  137.02794 22.0 22
  141.20337 23.0 23
  143.04161 28.0 28
  147.04523 23.0 23
  149.02052 43.0 43
  149.05745 46.0 46
  149.37776 27.0 27
  150.02834 45.0 45
  151.04491 55.0 55
  161.01556 30.0 30
  162.99899 20.0 20
  163.03511 56.0 56
  163.04286 66.0 66
  165.02486 21.0 21
  173.02361 24.0 24
  174.03017 30.0 30
  175.03955 189.0 189
  176.00848 20.0 20
  176.02287 24.0 24
  176.04814 36.0 36
  177.01518 192.0 192
  177.02809 48.0 48
  177.04045 20.0 20
  177.05983 139.0 139
  178.0565 22.0 22
  178.9953 35.0 35
  179.02849 59.0 59
  181.05966 36.0 36
  183.03644 23.0 23
  187.05716 27.0 27
  189.01588 83.0 83
  189.05244 51.0 51
  191.03267 114.0 114
  192.04015 33.0 33
  193.04044 21.0 21
  198.02975 42.0 42
  198.07028 28.0 28
  199.04254 33.0 33
  199.05084 20.0 20
  200.04697 21.0 21
  201.00929 32.0 32
  201.02148 90.0 90
  202.02194 21.0 21
  203.03578 172.0 172
  205.01114 30.0 30
  205.04425 49.0 49
  206.05865 20.0 20
  209.03641 34.0 34
  209.06357 25.0 25
  210.06215 25.0 25
  211.03778 31.0 31
  211.07327 21.0 21
  213.04446 102.0 102
  213.05998 32.0 32
  213.08368 31.0 31
  214.33678 28.0 28
  215.03777 21.0 21
  217.00909 44.0 44
  217.04567 22.0 22
  217.05876 27.0 27
  223.05838 33.0 33
  224.05414 32.0 32
  225.04852 23.0 23
  225.09122 40.0 40
  226.02158 43.0 43
  226.0332 27.0 27
  226.07024 25.0 25
  227.03348 55.0 55
  228.03281 23.0 23
  229.04556 50.0 50
  230.02309 24.0 24
  231.02531 20.0 20
  231.99606 30.0 30
  233.0341 21.0 21
  233.04582 64.0 64
  233.05881 38.0 38
  234.04152 22.0 22
  235.01738 30.0 30
  235.02698 22.0 22
  235.06265 28.0 28
  238.05424 25.0 25
  238.98552 28.0 28
  241.04747 56.0 56
  241.08167 21.0 21
  243.06567 60.0 60
  244.06819 25.0 25
  244.33075 29.0 29
  245.04965 32.0 32
  246.06549 32.0 32
  247.0822 25.0 25
  249.07587 28.0 28
  252.04138 20.0 20
  253.04735 25.0 25
  253.05626 35.0 35
  254.06555 72.0 72
  255.02802 22.0 22
  257.04218 22.0 22
  257.05667 41.0 41
  258.08084 24.0 24
  263.07062 65.0 65
  264.03903 28.0 28
  265.0441 23.0 23
  265.05252 63.0 63
  266.03186 22.0 22
  266.05521 31.0 31
  267.06403 41.0 41
  267.07617 44.0 44
  268.0383 28.0 28
  269.04025 24.0 24
  270.05051 28.0 28
  271.06558 28.0 28
  280.03336 39.0 39
  281.0285 23.0 23
  281.04108 29.0 29
  282.05188 34.0 34
  282.26489 20.0 20
  283.01907 23.0 23
  283.06097 266.0 266
  284.03299 21.0 21
  284.05576 27.0 27
  284.06909 78.0 78
  285.02994 51.0 51
  285.0423 91.0 91
  285.06531 51.0 51
  285.07587 30.0 30
  286.03891 42.0 42
  288.66055 24.0 24
  289.34854 46.0 46
  291.02655 33.0 33
  292.0488 54.0 54
  293.03522 64.0 64
  293.05597 46.0 46
  294.56113 21.0 21
  295.0578 135.0 135
  295.07626 31.0 31
  296.06311 49.0 49
  297.03735 220.0 220
  297.40787 22.0 22
  298.04343 620.0 619
  299.04565 116.0 116
  299.05664 418.0 418
  300.05536 20.0 20
  305.04462 22.0 22
  307.05066 48.0 48
  309.04044 191.0 191
  310.04303 144.0 144
  310.0813 20.0 20
  311.0589 627.0 626
  312.05814 1000.0 999
  312.0777 105.0 105
  312.28592 28.0 28
  312.52524 22.0 22
  313.03836 28.0 28
  313.06808 903.0 902
  314.06049 46.0 46
  314.07544 148.0 148
  315.07971 35.0 35
  315.87625 28.0 28
  320.46802 20.0 20
  322.02914 35.0 35
  322.05664 46.0 46
  323.05115 139.0 139
  323.06479 40.0 40
  324.03012 29.0 29
  324.06882 56.0 56
  325.04861 59.0 59
  325.06833 77.0 77
  325.0824 38.0 38
  326.0354 22.0 22
  327.04272 169.0 169
  327.05981 71.0 71
  328.05121 90.0 90
  335.05826 22.0 22
  336.06992 22.0 22
  337.03577 31.0 31
  337.06345 36.0 36
  338.02582 23.0 23
  339.04947 726.0 725
  340.04898 154.0 154
  340.06256 99.0 99
  341.06934 367.0 367
  349.06866 35.0 35
  351.04034 21.0 21
  351.05478 57.0 57
  353.06216 263.0 263
  354.0665 65.0 65
  355.0542 23.0 23
  355.09717 22.0 22
  363.06119 21.0 21
  364.06122 31.0 31
  365.05627 38.0 38
  367.04419 141.0 141
  367.08395 25.0 25
  369.0455 220.0 220
  369.06149 257.0 257
  369.07925 48.0 48
  370.05911 88.0 88
  370.07379 135.0 135
  371.06268 76.0 76
  371.08566 23.0 23
  375.4285 20.0 20
  379.04919 30.0 30
  381.0452 67.0 67
  381.06461 168.0 168
  383.07031 23.0 23
  395.0835 27.0 27
  397.06284 31.0 31
  399.07434 86.0 86
  400.08502 22.0 22
  400.54764 25.0 25
  408.16379 22.0 22
  411.05478 22.0 22
  411.06976 24.0 24
  437.07895 21.0 21
//
