ACCESSION: MSBNK-RIKEN-PR309408
RECORD_TITLE: Phenyl-butyryl-glutamine; LC-ESI-QTOF; MS2
DATE: 2019.03.28
AUTHORS: Tetsuya Mori, Center for Sustainable Resource Science, RIKEN
LICENSE: CC BY-NC-SA
PUBLICATION: Tsugawa H., Nakabayashi R., Mori T., Yamada Y., Takahashi M., Rai A., Sugiyama R., Yamamoto H., Nakaya T., Yamazaki M., Kooke R., Bac-Molenaar JA., Oztolan-Erol N., Keurentjes JJB., Arita M., Saito K. (2019) "A cheminformatics approach to characterize metabolomes in stable-isotope-labeled organisms" Nature Methods 16(4):295-298. [doi:10.1038/s41592-019-0358-2]
COMMENT: Annotation level-3
CH$NAME: Phenyl-butyryl-glutamine
CH$COMPOUND_CLASS: Amino acids
CH$FORMULA: C15H20N2O4
CH$EXACT_MASS: 292.335
CH$SMILES: O=C(O)C(NC(=O)CCCC1=CC=CC=C1)CCC(=O)N
CH$IUPAC: InChI=1S/C15H20N2O4/c16-13(18)10-9-12(15(20)21)17-14(19)8-4-7-11-5-2-1-3-6-11/h1-3,5-6,12H,4,7-10H2,(H2,16,18)(H,17,19)(H,20,21)
CH$LINK: INCHIKEY XKQKXKRCMAJADR-UHFFFAOYSA-N
AC$INSTRUMENT: LC, Waters Acquity UPLC System; MS, Waters Xevo G2 Q-Tof
AC$INSTRUMENT_TYPE: LC-ESI-QTOF
AC$MASS_SPECTROMETRY: MS_TYPE MS2
AC$MASS_SPECTROMETRY: ION_MODE NEGATIVE
AC$MASS_SPECTROMETRY: COLLISION_ENERGY 6V
AC$MASS_SPECTROMETRY: DESOLVATION_GAS_FLOW 800/h
AC$MASS_SPECTROMETRY: DESOLVATION_TEMPERATURE 450 C
AC$MASS_SPECTROMETRY: IONIZATION ESI
AC$CHROMATOGRAPHY: CAPILLARY_VOLTAGE +3.00 kV
AC$CHROMATOGRAPHY: COLUMN_NAME Acquity bridged ethyl hybrid C18 (1.7 um, 2.1 mm * 100 mm, Waters)
AC$CHROMATOGRAPHY: COLUMN_TEMPERATURE 40 C
AC$CHROMATOGRAPHY: FLOW_GRADIENT A/B = (99.5%/0.5% at 0 min, 99.5%/0.5% at 0.1 min, 20%/80% at 10 min, 0.5%/99.5% at 10.1 min, 0.5%/99.5% at 12.0 min, 99.5%/0.5% at 12.1 min, 99.5%/0.5% at 15.0 min)
AC$CHROMATOGRAPHY: FLOW_RATE 0.3 ml/min at 0 min, 0.3 ml/min at 10 min, 0.4 ml/min at 10.1 min, 0.4 ml/min at 14.4 min, 0.3 ml/min at 14.5 min
AC$CHROMATOGRAPHY: RETENTION_TIME 2.89
AC$CHROMATOGRAPHY: SOLVENT A water including 0.1% formic acid
AC$CHROMATOGRAPHY: SOLVENT B acetonitrile including 0.1% formic acid
MS$FOCUSED_ION: PRECURSOR_TYPE [M-H]-
MS$FOCUSED_ION: PRECURSOR_M/Z 291.1346
PK$SPLASH: splash10-01b9-0920000000-ad6114416fd756c7409e
PK$NUM_PEAK: 10
PK$PEAK: m/z int. rel.int.
  119.05067 175.0 999
  120.05341 16.0 91
  127.08215 17.0 97
  127.09052 54.0 308
  128.07179 18.0 103
  145.09724 16.0 91
  171.07123 36.0 206
  171.08205 28.0 160
  221.98985 27.0 154
  291.13922 70.0 400
//
