ACCESSION: MSBNK-RIKEN-PR301503
RECORD_TITLE: (S,S)-(+)-Tetrandrine; LC-ESI-QTOF; MS2
DATE: 2019.03.28
AUTHORS: Tetsuya Mori, Center for Sustainable Resource Science, RIKEN
LICENSE: CC BY-NC-SA
PUBLICATION: Tsugawa H., Nakabayashi R., Mori T., Yamada Y., Takahashi M., Rai A., Sugiyama R., Yamamoto H., Nakaya T., Yamazaki M., Kooke R., Bac-Molenaar JA., Oztolan-Erol N., Keurentjes JJB., Arita M., Saito K. (2019) "A cheminformatics approach to characterize metabolomes in stable-isotope-labeled organisms" Nature Methods 16(4):295-298. [doi:10.1038/s41592-019-0358-2]
COMMENT: registered in RIKEN PlaSMA
CH$NAME: (S,S)-(+)-Tetrandrine
CH$COMPOUND_CLASS: Lignans, neolignans and related compounds
CH$FORMULA: C38H42N2O6
CH$EXACT_MASS: 622.762
CH$SMILES: COC1=C2OC3=CC=C(C[C@@H]4N(C)CCC5=CC(OC)=C(OC6=C7[C@H](CC(C=C1)=C2)N(C)CCC7=CC(OC)=C6OC)C=C45)C=C3
CH$IUPAC: InChI=1S/C38H42N2O6/c1-39-15-13-25-20-32(42-4)34-22-28(25)29(39)17-23-7-10-27(11-8-23)45-33-19-24(9-12-31(33)41-3)18-30-36-26(14-16-40(30)2)21-35(43-5)37(44-6)38(36)46-34/h7-12,19-22,29-30H,13-18H2,1-6H3/t29-,30-/m0/s1
CH$LINK: INCHIKEY WVTKBKWTSCPRNU-KYJUHHDHSA-N
AC$INSTRUMENT: LC, Waters Acquity UPLC System; MS, Waters Xevo G2 Q-Tof
AC$INSTRUMENT_TYPE: LC-ESI-QTOF
AC$MASS_SPECTROMETRY: MS_TYPE MS2
AC$MASS_SPECTROMETRY: ION_MODE POSITIVE
AC$MASS_SPECTROMETRY: COLLISION_ENERGY 6V
AC$MASS_SPECTROMETRY: DESOLVATION_GAS_FLOW 800/h
AC$MASS_SPECTROMETRY: DESOLVATION_TEMPERATURE 450 C
AC$MASS_SPECTROMETRY: IONIZATION ESI
AC$CHROMATOGRAPHY: CAPILLARY_VOLTAGE +3.00 kV
AC$CHROMATOGRAPHY: COLUMN_NAME Acquity bridged ethyl hybrid C18 (1.7 um, 2.1 mm * 100 mm, Waters)
AC$CHROMATOGRAPHY: COLUMN_TEMPERATURE 40 C
AC$CHROMATOGRAPHY: FLOW_GRADIENT A/B = (99.5%/0.5% at 0 min, 99.5%/0.5% at 0.1 min, 20%/80% at 10 min, 0.5%/99.5% at 10.1 min, 0.5%/99.5% at 12.0 min, 99.5%/0.5% at 12.1 min, 99.5%/0.5% at 15.0 min)
AC$CHROMATOGRAPHY: FLOW_RATE 0.3 ml/min at 0 min, 0.3 ml/min at 10 min, 0.4 ml/min at 10.1 min, 0.4 ml/min at 14.4 min, 0.3 ml/min at 14.5 min
AC$CHROMATOGRAPHY: RETENTION_TIME 4.186433
AC$CHROMATOGRAPHY: SOLVENT A water including 0.1% formic acid
AC$CHROMATOGRAPHY: SOLVENT B acetonitrile including 0.1% formic acid
MS$FOCUSED_ION: PRECURSOR_TYPE [M+H]+
MS$FOCUSED_ION: PRECURSOR_M/Z 623.3115635
PK$SPLASH: splash10-00di-0101039000-c62c7351f7ea3c60a19c
PK$NUM_PEAK: 80
PK$PEAK: m/z int. rel.int.
  146.0963 5.0 5
  147.0681 5.0 5
  151.06261 7.0 7
  175.08879 7.0 7
  176.09944 8.0 8
  176.10605 34.0 34
  187.91234 10.0 10
  189.09477 5.0 5
  189.2377 5.0 5
  190.08246 7.0 7
  190.12195 7.0 7
  191.09055 13.0 13
  192.09178 18.0 18
  192.10477 8.0 8
  193.10449 8.0 8
  211.10373 5.0 5
  218.11247 9.0 9
  219.12912 6.0 6
  220.06551 5.0 5
  222.12163 6.0 6
  237.62811 5.0 5
  255.11777 5.0 5
  283.11969 5.0 5
  294.12799 8.0 8
  305.11227 7.0 7
  310.12561 10.0 10
  334.1626 8.0 8
  343.13416 8.0 8
  366.10388 5.0 5
  369.16385 7.0 7
  370.17087 5.0 5
  375.17526 5.0 5
  381.17844 46.0 46
  381.20084 14.0 14
  382.18814 20.0 20
  382.70026 12.0 12
  384.19205 6.0 6
  395.52698 5.0 5
  396.19836 8.0 8
  397.15137 6.0 6
  400.1651 9.0 9
  400.18576 14.0 14
  401.12329 8.0 8
  414.84375 5.0 5
  442.25632 5.0 5
  443.21045 8.0 8
  445.23541 10.0 10
  446.23816 5.0 5
  455.52573 8.0 8
  464.12866 8.0 8
  479.25052 5.0 5
  485.07996 7.0 7
  516.2196 8.0 8
  517.20142 18.0 18
  537.21008 8.0 8
  548.20142 8.0 8
  548.26093 5.0 5
  549.01971 7.0 7
  549.22296 11.0 11
  549.2652 12.0 12
  560.23035 9.0 9
  560.24683 16.0 16
  561.2395 17.0 17
  563.2323 7.0 7
  580.23297 12.0 12
  580.25366 41.0 41
  580.28937 33.0 33
  581.26312 18.0 18
  581.28363 42.0 42
  591.28833 9.0 9
  592.2384 33.0 33
  592.26904 80.0 80
  593.25629 7.0 7
  593.28827 46.0 46
  594.28217 16.0 16
  608.29419 8.0 8
  623.18524 12.0 12
  623.22229 12.0 12
  623.25549 47.0 47
  623.30743 1000.0 999
//
