ACCESSION: MSBNK-RIKEN-PR300297
RECORD_TITLE: Isorhynchophylline; LC-ESI-QTOF; MS2
DATE: 2019.03.28
AUTHORS: Tetsuya Mori, Center for Sustainable Resource Science, RIKEN
LICENSE: CC BY-NC-SA
PUBLICATION: Tsugawa H., Nakabayashi R., Mori T., Yamada Y., Takahashi M., Rai A., Sugiyama R., Yamamoto H., Nakaya T., Yamazaki M., Kooke R., Bac-Molenaar JA., Oztolan-Erol N., Keurentjes JJB., Arita M., Saito K. (2019) "A cheminformatics approach to characterize metabolomes in stable-isotope-labeled organisms" Nature Methods 16(4):295-298. [doi:10.1038/s41592-019-0358-2]
COMMENT: registered in RIKEN PlaSMA
CH$NAME: Isorhynchophylline
CH$COMPOUND_CLASS: Indolizidines
CH$FORMULA: C22H28N2O4
CH$EXACT_MASS: 384.476
CH$SMILES: CC[C@H]1CN2CC[C@]3([C@@H]2C[C@@H]1\C(=C/OC)C(=O)OC)C(O)=NC1=CC=CC=C31
CH$IUPAC: InChI=1S/C22H28N2O4/c1-4-14-12-24-10-9-22(17-7-5-6-8-18(17)23-21(22)26)19(24)11-15(14)16(13-27-2)20(25)28-3/h5-8,13-15,19H,4,9-12H2,1-3H3,(H,23,26)/b16-13+/t14-,15-,19-,22-/m0/s1
CH$LINK: INCHIKEY DAXYUDFNWXHGBE-VKCGGMIFSA-N
AC$INSTRUMENT: LC, Waters Acquity UPLC System; MS, Waters Xevo G2 Q-Tof
AC$INSTRUMENT_TYPE: LC-ESI-QTOF
AC$MASS_SPECTROMETRY: MS_TYPE MS2
AC$MASS_SPECTROMETRY: ION_MODE POSITIVE
AC$MASS_SPECTROMETRY: COLLISION_ENERGY 6V
AC$MASS_SPECTROMETRY: DESOLVATION_GAS_FLOW 800/h
AC$MASS_SPECTROMETRY: DESOLVATION_TEMPERATURE 450 C
AC$MASS_SPECTROMETRY: IONIZATION ESI
AC$CHROMATOGRAPHY: CAPILLARY_VOLTAGE +3.00 kV
AC$CHROMATOGRAPHY: COLUMN_NAME Acquity bridged ethyl hybrid C18 (1.7 um, 2.1 mm * 100 mm, Waters)
AC$CHROMATOGRAPHY: COLUMN_TEMPERATURE 40 C
AC$CHROMATOGRAPHY: FLOW_GRADIENT A/B = (99.5%/0.5% at 0 min, 99.5%/0.5% at 0.1 min, 20%/80% at 10 min, 0.5%/99.5% at 10.1 min, 0.5%/99.5% at 12.0 min, 99.5%/0.5% at 12.1 min, 99.5%/0.5% at 15.0 min)
AC$CHROMATOGRAPHY: FLOW_RATE 0.3 ml/min at 0 min, 0.3 ml/min at 10 min, 0.4 ml/min at 10.1 min, 0.4 ml/min at 14.4 min, 0.3 ml/min at 14.5 min
AC$CHROMATOGRAPHY: RETENTION_TIME 4.634133
AC$CHROMATOGRAPHY: SOLVENT A water including 0.1% formic acid
AC$CHROMATOGRAPHY: SOLVENT B acetonitrile including 0.1% formic acid
MS$FOCUSED_ION: PRECURSOR_TYPE [M+H]+
MS$FOCUSED_ION: PRECURSOR_M/Z 385.2121838
PK$SPLASH: splash10-01qc-0910000000-7f9eb433c2d6f91e73cc
PK$NUM_PEAK: 265
PK$PEAK: m/z int. rel.int.
  55.05453 13.0 13
  56.05359 6.0 6
  65.03971 6.0 6
  68.02587 11.0 11
  68.05246 6.0 6
  69.03352 9.0 9
  70.06477 19.0 19
  75.04132 9.0 9
  75.04518 16.0 16
  77.03781 28.0 28
  78.03378 12.0 12
  78.04486 7.0 7
  79.05323 17.0 17
  80.04637 12.0 12
  81.05415 6.0 6
  81.06034 6.0 6
  81.06786 8.0 8
  82.06228 18.0 18
  82.06631 51.0 51
  83.04948 6.0 6
  83.0685 7.0 7
  84.07945 9.0 9
  91.05462 60.0 60
  92.05997 11.0 11
  93.05843 33.0 33
  93.06916 22.0 22
  94.03771 8.0 8
  94.06648 73.0 73
  95.07053 6.0 6
  96.08079 15.0 15
  99.04645 5.0 5
  103.05147 10.0 10
  103.05693 18.0 18
  104.04913 18.0 18
  104.05682 10.0 10
  105.06906 27.0 27
  106.06485 37.0 37
  107.0705 11.0 11
  108.04326 17.0 17
  108.06771 5.0 5
  108.08073 209.0 209
  109.05212 11.0 11
  109.06145 12.0 12
  109.08319 28.0 28
  110.05894 7.0 7
  110.08399 6.0 6
  110.09422 106.0 106
  111.04227 36.0 36
  111.0975 8.0 8
  115.04047 7.0 7
  115.054 290.0 290
  116.03756 10.0 10
  116.05074 30.0 30
  116.0622 23.0 23
  116.32108 7.0 7
  117.03759 6.0 6
  117.05675 196.0 196
  117.06493 42.0 42
  117.0753 7.0 7
  118.06422 195.0 195
  119.04916 8.0 8
  119.05963 6.0 6
  119.06844 22.0 22
  120.04723 8.0 8
  120.08025 8.0 8
  121.06454 6.0 6
  121.57487 6.0 6
  122.06413 7.0 7
  122.09367 9.0 9
  123.04424 8.0 8
  123.07902 47.0 47
  123.10757 7.0 7
  124.11485 19.0 19
  125.09763 8.0 8
  126.0546 11.0 11
  127.04836 15.0 15
  127.05795 10.0 10
  128.0351 6.0 6
  128.04884 71.0 71
  128.05997 13.0 13
  128.06419 6.0 6
  129.04988 10.0 10
  129.05673 17.0 17
  130.05008 9.0 9
  130.06473 598.0 597
  131.06769 106.0 106
  132.01427 6.0 6
  132.02194 6.0 6
  132.04356 367.0 367
  132.08023 580.0 579
  133.04131 17.0 17
  133.04738 40.0 40
  133.0643 11.0 11
  133.07361 14.0 14
  133.08411 57.0 57
  134.05569 22.0 22
  134.06993 12.0 12
  134.09523 16.0 16
  135.10237 7.0 7
  138.05006 11.0 11
  139.01543 9.0 9
  139.07872 18.0 18
  140.04831 81.0 81
  141.05548 6.0 6
  141.07297 5.0 5
  142.0368 8.0 8
  142.06456 571.0 570
  143.06967 130.0 130
  144.03253 5.0 5
  144.04114 17.0 17
  144.05077 20.0 20
  144.08041 202.0 202
  145.04512 6.0 6
  145.05325 10.0 10
  145.06218 8.0 8
  145.07445 7.0 7
  145.0862 43.0 43
  146.04893 5.0 5
  146.06079 42.0 42
  146.09036 10.0 10
  147.06891 6.0 6
  148.04176 9.0 9
  150.05876 5.0 5
  150.09341 7.0 7
  151.06212 9.0 9
  151.07712 6.0 6
  152.04698 6.0 6
  152.05971 9.0 9
  153.04408 21.0 21
  154.06593 163.0 163
  155.06259 12.0 12
  155.07381 15.0 15
  156.0741 8.0 8
  157.07938 6.0 6
  158.05899 350.0 350
  158.09566 28.0 28
  159.04675 8.0 8
  159.05988 23.0 23
  159.06754 96.0 96
  159.0932 85.0 85
  160.04852 15.0 15
  160.07491 1000.0 999
  161.07919 112.0 112
  162.07591 10.0 10
  162.09297 16.0 16
  164.1115 7.0 7
  165.06366 9.0 9
  166.06906 19.0 19
  166.08382 9.0 9
  167.05878 13.0 13
  167.07045 43.0 43
  168.07793 36.0 36
  168.09125 6.0 6
  168.10437 9.0 9
  169.07652 102.0 102
  169.08966 11.0 11
  170.05937 45.0 45
  170.07523 7.0 7
  170.08507 20.0 20
  170.09708 26.0 26
  171.05673 63.0 63
  171.08582 9.0 9
  171.09352 11.0 11
  171.10268 6.0 6
  172.0437 5.0 5
  172.05415 6.0 6
  172.07614 154.0 154
  172.11183 8.0 8
  173.06963 17.0 17
  173.07945 27.0 27
  178.06642 11.0 11
  179.08757 5.0 5
  180.09613 6.0 6
  181.09041 13.0 13
  182.10291 12.0 12
  183.06178 17.0 17
  183.07523 9.0 9
  183.08858 27.0 27
  184.05855 7.0 7
  184.07098 10.0 10
  184.07814 20.0 20
  184.09024 16.0 16
  184.10593 7.0 7
  184.11462 10.0 10
  185.06447 15.0 15
  185.0726 44.0 44
  185.10623 6.0 6
  186.07645 56.0 56
  186.09401 17.0 17
  186.10779 5.0 5
  187.0744 26.0 26
  187.08717 439.0 439
  188.07536 10.0 10
  188.09004 52.0 52
  188.09865 10.0 10
  192.06207 11.0 11
  192.08363 27.0 27
  193.08437 16.0 16
  194.08145 8.0 8
  194.09334 10.0 10
  195.05949 6.0 6
  195.09499 12.0 12
  196.11037 9.0 9
  197.07231 29.0 29
  198.07318 10.0 10
  198.08784 19.0 19
  199.07285 10.0 10
  199.08862 69.0 69
  200.09222 5.0 5
  200.11501 6.0 6
  201.10091 11.0 11
  204.08055 6.0 6
  207.08658 5.0 5
  208.09087 6.0 6
  209.0732 6.0 6
  209.09856 8.0 8
  210.06508 6.0 6
  210.08974 10.0 10
  210.10085 8.0 8
  210.11444 6.0 6
  211.08743 90.0 90
  211.12311 5.0 5
  211.12868 10.0 10
  212.0836 24.0 24
  212.0959 31.0 31
  212.11296 8.0 8
  212.12717 6.0 6
  213.10165 102.0 102
  213.12462 7.0 7
  213.13768 20.0 20
  214.10728 14.0 14
  219.09229 7.0 7
  220.10513 7.0 7
  221.10439 5.0 5
  222.10739 7.0 7
  222.11969 5.0 5
  223.08737 10.0 10
  223.11403 5.0 5
  223.13205 6.0 6
  224.09389 5.0 5
  224.1284 9.0 9
  225.10168 36.0 36
  226.11308 8.0 8
  233.108 5.0 5
  237.10043 58.0 58
  237.11284 12.0 12
  237.13342 9.0 9
  238.10721 12.0 12
  239.07982 6.0 6
  239.11958 25.0 25
  241.1105 9.0 9
  241.13327 181.0 181
  242.11917 6.0 6
  242.13547 22.0 22
  243.13564 7.0 7
  251.1232 11.0 11
  263.12119 10.0 10
  265.10028 6.0 6
  265.12613 26.0 26
  265.13928 7.0 7
  266.12997 6.0 6
  267.1344 8.0 8
  267.14511 16.0 16
  268.15112 6.0 6
  281.07797 6.0 6
//
