ACCESSION: MSBNK-RIKEN-PR303912
RECORD_TITLE: Ginkgolide C; LC-ESI-QTOF; MS2
DATE: 2019.03.28
AUTHORS: Tetsuya Mori, Center for Sustainable Resource Science, RIKEN
LICENSE: CC BY-NC-SA
PUBLICATION: Tsugawa H., Nakabayashi R., Mori T., Yamada Y., Takahashi M., Rai A., Sugiyama R., Yamamoto H., Nakaya T., Yamazaki M., Kooke R., Bac-Molenaar JA., Oztolan-Erol N., Keurentjes JJB., Arita M., Saito K. (2019) "A cheminformatics approach to characterize metabolomes in stable-isotope-labeled organisms" Nature Methods 16(4):295-298. [doi:10.1038/s41592-019-0358-2]
COMMENT: registered in RIKEN PlaSMA
CH$NAME: Ginkgolide C
CH$COMPOUND_CLASS: Ginkgolides and bilobalides
CH$FORMULA: C20H24O11
CH$EXACT_MASS: 440.401
CH$SMILES: CC1C(=O)OC2C(O)C34C5OC(=O)C3(OC3OC(=O)C(O)C43C(C5O)C(C)(C)C)C12O
CH$IUPAC: InChI=1S/C20H24O11/c1-5-12(24)28-11-8(22)18-10-6(21)7(16(2,3)4)17(18)9(23)13(25)30-15(17)31-20(18,14(26)29-10)19(5,11)27/h5-11,15,21-23,27H,1-4H3
CH$LINK: INCHIKEY AMOGMTLMADGEOQ-UHFFFAOYSA-N
AC$INSTRUMENT: LC, Waters Acquity UPLC System; MS, Waters Xevo G2 Q-Tof
AC$INSTRUMENT_TYPE: LC-ESI-QTOF
AC$MASS_SPECTROMETRY: MS_TYPE MS2
AC$MASS_SPECTROMETRY: ION_MODE POSITIVE
AC$MASS_SPECTROMETRY: COLLISION_ENERGY 6V
AC$MASS_SPECTROMETRY: DESOLVATION_GAS_FLOW 800/h
AC$MASS_SPECTROMETRY: DESOLVATION_TEMPERATURE 450 C
AC$MASS_SPECTROMETRY: IONIZATION ESI
AC$CHROMATOGRAPHY: CAPILLARY_VOLTAGE +3.00 kV
AC$CHROMATOGRAPHY: COLUMN_NAME Acquity bridged ethyl hybrid C18 (1.7 um, 2.1 mm * 100 mm, Waters)
AC$CHROMATOGRAPHY: COLUMN_TEMPERATURE 40 C
AC$CHROMATOGRAPHY: FLOW_GRADIENT A/B = (99.5%/0.5% at 0 min, 99.5%/0.5% at 0.1 min, 20%/80% at 10 min, 0.5%/99.5% at 10.1 min, 0.5%/99.5% at 12.0 min, 99.5%/0.5% at 12.1 min, 99.5%/0.5% at 15.0 min)
AC$CHROMATOGRAPHY: FLOW_RATE 0.3 ml/min at 0 min, 0.3 ml/min at 10 min, 0.4 ml/min at 10.1 min, 0.4 ml/min at 14.4 min, 0.3 ml/min at 14.5 min
AC$CHROMATOGRAPHY: RETENTION_TIME 4.33045
AC$CHROMATOGRAPHY: SOLVENT A water including 0.1% formic acid
AC$CHROMATOGRAPHY: SOLVENT B acetonitrile including 0.1% formic acid
MS$FOCUSED_ION: PRECURSOR_TYPE [M+H]+
MS$FOCUSED_ION: PRECURSOR_M/Z 441.139138
PK$SPLASH: splash10-057i-0493000000-b4d92f9857e6efcf3871
PK$NUM_PEAK: 282
PK$PEAK: m/z int. rel.int.
  76.58319 25.0 25
  83.01326 23.0 23
  90.60836 45.0 45
  97.01968 25.0 25
  97.02581 46.0 46
  108.85172 23.0 23
  109.02819 32.0 32
  109.1022 23.0 23
  111.0176 27.0 27
  111.08211 52.0 52
  121.02576 25.0 25
  121.06414 24.0 24
  121.07079 22.0 22
  121.08775 25.0 25
  128.03844 23.0 23
  131.08391 38.0 38
  133.25587 34.0 34
  135.04988 27.0 27
  135.07855 28.0 28
  137.05977 52.0 52
  147.04306 25.0 25
  147.08275 24.0 24
  147.11998 38.0 38
  148.04971 22.0 22
  149.01981 24.0 24
  149.05948 76.0 76
  150.06717 31.0 31
  151.04422 80.0 80
  152.07526 24.0 24
  153.05074 22.0 22
  154.05347 64.0 64
  155.01907 22.0 22
  155.02948 25.0 25
  155.03755 73.0 73
  155.06763 22.0 22
  156.4951 24.0 24
  157.02805 27.0 27
  157.06081 34.0 34
  157.10506 55.0 55
  159.08507 25.0 25
  161.05878 53.0 53
  161.09491 53.0 53
  163.07942 28.0 28
  163.12019 28.0 28
  164.18745 31.0 31
  165.01936 118.0 118
  166.02502 23.0 23
  167.0264 22.0 22
  170.10832 22.0 22
  171.04091 31.0 31
  171.08319 23.0 23
  173.01724 23.0 23
  173.065 24.0 24
  175.04227 51.0 51
  175.07062 120.0 120
  177.01733 27.0 27
  177.05453 406.0 406
  178.05742 60.0 60
  178.06705 43.0 43
  179.02985 24.0 24
  179.06198 29.0 29
  185.06451 112.0 112
  185.12608 27.0 27
  185.13472 25.0 25
  187.04105 31.0 31
  187.07216 25.0 25
  189.01244 25.0 25
  189.05443 151.0 151
  189.08202 23.0 23
  189.13519 28.0 28
  191.03624 76.0 76
  191.0666 23.0 23
  191.10361 29.0 29
  192.08342 27.0 27
  193.05447 93.0 93
  193.09152 23.0 23
  195.02579 183.0 183
  195.03368 164.0 164
  195.0652 102.0 102
  195.12221 22.0 22
  196.02351 22.0 22
  196.03304 23.0 23
  196.07047 37.0 37
  198.10054 31.0 31
  199.09827 32.0 32
  201.03445 39.0 39
  201.05467 197.0 197
  201.13092 57.0 57
  202.02528 47.0 47
  202.05455 64.0 64
  203.0034 25.0 25
  203.03224 33.0 33
  203.04878 43.0 43
  203.06236 66.0 66
  203.07173 173.0 173
  203.14282 23.0 23
  204.07355 25.0 25
  205.02655 73.0 73
  205.04425 224.0 224
  205.05211 109.0 109
  205.06441 22.0 22
  205.97058 31.0 31
  206.03542 27.0 27
  206.04932 29.0 29
  207.06155 22.0 22
  207.0719 46.0 46
  208.07913 25.0 25
  209.04237 34.0 34
  210.09673 28.0 28
  211.02505 50.0 50
  211.10779 53.0 53
  213.05054 41.0 41
  213.06189 84.0 84
  213.11594 27.0 27
  213.12611 55.0 55
  213.13983 23.0 23
  214.12523 27.0 27
  215.04042 22.0 22
  215.06728 22.0 22
  216.07388 22.0 22
  217.05003 108.0 108
  217.12178 22.0 22
  219.02025 55.0 55
  219.05319 79.0 79
  219.07089 22.0 22
  219.08334 25.0 25
  219.13463 22.0 22
  219.14287 23.0 23
  220.02599 24.0 24
  221.04761 50.0 50
  221.05624 24.0 24
  222.04208 32.0 32
  223.04442 22.0 22
  223.05182 69.0 69
  223.06253 80.0 80
  223.10083 25.0 25
  224.09689 22.0 22
  227.09686 25.0 25
  227.10501 32.0 32
  228.07751 23.0 23
  229.0347 70.0 70
  229.05479 170.0 170
  229.0869 55.0 55
  229.13036 22.0 22
  230.04195 27.0 27
  230.05334 23.0 23
  231.0172 27.0 27
  231.06056 220.0 220
  231.07211 112.0 112
  232.08862 22.0 22
  232.1302 37.0 37
  233.0215 25.0 25
  233.0397 316.0 316
  233.04958 220.0 220
  233.11844 29.0 29
  233.99298 36.0 36
  234.12395 25.0 25
  235.04617 23.0 23
  235.06113 25.0 25
  235.10504 31.0 31
  236.07327 29.0 29
  237.01828 31.0 31
  237.03035 50.0 50
  237.04594 74.0 74
  237.07185 32.0 32
  237.78114 41.0 41
  238.08739 22.0 22
  239.0455 28.0 28
  239.0954 22.0 22
  239.11229 23.0 23
  241.12186 25.0 25
  243.07318 43.0 43
  243.10564 23.0 23
  243.14458 27.0 27
  243.48897 28.0 28
  244.02797 76.0 76
  245.03795 25.0 25
  245.04799 59.0 59
  247.0414 109.0 109
  247.05753 336.0 336
  247.07167 154.0 154
  248.076 22.0 22
  249.03178 27.0 27
  249.05832 25.0 25
  251.03149 57.0 57
  251.04958 187.0 187
  251.06281 309.0 309
  252.06154 65.0 65
  252.06964 55.0 55
  253.12596 28.0 28
  255.09001 28.0 28
  257.04388 51.0 51
  257.07321 23.0 23
  257.11304 51.0 51
  257.12564 74.0 74
  258.05594 22.0 22
  258.12469 25.0 25
  259.13486 41.0 41
  259.14844 24.0 24
  260.12766 46.0 46
  261.04562 148.0 148
  261.07428 43.0 43
  261.11438 32.0 32
  263.04001 28.0 28
  263.08981 31.0 31
  263.09906 34.0 34
  265.02747 32.0 32
  265.05847 27.0 27
  265.07907 29.0 29
  265.08957 23.0 23
  267.10101 83.0 83
  267.1481 61.0 61
  269.10507 22.0 22
  269.11346 25.0 25
  271.06543 22.0 22
  273.04364 22.0 22
  275.04889 93.0 93
  275.0625 60.0 60
  275.12051 52.0 52
  279.04358 137.0 137
  279.0542 71.0 71
  279.11682 23.0 23
  281.07812 22.0 22
  282.07748 22.0 22
  284.10184 28.0 28
  285.03616 59.0 59
  285.09967 32.0 32
  285.11871 76.0 76
  286.0708 25.0 25
  287.11575 25.0 25
  287.13126 22.0 22
  288.67621 22.0 22
  289.04138 24.0 24
  289.11447 22.0 22
  293.00681 25.0 25
  293.07126 80.0 80
  293.12634 25.0 25
  295.08841 34.0 34
  297.11554 51.0 51
  303.12866 53.0 53
  304.11771 38.0 38
  305.09717 27.0 27
  307.00616 24.0 24
  307.04391 1000.0 999
  307.12088 25.0 25
  307.13165 32.0 32
  308.04059 123.0 123
  308.05408 47.0 47
  309.03912 27.0 27
  311.08017 25.0 25
  312.05728 41.0 41
  313.09537 62.0 62
  321.05859 32.0 32
  321.12186 27.0 27
  321.14127 24.0 24
  323.16162 25.0 25
  325.05194 725.0 724
  325.0683 293.0 293
  326.05362 83.0 83
  327.05579 94.0 94
  331.11337 50.0 50
  332.11725 28.0 28
  333.14371 25.0 25
  335.05481 28.0 28
  335.06992 22.0 22
  335.08652 33.0 33
  337.06567 24.0 24
  339.0896 22.0 22
  349.09787 36.0 36
  349.11938 48.0 48
  350.09763 22.0 22
  351.11578 23.0 23
  353.01733 22.0 22
  353.05768 65.0 65
  359.10861 25.0 25
  363.07504 32.0 32
  365.0437 29.0 29
  367.14005 90.0 90
  377.12265 56.0 56
  377.1358 25.0 25
  405.0509 23.0 23
  441.14865 25.0 25
//
