ACCESSION: MSBNK-RIKEN-PR300110
RECORD_TITLE: Koumidine; LC-ESI-QTOF; MS2
DATE: 2019.03.28
AUTHORS: Tetsuya Mori, Center for Sustainable Resource Science, RIKEN
LICENSE: CC BY-NC-SA
PUBLICATION: Tsugawa H., Nakabayashi R., Mori T., Yamada Y., Takahashi M., Rai A., Sugiyama R., Yamamoto H., Nakaya T., Yamazaki M., Kooke R., Bac-Molenaar JA., Oztolan-Erol N., Keurentjes JJB., Arita M., Saito K. (2019) "A cheminformatics approach to characterize metabolomes in stable-isotope-labeled organisms" Nature Methods 16(4):295-298. [doi:10.1038/s41592-019-0358-2]
COMMENT: registered in RIKEN PlaSMA
CH$NAME: Koumidine
CH$COMPOUND_CLASS: Macroline alkaloids
CH$FORMULA: C19H22N2O
CH$EXACT_MASS: 294.398
CH$SMILES: C\C=C1/CN2[C@H]3CC4=C(NC5=CC=CC=C45)[C@@H]2C[C@H]1[C@@H]3CO
CH$IUPAC: InChI=1S/C19H22N2O/c1-2-11-9-21-17-8-14-12-5-3-4-6-16(12)20-19(14)18(21)7-13(11)15(17)10-22/h2-6,13,15,17-18,20,22H,7-10H2,1H3/b11-2+/t13-,15+,17+,18+/m1/s1
CH$LINK: INCHIKEY VXTDUGOBAOLMED-CPEJFPLXSA-N
AC$INSTRUMENT: LC, Waters Acquity UPLC System; MS, Waters Xevo G2 Q-Tof
AC$INSTRUMENT_TYPE: LC-ESI-QTOF
AC$MASS_SPECTROMETRY: MS_TYPE MS2
AC$MASS_SPECTROMETRY: ION_MODE POSITIVE
AC$MASS_SPECTROMETRY: COLLISION_ENERGY 6V
AC$MASS_SPECTROMETRY: DESOLVATION_GAS_FLOW 800/h
AC$MASS_SPECTROMETRY: DESOLVATION_TEMPERATURE 450 C
AC$MASS_SPECTROMETRY: IONIZATION ESI
AC$CHROMATOGRAPHY: CAPILLARY_VOLTAGE +3.00 kV
AC$CHROMATOGRAPHY: COLUMN_NAME Acquity bridged ethyl hybrid C18 (1.7 um, 2.1 mm * 100 mm, Waters)
AC$CHROMATOGRAPHY: COLUMN_TEMPERATURE 40 C
AC$CHROMATOGRAPHY: FLOW_GRADIENT A/B = (99.5%/0.5% at 0 min, 99.5%/0.5% at 0.1 min, 20%/80% at 10 min, 0.5%/99.5% at 10.1 min, 0.5%/99.5% at 12.0 min, 99.5%/0.5% at 12.1 min, 99.5%/0.5% at 15.0 min)
AC$CHROMATOGRAPHY: FLOW_RATE 0.3 ml/min at 0 min, 0.3 ml/min at 10 min, 0.4 ml/min at 10.1 min, 0.4 ml/min at 14.4 min, 0.3 ml/min at 14.5 min
AC$CHROMATOGRAPHY: RETENTION_TIME 3.575733
AC$CHROMATOGRAPHY: SOLVENT A water including 0.1% formic acid
AC$CHROMATOGRAPHY: SOLVENT B acetonitrile including 0.1% formic acid
MS$FOCUSED_ION: PRECURSOR_TYPE [M+H]+
MS$FOCUSED_ION: PRECURSOR_M/Z 295.1804898
PK$SPLASH: splash10-0a4l-0960000000-50964ea48ec8527b6e48
PK$NUM_PEAK: 347
PK$PEAK: m/z int. rel.int.
  54.85072 5.0 5
  55.05555 5.0 5
  62.65488 6.0 6
  68.04733 11.0 11
  77.04171 11.0 11
  79.05199 34.0 34
  81.06607 26.0 26
  82.05454 5.0 5
  84.07949 25.0 25
  91.05007 23.0 23
  91.05549 54.0 54
  92.04636 7.0 7
  92.06147 5.0 5
  93.051 7.0 7
  93.05917 38.0 38
  93.07188 80.0 80
  93.48746 6.0 6
  94.06799 27.0 27
  95.0838 10.0 10
  96.08595 7.0 7
  97.09097 7.0 7
  100.07156 6.0 6
  103.05633 18.0 18
  105.06953 25.0 25
  106.06438 22.0 22
  106.07085 13.0 13
  107.07574 26.0 26
  108.06633 19.0 19
  108.07987 475.0 475
  109.07109 12.0 12
  109.07828 13.0 13
  109.08501 41.0 41
  110.05075 5.0 5
  110.09679 68.0 68
  111.06326 9.0 9
  111.0775 6.0 6
  111.08389 8.0 8
  111.09776 21.0 21
  112.07905 8.0 8
  114.97647 5.0 5
  115.05119 14.0 14
  116.04445 6.0 6
  116.05419 8.0 8
  117.06017 64.0 64
  117.07388 37.0 37
  118.05228 6.0 6
  118.06548 74.0 74
  118.29623 8.0 8
  119.07133 15.0 15
  119.08361 36.0 36
  119.09129 8.0 8
  120.06478 9.0 9
  120.08002 175.0 175
  120.5217 9.0 9
  121.08776 136.0 136
  122.06581 10.0 10
  122.08096 6.0 6
  122.09732 197.0 197
  123.07122 21.0 21
  123.09563 6.0 6
  124.07488 5.0 5
  124.1136 11.0 11
  126.08866 5.0 5
  127.05022 9.0 9
  127.05863 5.0 5
  128.0381 7.0 7
  128.05301 22.0 22
  128.06131 51.0 51
  129.06874 368.0 368
  130.04926 10.0 10
  130.06528 335.0 335
  131.05652 7.0 7
  131.07193 230.0 230
  132.07993 102.0 102
  132.09395 8.0 8
  132.11856 8.0 8
  133.08232 11.0 11
  133.08745 5.0 5
  134.09584 237.0 237
  135.08562 9.0 9
  135.10191 53.0 53
  135.11047 15.0 15
  136.02252 6.0 6
  136.07794 8.0 8
  136.09775 5.0 5
  136.11266 5.0 5
  137.08714 6.0 6
  138.05034 7.0 7
  138.06596 5.0 5
  138.09081 683.0 682
  139.09084 25.0 25
  139.09673 25.0 25
  140.10201 20.0 20
  140.10834 25.0 25
  141.07295 8.0 8
  141.08002 5.0 5
  141.10941 6.0 6
  141.51286 5.0 5
  142.06624 37.0 37
  142.07866 14.0 14
  143.05887 9.0 9
  143.07405 155.0 155
  143.08986 26.0 26
  144.08055 1000.0 999
  145.06714 18.0 18
  145.08594 120.0 120
  145.0925 30.0 30
  146.09593 351.0 351
  146.12358 7.0 7
  147.1002 26.0 26
  148.10687 24.0 24
  148.11211 48.0 48
  149.08441 6.0 6
  150.0932 10.0 10
  151.09535 10.0 10
  151.93031 8.0 8
  152.06409 5.0 5
  152.1003 7.0 7
  152.10934 26.0 26
  153.06345 15.0 15
  154.06458 34.0 34
  154.81151 7.0 7
  155.07451 63.0 63
  155.08995 13.0 13
  156.0504 5.0 5
  156.08028 873.0 872
  157.03778 6.0 6
  157.06129 13.0 13
  157.08638 334.0 334
  158.0806 20.0 20
  158.09694 490.0 490
  159.09157 21.0 21
  159.10046 41.0 41
  160.07411 10.0 10
  160.09918 8.0 8
  160.11177 16.0 16
  162.08826 9.0 9
  164.10716 86.0 86
  164.11914 10.0 10
  165.11383 7.0 7
  166.08298 6.0 6
  167.0544 6.0 6
  167.07191 114.0 114
  167.08646 10.0 10
  168.05624 18.0 18
  168.0806 524.0 523
  169.0415 7.0 7
  169.08174 156.0 156
  169.09042 35.0 35
  170.07068 14.0 14
  170.09567 355.0 355
  170.23849 5.0 5
  171.08191 5.0 5
  171.09915 89.0 89
  171.11015 15.0 15
  171.69382 9.0 9
  172.1095 33.0 33
  172.12036 9.0 9
  173.80705 5.0 5
  177.61873 5.0 5
  179.08759 17.0 17
  180.07008 33.0 33
  180.08209 202.0 202
  180.10071 10.0 10
  181.08597 91.0 91
  181.0945 29.0 29
  181.10275 12.0 12
  182.06412 7.0 7
  182.08086 24.0 24
  182.0894 19.0 19
  182.10031 71.0 71
  182.44504 7.0 7
  183.08434 10.0 10
  183.09706 45.0 45
  184.07614 10.0 10
  184.09396 7.0 7
  184.10712 30.0 30
  184.11562 17.0 17
  185.09727 6.0 6
  186.09683 21.0 21
  190.98936 5.0 5
  191.07489 15.0 15
  192.06955 21.0 21
  192.08392 55.0 55
  193.00543 7.0 7
  193.06847 7.0 7
  193.08844 160.0 160
  193.10211 17.0 17
  194.07224 5.0 5
  194.09636 253.0 253
  195.08167 24.0 24
  195.10101 179.0 179
  195.11774 14.0 14
  196.07076 6.0 6
  196.11069 162.0 162
  197.10603 11.0 11
  197.11557 26.0 26
  198.13908 8.0 8
  202.11368 8.0 8
  202.12141 5.0 5
  204.08244 63.0 63
  205.08926 97.0 97
  206.08279 46.0 46
  206.0957 232.0 232
  206.39842 5.0 5
  207.07527 31.0 31
  207.10333 290.0 290
  208.08417 19.0 19
  208.0993 36.0 36
  208.11127 250.0 250
  209.11256 19.0 19
  209.12294 22.0 22
  210.10994 13.0 13
  210.12367 37.0 37
  210.34473 14.0 14
  211.08507 6.0 6
  211.09529 6.0 6
  211.13303 8.0 8
  211.14253 8.0 8
  212.08498 6.0 6
  212.09836 11.0 11
  216.07361 5.0 5
  217.08992 105.0 105
  218.08653 53.0 53
  218.09563 122.0 122
  218.35355 10.0 10
  219.0885 61.0 61
  219.10228 132.0 132
  219.12361 10.0 10
  220.09485 20.0 20
  220.1078 84.0 84
  220.11909 62.0 62
  221.05013 6.0 6
  221.09743 15.0 15
  221.1104 101.0 101
  221.12395 35.0 35
  222.10239 18.0 18
  222.12756 472.0 472
  223.09702 8.0 8
  223.1196 61.0 61
  223.13499 75.0 75
  224.10187 21.0 21
  224.11429 16.0 16
  224.1369 67.0 67
  224.15862 18.0 18
  225.09859 7.0 7
  225.1075 13.0 13
  225.1461 12.0 12
  226.1246 147.0 147
  227.12309 27.0 27
  229.09898 6.0 6
  229.2726 6.0 6
  230.0968 162.0 162
  231.06348 8.0 8
  231.08926 27.0 27
  231.10129 129.0 129
  231.11049 79.0 79
  232.08955 15.0 15
  232.1086 97.0 97
  232.1179 39.0 39
  232.19926 5.0 5
  233.08421 8.0 8
  233.10629 90.0 90
  233.11783 112.0 112
  233.1369 5.0 5
  234.10893 32.0 32
  234.12646 164.0 164
  235.11264 34.0 34
  235.12575 153.0 153
  236.11806 18.0 18
  236.13158 75.0 75
  236.15129 29.0 29
  237.11467 10.0 10
  237.13979 44.0 44
  237.15398 8.0 8
  238.10727 5.0 5
  238.12198 5.0 5
  238.13971 17.0 17
  238.44414 6.0 6
  239.11594 7.0 7
  243.20026 7.0 7
  244.08954 14.0 14
  244.10388 47.0 47
  244.11823 72.0 72
  245.07419 6.0 6
  245.11864 226.0 226
  246.065 6.0 6
  246.10828 15.0 15
  246.12613 102.0 102
  246.14621 7.0 7
  247.1216 142.0 142
  247.13976 23.0 23
  248.0777 7.0 7
  248.09299 10.0 10
  248.1039 11.0 11
  248.11859 31.0 31
  248.13513 231.0 231
  249.13658 119.0 119
  250.14734 27.0 27
  250.16742 21.0 21
  251.11365 45.0 45
  251.12813 16.0 16
  251.15468 20.0 20
  252.12457 7.0 7
  254.18471 7.0 7
  258.10635 5.0 5
  258.1261 14.0 14
  259.13144 7.0 7
  260.11401 6.0 6
  260.14456 186.0 186
  261.13077 49.0 49
  261.14218 141.0 141
  261.1608 16.0 16
  261.2999 5.0 5
  262.12897 30.0 30
  262.1427 38.0 38
  262.15103 27.0 27
  262.16855 7.0 7
  262.68439 9.0 9
  263.13538 33.0 33
  263.15372 226.0 226
  264.15302 77.0 77
  264.17072 38.0 38
  265.13727 12.0 12
  265.16122 76.0 76
  265.17456 31.0 31
  265.18729 19.0 19
  266.13391 34.0 34
  266.1713 24.0 24
  267.14645 7.0 7
  268.1369 6.0 6
  275.13708 6.0 6
  275.15247 23.0 23
  277.13754 7.0 7
  277.17114 349.0 349
  278.15567 56.0 56
  278.1701 84.0 84
  278.19485 11.0 11
  279.14163 15.0 15
  279.1506 11.0 11
  280.15176 12.0 12
  280.16867 5.0 5
  293.16846 11.0 11
  294.16232 7.0 7
  295.17593 160.0 160
  295.18893 99.0 99
  295.22586 5.0 5
//
