ACCESSION: MSBNK-RIKEN-PR310764
RECORD_TITLE: Flavone base + 4O, 2Prenyl; LC-ESI-QTOF; MS2
DATE: 2019.03.28
AUTHORS: Tetsuya Mori, Center for Sustainable Resource Science, RIKEN
LICENSE: CC BY-NC-SA
PUBLICATION: Tsugawa H., Nakabayashi R., Mori T., Yamada Y., Takahashi M., Rai A., Sugiyama R., Yamamoto H., Nakaya T., Yamazaki M., Kooke R., Bac-Molenaar JA., Oztolan-Erol N., Keurentjes JJB., Arita M., Saito K. (2019) "A cheminformatics approach to characterize metabolomes in stable-isotope-labeled organisms" Nature Methods 16(4):295-298. [doi:10.1038/s41592-019-0358-2]
COMMENT: Annotation level-3
CH$NAME: Flavone base + 4O, 2Prenyl
CH$COMPOUND_CLASS: Prenylated flavones
CH$FORMULA: C25H26O6
CH$EXACT_MASS: 422.477
CH$SMILES: O=C1C(=COC=2C=C(O)C(=C(O)C1=2)CC=C(C)C)C3=CC(O)=C(O)C(=C3)CC=C(C)C
CH$IUPAC: InChI=1S/C25H26O6/c1-13(2)5-7-15-9-16(10-20(27)23(15)28)18-12-31-21-11-19(26)17(8-6-14(3)4)24(29)22(21)25(18)30/h5-6,9-12,26-29H,7-8H2,1-4H3
CH$LINK: INCHIKEY QNLGNISMYMFVHP-UHFFFAOYSA-N
AC$INSTRUMENT: LC, Waters Acquity UPLC System; MS, Waters Xevo G2 Q-Tof
AC$INSTRUMENT_TYPE: LC-ESI-QTOF
AC$MASS_SPECTROMETRY: MS_TYPE MS2
AC$MASS_SPECTROMETRY: ION_MODE POSITIVE
AC$MASS_SPECTROMETRY: COLLISION_ENERGY 6V
AC$MASS_SPECTROMETRY: DESOLVATION_GAS_FLOW 800/h
AC$MASS_SPECTROMETRY: DESOLVATION_TEMPERATURE 450 C
AC$MASS_SPECTROMETRY: IONIZATION ESI
AC$CHROMATOGRAPHY: CAPILLARY_VOLTAGE +3.00 kV
AC$CHROMATOGRAPHY: COLUMN_NAME Acquity bridged ethyl hybrid C18 (1.7 um, 2.1 mm * 100 mm, Waters)
AC$CHROMATOGRAPHY: COLUMN_TEMPERATURE 40 C
AC$CHROMATOGRAPHY: FLOW_GRADIENT A/B = (99.5%/0.5% at 0 min, 99.5%/0.5% at 0.1 min, 20%/80% at 10 min, 0.5%/99.5% at 10.1 min, 0.5%/99.5% at 12.0 min, 99.5%/0.5% at 12.1 min, 99.5%/0.5% at 15.0 min)
AC$CHROMATOGRAPHY: FLOW_RATE 0.3 ml/min at 0 min, 0.3 ml/min at 10 min, 0.4 ml/min at 10.1 min, 0.4 ml/min at 14.4 min, 0.3 ml/min at 14.5 min
AC$CHROMATOGRAPHY: RETENTION_TIME 8.06
AC$CHROMATOGRAPHY: SOLVENT A water including 0.1% formic acid
AC$CHROMATOGRAPHY: SOLVENT B acetonitrile including 0.1% formic acid
MS$FOCUSED_ION: PRECURSOR_TYPE [M+H]+
MS$FOCUSED_ION: PRECURSOR_M/Z 423.1813
PK$SPLASH: splash10-02mi-0019700000-7abc8ff0142996ec3c23
PK$NUM_PEAK: 16
PK$PEAK: m/z int. rel.int.
  147.04478 20.0 93
  148.04887 25.0 116
  203.18489 29.0 135
  251.27057 21.0 98
  255.69971 20.0 93
  311.05429 197.0 915
  312.04245 21.0 98
  312.07495 17.0 79
  317.19089 20.0 93
  367.11176 37.0 172
  367.13007 82.0 381
  368.11658 39.0 181
  402.62494 23.0 107
  423.17865 215.0 999
  423.19431 46.0 214
  423.36383 47.0 218
//
