ACCESSION: MSBNK-RIKEN-PR301496
RECORD_TITLE: (-)-Eburnamonine; LC-ESI-QTOF; MS2
DATE: 2019.03.28
AUTHORS: Tetsuya Mori, Center for Sustainable Resource Science, RIKEN
LICENSE: CC BY-NC-SA
PUBLICATION: Tsugawa H., Nakabayashi R., Mori T., Yamada Y., Takahashi M., Rai A., Sugiyama R., Yamamoto H., Nakaya T., Yamazaki M., Kooke R., Bac-Molenaar JA., Oztolan-Erol N., Keurentjes JJB., Arita M., Saito K. (2019) "A cheminformatics approach to characterize metabolomes in stable-isotope-labeled organisms" Nature Methods 16(4):295-298. [doi:10.1038/s41592-019-0358-2]
COMMENT: registered in RIKEN PlaSMA
CH$NAME: (-)-Eburnamonine
CH$COMPOUND_CLASS: Eburnan-type alkaloids
CH$FORMULA: C19H22N2O
CH$EXACT_MASS: 294.398
CH$SMILES: CCC12CCCN3CCC4=C(C13)N(C1=CC=CC=C41)C(=O)C2
CH$IUPAC: InChI=1S/C19H22N2O/c1-2-19-9-5-10-20-11-8-14-13-6-3-4-7-15(13)21(16(22)12-19)17(14)18(19)20/h3-4,6-7,18H,2,5,8-12H2,1H3
CH$LINK: INCHIKEY WYJAPUKIYAZSEM-UHFFFAOYSA-N
AC$INSTRUMENT: LC, Waters Acquity UPLC System; MS, Waters Xevo G2 Q-Tof
AC$INSTRUMENT_TYPE: LC-ESI-QTOF
AC$MASS_SPECTROMETRY: MS_TYPE MS2
AC$MASS_SPECTROMETRY: ION_MODE POSITIVE
AC$MASS_SPECTROMETRY: COLLISION_ENERGY 6V
AC$MASS_SPECTROMETRY: DESOLVATION_GAS_FLOW 800/h
AC$MASS_SPECTROMETRY: DESOLVATION_TEMPERATURE 450 C
AC$MASS_SPECTROMETRY: IONIZATION ESI
AC$CHROMATOGRAPHY: CAPILLARY_VOLTAGE +3.00 kV
AC$CHROMATOGRAPHY: COLUMN_NAME Acquity bridged ethyl hybrid C18 (1.7 um, 2.1 mm * 100 mm, Waters)
AC$CHROMATOGRAPHY: COLUMN_TEMPERATURE 40 C
AC$CHROMATOGRAPHY: FLOW_GRADIENT A/B = (99.5%/0.5% at 0 min, 99.5%/0.5% at 0.1 min, 20%/80% at 10 min, 0.5%/99.5% at 10.1 min, 0.5%/99.5% at 12.0 min, 99.5%/0.5% at 12.1 min, 99.5%/0.5% at 15.0 min)
AC$CHROMATOGRAPHY: FLOW_RATE 0.3 ml/min at 0 min, 0.3 ml/min at 10 min, 0.4 ml/min at 10.1 min, 0.4 ml/min at 14.4 min, 0.3 ml/min at 14.5 min
AC$CHROMATOGRAPHY: RETENTION_TIME 4.648283
AC$CHROMATOGRAPHY: SOLVENT A water including 0.1% formic acid
AC$CHROMATOGRAPHY: SOLVENT B acetonitrile including 0.1% formic acid
MS$FOCUSED_ION: PRECURSOR_TYPE [M+H]+
MS$FOCUSED_ION: PRECURSOR_M/Z 295.1804898
PK$SPLASH: splash10-0002-0090000000-41c3a17bd80447915530
PK$NUM_PEAK: 44
PK$PEAK: m/z int. rel.int.
  84.0816 13.0 13
  144.08072 23.0 23
  150.09195 6.0 6
  152.10701 11.0 11
  168.07861 12.0 12
  180.07898 8.0 8
  181.08275 5.0 5
  182.0936 9.0 9
  195.10347 11.0 11
  196.06723 7.0 7
  196.07788 9.0 9
  197.08269 19.0 19
  198.12381 5.0 5
  208.11131 5.0 5
  209.11758 5.0 5
  210.12836 8.0 8
  212.10457 7.0 7
  222.0914 12.0 12
  223.09424 13.0 13
  223.10405 8.0 8
  224.10738 14.0 14
  224.13217 18.0 18
  225.11647 16.0 16
  226.11668 15.0 15
  226.12831 13.0 13
  235.0983 7.0 7
  236.10533 11.0 11
  237.10947 9.0 9
  238.12099 97.0 97
  239.12444 13.0 13
  239.13361 6.0 6
  249.11522 10.0 10
  252.13857 28.0 28
  253.13799 5.0 5
  253.16353 21.0 21
  253.17325 18.0 18
  254.17131 6.0 6
  264.13351 13.0 13
  264.14615 6.0 6
  266.15369 56.0 56
  267.15311 11.0 11
  267.16345 11.0 11
  295.18048 1000.0 999
  295.23038 29.0 29
//
