ACCESSION: MSBNK-RIKEN-PR310407
RECORD_TITLE: Chrysanthellin B; LC-ESI-QTOF; MS2
DATE: 2019.03.28
AUTHORS: Tetsuya Mori, Center for Sustainable Resource Science, RIKEN
LICENSE: CC BY-NC-SA
PUBLICATION: Tsugawa H., Nakabayashi R., Mori T., Yamada Y., Takahashi M., Rai A., Sugiyama R., Yamamoto H., Nakaya T., Yamazaki M., Kooke R., Bac-Molenaar JA., Oztolan-Erol N., Keurentjes JJB., Arita M., Saito K. (2019) "A cheminformatics approach to characterize metabolomes in stable-isotope-labeled organisms" Nature Methods 16(4):295-298. [doi:10.1038/s41592-019-0358-2]
COMMENT: Annotation level-1
CH$NAME: Chrysanthellin B
CH$COMPOUND_CLASS: Triterpene saponins
CH$FORMULA: C58H94O26
CH$EXACT_MASS: 1207.364
CH$SMILES: CC1OC(OC2C(O)COC(OC3C(C)OC(OC4C(O)C(O)COC4OC(=O)C45CCC(C)(C)CC4C4=CCC6C7(C)CCC(OC8OC(CO)C(O)C(O)C8O)C(C)(CO)C7CCC6(C)C4(C)CC5O)C(O)C3O)C2O)C(O)C(O)C1O
CH$IUPAC: InChI=1S/C58H94O26/c1-23-34(64)37(67)40(70)48(77-23)82-45-28(62)21-75-47(43(45)73)81-44-24(2)78-49(42(72)39(44)69)83-46-35(65)27(61)20-76-51(46)84-52(74)58-16-15-53(3,4)17-26(58)25-9-10-31-54(5)13-12-33(80-50-41(71)38(68)36(66)29(19-59)79-50)55(6,22-60)30(54)11-14-56(31,7)57(25,8)18-32(58)63/h9,23-24,26-51,59-73H,10-22H2,1-8H3
CH$LINK: INCHIKEY WNGIVKPPGCCJNP-UHFFFAOYSA-N
AC$INSTRUMENT: LC, Waters Acquity UPLC System; MS, Waters Xevo G2 Q-Tof
AC$INSTRUMENT_TYPE: LC-ESI-QTOF
AC$MASS_SPECTROMETRY: MS_TYPE MS2
AC$MASS_SPECTROMETRY: ION_MODE POSITIVE
AC$MASS_SPECTROMETRY: COLLISION_ENERGY 6V
AC$MASS_SPECTROMETRY: DESOLVATION_GAS_FLOW 800/h
AC$MASS_SPECTROMETRY: DESOLVATION_TEMPERATURE 450 C
AC$MASS_SPECTROMETRY: IONIZATION ESI
AC$CHROMATOGRAPHY: CAPILLARY_VOLTAGE +3.00 kV
AC$CHROMATOGRAPHY: COLUMN_NAME Acquity bridged ethyl hybrid C18 (1.7 um, 2.1 mm * 100 mm, Waters)
AC$CHROMATOGRAPHY: COLUMN_TEMPERATURE 40 C
AC$CHROMATOGRAPHY: FLOW_GRADIENT A/B = (99.5%/0.5% at 0 min, 99.5%/0.5% at 0.1 min, 20%/80% at 10 min, 0.5%/99.5% at 10.1 min, 0.5%/99.5% at 12.0 min, 99.5%/0.5% at 12.1 min, 99.5%/0.5% at 15.0 min)
AC$CHROMATOGRAPHY: FLOW_RATE 0.3 ml/min at 0 min, 0.3 ml/min at 10 min, 0.4 ml/min at 10.1 min, 0.4 ml/min at 14.4 min, 0.3 ml/min at 14.5 min
AC$CHROMATOGRAPHY: RETENTION_TIME 5.79
AC$CHROMATOGRAPHY: SOLVENT A water including 0.1% formic acid
AC$CHROMATOGRAPHY: SOLVENT B acetonitrile including 0.1% formic acid
MS$FOCUSED_ION: PRECURSOR_TYPE [M+H]+
MS$FOCUSED_ION: PRECURSOR_M/Z 1207.61061
PK$SPLASH: splash10-0a4i-2091512201-4721fd5b8229dbb4866e
PK$NUM_PEAK: 342
PK$PEAK: m/z int. rel.int.
  72.42001 42.0 8
  103.03022 19.0 4
  111.03951 21.0 4
  113.0638 24.0 5
  127.03825 22.0 4
  129.05333 18.0 3
  147.06758 70.0 13
  149.1355 17.0 3
  150.12872 18.0 3
  151.14919 17.0 3
  160.11345 19.0 4
  163.04747 19.0 4
  165.03879 18.0 3
  165.07356 17.0 3
  187.1483 40.0 8
  189.13464 34.0 7
  191.17757 25.0 5
  201.16942 56.0 11
  203.1487 34.0 7
  204.14447 20.0 4
  207.1683 63.0 12
  207.18187 81.0 16
  208.18219 18.0 3
  211.05081 17.0 3
  211.06535 25.0 5
  215.10101 20.0 4
  219.16721 20.0 4
  219.20729 18.0 3
  225.06329 52.0 10
  225.07727 103.0 20
  227.14282 18.0 3
  233.10274 18.0 3
  233.15955 22.0 4
  234.1548 20.0 4
  239.08968 44.0 8
  239.1803 20.0 4
  240.09814 43.0 8
  243.0818 55.0 11
  243.09233 39.0 7
  247.09135 36.0 7
  247.15526 23.0 4
  247.17419 18.0 3
  257.10602 76.0 15
  257.11603 49.0 9
  258.10941 20.0 4
  259.08087 39.0 7
  259.10608 26.0 5
  259.23883 22.0 4
  261.09482 20.0 4
  261.18814 18.0 3
  261.50333 27.0 5
  261.92587 26.0 5
  271.0831 19.0 4
  273.10165 17.0 3
  274.09686 19.0 4
  275.08661 20.0 4
  275.10837 46.0 9
  279.06195 17.0 3
  279.10934 303.0 58
  279.21561 19.0 4
  280.10916 54.0 10
  281.26422 17.0 3
  293.1185 435.0 83
  293.13144 303.0 58
  293.14777 17.0 3
  294.12314 75.0 14
  295.11765 18.0 3
  297.22275 17.0 3
  299.9866 18.0 3
  307.74826 18.0 3
  309.11652 136.0 26
  309.12921 117.0 22
  310.12302 22.0 4
  310.1449 23.0 4
  311.12393 20.0 4
  315.19568 21.0 4
  321.10046 18.0 3
  325.16531 31.0 6
  327.13202 17.0 3
  335.12 18.0 3
  339.36743 20.0 4
  349.2894 18.0 3
  350.29276 20.0 4
  353.12543 37.0 7
  367.15884 22.0 4
  369.12189 23.0 4
  369.22552 43.0 8
  372.15915 21.0 4
  375.12161 19.0 4
  375.13449 44.0 8
  382.95526 18.0 3
  384.146 29.0 6
  387.10483 29.0 6
  389.13684 23.0 4
  389.16345 22.0 4
  389.33109 21.0 4
  391.19876 17.0 3
  391.30511 18.0 3
  397.17926 22.0 4
  401.14499 19.0 4
  407.30545 20.0 4
  407.32877 135.0 26
  408.01004 22.0 4
  408.32965 42.0 8
  409.34122 117.0 22
  409.36249 17.0 3
  410.33603 17.0 3
  413.31134 48.0 9
  414.30789 25.0 5
  414.32623 18.0 3
  417.31137 18.0 3
  419.15375 49.0 9
  419.17249 30.0 6
  420.15912 21.0 4
  424.32291 19.0 4
  425.15884 96.0 18
  425.3194 97.0 19
  425.3432 87.0 17
  426.18228 42.0 8
  427.34613 41.0 8
  427.36627 21.0 4
  433.30997 21.0 4
  435.3179 109.0 21
  435.33859 27.0 5
  436.31848 21.0 4
  436.341 27.0 5
  437.32324 17.0 3
  437.33838 20.0 4
  441.34116 48.0 9
  444.14496 17.0 3
  444.36481 20.0 4
  451.33679 20.0 4
  453.29523 17.0 3
  453.33725 828.0 159
  453.38669 31.0 6
  454.32712 107.0 20
  454.34741 150.0 29
  455.17197 18.0 3
  455.19278 21.0 4
  455.21005 17.0 3
  455.26657 19.0 4
  455.32474 21.0 4
  455.33981 54.0 10
  455.36633 35.0 7
  458.02139 20.0 4
  459.10828 17.0 3
  471.33432 219.0 42
  471.35172 649.0 124
  471.37036 165.0 32
  471.47565 19.0 4
  472.34354 379.0 73
  473.33643 18.0 3
  473.35052 20.0 4
  479.27399 20.0 4
  482.02432 17.0 3
  489.34674 41.0 8
  489.37027 69.0 13
  490.36716 55.0 11
  492.34012 20.0 4
  495.07001 37.0 7
  496.34726 27.0 5
  501.68253 30.0 6
  523.26337 21.0 4
  535.39545 25.0 5
  536.36633 21.0 4
  536.38531 23.0 4
  538.37909 18.0 3
  539.20105 20.0 4
  551.19653 17.0 3
  552.2149 20.0 4
  556.4129 44.0 8
  563.37708 20.0 4
  564.37915 23.0 4
  567.34772 18.0 3
  581.28101 28.0 5
  581.36493 56.0 11
  581.38733 89.0 17
  582.38019 18.0 3
  582.39661 26.0 5
  583.40149 35.0 7
  585.3847 25.0 5
  585.4126 24.0 5
  586.34875 17.0 3
  587.37006 46.0 9
  588.21826 17.0 3
  588.37714 17.0 3
  589.39154 20.0 4
  589.41754 20.0 4
  589.43475 17.0 3
  599.35742 23.0 4
  599.38013 91.0 17
  599.41144 89.0 17
  599.44757 22.0 4
  600.24506 20.0 4
  600.3949 38.0 7
  600.41833 54.0 10
  615.37622 35.0 7
  615.39667 24.0 5
  617.36505 20.0 4
  617.40826 267.0 51
  618.41309 80.0 15
  622.39343 21.0 4
  622.40869 17.0 3
  627.97748 25.0 5
  633.39044 52.0 10
  633.40833 80.0 15
  633.43298 17.0 3
  634.42194 25.0 5
  635.38489 128.0 25
  635.40985 387.0 74
  635.43396 152.0 29
  636.37823 18.0 3
  636.41046 83.0 16
  636.43646 137.0 26
  637.40454 38.0 7
  651.41016 125.0 24
  651.43341 63.0 12
  665.47974 31.0 6
  676.76678 22.0 4
  677.90619 19.0 4
  695.40698 20.0 4
  697.30835 17.0 3
  713.42719 25.0 5
  713.73608 24.0 5
  720.23706 20.0 4
  727.42804 42.0 8
  727.453 39.0 7
  728.44958 18.0 3
  730.40979 28.0 5
  731.41779 40.0 8
  731.44525 20.0 4
  733.76929 18.0 3
  739.323 21.0 4
  741.80804 19.0 4
  743.42664 18.0 3
  745.15411 18.0 3
  745.4563 40.0 8
  749.44696 38.0 7
  761.41235 62.0 12
  761.45959 17.0 3
  763.31281 17.0 3
  763.3382 20.0 4
  763.46899 138.0 26
  764.4754 42.0 8
  767.43115 24.0 5
  767.45935 88.0 17
  768.47144 37.0 7
  779.44916 91.0 17
  779.49884 17.0 3
  780.47595 25.0 5
  780.51068 50.0 10
  781.47772 375.0 72
  781.51898 58.0 11
  782.43652 27.0 5
  782.47644 127.0 24
  783.35413 17.0 3
  783.42853 36.0 7
  783.461 88.0 17
  784.41956 21.0 4
  784.4635 47.0 9
  794.84955 33.0 6
  797.43958 154.0 30
  797.46716 236.0 45
  797.50372 106.0 20
  798.46088 129.0 25
  798.50226 38.0 7
  799.38391 18.0 3
  799.48114 78.0 15
  800.4823 20.0 4
  801.45795 17.0 3
  805.10181 18.0 3
  834.54047 17.0 3
  845.45947 33.0 6
  863.48077 33.0 6
  868.00842 17.0 3
  877.4693 19.0 4
  890.51898 24.0 5
  893.52313 24.0 5
  894.80829 20.0 4
  896.50446 20.0 4
  899.53705 36.0 7
  907.46576 25.0 5
  908.51923 19.0 4
  908.54395 19.0 4
  911.38336 17.0 3
  911.526 57.0 11
  913.37872 23.0 4
  913.44653 18.0 3
  913.48694 68.0 13
  913.52783 147.0 28
  914.51569 64.0 12
  915.51166 72.0 14
  915.54419 40.0 8
  916.53687 17.0 3
  925.49976 47.0 9
  927.56464 23.0 4
  929.47754 41.0 8
  929.51715 74.0 14
  929.54132 45.0 9
  930.4599 19.0 4
  930.51587 177.0 34
  932.52936 41.0 8
  943.47723 18.0 3
  943.52808 224.0 43
  943.56866 38.0 7
  944.16675 17.0 3
  944.49042 40.0 8
  944.55884 168.0 32
  945.55157 20.0 4
  946.60083 24.0 5
  986.5202 19.0 4
  1010.54132 17.0 3
  1021.53186 19.0 4
  1039.5835 22.0 4
  1041.52515 20.0 4
  1045.51428 36.0 7
  1045.5415 124.0 24
  1045.57837 105.0 20
  1045.63428 18.0 3
  1046.50317 17.0 3
  1046.56592 164.0 31
  1046.59607 39.0 7
  1047.56628 125.0 24
  1048.5437 24.0 5
  1057.52356 25.0 5
  1058.56445 44.0 8
  1059.56396 17.0 3
  1061.52759 24.0 5
  1063.57825 17.0 3
  1075.48315 17.0 3
  1075.56177 367.0 70
  1075.5907 363.0 70
  1076.57629 442.0 85
  1077.56848 111.0 21
  1077.64563 35.0 7
  1078.5592 17.0 3
  1078.63123 18.0 3
  1079.58716 21.0 4
  1154.59167 27.0 5
  1206.60632 34.0 7
  1207.51855 72.0 14
  1207.61145 5215.0 999
//
