ACCESSION: MSBNK-RIKEN-PR300175
RECORD_TITLE: Gardneramine; LC-ESI-QTOF; MS2
DATE: 2019.03.28
AUTHORS: Tetsuya Mori, Center for Sustainable Resource Science, RIKEN
LICENSE: CC BY-NC-SA
PUBLICATION: Tsugawa H., Nakabayashi R., Mori T., Yamada Y., Takahashi M., Rai A., Sugiyama R., Yamamoto H., Nakaya T., Yamazaki M., Kooke R., Bac-Molenaar JA., Oztolan-Erol N., Keurentjes JJB., Arita M., Saito K. (2019) "A cheminformatics approach to characterize metabolomes in stable-isotope-labeled organisms" Nature Methods 16(4):295-298. [doi:10.1038/s41592-019-0358-2]
COMMENT: registered in RIKEN PlaSMA
CH$NAME: Gardneramine
CH$COMPOUND_CLASS: 3-alkylindoles
CH$FORMULA: C23H28N2O5
CH$EXACT_MASS: 412.486
CH$SMILES: COC\C=C1/CN2[C@H]3CC45C2C[C@H]1[C@@H]3COC4=NC1=C5C(OC)=C(OC)C=C1OC
CH$IUPAC: InChI=1S/C23H28N2O5/c1-26-6-5-12-10-25-15-9-23-18(25)7-13(12)14(15)11-30-22(23)24-20-16(27-2)8-17(28-3)21(29-4)19(20)23/h5,8,13-15,18H,6-7,9-11H2,1-4H3/b12-5+/t13-,14+,15+,18?,23?/m1/s1
CH$LINK: INCHIKEY RIMDDIPKIZTBHU-KPDHXFAYSA-N
AC$INSTRUMENT: LC, Waters Acquity UPLC System; MS, Waters Xevo G2 Q-Tof
AC$INSTRUMENT_TYPE: LC-ESI-QTOF
AC$MASS_SPECTROMETRY: MS_TYPE MS2
AC$MASS_SPECTROMETRY: ION_MODE POSITIVE
AC$MASS_SPECTROMETRY: COLLISION_ENERGY 6V
AC$MASS_SPECTROMETRY: DESOLVATION_GAS_FLOW 800/h
AC$MASS_SPECTROMETRY: DESOLVATION_TEMPERATURE 450 C
AC$MASS_SPECTROMETRY: IONIZATION ESI
AC$CHROMATOGRAPHY: CAPILLARY_VOLTAGE +3.00 kV
AC$CHROMATOGRAPHY: COLUMN_NAME Acquity bridged ethyl hybrid C18 (1.7 um, 2.1 mm * 100 mm, Waters)
AC$CHROMATOGRAPHY: COLUMN_TEMPERATURE 40 C
AC$CHROMATOGRAPHY: FLOW_GRADIENT A/B = (99.5%/0.5% at 0 min, 99.5%/0.5% at 0.1 min, 20%/80% at 10 min, 0.5%/99.5% at 10.1 min, 0.5%/99.5% at 12.0 min, 99.5%/0.5% at 12.1 min, 99.5%/0.5% at 15.0 min)
AC$CHROMATOGRAPHY: FLOW_RATE 0.3 ml/min at 0 min, 0.3 ml/min at 10 min, 0.4 ml/min at 10.1 min, 0.4 ml/min at 14.4 min, 0.3 ml/min at 14.5 min
AC$CHROMATOGRAPHY: RETENTION_TIME 3.822467
AC$CHROMATOGRAPHY: SOLVENT A water including 0.1% formic acid
AC$CHROMATOGRAPHY: SOLVENT B acetonitrile including 0.1% formic acid
MS$FOCUSED_ION: PRECURSOR_TYPE [M+H]+
MS$FOCUSED_ION: PRECURSOR_M/Z 413.2070985
PK$SPLASH: splash10-015c-0692000000-fe2e4809a92194aa34ad
PK$NUM_PEAK: 1072
PK$PEAK: m/z int. rel.int.
  56.04856 6.0 6
  60.04542 10.0 10
  61.24207 14.0 14
  67.04736 14.0 14
  67.05287 26.0 26
  68.02164 8.0 8
  71.04678 6.0 6
  71.05267 18.0 18
  72.05535 18.0 18
  73.06501 6.0 6
  77.03966 74.0 74
  78.04553 13.0 13
  79.05006 45.0 45
  79.05371 108.0 108
  80.04965 19.0 19
  80.05831 20.0 20
  81.03298 6.0 6
  81.05183 8.0 8
  82.03598 10.0 10
  84.04746 9.0 9
  88.72294 7.0 7
  91.05528 191.0 191
  92.04243 6.0 6
  92.05186 44.0 44
  92.06135 22.0 22
  93.04536 6.0 6
  93.05744 129.0 129
  93.06914 17.0 17
  94.03297 5.0 5
  94.06409 18.0 18
  94.07654 5.0 5
  95.04756 6.0 6
  95.0829 24.0 24
  96.08332 20.0 20
  97.06255 9.0 9
  98.09381 14.0 14
  98.55294 6.0 6
  102.02982 10.0 10
  103.05283 20.0 20
  103.55241 11.0 11
  104.04418 21.0 21
  104.06805 6.0 6
  104.69337 14.0 14
  105.05531 10.0 10
  105.06773 58.0 58
  105.07294 55.0 55
  106.04437 8.0 8
  106.06332 189.0 189
  106.06933 104.0 104
  107.04973 15.0 15
  107.06635 18.0 18
  107.07581 56.0 56
  107.08395 40.0 40
  107.09122 8.0 8
  107.8913 7.0 7
  108.03452 6.0 6
  108.04398 10.0 10
  108.07142 8.0 8
  108.0803 74.0 74
  109.06699 48.0 48
  109.08237 9.0 9
  110.06026 18.0 18
  110.2616 6.0 6
  111.07853 7.0 7
  115.0228 13.0 13
  115.05527 83.0 83
  116.04999 57.0 57
  117.05685 139.0 139
  117.06824 42.0 42
  117.075 30.0 30
  118.05256 30.0 30
  118.06642 111.0 111
  119.05836 12.0 12
  119.06866 57.0 57
  119.07526 51.0 51
  119.08369 24.0 24
  120.03818 8.0 8
  120.05882 7.0 7
  120.07557 160.0 160
  120.08187 321.0 321
  121.04932 20.0 20
  121.06516 10.0 10
  121.07551 25.0 25
  121.08973 36.0 36
  122.04031 13.0 13
  122.0526 20.0 20
  122.06173 7.0 7
  123.07011 6.0 6
  123.08096 55.0 55
  123.50544 6.0 6
  124.07838 33.0 33
  125.08301 8.0 8
  126.09225 22.0 22
  126.76447 7.0 7
  127.05846 7.0 7
  127.14194 8.0 8
  128.05098 20.0 20
  129.05736 8.0 8
  129.0726 38.0 38
  129.94188 19.0 19
  130.03752 6.0 6
  130.05066 6.0 6
  130.06628 124.0 124
  130.40958 7.0 7
  130.48695 6.0 6
  130.87199 5.0 5
  131.04982 6.0 6
  131.06757 62.0 62
  131.07584 40.0 40
  131.08609 20.0 20
  132.03319 25.0 25
  132.04175 51.0 51
  132.07828 291.0 291
  132.37971 6.0 6
  133.01042 9.0 9
  133.04294 26.0 26
  133.05122 28.0 28
  133.06047 22.0 22
  133.07265 7.0 7
  133.09047 96.0 96
  134.05396 59.0 59
  134.06464 68.0 68
  134.09044 36.0 36
  134.09874 55.0 55
  135.02425 14.0 14
  135.04803 12.0 12
  135.06451 22.0 22
  135.09462 17.0 17
  135.10526 5.0 5
  135.45631 6.0 6
  136.04924 9.0 9
  136.06985 14.0 14
  136.07918 14.0 14
  136.11136 6.0 6
  137.04135 9.0 9
  137.08702 22.0 22
  137.11104 9.0 9
  138.03923 10.0 10
  138.084 11.0 11
  138.08975 7.0 7
  138.09944 5.0 5
  138.17891 5.0 5
  141.05595 20.0 20
  142.06749 21.0 21
  143.04153 7.0 7
  143.069 30.0 30
  143.0759 27.0 27
  143.08086 15.0 15
  144.05191 26.0 26
  144.07098 19.0 19
  144.08028 108.0 108
  145.0352 10.0 10
  145.04884 58.0 58
  145.05978 5.0 5
  145.08609 66.0 66
  145.93872 6.0 6
  146.06035 77.0 77
  146.07158 8.0 8
  146.09535 216.0 216
  146.20071 5.0 5
  147.02885 39.0 39
  147.04346 10.0 10
  147.05058 8.0 8
  147.06517 54.0 54
  147.09464 6.0 6
  147.10533 5.0 5
  148.03513 30.0 30
  148.0442 37.0 37
  148.06264 25.0 25
  148.07373 27.0 27
  148.08209 27.0 27
  148.08926 13.0 13
  148.18414 5.0 5
  148.27406 7.0 7
  148.40097 5.0 5
  148.93477 8.0 8
  149.02522 10.0 10
  149.0441 16.0 16
  149.06104 16.0 16
  149.08586 23.0 23
  149.43175 6.0 6
  150.04567 8.0 8
  150.05571 32.0 32
  150.08946 13.0 13
  151.04095 9.0 9
  151.0957 10.0 10
  151.82822 5.0 5
  152.07332 13.0 13
  152.10608 44.0 44
  152.11598 15.0 15
  153.01561 9.0 9
  153.07307 26.0 26
  153.08386 10.0 10
  153.11253 13.0 13
  153.11691 5.0 5
  154.0372 12.0 12
  154.06752 18.0 18
  155.03177 5.0 5
  155.06442 7.0 7
  155.07921 8.0 8
  156.05086 16.0 16
  156.063 7.0 7
  156.07899 25.0 25
  157.06499 9.0 9
  157.08432 24.0 24
  157.09146 22.0 22
  158.05377 29.0 29
  158.05811 12.0 12
  158.07428 8.0 8
  158.09271 52.0 52
  158.10095 53.0 53
  159.01985 12.0 12
  159.03658 9.0 9
  159.06418 25.0 25
  159.0732 12.0 12
  159.09323 6.0 6
  159.10931 7.0 7
  160.04253 45.0 45
  160.05368 11.0 11
  160.07401 93.0 93
  160.11009 25.0 25
  160.24173 6.0 6
  161.03641 34.0 34
  161.04619 28.0 28
  161.05885 34.0 34
  161.08131 42.0 42
  161.09117 20.0 20
  161.11876 7.0 7
  161.26682 7.0 7
  161.47253 7.0 7
  161.97314 8.0 8
  162.03613 7.0 7
  162.05444 295.0 295
  162.06982 6.0 6
  162.08704 32.0 32
  162.31691 8.0 8
  163.02795 8.0 8
  163.05156 5.0 5
  163.05951 21.0 21
  163.06659 15.0 15
  163.0834 13.0 13
  163.09354 6.0 6
  163.46451 11.0 11
  164.01996 6.0 6
  164.03142 22.0 22
  164.06619 59.0 59
  164.1046 58.0 58
  164.11293 38.0 38
  165.01907 9.0 9
  165.03571 12.0 12
  165.11275 22.0 22
  165.99826 14.0 14
  166.00946 10.0 10
  166.0545 10.0 10
  166.11778 19.0 19
  166.13074 7.0 7
  167.06815 15.0 15
  168.08054 6.0 6
  168.24208 5.0 5
  169.00951 7.0 7
  169.02142 6.0 6
  169.04205 7.0 7
  169.0554 12.0 12
  169.06871 10.0 10
  170.03255 7.0 7
  170.06528 33.0 33
  170.09657 26.0 26
  170.8849 7.0 7
  171.01401 11.0 11
  171.03267 9.0 9
  171.05276 50.0 50
  171.06573 19.0 19
  171.0757 12.0 12
  171.10626 12.0 12
  172.0372 39.0 39
  172.0508 8.0 8
  172.06158 5.0 5
  172.07472 12.0 12
  173.04364 26.0 26
  173.0531 40.0 40
  173.07098 24.0 24
  173.08504 20.0 20
  173.11598 14.0 14
  174.02136 12.0 12
  174.04025 9.0 9
  174.05298 71.0 71
  174.06772 20.0 20
  174.0843 15.0 15
  174.09129 9.0 9
  175.02922 7.0 7
  175.0407 9.0 9
  175.05334 6.0 6
  175.0695 33.0 33
  175.08733 6.0 6
  175.40474 6.0 6
  175.5876 18.0 18
  176.03406 48.0 48
  176.05464 15.0 15
  176.07181 137.0 137
  176.09966 18.0 18
  176.11024 15.0 15
  176.51355 8.0 8
  176.76912 11.0 11
  177.00601 11.0 11
  177.03874 8.0 8
  177.04953 9.0 9
  177.05489 17.0 17
  177.0708 13.0 13
  177.08075 38.0 38
  177.19797 6.0 6
  178.00372 7.0 7
  178.05328 50.0 50
  178.07083 18.0 18
  178.08597 24.0 24
  178.09491 21.0 21
  179.05186 14.0 14
  179.06038 31.0 31
  179.10036 6.0 6
  179.12532 7.0 7
  179.39789 9.0 9
  180.05322 6.0 6
  180.07634 5.0 5
  180.08755 7.0 7
  181.05197 7.0 7
  181.07454 6.0 6
  181.09389 8.0 8
  181.99338 6.0 6
  182.04781 10.0 10
  182.0659 26.0 26
  182.07385 12.0 12
  182.09648 14.0 14
  182.25771 7.0 7
  183.04315 5.0 5
  183.06369 26.0 26
  183.07031 27.0 27
  183.11311 7.0 7
  183.58537 23.0 23
  184.04662 8.0 8
  184.06715 17.0 17
  184.07704 6.0 6
  184.08569 6.0 6
  184.58571 6.0 6
  185.02763 8.0 8
  185.0415 25.0 25
  185.05188 24.0 24
  185.0731 37.0 37
  185.08635 9.0 9
  185.46227 8.0 8
  186.05446 66.0 66
  186.09007 11.0 11
  186.82764 7.0 7
  187.0262 5.0 5
  187.04095 6.0 6
  187.0551 26.0 26
  187.07065 23.0 23
  187.0816 7.0 7
  187.12439 10.0 10
  187.65068 5.0 5
  188.03236 46.0 46
  188.04926 19.0 19
  188.07076 64.0 64
  188.08847 6.0 6
  188.10252 11.0 11
  188.77351 7.0 7
  189.0453 42.0 42
  189.06487 25.0 25
  189.0737 24.0 24
  189.08122 27.0 27
  189.20113 5.0 5
  190.01631 18.0 18
  190.04913 595.0 594
  190.07492 6.0 6
  190.08537 17.0 17
  190.96165 5.0 5
  191.04938 57.0 57
  191.06261 77.0 77
  191.07036 31.0 31
  191.09187 13.0 13
  191.10197 21.0 21
  191.3237 7.0 7
  192.02908 46.0 46
  192.03806 22.0 22
  192.04947 21.0 21
  192.06512 9.0 9
  192.07452 9.0 9
  192.09882 7.0 7
  192.11136 5.0 5
  193.01022 8.0 8
  193.02902 10.0 10
  193.0386 10.0 10
  193.07047 34.0 34
  194.05336 23.0 23
  194.09381 7.0 7
  195.03284 8.0 8
  195.06015 9.0 9
  195.07669 15.0 15
  195.09314 9.0 9
  195.11377 8.0 8
  196.03368 6.0 6
  196.0779 18.0 18
  196.2565 6.0 6
  196.80229 5.0 5
  197.04359 13.0 13
  197.07822 66.0 66
  197.11259 7.0 7
  198.04593 36.0 36
  198.05598 29.0 29
  198.09482 8.0 8
  199.04735 67.0 67
  199.06557 47.0 47
  199.0786 18.0 18
  199.1171 12.0 12
  199.51865 6.0 6
  200.03435 18.0 18
  200.04393 49.0 49
  200.06897 65.0 65
  200.08093 14.0 14
  200.09859 8.0 8
  200.13557 6.0 6
  200.88811 5.0 5
  201.0215 7.0 7
  201.04227 57.0 57
  201.05676 7.0 7
  201.07661 7.0 7
  202.04208 107.0 107
  202.0511 61.0 61
  202.08617 27.0 27
  203.01385 40.0 40
  203.02264 25.0 25
  203.03653 14.0 14
  203.04443 17.0 17
  203.05751 5.0 5
  203.06927 15.0 15
  203.09554 13.0 13
  204.00337 6.0 6
  204.02208 26.0 26
  204.03693 28.0 28
  204.06696 228.0 228
  204.0856 7.0 7
  204.20717 6.0 6
  204.92786 6.0 6
  204.98648 7.0 7
  205.03557 13.0 13
  205.06642 98.0 98
  205.07523 83.0 83
  205.08998 20.0 20
  205.10808 10.0 10
  206.04214 96.0 96
  206.06377 19.0 19
  206.07524 56.0 56
  206.08737 35.0 35
  206.09888 10.0 10
  206.10997 8.0 8
  206.38869 23.0 23
  206.7921 5.0 5
  206.99786 15.0 15
  207.04373 19.0 19
  207.10117 31.0 31
  208.03006 11.0 11
  208.04457 6.0 6
  208.06155 38.0 38
  208.0766 29.0 29
  208.09778 26.0 26
  208.11665 10.0 10
  209.04135 10.0 10
  209.06906 21.0 21
  209.08594 18.0 18
  209.12041 35.0 35
  209.55879 6.0 6
  210.05765 23.0 23
  210.08424 58.0 58
  210.10262 6.0 6
  210.11346 7.0 7
  211.05685 51.0 51
  211.09061 17.0 17
  211.99467 5.0 5
  212.0533 20.0 20
  212.06761 32.0 32
  212.0759 61.0 61
  212.09898 6.0 6
  213.03865 22.0 22
  213.04614 15.0 15
  213.06038 12.0 12
  213.07147 17.0 17
  213.07985 17.0 17
  214.04451 10.0 10
  214.05753 20.0 20
  214.06993 32.0 32
  214.08017 27.0 27
  215.00562 12.0 12
  215.02463 11.0 11
  215.04193 114.0 114
  215.05489 49.0 49
  215.06558 9.0 9
  216.00592 9.0 9
  216.02371 6.0 6
  216.05084 113.0 113
  216.0683 167.0 167
  216.08975 7.0 7
  216.10095 9.0 9
  216.1433 6.0 6
  216.78839 7.0 7
  217.03127 33.0 33
  217.04135 108.0 108
  217.06104 94.0 94
  217.07494 55.0 55
  217.08862 9.0 9
  217.10918 16.0 16
  217.68423 6.0 6
  217.99022 21.0 21
  218.00322 6.0 6
  218.01602 13.0 13
  218.02803 73.0 73
  218.04387 1000.0 999
  218.0777 12.0 12
  218.08588 7.0 7
  218.7722 6.0 6
  218.90382 9.0 9
  218.96602 5.0 5
  219.03307 21.0 21
  219.04784 159.0 159
  219.07491 23.0 23
  219.08582 40.0 40
  219.09819 14.0 14
  219.10776 20.0 20
  219.11861 8.0 8
  219.20882 10.0 10
  220.02826 10.0 10
  220.04694 58.0 58
  220.06183 64.0 64
  220.09334 15.0 15
  221.02576 8.0 8
  221.05376 10.0 10
  221.0701 49.0 49
  221.08473 39.0 39
  221.10902 9.0 9
  222.05154 22.0 22
  222.06259 33.0 33
  222.07469 11.0 11
  222.0899 23.0 23
  222.1571 9.0 9
  222.53065 8.0 8
  223.06319 17.0 17
  223.14348 6.0 6
  224.01823 5.0 5
  224.03656 7.0 7
  224.06134 13.0 13
  224.1002 7.0 7
  225.036 10.0 10
  225.05009 6.0 6
  225.07002 18.0 18
  225.08046 28.0 28
  225.10289 21.0 21
  226.02284 16.0 16
  226.03517 9.0 9
  226.05603 14.0 14
  226.07332 16.0 16
  226.08322 45.0 45
  226.10738 23.0 23
  227.05434 6.0 6
  227.07501 19.0 19
  227.0851 14.0 14
  228.06302 119.0 119
  228.07262 29.0 29
  228.08955 6.0 6
  229.0489 49.0 49
  229.06288 51.0 51
  229.0746 22.0 22
  229.09251 8.0 8
  230.04248 10.0 10
  230.05435 25.0 25
  230.06644 33.0 33
  230.0784 38.0 38
  230.0954 8.0 8
  230.11198 15.0 15
  231.00697 13.0 13
  231.03178 31.0 31
  231.04221 83.0 83
  231.06432 45.0 45
  231.08151 13.0 13
  231.09615 6.0 6
  231.10829 8.0 8
  232.04713 91.0 91
  232.06566 218.0 218
  232.08659 7.0 7
  232.11092 8.0 8
  232.43535 5.0 5
  233.01309 6.0 6
  233.03914 9.0 9
  233.06561 282.0 282
  233.0986 18.0 18
  233.25824 6.0 6
  234.05516 15.0 15
  234.0742 80.0 80
  234.08844 32.0 32
  234.10254 15.0 15
  235.01195 17.0 17
  235.06262 26.0 26
  235.07523 12.0 12
  235.08838 7.0 7
  235.09612 8.0 8
  235.10992 18.0 18
  235.2037 6.0 6
  235.55234 14.0 14
  235.61348 6.0 6
  236.07303 10.0 10
  236.0932 23.0 23
  236.11211 19.0 19
  237.05965 31.0 31
  237.08223 50.0 50
  237.10263 17.0 17
  237.11726 18.0 18
  238.04491 7.0 7
  238.0563 11.0 11
  238.06931 44.0 44
  238.08063 45.0 45
  238.10211 9.0 9
  238.11761 15.0 15
  238.26849 7.0 7
  239.06003 29.0 29
  239.08031 52.0 52
  240.05536 17.0 17
  240.06898 25.0 25
  240.10048 6.0 6
  240.11288 20.0 20
  241.013 8.0 8
  241.02927 7.0 7
  241.04214 17.0 17
  241.06635 73.0 73
  241.07785 61.0 61
  241.10669 30.0 30
  242.04439 20.0 20
  242.06056 21.0 21
  242.07286 55.0 55
  242.09596 7.0 7
  243.02469 8.0 8
  243.04004 37.0 37
  243.0533 28.0 28
  243.06993 6.0 6
  243.07668 12.0 12
  243.09045 28.0 28
  244.02638 11.0 11
  244.05075 85.0 85
  244.06674 42.0 42
  244.08005 19.0 19
  244.10175 20.0 20
  245.02692 6.0 6
  245.04771 111.0 111
  245.06035 57.0 57
  245.08928 27.0 27
  245.10638 11.0 11
  245.1153 15.0 15
  245.12663 8.0 8
  246.01781 8.0 8
  246.05368 63.0 63
  246.08363 53.0 53
  246.10358 39.0 39
  246.12708 13.0 13
  246.19485 7.0 7
  247.05518 7.0 7
  247.06839 7.0 7
  247.08492 36.0 36
  247.10681 8.0 8
  247.15215 7.0 7
  248.06999 24.0 24
  248.08626 35.0 35
  248.10461 39.0 39
  249.10954 16.0 16
  249.1682 10.0 10
  249.97197 7.0 7
  250.04553 26.0 26
  250.06834 20.0 20
  250.0784 50.0 50
  250.09486 7.0 7
  250.13086 10.0 10
  251.04678 21.0 21
  251.08345 35.0 35
  251.09563 6.0 6
  252.05519 34.0 34
  252.07123 23.0 23
  252.08478 22.0 22
  252.10046 26.0 26
  252.12244 15.0 15
  252.13199 21.0 21
  253.06915 77.0 77
  253.08148 9.0 9
  253.11038 25.0 25
  253.14264 13.0 13
  253.16187 9.0 9
  254.04422 7.0 7
  254.05916 17.0 17
  254.08511 32.0 32
  254.30609 6.0 6
  255.06442 30.0 30
  255.07759 56.0 56
  255.11591 8.0 8
  256.03207 17.0 17
  256.06186 44.0 44
  256.077 20.0 20
  256.09747 7.0 7
  257.04489 14.0 14
  257.05814 61.0 61
  257.07205 47.0 47
  257.08264 39.0 39
  257.10013 10.0 10
  258.06287 65.0 65
  258.07819 6.0 6
  258.09131 6.0 6
  258.11179 15.0 15
  258.6077 7.0 7
  259.07373 69.0 69
  259.08923 9.0 9
  259.11014 24.0 24
  260.03857 11.0 11
  260.06729 9.0 9
  260.07504 18.0 18
  260.08878 27.0 27
  260.11005 19.0 19
  260.13361 26.0 26
  261.0495 8.0 8
  261.06094 26.0 26
  261.0816 28.0 28
  261.09515 18.0 18
  261.11908 12.0 12
  261.39746 6.0 6
  262.03244 6.0 6
  262.05908 15.0 15
  262.08502 15.0 15
  262.11017 16.0 16
  263.04651 7.0 7
  263.07507 26.0 26
  263.09137 15.0 15
  263.1059 21.0 21
  263.12097 31.0 31
  264.04047 14.0 14
  264.05685 23.0 23
  264.07016 16.0 16
  264.08688 44.0 44
  264.11667 11.0 11
  265.04755 17.0 17
  265.06332 27.0 27
  265.07684 15.0 15
  265.08829 22.0 22
  265.09827 9.0 9
  265.11487 6.0 6
  265.13867 16.0 16
  266.06235 37.0 37
  266.08652 16.0 16
  266.10797 18.0 18
  267.07608 52.0 52
  267.09323 31.0 31
  268.03836 10.0 10
  268.07547 7.0 7
  268.09048 13.0 13
  269.05548 44.0 44
  269.07101 7.0 7
  269.09058 24.0 24
  269.12473 9.0 9
  269.39594 6.0 6
  269.81335 5.0 5
  270.00623 10.0 10
  270.07159 19.0 19
  270.09497 6.0 6
  271.06509 33.0 33
  271.08359 39.0 39
  271.10913 17.0 17
  271.35168 5.0 5
  272.07788 26.0 26
  272.09174 19.0 19
  272.45865 5.0 5
  273.0419 14.0 14
  273.05191 10.0 10
  273.08688 64.0 64
  273.34732 12.0 12
  273.7334 5.0 5
  274.06189 17.0 17
  274.07755 18.0 18
  274.09073 10.0 10
  274.10168 13.0 13
  274.1716 8.0 8
  275.0791 5.0 5
  275.09058 14.0 14
  275.1196 25.0 25
  276.05887 15.0 15
  276.07065 5.0 5
  276.10718 30.0 30
  277.06332 17.0 17
  277.0802 19.0 19
  277.09189 13.0 13
  277.10791 9.0 9
  278.03918 11.0 11
  278.05634 7.0 7
  278.07858 62.0 62
  278.09302 16.0 16
  278.11163 46.0 46
  279.04041 7.0 7
  279.05829 15.0 15
  279.07465 40.0 40
  279.08762 16.0 16
  279.10098 29.0 29
  279.11292 30.0 30
  279.13168 12.0 12
  280.02664 8.0 8
  280.04059 8.0 8
  280.05777 37.0 37
  280.07803 35.0 35
  280.10034 60.0 60
  280.11087 16.0 16
  280.13708 19.0 19
  280.38571 10.0 10
  281.0488 23.0 23
  281.06219 65.0 65
  281.08994 49.0 49
  281.10733 16.0 16
  281.12436 17.0 17
  282.06329 88.0 88
  282.08099 29.0 29
  282.11481 17.0 17
  282.12665 9.0 9
  282.74362 10.0 10
  282.78415 9.0 9
  283.04367 18.0 18
  283.06625 75.0 75
  283.08179 53.0 53
  283.10886 7.0 7
  284.07596 17.0 17
  284.09485 32.0 32
  284.10352 16.0 16
  284.16251 9.0 9
  285.09 22.0 22
  286.09512 18.0 18
  287.09048 9.0 9
  288.08386 16.0 16
  288.09686 22.0 22
  288.11035 25.0 25
  288.12646 10.0 10
  288.14166 6.0 6
  289.08423 9.0 9
  289.103 39.0 39
  289.12418 8.0 8
  290.0647 14.0 14
  290.08051 30.0 30
  290.09573 9.0 9
  290.12534 22.0 22
  291.07245 11.0 11
  291.08743 55.0 55
  291.10312 17.0 17
  291.11978 8.0 8
  292.04001 6.0 6
  292.05789 44.0 44
  292.0849 45.0 45
  292.12024 14.0 14
  292.15543 5.0 5
  293.05234 43.0 43
  293.06985 50.0 50
  293.08875 60.0 60
  293.10153 26.0 26
  293.11548 18.0 18
  293.14371 28.0 28
  294.02518 14.0 14
  294.04745 17.0 17
  294.06311 43.0 43
  294.08243 29.0 29
  294.10831 32.0 32
  294.13254 7.0 7
  295.04657 20.0 20
  295.06958 120.0 120
  295.09 20.0 20
  295.09891 16.0 16
  295.12418 18.0 18
  296.06458 13.0 13
  296.09192 26.0 26
  296.10861 12.0 12
  296.12473 8.0 8
  296.3999 6.0 6
  296.47006 7.0 7
  297.04065 6.0 6
  297.09009 90.0 90
  297.12476 9.0 9
  297.14328 13.0 13
  298.07162 13.0 13
  298.09616 5.0 5
  298.11316 6.0 6
  298.13171 15.0 15
  299.02899 7.0 7
  300.22598 10.0 10
  301.0499 8.0 8
  301.09534 8.0 8
  301.10587 12.0 12
  301.1185 6.0 6
  301.13159 8.0 8
  301.50821 8.0 8
  301.58624 7.0 7
  302.09943 7.0 7
  303.12384 17.0 17
  303.15442 10.0 10
  304.04678 13.0 13
  304.08655 43.0 43
  304.10251 16.0 16
  304.11493 6.0 6
  305.0546 7.0 7
  305.08871 11.0 11
  305.10318 43.0 43
  305.14532 20.0 20
  305.16833 5.0 5
  306.08182 15.0 15
  306.10397 51.0 51
  306.12283 17.0 17
  306.14368 12.0 12
  307.07352 164.0 164
  307.10828 118.0 118
  307.13751 9.0 9
  307.15881 11.0 11
  308.04993 7.0 7
  308.07709 89.0 89
  308.10297 59.0 59
  308.12579 30.0 30
  308.15436 13.0 13
  308.78436 8.0 8
  308.81061 16.0 16
  308.88147 8.0 8
  309.07578 40.0 40
  309.08994 111.0 111
  309.1236 32.0 32
  309.19559 9.0 9
  309.44016 7.0 7
  309.82581 5.0 5
  310.01953 7.0 7
  310.05286 9.0 9
  310.08093 19.0 19
  310.09787 18.0 18
  310.14099 8.0 8
  310.16455 6.0 6
  311.095 12.0 12
  311.10611 7.0 7
  311.94586 8.0 8
  313.07758 6.0 6
  313.11603 38.0 38
  313.13318 7.0 7
  313.39413 8.0 8
  314.1358 22.0 22
  314.67166 12.0 12
  314.73169 6.0 6
  316.10159 7.0 7
  316.2261 5.0 5
  318.06659 7.0 7
  318.08502 6.0 6
  318.09448 9.0 9
  319.04828 10.0 10
  319.07523 19.0 19
  319.08725 37.0 37
  319.10049 21.0 21
  319.11932 37.0 37
  319.14102 7.0 7
  319.15598 7.0 7
  319.98157 7.0 7
  320.07306 12.0 12
  320.10883 30.0 30
  321.04184 18.0 18
  321.07938 92.0 92
  321.09396 80.0 80
  321.15207 10.0 10
  322.0759 24.0 24
  322.09299 30.0 30
  322.11774 13.0 13
  322.13815 23.0 23
  322.1528 10.0 10
  322.82846 10.0 10
  323.04523 6.0 6
  323.10107 167.0 167
  323.13742 26.0 26
  323.1507 7.0 7
  324.08246 17.0 17
  324.10385 24.0 24
  324.11807 28.0 28
  324.17465 24.0 24
  324.35333 6.0 6
  324.50363 6.0 6
  325.05911 6.0 6
  325.0769 6.0 6
  325.10687 8.0 8
  325.12219 27.0 27
  325.13632 8.0 8
  326.14221 5.0 5
  326.46692 8.0 8
  327.11475 7.0 7
  327.13678 9.0 9
  329.50146 6.0 6
  332.09619 8.0 8
  332.11938 7.0 7
  333.09067 8.0 8
  333.11511 9.0 9
  333.32709 21.0 21
  334.035 6.0 6
  334.08731 14.0 14
  334.10565 8.0 8
  334.11389 16.0 16
  334.13184 7.0 7
  335.06091 6.0 6
  335.0867 50.0 50
  335.10315 319.0 319
  335.13174 24.0 24
  335.54218 10.0 10
  336.0835 19.0 19
  336.09799 48.0 48
  336.1145 26.0 26
  336.12961 8.0 8
  336.13959 6.0 6
  336.16989 10.0 10
  337.03323 5.0 5
  337.11795 189.0 189
  337.1459 7.0 7
  337.17569 7.0 7
  337.86218 12.0 12
  337.99506 10.0 10
  338.06085 9.0 9
  338.10983 8.0 8
  338.12589 14.0 14
  338.14236 9.0 9
  339.04749 12.0 12
  339.0809 6.0 6
  339.09875 9.0 9
  339.12723 26.0 26
  340.12018 6.0 6
  341.09756 9.0 9
  341.14667 6.0 6
  342.07452 12.0 12
  343.13736 6.0 6
  349.12234 18.0 18
  350.10431 10.0 10
  350.11804 9.0 9
  350.13309 17.0 17
  351.0658 14.0 14
  351.09747 6.0 6
  351.1275 44.0 44
  351.13904 47.0 47
  351.15643 14.0 14
  351.34601 6.0 6
  351.49176 6.0 6
  352.11005 15.0 15
  352.12469 30.0 30
  352.16202 11.0 11
  352.9332 8.0 8
  353.11392 43.0 43
  353.1412 16.0 16
  353.16144 7.0 7
  354.13736 7.0 7
  354.15381 32.0 32
  355.12448 8.0 8
  355.15808 30.0 30
  355.17477 7.0 7
  355.37515 5.0 5
  356.13275 7.0 7
  356.20117 7.0 7
  365.1402 19.0 19
  365.15875 35.0 35
  366.15811 15.0 15
  367.12091 6.0 6
  367.1597 70.0 70
  367.19553 11.0 11
  369.12482 17.0 17
  381.13431 5.0 5
  381.16193 7.0 7
  383.16281 32.0 32
  383.17487 9.0 9
  384.17606 5.0 5
  386.17078 6.0 6
  397.16418 12.0 12
  397.181 6.0 6
  399.2041 10.0 10
  413.1846 16.0 16
  413.22134 5.0 5
//
