ACCESSION: MSBNK-RIKEN-PR303883
RECORD_TITLE: Schizandrin; LC-ESI-QTOF; MS2
DATE: 2019.03.28
AUTHORS: Tetsuya Mori, Center for Sustainable Resource Science, RIKEN
LICENSE: CC BY-NC-SA
PUBLICATION: Tsugawa H., Nakabayashi R., Mori T., Yamada Y., Takahashi M., Rai A., Sugiyama R., Yamamoto H., Nakaya T., Yamazaki M., Kooke R., Bac-Molenaar JA., Oztolan-Erol N., Keurentjes JJB., Arita M., Saito K. (2019) "A cheminformatics approach to characterize metabolomes in stable-isotope-labeled organisms" Nature Methods 16(4):295-298. [doi:10.1038/s41592-019-0358-2]
COMMENT: registered in RIKEN PlaSMA
CH$NAME: Schizandrin
CH$COMPOUND_CLASS: Hydrolyzable tannins
CH$FORMULA: C24H32O7
CH$EXACT_MASS: 432.513
CH$SMILES: COC1=C(OC)C(OC)=C2C(CC(C)C(C)(O)CC3=CC(OC)=C(OC)C(OC)=C23)=C1
CH$IUPAC: InChI=1S/C24H32O7/c1-13-9-14-10-16(26-3)20(28-5)22(30-7)18(14)19-15(12-24(13,2)25)11-17(27-4)21(29-6)23(19)31-8/h10-11,13,25H,9,12H2,1-8H3
CH$LINK: INCHIKEY YEFOAORQXAOVJQ-UHFFFAOYSA-N
AC$INSTRUMENT: LC, Waters Acquity UPLC System; MS, Waters Xevo G2 Q-Tof
AC$INSTRUMENT_TYPE: LC-ESI-QTOF
AC$MASS_SPECTROMETRY: MS_TYPE MS2
AC$MASS_SPECTROMETRY: ION_MODE POSITIVE
AC$MASS_SPECTROMETRY: COLLISION_ENERGY 6V
AC$MASS_SPECTROMETRY: DESOLVATION_GAS_FLOW 800/h
AC$MASS_SPECTROMETRY: DESOLVATION_TEMPERATURE 450 C
AC$MASS_SPECTROMETRY: IONIZATION ESI
AC$CHROMATOGRAPHY: CAPILLARY_VOLTAGE +3.00 kV
AC$CHROMATOGRAPHY: COLUMN_NAME Acquity bridged ethyl hybrid C18 (1.7 um, 2.1 mm * 100 mm, Waters)
AC$CHROMATOGRAPHY: COLUMN_TEMPERATURE 40 C
AC$CHROMATOGRAPHY: FLOW_GRADIENT A/B = (99.5%/0.5% at 0 min, 99.5%/0.5% at 0.1 min, 20%/80% at 10 min, 0.5%/99.5% at 10.1 min, 0.5%/99.5% at 12.0 min, 99.5%/0.5% at 12.1 min, 99.5%/0.5% at 15.0 min)
AC$CHROMATOGRAPHY: FLOW_RATE 0.3 ml/min at 0 min, 0.3 ml/min at 10 min, 0.4 ml/min at 10.1 min, 0.4 ml/min at 14.4 min, 0.3 ml/min at 14.5 min
AC$CHROMATOGRAPHY: RETENTION_TIME 7.59405
AC$CHROMATOGRAPHY: SOLVENT A water including 0.1% formic acid
AC$CHROMATOGRAPHY: SOLVENT B acetonitrile including 0.1% formic acid
MS$FOCUSED_ION: PRECURSOR_TYPE [M+H]+
MS$FOCUSED_ION: PRECURSOR_M/Z 433.2220798
PK$SPLASH: splash10-0159-0019000000-f1b663d5d21a8ba2a022
PK$NUM_PEAK: 386
PK$PEAK: m/z int. rel.int.
  75.0436 13.0 13
  99.07764 9.0 9
  112.05089 11.0 11
  154.09454 11.0 11
  160.08582 7.0 7
  169.06377 9.0 9
  179.10077 6.0 6
  181.07547 9.0 9
  181.08916 14.0 14
  189.07838 6.0 6
  189.09357 6.0 6
  191.11342 14.0 14
  192.07759 7.0 7
  192.1059 6.0 6
  195.08977 8.0 8
  198.0533 7.0 7
  201.09158 7.0 7
  202.103 6.0 6
  205.05156 6.0 6
  205.1218 7.0 7
  207.10364 7.0 7
  207.57961 9.0 9
  209.10794 7.0 7
  210.09895 7.0 7
  211.1088 7.0 7
  217.09163 6.0 6
  217.12325 7.0 7
  218.73454 15.0 15
  223.19255 7.0 7
  231.11319 8.0 8
  232.09383 10.0 10
  232.11533 19.0 19
  235.13524 23.0 23
  236.05981 6.0 6
  236.0784 9.0 9
  238.44037 9.0 9
  240.12451 6.0 6
  241.04813 7.0 7
  241.27682 6.0 6
  241.49171 9.0 9
  242.95937 9.0 9
  244.0556 6.0 6
  246.11334 7.0 7
  249.08839 7.0 7
  252.11412 7.0 7
  254.09651 10.0 10
  254.13399 7.0 7
  254.50519 6.0 6
  255.09685 13.0 13
  255.11497 14.0 14
  257.08646 8.0 8
  258.10486 6.0 6
  258.17068 10.0 10
  259.21356 6.0 6
  263.12839 6.0 6
  265.16809 9.0 9
  266.05002 8.0 8
  266.08417 6.0 6
  266.14078 11.0 11
  267.10742 8.0 8
  269.06116 15.0 15
  269.08429 8.0 8
  269.11951 7.0 7
  269.89032 7.0 7
  270.07559 8.0 8
  270.10098 14.0 14
  270.13281 7.0 7
  271.0762 16.0 16
  271.1001 41.0 41
  271.15622 6.0 6
  272.08585 6.0 6
  272.09692 17.0 17
  273.07584 8.0 8
  273.08597 6.0 6
  273.10733 7.0 7
  277.12088 14.0 14
  278.08386 11.0 11
  279.12909 8.0 8
  280.14722 8.0 8
  282.12869 17.0 17
  283.05975 12.0 12
  283.09274 15.0 15
  284.10397 15.0 15
  284.11926 31.0 31
  285.06461 7.0 7
  285.09052 30.0 30
  285.10458 10.0 10
  285.11282 6.0 6
  285.12665 10.0 10
  286.09991 13.0 13
  286.12259 21.0 21
  287.08902 6.0 6
  287.10196 13.0 13
  287.11752 14.0 14
  287.13733 24.0 24
  288.08237 11.0 11
  288.10828 14.0 14
  289.07211 7.0 7
  289.10422 8.0 8
  289.12903 6.0 6
  290.12769 6.0 6
  293.11496 7.0 7
  294.02664 9.0 9
  294.11099 7.0 7
  294.12506 7.0 7
  295.09891 19.0 19
  295.12967 9.0 9
  295.14542 7.0 7
  296.09363 7.0 7
  296.11475 11.0 11
  296.88205 8.0 8
  297.07416 16.0 16
  297.08768 7.0 7
  297.11813 7.0 7
  297.14917 11.0 11
  297.16629 9.0 9
  298.01892 7.0 7
  298.08591 30.0 30
  298.11862 40.0 40
  298.3699 10.0 10
  299.06586 6.0 6
  299.08905 17.0 17
  299.1037 15.0 15
  299.12839 43.0 43
  299.13858 20.0 20
  299.1586 9.0 9
  300.0769 15.0 15
  300.10599 32.0 32
  300.12561 33.0 33
  301.08652 7.0 7
  301.10379 41.0 41
  301.11459 19.0 19
  301.1506 15.0 15
  301.83578 10.0 10
  302.09528 7.0 7
  302.11057 36.0 36
  302.1261 15.0 15
  302.15247 7.0 7
  303.10028 9.0 9
  303.11938 47.0 47
  303.14139 14.0 14
  304.12643 6.0 6
  305.08344 7.0 7
  305.11807 6.0 6
  306.1228 22.0 22
  307.08575 9.0 9
  307.10614 6.0 6
  307.13623 17.0 17
  308.14352 6.0 6
  308.16141 7.0 7
  309.09943 6.0 6
  309.1496 22.0 22
  309.19669 6.0 6
  310.08603 7.0 7
  310.11813 10.0 10
  310.14435 6.0 6
  310.15939 17.0 17
  310.25931 6.0 6
  311.09137 12.0 12
  311.11618 16.0 16
  311.14218 8.0 8
  311.17743 10.0 10
  312.10187 18.0 18
  312.1272 7.0 7
  312.1442 33.0 33
  312.85364 6.0 6
  313.09412 8.0 8
  313.11279 72.0 72
  313.30328 7.0 7
  314.11279 83.0 83
  314.12784 25.0 25
  315.07904 10.0 10
  315.09113 21.0 21
  315.12555 425.0 425
  315.15137 13.0 13
  316.08432 29.0 29
  316.09756 49.0 49
  316.12256 47.0 47
  316.13803 67.0 67
  316.45947 9.0 9
  316.48611 7.0 7
  317.02686 7.0 7
  317.0899 21.0 21
  317.11151 11.0 11
  317.1297 21.0 21
  317.16922 10.0 10
  318.10837 7.0 7
  318.11899 9.0 9
  318.12982 7.0 7
  320.11102 7.0 7
  321.00705 7.0 7
  321.09323 7.0 7
  321.10284 20.0 20
  321.12766 15.0 15
  321.14862 12.0 12
  322.1124 23.0 23
  322.12128 74.0 74
  322.15225 101.0 101
  322.16791 100.0 100
  322.832 8.0 8
  323.10553 6.0 6
  323.12027 6.0 6
  323.14243 10.0 10
  323.16135 70.0 70
  324.13226 13.0 13
  324.1499 38.0 38
  324.17953 6.0 6
  324.66626 6.0 6
  325.10986 7.0 7
  325.13837 9.0 9
  325.14841 35.0 35
  325.15994 17.0 17
  325.18622 12.0 12
  326.13641 6.0 6
  326.15216 6.0 6
  326.58823 6.0 6
  327.07584 6.0 6
  327.09018 7.0 7
  327.11328 56.0 56
  327.125 67.0 67
  327.14008 36.0 36
  327.16473 26.0 26
  328.06796 7.0 7
  328.13214 372.0 372
  329.09698 49.0 49
  329.13663 99.0 99
  330.09 12.0 12
  330.10446 28.0 28
  330.11716 13.0 13
  330.13138 29.0 29
  330.15018 120.0 120
  331.12079 384.0 384
  331.15213 56.0 56
  331.26315 7.0 7
  331.66586 7.0 7
  331.85928 7.0 7
  332.12509 348.0 348
  332.16653 6.0 6
  333.11703 24.0 24
  333.13217 23.0 23
  333.14609 40.0 40
  334.12576 8.0 8
  334.1412 7.0 7
  334.66479 9.0 9
  336.13254 16.0 16
  337.10846 18.0 18
  337.12747 14.0 14
  337.1452 76.0 76
  337.34805 6.0 6
  338.10001 7.0 7
  338.11459 14.0 14
  338.15356 545.0 544
  338.18304 6.0 6
  339.1185 11.0 11
  339.13416 28.0 28
  339.14865 37.0 37
  339.16275 26.0 26
  340.09711 10.0 10
  340.12994 23.0 23
  340.15347 15.0 15
  340.17151 20.0 20
  340.57278 6.0 6
  341.11777 7.0 7
  341.13788 32.0 32
  341.14932 43.0 43
  341.16489 17.0 17
  341.18408 34.0 34
  341.23019 8.0 8
  341.64487 8.0 8
  342.14499 320.0 320
  342.16599 54.0 54
  342.18161 14.0 14
  342.97891 6.0 6
  343.07745 6.0 6
  343.11057 12.0 12
  343.12131 27.0 27
  343.13779 79.0 79
  343.15659 111.0 111
  344.08875 11.0 11
  344.11972 90.0 90
  344.1514 41.0 41
  344.83386 14.0 14
  344.99741 8.0 8
  345.08051 6.0 6
  345.09293 7.0 7
  345.13037 51.0 51
  345.17203 6.0 6
  346.06604 7.0 7
  346.08524 11.0 11
  346.10672 6.0 6
  346.1449 530.0 529
  347.09076 7.0 7
  347.11353 13.0 13
  347.14481 114.0 114
  347.15628 40.0 40
  348.14178 42.0 42
  348.9238 6.0 6
  349.14066 8.0 8
  351.16235 14.0 14
  352.12552 6.0 6
  352.14099 6.0 6
  352.16891 48.0 48
  352.19098 8.0 8
  352.33698 6.0 6
  353.08994 6.0 6
  353.12311 17.0 17
  353.17429 515.0 514
  353.90958 18.0 18
  353.97858 8.0 8
  354.13501 51.0 51
  354.15051 79.0 79
  354.17896 98.0 98
  354.19449 36.0 36
  354.62985 6.0 6
  355.13837 23.0 23
  355.15158 33.0 33
  355.1741 21.0 21
  355.20422 6.0 6
  356.16498 46.0 46
  357.11191 7.0 7
  357.13608 38.0 38
  357.19351 6.0 6
  358.11798 7.0 7
  358.13556 54.0 54
  358.15182 40.0 40
  358.17618 14.0 14
  358.24234 8.0 8
  359.1236 9.0 9
  359.13989 31.0 31
  359.15677 31.0 31
  359.17966 7.0 7
  360.13754 14.0 14
  360.14999 8.0 8
  360.17728 6.0 6
  360.19278 6.0 6
  363.20114 8.0 8
  367.78098 9.0 9
  368.15421 65.0 65
  368.17706 11.0 11
  369.12646 13.0 13
  369.16962 1000.0 999
  369.25549 7.0 7
  369.95511 8.0 8
  370.09024 7.0 7
  370.1485 44.0 44
  370.17218 270.0 270
  371.12921 8.0 8
  371.14035 28.0 28
  371.17233 83.0 83
  371.19574 12.0 12
  372.15421 37.0 37
  372.1756 24.0 24
  373.14053 14.0 14
  373.16788 78.0 78
  375.17801 6.0 6
  376.12775 6.0 6
  382.93369 6.0 6
  383.14584 6.0 6
  383.17343 19.0 19
  384.14569 9.0 9
  384.19266 586.0 585
  384.26654 7.0 7
  385.13391 8.0 8
  385.16449 121.0 121
  385.19501 179.0 179
  385.21106 87.0 87
  385.42468 6.0 6
  386.15683 39.0 39
  386.17746 39.0 39
  386.36133 9.0 9
  387.1174 7.0 7
  387.17773 39.0 39
  387.20236 8.0 8
  389.19971 15.0 15
  390.19363 7.0 7
  400.16583 13.0 13
  400.1813 34.0 34
  400.19772 82.0 82
  401.1683 6.0 6
  401.1958 12.0 12
  401.46057 6.0 6
  415.19077 16.0 16
  415.21716 34.0 34
  415.94427 9.0 9
  416.20593 12.0 12
  433.19986 7.0 7
//
