ACCESSION: MSBNK-RIKEN-PR302891
RECORD_TITLE: Kaempferol-3-O-glucoside-6''-p-coumaroyl; LC-ESI-QTOF; MS2
DATE: 2019.03.28
AUTHORS: Tetsuya Mori, Center for Sustainable Resource Science, RIKEN
LICENSE: CC BY-NC-SA
PUBLICATION: Tsugawa H., Nakabayashi R., Mori T., Yamada Y., Takahashi M., Rai A., Sugiyama R., Yamamoto H., Nakaya T., Yamazaki M., Kooke R., Bac-Molenaar JA., Oztolan-Erol N., Keurentjes JJB., Arita M., Saito K. (2019) "A cheminformatics approach to characterize metabolomes in stable-isotope-labeled organisms" Nature Methods 16(4):295-298. [doi:10.1038/s41592-019-0358-2]
COMMENT: registered in RIKEN PlaSMA
CH$NAME: Kaempferol-3-O-glucoside-6''-p-coumaroyl
CH$COMPOUND_CLASS: Flavonoid 3-O-p-coumaroyl glycosides
CH$FORMULA: C30H26O13
CH$EXACT_MASS: 594.525
CH$SMILES: O[C@@H]1[C@@H](COC(=O)\C=C\C2=CC=C(O)C=C2)O[C@@H](OC2=C(OC3=CC(O)=CC(O)=C3C2=O)C2=CC=C(O)C=C2)[C@H](O)[C@H]1O
CH$IUPAC: InChI=1S/C30H26O13/c31-16-6-1-14(2-7-16)3-10-22(35)40-13-21-24(36)26(38)27(39)30(42-21)43-29-25(37)23-19(34)11-18(33)12-20(23)41-28(29)15-4-8-17(32)9-5-15/h1-12,21,24,26-27,30-34,36,38-39H,13H2/b10-3+/t21-,24-,26+,27-,30+/m1/s1
CH$LINK: INCHIKEY DVGGLGXQSFURLP-VWMSDXGPSA-N
AC$INSTRUMENT: LC, Waters Acquity UPLC System; MS, Waters Xevo G2 Q-Tof
AC$INSTRUMENT_TYPE: LC-ESI-QTOF
AC$MASS_SPECTROMETRY: MS_TYPE MS2
AC$MASS_SPECTROMETRY: ION_MODE POSITIVE
AC$MASS_SPECTROMETRY: COLLISION_ENERGY 6V
AC$MASS_SPECTROMETRY: DESOLVATION_GAS_FLOW 800/h
AC$MASS_SPECTROMETRY: DESOLVATION_TEMPERATURE 450 C
AC$MASS_SPECTROMETRY: IONIZATION ESI
AC$CHROMATOGRAPHY: CAPILLARY_VOLTAGE +3.00 kV
AC$CHROMATOGRAPHY: COLUMN_NAME Acquity bridged ethyl hybrid C18 (1.7 um, 2.1 mm * 100 mm, Waters)
AC$CHROMATOGRAPHY: COLUMN_TEMPERATURE 40 C
AC$CHROMATOGRAPHY: FLOW_GRADIENT A/B = (99.5%/0.5% at 0 min, 99.5%/0.5% at 0.1 min, 20%/80% at 10 min, 0.5%/99.5% at 10.1 min, 0.5%/99.5% at 12.0 min, 99.5%/0.5% at 12.1 min, 99.5%/0.5% at 15.0 min)
AC$CHROMATOGRAPHY: FLOW_RATE 0.3 ml/min at 0 min, 0.3 ml/min at 10 min, 0.4 ml/min at 10.1 min, 0.4 ml/min at 14.4 min, 0.3 ml/min at 14.5 min
AC$CHROMATOGRAPHY: RETENTION_TIME 5.209317
AC$CHROMATOGRAPHY: SOLVENT A water including 0.1% formic acid
AC$CHROMATOGRAPHY: SOLVENT B acetonitrile including 0.1% formic acid
MS$FOCUSED_ION: PRECURSOR_TYPE [M+H]+
MS$FOCUSED_ION: PRECURSOR_M/Z 595.1446173
PK$SPLASH: splash10-0002-0536090000-8977845cd782525e35f4
PK$NUM_PEAK: 49
PK$PEAK: m/z int. rel.int.
  63.23351 8.0 8
  68.66859 8.0 8
  97.03391 8.0 8
  126.3608 5.0 5
  147.01547 5.0 5
  147.02187 18.0 18
  147.04367 536.0 535
  147.35139 6.0 6
  147.51082 5.0 5
  148.03966 10.0 10
  148.04977 14.0 14
  148.05893 7.0 7
  148.4442 5.0 5
  149.02931 11.0 11
  165.05573 115.0 115
  166.05986 14.0 14
  239.10956 11.0 11
  287.04752 174.0 174
  287.05899 138.0 138
  288.04562 5.0 5
  288.05994 46.0 46
  289.04678 7.0 7
  289.05661 20.0 20
  291.07886 30.0 30
  292.09158 8.0 8
  308.72647 5.0 5
  309.06631 31.0 31
  309.09146 301.0 301
  309.10294 323.0 323
  309.12497 15.0 15
  309.32428 5.0 5
  310.10019 89.0 89
  310.12619 7.0 7
  311.10025 29.0 29
  311.11093 18.0 18
  312.11194 10.0 10
  329.06268 7.0 7
  330.06509 5.0 5
  340.06799 8.0 8
  376.50427 5.0 5
  380.02841 8.0 8
  431.11035 8.0 8
  470.1615 8.0 8
  530.94653 9.0 9
  595.04523 10.0 10
  595.07367 20.0 20
  595.10425 79.0 79
  595.14691 1000.0 999
  595.19971 19.0 19
//
