ACCESSION: MSBNK-RIKEN-PR301598
RECORD_TITLE: Piperlongumine; LC-ESI-QTOF; MS2
DATE: 2019.03.28
AUTHORS: Tetsuya Mori, Center for Sustainable Resource Science, RIKEN
LICENSE: CC BY-NC-SA
PUBLICATION: Tsugawa H., Nakabayashi R., Mori T., Yamada Y., Takahashi M., Rai A., Sugiyama R., Yamamoto H., Nakaya T., Yamazaki M., Kooke R., Bac-Molenaar JA., Oztolan-Erol N., Keurentjes JJB., Arita M., Saito K. (2019) "A cheminformatics approach to characterize metabolomes in stable-isotope-labeled organisms" Nature Methods 16(4):295-298. [doi:10.1038/s41592-019-0358-2]
COMMENT: registered in RIKEN PlaSMA
CH$NAME: Piperlongumine
CH$COMPOUND_CLASS: Cinnamic acids and derivatives
CH$FORMULA: C17H19NO5
CH$EXACT_MASS: 317.341
CH$SMILES: COC1=CC(\C=C\C(=O)N2CCC=CC2=O)=CC(OC)=C1OC
CH$IUPAC: InChI=1S/C17H19NO5/c1-21-13-10-12(11-14(22-2)17(13)23-3)7-8-16(20)18-9-5-4-6-15(18)19/h4,6-8,10-11H,5,9H2,1-3H3/b8-7+
CH$LINK: INCHIKEY VABYUUZNAVQNPG-BQYQJAHWSA-N
AC$INSTRUMENT: LC, Waters Acquity UPLC System; MS, Waters Xevo G2 Q-Tof
AC$INSTRUMENT_TYPE: LC-ESI-QTOF
AC$MASS_SPECTROMETRY: MS_TYPE MS2
AC$MASS_SPECTROMETRY: ION_MODE POSITIVE
AC$MASS_SPECTROMETRY: COLLISION_ENERGY 6V
AC$MASS_SPECTROMETRY: DESOLVATION_GAS_FLOW 800/h
AC$MASS_SPECTROMETRY: DESOLVATION_TEMPERATURE 450 C
AC$MASS_SPECTROMETRY: IONIZATION ESI
AC$CHROMATOGRAPHY: CAPILLARY_VOLTAGE +3.00 kV
AC$CHROMATOGRAPHY: COLUMN_NAME Acquity bridged ethyl hybrid C18 (1.7 um, 2.1 mm * 100 mm, Waters)
AC$CHROMATOGRAPHY: COLUMN_TEMPERATURE 40 C
AC$CHROMATOGRAPHY: FLOW_GRADIENT A/B = (99.5%/0.5% at 0 min, 99.5%/0.5% at 0.1 min, 20%/80% at 10 min, 0.5%/99.5% at 10.1 min, 0.5%/99.5% at 12.0 min, 99.5%/0.5% at 12.1 min, 99.5%/0.5% at 15.0 min)
AC$CHROMATOGRAPHY: FLOW_RATE 0.3 ml/min at 0 min, 0.3 ml/min at 10 min, 0.4 ml/min at 10.1 min, 0.4 ml/min at 14.4 min, 0.3 ml/min at 14.5 min
AC$CHROMATOGRAPHY: RETENTION_TIME 6.826983
AC$CHROMATOGRAPHY: SOLVENT A water including 0.1% formic acid
AC$CHROMATOGRAPHY: SOLVENT B acetonitrile including 0.1% formic acid
MS$FOCUSED_ION: PRECURSOR_TYPE [M+H]+
MS$FOCUSED_ION: PRECURSOR_M/Z 318.1335992
PK$SPLASH: splash10-0006-0920000000-1753ecc341e1b3ba1d1c
PK$NUM_PEAK: 109
PK$PEAK: m/z int. rel.int.
  91.05083 13.0 13
  91.05628 25.0 25
  92.05963 26.0 26
  102.04935 13.0 13
  104.05759 23.0 23
  105.03658 19.0 19
  105.06409 15.0 15
  106.0236 29.0 29
  115.29852 13.0 13
  118.03422 18.0 18
  119.04907 34.0 34
  124.40067 15.0 15
  129.01517 13.0 13
  130.03575 18.0 18
  130.04112 65.0 65
  131.03937 34.0 34
  131.05069 47.0 47
  131.05942 12.0 12
  132.04814 26.0 26
  132.06041 42.0 42
  133.061 57.0 57
  133.07095 17.0 17
  135.05147 16.0 16
  135.08342 21.0 21
  145.02417 13.0 13
  145.03038 20.0 20
  146.03067 14.0 14
  146.03622 15.0 15
  146.06364 15.0 15
  147.04324 200.0 200
  148.04669 22.0 22
  148.05489 28.0 28
  149.04568 20.0 20
  149.0556 92.0 92
  149.06618 32.0 32
  150.07671 22.0 22
  151.06822 14.0 14
  157.03511 15.0 15
  158.04071 12.0 12
  158.0471 18.0 18
  159.03958 20.0 20
  160.88902 20.0 20
  161.02864 18.0 18
  161.06226 38.0 38
  162.06018 48.0 48
  162.06918 205.0 205
  162.08109 22.0 22
  163.03418 80.0 80
  163.045 119.0 119
  163.07077 18.0 18
  164.0352 31.0 31
  165.07239 20.0 20
  165.09294 20.0 20
  171.04671 22.0 22
  174.02199 19.0 19
  174.06505 15.0 15
  175.03506 98.0 98
  175.04211 43.0 43
  175.05818 24.0 24
  176.03662 29.0 29
  176.04657 31.0 31
  176.05525 12.0 12
  176.94891 15.0 15
  177.04089 31.0 31
  177.05136 99.0 99
  178.02905 12.0 12
  178.04266 19.0 19
  178.06291 326.0 326
  179.05736 25.0 25
  179.06454 29.0 29
  179.07362 18.0 18
  180.08043 16.0 16
  188.04623 31.0 31
  189.05328 40.0 40
  190.03493 19.0 19
  190.0625 1000.0 999
  191.0363 307.0 307
  191.05363 32.0 32
  191.07027 173.0 173
  192.03694 34.0 34
  192.05315 16.0 16
  192.07643 29.0 29
  193.02669 12.0 12
  193.03777 12.0 12
  193.06624 14.0 14
  193.0863 690.0 689
  194.07423 12.0 12
  194.08554 64.0 64
  194.09653 53.0 53
  195.09048 18.0 18
  205.04449 18.0 18
  206.0433 18.0 18
  206.05728 300.0 300
  206.07854 15.0 15
  206.90714 13.0 13
  207.05305 80.0 80
  214.0921 18.0 18
  221.04605 24.0 24
  221.07465 182.0 182
  221.08401 349.0 349
  222.0811 36.0 36
  222.09088 17.0 17
  223.08328 15.0 15
  223.09491 45.0 45
  229.1133 12.0 12
  230.05952 24.0 24
  241.10335 13.0 13
  274.10934 29.0 29
  276.12299 16.0 16
//
