ACCESSION: MSBNK-RIKEN-PR309331
RECORD_TITLE: Diferuloyl putrescine; LC-ESI-QTOF; MS2
DATE: 2019.03.28
AUTHORS: Tetsuya Mori, Center for Sustainable Resource Science, RIKEN
LICENSE: CC BY-NC-SA
PUBLICATION: Tsugawa H., Nakabayashi R., Mori T., Yamada Y., Takahashi M., Rai A., Sugiyama R., Yamamoto H., Nakaya T., Yamazaki M., Kooke R., Bac-Molenaar JA., Oztolan-Erol N., Keurentjes JJB., Arita M., Saito K. (2019) "A cheminformatics approach to characterize metabolomes in stable-isotope-labeled organisms" Nature Methods 16(4):295-298. [doi:10.1038/s41592-019-0358-2]
COMMENT: Annotation level-3
CH$NAME: Diferuloyl putrescine
CH$COMPOUND_CLASS: Ferulic acid and derivatives
CH$FORMULA: C24H28N2O6
CH$EXACT_MASS: 440.496
CH$SMILES: OC(=NCCCCN=C(O)C=CC=1C=CC(O)=C(OC)C=1)C=CC=2C=CC(O)=C(OC)C=2
CH$IUPAC: InChI=1S/C24H28N2O6/c1-31-21-15-17(5-9-19(21)27)7-11-23(29)25-13-3-4-14-26-24(30)12-8-18-6-10-20(28)22(16-18)32-2/h5-12,15-16,27-28H,3-4,13-14H2,1-2H3,(H,25,29)(H,26,30)
CH$LINK: INCHIKEY CHEMZHJQHCVLFI-UHFFFAOYSA-N
AC$INSTRUMENT: LC, Waters Acquity UPLC System; MS, Waters Xevo G2 Q-Tof
AC$INSTRUMENT_TYPE: LC-ESI-QTOF
AC$MASS_SPECTROMETRY: MS_TYPE MS2
AC$MASS_SPECTROMETRY: ION_MODE NEGATIVE
AC$MASS_SPECTROMETRY: COLLISION_ENERGY 6V
AC$MASS_SPECTROMETRY: DESOLVATION_GAS_FLOW 800/h
AC$MASS_SPECTROMETRY: DESOLVATION_TEMPERATURE 450 C
AC$MASS_SPECTROMETRY: IONIZATION ESI
AC$CHROMATOGRAPHY: CAPILLARY_VOLTAGE +3.00 kV
AC$CHROMATOGRAPHY: COLUMN_NAME Acquity bridged ethyl hybrid C18 (1.7 um, 2.1 mm * 100 mm, Waters)
AC$CHROMATOGRAPHY: COLUMN_TEMPERATURE 40 C
AC$CHROMATOGRAPHY: FLOW_GRADIENT A/B = (99.5%/0.5% at 0 min, 99.5%/0.5% at 0.1 min, 20%/80% at 10 min, 0.5%/99.5% at 10.1 min, 0.5%/99.5% at 12.0 min, 99.5%/0.5% at 12.1 min, 99.5%/0.5% at 15.0 min)
AC$CHROMATOGRAPHY: FLOW_RATE 0.3 ml/min at 0 min, 0.3 ml/min at 10 min, 0.4 ml/min at 10.1 min, 0.4 ml/min at 14.4 min, 0.3 ml/min at 14.5 min
AC$CHROMATOGRAPHY: RETENTION_TIME 5.2
AC$CHROMATOGRAPHY: SOLVENT A water including 0.1% formic acid
AC$CHROMATOGRAPHY: SOLVENT B acetonitrile including 0.1% formic acid
MS$FOCUSED_ION: PRECURSOR_TYPE [M-H]-
MS$FOCUSED_ION: PRECURSOR_M/Z 439.1869
PK$SPLASH: splash10-000i-0790800000-c9f89e7e75a697b38b86
PK$NUM_PEAK: 24
PK$PEAK: m/z int. rel.int.
  134.03123 48.0 97
  134.03957 73.0 147
  135.04608 71.0 143
  148.05568 17.0 34
  149.06161 153.0 308
  161.06445 18.0 36
  175.04175 37.0 75
  177.0293 24.0 48
  190.05055 17.0 34
  204.05792 16.0 32
  246.12149 16.0 32
  247.10599 39.0 79
  248.12448 17.0 34
  249.10641 17.0 34
  259.09802 16.0 32
  273.07721 16.0 32
  274.09323 57.0 115
  275.09543 67.0 135
  289.11359 149.0 300
  289.133 34.0 68
  290.11459 23.0 46
  290.12946 63.0 127
  424.15634 16.0 32
  439.18787 496.0 999
//
