ACCESSION: MSBNK-RIKEN-PR300652
RECORD_TITLE: N-Acetylsolasodine; LC-ESI-QTOF; MS2
DATE: 2019.03.28
AUTHORS: Tetsuya Mori, Center for Sustainable Resource Science, RIKEN
LICENSE: CC BY-NC-SA
PUBLICATION: Tsugawa H., Nakabayashi R., Mori T., Yamada Y., Takahashi M., Rai A., Sugiyama R., Yamamoto H., Nakaya T., Yamazaki M., Kooke R., Bac-Molenaar JA., Oztolan-Erol N., Keurentjes JJB., Arita M., Saito K. (2019) "A cheminformatics approach to characterize metabolomes in stable-isotope-labeled organisms" Nature Methods 16(4):295-298. [doi:10.1038/s41592-019-0358-2]
COMMENT: registered in RIKEN PlaSMA
CH$NAME: N-Acetylsolasodine
CH$COMPOUND_CLASS: Spirosolanes and derivatives
CH$FORMULA: C29H45NO3
CH$EXACT_MASS: 455.683
CH$SMILES: CC1C2C(CC3C4CC=C5CC(O)CCC5(C)C4CCC23C)OC11CCC(C)CN1C(C)=O
CH$IUPAC: InChI=1S/C29H45NO3/c1-17-8-13-29(30(16-17)19(3)31)18(2)26-25(33-29)15-24-22-7-6-20-14-21(32)9-11-27(20,4)23(22)10-12-28(24,26)5/h6,17-18,21-26,32H,7-16H2,1-5H3
CH$LINK: INCHIKEY JXAZKNVJWYDQJY-UHFFFAOYSA-N
AC$INSTRUMENT: LC, Waters Acquity UPLC System; MS, Waters Xevo G2 Q-Tof
AC$INSTRUMENT_TYPE: LC-ESI-QTOF
AC$MASS_SPECTROMETRY: MS_TYPE MS2
AC$MASS_SPECTROMETRY: ION_MODE POSITIVE
AC$MASS_SPECTROMETRY: COLLISION_ENERGY 6V
AC$MASS_SPECTROMETRY: DESOLVATION_GAS_FLOW 800/h
AC$MASS_SPECTROMETRY: DESOLVATION_TEMPERATURE 450 C
AC$MASS_SPECTROMETRY: IONIZATION ESI
AC$CHROMATOGRAPHY: CAPILLARY_VOLTAGE +3.00 kV
AC$CHROMATOGRAPHY: COLUMN_NAME Acquity bridged ethyl hybrid C18 (1.7 um, 2.1 mm * 100 mm, Waters)
AC$CHROMATOGRAPHY: COLUMN_TEMPERATURE 40 C
AC$CHROMATOGRAPHY: FLOW_GRADIENT A/B = (99.5%/0.5% at 0 min, 99.5%/0.5% at 0.1 min, 20%/80% at 10 min, 0.5%/99.5% at 10.1 min, 0.5%/99.5% at 12.0 min, 99.5%/0.5% at 12.1 min, 99.5%/0.5% at 15.0 min)
AC$CHROMATOGRAPHY: FLOW_RATE 0.3 ml/min at 0 min, 0.3 ml/min at 10 min, 0.4 ml/min at 10.1 min, 0.4 ml/min at 14.4 min, 0.3 ml/min at 14.5 min
AC$CHROMATOGRAPHY: RETENTION_TIME 7.362
AC$CHROMATOGRAPHY: SOLVENT A water including 0.1% formic acid
AC$CHROMATOGRAPHY: SOLVENT B acetonitrile including 0.1% formic acid
MS$FOCUSED_ION: PRECURSOR_TYPE [M+H]+
MS$FOCUSED_ION: PRECURSOR_M/Z 456.3472208
PK$SPLASH: splash10-03di-0900000000-60a50b2070f78a8f0991
PK$NUM_PEAK: 36
PK$PEAK: m/z int. rel.int.
  55.05248 65.0 65
  81.07465 65.0 65
  91.05534 100.0 100
  93.0697 65.0 65
  95.08318 97.0 97
  109.09345 103.0 103
  109.10854 70.0 70
  114.09245 1000.0 999
  115.05423 143.0 143
  117.06798 89.0 89
  121.10349 49.0 49
  127.05174 84.0 84
  129.06992 278.0 278
  132.08691 65.0 65
  133.10715 95.0 95
  142.07278 95.0 95
  142.08269 49.0 49
  143.08652 84.0 84
  144.08986 65.0 65
  145.10022 76.0 76
  146.82523 54.0 54
  157.10048 370.0 370
  157.11952 54.0 54
  158.10753 54.0 54
  159.11618 81.0 81
  160.11697 54.0 54
  171.02635 51.0 51
  175.14265 68.0 68
  182.11893 46.0 46
  183.11389 241.0 241
  187.14554 54.0 54
  197.12718 111.0 111
  238.16881 124.0 124
  242.16521 49.0 49
  253.19229 89.0 89
  319.20297 78.0 78
//
