ACCESSION: MSBNK-RIKEN-PR300056
RECORD_TITLE: Isoformosanine; LC-ESI-QTOF; MS2
DATE: 2019.03.28
AUTHORS: Tetsuya Mori, Center for Sustainable Resource Science, RIKEN
LICENSE: CC BY-NC-SA
PUBLICATION: Tsugawa H., Nakabayashi R., Mori T., Yamada Y., Takahashi M., Rai A., Sugiyama R., Yamamoto H., Nakaya T., Yamazaki M., Kooke R., Bac-Molenaar JA., Oztolan-Erol N., Keurentjes JJB., Arita M., Saito K. (2019) "A cheminformatics approach to characterize metabolomes in stable-isotope-labeled organisms" Nature Methods 16(4):295-298. [doi:10.1038/s41592-019-0358-2]
COMMENT: registered in RIKEN PlaSMA
CH$NAME: Isoformosanine
CH$COMPOUND_CLASS: Indolizidines
CH$FORMULA: C21H24N2O4
CH$EXACT_MASS: 368.433
CH$SMILES: COC(=O)C1=CO[C@H](C)[C@H]2CN3CC[C@]4([C@@H]3C[C@H]12)C(O)=NC1=CC=CC=C41
CH$IUPAC: InChI=1S/C21H24N2O4/c1-12-14-10-23-8-7-21(16-5-3-4-6-17(16)22-20(21)25)18(23)9-13(14)15(11-27-12)19(24)26-2/h3-6,11-14,18H,7-10H2,1-2H3,(H,22,25)/t12-,13+,14-,18+,21+/m1/s1
CH$LINK: INCHIKEY JMIAZDVHNCCPDM-DQDWJNSRSA-N
AC$INSTRUMENT: LC, Waters Acquity UPLC System; MS, Waters Xevo G2 Q-Tof
AC$INSTRUMENT_TYPE: LC-ESI-QTOF
AC$MASS_SPECTROMETRY: MS_TYPE MS2
AC$MASS_SPECTROMETRY: ION_MODE POSITIVE
AC$MASS_SPECTROMETRY: COLLISION_ENERGY 6V
AC$MASS_SPECTROMETRY: DESOLVATION_GAS_FLOW 800/h
AC$MASS_SPECTROMETRY: DESOLVATION_TEMPERATURE 450 C
AC$MASS_SPECTROMETRY: IONIZATION ESI
AC$CHROMATOGRAPHY: CAPILLARY_VOLTAGE +3.00 kV
AC$CHROMATOGRAPHY: COLUMN_NAME Acquity bridged ethyl hybrid C18 (1.7 um, 2.1 mm * 100 mm, Waters)
AC$CHROMATOGRAPHY: COLUMN_TEMPERATURE 40 C
AC$CHROMATOGRAPHY: FLOW_GRADIENT A/B = (99.5%/0.5% at 0 min, 99.5%/0.5% at 0.1 min, 20%/80% at 10 min, 0.5%/99.5% at 10.1 min, 0.5%/99.5% at 12.0 min, 99.5%/0.5% at 12.1 min, 99.5%/0.5% at 15.0 min)
AC$CHROMATOGRAPHY: FLOW_RATE 0.3 ml/min at 0 min, 0.3 ml/min at 10 min, 0.4 ml/min at 10.1 min, 0.4 ml/min at 14.4 min, 0.3 ml/min at 14.5 min
AC$CHROMATOGRAPHY: RETENTION_TIME 4.424
AC$CHROMATOGRAPHY: SOLVENT A water including 0.1% formic acid
AC$CHROMATOGRAPHY: SOLVENT B acetonitrile including 0.1% formic acid
MS$FOCUSED_ION: PRECURSOR_TYPE [M+H]+
MS$FOCUSED_ION: PRECURSOR_M/Z 369.1808837
PK$SPLASH: splash10-00lr-0900000000-736d69a17c7d1fe38730
PK$NUM_PEAK: 183
PK$PEAK: m/z int. rel.int.
  55.05463 18.0 18
  77.03713 30.0 30
  78.03085 13.0 13
  78.0365 15.0 15
  79.051 7.0 7
  79.05746 5.0 5
  80.04518 7.0 7
  80.05054 12.0 12
  81.0552 6.0 6
  81.06731 15.0 15
  81.0748 6.0 6
  82.06638 24.0 24
  83.01115 17.0 17
  91.05408 27.0 27
  93.05424 12.0 12
  94.02845 8.0 8
  94.06887 6.0 6
  95.05347 15.0 15
  95.08072 5.0 5
  96.08017 16.0 16
  101.0369 5.0 5
  103.05469 12.0 12
  104.04924 68.0 68
  105.05208 5.0 5
  105.0663 58.0 58
  106.0635 15.0 15
  108.03493 7.0 7
  108.04591 36.0 36
  108.05384 5.0 5
  108.08012 45.0 45
  109.02776 10.0 10
  109.05009 30.0 30
  109.06195 10.0 10
  110.03009 6.0 6
  111.04075 7.0 7
  115.03275 5.0 5
  115.05429 577.0 576
  116.04793 52.0 52
  116.05747 57.0 57
  117.04696 54.0 54
  117.05743 484.0 484
  118.05151 12.0 12
  118.06468 332.0 332
  119.04742 7.0 7
  119.06615 12.0 12
  120.04334 8.0 8
  121.061 9.0 9
  122.02237 65.0 65
  122.06474 9.0 9
  122.10098 6.0 6
  124.03944 173.0 173
  125.03989 16.0 16
  127.05247 8.0 8
  128.04485 17.0 17
  128.05139 53.0 53
  129.05222 17.0 17
  130.06482 385.0 385
  131.06244 27.0 27
  131.07002 66.0 66
  132.00279 6.0 6
  132.04437 740.0 739
  132.08051 1000.0 999
  132.19429 6.0 6
  133.02072 9.0 9
  133.04161 17.0 17
  133.05106 39.0 39
  133.0634 7.0 7
  133.08316 105.0 105
  134.06108 10.0 10
  134.09152 8.0 8
  135.06471 7.0 7
  137.11636 5.0 5
  138.05309 5.0 5
  139.02515 5.0 5
  139.03981 22.0 22
  140.03302 5.0 5
  140.04955 114.0 114
  141.05533 14.0 14
  142.04791 11.0 11
  142.06461 847.0 846
  142.37698 5.0 5
  143.05075 7.0 7
  143.06828 132.0 132
  144.03194 13.0 13
  144.04393 43.0 43
  144.052 14.0 14
  144.07309 18.0 18
  144.08168 28.0 28
  144.09572 10.0 10
  145.03075 7.0 7
  145.05196 38.0 38
  145.06084 11.0 11
  145.08798 9.0 9
  146.04871 5.0 5
  146.05513 21.0 21
  150.08711 8.0 8
  154.06229 24.0 24
  154.07217 10.0 10
  155.07474 7.0 7
  156.0475 9.0 9
  158.04434 5.0 5
  158.05925 75.0 75
  158.06996 17.0 17
  158.08424 7.0 7
  159.06651 65.0 65
  159.09036 18.0 18
  160.05099 7.0 7
  160.07478 631.0 630
  160.0966 5.0 5
  161.06242 8.0 8
  161.07736 73.0 73
  161.08707 9.0 9
  163.06714 7.0 7
  166.06209 18.0 18
  167.05634 15.0 15
  167.06787 32.0 32
  167.07669 16.0 16
  167.97588 5.0 5
  168.07903 24.0 24
  169.06808 10.0 10
  170.05736 9.0 9
  170.06931 8.0 8
  172.06583 8.0 8
  172.07806 7.0 7
  173.07111 11.0 11
  173.10457 8.0 8
  178.08621 8.0 8
  180.0686 6.0 6
  180.08162 7.0 7
  181.07014 6.0 6
  182.08699 9.0 9
  183.06798 5.0 5
  184.06714 11.0 11
  185.07542 33.0 33
  186.08171 27.0 27
  186.09645 5.0 5
  187.07222 10.0 10
  187.08606 125.0 125
  188.08838 24.0 24
  190.06932 5.0 5
  192.07352 8.0 8
  192.08623 15.0 15
  193.08014 11.0 11
  194.08337 6.0 6
  196.07922 14.0 14
  197.07301 11.0 11
  198.06636 6.0 6
  199.07713 7.0 7
  199.09018 15.0 15
  200.0862 6.0 6
  201.1019 48.0 48
  204.07864 7.0 7
  205.08118 11.0 11
  206.06363 5.0 5
  207.09435 13.0 13
  208.0787 7.0 7
  208.09744 9.0 9
  209.0835 7.0 7
  209.10179 5.0 5
  214.09908 5.0 5
  219.095 5.0 5
  220.07747 7.0 7
  221.07767 5.0 5
  223.08194 5.0 5
  223.09399 9.0 9
  224.0498 7.0 7
  225.05528 6.0 6
  225.06706 7.0 7
  226.07414 6.0 6
  233.0743 9.0 9
  234.07787 6.0 6
  235.095 6.0 6
  238.07358 6.0 6
  238.09723 6.0 6
  239.11621 8.0 8
  250.09006 8.0 8
  251.08128 15.0 15
  265.10327 9.0 9
  279.07468 6.0 6
  281.08224 6.0 6
  281.0979 6.0 6
  369.177 15.0 15
  369.18939 7.0 7
//
