ACCESSION: MSBNK-RIKEN-PR100255
RECORD_TITLE: Quercetin 3-(6-O-acetyl-beta-glucoside); LC-ESI-QTOF; MS2; CE:Ramp 5-60 V; [M+H]+
DATE: 2016.01.19 (Created 2009.09.10, modified 2011.05.06)
AUTHORS: Matsuda F, Suzuki M, Sawada Y, Plant Science Center, RIKEN.
LICENSE: CC BY-SA
COMMENT: Acquisition and generation of the data is financially supported in part by CREST/JST.
CH$NAME: Quercetin-3-O-glucose-6''-acetate
CH$NAME: Quer-3-Glc-6pp-acetate
CH$NAME: quercetin-3-O-beta-D-glucopyranosyl-6''-acetate
CH$NAME: quercetin 3-(6''-acetylglucoside)
CH$NAME: Quercetin 3-(6-O-acetyl-beta-glucoside)
CH$COMPOUND_CLASS: Flavonoid
CH$FORMULA: C23H22O13
CH$EXACT_MASS: 506.10604
CH$SMILES: CC(=O)OCC(O1)C(O)C(O)C(O)C1OC(C(=O)3)=C(Oc(c4)c(c(O)cc(O)4)3)c(c2)cc(O)c(O)c2
CH$IUPAC: InChI=1S/C23H22O13/c1-8(24)33-7-15-17(29)19(31)20(32)23(35-15)36-22-18(30)16-13(28)5-10(25)6-14(16)34-21(22)9-2-3-11(26)12(27)4-9/h2-6,15,17,19-20,23,25-29,31-32H,7H2,1H3/t15-,17-,19+,20-,23+/m1/s1
CH$LINK: CAS 54542-51-7
CH$LINK: KNAPSACK C00005955
CH$LINK: INCHIKEY IGLUNMMNDNWZOA-LNNZMUSMSA-N
AC$INSTRUMENT: UPLC Q-Tof Premier, Waters
AC$INSTRUMENT_TYPE: LC-ESI-QTOF
AC$MASS_SPECTROMETRY: MS_TYPE MS2
AC$MASS_SPECTROMETRY: ION_MODE POSITIVE
AC$MASS_SPECTROMETRY: COLLISION_ENERGY Ramp 5-60 V
AC$MASS_SPECTROMETRY: DATAFORMAT Continuum
AC$MASS_SPECTROMETRY: DATE 2008.07.25
AC$MASS_SPECTROMETRY: DESOLVATION_GAS_FLOW 600.0 L/Hr
AC$MASS_SPECTROMETRY: DESOLVATION_TEMPERATURE 420 C
AC$MASS_SPECTROMETRY: FRAGMENTATION_METHOD LOW-ENERGY CID
AC$MASS_SPECTROMETRY: IONIZATION ESI
AC$MASS_SPECTROMETRY: SCANNING 1.0 sec/scan (m/z = 50-1000)
AC$MASS_SPECTROMETRY: SOURCE_TEMPERATURE 120 C
AC$CHROMATOGRAPHY: CAPILLARY_VOLTAGE 3.0 kV
AC$CHROMATOGRAPHY: SAMPLING_CONE 23.0 V
AC$CHROMATOGRAPHY: SOLVENT A CH3CN(0.1%HCOOH)
AC$CHROMATOGRAPHY: SOLVENT B H2O(0.1%HCOOH)
MS$FOCUSED_ION: PRECURSOR_M/Z 507.11384
MS$FOCUSED_ION: PRECURSOR_TYPE [M+H]+
PK$SPLASH: splash10-0udi-0109000000-79e85233b63391e3328d
PK$NUM_PEAK: 6
PK$PEAK: m/z int. rel.int.
  81.0348 241.2 76
  109.0299 257.6 82
  127.0405 191.6 61
  187.0620 226.9 72
  303.0505 3151 999
  507.1138 196.3 62
//
