ACCESSION: MSBNK-RIKEN-PR304301
RECORD_TITLE: Soyasaponin Ba; LC-ESI-QTOF; MS2
DATE: 2019.03.28
AUTHORS: Tetsuya Mori, Center for Sustainable Resource Science, RIKEN
LICENSE: CC BY-NC-SA
PUBLICATION: Tsugawa H., Nakabayashi R., Mori T., Yamada Y., Takahashi M., Rai A., Sugiyama R., Yamamoto H., Nakaya T., Yamazaki M., Kooke R., Bac-Molenaar JA., Oztolan-Erol N., Keurentjes JJB., Arita M., Saito K. (2019) "A cheminformatics approach to characterize metabolomes in stable-isotope-labeled organisms" Nature Methods 16(4):295-298. [doi:10.1038/s41592-019-0358-2]
COMMENT: registered in RIKEN PlaSMA
CH$NAME: Soyasaponin Ba
CH$COMPOUND_CLASS: Triterpene saponins
CH$FORMULA: C48H78O19
CH$EXACT_MASS: 959.133
CH$SMILES: CC1(C)CC(O)C2(C)CCC3(C)C(=CCC4C5(C)CCC(OC6OC(C(O)C(O)C6OC6OC(CO)C(O)C(O)C6OC6OC(CO)C(O)C(O)C6O)C(O)=O)C(C)(CO)C5CCC34C)C2C1
CH$IUPAC: InChI=1S/C48H78O19/c1-43(2)16-22-21-8-9-26-45(4)12-11-28(46(5,20-51)25(45)10-13-48(26,7)47(21,6)15-14-44(22,3)27(52)17-43)64-42-38(34(58)33(57)36(65-42)39(60)61)67-41-37(32(56)30(54)24(19-50)63-41)66-40-35(59)31(55)29(53)23(18-49)62-40/h8,22-38,40-42,49-59H,9-20H2,1-7H3,(H,60,61)
CH$LINK: INCHIKEY WFRQIKSNAYYUJZ-UHFFFAOYSA-N
AC$INSTRUMENT: LC, Waters Acquity UPLC System; MS, Waters Xevo G2 Q-Tof
AC$INSTRUMENT_TYPE: LC-ESI-QTOF
AC$MASS_SPECTROMETRY: MS_TYPE MS2
AC$MASS_SPECTROMETRY: ION_MODE POSITIVE
AC$MASS_SPECTROMETRY: COLLISION_ENERGY 6V
AC$MASS_SPECTROMETRY: DESOLVATION_GAS_FLOW 800/h
AC$MASS_SPECTROMETRY: DESOLVATION_TEMPERATURE 450 C
AC$MASS_SPECTROMETRY: IONIZATION ESI
AC$CHROMATOGRAPHY: CAPILLARY_VOLTAGE +3.00 kV
AC$CHROMATOGRAPHY: COLUMN_NAME Acquity bridged ethyl hybrid C18 (1.7 um, 2.1 mm * 100 mm, Waters)
AC$CHROMATOGRAPHY: COLUMN_TEMPERATURE 40 C
AC$CHROMATOGRAPHY: FLOW_GRADIENT A/B = (99.5%/0.5% at 0 min, 99.5%/0.5% at 0.1 min, 20%/80% at 10 min, 0.5%/99.5% at 10.1 min, 0.5%/99.5% at 12.0 min, 99.5%/0.5% at 12.1 min, 99.5%/0.5% at 15.0 min)
AC$CHROMATOGRAPHY: FLOW_RATE 0.3 ml/min at 0 min, 0.3 ml/min at 10 min, 0.4 ml/min at 10.1 min, 0.4 ml/min at 14.4 min, 0.3 ml/min at 14.5 min
AC$CHROMATOGRAPHY: RETENTION_TIME 6.969333
AC$CHROMATOGRAPHY: SOLVENT A water including 0.1% formic acid
AC$CHROMATOGRAPHY: SOLVENT B acetonitrile including 0.1% formic acid
MS$FOCUSED_ION: PRECURSOR_TYPE [M+H]+
MS$FOCUSED_ION: PRECURSOR_M/Z 959.5210067
PK$SPLASH: splash10-0fkc-1971200000-4806b7a122b44b0089ea
PK$NUM_PEAK: 481
PK$PEAK: m/z int. rel.int.
  61.02735 10.0 10
  61.03315 8.0 8
  69.032 7.0 7
  69.06632 8.0 8
  70.59297 11.0 11
  73.01909 8.0 8
  81.06883 43.0 43
  83.08736 8.0 8
  85.02796 130.0 130
  85.29914 8.0 8
  91.0288 22.0 22
  91.03783 126.0 126
  93.07065 31.0 31
  95.01286 27.0 27
  95.08566 203.0 203
  96.08396 7.0 7
  97.02945 129.0 129
  97.06512 10.0 10
  97.0881 9.0 9
  97.10363 8.0 8
  98.81093 7.0 7
  99.0145 7.0 7
  99.03715 11.0 11
  99.04156 8.0 8
  99.08618 12.0 12
  103.03662 18.0 18
  105.0697 10.0 10
  107.06625 7.0 7
  107.08366 61.0 61
  107.09534 8.0 8
  108.08161 8.0 8
  108.08672 18.0 18
  109.02652 23.0 23
  109.05854 14.0 14
  109.09286 24.0 24
  109.10102 144.0 144
  109.16839 8.0 8
  110.02601 8.0 8
  110.10573 41.0 41
  111.07867 84.0 84
  111.11621 27.0 27
  113.02441 8.0 8
  115.0351 7.0 7
  115.04619 11.0 11
  119.07722 8.0 8
  119.08556 43.0 43
  119.09357 7.0 7
  120.08757 15.0 15
  120.09433 11.0 11
  121.06258 9.0 9
  121.10046 93.0 93
  121.11402 7.0 7
  122.11127 8.0 8
  122.99969 8.0 8
  123.01081 18.0 18
  123.11715 115.0 115
  123.12892 7.0 7
  124.0081 8.0 8
  125.00926 7.0 7
  125.09805 9.0 9
  127.01699 10.0 10
  127.02621 9.0 9
  127.03896 156.0 156
  128.04301 18.0 18
  128.13559 7.0 7
  131.02888 10.0 10
  131.03546 26.0 26
  133.09093 16.0 16
  133.0983 92.0 92
  133.11011 13.0 13
  135.1174 155.0 155
  136.12273 36.0 36
  137.09276 16.0 16
  137.11775 8.0 8
  137.13268 36.0 36
  137.14069 32.0 32
  137.31464 8.0 8
  138.14551 9.0 9
  139.04327 9.0 9
  139.10912 18.0 18
  139.11819 11.0 11
  140.99579 16.0 16
  141.01727 683.0 682
  141.40739 11.0 11
  142.00578 7.0 7
  142.01294 14.0 14
  144.24109 8.0 8
  145.03452 14.0 14
  145.05051 543.0 542
  145.10641 19.0 19
  146.04065 10.0 10
  146.05792 7.0 7
  146.10728 16.0 16
  147.04454 8.0 8
  147.11366 67.0 67
  147.11874 169.0 169
  147.13081 23.0 23
  148.12057 35.0 35
  148.35074 8.0 8
  149.12483 48.0 48
  149.13266 130.0 130
  149.14558 11.0 11
  150.13451 7.0 7
  151.10692 24.0 24
  151.11937 18.0 18
  151.13399 9.0 9
  151.15013 43.0 43
  151.15675 10.0 10
  152.32619 7.0 7
  153.12303 7.0 7
  154.60788 8.0 8
  157.10616 8.0 8
  159.02765 223.0 223
  159.1183 60.0 60
  159.15193 7.0 7
  160.03246 15.0 15
  160.04152 7.0 7
  160.12679 16.0 16
  161.09732 9.0 9
  161.13374 217.0 217
  162.13452 17.0 17
  162.89899 7.0 7
  163.0593 577.0 576
  163.07536 14.0 14
  163.11336 16.0 16
  163.13794 28.0 28
  163.14464 74.0 74
  163.15222 114.0 114
  163.17084 11.0 11
  164.06076 15.0 15
  164.0677 18.0 18
  164.13695 8.0 8
  164.15115 26.0 26
  165.06337 8.0 8
  165.12193 14.0 14
  165.12994 46.0 46
  165.15013 7.0 7
  165.16286 16.0 16
  166.13773 8.0 8
  166.79201 8.0 8
  167.1459 15.0 15
  167.15411 11.0 11
  169.09453 8.0 8
  171.23621 8.0 8
  172.12021 9.0 9
  173.12714 16.0 16
  173.13518 60.0 60
  174.1472 10.0 10
  175.10857 8.0 8
  175.147 198.0 198
  176.1478 23.0 23
  176.16309 19.0 19
  177.03123 7.0 7
  177.04079 45.0 45
  177.12769 36.0 36
  177.14041 38.0 38
  177.16177 279.0 279
  178.14815 8.0 8
  178.16495 27.0 27
  178.17572 12.0 12
  179.14931 10.0 10
  179.18091 27.0 27
  180.14693 8.0 8
  180.76904 7.0 7
  185.13583 8.0 8
  186.12988 8.0 8
  186.54254 9.0 9
  187.13704 39.0 39
  187.14864 99.0 99
  187.15608 47.0 47
  187.26082 9.0 9
  188.14317 8.0 8
  188.15315 7.0 7
  189.12703 17.0 17
  189.16397 374.0 374
  190.159 8.0 8
  190.1712 32.0 32
  190.66801 8.0 8
  191.06773 11.0 11
  191.13611 16.0 16
  191.1489 7.0 7
  191.17834 220.0 220
  192.18285 17.0 17
  193.16229 62.0 62
  193.19804 19.0 19
  193.2337 7.0 7
  194.16193 17.0 17
  195.14868 8.0 8
  195.17538 88.0 88
  196.16901 7.0 7
  196.18358 14.0 14
  197.13383 9.0 9
  198.13651 8.0 8
  199.06575 9.0 9
  199.14171 16.0 16
  199.14912 46.0 46
  199.26219 7.0 7
  200.11378 8.0 8
  201.15791 107.0 107
  201.16557 142.0 142
  201.36482 7.0 7
  202.1653 33.0 33
  203.14325 16.0 16
  203.15755 13.0 13
  203.17986 740.0 739
  203.85855 8.0 8
  204.18529 100.0 100
  205.1604 94.0 94
  205.19348 62.0 62
  205.20282 28.0 28
  206.1611 8.0 8
  206.20245 8.0 8
  206.58754 14.0 14
  207.17172 133.0 133
  208.1703 22.0 22
  208.18184 9.0 9
  209.18222 19.0 19
  209.51775 8.0 8
  213.09979 9.0 9
  213.14169 9.0 9
  213.16396 76.0 76
  213.17661 19.0 19
  214.15279 9.0 9
  215.1794 258.0 258
  215.80304 7.0 7
  216.18333 8.0 8
  216.19411 7.0 7
  217.16069 7.0 7
  217.19421 331.0 331
  218.19659 47.0 47
  219.1768 215.0 215
  219.2074 7.0 7
  219.22592 17.0 17
  220.17343 25.0 25
  220.18115 27.0 27
  220.20241 8.0 8
  220.211 8.0 8
  220.54851 7.0 7
  220.81291 14.0 14
  221.15031 9.0 9
  221.19231 192.0 192
  222.19174 23.0 23
  225.15491 8.0 8
  227.16911 8.0 8
  227.18364 66.0 66
  228.18362 11.0 11
  229.0685 7.0 7
  229.1748 8.0 8
  229.19629 267.0 267
  229.98582 13.0 13
  230.12868 10.0 10
  230.19481 28.0 28
  230.20413 20.0 20
  231.16396 7.0 7
  231.18248 10.0 10
  231.19798 8.0 8
  231.21571 36.0 36
  231.2417 10.0 10
  232.1795 39.0 39
  233.18292 66.0 66
  233.19141 122.0 122
  233.22095 9.0 9
  234.19435 38.0 38
  235.20285 27.0 27
  235.21556 8.0 8
  237.16884 8.0 8
  237.21693 11.0 11
  238.43175 8.0 8
  239.08958 7.0 7
  239.18224 9.0 9
  241.17941 8.0 8
  241.19568 109.0 109
  241.21376 27.0 27
  242.11154 8.0 8
  243.19536 22.0 22
  243.2124 130.0 130
  244.21597 15.0 15
  244.2269 8.0 8
  244.56636 7.0 7
  245.17778 15.0 15
  245.19167 42.0 42
  245.20316 17.0 17
  245.21626 8.0 8
  245.23222 11.0 11
  245.8672 8.0 8
  246.19862 8.0 8
  247.18756 8.0 8
  247.20644 144.0 144
  247.21387 68.0 68
  248.20877 30.0 30
  248.22058 19.0 19
  250.29233 7.0 7
  251.20413 15.0 15
  253.19221 30.0 30
  253.21375 8.0 8
  254.20317 15.0 15
  255.21413 35.0 35
  256.22049 22.0 22
  257.1889 11.0 11
  257.21933 20.0 20
  257.23001 22.0 22
  258.22125 9.0 9
  258.23453 27.0 27
  259.19852 7.0 7
  259.2103 17.0 17
  259.24799 9.0 9
  260.21716 18.0 18
  261.05673 9.0 9
  261.2114 57.0 57
  261.23859 7.0 7
  262.2175 8.0 8
  263.23672 8.0 8
  263.24939 8.0 8
  265.80969 7.0 7
  267.14252 7.0 7
  267.1795 15.0 15
  267.20413 46.0 46
  267.21552 34.0 34
  269.20929 12.0 12
  269.22064 31.0 31
  269.2305 36.0 36
  270.2088 11.0 11
  270.23206 7.0 7
  270.24106 8.0 8
  270.60538 7.0 7
  270.85428 8.0 8
  271.21152 8.0 8
  271.22772 49.0 49
  271.25375 14.0 14
  272.2002 11.0 11
  272.21661 8.0 8
  272.24387 7.0 7
  273.19357 11.0 11
  273.21051 13.0 13
  273.22284 48.0 48
  273.23819 17.0 17
  273.2644 10.0 10
  274.05658 9.0 9
  274.22717 24.0 24
  274.23679 10.0 10
  275.22989 43.0 43
  275.24442 30.0 30
  275.2547 9.0 9
  276.2529 7.0 7
  280.21564 7.0 7
  281.21582 8.0 8
  282.23651 14.0 14
  283.22418 8.0 8
  283.24478 47.0 47
  283.25888 7.0 7
  284.24313 11.0 11
  285.20776 11.0 11
  285.21933 20.0 20
  285.2529 44.0 44
  286.06259 9.0 9
  286.22403 9.0 9
  287.22006 16.0 16
  287.24124 27.0 27
  288.53104 8.0 8
  289.13379 7.0 7
  290.92108 7.0 7
  295.24872 39.0 39
  297.25806 65.0 65
  299.4501 8.0 8
  300.26019 10.0 10
  301.24387 8.0 8
  301.25558 18.0 18
  301.26669 10.0 10
  302.25113 16.0 16
  303.09457 7.0 7
  303.25989 17.0 17
  307.25562 8.0 8
  309.25699 10.0 10
  311.27536 49.0 49
  311.2937 8.0 8
  312.15356 7.0 7
  312.26376 10.0 10
  313.24713 70.0 70
  313.26135 22.0 22
  314.25027 13.0 13
  315.2655 35.0 35
  315.27567 35.0 35
  316.27789 14.0 14
  317.17673 8.0 8
  319.23215 7.0 7
  321.08841 8.0 8
  321.25388 8.0 8
  321.26917 9.0 9
  323.27692 8.0 8
  324.24805 14.0 14
  325.1218 8.0 8
  325.29031 8.0 8
  325.30231 11.0 11
  327.26733 8.0 8
  329.29166 59.0 59
  334.36304 12.0 12
  335.26877 21.0 21
  335.28528 24.0 24
  336.26843 8.0 8
  339.28467 7.0 7
  339.31512 7.0 7
  341.2684 8.0 8
  341.27893 17.0 17
  342.18576 10.0 10
  349.28677 7.0 7
  349.297 12.0 12
  350.28836 8.0 8
  351.186 8.0 8
  351.30765 36.0 36
  351.32233 11.0 11
  365.18869 17.0 17
  365.32452 60.0 60
  366.32376 9.0 9
  367.30322 40.0 40
  367.33014 14.0 14
  368.31354 11.0 11
  369.29724 8.0 8
  369.30875 19.0 19
  370.28625 7.0 7
  370.44171 8.0 8
  371.30273 14.0 14
  377.19308 9.0 9
  377.30402 11.0 11
  377.32034 10.0 10
  379.19913 7.0 7
  379.21887 8.0 8
  381.31442 9.0 9
  381.35776 9.0 9
  383.33087 127.0 127
  384.3327 21.0 21
  384.34445 7.0 7
  385.34119 8.0 8
  386.93057 8.0 8
  389.33423 8.0 8
  393.35422 13.0 13
  395.36612 8.0 8
  397.35043 16.0 16
  400.10068 11.0 11
  404.34409 7.0 7
  405.31906 21.0 21
  405.34927 203.0 203
  405.38113 8.0 8
  406.34207 19.0 19
  406.3577 98.0 98
  411.35718 42.0 42
  411.37332 17.0 17
  411.66833 7.0 7
  412.36658 7.0 7
  415.22324 8.0 8
  417.34381 18.0 18
  417.35938 7.0 7
  423.3634 1000.0 999
  423.41397 7.0 7
  424.33508 22.0 22
  424.36569 311.0 311
  424.50067 7.0 7
  425.35675 8.0 8
  425.37784 34.0 34
  425.40543 16.0 16
  437.26492 8.0 8
  437.34149 8.0 8
  441.36459 97.0 97
  441.38477 177.0 177
  441.67468 8.0 8
  442.35486 17.0 17
  442.37543 101.0 101
  443.37094 7.0 7
  445.35065 8.0 8
  460.28894 9.0 9
  476.38733 14.0 14
  493.36957 9.0 9
  520.37347 8.0 8
  581.34619 15.0 15
  581.3681 8.0 8
  581.3952 23.0 23
  582.36414 8.0 8
  599.39868 16.0 16
  600.39136 7.0 7
  600.40637 8.0 8
  634.69769 7.0 7
  704.21924 10.0 10
//
