ACCESSION: MSBNK-RIKEN-PR310622
RECORD_TITLE: Speciophylline; LC-ESI-QTOF; MS2
DATE: 2019.03.28
AUTHORS: Tetsuya Mori, Center for Sustainable Resource Science, RIKEN
LICENSE: CC BY-NC-SA
PUBLICATION: Tsugawa H., Nakabayashi R., Mori T., Yamada Y., Takahashi M., Rai A., Sugiyama R., Yamamoto H., Nakaya T., Yamazaki M., Kooke R., Bac-Molenaar JA., Oztolan-Erol N., Keurentjes JJB., Arita M., Saito K. (2019) "A cheminformatics approach to characterize metabolomes in stable-isotope-labeled organisms" Nature Methods 16(4):295-298. [doi:10.1038/s41592-019-0358-2]
COMMENT: Annotation level-1
CH$NAME: Speciophylline
CH$COMPOUND_CLASS: Alkaloids
CH$FORMULA: C21H24N2O4
CH$EXACT_MASS: 368.433
CH$SMILES: COC(=O)C1=COC(C)C2CN3CCC4(C3CC12)C(=O)NC1=C4C=CC=C1
CH$IUPAC: InChI=1S/C21H24N2O4/c1-12-14-10-23-8-7-21(16-5-3-4-6-17(16)22-20(21)25)18(23)9-13(14)15(11-27-12)19(24)26-2/h3-6,11-14,18H,7-10H2,1-2H3,(H,22,25)
CH$LINK: INCHIKEY JMIAZDVHNCCPDM-UHFFFAOYSA-N
AC$INSTRUMENT: LC, Waters Acquity UPLC System; MS, Waters Xevo G2 Q-Tof
AC$INSTRUMENT_TYPE: LC-ESI-QTOF
AC$MASS_SPECTROMETRY: MS_TYPE MS2
AC$MASS_SPECTROMETRY: ION_MODE POSITIVE
AC$MASS_SPECTROMETRY: COLLISION_ENERGY 6V
AC$MASS_SPECTROMETRY: DESOLVATION_GAS_FLOW 800/h
AC$MASS_SPECTROMETRY: DESOLVATION_TEMPERATURE 450 C
AC$MASS_SPECTROMETRY: IONIZATION ESI
AC$CHROMATOGRAPHY: CAPILLARY_VOLTAGE +3.00 kV
AC$CHROMATOGRAPHY: COLUMN_NAME Acquity bridged ethyl hybrid C18 (1.7 um, 2.1 mm * 100 mm, Waters)
AC$CHROMATOGRAPHY: COLUMN_TEMPERATURE 40 C
AC$CHROMATOGRAPHY: FLOW_GRADIENT A/B = (99.5%/0.5% at 0 min, 99.5%/0.5% at 0.1 min, 20%/80% at 10 min, 0.5%/99.5% at 10.1 min, 0.5%/99.5% at 12.0 min, 99.5%/0.5% at 12.1 min, 99.5%/0.5% at 15.0 min)
AC$CHROMATOGRAPHY: FLOW_RATE 0.3 ml/min at 0 min, 0.3 ml/min at 10 min, 0.4 ml/min at 10.1 min, 0.4 ml/min at 14.4 min, 0.3 ml/min at 14.5 min
AC$CHROMATOGRAPHY: RETENTION_TIME 4.93
AC$CHROMATOGRAPHY: SOLVENT A water including 0.1% formic acid
AC$CHROMATOGRAPHY: SOLVENT B acetonitrile including 0.1% formic acid
MS$FOCUSED_ION: PRECURSOR_TYPE [M+H]+
MS$FOCUSED_ION: PRECURSOR_M/Z 369.18088
PK$SPLASH: splash10-014i-0339000000-ef33c2f0a8d90c267cfa
PK$NUM_PEAK: 739
PK$PEAK: m/z int. rel.int.
  56.05173 30.0 0
  70.54898 17.0 0
  72.054 27.0 0
  77.03571 27.0 0
  78.04066 60.0 1
  79.05388 60.0 1
  80.04993 285.0 3
  80.05376 105.0 1
  81.05582 20.0 0
  81.06062 38.0 0
  81.07008 123.0 1
  82.06421 20.0 0
  84.04086 20.0 0
  84.6542 18.0 0
  85.06834 37.0 0
  87.04732 39.0 0
  88.49907 33.0 0
  91.04285 44.0 1
  91.06141 47.0 1
  93.05799 20.0 0
  93.06759 26.0 0
  93.07365 45.0 1
  93.4008 17.0 0
  94.07185 21.0 0
  94.07726 25.0 0
  94.57914 17.0 0
  95.05542 41.0 0
  95.06911 30.0 0
  95.0834 17.0 0
  97.02664 19.0 0
  98.09373 21.0 0
  98.27766 23.0 0
  103.42522 22.0 0
  105.06928 24.0 0
  106.06515 118.0 1
  107.04831 21.0 0
  107.07526 27.0 0
  107.85406 20.0 0
  108.04989 26.0 0
  108.06256 24.0 0
  108.06989 58.0 1
  108.08109 1763.0 20
  109.05919 34.0 0
  109.08192 248.0 3
  109.09039 71.0 1
  109.63943 20.0 0
  110.07887 20.0 0
  110.09572 1246.0 14
  110.46039 20.0 0
  110.61507 58.0 1
  110.62592 36.0 0
  111.04387 41.0 0
  111.08698 22.0 0
  111.10287 99.0 1
  112.05096 24.0 0
  115.05078 69.0 1
  115.05826 82.0 1
  115.2421 30.0 0
  115.31905 17.0 0
  115.87579 20.0 0
  115.90773 20.0 0
  116.05412 32.0 0
  116.06038 19.0 0
  117.058 79.0 1
  117.06893 215.0 2
  118.05943 81.0 1
  118.06677 185.0 2
  118.18224 30.0 0
  119.06495 24.0 0
  119.74232 41.0 0
  120.04539 168.0 2
  120.07591 50.0 1
  120.08096 93.0 1
  121.02892 34.0 0
  121.06245 24.0 0
  121.07597 19.0 0
  121.0852 148.0 2
  122.0762 45.0 1
  122.0988 282.0 3
  122.31976 17.0 0
  123.0624 26.0 0
  123.09848 20.0 0
  123.10855 57.0 1
  124.01013 25.0 0
  124.03838 226.0 3
  124.0462 178.0 2
  124.13904 20.0 0
  125.05743 22.0 0
  127.07914 17.0 0
  128.20047 17.0 0
  129.06598 20.0 0
  130.06636 2637.0 30
  131.06367 103.0 1
  131.07411 99.0 1
  132.02759 58.0 1
  132.04381 310.0 4
  132.04984 317.0 4
  132.06801 56.0 1
  132.07649 366.0 4
  132.08299 843.0 10
  132.09827 27.0 0
  133.0463 78.0 1
  133.05322 20.0 0
  133.08376 96.0 1
  133.14116 20.0 0
  134.04861 37.0 0
  134.06157 32.0 0
  134.07614 33.0 0
  134.09525 231.0 3
  134.52104 18.0 0
  134.93446 43.0 0
  135.03575 37.0 0
  135.04744 23.0 0
  135.07912 22.0 0
  135.11385 18.0 0
  136.10197 61.0 1
  136.10992 197.0 2
  136.12077 72.0 1
  137.05618 37.0 0
  137.06233 35.0 0
  137.09749 38.0 0
  137.11633 28.0 0
  138.0558 17.0 0
  138.07248 25.0 0
  139.03612 33.0 0
  139.05038 25.0 0
  139.06624 20.0 0
  140.03793 44.0 1
  140.05347 28.0 0
  140.05923 18.0 0
  140.07803 40.0 0
  140.9155 27.0 0
  141.05348 97.0 1
  141.07283 20.0 0
  142.04155 23.0 0
  142.06575 1667.0 19
  142.55435 20.0 0
  142.6152 17.0 0
  142.6532 28.0 0
  143.06892 253.0 3
  143.07513 80.0 1
  143.08482 40.0 0
  143.66922 24.0 0
  144.04906 36.0 0
  144.07552 37.0 0
  144.08571 126.0 1
  144.09491 27.0 0
  144.17255 20.0 0
  145.04848 67.0 1
  145.05447 74.0 1
  145.06548 25.0 0
  145.07991 27.0 0
  145.96245 36.0 0
  146.06296 263.0 3
  146.09033 24.0 0
  146.10048 53.0 1
  146.18057 19.0 0
  147.06943 47.0 1
  147.61421 27.0 0
  149.05206 32.0 0
  149.16534 20.0 0
  149.74246 19.0 0
  150.05304 29.0 0
  150.08078 35.0 0
  150.09312 264.0 3
  152.08696 21.0 0
  152.10468 21.0 0
  152.1131 24.0 0
  152.63565 22.0 0
  152.8279 21.0 0
  153.05328 34.0 0
  153.36917 29.0 0
  154.06073 76.0 1
  154.07033 26.0 0
  154.09105 91.0 1
  154.17636 38.0 0
  155.05859 125.0 1
  155.09776 21.0 0
  156.10973 49.0 1
  156.43451 29.0 0
  156.93019 38.0 0
  157.07724 52.0 1
  157.61037 17.0 0
  158.0347 44.0 1
  158.0605 7212.0 82
  158.08855 41.0 0
  158.21199 17.0 0
  158.29933 20.0 0
  158.69209 25.0 0
  158.77623 20.0 0
  158.84337 20.0 0
  159.02193 40.0 0
  159.06427 1022.0 12
  159.0768 115.0 1
  159.09378 153.0 2
  159.22781 17.0 0
  159.27921 19.0 0
  159.32082 17.0 0
  159.61797 19.0 0
  159.79837 23.0 0
  159.95537 20.0 0
  160.01117 23.0 0
  160.04065 19.0 0
  160.04669 35.0 0
  160.0755 10359.0 118
  160.10452 58.0 1
  160.14313 17.0 0
  160.20776 23.0 0
  160.48241 17.0 0
  160.68587 25.0 0
  161.06265 20.0 0
  161.07787 1076.0 12
  161.28954 17.0 0
  161.54706 31.0 0
  162.06836 45.0 1
  162.07802 53.0 1
  162.09212 98.0 1
  162.29895 18.0 0
  164.06233 57.0 1
  164.07187 43.0 0
  164.07791 46.0 1
  164.08504 25.0 0
  164.11119 54.0 1
  165.8754 18.0 0
  166.08681 68.0 1
  166.09361 28.0 0
  166.15031 20.0 0
  167.05986 43.0 0
  167.07866 54.0 1
  167.09462 34.0 0
  168.08087 71.0 1
  168.10207 31.0 0
  169.07448 79.0 1
  169.08549 281.0 3
  169.0925 77.0 1
  170.05608 33.0 0
  170.06665 26.0 0
  170.08351 33.0 0
  170.47318 26.0 0
  171.10188 21.0 0
  172.07063 111.0 1
  172.07918 199.0 2
  172.09332 22.0 0
  172.71072 21.0 0
  173.0713 55.0 1
  173.08125 124.0 1
  173.09521 83.0 1
  173.1068 618.0 7
  173.15147 20.0 0
  174.06766 35.0 0
  174.10835 105.0 1
  174.11832 150.0 2
  174.14253 17.0 0
  174.19907 17.0 0
  174.60837 20.0 0
  176.07031 23.0 0
  177.11049 24.0 0
  178.0639 42.0 0
  178.08003 246.0 3
  178.09007 371.0 4
  178.18945 23.0 0
  179.07336 82.0 1
  179.08002 81.0 1
  179.09683 127.0 1
  179.37453 18.0 0
  179.90852 17.0 0
  180.06573 18.0 0
  180.09755 71.0 1
  180.77733 22.0 0
  181.02533 21.0 0
  181.06599 22.0 0
  181.07811 131.0 1
  181.1154 26.0 0
  182.06236 63.0 1
  182.08217 45.0 1
  183.07698 32.0 0
  183.09358 80.0 1
  183.12746 197.0 2
  184.07587 37.0 0
  184.09085 20.0 0
  185.06078 74.0 1
  185.07486 22.0 0
  186.03291 18.0 0
  186.08041 586.0 7
  186.09677 39.0 0
  186.11807 21.0 0
  187.05847 42.0 0
  187.08752 1668.0 19
  187.10686 132.0 2
  188.07301 27.0 0
  188.0905 202.0 2
  188.10454 21.0 0
  188.92783 68.0 1
  189.18953 19.0 0
  192.09094 24.0 0
  192.23337 30.0 0
  193.07655 20.0 0
  194.11435 46.0 1
  195.08485 36.0 0
  195.11647 51.0 1
  195.12833 16.0 0
  195.34636 17.0 0
  195.9044 30.0 0
  196.07484 20.0 0
  196.08484 95.0 1
  196.09615 21.0 0
  196.20067 22.0 0
  197.05327 41.0 0
  197.06567 56.0 1
  197.07304 31.0 0
  197.11574 44.0 1
  198.09494 27.0 0
  198.15318 17.0 0
  198.37944 20.0 0
  198.52724 18.0 0
  199.07835 225.0 3
  199.08905 525.0 6
  199.09705 275.0 3
  199.26393 17.0 0
  200.08678 91.0 1
  200.09671 42.0 0
  200.19203 20.0 0
  200.88861 22.0 0
  200.95805 18.0 0
  201.04156 17.0 0
  201.0601 36.0 0
  201.07286 58.0 1
  201.10243 16984.0 194
  201.13704 52.0 1
  201.1467 122.0 1
  201.51151 20.0 0
  201.65398 17.0 0
  201.86024 32.0 0
  202.07864 25.0 0
  202.10519 2528.0 29
  202.15681 19.0 0
  202.26445 22.0 0
  202.52101 22.0 0
  202.74756 71.0 1
  203.09247 26.0 0
  203.10413 158.0 2
  203.11263 131.0 1
  203.12422 96.0 1
  203.17442 18.0 0
  203.34213 18.0 0
  203.45651 17.0 0
  203.54134 17.0 0
  204.08548 18.0 0
  204.93327 17.0 0
  205.41705 17.0 0
  205.78806 28.0 0
  206.08325 19.0 0
  206.90648 17.0 0
  206.93108 31.0 0
  206.96593 26.0 0
  207.0892 21.0 0
  207.10109 27.0 0
  207.10944 40.0 0
  207.22345 25.0 0
  207.28946 19.0 0
  207.97841 18.0 0
  208.08556 19.0 0
  208.10274 54.0 1
  209.05772 44.0 1
  209.0824 81.0 1
  209.09926 33.0 0
  209.10812 21.0 0
  209.12334 30.0 0
  209.14458 29.0 0
  209.21445 25.0 0
  210.05197 30.0 0
  210.1144 434.0 5
  210.13036 17.0 0
  210.65205 68.0 1
  211.07736 45.0 1
  211.09081 71.0 1
  211.11311 19.0 0
  211.1192 54.0 1
  211.1288 64.0 1
  211.13995 20.0 0
  211.16373 38.0 0
  211.21129 44.0 1
  212.05656 30.0 0
  212.09332 62.0 1
  212.10805 61.0 1
  212.12157 180.0 2
  212.13242 163.0 2
  213.08076 77.0 1
  213.10451 1256.0 14
  213.13179 121.0 1
  213.14557 41.0 0
  213.69875 53.0 1
  214.08751 35.0 0
  214.10854 336.0 4
  214.1266 22.0 0
  215.071 34.0 0
  215.10811 81.0 1
  215.12123 99.0 1
  216.08424 18.0 0
  216.11037 32.0 0
  216.48802 34.0 0
  216.79971 17.0 0
  217.08621 28.0 0
  218.04819 18.0 0
  219.08441 18.0 0
  219.8495 20.0 0
  220.06517 18.0 0
  220.09009 20.0 0
  220.11359 75.0 1
  220.62469 17.0 0
  221.09903 20.0 0
  221.63596 18.0 0
  221.73534 34.0 0
  222.08736 44.0 1
  222.09848 27.0 0
  222.12535 30.0 0
  222.93257 26.0 0
  223.10583 40.0 0
  223.22528 24.0 0
  223.86911 36.0 0
  224.13058 25.0 0
  224.49875 31.0 0
  225.10443 234.0 3
  225.23201 39.0 0
  225.26196 18.0 0
  225.59305 20.0 0
  226.08571 27.0 0
  226.11122 117.0 1
  226.86497 23.0 0
  227.14932 36.0 0
  227.31917 17.0 0
  228.18663 44.0 1
  229.13348 20.0 0
  230.14908 20.0 0
  231.11411 27.0 0
  233.64684 17.0 0
  233.68433 19.0 0
  235.08186 33.0 0
  235.09323 27.0 0
  236.12581 20.0 0
  237.07285 25.0 0
  237.08855 113.0 1
  237.10204 806.0 9
  237.12465 85.0 1
  238.09827 71.0 1
  238.10966 119.0 1
  238.14648 29.0 0
  238.56735 22.0 0
  239.06985 32.0 0
  239.08273 73.0 1
  239.12137 1774.0 20
  239.90425 25.0 0
  239.9765 22.0 0
  240.05525 17.0 0
  240.11662 377.0 4
  240.12814 93.0 1
  241.07256 24.0 0
  241.10059 23.0 0
  241.11006 78.0 1
  241.13406 1040.0 12
  241.15604 62.0 1
  241.17857 22.0 0
  242.1124 32.0 0
  242.13765 78.0 1
  242.77338 27.0 0
  243.121 22.0 0
  244.08864 21.0 0
  244.14977 20.0 0
  245.08041 48.0 1
  246.23877 17.0 0
  247.10304 17.0 0
  247.13667 25.0 0
  247.88075 28.0 0
  248.07764 28.0 0
  248.12946 27.0 0
  248.45366 30.0 0
  248.83679 20.0 0
  249.08955 26.0 0
  249.13036 17.0 0
  250.12723 45.0 1
  250.73593 18.0 0
  250.80305 23.0 0
  251.08728 26.0 0
  251.11647 73.0 1
  251.1291 18.0 0
  252.08327 24.0 0
  252.45863 27.0 0
  253.10263 163.0 2
  253.13298 67.0 1
  253.15108 37.0 0
  253.65253 45.0 1
  253.74443 21.0 0
  253.77715 17.0 0
  254.06746 24.0 0
  254.08839 28.0 0
  254.10829 33.0 0
  254.14204 21.0 0
  256.00836 29.0 0
  256.15839 60.0 1
  256.46698 17.0 0
  257.927 19.0 0
  258.7644 24.0 0
  260.06488 39.0 0
  260.35208 29.0 0
  260.68851 17.0 0
  261.68799 24.0 0
  264.09097 36.0 0
  264.13919 24.0 0
  264.15213 32.0 0
  264.27563 21.0 0
  264.62476 19.0 0
  264.90283 24.0 0
  265.07126 45.0 1
  265.0939 667.0 8
  265.11276 250.0 3
  265.13498 1137.0 13
  266.08206 49.0 1
  266.1011 130.0 1
  266.10931 153.0 2
  266.13501 108.0 1
  266.14911 21.0 0
  266.16513 23.0 0
  266.34094 18.0 0
  266.60242 19.0 0
  266.70532 23.0 0
  267.04214 26.0 0
  267.05685 73.0 1
  267.07712 19.0 0
  267.08582 30.0 0
  267.10794 105.0 1
  267.14975 6035.0 69
  267.27505 30.0 0
  268.11127 33.0 0
  268.15341 1440.0 16
  268.6434 18.0 0
  268.65424 34.0 0
  269.08517 79.0 1
  269.09616 120.0 1
  269.10916 73.0 1
  269.14923 35.0 0
  269.16882 71.0 1
  270.08215 31.0 0
  270.09869 67.0 1
  270.13062 28.0 0
  270.26431 18.0 0
  270.80881 17.0 0
  273.82312 23.0 0
  274.6102 26.0 0
  276.13214 21.0 0
  276.20599 17.0 0
  277.10147 21.0 0
  277.11859 27.0 0
  278.10141 20.0 0
  278.13672 18.0 0
  278.15256 25.0 0
  278.60754 25.0 0
  279.0498 17.0 0
  279.07452 47.0 1
  279.11566 260.0 3
  279.15607 63.0 1
  280.07953 26.0 0
  280.1153 37.0 0
  281.05365 18.0 0
  281.09024 358.0 4
  281.10812 100.0 1
  281.11938 46.0 1
  281.16965 120.0 1
  281.62625 37.0 0
  282.09744 199.0 2
  282.11685 36.0 0
  282.16867 22.0 0
  282.72241 40.0 0
  283.06647 21.0 0
  283.08456 68.0 1
  283.10669 604.0 7
  283.19305 27.0 0
  284.08676 21.0 0
  284.10117 56.0 1
  284.11429 78.0 1
  285.12228 74.0 1
  285.18771 17.0 0
  287.41431 25.0 0
  288.10815 17.0 0
  291.12347 57.0 1
  291.15057 359.0 4
  292.13901 76.0 1
  293.03348 27.0 0
  293.12994 1126.0 13
  293.15332 62.0 1
  293.17673 26.0 0
  294.11832 31.0 0
  294.12732 115.0 1
  294.14355 63.0 1
  295.11334 86.0 1
  296.00824 25.0 0
  296.10284 22.0 0
  296.11691 43.0 0
  296.27463 23.0 0
  296.81879 22.0 0
  296.85333 17.0 0
  297.12589 126.0 1
  297.14398 25.0 0
  298.24036 17.0 0
  298.58325 30.0 0
  299.49719 48.0 1
  307.10995 30.0 0
  307.12228 68.0 1
  307.14841 287.0 3
  308.13058 19.0 0
  308.14618 48.0 1
  308.16022 35.0 0
  309.1593 825.0 9
  309.22379 38.0 0
  310.15292 137.0 2
  310.16876 86.0 1
  310.19153 21.0 0
  310.68607 22.0 0
  310.70435 18.0 0
  310.72946 52.0 1
  310.90726 21.0 0
  311.15353 44.0 1
  312.26068 19.0 0
  313.09314 20.0 0
  313.185 20.0 0
  314.12604 17.0 0
  315.64215 40.0 0
  315.66544 35.0 0
  317.20526 17.0 0
  319.14001 151.0 2
  319.16238 35.0 0
  319.96277 27.0 0
  320.14471 33.0 0
  320.89655 21.0 0
  323.12323 95.0 1
  323.14096 154.0 2
  323.15329 91.0 1
  324.13672 147.0 2
  324.15768 25.0 0
  324.75284 25.0 0
  325.0954 18.0 0
  325.1073 17.0 0
  325.15475 1741.0 20
  326.15552 312.0 4
  326.17667 46.0 1
  326.20316 21.0 0
  326.77322 20.0 0
  327.16559 36.0 0
  328.21762 19.0 0
  330.9964 21.0 0
  333.83185 21.0 0
  334.26843 27.0 0
  334.41501 22.0 0
  335.58325 20.0 0
  336.30399 20.0 0
  336.54413 17.0 0
  336.88205 21.0 0
  337.0657 42.0 0
  337.09506 82.0 1
  337.121 114.0 1
  337.15506 8940.0 102
  337.25204 20.0 0
  337.44913 18.0 0
  338.01077 18.0 0
  338.08533 28.0 0
  338.15991 2160.0 25
  338.22299 21.0 0
  339.16229 247.0 3
  339.1745 163.0 2
  339.18909 90.0 1
  339.58798 24.0 0
  339.66327 23.0 0
  340.15903 57.0 1
  340.17645 45.0 1
  340.85699 21.0 0
  340.94153 18.0 0
  341.16501 46.0 1
  341.18713 472.0 5
  342.18643 67.0 1
  343.16077 24.0 0
  343.43909 20.0 0
  343.66501 19.0 0
  344.13998 18.0 0
  344.7926 20.0 0
  345.82767 21.0 0
  345.91388 38.0 0
  346.00159 17.0 0
  348.09299 33.0 0
  348.3808 17.0 0
  350.22916 21.0 0
  351.17297 70.0 1
  354.88718 30.0 0
  355.85696 39.0 0
  356.40503 22.0 0
  357.65369 24.0 0
  360.10257 21.0 0
  360.47604 20.0 0
  361.83563 20.0 0
  362.01331 28.0 0
  362.15039 29.0 0
  362.27448 18.0 0
  362.28802 26.0 0
  363.15405 29.0 0
  363.66125 23.0 0
  364.37558 17.0 0
  365.37457 20.0 0
  365.47787 17.0 0
  365.66986 17.0 0
  366.05798 28.0 0
  366.17224 25.0 0
  366.52335 19.0 0
  366.78967 35.0 0
  367.17789 32.0 0
  367.18964 51.0 1
  367.35339 18.0 0
  367.70755 21.0 0
  367.9295 26.0 0
  367.99759 20.0 0
  368.17001 76.0 1
  368.18991 62.0 1
  368.51328 47.0 1
  368.55875 34.0 0
  368.5827 17.0 0
  368.68112 21.0 0
  368.76886 18.0 0
  368.86172 19.0 0
  368.87598 56.0 1
  368.897 18.0 0
  368.9296 49.0 1
  368.98315 65.0 1
  368.99966 20.0 0
  369.01819 18.0 0
  369.07465 48.0 1
  369.117 265.0 3
  369.13657 168.0 2
  369.18216 87657.0 999
  369.23709 2611.0 30
  369.2851 350.0 4
  369.31775 19.0 0
  369.35547 26.0 0
//
