ACCESSION: MSBNK-RIKEN-PR301229
RECORD_TITLE: (-)-B-Hydrastine; LC-ESI-QTOF; MS2
DATE: 2019.03.28
AUTHORS: Tetsuya Mori, Center for Sustainable Resource Science, RIKEN
LICENSE: CC BY-NC-SA
PUBLICATION: Tsugawa H., Nakabayashi R., Mori T., Yamada Y., Takahashi M., Rai A., Sugiyama R., Yamamoto H., Nakaya T., Yamazaki M., Kooke R., Bac-Molenaar JA., Oztolan-Erol N., Keurentjes JJB., Arita M., Saito K. (2019) "A cheminformatics approach to characterize metabolomes in stable-isotope-labeled organisms" Nature Methods 16(4):295-298. [doi:10.1038/s41592-019-0358-2]
COMMENT: registered in RIKEN PlaSMA
CH$NAME: (-)-B-Hydrastine
CH$COMPOUND_CLASS: Phthalide isoquinolines
CH$FORMULA: C21H21NO6
CH$EXACT_MASS: 383.4
CH$SMILES: COC1=C(OC)C2=C(C=C1)[C@H](OC2=O)[C@@H]1N(C)CCC2=CC3=C(OCO3)C=C12
CH$IUPAC: InChI=1S/C21H21NO6/c1-22-7-6-11-8-15-16(27-10-26-15)9-13(11)18(22)19-12-4-5-14(24-2)20(25-3)17(12)21(23)28-19/h4-5,8-9,18-19H,6-7,10H2,1-3H3/t18-,19+/m1/s1
CH$LINK: INCHIKEY JZUTXVTYJDCMDU-MOPGFXCFSA-N
AC$INSTRUMENT: LC, Waters Acquity UPLC System; MS, Waters Xevo G2 Q-Tof
AC$INSTRUMENT_TYPE: LC-ESI-QTOF
AC$MASS_SPECTROMETRY: MS_TYPE MS2
AC$MASS_SPECTROMETRY: ION_MODE POSITIVE
AC$MASS_SPECTROMETRY: COLLISION_ENERGY 6V
AC$MASS_SPECTROMETRY: DESOLVATION_GAS_FLOW 800/h
AC$MASS_SPECTROMETRY: DESOLVATION_TEMPERATURE 450 C
AC$MASS_SPECTROMETRY: IONIZATION ESI
AC$CHROMATOGRAPHY: CAPILLARY_VOLTAGE +3.00 kV
AC$CHROMATOGRAPHY: COLUMN_NAME Acquity bridged ethyl hybrid C18 (1.7 um, 2.1 mm * 100 mm, Waters)
AC$CHROMATOGRAPHY: COLUMN_TEMPERATURE 40 C
AC$CHROMATOGRAPHY: FLOW_GRADIENT A/B = (99.5%/0.5% at 0 min, 99.5%/0.5% at 0.1 min, 20%/80% at 10 min, 0.5%/99.5% at 10.1 min, 0.5%/99.5% at 12.0 min, 99.5%/0.5% at 12.1 min, 99.5%/0.5% at 15.0 min)
AC$CHROMATOGRAPHY: FLOW_RATE 0.3 ml/min at 0 min, 0.3 ml/min at 10 min, 0.4 ml/min at 10.1 min, 0.4 ml/min at 14.4 min, 0.3 ml/min at 14.5 min
AC$CHROMATOGRAPHY: RETENTION_TIME 4.211233
AC$CHROMATOGRAPHY: SOLVENT A water including 0.1% formic acid
AC$CHROMATOGRAPHY: SOLVENT B acetonitrile including 0.1% formic acid
MS$FOCUSED_ION: PRECURSOR_TYPE [M+H]+
MS$FOCUSED_ION: PRECURSOR_M/Z 384.1441639
PK$SPLASH: splash10-0fkc-0590000000-39535917c67056a5ddc4
PK$NUM_PEAK: 251
PK$PEAK: m/z int. rel.int.
  76.0264 30.0 30
  89.04275 28.0 28
  91.06012 64.0 64
  92.05785 36.0 36
  102.04793 25.0 25
  102.57376 38.0 38
  103.05148 31.0 31
  104.06506 36.0 36
  119.04759 43.0 43
  121.01215 52.0 52
  121.0661 36.0 36
  122.03619 27.0 27
  130.04405 56.0 56
  130.06273 33.0 33
  130.96632 30.0 30
  131.0329 56.0 56
  131.05118 41.0 41
  131.06821 40.0 40
  131.07527 33.0 33
  132.05746 36.0 36
  132.09178 37.0 37
  133.02861 27.0 27
  133.06712 33.0 33
  135.04582 99.0 99
  137.02696 30.0 30
  145.02704 30.0 30
  146.05701 46.0 46
  146.99031 36.0 36
  147.05005 28.0 28
  149.05449 37.0 37
  149.06516 46.0 46
  151.04947 61.0 61
  152.06122 101.0 101
  153.06932 36.0 36
  159.04225 25.0 25
  159.05081 101.0 101
  160.05731 36.0 36
  160.0732 64.0 64
  161.0549 77.0 77
  162.09346 40.0 40
  163.05455 71.0 71
  163.83838 46.0 46
  164.0558 28.0 28
  164.06866 38.0 38
  165.05916 96.0 96
  165.06813 321.0 321
  165.5766 37.0 37
  166.07671 118.0 118
  167.08649 83.0 83
  167.09605 67.0 67
  168.05441 30.0 30
  171.07993 25.0 25
  172.05211 49.0 49
  174.05911 27.0 27
  175.06366 127.0 127
  176.05325 44.0 44
  176.06335 317.0 317
  176.07288 216.0 216
  177.05139 25.0 25
  177.05696 38.0 38
  177.07248 413.0 413
  178.03871 30.0 30
  178.08316 308.0 308
  179.05319 37.0 37
  179.0795 179.0 179
  179.08932 55.0 55
  180.04028 36.0 36
  180.08122 31.0 31
  180.09686 27.0 27
  182.06857 80.0 80
  187.04504 25.0 25
  188.04547 25.0 25
  188.06886 136.0 136
  189.07443 151.0 151
  189.08423 71.0 71
  190.07071 178.0 178
  190.08804 765.0 764
  191.0343 25.0 25
  191.04462 72.0 72
  191.05692 46.0 46
  191.09064 114.0 114
  192.05582 104.0 104
  192.0739 30.0 30
  192.09062 25.0 25
  193.039 25.0 25
  193.04822 77.0 77
  193.06375 53.0 53
  193.07729 118.0 118
  194.07338 738.0 737
  194.09225 44.0 44
  195.03653 31.0 31
  195.07335 112.0 112
  195.08484 78.0 78
  197.09375 27.0 27
  199.06152 36.0 36
  202.07306 27.0 27
  203.03615 25.0 25
  203.06062 37.0 37
  203.83025 37.0 37
  204.03157 31.0 31
  204.04942 176.0 176
  204.05904 425.0 425
  204.07364 46.0 46
  205.02696 30.0 30
  205.04576 30.0 30
  205.06233 448.0 448
  205.07964 31.0 31
  206.05643 80.0 80
  206.06758 84.0 84
  206.08018 222.0 222
  207.04324 280.0 280
  207.05646 67.0 67
  207.08112 95.0 95
  207.89349 25.0 25
  208.05579 61.0 61
  208.08636 98.0 98
  208.09697 31.0 31
  209.05774 86.0 86
  209.08418 33.0 33
  209.10172 40.0 40
  210.06734 34.0 34
  210.09708 30.0 30
  217.04852 30.0 30
  217.06041 72.0 72
  217.07829 50.0 50
  218.06682 28.0 28
  218.07732 89.0 89
  219.04066 25.0 25
  219.04842 30.0 30
  220.05499 254.0 254
  221.06175 1000.0 999
  222.06758 701.0 700
  222.58 30.0 30
  223.04729 25.0 25
  223.05981 28.0 28
  223.07416 214.0 214
  223.08163 71.0 71
  223.21396 30.0 30
  224.06844 31.0 31
  225.04218 27.0 27
  225.65581 25.0 25
  230.0571 33.0 33
  232.04051 120.0 120
  232.05481 346.0 346
  232.06502 111.0 111
  233.06702 229.0 229
  233.08353 37.0 37
  234.06621 354.0 354
  234.08133 27.0 27
  235.03874 135.0 135
  235.05373 27.0 27
  235.07513 259.0 259
  235.98875 31.0 31
  236.04614 27.0 27
  236.06433 50.0 50
  236.08913 31.0 31
  236.88148 27.0 27
  237.05791 154.0 154
  238.04468 67.0 67
  238.05586 34.0 34
  238.07854 59.0 59
  239.05577 75.0 75
  239.07628 55.0 55
  239.09915 27.0 27
  244.04997 33.0 33
  245.05223 56.0 56
  245.07072 34.0 34
  246.05266 24.0 24
  246.0619 43.0 43
  247.03178 46.0 46
  247.07399 30.0 30
  247.0932 36.0 36
  248.07857 25.0 25
  248.09131 33.0 33
  248.98489 25.0 25
  249.01886 30.0 30
  249.04097 68.0 68
  249.05298 402.0 402
  249.06787 124.0 124
  249.91232 30.0 30
  250.04651 124.0 124
  250.06273 522.0 521
  251.04182 61.0 61
  251.07184 337.0 337
  251.08032 160.0 160
  251.1757 28.0 28
  251.75352 30.0 30
  252.07448 80.0 80
  252.08824 93.0 93
  253.08286 30.0 30
  253.50735 37.0 37
  254.05373 25.0 25
  255.04395 55.0 55
  258.05508 38.0 38
  258.07779 34.0 34
  260.05258 151.0 151
  260.99957 27.0 27
  261.04852 132.0 132
  262.05661 104.0 104
  262.06766 83.0 83
  262.09732 33.0 33
  262.12698 25.0 25
  263.04019 37.0 37
  263.06711 64.0 64
  263.077 59.0 59
  264.06512 37.0 37
  264.07462 27.0 27
  264.88406 25.0 25
  265.03625 62.0 62
  265.05301 129.0 129
  265.07272 80.0 80
  265.0853 86.0 86
  265.09903 101.0 101
  266.05585 53.0 53
  267.06067 65.0 65
  267.11093 27.0 27
  268.0687 49.0 49
  274.0694 59.0 59
  274.07718 28.0 28
  275.07205 83.0 83
  276.06607 31.0 31
  277.0318 31.0 31
  277.03989 108.0 108
  277.05307 209.0 209
  278.05515 243.0 243
  278.07242 27.0 27
  279.04517 72.0 72
  279.06641 161.0 161
  279.08405 64.0 64
  280.06754 175.0 175
  281.05774 33.0 33
  290.06219 27.0 27
  291.0611 30.0 30
  292.07413 151.0 151
  293.0502 27.0 27
  293.07809 89.0 89
  293.12387 25.0 25
  295.07404 31.0 31
  295.09143 37.0 37
  296.47226 28.0 28
  301.05591 43.0 43
  302.0769 77.0 77
  304.07773 33.0 33
  304.09744 30.0 30
  307.04565 27.0 27
  307.09671 33.0 33
  308.05621 56.0 56
  308.08411 49.0 49
  323.49289 41.0 41
  323.74783 27.0 27
  332.10596 25.0 25
//
