ACCESSION: MSBNK-RIKEN-PR306612
RECORD_TITLE: Quercetin-4'-O-glucoside; LC-ESI-QTOF; MS2
DATE: 2019.03.28
AUTHORS: Tetsuya Mori, Center for Sustainable Resource Science, RIKEN
LICENSE: CC BY-NC-SA
PUBLICATION: Tsugawa H., Nakabayashi R., Mori T., Yamada Y., Takahashi M., Rai A., Sugiyama R., Yamamoto H., Nakaya T., Yamazaki M., Kooke R., Bac-Molenaar JA., Oztolan-Erol N., Keurentjes JJB., Arita M., Saito K. (2019) "A cheminformatics approach to characterize metabolomes in stable-isotope-labeled organisms" Nature Methods 16(4):295-298. [doi:10.1038/s41592-019-0358-2]
COMMENT: registered in RIKEN PlaSMA
CH$NAME: Quercetin-4'-O-glucoside
CH$COMPOUND_CLASS: Flavonoid O-glycosides
CH$FORMULA: C21H20O12
CH$EXACT_MASS: 464.379
CH$SMILES: OCC1OC(OC2=C(O)C=C(C=C2)C2=C(O)C(=O)C3=C(O)C=C(O)C=C3O2)C(O)C(O)C1O
CH$IUPAC: InChI=1S/C21H20O12/c22-6-13-15(26)17(28)19(30)21(33-13)32-11-2-1-7(3-9(11)24)20-18(29)16(27)14-10(25)4-8(23)5-12(14)31-20/h1-5,13,15,17,19,21-26,28-30H,6H2
CH$LINK: INCHIKEY OIUBYZLTFSLSBY-UHFFFAOYSA-N
AC$INSTRUMENT: LC, Waters Acquity UPLC System; MS, Waters Xevo G2 Q-Tof
AC$INSTRUMENT_TYPE: LC-ESI-QTOF
AC$MASS_SPECTROMETRY: MS_TYPE MS2
AC$MASS_SPECTROMETRY: ION_MODE NEGATIVE
AC$MASS_SPECTROMETRY: COLLISION_ENERGY 6V
AC$MASS_SPECTROMETRY: DESOLVATION_GAS_FLOW 800/h
AC$MASS_SPECTROMETRY: DESOLVATION_TEMPERATURE 450 C
AC$MASS_SPECTROMETRY: IONIZATION ESI
AC$CHROMATOGRAPHY: CAPILLARY_VOLTAGE -2.75 kV
AC$CHROMATOGRAPHY: COLUMN_NAME Acquity bridged ethyl hybrid C18 (1.7 um, 2.1 mm * 100 mm, Waters)
AC$CHROMATOGRAPHY: COLUMN_TEMPERATURE 40 C
AC$CHROMATOGRAPHY: FLOW_GRADIENT A/B = (99.5%/0.5% at 0 min, 99.5%/0.5% at 0.1 min, 20%/80% at 10 min, 0.5%/99.5% at 10.1 min, 0.5%/99.5% at 12.0 min, 99.5%/0.5% at 12.1 min, 99.5%/0.5% at 15.0 min)
AC$CHROMATOGRAPHY: FLOW_RATE 0.3 ml/min at 0 min, 0.3 ml/min at 10 min, 0.4 ml/min at 10.1 min, 0.4 ml/min at 14.4 min, 0.3 ml/min at 14.5 min
AC$CHROMATOGRAPHY: RETENTION_TIME 4.482217
AC$CHROMATOGRAPHY: SOLVENT A water including 0.1% formic acid
AC$CHROMATOGRAPHY: SOLVENT B acetonitrile including 0.1% formic acid
MS$FOCUSED_ION: PRECURSOR_TYPE [M-H]-
MS$FOCUSED_ION: PRECURSOR_M/Z 463.08819964783
PK$SPLASH: splash10-0udi-0910000000-8759a8a01149d82177a6
PK$NUM_PEAK: 46
PK$PEAK: m/z int. rel.int.
  65.0004 79.0 79
  83.01257 139.0 139
  93.03703 127.0 127
  107.01498 491.0 491
  108.01977 46.0 46
  109.02806 52.0 52
  120.02351 34.0 34
  121.02394 90.0 90
  121.0304 386.0 386
  123.77386 31.0 31
  124.01469 34.0 34
  136.01807 69.0 69
  143.03993 41.0 41
  148.01083 40.0 40
  148.0208 50.0 50
  149.01715 34.0 34
  149.02718 34.0 34
  151.00285 1000.0 999
  151.24107 33.0 33
  151.36627 31.0 31
  152.00385 207.0 207
  152.01202 76.0 76
  153.00522 31.0 31
  154.02988 34.0 34
  155.04616 57.0 57
  158.03688 40.0 40
  162.03137 46.0 46
  163.0004 176.0 176
  164.0108 77.0 77
  165.0128 38.0 38
  171.13699 36.0 36
  172.043 33.0 33
  175.04355 34.0 34
  179.00121 53.0 53
  183.04404 107.0 107
  200.04932 38.0 38
  201.05983 41.0 41
  215.03909 36.0 36
  216.03952 45.0 45
  226.02756 77.0 77
  227.02658 34.0 34
  227.03418 36.0 36
  229.04488 57.0 57
  243.03175 34.0 34
  256.03757 36.0 36
  269.00681 36.0 36
//
