ACCESSION: MSBNK-RIKEN-PR100556
RECORD_TITLE: Glutaric acid; LC-ESI-QTOF; MS2; CE:Ramp 5-60 V; [M-H]-
DATE: 2016.01.19 (Created 2010.06.21, modified 2011.05.06)
AUTHORS: Matsuda F, Suzuki M, Sawada Y, Plant Science Center, RIKEN.
LICENSE: CC BY-SA
COMMENT: Acquisition and generation of the data is financially supported in part by CREST/JST.
CH$NAME: Glutaric acid
CH$NAME: Glutamic Acid
CH$NAME: 1,3-Propanedicarboxylic acid
CH$NAME: Dicarboxylic Acid C5
CH$NAME: 1,5-Pentanedioic acid
CH$COMPOUND_CLASS: Carboxylic acids
CH$FORMULA: C5H8O4
CH$EXACT_MASS: 132.04226
CH$SMILES: OC(=O)CCCC(O)=O
CH$IUPAC: InChI=1S/C5H8O4/c6-4(7)2-1-3-5(8)9/h1-3H2,(H,6,7)(H,8,9)
CH$LINK: CAS 110-94-1
CH$LINK: CHEMSPIDER 723
CH$LINK: KEGG C00489
CH$LINK: KNAPSACK C00001184
CH$LINK: LIPIDMAPS LMFA01170046
CH$LINK: PUBCHEM CID:743
CH$LINK: INCHIKEY JFCQEDHGNNZCLN-UHFFFAOYSA-N
CH$LINK: COMPTOX DTXSID2021654
AC$INSTRUMENT: UPLC Q-Tof Premier, Waters
AC$INSTRUMENT_TYPE: LC-ESI-QTOF
AC$MASS_SPECTROMETRY: MS_TYPE MS2
AC$MASS_SPECTROMETRY: ION_MODE NEGATIVE
AC$MASS_SPECTROMETRY: COLLISION_ENERGY Ramp 5-60 V
AC$MASS_SPECTROMETRY: DATAFORMAT Continuum
AC$MASS_SPECTROMETRY: DESOLVATION_GAS_FLOW 600.0 L/Hr
AC$MASS_SPECTROMETRY: DESOLVATION_TEMPERATURE 400 C
AC$MASS_SPECTROMETRY: FRAGMENTATION_METHOD LOW-ENERGY CID
AC$MASS_SPECTROMETRY: IONIZATION ESI
AC$MASS_SPECTROMETRY: SOURCE_TEMPERATURE 120 C
AC$CHROMATOGRAPHY: CAPILLARY_VOLTAGE 3.0 kV
AC$CHROMATOGRAPHY: SAMPLING_CONE 23.0 V
AC$CHROMATOGRAPHY: SOLVENT A CH3CN(0.1%HCOOH)
AC$CHROMATOGRAPHY: SOLVENT B H2O(0.1%HCOOH)
MS$FOCUSED_ION: PRECURSOR_M/Z 131.03446
MS$FOCUSED_ION: PRECURSOR_TYPE [M-H]-
PK$SPLASH: splash10-000i-9400000000-c5ec3115706f6041b868
PK$NUM_PEAK: 3
PK$PEAK: m/z int. rel.int.
  87.0453 189.6 999
  113.0249 24.92 131
  131.0345 79.7 420
//
