ACCESSION: MSBNK-RIKEN-PR302100
RECORD_TITLE: Biochanin A; LC-ESI-QTOF; MS2
DATE: 2019.03.28
AUTHORS: Tetsuya Mori, Center for Sustainable Resource Science, RIKEN
LICENSE: CC BY-NC-SA
PUBLICATION: Tsugawa H., Nakabayashi R., Mori T., Yamada Y., Takahashi M., Rai A., Sugiyama R., Yamamoto H., Nakaya T., Yamazaki M., Kooke R., Bac-Molenaar JA., Oztolan-Erol N., Keurentjes JJB., Arita M., Saito K. (2019) "A cheminformatics approach to characterize metabolomes in stable-isotope-labeled organisms" Nature Methods 16(4):295-298. [doi:10.1038/s41592-019-0358-2]
COMMENT: registered in RIKEN PlaSMA
CH$NAME: Biochanin A
CH$COMPOUND_CLASS: 4'-O-methylisoflavones
CH$FORMULA: C16H12O5
CH$EXACT_MASS: 284.267
CH$SMILES: COC1=CC=C(C=C1)C1=COC2=CC(O)=CC(O)=C2C1=O
CH$IUPAC: InChI=1S/C16H12O5/c1-20-11-4-2-9(3-5-11)12-8-21-14-7-10(17)6-13(18)15(14)16(12)19/h2-8,17-18H,1H3
CH$LINK: INCHIKEY WUADCCWRTIWANL-UHFFFAOYSA-N
AC$INSTRUMENT: LC, Waters Acquity UPLC System; MS, Waters Xevo G2 Q-Tof
AC$INSTRUMENT_TYPE: LC-ESI-QTOF
AC$MASS_SPECTROMETRY: MS_TYPE MS2
AC$MASS_SPECTROMETRY: ION_MODE POSITIVE
AC$MASS_SPECTROMETRY: COLLISION_ENERGY 6V
AC$MASS_SPECTROMETRY: DESOLVATION_GAS_FLOW 800/h
AC$MASS_SPECTROMETRY: DESOLVATION_TEMPERATURE 450 C
AC$MASS_SPECTROMETRY: IONIZATION ESI
AC$CHROMATOGRAPHY: CAPILLARY_VOLTAGE +3.00 kV
AC$CHROMATOGRAPHY: COLUMN_NAME Acquity bridged ethyl hybrid C18 (1.7 um, 2.1 mm * 100 mm, Waters)
AC$CHROMATOGRAPHY: COLUMN_TEMPERATURE 40 C
AC$CHROMATOGRAPHY: FLOW_GRADIENT A/B = (99.5%/0.5% at 0 min, 99.5%/0.5% at 0.1 min, 20%/80% at 10 min, 0.5%/99.5% at 10.1 min, 0.5%/99.5% at 12.0 min, 99.5%/0.5% at 12.1 min, 99.5%/0.5% at 15.0 min)
AC$CHROMATOGRAPHY: FLOW_RATE 0.3 ml/min at 0 min, 0.3 ml/min at 10 min, 0.4 ml/min at 10.1 min, 0.4 ml/min at 14.4 min, 0.3 ml/min at 14.5 min
AC$CHROMATOGRAPHY: RETENTION_TIME 7.6348
AC$CHROMATOGRAPHY: SOLVENT A water including 0.1% formic acid
AC$CHROMATOGRAPHY: SOLVENT B acetonitrile including 0.1% formic acid
MS$FOCUSED_ION: PRECURSOR_TYPE [M+H]+
MS$FOCUSED_ION: PRECURSOR_M/Z 285.0757499
PK$SPLASH: splash10-03xu-1920000000-49e475c4bae45df26905
PK$NUM_PEAK: 200
PK$PEAK: m/z int. rel.int.
  64.0285 14.0 14
  65.04377 13.0 13
  67.01649 38.0 38
  67.02349 18.0 18
  68.99095 18.0 18
  68.99721 22.0 22
  75.01914 12.0 12
  77.03151 27.0 27
  77.03943 18.0 18
  78.0026 26.0 26
  78.00788 15.0 15
  78.04839 32.0 32
  79.0343 26.0 26
  79.05419 43.0 43
  79.06416 29.0 29
  80.05835 32.0 32
  80.09444 15.0 15
  81.03127 69.0 69
  87.29613 12.0 12
  88.46679 13.0 13
  89.03399 86.0 86
  89.04023 181.0 181
  89.96414 12.0 12
  89.96996 16.0 16
  90.04635 461.0 461
  91.05042 47.0 47
  91.05815 35.0 35
  91.70397 17.0 17
  92.05581 18.0 18
  95.98296 15.0 15
  96.01025 13.0 13
  96.01441 44.0 44
  96.02104 74.0 74
  97.02444 32.0 32
  102.04502 113.0 113
  103.05289 99.0 99
  103.05923 17.0 17
  103.47703 18.0 18
  104.02705 18.0 18
  104.06372 53.0 53
  105.0733 19.0 19
  107.0476 42.0 42
  108.01937 58.0 58
  108.03243 15.0 15
  110.00642 12.0 12
  114.02928 26.0 26
  115.03775 24.0 24
  115.0536 515.0 514
  115.0591 141.0 141
  115.22768 21.0 21
  116.05776 60.0 60
  116.06453 15.0 15
  117.06873 71.0 71
  117.45525 15.0 15
  118.04031 79.0 79
  118.0472 54.0 54
  119.02917 20.0 20
  119.04659 101.0 101
  121.06429 15.0 15
  122.03048 38.0 38
  124.00075 15.0 15
  124.01398 310.0 310
  124.02391 76.0 76
  125.01334 15.0 15
  126.00569 19.0 19
  127.04398 33.0 33
  127.05431 110.0 110
  127.06888 27.0 27
  128.06282 319.0 319
  129.03485 15.0 15
  129.07002 138.0 138
  129.07758 53.0 53
  129.34492 21.0 21
  130.03209 11.0 11
  130.04152 171.0 171
  130.08231 53.0 53
  131.01736 16.0 16
  131.04539 68.0 68
  131.05318 65.0 65
  132.06776 16.0 16
  133.04268 22.0 22
  133.05695 36.0 36
  133.06467 13.0 13
  134.03363 36.0 36
  134.06679 15.0 15
  135.04279 32.0 32
  136.01346 34.0 34
  137.02284 19.0 19
  139.0085 12.0 12
  139.02046 18.0 18
  139.05177 136.0 136
  139.06331 29.0 29
  140.05621 92.0 92
  140.06236 182.0 182
  140.39503 13.0 13
  141.0287 28.0 28
  141.07422 179.0 179
  141.57048 15.0 15
  142.04549 27.0 27
  142.07959 17.0 17
  143.01839 15.0 15
  143.04356 124.0 124
  143.05171 50.0 50
  144.06032 15.0 15
  147.04669 19.0 19
  150.29794 23.0 23
  151.05479 57.0 57
  152.00894 109.0 109
  152.06041 51.0 51
  153.00812 40.0 40
  153.02293 207.0 207
  154.01555 21.0 21
  155.05576 22.0 22
  156.05351 15.0 15
  156.06146 22.0 22
  157.05161 34.0 34
  157.06696 185.0 185
  158.00259 24.0 24
  158.01788 16.0 16
  158.03012 51.0 51
  158.03673 70.0 70
  158.04466 39.0 39
  158.0666 33.0 33
  159.04231 100.0 100
  159.06784 19.0 19
  160.05183 13.0 13
  162.03258 18.0 18
  163.02193 15.0 15
  167.04813 89.0 89
  167.0575 50.0 50
  168.05452 151.0 151
  168.06519 26.0 26
  169.06496 159.0 159
  170.01859 42.0 42
  170.06537 15.0 15
  170.16753 33.0 33
  171.0343 24.0 24
  171.04456 128.0 128
  171.0816 15.0 15
  173.04889 18.0 18
  175.04018 18.0 18
  179.04907 29.0 29
  181.06361 40.0 40
  183.04782 21.0 21
  184.04405 38.0 38
  184.0582 30.0 30
  185.03966 42.0 42
  185.05992 305.0 305
  185.06729 90.0 90
  185.22997 15.0 15
  186.04167 25.0 25
  186.0571 19.0 19
  186.06819 15.0 15
  186.07869 13.0 13
  187.0295 15.0 15
  187.03864 34.0 34
  187.0463 17.0 17
  187.07065 25.0 25
  188.03847 23.0 23
  188.0495 12.0 12
  195.03802 40.0 40
  196.04114 44.0 44
  196.05991 32.0 32
  197.02277 18.0 18
  197.06306 101.0 101
  198.04994 20.0 20
  198.05876 29.0 29
  199.0329 24.0 24
  200.04248 15.0 15
  201.06288 30.0 30
  211.03539 26.0 26
  212.04312 57.0 57
  212.05145 27.0 27
  213.03404 29.0 29
  213.054 1000.0 999
  213.07138 42.0 42
  213.20056 12.0 12
  214.03777 15.0 15
  214.0537 46.0 46
  214.06604 58.0 58
  215.03896 18.0 18
  215.05231 32.0 32
  216.01944 19.0 19
  216.03961 23.0 23
  216.04836 24.0 24
  224.03682 16.0 16
  224.04601 28.0 28
  225.02419 15.0 15
  230.08931 20.0 20
  241.04538 241.0 241
  241.05373 136.0 136
  242.04785 49.0 49
  242.06223 66.0 66
  253.04256 24.0 24
  253.06068 43.0 43
  255.06731 21.0 21
  268.02774 21.0 21
  269.04144 43.0 43
  269.05722 33.0 33
  270.05502 15.0 15
//
