ACCESSION: MSBNK-RIKEN-PR308924
RECORD_TITLE: Soyasapogenol B base + O-HexA-HexA-dHex; LC-ESI-QTOF; MS2
DATE: 2019.03.28
AUTHORS: Tetsuya Mori, Center for Sustainable Resource Science, RIKEN
LICENSE: CC BY-NC-SA
PUBLICATION: Tsugawa H., Nakabayashi R., Mori T., Yamada Y., Takahashi M., Rai A., Sugiyama R., Yamamoto H., Nakaya T., Yamazaki M., Kooke R., Bac-Molenaar JA., Oztolan-Erol N., Keurentjes JJB., Arita M., Saito K. (2019) "A cheminformatics approach to characterize metabolomes in stable-isotope-labeled organisms" Nature Methods 16(4):295-298. [doi:10.1038/s41592-019-0358-2]
COMMENT: Annotation level-3
CH$NAME: Soyasapogenol B base + O-HexA-HexA-dHex
CH$COMPOUND_CLASS: Triterpene saponins
CH$FORMULA: C48H76O19
CH$EXACT_MASS: 957.117
CH$SMILES: CC1OC(OC2C(O)C(O)C(OC2OC2C(O)C(O)C(OC2OC2CCC3(C)C(CCC4(C)C3CC=C3C5CC(C)(C)CC(O)C5(C)CCC43C)C2(C)CO)C(O)=O)C(O)=O)C(O)C(O)C1O
CH$IUPAC: InChI=1S/C48H76O19/c1-20-27(51)28(52)33(57)40(62-20)66-37-32(56)30(54)35(39(60)61)65-42(37)67-36-31(55)29(53)34(38(58)59)64-41(36)63-26-12-13-45(5)23(46(26,6)19-49)11-14-48(8)24(45)10-9-21-22-17-43(2,3)18-25(50)44(22,4)15-16-47(21,48)7/h9,20,22-37,40-42,49-57H,10-19H2,1-8H3,(H,58,59)(H,60,61)
CH$LINK: INCHIKEY SZHUMUJGHFQABW-UHFFFAOYSA-N
AC$INSTRUMENT: LC, Waters Acquity UPLC System; MS, Waters Xevo G2 Q-Tof
AC$INSTRUMENT_TYPE: LC-ESI-QTOF
AC$MASS_SPECTROMETRY: MS_TYPE MS2
AC$MASS_SPECTROMETRY: ION_MODE NEGATIVE
AC$MASS_SPECTROMETRY: COLLISION_ENERGY 6V
AC$MASS_SPECTROMETRY: DESOLVATION_GAS_FLOW 800/h
AC$MASS_SPECTROMETRY: DESOLVATION_TEMPERATURE 450 C
AC$MASS_SPECTROMETRY: IONIZATION ESI
AC$CHROMATOGRAPHY: CAPILLARY_VOLTAGE +3.00 kV
AC$CHROMATOGRAPHY: COLUMN_NAME Acquity bridged ethyl hybrid C18 (1.7 um, 2.1 mm * 100 mm, Waters)
AC$CHROMATOGRAPHY: COLUMN_TEMPERATURE 40 C
AC$CHROMATOGRAPHY: FLOW_GRADIENT A/B = (99.5%/0.5% at 0 min, 99.5%/0.5% at 0.1 min, 20%/80% at 10 min, 0.5%/99.5% at 10.1 min, 0.5%/99.5% at 12.0 min, 99.5%/0.5% at 12.1 min, 99.5%/0.5% at 15.0 min)
AC$CHROMATOGRAPHY: FLOW_RATE 0.3 ml/min at 0 min, 0.3 ml/min at 10 min, 0.4 ml/min at 10.1 min, 0.4 ml/min at 14.4 min, 0.3 ml/min at 14.5 min
AC$CHROMATOGRAPHY: RETENTION_TIME 7.05
AC$CHROMATOGRAPHY: SOLVENT A water including 0.1% formic acid
AC$CHROMATOGRAPHY: SOLVENT B acetonitrile including 0.1% formic acid
MS$FOCUSED_ION: PRECURSOR_TYPE [M-H]-
MS$FOCUSED_ION: PRECURSOR_M/Z 955.4894
PK$SPLASH: splash10-0a4i-0000000009-d5e0a7399cf202707c05
PK$NUM_PEAK: 31
PK$PEAK: m/z int. rel.int.
  119.0361 18.0 3
  133.01707 20.0 3
  163.05859 18.0 3
  320.86615 20.0 3
  321.07089 44.0 7
  339.06494 22.0 3
  339.09164 93.0 14
  339.10632 20.0 3
  340.09372 18.0 3
  340.11011 20.0 3
  382.23059 25.0 4
  386.47733 24.0 4
  407.13086 30.0 4
  417.0947 27.0 4
  480.09555 19.0 3
  497.11514 479.0 71
  497.13699 33.0 5
  498.11621 108.0 16
  499.10739 41.0 6
  521.83624 20.0 3
  541.36523 21.0 3
  556.64264 32.0 5
  572.11023 19.0 3
  620.10004 21.0 3
  633.39032 18.0 3
  637.40845 19.0 3
  651.5625 19.0 3
  662.04889 25.0 4
  800.49371 19.0 3
  955.48975 6751.0 999
  955.57416 18.0 3
//
