ACCESSION: MSBNK-RIKEN-PR303347
RECORD_TITLE: NP-000002(10); LC-ESI-QTOF; MS2
DATE: 2019.03.28
AUTHORS: Tetsuya Mori, Center for Sustainable Resource Science, RIKEN
LICENSE: CC BY-NC-SA
PUBLICATION: Tsugawa H., Nakabayashi R., Mori T., Yamada Y., Takahashi M., Rai A., Sugiyama R., Yamamoto H., Nakaya T., Yamazaki M., Kooke R., Bac-Molenaar JA., Oztolan-Erol N., Keurentjes JJB., Arita M., Saito K. (2019) "A cheminformatics approach to characterize metabolomes in stable-isotope-labeled organisms" Nature Methods 16(4):295-298. [doi:10.1038/s41592-019-0358-2]
COMMENT: registered in RIKEN PlaSMA
CH$NAME: NP-000002(10)
CH$COMPOUND_CLASS: Flavonoid 8-C-glycosides
CH$FORMULA: C27H30O15
CH$EXACT_MASS: 594.522
CH$SMILES: OCC1OC(C(O)C(O)C1O)C1=C(O)C(C2OC(CO)C(O)C(O)C2O)=C2OC(=CC(=O)C2=C1O)C1=CC=C(O)C=C1
CH$IUPAC: InChI=1S/C27H30O15/c28-6-12-17(32)21(36)23(38)26(41-12)15-19(34)14-10(31)5-11(8-1-3-9(30)4-2-8)40-25(14)16(20(15)35)27-24(39)22(37)18(33)13(7-29)42-27/h1-5,12-13,17-18,21-24,26-30,32-39H,6-7H2
CH$LINK: INCHIKEY FIAAVMJLAGNUKW-UHFFFAOYSA-N
AC$INSTRUMENT: LC, Waters Acquity UPLC System; MS, Waters Xevo G2 Q-Tof
AC$INSTRUMENT_TYPE: LC-ESI-QTOF
AC$MASS_SPECTROMETRY: MS_TYPE MS2
AC$MASS_SPECTROMETRY: ION_MODE POSITIVE
AC$MASS_SPECTROMETRY: COLLISION_ENERGY 6V
AC$MASS_SPECTROMETRY: DESOLVATION_GAS_FLOW 800/h
AC$MASS_SPECTROMETRY: DESOLVATION_TEMPERATURE 450 C
AC$MASS_SPECTROMETRY: IONIZATION ESI
AC$CHROMATOGRAPHY: CAPILLARY_VOLTAGE +3.00 kV
AC$CHROMATOGRAPHY: COLUMN_NAME Acquity bridged ethyl hybrid C18 (1.7 um, 2.1 mm * 100 mm, Waters)
AC$CHROMATOGRAPHY: COLUMN_TEMPERATURE 40 C
AC$CHROMATOGRAPHY: FLOW_GRADIENT A/B = (99.5%/0.5% at 0 min, 99.5%/0.5% at 0.1 min, 20%/80% at 10 min, 0.5%/99.5% at 10.1 min, 0.5%/99.5% at 12.0 min, 99.5%/0.5% at 12.1 min, 99.5%/0.5% at 15.0 min)
AC$CHROMATOGRAPHY: FLOW_RATE 0.3 ml/min at 0 min, 0.3 ml/min at 10 min, 0.4 ml/min at 10.1 min, 0.4 ml/min at 14.4 min, 0.3 ml/min at 14.5 min
AC$CHROMATOGRAPHY: RETENTION_TIME 3.302967
AC$CHROMATOGRAPHY: SOLVENT A water including 0.1% formic acid
AC$CHROMATOGRAPHY: SOLVENT B acetonitrile including 0.1% formic acid
MS$FOCUSED_ION: PRECURSOR_TYPE [M+H]+
MS$FOCUSED_ION: PRECURSOR_M/Z 595.1657467
PK$SPLASH: splash10-004i-0009710000-0c62cdf214ee820f0de3
PK$NUM_PEAK: 227
PK$PEAK: m/z int. rel.int.
  121.03209 23.0 23
  268.52438 35.0 35
  283.05725 15.0 15
  283.07425 15.0 15
  284.06308 26.0 26
  295.02856 24.0 24
  295.05322 181.0 181
  295.0683 191.0 191
  296.04361 18.0 18
  296.05835 48.0 48
  296.06989 24.0 24
  301.95575 22.0 22
  307.04431 55.0 55
  307.05963 225.0 225
  307.0831 21.0 21
  307.38101 15.0 15
  308.05423 74.0 74
  308.07333 74.0 74
  309.06873 15.0 15
  310.08066 42.0 42
  312.06824 19.0 19
  313.05396 18.0 18
  313.07147 22.0 22
  319.05969 26.0 26
  319.42166 18.0 18
  323.0585 22.0 22
  325.05515 163.0 163
  325.07523 1000.0 999
  325.4628 20.0 20
  325.57654 18.0 18
  326.07352 205.0 205
  326.17767 15.0 15
  326.23077 19.0 19
  327.08026 20.0 20
  328.08557 18.0 18
  333.08508 15.0 15
  335.04846 20.0 20
  335.07828 34.0 34
  336.09305 40.0 40
  336.11111 17.0 17
  337.07144 436.0 436
  338.05878 15.0 15
  338.07889 40.0 40
  339.09808 17.0 17
  339.26385 15.0 15
  343.08875 35.0 35
  347.08966 28.0 28
  347.0993 23.0 23
  347.60049 17.0 17
  349.02664 19.0 19
  349.05441 88.0 88
  349.06958 244.0 244
  349.09055 43.0 43
  350.09192 19.0 19
  351.08267 65.0 65
  351.09793 26.0 26
  353.05984 17.0 17
  353.07785 48.0 48
  355.07245 138.0 138
  355.08679 82.0 82
  356.0715 57.0 57
  356.10297 15.0 15
  357.07925 54.0 54
  361.02072 38.0 38
  361.0358 21.0 21
  361.06577 143.0 143
  361.0853 57.0 57
  362.07462 74.0 74
  363.08911 81.0 81
  364.10483 21.0 21
  365.10248 39.0 39
  366.10394 50.0 50
  367.08398 43.0 43
  368.08856 16.0 16
  371.27206 20.0 20
  373.07248 23.0 23
  373.09293 28.0 28
  375.06293 15.0 15
  376.03751 15.0 15
  376.08597 22.0 22
  377.06433 42.0 42
  377.1059 25.0 25
  379.07758 841.0 840
  379.09476 339.0 339
  380.05856 63.0 63
  380.077 148.0 148
  380.09268 142.0 142
  380.58691 22.0 22
  381.06561 25.0 25
  382.07312 16.0 16
  385.04843 26.0 26
  385.07758 28.0 28
  385.10031 22.0 22
  386.06683 28.0 28
  387.04556 15.0 15
  389.05161 18.0 18
  389.06375 38.0 38
  389.08801 36.0 36
  389.44327 15.0 15
  391.06235 193.0 193
  391.0882 244.0 244
  392.07849 114.0 114
  392.09393 105.0 105
  393.45557 15.0 15
  394.09976 37.0 37
  395.09598 15.0 15
  400.95355 29.0 29
  401.10559 15.0 15
  401.12354 22.0 22
  403.04459 15.0 15
  403.08334 280.0 280
  403.10223 36.0 36
  404.01593 18.0 18
  404.0856 59.0 59
  404.10983 59.0 59
  405.09592 18.0 18
  407.0798 24.0 24
  409.0556 34.0 34
  409.09372 680.0 679
  410.05661 22.0 22
  410.09262 170.0 170
  410.11899 28.0 28
  412.7182 23.0 23
  415.07278 55.0 55
  415.09341 35.0 35
  417.10641 18.0 18
  417.14816 24.0 24
  418.11536 18.0 18
  419.09546 17.0 17
  421.03088 20.0 20
  421.0639 28.0 28
  421.08264 123.0 123
  421.10138 63.0 63
  421.12656 45.0 45
  422.06525 19.0 19
  422.08035 65.0 65
  422.09818 16.0 16
  423.09995 27.0 27
  424.11212 17.0 17
  427.0672 60.0 60
  427.0929 204.0 204
  427.11362 207.0 207
  427.94925 18.0 18
  428.10229 125.0 125
  428.83829 17.0 17
  429.08212 59.0 59
  429.10889 18.0 18
  430.10797 22.0 22
  430.12372 21.0 21
  430.19952 31.0 31
  431.08084 21.0 21
  431.1098 73.0 73
  431.13266 18.0 18
  431.5137 15.0 15
  432.10898 22.0 22
  432.12494 20.0 20
  433.09348 32.0 32
  433.10904 28.0 28
  434.11292 24.0 24
  435.03229 17.0 17
  439.04947 17.0 17
  439.10095 498.0 498
  439.13516 17.0 17
  440.12811 26.0 26
  441.10773 38.0 38
  442.11359 41.0 41
  445.09668 77.0 77
  445.11038 45.0 45
  449.13266 40.0 40
  451.12085 45.0 45
  457.05231 15.0 15
  457.09256 236.0 236
  457.12369 130.0 130
  458.0993 28.0 28
  458.11856 108.0 108
  459.11093 32.0 32
  463.09009 22.0 22
  463.10876 77.0 77
  464.1149 34.0 34
  465.26239 20.0 20
  467.1123 22.0 22
  469.08017 53.0 53
  469.14352 21.0 21
  470.06464 18.0 18
  475.07965 28.0 28
  475.09985 32.0 32
  475.12476 46.0 46
  478.12201 22.0 22
  481.07184 73.0 73
  481.116 202.0 202
  481.81293 18.0 18
  482.10361 21.0 21
  482.13602 44.0 44
  483.12872 21.0 21
  487.09784 133.0 133
  493.04276 15.0 15
  493.07571 30.0 30
  493.09744 22.0 22
  493.11023 21.0 21
  493.13068 24.0 24
  499.14352 18.0 18
  500.12762 52.0 52
  504.95468 15.0 15
  505.09665 37.0 37
  505.11823 125.0 125
  506.11542 25.0 25
  507.1376 15.0 15
  510.14868 22.0 22
  511.11053 67.0 67
  512.09888 17.0 17
  512.11273 18.0 18
  523.0932 34.0 34
  523.11145 61.0 61
  523.13831 116.0 116
  524.10675 15.0 15
  524.13916 68.0 68
  528.22211 15.0 15
  529.13776 34.0 34
  529.15894 25.0 25
  541.12885 138.0 138
  542.11603 15.0 15
  542.14087 22.0 22
  542.17206 15.0 15
  559.1463 19.0 19
  577.82037 27.0 27
  595.15887 33.0 33
  595.17798 48.0 48
//
