ACCESSION: MSBNK-RIKEN-PR301350
RECORD_TITLE: Mitragynine; LC-ESI-QTOF; MS2
DATE: 2019.03.28
AUTHORS: Tetsuya Mori, Center for Sustainable Resource Science, RIKEN
LICENSE: CC BY-NC-SA
PUBLICATION: Tsugawa H., Nakabayashi R., Mori T., Yamada Y., Takahashi M., Rai A., Sugiyama R., Yamamoto H., Nakaya T., Yamazaki M., Kooke R., Bac-Molenaar JA., Oztolan-Erol N., Keurentjes JJB., Arita M., Saito K. (2019) "A cheminformatics approach to characterize metabolomes in stable-isotope-labeled organisms" Nature Methods 16(4):295-298. [doi:10.1038/s41592-019-0358-2]
COMMENT: registered in RIKEN PlaSMA
CH$NAME: Mitragynine
CH$COMPOUND_CLASS: Corynanthean-type alkaloids
CH$FORMULA: C23H30N2O4
CH$EXACT_MASS: 398.503
CH$SMILES: CC[C@@H]1CN2CCC3=C(NC4=C3C(OC)=CC=C4)[C@@H]2C[C@@H]1\C(=C/OC)C(=O)OC
CH$IUPAC: InChI=1S/C23H30N2O4/c1-5-14-12-25-10-9-15-21-18(7-6-8-20(21)28-3)24-22(15)19(25)11-16(14)17(13-27-2)23(26)29-4/h6-8,13-14,16,19,24H,5,9-12H2,1-4H3/b17-13+/t14-,16+,19+/m1/s1
CH$LINK: INCHIKEY LELBFTMXCIIKKX-QVRQZEMUSA-N
AC$INSTRUMENT: LC, Waters Acquity UPLC System; MS, Waters Xevo G2 Q-Tof
AC$INSTRUMENT_TYPE: LC-ESI-QTOF
AC$MASS_SPECTROMETRY: MS_TYPE MS2
AC$MASS_SPECTROMETRY: ION_MODE POSITIVE
AC$MASS_SPECTROMETRY: COLLISION_ENERGY 6V
AC$MASS_SPECTROMETRY: DESOLVATION_GAS_FLOW 800/h
AC$MASS_SPECTROMETRY: DESOLVATION_TEMPERATURE 450 C
AC$MASS_SPECTROMETRY: IONIZATION ESI
AC$CHROMATOGRAPHY: CAPILLARY_VOLTAGE +3.00 kV
AC$CHROMATOGRAPHY: COLUMN_NAME Acquity bridged ethyl hybrid C18 (1.7 um, 2.1 mm * 100 mm, Waters)
AC$CHROMATOGRAPHY: COLUMN_TEMPERATURE 40 C
AC$CHROMATOGRAPHY: FLOW_GRADIENT A/B = (99.5%/0.5% at 0 min, 99.5%/0.5% at 0.1 min, 20%/80% at 10 min, 0.5%/99.5% at 10.1 min, 0.5%/99.5% at 12.0 min, 99.5%/0.5% at 12.1 min, 99.5%/0.5% at 15.0 min)
AC$CHROMATOGRAPHY: FLOW_RATE 0.3 ml/min at 0 min, 0.3 ml/min at 10 min, 0.4 ml/min at 10.1 min, 0.4 ml/min at 14.4 min, 0.3 ml/min at 14.5 min
AC$CHROMATOGRAPHY: RETENTION_TIME 5.539417
AC$CHROMATOGRAPHY: SOLVENT A water including 0.1% formic acid
AC$CHROMATOGRAPHY: SOLVENT B acetonitrile including 0.1% formic acid
MS$FOCUSED_ION: PRECURSOR_TYPE [M+H]+
MS$FOCUSED_ION: PRECURSOR_M/Z 399.2278339
PK$SPLASH: splash10-0abc-0910000000-1fcf41e0e1c789273c9d
PK$NUM_PEAK: 264
PK$PEAK: m/z int. rel.int.
  75.03848 10.0 10
  75.04552 104.0 104
  76.04813 12.0 12
  79.05386 25.0 25
  79.05937 21.0 21
  81.07418 5.0 5
  82.069 8.0 8
  84.08254 17.0 17
  91.05534 38.0 38
  92.05525 5.0 5
  93.07047 18.0 18
  94.07115 6.0 6
  95.0487 33.0 33
  95.07182 7.0 7
  96.0531 7.0 7
  96.08357 8.0 8
  99.04568 8.0 8
  103.05595 11.0 11
  105.07308 19.0 19
  107.05048 11.0 11
  108.04759 6.0 6
  108.08164 35.0 35
  109.08686 9.0 9
  110.09725 254.0 254
  111.04609 9.0 9
  111.0724 7.0 7
  111.08815 6.0 6
  111.10137 19.0 19
  115.05473 106.0 106
  116.04777 10.0 10
  116.05986 12.0 12
  117.05579 18.0 18
  117.07044 238.0 238
  118.06457 93.0 93
  118.07393 35.0 35
  119.08707 7.0 7
  120.08412 6.0 6
  121.08601 13.0 13
  122.06303 8.0 8
  122.0958 42.0 42
  123.08126 7.0 7
  123.08924 6.0 6
  123.10066 11.0 11
  124.11841 6.0 6
  126.05025 6.0 6
  127.05083 26.0 26
  127.05598 83.0 83
  128.05061 27.0 27
  128.06221 37.0 37
  129.05574 81.0 81
  129.07016 44.0 44
  130.06528 109.0 109
  131.05092 5.0 5
  131.06938 58.0 58
  131.07593 110.0 110
  132.04578 8.0 8
  132.06657 13.0 13
  132.07733 33.0 33
  132.08327 16.0 16
  133.05287 7.0 7
  134.05739 9.0 9
  134.10048 7.0 7
  135.1017 9.0 9
  136.07578 9.0 9
  138.05219 16.0 16
  139.0752 30.0 30
  141.07124 7.0 7
  142.06094 6.0 6
  142.06868 34.0 34
  143.05626 7.0 7
  143.07385 216.0 216
  143.09305 6.0 6
  144.04305 7.0 7
  144.08174 345.0 345
  145.05331 8.0 8
  145.07941 14.0 14
  145.08644 43.0 43
  145.09796 8.0 8
  146.05992 8.0 8
  146.06738 6.0 6
  146.09494 53.0 53
  146.10117 37.0 37
  147.06693 28.0 28
  147.07509 8.0 8
  148.07774 11.0 11
  148.11345 5.0 5
  150.06264 9.0 9
  150.09702 9.0 9
  151.06631 7.0 7
  152.07211 50.0 50
  153.0704 16.0 16
  154.06221 11.0 11
  154.06966 16.0 16
  155.07416 23.0 23
  155.08354 8.0 8
  156.0808 24.0 24
  157.0462 5.0 5
  157.09111 16.0 16
  158.06117 32.0 32
  158.06589 11.0 11
  158.09109 8.0 8
  158.10228 13.0 13
  159.05014 10.0 10
  159.06888 1000.0 999
  160.07133 89.0 89
  160.08063 39.0 39
  161.08611 30.0 30
  162.08815 27.0 27
  163.10025 6.0 6
  165.08206 11.0 11
  166.06662 11.0 11
  166.08803 20.0 20
  167.07098 11.0 11
  168.08398 46.0 46
  168.10504 13.0 13
  169.05112 7.0 7
  169.08609 28.0 28
  170.06248 45.0 45
  170.09612 10.0 10
  171.06798 30.0 30
  172.06674 5.0 5
  172.07838 28.0 28
  173.0847 25.0 25
  173.09698 10.0 10
  174.05275 10.0 10
  174.09192 656.0 655
  175.09052 35.0 35
  175.09695 45.0 45
  175.10522 14.0 14
  176.07686 7.0 7
  176.10204 7.0 7
  179.06586 6.0 6
  179.08704 6.0 6
  180.07761 8.0 8
  180.08698 17.0 17
  180.10292 15.0 15
  181.08936 19.0 19
  181.11327 5.0 5
  182.06688 8.0 8
  182.09578 13.0 13
  182.12535 5.0 5
  183.06671 25.0 25
  183.09885 8.0 8
  184.077 107.0 107
  185.06262 9.0 9
  185.08148 75.0 75
  185.09624 9.0 9
  186.0943 24.0 24
  187.09947 10.0 10
  188.10464 14.0 14
  190.09039 13.0 13
  191.07932 7.0 7
  192.07834 15.0 15
  193.08189 12.0 12
  193.09079 11.0 11
  194.06293 12.0 12
  194.08716 6.0 6
  194.09572 19.0 19
  194.10944 6.0 6
  195.07005 18.0 18
  195.07936 5.0 5
  196.06644 11.0 11
  196.07761 19.0 19
  197.08531 54.0 54
  198.08865 23.0 23
  199.09543 5.0 5
  199.10909 9.0 9
  200.06941 7.0 7
  200.09372 9.0 9
  200.10764 23.0 23
  200.1156 15.0 15
  201.10014 10.0 10
  201.10893 6.0 6
  202.12022 6.0 6
  204.0721 8.0 8
  204.08231 9.0 9
  204.09366 13.0 13
  205.09406 10.0 10
  206.09064 10.0 10
  206.09969 11.0 11
  207.06744 15.0 15
  207.09737 7.0 7
  208.07368 23.0 23
  208.0983 6.0 6
  208.10803 11.0 11
  209.08305 20.0 20
  209.08945 7.0 7
  210.08449 25.0 25
  210.09563 45.0 45
  211.08151 11.0 11
  211.10045 14.0 14
  211.11127 5.0 5
  212.11824 9.0 9
  214.12617 6.0 6
  217.08983 18.0 18
  218.09674 11.0 11
  219.10628 7.0 7
  220.07298 20.0 20
  220.08536 13.0 13
  221.08128 15.0 15
  221.09319 18.0 18
  221.12167 8.0 8
  222.06129 5.0 5
  222.09206 29.0 29
  223.09311 16.0 16
  223.10487 8.0 8
  224.07631 8.0 8
  224.08812 9.0 9
  224.10974 43.0 43
  225.09453 17.0 17
  225.11952 6.0 6
  226.12546 5.0 5
  233.07822 7.0 7
  233.09023 10.0 10
  233.09869 8.0 8
  234.0808 6.0 6
  234.09416 26.0 26
  234.11427 6.0 6
  235.09116 17.0 17
  235.11047 5.0 5
  236.06787 8.0 8
  236.0921 8.0 8
  236.10904 31.0 31
  237.07747 6.0 6
  237.11566 22.0 22
  238.08739 22.0 22
  238.14565 7.0 7
  239.09511 12.0 12
  239.12363 40.0 40
  240.11995 7.0 7
  240.13026 6.0 6
  244.11424 6.0 6
  246.09763 9.0 9
  247.09897 6.0 6
  248.07927 9.0 9
  248.09567 15.0 15
  248.10869 11.0 11
  249.08113 15.0 15
  249.1071 10.0 10
  249.11684 7.0 7
  250.12312 19.0 19
  251.11827 13.0 13
  252.09563 6.0 6
  252.11111 5.0 5
  258.10175 7.0 7
  261.12262 9.0 9
  262.08807 11.0 11
  262.11267 11.0 11
  262.12537 12.0 12
  263.11462 10.0 10
  263.13171 13.0 13
  264.0798 6.0 6
  264.10406 6.0 6
  264.14139 7.0 7
  265.11795 12.0 12
  265.13644 7.0 7
  268.08789 5.0 5
  275.11722 5.0 5
  275.12726 7.0 7
  276.08478 6.0 6
  277.13992 8.0 8
  278.10922 6.0 6
  288.11792 5.0 5
  291.11749 7.0 7
//
