ACCESSION: MSBNK-RIKEN-PR308399
RECORD_TITLE: alpha-Solanine; LC-ESI-QTOF; MS2
DATE: 2019.03.28
AUTHORS: Tetsuya Mori, Center for Sustainable Resource Science, RIKEN
LICENSE: CC BY-NC-SA
PUBLICATION: Tsugawa H., Nakabayashi R., Mori T., Yamada Y., Takahashi M., Rai A., Sugiyama R., Yamamoto H., Nakaya T., Yamazaki M., Kooke R., Bac-Molenaar JA., Oztolan-Erol N., Keurentjes JJB., Arita M., Saito K. (2019) "A cheminformatics approach to characterize metabolomes in stable-isotope-labeled organisms" Nature Methods 16(4):295-298. [doi:10.1038/s41592-019-0358-2]
COMMENT: registered in RIKEN PlaSMA
CH$NAME: alpha-Solanine
CH$COMPOUND_CLASS: Steroidal saponins
CH$FORMULA: C45H73NO15
CH$EXACT_MASS: 868.071
CH$SMILES: CC1C2CCC(C)CN2C2CC3C4CC=C5CC(CCC5(C)C4CCC3(C)C12)OC1OC(CO)C(O)C(OC2OC(CO)C(O)C(O)C2O)C1OC1OC(C)C(O)C(O)C1O
CH$IUPAC: InChI=1S/C45H73NO15/c1-19-6-9-27-20(2)31-28(46(27)16-19)15-26-24-8-7-22-14-23(10-12-44(22,4)25(24)11-13-45(26,31)5)57-43-40(61-41-37(54)35(52)32(49)21(3)56-41)39(34(51)30(18-48)59-43)60-42-38(55)36(53)33(50)29(17-47)58-42/h7,19-21,23-43,47-55H,6,8-18H2,1-5H3
CH$LINK: INCHIKEY ZGVSETXHNHBTRK-UHFFFAOYSA-N
AC$INSTRUMENT: LC, Waters Acquity UPLC System; MS, Waters Xevo G2 Q-Tof
AC$INSTRUMENT_TYPE: LC-ESI-QTOF
AC$MASS_SPECTROMETRY: MS_TYPE MS2
AC$MASS_SPECTROMETRY: ION_MODE NEGATIVE
AC$MASS_SPECTROMETRY: COLLISION_ENERGY 6V
AC$MASS_SPECTROMETRY: DESOLVATION_GAS_FLOW 800/h
AC$MASS_SPECTROMETRY: DESOLVATION_TEMPERATURE 450 C
AC$MASS_SPECTROMETRY: IONIZATION ESI
AC$CHROMATOGRAPHY: CAPILLARY_VOLTAGE -2.75 kV
AC$CHROMATOGRAPHY: COLUMN_NAME Acquity bridged ethyl hybrid C18 (1.7 um, 2.1 mm * 100 mm, Waters)
AC$CHROMATOGRAPHY: COLUMN_TEMPERATURE 40 C
AC$CHROMATOGRAPHY: FLOW_GRADIENT A/B = (99.5%/0.5% at 0 min, 99.5%/0.5% at 0.1 min, 20%/80% at 10 min, 0.5%/99.5% at 10.1 min, 0.5%/99.5% at 12.0 min, 99.5%/0.5% at 12.1 min, 99.5%/0.5% at 15.0 min)
AC$CHROMATOGRAPHY: FLOW_RATE 0.3 ml/min at 0 min, 0.3 ml/min at 10 min, 0.4 ml/min at 10.1 min, 0.4 ml/min at 14.4 min, 0.3 ml/min at 14.5 min
AC$CHROMATOGRAPHY: RETENTION_TIME 4.9416
AC$CHROMATOGRAPHY: SOLVENT A water including 0.1% formic acid
AC$CHROMATOGRAPHY: SOLVENT B acetonitrile including 0.1% formic acid
MS$FOCUSED_ION: PRECURSOR_TYPE [M+HCOO]-
MS$FOCUSED_ION: PRECURSOR_M/Z 912.496223504
PK$SPLASH: splash10-0udi-3900000300-60d977a9724db04b6aa4
PK$NUM_PEAK: 141
PK$PEAK: m/z int. rel.int.
  53.47845 7.0 7
  57.00037 9.0 9
  57.65439 7.0 7
  58.00688 11.0 11
  59.01275 213.0 213
  60.34792 5.0 5
  67.61443 11.0 11
  71.01251 162.0 162
  72.01801 5.0 5
  72.99085 12.0 12
  73.01711 6.0 6
  73.02789 37.0 37
  81.7828 7.0 7
  83.01418 28.0 28
  85.02703 41.0 41
  85.03376 19.0 19
  87.00765 8.0 8
  87.69342 6.0 6
  89.02349 925.0 924
  89.05157 6.0 6
  89.94811 5.0 5
  90.02454 6.0 6
  90.02973 5.0 5
  95.0125 17.0 17
  97.02673 23.0 23
  99.00906 29.0 29
  101.02357 1000.0 999
  101.82675 6.0 6
  102.02542 55.0 55
  103.03945 286.0 286
  103.05618 7.0 7
  104.03812 11.0 11
  104.04621 7.0 7
  104.67839 8.0 8
  107.03402 13.0 13
  109.02785 11.0 11
  112.0177 8.0 8
  112.80161 7.0 7
  113.02341 461.0 461
  113.03941 5.0 5
  114.02975 24.0 24
  114.65409 6.0 6
  115.0378 34.0 34
  119.03388 770.0 769
  119.16135 5.0 5
  120.03864 27.0 27
  125.01991 35.0 35
  125.02736 44.0 44
  127.03989 6.0 6
  131.01993 13.0 13
  131.03215 96.0 96
  131.03937 54.0 54
  132.03761 19.0 19
  133.05348 8.0 8
  142.64862 8.0 8
  142.97688 6.0 6
  143.03377 530.0 529
  144.03798 52.0 52
  145.04965 51.0 51
  145.06036 9.0 9
  146.05112 8.0 8
  149.04401 64.0 64
  152.51315 7.0 7
  159.02562 22.0 22
  159.03539 5.0 5
  161.04497 276.0 276
  161.79045 6.0 6
  162.04721 24.0 24
  162.05881 13.0 13
  163.06122 367.0 367
  163.07738 6.0 6
  164.06065 9.0 9
  164.07176 12.0 12
  167.03738 12.0 12
  178.17798 5.0 5
  179.05588 148.0 148
  179.07314 6.0 6
  179.74429 7.0 7
  180.05563 12.0 12
  181.05479 5.0 5
  188.379 6.0 6
  203.05376 7.0 7
  205.07135 271.0 271
  206.07155 6.0 6
  206.08339 7.0 7
  207.07535 14.0 14
  214.123 8.0 8
  233.07027 7.0 7
  235.0804 12.0 12
  247.07968 36.0 36
  247.08687 24.0 24
  256.88266 8.0 8
  287.58838 7.0 7
  289.09335 35.0 35
  332.3942 7.0 7
  339.71643 7.0 7
  366.98682 7.0 7
  372.23318 6.0 6
  433.78027 8.0 8
  478.23013 13.0 13
  492.33734 13.0 13
  492.36084 29.0 29
  493.34039 5.0 5
  493.35861 5.0 5
  507.26828 11.0 11
  522.34247 7.0 7
  522.37695 6.0 6
  557.64191 6.0 6
  558.37775 97.0 97
  558.39941 17.0 17
  558.88696 5.0 5
  559.0614 5.0 5
  559.37494 75.0 75
  559.39404 76.0 76
  560.16138 6.0 6
  560.36493 8.0 8
  560.38904 6.0 6
  561.37518 6.0 6
  562.72498 6.0 6
  572.30615 6.0 6
  639.90039 7.0 7
  704.43823 986.0 985
  704.68219 9.0 9
  705.44073 430.0 430
  705.98199 9.0 9
  706.42096 32.0 32
  706.45154 65.0 65
  707.44537 31.0 31
  708.46802 20.0 20
  720.44409 14.0 14
  721.4325 12.0 12
  722.44513 15.0 15
  784.59393 7.0 7
  817.48065 5.0 5
  848.85071 5.0 5
  866.42657 5.0 5
  866.48572 8.0 8
  867.30273 6.0 6
  867.50299 15.0 15
  900.94714 7.0 7
  906.15259 7.0 7
//
