ACCESSION: MSBNK-RIKEN-PR300686
RECORD_TITLE: Vincanidine; LC-ESI-QTOF; MS2
DATE: 2019.03.28
AUTHORS: Tetsuya Mori, Center for Sustainable Resource Science, RIKEN
LICENSE: CC BY-NC-SA
PUBLICATION: Tsugawa H., Nakabayashi R., Mori T., Yamada Y., Takahashi M., Rai A., Sugiyama R., Yamamoto H., Nakaya T., Yamazaki M., Kooke R., Bac-Molenaar JA., Oztolan-Erol N., Keurentjes JJB., Arita M., Saito K. (2019) "A cheminformatics approach to characterize metabolomes in stable-isotope-labeled organisms" Nature Methods 16(4):295-298. [doi:10.1038/s41592-019-0358-2]
COMMENT: registered in RIKEN PlaSMA
CH$NAME: Vincanidine
CH$COMPOUND_CLASS: Strychnos alkaloids
CH$FORMULA: C19H20N2O2
CH$EXACT_MASS: 308.381
CH$SMILES: C\C=C1\CN2CC[C@@]34[C@@H]2C[C@@H]1C(C=O)=C3NC1=C4C=CC=C1O
CH$IUPAC: InChI=1S/C19H20N2O2/c1-2-11-9-21-7-6-19-14-4-3-5-15(23)17(14)20-18(19)13(10-22)12(11)8-16(19)21/h2-5,10,12,16,20,23H,6-9H2,1H3/b11-2-/t12-,16-,19+/m0/s1
CH$LINK: INCHIKEY JDOFCMASVRMYJU-JYTRXFNOSA-N
AC$INSTRUMENT: LC, Waters Acquity UPLC System; MS, Waters Xevo G2 Q-Tof
AC$INSTRUMENT_TYPE: LC-ESI-QTOF
AC$MASS_SPECTROMETRY: MS_TYPE MS2
AC$MASS_SPECTROMETRY: ION_MODE POSITIVE
AC$MASS_SPECTROMETRY: COLLISION_ENERGY 6V
AC$MASS_SPECTROMETRY: DESOLVATION_GAS_FLOW 800/h
AC$MASS_SPECTROMETRY: DESOLVATION_TEMPERATURE 450 C
AC$MASS_SPECTROMETRY: IONIZATION ESI
AC$CHROMATOGRAPHY: CAPILLARY_VOLTAGE +3.00 kV
AC$CHROMATOGRAPHY: COLUMN_NAME Acquity bridged ethyl hybrid C18 (1.7 um, 2.1 mm * 100 mm, Waters)
AC$CHROMATOGRAPHY: COLUMN_TEMPERATURE 40 C
AC$CHROMATOGRAPHY: FLOW_GRADIENT A/B = (99.5%/0.5% at 0 min, 99.5%/0.5% at 0.1 min, 20%/80% at 10 min, 0.5%/99.5% at 10.1 min, 0.5%/99.5% at 12.0 min, 99.5%/0.5% at 12.1 min, 99.5%/0.5% at 15.0 min)
AC$CHROMATOGRAPHY: FLOW_RATE 0.3 ml/min at 0 min, 0.3 ml/min at 10 min, 0.4 ml/min at 10.1 min, 0.4 ml/min at 14.4 min, 0.3 ml/min at 14.5 min
AC$CHROMATOGRAPHY: RETENTION_TIME 3.37885
AC$CHROMATOGRAPHY: SOLVENT A water including 0.1% formic acid
AC$CHROMATOGRAPHY: SOLVENT B acetonitrile including 0.1% formic acid
MS$FOCUSED_ION: PRECURSOR_TYPE [M+H]+
MS$FOCUSED_ION: PRECURSOR_M/Z 309.1597543
PK$SPLASH: splash10-008a-0590000000-1ef14f68d84788dc800d
PK$NUM_PEAK: 401
PK$PEAK: m/z int. rel.int.
  68.04609 32.0 32
  68.05576 26.0 26
  69.07076 24.0 24
  70.06576 40.0 40
  76.55213 21.0 21
  80.04951 20.0 20
  90.58064 64.0 64
  91.06063 36.0 36
  93.0661 80.0 80
  93.08123 52.0 52
  95.08163 68.0 68
  95.09064 61.0 61
  103.04964 20.0 20
  105.06688 52.0 52
  105.07303 77.0 77
  107.08282 29.0 29
  108.07687 50.0 50
  110.09578 34.0 34
  110.10034 27.0 27
  115.05199 39.0 39
  116.06055 29.0 29
  117.03573 26.0 26
  117.0584 20.0 20
  117.06331 42.0 42
  118.06152 26.0 26
  118.0682 30.0 30
  119.0878 42.0 42
  119.13492 24.0 24
  120.04566 30.0 30
  120.08263 24.0 24
  122.04704 23.0 23
  122.05389 53.0 53
  122.08473 27.0 27
  122.09499 103.0 103
  128.06477 26.0 26
  129.07401 29.0 29
  130.06816 80.0 80
  131.04865 39.0 39
  131.08572 59.0 59
  131.09364 26.0 26
  132.08095 52.0 52
  133.05255 30.0 30
  133.56181 29.0 29
  134.05887 24.0 24
  134.09369 21.0 21
  136.12074 27.0 27
  138.08557 23.0 23
  140.04767 37.0 37
  144.05502 53.0 53
  144.07263 24.0 24
  146.06104 534.0 533
  147.0313 23.0 23
  147.05867 24.0 24
  147.06836 325.0 325
  147.09026 25.0 25
  147.10312 30.0 30
  150.0891 37.0 37
  152.26273 58.0 58
  153.06636 33.0 33
  154.03038 40.0 40
  154.06285 37.0 37
  154.0715 21.0 21
  155.07477 57.0 57
  156.05568 30.0 30
  156.08568 86.0 86
  157.05789 57.0 57
  157.06702 24.0 24
  157.09276 80.0 80
  158.05606 34.0 34
  159.05075 30.0 30
  159.06752 216.0 216
  159.08093 32.0 32
  160.01474 44.0 44
  160.07727 298.0 298
  161.08209 25.0 25
  162.07129 31.0 31
  162.08499 20.0 20
  162.09351 71.0 71
  165.0614 84.0 84
  166.0636 94.0 94
  166.07181 70.0 70
  167.0616 26.0 26
  167.07129 103.0 103
  167.07956 25.0 25
  168.05901 71.0 71
  169.06401 26.0 26
  169.08536 27.0 27
  170.03432 46.0 46
  170.05212 70.0 70
  170.06255 50.0 50
  171.03601 32.0 32
  171.05763 29.0 29
  171.07127 169.0 169
  172.04579 77.0 77
  172.06821 109.0 109
  172.07819 340.0 340
  173.05005 53.0 53
  173.07141 30.0 30
  173.08336 56.0 56
  174.0517 58.0 58
  174.07945 67.0 67
  174.09206 384.0 384
  175.06007 23.0 23
  175.26727 29.0 29
  175.29504 32.0 32
  176.07927 24.0 24
  176.09973 30.0 30
  176.98689 21.0 21
  179.06268 26.0 26
  179.08388 62.0 62
  180.06618 39.0 39
  181.08731 30.0 30
  181.09445 23.0 23
  181.23763 20.0 20
  182.08319 24.0 24
  182.0954 23.0 23
  182.10855 25.0 25
  183.06917 789.0 788
  183.09595 84.0 84
  184.05002 52.0 52
  184.07854 960.0 959
  184.2197 20.0 20
  185.05359 33.0 33
  185.06821 281.0 281
  185.07925 147.0 147
  186.01378 29.0 29
  186.05852 139.0 139
  186.07393 103.0 103
  186.08574 36.0 36
  186.09415 33.0 33
  186.25514 36.0 36
  187.05191 24.0 24
  187.06612 34.0 34
  187.08041 121.0 121
  187.08887 373.0 373
  187.36079 21.0 21
  188.0677 67.0 67
  188.07782 39.0 39
  188.08913 20.0 20
  192.09665 33.0 33
  194.05418 20.0 20
  194.0869 29.0 29
  194.10652 24.0 24
  195.08459 25.0 25
  195.09805 25.0 25
  196.06152 84.0 84
  196.07732 1000.0 999
  196.1144 55.0 55
  197.05286 33.0 33
  197.06548 52.0 52
  197.08179 417.0 417
  198.05688 68.0 68
  198.07518 151.0 151
  198.08604 146.0 146
  198.09746 125.0 125
  199.0554 38.0 38
  199.06664 119.0 119
  199.08026 131.0 131
  199.09453 77.0 77
  200.07393 76.0 76
  200.0957 21.0 21
  200.10649 30.0 30
  201.08006 81.0 81
  202.05939 39.0 39
  202.07996 243.0 243
  202.09077 271.0 271
  203.09624 108.0 108
  203.67612 21.0 21
  204.08157 48.0 48
  204.09346 34.0 34
  204.18027 21.0 21
  204.69749 20.0 20
  204.84378 48.0 48
  205.08124 30.0 30
  205.08994 80.0 80
  205.13219 30.0 30
  206.06967 20.0 20
  206.08304 52.0 52
  206.09686 68.0 68
  207.06252 114.0 114
  207.08131 86.0 86
  207.09221 50.0 50
  208.06749 74.0 74
  208.07823 208.0 208
  208.10748 52.0 52
  209.08118 126.0 126
  209.09447 34.0 34
  209.10992 34.0 34
  210.05365 52.0 52
  210.0849 189.0 189
  210.09334 176.0 176
  210.13739 42.0 42
  211.01178 24.0 24
  211.06287 84.0 84
  211.08846 86.0 86
  211.09766 182.0 182
  211.11142 50.0 50
  211.13069 24.0 24
  212.04909 32.0 32
  212.07248 52.0 52
  212.09346 103.0 103
  212.10356 165.0 165
  212.11444 67.0 67
  213.10345 106.0 106
  213.11745 24.0 24
  214.08928 30.0 30
  215.06236 21.0 21
  215.08243 734.0 733
  216.07834 71.0 71
  216.08951 61.0 61
  217.07852 64.0 64
  217.09483 99.0 99
  218.09708 103.0 103
  219.07399 50.0 50
  219.09767 48.0 48
  219.11946 36.0 36
  220.07919 211.0 211
  220.11774 51.0 51
  220.13507 21.0 21
  221.08025 420.0 420
  221.10696 24.0 24
  221.12395 64.0 64
  221.20329 21.0 21
  221.62299 26.0 26
  222.07156 58.0 58
  222.08801 290.0 290
  222.09901 215.0 215
  223.05707 62.0 62
  223.0704 36.0 36
  223.08307 215.0 215
  223.09834 481.0 481
  224.07976 27.0 27
  224.09622 445.0 445
  224.10748 299.0 299
  224.14551 25.0 25
  225.07428 64.0 64
  225.10402 287.0 287
  226.08887 91.0 91
  226.12271 208.0 208
  227.07973 23.0 23
  227.11761 21.0 21
  227.13185 29.0 29
  227.60965 21.0 21
  228.13197 37.0 37
  228.91122 25.0 25
  229.07663 31.0 31
  230.09222 21.0 21
  231.06891 24.0 24
  231.14423 21.0 21
  232.07121 83.0 83
  232.11819 29.0 29
  233.07617 184.0 184
  233.0874 140.0 140
  233.40837 21.0 21
  233.76762 26.0 26
  234.05806 24.0 24
  234.06628 29.0 29
  234.08582 261.0 261
  234.0976 189.0 189
  234.12801 52.0 52
  235.06906 29.0 29
  235.08298 96.0 96
  235.09016 159.0 159
  235.10622 190.0 190
  236.09863 365.0 365
  236.10913 243.0 243
  236.11815 99.0 99
  236.14059 80.0 80
  237.07481 109.0 109
  237.08853 29.0 29
  237.10652 211.0 211
  237.114 422.0 422
  238.07549 71.0 71
  238.08672 164.0 164
  238.10921 204.0 204
  238.12337 773.0 772
  239.08087 24.0 24
  239.09358 90.0 90
  239.1114 82.0 82
  239.12343 64.0 64
  239.13368 43.0 43
  239.24023 21.0 21
  240.09775 29.0 29
  240.1163 36.0 36
  241.11697 20.0 20
  242.10895 23.0 23
  244.08806 21.0 21
  245.09094 87.0 87
  246.09155 91.0 91
  246.1243 105.0 105
  246.13257 51.0 51
  247.08688 75.0 75
  247.09656 102.0 102
  247.10651 75.0 75
  247.12381 26.0 26
  247.77936 29.0 29
  248.07123 69.0 69
  248.08472 75.0 75
  248.10507 234.0 234
  248.12764 36.0 36
  249.06914 33.0 33
  249.08371 105.0 105
  249.10638 160.0 160
  249.11771 84.0 84
  249.12761 49.0 49
  250.04535 29.0 29
  250.0981 88.0 88
  250.12224 222.0 222
  251.07707 20.0 20
  251.09561 270.0 270
  251.12161 213.0 213
  251.13867 56.0 56
  251.76816 20.0 20
  252.06712 23.0 23
  252.0945 106.0 106
  252.1087 48.0 48
  252.14078 499.0 499
  252.18224 24.0 24
  253.08565 71.0 71
  253.12706 72.0 72
  253.1395 120.0 120
  254.08043 29.0 29
  254.09819 56.0 56
  254.11542 145.0 145
  254.13174 56.0 56
  254.14702 55.0 55
  254.15695 20.0 20
  255.09735 27.0 27
  255.11371 139.0 139
  255.6335 20.0 20
  256.11911 43.0 43
  256.12766 38.0 38
  257.11807 51.0 51
  258.07977 26.0 26
  258.09003 20.0 20
  259.09909 95.0 95
  259.11234 32.0 32
  260.10397 24.0 24
  261.09567 107.0 107
  261.11496 50.0 50
  262.09692 80.0 80
  262.12213 438.0 438
  262.13962 39.0 39
  263.09744 77.0 77
  263.10928 89.0 89
  263.12842 59.0 59
  263.14157 21.0 21
  263.22668 24.0 24
  264.03113 23.0 23
  264.10474 88.0 88
  264.13458 316.0 316
  264.14703 118.0 118
  265.12265 23.0 23
  265.14233 144.0 144
  265.15366 65.0 65
  266.10471 135.0 135
  266.12421 182.0 182
  266.14044 75.0 75
  266.77829 24.0 24
  267.12003 52.0 52
  267.14169 82.0 82
  267.15463 169.0 169
  268.1348 29.0 29
  269.35172 21.0 21
  274.12579 121.0 121
  275.10983 102.0 102
  275.12668 56.0 56
  276.09595 30.0 30
  276.11594 31.0 31
  276.13724 77.0 77
  277.12936 25.0 25
  277.14142 45.0 45
  277.31934 29.0 29
  278.10696 29.0 29
  278.14496 30.0 30
  278.73572 30.0 30
  279.09918 20.0 20
  279.11496 88.0 88
  279.14371 23.0 23
  280.10876 52.0 52
  280.13388 223.0 223
  280.15509 57.0 57
  280.17047 26.0 26
  280.19849 21.0 21
  281.13028 51.0 51
  281.1438 49.0 49
  281.1593 116.0 116
  281.17117 27.0 27
  282.11914 27.0 27
  282.15659 20.0 20
  282.17752 44.0 44
  283.16794 43.0 43
  291.1478 127.0 127
  292.12521 20.0 20
  292.13748 29.0 29
  293.16153 20.0 20
  293.85529 31.0 31
  295.08447 25.0 25
  309.1355 20.0 20
  309.15341 347.0 347
  309.1618 855.0 854
//
