ACCESSION: MSBNK-RIKEN-PR310444
RECORD_TITLE: Jusmicranthin ethyl ether; LC-ESI-QTOF; MS2
DATE: 2019.03.28
AUTHORS: Tetsuya Mori, Center for Sustainable Resource Science, RIKEN
LICENSE: CC BY-NC-SA
PUBLICATION: Tsugawa H., Nakabayashi R., Mori T., Yamada Y., Takahashi M., Rai A., Sugiyama R., Yamamoto H., Nakaya T., Yamazaki M., Kooke R., Bac-Molenaar JA., Oztolan-Erol N., Keurentjes JJB., Arita M., Saito K. (2019) "A cheminformatics approach to characterize metabolomes in stable-isotope-labeled organisms" Nature Methods 16(4):295-298. [doi:10.1038/s41592-019-0358-2]
COMMENT: Annotation level-1
CH$NAME: Jusmicranthin ethyl ether
CH$COMPOUND_CLASS: Lignols
CH$FORMULA: C22H16O7
CH$EXACT_MASS: 392.363
CH$SMILES: CCOC1OC(=O)C2=C1C(C1=CC3=C(OCO3)C=C1)=C1C3=C(OCO3)C=CC1=C2
CH$IUPAC: InChI=1S/C22H16O7/c1-2-24-22-19-13(21(23)29-22)7-11-4-6-15-20(28-10-26-15)18(11)17(19)12-3-5-14-16(8-12)27-9-25-14/h3-8,22H,2,9-10H2,1H3
CH$LINK: INCHIKEY JJXCEOLNFSCNNE-UHFFFAOYSA-N
AC$INSTRUMENT: LC, Waters Acquity UPLC System; MS, Waters Xevo G2 Q-Tof
AC$INSTRUMENT_TYPE: LC-ESI-QTOF
AC$MASS_SPECTROMETRY: MS_TYPE MS2
AC$MASS_SPECTROMETRY: ION_MODE POSITIVE
AC$MASS_SPECTROMETRY: COLLISION_ENERGY 6V
AC$MASS_SPECTROMETRY: DESOLVATION_GAS_FLOW 800/h
AC$MASS_SPECTROMETRY: DESOLVATION_TEMPERATURE 450 C
AC$MASS_SPECTROMETRY: IONIZATION ESI
AC$CHROMATOGRAPHY: CAPILLARY_VOLTAGE +3.00 kV
AC$CHROMATOGRAPHY: COLUMN_NAME Acquity bridged ethyl hybrid C18 (1.7 um, 2.1 mm * 100 mm, Waters)
AC$CHROMATOGRAPHY: COLUMN_TEMPERATURE 40 C
AC$CHROMATOGRAPHY: FLOW_GRADIENT A/B = (99.5%/0.5% at 0 min, 99.5%/0.5% at 0.1 min, 20%/80% at 10 min, 0.5%/99.5% at 10.1 min, 0.5%/99.5% at 12.0 min, 99.5%/0.5% at 12.1 min, 99.5%/0.5% at 15.0 min)
AC$CHROMATOGRAPHY: FLOW_RATE 0.3 ml/min at 0 min, 0.3 ml/min at 10 min, 0.4 ml/min at 10.1 min, 0.4 ml/min at 14.4 min, 0.3 ml/min at 14.5 min
AC$CHROMATOGRAPHY: RETENTION_TIME 8.82
AC$CHROMATOGRAPHY: SOLVENT A water including 0.1% formic acid
AC$CHROMATOGRAPHY: SOLVENT B acetonitrile including 0.1% formic acid
MS$FOCUSED_ION: PRECURSOR_TYPE [M+H]+
MS$FOCUSED_ION: PRECURSOR_M/Z 393.09688
PK$SPLASH: splash10-0002-0049000000-62aa24d0fe6971c338fc
PK$NUM_PEAK: 176
PK$PEAK: m/z int. rel.int.
  111.46046 28.0 2
  112.93472 21.0 2
  140.84357 28.0 2
  145.75713 33.0 2
  151.06161 19.0 1
  155.78816 23.0 2
  164.95711 20.0 1
  165.74309 17.0 1
  176.06329 59.0 4
  177.06175 78.0 6
  177.07927 70.0 5
  178.07259 48.0 3
  178.25781 20.0 1
  183.39354 20.0 1
  184.64975 17.0 1
  188.43182 18.0 1
  189.0679 52.0 4
  189.07719 81.0 6
  189.08884 22.0 2
  189.95085 27.0 2
  190.03548 20.0 1
  190.07524 17.0 1
  192.05151 28.0 2
  197.87379 24.0 2
  199.71016 28.0 2
  204.69022 33.0 2
  205.04576 30.0 2
  205.0661 2326.0 167
  205.08063 71.0 5
  205.49443 17.0 1
  205.67609 24.0 2
  205.8555 19.0 1
  206.06822 498.0 36
  206.13757 20.0 1
  207.05437 18.0 1
  207.08554 51.0 4
  215.08087 18.0 1
  217.06985 67.0 5
  218.07027 53.0 4
  218.07928 39.0 3
  219.7856 31.0 2
  229.90021 26.0 2
  232.05194 69.0 5
  232.06148 32.0 2
  233.02135 20.0 1
  233.0374 61.0 4
  233.06024 1770.0 127
  234.05322 134.0 10
  234.06499 296.0 21
  235.06314 115.0 8
  235.07773 20.0 1
  235.08725 23.0 2
  236.07346 17.0 1
  236.88849 28.0 2
  238.79767 22.0 2
  241.42307 20.0 1
  243.04097 19.0 1
  244.05043 20.0 1
  245.05157 26.0 2
  246.06494 111.0 8
  246.08087 20.0 1
  247.04953 25.0 2
  248.03346 20.0 1
  249.06595 31.0 2
  251.15945 20.0 1
  257.05389 34.0 2
  260.03174 18.0 1
  260.04318 49.0 4
  260.05341 44.0 3
  260.67719 20.0 1
  261.00577 55.0 4
  261.02927 77.0 6
  261.05536 3862.0 277
  261.0863 21.0 2
  261.74542 32.0 2
  262.05853 879.0 63
  262.08847 27.0 2
  263.0657 124.0 9
  263.09064 45.0 3
  263.1705 25.0 2
  264.05264 20.0 1
  264.0639 21.0 2
  266.66449 25.0 2
  268.65353 26.0 2
  270.42801 18.0 1
  274.07944 22.0 2
  274.10263 17.0 1
  274.67877 21.0 2
  275.05862 25.0 2
  276.03479 35.0 3
  276.04382 21.0 2
  276.07617 30.0 2
  277.04837 28.0 2
  279.61807 25.0 2
  285.06821 25.0 2
  285.33496 29.0 2
  289.01331 17.0 1
  289.05154 1599.0 115
  290.05457 456.0 33
  290.06796 117.0 8
  290.34927 24.0 2
  291.0347 17.0 1
  291.05569 219.0 16
  291.06906 392.0 28
  291.91153 21.0 2
  292.05487 17.0 1
  292.0668 65.0 5
  293.06653 19.0 1
  297.63919 30.0 2
  299.91867 21.0 2
  303.06583 28.0 2
  303.08456 21.0 2
  303.31369 22.0 2
  304.06189 20.0 1
  304.07758 122.0 9
  305.04361 65.0 5
  305.07986 45.0 3
  305.23001 18.0 1
  306.04218 37.0 3
  308.68643 33.0 2
  309.07458 24.0 2
  316.78085 20.0 1
  316.99057 36.0 3
  317.00177 54.0 4
  317.04413 4198.0 301
  317.13116 17.0 1
  317.58942 18.0 1
  317.81195 27.0 2
  318.04965 1036.0 74
  318.465 18.0 1
  318.62976 23.0 2
  319.05533 87.0 6
  319.06631 91.0 7
  320.02399 30.0 2
  320.05054 48.0 3
  320.07947 123.0 9
  321.04391 32.0 2
  321.07333 20.0 1
  322.05676 32.0 2
  325.60022 31.0 2
  329.45816 68.0 5
  330.14728 23.0 2
  331.04654 57.0 4
  332.0575 35.0 3
  332.93066 20.0 1
  333.03543 21.0 2
  335.0585 21.0 2
  339.08621 20.0 1
  345.02454 36.0 3
  346.0014 17.0 1
  346.44318 21.0 2
  346.55582 28.0 2
  346.88516 17.0 1
  346.93823 21.0 2
  346.96707 30.0 2
  347.01135 23.0 2
  347.05508 13946.0 999
  347.09445 19.0 1
  347.10867 57.0 4
  348.05777 3935.0 282
  348.21277 21.0 2
  349.04346 167.0 12
  349.05988 439.0 31
  350.04825 64.0 5
  353.16888 25.0 2
  353.27914 19.0 1
  354.97684 26.0 2
  355.71085 21.0 2
  363.04266 44.0 3
  363.05783 78.0 6
  364.08725 68.0 5
  364.10413 21.0 2
  376.08896 26.0 2
  376.10162 27.0 2
  392.09082 1270.0 91
  393.09378 2009.0 144
//
