ACCESSION: MSBNK-RIKEN-PR303909
RECORD_TITLE: Silychrystin; LC-ESI-QTOF; MS2
DATE: 2019.03.28
AUTHORS: Tetsuya Mori, Center for Sustainable Resource Science, RIKEN
LICENSE: CC BY-NC-SA
PUBLICATION: Tsugawa H., Nakabayashi R., Mori T., Yamada Y., Takahashi M., Rai A., Sugiyama R., Yamamoto H., Nakaya T., Yamazaki M., Kooke R., Bac-Molenaar JA., Oztolan-Erol N., Keurentjes JJB., Arita M., Saito K. (2019) "A cheminformatics approach to characterize metabolomes in stable-isotope-labeled organisms" Nature Methods 16(4):295-298. [doi:10.1038/s41592-019-0358-2]
COMMENT: registered in RIKEN PlaSMA
CH$NAME: Silychrystin
CH$COMPOUND_CLASS: 2-arylbenzofuran flavonoids
CH$FORMULA: C25H22O10
CH$EXACT_MASS: 482.441
CH$SMILES: COC1=C(O)C=CC(=C1)[C@@H]1OC2=C(C=C(C=C2O)[C@H]2OC3=CC(O)=CC(O)=C3C(=O)[C@@H]2O)[C@H]1CO
CH$IUPAC: InChI=1S/C25H22O10/c1-33-18-6-10(2-3-15(18)28)23-14(9-26)13-4-11(5-17(30)25(13)35-23)24-22(32)21(31)20-16(29)7-12(27)8-19(20)34-24/h2-8,14,22-24,26-30,32H,9H2,1H3/t14-,22+,23+,24-/m1/s1
CH$LINK: INCHIKEY BMLIIPOXVWESJG-LMBCONBSSA-N
AC$INSTRUMENT: LC, Waters Acquity UPLC System; MS, Waters Xevo G2 Q-Tof
AC$INSTRUMENT_TYPE: LC-ESI-QTOF
AC$MASS_SPECTROMETRY: MS_TYPE MS2
AC$MASS_SPECTROMETRY: ION_MODE POSITIVE
AC$MASS_SPECTROMETRY: COLLISION_ENERGY 6V
AC$MASS_SPECTROMETRY: DESOLVATION_GAS_FLOW 800/h
AC$MASS_SPECTROMETRY: DESOLVATION_TEMPERATURE 450 C
AC$MASS_SPECTROMETRY: IONIZATION ESI
AC$CHROMATOGRAPHY: CAPILLARY_VOLTAGE +3.00 kV
AC$CHROMATOGRAPHY: COLUMN_NAME Acquity bridged ethyl hybrid C18 (1.7 um, 2.1 mm * 100 mm, Waters)
AC$CHROMATOGRAPHY: COLUMN_TEMPERATURE 40 C
AC$CHROMATOGRAPHY: FLOW_GRADIENT A/B = (99.5%/0.5% at 0 min, 99.5%/0.5% at 0.1 min, 20%/80% at 10 min, 0.5%/99.5% at 10.1 min, 0.5%/99.5% at 12.0 min, 99.5%/0.5% at 12.1 min, 99.5%/0.5% at 15.0 min)
AC$CHROMATOGRAPHY: FLOW_RATE 0.3 ml/min at 0 min, 0.3 ml/min at 10 min, 0.4 ml/min at 10.1 min, 0.4 ml/min at 14.4 min, 0.3 ml/min at 14.5 min
AC$CHROMATOGRAPHY: RETENTION_TIME 4.95995
AC$CHROMATOGRAPHY: SOLVENT A water including 0.1% formic acid
AC$CHROMATOGRAPHY: SOLVENT B acetonitrile including 0.1% formic acid
MS$FOCUSED_ION: PRECURSOR_TYPE [M+H]+
MS$FOCUSED_ION: PRECURSOR_M/Z 483.1285734
PK$SPLASH: splash10-0udr-0442900000-b8a207cbbb496e3ea280
PK$NUM_PEAK: 238
PK$PEAK: m/z int. rel.int.
  67.02079 9.0 9
  107.04741 11.0 11
  111.00813 11.0 11
  112.04397 15.0 15
  120.05792 9.0 9
  122.03249 12.0 12
  123.04547 26.0 26
  124.04755 10.0 10
  127.05191 11.0 11
  130.29333 13.0 13
  137.04366 10.0 10
  137.05933 279.0 279
  138.04797 13.0 13
  138.06044 23.0 23
  138.07565 12.0 12
  143.0513 12.0 12
  143.40665 10.0 10
  147.04131 9.0 9
  148.05064 21.0 21
  149.01569 9.0 9
  149.02374 50.0 50
  149.05833 11.0 11
  151.03336 10.0 10
  151.04086 14.0 14
  153.01628 415.0 415
  153.02458 135.0 135
  154.01952 33.0 33
  159.03517 12.0 12
  161.06134 20.0 20
  162.06923 9.0 9
  164.0316 12.0 12
  166.07187 11.0 11
  167.03546 50.0 50
  167.04622 13.0 13
  172.9182 12.0 12
  175.04047 10.0 10
  176.03149 18.0 18
  179.03889 16.0 16
  181.00259 11.0 11
  181.01822 10.0 10
  181.06842 12.0 12
  183.02864 12.0 12
  187.07617 10.0 10
  191.09999 11.0 11
  193.06021 12.0 12
  194.05981 11.0 11
  194.07591 12.0 12
  195.02931 126.0 126
  195.06866 10.0 10
  196.02501 12.0 12
  196.03682 9.0 9
  196.08746 10.0 10
  197.06345 11.0 11
  198.06763 11.0 11
  201.04118 13.0 13
  201.05287 10.0 10
  203.0425 10.0 10
  205.0652 36.0 36
  209.4982 14.0 14
  210.06906 24.0 24
  211.0668 10.0 10
  213.04834 12.0 12
  213.06041 9.0 9
  214.06656 11.0 11
  221.05971 39.0 39
  221.07126 17.0 17
  223.08012 20.0 20
  224.08345 12.0 12
  226.05757 11.0 11
  226.96321 10.0 10
  227.03096 11.0 11
  227.07404 9.0 9
  229.05446 24.0 24
  229.09132 10.0 10
  235.06474 9.0 9
  235.07742 13.0 13
  236.03204 9.0 9
  236.08731 14.0 14
  237.0511 10.0 10
  237.06154 10.0 10
  238.05573 14.0 14
  239.06955 45.0 45
  240.07355 11.0 11
  240.08534 10.0 10
  241.0831 11.0 11
  249.05182 10.0 10
  249.06219 9.0 9
  251.06209 13.0 13
  251.07597 27.0 27
  253.05165 15.0 15
  253.07332 9.0 9
  253.08545 31.0 31
  253.09332 21.0 21
  253.11208 9.0 9
  254.05717 10.0 10
  255.06989 34.0 34
  257.04681 36.0 36
  257.05655 20.0 20
  257.07834 11.0 11
  258.05878 9.0 9
  258.07269 10.0 10
  258.09186 17.0 17
  259.08682 35.0 35
  259.10135 67.0 67
  260.09103 9.0 9
  263.06924 22.0 22
  264.0704 10.0 10
  265.06433 23.0 23
  265.0882 11.0 11
  268.06616 16.0 16
  268.84625 11.0 11
  269.08685 10.0 10
  270.06168 11.0 11
  270.08377 16.0 16
  270.09381 19.0 19
  271.06177 9.0 9
  271.09326 75.0 75
  271.10767 64.0 64
  277.05859 21.0 21
  279.05634 11.0 11
  279.0712 9.0 9
  281.03647 9.0 9
  281.04718 11.0 11
  281.07797 22.0 22
  282.08292 14.0 14
  283.05154 51.0 51
  283.06372 88.0 88
  283.09647 51.0 51
  285.03943 10.0 10
  285.05096 32.0 32
  287.57477 9.0 9
  289.10391 20.0 20
  291.08484 12.0 12
  291.10422 15.0 15
  293.07095 10.0 10
  293.09811 9.0 9
  294.0419 12.0 12
  295.05807 20.0 20
  297.10184 18.0 18
  297.6601 12.0 12
  299.09103 12.0 12
  300.05386 18.0 18
  300.09503 11.0 11
  300.41934 13.0 13
  300.90561 9.0 9
  301.09991 12.0 12
  302.07767 18.0 18
  309.077 92.0 92
  310.07684 15.0 15
  310.08905 10.0 10
  311.03668 19.0 19
  311.05045 29.0 29
  311.06943 70.0 70
  312.05353 10.0 10
  313.07477 10.0 10
  321.10452 9.0 9
  321.34293 9.0 9
  322.07965 10.0 10
  323.04364 10.0 10
  327.08429 22.0 22
  327.09995 20.0 20
  328.09531 20.0 20
  329.0665 19.0 19
  329.08167 11.0 11
  331.09006 10.0 10
  340.09213 10.0 10
  341.07867 13.0 13
  341.11288 9.0 9
  344.40759 10.0 10
  351.10242 11.0 11
  352.09198 9.0 9
  358.1113 14.0 14
  359.09937 12.0 12
  361.09906 9.0 9
  361.12823 11.0 11
  363.08389 12.0 12
  370.07837 11.0 11
  375.07697 11.0 11
  376.08594 11.0 11
  379.10406 29.0 29
  379.12411 10.0 10
  380.10501 12.0 12
  380.24838 13.0 13
  381.09509 9.0 9
  387.08951 12.0 12
  388.09259 10.0 10
  389.09024 38.0 38
  389.10898 14.0 14
  390.10492 10.0 10
  391.11475 11.0 11
  398.07916 11.0 11
  399.65936 10.0 10
  403.08224 14.0 14
  406.10361 9.0 9
  407.11459 247.0 247
  408.1105 67.0 67
  409.12442 11.0 11
  413.08521 12.0 12
  417.09671 9.0 9
  418.08621 10.0 10
  418.10669 35.0 35
  419.10934 23.0 23
  419.13306 10.0 10
  420.08191 12.0 12
  420.10419 35.0 35
  420.14395 12.0 12
  423.33212 11.0 11
  424.10941 11.0 11
  433.96347 9.0 9
  435.05768 11.0 11
  435.10837 632.0 631
  436.06677 10.0 10
  436.10162 60.0 60
  436.1203 101.0 101
  437.12097 62.0 62
  441.92236 11.0 11
  447.08871 9.0 9
  447.10382 11.0 11
  453.06235 10.0 10
  453.11868 1000.0 999
  453.22049 11.0 11
  453.4216 11.0 11
  454.1185 146.0 146
  454.1329 113.0 113
  454.25204 11.0 11
  455.12256 45.0 45
  455.13794 15.0 15
  455.22049 10.0 10
  456.11182 9.0 9
  464.09171 10.0 10
  464.10916 10.0 10
  465.09711 20.0 20
  465.11868 32.0 32
  466.09961 9.0 9
  466.11761 28.0 28
  483.06058 9.0 9
  483.11057 59.0 59
  483.13199 367.0 367
//
