ACCESSION: MSBNK-RIKEN-PR100831
RECORD_TITLE: 3-Indoxyl sulfate; LC-ESI-QTOF; MS2; CE:Ramp 5-60 V; [M-H]-
DATE: 2016.01.19 (Created 2009.09.10, modified 2011.05.06)
AUTHORS: Matsuda F, Suzuki M, Sawada Y, Plant Science Center, RIKEN.
LICENSE: CC BY-SA
COMMENT: Acquisition and generation of the data is financially supported in part by CREST/JST.
CH$NAME: 3-Indoxylsulfate
CH$NAME: IOS
CH$NAME: 3-Indolyl Sulfate
CH$NAME: Urinary indican
CH$NAME: indol-3-yl sulfate
CH$NAME: 3-Indoxylsulfuric acid
CH$NAME: 3-Sulfooxy-1H-Indole
CH$NAME: 3-Indoxyl sulfate
CH$COMPOUND_CLASS: Indole
CH$FORMULA: C8H7NO4S
CH$EXACT_MASS: 213.00958
CH$SMILES: C1=CC=C2C(=C1)C(=CN2)OS(=O)(=O)O
CH$IUPAC: InChI=1S/C8H7NO4S/c10-14(11,12)13-8-5-9-7-4-2-1-3-6(7)8/h1-5,9H,(H,10,11,12)
CH$LINK: CAS 487-94-5
CH$LINK: CHEMSPIDER 9840
CH$LINK: PUBCHEM CID:10258
CH$LINK: INCHIKEY BXFFHSIDQOFMLE-UHFFFAOYSA-N
CH$LINK: COMPTOX DTXSID30928203
AC$INSTRUMENT: UPLC Q-Tof Premier, Waters
AC$INSTRUMENT_TYPE: LC-ESI-QTOF
AC$MASS_SPECTROMETRY: MS_TYPE MS2
AC$MASS_SPECTROMETRY: ION_MODE NEGATIVE
AC$MASS_SPECTROMETRY: COLLISION_ENERGY Ramp 5-60 V
AC$MASS_SPECTROMETRY: DATAFORMAT Continuum
AC$MASS_SPECTROMETRY: DATE 2008.07.29
AC$MASS_SPECTROMETRY: DESOLVATION_GAS_FLOW 600.0 L/Hr
AC$MASS_SPECTROMETRY: DESOLVATION_TEMPERATURE 420 C
AC$MASS_SPECTROMETRY: FRAGMENTATION_METHOD LOW-ENERGY CID
AC$MASS_SPECTROMETRY: IONIZATION ESI
AC$MASS_SPECTROMETRY: SCANNING 1.0 sec/scan (m/z = 50-1000)
AC$MASS_SPECTROMETRY: SOURCE_TEMPERATURE 120 C
AC$CHROMATOGRAPHY: CAPILLARY_VOLTAGE 3.0 kV
AC$CHROMATOGRAPHY: SAMPLING_CONE 23.0 V
AC$CHROMATOGRAPHY: SOLVENT A CH3CN(0.1%HCOOH)
AC$CHROMATOGRAPHY: SOLVENT B H2O(0.1%HCOOH)
MS$FOCUSED_ION: PRECURSOR_M/Z 212.00178
MS$FOCUSED_ION: PRECURSOR_TYPE [M-H]-
PK$SPLASH: splash10-01si-9350000000-7227b62421572ea4e5f7
PK$NUM_PEAK: 4
PK$PEAK: m/z int. rel.int.
  79.9588 1647 999
  80.9665 871.5 529
  132.0460 878.7 533
  212.0018 1615 980
//
