ACCESSION: MSBNK-RIKEN-PR303336
RECORD_TITLE: NP-000004(11); LC-ESI-QTOF; MS2
DATE: 2019.03.28
AUTHORS: Tetsuya Mori, Center for Sustainable Resource Science, RIKEN
LICENSE: CC BY-NC-SA
PUBLICATION: Tsugawa H., Nakabayashi R., Mori T., Yamada Y., Takahashi M., Rai A., Sugiyama R., Yamamoto H., Nakaya T., Yamazaki M., Kooke R., Bac-Molenaar JA., Oztolan-Erol N., Keurentjes JJB., Arita M., Saito K. (2019) "A cheminformatics approach to characterize metabolomes in stable-isotope-labeled organisms" Nature Methods 16(4):295-298. [doi:10.1038/s41592-019-0358-2]
COMMENT: registered in RIKEN PlaSMA
CH$NAME: NP-000004(11)
CH$COMPOUND_CLASS: Flavonoid 8-C-glycosides
CH$FORMULA: C26H28O14
CH$EXACT_MASS: 564.496
CH$SMILES: OC[C@@H]1OC([C@H](O)[C@H]1O)C1=C2OC(=CC(=O)C2=C(O)C(C2O[C@H](CO)[C@@H](O)[C@H](O)[C@H]2O)=C1O)C1=CC=C(O)C=C1
CH$IUPAC: InChI=1S/C26H28O14/c27-6-12-17(31)21(35)23(37)25(39-12)15-19(33)14-10(30)5-11(8-1-3-9(29)4-2-8)38-24(14)16(20(15)34)26-22(36)18(32)13(7-28)40-26/h1-5,12-13,17-18,21-23,25-29,31-37H,6-7H2/t12-,13+,17-,18+,21+,22-,23-,25?,26?/m1/s1
CH$LINK: INCHIKEY TUIJPUWSXVFWSH-FBMRRHFKSA-N
AC$INSTRUMENT: LC, Waters Acquity UPLC System; MS, Waters Xevo G2 Q-Tof
AC$INSTRUMENT_TYPE: LC-ESI-QTOF
AC$MASS_SPECTROMETRY: MS_TYPE MS2
AC$MASS_SPECTROMETRY: ION_MODE POSITIVE
AC$MASS_SPECTROMETRY: COLLISION_ENERGY 6V
AC$MASS_SPECTROMETRY: DESOLVATION_GAS_FLOW 800/h
AC$MASS_SPECTROMETRY: DESOLVATION_TEMPERATURE 450 C
AC$MASS_SPECTROMETRY: IONIZATION ESI
AC$CHROMATOGRAPHY: CAPILLARY_VOLTAGE +3.00 kV
AC$CHROMATOGRAPHY: COLUMN_NAME Acquity bridged ethyl hybrid C18 (1.7 um, 2.1 mm * 100 mm, Waters)
AC$CHROMATOGRAPHY: COLUMN_TEMPERATURE 40 C
AC$CHROMATOGRAPHY: FLOW_GRADIENT A/B = (99.5%/0.5% at 0 min, 99.5%/0.5% at 0.1 min, 20%/80% at 10 min, 0.5%/99.5% at 10.1 min, 0.5%/99.5% at 12.0 min, 99.5%/0.5% at 12.1 min, 99.5%/0.5% at 15.0 min)
AC$CHROMATOGRAPHY: FLOW_RATE 0.3 ml/min at 0 min, 0.3 ml/min at 10 min, 0.4 ml/min at 10.1 min, 0.4 ml/min at 14.4 min, 0.3 ml/min at 14.5 min
AC$CHROMATOGRAPHY: RETENTION_TIME 3.55055
AC$CHROMATOGRAPHY: SOLVENT A water including 0.1% formic acid
AC$CHROMATOGRAPHY: SOLVENT B acetonitrile including 0.1% formic acid
MS$FOCUSED_ION: PRECURSOR_TYPE [M+H]+
MS$FOCUSED_ION: PRECURSOR_M/Z 565.155182
PK$SPLASH: splash10-014i-0000090000-44dd482cc1f4dca7a10d
PK$NUM_PEAK: 19
PK$PEAK: m/z int. rel.int.
  409.09662 8.0 8
  427.09973 23.0 23
  428.10223 17.0 17
  428.11478 6.0 6
  475.13885 5.0 5
  499.10425 6.0 6
  499.13742 6.0 6
  500.13275 10.0 10
  511.12125 30.0 30
  529.0957 5.0 5
  529.11896 12.0 12
  529.14056 17.0 17
  530.14612 9.0 9
  547.14105 74.0 74
  548.13116 11.0 11
  549.15717 5.0 5
  565.07611 10.0 10
  565.10675 13.0 13
  565.1557 1000.0 999
//
