ACCESSION: MSBNK-RIKEN-PR040257
RECORD_TITLE: Malvidin-3-O-beta-D-galactoside; LC-ESI-QTOF; MS2; CE:Ramp 5-60 V; [M-2H+H2O]-
DATE: 2016.01.19 (Created 2008.04.25, modified 2011.05.06)
AUTHORS: Matsuda F, Plant Science Center, RIKEN.
LICENSE: CC BY-SA
CH$NAME: Malvidin-3-galactoside
CH$NAME: Primulin
CH$NAME: (2S,3R,4S,5S,6R)-2-[5,7-dihydroxy-2-(4-hydroxy-3,5-dimethoxy-phenyl)chromen-3-yl]oxy-6-(hydroxymethyl)oxane-3,4,5-triol
CH$NAME: Malvidin-3-O-beta-D-galactoside
CH$COMPOUND_CLASS: Natural Product
CH$FORMULA: [C23H25O12]+
CH$EXACT_MASS: 493.13460
CH$SMILES: OCC(O1)C(O)C(O)C(O)C1Oc(c3)c([o+1]c(c4)c(c(O)cc(O)4)3)c(c2)cc(OC)c(O)c(OC)2
CH$IUPAC: InChI=1S/C23H24O12/c1-31-14-3-9(4-15(32-2)18(14)27)22-16(7-11-12(26)5-10(25)6-13(11)33-22)34-23-21(30)20(29)19(28)17(8-24)35-23/h3-7,17,19-21,23-24,28-30H,8H2,1-2H3,(H2-,25,26,27)/p+1/t17-,19+,20+,21-,23-/m1/s1
CH$LINK: CAS 30113-37-2
CH$LINK: PUBCHEM CID:5484292
CH$LINK: INCHIKEY PXUQTDZNOHRWLI-XSEKTIEYSA-O
AC$INSTRUMENT: UPLC Q-Tof Premier, Waters
AC$INSTRUMENT_TYPE: LC-ESI-QTOF
AC$MASS_SPECTROMETRY: MS_TYPE MS2
AC$MASS_SPECTROMETRY: ION_MODE NEGATIVE
AC$MASS_SPECTROMETRY: COLLISION_ENERGY Ramp 5-60 V
AC$MASS_SPECTROMETRY: DATAFORMAT Continuum
AC$MASS_SPECTROMETRY: DESOLVATION_GAS_FLOW 600.0 L/Hr
AC$MASS_SPECTROMETRY: DESOLVATION_TEMPERATURE 400 C
AC$MASS_SPECTROMETRY: FRAGMENTATION_METHOD LOW-ENERGY CID
AC$MASS_SPECTROMETRY: IONIZATION ESI
AC$MASS_SPECTROMETRY: SCANNING 1.0 sec/scan (m/z = 50-1000)
AC$MASS_SPECTROMETRY: SOURCE_TEMPERATURE 120 C
AC$CHROMATOGRAPHY: CAPILLARY_VOLTAGE 3.0 kV
AC$CHROMATOGRAPHY: SAMPLING_CONE 23.0 V
AC$CHROMATOGRAPHY: SOLVENT A CH3CN(0.1%HCOOH)
AC$CHROMATOGRAPHY: SOLVENT B H2O(0.1%HCOOH)
MS$FOCUSED_ION: FULL_SCAN_FRAGMENT_ION_PEAK 509.1
MS$FOCUSED_ION: ION_TYPE [M-2H+H2O]-
MS$DATA_PROCESSING: WHOLE MassLynx 4.1
PK$SPLASH: splash10-0a6s-0729060000-f41c1bbb1fb88cf7e30d
PK$NUM_PEAK: 24
PK$PEAK: m/z int. rel.int.
  121.0290 253.4 38
  137.0240 926.5 139
  138.0317 421.9 63
  149.0240 2326 349
  152.0479 287.3 43
  164.0117 417.3 62
  165.0185 911.4 137
  166.0267 249.1 37
  192.0058 674.3 101
  193.0138 442.4 66
  199.0398 213.5 32
  227.0346 310.4 46
  243.0298 290.2 43
  261.0766 221.6 33
  271.0253 413.7 62
  299.0195 1698 255
  314.0430 1664 250
  329.0678 4820 724
  330.0713 205.3 30
  346.0696 546.7 82
  347.0764 585.5 88
  355.0675 1199 180
  509.1295 6644 999
  510.1332 324.7 48
//
