ACCESSION: MSBNK-RIKEN-PR305944
RECORD_TITLE: Cyanidin-3-O-glucoside; LC-ESI-QTOF; MS2
DATE: 2019.03.28
AUTHORS: Tetsuya Mori, Center for Sustainable Resource Science, RIKEN
LICENSE: CC BY-NC-SA
PUBLICATION: Tsugawa H., Nakabayashi R., Mori T., Yamada Y., Takahashi M., Rai A., Sugiyama R., Yamamoto H., Nakaya T., Yamazaki M., Kooke R., Bac-Molenaar JA., Oztolan-Erol N., Keurentjes JJB., Arita M., Saito K. (2019) "A cheminformatics approach to characterize metabolomes in stable-isotope-labeled organisms" Nature Methods 16(4):295-298. [doi:10.1038/s41592-019-0358-2]
COMMENT: registered in RIKEN PlaSMA
CH$NAME: Cyanidin-3-O-glucoside
CH$COMPOUND_CLASS: Anthocyanidin-3-O-glycosides
CH$FORMULA: [C21H21O11]+
CH$EXACT_MASS: 449.388
CH$SMILES: OCC1OC(OC2=C([O+]=C3C=C(O)C=C(O)C3=C2)C2=CC(O)=C(O)C=C2)C(O)C(O)C1O
CH$IUPAC: InChI=1S/C21H20O11/c22-7-16-17(27)18(28)19(29)21(32-16)31-15-6-10-12(25)4-9(23)5-14(10)30-20(15)8-1-2-11(24)13(26)3-8/h1-6,16-19,21-22,27-29H,7H2,(H3-,23,24,25,26)/p+1
CH$LINK: INCHIKEY RKWHWFONKJEUEF-UHFFFAOYSA-O
AC$INSTRUMENT: LC, Waters Acquity UPLC System; MS, Waters Xevo G2 Q-Tof
AC$INSTRUMENT_TYPE: LC-ESI-QTOF
AC$MASS_SPECTROMETRY: MS_TYPE MS2
AC$MASS_SPECTROMETRY: ION_MODE NEGATIVE
AC$MASS_SPECTROMETRY: COLLISION_ENERGY 6V
AC$MASS_SPECTROMETRY: DESOLVATION_GAS_FLOW 800/h
AC$MASS_SPECTROMETRY: DESOLVATION_TEMPERATURE 450 C
AC$MASS_SPECTROMETRY: IONIZATION ESI
AC$CHROMATOGRAPHY: CAPILLARY_VOLTAGE -2.75 kV
AC$CHROMATOGRAPHY: COLUMN_NAME Acquity bridged ethyl hybrid C18 (1.7 um, 2.1 mm * 100 mm, Waters)
AC$CHROMATOGRAPHY: COLUMN_TEMPERATURE 40 C
AC$CHROMATOGRAPHY: FLOW_GRADIENT A/B = (99.5%/0.5% at 0 min, 99.5%/0.5% at 0.1 min, 20%/80% at 10 min, 0.5%/99.5% at 10.1 min, 0.5%/99.5% at 12.0 min, 99.5%/0.5% at 12.1 min, 99.5%/0.5% at 15.0 min)
AC$CHROMATOGRAPHY: FLOW_RATE 0.3 ml/min at 0 min, 0.3 ml/min at 10 min, 0.4 ml/min at 10.1 min, 0.4 ml/min at 14.4 min, 0.3 ml/min at 14.5 min
AC$CHROMATOGRAPHY: RETENTION_TIME 2.925433
AC$CHROMATOGRAPHY: SOLVENT A water including 0.1% formic acid
AC$CHROMATOGRAPHY: SOLVENT B acetonitrile including 0.1% formic acid
MS$FOCUSED_ION: PRECURSOR_TYPE [M-2H]-
MS$FOCUSED_ION: PRECURSOR_M/Z 447.09273641576
PK$SPLASH: splash10-0a6s-0590000000-92379da1de2612ecaacc
PK$NUM_PEAK: 46
PK$PEAK: m/z int. rel.int.
  107.01665 187.0 187
  119.01391 100.0 100
  121.02189 96.0 96
  142.04117 110.0 110
  147.00598 282.0 282
  147.01546 144.0 144
  148.01544 206.0 206
  157.06046 139.0 139
  160.04556 100.0 100
  170.03625 158.0 158
  172.03874 139.0 139
  183.03859 306.0 306
  183.04851 115.0 115
  185.0242 100.0 100
  188.049 105.0 105
  189.05116 177.0 177
  198.03392 91.0 91
  199.02765 86.0 86
  199.03986 144.0 144
  199.04988 91.0 91
  200.03416 148.0 148
  210.02711 134.0 134
  210.03767 139.0 139
  211.03355 201.0 201
  212.03581 201.0 201
  213.02455 134.0 134
  214.02501 120.0 120
  222.29665 105.0 105
  227.03036 397.0 397
  229.04424 249.0 249
  238.02979 86.0 86
  239.02434 91.0 91
  239.03145 177.0 177
  240.03925 86.0 86
  247.37178 278.0 278
  247.49615 96.0 96
  247.58195 124.0 124
  248.08199 86.0 86
  248.13301 144.0 144
  248.18309 110.0 110
  248.23474 158.0 158
  248.35951 86.0 86
  255.03297 1000.0 999
  256.03534 96.0 96
  268.02921 129.0 129
  283.03104 172.0 172
//
