ACCESSION: MSBNK-RIKEN-PR305386
RECORD_TITLE: Hederacoside C; LC-ESI-QTOF; MS2
DATE: 2019.03.28
AUTHORS: Tetsuya Mori, Center for Sustainable Resource Science, RIKEN
LICENSE: CC BY-NC-SA
PUBLICATION: Tsugawa H., Nakabayashi R., Mori T., Yamada Y., Takahashi M., Rai A., Sugiyama R., Yamamoto H., Nakaya T., Yamazaki M., Kooke R., Bac-Molenaar JA., Oztolan-Erol N., Keurentjes JJB., Arita M., Saito K. (2019) "A cheminformatics approach to characterize metabolomes in stable-isotope-labeled organisms" Nature Methods 16(4):295-298. [doi:10.1038/s41592-019-0358-2]
COMMENT: registered in RIKEN PlaSMA
CH$NAME: Hederacoside C
CH$COMPOUND_CLASS: Triterpene saponins
CH$FORMULA: C59H96O26
CH$EXACT_MASS: 1221.391
CH$SMILES: CC1OC(OC2C(O)C(O)C(OCC3OC(OC(=O)C45CCC(C)(C)CC4C4=CCC6C7(C)CCC(OC8OCC(O)C(O)C8OC8OC(C)C(O)C(O)C8O)C(C)(CO)C7CCC6(C)C4(C)CC5)C(O)C(O)C3O)OC2CO)C(O)C(O)C1O
CH$IUPAC: InChI=1S/C59H96O26/c1-24-34(63)38(67)42(71)49(78-24)83-46-29(20-60)80-48(45(74)41(46)70)77-22-30-37(66)40(69)44(73)51(81-30)85-53(75)59-17-15-54(3,4)19-27(59)26-9-10-32-55(5)13-12-33(56(6,23-61)31(55)11-14-58(32,8)57(26,7)16-18-59)82-52-47(36(65)28(62)21-76-52)84-50-43(72)39(68)35(64)25(2)79-50/h9,24-25,27-52,60-74H,10-23H2,1-8H3
CH$LINK: INCHIKEY RYHDIBJJJRNDSX-UHFFFAOYSA-N
AC$INSTRUMENT: LC, Waters Acquity UPLC System; MS, Waters Xevo G2 Q-Tof
AC$INSTRUMENT_TYPE: LC-ESI-QTOF
AC$MASS_SPECTROMETRY: MS_TYPE MS2
AC$MASS_SPECTROMETRY: ION_MODE NEGATIVE
AC$MASS_SPECTROMETRY: COLLISION_ENERGY 6V
AC$MASS_SPECTROMETRY: DESOLVATION_GAS_FLOW 800/h
AC$MASS_SPECTROMETRY: DESOLVATION_TEMPERATURE 450 C
AC$MASS_SPECTROMETRY: IONIZATION ESI
AC$CHROMATOGRAPHY: CAPILLARY_VOLTAGE -2.75 kV
AC$CHROMATOGRAPHY: COLUMN_NAME Acquity bridged ethyl hybrid C18 (1.7 um, 2.1 mm * 100 mm, Waters)
AC$CHROMATOGRAPHY: COLUMN_TEMPERATURE 40 C
AC$CHROMATOGRAPHY: FLOW_GRADIENT A/B = (99.5%/0.5% at 0 min, 99.5%/0.5% at 0.1 min, 20%/80% at 10 min, 0.5%/99.5% at 10.1 min, 0.5%/99.5% at 12.0 min, 99.5%/0.5% at 12.1 min, 99.5%/0.5% at 15.0 min)
AC$CHROMATOGRAPHY: FLOW_RATE 0.3 ml/min at 0 min, 0.3 ml/min at 10 min, 0.4 ml/min at 10.1 min, 0.4 ml/min at 14.4 min, 0.3 ml/min at 14.5 min
AC$CHROMATOGRAPHY: RETENTION_TIME 5.3895
AC$CHROMATOGRAPHY: SOLVENT A water including 0.1% formic acid
AC$CHROMATOGRAPHY: SOLVENT B acetonitrile including 0.1% formic acid
MS$FOCUSED_ION: PRECURSOR_TYPE [M+HCOO]-
MS$FOCUSED_ION: PRECURSOR_M/Z 1265.61718585183
PK$SPLASH: splash10-014i-0090000000-dfd594d9043882ec9a8e
PK$NUM_PEAK: 23
PK$PEAK: m/z int. rel.int.
  103.34373 10.0 10
  494.04233 7.0 7
  627.92822 15.0 15
  635.71515 15.0 15
  756.52979 10.0 10
  891.2915 12.0 12
  1059.43958 7.0 7
  1096.94897 9.0 9
  1219.61182 781.0 780
  1220.60559 241.0 241
  1220.63635 202.0 202
  1221.61743 157.0 157
  1222.43152 7.0 7
  1222.61682 19.0 19
  1222.66077 17.0 17
  1224.64185 9.0 9
  1232.05237 12.0 12
  1246.06494 12.0 12
  1246.56384 12.0 12
  1248.0509 12.0 12
  1249.08386 7.0 7
  1262.71753 8.0 8
  1265.6156 1000.0 999
//
