ACCESSION: MSBNK-RIKEN-PR310593
RECORD_TITLE: Nantenine; LC-ESI-QTOF; MS2
DATE: 2019.03.28
AUTHORS: Tetsuya Mori, Center for Sustainable Resource Science, RIKEN
LICENSE: CC BY-NC-SA
PUBLICATION: Tsugawa H., Nakabayashi R., Mori T., Yamada Y., Takahashi M., Rai A., Sugiyama R., Yamamoto H., Nakaya T., Yamazaki M., Kooke R., Bac-Molenaar JA., Oztolan-Erol N., Keurentjes JJB., Arita M., Saito K. (2019) "A cheminformatics approach to characterize metabolomes in stable-isotope-labeled organisms" Nature Methods 16(4):295-298. [doi:10.1038/s41592-019-0358-2]
COMMENT: Annotation level-1
CH$NAME: Nantenine
CH$COMPOUND_CLASS: Alkaloids
CH$FORMULA: C20H21NO4
CH$EXACT_MASS: 339.391
CH$SMILES: COC1=C(OC)C2=C3C(CC4=C2C=C2OCOC2=C4)N(C)CCC3=C1
CH$IUPAC: InChI=1S/C20H21NO4/c1-21-5-4-11-7-17(22-2)20(23-3)19-13-9-16-15(24-10-25-16)8-12(13)6-14(21)18(11)19/h7-9,14H,4-6,10H2,1-3H3
CH$LINK: INCHIKEY WSVWKHTVFGTTKJ-UHFFFAOYSA-N
AC$INSTRUMENT: LC, Waters Acquity UPLC System; MS, Waters Xevo G2 Q-Tof
AC$INSTRUMENT_TYPE: LC-ESI-QTOF
AC$MASS_SPECTROMETRY: MS_TYPE MS2
AC$MASS_SPECTROMETRY: ION_MODE POSITIVE
AC$MASS_SPECTROMETRY: COLLISION_ENERGY 6V
AC$MASS_SPECTROMETRY: DESOLVATION_GAS_FLOW 800/h
AC$MASS_SPECTROMETRY: DESOLVATION_TEMPERATURE 450 C
AC$MASS_SPECTROMETRY: IONIZATION ESI
AC$CHROMATOGRAPHY: CAPILLARY_VOLTAGE +3.00 kV
AC$CHROMATOGRAPHY: COLUMN_NAME Acquity bridged ethyl hybrid C18 (1.7 um, 2.1 mm * 100 mm, Waters)
AC$CHROMATOGRAPHY: COLUMN_TEMPERATURE 40 C
AC$CHROMATOGRAPHY: FLOW_GRADIENT A/B = (99.5%/0.5% at 0 min, 99.5%/0.5% at 0.1 min, 20%/80% at 10 min, 0.5%/99.5% at 10.1 min, 0.5%/99.5% at 12.0 min, 99.5%/0.5% at 12.1 min, 99.5%/0.5% at 15.0 min)
AC$CHROMATOGRAPHY: FLOW_RATE 0.3 ml/min at 0 min, 0.3 ml/min at 10 min, 0.4 ml/min at 10.1 min, 0.4 ml/min at 14.4 min, 0.3 ml/min at 14.5 min
AC$CHROMATOGRAPHY: RETENTION_TIME 4.89
AC$CHROMATOGRAPHY: SOLVENT A water including 0.1% formic acid
AC$CHROMATOGRAPHY: SOLVENT B acetonitrile including 0.1% formic acid
MS$FOCUSED_ION: PRECURSOR_TYPE [M+H]+
MS$FOCUSED_ION: PRECURSOR_M/Z 340.15433
PK$SPLASH: splash10-002f-0094000000-7d2ab05c5d1c367fc0b2
PK$NUM_PEAK: 450
PK$PEAK: m/z int. rel.int.
  71.12127 25.0 1
  89.39894 19.0 1
  104.49396 21.0 1
  108.5448 26.0 1
  127.82088 21.0 1
  129.81015 21.0 1
  133.92264 43.0 2
  147.53015 26.0 1
  152.74278 21.0 1
  153.06004 52.0 2
  157.09515 19.0 1
  157.11096 30.0 1
  157.13948 18.0 1
  158.411 43.0 2
  160.38234 17.0 1
  164.77859 25.0 1
  165.06406 219.0 8
  165.07324 401.0 14
  165.82408 24.0 1
  166.07693 137.0 5
  167.07677 46.0 2
  167.2675 36.0 1
  167.84714 20.0 1
  168.18501 38.0 1
  171.11064 32.0 1
  171.26849 24.0 1
  172.82275 27.0 1
  173.85429 22.0 1
  176.07539 29.0 1
  177.06277 131.0 5
  177.07144 253.0 9
  178.05365 25.0 1
  178.06169 21.0 1
  178.07471 167.0 6
  179.0657 19.0 1
  179.07542 69.0 2
  179.08546 26.0 1
  179.09634 22.0 1
  180.08305 18.0 1
  180.10063 26.0 1
  181.05397 20.0 1
  181.069 59.0 2
  181.08321 21.0 1
  181.70627 48.0 2
  182.01251 17.0 1
  187.05984 24.0 1
  188.63927 17.0 1
  189.05046 30.0 1
  189.06177 70.0 3
  189.07309 210.0 8
  189.19046 23.0 1
  189.37048 22.0 1
  189.50087 21.0 1
  190.06563 46.0 2
  190.07693 259.0 9
  190.08626 50.0 2
  190.14008 21.0 1
  191.0833 305.0 11
  191.09595 46.0 2
  191.29608 19.0 1
  191.95522 21.0 1
  192.04398 17.0 1
  192.06941 50.0 2
  192.08659 58.0 2
  192.4295 19.0 1
  192.55701 39.0 1
  193.02861 23.0 1
  193.04573 24.0 1
  193.06628 438.0 16
  193.08638 39.0 1
  193.09715 27.0 1
  193.63162 23.0 1
  194.06374 24.0 1
  194.07576 93.0 3
  194.09943 41.0 1
  194.15344 21.0 1
  194.20222 23.0 1
  194.53027 27.0 1
  194.79266 40.0 1
  195.07729 51.0 2
  195.08859 71.0 3
  196.04968 20.0 1
  198.46242 38.0 1
  201.06219 26.0 1
  201.07153 93.0 3
  201.36017 20.0 1
  202.06783 24.0 1
  202.07834 28.0 1
  202.09198 24.0 1
  203.08546 28.0 1
  203.32922 21.0 1
  203.3674 22.0 1
  204.06087 90.0 3
  204.08968 50.0 2
  204.46313 17.0 1
  205.06149 827.0 30
  205.07053 628.0 23
  205.1006 28.0 1
  205.79135 18.0 1
  206.07149 331.0 12
  206.23032 18.0 1
  206.33557 24.0 1
  206.93912 21.0 1
  207.05899 37.0 1
  207.08302 399.0 14
  207.39226 29.0 1
  208.07697 110.0 4
  208.0898 371.0 13
  209.06203 168.0 6
  209.09871 43.0 2
  209.15942 28.0 1
  209.9265 17.0 1
  210.08975 30.0 1
  211.79849 21.0 1
  215.7599 20.0 1
  216.0625 33.0 1
  217.06305 233.0 8
  217.0761 101.0 4
  218.06442 73.0 3
  218.08334 53.0 2
  219.05275 54.0 2
  219.0681 142.0 5
  219.08438 437.0 16
  219.19362 17.0 1
  219.22626 21.0 1
  220.03453 27.0 1
  220.0538 25.0 1
  220.09021 681.0 25
  220.1671 20.0 1
  220.93919 24.0 1
  220.98175 32.0 1
  221.03383 28.0 1
  221.06258 508.0 18
  221.09772 213.0 8
  221.11865 22.0 1
  221.32544 22.0 1
  221.36186 20.0 1
  222.05968 189.0 7
  222.07185 160.0 6
  222.08296 62.0 2
  222.08978 32.0 1
  222.10565 40.0 1
  222.32266 22.0 1
  222.93877 20.0 1
  223.01619 33.0 1
  223.047 29.0 1
  223.0708 535.0 19
  223.08072 631.0 23
  223.09732 144.0 5
  223.35155 19.0 1
  224.0554 20.0 1
  224.07846 166.0 6
  224.11452 21.0 1
  224.27586 27.0 1
  225.04276 22.0 1
  225.05867 31.0 1
  225.08235 53.0 2
  225.20836 22.0 1
  225.41165 35.0 1
  227.32918 23.0 1
  228.40652 18.0 1
  229.07115 24.0 1
  230.07283 22.0 1
  231.0459 51.0 2
  231.06827 22.0 1
  231.6929 39.0 1
  232.05971 25.0 1
  233.0593 918.0 33
  234.0219 20.0 1
  234.06735 277.0 10
  234.10411 29.0 1
  234.62813 17.0 1
  234.77856 20.0 1
  235.0762 3787.0 137
  235.1062 24.0 1
  235.14226 33.0 1
  235.71722 27.0 1
  236.06351 70.0 3
  236.07864 835.0 30
  236.08669 515.0 19
  236.11623 28.0 1
  237.05118 126.0 5
  237.06133 67.0 2
  237.08437 284.0 10
  237.09409 145.0 5
  238.06442 79.0 3
  238.07411 51.0 2
  238.08214 37.0 1
  238.09482 23.0 1
  239.05234 25.0 1
  239.06711 69.0 2
  240.02158 41.0 1
  241.03937 18.0 1
  241.07973 41.0 1
  241.44376 28.0 1
  242.86008 33.0 1
  243.05873 17.0 1
  244.63374 17.0 1
  245.06187 47.0 2
  245.07217 19.0 1
  246.06425 59.0 2
  247.0759 872.0 32
  247.48738 19.0 1
  247.63542 22.0 1
  248.07922 260.0 9
  248.08775 461.0 17
  248.10492 30.0 1
  248.55484 21.0 1
  248.6077 25.0 1
  248.64098 20.0 1
  249.03192 65.0 2
  249.0571 702.0 25
  249.0896 405.0 15
  249.57431 28.0 1
  250.05962 204.0 7
  250.09431 83.0 3
  250.10536 41.0 1
  250.80765 38.0 1
  251.02328 20.0 1
  251.03256 26.0 1
  251.06563 902.0 33
  251.07439 1270.0 46
  251.10658 325.0 12
  251.15369 27.0 1
  251.21924 30.0 1
  251.72264 20.0 1
  252.07646 364.0 13
  252.10358 29.0 1
  252.11795 102.0 4
  252.53145 33.0 1
  253.06903 18.0 1
  254.62 21.0 1
  255.07074 21.0 1
  256.21924 17.0 1
  259.0694 23.0 1
  259.0845 40.0 1
  260.08405 24.0 1
  261.02673 17.0 1
  261.0546 620.0 22
  261.09534 58.0 2
  261.93842 24.0 1
  262.03674 35.0 1
  262.05139 179.0 6
  262.06198 639.0 23
  262.07727 128.0 5
  262.98093 74.0 3
  263.07095 4870.0 176
  263.10782 43.0 2
  263.23087 26.0 1
  263.24313 18.0 1
  263.74155 20.0 1
  263.76462 21.0 1
  263.87347 21.0 1
  263.89417 33.0 1
  264.04825 67.0 2
  264.07507 1413.0 51
  264.32001 17.0 1
  264.38571 27.0 1
  264.90793 42.0 2
  264.91803 26.0 1
  265.03394 84.0 3
  265.05011 519.0 19
  265.07016 355.0 13
  265.08728 1078.0 39
  266.01584 20.0 1
  266.03955 50.0 2
  266.05374 267.0 10
  266.07388 161.0 6
  266.09552 529.0 19
  266.64105 22.0 1
  267.06567 68.0 2
  267.08777 86.0 3
  267.10205 116.0 4
  267.29184 23.0 1
  268.05154 21.0 1
  268.07272 51.0 2
  268.10608 17.0 1
  268.87714 24.0 1
  269.68805 20.0 1
  272.48959 22.0 1
  274.50403 37.0 1
  275.08688 22.0 1
  275.74402 48.0 2
  276.06885 46.0 2
  276.08414 73.0 3
  276.12274 50.0 2
  276.72791 21.0 1
  277.03793 33.0 1
  277.05481 85.0 3
  277.07526 196.0 7
  277.08786 952.0 34
  277.12131 20.0 1
  277.73996 27.0 1
  277.89673 30.0 1
  277.97382 22.0 1
  278.00583 36.0 1
  278.03607 66.0 2
  278.05231 267.0 10
  278.06583 107.0 4
  278.09332 25793.0 933
  278.14059 382.0 14
  278.17316 17.0 1
  278.388 17.0 1
  278.39868 17.0 1
  278.65204 18.0 1
  278.72079 32.0 1
  278.73758 21.0 1
  278.9715 18.0 1
  279.04089 53.0 2
  279.06699 9106.0 329
  279.08356 2118.0 77
  279.10019 4079.0 147
  279.28006 19.0 1
  279.30402 17.0 1
  279.33127 17.0 1
  279.46503 48.0 2
  279.55966 27.0 1
  279.68021 30.0 1
  279.69745 25.0 1
  279.73825 22.0 1
  280.03943 84.0 3
  280.07321 3381.0 122
  280.10605 440.0 16
  280.12268 96.0 3
  280.32156 18.0 1
  280.99609 17.0 1
  281.04233 40.0 1
  281.08112 518.0 19
  281.12979 47.0 2
  281.15128 18.0 1
  281.57001 24.0 1
  281.59134 20.0 1
  281.94659 17.0 1
  282.06357 38.0 1
  282.08289 152.0 5
  282.16806 22.0 1
  282.61383 24.0 1
  283.08957 126.0 5
  283.10486 69.0 2
  283.53174 34.0 1
  283.68118 19.0 1
  284.86713 18.0 1
  285.44781 26.0 1
  286.45297 18.0 1
  286.62625 34.0 1
  290.3439 17.0 1
  290.53378 26.0 1
  291.01807 21.0 1
  291.4726 29.0 1
  292.08817 20.0 1
  292.33453 21.0 1
  293.0499 18.0 1
  293.06604 52.0 2
  293.09015 137.0 5
  293.15009 25.0 1
  293.27686 31.0 1
  293.49063 19.0 1
  293.63086 20.0 1
  293.88068 21.0 1
  294.00027 53.0 2
  294.02512 26.0 1
  294.04849 207.0 7
  294.08942 17572.0 635
  294.13889 330.0 12
  294.1875 21.0 1
  294.24081 20.0 1
  294.29044 17.0 1
  294.39899 17.0 1
  294.60724 18.0 1
  294.63947 28.0 1
  294.71991 25.0 1
  294.8566 47.0 2
  294.88004 19.0 1
  294.90149 17.0 1
  294.91891 23.0 1
  295.03589 21.0 1
  295.05966 24.0 1
  295.09277 3603.0 130
  295.543 24.0 1
  295.69244 47.0 2
  296.09601 408.0 15
  296.11185 55.0 2
  296.12338 24.0 1
  296.50552 20.0 1
  296.62286 22.0 1
  297.07639 23.0 1
  297.09225 22.0 1
  297.11539 259.0 9
  297.32285 18.0 1
  298.0961 21.0 1
  298.11722 62.0 2
  298.19159 24.0 1
  298.55695 31.0 1
  299.48679 20.0 1
  300.52866 23.0 1
  304.05707 25.0 1
  306.28906 21.0 1
  306.62564 21.0 1
  307.18484 17.0 1
  307.34619 20.0 1
  308.15021 37.0 1
  308.26187 24.0 1
  309.00757 42.0 2
  309.02347 25.0 1
  309.0553 45.0 2
  309.07425 60.0 2
  309.11322 21336.0 771
  309.16425 240.0 9
  309.22168 17.0 1
  309.2905 48.0 2
  309.56342 20.0 1
  309.68262 35.0 1
  310.00992 20.0 1
  310.06082 104.0 4
  310.08524 120.0 4
  310.11755 4841.0 175
  310.14728 46.0 2
  310.53665 21.0 1
  310.57251 27.0 1
  310.61914 30.0 1
  311.1116 232.0 8
  311.12476 656.0 24
  311.17743 34.0 1
  311.24347 22.0 1
  312.11728 89.0 3
  312.13428 94.0 3
  312.30597 20.0 1
  313.3266 17.0 1
  313.39987 24.0 1
  316.18604 18.0 1
  317.93961 27.0 1
  324.13229 38.0 1
  324.32364 19.0 1
  325.55203 22.0 1
  327.43488 18.0 1
  327.94028 21.0 1
  333.61746 18.0 1
  337.46588 23.0 1
  338.24402 26.0 1
  338.67477 18.0 1
  339.12091 21.0 1
  339.14474 34.0 1
  339.23792 18.0 1
  340.05048 22.0 1
  340.08475 161.0 6
  340.12735 137.0 5
  340.15558 27630.0 999
  340.20883 794.0 29
  340.25781 94.0 3
  340.27579 29.0 1
//
