ACCESSION: MSBNK-RIKEN-PR301085
RECORD_TITLE: Napelline; LC-ESI-QTOF; MS2
DATE: 2019.03.28
AUTHORS: Tetsuya Mori, Center for Sustainable Resource Science, RIKEN
LICENSE: CC BY-NC-SA
PUBLICATION: Tsugawa H., Nakabayashi R., Mori T., Yamada Y., Takahashi M., Rai A., Sugiyama R., Yamamoto H., Nakaya T., Yamazaki M., Kooke R., Bac-Molenaar JA., Oztolan-Erol N., Keurentjes JJB., Arita M., Saito K. (2019) "A cheminformatics approach to characterize metabolomes in stable-isotope-labeled organisms" Nature Methods 16(4):295-298. [doi:10.1038/s41592-019-0358-2]
COMMENT: registered in RIKEN PlaSMA
CH$NAME: Napelline
CH$COMPOUND_CLASS: Napelline-type diterpenoid alkaloids
CH$FORMULA: C22H33NO3
CH$EXACT_MASS: 359.51
CH$SMILES: CCN1C[C@]2(C)CC[C@H](O)[C@]34C1[C@H](C[C@H]23)[C@@]12C[C@H]([C@@H](O)C[C@@H]41)C(=C)[C@H]2O
CH$IUPAC: InChI=1S/C22H33NO3/c1-4-23-10-20(3)6-5-17(25)22-15(20)7-13(18(22)23)21-9-12(11(2)19(21)26)14(24)8-16(21)22/h12-19,24-26H,2,4-10H2,1,3H3/t12-,13-,14-,15+,16+,17-,18?,19+,20-,21-,22-/m0/s1
CH$LINK: INCHIKEY AZAZKLKDEOMJBJ-BOPAMEKVSA-N
AC$INSTRUMENT: LC, Waters Acquity UPLC System; MS, Waters Xevo G2 Q-Tof
AC$INSTRUMENT_TYPE: LC-ESI-QTOF
AC$MASS_SPECTROMETRY: MS_TYPE MS2
AC$MASS_SPECTROMETRY: ION_MODE POSITIVE
AC$MASS_SPECTROMETRY: COLLISION_ENERGY 6V
AC$MASS_SPECTROMETRY: DESOLVATION_GAS_FLOW 800/h
AC$MASS_SPECTROMETRY: DESOLVATION_TEMPERATURE 450 C
AC$MASS_SPECTROMETRY: IONIZATION ESI
AC$CHROMATOGRAPHY: CAPILLARY_VOLTAGE +3.00 kV
AC$CHROMATOGRAPHY: COLUMN_NAME Acquity bridged ethyl hybrid C18 (1.7 um, 2.1 mm * 100 mm, Waters)
AC$CHROMATOGRAPHY: COLUMN_TEMPERATURE 40 C
AC$CHROMATOGRAPHY: FLOW_GRADIENT A/B = (99.5%/0.5% at 0 min, 99.5%/0.5% at 0.1 min, 20%/80% at 10 min, 0.5%/99.5% at 10.1 min, 0.5%/99.5% at 12.0 min, 99.5%/0.5% at 12.1 min, 99.5%/0.5% at 15.0 min)
AC$CHROMATOGRAPHY: FLOW_RATE 0.3 ml/min at 0 min, 0.3 ml/min at 10 min, 0.4 ml/min at 10.1 min, 0.4 ml/min at 14.4 min, 0.3 ml/min at 14.5 min
AC$CHROMATOGRAPHY: RETENTION_TIME 3.05155
AC$CHROMATOGRAPHY: SOLVENT A water including 0.1% formic acid
AC$CHROMATOGRAPHY: SOLVENT B acetonitrile including 0.1% formic acid
MS$FOCUSED_ION: PRECURSOR_TYPE [M+H]+
MS$FOCUSED_ION: PRECURSOR_M/Z 360.2533204
PK$SPLASH: splash10-0aov-2910000000-f92a1a4b70fb56f61c6a
PK$NUM_PEAK: 377
PK$PEAK: m/z int. rel.int.
  54.83954 13.0 13
  55.01702 33.0 33
  56.04816 41.0 41
  56.05293 111.0 111
  57.23586 13.0 13
  58.06246 30.0 30
  58.06699 46.0 46
  60.19137 15.0 15
  65.03941 13.0 13
  67.05598 26.0 26
  67.06082 38.0 38
  69.0325 18.0 18
  70.0689 15.0 15
  72.08481 17.0 17
  77.03372 18.0 18
  77.04152 13.0 13
  79.04709 47.0 47
  79.05488 403.0 403
  80.05427 24.0 24
  80.05882 18.0 18
  81.07004 207.0 207
  81.66405 13.0 13
  82.06284 29.0 29
  82.07071 40.0 40
  82.07865 16.0 16
  83.08289 30.0 30
  83.08826 18.0 18
  84.08184 78.0 78
  85.08481 20.0 20
  91.04065 16.0 16
  91.04633 30.0 30
  91.05547 442.0 442
  92.05569 37.0 37
  92.06626 22.0 22
  93.03333 13.0 13
  93.05663 15.0 15
  93.07093 208.0 208
  93.76853 17.0 17
  94.0229 13.0 13
  94.0759 21.0 21
  95.04914 19.0 19
  95.07616 34.0 34
  95.08795 59.0 59
  96.07991 50.0 50
  96.09117 20.0 20
  97.09315 20.0 20
  98.08877 17.0 17
  98.09797 399.0 399
  99.09714 19.0 19
  99.10423 18.0 18
  102.89262 13.0 13
  103.04851 27.0 27
  103.05424 33.0 33
  105.06961 1000.0 999
  106.05445 16.0 16
  106.06544 14.0 14
  106.07245 61.0 61
  107.05412 13.0 13
  107.086 398.0 398
  107.09421 47.0 47
  108.07966 13.0 13
  109.01431 16.0 16
  109.05504 13.0 13
  109.06618 14.0 14
  109.08549 16.0 16
  110.0901 20.0 20
  110.09962 44.0 44
  111.1106 16.0 16
  112.10557 31.0 31
  114.09118 13.0 13
  114.12944 15.0 15
  115.05112 64.0 64
  115.05862 50.0 50
  115.06558 26.0 26
  116.06013 20.0 20
  117.06871 496.0 496
  117.98701 18.0 18
  118.07359 101.0 101
  118.07918 43.0 43
  119.05075 18.0 18
  119.06707 13.0 13
  119.08393 137.0 137
  119.08955 142.0 142
  120.08843 17.0 17
  121.06177 16.0 16
  121.08064 31.0 31
  121.1051 16.0 16
  121.32867 24.0 24
  122.06702 18.0 18
  122.09625 28.0 28
  122.10191 27.0 27
  123.08365 44.0 44
  123.10278 58.0 58
  124.10394 17.0 17
  124.11815 18.0 18
  127.05844 16.0 16
  128.06198 203.0 203
  128.9631 14.0 14
  129.07054 152.0 152
  130.07011 70.0 70
  130.07736 57.0 57
  130.08298 38.0 38
  130.16264 13.0 13
  131.07466 35.0 35
  131.0885 283.0 283
  132.07761 13.0 13
  132.08797 31.0 31
  132.74962 13.0 13
  133.0719 13.0 13
  133.0793 18.0 18
  133.095 118.0 118
  133.10484 79.0 79
  134.1022 16.0 16
  134.67154 14.0 14
  135.03932 17.0 17
  135.07196 28.0 28
  135.07719 37.0 37
  135.08658 30.0 30
  135.11203 24.0 24
  135.11951 46.0 46
  136.07382 18.0 18
  136.089 22.0 22
  138.12221 15.0 15
  138.12968 27.0 27
  139.09323 16.0 16
  139.19009 30.0 30
  141.0645 143.0 143
  141.07423 137.0 137
  142.06943 41.0 41
  142.07745 164.0 164
  143.08195 268.0 268
  143.0905 123.0 123
  144.05002 13.0 13
  144.06477 20.0 20
  144.08868 48.0 48
  144.09512 50.0 50
  145.06367 42.0 42
  145.07144 19.0 19
  145.0858 13.0 13
  145.10205 356.0 356
  146.09724 36.0 36
  146.1026 107.0 107
  147.08614 33.0 33
  147.11685 182.0 182
  148.11447 61.0 61
  151.07256 48.0 48
  151.08298 41.0 41
  152.0638 49.0 49
  153.06232 16.0 16
  153.07506 24.0 24
  154.05905 15.0 15
  154.07657 54.0 54
  154.08589 52.0 52
  155.06625 26.0 26
  155.0826 203.0 203
  155.09515 121.0 121
  156.09267 102.0 102
  156.10114 32.0 32
  156.81157 15.0 15
  157.05521 15.0 15
  157.09264 81.0 81
  157.10011 229.0 229
  157.11775 18.0 18
  158.08315 16.0 16
  158.10544 106.0 106
  158.1913 13.0 13
  159.09279 15.0 15
  159.11723 143.0 143
  160.11118 106.0 106
  161.09134 16.0 16
  161.11572 30.0 30
  161.13216 50.0 50
  161.16672 13.0 13
  162.12775 45.0 45
  162.1344 25.0 25
  162.34302 16.0 16
  163.13248 27.0 27
  165.0535 16.0 16
  165.0681 219.0 219
  165.91344 13.0 13
  166.06819 56.0 56
  166.07674 101.0 101
  166.08273 45.0 45
  167.08658 345.0 345
  168.07637 16.0 16
  168.09108 135.0 135
  169.07523 13.0 13
  169.10088 218.0 218
  169.63785 16.0 16
  170.10753 70.0 70
  171.08455 18.0 18
  171.10089 17.0 17
  171.11775 127.0 127
  171.1254 41.0 41
  172.10873 31.0 31
  172.12848 53.0 53
  172.1489 22.0 22
  173.09831 38.0 38
  173.11702 24.0 24
  173.14064 42.0 42
  174.11484 16.0 16
  174.13197 32.0 32
  174.37144 21.0 21
  175.11394 15.0 15
  175.13582 40.0 40
  176.0659 13.0 13
  176.16205 16.0 16
  177.06461 20.0 20
  178.07755 119.0 119
  178.48586 13.0 13
  179.07204 13.0 13
  179.08199 74.0 74
  179.09007 107.0 107
  179.10199 21.0 21
  180.07912 15.0 15
  180.08896 52.0 52
  180.09714 52.0 52
  181.05945 15.0 15
  181.10039 308.0 308
  182.06676 21.0 21
  182.10562 78.0 78
  182.11557 30.0 30
  183.10683 15.0 15
  183.12114 115.0 115
  184.0929 21.0 21
  184.12253 34.0 34
  184.72017 19.0 19
  185.12814 63.0 63
  185.13986 13.0 13
  186.08264 14.0 14
  186.11139 13.0 13
  186.13597 48.0 48
  187.11719 13.0 13
  188.14832 15.0 15
  189.1073 16.0 16
  189.14893 53.0 53
  190.08189 50.0 50
  190.15794 30.0 30
  190.9772 15.0 15
  191.08517 72.0 72
  191.09863 18.0 18
  191.16335 27.0 27
  192.08466 87.0 87
  192.09706 53.0 53
  192.14313 16.0 16
  192.18927 23.0 23
  193.09375 61.0 61
  193.10295 94.0 94
  193.16556 13.0 13
  194.09343 18.0 18
  194.10606 33.0 33
  194.11757 15.0 15
  195.11116 49.0 49
  195.12079 128.0 128
  196.12952 50.0 50
  197.10532 15.0 15
  197.12065 31.0 31
  197.1367 15.0 15
  198.10538 13.0 13
  198.12361 15.0 15
  198.13161 18.0 18
  199.11256 22.0 22
  199.13554 38.0 38
  200.12781 33.0 33
  200.15182 18.0 18
  200.60547 31.0 31
  201.13008 13.0 13
  202.0752 24.0 24
  202.13547 13.0 13
  202.15707 55.0 55
  202.18932 15.0 15
  203.0799 20.0 20
  203.09331 22.0 22
  204.09419 40.0 40
  204.1021 24.0 24
  204.13528 13.0 13
  205.0977 50.0 50
  205.80589 14.0 14
  206.08244 35.0 35
  206.10487 91.0 91
  206.12212 35.0 35
  207.10539 28.0 28
  207.11443 48.0 48
  208.11879 44.0 44
  208.13155 14.0 14
  209.10408 13.0 13
  209.12383 13.0 13
  209.13455 58.0 58
  209.14841 14.0 14
  210.1357 24.0 24
  211.11496 19.0 19
  211.13885 25.0 25
  214.13426 15.0 15
  215.07353 13.0 13
  215.10858 16.0 16
  216.18126 13.0 13
  217.09479 13.0 13
  217.10902 13.0 13
  217.17703 19.0 19
  218.15373 28.0 28
  219.19128 13.0 13
  220.10808 13.0 13
  220.13133 15.0 15
  220.80293 25.0 25
  221.11021 16.0 16
  221.12627 85.0 85
  221.14038 15.0 15
  222.13893 33.0 33
  222.14607 22.0 22
  223.12009 25.0 25
  223.1403 75.0 75
  224.14508 18.0 18
  224.15723 13.0 13
  225.11388 15.0 15
  225.13864 14.0 14
  225.15685 15.0 15
  225.98361 18.0 18
  226.15073 20.0 20
  226.16953 30.0 30
  227.85187 13.0 13
  228.11206 16.0 16
  229.1769 18.0 18
  230.51283 16.0 16
  231.11275 13.0 13
  231.1265 27.0 27
  232.12473 16.0 16
  233.12051 13.0 13
  233.14134 13.0 13
  235.10924 16.0 16
  237.14897 35.0 35
  237.17383 18.0 18
  238.13802 15.0 15
  238.15396 32.0 32
  240.21231 13.0 13
  244.19853 18.0 18
  246.13771 30.0 30
  246.18893 13.0 13
  247.14359 19.0 19
  249.13564 14.0 14
  252.14273 24.0 24
  252.17812 16.0 16
  253.18936 16.0 16
  256.20038 15.0 15
  257.16159 24.0 24
  264.15536 18.0 18
  264.17697 29.0 29
  264.18829 13.0 13
  264.91977 13.0 13
  266.18127 36.0 36
  269.01251 19.0 19
  270.18777 13.0 13
  270.22427 18.0 18
  280.22656 18.0 18
  281.21164 16.0 16
  294.57492 14.0 14
  296.20572 20.0 20
  297.23627 13.0 13
  298.23178 26.0 26
  303.44867 13.0 13
  306.18524 15.0 15
  308.20456 89.0 89
  309.19327 14.0 14
  324.20236 15.0 15
  324.21478 19.0 19
  324.23874 15.0 15
  325.15991 22.0 22
  326.2171 37.0 37
  330.06827 21.0 21
  342.20386 19.0 19
  342.23972 412.0 412
  342.255 122.0 122
  342.62698 13.0 13
  343.24207 180.0 180
  343.26022 81.0 81
  344.23145 34.0 34
  345.09711 20.0 20
  345.24765 13.0 13
//
