ACCESSION: MSBNK-RIKEN-PR301539
RECORD_TITLE: Rauwolscine; LC-ESI-QTOF; MS2
DATE: 2019.03.28
AUTHORS: Tetsuya Mori, Center for Sustainable Resource Science, RIKEN
LICENSE: CC BY-NC-SA
PUBLICATION: Tsugawa H., Nakabayashi R., Mori T., Yamada Y., Takahashi M., Rai A., Sugiyama R., Yamamoto H., Nakaya T., Yamazaki M., Kooke R., Bac-Molenaar JA., Oztolan-Erol N., Keurentjes JJB., Arita M., Saito K. (2019) "A cheminformatics approach to characterize metabolomes in stable-isotope-labeled organisms" Nature Methods 16(4):295-298. [doi:10.1038/s41592-019-0358-2]
COMMENT: registered in RIKEN PlaSMA
CH$NAME: Rauwolscine
CH$COMPOUND_CLASS: Yohimbine alkaloids
CH$FORMULA: C21H26N2O3
CH$EXACT_MASS: 354.45
CH$SMILES: COC(=O)C1C(O)CCC2CN3CCC4=C(NC5=CC=CC=C45)C3CC12
CH$IUPAC: InChI=1S/C21H26N2O3/c1-26-21(25)19-15-10-17-20-14(13-4-2-3-5-16(13)22-20)8-9-23(17)11-12(15)6-7-18(19)24/h2-5,12,15,17-19,22,24H,6-11H2,1H3
CH$LINK: INCHIKEY BLGXFZZNTVWLAY-UHFFFAOYSA-N
AC$INSTRUMENT: LC, Waters Acquity UPLC System; MS, Waters Xevo G2 Q-Tof
AC$INSTRUMENT_TYPE: LC-ESI-QTOF
AC$MASS_SPECTROMETRY: MS_TYPE MS2
AC$MASS_SPECTROMETRY: ION_MODE POSITIVE
AC$MASS_SPECTROMETRY: COLLISION_ENERGY 6V
AC$MASS_SPECTROMETRY: DESOLVATION_GAS_FLOW 800/h
AC$MASS_SPECTROMETRY: DESOLVATION_TEMPERATURE 450 C
AC$MASS_SPECTROMETRY: IONIZATION ESI
AC$CHROMATOGRAPHY: CAPILLARY_VOLTAGE +3.00 kV
AC$CHROMATOGRAPHY: COLUMN_NAME Acquity bridged ethyl hybrid C18 (1.7 um, 2.1 mm * 100 mm, Waters)
AC$CHROMATOGRAPHY: COLUMN_TEMPERATURE 40 C
AC$CHROMATOGRAPHY: FLOW_GRADIENT A/B = (99.5%/0.5% at 0 min, 99.5%/0.5% at 0.1 min, 20%/80% at 10 min, 0.5%/99.5% at 10.1 min, 0.5%/99.5% at 12.0 min, 99.5%/0.5% at 12.1 min, 99.5%/0.5% at 15.0 min)
AC$CHROMATOGRAPHY: FLOW_RATE 0.3 ml/min at 0 min, 0.3 ml/min at 10 min, 0.4 ml/min at 10.1 min, 0.4 ml/min at 14.4 min, 0.3 ml/min at 14.5 min
AC$CHROMATOGRAPHY: RETENTION_TIME 4.004416
AC$CHROMATOGRAPHY: SOLVENT A water including 0.1% formic acid
AC$CHROMATOGRAPHY: SOLVENT B acetonitrile including 0.1% formic acid
MS$FOCUSED_ION: PRECURSOR_TYPE [M+H]+
MS$FOCUSED_ION: PRECURSOR_M/Z 355.2016192
PK$SPLASH: splash10-0006-0900000000-f1000e2309f153078a21
PK$NUM_PEAK: 94
PK$PEAK: m/z int. rel.int.
  77.03848 7.0 7
  80.05156 8.0 8
  91.05499 37.0 37
  92.05708 5.0 5
  94.06747 14.0 14
  95.07006 5.0 5
  103.05466 18.0 18
  104.04723 6.0 6
  106.0681 11.0 11
  107.07044 6.0 6
  107.08289 5.0 5
  108.07158 5.0 5
  108.08248 23.0 23
  109.08363 8.0 8
  111.04453 10.0 10
  115.05445 73.0 73
  116.04989 9.0 9
  116.05816 17.0 17
  117.06936 205.0 205
  118.06593 16.0 16
  118.07511 37.0 37
  119.04789 6.0 6
  120.07745 5.0 5
  120.08287 7.0 7
  127.05495 139.0 139
  128.04941 35.0 35
  128.05952 19.0 19
  129.04942 6.0 6
  129.0593 8.0 8
  129.07309 8.0 8
  130.06342 35.0 35
  130.07172 14.0 14
  131.07222 11.0 11
  132.07961 19.0 19
  133.08241 7.0 7
  134.09758 64.0 64
  135.08437 5.0 5
  142.06912 6.0 6
  143.07332 212.0 212
  144.08069 1000.0 999
  145.0696 7.0 7
  145.08464 150.0 150
  146.0853 10.0 10
  146.09496 6.0 6
  147.10689 10.0 10
  153.05458 7.0 7
  154.06694 7.0 7
  156.07964 17.0 17
  158.09059 7.0 7
  159.07039 7.0 7
  162.07892 7.0 7
  162.08968 11.0 11
  164.10287 6.0 6
  166.07791 7.0 7
  167.07265 20.0 20
  167.08096 12.0 12
  168.07085 13.0 13
  168.08247 18.0 18
  169.08461 6.0 6
  170.09537 6.0 6
  174.09544 6.0 6
  178.07503 7.0 7
  179.06871 6.0 6
  180.0784 20.0 20
  180.1013 7.0 7
  181.07977 5.0 5
  181.08769 10.0 10
  182.07886 6.0 6
  182.10083 14.0 14
  183.09364 7.0 7
  191.08075 10.0 10
  192.07045 6.0 6
  192.10107 10.0 10
  194.08255 6.0 6
  194.09505 31.0 31
  197.1053 6.0 6
  204.08206 11.0 11
  205.08235 7.0 7
  205.09392 7.0 7
  206.09639 21.0 21
  207.10094 7.0 7
  207.10956 6.0 6
  208.11261 14.0 14
  209.09839 6.0 6
  209.11812 5.0 5
  217.08075 6.0 6
  218.09447 16.0 16
  219.09473 8.0 8
  220.1111 26.0 26
  221.1106 12.0 12
  230.09506 15.0 15
  231.0927 6.0 6
  232.11868 11.0 11
  233.12169 8.0 8
//
