ACCESSION: MSBNK-RIKEN-PR307100
RECORD_TITLE: NP-006989(12); LC-ESI-QTOF; MS2
DATE: 2019.03.28
AUTHORS: Tetsuya Mori, Center for Sustainable Resource Science, RIKEN
LICENSE: CC BY-NC-SA
PUBLICATION: Tsugawa H., Nakabayashi R., Mori T., Yamada Y., Takahashi M., Rai A., Sugiyama R., Yamamoto H., Nakaya T., Yamazaki M., Kooke R., Bac-Molenaar JA., Oztolan-Erol N., Keurentjes JJB., Arita M., Saito K. (2019) "A cheminformatics approach to characterize metabolomes in stable-isotope-labeled organisms" Nature Methods 16(4):295-298. [doi:10.1038/s41592-019-0358-2]
COMMENT: registered in RIKEN PlaSMA
CH$NAME: NP-006989(12)
CH$COMPOUND_CLASS: Flavonoid 8-C-glycosides
CH$FORMULA: C27H30O16
CH$EXACT_MASS: 610.521
CH$SMILES: OCC1OC(C(O)C(O)C1O)C1=C(O)C(C2OC(CO)C(O)C(O)C2O)=C2OC(=CC(=O)C2=C1O)C1=CC(O)=C(O)C=C1
CH$IUPAC: InChI=1S/C27H30O16/c28-5-12-17(33)21(37)23(39)26(42-12)15-19(35)14-10(32)4-11(7-1-2-8(30)9(31)3-7)41-25(14)16(20(15)36)27-24(40)22(38)18(34)13(6-29)43-27/h1-4,12-13,17-18,21-24,26-31,33-40H,5-6H2
CH$LINK: INCHIKEY ZLPSOQFIIQIIAX-UHFFFAOYSA-N
AC$INSTRUMENT: LC, Waters Acquity UPLC System; MS, Waters Xevo G2 Q-Tof
AC$INSTRUMENT_TYPE: LC-ESI-QTOF
AC$MASS_SPECTROMETRY: MS_TYPE MS2
AC$MASS_SPECTROMETRY: ION_MODE NEGATIVE
AC$MASS_SPECTROMETRY: COLLISION_ENERGY 6V
AC$MASS_SPECTROMETRY: DESOLVATION_GAS_FLOW 800/h
AC$MASS_SPECTROMETRY: DESOLVATION_TEMPERATURE 450 C
AC$MASS_SPECTROMETRY: IONIZATION ESI
AC$CHROMATOGRAPHY: CAPILLARY_VOLTAGE -2.75 kV
AC$CHROMATOGRAPHY: COLUMN_NAME Acquity bridged ethyl hybrid C18 (1.7 um, 2.1 mm * 100 mm, Waters)
AC$CHROMATOGRAPHY: COLUMN_TEMPERATURE 40 C
AC$CHROMATOGRAPHY: FLOW_GRADIENT A/B = (99.5%/0.5% at 0 min, 99.5%/0.5% at 0.1 min, 20%/80% at 10 min, 0.5%/99.5% at 10.1 min, 0.5%/99.5% at 12.0 min, 99.5%/0.5% at 12.1 min, 99.5%/0.5% at 15.0 min)
AC$CHROMATOGRAPHY: FLOW_RATE 0.3 ml/min at 0 min, 0.3 ml/min at 10 min, 0.4 ml/min at 10.1 min, 0.4 ml/min at 14.4 min, 0.3 ml/min at 14.5 min
AC$CHROMATOGRAPHY: RETENTION_TIME 3.077283
AC$CHROMATOGRAPHY: SOLVENT A water including 0.1% formic acid
AC$CHROMATOGRAPHY: SOLVENT B acetonitrile including 0.1% formic acid
MS$FOCUSED_ION: PRECURSOR_TYPE [M-H]-
MS$FOCUSED_ION: PRECURSOR_M/Z 609.14610844783
PK$SPLASH: splash10-03di-0259000000-bdb0074e982a50ceb0ee
PK$NUM_PEAK: 210
PK$PEAK: m/z int. rel.int.
  66.0399 26.0 26
  71.01014 23.0 23
  73.02668 27.0 27
  83.01238 32.0 32
  85.02483 24.0 24
  92.63323 27.0 27
  97.03122 37.0 37
  103.33691 23.0 23
  107.01484 31.0 31
  109.02826 59.0 59
  117.03482 23.0 23
  119.04704 25.0 25
  123.04332 27.0 27
  125.0244 39.0 39
  133.02756 199.0 199
  133.0341 58.0 58
  134.03065 82.0 82
  134.03864 31.0 31
  145.02786 37.0 37
  145.06143 23.0 23
  146.03441 28.0 28
  147.04433 51.0 51
  149.0224 49.0 49
  151.03973 27.0 27
  157.06116 23.0 23
  158.03471 24.0 24
  161.01874 76.0 76
  162.05949 25.0 25
  163.04138 61.0 61
  165.0213 62.0 62
  167.05495 25.0 25
  171.04631 23.0 23
  173.0217 49.0 49
  173.02914 22.0 22
  174.06252 50.0 50
  175.03426 48.0 48
  175.04526 24.0 24
  176.04185 24.0 24
  177.01576 90.0 90
  177.0546 89.0 89
  178.06049 28.0 28
  179.03377 23.0 23
  185.06082 77.0 77
  186.0464 28.0 28
  187.04869 25.0 25
  188.00836 22.0 22
  188.0392 23.0 23
  189.05565 59.0 59
  189.98892 32.0 32
  190.02725 33.0 33
  191.03647 98.0 98
  191.06427 24.0 24
  195.08022 26.0 26
  198.54947 23.0 23
  199.03358 20.0 20
  199.04298 58.0 58
  201.01755 53.0 53
  203.03621 152.0 152
  204.0385 28.0 28
  205.05211 111.0 111
  206.01671 47.0 47
  206.0538 23.0 23
  207.03546 23.0 23
  209.05894 25.0 25
  212.05087 28.0 28
  213.01213 23.0 23
  213.04521 23.0 23
  213.08394 61.0 61
  214.06294 26.0 26
  215.03476 72.0 72
  217.83823 20.0 20
  217.98126 28.0 28
  219.02867 36.0 36
  221.04257 28.0 28
  223.05296 27.0 27
  224.0379 28.0 28
  225.04524 35.0 35
  225.10114 50.0 50
  227.10695 37.0 37
  229.04305 26.0 26
  230.02766 28.0 28
  230.05763 27.0 27
  231.0188 37.0 37
  232.03113 45.0 45
  234.05878 58.0 58
  238.05437 20.0 20
  238.07333 23.0 23
  238.3727 31.0 31
  240.04781 23.0 23
  240.06534 28.0 28
  241.05655 44.0 44
  242.05554 30.0 30
  244.06778 24.0 24
  245.05035 24.0 24
  247.03273 31.0 31
  251.02885 26.0 26
  252.03561 24.0 24
  255.02019 39.0 39
  255.0658 31.0 31
  256.04156 27.0 27
  257.03973 54.0 54
  258.05002 33.0 33
  261.06149 26.0 26
  263.02383 26.0 26
  265.04755 24.0 24
  266.05075 37.0 37
  266.05936 95.0 95
  267.02866 51.0 51
  267.06781 106.0 106
  268.03372 27.0 27
  268.06699 31.0 31
  269.04324 74.0 74
  269.08896 33.0 33
  270.0629 41.0 41
  271.05338 24.0 24
  276.04037 22.0 22
  280.03745 28.0 28
  281.05048 28.0 28
  282.0441 24.0 24
  282.05624 20.0 20
  282.08463 32.0 32
  283.05753 198.0 198
  284.01425 36.0 36
  284.03586 31.0 31
  284.07202 123.0 123
  285.02545 37.0 37
  285.03772 31.0 31
  285.05191 26.0 26
  285.07458 28.0 28
  285.08688 32.0 32
  286.0437 34.0 34
  287.05276 28.0 28
  292.06854 52.0 52
  295.06332 184.0 184
  297.04047 73.0 73
  298.04581 795.0 794
  299.04932 217.0 217
  300.05112 56.0 56
  300.07278 27.0 27
  305.05765 20.0 20
  307.05014 33.0 33
  309.03238 59.0 59
  309.04068 32.0 32
  310.03867 66.0 66
  310.05222 169.0 169
  310.06219 62.0 62
  311.05173 610.0 609
  312.06543 854.0 853
  313.02997 20.0 20
  313.07028 1000.0 999
  313.77142 20.0 20
  314.07742 118.0 118
  320.28659 24.0 24
  321.0459 20.0 20
  322.04706 67.0 67
  323.05392 184.0 184
  324.06033 52.0 52
  325.03513 31.0 31
  325.07196 180.0 180
  326.04044 40.0 40
  326.06961 26.0 26
  327.04349 108.0 108
  327.07153 32.0 32
  337.02979 25.0 25
  338.02112 28.0 28
  339.05399 614.0 613
  339.08258 45.0 45
  340.04648 160.0 160
  341.04886 68.0 68
  341.06729 409.0 409
  341.08844 62.0 62
  342.0553 23.0 23
  342.06839 73.0 73
  343.05786 24.0 24
  347.06271 32.0 32
  351.04388 129.0 129
  351.0593 36.0 36
  352.04675 28.0 28
  353.039 50.0 50
  353.06131 316.0 316
  354.08398 51.0 51
  355.08557 24.0 24
  357.0419 51.0 51
  357.06033 61.0 61
  358.05777 23.0 23
  361.02621 20.0 20
  363.04599 22.0 22
  366.01285 31.0 31
  367.05341 27.0 27
  367.069 48.0 48
  369.05682 571.0 570
  370.06195 51.0 51
  371.08289 65.0 65
  374.75281 23.0 23
  381.04663 101.0 101
  381.06476 52.0 52
  382.05258 22.0 22
  394.06055 50.0 50
  395.03598 27.0 27
  397.05243 50.0 50
  399.07101 188.0 188
  399.09003 35.0 35
  409.08264 27.0 27
  411.05173 24.0 24
  411.07251 76.0 76
  412.07144 23.0 23
  429.07401 28.0 28
  430.09186 20.0 20
  431.08884 20.0 20
  435.06439 24.0 24
//
