ACCESSION: MSBNK-RIKEN-PR301261
RECORD_TITLE: Guan-fu base Y; LC-ESI-QTOF; MS2
DATE: 2019.03.28
AUTHORS: Tetsuya Mori, Center for Sustainable Resource Science, RIKEN
LICENSE: CC BY-NC-SA
PUBLICATION: Tsugawa H., Nakabayashi R., Mori T., Yamada Y., Takahashi M., Rai A., Sugiyama R., Yamamoto H., Nakaya T., Yamazaki M., Kooke R., Bac-Molenaar JA., Oztolan-Erol N., Keurentjes JJB., Arita M., Saito K. (2019) "A cheminformatics approach to characterize metabolomes in stable-isotope-labeled organisms" Nature Methods 16(4):295-298. [doi:10.1038/s41592-019-0358-2]
COMMENT: registered in RIKEN PlaSMA
CH$NAME: Guan-fu base Y
CH$COMPOUND_CLASS: Atisane diterpenoids
CH$FORMULA: C22H29NO5
CH$EXACT_MASS: 387.476
CH$SMILES: CC(=O)OC1C[C@@]2(C)CN3[C@H]4CC56CC(=C)[C@@H]7C(O)[C@H]5[C@](C1)([C@@H]24)C3[C@@]6(O)C7O
CH$IUPAC: InChI=1S/C22H29NO5/c1-9-4-20-7-12-15-19(3)5-11(28-10(2)24)6-21(15)16(20)14(25)13(9)17(26)22(20,27)18(21)23(12)8-19/h11-18,25-27H,1,4-8H2,2-3H3/t11?,12-,13+,14?,15+,16+,17?,18?,19-,20?,21-,22-/m0/s1
CH$LINK: INCHIKEY XGTNTUKODZZCGL-LFXJTNOVSA-N
AC$INSTRUMENT: LC, Waters Acquity UPLC System; MS, Waters Xevo G2 Q-Tof
AC$INSTRUMENT_TYPE: LC-ESI-QTOF
AC$MASS_SPECTROMETRY: MS_TYPE MS2
AC$MASS_SPECTROMETRY: ION_MODE POSITIVE
AC$MASS_SPECTROMETRY: COLLISION_ENERGY 6V
AC$MASS_SPECTROMETRY: DESOLVATION_GAS_FLOW 800/h
AC$MASS_SPECTROMETRY: DESOLVATION_TEMPERATURE 450 C
AC$MASS_SPECTROMETRY: IONIZATION ESI
AC$CHROMATOGRAPHY: CAPILLARY_VOLTAGE +3.00 kV
AC$CHROMATOGRAPHY: COLUMN_NAME Acquity bridged ethyl hybrid C18 (1.7 um, 2.1 mm * 100 mm, Waters)
AC$CHROMATOGRAPHY: COLUMN_TEMPERATURE 40 C
AC$CHROMATOGRAPHY: FLOW_GRADIENT A/B = (99.5%/0.5% at 0 min, 99.5%/0.5% at 0.1 min, 20%/80% at 10 min, 0.5%/99.5% at 10.1 min, 0.5%/99.5% at 12.0 min, 99.5%/0.5% at 12.1 min, 99.5%/0.5% at 15.0 min)
AC$CHROMATOGRAPHY: FLOW_RATE 0.3 ml/min at 0 min, 0.3 ml/min at 10 min, 0.4 ml/min at 10.1 min, 0.4 ml/min at 14.4 min, 0.3 ml/min at 14.5 min
AC$CHROMATOGRAPHY: RETENTION_TIME 3.030383
AC$CHROMATOGRAPHY: SOLVENT A water including 0.1% formic acid
AC$CHROMATOGRAPHY: SOLVENT B acetonitrile including 0.1% formic acid
MS$FOCUSED_ION: PRECURSOR_TYPE [M+H]+
MS$FOCUSED_ION: PRECURSOR_M/Z 388.2118495
PK$SPLASH: splash10-000l-0139000000-16034829ec8a1b8da627
PK$NUM_PEAK: 36
PK$PEAK: m/z int. rel.int.
  93.07112 5.0 5
  105.07048 30.0 30
  107.08349 9.0 9
  121.10151 9.0 9
  131.08319 11.0 11
  144.0811 174.0 174
  145.08348 14.0 14
  149.09608 28.0 28
  158.09238 8.0 8
  158.09865 10.0 10
  263.1665 8.0 8
  264.17416 102.0 102
  265.18051 22.0 22
  282.18906 21.0 21
  283.18686 5.0 5
  292.16962 393.0 393
  293.17313 98.0 98
  294.16965 8.0 8
  294.18008 10.0 10
  310.17996 67.0 67
  311.18341 13.0 13
  323.19153 5.0 5
  324.19568 80.0 80
  325.19498 17.0 17
  328.1907 126.0 126
  329.18375 8.0 8
  329.19687 24.0 24
  330.19183 6.0 6
  352.18869 147.0 147
  353.18921 23.0 23
  353.20346 16.0 16
  354.19904 9.0 9
  370.20447 14.0 14
  388.16733 11.0 11
  388.21173 1000.0 999
  388.26654 11.0 11
//
