ACCESSION: MSBNK-RIKEN-PR300499
RECORD_TITLE: Isotalatizidine; LC-ESI-QTOF; MS2
DATE: 2019.03.28
AUTHORS: Tetsuya Mori, Center for Sustainable Resource Science, RIKEN
LICENSE: CC BY-NC-SA
PUBLICATION: Tsugawa H., Nakabayashi R., Mori T., Yamada Y., Takahashi M., Rai A., Sugiyama R., Yamamoto H., Nakaya T., Yamazaki M., Kooke R., Bac-Molenaar JA., Oztolan-Erol N., Keurentjes JJB., Arita M., Saito K. (2019) "A cheminformatics approach to characterize metabolomes in stable-isotope-labeled organisms" Nature Methods 16(4):295-298. [doi:10.1038/s41592-019-0358-2]
COMMENT: registered in RIKEN PlaSMA
CH$NAME: Isotalatizidine
CH$COMPOUND_CLASS: Aconitane-type diterpenoid alkaloids
CH$FORMULA: C23H37NO5
CH$EXACT_MASS: 407.551
CH$SMILES: CCN1C[C@@]2(COC)CC[C@H](O)[C@@]34C5C[C@H]6C(O)C5[C@](O)(C[C@@H]6OC)C(CC23)C14
CH$IUPAC: InChI=1S/C23H37NO5/c1-4-24-10-21(11-28-2)6-5-17(25)23-13-7-12-15(29-3)9-22(27,18(13)19(12)26)14(20(23)24)8-16(21)23/h12-20,25-27H,4-11H2,1-3H3/t12-,13?,14?,15+,16?,17+,18?,19?,20?,21-,22+,23-/m1/s1
CH$LINK: INCHIKEY RBSZCNOWHDHRFZ-CFIIAAHPSA-N
AC$INSTRUMENT: LC, Waters Acquity UPLC System; MS, Waters Xevo G2 Q-Tof
AC$INSTRUMENT_TYPE: LC-ESI-QTOF
AC$MASS_SPECTROMETRY: MS_TYPE MS2
AC$MASS_SPECTROMETRY: ION_MODE POSITIVE
AC$MASS_SPECTROMETRY: COLLISION_ENERGY 6V
AC$MASS_SPECTROMETRY: DESOLVATION_GAS_FLOW 800/h
AC$MASS_SPECTROMETRY: DESOLVATION_TEMPERATURE 450 C
AC$MASS_SPECTROMETRY: IONIZATION ESI
AC$CHROMATOGRAPHY: CAPILLARY_VOLTAGE +3.00 kV
AC$CHROMATOGRAPHY: COLUMN_NAME Acquity bridged ethyl hybrid C18 (1.7 um, 2.1 mm * 100 mm, Waters)
AC$CHROMATOGRAPHY: COLUMN_TEMPERATURE 40 C
AC$CHROMATOGRAPHY: FLOW_GRADIENT A/B = (99.5%/0.5% at 0 min, 99.5%/0.5% at 0.1 min, 20%/80% at 10 min, 0.5%/99.5% at 10.1 min, 0.5%/99.5% at 12.0 min, 99.5%/0.5% at 12.1 min, 99.5%/0.5% at 15.0 min)
AC$CHROMATOGRAPHY: FLOW_RATE 0.3 ml/min at 0 min, 0.3 ml/min at 10 min, 0.4 ml/min at 10.1 min, 0.4 ml/min at 14.4 min, 0.3 ml/min at 14.5 min
AC$CHROMATOGRAPHY: RETENTION_TIME 2.906267
AC$CHROMATOGRAPHY: SOLVENT A water including 0.1% formic acid
AC$CHROMATOGRAPHY: SOLVENT B acetonitrile including 0.1% formic acid
MS$FOCUSED_ION: PRECURSOR_TYPE [M+H]+
MS$FOCUSED_ION: PRECURSOR_M/Z 408.2744497
PK$SPLASH: splash10-0a4l-0109700000-97dc57c6034195c13f73
PK$NUM_PEAK: 47
PK$PEAK: m/z int. rel.int.
  58.06535 19.0 19
  72.08037 9.0 9
  93.06673 5.0 5
  98.09571 38.0 38
  102.09376 8.0 8
  108.07915 14.0 14
  124.11219 6.0 6
  131.08592 7.0 7
  137.05956 6.0 6
  141.06958 6.0 6
  143.08385 7.0 7
  154.12405 18.0 18
  157.1004 5.0 5
  169.10219 11.0 11
  171.11896 7.0 7
  181.10483 8.0 8
  183.11688 14.0 14
  195.11403 6.0 6
  197.13312 13.0 13
  207.12212 5.0 5
  225.12772 6.0 6
  237.15866 5.0 5
  243.13445 7.0 7
  257.15976 6.0 6
  265.15427 5.0 5
  265.16904 6.0 6
  283.16745 11.0 11
  297.19165 7.0 7
  326.21677 6.0 6
  327.20773 6.0 6
  330.21545 6.0 6
  340.22357 17.0 17
  340.23752 10.0 10
  358.23874 67.0 67
  359.23996 16.0 16
  362.23044 14.0 14
  372.24261 22.0 22
  372.26297 25.0 25
  373.25848 21.0 21
  390.21967 9.0 9
  390.26212 744.0 743
  390.31372 6.0 6
  391.26614 204.0 204
  392.2612 28.0 28
  392.27805 19.0 19
  408.20639 7.0 7
  408.27451 1000.0 999
//
