ACCESSION: MSBNK-RIKEN-PR303362
RECORD_TITLE: NP-000002(10); LC-ESI-QTOF; MS2
DATE: 2019.03.28
AUTHORS: Tetsuya Mori, Center for Sustainable Resource Science, RIKEN
LICENSE: CC BY-NC-SA
PUBLICATION: Tsugawa H., Nakabayashi R., Mori T., Yamada Y., Takahashi M., Rai A., Sugiyama R., Yamamoto H., Nakaya T., Yamazaki M., Kooke R., Bac-Molenaar JA., Oztolan-Erol N., Keurentjes JJB., Arita M., Saito K. (2019) "A cheminformatics approach to characterize metabolomes in stable-isotope-labeled organisms" Nature Methods 16(4):295-298. [doi:10.1038/s41592-019-0358-2]
COMMENT: registered in RIKEN PlaSMA
CH$NAME: NP-000002(10)
CH$COMPOUND_CLASS: Flavonoid 8-C-glycosides
CH$FORMULA: C27H30O15
CH$EXACT_MASS: 594.522
CH$SMILES: OCC1OC(C(O)C(O)C1O)C1=C(O)C(C2OC(CO)C(O)C(O)C2O)=C2OC(=CC(=O)C2=C1O)C1=CC=C(O)C=C1
CH$IUPAC: InChI=1S/C27H30O15/c28-6-12-17(32)21(36)23(38)26(41-12)15-19(34)14-10(31)5-11(8-1-3-9(30)4-2-8)40-25(14)16(20(15)35)27-24(39)22(37)18(33)13(7-29)42-27/h1-5,12-13,17-18,21-24,26-30,32-39H,6-7H2
CH$LINK: INCHIKEY FIAAVMJLAGNUKW-UHFFFAOYSA-N
AC$INSTRUMENT: LC, Waters Acquity UPLC System; MS, Waters Xevo G2 Q-Tof
AC$INSTRUMENT_TYPE: LC-ESI-QTOF
AC$MASS_SPECTROMETRY: MS_TYPE MS2
AC$MASS_SPECTROMETRY: ION_MODE POSITIVE
AC$MASS_SPECTROMETRY: COLLISION_ENERGY 6V
AC$MASS_SPECTROMETRY: DESOLVATION_GAS_FLOW 800/h
AC$MASS_SPECTROMETRY: DESOLVATION_TEMPERATURE 450 C
AC$MASS_SPECTROMETRY: IONIZATION ESI
AC$CHROMATOGRAPHY: CAPILLARY_VOLTAGE +3.00 kV
AC$CHROMATOGRAPHY: COLUMN_NAME Acquity bridged ethyl hybrid C18 (1.7 um, 2.1 mm * 100 mm, Waters)
AC$CHROMATOGRAPHY: COLUMN_TEMPERATURE 40 C
AC$CHROMATOGRAPHY: FLOW_GRADIENT A/B = (99.5%/0.5% at 0 min, 99.5%/0.5% at 0.1 min, 20%/80% at 10 min, 0.5%/99.5% at 10.1 min, 0.5%/99.5% at 12.0 min, 99.5%/0.5% at 12.1 min, 99.5%/0.5% at 15.0 min)
AC$CHROMATOGRAPHY: FLOW_RATE 0.3 ml/min at 0 min, 0.3 ml/min at 10 min, 0.4 ml/min at 10.1 min, 0.4 ml/min at 14.4 min, 0.3 ml/min at 14.5 min
AC$CHROMATOGRAPHY: RETENTION_TIME 3.302967
AC$CHROMATOGRAPHY: SOLVENT A water including 0.1% formic acid
AC$CHROMATOGRAPHY: SOLVENT B acetonitrile including 0.1% formic acid
MS$FOCUSED_ION: PRECURSOR_TYPE [M+H]+
MS$FOCUSED_ION: PRECURSOR_M/Z 595.1657467
PK$SPLASH: splash10-002b-0049000000-d03e9342088b01b7c96e
PK$NUM_PEAK: 234
PK$PEAK: m/z int. rel.int.
  73.02774 23.0 23
  81.0337 16.0 16
  84.01694 24.0 24
  85.03219 34.0 34
  93.03762 32.0 32
  119.04674 40.0 40
  121.02654 125.0 125
  121.03554 28.0 28
  131.05415 24.0 24
  163.03773 20.0 20
  174.02725 74.0 74
  175.00139 19.0 19
  175.04155 27.0 27
  177.02155 25.0 25
  179.0387 39.0 39
  187.03661 105.0 105
  189.01492 29.0 29
  189.02304 19.0 19
  190.04056 26.0 26
  191.03696 26.0 26
  193.6387 23.0 23
  197.4133 19.0 19
  198.03694 29.0 29
  201.00661 17.0 17
  201.06308 20.0 20
  203.02429 21.0 21
  203.03633 35.0 35
  203.04547 32.0 32
  204.04181 23.0 23
  205.04686 35.0 35
  207.03648 33.0 33
  211.04147 57.0 57
  212.08549 20.0 20
  214.05974 20.0 20
  215.03683 37.0 37
  219.00516 38.0 38
  219.02975 73.0 73
  219.04211 32.0 32
  220.06461 30.0 30
  220.55133 23.0 23
  223.11256 23.0 23
  225.06302 26.0 26
  229.04887 55.0 55
  231.03154 22.0 22
  233.00969 19.0 19
  233.03973 19.0 19
  233.05371 40.0 40
  239.02797 31.0 31
  239.04001 30.0 30
  243.02676 40.0 40
  247.06982 18.0 18
  253.09444 25.0 25
  254.42519 19.0 19
  255.02966 86.0 86
  255.03879 34.0 34
  255.07307 29.0 29
  257.05081 27.0 27
  257.06094 40.0 40
  262.06674 28.0 28
  262.30847 16.0 16
  263.06805 33.0 33
  263.08023 17.0 17
  267.06534 18.0 18
  268.0488 41.0 41
  268.06479 27.0 27
  269.0874 63.0 63
  272.50684 29.0 29
  274.26266 19.0 19
  277.08136 45.0 45
  279.06479 34.0 34
  280.08121 16.0 16
  281.0809 105.0 105
  281.10251 20.0 20
  282.08585 54.0 54
  283.05569 47.0 47
  283.1073 31.0 31
  285.03922 54.0 54
  290.08539 17.0 17
  293.05292 24.0 24
  293.09717 17.0 17
  294.03555 90.0 90
  294.05304 277.0 277
  294.08545 42.0 42
  295.02744 60.0 60
  295.05887 1000.0 999
  295.0817 52.0 52
  295.09976 40.0 40
  295.99982 17.0 17
  296.05261 83.0 83
  296.06189 188.0 188
  296.07642 80.0 80
  297.04321 21.0 21
  297.06836 105.0 105
  297.0965 42.0 42
  299.07181 24.0 24
  300.0524 19.0 19
  302.10635 34.0 34
  304.95206 17.0 17
  305.05121 18.0 18
  305.08072 58.0 58
  306.72803 27.0 27
  307.03952 52.0 52
  307.06061 379.0 379
  307.07169 121.0 121
  307.09543 26.0 26
  307.90952 19.0 19
  307.99658 28.0 28
  308.03555 26.0 26
  308.05722 51.0 51
  308.07404 156.0 156
  308.41245 19.0 19
  309.01602 22.0 22
  309.05563 56.0 56
  309.0657 61.0 61
  309.08377 129.0 129
  310.07904 100.0 100
  310.17776 19.0 19
  313.07242 36.0 36
  317.09018 21.0 21
  318.09299 19.0 19
  319.04556 19.0 19
  319.06168 17.0 17
  319.10843 21.0 21
  320.04837 20.0 20
  320.07245 105.0 105
  320.10477 24.0 24
  320.99237 17.0 17
  321.07288 247.0 247
  321.08789 172.0 172
  322.04672 26.0 26
  322.07529 171.0 171
  322.09033 47.0 47
  323.02713 19.0 19
  323.04218 34.0 34
  323.08682 124.0 124
  324.09326 23.0 23
  325.01385 20.0 20
  325.05746 148.0 148
  325.07428 656.0 655
  325.62201 23.0 23
  326.07812 141.0 141
  327.07092 38.0 38
  327.08289 46.0 46
  328.06619 22.0 22
  329.09723 38.0 38
  331.05209 27.0 27
  333.00574 27.0 27
  333.06412 59.0 59
  333.08417 197.0 197
  334.0835 26.0 26
  335.07129 45.0 45
  335.09717 146.0 146
  336.07996 16.0 16
  337.06989 185.0 185
  337.08563 111.0 111
  338.07214 34.0 34
  339.04037 28.0 28
  339.08896 20.0 20
  340.08313 47.0 47
  340.1106 26.0 26
  340.80038 16.0 16
  343.09512 34.0 34
  346.07159 36.0 36
  347.05832 51.0 51
  347.08975 69.0 69
  347.10172 38.0 38
  347.11591 30.0 30
  348.10428 33.0 33
  349.07031 165.0 165
  349.09189 17.0 17
  350.07031 73.0 73
  350.08875 64.0 64
  351.04544 16.0 16
  351.06461 27.0 27
  351.08713 368.0 368
  351.43161 22.0 22
  352.07483 57.0 57
  352.09396 46.0 46
  353.09552 22.0 22
  355.09155 24.0 24
  357.08774 34.0 34
  358.07208 36.0 36
  359.11063 17.0 17
  361.05762 68.0 68
  361.07574 206.0 206
  361.10355 58.0 58
  361.13879 21.0 21
  362.06348 26.0 26
  362.09061 35.0 35
  363.07108 24.0 24
  363.08423 17.0 17
  365.10806 97.0 97
  366.10602 29.0 29
  367.07806 20.0 20
  367.09299 40.0 40
  373.08151 159.0 159
  374.07059 39.0 39
  375.03079 35.0 35
  375.07635 54.0 54
  375.0976 27.0 27
  376.06601 21.0 21
  377.06717 19.0 19
  379.06821 32.0 32
  379.08447 154.0 154
  380.09006 24.0 24
  384.10333 26.0 26
  385.07938 20.0 20
  387.06543 16.0 16
  387.0975 18.0 18
  387.11017 22.0 22
  391.03305 43.0 43
  391.08215 74.0 74
  392.04114 20.0 20
  396.99838 17.0 17
  401.10144 31.0 31
  403.07788 50.0 50
  404.06894 17.0 17
  405.09122 20.0 20
  405.10748 33.0 33
  408.10437 22.0 22
  409.09689 22.0 22
  414.11606 34.0 34
  415.09521 21.0 21
  417.09293 26.0 26
  418.1019 16.0 16
  419.10556 27.0 27
  427.09097 19.0 19
  429.08896 34.0 34
  433.0871 16.0 16
  435.45374 18.0 18
  439.08383 25.0 25
  447.11047 21.0 21
  457.04855 20.0 20
  459.07944 20.0 20
//
