ACCESSION: MSBNK-RIKEN-PR301168
RECORD_TITLE: Isohernandezine; LC-ESI-QTOF; MS2
DATE: 2019.03.28
AUTHORS: Tetsuya Mori, Center for Sustainable Resource Science, RIKEN
LICENSE: CC BY-NC-SA
PUBLICATION: Tsugawa H., Nakabayashi R., Mori T., Yamada Y., Takahashi M., Rai A., Sugiyama R., Yamamoto H., Nakaya T., Yamazaki M., Kooke R., Bac-Molenaar JA., Oztolan-Erol N., Keurentjes JJB., Arita M., Saito K. (2019) "A cheminformatics approach to characterize metabolomes in stable-isotope-labeled organisms" Nature Methods 16(4):295-298. [doi:10.1038/s41592-019-0358-2]
COMMENT: registered in RIKEN PlaSMA
CH$NAME: Isohernandezine
CH$COMPOUND_CLASS: Tannins
CH$FORMULA: C39H44N2O7
CH$EXACT_MASS: 652.788
CH$SMILES: COC1=C2OC3=CC=C(C[C@H]4N(C)CCC5=CC(OC)=C(OC6=C(OC)C(OC)=C(OC)C7=C6[C@H](CC(C=C1)=C2)N(C)CC7)C=C45)C=C3
CH$IUPAC: InChI=1S/C39H44N2O7/c1-40-16-14-25-21-32(43-4)34-22-28(25)29(40)18-23-8-11-26(12-9-23)47-33-20-24(10-13-31(33)42-3)19-30-35-27(15-17-41(30)2)36(44-5)38(45-6)39(46-7)37(35)48-34/h8-13,20-22,29-30H,14-19H2,1-7H3/t29-,30+/m1/s1
CH$LINK: INCHIKEY FUZMQNZACIFDBL-IHLOFXLRSA-N
AC$INSTRUMENT: LC, Waters Acquity UPLC System; MS, Waters Xevo G2 Q-Tof
AC$INSTRUMENT_TYPE: LC-ESI-QTOF
AC$MASS_SPECTROMETRY: MS_TYPE MS2
AC$MASS_SPECTROMETRY: ION_MODE POSITIVE
AC$MASS_SPECTROMETRY: COLLISION_ENERGY 6V
AC$MASS_SPECTROMETRY: DESOLVATION_GAS_FLOW 800/h
AC$MASS_SPECTROMETRY: DESOLVATION_TEMPERATURE 450 C
AC$MASS_SPECTROMETRY: IONIZATION ESI
AC$CHROMATOGRAPHY: CAPILLARY_VOLTAGE +3.00 kV
AC$CHROMATOGRAPHY: COLUMN_NAME Acquity bridged ethyl hybrid C18 (1.7 um, 2.1 mm * 100 mm, Waters)
AC$CHROMATOGRAPHY: COLUMN_TEMPERATURE 40 C
AC$CHROMATOGRAPHY: FLOW_GRADIENT A/B = (99.5%/0.5% at 0 min, 99.5%/0.5% at 0.1 min, 20%/80% at 10 min, 0.5%/99.5% at 10.1 min, 0.5%/99.5% at 12.0 min, 99.5%/0.5% at 12.1 min, 99.5%/0.5% at 15.0 min)
AC$CHROMATOGRAPHY: FLOW_RATE 0.3 ml/min at 0 min, 0.3 ml/min at 10 min, 0.4 ml/min at 10.1 min, 0.4 ml/min at 14.4 min, 0.3 ml/min at 14.5 min
AC$CHROMATOGRAPHY: RETENTION_TIME 4.412416
AC$CHROMATOGRAPHY: SOLVENT A water including 0.1% formic acid
AC$CHROMATOGRAPHY: SOLVENT B acetonitrile including 0.1% formic acid
MS$FOCUSED_ION: PRECURSOR_TYPE [M+H]+
MS$FOCUSED_ION: PRECURSOR_M/Z 653.3221282
PK$SPLASH: splash10-03kc-0935410000-68db752f8bab7afef435
PK$NUM_PEAK: 388
PK$PEAK: m/z int. rel.int.
  102.40161 11.0 11
  110.79984 13.0 13
  114.58087 12.0 12
  115.02441 16.0 16
  117.06942 12.0 12
  121.06187 13.0 13
  131.04214 37.0 37
  133.06447 11.0 11
  135.19653 15.0 15
  136.08511 17.0 17
  136.09311 11.0 11
  138.06749 17.0 17
  143.04767 22.0 22
  143.05557 18.0 18
  143.07582 22.0 22
  144.08429 29.0 29
  145.08249 69.0 69
  145.08943 89.0 89
  146.09604 43.0 43
  147.04738 17.0 17
  147.10081 16.0 16
  148.05214 23.0 23
  148.0788 14.0 14
  149.06026 23.0 23
  149.22653 15.0 15
  155.04361 19.0 19
  157.08881 25.0 25
  157.26741 17.0 17
  157.74333 13.0 13
  157.94907 11.0 11
  157.99007 11.0 11
  158.08795 13.0 13
  159.08253 24.0 24
  159.10519 23.0 23
  160.06984 24.0 24
  160.07655 18.0 18
  161.07971 36.0 36
  161.09033 21.0 21
  162.08287 82.0 82
  162.09355 311.0 311
  162.10403 71.0 71
  163.05911 18.0 18
  163.0742 19.0 19
  163.08984 16.0 16
  164.10812 17.0 17
  165.05885 12.0 12
  172.07419 19.0 19
  172.70381 17.0 17
  173.06593 11.0 11
  173.0903 14.0 14
  173.96103 14.0 14
  174.03088 14.0 14
  174.06075 15.0 15
  174.06882 29.0 29
  174.09224 1000.0 999
  174.88437 12.0 12
  175.06906 27.0 27
  175.09198 25.0 25
  175.09911 49.0 49
  175.11995 14.0 14
  176.07457 49.0 49
  176.08463 16.0 16
  176.10966 95.0 95
  177.07639 14.0 14
  177.11136 13.0 13
  178.07921 18.0 18
  178.08809 12.0 12
  179.08615 14.0 14
  181.07631 14.0 14
  181.08575 37.0 37
  189.0762 17.0 17
  189.08905 16.0 16
  189.1113 29.0 29
  190.05742 12.0 12
  190.08833 415.0 415
  190.11632 29.0 29
  191.06554 15.0 15
  191.07573 40.0 40
  191.08282 40.0 40
  191.09558 310.0 310
  191.1084 26.0 26
  192.08916 67.0 67
  192.10077 211.0 211
  193.09596 25.0 25
  193.10207 14.0 14
  194.08911 13.0 13
  195.10118 16.0 16
  195.39784 14.0 14
  197.09003 25.0 25
  201.0755 19.0 19
  202.12704 16.0 16
  203.06184 13.0 13
  203.09113 13.0 13
  203.1044 13.0 13
  203.12053 13.0 13
  204.07735 14.0 14
  204.09413 44.0 44
  204.1131 16.0 16
  205.07823 12.0 12
  205.10982 38.0 38
  206.01772 14.0 14
  206.08063 51.0 51
  207.0916 27.0 27
  208.09653 30.0 30
  213.09203 35.0 35
  217.05835 17.0 17
  218.0594 12.0 12
  218.0937 15.0 15
  219.09509 11.0 11
  219.11 18.0 18
  220.09578 13.0 13
  220.11296 12.0 12
  222.11041 48.0 48
  222.13123 12.0 12
  226.10724 19.0 19
  227.08682 18.0 18
  227.10193 49.0 49
  228.10608 15.0 15
  233.09688 27.0 27
  233.96207 13.0 13
  234.08243 20.0 20
  234.12103 25.0 25
  235.05862 15.0 15
  235.10564 15.0 15
  236.13271 17.0 17
  237.06401 22.0 22
  237.09753 34.0 34
  238.14008 18.0 18
  240.11136 13.0 13
  241.12062 11.0 11
  247.07333 14.0 14
  248.08803 15.0 15
  248.11652 11.0 11
  250.10394 39.0 39
  251.06485 13.0 13
  251.10342 33.0 33
  252.11317 15.0 15
  253.0834 13.0 13
  256.13882 15.0 15
  258.10696 12.0 12
  265.12836 19.0 19
  266.08823 39.0 39
  266.12039 17.0 17
  268.11377 11.0 11
  268.13477 14.0 14
  269.13361 13.0 13
  270.09537 17.0 17
  271.10019 15.0 15
  271.11063 13.0 13
  276.11316 14.0 14
  277.08557 12.0 12
  277.10358 12.0 12
  279.07593 20.0 20
  280.12967 13.0 13
  281.07834 12.0 12
  281.14099 15.0 15
  282.08804 17.0 17
  285.09653 17.0 17
  287.81552 15.0 15
  291.12393 12.0 12
  294.13275 25.0 25
  294.15424 13.0 13
  296.12616 15.0 15
  297.10858 12.0 12
  297.11688 19.0 19
  297.2153 11.0 11
  298.05969 15.0 15
  300.09476 24.0 24
  300.12225 14.0 14
  306.12048 14.0 14
  307.09256 13.0 13
  308.09009 19.0 19
  308.72598 11.0 11
  309.09665 11.0 11
  309.11627 28.0 28
  309.13617 11.0 11
  310.12195 14.0 14
  311.1127 16.0 16
  311.1308 13.0 13
  311.16342 16.0 16
  314.12015 12.0 12
  314.14096 13.0 13
  315.13751 14.0 14
  318.10837 11.0 11
  321.12891 18.0 18
  322.13528 17.0 17
  323.13358 17.0 17
  324.0997 35.0 35
  324.14737 13.0 13
  324.16553 17.0 17
  326.12445 23.0 23
  326.31345 11.0 11
  327.13379 22.0 22
  333.12799 14.0 14
  334.11118 19.0 19
  334.17471 15.0 15
  335.11404 48.0 48
  337.11816 14.0 14
  338.15918 13.0 13
  339.08911 11.0 11
  339.10034 13.0 13
  339.14008 32.0 32
  340.08911 14.0 14
  340.13715 19.0 19
  341.11969 26.0 26
  342.13998 13.0 13
  344.14081 15.0 15
  345.14499 19.0 19
  346.51022 15.0 15
  350.11386 15.0 15
  350.14255 28.0 28
  350.15509 18.0 18
  351.14642 15.0 15
  352.1095 13.0 13
  352.1474 13.0 13
  353.16989 15.0 15
  354.02026 18.0 18
  355.11646 13.0 13
  357.15573 38.0 38
  358.12616 17.0 17
  359.1051 15.0 15
  359.14124 15.0 15
  359.83075 15.0 15
  363.08426 15.0 15
  363.13864 12.0 12
  363.15381 29.0 29
  364.1456 35.0 35
  364.16354 22.0 22
  365.12106 11.0 11
  365.147 47.0 47
  366.1265 13.0 13
  366.14871 133.0 133
  367.13361 11.0 11
  367.15121 25.0 25
  368.13589 53.0 53
  368.15646 83.0 83
  369.13885 31.0 31
  369.15671 19.0 19
  370.11142 13.0 13
  370.14563 14.0 14
  372.17386 15.0 15
  376.10297 14.0 14
  376.14951 17.0 17
  378.16074 33.0 33
  379.16211 31.0 31
  380.13797 27.0 27
  380.15353 37.0 37
  380.18524 25.0 25
  381.09674 12.0 12
  381.13037 30.0 30
  381.14777 123.0 123
  382.13724 23.0 23
  382.15573 17.0 17
  383.06345 11.0 11
  383.12573 13.0 13
  383.14264 16.0 16
  383.15594 16.0 16
  383.18552 23.0 23
  384.1597 17.0 17
  386.16595 11.0 11
  387.11108 15.0 15
  387.15244 12.0 12
  393.16534 13.0 13
  393.18542 79.0 79
  394.16223 28.0 28
  394.19012 89.0 89
  395.14407 16.0 16
  395.15729 14.0 14
  395.20105 33.0 33
  395.82419 13.0 13
  396.11673 14.0 14
  396.15073 17.0 17
  396.1694 30.0 30
  396.19522 55.0 55
  397.13358 13.0 13
  397.16382 25.0 25
  399.99521 13.0 13
  400.15945 28.0 28
  401.12762 27.0 27
  401.15607 13.0 13
  402.12045 13.0 13
  402.16302 17.0 17
  402.18723 16.0 16
  403.1402 13.0 13
  403.16043 13.0 13
  409.17792 18.0 18
  410.19629 15.0 15
  411.14948 20.0 20
  411.17767 339.0 339
  411.19354 715.0 714
  412.14502 27.0 27
  412.18976 115.0 115
  412.20709 57.0 57
  413.1384 17.0 17
  413.19806 57.0 57
  414.16354 11.0 11
  414.18875 17.0 17
  415.14734 13.0 13
  415.16147 24.0 24
  416.17404 12.0 12
  417.1315 18.0 18
  417.14355 12.0 12
  418.15933 15.0 15
  422.17181 15.0 15
  424.17157 13.0 13
  425.2041 27.0 27
  428.1488 13.0 13
  428.20587 15.0 15
  430.17416 23.0 23
  431.19608 17.0 17
  441.17038 13.0 13
  441.21457 14.0 14
  445.15536 13.0 13
  445.2081 12.0 12
  446.1658 11.0 11
  447.19913 11.0 11
  460.17056 14.0 14
  465.1431 11.0 11
  470.1741 13.0 13
  473.25842 14.0 14
  475.17102 15.0 15
  484.16425 13.0 13
  489.11578 11.0 11
  501.19104 11.0 11
  502.2529 15.0 15
  503.19495 17.0 17
  508.23203 15.0 15
  514.17218 14.0 14
  516.18457 17.0 17
  516.23615 17.0 17
  517.1546 22.0 22
  530.21637 11.0 11
  532.22125 17.0 17
  532.2547 12.0 12
  534.21082 12.0 12
  535.26019 15.0 15
  540.22827 11.0 11
  546.21991 25.0 25
  546.24097 27.0 27
  547.23743 11.0 11
  548.48853 18.0 18
  549.18115 27.0 27
  549.20056 32.0 32
  550.23798 11.0 11
  552.19806 15.0 15
  560.17615 14.0 14
  561.18463 31.0 31
  561.2215 25.0 25
  562.21643 27.0 27
  564.24561 11.0 11
  566.24127 12.0 12
  573.19501 13.0 13
  574.23456 13.0 13
  575.23694 16.0 16
  576.19708 13.0 13
  576.22998 29.0 29
  576.26569 18.0 18
  580.24463 23.0 23
  581.237 13.0 13
  590.08667 13.0 13
  590.23047 23.0 23
  590.26605 26.0 26
  591.2453 11.0 11
  591.30109 14.0 14
  592.23853 24.0 24
  593.19116 15.0 15
  593.20886 12.0 12
  593.23474 13.0 13
  594.21442 11.0 11
  606.11633 18.0 18
  606.24329 50.0 50
  606.25702 119.0 119
  606.28333 13.0 13
  607.2439 30.0 30
  609.28754 18.0 18
  613.25891 11.0 11
  621.26825 16.0 16
  621.29553 39.0 39
  622.27618 15.0 15
  623.27185 14.0 14
  624.29236 12.0 12
  626.00793 11.0 11
  637.27521 11.0 11
  637.29596 14.0 14
  638.2674 14.0 14
  638.30707 12.0 12
  640.22296 13.0 13
  642.26453 13.0 13
//
