ACCESSION: MSBNK-RIKEN-PR309253
RECORD_TITLE: Flavonol base + 5O, O-Hex, O-Hex; LC-ESI-QTOF; MS2
DATE: 2019.03.28
AUTHORS: Tetsuya Mori, Center for Sustainable Resource Science, RIKEN
LICENSE: CC BY-NC-SA
PUBLICATION: Tsugawa H., Nakabayashi R., Mori T., Yamada Y., Takahashi M., Rai A., Sugiyama R., Yamamoto H., Nakaya T., Yamazaki M., Kooke R., Bac-Molenaar JA., Oztolan-Erol N., Keurentjes JJB., Arita M., Saito K. (2019) "A cheminformatics approach to characterize metabolomes in stable-isotope-labeled organisms" Nature Methods 16(4):295-298. [doi:10.1038/s41592-019-0358-2]
COMMENT: Annotation level-3
CH$NAME: Flavonol base + 5O, O-Hex, O-Hex
CH$COMPOUND_CLASS: Flavonol O-glycosides
CH$FORMULA: C27H30O18
CH$EXACT_MASS: 642.519
CH$SMILES: O=C2C(OC1OC(CO)C(O)C(O)C1(O))=C(OC3=CC(O)=CC(O)=C23)C5=CC(O)=C(O)C(OC4OC(CO)C(O)C(O)C4(O))=C5
CH$IUPAC: InChI=1S/C27H30O18/c28-5-13-17(34)20(37)22(39)26(43-13)42-12-2-7(1-10(32)16(12)33)24-25(19(36)15-9(31)3-8(30)4-11(15)41-24)45-27-23(40)21(38)18(35)14(6-29)44-27/h1-4,13-14,17-18,20-23,26-35,37-40H,5-6H2
CH$LINK: INCHIKEY FEWRYXXFMHQZRI-UHFFFAOYSA-N
AC$INSTRUMENT: LC, Waters Acquity UPLC System; MS, Waters Xevo G2 Q-Tof
AC$INSTRUMENT_TYPE: LC-ESI-QTOF
AC$MASS_SPECTROMETRY: MS_TYPE MS2
AC$MASS_SPECTROMETRY: ION_MODE NEGATIVE
AC$MASS_SPECTROMETRY: COLLISION_ENERGY 6V
AC$MASS_SPECTROMETRY: DESOLVATION_GAS_FLOW 800/h
AC$MASS_SPECTROMETRY: DESOLVATION_TEMPERATURE 450 C
AC$MASS_SPECTROMETRY: IONIZATION ESI
AC$CHROMATOGRAPHY: CAPILLARY_VOLTAGE +3.00 kV
AC$CHROMATOGRAPHY: COLUMN_NAME Acquity bridged ethyl hybrid C18 (1.7 um, 2.1 mm * 100 mm, Waters)
AC$CHROMATOGRAPHY: COLUMN_TEMPERATURE 40 C
AC$CHROMATOGRAPHY: FLOW_GRADIENT A/B = (99.5%/0.5% at 0 min, 99.5%/0.5% at 0.1 min, 20%/80% at 10 min, 0.5%/99.5% at 10.1 min, 0.5%/99.5% at 12.0 min, 99.5%/0.5% at 12.1 min, 99.5%/0.5% at 15.0 min)
AC$CHROMATOGRAPHY: FLOW_RATE 0.3 ml/min at 0 min, 0.3 ml/min at 10 min, 0.4 ml/min at 10.1 min, 0.4 ml/min at 14.4 min, 0.3 ml/min at 14.5 min
AC$CHROMATOGRAPHY: RETENTION_TIME 3.35
AC$CHROMATOGRAPHY: SOLVENT A water including 0.1% formic acid
AC$CHROMATOGRAPHY: SOLVENT B acetonitrile including 0.1% formic acid
MS$FOCUSED_ION: PRECURSOR_TYPE [M-H]-
MS$FOCUSED_ION: PRECURSOR_M/Z 641.1357
PK$SPLASH: splash10-0006-0002309000-a9429d1d71f69256565d
PK$NUM_PEAK: 30
PK$PEAK: m/z int. rel.int.
  178.99234 18.0 8
  180.00009 44.0 19
  198.70605 20.0 9
  206.01845 24.0 11
  238.29149 18.0 8
  271.03711 18.0 8
  315.00772 69.0 31
  315.02286 63.0 28
  316.02359 268.0 119
  317.02936 221.0 98
  329.03513 27.0 12
  359.03806 18.0 8
  360.04669 25.0 11
  426.71024 34.0 15
  477.04984 18.0 8
  477.06982 37.0 16
  478.06503 120.0 53
  478.07953 90.0 40
  479.07883 380.0 168
  479.12701 19.0 8
  479.27728 20.0 9
  480.08527 82.0 36
  491.06787 23.0 10
  526.7522 24.0 11
  548.86829 27.0 12
  639.2262 22.0 10
  640.08087 20.0 9
  640.13062 85.0 38
  641.13611 2257.0 999
  641.18372 36.0 16
//
