ACCESSION: MSBNK-RIKEN-PR301856
RECORD_TITLE: Chrysanthellin B; LC-ESI-QTOF; MS2
DATE: 2019.03.28
AUTHORS: Tetsuya Mori, Center for Sustainable Resource Science, RIKEN
LICENSE: CC BY-NC-SA
PUBLICATION: Tsugawa H., Nakabayashi R., Mori T., Yamada Y., Takahashi M., Rai A., Sugiyama R., Yamamoto H., Nakaya T., Yamazaki M., Kooke R., Bac-Molenaar JA., Oztolan-Erol N., Keurentjes JJB., Arita M., Saito K. (2019) "A cheminformatics approach to characterize metabolomes in stable-isotope-labeled organisms" Nature Methods 16(4):295-298. [doi:10.1038/s41592-019-0358-2]
COMMENT: registered in RIKEN PlaSMA
CH$NAME: Chrysanthellin B
CH$COMPOUND_CLASS: Triterpene saponins
CH$FORMULA: C58H94O26
CH$EXACT_MASS: 1207.364
CH$SMILES: CC1OC(OC2C(O)COC(OC3C(C)OC(OC4C(O)C(O)COC4OC(=O)C45CCC(C)(C)CC4C4=CCC6C7(C)CCC(OC8OC(CO)C(O)C(O)C8O)C(C)(CO)C7CCC6(C)C4(C)CC5O)C(O)C3O)C2O)C(O)C(O)C1O
CH$IUPAC: InChI=1S/C58H94O26/c1-23-34(64)37(67)40(70)48(77-23)82-45-28(62)21-75-47(43(45)73)81-44-24(2)78-49(42(72)39(44)69)83-46-35(65)27(61)20-76-51(46)84-52(74)58-16-15-53(3,4)17-26(58)25-9-10-31-54(5)13-12-33(80-50-41(71)38(68)36(66)29(19-59)79-50)55(6,22-60)30(54)11-14-56(31,7)57(25,8)18-32(58)63/h9,23-24,26-51,59-73H,10-22H2,1-8H3
CH$LINK: INCHIKEY WNGIVKPPGCCJNP-UHFFFAOYSA-N
AC$INSTRUMENT: LC, Waters Acquity UPLC System; MS, Waters Xevo G2 Q-Tof
AC$INSTRUMENT_TYPE: LC-ESI-QTOF
AC$MASS_SPECTROMETRY: MS_TYPE MS2
AC$MASS_SPECTROMETRY: ION_MODE POSITIVE
AC$MASS_SPECTROMETRY: COLLISION_ENERGY 6V
AC$MASS_SPECTROMETRY: DESOLVATION_GAS_FLOW 800/h
AC$MASS_SPECTROMETRY: DESOLVATION_TEMPERATURE 450 C
AC$MASS_SPECTROMETRY: IONIZATION ESI
AC$CHROMATOGRAPHY: CAPILLARY_VOLTAGE +3.00 kV
AC$CHROMATOGRAPHY: COLUMN_NAME Acquity bridged ethyl hybrid C18 (1.7 um, 2.1 mm * 100 mm, Waters)
AC$CHROMATOGRAPHY: COLUMN_TEMPERATURE 40 C
AC$CHROMATOGRAPHY: FLOW_GRADIENT A/B = (99.5%/0.5% at 0 min, 99.5%/0.5% at 0.1 min, 20%/80% at 10 min, 0.5%/99.5% at 10.1 min, 0.5%/99.5% at 12.0 min, 99.5%/0.5% at 12.1 min, 99.5%/0.5% at 15.0 min)
AC$CHROMATOGRAPHY: FLOW_RATE 0.3 ml/min at 0 min, 0.3 ml/min at 10 min, 0.4 ml/min at 10.1 min, 0.4 ml/min at 14.4 min, 0.3 ml/min at 14.5 min
AC$CHROMATOGRAPHY: RETENTION_TIME 5.791234
AC$CHROMATOGRAPHY: SOLVENT A water including 0.1% formic acid
AC$CHROMATOGRAPHY: SOLVENT B acetonitrile including 0.1% formic acid
MS$FOCUSED_ION: PRECURSOR_TYPE [M+H]+
MS$FOCUSED_ION: PRECURSOR_M/Z 1207.61061
PK$SPLASH: splash10-0udi-0582900000-4cb9ca8170b403c238b7
PK$NUM_PEAK: 351
PK$PEAK: m/z int. rel.int.
  71.04824 23.0 23
  73.87019 14.0 14
  83.04876 117.0 117
  85.02457 105.0 105
  85.02852 76.0 76
  95.04673 14.0 14
  95.08673 13.0 13
  97.0276 62.0 62
  98.03378 14.0 14
  107.08607 24.0 24
  109.06505 14.0 14
  109.0982 54.0 54
  111.04524 154.0 154
  111.07156 23.0 23
  112.04647 18.0 18
  112.81687 29.0 29
  113.07107 29.0 29
  115.03351 27.0 27
  116.03379 12.0 12
  117.05988 12.0 12
  121.1004 12.0 12
  125.05883 13.0 13
  126.93734 26.0 26
  127.03349 62.0 62
  129.05473 231.0 231
  130.05162 14.0 14
  130.05869 24.0 24
  131.03836 20.0 20
  131.73979 11.0 11
  132.08118 12.0 12
  137.09178 11.0 11
  139.03798 26.0 26
  141.04039 13.0 13
  141.04922 18.0 18
  145.53842 25.0 25
  147.06618 250.0 250
  147.11272 12.0 12
  147.12019 18.0 18
  149.05637 14.0 14
  149.12895 108.0 108
  151.07159 14.0 14
  153.05588 43.0 43
  157.0108 20.0 20
  157.04184 24.0 24
  157.05733 14.0 14
  159.11263 39.0 39
  159.12456 13.0 13
  161.12694 12.0 12
  162.05862 18.0 18
  162.12772 16.0 16
  163.05637 36.0 36
  165.07483 23.0 23
  165.08691 11.0 11
  165.1026 13.0 13
  169.04631 12.0 12
  169.05557 13.0 13
  171.06096 12.0 12
  171.06972 12.0 12
  174.14175 11.0 11
  175.13947 14.0 14
  177.16074 43.0 43
  177.17186 30.0 30
  178.16528 30.0 30
  179.14786 36.0 36
  180.06924 18.0 18
  183.11436 14.0 14
  187.14775 144.0 144
  187.15816 46.0 46
  188.1571 37.0 37
  189.13013 14.0 14
  189.15808 42.0 42
  189.16547 138.0 138
  191.17917 83.0 83
  192.1846 12.0 12
  193.08702 12.0 12
  193.17877 11.0 11
  194.15834 15.0 15
  195.06538 12.0 12
  195.07269 12.0 12
  195.11682 16.0 16
  195.14018 13.0 13
  196.50346 14.0 14
  199.15065 20.0 20
  201.07526 30.0 30
  201.11777 14.0 14
  201.16125 176.0 176
  202.07886 12.0 12
  202.16571 13.0 13
  203.10692 11.0 11
  203.13374 45.0 45
  203.14354 122.0 122
  203.1787 97.0 97
  204.1492 11.0 11
  204.19077 28.0 28
  205.1505 14.0 14
  205.1664 41.0 41
  206.17035 16.0 16
  207.06282 16.0 16
  207.16388 83.0 83
  207.17891 134.0 134
  207.1908 27.0 27
  208.15974 16.0 16
  208.17307 24.0 24
  210.07437 14.0 14
  210.17622 16.0 16
  210.39996 12.0 12
  211.14323 14.0 14
  212.0603 22.0 22
  213.07764 28.0 28
  215.14346 11.0 11
  215.17683 12.0 12
  215.185 14.0 14
  216.17937 20.0 20
  216.4214 13.0 13
  217.07715 20.0 20
  217.15829 17.0 17
  217.18889 35.0 35
  217.20155 25.0 25
  218.49425 22.0 22
  219.17235 35.0 35
  219.21431 39.0 39
  221.14543 20.0 20
  221.18845 11.0 11
  221.20062 12.0 12
  221.22194 11.0 11
  223.13824 12.0 12
  223.14902 22.0 22
  223.17416 11.0 11
  225.05766 15.0 15
  225.07584 204.0 204
  225.0927 12.0 12
  226.07111 29.0 29
  226.09387 12.0 12
  229.15727 12.0 12
  229.19276 12.0 12
  233.1787 15.0 15
  233.20097 14.0 14
  234.18881 12.0 12
  235.19046 14.0 14
  237.07947 12.0 12
  237.155 14.0 14
  239.07787 11.0 11
  239.09363 270.0 270
  240.0965 23.0 23
  241.07472 14.0 14
  241.15199 35.0 35
  243.08153 127.0 127
  243.09346 28.0 28
  244.08734 18.0 18
  245.15024 14.0 14
  247.07857 15.0 15
  247.16815 114.0 114
  248.08209 17.0 17
  248.16908 37.0 37
  248.17734 48.0 48
  249.15921 24.0 24
  250.145 22.0 22
  251.15199 11.0 11
  252.17044 12.0 12
  253.19034 14.0 14
  255.08984 42.0 42
  255.10391 10.0 10
  256.09259 13.0 13
  256.22421 30.0 30
  257.06293 13.0 13
  257.10297 52.0 52
  257.14142 11.0 11
  257.79984 16.0 16
  261.1011 42.0 42
  263.09839 18.0 18
  263.16135 12.0 12
  263.16971 13.0 13
  264.69055 14.0 14
  265.10059 18.0 18
  267.21143 41.0 41
  273.0918 27.0 27
  273.11185 20.0 20
  273.18039 11.0 11
  274.08936 16.0 16
  274.10632 31.0 31
  275.10748 36.0 36
  275.11926 66.0 66
  275.21808 20.0 20
  276.10446 12.0 12
  276.19586 26.0 26
  279.08377 13.0 13
  279.10339 82.0 82
  279.11447 94.0 94
  280.1066 11.0 11
  281.11078 12.0 12
  281.23441 11.0 11
  285.2186 11.0 11
  287.19122 26.0 26
  293.11844 142.0 142
  293.13208 61.0 61
  293.20422 12.0 12
  294.11487 16.0 16
  294.13144 17.0 17
  295.24094 11.0 11
  297.18607 12.0 12
  299.23236 28.0 28
  301.08612 12.0 12
  309.09708 23.0 23
  309.11835 27.0 27
  309.12732 13.0 13
  310.13174 24.0 24
  314.85962 11.0 11
  318.97632 14.0 14
  321.2084 14.0 14
  321.26059 11.0 11
  324.2973 14.0 14
  327.10046 13.0 13
  327.23715 26.0 26
  329.22635 19.0 19
  335.23029 12.0 12
  339.10287 11.0 11
  340.74121 14.0 14
  343.23428 14.0 14
  349.28476 24.0 24
  349.29877 17.0 17
  350.28735 11.0 11
  351.25589 12.0 12
  351.30396 19.0 19
  353.12335 45.0 45
  353.23227 12.0 12
  361.19208 13.0 13
  363.03693 12.0 12
  365.11697 18.0 18
  365.2695 12.0 12
  367.27481 12.0 12
  367.30618 39.0 39
  369.25415 16.0 16
  369.30115 15.0 15
  370.07565 15.0 15
  371.12875 12.0 12
  371.15607 34.0 34
  377.32822 12.0 12
  379.25687 24.0 24
  380.35358 24.0 24
  381.327 12.0 12
  383.25092 16.0 16
  389.1116 11.0 11
  389.32825 111.0 111
  390.33762 13.0 13
  391.21347 24.0 24
  391.31088 13.0 13
  391.33081 25.0 25
  392.71045 13.0 13
  393.23563 11.0 11
  393.29303 15.0 15
  395.25912 21.0 21
  395.2984 70.0 70
  395.34647 16.0 16
  396.29282 47.0 47
  397.32477 22.0 22
  397.34189 12.0 12
  398.32111 12.0 12
  398.33649 12.0 12
  401.17175 16.0 16
  405.30548 22.0 22
  407.31442 67.0 67
  407.3324 313.0 313
  408.29977 13.0 13
  408.32922 47.0 47
  408.34247 112.0 112
  409.3324 25.0 25
  409.35532 67.0 67
  410.34659 26.0 26
  413.27463 22.0 22
  413.30579 108.0 108
  414.29709 27.0 27
  417.3154 27.0 27
  424.34543 12.0 12
  425.33279 111.0 111
  425.35263 176.0 176
  426.31839 14.0 14
  426.34009 14.0 14
  426.35959 24.0 24
  427.32394 26.0 26
  427.34979 75.0 75
  427.37964 12.0 12
  428.36996 12.0 12
  433.27917 13.0 13
  434.33685 12.0 12
  435.32391 186.0 186
  435.67822 16.0 16
  436.31207 46.0 46
  436.33536 67.0 67
  436.71033 26.0 26
  436.76263 22.0 22
  437.34329 12.0 12
  438.33682 11.0 11
  439.31824 22.0 22
  441.26212 14.0 14
  441.30493 26.0 26
  441.32846 36.0 36
  441.34937 14.0 14
  442.34027 12.0 12
  450.96851 21.0 21
  453.24808 13.0 13
  453.33667 1000.0 999
  453.40546 13.0 13
  454.31415 16.0 16
  454.33994 145.0 145
  454.35315 188.0 188
  455.34415 77.0 77
  455.56238 17.0 17
  464.12354 12.0 12
  467.3093 21.0 21
  469.33191 24.0 24
  471.30997 49.0 49
  471.34912 219.0 219
  471.36813 61.0 61
  472.31827 12.0 12
  472.34808 115.0 115
  473.28033 14.0 14
  483.37201 18.0 18
  496.36548 12.0 12
  501.35617 13.0 13
  507.31244 13.0 13
  517.3642 31.0 31
  523.33295 11.0 11
  527.87622 13.0 13
  535.38715 47.0 47
  536.38953 11.0 11
  539.73151 20.0 20
  545.36023 11.0 11
  553.35883 19.0 19
  553.40704 12.0 12
  563.3689 12.0 12
  564.36505 12.0 12
  565.40082 11.0 11
  569.427 18.0 18
  581.36572 37.0 37
  581.39044 30.0 30
  590.4035 11.0 11
  598.3924 14.0 14
  599.32733 11.0 11
  599.35229 11.0 11
  599.41345 12.0 12
  600.40222 13.0 13
  615.43195 13.0 13
  617.38531 11.0 11
  617.40851 30.0 30
  620.43243 17.0 17
  633.40222 11.0 11
  670.77307 17.0 17
  680.92926 14.0 14
  683.42682 12.0 12
  715.46259 11.0 11
  1131.92908 14.0 14
//
