ACCESSION: MSBNK-RIKEN-PR300712
RECORD_TITLE: Thalsimine; LC-ESI-QTOF; MS2
DATE: 2019.03.28
AUTHORS: Tetsuya Mori, Center for Sustainable Resource Science, RIKEN
LICENSE: CC BY-NC-SA
PUBLICATION: Tsugawa H., Nakabayashi R., Mori T., Yamada Y., Takahashi M., Rai A., Sugiyama R., Yamamoto H., Nakaya T., Yamazaki M., Kooke R., Bac-Molenaar JA., Oztolan-Erol N., Keurentjes JJB., Arita M., Saito K. (2019) "A cheminformatics approach to characterize metabolomes in stable-isotope-labeled organisms" Nature Methods 16(4):295-298. [doi:10.1038/s41592-019-0358-2]
COMMENT: registered in RIKEN PlaSMA
CH$NAME: Thalsimine
CH$COMPOUND_CLASS: Tannins
CH$FORMULA: C38H40N2O7
CH$EXACT_MASS: 636.745
CH$SMILES: COC1=C2OC3=CC=C(CC4=NCCC5=CC(OC)=C(OC6=C(OC)C(OC)=C(OC)C7=C6[C@H](CC(C=C1)=C2)N(C)CC7)C=C45)C=C3
CH$IUPAC: InChI=1S/C38H40N2O7/c1-40-16-14-26-34-29(40)18-23-9-12-30(41-2)32(19-23)46-25-10-7-22(8-11-25)17-28-27-21-33(31(42-3)20-24(27)13-15-39-28)47-36(34)38(45-6)37(44-5)35(26)43-4/h7-12,19-21,29H,13-18H2,1-6H3/t29-/m0/s1
CH$LINK: INCHIKEY YWNUNVSMOKMJMG-LJAQVGFWSA-N
AC$INSTRUMENT: LC, Waters Acquity UPLC System; MS, Waters Xevo G2 Q-Tof
AC$INSTRUMENT_TYPE: LC-ESI-QTOF
AC$MASS_SPECTROMETRY: MS_TYPE MS2
AC$MASS_SPECTROMETRY: ION_MODE POSITIVE
AC$MASS_SPECTROMETRY: COLLISION_ENERGY 6V
AC$MASS_SPECTROMETRY: DESOLVATION_GAS_FLOW 800/h
AC$MASS_SPECTROMETRY: DESOLVATION_TEMPERATURE 450 C
AC$MASS_SPECTROMETRY: IONIZATION ESI
AC$CHROMATOGRAPHY: CAPILLARY_VOLTAGE +3.00 kV
AC$CHROMATOGRAPHY: COLUMN_NAME Acquity bridged ethyl hybrid C18 (1.7 um, 2.1 mm * 100 mm, Waters)
AC$CHROMATOGRAPHY: COLUMN_TEMPERATURE 40 C
AC$CHROMATOGRAPHY: FLOW_GRADIENT A/B = (99.5%/0.5% at 0 min, 99.5%/0.5% at 0.1 min, 20%/80% at 10 min, 0.5%/99.5% at 10.1 min, 0.5%/99.5% at 12.0 min, 99.5%/0.5% at 12.1 min, 99.5%/0.5% at 15.0 min)
AC$CHROMATOGRAPHY: FLOW_RATE 0.3 ml/min at 0 min, 0.3 ml/min at 10 min, 0.4 ml/min at 10.1 min, 0.4 ml/min at 14.4 min, 0.3 ml/min at 14.5 min
AC$CHROMATOGRAPHY: RETENTION_TIME 4.254667
AC$CHROMATOGRAPHY: SOLVENT A water including 0.1% formic acid
AC$CHROMATOGRAPHY: SOLVENT B acetonitrile including 0.1% formic acid
MS$FOCUSED_ION: PRECURSOR_TYPE [M+H]+
MS$FOCUSED_ION: PRECURSOR_M/Z 637.2908281
PK$SPLASH: splash10-0a6r-0142291000-7dd7f5db648ffc93ac31
PK$NUM_PEAK: 399
PK$PEAK: m/z int. rel.int.
  105.03599 52.0 52
  119.04825 103.0 103
  121.07433 72.0 72
  134.07446 54.0 54
  150.06729 50.0 50
  156.04707 89.0 89
  161.09843 66.0 66
  162.08519 40.0 40
  162.0954 42.0 42
  174.10229 40.0 40
  175.09335 50.0 50
  176.07414 46.0 46
  177.66116 42.0 42
  178.05504 42.0 42
  178.08148 38.0 38
  179.06299 93.0 93
  180.07178 82.0 82
  181.07907 44.0 44
  186.06467 87.0 87
  187.05478 36.0 36
  188.07428 52.0 52
  188.08139 60.0 60
  190.0827 173.0 173
  190.1129 40.0 40
  191.06345 56.0 56
  191.07043 72.0 72
  192.09439 48.0 48
  195.08344 82.0 82
  195.0985 36.0 36
  203.09314 72.0 72
  204.06502 123.0 123
  204.10344 153.0 153
  204.11423 56.0 56
  205.08737 34.0 34
  205.10048 56.0 56
  206.05576 58.0 58
  206.08636 40.0 40
  206.24275 42.0 42
  213.11478 34.0 34
  217.10693 68.0 68
  219.07632 68.0 68
  219.08574 93.0 93
  219.09763 40.0 40
  220.05719 40.0 40
  220.06834 46.0 46
  220.08466 48.0 48
  220.10713 40.0 40
  220.70866 34.0 34
  221.09779 40.0 40
  221.11671 56.0 56
  224.10825 48.0 48
  225.09015 143.0 143
  232.07275 52.0 52
  234.10071 121.0 121
  234.11266 235.0 235
  234.1225 54.0 54
  235.07719 34.0 34
  235.10248 56.0 56
  236.09468 42.0 42
  236.12906 60.0 60
  237.09114 60.0 60
  237.09889 34.0 34
  238.10512 322.0 322
  247.06555 36.0 36
  247.09865 121.0 121
  249.10352 42.0 42
  249.11623 78.0 78
  249.14337 101.0 101
  250.07944 38.0 38
  250.12119 129.0 129
  251.07764 121.0 121
  251.09358 111.0 111
  251.10742 64.0 64
  252.08348 50.0 50
  252.11172 358.0 358
  252.12914 272.0 272
  252.14598 60.0 60
  253.14455 54.0 54
  254.11816 34.0 34
  258.08771 42.0 42
  261.1167 38.0 38
  263.09775 44.0 44
  263.10742 40.0 40
  263.12305 93.0 93
  264.09769 38.0 38
  264.14328 42.0 42
  265.10434 221.0 221
  265.12015 91.0 91
  266.11761 101.0 101
  266.13089 42.0 42
  267.10852 167.0 167
  268.0878 82.0 82
  276.08047 64.0 64
  279.0708 56.0 56
  280.15997 48.0 48
  281.10596 52.0 52
  281.1196 34.0 34
  283.11325 38.0 38
  288.08246 80.0 80
  288.41571 85.0 85
  289.12189 42.0 42
  292.10889 103.0 103
  292.13007 64.0 64
  293.09454 40.0 40
  293.11609 34.0 34
  294.12933 34.0 34
  295.11786 64.0 64
  296.10489 34.0 34
  297.13623 48.0 48
  298.14328 60.0 60
  302.07782 48.0 48
  307.08472 34.0 34
  307.14587 34.0 34
  308.08942 34.0 34
  311.03903 36.0 36
  311.1283 34.0 34
  311.14102 40.0 40
  314.14938 40.0 40
  316.11847 38.0 38
  320.79672 54.0 54
  323.12732 46.0 46
  324.11911 50.0 50
  326.10007 44.0 44
  330.10153 38.0 38
  333.14203 46.0 46
  337.16577 40.0 40
  339.14862 34.0 34
  342.12439 64.0 64
  343.15063 109.0 109
  346.98596 34.0 34
  349.11618 34.0 34
  350.14529 42.0 42
  350.68179 42.0 42
  352.07904 48.0 48
  352.11792 121.0 121
  353.11542 40.0 40
  354.17761 34.0 34
  355.10602 58.0 58
  356.16815 103.0 103
  358.03882 34.0 34
  358.15103 40.0 40
  358.18509 36.0 36
  359.12335 40.0 40
  363.12314 48.0 48
  368.14496 34.0 34
  368.16495 93.0 93
  370.13989 282.0 282
  370.18164 87.0 87
  371.13486 44.0 44
  371.15598 105.0 105
  372.14856 60.0 60
  372.16092 123.0 123
  374.74371 54.0 54
  375.16315 80.0 80
  376.11996 52.0 52
  379.14246 40.0 40
  381.1506 74.0 74
  382.12869 95.0 95
  382.15457 48.0 48
  385.12305 74.0 74
  386.13266 127.0 127
  386.15234 276.0 276
  386.1893 83.0 83
  387.138 111.0 111
  387.18268 40.0 40
  388.14557 87.0 87
  388.16412 177.0 177
  391.17291 52.0 52
  393.10455 50.0 50
  393.15689 66.0 66
  394.10654 34.0 34
  395.16971 48.0 48
  396.16705 66.0 66
  398.14474 48.0 48
  400.11926 40.0 40
  400.1459 34.0 34
  401.1524 42.0 42
  401.1806 42.0 42
  402.14685 44.0 44
  403.159 36.0 36
  403.17554 66.0 66
  403.29141 34.0 34
  409.18753 36.0 36
  410.13309 42.0 42
  410.15765 46.0 46
  411.1947 56.0 56
  412.15359 34.0 34
  412.19946 34.0 34
  416.2081 52.0 52
  417.21243 34.0 34
  418.19608 42.0 42
  419.17621 42.0 42
  420.13458 163.0 163
  423.20737 74.0 74
  430.19037 42.0 42
  436.14258 50.0 50
  436.18109 42.0 42
  438.17038 44.0 44
  440.21173 42.0 42
  441.15103 52.0 52
  441.19583 78.0 78
  443.13599 38.0 38
  447.16577 58.0 58
  448.20389 62.0 62
  450.21524 58.0 58
  454.11835 34.0 34
  454.19513 93.0 93
  455.19629 46.0 46
  456.18188 72.0 72
  456.20938 48.0 48
  457.60596 36.0 36
  460.17273 66.0 66
  460.19034 111.0 111
  466.21951 56.0 56
  468.14905 54.0 54
  471.19467 40.0 40
  474.16183 40.0 40
  475.02179 34.0 34
  476.18753 44.0 44
  477.18329 40.0 40
  478.15784 42.0 42
  479.20728 50.0 50
  483.18683 40.0 40
  484.2095 42.0 42
  485.15448 38.0 38
  485.17664 42.0 42
  488.18814 40.0 40
  491.17609 40.0 40
  491.80698 46.0 46
  493.20236 36.0 36
  495.18732 50.0 50
  499.20801 46.0 46
  499.23923 193.0 193
  500.14822 50.0 50
  500.20618 40.0 40
  501.14896 54.0 54
  502.13428 38.0 38
  503.68985 38.0 38
  504.15363 34.0 34
  504.172 83.0 83
  504.18912 137.0 137
  504.22256 34.0 34
  505.08267 60.0 60
  505.17532 95.0 95
  505.20828 50.0 50
  506.15326 205.0 205
  506.1969 56.0 56
  506.23969 66.0 66
  507.12134 44.0 44
  507.15582 48.0 48
  508.18729 42.0 42
  511.19412 62.0 62
  512.16107 40.0 40
  513.19427 42.0 42
  513.33167 36.0 36
  514.14966 38.0 38
  515.14789 85.0 85
  516.19299 38.0 38
  516.2113 119.0 119
  517.18793 66.0 66
  518.12439 34.0 34
  518.17041 147.0 147
  518.20807 105.0 105
  519.1712 36.0 36
  520.21741 38.0 38
  521.19812 42.0 42
  521.2193 109.0 109
  525.17639 38.0 38
  526.19452 54.0 54
  527.19769 68.0 68
  528.17236 34.0 34
  528.2619 34.0 34
  529.21521 95.0 95
  530.17023 44.0 44
  530.18738 44.0 44
  530.22479 38.0 38
  531.14398 36.0 36
  531.18536 85.0 85
  531.21155 58.0 58
  531.23187 36.0 36
  532.11395 40.0 40
  532.15265 85.0 85
  532.18616 40.0 40
  533.17889 83.0 83
  533.20312 157.0 157
  533.23029 44.0 44
  533.26459 76.0 76
  534.19543 213.0 213
  534.23712 48.0 48
  535.1817 56.0 56
  535.24426 82.0 82
  536.58679 36.0 36
  537.17828 60.0 60
  538.15466 62.0 62
  538.19934 52.0 52
  539.18365 48.0 48
  539.86169 66.0 66
  540.37799 50.0 50
  540.68988 36.0 36
  542.14471 54.0 54
  543.18634 36.0 36
  543.19757 72.0 72
  543.24225 34.0 34
  543.26129 66.0 66
  544.18207 117.0 117
  545.16876 95.0 95
  545.2074 167.0 167
  545.24213 82.0 82
  545.94232 52.0 52
  546.14532 105.0 105
  546.16821 42.0 42
  546.19122 127.0 127
  546.56586 40.0 40
  547.16559 185.0 185
  547.18896 62.0 62
  547.26355 50.0 50
  548.18549 87.0 87
  548.21216 304.0 304
  549.20007 171.0 171
  549.22083 76.0 76
  549.75586 36.0 36
  550.01624 34.0 34
  550.21338 85.0 85
  552.18872 48.0 48
  552.20514 36.0 36
  558.16095 38.0 38
  558.19965 66.0 66
  559.14746 46.0 46
  559.17236 123.0 123
  559.19995 223.0 223
  560.16882 40.0 40
  560.21002 149.0 149
  561.16705 161.0 161
  561.19226 121.0 121
  561.20831 147.0 147
  561.23267 93.0 93
  562.17511 203.0 203
  562.21857 157.0 157
  562.24298 46.0 46
  563.15369 80.0 80
  563.21783 145.0 145
  563.23871 60.0 60
  563.60052 56.0 56
  564.11328 42.0 42
  564.1767 40.0 40
  564.20697 227.0 227
  564.25562 42.0 42
  565.18536 40.0 40
  565.21277 131.0 131
  566.22577 56.0 56
  566.27301 74.0 74
  567.20856 48.0 48
  572.18042 34.0 34
  572.21234 40.0 40
  573.2135 48.0 48
  574.19513 99.0 99
  574.20868 50.0 50
  575.19232 133.0 133
  575.22089 388.0 388
  575.2453 52.0 52
  575.29236 40.0 40
  576.15778 34.0 34
  576.17627 87.0 87
  576.20605 855.0 854
  576.23456 207.0 207
  577.16638 48.0 48
  577.20349 268.0 268
  577.22034 260.0 260
  577.27405 56.0 56
  578.14032 44.0 44
  578.19452 76.0 76
  578.21777 219.0 219
  579.20099 44.0 44
  580.40753 50.0 50
  590.23529 125.0 125
  590.95581 60.0 60
  591.15479 44.0 44
  591.20435 34.0 34
  591.23602 334.0 334
  591.26514 109.0 109
  592.06409 70.0 70
  592.20819 36.0 36
  593.21606 34.0 34
  593.26337 50.0 50
  596.3501 34.0 34
  603.25586 40.0 40
  605.29913 36.0 36
  607.24493 1000.0 999
  607.31537 101.0 101
  607.59564 38.0 38
  607.96899 34.0 34
  608.24921 314.0 314
  608.47388 40.0 40
  609.15521 40.0 40
  609.25623 48.0 48
  621.25085 139.0 139
  621.26703 40.0 40
  622.25952 42.0 42
  623.25537 34.0 34
//
