ACCESSION: MSBNK-RIKEN-PR020115
RECORD_TITLE: trans-Zeatin-O-glucoside; LC-ESI-QQ; MS2; CE:10.0 eV; [M+H]+
DATE: 2016.01.19 (Created 2007.12.03, modified 2011.05.06)
AUTHORS: Kojima M, Sakakibara H, Plant Science Center, RIKEN.
LICENSE: CC BY-SA
CH$NAME: trans-Zeatin-O-glucoside
CH$COMPOUND_CLASS: N/A
CH$FORMULA: C16H23N5O6
CH$EXACT_MASS: 381.16483
CH$SMILES: C/C(=C\CNC1=NC=NC2=C1NC=N2)/CO[C@H]3[C@@H]([C@H]([C@@H]([C@H](O3)CO)O)O)O
CH$IUPAC: InChI=1S/C16H23N5O6/c1-8(2-3-17-14-10-15(19-6-18-10)21-7-20-14)5-26-16-13(25)12(24)11(23)9(4-22)27-16/h2,6-7,9,11-13,16,22-25H,3-5H2,1H3,(H2,17,18,19,20,21)/b8-2+/t9-,11-,12+,13-,16-/m1/s1
CH$LINK: CAS 56329-06-7
CH$LINK: INCHIKEY UUPDCCPAOMDMPT-HNVSNYHQSA-N
AC$INSTRUMENT: UPLC Waters, Quattro Ultima Pt Micromass
AC$INSTRUMENT_TYPE: LC-ESI-QQ
AC$MASS_SPECTROMETRY: MS_TYPE MS2
AC$MASS_SPECTROMETRY: ION_MODE POSITIVE
AC$MASS_SPECTROMETRY: COLLISION_ENERGY 10.0 eV
AC$MASS_SPECTROMETRY: DATAFORMAT Centroid
AC$MASS_SPECTROMETRY: DESOLVATION_GAS_FLOW 565 L/Hr
AC$MASS_SPECTROMETRY: DESOLVATION_TEMPERATURE 400 C
AC$MASS_SPECTROMETRY: FRAGMENTATION_METHOD LOW-ENERGY CID
AC$MASS_SPECTROMETRY: IONIZATION ESI
AC$MASS_SPECTROMETRY: SCANNING 0.2 sec/scan (m/z=50-500)
AC$MASS_SPECTROMETRY: SOURCE_TEMPERATURE 140 C
AC$CHROMATOGRAPHY: CAPILLARY_VOLTAGE 3.1 kV
AC$CHROMATOGRAPHY: COLUMN_NAME ACQUITY UPLC BEH C18 2.1 by 50 mm (Waters, Milford, MA, USA)
AC$CHROMATOGRAPHY: COLUMN_TEMPERATURE 40 C
AC$CHROMATOGRAPHY: FLOW_GRADIENT 0.1/99.9 at 0 min, 9.0/91.0 at 2 min, 12.5/87.5 at 7 min, 30/70 at 10 min, 50/50 at 12 min, 50/50 at 13 min, 99.9/0.1 at 15 min
AC$CHROMATOGRAPHY: FLOW_RATE 0.25 ml/min
AC$CHROMATOGRAPHY: RETENTION_TIME 5.94 min
AC$CHROMATOGRAPHY: SAMPLING_CONE 53 V
AC$CHROMATOGRAPHY: SOLVENT A CH3CN(0.05% HCOOH)
AC$CHROMATOGRAPHY: SOLVENT B HCOOH(0.05% CH3CN)
MS$FOCUSED_ION: FULL_SCAN_FRAGMENT_ION_PEAK 381
MS$FOCUSED_ION: PRECURSOR_M/Z 382
MS$FOCUSED_ION: PRECURSOR_TYPE [M+H]+
MS$DATA_PROCESSING: WHOLE MassLynx 4.0
PK$SPLASH: splash10-001i-0029000000-aa21a1ef53af9e29072b
PK$NUM_PEAK: 9
PK$PEAK: m/z int. rel.int.
  135.912 154900 72
  201.884 161800 75
  202.507 25400 12
  219.250 26510 12
  219.936 491500 228
  220.508 38910 18
  381.425 826600 384
  382.109 2153000 999
  382.658 203200 94
//
