ACCESSION: MSBNK-RIKEN-PR301213
RECORD_TITLE: (-)-B-Hydrastine; LC-ESI-QTOF; MS2
DATE: 2019.03.28
AUTHORS: Tetsuya Mori, Center for Sustainable Resource Science, RIKEN
LICENSE: CC BY-NC-SA
PUBLICATION: Tsugawa H., Nakabayashi R., Mori T., Yamada Y., Takahashi M., Rai A., Sugiyama R., Yamamoto H., Nakaya T., Yamazaki M., Kooke R., Bac-Molenaar JA., Oztolan-Erol N., Keurentjes JJB., Arita M., Saito K. (2019) "A cheminformatics approach to characterize metabolomes in stable-isotope-labeled organisms" Nature Methods 16(4):295-298. [doi:10.1038/s41592-019-0358-2]
COMMENT: registered in RIKEN PlaSMA
CH$NAME: (-)-B-Hydrastine
CH$COMPOUND_CLASS: Phthalide isoquinolines
CH$FORMULA: C21H21NO6
CH$EXACT_MASS: 383.4
CH$SMILES: COC1=C(OC)C2=C(C=C1)[C@H](OC2=O)[C@@H]1N(C)CCC2=CC3=C(OCO3)C=C12
CH$IUPAC: InChI=1S/C21H21NO6/c1-22-7-6-11-8-15-16(27-10-26-15)9-13(11)18(22)19-12-4-5-14(24-2)20(25-3)17(12)21(23)28-19/h4-5,8-9,18-19H,6-7,10H2,1-3H3/t18-,19+/m1/s1
CH$LINK: INCHIKEY JZUTXVTYJDCMDU-MOPGFXCFSA-N
AC$INSTRUMENT: LC, Waters Acquity UPLC System; MS, Waters Xevo G2 Q-Tof
AC$INSTRUMENT_TYPE: LC-ESI-QTOF
AC$MASS_SPECTROMETRY: MS_TYPE MS2
AC$MASS_SPECTROMETRY: ION_MODE POSITIVE
AC$MASS_SPECTROMETRY: COLLISION_ENERGY 6V
AC$MASS_SPECTROMETRY: DESOLVATION_GAS_FLOW 800/h
AC$MASS_SPECTROMETRY: DESOLVATION_TEMPERATURE 450 C
AC$MASS_SPECTROMETRY: IONIZATION ESI
AC$CHROMATOGRAPHY: CAPILLARY_VOLTAGE +3.00 kV
AC$CHROMATOGRAPHY: COLUMN_NAME Acquity bridged ethyl hybrid C18 (1.7 um, 2.1 mm * 100 mm, Waters)
AC$CHROMATOGRAPHY: COLUMN_TEMPERATURE 40 C
AC$CHROMATOGRAPHY: FLOW_GRADIENT A/B = (99.5%/0.5% at 0 min, 99.5%/0.5% at 0.1 min, 20%/80% at 10 min, 0.5%/99.5% at 10.1 min, 0.5%/99.5% at 12.0 min, 99.5%/0.5% at 12.1 min, 99.5%/0.5% at 15.0 min)
AC$CHROMATOGRAPHY: FLOW_RATE 0.3 ml/min at 0 min, 0.3 ml/min at 10 min, 0.4 ml/min at 10.1 min, 0.4 ml/min at 14.4 min, 0.3 ml/min at 14.5 min
AC$CHROMATOGRAPHY: RETENTION_TIME 4.211233
AC$CHROMATOGRAPHY: SOLVENT A water including 0.1% formic acid
AC$CHROMATOGRAPHY: SOLVENT B acetonitrile including 0.1% formic acid
MS$FOCUSED_ION: PRECURSOR_TYPE [M+H]+
MS$FOCUSED_ION: PRECURSOR_M/Z 384.1441639
PK$SPLASH: splash10-0fc3-0490000000-a32b5f403f0e73e39f5f
PK$NUM_PEAK: 156
PK$PEAK: m/z int. rel.int.
  78.40963 128.0 128
  91.05235 53.0 53
  94.07004 59.0 59
  104.06052 78.0 78
  115.03551 97.0 97
  131.03996 62.0 62
  131.07013 78.0 78
  132.07675 147.0 147
  132.97929 88.0 88
  135.03127 84.0 84
  136.07434 75.0 75
  146.1015 103.0 103
  152.0618 91.0 91
  159.04146 116.0 116
  160.07533 59.0 59
  161.05313 69.0 69
  161.07838 153.0 153
  162.05157 78.0 78
  162.09122 56.0 56
  163.04785 75.0 75
  165.06732 306.0 306
  165.0744 266.0 266
  174.05315 72.0 72
  175.03937 84.0 84
  175.06305 56.0 56
  176.06169 600.0 599
  176.0737 181.0 181
  177.05376 78.0 78
  177.06216 103.0 103
  178.08272 581.0 580
  178.73416 78.0 78
  179.04575 75.0 75
  179.07709 53.0 53
  179.09656 84.0 84
  181.08948 94.0 94
  187.05869 62.0 62
  188.05995 228.0 228
  189.06688 62.0 62
  189.07487 62.0 62
  189.08322 62.0 62
  190.07019 125.0 125
  190.08658 1000.0 999
  190.09819 147.0 147
  192.0571 84.0 84
  193.04738 59.0 59
  193.06252 91.0 91
  193.07651 56.0 56
  193.50745 56.0 56
  194.06062 53.0 53
  194.07014 194.0 194
  194.0779 144.0 144
  194.08916 53.0 53
  195.0739 62.0 62
  201.08705 53.0 53
  203.05338 75.0 75
  204.0452 247.0 247
  204.06364 250.0 250
  205.04831 62.0 62
  205.05647 56.0 56
  205.06874 262.0 262
  206.07217 203.0 203
  207.03912 84.0 84
  207.0506 122.0 122
  207.07593 194.0 194
  207.41483 72.0 72
  208.04356 53.0 53
  208.09019 81.0 81
  209.06573 72.0 72
  210.04956 88.0 88
  210.09679 78.0 78
  216.06215 91.0 91
  219.05174 56.0 56
  219.08195 66.0 66
  220.05659 197.0 197
  221.0257 62.0 62
  221.04372 103.0 103
  221.06366 738.0 737
  221.10146 53.0 53
  221.13206 84.0 84
  221.27495 53.0 53
  222.01828 106.0 106
  222.04593 62.0 62
  222.07216 266.0 266
  222.0825 78.0 78
  222.36079 56.0 56
  223.0623 59.0 59
  223.07359 194.0 194
  224.09338 56.0 56
  225.08031 75.0 75
  228.06531 59.0 59
  229.06128 62.0 62
  232.05476 325.0 325
  233.05435 475.0 475
  234.05336 69.0 69
  234.073 200.0 200
  235.03906 231.0 231
  235.05791 84.0 84
  235.07674 66.0 66
  237.04791 66.0 66
  237.06172 84.0 84
  238.04771 56.0 56
  239.06612 69.0 69
  239.0818 72.0 72
  239.71988 62.0 62
  245.05766 66.0 66
  246.07101 59.0 59
  248.0554 53.0 53
  248.07791 75.0 75
  249.04524 678.0 677
  249.06073 184.0 184
  250.03842 84.0 84
  250.05861 428.0 428
  250.06999 94.0 94
  251.05569 125.0 125
  251.06384 325.0 325
  251.07419 169.0 169
  251.57777 62.0 62
  252.06052 72.0 72
  254.85208 56.0 56
  256.06628 62.0 62
  260.05524 209.0 209
  260.06583 72.0 72
  260.19611 69.0 69
  263.07172 66.0 66
  263.10196 84.0 84
  264.05835 78.0 78
  264.0766 131.0 131
  265.02283 94.0 94
  265.04068 91.0 91
  265.05231 297.0 297
  265.08017 53.0 53
  265.09674 78.0 78
  266.09509 134.0 134
  273.06815 62.0 62
  274.05252 72.0 72
  274.06509 128.0 128
  274.07684 53.0 53
  275.06927 153.0 153
  276.04572 62.0 62
  277.04581 316.0 316
  278.05478 188.0 188
  278.10843 66.0 66
  279.06619 241.0 241
  280.06375 56.0 56
  281.07458 62.0 62
  283.05902 66.0 66
  291.06689 69.0 69
  291.07932 72.0 72
  292.05914 69.0 69
  292.07681 56.0 56
  293.02902 62.0 62
  295.0994 53.0 53
  302.05658 88.0 88
  303.06552 56.0 56
  305.05228 56.0 56
  351.29568 75.0 75
//
