ACCESSION: MSBNK-RIKEN-PR303331
RECORD_TITLE: NP-000004(11); LC-ESI-QTOF; MS2
DATE: 2019.03.28
AUTHORS: Tetsuya Mori, Center for Sustainable Resource Science, RIKEN
LICENSE: CC BY-NC-SA
PUBLICATION: Tsugawa H., Nakabayashi R., Mori T., Yamada Y., Takahashi M., Rai A., Sugiyama R., Yamamoto H., Nakaya T., Yamazaki M., Kooke R., Bac-Molenaar JA., Oztolan-Erol N., Keurentjes JJB., Arita M., Saito K. (2019) "A cheminformatics approach to characterize metabolomes in stable-isotope-labeled organisms" Nature Methods 16(4):295-298. [doi:10.1038/s41592-019-0358-2]
COMMENT: registered in RIKEN PlaSMA
CH$NAME: NP-000004(11)
CH$COMPOUND_CLASS: Flavonoid 8-C-glycosides
CH$FORMULA: C26H28O14
CH$EXACT_MASS: 564.496
CH$SMILES: OC[C@@H]1OC([C@H](O)[C@H]1O)C1=C2OC(=CC(=O)C2=C(O)C(C2O[C@H](CO)[C@@H](O)[C@H](O)[C@H]2O)=C1O)C1=CC=C(O)C=C1
CH$IUPAC: InChI=1S/C26H28O14/c27-6-12-17(31)21(35)23(37)25(39-12)15-19(33)14-10(30)5-11(8-1-3-9(29)4-2-8)38-24(14)16(20(15)34)26-22(36)18(32)13(7-28)40-26/h1-5,12-13,17-18,21-23,25-29,31-37H,6-7H2/t12-,13+,17-,18+,21+,22-,23-,25?,26?/m1/s1
CH$LINK: INCHIKEY TUIJPUWSXVFWSH-FBMRRHFKSA-N
AC$INSTRUMENT: LC, Waters Acquity UPLC System; MS, Waters Xevo G2 Q-Tof
AC$INSTRUMENT_TYPE: LC-ESI-QTOF
AC$MASS_SPECTROMETRY: MS_TYPE MS2
AC$MASS_SPECTROMETRY: ION_MODE POSITIVE
AC$MASS_SPECTROMETRY: COLLISION_ENERGY 6V
AC$MASS_SPECTROMETRY: DESOLVATION_GAS_FLOW 800/h
AC$MASS_SPECTROMETRY: DESOLVATION_TEMPERATURE 450 C
AC$MASS_SPECTROMETRY: IONIZATION ESI
AC$CHROMATOGRAPHY: CAPILLARY_VOLTAGE +3.00 kV
AC$CHROMATOGRAPHY: COLUMN_NAME Acquity bridged ethyl hybrid C18 (1.7 um, 2.1 mm * 100 mm, Waters)
AC$CHROMATOGRAPHY: COLUMN_TEMPERATURE 40 C
AC$CHROMATOGRAPHY: FLOW_GRADIENT A/B = (99.5%/0.5% at 0 min, 99.5%/0.5% at 0.1 min, 20%/80% at 10 min, 0.5%/99.5% at 10.1 min, 0.5%/99.5% at 12.0 min, 99.5%/0.5% at 12.1 min, 99.5%/0.5% at 15.0 min)
AC$CHROMATOGRAPHY: FLOW_RATE 0.3 ml/min at 0 min, 0.3 ml/min at 10 min, 0.4 ml/min at 10.1 min, 0.4 ml/min at 14.4 min, 0.3 ml/min at 14.5 min
AC$CHROMATOGRAPHY: RETENTION_TIME 3.55055
AC$CHROMATOGRAPHY: SOLVENT A water including 0.1% formic acid
AC$CHROMATOGRAPHY: SOLVENT B acetonitrile including 0.1% formic acid
MS$FOCUSED_ION: PRECURSOR_TYPE [M+H]+
MS$FOCUSED_ION: PRECURSOR_M/Z 565.155182
PK$SPLASH: splash10-004l-0009700000-7616f0fdbfc880f1e8f3
PK$NUM_PEAK: 281
PK$PEAK: m/z int. rel.int.
  73.03117 9.0 9
  95.10852 11.0 11
  121.0275 28.0 28
  161.02115 14.0 14
  186.45502 32.0 32
  225.19704 18.0 18
  243.06523 10.0 10
  247.40547 26.0 26
  262.85193 15.0 15
  283.06747 31.0 31
  293.59198 11.0 11
  294.05429 11.0 11
  295.02084 18.0 18
  295.0376 9.0 9
  295.05972 339.0 339
  295.08282 20.0 20
  296.06744 46.0 46
  296.07651 14.0 14
  296.43213 17.0 17
  297.04004 10.0 10
  298.07816 10.0 10
  305.33441 14.0 14
  307.05539 46.0 46
  307.06598 88.0 88
  307.07828 38.0 38
  308.05832 27.0 27
  308.0701 28.0 28
  309.0213 9.0 9
  313.06955 25.0 25
  317.08752 9.0 9
  319.05618 24.0 24
  321.07431 40.0 40
  321.36734 12.0 12
  322.07965 11.0 11
  323.06259 12.0 12
  324.74557 16.0 16
  325.0376 31.0 31
  325.06857 392.0 392
  325.07962 141.0 141
  326.06805 75.0 75
  326.08008 59.0 59
  327.06049 18.0 18
  327.27954 13.0 13
  328.83121 14.0 14
  329.07233 15.0 15
  330.08627 11.0 11
  330.98019 9.0 9
  331.57297 10.0 10
  333.07373 34.0 34
  334.0827 9.0 9
  335.10123 53.0 53
  336.08377 9.0 9
  337.03659 9.0 9
  337.07153 173.0 173
  337.08899 46.0 46
  338.05893 29.0 29
  338.07205 76.0 76
  338.09021 11.0 11
  339.09201 15.0 15
  340.08347 10.0 10
  341.0762 13.0 13
  341.08987 10.0 10
  343.07834 14.0 14
  345.07639 73.0 73
  346.07138 13.0 13
  347.08905 10.0 10
  348.06363 30.0 30
  348.89798 15.0 15
  349.06891 435.0 435
  350.04321 21.0 21
  350.06952 60.0 60
  351.06723 10.0 10
  351.08884 11.0 11
  351.11151 12.0 12
  352.05441 11.0 11
  352.08929 14.0 14
  352.10443 20.0 20
  353.11496 16.0 16
  353.46906 9.0 9
  353.52249 11.0 11
  355.08005 47.0 47
  356.08185 18.0 18
  360.60208 12.0 12
  361.03378 11.0 11
  361.06305 106.0 106
  361.07791 165.0 165
  361.48477 10.0 10
  362.06616 41.0 41
  362.086 34.0 34
  362.97266 9.0 9
  363.00967 12.0 12
  363.06982 33.0 33
  363.09039 79.0 79
  363.10089 25.0 25
  363.14319 9.0 9
  364.06924 27.0 27
  364.08667 24.0 24
  365.06738 12.0 12
  365.09644 24.0 24
  366.25211 15.0 15
  367.0694 20.0 20
  367.08023 58.0 58
  373.0202 9.0 9
  373.06772 115.0 115
  373.0867 37.0 37
  374.07312 15.0 15
  374.086 22.0 22
  374.10068 14.0 14
  375.05267 13.0 13
  375.07495 51.0 51
  375.0968 16.0 16
  377.04724 12.0 12
  377.06134 13.0 13
  377.10922 24.0 24
  378.099 15.0 15
  378.98196 9.0 9
  379.02057 15.0 15
  379.0766 538.0 537
  379.09238 309.0 309
  380.0824 169.0 169
  381.08667 41.0 41
  381.21164 14.0 14
  381.78085 9.0 9
  383.69397 19.0 19
  385.08353 11.0 11
  387.07248 18.0 18
  387.09015 14.0 14
  389.07675 28.0 28
  390.11719 23.0 23
  390.36588 9.0 9
  390.98495 9.0 9
  391.01028 9.0 9
  391.02515 11.0 11
  391.07846 1000.0 999
  392.07498 177.0 177
  392.09732 123.0 123
  393.08313 73.0 73
  393.10367 14.0 14
  395.07303 38.0 38
  395.08524 16.0 16
  397.06488 14.0 14
  397.09598 99.0 99
  397.1091 30.0 30
  398.08734 41.0 41
  398.11264 28.0 28
  398.77151 10.0 10
  401.09045 44.0 44
  401.11847 12.0 12
  402.09058 21.0 21
  403.07623 207.0 207
  404.0816 27.0 27
  404.1051 10.0 10
  405.03494 10.0 10
  405.07788 35.0 35
  405.10168 30.0 30
  406.11093 22.0 22
  407.06836 14.0 14
  409.00211 19.0 19
  409.03366 19.0 19
  409.04761 24.0 24
  409.0809 303.0 303
  409.10089 304.0 304
  409.73605 9.0 9
  410.02933 15.0 15
  410.05008 15.0 15
  410.09903 208.0 208
  410.12024 16.0 16
  411.1019 66.0 66
  413.09702 11.0 11
  415.04041 14.0 14
  415.07419 16.0 16
  415.08734 16.0 16
  415.10815 20.0 20
  416.09503 17.0 17
  417.09348 49.0 49
  417.11069 22.0 22
  418.09845 12.0 12
  418.15735 9.0 9
  418.99414 11.0 11
  419.09772 9.0 9
  419.11832 13.0 13
  420.09213 14.0 14
  420.12759 13.0 13
  421.07343 34.0 34
  421.09311 146.0 146
  421.11011 29.0 29
  422.09512 20.0 20
  422.11221 12.0 12
  424.09042 11.0 11
  427.06161 23.0 23
  427.09882 420.0 420
  427.12372 151.0 151
  428.07986 52.0 52
  428.09845 88.0 88
  428.1152 55.0 55
  429.07248 52.0 52
  429.09464 74.0 74
  429.12787 15.0 15
  430.07645 11.0 11
  430.28326 9.0 9
  431.06137 13.0 13
  433.05182 11.0 11
  433.07037 28.0 28
  433.09283 229.0 229
  434.07806 34.0 34
  434.10266 45.0 45
  435.01447 9.0 9
  435.10373 60.0 60
  436.1087 13.0 13
  436.88351 18.0 18
  437.14038 10.0 10
  439.10275 42.0 42
  441.0383 18.0 18
  442.11499 9.0 9
  442.9975 11.0 11
  445.06662 47.0 47
  445.09201 160.0 160
  445.11264 39.0 39
  446.0603 33.0 33
  446.08481 20.0 20
  446.10764 12.0 12
  446.12506 26.0 26
  447.04657 11.0 11
  447.10187 12.0 12
  447.12027 24.0 24
  451.07483 15.0 15
  451.09677 83.0 83
  451.12994 43.0 43
  452.09161 16.0 16
  452.10733 19.0 19
  457.08807 55.0 55
  457.10513 127.0 127
  458.06747 12.0 12
  458.09143 36.0 36
  458.11609 10.0 10
  459.09302 10.0 10
  459.11832 9.0 9
  463.07861 9.0 9
  463.10425 30.0 30
  463.12125 26.0 26
  464.0954 49.0 49
  464.11908 16.0 16
  465.10068 9.0 9
  467.10452 15.0 15
  469.11972 20.0 20
  470.01291 10.0 10
  470.1189 16.0 16
  475.0882 104.0 104
  475.1062 64.0 64
  475.12109 49.0 49
  476.02548 9.0 9
  476.08817 18.0 18
  476.73792 12.0 12
  481.1106 363.0 363
  481.14868 10.0 10
  482.0676 26.0 26
  482.09607 29.0 29
  482.1218 33.0 33
  493.0824 9.0 9
  493.1181 131.0 131
  493.13959 20.0 20
  493.84595 9.0 9
  494.11594 58.0 58
  494.14767 29.0 29
  495.13232 12.0 12
  499.08908 9.0 9
  499.11053 30.0 30
  499.13324 28.0 28
  500.14893 9.0 9
  500.39258 10.0 10
  511.10452 64.0 64
  511.13129 62.0 62
  511.50412 14.0 14
  512.04938 11.0 11
  512.09589 12.0 12
  512.12604 63.0 63
  529.12634 20.0 20
  529.33942 10.0 10
  530.12982 12.0 12
  530.15356 12.0 12
  547.14001 11.0 11
//
