ACCESSION: MSBNK-RIKEN-PR303985
RECORD_TITLE: (-)-Podophyllotoxin; LC-ESI-QTOF; MS2
DATE: 2019.03.28
AUTHORS: Tetsuya Mori, Center for Sustainable Resource Science, RIKEN
LICENSE: CC BY-NC-SA
PUBLICATION: Tsugawa H., Nakabayashi R., Mori T., Yamada Y., Takahashi M., Rai A., Sugiyama R., Yamamoto H., Nakaya T., Yamazaki M., Kooke R., Bac-Molenaar JA., Oztolan-Erol N., Keurentjes JJB., Arita M., Saito K. (2019) "A cheminformatics approach to characterize metabolomes in stable-isotope-labeled organisms" Nature Methods 16(4):295-298. [doi:10.1038/s41592-019-0358-2]
COMMENT: registered in RIKEN PlaSMA
CH$NAME: (-)-Podophyllotoxin
CH$COMPOUND_CLASS: Podophyllotoxins
CH$FORMULA: C22H22O8
CH$EXACT_MASS: 414.41
CH$SMILES: COC1=CC(=CC(OC)=C1OC)[C@H]1[C@@H]2[C@H](COC2=O)[C@@H](O)C2=CC3=C(OCO3)C=C12
CH$IUPAC: InChI=1S/C22H22O8/c1-25-16-4-10(5-17(26-2)21(16)27-3)18-11-6-14-15(30-9-29-14)7-12(11)20(23)13-8-28-22(24)19(13)18/h4-7,13,18-20,23H,8-9H2,1-3H3/t13-,18+,19-,20-/m0/s1
CH$LINK: INCHIKEY YJGVMLPVUAXIQN-XVVDYKMHSA-N
AC$INSTRUMENT: LC, Waters Acquity UPLC System; MS, Waters Xevo G2 Q-Tof
AC$INSTRUMENT_TYPE: LC-ESI-QTOF
AC$MASS_SPECTROMETRY: MS_TYPE MS2
AC$MASS_SPECTROMETRY: ION_MODE POSITIVE
AC$MASS_SPECTROMETRY: COLLISION_ENERGY 6V
AC$MASS_SPECTROMETRY: DESOLVATION_GAS_FLOW 800/h
AC$MASS_SPECTROMETRY: DESOLVATION_TEMPERATURE 450 C
AC$MASS_SPECTROMETRY: IONIZATION ESI
AC$CHROMATOGRAPHY: CAPILLARY_VOLTAGE +3.00 kV
AC$CHROMATOGRAPHY: COLUMN_NAME Acquity bridged ethyl hybrid C18 (1.7 um, 2.1 mm * 100 mm, Waters)
AC$CHROMATOGRAPHY: COLUMN_TEMPERATURE 40 C
AC$CHROMATOGRAPHY: FLOW_GRADIENT A/B = (99.5%/0.5% at 0 min, 99.5%/0.5% at 0.1 min, 20%/80% at 10 min, 0.5%/99.5% at 10.1 min, 0.5%/99.5% at 12.0 min, 99.5%/0.5% at 12.1 min, 99.5%/0.5% at 15.0 min)
AC$CHROMATOGRAPHY: FLOW_RATE 0.3 ml/min at 0 min, 0.3 ml/min at 10 min, 0.4 ml/min at 10.1 min, 0.4 ml/min at 14.4 min, 0.3 ml/min at 14.5 min
AC$CHROMATOGRAPHY: RETENTION_TIME 6.26135
AC$CHROMATOGRAPHY: SOLVENT A water including 0.1% formic acid
AC$CHROMATOGRAPHY: SOLVENT B acetonitrile including 0.1% formic acid
MS$FOCUSED_ION: PRECURSOR_TYPE [M+H]+
MS$FOCUSED_ION: PRECURSOR_M/Z 415.1387441
PK$SPLASH: splash10-014r-0950000000-418e5548a340f806a687
PK$NUM_PEAK: 224
PK$PEAK: m/z int. rel.int.
  73.05104 36.0 36
  77.03968 38.0 38
  91.05436 44.0 44
  93.03167 52.0 52
  94.45175 28.0 28
  96.05705 23.0 23
  96.77274 22.0 22
  102.04696 36.0 36
  103.05548 26.0 26
  105.03413 26.0 26
  105.06953 29.0 29
  105.07679 106.0 106
  111.04845 58.0 58
  115.05355 766.0 765
  115.44817 23.0 23
  116.03826 23.0 23
  116.0552 24.0 24
  116.06013 79.0 79
  116.12814 22.0 22
  117.06638 434.0 434
  117.073 370.0 370
  117.3856 23.0 23
  117.65299 23.0 23
  118.07243 200.0 200
  120.09435 46.0 46
  121.02785 140.0 140
  122.03111 54.0 54
  122.03888 74.0 74
  123.0466 56.0 56
  126.04732 26.0 26
  126.06287 40.0 40
  127.05125 228.0 228
  127.05769 149.0 149
  127.61378 29.0 29
  128.04814 41.0 41
  128.05859 125.0 125
  129.06944 188.0 188
  129.13521 22.0 22
  130.06535 23.0 23
  130.07378 85.0 85
  131.04546 69.0 69
  131.0504 177.0 177
  132.0491 35.0 35
  133.06552 100.0 100
  134.03175 76.0 76
  135.04213 152.0 152
  135.04782 145.0 145
  136.04341 44.0 44
  136.05479 56.0 56
  138.0737 31.0 31
  139.05234 29.0 29
  140.05855 26.0 26
  141.03644 42.0 42
  143.04506 99.0 99
  143.05548 52.0 52
  144.06013 23.0 23
  145.063 411.0 411
  146.06546 193.0 193
  147.04477 42.0 42
  147.06641 37.0 37
  150.02875 28.0 28
  151.03891 31.0 31
  153.06953 23.0 23
  155.04118 67.0 67
  155.04648 178.0 178
  155.05455 49.0 49
  158.06865 36.0 36
  159.03503 36.0 36
  159.05458 32.0 32
  160.05666 106.0 106
  161.05531 50.0 50
  161.06398 52.0 52
  163.07043 22.0 22
  165.07567 22.0 22
  166.07356 28.0 28
  168.0817 40.0 40
  169.05428 28.0 28
  171.04536 117.0 117
  172.05191 105.0 105
  173.05988 93.0 93
  175.03909 50.0 50
  175.05862 23.0 23
  178.08566 31.0 31
  179.08519 58.0 58
  181.06985 95.0 95
  181.08769 60.0 60
  184.05045 23.0 23
  185.06061 1000.0 999
  185.1922 32.0 32
  186.05223 52.0 52
  186.05835 86.0 86
  186.07077 56.0 56
  187.04082 108.0 108
  188.04247 51.0 51
  188.05209 49.0 49
  189.07811 36.0 36
  189.73976 26.0 26
  190.07689 22.0 22
  191.08531 29.0 29
  192.05983 61.0 61
  193.05995 35.0 35
  193.07277 67.0 67
  194.06143 52.0 52
  196.04308 49.0 49
  197.05722 33.0 33
  199.04179 26.0 26
  199.07185 55.0 55
  200.05064 31.0 31
  200.06479 35.0 35
  202.07742 42.0 42
  204.06166 28.0 28
  204.0943 38.0 38
  205.0504 29.0 29
  206.07439 31.0 31
  207.08484 45.0 45
  209.05467 82.0 82
  210.06548 88.0 88
  211.07144 23.0 23
  217.05411 52.0 52
  217.06679 74.0 74
  218.05516 35.0 35
  218.07498 23.0 23
  219.07954 54.0 54
  221.05492 38.0 38
  221.10735 23.0 23
  222.06442 38.0 38
  222.09715 37.0 37
  224.03908 36.0 36
  224.04951 22.0 22
  224.08351 90.0 90
  225.05464 151.0 151
  226.06117 60.0 60
  226.07036 50.0 50
  228.03696 22.0 22
  229.04378 31.0 31
  229.06686 22.0 22
  231.08142 27.0 27
  233.07925 40.0 40
  234.06789 59.0 59
  235.0365 28.0 28
  235.08073 132.0 132
  236.03951 32.0 32
  236.49976 23.0 23
  237.05038 52.0 52
  237.06116 31.0 31
  237.09172 23.0 23
  238.06075 22.0 22
  239.04147 44.0 44
  239.06989 219.0 219
  240.03389 44.0 44
  240.06529 79.0 79
  240.08282 78.0 78
  245.05774 29.0 29
  245.06778 59.0 59
  246.05168 35.0 35
  246.07465 63.0 63
  247.06021 65.0 65
  247.07231 93.0 93
  248.07872 133.0 133
  248.87569 23.0 23
  249.06218 74.0 74
  249.08798 29.0 29
  250.0596 37.0 37
  251.02838 32.0 32
  253.07152 31.0 31
  254.05647 192.0 192
  254.09282 31.0 31
  255.04648 29.0 29
  255.06445 95.0 95
  256.06381 69.0 69
  259.05734 81.0 81
  260.06403 26.0 26
  261.05328 32.0 32
  261.98929 23.0 23
  262.05774 77.0 77
  262.06604 105.0 105
  263.06384 69.0 69
  263.09286 37.0 37
  263.10336 27.0 27
  264.07288 72.0 72
  267.03363 26.0 26
  267.06064 117.0 117
  267.07495 70.0 70
  267.11166 27.0 27
  268.06158 82.0 82
  268.08121 63.0 63
  269.08517 23.0 23
  270.05573 46.0 46
  273.06003 26.0 26
  274.04709 38.0 38
  275.06445 128.0 128
  275.09229 24.0 24
  276.07346 29.0 29
  277.05441 64.0 64
  277.08917 35.0 35
  277.10187 54.0 54
  279.0563 23.0 23
  279.06689 108.0 108
  281.09314 26.0 26
  282.07962 52.0 52
  283.05042 63.0 63
  283.06815 28.0 28
  285.08014 46.0 46
  289.0488 52.0 52
  289.09097 41.0 41
  289.19391 32.0 32
  290.07443 27.0 27
  291.05286 81.0 81
  291.06448 77.0 77
  292.08118 124.0 124
  293.08038 27.0 27
  293.09073 26.0 26
  304.07925 36.0 36
  305.04984 31.0 31
  305.10532 22.0 22
  307.06 28.0 28
  313.0994 22.0 22
  315.04688 26.0 26
  317.08118 23.0 23
  319.07297 44.0 44
  320.0679 24.0 24
  321.07159 41.0 41
  338.09796 26.0 26
  393.27527 24.0 24
//
