ACCESSION: MSBNK-RIKEN-PR301067
RECORD_TITLE: Thalsimidine; LC-ESI-QTOF; MS2
DATE: 2019.03.28
AUTHORS: Tetsuya Mori, Center for Sustainable Resource Science, RIKEN
LICENSE: CC BY-NC-SA
PUBLICATION: Tsugawa H., Nakabayashi R., Mori T., Yamada Y., Takahashi M., Rai A., Sugiyama R., Yamamoto H., Nakaya T., Yamazaki M., Kooke R., Bac-Molenaar JA., Oztolan-Erol N., Keurentjes JJB., Arita M., Saito K. (2019) "A cheminformatics approach to characterize metabolomes in stable-isotope-labeled organisms" Nature Methods 16(4):295-298. [doi:10.1038/s41592-019-0358-2]
COMMENT: registered in RIKEN PlaSMA
CH$NAME: Thalsimidine
CH$COMPOUND_CLASS: Lignans, neolignans and related compounds
CH$FORMULA: C37H38N2O7
CH$EXACT_MASS: 622.718
CH$SMILES: COC1=C2OC3=CC=C(CC4=NCCC5=CC(OC)=C(OC6=C(OC)C(OC)=C(O)C7=C6[C@@H](CC(C=C1)=C2)N(C)CC7)C=C45)C=C3
CH$IUPAC: InChI=1S/C37H38N2O7/c1-39-15-13-25-33-28(39)17-22-8-11-29(41-2)31(18-22)45-24-9-6-21(7-10-24)16-27-26-20-32(30(42-3)19-23(26)12-14-38-27)46-35(33)37(44-5)36(43-4)34(25)40/h6-11,18-20,28,40H,12-17H2,1-5H3/t28-/m1/s1
CH$LINK: INCHIKEY CLDCTFPNFRITPI-MUUNZHRXSA-N
AC$INSTRUMENT: LC, Waters Acquity UPLC System; MS, Waters Xevo G2 Q-Tof
AC$INSTRUMENT_TYPE: LC-ESI-QTOF
AC$MASS_SPECTROMETRY: MS_TYPE MS2
AC$MASS_SPECTROMETRY: ION_MODE POSITIVE
AC$MASS_SPECTROMETRY: COLLISION_ENERGY 6V
AC$MASS_SPECTROMETRY: DESOLVATION_GAS_FLOW 800/h
AC$MASS_SPECTROMETRY: DESOLVATION_TEMPERATURE 450 C
AC$MASS_SPECTROMETRY: IONIZATION ESI
AC$CHROMATOGRAPHY: CAPILLARY_VOLTAGE +3.00 kV
AC$CHROMATOGRAPHY: COLUMN_NAME Acquity bridged ethyl hybrid C18 (1.7 um, 2.1 mm * 100 mm, Waters)
AC$CHROMATOGRAPHY: COLUMN_TEMPERATURE 40 C
AC$CHROMATOGRAPHY: FLOW_GRADIENT A/B = (99.5%/0.5% at 0 min, 99.5%/0.5% at 0.1 min, 20%/80% at 10 min, 0.5%/99.5% at 10.1 min, 0.5%/99.5% at 12.0 min, 99.5%/0.5% at 12.1 min, 99.5%/0.5% at 15.0 min)
AC$CHROMATOGRAPHY: FLOW_RATE 0.3 ml/min at 0 min, 0.3 ml/min at 10 min, 0.4 ml/min at 10.1 min, 0.4 ml/min at 14.4 min, 0.3 ml/min at 14.5 min
AC$CHROMATOGRAPHY: RETENTION_TIME 3.95775
AC$CHROMATOGRAPHY: SOLVENT A water including 0.1% formic acid
AC$CHROMATOGRAPHY: SOLVENT B acetonitrile including 0.1% formic acid
MS$FOCUSED_ION: PRECURSOR_TYPE [M+H]+
MS$FOCUSED_ION: PRECURSOR_M/Z 623.275178
PK$SPLASH: splash10-0ap3-0274390000-e0bfcf137d8209c63963
PK$NUM_PEAK: 456
PK$PEAK: m/z int. rel.int.
  105.07368 59.0 59
  107.04759 53.0 53
  118.05699 76.0 76
  118.07147 143.0 143
  120.05737 48.0 48
  122.06794 62.0 62
  128.05356 56.0 56
  133.07661 143.0 143
  135.08015 101.0 101
  148.07179 70.0 70
  149.05859 48.0 48
  151.0775 67.0 67
  157.92215 51.0 51
  158.05743 62.0 62
  158.0719 65.0 65
  159.03818 115.0 115
  159.04544 45.0 45
  160.06956 62.0 62
  160.07515 152.0 152
  162.05257 121.0 121
  162.05983 188.0 188
  162.07849 73.0 73
  163.05431 79.0 79
  166.0786 59.0 59
  174.05759 76.0 76
  175.06947 51.0 51
  175.08652 70.0 70
  176.07332 121.0 121
  177.06987 67.0 67
  178.0851 143.0 143
  179.08015 76.0 76
  180.06102 51.0 51
  183.06967 87.0 87
  188.0696 53.0 53
  188.07733 104.0 104
  190.04187 79.0 79
  190.08424 115.0 115
  191.05899 76.0 76
  192.02275 93.0 93
  192.06299 73.0 73
  194.08583 157.0 157
  195.08801 56.0 56
  203.06735 59.0 59
  204.05862 62.0 62
  204.06866 149.0 149
  204.07849 140.0 140
  204.11551 93.0 93
  205.07214 289.0 289
  205.08514 65.0 65
  206.05072 211.0 211
  206.08171 500.0 500
  206.095 197.0 197
  206.11217 98.0 98
  207.08942 112.0 112
  208.06567 669.0 668
  209.06815 112.0 112
  211.07874 247.0 247
  212.28482 65.0 65
  216.60869 56.0 56
  219.10603 228.0 228
  220.08275 101.0 101
  220.10468 124.0 124
  221.10539 56.0 56
  222.07471 107.0 107
  222.08641 70.0 70
  222.09494 84.0 84
  222.1138 115.0 115
  223.03941 59.0 59
  223.10008 81.0 81
  224.08829 292.0 292
  224.1012 93.0 93
  226.11676 51.0 51
  226.1321 90.0 90
  227.10542 59.0 59
  228.08852 51.0 51
  228.11331 51.0 51
  232.07457 62.0 62
  232.09187 56.0 56
  233.05447 62.0 62
  233.08113 56.0 56
  233.09372 67.0 67
  233.12552 59.0 59
  234.08939 48.0 48
  235.10007 126.0 126
  235.12144 171.0 171
  236.07919 112.0 112
  236.09114 124.0 124
  236.10234 67.0 67
  236.11778 70.0 70
  236.15575 56.0 56
  238.09798 56.0 56
  238.11932 343.0 343
  239.06865 48.0 48
  239.1107 219.0 219
  240.0954 62.0 62
  240.11066 70.0 70
  240.3255 51.0 51
  246.1055 51.0 51
  247.09196 48.0 48
  249.09651 62.0 62
  249.11026 140.0 140
  249.12082 118.0 118
  249.68959 56.0 56
  250.08247 81.0 81
  250.09242 59.0 59
  252.07423 59.0 59
  252.09601 56.0 56
  252.10738 79.0 79
  253.10637 70.0 70
  256.07544 65.0 65
  256.10803 56.0 56
  257.08575 76.0 76
  258.11969 81.0 81
  261.11481 67.0 67
  262.06857 76.0 76
  263.08725 143.0 143
  263.10114 110.0 110
  263.12656 191.0 191
  264.09409 62.0 62
  264.10742 48.0 48
  264.13376 53.0 53
  264.94104 56.0 56
  265.0863 56.0 56
  265.09961 152.0 152
  265.11545 478.0 478
  265.15353 51.0 51
  266.11389 59.0 59
  266.1264 53.0 53
  267.11719 129.0 129
  267.12784 51.0 51
  268.79602 51.0 51
  269.04477 56.0 56
  269.13245 104.0 104
  270.04715 51.0 51
  270.12003 90.0 90
  271.09375 62.0 62
  272.08786 76.0 76
  274.11691 53.0 53
  277.07904 56.0 56
  277.11288 56.0 56
  278.08221 51.0 51
  278.13245 104.0 104
  279.17398 65.0 65
  280.10397 51.0 51
  281.11707 169.0 169
  283.09998 230.0 230
  283.13013 73.0 73
  284.12518 51.0 51
  292.0921 93.0 93
  294.1113 59.0 59
  295.10437 59.0 59
  297.12024 98.0 98
  298.16446 53.0 53
  299.13574 112.0 112
  304.1156 48.0 48
  304.61188 48.0 48
  306.08032 65.0 65
  307.10364 70.0 70
  312.12863 62.0 62
  314.11664 70.0 70
  314.15506 70.0 70
  315.71414 56.0 56
  317.10608 70.0 70
  323.11264 65.0 65
  323.12784 59.0 59
  324.12326 70.0 70
  328.18436 70.0 70
  334.1156 56.0 56
  335.1481 70.0 70
  335.73505 48.0 48
  337.75027 70.0 70
  341.13336 59.0 59
  342.1507 67.0 67
  342.16196 48.0 48
  343.08975 53.0 53
  343.15436 48.0 48
  343.17209 59.0 59
  343.21063 56.0 56
  344.16534 154.0 154
  347.1416 56.0 56
  348.0892 51.0 51
  351.69766 65.0 65
  352.13837 87.0 87
  353.13547 59.0 59
  354.11942 48.0 48
  354.13104 53.0 53
  354.14853 81.0 81
  356.1712 96.0 96
  356.18488 169.0 169
  357.19122 98.0 98
  358.13696 70.0 70
  358.1521 96.0 96
  358.18695 62.0 62
  359.1954 121.0 121
  359.20862 65.0 65
  360.10138 48.0 48
  361.06876 84.0 84
  364.08026 70.0 70
  364.57059 67.0 67
  367.15607 65.0 65
  368.08566 73.0 73
  368.14856 112.0 112
  369.13181 110.0 110
  370.12543 323.0 323
  370.1387 242.0 242
  370.16257 104.0 104
  371.13516 104.0 104
  372.0939 62.0 62
  372.13208 107.0 107
  372.15152 56.0 56
  372.16809 56.0 56
  372.1925 51.0 51
  372.21112 157.0 157
  372.23071 56.0 56
  373.15076 65.0 65
  374.14078 84.0 84
  374.16388 70.0 70
  376.1488 51.0 51
  376.16571 65.0 65
  378.1387 67.0 67
  379.53943 73.0 73
  380.18994 90.0 90
  381.11978 51.0 51
  381.14114 98.0 98
  381.18231 56.0 56
  382.17767 84.0 84
  384.15335 152.0 152
  385.16016 76.0 76
  386.13641 48.0 48
  386.15366 188.0 188
  386.17172 239.0 239
  386.18814 149.0 149
  387.13922 93.0 93
  387.1817 76.0 76
  388.1413 56.0 56
  388.15945 382.0 382
  389.14047 51.0 51
  389.16306 62.0 62
  390.09387 51.0 51
  390.15094 110.0 110
  392.15076 48.0 48
  394.10303 118.0 118
  396.13016 143.0 143
  398.2034 53.0 53
  399.08612 56.0 56
  399.13776 73.0 73
  400.13443 62.0 62
  400.16644 115.0 115
  400.19244 340.0 340
  401.1572 48.0 48
  401.18564 67.0 67
  401.21432 48.0 48
  402.14755 56.0 56
  402.1864 48.0 48
  402.9108 56.0 56
  403.16693 107.0 107
  403.19745 166.0 166
  404.15195 81.0 81
  405.1329 81.0 81
  406.13144 48.0 48
  408.15048 115.0 115
  410.09946 48.0 48
  411.18277 143.0 143
  412.13684 67.0 67
  412.96375 48.0 48
  413.21054 76.0 76
  414.56851 56.0 56
  415.20398 48.0 48
  420.16275 51.0 51
  422.14203 62.0 62
  424.13528 76.0 76
  424.15308 65.0 65
  426.14767 59.0 59
  426.17456 62.0 62
  427.14062 73.0 73
  428.15857 101.0 101
  431.15247 65.0 65
  434.17392 118.0 118
  436.15955 56.0 56
  439.13004 48.0 48
  439.18411 146.0 146
  442.16379 51.0 51
  442.39392 118.0 118
  443.17871 48.0 48
  448.36206 87.0 87
  450.14264 73.0 73
  452.17557 70.0 70
  452.21826 59.0 59
  454.1875 53.0 53
  456.17175 56.0 56
  457.19348 51.0 51
  458.1691 171.0 171
  460.21695 56.0 56
  462.17874 81.0 81
  465.24188 51.0 51
  466.36234 56.0 56
  467.1998 73.0 73
  468.23007 70.0 70
  468.91245 67.0 67
  469.19724 53.0 53
  469.36279 110.0 110
  473.45267 48.0 48
  474.19705 70.0 70
  475.07065 53.0 53
  478.18518 51.0 51
  478.21594 65.0 65
  480.17236 56.0 56
  482.13452 53.0 53
  483.66806 56.0 56
  485.11505 70.0 70
  485.20731 278.0 278
  485.22952 59.0 59
  488.18494 62.0 62
  489.17316 53.0 53
  490.21042 104.0 104
  492.20569 56.0 56
  496.22815 59.0 59
  497.21301 73.0 73
  498.15237 110.0 110
  499.13336 51.0 51
  499.4075 70.0 70
  502.1243 98.0 98
  503.22208 51.0 51
  504.09222 51.0 51
  504.1073 53.0 53
  504.17874 115.0 115
  504.23123 59.0 59
  505.17941 51.0 51
  505.22385 56.0 56
  506.17654 84.0 84
  506.19501 98.0 98
  506.21869 180.0 180
  507.20306 211.0 211
  508.15723 65.0 65
  508.19147 107.0 107
  510.20343 62.0 62
  511.96597 70.0 70
  514.1629 76.0 76
  516.14362 101.0 101
  516.17981 343.0 343
  517.18115 258.0 258
  520.19897 146.0 146
  521.21179 53.0 53
  522.18951 247.0 247
  524.12598 48.0 48
  524.17773 65.0 65
  527.19067 115.0 115
  527.2207 70.0 70
  528.12482 53.0 53
  529.1662 56.0 56
  529.20673 48.0 48
  529.43988 67.0 67
  530.15338 101.0 101
  530.17694 48.0 48
  530.20966 250.0 250
  531.16132 76.0 76
  531.1897 126.0 126
  531.22241 87.0 87
  532.17755 51.0 51
  532.20447 56.0 56
  533.14252 56.0 56
  533.16376 107.0 107
  533.18311 118.0 118
  533.20844 258.0 258
  534.17395 171.0 171
  534.19135 73.0 73
  535.15448 59.0 59
  535.17725 320.0 320
  535.20679 48.0 48
  535.23151 51.0 51
  536.20129 48.0 48
  537.24908 56.0 56
  541.23053 56.0 56
  542.20361 51.0 51
  543.16345 152.0 152
  543.21442 51.0 51
  544.17377 93.0 93
  544.19879 216.0 216
  545.18958 56.0 56
  545.20605 73.0 73
  546.15039 70.0 70
  546.17865 48.0 48
  546.2077 110.0 110
  546.23108 48.0 48
  547.10211 129.0 129
  547.14539 140.0 140
  547.17236 191.0 191
  547.19598 199.0 199
  547.24072 112.0 112
  548.15057 48.0 48
  548.18976 267.0 267
  548.21985 351.0 351
  549.2121 67.0 67
  549.22894 79.0 79
  550.16937 53.0 53
  550.20593 185.0 185
  551.16791 53.0 53
  551.28467 51.0 51
  552.20337 124.0 124
  558.19611 146.0 146
  558.22333 65.0 65
  559.21472 56.0 56
  560.21082 65.0 65
  560.55542 56.0 56
  561.16107 104.0 104
  561.18561 216.0 216
  561.21045 228.0 228
  562.16461 115.0 115
  562.18982 230.0 230
  562.21436 166.0 166
  563.15271 244.0 244
  563.19415 160.0 160
  563.59747 48.0 48
  563.70221 67.0 67
  564.18896 225.0 225
  564.21271 93.0 93
  564.23468 56.0 56
  565.15759 62.0 62
  565.2323 121.0 121
  566.21045 180.0 180
  573.24982 101.0 101
  575.21362 107.0 107
  576.18451 59.0 59
  576.21637 174.0 174
  577.03564 62.0 62
  577.16339 48.0 48
  577.19556 56.0 56
  577.2262 303.0 303
  577.25421 98.0 98
  577.27057 84.0 84
  578.177 110.0 110
  578.19623 59.0 59
  578.22864 112.0 112
  578.27002 48.0 48
  579.21503 59.0 59
  579.27399 56.0 56
  580.21344 104.0 104
  591.14417 62.0 62
  592.2088 62.0 62
  593.16577 48.0 48
  593.19977 163.0 163
  593.23456 1000.0 999
  594.20508 118.0 118
  594.22046 317.0 317
  594.24731 233.0 233
  595.22052 56.0 56
  595.2666 65.0 65
  595.76007 53.0 53
  595.8996 62.0 62
  607.22699 73.0 73
  607.27808 84.0 84
  608.23413 126.0 126
  608.25775 115.0 115
  609.2641 93.0 93
  623.25977 48.0 48
  623.33234 51.0 51
//
