ACCESSION: MSBNK-RIKEN-PR300437
RECORD_TITLE: Lycoctonine; LC-ESI-QTOF; MS2
DATE: 2019.03.28
AUTHORS: Tetsuya Mori, Center for Sustainable Resource Science, RIKEN
LICENSE: CC BY-NC-SA
PUBLICATION: Tsugawa H., Nakabayashi R., Mori T., Yamada Y., Takahashi M., Rai A., Sugiyama R., Yamamoto H., Nakaya T., Yamazaki M., Kooke R., Bac-Molenaar JA., Oztolan-Erol N., Keurentjes JJB., Arita M., Saito K. (2019) "A cheminformatics approach to characterize metabolomes in stable-isotope-labeled organisms" Nature Methods 16(4):295-298. [doi:10.1038/s41592-019-0358-2]
COMMENT: registered in RIKEN PlaSMA
CH$NAME: Lycoctonine
CH$COMPOUND_CLASS: Aconitane-type diterpenoid alkaloids
CH$FORMULA: C25H41NO7
CH$EXACT_MASS: 467.603
CH$SMILES: CCN1C[C@]2(CO)CC[C@H](OC)[C@@]34[C@@H]5C[C@H]6[C@H](OC)[C@@H]5[C@](O)(C[C@@H]6OC)[C@@](O)([C@@H](OC)[C@H]23)C14
CH$IUPAC: InChI=1S/C25H41NO7/c1-6-26-11-22(12-27)8-7-16(31-3)24-14-9-13-15(30-2)10-23(28,17(14)18(13)32-4)25(29,21(24)26)20(33-5)19(22)24/h13-21,27-29H,6-12H2,1-5H3/t13-,14-,15+,16+,17-,18+,19-,20+,21?,22+,23-,24+,25-/m1/s1
CH$LINK: INCHIKEY YOTUXHIWBVZAJQ-YAEAOFIFSA-N
AC$INSTRUMENT: LC, Waters Acquity UPLC System; MS, Waters Xevo G2 Q-Tof
AC$INSTRUMENT_TYPE: LC-ESI-QTOF
AC$MASS_SPECTROMETRY: MS_TYPE MS2
AC$MASS_SPECTROMETRY: ION_MODE POSITIVE
AC$MASS_SPECTROMETRY: COLLISION_ENERGY 6V
AC$MASS_SPECTROMETRY: DESOLVATION_GAS_FLOW 800/h
AC$MASS_SPECTROMETRY: DESOLVATION_TEMPERATURE 450 C
AC$MASS_SPECTROMETRY: IONIZATION ESI
AC$CHROMATOGRAPHY: CAPILLARY_VOLTAGE +3.00 kV
AC$CHROMATOGRAPHY: COLUMN_NAME Acquity bridged ethyl hybrid C18 (1.7 um, 2.1 mm * 100 mm, Waters)
AC$CHROMATOGRAPHY: COLUMN_TEMPERATURE 40 C
AC$CHROMATOGRAPHY: FLOW_GRADIENT A/B = (99.5%/0.5% at 0 min, 99.5%/0.5% at 0.1 min, 20%/80% at 10 min, 0.5%/99.5% at 10.1 min, 0.5%/99.5% at 12.0 min, 99.5%/0.5% at 12.1 min, 99.5%/0.5% at 15.0 min)
AC$CHROMATOGRAPHY: FLOW_RATE 0.3 ml/min at 0 min, 0.3 ml/min at 10 min, 0.4 ml/min at 10.1 min, 0.4 ml/min at 14.4 min, 0.3 ml/min at 14.5 min
AC$CHROMATOGRAPHY: RETENTION_TIME 3.674817
AC$CHROMATOGRAPHY: SOLVENT A water including 0.1% formic acid
AC$CHROMATOGRAPHY: SOLVENT B acetonitrile including 0.1% formic acid
MS$FOCUSED_ION: PRECURSOR_TYPE [M+H]+
MS$FOCUSED_ION: PRECURSOR_M/Z 468.2955791
PK$SPLASH: splash10-0a6r-1941000000-eb18354c4ba25fbdc7e9
PK$NUM_PEAK: 868
PK$PEAK: m/z int. rel.int.
  56.05022 11.0 11
  58.05188 9.0 9
  58.06036 15.0 15
  58.06639 47.0 47
  61.02974 6.0 6
  67.04274 6.0 6
  67.05275 19.0 19
  67.05812 6.0 6
  68.05167 11.0 11
  68.05779 5.0 5
  69.03645 5.0 5
  70.06074 6.0 6
  70.06708 34.0 34
  70.09059 7.0 7
  71.05077 94.0 94
  72.04968 6.0 6
  72.08206 66.0 66
  75.03641 12.0 12
  75.04518 233.0 233
  75.69991 5.0 5
  76.04852 9.0 9
  77.03172 7.0 7
  79.05462 81.0 81
  80.04639 24.0 24
  81.07185 14.0 14
  82.03278 6.0 6
  82.0636 35.0 35
  83.03753 16.0 16
  83.04916 12.0 12
  84.04369 5.0 5
  84.07823 23.0 23
  84.08333 79.0 79
  85.03047 95.0 95
  85.05212 14.0 14
  87.0438 31.0 31
  87.04996 8.0 8
  88.07435 17.0 17
  88.07958 6.0 6
  91.05581 180.0 180
  92.05011 8.0 8
  92.05717 26.0 26
  93.05642 8.0 8
  93.06855 36.0 36
  94.03775 6.0 6
  94.05788 9.0 9
  94.06593 14.0 14
  94.07125 10.0 10
  95.04836 5.0 5
  95.0715 10.0 10
  95.09013 7.0 7
  96.06149 12.0 12
  96.08203 402.0 402
  97.06631 41.0 41
  97.0841 17.0 17
  97.9024 6.0 6
  98.06024 54.0 54
  98.08889 12.0 12
  98.09805 52.0 52
  99.06473 15.0 15
  99.06841 5.0 5
  99.07947 8.0 8
  100.07844 12.0 12
  100.09697 7.0 7
  102.09592 14.0 14
  103.05323 28.0 28
  104.05656 5.0 5
  105.0356 14.0 14
  105.0594 12.0 12
  105.07153 125.0 125
  106.06194 20.0 20
  106.0726 9.0 9
  107.05057 99.0 99
  107.06761 17.0 17
  107.07773 20.0 20
  107.08408 16.0 16
  108.05324 23.0 23
  108.06588 16.0 16
  108.08087 1000.0 999
  109.06475 70.0 70
  109.06992 32.0 32
  109.08649 163.0 163
  110.06096 40.0 40
  110.09684 197.0 197
  111.06658 7.0 7
  111.07298 6.0 6
  111.08126 7.0 7
  111.10034 9.0 9
  111.32346 5.0 5
  112.0657 15.0 15
  112.07374 36.0 36
  112.11284 11.0 11
  114.07692 6.0 6
  114.08813 73.0 73
  114.09324 164.0 164
  115.05283 45.0 45
  115.06053 37.0 37
  115.09703 6.0 6
  116.0546 10.0 10
  116.06427 14.0 14
  117.05115 6.0 6
  117.0695 177.0 177
  118.04111 12.0 12
  119.05124 90.0 90
  119.06561 7.0 7
  119.0752 6.0 6
  119.08452 50.0 50
  120.05022 21.0 21
  120.07892 24.0 24
  120.08993 5.0 5
  121.06561 47.0 47
  121.0884 34.0 34
  121.10399 9.0 9
  122.06403 21.0 21
  122.09724 271.0 271
  122.63879 10.0 10
  123.06221 6.0 6
  123.07136 6.0 6
  123.07966 18.0 18
  123.08694 18.0 18
  123.10408 55.0 55
  124.0609 6.0 6
  124.07541 14.0 14
  124.08263 16.0 16
  124.09044 6.0 6
  124.11186 122.0 122
  125.05722 14.0 14
  125.06358 14.0 14
  125.08208 24.0 24
  125.11715 18.0 18
  126.09114 340.0 340
  127.05511 28.0 28
  127.06219 5.0 5
  127.09908 45.0 45
  128.05739 35.0 35
  128.06483 36.0 36
  128.10571 18.0 18
  129.07053 198.0 198
  130.07869 42.0 42
  131.04698 9.0 9
  131.08582 163.0 163
  132.04767 11.0 11
  132.08264 47.0 47
  133.0654 55.0 55
  133.08791 7.0 7
  133.10289 25.0 25
  133.10866 8.0 8
  133.3708 8.0 8
  134.06886 21.0 21
  134.09584 97.0 97
  134.11282 9.0 9
  135.06364 10.0 10
  135.0822 72.0 72
  135.10641 8.0 8
  136.07018 10.0 10
  136.07669 31.0 31
  136.08556 14.0 14
  136.11559 19.0 19
  137.05324 44.0 44
  137.06165 57.0 57
  137.06984 21.0 21
  137.11346 5.0 5
  138.06639 16.0 16
  138.07707 9.0 9
  138.09213 318.0 318
  138.77785 5.0 5
  139.0714 7.0 7
  139.08961 18.0 18
  139.09785 30.0 30
  140.08925 6.0 6
  140.1066 449.0 449
  140.12325 14.0 14
  141.06752 66.0 66
  141.0742 64.0 64
  141.10815 34.0 34
  142.06573 14.0 14
  142.07657 38.0 38
  142.08241 31.0 31
  142.10207 7.0 7
  142.1153 16.0 16
  142.12358 17.0 17
  143.06429 9.0 9
  143.08328 112.0 112
  143.09314 39.0 39
  143.12059 7.0 7
  144.05145 14.0 14
  144.06293 9.0 9
  144.08406 46.0 46
  144.10672 14.0 14
  145.06474 81.0 81
  145.08952 23.0 23
  145.10434 40.0 40
  146.07504 19.0 19
  146.09868 62.0 62
  146.10968 9.0 9
  147.07481 41.0 41
  147.08286 41.0 41
  147.09669 15.0 15
  147.10268 41.0 41
  148.07913 14.0 14
  148.08801 20.0 20
  148.10104 13.0 13
  148.1125 120.0 120
  149.05099 7.0 7
  149.09045 5.0 5
  149.11453 10.0 10
  149.12509 11.0 11
  150.092 26.0 26
  150.1011 17.0 17
  150.11925 9.0 9
  150.13034 21.0 21
  151.05405 6.0 6
  151.06531 5.0 5
  151.07581 68.0 68
  151.08641 6.0 6
  151.09706 14.0 14
  152.04762 8.0 8
  152.06133 12.0 12
  152.07083 21.0 21
  152.10698 6.0 6
  152.1143 6.0 6
  153.06114 9.0 9
  153.07253 101.0 101
  154.06943 24.0 24
  154.0791 32.0 32
  154.08519 10.0 10
  154.10786 5.0 5
  154.12016 70.0 70
  155.05376 5.0 5
  155.07115 17.0 17
  155.0874 165.0 165
  156.05734 6.0 6
  156.09232 74.0 74
  156.24501 6.0 6
  157.06154 22.0 22
  157.06973 39.0 39
  157.08827 30.0 30
  157.09966 55.0 55
  158.07617 34.0 34
  158.09015 17.0 17
  158.10097 60.0 60
  159.06442 6.0 6
  159.07719 54.0 54
  159.08484 50.0 50
  159.10805 7.0 7
  159.11478 11.0 11
  160.07892 36.0 36
  160.11374 77.0 77
  160.12405 9.0 9
  161.05736 19.0 19
  161.07222 10.0 10
  161.0905 15.0 15
  161.09972 38.0 38
  161.11961 31.0 31
  162.08774 8.0 8
  162.0955 35.0 35
  162.11638 14.0 14
  162.12802 56.0 56
  163.05821 9.0 9
  163.07242 38.0 38
  163.09659 41.0 41
  163.11018 10.0 10
  163.13174 8.0 8
  163.13913 10.0 10
  164.10316 11.0 11
  164.11238 26.0 26
  164.45889 8.0 8
  165.06943 137.0 137
  165.08476 8.0 8
  165.13158 7.0 7
  166.07202 46.0 46
  166.08379 31.0 31
  166.12178 23.0 23
  167.06702 16.0 16
  167.07722 42.0 42
  167.08623 187.0 187
  167.68388 5.0 5
  168.08942 65.0 65
  168.10478 7.0 7
  168.90828 7.0 7
  169.06647 16.0 16
  169.08818 17.0 17
  169.09822 26.0 26
  169.10442 61.0 61
  170.06921 10.0 10
  170.08298 11.0 11
  170.09882 13.0 13
  170.10941 10.0 10
  171.08168 110.0 110
  171.10608 10.0 10
  171.11845 48.0 48
  172.07097 9.0 9
  172.09262 35.0 35
  172.11053 59.0 59
  173.06053 6.0 6
  173.08571 15.0 15
  173.09796 83.0 83
  173.11382 20.0 20
  173.12015 35.0 35
  174.09398 37.0 37
  174.10361 23.0 23
  174.1187 18.0 18
  174.12901 126.0 126
  175.08058 16.0 16
  175.09785 7.0 7
  175.10741 26.0 26
  175.13094 48.0 48
  176.08173 6.0 6
  176.09488 16.0 16
  176.10875 63.0 63
  176.14195 32.0 32
  176.16185 6.0 6
  177.09193 26.0 26
  177.10905 9.0 9
  178.08113 113.0 113
  178.09727 7.0 7
  178.10922 8.0 8
  178.12015 30.0 30
  179.08702 176.0 176
  179.10921 5.0 5
  179.12283 6.0 6
  180.08392 8.0 8
  180.09338 39.0 39
  180.10223 8.0 8
  181.05673 11.0 11
  181.06569 36.0 36
  181.08273 19.0 19
  181.10127 130.0 130
  182.07562 32.0 32
  182.097 12.0 12
  182.10561 28.0 28
  183.07724 27.0 27
  183.08585 12.0 12
  183.10686 29.0 29
  183.11554 75.0 75
  184.07632 10.0 10
  184.08809 22.0 22
  184.11549 71.0 71
  185.08046 17.0 17
  185.09581 43.0 43
  185.11458 19.0 19
  185.12183 8.0 8
  185.13863 7.0 7
  186.08904 35.0 35
  186.11206 6.0 6
  186.12059 20.0 20
  186.13173 35.0 35
  187.06442 10.0 10
  187.10553 53.0 53
  187.13376 22.0 22
  187.14526 5.0 5
  188.08371 11.0 11
  188.10619 61.0 61
  188.11818 37.0 37
  188.13982 26.0 26
  188.14964 65.0 65
  189.08826 22.0 22
  189.10748 27.0 27
  189.11835 18.0 18
  189.12448 6.0 6
  189.13928 15.0 15
  189.14986 11.0 11
  190.07922 19.0 19
  190.11176 20.0 20
  190.1235 139.0 139
  190.15157 12.0 12
  190.16032 17.0 17
  191.07323 19.0 19
  191.08838 160.0 160
  191.13754 20.0 20
  192.08058 19.0 19
  192.0954 79.0 79
  192.14117 60.0 60
  193.06973 12.0 12
  193.10001 151.0 151
  193.15533 6.0 6
  193.52159 6.0 6
  194.07295 13.0 13
  194.0948 13.0 13
  194.10686 28.0 28
  194.11797 6.0 6
  194.12903 6.0 6
  194.63101 6.0 6
  195.08011 67.0 67
  195.09599 11.0 11
  195.10902 27.0 27
  195.11966 66.0 66
  196.09598 10.0 10
  196.10936 30.0 30
  196.11739 44.0 44
  197.05685 20.0 20
  197.09477 51.0 51
  197.1207 11.0 11
  197.13232 12.0 12
  198.0777 6.0 6
  198.0878 15.0 15
  198.09555 28.0 28
  198.12193 42.0 42
  198.13164 43.0 43
  198.16026 7.0 7
  198.37212 7.0 7
  199.09074 9.0 9
  199.10316 11.0 11
  199.12811 5.0 5
  199.14406 12.0 12
  200.02162 10.0 10
  200.08731 16.0 16
  200.10413 38.0 38
  200.11107 31.0 31
  200.13113 12.0 12
  200.13982 27.0 27
  201.09735 33.0 33
  201.11377 14.0 14
  201.13553 5.0 5
  201.15018 8.0 8
  202.07735 31.0 31
  202.09079 7.0 7
  202.09962 15.0 15
  202.11763 23.0 23
  202.12659 74.0 74
  203.06453 7.0 7
  203.07956 50.0 50
  203.08975 54.0 54
  203.13252 31.0 31
  204.07788 25.0 25
  204.09579 89.0 89
  204.13051 20.0 20
  204.14127 38.0 38
  205.08211 9.0 9
  205.10223 98.0 98
  206.07117 6.0 6
  206.0873 10.0 10
  206.10701 62.0 62
  206.16193 8.0 8
  207.08408 42.0 42
  207.10873 35.0 35
  207.11917 78.0 78
  208.07838 16.0 16
  208.08835 23.0 23
  208.10493 9.0 9
  208.1138 25.0 25
  208.12956 22.0 22
  209.09822 38.0 38
  209.11519 10.0 10
  209.13295 51.0 51
  209.96106 7.0 7
  210.09593 27.0 27
  210.1199 33.0 33
  210.13304 30.0 30
  211.07466 5.0 5
  211.09897 26.0 26
  211.10976 16.0 16
  211.11876 19.0 19
  211.14893 5.0 5
  212.10431 36.0 36
  212.13618 29.0 29
  212.15065 25.0 25
  212.99257 7.0 7
  213.08855 21.0 21
  213.1198 14.0 14
  213.50056 6.0 6
  213.82539 5.0 5
  214.10799 7.0 7
  214.1232 14.0 14
  214.13414 26.0 26
  214.15593 6.0 6
  215.07465 21.0 21
  215.08728 56.0 56
  215.11443 9.0 9
  215.13245 33.0 33
  215.16344 16.0 16
  216.08588 6.0 6
  216.09834 27.0 27
  216.13751 57.0 57
  216.16049 10.0 10
  216.55214 6.0 6
  217.09497 29.0 29
  217.10706 25.0 25
  217.12726 22.0 22
  217.14278 15.0 15
  217.15372 8.0 8
  218.06071 7.0 7
  218.09579 8.0 8
  218.11076 24.0 24
  218.15085 14.0 14
  218.15842 28.0 28
  219.1004 34.0 34
  219.11931 51.0 51
  219.13113 10.0 10
  219.50616 8.0 8
  220.08604 18.0 18
  220.11215 37.0 37
  220.12799 62.0 62
  220.14474 6.0 6
  220.17763 13.0 13
  221.09645 45.0 45
  221.12146 32.0 32
  221.13805 38.0 38
  221.1451 14.0 14
  221.45775 5.0 5
  221.84703 6.0 6
  222.10204 62.0 62
  222.12741 33.0 33
  222.14851 31.0 31
  223.09023 5.0 5
  223.11015 40.0 40
  223.12068 22.0 22
  224.07726 12.0 12
  224.10532 26.0 26
  224.12088 22.0 22
  224.14519 92.0 92
  225.11415 21.0 21
  225.13034 17.0 17
  225.13992 14.0 14
  225.15375 7.0 7
  226.09705 11.0 11
  226.1156 12.0 12
  226.12427 27.0 27
  226.1328 21.0 21
  227.10327 17.0 17
  227.12759 7.0 7
  228.09344 32.0 32
  228.10753 19.0 19
  228.12228 11.0 11
  228.13966 47.0 47
  228.17947 6.0 6
  229.09637 17.0 17
  229.14146 9.0 9
  229.15079 8.0 8
  230.10014 10.0 10
  230.11339 10.0 10
  230.12238 15.0 15
  230.15292 6.0 6
  230.24606 5.0 5
  231.08597 13.0 13
  231.10046 9.0 9
  231.11551 42.0 42
  231.13409 11.0 11
  231.15704 9.0 9
  232.08876 36.0 36
  232.09798 10.0 10
  232.11795 18.0 18
  232.14238 10.0 10
  232.1691 8.0 8
  232.3808 9.0 9
  233.09012 5.0 5
  233.10017 18.0 18
  233.12064 27.0 27
  233.13727 16.0 16
  233.48055 8.0 8
  233.49942 9.0 9
  234.09784 10.0 10
  234.11758 8.0 8
  234.12993 26.0 26
  234.16135 6.0 6
  234.18387 8.0 8
  235.10405 18.0 18
  235.12061 23.0 23
  235.13458 17.0 17
  235.14644 10.0 10
  236.10471 12.0 12
  236.11816 27.0 27
  236.1335 25.0 25
  236.15289 6.0 6
  236.17105 14.0 14
  237.09955 6.0 6
  237.1188 34.0 34
  237.13385 17.0 17
  237.16223 7.0 7
  238.09932 6.0 6
  238.10991 7.0 7
  238.1292 27.0 27
  238.14395 6.0 6
  238.1577 16.0 16
  239.0975 15.0 15
  239.1241 7.0 7
  239.13908 15.0 15
  239.15076 10.0 10
  240.09915 5.0 5
  240.11034 13.0 13
  240.13748 50.0 50
  240.1543 22.0 22
  241.11737 14.0 14
  241.53123 6.0 6
  242.11333 27.0 27
  242.13501 9.0 9
  242.1543 34.0 34
  243.12125 5.0 5
  243.13152 11.0 11
  243.43271 6.0 6
  244.10533 15.0 15
  244.12677 36.0 36
  244.14275 6.0 6
  244.16913 24.0 24
  245.08444 5.0 5
  245.12181 9.0 9
  245.13788 10.0 10
  245.15164 5.0 5
  245.18144 8.0 8
  246.12718 17.0 17
  246.14488 23.0 23
  246.1577 14.0 14
  246.52753 5.0 5
  247.11076 28.0 28
  247.12421 18.0 18
  247.15639 19.0 19
  247.16312 8.0 8
  248.10168 12.0 12
  248.14323 52.0 52
  248.16762 9.0 9
  249.09596 20.0 20
  249.1268 43.0 43
  249.13736 25.0 25
  249.14978 18.0 18
  249.16368 8.0 8
  250.09784 6.0 6
  250.12021 16.0 16
  250.13528 29.0 29
  250.16231 16.0 16
  250.17645 16.0 16
  251.08919 8.0 8
  251.11987 7.0 7
  251.13437 24.0 24
  251.14943 5.0 5
  251.95612 6.0 6
  252.10062 9.0 9
  252.13866 36.0 36
  252.17596 14.0 14
  253.12137 13.0 13
  253.14565 32.0 32
  253.17992 21.0 21
  254.12241 5.0 5
  254.15207 25.0 25
  254.16901 13.0 13
  255.13086 16.0 16
  255.15733 17.0 17
  256.13794 18.0 18
  256.17282 47.0 47
  256.99445 7.0 7
  257.12341 7.0 7
  257.1452 7.0 7
  257.18573 8.0 8
  258.11368 10.0 10
  258.15244 8.0 8
  258.16809 14.0 14
  258.74921 6.0 6
  259.1127 18.0 18
  259.12766 10.0 10
  259.1391 6.0 6
  259.15741 7.0 7
  260.12076 20.0 20
  260.12982 6.0 6
  260.15445 21.0 21
  260.19858 6.0 6
  261.13388 20.0 20
  261.16797 18.0 18
  261.6832 8.0 8
  262.10004 7.0 7
  262.12326 33.0 33
  262.15613 35.0 35
  262.17068 15.0 15
  263.125 12.0 12
  263.1658 18.0 18
  263.25165 6.0 6
  264.10989 16.0 16
  264.12881 11.0 11
  264.13889 23.0 23
  264.17682 56.0 56
  265.12592 8.0 8
  265.15656 8.0 8
  266.1199 7.0 7
  266.13452 7.0 7
  266.14233 14.0 14
  266.15372 15.0 15
  266.16312 20.0 20
  266.17468 7.0 7
  268.12265 17.0 17
  268.16034 23.0 23
  268.18378 6.0 6
  268.20184 6.0 6
  269.14676 6.0 6
  270.14648 9.0 9
  270.17038 18.0 18
  270.19321 20.0 20
  271.15125 6.0 6
  271.16388 20.0 20
  271.19388 13.0 13
  271.20789 8.0 8
  272.12259 7.0 7
  272.16791 23.0 23
  273.16815 11.0 11
  274.12253 16.0 16
  275.11157 8.0 8
  275.14288 18.0 18
  277.11331 14.0 14
  277.14209 8.0 8
  277.15747 29.0 29
  277.18097 7.0 7
  278.11707 7.0 7
  278.14813 22.0 22
  280.15216 13.0 13
  280.16962 55.0 55
  280.18378 26.0 26
  281.14899 15.0 15
  281.17178 25.0 25
  282.13821 15.0 15
  282.18512 22.0 22
  283.14291 9.0 9
  283.17615 27.0 27
  283.1944 11.0 11
  284.16385 55.0 55
  284.20056 6.0 6
  285.14249 7.0 7
  285.16248 20.0 20
  285.17609 17.0 17
  286.13611 8.0 8
  286.17914 18.0 18
  288.14096 11.0 11
  288.15323 8.0 8
  288.1965 10.0 10
  288.8587 6.0 6
  289.15332 6.0 6
  291.15271 11.0 11
  292.14883 10.0 10
  292.16104 15.0 15
  292.17679 29.0 29
  293.1713 6.0 6
  294.12653 8.0 8
  294.14288 14.0 14
  294.15836 17.0 17
  294.18298 67.0 67
  294.19748 35.0 35
  294.27441 6.0 6
  295.1441 6.0 6
  295.18985 34.0 34
  296.16168 26.0 26
  296.2113 16.0 16
  297.16565 12.0 12
  297.20108 11.0 11
  298.15305 10.0 10
  298.1709 12.0 12
  298.19 16.0 16
  300.15125 8.0 8
  300.1662 37.0 37
  300.20166 14.0 14
  300.20901 5.0 5
  302.13348 6.0 6
  303.17273 8.0 8
  304.16388 6.0 6
  305.16617 5.0 5
  305.17798 6.0 6
  306.20438 7.0 7
  308.14764 5.0 5
  308.16089 33.0 33
  308.20551 12.0 12
  309.18536 10.0 10
  310.15753 12.0 12
  310.17758 9.0 9
  310.19891 5.0 5
  310.23911 6.0 6
  310.54547 7.0 7
  311.16364 6.0 6
  312.19131 52.0 52
  312.21048 16.0 16
  312.26288 11.0 11
  312.5173 7.0 7
  313.08688 6.0 6
  313.19336 22.0 22
  314.18509 34.0 34
  314.21429 7.0 7
  315.21442 7.0 7
  316.19409 29.0 29
  316.23611 6.0 6
  316.7677 6.0 6
  322.16544 9.0 9
  322.18347 32.0 32
  322.19284 10.0 10
  324.18567 22.0 22
  324.20593 24.0 24
  324.22336 6.0 6
  325.18915 12.0 12
  325.21307 11.0 11
  325.7218 5.0 5
  326.17834 12.0 12
  326.18979 9.0 9
  326.21082 78.0 78
  326.2294 7.0 7
  326.57355 5.0 5
  327.18018 6.0 6
  327.20911 8.0 8
  328.19342 33.0 33
  328.20758 16.0 16
  328.23068 12.0 12
  330.20599 7.0 7
  330.21362 19.0 19
  331.20468 7.0 7
  332.19373 14.0 14
  334.24954 5.0 5
  336.19611 19.0 19
  337.19931 12.0 12
  340.18082 36.0 36
  340.19833 24.0 24
  341.19406 17.0 17
  342.20148 61.0 61
  342.2131 16.0 16
  343.21313 14.0 14
  344.19421 13.0 13
  344.21823 98.0 98
  344.25043 6.0 6
  345.21658 27.0 27
  345.23416 19.0 19
  346.19635 13.0 13
  354.20837 100.0 100
  355.19031 30.0 30
  355.21225 11.0 11
  355.22305 7.0 7
  356.21271 61.0 61
  357.17593 7.0 7
  357.2139 6.0 6
  357.22806 5.0 5
  358.16602 9.0 9
  358.1875 9.0 9
  358.22726 49.0 49
  358.23962 59.0 59
  359.20331 5.0 5
  359.21603 7.0 7
  359.24521 23.0 23
  360.21945 16.0 16
  361.23065 10.0 10
  362.19553 6.0 6
  362.22974 11.0 11
  362.72543 5.0 5
  363.23947 7.0 7
  368.21725 8.0 8
  369.21472 6.0 6
  372.21271 43.0 43
  372.22488 44.0 44
  372.82843 6.0 6
  373.20554 15.0 15
  373.22556 31.0 31
  374.21838 15.0 15
  374.23431 15.0 15
  374.25775 8.0 8
  375.24805 8.0 8
  376.24295 78.0 78
  377.2518 14.0 14
  377.26395 9.0 9
  385.87988 7.0 7
  386.23706 108.0 108
  387.15356 6.0 6
  387.23572 32.0 32
  389.25775 6.0 6
  390.22708 9.0 9
  390.25177 11.0 11
  397.00311 6.0 6
  404.24521 124.0 124
  405.23978 14.0 14
  405.25821 23.0 23
  406.22507 7.0 7
  416.25858 13.0 13
  418.25418 15.0 15
  428.33575 5.0 5
  436.26157 16.0 16
  436.28107 10.0 10
  437.2843 12.0 12
  444.82758 6.0 6
  456.66721 6.0 6
  468.29077 56.0 56
  468.30435 17.0 17
//
