ACCESSION: MSBNK-RIKEN-PR304273
RECORD_TITLE: trans-pterostilbene; LC-ESI-QTOF; MS2
DATE: 2019.03.28
AUTHORS: Tetsuya Mori, Center for Sustainable Resource Science, RIKEN
LICENSE: CC BY-NC-SA
PUBLICATION: Tsugawa H., Nakabayashi R., Mori T., Yamada Y., Takahashi M., Rai A., Sugiyama R., Yamamoto H., Nakaya T., Yamazaki M., Kooke R., Bac-Molenaar JA., Oztolan-Erol N., Keurentjes JJB., Arita M., Saito K. (2019) "A cheminformatics approach to characterize metabolomes in stable-isotope-labeled organisms" Nature Methods 16(4):295-298. [doi:10.1038/s41592-019-0358-2]
COMMENT: registered in RIKEN PlaSMA
CH$NAME: trans-pterostilbene
CH$COMPOUND_CLASS: Stilbenes
CH$FORMULA: C16H16O3
CH$EXACT_MASS: 256.301
CH$SMILES: COC1=CC(\C=C\C2=CC=C(O)C=C2)=CC(OC)=C1
CH$IUPAC: InChI=1S/C16H16O3/c1-18-15-9-13(10-16(11-15)19-2)4-3-12-5-7-14(17)8-6-12/h3-11,17H,1-2H3/b4-3+
CH$LINK: INCHIKEY VLEUZFDZJKSGMX-ONEGZZNKSA-N
AC$INSTRUMENT: LC, Waters Acquity UPLC System; MS, Waters Xevo G2 Q-Tof
AC$INSTRUMENT_TYPE: LC-ESI-QTOF
AC$MASS_SPECTROMETRY: MS_TYPE MS2
AC$MASS_SPECTROMETRY: ION_MODE POSITIVE
AC$MASS_SPECTROMETRY: COLLISION_ENERGY 6V
AC$MASS_SPECTROMETRY: DESOLVATION_GAS_FLOW 800/h
AC$MASS_SPECTROMETRY: DESOLVATION_TEMPERATURE 450 C
AC$MASS_SPECTROMETRY: IONIZATION ESI
AC$CHROMATOGRAPHY: CAPILLARY_VOLTAGE +3.00 kV
AC$CHROMATOGRAPHY: COLUMN_NAME Acquity bridged ethyl hybrid C18 (1.7 um, 2.1 mm * 100 mm, Waters)
AC$CHROMATOGRAPHY: COLUMN_TEMPERATURE 40 C
AC$CHROMATOGRAPHY: FLOW_GRADIENT A/B = (99.5%/0.5% at 0 min, 99.5%/0.5% at 0.1 min, 20%/80% at 10 min, 0.5%/99.5% at 10.1 min, 0.5%/99.5% at 12.0 min, 99.5%/0.5% at 12.1 min, 99.5%/0.5% at 15.0 min)
AC$CHROMATOGRAPHY: FLOW_RATE 0.3 ml/min at 0 min, 0.3 ml/min at 10 min, 0.4 ml/min at 10.1 min, 0.4 ml/min at 14.4 min, 0.3 ml/min at 14.5 min
AC$CHROMATOGRAPHY: RETENTION_TIME 8.020467
AC$CHROMATOGRAPHY: SOLVENT A water including 0.1% formic acid
AC$CHROMATOGRAPHY: SOLVENT B acetonitrile including 0.1% formic acid
MS$FOCUSED_ION: PRECURSOR_TYPE [M+H]+
MS$FOCUSED_ION: PRECURSOR_M/Z 257.1172208
PK$SPLASH: splash10-01q9-0920000000-24833886fc2bf948d467
PK$NUM_PEAK: 254
PK$PEAK: m/z int. rel.int.
  52.98634 8.0 8
  55.02081 11.0 11
  68.99757 10.0 10
  77.03687 21.0 21
  77.04144 18.0 18
  77.04701 11.0 11
  77.93834 13.0 13
  78.16628 9.0 9
  79.048 9.0 9
  79.05521 30.0 30
  85.03152 15.0 15
  89.04079 10.0 10
  90.04967 8.0 8
  91.00492 17.0 17
  91.05348 253.0 253
  92.02686 11.0 11
  92.05235 13.0 13
  92.06019 9.0 9
  93.03469 8.0 8
  95.04473 11.0 11
  99.04813 9.0 9
  102.04563 11.0 11
  103.02985 10.0 10
  103.05354 201.0 201
  104.71858 8.0 8
  105.02975 8.0 8
  105.07052 419.0 419
  106.06342 9.0 9
  106.07189 10.0 10
  106.08054 9.0 9
  107.04148 37.0 37
  107.04774 144.0 144
  107.05352 46.0 46
  108.05363 60.0 60
  108.06128 9.0 9
  108.57135 11.0 11
  109.06013 10.0 10
  111.04347 8.0 8
  115.04868 8.0 8
  115.05502 28.0 28
  116.05611 8.0 8
  117.07007 32.0 32
  118.02135 13.0 13
  118.04218 9.0 9
  119.04379 72.0 72
  119.05113 136.0 136
  120.0491 12.0 12
  120.05821 57.0 57
  121.02861 163.0 163
  121.065 213.0 213
  121.62379 15.0 15
  122.03295 22.0 22
  122.03692 9.0 9
  122.06888 31.0 31
  123.04458 20.0 20
  123.06997 12.0 12
  124.05228 38.0 38
  124.07086 8.0 8
  125.0615 8.0 8
  127.05533 63.0 63
  127.07471 13.0 13
  128.05238 15.0 15
  128.06137 18.0 18
  129.06308 32.0 32
  130.08014 10.0 10
  131.04784 54.0 54
  131.08032 10.0 10
  131.08676 10.0 10
  132.05432 8.0 8
  132.05978 19.0 19
  132.13956 8.0 8
  133.02014 8.0 8
  133.02901 77.0 77
  133.06017 49.0 49
  133.06941 101.0 101
  134.02609 16.0 16
  134.07074 17.0 17
  134.07834 9.0 9
  135.02707 10.0 10
  135.03607 8.0 8
  135.04379 30.0 30
  135.06715 10.0 10
  135.07883 84.0 84
  135.08531 23.0 23
  135.83472 8.0 8
  136.0464 14.0 14
  136.08205 19.0 19
  136.3645 8.0 8
  137.05956 63.0 63
  138.06447 104.0 104
  139.05693 9.0 9
  139.07401 48.0 48
  140.08263 8.0 8
  140.91284 12.0 12
  141.06833 18.0 18
  141.07407 54.0 54
  143.08084 18.0 18
  143.08768 13.0 13
  144.05856 9.0 9
  145.03308 9.0 9
  145.06659 28.0 28
  148.04489 9.0 9
  148.05461 28.0 28
  149.05693 48.0 48
  150.03119 12.0 12
  150.04358 9.0 9
  150.05847 9.0 9
  151.0322 8.0 8
  151.05634 27.0 27
  151.07245 47.0 47
  151.08023 25.0 25
  152.03403 16.0 16
  152.0614 53.0 53
  152.82953 12.0 12
  153.0461 8.0 8
  153.05501 11.0 11
  153.06892 197.0 197
  154.07678 160.0 160
  155.08763 73.0 73
  156.05321 20.0 20
  156.09422 13.0 13
  156.49811 8.0 8
  157.06584 97.0 97
  157.66838 13.0 13
  158.06554 11.0 11
  158.0748 12.0 12
  159.05032 8.0 8
  159.07635 44.0 44
  159.08461 46.0 46
  160.0715 9.0 9
  160.49359 14.0 14
  161.36319 10.0 10
  162.06796 11.0 11
  164.06653 40.0 40
  164.07964 12.0 12
  164.38474 9.0 9
  164.44585 8.0 8
  164.47685 13.0 13
  164.7542 13.0 13
  165.02594 11.0 11
  165.04274 9.0 9
  165.06993 716.0 715
  165.2117 8.0 8
  165.52263 9.0 9
  165.55902 8.0 8
  166.07426 137.0 137
  166.19756 11.0 11
  166.62489 9.0 9
  167.07919 61.0 61
  167.08766 77.0 77
  168.05191 8.0 8
  168.08646 12.0 12
  168.09633 8.0 8
  169.05652 24.0 24
  169.07191 17.0 17
  170.06609 8.0 8
  170.07571 29.0 29
  171.05247 18.0 18
  171.08041 162.0 162
  172.07613 9.0 9
  172.09334 11.0 11
  174.06197 16.0 16
  176.0562 30.0 30
  177.05545 17.0 17
  177.07457 73.0 73
  178.07156 53.0 53
  178.07939 86.0 86
  179.08537 120.0 120
  180.0446 8.0 8
  180.05911 16.0 16
  181.06496 1000.0 999
  182.03801 9.0 9
  182.07082 494.0 494
  183.07838 323.0 323
  183.25893 9.0 9
  184.0533 10.0 10
  184.07816 29.0 29
  184.13103 9.0 9
  185.05391 10.0 10
  185.06946 11.0 11
  185.09579 10.0 10
  186.10893 12.0 12
  186.9295 8.0 8
  187.07394 19.0 19
  189.09198 11.0 11
  192.05629 60.0 60
  193.06364 60.0 60
  193.07425 21.0 21
  194.06877 29.0 29
  194.0787 118.0 118
  195.07652 122.0 122
  195.08629 76.0 76
  196.03514 11.0 11
  196.05161 8.0 8
  196.08759 92.0 92
  196.10393 17.0 17
  197.04225 15.0 15
  197.05298 47.0 47
  197.06824 22.0 22
  197.08707 22.0 22
  197.09857 83.0 83
  198.06721 70.0 70
  198.09213 8.0 8
  198.10051 9.0 9
  198.75505 9.0 9
  199.00168 15.0 15
  199.07423 328.0 328
  200.07956 56.0 56
  207.08261 12.0 12
  208.04535 13.0 13
  208.07317 8.0 8
  208.08786 22.0 22
  208.09877 8.0 8
  209.05984 118.0 118
  209.10042 26.0 26
  210.06842 379.0 379
  210.09932 13.0 13
  211.07259 531.0 530
  212.05679 8.0 8
  212.07521 45.0 45
  212.08409 27.0 27
  213.05258 9.0 9
  213.08862 139.0 139
  213.09927 26.0 26
  214.1001 28.0 28
  216.07388 11.0 11
  216.10403 9.0 9
  222.05542 8.0 8
  222.07043 17.0 17
  223.0696 10.0 10
  224.07437 34.0 34
  224.08755 49.0 49
  225.03059 9.0 9
  225.08267 67.0 67
  225.09332 109.0 109
  226.07019 31.0 31
  226.10223 220.0 220
  227.02556 14.0 14
  227.04123 11.0 11
  227.07153 225.0 225
  227.10291 9.0 9
  228.07658 9.0 9
  234.40511 8.0 8
  239.10185 10.0 10
  240.08672 9.0 9
  240.89604 9.0 9
  241.07254 20.0 20
  241.08911 163.0 163
  241.66223 8.0 8
  242.0939 231.0 231
  243.08696 8.0 8
  243.09764 23.0 23
  244.09941 10.0 10
  257.11047 27.0 27
//
