ACCESSION: MSBNK-RIKEN-PR300014
RECORD_TITLE: Voacristine; LC-ESI-QTOF; MS2
DATE: 2019.03.28
AUTHORS: Tetsuya Mori, Center for Sustainable Resource Science, RIKEN
LICENSE: CC BY-NC-SA
PUBLICATION: Tsugawa H., Nakabayashi R., Mori T., Yamada Y., Takahashi M., Rai A., Sugiyama R., Yamamoto H., Nakaya T., Yamazaki M., Kooke R., Bac-Molenaar JA., Oztolan-Erol N., Keurentjes JJB., Arita M., Saito K. (2019) "A cheminformatics approach to characterize metabolomes in stable-isotope-labeled organisms" Nature Methods 16(4):295-298. [doi:10.1038/s41592-019-0358-2]
COMMENT: registered in RIKEN PlaSMA
CH$NAME: Voacristine
CH$COMPOUND_CLASS: Ibogan-type alkaloids
CH$FORMULA: C22H28N2O4
CH$EXACT_MASS: 384.476
CH$SMILES: COC(=O)[C@@]12C[C@H]3C[C@H]([C@H](C)O)[C@@H]1N(C3)CCC1=C2NC2=C1C=C(OC)C=C2
CH$IUPAC: InChI=1S/C22H28N2O4/c1-12(25)16-8-13-10-22(21(26)28-3)19-15(6-7-24(11-13)20(16)22)17-9-14(27-2)4-5-18(17)23-19/h4-5,9,12-13,16,20,23,25H,6-8,10-11H2,1-3H3/t12-,13+,16+,20-,22+/m0/s1
CH$LINK: INCHIKEY OYMQKBZMKFJPMH-VJMPXSKLSA-N
AC$INSTRUMENT: LC, Waters Acquity UPLC System; MS, Waters Xevo G2 Q-Tof
AC$INSTRUMENT_TYPE: LC-ESI-QTOF
AC$MASS_SPECTROMETRY: MS_TYPE MS2
AC$MASS_SPECTROMETRY: ION_MODE POSITIVE
AC$MASS_SPECTROMETRY: COLLISION_ENERGY 6V
AC$MASS_SPECTROMETRY: DESOLVATION_GAS_FLOW 800/h
AC$MASS_SPECTROMETRY: DESOLVATION_TEMPERATURE 450 C
AC$MASS_SPECTROMETRY: IONIZATION ESI
AC$CHROMATOGRAPHY: CAPILLARY_VOLTAGE +3.00 kV
AC$CHROMATOGRAPHY: COLUMN_NAME Acquity bridged ethyl hybrid C18 (1.7 um, 2.1 mm * 100 mm, Waters)
AC$CHROMATOGRAPHY: COLUMN_TEMPERATURE 40 C
AC$CHROMATOGRAPHY: FLOW_GRADIENT A/B = (99.5%/0.5% at 0 min, 99.5%/0.5% at 0.1 min, 20%/80% at 10 min, 0.5%/99.5% at 10.1 min, 0.5%/99.5% at 12.0 min, 99.5%/0.5% at 12.1 min, 99.5%/0.5% at 15.0 min)
AC$CHROMATOGRAPHY: FLOW_RATE 0.3 ml/min at 0 min, 0.3 ml/min at 10 min, 0.4 ml/min at 10.1 min, 0.4 ml/min at 14.4 min, 0.3 ml/min at 14.5 min
AC$CHROMATOGRAPHY: RETENTION_TIME 4.611467
AC$CHROMATOGRAPHY: SOLVENT A water including 0.1% formic acid
AC$CHROMATOGRAPHY: SOLVENT B acetonitrile including 0.1% formic acid
MS$FOCUSED_ION: PRECURSOR_TYPE [M+H]+
MS$FOCUSED_ION: PRECURSOR_M/Z 385.2121838
PK$SPLASH: splash10-00kr-0349000000-75bc67346b3f90356261
PK$NUM_PEAK: 177
PK$PEAK: m/z int. rel.int.
  93.06744 19.0 19
  98.09672 7.0 7
  107.08426 8.0 8
  108.07693 10.0 10
  110.09592 20.0 20
  110.10085 7.0 7
  111.10434 6.0 6
  119.08469 16.0 16
  120.08341 10.0 10
  122.09563 119.0 119
  123.09692 10.0 10
  134.10005 11.0 11
  135.10544 31.0 31
  136.11096 295.0 295
  137.11487 27.0 27
  137.12119 12.0 12
  147.07594 19.0 19
  147.08569 6.0 6
  148.11304 69.0 69
  149.11711 9.0 9
  158.09676 28.0 28
  159.0959 12.0 12
  160.07269 26.0 26
  160.08115 11.0 11
  161.09473 5.0 5
  162.09137 18.0 18
  162.09915 5.0 5
  173.07979 7.0 7
  174.09132 218.0 218
  175.0815 6.0 6
  175.09566 48.0 48
  176.09846 10.0 10
  177.09698 6.0 6
  184.0735 13.0 13
  185.08466 5.0 5
  186.09172 112.0 112
  187.09625 20.0 20
  188.09389 12.0 12
  188.10478 17.0 17
  189.1024 35.0 35
  194.11842 21.0 21
  197.08412 10.0 10
  198.09294 60.0 60
  199.08794 14.0 14
  199.09856 10.0 10
  200.06921 7.0 7
  200.10797 43.0 43
  201.10051 43.0 43
  201.11096 15.0 15
  202.11366 20.0 20
  203.11443 5.0 5
  206.11856 24.0 24
  210.09154 83.0 83
  211.09473 27.0 27
  212.07031 13.0 13
  212.09578 9.0 9
  212.10982 9.0 9
  214.07819 23.0 23
  214.08897 35.0 35
  214.12172 6.0 6
  215.12286 5.0 5
  224.07442 6.0 6
  224.10631 24.0 24
  225.11139 7.0 7
  226.08754 38.0 38
  228.10657 8.0 8
  228.13289 6.0 6
  229.10397 5.0 5
  232.08487 6.0 6
  232.09882 36.0 36
  233.10663 7.0 7
  237.10472 27.0 27
  238.08684 56.0 56
  238.11214 6.0 6
  238.12636 8.0 8
  239.09045 5.0 5
  239.12569 5.0 5
  241.09854 9.0 9
  244.09866 30.0 30
  246.11375 69.0 69
  247.09888 5.0 5
  247.11307 15.0 15
  250.08163 10.0 10
  250.11711 9.0 9
  250.12926 8.0 8
  251.11742 21.0 21
  252.08858 6.0 6
  252.10101 18.0 18
  252.1295 7.0 7
  252.1454 5.0 5
  253.0952 5.0 5
  253.13225 32.0 32
  254.12828 8.0 8
  258.10248 22.0 22
  258.1152 72.0 72
  259.11508 15.0 15
  260.12753 13.0 13
  260.1355 6.0 6
  261.10751 7.0 7
  262.12241 10.0 10
  263.11304 7.0 7
  264.10181 6.0 6
  264.12567 10.0 10
  264.14157 25.0 25
  265.09171 10.0 10
  265.10074 15.0 15
  265.14026 13.0 13
  265.15152 6.0 6
  266.11011 13.0 13
  267.1124 6.0 6
  270.08826 7.0 7
  270.10638 16.0 16
  270.11523 51.0 51
  271.10812 5.0 5
  276.13239 9.0 9
  276.14554 12.0 12
  277.12411 8.0 8
  277.15689 5.0 5
  278.11847 6.0 6
  278.15543 53.0 53
  279.12177 9.0 9
  279.1528 46.0 46
  280.1315 8.0 8
  280.15231 9.0 9
  280.16498 7.0 7
  281.16605 22.0 22
  282.10849 10.0 10
  284.11942 10.0 10
  284.13348 29.0 29
  285.1351 8.0 8
  290.15607 15.0 15
  291.13977 10.0 10
  291.15009 11.0 11
  292.12341 7.0 7
  292.13678 11.0 11
  292.15112 13.0 13
  292.16165 22.0 22
  293.16089 21.0 21
  293.17227 12.0 12
  294.14517 7.0 7
  294.17026 7.0 7
  296.13583 13.0 13
  305.13434 9.0 9
  306.15283 9.0 9
  307.14795 14.0 14
  307.18161 457.0 457
  307.5101 5.0 5
  308.1821 104.0 104
  308.19525 45.0 45
  309.18658 20.0 20
  311.1326 7.0 7
  311.15109 13.0 13
  312.14606 7.0 7
  312.16028 10.0 10
  320.15628 14.0 14
  321.15472 6.0 6
  324.17197 7.0 7
  324.18808 8.0 8
  335.17569 597.0 596
  336.17868 138.0 138
  337.15448 5.0 5
  337.18259 18.0 18
  338.16577 9.0 9
  339.19406 9.0 9
  339.21106 9.0 9
  352.16223 6.0 6
  352.18393 30.0 30
  367.11398 5.0 5
  367.14316 6.0 6
  367.16629 24.0 24
  367.20178 1000.0 999
  368.15839 8.0 8
  368.20444 275.0 275
  369.18314 5.0 5
  369.20764 39.0 39
  385.15036 11.0 11
  385.21167 607.0 606
//
