ACCESSION: MSBNK-RIKEN-PR301519
RECORD_TITLE: (-)-Eburnamonine; LC-ESI-QTOF; MS2
DATE: 2019.03.28
AUTHORS: Tetsuya Mori, Center for Sustainable Resource Science, RIKEN
LICENSE: CC BY-NC-SA
PUBLICATION: Tsugawa H., Nakabayashi R., Mori T., Yamada Y., Takahashi M., Rai A., Sugiyama R., Yamamoto H., Nakaya T., Yamazaki M., Kooke R., Bac-Molenaar JA., Oztolan-Erol N., Keurentjes JJB., Arita M., Saito K. (2019) "A cheminformatics approach to characterize metabolomes in stable-isotope-labeled organisms" Nature Methods 16(4):295-298. [doi:10.1038/s41592-019-0358-2]
COMMENT: registered in RIKEN PlaSMA
CH$NAME: (-)-Eburnamonine
CH$COMPOUND_CLASS: Eburnan-type alkaloids
CH$FORMULA: C19H22N2O
CH$EXACT_MASS: 294.398
CH$SMILES: CCC12CCCN3CCC4=C(C13)N(C1=CC=CC=C41)C(=O)C2
CH$IUPAC: InChI=1S/C19H22N2O/c1-2-19-9-5-10-20-11-8-14-13-6-3-4-7-15(13)21(16(22)12-19)17(14)18(19)20/h3-4,6-7,18H,2,5,8-12H2,1H3
CH$LINK: INCHIKEY WYJAPUKIYAZSEM-UHFFFAOYSA-N
AC$INSTRUMENT: LC, Waters Acquity UPLC System; MS, Waters Xevo G2 Q-Tof
AC$INSTRUMENT_TYPE: LC-ESI-QTOF
AC$MASS_SPECTROMETRY: MS_TYPE MS2
AC$MASS_SPECTROMETRY: ION_MODE POSITIVE
AC$MASS_SPECTROMETRY: COLLISION_ENERGY 6V
AC$MASS_SPECTROMETRY: DESOLVATION_GAS_FLOW 800/h
AC$MASS_SPECTROMETRY: DESOLVATION_TEMPERATURE 450 C
AC$MASS_SPECTROMETRY: IONIZATION ESI
AC$CHROMATOGRAPHY: CAPILLARY_VOLTAGE +3.00 kV
AC$CHROMATOGRAPHY: COLUMN_NAME Acquity bridged ethyl hybrid C18 (1.7 um, 2.1 mm * 100 mm, Waters)
AC$CHROMATOGRAPHY: COLUMN_TEMPERATURE 40 C
AC$CHROMATOGRAPHY: FLOW_GRADIENT A/B = (99.5%/0.5% at 0 min, 99.5%/0.5% at 0.1 min, 20%/80% at 10 min, 0.5%/99.5% at 10.1 min, 0.5%/99.5% at 12.0 min, 99.5%/0.5% at 12.1 min, 99.5%/0.5% at 15.0 min)
AC$CHROMATOGRAPHY: FLOW_RATE 0.3 ml/min at 0 min, 0.3 ml/min at 10 min, 0.4 ml/min at 10.1 min, 0.4 ml/min at 14.4 min, 0.3 ml/min at 14.5 min
AC$CHROMATOGRAPHY: RETENTION_TIME 4.648283
AC$CHROMATOGRAPHY: SOLVENT A water including 0.1% formic acid
AC$CHROMATOGRAPHY: SOLVENT B acetonitrile including 0.1% formic acid
MS$FOCUSED_ION: PRECURSOR_TYPE [M+H]+
MS$FOCUSED_ION: PRECURSOR_M/Z 295.1804898
PK$SPLASH: splash10-000i-0390000000-a38d9d6d77d87b249640
PK$NUM_PEAK: 209
PK$PEAK: m/z int. rel.int.
  67.05362 5.0 5
  70.06563 56.0 56
  82.06825 8.0 8
  82.0792 5.0 5
  83.07497 41.0 41
  84.08158 85.0 85
  93.06941 13.0 13
  93.07572 6.0 6
  94.06149 7.0 7
  95.08707 16.0 16
  98.09749 15.0 15
  105.07062 20.0 20
  107.08437 21.0 21
  110.09383 8.0 8
  111.08283 13.0 13
  112.1074 7.0 7
  112.1145 11.0 11
  115.0535 5.0 5
  117.0617 14.0 14
  117.07185 11.0 11
  119.08655 12.0 12
  121.0639 15.0 15
  121.10321 5.0 5
  122.05827 13.0 13
  122.09148 16.0 16
  122.09902 24.0 24
  123.08208 15.0 15
  124.07616 59.0 59
  124.08409 10.0 10
  124.11443 25.0 25
  127.05563 6.0 6
  130.06181 20.0 20
  130.06781 14.0 14
  131.06595 9.0 9
  131.07466 32.0 32
  132.08141 49.0 49
  133.05876 9.0 9
  133.06546 15.0 15
  133.08714 7.0 7
  134.10069 19.0 19
  135.08072 9.0 9
  136.11131 8.0 8
  138.0889 25.0 25
  142.06943 5.0 5
  143.07545 5.0 5
  144.08174 224.0 224
  145.07008 5.0 5
  145.07956 25.0 25
  145.09372 5.0 5
  146.09328 21.0 21
  146.10217 11.0 11
  150.07993 5.0 5
  150.09238 51.0 51
  150.09941 12.0 12
  152.09184 12.0 12
  152.10716 91.0 91
  153.10132 8.0 8
  153.11644 7.0 7
  154.06163 9.0 9
  156.08119 29.0 29
  157.08392 7.0 7
  157.09949 10.0 10
  158.06712 12.0 12
  158.09753 33.0 33
  162.09084 7.0 7
  167.06749 7.0 7
  167.0759 8.0 8
  168.07828 32.0 32
  168.0881 20.0 20
  169.0881 41.0 41
  170.06093 11.0 11
  170.09846 26.0 26
  170.10899 6.0 6
  171.08974 9.0 9
  172.07594 17.0 17
  172.10817 11.0 11
  172.11971 12.0 12
  180.08356 55.0 55
  181.08543 39.0 39
  181.0945 55.0 55
  182.06078 9.0 9
  182.08127 5.0 5
  182.09375 64.0 64
  182.1032 22.0 22
  183.06841 7.0 7
  183.08659 12.0 12
  183.09995 9.0 9
  183.1109 15.0 15
  184.07541 95.0 95
  184.10878 26.0 26
  184.11681 23.0 23
  185.08054 7.0 7
  185.11703 8.0 8
  193.09032 16.0 16
  194.08017 5.0 5
  194.10022 55.0 55
  194.11401 5.0 5
  195.10434 85.0 85
  195.11205 24.0 24
  196.0755 110.0 110
  196.11322 46.0 46
  197.08342 218.0 218
  197.10352 13.0 13
  197.12169 6.0 6
  198.08109 27.0 27
  198.08989 52.0 52
  198.10504 7.0 7
  198.12524 46.0 46
  198.13496 35.0 35
  198.14832 6.0 6
  199.09518 15.0 15
  199.12759 14.0 14
  205.0864 9.0 9
  206.09357 24.0 24
  207.09816 20.0 20
  207.10741 22.0 22
  208.07407 15.0 15
  208.09299 11.0 11
  208.10583 20.0 20
  208.11378 54.0 54
  208.12666 7.0 7
  209.08864 5.0 5
  209.09903 7.0 7
  209.11981 61.0 61
  210.07085 5.0 5
  210.09238 77.0 77
  210.12642 108.0 108
  211.09152 25.0 25
  211.10335 32.0 32
  211.11746 11.0 11
  211.12927 17.0 17
  212.10649 90.0 90
  213.11212 7.0 7
  217.08772 9.0 9
  218.09222 7.0 7
  219.10355 11.0 11
  220.07594 27.0 27
  220.10919 9.0 9
  221.07457 5.0 5
  221.1209 32.0 32
  221.13086 7.0 7
  222.09259 89.0 89
  222.11859 16.0 16
  222.13115 44.0 44
  223.09917 254.0 254
  223.1235 31.0 31
  224.08437 9.0 9
  224.11084 124.0 124
  224.13304 280.0 280
  225.11444 181.0 181
  225.12994 48.0 48
  225.15465 5.0 5
  226.12096 167.0 167
  226.12842 86.0 86
  226.14275 8.0 8
  227.12599 63.0 63
  228.13002 10.0 10
  233.11835 6.0 6
  234.09409 50.0 50
  234.12561 9.0 9
  235.08791 25.0 25
  235.09824 100.0 100
  235.13092 7.0 7
  236.10825 67.0 67
  236.1443 71.0 71
  237.11479 189.0 189
  237.15298 13.0 13
  238.07195 8.0 8
  238.12297 1000.0 999
  238.1584 53.0 53
  238.80661 11.0 11
  239.12584 219.0 219
  239.13747 43.0 43
  239.16647 23.0 23
  240.12068 12.0 12
  240.1328 13.0 13
  248.09798 8.0 8
  248.10826 12.0 12
  248.13867 12.0 12
  248.15221 7.0 7
  249.11687 112.0 112
  249.1541 7.0 7
  250.11429 24.0 24
  250.12683 21.0 21
  250.15936 21.0 21
  251.12415 42.0 42
  251.15964 6.0 6
  252.11174 5.0 5
  252.13759 237.0 237
  253.12242 10.0 10
  253.1338 19.0 19
  253.14427 16.0 16
  253.1703 172.0 172
  254.15399 5.0 5
  254.1736 42.0 42
  262.11548 10.0 10
  263.13385 15.0 15
  264.11902 12.0 12
  264.13739 123.0 123
  265.13989 42.0 42
  266.15283 362.0 362
  267.15118 30.0 30
  267.16095 47.0 47
  267.18536 6.0 6
  268.1619 5.0 5
  278.15247 41.0 41
  278.16989 9.0 9
  293.16095 9.0 9
  295.18073 387.0 387
//
