ACCESSION: MSBNK-RIKEN-PR309421
RECORD_TITLE: Benzyl alcohol + Hex-Hex; LC-ESI-QTOF; MS2
DATE: 2019.03.28
AUTHORS: Tetsuya Mori, Center for Sustainable Resource Science, RIKEN
LICENSE: CC BY-NC-SA
PUBLICATION: Tsugawa H., Nakabayashi R., Mori T., Yamada Y., Takahashi M., Rai A., Sugiyama R., Yamamoto H., Nakaya T., Yamazaki M., Kooke R., Bac-Molenaar JA., Oztolan-Erol N., Keurentjes JJB., Arita M., Saito K. (2019) "A cheminformatics approach to characterize metabolomes in stable-isotope-labeled organisms" Nature Methods 16(4):295-298. [doi:10.1038/s41592-019-0358-2]
COMMENT: Annotation level-3
CH$NAME: Benzyl alcohol + Hex-Hex
CH$COMPOUND_CLASS: Alkyl benzyl hexosides
CH$FORMULA: C19H28O11
CH$EXACT_MASS: 432.422
CH$SMILES: OCC3OC(OCC1=CC=CC=C1)C(OC2OC(CO)C(O)C(O)C2(O))C(O)C3(O)
CH$IUPAC: InChI=1S/C19H28O11/c20-6-10-12(22)14(24)16(26)18(28-10)30-17-15(25)13(23)11(7-21)29-19(17)27-8-9-4-2-1-3-5-9/h1-5,10-26H,6-8H2
CH$LINK: INCHIKEY WKXRKKUZTXIFJY-UHFFFAOYSA-N
AC$INSTRUMENT: LC, Waters Acquity UPLC System; MS, Waters Xevo G2 Q-Tof
AC$INSTRUMENT_TYPE: LC-ESI-QTOF
AC$MASS_SPECTROMETRY: MS_TYPE MS2
AC$MASS_SPECTROMETRY: ION_MODE NEGATIVE
AC$MASS_SPECTROMETRY: COLLISION_ENERGY 6V
AC$MASS_SPECTROMETRY: DESOLVATION_GAS_FLOW 800/h
AC$MASS_SPECTROMETRY: DESOLVATION_TEMPERATURE 450 C
AC$MASS_SPECTROMETRY: IONIZATION ESI
AC$CHROMATOGRAPHY: CAPILLARY_VOLTAGE +3.00 kV
AC$CHROMATOGRAPHY: COLUMN_NAME Acquity bridged ethyl hybrid C18 (1.7 um, 2.1 mm * 100 mm, Waters)
AC$CHROMATOGRAPHY: COLUMN_TEMPERATURE 40 C
AC$CHROMATOGRAPHY: FLOW_GRADIENT A/B = (99.5%/0.5% at 0 min, 99.5%/0.5% at 0.1 min, 20%/80% at 10 min, 0.5%/99.5% at 10.1 min, 0.5%/99.5% at 12.0 min, 99.5%/0.5% at 12.1 min, 99.5%/0.5% at 15.0 min)
AC$CHROMATOGRAPHY: FLOW_RATE 0.3 ml/min at 0 min, 0.3 ml/min at 10 min, 0.4 ml/min at 10.1 min, 0.4 ml/min at 14.4 min, 0.3 ml/min at 14.5 min
AC$CHROMATOGRAPHY: RETENTION_TIME 3.08
AC$CHROMATOGRAPHY: SOLVENT A water including 0.1% formic acid
AC$CHROMATOGRAPHY: SOLVENT B acetonitrile including 0.1% formic acid
MS$FOCUSED_ION: PRECURSOR_TYPE [M+HCOO]-
MS$FOCUSED_ION: PRECURSOR_M/Z 477.1596
PK$SPLASH: splash10-001i-0200900000-eb8c079b0d6ee12568df
PK$NUM_PEAK: 15
PK$PEAK: m/z int. rel.int.
  101.0219 27.0 112
  101.02763 21.0 87
  102.02439 20.0 83
  149.04663 19.0 79
  153.02148 17.0 70
  159.0289 16.0 66
  161.04257 17.0 70
  390.01648 17.0 70
  431.15497 241.0 999
  431.17575 62.0 257
  432.14075 16.0 66
  432.16318 62.0 257
  433.44376 23.0 95
  459.96063 18.0 75
  477.1731 29.0 120
//
