ACCESSION: MSBNK-RIKEN-PR301045
RECORD_TITLE: Napelline; LC-ESI-QTOF; MS2
DATE: 2019.03.28
AUTHORS: Tetsuya Mori, Center for Sustainable Resource Science, RIKEN
LICENSE: CC BY-NC-SA
PUBLICATION: Tsugawa H., Nakabayashi R., Mori T., Yamada Y., Takahashi M., Rai A., Sugiyama R., Yamamoto H., Nakaya T., Yamazaki M., Kooke R., Bac-Molenaar JA., Oztolan-Erol N., Keurentjes JJB., Arita M., Saito K. (2019) "A cheminformatics approach to characterize metabolomes in stable-isotope-labeled organisms" Nature Methods 16(4):295-298. [doi:10.1038/s41592-019-0358-2]
COMMENT: registered in RIKEN PlaSMA
CH$NAME: Napelline
CH$COMPOUND_CLASS: Napelline-type diterpenoid alkaloids
CH$FORMULA: C22H33NO3
CH$EXACT_MASS: 359.51
CH$SMILES: CCN1C[C@]2(C)CC[C@H](O)[C@]34C1[C@H](C[C@H]23)[C@@]12C[C@H]([C@@H](O)C[C@@H]41)C(=C)[C@H]2O
CH$IUPAC: InChI=1S/C22H33NO3/c1-4-23-10-20(3)6-5-17(25)22-15(20)7-13(18(22)23)21-9-12(11(2)19(21)26)14(24)8-16(21)22/h12-19,24-26H,2,4-10H2,1,3H3/t12-,13-,14-,15+,16+,17-,18?,19+,20-,21-,22-/m0/s1
CH$LINK: INCHIKEY AZAZKLKDEOMJBJ-BOPAMEKVSA-N
AC$INSTRUMENT: LC, Waters Acquity UPLC System; MS, Waters Xevo G2 Q-Tof
AC$INSTRUMENT_TYPE: LC-ESI-QTOF
AC$MASS_SPECTROMETRY: MS_TYPE MS2
AC$MASS_SPECTROMETRY: ION_MODE POSITIVE
AC$MASS_SPECTROMETRY: COLLISION_ENERGY 6V
AC$MASS_SPECTROMETRY: DESOLVATION_GAS_FLOW 800/h
AC$MASS_SPECTROMETRY: DESOLVATION_TEMPERATURE 450 C
AC$MASS_SPECTROMETRY: IONIZATION ESI
AC$CHROMATOGRAPHY: CAPILLARY_VOLTAGE +3.00 kV
AC$CHROMATOGRAPHY: COLUMN_NAME Acquity bridged ethyl hybrid C18 (1.7 um, 2.1 mm * 100 mm, Waters)
AC$CHROMATOGRAPHY: COLUMN_TEMPERATURE 40 C
AC$CHROMATOGRAPHY: FLOW_GRADIENT A/B = (99.5%/0.5% at 0 min, 99.5%/0.5% at 0.1 min, 20%/80% at 10 min, 0.5%/99.5% at 10.1 min, 0.5%/99.5% at 12.0 min, 99.5%/0.5% at 12.1 min, 99.5%/0.5% at 15.0 min)
AC$CHROMATOGRAPHY: FLOW_RATE 0.3 ml/min at 0 min, 0.3 ml/min at 10 min, 0.4 ml/min at 10.1 min, 0.4 ml/min at 14.4 min, 0.3 ml/min at 14.5 min
AC$CHROMATOGRAPHY: RETENTION_TIME 3.05155
AC$CHROMATOGRAPHY: SOLVENT A water including 0.1% formic acid
AC$CHROMATOGRAPHY: SOLVENT B acetonitrile including 0.1% formic acid
MS$FOCUSED_ION: PRECURSOR_TYPE [M+H]+
MS$FOCUSED_ION: PRECURSOR_M/Z 360.2533204
PK$SPLASH: splash10-052f-2910000000-900959089745c8564655
PK$NUM_PEAK: 318
PK$PEAK: m/z int. rel.int.
  56.04683 44.0 44
  57.05295 18.0 18
  58.06575 206.0 206
  58.07101 64.0 64
  58.65589 20.0 20
  58.78917 19.0 19
  60.85711 19.0 19
  67.05542 50.0 50
  67.06094 22.0 22
  67.68572 35.0 35
  69.07072 51.0 51
  70.06476 22.0 22
  70.07861 27.0 27
  72.07915 24.0 24
  73.46017 23.0 23
  77.03796 19.0 19
  79.05239 186.0 186
  79.05769 308.0 308
  80.05709 53.0 53
  81.03214 30.0 30
  81.0678 47.0 47
  81.07408 89.0 89
  82.06773 112.0 112
  84.07749 19.0 19
  84.08396 61.0 61
  91.05594 1000.0 999
  92.05149 21.0 21
  93.0703 397.0 397
  93.18274 21.0 21
  94.06982 22.0 22
  94.07628 50.0 50
  95.05481 23.0 23
  95.08645 249.0 249
  96.08092 18.0 18
  96.09 52.0 52
  97.0865 18.0 18
  98.09441 274.0 274
  98.1014 246.0 246
  98.57558 22.0 22
  99.10089 60.0 60
  102.38809 36.0 36
  103.05893 23.0 23
  105.06987 911.0 910
  106.06543 18.0 18
  106.07374 110.0 110
  106.0845 18.0 18
  107.05003 109.0 109
  107.07035 23.0 23
  107.08213 240.0 240
  107.08804 351.0 351
  107.36546 22.0 22
  108.08759 32.0 32
  109.06409 50.0 50
  109.09195 20.0 20
  110.09657 103.0 103
  110.10309 29.0 29
  111.08787 28.0 28
  111.10152 29.0 29
  111.11037 23.0 23
  112.11964 32.0 32
  113.11783 19.0 19
  115.04909 36.0 36
  115.05542 68.0 68
  116.05335 21.0 21
  117.06193 108.0 108
  117.07315 286.0 286
  118.05986 19.0 19
  118.07417 99.0 99
  119.08496 234.0 234
  119.09312 20.0 20
  120.05579 19.0 19
  120.0803 59.0 59
  120.09003 30.0 30
  121.07641 38.0 38
  121.10752 19.0 19
  122.10001 28.0 28
  123.08197 75.0 75
  123.09317 32.0 32
  124.1152 19.0 19
  127.05595 94.0 94
  128.05469 85.0 85
  128.06511 186.0 186
  129.06244 71.0 71
  129.06908 106.0 106
  129.07449 92.0 92
  130.06563 50.0 50
  130.0778 208.0 208
  130.08777 26.0 26
  131.08736 601.0 600
  131.12082 22.0 22
  132.08102 19.0 19
  132.08908 82.0 82
  132.09579 20.0 20
  133.10387 188.0 188
  133.11328 51.0 51
  134.09627 26.0 26
  134.7726 21.0 21
  135.07968 170.0 170
  135.11375 18.0 18
  135.5087 18.0 18
  137.08073 18.0 18
  137.08617 19.0 19
  138.127 21.0 21
  141.07019 144.0 144
  141.07735 77.0 77
  142.07597 261.0 261
  142.08199 121.0 121
  143.07593 19.0 19
  143.08842 257.0 257
  144.08588 119.0 119
  144.09813 52.0 52
  144.1082 35.0 35
  145.07097 18.0 18
  145.09348 71.0 71
  145.1017 358.0 358
  146.09497 24.0 24
  146.10181 28.0 28
  147.1017 46.0 46
  147.11852 293.0 293
  148.09338 22.0 22
  148.1086 94.0 94
  148.11758 29.0 29
  148.72649 18.0 18
  149.11089 27.0 27
  151.06999 80.0 80
  151.08246 44.0 44
  152.06398 42.0 42
  152.07921 33.0 33
  153.06326 73.0 73
  153.07172 56.0 56
  153.22441 35.0 35
  154.06918 23.0 23
  154.07785 129.0 129
  154.08928 20.0 20
  155.06642 46.0 46
  155.08739 266.0 266
  156.07549 27.0 27
  156.09285 45.0 45
  156.95372 21.0 21
  157.08986 79.0 79
  157.10156 326.0 326
  158.08182 31.0 31
  158.10573 18.0 18
  159.08813 26.0 26
  159.10049 38.0 38
  159.11668 150.0 150
  160.11818 52.0 52
  160.12523 26.0 26
  160.27179 21.0 21
  161.11281 19.0 19
  161.12784 32.0 32
  162.11998 26.0 26
  162.13353 45.0 45
  165.07115 99.0 99
  166.06352 23.0 23
  166.07448 36.0 36
  166.08163 75.0 75
  167.08276 144.0 144
  167.09328 111.0 111
  168.08385 48.0 48
  168.09615 66.0 66
  168.1039 49.0 49
  168.33632 18.0 18
  169.10063 241.0 241
  170.10367 89.0 89
  170.11179 19.0 19
  171.07486 27.0 27
  171.10406 53.0 53
  171.117 85.0 85
  171.13272 18.0 18
  172.11871 19.0 19
  172.13 23.0 23
  172.65651 22.0 22
  173.10312 21.0 21
  173.13129 45.0 45
  173.1413 21.0 21
  174.12509 18.0 18
  174.13333 26.0 26
  175.11749 26.0 26
  175.12854 21.0 21
  176.11069 19.0 19
  176.14546 26.0 26
  177.15572 21.0 21
  178.07613 142.0 142
  178.08257 72.0 72
  178.85631 65.0 65
  179.0831 207.0 207
  179.15735 47.0 47
  180.09413 36.0 36
  180.13524 20.0 20
  181.0945 88.0 88
  181.10341 209.0 209
  182.08954 37.0 37
  182.10678 37.0 37
  182.11456 113.0 113
  183.08307 26.0 26
  183.10266 24.0 24
  183.11082 55.0 55
  183.12076 76.0 76
  184.08017 31.0 31
  184.11537 22.0 22
  184.60649 18.0 18
  185.13235 33.0 33
  186.12671 19.0 19
  186.14691 18.0 18
  187.11142 36.0 36
  187.13089 26.0 26
  187.49094 26.0 26
  188.14529 94.0 94
  189.14758 81.0 81
  190.07956 19.0 19
  190.1608 46.0 46
  190.17183 18.0 18
  191.08482 84.0 84
  191.0957 21.0 21
  192.09335 61.0 61
  192.10248 31.0 31
  192.17859 22.0 22
  193.09988 87.0 87
  193.10956 87.0 87
  194.10902 75.0 75
  194.12286 18.0 18
  195.11603 226.0 226
  195.12569 63.0 63
  195.72285 18.0 18
  196.11153 98.0 98
  197.12593 22.0 22
  197.13667 43.0 43
  198.11485 18.0 18
  198.1261 18.0 18
  198.13362 29.0 29
  199.15298 20.0 20
  201.11563 18.0 18
  203.07443 27.0 27
  203.08618 81.0 81
  204.08333 18.0 18
  205.0874 39.0 39
  205.1011 150.0 150
  206.11012 89.0 89
  207.09946 20.0 20
  207.11839 130.0 130
  208.13454 21.0 21
  208.14566 24.0 24
  209.13268 101.0 101
  210.1031 38.0 38
  210.14204 27.0 27
  210.15161 21.0 21
  211.10675 19.0 19
  212.13411 27.0 27
  213.12489 34.0 34
  213.94492 22.0 22
  214.15518 81.0 81
  215.13345 19.0 19
  216.09236 27.0 27
  217.09697 35.0 35
  218.11064 92.0 92
  218.19884 18.0 18
  219.11264 20.0 20
  219.12317 21.0 21
  219.155 23.0 23
  220.12241 82.0 82
  221.13461 61.0 61
  222.14505 22.0 22
  223.1404 19.0 19
  224.06992 21.0 21
  224.1389 18.0 18
  224.14919 39.0 39
  225.13568 30.0 30
  225.15817 27.0 27
  226.14981 21.0 21
  226.59644 18.0 18
  227.16962 18.0 18
  230.10979 26.0 26
  231.11888 18.0 18
  233.09227 21.0 21
  233.12581 24.0 24
  234.10544 18.0 18
  235.14259 27.0 27
  235.15401 21.0 21
  236.092 23.0 23
  236.16571 21.0 21
  237.14781 62.0 62
  237.16446 22.0 22
  237.17535 80.0 80
  238.17677 24.0 24
  239.14153 23.0 23
  239.18616 33.0 33
  240.15091 28.0 28
  240.17133 27.0 27
  240.18611 29.0 29
  241.11731 29.0 29
  245.138 22.0 22
  249.16626 36.0 36
  251.18742 36.0 36
  253.10954 23.0 23
  255.65666 18.0 18
  259.14594 28.0 28
  261.16312 22.0 22
  267.16748 21.0 21
  270.21793 32.0 32
  276.05493 21.0 21
  279.18042 19.0 19
  280.20535 22.0 22
  282.23605 22.0 22
  284.19171 21.0 21
  286.17966 19.0 19
  296.21375 23.0 23
  299.17834 19.0 19
  300.19501 22.0 22
  308.18936 24.0 24
  324.21371 39.0 39
  324.23697 27.0 27
  342.24426 570.0 569
  342.27255 21.0 21
  343.21924 18.0 18
  343.2449 136.0 136
  360.21707 19.0 19
  360.27158 38.0 38
//
