ACCESSION: MSBNK-RIKEN-PR300250
RECORD_TITLE: 5(S)-5-carboxystrictosidine; LC-ESI-QTOF; MS2
DATE: 2019.03.28
AUTHORS: Tetsuya Mori, Center for Sustainable Resource Science, RIKEN
LICENSE: CC BY-NC-SA
PUBLICATION: Tsugawa H., Nakabayashi R., Mori T., Yamada Y., Takahashi M., Rai A., Sugiyama R., Yamamoto H., Nakaya T., Yamazaki M., Kooke R., Bac-Molenaar JA., Oztolan-Erol N., Keurentjes JJB., Arita M., Saito K. (2019) "A cheminformatics approach to characterize metabolomes in stable-isotope-labeled organisms" Nature Methods 16(4):295-298. [doi:10.1038/s41592-019-0358-2]
COMMENT: registered in RIKEN PlaSMA
CH$NAME: 5(S)-5-carboxystrictosidine
CH$COMPOUND_CLASS: Terpene glycosides
CH$FORMULA: C28H34N2O11
CH$EXACT_MASS: 574.583
CH$SMILES: COC(=O)C1=CO[C@@H](O[C@@H]2O[C@H](CO)[C@@H](O)[C@H](O)[C@H]2O)[C@H](C=C)[C@@H]1C[C@@H]1N[C@@H](CC2=C1NC1=CC=CC=C21)C(O)=O
CH$IUPAC: InChI=1S/C28H34N2O11/c1-3-12-14(8-18-21-15(9-19(29-18)25(35)36)13-6-4-5-7-17(13)30-21)16(26(37)38-2)11-39-27(12)41-28-24(34)23(33)22(32)20(10-31)40-28/h3-7,11-12,14,18-20,22-24,27-34H,1,8-10H2,2H3,(H,35,36)/t12-,14+,18+,19+,20-,22-,23+,24-,27+,28+/m1/s1
CH$LINK: INCHIKEY LHKZIVMTXZLOTP-RMKGEEGASA-N
AC$INSTRUMENT: LC, Waters Acquity UPLC System; MS, Waters Xevo G2 Q-Tof
AC$INSTRUMENT_TYPE: LC-ESI-QTOF
AC$MASS_SPECTROMETRY: MS_TYPE MS2
AC$MASS_SPECTROMETRY: ION_MODE POSITIVE
AC$MASS_SPECTROMETRY: COLLISION_ENERGY 6V
AC$MASS_SPECTROMETRY: DESOLVATION_GAS_FLOW 800/h
AC$MASS_SPECTROMETRY: DESOLVATION_TEMPERATURE 450 C
AC$MASS_SPECTROMETRY: IONIZATION ESI
AC$CHROMATOGRAPHY: CAPILLARY_VOLTAGE +3.00 kV
AC$CHROMATOGRAPHY: COLUMN_NAME Acquity bridged ethyl hybrid C18 (1.7 um, 2.1 mm * 100 mm, Waters)
AC$CHROMATOGRAPHY: COLUMN_TEMPERATURE 40 C
AC$CHROMATOGRAPHY: FLOW_GRADIENT A/B = (99.5%/0.5% at 0 min, 99.5%/0.5% at 0.1 min, 20%/80% at 10 min, 0.5%/99.5% at 10.1 min, 0.5%/99.5% at 12.0 min, 99.5%/0.5% at 12.1 min, 99.5%/0.5% at 15.0 min)
AC$CHROMATOGRAPHY: FLOW_RATE 0.3 ml/min at 0 min, 0.3 ml/min at 10 min, 0.4 ml/min at 10.1 min, 0.4 ml/min at 14.4 min, 0.3 ml/min at 14.5 min
AC$CHROMATOGRAPHY: RETENTION_TIME 4.13255
AC$CHROMATOGRAPHY: SOLVENT A water including 0.1% formic acid
AC$CHROMATOGRAPHY: SOLVENT B acetonitrile including 0.1% formic acid
MS$FOCUSED_ION: PRECURSOR_TYPE [M+H]+
MS$FOCUSED_ION: PRECURSOR_M/Z 575.2235364
PK$SPLASH: splash10-000j-0569000000-0194ca4d79b7fa46c5f2
PK$NUM_PEAK: 404
PK$PEAK: m/z int. rel.int.
  74.02241 5.0 5
  85.02738 38.0 38
  86.03288 9.0 9
  87.03993 8.0 8
  87.04738 11.0 11
  97.02669 31.0 31
  97.03402 5.0 5
  106.06622 6.0 6
  107.04822 22.0 22
  108.05025 5.0 5
  109.02817 13.0 13
  123.04926 15.0 15
  124.0453 8.0 8
  126.05304 7.0 7
  126.05857 6.0 6
  127.04016 46.0 46
  128.03835 12.0 12
  130.064 146.0 146
  132.07608 11.0 11
  132.08594 8.0 8
  139.03691 70.0 70
  139.04292 21.0 21
  140.0452 7.0 7
  140.07603 6.0 6
  144.0811 186.0 186
  145.03044 8.0 8
  145.04759 35.0 35
  145.08507 35.0 35
  146.05241 14.0 14
  146.06125 50.0 50
  147.06541 10.0 10
  149.06093 10.0 10
  150.05933 11.0 11
  151.03654 35.0 35
  153.05679 7.0 7
  154.06876 7.0 7
  156.07869 34.0 34
  156.08679 14.0 14
  158.05983 6.0 6
  158.0966 75.0 75
  159.03101 6.0 6
  159.04367 23.0 23
  159.09001 9.0 9
  159.09732 7.0 7
  163.04633 6.0 6
  164.69646 5.0 5
  165.05399 322.0 322
  166.05165 26.0 26
  166.06114 9.0 9
  166.08676 7.0 7
  167.0694 35.0 35
  168.08264 23.0 23
  169.0762 87.0 87
  169.08809 10.0 10
  170.06415 19.0 19
  170.08182 11.0 11
  170.0952 16.0 16
  171.09338 5.0 5
  174.05797 8.0 8
  174.10547 10.0 10
  175.04053 10.0 10
  176.06625 9.0 9
  176.07445 14.0 14
  177.03891 13.0 13
  177.05722 31.0 31
  179.06047 6.0 6
  179.07295 5.0 5
  180.07861 37.0 37
  180.09514 14.0 14
  181.08076 6.0 6
  182.02361 7.0 7
  182.09393 8.0 8
  183.06667 24.0 24
  184.0686 10.0 10
  184.10548 7.0 7
  186.05766 9.0 9
  186.08943 8.0 8
  188.01874 8.0 8
  188.03691 14.0 14
  188.07036 1000.0 999
  189.05859 11.0 11
  189.07405 131.0 131
  191.06094 11.0 11
  191.07118 13.0 13
  192.0712 8.0 8
  194.07065 14.0 14
  194.08902 7.0 7
  196.07733 15.0 15
  198.04742 6.0 6
  198.13095 6.0 6
  200.06985 178.0 178
  201.07169 17.0 17
  202.08902 39.0 39
  203.08218 14.0 14
  204.08247 5.0 5
  205.08942 13.0 13
  205.1011 6.0 6
  206.0925 5.0 5
  206.10417 6.0 6
  208.07825 29.0 29
  208.09569 37.0 37
  208.11363 13.0 13
  209.07582 19.0 19
  209.08482 5.0 5
  210.07736 5.0 5
  210.09225 23.0 23
  210.10054 10.0 10
  212.07155 7.0 7
  214.08647 142.0 142
  215.08035 136.0 136
  215.0898 39.0 39
  216.07265 13.0 13
  216.08281 25.0 25
  216.09801 13.0 13
  217.09537 55.0 55
  218.05386 13.0 13
  218.08322 9.0 9
  218.09763 10.0 10
  218.108 6.0 6
  219.04115 6.0 6
  219.10422 6.0 6
  220.08778 10.0 10
  220.10742 23.0 23
  220.12236 7.0 7
  221.11646 5.0 5
  222.07967 9.0 9
  222.09689 6.0 6
  222.12633 6.0 6
  224.06544 29.0 29
  224.08093 6.0 6
  224.1067 5.0 5
  225.0757 16.0 16
  226.07657 6.0 6
  226.10121 52.0 52
  226.11333 33.0 33
  227.11562 8.0 8
  231.08176 8.0 8
  231.09549 9.0 9
  231.11577 128.0 128
  232.06168 6.0 6
  232.1098 10.0 10
  232.12271 8.0 8
  234.0755 16.0 16
  234.09155 7.0 7
  234.12711 16.0 16
  235.06648 9.0 9
  236.06918 23.0 23
  238.08731 141.0 141
  238.10507 11.0 11
  238.12689 29.0 29
  239.02118 6.0 6
  239.08685 42.0 42
  239.10515 5.0 5
  239.11693 7.0 7
  240.1073 29.0 29
  241.09973 25.0 25
  244.09563 6.0 6
  244.11603 10.0 10
  245.1248 6.0 6
  247.06133 10.0 10
  247.08807 8.0 8
  247.11526 7.0 7
  248.0668 79.0 79
  248.10791 19.0 19
  249.06767 29.0 29
  249.08531 10.0 10
  250.0779 24.0 24
  250.09492 22.0 22
  250.36453 6.0 6
  251.05809 7.0 7
  251.08563 7.0 7
  252.10341 55.0 55
  253.10136 9.0 9
  254.09135 8.0 8
  254.09941 18.0 18
  254.11729 5.0 5
  254.12753 8.0 8
  255.08859 6.0 6
  255.10815 9.0 9
  256.09863 13.0 13
  256.88419 5.0 5
  258.08661 7.0 7
  258.10052 5.0 5
  259.10559 7.0 7
  260.10608 16.0 16
  262.12054 67.0 67
  263.08359 11.0 11
  263.12738 6.0 6
  264.0885 9.0 9
  264.10229 22.0 22
  264.14127 13.0 13
  265.073 8.0 8
  265.09863 125.0 125
  265.11685 7.0 7
  265.13528 8.0 8
  266.08182 8.0 8
  266.09479 29.0 29
  266.11179 6.0 6
  266.1232 17.0 17
  267.06076 6.0 6
  267.10004 14.0 14
  267.12363 10.0 10
  268.10349 15.0 15
  268.11127 6.0 6
  269.09286 10.0 10
  269.10468 6.0 6
  270.10953 93.0 93
  272.07587 6.0 6
  272.10464 47.0 47
  272.11462 22.0 22
  273.0831 6.0 6
  273.10828 14.0 14
  274.08386 8.0 8
  274.11011 9.0 9
  274.1199 10.0 10
  274.13474 11.0 11
  275.08749 11.0 11
  276.06372 16.0 16
  276.09689 10.0 10
  276.11044 20.0 20
  277.09061 7.0 7
  279.09113 7.0 7
  279.12036 12.0 12
  280.09772 21.0 21
  280.13034 53.0 53
  280.9324 5.0 5
  281.08817 5.0 5
  281.10629 7.0 7
  281.13074 8.0 8
  282.07513 11.0 11
  282.09378 12.0 12
  282.10593 17.0 17
  283.09702 5.0 5
  283.11798 14.0 14
  283.14227 8.0 8
  284.07901 11.0 11
  284.11157 23.0 23
  286.07056 6.0 6
  286.09024 7.0 7
  288.11035 5.0 5
  289.10699 17.0 17
  289.11441 7.0 7
  289.13083 7.0 7
  290.09546 7.0 7
  290.11902 149.0 149
  291.11783 32.0 32
  292.08215 6.0 6
  292.10678 5.0 5
  292.13089 10.0 10
  293.07401 11.0 11
  293.0885 13.0 13
  293.10794 33.0 33
  293.12372 65.0 65
  293.13583 68.0 68
  294.05228 8.0 8
  294.06876 24.0 24
  294.08347 23.0 23
  294.09711 21.0 21
  294.11981 36.0 36
  294.13852 21.0 21
  294.15833 11.0 11
  295.07599 58.0 58
  295.08853 75.0 75
  295.14676 18.0 18
  296.08597 34.0 34
  296.1033 5.0 5
  298.10532 17.0 17
  299.10641 16.0 16
  299.12976 6.0 6
  300.07376 7.0 7
  300.10028 81.0 81
  300.11392 33.0 33
  301.09552 6.0 6
  301.10754 15.0 15
  302.09857 9.0 9
  302.11444 5.0 5
  304.0961 26.0 26
  304.13449 13.0 13
  306.08359 5.0 5
  306.10474 8.0 8
  306.11978 9.0 9
  307.12881 7.0 7
  307.14282 23.0 23
  308.09244 14.0 14
  308.12967 127.0 127
  309.09229 10.0 10
  309.10583 27.0 27
  309.1225 19.0 19
  309.1369 22.0 22
  310.10144 6.0 6
  310.11624 9.0 9
  310.13519 6.0 6
  311.04913 6.0 6
  311.06543 6.0 6
  311.10233 311.0 311
  311.13605 18.0 18
  312.09662 22.0 22
  312.10703 47.0 47
  312.12238 10.0 10
  313.09811 5.0 5
  313.11954 14.0 14
  314.12109 13.0 13
  317.12851 50.0 50
  318.06693 9.0 9
  318.10986 72.0 72
  318.12381 15.0 15
  319.10574 17.0 17
  319.12186 11.0 11
  319.14294 13.0 13
  320.13156 24.0 24
  321.13123 6.0 6
  322.11932 19.0 19
  322.14545 125.0 125
  323.13718 27.0 27
  323.15244 17.0 17
  325.1156 36.0 36
  325.13074 12.0 12
  326.09573 74.0 74
  326.11188 40.0 40
  327.11005 97.0 97
  327.13452 16.0 16
  328.0885 10.0 10
  328.10345 31.0 31
  328.14096 10.0 10
  329.1077 14.0 14
  332.11755 14.0 14
  335.13873 320.0 320
  336.12268 55.0 55
  336.15189 42.0 42
  337.13217 5.0 5
  337.15051 7.0 7
  338.14349 31.0 31
  339.13873 9.0 9
  340.15286 136.0 136
  340.16318 43.0 43
  341.14978 29.0 29
  341.16922 6.0 6
  342.15298 8.0 8
  343.05792 6.0 6
  343.10318 17.0 17
  343.12704 190.0 190
  344.12405 23.0 23
  344.14264 17.0 17
  345.12704 17.0 17
  346.10574 126.0 126
  346.12393 17.0 17
  347.11298 24.0 24
  349.13559 8.0 8
  350.13663 27.0 27
  350.14624 14.0 14
  351.17578 20.0 20
  353.12994 7.0 7
  353.1481 6.0 6
  353.15851 10.0 10
  360.12582 20.0 20
  363.13428 110.0 110
  364.09595 19.0 19
  364.11368 74.0 74
  364.12875 42.0 42
  364.15765 8.0 8
  365.11456 14.0 14
  365.12915 23.0 23
  365.14526 11.0 11
  365.65256 6.0 6
  366.11639 11.0 11
  367.16614 18.0 18
  367.18127 13.0 13
  377.1459 14.0 14
  378.09644 8.0 8
  378.12366 78.0 78
  378.1362 230.0 230
  379.13635 60.0 60
  379.15359 12.0 12
  380.13721 12.0 12
  381.14389 140.0 140
  382.14929 20.0 20
  395.16147 331.0 331
  396.08563 9.0 9
  396.10703 24.0 24
  396.14575 709.0 708
  397.11041 10.0 10
  397.13855 103.0 103
  397.15604 104.0 104
  398.13651 8.0 8
  398.15634 13.0 13
  402.13202 6.0 6
  413.11414 8.0 8
  413.168 181.0 181
  414.14105 17.0 17
  414.15875 21.0 21
  414.18011 58.0 58
  415.16208 7.0 7
  434.17191 6.0 6
  455.14969 5.0 5
  456.17691 9.0 9
  474.14044 6.0 6
  494.18353 9.0 9
  531.77045 6.0 6
  558.19781 101.0 101
  559.1897 35.0 35
  559.22174 11.0 11
  560.20978 9.0 9
  575.21759 19.0 19
  575.2373 11.0 11
//
