ACCESSION: MSBNK-RIKEN-PR303063
RECORD_TITLE: Petunidin-3-O-beta-glucoside; LC-ESI-QTOF; MS2
DATE: 2019.03.28
AUTHORS: Tetsuya Mori, Center for Sustainable Resource Science, RIKEN
LICENSE: CC BY-NC-SA
PUBLICATION: Tsugawa H., Nakabayashi R., Mori T., Yamada Y., Takahashi M., Rai A., Sugiyama R., Yamamoto H., Nakaya T., Yamazaki M., Kooke R., Bac-Molenaar JA., Oztolan-Erol N., Keurentjes JJB., Arita M., Saito K. (2019) "A cheminformatics approach to characterize metabolomes in stable-isotope-labeled organisms" Nature Methods 16(4):295-298. [doi:10.1038/s41592-019-0358-2]
COMMENT: registered in RIKEN PlaSMA
CH$NAME: Petunidin-3-O-beta-glucoside
CH$COMPOUND_CLASS: Anthocyanidin-3-O-glycosides
CH$FORMULA: [C22H23O12]+
CH$EXACT_MASS: 479.414
CH$SMILES: COC1=CC(=CC(O)=C1O)C1=C(O[C@@H]2O[C@H](CO)[C@@H](O)[C@H](O)[C@H]2O)C=C2C(O)=CC(O)=CC2=[O+]1
CH$IUPAC: InChI=1S/C22H22O12/c1-31-14-3-8(2-12(26)17(14)27)21-15(6-10-11(25)4-9(24)5-13(10)32-21)33-22-20(30)19(29)18(28)16(7-23)34-22/h2-6,16,18-20,22-23,28-30H,7H2,1H3,(H3-,24,25,26,27)/p+1/t16-,18-,19+,20-,22-/m1/s1
CH$LINK: INCHIKEY CCQDWIRWKWIUKK-QKYBYQKWSA-O
AC$INSTRUMENT: LC, Waters Acquity UPLC System; MS, Waters Xevo G2 Q-Tof
AC$INSTRUMENT_TYPE: LC-ESI-QTOF
AC$MASS_SPECTROMETRY: MS_TYPE MS2
AC$MASS_SPECTROMETRY: ION_MODE POSITIVE
AC$MASS_SPECTROMETRY: COLLISION_ENERGY 6V
AC$MASS_SPECTROMETRY: DESOLVATION_GAS_FLOW 800/h
AC$MASS_SPECTROMETRY: DESOLVATION_TEMPERATURE 450 C
AC$MASS_SPECTROMETRY: IONIZATION ESI
AC$CHROMATOGRAPHY: CAPILLARY_VOLTAGE +3.00 kV
AC$CHROMATOGRAPHY: COLUMN_NAME Acquity bridged ethyl hybrid C18 (1.7 um, 2.1 mm * 100 mm, Waters)
AC$CHROMATOGRAPHY: COLUMN_TEMPERATURE 40 C
AC$CHROMATOGRAPHY: FLOW_GRADIENT A/B = (99.5%/0.5% at 0 min, 99.5%/0.5% at 0.1 min, 20%/80% at 10 min, 0.5%/99.5% at 10.1 min, 0.5%/99.5% at 12.0 min, 99.5%/0.5% at 12.1 min, 99.5%/0.5% at 15.0 min)
AC$CHROMATOGRAPHY: FLOW_RATE 0.3 ml/min at 0 min, 0.3 ml/min at 10 min, 0.4 ml/min at 10.1 min, 0.4 ml/min at 14.4 min, 0.3 ml/min at 14.5 min
AC$CHROMATOGRAPHY: RETENTION_TIME 3.212583
AC$CHROMATOGRAPHY: SOLVENT A water including 0.1% formic acid
AC$CHROMATOGRAPHY: SOLVENT B acetonitrile including 0.1% formic acid
MS$FOCUSED_ION: PRECURSOR_TYPE [M]+
MS$FOCUSED_ION: PRECURSOR_M/Z 479.117854
PK$SPLASH: splash10-0udi-0593000000-52ca45bdc82a67156b06
PK$NUM_PEAK: 158
PK$PEAK: m/z int. rel.int.
  92.02778 20.0 20
  93.02873 41.0 41
  93.03545 58.0 58
  106.0414 42.0 42
  112.84969 17.0 17
  121.02747 71.0 71
  121.03622 17.0 17
  122.01306 20.0 20
  122.03313 28.0 28
  122.03894 15.0 15
  123.04372 24.0 24
  126.01424 12.0 12
  126.03735 24.0 24
  127.02931 22.0 22
  128.05434 21.0 21
  131.03043 15.0 15
  131.04794 12.0 12
  132.05484 12.0 12
  135.04608 14.0 14
  136.0182 21.0 21
  137.02701 38.0 38
  137.03342 21.0 21
  139.03192 14.0 14
  139.03986 99.0 99
  140.04723 17.0 17
  146.0665 50.0 50
  147.04474 23.0 23
  150.03117 24.0 24
  151.03734 62.0 62
  152.01762 30.0 30
  152.02708 22.0 22
  153.01869 1000.0 999
  154.02119 44.0 44
  154.04024 17.0 17
  155.01962 15.0 15
  155.04047 17.0 17
  156.05171 15.0 15
  158.57974 24.0 24
  161.05876 17.0 17
  163.03271 18.0 18
  165.00935 14.0 14
  165.02109 47.0 47
  166.01974 21.0 21
  172.04985 48.0 48
  173.0675 20.0 20
  174.06458 19.0 19
  176.01701 40.0 40
  176.05719 12.0 12
  177.04996 15.0 15
  177.06129 42.0 42
  179.00449 14.0 14
  179.03082 16.0 16
  183.05809 36.0 36
  184.05531 15.0 15
  187.03044 27.0 27
  187.04581 17.0 17
  190.05334 15.0 15
  192.04619 28.0 28
  194.00714 15.0 15
  200.04222 12.0 12
  200.05093 17.0 17
  200.99547 12.0 12
  201.0546 51.0 51
  201.0659 56.0 56
  202.05791 28.0 28
  203.0352 54.0 54
  203.22406 15.0 15
  204.03757 28.0 28
  206.36726 15.0 15
  212.05299 26.0 26
  215.01131 15.0 15
  215.02934 17.0 17
  215.06161 20.0 20
  217.03537 12.0 12
  217.04541 58.0 58
  217.05635 69.0 69
  218.02451 20.0 20
  218.04105 14.0 14
  218.05104 44.0 44
  218.06206 49.0 49
  219.06047 36.0 36
  220.02388 12.0 12
  220.0616 26.0 26
  224.68159 23.0 23
  228.01535 16.0 16
  228.03481 39.0 39
  228.04543 55.0 55
  229.02541 12.0 12
  229.03697 63.0 63
  229.04463 168.0 168
  229.05589 175.0 175
  230.05174 17.0 17
  230.06218 37.0 37
  231.0314 36.0 36
  232.04308 66.0 66
  233.0482 18.0 18
  233.06822 31.0 31
  239.0359 17.0 17
  241.04976 15.0 15
  241.64468 18.0 18
  243.02893 20.0 20
  243.06726 17.0 17
  245.04649 212.0 212
  245.06172 50.0 50
  246.05247 351.0 351
  247.06406 13.0 13
  248.03725 19.0 19
  248.07497 13.0 13
  248.41109 15.0 15
  256.0293 28.0 28
  256.04202 68.0 68
  257.01526 23.0 23
  257.04028 200.0 200
  257.05255 69.0 69
  258.05231 40.0 40
  258.06583 65.0 65
  258.4205 18.0 18
  260.01929 13.0 13
  260.03842 14.0 14
  260.04666 17.0 17
  262.07071 17.0 17
  267.02353 17.0 17
  273.00009 19.0 19
  273.03696 194.0 194
  273.04935 82.0 82
  273.75299 22.0 22
  273.96149 21.0 21
  274.02545 79.0 79
  274.04248 136.0 136
  274.05463 157.0 157
  274.30026 17.0 17
  275.05246 66.0 66
  275.22577 18.0 18
  275.45609 15.0 15
  276.05237 20.0 20
  284.04025 36.0 36
  284.70355 13.0 13
  285.02197 34.0 34
  285.03619 120.0 120
  285.04391 238.0 238
  286.03479 17.0 17
  286.05008 32.0 32
  287.04053 29.0 29
  288.06775 15.0 15
  298.04929 19.0 19
  299.0607 14.0 14
  301.03329 32.0 32
  302.00674 35.0 35
  302.04666 733.0 732
  302.06812 20.0 20
  303.02499 34.0 34
  303.04398 130.0 130
  303.05838 57.0 57
  304.0488 24.0 24
  312.72205 15.0 15
  316.40036 15.0 15
  316.44193 15.0 15
  317.06659 353.0 353
//
