ACCESSION: MSBNK-RIKEN-PR308675
RECORD_TITLE: Ginsenoside F3; LC-ESI-QTOF; MS2
DATE: 2019.03.28
AUTHORS: Tetsuya Mori, Center for Sustainable Resource Science, RIKEN
LICENSE: CC BY-NC-SA
PUBLICATION: Tsugawa H., Nakabayashi R., Mori T., Yamada Y., Takahashi M., Rai A., Sugiyama R., Yamamoto H., Nakaya T., Yamazaki M., Kooke R., Bac-Molenaar JA., Oztolan-Erol N., Keurentjes JJB., Arita M., Saito K. (2019) "A cheminformatics approach to characterize metabolomes in stable-isotope-labeled organisms" Nature Methods 16(4):295-298. [doi:10.1038/s41592-019-0358-2]
COMMENT: Annotation level-1
CH$NAME: Ginsenoside F3
CH$COMPOUND_CLASS: Triterpenoids
CH$FORMULA: C41H70O13
CH$EXACT_MASS: 770.998
CH$SMILES: CC(C)=CCCC(C)(OC1OC(COC2OCC(O)C(O)C2O)C(O)C(O)C1O)C1CCC2(C)C1C(O)CC1C3(C)CCC(O)C(C)(C)C3C(O)CC21C
CH$IUPAC: InChI=1S/C41H70O13/c1-20(2)10-9-13-41(8,54-36-33(50)31(48)30(47)25(53-36)19-52-35-32(49)29(46)24(44)18-51-35)21-11-15-39(6)28(21)22(42)16-26-38(5)14-12-27(45)37(3,4)34(38)23(43)17-40(26,39)7/h10,21-36,42-50H,9,11-19H2,1-8H3
CH$LINK: INCHIKEY HJRVLGWTJSLQIG-UHFFFAOYSA-N
AC$INSTRUMENT: LC, Waters Acquity UPLC System; MS, Waters Xevo G2 Q-Tof
AC$INSTRUMENT_TYPE: LC-ESI-QTOF
AC$MASS_SPECTROMETRY: MS_TYPE MS2
AC$MASS_SPECTROMETRY: ION_MODE NEGATIVE
AC$MASS_SPECTROMETRY: COLLISION_ENERGY 6V
AC$MASS_SPECTROMETRY: DESOLVATION_GAS_FLOW 800/h
AC$MASS_SPECTROMETRY: DESOLVATION_TEMPERATURE 450 C
AC$MASS_SPECTROMETRY: IONIZATION ESI
AC$CHROMATOGRAPHY: CAPILLARY_VOLTAGE +3.00 kV
AC$CHROMATOGRAPHY: COLUMN_NAME Acquity bridged ethyl hybrid C18 (1.7 um, 2.1 mm * 100 mm, Waters)
AC$CHROMATOGRAPHY: COLUMN_TEMPERATURE 40 C
AC$CHROMATOGRAPHY: FLOW_GRADIENT A/B = (99.5%/0.5% at 0 min, 99.5%/0.5% at 0.1 min, 20%/80% at 10 min, 0.5%/99.5% at 10.1 min, 0.5%/99.5% at 12.0 min, 99.5%/0.5% at 12.1 min, 99.5%/0.5% at 15.0 min)
AC$CHROMATOGRAPHY: FLOW_RATE 0.3 ml/min at 0 min, 0.3 ml/min at 10 min, 0.4 ml/min at 10.1 min, 0.4 ml/min at 14.4 min, 0.3 ml/min at 14.5 min
AC$CHROMATOGRAPHY: RETENTION_TIME 6.11
AC$CHROMATOGRAPHY: SOLVENT A water including 0.1% formic acid
AC$CHROMATOGRAPHY: SOLVENT B acetonitrile including 0.1% formic acid
MS$FOCUSED_ION: PRECURSOR_TYPE [M+HCOO]-
MS$FOCUSED_ION: PRECURSOR_M/Z 815.47985
PK$SPLASH: splash10-014i-0510000690-55fa3f24a37a65fb8291
PK$NUM_PEAK: 133
PK$PEAK: m/z int. rel.int.
  64.95765 21.0 1
  71.01306 142.0 9
  73.00249 26.0 2
  77.02809 18.0 1
  81.03334 20.0 1
  85.21945 28.0 2
  89.01315 25.0 2
  89.0243 876.0 57
  95.01231 16.0 1
  101.02355 564.0 37
  113.02143 131.0 9
  114.03734 16.0 1
  119.03677 274.0 18
  125.02483 223.0 15
  126.02495 21.0 1
  131.02197 20.0 1
  131.03452 846.0 55
  131.10144 20.0 1
  131.73901 26.0 2
  132.03148 20.0 1
  132.03989 20.0 1
  137.36844 17.0 1
  137.56552 24.0 2
  143.03296 35.0 2
  145.04674 18.0 1
  149.04515 4842.0 318
  150.04909 194.0 13
  151.04524 29.0 2
  151.05087 40.0 3
  161.04361 169.0 11
  162.04704 23.0 2
  173.03833 21.0 1
  173.04651 35.0 2
  174.04475 16.0 1
  184.56255 21.0 1
  191.04797 134.0 9
  191.05679 631.0 41
  191.07224 17.0 1
  192.05307 80.0 5
  193.05952 16.0 1
  194.97365 17.0 1
  196.65497 20.0 1
  197.02699 22.0 1
  197.04443 19.0 1
  209.06216 18.0 1
  214.68903 17.0 1
  221.06415 575.0 38
  222.07147 53.0 3
  233.07274 54.0 4
  239.07945 16.0 1
  251.06569 48.0 3
  251.07787 118.0 8
  251.09108 16.0 1
  251.72792 16.0 1
  252.07547 20.0 1
  263.07455 17.0 1
  264.31784 18.0 1
  274.62082 22.0 1
  275.06934 17.0 1
  281.08865 21.0 1
  281.10156 19.0 1
  293.03159 18.0 1
  293.08521 1557.0 102
  294.09042 276.0 18
  295.08389 22.0 1
  295.11557 17.0 1
  305.27167 23.0 2
  310.98569 23.0 2
  311.09488 423.0 28
  312.09457 45.0 3
  312.45413 17.0 1
  332.80118 16.0 1
  346.68719 21.0 1
  369.30566 18.0 1
  371.97974 35.0 2
  388.2308 20.0 1
  390.21722 16.0 1
  392.93271 23.0 2
  402.8912 18.0 1
  407.63812 30.0 2
  422.31006 21.0 1
  426.00256 16.0 1
  426.94342 25.0 2
  428.58527 16.0 1
  438.28784 27.0 2
  446.17731 18.0 1
  446.74854 18.0 1
  475.37723 70.0 5
  476.38129 21.0 1
  477.47247 21.0 1
  478.92703 16.0 1
  485.23267 16.0 1
  485.42188 17.0 1
  495.42435 21.0 1
  504.12012 16.0 1
  549.77576 16.0 1
  557.25946 22.0 1
  559.69971 17.0 1
  587.15906 28.0 2
  607.3797 17.0 1
  609.07703 23.0 2
  615.20477 22.0 1
  617.28369 17.0 1
  637.44263 20.0 1
  638.40344 16.0 1
  662.73816 26.0 2
  758.96069 20.0 1
  768.75018 27.0 2
  769.27576 23.0 2
  769.4079 27.0 2
  769.4729 7429.0 487
  769.55896 42.0 3
  770.48053 2843.0 186
  770.56696 17.0 1
  770.64038 20.0 1
  770.8573 22.0 1
  771.35297 39.0 3
  771.47589 719.0 47
  771.50891 256.0 17
  771.98914 16.0 1
  772.45496 23.0 2
  772.48883 91.0 6
  772.76636 20.0 1
  774.12506 23.0 2
  775.84406 20.0 1
  779.08136 21.0 1
  793.37 20.0 1
  801.86017 41.0 3
  802.65692 17.0 1
  814.72693 24.0 2
  815.34607 16.0 1
  815.41058 21.0 1
  815.48041 15234.0 999
//
