ACCESSION: MSBNK-RIKEN-PR301739
RECORD_TITLE: Ethylrhoeagenine; LC-ESI-QTOF; MS2
DATE: 2019.03.28
AUTHORS: Tetsuya Mori, Center for Sustainable Resource Science, RIKEN
LICENSE: CC BY-NC-SA
PUBLICATION: Tsugawa H., Nakabayashi R., Mori T., Yamada Y., Takahashi M., Rai A., Sugiyama R., Yamamoto H., Nakaya T., Yamazaki M., Kooke R., Bac-Molenaar JA., Oztolan-Erol N., Keurentjes JJB., Arita M., Saito K. (2019) "A cheminformatics approach to characterize metabolomes in stable-isotope-labeled organisms" Nature Methods 16(4):295-298. [doi:10.1038/s41592-019-0358-2]
COMMENT: registered in RIKEN PlaSMA
CH$NAME: Ethylrhoeagenine
CH$COMPOUND_CLASS: Rhoeadine alkaloids
CH$FORMULA: C22H23NO6
CH$EXACT_MASS: 397.427
CH$SMILES: CCO[C@H]1O[C@H]2[C@H](N(C)CCC3=CC4=C(OCO4)C=C23)C2=C1C1=C(OCO1)C=C2
CH$IUPAC: InChI=1S/C22H23NO6/c1-3-24-22-18-13(4-5-15-21(18)28-11-25-15)19-20(29-22)14-9-17-16(26-10-27-17)8-12(14)6-7-23(19)2/h4-5,8-9,19-20,22H,3,6-7,10-11H2,1-2H3/t19-,20-,22+/m1/s1
CH$LINK: INCHIKEY RKBDCPZCGRWNMP-SJBKTWHCSA-N
AC$INSTRUMENT: LC, Waters Acquity UPLC System; MS, Waters Xevo G2 Q-Tof
AC$INSTRUMENT_TYPE: LC-ESI-QTOF
AC$MASS_SPECTROMETRY: MS_TYPE MS2
AC$MASS_SPECTROMETRY: ION_MODE POSITIVE
AC$MASS_SPECTROMETRY: COLLISION_ENERGY 6V
AC$MASS_SPECTROMETRY: DESOLVATION_GAS_FLOW 800/h
AC$MASS_SPECTROMETRY: DESOLVATION_TEMPERATURE 450 C
AC$MASS_SPECTROMETRY: IONIZATION ESI
AC$CHROMATOGRAPHY: CAPILLARY_VOLTAGE +3.00 kV
AC$CHROMATOGRAPHY: COLUMN_NAME Acquity bridged ethyl hybrid C18 (1.7 um, 2.1 mm * 100 mm, Waters)
AC$CHROMATOGRAPHY: COLUMN_TEMPERATURE 40 C
AC$CHROMATOGRAPHY: FLOW_GRADIENT A/B = (99.5%/0.5% at 0 min, 99.5%/0.5% at 0.1 min, 20%/80% at 10 min, 0.5%/99.5% at 10.1 min, 0.5%/99.5% at 12.0 min, 99.5%/0.5% at 12.1 min, 99.5%/0.5% at 15.0 min)
AC$CHROMATOGRAPHY: FLOW_RATE 0.3 ml/min at 0 min, 0.3 ml/min at 10 min, 0.4 ml/min at 10.1 min, 0.4 ml/min at 14.4 min, 0.3 ml/min at 14.5 min
AC$CHROMATOGRAPHY: RETENTION_TIME 5.150367
AC$CHROMATOGRAPHY: SOLVENT A water including 0.1% formic acid
AC$CHROMATOGRAPHY: SOLVENT B acetonitrile including 0.1% formic acid
MS$FOCUSED_ION: PRECURSOR_TYPE [M+H]+
MS$FOCUSED_ION: PRECURSOR_M/Z 398.1598139
PK$SPLASH: splash10-052o-0971000000-d107e8c400b239f6ed66
PK$NUM_PEAK: 474
PK$PEAK: m/z int. rel.int.
  51.01514 8.0 8
  55.34526 8.0 8
  56.04996 8.0 8
  77.03627 8.0 8
  77.04536 9.0 9
  79.05224 8.0 8
  79.05978 10.0 10
  89.03831 16.0 16
  91.05534 62.0 62
  93.07026 7.0 7
  95.05117 6.0 6
  100.89732 8.0 8
  103.05547 95.0 95
  104.03692 7.0 7
  104.04214 7.0 7
  104.0509 13.0 13
  104.06365 31.0 31
  104.07071 7.0 7
  105.02024 8.0 8
  105.03216 7.0 7
  105.07309 18.0 18
  106.07275 7.0 7
  107.05772 9.0 9
  110.9009 8.0 8
  112.54367 8.0 8
  117.05753 20.0 20
  118.0461 11.0 11
  118.05531 14.0 14
  118.06914 19.0 19
  118.43532 6.0 6
  119.04376 8.0 8
  119.05024 23.0 23
  119.0732 11.0 11
  120.03977 6.0 6
  120.06098 7.0 7
  121.03254 7.0 7
  127.84794 6.0 6
  128.05582 6.0 6
  129.03995 7.0 7
  130.01117 11.0 11
  130.03506 22.0 22
  130.04478 10.0 10
  130.06375 42.0 42
  131.04854 80.0 80
  131.05862 15.0 15
  131.07166 105.0 105
  132.03947 24.0 24
  132.05278 10.0 10
  132.05922 32.0 32
  132.08316 58.0 58
  132.09161 11.0 11
  133.05661 11.0 11
  133.07156 18.0 18
  134.09534 12.0 12
  135.02815 10.0 10
  135.04146 54.0 54
  135.05141 27.0 27
  135.10211 7.0 7
  135.19702 8.0 8
  137.03703 9.0 9
  138.06314 13.0 13
  139.05005 6.0 6
  142.1039 9.0 9
  143.05737 9.0 9
  143.91841 6.0 6
  144.04398 10.0 10
  144.07713 10.0 10
  144.08463 20.0 20
  145.03325 9.0 9
  145.04419 8.0 8
  145.05408 7.0 7
  145.0631 19.0 19
  145.07262 11.0 11
  146.0647 18.0 18
  146.12805 6.0 6
  146.39355 6.0 6
  147.02814 6.0 6
  147.04338 52.0 52
  147.07388 11.0 11
  147.8721 7.0 7
  148.03918 6.0 6
  148.04591 8.0 8
  148.05594 16.0 16
  149.04596 17.0 17
  149.05998 64.0 64
  149.07104 25.0 25
  150.40851 12.0 12
  151.05519 8.0 8
  152.03287 7.0 7
  152.04921 6.0 6
  152.05862 30.0 30
  152.06519 20.0 20
  152.07428 17.0 17
  153.06537 14.0 14
  155.07204 10.0 10
  158.05948 19.0 19
  158.06683 46.0 46
  159.0284 7.0 7
  159.04539 74.0 74
  159.05916 17.0 17
  159.06935 48.0 48
  159.07962 19.0 19
  160.04686 14.0 14
  160.06653 39.0 39
  160.0753 68.0 68
  160.08183 53.0 53
  160.09093 14.0 14
  161.04196 40.0 40
  161.04907 39.0 39
  161.05722 68.0 68
  161.07094 11.0 11
  161.07875 8.0 8
  161.09099 14.0 14
  162.02922 10.0 10
  162.05507 39.0 39
  162.06464 22.0 22
  162.07559 28.0 28
  163.03543 40.0 40
  163.04959 27.0 27
  163.06914 15.0 15
  163.89583 6.0 6
  164.05827 24.0 24
  165.05045 10.0 10
  165.05569 28.0 28
  165.07115 88.0 88
  165.23743 9.0 9
  166.05434 9.0 9
  166.07074 15.0 15
  166.08018 8.0 8
  167.07262 10.0 10
  167.08923 18.0 18
  168.09566 6.0 6
  172.0507 8.0 8
  173.04688 10.0 10
  174.05774 74.0 74
  174.08479 15.0 15
  174.35275 10.0 10
  175.04193 19.0 19
  175.04959 42.0 42
  175.06229 97.0 97
  176.03467 6.0 6
  176.04846 7.0 7
  176.05849 30.0 30
  176.06885 93.0 93
  177.04704 9.0 9
  177.06865 408.0 408
  178.0663 21.0 21
  178.07875 55.0 55
  178.08774 9.0 9
  179.04469 6.0 6
  179.07507 24.0 24
  179.09016 58.0 58
  179.10175 8.0 8
  180.06752 13.0 13
  180.09177 10.0 10
  181.06006 18.0 18
  181.07137 14.0 14
  181.09575 7.0 7
  182.05569 7.0 7
  182.06668 7.0 7
  182.63605 7.0 7
  185.19002 8.0 8
  187.05219 7.0 7
  187.06947 6.0 6
  187.33879 7.0 7
  187.79868 7.0 7
  188.04245 29.0 29
  188.07135 474.0 474
  189.04306 13.0 13
  189.06807 306.0 306
  189.07854 229.0 229
  190.04787 44.0 44
  190.05603 81.0 81
  190.08563 1000.0 999
  191.0529 31.0 31
  191.07031 17.0 17
  191.07814 65.0 65
  191.09244 143.0 143
  191.10497 14.0 14
  192.05122 7.0 7
  192.06473 8.0 8
  192.08611 19.0 19
  193.06064 45.0 45
  193.08893 28.0 28
  193.43172 7.0 7
  194.06851 15.0 15
  194.07698 14.0 14
  195.03534 6.0 6
  195.06702 7.0 7
  195.08331 8.0 8
  196.08771 6.0 6
  198.0696 9.0 9
  199.61934 6.0 6
  199.90482 6.0 6
  200.06482 6.0 6
  201.08876 11.0 11
  202.07822 6.0 6
  202.09711 20.0 20
  203.0703 16.0 16
  203.08598 7.0 7
  203.10893 8.0 8
  204.04626 15.0 15
  204.07225 8.0 8
  204.0844 11.0 11
  204.10001 13.0 13
  204.65491 7.0 7
  205.06155 533.0 532
  205.07739 129.0 129
  205.10071 9.0 9
  206.05785 14.0 14
  206.07138 97.0 97
  206.08832 20.0 20
  206.10571 39.0 39
  207.05276 12.0 12
  207.06625 7.0 7
  207.07451 7.0 7
  207.0918 24.0 24
  208.04718 15.0 15
  208.06834 8.0 8
  209.0488 8.0 8
  209.06032 45.0 45
  209.07777 8.0 8
  210.05962 23.0 23
  210.071 7.0 7
  210.09796 11.0 11
  214.06964 9.0 9
  215.04352 30.0 30
  215.06784 6.0 6
  216.0164 9.0 9
  216.05942 7.0 7
  217.04575 15.0 15
  217.06609 108.0 108
  217.08032 26.0 26
  217.09012 10.0 10
  218.04767 8.0 8
  218.05754 9.0 9
  218.06833 13.0 13
  218.07816 20.0 20
  218.0934 45.0 45
  218.10504 42.0 42
  219.05659 37.0 37
  219.07254 38.0 38
  219.08705 34.0 34
  219.17119 7.0 7
  220.04877 20.0 20
  220.06824 6.0 6
  220.08138 18.0 18
  220.12453 6.0 6
  221.04916 20.0 20
  221.06018 25.0 25
  221.07265 19.0 19
  221.09351 28.0 28
  221.21783 6.0 6
  221.54062 14.0 14
  222.04349 6.0 6
  222.05954 27.0 27
  222.08229 6.0 6
  222.09229 10.0 10
  222.10141 7.0 7
  223.06755 27.0 27
  223.08467 6.0 6
  224.06668 7.0 7
  224.07584 7.0 7
  225.07642 6.0 6
  226.0463 7.0 7
  226.09593 10.0 10
  227.07561 6.0 6
  229.58293 7.0 7
  231.04707 7.0 7
  231.08452 7.0 7
  232.03598 6.0 6
  232.04993 14.0 14
  232.06926 7.0 7
  232.07831 29.0 29
  233.0152 7.0 7
  233.0451 44.0 44
  233.05231 76.0 76
  233.0648 131.0 131
  233.08249 21.0 21
  233.09595 6.0 6
  233.10321 8.0 8
  234.0435 35.0 35
  234.05519 22.0 22
  234.07434 14.0 14
  234.08839 27.0 27
  234.10202 24.0 24
  235.02606 16.0 16
  235.05263 11.0 11
  235.06854 87.0 87
  235.08325 35.0 35
  235.09914 9.0 9
  236.03619 6.0 6
  236.0565 18.0 18
  236.07158 108.0 108
  236.0957 11.0 11
  236.11072 46.0 46
  236.99004 6.0 6
  237.05087 9.0 9
  237.06784 8.0 8
  237.10367 9.0 9
  238.08098 6.0 6
  245.03015 7.0 7
  245.04115 22.0 22
  245.05783 70.0 70
  246.04141 18.0 18
  246.06061 44.0 44
  246.07268 19.0 19
  246.0869 28.0 28
  246.09637 27.0 27
  246.11398 8.0 8
  247.05888 26.0 26
  247.07932 102.0 102
  247.10553 28.0 28
  247.12268 6.0 6
  248.05167 10.0 10
  248.06334 46.0 46
  248.07903 82.0 82
  248.10542 8.0 8
  249.02713 13.0 13
  249.04419 13.0 13
  249.05679 34.0 34
  249.07114 14.0 14
  249.08234 20.0 20
  249.09247 9.0 9
  249.105 10.0 10
  249.12296 10.0 10
  250.06108 12.0 12
  250.08371 91.0 91
  250.10713 10.0 10
  251.04642 6.0 6
  251.07201 29.0 29
  251.08382 22.0 22
  252.05754 8.0 8
  259.05026 6.0 6
  259.06268 7.0 7
  260.04504 6.0 6
  260.06696 13.0 13
  261.0466 52.0 52
  261.06348 86.0 86
  261.08411 42.0 42
  262.00201 7.0 7
  262.03433 6.0 6
  262.04224 7.0 7
  262.05637 21.0 21
  262.07065 69.0 69
  262.08301 68.0 68
  262.09839 24.0 24
  262.26028 6.0 6
  263.04404 6.0 6
  263.06195 25.0 25
  263.07904 55.0 55
  263.09329 28.0 28
  263.10959 15.0 15
  264.06287 38.0 38
  264.08084 48.0 48
  264.1001 17.0 17
  264.11264 15.0 15
  264.40561 6.0 6
  265.03979 7.0 7
  265.06177 22.0 22
  265.11115 7.0 7
  266.06033 11.0 11
  266.07944 6.0 6
  266.11206 7.0 7
  267.0694 19.0 19
  268.13177 8.0 8
  268.30466 11.0 11
  273.05048 7.0 7
  273.06815 8.0 8
  274.06644 17.0 17
  274.09262 10.0 10
  275.06036 52.0 52
  275.07889 13.0 13
  275.09177 23.0 23
  276.05219 19.0 19
  276.07034 26.0 26
  276.08563 49.0 49
  276.10297 38.0 38
  276.11209 42.0 42
  277.05637 13.0 13
  277.06995 80.0 80
  277.10159 18.0 18
  277.11884 8.0 8
  277.30359 6.0 6
  278.04953 12.0 12
  278.07443 72.0 72
  278.09973 10.0 10
  278.12024 6.0 6
  279.09222 22.0 22
  279.11169 8.0 8
  280.06284 7.0 7
  280.08932 6.0 6
  280.13892 6.0 6
  288.06198 7.0 7
  289.08902 8.0 8
  289.10062 6.0 6
  290.06808 16.0 16
  290.09058 36.0 36
  291.0712 26.0 26
  291.08325 26.0 26
  291.09302 14.0 14
  292.05029 7.0 7
  292.06842 29.0 29
  292.08719 44.0 44
  292.10706 52.0 52
  292.12933 15.0 15
  293.03714 7.0 7
  293.0545 9.0 9
  293.06564 7.0 7
  293.07959 15.0 15
  293.09702 27.0 27
  293.53415 6.0 6
  294.04001 7.0 7
  294.0621 21.0 21
  294.08096 47.0 47
  294.09961 8.0 8
  294.1525 7.0 7
  295.06628 13.0 13
  296.12015 6.0 6
  296.99478 8.0 8
  301.04816 8.0 8
  303.00833 7.0 7
  303.05652 30.0 30
  303.07159 25.0 25
  303.09308 7.0 7
  304.05295 6.0 6
  304.06802 46.0 46
  304.08273 7.0 7
  304.10748 40.0 40
  304.11819 19.0 19
  305.03055 8.0 8
  305.04773 6.0 6
  305.0661 18.0 18
  305.08032 9.0 9
  305.09677 14.0 14
  305.10892 12.0 12
  305.12775 12.0 12
  305.44431 8.0 8
  306.08026 32.0 32
  306.09103 15.0 15
  306.11359 21.0 21
  307.07263 9.0 9
  308.08481 37.0 37
  308.09952 21.0 21
  309.09726 10.0 10
  316.04721 10.0 10
  318.06473 27.0 27
  318.08466 8.0 8
  318.10312 6.0 6
  319.07379 25.0 25
  319.09406 38.0 38
  319.104 10.0 10
  320.05966 42.0 42
  320.08472 233.0 233
  320.10547 104.0 104
  321.05853 9.0 9
  321.08633 40.0 40
  321.10147 12.0 12
  322.05685 11.0 11
  322.08136 20.0 20
  322.09891 32.0 32
  322.12305 12.0 12
  323.7225 6.0 6
  323.90625 6.0 6
  324.12567 19.0 19
  324.36423 6.0 6
  332.0856 9.0 9
  333.13342 7.0 7
  334.0665 8.0 8
  334.0972 15.0 15
  334.10941 12.0 12
  334.13373 7.0 7
  336.10968 7.0 7
  337.11459 7.0 7
//
