ACCESSION: MSBNK-RIKEN-PR040235
RECORD_TITLE: 4-Methoxycinnamic acid; LC-ESI-QTOF; MS2; CE:Ramp 5-60 V; [M+H]+
DATE: 2016.01.19 (Created 2008.04.25, modified 2011.05.06)
AUTHORS: Matsuda F, Plant Science Center, RIKEN.
LICENSE: CC BY-SA
CH$NAME: 4-Methoxycinnamic acid
CH$NAME: 3-(4-methoxyphenyl)prop-2-enoic acid
CH$COMPOUND_CLASS: Natural Product
CH$FORMULA: C10H10O3
CH$EXACT_MASS: 178.06299
CH$SMILES: COC1=CC=C(C=C1)/C=C/C(=O)O
CH$IUPAC: InChI=1S/C10H10O3/c1-13-9-5-2-8(3-6-9)4-7-10(11)12/h2-7H,1H3,(H,11,12)/b7-4+
CH$LINK: CAS 943-89-5
CH$LINK: PUBCHEM CID:699414
CH$LINK: INCHIKEY AFDXODALSZRGIH-QPJJXVBHSA-N
CH$LINK: COMPTOX DTXSID1046059
AC$INSTRUMENT: UPLC Q-Tof Premier, Waters
AC$INSTRUMENT_TYPE: LC-ESI-QTOF
AC$MASS_SPECTROMETRY: MS_TYPE MS2
AC$MASS_SPECTROMETRY: ION_MODE POSITIVE
AC$MASS_SPECTROMETRY: COLLISION_ENERGY Ramp 5-60 V
AC$MASS_SPECTROMETRY: DATAFORMAT Continuum
AC$MASS_SPECTROMETRY: DESOLVATION_GAS_FLOW 600.0 L/Hr
AC$MASS_SPECTROMETRY: DESOLVATION_TEMPERATURE 400 C
AC$MASS_SPECTROMETRY: FRAGMENTATION_METHOD LOW-ENERGY CID
AC$MASS_SPECTROMETRY: IONIZATION ESI
AC$MASS_SPECTROMETRY: SCANNING 1.0 sec/scan (m/z = 50-1000)
AC$MASS_SPECTROMETRY: SOURCE_TEMPERATURE 120 C
AC$CHROMATOGRAPHY: CAPILLARY_VOLTAGE 3.0 kV
AC$CHROMATOGRAPHY: SAMPLING_CONE 23.0 V
AC$CHROMATOGRAPHY: SOLVENT A CH3CN(0.1%HCOOH)
AC$CHROMATOGRAPHY: SOLVENT B H2O(0.1%HCOOH)
MS$FOCUSED_ION: FULL_SCAN_FRAGMENT_ION_PEAK 179.1
MS$FOCUSED_ION: ION_TYPE [M+H]+
MS$DATA_PROCESSING: WHOLE MassLynx 4.1
PK$SPLASH: splash10-03e9-1900000000-03cba42101a868fcbdbb
PK$NUM_PEAK: 16
PK$PEAK: m/z int. rel.int.
  77.0388 1468 83
  79.0545 1336 75
  89.0388 670.8 37
  90.0467 1989 112
  90.0971 405 22
  103.0549 1739 98
  103.1084 355.4 20
  105.0703 749.5 42
  118.0420 3201 181
  118.0993 633.8 35
  133.0655 9115 515
  133.1266 1819 102
  161.0603 17660 999
  161.1277 3761 212
  161.2562 834.6 47
  179.0718 1127 63
//
