ACCESSION: MSBNK-RIKEN-PR310409
RECORD_TITLE: Lyalosidic acid; LC-ESI-QTOF; MS2
DATE: 2019.03.28
AUTHORS: Tetsuya Mori, Center for Sustainable Resource Science, RIKEN
LICENSE: CC BY-NC-SA
PUBLICATION: Tsugawa H., Nakabayashi R., Mori T., Yamada Y., Takahashi M., Rai A., Sugiyama R., Yamamoto H., Nakaya T., Yamazaki M., Kooke R., Bac-Molenaar JA., Oztolan-Erol N., Keurentjes JJB., Arita M., Saito K. (2019) "A cheminformatics approach to characterize metabolomes in stable-isotope-labeled organisms" Nature Methods 16(4):295-298. [doi:10.1038/s41592-019-0358-2]
COMMENT: Annotation level-1
CH$NAME: Lyalosidic acid
CH$COMPOUND_CLASS: Terpene glycosides
CH$FORMULA: C26H28N2O9
CH$EXACT_MASS: 512.515
CH$SMILES: OCC1OC(OC2OC=C(C(CC3=NC=CC4=C3NC3=C4C=CC=C3)C2C=C)C(O)=O)C(O)C(O)C1O
CH$IUPAC: InChI=1S/C26H28N2O9/c1-2-12-15(9-18-20-14(7-8-27-18)13-5-3-4-6-17(13)28-20)16(24(33)34)11-35-25(12)37-26-23(32)22(31)21(30)19(10-29)36-26/h2-8,11-12,15,19,21-23,25-26,28-32H,1,9-10H2,(H,33,34)
CH$LINK: INCHIKEY UZLBTLIRYSYTRG-UHFFFAOYSA-N
AC$INSTRUMENT: LC, Waters Acquity UPLC System; MS, Waters Xevo G2 Q-Tof
AC$INSTRUMENT_TYPE: LC-ESI-QTOF
AC$MASS_SPECTROMETRY: MS_TYPE MS2
AC$MASS_SPECTROMETRY: ION_MODE POSITIVE
AC$MASS_SPECTROMETRY: COLLISION_ENERGY 6V
AC$MASS_SPECTROMETRY: DESOLVATION_GAS_FLOW 800/h
AC$MASS_SPECTROMETRY: DESOLVATION_TEMPERATURE 450 C
AC$MASS_SPECTROMETRY: IONIZATION ESI
AC$CHROMATOGRAPHY: CAPILLARY_VOLTAGE +3.00 kV
AC$CHROMATOGRAPHY: COLUMN_NAME Acquity bridged ethyl hybrid C18 (1.7 um, 2.1 mm * 100 mm, Waters)
AC$CHROMATOGRAPHY: COLUMN_TEMPERATURE 40 C
AC$CHROMATOGRAPHY: FLOW_GRADIENT A/B = (99.5%/0.5% at 0 min, 99.5%/0.5% at 0.1 min, 20%/80% at 10 min, 0.5%/99.5% at 10.1 min, 0.5%/99.5% at 12.0 min, 99.5%/0.5% at 12.1 min, 99.5%/0.5% at 15.0 min)
AC$CHROMATOGRAPHY: FLOW_RATE 0.3 ml/min at 0 min, 0.3 ml/min at 10 min, 0.4 ml/min at 10.1 min, 0.4 ml/min at 14.4 min, 0.3 ml/min at 14.5 min
AC$CHROMATOGRAPHY: RETENTION_TIME 3.72
AC$CHROMATOGRAPHY: SOLVENT A water including 0.1% formic acid
AC$CHROMATOGRAPHY: SOLVENT B acetonitrile including 0.1% formic acid
MS$FOCUSED_ION: PRECURSOR_TYPE [M+H]+
MS$FOCUSED_ION: PRECURSOR_M/Z 513.18676
PK$SPLASH: splash10-03di-0155090000-51c4a3ad1727d6850aa2
PK$NUM_PEAK: 380
PK$PEAK: m/z int. rel.int.
  61.02987 18.0 0
  64.84962 21.0 0
  69.03281 43.0 1
  81.02583 22.0 0
  81.02886 54.0 1
  85.02795 40.0 1
  85.03384 58.0 1
  87.04491 29.0 1
  91.03374 26.0 1
  91.03951 50.0 1
  92.04123 22.0 0
  99.04634 17.0 0
  99.42342 17.0 0
  101.02122 30.0 1
  107.04808 21.0 0
  117.85096 24.0 0
  122.13586 37.0 1
  123.05078 20.0 0
  127.03719 113.0 2
  127.04201 48.0 1
  127.05017 29.0 1
  128.03587 19.0 0
  137.44214 36.0 1
  145.05058 133.0 3
  151.03218 43.0 1
  151.03928 50.0 1
  151.04816 33.0 1
  152.04959 21.0 0
  158.56726 19.0 0
  172.20482 20.0 0
  175.79002 18.0 0
  178.8914 35.0 1
  179.73013 17.0 0
  181.05417 18.0 0
  181.07124 37.0 1
  181.08066 25.0 1
  182.01427 29.0 1
  182.05295 19.0 0
  182.06467 94.0 2
  182.08359 3014.0 62
  182.97638 19.0 0
  183.0896 1268.0 26
  183.10928 21.0 0
  183.46907 40.0 1
  184.07675 27.0 1
  184.09541 133.0 3
  185.27133 25.0 1
  186.18449 21.0 0
  186.25148 22.0 0
  191.58948 17.0 0
  194.28259 51.0 1
  195.0864 44.0 1
  195.26602 17.0 0
  200.25566 17.0 0
  204.57039 35.0 1
  206.06544 20.0 0
  206.08298 23.0 0
  207.09129 377.0 8
  207.11815 20.0 0
  208.0752 44.0 1
  208.09863 356.0 7
  209.09918 51.0 1
  209.10786 48.0 1
  209.12302 24.0 0
  210.06902 29.0 1
  210.10083 25.0 1
  211.07384 47.0 1
  211.09016 152.0 3
  212.0946 18.0 0
  217.08289 20.0 0
  217.59175 54.0 1
  218.00662 21.0 0
  218.56288 22.0 0
  219.05919 23.0 0
  219.09152 491.0 10
  220.06731 41.0 1
  220.09662 354.0 7
  220.77193 33.0 1
  221.06761 44.0 1
  221.09625 38.0 1
  221.11446 70.0 1
  222.08002 23.0 0
  222.10135 31.0 1
  223.07922 32.0 1
  223.08748 22.0 0
  224.0892 20.0 0
  224.43126 56.0 1
  225.10463 24.0 0
  225.799 24.0 0
  226.04976 30.0 1
  228.20699 40.0 1
  232.0889 28.0 1
  232.57263 23.0 0
  233.91193 18.0 0
  234.0625 47.0 1
  234.07947 165.0 3
  234.10986 34.0 1
  234.47559 18.0 0
  235.03134 25.0 1
  235.06409 55.0 1
  235.07968 481.0 10
  235.08997 935.0 19
  235.12213 19.0 0
  235.53348 17.0 0
  235.70616 17.0 0
  236.08371 232.0 5
  236.09996 223.0 5
  236.32954 18.0 0
  236.51569 25.0 1
  236.66338 32.0 1
  237.07484 68.0 1
  237.09921 648.0 13
  237.11322 144.0 3
  238.07832 23.0 0
  238.10216 214.0 4
  238.11964 110.0 2
  238.21671 17.0 0
  239.10815 95.0 2
  239.1201 21.0 0
  240.27739 17.0 0
  243.66422 20.0 0
  244.10481 48.0 1
  245.10593 23.0 0
  246.09016 27.0 1
  246.62296 25.0 1
  246.89409 19.0 0
  247.01114 25.0 1
  247.047 20.0 0
  247.07086 99.0 2
  247.08852 1357.0 28
  247.59474 18.0 0
  248.07037 34.0 1
  248.08812 230.0 5
  249.07802 18.0 0
  249.10158 25.0 1
  250.13971 31.0 1
  251.86697 38.0 1
  252.07126 28.0 1
  252.08653 20.0 0
  253.09186 138.0 3
  254.08917 21.0 0
  256.59775 17.0 0
  257.08337 21.0 0
  258.18692 22.0 0
  259.12411 69.0 1
  259.25 24.0 0
  260.09097 37.0 1
  260.36267 35.0 1
  261.03818 31.0 1
  261.05835 259.0 5
  261.07031 275.0 6
  261.08295 129.0 3
  261.09555 98.0 2
  261.10822 60.0 1
  261.13693 81.0 2
  261.36292 17.0 0
  262.05872 146.0 3
  262.07654 56.0 1
  262.14319 67.0 1
  262.70682 18.0 0
  262.85831 25.0 1
  263.021 26.0 1
  263.03885 76.0 2
  263.04901 262.0 5
  263.08154 11275.0 231
  263.11737 194.0 4
  263.22351 32.0 1
  263.58786 22.0 0
  263.88495 29.0 1
  264.04245 28.0 1
  264.05658 126.0 3
  264.0864 2862.0 59
  265.04105 22.0 0
  265.06653 51.0 1
  265.0881 322.0 7
  265.25891 25.0 1
  266.07663 24.0 0
  266.10034 28.0 1
  266.39551 21.0 0
  267.72626 19.0 0
  271.07928 22.0 0
  271.11243 24.0 0
  271.12372 72.0 1
  271.80457 20.0 0
  272.12335 19.0 0
  272.1438 17.0 0
  275.29391 41.0 1
  275.51947 17.0 0
  277.14236 94.0 2
  278.03189 32.0 1
  278.14676 50.0 1
  279.13174 29.0 1
  279.15112 405.0 8
  280.08307 17.0 0
  280.13763 34.0 1
  280.15735 23.0 0
  280.16864 20.0 0
  280.96951 18.0 0
  281.03583 68.0 1
  281.04626 22.0 0
  281.09189 1779.0 36
  282.04501 30.0 1
  282.1011 552.0 11
  282.11963 120.0 2
  282.85944 23.0 0
  283.10364 123.0 3
  283.91101 24.0 0
  285.11533 19.0 0
  286.11142 47.0 1
  287.08469 36.0 1
  287.10947 47.0 1
  287.12384 127.0 3
  287.36884 20.0 0
  287.39658 17.0 0
  288.12677 68.0 1
  288.17117 20.0 0
  289.08994 46.0 1
  289.09897 139.0 3
  289.13647 411.0 8
  289.2933 40.0 1
  289.33871 23.0 0
  289.97131 32.0 1
  290.08762 53.0 1
  290.10782 49.0 1
  290.12894 85.0 2
  290.14026 108.0 2
  291.09598 20.0 0
  291.1308 25.0 1
  291.84326 31.0 1
  292.02896 18.0 0
  292.52197 20.0 0
  297.09442 25.0 1
  297.11014 66.0 1
  298.10632 58.0 1
  298.11792 61.0 1
  298.31805 23.0 0
  299.29803 19.0 0
  300.2485 21.0 0
  301.10217 20.0 0
  303.15463 39.0 1
  304.81015 20.0 0
  305.07101 22.0 0
  305.11633 293.0 6
  305.12985 601.0 12
  306.04816 31.0 1
  306.06232 25.0 1
  306.13437 173.0 4
  306.14932 25.0 1
  306.64578 20.0 0
  307.02783 25.0 1
  307.07465 18.0 0
  307.0936 25.0 1
  307.14453 5144.0 105
  308.08163 18.0 0
  308.14731 946.0 19
  309.06155 30.0 1
  309.13278 68.0 1
  309.15198 21.0 0
  309.17245 21.0 0
  310.69336 22.0 0
  310.78009 17.0 0
  311.60703 29.0 1
  315.09225 187.0 4
  315.10794 370.0 8
  315.12592 113.0 2
  316.10904 163.0 3
  316.12744 58.0 1
  316.49133 20.0 0
  318.45383 21.0 0
  320.43573 29.0 1
  323.10651 20.0 0
  323.14233 42.0 1
  323.8847 21.0 0
  324.14682 85.0 2
  324.94867 17.0 0
  328.39194 34.0 1
  331.09122 28.0 1
  331.15039 50.0 1
  333.05215 42.0 1
  333.08429 108.0 2
  333.12445 6104.0 125
  333.69815 21.0 0
  333.91412 33.0 1
  333.95886 17.0 0
  334.00653 23.0 0
  334.02997 51.0 1
  334.09225 34.0 1
  334.12805 1337.0 27
  334.17691 34.0 1
  334.25165 18.0 0
  335.09937 49.0 1
  335.12701 160.0 3
  335.14224 100.0 2
  335.80887 20.0 0
  336.05582 20.0 0
  336.11633 19.0 0
  336.13422 40.0 1
  336.14987 34.0 1
  340.41272 28.0 1
  341.67218 30.0 1
  343.75879 29.0 1
  344.45053 17.0 0
  345.12097 24.0 0
  347.49509 22.0 0
  349.12964 23.0 0
  350.90289 35.0 1
  351.04733 23.0 0
  351.06677 127.0 3
  351.13385 9469.0 194
  351.18665 39.0 1
  351.3125 17.0 0
  351.35269 20.0 0
  351.38757 25.0 1
  351.65009 21.0 0
  351.79599 17.0 0
  351.86914 27.0 1
  352.0881 73.0 1
  352.13556 2751.0 56
  353.07523 20.0 0
  353.10449 20.0 0
  353.13397 273.0 6
  353.15054 70.0 1
  353.17001 18.0 0
  353.5405 19.0 0
  353.60059 25.0 1
  353.83578 21.0 0
  354.05429 20.0 0
  354.13507 30.0 1
  355.9913 24.0 0
  358.07181 17.0 0
  362.65555 27.0 1
  366.21768 24.0 0
  372.60422 20.0 0
  373.48547 30.0 1
  376.25632 27.0 1
  378.31308 49.0 1
  380.00345 23.0 0
  383.56573 23.0 0
  384.79669 20.0 0
  393.42255 27.0 1
  405.10773 33.0 1
  408.7019 21.0 0
  408.95959 20.0 0
  411.60736 38.0 1
  415.04507 23.0 0
  426.94028 24.0 0
  430.18268 20.0 0
  430.90042 20.0 0
  439.01282 21.0 0
  447.54141 18.0 0
  450.03241 18.0 0
  458.56888 21.0 0
  468.78696 23.0 0
  469.13828 23.0 0
  469.19366 649.0 13
  470.17865 89.0 2
  470.20483 136.0 3
  470.45096 19.0 0
  471.18808 27.0 1
  471.20139 61.0 1
  472.94754 18.0 0
  473.24026 35.0 1
  495.13242 38.0 1
  495.17505 65.0 1
  495.20233 55.0 1
  495.3316 28.0 1
  503.85263 42.0 1
  512.48792 20.0 0
  512.64746 20.0 0
  512.70105 20.0 0
  512.74719 40.0 1
  512.81689 19.0 0
  512.9776 21.0 0
  513.03387 58.0 1
  513.08539 88.0 2
  513.12103 687.0 14
  513.18677 48796.0 999
  513.25153 772.0 16
  513.31122 61.0 1
  513.3222 21.0 0
//
