ACCESSION: MSBNK-RIKEN-PR305533
RECORD_TITLE: Luteolin-6-C-glucoside; LC-ESI-QTOF; MS2
DATE: 2019.03.28
AUTHORS: Tetsuya Mori, Center for Sustainable Resource Science, RIKEN
LICENSE: CC BY-NC-SA
PUBLICATION: Tsugawa H., Nakabayashi R., Mori T., Yamada Y., Takahashi M., Rai A., Sugiyama R., Yamamoto H., Nakaya T., Yamazaki M., Kooke R., Bac-Molenaar JA., Oztolan-Erol N., Keurentjes JJB., Arita M., Saito K. (2019) "A cheminformatics approach to characterize metabolomes in stable-isotope-labeled organisms" Nature Methods 16(4):295-298. [doi:10.1038/s41592-019-0358-2]
COMMENT: registered in RIKEN PlaSMA
CH$NAME: Luteolin-6-C-glucoside
CH$COMPOUND_CLASS: Flavonoid C-glycosides
CH$FORMULA: C21H20O11
CH$EXACT_MASS: 448.38
CH$SMILES: OCC1OC(C(O)C(O)C1O)C1=C(O)C2=C(OC(=CC2=O)C2=CC(O)=C(O)C=C2)C=C1O
CH$IUPAC: InChI=1S/C21H20O11/c22-6-14-17(27)19(29)20(30)21(32-14)16-11(26)5-13-15(18(16)28)10(25)4-12(31-13)7-1-2-8(23)9(24)3-7/h1-5,14,17,19-24,26-30H,6H2
CH$LINK: INCHIKEY ODBRNZZJSYPIDI-UHFFFAOYSA-N
AC$INSTRUMENT: LC, Waters Acquity UPLC System; MS, Waters Xevo G2 Q-Tof
AC$INSTRUMENT_TYPE: LC-ESI-QTOF
AC$MASS_SPECTROMETRY: MS_TYPE MS2
AC$MASS_SPECTROMETRY: ION_MODE NEGATIVE
AC$MASS_SPECTROMETRY: COLLISION_ENERGY 6V
AC$MASS_SPECTROMETRY: DESOLVATION_GAS_FLOW 800/h
AC$MASS_SPECTROMETRY: DESOLVATION_TEMPERATURE 450 C
AC$MASS_SPECTROMETRY: IONIZATION ESI
AC$CHROMATOGRAPHY: CAPILLARY_VOLTAGE -2.75 kV
AC$CHROMATOGRAPHY: COLUMN_NAME Acquity bridged ethyl hybrid C18 (1.7 um, 2.1 mm * 100 mm, Waters)
AC$CHROMATOGRAPHY: COLUMN_TEMPERATURE 40 C
AC$CHROMATOGRAPHY: FLOW_GRADIENT A/B = (99.5%/0.5% at 0 min, 99.5%/0.5% at 0.1 min, 20%/80% at 10 min, 0.5%/99.5% at 10.1 min, 0.5%/99.5% at 12.0 min, 99.5%/0.5% at 12.1 min, 99.5%/0.5% at 15.0 min)
AC$CHROMATOGRAPHY: FLOW_RATE 0.3 ml/min at 0 min, 0.3 ml/min at 10 min, 0.4 ml/min at 10.1 min, 0.4 ml/min at 14.4 min, 0.3 ml/min at 14.5 min
AC$CHROMATOGRAPHY: RETENTION_TIME 3.594683
AC$CHROMATOGRAPHY: SOLVENT A water including 0.1% formic acid
AC$CHROMATOGRAPHY: SOLVENT B acetonitrile including 0.1% formic acid
MS$FOCUSED_ION: PRECURSOR_TYPE [M-H]-
MS$FOCUSED_ION: PRECURSOR_M/Z 447.09328504783
PK$SPLASH: splash10-01q9-0950000000-ba93b0981a46b02049fa
PK$NUM_PEAK: 197
PK$PEAK: m/z int. rel.int.
  64.99826 15.0 15
  75.50984 12.0 12
  77.03786 13.0 13
  77.04164 13.0 13
  79.01553 24.0 24
  79.02019 48.0 48
  89.03559 13.0 13
  91.05273 16.0 16
  91.51066 12.0 12
  92.02074 18.0 18
  95.04819 17.0 17
  100.03071 15.0 15
  103.0541 13.0 13
  105.03172 39.0 39
  107.01453 81.0 81
  108.01915 42.0 42
  109.02637 94.0 94
  109.03104 38.0 38
  117.02975 65.0 65
  117.03731 36.0 36
  119.01247 57.0 57
  119.05118 55.0 55
  120.04948 13.0 13
  121.02868 154.0 154
  122.02482 13.0 13
  122.03201 28.0 28
  122.18367 12.0 12
  123.00653 14.0 14
  125.01839 20.0 20
  125.02515 15.0 15
  129.03181 22.0 22
  132.02086 48.0 48
  133.02853 1000.0 999
  134.03494 60.0 60
  134.64896 15.0 15
  135.00212 38.0 38
  135.01065 97.0 97
  135.02623 22.0 22
  135.03593 33.0 33
  135.04628 93.0 93
  135.25575 13.0 13
  136.05487 15.0 15
  137.01645 40.0 40
  137.02725 12.0 12
  143.04378 16.0 16
  143.05223 44.0 44
  144.01675 18.0 18
  145.02135 16.0 16
  145.02914 77.0 77
  146.03178 13.0 13
  147.04349 13.0 13
  149.01819 43.0 43
  150.03687 19.0 19
  150.50121 13.0 13
  151.00288 46.0 46
  151.03804 99.0 99
  151.04803 29.0 29
  153.07352 22.0 22
  155.05145 19.0 19
  155.9269 15.0 15
  156.05228 20.0 20
  157.02972 39.0 39
  158.04044 42.0 42
  159.01384 26.0 26
  160.00839 20.0 20
  160.01657 24.0 24
  161.02136 221.0 221
  161.03499 20.0 20
  162.02687 17.0 17
  163.00293 399.0 399
  163.03726 184.0 184
  163.07159 15.0 15
  164.0067 26.0 26
  164.01707 22.0 22
  165.01488 143.0 143
  165.02776 26.0 26
  168.04341 22.0 22
  168.07658 17.0 17
  169.04803 12.0 12
  169.06325 14.0 14
  170.03336 14.0 14
  170.20496 15.0 15
  171.03976 37.0 37
  171.07178 15.0 15
  174.02367 38.0 38
  174.03152 13.0 13
  175.03244 61.0 61
  175.03813 140.0 140
  176.00365 12.0 12
  177.01711 63.0 63
  177.0248 71.0 71
  180.04865 20.0 20
  181.06596 17.0 17
  182.03426 30.0 30
  182.07207 13.0 13
  183.04468 114.0 114
  185.01811 22.0 22
  185.05701 54.0 54
  186.05742 13.0 13
  186.06425 16.0 16
  187.00919 12.0 12
  187.03799 16.0 16
  189.02054 20.0 20
  190.02823 12.0 12
  191.02997 37.0 37
  193.06148 12.0 12
  194.03865 17.0 17
  195.0383 16.0 16
  196.05388 28.0 28
  197.06171 61.0 61
  198.034 72.0 72
  199.03479 89.0 89
  200.04155 48.0 48
  201.00902 14.0 14
  201.01996 34.0 34
  201.05014 38.0 38
  201.05884 15.0 15
  202.02008 34.0 34
  203.02548 13.0 13
  210.05347 18.0 18
  211.03822 170.0 170
  211.0739 39.0 39
  212.04257 114.0 114
  213.05022 35.0 35
  213.06056 16.0 16
  214.05952 56.0 56
  215.03851 19.0 19
  216.03827 13.0 13
  217.05096 40.0 40
  223.03961 13.0 13
  223.05153 21.0 21
  223.07877 12.0 12
  223.12659 20.0 20
  224.04321 13.0 13
  225.05247 108.0 108
  226.60719 19.0 19
  227.02933 65.0 65
  227.04041 14.0 14
  228.03587 15.0 15
  229.03957 35.0 35
  229.05702 37.0 37
  231.06931 28.0 28
  235.04738 36.0 36
  237.05984 20.0 20
  239.02795 20.0 20
  239.08438 22.0 22
  240.03369 22.0 22
  240.05434 24.0 24
  241.04715 90.0 90
  242.02354 50.0 50
  242.05623 12.0 12
  243.0345 14.0 14
  243.05626 26.0 26
  250.05548 16.0 16
  251.03699 38.0 38
  252.04225 42.0 42
  253.04819 79.0 79
  254.04991 23.0 23
  255.02827 91.0 91
  255.03645 38.0 38
  255.05963 14.0 14
  255.08655 13.0 13
  256.03397 51.0 51
  261.0538 15.0 15
  265.06256 25.0 25
  267.0282 15.0 15
  268.03461 22.0 22
  269.04175 183.0 183
  269.07071 16.0 16
  270.03375 28.0 28
  270.05084 13.0 13
  270.06061 17.0 17
  271.05032 19.0 19
  282.04547 15.0 15
  284.01553 40.0 40
  284.02939 110.0 110
  284.04129 71.0 71
  285.03003 88.0 88
  285.04443 63.0 63
  286.04584 15.0 15
  288.30099 12.0 12
  295.03021 17.0 17
  296.0343 16.0 16
  297.03183 108.0 108
  297.04379 116.0 116
  298.04388 191.0 191
  299.05072 71.0 71
  299.06381 59.0 59
  300.06454 42.0 42
  304.09003 18.0 18
  310.05914 16.0 16
  311.0462 29.0 29
  311.05896 22.0 22
  311.30887 13.0 13
  313.03525 22.0 22
  324.03421 13.0 13
  339.05161 29.0 29
//
