ACCESSION: MSBNK-RIKEN-PR303901
RECORD_TITLE: Silychrystin; LC-ESI-QTOF; MS2
DATE: 2019.03.28
AUTHORS: Tetsuya Mori, Center for Sustainable Resource Science, RIKEN
LICENSE: CC BY-NC-SA
PUBLICATION: Tsugawa H., Nakabayashi R., Mori T., Yamada Y., Takahashi M., Rai A., Sugiyama R., Yamamoto H., Nakaya T., Yamazaki M., Kooke R., Bac-Molenaar JA., Oztolan-Erol N., Keurentjes JJB., Arita M., Saito K. (2019) "A cheminformatics approach to characterize metabolomes in stable-isotope-labeled organisms" Nature Methods 16(4):295-298. [doi:10.1038/s41592-019-0358-2]
COMMENT: registered in RIKEN PlaSMA
CH$NAME: Silychrystin
CH$COMPOUND_CLASS: 2-arylbenzofuran flavonoids
CH$FORMULA: C25H22O10
CH$EXACT_MASS: 482.441
CH$SMILES: COC1=C(O)C=CC(=C1)[C@@H]1OC2=C(C=C(C=C2O)[C@H]2OC3=CC(O)=CC(O)=C3C(=O)[C@@H]2O)[C@H]1CO
CH$IUPAC: InChI=1S/C25H22O10/c1-33-18-6-10(2-3-15(18)28)23-14(9-26)13-4-11(5-17(30)25(13)35-23)24-22(32)21(31)20-16(29)7-12(27)8-19(20)34-24/h2-8,14,22-24,26-30,32H,9H2,1H3/t14-,22+,23+,24-/m1/s1
CH$LINK: INCHIKEY BMLIIPOXVWESJG-LMBCONBSSA-N
AC$INSTRUMENT: LC, Waters Acquity UPLC System; MS, Waters Xevo G2 Q-Tof
AC$INSTRUMENT_TYPE: LC-ESI-QTOF
AC$MASS_SPECTROMETRY: MS_TYPE MS2
AC$MASS_SPECTROMETRY: ION_MODE POSITIVE
AC$MASS_SPECTROMETRY: COLLISION_ENERGY 6V
AC$MASS_SPECTROMETRY: DESOLVATION_GAS_FLOW 800/h
AC$MASS_SPECTROMETRY: DESOLVATION_TEMPERATURE 450 C
AC$MASS_SPECTROMETRY: IONIZATION ESI
AC$CHROMATOGRAPHY: CAPILLARY_VOLTAGE +3.00 kV
AC$CHROMATOGRAPHY: COLUMN_NAME Acquity bridged ethyl hybrid C18 (1.7 um, 2.1 mm * 100 mm, Waters)
AC$CHROMATOGRAPHY: COLUMN_TEMPERATURE 40 C
AC$CHROMATOGRAPHY: FLOW_GRADIENT A/B = (99.5%/0.5% at 0 min, 99.5%/0.5% at 0.1 min, 20%/80% at 10 min, 0.5%/99.5% at 10.1 min, 0.5%/99.5% at 12.0 min, 99.5%/0.5% at 12.1 min, 99.5%/0.5% at 15.0 min)
AC$CHROMATOGRAPHY: FLOW_RATE 0.3 ml/min at 0 min, 0.3 ml/min at 10 min, 0.4 ml/min at 10.1 min, 0.4 ml/min at 14.4 min, 0.3 ml/min at 14.5 min
AC$CHROMATOGRAPHY: RETENTION_TIME 4.95995
AC$CHROMATOGRAPHY: SOLVENT A water including 0.1% formic acid
AC$CHROMATOGRAPHY: SOLVENT B acetonitrile including 0.1% formic acid
MS$FOCUSED_ION: PRECURSOR_TYPE [M+H]+
MS$FOCUSED_ION: PRECURSOR_M/Z 483.1285734
PK$SPLASH: splash10-0ue9-0000900000-82632d456ab0e2990915
PK$NUM_PEAK: 33
PK$PEAK: m/z int. rel.int.
  137.06035 22.0 22
  153.01817 28.0 28
  153.0278 15.0 15
  158.84679 7.0 7
  195.03107 6.0 6
  259.09607 24.0 24
  271.0972 12.0 12
  283.09338 11.0 11
  327.09106 5.0 5
  407.10571 8.0 8
  435.07516 11.0 11
  435.10858 201.0 201
  436.11118 73.0 73
  437.1041 17.0 17
  437.11829 8.0 8
  441.14664 6.0 6
  447.10349 18.0 18
  447.13419 6.0 6
  452.11655 7.0 7
  453.06256 10.0 10
  453.11902 1000.0 999
  454.06796 5.0 5
  454.12213 284.0 284
  455.11053 13.0 13
  455.1228 39.0 39
  464.08957 7.0 7
  464.11169 9.0 9
  465.10239 16.0 16
  465.12778 23.0 23
  466.10056 5.0 5
  467.12479 6.0 6
  482.11807 16.0 16
  483.12842 644.0 643
//
