ACCESSION: MSBNK-RIKEN-PR310868
RECORD_TITLE: Isoflavone base + 2O, O-AcetylHex; LC-ESI-QTOF; MS2
DATE: 2019.03.28
AUTHORS: Tetsuya Mori, Center for Sustainable Resource Science, RIKEN
LICENSE: CC BY-NC-SA
PUBLICATION: Tsugawa H., Nakabayashi R., Mori T., Yamada Y., Takahashi M., Rai A., Sugiyama R., Yamamoto H., Nakaya T., Yamazaki M., Kooke R., Bac-Molenaar JA., Oztolan-Erol N., Keurentjes JJB., Arita M., Saito K. (2019) "A cheminformatics approach to characterize metabolomes in stable-isotope-labeled organisms" Nature Methods 16(4):295-298. [doi:10.1038/s41592-019-0358-2]
COMMENT: Annotation level-3
CH$NAME: Isoflavone base + 2O, O-AcetylHex
CH$COMPOUND_CLASS: Isoflavone O-glycosides
CH$FORMULA: C23H22O10
CH$EXACT_MASS: 458.419
CH$SMILES: O=C(OCC4OC(OC=1C=CC=2C(=O)C(=COC=2(C=1))C3=CC=C(O)C=C3)C(O)C(O)C4(O))C
CH$IUPAC: InChI=1S/C23H22O10/c1-11(24)30-10-18-20(27)21(28)22(29)23(33-18)32-14-6-7-15-17(8-14)31-9-16(19(15)26)12-2-4-13(25)5-3-12/h2-9,18,20-23,25,27-29H,10H2,1H3
CH$LINK: INCHIKEY ZMOZJTDOTOZVRT-UHFFFAOYSA-N
AC$INSTRUMENT: LC, Waters Acquity UPLC System; MS, Waters Xevo G2 Q-Tof
AC$INSTRUMENT_TYPE: LC-ESI-QTOF
AC$MASS_SPECTROMETRY: MS_TYPE MS2
AC$MASS_SPECTROMETRY: ION_MODE POSITIVE
AC$MASS_SPECTROMETRY: COLLISION_ENERGY 6V
AC$MASS_SPECTROMETRY: DESOLVATION_GAS_FLOW 800/h
AC$MASS_SPECTROMETRY: DESOLVATION_TEMPERATURE 450 C
AC$MASS_SPECTROMETRY: IONIZATION ESI
AC$CHROMATOGRAPHY: CAPILLARY_VOLTAGE +3.00 kV
AC$CHROMATOGRAPHY: COLUMN_NAME Acquity bridged ethyl hybrid C18 (1.7 um, 2.1 mm * 100 mm, Waters)
AC$CHROMATOGRAPHY: COLUMN_TEMPERATURE 40 C
AC$CHROMATOGRAPHY: FLOW_GRADIENT A/B = (99.5%/0.5% at 0 min, 99.5%/0.5% at 0.1 min, 20%/80% at 10 min, 0.5%/99.5% at 10.1 min, 0.5%/99.5% at 12.0 min, 99.5%/0.5% at 12.1 min, 99.5%/0.5% at 15.0 min)
AC$CHROMATOGRAPHY: FLOW_RATE 0.3 ml/min at 0 min, 0.3 ml/min at 10 min, 0.4 ml/min at 10.1 min, 0.4 ml/min at 14.4 min, 0.3 ml/min at 14.5 min
AC$CHROMATOGRAPHY: RETENTION_TIME 4.57
AC$CHROMATOGRAPHY: SOLVENT A water including 0.1% formic acid
AC$CHROMATOGRAPHY: SOLVENT B acetonitrile including 0.1% formic acid
MS$FOCUSED_ION: PRECURSOR_TYPE [M+H]+
MS$FOCUSED_ION: PRECURSOR_M/Z 459.1303
PK$SPLASH: splash10-0a4i-0190100000-1d7a286eb2a64cec2c9d
PK$NUM_PEAK: 6
PK$PEAK: m/z int. rel.int.
  128.04684 40.0 134
  209.15263 20.0 67
  255.0491 33.0 111
  255.06816 298.0 999
  446.42679 18.0 60
  459.12598 49.0 164
//
