ACCESSION: MSBNK-RIKEN-PR307232
RECORD_TITLE: p-Hydroxybenzyl glucosinolate; LC-ESI-QTOF; MS2
DATE: 2019.03.28
AUTHORS: Tetsuya Mori, Center for Sustainable Resource Science, RIKEN
LICENSE: CC BY-NC-SA
PUBLICATION: Tsugawa H., Nakabayashi R., Mori T., Yamada Y., Takahashi M., Rai A., Sugiyama R., Yamamoto H., Nakaya T., Yamazaki M., Kooke R., Bac-Molenaar JA., Oztolan-Erol N., Keurentjes JJB., Arita M., Saito K. (2019) "A cheminformatics approach to characterize metabolomes in stable-isotope-labeled organisms" Nature Methods 16(4):295-298. [doi:10.1038/s41592-019-0358-2]
COMMENT: registered in RIKEN PlaSMA
CH$NAME: p-Hydroxybenzyl glucosinolate
CH$COMPOUND_CLASS: Alkylglucosinolates
CH$FORMULA: C14H19NO10S2
CH$EXACT_MASS: 425.433
CH$SMILES: OCC1OC(SC(CC2=CC=C(O)C=C2)=NOS(O)(=O)=O)C(O)C(O)C1O
CH$IUPAC: InChI=1S/C14H19NO10S2/c16-6-9-11(18)12(19)13(20)14(24-9)26-10(15-25-27(21,22)23)5-7-1-3-8(17)4-2-7/h1-4,9,11-14,16-20H,5-6H2,(H,21,22,23)
CH$LINK: INCHIKEY WWBNBPSEKLOHJU-UHFFFAOYSA-N
AC$INSTRUMENT: LC, Waters Acquity UPLC System; MS, Waters Xevo G2 Q-Tof
AC$INSTRUMENT_TYPE: LC-ESI-QTOF
AC$MASS_SPECTROMETRY: MS_TYPE MS2
AC$MASS_SPECTROMETRY: ION_MODE NEGATIVE
AC$MASS_SPECTROMETRY: COLLISION_ENERGY 6V
AC$MASS_SPECTROMETRY: DESOLVATION_GAS_FLOW 800/h
AC$MASS_SPECTROMETRY: DESOLVATION_TEMPERATURE 450 C
AC$MASS_SPECTROMETRY: IONIZATION ESI
AC$CHROMATOGRAPHY: CAPILLARY_VOLTAGE -2.75 kV
AC$CHROMATOGRAPHY: COLUMN_NAME Acquity bridged ethyl hybrid C18 (1.7 um, 2.1 mm * 100 mm, Waters)
AC$CHROMATOGRAPHY: COLUMN_TEMPERATURE 40 C
AC$CHROMATOGRAPHY: FLOW_GRADIENT A/B = (99.5%/0.5% at 0 min, 99.5%/0.5% at 0.1 min, 20%/80% at 10 min, 0.5%/99.5% at 10.1 min, 0.5%/99.5% at 12.0 min, 99.5%/0.5% at 12.1 min, 99.5%/0.5% at 15.0 min)
AC$CHROMATOGRAPHY: FLOW_RATE 0.3 ml/min at 0 min, 0.3 ml/min at 10 min, 0.4 ml/min at 10.1 min, 0.4 ml/min at 14.4 min, 0.3 ml/min at 14.5 min
AC$CHROMATOGRAPHY: RETENTION_TIME 2.003917
AC$CHROMATOGRAPHY: SOLVENT A water including 0.1% formic acid
AC$CHROMATOGRAPHY: SOLVENT B acetonitrile including 0.1% formic acid
MS$FOCUSED_ION: PRECURSOR_TYPE [M-H]-
MS$FOCUSED_ION: PRECURSOR_M/Z 424.03776174783
PK$SPLASH: splash10-00dj-8210900000-556e1e0400ab32e10bde
PK$NUM_PEAK: 50
PK$PEAK: m/z int. rel.int.
  71.01402 11.0 11
  74.99106 95.0 95
  79.95725 39.0 39
  85.02888 27.0 27
  89.02143 6.0 6
  95.95141 163.0 163
  96.95978 570.0 569
  97.86503 6.0 6
  97.95021 23.0 23
  98.95717 42.0 42
  98.96326 11.0 11
  99.01881 5.0 5
  101.02971 11.0 11
  101.62 5.0 5
  117.02118 6.0 6
  118.03089 6.0 6
  119.03282 18.0 18
  121.9532 7.0 7
  127.92222 13.0 13
  135.82574 11.0 11
  138.96877 16.0 16
  138.97472 6.0 6
  148.03816 19.0 19
  149.00685 12.0 12
  149.02025 5.0 5
  182.03383 45.0 45
  183.03224 9.0 9
  195.03534 39.0 39
  200.98378 5.0 5
  227.02238 12.0 12
  227.99133 12.0 12
  230.97485 5.0 5
  230.98538 21.0 21
  232.97464 5.0 5
  242.0034 10.0 10
  259.01248 57.0 57
  259.02188 27.0 27
  259.03308 5.0 5
  261.00836 5.0 5
  274.01944 5.0 5
  274.98434 28.0 28
  275.99478 10.0 10
  276.81104 8.0 8
  340.67459 7.0 7
  341.82791 7.0 7
  344.09174 8.0 8
  346.4884 7.0 7
  423.02057 7.0 7
  424.03809 1000.0 999
  424.06827 17.0 17
//
