ACCESSION: MSBNK-RIKEN-PR310634
RECORD_TITLE: Mitragynine; LC-ESI-QTOF; MS2
DATE: 2019.03.28
AUTHORS: Tetsuya Mori, Center for Sustainable Resource Science, RIKEN
LICENSE: CC BY-NC-SA
PUBLICATION: Tsugawa H., Nakabayashi R., Mori T., Yamada Y., Takahashi M., Rai A., Sugiyama R., Yamamoto H., Nakaya T., Yamazaki M., Kooke R., Bac-Molenaar JA., Oztolan-Erol N., Keurentjes JJB., Arita M., Saito K. (2019) "A cheminformatics approach to characterize metabolomes in stable-isotope-labeled organisms" Nature Methods 16(4):295-298. [doi:10.1038/s41592-019-0358-2]
COMMENT: Annotation level-1
CH$NAME: Mitragynine
CH$COMPOUND_CLASS: Alkaloids
CH$FORMULA: C23H30N2O4
CH$EXACT_MASS: 398.503
CH$SMILES: CCC1CN2CCC3=C(NC4=C3C(OC)=CC=C4)C2CC1C(=COC)C(=O)OC
CH$IUPAC: InChI=1S/C23H30N2O4/c1-5-14-12-25-10-9-15-21-18(7-6-8-20(21)28-3)24-22(15)19(25)11-16(14)17(13-27-2)23(26)29-4/h6-8,13-14,16,19,24H,5,9-12H2,1-4H3
CH$LINK: INCHIKEY LELBFTMXCIIKKX-UHFFFAOYSA-N
AC$INSTRUMENT: LC, Waters Acquity UPLC System; MS, Waters Xevo G2 Q-Tof
AC$INSTRUMENT_TYPE: LC-ESI-QTOF
AC$MASS_SPECTROMETRY: MS_TYPE MS2
AC$MASS_SPECTROMETRY: ION_MODE POSITIVE
AC$MASS_SPECTROMETRY: COLLISION_ENERGY 6V
AC$MASS_SPECTROMETRY: DESOLVATION_GAS_FLOW 800/h
AC$MASS_SPECTROMETRY: DESOLVATION_TEMPERATURE 450 C
AC$MASS_SPECTROMETRY: IONIZATION ESI
AC$CHROMATOGRAPHY: CAPILLARY_VOLTAGE +3.00 kV
AC$CHROMATOGRAPHY: COLUMN_NAME Acquity bridged ethyl hybrid C18 (1.7 um, 2.1 mm * 100 mm, Waters)
AC$CHROMATOGRAPHY: COLUMN_TEMPERATURE 40 C
AC$CHROMATOGRAPHY: FLOW_GRADIENT A/B = (99.5%/0.5% at 0 min, 99.5%/0.5% at 0.1 min, 20%/80% at 10 min, 0.5%/99.5% at 10.1 min, 0.5%/99.5% at 12.0 min, 99.5%/0.5% at 12.1 min, 99.5%/0.5% at 15.0 min)
AC$CHROMATOGRAPHY: FLOW_RATE 0.3 ml/min at 0 min, 0.3 ml/min at 10 min, 0.4 ml/min at 10.1 min, 0.4 ml/min at 14.4 min, 0.3 ml/min at 14.5 min
AC$CHROMATOGRAPHY: RETENTION_TIME 5.54
AC$CHROMATOGRAPHY: SOLVENT A water including 0.1% formic acid
AC$CHROMATOGRAPHY: SOLVENT B acetonitrile including 0.1% formic acid
MS$FOCUSED_ION: PRECURSOR_TYPE [M+H]+
MS$FOCUSED_ION: PRECURSOR_M/Z 399.22783
PK$SPLASH: splash10-0002-0329000000-900705b9a5740eef4a3b
PK$NUM_PEAK: 647
PK$PEAK: m/z int. rel.int.
  63.56606 19.0 0
  67.05162 20.0 0
  72.04368 30.0 0
  75.03393 23.0 0
  75.04228 182.0 3
  75.04665 72.0 1
  75.06151 18.0 0
  76.05212 27.0 0
  81.05199 19.0 0
  84.07173 18.0 0
  84.0798 105.0 2
  84.08616 31.0 0
  85.03325 38.0 1
  91.05809 27.0 0
  93.06911 43.0 1
  95.04927 112.0 2
  95.05883 18.0 0
  96.05573 26.0 0
  98.36551 20.0 0
  99.0412 18.0 0
  99.08295 23.0 0
  100.07455 30.0 0
  105.05925 22.0 0
  106.07793 32.0 0
  108.0764 62.0 1
  109.06058 20.0 0
  110.05222 31.0 0
  110.07601 23.0 0
  110.09666 2066.0 31
  111.04227 110.0 2
  111.09852 148.0 2
  112.10868 28.0 0
  114.09433 17.0 0
  115.0536 41.0 1
  117.05956 143.0 2
  117.06995 230.0 3
  118.05727 40.0 1
  118.06666 94.0 1
  118.07829 46.0 1
  119.04836 20.0 0
  119.07244 43.0 1
  119.08717 49.0 1
  120.0769 23.0 0
  120.08774 23.0 0
  120.43034 31.0 0
  120.88057 17.0 0
  121.05834 21.0 0
  121.65498 21.0 0
  122.09779 181.0 3
  123.04559 76.0 1
  123.07492 17.0 0
  123.08339 52.0 1
  124.0349 20.0 0
  124.11235 19.0 0
  125.8828 20.0 0
  126.05338 117.0 2
  126.0668 20.0 0
  126.26817 18.0 0
  127.04974 24.0 0
  127.05734 43.0 1
  127.06342 17.0 0
  128.05437 18.0 0
  129.03381 19.0 0
  129.05577 921.0 14
  129.07222 49.0 1
  130.05814 198.0 3
  130.0672 103.0 2
  130.43457 20.0 0
  131.06052 24.0 0
  131.07657 95.0 1
  132.0592 17.0 0
  132.07944 119.0 2
  132.09561 37.0 1
  132.93877 29.0 0
  134.09319 18.0 0
  134.92163 21.0 0
  135.09116 20.0 0
  136.03517 18.0 0
  136.06848 18.0 0
  136.98389 23.0 0
  137.05647 25.0 0
  138.05475 111.0 2
  139.05814 31.0 0
  139.07005 106.0 2
  139.08061 245.0 4
  140.07899 39.0 1
  140.10507 29.0 0
  141.817 18.0 0
  142.06963 20.0 0
  143.0435 21.0 0
  143.0717 160.0 2
  143.07745 52.0 1
  143.09138 30.0 0
  143.62915 17.0 0
  144.05367 22.0 0
  144.07919 625.0 9
  145.06477 17.0 0
  145.07848 101.0 1
  145.08694 18.0 0
  145.09898 24.0 0
  146.05783 21.0 0
  146.07387 18.0 0
  146.08684 26.0 0
  146.09628 219.0 3
  146.10291 102.0 2
  147.06128 18.0 0
  147.09727 77.0 1
  148.06328 29.0 0
  148.07686 86.0 1
  148.08717 21.0 0
  148.10974 20.0 0
  149.09732 19.0 0
  149.12421 23.0 0
  150.09039 56.0 1
  151.06017 71.0 1
  151.07303 47.0 1
  151.09781 27.0 0
  152.05769 26.0 0
  152.0688 179.0 3
  152.07913 83.0 1
  152.48152 30.0 0
  153.23589 27.0 0
  154.06261 23.0 0
  154.08803 27.0 0
  154.12756 90.0 1
  155.07149 115.0 2
  155.08296 21.0 0
  155.11337 19.0 0
  155.12604 20.0 0
  156.07945 46.0 1
  156.45946 33.0 0
  157.05289 26.0 0
  157.08055 25.0 0
  158.06505 23.0 0
  158.07585 25.0 0
  158.08376 26.0 0
  158.09598 63.0 1
  159.01395 23.0 0
  159.06871 1628.0 24
  160.0674 196.0 3
  160.0773 164.0 2
  160.60745 17.0 0
  161.07202 20.0 0
  161.0856 140.0 2
  161.09264 41.0 1
  161.1093 32.0 0
  162.08344 32.0 0
  162.0921 74.0 1
  163.07181 18.0 0
  163.09843 20.0 0
  164.10478 22.0 0
  165.08737 87.0 1
  165.09909 36.0 1
  166.07799 86.0 1
  166.08859 127.0 2
  166.12973 24.0 0
  167.0843 17.0 0
  168.07349 45.0 1
  168.08846 54.0 1
  168.1017 655.0 10
  168.1812 17.0 0
  169.08473 40.0 1
  169.09999 27.0 0
  169.10542 63.0 1
  169.11746 67.0 1
  170.09261 24.0 0
  170.26291 25.0 0
  171.03914 30.0 0
  171.0587 18.0 0
  171.07774 33.0 0
  171.10051 295.0 4
  172.0696 52.0 1
  172.09924 47.0 1
  172.12358 24.0 0
  173.07913 48.0 1
  173.11006 22.0 0
  173.11809 20.0 0
  174.02197 18.0 0
  174.03198 17.0 0
  174.04308 20.0 0
  174.0573 57.0 1
  174.06808 49.0 1
  174.09209 11783.0 175
  174.11185 30.0 0
  174.132 34.0 1
  174.16859 29.0 0
  174.2357 20.0 0
  174.28333 20.0 0
  174.41307 20.0 0
  174.52507 20.0 0
  175.05942 54.0 1
  175.09616 1843.0 27
  176.06827 20.0 0
  176.08414 21.0 0
  176.0997 96.0 1
  176.11246 25.0 0
  176.33342 18.0 0
  177.09088 143.0 2
  177.10477 21.0 0
  178.09373 20.0 0
  178.11775 68.0 1
  178.12669 26.0 0
  179.08096 17.0 0
  179.95433 20.0 0
  180.08128 18.0 0
  180.08946 66.0 1
  180.10545 66.0 1
  180.13676 19.0 0
  181.10641 48.0 1
  181.57852 20.0 0
  181.80768 17.0 0
  182.05383 38.0 1
  182.09203 21.0 0
  182.10298 19.0 0
  182.11534 157.0 2
  182.12297 119.0 2
  182.3103 17.0 0
  182.99057 22.0 0
  183.06953 24.0 0
  183.12816 27.0 0
  184.07655 72.0 1
  184.08391 60.0 1
  184.41333 22.0 0
  185.08469 204.0 3
  185.84851 20.0 0
  186.0616 23.0 0
  186.07249 27.0 0
  186.08868 399.0 6
  187.08376 30.0 0
  187.09966 84.0 1
  187.67305 19.0 0
  188.00151 25.0 0
  188.07195 26.0 0
  188.10371 133.0 2
  188.11717 133.0 2
  189.10289 23.0 0
  189.11478 61.0 1
  190.08022 22.0 0
  190.09468 27.0 0
  190.11787 27.0 0
  190.86827 17.0 0
  191.06836 18.0 0
  194.10524 18.0 0
  194.11877 466.0 7
  195.0634 38.0 1
  195.07802 21.0 0
  195.09264 25.0 0
  195.12383 17.0 0
  195.62791 57.0 1
  196.0575 18.0 0
  196.11809 25.0 0
  197.08131 118.0 2
  198.0793 21.0 0
  198.09296 81.0 1
  198.11932 19.0 0
  199.08221 87.0 1
  199.09639 220.0 3
  199.14018 19.0 0
  200.06255 17.0 0
  200.10599 1101.0 16
  201.10538 101.0 1
  201.11902 51.0 1
  202.11359 64.0 1
  202.12471 221.0 3
  203.11501 18.0 0
  203.12839 56.0 1
  203.17085 31.0 0
  203.52513 18.0 0
  203.71121 19.0 0
  204.09409 17.0 0
  204.10573 29.0 0
  205.07745 22.0 0
  205.09189 17.0 0
  206.08601 23.0 0
  206.11661 139.0 2
  206.12564 187.0 3
  206.5697 29.0 0
  207.11476 41.0 1
  207.12482 17.0 0
  207.14488 23.0 0
  208.06264 20.0 0
  208.13182 20.0 0
  209.08244 57.0 1
  210.07767 33.0 0
  210.09448 267.0 4
  211.0943 71.0 1
  211.10477 48.0 1
  211.88756 21.0 0
  212.05141 19.0 0
  212.08682 17.0 0
  212.10866 163.0 2
  213.09465 21.0 0
  213.10257 25.0 0
  213.12157 44.0 1
  213.5623 28.0 0
  214.12331 36.0 1
  214.13605 17.0 0
  215.10854 44.0 1
  215.35081 17.0 0
  216.14003 45.0 1
  217.09254 20.0 0
  217.132 17.0 0
  218.03146 19.0 0
  218.09712 18.0 0
  219.0719 20.0 0
  220.1212 24.0 0
  220.13426 18.0 0
  221.08763 39.0 1
  221.11205 17.0 0
  221.12172 22.0 0
  221.3557 17.0 0
  222.08565 87.0 1
  222.09819 20.0 0
  223.09343 18.0 0
  223.10353 21.0 0
  223.12512 20.0 0
  224.06699 22.0 0
  224.07266 50.0 1
  224.11661 23.0 0
  224.12988 248.0 4
  225.07903 21.0 0
  225.10902 18.0 0
  225.1405 21.0 0
  225.58174 25.0 0
  226.08075 20.0 0
  226.09412 18.0 0
  226.11853 128.0 2
  226.145 5640.0 84
  227.10985 17.0 0
  227.11775 24.0 0
  227.14427 598.0 9
  227.15425 285.0 4
  227.62196 17.0 0
  227.93442 22.0 0
  228.1069 23.0 0
  228.13469 39.0 1
  228.15314 37.0 1
  228.67824 18.0 0
  229.13257 148.0 2
  229.1494 22.0 0
  230.11003 27.0 0
  230.28001 20.0 0
  230.32829 20.0 0
  231.05237 27.0 0
  231.12413 20.0 0
  233.08501 58.0 1
  233.47803 31.0 0
  234.08124 28.0 0
  234.09332 20.0 0
  235.09691 60.0 1
  235.11037 39.0 1
  235.71652 18.0 0
  236.10194 82.0 1
  236.11905 149.0 2
  237.06895 19.0 0
  237.07864 44.0 1
  237.09106 19.0 0
  237.10295 36.0 1
  237.11996 77.0 1
  237.55864 18.0 0
  237.86691 17.0 0
  238.0752 62.0 1
  238.08672 139.0 2
  238.09586 69.0 1
  238.14507 4887.0 73
  238.18268 19.0 0
  238.20418 23.0 0
  238.23296 17.0 0
  238.55521 19.0 0
  239.09189 47.0 1
  239.1176 72.0 1
  239.14691 1001.0 15
  239.37695 18.0 0
  240.09375 22.0 0
  240.11015 41.0 1
  240.14832 154.0 2
  240.16151 160.0 2
  240.341 21.0 0
  242.04433 20.0 0
  242.69742 17.0 0
  243.37689 17.0 0
  244.70372 20.0 0
  246.09146 20.0 0
  247.12286 46.0 1
  248.08827 21.0 0
  248.10507 60.0 1
  249.0732 21.0 0
  249.10237 38.0 1
  249.11534 58.0 1
  249.66093 26.0 0
  250.08078 18.0 0
  250.13257 21.0 0
  250.26848 18.0 0
  251.09174 31.0 0
  251.12469 35.0 1
  251.42549 33.0 0
  252.10208 130.0 2
  252.13142 54.0 1
  253.10634 20.0 0
  253.11639 26.0 0
  253.13092 60.0 1
  254.05455 37.0 1
  254.10452 47.0 1
  254.11693 17.0 0
  254.14609 17.0 0
  254.15398 55.0 1
  254.16273 22.0 0
  255.06857 24.0 0
  255.08235 18.0 0
  255.09396 21.0 0
  255.14021 118.0 2
  255.1503 162.0 2
  255.16092 78.0 1
  256.09781 20.0 0
  256.14548 53.0 1
  256.28085 17.0 0
  256.60852 19.0 0
  257.16446 80.0 1
  257.45728 21.0 0
  258.11285 18.0 0
  260.85858 21.0 0
  261.69168 22.0 0
  263.07986 17.0 0
  263.10388 21.0 0
  263.11438 63.0 1
  263.13315 22.0 0
  264.09628 89.0 1
  264.12518 66.0 1
  264.13635 73.0 1
  264.14868 70.0 1
  265.12482 17.0 0
  266.08646 58.0 1
  266.11014 102.0 2
  266.14758 177.0 3
  266.16092 77.0 1
  267.0144 27.0 0
  267.14133 17.0 0
  267.15036 27.0 0
  268.06137 20.0 0
  268.095 20.0 0
  268.11218 45.0 1
  268.14203 19.0 0
  268.5249 26.0 0
  270.10919 76.0 1
  270.12302 20.0 0
  270.13617 17.0 0
  270.29681 18.0 0
  270.3446 21.0 0
  270.4086 17.0 0
  271.11917 19.0 0
  271.15497 20.0 0
  273.10559 24.0 0
  277.08844 23.0 0
  277.10861 44.0 1
  277.13611 22.0 0
  277.14777 39.0 1
  277.17346 33.0 0
  278.14835 64.0 1
  278.16653 18.0 0
  279.12048 45.0 1
  279.14273 30.0 0
  279.15961 23.0 0
  279.17239 21.0 0
  280.08017 17.0 0
  280.09146 39.0 1
  280.12909 21.0 0
  280.14209 20.0 0
  280.15552 17.0 0
  280.16727 37.0 1
  280.23853 21.0 0
  281.10938 100.0 1
  281.13922 17.0 0
  281.15408 39.0 1
  281.17737 67.0 1
  282.07574 18.0 0
  282.09265 20.0 0
  282.10898 56.0 1
  282.12222 28.0 0
  282.16263 26.0 0
  283.13635 27.0 0
  283.18039 318.0 5
  283.19473 99.0 1
  283.9632 17.0 0
  284.10138 21.0 0
  284.12408 53.0 1
  284.134 94.0 1
  284.2598 17.0 0
  285.12625 19.0 0
  286.13278 20.0 0
  288.13788 18.0 0
  289.06833 17.0 0
  289.75085 22.0 0
  290.1203 20.0 0
  290.15942 42.0 1
  291.21912 17.0 0
  291.23895 21.0 0
  292.10419 18.0 0
  292.13757 56.0 1
  292.16071 67.0 1
  292.57211 17.0 0
  293.16376 19.0 0
  294.12296 24.0 0
  294.15125 34.0 1
  294.17157 55.0 1
  294.34412 29.0 0
  295.08868 24.0 0
  295.11832 62.0 1
  295.14838 24.0 0
  296.09653 27.0 0
  296.11014 43.0 1
  296.13275 353.0 5
  296.168 18.0 0
  296.19846 27.0 0
  296.34265 31.0 0
  297.13531 39.0 1
  297.18234 22.0 0
  297.96576 20.0 0
  298.12021 24.0 0
  298.13467 40.0 1
  298.14563 17.0 0
  299.14722 16.0 0
  299.1557 37.0 1
  299.35175 24.0 0
  304.1517 44.0 1
  305.10764 21.0 0
  305.11499 42.0 1
  306.14691 115.0 2
  307.14471 24.0 0
  307.17456 41.0 1
  307.18646 43.0 1
  308.11707 17.0 0
  308.16397 17.0 0
  308.17719 57.0 1
  308.20435 18.0 0
  309.1423 23.0 0
  309.15866 18.0 0
  309.17661 42.0 1
  309.19601 30.0 0
  309.68869 38.0 1
  310.0925 27.0 0
  310.49323 18.0 0
  311.08026 17.0 0
  311.15631 19.0 0
  317.15466 22.0 0
  317.18796 40.0 1
  318.13333 18.0 0
  318.14594 18.0 0
  318.2269 20.0 0
  318.43906 20.0 0
  319.16974 34.0 1
  319.71838 17.0 0
  320.11691 26.0 0
  323.15958 21.0 0
  324.16238 107.0 2
  325.16498 30.0 0
  325.17615 35.0 1
  325.61005 22.0 0
  325.85025 23.0 0
  326.16617 43.0 1
  326.17719 154.0 2
  327.19235 41.0 1
  328.13049 29.0 0
  328.14975 460.0 7
  328.16513 153.0 2
  329.15466 52.0 1
  329.16803 18.0 0
  329.39859 17.0 0
  329.58856 28.0 0
  330.16739 24.0 0
  335.16745 61.0 1
  335.17938 102.0 2
  336.16019 24.0 0
  336.18234 25.0 0
  336.44751 17.0 0
  337.16199 18.0 0
  337.18359 68.0 1
  337.19397 37.0 1
  338.14993 24.0 0
  338.1803 22.0 0
  338.19708 35.0 1
  339.17191 26.0 0
  339.19638 17.0 0
  339.20978 34.0 1
  340.92865 19.0 0
  344.12857 17.0 0
  346.4101 20.0 0
  348.49277 25.0 0
  349.23886 18.0 0
  350.17337 20.0 0
  350.19995 47.0 1
  351.1521 19.0 0
  351.17252 46.0 1
  352.33014 35.0 1
  353.17978 21.0 0
  354.78259 39.0 1
  355.6102 30.0 0
  357.354 18.0 0
  360.5087 17.0 0
  361.92398 20.0 0
  362.11508 24.0 0
  363.66629 24.0 0
  367.15469 69.0 1
  367.20221 1664.0 25
  367.24527 17.0 0
  368.12836 17.0 0
  368.20303 350.0 5
  369.18881 23.0 0
  370.20883 52.0 1
  371.18478 23.0 0
  371.19839 39.0 1
  372.19507 24.0 0
  374.99188 23.0 0
  376.46246 20.0 0
  380.07822 40.0 1
  380.3793 20.0 0
  381.40372 30.0 0
  382.18268 39.0 1
  382.20181 70.0 1
  383.1712 21.0 0
  383.19342 56.0 1
  383.21191 60.0 1
  386.28528 23.0 0
  387.96237 26.0 0
  395.19882 31.0 0
  395.94827 21.0 0
  396.1192 17.0 0
  396.93024 18.0 0
  397.06485 17.0 0
  397.20053 37.0 1
  397.21335 76.0 1
  397.79654 20.0 0
  398.20178 33.0 0
  398.21985 116.0 2
  398.66602 18.0 0
  398.72681 21.0 0
  398.82388 21.0 0
  398.8353 18.0 0
  398.94653 21.0 0
  398.98953 20.0 0
  399.03833 20.0 0
  399.0639 18.0 0
  399.12222 24.0 0
  399.15601 214.0 3
  399.22916 67267.0 999
  399.28702 1741.0 26
  399.33539 70.0 1
  399.36337 30.0 0
//
