ACCESSION: MSBNK-RIKEN-PR300622
RECORD_TITLE: Mesaconitine; LC-ESI-QTOF; MS2
DATE: 2019.03.28
AUTHORS: Tetsuya Mori, Center for Sustainable Resource Science, RIKEN
LICENSE: CC BY-NC-SA
PUBLICATION: Tsugawa H., Nakabayashi R., Mori T., Yamada Y., Takahashi M., Rai A., Sugiyama R., Yamamoto H., Nakaya T., Yamazaki M., Kooke R., Bac-Molenaar JA., Oztolan-Erol N., Keurentjes JJB., Arita M., Saito K. (2019) "A cheminformatics approach to characterize metabolomes in stable-isotope-labeled organisms" Nature Methods 16(4):295-298. [doi:10.1038/s41592-019-0358-2]
COMMENT: registered in RIKEN PlaSMA
CH$NAME: Mesaconitine
CH$COMPOUND_CLASS: Aconitane-type diterpenoid alkaloids
CH$FORMULA: C33H45NO11
CH$EXACT_MASS: 631.719
CH$SMILES: COC[C@]12CN(C)C3[C@@H]4[C@H](OC)[C@H]1[C@]3([C@@H]1C[C@@]3(O)[C@H](OC(=O)C5=CC=CC=C5)[C@@H]1[C@]4(OC(C)=O)[C@@H](O)[C@@H]3OC)[C@H](C[C@H]2O)OC
CH$IUPAC: InChI=1S/C33H45NO11/c1-16(35)45-33-21-18(13-31(39,28(43-6)26(33)37)27(21)44-29(38)17-10-8-7-9-11-17)32-20(41-4)12-19(36)30(15-40-3)14-34(2)25(32)22(33)23(42-5)24(30)32/h7-11,18-28,36-37,39H,12-15H2,1-6H3/t18-,19-,20+,21-,22+,23+,24-,25?,26+,27-,28+,30+,31-,32+,33-/m1/s1
CH$LINK: INCHIKEY XUHJBXVYNBQQBD-TUWOXVOMSA-N
AC$INSTRUMENT: LC, Waters Acquity UPLC System; MS, Waters Xevo G2 Q-Tof
AC$INSTRUMENT_TYPE: LC-ESI-QTOF
AC$MASS_SPECTROMETRY: MS_TYPE MS2
AC$MASS_SPECTROMETRY: ION_MODE POSITIVE
AC$MASS_SPECTROMETRY: COLLISION_ENERGY 6V
AC$MASS_SPECTROMETRY: DESOLVATION_GAS_FLOW 800/h
AC$MASS_SPECTROMETRY: DESOLVATION_TEMPERATURE 450 C
AC$MASS_SPECTROMETRY: IONIZATION ESI
AC$CHROMATOGRAPHY: CAPILLARY_VOLTAGE +3.00 kV
AC$CHROMATOGRAPHY: COLUMN_NAME Acquity bridged ethyl hybrid C18 (1.7 um, 2.1 mm * 100 mm, Waters)
AC$CHROMATOGRAPHY: COLUMN_TEMPERATURE 40 C
AC$CHROMATOGRAPHY: FLOW_GRADIENT A/B = (99.5%/0.5% at 0 min, 99.5%/0.5% at 0.1 min, 20%/80% at 10 min, 0.5%/99.5% at 10.1 min, 0.5%/99.5% at 12.0 min, 99.5%/0.5% at 12.1 min, 99.5%/0.5% at 15.0 min)
AC$CHROMATOGRAPHY: FLOW_RATE 0.3 ml/min at 0 min, 0.3 ml/min at 10 min, 0.4 ml/min at 10.1 min, 0.4 ml/min at 14.4 min, 0.3 ml/min at 14.5 min
AC$CHROMATOGRAPHY: RETENTION_TIME 5.611533
AC$CHROMATOGRAPHY: SOLVENT A water including 0.1% formic acid
AC$CHROMATOGRAPHY: SOLVENT B acetonitrile including 0.1% formic acid
MS$FOCUSED_ION: PRECURSOR_TYPE [M+H]+
MS$FOCUSED_ION: PRECURSOR_M/Z 632.3065377
PK$SPLASH: splash10-001i-0000019000-66b6398251856a537c55
PK$NUM_PEAK: 15
PK$PEAK: m/z int. rel.int.
  105.03336 7.0 7
  354.17026 19.0 19
  508.22903 6.0 6
  512.25854 13.0 13
  522.25775 6.0 6
  540.24927 11.0 11
  540.27423 6.0 6
  541.26349 6.0 6
  572.28699 117.0 117
  573.28943 40.0 40
  574.3017 6.0 6
  582.26489 5.0 5
  632.23108 11.0 11
  632.30817 1000.0 999
  632.38361 21.0 21
//
