ACCESSION: MSBNK-RIKEN-PR301225
RECORD_TITLE: (-)-B-Hydrastine; LC-ESI-QTOF; MS2
DATE: 2019.03.28
AUTHORS: Tetsuya Mori, Center for Sustainable Resource Science, RIKEN
LICENSE: CC BY-NC-SA
PUBLICATION: Tsugawa H., Nakabayashi R., Mori T., Yamada Y., Takahashi M., Rai A., Sugiyama R., Yamamoto H., Nakaya T., Yamazaki M., Kooke R., Bac-Molenaar JA., Oztolan-Erol N., Keurentjes JJB., Arita M., Saito K. (2019) "A cheminformatics approach to characterize metabolomes in stable-isotope-labeled organisms" Nature Methods 16(4):295-298. [doi:10.1038/s41592-019-0358-2]
COMMENT: registered in RIKEN PlaSMA
CH$NAME: (-)-B-Hydrastine
CH$COMPOUND_CLASS: Phthalide isoquinolines
CH$FORMULA: C21H21NO6
CH$EXACT_MASS: 383.4
CH$SMILES: COC1=C(OC)C2=C(C=C1)[C@H](OC2=O)[C@@H]1N(C)CCC2=CC3=C(OCO3)C=C12
CH$IUPAC: InChI=1S/C21H21NO6/c1-22-7-6-11-8-15-16(27-10-26-15)9-13(11)18(22)19-12-4-5-14(24-2)20(25-3)17(12)21(23)28-19/h4-5,8-9,18-19H,6-7,10H2,1-3H3/t18-,19+/m1/s1
CH$LINK: INCHIKEY JZUTXVTYJDCMDU-MOPGFXCFSA-N
AC$INSTRUMENT: LC, Waters Acquity UPLC System; MS, Waters Xevo G2 Q-Tof
AC$INSTRUMENT_TYPE: LC-ESI-QTOF
AC$MASS_SPECTROMETRY: MS_TYPE MS2
AC$MASS_SPECTROMETRY: ION_MODE POSITIVE
AC$MASS_SPECTROMETRY: COLLISION_ENERGY 6V
AC$MASS_SPECTROMETRY: DESOLVATION_GAS_FLOW 800/h
AC$MASS_SPECTROMETRY: DESOLVATION_TEMPERATURE 450 C
AC$MASS_SPECTROMETRY: IONIZATION ESI
AC$CHROMATOGRAPHY: CAPILLARY_VOLTAGE +3.00 kV
AC$CHROMATOGRAPHY: COLUMN_NAME Acquity bridged ethyl hybrid C18 (1.7 um, 2.1 mm * 100 mm, Waters)
AC$CHROMATOGRAPHY: COLUMN_TEMPERATURE 40 C
AC$CHROMATOGRAPHY: FLOW_GRADIENT A/B = (99.5%/0.5% at 0 min, 99.5%/0.5% at 0.1 min, 20%/80% at 10 min, 0.5%/99.5% at 10.1 min, 0.5%/99.5% at 12.0 min, 99.5%/0.5% at 12.1 min, 99.5%/0.5% at 15.0 min)
AC$CHROMATOGRAPHY: FLOW_RATE 0.3 ml/min at 0 min, 0.3 ml/min at 10 min, 0.4 ml/min at 10.1 min, 0.4 ml/min at 14.4 min, 0.3 ml/min at 14.5 min
AC$CHROMATOGRAPHY: RETENTION_TIME 4.211233
AC$CHROMATOGRAPHY: SOLVENT A water including 0.1% formic acid
AC$CHROMATOGRAPHY: SOLVENT B acetonitrile including 0.1% formic acid
MS$FOCUSED_ION: PRECURSOR_TYPE [M+H]+
MS$FOCUSED_ION: PRECURSOR_M/Z 384.1441639
PK$SPLASH: splash10-006x-0395000000-57ee5ea61ee120f08650
PK$NUM_PEAK: 269
PK$PEAK: m/z int. rel.int.
  115.05222 7.0 7
  119.05029 13.0 13
  131.05093 14.0 14
  133.08543 8.0 8
  135.0376 8.0 8
  136.05042 8.0 8
  137.05405 8.0 8
  139.901 11.0 11
  143.04524 7.0 7
  143.05431 7.0 7
  148.18277 6.0 6
  149.05862 59.0 59
  149.06848 6.0 6
  150.06357 12.0 12
  150.06882 6.0 6
  158.13625 9.0 9
  159.04149 14.0 14
  160.05208 6.0 6
  162.09787 6.0 6
  163.07289 14.0 14
  164.04829 19.0 19
  164.79758 6.0 6
  166.08063 10.0 10
  174.06441 8.0 8
  175.05994 6.0 6
  175.06876 17.0 17
  175.07831 7.0 7
  175.72739 6.0 6
  176.06999 143.0 143
  177.04791 8.0 8
  177.07748 8.0 8
  178.07587 8.0 8
  178.56438 8.0 8
  181.10219 11.0 11
  182.84444 6.0 6
  187.0423 6.0 6
  188.0733 24.0 24
  188.08327 6.0 6
  189.0751 14.0 14
  189.08293 35.0 35
  189.90422 7.0 7
  190.08702 986.0 985
  191.06395 6.0 6
  191.08075 31.0 31
  191.08934 102.0 102
  192.06752 7.0 7
  192.08435 6.0 6
  193.05193 9.0 9
  194.07771 8.0 8
  195.05376 6.0 6
  195.06451 12.0 12
  195.42741 8.0 8
  205.06358 16.0 16
  206.0764 8.0 8
  206.0901 16.0 16
  206.41711 10.0 10
  207.07347 8.0 8
  208.07498 6.0 6
  209.09792 33.0 33
  210.10309 12.0 12
  219.07372 6.0 6
  219.08623 19.0 19
  220.08008 7.0 7
  220.09514 14.0 14
  221.06267 9.0 9
  221.1022 6.0 6
  222.03348 9.0 9
  222.05193 7.0 7
  222.07014 25.0 25
  222.10001 8.0 8
  223.06807 10.0 10
  229.21068 8.0 8
  230.06119 7.0 7
  232.04738 7.0 7
  233.04999 7.0 7
  233.06137 13.0 13
  234.07037 23.0 23
  234.17799 8.0 8
  234.29042 7.0 7
  235.0761 38.0 38
  235.63634 9.0 9
  236.08246 9.0 9
  236.09746 6.0 6
  237.06766 6.0 6
  237.08896 32.0 32
  237.09537 13.0 13
  238.09796 9.0 9
  239.11087 55.0 55
  240.10274 6.0 6
  240.11487 7.0 7
  240.12408 9.0 9
  245.0408 6.0 6
  246.06134 7.0 7
  247.05894 7.0 7
  247.07329 6.0 6
  247.08342 16.0 16
  248.05865 8.0 8
  248.09077 6.0 6
  249.04897 7.0 7
  249.09593 8.0 8
  250.05121 25.0 25
  250.05988 61.0 61
  251.06889 64.0 64
  252.08281 37.0 37
  255.10451 9.0 9
  259.07129 8.0 8
  260.03021 7.0 7
  260.05441 24.0 24
  261.04947 25.0 25
  262.05783 16.0 16
  262.06903 12.0 12
  263.06015 8.0 8
  263.0769 53.0 53
  263.55905 7.0 7
  264.02853 7.0 7
  264.07584 25.0 25
  264.09293 9.0 9
  265.05319 27.0 27
  265.08652 303.0 303
  265.10562 19.0 19
  266.0574 19.0 19
  266.07407 6.0 6
  266.08578 13.0 13
  266.0975 48.0 48
  267.07281 15.0 15
  267.08551 16.0 16
  267.1062 16.0 16
  267.28702 7.0 7
  272.04504 7.0 7
  272.53439 9.0 9
  273.02808 7.0 7
  273.05847 6.0 6
  274.0556 21.0 21
  274.0748 21.0 21
  275.04718 7.0 7
  275.06714 6.0 6
  275.0777 6.0 6
  275.56424 7.0 7
  276.04993 8.0 8
  276.07831 14.0 14
  277.04688 52.0 52
  277.07355 52.0 52
  277.08643 53.0 53
  277.10437 7.0 7
  278.05667 85.0 85
  278.08539 22.0 22
  278.09497 27.0 27
  278.62173 7.0 7
  278.79605 7.0 7
  279.06247 38.0 38
  279.07687 35.0 35
  279.09695 7.0 7
  279.11053 6.0 6
  280.05139 8.0 8
  280.07886 138.0 138
  281.08853 21.0 21
  282.08051 20.0 20
  282.09467 53.0 53
  283.07611 7.0 7
  283.09204 35.0 35
  283.10464 9.0 9
  284.77939 7.0 7
  285.08249 6.0 6
  285.33926 7.0 7
  286.51212 6.0 6
  287.07181 7.0 7
  287.11182 7.0 7
  287.83429 6.0 6
  289.07346 16.0 16
  290.04532 7.0 7
  290.06992 13.0 13
  291.06497 110.0 110
  292.05029 6.0 6
  292.07196 208.0 208
  292.0867 70.0 70
  293.04254 85.0 85
  293.08194 1000.0 999
  294.03192 6.0 6
  294.05176 8.0 8
  294.05908 14.0 14
  294.08484 162.0 162
  294.09677 63.0 63
  294.24234 7.0 7
  295.05814 7.0 7
  295.07718 40.0 40
  295.09622 274.0 274
  296.08252 9.0 9
  296.09863 14.0 14
  296.11139 9.0 9
  296.65155 6.0 6
  297.11838 16.0 16
  297.13428 11.0 11
  300.52237 6.0 6
  302.05679 54.0 54
  302.07733 7.0 7
  303.06378 19.0 19
  303.07343 7.0 7
  304.07993 122.0 122
  305.04138 30.0 30
  305.06354 13.0 13
  305.09012 32.0 32
  305.18137 7.0 7
  306.08722 29.0 29
  306.34268 7.0 7
  307.03998 9.0 9
  307.05972 38.0 38
  308.01483 11.0 11
  308.06784 156.0 156
  308.09802 11.0 11
  308.96326 9.0 9
  309.07715 30.0 30
  309.11401 20.0 20
  309.12961 7.0 7
  310.08008 28.0 28
  310.11786 8.0 8
  311.08261 9.0 9
  311.0968 31.0 31
  314.29202 6.0 6
  314.96735 7.0 7
  316.11945 6.0 6
  316.66174 8.0 8
  318.13638 7.0 7
  319.05099 9.0 9
  319.09698 7.0 7
  320.04932 21.0 21
  320.06561 118.0 118
  320.08502 14.0 14
  320.91409 7.0 7
  321.06708 50.0 50
  321.08191 21.0 21
  322.06247 11.0 11
  322.08017 65.0 65
  322.09195 27.0 27
  322.11603 7.0 7
  323.01257 16.0 16
  323.05316 8.0 8
  323.07858 218.0 218
  323.09113 799.0 798
  323.11993 12.0 12
  323.15326 6.0 6
  323.19421 10.0 10
  324.09598 206.0 206
  325.09552 18.0 18
  325.112 13.0 13
  325.12115 7.0 7
  325.7196 7.0 7
  330.92691 8.0 8
  332.0777 10.0 10
  333.09201 21.0 21
  334.10782 15.0 15
  335.07285 38.0 38
  335.1015 83.0 83
  336.05173 7.0 7
  336.06787 6.0 6
  336.08429 9.0 9
  336.09598 6.0 6
  336.11179 12.0 12
  337.09555 6.0 6
  337.12189 6.0 6
  338.07361 7.0 7
  342.09888 15.0 15
  348.08432 7.0 7
  349.12628 6.0 6
  351.09924 25.0 25
  351.1337 8.0 8
  366.1423 10.0 10
  381.8765 9.0 9
  384.11493 12.0 12
  384.14154 6.0 6
//
