ACCESSION: MSBNK-RIKEN-PR100444
RECORD_TITLE: Betaine; LC-ESI-QTOF; MS2; CE:30 V; [M+H]+
DATE: 2016.01.19 (Created 2009.09.10, modified 2011.05.06)
AUTHORS: Matsuda F, Suzuki M, Sawada Y, Plant Science Center, RIKEN.
LICENSE: CC BY-SA
COMMENT: Acquisition and generation of the data is financially supported in part by CREST/JST.
CH$NAME: Betaine
CH$NAME: Trimethylglycine
CH$NAME: Trimethylammonioacetate
CH$NAME: Oxyneurine
CH$NAME: (Carboxymethyl)trimethylammonium inner salt
CH$NAME: alpha-Earleine
CH$NAME: Trimethylaminoacetic acid
CH$NAME: Abromine
CH$NAME: Glycylbetaine
CH$NAME: Lycine
CH$NAME: Jortaine
CH$NAME: Trimethylglycocoll
CH$COMPOUND_CLASS: Amino acids
CH$FORMULA: C5H11NO2
CH$EXACT_MASS: 117.07898
CH$SMILES: [O-1]C(=O)C[N+1](C)(C)C
CH$IUPAC: InChI=1S/C5H11NO2/c1-6(2,3)4-5(7)8/h4H2,1-3H3
CH$LINK: CAS 107-43-7
CH$LINK: CHEMSPIDER 242
CH$LINK: KAPPAVIEW KPC00341
CH$LINK: KEGG C00719
CH$LINK: KNAPSACK C00007291
CH$LINK: PUBCHEM CID:247
CH$LINK: INCHIKEY KWIUHFFTVRNATP-UHFFFAOYSA-N
CH$LINK: COMPTOX DTXSID8022666
AC$INSTRUMENT: UPLC Q-Tof Premier, Waters
AC$INSTRUMENT_TYPE: LC-ESI-QTOF
AC$MASS_SPECTROMETRY: MS_TYPE MS2
AC$MASS_SPECTROMETRY: ION_MODE POSITIVE
AC$MASS_SPECTROMETRY: COLLISION_ENERGY 30 V
AC$MASS_SPECTROMETRY: DATAFORMAT Continuum
AC$MASS_SPECTROMETRY: DESOLVATION_GAS_FLOW 600.0 L/Hr
AC$MASS_SPECTROMETRY: DESOLVATION_TEMPERATURE 400 C
AC$MASS_SPECTROMETRY: FRAGMENTATION_METHOD LOW-ENERGY CID
AC$MASS_SPECTROMETRY: IONIZATION ESI
AC$MASS_SPECTROMETRY: SOURCE_TEMPERATURE 120 C
AC$CHROMATOGRAPHY: CAPILLARY_VOLTAGE 3.0 kV
AC$CHROMATOGRAPHY: SAMPLING_CONE 23.0 V
AC$CHROMATOGRAPHY: SOLVENT A CH3CN(0.1%HCOOH)
AC$CHROMATOGRAPHY: SOLVENT B H2O(0.1%HCOOH)
MS$FOCUSED_ION: PRECURSOR_M/Z 118.08677
MS$FOCUSED_ION: PRECURSOR_TYPE [M+H]+
PK$SPLASH: splash10-0aor-9500000000-9a0f1853188052d798c6
PK$NUM_PEAK: 3
PK$PEAK: m/z int. rel.int.
  58.0662 45.06 999
  59.0743 13.83 307
  118.0868 37.37 829
//
