ACCESSION: MSBNK-RIKEN-PR040135
RECORD_TITLE: Luteolin-7-O-glucoside; LC-ESI-QTOF; MS2; CE:Ramp 5-60 V; [M-H]-
DATE: 2016.01.19 (Created 2008.02.14, modified 2011.05.06)
AUTHORS: Matsuda F, Plant Science Center, RIKEN.
LICENSE: CC BY-SA
CH$NAME: Luteolin-7-O-glucoside
CH$NAME: Cynaroside
CH$NAME: Lutl_7_Glc
CH$NAME: 2-(3,4-dihydroxyphenyl)-5-hydroxy-7-[(2S,3R,4S,5R,6R)-3,4,5-trihydroxy-6-(hydroxymethyl)oxan-2-yl]oxy-chromen-4-one
CH$COMPOUND_CLASS: Natural Product
CH$FORMULA: C21H20O11
CH$EXACT_MASS: 448.10056
CH$SMILES: OC[C@@H](O1)[C@@H](O)[C@H](O)[C@@H](O)[C@@H]1Oc(c4)cc(O2)c(c(O)4)C(=O)C=C2c(c3)cc(O)c(O)c3
CH$IUPAC: InChI=1S/C21H20O11/c22-7-16-18(27)19(28)20(29)21(32-16)30-9-4-12(25)17-13(26)6-14(31-15(17)5-9)8-1-2-10(23)11(24)3-8/h1-6,16,18-25,27-29H,7H2/t16-,18-,19+,20-,21-/m1/s1
CH$LINK: CAS 5373-11-5
CH$LINK: KEGG C03951
CH$LINK: PUBCHEM CID:5280637
CH$LINK: INCHIKEY PEFNSGRTCBGNAN-QNDFHXLGSA-N
CH$LINK: COMPTOX DTXSID50949617
AC$INSTRUMENT: UPLC Q-Tof Premier, Waters
AC$INSTRUMENT_TYPE: LC-ESI-QTOF
AC$MASS_SPECTROMETRY: MS_TYPE MS2
AC$MASS_SPECTROMETRY: ION_MODE NEGATIVE
AC$MASS_SPECTROMETRY: COLLISION_ENERGY Ramp 5-60 V
AC$MASS_SPECTROMETRY: DATAFORMAT Continuum
AC$MASS_SPECTROMETRY: DESOLVATION_GAS_FLOW 600.0 L/Hr
AC$MASS_SPECTROMETRY: DESOLVATION_TEMPERATURE 400 C
AC$MASS_SPECTROMETRY: FRAGMENTATION_METHOD LOW-ENERGY CID
AC$MASS_SPECTROMETRY: IONIZATION ESI
AC$MASS_SPECTROMETRY: SCANNING 1.0 sec/scan (m/z = 50-1000)
AC$MASS_SPECTROMETRY: SOURCE_TEMPERATURE 120 C
AC$CHROMATOGRAPHY: CAPILLARY_VOLTAGE 3.0 kV
AC$CHROMATOGRAPHY: SAMPLING_CONE 23.0 V
AC$CHROMATOGRAPHY: SOLVENT A CH3CN(0.1%HCOOH)
AC$CHROMATOGRAPHY: SOLVENT B H2O(0.1%HCOOH)
MS$FOCUSED_ION: FULL_SCAN_FRAGMENT_ION_PEAK 447.1
MS$FOCUSED_ION: ION_TYPE [M-H]-
MS$DATA_PROCESSING: WHOLE MassLynx 4.1
PK$SPLASH: splash10-0012-0190500000-bcf45c556204b1713d58
PK$NUM_PEAK: 21
PK$PEAK: m/z int. rel.int.
  83.0126 89.29 12
  107.0130 255.2 35
  133.0291 384.7 53
  134.0365 115.4 16
  149.0238 92.94 13
  151.0030 401.4 56
  175.0394 117.3 16
  183.0455 78.03 10
  199.0401 162.5 22
  211.0399 148.4 20
  227.0345 286.3 40
  255.0287 158.8 22
  256.0363 357.4 50
  283.0251 104.5 14
  284.0320 4149 581
  285.0391 7122 999
  285.2975 87.43 12
  286.0432 746.1 104
  327.0517 112.6 15
  447.0927 6925 971
  448.0959 1084 152
//
