ACCESSION: MSBNK-RIKEN-PR300840
RECORD_TITLE: Speciosine; LC-ESI-QTOF; MS2
DATE: 2019.03.28
AUTHORS: Tetsuya Mori, Center for Sustainable Resource Science, RIKEN
LICENSE: CC BY-NC-SA
PUBLICATION: Tsugawa H., Nakabayashi R., Mori T., Yamada Y., Takahashi M., Rai A., Sugiyama R., Yamamoto H., Nakaya T., Yamazaki M., Kooke R., Bac-Molenaar JA., Oztolan-Erol N., Keurentjes JJB., Arita M., Saito K. (2019) "A cheminformatics approach to characterize metabolomes in stable-isotope-labeled organisms" Nature Methods 16(4):295-298. [doi:10.1038/s41592-019-0358-2]
COMMENT: registered in RIKEN PlaSMA
CH$NAME: Speciosine
CH$COMPOUND_CLASS: Tropones
CH$FORMULA: C28H31NO6
CH$EXACT_MASS: 477.557
CH$SMILES: COC1=C(OC)C(OC)=C2C(CCC(N(C)CC3=CC=CC=C3O)C3=CC(=O)C(OC)=CC=C23)=C1
CH$IUPAC: InChI=1S/C28H31NO6/c1-29(16-18-8-6-7-9-22(18)30)21-12-10-17-14-25(33-3)27(34-4)28(35-5)26(17)19-11-13-24(32-2)23(31)15-20(19)21/h6-9,11,13-15,21,30H,10,12,16H2,1-5H3
CH$LINK: INCHIKEY SOFSXTKPGSIDCI-UHFFFAOYSA-N
AC$INSTRUMENT: LC, Waters Acquity UPLC System; MS, Waters Xevo G2 Q-Tof
AC$INSTRUMENT_TYPE: LC-ESI-QTOF
AC$MASS_SPECTROMETRY: MS_TYPE MS2
AC$MASS_SPECTROMETRY: ION_MODE POSITIVE
AC$MASS_SPECTROMETRY: COLLISION_ENERGY 6V
AC$MASS_SPECTROMETRY: DESOLVATION_GAS_FLOW 800/h
AC$MASS_SPECTROMETRY: DESOLVATION_TEMPERATURE 450 C
AC$MASS_SPECTROMETRY: IONIZATION ESI
AC$CHROMATOGRAPHY: CAPILLARY_VOLTAGE +3.00 kV
AC$CHROMATOGRAPHY: COLUMN_NAME Acquity bridged ethyl hybrid C18 (1.7 um, 2.1 mm * 100 mm, Waters)
AC$CHROMATOGRAPHY: COLUMN_TEMPERATURE 40 C
AC$CHROMATOGRAPHY: FLOW_GRADIENT A/B = (99.5%/0.5% at 0 min, 99.5%/0.5% at 0.1 min, 20%/80% at 10 min, 0.5%/99.5% at 10.1 min, 0.5%/99.5% at 12.0 min, 99.5%/0.5% at 12.1 min, 99.5%/0.5% at 15.0 min)
AC$CHROMATOGRAPHY: FLOW_RATE 0.3 ml/min at 0 min, 0.3 ml/min at 10 min, 0.4 ml/min at 10.1 min, 0.4 ml/min at 14.4 min, 0.3 ml/min at 14.5 min
AC$CHROMATOGRAPHY: RETENTION_TIME 5.032233
AC$CHROMATOGRAPHY: SOLVENT A water including 0.1% formic acid
AC$CHROMATOGRAPHY: SOLVENT B acetonitrile including 0.1% formic acid
MS$FOCUSED_ION: PRECURSOR_TYPE [M+H]+
MS$FOCUSED_ION: PRECURSOR_M/Z 478.2224142
PK$SPLASH: splash10-022c-0039000000-223ab458a4dc795e2b6e
PK$NUM_PEAK: 211
PK$PEAK: m/z int. rel.int.
  70.0667 9.0 9
  72.04399 39.0 39
  107.04957 14.0 14
  136.07744 37.0 37
  137.05418 8.0 8
  137.0616 13.0 13
  148.07538 8.0 8
  151.07549 8.0 8
  175.07568 6.0 6
  181.08678 40.0 40
  188.07808 7.0 7
  191.07027 15.0 15
  193.10645 7.0 7
  204.1058 6.0 6
  205.08615 14.0 14
  207.09093 8.0 8
  219.08275 9.0 9
  219.10153 16.0 16
  219.11043 8.0 8
  220.08588 7.0 7
  221.09706 8.0 8
  223.07755 6.0 6
  236.07637 6.0 6
  237.09251 8.0 8
  238.10005 6.0 6
  239.10912 8.0 8
  241.08467 12.0 12
  242.08687 13.0 13
  242.09921 6.0 6
  243.10046 6.0 6
  247.07719 6.0 6
  248.11238 9.0 9
  248.12462 6.0 6
  248.13628 5.0 5
  249.08739 8.0 8
  249.12595 6.0 6
  250.09044 8.0 8
  251.12465 10.0 10
  252.08302 5.0 5
  252.10732 18.0 18
  253.08929 5.0 5
  254.09215 8.0 8
  255.06161 6.0 6
  255.09985 20.0 20
  256.10971 85.0 85
  257.08069 5.0 5
  257.10858 12.0 12
  257.11911 18.0 18
  263.08362 6.0 6
  264.10507 8.0 8
  265.09302 10.0 10
  266.09055 7.0 7
  266.10153 6.0 6
  266.11783 8.0 8
  267.1008 58.0 58
  268.08237 7.0 7
  268.10324 17.0 17
  268.1156 10.0 10
  268.12698 8.0 8
  269.08713 7.0 7
  269.11554 6.0 6
  269.12845 14.0 14
  270.10825 10.0 10
  270.12692 21.0 21
  271.07956 7.0 7
  271.09537 10.0 10
  271.13007 10.0 10
  272.10333 53.0 53
  272.11475 24.0 24
  273.10873 19.0 19
  276.10641 7.0 7
  277.08914 23.0 23
  277.11063 25.0 25
  278.08435 25.0 25
  278.09805 73.0 73
  278.12491 7.0 7
  279.06308 11.0 11
  279.07996 8.0 8
  279.0914 15.0 15
  279.10486 50.0 50
  279.12518 72.0 72
  280.10114 31.0 31
  280.12888 18.0 18
  280.14316 17.0 17
  281.08868 13.0 13
  281.10922 13.0 13
  281.12277 30.0 30
  281.14661 6.0 6
  282.09213 21.0 21
  282.12341 84.0 84
  282.13583 18.0 18
  283.08676 14.0 14
  283.10287 12.0 12
  283.13486 22.0 22
  284.09006 10.0 10
  284.10864 48.0 48
  284.13876 8.0 8
  285.07709 14.0 14
  285.11188 66.0 66
  286.11932 24.0 24
  286.13596 8.0 8
  287.10123 6.0 6
  287.12753 82.0 82
  288.0947 7.0 7
  288.13107 16.0 16
  291.12338 8.0 8
  292.09851 11.0 11
  292.11353 11.0 11
  293.09897 16.0 16
  293.11404 5.0 5
  293.12726 7.0 7
  294.07861 13.0 13
  294.09464 24.0 24
  294.10901 22.0 22
  294.12659 8.0 8
  295.08499 24.0 24
  295.10065 64.0 64
  295.11951 18.0 18
  295.1326 6.0 6
  296.10129 25.0 25
  296.1188 14.0 14
  296.13293 25.0 25
  297.0925 5.0 5
  297.11252 16.0 16
  297.13107 13.0 13
  297.14334 11.0 11
  298.11972 36.0 36
  299.09131 6.0 6
  299.12067 17.0 17
  299.1312 23.0 23
  300.07782 5.0 5
  300.10089 56.0 56
  300.13828 15.0 15
  301.10114 31.0 31
  301.13843 28.0 28
  301.14999 18.0 18
  302.10016 7.0 7
  302.12009 20.0 20
  303.12997 8.0 8
  307.12381 19.0 19
  308.12762 93.0 93
  309.09 8.0 8
  309.1127 74.0 74
  309.13315 140.0 140
  310.07587 6.0 6
  310.11978 665.0 664
  310.15222 9.0 9
  311.06808 6.0 6
  311.09082 80.0 80
  311.12231 200.0 200
  312.08594 15.0 15
  312.1077 16.0 16
  312.12543 47.0 47
  312.15897 239.0 239
  313.10843 22.0 22
  313.12668 32.0 32
  313.13953 62.0 62
  313.16812 29.0 29
  314.11261 32.0 32
  314.14938 13.0 13
  314.16687 5.0 5
  315.12183 186.0 186
  315.15137 5.0 5
  315.17068 8.0 8
  316.12656 57.0 57
  316.14328 9.0 9
  322.14011 10.0 10
  322.15286 5.0 5
  323.13385 11.0 11
  323.15283 32.0 32
  324.10901 15.0 15
  324.12442 76.0 76
  324.14856 7.0 7
  324.1608 5.0 5
  325.11603 38.0 38
  325.13272 101.0 101
  326.1167 203.0 203
  327.10812 12.0 12
  327.12479 58.0 58
  328.12466 24.0 24
  328.15225 21.0 21
  329.13766 39.0 39
  338.13397 19.0 19
  339.14185 45.0 45
  340.11395 5.0 5
  340.15289 437.0 437
  341.14249 327.0 327
  341.16846 32.0 32
  342.13541 166.0 166
  342.15744 17.0 17
  342.17358 6.0 6
  343.13794 35.0 35
  343.1604 12.0 12
  344.12009 7.0 7
  344.1485 86.0 86
  344.16156 33.0 33
  345.1412 9.0 9
  345.15735 16.0 16
  354.17325 38.0 38
  356.14014 12.0 12
  356.14853 22.0 22
  356.17007 6.0 6
  357.15665 88.0 88
  358.14581 9.0 9
  358.16287 15.0 15
  372.13806 9.0 9
  372.17941 1000.0 999
  373.14249 6.0 6
  373.18182 282.0 282
  374.18799 44.0 44
  478.22382 18.0 18
//
