ACCESSION: MSBNK-RIKEN-PR100803
RECORD_TITLE: Acaciin; LC-ESI-QTOF; MS2; CE:Ramp 5-60 V; [M-H]-
DATE: 2016.01.19 (Created 2010.06.21, modified 2011.05.06)
AUTHORS: Matsuda F, Suzuki M, Sawada Y, Plant Science Center, RIKEN.
LICENSE: CC BY-SA
COMMENT: Acquisition and generation of the data is financially supported in part by CREST/JST.
CH$NAME: Linarin
CH$NAME: Acac-7-Glc-6pp-Rha
CH$NAME: acacetin-7-O-rutinoside
CH$NAME: Acaciin
CH$NAME: Buddieoflavonoloside
CH$COMPOUND_CLASS: N/A
CH$FORMULA: C28H32O14
CH$EXACT_MASS: 592.17921
CH$SMILES: c(O)(c3)c(C(=O)2)c(cc3OC(O4)C(O)C(O)C(O)C(COC(O5)C(O)C(C(C5C)O)O)4)OC(=C2)c(c1)ccc(OC)c1
CH$IUPAC: InChI=1S/C28H32O14/c1-11-21(31)23(33)25(35)27(39-11)38-10-19-22(32)24(34)26(36)28(42-19)40-14-7-15(29)20-16(30)9-17(41-18(20)8-14)12-3-5-13(37-2)6-4-12/h3-9,11,19,21-29,31-36H,10H2,1-2H3/t11-,19+,21-,22+,23+,24-,25+,26+,27+,28+/m0/s1
CH$LINK: CAS 480-36-4
CH$LINK: CHEMSPIDER 4475957
CH$LINK: KNAPSACK C00004205
CH$LINK: PUBCHEM CID:5317025
CH$LINK: INCHIKEY YFVGIJBUXMQFOF-PJOVQGMDSA-N
CH$LINK: COMPTOX DTXSID40197382
AC$INSTRUMENT: UPLC Q-Tof Premier, Waters
AC$INSTRUMENT_TYPE: LC-ESI-QTOF
AC$MASS_SPECTROMETRY: MS_TYPE MS2
AC$MASS_SPECTROMETRY: ION_MODE NEGATIVE
AC$MASS_SPECTROMETRY: COLLISION_ENERGY Ramp 5-60 V
AC$MASS_SPECTROMETRY: DATAFORMAT Continuum
AC$MASS_SPECTROMETRY: DESOLVATION_GAS_FLOW 600.0 L/Hr
AC$MASS_SPECTROMETRY: DESOLVATION_TEMPERATURE 400 C
AC$MASS_SPECTROMETRY: FRAGMENTATION_METHOD LOW-ENERGY CID
AC$MASS_SPECTROMETRY: IONIZATION ESI
AC$MASS_SPECTROMETRY: SOURCE_TEMPERATURE 120 C
AC$CHROMATOGRAPHY: CAPILLARY_VOLTAGE 3.0 kV
AC$CHROMATOGRAPHY: SAMPLING_CONE 23.0 V
AC$CHROMATOGRAPHY: SOLVENT A CH3CN(0.1%HCOOH)
AC$CHROMATOGRAPHY: SOLVENT B H2O(0.1%HCOOH)
MS$FOCUSED_ION: PRECURSOR_M/Z 591.1714
MS$FOCUSED_ION: PRECURSOR_TYPE [M-H]-
PK$SPLASH: splash10-001i-0090000000-c22055dc866c88d0b4e4
PK$NUM_PEAK: 3
PK$PEAK: m/z int. rel.int.
  268.0383 576.6 384
  283.0618 1502 999
  591.1714 64.37 43
//
