ACCESSION: MSBNK-RIKEN-PR300024
RECORD_TITLE: Voacristine; LC-ESI-QTOF; MS2
DATE: 2019.03.28
AUTHORS: Tetsuya Mori, Center for Sustainable Resource Science, RIKEN
LICENSE: CC BY-NC-SA
PUBLICATION: Tsugawa H., Nakabayashi R., Mori T., Yamada Y., Takahashi M., Rai A., Sugiyama R., Yamamoto H., Nakaya T., Yamazaki M., Kooke R., Bac-Molenaar JA., Oztolan-Erol N., Keurentjes JJB., Arita M., Saito K. (2019) "A cheminformatics approach to characterize metabolomes in stable-isotope-labeled organisms" Nature Methods 16(4):295-298. [doi:10.1038/s41592-019-0358-2]
COMMENT: registered in RIKEN PlaSMA
CH$NAME: Voacristine
CH$COMPOUND_CLASS: Ibogan-type alkaloids
CH$FORMULA: C22H28N2O4
CH$EXACT_MASS: 384.476
CH$SMILES: COC(=O)[C@@]12C[C@H]3C[C@H]([C@H](C)O)[C@@H]1N(C3)CCC1=C2NC2=C1C=C(OC)C=C2
CH$IUPAC: InChI=1S/C22H28N2O4/c1-12(25)16-8-13-10-22(21(26)28-3)19-15(6-7-24(11-13)20(16)22)17-9-14(27-2)4-5-18(17)23-19/h4-5,9,12-13,16,20,23,25H,6-8,10-11H2,1-3H3/t12-,13+,16+,20-,22+/m0/s1
CH$LINK: INCHIKEY OYMQKBZMKFJPMH-VJMPXSKLSA-N
AC$INSTRUMENT: LC, Waters Acquity UPLC System; MS, Waters Xevo G2 Q-Tof
AC$INSTRUMENT_TYPE: LC-ESI-QTOF
AC$MASS_SPECTROMETRY: MS_TYPE MS2
AC$MASS_SPECTROMETRY: ION_MODE POSITIVE
AC$MASS_SPECTROMETRY: COLLISION_ENERGY 6V
AC$MASS_SPECTROMETRY: DESOLVATION_GAS_FLOW 800/h
AC$MASS_SPECTROMETRY: DESOLVATION_TEMPERATURE 450 C
AC$MASS_SPECTROMETRY: IONIZATION ESI
AC$CHROMATOGRAPHY: CAPILLARY_VOLTAGE +3.00 kV
AC$CHROMATOGRAPHY: COLUMN_NAME Acquity bridged ethyl hybrid C18 (1.7 um, 2.1 mm * 100 mm, Waters)
AC$CHROMATOGRAPHY: COLUMN_TEMPERATURE 40 C
AC$CHROMATOGRAPHY: FLOW_GRADIENT A/B = (99.5%/0.5% at 0 min, 99.5%/0.5% at 0.1 min, 20%/80% at 10 min, 0.5%/99.5% at 10.1 min, 0.5%/99.5% at 12.0 min, 99.5%/0.5% at 12.1 min, 99.5%/0.5% at 15.0 min)
AC$CHROMATOGRAPHY: FLOW_RATE 0.3 ml/min at 0 min, 0.3 ml/min at 10 min, 0.4 ml/min at 10.1 min, 0.4 ml/min at 14.4 min, 0.3 ml/min at 14.5 min
AC$CHROMATOGRAPHY: RETENTION_TIME 4.611467
AC$CHROMATOGRAPHY: SOLVENT A water including 0.1% formic acid
AC$CHROMATOGRAPHY: SOLVENT B acetonitrile including 0.1% formic acid
MS$FOCUSED_ION: PRECURSOR_TYPE [M+H]+
MS$FOCUSED_ION: PRECURSOR_M/Z 385.2121838
PK$SPLASH: splash10-000i-0009000000-d5b4d8812012094e789c
PK$NUM_PEAK: 27
PK$PEAK: m/z int. rel.int.
  122.09558 11.0 11
  136.11107 34.0 34
  148.11281 9.0 9
  174.09007 27.0 27
  186.09315 14.0 14
  189.10457 5.0 5
  200.10606 8.0 8
  201.10291 6.0 6
  210.09189 13.0 13
  214.08646 7.0 7
  232.09857 7.0 7
  238.09203 5.0 5
  246.11609 8.0 8
  258.11258 8.0 8
  279.15027 7.0 7
  292.15741 8.0 8
  307.18109 44.0 44
  308.18369 15.0 15
  335.17441 64.0 64
  336.17743 15.0 15
  367.14594 5.0 5
  367.20105 153.0 153
  368.20526 36.0 36
  369.20966 6.0 6
  385.15964 6.0 6
  385.21271 1000.0 999
  385.2695 28.0 28
//
