ACCESSION: MSBNK-RIKEN-PR301535
RECORD_TITLE: (-)-Eburnamonine; LC-ESI-QTOF; MS2
DATE: 2019.03.28
AUTHORS: Tetsuya Mori, Center for Sustainable Resource Science, RIKEN
LICENSE: CC BY-NC-SA
PUBLICATION: Tsugawa H., Nakabayashi R., Mori T., Yamada Y., Takahashi M., Rai A., Sugiyama R., Yamamoto H., Nakaya T., Yamazaki M., Kooke R., Bac-Molenaar JA., Oztolan-Erol N., Keurentjes JJB., Arita M., Saito K. (2019) "A cheminformatics approach to characterize metabolomes in stable-isotope-labeled organisms" Nature Methods 16(4):295-298. [doi:10.1038/s41592-019-0358-2]
COMMENT: registered in RIKEN PlaSMA
CH$NAME: (-)-Eburnamonine
CH$COMPOUND_CLASS: Eburnan-type alkaloids
CH$FORMULA: C19H22N2O
CH$EXACT_MASS: 294.398
CH$SMILES: CCC12CCCN3CCC4=C(C13)N(C1=CC=CC=C41)C(=O)C2
CH$IUPAC: InChI=1S/C19H22N2O/c1-2-19-9-5-10-20-11-8-14-13-6-3-4-7-15(13)21(16(22)12-19)17(14)18(19)20/h3-4,6-7,18H,2,5,8-12H2,1H3
CH$LINK: INCHIKEY WYJAPUKIYAZSEM-UHFFFAOYSA-N
AC$INSTRUMENT: LC, Waters Acquity UPLC System; MS, Waters Xevo G2 Q-Tof
AC$INSTRUMENT_TYPE: LC-ESI-QTOF
AC$MASS_SPECTROMETRY: MS_TYPE MS2
AC$MASS_SPECTROMETRY: ION_MODE POSITIVE
AC$MASS_SPECTROMETRY: COLLISION_ENERGY 6V
AC$MASS_SPECTROMETRY: DESOLVATION_GAS_FLOW 800/h
AC$MASS_SPECTROMETRY: DESOLVATION_TEMPERATURE 450 C
AC$MASS_SPECTROMETRY: IONIZATION ESI
AC$CHROMATOGRAPHY: CAPILLARY_VOLTAGE +3.00 kV
AC$CHROMATOGRAPHY: COLUMN_NAME Acquity bridged ethyl hybrid C18 (1.7 um, 2.1 mm * 100 mm, Waters)
AC$CHROMATOGRAPHY: COLUMN_TEMPERATURE 40 C
AC$CHROMATOGRAPHY: FLOW_GRADIENT A/B = (99.5%/0.5% at 0 min, 99.5%/0.5% at 0.1 min, 20%/80% at 10 min, 0.5%/99.5% at 10.1 min, 0.5%/99.5% at 12.0 min, 99.5%/0.5% at 12.1 min, 99.5%/0.5% at 15.0 min)
AC$CHROMATOGRAPHY: FLOW_RATE 0.3 ml/min at 0 min, 0.3 ml/min at 10 min, 0.4 ml/min at 10.1 min, 0.4 ml/min at 14.4 min, 0.3 ml/min at 14.5 min
AC$CHROMATOGRAPHY: RETENTION_TIME 4.648283
AC$CHROMATOGRAPHY: SOLVENT A water including 0.1% formic acid
AC$CHROMATOGRAPHY: SOLVENT B acetonitrile including 0.1% formic acid
MS$FOCUSED_ION: PRECURSOR_TYPE [M+H]+
MS$FOCUSED_ION: PRECURSOR_M/Z 295.1804898
PK$SPLASH: splash10-000j-0390000000-68f3c07b53c56933f725
PK$NUM_PEAK: 214
PK$PEAK: m/z int. rel.int.
  67.05726 9.0 9
  70.05869 9.0 9
  70.06462 52.0 52
  81.07042 7.0 7
  83.05256 22.0 22
  83.07488 24.0 24
  84.07736 25.0 25
  84.0817 81.0 81
  85.08727 8.0 8
  93.07117 11.0 11
  94.06643 6.0 6
  95.08182 8.0 8
  96.08123 15.0 15
  98.09732 15.0 15
  99.09969 5.0 5
  105.03181 7.0 7
  107.0851 43.0 43
  108.08004 8.0 8
  110.09314 9.0 9
  111.08035 21.0 21
  112.11237 11.0 11
  118.06572 7.0 7
  119.08832 9.0 9
  121.06416 18.0 18
  121.09882 8.0 8
  122.06222 13.0 13
  122.08941 7.0 7
  122.09934 11.0 11
  123.07609 10.0 10
  123.08244 10.0 10
  124.07037 18.0 18
  124.07668 36.0 36
  124.11016 24.0 24
  129.07069 7.0 7
  130.06403 32.0 32
  131.07372 15.0 15
  132.07219 11.0 11
  132.08127 39.0 39
  133.06241 23.0 23
  133.07532 8.0 8
  134.09674 14.0 14
  134.10374 7.0 7
  135.08307 7.0 7
  138.09041 14.0 14
  142.06758 5.0 5
  143.07216 9.0 9
  144.08089 201.0 201
  145.07983 21.0 21
  146.08929 6.0 6
  146.10251 14.0 14
  147.07848 16.0 16
  149.06796 5.0 5
  150.07034 7.0 7
  150.09091 89.0 89
  151.09181 7.0 7
  151.10133 8.0 8
  152.10718 114.0 114
  153.1095 11.0 11
  153.11774 6.0 6
  154.06259 9.0 9
  155.07346 15.0 15
  156.08064 25.0 25
  157.09271 15.0 15
  158.06007 27.0 27
  158.09651 39.0 39
  159.0619 7.0 7
  164.09441 5.0 5
  164.10823 6.0 6
  167.07278 20.0 20
  168.08096 76.0 76
  169.08051 16.0 16
  169.08899 52.0 52
  170.05748 28.0 28
  170.09137 22.0 22
  170.09897 24.0 24
  171.09091 8.0 8
  172.11473 7.0 7
  180.06425 5.0 5
  180.08313 53.0 53
  181.08716 88.0 88
  181.09926 11.0 11
  182.05467 9.0 9
  182.06342 6.0 6
  182.0947 69.0 69
  182.10271 26.0 26
  183.06886 14.0 14
  183.10123 30.0 30
  183.11009 10.0 10
  184.07545 57.0 57
  184.09413 5.0 5
  184.11333 45.0 45
  185.12334 7.0 7
  186.08916 8.0 8
  186.1286 9.0 9
  193.08792 19.0 19
  193.09946 6.0 6
  194.08266 5.0 5
  194.09459 25.0 25
  194.10394 11.0 11
  195.08264 8.0 8
  195.10352 76.0 76
  195.11275 28.0 28
  196.07661 106.0 106
  196.11324 90.0 90
  197.05278 6.0 6
  197.08365 242.0 242
  197.12045 12.0 12
  197.29337 5.0 5
  198.08803 71.0 71
  198.10675 10.0 10
  198.12537 66.0 66
  198.14056 14.0 14
  199.0947 6.0 6
  199.13393 7.0 7
  206.09468 17.0 17
  206.10402 8.0 8
  207.0896 7.0 7
  207.10765 23.0 23
  208.07703 26.0 26
  208.11322 84.0 84
  209.07057 5.0 5
  209.08548 31.0 31
  209.1189 79.0 79
  210.0632 5.0 5
  210.08165 26.0 26
  210.09207 80.0 80
  210.10965 15.0 15
  210.12816 85.0 85
  211.0941 44.0 44
  211.10347 22.0 22
  211.12471 13.0 13
  211.13669 6.0 6
  212.10681 95.0 95
  212.12332 8.0 8
  212.70026 6.0 6
  213.11476 19.0 19
  218.09123 8.0 8
  220.07475 8.0 8
  220.0826 7.0 7
  220.11261 11.0 11
  221.11993 26.0 26
  222.08379 34.0 34
  222.09671 33.0 33
  222.12852 55.0 55
  223.05113 6.0 6
  223.09901 337.0 337
  223.1246 18.0 18
  223.14052 7.0 7
  224.08455 7.0 7
  224.10216 57.0 57
  224.11322 53.0 53
  224.12677 164.0 164
  224.13724 128.0 128
  224.16043 7.0 7
  225.11482 162.0 162
  225.12936 52.0 52
  225.14964 8.0 8
  226.12192 309.0 309
  226.15155 5.0 5
  227.12569 36.0 36
  227.13751 5.0 5
  228.13885 11.0 11
  233.11848 5.0 5
  234.07928 6.0 6
  234.09286 42.0 42
  234.13403 6.0 6
  235.09985 95.0 95
  235.11642 7.0 7
  235.13914 5.0 5
  236.08646 9.0 9
  236.11021 59.0 59
  236.14381 91.0 91
  237.11316 204.0 204
  237.14571 8.0 8
  238.08292 16.0 16
  238.12207 1000.0 999
  238.16171 61.0 61
  239.12019 77.0 77
  239.12791 158.0 158
  239.16386 15.0 15
  240.11998 9.0 9
  240.14183 6.0 6
  246.1405 6.0 6
  248.10825 16.0 16
  248.13643 13.0 13
  248.14922 12.0 12
  249.09709 12.0 12
  249.11555 134.0 134
  249.15176 8.0 8
  250.11732 19.0 19
  250.12749 34.0 34
  250.16495 13.0 13
  251.12695 43.0 43
  252.11409 9.0 9
  252.13829 276.0 276
  253.14218 52.0 52
  253.15965 55.0 55
  253.17281 107.0 107
  254.15019 11.0 11
  254.17513 36.0 36
  260.14096 5.0 5
  263.12384 12.0 12
  264.13739 122.0 122
  265.14395 37.0 37
  266.15262 345.0 345
  267.14328 23.0 23
  267.15103 29.0 29
  267.16357 52.0 52
  278.14914 8.0 8
  278.15991 12.0 12
  279.12112 6.0 6
  295.14432 21.0 21
  295.18097 374.0 374
  295.20627 9.0 9
//
