ACCESSION: MSBNK-RIKEN-PR304402
RECORD_TITLE: Ginsenoside Rh3; LC-ESI-QTOF; MS2
DATE: 2019.03.28
AUTHORS: Tetsuya Mori, Center for Sustainable Resource Science, RIKEN
LICENSE: CC BY-NC-SA
PUBLICATION: Tsugawa H., Nakabayashi R., Mori T., Yamada Y., Takahashi M., Rai A., Sugiyama R., Yamamoto H., Nakaya T., Yamazaki M., Kooke R., Bac-Molenaar JA., Oztolan-Erol N., Keurentjes JJB., Arita M., Saito K. (2019) "A cheminformatics approach to characterize metabolomes in stable-isotope-labeled organisms" Nature Methods 16(4):295-298. [doi:10.1038/s41592-019-0358-2]
COMMENT: registered in RIKEN PlaSMA
CH$NAME: Ginsenoside Rh3
CH$COMPOUND_CLASS: Triterpenoids
CH$FORMULA: C36H60O7
CH$EXACT_MASS: 604.869
CH$SMILES: CC(C)=CC\C=C(\C)[C@H]1CC[C@@]2(C)[C@@H]1[C@@H](O)CC1[C@@]3(C)CCC(O[C@@H]4O[C@H](CO)[C@@H](O)[C@H](O)[C@H]4O)C(C)(C)C3CC[C@@]21C
CH$IUPAC: InChI=1S/C36H60O7/c1-20(2)10-9-11-21(3)22-12-16-36(8)28(22)23(38)18-26-34(6)15-14-27(33(4,5)25(34)13-17-35(26,36)7)43-32-31(41)30(40)29(39)24(19-37)42-32/h10-11,22-32,37-41H,9,12-19H2,1-8H3/b21-11-/t22-,23+,24-,25?,26?,27?,28+,29-,30+,31-,32+,34+,35-,36+/m1/s1
CH$LINK: INCHIKEY PHLXREOMFNVWOH-WJJFPOJFSA-N
AC$INSTRUMENT: LC, Waters Acquity UPLC System; MS, Waters Xevo G2 Q-Tof
AC$INSTRUMENT_TYPE: LC-ESI-QTOF
AC$MASS_SPECTROMETRY: MS_TYPE MS2
AC$MASS_SPECTROMETRY: ION_MODE POSITIVE
AC$MASS_SPECTROMETRY: COLLISION_ENERGY 6V
AC$MASS_SPECTROMETRY: DESOLVATION_GAS_FLOW 800/h
AC$MASS_SPECTROMETRY: DESOLVATION_TEMPERATURE 450 C
AC$MASS_SPECTROMETRY: IONIZATION ESI
AC$CHROMATOGRAPHY: CAPILLARY_VOLTAGE +3.00 kV
AC$CHROMATOGRAPHY: COLUMN_NAME Acquity bridged ethyl hybrid C18 (1.7 um, 2.1 mm * 100 mm, Waters)
AC$CHROMATOGRAPHY: COLUMN_TEMPERATURE 40 C
AC$CHROMATOGRAPHY: FLOW_GRADIENT A/B = (99.5%/0.5% at 0 min, 99.5%/0.5% at 0.1 min, 20%/80% at 10 min, 0.5%/99.5% at 10.1 min, 0.5%/99.5% at 12.0 min, 99.5%/0.5% at 12.1 min, 99.5%/0.5% at 15.0 min)
AC$CHROMATOGRAPHY: FLOW_RATE 0.3 ml/min at 0 min, 0.3 ml/min at 10 min, 0.4 ml/min at 10.1 min, 0.4 ml/min at 14.4 min, 0.3 ml/min at 14.5 min
AC$CHROMATOGRAPHY: RETENTION_TIME 7.631933
AC$CHROMATOGRAPHY: SOLVENT A water including 0.1% formic acid
AC$CHROMATOGRAPHY: SOLVENT B acetonitrile including 0.1% formic acid
MS$FOCUSED_ION: PRECURSOR_TYPE [M+H]+
MS$FOCUSED_ION: PRECURSOR_M/Z 605.4411807
PK$SPLASH: splash10-0a4i-0320009000-eb63b7392f13b1b23a73
PK$NUM_PEAK: 23
PK$PEAK: m/z int. rel.int.
  81.06984 31.0 31
  119.08272 31.0 31
  121.1099 31.0 31
  123.07841 38.0 38
  162.13583 33.0 33
  175.11929 61.0 61
  179.14792 38.0 38
  189.15475 33.0 33
  190.16754 52.0 52
  191.18121 36.0 36
  191.19157 40.0 40
  205.20154 38.0 38
  207.18069 31.0 31
  221.19542 69.0 69
  229.18221 56.0 56
  267.21823 31.0 31
  270.23892 38.0 38
  369.23914 42.0 42
  384.36868 38.0 38
  425.39468 31.0 31
  493.35617 31.0 31
  587.41949 79.0 79
  605.44128 1000.0 999
//
