ACCESSION: MSBNK-RIKEN-PR309091
RECORD_TITLE: FA 18:2+2O; LC-ESI-QTOF; MS2
DATE: 2019.03.28
AUTHORS: Tetsuya Mori, Center for Sustainable Resource Science, RIKEN
LICENSE: CC BY-NC-SA
PUBLICATION: Tsugawa H., Nakabayashi R., Mori T., Yamada Y., Takahashi M., Rai A., Sugiyama R., Yamamoto H., Nakaya T., Yamazaki M., Kooke R., Bac-Molenaar JA., Oztolan-Erol N., Keurentjes JJB., Arita M., Saito K. (2019) "A cheminformatics approach to characterize metabolomes in stable-isotope-labeled organisms" Nature Methods 16(4):295-298. [doi:10.1038/s41592-019-0358-2]
COMMENT: Annotation level-3
CH$NAME: FA 18:2+2O
CH$COMPOUND_CLASS: Oxidized fatty acids
CH$FORMULA: C18H32O4
CH$EXACT_MASS: 312.45
CH$SMILES: O=C(O)CCCCCCCC(O)C(O)CC=CCC=CCC
CH$IUPAC: InChI=1S/C18H32O4/c1-2-3-4-5-7-10-13-16(19)17(20)14-11-8-6-9-12-15-18(21)22/h3-4,7,10,16-17,19-20H,2,5-6,8-9,11-15H2,1H3,(H,21,22)
CH$LINK: INCHIKEY QRHSEDZBZMZPOA-UHFFFAOYSA-N
AC$INSTRUMENT: LC, Waters Acquity UPLC System; MS, Waters Xevo G2 Q-Tof
AC$INSTRUMENT_TYPE: LC-ESI-QTOF
AC$MASS_SPECTROMETRY: MS_TYPE MS2
AC$MASS_SPECTROMETRY: ION_MODE NEGATIVE
AC$MASS_SPECTROMETRY: COLLISION_ENERGY 6V
AC$MASS_SPECTROMETRY: DESOLVATION_GAS_FLOW 800/h
AC$MASS_SPECTROMETRY: DESOLVATION_TEMPERATURE 450 C
AC$MASS_SPECTROMETRY: IONIZATION ESI
AC$CHROMATOGRAPHY: CAPILLARY_VOLTAGE +3.00 kV
AC$CHROMATOGRAPHY: COLUMN_NAME Acquity bridged ethyl hybrid C18 (1.7 um, 2.1 mm * 100 mm, Waters)
AC$CHROMATOGRAPHY: COLUMN_TEMPERATURE 40 C
AC$CHROMATOGRAPHY: FLOW_GRADIENT A/B = (99.5%/0.5% at 0 min, 99.5%/0.5% at 0.1 min, 20%/80% at 10 min, 0.5%/99.5% at 10.1 min, 0.5%/99.5% at 12.0 min, 99.5%/0.5% at 12.1 min, 99.5%/0.5% at 15.0 min)
AC$CHROMATOGRAPHY: FLOW_RATE 0.3 ml/min at 0 min, 0.3 ml/min at 10 min, 0.4 ml/min at 10.1 min, 0.4 ml/min at 14.4 min, 0.3 ml/min at 14.5 min
AC$CHROMATOGRAPHY: RETENTION_TIME 7.32
AC$CHROMATOGRAPHY: SOLVENT A water including 0.1% formic acid
AC$CHROMATOGRAPHY: SOLVENT B acetonitrile including 0.1% formic acid
MS$FOCUSED_ION: PRECURSOR_TYPE [M-H]-
MS$FOCUSED_ION: PRECURSOR_M/Z 311.2222
PK$SPLASH: splash10-03di-0339000000-994bed34cb22e0771f18
PK$NUM_PEAK: 18
PK$PEAK: m/z int. rel.int.
  110.03367 22.0 39
  125.09673 16.0 28
  151.14978 16.0 28
  171.09819 58.0 103
  171.10536 42.0 74
  176.63237 33.0 58
  197.12366 19.0 34
  199.12357 49.0 87
  209.14948 40.0 71
  224.84836 16.0 28
  225.15681 36.0 64
  249.22089 18.0 32
  291.20889 23.0 41
  293.20367 35.0 62
  293.21884 50.0 88
  294.23071 17.0 30
  310.21136 16.0 28
  311.22446 565.0 999
//
