ACCESSION: MSBNK-RIKEN-PR305791
RECORD_TITLE: Luteolin-8-C-glucoside; LC-ESI-QTOF; MS2
DATE: 2019.03.28
AUTHORS: Tetsuya Mori, Center for Sustainable Resource Science, RIKEN
LICENSE: CC BY-NC-SA
PUBLICATION: Tsugawa H., Nakabayashi R., Mori T., Yamada Y., Takahashi M., Rai A., Sugiyama R., Yamamoto H., Nakaya T., Yamazaki M., Kooke R., Bac-Molenaar JA., Oztolan-Erol N., Keurentjes JJB., Arita M., Saito K. (2019) "A cheminformatics approach to characterize metabolomes in stable-isotope-labeled organisms" Nature Methods 16(4):295-298. [doi:10.1038/s41592-019-0358-2]
COMMENT: registered in RIKEN PlaSMA
CH$NAME: Luteolin-8-C-glucoside
CH$COMPOUND_CLASS: Flavonoid 8-C-glycosides
CH$FORMULA: C21H20O11
CH$EXACT_MASS: 448.38
CH$SMILES: OCC1OC(C(O)C(O)C1O)C1=C(O)C=C(O)C2=C1OC(=CC2=O)C1=CC(O)=C(O)C=C1
CH$IUPAC: InChI=1S/C21H20O11/c22-6-14-17(28)18(29)19(30)21(32-14)16-11(26)4-10(25)15-12(27)5-13(31-20(15)16)7-1-2-8(23)9(24)3-7/h1-5,14,17-19,21-26,28-30H,6H2
CH$LINK: INCHIKEY PLAPMLGJVGLZOV-UHFFFAOYSA-N
AC$INSTRUMENT: LC, Waters Acquity UPLC System; MS, Waters Xevo G2 Q-Tof
AC$INSTRUMENT_TYPE: LC-ESI-QTOF
AC$MASS_SPECTROMETRY: MS_TYPE MS2
AC$MASS_SPECTROMETRY: ION_MODE NEGATIVE
AC$MASS_SPECTROMETRY: COLLISION_ENERGY 6V
AC$MASS_SPECTROMETRY: DESOLVATION_GAS_FLOW 800/h
AC$MASS_SPECTROMETRY: DESOLVATION_TEMPERATURE 450 C
AC$MASS_SPECTROMETRY: IONIZATION ESI
AC$CHROMATOGRAPHY: CAPILLARY_VOLTAGE -2.75 kV
AC$CHROMATOGRAPHY: COLUMN_NAME Acquity bridged ethyl hybrid C18 (1.7 um, 2.1 mm * 100 mm, Waters)
AC$CHROMATOGRAPHY: COLUMN_TEMPERATURE 40 C
AC$CHROMATOGRAPHY: FLOW_GRADIENT A/B = (99.5%/0.5% at 0 min, 99.5%/0.5% at 0.1 min, 20%/80% at 10 min, 0.5%/99.5% at 10.1 min, 0.5%/99.5% at 12.0 min, 99.5%/0.5% at 12.1 min, 99.5%/0.5% at 15.0 min)
AC$CHROMATOGRAPHY: FLOW_RATE 0.3 ml/min at 0 min, 0.3 ml/min at 10 min, 0.4 ml/min at 10.1 min, 0.4 ml/min at 14.4 min, 0.3 ml/min at 14.5 min
AC$CHROMATOGRAPHY: RETENTION_TIME 3.7038
AC$CHROMATOGRAPHY: SOLVENT A water including 0.1% formic acid
AC$CHROMATOGRAPHY: SOLVENT B acetonitrile including 0.1% formic acid
MS$FOCUSED_ION: PRECURSOR_TYPE [M-H]-
MS$FOCUSED_ION: PRECURSOR_M/Z 447.09328504783
PK$SPLASH: splash10-001i-0930000000-bb7ec341e2d8108a9b20
PK$NUM_PEAK: 172
PK$PEAK: m/z int. rel.int.
  77.95732 11.0 11
  79.01649 39.0 39
  83.04875 15.0 15
  89.0411 14.0 14
  92.02273 28.0 28
  93.04085 10.0 10
  97.0309 12.0 12
  103.01834 18.0 18
  107.01352 46.0 46
  107.04832 13.0 13
  108.02138 28.0 28
  109.02815 78.0 78
  109.03258 38.0 38
  110.03063 15.0 15
  117.0333 18.0 18
  118.03854 15.0 15
  119.01071 12.0 12
  119.01606 18.0 18
  119.04649 98.0 98
  121.02188 10.0 10
  121.03055 11.0 11
  121.04122 13.0 13
  123.03969 26.0 26
  125.01957 67.0 67
  125.02853 33.0 33
  131.01717 13.0 13
  132.02429 35.0 35
  133.02879 1000.0 999
  134.03429 65.0 65
  135.00937 43.0 43
  135.04044 100.0 100
  136.00269 11.0 11
  136.02042 44.0 44
  136.04672 23.0 23
  137.01608 21.0 21
  142.03976 14.0 14
  143.04889 13.0 13
  147.04305 41.0 41
  148.0136 44.0 44
  149.02271 36.0 36
  151.00343 12.0 12
  151.03943 39.0 39
  153.06862 12.0 12
  157.02725 36.0 36
  157.06624 18.0 18
  158.03551 14.0 14
  158.07037 13.0 13
  159.02055 12.0 12
  160.00577 16.0 16
  161.01651 26.0 26
  161.02467 44.0 44
  162.00206 17.0 17
  162.02458 11.0 11
  162.75803 32.0 32
  162.99883 25.0 25
  163.01039 13.0 13
  163.03824 54.0 54
  163.04942 11.0 11
  163.0732 15.0 15
  164.00644 28.0 28
  164.04085 12.0 12
  164.89078 11.0 11
  165.01735 60.0 60
  166.02362 15.0 15
  168.05122 13.0 13
  168.06747 12.0 12
  169.06155 10.0 10
  170.07056 11.0 11
  171.03413 10.0 10
  171.04411 28.0 28
  172.02081 12.0 12
  172.04333 11.0 11
  173.01625 30.0 30
  173.05386 13.0 13
  174.03088 11.0 11
  174.53894 12.0 12
  175.03961 142.0 142
  175.07512 11.0 11
  176.01157 27.0 27
  176.0358 12.0 12
  177.01018 13.0 13
  178.02618 15.0 15
  180.05688 23.0 23
  181.06081 12.0 12
  181.0744 32.0 32
  182.03352 12.0 12
  183.05067 11.0 11
  185.05907 40.0 40
  186.02698 15.0 15
  187.03351 26.0 26
  187.07741 19.0 19
  188.04588 10.0 10
  193.01448 14.0 14
  194.00951 13.0 13
  195.03578 11.0 11
  195.05031 17.0 17
  196.04871 10.0 10
  197.02225 12.0 12
  197.05721 14.0 14
  198.02771 11.0 11
  198.03389 21.0 21
  198.06721 10.0 10
  199.03754 56.0 56
  199.04726 32.0 32
  200.03389 10.0 10
  200.04863 14.0 14
  201.0107 17.0 17
  201.05127 26.0 26
  201.06296 17.0 17
  203.03047 13.0 13
  205.01776 12.0 12
  211.0323 21.0 21
  211.04231 32.0 32
  211.05905 20.0 20
  211.07338 10.0 10
  212.03996 42.0 42
  212.06181 11.0 11
  213.06308 13.0 13
  214.02446 12.0 12
  215.03111 11.0 11
  218.01358 15.0 15
  220.06322 18.0 18
  222.02692 15.0 15
  223.0296 11.0 11
  223.04062 10.0 10
  224.0491 22.0 22
  225.05331 40.0 40
  226.03065 11.0 11
  226.0618 16.0 16
  227.03723 71.0 71
  227.07747 25.0 25
  228.03824 12.0 12
  228.06769 20.0 20
  229.05264 66.0 66
  235.04047 19.0 19
  237.04961 36.0 36
  239.03581 11.0 11
  241.16789 10.0 10
  243.06819 15.0 15
  250.03371 10.0 10
  251.03174 15.0 15
  253.04985 36.0 36
  254.04828 12.0 12
  255.02992 44.0 44
  255.03886 16.0 16
  255.06352 13.0 13
  256.04294 11.0 11
  257.034 11.0 11
  257.04459 15.0 15
  267.02753 13.0 13
  269.0455 11.0 11
  271.0304 10.0 10
  279.0275 16.0 16
  281.04877 10.0 10
  282.04208 16.0 16
  284.02753 78.0 78
  285.03149 25.0 25
  285.04382 82.0 82
  286.05093 15.0 15
  287.05344 20.0 20
  297.04022 70.0 70
  297.05362 12.0 12
  298.0408 39.0 39
  298.05283 41.0 41
  299.03836 15.0 15
  299.05869 24.0 24
  299.88446 14.0 14
  301.06342 15.0 15
  309.04501 15.0 15
  311.05795 27.0 27
  313.74869 15.0 15
  447.08731 16.0 16
//
