ACCESSION: MSBNK-RIKEN-PR303472
RECORD_TITLE: 1-Isothiocyanato-4-(methylsulfinyl)-butane; LC-ESI-QTOF; MS2
DATE: 2019.03.28
AUTHORS: Tetsuya Mori, Center for Sustainable Resource Science, RIKEN
LICENSE: CC BY-NC-SA
PUBLICATION: Tsugawa H., Nakabayashi R., Mori T., Yamada Y., Takahashi M., Rai A., Sugiyama R., Yamamoto H., Nakaya T., Yamazaki M., Kooke R., Bac-Molenaar JA., Oztolan-Erol N., Keurentjes JJB., Arita M., Saito K. (2019) "A cheminformatics approach to characterize metabolomes in stable-isotope-labeled organisms" Nature Methods 16(4):295-298. [doi:10.1038/s41592-019-0358-2]
COMMENT: registered in RIKEN PlaSMA
CH$NAME: 1-Isothiocyanato-4-(methylsulfinyl)-butane
CH$COMPOUND_CLASS: Sulfoxides
CH$FORMULA: C6H11NOS2
CH$EXACT_MASS: 177.29
CH$SMILES: CS(=O)CCCCN=C=S
CH$IUPAC: InChI=1S/C6H11NOS2/c1-10(8)5-3-2-4-7-6-9/h2-5H2,1H3
CH$LINK: INCHIKEY SUVMJBTUFCVSAD-UHFFFAOYSA-N
AC$INSTRUMENT: LC, Waters Acquity UPLC System; MS, Waters Xevo G2 Q-Tof
AC$INSTRUMENT_TYPE: LC-ESI-QTOF
AC$MASS_SPECTROMETRY: MS_TYPE MS2
AC$MASS_SPECTROMETRY: ION_MODE POSITIVE
AC$MASS_SPECTROMETRY: COLLISION_ENERGY 6V
AC$MASS_SPECTROMETRY: DESOLVATION_GAS_FLOW 800/h
AC$MASS_SPECTROMETRY: DESOLVATION_TEMPERATURE 450 C
AC$MASS_SPECTROMETRY: IONIZATION ESI
AC$CHROMATOGRAPHY: CAPILLARY_VOLTAGE +3.00 kV
AC$CHROMATOGRAPHY: COLUMN_NAME Acquity bridged ethyl hybrid C18 (1.7 um, 2.1 mm * 100 mm, Waters)
AC$CHROMATOGRAPHY: COLUMN_TEMPERATURE 40 C
AC$CHROMATOGRAPHY: FLOW_GRADIENT A/B = (99.5%/0.5% at 0 min, 99.5%/0.5% at 0.1 min, 20%/80% at 10 min, 0.5%/99.5% at 10.1 min, 0.5%/99.5% at 12.0 min, 99.5%/0.5% at 12.1 min, 99.5%/0.5% at 15.0 min)
AC$CHROMATOGRAPHY: FLOW_RATE 0.3 ml/min at 0 min, 0.3 ml/min at 10 min, 0.4 ml/min at 10.1 min, 0.4 ml/min at 14.4 min, 0.3 ml/min at 14.5 min
AC$CHROMATOGRAPHY: RETENTION_TIME 3.691833
AC$CHROMATOGRAPHY: SOLVENT A water including 0.1% formic acid
AC$CHROMATOGRAPHY: SOLVENT B acetonitrile including 0.1% formic acid
MS$FOCUSED_ION: PRECURSOR_TYPE [M+H]+
MS$FOCUSED_ION: PRECURSOR_M/Z 178.0354828
PK$SPLASH: splash10-03di-0900000000-974f3d1f8686a991d647
PK$NUM_PEAK: 20
PK$PEAK: m/z int. rel.int.
  89.03602 6.0 6
  96.04662 7.0 7
  98.05793 19.0 19
  114.0102 5.0 5
  114.03714 1000.0 999
  114.66268 6.0 6
  115.03847 96.0 96
  116.03152 43.0 43
  116.04056 9.0 9
  118.06216 13.0 13
  118.07156 15.0 15
  119.04788 56.0 56
  119.05377 70.0 70
  120.05338 6.0 6
  120.05968 6.0 6
  121.04878 9.0 9
  137.96828 6.0 6
  138.01685 6.0 6
  144.04272 7.0 7
  178.03459 456.0 456
//
