ACCESSION: MSBNK-RIKEN-PR309272
RECORD_TITLE: Flavone base + 3O, 2MeO; LC-ESI-QTOF; MS2
DATE: 2019.03.28
AUTHORS: Tetsuya Mori, Center for Sustainable Resource Science, RIKEN
LICENSE: CC BY-NC-SA
PUBLICATION: Tsugawa H., Nakabayashi R., Mori T., Yamada Y., Takahashi M., Rai A., Sugiyama R., Yamamoto H., Nakaya T., Yamazaki M., Kooke R., Bac-Molenaar JA., Oztolan-Erol N., Keurentjes JJB., Arita M., Saito K. (2019) "A cheminformatics approach to characterize metabolomes in stable-isotope-labeled organisms" Nature Methods 16(4):295-298. [doi:10.1038/s41592-019-0358-2]
COMMENT: Annotation level-3
CH$NAME: Flavone base + 3O, 2MeO
CH$COMPOUND_CLASS: Flavone O-glycosides
CH$FORMULA: C17H14O7
CH$EXACT_MASS: 330.292
CH$SMILES: O=C1C(OC)=C(OC2=CC(O)=CC(O)=C12)C=3C=CC(OC)=C(O)C=3
CH$IUPAC: InChI=1S/C17H14O7/c1-22-12-4-3-8(5-10(12)19)16-17(23-2)15(21)14-11(20)6-9(18)7-13(14)24-16/h3-7,18-20H,1-2H3
CH$LINK: INCHIKEY ZSPZNFOLWQEVQJ-UHFFFAOYSA-N
AC$INSTRUMENT: LC, Waters Acquity UPLC System; MS, Waters Xevo G2 Q-Tof
AC$INSTRUMENT_TYPE: LC-ESI-QTOF
AC$MASS_SPECTROMETRY: MS_TYPE MS2
AC$MASS_SPECTROMETRY: ION_MODE NEGATIVE
AC$MASS_SPECTROMETRY: COLLISION_ENERGY 6V
AC$MASS_SPECTROMETRY: DESOLVATION_GAS_FLOW 800/h
AC$MASS_SPECTROMETRY: DESOLVATION_TEMPERATURE 450 C
AC$MASS_SPECTROMETRY: IONIZATION ESI
AC$CHROMATOGRAPHY: CAPILLARY_VOLTAGE +3.00 kV
AC$CHROMATOGRAPHY: COLUMN_NAME Acquity bridged ethyl hybrid C18 (1.7 um, 2.1 mm * 100 mm, Waters)
AC$CHROMATOGRAPHY: COLUMN_TEMPERATURE 40 C
AC$CHROMATOGRAPHY: FLOW_GRADIENT A/B = (99.5%/0.5% at 0 min, 99.5%/0.5% at 0.1 min, 20%/80% at 10 min, 0.5%/99.5% at 10.1 min, 0.5%/99.5% at 12.0 min, 99.5%/0.5% at 12.1 min, 99.5%/0.5% at 15.0 min)
AC$CHROMATOGRAPHY: FLOW_RATE 0.3 ml/min at 0 min, 0.3 ml/min at 10 min, 0.4 ml/min at 10.1 min, 0.4 ml/min at 14.4 min, 0.3 ml/min at 14.5 min
AC$CHROMATOGRAPHY: RETENTION_TIME 4.91
AC$CHROMATOGRAPHY: SOLVENT A water including 0.1% formic acid
AC$CHROMATOGRAPHY: SOLVENT B acetonitrile including 0.1% formic acid
MS$FOCUSED_ION: PRECURSOR_TYPE [M-H]-
MS$FOCUSED_ION: PRECURSOR_M/Z 329.067
PK$SPLASH: splash10-004i-0059000000-f62c17ae2addf8c35a44
PK$NUM_PEAK: 12
PK$PEAK: m/z int. rel.int.
  152.01091 16.0 36
  268.04291 16.0 36
  271.01389 49.0 110
  271.02899 60.0 135
  272.02859 87.0 195
  281.98163 24.0 54
  285.04089 36.0 81
  299.01624 52.0 117
  299.03311 16.0 36
  300.02081 37.0 83
  314.0311 35.0 79
  329.06717 445.0 999
//
