ACCESSION: MSBNK-RIKEN-PR310615
RECORD_TITLE: Coralyne; LC-ESI-QTOF; MS2
DATE: 2019.03.28
AUTHORS: Tetsuya Mori, Center for Sustainable Resource Science, RIKEN
LICENSE: CC BY-NC-SA
PUBLICATION: Tsugawa H., Nakabayashi R., Mori T., Yamada Y., Takahashi M., Rai A., Sugiyama R., Yamamoto H., Nakaya T., Yamazaki M., Kooke R., Bac-Molenaar JA., Oztolan-Erol N., Keurentjes JJB., Arita M., Saito K. (2019) "A cheminformatics approach to characterize metabolomes in stable-isotope-labeled organisms" Nature Methods 16(4):295-298. [doi:10.1038/s41592-019-0358-2]
COMMENT: Annotation level-1
CH$NAME: Coralyne
CH$COMPOUND_CLASS: Alkaloids
CH$FORMULA: [C22H22NO4]+
CH$EXACT_MASS: 364.421
CH$SMILES: COC1=CC2=CC3=[N+](C=CC4=CC(OC)=C(OC)C=C34)C(C)=C2C=C1OC
CH$IUPAC: InChI=1S/C22H22NO4/c1-13-16-11-21(26-4)20(25-3)10-15(16)8-18-17-12-22(27-5)19(24-2)9-14(17)6-7-23(13)18/h6-12H,1-5H3/q+1
CH$LINK: INCHIKEY GOEJQGGEIVSVOK-UHFFFAOYSA-N
AC$INSTRUMENT: LC, Waters Acquity UPLC System; MS, Waters Xevo G2 Q-Tof
AC$INSTRUMENT_TYPE: LC-ESI-QTOF
AC$MASS_SPECTROMETRY: MS_TYPE MS2
AC$MASS_SPECTROMETRY: ION_MODE POSITIVE
AC$MASS_SPECTROMETRY: COLLISION_ENERGY 6V
AC$MASS_SPECTROMETRY: DESOLVATION_GAS_FLOW 800/h
AC$MASS_SPECTROMETRY: DESOLVATION_TEMPERATURE 450 C
AC$MASS_SPECTROMETRY: IONIZATION ESI
AC$CHROMATOGRAPHY: CAPILLARY_VOLTAGE +3.00 kV
AC$CHROMATOGRAPHY: COLUMN_NAME Acquity bridged ethyl hybrid C18 (1.7 um, 2.1 mm * 100 mm, Waters)
AC$CHROMATOGRAPHY: COLUMN_TEMPERATURE 40 C
AC$CHROMATOGRAPHY: FLOW_GRADIENT A/B = (99.5%/0.5% at 0 min, 99.5%/0.5% at 0.1 min, 20%/80% at 10 min, 0.5%/99.5% at 10.1 min, 0.5%/99.5% at 12.0 min, 99.5%/0.5% at 12.1 min, 99.5%/0.5% at 15.0 min)
AC$CHROMATOGRAPHY: FLOW_RATE 0.3 ml/min at 0 min, 0.3 ml/min at 10 min, 0.4 ml/min at 10.1 min, 0.4 ml/min at 14.4 min, 0.3 ml/min at 14.5 min
AC$CHROMATOGRAPHY: RETENTION_TIME 5.27
AC$CHROMATOGRAPHY: SOLVENT A water including 0.1% formic acid
AC$CHROMATOGRAPHY: SOLVENT B acetonitrile including 0.1% formic acid
MS$FOCUSED_ION: PRECURSOR_TYPE [M]+
MS$FOCUSED_ION: PRECURSOR_M/Z 364.15379
PK$SPLASH: splash10-03di-0009000000-7e64b3a1d225c1606200
PK$NUM_PEAK: 225
PK$PEAK: m/z int. rel.int.
  113.02505 26.0 1
  118.07685 28.0 1
  121.65467 41.0 1
  123.57233 25.0 1
  137.97316 23.0 1
  161.04356 24.0 1
  194.07591 18.0 0
  200.0816 17.0 0
  204.80115 17.0 0
  210.41347 28.0 1
  214.82123 25.0 1
  216.08678 33.0 1
  216.97797 18.0 0
  218.04631 18.0 0
  219.80264 25.0 1
  222.2515 25.0 1
  224.31667 28.0 1
  224.90851 18.0 0
  228.09164 29.0 1
  230.10027 20.0 0
  233.08357 20.0 0
  235.86012 20.0 0
  241.38495 17.0 0
  242.09779 22.0 1
  246.10318 25.0 1
  247.06451 31.0 1
  247.10063 356.0 9
  248.10583 42.0 1
  249.24252 18.0 0
  250.86203 27.0 1
  250.97879 21.0 1
  259.09912 27.0 1
  259.10931 30.0 1
  260.08615 26.0 1
  260.10077 40.0 1
  261.10471 17.0 0
  261.12772 17.0 0
  262.09155 47.0 1
  273.0723 20.0 0
  273.08279 17.0 0
  274.07635 28.0 1
  274.08698 49.0 1
  274.09454 21.0 1
  275.07846 45.0 1
  275.09241 249.0 6
  276.0769 17.0 0
  276.10318 710.0 17
  276.43256 34.0 1
  277.08801 22.0 1
  277.10114 49.0 1
  277.10941 116.0 3
  277.12161 25.0 1
  277.15891 28.0 1
  277.44711 37.0 1
  278.10599 18.0 0
  278.12399 37.0 1
  279.12485 20.0 0
  283.28589 21.0 1
  284.33481 24.0 1
  285.87622 34.0 1
  286.9581 53.0 1
  287.07172 21.0 1
  287.09778 126.0 3
  288.09027 23.0 1
  288.11334 56.0 1
  289.08362 36.0 1
  289.09933 20.0 0
  289.11984 19.0 0
  289.83374 27.0 1
  290.09967 30.0 1
  290.11877 30.0 1
  291.09613 17.0 0
  291.11945 371.0 9
  291.14075 232.0 6
  292.12036 63.0 2
  292.13168 111.0 3
  293.12143 20.0 0
  293.79007 24.0 1
  296.55188 24.0 1
  300.91077 38.0 1
  302.07635 31.0 1
  302.09058 34.0 1
  302.1235 18.0 0
  303.06931 38.0 1
  303.09378 191.0 5
  303.12595 197.0 5
  303.14249 63.0 2
  304.02008 38.0 1
  304.0502 30.0 1
  304.09702 2934.0 71
  304.13736 100.0 2
  304.67178 26.0 1
  304.96573 36.0 1
  305.06369 37.0 1
  305.08096 159.0 4
  305.10461 958.0 23
  305.13135 19.0 0
  305.35168 24.0 1
  305.42499 22.0 1
  306.07431 40.0 1
  306.08911 158.0 4
  306.1105 332.0 8
  306.12875 32.0 1
  306.16217 20.0 0
  306.39224 18.0 0
  306.42816 18.0 0
  307.09732 25.0 1
  307.11008 101.0 2
  307.12317 29.0 1
  307.59979 40.0 1
  308.77402 17.0 0
  313.94717 35.0 1
  314.48959 18.0 0
  316.06137 25.0 1
  316.08716 21.0 1
  317.10919 30.0 1
  318.07697 44.0 1
  318.11115 61.0 1
  319.04834 31.0 1
  319.07584 33.0 1
  319.12546 446.0 11
  319.59683 20.0 0
  320.02209 39.0 1
  320.04233 21.0 1
  320.08408 101.0 2
  320.10107 98.0 2
  320.12738 4153.0 101
  320.37903 18.0 0
  320.4249 21.0 1
  321.1026 45.0 1
  321.12186 432.0 10
  321.13495 680.0 16
  321.172 22.0 1
  321.55508 48.0 1
  321.86279 22.0 1
  322.10052 25.0 1
  322.12601 88.0 2
  322.14026 29.0 1
  322.15756 49.0 1
  323.63229 29.0 1
  324.91083 27.0 1
  325.38818 19.0 0
  325.42578 18.0 0
  326.10855 35.0 1
  327.34933 29.0 1
  330.07492 62.0 2
  330.08908 26.0 1
  331.95416 19.0 0
  332.0162 33.0 1
  332.06573 45.0 1
  332.09457 2084.0 50
  332.15543 24.0 1
  332.92792 20.0 0
  333.02811 23.0 1
  333.06973 67.0 2
  333.09747 922.0 22
  333.11011 282.0 7
  333.1897 36.0 1
  333.69138 39.0 1
  333.83762 24.0 1
  333.87482 20.0 0
  334.07584 17.0 0
  334.09409 169.0 4
  334.11279 201.0 5
  335.09579 23.0 1
  335.11942 28.0 1
  337.61859 17.0 0
  342.16061 27.0 1
  342.75079 31.0 1
  343.33041 18.0 0
  344.06702 17.0 0
  344.2807 21.0 1
  344.32114 25.0 1
  344.84283 18.0 0
  346.10464 24.0 1
  346.12009 23.0 1
  346.87811 24.0 1
  347.10254 22.0 1
  347.67584 18.0 0
  347.8154 31.0 1
  348.00409 18.0 0
  348.03452 20.0 0
  348.04645 51.0 1
  348.08011 131.0 3
  348.1232 11066.0 268
  348.16025 41.0 1
  348.17471 17.0 0
  348.20157 19.0 0
  348.2316 20.0 0
  348.31235 20.0 0
  348.74963 20.0 0
  348.80423 34.0 1
  349.04163 42.0 1
  349.07462 24.0 1
  349.12714 4634.0 112
  349.19019 41.0 1
  349.29355 18.0 0
  349.81873 17.0 0
  350.12903 739.0 18
  350.1535 53.0 1
  350.38364 29.0 1
  350.65723 19.0 0
  350.92932 20.0 0
  351.13232 194.0 5
  351.48132 19.0 0
  352.89966 27.0 1
  357.17142 18.0 0
  357.8815 18.0 0
  358.905 22.0 1
  361.02106 17.0 0
  361.4718 17.0 0
  361.50912 24.0 1
  362.2702 17.0 0
  362.56583 20.0 0
  362.69553 22.0 1
  363.03259 37.0 1
  363.66663 27.0 1
  363.91959 17.0 0
  364.07126 46.0 1
  364.08026 77.0 2
  364.10318 381.0 9
  364.1543 41229.0 999
  364.20941 1034.0 25
  364.25925 17.0 0
  364.27438 17.0 0
//
