ACCESSION: MSBNK-RIKEN-PR310575
RECORD_TITLE: Gardnutine; LC-ESI-QTOF; MS2
DATE: 2019.03.28
AUTHORS: Tetsuya Mori, Center for Sustainable Resource Science, RIKEN
LICENSE: CC BY-NC-SA
PUBLICATION: Tsugawa H., Nakabayashi R., Mori T., Yamada Y., Takahashi M., Rai A., Sugiyama R., Yamamoto H., Nakaya T., Yamazaki M., Kooke R., Bac-Molenaar JA., Oztolan-Erol N., Keurentjes JJB., Arita M., Saito K. (2019) "A cheminformatics approach to characterize metabolomes in stable-isotope-labeled organisms" Nature Methods 16(4):295-298. [doi:10.1038/s41592-019-0358-2]
COMMENT: Annotation level-1
CH$NAME: Gardnutine
CH$COMPOUND_CLASS: Alkaloids
CH$FORMULA: C20H22N2O2
CH$EXACT_MASS: 322.408
CH$SMILES: COC1=CC=C2C(NC3=C2C2OCC4C2N2CC(=CC)C4CC32)=C1
CH$IUPAC: InChI=1S/C20H22N2O2/c1-3-10-8-22-16-7-13(10)14-9-24-20(19(14)22)17-12-5-4-11(23-2)6-15(12)21-18(16)17/h3-6,13-14,16,19-21H,7-9H2,1-2H3
CH$LINK: INCHIKEY XJTWLFBHBFSVRS-UHFFFAOYSA-N
AC$INSTRUMENT: LC, Waters Acquity UPLC System; MS, Waters Xevo G2 Q-Tof
AC$INSTRUMENT_TYPE: LC-ESI-QTOF
AC$MASS_SPECTROMETRY: MS_TYPE MS2
AC$MASS_SPECTROMETRY: ION_MODE POSITIVE
AC$MASS_SPECTROMETRY: COLLISION_ENERGY 6V
AC$MASS_SPECTROMETRY: DESOLVATION_GAS_FLOW 800/h
AC$MASS_SPECTROMETRY: DESOLVATION_TEMPERATURE 450 C
AC$MASS_SPECTROMETRY: IONIZATION ESI
AC$CHROMATOGRAPHY: CAPILLARY_VOLTAGE +3.00 kV
AC$CHROMATOGRAPHY: COLUMN_NAME Acquity bridged ethyl hybrid C18 (1.7 um, 2.1 mm * 100 mm, Waters)
AC$CHROMATOGRAPHY: COLUMN_TEMPERATURE 40 C
AC$CHROMATOGRAPHY: FLOW_GRADIENT A/B = (99.5%/0.5% at 0 min, 99.5%/0.5% at 0.1 min, 20%/80% at 10 min, 0.5%/99.5% at 10.1 min, 0.5%/99.5% at 12.0 min, 99.5%/0.5% at 12.1 min, 99.5%/0.5% at 15.0 min)
AC$CHROMATOGRAPHY: FLOW_RATE 0.3 ml/min at 0 min, 0.3 ml/min at 10 min, 0.4 ml/min at 10.1 min, 0.4 ml/min at 14.4 min, 0.3 ml/min at 14.5 min
AC$CHROMATOGRAPHY: RETENTION_TIME 4.42
AC$CHROMATOGRAPHY: SOLVENT A water including 0.1% formic acid
AC$CHROMATOGRAPHY: SOLVENT B acetonitrile including 0.1% formic acid
MS$FOCUSED_ION: PRECURSOR_TYPE [M+H]+
MS$FOCUSED_ION: PRECURSOR_M/Z 323.1754
PK$SPLASH: splash10-00di-0579000000-ba38d46b3af7c0a75597
PK$NUM_PEAK: 621
PK$PEAK: m/z int. rel.int.
  56.05103 23.0 0
  67.05805 31.0 1
  68.05015 37.0 1
  72.0816 30.0 1
  77.0261 26.0 1
  77.03335 20.0 0
  77.04303 77.0 2
  79.05238 19.0 0
  80.04526 40.0 1
  80.0508 54.0 1
  81.05595 25.0 1
  82.06371 18.0 0
  89.03735 23.0 0
  90.04581 26.0 1
  91.05247 277.0 6
  91.05844 50.0 1
  92.04715 77.0 2
  93.03838 24.0 1
  93.05111 39.0 1
  93.05841 268.0 6
  93.06487 342.0 7
  93.07172 451.0 10
  94.03873 20.0 0
  94.05423 36.0 1
  94.06525 908.0 19
  94.07629 33.0 1
  94.65021 18.0 0
  95.05061 34.0 1
  95.07172 59.0 1
  95.0852 29.0 1
  95.38675 18.0 0
  96.09141 40.0 1
  96.39106 57.0 1
  96.42169 20.0 0
  99.79507 20.0 0
  103.04699 17.0 0
  103.05176 25.0 1
  103.06138 39.0 1
  104.06915 34.0 1
  105.06798 66.0 1
  106.0633 208.0 4
  107.074 160.0 3
  108.04152 69.0 1
  108.06911 39.0 1
  108.08186 311.0 7
  108.85519 20.0 0
  109.08165 39.0 1
  110.05582 128.0 3
  110.06341 100.0 2
  110.09154 47.0 1
  110.09903 25.0 1
  110.87778 18.0 0
  112.1115 19.0 0
  115.04903 20.0 0
  116.05742 20.0 0
  117.04644 22.0 0
  117.05915 81.0 2
  118.04852 48.0 1
  118.06 19.0 0
  118.0676 76.0 2
  118.75187 28.0 1
  119.07492 53.0 1
  119.08525 23.0 0
  119.51402 17.0 0
  119.77242 20.0 0
  119.94508 20.0 0
  120.04498 54.0 1
  120.0559 35.0 1
  120.06473 53.0 1
  120.08044 3012.0 65
  120.22638 19.0 0
  120.75515 25.0 1
  121.07149 26.0 1
  121.08312 285.0 6
  121.09131 248.0 5
  121.19756 19.0 0
  121.98465 23.0 0
  122.00999 22.0 0
  122.06759 36.0 1
  122.07927 134.0 3
  122.09644 6254.0 134
  122.12527 34.0 1
  122.13712 39.0 1
  122.14338 17.0 0
  122.16031 24.0 1
  122.29038 17.0 0
  122.96329 17.0 0
  123.04743 17.0 0
  123.0815 35.0 1
  123.09096 116.0 2
  123.09818 422.0 9
  124.09738 29.0 1
  124.10549 86.0 2
  124.29314 24.0 1
  125.39315 25.0 1
  125.672 18.0 0
  126.09163 29.0 1
  128.06375 22.0 0
  129.05612 24.0 1
  129.07167 70.0 2
  130.05769 53.0 1
  130.06604 40.0 1
  131.05418 34.0 1
  131.06703 60.0 1
  131.075 57.0 1
  131.08533 40.0 1
  132.04523 21.0 0
  132.07408 17.0 0
  132.08351 132.0 3
  133.03069 29.0 1
  133.03914 31.0 1
  133.04829 51.0 1
  133.05836 18.0 0
  133.19273 29.0 1
  133.3907 29.0 1
  134.09595 351.0 8
  134.10973 32.0 1
  135.07272 20.0 0
  135.09758 26.0 1
  135.10342 34.0 1
  136.07225 27.0 1
  136.07738 31.0 1
  136.09943 58.0 1
  136.11191 40.0 1
  137.08122 20.0 0
  138.09187 31.0 1
  138.59554 34.0 1
  142.07079 19.0 0
  143.07071 116.0 2
  143.07841 65.0 1
  144.054 101.0 2
  144.07538 24.0 1
  144.08255 60.0 1
  145.04239 20.0 0
  145.05518 138.0 3
  145.08234 18.0 0
  146.06531 49.0 1
  146.09157 135.0 3
  146.09937 191.0 4
  147.05553 39.0 1
  147.06725 122.0 3
  147.10725 30.0 1
  148.04707 24.0 1
  148.06883 153.0 3
  148.07617 306.0 7
  148.09425 23.0 0
  148.11221 697.0 15
  149.07759 45.0 1
  149.11108 47.0 1
  149.1169 29.0 1
  150.05582 39.0 1
  150.08464 262.0 6
  150.09175 374.0 8
  150.13242 47.0 1
  150.63426 18.0 0
  151.09666 18.0 0
  152.06409 18.0 0
  154.0703 26.0 1
  154.11308 25.0 1
  154.73528 18.0 0
  154.89909 17.0 0
  155.07275 29.0 1
  156.07799 21.0 0
  156.08621 72.0 2
  157.08937 58.0 1
  158.03528 33.0 1
  158.06071 1329.0 29
  158.07603 42.0 1
  159.04948 22.0 0
  159.06602 472.0 10
  159.55626 23.0 0
  160.06099 54.0 1
  160.07458 674.0 14
  161.07013 20.0 0
  161.08394 50.0 1
  161.09114 19.0 0
  162.08978 101.0 2
  162.09671 45.0 1
  163.41609 33.0 1
  164.09471 23.0 0
  164.17596 18.0 0
  166.06323 46.0 1
  167.0631 45.0 1
  167.07558 182.0 4
  168.07298 25.0 1
  169.09485 17.0 0
  169.48682 50.0 1
  170.05641 47.0 1
  171.07056 91.0 2
  171.96455 17.0 0
  172.03951 33.0 1
  172.06918 142.0 3
  172.08275 147.0 3
  172.88907 17.0 0
  172.99886 40.0 1
  173.05038 19.0 0
  173.06483 132.0 3
  173.08362 2506.0 54
  174.05345 82.0 2
  174.09145 1351.0 29
  175.07719 33.0 1
  175.0937 200.0 4
  175.36208 20.0 0
  175.8979 32.0 1
  176.06856 25.0 1
  176.08241 37.0 1
  176.10805 180.0 4
  177.22284 43.0 1
  177.3815 17.0 0
  178.72798 26.0 1
  180.07126 34.0 1
  180.08148 42.0 1
  181.0797 17.0 0
  181.09096 91.0 2
  182.05621 22.0 0
  182.09517 27.0 1
  182.32375 22.0 0
  183.06407 78.0 2
  183.39061 35.0 1
  184.0715 38.0 1
  184.07938 32.0 1
  185.02086 34.0 1
  185.03854 27.0 1
  185.08461 54.0 1
  186.05898 35.0 1
  186.08902 824.0 18
  186.15936 30.0 1
  187.07614 31.0 1
  187.09647 180.0 4
  187.14331 17.0 0
  187.57109 18.0 0
  187.64172 26.0 1
  188.05399 19.0 0
  188.07047 283.0 6
  188.08044 97.0 2
  188.09552 163.0 3
  188.10942 509.0 11
  188.44153 19.0 0
  189.06612 31.0 1
  189.08876 41.0 1
  189.10901 162.0 3
  189.13026 28.0 1
  190.10245 22.0 0
  191.42987 44.0 1
  192.02734 28.0 1
  192.08215 221.0 5
  193.0593 22.0 0
  193.07788 74.0 2
  193.08862 490.0 11
  194.0733 31.0 1
  194.09178 40.0 1
  194.10362 63.0 1
  195.04343 29.0 1
  195.06038 48.0 1
  195.09679 35.0 1
  195.10631 19.0 0
  195.6179 53.0 1
  196.0041 45.0 1
  196.07231 65.0 1
  196.10774 19.0 0
  197.06606 43.0 1
  197.07381 74.0 2
  197.08321 104.0 2
  197.10097 23.0 0
  197.5842 18.0 0
  198.00146 21.0 0
  198.06906 39.0 1
  198.08623 215.0 5
  198.09688 123.0 3
  198.25117 22.0 0
  198.94263 21.0 0
  199.03749 30.0 1
  199.05029 29.0 1
  199.07541 18.0 0
  199.08762 151.0 3
  199.10005 36.0 1
  199.7148 18.0 0
  200.05249 21.0 0
  200.0688 106.0 2
  200.09711 22.0 0
  200.10788 60.0 1
  201.08192 27.0 1
  201.11078 72.0 2
  201.29979 21.0 0
  202.08359 911.0 20
  202.1008 102.0 2
  202.65501 30.0 1
  203.08725 105.0 2
  203.0966 58.0 1
  203.67491 18.0 0
  204.07944 68.0 1
  205.08476 18.0 0
  205.73367 25.0 1
  206.08905 17.0 0
  206.10089 19.0 0
  207.10828 20.0 0
  207.78477 19.0 0
  208.06798 76.0 2
  208.08087 100.0 2
  208.10634 17.0 0
  208.11774 38.0 1
  209.06055 49.0 1
  209.07169 63.0 1
  209.08391 209.0 4
  209.10274 46.0 1
  209.11845 20.0 0
  209.73605 36.0 1
  210.07188 48.0 1
  210.09012 657.0 14
  210.10266 96.0 2
  210.12796 18.0 0
  211.0627 24.0 1
  211.08307 142.0 3
  211.09718 97.0 2
  211.20312 18.0 0
  211.3333 29.0 1
  212.05759 45.0 1
  212.06909 42.0 1
  212.08798 54.0 1
  212.10361 287.0 6
  212.1123 269.0 6
  212.96967 17.0 0
  213.10287 167.0 4
  213.12775 31.0 1
  214.06494 29.0 1
  214.08217 79.0 2
  214.09395 52.0 1
  214.10214 48.0 1
  214.12376 51.0 1
  215.06723 33.0 1
  215.08507 263.0 6
  215.09828 44.0 1
  215.9633 17.0 0
  216.10109 277.0 6
  216.51753 18.0 0
  217.0619 30.0 1
  217.09602 18.0 0
  217.45308 35.0 1
  218.07396 18.0 0
  218.09879 65.0 1
  218.95027 51.0 1
  219.07166 21.0 0
  219.10469 33.0 1
  220.05916 18.0 0
  220.07587 52.0 1
  220.1208 20.0 0
  221.11623 42.0 1
  221.13141 24.0 1
  222.08781 85.0 2
  222.11041 20.0 0
  223.06293 26.0 1
  223.0984 286.0 6
  223.13336 29.0 1
  223.67511 35.0 1
  224.10725 991.0 21
  224.1805 22.0 0
  224.21909 44.0 1
  225.05989 25.0 1
  225.07834 17.0 0
  225.10504 213.0 5
  225.11517 214.0 5
  226.1086 53.0 1
  226.1299 120.0 3
  227.05376 25.0 1
  227.07135 56.0 1
  227.08279 247.0 5
  227.12607 68.0 1
  228.07204 78.0 2
  228.09055 170.0 4
  228.1093 23.0 0
  228.1342 24.0 1
  228.14487 47.0 1
  228.24553 21.0 0
  229.08522 25.0 1
  229.09595 46.0 1
  229.67606 61.0 1
  230.08925 46.0 1
  230.10405 36.0 1
  231.08907 59.0 1
  231.88011 25.0 1
  232.08876 21.0 0
  232.11671 24.0 1
  233.07153 32.0 1
  233.09351 34.0 1
  233.10469 57.0 1
  233.16832 23.0 0
  234.0535 17.0 0
  234.0728 71.0 2
  234.09297 333.0 7
  234.10097 112.0 2
  234.11952 31.0 1
  234.13824 22.0 0
  234.78877 25.0 1
  235.03677 27.0 1
  235.08417 58.0 1
  235.0934 68.0 1
  235.10628 53.0 1
  235.12296 113.0 2
  235.133 28.0 1
  235.65294 17.0 0
  236.06908 32.0 1
  236.10332 391.0 8
  236.72507 37.0 1
  237.08139 54.0 1
  237.11092 195.0 4
  237.12773 49.0 1
  238.0849 43.0 1
  238.10304 49.0 1
  238.12132 276.0 6
  238.14066 48.0 1
  239.06618 69.0 1
  239.09557 55.0 1
  239.11034 86.0 2
  239.12639 36.0 1
  239.90331 66.0 1
  240.07132 36.0 1
  240.08701 27.0 1
  240.13162 119.0 3
  240.14847 100.0 2
  241.14377 73.0 2
  241.36632 33.0 1
  241.65892 17.0 0
  242.10687 52.0 1
  242.15559 17.0 0
  243.09879 27.0 1
  243.11484 99.0 2
  244.10501 76.0 2
  244.12636 27.0 1
  245.1192 87.0 2
  245.12819 36.0 1
  245.68996 27.0 1
  246.09659 18.0 0
  246.11362 23.0 0
  246.23854 27.0 1
  247.06982 30.0 1
  247.09021 28.0 1
  247.10078 109.0 2
  247.11008 56.0 1
  247.1241 245.0 5
  248.05624 25.0 1
  248.09547 31.0 1
  248.10825 290.0 6
  248.12872 71.0 2
  248.14471 26.0 1
  249.00165 17.0 0
  249.07718 19.0 0
  249.0995 431.0 9
  249.11018 283.0 6
  249.13351 26.0 1
  249.14589 68.0 1
  249.2148 48.0 1
  249.25838 26.0 1
  249.35583 18.0 0
  250.08391 26.0 1
  250.09422 19.0 0
  250.12489 426.0 9
  250.13605 155.0 3
  250.15392 123.0 3
  250.81918 17.0 0
  251.08711 116.0 2
  251.10585 139.0 3
  251.11877 130.0 3
  251.13142 84.0 2
  251.15234 114.0 2
  252.06662 36.0 1
  252.09869 833.0 18
  252.12813 207.0 4
  252.14278 66.0 1
  253.10548 220.0 5
  253.12825 121.0 3
  253.13821 48.0 1
  254.09296 26.0 1
  254.11386 108.0 2
  254.14877 25.0 1
  254.77792 28.0 1
  255.15176 69.0 1
  256.1658 25.0 1
  256.8801 17.0 0
  257.09634 26.0 1
  257.14594 20.0 0
  257.16373 24.0 1
  259.12567 21.0 0
  259.13794 43.0 1
  259.28281 19.0 0
  260.0925 50.0 1
  260.11203 25.0 1
  260.12396 17.0 0
  261.086 18.0 0
  261.11264 96.0 2
  261.12558 141.0 3
  261.14218 459.0 10
  262.08099 37.0 1
  262.10733 191.0 4
  262.13083 101.0 2
  262.14163 97.0 2
  262.18674 23.0 0
  263.09198 62.0 1
  263.11865 285.0 6
  263.14227 70.0 2
  264.05948 24.0 1
  264.08411 42.0 1
  264.10754 71.0 2
  264.12775 382.0 8
  264.15903 28.0 1
  264.41345 24.0 1
  265.11084 70.0 2
  265.12695 82.0 2
  265.14136 84.0 2
  265.90796 17.0 0
  266.10806 24.0 1
  266.11826 27.0 1
  266.14484 36.0 1
  266.15628 127.0 3
  267.12195 141.0 3
  267.14862 46.0 1
  267.81744 21.0 0
  268.1131 35.0 1
  268.13239 242.0 5
  269.12442 40.0 1
  269.13477 80.0 2
  271.37122 63.0 1
  272.3663 42.0 1
  273.10544 20.0 0
  273.1463 28.0 1
  274.08459 20.0 0
  274.11981 61.0 1
  274.33719 20.0 0
  274.35886 26.0 1
  275.11157 63.0 1
  276.0329 17.0 0
  276.09445 23.0 0
  276.11429 21.0 0
  276.12759 187.0 4
  276.14438 144.0 3
  277.11179 96.0 2
  277.13049 720.0 15
  277.14777 130.0 3
  277.8241 17.0 0
  278.0979 38.0 1
  278.1088 47.0 1
  278.13696 618.0 13
  278.14948 984.0 21
  278.67032 17.0 0
  279.1189 87.0 2
  279.14987 321.0 7
  279.17941 21.0 0
  280.12881 64.0 1
  280.15213 41.0 1
  281.10782 17.0 0
  281.13385 114.0 2
  282.4437 19.0 0
  283.06168 28.0 1
  283.73486 34.0 1
  288.14438 68.0 1
  289.12781 21.0 0
  290.08441 20.0 0
  290.12747 26.0 1
  290.14282 77.0 2
  291.0368 17.0 0
  291.12997 18.0 0
  291.14767 195.0 4
  292.11279 17.0 0
  292.13043 22.0 0
  292.15012 102.0 2
  292.1651 110.0 2
  292.67087 26.0 1
  293.09305 17.0 0
  293.12766 118.0 3
  293.16507 11916.0 256
  293.27676 41.0 1
  293.39886 18.0 0
  293.81183 22.0 0
  294.14102 168.0 4
  294.16837 2575.0 55
  294.42578 18.0 0
  295.10861 29.0 1
  295.1402 25.0 1
  295.17496 712.0 15
  295.19525 121.0 3
  295.4693 22.0 0
  296.13586 35.0 1
  296.16251 17.0 0
  296.18671 54.0 1
  296.19598 30.0 1
  297.13135 28.0 1
  298.86252 27.0 1
  300.3371 21.0 0
  300.58975 28.0 1
  301.11203 44.0 1
  303.02322 23.0 0
  304.14505 27.0 1
  305.12057 20.0 0
  305.1301 31.0 1
  305.14871 80.0 2
  305.16672 431.0 9
  305.56442 17.0 0
  306.13687 44.0 1
  306.15097 228.0 5
  306.17471 73.0 2
  307.14993 56.0 1
  307.57904 18.0 0
  307.7897 40.0 1
  308.15405 106.0 2
  309.56567 36.0 1
  310.15305 24.0 1
  314.21661 19.0 0
  316.31607 20.0 0
  317.03754 19.0 0
  319.13495 35.0 1
  321.74023 17.0 0
  322.27985 27.0 1
  322.86639 24.0 1
  322.98929 17.0 0
  323.02646 34.0 1
  323.05292 86.0 2
  323.07581 48.0 1
  323.11273 262.0 6
  323.13153 209.0 4
  323.17523 46555.0 999
  323.22626 1230.0 26
  323.28067 68.0 1
//
