ACCESSION: MSBNK-RIKEN-PR301413
RECORD_TITLE: Papaverine; LC-ESI-QTOF; MS2
DATE: 2019.03.28
AUTHORS: Tetsuya Mori, Center for Sustainable Resource Science, RIKEN
LICENSE: CC BY-NC-SA
PUBLICATION: Tsugawa H., Nakabayashi R., Mori T., Yamada Y., Takahashi M., Rai A., Sugiyama R., Yamamoto H., Nakaya T., Yamazaki M., Kooke R., Bac-Molenaar JA., Oztolan-Erol N., Keurentjes JJB., Arita M., Saito K. (2019) "A cheminformatics approach to characterize metabolomes in stable-isotope-labeled organisms" Nature Methods 16(4):295-298. [doi:10.1038/s41592-019-0358-2]
COMMENT: registered in RIKEN PlaSMA
CH$NAME: Papaverine
CH$COMPOUND_CLASS: Benzylisoquinolines
CH$FORMULA: C20H21NO4
CH$EXACT_MASS: 339.391
CH$SMILES: COC1=C(OC)C=C(CC2=NC=CC3=CC(OC)=C(OC)C=C23)C=C1
CH$IUPAC: InChI=1S/C20H21NO4/c1-22-17-6-5-13(10-18(17)23-2)9-16-15-12-20(25-4)19(24-3)11-14(15)7-8-21-16/h5-8,10-12H,9H2,1-4H3
CH$LINK: INCHIKEY XQYZDYMELSJDRZ-UHFFFAOYSA-N
AC$INSTRUMENT: LC, Waters Acquity UPLC System; MS, Waters Xevo G2 Q-Tof
AC$INSTRUMENT_TYPE: LC-ESI-QTOF
AC$MASS_SPECTROMETRY: MS_TYPE MS2
AC$MASS_SPECTROMETRY: ION_MODE POSITIVE
AC$MASS_SPECTROMETRY: COLLISION_ENERGY 6V
AC$MASS_SPECTROMETRY: DESOLVATION_GAS_FLOW 800/h
AC$MASS_SPECTROMETRY: DESOLVATION_TEMPERATURE 450 C
AC$MASS_SPECTROMETRY: IONIZATION ESI
AC$CHROMATOGRAPHY: CAPILLARY_VOLTAGE +3.00 kV
AC$CHROMATOGRAPHY: COLUMN_NAME Acquity bridged ethyl hybrid C18 (1.7 um, 2.1 mm * 100 mm, Waters)
AC$CHROMATOGRAPHY: COLUMN_TEMPERATURE 40 C
AC$CHROMATOGRAPHY: FLOW_GRADIENT A/B = (99.5%/0.5% at 0 min, 99.5%/0.5% at 0.1 min, 20%/80% at 10 min, 0.5%/99.5% at 10.1 min, 0.5%/99.5% at 12.0 min, 99.5%/0.5% at 12.1 min, 99.5%/0.5% at 15.0 min)
AC$CHROMATOGRAPHY: FLOW_RATE 0.3 ml/min at 0 min, 0.3 ml/min at 10 min, 0.4 ml/min at 10.1 min, 0.4 ml/min at 14.4 min, 0.3 ml/min at 14.5 min
AC$CHROMATOGRAPHY: RETENTION_TIME 4.491683
AC$CHROMATOGRAPHY: SOLVENT A water including 0.1% formic acid
AC$CHROMATOGRAPHY: SOLVENT B acetonitrile including 0.1% formic acid
MS$FOCUSED_ION: PRECURSOR_TYPE [M+H]+
MS$FOCUSED_ION: PRECURSOR_M/Z 340.1543346
PK$SPLASH: splash10-0ac0-0941000000-3cd1e60cd4d5428104d0
PK$NUM_PEAK: 282
PK$PEAK: m/z int. rel.int.
  77.0382 25.0 25
  79.05585 5.0 5
  89.03587 8.0 8
  91.05427 48.0 48
  95.04871 73.0 73
  101.04025 26.0 26
  102.04629 17.0 17
  103.05371 111.0 111
  103.0619 17.0 17
  104.04779 5.0 5
  104.05788 16.0 16
  105.07043 6.0 6
  107.05094 25.0 25
  107.05908 11.0 11
  108.05904 6.0 6
  113.03989 8.0 8
  114.03693 6.0 6
  114.04552 34.0 34
  115.05476 143.0 143
  116.05092 125.0 125
  116.06142 29.0 29
  117.06384 42.0 42
  118.06356 50.0 50
  119.04847 9.0 9
  123.04402 115.0 115
  124.05199 12.0 12
  127.0411 38.0 38
  127.05656 11.0 11
  128.03214 5.0 5
  128.0509 358.0 358
  129.0455 17.0 17
  129.05751 90.0 90
  130.049 6.0 6
  130.06702 191.0 191
  131.05074 225.0 225
  131.06424 25.0 25
  131.07332 68.0 68
  131.24176 6.0 6
  132.04686 24.0 24
  132.0551 26.0 26
  132.06337 8.0 8
  132.07941 6.0 6
  133.02504 11.0 11
  133.05792 8.0 8
  133.06435 7.0 7
  135.04535 20.0 20
  138.06572 14.0 14
  140.04752 100.0 100
  140.05539 74.0 74
  141.04497 7.0 7
  141.0574 118.0 118
  142.06566 83.0 83
  143.04921 8.0 8
  143.05626 7.0 7
  143.06874 15.0 15
  143.07536 25.0 25
  144.04478 62.0 62
  144.05339 21.0 21
  144.06522 6.0 6
  144.07953 21.0 21
  145.05028 15.0 15
  145.06464 68.0 68
  145.0858 8.0 8
  146.04199 7.0 7
  146.05811 46.0 46
  146.06535 30.0 30
  146.07535 18.0 18
  147.0746 6.0 6
  147.08365 8.0 8
  148.04683 16.0 16
  149.05795 6.0 6
  151.06989 6.0 6
  151.07764 17.0 17
  154.06027 6.0 6
  154.06548 14.0 14
  155.03148 12.0 12
  155.03949 20.0 20
  155.05603 6.0 6
  155.07312 5.0 5
  156.04495 419.0 419
  156.07124 5.0 5
  157.05052 146.0 146
  157.09369 8.0 8
  157.97778 7.0 7
  158.06111 544.0 543
  159.04195 22.0 22
  159.05495 18.0 18
  159.06821 125.0 125
  160.05525 33.0 33
  160.07103 23.0 23
  160.08072 20.0 20
  161.05852 17.0 17
  161.0666 6.0 6
  166.054 5.0 5
  167.0721 18.0 18
  170.06351 58.0 58
  171.04639 5.0 5
  171.06894 1000.0 999
  172.03951 44.0 44
  172.05402 9.0 9
  172.07384 153.0 153
  172.29439 5.0 5
  172.95955 6.0 6
  173.048 8.0 8
  173.07739 26.0 26
  173.76674 6.0 6
  174.04102 7.0 7
  174.05772 39.0 39
  174.09546 18.0 18
  175.05757 17.0 17
  175.07541 34.0 34
  175.08307 18.0 18
  178.72768 7.0 7
  179.06845 7.0 7
  180.08292 31.0 31
  181.08086 9.0 9
  181.09644 7.0 7
  183.06638 31.0 31
  184.03935 6.0 6
  184.0609 9.0 9
  184.07204 9.0 9
  186.05699 406.0 406
  187.03696 6.0 6
  187.06087 144.0 144
  187.06915 62.0 62
  188.04866 9.0 9
  188.07065 58.0 58
  189.07164 18.0 18
  189.08325 11.0 11
  190.08714 7.0 7
  190.09682 6.0 6
  191.07335 33.0 33
  192.0816 40.0 40
  193.08324 13.0 13
  193.09206 10.0 10
  194.10138 7.0 7
  196.07692 43.0 43
  197.07387 11.0 11
  197.08707 12.0 12
  198.0894 11.0 11
  200.07353 15.0 15
  201.07649 5.0 5
  202.05763 6.0 6
  202.08658 281.0 281
  203.07077 5.0 5
  203.09222 40.0 40
  204.08101 42.0 42
  204.09006 14.0 14
  205.08662 16.0 16
  205.09782 12.0 12
  206.09909 35.0 35
  207.07703 8.0 8
  207.08931 6.0 6
  208.07533 31.0 31
  208.08273 13.0 13
  209.08574 43.0 43
  210.09158 45.0 45
  210.10374 12.0 12
  211.05905 5.0 5
  217.08904 14.0 14
  218.09877 17.0 17
  219.093 5.0 5
  219.10503 7.0 7
  219.18347 7.0 7
  220.07625 97.0 97
  220.08696 25.0 25
  221.05951 9.0 9
  221.08556 59.0 59
  222.05368 11.0 11
  222.06636 6.0 6
  222.09491 129.0 129
  222.10451 38.0 38
  223.07098 9.0 9
  223.09059 16.0 16
  223.10051 40.0 40
  224.06961 45.0 45
  224.07988 12.0 12
  224.09242 5.0 5
  224.10544 11.0 11
  225.07352 10.0 10
  225.08159 6.0 6
  225.10583 6.0 6
  226.08128 6.0 6
  226.09093 11.0 11
  227.09911 21.0 21
  228.10634 7.0 7
  232.08258 6.0 6
  233.07449 15.0 15
  233.08734 31.0 31
  234.07509 9.0 9
  234.09346 113.0 113
  235.06512 5.0 5
  235.09978 39.0 39
  235.10939 11.0 11
  236.06711 17.0 17
  236.07722 10.0 10
  236.09828 17.0 17
  236.10976 17.0 17
  237.06854 14.0 14
  237.07957 18.0 18
  238.07695 17.0 17
  238.09082 72.0 72
  239.09036 14.0 14
  240.09665 27.0 27
  240.1084 20.0 20
  241.09966 10.0 10
  241.11154 10.0 10
  245.08617 7.0 7
  246.08752 5.0 5
  247.09106 9.0 9
  248.06747 12.0 12
  248.07707 11.0 11
  249.08304 27.0 27
  250.08525 170.0 170
  250.09819 47.0 47
  251.08646 32.0 32
  251.09624 67.0 67
  252.09273 29.0 29
  252.10413 115.0 115
  253.1026 19.0 19
  254.1125 5.0 5
  254.13547 9.0 9
  260.10052 6.0 6
  261.06912 12.0 12
  261.08167 10.0 10
  261.09558 6.0 6
  262.05554 5.0 5
  262.08557 25.0 25
  262.0961 11.0 11
  263.07703 9.0 9
  263.09302 28.0 28
  263.10178 13.0 13
  264.0683 15.0 15
  264.10181 48.0 48
  264.12125 13.0 13
  265.08948 8.0 8
  265.10403 8.0 8
  266.07224 18.0 18
  266.08572 25.0 25
  266.10571 7.0 7
  266.11938 21.0 21
  266.13248 11.0 11
  267.08963 16.0 16
  267.11874 7.0 7
  278.06635 18.0 18
  278.08496 116.0 116
  278.12564 10.0 10
  279.0799 41.0 41
  279.09558 44.0 44
  280.05621 6.0 6
  280.09882 528.0 527
  281.09103 36.0 36
  281.10535 95.0 95
  281.13446 7.0 7
  282.09344 14.0 14
  282.10873 10.0 10
  290.08005 16.0 16
  290.09195 6.0 6
  292.09805 17.0 17
  293.09488 6.0 6
  293.49536 5.0 5
  294.11395 33.0 33
  294.12396 23.0 23
  295.10516 7.0 7
  296.1286 17.0 17
  297.12784 5.0 5
  306.06717 7.0 7
  306.07736 18.0 18
  308.04956 13.0 13
  308.09216 701.0 700
  309.08685 60.0 60
  309.10013 132.0 132
  310.08987 5.0 5
  310.10501 22.0 22
  322.1106 5.0 5
  322.12119 7.0 7
  324.11478 41.0 41
  324.12634 88.0 88
  325.1218 32.0 32
  325.13599 11.0 11
  325.14868 6.0 6
  340.15533 23.0 23
//
