ACCESSION: MSBNK-RIKEN-PR303865
RECORD_TITLE: Asiaticoside; LC-ESI-QTOF; MS2
DATE: 2019.03.28
AUTHORS: Tetsuya Mori, Center for Sustainable Resource Science, RIKEN
LICENSE: CC BY-NC-SA
PUBLICATION: Tsugawa H., Nakabayashi R., Mori T., Yamada Y., Takahashi M., Rai A., Sugiyama R., Yamamoto H., Nakaya T., Yamazaki M., Kooke R., Bac-Molenaar JA., Oztolan-Erol N., Keurentjes JJB., Arita M., Saito K. (2019) "A cheminformatics approach to characterize metabolomes in stable-isotope-labeled organisms" Nature Methods 16(4):295-298. [doi:10.1038/s41592-019-0358-2]
COMMENT: registered in RIKEN PlaSMA
CH$NAME: Asiaticoside
CH$COMPOUND_CLASS: Triterpene saponins
CH$FORMULA: C48H78O19
CH$EXACT_MASS: 959.133
CH$SMILES: CC1CCC2(CCC3(C)C(=CCC4C5(C)CC(O)C(O)C(C)(CO)C5CCC34C)C2C1C)C(=O)OC1OC(COC2OC(CO)C(OC3OC(C)C(O)C(O)C3O)C(O)C2O)C(O)C(O)C1O
CH$IUPAC: InChI=1S/C48H78O19/c1-20-10-13-48(15-14-46(6)23(29(48)21(20)2)8-9-28-44(4)16-24(51)39(60)45(5,19-50)27(44)11-12-47(28,46)7)43(61)67-42-36(58)33(55)31(53)26(65-42)18-62-40-37(59)34(56)38(25(17-49)64-40)66-41-35(57)32(54)30(52)22(3)63-41/h8,20-22,24-42,49-60H,9-19H2,1-7H3
CH$LINK: INCHIKEY WYQVAPGDARQUBT-UHFFFAOYSA-N
AC$INSTRUMENT: LC, Waters Acquity UPLC System; MS, Waters Xevo G2 Q-Tof
AC$INSTRUMENT_TYPE: LC-ESI-QTOF
AC$MASS_SPECTROMETRY: MS_TYPE MS2
AC$MASS_SPECTROMETRY: ION_MODE POSITIVE
AC$MASS_SPECTROMETRY: COLLISION_ENERGY 6V
AC$MASS_SPECTROMETRY: DESOLVATION_GAS_FLOW 800/h
AC$MASS_SPECTROMETRY: DESOLVATION_TEMPERATURE 450 C
AC$MASS_SPECTROMETRY: IONIZATION ESI
AC$CHROMATOGRAPHY: CAPILLARY_VOLTAGE +3.00 kV
AC$CHROMATOGRAPHY: COLUMN_NAME Acquity bridged ethyl hybrid C18 (1.7 um, 2.1 mm * 100 mm, Waters)
AC$CHROMATOGRAPHY: COLUMN_TEMPERATURE 40 C
AC$CHROMATOGRAPHY: FLOW_GRADIENT A/B = (99.5%/0.5% at 0 min, 99.5%/0.5% at 0.1 min, 20%/80% at 10 min, 0.5%/99.5% at 10.1 min, 0.5%/99.5% at 12.0 min, 99.5%/0.5% at 12.1 min, 99.5%/0.5% at 15.0 min)
AC$CHROMATOGRAPHY: FLOW_RATE 0.3 ml/min at 0 min, 0.3 ml/min at 10 min, 0.4 ml/min at 10.1 min, 0.4 ml/min at 14.4 min, 0.3 ml/min at 14.5 min
AC$CHROMATOGRAPHY: RETENTION_TIME 5.20985
AC$CHROMATOGRAPHY: SOLVENT A water including 0.1% formic acid
AC$CHROMATOGRAPHY: SOLVENT B acetonitrile including 0.1% formic acid
MS$FOCUSED_ION: PRECURSOR_TYPE [M+H]+
MS$FOCUSED_ION: PRECURSOR_M/Z 959.5210067
PK$SPLASH: splash10-0udi-0121900000-c4af72700a27e25c5bc6
PK$NUM_PEAK: 179
PK$PEAK: m/z int. rel.int.
  75.04131 8.0 8
  85.03035 29.0 29
  86.05809 8.0 8
  95.04715 10.0 10
  105.76706 8.0 8
  110.70579 8.0 8
  111.03972 8.0 8
  111.04533 16.0 16
  111.15031 8.0 8
  113.06615 9.0 9
  121.09698 8.0 8
  125.09531 56.0 56
  125.10458 17.0 17
  127.09045 9.0 9
  129.05562 96.0 96
  129.06432 19.0 19
  145.05525 22.0 22
  147.0493 9.0 9
  147.06471 62.0 62
  149.35551 8.0 8
  159.11952 8.0 8
  163.06223 61.0 61
  165.06834 8.0 8
  165.07343 13.0 13
  173.13596 8.0 8
  173.14557 10.0 10
  187.15793 10.0 10
  191.17984 8.0 8
  201.16165 9.0 9
  201.1671 19.0 19
  202.16106 10.0 10
  205.15196 20.0 20
  205.16074 18.0 18
  207.18933 18.0 18
  215.18942 9.0 9
  217.19078 21.0 21
  219.1741 10.0 10
  221.15593 10.0 10
  225.08382 8.0 8
  229.04909 8.0 8
  231.19044 11.0 11
  233.18643 8.0 8
  233.19507 8.0 8
  234.1123 11.0 11
  234.17654 13.0 13
  235.17195 8.0 8
  237.07648 42.0 42
  243.08133 14.0 14
  247.15947 10.0 10
  247.17126 27.0 27
  247.18295 27.0 27
  248.15926 9.0 9
  248.16882 8.0 8
  248.18582 8.0 8
  249.19307 10.0 10
  250.20058 8.0 8
  255.0786 52.0 52
  255.09052 34.0 34
  256.09067 11.0 11
  256.19159 9.0 9
  261.18433 43.0 43
  267.20813 8.0 8
  267.60974 10.0 10
  269.0816 14.0 14
  271.0683 8.0 8
  273.08606 50.0 50
  273.0975 51.0 51
  273.10538 38.0 38
  289.08566 17.0 17
  291.11591 8.0 8
  293.11731 13.0 13
  295.54126 14.0 14
  309.09335 9.0 9
  309.11954 383.0 383
  310.12555 22.0 22
  311.11337 10.0 10
  311.2323 8.0 8
  325.10687 11.0 11
  325.12134 8.0 8
  325.24188 8.0 8
  326.1113 16.0 16
  327.10541 8.0 8
  327.12448 10.0 10
  327.23172 28.0 28
  341.25601 14.0 14
  342.25464 12.0 12
  343.25342 18.0 18
  343.267 8.0 8
  344.27762 9.0 9
  361.84802 16.0 16
  369.12958 8.0 8
  369.14136 11.0 11
  389.32486 36.0 36
  393.28204 9.0 9
  395.29916 11.0 11
  399.15555 10.0 10
  400.383 18.0 18
  406.31332 15.0 15
  407.30896 63.0 63
  407.33072 171.0 171
  407.35361 30.0 30
  407.56793 8.0 8
  408.24026 8.0 8
  408.30655 8.0 8
  408.32816 31.0 31
  409.28397 11.0 11
  409.31354 9.0 9
  409.33621 18.0 18
  409.35107 13.0 13
  410.8797 9.0 9
  417.32285 8.0 8
  419.35226 10.0 10
  421.35065 9.0 9
  423.30017 20.0 20
  423.31393 17.0 17
  423.3389 8.0 8
  424.32751 26.0 26
  431.3367 11.0 11
  435.31573 94.0 94
  435.33072 116.0 116
  435.35489 10.0 10
  436.31015 9.0 9
  436.32794 45.0 45
  436.35767 12.0 12
  437.30237 9.0 9
  437.31989 10.0 10
  437.34973 8.0 8
  438.32681 10.0 10
  441.3447 9.0 9
  443.33969 10.0 10
  444.38293 8.0 8
  451.28577 17.0 17
  452.33859 9.0 9
  453.28296 9.0 9
  453.33636 1000.0 999
  454.26819 8.0 8
  454.29007 8.0 8
  454.32343 115.0 115
  454.34625 209.0 209
  454.36542 72.0 72
  455.3353 68.0 68
  456.34662 16.0 16
  459.48099 28.0 28
  463.47668 8.0 8
  465.06927 8.0 8
  471.16571 8.0 8
  471.34961 386.0 386
  472.29904 9.0 9
  472.34799 93.0 93
  472.36832 66.0 66
  473.34534 28.0 28
  473.35629 11.0 11
  478.75705 11.0 11
  479.41324 10.0 10
  487.60336 8.0 8
  489.34052 49.0 49
  489.366 25.0 25
  489.38895 8.0 8
  490.35992 34.0 34
  491.34741 9.0 9
  493.36783 8.0 8
  500.37607 9.0 9
  560.62579 11.0 11
  567.37109 10.0 10
  581.40594 20.0 20
  582.40234 11.0 11
  616.36505 8.0 8
  617.41101 15.0 15
  635.36707 8.0 8
  635.41675 23.0 23
  635.44611 15.0 15
  636.39532 17.0 17
  637.4129 8.0 8
  637.43347 8.0 8
  651.41479 17.0 17
  651.70453 8.0 8
  651.91876 9.0 9
  814.49194 10.0 10
  899.37122 9.0 9
//
