ACCESSION: MSBNK-RIKEN-PR305816
RECORD_TITLE: Luteolin-8-C-glucoside; LC-ESI-QTOF; MS2
DATE: 2019.03.28
AUTHORS: Tetsuya Mori, Center for Sustainable Resource Science, RIKEN
LICENSE: CC BY-NC-SA
PUBLICATION: Tsugawa H., Nakabayashi R., Mori T., Yamada Y., Takahashi M., Rai A., Sugiyama R., Yamamoto H., Nakaya T., Yamazaki M., Kooke R., Bac-Molenaar JA., Oztolan-Erol N., Keurentjes JJB., Arita M., Saito K. (2019) "A cheminformatics approach to characterize metabolomes in stable-isotope-labeled organisms" Nature Methods 16(4):295-298. [doi:10.1038/s41592-019-0358-2]
COMMENT: registered in RIKEN PlaSMA
CH$NAME: Luteolin-8-C-glucoside
CH$COMPOUND_CLASS: Flavonoid 8-C-glycosides
CH$FORMULA: C21H20O11
CH$EXACT_MASS: 448.38
CH$SMILES: OCC1OC(C(O)C(O)C1O)C1=C(O)C=C(O)C2=C1OC(=CC2=O)C1=CC(O)=C(O)C=C1
CH$IUPAC: InChI=1S/C21H20O11/c22-6-14-17(28)18(29)19(30)21(32-14)16-11(26)4-10(25)15-12(27)5-13(31-20(15)16)7-1-2-8(23)9(24)3-7/h1-5,14,17-19,21-26,28-30H,6H2
CH$LINK: INCHIKEY PLAPMLGJVGLZOV-UHFFFAOYSA-N
AC$INSTRUMENT: LC, Waters Acquity UPLC System; MS, Waters Xevo G2 Q-Tof
AC$INSTRUMENT_TYPE: LC-ESI-QTOF
AC$MASS_SPECTROMETRY: MS_TYPE MS2
AC$MASS_SPECTROMETRY: ION_MODE NEGATIVE
AC$MASS_SPECTROMETRY: COLLISION_ENERGY 6V
AC$MASS_SPECTROMETRY: DESOLVATION_GAS_FLOW 800/h
AC$MASS_SPECTROMETRY: DESOLVATION_TEMPERATURE 450 C
AC$MASS_SPECTROMETRY: IONIZATION ESI
AC$CHROMATOGRAPHY: CAPILLARY_VOLTAGE -2.75 kV
AC$CHROMATOGRAPHY: COLUMN_NAME Acquity bridged ethyl hybrid C18 (1.7 um, 2.1 mm * 100 mm, Waters)
AC$CHROMATOGRAPHY: COLUMN_TEMPERATURE 40 C
AC$CHROMATOGRAPHY: FLOW_GRADIENT A/B = (99.5%/0.5% at 0 min, 99.5%/0.5% at 0.1 min, 20%/80% at 10 min, 0.5%/99.5% at 10.1 min, 0.5%/99.5% at 12.0 min, 99.5%/0.5% at 12.1 min, 99.5%/0.5% at 15.0 min)
AC$CHROMATOGRAPHY: FLOW_RATE 0.3 ml/min at 0 min, 0.3 ml/min at 10 min, 0.4 ml/min at 10.1 min, 0.4 ml/min at 14.4 min, 0.3 ml/min at 14.5 min
AC$CHROMATOGRAPHY: RETENTION_TIME 3.7038
AC$CHROMATOGRAPHY: SOLVENT A water including 0.1% formic acid
AC$CHROMATOGRAPHY: SOLVENT B acetonitrile including 0.1% formic acid
MS$FOCUSED_ION: PRECURSOR_TYPE [M-H]-
MS$FOCUSED_ION: PRECURSOR_M/Z 447.09328504783
PK$SPLASH: splash10-001i-0940000000-204ce44ea2dc5bf922cb
PK$NUM_PEAK: 169
PK$PEAK: m/z int. rel.int.
  68.99641 32.0 32
  69.03542 19.0 19
  69.03889 16.0 16
  77.03917 46.0 46
  79.01924 66.0 66
  81.03418 17.0 17
  92.02308 17.0 17
  93.02969 33.0 33
  95.01244 22.0 22
  97.02301 15.0 15
  104.01655 18.0 18
  105.03228 20.0 20
  107.00789 47.0 47
  107.04539 19.0 19
  108.01682 55.0 55
  109.02889 51.0 51
  109.03513 20.0 20
  111.01141 17.0 17
  113.05575 17.0 17
  115.05983 19.0 19
  119.01099 19.0 19
  119.01979 19.0 19
  119.04655 31.0 31
  121.0265 43.0 43
  122.0322 50.0 50
  123.00648 24.0 24
  125.01427 42.0 42
  125.02414 52.0 52
  129.02986 32.0 32
  130.03947 23.0 23
  131.0502 16.0 16
  132.01672 22.0 22
  132.0226 18.0 18
  133.02803 1000.0 999
  133.04605 22.0 22
  134.03532 195.0 195
  135.00368 19.0 19
  135.01187 20.0 20
  135.03365 64.0 64
  135.04323 114.0 114
  137.02582 43.0 43
  143.04774 15.0 15
  144.01892 20.0 20
  145.03033 43.0 43
  146.03165 31.0 31
  147.00874 20.0 20
  148.01294 15.0 15
  149.01797 28.0 28
  149.02647 42.0 42
  150.99678 28.0 28
  151.0034 25.0 25
  151.03748 84.0 84
  151.63457 21.0 21
  153.06682 18.0 18
  155.04984 19.0 19
  155.09058 19.0 19
  157.06503 18.0 18
  158.03516 19.0 19
  159.04881 17.0 17
  161.01854 67.0 67
  161.02467 62.0 62
  161.98888 13.0 13
  162.03122 14.0 14
  162.99789 51.0 51
  163.00389 170.0 170
  163.02995 41.0 41
  163.04208 100.0 100
  164.006 51.0 51
  165.01888 19.0 19
  167.04422 14.0 14
  168.05428 13.0 13
  169.06184 37.0 37
  171.04439 17.0 17
  172.03818 33.0 33
  172.05157 24.0 24
  174.02544 14.0 14
  175.00284 25.0 25
  175.03419 173.0 173
  176.01904 20.0 20
  179.04938 25.0 25
  181.0591 33.0 33
  183.04233 74.0 74
  184.0498 15.0 15
  185.02098 18.0 18
  186.02505 17.0 17
  187.01001 19.0 19
  187.03615 13.0 13
  187.08038 17.0 17
  188.05582 22.0 22
  189.04303 27.0 27
  193.01294 29.0 29
  195.04024 19.0 19
  196.03883 13.0 13
  196.04912 40.0 40
  197.02596 25.0 25
  197.06073 75.0 75
  199.03035 22.0 22
  199.03925 34.0 34
  199.08202 16.0 16
  200.04408 16.0 16
  201.01131 104.0 104
  201.01997 55.0 55
  201.04417 18.0 18
  201.0535 21.0 21
  202.01669 20.0 20
  202.0554 13.0 13
  203.03685 18.0 18
  209.05544 37.0 37
  210.02806 16.0 16
  210.03722 20.0 20
  211.03171 43.0 43
  211.04678 69.0 69
  212.0396 29.0 29
  213.04916 14.0 14
  213.05774 23.0 23
  213.08168 20.0 20
  214.02145 13.0 13
  214.06374 20.0 20
  215.03587 17.0 17
  217.06226 15.0 15
  223.0383 22.0 22
  224.04771 64.0 64
  225.04585 13.0 13
  225.05602 63.0 63
  227.02966 58.0 58
  227.06393 16.0 16
  228.02901 19.0 19
  228.03943 21.0 21
  229.04045 14.0 14
  229.05272 16.0 16
  231.06592 18.0 18
  238.01947 45.0 45
  238.06322 21.0 21
  239.03278 28.0 28
  240.04089 28.0 28
  241.04683 75.0 75
  244.0731 16.0 16
  253.04951 73.0 73
  253.0634 13.0 13
  255.01939 19.0 19
  255.03461 21.0 21
  255.05585 21.0 21
  256.03564 61.0 61
  257.04346 15.0 15
  266.06207 22.0 22
  269.03168 45.0 45
  269.04971 43.0 43
  270.05103 31.0 31
  271.06494 55.0 55
  279.02759 25.0 25
  281.05103 41.0 41
  281.69269 20.0 20
  282.04755 16.0 16
  283.01968 27.0 27
  283.0293 19.0 19
  284.02689 173.0 173
  285.03699 13.0 13
  285.05444 18.0 18
  286.03622 16.0 16
  297.03198 15.0 15
  297.04562 75.0 75
  298.03555 105.0 105
  298.05453 19.0 19
  299.05493 123.0 123
  300.05313 15.0 15
  328.04602 16.0 16
  330.15594 22.0 22
  385.69397 15.0 15
  447.09589 15.0 15
//
