ACCESSION: MSBNK-RIKEN-PR300197
RECORD_TITLE: Hirsuteine; LC-ESI-QTOF; MS2
DATE: 2019.03.28
AUTHORS: Tetsuya Mori, Center for Sustainable Resource Science, RIKEN
LICENSE: CC BY-NC-SA
PUBLICATION: Tsugawa H., Nakabayashi R., Mori T., Yamada Y., Takahashi M., Rai A., Sugiyama R., Yamamoto H., Nakaya T., Yamazaki M., Kooke R., Bac-Molenaar JA., Oztolan-Erol N., Keurentjes JJB., Arita M., Saito K. (2019) "A cheminformatics approach to characterize metabolomes in stable-isotope-labeled organisms" Nature Methods 16(4):295-298. [doi:10.1038/s41592-019-0358-2]
COMMENT: registered in RIKEN PlaSMA
CH$NAME: Hirsuteine
CH$COMPOUND_CLASS: Corynanthean-type alkaloids
CH$FORMULA: C22H26N2O3
CH$EXACT_MASS: 366.461
CH$SMILES: CO\C=C(/[C@H]1C[C@H]2N(CCC3=C2NC2=CC=CC=C32)C[C@@H]1C=C)C(=O)OC
CH$IUPAC: InChI=1S/C22H26N2O3/c1-4-14-12-24-10-9-16-15-7-5-6-8-19(15)23-21(16)20(24)11-17(14)18(13-26-2)22(25)27-3/h4-8,13-14,17,20,23H,1,9-12H2,2-3H3/b18-13+/t14-,17-,20+/m0/s1
CH$LINK: INCHIKEY TZUGIFAYWNNSAO-AZQGJTAVSA-N
AC$INSTRUMENT: LC, Waters Acquity UPLC System; MS, Waters Xevo G2 Q-Tof
AC$INSTRUMENT_TYPE: LC-ESI-QTOF
AC$MASS_SPECTROMETRY: MS_TYPE MS2
AC$MASS_SPECTROMETRY: ION_MODE POSITIVE
AC$MASS_SPECTROMETRY: COLLISION_ENERGY 6V
AC$MASS_SPECTROMETRY: DESOLVATION_GAS_FLOW 800/h
AC$MASS_SPECTROMETRY: DESOLVATION_TEMPERATURE 450 C
AC$MASS_SPECTROMETRY: IONIZATION ESI
AC$CHROMATOGRAPHY: CAPILLARY_VOLTAGE +3.00 kV
AC$CHROMATOGRAPHY: COLUMN_NAME Acquity bridged ethyl hybrid C18 (1.7 um, 2.1 mm * 100 mm, Waters)
AC$CHROMATOGRAPHY: COLUMN_TEMPERATURE 40 C
AC$CHROMATOGRAPHY: FLOW_GRADIENT A/B = (99.5%/0.5% at 0 min, 99.5%/0.5% at 0.1 min, 20%/80% at 10 min, 0.5%/99.5% at 10.1 min, 0.5%/99.5% at 12.0 min, 99.5%/0.5% at 12.1 min, 99.5%/0.5% at 15.0 min)
AC$CHROMATOGRAPHY: FLOW_RATE 0.3 ml/min at 0 min, 0.3 ml/min at 10 min, 0.4 ml/min at 10.1 min, 0.4 ml/min at 14.4 min, 0.3 ml/min at 14.5 min
AC$CHROMATOGRAPHY: RETENTION_TIME 5.6757
AC$CHROMATOGRAPHY: SOLVENT A water including 0.1% formic acid
AC$CHROMATOGRAPHY: SOLVENT B acetonitrile including 0.1% formic acid
MS$FOCUSED_ION: PRECURSOR_TYPE [M+H]+
MS$FOCUSED_ION: PRECURSOR_M/Z 367.2016192
PK$SPLASH: splash10-0006-0910000000-978441af5353716e1ed6
PK$NUM_PEAK: 186
PK$PEAK: m/z int. rel.int.
  75.04218 65.0 65
  75.05117 8.0 8
  77.03902 21.0 21
  78.04568 9.0 9
  79.05236 9.0 9
  80.05357 12.0 12
  82.06123 14.0 14
  85.02221 5.0 5
  85.03227 7.0 7
  91.0539 72.0 72
  92.06072 9.0 9
  94.06718 12.0 12
  95.03814 5.0 5
  95.04871 30.0 30
  96.05006 15.0 15
  96.07776 10.0 10
  103.04318 6.0 6
  103.05646 38.0 38
  104.04884 6.0 6
  104.05538 12.0 12
  105.0653 8.0 8
  105.07062 9.0 9
  106.04095 28.0 28
  106.06584 28.0 28
  107.04997 11.0 11
  108.06413 5.0 5
  108.08002 42.0 42
  109.0653 35.0 35
  111.04221 11.0 11
  111.07125 5.0 5
  115.05328 100.0 100
  116.04352 5.0 5
  116.05243 22.0 22
  117.05771 42.0 42
  117.0686 190.0 190
  118.06379 33.0 33
  118.0712 20.0 20
  119.0498 8.0 8
  120.08056 34.0 34
  121.05916 11.0 11
  121.06436 36.0 36
  122.07513 6.0 6
  123.03901 7.0 7
  123.0758 8.0 8
  126.09195 13.0 13
  127.05389 101.0 101
  128.04942 59.0 59
  128.05878 65.0 65
  128.06778 12.0 12
  129.05331 11.0 11
  129.06622 61.0 61
  129.07462 25.0 25
  130.06441 142.0 142
  131.06081 10.0 10
  131.06924 34.0 34
  132.05347 11.0 11
  132.06075 8.0 8
  132.07912 26.0 26
  133.06747 8.0 8
  134.03664 7.0 7
  134.05823 11.0 11
  134.07559 6.0 6
  134.09395 7.0 7
  141.05534 9.0 9
  141.07382 10.0 10
  142.06384 51.0 51
  142.07736 9.0 9
  143.04639 6.0 6
  143.0722 244.0 244
  143.0856 35.0 35
  144.08005 1000.0 999
  145.07881 47.0 47
  145.08537 68.0 68
  145.09128 29.0 29
  146.05824 19.0 19
  146.0936 15.0 15
  148.07088 6.0 6
  149.05608 9.0 9
  149.0639 7.0 7
  149.08447 5.0 5
  150.09372 11.0 11
  152.0619 8.0 8
  153.06258 9.0 9
  153.07228 26.0 26
  154.06509 110.0 110
  155.07224 176.0 176
  156.06418 18.0 18
  156.0777 56.0 56
  156.0844 21.0 21
  157.07118 8.0 8
  157.08496 12.0 12
  157.09346 12.0 12
  158.09148 16.0 16
  158.0979 40.0 40
  159.06784 8.0 8
  160.07677 8.0 8
  163.07651 18.0 18
  166.07196 17.0 17
  167.07161 184.0 184
  168.07869 152.0 152
  169.06593 6.0 6
  169.0829 48.0 48
  170.09532 139.0 139
  171.09093 15.0 15
  171.10484 9.0 9
  174.0909 8.0 8
  177.08113 6.0 6
  178.07309 6.0 6
  178.08104 10.0 10
  179.07553 6.0 6
  179.08432 13.0 13
  180.06874 23.0 23
  180.08073 97.0 97
  181.06995 6.0 6
  181.08583 60.0 60
  182.09766 51.0 51
  183.0733 6.0 6
  183.0916 12.0 12
  184.06937 5.0 5
  184.09132 10.0 10
  184.10309 10.0 10
  191.07343 57.0 57
  192.08095 46.0 46
  193.08479 41.0 41
  193.09462 14.0 14
  194.06422 11.0 11
  194.09341 63.0 63
  195.09662 14.0 14
  196.07202 13.0 13
  196.09908 7.0 7
  196.11371 8.0 8
  197.1078 9.0 9
  203.07353 8.0 8
  204.08159 73.0 73
  205.08598 60.0 60
  206.07956 6.0 6
  206.09569 61.0 61
  207.09479 14.0 14
  207.10741 13.0 13
  208.07307 17.0 17
  208.09366 14.0 14
  208.11954 7.0 7
  209.08116 10.0 10
  209.11665 6.0 6
  210.09801 7.0 7
  215.09427 8.0 8
  216.07162 6.0 6
  216.08562 15.0 15
  217.09058 88.0 88
  218.07817 9.0 9
  218.09628 55.0 55
  219.09618 8.0 8
  219.11072 6.0 6
  220.07529 12.0 12
  220.09892 12.0 12
  220.11259 14.0 14
  221.10457 16.0 16
  221.11241 7.0 7
  222.08746 11.0 11
  223.09595 9.0 9
  226.08603 19.0 19
  226.14595 7.0 7
  230.08028 6.0 6
  230.0929 45.0 45
  230.10396 38.0 38
  231.10249 40.0 40
  231.11475 19.0 19
  232.08304 13.0 13
  232.09938 15.0 15
  232.11212 14.0 14
  232.11862 6.0 6
  233.11459 16.0 16
  234.08763 16.0 16
  234.11662 6.0 6
  235.09129 6.0 6
  242.0923 13.0 13
  243.1127 7.0 7
  244.10114 7.0 7
  244.11017 7.0 7
  245.09239 5.0 5
  245.11194 11.0 11
  248.07323 6.0 6
  249.14026 11.0 11
  257.11142 6.0 6
  259.0957 11.0 11
  262.12766 6.0 6
//
