ACCESSION: MSBNK-RIKEN-PR300103
RECORD_TITLE: Mitraphylline; LC-ESI-QTOF; MS2
DATE: 2019.03.28
AUTHORS: Tetsuya Mori, Center for Sustainable Resource Science, RIKEN
LICENSE: CC BY-NC-SA
PUBLICATION: Tsugawa H., Nakabayashi R., Mori T., Yamada Y., Takahashi M., Rai A., Sugiyama R., Yamamoto H., Nakaya T., Yamazaki M., Kooke R., Bac-Molenaar JA., Oztolan-Erol N., Keurentjes JJB., Arita M., Saito K. (2019) "A cheminformatics approach to characterize metabolomes in stable-isotope-labeled organisms" Nature Methods 16(4):295-298. [doi:10.1038/s41592-019-0358-2]
COMMENT: registered in RIKEN PlaSMA
CH$NAME: Mitraphylline
CH$COMPOUND_CLASS: Indolizidines
CH$FORMULA: C21H24N2O4
CH$EXACT_MASS: 368.433
CH$SMILES: COC(=O)C1=CO[C@@H](C)[C@H]2CN3CC[C@@]4([C@@H]3C[C@H]12)C(O)=NC1=CC=CC=C41
CH$IUPAC: InChI=1S/C21H24N2O4/c1-12-14-10-23-8-7-21(16-5-3-4-6-17(16)22-20(21)25)18(23)9-13(14)15(11-27-12)19(24)26-2/h3-6,11-14,18H,7-10H2,1-2H3,(H,22,25)/t12-,13-,14+,18-,21+/m0/s1
CH$LINK: INCHIKEY JMIAZDVHNCCPDM-DAFCLMLCSA-N
AC$INSTRUMENT: LC, Waters Acquity UPLC System; MS, Waters Xevo G2 Q-Tof
AC$INSTRUMENT_TYPE: LC-ESI-QTOF
AC$MASS_SPECTROMETRY: MS_TYPE MS2
AC$MASS_SPECTROMETRY: ION_MODE POSITIVE
AC$MASS_SPECTROMETRY: COLLISION_ENERGY 6V
AC$MASS_SPECTROMETRY: DESOLVATION_GAS_FLOW 800/h
AC$MASS_SPECTROMETRY: DESOLVATION_TEMPERATURE 450 C
AC$MASS_SPECTROMETRY: IONIZATION ESI
AC$CHROMATOGRAPHY: CAPILLARY_VOLTAGE +3.00 kV
AC$CHROMATOGRAPHY: COLUMN_NAME Acquity bridged ethyl hybrid C18 (1.7 um, 2.1 mm * 100 mm, Waters)
AC$CHROMATOGRAPHY: COLUMN_TEMPERATURE 40 C
AC$CHROMATOGRAPHY: FLOW_GRADIENT A/B = (99.5%/0.5% at 0 min, 99.5%/0.5% at 0.1 min, 20%/80% at 10 min, 0.5%/99.5% at 10.1 min, 0.5%/99.5% at 12.0 min, 99.5%/0.5% at 12.1 min, 99.5%/0.5% at 15.0 min)
AC$CHROMATOGRAPHY: FLOW_RATE 0.3 ml/min at 0 min, 0.3 ml/min at 10 min, 0.4 ml/min at 10.1 min, 0.4 ml/min at 14.4 min, 0.3 ml/min at 14.5 min
AC$CHROMATOGRAPHY: RETENTION_TIME 4.36865
AC$CHROMATOGRAPHY: SOLVENT A water including 0.1% formic acid
AC$CHROMATOGRAPHY: SOLVENT B acetonitrile including 0.1% formic acid
MS$FOCUSED_ION: PRECURSOR_TYPE [M+H]+
MS$FOCUSED_ION: PRECURSOR_M/Z 369.1808837
PK$SPLASH: splash10-014i-0409000000-506dd1997a92c6d89247
PK$NUM_PEAK: 27
PK$PEAK: m/z int. rel.int.
  108.08022 9.0 9
  115.05509 7.0 7
  118.06534 10.0 10
  124.04111 9.0 9
  132.0453 12.0 12
  132.08102 36.0 36
  142.06461 41.0 41
  143.06813 6.0 6
  150.09166 8.0 8
  158.05946 10.0 10
  160.07544 321.0 321
  160.11156 8.0 8
  161.07976 36.0 36
  178.08614 49.0 49
  187.08885 10.0 10
  201.10265 35.0 35
  202.10435 5.0 5
  210.10831 7.0 7
  210.11623 17.0 17
  241.13594 14.0 14
  267.15091 8.0 8
  309.15976 83.0 83
  310.16345 20.0 20
  337.15598 95.0 95
  338.15817 22.0 22
  369.18185 1000.0 999
  369.23724 31.0 31
//
