ACCESSION: MSBNK-RIKEN-PR307875
RECORD_TITLE: Etoposide; LC-ESI-QTOF; MS2
DATE: 2019.03.28
AUTHORS: Tetsuya Mori, Center for Sustainable Resource Science, RIKEN
LICENSE: CC BY-NC-SA
PUBLICATION: Tsugawa H., Nakabayashi R., Mori T., Yamada Y., Takahashi M., Rai A., Sugiyama R., Yamamoto H., Nakaya T., Yamazaki M., Kooke R., Bac-Molenaar JA., Oztolan-Erol N., Keurentjes JJB., Arita M., Saito K. (2019) "A cheminformatics approach to characterize metabolomes in stable-isotope-labeled organisms" Nature Methods 16(4):295-298. [doi:10.1038/s41592-019-0358-2]
COMMENT: registered in RIKEN PlaSMA
CH$NAME: Etoposide
CH$COMPOUND_CLASS: Podophyllotoxins
CH$FORMULA: C29H32O13
CH$EXACT_MASS: 588.562
CH$SMILES: COC1=CC(=CC(OC)=C1O)C1C2C(COC2=O)C(OC2OC3COC(C)OC3C(O)C2O)C2=CC3=C(OCO3)C=C12
CH$IUPAC: InChI=1S/C29H32O13/c1-11-36-9-20-27(40-11)24(31)25(32)29(41-20)42-26-14-7-17-16(38-10-39-17)6-13(14)21(22-15(26)8-37-28(22)33)12-4-18(34-2)23(30)19(5-12)35-3/h4-7,11,15,20-22,24-27,29-32H,8-10H2,1-3H3
CH$LINK: INCHIKEY VJJPUSNTGOMMGY-UHFFFAOYSA-N
AC$INSTRUMENT: LC, Waters Acquity UPLC System; MS, Waters Xevo G2 Q-Tof
AC$INSTRUMENT_TYPE: LC-ESI-QTOF
AC$MASS_SPECTROMETRY: MS_TYPE MS2
AC$MASS_SPECTROMETRY: ION_MODE NEGATIVE
AC$MASS_SPECTROMETRY: COLLISION_ENERGY 6V
AC$MASS_SPECTROMETRY: DESOLVATION_GAS_FLOW 800/h
AC$MASS_SPECTROMETRY: DESOLVATION_TEMPERATURE 450 C
AC$MASS_SPECTROMETRY: IONIZATION ESI
AC$CHROMATOGRAPHY: CAPILLARY_VOLTAGE -2.75 kV
AC$CHROMATOGRAPHY: COLUMN_NAME Acquity bridged ethyl hybrid C18 (1.7 um, 2.1 mm * 100 mm, Waters)
AC$CHROMATOGRAPHY: COLUMN_TEMPERATURE 40 C
AC$CHROMATOGRAPHY: FLOW_GRADIENT A/B = (99.5%/0.5% at 0 min, 99.5%/0.5% at 0.1 min, 20%/80% at 10 min, 0.5%/99.5% at 10.1 min, 0.5%/99.5% at 12.0 min, 99.5%/0.5% at 12.1 min, 99.5%/0.5% at 15.0 min)
AC$CHROMATOGRAPHY: FLOW_RATE 0.3 ml/min at 0 min, 0.3 ml/min at 10 min, 0.4 ml/min at 10.1 min, 0.4 ml/min at 14.4 min, 0.3 ml/min at 14.5 min
AC$CHROMATOGRAPHY: RETENTION_TIME 5.420317
AC$CHROMATOGRAPHY: SOLVENT A water including 0.1% formic acid
AC$CHROMATOGRAPHY: SOLVENT B acetonitrile including 0.1% formic acid
MS$FOCUSED_ION: PRECURSOR_TYPE [M+HCOO]-
MS$FOCUSED_ION: PRECURSOR_M/Z 633.18249395183
PK$SPLASH: splash10-01wr-0409000000-8a97d0e74b04bfef7cea
PK$NUM_PEAK: 155
PK$PEAK: m/z int. rel.int.
  53.92483 9.0 9
  53.95355 10.0 10
  58.00001 16.0 16
  59.011 15.0 15
  60.74162 10.0 10
  73.02829 10.0 10
  73.0319 13.0 13
  79.02081 9.0 9
  85.03049 47.0 47
  87.04452 9.0 9
  87.98404 11.0 11
  95.01334 29.0 29
  99.00548 34.0 34
  100.00835 9.0 9
  101.02341 10.0 10
  113.02357 1000.0 999
  114.02633 50.0 50
  114.03134 20.0 20
  115.0338 14.0 14
  115.04181 25.0 25
  121.02911 14.0 14
  125.0244 12.0 12
  127.03925 186.0 186
  127.86617 10.0 10
  128.04468 20.0 20
  129.02232 45.0 45
  131.03462 21.0 21
  138.0284 11.0 11
  139.03688 24.0 24
  142.02486 49.0 49
  142.03265 9.0 9
  143.03165 25.0 25
  144.03802 15.0 15
  145.0506 372.0 372
  146.04976 17.0 17
  153.05463 197.0 197
  154.06067 63.0 63
  155.06677 10.0 10
  157.05186 11.0 11
  157.06421 10.0 10
  159.02586 9.0 9
  161.05681 13.0 13
  181.05069 25.0 25
  185.05263 17.0 17
  185.06215 24.0 24
  186.06197 21.0 21
  187.05867 14.0 14
  187.06595 49.0 49
  188.05753 9.0 9
  197.92673 18.0 18
  199.04433 10.0 10
  204.06053 142.0 142
  205.06456 25.0 25
  205.0816 10.0 10
  213.05376 14.0 14
  224.31136 11.0 11
  225.05438 21.0 21
  242.02779 14.0 14
  243.06528 32.0 32
  253.06096 12.0 12
  267.06046 12.0 12
  275.07599 10.0 10
  292.0798 12.0 12
  295.09711 11.0 11
  298.03906 9.0 9
  305.08218 91.0 91
  306.08643 32.0 32
  307.0657 14.0 14
  307.091 25.0 25
  307.10413 22.0 22
  307.21912 10.0 10
  308.07263 20.0 20
  309.07364 9.0 9
  309.10977 9.0 9
  310.11444 13.0 13
  311.12747 23.0 23
  312.12866 10.0 10
  313.06943 14.0 14
  320.0687 9.0 9
  322.08661 655.0 654
  322.11499 9.0 9
  323.08923 147.0 147
  323.10916 9.0 9
  324.0892 22.0 22
  324.10062 10.0 10
  328.84921 10.0 10
  335.08994 9.0 9
  336.11566 14.0 14
  337.10916 975.0 974
  338.10889 140.0 140
  338.12363 53.0 53
  339.04898 10.0 10
  339.12231 199.0 199
  339.13208 59.0 59
  340.1066 16.0 16
  340.12531 44.0 44
  340.57074 12.0 12
  351.04739 10.0 10
  353.06711 10.0 10
  357.71289 13.0 13
  364.0918 9.0 9
  365.09052 19.0 19
  365.1066 9.0 9
  366.0697 94.0 94
  366.09042 11.0 11
  367.08133 25.0 25
  367.11328 13.0 13
  373.09476 9.0 9
  376.1012 19.0 19
  376.18851 11.0 11
  379.12311 18.0 18
  381.09711 844.0 843
  382.10165 281.0 281
  383.09869 35.0 35
  383.11844 14.0 14
  384.11234 13.0 13
  390.12405 9.0 9
  392.07748 12.0 12
  393.12888 12.0 12
  394.59793 9.0 9
  395.11963 15.0 15
  396.10544 13.0 13
  396.12961 16.0 16
  397.1178 27.0 27
  397.13931 182.0 182
  398.1445 11.0 11
  399.10388 13.0 13
  401.0704 13.0 13
  406.10611 28.0 28
  407.09473 9.0 9
  421.12698 35.0 35
  421.13943 25.0 25
  422.11722 10.0 10
  422.1394 34.0 34
  429.13794 17.0 17
  433.12683 38.0 38
  440.11948 13.0 13
  440.13864 11.0 11
  441.11578 12.0 12
  441.14264 13.0 13
  442.10919 13.0 13
  442.12448 13.0 13
  451.13962 14.0 14
  452.16217 10.0 10
  465.12341 11.0 11
  465.13367 24.0 24
  467.12949 9.0 9
  481.14194 10.0 10
  481.15948 10.0 10
  492.13254 13.0 13
  508.17365 10.0 10
  510.15146 12.0 12
  525.18134 13.0 13
  587.17944 19.0 19
  589.19049 20.0 20
//
