ACCESSION: MSBNK-RIKEN-PR300274
RECORD_TITLE: Gelsemine; LC-ESI-QTOF; MS2
DATE: 2019.03.28
AUTHORS: Tetsuya Mori, Center for Sustainable Resource Science, RIKEN
LICENSE: CC BY-NC-SA
PUBLICATION: Tsugawa H., Nakabayashi R., Mori T., Yamada Y., Takahashi M., Rai A., Sugiyama R., Yamamoto H., Nakaya T., Yamazaki M., Kooke R., Bac-Molenaar JA., Oztolan-Erol N., Keurentjes JJB., Arita M., Saito K. (2019) "A cheminformatics approach to characterize metabolomes in stable-isotope-labeled organisms" Nature Methods 16(4):295-298. [doi:10.1038/s41592-019-0358-2]
COMMENT: registered in RIKEN PlaSMA
CH$NAME: Gelsemine
CH$COMPOUND_CLASS: Gelsemium alkaloids
CH$FORMULA: C20H22N2O2
CH$EXACT_MASS: 322.408
CH$SMILES: CN1C[C@@]2(C=C)C3C[C@H]4OC[C@@H]3[C@@H]1[C@@H]2[C@@]41C(O)=NC2=CC=CC=C12
CH$IUPAC: InChI=1S/C20H22N2O2/c1-3-19-10-22(2)16-11-9-24-15(8-13(11)19)20(17(16)19)12-6-4-5-7-14(12)21-18(20)23/h3-7,11,13,15-17H,1,8-10H2,2H3,(H,21,23)/t11-,13?,15+,16+,17-,19-,20-/m0/s1
CH$LINK: INCHIKEY NFYYATWFXNPTRM-ICFOCEFXSA-N
AC$INSTRUMENT: LC, Waters Acquity UPLC System; MS, Waters Xevo G2 Q-Tof
AC$INSTRUMENT_TYPE: LC-ESI-QTOF
AC$MASS_SPECTROMETRY: MS_TYPE MS2
AC$MASS_SPECTROMETRY: ION_MODE POSITIVE
AC$MASS_SPECTROMETRY: COLLISION_ENERGY 6V
AC$MASS_SPECTROMETRY: DESOLVATION_GAS_FLOW 800/h
AC$MASS_SPECTROMETRY: DESOLVATION_TEMPERATURE 450 C
AC$MASS_SPECTROMETRY: IONIZATION ESI
AC$CHROMATOGRAPHY: CAPILLARY_VOLTAGE +3.00 kV
AC$CHROMATOGRAPHY: COLUMN_NAME Acquity bridged ethyl hybrid C18 (1.7 um, 2.1 mm * 100 mm, Waters)
AC$CHROMATOGRAPHY: COLUMN_TEMPERATURE 40 C
AC$CHROMATOGRAPHY: FLOW_GRADIENT A/B = (99.5%/0.5% at 0 min, 99.5%/0.5% at 0.1 min, 20%/80% at 10 min, 0.5%/99.5% at 10.1 min, 0.5%/99.5% at 12.0 min, 99.5%/0.5% at 12.1 min, 99.5%/0.5% at 15.0 min)
AC$CHROMATOGRAPHY: FLOW_RATE 0.3 ml/min at 0 min, 0.3 ml/min at 10 min, 0.4 ml/min at 10.1 min, 0.4 ml/min at 14.4 min, 0.3 ml/min at 14.5 min
AC$CHROMATOGRAPHY: RETENTION_TIME 3.21075
AC$CHROMATOGRAPHY: SOLVENT A water including 0.1% formic acid
AC$CHROMATOGRAPHY: SOLVENT B acetonitrile including 0.1% formic acid
MS$FOCUSED_ION: PRECURSOR_TYPE [M+H]+
MS$FOCUSED_ION: PRECURSOR_M/Z 323.1754044
PK$SPLASH: splash10-0101-1930000000-35dfe97fcc2f3952fbfa
PK$NUM_PEAK: 290
PK$PEAK: m/z int. rel.int.
  67.0535 26.0 26
  68.04907 19.0 19
  69.55443 11.0 11
  70.05453 23.0 23
  70.06505 1000.0 999
  70.07587 13.0 13
  70.32362 12.0 12
  71.06429 12.0 12
  71.06953 62.0 62
  71.16441 11.0 11
  74.15067 10.0 10
  77.02407 16.0 16
  77.03843 37.0 37
  78.03217 12.0 12
  80.04747 14.0 14
  81.03018 19.0 19
  86.06071 19.0 19
  91.04539 19.0 19
  91.05366 246.0 246
  92.04971 13.0 13
  93.07146 20.0 20
  94.06375 31.0 31
  95.07404 11.0 11
  96.07558 12.0 12
  96.08012 16.0 16
  101.03749 29.0 29
  103.05619 57.0 57
  104.03236 10.0 10
  104.04296 27.0 27
  104.04847 62.0 62
  104.05592 29.0 29
  105.05298 19.0 19
  105.06853 47.0 47
  105.07647 22.0 22
  106.06752 27.0 27
  107.07435 13.0 13
  108.08423 47.0 47
  108.94138 12.0 12
  109.08484 22.0 22
  115.05347 231.0 231
  116.0491 17.0 17
  116.06132 118.0 118
  117.0526 15.0 15
  117.06179 16.0 16
  117.06664 49.0 49
  117.07426 33.0 33
  117.60373 10.0 10
  118.03942 22.0 22
  118.06641 52.0 52
  119.03567 15.0 15
  119.04811 13.0 13
  120.03968 17.0 17
  120.06203 20.0 20
  120.07765 58.0 58
  120.08375 38.0 38
  120.64053 13.0 13
  121.08347 17.0 17
  122.09442 17.0 17
  124.11215 30.0 30
  127.05302 31.0 31
  128.00899 12.0 12
  128.0511 162.0 162
  128.06216 92.0 92
  129.05014 34.0 34
  129.05722 9.0 9
  129.06969 13.0 13
  129.07983 12.0 12
  130.03813 16.0 16
  130.06007 43.0 43
  130.06851 177.0 177
  130.40955 11.0 11
  131.07388 44.0 44
  131.08498 20.0 20
  132.04419 274.0 274
  132.0634 13.0 13
  132.07388 11.0 11
  132.08084 23.0 23
  133.04993 46.0 46
  133.51157 10.0 10
  134.06847 10.0 10
  134.08672 16.0 16
  134.09203 10.0 10
  136.07388 10.0 10
  139.05171 40.0 40
  140.03554 16.0 16
  140.04808 26.0 26
  140.05707 27.0 27
  141.05737 20.0 20
  141.07001 45.0 45
  144.08183 56.0 56
  145.06203 15.0 15
  145.07083 13.0 13
  145.08762 55.0 55
  145.58118 10.0 10
  146.05971 92.0 92
  146.09166 62.0 62
  146.1006 57.0 57
  147.10594 17.0 17
  148.08046 13.0 13
  148.10846 13.0 13
  148.11522 19.0 19
  149.08253 17.0 17
  150.04738 34.0 34
  150.091 26.0 26
  150.10164 54.0 54
  151.05391 168.0 168
  152.05211 54.0 54
  152.06035 55.0 55
  153.06406 27.0 27
  153.07712 12.0 12
  154.06589 103.0 103
  155.08369 10.0 10
  157.08911 36.0 36
  158.05963 54.0 54
  159.05707 14.0 14
  159.06361 13.0 13
  159.1172 12.0 12
  160.0847 16.0 16
  162.10535 10.0 10
  162.12341 17.0 17
  163.06058 26.0 26
  164.10249 12.0 12
  165.05734 55.0 55
  165.06761 156.0 156
  165.07977 31.0 31
  166.05791 17.0 17
  166.06831 89.0 89
  166.0847 42.0 42
  166.10201 10.0 10
  166.93585 15.0 15
  167.05344 14.0 14
  167.07185 721.0 720
  168.0769 31.0 31
  168.08719 64.0 64
  169.05412 22.0 22
  169.0854 14.0 14
  170.02609 10.0 10
  170.05005 13.0 13
  170.05795 29.0 29
  170.06674 16.0 16
  172.05312 12.0 12
  172.0663 15.0 15
  172.86404 10.0 10
  175.05415 10.0 10
  176.06955 16.0 16
  176.10832 16.0 16
  177.05923 183.0 183
  177.06854 109.0 109
  178.04349 15.0 15
  178.06017 269.0 269
  178.06897 252.0 252
  178.0798 29.0 29
  179.05424 30.0 30
  179.07097 97.0 97
  179.08508 59.0 59
  180.05344 27.0 27
  180.07387 61.0 61
  180.07968 116.0 116
  180.08914 72.0 72
  181.07654 72.0 72
  181.09216 29.0 29
  182.05428 27.0 27
  182.09134 16.0 16
  182.09843 13.0 13
  183.06219 23.0 23
  183.07169 73.0 73
  183.09488 20.0 20
  184.06857 43.0 43
  186.0519 17.0 17
  186.2352 10.0 10
  188.06395 14.0 14
  189.06354 46.0 46
  189.07622 63.0 63
  190.05594 80.0 80
  190.06664 156.0 156
  190.08063 31.0 31
  191.06787 148.0 148
  191.0798 83.0 83
  191.08984 19.0 19
  192.07401 40.0 40
  192.08383 41.0 41
  192.09093 39.0 39
  192.09903 24.0 24
  193.0833 20.0 20
  193.09505 44.0 44
  193.274 12.0 12
  194.06725 12.0 12
  194.08261 20.0 20
  194.0999 21.0 21
  195.03754 14.0 14
  195.06882 713.0 712
  196.05438 23.0 23
  196.07375 248.0 248
  201.06323 12.0 12
  201.07454 28.0 28
  202.06653 98.0 98
  202.08336 71.0 71
  202.70287 11.0 11
  202.98575 10.0 10
  203.07088 147.0 147
  203.08034 177.0 177
  204.0789 247.0 247
  206.06918 16.0 16
  206.09953 16.0 16
  207.09053 12.0 12
  207.10739 16.0 16
  208.06065 24.0 24
  208.07701 124.0 124
  208.11066 14.0 14
  209.08293 49.0 49
  210.0712 29.0 29
  210.09105 143.0 143
  210.10614 19.0 19
  211.09538 12.0 12
  214.06772 30.0 30
  215.07179 13.0 13
  216.06763 33.0 33
  216.08412 163.0 163
  216.18874 12.0 12
  216.76535 12.0 12
  217.06956 14.0 14
  217.08263 76.0 76
  217.09132 268.0 268
  218.02942 10.0 10
  218.04155 17.0 17
  218.07397 16.0 16
  218.08566 41.0 41
  218.09726 175.0 175
  219.10362 31.0 31
  219.10941 13.0 13
  219.82788 10.0 10
  220.07764 52.0 52
  220.11157 17.0 17
  221.07069 13.0 13
  221.09044 17.0 17
  221.86983 12.0 12
  222.07552 11.0 11
  222.10297 14.0 14
  223.08012 13.0 13
  223.21141 10.0 10
  225.64908 16.0 16
  226.07915 17.0 17
  228.0708 10.0 10
  228.08183 48.0 48
  229.07233 19.0 19
  229.10722 11.0 11
  229.70432 20.0 20
  230.07179 12.0 12
  230.08389 12.0 12
  230.09735 32.0 32
  231.09148 24.0 24
  231.11061 23.0 23
  232.07967 39.0 39
  233.07825 17.0 17
  233.12645 11.0 11
  234.08484 23.0 23
  234.12987 18.0 18
  235.08212 36.0 36
  235.10429 16.0 16
  235.12721 16.0 16
  236.07413 12.0 12
  236.09459 15.0 15
  236.10602 41.0 41
  237.10103 13.0 13
  240.06013 19.0 19
  240.09502 11.0 11
  241.09114 13.0 13
  242.09526 13.0 13
  242.63794 12.0 12
  243.11505 19.0 19
  244.10031 14.0 14
  245.10059 31.0 31
  246.09306 11.0 11
  246.10202 16.0 16
  246.11226 12.0 12
  248.06648 19.0 19
  249.09918 10.0 10
  249.11067 16.0 16
  251.11902 12.0 12
  252.11247 11.0 11
  255.0966 16.0 16
  258.1156 16.0 16
  260.10309 25.0 25
  268.97495 10.0 10
  271.61264 10.0 10
  291.41949 11.0 11
  323.14243 15.0 15
  323.16446 19.0 19
  323.17206 48.0 48
  323.18542 37.0 37
//
