ACCESSION: MSBNK-RIKEN-PR308055
RECORD_TITLE: Phillyrin; LC-ESI-QTOF; MS2
DATE: 2019.03.28
AUTHORS: Tetsuya Mori, Center for Sustainable Resource Science, RIKEN
LICENSE: CC BY-NC-SA
PUBLICATION: Tsugawa H., Nakabayashi R., Mori T., Yamada Y., Takahashi M., Rai A., Sugiyama R., Yamamoto H., Nakaya T., Yamazaki M., Kooke R., Bac-Molenaar JA., Oztolan-Erol N., Keurentjes JJB., Arita M., Saito K. (2019) "A cheminformatics approach to characterize metabolomes in stable-isotope-labeled organisms" Nature Methods 16(4):295-298. [doi:10.1038/s41592-019-0358-2]
COMMENT: registered in RIKEN PlaSMA
CH$NAME: Phillyrin
CH$COMPOUND_CLASS: Lignan glycosides
CH$FORMULA: C27H34O11
CH$EXACT_MASS: 534.558
CH$SMILES: COC1=C(OC)C=C(C=C1)C1OCC2C1COC2C1=CC(OC)=C(OC2OC(CO)C(O)C(O)C2O)C=C1
CH$IUPAC: InChI=1S/C27H34O11/c1-32-17-6-4-13(8-19(17)33-2)25-15-11-36-26(16(15)12-35-25)14-5-7-18(20(9-14)34-3)37-27-24(31)23(30)22(29)21(10-28)38-27/h4-9,15-16,21-31H,10-12H2,1-3H3
CH$LINK: INCHIKEY KFFCKOBAHMGTMW-UHFFFAOYSA-N
AC$INSTRUMENT: LC, Waters Acquity UPLC System; MS, Waters Xevo G2 Q-Tof
AC$INSTRUMENT_TYPE: LC-ESI-QTOF
AC$MASS_SPECTROMETRY: MS_TYPE MS2
AC$MASS_SPECTROMETRY: ION_MODE NEGATIVE
AC$MASS_SPECTROMETRY: COLLISION_ENERGY 6V
AC$MASS_SPECTROMETRY: DESOLVATION_GAS_FLOW 800/h
AC$MASS_SPECTROMETRY: DESOLVATION_TEMPERATURE 450 C
AC$MASS_SPECTROMETRY: IONIZATION ESI
AC$CHROMATOGRAPHY: CAPILLARY_VOLTAGE -2.75 kV
AC$CHROMATOGRAPHY: COLUMN_NAME Acquity bridged ethyl hybrid C18 (1.7 um, 2.1 mm * 100 mm, Waters)
AC$CHROMATOGRAPHY: COLUMN_TEMPERATURE 40 C
AC$CHROMATOGRAPHY: FLOW_GRADIENT A/B = (99.5%/0.5% at 0 min, 99.5%/0.5% at 0.1 min, 20%/80% at 10 min, 0.5%/99.5% at 10.1 min, 0.5%/99.5% at 12.0 min, 99.5%/0.5% at 12.1 min, 99.5%/0.5% at 15.0 min)
AC$CHROMATOGRAPHY: FLOW_RATE 0.3 ml/min at 0 min, 0.3 ml/min at 10 min, 0.4 ml/min at 10.1 min, 0.4 ml/min at 14.4 min, 0.3 ml/min at 14.5 min
AC$CHROMATOGRAPHY: RETENTION_TIME 5.128117
AC$CHROMATOGRAPHY: SOLVENT A water including 0.1% formic acid
AC$CHROMATOGRAPHY: SOLVENT B acetonitrile including 0.1% formic acid
MS$FOCUSED_ION: PRECURSOR_TYPE [M+HCOO]-
MS$FOCUSED_ION: PRECURSOR_M/Z 579.20831475183
PK$SPLASH: splash10-0a4i-0509000000-94a5952ed4c8c7760d6d
PK$NUM_PEAK: 27
PK$PEAK: m/z int. rel.int.
  53.74781 20.0 20
  104.57061 18.0 18
  107.01447 20.0 20
  113.02457 23.0 23
  121.02975 397.0 397
  122.03101 18.0 18
  122.03996 40.0 40
  135.0405 68.0 68
  151.04526 32.0 32
  152.01813 23.0 23
  161.01759 24.0 24
  163.04358 26.0 26
  164.05714 20.0 20
  176.04185 23.0 23
  239.06241 18.0 18
  241.08081 18.0 18
  255.07526 18.0 18
  281.08313 25.0 25
  297.0777 32.0 32
  307.0817 20.0 20
  311.09183 48.0 48
  313.10495 18.0 18
  324.08057 18.0 18
  356.12473 1000.0 999
  357.12393 107.0 107
  357.14294 40.0 40
  358.12543 24.0 24
//
