ACCESSION: MSBNK-RIKEN-PR300672
RECORD_TITLE: Thalsimine; LC-ESI-QTOF; MS2
DATE: 2019.03.28
AUTHORS: Tetsuya Mori, Center for Sustainable Resource Science, RIKEN
LICENSE: CC BY-NC-SA
PUBLICATION: Tsugawa H., Nakabayashi R., Mori T., Yamada Y., Takahashi M., Rai A., Sugiyama R., Yamamoto H., Nakaya T., Yamazaki M., Kooke R., Bac-Molenaar JA., Oztolan-Erol N., Keurentjes JJB., Arita M., Saito K. (2019) "A cheminformatics approach to characterize metabolomes in stable-isotope-labeled organisms" Nature Methods 16(4):295-298. [doi:10.1038/s41592-019-0358-2]
COMMENT: registered in RIKEN PlaSMA
CH$NAME: Thalsimine
CH$COMPOUND_CLASS: Tannins
CH$FORMULA: C38H40N2O7
CH$EXACT_MASS: 636.745
CH$SMILES: COC1=C2OC3=CC=C(CC4=NCCC5=CC(OC)=C(OC6=C(OC)C(OC)=C(OC)C7=C6[C@H](CC(C=C1)=C2)N(C)CC7)C=C45)C=C3
CH$IUPAC: InChI=1S/C38H40N2O7/c1-40-16-14-26-34-29(40)18-23-9-12-30(41-2)32(19-23)46-25-10-7-22(8-11-25)17-28-27-21-33(31(42-3)20-24(27)13-15-39-28)47-36(34)38(45-6)37(44-5)35(26)43-4/h7-12,19-21,29H,13-18H2,1-6H3/t29-/m0/s1
CH$LINK: INCHIKEY YWNUNVSMOKMJMG-LJAQVGFWSA-N
AC$INSTRUMENT: LC, Waters Acquity UPLC System; MS, Waters Xevo G2 Q-Tof
AC$INSTRUMENT_TYPE: LC-ESI-QTOF
AC$MASS_SPECTROMETRY: MS_TYPE MS2
AC$MASS_SPECTROMETRY: ION_MODE POSITIVE
AC$MASS_SPECTROMETRY: COLLISION_ENERGY 6V
AC$MASS_SPECTROMETRY: DESOLVATION_GAS_FLOW 800/h
AC$MASS_SPECTROMETRY: DESOLVATION_TEMPERATURE 450 C
AC$MASS_SPECTROMETRY: IONIZATION ESI
AC$CHROMATOGRAPHY: CAPILLARY_VOLTAGE +3.00 kV
AC$CHROMATOGRAPHY: COLUMN_NAME Acquity bridged ethyl hybrid C18 (1.7 um, 2.1 mm * 100 mm, Waters)
AC$CHROMATOGRAPHY: COLUMN_TEMPERATURE 40 C
AC$CHROMATOGRAPHY: FLOW_GRADIENT A/B = (99.5%/0.5% at 0 min, 99.5%/0.5% at 0.1 min, 20%/80% at 10 min, 0.5%/99.5% at 10.1 min, 0.5%/99.5% at 12.0 min, 99.5%/0.5% at 12.1 min, 99.5%/0.5% at 15.0 min)
AC$CHROMATOGRAPHY: FLOW_RATE 0.3 ml/min at 0 min, 0.3 ml/min at 10 min, 0.4 ml/min at 10.1 min, 0.4 ml/min at 14.4 min, 0.3 ml/min at 14.5 min
AC$CHROMATOGRAPHY: RETENTION_TIME 4.254667
AC$CHROMATOGRAPHY: SOLVENT A water including 0.1% formic acid
AC$CHROMATOGRAPHY: SOLVENT B acetonitrile including 0.1% formic acid
MS$FOCUSED_ION: PRECURSOR_TYPE [M+H]+
MS$FOCUSED_ION: PRECURSOR_M/Z 637.2908281
PK$SPLASH: splash10-056r-0132291000-c733867fe0dae5b83042
PK$NUM_PEAK: 359
PK$PEAK: m/z int. rel.int.
  70.06675 38.0 38
  91.04855 54.0 54
  119.04359 50.0 50
  143.0705 52.0 52
  157.01955 58.0 58
  159.06979 76.0 76
  163.04758 90.0 90
  163.09019 54.0 54
  174.05869 124.0 124
  174.07909 36.0 36
  174.08914 50.0 50
  176.08444 58.0 58
  178.05763 48.0 48
  178.07649 62.0 62
  179.07158 66.0 66
  180.08388 56.0 56
  188.07262 74.0 74
  189.08458 138.0 138
  189.11502 54.0 54
  190.09373 62.0 62
  192.07512 40.0 40
  192.10495 38.0 38
  194.07228 40.0 40
  195.0862 62.0 62
  196.0706 44.0 44
  200.06425 44.0 44
  203.07703 34.0 34
  204.06375 110.0 110
  204.07596 44.0 44
  204.09789 238.0 238
  204.11089 90.0 90
  205.07944 52.0 52
  207.06804 34.0 34
  207.08496 46.0 46
  208.10257 38.0 38
  212.06267 58.0 58
  218.04767 36.0 36
  218.05971 54.0 54
  218.07561 66.0 66
  218.09401 34.0 34
  219.0921 52.0 52
  221.07748 84.0 84
  221.09886 56.0 56
  221.12392 36.0 36
  222.07637 60.0 60
  222.08345 54.0 54
  222.10176 54.0 54
  222.11458 94.0 94
  223.11165 40.0 40
  224.08757 56.0 56
  224.93016 62.0 62
  227.07019 64.0 64
  227.11328 90.0 90
  232.03546 50.0 50
  232.09142 68.0 68
  234.07866 56.0 56
  234.10657 40.0 40
  235.0737 66.0 66
  235.08618 52.0 52
  235.09979 54.0 54
  235.11946 42.0 42
  236.10403 42.0 42
  236.10982 82.0 82
  236.12079 42.0 42
  238.08752 48.0 48
  238.10918 174.0 174
  239.09807 34.0 34
  240.10451 54.0 54
  248.0687 50.0 50
  248.09523 42.0 42
  249.08987 52.0 52
  249.11703 136.0 136
  250.0793 104.0 104
  250.20639 50.0 50
  251.08797 72.0 72
  252.09192 50.0 50
  252.11018 90.0 90
  252.13606 112.0 112
  252.16138 36.0 36
  253.12024 48.0 48
  255.10727 36.0 36
  257.05295 40.0 40
  259.10846 84.0 84
  261.53851 52.0 52
  262.11371 40.0 40
  264.08597 56.0 56
  264.10989 104.0 104
  265.09335 46.0 46
  265.11612 42.0 42
  266.11334 36.0 36
  279.06207 46.0 46
  279.10361 78.0 78
  280.0961 54.0 54
  280.11642 54.0 54
  281.06592 34.0 34
  281.10016 44.0 44
  282.08215 38.0 38
  282.09509 36.0 36
  282.12643 62.0 62
  283.12256 52.0 52
  285.13727 72.0 72
  292.0593 50.0 50
  293.07132 38.0 38
  294.11102 52.0 52
  294.12643 40.0 40
  297.10284 38.0 38
  304.13464 34.0 34
  307.11218 50.0 50
  310.10544 74.0 74
  311.12039 40.0 40
  317.09946 62.0 62
  323.08081 48.0 48
  325.0954 50.0 50
  326.10071 36.0 36
  327.11295 90.0 90
  329.13736 52.0 52
  333.12665 60.0 60
  335.14188 72.0 72
  338.13004 36.0 36
  340.14548 52.0 52
  342.11136 54.0 54
  342.12805 50.0 50
  343.13568 72.0 72
  347.09146 50.0 50
  350.16943 34.0 34
  352.10593 34.0 34
  352.13293 48.0 48
  353.08597 34.0 34
  356.13086 36.0 36
  357.11218 46.0 46
  358.13547 54.0 54
  360.19962 60.0 60
  364.14548 48.0 48
  365.10983 48.0 48
  366.12924 50.0 50
  368.74521 40.0 40
  370.13699 315.0 315
  371.13062 50.0 50
  371.16357 34.0 34
  371.19492 46.0 46
  373.15729 68.0 68
  373.17599 128.0 128
  381.10532 48.0 48
  381.87234 40.0 40
  382.12677 42.0 42
  383.11224 34.0 34
  384.13739 72.0 72
  385.17749 68.0 68
  386.16669 212.0 212
  386.18225 130.0 130
  387.14978 50.0 50
  387.16891 180.0 180
  388.15649 88.0 88
  389.15305 50.0 50
  392.14453 44.0 44
  393.15707 36.0 36
  394.12827 54.0 54
  396.14182 50.0 50
  396.50729 36.0 36
  399.14105 78.0 78
  399.16934 44.0 44
  400.18127 78.0 78
  400.19757 58.0 58
  401.15042 42.0 42
  401.16696 34.0 34
  403.14429 50.0 50
  403.17361 70.0 70
  410.14719 48.0 48
  411.15912 78.0 78
  413.13589 46.0 46
  416.12381 34.0 34
  416.18652 80.0 80
  417.14587 42.0 42
  417.18048 54.0 54
  417.21411 68.0 68
  424.14706 70.0 70
  424.18286 48.0 48
  432.17862 34.0 34
  433.18518 50.0 50
  439.11456 42.0 42
  439.17752 74.0 74
  439.19965 80.0 80
  442.18997 44.0 44
  447.18988 40.0 40
  448.17426 38.0 38
  449.00009 48.0 48
  449.1665 42.0 42
  453.14331 38.0 38
  453.25659 34.0 34
  454.18344 68.0 68
  457.16006 92.0 92
  458.21701 50.0 50
  459.17453 40.0 40
  460.16559 40.0 40
  462.16953 52.0 52
  467.1893 44.0 44
  471.19119 46.0 46
  471.34225 34.0 34
  472.20535 72.0 72
  473.15768 42.0 42
  474.17236 128.0 128
  476.17667 52.0 52
  477.21393 102.0 102
  479.03265 60.0 60
  480.21103 34.0 34
  485.18567 74.0 74
  487.17612 36.0 36
  489.16623 60.0 60
  489.20285 34.0 34
  490.16486 102.0 102
  490.19345 82.0 82
  491.16888 42.0 42
  492.19455 70.0 70
  494.20416 36.0 36
  499.20657 52.0 52
  499.22501 54.0 54
  500.18475 50.0 50
  500.25168 80.0 80
  501.23749 34.0 34
  502.1427 56.0 56
  502.17041 56.0 56
  504.14905 36.0 36
  504.18707 100.0 100
  505.14575 56.0 56
  505.1666 48.0 48
  506.16022 54.0 54
  508.20239 40.0 40
  512.18933 98.0 98
  514.1803 36.0 36
  515.15088 58.0 58
  515.17267 66.0 66
  515.20941 96.0 96
  516.2475 58.0 58
  517.22675 102.0 102
  518.22815 50.0 50
  519.16364 36.0 36
  520.20044 90.0 90
  521.17719 78.0 78
  522.21277 54.0 54
  523.21155 42.0 42
  526.21967 34.0 34
  527.21991 58.0 58
  529.18182 142.0 142
  529.2215 48.0 48
  530.14148 34.0 34
  530.16199 54.0 54
  530.19427 269.0 269
  531.18829 106.0 106
  531.23138 74.0 74
  532.15997 38.0 38
  532.18658 190.0 190
  532.20923 218.0 218
  532.24731 40.0 40
  533.18127 253.0 253
  533.32654 84.0 84
  533.56769 42.0 42
  533.6001 50.0 50
  534.22003 34.0 34
  535.20447 40.0 40
  535.22839 108.0 108
  537.22852 94.0 94
  540.91034 54.0 54
  541.18561 74.0 74
  542.22833 40.0 40
  543.15509 50.0 50
  543.18176 58.0 58
  543.20319 40.0 40
  544.18054 100.0 100
  544.20239 66.0 66
  544.23621 34.0 34
  545.17365 36.0 36
  545.19617 128.0 128
  545.20789 56.0 56
  545.25842 56.0 56
  545.4054 42.0 42
  546.14917 106.0 106
  546.20972 40.0 40
  547.19781 134.0 134
  547.22815 40.0 40
  548.14368 124.0 124
  548.16693 88.0 88
  548.20325 279.0 279
  549.21143 76.0 76
  550.21912 40.0 40
  550.23102 98.0 98
  551.25604 112.0 112
  553.19806 94.0 94
  557.23016 42.0 42
  559.17224 56.0 56
  559.20026 176.0 176
  559.21716 94.0 94
  559.25323 50.0 50
  560.16089 40.0 40
  560.18274 182.0 182
  560.22595 112.0 112
  561.18848 42.0 42
  561.25055 70.0 70
  562.14111 82.0 82
  562.19391 92.0 92
  562.22321 104.0 104
  562.24347 40.0 40
  562.76477 34.0 34
  563.1637 44.0 44
  563.23126 118.0 118
  564.12488 62.0 62
  564.19165 184.0 184
  564.22998 152.0 152
  565.1955 46.0 46
  565.26758 42.0 42
  566.23126 188.0 188
  568.28241 64.0 64
  568.37561 44.0 44
  572.15198 46.0 46
  572.2066 54.0 54
  573.19861 126.0 126
  574.24292 48.0 48
  575.15564 36.0 36
  575.21948 489.0 489
  576.14868 80.0 80
  576.1803 230.0 230
  576.20209 451.0 451
  576.22394 297.0 297
  576.26178 80.0 80
  577.19696 391.0 391
  577.22284 94.0 94
  578.19354 134.0 134
  578.22858 102.0 102
  578.2627 46.0 46
  578.48401 54.0 54
  579.22693 40.0 40
  580.25671 54.0 54
  582.76331 52.0 52
  589.19891 52.0 52
  589.23114 182.0 182
  589.26746 42.0 42
  590.24188 152.0 152
  591.19354 88.0 88
  591.211 128.0 128
  591.24127 44.0 44
  591.27045 50.0 50
  591.2934 56.0 56
  592.20172 48.0 48
  592.22382 88.0 88
  592.28223 118.0 118
  593.23706 46.0 46
  605.13983 48.0 48
  605.22931 34.0 34
  605.25049 148.0 148
  606.22852 116.0 116
  607.20935 34.0 34
  607.25024 1000.0 999
  607.31024 62.0 62
  608.22711 206.0 206
  608.24878 156.0 156
  608.26837 146.0 146
  621.23792 204.0 204
  621.26306 172.0 172
  622.2196 36.0 36
  622.23712 94.0 94
//
