ACCESSION: MSBNK-RIKEN-PR300234
RECORD_TITLE: Kopsinine; LC-ESI-QTOF; MS2
DATE: 2019.03.28
AUTHORS: Tetsuya Mori, Center for Sustainable Resource Science, RIKEN
LICENSE: CC BY-NC-SA
PUBLICATION: Tsugawa H., Nakabayashi R., Mori T., Yamada Y., Takahashi M., Rai A., Sugiyama R., Yamamoto H., Nakaya T., Yamazaki M., Kooke R., Bac-Molenaar JA., Oztolan-Erol N., Keurentjes JJB., Arita M., Saito K. (2019) "A cheminformatics approach to characterize metabolomes in stable-isotope-labeled organisms" Nature Methods 16(4):295-298. [doi:10.1038/s41592-019-0358-2]
COMMENT: registered in RIKEN PlaSMA
CH$NAME: Kopsinine
CH$COMPOUND_CLASS: Aspidofractine alkaloids
CH$FORMULA: C21H26N2O2
CH$EXACT_MASS: 338.451
CH$SMILES: COC(=O)[C@@H]1C[C@]23CCCN4CC[C@]5(C24)C2=CC=CC=C2N[C@]15CC3
CH$IUPAC: InChI=1S/C21H26N2O2/c1-25-17(24)15-13-19-7-4-11-23-12-10-20(18(19)23)14-5-2-3-6-16(14)22-21(15,20)9-8-19/h2-3,5-6,15,18,22H,4,7-13H2,1H3/t15-,18?,19+,20+,21+/m0/s1
CH$LINK: INCHIKEY IYLRRIUNGGQRTN-GKCDKPGPSA-N
AC$INSTRUMENT: LC, Waters Acquity UPLC System; MS, Waters Xevo G2 Q-Tof
AC$INSTRUMENT_TYPE: LC-ESI-QTOF
AC$MASS_SPECTROMETRY: MS_TYPE MS2
AC$MASS_SPECTROMETRY: ION_MODE POSITIVE
AC$MASS_SPECTROMETRY: COLLISION_ENERGY 6V
AC$MASS_SPECTROMETRY: DESOLVATION_GAS_FLOW 800/h
AC$MASS_SPECTROMETRY: DESOLVATION_TEMPERATURE 450 C
AC$MASS_SPECTROMETRY: IONIZATION ESI
AC$CHROMATOGRAPHY: CAPILLARY_VOLTAGE +3.00 kV
AC$CHROMATOGRAPHY: COLUMN_NAME Acquity bridged ethyl hybrid C18 (1.7 um, 2.1 mm * 100 mm, Waters)
AC$CHROMATOGRAPHY: COLUMN_TEMPERATURE 40 C
AC$CHROMATOGRAPHY: FLOW_GRADIENT A/B = (99.5%/0.5% at 0 min, 99.5%/0.5% at 0.1 min, 20%/80% at 10 min, 0.5%/99.5% at 10.1 min, 0.5%/99.5% at 12.0 min, 99.5%/0.5% at 12.1 min, 99.5%/0.5% at 15.0 min)
AC$CHROMATOGRAPHY: FLOW_RATE 0.3 ml/min at 0 min, 0.3 ml/min at 10 min, 0.4 ml/min at 10.1 min, 0.4 ml/min at 14.4 min, 0.3 ml/min at 14.5 min
AC$CHROMATOGRAPHY: RETENTION_TIME 3.923133
AC$CHROMATOGRAPHY: SOLVENT A water including 0.1% formic acid
AC$CHROMATOGRAPHY: SOLVENT B acetonitrile including 0.1% formic acid
MS$FOCUSED_ION: PRECURSOR_TYPE [M+H]+
MS$FOCUSED_ION: PRECURSOR_M/Z 339.2067045
PK$SPLASH: splash10-000t-0940000000-cd6a79b17d50a31a32ab
PK$NUM_PEAK: 333
PK$PEAK: m/z int. rel.int.
  55.05565 22.0 22
  58.06505 18.0 18
  67.04482 10.0 10
  67.05138 28.0 28
  69.07203 13.0 13
  70.06587 11.0 11
  79.04334 23.0 23
  79.05407 42.0 42
  80.04914 11.0 11
  81.05759 10.0 10
  82.06438 17.0 17
  83.07369 19.0 19
  84.08124 18.0 18
  87.04397 65.0 65
  87.11118 10.0 10
  88.05151 17.0 17
  93.05332 9.0 9
  93.06311 16.0 16
  93.06896 26.0 26
  93.07294 7.0 7
  94.06244 11.0 11
  94.06657 8.0 8
  96.04237 11.0 11
  96.08177 150.0 150
  97.08518 7.0 7
  98.09119 14.0 14
  98.09779 9.0 9
  101.03348 14.0 14
  105.06857 10.0 10
  106.06699 48.0 48
  107.06567 44.0 44
  108.07048 26.0 26
  108.07997 67.0 67
  109.06818 18.0 18
  109.08573 22.0 22
  110.09516 269.0 269
  111.09798 9.0 9
  112.49567 12.0 12
  115.01797 13.0 13
  115.04861 50.0 50
  115.05386 96.0 96
  116.06009 9.0 9
  117.07462 10.0 10
  117.51826 9.0 9
  118.06608 9.0 9
  118.1357 9.0 9
  119.0554 12.0 12
  120.01762 10.0 10
  120.07402 10.0 10
  120.08167 44.0 44
  121.06506 9.0 9
  122.0618 13.0 13
  122.09458 82.0 82
  124.11157 39.0 39
  127.04955 10.0 10
  127.05651 11.0 11
  128.02914 7.0 7
  128.04675 10.0 10
  128.06139 90.0 90
  129.06718 46.0 46
  130.06386 213.0 213
  131.05469 18.0 18
  131.06863 35.0 35
  131.07889 22.0 22
  132.07791 8.0 8
  134.09396 21.0 21
  136.07123 14.0 14
  136.07677 21.0 21
  136.10942 15.0 15
  137.08356 10.0 10
  138.12816 10.0 10
  140.29082 13.0 13
  141.03247 16.0 16
  141.06697 11.0 11
  141.07538 9.0 9
  142.06017 104.0 104
  142.06679 124.0 124
  142.07579 40.0 40
  143.07314 59.0 59
  143.08292 31.0 31
  144.08 241.0 241
  145.05228 8.0 8
  145.07822 9.0 9
  146.10907 18.0 18
  150.09097 9.0 9
  152.05653 9.0 9
  152.1006 10.0 10
  152.80138 16.0 16
  153.06712 19.0 19
  153.07707 11.0 11
  154.04066 13.0 13
  154.0647 119.0 119
  155.05205 12.0 12
  155.06161 36.0 36
  155.07004 67.0 67
  155.07959 15.0 15
  156.03654 13.0 13
  156.04826 59.0 59
  156.06548 13.0 13
  156.07732 82.0 82
  156.08629 100.0 100
  156.09308 55.0 55
  156.55151 9.0 9
  157.02922 9.0 9
  157.04245 14.0 14
  157.06464 14.0 14
  157.0834 123.0 123
  157.08882 59.0 59
  157.44392 10.0 10
  158.05534 9.0 9
  158.08614 20.0 20
  158.09622 19.0 19
  159.10318 14.0 14
  160.07675 10.0 10
  164.08701 12.0 12
  165.06033 9.0 9
  165.59053 8.0 8
  166.05569 27.0 27
  166.06471 9.0 9
  166.0746 9.0 9
  167.07002 246.0 246
  168.05373 10.0 10
  168.07689 327.0 327
  169.07043 20.0 20
  169.08659 73.0 73
  169.61789 8.0 8
  170.04784 32.0 32
  170.06201 84.0 84
  170.08054 42.0 42
  170.09517 198.0 198
  170.74886 12.0 12
  171.06712 11.0 11
  171.0784 13.0 13
  171.0914 10.0 10
  171.09935 33.0 33
  171.10655 16.0 16
  172.06844 30.0 30
  172.07851 8.0 8
  172.36166 9.0 9
  174.09395 14.0 14
  177.05663 11.0 11
  178.06102 10.0 10
  178.07719 9.0 9
  179.07101 10.0 10
  179.07788 23.0 23
  179.08775 15.0 15
  180.0434 10.0 10
  180.07858 531.0 530
  180.09563 10.0 10
  181.06786 20.0 20
  181.08255 219.0 219
  181.09196 72.0 72
  181.36192 13.0 13
  182.04445 16.0 16
  182.0959 263.0 263
  182.11052 15.0 15
  183.07915 12.0 12
  183.0869 10.0 10
  183.09996 23.0 23
  183.10794 22.0 22
  183.33952 11.0 11
  184.09941 12.0 12
  185.10294 15.0 15
  185.37575 7.0 7
  186.09006 9.0 9
  187.04564 7.0 7
  187.09782 15.0 15
  190.05115 16.0 16
  190.06503 13.0 13
  190.07188 12.0 12
  190.93333 7.0 7
  191.02863 8.0 8
  191.06598 16.0 16
  191.07584 29.0 29
  191.08881 18.0 18
  192.08345 107.0 107
  193.0867 104.0 104
  194.06834 10.0 10
  194.08179 66.0 66
  194.09621 408.0 408
  194.10487 108.0 108
  194.46161 13.0 13
  194.97008 9.0 9
  195.05925 10.0 10
  195.08765 96.0 96
  195.09891 196.0 196
  195.28947 7.0 7
  196.08311 27.0 27
  196.10661 180.0 180
  196.11569 262.0 262
  197.06456 13.0 13
  197.08063 39.0 39
  197.10709 1000.0 999
  197.13211 14.0 14
  198.08501 31.0 31
  198.11055 157.0 157
  198.15073 15.0 15
  198.2574 10.0 10
  199.09625 13.0 13
  199.10558 9.0 9
  202.07596 7.0 7
  202.08334 9.0 9
  202.09544 9.0 9
  203.08049 9.0 9
  203.09062 15.0 15
  204.07201 37.0 37
  204.08148 79.0 79
  205.07664 22.0 22
  205.0881 83.0 83
  205.09781 22.0 22
  206.06017 33.0 33
  206.07121 32.0 32
  206.09018 92.0 92
  206.09781 145.0 145
  207.07053 27.0 27
  207.08969 9.0 9
  207.10448 51.0 51
  208.09433 30.0 30
  208.11284 346.0 346
  209.04617 11.0 11
  209.07317 10.0 10
  209.09944 48.0 48
  209.11217 104.0 104
  209.12105 63.0 63
  210.03844 11.0 11
  210.10965 115.0 115
  210.12375 32.0 32
  211.10321 22.0 22
  211.11829 45.0 45
  211.12878 14.0 14
  212.0845 21.0 21
  214.08815 7.0 7
  214.09727 18.0 18
  217.06458 24.0 24
  217.08296 19.0 19
  217.09425 41.0 41
  218.05841 13.0 13
  218.07368 10.0 10
  218.09868 133.0 133
  219.09943 120.0 120
  220.06839 15.0 15
  220.10992 168.0 168
  221.07401 35.0 35
  221.08458 67.0 67
  221.09689 24.0 24
  221.10905 30.0 30
  221.11838 60.0 60
  221.12845 22.0 22
  222.07729 10.0 10
  222.11441 54.0 54
  222.12671 78.0 78
  223.1004 23.0 23
  223.12012 248.0 248
  223.13837 25.0 25
  224.10303 29.0 29
  224.11497 21.0 21
  224.12953 61.0 61
  224.14078 10.0 10
  224.17473 17.0 17
  225.10199 14.0 14
  225.13737 359.0 359
  226.13483 17.0 17
  226.14525 51.0 51
  226.9279 7.0 7
  230.08957 16.0 16
  230.10109 15.0 15
  232.11775 17.0 17
  233.03513 10.0 10
  233.29997 9.0 9
  234.08437 33.0 33
  234.1225 161.0 161
  234.15092 10.0 10
  235.05061 7.0 7
  235.09518 12.0 12
  235.10933 30.0 30
  235.11923 51.0 51
  235.12846 50.0 50
  235.16368 12.0 12
  236.11205 39.0 39
  236.12308 58.0 58
  236.13739 57.0 57
  237.09822 8.0 8
  237.12111 24.0 24
  237.13513 63.0 63
  237.14935 10.0 10
  238.08389 48.0 48
  238.13205 11.0 11
  238.15073 15.0 15
  239.92944 11.0 11
  242.09456 8.0 8
  243.07721 10.0 10
  244.9502 9.0 9
  245.11757 25.0 25
  246.10759 7.0 7
  246.1171 8.0 8
  246.13028 35.0 35
  248.13083 12.0 12
  249.09227 10.0 10
  249.10571 18.0 18
  249.15349 16.0 16
  250.08119 11.0 11
  250.16255 17.0 17
  251.10849 7.0 7
  251.1282 42.0 42
  251.15041 7.0 7
  251.1637 19.0 19
  252.17827 9.0 9
  253.17241 8.0 8
  253.18474 11.0 11
  256.1394 11.0 11
  257.1077 8.0 8
  261.13092 29.0 29
  262.1207 22.0 22
  263.12665 12.0 12
  264.01535 11.0 11
  264.13318 8.0 8
  265.8786 14.0 14
  267.16476 8.0 8
  269.13477 8.0 8
  273.13745 10.0 10
  276.82944 8.0 8
  277.12827 14.0 14
  278.12991 11.0 11
  278.13934 13.0 13
  281.13916 8.0 8
  289.17981 14.0 14
  294.13235 28.0 28
  295.1488 14.0 14
  308.16833 8.0 8
  308.18472 22.0 22
  323.17285 8.0 8
  339.18106 11.0 11
  339.20651 110.0 110
//
