ACCESSION: MSBNK-RIKEN-PR310564
RECORD_TITLE: Hyoscyamine; LC-ESI-QTOF; MS2
DATE: 2019.03.28
AUTHORS: Tetsuya Mori, Center for Sustainable Resource Science, RIKEN
LICENSE: CC BY-NC-SA
PUBLICATION: Tsugawa H., Nakabayashi R., Mori T., Yamada Y., Takahashi M., Rai A., Sugiyama R., Yamamoto H., Nakaya T., Yamazaki M., Kooke R., Bac-Molenaar JA., Oztolan-Erol N., Keurentjes JJB., Arita M., Saito K. (2019) "A cheminformatics approach to characterize metabolomes in stable-isotope-labeled organisms" Nature Methods 16(4):295-298. [doi:10.1038/s41592-019-0358-2]
COMMENT: Annotation level-1
CH$NAME: Hyoscyamine
CH$COMPOUND_CLASS: Alkaloids
CH$FORMULA: C17H23NO3
CH$EXACT_MASS: 289.375
CH$SMILES: CN1C2CCC1CC(C2)OC(=O)C(CO)C1=CC=CC=C1
CH$IUPAC: InChI=1S/C17H23NO3/c1-18-13-7-8-14(18)10-15(9-13)21-17(20)16(11-19)12-5-3-2-4-6-12/h2-6,13-16,19H,7-11H2,1H3
CH$LINK: INCHIKEY RKUNBYITZUJHSG-UHFFFAOYSA-N
AC$INSTRUMENT: LC, Waters Acquity UPLC System; MS, Waters Xevo G2 Q-Tof
AC$INSTRUMENT_TYPE: LC-ESI-QTOF
AC$MASS_SPECTROMETRY: MS_TYPE MS2
AC$MASS_SPECTROMETRY: ION_MODE POSITIVE
AC$MASS_SPECTROMETRY: COLLISION_ENERGY 6V
AC$MASS_SPECTROMETRY: DESOLVATION_GAS_FLOW 800/h
AC$MASS_SPECTROMETRY: DESOLVATION_TEMPERATURE 450 C
AC$MASS_SPECTROMETRY: IONIZATION ESI
AC$CHROMATOGRAPHY: CAPILLARY_VOLTAGE +3.00 kV
AC$CHROMATOGRAPHY: COLUMN_NAME Acquity bridged ethyl hybrid C18 (1.7 um, 2.1 mm * 100 mm, Waters)
AC$CHROMATOGRAPHY: COLUMN_TEMPERATURE 40 C
AC$CHROMATOGRAPHY: FLOW_GRADIENT A/B = (99.5%/0.5% at 0 min, 99.5%/0.5% at 0.1 min, 20%/80% at 10 min, 0.5%/99.5% at 10.1 min, 0.5%/99.5% at 12.0 min, 99.5%/0.5% at 12.1 min, 99.5%/0.5% at 15.0 min)
AC$CHROMATOGRAPHY: FLOW_RATE 0.3 ml/min at 0 min, 0.3 ml/min at 10 min, 0.4 ml/min at 10.1 min, 0.4 ml/min at 14.4 min, 0.3 ml/min at 14.5 min
AC$CHROMATOGRAPHY: RETENTION_TIME 3.59
AC$CHROMATOGRAPHY: SOLVENT A water including 0.1% formic acid
AC$CHROMATOGRAPHY: SOLVENT B acetonitrile including 0.1% formic acid
MS$FOCUSED_ION: PRECURSOR_TYPE [M+H]+
MS$FOCUSED_ION: PRECURSOR_M/Z 290.17507
PK$SPLASH: splash10-0006-1290000000-570d40706211629e7747
PK$NUM_PEAK: 221
PK$PEAK: m/z int. rel.int.
  56.05286 22.0 0
  57.0597 18.0 0
  57.12263 19.0 0
  58.05824 26.0 0
  58.06526 37.0 0
  59.93867 19.0 0
  67.04323 46.0 1
  67.04789 19.0 0
  67.05547 215.0 2
  68.02714 42.0 0
  68.04283 18.0 0
  68.05033 51.0 1
  68.20711 31.0 0
  69.05109 31.0 0
  69.05616 28.0 0
  70.06532 101.0 1
  70.22781 17.0 0
  73.50779 23.0 0
  77.04106 489.0 5
  79.05692 120.0 1
  80.30577 18.0 0
  81.05207 18.0 0
  81.27784 23.0 0
  82.05452 30.0 0
  82.06573 377.0 4
  83.06583 34.0 0
  83.07337 207.0 2
  83.08858 30.0 0
  84.07591 36.0 0
  84.08629 18.0 0
  86.48292 37.0 0
  86.50843 19.0 0
  86.69918 29.0 0
  88.57265 18.0 0
  89.33056 30.0 0
  89.81477 17.0 0
  91.03584 28.0 0
  91.05199 507.0 6
  91.05605 958.0 10
  91.17397 52.0 1
  92.05814 143.0 2
  92.54437 42.0 0
  93.04675 108.0 1
  93.06995 5741.0 63
  93.13301 20.0 0
  93.16795 31.0 0
  93.44243 23.0 0
  93.54686 19.0 0
  93.5826 17.0 0
  94.06506 132.0 1
  94.07468 590.0 6
  94.63455 21.0 0
  95.07531 38.0 0
  95.08418 190.0 2
  95.0893 133.0 1
  95.12055 38.0 0
  95.9931 17.0 0
  96.07656 154.0 2
  96.08172 91.0 1
  96.08715 47.0 1
  97.08776 52.0 1
  98.09512 91.0 1
  98.47277 17.0 0
  99.68163 28.0 0
  99.94633 17.0 0
  102.04842 60.0 1
  103.0525 291.0 3
  103.37503 17.0 0
  104.06505 25.0 0
  107.08858 22.0 0
  108.9538 18.0 0
  109.09587 81.0 1
  109.85014 17.0 0
  110.09686 21.0 0
  110.97451 17.0 0
  113.16449 17.0 0
  116.02619 25.0 0
  117.06377 23.0 0
  121.0631 502.0 5
  121.25828 46.0 1
  122.07301 72.0 1
  122.09654 46.0 1
  123.09477 27.0 0
  124.01411 27.0 0
  124.04762 20.0 0
  124.06821 33.0 0
  124.08176 60.0 1
  124.0879 248.0 3
  124.11263 23118.0 252
  124.14433 313.0 3
  124.55286 20.0 0
  124.73242 19.0 0
  124.81996 18.0 0
  124.98157 17.0 0
  125.0485 18.0 0
  125.09087 36.0 0
  125.11549 3246.0 35
  125.16231 17.0 0
  125.93506 17.0 0
  126.12167 182.0 2
  126.13002 53.0 1
  127.11485 30.0 0
  127.57712 18.0 0
  127.67935 21.0 0
  128.2001 17.0 0
  128.33215 19.0 0
  130.09309 30.0 0
  130.22826 24.0 0
  131.05222 26.0 0
  136.49698 17.0 0
  137.43568 19.0 0
  140.06926 50.0 1
  140.10756 179.0 2
  142.10234 117.0 1
  142.12201 924.0 10
  142.12961 195.0 2
  143.11867 30.0 0
  143.12714 43.0 0
  144.05412 20.0 0
  146.07437 27.0 0
  146.43993 23.0 0
  154.07065 20.0 0
  157.10287 20.0 0
  159.88736 25.0 0
  164.26422 33.0 0
  164.94864 18.0 0
  165.5923 20.0 0
  168.05661 25.0 0
  169.10773 36.0 0
  169.68816 38.0 0
  169.78224 18.0 0
  170.94061 17.0 0
  171.11536 33.0 0
  172.47244 33.0 0
  173.18477 24.0 0
  175.27286 31.0 0
  176.50717 22.0 0
  177.60469 28.0 0
  178.33812 18.0 0
  180.30363 27.0 0
  182.20424 17.0 0
  182.8905 22.0 0
  184.22644 25.0 0
  189.65923 17.0 0
  191.535 30.0 0
  203.99072 28.0 0
  206.28275 20.0 0
  208.81177 23.0 0
  213.90756 17.0 0
  214.16 167.0 2
  215.15991 23.0 0
  215.17224 38.0 0
  215.58299 18.0 0
  217.78265 19.0 0
  223.47569 31.0 0
  224.39304 27.0 0
  226.41425 31.0 0
  230.90166 30.0 0
  231.87117 45.0 0
  232.64008 20.0 0
  241.45148 22.0 0
  242.14899 41.0 0
  242.15849 50.0 1
  243.04565 24.0 0
  247.54427 18.0 0
  248.26761 23.0 0
  252.99033 33.0 0
  260.1098 17.0 0
  260.13382 18.0 0
  260.16202 610.0 7
  260.1723 257.0 3
  261.17233 96.0 1
  261.18048 29.0 0
  261.33475 18.0 0
  261.47968 32.0 0
  266.44717 21.0 0
  266.64175 22.0 0
  266.65906 42.0 0
  267.16641 24.0 0
  268.32455 24.0 0
  270.85165 17.0 0
  272.12778 20.0 0
  272.1611 81.0 1
  272.17236 33.0 0
  276.10352 53.0 1
  277.44449 24.0 0
  282.92319 29.0 0
  284.63455 18.0 0
  284.64719 35.0 0
  284.69214 18.0 0
  284.90811 18.0 0
  285.16299 19.0 0
  285.62601 17.0 0
  286.14148 17.0 0
  286.22821 17.0 0
  286.38641 18.0 0
  288.21091 18.0 0
  288.35083 17.0 0
  288.87933 20.0 0
  289.17154 28.0 0
  289.42719 20.0 0
  289.48117 17.0 0
  289.49142 23.0 0
  289.70721 21.0 0
  289.72842 17.0 0
  289.83615 17.0 0
  289.86679 27.0 0
  289.90927 17.0 0
  289.98267 37.0 0
  290.00012 20.0 0
  290.069 63.0 1
  290.10406 92.0 1
  290.12396 61.0 1
  290.13626 69.0 1
  290.17639 91544.0 999
  290.19907 34.0 0
  290.22495 3360.0 37
  290.26953 727.0 8
  290.31552 34.0 0
  290.32446 35.0 0
  290.37662 1564.0 17
//
