ACCESSION: MSBNK-RIKEN-PR100226
RECORD_TITLE: Eriodictyol; LC-ESI-QTOF; MS2; CE:Ramp 5-60 V; [M+H]+
DATE: 2016.01.19 (Created 2009.09.10, modified 2011.05.06)
AUTHORS: Matsuda F, Suzuki M, Sawada Y, Plant Science Center, RIKEN.
LICENSE: CC BY-SA
COMMENT: Acquisition and generation of the data is financially supported in part by CREST/JST.
CH$NAME: Eriodictyol
CH$NAME: Erid
CH$NAME: Eriodictiol
CH$NAME: 3',4',5,7-tetrahydroxyflavanone
CH$COMPOUND_CLASS: Flavonoid
CH$FORMULA: C15H12O6
CH$EXACT_MASS: 288.06339
CH$SMILES: Oc(c3)c(O)cc(c3)[C@H](C1)Oc(c2)c(c(O)cc(O)2)C(=O)1
CH$IUPAC: InChI=1S/C15H12O6/c16-8-4-11(19)15-12(20)6-13(21-14(15)5-8)7-1-2-9(17)10(18)3-7/h1-5,13,16-19H,6H2/t13-/m0/s1
CH$LINK: CAS 552-58-9
CH$LINK: CHEMSPIDER 389606
CH$LINK: KEGG C05631
CH$LINK: KNAPSACK C00000960
CH$LINK: PUBCHEM CID:440735
CH$LINK: INCHIKEY SBHXYTNGIZCORC-ZDUSSCGKSA-N
CH$LINK: COMPTOX DTXSID70877706
AC$INSTRUMENT: UPLC Q-Tof Premier, Waters
AC$INSTRUMENT_TYPE: LC-ESI-QTOF
AC$MASS_SPECTROMETRY: MS_TYPE MS2
AC$MASS_SPECTROMETRY: ION_MODE POSITIVE
AC$MASS_SPECTROMETRY: COLLISION_ENERGY Ramp 5-60 V
AC$MASS_SPECTROMETRY: DATAFORMAT Continuum
AC$MASS_SPECTROMETRY: DESOLVATION_GAS_FLOW 600.0 L/Hr
AC$MASS_SPECTROMETRY: DESOLVATION_TEMPERATURE 400 C
AC$MASS_SPECTROMETRY: FRAGMENTATION_METHOD LOW-ENERGY CID
AC$MASS_SPECTROMETRY: IONIZATION ESI
AC$MASS_SPECTROMETRY: SOURCE_TEMPERATURE 120 C
AC$CHROMATOGRAPHY: CAPILLARY_VOLTAGE 3.0 kV
AC$CHROMATOGRAPHY: SAMPLING_CONE 23.0 V
AC$CHROMATOGRAPHY: SOLVENT A CH3CN(0.1%HCOOH)
AC$CHROMATOGRAPHY: SOLVENT B H2O(0.1%HCOOH)
MS$FOCUSED_ION: PRECURSOR_M/Z 289.07119
MS$FOCUSED_ION: PRECURSOR_TYPE [M+H]+
PK$SPLASH: splash10-0f79-1930000000-1bd4ad63c015087fbdb2
PK$NUM_PEAK: 10
PK$PEAK: m/z int. rel.int.
  68.9989 65.45 51
  89.0402 239.8 185
  117.0356 187.6 145
  123.0460 67.17 52
  135.0459 181.5 140
  145.0307 191.2 148
  153.0200 1294 999
  163.0411 693.7 536
  179.0362 78.81 61
  289.0712 985.2 761
//
