ACCESSION: MSBNK-RIKEN-PR307108
RECORD_TITLE: NP-006989(12); LC-ESI-QTOF; MS2
DATE: 2019.03.28
AUTHORS: Tetsuya Mori, Center for Sustainable Resource Science, RIKEN
LICENSE: CC BY-NC-SA
PUBLICATION: Tsugawa H., Nakabayashi R., Mori T., Yamada Y., Takahashi M., Rai A., Sugiyama R., Yamamoto H., Nakaya T., Yamazaki M., Kooke R., Bac-Molenaar JA., Oztolan-Erol N., Keurentjes JJB., Arita M., Saito K. (2019) "A cheminformatics approach to characterize metabolomes in stable-isotope-labeled organisms" Nature Methods 16(4):295-298. [doi:10.1038/s41592-019-0358-2]
COMMENT: registered in RIKEN PlaSMA
CH$NAME: NP-006989(12)
CH$COMPOUND_CLASS: Flavonoid 8-C-glycosides
CH$FORMULA: C27H30O16
CH$EXACT_MASS: 610.521
CH$SMILES: OCC1OC(C(O)C(O)C1O)C1=C(O)C(C2OC(CO)C(O)C(O)C2O)=C2OC(=CC(=O)C2=C1O)C1=CC(O)=C(O)C=C1
CH$IUPAC: InChI=1S/C27H30O16/c28-5-12-17(33)21(37)23(39)26(42-12)15-19(35)14-10(32)4-11(7-1-2-8(30)9(31)3-7)41-25(14)16(20(15)36)27-24(40)22(38)18(34)13(6-29)43-27/h1-4,12-13,17-18,21-24,26-31,33-40H,5-6H2
CH$LINK: INCHIKEY ZLPSOQFIIQIIAX-UHFFFAOYSA-N
AC$INSTRUMENT: LC, Waters Acquity UPLC System; MS, Waters Xevo G2 Q-Tof
AC$INSTRUMENT_TYPE: LC-ESI-QTOF
AC$MASS_SPECTROMETRY: MS_TYPE MS2
AC$MASS_SPECTROMETRY: ION_MODE NEGATIVE
AC$MASS_SPECTROMETRY: COLLISION_ENERGY 6V
AC$MASS_SPECTROMETRY: DESOLVATION_GAS_FLOW 800/h
AC$MASS_SPECTROMETRY: DESOLVATION_TEMPERATURE 450 C
AC$MASS_SPECTROMETRY: IONIZATION ESI
AC$CHROMATOGRAPHY: CAPILLARY_VOLTAGE -2.75 kV
AC$CHROMATOGRAPHY: COLUMN_NAME Acquity bridged ethyl hybrid C18 (1.7 um, 2.1 mm * 100 mm, Waters)
AC$CHROMATOGRAPHY: COLUMN_TEMPERATURE 40 C
AC$CHROMATOGRAPHY: FLOW_GRADIENT A/B = (99.5%/0.5% at 0 min, 99.5%/0.5% at 0.1 min, 20%/80% at 10 min, 0.5%/99.5% at 10.1 min, 0.5%/99.5% at 12.0 min, 99.5%/0.5% at 12.1 min, 99.5%/0.5% at 15.0 min)
AC$CHROMATOGRAPHY: FLOW_RATE 0.3 ml/min at 0 min, 0.3 ml/min at 10 min, 0.4 ml/min at 10.1 min, 0.4 ml/min at 14.4 min, 0.3 ml/min at 14.5 min
AC$CHROMATOGRAPHY: RETENTION_TIME 3.077283
AC$CHROMATOGRAPHY: SOLVENT A water including 0.1% formic acid
AC$CHROMATOGRAPHY: SOLVENT B acetonitrile including 0.1% formic acid
MS$FOCUSED_ION: PRECURSOR_TYPE [M-H]-
MS$FOCUSED_ION: PRECURSOR_M/Z 609.14610844783
PK$SPLASH: splash10-014j-0009500000-6767e83fba58244051ea
PK$NUM_PEAK: 182
PK$PEAK: m/z int. rel.int.
  69.30687 7.0 7
  113.0235 6.0 6
  119.03382 5.0 5
  133.02505 13.0 13
  133.02974 5.0 5
  149.02715 6.0 6
  150.09297 5.0 5
  167.0661 6.0 6
  177.01395 7.0 7
  177.05455 6.0 6
  190.00253 8.0 8
  191.0407 9.0 9
  205.63821 7.0 7
  223.24426 5.0 5
  224.56012 6.0 6
  228.08449 6.0 6
  253.04628 6.0 6
  257.04303 7.0 7
  258.27441 7.0 7
  265.04303 5.0 5
  266.06033 6.0 6
  273.04303 6.0 6
  278.05438 7.0 7
  280.07614 6.0 6
  281.35321 8.0 8
  285.04346 8.0 8
  297.03635 14.0 14
  298.03 6.0 6
  298.04886 23.0 23
  302.13651 8.0 8
  308.98752 6.0 6
  309.04901 7.0 7
  311.05481 16.0 16
  312.06406 11.0 11
  313.01932 8.0 8
  313.07568 36.0 36
  314.08408 5.0 5
  314.64136 10.0 10
  327.04684 50.0 50
  327.05737 25.0 25
  330.07535 8.0 8
  335.09567 7.0 7
  337.03482 15.0 15
  339.05121 127.0 127
  340.03348 6.0 6
  340.05795 50.0 50
  341.05923 19.0 19
  341.07104 13.0 13
  352.0658 10.0 10
  353.0593 19.0 19
  354.06064 6.0 6
  354.13025 5.0 5
  355.07697 6.0 6
  356.05524 5.0 5
  356.38748 5.0 5
  357.05429 18.0 18
  357.06854 13.0 13
  358.06241 14.0 14
  364.0538 6.0 6
  365.06094 14.0 14
  367.04996 25.0 25
  368.05484 14.0 14
  368.06799 7.0 7
  369.06039 1000.0 999
  369.09235 10.0 10
  370.06271 277.0 277
  371.06528 20.0 20
  371.07748 14.0 14
  371.96735 6.0 6
  372.08008 5.0 5
  380.04691 8.0 8
  380.2417 7.0 7
  381.03677 8.0 8
  381.06097 84.0 84
  382.05853 42.0 42
  383.08109 25.0 25
  385.04193 9.0 9
  385.08603 7.0 7
  386.0473 5.0 5
  386.0654 7.0 7
  389.07181 10.0 10
  393.06467 6.0 6
  395.06186 6.0 6
  395.08621 5.0 5
  397.05429 15.0 15
  399.04071 27.0 27
  399.07071 627.0 626
  400.06631 116.0 116
  400.08322 90.0 90
  400.12228 6.0 6
  400.33313 9.0 9
  401.05927 9.0 9
  401.08221 48.0 48
  402.10367 7.0 7
  405.05402 10.0 10
  407.4198 7.0 7
  408.66928 6.0 6
  411.07205 99.0 99
  412.07068 7.0 7
  412.08023 18.0 18
  413.06915 10.0 10
  413.08585 8.0 8
  415.08542 6.0 6
  423.07291 28.0 28
  425.08844 6.0 6
  427.07605 6.0 6
  428.06897 12.0 12
  428.53763 5.0 5
  429.07108 107.0 107
  429.08914 113.0 113
  430.08521 46.0 46
  430.10541 8.0 8
  431.07108 10.0 10
  431.33524 8.0 8
  432.09467 7.0 7
  435.08087 24.0 24
  435.0975 7.0 7
  438.08282 6.0 6
  440.11731 6.0 6
  441.07758 95.0 95
  441.10364 19.0 19
  442.08569 7.0 7
  445.96542 5.0 5
  447.09702 19.0 19
  453.07272 21.0 21
  453.09354 19.0 19
  455.0849 5.0 5
  456.55518 9.0 9
  459.07126 10.0 10
  459.09116 26.0 26
  459.10425 39.0 39
  460.08072 12.0 12
  460.10056 21.0 21
  465.09119 15.0 15
  471.09485 81.0 81
  471.12433 12.0 12
  472.07635 5.0 5
  472.09454 8.0 8
  472.12091 5.0 5
  473.11832 7.0 7
  475.07608 5.0 5
  475.09744 6.0 6
  483.09647 12.0 12
  484.10553 6.0 6
  487.08151 7.0 7
  487.09375 16.0 16
  488.08118 25.0 25
  488.0965 25.0 25
  488.92453 5.0 5
  488.96265 5.0 5
  489.06882 7.0 7
  489.10248 347.0 347
  490.10645 78.0 78
  490.13211 7.0 7
  491.10074 13.0 13
  491.13034 7.0 7
  493.1402 7.0 7
  501.09082 21.0 21
  502.10654 7.0 7
  517.10315 8.0 8
  518.23096 5.0 5
  519.10614 67.0 67
  519.13824 10.0 10
  520.11566 33.0 33
  521.09332 7.0 7
  522.12708 6.0 6
  530.1001 8.0 8
  532.10925 6.0 6
  532.13544 7.0 7
  544.11389 6.0 6
  556.10394 8.0 8
  573.12738 6.0 6
  574.01123 7.0 7
  574.12451 5.0 5
  579.14044 11.0 11
  580.15259 11.0 11
  591.12451 7.0 7
  607.12665 23.0 23
  608.14545 16.0 16
  609.13 16.0 16
  609.14911 12.0 12
  609.17126 20.0 20
//
