ACCESSION: MSBNK-RIKEN-PR020102
RECORD_TITLE: Dihydrozeatin riboside; LC-ESI-QQ; MS2; CE:10.0 eV; [M+H]+
DATE: 2016.01.19 (Created 2007.12.03, modified 2011.05.06)
AUTHORS: Kojima M, Sakakibara H, Plant Science Center, RIKEN.
LICENSE: CC BY-SA
CH$NAME: Dihydrozeatin riboside
CH$NAME: Dihydrozeatin ribonucleoside
CH$NAME: Adenosine, N-(4-hydroxy-3-methylbutyl)-
CH$COMPOUND_CLASS: N/A
CH$FORMULA: C15H23N5O5
CH$EXACT_MASS: 353.16992
CH$SMILES: CC(CCNC1=C2C(=NC=N1)N(C=N2)[C@H]3[C@@H]([C@@H]([C@H](O3)CO)O)O)CO
CH$IUPAC: InChI=1S/C15H23N5O5/c1-8(4-21)2-3-16-13-10-14(18-6-17-13)20(7-19-10)15-12(24)11(23)9(5-22)25-15/h6-9,11-12,15,21-24H,2-5H2,1H3,(H,16,17,18)/t8?,9-,11-,12-,15-/m1/s1
CH$LINK: CAS 22663-55-4
CH$LINK: NIKKAJI J120.779B
CH$LINK: PUBCHEM CID:10522005
CH$LINK: INCHIKEY DBVVQDGIJAUEAZ-YXYADJKSSA-N
CH$LINK: COMPTOX DTXSID50441247
AC$INSTRUMENT: UPLC Waters, Quattro Ultima Pt Micromass
AC$INSTRUMENT_TYPE: LC-ESI-QQ
AC$MASS_SPECTROMETRY: MS_TYPE MS2
AC$MASS_SPECTROMETRY: ION_MODE POSITIVE
AC$MASS_SPECTROMETRY: COLLISION_ENERGY 10.0 eV
AC$MASS_SPECTROMETRY: DATAFORMAT Centroid
AC$MASS_SPECTROMETRY: DESOLVATION_GAS_FLOW 565 L/Hr
AC$MASS_SPECTROMETRY: DESOLVATION_TEMPERATURE 400 C
AC$MASS_SPECTROMETRY: FRAGMENTATION_MODE LOW-ENERGY CID
AC$MASS_SPECTROMETRY: IONIZATION ESI
AC$MASS_SPECTROMETRY: SCANNING 0.2 sec/scan (m/z=50-500)
AC$MASS_SPECTROMETRY: SOURCE_TEMPERATURE 140 C
AC$CHROMATOGRAPHY: CAPILLARY_VOLTAGE 3.1 kV
AC$CHROMATOGRAPHY: COLUMN_NAME ACQUITY UPLC BEH C18 2.1 by 50 mm (Waters, Milford, MA, USA)
AC$CHROMATOGRAPHY: COLUMN_TEMPERATURE 40 C
AC$CHROMATOGRAPHY: FLOW_GRADIENT 0.1/99.9 at 0 min, 9.0/91.0 at 2 min, 12.5/87.5 at 7 min, 30/70 at 10 min, 50/50 at 12 min, 50/50 at 13 min, 99.9/0.1 at 15 min
AC$CHROMATOGRAPHY: FLOW_RATE 0.25 ml/min
AC$CHROMATOGRAPHY: RETENTION_TIME 10.13 min
AC$CHROMATOGRAPHY: SAMPLING_CONE 53 V
AC$CHROMATOGRAPHY: SOLVENT A CH3CN(0.05% HCOOH)
AC$CHROMATOGRAPHY: SOLVENT B HCOOH(0.05% CH3CN)
MS$FOCUSED_ION: FULL_SCAN_FRAGMENT_ION_PEAK 353
MS$FOCUSED_ION: PRECURSOR_M/Z 354
MS$FOCUSED_ION: PRECURSOR_TYPE [M+H]+
MS$DATA_PROCESSING: WHOLE MassLynx 4.0
PK$SPLASH: splash10-0uk9-0069000000-ff78500a629fda91f398
PK$NUM_PEAK: 2
PK$PEAK: m/z int. rel.int.
  222.028 3.452E+7 736
  354.007 4.684E+7 999
//
