ACCESSION: MSBNK-RIKEN-PR305815
RECORD_TITLE: Daidzein-8-C-glucoside; LC-ESI-QTOF; MS2
DATE: 2019.03.28
AUTHORS: Tetsuya Mori, Center for Sustainable Resource Science, RIKEN
LICENSE: CC BY-NC-SA
PUBLICATION: Tsugawa H., Nakabayashi R., Mori T., Yamada Y., Takahashi M., Rai A., Sugiyama R., Yamamoto H., Nakaya T., Yamazaki M., Kooke R., Bac-Molenaar JA., Oztolan-Erol N., Keurentjes JJB., Arita M., Saito K. (2019) "A cheminformatics approach to characterize metabolomes in stable-isotope-labeled organisms" Nature Methods 16(4):295-298. [doi:10.1038/s41592-019-0358-2]
COMMENT: registered in RIKEN PlaSMA
CH$NAME: Daidzein-8-C-glucoside
CH$COMPOUND_CLASS: Isoflavonoid C-glycosides
CH$FORMULA: C21H20O9
CH$EXACT_MASS: 416.382
CH$SMILES: C1=CC(=CC=C1C2=COC3=C(C2=O)C=CC(=C3[C@H]4[C@@H]([C@H]([C@@H]([C@H](O4)CO)O)O)O)O)O
CH$IUPAC: InChI=1S/C21H20O9/c22-7-14-17(26)18(27)19(28)21(30-14)15-13(24)6-5-11-16(25)12(8-29-20(11)15)9-1-3-10(23)4-2-9/h1-6,8,14,17-19,21-24,26-28H,7H2/t14-,17-,18+,19-,21+/m1/s1
CH$LINK: INCHIKEY HKEAFJYKMMKDOR-VPRICQMDSA-N
AC$INSTRUMENT: LC, Waters Acquity UPLC System; MS, Waters Xevo G2 Q-Tof
AC$INSTRUMENT_TYPE: LC-ESI-QTOF
AC$MASS_SPECTROMETRY: MS_TYPE MS2
AC$MASS_SPECTROMETRY: ION_MODE NEGATIVE
AC$MASS_SPECTROMETRY: COLLISION_ENERGY 6V
AC$MASS_SPECTROMETRY: DESOLVATION_GAS_FLOW 800/h
AC$MASS_SPECTROMETRY: DESOLVATION_TEMPERATURE 450 C
AC$MASS_SPECTROMETRY: IONIZATION ESI
AC$CHROMATOGRAPHY: CAPILLARY_VOLTAGE -2.75 kV
AC$CHROMATOGRAPHY: COLUMN_NAME Acquity bridged ethyl hybrid C18 (1.7 um, 2.1 mm * 100 mm, Waters)
AC$CHROMATOGRAPHY: COLUMN_TEMPERATURE 40 C
AC$CHROMATOGRAPHY: FLOW_GRADIENT A/B = (99.5%/0.5% at 0 min, 99.5%/0.5% at 0.1 min, 20%/80% at 10 min, 0.5%/99.5% at 10.1 min, 0.5%/99.5% at 12.0 min, 99.5%/0.5% at 12.1 min, 99.5%/0.5% at 15.0 min)
AC$CHROMATOGRAPHY: FLOW_RATE 0.3 ml/min at 0 min, 0.3 ml/min at 10 min, 0.4 ml/min at 10.1 min, 0.4 ml/min at 14.4 min, 0.3 ml/min at 14.5 min
AC$CHROMATOGRAPHY: RETENTION_TIME 3.2688
AC$CHROMATOGRAPHY: SOLVENT A water including 0.1% formic acid
AC$CHROMATOGRAPHY: SOLVENT B acetonitrile including 0.1% formic acid
MS$FOCUSED_ION: PRECURSOR_TYPE [M-H]-
MS$FOCUSED_ION: PRECURSOR_M/Z 415.10345574783
PK$SPLASH: splash10-00yi-0590000000-32c3a19611b0e2af039f
PK$NUM_PEAK: 182
PK$PEAK: m/z int. rel.int.
  51.15964 21.0 21
  59.00922 16.0 16
  67.01968 9.0 9
  78.04665 17.0 17
  89.00638 13.0 13
  89.04067 29.0 29
  90.04375 9.0 9
  91.01968 18.0 18
  93.03207 20.0 20
  95.00992 14.0 14
  103.01171 14.0 14
  103.01982 12.0 12
  104.02925 33.0 33
  105.0332 230.0 230
  106.03203 10.0 10
  106.03941 41.0 41
  106.16695 9.0 9
  116.02666 12.0 12
  117.0306 123.0 123
  117.03606 71.0 71
  118.0359 43.0 43
  119.04683 20.0 20
  119.05208 42.0 42
  120.0187 11.0 11
  120.05669 22.0 22
  121.02865 15.0 15
  129.04025 10.0 10
  130.04454 41.0 41
  131.01357 17.0 17
  131.0457 11.0 11
  132.02026 325.0 325
  133.02786 739.0 738
  134.03104 14.0 14
  134.03822 9.0 9
  135.00217 11.0 11
  135.01068 34.0 34
  135.01454 12.0 12
  135.03694 24.0 24
  143.04289 13.0 13
  143.05159 9.0 9
  145.02039 26.0 26
  145.02855 43.0 43
  145.04164 10.0 10
  146.0265 10.0 10
  146.03648 41.0 41
  147.03654 10.0 10
  148.04254 10.0 10
  149.02187 119.0 119
  150.17285 12.0 12
  151.05669 12.0 12
  151.78618 14.0 14
  155.05032 17.0 17
  158.02797 16.0 16
  158.04034 14.0 14
  160.48799 13.0 13
  161.01857 10.0 10
  164.05055 10.0 10
  165.07248 15.0 15
  167.04486 24.0 24
  167.05484 12.0 12
  167.08693 9.0 9
  168.04845 16.0 16
  169.05991 16.0 16
  169.06786 29.0 29
  169.07355 10.0 10
  170.06787 10.0 10
  170.78197 27.0 27
  172.08533 13.0 13
  173.02048 14.0 14
  173.03188 18.0 18
  174.0303 14.0 14
  174.03966 16.0 16
  175.11813 9.0 9
  176.06609 15.0 15
  177.07048 9.0 9
  178.08319 11.0 11
  180.05653 80.0 80
  181.06459 79.0 79
  182.02863 15.0 15
  182.05768 14.0 14
  182.07349 39.0 39
  183.0387 16.0 16
  183.05182 22.0 22
  184.02148 26.0 26
  184.80339 10.0 10
  187.03297 17.0 17
  191.05208 13.0 13
  191.09105 11.0 11
  192.05519 10.0 10
  193.06213 246.0 246
  194.05867 10.0 10
  194.07246 162.0 162
  195.04071 104.0 104
  195.07639 70.0 70
  196.05215 172.0 172
  196.08136 13.0 13
  196.09297 12.0 12
  197.05072 10.0 10
  197.18431 16.0 16
  198.06279 10.0 10
  200.00528 9.0 9
  203.04907 17.0 17
  204.05711 41.0 41
  205.06488 41.0 41
  208.05534 204.0 204
  208.27155 12.0 12
  209.05927 382.0 382
  210.05914 24.0 24
  210.06915 59.0 59
  211.03853 23.0 23
  211.06259 9.0 9
  211.07278 20.0 20
  211.08249 25.0 25
  212.04414 12.0 12
  212.07364 17.0 17
  212.08418 25.0 25
  219.05013 21.0 21
  220.04103 9.0 9
  220.05667 30.0 30
  221.05673 233.0 233
  221.06494 109.0 109
  221.08882 11.0 11
  222.06757 758.0 757
  222.229 9.0 9
  222.41499 17.0 17
  223.03134 66.0 66
  223.04198 181.0 181
  223.07155 445.0 445
  224.04668 387.0 387
  224.07033 30.0 30
  224.08047 37.0 37
  225.05141 103.0 103
  225.07791 12.0 12
  228.52184 14.0 14
  233.0507 10.0 10
  234.0873 21.0 21
  235.0442 24.0 24
  235.07066 23.0 23
  236.03249 13.0 13
  236.05156 46.0 46
  236.10191 14.0 14
  236.11519 18.0 18
  237.0531 386.0 386
  238.05562 73.0 73
  238.0634 106.0 106
  239.06775 261.0 261
  239.07941 63.0 63
  239.65192 9.0 9
  240.06921 11.0 11
  240.46046 15.0 15
  240.93292 9.0 9
  247.04144 39.0 39
  248.04517 43.0 43
  248.15259 9.0 9
  249.05475 75.0 75
  251.04005 62.0 62
  252.03818 42.0 42
  253.04718 94.0 94
  255.06244 10.0 10
  260.04846 10.0 10
  260.05753 11.0 11
  264.0455 10.0 10
  265.05185 15.0 15
  265.06268 23.0 23
  266.05444 43.0 43
  266.06735 22.0 22
  267.06506 1000.0 999
  268.06421 77.0 77
  268.07181 144.0 144
  269.07333 33.0 33
  269.08597 34.0 34
  270.07001 14.0 14
  275.03308 9.0 9
  277.03659 17.0 17
  277.05511 34.0 34
  278.04816 32.0 32
  279.05045 17.0 17
  279.0654 10.0 10
  293.07397 11.0 11
  293.10303 16.0 16
  308.06305 9.0 9
  380.25244 11.0 11
//
