ACCESSION: MSBNK-RIKEN-PR310434
RECORD_TITLE: Schizandrin; LC-ESI-QTOF; MS2
DATE: 2019.03.28
AUTHORS: Tetsuya Mori, Center for Sustainable Resource Science, RIKEN
LICENSE: CC BY-NC-SA
PUBLICATION: Tsugawa H., Nakabayashi R., Mori T., Yamada Y., Takahashi M., Rai A., Sugiyama R., Yamamoto H., Nakaya T., Yamazaki M., Kooke R., Bac-Molenaar JA., Oztolan-Erol N., Keurentjes JJB., Arita M., Saito K. (2019) "A cheminformatics approach to characterize metabolomes in stable-isotope-labeled organisms" Nature Methods 16(4):295-298. [doi:10.1038/s41592-019-0358-2]
COMMENT: Annotation level-1
CH$NAME: Schizandrin
CH$COMPOUND_CLASS: Others
CH$FORMULA: C24H32O7
CH$EXACT_MASS: 432.513
CH$SMILES: COC1=CC2=C(C(OC)=C1OC)C1=C(OC)C(OC)=C(OC)C=C1CC(C)(O)C(C)C2
CH$IUPAC: InChI=1S/C24H32O7/c1-13-9-14-10-16(26-3)20(28-5)22(30-7)18(14)19-15(12-24(13,2)25)11-17(27-4)21(29-6)23(19)31-8/h10-11,13,25H,9,12H2,1-8H3
CH$LINK: INCHIKEY YEFOAORQXAOVJQ-UHFFFAOYSA-N
AC$INSTRUMENT: LC, Waters Acquity UPLC System; MS, Waters Xevo G2 Q-Tof
AC$INSTRUMENT_TYPE: LC-ESI-QTOF
AC$MASS_SPECTROMETRY: MS_TYPE MS2
AC$MASS_SPECTROMETRY: ION_MODE POSITIVE
AC$MASS_SPECTROMETRY: COLLISION_ENERGY 6V
AC$MASS_SPECTROMETRY: DESOLVATION_GAS_FLOW 800/h
AC$MASS_SPECTROMETRY: DESOLVATION_TEMPERATURE 450 C
AC$MASS_SPECTROMETRY: IONIZATION ESI
AC$CHROMATOGRAPHY: CAPILLARY_VOLTAGE +3.00 kV
AC$CHROMATOGRAPHY: COLUMN_NAME Acquity bridged ethyl hybrid C18 (1.7 um, 2.1 mm * 100 mm, Waters)
AC$CHROMATOGRAPHY: COLUMN_TEMPERATURE 40 C
AC$CHROMATOGRAPHY: FLOW_GRADIENT A/B = (99.5%/0.5% at 0 min, 99.5%/0.5% at 0.1 min, 20%/80% at 10 min, 0.5%/99.5% at 10.1 min, 0.5%/99.5% at 12.0 min, 99.5%/0.5% at 12.1 min, 99.5%/0.5% at 15.0 min)
AC$CHROMATOGRAPHY: FLOW_RATE 0.3 ml/min at 0 min, 0.3 ml/min at 10 min, 0.4 ml/min at 10.1 min, 0.4 ml/min at 14.4 min, 0.3 ml/min at 14.5 min
AC$CHROMATOGRAPHY: RETENTION_TIME 7.59
AC$CHROMATOGRAPHY: SOLVENT A water including 0.1% formic acid
AC$CHROMATOGRAPHY: SOLVENT B acetonitrile including 0.1% formic acid
MS$FOCUSED_ION: PRECURSOR_TYPE [M+H]+
MS$FOCUSED_ION: PRECURSOR_M/Z 433.22208
PK$SPLASH: splash10-014i-0019500000-f15c31b16c26b1ee2dbb
PK$NUM_PEAK: 379
PK$PEAK: m/z int. rel.int.
  87.07858 18.0 2
  97.02927 20.0 3
  106.00041 18.0 2
  131.0844 70.0 9
  154.08047 18.0 2
  166.0609 19.0 3
  167.07513 17.0 2
  175.0692 17.0 2
  177.05402 21.0 3
  178.0614 25.0 3
  195.08551 18.0 2
  196.08698 25.0 3
  203.07291 18.0 2
  203.68193 18.0 2
  204.10789 21.0 3
  204.65883 17.0 2
  209.09685 25.0 3
  212.11131 39.0 5
  213.08479 18.0 2
  219.10605 21.0 3
  224.83148 19.0 3
  225.09532 23.0 3
  226.0665 20.0 3
  227.0639 29.0 4
  227.1149 29.0 4
  228.05774 18.0 2
  228.08073 31.0 4
  229.10718 17.0 2
  229.76622 30.0 4
  231.06828 21.0 3
  233.11528 20.0 3
  235.08992 20.0 3
  235.11502 21.0 3
  235.13347 20.0 3
  236.83282 20.0 3
  240.07101 72.0 10
  240.11598 20.0 3
  241.05063 17.0 2
  241.08102 34.0 5
  242.0844 26.0 3
  242.09949 18.0 2
  243.05626 20.0 3
  243.09499 22.0 3
  243.85709 21.0 3
  244.09779 17.0 2
  244.29764 24.0 3
  246.74242 21.0 3
  247.09558 39.0 5
  249.10797 23.0 3
  251.09784 20.0 3
  252.07143 37.0 5
  252.13895 23.0 3
  253.08846 23.0 3
  253.11935 21.0 3
  254.09268 17.0 2
  255.06061 29.0 4
  255.10092 18.0 2
  256.07755 18.0 2
  256.10687 58.0 8
  257.07962 60.0 8
  258.07172 17.0 2
  258.09875 18.0 2
  258.12741 17.0 2
  259.09814 21.0 3
  260.09482 18.0 2
  262.0874 37.0 5
  262.09763 22.0 3
  263.0928 20.0 3
  263.1853 20.0 3
  265.73117 23.0 3
  267.1008 17.0 2
  268.0751 20.0 3
  268.11539 26.0 3
  269.03958 18.0 2
  269.07062 17.0 2
  269.07895 52.0 7
  269.10074 17.0 2
  269.12766 17.0 2
  269.96747 17.0 2
  270.08484 54.0 7
  271.04547 27.0 4
  271.05896 22.0 3
  271.07062 18.0 2
  271.09894 49.0 7
  271.11829 20.0 3
  271.13562 27.0 4
  272.05527 18.0 2
  272.10361 127.0 17
  273.10257 18.0 2
  273.40134 20.0 3
  273.6955 24.0 3
  275.08871 21.0 3
  275.10413 20.0 3
  276.09494 26.0 3
  276.11511 20.0 3
  277.12424 59.0 8
  278.08295 37.0 5
  278.09747 21.0 3
  278.12103 17.0 2
  279.10474 20.0 3
  279.11417 18.0 2
  279.13235 19.0 3
  280.06622 20.0 3
  280.08026 20.0 3
  280.12823 17.0 2
  280.39883 17.0 2
  281.08081 19.0 3
  281.10739 18.0 2
  281.12231 17.0 2
  281.82333 18.0 2
  282.10364 40.0 5
  283.04675 19.0 3
  283.06223 24.0 3
  283.0929 95.0 13
  284.03891 17.0 2
  284.08218 20.0 3
  284.10126 20.0 3
  285.06668 55.0 7
  285.0817 22.0 3
  285.10172 70.0 9
  286.06967 18.0 2
  286.11151 41.0 5
  286.12137 56.0 7
  287.06851 20.0 3
  287.09512 18.0 2
  287.13391 17.0 2
  287.38727 19.0 3
  288.07455 19.0 3
  288.09204 58.0 8
  288.10818 61.0 8
  289.06906 20.0 3
  291.13028 39.0 5
  292.07565 26.0 3
  292.10745 41.0 5
  293.09866 18.0 2
  293.15564 28.0 4
  294.11731 71.0 10
  294.28116 24.0 3
  295.09464 22.0 3
  295.13153 26.0 3
  295.7037 18.0 2
  296.10275 53.0 7
  297.04135 22.0 3
  297.08371 17.0 2
  297.10605 18.0 2
  297.1181 18.0 2
  297.15796 17.0 2
  298.08005 26.0 3
  298.11938 42.0 6
  298.13297 23.0 3
  298.25641 31.0 4
  299.07022 18.0 2
  299.08496 61.0 8
  299.12048 152.0 20
  299.14709 17.0 2
  300.07892 19.0 3
  300.09143 43.0 6
  300.10123 91.0 12
  300.11298 27.0 4
  300.13431 43.0 6
  301.08694 59.0 8
  301.09784 24.0 3
  301.13608 19.0 3
  302.08142 21.0 3
  302.11591 21.0 3
  303.08865 17.0 2
  304.11578 17.0 2
  305.12625 27.0 4
  306.05984 20.0 3
  306.08496 17.0 2
  307.10791 36.0 5
  307.13025 184.0 25
  308.10464 42.0 6
  308.14255 41.0 5
  309.07559 21.0 3
  309.09448 26.0 3
  309.1105 35.0 5
  309.13116 18.0 2
  309.14331 47.0 6
  309.16827 22.0 3
  310.08954 22.0 3
  310.12366 47.0 6
  310.1582 39.0 5
  311.09415 24.0 3
  311.11938 39.0 5
  311.14236 46.0 6
  312.10043 63.0 8
  312.11722 36.0 5
  312.1394 38.0 5
  313.10828 262.0 35
  313.13519 40.0 5
  314.09161 17.0 2
  314.10495 48.0 6
  314.12091 93.0 12
  315.05716 27.0 4
  315.09592 18.0 2
  315.12048 214.0 29
  315.13354 84.0 11
  316.0932 93.0 12
  316.10736 24.0 3
  316.12485 114.0 15
  317.10687 109.0 15
  317.12808 61.0 8
  321.10788 27.0 4
  321.14743 18.0 2
  322.11246 56.0 7
  322.12436 81.0 11
  322.15405 210.0 28
  323.01434 20.0 3
  323.10922 37.0 5
  323.12607 69.0 9
  323.14594 20.0 3
  323.16833 39.0 5
  324.13275 38.0 5
  324.14334 79.0 11
  324.17551 43.0 6
  324.39734 18.0 2
  325.1543 54.0 7
  326.12054 35.0 5
  326.15125 34.0 5
  326.27972 18.0 2
  327.11392 111.0 15
  327.12759 33.0 4
  327.13861 21.0 3
  327.16043 68.0 9
  328.13275 483.0 65
  328.16083 17.0 2
  329.09845 103.0 14
  329.13214 149.0 20
  329.14868 80.0 11
  329.53018 17.0 2
  330.14139 277.0 37
  331.11813 284.0 38
  331.15186 83.0 11
  332.07858 18.0 2
  332.11758 137.0 18
  332.12888 111.0 15
  332.14572 52.0 7
  333.12967 111.0 15
  334.13394 19.0 3
  337.12711 53.0 7
  337.14911 116.0 16
  338.09363 45.0 6
  338.12195 17.0 2
  338.14929 735.0 98
  339.10355 18.0 2
  339.14221 66.0 9
  339.15573 78.0 10
  340.11346 24.0 3
  340.13098 69.0 9
  340.17545 17.0 2
  341.14359 93.0 12
  341.17151 39.0 5
  341.18622 64.0 9
  342.14423 528.0 71
  342.17136 25.0 3
  342.19388 22.0 3
  343.09555 28.0 4
  343.11682 96.0 13
  343.13657 101.0 14
  343.16675 81.0 11
  344.12347 98.0 13
  344.13721 57.0 8
  344.15707 34.0 5
  344.16925 24.0 3
  344.3587 17.0 2
  344.8147 20.0 3
  344.91833 18.0 2
  345.11377 44.0 6
  345.13077 236.0 32
  345.15601 37.0 5
  346.10577 35.0 5
  346.14044 830.0 111
  347.12329 20.0 3
  347.14633 309.0 41
  347.7388 31.0 4
  348.16049 52.0 7
  348.20358 54.0 7
  349.15451 20.0 3
  349.18307 23.0 3
  350.15649 39.0 5
  351.15091 26.0 3
  351.16574 38.0 5
  351.32605 24.0 3
  352.1561 76.0 10
  352.17343 43.0 6
  353.13651 73.0 10
  353.14966 158.0 21
  353.1608 229.0 31
  353.17917 473.0 63
  354.11057 25.0 3
  354.13754 117.0 16
  354.16748 169.0 23
  354.19681 28.0 4
  355.12344 21.0 3
  355.1413 59.0 8
  355.15396 127.0 17
  355.18527 17.0 2
  356.15988 29.0 4
  356.17532 20.0 3
  357.16315 50.0 7
  357.17685 76.0 10
  358.11816 49.0 7
  358.13663 122.0 16
  358.15164 86.0 12
  358.17953 119.0 16
  359.14307 130.0 17
  359.15729 163.0 22
  359.17624 23.0 3
  360.13126 23.0 3
  360.14606 40.0 5
  361.15903 91.0 12
  361.17459 23.0 3
  362.17657 22.0 3
  363.12305 26.0 3
  363.1517 18.0 2
  364.18121 20.0 3
  368.13568 17.0 2
  368.14468 51.0 7
  368.15906 49.0 7
  368.17514 17.0 2
  368.3992 17.0 2
  368.7287 17.0 2
  369.12784 20.0 3
  369.14172 57.0 8
  369.17078 853.0 114
  370.1517 21.0 3
  370.17188 272.0 36
  371.16092 55.0 7
  371.18048 56.0 7
  372.14618 21.0 3
  372.1622 79.0 11
  372.18283 17.0 2
  373.14227 31.0 4
  373.16202 262.0 35
  373.98737 24.0 3
  374.16296 108.0 14
  374.18198 62.0 8
  376.47858 28.0 4
  383.14758 21.0 3
  383.16562 18.0 2
  383.18619 98.0 13
  383.20441 20.0 3
  384.1926 2665.0 357
  384.4696 20.0 3
  385.15347 88.0 12
  385.16934 216.0 29
  385.19342 552.0 74
  385.20749 310.0 41
  386.17191 154.0 21
  386.1868 148.0 20
  386.20667 37.0 5
  387.16507 36.0 5
  387.18951 18.0 2
  389.203 89.0 12
  391.00986 26.0 3
  391.20807 35.0 5
  391.53021 23.0 3
  400.10492 17.0 2
  400.18314 541.0 72
  401.16769 20.0 3
  401.202 153.0 20
  402.07712 24.0 3
  402.19427 27.0 4
  403.91229 17.0 2
  415.17508 34.0 5
  415.2099 7464.0 999
  415.26254 18.0 2
  416.14786 17.0 2
  416.21378 2094.0 280
  417.18369 58.0 8
  417.2193 198.0 27
  418.21793 38.0 5
  418.24139 23.0 3
  418.53894 20.0 3
  432.18204 81.0 11
  432.21118 294.0 39
  433.168 45.0 6
  433.21698 1142.0 153
//
