ACCESSION: MSBNK-RIKEN-PR300651
RECORD_TITLE: Mesaconitine; LC-ESI-QTOF; MS2
DATE: 2019.03.28
AUTHORS: Tetsuya Mori, Center for Sustainable Resource Science, RIKEN
LICENSE: CC BY-NC-SA
PUBLICATION: Tsugawa H., Nakabayashi R., Mori T., Yamada Y., Takahashi M., Rai A., Sugiyama R., Yamamoto H., Nakaya T., Yamazaki M., Kooke R., Bac-Molenaar JA., Oztolan-Erol N., Keurentjes JJB., Arita M., Saito K. (2019) "A cheminformatics approach to characterize metabolomes in stable-isotope-labeled organisms" Nature Methods 16(4):295-298. [doi:10.1038/s41592-019-0358-2]
COMMENT: registered in RIKEN PlaSMA
CH$NAME: Mesaconitine
CH$COMPOUND_CLASS: Aconitane-type diterpenoid alkaloids
CH$FORMULA: C33H45NO11
CH$EXACT_MASS: 631.719
CH$SMILES: COC[C@]12CN(C)C3[C@@H]4[C@H](OC)[C@H]1[C@]3([C@@H]1C[C@@]3(O)[C@H](OC(=O)C5=CC=CC=C5)[C@@H]1[C@]4(OC(C)=O)[C@@H](O)[C@@H]3OC)[C@H](C[C@H]2O)OC
CH$IUPAC: InChI=1S/C33H45NO11/c1-16(35)45-33-21-18(13-31(39,28(43-6)26(33)37)27(21)44-29(38)17-10-8-7-9-11-17)32-20(41-4)12-19(36)30(15-40-3)14-34(2)25(32)22(33)23(42-5)24(30)32/h7-11,18-28,36-37,39H,12-15H2,1-6H3/t18-,19-,20+,21-,22+,23+,24-,25?,26+,27-,28+,30+,31-,32+,33-/m1/s1
CH$LINK: INCHIKEY XUHJBXVYNBQQBD-TUWOXVOMSA-N
AC$INSTRUMENT: LC, Waters Acquity UPLC System; MS, Waters Xevo G2 Q-Tof
AC$INSTRUMENT_TYPE: LC-ESI-QTOF
AC$MASS_SPECTROMETRY: MS_TYPE MS2
AC$MASS_SPECTROMETRY: ION_MODE POSITIVE
AC$MASS_SPECTROMETRY: COLLISION_ENERGY 6V
AC$MASS_SPECTROMETRY: DESOLVATION_GAS_FLOW 800/h
AC$MASS_SPECTROMETRY: DESOLVATION_TEMPERATURE 450 C
AC$MASS_SPECTROMETRY: IONIZATION ESI
AC$CHROMATOGRAPHY: CAPILLARY_VOLTAGE +3.00 kV
AC$CHROMATOGRAPHY: COLUMN_NAME Acquity bridged ethyl hybrid C18 (1.7 um, 2.1 mm * 100 mm, Waters)
AC$CHROMATOGRAPHY: COLUMN_TEMPERATURE 40 C
AC$CHROMATOGRAPHY: FLOW_GRADIENT A/B = (99.5%/0.5% at 0 min, 99.5%/0.5% at 0.1 min, 20%/80% at 10 min, 0.5%/99.5% at 10.1 min, 0.5%/99.5% at 12.0 min, 99.5%/0.5% at 12.1 min, 99.5%/0.5% at 15.0 min)
AC$CHROMATOGRAPHY: FLOW_RATE 0.3 ml/min at 0 min, 0.3 ml/min at 10 min, 0.4 ml/min at 10.1 min, 0.4 ml/min at 14.4 min, 0.3 ml/min at 14.5 min
AC$CHROMATOGRAPHY: RETENTION_TIME 5.611533
AC$CHROMATOGRAPHY: SOLVENT A water including 0.1% formic acid
AC$CHROMATOGRAPHY: SOLVENT B acetonitrile including 0.1% formic acid
MS$FOCUSED_ION: PRECURSOR_TYPE [M+H]+
MS$FOCUSED_ION: PRECURSOR_M/Z 632.3065377
PK$SPLASH: splash10-0a4i-0974220000-9c13bcbe7fbcc548546e
PK$NUM_PEAK: 521
PK$PEAK: m/z int. rel.int.
  55.01885 6.0 6
  59.04699 6.0 6
  75.0396 8.0 8
  75.04668 19.0 19
  77.04019 15.0 15
  79.0532 10.0 10
  84.08105 6.0 6
  91.05335 5.0 5
  91.06062 5.0 5
  93.07095 14.0 14
  94.06579 23.0 23
  95.05291 8.0 8
  96.08145 15.0 15
  105.00639 8.0 8
  105.02083 10.0 10
  105.03355 1000.0 999
  105.06847 9.0 9
  106.02759 6.0 6
  106.03725 76.0 76
  107.04088 6.0 6
  107.04758 9.0 9
  108.08189 14.0 14
  109.06505 15.0 15
  111.04367 10.0 10
  111.05858 6.0 6
  111.07441 17.0 17
  111.08224 55.0 55
  112.07683 8.0 8
  112.08758 6.0 6
  117.07102 34.0 34
  120.08372 19.0 19
  121.06339 20.0 20
  123.04192 6.0 6
  123.08183 7.0 7
  124.07482 8.0 8
  124.08447 12.0 12
  125.05817 7.0 7
  126.09396 19.0 19
  128.11285 11.0 11
  129.06956 29.0 29
  130.06863 6.0 6
  130.07532 13.0 13
  131.04852 15.0 15
  131.07896 11.0 11
  131.0854 27.0 27
  132.08188 6.0 6
  133.06502 12.0 12
  133.09575 6.0 6
  134.07146 5.0 5
  134.09711 20.0 20
  135.06795 5.0 5
  135.10857 12.0 12
  137.05444 14.0 14
  137.07892 8.0 8
  138.0843 13.0 13
  138.09288 37.0 37
  139.09456 7.0 7
  141.07233 17.0 17
  141.08752 19.0 19
  142.07603 5.0 5
  143.08693 8.0 8
  144.08449 5.0 5
  145.06259 12.0 12
  145.08167 6.0 6
  145.09058 8.0 8
  146.03772 7.0 7
  146.09927 11.0 11
  147.04201 24.0 24
  147.07365 24.0 24
  147.08359 9.0 9
  148.07597 31.0 31
  150.08636 5.0 5
  151.04347 7.0 7
  151.10017 6.0 6
  153.04871 10.0 10
  153.06866 6.0 6
  155.07603 6.0 6
  155.0854 16.0 16
  157.06108 8.0 8
  157.0959 7.0 7
  158.06685 9.0 9
  158.0934 25.0 25
  159.08215 24.0 24
  159.101 11.0 11
  160.07008 28.0 28
  160.07674 53.0 53
  160.08531 24.0 24
  160.11049 13.0 13
  161.02565 6.0 6
  161.04524 6.0 6
  161.05627 12.0 12
  161.06847 8.0 8
  161.08984 6.0 6
  161.09621 16.0 16
  162.08698 6.0 6
  163.08458 6.0 6
  164.10774 63.0 63
  165.05142 15.0 15
  165.05952 13.0 13
  165.06929 19.0 19
  165.08684 6.0 6
  165.0952 8.0 8
  166.0762 7.0 7
  166.0845 5.0 5
  167.08517 32.0 32
  168.09926 6.0 6
  169.06377 17.0 17
  170.07965 6.0 6
  170.0943 32.0 32
  171.07776 20.0 20
  171.10089 10.0 10
  172.07419 12.0 12
  172.10126 5.0 5
  172.11298 45.0 45
  173.0609 8.0 8
  174.05766 35.0 35
  174.08919 6.0 6
  174.13374 6.0 6
  176.07678 13.0 13
  176.10406 10.0 10
  176.11533 13.0 13
  177.07106 9.0 9
  177.11282 6.0 6
  178.07375 14.0 14
  178.08423 16.0 16
  179.07637 9.0 9
  179.08806 20.0 20
  180.09326 14.0 14
  181.08067 5.0 5
  181.09462 11.0 11
  181.10304 6.0 6
  182.09938 17.0 17
  183.07973 19.0 19
  184.08334 5.0 5
  184.10985 17.0 17
  185.05467 6.0 6
  185.06093 13.0 13
  185.09448 8.0 8
  185.10429 15.0 15
  186.08565 5.0 5
  187.07312 13.0 13
  188.07603 16.0 16
  188.10651 15.0 15
  189.06126 8.0 8
  189.0778 14.0 14
  189.09366 21.0 21
  189.11195 5.0 5
  190.07558 12.0 12
  190.08562 24.0 24
  190.11629 8.0 8
  191.08316 31.0 31
  191.09883 7.0 7
  191.11502 5.0 5
  192.06113 9.0 9
  192.09399 6.0 6
  192.10129 8.0 8
  193.06073 6.0 6
  193.08733 14.0 14
  193.10231 43.0 43
  194.09616 15.0 15
  195.07697 5.0 5
  195.08385 14.0 14
  195.11751 10.0 10
  196.09276 8.0 8
  196.13751 11.0 11
  197.06311 5.0 5
  197.07982 9.0 9
  197.09264 6.0 6
  197.10754 6.0 6
  197.11629 5.0 5
  198.08842 11.0 11
  198.09995 6.0 6
  198.12202 8.0 8
  198.13255 8.0 8
  199.0735 14.0 14
  199.09648 7.0 7
  200.07289 6.0 6
  200.09496 7.0 7
  200.11618 8.0 8
  201.07979 9.0 9
  202.07999 32.0 32
  202.12129 36.0 36
  203.08151 28.0 28
  203.09181 10.0 10
  204.11537 7.0 7
  204.13585 117.0 117
  205.08885 19.0 19
  205.10143 63.0 63
  205.14313 6.0 6
  206.06807 11.0 11
  206.10011 9.0 9
  206.10979 13.0 13
  206.12671 7.0 7
  206.15338 8.0 8
  207.07922 25.0 25
  207.08574 9.0 9
  207.11296 33.0 33
  208.08572 18.0 18
  208.10765 6.0 6
  209.09668 35.0 35
  210.0827 9.0 9
  210.09422 5.0 5
  210.10779 6.0 6
  212.10451 9.0 9
  212.11462 11.0 11
  213.05968 6.0 6
  213.09431 6.0 6
  213.11195 6.0 6
  214.12318 12.0 12
  215.06532 6.0 6
  215.08582 13.0 13
  216.09476 12.0 12
  217.07491 6.0 6
  217.08641 17.0 17
  217.0983 41.0 41
  218.07135 8.0 8
  218.10281 5.0 5
  218.11975 8.0 8
  219.06586 6.0 6
  219.07935 23.0 23
  219.08684 15.0 15
  219.09749 11.0 11
  219.10602 13.0 13
  220.08424 11.0 11
  220.11351 19.0 19
  220.13324 7.0 7
  221.09573 31.0 31
  221.11655 14.0 14
  222.09065 18.0 18
  222.10176 9.0 9
  222.11986 19.0 19
  222.12839 11.0 11
  222.15074 31.0 31
  223.07303 11.0 11
  223.11247 38.0 38
  224.08139 8.0 8
  224.10416 9.0 9
  225.08954 24.0 24
  225.11388 6.0 6
  225.48511 6.0 6
  226.09258 11.0 11
  226.11705 5.0 5
  228.10336 8.0 8
  229.08617 6.0 6
  230.10649 7.0 7
  231.07945 22.0 22
  232.08887 34.0 34
  232.11499 5.0 5
  233.08037 6.0 6
  233.09715 51.0 51
  233.11899 9.0 9
  234.09103 10.0 10
  234.10695 13.0 13
  234.11768 7.0 7
  235.07661 19.0 19
  235.10832 31.0 31
  235.12192 9.0 9
  236.07481 8.0 8
  236.08354 13.0 13
  236.09555 10.0 10
  236.10983 5.0 5
  236.12173 5.0 5
  237.07727 7.0 7
  237.08943 22.0 22
  237.10472 9.0 9
  237.11963 12.0 12
  237.13797 9.0 9
  238.09903 9.0 9
  238.11966 9.0 9
  238.13425 12.0 12
  239.11737 14.0 14
  240.13374 8.0 8
  241.12329 11.0 11
  244.11267 5.0 5
  245.09323 5.0 5
  245.10194 7.0 7
  246.09354 9.0 9
  246.14992 5.0 5
  247.04285 5.0 5
  247.06717 6.0 6
  247.08488 14.0 14
  248.08212 22.0 22
  248.10698 6.0 6
  248.11383 12.0 12
  248.1468 7.0 7
  249.08638 15.0 15
  249.10738 7.0 7
  249.12398 12.0 12
  249.13803 7.0 7
  250.08727 10.0 10
  250.12225 9.0 9
  250.13406 15.0 15
  251.07294 5.0 5
  251.09628 14.0 14
  251.11197 44.0 44
  252.10483 13.0 13
  253.14545 8.0 8
  254.11824 5.0 5
  254.13814 10.0 10
  258.12408 10.0 10
  259.09393 14.0 14
  259.10687 6.0 6
  259.11694 9.0 9
  260.13083 7.0 7
  261.09058 53.0 53
  261.1012 24.0 24
  261.11658 13.0 13
  261.168 7.0 7
  262.08734 7.0 7
  262.10074 13.0 13
  262.12384 10.0 10
  263.08917 6.0 6
  263.10626 21.0 21
  264.10623 12.0 12
  264.1394 12.0 12
  265.08273 7.0 7
  265.09058 6.0 6
  265.10272 12.0 12
  265.12088 27.0 27
  266.11447 9.0 9
  266.12738 7.0 7
  266.14078 6.0 6
  267.09332 9.0 9
  267.11038 7.0 7
  267.12863 11.0 11
  267.15283 9.0 9
  268.1312 16.0 16
  269.11862 12.0 12
  269.14078 12.0 12
  270.15094 6.0 6
  271.11362 7.0 7
  273.08047 6.0 6
  273.09326 16.0 16
  273.11594 5.0 5
  273.13586 6.0 6
  274.08441 6.0 6
  274.1214 12.0 12
  275.10764 12.0 12
  275.121 8.0 8
  276.10632 16.0 16
  276.13724 31.0 31
  277.11618 19.0 19
  278.11166 9.0 9
  279.09805 26.0 26
  279.12317 12.0 12
  280.11462 6.0 6
  280.13458 11.0 11
  280.16296 6.0 6
  282.11517 6.0 6
  282.13031 6.0 6
  282.14639 9.0 9
  282.15704 6.0 6
  283.15445 11.0 11
  284.10065 7.0 7
  284.16876 7.0 7
  288.09818 6.0 6
  291.08017 5.0 5
  291.10614 17.0 17
  291.12955 10.0 10
  292.11929 17.0 17
  292.13889 31.0 31
  293.11139 22.0 22
  293.1268 8.0 8
  294.10684 9.0 9
  294.14468 32.0 32
  294.16147 9.0 9
  295.12515 9.0 9
  295.14487 9.0 9
  296.16373 13.0 13
  297.14944 5.0 5
  298.116 7.0 7
  298.14209 7.0 7
  298.17847 16.0 16
  300.15347 8.0 8
  304.12888 16.0 16
  304.14499 12.0 12
  305.08185 6.0 6
  305.10269 7.0 7
  305.1282 6.0 6
  306.1105 7.0 7
  306.12949 6.0 6
  308.13235 11.0 11
  308.1571 10.0 10
  308.16803 25.0 25
  309.12637 6.0 6
  309.14148 16.0 16
  309.17078 7.0 7
  310.15005 22.0 22
  312.15521 8.0 8
  312.20126 12.0 12
  313.2012 12.0 12
  314.14737 8.0 8
  314.16293 6.0 6
  320.18353 5.0 5
  321.13873 9.0 9
  322.14005 30.0 30
  323.14005 6.0 6
  324.16812 6.0 6
  325.13492 13.0 13
  325.15103 9.0 9
  325.17438 6.0 6
  326.14893 10.0 10
  326.17657 89.0 89
  327.17715 16.0 16
  328.18723 6.0 6
  330.16751 8.0 8
  330.20889 10.0 10
  336.1571 37.0 37
  337.16245 8.0 8
  337.19107 5.0 5
  340.18979 84.0 84
  341.18198 5.0 5
  341.19562 11.0 11
  342.1716 19.0 19
  343.17255 5.0 5
  354.12415 18.0 18
  354.16891 379.0 379
  355.17245 102.0 102
  356.15036 9.0 9
  356.16565 10.0 10
  356.18121 9.0 9
  358.19702 64.0 64
  359.21271 11.0 11
  360.18808 10.0 10
  362.22784 14.0 14
  368.17398 11.0 11
  372.18182 6.0 6
  372.21338 34.0 34
  372.23337 10.0 10
  373.2139 6.0 6
  380.20526 11.0 11
  383.12787 10.0 10
  386.17477 7.0 7
  386.18777 11.0 11
  386.20975 19.0 19
  388.20441 6.0 6
  390.22968 64.0 64
  391.21881 9.0 9
  391.23779 11.0 11
  392.17673 5.0 5
  398.18353 6.0 6
  400.22815 9.0 9
  404.19873 10.0 10
  405.19705 7.0 7
  413.17172 5.0 5
  416.18237 7.0 7
  417.1777 6.0 6
  418.22147 5.0 5
  421.19397 7.0 7
  423.17981 7.0 7
  430.18527 9.0 9
  430.20612 17.0 17
  432.18573 13.0 13
  434.18845 6.0 6
  435.20718 6.0 6
  437.22528 7.0 7
  444.17996 12.0 12
  448.19351 18.0 18
  448.2171 20.0 20
  449.22 21.0 21
  451.23203 6.0 6
  458.19913 23.0 23
  462.22736 71.0 71
  463.20157 9.0 9
  463.23303 19.0 19
  464.19815 45.0 45
  464.25363 6.0 6
  465.22028 5.0 5
  466.21213 9.0 9
  466.23517 14.0 14
  475.18411 6.0 6
  476.19836 28.0 28
  476.2254 5.0 5
  477.20987 7.0 7
  478.24368 10.0 10
  480.22818 60.0 60
  480.24295 40.0 40
  481.21671 6.0 6
  481.24438 22.0 22
  482.24136 8.0 8
  490.21432 43.0 43
  490.23425 28.0 28
  491.22995 16.0 16
  494.24802 11.0 11
  494.26486 7.0 7
  495.2663 6.0 6
  496.22995 19.0 19
  497.2341 7.0 7
  508.19254 15.0 15
  508.22125 49.0 49
  508.24344 49.0 49
  508.26044 13.0 13
  509.22568 17.0 17
  509.24783 8.0 8
  510.20132 6.0 6
  512.25256 55.0 55
  512.27081 74.0 74
  512.28918 30.0 30
  513.27026 36.0 36
  522.24048 41.0 41
  522.2688 26.0 26
  523.24225 16.0 16
  523.26465 8.0 8
  524.25519 11.0 11
  526.25317 6.0 6
  540.25848 73.0 73
  540.28638 12.0 12
  541.24847 20.0 20
  541.276 15.0 15
  542.26526 5.0 5
  554.28809 8.0 8
  555.28424 10.0 10
  572.24158 20.0 20
  572.27814 120.0 120
  572.29968 66.0 66
  573.2663 15.0 15
  573.29156 44.0 44
  573.32654 6.0 6
  574.26031 6.0 6
  574.28064 9.0 9
  632.2973 25.0 25
//
