ACCESSION: MSBNK-RIKEN-PR300599
RECORD_TITLE: Hypaconitine; LC-ESI-QTOF; MS2
DATE: 2019.03.28
AUTHORS: Tetsuya Mori, Center for Sustainable Resource Science, RIKEN
LICENSE: CC BY-NC-SA
PUBLICATION: Tsugawa H., Nakabayashi R., Mori T., Yamada Y., Takahashi M., Rai A., Sugiyama R., Yamamoto H., Nakaya T., Yamazaki M., Kooke R., Bac-Molenaar JA., Oztolan-Erol N., Keurentjes JJB., Arita M., Saito K. (2019) "A cheminformatics approach to characterize metabolomes in stable-isotope-labeled organisms" Nature Methods 16(4):295-298. [doi:10.1038/s41592-019-0358-2]
COMMENT: registered in RIKEN PlaSMA
CH$NAME: Hypaconitine
CH$COMPOUND_CLASS: Aconitane-type diterpenoid alkaloids
CH$FORMULA: C33H45NO10
CH$EXACT_MASS: 615.72
CH$SMILES: COC[C@@]12CC[C@H](OC)[C@@]34[C@@H]5C[C@@]6(O)[C@H](OC(=O)C7=CC=CC=C7)[C@@H]5[C@@](OC(C)=O)([C@@H]([C@H](OC)[C@H]13)C4N(C)C2)[C@@H](O)[C@@H]6OC
CH$IUPAC: InChI=1S/C33H45NO10/c1-17(35)44-33-21-19(14-31(38,28(42-6)26(33)36)27(21)43-29(37)18-10-8-7-9-11-18)32-20(40-4)12-13-30(16-39-3)15-34(2)25(32)22(33)23(41-5)24(30)32/h7-11,19-28,36,38H,12-16H2,1-6H3/t19-,20+,21-,22+,23+,24-,25?,26+,27-,28+,30+,31-,32+,33-/m1/s1
CH$LINK: INCHIKEY FIDOCHXHMJHKRW-VHQVDBNASA-N
AC$INSTRUMENT: LC, Waters Acquity UPLC System; MS, Waters Xevo G2 Q-Tof
AC$INSTRUMENT_TYPE: LC-ESI-QTOF
AC$MASS_SPECTROMETRY: MS_TYPE MS2
AC$MASS_SPECTROMETRY: ION_MODE POSITIVE
AC$MASS_SPECTROMETRY: COLLISION_ENERGY 6V
AC$MASS_SPECTROMETRY: DESOLVATION_GAS_FLOW 800/h
AC$MASS_SPECTROMETRY: DESOLVATION_TEMPERATURE 450 C
AC$MASS_SPECTROMETRY: IONIZATION ESI
AC$CHROMATOGRAPHY: CAPILLARY_VOLTAGE +3.00 kV
AC$CHROMATOGRAPHY: COLUMN_NAME Acquity bridged ethyl hybrid C18 (1.7 um, 2.1 mm * 100 mm, Waters)
AC$CHROMATOGRAPHY: COLUMN_TEMPERATURE 40 C
AC$CHROMATOGRAPHY: FLOW_GRADIENT A/B = (99.5%/0.5% at 0 min, 99.5%/0.5% at 0.1 min, 20%/80% at 10 min, 0.5%/99.5% at 10.1 min, 0.5%/99.5% at 12.0 min, 99.5%/0.5% at 12.1 min, 99.5%/0.5% at 15.0 min)
AC$CHROMATOGRAPHY: FLOW_RATE 0.3 ml/min at 0 min, 0.3 ml/min at 10 min, 0.4 ml/min at 10.1 min, 0.4 ml/min at 14.4 min, 0.3 ml/min at 14.5 min
AC$CHROMATOGRAPHY: RETENTION_TIME 5.970783
AC$CHROMATOGRAPHY: SOLVENT A water including 0.1% formic acid
AC$CHROMATOGRAPHY: SOLVENT B acetonitrile including 0.1% formic acid
MS$FOCUSED_ION: PRECURSOR_TYPE [M+H]+
MS$FOCUSED_ION: PRECURSOR_M/Z 616.3116231
PK$SPLASH: splash10-0a4r-0975310000-6d569897583e7e2ec96e
PK$NUM_PEAK: 582
PK$PEAK: m/z int. rel.int.
  58.06826 8.0 8
  70.06533 12.0 12
  71.04865 27.0 27
  74.05978 7.0 7
  75.04685 18.0 18
  77.03797 28.0 28
  82.06516 6.0 6
  84.08437 9.0 9
  85.06292 11.0 11
  88.07635 80.0 80
  91.05385 35.0 35
  94.06567 58.0 58
  94.07325 8.0 8
  96.08315 7.0 7
  97.06631 7.0 7
  105.03384 1000.0 999
  105.0714 14.0 14
  106.03742 100.0 100
  107.04273 13.0 13
  108.05092 6.0 6
  108.08167 50.0 50
  109.03284 6.0 6
  109.06754 10.0 10
  109.08163 10.0 10
  110.09718 13.0 13
  111.08143 9.0 9
  114.08957 39.0 39
  116.06474 21.0 21
  117.06779 29.0 29
  118.07164 8.0 8
  119.04936 9.0 9
  119.08727 6.0 6
  120.0746 15.0 15
  120.08337 8.0 8
  121.06262 17.0 17
  121.07961 6.0 6
  122.09372 8.0 8
  123.08566 6.0 6
  124.07411 7.0 7
  126.09203 8.0 8
  128.05412 9.0 9
  128.0631 13.0 13
  129.06367 31.0 31
  129.07259 22.0 22
  131.07324 11.0 11
  131.08517 43.0 43
  132.07576 10.0 10
  132.08904 8.0 8
  133.03166 12.0 12
  133.06297 9.0 9
  133.06862 8.0 8
  133.08871 9.0 9
  133.10052 12.0 12
  134.08984 9.0 9
  134.09993 24.0 24
  135.04558 10.0 10
  135.0809 10.0 10
  136.11282 6.0 6
  137.05588 5.0 5
  138.093 22.0 22
  140.10643 78.0 78
  141.07137 38.0 38
  141.10764 10.0 10
  142.11008 5.0 5
  143.05453 7.0 7
  143.08208 17.0 17
  143.09398 13.0 13
  144.07628 13.0 13
  144.08553 10.0 10
  145.10326 6.0 6
  146.03192 10.0 10
  146.0408 19.0 19
  146.05904 6.0 6
  146.09024 7.0 7
  146.09735 27.0 27
  147.0432 161.0 161
  147.07852 21.0 21
  147.09982 8.0 8
  148.04396 7.0 7
  148.05424 15.0 15
  148.06848 18.0 18
  148.07625 24.0 24
  148.11829 6.0 6
  149.0605 9.0 9
  149.08623 6.0 6
  149.09874 19.0 19
  152.07431 5.0 5
  152.10561 7.0 7
  153.06184 21.0 21
  153.06966 13.0 13
  154.06902 11.0 11
  155.08299 13.0 13
  155.09125 8.0 8
  157.07101 10.0 10
  157.07903 8.0 8
  157.10219 9.0 9
  158.09335 23.0 23
  158.10422 13.0 13
  159.05023 9.0 9
  159.07623 9.0 9
  159.10373 12.0 12
  160.06561 7.0 7
  160.07587 33.0 33
  160.10289 8.0 8
  160.11362 24.0 24
  161.0529 8.0 8
  161.06113 25.0 25
  161.11308 6.0 6
  162.06665 5.0 5
  162.09103 16.0 16
  163.08653 7.0 7
  164.11072 41.0 41
  165.05887 6.0 6
  165.07516 13.0 13
  165.11443 6.0 6
  167.08308 25.0 25
  167.09337 14.0 14
  168.07736 7.0 7
  168.09879 6.0 6
  168.10703 6.0 6
  169.08994 6.0 6
  169.09978 9.0 9
  170.10143 13.0 13
  170.11604 8.0 8
  171.08484 21.0 21
  171.10225 19.0 19
  172.08653 6.0 6
  172.11028 49.0 49
  172.12331 7.0 7
  173.05891 12.0 12
  173.08578 6.0 6
  173.10141 9.0 9
  174.04793 8.0 8
  174.06104 19.0 19
  174.06923 11.0 11
  174.12625 12.0 12
  175.06535 17.0 17
  176.07124 56.0 56
  176.1001 6.0 6
  176.11096 8.0 8
  177.05374 24.0 24
  177.06094 6.0 6
  177.07397 5.0 5
  178.07838 12.0 12
  178.08998 11.0 11
  178.12137 29.0 29
  179.07053 21.0 21
  179.08516 41.0 41
  180.09454 7.0 7
  181.06331 10.0 10
  181.08925 12.0 12
  181.09909 22.0 22
  182.08182 6.0 6
  182.1006 9.0 9
  183.05969 6.0 6
  183.07986 25.0 25
  184.07495 14.0 14
  184.11139 38.0 38
  184.12761 8.0 8
  185.05898 18.0 18
  185.09845 12.0 12
  186.0647 6.0 6
  186.09534 15.0 15
  186.10632 10.0 10
  186.13013 59.0 59
  187.07314 7.0 7
  187.11118 20.0 20
  188.07487 12.0 12
  188.10469 8.0 8
  189.05525 6.0 6
  189.07959 46.0 46
  189.09702 9.0 9
  190.08286 74.0 74
  190.12572 6.0 6
  191.07185 8.0 8
  191.08301 12.0 12
  191.10847 9.0 9
  192.09171 18.0 18
  192.10083 19.0 19
  192.1398 6.0 6
  193.03946 5.0 5
  193.06519 5.0 5
  193.0732 7.0 7
  193.09334 18.0 18
  193.10304 31.0 31
  194.0739 13.0 13
  194.08662 8.0 8
  194.11015 14.0 14
  195.07338 16.0 16
  195.08655 6.0 6
  195.12381 7.0 7
  196.08026 14.0 14
  196.09459 9.0 9
  196.11539 9.0 9
  197.05865 13.0 13
  197.0916 19.0 19
  198.11713 6.0 6
  198.13161 13.0 13
  199.11003 7.0 7
  200.14021 10.0 10
  201.08875 8.0 8
  202.07961 7.0 7
  202.08838 10.0 10
  203.08565 25.0 25
  204.08981 13.0 13
  204.09772 10.0 10
  204.13632 16.0 16
  204.74632 7.0 7
  205.06062 8.0 8
  205.09947 26.0 26
  205.11937 19.0 19
  205.13268 11.0 11
  205.14464 6.0 6
  205.82877 5.0 5
  206.06747 15.0 15
  206.10269 5.0 5
  206.11581 5.0 5
  206.1371 6.0 6
  206.15108 23.0 23
  207.07428 13.0 13
  207.08455 15.0 15
  207.10306 10.0 10
  207.11629 35.0 35
  207.12674 27.0 27
  207.1564 16.0 16
  208.08257 8.0 8
  208.09265 15.0 15
  208.11189 12.0 12
  208.12125 5.0 5
  209.06279 10.0 10
  209.08603 6.0 6
  209.10159 30.0 30
  209.12138 8.0 8
  210.12769 11.0 11
  211.07999 13.0 13
  211.10899 6.0 6
  211.12148 9.0 9
  212.10056 9.0 9
  212.11378 17.0 17
  213.08981 14.0 14
  213.09688 5.0 5
  214.08012 12.0 12
  214.0986 8.0 8
  214.11618 6.0 6
  214.13123 9.0 9
  215.10542 6.0 6
  215.11414 7.0 7
  216.09955 27.0 27
  216.13472 15.0 15
  216.14595 10.0 10
  217.09438 16.0 16
  217.10504 24.0 24
  218.09402 5.0 5
  218.1165 14.0 14
  219.07773 20.0 20
  219.10309 18.0 18
  219.11736 26.0 26
  220.08025 11.0 11
  220.09093 21.0 21
  220.1156 14.0 14
  220.13023 11.0 11
  221.05225 5.0 5
  221.07552 12.0 12
  221.08995 23.0 23
  221.11322 25.0 25
  222.07182 5.0 5
  222.09174 9.0 9
  222.10277 20.0 20
  222.12379 21.0 21
  222.13847 8.0 8
  222.14825 7.0 7
  223.06314 10.0 10
  223.07471 14.0 14
  223.0858 16.0 16
  223.10768 16.0 16
  223.12469 7.0 7
  224.10727 6.0 6
  224.14442 7.0 7
  225.10458 6.0 6
  225.12251 14.0 14
  226.13316 18.0 18
  227.10515 15.0 15
  229.08795 20.0 20
  229.10527 6.0 6
  230.15092 16.0 16
  231.0936 14.0 14
  231.11093 9.0 9
  231.12106 5.0 5
  231.16093 11.0 11
  232.08919 26.0 26
  232.12952 13.0 13
  232.16583 11.0 11
  233.09621 6.0 6
  233.12376 16.0 16
  234.06071 6.0 6
  234.10626 18.0 18
  234.14497 6.0 6
  235.06197 12.0 12
  235.07622 26.0 26
  235.09274 10.0 10
  235.11215 69.0 69
  236.08218 6.0 6
  236.11441 23.0 23
  236.13467 9.0 9
  236.14745 9.0 9
  236.16345 22.0 22
  236.17796 11.0 11
  237.09171 20.0 20
  237.11208 16.0 16
  237.12685 17.0 17
  237.13921 10.0 10
  237.17293 7.0 7
  238.05753 5.0 5
  238.1131 6.0 6
  238.1273 7.0 7
  239.10344 22.0 22
  239.13042 11.0 11
  240.15919 5.0 5
  241.09006 5.0 5
  241.12257 9.0 9
  241.14079 7.0 7
  244.09645 6.0 6
  244.12741 12.0 12
  244.15199 6.0 6
  245.10167 36.0 36
  246.08745 7.0 7
  246.11203 19.0 19
  247.07559 13.0 13
  247.10429 17.0 17
  247.11455 14.0 14
  248.08934 18.0 18
  248.10867 30.0 30
  248.12582 8.0 8
  248.13954 7.0 7
  249.09221 37.0 37
  249.12376 19.0 19
  249.13676 14.0 14
  249.57869 6.0 6
  250.11516 14.0 14
  250.12462 16.0 16
  250.15765 18.0 18
  251.01065 5.0 5
  251.10568 39.0 39
  251.1216 7.0 7
  251.14619 15.0 15
  252.12921 13.0 13
  253.1167 13.0 13
  253.14748 6.0 6
  254.12631 8.0 8
  254.1389 5.0 5
  254.15678 5.0 5
  255.14925 5.0 5
  256.17395 9.0 9
  257.0936 16.0 16
  258.15109 8.0 8
  259.12891 6.0 6
  260.10272 6.0 6
  261.09085 21.0 21
  261.10666 7.0 7
  261.13708 9.0 9
  262.17017 8.0 8
  263.08405 18.0 18
  263.10632 184.0 184
  263.14005 6.0 6
  264.11011 40.0 40
  264.12994 22.0 22
  264.14883 6.0 6
  265.07574 6.0 6
  265.11627 36.0 36
  265.13605 39.0 39
  266.13174 18.0 18
  267.07413 21.0 21
  267.13684 38.0 38
  268.10513 7.0 7
  268.14185 13.0 13
  268.17941 5.0 5
  268.26871 6.0 6
  270.14758 7.0 7
  270.18079 6.0 6
  271.15283 6.0 6
  272.16498 6.0 6
  273.03027 5.0 5
  275.10406 31.0 31
  275.13812 6.0 6
  276.11588 20.0 20
  277.11786 6.0 6
  277.13446 10.0 10
  278.10278 7.0 7
  278.12335 33.0 33
  278.15396 49.0 49
  279.10306 7.0 7
  279.12424 11.0 11
  279.15396 7.0 7
  279.16495 5.0 5
  280.16571 8.0 8
  281.11981 8.0 8
  282.14886 35.0 35
  282.15958 20.0 20
  282.18216 26.0 26
  283.13159 5.0 5
  284.13992 7.0 7
  284.17093 7.0 7
  285.15009 10.0 10
  286.14032 7.0 7
  286.18085 6.0 6
  289.11801 6.0 6
  291.11746 8.0 8
  291.129 8.0 8
  292.1369 18.0 18
  293.12457 11.0 11
  293.13834 41.0 41
  293.48315 6.0 6
  294.15521 38.0 38
  294.1698 9.0 9
  295.08472 9.0 9
  295.12442 34.0 34
  295.14023 32.0 32
  295.15082 8.0 8
  296.13635 13.0 13
  296.15982 11.0 11
  296.17355 13.0 13
  297.1282 9.0 9
  297.14514 6.0 6
  297.18414 8.0 8
  298.17419 8.0 8
  299.08743 7.0 7
  299.10413 11.0 11
  299.17206 6.0 6
  302.19083 5.0 5
  304.13913 9.0 9
  306.13034 6.0 6
  306.15088 67.0 67
  307.13635 26.0 26
  307.14767 10.0 10
  308.1601 11.0 11
  309.14056 10.0 10
  310.13757 41.0 41
  310.18207 177.0 177
  311.14838 21.0 21
  311.17535 39.0 39
  311.19037 27.0 27
  312.15839 11.0 11
  313.82382 8.0 8
  314.17029 22.0 22
  314.20209 31.0 31
  314.21237 52.0 52
  315.20898 13.0 13
  315.21985 8.0 8
  320.16092 5.0 5
  324.15375 7.0 7
  324.16895 6.0 6
  326.1777 22.0 22
  327.14642 6.0 6
  327.17673 6.0 6
  327.18619 5.0 5
  328.18958 9.0 9
  329.17224 10.0 10
  336.81454 7.0 7
  338.04794 6.0 6
  338.17316 742.0 741
  339.17645 181.0 181
  340.15375 5.0 5
  340.16766 6.0 6
  340.18875 19.0 19
  340.20319 11.0 11
  342.00946 5.0 5
  342.13327 5.0 5
  342.16257 13.0 13
  342.20401 331.0 331
  343.19763 33.0 33
  343.21887 50.0 50
  343.83047 7.0 7
  344.17822 12.0 12
  344.21945 6.0 6
  346.18454 5.0 5
  346.24615 6.0 6
  348.16965 7.0 7
  350.17044 8.0 8
  352.19836 6.0 6
  353.15485 7.0 7
  356.15073 7.0 7
  356.18134 10.0 10
  356.22168 5.0 5
  357.18195 15.0 15
  357.20807 6.0 6
  364.2005 10.0 10
  370.18274 28.0 28
  370.20941 23.0 23
  371.20273 12.0 12
  372.20584 8.0 8
  373.19232 5.0 5
  374.14392 8.0 8
  374.20062 13.0 13
  374.22061 26.0 26
  374.2373 44.0 44
  374.25687 11.0 11
  375.24075 12.0 12
  383.15402 6.0 6
  385.14407 9.0 9
  388.19254 7.0 7
  397.13495 7.0 7
  400.15237 5.0 5
  400.21191 19.0 19
  401.19473 10.0 10
  402.21765 15.0 15
  402.2399 5.0 5
  404.215 5.0 5
  404.23102 12.0 12
  417.20432 6.0 6
  418.19485 9.0 9
  419.17468 6.0 6
  419.19669 5.0 5
  422.18887 10.0 10
  428.207 8.0 8
  432.16422 6.0 6
  432.17422 15.0 15
  432.19052 23.0 23
  432.21655 87.0 87
  432.24319 11.0 11
  433.22095 21.0 21
  434.16721 5.0 5
  435.18036 5.0 5
  436.20627 6.0 6
  436.22568 9.0 9
  446.19156 6.0 6
  446.20724 17.0 17
  447.22421 14.0 14
  448.24503 8.0 8
  450.23004 5.0 5
  451.19821 7.0 7
  460.2041 53.0 53
  460.2276 19.0 19
  461.21448 11.0 11
  461.22696 6.0 6
  462.20459 7.0 7
  462.22498 9.0 9
  464.12164 9.0 9
  464.16711 9.0 9
  464.21133 88.0 88
  464.22916 122.0 122
  464.24588 81.0 81
  464.26981 29.0 29
  465.18515 8.0 8
  465.20734 7.0 7
  465.24158 50.0 50
  465.26706 12.0 12
  466.19907 5.0 5
  479.22131 6.0 6
  492.10257 5.0 5
  492.23764 198.0 198
  493.21066 14.0 14
  493.23834 34.0 34
  493.26987 14.0 14
  494.17963 8.0 8
  494.22086 8.0 8
  494.24399 9.0 9
  494.26056 8.0 8
  496.18222 6.0 6
  496.23325 101.0 101
  496.26746 107.0 107
  496.28525 37.0 37
  497.18454 7.0 7
  497.23282 36.0 36
  497.27649 55.0 55
  498.27505 7.0 7
  524.2171 15.0 15
  524.24768 92.0 92
  524.26965 265.0 265
  525.22247 17.0 17
  525.25311 30.0 30
  525.27399 93.0 93
  526.26105 10.0 10
  526.27917 9.0 9
  556.29541 156.0 156
  556.33728 8.0 8
  557.28064 33.0 33
  557.31433 27.0 27
  558.2832 12.0 12
  616.24213 6.0 6
  616.27295 7.0 7
  616.30835 15.0 15
  616.32977 12.0 12
//
