ACCESSION: MSBNK-RIKEN-PR310988
RECORD_TITLE: Flavone base + 3O, C-Pen, C-Pen; LC-ESI-QTOF; MS2
DATE: 2019.03.28
AUTHORS: Tetsuya Mori, Center for Sustainable Resource Science, RIKEN
LICENSE: CC BY-NC-SA
PUBLICATION: Tsugawa H., Nakabayashi R., Mori T., Yamada Y., Takahashi M., Rai A., Sugiyama R., Yamamoto H., Nakaya T., Yamazaki M., Kooke R., Bac-Molenaar JA., Oztolan-Erol N., Keurentjes JJB., Arita M., Saito K. (2019) "A cheminformatics approach to characterize metabolomes in stable-isotope-labeled organisms" Nature Methods 16(4):295-298. [doi:10.1038/s41592-019-0358-2]
COMMENT: Annotation level-3
CH$NAME: Flavone base + 3O, C-Pen, C-Pen
CH$COMPOUND_CLASS: Flavone C,C-glycosides
CH$FORMULA: C25H26O13
CH$EXACT_MASS: 534.47
CH$SMILES: O=C1C=C(OC2=C1C(O)=C(C(O)=C2C3OCC(O)C(O)C3(O))C4OCC(O)C(O)C4(O))C5=CC=C(O)C=C5
CH$IUPAC: InChI=1S/C25H26O13/c26-9-3-1-8(2-4-9)13-5-10(27)14-19(32)15(24-21(34)17(30)11(28)6-36-24)20(33)16(23(14)38-13)25-22(35)18(31)12(29)7-37-25/h1-5,11-12,17-18,21-22,24-26,28-35H,6-7H2
CH$LINK: INCHIKEY LDVNKZYMYPZDAI-UHFFFAOYSA-N
AC$INSTRUMENT: LC, Waters Acquity UPLC System; MS, Waters Xevo G2 Q-Tof
AC$INSTRUMENT_TYPE: LC-ESI-QTOF
AC$MASS_SPECTROMETRY: MS_TYPE MS2
AC$MASS_SPECTROMETRY: ION_MODE POSITIVE
AC$MASS_SPECTROMETRY: COLLISION_ENERGY 6V
AC$MASS_SPECTROMETRY: DESOLVATION_GAS_FLOW 800/h
AC$MASS_SPECTROMETRY: DESOLVATION_TEMPERATURE 450 C
AC$MASS_SPECTROMETRY: IONIZATION ESI
AC$CHROMATOGRAPHY: CAPILLARY_VOLTAGE +3.00 kV
AC$CHROMATOGRAPHY: COLUMN_NAME Acquity bridged ethyl hybrid C18 (1.7 um, 2.1 mm * 100 mm, Waters)
AC$CHROMATOGRAPHY: COLUMN_TEMPERATURE 40 C
AC$CHROMATOGRAPHY: FLOW_GRADIENT A/B = (99.5%/0.5% at 0 min, 99.5%/0.5% at 0.1 min, 20%/80% at 10 min, 0.5%/99.5% at 10.1 min, 0.5%/99.5% at 12.0 min, 99.5%/0.5% at 12.1 min, 99.5%/0.5% at 15.0 min)
AC$CHROMATOGRAPHY: FLOW_RATE 0.3 ml/min at 0 min, 0.3 ml/min at 10 min, 0.4 ml/min at 10.1 min, 0.4 ml/min at 14.4 min, 0.3 ml/min at 14.5 min
AC$CHROMATOGRAPHY: RETENTION_TIME 3.89
AC$CHROMATOGRAPHY: SOLVENT A water including 0.1% formic acid
AC$CHROMATOGRAPHY: SOLVENT B acetonitrile including 0.1% formic acid
MS$FOCUSED_ION: PRECURSOR_TYPE [M+H]+
MS$FOCUSED_ION: PRECURSOR_M/Z 535.1453
PK$SPLASH: splash10-000i-0007950000-45b20195ed8fb32fc825
PK$NUM_PEAK: 184
PK$PEAK: m/z int. rel.int.
  121.02618 17.0 10
  189.02515 16.0 9
  199.03819 20.0 11
  203.03349 16.0 9
  213.02151 30.0 17
  228.04289 16.0 9
  235.36484 18.0 10
  244.06641 18.0 10
  246.04861 16.0 9
  258.41281 21.0 12
  266.05527 17.0 10
  285.01996 17.0 10
  294.09106 17.0 10
  295.05933 57.0 32
  295.06985 114.0 64
  296.05591 38.0 21
  298.05692 48.0 27
  307.04291 22.0 12
  307.05106 44.0 25
  307.06729 60.0 34
  308.04044 17.0 10
  309.05777 17.0 10
  309.07938 34.0 19
  309.7796 73.0 41
  310.10059 30.0 17
  313.07312 38.0 21
  315.37741 23.0 13
  317.09918 19.0 11
  320.06821 23.0 13
  321.07422 93.0 52
  321.09042 28.0 16
  322.05612 16.0 9
  322.07849 16.0 9
  323.0473 20.0 11
  323.08902 22.0 12
  324.10138 16.0 9
  325.06302 38.0 21
  325.08817 60.0 34
  326.07916 16.0 9
  330.07803 17.0 10
  331.36465 28.0 16
  333.03699 20.0 11
  333.06299 17.0 10
  333.08047 18.0 10
  335.06827 41.0 23
  335.09421 47.0 26
  335.10904 19.0 11
  335.60794 28.0 16
  336.05716 25.0 14
  337.05975 84.0 47
  337.09021 20.0 11
  339.08395 74.0 42
  340.09442 23.0 13
  342.09741 21.0 12
  345.08414 55.0 31
  347.10239 20.0 11
  348.06451 18.0 10
  348.11511 16.0 9
  349.06494 132.0 74
  349.08084 64.0 36
  349.29407 25.0 14
  350.00412 16.0 9
  350.06573 84.0 47
  351.0719 50.0 28
  351.10483 29.0 16
  352.09451 18.0 10
  354.12604 36.0 20
  357.07471 27.0 15
  361.05038 59.0 33
  361.07294 86.0 48
  362.05594 33.0 19
  362.07925 69.0 39
  363.08292 57.0 32
  363.09909 33.0 19
  364.08987 25.0 14
  364.11328 23.0 13
  365.05505 16.0 9
  365.10965 17.0 10
  367.10275 19.0 11
  368.07999 57.0 32
  370.0925 16.0 9
  373.05484 19.0 11
  373.08212 16.0 9
  374.07495 17.0 10
  375.06961 40.0 22
  375.09906 20.0 11
  376.08838 17.0 10
  377.04922 19.0 11
  379.06265 52.0 29
  379.08441 268.0 150
  380.08719 33.0 19
  382.08862 17.0 10
  382.10983 21.0 12
  385.06125 21.0 12
  387.04871 19.0 11
  387.08679 20.0 11
  390.07388 17.0 10
  391.08185 235.0 132
  391.11328 16.0 9
  392.0162 17.0 10
  392.07932 59.0 33
  392.09946 75.0 42
  393.0766 20.0 11
  393.09003 60.0 34
  395.06085 17.0 10
  397.0766 33.0 19
  397.09943 79.0 44
  398.10175 33.0 19
  399.12152 18.0 10
  400.86731 21.0 12
  403.0834 49.0 28
  404.08939 64.0 36
  405.10495 40.0 22
  406.08334 20.0 11
  407.26196 16.0 9
  408.66888 20.0 11
  409.05862 45.0 25
  409.09424 105.0 59
  409.11014 54.0 30
  410.08533 66.0 37
  410.10287 18.0 10
  411.08279 22.0 12
  415.07642 31.0 17
  415.09335 111.0 62
  416.12244 16.0 9
  417.09662 101.0 57
  418.09131 17.0 10
  423.12692 23.0 13
  427.08911 51.0 29
  427.11621 164.0 92
  428.10336 137.0 77
  433.08749 266.0 149
  433.11349 60.0 34
  434.06519 23.0 13
  434.08878 77.0 43
  435.11932 16.0 9
  443.02985 24.0 13
  445.09915 67.0 38
  445.11942 87.0 49
  446.10217 39.0 22
  446.12802 20.0 11
  447.10602 20.0 11
  447.21359 16.0 9
  451.095 193.0 108
  452.10132 21.0 12
  452.12497 44.0 25
  453.10779 20.0 11
  463.09564 118.0 66
  464.11417 27.0 15
  464.12903 20.0 11
  468.92709 33.0 19
  469.01993 23.0 13
  469.10968 386.0 217
  469.14053 61.0 34
  470.06653 17.0 10
  470.1073 31.0 17
  470.13287 35.0 20
  470.15027 25.0 14
  471.1189 24.0 13
  476.97629 18.0 10
  481.08524 73.0 41
  481.10443 153.0 86
  481.12595 199.0 112
  482.10858 116.0 65
  483.09781 39.0 22
  483.11499 24.0 13
  498.0264 16.0 9
  499.1264 585.0 328
  500.1178 52.0 29
  500.14935 49.0 28
  501.0769 17.0 10
  501.12234 22.0 12
  501.16757 18.0 10
  502.125 35.0 20
  511.4823 20.0 11
  517.12 246.0 138
  517.14178 253.0 142
  517.1734 18.0 10
  518.08051 18.0 10
  518.14154 54.0 30
  518.17352 16.0 9
  535.14966 1780.0 999
  535.19202 16.0 9
  535.21631 20.0 11
//
