ACCESSION: MSBNK-RIKEN-PR310571
RECORD_TITLE: Trachelanthine; LC-ESI-QTOF; MS2
DATE: 2019.03.28
AUTHORS: Tetsuya Mori, Center for Sustainable Resource Science, RIKEN
LICENSE: CC BY-NC-SA
PUBLICATION: Tsugawa H., Nakabayashi R., Mori T., Yamada Y., Takahashi M., Rai A., Sugiyama R., Yamamoto H., Nakaya T., Yamazaki M., Kooke R., Bac-Molenaar JA., Oztolan-Erol N., Keurentjes JJB., Arita M., Saito K. (2019) "A cheminformatics approach to characterize metabolomes in stable-isotope-labeled organisms" Nature Methods 16(4):295-298. [doi:10.1038/s41592-019-0358-2]
COMMENT: Annotation level-1
CH$NAME: Trachelanthine
CH$COMPOUND_CLASS: Alkaloids
CH$FORMULA: C15H27NO5
CH$EXACT_MASS: 301.383
CH$SMILES: CC(C)C(O)(C(C)O)C(=O)OCC1CC[N+]2([O-])CCCC12
CH$IUPAC: InChI=1S/C15H27NO5/c1-10(2)15(19,11(3)17)14(18)21-9-12-6-8-16(20)7-4-5-13(12)16/h10-13,17,19H,4-9H2,1-3H3
CH$LINK: INCHIKEY DLNWZIVYKQXLTN-UHFFFAOYSA-N
AC$INSTRUMENT: LC, Waters Acquity UPLC System; MS, Waters Xevo G2 Q-Tof
AC$INSTRUMENT_TYPE: LC-ESI-QTOF
AC$MASS_SPECTROMETRY: MS_TYPE MS2
AC$MASS_SPECTROMETRY: ION_MODE POSITIVE
AC$MASS_SPECTROMETRY: COLLISION_ENERGY 6V
AC$MASS_SPECTROMETRY: DESOLVATION_GAS_FLOW 800/h
AC$MASS_SPECTROMETRY: DESOLVATION_TEMPERATURE 450 C
AC$MASS_SPECTROMETRY: IONIZATION ESI
AC$CHROMATOGRAPHY: CAPILLARY_VOLTAGE +3.00 kV
AC$CHROMATOGRAPHY: COLUMN_NAME Acquity bridged ethyl hybrid C18 (1.7 um, 2.1 mm * 100 mm, Waters)
AC$CHROMATOGRAPHY: COLUMN_TEMPERATURE 40 C
AC$CHROMATOGRAPHY: FLOW_GRADIENT A/B = (99.5%/0.5% at 0 min, 99.5%/0.5% at 0.1 min, 20%/80% at 10 min, 0.5%/99.5% at 10.1 min, 0.5%/99.5% at 12.0 min, 99.5%/0.5% at 12.1 min, 99.5%/0.5% at 15.0 min)
AC$CHROMATOGRAPHY: FLOW_RATE 0.3 ml/min at 0 min, 0.3 ml/min at 10 min, 0.4 ml/min at 10.1 min, 0.4 ml/min at 14.4 min, 0.3 ml/min at 14.5 min
AC$CHROMATOGRAPHY: RETENTION_TIME 3.11
AC$CHROMATOGRAPHY: SOLVENT A water including 0.1% formic acid
AC$CHROMATOGRAPHY: SOLVENT B acetonitrile including 0.1% formic acid
MS$FOCUSED_ION: PRECURSOR_TYPE [M+H]+
MS$FOCUSED_ION: PRECURSOR_M/Z 302.1962
PK$SPLASH: splash10-0zfr-0609000000-e7241b9d8804aaddf755
PK$NUM_PEAK: 239
PK$PEAK: m/z int. rel.int.
  55.05735 35.0 0
  63.32513 17.0 0
  68.04797 25.0 0
  70.06211 57.0 1
  70.06717 33.0 0
  71.05058 35.0 0
  71.07088 31.0 0
  73.06703 36.0 0
  80.05051 28.0 0
  80.56847 17.0 0
  81.04669 29.0 0
  81.05901 18.0 0
  81.06879 28.0 0
  83.07363 944.0 12
  84.08063 1064.0 13
  85.60573 19.0 0
  86.05703 30.0 0
  96.07463 61.0 1
  96.0833 50.0 1
  97.08597 80.0 1
  97.0917 151.0 2
  98.06385 36.0 0
  99.05737 20.0 0
  101.12083 17.0 0
  105.6544 22.0 0
  108.08371 64.0 1
  109.08572 24.0 0
  109.09099 22.0 0
  109.09591 18.0 0
  110.09693 1318.0 16
  111.09819 117.0 1
  111.10503 20.0 0
  112.07314 20.0 0
  112.07968 37.0 0
  113.07973 33.0 0
  113.08458 60.0 1
  113.11763 20.0 0
  113.123 20.0 0
  117.09382 50.0 1
  121.07896 20.0 0
  122.07307 37.0 0
  122.08092 35.0 0
  122.09492 432.0 5
  122.10152 117.0 1
  123.1009 47.0 1
  124.03516 19.0 0
  124.08354 27.0 0
  124.11203 2470.0 31
  124.14719 30.0 0
  125.11195 77.0 1
  125.11732 88.0 1
  125.63108 20.0 0
  125.85573 19.0 0
  125.86729 17.0 0
  126.08833 52.0 1
  126.34051 20.0 0
  128.69514 23.0 0
  129.56177 27.0 0
  129.88187 17.0 0
  134.8607 17.0 0
  135.19409 22.0 0
  138.02632 25.0 0
  139.37656 18.0 0
  140.07823 27.0 0
  140.09161 73.0 1
  140.10693 2541.0 31
  140.73347 21.0 0
  140.94243 19.0 0
  141.11543 3965.0 49
  141.14641 17.0 0
  141.21709 34.0 0
  141.24165 22.0 0
  141.65242 17.0 0
  142.10701 37.0 0
  142.11951 432.0 5
  143.12236 36.0 0
  143.12971 29.0 0
  146.20872 19.0 0
  148.79065 18.0 0
  148.97037 20.0 0
  154.00558 18.0 0
  155.13422 21.0 0
  155.15733 17.0 0
  156.08644 30.0 0
  156.10429 30.0 0
  156.67545 22.0 0
  157.72929 19.0 0
  158.07687 101.0 1
  158.08278 100.0 1
  158.091 61.0 1
  158.11792 41562.0 515
  158.15382 1221.0 15
  158.18994 17.0 0
  158.25603 27.0 0
  158.27 41.0 1
  158.27756 25.0 0
  158.34303 88.0 1
  158.40596 17.0 0
  159.09319 20.0 0
  159.10419 124.0 2
  159.12126 4071.0 50
  159.17126 18.0 0
  159.2951 18.0 0
  159.30623 19.0 0
  159.36679 24.0 0
  159.41629 45.0 1
  159.95695 27.0 0
  160.11838 93.0 1
  160.13362 19.0 0
  160.31252 27.0 0
  160.32535 17.0 0
  161.00555 18.0 0
  161.12694 17.0 0
  161.47266 19.0 0
  162.20673 21.0 0
  162.23795 17.0 0
  162.71194 18.0 0
  162.92169 20.0 0
  162.92929 19.0 0
  163.10696 17.0 0
  163.16583 24.0 0
  163.617 19.0 0
  163.92757 29.0 0
  164.02295 32.0 0
  165.67349 28.0 0
  166.70799 45.0 1
  167.32773 18.0 0
  170.12181 30.0 0
  172.85233 24.0 0
  173.95561 25.0 0
  176.1069 25.0 0
  179.10901 20.0 0
  182.9136 35.0 0
  183.69437 36.0 0
  185.02585 23.0 0
  186.11919 18.0 0
  186.46397 27.0 0
  188.83261 27.0 0
  189.33955 25.0 0
  189.90195 37.0 0
  189.98949 30.0 0
  190.87509 23.0 0
  190.89423 20.0 0
  191.47078 18.0 0
  191.56723 29.0 0
  191.99286 19.0 0
  192.57947 21.0 0
  192.73384 47.0 1
  193.36763 17.0 0
  194.14743 21.0 0
  195.91545 30.0 0
  198.22083 24.0 0
  203.03769 50.0 1
  206.02576 21.0 0
  206.94319 19.0 0
  208.73415 28.0 0
  208.74345 54.0 1
  209.58089 26.0 0
  210.14034 31.0 0
  211.47281 24.0 0
  213.37108 20.0 0
  215.23131 19.0 0
  215.28253 31.0 0
  216.22987 18.0 0
  217.76053 45.0 1
  217.90512 21.0 0
  220.38808 25.0 0
  221.74629 23.0 0
  225.70055 60.0 1
  229.21857 17.0 0
  237.05406 30.0 0
  237.43869 21.0 0
  239.14677 21.0 0
  240.12654 27.0 0
  240.1517 17.0 0
  240.16132 71.0 1
  240.17509 67.0 1
  241.16206 18.0 0
  241.17714 46.0 1
  242.05482 20.0 0
  244.16942 18.0 0
  246.57147 23.0 0
  248.3326 18.0 0
  249.96194 21.0 0
  250.90207 28.0 0
  252.15276 93.0 1
  252.16734 143.0 2
  252.34943 21.0 0
  253.13193 24.0 0
  253.15974 22.0 0
  254.157 22.0 0
  258.16458 387.0 5
  258.17999 343.0 4
  259.17386 176.0 2
  260.15521 22.0 0
  260.77838 21.0 0
  260.91461 20.0 0
  264.31348 21.0 0
  272.69177 34.0 0
  278.92831 34.0 0
  280.20416 19.0 0
  284.14343 20.0 0
  284.16028 33.0 0
  284.18378 855.0 11
  284.22214 30.0 0
  284.27087 17.0 0
  285.18509 90.0 1
  285.20486 25.0 0
  285.21695 42.0 1
  286.16415 23.0 0
  288.71378 24.0 0
  293.31116 35.0 0
  294.22205 20.0 0
  298.18906 17.0 0
  298.86115 27.0 0
  300.22525 18.0 0
  300.99762 45.0 1
  301.02725 18.0 0
  301.1239 20.0 0
  301.13812 24.0 0
  301.52679 17.0 0
  301.66537 19.0 0
  301.81311 20.0 0
  301.88351 21.0 0
  301.89914 54.0 1
  301.91791 31.0 0
  301.92844 19.0 0
  302.01346 23.0 0
  302.05295 21.0 0
  302.07086 19.0 0
  302.08087 24.0 0
  302.11826 88.0 1
  302.13251 166.0 2
  302.15219 96.0 1
  302.19638 80662.0 999
  302.24612 2927.0 36
  302.29178 490.0 6
  302.3414 17.0 0
  302.35208 17.0 0
//
