ACCESSION: MSBNK-RIKEN-PR100531
RECORD_TITLE: 3',5'-Cyclic AMP; LC-ESI-QTOF; MS2; CE:Ramp 5-60 V; [M-H]-
DATE: 2016.01.19 (Created 2010.06.21, modified 2011.05.06)
AUTHORS: Matsuda F, Suzuki M, Sawada Y, Plant Science Center, RIKEN.
LICENSE: CC BY-SA
COMMENT: Acquisition and generation of the data is financially supported in part by CREST/JST.
CH$NAME: Adenosine 3',5'-cyclicmonophosphate
CH$NAME: cAMP
CH$NAME: Cyclic AMP
CH$NAME: Adenosine 3',5'-cyclophosphate
CH$NAME: Cyclic-3',5'-adenylic acid
CH$NAME: 3',5'-Cyclic AMP
CH$COMPOUND_CLASS: Natural Product; Nucleoside; Phosphates
CH$FORMULA: C10H12N5O6P
CH$EXACT_MASS: 329.05252
CH$SMILES: Nc(n4)c(n3)c(nc4)n(c3)[C@H](O1)[C@H](O)[C@H](O2)[C@@H](COP(O)(=O)2)1
CH$IUPAC: InChI=1S/C10H12N5O6P/c11-8-5-9(13-2-12-8)15(3-14-5)10-6(16)7-4(20-10)1-19-22(17,18)21-7/h2-4,6-7,10,16H,1H2,(H,17,18)(H2,11,12,13)/t4-,6-,7-,10-/m1/s1
CH$LINK: CAS 60-92-4
CH$LINK: CHEMSPIDER 5851
CH$LINK: KAPPAVIEW KPC00415
CH$LINK: KEGG C00575
CH$LINK: KNAPSACK C00001497
CH$LINK: PUBCHEM CID:6076
CH$LINK: INCHIKEY IVOMOUWHDPKRLL-KQYNXXCUSA-N
CH$LINK: COMPTOX DTXSID8040436
AC$INSTRUMENT: UPLC Q-Tof Premier, Waters
AC$INSTRUMENT_TYPE: LC-ESI-QTOF
AC$MASS_SPECTROMETRY: MS_TYPE MS2
AC$MASS_SPECTROMETRY: ION_MODE NEGATIVE
AC$MASS_SPECTROMETRY: COLLISION_ENERGY Ramp 5-60 V
AC$MASS_SPECTROMETRY: DATAFORMAT Continuum
AC$MASS_SPECTROMETRY: DESOLVATION_GAS_FLOW 600.0 L/Hr
AC$MASS_SPECTROMETRY: DESOLVATION_TEMPERATURE 400 C
AC$MASS_SPECTROMETRY: FRAGMENTATION_METHOD LOW-ENERGY CID
AC$MASS_SPECTROMETRY: IONIZATION ESI
AC$MASS_SPECTROMETRY: SOURCE_TEMPERATURE 120 C
AC$CHROMATOGRAPHY: CAPILLARY_VOLTAGE 3.0 kV
AC$CHROMATOGRAPHY: SAMPLING_CONE 23.0 V
AC$CHROMATOGRAPHY: SOLVENT A CH3CN(0.1%HCOOH)
AC$CHROMATOGRAPHY: SOLVENT B H2O(0.1%HCOOH)
MS$FOCUSED_ION: PRECURSOR_M/Z 328.04472
MS$FOCUSED_ION: PRECURSOR_TYPE [M-H]-
PK$SPLASH: splash10-003r-2904000000-865c1b989665f73ac3f4
PK$NUM_PEAK: 4
PK$PEAK: m/z int. rel.int.
  78.9723 2151 264
  107.0534 805.3 99
  134.0678 8146 999
  328.0948 4390 538
//
