ACCESSION: MSBNK-RIKEN-PR303873
RECORD_TITLE: Asiaticoside; LC-ESI-QTOF; MS2
DATE: 2019.03.28
AUTHORS: Tetsuya Mori, Center for Sustainable Resource Science, RIKEN
LICENSE: CC BY-NC-SA
PUBLICATION: Tsugawa H., Nakabayashi R., Mori T., Yamada Y., Takahashi M., Rai A., Sugiyama R., Yamamoto H., Nakaya T., Yamazaki M., Kooke R., Bac-Molenaar JA., Oztolan-Erol N., Keurentjes JJB., Arita M., Saito K. (2019) "A cheminformatics approach to characterize metabolomes in stable-isotope-labeled organisms" Nature Methods 16(4):295-298. [doi:10.1038/s41592-019-0358-2]
COMMENT: registered in RIKEN PlaSMA
CH$NAME: Asiaticoside
CH$COMPOUND_CLASS: Triterpene saponins
CH$FORMULA: C48H78O19
CH$EXACT_MASS: 959.133
CH$SMILES: CC1CCC2(CCC3(C)C(=CCC4C5(C)CC(O)C(O)C(C)(CO)C5CCC34C)C2C1C)C(=O)OC1OC(COC2OC(CO)C(OC3OC(C)C(O)C(O)C3O)C(O)C2O)C(O)C(O)C1O
CH$IUPAC: InChI=1S/C48H78O19/c1-20-10-13-48(15-14-46(6)23(29(48)21(20)2)8-9-28-44(4)16-24(51)39(60)45(5,19-50)27(44)11-12-47(28,46)7)43(61)67-42-36(58)33(55)31(53)26(65-42)18-62-40-37(59)34(56)38(25(17-49)64-40)66-41-35(57)32(54)30(52)22(3)63-41/h8,20-22,24-42,49-60H,9-19H2,1-7H3
CH$LINK: INCHIKEY WYQVAPGDARQUBT-UHFFFAOYSA-N
AC$INSTRUMENT: LC, Waters Acquity UPLC System; MS, Waters Xevo G2 Q-Tof
AC$INSTRUMENT_TYPE: LC-ESI-QTOF
AC$MASS_SPECTROMETRY: MS_TYPE MS2
AC$MASS_SPECTROMETRY: ION_MODE POSITIVE
AC$MASS_SPECTROMETRY: COLLISION_ENERGY 6V
AC$MASS_SPECTROMETRY: DESOLVATION_GAS_FLOW 800/h
AC$MASS_SPECTROMETRY: DESOLVATION_TEMPERATURE 450 C
AC$MASS_SPECTROMETRY: IONIZATION ESI
AC$CHROMATOGRAPHY: CAPILLARY_VOLTAGE +3.00 kV
AC$CHROMATOGRAPHY: COLUMN_NAME Acquity bridged ethyl hybrid C18 (1.7 um, 2.1 mm * 100 mm, Waters)
AC$CHROMATOGRAPHY: COLUMN_TEMPERATURE 40 C
AC$CHROMATOGRAPHY: FLOW_GRADIENT A/B = (99.5%/0.5% at 0 min, 99.5%/0.5% at 0.1 min, 20%/80% at 10 min, 0.5%/99.5% at 10.1 min, 0.5%/99.5% at 12.0 min, 99.5%/0.5% at 12.1 min, 99.5%/0.5% at 15.0 min)
AC$CHROMATOGRAPHY: FLOW_RATE 0.3 ml/min at 0 min, 0.3 ml/min at 10 min, 0.4 ml/min at 10.1 min, 0.4 ml/min at 14.4 min, 0.3 ml/min at 14.5 min
AC$CHROMATOGRAPHY: RETENTION_TIME 5.20985
AC$CHROMATOGRAPHY: SOLVENT A water including 0.1% formic acid
AC$CHROMATOGRAPHY: SOLVENT B acetonitrile including 0.1% formic acid
MS$FOCUSED_ION: PRECURSOR_TYPE [M+H]+
MS$FOCUSED_ION: PRECURSOR_M/Z 959.5210067
PK$SPLASH: splash10-0zfr-0121903102-2e20a90c1f7a87b5d38e
PK$NUM_PEAK: 171
PK$PEAK: m/z int. rel.int.
  59.0471 33.0 33
  95.07394 22.0 22
  95.08509 22.0 22
  111.03451 13.0 13
  111.04555 16.0 16
  112.03387 18.0 18
  112.08552 13.0 13
  119.08943 16.0 16
  121.10727 14.0 14
  123.11958 25.0 25
  125.09387 16.0 16
  125.1005 25.0 25
  126.10083 31.0 31
  127.03761 14.0 14
  129.05113 82.0 82
  147.06548 94.0 94
  147.10812 13.0 13
  151.03676 15.0 15
  163.05318 13.0 13
  163.06277 40.0 40
  172.07111 20.0 20
  187.14568 13.0 13
  189.08495 19.0 19
  189.15851 15.0 15
  191.1846 28.0 28
  199.15427 14.0 14
  201.07642 13.0 13
  201.12758 19.0 19
  201.1608 34.0 34
  202.17493 15.0 15
  205.15063 13.0 13
  206.16899 13.0 13
  207.06297 16.0 16
  213.16136 13.0 13
  213.16878 18.0 18
  215.17062 17.0 17
  216.18503 15.0 15
  217.069 16.0 16
  217.15866 13.0 13
  219.17072 35.0 35
  219.18164 13.0 13
  226.17017 13.0 13
  228.81303 21.0 21
  229.1599 20.0 20
  233.18768 15.0 15
  235.16806 35.0 35
  241.201 15.0 15
  243.08482 28.0 28
  243.17021 13.0 13
  247.1633 14.0 14
  255.07697 31.0 31
  255.0872 39.0 39
  255.1011 15.0 15
  261.17093 15.0 15
  262.18265 13.0 13
  262.1933 13.0 13
  273.095 85.0 85
  274.09778 17.0 17
  275.19705 13.0 13
  281.23492 18.0 18
  285.18851 13.0 13
  291.10513 19.0 19
  297.37973 13.0 13
  309.12256 353.0 353
  310.11316 33.0 33
  312.11682 13.0 13
  323.27124 15.0 15
  325.11145 35.0 35
  327.22348 13.0 13
  341.24152 13.0 13
  341.26672 13.0 13
  343.25113 30.0 30
  369.14243 19.0 19
  379.33743 13.0 13
  380.32733 17.0 17
  389.30917 15.0 15
  389.3273 14.0 14
  391.32852 21.0 21
  395.29471 19.0 19
  398.13278 17.0 17
  400.12891 14.0 14
  407.27631 19.0 19
  407.30072 28.0 28
  407.32715 219.0 219
  408.31635 14.0 14
  408.33292 25.0 25
  408.36057 13.0 13
  409.34634 13.0 13
  409.57391 20.0 20
  409.73996 16.0 16
  413.56369 13.0 13
  418.31223 15.0 15
  423.32874 28.0 28
  425.33054 22.0 22
  425.34753 15.0 15
  435.15311 13.0 13
  435.31787 153.0 153
  436.30716 16.0 16
  436.34036 13.0 13
  437.34412 68.0 68
  440.33585 18.0 18
  445.56583 19.0 19
  453.33673 1000.0 999
  453.78445 13.0 13
  454.15744 15.0 15
  454.30173 62.0 62
  454.33902 390.0 390
  455.3295 19.0 19
  471.13385 16.0 16
  471.16803 92.0 92
  471.18771 36.0 36
  471.215 18.0 18
  471.31726 13.0 13
  471.34064 182.0 182
  471.36169 194.0 194
  472.16788 15.0 15
  472.18268 16.0 16
  472.25061 20.0 20
  472.36237 109.0 109
  473.05103 13.0 13
  473.19818 14.0 14
  473.35382 13.0 13
  476.93918 17.0 17
  489.33548 38.0 38
  489.35931 190.0 190
  490.33542 13.0 13
  490.3685 13.0 13
  548.3725 17.0 17
  580.58813 19.0 19
  581.37836 16.0 16
  582.38965 13.0 13
  585.42584 14.0 14
  599.38354 15.0 15
  600.39844 13.0 13
  617.42926 22.0 22
  619.45007 13.0 13
  634.40051 15.0 15
  635.41266 394.0 394
  636.38635 16.0 16
  636.41608 133.0 133
  637.42664 57.0 57
  638.96985 18.0 18
  650.3728 16.0 16
  651.36627 15.0 15
  651.39655 189.0 189
  651.42139 89.0 89
  652.39124 51.0 51
  652.41553 48.0 48
  653.42151 25.0 25
  654.99164 13.0 13
  671.89862 13.0 13
  717.05902 26.0 26
  794.77692 14.0 14
  797.34192 13.0 13
  797.39655 34.0 34
  797.47998 332.0 332
  798.3877 22.0 22
  798.42554 48.0 48
  798.46472 73.0 73
  798.49371 112.0 112
  799.48608 50.0 50
  813.43127 30.0 30
  813.46002 54.0 54
  814.44238 15.0 15
  814.46771 16.0 16
  815.46747 28.0 28
  941.68579 15.0 15
  959.44354 31.0 31
  959.52173 780.0 779
  959.56726 125.0 125
  959.65491 15.0 15
//
