ACCESSION: MSBNK-RIKEN-PR301166
RECORD_TITLE: Hetisine; LC-ESI-QTOF; MS2
DATE: 2019.03.28
AUTHORS: Tetsuya Mori, Center for Sustainable Resource Science, RIKEN
LICENSE: CC BY-NC-SA
PUBLICATION: Tsugawa H., Nakabayashi R., Mori T., Yamada Y., Takahashi M., Rai A., Sugiyama R., Yamamoto H., Nakaya T., Yamazaki M., Kooke R., Bac-Molenaar JA., Oztolan-Erol N., Keurentjes JJB., Arita M., Saito K. (2019) "A cheminformatics approach to characterize metabolomes in stable-isotope-labeled organisms" Nature Methods 16(4):295-298. [doi:10.1038/s41592-019-0358-2]
COMMENT: registered in RIKEN PlaSMA
CH$NAME: Hetisine
CH$COMPOUND_CLASS: Atisane diterpenoids
CH$FORMULA: C20H27NO3
CH$EXACT_MASS: 329.44
CH$SMILES: CC12CN3C4CC56CC(=C)C7C(O)C5C3C(CC(O)C1)(C24)C6C7O
CH$IUPAC: InChI=1S/C20H27NO3/c1-8-3-19-6-10-15-18(2)4-9(22)5-20(15)16(19)14(24)11(8)13(23)12(19)17(20)21(10)7-18/h9-17,22-24H,1,3-7H2,2H3
CH$LINK: INCHIKEY PIWJSAMCEMZIDO-UHFFFAOYSA-N
AC$INSTRUMENT: LC, Waters Acquity UPLC System; MS, Waters Xevo G2 Q-Tof
AC$INSTRUMENT_TYPE: LC-ESI-QTOF
AC$MASS_SPECTROMETRY: MS_TYPE MS2
AC$MASS_SPECTROMETRY: ION_MODE POSITIVE
AC$MASS_SPECTROMETRY: COLLISION_ENERGY 6V
AC$MASS_SPECTROMETRY: DESOLVATION_GAS_FLOW 800/h
AC$MASS_SPECTROMETRY: DESOLVATION_TEMPERATURE 450 C
AC$MASS_SPECTROMETRY: IONIZATION ESI
AC$CHROMATOGRAPHY: CAPILLARY_VOLTAGE +3.00 kV
AC$CHROMATOGRAPHY: COLUMN_NAME Acquity bridged ethyl hybrid C18 (1.7 um, 2.1 mm * 100 mm, Waters)
AC$CHROMATOGRAPHY: COLUMN_TEMPERATURE 40 C
AC$CHROMATOGRAPHY: FLOW_GRADIENT A/B = (99.5%/0.5% at 0 min, 99.5%/0.5% at 0.1 min, 20%/80% at 10 min, 0.5%/99.5% at 10.1 min, 0.5%/99.5% at 12.0 min, 99.5%/0.5% at 12.1 min, 99.5%/0.5% at 15.0 min)
AC$CHROMATOGRAPHY: FLOW_RATE 0.3 ml/min at 0 min, 0.3 ml/min at 10 min, 0.4 ml/min at 10.1 min, 0.4 ml/min at 14.4 min, 0.3 ml/min at 14.5 min
AC$CHROMATOGRAPHY: RETENTION_TIME 3.0671
AC$CHROMATOGRAPHY: SOLVENT A water including 0.1% formic acid
AC$CHROMATOGRAPHY: SOLVENT B acetonitrile including 0.1% formic acid
MS$FOCUSED_ION: PRECURSOR_TYPE [M+H]+
MS$FOCUSED_ION: PRECURSOR_M/Z 330.2063702
PK$SPLASH: splash10-001i-1922000000-aabb5b0ba5d7b3dcfd66
PK$NUM_PEAK: 377
PK$PEAK: m/z int. rel.int.
  53.04527 6.0 6
  67.05515 23.0 23
  69.03516 8.0 8
  69.07386 10.0 10
  70.05876 12.0 12
  70.06483 5.0 5
  77.03817 25.0 25
  79.04858 9.0 9
  79.05563 54.0 54
  80.05048 12.0 12
  80.05598 5.0 5
  81.0529 7.0 7
  81.07159 36.0 36
  82.06636 49.0 49
  83.04771 14.0 14
  83.05496 7.0 7
  83.05982 10.0 10
  91.05633 129.0 129
  92.05914 28.0 28
  93.0648 17.0 17
  93.06866 44.0 44
  94.05981 26.0 26
  94.06864 18.0 18
  95.04725 16.0 16
  95.07012 6.0 6
  95.08714 18.0 18
  96.08319 66.0 66
  97.08047 6.0 6
  99.62516 6.0 6
  100.25722 6.0 6
  103.05903 24.0 24
  105.03205 7.0 7
  105.07089 192.0 192
  106.06281 11.0 11
  106.06678 28.0 28
  106.07728 19.0 19
  107.05736 5.0 5
  107.08563 26.0 26
  108.07863 67.0 67
  108.08622 41.0 41
  109.06435 15.0 15
  110.09852 7.0 7
  115.05624 87.0 87
  116.03486 6.0 6
  116.05795 34.0 34
  117.04049 7.0 7
  117.06065 23.0 23
  117.07043 71.0 71
  117.07575 19.0 19
  118.06142 21.0 21
  118.06861 18.0 18
  118.07442 24.0 24
  119.04882 6.0 6
  119.05359 14.0 14
  119.07434 23.0 23
  119.08533 43.0 43
  120.07339 20.0 20
  120.08263 98.0 98
  121.06387 12.0 12
  121.07098 12.0 12
  121.0808 20.0 20
  121.09374 13.0 13
  122.05882 5.0 5
  122.09277 27.0 27
  122.0986 29.0 29
  122.10658 7.0 7
  123.10265 10.0 10
  127.04967 14.0 14
  128.06161 115.0 115
  128.0687 20.0 20
  128.22289 8.0 8
  129.06992 142.0 142
  130.05298 6.0 6
  130.07031 71.0 71
  130.0798 21.0 21
  131.07378 24.0 24
  131.08685 173.0 173
  132.07825 54.0 54
  132.09547 20.0 20
  133.05951 8.0 8
  133.08073 12.0 12
  133.09238 6.0 6
  133.10019 11.0 11
  133.10788 11.0 11
  134.07509 5.0 5
  134.08907 12.0 12
  134.1004 32.0 32
  135.07741 14.0 14
  141.06255 27.0 27
  141.07173 48.0 48
  142.06284 8.0 8
  142.07761 118.0 118
  143.05847 9.0 9
  143.07993 65.0 65
  143.0876 102.0 102
  144.05574 6.0 6
  144.07707 73.0 73
  144.08647 35.0 35
  145.06331 14.0 14
  145.0955 32.0 32
  145.10265 77.0 77
  146.09689 26.0 26
  146.10387 39.0 39
  146.64427 7.0 7
  147.07727 20.0 20
  147.0968 14.0 14
  147.11171 7.0 7
  148.07411 9.0 9
  148.10892 19.0 19
  149.08681 9.0 9
  150.09161 17.0 17
  150.09648 8.0 8
  152.0609 34.0 34
  152.11537 5.0 5
  153.0712 45.0 45
  153.14485 7.0 7
  154.0694 33.0 33
  154.07814 30.0 30
  155.08711 158.0 158
  156.07646 28.0 28
  156.09273 55.0 55
  157.04243 6.0 6
  157.08109 6.0 6
  157.0882 20.0 20
  157.10623 51.0 51
  158.05415 7.0 7
  158.07445 7.0 7
  158.0826 6.0 6
  158.09494 40.0 40
  158.10773 24.0 24
  159.07864 29.0 29
  159.10623 11.0 11
  160.07976 19.0 19
  160.10815 21.0 21
  160.11903 11.0 11
  161.09818 10.0 10
  161.11299 8.0 8
  161.12549 13.0 13
  161.55659 8.0 8
  162.08369 6.0 6
  162.09302 7.0 7
  162.12669 6.0 6
  163.12555 7.0 7
  164.06194 5.0 5
  164.10274 6.0 6
  165.03893 6.0 6
  165.07036 137.0 137
  166.0773 112.0 112
  167.06982 46.0 46
  167.08208 58.0 58
  167.08864 44.0 44
  167.33961 6.0 6
  168.08307 68.0 68
  168.0939 34.0 34
  168.10323 6.0 6
  169.0853 18.0 18
  169.09904 36.0 36
  169.10843 14.0 14
  170.06735 18.0 18
  170.09544 17.0 17
  170.10538 5.0 5
  171.08289 38.0 38
  171.10204 6.0 6
  171.11145 22.0 22
  171.12103 10.0 10
  172.088 5.0 5
  172.10378 6.0 6
  172.11328 31.0 31
  172.53047 9.0 9
  173.09489 28.0 28
  173.12164 5.0 5
  173.32718 5.0 5
  174.0699 5.0 5
  174.09383 13.0 13
  175.09264 5.0 5
  175.10942 6.0 6
  176.81247 9.0 9
  178.07024 34.0 34
  178.07828 54.0 54
  178.08801 11.0 11
  178.11996 13.0 13
  178.12518 6.0 6
  179.0845 111.0 111
  179.10945 9.0 9
  180.07196 5.0 5
  180.08893 57.0 57
  180.10117 28.0 28
  181.06361 20.0 20
  181.0843 10.0 10
  181.10081 91.0 91
  181.121 9.0 9
  182.06943 12.0 12
  182.09384 39.0 39
  182.10646 52.0 52
  182.27071 7.0 7
  183.07903 11.0 11
  183.10001 9.0 9
  183.11032 29.0 29
  183.12488 12.0 12
  184.1077 11.0 11
  184.11581 10.0 10
  184.12422 9.0 9
  185.09235 14.0 14
  185.10191 13.0 13
  185.11646 24.0 24
  185.12819 11.0 11
  185.85707 7.0 7
  186.12402 18.0 18
  186.32611 8.0 8
  186.40976 9.0 9
  188.09755 11.0 11
  188.10603 7.0 7
  188.14511 13.0 13
  189.07993 6.0 6
  189.1597 5.0 5
  190.07256 17.0 17
  190.08037 9.0 9
  191.03529 8.0 8
  191.08627 48.0 48
  192.09102 100.0 100
  192.68483 5.0 5
  193.10347 125.0 125
  194.06747 10.0 10
  194.09052 34.0 34
  194.10915 46.0 46
  195.08466 18.0 18
  195.11363 83.0 83
  195.12425 14.0 14
  196.11389 27.0 27
  196.12564 14.0 14
  196.92162 12.0 12
  197.09534 15.0 15
  197.12117 9.0 9
  198.10771 11.0 11
  198.12534 33.0 33
  198.16119 6.0 6
  199.0954 9.0 9
  199.10756 6.0 6
  199.12315 7.0 7
  199.15276 5.0 5
  200.10675 14.0 14
  200.14154 7.0 7
  202.05212 6.0 6
  202.12094 6.0 6
  203.08023 47.0 47
  203.091 15.0 15
  204.08347 12.0 12
  204.09557 12.0 12
  204.58391 7.0 7
  205.09309 21.0 21
  205.10158 39.0 39
  206.08502 6.0 6
  206.09979 26.0 26
  206.10924 15.0 15
  206.12469 9.0 9
  207.07323 6.0 6
  207.11639 77.0 77
  208.04988 6.0 6
  208.08458 6.0 6
  208.10893 59.0 59
  208.1268 15.0 15
  209.11115 8.0 8
  209.12494 12.0 12
  209.13246 33.0 33
  210.08836 9.0 9
  210.1207 11.0 11
  210.12904 12.0 12
  210.13797 16.0 16
  211.09726 13.0 13
  211.11978 6.0 6
  211.14479 20.0 20
  211.28777 5.0 5
  212.1395 10.0 10
  212.7326 12.0 12
  213.1329 6.0 6
  213.85924 6.0 6
  216.09427 6.0 6
  217.10402 27.0 27
  218.07228 6.0 6
  218.09729 15.0 15
  218.10902 14.0 14
  219.10081 5.0 5
  219.11609 28.0 28
  220.11568 49.0 49
  220.12753 7.0 7
  221.11949 8.0 8
  221.13148 17.0 17
  221.14371 7.0 7
  221.15598 6.0 6
  222.08704 11.0 11
  222.09898 11.0 11
  222.13007 18.0 18
  223.11427 16.0 16
  223.14555 18.0 18
  224.15141 15.0 15
  225.11958 13.0 13
  225.14787 9.0 9
  227.02322 7.0 7
  228.09824 6.0 6
  228.15147 10.0 10
  229.10051 29.0 29
  229.11157 14.0 14
  229.15768 5.0 5
  230.10474 10.0 10
  231.11311 7.0 7
  232.11504 21.0 21
  232.13019 9.0 9
  233.1234 6.0 6
  233.13614 27.0 27
  233.14587 7.0 7
  234.12602 8.0 8
  234.14044 9.0 9
  235.14772 13.0 13
  236.12744 6.0 6
  236.14505 5.0 5
  236.15837 5.0 5
  237.13049 10.0 10
  237.16832 6.0 6
  238.15541 24.0 24
  239.20804 6.0 6
  240.08752 5.0 5
  240.11002 6.0 6
  241.13933 9.0 9
  243.19109 6.0 6
  244.12013 10.0 10
  247.12386 11.0 11
  248.1333 11.0 11
  248.15747 9.0 9
  249.12312 5.0 5
  249.13831 13.0 13
  249.14981 15.0 15
  249.16463 6.0 6
  250.12193 7.0 7
  250.15114 17.0 17
  251.13998 8.0 8
  251.17107 10.0 10
  252.1467 6.0 6
  253.14703 5.0 5
  255.15651 6.0 6
  255.20476 6.0 6
  260.14178 11.0 11
  266.14468 17.0 17
  266.16229 9.0 9
  266.17801 17.0 17
  266.20309 7.0 7
  268.17053 12.0 12
  268.18399 8.0 8
  268.19815 10.0 10
  270.13779 6.0 6
  282.06094 7.0 7
  282.19537 10.0 10
  283.15826 8.0 8
  284.1889 5.0 5
  284.1998 11.0 11
  285.1955 11.0 11
  286.2056 6.0 6
  287.21976 6.0 6
  294.18466 24.0 24
  294.19604 11.0 11
  295.1727 9.0 9
  295.18405 11.0 11
  297.15097 6.0 6
  299.48428 9.0 9
  302.21359 15.0 15
  302.22433 9.0 9
  312.17792 35.0 35
  312.19504 127.0 127
  312.81293 6.0 6
  313.17365 15.0 15
  313.1857 18.0 18
  313.20428 21.0 21
  313.98633 6.0 6
  314.2041 7.0 7
  330.11804 20.0 20
  330.14859 5.0 5
  330.16537 21.0 21
  330.20538 1000.0 999
//
