ACCESSION: MSBNK-RIKEN-PR310618
RECORD_TITLE: Isoformosanine; LC-ESI-QTOF; MS2
DATE: 2019.03.28
AUTHORS: Tetsuya Mori, Center for Sustainable Resource Science, RIKEN
LICENSE: CC BY-NC-SA
PUBLICATION: Tsugawa H., Nakabayashi R., Mori T., Yamada Y., Takahashi M., Rai A., Sugiyama R., Yamamoto H., Nakaya T., Yamazaki M., Kooke R., Bac-Molenaar JA., Oztolan-Erol N., Keurentjes JJB., Arita M., Saito K. (2019) "A cheminformatics approach to characterize metabolomes in stable-isotope-labeled organisms" Nature Methods 16(4):295-298. [doi:10.1038/s41592-019-0358-2]
COMMENT: Annotation level-1
CH$NAME: Isoformosanine
CH$COMPOUND_CLASS: Alkaloids
CH$FORMULA: C21H24N2O4
CH$EXACT_MASS: 368.433
CH$SMILES: COC(=O)C1=COC(C)C2CN3CCC4(C3CC12)C(=O)NC1=C4C=CC=C1
CH$IUPAC: InChI=1S/C21H24N2O4/c1-12-14-10-23-8-7-21(16-5-3-4-6-17(16)22-20(21)25)18(23)9-13(14)15(11-27-12)19(24)26-2/h3-6,11-14,18H,7-10H2,1-2H3,(H,22,25)
CH$LINK: INCHIKEY JMIAZDVHNCCPDM-UHFFFAOYSA-N
AC$INSTRUMENT: LC, Waters Acquity UPLC System; MS, Waters Xevo G2 Q-Tof
AC$INSTRUMENT_TYPE: LC-ESI-QTOF
AC$MASS_SPECTROMETRY: MS_TYPE MS2
AC$MASS_SPECTROMETRY: ION_MODE POSITIVE
AC$MASS_SPECTROMETRY: COLLISION_ENERGY 6V
AC$MASS_SPECTROMETRY: DESOLVATION_GAS_FLOW 800/h
AC$MASS_SPECTROMETRY: DESOLVATION_TEMPERATURE 450 C
AC$MASS_SPECTROMETRY: IONIZATION ESI
AC$CHROMATOGRAPHY: CAPILLARY_VOLTAGE +3.00 kV
AC$CHROMATOGRAPHY: COLUMN_NAME Acquity bridged ethyl hybrid C18 (1.7 um, 2.1 mm * 100 mm, Waters)
AC$CHROMATOGRAPHY: COLUMN_TEMPERATURE 40 C
AC$CHROMATOGRAPHY: FLOW_GRADIENT A/B = (99.5%/0.5% at 0 min, 99.5%/0.5% at 0.1 min, 20%/80% at 10 min, 0.5%/99.5% at 10.1 min, 0.5%/99.5% at 12.0 min, 99.5%/0.5% at 12.1 min, 99.5%/0.5% at 15.0 min)
AC$CHROMATOGRAPHY: FLOW_RATE 0.3 ml/min at 0 min, 0.3 ml/min at 10 min, 0.4 ml/min at 10.1 min, 0.4 ml/min at 14.4 min, 0.3 ml/min at 14.5 min
AC$CHROMATOGRAPHY: RETENTION_TIME 4.42
AC$CHROMATOGRAPHY: SOLVENT A water including 0.1% formic acid
AC$CHROMATOGRAPHY: SOLVENT B acetonitrile including 0.1% formic acid
MS$FOCUSED_ION: PRECURSOR_TYPE [M+H]+
MS$FOCUSED_ION: PRECURSOR_M/Z 369.18088
PK$SPLASH: splash10-014i-0319000000-54be3bba774f267aa13d
PK$NUM_PEAK: 622
PK$PEAK: m/z int. rel.int.
  51.80405 21.0 0
  55.04924 17.0 0
  55.05372 39.0 0
  55.05921 72.0 1
  70.02777 35.0 0
  71.25488 25.0 0
  76.09583 25.0 0
  79.05022 45.0 0
  80.04848 63.0 1
  80.85612 55.0 1
  81.04874 34.0 0
  81.07069 70.0 1
  82.02496 29.0 0
  82.06385 22.0 0
  83.07604 25.0 0
  91.03492 18.0 0
  93.0677 18.0 0
  94.03299 34.0 0
  94.06236 30.0 0
  95.03738 18.0 0
  95.08298 31.0 0
  96.04095 22.0 0
  96.06418 53.0 0
  96.07691 22.0 0
  103.41635 21.0 0
  104.05244 28.0 0
  104.5891 21.0 0
  105.06846 56.0 1
  107.0668 31.0 0
  107.07357 18.0 0
  108.04666 48.0 0
  108.0706 18.0 0
  108.08081 237.0 2
  108.72166 47.0 0
  109.01494 53.0 0
  109.05319 104.0 1
  109.06245 63.0 1
  109.07 113.0 1
  109.08047 18.0 0
  109.0918 17.0 0
  110.09213 21.0 0
  110.10165 57.0 1
  110.51337 25.0 0
  111.23311 19.0 0
  112.12086 24.0 0
  115.03072 40.0 0
  115.03957 60.0 1
  115.0527 459.0 4
  115.16694 29.0 0
  116.04704 20.0 0
  116.05446 92.0 1
  117.02757 38.0 0
  117.05146 262.0 2
  117.06044 249.0 2
  117.21371 19.0 0
  117.24178 18.0 0
  118.06309 906.0 8
  119.05962 22.0 0
  119.06581 30.0 0
  119.09022 27.0 0
  120.04577 21.0 0
  121.88199 18.0 0
  122.01877 72.0 1
  122.02293 25.0 0
  122.0461 29.0 0
  122.05676 42.0 0
  122.09461 68.0 1
  123.03992 17.0 0
  123.08529 51.0 0
  124.03944 1332.0 12
  125.04388 80.0 1
  125.85423 19.0 0
  126.03815 37.0 0
  127.04571 30.0 0
  128.05046 24.0 0
  129.01201 30.0 0
  130.0623 408.0 4
  130.06725 123.0 1
  130.13875 30.0 0
  130.75621 24.0 0
  131.0584 41.0 0
  131.06792 107.0 1
  131.07701 17.0 0
  131.2787 20.0 0
  131.76273 18.0 0
  131.96234 21.0 0
  131.99635 39.0 0
  132.02585 43.0 0
  132.03267 93.0 1
  132.04578 1500.0 14
  132.07933 3128.0 28
  132.09448 109.0 1
  132.18274 18.0 0
  132.32619 27.0 0
  132.38736 19.0 0
  132.45592 18.0 0
  132.48636 42.0 0
  132.5051 17.0 0
  133.04654 137.0 1
  133.05664 53.0 0
  133.06755 133.0 1
  133.07864 126.0 1
  133.08392 112.0 1
  133.09515 63.0 1
  134.06924 74.0 1
  134.07874 30.0 0
  134.09741 17.0 0
  134.10265 59.0 1
  134.69525 23.0 0
  134.84496 43.0 0
  135.0602 26.0 0
  135.5325 19.0 0
  137.04227 26.0 0
  138.04556 20.0 0
  138.05698 165.0 2
  139.01842 24.0 0
  139.03801 522.0 5
  139.04916 34.0 0
  140.03947 42.0 0
  140.04987 129.0 1
  141.03802 20.0 0
  142.0645 2773.0 25
  142.69795 22.0 0
  142.74947 24.0 0
  143.05606 95.0 1
  143.06618 290.0 3
  143.53664 18.0 0
  143.81798 20.0 0
  144.04961 30.0 0
  144.06438 31.0 0
  144.08755 18.0 0
  144.88809 18.0 0
  144.97174 18.0 0
  145.05159 61.0 1
  145.06108 22.0 0
  145.06944 30.0 0
  145.09566 17.0 0
  145.48038 30.0 0
  145.63115 40.0 0
  146.02209 21.0 0
  146.0641 58.0 1
  146.54799 18.0 0
  147.03447 22.0 0
  147.04692 17.0 0
  147.06519 51.0 0
  148.10896 21.0 0
  148.99461 20.0 0
  149.03665 31.0 0
  149.04723 25.0 0
  149.06128 17.0 0
  149.06969 29.0 0
  150.0528 21.0 0
  150.09222 553.0 5
  150.42093 37.0 0
  151.05679 26.0 0
  151.06644 80.0 1
  151.08646 21.0 0
  151.09578 66.0 1
  152.04376 19.0 0
  152.09483 29.0 0
  152.37221 23.0 0
  153.20164 24.0 0
  158.02599 26.0 0
  158.05956 1558.0 14
  158.0654 580.0 5
  158.09271 19.0 0
  158.83459 22.0 0
  159.03688 41.0 0
  159.05165 68.0 1
  159.06625 528.0 5
  159.09222 111.0 1
  159.45139 28.0 0
  159.6971 19.0 0
  159.96614 23.0 0
  160.01802 26.0 0
  160.02718 89.0 1
  160.04056 110.0 1
  160.04922 82.0 1
  160.07559 19137.0 174
  160.11084 170.0 2
  160.16043 27.0 0
  160.43219 19.0 0
  160.63753 23.0 0
  161.00563 34.0 0
  161.015 26.0 0
  161.0582 141.0 1
  161.07823 2633.0 24
  161.47154 18.0 0
  161.81345 21.0 0
  162.06137 18.0 0
  162.08527 88.0 1
  162.25108 18.0 0
  163.08385 31.0 0
  164.06493 82.0 1
  164.37808 23.0 0
  166.06786 51.0 0
  166.18616 20.0 0
  166.7977 20.0 0
  167.0567 21.0 0
  167.07268 30.0 0
  168.06331 35.0 0
  168.07372 60.0 1
  168.45584 44.0 0
  168.80821 29.0 0
  169.07172 46.0 0
  169.79112 18.0 0
  170.06136 25.0 0
  170.07532 61.0 1
  170.09586 21.0 0
  171.06883 19.0 0
  171.10123 23.0 0
  172.07106 76.0 1
  172.53224 18.0 0
  173.06699 69.0 1
  173.07495 56.0 1
  173.10333 39.0 0
  173.11165 67.0 1
  174.07982 38.0 0
  176.09621 26.0 0
  176.27435 24.0 0
  177.07997 33.0 0
  177.70572 18.0 0
  178.0542 34.0 0
  178.08635 2462.0 22
  178.69975 35.0 0
  179.04254 36.0 0
  179.09128 288.0 3
  179.54286 17.0 0
  180.07491 21.0 0
  181.06808 30.0 0
  181.07872 30.0 0
  181.08719 20.0 0
  182.06171 24.0 0
  182.26443 23.0 0
  182.4593 36.0 0
  183.05858 33.0 0
  183.08932 82.0 1
  183.11784 20.0 0
  184.07495 91.0 1
  184.10178 22.0 0
  185.03629 36.0 0
  185.0692 318.0 3
  186.06683 36.0 0
  186.07602 60.0 1
  186.09406 39.0 0
  186.99266 30.0 0
  187.05252 60.0 1
  187.06364 75.0 1
  187.08575 5798.0 53
  188.07278 50.0 0
  188.09047 533.0 5
  189.08215 32.0 0
  189.09537 83.0 1
  189.10623 36.0 0
  189.214 33.0 0
  189.78638 18.0 0
  190.17409 18.0 0
  193.06258 32.0 0
  194.06367 33.0 0
  194.09698 30.0 0
  194.96922 20.0 0
  195.06783 25.0 0
  195.07942 28.0 0
  196.09744 28.0 0
  196.22983 18.0 0
  197.06779 18.0 0
  197.08868 18.0 0
  197.21147 31.0 0
  197.65289 36.0 0
  197.85564 21.0 0
  198.07465 19.0 0
  198.08582 38.0 0
  198.09471 19.0 0
  198.76581 37.0 0
  199.04546 18.0 0
  199.06659 46.0 0
  199.082 171.0 2
  199.09203 54.0 0
  199.10106 20.0 0
  200.08986 27.0 0
  201.03964 23.0 0
  201.10185 2941.0 27
  201.21783 29.0 0
  201.9117 25.0 0
  202.08118 27.0 0
  202.10133 359.0 3
  202.11502 53.0 0
  203.12297 21.0 0
  205.08612 24.0 0
  205.58315 17.0 0
  206.07364 40.0 0
  207.91299 25.0 0
  208.0737 32.0 0
  208.08661 45.0 0
  208.09639 20.0 0
  209.04816 28.0 0
  209.06476 18.0 0
  209.09819 17.0 0
  209.57445 20.0 0
  210.07372 52.0 0
  210.0901 44.0 0
  210.11215 605.0 6
  210.61278 17.0 0
  211.06299 28.0 0
  211.07651 25.0 0
  211.10136 59.0 1
  211.1165 85.0 1
  212.06743 66.0 1
  212.1122 36.0 0
  213.10495 349.0 3
  213.15959 17.0 0
  213.71143 25.0 0
  214.11041 72.0 1
  214.12097 66.0 1
  214.13074 71.0 1
  215.07857 17.0 0
  215.08908 25.0 0
  215.10426 20.0 0
  215.12076 49.0 0
  215.92664 18.0 0
  217.724 23.0 0
  218.1716 35.0 0
  218.95847 27.0 0
  219.08727 33.0 0
  219.78709 20.0 0
  220.05882 25.0 0
  220.09428 18.0 0
  221.02551 28.0 0
  221.08672 21.0 0
  221.46053 17.0 0
  221.55022 20.0 0
  221.6768 23.0 0
  221.88692 57.0 1
  221.99312 23.0 0
  222.09407 17.0 0
  222.11073 70.0 1
  222.53349 34.0 0
  222.71597 29.0 0
  223.04657 27.0 0
  223.09442 42.0 0
  223.60745 43.0 0
  224.05371 26.0 0
  224.08858 33.0 0
  224.64175 20.0 0
  224.68692 23.0 0
  224.85551 21.0 0
  225.86307 18.0 0
  226.06693 17.0 0
  226.08209 52.0 0
  226.88808 31.0 0
  227.11337 18.0 0
  228.07114 17.0 0
  228.80069 59.0 1
  229.09845 23.0 0
  230.13443 55.0 1
  230.67145 27.0 0
  231.76006 17.0 0
  232.121 36.0 0
  232.77367 24.0 0
  233.82156 27.0 0
  234.07246 25.0 0
  234.1039 32.0 0
  235.0555 51.0 0
  235.07005 18.0 0
  236.02885 39.0 0
  236.06499 46.0 0
  237.06111 24.0 0
  237.07155 67.0 1
  237.09247 17.0 0
  237.10831 65.0 1
  237.13026 17.0 0
  238.0423 23.0 0
  238.05696 67.0 1
  238.09221 22.0 0
  238.11732 76.0 1
  238.57228 19.0 0
  239.10333 43.0 0
  239.11995 180.0 2
  240.06999 17.0 0
  240.25046 24.0 0
  240.34567 19.0 0
  241.09669 41.0 0
  241.10786 91.0 1
  241.13295 1272.0 12
  241.69193 45.0 0
  242.08731 73.0 1
  242.09909 18.0 0
  242.13559 279.0 3
  243.27956 22.0 0
  243.5123 25.0 0
  244.0289 50.0 0
  244.83501 35.0 0
  247.03802 30.0 0
  247.38911 27.0 0
  247.414 42.0 0
  248.11627 28.0 0
  248.12915 30.0 0
  248.17393 21.0 0
  248.20352 27.0 0
  249.10988 44.0 0
  249.13652 18.0 0
  249.14632 28.0 0
  249.50778 22.0 0
  249.66566 21.0 0
  251.13184 39.0 0
  251.95045 27.0 0
  252.47656 34.0 0
  252.597 17.0 0
  253.06639 18.0 0
  253.08704 41.0 0
  253.1037 18.0 0
  253.13393 20.0 0
  254.09648 29.0 0
  255.13963 31.0 0
  255.5199 31.0 0
  255.91222 17.0 0
  255.94933 25.0 0
  256.07227 17.0 0
  256.72467 23.0 0
  256.77484 30.0 0
  258.35968 22.0 0
  260.07529 21.0 0
  261.08392 34.0 0
  261.11948 24.0 0
  262.18924 19.0 0
  263.08755 109.0 1
  264.07782 19.0 0
  264.62759 21.0 0
  264.99792 32.0 0
  265.06146 57.0 1
  265.07156 68.0 1
  265.09827 685.0 6
  265.12021 52.0 0
  265.14081 25.0 0
  266.08853 93.0 1
  266.10004 103.0 1
  266.11481 72.0 1
  266.13358 24.0 0
  267.06369 60.0 1
  267.108 126.0 1
  267.14572 476.0 4
  267.15961 160.0 1
  267.17102 55.0 1
  267.58804 22.0 0
  268.11664 49.0 0
  268.15198 78.0 1
  268.16702 17.0 0
  268.40146 19.0 0
  269.08774 82.0 1
  269.10123 86.0 1
  269.14609 19.0 0
  270.0853 20.0 0
  272.52597 25.0 0
  272.59485 25.0 0
  274.13818 26.0 0
  276.12317 23.0 0
  277.10843 24.0 0
  277.40018 31.0 0
  279.07071 269.0 2
  279.08472 154.0 1
  280.05753 20.0 0
  280.07086 17.0 0
  280.08536 37.0 0
  280.12927 20.0 0
  280.66595 25.0 0
  280.8111 17.0 0
  281.06503 49.0 0
  281.09052 1671.0 15
  281.16928 43.0 0
  281.18192 43.0 0
  281.19205 24.0 0
  281.86853 17.0 0
  282.06894 25.0 0
  282.09656 669.0 6
  282.16821 124.0 1
  283.09464 274.0 2
  283.10849 1020.0 9
  283.64386 51.0 0
  284.10645 98.0 1
  284.12079 116.0 1
  284.13428 27.0 0
  285.11786 22.0 0
  287.05667 30.0 0
  289.01648 47.0 0
  289.3653 17.0 0
  290.53009 18.0 0
  291.12924 21.0 0
  291.14868 230.0 2
  292.07883 21.0 0
  292.15445 65.0 1
  293.02826 31.0 0
  293.12341 20.0 0
  293.13593 40.0 0
  294.1286 23.0 0
  295.06842 33.0 0
  295.1062 507.0 5
  295.15125 17.0 0
  296.10818 51.0 0
  296.1235 42.0 0
  297.08694 36.0 0
  297.12042 180.0 2
  298.11862 72.0 1
  298.1362 35.0 0
  298.68408 17.0 0
  299.28305 28.0 0
  301.90381 17.0 0
  302.49472 30.0 0
  303.14951 21.0 0
  307.26758 23.0 0
  308.09229 35.0 0
  308.73923 18.0 0
  309.09976 22.0 0
  309.11392 19.0 0
  309.13013 44.0 0
  309.15973 1830.0 17
  310.11868 33.0 0
  310.13892 20.0 0
  310.15335 91.0 1
  310.17215 370.0 3
  310.45755 42.0 0
  311.13571 17.0 0
  311.15924 41.0 0
  311.97635 21.0 0
  312.45432 26.0 0
  313.10559 20.0 0
  313.12369 61.0 1
  314.01996 18.0 0
  314.51193 20.0 0
  315.50018 22.0 0
  315.54266 18.0 0
  315.84558 65.0 1
  316.35818 20.0 0
  316.41306 17.0 0
  316.67154 23.0 0
  317.79755 17.0 0
  319.14542 84.0 1
  320.11813 52.0 0
  320.16272 62.0 1
  321.15887 17.0 0
  321.66583 47.0 0
  323.01794 18.0 0
  323.06161 28.0 0
  325.06897 17.0 0
  326.69861 18.0 0
  327.07318 20.0 0
  327.59845 43.0 0
  331.26755 49.0 0
  333.41867 23.0 0
  333.89621 18.0 0
  335.0126 21.0 0
  335.14331 34.0 0
  335.92044 18.0 0
  336.11041 25.0 0
  336.17444 19.0 0
  336.366 17.0 0
  337.03787 48.0 0
  337.09357 61.0 1
  337.11392 107.0 1
  337.15482 4586.0 42
  337.22977 17.0 0
  337.27109 20.0 0
  337.57205 31.0 0
  337.65546 18.0 0
  337.93085 26.0 0
  337.96268 17.0 0
  338.06039 24.0 0
  338.1152 37.0 0
  338.16061 1562.0 14
  338.21729 18.0 0
  338.25861 35.0 0
  338.29904 25.0 0
  339.10849 22.0 0
  339.13464 43.0 0
  339.15628 23.0 0
  339.16861 56.0 1
  339.72382 33.0 0
  340.16669 88.0 1
  341.16943 20.0 0
  341.19357 31.0 0
  343.15018 27.0 0
  345.66504 20.0 0
  346.50165 41.0 0
  348.07346 24.0 0
  348.18024 22.0 0
  348.92612 27.0 0
  353.65784 20.0 0
  358.34283 20.0 0
  359.47934 25.0 0
  359.95071 53.0 0
  361.10901 22.0 0
  361.65637 33.0 0
  362.14584 18.0 0
  362.9816 18.0 0
  363.47519 41.0 0
  364.92462 17.0 0
  365.47076 25.0 0
  365.98474 34.0 0
  367.12857 25.0 0
  367.16284 208.0 2
  367.17648 117.0 1
  367.31296 17.0 0
  367.47699 18.0 0
  368.17352 108.0 1
  368.29758 23.0 0
  368.34857 20.0 0
  368.40607 30.0 0
  368.51843 37.0 0
  368.64661 33.0 0
  368.68329 19.0 0
  368.81656 20.0 0
  368.90674 26.0 0
  368.92273 17.0 0
  369.03751 41.0 0
  369.05072 55.0 1
  369.07376 59.0 1
  369.10214 298.0 3
  369.11929 659.0 6
  369.14011 102.0 1
  369.18243 109766.0 999
  369.23843 3284.0 30
  369.28802 517.0 5
  369.34552 37.0 0
//
