ACCESSION: MSBNK-RIKEN-PR306505
RECORD_TITLE: Apigenin-6-C-glucoside-7-O-glucoside; LC-ESI-QTOF; MS2
DATE: 2019.03.28
AUTHORS: Tetsuya Mori, Center for Sustainable Resource Science, RIKEN
LICENSE: CC BY-NC-SA
PUBLICATION: Tsugawa H., Nakabayashi R., Mori T., Yamada Y., Takahashi M., Rai A., Sugiyama R., Yamamoto H., Nakaya T., Yamazaki M., Kooke R., Bac-Molenaar JA., Oztolan-Erol N., Keurentjes JJB., Arita M., Saito K. (2019) "A cheminformatics approach to characterize metabolomes in stable-isotope-labeled organisms" Nature Methods 16(4):295-298. [doi:10.1038/s41592-019-0358-2]
COMMENT: registered in RIKEN PlaSMA
CH$NAME: Apigenin-6-C-glucoside-7-O-glucoside
CH$COMPOUND_CLASS: Flavonoid-7-O-glycosides
CH$FORMULA: C27H30O15
CH$EXACT_MASS: 594.522
CH$SMILES: OCC1OC(OC2=C(C3OC(CO)C(O)C(O)C3O)C(O)=C3C(=O)C=C(OC3=C2)C2=CC=C(O)C=C2)C(O)C(O)C1O
CH$IUPAC: InChI=1S/C27H30O15/c28-7-15-19(32)22(35)24(37)26(40-15)18-14(41-27-25(38)23(36)20(33)16(8-29)42-27)6-13-17(21(18)34)11(31)5-12(39-13)9-1-3-10(30)4-2-9/h1-6,15-16,19-20,22-30,32-38H,7-8H2
CH$LINK: INCHIKEY HGUVPEBGCAVWID-UHFFFAOYSA-N
AC$INSTRUMENT: LC, Waters Acquity UPLC System; MS, Waters Xevo G2 Q-Tof
AC$INSTRUMENT_TYPE: LC-ESI-QTOF
AC$MASS_SPECTROMETRY: MS_TYPE MS2
AC$MASS_SPECTROMETRY: ION_MODE NEGATIVE
AC$MASS_SPECTROMETRY: COLLISION_ENERGY 6V
AC$MASS_SPECTROMETRY: DESOLVATION_GAS_FLOW 800/h
AC$MASS_SPECTROMETRY: DESOLVATION_TEMPERATURE 450 C
AC$MASS_SPECTROMETRY: IONIZATION ESI
AC$CHROMATOGRAPHY: CAPILLARY_VOLTAGE -2.75 kV
AC$CHROMATOGRAPHY: COLUMN_NAME Acquity bridged ethyl hybrid C18 (1.7 um, 2.1 mm * 100 mm, Waters)
AC$CHROMATOGRAPHY: COLUMN_TEMPERATURE 40 C
AC$CHROMATOGRAPHY: FLOW_GRADIENT A/B = (99.5%/0.5% at 0 min, 99.5%/0.5% at 0.1 min, 20%/80% at 10 min, 0.5%/99.5% at 10.1 min, 0.5%/99.5% at 12.0 min, 99.5%/0.5% at 12.1 min, 99.5%/0.5% at 15.0 min)
AC$CHROMATOGRAPHY: FLOW_RATE 0.3 ml/min at 0 min, 0.3 ml/min at 10 min, 0.4 ml/min at 10.1 min, 0.4 ml/min at 14.4 min, 0.3 ml/min at 14.5 min
AC$CHROMATOGRAPHY: RETENTION_TIME 3.531483
AC$CHROMATOGRAPHY: SOLVENT A water including 0.1% formic acid
AC$CHROMATOGRAPHY: SOLVENT B acetonitrile including 0.1% formic acid
MS$FOCUSED_ION: PRECURSOR_TYPE [M-H]-
MS$FOCUSED_ION: PRECURSOR_M/Z 593.15119384783
PK$SPLASH: splash10-001j-0291000000-d924e2fbd3028bbab197
PK$NUM_PEAK: 164
PK$PEAK: m/z int. rel.int.
  68.99693 8.0 8
  77.04267 7.0 7
  92.02505 23.0 23
  93.03156 17.0 17
  93.03718 8.0 8
  99.0077 9.0 9
  105.03329 13.0 13
  117.03297 53.0 53
  117.90029 5.0 5
  118.03576 7.0 7
  119.04824 12.0 12
  121.02721 37.0 37
  124.72482 8.0 8
  134.04108 14.0 14
  135.04529 6.0 6
  137.27969 8.0 8
  145.02415 6.0 6
  148.04854 8.0 8
  149.0195 21.0 21
  149.03015 6.0 6
  151.00348 20.0 20
  152.03775 7.0 7
  155.16602 9.0 9
  156.05273 6.0 6
  156.58307 7.0 7
  157.02768 9.0 9
  159.03792 12.0 12
  159.0479 6.0 6
  161.02267 103.0 103
  162.01971 9.0 9
  163.00113 35.0 35
  163.03717 91.0 91
  164.0047 7.0 7
  165.02461 16.0 16
  167.04024 8.0 8
  168.01567 7.0 7
  170.07277 8.0 8
  173.02013 7.0 7
  174.99312 5.0 5
  175.00388 41.0 41
  177.01639 67.0 67
  178.02408 6.0 6
  178.99536 61.0 61
  179.0265 24.0 24
  179.05133 8.0 8
  181.06416 5.0 5
  182.0329 17.0 17
  183.0451 24.0 24
  183.08052 10.0 10
  184.03928 6.0 6
  185.01651 15.0 15
  185.05521 7.0 7
  186.02397 11.0 11
  186.07103 11.0 11
  189.01431 19.0 19
  190.022 21.0 21
  191.03127 6.0 6
  191.03783 9.0 9
  191.76927 6.0 6
  192.03542 5.0 5
  193.01033 6.0 6
  193.02046 13.0 13
  194.07666 9.0 9
  195.04219 8.0 8
  196.05428 21.0 21
  198.33815 6.0 6
  200.05443 7.0 7
  201.05257 6.0 6
  203.03365 12.0 12
  203.04102 13.0 13
  208.16692 7.0 7
  209.05934 14.0 14
  211.06871 22.0 22
  212.04416 8.0 8
  213.04674 6.0 6
  214.0887 7.0 7
  215.02319 6.0 6
  215.06494 12.0 12
  217.01698 6.0 6
  221.0528 11.0 11
  224.0596 15.0 15
  225.05414 10.0 10
  225.0659 20.0 20
  226.05991 13.0 13
  227.03946 6.0 6
  229.00912 9.0 9
  229.05077 6.0 6
  238.05939 6.0 6
  239.03345 7.0 7
  239.06631 30.0 30
  241.04671 5.0 5
  241.05855 8.0 8
  243.06143 8.0 8
  245.03749 9.0 9
  251.02309 9.0 9
  253.05046 38.0 38
  254.04904 20.0 20
  254.06314 24.0 24
  266.01462 6.0 6
  266.05444 9.0 9
  266.06308 9.0 9
  267.06772 9.0 9
  267.09702 5.0 5
  268.03186 87.0 87
  269.04337 207.0 207
  270.04376 26.0 26
  270.05594 7.0 7
  273.69998 9.0 9
  278.50772 6.0 6
  281.04349 200.0 200
  282.05164 516.0 515
  283.05878 1000.0 999
  284.06323 156.0 156
  284.11182 7.0 7
  285.06183 27.0 27
  285.1011 5.0 5
  286.06259 7.0 7
  286.0762 7.0 7
  292.26901 7.0 7
  293.04706 89.0 89
  294.04373 6.0 6
  295.02493 232.0 232
  295.052 24.0 24
  295.06812 32.0 32
  296.01535 19.0 19
  296.03033 35.0 35
  296.0621 21.0 21
  296.96844 11.0 11
  297.03857 828.0 827
  297.06799 7.0 7
  298.03311 46.0 46
  298.04324 158.0 158
  298.07672 5.0 5
  298.42407 6.0 6
  299.03769 13.0 13
  305.05936 9.0 9
  306.05896 9.0 9
  307.05362 9.0 9
  307.06635 10.0 10
  308.05209 6.0 6
  308.07101 7.0 7
  309.03705 47.0 47
  309.04608 15.0 15
  310.04263 33.0 33
  311.052 329.0 329
  312.0582 44.0 44
  313.04813 8.0 8
  319.03909 12.0 12
  319.33569 11.0 11
  321.03497 13.0 13
  321.05362 5.0 5
  323.05182 72.0 72
  324.06458 7.0 7
  325.07001 7.0 7
  325.08481 10.0 10
  327.06351 17.0 17
  339.05048 5.0 5
  341.05515 13.0 13
  342.06815 6.0 6
  347.05316 12.0 12
  359.99582 7.0 7
  369.06516 8.0 8
  460.28027 8.0 8
  549.4931 5.0 5
//
