ACCESSION: MSBNK-RIKEN-PR303451
RECORD_TITLE: NP-000286(7); LC-ESI-QTOF; MS2
DATE: 2019.03.28
AUTHORS: Tetsuya Mori, Center for Sustainable Resource Science, RIKEN
LICENSE: CC BY-NC-SA
PUBLICATION: Tsugawa H., Nakabayashi R., Mori T., Yamada Y., Takahashi M., Rai A., Sugiyama R., Yamamoto H., Nakaya T., Yamazaki M., Kooke R., Bac-Molenaar JA., Oztolan-Erol N., Keurentjes JJB., Arita M., Saito K. (2019) "A cheminformatics approach to characterize metabolomes in stable-isotope-labeled organisms" Nature Methods 16(4):295-298. [doi:10.1038/s41592-019-0358-2]
COMMENT: registered in RIKEN PlaSMA
CH$NAME: NP-000286(7)
CH$COMPOUND_CLASS: Flavonoid C-glycosides
CH$FORMULA: C21H20O11
CH$EXACT_MASS: 448.38
CH$SMILES: OC[C@H]1O[C@H]([C@H](O)[C@@H](O)[C@@H]1O)C1=C(O)C2=C(OC(=CC2=O)C2=CC(O)=C(O)C=C2)C=C1O
CH$IUPAC: InChI=1S/C21H20O11/c22-6-14-17(27)19(29)20(30)21(32-14)16-11(26)5-13-15(18(16)28)10(25)4-12(31-13)7-1-2-8(23)9(24)3-7/h1-5,14,17,19-24,26-30H,6H2/t14-,17-,19+,20-,21+/m1/s1
CH$LINK: INCHIKEY ODBRNZZJSYPIDI-VJXVFPJBSA-N
AC$INSTRUMENT: LC, Waters Acquity UPLC System; MS, Waters Xevo G2 Q-Tof
AC$INSTRUMENT_TYPE: LC-ESI-QTOF
AC$MASS_SPECTROMETRY: MS_TYPE MS2
AC$MASS_SPECTROMETRY: ION_MODE POSITIVE
AC$MASS_SPECTROMETRY: COLLISION_ENERGY 6V
AC$MASS_SPECTROMETRY: DESOLVATION_GAS_FLOW 800/h
AC$MASS_SPECTROMETRY: DESOLVATION_TEMPERATURE 450 C
AC$MASS_SPECTROMETRY: IONIZATION ESI
AC$CHROMATOGRAPHY: CAPILLARY_VOLTAGE +3.00 kV
AC$CHROMATOGRAPHY: COLUMN_NAME Acquity bridged ethyl hybrid C18 (1.7 um, 2.1 mm * 100 mm, Waters)
AC$CHROMATOGRAPHY: COLUMN_TEMPERATURE 40 C
AC$CHROMATOGRAPHY: FLOW_GRADIENT A/B = (99.5%/0.5% at 0 min, 99.5%/0.5% at 0.1 min, 20%/80% at 10 min, 0.5%/99.5% at 10.1 min, 0.5%/99.5% at 12.0 min, 99.5%/0.5% at 12.1 min, 99.5%/0.5% at 15.0 min)
AC$CHROMATOGRAPHY: FLOW_RATE 0.3 ml/min at 0 min, 0.3 ml/min at 10 min, 0.4 ml/min at 10.1 min, 0.4 ml/min at 14.4 min, 0.3 ml/min at 14.5 min
AC$CHROMATOGRAPHY: RETENTION_TIME 3.589417
AC$CHROMATOGRAPHY: SOLVENT A water including 0.1% formic acid
AC$CHROMATOGRAPHY: SOLVENT B acetonitrile including 0.1% formic acid
MS$FOCUSED_ION: PRECURSOR_TYPE [M+H]+
MS$FOCUSED_ION: PRECURSOR_M/Z 449.1078379
PK$SPLASH: splash10-0f6t-0029300000-430a10d7c69b36f90215
PK$NUM_PEAK: 183
PK$PEAK: m/z int. rel.int.
  57.0354 15.0 15
  85.02872 22.0 22
  131.05391 10.0 10
  137.03072 10.0 10
  147.04082 16.0 16
  150.03416 17.0 17
  164.04973 9.0 9
  165.01299 19.0 19
  165.0249 11.0 11
  168.02515 18.0 18
  177.02151 18.0 18
  178.0179 16.0 16
  182.44484 10.0 10
  185.16022 21.0 21
  188.05099 15.0 15
  191.00093 14.0 14
  203.02722 11.0 11
  204.05186 14.0 14
  212.03569 13.0 13
  215.02635 15.0 15
  216.03477 16.0 16
  220.03487 9.0 9
  222.04366 9.0 9
  245.03587 11.0 11
  258.06433 10.0 10
  258.91794 13.0 13
  263.03204 11.0 11
  265.14484 15.0 15
  269.04419 13.0 13
  269.06354 11.0 11
  270.05859 27.0 27
  270.09393 12.0 12
  271.0556 22.0 22
  271.15146 9.0 9
  280.0726 9.0 9
  283.00366 12.0 12
  283.05508 25.0 25
  283.07056 48.0 48
  284.06073 11.0 11
  286.04636 14.0 14
  287.02466 19.0 19
  287.05099 36.0 36
  287.61365 9.0 9
  288.05099 24.0 24
  288.06458 28.0 28
  290.81253 9.0 9
  291.57373 18.0 18
  292.68936 10.0 10
  295.06573 35.0 35
  296.06671 13.0 13
  297.0676 86.0 86
  297.08627 48.0 48
  298.05219 23.0 23
  298.08264 22.0 22
  299.05441 947.0 946
  299.08231 22.0 22
  300.05142 190.0 190
  300.0621 428.0 428
  300.11874 10.0 10
  301.06125 132.0 132
  301.465 9.0 9
  302.08331 9.0 9
  309.06558 9.0 9
  311.06363 20.0 20
  311.08676 11.0 11
  312.05707 78.0 78
  313.07605 27.0 27
  313.09589 9.0 9
  316.01373 9.0 9
  316.05612 11.0 11
  321.07712 12.0 12
  323.05804 12.0 12
  323.5914 10.0 10
  323.90091 15.0 15
  324.02881 11.0 11
  324.06158 32.0 32
  325.03986 21.0 21
  325.05331 67.0 67
  325.0694 145.0 145
  326.06039 19.0 19
  326.07693 111.0 111
  326.09567 12.0 12
  327.02789 19.0 19
  327.04468 21.0 21
  327.05472 19.0 19
  327.0719 11.0 11
  327.08279 10.0 10
  327.30914 17.0 17
  329.02631 9.0 9
  329.06607 623.0 622
  330.07388 335.0 335
  330.24298 9.0 9
  330.94324 9.0 9
  331.0437 14.0 14
  331.06207 23.0 23
  331.08044 43.0 43
  332.07263 30.0 30
  336.17712 10.0 10
  337.04395 13.0 13
  337.06653 59.0 59
  339.00516 12.0 12
  339.0564 12.0 12
  339.07843 31.0 31
  339.09601 124.0 124
  340.0575 21.0 21
  340.09048 29.0 29
  340.11218 9.0 9
  341.08551 13.0 13
  341.10489 26.0 26
  342.09238 9.0 9
  342.80441 15.0 15
  346.42651 29.0 29
  349.05698 22.0 22
  349.08371 9.0 9
  351.03143 9.0 9
  351.05435 12.0 12
  352.05231 14.0 14
  352.07285 13.0 13
  353.06094 316.0 316
  353.09937 23.0 23
  354.02136 17.0 17
  354.04498 15.0 15
  354.06003 53.0 53
  354.07275 180.0 180
  354.08328 94.0 94
  355.0744 23.0 23
  356.02835 14.0 14
  359.00421 9.0 9
  364.05951 9.0 9
  365.0607 107.0 107
  365.07526 26.0 26
  366.04849 12.0 12
  366.07669 86.0 86
  367.06235 34.0 34
  367.09024 10.0 10
  368.03336 11.0 11
  368.09106 11.0 11
  370.05856 10.0 10
  377.02496 18.0 18
  377.05823 92.0 92
  377.08246 15.0 15
  377.4501 14.0 14
  378.04251 11.0 11
  378.07361 95.0 95
  379.05771 16.0 16
  383.04904 9.0 9
  383.07684 169.0 169
  383.90161 14.0 14
  384.07538 130.0 130
  384.1022 11.0 11
  385.08173 63.0 63
  385.11322 9.0 9
  386.0773 16.0 16
  388.98898 9.0 9
  395.0571 46.0 46
  395.07748 217.0 217
  396.05991 9.0 9
  396.08142 100.0 100
  397.08304 50.0 50
  413.06137 24.0 24
  413.08505 125.0 125
  413.11023 34.0 34
  414.08398 54.0 54
  414.50595 19.0 19
  415.08817 49.0 49
  426.74249 11.0 11
  430.08917 9.0 9
  431.09006 404.0 404
  431.19437 10.0 10
  432.06934 39.0 39
  432.09039 59.0 59
  432.10834 35.0 35
  432.12759 10.0 10
  433.10086 33.0 33
  433.12332 14.0 14
  433.36096 16.0 16
  434.13336 14.0 14
  446.90115 10.0 10
  447.37903 10.0 10
  448.09067 32.0 32
  448.12653 15.0 15
  449.07718 48.0 48
  449.10666 1000.0 999
//
