ACCESSION: MSBNK-RIKEN-PR305648
RECORD_TITLE: Quercetin-3-O-rhamnoside; LC-ESI-QTOF; MS2
DATE: 2019.03.28
AUTHORS: Tetsuya Mori, Center for Sustainable Resource Science, RIKEN
LICENSE: CC BY-NC-SA
PUBLICATION: Tsugawa H., Nakabayashi R., Mori T., Yamada Y., Takahashi M., Rai A., Sugiyama R., Yamamoto H., Nakaya T., Yamazaki M., Kooke R., Bac-Molenaar JA., Oztolan-Erol N., Keurentjes JJB., Arita M., Saito K. (2019) "A cheminformatics approach to characterize metabolomes in stable-isotope-labeled organisms" Nature Methods 16(4):295-298. [doi:10.1038/s41592-019-0358-2]
COMMENT: registered in RIKEN PlaSMA
CH$NAME: Quercetin-3-O-rhamnoside
CH$COMPOUND_CLASS: Flavonoid-3-O-glycosides
CH$FORMULA: C21H20O11
CH$EXACT_MASS: 448.38
CH$SMILES: CC1OC(OC2=C(OC3=CC(O)=CC(O)=C3C2=O)C2=CC(O)=C(O)C=C2)C(O)C(O)C1O
CH$IUPAC: InChI=1S/C21H20O11/c1-7-15(26)17(28)18(29)21(30-7)32-20-16(27)14-12(25)5-9(22)6-13(14)31-19(20)8-2-3-10(23)11(24)4-8/h2-7,15,17-18,21-26,28-29H,1H3
CH$LINK: INCHIKEY OXGUCUVFOIWWQJ-UHFFFAOYSA-N
AC$INSTRUMENT: LC, Waters Acquity UPLC System; MS, Waters Xevo G2 Q-Tof
AC$INSTRUMENT_TYPE: LC-ESI-QTOF
AC$MASS_SPECTROMETRY: MS_TYPE MS2
AC$MASS_SPECTROMETRY: ION_MODE NEGATIVE
AC$MASS_SPECTROMETRY: COLLISION_ENERGY 6V
AC$MASS_SPECTROMETRY: DESOLVATION_GAS_FLOW 800/h
AC$MASS_SPECTROMETRY: DESOLVATION_TEMPERATURE 450 C
AC$MASS_SPECTROMETRY: IONIZATION ESI
AC$CHROMATOGRAPHY: CAPILLARY_VOLTAGE -2.75 kV
AC$CHROMATOGRAPHY: COLUMN_NAME Acquity bridged ethyl hybrid C18 (1.7 um, 2.1 mm * 100 mm, Waters)
AC$CHROMATOGRAPHY: COLUMN_TEMPERATURE 40 C
AC$CHROMATOGRAPHY: FLOW_GRADIENT A/B = (99.5%/0.5% at 0 min, 99.5%/0.5% at 0.1 min, 20%/80% at 10 min, 0.5%/99.5% at 10.1 min, 0.5%/99.5% at 12.0 min, 99.5%/0.5% at 12.1 min, 99.5%/0.5% at 15.0 min)
AC$CHROMATOGRAPHY: FLOW_RATE 0.3 ml/min at 0 min, 0.3 ml/min at 10 min, 0.4 ml/min at 10.1 min, 0.4 ml/min at 14.4 min, 0.3 ml/min at 14.5 min
AC$CHROMATOGRAPHY: RETENTION_TIME 4.3614
AC$CHROMATOGRAPHY: SOLVENT A water including 0.1% formic acid
AC$CHROMATOGRAPHY: SOLVENT B acetonitrile including 0.1% formic acid
MS$FOCUSED_ION: PRECURSOR_TYPE [M-H]-
MS$FOCUSED_ION: PRECURSOR_M/Z 447.09328504783
PK$SPLASH: splash10-00di-0590000000-ad7ae2a079c831e1e02c
PK$NUM_PEAK: 191
PK$PEAK: m/z int. rel.int.
  59.38136 8.0 8
  64.0274 8.0 8
  65.0016 9.0 9
  65.03636 7.0 7
  69.62717 9.0 9
  79.02103 7.0 7
  83.01108 35.0 35
  92.0256 6.0 6
  93.0341 21.0 21
  94.00651 13.0 13
  95.01343 15.0 15
  96.01912 18.0 18
  107.00455 15.0 15
  107.01165 70.0 70
  107.01931 7.0 7
  108.00982 31.0 31
  108.01894 66.0 66
  108.02524 45.0 45
  109.02849 70.0 70
  112.00712 6.0 6
  114.04433 11.0 11
  119.01281 19.0 19
  120.01776 30.0 30
  120.02506 7.0 7
  121.02616 61.0 61
  122.65376 6.0 6
  124.00972 10.0 10
  127.0553 9.0 9
  130.0466 12.0 12
  131.04874 9.0 9
  132.01797 6.0 6
  134.02907 9.0 9
  134.99931 10.0 10
  135.0079 55.0 55
  135.03859 8.0 8
  136.01375 30.0 30
  137.01903 9.0 9
  138.02487 6.0 6
  143.0435 14.0 14
  144.12451 12.0 12
  145.02838 26.0 26
  145.06783 7.0 7
  146.03751 8.0 8
  147.00313 23.0 23
  147.03352 6.0 6
  147.04166 27.0 27
  147.04691 9.0 9
  148.0139 142.0 142
  148.04652 10.0 10
  148.054 14.0 14
  149.02441 16.0 16
  150.03421 7.0 7
  151.00359 144.0 144
  152.00108 15.0 15
  152.01024 16.0 16
  153.0352 11.0 11
  154.03792 21.0 21
  155.04778 34.0 34
  157.02602 32.0 32
  157.05341 29.0 29
  157.06561 7.0 7
  159.03543 12.0 12
  159.04262 25.0 25
  161.0211 17.0 17
  163.00035 87.0 87
  163.03612 17.0 17
  164.00955 41.0 41
  165.01244 6.0 6
  167.0446 7.0 7
  168.0578 7.0 7
  169.03076 7.0 7
  170.03232 16.0 16
  171.04395 76.0 76
  172.00797 9.0 9
  172.01677 6.0 6
  172.04533 7.0 7
  172.59282 7.0 7
  173.02103 50.0 50
  173.03032 9.0 9
  173.05727 15.0 15
  173.06526 9.0 9
  174.0226 8.0 8
  174.06746 8.0 8
  175.03099 14.0 14
  175.03708 39.0 39
  176.04192 9.0 9
  177.04651 9.0 9
  177.05687 11.0 11
  179.00175 17.0 17
  182.03104 13.0 13
  183.04523 55.0 55
  183.06285 9.0 9
  184.04729 8.0 8
  185.01962 49.0 49
  185.03496 7.0 7
  185.05377 7.0 7
  187.02931 9.0 9
  187.03908 41.0 41
  187.04657 23.0 23
  188.04039 29.0 29
  188.95282 10.0 10
  189.04262 16.0 16
  189.05504 8.0 8
  190.99461 6.0 6
  191.03204 8.0 8
  193.02844 7.0 7
  197.01872 30.0 30
  198.02887 39.0 39
  198.05052 15.0 15
  199.03575 175.0 175
  200.01064 7.0 7
  200.0181 8.0 8
  200.03442 19.0 19
  200.05341 9.0 9
  200.86343 7.0 7
  201.00719 7.0 7
  201.02182 42.0 42
  201.05443 20.0 20
  202.0262 6.0 6
  202.03587 7.0 7
  203.03136 43.0 43
  203.03908 23.0 23
  204.02823 12.0 12
  204.03717 8.0 8
  204.0455 10.0 10
  209.01889 17.0 17
  210.03052 25.0 25
  210.03725 13.0 13
  211.03934 98.0 98
  211.51866 19.0 19
  212.04037 13.0 13
  213.01825 40.0 40
  213.02745 28.0 28
  213.03653 14.0 14
  214.02347 16.0 16
  214.18538 10.0 10
  214.55882 7.0 7
  215.02899 80.0 80
  215.04005 42.0 42
  215.91148 6.0 6
  216.03525 23.0 23
  216.04738 12.0 12
  217.05147 7.0 7
  226.0231 87.0 87
  226.03427 17.0 17
  227.03329 225.0 225
  227.16988 8.0 8
  228.00404 7.0 7
  228.03392 21.0 21
  228.52066 8.0 8
  228.94107 11.0 11
  228.9575 7.0 7
  229.00703 62.0 62
  229.04697 11.0 11
  230.04594 6.0 6
  231.02158 11.0 11
  235.04045 9.0 9
  237.4119 11.0 11
  241.01265 14.0 14
  242.01825 54.0 54
  242.03632 9.0 9
  242.50673 6.0 6
  243.02856 344.0 344
  243.0565 7.0 7
  243.07236 8.0 8
  244.02809 79.0 79
  244.04932 8.0 8
  244.60812 9.0 9
  245.02396 8.0 8
  245.041 66.0 66
  245.05635 18.0 18
  254.02971 6.0 6
  255.0284 413.0 413
  255.05275 17.0 17
  256.02289 23.0 23
  256.03207 33.0 33
  270.85788 7.0 7
  270.97723 9.0 9
  271.02396 1000.0 999
  272.02805 120.0 120
  273.02444 44.0 44
  283.01852 7.0 7
  283.57898 8.0 8
  284.02176 9.0 9
  285.03885 7.0 7
  299.00745 13.0 13
  299.02402 14.0 14
  300.02396 7.0 7
  315.82782 13.0 13
  366.90408 7.0 7
  427.59781 8.0 8
//
