ACCESSION: MSBNK-RIKEN-PR300290
RECORD_TITLE: 5(S)-5-carboxystrictosidine; LC-ESI-QTOF; MS2
DATE: 2019.03.28
AUTHORS: Tetsuya Mori, Center for Sustainable Resource Science, RIKEN
LICENSE: CC BY-NC-SA
PUBLICATION: Tsugawa H., Nakabayashi R., Mori T., Yamada Y., Takahashi M., Rai A., Sugiyama R., Yamamoto H., Nakaya T., Yamazaki M., Kooke R., Bac-Molenaar JA., Oztolan-Erol N., Keurentjes JJB., Arita M., Saito K. (2019) "A cheminformatics approach to characterize metabolomes in stable-isotope-labeled organisms" Nature Methods 16(4):295-298. [doi:10.1038/s41592-019-0358-2]
COMMENT: registered in RIKEN PlaSMA
CH$NAME: 5(S)-5-carboxystrictosidine
CH$COMPOUND_CLASS: Terpene glycosides
CH$FORMULA: C28H34N2O11
CH$EXACT_MASS: 574.583
CH$SMILES: COC(=O)C1=CO[C@@H](O[C@@H]2O[C@H](CO)[C@@H](O)[C@H](O)[C@H]2O)[C@H](C=C)[C@@H]1C[C@@H]1N[C@@H](CC2=C1NC1=CC=CC=C21)C(O)=O
CH$IUPAC: InChI=1S/C28H34N2O11/c1-3-12-14(8-18-21-15(9-19(29-18)25(35)36)13-6-4-5-7-17(13)30-21)16(26(37)38-2)11-39-27(12)41-28-24(34)23(33)22(32)20(10-31)40-28/h3-7,11-12,14,18-20,22-24,27-34H,1,8-10H2,2H3,(H,35,36)/t12-,14+,18+,19+,20-,22-,23+,24-,27+,28+/m1/s1
CH$LINK: INCHIKEY LHKZIVMTXZLOTP-RMKGEEGASA-N
AC$INSTRUMENT: LC, Waters Acquity UPLC System; MS, Waters Xevo G2 Q-Tof
AC$INSTRUMENT_TYPE: LC-ESI-QTOF
AC$MASS_SPECTROMETRY: MS_TYPE MS2
AC$MASS_SPECTROMETRY: ION_MODE POSITIVE
AC$MASS_SPECTROMETRY: COLLISION_ENERGY 6V
AC$MASS_SPECTROMETRY: DESOLVATION_GAS_FLOW 800/h
AC$MASS_SPECTROMETRY: DESOLVATION_TEMPERATURE 450 C
AC$MASS_SPECTROMETRY: IONIZATION ESI
AC$CHROMATOGRAPHY: CAPILLARY_VOLTAGE +3.00 kV
AC$CHROMATOGRAPHY: COLUMN_NAME Acquity bridged ethyl hybrid C18 (1.7 um, 2.1 mm * 100 mm, Waters)
AC$CHROMATOGRAPHY: COLUMN_TEMPERATURE 40 C
AC$CHROMATOGRAPHY: FLOW_GRADIENT A/B = (99.5%/0.5% at 0 min, 99.5%/0.5% at 0.1 min, 20%/80% at 10 min, 0.5%/99.5% at 10.1 min, 0.5%/99.5% at 12.0 min, 99.5%/0.5% at 12.1 min, 99.5%/0.5% at 15.0 min)
AC$CHROMATOGRAPHY: FLOW_RATE 0.3 ml/min at 0 min, 0.3 ml/min at 10 min, 0.4 ml/min at 10.1 min, 0.4 ml/min at 14.4 min, 0.3 ml/min at 14.5 min
AC$CHROMATOGRAPHY: RETENTION_TIME 4.13255
AC$CHROMATOGRAPHY: SOLVENT A water including 0.1% formic acid
AC$CHROMATOGRAPHY: SOLVENT B acetonitrile including 0.1% formic acid
MS$FOCUSED_ION: PRECURSOR_TYPE [M+H]+
MS$FOCUSED_ION: PRECURSOR_M/Z 575.2235364
PK$SPLASH: splash10-000j-0569000000-0683a938a02c41841009
PK$NUM_PEAK: 477
PK$PEAK: m/z int. rel.int.
  66.8546 5.0 5
  69.03392 9.0 9
  71.01104 6.0 6
  85.02682 47.0 47
  86.03297 7.0 7
  87.04344 11.0 11
  97.02461 6.0 6
  97.03125 9.0 9
  103.04142 6.0 6
  105.04694 5.0 5
  105.06966 6.0 6
  106.05328 8.0 8
  106.06411 6.0 6
  107.04697 12.0 12
  109.0268 6.0 6
  109.05994 5.0 5
  115.03304 9.0 9
  118.06136 6.0 6
  123.04685 11.0 11
  123.05344 5.0 5
  124.04473 7.0 7
  126.04971 9.0 9
  126.05745 6.0 6
  127.03882 53.0 53
  128.03595 8.0 8
  130.05934 42.0 42
  130.06535 139.0 139
  131.05074 8.0 8
  131.06807 6.0 6
  132.06801 9.0 9
  132.0755 9.0 9
  132.08728 13.0 13
  133.02666 7.0 7
  133.08774 12.0 12
  137.05513 7.0 7
  139.03516 40.0 40
  139.04323 32.0 32
  140.05109 6.0 6
  142.06784 7.0 7
  144.08073 275.0 275
  145.05098 37.0 37
  145.08141 38.0 38
  146.05028 12.0 12
  146.06197 78.0 78
  147.05754 12.0 12
  149.05701 7.0 7
  150.065 10.0 10
  151.03778 44.0 44
  151.04443 13.0 13
  153.05205 5.0 5
  153.06416 7.0 7
  154.06593 9.0 9
  155.07591 9.0 9
  156.07343 20.0 20
  156.0833 45.0 45
  157.08488 14.0 14
  158.0955 122.0 122
  159.03288 7.0 7
  159.04855 19.0 19
  159.095 18.0 18
  159.10295 10.0 10
  160.04608 11.0 11
  163.03984 6.0 6
  163.07207 7.0 7
  164.07547 7.0 7
  165.02841 7.0 7
  165.03548 12.0 12
  165.05423 402.0 402
  166.05783 49.0 49
  166.06847 9.0 9
  166.08601 7.0 7
  167.06767 6.0 6
  167.0744 19.0 19
  168.08185 75.0 75
  169.06458 11.0 11
  169.07396 54.0 54
  169.08083 59.0 59
  169.09386 6.0 6
  170.0659 10.0 10
  170.08165 14.0 14
  170.09384 11.0 11
  171.08031 9.0 9
  171.09421 7.0 7
  172.07788 6.0 6
  176.06871 25.0 25
  176.07787 11.0 11
  177.04976 9.0 9
  177.06021 30.0 30
  178.05704 10.0 10
  178.08072 11.0 11
  180.07199 10.0 10
  180.07909 18.0 18
  180.09039 9.0 9
  180.10858 8.0 8
  181.0932 7.0 7
  182.05096 5.0 5
  182.08038 7.0 7
  182.09494 9.0 9
  183.06253 24.0 24
  183.09416 9.0 9
  184.07216 6.0 6
  185.11037 6.0 6
  188.02197 17.0 17
  188.04114 26.0 26
  188.07098 1000.0 999
  189.05414 12.0 12
  189.06534 33.0 33
  189.07634 110.0 110
  190.06549 6.0 6
  190.0833 28.0 28
  190.09602 8.0 8
  191.07037 36.0 36
  192.06833 7.0 7
  193.08452 7.0 7
  194.07617 6.0 6
  194.09312 28.0 28
  194.10086 9.0 9
  195.08653 10.0 10
  196.06911 16.0 16
  196.11308 7.0 7
  197.07225 9.0 9
  197.11127 6.0 6
  198.08008 7.0 7
  200.03421 5.0 5
  200.07095 165.0 165
  201.05072 7.0 7
  201.07693 16.0 16
  202.07408 9.0 9
  202.08725 9.0 9
  203.02878 6.0 6
  203.08025 6.0 6
  204.07716 6.0 6
  205.09038 16.0 16
  205.10179 9.0 9
  206.1068 12.0 12
  207.10313 5.0 5
  208.06651 8.0 8
  208.07504 5.0 5
  208.09286 18.0 18
  208.10451 6.0 6
  208.11746 12.0 12
  209.08559 14.0 14
  209.50642 6.0 6
  210.08189 7.0 7
  210.09207 23.0 23
  211.09109 8.0 8
  212.07016 15.0 15
  213.08232 18.0 18
  214.08572 168.0 168
  215.0531 7.0 7
  215.07552 68.0 68
  215.08649 119.0 119
  215.1051 6.0 6
  216.08859 13.0 13
  217.08969 21.0 21
  217.10031 34.0 34
  218.05492 10.0 10
  218.06865 8.0 8
  219.0909 8.0 8
  219.09969 6.0 6
  220.07077 8.0 8
  220.09781 6.0 6
  220.11378 17.0 17
  221.11473 15.0 15
  222.08931 15.0 15
  223.09813 6.0 6
  224.07303 14.0 14
  225.07469 22.0 22
  226.08342 9.0 9
  226.09288 21.0 21
  226.10995 10.0 10
  227.09894 8.0 8
  229.08603 6.0 6
  230.08354 9.0 9
  230.092 8.0 8
  230.32307 6.0 6
  231.10217 49.0 49
  231.11292 55.0 55
  231.12234 37.0 37
  232.10359 8.0 8
  232.11534 21.0 21
  232.12474 8.0 8
  233.1196 5.0 5
  234.07945 20.0 20
  234.11653 7.0 7
  234.12712 10.0 10
  234.14453 8.0 8
  235.06642 8.0 8
  235.09261 5.0 5
  235.1282 5.0 5
  236.06642 5.0 5
  237.07135 7.0 7
  237.08159 11.0 11
  237.13855 7.0 7
  238.08708 220.0 220
  238.1217 17.0 17
  238.13341 10.0 10
  239.08604 22.0 22
  239.09811 20.0 20
  239.12276 6.0 6
  240.08772 11.0 11
  240.10487 9.0 9
  240.12819 5.0 5
  241.09508 14.0 14
  241.1059 8.0 8
  241.1385 5.0 5
  243.07651 6.0 6
  243.08775 6.0 6
  244.10902 28.0 28
  244.12033 13.0 13
  245.11649 9.0 9
  245.12746 5.0 5
  245.69518 5.0 5
  246.12653 21.0 21
  247.06018 5.0 5
  247.11961 7.0 7
  248.06967 79.0 79
  248.09828 13.0 13
  248.11182 13.0 13
  249.06772 8.0 8
  249.08585 5.0 5
  249.10699 6.0 6
  249.14201 9.0 9
  250.06813 12.0 12
  250.08751 37.0 37
  250.11516 6.0 6
  251.09106 19.0 19
  251.10159 6.0 6
  252.0867 16.0 16
  252.10684 33.0 33
  253.05121 6.0 6
  253.10561 12.0 12
  253.12108 7.0 7
  254.08298 20.0 20
  254.55463 6.0 6
  255.08955 6.0 6
  255.10374 6.0 6
  255.11295 7.0 7
  258.08157 6.0 6
  259.10431 9.0 9
  260.12045 8.0 8
  262.10873 11.0 11
  262.11731 29.0 29
  262.13004 29.0 29
  264.1084 11.0 11
  264.14343 12.0 12
  264.15573 7.0 7
  265.09454 74.0 74
  265.10446 58.0 58
  266.07135 14.0 14
  266.09818 46.0 46
  266.11783 18.0 18
  267.07339 5.0 5
  267.08682 9.0 9
  267.10074 14.0 14
  267.12247 23.0 23
  267.14011 7.0 7
  269.10074 6.0 6
  270.08771 10.0 10
  270.1138 21.0 21
  270.12527 6.0 6
  271.11102 20.0 20
  272.09406 21.0 21
  272.10812 75.0 75
  272.12192 12.0 12
  272.13583 5.0 5
  273.1055 13.0 13
  273.12195 10.0 10
  274.11588 11.0 11
  274.1329 16.0 16
  276.05212 10.0 10
  276.10083 30.0 30
  276.11783 6.0 6
  277.06396 10.0 10
  277.10931 5.0 5
  278.06616 5.0 5
  278.11346 11.0 11
  280.0925 11.0 11
  280.11288 8.0 8
  280.13345 64.0 64
  281.09424 8.0 8
  281.10498 10.0 10
  281.5278 5.0 5
  282.0657 5.0 5
  282.0968 37.0 37
  282.15369 6.0 6
  283.10312 6.0 6
  284.10428 31.0 31
  284.12061 5.0 5
  286.09131 19.0 19
  288.10327 6.0 6
  289.1243 14.0 14
  290.05875 6.0 6
  290.08755 10.0 10
  290.11551 162.0 162
  290.14017 9.0 9
  291.09451 11.0 11
  291.12109 27.0 27
  291.14603 5.0 5
  292.10452 6.0 6
  292.12543 30.0 30
  293.0415 6.0 6
  293.0943 71.0 71
  293.12643 112.0 112
  293.13977 42.0 42
  294.06308 21.0 21
  294.07999 65.0 65
  294.1243 33.0 33
  294.14023 18.0 18
  294.1517 14.0 14
  295.04001 6.0 6
  295.08127 97.0 97
  295.11871 6.0 6
  295.14142 11.0 11
  295.15689 5.0 5
  296.09021 17.0 17
  296.12747 15.0 15
  296.14877 6.0 6
  297.09567 7.0 7
  297.1207 5.0 5
  298.10428 11.0 11
  299.10712 7.0 7
  299.12244 7.0 7
  299.13486 9.0 9
  300.10339 98.0 98
  300.13446 6.0 6
  301.09125 13.0 13
  301.11108 19.0 19
  302.06998 5.0 5
  302.10773 28.0 28
  302.12567 6.0 6
  303.1167 9.0 9
  304.09296 9.0 9
  304.12936 24.0 24
  305.09177 9.0 9
  305.13605 7.0 7
  306.10718 6.0 6
  308.0853 11.0 11
  308.11789 43.0 43
  308.1319 97.0 97
  309.10123 18.0 18
  309.13336 52.0 52
  309.1496 16.0 16
  310.08899 11.0 11
  310.10727 8.0 8
  311.0596 10.0 10
  311.10217 356.0 356
  311.13559 17.0 17
  312.08188 6.0 6
  312.10596 54.0 54
  312.15839 7.0 7
  313.11444 43.0 43
  314.11069 8.0 8
  314.12744 5.0 5
  315.12903 7.0 7
  317.11865 18.0 18
  317.13986 10.0 10
  318.11133 132.0 132
  318.12238 36.0 36
  319.11053 22.0 22
  320.12149 11.0 11
  320.15051 10.0 10
  321.09271 6.0 6
  321.13791 13.0 13
  322.10526 7.0 7
  322.13266 63.0 63
  322.1459 109.0 109
  323.12759 9.0 9
  323.14465 40.0 40
  324.11545 9.0 9
  324.14807 9.0 9
  325.10098 22.0 22
  325.11743 35.0 35
  325.13492 7.0 7
  326.08344 14.0 14
  326.10431 88.0 88
  326.13187 7.0 7
  327.08218 6.0 6
  327.10022 25.0 25
  327.11618 50.0 50
  327.13382 34.0 34
  328.08978 31.0 31
  328.11877 30.0 30
  328.13675 6.0 6
  329.09305 6.0 6
  329.10822 5.0 5
  329.1301 5.0 5
  330.12689 6.0 6
  331.13956 8.0 8
  332.12466 23.0 23
  333.12955 6.0 6
  333.15756 6.0 6
  335.13736 273.0 273
  335.14944 71.0 71
  336.09177 7.0 7
  336.117 40.0 40
  336.14212 69.0 69
  337.13342 9.0 9
  338.13043 24.0 24
  339.13345 5.0 5
  339.14471 5.0 5
  340.13196 12.0 12
  340.15479 152.0 152
  341.12723 5.0 5
  341.16013 38.0 38
  342.15247 11.0 11
  342.1701 9.0 9
  343.11938 59.0 59
  343.1373 124.0 124
  344.02979 8.0 8
  344.11591 23.0 23
  344.1412 16.0 16
  345.12018 21.0 21
  346.0892 21.0 21
  346.10614 77.0 77
  346.12308 42.0 42
  347.10065 6.0 6
  347.11746 18.0 18
  350.11603 10.0 10
  350.13733 14.0 14
  350.15338 6.0 6
  351.1748 8.0 8
  352.19266 6.0 6
  359.12527 6.0 6
  360.11606 20.0 20
  360.13181 19.0 19
  363.09763 5.0 5
  363.12912 134.0 134
  363.15741 17.0 17
  364.08295 12.0 12
  364.12115 159.0 159
  365.11819 22.0 22
  365.14233 9.0 9
  367.14078 5.0 5
  367.16803 25.0 25
  368.16107 6.0 6
  377.14258 8.0 8
  377.16049 13.0 13
  378.13208 281.0 281
  379.13132 85.0 85
  379.146 35.0 35
  380.1293 7.0 7
  381.13464 78.0 78
  381.15018 51.0 51
  382.1304 13.0 13
  382.14697 16.0 16
  382.15945 10.0 10
  382.17401 9.0 9
  383.15891 6.0 6
  384.83191 5.0 5
  395.10379 7.0 7
  395.15866 298.0 298
  396.08118 16.0 16
  396.10477 13.0 13
  396.14465 839.0 838
  396.19754 7.0 7
  397.14615 197.0 197
  398.13483 10.0 10
  398.15228 17.0 17
  398.16486 12.0 12
  406.1507 6.0 6
  413.12866 7.0 7
  413.16727 216.0 216
  413.19632 26.0 26
  414.17807 57.0 57
  415.18146 12.0 12
  443.5719 5.0 5
  456.12711 5.0 5
  483.19687 6.0 6
  503.20734 7.0 7
  558.17145 24.0 24
  558.19855 89.0 89
  558.23364 19.0 19
  559.18817 16.0 16
  559.20276 42.0 42
  575.20984 8.0 8
  575.23517 12.0 12
//
