ACCESSION: MSBNK-RIKEN-PR307032
RECORD_TITLE: NP-000062(6); LC-ESI-QTOF; MS2
DATE: 2019.03.28
AUTHORS: Tetsuya Mori, Center for Sustainable Resource Science, RIKEN
LICENSE: CC BY-NC-SA
PUBLICATION: Tsugawa H., Nakabayashi R., Mori T., Yamada Y., Takahashi M., Rai A., Sugiyama R., Yamamoto H., Nakaya T., Yamazaki M., Kooke R., Bac-Molenaar JA., Oztolan-Erol N., Keurentjes JJB., Arita M., Saito K. (2019) "A cheminformatics approach to characterize metabolomes in stable-isotope-labeled organisms" Nature Methods 16(4):295-298. [doi:10.1038/s41592-019-0358-2]
COMMENT: registered in RIKEN PlaSMA
CH$NAME: NP-000062(6)
CH$COMPOUND_CLASS: Flavonoid 8-C-glycosides
CH$FORMULA: C26H28O14
CH$EXACT_MASS: 564.496
CH$SMILES: OCC1OC(C(O)C1O)C1=C(O)C(C2OC(CO)C(O)C(O)C2O)=C2OC(=CC(=O)C2=C1O)C1=CC=C(O)C=C1
CH$IUPAC: InChI=1S/C26H28O14/c27-6-12-17(31)21(35)23(37)26(40-12)16-20(34)15(25-22(36)18(32)13(7-28)39-25)19(33)14-10(30)5-11(38-24(14)16)8-1-3-9(29)4-2-8/h1-5,12-13,17-18,21-23,25-29,31-37H,6-7H2
CH$LINK: INCHIKEY DRLZZQRQMWQRLZ-UHFFFAOYSA-N
AC$INSTRUMENT: LC, Waters Acquity UPLC System; MS, Waters Xevo G2 Q-Tof
AC$INSTRUMENT_TYPE: LC-ESI-QTOF
AC$MASS_SPECTROMETRY: MS_TYPE MS2
AC$MASS_SPECTROMETRY: ION_MODE NEGATIVE
AC$MASS_SPECTROMETRY: COLLISION_ENERGY 6V
AC$MASS_SPECTROMETRY: DESOLVATION_GAS_FLOW 800/h
AC$MASS_SPECTROMETRY: DESOLVATION_TEMPERATURE 450 C
AC$MASS_SPECTROMETRY: IONIZATION ESI
AC$CHROMATOGRAPHY: CAPILLARY_VOLTAGE -2.75 kV
AC$CHROMATOGRAPHY: COLUMN_NAME Acquity bridged ethyl hybrid C18 (1.7 um, 2.1 mm * 100 mm, Waters)
AC$CHROMATOGRAPHY: COLUMN_TEMPERATURE 40 C
AC$CHROMATOGRAPHY: FLOW_GRADIENT A/B = (99.5%/0.5% at 0 min, 99.5%/0.5% at 0.1 min, 20%/80% at 10 min, 0.5%/99.5% at 10.1 min, 0.5%/99.5% at 12.0 min, 99.5%/0.5% at 12.1 min, 99.5%/0.5% at 15.0 min)
AC$CHROMATOGRAPHY: FLOW_RATE 0.3 ml/min at 0 min, 0.3 ml/min at 10 min, 0.4 ml/min at 10.1 min, 0.4 ml/min at 14.4 min, 0.3 ml/min at 14.5 min
AC$CHROMATOGRAPHY: RETENTION_TIME 3.638367
AC$CHROMATOGRAPHY: SOLVENT A water including 0.1% formic acid
AC$CHROMATOGRAPHY: SOLVENT B acetonitrile including 0.1% formic acid
MS$FOCUSED_ION: PRECURSOR_TYPE [M-H]-
MS$FOCUSED_ION: PRECURSOR_M/Z 563.14062914783
PK$SPLASH: splash10-0002-0393000000-62b72becbf7a8b53a396
PK$NUM_PEAK: 279
PK$PEAK: m/z int. rel.int.
  69.02924 8.0 8
  69.03541 7.0 7
  71.00806 11.0 11
  71.59836 9.0 9
  91.05692 10.0 10
  93.03371 43.0 43
  99.01263 9.0 9
  108.01424 11.0 11
  117.03306 144.0 144
  119.05044 22.0 22
  119.0556 9.0 9
  120.05022 10.0 10
  121.02731 25.0 25
  121.06497 8.0 8
  123.04495 8.0 8
  125.42039 7.0 7
  127.05726 10.0 10
  131.04927 22.0 22
  135.04378 123.0 123
  136.04399 9.0 9
  137.02443 28.0 28
  139.03525 10.0 10
  145.07002 8.0 8
  146.0343 9.0 9
  148.01492 8.0 8
  149.03061 35.0 35
  149.05835 32.0 32
  151.02711 9.0 9
  151.03293 14.0 14
  158.0408 11.0 11
  159.04655 47.0 47
  159.05327 20.0 20
  160.99881 9.0 9
  161.01051 9.0 9
  161.0256 94.0 94
  161.05814 21.0 21
  163.03004 13.0 13
  163.04097 67.0 67
  164.04459 22.0 22
  167.05183 17.0 17
  168.99817 8.0 8
  171.04399 7.0 7
  173.02713 18.0 18
  173.05772 8.0 8
  174.02299 19.0 19
  175.04219 81.0 81
  176.04536 22.0 22
  177.01773 55.0 55
  177.04263 10.0 10
  177.05833 38.0 38
  178.02267 9.0 9
  179.0305 7.0 7
  179.03815 9.0 9
  179.04613 11.0 11
  179.05936 11.0 11
  181.05626 9.0 9
  182.0432 10.0 10
  183.04523 10.0 10
  184.05396 9.0 9
  185.01999 19.0 19
  185.05296 8.0 8
  186.03197 14.0 14
  187.00122 9.0 9
  187.04053 11.0 11
  187.98051 8.0 8
  188.05403 19.0 19
  189.02339 82.0 82
  189.04568 9.0 9
  189.06024 8.0 8
  190.02377 7.0 7
  190.85741 8.0 8
  191.02927 19.0 19
  191.04048 20.0 20
  192.00775 8.0 8
  193.01245 8.0 8
  193.05583 14.0 14
  194.07103 8.0 8
  195.06012 7.0 7
  197.05464 34.0 34
  198.05905 8.0 8
  199.04912 19.0 19
  200.043 9.0 9
  201.01526 7.0 7
  201.04802 8.0 8
  202.02777 16.0 16
  202.05284 9.0 9
  203.03285 139.0 139
  204.02391 8.0 8
  204.04463 22.0 22
  205.01718 15.0 15
  205.0495 54.0 54
  205.57436 11.0 11
  206.07426 9.0 9
  207.03004 22.0 22
  207.07321 7.0 7
  207.08797 28.0 28
  209.05846 17.0 17
  210.0667 17.0 17
  211.07597 20.0 20
  215.02898 7.0 7
  215.03864 16.0 16
  215.07365 9.0 9
  217.0509 41.0 41
  220.03926 11.0 11
  220.05305 8.0 8
  220.08974 13.0 13
  220.26443 9.0 9
  221.03381 16.0 16
  221.04175 7.0 7
  221.06317 10.0 10
  222.06761 9.0 9
  223.07217 27.0 27
  224.07945 34.0 34
  224.09187 10.0 10
  225.0526 21.0 21
  225.08446 8.0 8
  226.05269 7.0 7
  226.06415 8.0 8
  227.03477 31.0 31
  230.03165 25.0 25
  231.02704 19.0 19
  233.03865 19.0 19
  233.06557 8.0 8
  235.06731 34.0 34
  235.08023 19.0 19
  236.04326 10.0 10
  236.052 7.0 7
  236.08646 13.0 13
  237.04681 19.0 19
  237.05998 20.0 20
  237.08913 13.0 13
  238.07263 24.0 24
  238.09698 9.0 9
  241.01761 10.0 10
  243.03204 8.0 8
  245.0442 41.0 41
  247.01834 9.0 9
  248.05858 8.0 8
  250.05139 9.0 9
  251.06683 35.0 35
  251.08324 13.0 13
  253.05658 12.0 12
  253.07851 15.0 15
  253.0882 22.0 22
  254.02541 9.0 9
  254.0529 9.0 9
  255.09822 9.0 9
  257.05243 13.0 13
  261.03806 9.0 9
  262.04843 7.0 7
  263.05859 9.0 9
  263.07083 11.0 11
  264.06485 9.0 9
  265.03522 8.0 8
  265.05765 17.0 17
  265.07266 9.0 9
  266.05884 10.0 10
  267.02875 7.0 7
  267.06104 22.0 22
  267.07233 11.0 11
  267.08536 9.0 9
  268.03015 17.0 17
  268.06766 8.0 8
  269.03525 20.0 20
  269.07993 9.0 9
  270.04321 8.0 8
  274.07089 7.0 7
  276.06342 11.0 11
  278.04852 8.0 8
  278.05795 11.0 11
  281.03632 28.0 28
  281.05002 21.0 21
  281.06201 25.0 25
  281.08112 9.0 9
  281.08975 10.0 10
  282.03848 11.0 11
  282.05576 127.0 127
  283.06113 224.0 224
  284.0614 8.0 8
  284.07825 14.0 14
  285.05298 8.0 8
  290.05429 8.0 8
  291.04242 9.0 9
  291.06125 16.0 16
  291.07303 8.0 8
  292.08395 13.0 13
  292.69772 13.0 13
  293.04083 16.0 16
  293.08188 16.0 16
  293.62714 7.0 7
  294.04733 7.0 7
  295.03278 7.0 7
  295.05853 295.0 295
  296.06702 286.0 286
  297.07541 1000.0 999
  297.28259 8.0 8
  297.43524 11.0 11
  298.07697 167.0 167
  298.19711 9.0 9
  299.07053 23.0 23
  299.08627 18.0 18
  300.26773 9.0 9
  300.7821 7.0 7
  303.76706 8.0 8
  304.20807 10.0 10
  305.04608 9.0 9
  306.04361 11.0 11
  307.04019 9.0 9
  307.05597 77.0 77
  307.0683 44.0 44
  309.02884 8.0 8
  309.04266 8.0 8
  309.06891 47.0 47
  309.08231 61.0 61
  310.06604 9.0 9
  310.08749 31.0 31
  311.03336 9.0 9
  311.05917 15.0 15
  311.07175 9.0 9
  312.04559 8.0 8
  315.38361 9.0 9
  317.04041 9.0 9
  319.04028 8.0 8
  319.05484 7.0 7
  319.0675 10.0 10
  320.04657 8.0 8
  320.06097 10.0 10
  320.07895 9.0 9
  321.03897 7.0 7
  321.05154 12.0 12
  321.09882 15.0 15
  322.04272 11.0 11
  322.05917 8.0 8
  323.0524 110.0 110
  323.06836 16.0 16
  324.04251 7.0 7
  324.05899 32.0 32
  324.07117 14.0 14
  325.04901 8.0 8
  325.07297 219.0 219
  326.07275 35.0 35
  326.09052 18.0 18
  331.09991 9.0 9
  333.06335 8.0 8
  333.52356 8.0 8
  335.04016 8.0 8
  335.06305 19.0 19
  335.08896 9.0 9
  335.10257 10.0 10
  336.04453 12.0 12
  336.05609 9.0 9
  337.07416 67.0 67
  337.09189 8.0 8
  338.0639 16.0 16
  338.07703 7.0 7
  341.06732 22.0 22
  348.06219 16.0 16
  349.07736 7.0 7
  353.06512 131.0 131
  354.064 38.0 38
  354.08112 36.0 36
  355.06631 7.0 7
  361.07019 8.0 8
  363.06055 11.0 11
  364.51099 8.0 8
  365.05972 63.0 63
  365.07907 22.0 22
  366.06943 21.0 21
  375.07526 11.0 11
  383.07449 71.0 71
  383.09604 16.0 16
  384.07675 10.0 10
  389.06512 9.0 9
  395.05869 10.0 10
  397.08765 10.0 10
  399.05753 16.0 16
  403.08139 7.0 7
  413.07941 13.0 13
  413.45853 12.0 12
//
