ACCESSION: MSBNK-RIKEN-PR310957
RECORD_TITLE: Flavone base + 3O, O-MalonylHex; LC-ESI-QTOF; MS2
DATE: 2019.03.28
AUTHORS: Tetsuya Mori, Center for Sustainable Resource Science, RIKEN
LICENSE: CC BY-NC-SA
PUBLICATION: Tsugawa H., Nakabayashi R., Mori T., Yamada Y., Takahashi M., Rai A., Sugiyama R., Yamamoto H., Nakaya T., Yamazaki M., Kooke R., Bac-Molenaar JA., Oztolan-Erol N., Keurentjes JJB., Arita M., Saito K. (2019) "A cheminformatics approach to characterize metabolomes in stable-isotope-labeled organisms" Nature Methods 16(4):295-298. [doi:10.1038/s41592-019-0358-2]
COMMENT: Annotation level-3
CH$NAME: Flavone base + 3O, O-MalonylHex
CH$COMPOUND_CLASS: Flavone O-glycosides
CH$FORMULA: C24H22O13
CH$EXACT_MASS: 518.427
CH$SMILES: O=C(O)CC(=O)OCC4OC(OC1=CC(O)=C2C(=O)C=C(OC2(=C1))C3=CC=C(O)C=C3)C(O)C(O)C4(O)
CH$IUPAC: InChI=1S/C24H22O13/c25-11-3-1-10(2-4-11)15-7-14(27)20-13(26)5-12(6-16(20)36-15)35-24-23(33)22(32)21(31)17(37-24)9-34-19(30)8-18(28)29/h1-7,17,21-26,31-33H,8-9H2,(H,28,29)
CH$LINK: INCHIKEY JXWAQRJFONLTSI-UHFFFAOYSA-N
AC$INSTRUMENT: LC, Waters Acquity UPLC System; MS, Waters Xevo G2 Q-Tof
AC$INSTRUMENT_TYPE: LC-ESI-QTOF
AC$MASS_SPECTROMETRY: MS_TYPE MS2
AC$MASS_SPECTROMETRY: ION_MODE POSITIVE
AC$MASS_SPECTROMETRY: COLLISION_ENERGY 6V
AC$MASS_SPECTROMETRY: DESOLVATION_GAS_FLOW 800/h
AC$MASS_SPECTROMETRY: DESOLVATION_TEMPERATURE 450 C
AC$MASS_SPECTROMETRY: IONIZATION ESI
AC$CHROMATOGRAPHY: CAPILLARY_VOLTAGE +3.00 kV
AC$CHROMATOGRAPHY: COLUMN_NAME Acquity bridged ethyl hybrid C18 (1.7 um, 2.1 mm * 100 mm, Waters)
AC$CHROMATOGRAPHY: COLUMN_TEMPERATURE 40 C
AC$CHROMATOGRAPHY: FLOW_GRADIENT A/B = (99.5%/0.5% at 0 min, 99.5%/0.5% at 0.1 min, 20%/80% at 10 min, 0.5%/99.5% at 10.1 min, 0.5%/99.5% at 12.0 min, 99.5%/0.5% at 12.1 min, 99.5%/0.5% at 15.0 min)
AC$CHROMATOGRAPHY: FLOW_RATE 0.3 ml/min at 0 min, 0.3 ml/min at 10 min, 0.4 ml/min at 10.1 min, 0.4 ml/min at 14.4 min, 0.3 ml/min at 14.5 min
AC$CHROMATOGRAPHY: RETENTION_TIME 5.16
AC$CHROMATOGRAPHY: SOLVENT A water including 0.1% formic acid
AC$CHROMATOGRAPHY: SOLVENT B acetonitrile including 0.1% formic acid
MS$FOCUSED_ION: PRECURSOR_TYPE [M+H]+
MS$FOCUSED_ION: PRECURSOR_M/Z 519.1155
PK$SPLASH: splash10-00di-0290040000-f902ce5268baac660d29
PK$NUM_PEAK: 6
PK$PEAK: m/z int. rel.int.
  127.04368 21.0 88
  145.04922 25.0 105
  198.55173 21.0 88
  271.06183 238.0 999
  501.15381 20.0 84
  519.11597 87.0 365
//
