ACCESSION: MSBNK-RIKEN-PR304037
RECORD_TITLE: Schisandrin; LC-ESI-QTOF; MS2
DATE: 2019.03.28
AUTHORS: Tetsuya Mori, Center for Sustainable Resource Science, RIKEN
LICENSE: CC BY-NC-SA
PUBLICATION: Tsugawa H., Nakabayashi R., Mori T., Yamada Y., Takahashi M., Rai A., Sugiyama R., Yamamoto H., Nakaya T., Yamazaki M., Kooke R., Bac-Molenaar JA., Oztolan-Erol N., Keurentjes JJB., Arita M., Saito K. (2019) "A cheminformatics approach to characterize metabolomes in stable-isotope-labeled organisms" Nature Methods 16(4):295-298. [doi:10.1038/s41592-019-0358-2]
COMMENT: registered in RIKEN PlaSMA
CH$NAME: Schisandrin
CH$COMPOUND_CLASS: Hydrolyzable tannins
CH$FORMULA: C24H32O7
CH$EXACT_MASS: 432.513
CH$SMILES: COC1=C(OC)C(OC)=C2C(CC(C)C(C)(O)CC3=CC(OC)=C(OC)C(OC)=C23)=C1
CH$IUPAC: InChI=1S/C24H32O7/c1-13-9-14-10-16(26-3)20(28-5)22(30-7)18(14)19-15(12-24(13,2)25)11-17(27-4)21(29-6)23(19)31-8/h10-11,13,25H,9,12H2,1-8H3
CH$LINK: INCHIKEY YEFOAORQXAOVJQ-UHFFFAOYSA-N
AC$INSTRUMENT: LC, Waters Acquity UPLC System; MS, Waters Xevo G2 Q-Tof
AC$INSTRUMENT_TYPE: LC-ESI-QTOF
AC$MASS_SPECTROMETRY: MS_TYPE MS2
AC$MASS_SPECTROMETRY: ION_MODE POSITIVE
AC$MASS_SPECTROMETRY: COLLISION_ENERGY 6V
AC$MASS_SPECTROMETRY: DESOLVATION_GAS_FLOW 800/h
AC$MASS_SPECTROMETRY: DESOLVATION_TEMPERATURE 450 C
AC$MASS_SPECTROMETRY: IONIZATION ESI
AC$CHROMATOGRAPHY: CAPILLARY_VOLTAGE +3.00 kV
AC$CHROMATOGRAPHY: COLUMN_NAME Acquity bridged ethyl hybrid C18 (1.7 um, 2.1 mm * 100 mm, Waters)
AC$CHROMATOGRAPHY: COLUMN_TEMPERATURE 40 C
AC$CHROMATOGRAPHY: FLOW_GRADIENT A/B = (99.5%/0.5% at 0 min, 99.5%/0.5% at 0.1 min, 20%/80% at 10 min, 0.5%/99.5% at 10.1 min, 0.5%/99.5% at 12.0 min, 99.5%/0.5% at 12.1 min, 99.5%/0.5% at 15.0 min)
AC$CHROMATOGRAPHY: FLOW_RATE 0.3 ml/min at 0 min, 0.3 ml/min at 10 min, 0.4 ml/min at 10.1 min, 0.4 ml/min at 14.4 min, 0.3 ml/min at 14.5 min
AC$CHROMATOGRAPHY: RETENTION_TIME 7.655766
AC$CHROMATOGRAPHY: SOLVENT A water including 0.1% formic acid
AC$CHROMATOGRAPHY: SOLVENT B acetonitrile including 0.1% formic acid
MS$FOCUSED_ION: PRECURSOR_TYPE [M+H]+
MS$FOCUSED_ION: PRECURSOR_M/Z 433.2220798
PK$SPLASH: splash10-00lr-0009000000-02cae69a063ec0bb2b0f
PK$NUM_PEAK: 271
PK$PEAK: m/z int. rel.int.
  75.04099 15.0 15
  78.02554 14.0 14
  153.04988 9.0 9
  173.09889 9.0 9
  174.10713 9.0 9
  181.09195 19.0 19
  183.1373 9.0 9
  187.07484 15.0 15
  194.06427 11.0 11
  195.10387 12.0 12
  196.10883 9.0 9
  203.06987 10.0 10
  204.10921 9.0 9
  205.08415 20.0 20
  208.97939 9.0 9
  212.09695 9.0 9
  218.09314 11.0 11
  225.81218 9.0 9
  229.27827 10.0 10
  233.10362 15.0 15
  236.63054 10.0 10
  238.60358 15.0 15
  241.12683 11.0 11
  242.10092 13.0 13
  246.13264 9.0 9
  248.11069 12.0 12
  250.12947 10.0 10
  250.96532 10.0 10
  254.0937 9.0 9
  255.0992 9.0 9
  256.12112 12.0 12
  257.06064 11.0 11
  258.08231 9.0 9
  259.09549 14.0 14
  259.14203 14.0 14
  260.09982 25.0 25
  261.0979 11.0 11
  261.11295 11.0 11
  265.08746 12.0 12
  266.09561 10.0 10
  267.0578 10.0 10
  268.66177 9.0 9
  270.05246 9.0 9
  270.08942 40.0 40
  270.10605 9.0 9
  271.08249 23.0 23
  271.0928 12.0 12
  271.13647 9.0 9
  272.10492 46.0 46
  272.12344 11.0 11
  273.10416 12.0 12
  275.08972 12.0 12
  280.07974 11.0 11
  280.1087 21.0 21
  282.09436 9.0 9
  282.40643 11.0 11
  283.09903 9.0 9
  283.11993 9.0 9
  283.14017 11.0 11
  284.099 21.0 21
  284.1329 9.0 9
  285.07904 20.0 20
  286.0726 19.0 19
  286.0885 12.0 12
  286.13354 10.0 10
  287.1358 25.0 25
  287.44363 11.0 11
  287.5267 15.0 15
  288.09482 23.0 23
  288.1109 16.0 16
  288.14029 20.0 20
  292.10095 11.0 11
  293.11588 9.0 9
  295.09772 11.0 11
  295.11978 13.0 13
  295.34128 9.0 9
  296.09445 9.0 9
  296.10852 9.0 9
  296.14099 24.0 24
  296.43484 11.0 11
  297.1503 12.0 12
  298.11197 9.0 9
  298.12543 27.0 27
  298.31662 9.0 9
  299.09418 22.0 22
  299.10544 10.0 10
  299.12338 49.0 49
  299.13574 17.0 17
  300.09729 12.0 12
  300.13596 9.0 9
  300.88571 11.0 11
  301.1163 58.0 58
  302.10266 14.0 14
  302.11322 39.0 39
  303.11792 12.0 12
  304.12802 16.0 16
  306.12018 23.0 23
  307.10077 11.0 11
  307.1351 20.0 20
  308.1506 17.0 17
  308.24454 9.0 9
  309.15057 9.0 9
  310.12292 9.0 9
  311.039 9.0 9
  312.09738 11.0 11
  312.12955 9.0 9
  312.15543 20.0 20
  313.09219 9.0 9
  313.10684 55.0 55
  313.11792 66.0 66
  313.1514 22.0 22
  314.11462 111.0 111
  314.58832 11.0 11
  315.0874 44.0 44
  315.12045 233.0 233
  315.13266 61.0 61
  316.07217 10.0 10
  316.09903 27.0 27
  316.12515 72.0 72
  317.08734 39.0 39
  317.12411 9.0 9
  319.85117 11.0 11
  321.12338 9.0 9
  321.16776 14.0 14
  322.10342 12.0 12
  322.12674 55.0 55
  322.15646 154.0 154
  322.17667 13.0 13
  323.12384 59.0 59
  323.1647 51.0 51
  324.13147 21.0 21
  324.16422 11.0 11
  325.0813 10.0 10
  325.10742 12.0 12
  325.18076 12.0 12
  326.14459 21.0 21
  327.09415 11.0 11
  327.11023 39.0 39
  327.12976 66.0 66
  327.16556 10.0 10
  328.1236 148.0 148
  328.13504 309.0 309
  329.07779 12.0 12
  329.08929 31.0 31
  329.10358 57.0 57
  329.13046 148.0 148
  329.14639 42.0 42
  330.08844 19.0 19
  330.10529 29.0 29
  330.11917 23.0 23
  330.14108 109.0 109
  330.15747 59.0 59
  331.04819 9.0 9
  331.11923 371.0 371
  331.15216 44.0 44
  332.09711 12.0 12
  332.12878 225.0 225
  333.12561 56.0 56
  336.13492 10.0 10
  337.12225 21.0 21
  337.14114 78.0 78
  337.16376 10.0 10
  338.15295 566.0 565
  339.138 30.0 30
  339.1604 177.0 177
  340.11218 19.0 19
  340.13779 23.0 23
  340.15378 14.0 14
  341.12637 20.0 20
  341.13849 52.0 52
  341.15424 23.0 23
  341.17059 47.0 47
  342.09256 10.0 10
  342.10785 9.0 9
  342.15051 446.0 446
  343.11636 85.0 85
  343.15314 83.0 83
  343.17065 24.0 24
  344.10638 30.0 30
  344.12878 93.0 93
  344.16614 23.0 23
  345.10629 21.0 21
  345.13431 56.0 56
  345.14905 77.0 77
  346.11975 56.0 56
  346.14255 405.0 405
  346.15378 136.0 136
  347.14709 95.0 95
  347.92285 9.0 9
  348.14444 21.0 21
  348.15744 29.0 29
  349.16074 9.0 9
  350.38275 11.0 11
  352.12296 11.0 11
  352.146 17.0 17
  352.17438 59.0 59
  353.14111 19.0 19
  353.1731 602.0 601
  353.32932 10.0 10
  353.91806 9.0 9
  354.1106 9.0 9
  354.1459 110.0 110
  354.17194 82.0 82
  354.19965 12.0 12
  354.25711 9.0 9
  355.11292 9.0 9
  355.14572 13.0 13
  355.17007 22.0 22
  355.18964 30.0 30
  355.20572 14.0 14
  356.1582 23.0 23
  356.16977 36.0 36
  356.62784 12.0 12
  357.12286 21.0 21
  357.76312 9.0 9
  358.11923 9.0 9
  358.13959 116.0 116
  358.17102 65.0 65
  358.18597 11.0 11
  359.1456 24.0 24
  359.16 23.0 23
  359.18085 9.0 9
  360.16611 25.0 25
  361.06061 10.0 10
  361.17221 11.0 11
  362.16547 10.0 10
  365.56937 9.0 9
  367.64288 11.0 11
  368.15649 40.0 40
  369.12494 20.0 20
  369.16959 1000.0 999
  369.33514 10.0 10
  369.50665 12.0 12
  370.04578 11.0 11
  370.07147 15.0 15
  370.13791 10.0 10
  370.1701 119.0 119
  370.19675 11.0 11
  371.13806 9.0 9
  371.17273 12.0 12
  372.14108 11.0 11
  372.15753 24.0 24
  373.16815 53.0 53
  374.16351 34.0 34
  383.13916 9.0 9
  383.17615 33.0 33
  383.19153 12.0 12
  384.19193 675.0 674
  384.30151 9.0 9
  384.32135 13.0 13
  385.08835 9.0 9
  385.12552 11.0 11
  385.15768 64.0 64
  385.17407 122.0 122
  385.19733 187.0 187
  385.81116 9.0 9
  385.87598 9.0 9
  386.14246 12.0 12
  386.16476 46.0 46
  386.19009 74.0 74
  386.22015 12.0 12
  387.17508 10.0 10
  389.12622 10.0 10
  389.53964 11.0 11
  393.32349 9.0 9
  400.18225 77.0 77
  400.20688 12.0 12
  401.15436 15.0 15
  401.16687 12.0 12
  401.19095 10.0 10
  415.23068 14.0 14
//
