ACCESSION: MSBNK-RIKEN-PR303961
RECORD_TITLE: Justicidin G; LC-ESI-QTOF; MS2
DATE: 2019.03.28
AUTHORS: Tetsuya Mori, Center for Sustainable Resource Science, RIKEN
LICENSE: CC BY-NC-SA
PUBLICATION: Tsugawa H., Nakabayashi R., Mori T., Yamada Y., Takahashi M., Rai A., Sugiyama R., Yamamoto H., Nakaya T., Yamazaki M., Kooke R., Bac-Molenaar JA., Oztolan-Erol N., Keurentjes JJB., Arita M., Saito K. (2019) "A cheminformatics approach to characterize metabolomes in stable-isotope-labeled organisms" Nature Methods 16(4):295-298. [doi:10.1038/s41592-019-0358-2]
COMMENT: registered in RIKEN PlaSMA
CH$NAME: Justicidin G
CH$COMPOUND_CLASS: Arylnaphthalene lignans
CH$FORMULA: C21H14O7
CH$EXACT_MASS: 378.336
CH$SMILES: COC1=C2OCOC2=CC2=C(C3=C(C=C12)C(=O)OC3)C1=CC=C2OCOC2=C1
CH$IUPAC: InChI=1S/C21H14O7/c1-23-19-12-5-13-14(7-24-21(13)22)18(11(12)6-17-20(19)28-9-27-17)10-2-3-15-16(4-10)26-8-25-15/h2-6H,7-9H2,1H3
CH$LINK: INCHIKEY VINGQMQXGDIELG-UHFFFAOYSA-N
AC$INSTRUMENT: LC, Waters Acquity UPLC System; MS, Waters Xevo G2 Q-Tof
AC$INSTRUMENT_TYPE: LC-ESI-QTOF
AC$MASS_SPECTROMETRY: MS_TYPE MS2
AC$MASS_SPECTROMETRY: ION_MODE POSITIVE
AC$MASS_SPECTROMETRY: COLLISION_ENERGY 6V
AC$MASS_SPECTROMETRY: DESOLVATION_GAS_FLOW 800/h
AC$MASS_SPECTROMETRY: DESOLVATION_TEMPERATURE 450 C
AC$MASS_SPECTROMETRY: IONIZATION ESI
AC$CHROMATOGRAPHY: CAPILLARY_VOLTAGE +3.00 kV
AC$CHROMATOGRAPHY: COLUMN_NAME Acquity bridged ethyl hybrid C18 (1.7 um, 2.1 mm * 100 mm, Waters)
AC$CHROMATOGRAPHY: COLUMN_TEMPERATURE 40 C
AC$CHROMATOGRAPHY: FLOW_GRADIENT A/B = (99.5%/0.5% at 0 min, 99.5%/0.5% at 0.1 min, 20%/80% at 10 min, 0.5%/99.5% at 10.1 min, 0.5%/99.5% at 12.0 min, 99.5%/0.5% at 12.1 min, 99.5%/0.5% at 15.0 min)
AC$CHROMATOGRAPHY: FLOW_RATE 0.3 ml/min at 0 min, 0.3 ml/min at 10 min, 0.4 ml/min at 10.1 min, 0.4 ml/min at 14.4 min, 0.3 ml/min at 14.5 min
AC$CHROMATOGRAPHY: RETENTION_TIME 8.934183
AC$CHROMATOGRAPHY: SOLVENT A water including 0.1% formic acid
AC$CHROMATOGRAPHY: SOLVENT B acetonitrile including 0.1% formic acid
MS$FOCUSED_ION: PRECURSOR_TYPE [M+H]+
MS$FOCUSED_ION: PRECURSOR_M/Z 379.0812292
PK$SPLASH: splash10-0kcj-0490000000-701c5c295990ea87ed18
PK$NUM_PEAK: 214
PK$PEAK: m/z int. rel.int.
  55.37674 10.0 10
  78.51012 9.0 9
  93.01637 21.0 21
  110.01852 23.0 23
  126.04782 13.0 13
  144.00743 12.0 12
  148.545 22.0 22
  151.0481 21.0 21
  152.05763 51.0 51
  152.16072 12.0 12
  152.3856 9.0 9
  160.51318 9.0 9
  163.05467 92.0 92
  163.06227 27.0 27
  164.04688 27.0 27
  164.05655 95.0 95
  164.06937 52.0 52
  164.08516 10.0 10
  165.06691 58.0 58
  165.07773 19.0 19
  165.13104 9.0 9
  166.07564 12.0 12
  166.08496 10.0 10
  172.22618 9.0 9
  174.04485 63.0 63
  175.05396 58.0 58
  176.06149 884.0 883
  177.05878 77.0 77
  177.06786 189.0 189
  177.11453 17.0 17
  178.07845 151.0 151
  178.45276 10.0 10
  179.04349 12.0 12
  179.0504 12.0 12
  179.08112 30.0 30
  180.34926 11.0 11
  180.42059 10.0 10
  185.29565 9.0 9
  187.04779 32.0 32
  187.05817 11.0 11
  187.72421 12.0 12
  188.0609 145.0 145
  189.06856 1000.0 999
  190.04942 10.0 10
  190.06566 124.0 124
  190.08041 179.0 179
  190.84155 16.0 16
  191.03448 9.0 9
  191.04739 37.0 37
  191.06044 13.0 13
  191.08156 120.0 120
  191.09113 47.0 47
  191.5311 9.0 9
  192.04784 10.0 10
  192.05841 43.0 43
  192.08815 9.0 9
  193.02133 18.0 18
  193.06133 10.0 10
  193.07565 19.0 19
  195.03534 10.0 10
  199.04375 26.0 26
  200.06293 72.0 72
  200.36555 24.0 24
  201.06946 99.0 99
  202.03871 41.0 41
  202.04738 30.0 30
  202.07188 71.0 71
  202.08948 11.0 11
  203.03622 49.0 49
  203.04851 116.0 116
  203.08296 29.0 29
  203.88797 12.0 12
  204.03517 29.0 29
  204.05646 793.0 792
  205.03764 9.0 9
  205.06392 518.0 517
  205.19373 15.0 15
  205.37764 9.0 9
  206.04028 10.0 10
  206.06024 29.0 29
  206.0735 215.0 215
  206.52217 16.0 16
  207.07399 14.0 14
  207.08156 30.0 30
  207.38423 9.0 9
  209.04495 17.0 17
  210.84706 30.0 30
  212.83058 15.0 15
  213.06795 11.0 11
  214.04947 16.0 16
  215.72873 11.0 11
  216.05531 45.0 45
  216.38579 27.0 27
  216.55983 12.0 12
  217.06352 181.0 181
  217.15807 22.0 22
  218.03642 21.0 21
  218.06442 127.0 127
  218.0757 106.0 106
  219.03455 11.0 11
  219.0477 17.0 17
  219.07907 297.0 297
  220.04887 121.0 121
  220.06653 19.0 19
  220.07845 25.0 25
  221.05101 13.0 13
  221.06747 13.0 13
  222.07364 9.0 9
  223.06337 20.0 20
  224.44461 11.0 11
  227.18071 9.0 9
  228.05412 16.0 16
  229.06226 9.0 9
  230.02724 13.0 13
  230.03996 63.0 63
  231.04678 236.0 236
  231.07977 9.0 9
  231.60329 9.0 9
  232.03259 14.0 14
  232.04509 85.0 85
  232.05408 279.0 279
  233.03255 13.0 13
  233.05666 266.0 266
  233.07121 52.0 52
  233.48499 10.0 10
  234.04517 11.0 11
  234.06749 132.0 132
  234.10776 25.0 25
  234.97595 12.0 12
  235.05777 25.0 25
  235.07634 63.0 63
  236.08315 13.0 13
  244.03577 10.0 10
  244.04413 12.0 12
  244.05283 11.0 11
  245.02815 19.0 19
  245.04062 10.0 10
  245.06036 178.0 178
  246.0314 14.0 14
  246.06635 770.0 769
  246.0927 11.0 11
  246.47801 11.0 11
  247.03091 10.0 10
  247.03874 24.0 24
  247.06905 175.0 175
  247.08315 30.0 30
  247.09517 9.0 9
  248.02669 41.0 41
  248.04443 162.0 162
  248.05638 47.0 47
  248.07391 12.0 12
  248.08601 9.0 9
  249.04581 45.0 45
  249.05823 70.0 70
  250.06308 10.0 10
  250.51723 23.0 23
  251.13226 12.0 12
  258.02963 22.0 22
  258.60596 9.0 9
  259.03027 10.0 10
  260.04492 156.0 156
  260.05515 67.0 67
  260.62863 11.0 11
  261.04282 57.0 57
  261.05753 89.0 89
  261.09189 17.0 17
  261.14731 16.0 16
  261.19638 11.0 11
  261.50992 9.0 9
  262.0614 319.0 319
  262.07376 71.0 71
  263.06155 102.0 102
  263.07556 35.0 35
  264.23779 10.0 10
  268.5535 14.0 14
  271.0336 10.0 10
  271.88351 9.0 9
  273.05545 68.0 68
  274.05716 16.0 16
  275.0546 50.0 50
  275.06989 217.0 217
  276.04431 35.0 35
  276.07019 17.0 17
  276.08514 58.0 58
  277.04633 13.0 13
  277.06683 9.0 9
  277.0799 27.0 27
  277.56183 9.0 9
  278.04889 21.0 21
  279.0553 9.0 9
  288.0285 11.0 11
  288.05322 25.0 25
  289.0361 16.0 16
  289.05267 34.0 34
  290.04645 11.0 11
  290.06042 46.0 46
  290.07004 25.0 25
  291.06476 65.0 65
  291.09262 11.0 11
  293.06152 17.0 17
  303.05966 41.0 41
  303.07327 31.0 31
  304.04346 9.0 9
  304.06204 37.0 37
  304.07581 11.0 11
  305.03552 20.0 20
  305.0542 10.0 10
  305.17914 9.0 9
  306.05011 15.0 15
  307.03729 12.0 12
  307.0571 10.0 10
  307.07877 15.0 15
  319.05994 47.0 47
  333.08813 15.0 15
//
