ACCESSION: MSBNK-RIKEN-PR307202
RECORD_TITLE: (2R)-2-Hydroxy-2-phenethylglucosinolate; LC-ESI-QTOF; MS2
DATE: 2019.03.28
AUTHORS: Tetsuya Mori, Center for Sustainable Resource Science, RIKEN
LICENSE: CC BY-NC-SA
PUBLICATION: Tsugawa H., Nakabayashi R., Mori T., Yamada Y., Takahashi M., Rai A., Sugiyama R., Yamamoto H., Nakaya T., Yamazaki M., Kooke R., Bac-Molenaar JA., Oztolan-Erol N., Keurentjes JJB., Arita M., Saito K. (2019) "A cheminformatics approach to characterize metabolomes in stable-isotope-labeled organisms" Nature Methods 16(4):295-298. [doi:10.1038/s41592-019-0358-2]
COMMENT: registered in RIKEN PlaSMA
CH$NAME: (2R)-2-Hydroxy-2-phenethylglucosinolate
CH$COMPOUND_CLASS: Alkylglucosinolates
CH$FORMULA: C15H21NO10S2
CH$EXACT_MASS: 439.46
CH$SMILES: OCC1OC(SC(CC(O)C2=CC=CC=C2)=NOS(O)(=O)=O)C(O)C(O)C1O
CH$IUPAC: InChI=1S/C15H21NO10S2/c17-7-10-12(19)13(20)14(21)15(25-10)27-11(16-26-28(22,23)24)6-9(18)8-4-2-1-3-5-8/h1-5,9-10,12-15,17-21H,6-7H2,(H,22,23,24)
CH$LINK: INCHIKEY GAPDDBFHNYHZIS-UHFFFAOYSA-N
AC$INSTRUMENT: LC, Waters Acquity UPLC System; MS, Waters Xevo G2 Q-Tof
AC$INSTRUMENT_TYPE: LC-ESI-QTOF
AC$MASS_SPECTROMETRY: MS_TYPE MS2
AC$MASS_SPECTROMETRY: ION_MODE NEGATIVE
AC$MASS_SPECTROMETRY: COLLISION_ENERGY 6V
AC$MASS_SPECTROMETRY: DESOLVATION_GAS_FLOW 800/h
AC$MASS_SPECTROMETRY: DESOLVATION_TEMPERATURE 450 C
AC$MASS_SPECTROMETRY: IONIZATION ESI
AC$CHROMATOGRAPHY: CAPILLARY_VOLTAGE -2.75 kV
AC$CHROMATOGRAPHY: COLUMN_NAME Acquity bridged ethyl hybrid C18 (1.7 um, 2.1 mm * 100 mm, Waters)
AC$CHROMATOGRAPHY: COLUMN_TEMPERATURE 40 C
AC$CHROMATOGRAPHY: FLOW_GRADIENT A/B = (99.5%/0.5% at 0 min, 99.5%/0.5% at 0.1 min, 20%/80% at 10 min, 0.5%/99.5% at 10.1 min, 0.5%/99.5% at 12.0 min, 99.5%/0.5% at 12.1 min, 99.5%/0.5% at 15.0 min)
AC$CHROMATOGRAPHY: FLOW_RATE 0.3 ml/min at 0 min, 0.3 ml/min at 10 min, 0.4 ml/min at 10.1 min, 0.4 ml/min at 14.4 min, 0.3 ml/min at 14.5 min
AC$CHROMATOGRAPHY: RETENTION_TIME 2.70645
AC$CHROMATOGRAPHY: SOLVENT A water including 0.1% formic acid
AC$CHROMATOGRAPHY: SOLVENT B acetonitrile including 0.1% formic acid
MS$FOCUSED_ION: PRECURSOR_TYPE [M-H]-
MS$FOCUSED_ION: PRECURSOR_M/Z 438.05341174783
PK$SPLASH: splash10-000i-6220900000-970a1f5a592107b5b42c
PK$NUM_PEAK: 32
PK$PEAK: m/z int. rel.int.
  74.99049 49.0 49
  76.98737 5.0 5
  79.96028 9.0 9
  89.02518 6.0 6
  90.00067 18.0 18
  95.95162 95.0 95
  96.95917 548.0 547
  97.9465 9.0 9
  98.95554 18.0 18
  98.96124 9.0 9
  101.01707 5.0 5
  119.03711 15.0 15
  135.96956 125.0 125
  138.95766 7.0 7
  145.05191 10.0 10
  153.98093 27.0 27
  195.03183 46.0 46
  196.04369 89.0 89
  197.04225 7.0 7
  241.00354 16.0 16
  242.01637 6.0 6
  244.98627 5.0 5
  245.00182 10.0 10
  259.00153 23.0 23
  259.01425 101.0 101
  260.00433 10.0 10
  260.02051 32.0 32
  274.98401 34.0 34
  275.92996 6.0 6
  275.99802 10.0 10
  332.01169 52.0 52
  438.05182 1000.0 999
//
