ACCESSION: MSBNK-RIKEN-PR308023
RECORD_TITLE: Enterolactone; LC-ESI-QTOF; MS2
DATE: 2019.03.28
AUTHORS: Tetsuya Mori, Center for Sustainable Resource Science, RIKEN
LICENSE: CC BY-NC-SA
PUBLICATION: Tsugawa H., Nakabayashi R., Mori T., Yamada Y., Takahashi M., Rai A., Sugiyama R., Yamamoto H., Nakaya T., Yamazaki M., Kooke R., Bac-Molenaar JA., Oztolan-Erol N., Keurentjes JJB., Arita M., Saito K. (2019) "A cheminformatics approach to characterize metabolomes in stable-isotope-labeled organisms" Nature Methods 16(4):295-298. [doi:10.1038/s41592-019-0358-2]
COMMENT: registered in RIKEN PlaSMA
CH$NAME: Enterolactone
CH$COMPOUND_CLASS: Dibenzylbutyrolactone lignans
CH$FORMULA: C18H18O4
CH$EXACT_MASS: 298.338
CH$SMILES: OC1=CC=CC(CC2COC(=O)C2CC2=CC(O)=CC=C2)=C1
CH$IUPAC: InChI=1S/C18H18O4/c19-15-5-1-3-12(8-15)7-14-11-22-18(21)17(14)10-13-4-2-6-16(20)9-13/h1-6,8-9,14,17,19-20H,7,10-11H2
CH$LINK: INCHIKEY HVDGDHBAMCBBLR-UHFFFAOYSA-N
AC$INSTRUMENT: LC, Waters Acquity UPLC System; MS, Waters Xevo G2 Q-Tof
AC$INSTRUMENT_TYPE: LC-ESI-QTOF
AC$MASS_SPECTROMETRY: MS_TYPE MS2
AC$MASS_SPECTROMETRY: ION_MODE NEGATIVE
AC$MASS_SPECTROMETRY: COLLISION_ENERGY 6V
AC$MASS_SPECTROMETRY: DESOLVATION_GAS_FLOW 800/h
AC$MASS_SPECTROMETRY: DESOLVATION_TEMPERATURE 450 C
AC$MASS_SPECTROMETRY: IONIZATION ESI
AC$CHROMATOGRAPHY: CAPILLARY_VOLTAGE -2.75 kV
AC$CHROMATOGRAPHY: COLUMN_NAME Acquity bridged ethyl hybrid C18 (1.7 um, 2.1 mm * 100 mm, Waters)
AC$CHROMATOGRAPHY: COLUMN_TEMPERATURE 40 C
AC$CHROMATOGRAPHY: FLOW_GRADIENT A/B = (99.5%/0.5% at 0 min, 99.5%/0.5% at 0.1 min, 20%/80% at 10 min, 0.5%/99.5% at 10.1 min, 0.5%/99.5% at 12.0 min, 99.5%/0.5% at 12.1 min, 99.5%/0.5% at 15.0 min)
AC$CHROMATOGRAPHY: FLOW_RATE 0.3 ml/min at 0 min, 0.3 ml/min at 10 min, 0.4 ml/min at 10.1 min, 0.4 ml/min at 14.4 min, 0.3 ml/min at 14.5 min
AC$CHROMATOGRAPHY: RETENTION_TIME 6.182066
AC$CHROMATOGRAPHY: SOLVENT A water including 0.1% formic acid
AC$CHROMATOGRAPHY: SOLVENT B acetonitrile including 0.1% formic acid
MS$FOCUSED_ION: PRECURSOR_TYPE [M-H]-
MS$FOCUSED_ION: PRECURSOR_M/Z 297.11323264783
PK$SPLASH: splash10-0a4i-0900000000-e95a63c0d7ff8db69f36
PK$NUM_PEAK: 45
PK$PEAK: m/z int. rel.int.
  65.03735 61.0 61
  66.04288 21.0 21
  79.05331 52.0 52
  91.05534 24.0 24
  92.02716 34.0 34
  93.03432 17.0 17
  102.04765 53.0 53
  103.05523 46.0 46
  105.06894 17.0 17
  106.04234 1000.0 999
  107.04987 924.0 923
  108.05252 22.0 22
  109.05454 20.0 20
  115.05056 17.0 17
  117.06508 23.0 23
  118.03796 19.0 19
  119.05001 415.0 415
  119.5951 37.0 37
  120.05621 16.0 16
  121.06148 26.0 26
  121.06827 21.0 21
  129.03407 18.0 18
  130.04187 312.0 312
  131.04994 265.0 265
  132.01805 54.0 54
  132.05183 33.0 33
  133.06245 106.0 106
  134.07553 47.0 47
  143.04564 251.0 251
  144.04947 59.0 59
  144.05869 25.0 25
  145.02652 57.0 57
  145.06151 73.0 73
  145.06779 76.0 76
  146.04243 24.0 24
  146.07129 64.0 64
  147.04134 29.0 29
  147.58824 29.0 29
  148.12532 17.0 17
  156.0549 18.0 18
  156.07208 17.0 17
  173.06009 45.0 45
  182.06084 31.0 31
  189.05383 23.0 23
  209.09906 20.0 20
//
