ACCESSION: MSBNK-RIKEN-PR301199
RECORD_TITLE: Acetylaconitine; LC-ESI-QTOF; MS2
DATE: 2019.03.28
AUTHORS: Tetsuya Mori, Center for Sustainable Resource Science, RIKEN
LICENSE: CC BY-NC-SA
PUBLICATION: Tsugawa H., Nakabayashi R., Mori T., Yamada Y., Takahashi M., Rai A., Sugiyama R., Yamamoto H., Nakaya T., Yamazaki M., Kooke R., Bac-Molenaar JA., Oztolan-Erol N., Keurentjes JJB., Arita M., Saito K. (2019) "A cheminformatics approach to characterize metabolomes in stable-isotope-labeled organisms" Nature Methods 16(4):295-298. [doi:10.1038/s41592-019-0358-2]
COMMENT: registered in RIKEN PlaSMA
CH$NAME: Acetylaconitine
CH$COMPOUND_CLASS: Aconitane-type diterpenoid alkaloids
CH$FORMULA: C36H49NO12
CH$EXACT_MASS: 687.783
CH$SMILES: CCN1CC2(COC)[C@H]3C(OC)C4[C@@H]1C3([C@@H]1C[C@@]3(O)C(OC(=O)C5=CC=CC=C5)[C@@H]1[C@]4(OC(C)=O)C(O)[C@@H]3OC)C(CC2OC(C)=O)OC
CH$IUPAC: InChI=1S/C36H49NO12/c1-8-37-16-33(17-43-4)22(47-18(2)38)14-23(44-5)35-21-15-34(42)30(48-32(41)20-12-10-9-11-13-20)24(21)36(49-19(3)39,29(40)31(34)46-7)25(28(35)37)26(45-6)27(33)35/h9-13,21-31,40,42H,8,14-17H2,1-7H3/t21-,22?,23?,24-,25?,26?,27-,28-,29?,30?,31+,33?,34-,35?,36-/m1/s1
CH$LINK: INCHIKEY RIPYIJVYDYCPKW-WEVHBWGYSA-N
AC$INSTRUMENT: LC, Waters Acquity UPLC System; MS, Waters Xevo G2 Q-Tof
AC$INSTRUMENT_TYPE: LC-ESI-QTOF
AC$MASS_SPECTROMETRY: MS_TYPE MS2
AC$MASS_SPECTROMETRY: ION_MODE POSITIVE
AC$MASS_SPECTROMETRY: COLLISION_ENERGY 6V
AC$MASS_SPECTROMETRY: DESOLVATION_GAS_FLOW 800/h
AC$MASS_SPECTROMETRY: DESOLVATION_TEMPERATURE 450 C
AC$MASS_SPECTROMETRY: IONIZATION ESI
AC$CHROMATOGRAPHY: CAPILLARY_VOLTAGE +3.00 kV
AC$CHROMATOGRAPHY: COLUMN_NAME Acquity bridged ethyl hybrid C18 (1.7 um, 2.1 mm * 100 mm, Waters)
AC$CHROMATOGRAPHY: COLUMN_TEMPERATURE 40 C
AC$CHROMATOGRAPHY: FLOW_GRADIENT A/B = (99.5%/0.5% at 0 min, 99.5%/0.5% at 0.1 min, 20%/80% at 10 min, 0.5%/99.5% at 10.1 min, 0.5%/99.5% at 12.0 min, 99.5%/0.5% at 12.1 min, 99.5%/0.5% at 15.0 min)
AC$CHROMATOGRAPHY: FLOW_RATE 0.3 ml/min at 0 min, 0.3 ml/min at 10 min, 0.4 ml/min at 10.1 min, 0.4 ml/min at 14.4 min, 0.3 ml/min at 14.5 min
AC$CHROMATOGRAPHY: RETENTION_TIME 6.173483
AC$CHROMATOGRAPHY: SOLVENT A water including 0.1% formic acid
AC$CHROMATOGRAPHY: SOLVENT B acetonitrile including 0.1% formic acid
MS$FOCUSED_ION: PRECURSOR_TYPE [M+H]+
MS$FOCUSED_ION: PRECURSOR_M/Z 688.3327525
PK$SPLASH: splash10-0a4i-0973330000-ac2a416f7c16396d450c
PK$NUM_PEAK: 589
PK$PEAK: m/z int. rel.int.
  56.05051 5.0 5
  58.0634 18.0 18
  58.06817 12.0 12
  72.7924 5.0 5
  75.04491 42.0 42
  77.02953 13.0 13
  77.03815 10.0 10
  77.0435 6.0 6
  81.03548 6.0 6
  84.07844 8.0 8
  85.02971 17.0 17
  85.06422 5.0 5
  88.07806 22.0 22
  91.05556 11.0 11
  96.0761 7.0 7
  97.06004 9.0 9
  97.06498 9.0 9
  101.05728 5.0 5
  105.01585 13.0 13
  105.03316 1000.0 999
  105.07103 11.0 11
  106.03725 78.0 78
  106.04626 11.0 11
  108.08189 37.0 37
  109.06273 26.0 26
  109.06911 12.0 12
  110.09548 6.0 6
  111.04025 7.0 7
  111.07925 40.0 40
  112.07743 10.0 10
  115.07449 6.0 6
  117.07234 15.0 15
  120.08884 6.0 6
  121.0674 5.0 5
  122.09685 42.0 42
  123.09889 9.0 9
  129.06963 100.0 100
  130.08044 5.0 5
  130.0925 7.0 7
  131.07735 13.0 13
  131.08658 26.0 26
  132.07475 8.0 8
  132.08687 6.0 6
  133.02641 7.0 7
  133.03433 10.0 10
  133.06319 6.0 6
  134.09584 20.0 20
  135.07907 17.0 17
  137.05588 26.0 26
  137.06184 23.0 23
  138.08803 7.0 7
  140.10956 7.0 7
  141.06996 20.0 20
  141.09261 31.0 31
  142.07405 11.0 11
  142.08762 6.0 6
  142.1011 5.0 5
  143.08168 6.0 6
  143.08945 7.0 7
  144.0797 5.0 5
  145.06026 6.0 6
  145.07506 6.0 6
  146.09531 18.0 18
  147.03851 16.0 16
  147.07924 16.0 16
  147.08823 13.0 13
  148.10793 8.0 8
  149.11913 7.0 7
  150.0462 6.0 6
  150.09612 5.0 5
  152.10118 29.0 29
  152.10765 96.0 96
  153.07706 9.0 9
  153.10367 8.0 8
  153.11676 9.0 9
  153.12303 5.0 5
  154.11746 9.0 9
  155.08638 23.0 23
  155.09644 6.0 6
  157.06705 7.0 7
  158.07394 13.0 13
  158.09741 22.0 22
  159.04417 5.0 5
  159.0835 38.0 38
  159.09573 6.0 6
  160.10873 24.0 24
  161.09395 46.0 46
  162.08162 6.0 6
  162.09253 12.0 12
  162.10287 8.0 8
  164.07391 6.0 6
  164.10838 21.0 21
  165.05037 20.0 20
  165.05998 16.0 16
  165.07468 10.0 10
  166.07466 6.0 6
  167.06787 9.0 9
  167.0842 36.0 36
  169.07027 14.0 14
  170.06537 7.0 7
  171.08138 8.0 8
  171.09805 8.0 8
  171.11018 10.0 10
  172.11508 23.0 23
  173.11613 6.0 6
  173.12331 6.0 6
  174.09047 127.0 127
  174.09964 49.0 49
  174.12579 14.0 14
  175.07059 5.0 5
  175.08395 10.0 10
  175.09358 43.0 43
  177.05251 7.0 7
  177.05928 9.0 9
  177.0697 7.0 7
  178.0713 6.0 6
  178.07971 14.0 14
  178.10736 6.0 6
  178.13 12.0 12
  179.08174 31.0 31
  179.09166 22.0 22
  180.0914 7.0 7
  180.09853 9.0 9
  181.0652 5.0 5
  181.07635 9.0 9
  181.09763 15.0 15
  182.07477 8.0 8
  182.09756 9.0 9
  182.1058 5.0 5
  182.11667 8.0 8
  183.07996 18.0 18
  183.10164 9.0 9
  184.1067 35.0 35
  184.11594 22.0 22
  185.0972 6.0 6
  185.10939 10.0 10
  185.12801 8.0 8
  186.11963 30.0 30
  186.13184 42.0 42
  187.07614 8.0 8
  188.07092 49.0 49
  188.14366 5.0 5
  189.07683 11.0 11
  189.08669 18.0 18
  189.09296 7.0 7
  190.07974 38.0 38
  190.09181 12.0 12
  190.12225 37.0 37
  191.09042 15.0 15
  192.08383 5.0 5
  192.09068 14.0 14
  192.10458 5.0 5
  193.09323 13.0 13
  193.10139 10.0 10
  194.10213 12.0 12
  195.05772 7.0 7
  195.08432 44.0 44
  196.08675 8.0 8
  196.10161 5.0 5
  196.11432 20.0 20
  197.09395 11.0 11
  197.11388 18.0 18
  198.09036 6.0 6
  198.12619 12.0 12
  198.13327 11.0 11
  199.0778 8.0 8
  199.11012 11.0 11
  199.12161 8.0 8
  200.10886 11.0 11
  202.06924 21.0 21
  202.08337 19.0 19
  202.09102 24.0 24
  202.11952 36.0 36
  203.08398 30.0 30
  203.09537 21.0 21
  203.13136 10.0 10
  203.1405 6.0 6
  204.08847 10.0 10
  204.09668 15.0 15
  204.14082 8.0 8
  205.08627 13.0 13
  205.09949 53.0 53
  205.11072 51.0 51
  205.14343 7.0 7
  206.09479 12.0 12
  206.10829 11.0 11
  206.1566 6.0 6
  207.0692 8.0 8
  207.0826 33.0 33
  207.11884 22.0 22
  208.08289 12.0 12
  208.10768 9.0 9
  208.12 8.0 8
  209.0959 9.0 9
  209.12498 6.0 6
  210.06342 6.0 6
  210.12463 6.0 6
  210.153 5.0 5
  211.06624 6.0 6
  211.11395 6.0 6
  211.14735 5.0 5
  214.1093 6.0 6
  215.08836 33.0 33
  215.11809 12.0 12
  216.09213 8.0 8
  216.10312 12.0 12
  216.1297 7.0 7
  216.1395 13.0 13
  217.07835 6.0 6
  217.09856 66.0 66
  218.0706 20.0 20
  218.10178 8.0 8
  218.11281 6.0 6
  218.15253 225.0 225
  218.1619 50.0 50
  218.18179 6.0 6
  219.07544 13.0 13
  219.08437 10.0 10
  219.11659 18.0 18
  219.16277 24.0 24
  220.08476 20.0 20
  220.10127 13.0 13
  220.11517 19.0 19
  221.08929 36.0 36
  221.10522 21.0 21
  222.12715 12.0 12
  223.07622 11.0 11
  223.10274 6.0 6
  223.11644 17.0 17
  223.12811 7.0 7
  224.09949 8.0 8
  224.11125 9.0 9
  224.14095 5.0 5
  225.09642 14.0 14
  225.12808 6.0 6
  226.12187 10.0 10
  227.11238 7.0 7
  227.12566 11.0 11
  228.13481 8.0 8
  229.08168 5.0 5
  229.09238 13.0 13
  230.11128 6.0 6
  230.1442 7.0 7
  230.1626 5.0 5
  231.08003 9.0 9
  231.1082 8.0 8
  232.08415 11.0 11
  232.12537 6.0 6
  233.07831 15.0 15
  233.09697 92.0 92
  234.07727 6.0 6
  234.09491 35.0 35
  234.11107 19.0 19
  234.12442 16.0 16
  235.076 6.0 6
  235.11201 62.0 62
  235.13913 6.0 6
  236.07301 7.0 7
  236.0842 6.0 6
  236.0952 10.0 10
  236.11307 12.0 12
  237.09444 17.0 17
  237.12105 9.0 9
  237.13269 17.0 17
  238.10762 5.0 5
  238.12778 12.0 12
  239.103 10.0 10
  239.11909 7.0 7
  240.10201 6.0 6
  240.13852 8.0 8
  241.08505 9.0 9
  241.10878 7.0 7
  241.12875 5.0 5
  242.11696 9.0 9
  242.15237 10.0 10
  243.07918 11.0 11
  243.09065 6.0 6
  244.0959 7.0 7
  244.17006 7.0 7
  245.07553 8.0 8
  245.09593 27.0 27
  245.11992 9.0 9
  246.09683 13.0 13
  247.07646 12.0 12
  247.10524 5.0 5
  247.11841 27.0 27
  247.13817 11.0 11
  248.07269 7.0 7
  248.08282 9.0 9
  248.09734 11.0 11
  248.11436 17.0 17
  248.12654 9.0 9
  248.15469 6.0 6
  249.07713 10.0 10
  249.09003 20.0 20
  249.12 19.0 19
  249.15884 8.0 8
  250.08936 8.0 8
  250.10013 13.0 13
  250.11336 8.0 8
  250.12711 6.0 6
  250.14082 11.0 11
  251.10994 26.0 26
  252.10669 17.0 17
  252.13519 15.0 15
  253.10915 13.0 13
  253.12819 13.0 13
  253.13452 6.0 6
  254.15556 5.0 5
  256.08148 7.0 7
  256.09555 6.0 6
  257.11105 6.0 6
  258.13971 5.0 5
  259.1124 11.0 11
  260.09805 6.0 6
  261.09457 68.0 68
  262.08664 14.0 14
  262.10229 9.0 9
  262.12521 9.0 9
  262.15787 39.0 39
  263.07104 7.0 7
  263.10269 27.0 27
  263.11609 16.0 16
  264.10257 6.0 6
  264.12155 10.0 10
  264.13278 13.0 13
  265.11359 16.0 16
  265.12573 31.0 31
  266.13196 5.0 5
  266.16437 5.0 5
  267.1001 6.0 6
  267.12656 12.0 12
  268.14813 6.0 6
  269.15317 5.0 5
  269.20828 6.0 6
  269.91489 6.0 6
  270.1319 5.0 5
  270.14713 5.0 5
  271.13062 5.0 5
  272.12885 5.0 5
  272.14252 19.0 19
  273.10196 12.0 12
  275.10172 6.0 6
  276.13055 12.0 12
  276.15729 6.0 6
  276.95673 5.0 5
  277.09537 11.0 11
  277.13437 5.0 5
  277.15143 15.0 15
  278.12149 9.0 9
  278.15512 18.0 18
  279.09775 12.0 12
  279.11868 6.0 6
  279.1427 6.0 6
  279.15576 11.0 11
  280.1412 18.0 18
  280.18268 7.0 7
  281.12753 5.0 5
  281.15811 9.0 9
  281.17841 5.0 5
  284.22266 7.0 7
  288.10837 7.0 7
  288.1283 8.0 8
  289.14832 7.0 7
  290.1188 6.0 6
  290.15179 47.0 47
  291.12445 10.0 10
  291.15234 6.0 6
  291.16415 10.0 10
  292.11179 6.0 6
  292.12961 7.0 7
  293.10468 9.0 9
  293.1236 40.0 40
  293.18079 7.0 7
  294.15228 7.0 7
  295.12973 5.0 5
  295.16342 7.0 7
  296.10828 7.0 7
  296.1673 20.0 20
  297.13483 5.0 5
  297.15686 8.0 8
  298.15863 7.0 7
  300.13922 6.0 6
  301.14789 15.0 15
  304.0943 6.0 6
  304.13281 18.0 18
  304.17319 8.0 8
  305.14023 34.0 34
  306.10477 6.0 6
  306.14731 54.0 54
  307.1405 12.0 12
  308.18396 5.0 5
  309.14151 12.0 12
  310.1113 14.0 14
  310.15448 7.0 7
  310.18234 15.0 15
  311.11954 6.0 6
  318.14615 36.0 36
  319.1524 6.0 6
  320.12787 15.0 15
  322.1629 23.0 23
  322.17883 53.0 53
  323.18951 33.0 33
  324.1489 11.0 11
  324.16931 9.0 9
  325.14957 8.0 8
  326.125 6.0 6
  326.20422 19.0 19
  326.22147 9.0 9
  326.23059 6.0 6
  327.20447 5.0 5
  327.21805 9.0 9
  328.1749 7.0 7
  328.19873 7.0 7
  332.15387 6.0 6
  333.18988 7.0 7
  335.15115 8.0 8
  336.13641 6.0 6
  336.1604 11.0 11
  336.19019 7.0 7
  337.68097 5.0 5
  338.16986 5.0 5
  338.18817 6.0 6
  340.18115 6.0 6
  340.19507 7.0 7
  341.19312 10.0 10
  343.14883 8.0 8
  350.13831 5.0 5
  350.17661 106.0 106
  351.16589 13.0 13
  351.18384 15.0 15
  352.19232 19.0 19
  354.13879 6.0 6
  354.20319 238.0 238
  355.08789 6.0 6
  355.14481 6.0 6
  355.207 77.0 77
  355.22406 21.0 21
  355.24057 5.0 5
  356.21783 11.0 11
  358.23035 6.0 6
  358.2598 6.0 6
  364.13458 10.0 10
  366.16946 9.0 9
  367.18768 8.0 8
  368.17606 9.0 9
  369.19153 8.0 8
  370.11859 7.0 7
  372.23972 5.0 5
  373.14926 5.0 5
  378.18488 5.0 5
  382.19537 52.0 52
  382.21289 21.0 21
  383.20239 5.0 5
  384.20004 8.0 8
  386.22318 27.0 27
  386.23917 43.0 43
  387.18701 9.0 9
  387.21454 7.0 7
  387.2395 14.0 14
  388.229 6.0 6
  396.2254 10.0 10
  400.17374 8.0 8
  400.50906 6.0 6
  401.14139 6.0 6
  402.17749 6.0 6
  410.12967 5.0 5
  410.18323 80.0 80
  410.20288 138.0 138
  411.16605 5.0 5
  411.19559 43.0 43
  411.21603 17.0 17
  411.85352 6.0 6
  412.20221 14.0 14
  412.22061 5.0 5
  414.21368 21.0 21
  414.23419 70.0 70
  415.16187 5.0 5
  415.19086 6.0 6
  415.2301 11.0 11
  415.26007 6.0 6
  416.22113 10.0 10
  418.23746 6.0 6
  418.25964 26.0 26
  418.28735 5.0 5
  427.17932 9.0 9
  429.19992 8.0 8
  429.2121 7.0 7
  430.23529 6.0 6
  436.24445 7.0 7
  440.17642 9.0 9
  440.20374 9.0 9
  444.18091 5.0 5
  444.20654 12.0 12
  444.22122 17.0 17
  445.2251 5.0 5
  446.19019 6.0 6
  446.20331 7.0 7
  446.23483 20.0 20
  446.25577 92.0 92
  446.28186 12.0 12
  446.30429 8.0 8
  447.19504 7.0 7
  447.2619 32.0 32
  447.61932 7.0 7
  448.27966 8.0 8
  450.24014 7.0 7
  459.21085 8.0 8
  460.21582 8.0 8
  460.22787 19.0 19
  461.23639 20.0 20
  462.25186 9.0 9
  464.19638 5.0 5
  472.21042 25.0 25
  472.22586 11.0 11
  474.23419 7.0 7
  476.18198 6.0 6
  476.22729 68.0 68
  476.2453 155.0 155
  477.24213 46.0 46
  478.2186 44.0 44
  478.23071 20.0 20
  478.26465 7.0 7
  479.2215 12.0 12
  481.20135 5.0 5
  492.2002 5.0 5
  492.24091 11.0 11
  492.26089 5.0 5
  497.23486 5.0 5
  504.14319 5.0 5
  504.21201 16.0 16
  504.23758 84.0 84
  504.25134 38.0 38
  505.20483 8.0 8
  505.22949 19.0 19
  505.24594 42.0 42
  506.22656 13.0 13
  506.24295 9.0 9
  506.26495 8.0 8
  508.19073 9.0 9
  508.25555 33.0 33
  508.27792 25.0 25
  509.24384 6.0 6
  509.26529 9.0 9
  510.26056 17.0 17
  510.28296 7.0 7
  511.24243 9.0 9
  518.26672 8.0 8
  522.23035 7.0 7
  522.26459 15.0 15
  524.27252 7.0 7
  531.14581 5.0 5
  536.20172 13.0 13
  536.26495 255.0 255
  537.24591 25.0 25
  537.26794 85.0 85
  537.29932 18.0 18
  538.25964 8.0 8
  538.27679 5.0 5
  564.24213 11.0 11
  564.26636 12.0 12
  565.25543 11.0 11
  566.29022 8.0 8
  568.23724 11.0 11
  568.27356 73.0 73
  568.29156 168.0 168
  568.34332 6.0 6
  569.26996 18.0 18
  569.29889 57.0 57
  569.31775 25.0 25
  570.29877 15.0 15
  571.31116 6.0 6
  596.26147 28.0 28
  596.2793 59.0 59
  596.30627 42.0 42
  597.24963 6.0 6
  597.2774 14.0 14
  597.30457 23.0 23
  597.88611 5.0 5
  598.29395 20.0 20
  628.27576 18.0 18
  628.31158 171.0 171
  629.28174 18.0 18
  629.31256 72.0 72
  629.34552 13.0 13
  630.30109 18.0 18
  630.33624 6.0 6
  688.31982 12.0 12
  688.35229 10.0 10
//
