ACCESSION: MSBNK-RIKEN-PR302856
RECORD_TITLE: Hesperetin-7-O-rutinoside; LC-ESI-QTOF; MS2
DATE: 2019.03.28
AUTHORS: Tetsuya Mori, Center for Sustainable Resource Science, RIKEN
LICENSE: CC BY-NC-SA
PUBLICATION: Tsugawa H., Nakabayashi R., Mori T., Yamada Y., Takahashi M., Rai A., Sugiyama R., Yamamoto H., Nakaya T., Yamazaki M., Kooke R., Bac-Molenaar JA., Oztolan-Erol N., Keurentjes JJB., Arita M., Saito K. (2019) "A cheminformatics approach to characterize metabolomes in stable-isotope-labeled organisms" Nature Methods 16(4):295-298. [doi:10.1038/s41592-019-0358-2]
COMMENT: registered in RIKEN PlaSMA
CH$NAME: Hesperidin
CH$NAME: Cirantin
CH$NAME: Hesperidoside
CH$NAME: (2S)-7-[[6-O-(6-Deoxy-alpha-L-mannopyranosyl)-beta-D-glucopyranosyl]oxy]-2,3-dihydro-5-hydroxy-2-(3-hydroxy-4-methoxyphenyl)-4H-1-benzopyran-4-one
CH$NAME: (2S)-5-hydroxy-2-(3-hydroxy-4-methoxy-phenyl)-7-[(2S,3R,4S,5R,6R)-3,4,5-trihydroxy-6-[[(2R,3R,4R,5S,6S)-3,4,5-trihydroxy-6-methyl-oxan-2-yl]oxymethyl]oxan-2-yl]oxy-chroman-4-one
CH$NAME: Hesp-7-Glc-6pp-Rha
CH$NAME: Hesperetin 7-O-rutinoside
CH$NAME: Hesperetin 7-rhamnoglucoside
CH$COMPOUND_CLASS: Flavonoid-7-O-glycosides
CH$FORMULA: C28H34O15
CH$EXACT_MASS: 610.18977
CH$SMILES: C[C@H]1[C@@H]([C@H]([C@H]([C@@H](O1)OC[C@@H]2[C@H]([C@@H]([C@H]([C@@H](O2)OC3=CC(=C4C(=O)C[C@H](OC4=C3)C5=CC(=C(C=C5)OC)O)O)O)O)O)O)O)O
CH$IUPAC: InChI=1S/C28H34O15/c1-10-21(32)23(34)25(36)27(40-10)39-9-19-22(33)24(35)26(37)28(43-19)41-12-6-14(30)20-15(31)8-17(42-18(20)7-12)11-3-4-16(38-2)13(29)5-11/h3-7,10,17,19,21-30,32-37H,8-9H2,1-2H3/t10-,17-,19+,21-,22+,23+,24-,25+,26+,27+,28+/m0/s1
CH$LINK: CAS 520-26-3
CH$LINK: CHEBI CHEBI:28775
CH$LINK: CHEMSPIDER 10176
CH$LINK: COMPTOX DTXSID9044328
CH$LINK: INCHIKEY QUQPHWDTPGMPEX-QJBIFVCTSA-N
CH$LINK: KEGG C09755
CH$LINK: KNAPSACK C00000970
CH$LINK: NIKKAJI J4.480F
CH$LINK: PUBCHEM CID:10621
AC$INSTRUMENT: LC, Waters Acquity UPLC System; MS, Waters Xevo G2 Q-Tof
AC$INSTRUMENT_TYPE: LC-ESI-QTOF
AC$MASS_SPECTROMETRY: MS_TYPE MS2
AC$MASS_SPECTROMETRY: ION_MODE POSITIVE
AC$MASS_SPECTROMETRY: COLLISION_ENERGY 6V
AC$MASS_SPECTROMETRY: DESOLVATION_GAS_FLOW 800/h
AC$MASS_SPECTROMETRY: DESOLVATION_TEMPERATURE 450 C
AC$MASS_SPECTROMETRY: IONIZATION ESI
AC$CHROMATOGRAPHY: CAPILLARY_VOLTAGE +3.00 kV
AC$CHROMATOGRAPHY: COLUMN_NAME Acquity bridged ethyl hybrid C18 (1.7 um, 2.1 mm * 100 mm, Waters)
AC$CHROMATOGRAPHY: COLUMN_TEMPERATURE 40 C
AC$CHROMATOGRAPHY: FLOW_GRADIENT A/B = (99.5%/0.5% at 0 min, 99.5%/0.5% at 0.1 min, 20%/80% at 10 min, 0.5%/99.5% at 10.1 min, 0.5%/99.5% at 12.0 min, 99.5%/0.5% at 12.1 min, 99.5%/0.5% at 15.0 min)
AC$CHROMATOGRAPHY: FLOW_RATE 0.3 ml/min at 0 min, 0.3 ml/min at 10 min, 0.4 ml/min at 10.1 min, 0.4 ml/min at 14.4 min, 0.3 ml/min at 14.5 min
AC$CHROMATOGRAPHY: RETENTION_TIME 4.507534
AC$CHROMATOGRAPHY: SOLVENT A water including 0.1% formic acid
AC$CHROMATOGRAPHY: SOLVENT B acetonitrile including 0.1% formic acid
MS$FOCUSED_ION: PRECURSOR_TYPE [M+H]+
MS$FOCUSED_ION: PRECURSOR_M/Z 611.1970468
PK$SPLASH: splash10-0ufr-1911000000-3dc9ab7356c1a9acf4f2
PK$NUM_PEAK: 85
PK$PEAK: m/z int. rel.int.
  69.03424 35.0 35
  71.04483 46.0 46
  71.05342 111.0 111
  72.05147 22.0 22
  79.04991 35.0 35
  81.02388 38.0 38
  85.02663 206.0 206
  85.03214 169.0 169
  86.03831 47.0 47
  87.04333 22.0 22
  97.03164 39.0 39
  119.04503 43.0 43
  125.05394 55.0 55
  125.06533 39.0 39
  130.05927 39.0 39
  131.05049 34.0 34
  135.04626 26.0 26
  136.04541 27.0 27
  137.05855 57.0 57
  145.02875 82.0 82
  146.02394 23.0 23
  149.05775 70.0 70
  151.0426 43.0 43
  153.01651 917.0 916
  154.01285 33.0 33
  154.01924 122.0 122
  154.03169 26.0 26
  158.83913 25.0 25
  163.04295 79.0 79
  165.01244 52.0 52
  165.02252 99.0 99
  167.01907 26.0 26
  175.08165 70.0 70
  177.05539 1000.0 999
  178.05612 49.0 49
  178.0672 49.0 49
  179.0152 38.0 38
  179.03189 81.0 81
  179.0405 57.0 57
  183.03857 30.0 30
  186.03162 29.0 29
  186.05832 26.0 26
  189.02179 47.0 47
  190.05829 22.0 22
  190.78473 23.0 23
  191.03067 59.0 59
  191.04121 23.0 23
  193.38658 23.0 23
  193.74881 22.0 22
  193.77176 31.0 31
  194.07477 26.0 26
  195.01462 33.0 33
  195.02748 389.0 389
  195.03931 43.0 43
  196.01967 26.0 26
  196.02847 30.0 30
  202.98805 22.0 22
  203.02393 69.0 69
  203.03789 94.0 94
  204.04108 31.0 31
  217.00894 29.0 29
  217.05699 22.0 22
  219.02348 52.0 52
  219.03424 53.0 53
  220.03987 47.0 47
  231.02382 27.0 27
  232.02733 40.0 40
  245.03433 59.0 59
  245.05614 29.0 29
  246.05064 34.0 34
  260.28644 22.0 22
  263.05023 57.0 57
  265.38184 59.0 59
  273.94675 27.0 27
  285.0506 25.0 25
  285.078 35.0 35
  292.05096 36.0 36
  301.07059 40.0 40
  303.06152 48.0 48
  303.08997 346.0 346
  304.07892 43.0 43
  304.52512 22.0 22
  316.08038 26.0 26
  335.08566 26.0 26
  353.12012 36.0 36
//
