ACCESSION: MSBNK-RIKEN-PR307075
RECORD_TITLE: Sinapic acid; LC-ESI-QTOF; MS2
DATE: 2019.03.28
AUTHORS: Tetsuya Mori, Center for Sustainable Resource Science, RIKEN
LICENSE: CC BY-NC-SA
PUBLICATION: Tsugawa H., Nakabayashi R., Mori T., Yamada Y., Takahashi M., Rai A., Sugiyama R., Yamamoto H., Nakaya T., Yamazaki M., Kooke R., Bac-Molenaar JA., Oztolan-Erol N., Keurentjes JJB., Arita M., Saito K. (2019) "A cheminformatics approach to characterize metabolomes in stable-isotope-labeled organisms" Nature Methods 16(4):295-298. [doi:10.1038/s41592-019-0358-2]
COMMENT: registered in RIKEN PlaSMA
CH$NAME: Sinapic acid
CH$NAME: 3,5-dimethoxy-4-hydroxycinnamic acid
CH$NAME: 3-(4-hydroxy-3,5-dimethoxy-phenyl)prop-2-enoic acid
CH$COMPOUND_CLASS: Hydroxycinnamic acids
CH$FORMULA: C11H12O5
CH$EXACT_MASS: 224.06847
CH$SMILES: COC1=CC(=CC(=C1O)OC)/C=C/C(=O)O
CH$IUPAC: InChI=1S/C11H12O5/c1-15-8-5-7(3-4-10(12)13)6-9(16-2)11(8)14/h3-6,14H,1-2H3,(H,12,13)/b4-3+
CH$LINK: CAS 530-59-6
CH$LINK: CHEBI CHEBI:15714
CH$LINK: CHEMSPIDER 553361
CH$LINK: COMPTOX DTXSID40862129
CH$LINK: INCHIKEY PCMORTLOPMLEFB-ONEGZZNKSA-N
CH$LINK: KAPPAVIEW KPC00975
CH$LINK: KEGG C00482
CH$LINK: KNAPSACK C00002776
CH$LINK: NIKKAJI J11.713G
CH$LINK: PUBCHEM CID:637775
AC$INSTRUMENT: LC, Waters Acquity UPLC System; MS, Waters Xevo G2 Q-Tof
AC$INSTRUMENT_TYPE: LC-ESI-QTOF
AC$MASS_SPECTROMETRY: MS_TYPE MS2
AC$MASS_SPECTROMETRY: ION_MODE NEGATIVE
AC$MASS_SPECTROMETRY: COLLISION_ENERGY 6V
AC$MASS_SPECTROMETRY: DESOLVATION_GAS_FLOW 800/h
AC$MASS_SPECTROMETRY: DESOLVATION_TEMPERATURE 450 C
AC$MASS_SPECTROMETRY: IONIZATION ESI
AC$CHROMATOGRAPHY: CAPILLARY_VOLTAGE -2.75 kV
AC$CHROMATOGRAPHY: COLUMN_NAME Acquity bridged ethyl hybrid C18 (1.7 um, 2.1 mm * 100 mm, Waters)
AC$CHROMATOGRAPHY: COLUMN_TEMPERATURE 40 C
AC$CHROMATOGRAPHY: FLOW_GRADIENT A/B = (99.5%/0.5% at 0 min, 99.5%/0.5% at 0.1 min, 20%/80% at 10 min, 0.5%/99.5% at 10.1 min, 0.5%/99.5% at 12.0 min, 99.5%/0.5% at 12.1 min, 99.5%/0.5% at 15.0 min)
AC$CHROMATOGRAPHY: FLOW_RATE 0.3 ml/min at 0 min, 0.3 ml/min at 10 min, 0.4 ml/min at 10.1 min, 0.4 ml/min at 14.4 min, 0.3 ml/min at 14.5 min
AC$CHROMATOGRAPHY: RETENTION_TIME 4.2102
AC$CHROMATOGRAPHY: SOLVENT A water including 0.1% formic acid
AC$CHROMATOGRAPHY: SOLVENT B acetonitrile including 0.1% formic acid
MS$FOCUSED_ION: PRECURSOR_TYPE [M-H]-
MS$FOCUSED_ION: PRECURSOR_M/Z 223.06119704783
PK$SPLASH: splash10-0c00-0490000000-ee52feedba2a23be824d
PK$NUM_PEAK: 21
PK$PEAK: m/z int. rel.int.
  64.73589 8.0 8
  133.51753 5.0 5
  134.03595 6.0 6
  135.04465 12.0 12
  147.04675 6.0 6
  149.02237 94.0 94
  163.0374 45.0 45
  164.04701 521.0 520
  165.04874 67.0 67
  166.01735 5.0 5
  179.07082 214.0 214
  180.07346 22.0 22
  193.01578 92.0 92
  194.02493 9.0 9
  201.62973 7.0 7
  208.03593 901.0 900
  209.04048 126.0 126
  210.04466 19.0 19
  210.49872 6.0 6
  223.02164 5.0 5
  223.05991 1000.0 999
//
