ACCESSION: MSBNK-RIKEN-PR301585
RECORD_TITLE: Vincamine; LC-ESI-QTOF; MS2
DATE: 2019.03.28
AUTHORS: Tetsuya Mori, Center for Sustainable Resource Science, RIKEN
LICENSE: CC BY-NC-SA
PUBLICATION: Tsugawa H., Nakabayashi R., Mori T., Yamada Y., Takahashi M., Rai A., Sugiyama R., Yamamoto H., Nakaya T., Yamazaki M., Kooke R., Bac-Molenaar JA., Oztolan-Erol N., Keurentjes JJB., Arita M., Saito K. (2019) "A cheminformatics approach to characterize metabolomes in stable-isotope-labeled organisms" Nature Methods 16(4):295-298. [doi:10.1038/s41592-019-0358-2]
COMMENT: registered in RIKEN PlaSMA
CH$NAME: Vincamine
CH$COMPOUND_CLASS: Eburnan-type alkaloids
CH$FORMULA: C21H26N2O3
CH$EXACT_MASS: 354.45
CH$SMILES: CCC12CCCN3CCC4=C(C13)N(C1=CC=CC=C41)C(O)(C2)C(=O)OC
CH$IUPAC: InChI=1S/C21H26N2O3/c1-3-20-10-6-11-22-12-9-15-14-7-4-5-8-16(14)23(17(15)18(20)22)21(25,13-20)19(24)26-2/h4-5,7-8,18,25H,3,6,9-13H2,1-2H3
CH$LINK: INCHIKEY RXPRRQLKFXBCSJ-UHFFFAOYSA-N
AC$INSTRUMENT: LC, Waters Acquity UPLC System; MS, Waters Xevo G2 Q-Tof
AC$INSTRUMENT_TYPE: LC-ESI-QTOF
AC$MASS_SPECTROMETRY: MS_TYPE MS2
AC$MASS_SPECTROMETRY: ION_MODE POSITIVE
AC$MASS_SPECTROMETRY: COLLISION_ENERGY 6V
AC$MASS_SPECTROMETRY: DESOLVATION_GAS_FLOW 800/h
AC$MASS_SPECTROMETRY: DESOLVATION_TEMPERATURE 450 C
AC$MASS_SPECTROMETRY: IONIZATION ESI
AC$CHROMATOGRAPHY: CAPILLARY_VOLTAGE +3.00 kV
AC$CHROMATOGRAPHY: COLUMN_NAME Acquity bridged ethyl hybrid C18 (1.7 um, 2.1 mm * 100 mm, Waters)
AC$CHROMATOGRAPHY: COLUMN_TEMPERATURE 40 C
AC$CHROMATOGRAPHY: FLOW_GRADIENT A/B = (99.5%/0.5% at 0 min, 99.5%/0.5% at 0.1 min, 20%/80% at 10 min, 0.5%/99.5% at 10.1 min, 0.5%/99.5% at 12.0 min, 99.5%/0.5% at 12.1 min, 99.5%/0.5% at 15.0 min)
AC$CHROMATOGRAPHY: FLOW_RATE 0.3 ml/min at 0 min, 0.3 ml/min at 10 min, 0.4 ml/min at 10.1 min, 0.4 ml/min at 14.4 min, 0.3 ml/min at 14.5 min
AC$CHROMATOGRAPHY: RETENTION_TIME 4.50125
AC$CHROMATOGRAPHY: SOLVENT A water including 0.1% formic acid
AC$CHROMATOGRAPHY: SOLVENT B acetonitrile including 0.1% formic acid
MS$FOCUSED_ION: PRECURSOR_TYPE [M+H]+
MS$FOCUSED_ION: PRECURSOR_M/Z 355.2016192
PK$SPLASH: splash10-0i03-0490000000-0924884ae263b75af7a3
PK$NUM_PEAK: 526
PK$PEAK: m/z int. rel.int.
  55.05263 6.0 6
  56.05099 12.0 12
  59.01675 6.0 6
  67.04713 7.0 7
  67.05354 55.0 55
  68.05979 7.0 7
  69.06256 10.0 10
  69.0714 7.0 7
  70.06247 8.0 8
  70.0661 10.0 10
  77.04095 50.0 50
  79.04863 9.0 9
  79.05399 45.0 45
  80.05096 14.0 14
  81.03262 7.0 7
  81.05018 8.0 8
  81.05856 6.0 6
  81.0688 14.0 14
  81.07278 18.0 18
  82.06915 14.0 14
  83.0433 6.0 6
  83.04923 46.0 46
  84.0741 7.0 7
  84.08347 9.0 9
  85.07123 8.0 8
  87.44479 5.0 5
  91.05566 174.0 174
  91.0871 6.0 6
  93.04077 6.0 6
  93.06123 7.0 7
  93.06796 11.0 11
  93.07369 20.0 20
  93.67918 5.0 5
  94.06482 16.0 16
  95.05181 19.0 19
  95.06664 5.0 5
  95.07858 30.0 30
  95.08605 110.0 110
  96.05174 10.0 10
  96.08229 12.0 12
  96.08687 12.0 12
  98.09018 7.0 7
  100.85833 11.0 11
  102.04945 5.0 5
  103.0509 13.0 13
  103.05671 44.0 44
  104.05417 7.0 7
  105.07007 77.0 77
  106.06814 10.0 10
  106.08105 13.0 13
  107.00416 5.0 5
  107.05721 7.0 7
  107.08485 65.0 65
  108.08018 53.0 53
  108.08966 9.0 9
  108.13038 15.0 15
  109.06178 10.0 10
  109.06976 7.0 7
  109.08326 9.0 9
  109.10558 18.0 18
  110.08672 14.0 14
  110.09692 53.0 53
  111.09466 17.0 17
  111.10343 13.0 13
  112.10914 25.0 25
  115.03146 7.0 7
  115.05672 164.0 164
  116.04883 11.0 11
  117.05907 34.0 34
  117.07059 156.0 156
  117.86827 10.0 10
  118.0687 40.0 40
  119.05604 8.0 8
  119.06748 15.0 15
  119.07381 15.0 15
  119.08765 7.0 7
  120.04266 14.0 14
  120.05099 7.0 7
  120.08119 16.0 16
  121.06407 6.0 6
  121.07985 7.0 7
  121.0866 6.0 6
  122.05972 20.0 20
  122.09738 42.0 42
  123.07879 31.0 31
  123.09451 6.0 6
  123.10236 12.0 12
  123.99062 5.0 5
  124.06725 13.0 13
  124.07524 18.0 18
  124.10287 9.0 9
  124.11253 110.0 110
  124.15628 6.0 6
  125.07841 7.0 7
  125.11362 22.0 22
  125.12228 8.0 8
  126.11893 12.0 12
  127.05381 52.0 52
  128.02861 5.0 5
  128.048 28.0 28
  128.0569 16.0 16
  128.06677 19.0 19
  129.06902 56.0 56
  130.062 68.0 68
  130.06934 40.0 40
  130.07549 15.0 15
  131.02499 6.0 6
  131.05154 8.0 8
  131.06973 31.0 31
  131.07765 31.0 31
  132.04494 7.0 7
  132.08176 43.0 43
  133.08086 6.0 6
  133.87178 6.0 6
  134.09785 107.0 107
  135.08458 16.0 16
  135.0995 11.0 11
  135.11053 10.0 10
  136.07149 16.0 16
  136.1142 8.0 8
  138.09618 6.0 6
  140.04784 10.0 10
  141.07202 20.0 20
  141.75688 7.0 7
  142.06383 17.0 17
  142.07758 10.0 10
  143.07321 244.0 244
  144.00697 7.0 7
  144.04817 9.0 9
  144.06476 34.0 34
  144.08112 819.0 818
  145.08051 47.0 47
  145.08846 76.0 76
  146.07936 14.0 14
  146.10364 12.0 12
  146.79692 7.0 7
  147.10507 7.0 7
  149.0952 5.0 5
  150.06984 5.0 5
  150.11401 7.0 7
  151.05418 5.0 5
  151.07616 10.0 10
  151.48224 5.0 5
  152.05928 5.0 5
  152.06708 5.0 5
  152.09511 10.0 10
  152.106 76.0 76
  152.12204 11.0 11
  153.06766 7.0 7
  153.07549 12.0 12
  153.10602 20.0 20
  153.11761 10.0 10
  154.06628 26.0 26
  154.082 35.0 35
  154.45979 7.0 7
  155.07114 7.0 7
  155.07986 16.0 16
  156.05489 6.0 6
  156.07471 42.0 42
  156.08394 34.0 34
  157.0555 5.0 5
  157.08055 12.0 12
  157.08745 19.0 19
  157.09433 8.0 8
  157.31198 6.0 6
  158.0511 8.0 8
  158.06308 11.0 11
  158.09384 41.0 41
  158.10193 20.0 20
  158.24155 9.0 9
  161.03879 8.0 8
  162.09015 36.0 36
  162.29672 5.0 5
  163.11333 5.0 5
  164.05629 6.0 6
  164.06863 5.0 5
  164.10445 15.0 15
  164.7249 5.0 5
  165.04774 5.0 5
  165.07494 65.0 65
  166.05353 13.0 13
  166.06834 27.0 27
  166.08167 14.0 14
  166.10103 7.0 7
  167.0547 5.0 5
  167.06836 41.0 41
  167.07497 122.0 122
  167.08748 11.0 11
  168.03616 9.0 9
  168.08128 154.0 154
  169.05199 10.0 10
  169.07304 5.0 5
  169.08623 60.0 60
  169.09729 8.0 8
  170.0482 7.0 7
  170.06297 22.0 22
  170.08162 22.0 22
  170.09393 25.0 25
  170.11526 6.0 6
  170.90652 7.0 7
  171.03136 8.0 8
  171.0687 6.0 6
  171.10416 6.0 6
  172.10904 10.0 10
  173.08705 6.0 6
  174.06638 5.0 5
  174.09267 6.0 6
  174.45007 5.0 5
  175.09995 6.0 6
  178.05496 19.0 19
  178.07329 46.0 46
  178.08165 37.0 37
  179.06125 22.0 22
  179.08655 84.0 84
  179.11102 6.0 6
  180.06697 10.0 10
  180.08144 242.0 242
  180.10036 12.0 12
  181.06841 5.0 5
  181.08165 78.0 78
  181.09055 68.0 68
  181.10416 15.0 15
  181.8676 6.0 6
  182.07761 5.0 5
  182.08681 12.0 12
  182.10031 50.0 50
  183.0885 14.0 14
  183.10524 27.0 27
  184.07413 18.0 18
  184.08214 6.0 6
  184.10875 14.0 14
  184.53078 7.0 7
  187.09532 9.0 9
  187.52972 5.0 5
  188.06528 7.0 7
  189.06293 11.0 11
  190.05647 8.0 8
  190.06697 27.0 27
  190.07967 8.0 8
  190.9919 6.0 6
  191.03644 6.0 6
  191.07309 162.0 162
  192.07985 229.0 229
  192.09993 23.0 23
  192.44635 9.0 9
  193.03607 10.0 10
  193.0695 26.0 26
  193.08682 282.0 282
  193.83029 5.0 5
  193.90634 8.0 8
  194.09683 268.0 268
  194.11382 11.0 11
  195.07051 5.0 5
  195.09227 14.0 14
  195.10236 42.0 42
  195.11479 19.0 19
  195.97714 9.0 9
  196.07678 12.0 12
  196.09628 7.0 7
  196.11053 6.0 6
  196.11732 18.0 18
  197.08238 11.0 11
  197.08981 11.0 11
  197.10982 13.0 13
  198.06961 6.0 6
  198.13583 16.0 16
  202.08133 47.0 47
  202.12343 5.0 5
  203.06395 12.0 12
  203.07799 16.0 16
  203.08585 6.0 6
  204.05399 8.0 8
  204.08089 586.0 585
  204.24298 19.0 19
  204.94786 5.0 5
  205.05757 22.0 22
  205.08577 288.0 288
  205.09444 137.0 137
  205.11595 7.0 7
  205.73329 5.0 5
  205.98483 6.0 6
  206.05606 28.0 28
  206.06837 38.0 38
  206.08484 59.0 59
  206.09746 377.0 377
  207.07387 5.0 5
  207.07983 14.0 14
  207.09659 71.0 71
  207.10719 99.0 99
  207.11563 29.0 29
  208.07466 17.0 17
  208.09795 27.0 27
  208.11307 261.0 261
  208.12735 24.0 24
  209.08681 16.0 16
  209.10431 19.0 19
  209.11617 67.0 67
  210.09326 29.0 29
  210.11174 12.0 12
  210.12529 46.0 46
  210.74298 7.0 7
  211.09822 7.0 7
  211.13358 5.0 5
  212.10136 6.0 6
  213.62897 6.0 6
  215.08231 15.0 15
  216.0808 35.0 35
  216.09566 12.0 12
  217.06131 15.0 15
  217.07848 95.0 95
  217.08699 97.0 97
  217.09787 24.0 24
  217.10939 11.0 11
  218.05675 10.0 10
  218.07486 36.0 36
  218.0968 442.0 442
  219.08339 37.0 37
  219.10327 274.0 274
  219.1669 7.0 7
  220.06783 22.0 22
  220.09003 44.0 44
  220.11272 392.0 392
  220.24864 6.0 6
  221.05817 5.0 5
  221.07184 5.0 5
  221.09146 13.0 13
  221.11903 199.0 199
  222.04649 5.0 5
  222.08861 27.0 27
  222.1086 15.0 15
  222.12021 68.0 68
  222.13274 91.0 91
  222.89494 6.0 6
  223.06171 7.0 7
  223.07832 5.0 5
  223.10912 5.0 5
  223.12433 14.0 14
  223.13936 6.0 6
  224.06895 14.0 14
  224.1127 5.0 5
  224.1299 29.0 29
  224.13808 15.0 15
  224.15154 19.0 19
  224.9985 5.0 5
  225.07999 7.0 7
  225.11853 6.0 6
  226.0701 13.0 13
  227.64452 5.0 5
  228.07533 6.0 6
  229.08432 5.0 5
  230.07922 7.0 7
  230.09146 28.0 28
  230.10202 29.0 29
  231.07504 5.0 5
  231.09895 65.0 65
  231.11331 39.0 39
  231.3644 7.0 7
  232.06635 8.0 8
  232.07663 25.0 25
  232.08607 21.0 21
  232.10068 36.0 36
  232.1131 125.0 125
  232.12369 23.0 23
  232.20689 7.0 7
  233.07042 10.0 10
  233.08311 47.0 47
  233.09792 13.0 13
  233.117 116.0 116
  233.27615 8.0 8
  234.0856 30.0 30
  234.10384 6.0 6
  234.12703 220.0 220
  235.10875 20.0 20
  235.12656 44.0 44
  235.13499 42.0 42
  235.15053 7.0 7
  236.07248 13.0 13
  236.14474 46.0 46
  237.08253 43.0 43
  237.10338 10.0 10
  237.14217 57.0 57
  238.07468 35.0 35
  238.08849 166.0 166
  238.11569 10.0 10
  238.12598 7.0 7
  239.01538 8.0 8
  239.08818 79.0 79
  239.09763 30.0 30
  240.09938 11.0 11
  240.15691 7.0 7
  241.09465 7.0 7
  243.10326 8.0 8
  244.08586 9.0 9
  244.104 14.0 14
  244.1183 31.0 31
  244.64655 12.0 12
  245.10809 7.0 7
  246.08626 5.0 5
  246.09804 21.0 21
  246.11652 18.0 18
  246.13193 12.0 12
  247.11543 58.0 58
  247.13033 33.0 33
  247.76694 7.0 7
  248.06311 14.0 14
  248.09601 9.0 9
  248.10507 20.0 20
  248.12292 52.0 52
  248.14082 56.0 56
  248.15303 17.0 17
  249.07155 27.0 27
  249.08876 7.0 7
  249.10892 18.0 18
  249.14313 24.0 24
  250.07492 40.0 40
  250.08963 268.0 268
  250.13327 10.0 10
  250.14595 6.0 6
  250.51329 9.0 9
  251.09578 315.0 315
  251.14597 7.0 7
  252.02985 5.0 5
  252.07684 11.0 11
  252.08998 68.0 68
  252.10268 210.0 210
  252.12688 10.0 10
  252.16588 12.0 12
  252.64706 6.0 6
  253.07443 6.0 6
  253.09644 36.0 36
  253.11121 69.0 69
  253.12029 21.0 21
  254.10997 19.0 19
  254.97501 6.0 6
  257.10809 5.0 5
  257.12622 9.0 9
  258.11636 7.0 7
  259.14563 7.0 7
  260.15817 7.0 7
  261.02246 5.0 5
  261.10898 12.0 12
  261.15082 6.0 6
  262.06244 7.0 7
  262.08276 15.0 15
  262.13342 15.0 15
  262.14932 7.0 7
  263.09595 31.0 31
  263.11398 25.0 25
  263.13968 11.0 11
  264.04251 7.0 7
  264.10226 1000.0 999
  264.13345 22.0 22
  264.46359 5.0 5
  265.03107 8.0 8
  265.0751 24.0 24
  265.10602 527.0 526
  266.05865 11.0 11
  266.09393 27.0 27
  266.11768 448.0 448
  266.14163 18.0 18
  266.50284 8.0 8
  267.12305 154.0 154
  268.09921 12.0 12
  268.12723 26.0 26
  268.14075 15.0 15
  269.13803 6.0 6
  274.08142 8.0 8
  275.10211 8.0 8
  275.12183 48.0 48
  275.59033 6.0 6
  276.08234 13.0 13
  276.10394 76.0 76
  277.0788 13.0 13
  277.10635 78.0 78
  277.17313 17.0 17
  277.18173 6.0 6
  277.65036 5.0 5
  278.07825 5.0 5
  278.11621 442.0 442
  278.16519 5.0 5
  278.18112 10.0 10
  278.80374 6.0 6
  279.06357 5.0 5
  279.0791 12.0 12
  279.11642 100.0 100
  279.13013 137.0 137
  279.14328 22.0 22
  279.49124 5.0 5
  280.06268 6.0 6
  280.08997 6.0 6
  280.09982 7.0 7
  280.11569 12.0 12
  280.13452 182.0 182
  280.83142 6.0 6
  281.10135 7.0 7
  281.14066 40.0 40
  282.15543 6.0 6
  283.35257 5.0 5
  288.66571 6.0 6
  289.10074 7.0 7
  290.10205 11.0 11
  290.11401 54.0 54
  290.13217 19.0 19
  291.11008 23.0 23
  291.12549 50.0 50
  292.10181 6.0 6
  292.12671 207.0 207
  292.1467 21.0 21
  292.60135 5.0 5
  293.11942 34.0 34
  293.14005 46.0 46
  293.72754 5.0 5
  294.13535 35.0 35
  294.14944 26.0 26
  294.16345 8.0 8
  295.15179 10.0 10
  295.17358 6.0 6
  299.65973 6.0 6
  306.12753 6.0 6
  307.1228 12.0 12
  307.14545 32.0 32
  308.14203 5.0 5
  308.15848 11.0 11
  309.13077 7.0 7
  324.22318 7.0 7
  355.19733 25.0 25
//
