ACCESSION: MSBNK-RIKEN-PR305148
RECORD_TITLE: Rauwolscine; LC-ESI-QTOF; MS2
DATE: 2019.03.28
AUTHORS: Tetsuya Mori, Center for Sustainable Resource Science, RIKEN
LICENSE: CC BY-NC-SA
PUBLICATION: Tsugawa H., Nakabayashi R., Mori T., Yamada Y., Takahashi M., Rai A., Sugiyama R., Yamamoto H., Nakaya T., Yamazaki M., Kooke R., Bac-Molenaar JA., Oztolan-Erol N., Keurentjes JJB., Arita M., Saito K. (2019) "A cheminformatics approach to characterize metabolomes in stable-isotope-labeled organisms" Nature Methods 16(4):295-298. [doi:10.1038/s41592-019-0358-2]
COMMENT: registered in RIKEN PlaSMA
CH$NAME: Rauwolscine
CH$COMPOUND_CLASS: Yohimbine alkaloids
CH$FORMULA: C21H26N2O3
CH$EXACT_MASS: 354.45
CH$SMILES: COC(=O)C1C(O)CCC2CN3CCC4=C(NC5=CC=CC=C45)C3CC12
CH$IUPAC: InChI=1S/C21H26N2O3/c1-26-21(25)19-15-10-17-20-14(13-4-2-3-5-16(13)22-20)8-9-23(17)11-12(15)6-7-18(19)24/h2-5,12,15,17-19,22,24H,6-11H2,1H3
CH$LINK: INCHIKEY BLGXFZZNTVWLAY-UHFFFAOYSA-N
AC$INSTRUMENT: LC, Waters Acquity UPLC System; MS, Waters Xevo G2 Q-Tof
AC$INSTRUMENT_TYPE: LC-ESI-QTOF
AC$MASS_SPECTROMETRY: MS_TYPE MS2
AC$MASS_SPECTROMETRY: ION_MODE NEGATIVE
AC$MASS_SPECTROMETRY: COLLISION_ENERGY 6V
AC$MASS_SPECTROMETRY: DESOLVATION_GAS_FLOW 800/h
AC$MASS_SPECTROMETRY: DESOLVATION_TEMPERATURE 450 C
AC$MASS_SPECTROMETRY: IONIZATION ESI
AC$CHROMATOGRAPHY: CAPILLARY_VOLTAGE -2.75 kV
AC$CHROMATOGRAPHY: COLUMN_NAME Acquity bridged ethyl hybrid C18 (1.7 um, 2.1 mm * 100 mm, Waters)
AC$CHROMATOGRAPHY: COLUMN_TEMPERATURE 40 C
AC$CHROMATOGRAPHY: FLOW_GRADIENT A/B = (99.5%/0.5% at 0 min, 99.5%/0.5% at 0.1 min, 20%/80% at 10 min, 0.5%/99.5% at 10.1 min, 0.5%/99.5% at 12.0 min, 99.5%/0.5% at 12.1 min, 99.5%/0.5% at 15.0 min)
AC$CHROMATOGRAPHY: FLOW_RATE 0.3 ml/min at 0 min, 0.3 ml/min at 10 min, 0.4 ml/min at 10.1 min, 0.4 ml/min at 14.4 min, 0.3 ml/min at 14.5 min
AC$CHROMATOGRAPHY: RETENTION_TIME 4.007733
AC$CHROMATOGRAPHY: SOLVENT A water including 0.1% formic acid
AC$CHROMATOGRAPHY: SOLVENT B acetonitrile including 0.1% formic acid
MS$FOCUSED_ION: PRECURSOR_TYPE [M-H]-
MS$FOCUSED_ION: PRECURSOR_M/Z 353.18706624783
PK$SPLASH: splash10-0udi-0229000000-80241e34167ffc4995f2
PK$NUM_PEAK: 35
PK$PEAK: m/z int. rel.int.
  69.03193 37.0 37
  93.58852 17.0 17
  96.04768 14.0 14
  121.03117 13.0 13
  125.05771 16.0 16
  148.0546 14.0 14
  155.07443 16.0 16
  156.07979 28.0 28
  157.07837 20.0 20
  160.07095 21.0 21
  160.07742 13.0 13
  167.04608 15.0 15
  168.07693 17.0 17
  169.07361 81.0 81
  169.15134 17.0 17
  177.69569 18.0 18
  181.05173 21.0 21
  185.10689 18.0 18
  186.10855 15.0 15
  192.11913 15.0 15
  222.13202 18.0 18
  223.12111 16.0 16
  236.11501 32.0 32
  248.13365 16.0 16
  250.12151 16.0 16
  250.13206 16.0 16
  275.15298 28.0 28
  293.16168 178.0 178
  294.17404 18.0 18
  303.14191 80.0 80
  321.16089 72.0 72
  321.18448 15.0 15
  322.16214 32.0 32
  323.15503 14.0 14
  353.18411 1000.0 999
//
