ACCESSION: MSBNK-RIKEN-PR302347
RECORD_TITLE: Procyanidin B1; LC-ESI-QTOF; MS2
DATE: 2019.03.28
AUTHORS: Tetsuya Mori, Center for Sustainable Resource Science, RIKEN
LICENSE: CC BY-NC-SA
PUBLICATION: Tsugawa H., Nakabayashi R., Mori T., Yamada Y., Takahashi M., Rai A., Sugiyama R., Yamamoto H., Nakaya T., Yamazaki M., Kooke R., Bac-Molenaar JA., Oztolan-Erol N., Keurentjes JJB., Arita M., Saito K. (2019) "A cheminformatics approach to characterize metabolomes in stable-isotope-labeled organisms" Nature Methods 16(4):295-298. [doi:10.1038/s41592-019-0358-2]
COMMENT: registered in RIKEN PlaSMA
CH$NAME: Procyanidin B1
CH$NAME: cis,trans''-4,8''-Bi-(3,3',4',5,7-pentahydroxyflavane)
CH$NAME: (-)-Epicatechin-(4-beta-8)-(+)-catechin
CH$COMPOUND_CLASS: Biflavonoids and polyflavonoids
CH$FORMULA: C30H26O12
CH$EXACT_MASS: 578.14243
CH$SMILES: C1[C@@H]([C@H](OC2=C1C(=CC(=C2[C@@H]3[C@H]([C@H](OC4=CC(=CC(=C34)O)O)C5=CC(=C(C=C5)O)O)O)O)O)C6=CC(=C(C=C6)O)O)O
CH$IUPAC: InChI=1S/C30H26O12/c31-13-7-20(37)24-23(8-13)41-29(12-2-4-16(33)19(36)6-12)27(40)26(24)25-21(38)10-17(34)14-9-22(39)28(42-30(14)25)11-1-3-15(32)18(35)5-11/h1-8,10,22,26-29,31-40H,9H2/t22-,26+,27+,28+,29+/m0/s1
CH$LINK: CAS 20315-25-7
CH$LINK: CHEMSPIDER 9425166
CH$LINK: INCHIKEY XFZJEEAOWLFHDH-UKWJTHFESA-N
CH$LINK: KNAPSACK C00009075
CH$LINK: PUBCHEM CID:11250133
AC$INSTRUMENT: LC, Waters Acquity UPLC System; MS, Waters Xevo G2 Q-Tof
AC$INSTRUMENT_TYPE: LC-ESI-QTOF
AC$MASS_SPECTROMETRY: MS_TYPE MS2
AC$MASS_SPECTROMETRY: ION_MODE POSITIVE
AC$MASS_SPECTROMETRY: COLLISION_ENERGY 6V
AC$MASS_SPECTROMETRY: DESOLVATION_GAS_FLOW 800/h
AC$MASS_SPECTROMETRY: DESOLVATION_TEMPERATURE 450 C
AC$MASS_SPECTROMETRY: IONIZATION ESI
AC$CHROMATOGRAPHY: CAPILLARY_VOLTAGE +3.00 kV
AC$CHROMATOGRAPHY: COLUMN_NAME Acquity bridged ethyl hybrid C18 (1.7 um, 2.1 mm * 100 mm, Waters)
AC$CHROMATOGRAPHY: COLUMN_TEMPERATURE 40 C
AC$CHROMATOGRAPHY: FLOW_GRADIENT A/B = (99.5%/0.5% at 0 min, 99.5%/0.5% at 0.1 min, 20%/80% at 10 min, 0.5%/99.5% at 10.1 min, 0.5%/99.5% at 12.0 min, 99.5%/0.5% at 12.1 min, 99.5%/0.5% at 15.0 min)
AC$CHROMATOGRAPHY: FLOW_RATE 0.3 ml/min at 0 min, 0.3 ml/min at 10 min, 0.4 ml/min at 10.1 min, 0.4 ml/min at 14.4 min, 0.3 ml/min at 14.5 min
AC$CHROMATOGRAPHY: RETENTION_TIME 2.801367
AC$CHROMATOGRAPHY: SOLVENT A water including 0.1% formic acid
AC$CHROMATOGRAPHY: SOLVENT B acetonitrile including 0.1% formic acid
MS$FOCUSED_ION: PRECURSOR_TYPE [M+H]+
MS$FOCUSED_ION: PRECURSOR_M/Z 579.1497027
PK$SPLASH: splash10-004i-0020290000-469e08debf380345ce2d
PK$NUM_PEAK: 40
PK$PEAK: m/z int. rel.int.
  247.06116 23.0 23
  249.06577 10.0 10
  271.80508 6.0 6
  288.91724 7.0 7
  289.04498 8.0 8
  289.0596 11.0 11
  289.07565 42.0 42
  290.0762 9.0 9
  291.06 10.0 10
  291.07825 71.0 71
  291.09464 37.0 37
  292.07941 9.0 9
  292.09763 7.0 7
  301.0661 13.0 13
  301.9967 6.0 6
  314.33838 7.0 7
  347.79483 11.0 11
  359.29437 11.0 11
  380.00403 6.0 6
  398.62024 6.0 6
  409.08386 15.0 15
  409.10153 59.0 59
  410.1041 7.0 7
  411.08151 8.0 8
  411.103 10.0 10
  427.07581 15.0 15
  427.10156 117.0 117
  428.05554 6.0 6
  428.09076 14.0 14
  429.11133 12.0 12
  435.1051 10.0 10
  453.10849 16.0 16
  453.12689 7.0 7
  577.10364 8.0 8
  578.01642 9.0 9
  578.11993 9.0 9
  578.14185 8.0 8
  579.10242 65.0 65
  579.14911 1000.0 999
  579.1933 13.0 13
//
