ACCESSION: MSBNK-RIKEN-PR301642
RECORD_TITLE: Quinidine; LC-ESI-QTOF; MS2
DATE: 2019.03.28
AUTHORS: Tetsuya Mori, Center for Sustainable Resource Science, RIKEN
LICENSE: CC BY-NC-SA
PUBLICATION: Tsugawa H., Nakabayashi R., Mori T., Yamada Y., Takahashi M., Rai A., Sugiyama R., Yamamoto H., Nakaya T., Yamazaki M., Kooke R., Bac-Molenaar JA., Oztolan-Erol N., Keurentjes JJB., Arita M., Saito K. (2019) "A cheminformatics approach to characterize metabolomes in stable-isotope-labeled organisms" Nature Methods 16(4):295-298. [doi:10.1038/s41592-019-0358-2]
COMMENT: registered in RIKEN PlaSMA
CH$NAME: Quinidine
CH$COMPOUND_CLASS: Cinchona alkaloids
CH$FORMULA: C20H24N2O2
CH$EXACT_MASS: 324.424
CH$SMILES: COC1=CC2=C(C=CN=C2C=C1)[C@@H](O)[C@@H]1C[C@H]2CCN1C[C@H]2C=C
CH$IUPAC: InChI=1S/C20H24N2O2/c1-3-13-12-22-9-7-14(13)10-19(22)20(23)16-6-8-21-18-5-4-15(24-2)11-17(16)18/h3-6,8,11,13-14,19-20,23H,1,7,9-10,12H2,2H3/t13-,14-,19+,20-/m1/s1
CH$LINK: INCHIKEY LOUPRKONTZGTKE-VPCNSNALSA-N
AC$INSTRUMENT: LC, Waters Acquity UPLC System; MS, Waters Xevo G2 Q-Tof
AC$INSTRUMENT_TYPE: LC-ESI-QTOF
AC$MASS_SPECTROMETRY: MS_TYPE MS2
AC$MASS_SPECTROMETRY: ION_MODE POSITIVE
AC$MASS_SPECTROMETRY: COLLISION_ENERGY 6V
AC$MASS_SPECTROMETRY: DESOLVATION_GAS_FLOW 800/h
AC$MASS_SPECTROMETRY: DESOLVATION_TEMPERATURE 450 C
AC$MASS_SPECTROMETRY: IONIZATION ESI
AC$CHROMATOGRAPHY: CAPILLARY_VOLTAGE +3.00 kV
AC$CHROMATOGRAPHY: COLUMN_NAME Acquity bridged ethyl hybrid C18 (1.7 um, 2.1 mm * 100 mm, Waters)
AC$CHROMATOGRAPHY: COLUMN_TEMPERATURE 40 C
AC$CHROMATOGRAPHY: FLOW_GRADIENT A/B = (99.5%/0.5% at 0 min, 99.5%/0.5% at 0.1 min, 20%/80% at 10 min, 0.5%/99.5% at 10.1 min, 0.5%/99.5% at 12.0 min, 99.5%/0.5% at 12.1 min, 99.5%/0.5% at 15.0 min)
AC$CHROMATOGRAPHY: FLOW_RATE 0.3 ml/min at 0 min, 0.3 ml/min at 10 min, 0.4 ml/min at 10.1 min, 0.4 ml/min at 14.4 min, 0.3 ml/min at 14.5 min
AC$CHROMATOGRAPHY: RETENTION_TIME 3.314
AC$CHROMATOGRAPHY: SOLVENT A water including 0.1% formic acid
AC$CHROMATOGRAPHY: SOLVENT B acetonitrile including 0.1% formic acid
MS$FOCUSED_ION: PRECURSOR_TYPE [M+H]+
MS$FOCUSED_ION: PRECURSOR_M/Z 325.1910545
PK$SPLASH: splash10-03k9-1951000000-8cb39832bd9ce65c5abd
PK$NUM_PEAK: 188
PK$PEAK: m/z int. rel.int.
  55.0578 22.0 22
  67.03877 26.0 26
  69.07417 42.0 42
  70.06631 49.0 49
  72.04582 37.0 37
  77.04009 25.0 25
  79.05216 103.0 103
  80.04585 19.0 19
  80.62904 19.0 19
  81.06329 38.0 38
  81.07064 197.0 197
  82.06599 67.0 67
  82.07233 25.0 25
  83.06526 19.0 19
  84.08287 42.0 42
  93.0715 17.0 17
  94.06758 18.0 18
  95.06551 18.0 18
  95.07448 18.0 18
  96.0802 44.0 44
  97.07612 18.0 18
  97.09185 22.0 22
  105.06934 38.0 38
  107.08617 20.0 20
  108.08387 179.0 179
  110.0865 27.0 27
  110.09714 80.0 80
  113.03955 20.0 20
  113.49232 19.0 19
  117.04973 18.0 18
  117.06678 29.0 29
  121.06786 22.0 22
  122.05151 19.0 19
  122.09648 53.0 53
  124.11848 26.0 26
  131.07404 17.0 17
  134.09453 22.0 22
  135.10345 32.0 32
  136.11316 23.0 23
  145.0536 43.0 43
  146.10011 20.0 20
  147.06995 20.0 20
  155.05879 18.0 18
  158.05702 29.0 29
  158.06372 17.0 17
  159.08052 24.0 24
  160.07657 1000.0 999
  160.108 22.0 22
  160.84407 17.0 17
  161.07074 26.0 26
  161.07884 55.0 55
  162.09293 18.0 18
  163.09196 22.0 22
  166.05606 25.0 25
  166.12083 101.0 101
  166.1291 23.0 23
  167.11708 20.0 20
  169.05357 22.0 22
  169.85246 20.0 20
  170.05264 24.0 24
  171.06293 17.0 17
  171.07349 24.0 24
  172.07837 346.0 346
  172.7979 18.0 18
  172.86316 20.0 20
  173.07867 94.0 94
  173.08591 208.0 208
  174.05818 99.0 99
  174.0925 160.0 160
  175.08586 20.0 20
  175.63208 17.0 17
  176.09944 21.0 21
  179.89502 25.0 25
  182.05992 20.0 20
  184.07402 240.0 240
  184.08807 83.0 83
  184.28775 20.0 20
  185.07701 25.0 25
  186.05647 18.0 18
  186.07332 18.0 18
  186.08781 71.0 71
  186.09685 196.0 196
  187.06339 21.0 21
  187.09799 58.0 58
  188.0611 17.0 17
  188.0722 60.0 60
  189.06566 20.0 20
  189.07506 24.0 24
  190.08684 17.0 17
  194.08565 27.0 27
  195.66814 17.0 17
  196.08621 22.0 22
  197.0687 43.0 43
  197.08479 20.0 20
  198.09233 213.0 213
  198.09912 71.0 71
  199.06035 20.0 20
  199.08664 31.0 31
  199.09657 41.0 41
  199.20183 21.0 21
  200.09912 25.0 25
  200.11227 60.0 60
  201.28076 20.0 20
  202.08569 19.0 19
  203.09845 18.0 18
  203.20576 20.0 20
  210.08582 123.0 123
  210.12508 23.0 23
  211.08958 63.0 63
  212.10406 64.0 64
  213.09497 24.0 24
  213.10228 17.0 17
  214.06844 20.0 20
  214.09212 22.0 22
  215.07916 27.0 27
  215.09361 28.0 28
  215.11751 19.0 19
  220.12364 24.0 24
  221.07956 17.0 17
  221.10112 20.0 20
  222.09406 19.0 19
  223.08296 24.0 24
  224.09253 19.0 19
  224.10352 40.0 40
  224.11729 20.0 20
  225.11031 97.0 97
  226.11198 18.0 18
  227.12779 20.0 20
  230.10445 53.0 53
  234.12578 24.0 24
  236.11 45.0 45
  237.0163 33.0 33
  237.11415 84.0 84
  238.11563 56.0 56
  238.13319 19.0 19
  239.12396 28.0 28
  243.12083 25.0 25
  244.05762 33.0 33
  246.11221 23.0 23
  247.10477 31.0 31
  249.10344 132.0 132
  250.11009 35.0 35
  250.12907 34.0 34
  251.11383 79.0 79
  251.12711 177.0 177
  252.11868 87.0 87
  252.13911 63.0 63
  253.1395 237.0 237
  254.11508 38.0 38
  254.13895 73.0 73
  254.1505 18.0 18
  254.1664 30.0 30
  255.14975 17.0 17
  261.10992 20.0 20
  263.13431 21.0 21
  264.10135 25.0 25
  264.13144 99.0 99
  265.13837 20.0 20
  265.56967 19.0 19
  266.13992 17.0 17
  266.15024 17.0 17
  275.12329 18.0 18
  277.12457 21.0 21
  277.13559 20.0 20
  277.14987 18.0 18
  277.16785 25.0 25
  278.12924 18.0 18
  278.13867 18.0 18
  278.16275 34.0 34
  279.13086 26.0 26
  279.1506 46.0 46
  279.16693 21.0 21
  282.1398 52.0 52
  282.15366 17.0 17
  283.14441 20.0 20
  283.26123 17.0 17
  291.14334 17.0 17
  293.18213 20.0 20
  295.17621 22.0 22
  297.17264 17.0 17
  307.15067 18.0 18
  307.16492 42.0 42
  307.1832 234.0 234
  308.16891 22.0 22
  308.18253 66.0 66
  309.20084 27.0 27
  325.19208 349.0 349
  325.21085 102.0 102
//
