ACCESSION: MSBNK-RIKEN-PR309044
RECORD_TITLE: Flavanone base + 4O, 1Prenyl; LC-ESI-QTOF; MS2
DATE: 2019.03.28
AUTHORS: Tetsuya Mori, Center for Sustainable Resource Science, RIKEN
LICENSE: CC BY-NC-SA
PUBLICATION: Tsugawa H., Nakabayashi R., Mori T., Yamada Y., Takahashi M., Rai A., Sugiyama R., Yamamoto H., Nakaya T., Yamazaki M., Kooke R., Bac-Molenaar JA., Oztolan-Erol N., Keurentjes JJB., Arita M., Saito K. (2019) "A cheminformatics approach to characterize metabolomes in stable-isotope-labeled organisms" Nature Methods 16(4):295-298. [doi:10.1038/s41592-019-0358-2]
COMMENT: Annotation level-3
CH$NAME: Flavanone base + 4O, 1Prenyl
CH$COMPOUND_CLASS: Prenylated flavanones
CH$FORMULA: C20H20O6
CH$EXACT_MASS: 356.374
CH$SMILES: O=C1C3=C(O)C=C(O)C(=C3(OCC1C=2C=CC(O)=CC=2(O)))CC=C(C)C
CH$IUPAC: InChI=1S/C20H20O6/c1-10(2)3-5-13-16(23)8-17(24)18-19(25)14(9-26-20(13)18)12-6-4-11(21)7-15(12)22/h3-4,6-8,14,21-24H,5,9H2,1-2H3
CH$LINK: INCHIKEY MERHMOCEIBOOMA-UHFFFAOYSA-N
AC$INSTRUMENT: LC, Waters Acquity UPLC System; MS, Waters Xevo G2 Q-Tof
AC$INSTRUMENT_TYPE: LC-ESI-QTOF
AC$MASS_SPECTROMETRY: MS_TYPE MS2
AC$MASS_SPECTROMETRY: ION_MODE NEGATIVE
AC$MASS_SPECTROMETRY: COLLISION_ENERGY 6V
AC$MASS_SPECTROMETRY: DESOLVATION_GAS_FLOW 800/h
AC$MASS_SPECTROMETRY: DESOLVATION_TEMPERATURE 450 C
AC$MASS_SPECTROMETRY: IONIZATION ESI
AC$CHROMATOGRAPHY: CAPILLARY_VOLTAGE +3.00 kV
AC$CHROMATOGRAPHY: COLUMN_NAME Acquity bridged ethyl hybrid C18 (1.7 um, 2.1 mm * 100 mm, Waters)
AC$CHROMATOGRAPHY: COLUMN_TEMPERATURE 40 C
AC$CHROMATOGRAPHY: FLOW_GRADIENT A/B = (99.5%/0.5% at 0 min, 99.5%/0.5% at 0.1 min, 20%/80% at 10 min, 0.5%/99.5% at 10.1 min, 0.5%/99.5% at 12.0 min, 99.5%/0.5% at 12.1 min, 99.5%/0.5% at 15.0 min)
AC$CHROMATOGRAPHY: FLOW_RATE 0.3 ml/min at 0 min, 0.3 ml/min at 10 min, 0.4 ml/min at 10.1 min, 0.4 ml/min at 14.4 min, 0.3 ml/min at 14.5 min
AC$CHROMATOGRAPHY: RETENTION_TIME 8.97
AC$CHROMATOGRAPHY: SOLVENT A water including 0.1% formic acid
AC$CHROMATOGRAPHY: SOLVENT B acetonitrile including 0.1% formic acid
MS$FOCUSED_ION: PRECURSOR_TYPE [M-H]-
MS$FOCUSED_ION: PRECURSOR_M/Z 355.1176
PK$SPLASH: splash10-052b-0292000000-22002213d4af60138e05
PK$NUM_PEAK: 11
PK$PEAK: m/z int. rel.int.
  109.0294 43.0 227
  146.04062 19.0 100
  175.11809 20.0 106
  201.09166 33.0 174
  220.1073 18.0 95
  244.07112 18.0 95
  245.08298 189.0 999
  246.06731 18.0 95
  312.67401 20.0 106
  355.10742 42.0 222
  355.12454 20.0 106
//
