ACCESSION: MSBNK-RIKEN-PR310607
RECORD_TITLE: 19S-Methoxytubotaiwine; LC-ESI-QTOF; MS2
DATE: 2019.03.28
AUTHORS: Tetsuya Mori, Center for Sustainable Resource Science, RIKEN
LICENSE: CC BY-NC-SA
PUBLICATION: Tsugawa H., Nakabayashi R., Mori T., Yamada Y., Takahashi M., Rai A., Sugiyama R., Yamamoto H., Nakaya T., Yamazaki M., Kooke R., Bac-Molenaar JA., Oztolan-Erol N., Keurentjes JJB., Arita M., Saito K. (2019) "A cheminformatics approach to characterize metabolomes in stable-isotope-labeled organisms" Nature Methods 16(4):295-298. [doi:10.1038/s41592-019-0358-2]
COMMENT: Annotation level-1
CH$NAME: 19S-Methoxytubotaiwine
CH$COMPOUND_CLASS: Alkaloids
CH$FORMULA: C21H26N2O3
CH$EXACT_MASS: 354.45
CH$SMILES: COC(C)C1C2N3CCC22C(NC4=C2C=CC=C4)=C(C1CC3)C(=O)OC
CH$IUPAC: InChI=1S/C21H26N2O3/c1-12(25-2)16-13-8-10-23-11-9-21(19(16)23)14-6-4-5-7-15(14)22-18(21)17(13)20(24)26-3/h4-7,12-13,16,19,22H,8-11H2,1-3H3
CH$LINK: INCHIKEY LTOOPESWVADEAE-UHFFFAOYSA-N
AC$INSTRUMENT: LC, Waters Acquity UPLC System; MS, Waters Xevo G2 Q-Tof
AC$INSTRUMENT_TYPE: LC-ESI-QTOF
AC$MASS_SPECTROMETRY: MS_TYPE MS2
AC$MASS_SPECTROMETRY: ION_MODE POSITIVE
AC$MASS_SPECTROMETRY: COLLISION_ENERGY 6V
AC$MASS_SPECTROMETRY: DESOLVATION_GAS_FLOW 800/h
AC$MASS_SPECTROMETRY: DESOLVATION_TEMPERATURE 450 C
AC$MASS_SPECTROMETRY: IONIZATION ESI
AC$CHROMATOGRAPHY: CAPILLARY_VOLTAGE +3.00 kV
AC$CHROMATOGRAPHY: COLUMN_NAME Acquity bridged ethyl hybrid C18 (1.7 um, 2.1 mm * 100 mm, Waters)
AC$CHROMATOGRAPHY: COLUMN_TEMPERATURE 40 C
AC$CHROMATOGRAPHY: FLOW_GRADIENT A/B = (99.5%/0.5% at 0 min, 99.5%/0.5% at 0.1 min, 20%/80% at 10 min, 0.5%/99.5% at 10.1 min, 0.5%/99.5% at 12.0 min, 99.5%/0.5% at 12.1 min, 99.5%/0.5% at 15.0 min)
AC$CHROMATOGRAPHY: FLOW_RATE 0.3 ml/min at 0 min, 0.3 ml/min at 10 min, 0.4 ml/min at 10.1 min, 0.4 ml/min at 14.4 min, 0.3 ml/min at 14.5 min
AC$CHROMATOGRAPHY: RETENTION_TIME 4.55
AC$CHROMATOGRAPHY: SOLVENT A water including 0.1% formic acid
AC$CHROMATOGRAPHY: SOLVENT B acetonitrile including 0.1% formic acid
MS$FOCUSED_ION: PRECURSOR_TYPE [M+H]+
MS$FOCUSED_ION: PRECURSOR_M/Z 355.20162
PK$SPLASH: splash10-05fr-0019000000-053a63c58f3610b84385
PK$NUM_PEAK: 500
PK$PEAK: m/z int. rel.int.
  58.85089 31.0 0
  59.04635 237.0 4
  59.05261 137.0 2
  59.8829 18.0 0
  70.05597 28.0 0
  70.06017 64.0 1
  70.06667 226.0 4
  82.06472 40.0 1
  82.07132 17.0 0
  91.05112 29.0 0
  94.06789 28.0 0
  94.19287 17.0 0
  100.06464 24.0 0
  114.09492 29.0 0
  118.06883 18.0 0
  120.03911 28.0 0
  120.08221 60.0 1
  122.05111 37.0 1
  130.0621 58.0 1
  130.17729 26.0 0
  131.06995 20.0 0
  131.07936 17.0 0
  136.06131 18.0 0
  137.66579 44.0 1
  138.04532 26.0 0
  141.06635 18.0 0
  144.07549 30.0 0
  144.08823 28.0 0
  145.09071 22.0 0
  146.04881 20.0 0
  147.96825 29.0 0
  151.0784 23.0 0
  152.10716 35.0 1
  154.06175 33.0 1
  155.10983 53.0 1
  156.07933 82.0 1
  156.30495 23.0 0
  156.7271 17.0 0
  157.0892 26.0 0
  158.08751 19.0 0
  158.88957 25.0 0
  159.06981 22.0 0
  159.90182 23.0 0
  163.09006 28.0 0
  163.24883 26.0 0
  165.07013 43.0 1
  166.06625 81.0 1
  167.05588 27.0 0
  167.06703 121.0 2
  167.07487 51.0 1
  168.08041 853.0 13
  169.08342 119.0 2
  170.09566 35.0 1
  172.08534 21.0 0
  173.42268 24.0 0
  176.06808 37.0 1
  177.07162 35.0 1
  179.06548 23.0 0
  179.07895 33.0 1
  179.17068 18.0 0
  179.56078 25.0 0
  180.05025 30.0 0
  180.05919 18.0 0
  180.07234 69.0 1
  180.08092 354.0 6
  180.81731 17.0 0
  181.07761 47.0 1
  181.08597 79.0 1
  181.09453 115.0 2
  182.06331 36.0 1
  182.09386 141.0 2
  182.10414 91.0 1
  183.77177 25.0 0
  184.11032 40.0 1
  185.46951 30.0 0
  186.09219 30.0 0
  187.09239 28.0 0
  188.06734 41.0 1
  190.02737 18.0 0
  191.07812 68.0 1
  191.08504 29.0 0
  192.07669 285.0 4
  193.08531 346.0 5
  193.09219 330.0 5
  193.97987 18.0 0
  194.0481 22.0 0
  194.05844 181.0 3
  194.09509 1631.0 26
  195.0508 17.0 0
  195.05913 22.0 0
  195.07401 33.0 1
  195.10106 579.0 9
  196.0567 24.0 0
  196.08263 205.0 3
  196.0952 109.0 2
  196.1144 95.0 1
  197.08228 21.0 0
  197.11267 63.0 1
  197.14748 28.0 0
  197.87601 17.0 0
  200.08403 29.0 0
  200.32994 22.0 0
  202.48703 28.0 0
  202.94589 33.0 1
  203.0688 51.0 1
  203.70496 53.0 1
  203.98999 21.0 0
  204.06613 27.0 0
  204.08159 291.0 5
  204.89406 44.0 1
  205.08531 284.0 4
  205.32475 25.0 0
  205.83357 29.0 0
  206.06145 20.0 0
  206.07526 31.0 0
  206.09462 377.0 6
  207.05406 20.0 0
  207.07303 39.0 1
  207.09352 130.0 2
  207.10574 219.0 3
  207.98404 22.0 0
  208.06227 20.0 0
  208.11333 1718.0 27
  208.58136 18.0 0
  209.05943 19.0 0
  209.07231 21.0 0
  209.09099 77.0 1
  209.10782 254.0 4
  209.12479 144.0 2
  209.35501 40.0 1
  209.56865 22.0 0
  209.66934 23.0 0
  210.08813 44.0 1
  210.10953 25.0 0
  210.12001 123.0 2
  210.13754 28.0 0
  210.56552 20.0 0
  210.83148 25.0 0
  211.01163 50.0 1
  211.09338 21.0 0
  211.51978 27.0 0
  212.09727 17.0 0
  214.09277 44.0 1
  214.5285 44.0 1
  215.0735 18.0 0
  215.09053 20.0 0
  215.13976 61.0 1
  215.81238 30.0 0
  216.09889 52.0 1
  216.76837 17.0 0
  217.07242 38.0 1
  217.08911 172.0 3
  218.07471 54.0 1
  218.0881 140.0 2
  218.10161 415.0 7
  218.11548 50.0 1
  219.06697 57.0 1
  219.08911 133.0 2
  219.10034 196.0 3
  219.12148 26.0 0
  220.03632 49.0 1
  220.07541 1027.0 16
  220.08653 317.0 5
  220.1041 269.0 4
  220.11464 669.0 11
  221.03711 19.0 0
  221.08701 395.0 6
  221.11432 337.0 5
  221.12143 107.0 2
  221.38402 19.0 0
  221.59435 17.0 0
  222.08092 207.0 3
  222.09062 734.0 12
  222.12053 200.0 3
  222.13167 72.0 1
  222.14287 29.0 0
  222.67989 20.0 0
  222.70065 29.0 0
  223.09648 170.0 3
  223.11971 54.0 1
  223.13788 66.0 1
  224.0656 20.0 0
  224.07848 18.0 0
  224.1022 44.0 1
  224.11386 47.0 1
  224.8326 18.0 0
  224.88008 21.0 0
  224.90044 29.0 0
  225.10718 18.0 0
  225.41756 43.0 1
  226.09521 29.0 0
  226.29076 41.0 1
  226.36852 19.0 0
  226.74179 36.0 1
  227.08842 31.0 0
  227.22783 23.0 0
  228.09822 107.0 2
  228.59973 18.0 0
  229.03008 21.0 0
  229.11603 41.0 1
  229.70265 18.0 0
  230.09619 252.0 4
  230.21696 23.0 0
  231.03177 27.0 0
  231.09383 79.0 1
  231.10275 99.0 2
  232.06673 74.0 1
  232.09897 18.0 0
  232.11359 57.0 1
  232.16621 26.0 0
  232.26089 25.0 0
  233.08269 49.0 1
  233.09538 69.0 1
  233.10599 90.0 1
  233.11998 112.0 2
  233.39841 22.0 0
  233.86583 43.0 1
  234.05609 44.0 1
  234.07747 81.0 1
  234.09129 448.0 7
  234.10458 130.0 2
  234.12646 496.0 8
  234.9016 19.0 0
  234.91402 45.0 1
  235.08296 114.0 2
  235.0988 127.0 2
  235.12225 220.0 3
  235.13486 138.0 2
  235.97353 32.0 1
  236.09392 114.0 2
  236.10405 432.0 7
  236.11456 339.0 5
  236.1313 206.0 3
  236.14407 25.0 0
  236.20273 25.0 0
  237.09622 68.0 1
  237.12241 224.0 4
  237.13579 361.0 6
  238.08781 50.0 1
  238.12958 44.0 1
  238.14314 100.0 2
  239.09508 45.0 1
  239.13831 20.0 0
  240.10756 35.0 1
  240.14391 22.0 0
  241.11429 35.0 1
  242.1032 29.0 0
  243.0563 29.0 0
  244.05882 17.0 0
  244.08656 37.0 1
  244.12424 56.0 1
  244.54158 52.0 1
  245.07642 17.0 0
  245.09247 37.0 1
  245.10828 52.0 1
  246.0352 24.0 0
  246.05017 98.0 2
  246.09166 3204.0 50
  246.11487 57.0 1
  246.13184 194.0 3
  246.41414 17.0 0
  246.68069 17.0 0
  246.86398 38.0 1
  247.04221 26.0 0
  247.06639 17.0 0
  247.09373 670.0 11
  247.10913 180.0 3
  247.12904 171.0 3
  247.14362 21.0 0
  247.19107 21.0 0
  247.25964 49.0 1
  248.01746 34.0 1
  248.05823 21.0 0
  248.07092 33.0 1
  248.08861 111.0 2
  248.10809 1075.0 17
  248.11705 387.0 6
  249.10457 186.0 3
  249.12064 105.0 2
  249.13681 257.0 4
  249.45882 24.0 0
  250.08746 50.0 1
  250.10873 125.0 2
  250.13301 66.0 1
  250.86819 20.0 0
  251.09822 30.0 0
  252.10228 335.0 5
  252.65584 22.0 0
  253.08536 20.0 0
  253.10907 41.0 1
  254.11221 136.0 2
  254.15074 24.0 0
  254.45071 38.0 1
  255.42862 21.0 0
  255.68124 20.0 0
  256.1286 29.0 0
  258.08356 25.0 0
  258.09998 17.0 0
  258.1131 33.0 1
  258.27863 57.0 1
  259.09698 17.0 0
  260.10294 33.0 1
  260.12585 19.0 0
  261.08701 17.0 0
  261.10233 71.0 1
  261.12161 24.0 0
  262.10791 106.0 2
  262.12317 232.0 4
  262.13763 63.0 1
  262.14844 49.0 1
  263.11526 546.0 9
  263.14655 117.0 2
  263.1575 275.0 4
  263.23727 38.0 1
  263.37241 33.0 1
  264.09097 27.0 0
  264.11096 98.0 2
  264.12259 77.0 1
  264.13315 27.0 0
  264.15375 88.0 1
  264.29181 20.0 0
  265.09964 17.0 0
  265.1225 37.0 1
  265.13699 71.0 1
  265.14828 44.0 1
  266.0918 61.0 1
  266.11334 37.0 1
  266.13397 28.0 0
  266.14688 20.0 0
  266.16602 29.0 0
  267.11691 64.0 1
  267.88116 21.0 0
  268.12408 259.0 4
  268.13696 236.0 4
  268.16205 24.0 0
  268.26074 19.0 0
  268.71762 18.0 0
  269.08865 31.0 0
  269.12335 177.0 3
  269.13412 183.0 3
  270.11966 21.0 0
  270.13611 40.0 1
  270.15115 33.0 1
  271.2583 17.0 0
  272.112 23.0 0
  272.80133 43.0 1
  274.12689 106.0 2
  274.83679 18.0 0
  275.12253 34.0 1
  275.62317 19.0 0
  275.77484 29.0 0
  279.10864 52.0 1
  279.71869 19.0 0
  279.99237 30.0 0
  280.12729 116.0 2
  281.11658 40.0 1
  281.13843 56.0 1
  281.40137 22.0 0
  283.17621 18.0 0
  283.42227 27.0 0
  286.42554 28.0 0
  286.92105 27.0 0
  289.22028 18.0 0
  291.01151 29.0 0
  291.12607 17.0 0
  291.15088 244.0 4
  291.18454 26.0 0
  292.24426 17.0 0
  292.45761 21.0 0
  293.12906 39.0 1
  295.138 252.0 4
  295.15091 183.0 3
  295.185 169.0 3
  295.26932 33.0 1
  296.1012 17.0 0
  296.12976 20.0 0
  296.14679 18.0 0
  296.16254 109.0 2
  297.16541 25.0 0
  298.16904 27.0 0
  300.52066 20.0 0
  300.71704 53.0 1
  302.20953 25.0 0
  303.38535 53.0 1
  303.60217 41.0 1
  307.3421 47.0 1
  310.66821 25.0 0
  310.75342 24.0 0
  312.64639 43.0 1
  313.92828 21.0 0
  315.91714 28.0 0
  316.47495 22.0 0
  317.93268 19.0 0
  318.65186 27.0 0
  320.51263 21.0 0
  321.49539 18.0 0
  322.23776 21.0 0
  322.4581 34.0 1
  322.68213 33.0 1
  322.74487 17.0 0
  322.88367 45.0 1
  322.9039 21.0 0
  323.00595 18.0 0
  323.06564 42.0 1
  323.07724 31.0 0
  323.09747 28.0 0
  323.12228 300.0 5
  323.13443 251.0 4
  323.17508 52565.0 827
  323.22672 1168.0 18
  323.27335 18.0 0
  323.35123 25.0 0
  323.38675 173.0 3
  323.42892 43.0 1
  323.43668 21.0 0
  323.49176 18.0 0
  323.50446 34.0 1
  323.54871 24.0 0
  323.66364 18.0 0
  323.73834 17.0 0
  323.97366 17.0 0
  323.98645 29.0 0
  324.02203 17.0 0
  324.03296 17.0 0
  324.10257 69.0 1
  324.11188 73.0 1
  324.13623 232.0 4
  324.17847 12284.0 193
  324.23062 18.0 0
  324.27206 20.0 0
  324.29407 35.0 1
  324.31693 33.0 1
  324.39316 29.0 0
  324.41318 29.0 0
  324.51831 18.0 0
  324.59946 88.0 1
  324.8172 23.0 0
  325.03531 25.0 0
  325.13235 74.0 1
  325.15009 86.0 1
  325.17047 591.0 9
  325.18295 1396.0 22
  325.28247 25.0 0
  325.83646 42.0 1
  326.13586 22.0 0
  326.15527 65.0 1
  326.18085 157.0 2
  326.19632 98.0 2
  326.55804 18.0 0
  327.0022 18.0 0
  327.14514 21.0 0
  327.17459 94.0 1
  327.23447 25.0 0
  327.42645 18.0 0
  327.55267 18.0 0
  327.84152 23.0 0
  327.91748 20.0 0
  328.16617 30.0 0
  328.23627 20.0 0
  329.16504 20.0 0
  329.53665 17.0 0
  331.75455 21.0 0
  332.19528 18.0 0
  335.13043 20.0 0
  335.27081 35.0 1
  335.6069 35.0 1
  336.8956 41.0 1
  337.367 25.0 0
  337.86343 25.0 0
  338.13165 35.0 1
  338.88745 18.0 0
  339.58224 31.0 0
  339.72778 39.0 1
  341.40906 20.0 0
  341.72061 18.0 0
  342.09604 24.0 0
  343.49417 20.0 0
  343.76151 17.0 0
  344.23425 33.0 1
  345.59723 18.0 0
  348.94421 24.0 0
  350.90121 33.0 1
  351.6095 20.0 0
  352.33133 17.0 0
  353.39636 17.0 0
  353.70685 18.0 0
  353.89691 22.0 0
  354.14096 24.0 0
  354.2168 23.0 0
  354.45316 41.0 1
  354.94373 24.0 0
  354.97903 19.0 0
  355.01367 27.0 0
  355.13336 201.0 3
  355.14993 289.0 5
  355.20203 63481.0 999
  355.25653 1837.0 29
  355.30469 163.0 3
  355.33353 40.0 1
  355.35666 17.0 0
//
