ACCESSION: MSBNK-RIKEN-PR302357
RECORD_TITLE: 3,4-Dimethoxycinnamic acid; LC-ESI-QTOF; MS2
DATE: 2019.03.28
AUTHORS: Tetsuya Mori, Center for Sustainable Resource Science, RIKEN
LICENSE: CC BY-NC-SA
PUBLICATION: Tsugawa H., Nakabayashi R., Mori T., Yamada Y., Takahashi M., Rai A., Sugiyama R., Yamamoto H., Nakaya T., Yamazaki M., Kooke R., Bac-Molenaar JA., Oztolan-Erol N., Keurentjes JJB., Arita M., Saito K. (2019) "A cheminformatics approach to characterize metabolomes in stable-isotope-labeled organisms" Nature Methods 16(4):295-298. [doi:10.1038/s41592-019-0358-2]
COMMENT: registered in RIKEN PlaSMA
CH$NAME: 3,4-Dimethoxycinnamic acid
CH$COMPOUND_CLASS: Coumaric acids and derivatives
CH$FORMULA: C11H12O4
CH$EXACT_MASS: 208.213
CH$SMILES: COC1=C(OC)C=C(\C=C\C(O)=O)C=C1
CH$IUPAC: InChI=1S/C11H12O4/c1-14-9-5-3-8(4-6-11(12)13)7-10(9)15-2/h3-7H,1-2H3,(H,12,13)/b6-4+
CH$LINK: INCHIKEY HJBWJAPEBGSQPR-GQCTYLIASA-N
AC$INSTRUMENT: LC, Waters Acquity UPLC System; MS, Waters Xevo G2 Q-Tof
AC$INSTRUMENT_TYPE: LC-ESI-QTOF
AC$MASS_SPECTROMETRY: MS_TYPE MS2
AC$MASS_SPECTROMETRY: ION_MODE POSITIVE
AC$MASS_SPECTROMETRY: COLLISION_ENERGY 6V
AC$MASS_SPECTROMETRY: DESOLVATION_GAS_FLOW 800/h
AC$MASS_SPECTROMETRY: DESOLVATION_TEMPERATURE 450 C
AC$MASS_SPECTROMETRY: IONIZATION ESI
AC$CHROMATOGRAPHY: CAPILLARY_VOLTAGE +3.00 kV
AC$CHROMATOGRAPHY: COLUMN_NAME Acquity bridged ethyl hybrid C18 (1.7 um, 2.1 mm * 100 mm, Waters)
AC$CHROMATOGRAPHY: COLUMN_TEMPERATURE 40 C
AC$CHROMATOGRAPHY: FLOW_GRADIENT A/B = (99.5%/0.5% at 0 min, 99.5%/0.5% at 0.1 min, 20%/80% at 10 min, 0.5%/99.5% at 10.1 min, 0.5%/99.5% at 12.0 min, 99.5%/0.5% at 12.1 min, 99.5%/0.5% at 15.0 min)
AC$CHROMATOGRAPHY: FLOW_RATE 0.3 ml/min at 0 min, 0.3 ml/min at 10 min, 0.4 ml/min at 10.1 min, 0.4 ml/min at 14.4 min, 0.3 ml/min at 14.5 min
AC$CHROMATOGRAPHY: RETENTION_TIME 5.178967
AC$CHROMATOGRAPHY: SOLVENT A water including 0.1% formic acid
AC$CHROMATOGRAPHY: SOLVENT B acetonitrile including 0.1% formic acid
MS$FOCUSED_ION: PRECURSOR_TYPE [M+H]+
MS$FOCUSED_ION: PRECURSOR_M/Z 209.0808353
PK$SPLASH: splash10-0f8a-1900000000-809f2df28de4d0a96c6a
PK$NUM_PEAK: 26
PK$PEAK: m/z int. rel.int.
  79.05795 254.0 254
  89.02178 172.0 172
  91.0504 410.0 410
  95.04356 393.0 393
  102.04562 590.0 589
  103.05111 303.0 303
  103.05676 172.0 172
  104.05879 246.0 246
  105.02391 410.0 410
  109.06152 270.0 270
  109.07209 279.0 279
  115.05482 189.0 189
  119.0444 254.0 254
  120.0535 238.0 238
  132.04941 582.0 581
  132.06509 377.0 377
  133.02855 574.0 573
  133.05472 189.0 189
  145.0047 172.0 172
  147.04726 139.0 139
  148.04819 1000.0 999
  149.04913 139.0 139
  149.06114 254.0 254
  161.05531 139.0 139
  163.07671 221.0 221
  164.07628 221.0 221
//
