ACCESSION: MSBNK-RIKEN-PR303172
RECORD_TITLE: Kaempferol-3-O-glucuronoside; LC-ESI-QTOF; MS2
DATE: 2019.03.28
AUTHORS: Tetsuya Mori, Center for Sustainable Resource Science, RIKEN
LICENSE: CC BY-NC-SA
PUBLICATION: Tsugawa H., Nakabayashi R., Mori T., Yamada Y., Takahashi M., Rai A., Sugiyama R., Yamamoto H., Nakaya T., Yamazaki M., Kooke R., Bac-Molenaar JA., Oztolan-Erol N., Keurentjes JJB., Arita M., Saito K. (2019) "A cheminformatics approach to characterize metabolomes in stable-isotope-labeled organisms" Nature Methods 16(4):295-298. [doi:10.1038/s41592-019-0358-2]
COMMENT: registered in RIKEN PlaSMA
CH$NAME: Kaempferol-3-O-glucuronoside
CH$COMPOUND_CLASS: Flavonoid-3-O-glucuronides
CH$FORMULA: C21H18O12
CH$EXACT_MASS: 462.363
CH$SMILES: O[C@@H]1[C@@H](O)[C@H](OC2=C(OC3=CC(O)=CC(O)=C3C2=O)C2=CC=C(O)C=C2)O[C@@H]([C@H]1O)C(O)=O
CH$IUPAC: InChI=1S/C21H18O12/c22-8-3-1-7(2-4-8)17-18(13(25)12-10(24)5-9(23)6-11(12)31-17)32-21-16(28)14(26)15(27)19(33-21)20(29)30/h1-6,14-16,19,21-24,26-28H,(H,29,30)/t14-,15-,16+,19-,21+/m0/s1
CH$LINK: INCHIKEY FNTJVYCFNVUBOL-ZUGPOPFOSA-N
AC$INSTRUMENT: LC, Waters Acquity UPLC System; MS, Waters Xevo G2 Q-Tof
AC$INSTRUMENT_TYPE: LC-ESI-QTOF
AC$MASS_SPECTROMETRY: MS_TYPE MS2
AC$MASS_SPECTROMETRY: ION_MODE POSITIVE
AC$MASS_SPECTROMETRY: COLLISION_ENERGY 6V
AC$MASS_SPECTROMETRY: DESOLVATION_GAS_FLOW 800/h
AC$MASS_SPECTROMETRY: DESOLVATION_TEMPERATURE 450 C
AC$MASS_SPECTROMETRY: IONIZATION ESI
AC$CHROMATOGRAPHY: CAPILLARY_VOLTAGE +3.00 kV
AC$CHROMATOGRAPHY: COLUMN_NAME Acquity bridged ethyl hybrid C18 (1.7 um, 2.1 mm * 100 mm, Waters)
AC$CHROMATOGRAPHY: COLUMN_TEMPERATURE 40 C
AC$CHROMATOGRAPHY: FLOW_GRADIENT A/B = (99.5%/0.5% at 0 min, 99.5%/0.5% at 0.1 min, 20%/80% at 10 min, 0.5%/99.5% at 10.1 min, 0.5%/99.5% at 12.0 min, 99.5%/0.5% at 12.1 min, 99.5%/0.5% at 15.0 min)
AC$CHROMATOGRAPHY: FLOW_RATE 0.3 ml/min at 0 min, 0.3 ml/min at 10 min, 0.4 ml/min at 10.1 min, 0.4 ml/min at 14.4 min, 0.3 ml/min at 14.5 min
AC$CHROMATOGRAPHY: RETENTION_TIME 4.343433
AC$CHROMATOGRAPHY: SOLVENT A water including 0.1% formic acid
AC$CHROMATOGRAPHY: SOLVENT B acetonitrile including 0.1% formic acid
MS$FOCUSED_ION: PRECURSOR_TYPE [M+H]+
MS$FOCUSED_ION: PRECURSOR_M/Z 463.0871025
PK$SPLASH: splash10-000i-0090000000-0dd1bd853f4f777df491
PK$NUM_PEAK: 29
PK$PEAK: m/z int. rel.int.
  71.01131 9.0 9
  85.0302 66.0 66
  95.01427 11.0 11
  101.02421 9.0 9
  103.03992 17.0 17
  113.02203 27.0 27
  121.02277 12.0 12
  131.02533 9.0 9
  141.02109 10.0 10
  148.05157 8.0 8
  159.01953 8.0 8
  164.99524 15.0 15
  165.02023 8.0 8
  176.08339 17.0 17
  242.05064 12.0 12
  286.98697 9.0 9
  287.01196 11.0 11
  287.05539 1000.0 999
  287.14059 7.0 7
  287.77722 11.0 11
  288.05444 129.0 129
  288.06851 137.0 137
  289.03574 7.0 7
  289.05362 22.0 22
  289.08365 10.0 10
  290.69839 7.0 7
  293.59113 8.0 8
  353.96753 7.0 7
  365.06384 12.0 12
//
