ACCESSION: MSBNK-RIKEN-PR302779
RECORD_TITLE: Kaempferol-4'-methyl ether; LC-ESI-QTOF; MS2
DATE: 2019.03.28
AUTHORS: Tetsuya Mori, Center for Sustainable Resource Science, RIKEN
LICENSE: CC BY-NC-SA
PUBLICATION: Tsugawa H., Nakabayashi R., Mori T., Yamada Y., Takahashi M., Rai A., Sugiyama R., Yamamoto H., Nakaya T., Yamazaki M., Kooke R., Bac-Molenaar JA., Oztolan-Erol N., Keurentjes JJB., Arita M., Saito K. (2019) "A cheminformatics approach to characterize metabolomes in stable-isotope-labeled organisms" Nature Methods 16(4):295-298. [doi:10.1038/s41592-019-0358-2]
COMMENT: registered in RIKEN PlaSMA
CH$NAME: Kaempferol-4'-methyl ether
CH$COMPOUND_CLASS: Flavonols
CH$FORMULA: C16H12O6
CH$EXACT_MASS: 300.266
CH$SMILES: COC1=CC=C(C=C1)C1=C(O)C(=O)C2=C(O)C=C(O)C=C2O1
CH$IUPAC: InChI=1S/C16H12O6/c1-21-10-4-2-8(3-5-10)16-15(20)14(19)13-11(18)6-9(17)7-12(13)22-16/h2-7,17-18,20H,1H3
CH$LINK: INCHIKEY SQFSKOYWJBQGKQ-UHFFFAOYSA-N
AC$INSTRUMENT: LC, Waters Acquity UPLC System; MS, Waters Xevo G2 Q-Tof
AC$INSTRUMENT_TYPE: LC-ESI-QTOF
AC$MASS_SPECTROMETRY: MS_TYPE MS2
AC$MASS_SPECTROMETRY: ION_MODE POSITIVE
AC$MASS_SPECTROMETRY: COLLISION_ENERGY 6V
AC$MASS_SPECTROMETRY: DESOLVATION_GAS_FLOW 800/h
AC$MASS_SPECTROMETRY: DESOLVATION_TEMPERATURE 450 C
AC$MASS_SPECTROMETRY: IONIZATION ESI
AC$CHROMATOGRAPHY: CAPILLARY_VOLTAGE +3.00 kV
AC$CHROMATOGRAPHY: COLUMN_NAME Acquity bridged ethyl hybrid C18 (1.7 um, 2.1 mm * 100 mm, Waters)
AC$CHROMATOGRAPHY: COLUMN_TEMPERATURE 40 C
AC$CHROMATOGRAPHY: FLOW_GRADIENT A/B = (99.5%/0.5% at 0 min, 99.5%/0.5% at 0.1 min, 20%/80% at 10 min, 0.5%/99.5% at 10.1 min, 0.5%/99.5% at 12.0 min, 99.5%/0.5% at 12.1 min, 99.5%/0.5% at 15.0 min)
AC$CHROMATOGRAPHY: FLOW_RATE 0.3 ml/min at 0 min, 0.3 ml/min at 10 min, 0.4 ml/min at 10.1 min, 0.4 ml/min at 14.4 min, 0.3 ml/min at 14.5 min
AC$CHROMATOGRAPHY: RETENTION_TIME 7.544483
AC$CHROMATOGRAPHY: SOLVENT A water including 0.1% formic acid
AC$CHROMATOGRAPHY: SOLVENT B acetonitrile including 0.1% formic acid
MS$FOCUSED_ION: PRECURSOR_TYPE [M+H]+
MS$FOCUSED_ION: PRECURSOR_M/Z 301.0706646
PK$SPLASH: splash10-0zgi-0491000000-f03c3eb22e1bc83117be
PK$NUM_PEAK: 202
PK$PEAK: m/z int. rel.int.
  68.99799 6.0 6
  79.01903 7.0 7
  79.05579 7.0 7
  81.03712 6.0 6
  83.01485 8.0 8
  91.05387 6.0 6
  91.0581 6.0 6
  93.02493 8.0 8
  103.05665 6.0 6
  105.07426 6.0 6
  105.38167 7.0 7
  106.02342 10.0 10
  106.04113 17.0 17
  107.03918 6.0 6
  107.04662 46.0 46
  107.05356 11.0 11
  108.05463 14.0 14
  108.06252 13.0 13
  109.02339 24.0 24
  109.03251 17.0 17
  110.02937 15.0 15
  119.05168 9.0 9
  119.08859 5.0 5
  121.02448 6.0 6
  121.05719 8.0 8
  121.06543 28.0 28
  124.01361 21.0 21
  126.03116 17.0 17
  127.2739 7.0 7
  129.07376 9.0 9
  131.05542 9.0 9
  132.02147 9.0 9
  134.03737 19.0 19
  135.04501 272.0 272
  135.36304 5.0 5
  136.04518 39.0 39
  137.02399 70.0 70
  137.05515 6.0 6
  138.02269 5.0 5
  139.02408 22.0 22
  139.03784 187.0 187
  139.04398 54.0 54
  140.04118 41.0 41
  141.03749 7.0 7
  145.06497 24.0 24
  146.036 7.0 7
  147.04039 19.0 19
  149.04176 6.0 6
  149.05676 9.0 9
  149.06378 6.0 6
  151.998 6.0 6
  152.00372 14.0 14
  152.01457 8.0 8
  152.97771 6.0 6
  152.99005 8.0 8
  153.01707 476.0 476
  153.05855 6.0 6
  153.07153 6.0 6
  154.00919 7.0 7
  154.02028 33.0 33
  155.02739 6.0 6
  156.05861 5.0 5
  157.06841 11.0 11
  160.00876 23.0 23
  160.01797 59.0 59
  160.05293 9.0 9
  161.00232 5.0 5
  161.01361 11.0 11
  161.02051 5.0 5
  161.05653 79.0 79
  161.06937 35.0 35
  162.02232 6.0 6
  162.07059 9.0 9
  164.96785 6.0 6
  165.01785 238.0 238
  166.02132 14.0 14
  168.05667 9.0 9
  171.05006 6.0 6
  171.08197 20.0 20
  171.08948 11.0 11
  172.04352 7.0 7
  173.04555 5.0 5
  173.05891 7.0 7
  173.06505 7.0 7
  174.03723 5.0 5
  175.0425 8.0 8
  175.08023 22.0 22
  180.54886 6.0 6
  181.06543 8.0 8
  183.04819 6.0 6
  183.91486 6.0 6
  184.05023 79.0 79
  184.96735 8.0 8
  185.06062 64.0 64
  186.05931 5.0 5
  187.03365 6.0 6
  187.07451 14.0 14
  188.08064 6.0 6
  189.05156 9.0 9
  189.09171 6.0 6
  195.02611 6.0 6
  196.03224 6.0 6
  200.03055 7.0 7
  201.05464 84.0 84
  201.06261 37.0 37
  201.7495 6.0 6
  202.05865 60.0 60
  202.06647 28.0 28
  202.74757 8.0 8
  203.06564 19.0 19
  203.07315 8.0 8
  211.03954 11.0 11
  211.07372 6.0 6
  212.04333 52.0 52
  212.05928 34.0 34
  212.3076 7.0 7
  213.03143 9.0 9
  213.04515 21.0 21
  213.0555 77.0 77
  214.05692 41.0 41
  214.06911 9.0 9
  214.62169 6.0 6
  215.02335 6.0 6
  216.03557 8.0 8
  217.04295 18.0 18
  217.05624 5.0 5
  217.07921 6.0 6
  218.01445 7.0 7
  219.02223 6.0 6
  219.03989 8.0 8
  227.06911 44.0 44
  228.0126 6.0 6
  228.03563 8.0 8
  228.06209 6.0 6
  228.07053 7.0 7
  229.00375 7.0 7
  229.02202 16.0 16
  229.05133 527.0 526
  229.96211 6.0 6
  229.98141 10.0 10
  230.00522 17.0 17
  230.05753 924.0 923
  230.11995 6.0 6
  230.69089 6.0 6
  231.05417 88.0 88
  231.06749 33.0 33
  231.40694 10.0 10
  237.11333 9.0 9
  240.04216 19.0 19
  241.03674 13.0 13
  241.05194 30.0 30
  242.03487 6.0 6
  242.04892 14.0 14
  242.06107 17.0 17
  243.02997 30.0 30
  243.06752 7.0 7
  245.08109 63.0 63
  246.09004 13.0 13
  255.05771 23.0 23
  257.01758 5.0 5
  257.04391 188.0 188
  257.14078 6.0 6
  258.01959 13.0 13
  258.05194 888.0 887
  258.86111 6.0 6
  259.03305 11.0 11
  259.04562 44.0 44
  259.05914 185.0 185
  260.06039 10.0 10
  268.03271 21.0 21
  268.04565 5.0 5
  268.91571 6.0 6
  269.04608 191.0 191
  270.04605 50.0 50
  271.00635 6.0 6
  271.0368 22.0 22
  271.06055 21.0 21
  272.01883 5.0 5
  272.04633 9.0 9
  272.06793 81.0 81
  272.08591 8.0 8
  283.06329 8.0 8
  284.03452 5.0 5
  285.01031 13.0 13
  285.04202 62.0 62
  286.01736 18.0 18
  286.04883 413.0 413
  286.50089 6.0 6
  286.83606 6.0 6
  287.01498 6.0 6
  287.03268 7.0 7
  287.05246 86.0 86
  288.02499 6.0 6
  288.06009 18.0 18
  289.05688 7.0 7
  299.06363 9.0 9
  300.05194 7.0 7
  300.70792 6.0 6
  300.84875 5.0 5
  301.02405 17.0 17
  301.03781 20.0 20
  301.0712 1000.0 999
//
