ACCESSION: MSBNK-RIKEN-PR300398
RECORD_TITLE: Lycoctonine; LC-ESI-QTOF; MS2
DATE: 2019.03.28
AUTHORS: Tetsuya Mori, Center for Sustainable Resource Science, RIKEN
LICENSE: CC BY-NC-SA
PUBLICATION: Tsugawa H., Nakabayashi R., Mori T., Yamada Y., Takahashi M., Rai A., Sugiyama R., Yamamoto H., Nakaya T., Yamazaki M., Kooke R., Bac-Molenaar JA., Oztolan-Erol N., Keurentjes JJB., Arita M., Saito K. (2019) "A cheminformatics approach to characterize metabolomes in stable-isotope-labeled organisms" Nature Methods 16(4):295-298. [doi:10.1038/s41592-019-0358-2]
COMMENT: registered in RIKEN PlaSMA
CH$NAME: Lycoctonine
CH$COMPOUND_CLASS: Aconitane-type diterpenoid alkaloids
CH$FORMULA: C25H41NO7
CH$EXACT_MASS: 467.603
CH$SMILES: CCN1C[C@]2(CO)CC[C@H](OC)[C@@]34[C@@H]5C[C@H]6[C@H](OC)[C@@H]5[C@](O)(C[C@@H]6OC)[C@@](O)([C@@H](OC)[C@H]23)C14
CH$IUPAC: InChI=1S/C25H41NO7/c1-6-26-11-22(12-27)8-7-16(31-3)24-14-9-13-15(30-2)10-23(28,17(14)18(13)32-4)25(29,21(24)26)20(33-5)19(22)24/h13-21,27-29H,6-12H2,1-5H3/t13-,14-,15+,16+,17-,18+,19-,20+,21?,22+,23-,24+,25-/m1/s1
CH$LINK: INCHIKEY YOTUXHIWBVZAJQ-YAEAOFIFSA-N
AC$INSTRUMENT: LC, Waters Acquity UPLC System; MS, Waters Xevo G2 Q-Tof
AC$INSTRUMENT_TYPE: LC-ESI-QTOF
AC$MASS_SPECTROMETRY: MS_TYPE MS2
AC$MASS_SPECTROMETRY: ION_MODE POSITIVE
AC$MASS_SPECTROMETRY: COLLISION_ENERGY 6V
AC$MASS_SPECTROMETRY: DESOLVATION_GAS_FLOW 800/h
AC$MASS_SPECTROMETRY: DESOLVATION_TEMPERATURE 450 C
AC$MASS_SPECTROMETRY: IONIZATION ESI
AC$CHROMATOGRAPHY: CAPILLARY_VOLTAGE +3.00 kV
AC$CHROMATOGRAPHY: COLUMN_NAME Acquity bridged ethyl hybrid C18 (1.7 um, 2.1 mm * 100 mm, Waters)
AC$CHROMATOGRAPHY: COLUMN_TEMPERATURE 40 C
AC$CHROMATOGRAPHY: FLOW_GRADIENT A/B = (99.5%/0.5% at 0 min, 99.5%/0.5% at 0.1 min, 20%/80% at 10 min, 0.5%/99.5% at 10.1 min, 0.5%/99.5% at 12.0 min, 99.5%/0.5% at 12.1 min, 99.5%/0.5% at 15.0 min)
AC$CHROMATOGRAPHY: FLOW_RATE 0.3 ml/min at 0 min, 0.3 ml/min at 10 min, 0.4 ml/min at 10.1 min, 0.4 ml/min at 14.4 min, 0.3 ml/min at 14.5 min
AC$CHROMATOGRAPHY: RETENTION_TIME 3.674817
AC$CHROMATOGRAPHY: SOLVENT A water including 0.1% formic acid
AC$CHROMATOGRAPHY: SOLVENT B acetonitrile including 0.1% formic acid
MS$FOCUSED_ION: PRECURSOR_TYPE [M+H]+
MS$FOCUSED_ION: PRECURSOR_M/Z 468.2955791
PK$SPLASH: splash10-056r-1941000000-7fbec142805a05288fa1
PK$NUM_PEAK: 911
PK$PEAK: m/z int. rel.int.
  55.01839 6.0 6
  55.05478 6.0 6
  58.05408 11.0 11
  58.06144 18.0 18
  58.06532 89.0 89
  60.07584 7.0 7
  61.02952 6.0 6
  65.04101 8.0 8
  67.05676 5.0 5
  68.0527 10.0 10
  69.02801 9.0 9
  69.03539 10.0 10
  70.06561 8.0 8
  71.04996 87.0 87
  71.06979 21.0 21
  71.07789 7.0 7
  72.04379 9.0 9
  72.05755 17.0 17
  72.08298 53.0 53
  73.08099 8.0 8
  73.08804 7.0 7
  75.04437 348.0 348
  76.04959 5.0 5
  77.03912 15.0 15
  79.05159 23.0 23
  79.05605 60.0 60
  80.04121 6.0 6
  80.05182 29.0 29
  81.04094 11.0 11
  81.07052 28.0 28
  82.05879 11.0 11
  82.06698 36.0 36
  83.05235 6.0 6
  84.07533 23.0 23
  84.08327 82.0 82
  85.02941 24.0 24
  85.03324 13.0 13
  85.05205 6.0 6
  85.0626 5.0 5
  85.06684 7.0 7
  85.08765 9.0 9
  86.05986 13.0 13
  86.06776 18.0 18
  86.09904 9.0 9
  87.04214 20.0 20
  87.04927 15.0 15
  87.06776 6.0 6
  88.07563 20.0 20
  88.08115 9.0 9
  90.42855 5.0 5
  90.82478 5.0 5
  91.03925 7.0 7
  91.04727 21.0 21
  91.05547 132.0 132
  92.05341 23.0 23
  92.06261 7.0 7
  93.03049 22.0 22
  93.06081 6.0 6
  93.07205 67.0 67
  94.034 8.0 8
  94.05917 10.0 10
  94.06621 50.0 50
  94.07489 5.0 5
  95.04873 12.0 12
  95.05585 6.0 6
  95.06949 16.0 16
  96.06856 5.0 5
  96.08158 391.0 391
  97.05888 13.0 13
  97.06667 29.0 29
  97.08049 26.0 26
  97.08642 25.0 25
  98.04827 8.0 8
  98.05903 25.0 25
  98.06447 6.0 6
  98.09098 14.0 14
  98.09839 76.0 76
  99.04359 8.0 8
  100.07556 52.0 52
  102.09683 8.0 8
  103.05152 11.0 11
  103.05921 5.0 5
  104.05755 8.0 8
  105.03893 9.0 9
  105.06964 164.0 164
  106.06537 16.0 16
  107.01064 7.0 7
  107.02161 6.0 6
  107.04573 52.0 52
  107.05116 90.0 90
  107.08674 13.0 13
  108.05122 8.0 8
  108.05969 8.0 8
  108.06357 19.0 19
  108.08105 1000.0 999
  109.04726 11.0 11
  109.06205 67.0 67
  109.06601 27.0 27
  109.08131 63.0 63
  109.08733 70.0 70
  109.09718 11.0 11
  110.06033 24.0 24
  110.07585 8.0 8
  110.0859 14.0 14
  110.09654 189.0 189
  111.04624 6.0 6
  111.06228 13.0 13
  111.06879 9.0 9
  111.07957 6.0 6
  111.10122 29.0 29
  112.07204 24.0 24
  112.07885 19.0 19
  112.11086 6.0 6
  113.07288 6.0 6
  113.09269 5.0 5
  113.83712 5.0 5
  114.05709 10.0 10
  114.09158 206.0 206
  115.05041 10.0 10
  115.05516 37.0 37
  115.06342 9.0 9
  115.09612 36.0 36
  115.86172 7.0 7
  116.04671 7.0 7
  116.06273 25.0 25
  116.07662 7.0 7
  117.04855 7.0 7
  117.0593 22.0 22
  117.06982 128.0 128
  118.05917 6.0 6
  118.07685 30.0 30
  119.03554 6.0 6
  119.05003 92.0 92
  119.06993 15.0 15
  119.07754 27.0 27
  119.08712 35.0 35
  119.63453 6.0 6
  120.0821 15.0 15
  121.05304 10.0 10
  121.06429 103.0 103
  121.08819 55.0 55
  122.05669 9.0 9
  122.06434 21.0 21
  122.07503 29.0 29
  122.09711 284.0 284
  123.04252 14.0 14
  123.08083 31.0 31
  123.08974 6.0 6
  123.10205 39.0 39
  124.07764 49.0 49
  124.10178 12.0 12
  124.11317 81.0 81
  125.05994 31.0 31
  125.07726 8.0 8
  125.11377 19.0 19
  126.05543 5.0 5
  126.06544 9.0 9
  126.09175 426.0 426
  126.47025 6.0 6
  127.05385 18.0 18
  127.0927 24.0 24
  127.10174 10.0 10
  128.0643 134.0 134
  128.10323 15.0 15
  128.23454 8.0 8
  129.06941 247.0 247
  129.07617 70.0 70
  130.04417 12.0 12
  130.07312 39.0 39
  130.08913 9.0 9
  131.05035 20.0 20
  131.05832 13.0 13
  131.07207 18.0 18
  131.08604 145.0 145
  132.04593 5.0 5
  132.05339 21.0 21
  132.0744 7.0 7
  132.09088 35.0 35
  132.82036 9.0 9
  132.9744 7.0 7
  133.03807 9.0 9
  133.06572 41.0 41
  133.08786 12.0 12
  133.09827 6.0 6
  134.06 6.0 6
  134.07027 14.0 14
  134.09007 18.0 18
  134.09781 72.0 72
  134.11189 9.0 9
  135.04344 9.0 9
  135.0791 63.0 63
  135.0999 9.0 9
  135.10568 20.0 20
  136.07407 63.0 63
  136.0809 28.0 28
  136.10599 6.0 6
  136.11482 18.0 18
  137.06165 133.0 133
  137.08542 11.0 11
  137.09924 14.0 14
  137.11667 10.0 10
  138.07021 12.0 12
  138.09166 340.0 340
  139.07629 9.0 9
  139.09584 47.0 47
  140.10713 473.0 473
  141.05342 8.0 8
  141.06367 22.0 22
  141.07088 107.0 107
  141.10419 29.0 29
  141.11218 47.0 47
  142.07402 87.0 87
  142.08476 12.0 12
  142.72736 6.0 6
  143.07004 5.0 5
  143.08455 141.0 141
  143.09509 23.0 23
  144.05855 13.0 13
  144.07185 10.0 10
  144.08644 29.0 29
  144.09479 33.0 33
  145.05717 10.0 10
  145.06763 51.0 51
  145.08588 5.0 5
  145.09506 15.0 15
  145.10312 21.0 21
  146.06201 9.0 9
  146.07065 17.0 17
  146.09718 109.0 109
  147.07211 16.0 16
  147.07948 61.0 61
  147.10075 26.0 26
  147.10814 18.0 18
  148.08276 8.0 8
  148.09831 7.0 7
  148.10709 20.0 20
  148.11519 50.0 50
  148.1255 10.0 10
  149.06087 9.0 9
  149.08385 18.0 18
  149.09485 22.0 22
  149.10229 20.0 20
  149.11633 22.0 22
  149.54539 7.0 7
  150.08992 17.0 17
  150.10992 7.0 7
  150.13652 7.0 7
  151.06157 7.0 7
  151.073 17.0 17
  151.08464 32.0 32
  151.09819 18.0 18
  151.1098 8.0 8
  152.06128 18.0 18
  152.06918 43.0 43
  152.08051 6.0 6
  152.10851 13.0 13
  153.00938 7.0 7
  153.05051 8.0 8
  153.07034 116.0 116
  153.11354 21.0 21
  154.07368 24.0 24
  154.08287 76.0 76
  154.12657 55.0 55
  155.05309 10.0 10
  155.06931 9.0 9
  155.08662 224.0 224
  155.12822 27.0 27
  155.53462 7.0 7
  156.08376 27.0 27
  156.09821 52.0 52
  156.13701 7.0 7
  157.05782 18.0 18
  157.0661 31.0 31
  157.0858 10.0 10
  157.1026 18.0 18
  157.11165 13.0 13
  158.06691 22.0 22
  158.07491 22.0 22
  158.09631 40.0 40
  158.66534 8.0 8
  159.06181 9.0 9
  159.08099 97.0 97
  159.09856 17.0 17
  159.11507 6.0 6
  159.84286 5.0 5
  160.07144 11.0 11
  160.08058 18.0 18
  160.1127 161.0 161
  161.0594 19.0 19
  161.07852 19.0 19
  161.0921 34.0 34
  161.10403 9.0 9
  161.11554 39.0 39
  162.06165 8.0 8
  162.07747 7.0 7
  162.09041 17.0 17
  162.09886 5.0 5
  162.11604 7.0 7
  162.12709 70.0 70
  162.52054 5.0 5
  163.08133 14.0 14
  163.09818 13.0 13
  163.1335 17.0 17
  164.1022 8.0 8
  164.11052 11.0 11
  165.05771 30.0 30
  165.06958 140.0 140
  165.08981 6.0 6
  165.10849 5.0 5
  165.11778 6.0 6
  166.00244 5.0 5
  166.07921 92.0 92
  166.09816 14.0 14
  166.10693 6.0 6
  166.12717 6.0 6
  167.04559 7.0 7
  167.06239 10.0 10
  167.08598 130.0 130
  168.07806 20.0 20
  168.09633 33.0 33
  168.10275 13.0 13
  169.06288 39.0 39
  169.0813 24.0 24
  169.10323 154.0 154
  170.06079 5.0 5
  170.07097 10.0 10
  170.09299 12.0 12
  170.10335 27.0 27
  170.85063 7.0 7
  171.06729 11.0 11
  171.08167 91.0 91
  171.10204 12.0 12
  171.11345 14.0 14
  171.12625 8.0 8
  172.07683 9.0 9
  172.08871 29.0 29
  172.11296 66.0 66
  173.06534 5.0 5
  173.08208 6.0 6
  173.0954 63.0 63
  173.10414 38.0 38
  173.1127 15.0 15
  173.13168 10.0 10
  174.06621 8.0 8
  174.08682 14.0 14
  174.10072 44.0 44
  174.12837 68.0 68
  175.073 18.0 18
  175.0988 5.0 5
  175.11023 39.0 39
  175.13521 41.0 41
  175.14499 8.0 8
  176.07715 13.0 13
  176.08759 11.0 11
  176.10957 30.0 30
  176.14148 20.0 20
  177.06314 7.0 7
  177.08978 34.0 34
  177.11201 33.0 33
  177.14551 7.0 7
  177.15369 8.0 8
  178.07323 30.0 30
  178.07961 79.0 79
  178.12331 19.0 19
  178.14764 9.0 9
  179.07941 68.0 68
  179.08661 207.0 207
  179.11531 7.0 7
  179.12654 9.0 9
  180.08704 33.0 33
  180.09779 54.0 54
  180.14497 17.0 17
  181.06334 36.0 36
  181.07436 12.0 12
  181.09143 41.0 41
  181.10316 102.0 102
  181.53912 7.0 7
  182.06967 19.0 19
  182.08914 13.0 13
  182.10175 42.0 42
  182.11259 8.0 8
  183.07597 44.0 44
  183.08472 21.0 21
  183.11609 71.0 71
  184.06227 6.0 6
  184.08391 40.0 40
  184.11113 37.0 37
  184.12379 6.0 6
  184.21222 6.0 6
  185.05678 9.0 9
  185.06723 13.0 13
  185.07607 7.0 7
  185.0939 60.0 60
  185.12051 28.0 28
  186.09544 12.0 12
  186.10872 12.0 12
  186.12787 58.0 58
  186.1375 13.0 13
  187.0752 20.0 20
  187.10013 12.0 12
  187.11118 5.0 5
  187.1369 27.0 27
  188.10239 60.0 60
  188.11137 45.0 45
  188.12923 9.0 9
  188.14394 127.0 127
  188.16029 8.0 8
  189.06915 16.0 16
  189.09036 10.0 10
  189.11829 16.0 16
  189.14375 14.0 14
  190.0827 36.0 36
  190.12247 128.0 128
  190.15269 6.0 6
  191.07007 20.0 20
  191.08336 31.0 31
  191.09871 13.0 13
  191.11885 15.0 15
  191.13116 18.0 18
  191.14258 22.0 22
  192.09424 145.0 145
  192.13792 50.0 50
  193.06384 6.0 6
  193.08446 13.0 13
  193.10033 161.0 161
  193.14111 9.0 9
  193.14984 9.0 9
  194.06265 7.0 7
  194.07224 17.0 17
  194.10129 13.0 13
  194.11249 35.0 35
  194.12346 5.0 5
  194.15791 22.0 22
  194.9064 5.0 5
  195.0882 66.0 66
  195.10172 16.0 16
  195.11728 72.0 72
  195.15977 8.0 8
  196.07277 6.0 6
  196.08488 6.0 6
  196.10661 16.0 16
  196.11748 26.0 26
  196.12863 12.0 12
  197.07033 6.0 6
  197.08572 21.0 21
  197.09302 41.0 41
  197.1024 16.0 16
  197.1138 20.0 20
  197.13596 22.0 22
  198.10043 32.0 32
  198.12369 47.0 47
  198.134 22.0 22
  198.56996 10.0 10
  199.07043 10.0 10
  199.09105 9.0 9
  199.11237 23.0 23
  199.13182 21.0 21
  200.10277 7.0 7
  200.11273 21.0 21
  200.14482 16.0 16
  201.08549 19.0 19
  201.09605 7.0 7
  201.13458 20.0 20
  201.1506 18.0 18
  201.55104 6.0 6
  202.04556 7.0 7
  202.07251 7.0 7
  202.07919 6.0 6
  202.09459 17.0 17
  202.12299 62.0 62
  202.16521 6.0 6
  203.07364 8.0 8
  203.08736 113.0 113
  203.11772 15.0 15
  203.12979 26.0 26
  203.15874 5.0 5
  204.0463 5.0 5
  204.08167 23.0 23
  204.09578 116.0 116
  204.12764 23.0 23
  204.13857 9.0 9
  205.06491 29.0 29
  205.08987 44.0 44
  205.0983 92.0 92
  205.1256 12.0 12
  206.10661 92.0 92
  206.11627 28.0 28
  206.15572 15.0 15
  207.07678 19.0 19
  207.08739 11.0 11
  207.11836 113.0 113
  207.16521 6.0 6
  208.08798 91.0 91
  208.11052 25.0 25
  208.12314 38.0 38
  209.08711 17.0 17
  209.09483 29.0 29
  209.11162 35.0 35
  209.13042 19.0 19
  209.1396 23.0 23
  210.09206 9.0 9
  210.10168 27.0 27
  210.13033 61.0 61
  211.08429 6.0 6
  211.10823 54.0 54
  211.12602 13.0 13
  212.0985 15.0 15
  212.11288 47.0 47
  212.14838 46.0 46
  213.09167 13.0 13
  213.12477 25.0 25
  213.14369 9.0 9
  214.12485 60.0 60
  214.14186 8.0 8
  214.15762 15.0 15
  215.08366 54.0 54
  216.09262 32.0 32
  216.10246 35.0 35
  216.13799 50.0 50
  216.14615 28.0 28
  217.08481 13.0 13
  217.10109 61.0 61
  218.0994 20.0 20
  218.12204 20.0 20
  218.14687 11.0 11
  218.15851 30.0 30
  219.0903 33.0 33
  219.1095 18.0 18
  219.1165 39.0 39
  219.12701 39.0 39
  219.15582 18.0 18
  219.16486 8.0 8
  220.08643 6.0 6
  220.09683 11.0 11
  220.11098 19.0 19
  220.13206 28.0 28
  220.14209 28.0 28
  220.17175 22.0 22
  221.00476 6.0 6
  221.10005 16.0 16
  221.10873 14.0 14
  221.12074 12.0 12
  221.13635 66.0 66
  221.1711 7.0 7
  221.29111 5.0 5
  222.09628 39.0 39
  222.13361 47.0 47
  223.10486 30.0 30
  223.11526 10.0 10
  223.13205 10.0 10
  223.1422 25.0 25
  224.07745 10.0 10
  224.10371 15.0 15
  224.11577 32.0 32
  224.13379 40.0 40
  224.14584 40.0 40
  225.09203 9.0 9
  225.11603 44.0 44
  225.131 12.0 12
  225.14651 17.0 17
  226.07726 14.0 14
  226.12012 38.0 38
  226.13123 22.0 22
  226.15443 25.0 25
  227.11356 23.0 23
  227.13042 6.0 6
  227.14287 8.0 8
  228.075 6.0 6
  228.09535 22.0 22
  228.11046 10.0 10
  228.14046 18.0 18
  229.10165 33.0 33
  229.12148 40.0 40
  229.14383 11.0 11
  230.07549 13.0 13
  230.10779 19.0 19
  230.14259 11.0 11
  230.15436 11.0 11
  230.89926 6.0 6
  231.07964 9.0 9
  231.09151 20.0 20
  231.10266 27.0 27
  231.11249 33.0 33
  231.12233 20.0 20
  231.13542 12.0 12
  231.15082 8.0 8
  231.16504 6.0 6
  232.06885 6.0 6
  232.08969 24.0 24
  232.10077 13.0 13
  232.11549 18.0 18
  232.12814 6.0 6
  233.08897 9.0 9
  233.12302 6.0 6
  234.09206 9.0 9
  234.10788 32.0 32
  234.12016 17.0 17
  234.1288 33.0 33
  234.14281 12.0 12
  235.08427 8.0 8
  235.10919 39.0 39
  235.13606 27.0 27
  236.10631 16.0 16
  236.12102 17.0 17
  236.14734 25.0 25
  237.08398 8.0 8
  237.11082 9.0 9
  237.12997 61.0 61
  237.15033 14.0 14
  237.15929 12.0 12
  238.12753 14.0 14
  238.14696 7.0 7
  238.16052 26.0 26
  239.10872 13.0 13
  239.12874 64.0 64
  239.14423 7.0 7
  240.11876 9.0 9
  240.13597 10.0 10
  240.1468 7.0 7
  240.18051 14.0 14
  240.35352 6.0 6
  241.10439 11.0 11
  241.14297 22.0 22
  241.15491 8.0 8
  242.11884 13.0 13
  242.14738 15.0 15
  242.15727 29.0 29
  242.3185 9.0 9
  243.06213 6.0 6
  243.15298 10.0 10
  244.05643 6.0 6
  244.12854 17.0 17
  244.14453 20.0 20
  244.16861 10.0 10
  244.17949 6.0 6
  244.8755 7.0 7
  245.08072 7.0 7
  245.11827 10.0 10
  245.12981 10.0 10
  245.13875 17.0 17
  246.12927 26.0 26
  246.14244 17.0 17
  247.07878 8.0 8
  247.11162 20.0 20
  247.14944 18.0 18
  247.16158 11.0 11
  248.11154 20.0 20
  248.12268 29.0 29
  248.14854 31.0 31
  248.67133 6.0 6
  249.12576 44.0 44
  249.15747 11.0 11
  250.12056 20.0 20
  250.13246 6.0 6
  250.16089 22.0 22
  251.11586 6.0 6
  251.13823 21.0 21
  251.14862 15.0 15
  251.17145 10.0 10
  252.1105 14.0 14
  252.14175 40.0 40
  252.16962 18.0 18
  253.10936 11.0 11
  253.12085 30.0 30
  253.14174 10.0 10
  253.16243 20.0 20
  254.11929 6.0 6
  254.13722 11.0 11
  254.15083 17.0 17
  254.16861 13.0 13
  254.1788 9.0 9
  255.13007 12.0 12
  255.16582 21.0 21
  255.40123 6.0 6
  256.1301 8.0 8
  258.15079 11.0 11
  258.18674 10.0 10
  259.12357 25.0 25
  259.14087 26.0 26
  260.14478 11.0 11
  260.16788 14.0 14
  261.13678 12.0 12
  261.15314 13.0 13
  261.17294 11.0 11
  262.13641 14.0 14
  262.15271 22.0 22
  262.1669 6.0 6
  262.19623 6.0 6
  263.11731 16.0 16
  263.16809 12.0 12
  264.13605 43.0 43
  264.15021 14.0 14
  264.16769 5.0 5
  264.181 31.0 31
  265.14377 39.0 39
  265.16666 7.0 7
  266.11584 6.0 6
  266.12701 9.0 9
  266.14243 23.0 23
  266.1528 18.0 18
  266.164 24.0 24
  267.13623 22.0 22
  267.16367 25.0 25
  268.15616 7.0 7
  268.17059 40.0 40
  269.11319 7.0 7
  269.14517 15.0 15
  269.15533 10.0 10
  269.16486 8.0 8
  270.14557 31.0 31
  270.18872 13.0 13
  271.13898 6.0 6
  271.15894 5.0 5
  272.15845 44.0 44
  273.14029 12.0 12
  274.14441 9.0 9
  274.15451 14.0 14
  274.16559 9.0 9
  275.173 9.0 9
  276.14182 19.0 19
  276.16443 8.0 8
  276.17316 19.0 19
  277.15567 11.0 11
  278.12805 5.0 5
  278.1571 37.0 37
  279.14584 11.0 11
  280.13269 6.0 6
  280.16351 34.0 34
  280.17639 16.0 16
  281.12149 6.0 6
  281.13855 7.0 7
  282.14838 31.0 31
  282.17764 20.0 20
  282.18793 31.0 31
  283.15536 6.0 6
  283.18262 6.0 6
  283.19308 17.0 17
  284.14944 9.0 9
  284.15942 22.0 22
  284.17133 43.0 43
  284.20224 13.0 13
  285.16449 9.0 9
  285.20743 13.0 13
  285.42725 5.0 5
  286.11841 7.0 7
  286.18356 23.0 23
  286.51285 8.0 8
  287.13724 8.0 8
  288.16019 12.0 12
  288.1893 6.0 6
  288.21942 5.0 5
  289.16702 7.0 7
  290.15948 26.0 26
  290.19043 7.0 7
  290.23785 7.0 7
  291.14539 6.0 6
  292.13391 7.0 7
  292.15714 7.0 7
  292.18463 7.0 7
  293.18637 5.0 5
  294.15408 19.0 19
  294.17102 28.0 28
  294.18988 71.0 71
  294.53766 6.0 6
  295.05435 8.0 8
  296.12195 7.0 7
  296.16379 25.0 25
  296.17297 9.0 9
  296.19412 14.0 14
  296.20917 10.0 10
  297.13629 5.0 5
  297.1748 8.0 8
  297.19577 6.0 6
  298.1387 11.0 11
  298.16867 25.0 25
  298.18192 24.0 24
  299.1778 11.0 11
  300.14938 23.0 23
  300.16315 19.0 19
  300.17715 8.0 8
  300.19437 37.0 37
  300.20435 16.0 16
  301.1857 8.0 8
  301.2005 9.0 9
  302.14572 6.0 6
  302.22049 13.0 13
  303.18616 6.0 6
  304.14313 7.0 7
  304.17245 9.0 9
  304.18524 6.0 6
  305.18521 6.0 6
  306.16577 6.0 6
  306.21329 7.0 7
  307.15131 10.0 10
  308.17209 20.0 20
  308.29364 7.0 7
  309.16037 6.0 6
  309.17657 6.0 6
  310.08765 14.0 14
  310.17245 34.0 34
  310.18396 14.0 14
  311.18405 9.0 9
  311.19644 9.0 9
  312.17657 12.0 12
  312.18741 44.0 44
  312.20825 11.0 11
  313.18808 6.0 6
  314.17197 5.0 5
  314.18695 15.0 15
  314.20029 12.0 12
  314.21701 9.0 9
  315.17908 13.0 13
  315.92395 7.0 7
  316.39667 5.0 5
  318.20728 5.0 5
  321.69843 5.0 5
  322.17734 58.0 58
  323.17856 10.0 10
  323.1987 10.0 10
  324.19522 70.0 70
  325.19003 18.0 18
  325.20221 10.0 10
  326.19418 27.0 27
  326.21323 96.0 96
  326.36276 6.0 6
  327.16855 13.0 13
  327.21521 61.0 61
  328.17316 8.0 8
  328.18948 15.0 15
  328.20328 5.0 5
  328.22391 5.0 5
  328.23361 5.0 5
  329.2258 5.0 5
  330.20105 26.0 26
  331.21512 7.0 7
  332.22632 5.0 5
  333.18875 8.0 8
  336.20154 23.0 23
  338.22079 5.0 5
  339.18079 11.0 11
  340.17551 18.0 18
  340.18723 47.0 47
  340.21063 12.0 12
  341.18195 16.0 16
  341.19501 11.0 11
  342.19885 69.0 69
  342.21378 45.0 45
  343.20697 12.0 12
  343.6174 7.0 7
  344.19443 11.0 11
  344.22046 94.0 94
  344.24493 9.0 9
  345.23587 13.0 13
  346.24252 6.0 6
  348.20715 6.0 6
  354.15872 5.0 5
  354.18365 17.0 17
  354.20825 58.0 58
  354.22684 15.0 15
  355.18204 5.0 5
  355.20667 38.0 38
  356.21259 34.0 34
  356.22583 22.0 22
  357.20374 8.0 8
  358.19623 9.0 9
  358.20984 28.0 28
  358.22568 42.0 42
  358.2417 93.0 93
  359.1647 6.0 6
  359.24738 12.0 12
  360.21454 11.0 11
  362.23743 15.0 15
  364.20074 6.0 6
  370.21426 9.0 9
  372.20367 62.0 62
  372.22083 69.0 69
  373.21304 12.0 12
  373.22632 8.0 8
  373.23956 7.0 7
  374.23444 35.0 35
  374.51373 8.0 8
  375.22983 14.0 14
  376.24744 64.0 64
  378.24283 11.0 11
  386.21729 34.0 34
  386.24173 37.0 37
  387.22433 14.0 14
  388.21021 5.0 5
  388.24435 19.0 19
  390.25626 29.0 29
  390.26996 16.0 16
  391.25812 8.0 8
  396.83582 8.0 8
  400.25031 9.0 9
  404.22772 30.0 30
  404.24872 58.0 58
  404.26093 22.0 22
  405.24274 16.0 16
  405.2605 24.0 24
  406.96106 5.0 5
  417.90829 6.0 6
  418.19955 9.0 9
  418.23596 11.0 11
  418.25616 42.0 42
  419.25729 6.0 6
  436.2475 10.0 10
  437.27121 12.0 12
  438.02707 6.0 6
  446.1376 6.0 6
  468.29462 58.0 58
  468.31958 10.0 10
//
