ACCESSION: MSBNK-RIKEN-PR302550
RECORD_TITLE: Epigallocatechin-3-gallate; LC-ESI-QTOF; MS2
DATE: 2019.03.28
AUTHORS: Tetsuya Mori, Center for Sustainable Resource Science, RIKEN
LICENSE: CC BY-NC-SA
PUBLICATION: Tsugawa H., Nakabayashi R., Mori T., Yamada Y., Takahashi M., Rai A., Sugiyama R., Yamamoto H., Nakaya T., Yamazaki M., Kooke R., Bac-Molenaar JA., Oztolan-Erol N., Keurentjes JJB., Arita M., Saito K. (2019) "A cheminformatics approach to characterize metabolomes in stable-isotope-labeled organisms" Nature Methods 16(4):295-298. [doi:10.1038/s41592-019-0358-2]
COMMENT: registered in RIKEN PlaSMA
CH$NAME: (-)-Epigallocatechin gallate
CH$NAME: [(2R,3R)-5,7-dihydroxy-2-(3,4,5-trihydroxyphenyl)-3,4-dihydro-2H-chromen-3-yl] 3,4,5-trihydroxybenzoate
CH$NAME: 3-O-Galloyl-(-)-epigallocatechin
CH$NAME: Benzoic acid, 3,4,5-trihydroxy-, (2R,3R)-3,4-dihydro-5,7-dihydroxy-2-(3,4,5-trihydroxyphenyl)-2H-1-benzopyran-3-yl ester
CH$NAME: (-)-Epigallocatechin 3-gallate
CH$NAME: Epigallocatechin-3-monogallate
CH$NAME: (-)-Epigallocatechin 3-O-gallate
CH$NAME: (-)-Epigallocatechol gallate
CH$NAME: Gallic acid, 3-ester with epigallocatechol, (-)-
CH$NAME: L-Epigallocatechin gallate
CH$COMPOUND_CLASS: Catechin gallates
CH$FORMULA: C22H18O11
CH$EXACT_MASS: 458.08491
CH$SMILES: C1[C@H]([C@H](OC2=CC(=CC(=C21)O)O)C3=CC(=C(C(=C3)O)O)O)OC(=O)C4=CC(=C(C(=C4)O)O)O
CH$IUPAC: InChI=1S/C22H18O11/c23-10-5-12(24)11-7-18(33-22(31)9-3-15(27)20(30)16(28)4-9)21(32-17(11)6-10)8-1-13(25)19(29)14(26)2-8/h1-6,18,21,23-30H,7H2/t18-,21-/m1/s1
CH$LINK: CAS 989-51-5
CH$LINK: CHEBI CHEBI:4806
CH$LINK: CHEMSPIDER 58575
CH$LINK: COMPTOX DTXSID1029889
CH$LINK: INCHIKEY WMBWREPUVVBILR-WIYYLYMNSA-N
CH$LINK: KEGG C09731
CH$LINK: LIPIDMAPS LMPK12030005
CH$LINK: NIKKAJI J134.058A
CH$LINK: PUBCHEM CID:65064
AC$INSTRUMENT: LC, Waters Acquity UPLC System; MS, Waters Xevo G2 Q-Tof
AC$INSTRUMENT_TYPE: LC-ESI-QTOF
AC$MASS_SPECTROMETRY: MS_TYPE MS2
AC$MASS_SPECTROMETRY: ION_MODE POSITIVE
AC$MASS_SPECTROMETRY: COLLISION_ENERGY 6V
AC$MASS_SPECTROMETRY: DESOLVATION_GAS_FLOW 800/h
AC$MASS_SPECTROMETRY: DESOLVATION_TEMPERATURE 450 C
AC$MASS_SPECTROMETRY: IONIZATION ESI
AC$CHROMATOGRAPHY: CAPILLARY_VOLTAGE +3.00 kV
AC$CHROMATOGRAPHY: COLUMN_NAME Acquity bridged ethyl hybrid C18 (1.7 um, 2.1 mm * 100 mm, Waters)
AC$CHROMATOGRAPHY: COLUMN_TEMPERATURE 40 C
AC$CHROMATOGRAPHY: FLOW_GRADIENT A/B = (99.5%/0.5% at 0 min, 99.5%/0.5% at 0.1 min, 20%/80% at 10 min, 0.5%/99.5% at 10.1 min, 0.5%/99.5% at 12.0 min, 99.5%/0.5% at 12.1 min, 99.5%/0.5% at 15.0 min)
AC$CHROMATOGRAPHY: FLOW_RATE 0.3 ml/min at 0 min, 0.3 ml/min at 10 min, 0.4 ml/min at 10.1 min, 0.4 ml/min at 14.4 min, 0.3 ml/min at 14.5 min
AC$CHROMATOGRAPHY: RETENTION_TIME 3.464
AC$CHROMATOGRAPHY: SOLVENT A water including 0.1% formic acid
AC$CHROMATOGRAPHY: SOLVENT B acetonitrile including 0.1% formic acid
MS$FOCUSED_ION: PRECURSOR_TYPE [M+H]+
MS$FOCUSED_ION: PRECURSOR_M/Z 459.0921879
PK$SPLASH: splash10-000i-0920100000-db0970534f963f304b62
PK$NUM_PEAK: 28
PK$PEAK: m/z int. rel.int.
  111.01978 23.0 23
  122.03479 24.0 24
  123.04927 67.0 67
  139.01062 19.0 19
  139.03873 1000.0 999
  140.04092 58.0 58
  140.0472 90.0 90
  140.05489 46.0 46
  141.04601 19.0 19
  151.01842 24.0 24
  151.03885 143.0 143
  153.00664 38.0 38
  153.01549 136.0 136
  163.00601 36.0 36
  163.02164 20.0 20
  163.03925 29.0 29
  181.03444 20.0 20
  197.05251 28.0 28
  259.06653 18.0 18
  275.06534 21.0 21
  289.04895 54.0 54
  289.06827 266.0 266
  289.08197 64.0 64
  290.06088 26.0 26
  290.07291 40.0 40
  307.09354 31.0 31
  459.08542 101.0 101
  459.10181 137.0 137
//
