ACCESSION: MSBNK-RIKEN-PR301668
RECORD_TITLE: Sanguinarine; LC-ESI-QTOF; MS2
DATE: 2019.03.28
AUTHORS: Tetsuya Mori, Center for Sustainable Resource Science, RIKEN
LICENSE: CC BY-NC-SA
PUBLICATION: Tsugawa H., Nakabayashi R., Mori T., Yamada Y., Takahashi M., Rai A., Sugiyama R., Yamamoto H., Nakaya T., Yamazaki M., Kooke R., Bac-Molenaar JA., Oztolan-Erol N., Keurentjes JJB., Arita M., Saito K. (2019) "A cheminformatics approach to characterize metabolomes in stable-isotope-labeled organisms" Nature Methods 16(4):295-298. [doi:10.1038/s41592-019-0358-2]
COMMENT: registered in RIKEN PlaSMA
CH$NAME: Sanguinarine
CH$COMPOUND_CLASS: Quaternary benzophenanthridine alkaloids
CH$FORMULA: [C20H14NO4]+
CH$EXACT_MASS: 332.335
CH$SMILES: C[N+]1=CC2=C3OCOC3=CC=C2C2=C1C1=CC3=C(OCO3)C=C1C=C2
CH$IUPAC: InChI=1S/C20H14NO4/c1-21-8-15-12(4-5-16-20(15)25-10-22-16)13-3-2-11-6-17-18(24-9-23-17)7-14(11)19(13)21/h2-8H,9-10H2,1H3/q+1
CH$LINK: INCHIKEY INVGWHRKADIJHF-UHFFFAOYSA-N
AC$INSTRUMENT: LC, Waters Acquity UPLC System; MS, Waters Xevo G2 Q-Tof
AC$INSTRUMENT_TYPE: LC-ESI-QTOF
AC$MASS_SPECTROMETRY: MS_TYPE MS2
AC$MASS_SPECTROMETRY: ION_MODE POSITIVE
AC$MASS_SPECTROMETRY: COLLISION_ENERGY 6V
AC$MASS_SPECTROMETRY: DESOLVATION_GAS_FLOW 800/h
AC$MASS_SPECTROMETRY: DESOLVATION_TEMPERATURE 450 C
AC$MASS_SPECTROMETRY: IONIZATION ESI
AC$CHROMATOGRAPHY: CAPILLARY_VOLTAGE +3.00 kV
AC$CHROMATOGRAPHY: COLUMN_NAME Acquity bridged ethyl hybrid C18 (1.7 um, 2.1 mm * 100 mm, Waters)
AC$CHROMATOGRAPHY: COLUMN_TEMPERATURE 40 C
AC$CHROMATOGRAPHY: FLOW_GRADIENT A/B = (99.5%/0.5% at 0 min, 99.5%/0.5% at 0.1 min, 20%/80% at 10 min, 0.5%/99.5% at 10.1 min, 0.5%/99.5% at 12.0 min, 99.5%/0.5% at 12.1 min, 99.5%/0.5% at 15.0 min)
AC$CHROMATOGRAPHY: FLOW_RATE 0.3 ml/min at 0 min, 0.3 ml/min at 10 min, 0.4 ml/min at 10.1 min, 0.4 ml/min at 14.4 min, 0.3 ml/min at 14.5 min
AC$CHROMATOGRAPHY: RETENTION_TIME 4.8517
AC$CHROMATOGRAPHY: SOLVENT A water including 0.1% formic acid
AC$CHROMATOGRAPHY: SOLVENT B acetonitrile including 0.1% formic acid
MS$FOCUSED_ION: PRECURSOR_TYPE [M]+
MS$FOCUSED_ION: PRECURSOR_M/Z 332.0911858
PK$SPLASH: splash10-014i-0290000000-6115216f3ef932f9695b
PK$NUM_PEAK: 236
PK$PEAK: m/z int. rel.int.
  115.1208 7.0 7
  127.1489 14.0 14
  129.37424 14.0 14
  141.08922 7.0 7
  149.03346 8.0 8
  150.04239 12.0 12
  150.04987 9.0 9
  150.1377 7.0 7
  151.05328 41.0 41
  151.0621 17.0 17
  151.94891 10.0 10
  152.06189 10.0 10
  153.03349 11.0 11
  154.06938 12.0 12
  160.20247 12.0 12
  163.05273 53.0 53
  163.1011 12.0 12
  164.05322 21.0 21
  164.06638 11.0 11
  165.06786 102.0 102
  166.08162 24.0 24
  168.98688 10.0 10
  173.99973 9.0 9
  174.0287 13.0 13
  174.03943 7.0 7
  174.05209 33.0 33
  174.46379 11.0 11
  175.0412 12.0 12
  175.05177 14.0 14
  175.0603 48.0 48
  176.04782 10.0 10
  176.06071 123.0 123
  176.06818 52.0 52
  177.05585 30.0 30
  177.0688 89.0 89
  177.08202 18.0 18
  178.05511 10.0 10
  178.06522 9.0 9
  178.07388 20.0 20
  178.08215 23.0 23
  179.06937 8.0 8
  179.07991 14.0 14
  179.08607 35.0 35
  180.0619 16.0 16
  181.06424 9.0 9
  186.99477 12.0 12
  187.05447 18.0 18
  188.05582 57.0 57
  188.06647 70.0 70
  188.15273 11.0 11
  188.61913 8.0 8
  189.03305 22.0 22
  189.07072 788.0 787
  189.10051 11.0 11
  189.86823 11.0 11
  190.05495 65.0 65
  190.06421 181.0 181
  190.07378 229.0 229
  190.64186 9.0 9
  191.04285 17.0 17
  191.05977 15.0 15
  191.0719 134.0 134
  191.08974 35.0 35
  191.1646 7.0 7
  191.90862 8.0 8
  192.05376 11.0 11
  192.07385 34.0 34
  192.09651 7.0 7
  193.07068 12.0 12
  193.09608 7.0 7
  193.55405 7.0 7
  197.86815 7.0 7
  198.77698 13.0 13
  200.04922 47.0 47
  200.06505 31.0 31
  200.12682 9.0 9
  200.9832 9.0 9
  201.02943 15.0 15
  201.04063 34.0 34
  201.05524 252.0 252
  201.063 241.0 241
  202.02565 11.0 11
  202.0507 48.0 48
  202.06766 235.0 235
  202.08603 8.0 8
  203.05016 19.0 19
  203.07373 553.0 552
  203.10655 8.0 8
  203.97357 7.0 7
  204.05812 26.0 26
  204.08112 344.0 344
  204.1053 9.0 9
  204.20531 8.0 8
  205.06766 42.0 42
  205.08904 106.0 106
  205.10919 7.0 7
  205.29439 8.0 8
  206.05969 7.0 7
  206.07741 20.0 20
  206.09361 15.0 15
  206.69461 10.0 10
  208.04716 7.0 7
  212.0625 8.0 8
  213.06494 7.0 7
  214.04544 19.0 19
  214.06602 462.0 462
  214.12253 11.0 11
  215.07378 655.0 654
  215.20271 20.0 20
  215.5753 7.0 7
  215.83633 10.0 10
  216.08099 1000.0 999
  216.15414 10.0 10
  217.06018 74.0 74
  217.08734 669.0 668
  217.13362 8.0 8
  218.06419 34.0 34
  218.0965 638.0 637
  219.06857 9.0 9
  219.0864 18.0 18
  219.10362 111.0 111
  219.12312 14.0 14
  220.06287 16.0 16
  220.07936 19.0 19
  220.09641 9.0 9
  220.10497 11.0 11
  220.17221 7.0 7
  221.52327 8.0 8
  226.05414 60.0 60
  226.07657 8.0 8
  227.07658 108.0 108
  227.6488 10.0 10
  228.04437 9.0 9
  228.06494 36.0 36
  228.08369 120.0 120
  229.02858 9.0 9
  229.04787 32.0 32
  229.05801 37.0 37
  229.08325 52.0 52
  230.0164 12.0 12
  230.02643 8.0 8
  230.05827 124.0 124
  230.06569 68.0 68
  230.07932 30.0 30
  230.09572 8.0 8
  231.05795 87.0 87
  231.07027 124.0 124
  232.0459 44.0 44
  232.07542 166.0 166
  232.09671 18.0 18
  232.19945 10.0 10
  233.0585 35.0 35
  233.07239 31.0 31
  233.08266 96.0 96
  234.06485 10.0 10
  234.09555 17.0 17
  235.06198 8.0 8
  239.06325 16.0 16
  240.08055 9.0 9
  242.04341 10.0 10
  242.06087 30.0 30
  243.07074 37.0 37
  243.08319 24.0 24
  244.07323 391.0 391
  244.09537 14.0 14
  244.313 9.0 9
  245.07632 41.0 41
  245.08578 52.0 52
  246.03111 8.0 8
  246.06726 45.0 45
  246.08466 134.0 134
  246.0968 133.0 133
  246.5089 10.0 10
  247.0415 20.0 20
  247.06503 28.0 28
  247.08517 19.0 19
  247.10143 141.0 141
  248.09505 17.0 17
  248.10783 8.0 8
  248.12215 27.0 27
  249.1227 9.0 9
  251.05293 7.0 7
  256.0347 10.0 10
  256.08456 13.0 13
  257.04218 23.0 23
  257.05399 20.0 20
  257.07693 9.0 9
  257.08606 10.0 10
  258.05374 40.0 40
  258.06775 20.0 20
  258.63617 10.0 10
  259.02969 17.0 17
  259.06152 174.0 174
  259.0787 41.0 41
  259.53131 8.0 8
  260.06482 202.0 202
  260.07919 71.0 71
  261.06097 19.0 19
  261.06989 63.0 63
  261.08011 32.0 32
  261.09195 14.0 14
  262.07169 9.0 9
  262.0947 8.0 8
  271.06165 8.0 8
  271.37329 10.0 10
  272.06961 59.0 59
  273.07407 8.0 8
  274.03604 9.0 9
  274.05179 39.0 39
  274.08533 138.0 138
  274.10214 16.0 16
  275.05457 17.0 17
  275.07886 9.0 9
  275.09268 69.0 69
  275.11121 13.0 13
  275.39786 9.0 9
  280.54358 11.0 11
  286.0459 10.0 10
  287.034 12.0 12
  287.06439 7.0 7
  288.06207 96.0 96
  289.04187 18.0 18
  289.07193 18.0 18
  289.08292 14.0 14
  289.6409 10.0 10
  290.07236 27.0 27
  290.08826 8.0 8
  293.97705 7.0 7
  302.08371 7.0 7
  316.04916 18.0 18
  316.06998 8.0 8
  317.0694 47.0 47
  317.08945 7.0 7
  331.09628 11.0 11
  332.07401 10.0 10
  332.09271 9.0 9
//
