ACCESSION: MSBNK-RIKEN-PR300321
RECORD_TITLE: Tubotaiwine; LC-ESI-QTOF; MS2
DATE: 2019.03.28
AUTHORS: Tetsuya Mori, Center for Sustainable Resource Science, RIKEN
LICENSE: CC BY-NC-SA
PUBLICATION: Tsugawa H., Nakabayashi R., Mori T., Yamada Y., Takahashi M., Rai A., Sugiyama R., Yamamoto H., Nakaya T., Yamazaki M., Kooke R., Bac-Molenaar JA., Oztolan-Erol N., Keurentjes JJB., Arita M., Saito K. (2019) "A cheminformatics approach to characterize metabolomes in stable-isotope-labeled organisms" Nature Methods 16(4):295-298. [doi:10.1038/s41592-019-0358-2]
COMMENT: registered in RIKEN PlaSMA
CH$NAME: Tubotaiwine
CH$COMPOUND_CLASS: Strychnos alkaloids
CH$FORMULA: C20H24N2O2
CH$EXACT_MASS: 324.424
CH$SMILES: CCC1C2N3CCC22C(NC4=CC=CC=C24)=C(C1CC3)C(=O)OC
CH$IUPAC: InChI=1S/C20H24N2O2/c1-3-12-13-8-10-22-11-9-20(18(12)22)14-6-4-5-7-15(14)21-17(20)16(13)19(23)24-2/h4-7,12-13,18,21H,3,8-11H2,1-2H3
CH$LINK: INCHIKEY RLAKWLFUMAABBE-UHFFFAOYSA-N
AC$INSTRUMENT: LC, Waters Acquity UPLC System; MS, Waters Xevo G2 Q-Tof
AC$INSTRUMENT_TYPE: LC-ESI-QTOF
AC$MASS_SPECTROMETRY: MS_TYPE MS2
AC$MASS_SPECTROMETRY: ION_MODE POSITIVE
AC$MASS_SPECTROMETRY: COLLISION_ENERGY 6V
AC$MASS_SPECTROMETRY: DESOLVATION_GAS_FLOW 800/h
AC$MASS_SPECTROMETRY: DESOLVATION_TEMPERATURE 450 C
AC$MASS_SPECTROMETRY: IONIZATION ESI
AC$CHROMATOGRAPHY: CAPILLARY_VOLTAGE +3.00 kV
AC$CHROMATOGRAPHY: COLUMN_NAME Acquity bridged ethyl hybrid C18 (1.7 um, 2.1 mm * 100 mm, Waters)
AC$CHROMATOGRAPHY: COLUMN_TEMPERATURE 40 C
AC$CHROMATOGRAPHY: FLOW_GRADIENT A/B = (99.5%/0.5% at 0 min, 99.5%/0.5% at 0.1 min, 20%/80% at 10 min, 0.5%/99.5% at 10.1 min, 0.5%/99.5% at 12.0 min, 99.5%/0.5% at 12.1 min, 99.5%/0.5% at 15.0 min)
AC$CHROMATOGRAPHY: FLOW_RATE 0.3 ml/min at 0 min, 0.3 ml/min at 10 min, 0.4 ml/min at 10.1 min, 0.4 ml/min at 14.4 min, 0.3 ml/min at 14.5 min
AC$CHROMATOGRAPHY: RETENTION_TIME 4.920516
AC$CHROMATOGRAPHY: SOLVENT A water including 0.1% formic acid
AC$CHROMATOGRAPHY: SOLVENT B acetonitrile including 0.1% formic acid
MS$FOCUSED_ION: PRECURSOR_TYPE [M+H]+
MS$FOCUSED_ION: PRECURSOR_M/Z 325.1910545
PK$SPLASH: splash10-0536-0970000000-46026c18b4819f6cfd8f
PK$NUM_PEAK: 337
PK$PEAK: m/z int. rel.int.
  68.05106 9.0 9
  77.03854 9.0 9
  80.05151 12.0 12
  82.06231 8.0 8
  91.05257 23.0 23
  91.06202 21.0 21
  92.0288 8.0 8
  92.0459 8.0 8
  94.05968 12.0 12
  94.06531 13.0 13
  96.08042 10.0 10
  103.05398 8.0 8
  104.04093 9.0 9
  104.04774 8.0 8
  105.03684 13.0 13
  106.05658 8.0 8
  108.04726 8.0 8
  108.07741 8.0 8
  109.04647 5.0 5
  110.05312 8.0 8
  115.04592 19.0 19
  115.05558 16.0 16
  116.05033 35.0 35
  117.049 8.0 8
  117.05743 36.0 36
  118.06599 17.0 17
  119.07606 15.0 15
  120.07435 7.0 7
  122.05163 7.0 7
  127.0547 11.0 11
  127.06071 8.0 8
  128.04639 7.0 7
  128.05382 18.0 18
  128.05986 11.0 11
  129.0553 10.0 10
  129.0672 32.0 32
  129.07542 6.0 6
  130.03145 11.0 11
  130.04784 13.0 13
  130.06239 72.0 72
  130.07411 36.0 36
  131.53394 5.0 5
  133.03766 8.0 8
  135.06023 7.0 7
  139.04947 23.0 23
  140.72842 9.0 9
  141.05971 6.0 6
  141.06903 33.0 33
  142.07454 8.0 8
  143.07625 15.0 15
  143.08354 18.0 18
  144.07898 83.0 83
  146.05333 9.0 9
  146.09793 8.0 8
  148.11046 8.0 8
  151.04987 14.0 14
  151.0611 10.0 10
  152.05316 47.0 47
  152.06546 11.0 11
  153.05182 15.0 15
  153.06656 20.0 20
  154.05663 46.0 46
  154.06769 101.0 101
  155.07123 59.0 59
  155.08267 9.0 9
  156.0692 5.0 5
  156.07907 43.0 43
  156.08955 6.0 6
  156.10542 8.0 8
  157.08846 40.0 40
  157.23686 5.0 5
  158.08943 13.0 13
  158.1075 12.0 12
  159.09882 12.0 12
  163.74335 7.0 7
  163.80066 6.0 6
  164.06174 8.0 8
  165.06778 88.0 88
  165.08203 6.0 6
  165.65581 8.0 8
  166.01846 7.0 7
  166.05975 42.0 42
  166.06999 97.0 97
  166.97972 12.0 12
  167.02927 9.0 9
  167.04416 17.0 17
  167.05804 32.0 32
  167.07297 729.0 728
  167.10471 11.0 11
  167.12004 7.0 7
  167.15683 5.0 5
  167.5202 6.0 6
  168.06886 69.0 69
  168.07945 301.0 301
  169.04318 7.0 7
  169.0643 6.0 6
  169.08063 93.0 93
  169.10451 13.0 13
  170.07359 15.0 15
  170.09254 56.0 56
  170.23718 7.0 7
  171.09183 16.0 16
  172.07318 8.0 8
  172.73688 13.0 13
  173.58609 6.0 6
  176.04623 10.0 10
  176.05415 8.0 8
  176.06233 8.0 8
  177.06203 7.0 7
  177.07515 12.0 12
  178.04659 7.0 7
  178.05775 22.0 22
  178.06573 24.0 24
  178.07805 42.0 42
  179.00287 5.0 5
  179.02196 13.0 13
  179.04863 9.0 9
  179.06021 14.0 14
  179.07263 86.0 86
  179.08495 15.0 15
  180.04192 9.0 9
  180.05704 34.0 34
  180.07928 978.0 977
  181.03999 9.0 9
  181.06528 40.0 40
  181.08554 478.0 478
  181.66483 11.0 11
  182.05124 34.0 34
  182.07686 30.0 30
  182.08951 123.0 123
  182.10014 66.0 66
  183.06671 6.0 6
  183.09068 46.0 46
  183.10132 14.0 14
  183.6214 6.0 6
  184.07707 9.0 9
  184.10522 30.0 30
  185.05984 11.0 11
  186.09047 9.0 9
  189.06726 15.0 15
  190.05978 19.0 19
  191.05417 7.0 7
  191.0656 9.0 9
  191.0784 66.0 66
  191.08891 26.0 26
  192.02193 9.0 9
  192.05167 16.0 16
  192.06529 53.0 53
  192.08234 368.0 368
  192.76871 8.0 8
  193.02977 8.0 8
  193.05814 7.0 7
  193.08797 874.0 873
  193.75179 7.0 7
  194.02281 13.0 13
  194.0679 42.0 42
  194.09471 1000.0 999
  194.11479 20.0 20
  194.12808 9.0 9
  194.22571 5.0 5
  195.01079 7.0 7
  195.06201 9.0 9
  195.07179 21.0 21
  195.09399 403.0 403
  195.77945 7.0 7
  196.06009 7.0 7
  196.08376 26.0 26
  196.09915 17.0 17
  196.11787 71.0 71
  196.6322 6.0 6
  197.06419 9.0 9
  197.11427 18.0 18
  198.0704 9.0 9
  198.08023 7.0 7
  198.10991 18.0 18
  198.12349 6.0 6
  202.07744 7.0 7
  203.07344 6.0 6
  203.08171 14.0 14
  203.28133 6.0 6
  204.03236 10.0 10
  204.06036 14.0 14
  204.07462 36.0 36
  204.08415 110.0 110
  204.11243 10.0 10
  205.07451 27.0 27
  205.08742 154.0 154
  205.1342 9.0 9
  205.60048 5.0 5
  205.87086 10.0 10
  206.06552 12.0 12
  206.0865 228.0 228
  206.09618 465.0 465
  206.5612 10.0 10
  206.72295 11.0 11
  207.03949 30.0 30
  207.05568 5.0 5
  207.08057 107.0 107
  207.09726 830.0 829
  207.5175 7.0 7
  208.05722 9.0 9
  208.06848 27.0 27
  208.075 46.0 46
  208.09157 190.0 190
  208.10921 462.0 462
  208.2431 7.0 7
  209.07841 24.0 24
  209.0873 27.0 27
  209.09967 32.0 32
  209.11513 170.0 170
  209.13882 11.0 11
  209.80911 6.0 6
  210.09868 7.0 7
  210.11427 43.0 43
  210.12613 24.0 24
  210.13687 29.0 29
  211.07001 10.0 10
  211.07921 5.0 5
  211.13655 15.0 15
  214.08284 11.0 11
  214.75191 7.0 7
  216.08186 22.0 22
  217.05351 8.0 8
  217.06331 9.0 9
  217.08595 5.0 5
  217.09651 22.0 22
  218.07066 17.0 17
  218.08661 45.0 45
  218.09962 30.0 30
  219.08453 20.0 20
  219.09613 51.0 51
  219.10823 32.0 32
  219.92216 6.0 6
  220.0121 14.0 14
  220.07832 76.0 76
  220.09427 76.0 76
  220.10484 153.0 153
  220.117 84.0 84
  221.00928 6.0 6
  221.06366 21.0 21
  221.07518 25.0 25
  221.09325 37.0 37
  221.11118 236.0 236
  221.69193 8.0 8
  222.06613 15.0 15
  222.08023 65.0 65
  222.09171 68.0 68
  222.12544 265.0 265
  222.4552 6.0 6
  223.07571 48.0 48
  223.08624 177.0 177
  223.10915 21.0 21
  223.12067 34.0 34
  223.13617 26.0 26
  223.14496 11.0 11
  224.07713 14.0 14
  224.09155 36.0 36
  224.12413 20.0 20
  224.13783 15.0 15
  224.15123 11.0 11
  225.05687 9.0 9
  225.0688 7.0 7
  225.09106 9.0 9
  229.08383 6.0 6
  230.07254 11.0 11
  230.09534 13.0 13
  231.05737 6.0 6
  231.08881 17.0 17
  231.09912 6.0 6
  231.31723 14.0 14
  232.04713 7.0 7
  232.09116 13.0 13
  232.10574 26.0 26
  233.08321 7.0 7
  233.09483 15.0 15
  233.10736 9.0 9
  233.13412 11.0 11
  234.07687 6.0 6
  234.09215 59.0 59
  234.10962 24.0 24
  234.12634 35.0 35
  234.13913 20.0 20
  235.06961 6.0 6
  235.09389 43.0 43
  235.12434 174.0 174
  236.09781 44.0 44
  236.12761 85.0 85
  236.13953 65.0 65
  236.16478 7.0 7
  237.10271 51.0 51
  237.13754 42.0 42
  237.54968 5.0 5
  238.11383 28.0 28
  238.12492 21.0 21
  238.1524 13.0 13
  239.12943 10.0 10
  245.10455 21.0 21
  245.11189 8.0 8
  246.08127 13.0 13
  247.08923 7.0 7
  247.11993 14.0 14
  248.10559 15.0 15
  248.12347 22.0 22
  248.14638 11.0 11
  249.09935 11.0 11
  249.10913 16.0 16
  249.12373 30.0 30
  249.1355 13.0 13
  249.15541 14.0 14
  250.09729 15.0 15
  250.14825 7.0 7
  250.96342 6.0 6
  251.10522 12.0 12
  260.10641 6.0 6
  260.15933 5.0 5
  261.14044 6.0 6
  262.14084 7.0 7
  263.11987 23.0 23
  263.14923 19.0 19
  264.12982 10.0 10
  264.13773 29.0 29
  265.12683 6.0 6
  265.13821 22.0 22
  265.15036 21.0 21
  266.11066 7.0 7
  266.13818 10.0 10
  277.12759 9.0 9
  277.14371 6.0 6
  283.76163 8.0 8
  284.48267 7.0 7
  293.12567 16.0 16
  293.15182 35.0 35
  293.16125 112.0 112
  293.29623 6.0 6
  294.16721 35.0 35
  312.92404 6.0 6
  320.40991 10.0 10
//
