ACCESSION: MSBNK-RIKEN-PR303302
RECORD_TITLE: NP-000062(6); LC-ESI-QTOF; MS2
DATE: 2019.03.28
AUTHORS: Tetsuya Mori, Center for Sustainable Resource Science, RIKEN
LICENSE: CC BY-NC-SA
PUBLICATION: Tsugawa H., Nakabayashi R., Mori T., Yamada Y., Takahashi M., Rai A., Sugiyama R., Yamamoto H., Nakaya T., Yamazaki M., Kooke R., Bac-Molenaar JA., Oztolan-Erol N., Keurentjes JJB., Arita M., Saito K. (2019) "A cheminformatics approach to characterize metabolomes in stable-isotope-labeled organisms" Nature Methods 16(4):295-298. [doi:10.1038/s41592-019-0358-2]
COMMENT: registered in RIKEN PlaSMA
CH$NAME: NP-000062(6)
CH$COMPOUND_CLASS: Flavonoid 8-C-glycosides
CH$FORMULA: C26H28O14
CH$EXACT_MASS: 564.496
CH$SMILES: OC[C@@H]1OC([C@H](O)[C@H]1O)C1=C(O)C(C2O[C@H](CO)[C@@H](O)[C@H](O)[C@H]2O)=C2OC(=CC(=O)C2=C1O)C1=CC=C(O)C=C1
CH$IUPAC: InChI=1S/C26H28O14/c27-6-12-17(31)21(35)23(37)26(40-12)16-20(34)15(25-22(36)18(32)13(7-28)39-25)19(33)14-10(30)5-11(38-24(14)16)8-1-3-9(29)4-2-8/h1-5,12-13,17-18,21-23,25-29,31-37H,6-7H2/t12-,13+,17-,18+,21+,22-,23-,25?,26?/m1/s1
CH$LINK: INCHIKEY DRLZZQRQMWQRLZ-FBMRRHFKSA-N
AC$INSTRUMENT: LC, Waters Acquity UPLC System; MS, Waters Xevo G2 Q-Tof
AC$INSTRUMENT_TYPE: LC-ESI-QTOF
AC$MASS_SPECTROMETRY: MS_TYPE MS2
AC$MASS_SPECTROMETRY: ION_MODE POSITIVE
AC$MASS_SPECTROMETRY: COLLISION_ENERGY 6V
AC$MASS_SPECTROMETRY: DESOLVATION_GAS_FLOW 800/h
AC$MASS_SPECTROMETRY: DESOLVATION_TEMPERATURE 450 C
AC$MASS_SPECTROMETRY: IONIZATION ESI
AC$CHROMATOGRAPHY: CAPILLARY_VOLTAGE +3.00 kV
AC$CHROMATOGRAPHY: COLUMN_NAME Acquity bridged ethyl hybrid C18 (1.7 um, 2.1 mm * 100 mm, Waters)
AC$CHROMATOGRAPHY: COLUMN_TEMPERATURE 40 C
AC$CHROMATOGRAPHY: FLOW_GRADIENT A/B = (99.5%/0.5% at 0 min, 99.5%/0.5% at 0.1 min, 20%/80% at 10 min, 0.5%/99.5% at 10.1 min, 0.5%/99.5% at 12.0 min, 99.5%/0.5% at 12.1 min, 99.5%/0.5% at 15.0 min)
AC$CHROMATOGRAPHY: FLOW_RATE 0.3 ml/min at 0 min, 0.3 ml/min at 10 min, 0.4 ml/min at 10.1 min, 0.4 ml/min at 14.4 min, 0.3 ml/min at 14.5 min
AC$CHROMATOGRAPHY: RETENTION_TIME 3.6386
AC$CHROMATOGRAPHY: SOLVENT A water including 0.1% formic acid
AC$CHROMATOGRAPHY: SOLVENT B acetonitrile including 0.1% formic acid
MS$FOCUSED_ION: PRECURSOR_TYPE [M+H]+
MS$FOCUSED_ION: PRECURSOR_M/Z 565.155182
PK$SPLASH: splash10-052b-0149000000-9ffbddb326716f3e66f6
PK$NUM_PEAK: 348
PK$PEAK: m/z int. rel.int.
  55.01685 17.0 17
  109.02725 16.0 16
  111.01543 20.0 20
  117.0407 12.0 12
  119.05017 61.0 61
  121.02312 42.0 42
  121.03062 270.0 270
  122.03222 83.0 83
  133.01517 15.0 15
  135.04219 18.0 18
  139.03517 18.0 18
  143.05043 28.0 28
  143.06618 12.0 12
  145.03011 31.0 31
  157.1265 17.0 17
  159.04343 22.0 22
  161.02068 22.0 22
  161.06018 11.0 11
  163.03276 17.0 17
  163.039 12.0 12
  171.03816 19.0 19
  173.02707 95.0 95
  174.05447 24.0 24
  175.03035 11.0 11
  175.04581 21.0 21
  177.01573 97.0 97
  177.05836 11.0 11
  178.06177 11.0 11
  178.30217 11.0 11
  179.03705 13.0 13
  181.06808 12.0 12
  183.06987 18.0 18
  185.06927 24.0 24
  186.04019 19.0 19
  186.06522 12.0 12
  186.11761 25.0 25
  187.03906 27.0 27
  188.03882 14.0 14
  189.00415 18.0 18
  189.02089 123.0 123
  189.06937 12.0 12
  190.03468 17.0 17
  191.03668 42.0 42
  191.35632 11.0 11
  197.04402 29.0 29
  198.06403 22.0 22
  198.58304 11.0 11
  199.0392 35.0 35
  199.04753 26.0 26
  199.07964 19.0 19
  200.26546 11.0 11
  201.02124 49.0 49
  201.0439 15.0 15
  201.06256 40.0 40
  202.47003 26.0 26
  203.01538 22.0 22
  203.03348 136.0 136
  205.01225 16.0 16
  205.04967 16.0 16
  205.14676 12.0 12
  209.09952 32.0 32
  211.04012 52.0 52
  213.05875 21.0 21
  215.02811 55.0 55
  215.0383 49.0 49
  216.04819 25.0 25
  217.04942 31.0 31
  217.05829 20.0 20
  218.05077 17.0 17
  219.02409 22.0 22
  223.48318 13.0 13
  227.02234 12.0 12
  227.0762 13.0 13
  229.03555 16.0 16
  229.05087 17.0 17
  229.06052 19.0 19
  231.02332 18.0 18
  231.04021 11.0 11
  231.06502 16.0 16
  233.04898 31.0 31
  237.06157 27.0 27
  237.56596 20.0 20
  239.063 16.0 16
  239.0743 21.0 21
  240.07745 11.0 11
  241.03688 24.0 24
  241.05058 111.0 111
  243.00659 29.0 29
  243.23383 11.0 11
  244.04506 26.0 26
  245.03711 22.0 22
  246.04152 27.0 27
  247.05933 13.0 13
  248.70775 13.0 13
  251.07007 12.0 12
  253.04848 13.0 13
  254.04204 22.0 22
  254.05832 11.0 11
  255.01619 26.0 26
  255.03784 19.0 19
  255.05734 17.0 17
  256.02234 13.0 13
  256.08124 14.0 14
  260.08496 12.0 12
  262.05554 14.0 14
  264.0321 14.0 14
  265.06564 12.0 12
  266.06918 37.0 37
  267.03516 42.0 42
  268.07336 37.0 37
  269.0253 11.0 11
  271.0488 12.0 12
  271.06131 36.0 36
  272.07373 14.0 14
  272.12091 21.0 21
  272.96786 17.0 17
  273.03287 16.0 16
  275.1041 16.0 16
  277.08801 16.0 16
  278.1861 16.0 16
  279.07196 60.0 60
  279.08084 23.0 23
  280.05118 12.0 12
  280.07343 68.0 68
  281.03555 11.0 11
  281.07764 74.0 74
  282.04169 41.0 41
  282.08417 14.0 14
  283.06137 129.0 129
  284.05161 16.0 16
  284.81033 19.0 19
  285.03754 31.0 31
  285.09515 16.0 16
  286.04968 36.0 36
  289.09259 36.0 36
  290.05707 21.0 21
  291.05423 49.0 49
  291.06509 35.0 35
  291.10062 12.0 12
  292.08893 23.0 23
  293.04639 15.0 15
  293.07889 11.0 11
  294.03113 16.0 16
  294.05145 270.0 270
  294.06696 53.0 53
  295.0618 1000.0 999
  296.07013 282.0 282
  296.08972 15.0 15
  297.05017 22.0 22
  297.06601 43.0 43
  297.08655 42.0 42
  298.08334 27.0 27
  299.46887 11.0 11
  302.09848 12.0 12
  302.61948 33.0 33
  304.07309 12.0 12
  305.0816 29.0 29
  306.08536 16.0 16
  307.05988 558.0 557
  307.07413 208.0 208
  307.09778 16.0 16
  308.05219 65.0 65
  308.07104 254.0 254
  308.31586 11.0 11
  308.68942 17.0 17
  309.05527 35.0 35
  309.07266 106.0 106
  309.08438 127.0 127
  309.11191 11.0 11
  309.29108 12.0 12
  310.04184 24.0 24
  310.06064 19.0 19
  310.09238 61.0 61
  310.13904 16.0 16
  311.29599 11.0 11
  312.1026 12.0 12
  313.07629 39.0 39
  314.06445 19.0 19
  315.02383 13.0 13
  315.06491 15.0 15
  315.42255 21.0 21
  315.71332 11.0 11
  316.06631 14.0 14
  316.08139 14.0 14
  317.05954 16.0 16
  317.08853 14.0 14
  318.04111 12.0 12
  318.08163 17.0 17
  319.04703 19.0 19
  319.06091 57.0 57
  319.09558 50.0 50
  319.12839 19.0 19
  320.06128 66.0 66
  320.07718 53.0 53
  321.03305 14.0 14
  321.05014 31.0 31
  321.06744 176.0 176
  321.08374 304.0 304
  321.1095 14.0 14
  321.9646 13.0 13
  322.03052 12.0 12
  322.07214 60.0 60
  322.09052 248.0 248
  323.06232 27.0 27
  323.08096 63.0 63
  323.0928 85.0 85
  324.06387 24.0 24
  324.08698 26.0 26
  325.06345 261.0 261
  325.07452 307.0 307
  325.10474 19.0 19
  326.07547 195.0 195
  326.09937 15.0 15
  327.07089 31.0 31
  327.08331 15.0 15
  329.05118 19.0 19
  329.07895 28.0 28
  330.10849 21.0 21
  332.05127 19.0 19
  333.0741 165.0 165
  333.09113 76.0 76
  334.0726 54.0 54
  334.09052 40.0 40
  335.03354 14.0 14
  335.09851 144.0 144
  336.04828 21.0 21
  336.06467 37.0 37
  336.07468 26.0 26
  336.09659 57.0 57
  337.05692 53.0 53
  337.06882 161.0 161
  337.08218 162.0 162
  337.09866 49.0 49
  338.06479 26.0 26
  338.07751 48.0 48
  338.10056 15.0 15
  339.08743 50.0 50
  339.14343 11.0 11
  340.07388 24.0 24
  342.08163 18.0 18
  343.07376 11.0 11
  344.05246 16.0 16
  344.06381 26.0 26
  344.09409 11.0 11
  344.10748 20.0 20
  345.05429 13.0 13
  345.07947 48.0 48
  346.07825 31.0 31
  346.10156 23.0 23
  347.08862 157.0 157
  347.10599 54.0 54
  348.07391 15.0 15
  348.09888 17.0 17
  349.02371 16.0 16
  349.05222 17.0 17
  349.07544 71.0 71
  349.09064 126.0 126
  349.10718 32.0 32
  350.07376 78.0 78
  350.11087 28.0 28
  351.04065 25.0 25
  351.08691 273.0 273
  352.07333 17.0 17
  352.09238 56.0 56
  353.07944 45.0 45
  355.15897 11.0 11
  357.07498 29.0 29
  357.09521 36.0 36
  357.80518 13.0 13
  358.08856 17.0 17
  358.33948 11.0 11
  359.09827 11.0 11
  360.11008 22.0 22
  361.04626 12.0 12
  361.06705 45.0 45
  361.08099 72.0 72
  361.09109 25.0 25
  362.07693 45.0 45
  362.12262 14.0 14
  363.07739 49.0 49
  363.09946 73.0 73
  363.12726 21.0 21
  363.24319 11.0 11
  364.07507 20.0 20
  364.10876 34.0 34
  365.07666 14.0 14
  365.10983 76.0 76
  367.0708 39.0 39
  367.08176 18.0 18
  368.07495 15.0 15
  373.07269 68.0 68
  373.09482 38.0 38
  373.97623 11.0 11
  374.07935 47.0 47
  375.05545 17.0 17
  375.08502 65.0 65
  375.11209 12.0 12
  376.0755 26.0 26
  376.09637 33.0 33
  376.14084 11.0 11
  377.06671 36.0 36
  377.10144 48.0 48
  378.11548 16.0 16
  379.07065 24.0 24
  379.08804 126.0 126
  379.4259 17.0 17
  380.08475 14.0 14
  384.07922 11.0 11
  385.05786 25.0 25
  385.07104 27.0 27
  386.0791 12.0 12
  387.11304 23.0 23
  389.09818 24.0 24
  389.11993 15.0 15
  390.09552 16.0 16
  391.06564 47.0 47
  391.08594 41.0 41
  392.06848 11.0 11
  392.09601 36.0 36
  396.0863 12.0 12
  398.08942 11.0 11
  399.09717 34.0 34
  401.10474 23.0 23
  402.74051 11.0 11
  403.0679 27.0 27
  403.08099 65.0 65
  404.06699 14.0 14
  407.07489 16.0 16
  407.12396 21.0 21
  411.11859 15.0 15
  414.08762 20.0 20
  417.06641 16.0 16
  418.10687 17.0 17
  421.09045 16.0 16
  427.06927 15.0 15
  427.08267 18.0 18
  427.10614 39.0 39
  427.11609 17.0 17
  428.09113 23.0 23
  429.10529 21.0 21
  430.11295 22.0 22
  443.07019 14.0 14
  445.03775 17.0 17
  445.10034 14.0 14
  449.36826 11.0 11
  543.55023 16.0 16
  544.22272 27.0 27
  563.32477 16.0 16
//
