ACCESSION: MSBNK-RIKEN-PR303655
RECORD_TITLE: Resibufogenin; LC-ESI-QTOF; MS2
DATE: 2019.03.28
AUTHORS: Tetsuya Mori, Center for Sustainable Resource Science, RIKEN
LICENSE: CC BY-NC-SA
PUBLICATION: Tsugawa H., Nakabayashi R., Mori T., Yamada Y., Takahashi M., Rai A., Sugiyama R., Yamamoto H., Nakaya T., Yamazaki M., Kooke R., Bac-Molenaar JA., Oztolan-Erol N., Keurentjes JJB., Arita M., Saito K. (2019) "A cheminformatics approach to characterize metabolomes in stable-isotope-labeled organisms" Nature Methods 16(4):295-298. [doi:10.1038/s41592-019-0358-2]
COMMENT: registered in RIKEN PlaSMA
CH$NAME: Resibufogenin
CH$COMPOUND_CLASS: Bufanolides and derivatives
CH$FORMULA: C24H32O4
CH$EXACT_MASS: 384.516
CH$SMILES: C[C@]12CC[C@H]3[C@@H](CC[C@@H]4C[C@@H](O)CC[C@]34C)[C@]11O[C@@H]1C[C@@H]2C1=COC(=O)C=C1
CH$IUPAC: InChI=1S/C24H32O4/c1-22-9-7-16(25)11-15(22)4-5-18-17(22)8-10-23(2)19(12-20-24(18,23)28-20)14-3-6-21(26)27-13-14/h3,6,13,15-20,25H,4-5,7-12H2,1-2H3/t15-,16+,17+,18-,19-,20-,22+,23-,24-/m1/s1
CH$LINK: INCHIKEY ATLJNLYIJOCWJE-CWMZOUAVSA-N
AC$INSTRUMENT: LC, Waters Acquity UPLC System; MS, Waters Xevo G2 Q-Tof
AC$INSTRUMENT_TYPE: LC-ESI-QTOF
AC$MASS_SPECTROMETRY: MS_TYPE MS2
AC$MASS_SPECTROMETRY: ION_MODE POSITIVE
AC$MASS_SPECTROMETRY: COLLISION_ENERGY 6V
AC$MASS_SPECTROMETRY: DESOLVATION_GAS_FLOW 800/h
AC$MASS_SPECTROMETRY: DESOLVATION_TEMPERATURE 450 C
AC$MASS_SPECTROMETRY: IONIZATION ESI
AC$CHROMATOGRAPHY: CAPILLARY_VOLTAGE +3.00 kV
AC$CHROMATOGRAPHY: COLUMN_NAME Acquity bridged ethyl hybrid C18 (1.7 um, 2.1 mm * 100 mm, Waters)
AC$CHROMATOGRAPHY: COLUMN_TEMPERATURE 40 C
AC$CHROMATOGRAPHY: FLOW_GRADIENT A/B = (99.5%/0.5% at 0 min, 99.5%/0.5% at 0.1 min, 20%/80% at 10 min, 0.5%/99.5% at 10.1 min, 0.5%/99.5% at 12.0 min, 99.5%/0.5% at 12.1 min, 99.5%/0.5% at 15.0 min)
AC$CHROMATOGRAPHY: FLOW_RATE 0.3 ml/min at 0 min, 0.3 ml/min at 10 min, 0.4 ml/min at 10.1 min, 0.4 ml/min at 14.4 min, 0.3 ml/min at 14.5 min
AC$CHROMATOGRAPHY: RETENTION_TIME 7.5633
AC$CHROMATOGRAPHY: SOLVENT A water including 0.1% formic acid
AC$CHROMATOGRAPHY: SOLVENT B acetonitrile including 0.1% formic acid
MS$FOCUSED_ION: PRECURSOR_TYPE [M+H]+
MS$FOCUSED_ION: PRECURSOR_M/Z 385.237336
PK$SPLASH: splash10-0a5a-1940000000-299a8e07ee4cbd7e01db
PK$NUM_PEAK: 777
PK$PEAK: m/z int. rel.int.
  55.01888 14.0 14
  55.05216 12.0 12
  55.27829 9.0 9
  67.04558 12.0 12
  67.05448 89.0 89
  68.99373 26.0 26
  68.99873 8.0 8
  69.03104 8.0 8
  69.06843 31.0 31
  71.00858 15.0 15
  73.0212 14.0 14
  77.03629 14.0 14
  77.04464 18.0 18
  79.05435 153.0 153
  80.05623 11.0 11
  80.06104 19.0 19
  81.03302 28.0 28
  81.05627 14.0 14
  81.06975 325.0 325
  82.07285 24.0 24
  83.08192 21.0 21
  83.08698 61.0 61
  84.09097 13.0 13
  87.00469 22.0 22
  91.01006 15.0 15
  91.05417 271.0 271
  92.05342 14.0 14
  93.04771 15.0 15
  93.06936 456.0 456
  94.06833 24.0 24
  94.07442 58.0 58
  94.12827 10.0 10
  94.82597 17.0 17
  95.016 22.0 22
  95.03388 11.0 11
  95.05074 88.0 88
  95.08508 356.0 356
  95.37933 11.0 11
  96.04977 15.0 15
  96.0888 63.0 63
  97.02922 13.0 13
  97.06336 20.0 20
  97.09801 18.0 18
  97.10571 12.0 12
  98.1072 12.0 12
  103.05389 14.0 14
  103.06013 22.0 22
  105.06975 532.0 531
  105.08152 16.0 16
  106.07101 32.0 32
  106.07693 18.0 18
  107.04929 96.0 96
  107.05521 41.0 41
  107.08421 753.0 752
  108.08392 44.0 44
  108.23162 8.0 8
  109.02782 105.0 105
  109.06176 38.0 38
  109.10249 303.0 303
  109.70592 9.0 9
  110.1034 27.0 27
  110.11306 17.0 17
  111.03938 14.0 14
  113.02457 21.0 21
  114.0978 18.0 18
  116.39718 14.0 14
  117.06331 33.0 33
  117.07012 82.0 82
  118.07203 8.0 8
  118.07877 8.0 8
  119.07257 14.0 14
  119.08602 442.0 442
  119.10165 8.0 8
  119.5046 9.0 9
  119.55698 9.0 9
  120.07973 20.0 20
  120.08625 66.0 66
  120.0952 11.0 11
  121.05061 9.0 9
  121.05872 33.0 33
  121.06365 57.0 57
  121.08408 10.0 10
  121.10127 422.0 422
  121.70104 9.0 9
  122.10288 70.0 70
  122.11063 8.0 8
  122.72636 14.0 14
  123.02821 8.0 8
  123.04382 289.0 289
  123.07827 12.0 12
  123.08395 25.0 25
  123.11158 29.0 29
  123.11881 9.0 9
  124.05108 10.0 10
  125.01661 12.0 12
  125.02531 26.0 26
  125.05872 11.0 11
  125.09077 10.0 10
  125.09755 22.0 22
  126.02582 11.0 11
  126.2524 12.0 12
  128.05998 26.0 26
  128.63843 9.0 9
  129.02539 12.0 12
  129.06538 33.0 33
  129.07016 85.0 85
  130.07852 13.0 13
  130.15063 11.0 11
  131.06735 27.0 27
  131.08539 601.0 600
  131.89908 18.0 18
  132.04907 12.0 12
  132.08751 89.0 89
  132.37717 9.0 9
  133.0334 10.0 10
  133.06183 123.0 123
  133.08054 14.0 14
  133.09906 582.0 581
  134.0683 9.0 9
  134.1032 63.0 63
  134.10902 21.0 21
  135.03494 11.0 11
  135.04369 16.0 16
  135.05164 8.0 8
  135.07619 45.0 45
  135.08302 21.0 21
  135.08972 11.0 11
  135.10207 27.0 27
  135.11522 453.0 453
  136.04895 14.0 14
  136.12152 27.0 27
  136.71892 8.0 8
  137.06465 30.0 30
  137.09744 21.0 21
  139.00107 11.0 11
  139.03658 19.0 19
  139.04196 24.0 24
  139.23982 9.0 9
  141.05199 20.0 20
  141.06874 124.0 124
  142.05542 9.0 9
  143.06804 17.0 17
  143.08382 472.0 472
  144.05257 24.0 24
  144.06061 13.0 13
  144.09 178.0 178
  144.65248 16.0 16
  145.05882 39.0 39
  145.06601 80.0 80
  145.07605 20.0 20
  145.09943 1000.0 999
  145.64789 9.0 9
  146.105 115.0 115
  147.04312 49.0 49
  147.07751 94.0 94
  147.08498 44.0 44
  147.10065 25.0 25
  147.11568 763.0 762
  147.26045 8.0 8
  147.88448 9.0 9
  148.04877 11.0 11
  148.08113 24.0 24
  148.11784 177.0 177
  148.81845 10.0 10
  149.06201 94.0 94
  149.09262 40.0 40
  149.11122 12.0 12
  149.12923 97.0 97
  149.13467 167.0 167
  149.77679 8.0 8
  150.09444 17.0 17
  150.13393 18.0 18
  150.14204 13.0 13
  150.16325 10.0 10
  151.02216 10.0 10
  151.03683 392.0 392
  151.06273 9.0 9
  151.07133 37.0 37
  151.08195 10.0 10
  152.04163 35.0 35
  152.06047 10.0 10
  152.89195 14.0 14
  153.03592 21.0 21
  153.05463 75.0 75
  153.08055 17.0 17
  153.09244 19.0 19
  154.07341 54.0 54
  154.0858 12.0 12
  154.68027 9.0 9
  155.06227 10.0 10
  155.08319 144.0 144
  155.08966 79.0 79
  155.10677 9.0 9
  156.07513 34.0 34
  156.08339 7.0 7
  156.09758 10.0 10
  157.03094 10.0 10
  157.06111 43.0 43
  157.07234 12.0 12
  157.09541 127.0 127
  157.10341 216.0 216
  158.06218 9.0 9
  158.06924 30.0 30
  158.10568 106.0 106
  159.03984 27.0 27
  159.0463 9.0 9
  159.0674 24.0 24
  159.08028 388.0 388
  159.11621 727.0 726
  159.64073 8.0 8
  160.07928 26.0 26
  160.09097 9.0 9
  160.12012 127.0 127
  160.94635 12.0 12
  160.96732 11.0 11
  161.05867 78.0 78
  161.08531 22.0 22
  161.09538 184.0 184
  161.11017 14.0 14
  161.13094 706.0 705
  161.49709 9.0 9
  162.11865 11.0 11
  162.1339 85.0 85
  163.02986 12.0 12
  163.07164 133.0 133
  163.10599 46.0 46
  163.11549 18.0 18
  163.1344 9.0 9
  163.14999 96.0 96
  164.05421 12.0 12
  164.07649 8.0 8
  164.08443 10.0 10
  164.12187 10.0 10
  164.15001 11.0 11
  165.05116 10.0 10
  165.06517 51.0 51
  165.0849 20.0 20
  165.08992 44.0 44
  165.13205 20.0 20
  165.15578 8.0 8
  166.05937 13.0 13
  166.077 26.0 26
  166.13182 12.0 12
  167.06912 61.0 61
  167.08615 69.0 69
  167.09689 11.0 11
  168.09523 27.0 27
  169.05502 16.0 16
  169.06831 29.0 29
  169.08838 29.0 29
  169.10245 223.0 223
  169.7677 16.0 16
  169.89421 11.0 11
  170.09375 10.0 10
  170.10356 41.0 41
  170.11334 9.0 9
  170.43025 14.0 14
  170.59001 11.0 11
  171.07924 106.0 106
  171.0862 29.0 29
  171.1161 465.0 465
  171.15515 10.0 10
  171.50072 8.0 8
  172.07472 15.0 15
  172.08813 10.0 10
  172.11815 28.0 28
  172.12541 30.0 30
  173.05846 96.0 96
  173.0797 8.0 8
  173.09192 143.0 143
  173.10083 60.0 60
  173.13327 274.0 274
  173.14737 10.0 10
  174.05843 27.0 27
  174.07956 11.0 11
  174.09161 9.0 9
  174.10185 8.0 8
  174.1124 11.0 11
  174.11853 10.0 10
  174.13989 61.0 61
  174.81503 10.0 10
  175.07431 122.0 122
  175.08252 34.0 34
  175.1131 79.0 79
  175.1472 260.0 260
  175.1595 35.0 35
  175.18405 9.0 9
  175.89922 8.0 8
  176.06757 8.0 8
  176.08075 27.0 27
  176.11728 12.0 12
  176.15207 18.0 18
  176.26286 13.0 13
  176.48038 8.0 8
  177.05099 46.0 46
  177.09201 241.0 241
  177.1618 24.0 24
  177.47166 15.0 15
  177.83116 8.0 8
  178.05376 10.0 10
  178.06189 26.0 26
  178.07573 13.0 13
  178.08788 21.0 21
  178.16714 27.0 27
  179.01132 9.0 9
  179.07057 27.0 27
  179.07832 22.0 22
  179.08772 43.0 43
  179.09769 29.0 29
  180.08153 21.0 21
  180.09218 18.0 18
  181.04932 12.0 12
  181.063 11.0 11
  181.09903 84.0 84
  181.10844 19.0 19
  182.08891 8.0 8
  182.10655 77.0 77
  183.05945 10.0 10
  183.07498 40.0 40
  183.08661 31.0 31
  183.11891 168.0 168
  184.06839 21.0 21
  184.07967 11.0 11
  184.09612 9.0 9
  184.12404 16.0 16
  185.04671 10.0 10
  185.05734 37.0 37
  185.09521 110.0 110
  185.11063 18.0 18
  185.12785 216.0 216
  185.13667 106.0 106
  185.21948 11.0 11
  185.52182 13.0 13
  185.70422 10.0 10
  186.08931 8.0 8
  186.12654 18.0 18
  186.13843 88.0 88
  187.07103 139.0 139
  187.07864 65.0 65
  187.10876 103.0 103
  187.14725 155.0 155
  187.16069 16.0 16
  188.04572 8.0 8
  188.07971 39.0 39
  188.12427 18.0 18
  189.08556 185.0 185
  189.16286 10.0 10
  189.172 9.0 9
  191.06689 184.0 184
  191.09114 10.0 10
  191.10947 32.0 32
  191.14243 30.0 30
  192.08534 13.0 13
  192.09665 20.0 20
  192.11398 21.0 21
  193.06525 8.0 8
  193.08414 40.0 40
  193.09529 39.0 39
  193.10715 110.0 110
  193.75937 10.0 10
  194.06581 10.0 10
  194.10172 10.0 10
  194.12408 10.0 10
  195.06367 8.0 8
  195.08195 64.0 64
  195.1163 229.0 229
  196.07701 11.0 11
  196.09634 23.0 23
  196.11998 58.0 58
  197.05762 8.0 8
  197.09514 130.0 130
  197.11073 10.0 10
  197.13258 189.0 189
  198.10239 21.0 21
  198.15196 12.0 12
  199.04198 10.0 10
  199.052 13.0 13
  199.06348 12.0 12
  199.07277 41.0 41
  199.08214 20.0 20
  199.10822 96.0 96
  199.11774 60.0 60
  199.13409 19.0 19
  199.14653 208.0 208
  199.15726 26.0 26
  200.08324 9.0 9
  200.12039 28.0 28
  200.15433 88.0 88
  200.26764 8.0 8
  201.09076 119.0 119
  201.12224 18.0 18
  201.15359 16.0 16
  201.16397 74.0 74
  202.07599 23.0 23
  202.08745 10.0 10
  202.1196 19.0 19
  202.16257 23.0 23
  203.06738 58.0 58
  203.09216 12.0 12
  203.10689 69.0 69
  203.1362 8.0 8
  203.17261 14.0 14
  203.1821 11.0 11
  204.07933 9.0 9
  204.09529 10.0 10
  204.9696 9.0 9
  205.08665 377.0 377
  205.11444 39.0 39
  206.08621 52.0 52
  206.09537 64.0 64
  206.11023 8.0 8
  207.08641 12.0 12
  207.09592 31.0 31
  207.11447 116.0 116
  208.08205 50.0 50
  208.11635 26.0 26
  208.50444 9.0 9
  209.07216 9.0 9
  209.08774 41.0 41
  209.09877 55.0 55
  209.11876 25.0 25
  209.13196 154.0 154
  209.14273 23.0 23
  209.16403 10.0 10
  210.12161 8.0 8
  210.13959 45.0 45
  210.15135 10.0 10
  210.3235 11.0 11
  211.06787 48.0 48
  211.0818 13.0 13
  211.09749 14.0 14
  211.10971 40.0 40
  211.12146 44.0 44
  211.14125 76.0 76
  211.14851 180.0 180
  212.11302 27.0 27
  212.15283 60.0 60
  212.31503 10.0 10
  213.08725 161.0 161
  213.12857 198.0 198
  213.15372 21.0 21
  213.16505 117.0 117
  213.17558 35.0 35
  214.1003 12.0 12
  214.16716 38.0 38
  214.17564 30.0 30
  215.06107 20.0 20
  215.07452 8.0 8
  215.10556 92.0 92
  215.1149 34.0 34
  215.14037 20.0 20
  215.1515 12.0 12
  215.17891 192.0 192
  215.19276 24.0 24
  216.11417 21.0 21
  216.19083 46.0 46
  217.07999 39.0 39
  217.08725 78.0 78
  217.10341 10.0 10
  217.12436 90.0 90
  217.16142 9.0 9
  217.18655 10.0 10
  217.19537 8.0 8
  218.07068 12.0 12
  218.08374 37.0 37
  218.09718 9.0 9
  218.15318 9.0 9
  219.09015 9.0 9
  219.11224 123.0 123
  219.18272 10.0 10
  220.1019 27.0 27
  220.12433 23.0 23
  221.08913 17.0 17
  221.10428 35.0 35
  221.12854 79.0 79
  222.09621 8.0 8
  222.13937 14.0 14
  223.08987 10.0 10
  223.10362 8.0 8
  223.11365 28.0 28
  223.1286 11.0 11
  223.14708 67.0 67
  223.15941 13.0 13
  224.1104 10.0 10
  224.1837 10.0 10
  225.12019 42.0 42
  225.1315 30.0 30
  225.15836 42.0 42
  225.16736 18.0 18
  226.08408 21.0 21
  226.10089 14.0 14
  226.12778 37.0 37
  226.14302 10.0 10
  226.15195 8.0 8
  226.16867 37.0 37
  226.71532 8.0 8
  227.10495 59.0 59
  227.11577 15.0 15
  227.13785 48.0 48
  227.14934 29.0 29
  227.17165 20.0 20
  227.18141 57.0 57
  228.11259 10.0 10
  228.13586 9.0 9
  228.14789 23.0 23
  228.19135 27.0 27
  228.31516 10.0 10
  229.08539 18.0 18
  229.12323 115.0 115
  229.15793 22.0 22
  229.19507 37.0 37
  230.13458 17.0 17
  231.08946 15.0 15
  231.1058 36.0 36
  231.14169 67.0 67
  232.12402 16.0 16
  232.15205 10.0 10
  233.10008 33.0 33
  233.12589 55.0 55
  233.13873 17.0 17
  234.12889 18.0 18
  234.1445 27.0 27
  234.73355 9.0 9
  235.04834 12.0 12
  235.11656 28.0 28
  235.1447 75.0 75
  235.15791 10.0 10
  236.12218 11.0 11
  237.11459 15.0 15
  237.13828 32.0 32
  237.15898 18.0 18
  237.16982 14.0 14
  238.09804 8.0 8
  238.16499 13.0 13
  239.10077 116.0 116
  239.12016 68.0 68
  239.14417 68.0 68
  239.17215 42.0 42
  239.18321 34.0 34
  240.11101 45.0 45
  240.1252 14.0 14
  240.14497 12.0 12
  240.16327 9.0 9
  240.19576 9.0 9
  241.10286 37.0 37
  241.12352 247.0 247
  241.15683 41.0 41
  241.18314 8.0 8
  241.19568 22.0 22
  241.20763 32.0 32
  242.20667 14.0 14
  242.45482 13.0 13
  243.10513 18.0 18
  243.11275 16.0 16
  243.12979 22.0 22
  243.13995 43.0 43
  243.17491 13.0 13
  244.10287 14.0 14
  244.14359 29.0 29
  244.15593 16.0 16
  244.18903 8.0 8
  245.11443 29.0 29
  245.14764 24.0 24
  246.10536 10.0 10
  246.12769 12.0 12
  246.14088 16.0 16
  247.10313 42.0 42
  247.13353 131.0 131
  247.15268 21.0 21
  248.13156 9.0 9
  249.1315 32.0 32
  249.14372 34.0 34
  250.158 27.0 27
  250.17987 20.0 20
  251.10687 14.0 14
  251.12531 13.0 13
  251.17165 43.0 43
  251.1813 91.0 91
  252.1868 41.0 41
  252.20627 13.0 13
  252.7393 23.0 23
  253.09592 14.0 14
  253.11127 38.0 38
  253.12154 40.0 40
  253.13385 29.0 29
  253.16751 32.0 32
  253.19456 531.0 530
  253.22339 12.0 12
  254.1286 28.0 28
  254.17375 22.0 22
  254.20128 126.0 126
  254.2157 34.0 34
  255.13655 71.0 71
  255.16922 8.0 8
  255.18199 10.0 10
  255.18991 24.0 24
  255.21016 287.0 287
  255.40108 13.0 13
  256.13422 8.0 8
  256.19632 17.0 17
  256.21646 68.0 68
  256.22614 23.0 23
  257.09552 9.0 9
  257.1149 90.0 90
  257.15097 33.0 33
  257.18835 21.0 21
  257.21268 11.0 11
  258.14917 13.0 13
  258.16229 10.0 10
  259.12003 10.0 10
  259.14291 18.0 18
  259.15845 10.0 10
  260.10883 9.0 9
  260.12863 14.0 14
  260.14093 20.0 20
  261.10666 8.0 8
  261.14954 64.0 64
  261.17053 25.0 25
  262.15567 14.0 14
  263.13974 10.0 10
  263.17392 8.0 8
  263.18521 19.0 19
  265.12543 11.0 11
  265.14914 10.0 10
  265.16931 8.0 8
  265.18253 8.0 8
  265.19574 19.0 19
  266.12329 12.0 12
  267.1282 11.0 11
  267.13834 53.0 53
  267.15869 24.0 24
  267.16998 10.0 10
  269.14954 28.0 28
  269.18289 12.0 12
  269.21332 28.0 28
  269.23697 10.0 10
  270.14337 11.0 11
  271.12283 43.0 43
  271.13461 28.0 28
  271.17514 45.0 45
  271.20795 164.0 164
  271.63281 9.0 9
  272.14905 9.0 9
  272.2084 26.0 26
  272.21893 20.0 20
  272.22824 9.0 9
  273.15161 41.0 41
  273.18872 10.0 10
  274.14734 9.0 9
  274.16623 10.0 10
  275.15329 12.0 12
  275.16992 36.0 36
  276.12305 10.0 10
  276.1478 38.0 38
  276.17752 10.0 10
  277.10504 12.0 12
  277.1915 9.0 9
  278.13107 10.0 10
  278.19345 24.0 24
  278.20886 9.0 9
  279.13382 8.0 8
  279.19528 10.0 10
  279.21295 65.0 65
  280.13962 13.0 13
  280.16678 10.0 10
  280.18402 9.0 9
  280.1944 8.0 8
  280.2149 17.0 17
  280.22693 10.0 10
  281.14532 12.0 12
  281.16458 14.0 14
  281.20557 15.0 15
  281.22464 10.0 10
  282.14096 22.0 22
  282.15366 8.0 8
  283.19244 9.0 9
  283.2095 12.0 12
  283.23102 11.0 11
  284.18369 13.0 13
  284.21329 10.0 10
  285.14517 21.0 21
  285.1554 10.0 10
  285.17938 8.0 8
  286.16525 9.0 9
  286.2998 10.0 10
  287.15335 28.0 28
  287.16849 12.0 12
  288.15594 14.0 14
  288.17633 10.0 10
  289.16214 15.0 15
  289.18109 9.0 9
  289.19455 27.0 27
  291.14841 14.0 14
  293.16342 17.0 17
  293.22736 18.0 18
  294.1366 8.0 8
  294.15408 13.0 13
  294.20352 12.0 12
  295.17584 16.0 16
  295.21213 23.0 23
  296.16766 9.0 9
  297.14114 8.0 8
  297.19443 20.0 20
  297.22952 10.0 10
  298.14389 9.0 9
  298.17917 8.0 8
  298.22153 11.0 11
  299.159 8.0 8
  301.21161 8.0 8
  303.19653 45.0 45
  303.21262 88.0 88
  303.22784 26.0 26
  305.18518 10.0 10
  305.22806 33.0 33
  306.15381 9.0 9
  306.23798 10.0 10
  307.18988 18.0 18
  307.20688 55.0 55
  308.16922 10.0 10
  308.18289 10.0 10
  308.20038 12.0 12
  308.21527 11.0 11
  308.22772 9.0 9
  311.14771 11.0 11
  311.17172 20.0 20
  312.25287 11.0 11
  315.22891 10.0 10
  321.18375 30.0 30
  321.21344 82.0 82
  322.17252 10.0 10
  322.20956 28.0 28
  322.22424 19.0 19
  322.24161 9.0 9
  323.20673 39.0 39
  323.22134 17.0 17
  323.2352 20.0 20
  324.19952 11.0 11
  325.19476 15.0 15
  325.21426 12.0 12
  325.2305 13.0 13
  326.20395 11.0 11
  331.19009 32.0 32
  331.20615 16.0 16
  331.22293 14.0 14
  332.70691 11.0 11
  335.35089 12.0 12
  337.186 10.0 10
  339.17169 9.0 9
  339.21033 12.0 12
  339.21991 34.0 34
  339.24155 41.0 41
  340.23593 17.0 17
  341.23724 14.0 14
  347.20889 9.0 9
  349.0657 9.0 9
  349.11792 8.0 8
  349.20932 97.0 97
  349.22348 68.0 68
  349.31219 14.0 14
  350.20856 21.0 21
  350.22375 17.0 17
  358.44171 14.0 14
  359.28073 16.0 16
  363.89371 12.0 12
  367.21796 110.0 110
  367.23581 60.0 60
  367.79367 8.0 8
  368.05701 9.0 9
  368.22717 64.0 64
  369.22754 8.0 8
  370.23459 14.0 14
  373.06433 10.0 10
  379.81906 16.0 16
  385.20517 12.0 12
  385.22437 42.0 42
  385.24179 53.0 53
  385.29547 8.0 8
//
