ACCESSION: MSBNK-RIKEN-PR100009
RECORD_TITLE: (R)-(-)-Phenylephrine; LC-ESI-QTOF; MS2; CE:Ramp 5-60 V; [M+H]+
DATE: 2016.01.19 (Created 2009.09.10, modified 2011.05.06)
AUTHORS: Matsuda F, Suzuki M, Sawada Y, Plant Science Center, RIKEN.
LICENSE: CC BY-SA
COMMENT: Acquisition and generation of the data is financially supported in part by CREST/JST.
CH$NAME: (R)-(-)-Phenylephrine
CH$NAME: Neo-Synephrine
CH$NAME: Metasympatol
CH$NAME: Visadron
CH$NAME: Mesaton
CH$NAME: Mezaton
CH$NAME: Metaoxedrine
CH$NAME: m-Sympatol
CH$NAME: m-Oxedrine
CH$NAME: (R)-(?)-1-(3-Hydroxyphenyl)-2-methylaminoethanol
CH$NAME: L-(3-Hydroxyphenyl)-N-methylethanolamine
CH$COMPOUND_CLASS: Amino alcohol
CH$FORMULA: C9H13NO2
CH$EXACT_MASS: 167.09463
CH$SMILES: CNC[C@H](O)c(c1)cc(O)cc1
CH$IUPAC: InChI=1S/C9H13NO2/c1-10-6-9(12)7-3-2-4-8(11)5-7/h2-5,9-12H,6H2,1H3/t9-/m0/s1
CH$LINK: CAS 59-42-7
CH$LINK: CHEMSPIDER 5818
CH$LINK: KEGG C07441
CH$LINK: PUBCHEM CID:6041
CH$LINK: INCHIKEY SONNWYBIRXJNDC-VIFPVBQESA-N
CH$LINK: COMPTOX DTXSID9023465
AC$INSTRUMENT: UPLC Q-Tof Premier, Waters
AC$INSTRUMENT_TYPE: LC-ESI-QTOF
AC$MASS_SPECTROMETRY: MS_TYPE MS2
AC$MASS_SPECTROMETRY: ION_MODE POSITIVE
AC$MASS_SPECTROMETRY: COLLISION_ENERGY Ramp 5-60 V
AC$MASS_SPECTROMETRY: DATAFORMAT Continuum
AC$MASS_SPECTROMETRY: DATE 2008.07.24
AC$MASS_SPECTROMETRY: DESOLVATION_GAS_FLOW 600.0 L/Hr
AC$MASS_SPECTROMETRY: DESOLVATION_TEMPERATURE 420 C
AC$MASS_SPECTROMETRY: FRAGMENTATION_METHOD LOW-ENERGY CID
AC$MASS_SPECTROMETRY: IONIZATION ESI
AC$MASS_SPECTROMETRY: SCANNING 1.0 sec/scan (m/z = 50-1000)
AC$MASS_SPECTROMETRY: SOURCE_TEMPERATURE 120 C
AC$CHROMATOGRAPHY: CAPILLARY_VOLTAGE 3.0 kV
AC$CHROMATOGRAPHY: SAMPLING_CONE 23.0 V
AC$CHROMATOGRAPHY: SOLVENT A CH3CN(0.1%HCOOH)
AC$CHROMATOGRAPHY: SOLVENT B H2O(0.1%HCOOH)
MS$FOCUSED_ION: PRECURSOR_M/Z 168.10242
MS$FOCUSED_ION: PRECURSOR_TYPE [M+H]+
PK$SPLASH: splash10-014i-0900000000-4a910a2109ba191b96e7
PK$NUM_PEAK: 2
PK$PEAK: m/z int. rel.int.
  150.0875 512 278
  168.0960 1841 999
//
