ACCESSION: MSBNK-RIKEN-PR310719
RECORD_TITLE: Solasodine base + 2H + H2O, O-Hex-Hex-Hex-Pen; LC-ESI-QTOF; MS2
DATE: 2019.03.28
AUTHORS: Tetsuya Mori, Center for Sustainable Resource Science, RIKEN
LICENSE: CC BY-NC-SA
PUBLICATION: Tsugawa H., Nakabayashi R., Mori T., Yamada Y., Takahashi M., Rai A., Sugiyama R., Yamamoto H., Nakaya T., Yamazaki M., Kooke R., Bac-Molenaar JA., Oztolan-Erol N., Keurentjes JJB., Arita M., Saito K. (2019) "A cheminformatics approach to characterize metabolomes in stable-isotope-labeled organisms" Nature Methods 16(4):295-298. [doi:10.1038/s41592-019-0358-2]
COMMENT: Annotation level-3
CH$NAME: Solasodine base + 2H + H2O, O-Hex-Hex-Hex-Pen
CH$COMPOUND_CLASS: Steroidal saponins
CH$FORMULA: C50H85NO22
CH$EXACT_MASS: 1052.215
CH$SMILES: CC(CN)CCC1(O)OC2CC3C4CCC5CC(CCC5(C)C4CCC3(C)C2C1C)OC1OC(CO)C(OC2OC(CO)C(O)C(OC3OCC(O)C(O)C3O)C2OC2OC(CO)C(O)C(O)C2O)C(O)C1O
CH$IUPAC: InChI=1S/C50H85NO22/c1-20(15-51)7-12-50(64)21(2)32-28(73-50)14-26-24-6-5-22-13-23(8-10-48(22,3)25(24)9-11-49(26,32)4)66-45-40(63)37(60)41(31(18-54)69-45)70-47-43(72-46-39(62)36(59)34(57)29(16-52)67-46)42(35(58)30(17-53)68-47)71-44-38(61)33(56)27(55)19-65-44/h20-47,52-64H,5-19,51H2,1-4H3
CH$LINK: INCHIKEY WAUPQAKNDACORQ-UHFFFAOYSA-N
AC$INSTRUMENT: LC, Waters Acquity UPLC System; MS, Waters Xevo G2 Q-Tof
AC$INSTRUMENT_TYPE: LC-ESI-QTOF
AC$MASS_SPECTROMETRY: MS_TYPE MS2
AC$MASS_SPECTROMETRY: ION_MODE POSITIVE
AC$MASS_SPECTROMETRY: COLLISION_ENERGY 6V
AC$MASS_SPECTROMETRY: DESOLVATION_GAS_FLOW 800/h
AC$MASS_SPECTROMETRY: DESOLVATION_TEMPERATURE 450 C
AC$MASS_SPECTROMETRY: IONIZATION ESI
AC$CHROMATOGRAPHY: CAPILLARY_VOLTAGE +3.00 kV
AC$CHROMATOGRAPHY: COLUMN_NAME Acquity bridged ethyl hybrid C18 (1.7 um, 2.1 mm * 100 mm, Waters)
AC$CHROMATOGRAPHY: COLUMN_TEMPERATURE 40 C
AC$CHROMATOGRAPHY: FLOW_GRADIENT A/B = (99.5%/0.5% at 0 min, 99.5%/0.5% at 0.1 min, 20%/80% at 10 min, 0.5%/99.5% at 10.1 min, 0.5%/99.5% at 12.0 min, 99.5%/0.5% at 12.1 min, 99.5%/0.5% at 15.0 min)
AC$CHROMATOGRAPHY: FLOW_RATE 0.3 ml/min at 0 min, 0.3 ml/min at 10 min, 0.4 ml/min at 10.1 min, 0.4 ml/min at 14.4 min, 0.3 ml/min at 14.5 min
AC$CHROMATOGRAPHY: RETENTION_TIME 4.31
AC$CHROMATOGRAPHY: SOLVENT A water including 0.1% formic acid
AC$CHROMATOGRAPHY: SOLVENT B acetonitrile including 0.1% formic acid
MS$FOCUSED_ION: PRECURSOR_TYPE [M-H2O+H]+
MS$FOCUSED_ION: PRECURSOR_M/Z 1034.5508
PK$SPLASH: splash10-001i-9000000000-5628f34bef1e885d1fee
PK$NUM_PEAK: 7
PK$PEAK: m/z int. rel.int.
  300.24875 20.0 56
  499.70728 27.0 75
  594.42987 26.0 73
  813.5531 16.0 45
  1033.53455 17.0 47
  1034.48657 62.0 173
  1034.55566 358.0 999
//
