ACCESSION: MSBNK-RIKEN-PR300133
RECORD_TITLE: Koumine; LC-ESI-QTOF; MS2
DATE: 2019.03.28
AUTHORS: Tetsuya Mori, Center for Sustainable Resource Science, RIKEN
LICENSE: CC BY-NC-SA
PUBLICATION: Tsugawa H., Nakabayashi R., Mori T., Yamada Y., Takahashi M., Rai A., Sugiyama R., Yamamoto H., Nakaya T., Yamazaki M., Kooke R., Bac-Molenaar JA., Oztolan-Erol N., Keurentjes JJB., Arita M., Saito K. (2019) "A cheminformatics approach to characterize metabolomes in stable-isotope-labeled organisms" Nature Methods 16(4):295-298. [doi:10.1038/s41592-019-0358-2]
COMMENT: registered in RIKEN PlaSMA
CH$NAME: Koumine
CH$COMPOUND_CLASS: 3-alkylindoles
CH$FORMULA: C20H22N2O
CH$EXACT_MASS: 306.409
CH$SMILES: CN1C[C@@]2(C=C)[C@@H]3C[C@@H]4OC[C@@H]3[C@@H]1C[C@]21C4=NC2=CC=CC=C12
CH$IUPAC: InChI=1S/C20H22N2O/c1-3-19-11-22(2)16-9-20(19)13-6-4-5-7-15(13)21-18(20)17-8-14(19)12(16)10-23-17/h3-7,12,14,16-17H,1,8-11H2,2H3/t12-,14+,16-,17-,19-,20-/m0/s1
CH$LINK: INCHIKEY VTLYEMHGPMGUOT-XMHJOAAQSA-N
AC$INSTRUMENT: LC, Waters Acquity UPLC System; MS, Waters Xevo G2 Q-Tof
AC$INSTRUMENT_TYPE: LC-ESI-QTOF
AC$MASS_SPECTROMETRY: MS_TYPE MS2
AC$MASS_SPECTROMETRY: ION_MODE POSITIVE
AC$MASS_SPECTROMETRY: COLLISION_ENERGY 6V
AC$MASS_SPECTROMETRY: DESOLVATION_GAS_FLOW 800/h
AC$MASS_SPECTROMETRY: DESOLVATION_TEMPERATURE 450 C
AC$MASS_SPECTROMETRY: IONIZATION ESI
AC$CHROMATOGRAPHY: CAPILLARY_VOLTAGE +3.00 kV
AC$CHROMATOGRAPHY: COLUMN_NAME Acquity bridged ethyl hybrid C18 (1.7 um, 2.1 mm * 100 mm, Waters)
AC$CHROMATOGRAPHY: COLUMN_TEMPERATURE 40 C
AC$CHROMATOGRAPHY: FLOW_GRADIENT A/B = (99.5%/0.5% at 0 min, 99.5%/0.5% at 0.1 min, 20%/80% at 10 min, 0.5%/99.5% at 10.1 min, 0.5%/99.5% at 12.0 min, 99.5%/0.5% at 12.1 min, 99.5%/0.5% at 15.0 min)
AC$CHROMATOGRAPHY: FLOW_RATE 0.3 ml/min at 0 min, 0.3 ml/min at 10 min, 0.4 ml/min at 10.1 min, 0.4 ml/min at 14.4 min, 0.3 ml/min at 14.5 min
AC$CHROMATOGRAPHY: RETENTION_TIME 3.584467
AC$CHROMATOGRAPHY: SOLVENT A water including 0.1% formic acid
AC$CHROMATOGRAPHY: SOLVENT B acetonitrile including 0.1% formic acid
MS$FOCUSED_ION: PRECURSOR_TYPE [M+H]+
MS$FOCUSED_ION: PRECURSOR_M/Z 307.1804898
PK$SPLASH: splash10-0fsi-0970000000-60aaba55b2608ae2e093
PK$NUM_PEAK: 344
PK$PEAK: m/z int. rel.int.
  55.01992 9.0 9
  57.0579 11.0 11
  65.03568 6.0 6
  65.04285 6.0 6
  67.04115 13.0 13
  67.05743 10.0 10
  70.05721 8.0 8
  70.06647 76.0 76
  77.03284 7.0 7
  77.03966 24.0 24
  79.05128 6.0 6
  79.05676 16.0 16
  80.04861 7.0 7
  81.07032 6.0 6
  81.23997 5.0 5
  81.33537 5.0 5
  81.99839 5.0 5
  82.0647 8.0 8
  84.08267 18.0 18
  86.05838 5.0 5
  91.05241 36.0 36
  92.05965 18.0 18
  93.05742 17.0 17
  93.07312 5.0 5
  94.06429 34.0 34
  94.64758 5.0 5
  95.06551 6.0 6
  96.06479 10.0 10
  96.07463 5.0 5
  96.07998 20.0 20
  98.06471 10.0 10
  100.07587 7.0 7
  101.04381 12.0 12
  103.01141 6.0 6
  103.04849 16.0 16
  103.05676 21.0 21
  104.0498 7.0 7
  105.06611 21.0 21
  105.07239 21.0 21
  106.05734 8.0 8
  106.06649 14.0 14
  106.077 5.0 5
  107.0711 25.0 25
  108.08028 20.0 20
  112.75807 5.0 5
  115.04697 18.0 18
  115.05535 38.0 38
  116.0596 24.0 24
  117.04825 12.0 12
  117.05659 29.0 29
  117.06745 24.0 24
  118.06347 26.0 26
  119.0826 7.0 7
  120.08162 89.0 89
  120.63783 7.0 7
  121.07965 11.0 11
  121.08637 16.0 16
  121.08997 6.0 6
  122.94321 6.0 6
  124.07325 7.0 7
  127.05608 36.0 36
  128.037 8.0 8
  128.04573 9.0 9
  128.05194 15.0 15
  128.0619 28.0 28
  129.05492 16.0 16
  129.07005 69.0 69
  129.08095 7.0 7
  130.0519 5.0 5
  130.06531 140.0 140
  130.07303 21.0 21
  131.06842 23.0 23
  131.07822 5.0 5
  131.38464 8.0 8
  132.0562 9.0 9
  132.08168 6.0 6
  133.08432 15.0 15
  133.0912 5.0 5
  134.09735 13.0 13
  135.07681 6.0 6
  136.11685 12.0 12
  136.3994 8.0 8
  137.11734 7.0 7
  139.05536 20.0 20
  140.05824 7.0 7
  140.27162 5.0 5
  141.05876 7.0 7
  141.36316 9.0 9
  141.81581 12.0 12
  141.87564 5.0 5
  142.05182 7.0 7
  142.07071 5.0 5
  142.711 5.0 5
  143.07242 45.0 45
  143.08516 7.0 7
  144.07697 32.0 32
  144.0878 20.0 20
  145.06381 7.0 7
  145.08038 10.0 10
  146.05986 7.0 7
  146.08916 14.0 14
  146.10182 10.0 10
  148.1109 35.0 35
  148.11958 8.0 8
  151.04242 21.0 21
  151.05417 60.0 60
  152.04082 8.0 8
  152.04984 11.0 11
  152.06342 121.0 121
  153.06325 46.0 46
  153.07045 21.0 21
  154.05663 16.0 16
  154.06689 48.0 48
  154.08122 12.0 12
  155.0744 91.0 91
  155.0883 14.0 14
  156.08029 22.0 22
  157.07869 14.0 14
  157.08783 15.0 15
  158.10193 14.0 14
  159.06149 13.0 13
  160.07454 21.0 21
  165.06412 36.0 36
  165.07259 13.0 13
  165.07944 10.0 10
  165.74442 5.0 5
  165.98978 10.0 10
  166.03841 7.0 7
  166.05513 23.0 23
  166.06709 158.0 158
  166.13107 8.0 8
  166.15511 6.0 6
  167.03465 9.0 9
  167.07097 504.0 503
  167.08009 147.0 147
  167.69429 9.0 9
  168.05626 29.0 29
  168.07983 440.0 440
  169.07286 6.0 6
  169.08241 26.0 26
  169.09253 37.0 37
  169.64452 7.0 7
  169.9558 7.0 7
  170.06267 5.0 5
  170.07623 7.0 7
  170.09653 28.0 28
  171.05133 8.0 8
  171.09537 7.0 7
  172.09157 6.0 6
  176.05922 11.0 11
  176.06841 20.0 20
  177.64671 6.0 6
  178.06198 93.0 93
  178.07671 16.0 16
  178.35649 5.0 5
  179.06673 103.0 103
  179.07504 68.0 68
  180.05101 15.0 15
  180.06012 11.0 11
  180.0813 752.0 751
  181.05367 20.0 20
  181.06285 15.0 15
  181.08786 488.0 488
  181.12029 6.0 6
  181.19328 6.0 6
  181.55075 5.0 5
  182.06819 7.0 7
  182.07683 7.0 7
  182.09381 56.0 56
  182.10402 29.0 29
  182.4541 5.0 5
  183.07684 19.0 19
  183.093 18.0 18
  184.08293 11.0 11
  189.04105 8.0 8
  189.07387 29.0 29
  190.06421 21.0 21
  190.07927 28.0 28
  191.0757 180.0 180
  191.09395 16.0 16
  192.06354 8.0 8
  192.07463 43.0 43
  192.08243 170.0 170
  193.05424 7.0 7
  193.06433 13.0 13
  193.07991 73.0 73
  193.09004 209.0 209
  194.06888 23.0 23
  194.08748 99.0 99
  194.09511 269.0 269
  195.09915 67.0 67
  196.05678 14.0 14
  196.07501 182.0 182
  196.10638 8.0 8
  197.07672 24.0 24
  197.08875 53.0 53
  197.09694 16.0 16
  198.01511 5.0 5
  198.07851 12.0 12
  198.08894 8.0 8
  198.09599 12.0 12
  199.05956 7.0 7
  199.09033 6.0 6
  199.65689 6.0 6
  200.05473 5.0 5
  200.0654 6.0 6
  200.15533 5.0 5
  201.05685 6.0 6
  202.06187 7.0 7
  202.0809 37.0 37
  203.07182 27.0 27
  203.08858 32.0 32
  204.08255 1000.0 999
  205.05702 8.0 8
  205.08806 345.0 345
  205.10435 13.0 13
  206.07959 47.0 47
  206.09868 259.0 259
  207.07819 19.0 19
  207.0959 28.0 28
  207.10835 16.0 16
  207.11789 7.0 7
  208.09799 12.0 12
  208.11491 26.0 26
  209.09575 11.0 11
  209.10306 17.0 17
  209.11325 29.0 29
  210.05843 7.0 7
  210.10745 14.0 14
  210.11954 7.0 7
  210.13773 8.0 8
  210.36176 7.0 7
  212.80087 5.0 5
  213.4955 7.0 7
  214.06566 38.0 38
  215.06912 14.0 14
  215.07759 12.0 12
  215.0885 12.0 12
  216.07436 57.0 57
  216.08319 83.0 83
  216.08998 36.0 36
  217.05678 8.0 8
  217.07018 54.0 54
  217.09039 447.0 447
  217.117 10.0 10
  218.08995 195.0 195
  218.10208 179.0 179
  219.07997 19.0 19
  219.09331 83.0 83
  219.10298 51.0 51
  219.11494 12.0 12
  219.78366 16.0 16
  220.07278 7.0 7
  220.09367 15.0 15
  220.10225 35.0 35
  220.10945 37.0 37
  220.11755 61.0 61
  221.09123 12.0 12
  221.10704 54.0 54
  221.11595 53.0 53
  221.52335 5.0 5
  221.70309 5.0 5
  222.09503 32.0 32
  222.12164 14.0 14
  223.10075 6.0 6
  223.11353 8.0 8
  223.12144 13.0 13
  226.07269 10.0 10
  227.07973 25.0 25
  228.0849 34.0 34
  228.09613 12.0 12
  228.67311 14.0 14
  229.07826 12.0 12
  229.08797 41.0 41
  229.10876 9.0 9
  230.08943 138.0 138
  230.09811 269.0 269
  231.06831 6.0 6
  231.08904 31.0 31
  231.10004 126.0 126
  231.1118 94.0 94
  232.07611 10.0 10
  232.08997 22.0 22
  232.09885 28.0 28
  232.11316 43.0 43
  233.10089 9.0 9
  233.11288 29.0 29
  233.12717 7.0 7
  233.21397 6.0 6
  234.08696 12.0 12
  234.09946 9.0 9
  234.12434 12.0 12
  234.13603 10.0 10
  235.10249 22.0 22
  235.11479 34.0 34
  235.13284 16.0 16
  235.15552 5.0 5
  236.12163 10.0 10
  236.26041 6.0 6
  237.23352 7.0 7
  237.28682 6.0 6
  238.11957 18.0 18
  238.13472 8.0 8
  240.32803 5.0 5
  240.54742 11.0 11
  241.04002 7.0 7
  241.0867 37.0 37
  241.10434 12.0 12
  242.07634 8.0 8
  242.10068 139.0 139
  242.27414 6.0 6
  243.07544 6.0 6
  243.10281 54.0 54
  244.09027 9.0 9
  244.10785 24.0 24
  244.11867 28.0 28
  245.11057 5.0 5
  245.12097 12.0 12
  246.12065 11.0 11
  246.13921 18.0 18
  247.10109 6.0 6
  247.11992 15.0 15
  249.14572 9.0 9
  250.15109 8.0 8
  255.10056 8.0 8
  256.11526 20.0 20
  257.11679 15.0 15
  258.0993 6.0 6
  258.11801 5.0 5
  258.13004 7.0 7
  258.14548 8.0 8
  260.1416 7.0 7
  261.14221 10.0 10
  261.16486 14.0 14
  262.1416 7.0 7
  265.45416 10.0 10
  266.62149 8.0 8
  268.95715 8.0 8
  273.15125 8.0 8
  275.16293 9.0 9
  276.15274 6.0 6
  299.13834 9.0 9
  307.17725 6.0 6
  307.18988 12.0 12
//
