ACCESSION: MSBNK-RIKEN-PR301264
RECORD_TITLE: Guan-fu base Y; LC-ESI-QTOF; MS2
DATE: 2019.03.28
AUTHORS: Tetsuya Mori, Center for Sustainable Resource Science, RIKEN
LICENSE: CC BY-NC-SA
PUBLICATION: Tsugawa H., Nakabayashi R., Mori T., Yamada Y., Takahashi M., Rai A., Sugiyama R., Yamamoto H., Nakaya T., Yamazaki M., Kooke R., Bac-Molenaar JA., Oztolan-Erol N., Keurentjes JJB., Arita M., Saito K. (2019) "A cheminformatics approach to characterize metabolomes in stable-isotope-labeled organisms" Nature Methods 16(4):295-298. [doi:10.1038/s41592-019-0358-2]
COMMENT: registered in RIKEN PlaSMA
CH$NAME: Guan-fu base Y
CH$COMPOUND_CLASS: Atisane diterpenoids
CH$FORMULA: C22H29NO5
CH$EXACT_MASS: 387.476
CH$SMILES: CC(=O)OC1C[C@@]2(C)CN3[C@H]4CC56CC(=C)[C@@H]7C(O)[C@H]5[C@](C1)([C@@H]24)C3[C@@]6(O)C7O
CH$IUPAC: InChI=1S/C22H29NO5/c1-9-4-20-7-12-15-19(3)5-11(28-10(2)24)6-21(15)16(20)14(25)13(9)17(26)22(20,27)18(21)23(12)8-19/h11-18,25-27H,1,4-8H2,2-3H3/t11?,12-,13+,14?,15+,16+,17?,18?,19-,20?,21-,22-/m0/s1
CH$LINK: INCHIKEY XGTNTUKODZZCGL-LFXJTNOVSA-N
AC$INSTRUMENT: LC, Waters Acquity UPLC System; MS, Waters Xevo G2 Q-Tof
AC$INSTRUMENT_TYPE: LC-ESI-QTOF
AC$MASS_SPECTROMETRY: MS_TYPE MS2
AC$MASS_SPECTROMETRY: ION_MODE POSITIVE
AC$MASS_SPECTROMETRY: COLLISION_ENERGY 6V
AC$MASS_SPECTROMETRY: DESOLVATION_GAS_FLOW 800/h
AC$MASS_SPECTROMETRY: DESOLVATION_TEMPERATURE 450 C
AC$MASS_SPECTROMETRY: IONIZATION ESI
AC$CHROMATOGRAPHY: CAPILLARY_VOLTAGE +3.00 kV
AC$CHROMATOGRAPHY: COLUMN_NAME Acquity bridged ethyl hybrid C18 (1.7 um, 2.1 mm * 100 mm, Waters)
AC$CHROMATOGRAPHY: COLUMN_TEMPERATURE 40 C
AC$CHROMATOGRAPHY: FLOW_GRADIENT A/B = (99.5%/0.5% at 0 min, 99.5%/0.5% at 0.1 min, 20%/80% at 10 min, 0.5%/99.5% at 10.1 min, 0.5%/99.5% at 12.0 min, 99.5%/0.5% at 12.1 min, 99.5%/0.5% at 15.0 min)
AC$CHROMATOGRAPHY: FLOW_RATE 0.3 ml/min at 0 min, 0.3 ml/min at 10 min, 0.4 ml/min at 10.1 min, 0.4 ml/min at 14.4 min, 0.3 ml/min at 14.5 min
AC$CHROMATOGRAPHY: RETENTION_TIME 3.030383
AC$CHROMATOGRAPHY: SOLVENT A water including 0.1% formic acid
AC$CHROMATOGRAPHY: SOLVENT B acetonitrile including 0.1% formic acid
MS$FOCUSED_ION: PRECURSOR_TYPE [M+H]+
MS$FOCUSED_ION: PRECURSOR_M/Z 388.2118495
PK$SPLASH: splash10-0006-1950000000-755334df8c4da593a6ff
PK$NUM_PEAK: 240
PK$PEAK: m/z int. rel.int.
  57.03331 7.0 7
  57.03699 6.0 6
  67.05367 13.0 13
  69.03417 8.0 8
  77.0396 10.0 10
  79.04372 9.0 9
  79.05651 54.0 54
  81.07348 14.0 14
  91.03726 6.0 6
  91.05514 156.0 156
  92.06031 9.0 9
  93.07129 153.0 153
  94.06445 8.0 8
  94.0727 5.0 5
  95.05137 13.0 13
  96.0788 5.0 5
  103.05714 13.0 13
  104.05427 6.0 6
  105.05777 8.0 8
  105.07059 350.0 350
  106.06773 17.0 17
  107.08623 41.0 41
  108.07994 9.0 9
  115.0547 23.0 23
  116.06272 39.0 39
  116.06995 7.0 7
  117.06493 36.0 36
  117.07221 26.0 26
  118.0674 6.0 6
  118.08041 5.0 5
  119.08406 27.0 27
  119.09055 28.0 28
  120.08867 8.0 8
  121.06558 6.0 6
  121.1012 86.0 86
  122.10529 16.0 16
  128.05803 18.0 18
  128.06557 13.0 13
  129.07059 116.0 116
  130.06664 40.0 40
  130.08086 12.0 12
  131.0743 9.0 9
  131.08627 152.0 152
  132.08168 34.0 34
  133.06792 13.0 13
  133.08731 8.0 8
  134.09442 12.0 12
  141.07166 13.0 13
  142.06776 19.0 19
  142.76233 5.0 5
  143.07375 77.0 77
  143.08461 22.0 22
  144.06366 5.0 5
  144.08109 1000.0 999
  145.086 127.0 127
  145.10194 6.0 6
  146.06313 7.0 7
  146.08635 9.0 9
  146.1011 42.0 42
  147.0804 37.0 37
  147.08827 8.0 8
  149.08553 10.0 10
  149.09615 26.0 26
  149.10402 18.0 18
  150.09877 8.0 8
  153.07219 17.0 17
  154.06494 10.0 10
  154.07347 17.0 17
  155.07697 5.0 5
  155.08728 23.0 23
  156.06885 6.0 6
  156.08286 65.0 65
  157.06918 6.0 6
  157.08917 62.0 62
  157.10101 10.0 10
  158.09779 223.0 223
  159.07784 18.0 18
  159.10181 22.0 22
  160.07933 14.0 14
  160.0874 7.0 7
  160.1138 36.0 36
  162.08833 6.0 6
  165.06831 7.0 7
  166.07819 15.0 15
  167.07152 9.0 9
  167.08315 8.0 8
  168.0811 18.0 18
  169.0905 11.0 11
  169.10277 20.0 20
  170.06793 6.0 6
  170.09854 12.0 12
  170.10725 7.0 7
  171.10103 8.0 8
  172.11429 16.0 16
  174.08946 8.0 8
  176.1049 6.0 6
  178.02591 5.0 5
  178.06355 7.0 7
  178.08031 23.0 23
  179.08304 40.0 40
  179.09065 26.0 26
  180.09032 46.0 46
  181.07286 8.0 8
  181.09264 30.0 30
  181.10512 9.0 9
  182.07233 5.0 5
  182.08951 20.0 20
  182.0984 16.0 16
  183.0965 5.0 5
  183.10724 9.0 9
  183.12144 6.0 6
  184.11125 15.0 15
  186.08673 8.0 8
  186.12273 8.0 8
  191.09196 5.0 5
  192.09308 61.0 61
  193.0963 20.0 20
  193.10783 33.0 33
  194.09079 21.0 21
  194.10083 19.0 19
  195.08693 5.0 5
  195.10851 25.0 25
  195.11949 20.0 20
  196.07784 7.0 7
  196.09731 8.0 8
  196.10948 12.0 12
  196.11969 29.0 29
  197.09828 5.0 5
  197.1162 10.0 10
  198.12622 30.0 30
  199.13319 7.0 7
  200.10162 8.0 8
  202.08067 9.0 9
  203.08186 10.0 10
  204.09485 11.0 11
  205.08427 6.0 6
  205.09663 14.0 14
  205.10631 17.0 17
  206.10489 11.0 11
  206.1133 14.0 14
  207.1095 57.0 57
  208.10588 11.0 11
  208.11548 11.0 11
  208.12885 15.0 15
  209.1203 7.0 7
  210.09885 12.0 12
  210.12831 10.0 10
  212.10796 7.0 7
  214.11514 6.0 6
  214.12206 8.0 8
  216.0965 11.0 11
  217.09389 10.0 10
  217.10858 26.0 26
  218.08907 7.0 7
  218.10382 23.0 23
  219.10995 19.0 19
  219.12038 24.0 24
  220.11232 36.0 36
  220.12212 11.0 11
  221.11429 16.0 16
  221.12666 42.0 42
  222.12704 30.0 30
  222.13933 7.0 7
  223.10512 5.0 5
  223.12051 6.0 6
  223.13742 14.0 14
  224.14189 13.0 13
  226.12909 8.0 8
  232.11314 22.0 22
  232.12843 15.0 15
  233.11237 11.0 11
  233.12915 14.0 14
  234.12479 51.0 51
  234.13759 33.0 33
  235.1051 5.0 5
  235.13463 16.0 16
  235.14243 9.0 9
  236.10379 5.0 5
  236.12994 8.0 8
  236.14584 11.0 11
  239.1628 5.0 5
  245.12483 16.0 16
  247.13684 16.0 16
  247.14806 12.0 12
  248.13498 32.0 32
  248.14333 91.0 91
  249.12195 8.0 8
  249.14476 24.0 24
  249.15508 27.0 27
  250.11107 6.0 6
  250.15701 12.0 12
  258.10114 6.0 6
  258.12064 14.0 14
  258.13736 11.0 11
  259.13815 8.0 8
  260.15073 8.0 8
  261.15619 6.0 6
  262.12506 10.0 10
  262.15662 26.0 26
  262.16629 14.0 14
  263.13919 7.0 7
  263.16507 107.0 107
  263.17603 70.0 70
  264.17139 400.0 400
  264.18121 197.0 197
  265.16315 24.0 24
  265.17923 104.0 104
  266.15698 9.0 9
  266.1759 11.0 11
  268.14166 5.0 5
  272.15073 9.0 9
  273.14264 5.0 5
  274.14706 5.0 5
  274.16217 5.0 5
  275.1268 6.0 6
  275.16684 14.0 14
  276.12833 21.0 21
  276.14505 30.0 30
  277.14276 39.0 39
  281.16656 7.0 7
  282.17941 7.0 7
  282.19186 6.0 6
  283.18732 8.0 8
  291.16638 7.0 7
  292.15994 66.0 66
  292.1748 226.0 226
  293.1658 31.0 31
  293.1785 58.0 58
  294.18066 16.0 16
  310.16956 21.0 21
  310.18826 12.0 12
  323.18491 12.0 12
  323.19861 11.0 11
  324.19403 42.0 42
  324.2085 17.0 17
  325.20142 11.0 11
  328.19547 30.0 30
  329.20203 9.0 9
  352.19189 20.0 20
  388.20618 12.0 12
//
