ACCESSION: MSBNK-RIKEN-PR306945
RECORD_TITLE: Peonidin-3-O-beta-galactoside; LC-ESI-QTOF; MS2
DATE: 2019.03.28
AUTHORS: Tetsuya Mori, Center for Sustainable Resource Science, RIKEN
LICENSE: CC BY-NC-SA
PUBLICATION: Tsugawa H., Nakabayashi R., Mori T., Yamada Y., Takahashi M., Rai A., Sugiyama R., Yamamoto H., Nakaya T., Yamazaki M., Kooke R., Bac-Molenaar JA., Oztolan-Erol N., Keurentjes JJB., Arita M., Saito K. (2019) "A cheminformatics approach to characterize metabolomes in stable-isotope-labeled organisms" Nature Methods 16(4):295-298. [doi:10.1038/s41592-019-0358-2]
COMMENT: registered in RIKEN PlaSMA
CH$NAME: Peonidin-3-O-beta-galactoside
CH$COMPOUND_CLASS: Anthocyanidin-3-O-glycosides
CH$FORMULA: C22H22O11
CH$EXACT_MASS: 462.407
CH$SMILES: COC1=C(O)C=CC(=C1)C1=C(OC2OC(CO)C(O)C(O)C2O)C=C2C([O-])=CC(O)=CC2=[O+]1
CH$IUPAC: InChI=1S/C22H22O11/c1-30-15-4-9(2-3-12(15)25)21-16(7-11-13(26)5-10(24)6-14(11)31-21)32-22-20(29)19(28)18(27)17(8-23)33-22/h2-7,17-20,22-23,27-29H,8H2,1H3,(H2-,24,25,26)
CH$LINK: INCHIKEY ZZWPMFROUHHAKY-UHFFFAOYSA-N
AC$INSTRUMENT: LC, Waters Acquity UPLC System; MS, Waters Xevo G2 Q-Tof
AC$INSTRUMENT_TYPE: LC-ESI-QTOF
AC$MASS_SPECTROMETRY: MS_TYPE MS2
AC$MASS_SPECTROMETRY: ION_MODE NEGATIVE
AC$MASS_SPECTROMETRY: COLLISION_ENERGY 6V
AC$MASS_SPECTROMETRY: DESOLVATION_GAS_FLOW 800/h
AC$MASS_SPECTROMETRY: DESOLVATION_TEMPERATURE 450 C
AC$MASS_SPECTROMETRY: IONIZATION ESI
AC$CHROMATOGRAPHY: CAPILLARY_VOLTAGE -2.75 kV
AC$CHROMATOGRAPHY: COLUMN_NAME Acquity bridged ethyl hybrid C18 (1.7 um, 2.1 mm * 100 mm, Waters)
AC$CHROMATOGRAPHY: COLUMN_TEMPERATURE 40 C
AC$CHROMATOGRAPHY: FLOW_GRADIENT A/B = (99.5%/0.5% at 0 min, 99.5%/0.5% at 0.1 min, 20%/80% at 10 min, 0.5%/99.5% at 10.1 min, 0.5%/99.5% at 12.0 min, 99.5%/0.5% at 12.1 min, 99.5%/0.5% at 15.0 min)
AC$CHROMATOGRAPHY: FLOW_RATE 0.3 ml/min at 0 min, 0.3 ml/min at 10 min, 0.4 ml/min at 10.1 min, 0.4 ml/min at 14.4 min, 0.3 ml/min at 14.5 min
AC$CHROMATOGRAPHY: RETENTION_TIME 3.125733
AC$CHROMATOGRAPHY: SOLVENT A water including 0.1% formic acid
AC$CHROMATOGRAPHY: SOLVENT B acetonitrile including 0.1% formic acid
MS$FOCUSED_ION: PRECURSOR_TYPE [M-H]-
MS$FOCUSED_ION: PRECURSOR_M/Z 461.10893504783
PK$SPLASH: splash10-0002-0091200000-784d08102113d971f391
PK$NUM_PEAK: 47
PK$PEAK: m/z int. rel.int.
  88.00433 17.0 17
  119.01331 18.0 18
  129.02541 29.0 29
  147.0103 20.0 20
  164.01122 17.0 17
  183.03934 24.0 24
  208.05176 17.0 17
  209.02036 17.0 17
  210.02811 20.0 20
  211.03798 40.0 40
  212.01015 19.0 19
  212.04579 17.0 17
  217.56398 17.0 17
  227.0284 58.0 58
  228.03693 16.0 16
  239.03185 44.0 44
  240.0372 46.0 46
  243.06642 20.0 20
  244.06305 21.0 21
  255.02693 79.0 79
  255.06207 16.0 16
  256.03363 49.0 49
  257.03818 20.0 20
  257.05405 17.0 17
  265.01657 17.0 17
  274.74295 24.0 24
  282.01736 32.0 32
  283.02103 421.0 421
  284.03012 69.0 69
  285.02655 42.0 42
  291.43118 25.0 25
  297.04211 24.0 24
  298.04581 1000.0 999
  299.03812 60.0 60
  299.05557 644.0 643
  300.05133 92.0 92
  300.06519 34.0 34
  301.05579 46.0 46
  301.07144 17.0 17
  312.08148 24.0 24
  313.06091 99.0 99
  313.07455 37.0 37
  314.07404 23.0 23
  323.03537 31.0 31
  341.06674 47.0 47
  343.36475 17.0 17
  461.10629 683.0 682
//
