ACCESSION: MSBNK-RIKEN-PR309215
RECORD_TITLE: (Methylsulfanyl)octyl glucosinolate; LC-ESI-QTOF; MS2
DATE: 2019.03.28
AUTHORS: Tetsuya Mori, Center for Sustainable Resource Science, RIKEN
LICENSE: CC BY-NC-SA
PUBLICATION: Tsugawa H., Nakabayashi R., Mori T., Yamada Y., Takahashi M., Rai A., Sugiyama R., Yamamoto H., Nakaya T., Yamazaki M., Kooke R., Bac-Molenaar JA., Oztolan-Erol N., Keurentjes JJB., Arita M., Saito K. (2019) "A cheminformatics approach to characterize metabolomes in stable-isotope-labeled organisms" Nature Methods 16(4):295-298. [doi:10.1038/s41592-019-0358-2]
COMMENT: Annotation level-3
CH$NAME: (Methylsulfanyl)octyl glucosinolate
CH$COMPOUND_CLASS: Glucosinolates
CH$FORMULA: C16H31NO9S3
CH$EXACT_MASS: 477.617
CH$SMILES: O=S(=O)(O)ON=C(CCCCCCCCSC)SC1OC(CO)C(O)C(O)C1(O)
CH$IUPAC: InChI=1S/C16H31NO9S3/c1-27-9-7-5-3-2-4-6-8-12(17-26-29(22,23)24)28-16-15(21)14(20)13(19)11(10-18)25-16/h11,13-16,18-21H,2-10H2,1H3,(H,22,23,24)
CH$LINK: INCHIKEY CWOJBEDMJKZKAB-UHFFFAOYSA-N
AC$INSTRUMENT: LC, Waters Acquity UPLC System; MS, Waters Xevo G2 Q-Tof
AC$INSTRUMENT_TYPE: LC-ESI-QTOF
AC$MASS_SPECTROMETRY: MS_TYPE MS2
AC$MASS_SPECTROMETRY: ION_MODE NEGATIVE
AC$MASS_SPECTROMETRY: COLLISION_ENERGY 6V
AC$MASS_SPECTROMETRY: DESOLVATION_GAS_FLOW 800/h
AC$MASS_SPECTROMETRY: DESOLVATION_TEMPERATURE 450 C
AC$MASS_SPECTROMETRY: IONIZATION ESI
AC$CHROMATOGRAPHY: CAPILLARY_VOLTAGE +3.00 kV
AC$CHROMATOGRAPHY: COLUMN_NAME Acquity bridged ethyl hybrid C18 (1.7 um, 2.1 mm * 100 mm, Waters)
AC$CHROMATOGRAPHY: COLUMN_TEMPERATURE 40 C
AC$CHROMATOGRAPHY: FLOW_GRADIENT A/B = (99.5%/0.5% at 0 min, 99.5%/0.5% at 0.1 min, 20%/80% at 10 min, 0.5%/99.5% at 10.1 min, 0.5%/99.5% at 12.0 min, 99.5%/0.5% at 12.1 min, 99.5%/0.5% at 15.0 min)
AC$CHROMATOGRAPHY: FLOW_RATE 0.3 ml/min at 0 min, 0.3 ml/min at 10 min, 0.4 ml/min at 10.1 min, 0.4 ml/min at 14.4 min, 0.3 ml/min at 14.5 min
AC$CHROMATOGRAPHY: RETENTION_TIME 5.31
AC$CHROMATOGRAPHY: SOLVENT A water including 0.1% formic acid
AC$CHROMATOGRAPHY: SOLVENT B acetonitrile including 0.1% formic acid
MS$FOCUSED_ION: PRECURSOR_TYPE [M-H]-
MS$FOCUSED_ION: PRECURSOR_M/Z 476.1067
PK$SPLASH: splash10-004i-4010900000-25557ae9d1b8568e4b52
PK$NUM_PEAK: 128
PK$PEAK: m/z int. rel.int.
  57.03402 19.0 1
  59.01075 30.0 1
  71.01094 69.0 3
  71.01661 24.0 1
  72.3062 18.0 1
  74.9902 648.0 31
  75.99293 54.0 3
  76.98685 44.0 2
  79.95497 150.0 7
  79.96069 50.0 2
  80.96516 20.0 1
  82.95964 20.0 1
  84.13946 18.0 1
  85.02405 54.0 3
  85.0284 139.0 7
  89.02162 36.0 2
  89.02752 32.0 2
  90.02554 24.0 1
  91.02924 39.0 2
  95.95139 2285.0 111
  96.95908 7252.0 352
  97.94727 19.0 1
  97.95415 19.0 1
  97.96223 38.0 2
  98.9529 240.0 12
  98.96056 86.0 4
  101.22537 18.0 1
  102.02702 21.0 1
  111.92456 37.0 2
  117.01547 20.0 1
  117.99889 19.0 1
  119.02709 30.0 1
  120.04079 23.0 1
  124.01254 20.0 1
  125.60446 21.0 1
  127.91499 23.0 1
  127.92262 33.0 2
  128.92328 19.0 1
  128.92929 39.0 2
  129.91531 18.0 1
  138.9651 68.0 3
  138.97855 39.0 2
  139.96759 22.0 1
  145.04945 74.0 4
  145.05411 41.0 2
  154.94429 20.0 1
  161.01978 20.0 1
  161.97768 20.0 1
  162.04164 24.0 1
  163.06281 28.0 1
  187.64046 19.0 1
  188.24754 18.0 1
  189.95592 29.0 1
  192.98665 23.0 1
  195.02232 63.0 3
  195.03244 348.0 17
  196.03462 50.0 2
  197.03142 32.0 2
  197.04149 22.0 1
  198.98528 30.0 1
  198.9942 21.0 1
  199.92203 18.0 1
  207.99031 20.0 1
  219.0862 66.0 3
  219.10092 21.0 1
  221.60576 23.0 1
  225.7421 20.0 1
  227.00896 56.0 3
  227.02005 59.0 3
  229.51297 18.0 1
  234.09662 440.0 21
  234.58578 19.0 1
  235.0903 39.0 2
  235.10681 40.0 2
  235.72638 23.0 1
  236.0869 18.0 1
  239.63945 18.0 1
  241.00255 251.0 12
  242.00371 19.0 1
  242.64108 23.0 1
  245.30577 23.0 1
  248.56059 22.0 1
  253.07001 19.0 1
  255.04344 20.0 1
  256.06506 20.0 1
  258.9993 87.0 4
  259.0137 521.0 25
  259.03268 21.0 1
  260.01276 96.0 5
  260.02527 19.0 1
  271.24487 27.0 1
  272.96848 21.0 1
  274.99359 318.0 15
  275.98825 23.0 1
  275.9989 43.0 2
  276.99094 95.0 5
  280.07001 41.0 2
  282.06931 28.0 1
  283.04315 43.0 2
  283.0574 109.0 5
  285.0481 18.0 1
  290.98987 20.0 1
  291.99249 18.0 1
  298.09262 20.0 1
  310.20496 36.0 2
  314.23685 27.0 1
  314.69998 18.0 1
  316.05905 20.0 1
  322.64178 18.0 1
  323.00214 28.0 1
  344.31235 20.0 1
  371.15866 20.0 1
  372.59244 26.0 1
  382.52768 18.0 1
  394.01941 27.0 1
  397.1521 21.0 1
  404.21283 19.0 1
  417.49973 18.0 1
  444.34302 19.0 1
  445.36343 39.0 2
  447.74741 22.0 1
  467.74307 30.0 1
  467.82291 19.0 1
  475.9108 18.0 1
  475.97476 19.0 1
  476.1062 20570.0 999
  476.16791 159.0 8
  476.21509 18.0 1
//
