ACCESSION: MSBNK-RIKEN-PR302617
RECORD_TITLE: Apigenin-8-C-glucoside; LC-ESI-QTOF; MS2
DATE: 2019.03.28
AUTHORS: Tetsuya Mori, Center for Sustainable Resource Science, RIKEN
LICENSE: CC BY-NC-SA
PUBLICATION: Tsugawa H., Nakabayashi R., Mori T., Yamada Y., Takahashi M., Rai A., Sugiyama R., Yamamoto H., Nakaya T., Yamazaki M., Kooke R., Bac-Molenaar JA., Oztolan-Erol N., Keurentjes JJB., Arita M., Saito K. (2019) "A cheminformatics approach to characterize metabolomes in stable-isotope-labeled organisms" Nature Methods 16(4):295-298. [doi:10.1038/s41592-019-0358-2]
COMMENT: registered in RIKEN PlaSMA
CH$NAME: Apigenin-8-C-glucoside
CH$COMPOUND_CLASS: Flavonoid 8-C-glycosides
CH$FORMULA: C21H20O10
CH$EXACT_MASS: 432.381
CH$SMILES: C1=CC(=CC=C1C2=CC(=O)C3=C(O2)C(=C(C=C3O)O)[C@H]4[C@@H]([C@H]([C@@H]([C@H](O4)CO)O)O)O)O
CH$IUPAC: InChI=1S/C21H20O10/c22-7-14-17(27)18(28)19(29)21(31-14)16-11(25)5-10(24)15-12(26)6-13(30-20(15)16)8-1-3-9(23)4-2-8/h1-6,14,17-19,21-25,27-29H,7H2/t14-,17-,18+,19-,21+/m1/s1
CH$LINK: INCHIKEY SGEWCQFRYRRZDC-VPRICQMDSA-N
AC$INSTRUMENT: LC, Waters Acquity UPLC System; MS, Waters Xevo G2 Q-Tof
AC$INSTRUMENT_TYPE: LC-ESI-QTOF
AC$MASS_SPECTROMETRY: MS_TYPE MS2
AC$MASS_SPECTROMETRY: ION_MODE POSITIVE
AC$MASS_SPECTROMETRY: COLLISION_ENERGY 6V
AC$MASS_SPECTROMETRY: DESOLVATION_GAS_FLOW 800/h
AC$MASS_SPECTROMETRY: DESOLVATION_TEMPERATURE 450 C
AC$MASS_SPECTROMETRY: IONIZATION ESI
AC$CHROMATOGRAPHY: CAPILLARY_VOLTAGE +3.00 kV
AC$CHROMATOGRAPHY: COLUMN_NAME Acquity bridged ethyl hybrid C18 (1.7 um, 2.1 mm * 100 mm, Waters)
AC$CHROMATOGRAPHY: COLUMN_TEMPERATURE 40 C
AC$CHROMATOGRAPHY: FLOW_GRADIENT A/B = (99.5%/0.5% at 0 min, 99.5%/0.5% at 0.1 min, 20%/80% at 10 min, 0.5%/99.5% at 10.1 min, 0.5%/99.5% at 12.0 min, 99.5%/0.5% at 12.1 min, 99.5%/0.5% at 15.0 min)
AC$CHROMATOGRAPHY: FLOW_RATE 0.3 ml/min at 0 min, 0.3 ml/min at 10 min, 0.4 ml/min at 10.1 min, 0.4 ml/min at 14.4 min, 0.3 ml/min at 14.5 min
AC$CHROMATOGRAPHY: RETENTION_TIME 3.96405
AC$CHROMATOGRAPHY: SOLVENT A water including 0.1% formic acid
AC$CHROMATOGRAPHY: SOLVENT B acetonitrile including 0.1% formic acid
MS$FOCUSED_ION: PRECURSOR_TYPE [M+H]+
MS$FOCUSED_ION: PRECURSOR_M/Z 433.1129233
PK$SPLASH: splash10-053r-0490000000-a104e2fa4570fab3b87f
PK$NUM_PEAK: 291
PK$PEAK: m/z int. rel.int.
  65.03955 15.0 15
  69.03317 60.0 60
  69.03768 18.0 18
  77.03488 9.0 9
  79.01263 26.0 26
  79.01855 44.0 44
  81.03225 41.0 41
  85.02954 52.0 52
  91.04917 18.0 18
  91.05631 36.0 36
  92.99741 12.0 12
  93.03077 18.0 18
  93.03893 21.0 21
  93.15802 10.0 10
  97.02821 14.0 14
  103.05412 11.0 11
  107.00462 24.0 24
  107.01318 35.0 35
  107.04792 37.0 37
  109.02996 13.0 13
  111.04251 38.0 38
  115.0436 17.0 17
  115.05297 14.0 14
  116.06354 13.0 13
  118.04383 14.0 14
  119.02551 24.0 24
  119.04577 73.0 73
  119.05138 138.0 138
  119.42729 10.0 10
  120.04867 20.0 20
  120.05673 152.0 152
  120.99448 14.0 14
  121.00109 18.0 18
  121.02836 644.0 643
  122.00259 18.0 18
  122.02901 23.0 23
  122.03583 37.0 37
  123.0075 11.0 11
  123.0425 10.0 10
  123.35564 9.0 9
  125.01579 16.0 16
  125.02377 32.0 32
  126.04008 12.0 12
  128.05775 17.0 17
  131.05307 14.0 14
  133.03281 42.0 42
  137.01837 10.0 10
  137.02573 9.0 9
  138.03191 156.0 156
  138.30432 22.0 22
  139.03497 35.0 35
  141.07213 14.0 14
  141.32838 19.0 19
  145.01407 20.0 20
  145.02951 207.0 207
  145.04922 13.0 13
  145.0625 48.0 48
  146.02046 10.0 10
  147.02136 10.0 10
  147.04488 33.0 33
  148.04749 28.0 28
  149.02295 47.0 47
  149.02902 44.0 44
  149.05875 13.0 13
  153.01741 27.0 27
  154.01987 10.0 10
  157.04488 9.0 9
  157.06932 71.0 71
  158.0766 19.0 19
  161.02335 26.0 26
  161.05537 28.0 28
  162.00201 10.0 10
  162.01375 15.0 15
  162.03256 35.0 35
  162.39815 10.0 10
  163.02454 18.0 18
  163.0399 85.0 85
  165.01056 74.0 74
  165.0181 254.0 254
  165.06651 18.0 18
  165.07419 12.0 12
  166.02023 48.0 48
  166.96953 17.0 17
  167.02553 14.0 14
  167.04892 33.0 33
  168.05998 17.0 17
  169.07201 25.0 25
  171.05003 20.0 20
  171.07751 19.0 19
  171.11182 19.0 19
  172.96643 10.0 10
  173.06444 20.0 20
  175.02296 9.0 9
  175.06464 13.0 13
  175.13345 9.0 9
  176.7356 18.0 18
  177.00856 13.0 13
  177.02153 42.0 42
  177.05156 12.0 12
  177.89659 16.0 16
  179.02676 43.0 43
  179.03462 56.0 56
  180.99063 11.0 11
  181.06328 76.0 76
  181.07147 53.0 53
  182.06404 14.0 14
  182.07356 33.0 33
  185.04913 15.0 15
  185.06351 69.0 69
  186.07349 33.0 33
  187.03842 131.0 131
  187.05066 14.0 14
  187.07333 9.0 9
  189.03667 13.0 13
  190.02457 28.0 28
  191.02969 19.0 19
  191.03796 40.0 40
  191.08194 20.0 20
  193.05449 20.0 20
  195.04588 12.0 12
  196.04329 11.0 11
  197.06268 20.0 20
  197.10597 29.0 29
  199.04059 25.0 25
  199.06969 9.0 9
  199.07823 18.0 18
  200.08144 15.0 15
  201.03035 19.0 19
  202.06848 16.0 16
  202.27423 21.0 21
  205.05313 16.0 16
  205.06433 12.0 12
  206.01337 10.0 10
  206.07678 10.0 10
  210.02014 15.0 15
  210.04031 13.0 13
  210.06607 64.0 64
  210.08122 29.0 29
  210.10535 13.0 13
  211.04623 33.0 33
  211.07265 89.0 89
  211.08165 79.0 79
  212.94073 16.0 16
  212.94786 13.0 13
  212.96486 9.0 9
  213.02815 19.0 19
  213.0519 422.0 422
  214.04083 14.0 14
  214.05482 60.0 60
  214.065 32.0 32
  215.01993 11.0 11
  215.03394 13.0 13
  215.0705 41.0 41
  217.05077 49.0 49
  218.05046 15.0 15
  221.05333 12.0 12
  221.06038 21.0 21
  221.09833 9.0 9
  223.07619 33.0 33
  227.03105 14.0 14
  227.06488 88.0 88
  227.07489 144.0 144
  227.3251 9.0 9
  227.93263 9.0 9
  228.07149 82.0 82
  228.08565 54.0 54
  229.0537 13.0 13
  229.07713 9.0 9
  229.08434 13.0 13
  231.2166 9.0 9
  233.04713 19.0 19
  234.06039 27.0 27
  234.07256 44.0 44
  237.0553 43.0 43
  238.0383 32.0 32
  238.06708 47.0 47
  238.74669 14.0 14
  238.92355 18.0 18
  239.05966 12.0 12
  239.07796 16.0 16
  240.0361 9.0 9
  240.07982 10.0 10
  241.03156 17.0 17
  241.04767 108.0 108
  241.07034 25.0 25
  242.05423 22.0 22
  242.06306 13.0 13
  242.0782 10.0 10
  243.02597 29.0 29
  243.05049 8.0 8
  243.06117 33.0 33
  243.07207 37.0 37
  249.0555 48.0 48
  250.06154 9.0 9
  252.99644 16.0 16
  253.05542 12.0 12
  253.90302 9.0 9
  254.06557 12.0 12
  255.02942 13.0 13
  255.05223 128.0 128
  255.06883 524.0 523
  255.7291 10.0 10
  256.02704 15.0 15
  256.07031 525.0 524
  256.08298 118.0 118
  256.3316 9.0 9
  256.97757 15.0 15
  257.04953 9.0 9
  257.06174 11.0 11
  257.08322 85.0 85
  257.46655 9.0 9
  258.0546 10.0 10
  258.09048 22.0 22
  258.8613 9.0 9
  259.02805 14.0 14
  261.04449 10.0 10
  262.05704 13.0 13
  265.03687 17.0 17
  265.05997 9.0 9
  266.05475 18.0 18
  266.06384 64.0 64
  267.05591 47.0 47
  267.07043 53.0 53
  267.07913 14.0 14
  267.25067 18.0 18
  268.07761 89.0 89
  268.31485 9.0 9
  269.06073 12.0 12
  269.08624 14.0 14
  270.04688 9.0 9
  271.06021 88.0 88
  278.99655 14.0 14
  279.0629 151.0 151
  279.9975 13.0 13
  280.08209 77.0 77
  282.92798 9.0 9
  283.02786 19.0 19
  283.05917 546.0 545
  283.07239 208.0 208
  283.10703 12.0 12
  283.71402 9.0 9
  283.87866 11.0 11
  283.98572 13.0 13
  284.0434 101.0 101
  284.07019 1000.0 999
  284.09912 10.0 10
  285.05115 20.0 20
  285.06479 74.0 74
  285.07648 137.0 137
  285.49789 22.0 22
  286.06659 13.0 13
  286.0824 10.0 10
  286.41132 13.0 13
  289.07025 11.0 11
  295.05084 138.0 138
  295.06155 179.0 179
  295.07504 50.0 50
  296.06357 86.0 86
  297.01816 10.0 10
  297.04858 11.0 11
  297.07025 191.0 191
  297.08334 219.0 219
  297.10278 14.0 14
  298.0816 103.0 103
  299.07925 18.0 18
  304.53781 15.0 15
  305.08417 20.0 20
  307.04858 12.0 12
  308.05411 33.0 33
  308.07828 20.0 20
  309.05508 19.0 19
  309.06995 22.0 22
  311.03128 10.0 10
  311.07474 12.0 12
  311.16843 10.0 10
  312.58533 10.0 10
  313.00134 31.0 31
  313.07037 164.0 164
  313.17172 13.0 13
  314.07263 18.0 18
  315.07559 16.0 16
  321.08246 9.0 9
  323.06183 13.0 13
  323.09177 26.0 26
  323.10785 29.0 29
  325.0582 12.0 12
  325.07278 24.0 24
  327.08862 14.0 14
  333.06442 16.0 16
  349.06604 15.0 15
  361.07947 13.0 13
//
