ACCESSION: MSBNK-RIKEN-PR310653
RECORD_TITLE: Syrosingopine; LC-ESI-QTOF; MS2
DATE: 2019.03.28
AUTHORS: Tetsuya Mori, Center for Sustainable Resource Science, RIKEN
LICENSE: CC BY-NC-SA
PUBLICATION: Tsugawa H., Nakabayashi R., Mori T., Yamada Y., Takahashi M., Rai A., Sugiyama R., Yamamoto H., Nakaya T., Yamazaki M., Kooke R., Bac-Molenaar JA., Oztolan-Erol N., Keurentjes JJB., Arita M., Saito K. (2019) "A cheminformatics approach to characterize metabolomes in stable-isotope-labeled organisms" Nature Methods 16(4):295-298. [doi:10.1038/s41592-019-0358-2]
COMMENT: Annotation level-1
CH$NAME: Syrosingopine
CH$COMPOUND_CLASS: Alkaloids
CH$FORMULA: C35H42N2O11
CH$EXACT_MASS: 666.724
CH$SMILES: CCOC(=O)OC1=C(OC)C=C(C=C1OC)C(=O)OC1CC2CN3CCC4=C(NC5=CC(OC)=CC=C45)C3CC2C(C1OC)C(=O)OC
CH$IUPAC: InChI=1S/C35H42N2O11/c1-7-46-35(40)48-31-26(42-3)12-18(13-27(31)43-4)33(38)47-28-14-19-17-37-11-10-22-21-9-8-20(41-2)15-24(21)36-30(22)25(37)16-23(19)29(32(28)44-5)34(39)45-6/h8-9,12-13,15,19,23,25,28-29,32,36H,7,10-11,14,16-17H2,1-6H3
CH$LINK: INCHIKEY ZCDNRPPFBQDQHR-UHFFFAOYSA-N
AC$INSTRUMENT: LC, Waters Acquity UPLC System; MS, Waters Xevo G2 Q-Tof
AC$INSTRUMENT_TYPE: LC-ESI-QTOF
AC$MASS_SPECTROMETRY: MS_TYPE MS2
AC$MASS_SPECTROMETRY: ION_MODE POSITIVE
AC$MASS_SPECTROMETRY: COLLISION_ENERGY 6V
AC$MASS_SPECTROMETRY: DESOLVATION_GAS_FLOW 800/h
AC$MASS_SPECTROMETRY: DESOLVATION_TEMPERATURE 450 C
AC$MASS_SPECTROMETRY: IONIZATION ESI
AC$CHROMATOGRAPHY: CAPILLARY_VOLTAGE +3.00 kV
AC$CHROMATOGRAPHY: COLUMN_NAME Acquity bridged ethyl hybrid C18 (1.7 um, 2.1 mm * 100 mm, Waters)
AC$CHROMATOGRAPHY: COLUMN_TEMPERATURE 40 C
AC$CHROMATOGRAPHY: FLOW_GRADIENT A/B = (99.5%/0.5% at 0 min, 99.5%/0.5% at 0.1 min, 20%/80% at 10 min, 0.5%/99.5% at 10.1 min, 0.5%/99.5% at 12.0 min, 99.5%/0.5% at 12.1 min, 99.5%/0.5% at 15.0 min)
AC$CHROMATOGRAPHY: FLOW_RATE 0.3 ml/min at 0 min, 0.3 ml/min at 10 min, 0.4 ml/min at 10.1 min, 0.4 ml/min at 14.4 min, 0.3 ml/min at 14.5 min
AC$CHROMATOGRAPHY: RETENTION_TIME 6.72
AC$CHROMATOGRAPHY: SOLVENT A water including 0.1% formic acid
AC$CHROMATOGRAPHY: SOLVENT B acetonitrile including 0.1% formic acid
MS$FOCUSED_ION: PRECURSOR_TYPE [M+H]+
MS$FOCUSED_ION: PRECURSOR_M/Z 667.28614
PK$SPLASH: splash10-014i-0111009000-5c91b51cf8d3e2b91bf0
PK$NUM_PEAK: 794
PK$PEAK: m/z int. rel.int.
  56.04875 49.0 1
  79.05005 17.0 0
  80.05252 32.0 0
  82.03212 24.0 0
  83.16655 17.0 0
  91.05775 48.0 1
  91.06362 21.0 0
  92.3854 20.0 0
  94.06641 130.0 1
  97.06985 23.0 0
  97.20319 26.0 0
  105.0726 39.0 0
  111.04613 86.0 1
  112.05023 26.0 0
  112.07526 49.0 1
  113.06225 31.0 0
  116.06461 28.0 0
  117.05053 18.0 0
  120.07829 22.0 0
  122.05934 69.0 1
  124.35812 22.0 0
  125.17345 20.0 0
  126.908 38.0 0
  131.08765 114.0 1
  132.05583 37.0 0
  132.08128 21.0 0
  132.08971 46.0 0
  132.70985 18.0 0
  133.06444 38.0 0
  136.07108 27.0 0
  136.0873 30.0 0
  143.0265 22.0 0
  143.05074 18.0 0
  143.06386 50.0 1
  143.07707 73.0 1
  143.92999 36.0 0
  144.07742 40.0 0
  145.06026 20.0 0
  145.07123 25.0 0
  145.08617 23.0 0
  146.06694 66.0 1
  147.07513 22.0 0
  147.09167 45.0 0
  148.05791 55.0 1
  148.06801 83.0 1
  148.07489 114.0 1
  148.08266 110.0 1
  149.05556 51.0 1
  149.77438 22.0 0
  152.87563 17.0 0
  153.04495 21.0 0
  153.05399 62.0 1
  154.05423 17.0 0
  154.48883 21.0 0
  155.05919 21.0 0
  155.07326 20.0 0
  155.50281 21.0 0
  156.99142 24.0 0
  158.05589 22.0 0
  158.06128 52.0 1
  158.49484 17.0 0
  159.03976 21.0 0
  159.04753 56.0 1
  159.06241 67.0 1
  159.07257 84.0 1
  160.06596 81.0 1
  160.07468 205.0 2
  160.08081 69.0 1
  160.13116 29.0 0
  161.0714 41.0 0
  161.08009 32.0 0
  162.04803 26.0 0
  162.09271 94.0 1
  162.10345 49.0 1
  163.09705 38.0 0
  164.069 20.0 0
  164.08449 19.0 0
  164.10307 24.0 0
  165.08382 34.0 0
  165.59505 18.0 0
  167.06488 48.0 1
  168.79402 17.0 0
  169.05203 27.0 0
  169.08208 67.0 1
  169.09605 41.0 0
  172.07095 21.0 0
  172.08344 130.0 1
  172.49274 18.0 0
  173.05305 19.0 0
  173.0824 17.0 0
  173.3284 18.0 0
  174.02332 48.0 1
  174.05516 48.0 1
  174.06261 23.0 0
  174.09041 6432.0 68
  174.12033 17.0 0
  174.68665 20.0 0
  175.06175 15.0 0
  175.08588 394.0 4
  175.09427 524.0 6
  175.10338 257.0 3
  175.75989 21.0 0
  176.06145 23.0 0
  176.09167 91.0 1
  176.11386 212.0 2
  177.0889 33.0 0
  177.10052 18.0 0
  177.11191 80.0 1
  177.12601 25.0 0
  177.86118 19.0 0
  178.09267 97.0 1
  179.07784 33.0 0
  179.16241 17.0 0
  180.74622 17.0 0
  180.85095 34.0 0
  181.01123 21.0 0
  181.04619 2459.0 26
  181.05547 1258.0 13
  181.99179 21.0 0
  182.05338 465.0 5
  183.09985 18.0 0
  183.73244 17.0 0
  184.02983 22.0 0
  184.42651 19.0 0
  185.07187 17.0 0
  185.07832 22.0 0
  185.09358 44.0 0
  186.08786 43.0 0
  186.09604 129.0 1
  187.07542 76.0 1
  187.09344 18.0 0
  187.10556 20.0 0
  188.07742 20.0 0
  188.10251 233.0 2
  188.12148 20.0 0
  188.16611 28.0 0
  189.10023 41.0 0
  189.11029 37.0 0
  190.08313 146.0 2
  190.09677 38.0 0
  190.66711 18.0 0
  192.09985 956.0 10
  192.1122 457.0 5
  192.16766 17.0 0
  193.04782 24.0 0
  193.08849 49.0 1
  193.09882 70.0 1
  193.10611 76.0 1
  193.11484 58.0 1
  193.26036 18.0 0
  194.11475 21.0 0
  195.05905 24.0 0
  197.22728 22.0 0
  197.758 18.0 0
  198.08046 18.0 0
  198.08952 38.0 0
  199.05569 19.0 0
  199.08461 19.0 0
  199.10541 22.0 0
  200.08676 30.0 0
  200.10992 349.0 4
  200.71138 18.0 0
  201.07532 21.0 0
  201.08911 20.0 0
  201.10597 57.0 1
  203.12029 36.0 0
  204.0804 29.0 0
  204.09773 230.0 2
  204.10814 227.0 2
  205.09428 26.0 0
  205.10959 44.0 0
  205.87711 24.0 0
  206.09268 18.0 0
  206.1199 44.0 0
  206.13226 18.0 0
  207.09628 75.0 1
  207.10451 60.0 1
  209.0015 20.0 0
  209.05394 27.0 0
  209.07607 333.0 4
  209.08546 182.0 2
  210.08463 35.0 0
  210.09435 19.0 0
  210.1062 20.0 0
  210.1174 18.0 0
  210.23404 39.0 0
  211.08257 27.0 0
  211.10921 18.0 0
  211.23351 20.0 0
  211.56903 18.0 0
  212.08719 18.0 0
  212.09837 17.0 0
  212.10628 20.0 0
  214.1169 47.0 0
  215.10913 53.0 1
  215.11806 134.0 1
  215.1288 110.0 1
  216.10756 63.0 1
  216.12933 21.0 0
  216.46721 24.0 0
  217.09813 33.0 0
  218.11549 51.0 1
  218.12743 21.0 0
  219.10838 22.0 0
  222.09245 23.0 0
  222.11378 17.0 0
  222.12215 23.0 0
  223.09499 25.0 0
  223.12271 24.0 0
  223.1795 24.0 0
  224.07936 30.0 0
  224.12148 694.0 7
  224.13516 863.0 9
  225.05789 18.0 0
  225.0817 33.0 0
  225.12791 176.0 2
  225.1797 30.0 0
  226.07756 21.0 0
  226.12349 74.0 1
  226.15732 20.0 0
  226.2561 20.0 0
  227.10786 54.0 1
  228.09869 20.0 0
  228.11752 137.0 1
  229.12726 75.0 1
  229.14001 49.0 1
  230.14148 37.0 0
  230.6321 17.0 0
  231.09181 30.0 0
  233.7347 17.0 0
  233.85374 20.0 0
  234.01323 27.0 0
  234.59868 17.0 0
  235.92967 25.0 0
  236.09601 21.0 0
  236.1304 2227.0 24
  236.22652 20.0 0
  237.09224 24.0 0
  237.11905 68.0 1
  237.13583 69.0 1
  237.14731 88.0 1
  237.15698 42.0 0
  238.09747 26.0 0
  238.10851 39.0 0
  238.13254 143.0 2
  238.14647 54.0 1
  238.15833 39.0 0
  239.05684 18.0 0
  240.12511 17.0 0
  240.20123 42.0 0
  241.10489 56.0 1
  241.12187 20.0 0
  242.10493 20.0 0
  242.13283 82.0 1
  242.15169 23.0 0
  242.39206 21.0 0
  243.68941 18.0 0
  245.10988 33.0 0
  246.06615 22.0 0
  246.07529 17.0 0
  248.09854 34.0 0
  248.11649 20.0 0
  249.10226 80.0 1
  249.11771 36.0 0
  250.09976 42.0 0
  250.12076 34.0 0
  250.13264 68.0 1
  251.11157 17.0 0
  251.14885 28.0 0
  252.08675 24.0 0
  252.10146 22.0 0
  252.13303 114.0 1
  253.07245 693.0 7
  253.12894 17.0 0
  253.14203 22.0 0
  254.07539 131.0 1
  254.14134 124.0 1
  255.11075 53.0 1
  256.91629 17.0 0
  257.10983 17.0 0
  260.10773 17.0 0
  261.11676 20.0 0
  262.05511 19.0 0
  262.11429 20.0 0
  262.12582 44.0 0
  262.138 17.0 0
  263.11548 47.0 0
  263.13437 35.0 0
  263.14926 19.0 0
  264.10248 25.0 0
  264.12051 83.0 1
  265.10773 35.0 0
  265.13229 51.0 1
  266.11935 18.0 0
  267.11084 17.0 0
  267.13434 17.0 0
  267.16107 17.0 0
  267.93106 19.0 0
  268.16629 34.0 0
  272.08505 20.0 0
  273.11035 39.0 0
  274.11136 21.0 0
  274.1416 80.0 1
  275.13092 65.0 1
  276.13052 239.0 3
  276.14722 64.0 1
  276.54584 18.0 0
  277.11697 24.0 0
  277.12851 24.0 0
  277.13977 42.0 0
  277.15347 80.0 1
  277.18283 24.0 0
  278.12958 20.0 0
  279.13977 18.0 0
  280.47638 23.0 0
  281.16812 32.0 0
  282.09967 18.0 0
  283.04218 21.0 0
  283.17361 17.0 0
  284.12274 22.0 0
  284.13202 23.0 0
  286.12616 35.0 0
  287.14087 17.0 0
  288.1073 28.0 0
  288.13873 159.0 2
  288.15619 17.0 0
  289.10742 18.0 0
  289.12384 35.0 0
  289.14236 38.0 0
  289.1586 22.0 0
  290.11484 60.0 1
  290.1337 17.0 0
  291.12112 17.0 0
  291.14886 20.0 0
  291.84811 33.0 0
  291.85843 24.0 0
  292.14108 78.0 1
  294.11734 28.0 0
  294.16971 17.0 0
  295.10672 18.0 0
  295.12799 18.0 0
  297.13373 38.0 0
  299.1427 21.0 0
  299.4729 21.0 0
  299.90051 19.0 0
  300.14566 27.0 0
  301.10513 56.0 1
  302.10547 17.0 0
  303.16605 17.0 0
  304.09668 22.0 0
  304.11331 71.0 1
  304.13864 120.0 1
  304.1507 24.0 0
  304.93237 17.0 0
  305.14755 42.0 0
  305.16446 54.0 1
  305.19098 41.0 0
  305.67245 20.0 0
  305.94174 18.0 0
  306.11539 37.0 0
  306.13208 25.0 0
  306.15207 21.0 0
  306.18082 21.0 0
  306.32727 20.0 0
  307.08432 31.0 0
  307.15884 17.0 0
  307.67917 17.0 0
  307.87543 18.0 0
  308.03146 22.0 0
  308.11893 20.0 0
  308.13486 25.0 0
  308.18164 78.0 1
  308.32623 42.0 0
  309.15143 58.0 1
  309.16824 41.0 0
  310.12817 25.0 0
  310.15366 72.0 1
  311.14548 17.0 0
  312.14957 17.0 0
  316.11026 20.0 0
  316.14359 122.0 1
  316.67224 20.0 0
  317.14435 20.0 0
  318.12079 20.0 0
  318.13538 49.0 1
  320.14645 20.0 0
  321.15454 36.0 0
  322.08936 71.0 1
  322.14264 121.0 1
  322.15921 54.0 1
  323.14413 23.0 0
  324.13593 18.0 0
  324.1532 33.0 0
  326.14294 21.0 0
  326.25278 24.0 0
  327.14972 24.0 0
  327.50635 36.0 0
  328.35709 25.0 0
  332.12396 25.0 0
  332.90314 18.0 0
  333.11197 46.0 0
  333.15842 180.0 2
  333.1864 20.0 0
  334.15628 172.0 2
  334.17926 23.0 0
  334.4346 21.0 0
  335.10101 21.0 0
  335.11227 17.0 0
  335.13684 28.0 0
  335.16287 38.0 0
  336.10721 25.0 0
  336.13327 52.0 1
  336.16086 666.0 7
  336.17657 173.0 2
  336.93936 17.0 0
  337.14575 21.0 0
  337.16583 180.0 2
  337.18918 65.0 1
  337.20828 53.0 1
  337.41928 18.0 0
  337.63055 22.0 0
  338.15741 20.0 0
  338.19 51.0 1
  338.80099 29.0 0
  339.09198 18.0 0
  339.19705 20.0 0
  339.91385 21.0 0
  339.97806 22.0 0
  341.15726 20.0 0
  341.36221 21.0 0
  342.16608 18.0 0
  347.17331 24.0 0
  348.14206 143.0 2
  348.16235 345.0 4
  348.18256 96.0 1
  349.12299 21.0 0
  349.15787 109.0 1
  350.14423 78.0 1
  350.17062 23.0 0
  350.68149 20.0 0
  351.20453 24.0 0
  353.15665 19.0 0
  353.29141 17.0 0
  353.3223 17.0 0
  354.12079 20.0 0
  354.13464 110.0 1
  354.15155 61.0 1
  354.16824 41.0 0
  354.1882 38.0 0
  355.13257 23.0 0
  355.47141 24.0 0
  356.20514 17.0 0
  357.59302 21.0 0
  358.87497 17.0 0
  360.15421 21.0 0
  360.17755 18.0 0
  360.81812 26.0 0
  360.93539 23.0 0
  363.16367 23.0 0
  363.18381 24.0 0
  364.5799 17.0 0
  365.12628 18.0 0
  365.13538 45.0 0
  365.17447 660.0 7
  365.18857 1772.0 19
  365.23474 20.0 0
  365.62704 18.0 0
  366.133 33.0 0
  366.16071 131.0 1
  366.17584 400.0 4
  366.20828 123.0 1
  366.22678 25.0 0
  367.12219 39.0 0
  367.15659 18.0 0
  367.19037 168.0 2
  367.83817 17.0 0
  368.1622 90.0 1
  368.18201 428.0 5
  368.23831 17.0 0
  368.44672 24.0 0
  369.16943 23.0 0
  369.19809 18.0 0
  370.13693 23.0 0
  370.1731 20.0 0
  370.82465 20.0 0
  370.8378 34.0 0
  373.51556 28.0 0
  374.24368 31.0 0
  376.44724 17.0 0
  377.11029 20.0 0
  378.07281 17.0 0
  378.54938 18.0 0
  379.20218 70.0 1
  380.17172 114.0 1
  380.19055 88.0 1
  380.69861 26.0 0
  381.13843 27.0 0
  381.17596 73.0 1
  381.19186 102.0 1
  382.14752 81.0 1
  382.19473 22.0 0
  383.16241 17.0 0
  383.88382 17.0 0
  383.92456 30.0 0
  384.04831 27.0 0
  384.1561 44.0 0
  384.58453 18.0 0
  385.02634 18.0 0
  386.33356 24.0 0
  386.43256 18.0 0
  387.1864 17.0 0
  387.56888 29.0 0
  390.16904 18.0 0
  390.92923 18.0 0
  390.97195 26.0 0
  391.72971 21.0 0
  393.95996 19.0 0
  393.97906 35.0 0
  395.16547 20.0 0
  395.19742 61.0 1
  395.21359 25.0 0
  395.54254 23.0 0
  395.97678 22.0 0
  396.00943 19.0 0
  396.18878 17.0 0
  396.20901 20.0 0
  396.41281 37.0 0
  396.49457 24.0 0
  396.92328 18.0 0
  397.01584 19.0 0
  397.10565 25.0 0
  397.13416 55.0 1
  397.15656 114.0 1
  397.20337 2921.0 31
  397.21924 4687.0 50
  397.27295 17.0 0
  397.30255 23.0 0
  397.93384 17.0 0
  397.94827 20.0 0
  398.14197 41.0 0
  398.16602 50.0 1
  398.18961 299.0 3
  398.21655 1715.0 18
  398.25369 26.0 0
  399.21295 203.0 2
  399.23294 216.0 2
  399.67282 35.0 0
  400.22998 49.0 1
  400.82651 26.0 0
  401.8869 17.0 0
  402.09161 20.0 0
  402.15753 19.0 0
  403.77963 30.0 0
  404.93631 44.0 0
  407.8815 20.0 0
  411.13623 21.0 0
  413.19974 108.0 1
  414.15094 21.0 0
  415.15799 25.0 0
  415.22507 19.0 0
  416.14099 40.0 0
  416.20129 23.0 0
  418.89841 28.0 0
  420.15149 17.0 0
  420.47766 21.0 0
  422.20041 17.0 0
  423.46368 24.0 0
  424.03986 17.0 0
  424.39575 30.0 0
  426.1337 17.0 0
  426.15448 91.0 1
  427.10568 18.0 0
  431.12442 39.0 0
  431.55246 17.0 0
  434.17889 17.0 0
  434.24777 48.0 1
  435.16446 27.0 0
  435.19003 38.0 0
  435.7355 21.0 0
  438.32458 19.0 0
  438.88034 18.0 0
  439.93906 44.0 0
  443.08286 21.0 0
  444.15302 33.0 0
  444.45584 18.0 0
  445.63342 27.0 0
  445.7554 26.0 0
  447.74802 20.0 0
  448.18387 24.0 0
  449.15659 53.0 1
  450.93213 37.0 0
  451.14456 26.0 0
  451.50574 22.0 0
  458.88248 18.0 0
  460.15405 114.0 1
  461.10709 21.0 0
  461.14972 21.0 0
  461.17459 19.0 0
  462.16302 89.0 1
  462.18967 53.0 1
  462.20782 17.0 0
  462.53897 45.0 0
  463.16672 45.0 0
  463.18472 18.0 0
  463.19778 20.0 0
  464.72308 17.0 0
  466.16232 30.0 0
  467.18332 51.0 1
  471.38528 24.0 0
  472.07916 17.0 0
  474.13947 20.0 0
  474.18863 92.0 1
  474.78159 40.0 0
  475.97943 24.0 0
  476.18237 22.0 0
  476.20053 20.0 0
  476.44916 18.0 0
  478.05518 17.0 0
  480.18732 27.0 0
  480.20721 20.0 0
  481.53189 33.0 0
  482.39273 27.0 0
  483.37808 25.0 0
  486.64807 27.0 0
  486.7066 17.0 0
  486.98987 40.0 0
  489.35651 18.0 0
  490.37897 17.0 0
  492.16165 73.0 1
  492.1828 121.0 1
  492.20514 147.0 2
  492.41882 18.0 0
  492.96527 19.0 0
  493.16965 19.0 0
  493.18784 41.0 0
  493.20538 42.0 0
  493.82889 21.0 0
  494.13043 65.0 1
  494.19012 713.0 8
  494.21396 875.0 9
  494.77493 22.0 0
  495.15735 17.0 0
  495.1752 27.0 0
  495.20108 150.0 2
  495.21762 323.0 3
  496.17789 22.0 0
  496.65659 19.0 0
  497.16165 27.0 0
  500.95239 32.0 0
  502.77222 21.0 0
  503.11066 18.0 0
  503.42862 17.0 0
  504.93005 18.0 0
  505.54471 24.0 0
  506.04904 17.0 0
  506.0766 30.0 0
  506.1073 18.0 0
  506.13196 57.0 1
  506.15543 300.0 3
  506.20212 5138.0 54
  507.14362 76.0 1
  507.19373 711.0 8
  507.21674 821.0 9
  507.43069 17.0 0
  508.14529 19.0 0
  508.19278 284.0 3
  508.22095 231.0 2
  508.24945 62.0 1
  508.48245 17.0 0
  509.21625 17.0 0
  511.08353 17.0 0
  512.18915 26.0 0
  517.20575 20.0 0
  517.22638 17.0 0
  517.84082 17.0 0
  520.13391 20.0 0
  534.20978 17.0 0
  544.19183 23.0 0
  549.78107 23.0 0
  552.26648 21.0 0
  554.99182 24.0 0
  555.46045 20.0 0
  557.42761 17.0 0
  562.53119 17.0 0
  563.27893 54.0 1
  564.13568 34.0 0
  564.23138 29.0 0
  564.24756 38.0 0
  569.21429 35.0 0
  570.12378 18.0 0
  573.13904 20.0 0
  573.33746 17.0 0
  573.87158 17.0 0
  573.90247 27.0 0
  579.29651 20.0 0
  582.76935 27.0 0
  583.40021 20.0 0
  583.86554 25.0 0
  586.05273 28.0 0
  587.39612 25.0 0
  592.19055 18.0 0
  593.25757 17.0 0
  593.38116 24.0 0
  593.99567 20.0 0
  594.24969 20.0 0
  595.24786 18.0 0
  595.26508 35.0 0
  596.15833 21.0 0
  596.74146 21.0 0
  597.26056 31.0 0
  597.56763 22.0 0
  598.32703 30.0 0
  602.33972 21.0 0
  603.94623 17.0 0
  604.22491 20.0 0
  607.2149 26.0 0
  607.26508 20.0 0
  609.41956 23.0 0
  610.11035 18.0 0
  610.81683 20.0 0
  617.16736 20.0 0
  617.25439 104.0 1
  617.29974 17.0 0
  618.24786 70.0 1
  618.29517 46.0 0
  619.20831 27.0 0
  619.24188 61.0 1
  619.27911 17.0 0
  621.21588 27.0 0
  624.25366 22.0 0
  625.23474 27.0 0
  625.2746 33.0 0
  626.38141 23.0 0
  635.17358 26.0 0
  635.1944 57.0 1
  635.22186 125.0 1
  635.25421 256.0 3
  635.28235 249.0 3
  636.24652 186.0 2
  636.27679 124.0 1
  636.30542 17.0 0
  636.62006 26.0 0
  636.73041 27.0 0
  637.29047 23.0 0
  638.21625 38.0 0
  638.24445 37.0 0
  638.26703 70.0 1
  638.28717 84.0 1
  639.28168 20.0 0
  640.255 17.0 0
  640.29126 27.0 0
  640.60516 34.0 0
  648.1543 17.0 0
  649.245 111.0 1
  649.29102 29.0 0
  649.6712 19.0 0
  650.25079 42.0 0
  651.25592 58.0 1
  651.30469 17.0 0
  652.32446 18.0 0
  654.30212 18.0 0
  655.53467 21.0 0
  655.78778 17.0 0
  659.04584 29.0 0
  660.12799 25.0 0
  661.95404 19.0 0
  662.77576 22.0 0
  664.99518 23.0 0
  665.13757 21.0 0
  665.26605 63.0 1
  665.57037 19.0 0
  666.05615 17.0 0
  666.09076 24.0 0
  666.21301 18.0 0
  666.25183 42.0 0
  666.28534 142.0 2
  666.30994 62.0 1
  666.33984 18.0 0
  666.36255 21.0 0
  666.54797 25.0 0
  666.56757 24.0 0
  666.70612 27.0 0
  666.94153 26.0 0
  667.0282 26.0 0
  667.04718 53.0 1
  667.08319 29.0 0
  667.1087 86.0 1
  667.18097 294.0 3
  667.2074 814.0 9
  667.28961 94314.0 999
  667.36029 960.0 10
  667.3797 681.0 7
  667.4447 31.0 0
  667.48486 67.0 1
//
