ACCESSION: MSBNK-RIKEN-PR308295
RECORD_TITLE: Apigeninidin; LC-ESI-QTOF; MS2
DATE: 2019.03.28
AUTHORS: Tetsuya Mori, Center for Sustainable Resource Science, RIKEN
LICENSE: CC BY-NC-SA
PUBLICATION: Tsugawa H., Nakabayashi R., Mori T., Yamada Y., Takahashi M., Rai A., Sugiyama R., Yamamoto H., Nakaya T., Yamazaki M., Kooke R., Bac-Molenaar JA., Oztolan-Erol N., Keurentjes JJB., Arita M., Saito K. (2019) "A cheminformatics approach to characterize metabolomes in stable-isotope-labeled organisms" Nature Methods 16(4):295-298. [doi:10.1038/s41592-019-0358-2]
COMMENT: registered in RIKEN PlaSMA
CH$NAME: Apigeninidin
CH$COMPOUND_CLASS: 7-hydroxyflavonoids
CH$FORMULA: C15H10O4
CH$EXACT_MASS: 254.241
CH$SMILES: OC1=CC=C(C=C1)C1=[O+]C2=CC(O)=CC([O-])=C2C=C1
CH$IUPAC: InChI=1S/C15H10O4/c16-10-3-1-9(2-4-10)14-6-5-12-13(18)7-11(17)8-15(12)19-14/h1-8H,(H2-,16,17,18)
CH$LINK: INCHIKEY ZKMZBAABQFUXFE-UHFFFAOYSA-N
AC$INSTRUMENT: LC, Waters Acquity UPLC System; MS, Waters Xevo G2 Q-Tof
AC$INSTRUMENT_TYPE: LC-ESI-QTOF
AC$MASS_SPECTROMETRY: MS_TYPE MS2
AC$MASS_SPECTROMETRY: ION_MODE NEGATIVE
AC$MASS_SPECTROMETRY: COLLISION_ENERGY 6V
AC$MASS_SPECTROMETRY: DESOLVATION_GAS_FLOW 800/h
AC$MASS_SPECTROMETRY: DESOLVATION_TEMPERATURE 450 C
AC$MASS_SPECTROMETRY: IONIZATION ESI
AC$CHROMATOGRAPHY: CAPILLARY_VOLTAGE -2.75 kV
AC$CHROMATOGRAPHY: COLUMN_NAME Acquity bridged ethyl hybrid C18 (1.7 um, 2.1 mm * 100 mm, Waters)
AC$CHROMATOGRAPHY: COLUMN_TEMPERATURE 40 C
AC$CHROMATOGRAPHY: FLOW_GRADIENT A/B = (99.5%/0.5% at 0 min, 99.5%/0.5% at 0.1 min, 20%/80% at 10 min, 0.5%/99.5% at 10.1 min, 0.5%/99.5% at 12.0 min, 99.5%/0.5% at 12.1 min, 99.5%/0.5% at 15.0 min)
AC$CHROMATOGRAPHY: FLOW_RATE 0.3 ml/min at 0 min, 0.3 ml/min at 10 min, 0.4 ml/min at 10.1 min, 0.4 ml/min at 14.4 min, 0.3 ml/min at 14.5 min
AC$CHROMATOGRAPHY: RETENTION_TIME 3.86845
AC$CHROMATOGRAPHY: SOLVENT A water including 0.1% formic acid
AC$CHROMATOGRAPHY: SOLVENT B acetonitrile including 0.1% formic acid
MS$FOCUSED_ION: PRECURSOR_TYPE [M-H]-
MS$FOCUSED_ION: PRECURSOR_M/Z 253.05063234783
PK$SPLASH: splash10-014i-1900000000-22e362309f3a3b096b8c
PK$NUM_PEAK: 19
PK$PEAK: m/z int. rel.int.
  88.03025 198.0 198
  89.04323 132.0 132
  104.0248 99.0 99
  115.04951 121.0 121
  117.02395 126.0 126
  117.03331 1000.0 999
  118.03534 99.0 99
  129.03806 99.0 99
  138.04515 115.0 115
  141.04012 99.0 99
  144.05362 104.0 104
  153.02625 110.0 110
  157.05534 148.0 148
  165.03952 126.0 126
  166.04637 115.0 115
  167.04933 132.0 132
  169.06128 170.0 170
  183.04054 115.0 115
  195.05081 115.0 115
//
