ACCESSION: MSBNK-RIKEN-PR310507
RECORD_TITLE: 2',6'-Dihydroxy-4-methoxychalcone-4'-O-neohesperid; LC-ESI-QTOF; MS2
DATE: 2019.03.28
AUTHORS: Tetsuya Mori, Center for Sustainable Resource Science, RIKEN
LICENSE: CC BY-NC-SA
PUBLICATION: Tsugawa H., Nakabayashi R., Mori T., Yamada Y., Takahashi M., Rai A., Sugiyama R., Yamamoto H., Nakaya T., Yamazaki M., Kooke R., Bac-Molenaar JA., Oztolan-Erol N., Keurentjes JJB., Arita M., Saito K. (2019) "A cheminformatics approach to characterize metabolomes in stable-isotope-labeled organisms" Nature Methods 16(4):295-298. [doi:10.1038/s41592-019-0358-2]
COMMENT: Annotation level-1
CH$NAME: 2',6'-Dihydroxy-4-methoxychalcone-4'-O-neohesperid
CH$COMPOUND_CLASS: Chalcones
CH$FORMULA: C28H34O14
CH$EXACT_MASS: 594.566
CH$SMILES: COC1=CC=C(C=CC(=O)C2=C(O)C=C(OC3OC(CO)C(O)C(O)C3OC3OC(C)C(O)C(O)C3O)C=C2O)C=C1
CH$IUPAC: InChI=1S/C28H34O14/c1-12-21(33)23(35)25(37)27(39-12)42-26-24(36)22(34)19(11-29)41-28(26)40-15-9-17(31)20(18(32)10-15)16(30)8-5-13-3-6-14(38-2)7-4-13/h3-10,12,19,21-29,31-37H,11H2,1-2H3
CH$LINK: INCHIKEY HWRDCYOHJBCWGW-UHFFFAOYSA-N
AC$INSTRUMENT: LC, Waters Acquity UPLC System; MS, Waters Xevo G2 Q-Tof
AC$INSTRUMENT_TYPE: LC-ESI-QTOF
AC$MASS_SPECTROMETRY: MS_TYPE MS2
AC$MASS_SPECTROMETRY: ION_MODE POSITIVE
AC$MASS_SPECTROMETRY: COLLISION_ENERGY 6V
AC$MASS_SPECTROMETRY: DESOLVATION_GAS_FLOW 800/h
AC$MASS_SPECTROMETRY: DESOLVATION_TEMPERATURE 450 C
AC$MASS_SPECTROMETRY: IONIZATION ESI
AC$CHROMATOGRAPHY: CAPILLARY_VOLTAGE +3.00 kV
AC$CHROMATOGRAPHY: COLUMN_NAME Acquity bridged ethyl hybrid C18 (1.7 um, 2.1 mm * 100 mm, Waters)
AC$CHROMATOGRAPHY: COLUMN_TEMPERATURE 40 C
AC$CHROMATOGRAPHY: FLOW_GRADIENT A/B = (99.5%/0.5% at 0 min, 99.5%/0.5% at 0.1 min, 20%/80% at 10 min, 0.5%/99.5% at 10.1 min, 0.5%/99.5% at 12.0 min, 99.5%/0.5% at 12.1 min, 99.5%/0.5% at 15.0 min)
AC$CHROMATOGRAPHY: FLOW_RATE 0.3 ml/min at 0 min, 0.3 ml/min at 10 min, 0.4 ml/min at 10.1 min, 0.4 ml/min at 14.4 min, 0.3 ml/min at 14.5 min
AC$CHROMATOGRAPHY: RETENTION_TIME 5.42
AC$CHROMATOGRAPHY: SOLVENT A water including 0.1% formic acid
AC$CHROMATOGRAPHY: SOLVENT B acetonitrile including 0.1% formic acid
MS$FOCUSED_ION: PRECURSOR_TYPE [M+H]+
MS$FOCUSED_ION: PRECURSOR_M/Z 595.20213
PK$SPLASH: splash10-000i-0392510000-22b9f9daaf82e7e09b6a
PK$NUM_PEAK: 97
PK$PEAK: m/z int. rel.int.
  71.05144 58.0 25
  75.04366 26.0 11
  81.36478 17.0 7
  85.02672 97.0 42
  85.03293 36.0 15
  123.78775 22.0 9
  129.05345 277.0 119
  130.39178 17.0 7
  147.05865 28.0 12
  151.10052 20.0 9
  153.01396 246.0 106
  153.02589 149.0 64
  154.0202 89.0 38
  161.05663 51.0 22
  162.06432 24.0 10
  177.02646 17.0 7
  179.0285 66.0 28
  191.02335 18.0 8
  195.02777 144.0 62
  196.02885 27.0 12
  207.02945 22.0 9
  217.15086 21.0 9
  219.02531 59.0 25
  219.04111 18.0 8
  245.04703 27.0 12
  246.04022 30.0 13
  261.00937 25.0 11
  261.04443 20.0 9
  262.04529 20.0 9
  263.04907 78.0 34
  263.06409 18.0 8
  264.07001 24.0 10
  281.06567 34.0 15
  287.04633 21.0 9
  287.05899 17.0 7
  287.09088 2325.0 999
  288.09979 456.0 196
  288.12112 22.0 9
  289.08221 32.0 14
  289.1001 58.0 25
  290.10156 36.0 15
  297.04785 20.0 9
  297.06299 48.0 21
  299.06302 17.0 7
  300.0704 29.0 12
  312.10385 44.0 19
  329.0755 31.0 13
  329.09955 154.0 66
  329.1171 42.0 18
  329.85669 19.0 8
  330.10797 40.0 17
  353.09009 21.0 9
  353.10776 65.0 28
  365.10818 23.0 10
  371.13904 47.0 20
  372.08084 27.0 12
  379.10623 31.0 13
  395.10239 36.0 15
  397.10632 23.0 10
  397.12424 148.0 64
  397.14923 25.0 11
  397.17892 25.0 11
  398.12823 75.0 32
  400.13315 18.0 8
  407.10651 24.0 10
  413.12418 74.0 32
  415.13544 110.0 47
  415.15192 87.0 37
  416.12292 22.0 9
  416.14279 21.0 9
  427.14218 49.0 21
  431.12613 51.0 22
  431.14221 90.0 39
  432.14847 31.0 13
  433.1102 18.0 8
  433.14856 478.0 205
  433.91092 17.0 7
  434.14319 96.0 41
  434.16217 24.0 10
  435.16534 17.0 7
  444.13199 62.0 27
  449.1124 40.0 17
  449.14838 423.0 182
  450.13571 75.0 32
  453.06152 25.0 11
  453.78302 20.0 9
  473.15939 56.0 24
  475.16953 21.0 9
  476.1178 25.0 11
  541.14636 27.0 12
  541.17755 57.0 24
  545.12347 19.0 8
  559.17438 26.0 11
  559.20172 22.0 9
  577.19855 59.0 25
  595.12109 18.0 8
  595.20856 446.0 192
//
