ACCESSION: MSBNK-RIKEN-PR100131
RECORD_TITLE: D-Carnitine; LC-ESI-QTOF; MS2; CE:30 V; [M+H]+
DATE: 2016.01.19 (Created 2009.09.10, modified 2011.05.06)
AUTHORS: Matsuda F, Suzuki M, Sawada Y, Plant Science Center, RIKEN.
LICENSE: CC BY-SA
COMMENT: Acquisition and generation of the data is financially supported in part by CREST/JST.
CH$NAME: D-Carnitine
CH$NAME: D-Vitamin BT
CH$NAME: beta-Hydroxy-gamma-trimethylaminobutyric Acid
CH$COMPOUND_CLASS: Carnitine
CH$FORMULA: C7H15NO3
CH$EXACT_MASS: 161.10519
CH$SMILES: [O-1]C(=O)C[C@H](O)C[N+1](C)(C)C
CH$IUPAC: InChI=1S/C7H15NO3/c1-8(2,3)5-6(9)4-7(10)11/h6,9H,4-5H2,1-3H3/t6-/m0/s1
CH$LINK: CAS 541-14-0
CH$LINK: CHEMSPIDER 2006614
CH$LINK: KEGG C15025
CH$LINK: PUBCHEM CID:2724480
CH$LINK: INCHIKEY PHIQHXFUZVPYII-LURJTMIESA-N
AC$INSTRUMENT: UPLC Q-Tof Premier, Waters
AC$INSTRUMENT_TYPE: LC-ESI-QTOF
AC$MASS_SPECTROMETRY: MS_TYPE MS2
AC$MASS_SPECTROMETRY: ION_MODE POSITIVE
AC$MASS_SPECTROMETRY: COLLISION_ENERGY 30 V
AC$MASS_SPECTROMETRY: DATAFORMAT Continuum
AC$MASS_SPECTROMETRY: DATE 2008.07.25
AC$MASS_SPECTROMETRY: DESOLVATION_GAS_FLOW 600.0 L/Hr
AC$MASS_SPECTROMETRY: DESOLVATION_TEMPERATURE 420 C
AC$MASS_SPECTROMETRY: FRAGMENTATION_METHOD LOW-ENERGY CID
AC$MASS_SPECTROMETRY: IONIZATION ESI
AC$MASS_SPECTROMETRY: SCANNING 1.0 sec/scan (m/z = 50-1000)
AC$MASS_SPECTROMETRY: SOURCE_TEMPERATURE 120 C
AC$CHROMATOGRAPHY: CAPILLARY_VOLTAGE 3.0 kV
AC$CHROMATOGRAPHY: SAMPLING_CONE 23.0 V
AC$CHROMATOGRAPHY: SOLVENT A CH3CN(0.1%HCOOH)
AC$CHROMATOGRAPHY: SOLVENT B H2O(0.1%HCOOH)
MS$FOCUSED_ION: PRECURSOR_M/Z 162.11299
MS$FOCUSED_ION: PRECURSOR_TYPE [M+H]+
PK$SPLASH: splash10-03di-0900000000-07916b6c77becc7b8c81
PK$NUM_PEAK: 3
PK$PEAK: m/z int. rel.int.
  103.0389 16.69 87
  162.0686 9.586 50
  162.1130 191.4 999
//
