ACCESSION: MSBNK-RIKEN-PR309085
RECORD_TITLE: FA 18:3+2O; LC-ESI-QTOF; MS2
DATE: 2019.03.28
AUTHORS: Tetsuya Mori, Center for Sustainable Resource Science, RIKEN
LICENSE: CC BY-NC-SA
PUBLICATION: Tsugawa H., Nakabayashi R., Mori T., Yamada Y., Takahashi M., Rai A., Sugiyama R., Yamamoto H., Nakaya T., Yamazaki M., Kooke R., Bac-Molenaar JA., Oztolan-Erol N., Keurentjes JJB., Arita M., Saito K. (2019) "A cheminformatics approach to characterize metabolomes in stable-isotope-labeled organisms" Nature Methods 16(4):295-298. [doi:10.1038/s41592-019-0358-2]
COMMENT: Annotation level-3
CH$NAME: FA 18:3+2O
CH$COMPOUND_CLASS: Oxidized fatty acids
CH$FORMULA: C18H30O4
CH$EXACT_MASS: 310.434
CH$SMILES: O=C(O)CCCCCCCC1OC1(C=CC(=O)CCCCC)
CH$IUPAC: InChI=1S/C18H30O4/c1-2-3-7-10-15(19)13-14-17-16(22-17)11-8-5-4-6-9-12-18(20)21/h13-14,16-17H,2-12H2,1H3,(H,20,21)
CH$LINK: INCHIKEY BJIKXWWZEPAKQC-UHFFFAOYSA-N
AC$INSTRUMENT: LC, Waters Acquity UPLC System; MS, Waters Xevo G2 Q-Tof
AC$INSTRUMENT_TYPE: LC-ESI-QTOF
AC$MASS_SPECTROMETRY: MS_TYPE MS2
AC$MASS_SPECTROMETRY: ION_MODE NEGATIVE
AC$MASS_SPECTROMETRY: COLLISION_ENERGY 6V
AC$MASS_SPECTROMETRY: DESOLVATION_GAS_FLOW 800/h
AC$MASS_SPECTROMETRY: DESOLVATION_TEMPERATURE 450 C
AC$MASS_SPECTROMETRY: IONIZATION ESI
AC$CHROMATOGRAPHY: CAPILLARY_VOLTAGE +3.00 kV
AC$CHROMATOGRAPHY: COLUMN_NAME Acquity bridged ethyl hybrid C18 (1.7 um, 2.1 mm * 100 mm, Waters)
AC$CHROMATOGRAPHY: COLUMN_TEMPERATURE 40 C
AC$CHROMATOGRAPHY: FLOW_GRADIENT A/B = (99.5%/0.5% at 0 min, 99.5%/0.5% at 0.1 min, 20%/80% at 10 min, 0.5%/99.5% at 10.1 min, 0.5%/99.5% at 12.0 min, 99.5%/0.5% at 12.1 min, 99.5%/0.5% at 15.0 min)
AC$CHROMATOGRAPHY: FLOW_RATE 0.3 ml/min at 0 min, 0.3 ml/min at 10 min, 0.4 ml/min at 10.1 min, 0.4 ml/min at 14.4 min, 0.3 ml/min at 14.5 min
AC$CHROMATOGRAPHY: RETENTION_TIME 7.74
AC$CHROMATOGRAPHY: SOLVENT A water including 0.1% formic acid
AC$CHROMATOGRAPHY: SOLVENT B acetonitrile including 0.1% formic acid
MS$FOCUSED_ION: PRECURSOR_TYPE [M-H]-
MS$FOCUSED_ION: PRECURSOR_M/Z 309.2059
PK$SPLASH: splash10-0a4i-1593000000-f8a21e58077ee2a449f2
PK$NUM_PEAK: 22
PK$PEAK: m/z int. rel.int.
  99.07903 122.0 195
  99.08517 45.0 72
  100.08312 17.0 27
  135.08693 18.0 29
  137.09511 37.0 59
  141.09087 20.0 32
  165.1272 26.0 42
  171.09813 59.0 94
  171.10995 17.0 27
  185.1122 60.0 96
  185.11958 265.0 424
  186.1225 25.0 40
  187.11589 16.0 26
  201.1037 16.0 26
  209.11523 625.0 999
  210.11848 44.0 70
  211.11923 16.0 26
  273.17825 18.0 29
  290.17633 22.0 35
  291.19489 137.0 219
  309.2067 344.0 550
  309.22702 17.0 27
//
