ACCESSION: MSBNK-RIKEN-PR304633
RECORD_TITLE: 5(S)-5-carboxystrictosidine; LC-ESI-QTOF; MS2
DATE: 2019.03.28
AUTHORS: Tetsuya Mori, Center for Sustainable Resource Science, RIKEN
LICENSE: CC BY-NC-SA
PUBLICATION: Tsugawa H., Nakabayashi R., Mori T., Yamada Y., Takahashi M., Rai A., Sugiyama R., Yamamoto H., Nakaya T., Yamazaki M., Kooke R., Bac-Molenaar JA., Oztolan-Erol N., Keurentjes JJB., Arita M., Saito K. (2019) "A cheminformatics approach to characterize metabolomes in stable-isotope-labeled organisms" Nature Methods 16(4):295-298. [doi:10.1038/s41592-019-0358-2]
COMMENT: registered in RIKEN PlaSMA
CH$NAME: 5(S)-5-carboxystrictosidine
CH$COMPOUND_CLASS: Terpene glycosides
CH$FORMULA: C28H34N2O11
CH$EXACT_MASS: 574.583
CH$SMILES: COC(=O)C1=COC(OC2OC(CO)C(O)C(O)C2O)C(C=C)C1CC1NC(CC2=C1NC1=CC=CC=C21)C(O)=O
CH$IUPAC: InChI=1S/C28H34N2O11/c1-3-12-14(8-18-21-15(9-19(29-18)25(35)36)13-6-4-5-7-17(13)30-21)16(26(37)38-2)11-39-27(12)41-28-24(34)23(33)22(32)20(10-31)40-28/h3-7,11-12,14,18-20,22-24,27-34H,1,8-10H2,2H3,(H,35,36)
CH$LINK: INCHIKEY LHKZIVMTXZLOTP-UHFFFAOYSA-N
AC$INSTRUMENT: LC, Waters Acquity UPLC System; MS, Waters Xevo G2 Q-Tof
AC$INSTRUMENT_TYPE: LC-ESI-QTOF
AC$MASS_SPECTROMETRY: MS_TYPE MS2
AC$MASS_SPECTROMETRY: ION_MODE NEGATIVE
AC$MASS_SPECTROMETRY: COLLISION_ENERGY 6V
AC$MASS_SPECTROMETRY: DESOLVATION_GAS_FLOW 800/h
AC$MASS_SPECTROMETRY: DESOLVATION_TEMPERATURE 450 C
AC$MASS_SPECTROMETRY: IONIZATION ESI
AC$CHROMATOGRAPHY: CAPILLARY_VOLTAGE -2.75 kV
AC$CHROMATOGRAPHY: COLUMN_NAME Acquity bridged ethyl hybrid C18 (1.7 um, 2.1 mm * 100 mm, Waters)
AC$CHROMATOGRAPHY: COLUMN_TEMPERATURE 40 C
AC$CHROMATOGRAPHY: FLOW_GRADIENT A/B = (99.5%/0.5% at 0 min, 99.5%/0.5% at 0.1 min, 20%/80% at 10 min, 0.5%/99.5% at 10.1 min, 0.5%/99.5% at 12.0 min, 99.5%/0.5% at 12.1 min, 99.5%/0.5% at 15.0 min)
AC$CHROMATOGRAPHY: FLOW_RATE 0.3 ml/min at 0 min, 0.3 ml/min at 10 min, 0.4 ml/min at 10.1 min, 0.4 ml/min at 14.4 min, 0.3 ml/min at 14.5 min
AC$CHROMATOGRAPHY: RETENTION_TIME 4.13065
AC$CHROMATOGRAPHY: SOLVENT A water including 0.1% formic acid
AC$CHROMATOGRAPHY: SOLVENT B acetonitrile including 0.1% formic acid
MS$FOCUSED_ION: PRECURSOR_TYPE [M-H]-
MS$FOCUSED_ION: PRECURSOR_M/Z 573.20898344783
PK$SPLASH: splash10-00kr-0933000000-de28ca0b33fdb9c0dc10
PK$NUM_PEAK: 178
PK$PEAK: m/z int. rel.int.
  56.05042 20.0 20
  59.01136 48.0 48
  59.01455 75.0 75
  71.01129 39.0 39
  71.01543 20.0 20
  72.00616 23.0 23
  74.0206 20.0 20
  85.02856 25.0 25
  89.02473 254.0 254
  92.04707 54.0 54
  94.93241 33.0 33
  96.09322 25.0 25
  100.00342 40.0 40
  100.0399 181.0 181
  101.02405 155.0 155
  101.04272 20.0 20
  102.0128 21.0 21
  102.02924 25.0 25
  105.03468 21.0 21
  109.05993 30.0 30
  113.0172 58.0 58
  113.0239 90.0 90
  114.02983 52.0 52
  116.04445 201.0 201
  116.05025 234.0 234
  119.03741 29.0 29
  122.0174 21.0 21
  122.02335 107.0 107
  125.02789 32.0 32
  127.03876 168.0 168
  128.03757 26.0 26
  129.06606 25.0 25
  131.03642 36.0 36
  135.03847 22.0 22
  136.05128 29.0 29
  137.02136 26.0 26
  142.06549 556.0 555
  143.02725 20.0 20
  143.06647 93.0 93
  144.04559 44.0 44
  144.07446 22.0 22
  144.08705 24.0 24
  147.04082 25.0 25
  148.0358 321.0 321
  148.04555 285.0 285
  149.05988 56.0 56
  151.05659 20.0 20
  155.07715 34.0 34
  156.08359 103.0 103
  157.07126 138.0 138
  157.0829 29.0 29
  158.08748 22.0 22
  158.09758 21.0 21
  159.10297 45.0 45
  160.03595 19.0 19
  161.21651 30.0 30
  162.04137 22.0 22
  162.05434 48.0 48
  167.06192 262.0 262
  168.05113 26.0 26
  168.0755 75.0 75
  168.08136 166.0 166
  169.06844 111.0 111
  169.07899 318.0 318
  170.08087 22.0 22
  174.0536 197.0 197
  174.06906 25.0 25
  179.08258 24.0 24
  179.10971 23.0 23
  180.06889 32.0 32
  181.0769 138.0 138
  181.08461 165.0 165
  182.06075 23.0 23
  182.08191 19.0 19
  182.09334 27.0 27
  183.08841 173.0 173
  183.09843 41.0 41
  184.10527 41.0 41
  184.63364 19.0 19
  185.07156 26.0 26
  185.08757 40.0 40
  185.10341 1000.0 999
  186.10718 130.0 130
  186.64969 21.0 21
  188.02957 19.0 19
  195.08847 47.0 47
  200.31064 27.0 27
  206.04607 47.0 47
  206.05844 64.0 64
  208.077 21.0 21
  213.06137 26.0 26
  213.07257 19.0 19
  220.09904 22.0 22
  222.04018 21.0 21
  224.06091 37.0 37
  227.10065 35.0 35
  229.09605 290.0 290
  230.10069 47.0 47
  236.06348 53.0 53
  237.09952 26.0 26
  238.11824 19.0 19
  246.09065 29.0 29
  247.10385 19.0 19
  247.13516 20.0 20
  248.08261 25.0 25
  248.11032 25.0 25
  248.12825 29.0 29
  253.09924 41.0 41
  259.13025 25.0 25
  261.1441 21.0 21
  262.08698 26.0 26
  263.11392 21.0 21
  265.09076 234.0 234
  265.10278 108.0 108
  265.13046 22.0 22
  266.09766 24.0 24
  266.11102 54.0 54
  266.81641 22.0 22
  267.1012 20.0 20
  269.11453 26.0 26
  271.11346 27.0 27
  271.13043 88.0 88
  272.07938 19.0 19
  272.10455 19.0 19
  272.12613 44.0 44
  273.09204 22.0 22
  273.13565 45.0 45
  274.08051 21.0 21
  274.11169 35.0 35
  277.10184 78.0 78
  278.12738 21.0 21
  279.10007 35.0 35
  279.10736 90.0 90
  279.12238 39.0 39
  280.11722 22.0 22
  281.07904 19.0 19
  281.09201 25.0 25
  287.08191 62.0 62
  287.09207 41.0 41
  287.11658 26.0 26
  288.08524 22.0 22
  288.13403 21.0 21
  289.1207 47.0 47
  289.13452 43.0 43
  290.12708 80.0 80
  291.06213 20.0 20
  299.10785 78.0 78
  299.12292 35.0 35
  300.10104 41.0 41
  300.1337 33.0 33
  301.10706 23.0 23
  302.10251 23.0 23
  309.07956 69.0 69
  309.09238 21.0 21
  310.11279 23.0 23
  315.11185 52.0 52
  317.13086 629.0 628
  318.13528 191.0 191
  319.13702 42.0 42
  319.47769 35.0 35
  321.15048 37.0 37
  322.12302 23.0 23
  323.09937 34.0 34
  327.10062 22.0 22
  327.12064 21.0 21
  329.11838 19.0 19
  331.14014 117.0 117
  332.12952 85.0 85
  332.14984 22.0 22
  333.17471 23.0 23
  334.15479 22.0 22
  349.1618 71.0 71
  352.14996 22.0 22
  361.11139 99.0 99
  361.12051 266.0 266
  362.11969 151.0 151
  363.10315 24.0 24
  393.14133 80.0 80
//
