ACCESSION: MSBNK-RIKEN-PR304740
RECORD_TITLE: Aristolochic acid C; LC-ESI-QTOF; MS2
DATE: 2019.03.28
AUTHORS: Tetsuya Mori, Center for Sustainable Resource Science, RIKEN
LICENSE: CC BY-NC-SA
PUBLICATION: Tsugawa H., Nakabayashi R., Mori T., Yamada Y., Takahashi M., Rai A., Sugiyama R., Yamamoto H., Nakaya T., Yamazaki M., Kooke R., Bac-Molenaar JA., Oztolan-Erol N., Keurentjes JJB., Arita M., Saito K. (2019) "A cheminformatics approach to characterize metabolomes in stable-isotope-labeled organisms" Nature Methods 16(4):295-298. [doi:10.1038/s41592-019-0358-2]
COMMENT: registered in RIKEN PlaSMA
CH$NAME: Aristolochic acid C
CH$COMPOUND_CLASS: Aristolochic acids and derivatives
CH$FORMULA: C16H9NO7
CH$EXACT_MASS: 327.248
CH$SMILES: OC(=O)C1=CC2=C(OCO2)C2=C3C=C(O)C=CC3=CC(=C12)N(=O)=O
CH$IUPAC: InChI=1S/C16H9NO7/c18-8-2-1-7-3-11(17(21)22)13-10(16(19)20)5-12-15(24-6-23-12)14(13)9(7)4-8/h1-5,18H,6H2,(H,19,20)
CH$LINK: INCHIKEY NBFGYDJKTHENDP-UHFFFAOYSA-N
AC$INSTRUMENT: LC, Waters Acquity UPLC System; MS, Waters Xevo G2 Q-Tof
AC$INSTRUMENT_TYPE: LC-ESI-QTOF
AC$MASS_SPECTROMETRY: MS_TYPE MS2
AC$MASS_SPECTROMETRY: ION_MODE NEGATIVE
AC$MASS_SPECTROMETRY: COLLISION_ENERGY 6V
AC$MASS_SPECTROMETRY: DESOLVATION_GAS_FLOW 800/h
AC$MASS_SPECTROMETRY: DESOLVATION_TEMPERATURE 450 C
AC$MASS_SPECTROMETRY: IONIZATION ESI
AC$CHROMATOGRAPHY: CAPILLARY_VOLTAGE -2.75 kV
AC$CHROMATOGRAPHY: COLUMN_NAME Acquity bridged ethyl hybrid C18 (1.7 um, 2.1 mm * 100 mm, Waters)
AC$CHROMATOGRAPHY: COLUMN_TEMPERATURE 40 C
AC$CHROMATOGRAPHY: FLOW_GRADIENT A/B = (99.5%/0.5% at 0 min, 99.5%/0.5% at 0.1 min, 20%/80% at 10 min, 0.5%/99.5% at 10.1 min, 0.5%/99.5% at 12.0 min, 99.5%/0.5% at 12.1 min, 99.5%/0.5% at 15.0 min)
AC$CHROMATOGRAPHY: FLOW_RATE 0.3 ml/min at 0 min, 0.3 ml/min at 10 min, 0.4 ml/min at 10.1 min, 0.4 ml/min at 14.4 min, 0.3 ml/min at 14.5 min
AC$CHROMATOGRAPHY: RETENTION_TIME 5.954183
AC$CHROMATOGRAPHY: SOLVENT A water including 0.1% formic acid
AC$CHROMATOGRAPHY: SOLVENT B acetonitrile including 0.1% formic acid
MS$FOCUSED_ION: PRECURSOR_TYPE [M-H]-
MS$FOCUSED_ION: PRECURSOR_M/Z 326.03062514783
PK$SPLASH: splash10-000i-0090000000-bec872ad4b26de41ef36
PK$NUM_PEAK: 25
PK$PEAK: m/z int. rel.int.
  162.79662 6.0 6
  164.15791 6.0 6
  178.04259 36.0 36
  179.04382 6.0 6
  180.0578 32.0 32
  191.0584 5.0 5
  204.24379 8.0 8
  206.03812 328.0 328
  207.03909 79.0 79
  207.04646 37.0 37
  208.05273 39.0 39
  209.06071 11.0 11
  219.03465 5.0 5
  219.04649 24.0 24
  235.03723 12.0 12
  236.04779 1000.0 999
  237.05 113.0 113
  238.04573 7.0 7
  266.19141 6.0 6
  280.03711 331.0 331
  281.03018 14.0 14
  281.04102 62.0 62
  282.04453 24.0 24
  283.04907 5.0 5
  326.02661 40.0 40
//
