ACCESSION: MSBNK-RIKEN-PR302186
RECORD_TITLE: Daidzein-8-C-glucoside; LC-ESI-QTOF; MS2
DATE: 2019.03.28
AUTHORS: Tetsuya Mori, Center for Sustainable Resource Science, RIKEN
LICENSE: CC BY-NC-SA
PUBLICATION: Tsugawa H., Nakabayashi R., Mori T., Yamada Y., Takahashi M., Rai A., Sugiyama R., Yamamoto H., Nakaya T., Yamazaki M., Kooke R., Bac-Molenaar JA., Oztolan-Erol N., Keurentjes JJB., Arita M., Saito K. (2019) "A cheminformatics approach to characterize metabolomes in stable-isotope-labeled organisms" Nature Methods 16(4):295-298. [doi:10.1038/s41592-019-0358-2]
COMMENT: registered in RIKEN PlaSMA
CH$NAME: Daidzein-8-C-glucoside
CH$COMPOUND_CLASS: Isoflavonoid C-glycosides
CH$FORMULA: C21H20O9
CH$EXACT_MASS: 416.382
CH$SMILES: OC[C@H]1O[C@H]([C@H](O)[C@@H](O)[C@@H]1O)C1=C(O)C=CC2=C1OC=C(C2=O)C1=CC=C(O)C=C1
CH$IUPAC: InChI=1S/C21H20O9/c22-7-14-17(26)18(27)19(28)21(30-14)15-13(24)6-5-11-16(25)12(8-29-20(11)15)9-1-3-10(23)4-2-9/h1-6,8,14,17-19,21-24,26-28H,7H2/t14-,17-,18+,19-,21+/m1/s1
CH$LINK: INCHIKEY HKEAFJYKMMKDOR-VPRICQMDSA-N
AC$INSTRUMENT: LC, Waters Acquity UPLC System; MS, Waters Xevo G2 Q-Tof
AC$INSTRUMENT_TYPE: LC-ESI-QTOF
AC$MASS_SPECTROMETRY: MS_TYPE MS2
AC$MASS_SPECTROMETRY: ION_MODE POSITIVE
AC$MASS_SPECTROMETRY: COLLISION_ENERGY 6V
AC$MASS_SPECTROMETRY: DESOLVATION_GAS_FLOW 800/h
AC$MASS_SPECTROMETRY: DESOLVATION_TEMPERATURE 450 C
AC$MASS_SPECTROMETRY: IONIZATION ESI
AC$CHROMATOGRAPHY: CAPILLARY_VOLTAGE +3.00 kV
AC$CHROMATOGRAPHY: COLUMN_NAME Acquity bridged ethyl hybrid C18 (1.7 um, 2.1 mm * 100 mm, Waters)
AC$CHROMATOGRAPHY: COLUMN_TEMPERATURE 40 C
AC$CHROMATOGRAPHY: FLOW_GRADIENT A/B = (99.5%/0.5% at 0 min, 99.5%/0.5% at 0.1 min, 20%/80% at 10 min, 0.5%/99.5% at 10.1 min, 0.5%/99.5% at 12.0 min, 99.5%/0.5% at 12.1 min, 99.5%/0.5% at 15.0 min)
AC$CHROMATOGRAPHY: FLOW_RATE 0.3 ml/min at 0 min, 0.3 ml/min at 10 min, 0.4 ml/min at 10.1 min, 0.4 ml/min at 14.4 min, 0.3 ml/min at 14.5 min
AC$CHROMATOGRAPHY: RETENTION_TIME 3.274983
AC$CHROMATOGRAPHY: SOLVENT A water including 0.1% formic acid
AC$CHROMATOGRAPHY: SOLVENT B acetonitrile including 0.1% formic acid
MS$FOCUSED_ION: PRECURSOR_TYPE [M+H]+
MS$FOCUSED_ION: PRECURSOR_M/Z 417.1180087
PK$SPLASH: splash10-014r-0490000000-0662ff3212cbc45d44e0
PK$NUM_PEAK: 231
PK$PEAK: m/z int. rel.int.
  67.05941 6.0 6
  85.02895 5.0 5
  89.03911 9.0 9
  91.03796 7.0 7
  91.05455 41.0 41
  93.03686 5.0 5
  94.04794 5.0 5
  95.01044 22.0 22
  95.04859 9.0 9
  103.0618 5.0 5
  105.03343 23.0 23
  105.03867 7.0 7
  105.06364 7.0 7
  106.04273 10.0 10
  107.04778 77.0 77
  115.05001 10.0 10
  115.05836 7.0 7
  118.04159 34.0 34
  119.04596 36.0 36
  119.05948 5.0 5
  121.0224 28.0 28
  121.02773 55.0 55
  122.02643 6.0 6
  122.03544 14.0 14
  122.03985 5.0 5
  123.04353 12.0 12
  127.05119 6.0 6
  127.05847 6.0 6
  128.06886 7.0 7
  129.06912 39.0 39
  129.07938 10.0 10
  131.04648 24.0 24
  133.01241 6.0 6
  133.02615 58.0 58
  134.03664 11.0 11
  134.04356 7.0 7
  135.04222 10.0 10
  135.05292 7.0 7
  136.04167 6.0 6
  136.04784 6.0 6
  137.02917 7.0 7
  141.06726 14.0 14
  141.07549 5.0 5
  144.05557 24.0 24
  145.02654 43.0 43
  145.03542 18.0 18
  145.06067 13.0 13
  146.03156 9.0 9
  147.03859 9.0 9
  149.01247 8.0 8
  149.02232 39.0 39
  151.04286 17.0 17
  152.05974 10.0 10
  153.06883 70.0 70
  155.05219 11.0 11
  155.07587 31.0 31
  155.08548 15.0 15
  157.0649 90.0 90
  158.03484 6.0 6
  158.87943 8.0 8
  161.00555 8.0 8
  161.02499 34.0 34
  161.0582 11.0 11
  162.02615 6.0 6
  162.75664 7.0 7
  162.98553 6.0 6
  163.03218 20.0 20
  163.0417 39.0 39
  164.05975 5.0 5
  165.05658 26.0 26
  165.07156 114.0 114
  166.07138 57.0 57
  166.08521 7.0 7
  167.03197 5.0 5
  167.06898 10.0 10
  167.07628 40.0 40
  167.08623 36.0 36
  168.03485 5.0 5
  168.04651 6.0 6
  169.05927 16.0 16
  170.01405 6.0 6
  170.03592 14.0 14
  171.05141 8.0 8
  173.03172 6.0 6
  173.05696 15.0 15
  175.03773 5.0 5
  175.04799 8.0 8
  176.0627 7.0 7
  177.06775 17.0 17
  178.07414 10.0 10
  178.08139 6.0 6
  179.02301 5.0 5
  179.07457 10.0 10
  179.08949 15.0 15
  181.05428 18.0 18
  181.06296 31.0 31
  182.05943 7.0 7
  182.07253 14.0 14
  182.11066 7.0 7
  183.08357 61.0 61
  185.05717 15.0 15
  189.05133 13.0 13
  189.0631 12.0 12
  189.08395 14.0 14
  189.2558 5.0 5
  190.06248 12.0 12
  190.08458 10.0 10
  191.0891 18.0 18
  193.06419 35.0 35
  193.07295 15.0 15
  194.07426 57.0 57
  195.04367 47.0 47
  195.06284 7.0 7
  195.07886 103.0 103
  196.04698 7.0 7
  196.05946 9.0 9
  196.08632 12.0 12
  197.06331 37.0 37
  197.10197 9.0 9
  198.06487 22.0 22
  200.04535 11.0 11
  203.093 5.0 5
  204.1037 13.0 13
  205.05701 14.0 14
  205.07274 16.0 16
  205.10695 5.0 5
  206.0701 8.0 8
  207.07423 10.0 10
  207.08493 28.0 28
  208.0881 37.0 37
  210.05212 6.0 6
  210.06427 17.0 17
  210.0818 7.0 7
  211.03529 5.0 5
  211.06914 25.0 25
  211.07982 41.0 41
  212.08176 23.0 23
  213.08675 7.0 7
  215.09117 12.0 12
  218.05832 6.0 6
  219.07486 22.0 22
  219.08809 17.0 17
  221.04773 5.0 5
  221.06316 46.0 46
  221.99701 8.0 8
  222.0659 29.0 29
  223.05681 8.0 8
  223.07397 73.0 73
  223.08366 19.0 19
  223.12633 5.0 5
  224.08028 19.0 19
  225.04878 13.0 13
  225.08737 13.0 13
  225.09798 9.0 9
  225.36855 5.0 5
  226.06123 28.0 28
  226.10162 9.0 9
  227.07306 6.0 6
  231.07784 11.0 11
  233.06636 6.0 6
  234.07266 10.0 10
  234.09953 10.0 10
  235.0656 7.0 7
  235.0874 15.0 15
  236.06435 10.0 10
  236.07611 8.0 8
  237.09129 21.0 21
  238.08957 8.0 8
  239.02005 9.0 9
  239.02975 10.0 10
  239.04002 17.0 17
  239.07042 1000.0 999
  240.07629 416.0 416
  241.06062 5.0 5
  241.07919 75.0 75
  241.091 16.0 16
  242.08725 5.0 5
  243.07669 9.0 9
  243.35297 6.0 6
  247.08363 9.0 9
  248.0822 12.0 12
  249.05508 14.0 14
  249.06517 11.0 11
  250.04317 5.0 5
  250.06172 15.0 15
  251.06097 5.0 5
  251.09937 7.0 7
  252.07626 35.0 35
  252.11017 7.0 7
  253.07176 8.0 8
  253.08878 24.0 24
  257.06708 12.0 12
  259.90137 7.0 7
  260.0835 6.0 6
  262.08789 6.0 6
  263.07565 49.0 49
  264.0697 8.0 8
  264.08444 11.0 11
  266.06317 6.0 6
  266.99289 7.0 7
  267.034 9.0 9
  267.06635 452.0 452
  268.04178 9.0 9
  268.07294 504.0 503
  268.48474 6.0 6
  269.06805 67.0 67
  269.08426 64.0 64
  270.07443 6.0 6
  273.10818 7.0 7
  275.07651 5.0 5
  276.07626 5.0 5
  278.08804 7.0 7
  279.06113 90.0 90
  279.07907 9.0 9
  280.06479 12.0 12
  281.06674 19.0 19
  281.07932 80.0 80
  281.11505 5.0 5
  282.07397 8.0 8
  289.08142 5.0 5
  293.08914 10.0 10
  295.03452 5.0 5
  295.11057 7.0 7
  297.04199 6.0 6
  297.0769 61.0 61
  298.08728 16.0 16
  305.08105 11.0 11
  307.08542 8.0 8
  333.05844 6.0 6
  333.10043 6.0 6
  363.08499 9.0 9
//
