ACCESSION: MSBNK-RIKEN-PR300276
RECORD_TITLE: Pteropodine; LC-ESI-QTOF; MS2
DATE: 2019.03.28
AUTHORS: Tetsuya Mori, Center for Sustainable Resource Science, RIKEN
LICENSE: CC BY-NC-SA
PUBLICATION: Tsugawa H., Nakabayashi R., Mori T., Yamada Y., Takahashi M., Rai A., Sugiyama R., Yamamoto H., Nakaya T., Yamazaki M., Kooke R., Bac-Molenaar JA., Oztolan-Erol N., Keurentjes JJB., Arita M., Saito K. (2019) "A cheminformatics approach to characterize metabolomes in stable-isotope-labeled organisms" Nature Methods 16(4):295-298. [doi:10.1038/s41592-019-0358-2]
COMMENT: registered in RIKEN PlaSMA
CH$NAME: Pteropodine
CH$COMPOUND_CLASS: Indolizidines
CH$FORMULA: C21H24N2O4
CH$EXACT_MASS: 368.433
CH$SMILES: COC(=O)C1=CO[C@@H](C)[C@@H]2CN3CC[C@@]4([C@@H]3C[C@H]12)C(O)=NC1=CC=CC=C41
CH$IUPAC: InChI=1S/C21H24N2O4/c1-12-14-10-23-8-7-21(16-5-3-4-6-17(16)22-20(21)25)18(23)9-13(14)15(11-27-12)19(24)26-2/h3-6,11-14,18H,7-10H2,1-2H3,(H,22,25)/t12-,13-,14-,18-,21+/m0/s1
CH$LINK: INCHIKEY JMIAZDVHNCCPDM-QLMFUGSGSA-N
AC$INSTRUMENT: LC, Waters Acquity UPLC System; MS, Waters Xevo G2 Q-Tof
AC$INSTRUMENT_TYPE: LC-ESI-QTOF
AC$MASS_SPECTROMETRY: MS_TYPE MS2
AC$MASS_SPECTROMETRY: ION_MODE POSITIVE
AC$MASS_SPECTROMETRY: COLLISION_ENERGY 6V
AC$MASS_SPECTROMETRY: DESOLVATION_GAS_FLOW 800/h
AC$MASS_SPECTROMETRY: DESOLVATION_TEMPERATURE 450 C
AC$MASS_SPECTROMETRY: IONIZATION ESI
AC$CHROMATOGRAPHY: CAPILLARY_VOLTAGE +3.00 kV
AC$CHROMATOGRAPHY: COLUMN_NAME Acquity bridged ethyl hybrid C18 (1.7 um, 2.1 mm * 100 mm, Waters)
AC$CHROMATOGRAPHY: COLUMN_TEMPERATURE 40 C
AC$CHROMATOGRAPHY: FLOW_GRADIENT A/B = (99.5%/0.5% at 0 min, 99.5%/0.5% at 0.1 min, 20%/80% at 10 min, 0.5%/99.5% at 10.1 min, 0.5%/99.5% at 12.0 min, 99.5%/0.5% at 12.1 min, 99.5%/0.5% at 15.0 min)
AC$CHROMATOGRAPHY: FLOW_RATE 0.3 ml/min at 0 min, 0.3 ml/min at 10 min, 0.4 ml/min at 10.1 min, 0.4 ml/min at 14.4 min, 0.3 ml/min at 14.5 min
AC$CHROMATOGRAPHY: RETENTION_TIME 4.235034
AC$CHROMATOGRAPHY: SOLVENT A water including 0.1% formic acid
AC$CHROMATOGRAPHY: SOLVENT B acetonitrile including 0.1% formic acid
MS$FOCUSED_ION: PRECURSOR_TYPE [M+H]+
MS$FOCUSED_ION: PRECURSOR_M/Z 369.1808837
PK$SPLASH: splash10-02al-0900000000-3aac9445fedc6029195d
PK$NUM_PEAK: 195
PK$PEAK: m/z int. rel.int.
  55.05534 7.0 7
  56.05012 17.0 17
  70.0657 6.0 6
  77.0293 6.0 6
  77.03873 28.0 28
  78.03542 8.0 8
  79.05477 18.0 18
  80.04716 19.0 19
  81.06812 14.0 14
  82.02865 7.0 7
  82.06062 9.0 9
  83.01485 8.0 8
  90.04363 6.0 6
  91.05493 60.0 60
  93.05587 6.0 6
  94.06853 10.0 10
  95.04946 10.0 10
  97.06643 8.0 8
  103.0515 23.0 23
  104.03849 5.0 5
  104.04897 42.0 42
  104.05734 6.0 6
  105.05356 9.0 9
  105.06819 45.0 45
  105.07593 10.0 10
  106.06537 24.0 24
  107.06772 7.0 7
  107.07623 7.0 7
  108.04585 9.0 9
  108.08089 98.0 98
  109.05055 6.0 6
  109.0846 10.0 10
  111.04194 5.0 5
  115.05421 547.0 546
  116.03361 5.0 5
  116.04993 49.0 49
  116.05856 56.0 56
  117.05672 463.0 463
  118.04561 12.0 12
  118.06493 279.0 279
  119.06741 34.0 34
  120.0432 7.0 7
  120.0748 5.0 5
  121.06686 5.0 5
  122.02168 8.0 8
  122.0274 9.0 9
  122.09249 9.0 9
  123.04459 5.0 5
  124.0306 6.0 6
  124.04067 61.0 61
  125.04077 6.0 6
  125.05458 5.0 5
  127.05506 32.0 32
  128.04826 42.0 42
  128.06155 8.0 8
  129.06964 8.0 8
  130.06459 316.0 316
  131.0705 68.0 68
  132.04384 678.0 677
  132.0607 9.0 9
  132.08067 967.0 966
  133.047 82.0 82
  133.08401 128.0 128
  134.09454 8.0 8
  135.04529 6.0 6
  139.04002 8.0 8
  140.04955 90.0 90
  141.05122 12.0 12
  141.07143 6.0 6
  142.03342 9.0 9
  142.04677 8.0 8
  142.06503 930.0 929
  143.03578 5.0 5
  143.05475 13.0 13
  143.06943 144.0 144
  144.03358 6.0 6
  144.04402 30.0 30
  144.08142 95.0 95
  145.04903 25.0 25
  145.05554 8.0 8
  145.07431 5.0 5
  145.08519 11.0 11
  146.05586 8.0 8
  146.06749 5.0 5
  146.09612 8.0 8
  147.05917 7.0 7
  150.09268 5.0 5
  152.0502 6.0 6
  153.04956 9.0 9
  153.07039 9.0 9
  154.04968 10.0 10
  154.06287 51.0 51
  154.07011 17.0 17
  156.04559 5.0 5
  156.07599 11.0 11
  156.08611 27.0 27
  157.03705 8.0 8
  157.08311 7.0 7
  158.05946 186.0 186
  158.08597 8.0 8
  158.09489 21.0 21
  159.0481 7.0 7
  159.06308 23.0 23
  159.06998 23.0 23
  159.08575 7.0 7
  159.09409 12.0 12
  159.10518 6.0 6
  160.05676 9.0 9
  160.07533 1000.0 999
  161.05515 5.0 5
  161.07927 132.0 132
  162.07648 10.0 10
  166.0667 16.0 16
  167.05719 18.0 18
  167.06421 17.0 17
  167.0742 21.0 21
  168.05544 6.0 6
  168.0779 57.0 57
  169.07501 30.0 30
  169.08624 10.0 10
  170.08403 6.0 6
  171.09647 12.0 12
  172.07526 34.0 34
  172.09006 6.0 6
  173.06229 5.0 5
  173.0825 17.0 17
  173.10062 10.0 10
  173.10869 20.0 20
  174.11253 8.0 8
  178.06816 6.0 6
  178.08817 19.0 19
  180.07875 5.0 5
  180.08661 6.0 6
  181.06932 9.0 9
  181.07629 13.0 13
  181.0863 11.0 11
  182.0625 9.0 9
  183.09349 5.0 5
  183.0995 9.0 9
  184.0621 7.0 7
  184.07646 28.0 28
  184.09721 7.0 7
  185.05711 9.0 9
  185.0679 21.0 21
  185.07945 39.0 39
  185.10191 10.0 10
  185.11023 5.0 5
  186.07466 32.0 32
  186.08665 12.0 12
  187.0603 6.0 6
  187.08321 18.0 18
  187.09251 13.0 13
  187.10326 8.0 8
  192.07602 11.0 11
  194.06128 5.0 5
  195.08951 11.0 11
  195.10451 6.0 6
  196.07433 5.0 5
  197.07211 10.0 10
  198.09451 8.0 8
  199.08572 44.0 44
  200.09747 9.0 9
  201.0946 37.0 37
  201.10452 58.0 58
  202.10797 7.0 7
  207.09076 5.0 5
  208.08176 6.0 6
  208.09735 6.0 6
  209.07578 22.0 22
  209.10355 5.0 5
  210.07024 13.0 13
  213.07733 6.0 6
  213.10382 72.0 72
  214.10217 15.0 15
  217.09448 7.0 7
  218.08189 13.0 13
  219.09195 7.0 7
  220.07155 7.0 7
  220.08762 9.0 9
  222.09349 8.0 8
  222.11845 7.0 7
  225.10425 9.0 9
  235.08945 14.0 14
  236.05652 9.0 9
  237.07628 12.0 12
  237.10405 39.0 39
  238.12343 7.0 7
  239.11806 8.0 8
  241.13002 7.0 7
  247.08501 13.0 13
  263.12222 5.0 5
  263.13141 6.0 6
  265.09641 47.0 47
  265.13992 5.0 5
  266.10565 6.0 6
//
