ACCESSION: MSBNK-RIKEN-PR300334
RECORD_TITLE: Formosanine; LC-ESI-QTOF; MS2
DATE: 2019.03.28
AUTHORS: Tetsuya Mori, Center for Sustainable Resource Science, RIKEN
LICENSE: CC BY-NC-SA
PUBLICATION: Tsugawa H., Nakabayashi R., Mori T., Yamada Y., Takahashi M., Rai A., Sugiyama R., Yamamoto H., Nakaya T., Yamazaki M., Kooke R., Bac-Molenaar JA., Oztolan-Erol N., Keurentjes JJB., Arita M., Saito K. (2019) "A cheminformatics approach to characterize metabolomes in stable-isotope-labeled organisms" Nature Methods 16(4):295-298. [doi:10.1038/s41592-019-0358-2]
COMMENT: registered in RIKEN PlaSMA
CH$NAME: Formosanine
CH$COMPOUND_CLASS: Indolizidines
CH$FORMULA: C21H24N2O4
CH$EXACT_MASS: 368.433
CH$SMILES: COC(=O)C1=CO[C@H](C)[C@H]2CN3CC[C@@]4([C@@H]3C[C@H]12)C(O)=NC1=CC=CC=C41
CH$IUPAC: InChI=1S/C21H24N2O4/c1-12-14-10-23-8-7-21(16-5-3-4-6-17(16)22-20(21)25)18(23)9-13(14)15(11-27-12)19(24)26-2/h3-6,11-14,18H,7-10H2,1-2H3,(H,22,25)/t12-,13+,14-,18+,21-/m1/s1
CH$LINK: INCHIKEY JMIAZDVHNCCPDM-XJKYNJMSSA-N
AC$INSTRUMENT: LC, Waters Acquity UPLC System; MS, Waters Xevo G2 Q-Tof
AC$INSTRUMENT_TYPE: LC-ESI-QTOF
AC$MASS_SPECTROMETRY: MS_TYPE MS2
AC$MASS_SPECTROMETRY: ION_MODE POSITIVE
AC$MASS_SPECTROMETRY: COLLISION_ENERGY 6V
AC$MASS_SPECTROMETRY: DESOLVATION_GAS_FLOW 800/h
AC$MASS_SPECTROMETRY: DESOLVATION_TEMPERATURE 450 C
AC$MASS_SPECTROMETRY: IONIZATION ESI
AC$CHROMATOGRAPHY: CAPILLARY_VOLTAGE +3.00 kV
AC$CHROMATOGRAPHY: COLUMN_NAME Acquity bridged ethyl hybrid C18 (1.7 um, 2.1 mm * 100 mm, Waters)
AC$CHROMATOGRAPHY: COLUMN_TEMPERATURE 40 C
AC$CHROMATOGRAPHY: FLOW_GRADIENT A/B = (99.5%/0.5% at 0 min, 99.5%/0.5% at 0.1 min, 20%/80% at 10 min, 0.5%/99.5% at 10.1 min, 0.5%/99.5% at 12.0 min, 99.5%/0.5% at 12.1 min, 99.5%/0.5% at 15.0 min)
AC$CHROMATOGRAPHY: FLOW_RATE 0.3 ml/min at 0 min, 0.3 ml/min at 10 min, 0.4 ml/min at 10.1 min, 0.4 ml/min at 14.4 min, 0.3 ml/min at 14.5 min
AC$CHROMATOGRAPHY: RETENTION_TIME 4.330417
AC$CHROMATOGRAPHY: SOLVENT A water including 0.1% formic acid
AC$CHROMATOGRAPHY: SOLVENT B acetonitrile including 0.1% formic acid
MS$FOCUSED_ION: PRECURSOR_TYPE [M+H]+
MS$FOCUSED_ION: PRECURSOR_M/Z 369.1808837
PK$SPLASH: splash10-03di-0911000000-d386d6d029b78501a971
PK$NUM_PEAK: 43
PK$PEAK: m/z int. rel.int.
  108.08043 17.0 17
  115.05405 6.0 6
  118.06396 17.0 17
  118.06981 7.0 7
  124.03907 43.0 43
  132.0452 29.0 29
  132.08046 96.0 96
  133.08458 10.0 10
  142.0647 91.0 91
  143.0649 9.0 9
  143.07227 10.0 10
  150.09099 25.0 25
  158.06038 46.0 46
  159.05997 6.0 6
  160.04358 5.0 5
  160.07556 1000.0 999
  160.11253 31.0 31
  161.07898 131.0 131
  162.08092 9.0 9
  178.08624 176.0 176
  179.08952 25.0 25
  187.08777 31.0 31
  199.08713 9.0 9
  201.10182 197.0 197
  202.10742 25.0 25
  210.11247 37.0 37
  211.11874 6.0 6
  213.10226 18.0 18
  239.12076 6.0 6
  241.13298 19.0 19
  265.09109 5.0 5
  265.13077 6.0 6
  265.1412 6.0 6
  267.15131 22.0 22
  281.0939 6.0 6
  281.16669 7.0 7
  291.14438 12.0 12
  309.16068 93.0 93
  310.1636 26.0 26
  337.15491 115.0 115
  338.15536 27.0 27
  367.16473 15.0 15
  369.18179 59.0 59
//
