ACCESSION: MSBNK-RIKEN-PR305500
RECORD_TITLE: Kaempferol-7-O-neohesperidoside; LC-ESI-QTOF; MS2
DATE: 2019.03.28
AUTHORS: Tetsuya Mori, Center for Sustainable Resource Science, RIKEN
LICENSE: CC BY-NC-SA
PUBLICATION: Tsugawa H., Nakabayashi R., Mori T., Yamada Y., Takahashi M., Rai A., Sugiyama R., Yamamoto H., Nakaya T., Yamazaki M., Kooke R., Bac-Molenaar JA., Oztolan-Erol N., Keurentjes JJB., Arita M., Saito K. (2019) "A cheminformatics approach to characterize metabolomes in stable-isotope-labeled organisms" Nature Methods 16(4):295-298. [doi:10.1038/s41592-019-0358-2]
COMMENT: registered in RIKEN PlaSMA
CH$NAME: Kaempferol-7-O-neohesperidoside
CH$COMPOUND_CLASS: Flavonoid-7-O-glycosides
CH$FORMULA: C27H30O15
CH$EXACT_MASS: 594.522
CH$SMILES: CC1OC(OC2C(O)C(O)C(CO)OC2OC2=CC(O)=C3C(=O)C(O)=C(OC3=C2)C2=CC=C(O)C=C2)C(O)C(O)C1O
CH$IUPAC: InChI=1S/C27H30O15/c1-9-17(31)20(34)23(37)26(38-9)42-25-21(35)18(32)15(8-28)41-27(25)39-12-6-13(30)16-14(7-12)40-24(22(36)19(16)33)10-2-4-11(29)5-3-10/h2-7,9,15,17-18,20-21,23,25-32,34-37H,8H2,1H3
CH$LINK: INCHIKEY ZEJXENDZTYVXDP-UHFFFAOYSA-N
AC$INSTRUMENT: LC, Waters Acquity UPLC System; MS, Waters Xevo G2 Q-Tof
AC$INSTRUMENT_TYPE: LC-ESI-QTOF
AC$MASS_SPECTROMETRY: MS_TYPE MS2
AC$MASS_SPECTROMETRY: ION_MODE NEGATIVE
AC$MASS_SPECTROMETRY: COLLISION_ENERGY 6V
AC$MASS_SPECTROMETRY: DESOLVATION_GAS_FLOW 800/h
AC$MASS_SPECTROMETRY: DESOLVATION_TEMPERATURE 450 C
AC$MASS_SPECTROMETRY: IONIZATION ESI
AC$CHROMATOGRAPHY: CAPILLARY_VOLTAGE -2.75 kV
AC$CHROMATOGRAPHY: COLUMN_NAME Acquity bridged ethyl hybrid C18 (1.7 um, 2.1 mm * 100 mm, Waters)
AC$CHROMATOGRAPHY: COLUMN_TEMPERATURE 40 C
AC$CHROMATOGRAPHY: FLOW_GRADIENT A/B = (99.5%/0.5% at 0 min, 99.5%/0.5% at 0.1 min, 20%/80% at 10 min, 0.5%/99.5% at 10.1 min, 0.5%/99.5% at 12.0 min, 99.5%/0.5% at 12.1 min, 99.5%/0.5% at 15.0 min)
AC$CHROMATOGRAPHY: FLOW_RATE 0.3 ml/min at 0 min, 0.3 ml/min at 10 min, 0.4 ml/min at 10.1 min, 0.4 ml/min at 14.4 min, 0.3 ml/min at 14.5 min
AC$CHROMATOGRAPHY: RETENTION_TIME 4.33045
AC$CHROMATOGRAPHY: SOLVENT A water including 0.1% formic acid
AC$CHROMATOGRAPHY: SOLVENT B acetonitrile including 0.1% formic acid
MS$FOCUSED_ION: PRECURSOR_TYPE [M-H]-
MS$FOCUSED_ION: PRECURSOR_M/Z 593.15119384783
PK$SPLASH: splash10-000l-0090050000-751ae7f5021045a8d6de
PK$NUM_PEAK: 32
PK$PEAK: m/z int. rel.int.
  188.04721 8.0 8
  192.00706 7.0 7
  205.01396 9.0 9
  235.02919 8.0 8
  235.20255 10.0 10
  242.04655 7.0 7
  255.02382 7.0 7
  267.03305 8.0 8
  283.022 8.0 8
  284.03525 36.0 36
  285.03894 1000.0 999
  286.03949 151.0 151
  286.04941 63.0 63
  287.04584 13.0 13
  295.66327 5.0 5
  309.04037 11.0 11
  327.04654 30.0 30
  327.06537 8.0 8
  328.06137 8.0 8
  329.05286 9.0 9
  358.27808 9.0 9
  369.05096 6.0 6
  370.06262 6.0 6
  426.47043 5.0 5
  429.08228 13.0 13
  460.13126 6.0 6
  473.09274 12.0 12
  501.01706 5.0 5
  559.01166 8.0 8
  581.10565 6.0 6
  592.79108 5.0 5
  593.15051 722.0 721
//
