ACCESSION: MSBNK-RIKEN-PR300844
RECORD_TITLE: Speciosine; LC-ESI-QTOF; MS2
DATE: 2019.03.28
AUTHORS: Tetsuya Mori, Center for Sustainable Resource Science, RIKEN
LICENSE: CC BY-NC-SA
PUBLICATION: Tsugawa H., Nakabayashi R., Mori T., Yamada Y., Takahashi M., Rai A., Sugiyama R., Yamamoto H., Nakaya T., Yamazaki M., Kooke R., Bac-Molenaar JA., Oztolan-Erol N., Keurentjes JJB., Arita M., Saito K. (2019) "A cheminformatics approach to characterize metabolomes in stable-isotope-labeled organisms" Nature Methods 16(4):295-298. [doi:10.1038/s41592-019-0358-2]
COMMENT: registered in RIKEN PlaSMA
CH$NAME: Speciosine
CH$COMPOUND_CLASS: Tropones
CH$FORMULA: C28H31NO6
CH$EXACT_MASS: 477.557
CH$SMILES: COC1=C(OC)C(OC)=C2C(CCC(N(C)CC3=CC=CC=C3O)C3=CC(=O)C(OC)=CC=C23)=C1
CH$IUPAC: InChI=1S/C28H31NO6/c1-29(16-18-8-6-7-9-22(18)30)21-12-10-17-14-25(33-3)27(34-4)28(35-5)26(17)19-11-13-24(32-2)23(31)15-20(19)21/h6-9,11,13-15,21,30H,10,12,16H2,1-5H3
CH$LINK: INCHIKEY SOFSXTKPGSIDCI-UHFFFAOYSA-N
AC$INSTRUMENT: LC, Waters Acquity UPLC System; MS, Waters Xevo G2 Q-Tof
AC$INSTRUMENT_TYPE: LC-ESI-QTOF
AC$MASS_SPECTROMETRY: MS_TYPE MS2
AC$MASS_SPECTROMETRY: ION_MODE POSITIVE
AC$MASS_SPECTROMETRY: COLLISION_ENERGY 6V
AC$MASS_SPECTROMETRY: DESOLVATION_GAS_FLOW 800/h
AC$MASS_SPECTROMETRY: DESOLVATION_TEMPERATURE 450 C
AC$MASS_SPECTROMETRY: IONIZATION ESI
AC$CHROMATOGRAPHY: CAPILLARY_VOLTAGE +3.00 kV
AC$CHROMATOGRAPHY: COLUMN_NAME Acquity bridged ethyl hybrid C18 (1.7 um, 2.1 mm * 100 mm, Waters)
AC$CHROMATOGRAPHY: COLUMN_TEMPERATURE 40 C
AC$CHROMATOGRAPHY: FLOW_GRADIENT A/B = (99.5%/0.5% at 0 min, 99.5%/0.5% at 0.1 min, 20%/80% at 10 min, 0.5%/99.5% at 10.1 min, 0.5%/99.5% at 12.0 min, 99.5%/0.5% at 12.1 min, 99.5%/0.5% at 15.0 min)
AC$CHROMATOGRAPHY: FLOW_RATE 0.3 ml/min at 0 min, 0.3 ml/min at 10 min, 0.4 ml/min at 10.1 min, 0.4 ml/min at 14.4 min, 0.3 ml/min at 14.5 min
AC$CHROMATOGRAPHY: RETENTION_TIME 5.032233
AC$CHROMATOGRAPHY: SOLVENT A water including 0.1% formic acid
AC$CHROMATOGRAPHY: SOLVENT B acetonitrile including 0.1% formic acid
MS$FOCUSED_ION: PRECURSOR_TYPE [M+H]+
MS$FOCUSED_ION: PRECURSOR_M/Z 478.2224142
PK$SPLASH: splash10-001d-0191000000-63905446fc8c74680ecb
PK$NUM_PEAK: 905
PK$PEAK: m/z int. rel.int.
  56.04388 8.0 8
  68.04723 11.0 11
  70.06087 37.0 37
  70.06559 23.0 23
  70.07405 8.0 8
  71.07994 9.0 9
  72.04436 45.0 45
  72.04879 30.0 30
  77.03728 17.0 17
  79.04887 9.0 9
  81.03958 10.0 10
  84.02984 7.0 7
  84.04557 9.0 9
  86.05713 7.0 7
  87.0733 13.0 13
  88.07259 7.0 7
  89.06442 11.0 11
  91.05527 7.0 7
  93.05054 9.0 9
  93.07108 8.0 8
  94.02313 7.0 7
  98.06312 9.0 9
  98.56921 7.0 7
  98.75581 7.0 7
  105.03451 15.0 15
  105.05087 7.0 7
  105.79637 12.0 12
  107.05039 360.0 360
  108.04804 7.0 7
  108.05709 18.0 18
  108.13092 7.0 7
  109.1152 9.0 9
  111.10223 10.0 10
  113.05348 7.0 7
  115.05805 7.0 7
  118.04699 9.0 9
  118.06448 8.0 8
  119.0534 7.0 7
  119.06358 15.0 15
  121.06275 9.0 9
  122.03728 8.0 8
  122.05896 14.0 14
  124.07275 8.0 8
  127.04855 9.0 9
  127.05656 7.0 7
  128.06754 10.0 10
  129.07466 23.0 23
  131.04285 7.0 7
  131.05484 11.0 11
  134.05952 8.0 8
  135.07253 8.0 8
  136.06364 22.0 22
  136.08017 76.0 76
  137.04237 10.0 10
  137.05823 129.0 129
  137.84236 7.0 7
  138.07419 8.0 8
  139.06078 16.0 16
  140.11218 9.0 9
  141.06441 10.0 10
  141.07304 7.0 7
  142.0795 15.0 15
  143.05484 14.0 14
  143.08267 10.0 10
  144.08247 7.0 7
  145.05263 8.0 8
  145.06636 82.0 82
  146.04245 13.0 13
  146.07314 17.0 17
  146.09676 17.0 17
  147.04776 12.0 12
  147.06892 29.0 29
  147.07645 8.0 8
  147.80591 9.0 9
  148.04181 9.0 9
  148.05276 9.0 9
  148.06232 8.0 8
  148.06976 7.0 7
  148.07848 18.0 18
  149.04733 14.0 14
  149.05553 35.0 35
  149.07532 16.0 16
  150.03896 7.0 7
  151.05003 10.0 10
  152.06255 19.0 19
  152.07329 17.0 17
  152.96565 7.0 7
  153.0636 15.0 15
  153.74457 7.0 7
  154.07521 7.0 7
  154.07964 15.0 15
  155.05553 8.0 8
  155.06769 8.0 8
  155.74622 8.0 8
  157.05121 9.0 9
  157.06873 12.0 12
  158.07411 10.0 10
  159.08881 7.0 7
  160.03915 7.0 7
  160.05011 8.0 8
  160.06049 19.0 19
  160.0723 26.0 26
  160.08058 23.0 23
  161.06392 12.0 12
  161.0777 7.0 7
  161.29781 8.0 8
  161.58911 7.0 7
  162.07066 7.0 7
  162.08113 10.0 10
  163.06218 8.0 8
  163.07706 19.0 19
  164.07079 55.0 55
  164.08133 14.0 14
  165.06386 36.0 36
  165.07178 57.0 57
  166.05164 9.0 9
  166.07283 63.0 63
  166.08109 31.0 31
  166.09204 7.0 7
  167.08304 92.0 92
  168.07578 8.0 8
  168.08882 34.0 34
  168.35782 9.0 9
  168.53294 9.0 9
  169.06488 34.0 34
  170.06802 9.0 9
  170.08017 16.0 16
  170.78369 7.0 7
  171.04868 9.0 9
  171.07684 45.0 45
  171.09045 10.0 10
  172.06795 8.0 8
  173.06219 36.0 36
  173.08492 12.0 12
  174.05684 17.0 17
  174.06714 10.0 10
  175.03334 10.0 10
  175.07047 17.0 17
  176.04897 16.0 16
  176.06752 25.0 25
  176.08046 41.0 41
  176.09315 13.0 13
  177.05267 12.0 12
  177.0695 24.0 24
  177.08997 48.0 48
  177.10127 14.0 14
  177.76089 11.0 11
  178.06525 16.0 16
  178.07887 84.0 84
  178.09406 7.0 7
  179.08215 58.0 58
  179.09122 44.0 44
  180.02072 7.0 7
  180.05585 21.0 21
  180.06229 22.0 22
  180.08293 17.0 17
  180.09273 7.0 7
  181.06085 76.0 76
  181.07317 36.0 36
  181.08574 68.0 68
  181.10332 47.0 47
  182.06944 82.0 82
  182.08658 7.0 7
  182.10399 19.0 19
  182.33589 7.0 7
  183.04587 7.0 7
  183.05438 8.0 8
  183.07336 25.0 25
  183.08411 40.0 40
  184.06902 8.0 8
  184.08795 33.0 33
  185.01665 22.0 22
  185.04721 8.0 8
  185.05591 31.0 31
  185.09369 48.0 48
  185.1032 19.0 19
  185.61673 10.0 10
  185.87221 11.0 11
  186.07849 8.0 8
  187.05807 23.0 23
  187.07297 7.0 7
  187.10565 16.0 16
  187.21448 7.0 7
  188.05267 8.0 8
  188.07993 50.0 50
  189.05437 10.0 10
  189.06924 21.0 21
  189.08858 9.0 9
  190.05206 7.0 7
  190.06409 11.0 11
  190.07314 19.0 19
  190.08466 61.0 61
  191.07069 109.0 109
  191.08057 107.0 107
  191.09131 46.0 46
  192.05101 21.0 21
  192.05731 9.0 9
  192.07182 12.0 12
  192.0802 11.0 11
  192.09409 31.0 31
  192.10837 10.0 10
  193.06316 9.0 9
  193.07198 7.0 7
  193.08344 16.0 16
  193.09631 16.0 16
  194.0731 90.0 90
  194.08992 31.0 31
  194.09645 17.0 17
  195.04729 17.0 17
  195.06482 13.0 13
  195.08176 357.0 357
  195.1124 7.0 7
  196.02702 13.0 13
  196.03934 7.0 7
  196.05112 7.0 7
  196.07393 19.0 19
  196.08324 110.0 110
  196.11412 7.0 7
  196.5089 7.0 7
  197.03577 20.0 20
  197.05194 53.0 53
  197.05905 143.0 143
  197.07199 36.0 36
  197.08403 46.0 46
  197.09813 52.0 52
  197.10738 27.0 27
  198.0639 65.0 65
  198.08492 7.0 7
  198.09093 15.0 15
  198.09892 12.0 12
  198.2747 8.0 8
  198.43042 7.0 7
  199.06842 23.0 23
  199.07784 57.0 57
  199.0903 13.0 13
  199.11856 8.0 8
  199.14308 12.0 12
  199.68005 9.0 9
  200.03923 7.0 7
  200.05157 25.0 25
  200.07472 10.0 10
  200.08342 7.0 7
  201.05066 43.0 43
  201.05919 11.0 11
  201.08284 36.0 36
  201.09537 22.0 22
  201.12891 7.0 7
  201.1649 10.0 10
  202.05206 9.0 9
  202.07025 7.0 7
  202.07878 7.0 7
  203.02908 16.0 16
  203.06319 18.0 18
  203.11394 14.0 14
  203.43752 7.0 7
  204.08197 21.0 21
  204.1001 10.0 10
  205.05692 63.0 63
  205.06728 23.0 23
  205.08304 10.0 10
  205.08865 30.0 30
  206.01494 17.0 17
  206.05452 7.0 7
  206.06589 19.0 19
  206.0753 87.0 87
  206.08694 19.0 19
  206.10052 7.0 7
  206.95557 9.0 9
  207.04398 8.0 8
  207.05333 8.0 8
  207.07318 106.0 106
  207.08574 103.0 103
  207.11295 14.0 14
  208.03285 9.0 9
  208.05641 17.0 17
  208.07329 17.0 17
  208.0867 104.0 104
  208.09862 32.0 32
  208.11517 19.0 19
  208.73613 9.0 9
  209.04601 19.0 19
  209.05533 40.0 40
  209.06514 80.0 80
  209.0818 31.0 31
  209.09583 134.0 134
  209.11285 11.0 11
  209.12987 9.0 9
  209.96832 7.0 7
  210.064 87.0 87
  210.07735 13.0 13
  210.09656 34.0 34
  210.11577 17.0 17
  211.0459 16.0 16
  211.07628 230.0 230
  211.1001 62.0 62
  211.10973 49.0 49
  212.02753 8.0 8
  212.04213 7.0 7
  212.05722 10.0 10
  212.07016 42.0 42
  212.08505 169.0 169
  212.11348 34.0 34
  212.30406 10.0 10
  213.00073 8.0 8
  213.04727 31.0 31
  213.0625 14.0 14
  213.08778 194.0 194
  213.09874 43.0 43
  213.11453 20.0 20
  214.05536 15.0 15
  214.06789 14.0 14
  214.08891 24.0 24
  214.09816 42.0 42
  215.02347 9.0 9
  215.04442 7.0 7
  215.07121 64.0 64
  215.09164 9.0 9
  215.10413 8.0 8
  215.11194 8.0 8
  215.48383 10.0 10
  215.85789 15.0 15
  216.0735 17.0 17
  217.06592 67.0 67
  217.07846 22.0 22
  217.10703 7.0 7
  217.84491 7.0 7
  218.0694 10.0 10
  218.08055 54.0 54
  218.09955 22.0 22
  218.10951 6.0 6
  218.22562 7.0 7
  219.05469 8.0 8
  219.07758 134.0 134
  219.10083 9.0 9
  219.59407 7.0 7
  220.03502 10.0 10
  220.04752 48.0 48
  220.06354 7.0 7
  220.08617 39.0 39
  220.09929 83.0 83
  220.11684 23.0 23
  220.94904 10.0 10
  221.04935 52.0 52
  221.05925 37.0 37
  221.07674 17.0 17
  221.09177 42.0 42
  221.10532 56.0 56
  221.55054 8.0 8
  222.00458 7.0 7
  222.04694 10.0 10
  222.05971 35.0 35
  222.07237 55.0 55
  222.09 35.0 35
  222.10181 42.0 42
  222.11188 16.0 16
  222.12863 8.0 8
  222.34291 8.0 8
  223.03931 7.0 7
  223.05431 11.0 11
  223.07695 400.0 400
  223.10175 25.0 25
  223.11121 48.0 48
  223.13506 35.0 35
  223.22105 8.0 8
  223.91483 7.0 7
  223.9333 7.0 7
  224.03035 8.0 8
  224.04614 30.0 30
  224.07622 172.0 172
  224.08624 169.0 169
  224.10107 25.0 25
  224.13539 7.0 7
  224.18915 10.0 10
  224.52364 14.0 14
  224.55737 8.0 8
  224.78293 8.0 8
  225.03479 23.0 23
  225.05179 130.0 130
  225.06046 118.0 118
  225.08267 85.0 85
  225.09499 194.0 194
  226.04242 8.0 8
  226.05023 8.0 8
  226.06435 47.0 47
  226.08853 66.0 66
  226.10187 68.0 68
  226.11729 19.0 19
  226.27791 7.0 7
  226.60725 7.0 7
  227.05316 25.0 25
  227.06769 187.0 187
  227.08188 94.0 94
  227.09903 54.0 54
  227.10808 44.0 44
  227.69603 7.0 7
  228.04213 7.0 7
  228.06339 10.0 10
  228.07268 27.0 27
  228.08528 8.0 8
  228.10669 33.0 33
  229.05708 12.0 12
  229.07899 54.0 54
  229.09329 62.0 62
  229.10966 16.0 16
  229.80911 9.0 9
  230.07378 10.0 10
  230.09489 47.0 47
  231.07759 9.0 9
  231.08632 16.0 16
  231.10298 18.0 18
  232.04225 7.0 7
  232.05196 7.0 7
  232.08278 7.0 7
  232.33221 10.0 10
  233.03787 7.0 7
  233.05522 34.0 34
  233.06381 40.0 40
  233.07513 53.0 53
  233.08789 16.0 16
  234.06386 111.0 111
  234.07443 36.0 36
  234.09158 52.0 52
  234.10295 39.0 39
  234.12735 36.0 36
  235.03871 33.0 33
  235.07663 599.0 598
  235.10139 23.0 23
  235.56847 7.0 7
  236.03046 8.0 8
  236.0717 101.0 101
  236.08499 233.0 233
  236.10896 81.0 81
  236.14772 7.0 7
  236.46686 7.0 7
  236.78157 7.0 7
  237.02216 8.0 8
  237.04126 16.0 16
  237.05786 82.0 82
  237.07825 73.0 73
  237.09082 349.0 349
  237.11029 41.0 41
  237.48643 10.0 10
  238.06281 49.0 49
  238.06966 21.0 21
  238.09477 192.0 192
  238.11697 19.0 19
  238.1637 7.0 7
  238.28906 8.0 8
  238.71501 8.0 8
  239.06833 174.0 174
  239.08514 78.0 78
  239.10703 558.0 557
  239.13033 10.0 10
  239.39886 12.0 12
  239.80217 8.0 8
  239.83078 7.0 7
  239.87837 8.0 8
  240.04219 7.0 7
  240.06728 108.0 108
  240.08018 229.0 229
  240.10893 162.0 162
  240.32176 8.0 8
  240.61781 12.0 12
  240.76096 7.0 7
  241.04596 10.0 10
  241.06044 44.0 44
  241.07802 241.0 241
  241.08784 715.0 714
  241.12212 7.0 7
  241.75089 12.0 12
  242.05658 39.0 39
  242.0858 97.0 97
  242.09837 53.0 53
  242.11296 24.0 24
  242.34383 7.0 7
  242.67677 8.0 8
  243.05489 7.0 7
  243.07385 10.0 10
  243.09593 16.0 16
  243.14172 10.0 10
  244.05096 9.0 9
  244.07181 45.0 45
  244.09035 8.0 8
  244.10846 13.0 13
  244.80876 18.0 18
  245.06837 15.0 15
  245.09099 7.0 7
  245.11584 7.0 7
  246.07574 8.0 8
  246.10774 7.0 7
  247.02834 18.0 18
  247.04398 23.0 23
  247.07224 32.0 32
  247.0836 38.0 38
  247.10442 17.0 17
  247.1776 7.0 7
  248.07681 54.0 54
  248.08636 52.0 52
  248.10094 80.0 80
  248.11293 36.0 36
  248.12444 7.0 7
  249.0542 72.0 72
  249.08473 102.0 102
  249.09702 90.0 90
  249.11665 30.0 30
  249.72617 8.0 8
  249.8334 8.0 8
  250.03807 16.0 16
  250.0621 39.0 39
  250.07814 66.0 66
  250.09212 169.0 169
  250.10606 87.0 87
  250.12299 38.0 38
  250.83859 7.0 7
  251.03307 7.0 7
  251.05933 95.0 95
  251.0721 386.0 386
  251.09235 209.0 209
  251.10371 135.0 135
  251.11874 34.0 34
  251.13216 52.0 52
  251.14969 35.0 35
  251.19624 7.0 7
  252.03978 7.0 7
  252.06335 111.0 111
  252.07843 332.0 332
  252.10262 152.0 152
  252.11748 61.0 61
  252.13237 28.0 28
  252.22749 8.0 8
  253.00453 8.0 8
  253.04356 55.0 55
  253.05238 95.0 95
  253.07552 138.0 138
  253.08736 315.0 315
  253.11882 59.0 59
  253.13753 8.0 8
  253.88826 8.0 8
  254.02202 8.0 8
  254.06046 43.0 43
  254.08513 88.0 88
  254.09862 129.0 129
  254.11662 151.0 151
  254.44798 8.0 8
  254.46715 11.0 11
  254.87675 9.0 9
  254.91307 9.0 9
  255.03082 7.0 7
  255.05666 65.0 65
  255.0686 124.0 124
  255.09445 342.0 342
  255.11423 147.0 147
  256.03195 7.0 7
  256.04568 6.0 6
  256.07266 224.0 224
  256.10202 194.0 194
  256.11572 187.0 187
  256.28082 8.0 8
  257.01492 14.0 14
  257.05432 17.0 17
  257.0719 109.0 109
  257.08707 231.0 231
  257.10953 56.0 56
  257.13324 19.0 19
  258.05289 7.0 7
  258.06393 15.0 15
  258.07718 23.0 23
  258.08459 32.0 32
  258.11566 9.0 9
  258.12897 9.0 9
  258.26276 8.0 8
  259.08087 8.0 8
  259.0929 8.0 8
  259.11124 17.0 17
  260.07944 24.0 24
  260.10794 62.0 62
  260.31473 8.0 8
  260.48633 8.0 8
  261.04517 7.0 7
  261.10172 16.0 16
  261.1167 33.0 33
  262.06323 51.0 51
  262.07874 47.0 47
  262.09531 37.0 37
  262.11661 9.0 9
  262.13782 33.0 33
  263.05667 37.0 37
  263.0733 145.0 145
  263.08859 35.0 35
  263.10553 19.0 19
  263.11993 7.0 7
  263.14276 7.0 7
  263.91711 7.0 7
  264.02835 19.0 19
  264.05847 19.0 19
  264.07281 80.0 80
  264.08276 86.0 86
  264.10159 184.0 184
  264.1207 13.0 13
  264.58563 7.0 7
  265.04163 7.0 7
  265.05579 13.0 13
  265.07101 48.0 48
  265.08585 235.0 235
  265.10379 82.0 82
  265.11591 133.0 133
  266.04031 18.0 18
  266.06619 33.0 33
  266.08798 266.0 266
  266.11356 113.0 113
  266.12277 31.0 31
  266.13718 12.0 12
  267.03436 7.0 7
  267.06091 81.0 81
  267.0777 151.0 151
  267.09625 523.0 522
  267.10751 309.0 309
  267.29929 7.0 7
  267.34616 7.0 7
  268.00488 8.0 8
  268.06717 102.0 102
  268.08029 108.0 108
  268.10178 161.0 161
  268.11646 89.0 89
  268.13251 33.0 33
  268.14795 17.0 17
  268.18143 7.0 7
  268.77905 7.0 7
  269.04068 8.0 8
  269.08115 274.0 274
  269.10846 71.0 71
  269.11877 69.0 69
  269.13821 14.0 14
  269.33145 9.0 9
  269.46005 12.0 12
  270.04715 14.0 14
  270.07684 89.0 89
  270.09485 150.0 150
  270.12347 45.0 45
  270.14554 9.0 9
  270.52979 7.0 7
  270.59543 9.0 9
  270.91708 7.0 7
  271.03058 13.0 13
  271.06339 35.0 35
  271.0892 161.0 161
  271.10001 55.0 55
  271.12311 91.0 91
  272.06851 51.0 51
  272.09439 111.0 111
  272.11292 99.0 99
  272.67108 8.0 8
  273.08026 7.0 7
  273.09616 7.0 7
  273.11227 19.0 19
  273.13269 12.0 12
  273.86441 8.0 8
  274.01102 7.0 7
  274.08557 7.0 7
  274.11603 7.0 7
  275.07632 26.0 26
  276.06271 8.0 8
  276.07562 9.0 9
  276.08643 21.0 21
  276.10312 35.0 35
  276.11316 18.0 18
  277.0513 9.0 9
  277.07864 76.0 76
  277.10434 67.0 67
  277.11682 37.0 37
  277.1265 36.0 36
  277.758 12.0 12
  277.9072 16.0 16
  278.05563 7.0 7
  278.08521 212.0 212
  278.11865 218.0 218
  278.13229 94.0 94
  279.00607 10.0 10
  279.03757 8.0 8
  279.05942 165.0 165
  279.07346 146.0 146
  279.09683 170.0 170
  279.11002 109.0 109
  279.12558 85.0 85
  279.14304 16.0 16
  280.03882 7.0 7
  280.05768 41.0 41
  280.07681 179.0 179
  280.10178 192.0 192
  280.11911 48.0 48
  280.13562 38.0 38
  280.79269 9.0 9
  281.03629 12.0 12
  281.05432 65.0 65
  281.08087 114.0 114
  281.09406 75.0 75
  281.10706 115.0 115
  281.11719 139.0 139
  281.13211 16.0 16
  281.69888 9.0 9
  281.93149 7.0 7
  282.05765 14.0 14
  282.0799 110.0 110
  282.09222 85.0 85
  282.11548 610.0 609
  283.04373 9.0 9
  283.05917 19.0 19
  283.09241 241.0 241
  283.10626 318.0 318
  283.12695 130.0 130
  284.05649 19.0 19
  284.08734 80.0 80
  284.10037 235.0 235
  284.1228 18.0 18
  284.13818 8.0 8
  284.48416 14.0 14
  285.05667 23.0 23
  285.07437 125.0 125
  285.09113 42.0 42
  285.10776 87.0 87
  285.13058 23.0 23
  285.91211 7.0 7
  286.0636 7.0 7
  286.07712 35.0 35
  286.10693 95.0 95
  286.13101 8.0 8
  287.06982 13.0 13
  287.09061 129.0 129
  287.09888 62.0 62
  287.12064 14.0 14
  288.08853 25.0 25
  288.10144 23.0 23
  288.64423 7.0 7
  289.75269 9.0 9
  290.08566 24.0 24
  290.11487 8.0 8
  290.69177 7.0 7
  291.06506 29.0 29
  291.08859 26.0 26
  291.10486 52.0 52
  291.13858 7.0 7
  291.15891 21.0 21
  291.51544 8.0 8
  291.69144 7.0 7
  292.05573 11.0 11
  292.08237 70.0 70
  292.09515 85.0 85
  292.10623 36.0 36
  292.1239 26.0 26
  292.90698 7.0 7
  293.08286 144.0 144
  293.10031 92.0 92
  293.11758 85.0 85
  294.03366 10.0 10
  294.08328 91.0 91
  294.11041 229.0 229
  294.14276 16.0 16
  294.94131 13.0 13
  294.95322 8.0 8
  295.01984 7.0 7
  295.06241 43.0 43
  295.09598 1000.0 999
  295.14331 7.0 7
  295.28384 7.0 7
  296.03976 8.0 8
  296.05817 66.0 66
  296.09164 128.0 128
  296.10632 210.0 210
  296.12717 289.0 289
  297.07373 17.0 17
  297.10159 116.0 116
  297.11609 56.0 56
  297.13315 80.0 80
  298.07755 22.0 22
  298.10733 147.0 147
  298.12607 43.0 43
  298.13736 17.0 17
  299.06528 11.0 11
  299.07742 30.0 30
  299.0943 64.0 64
  299.11346 23.0 23
  299.12689 49.0 49
  299.14548 11.0 11
  299.15463 7.0 7
  300.07147 25.0 25
  300.0994 42.0 42
  300.13919 27.0 27
  301.01801 8.0 8
  301.10336 40.0 40
  301.12375 7.0 7
  302.13727 9.0 9
  305.09341 10.0 10
  306.10309 86.0 86
  306.12885 8.0 8
  307.09653 24.0 24
  307.11191 19.0 19
  307.13315 17.0 17
  308.08475 14.0 14
  308.10208 33.0 33
  308.11511 76.0 76
  308.12863 65.0 65
  308.14499 7.0 7
  309.08618 59.0 59
  309.09723 71.0 71
  309.12656 58.0 58
  309.14511 83.0 83
  309.22549 7.0 7
  309.52661 7.0 7
  309.84705 10.0 10
  310.06799 17.0 17
  310.09363 92.0 92
  310.11566 444.0 444
  310.14771 30.0 30
  311.03543 9.0 9
  311.05713 11.0 11
  311.09222 321.0 321
  311.1156 52.0 52
  311.13663 48.0 48
  311.16714 7.0 7
  311.27878 10.0 10
  312.03659 7.0 7
  312.08066 48.0 48
  312.09927 37.0 37
  312.11429 43.0 43
  312.14783 27.0 27
  312.16461 33.0 33
  313.10266 60.0 60
  313.12006 80.0 80
  313.14078 13.0 13
  314.0647 9.0 9
  314.0824 30.0 30
  314.10483 111.0 111
  314.12817 49.0 49
  314.14334 36.0 36
  314.608 7.0 7
  315.08496 7.0 7
  315.10104 17.0 17
  315.12454 12.0 12
  315.13919 9.0 9
  315.15381 14.0 14
  315.20099 7.0 7
  316.1167 9.0 9
  316.90695 7.0 7
  320.12125 26.0 26
  322.11923 11.0 11
  322.14716 16.0 16
  323.10159 30.0 30
  323.1106 14.0 14
  323.1373 12.0 12
  324.0712 10.0 10
  324.08688 7.0 7
  324.10675 21.0 21
  324.12158 112.0 112
  324.13736 41.0 41
  325.04361 8.0 8
  325.09161 22.0 22
  325.10846 28.0 28
  325.13211 43.0 43
  325.15146 17.0 17
  326.07178 9.0 9
  326.09473 51.0 51
  326.13687 65.0 65
  327.10168 43.0 43
  327.12836 33.0 33
  327.13879 16.0 16
  327.15884 8.0 8
  328.1239 9.0 9
  328.13486 14.0 14
  328.15372 29.0 29
  329.1409 25.0 25
  329.15619 12.0 12
  330.11066 7.0 7
  331.04926 8.0 8
  334.82001 7.0 7
  336.63611 10.0 10
  337.13089 10.0 10
  338.11963 12.0 12
  338.13095 21.0 21
  338.14609 7.0 7
  338.46298 7.0 7
  339.13217 9.0 9
  339.14734 22.0 22
  340.10962 24.0 24
  340.13434 7.0 7
  340.16144 10.0 10
  341.10593 7.0 7
  341.11847 7.0 7
  342.12842 110.0 110
  342.15744 8.0 8
  343.12143 25.0 25
  343.14114 15.0 15
  343.15344 8.0 8
  344.14471 8.0 8
  346.11685 7.0 7
  351.02142 11.0 11
  356.14459 10.0 10
  357.14972 14.0 14
  358.16156 9.0 9
  368.14008 8.0 8
  372.18729 11.0 11
  373.19418 15.0 15
  387.13757 7.0 7
  459.82315 9.0 9
  478.17911 8.0 8
  478.21396 24.0 24
//
