ACCESSION: MSBNK-RIKEN-PR300064
RECORD_TITLE: Tabersonine; LC-ESI-QTOF; MS2
DATE: 2019.03.28
AUTHORS: Tetsuya Mori, Center for Sustainable Resource Science, RIKEN
LICENSE: CC BY-NC-SA
PUBLICATION: Tsugawa H., Nakabayashi R., Mori T., Yamada Y., Takahashi M., Rai A., Sugiyama R., Yamamoto H., Nakaya T., Yamazaki M., Kooke R., Bac-Molenaar JA., Oztolan-Erol N., Keurentjes JJB., Arita M., Saito K. (2019) "A cheminformatics approach to characterize metabolomes in stable-isotope-labeled organisms" Nature Methods 16(4):295-298. [doi:10.1038/s41592-019-0358-2]
COMMENT: registered in RIKEN PlaSMA
CH$NAME: Tabersonine
CH$COMPOUND_CLASS: Plumeran-type alkaloids
CH$FORMULA: C21H24N2O2
CH$EXACT_MASS: 336.435
CH$SMILES: CC[C@@]12CC(C(=O)OC)=C3NC4=CC=CC=C4[C@@]33CCN(CC=C1)[C@@H]23
CH$IUPAC: InChI=1S/C21H24N2O2/c1-3-20-9-6-11-23-12-10-21(19(20)23)15-7-4-5-8-16(15)22-17(21)14(13-20)18(24)25-2/h4-9,19,22H,3,10-13H2,1-2H3/t19-,20-,21-/m0/s1
CH$LINK: INCHIKEY FNGGIPWAZSFKCN-ACRUOGEOSA-N
AC$INSTRUMENT: LC, Waters Acquity UPLC System; MS, Waters Xevo G2 Q-Tof
AC$INSTRUMENT_TYPE: LC-ESI-QTOF
AC$MASS_SPECTROMETRY: MS_TYPE MS2
AC$MASS_SPECTROMETRY: ION_MODE POSITIVE
AC$MASS_SPECTROMETRY: COLLISION_ENERGY 6V
AC$MASS_SPECTROMETRY: DESOLVATION_GAS_FLOW 800/h
AC$MASS_SPECTROMETRY: DESOLVATION_TEMPERATURE 450 C
AC$MASS_SPECTROMETRY: IONIZATION ESI
AC$CHROMATOGRAPHY: CAPILLARY_VOLTAGE +3.00 kV
AC$CHROMATOGRAPHY: COLUMN_NAME Acquity bridged ethyl hybrid C18 (1.7 um, 2.1 mm * 100 mm, Waters)
AC$CHROMATOGRAPHY: COLUMN_TEMPERATURE 40 C
AC$CHROMATOGRAPHY: FLOW_GRADIENT A/B = (99.5%/0.5% at 0 min, 99.5%/0.5% at 0.1 min, 20%/80% at 10 min, 0.5%/99.5% at 10.1 min, 0.5%/99.5% at 12.0 min, 99.5%/0.5% at 12.1 min, 99.5%/0.5% at 15.0 min)
AC$CHROMATOGRAPHY: FLOW_RATE 0.3 ml/min at 0 min, 0.3 ml/min at 10 min, 0.4 ml/min at 10.1 min, 0.4 ml/min at 14.4 min, 0.3 ml/min at 14.5 min
AC$CHROMATOGRAPHY: RETENTION_TIME 5.19835
AC$CHROMATOGRAPHY: SOLVENT A water including 0.1% formic acid
AC$CHROMATOGRAPHY: SOLVENT B acetonitrile including 0.1% formic acid
MS$FOCUSED_ION: PRECURSOR_TYPE [M+H]+
MS$FOCUSED_ION: PRECURSOR_M/Z 337.1910545
PK$SPLASH: splash10-000i-0319000000-48809ab937bc2a529c7b
PK$NUM_PEAK: 40
PK$PEAK: m/z int. rel.int.
  107.0713 6.0 6
  108.08157 10.0 10
  122.09563 25.0 25
  130.06767 7.0 7
  134.09583 8.0 8
  136.11145 56.0 56
  144.08038 16.0 16
  154.06432 9.0 9
  156.07939 33.0 33
  157.086 8.0 8
  167.07249 22.0 22
  168.08044 151.0 151
  169.08394 27.0 27
  170.05943 8.0 8
  170.097 42.0 42
  171.09544 8.0 8
  196.077 53.0 53
  197.07808 11.0 11
  198.09076 5.0 5
  216.10197 14.0 14
  228.10204 98.0 98
  229.10048 16.0 16
  230.11273 11.0 11
  233.10466 5.0 5
  235.12393 6.0 6
  247.1244 12.0 12
  248.12933 6.0 6
  249.13864 50.0 50
  250.13872 6.0 6
  275.12103 8.0 8
  277.16083 10.0 10
  277.17099 21.0 21
  278.17825 8.0 8
  303.15195 7.0 7
  305.15549 50.0 50
  305.16589 153.0 153
  306.16821 46.0 46
  337.14474 5.0 5
  337.19144 1000.0 999
  337.24481 27.0 27
//
