ACCESSION: MSBNK-RIKEN-PR302084
RECORD_TITLE: Quercetin-3-O-glucosyl-6''-acetate; LC-ESI-QTOF; MS2
DATE: 2019.03.28
AUTHORS: Tetsuya Mori, Center for Sustainable Resource Science, RIKEN
LICENSE: CC BY-NC-SA
PUBLICATION: Tsugawa H., Nakabayashi R., Mori T., Yamada Y., Takahashi M., Rai A., Sugiyama R., Yamamoto H., Nakaya T., Yamazaki M., Kooke R., Bac-Molenaar JA., Oztolan-Erol N., Keurentjes JJB., Arita M., Saito K. (2019) "A cheminformatics approach to characterize metabolomes in stable-isotope-labeled organisms" Nature Methods 16(4):295-298. [doi:10.1038/s41592-019-0358-2]
COMMENT: registered in RIKEN PlaSMA
CH$NAME: Quercetin-3-O-glucosyl-6''-acetate
CH$COMPOUND_CLASS: Flavonoid-3-O-glycosides
CH$FORMULA: C23H22O13
CH$EXACT_MASS: 506.416
CH$SMILES: CC(=O)OC[C@H]1O[C@@H](OC2=C(OC3=CC(O)=CC(O)=C3C2=O)C2=CC(O)=C(O)C=C2)[C@H](O)[C@@H](O)[C@@H]1O
CH$IUPAC: InChI=1S/C23H22O13/c1-8(24)33-7-15-17(29)19(31)20(32)23(35-15)36-22-18(30)16-13(28)5-10(25)6-14(16)34-21(22)9-2-3-11(26)12(27)4-9/h2-6,15,17,19-20,23,25-29,31-32H,7H2,1H3/t15-,17-,19+,20-,23+/m1/s1
CH$LINK: INCHIKEY IGLUNMMNDNWZOA-LNNZMUSMSA-N
AC$INSTRUMENT: LC, Waters Acquity UPLC System; MS, Waters Xevo G2 Q-Tof
AC$INSTRUMENT_TYPE: LC-ESI-QTOF
AC$MASS_SPECTROMETRY: MS_TYPE MS2
AC$MASS_SPECTROMETRY: ION_MODE POSITIVE
AC$MASS_SPECTROMETRY: COLLISION_ENERGY 6V
AC$MASS_SPECTROMETRY: DESOLVATION_GAS_FLOW 800/h
AC$MASS_SPECTROMETRY: DESOLVATION_TEMPERATURE 450 C
AC$MASS_SPECTROMETRY: IONIZATION ESI
AC$CHROMATOGRAPHY: CAPILLARY_VOLTAGE +3.00 kV
AC$CHROMATOGRAPHY: COLUMN_NAME Acquity bridged ethyl hybrid C18 (1.7 um, 2.1 mm * 100 mm, Waters)
AC$CHROMATOGRAPHY: COLUMN_TEMPERATURE 40 C
AC$CHROMATOGRAPHY: FLOW_GRADIENT A/B = (99.5%/0.5% at 0 min, 99.5%/0.5% at 0.1 min, 20%/80% at 10 min, 0.5%/99.5% at 10.1 min, 0.5%/99.5% at 12.0 min, 99.5%/0.5% at 12.1 min, 99.5%/0.5% at 15.0 min)
AC$CHROMATOGRAPHY: FLOW_RATE 0.3 ml/min at 0 min, 0.3 ml/min at 10 min, 0.4 ml/min at 10.1 min, 0.4 ml/min at 14.4 min, 0.3 ml/min at 14.5 min
AC$CHROMATOGRAPHY: RETENTION_TIME 4.419233
AC$CHROMATOGRAPHY: SOLVENT A water including 0.1% formic acid
AC$CHROMATOGRAPHY: SOLVENT B acetonitrile including 0.1% formic acid
MS$FOCUSED_ION: PRECURSOR_TYPE [M+H]+
MS$FOCUSED_ION: PRECURSOR_M/Z 507.1133172
PK$SPLASH: splash10-0udi-2986000000-5caf41c8c3a9e62f2083
PK$NUM_PEAK: 88
PK$PEAK: m/z int. rel.int.
  69.03271 29.0 29
  69.03802 23.0 23
  81.03512 138.0 138
  83.6823 21.0 21
  85.02717 55.0 55
  87.05046 37.0 37
  93.03509 31.0 31
  97.0202 29.0 29
  97.02595 61.0 61
  97.03638 56.0 56
  105.06492 25.0 25
  107.01241 24.0 24
  109.01984 19.0 19
  109.02676 64.0 64
  109.03223 25.0 25
  111.00887 41.0 41
  117.06757 30.0 30
  121.02444 102.0 102
  123.04047 75.0 75
  127.03792 33.0 33
  130.07407 34.0 34
  131.04263 25.0 25
  137.01859 107.0 107
  137.02573 170.0 170
  145.06094 24.0 24
  149.03177 48.0 48
  152.94669 38.0 38
  152.981 23.0 23
  153.01668 461.0 461
  153.03613 21.0 21
  155.0546 58.0 58
  157.06085 29.0 29
  165.01932 110.0 110
  166.02495 83.0 83
  166.03455 23.0 23
  167.0085 31.0 31
  173.05333 33.0 33
  183.93323 37.0 37
  184.04948 24.0 24
  184.05594 24.0 24
  185.78365 22.0 22
  187.03255 38.0 38
  190.05359 24.0 24
  191.02469 39.0 39
  195.0244 38.0 38
  195.0367 42.0 42
  201.04788 46.0 46
  201.05751 264.0 264
  203.05739 33.0 33
  205.00089 31.0 31
  211.03795 26.0 26
  211.04678 101.0 101
  212.04709 37.0 37
  215.03905 26.0 26
  218.05286 28.0 28
  218.06514 31.0 31
  228.0412 104.0 104
  229.04153 89.0 89
  229.05618 180.0 180
  230.0296 21.0 21
  230.05502 46.0 46
  230.06969 40.0 40
  232.03325 31.0 31
  232.04929 40.0 40
  243.02621 23.0 23
  246.0713 44.0 44
  248.06296 76.0 76
  256.0415 30.0 30
  256.69473 52.0 52
  257.00815 23.0 23
  257.02808 24.0 24
  257.03793 85.0 85
  257.05096 34.0 34
  258.05579 31.0 31
  274.04877 124.0 124
  274.06027 172.0 172
  285.01202 32.0 32
  285.02939 29.0 29
  285.04514 57.0 57
  302.73807 23.0 23
  303.0015 23.0 23
  303.01205 45.0 45
  303.05304 1000.0 999
  303.18665 19.0 19
  304.04111 123.0 123
  304.06198 192.0 192
  305.06647 31.0 31
  305.08072 31.0 31
//
