ACCESSION: MSBNK-RIKEN-PR300373
RECORD_TITLE: Gelsevirine; LC-ESI-QTOF; MS2
DATE: 2019.03.28
AUTHORS: Tetsuya Mori, Center for Sustainable Resource Science, RIKEN
LICENSE: CC BY-NC-SA
PUBLICATION: Tsugawa H., Nakabayashi R., Mori T., Yamada Y., Takahashi M., Rai A., Sugiyama R., Yamamoto H., Nakaya T., Yamazaki M., Kooke R., Bac-Molenaar JA., Oztolan-Erol N., Keurentjes JJB., Arita M., Saito K. (2019) "A cheminformatics approach to characterize metabolomes in stable-isotope-labeled organisms" Nature Methods 16(4):295-298. [doi:10.1038/s41592-019-0358-2]
COMMENT: registered in RIKEN PlaSMA
CH$NAME: Gelsevirine
CH$COMPOUND_CLASS: Gelsemium alkaloids
CH$FORMULA: C21H24N2O3
CH$EXACT_MASS: 352.434
CH$SMILES: CON1C(=O)[C@@]2([C@H]3[C@H]4[C@H]5CO[C@@H]2C[C@H]5[C@@]3(CN4C)C=C)C2=CC=CC=C12
CH$IUPAC: InChI=1S/C21H24N2O3/c1-4-20-11-22(2)17-12-10-26-16(9-14(12)20)21(18(17)20)13-7-5-6-8-15(13)23(25-3)19(21)24/h4-8,12,14,16-18H,1,9-11H2,2-3H3/t12-,14+,16+,17+,18-,20-,21-/m0/s1
CH$LINK: INCHIKEY SSSCMFCWHWCCEH-MTYPYGCKSA-N
AC$INSTRUMENT: LC, Waters Acquity UPLC System; MS, Waters Xevo G2 Q-Tof
AC$INSTRUMENT_TYPE: LC-ESI-QTOF
AC$MASS_SPECTROMETRY: MS_TYPE MS2
AC$MASS_SPECTROMETRY: ION_MODE POSITIVE
AC$MASS_SPECTROMETRY: COLLISION_ENERGY 6V
AC$MASS_SPECTROMETRY: DESOLVATION_GAS_FLOW 800/h
AC$MASS_SPECTROMETRY: DESOLVATION_TEMPERATURE 450 C
AC$MASS_SPECTROMETRY: IONIZATION ESI
AC$CHROMATOGRAPHY: CAPILLARY_VOLTAGE +3.00 kV
AC$CHROMATOGRAPHY: COLUMN_NAME Acquity bridged ethyl hybrid C18 (1.7 um, 2.1 mm * 100 mm, Waters)
AC$CHROMATOGRAPHY: COLUMN_TEMPERATURE 40 C
AC$CHROMATOGRAPHY: FLOW_GRADIENT A/B = (99.5%/0.5% at 0 min, 99.5%/0.5% at 0.1 min, 20%/80% at 10 min, 0.5%/99.5% at 10.1 min, 0.5%/99.5% at 12.0 min, 99.5%/0.5% at 12.1 min, 99.5%/0.5% at 15.0 min)
AC$CHROMATOGRAPHY: FLOW_RATE 0.3 ml/min at 0 min, 0.3 ml/min at 10 min, 0.4 ml/min at 10.1 min, 0.4 ml/min at 14.4 min, 0.3 ml/min at 14.5 min
AC$CHROMATOGRAPHY: RETENTION_TIME 4.0535
AC$CHROMATOGRAPHY: SOLVENT A water including 0.1% formic acid
AC$CHROMATOGRAPHY: SOLVENT B acetonitrile including 0.1% formic acid
MS$FOCUSED_ION: PRECURSOR_TYPE [M+H]+
MS$FOCUSED_ION: PRECURSOR_M/Z 353.1859691
PK$SPLASH: splash10-0229-0492000000-fd14f13c0e13368b4fac
PK$NUM_PEAK: 494
PK$PEAK: m/z int. rel.int.
  58.06218 5.0 5
  69.05761 9.0 9
  70.05979 9.0 9
  70.06847 33.0 33
  73.08447 8.0 8
  79.03723 5.0 5
  79.05264 13.0 13
  79.05714 8.0 8
  80.04694 10.0 10
  80.05646 9.0 9
  81.03327 6.0 6
  81.05223 5.0 5
  82.0594 19.0 19
  82.0641 19.0 19
  82.07 8.0 8
  84.08302 6.0 6
  85.73506 6.0 6
  86.0586 26.0 26
  87.06337 10.0 10
  87.07162 19.0 19
  91.05178 8.0 8
  92.05727 8.0 8
  93.06831 19.0 19
  94.05903 17.0 17
  94.06565 55.0 55
  95.07052 11.0 11
  95.07561 10.0 10
  96.08015 21.0 21
  97.08455 8.0 8
  98.09079 15.0 15
  98.09475 14.0 14
  99.07197 7.0 7
  100.07568 35.0 35
  103.05846 6.0 6
  105.06632 16.0 16
  105.07304 6.0 6
  106.06408 5.0 5
  106.0761 6.0 6
  107.05774 6.0 6
  107.06661 24.0 24
  107.53436 6.0 6
  108.08141 294.0 294
  109.08573 57.0 57
  110.0585 29.0 29
  110.09644 378.0 378
  111.06621 8.0 8
  111.09147 10.0 10
  111.10025 33.0 33
  111.10602 17.0 17
  112.06931 13.0 13
  112.10441 9.0 9
  114.09076 8.0 8
  115.05878 5.0 5
  117.06918 22.0 22
  118.06348 10.0 10
  118.08006 8.0 8
  119.06821 8.0 8
  120.06808 12.0 12
  120.08109 222.0 222
  121.07275 9.0 9
  121.08836 123.0 123
  122.05862 7.0 7
  122.09722 26.0 26
  122.10374 11.0 11
  123.07527 8.0 8
  124.06976 7.0 7
  124.08 49.0 49
  124.11214 5.0 5
  125.08168 8.0 8
  126.09186 25.0 25
  127.09653 11.0 11
  129.05855 5.0 5
  129.06825 20.0 20
  130.06728 27.0 27
  130.08282 6.0 6
  131.07538 11.0 11
  131.08514 17.0 17
  132.03471 10.0 10
  132.04254 33.0 33
  132.05525 7.0 7
  132.08202 69.0 69
  133.02132 7.0 7
  133.04713 14.0 14
  133.06844 11.0 11
  133.08449 43.0 43
  133.09288 59.0 59
  134.08836 21.0 21
  134.09712 19.0 19
  134.10716 13.0 13
  135.05359 5.0 5
  135.09972 19.0 19
  137.0779 6.0 6
  137.10844 5.0 5
  138.09122 15.0 15
  139.10062 42.0 42
  140.10057 18.0 18
  141.06419 15.0 15
  143.06773 8.0 8
  144.07732 10.0 10
  144.08565 14.0 14
  145.04649 15.0 15
  145.0833 14.0 14
  145.0918 8.0 8
  145.1015 11.0 11
  146.06113 34.0 34
  146.09596 98.0 98
  146.10739 9.0 9
  146.41713 8.0 8
  147.07997 7.0 7
  147.09669 11.0 11
  147.1062 9.0 9
  148.0735 19.0 19
  148.11218 33.0 33
  148.93326 8.0 8
  149.08208 7.0 7
  149.12166 10.0 10
  150.05417 7.0 7
  150.09821 9.0 9
  151.09895 138.0 138
  152.10292 18.0 18
  156.05856 13.0 13
  156.08064 32.0 32
  157.08897 6.0 6
  157.25287 6.0 6
  158.06274 38.0 38
  158.09222 8.0 8
  158.09959 20.0 20
  159.06815 21.0 21
  159.10428 46.0 46
  160.07173 8.0 8
  160.07971 17.0 17
  160.11076 38.0 38
  161.10271 11.0 11
  161.11723 16.0 16
  162.08716 10.0 10
  162.09502 9.0 9
  162.10788 6.0 6
  162.13635 7.0 7
  164.10197 26.0 26
  164.11232 29.0 29
  165.04614 11.0 11
  165.10495 6.0 6
  166.06337 17.0 17
  167.06633 17.0 17
  167.07509 21.0 21
  169.07956 14.0 14
  169.08737 8.0 8
  170.05879 12.0 12
  170.06871 12.0 12
  172.0742 16.0 16
  172.09901 22.0 22
  172.10893 22.0 22
  172.11739 17.0 17
  173.06302 7.0 7
  173.11771 16.0 16
  174.05052 6.0 6
  174.08138 7.0 7
  176.10666 18.0 18
  176.14621 11.0 11
  177.39224 6.0 6
  178.06172 6.0 6
  178.12236 6.0 6
  179.0844 6.0 6
  180.07951 73.0 73
  181.07999 10.0 10
  181.099 6.0 6
  182.061 20.0 20
  182.09294 12.0 12
  183.06386 57.0 57
  184.05074 9.0 9
  184.07578 110.0 110
  185.0703 20.0 20
  185.08511 8.0 8
  185.108 6.0 6
  185.9735 5.0 5
  186.05957 6.0 6
  186.12521 12.0 12
  186.13768 8.0 8
  187.09044 6.0 6
  188.08963 7.0 7
  189.22446 8.0 8
  190.11726 15.0 15
  190.12556 25.0 25
  191.12727 5.0 5
  191.13484 11.0 11
  192.13753 12.0 12
  193.06642 8.0 8
  193.08194 7.0 7
  193.09198 21.0 21
  194.08932 14.0 14
  194.09596 27.0 27
  195.06664 122.0 122
  195.09007 5.0 5
  195.10577 11.0 11
  196.07542 100.0 100
  196.09283 18.0 18
  196.11151 52.0 52
  197.06407 20.0 20
  197.07614 42.0 42
  197.1147 14.0 14
  198.05769 5.0 5
  198.07523 18.0 18
  198.09412 20.0 20
  198.12068 7.0 7
  199.05547 5.0 5
  199.0869 26.0 26
  199.65678 6.0 6
  200.06422 8.0 8
  200.08324 21.0 21
  200.09137 8.0 8
  201.09955 11.0 11
  202.07089 11.0 11
  203.08151 5.0 5
  204.08006 18.0 18
  204.10938 7.0 7
  206.08904 18.0 18
  206.10593 19.0 19
  207.07454 15.0 15
  207.0976 6.0 6
  207.10713 5.0 5
  208.05664 6.0 6
  208.07623 112.0 112
  208.10043 8.0 8
  209.08624 34.0 34
  209.11543 15.0 15
  209.13512 5.0 5
  210.07518 16.0 16
  210.08884 48.0 48
  210.11046 7.0 7
  211.0865 270.0 270
  211.10201 29.0 29
  212.06441 42.0 42
  212.07945 37.0 37
  212.09299 43.0 43
  212.112 9.0 9
  212.1385 5.0 5
  213.07184 8.0 8
  213.09846 42.0 42
  214.092 7.0 7
  214.10466 9.0 9
  214.75291 7.0 7
  215.08505 15.0 15
  215.32054 5.0 5
  216.08507 20.0 20
  216.1084 7.0 7
  217.08289 32.0 32
  217.09396 18.0 18
  218.07661 5.0 5
  218.09073 39.0 39
  218.10669 18.0 18
  218.12761 7.0 7
  218.95471 7.0 7
  219.10147 17.0 17
  219.11684 28.0 28
  220.061 7.0 7
  220.07462 32.0 32
  220.09045 14.0 14
  220.1075 26.0 26
  220.12399 37.0 37
  221.08191 12.0 12
  221.0975 8.0 8
  221.11653 27.0 27
  222.05 5.0 5
  222.09125 85.0 85
  222.11905 15.0 15
  222.1357 20.0 20
  223.09328 58.0 58
  223.10687 9.0 9
  223.12485 6.0 6
  223.13521 9.0 9
  224.06053 8.0 8
  224.07413 5.0 5
  224.09506 45.0 45
  225.09189 12.0 12
  225.10771 19.0 19
  226.0726 5.0 5
  226.09238 10.0 10
  226.10471 12.0 12
  227.07803 19.0 19
  228.08 15.0 15
  229.05112 6.0 6
  229.0963 23.0 23
  230.09088 43.0 43
  230.10211 49.0 49
  231.09978 40.0 40
  231.1145 16.0 16
  231.12692 8.0 8
  232.05298 6.0 6
  232.07275 6.0 6
  232.10001 12.0 12
  232.11458 35.0 35
  232.12726 5.0 5
  233.04198 6.0 6
  233.08246 41.0 41
  233.10164 18.0 18
  233.11462 52.0 52
  234.07588 11.0 11
  234.09334 151.0 151
  234.12491 72.0 72
  234.55272 8.0 8
  235.07753 7.0 7
  235.09802 59.0 59
  235.11211 19.0 19
  235.12474 18.0 18
  236.06993 20.0 20
  236.08516 7.0 7
  236.10493 106.0 106
  236.12968 40.0 40
  236.15332 7.0 7
  237.10072 154.0 154
  237.12143 12.0 12
  237.13139 6.0 6
  237.14578 6.0 6
  238.09111 44.0 44
  238.11287 20.0 20
  238.12862 6.0 6
  239.11913 29.0 29
  240.07513 10.0 10
  240.09915 6.0 6
  240.1219 15.0 15
  241.07565 7.0 7
  241.08617 20.0 20
  242.05589 8.0 8
  242.08867 59.0 59
  242.10004 82.0 82
  243.08026 7.0 7
  243.10301 45.0 45
  244.08598 11.0 11
  244.11107 75.0 75
  245.0746 8.0 8
  245.08278 29.0 29
  245.10654 14.0 14
  245.12489 21.0 21
  246.03683 9.0 9
  246.06767 20.0 20
  246.092 202.0 202
  246.11621 16.0 16
  246.13557 8.0 8
  247.1001 81.0 81
  247.11734 15.0 15
  247.1326 11.0 11
  248.07101 8.0 8
  248.09676 54.0 54
  248.10773 216.0 216
  248.13927 26.0 26
  249.07881 15.0 15
  249.1068 108.0 108
  249.11778 41.0 41
  249.13063 14.0 14
  250.1046 14.0 14
  250.11971 72.0 72
  250.14139 10.0 10
  250.16383 20.0 20
  251.10829 17.0 17
  251.12531 35.0 35
  251.13374 23.0 23
  252.11308 17.0 17
  252.12425 9.0 9
  252.13777 10.0 10
  252.84404 6.0 6
  253.1024 15.0 15
  253.12692 9.0 9
  253.14018 11.0 11
  253.17856 5.0 5
  254.09621 27.0 27
  254.10709 18.0 18
  255.08868 7.0 7
  255.10626 11.0 11
  256.1142 12.0 12
  257.09302 7.0 7
  258.08969 63.0 63
  258.09821 44.0 44
  260.10678 533.0 532
  260.90109 6.0 6
  261.08908 16.0 16
  261.10962 177.0 177
  261.12796 19.0 19
  261.13858 13.0 13
  261.17307 7.0 7
  262.12396 78.0 78
  262.14551 15.0 15
  262.15915 24.0 24
  262.17581 7.0 7
  263.0813 10.0 10
  263.10178 22.0 22
  263.12561 114.0 114
  263.14938 10.0 10
  263.15985 5.0 5
  263.1734 7.0 7
  264.09692 6.0 6
  264.10538 8.0 8
  264.13022 94.0 94
  264.14703 6.0 6
  264.17215 8.0 8
  264.35062 5.0 5
  265.10974 16.0 16
  265.13547 17.0 17
  265.15216 24.0 24
  265.39563 6.0 6
  266.14374 12.0 12
  266.15457 7.0 7
  267.09964 6.0 6
  267.12357 5.0 5
  267.16537 5.0 5
  271.1265 6.0 6
  272.06738 14.0 14
  272.08118 13.0 13
  272.10742 131.0 131
  272.13306 9.0 9
  273.07864 12.0 12
  273.11047 96.0 96
  273.13425 10.0 10
  274.10321 7.0 7
  274.11401 16.0 16
  274.12479 34.0 34
  275.11127 40.0 40
  275.12296 39.0 39
  275.14929 17.0 17
  275.15945 20.0 20
  276.10776 19.0 19
  276.12753 50.0 50
  276.16016 20.0 20
  277.13513 68.0 68
  277.17734 24.0 24
  278.12067 12.0 12
  278.14676 30.0 30
  278.16675 8.0 8
  279.12375 19.0 19
  279.13739 23.0 23
  279.15689 16.0 16
  280.11148 7.0 7
  280.12601 24.0 24
  280.16617 107.0 107
  280.19342 6.0 6
  281.12241 11.0 11
  281.17291 17.0 17
  281.19 7.0 7
  282.12366 5.0 5
  287.12036 6.0 6
  288.12857 9.0 9
  289.08856 10.0 10
  289.10876 20.0 20
  289.13733 247.0 247
  290.11688 17.0 17
  290.13324 63.0 63
  290.14139 19.0 19
  291.11313 7.0 7
  291.14868 562.0 561
  291.18256 7.0 7
  292.1152 6.0 6
  292.13992 53.0 53
  292.1557 113.0 113
  292.56989 8.0 8
  293.13071 31.0 31
  293.15799 26.0 26
  293.1716 13.0 13
  294.14844 8.0 8
  294.16599 58.0 58
  294.17795 65.0 65
  295.14252 8.0 8
  295.17487 9.0 9
  295.18561 7.0 7
  301.13205 8.0 8
  303.13712 53.0 53
  303.14966 133.0 133
  304.15338 87.0 87
  304.16217 44.0 44
  304.32715 7.0 7
  305.13992 8.0 8
  305.16187 47.0 47
  305.1813 20.0 20
  306.16711 10.0 10
  307.13351 26.0 26
  307.15054 53.0 53
  308.13882 15.0 15
  308.15237 38.0 38
  317.03485 8.0 8
  321.13342 9.0 9
  321.15662 79.0 79
  321.18091 13.0 13
  321.86935 5.0 5
  322.11539 6.0 6
  322.13882 25.0 25
  322.16833 1000.0 999
  322.85406 7.0 7
  323.14029 28.0 28
  323.16257 107.0 107
  323.17368 189.0 189
  324.15845 11.0 11
  324.17282 22.0 22
  324.59662 5.0 5
  326.57468 6.0 6
  338.18353 5.0 5
  353.18051 87.0 87
//
