ACCESSION: MSBNK-RIKEN-PR302090
RECORD_TITLE: Biochanin A; LC-ESI-QTOF; MS2
DATE: 2019.03.28
AUTHORS: Tetsuya Mori, Center for Sustainable Resource Science, RIKEN
LICENSE: CC BY-NC-SA
PUBLICATION: Tsugawa H., Nakabayashi R., Mori T., Yamada Y., Takahashi M., Rai A., Sugiyama R., Yamamoto H., Nakaya T., Yamazaki M., Kooke R., Bac-Molenaar JA., Oztolan-Erol N., Keurentjes JJB., Arita M., Saito K. (2019) "A cheminformatics approach to characterize metabolomes in stable-isotope-labeled organisms" Nature Methods 16(4):295-298. [doi:10.1038/s41592-019-0358-2]
COMMENT: registered in RIKEN PlaSMA
CH$NAME: Biochanin A
CH$COMPOUND_CLASS: 4'-O-methylisoflavones
CH$FORMULA: C16H12O5
CH$EXACT_MASS: 284.267
CH$SMILES: COC1=CC=C(C=C1)C1=COC2=CC(O)=CC(O)=C2C1=O
CH$IUPAC: InChI=1S/C16H12O5/c1-20-11-4-2-9(3-5-11)12-8-21-14-7-10(17)6-13(18)15(14)16(12)19/h2-8,17-18H,1H3
CH$LINK: INCHIKEY WUADCCWRTIWANL-UHFFFAOYSA-N
AC$INSTRUMENT: LC, Waters Acquity UPLC System; MS, Waters Xevo G2 Q-Tof
AC$INSTRUMENT_TYPE: LC-ESI-QTOF
AC$MASS_SPECTROMETRY: MS_TYPE MS2
AC$MASS_SPECTROMETRY: ION_MODE POSITIVE
AC$MASS_SPECTROMETRY: COLLISION_ENERGY 6V
AC$MASS_SPECTROMETRY: DESOLVATION_GAS_FLOW 800/h
AC$MASS_SPECTROMETRY: DESOLVATION_TEMPERATURE 450 C
AC$MASS_SPECTROMETRY: IONIZATION ESI
AC$CHROMATOGRAPHY: CAPILLARY_VOLTAGE +3.00 kV
AC$CHROMATOGRAPHY: COLUMN_NAME Acquity bridged ethyl hybrid C18 (1.7 um, 2.1 mm * 100 mm, Waters)
AC$CHROMATOGRAPHY: COLUMN_TEMPERATURE 40 C
AC$CHROMATOGRAPHY: FLOW_GRADIENT A/B = (99.5%/0.5% at 0 min, 99.5%/0.5% at 0.1 min, 20%/80% at 10 min, 0.5%/99.5% at 10.1 min, 0.5%/99.5% at 12.0 min, 99.5%/0.5% at 12.1 min, 99.5%/0.5% at 15.0 min)
AC$CHROMATOGRAPHY: FLOW_RATE 0.3 ml/min at 0 min, 0.3 ml/min at 10 min, 0.4 ml/min at 10.1 min, 0.4 ml/min at 14.4 min, 0.3 ml/min at 14.5 min
AC$CHROMATOGRAPHY: RETENTION_TIME 7.6348
AC$CHROMATOGRAPHY: SOLVENT A water including 0.1% formic acid
AC$CHROMATOGRAPHY: SOLVENT B acetonitrile including 0.1% formic acid
MS$FOCUSED_ION: PRECURSOR_TYPE [M+H]+
MS$FOCUSED_ION: PRECURSOR_M/Z 285.0757499
PK$SPLASH: splash10-000i-0190000000-4360b5bbce1a037f3fd2
PK$NUM_PEAK: 32
PK$PEAK: m/z int. rel.int.
  118.04081 14.0 14
  123.04482 15.0 15
  124.00903 7.0 7
  124.01504 21.0 21
  133.06517 8.0 8
  149.02251 24.0 24
  152.00868 53.0 53
  153.015 12.0 12
  153.02469 5.0 5
  158.03607 18.0 18
  159.04083 5.0 5
  179.03604 15.0 15
  186.06148 7.0 7
  197.0596 16.0 16
  213.05342 73.0 73
  214.06035 9.0 9
  225.05763 7.0 7
  229.08388 30.0 30
  229.09818 7.0 7
  230.08562 6.0 6
  241.05023 27.0 27
  242.05194 18.0 18
  242.06337 17.0 17
  243.05048 9.0 9
  243.0643 6.0 6
  253.04948 35.0 35
  269.04492 58.0 58
  270.04941 57.0 57
  271.05676 8.0 8
  285.0336 20.0 20
  285.07394 1000.0 999
  285.12192 21.0 21
//
