ACCESSION: MSBNK-RIKEN-PR100552
RECORD_TITLE: D-Ribose 5-phosphate; LC-ESI-QTOF; MS2; CE:Ramp 5-60 V; [M-H]-
DATE: 2016.01.19 (Created 2009.09.10, modified 2011.05.06)
AUTHORS: Matsuda F, Suzuki M, Sawada Y, Plant Science Center, RIKEN.
LICENSE: CC BY-SA
COMMENT: Acquisition and generation of the data is financially supported in part by CREST/JST.
CH$NAME: D-Ribose-5-phosphate
CH$NAME: Rib-5P
CH$NAME: R-5-P
CH$NAME: D-Ribofuranose 5-phosphate
CH$NAME: D-Ribose 5-phosphate
CH$COMPOUND_CLASS: Natural Product; Carbohydrate; Phosphates
CH$FORMULA: C5H11O8P
CH$EXACT_MASS: 230.01915
CH$SMILES: OC(O1)[C@H](O)[C@H](O)[C@H]1COP(O)(O)=O
CH$IUPAC: InChI=1S/C5H11O8P/c6-3-2(1-12-14(9,10)11)13-5(8)4(3)7/h2-8H,1H2,(H2,9,10,11)/t2-,3-,4-,5?/m1/s1
CH$LINK: CAS 4300-28-1
CH$LINK: CHEMSPIDER 388313
CH$LINK: KEGG C00117
CH$LINK: KNAPSACK C00007473
CH$LINK: PUBCHEM CID:439167
CH$LINK: INCHIKEY KTVPXOYAKDPRHY-SOOFDHNKSA-N
AC$INSTRUMENT: UPLC Q-Tof Premier, Waters
AC$INSTRUMENT_TYPE: LC-ESI-QTOF
AC$MASS_SPECTROMETRY: MS_TYPE MS2
AC$MASS_SPECTROMETRY: ION_MODE NEGATIVE
AC$MASS_SPECTROMETRY: COLLISION_ENERGY Ramp 5-60 V
AC$MASS_SPECTROMETRY: DATAFORMAT Continuum
AC$MASS_SPECTROMETRY: DATE 2008.07.28
AC$MASS_SPECTROMETRY: DESOLVATION_GAS_FLOW 600.0 L/Hr
AC$MASS_SPECTROMETRY: DESOLVATION_TEMPERATURE 420 C
AC$MASS_SPECTROMETRY: FRAGMENTATION_METHOD LOW-ENERGY CID
AC$MASS_SPECTROMETRY: IONIZATION ESI
AC$MASS_SPECTROMETRY: SCANNING 1.0 sec/scan (m/z = 50-1000)
AC$MASS_SPECTROMETRY: SOURCE_TEMPERATURE 120 C
AC$CHROMATOGRAPHY: CAPILLARY_VOLTAGE 3.0 kV
AC$CHROMATOGRAPHY: SAMPLING_CONE 23.0 V
AC$CHROMATOGRAPHY: SOLVENT A CH3CN(0.1%HCOOH)
AC$CHROMATOGRAPHY: SOLVENT B H2O(0.1%HCOOH)
MS$FOCUSED_ION: PRECURSOR_M/Z 229.01135
MS$FOCUSED_ION: PRECURSOR_TYPE [M-H]-
PK$SPLASH: splash10-002b-9000000000-340deaecb0169ce2acd3
PK$NUM_PEAK: 4
PK$PEAK: m/z int. rel.int.
  78.9596 594.2 677
  96.9695 876.8 999
  138.9801 113.9 130
  229.0114 122 139
//
