ACCESSION: MSBNK-RIKEN-PR303324
RECORD_TITLE: NP-000004(11); LC-ESI-QTOF; MS2
DATE: 2019.03.28
AUTHORS: Tetsuya Mori, Center for Sustainable Resource Science, RIKEN
LICENSE: CC BY-NC-SA
PUBLICATION: Tsugawa H., Nakabayashi R., Mori T., Yamada Y., Takahashi M., Rai A., Sugiyama R., Yamamoto H., Nakaya T., Yamazaki M., Kooke R., Bac-Molenaar JA., Oztolan-Erol N., Keurentjes JJB., Arita M., Saito K. (2019) "A cheminformatics approach to characterize metabolomes in stable-isotope-labeled organisms" Nature Methods 16(4):295-298. [doi:10.1038/s41592-019-0358-2]
COMMENT: registered in RIKEN PlaSMA
CH$NAME: NP-000004(11)
CH$COMPOUND_CLASS: Flavonoid 8-C-glycosides
CH$FORMULA: C26H28O14
CH$EXACT_MASS: 564.496
CH$SMILES: OC[C@@H]1OC([C@H](O)[C@H]1O)C1=C2OC(=CC(=O)C2=C(O)C(C2O[C@H](CO)[C@@H](O)[C@H](O)[C@H]2O)=C1O)C1=CC=C(O)C=C1
CH$IUPAC: InChI=1S/C26H28O14/c27-6-12-17(31)21(35)23(37)25(39-12)15-19(33)14-10(30)5-11(8-1-3-9(29)4-2-8)38-24(14)16(20(15)34)26-22(36)18(32)13(7-28)40-26/h1-5,12-13,17-18,21-23,25-29,31-37H,6-7H2/t12-,13+,17-,18+,21+,22-,23-,25?,26?/m1/s1
CH$LINK: INCHIKEY TUIJPUWSXVFWSH-FBMRRHFKSA-N
AC$INSTRUMENT: LC, Waters Acquity UPLC System; MS, Waters Xevo G2 Q-Tof
AC$INSTRUMENT_TYPE: LC-ESI-QTOF
AC$MASS_SPECTROMETRY: MS_TYPE MS2
AC$MASS_SPECTROMETRY: ION_MODE POSITIVE
AC$MASS_SPECTROMETRY: COLLISION_ENERGY 6V
AC$MASS_SPECTROMETRY: DESOLVATION_GAS_FLOW 800/h
AC$MASS_SPECTROMETRY: DESOLVATION_TEMPERATURE 450 C
AC$MASS_SPECTROMETRY: IONIZATION ESI
AC$CHROMATOGRAPHY: CAPILLARY_VOLTAGE +3.00 kV
AC$CHROMATOGRAPHY: COLUMN_NAME Acquity bridged ethyl hybrid C18 (1.7 um, 2.1 mm * 100 mm, Waters)
AC$CHROMATOGRAPHY: COLUMN_TEMPERATURE 40 C
AC$CHROMATOGRAPHY: FLOW_GRADIENT A/B = (99.5%/0.5% at 0 min, 99.5%/0.5% at 0.1 min, 20%/80% at 10 min, 0.5%/99.5% at 10.1 min, 0.5%/99.5% at 12.0 min, 99.5%/0.5% at 12.1 min, 99.5%/0.5% at 15.0 min)
AC$CHROMATOGRAPHY: FLOW_RATE 0.3 ml/min at 0 min, 0.3 ml/min at 10 min, 0.4 ml/min at 10.1 min, 0.4 ml/min at 14.4 min, 0.3 ml/min at 14.5 min
AC$CHROMATOGRAPHY: RETENTION_TIME 3.55055
AC$CHROMATOGRAPHY: SOLVENT A water including 0.1% formic acid
AC$CHROMATOGRAPHY: SOLVENT B acetonitrile including 0.1% formic acid
MS$FOCUSED_ION: PRECURSOR_TYPE [M+H]+
MS$FOCUSED_ION: PRECURSOR_M/Z 565.155182
PK$SPLASH: splash10-056v-0009600000-aab37c9a5521742cd9d9
PK$NUM_PEAK: 287
PK$PEAK: m/z int. rel.int.
  103.24184 11.0 11
  121.03053 17.0 17
  129.80357 17.0 17
  184.42653 13.0 13
  217.9082 21.0 21
  218.86998 10.0 10
  245.01251 13.0 13
  245.04759 19.0 19
  253.99123 14.0 14
  255.03413 21.0 21
  273.05832 13.0 13
  274.35858 22.0 22
  277.66104 25.0 25
  291.30289 15.0 15
  294.06079 23.0 23
  295.05679 172.0 172
  295.06833 196.0 196
  295.54544 10.0 10
  296.035 18.0 18
  296.06174 70.0 70
  301.07791 14.0 14
  301.6413 14.0 14
  307.03296 15.0 15
  307.04855 79.0 79
  307.06491 117.0 117
  308.05997 69.0 69
  309.04315 15.0 15
  309.0813 35.0 35
  317.0715 25.0 25
  319.05698 10.0 10
  320.06766 21.0 21
  321.07019 38.0 38
  321.08221 27.0 27
  321.62241 10.0 10
  322.04919 11.0 11
  322.06738 16.0 16
  322.55521 10.0 10
  323.04678 19.0 19
  323.06894 35.0 35
  324.0686 13.0 13
  325.0484 44.0 44
  325.07214 649.0 648
  326.06445 41.0 41
  326.07758 57.0 57
  326.0921 11.0 11
  326.47977 26.0 26
  327.07571 11.0 11
  329.08716 19.0 19
  331.02826 23.0 23
  331.07343 10.0 10
  332.06247 18.0 18
  333.08374 25.0 25
  333.95779 12.0 12
  334.05096 38.0 38
  335.0784 14.0 14
  335.09808 34.0 34
  336.11093 19.0 19
  337.06772 545.0 544
  337.99265 13.0 13
  338.06573 61.0 61
  338.08154 94.0 94
  339.07693 28.0 28
  340.92596 11.0 11
  342.0921 12.0 12
  343.27655 19.0 19
  345.07059 22.0 22
  345.09064 14.0 14
  347.09552 14.0 14
  347.10931 23.0 23
  349.03339 17.0 17
  349.0564 272.0 272
  349.07419 523.0 522
  349.97388 10.0 10
  350.06226 38.0 38
  350.07855 150.0 150
  351.08987 115.0 115
  351.11554 15.0 15
  352.04987 14.0 14
  352.07706 25.0 25
  352.10172 23.0 23
  353.06107 10.0 10
  353.07318 25.0 25
  353.10074 13.0 13
  354.08685 10.0 10
  355.06146 15.0 15
  355.08527 99.0 99
  356.07474 11.0 11
  357.08273 12.0 12
  358.0632 11.0 11
  360.0127 13.0 13
  361.07248 374.0 374
  362.05426 10.0 10
  362.07373 26.0 26
  363.04404 14.0 14
  363.07193 47.0 47
  363.08868 105.0 105
  364.07581 16.0 16
  364.08945 26.0 26
  364.44434 17.0 17
  365.06265 14.0 14
  365.09076 15.0 15
  365.10254 29.0 29
  366.08319 14.0 14
  367.06702 19.0 19
  367.08624 34.0 34
  368.06723 12.0 12
  373.07227 182.0 182
  373.10303 39.0 39
  373.27127 14.0 14
  374.05658 17.0 17
  374.07016 73.0 73
  374.08688 38.0 38
  374.28488 13.0 13
  375.06409 11.0 11
  375.07983 45.0 45
  375.67258 11.0 11
  376.08331 22.0 22
  378.98541 19.0 19
  379.01257 15.0 15
  379.02811 10.0 10
  379.04813 43.0 43
  379.08096 652.0 651
  380.06635 54.0 54
  380.09094 96.0 96
  381.09161 56.0 56
  383.11392 16.0 16
  384.25821 10.0 10
  385.08871 13.0 13
  385.10477 14.0 14
  387.07761 10.0 10
  389.06161 18.0 18
  390.05579 12.0 12
  390.07758 14.0 14
  390.09982 18.0 18
  391.0282 11.0 11
  391.04559 15.0 15
  391.08209 942.0 941
  391.20422 15.0 15
  391.26526 15.0 15
  391.94293 21.0 21
  392.01025 17.0 17
  392.07468 107.0 107
  392.09109 172.0 172
  393.09613 69.0 69
  393.21686 15.0 15
  393.57541 10.0 10
  395.79144 11.0 11
  397.0867 129.0 129
  397.11197 15.0 15
  400.06607 11.0 11
  401.11087 29.0 29
  401.2319 13.0 13
  402.11328 19.0 19
  402.50992 22.0 22
  403.06152 44.0 44
  403.07944 110.0 110
  403.10294 11.0 11
  404.08365 24.0 24
  405.09427 51.0 51
  407.36237 10.0 10
  409.0899 1000.0 999
  409.26932 12.0 12
  410.03055 16.0 16
  410.08466 162.0 162
  410.10175 86.0 86
  410.15445 10.0 10
  411.09903 54.0 54
  412.09729 17.0 17
  415.07727 121.0 121
  415.10446 11.0 11
  415.17175 25.0 25
  416.07712 11.0 11
  416.09381 39.0 39
  417.09116 15.0 15
  417.10498 21.0 21
  417.11707 21.0 21
  419.09055 10.0 10
  419.13794 14.0 14
  420.08438 13.0 13
  420.11166 34.0 34
  420.1268 16.0 16
  420.28629 10.0 10
  421.07355 45.0 45
  421.09503 102.0 102
  422.08536 19.0 19
  422.10394 41.0 41
  423.10471 10.0 10
  427.05161 19.0 19
  427.07257 29.0 29
  427.09915 456.0 456
  427.11084 186.0 186
  427.24188 12.0 12
  428.09073 134.0 134
  428.1185 43.0 43
  429.07413 14.0 14
  429.09955 100.0 100
  430.11002 12.0 12
  433.04877 11.0 11
  433.06973 76.0 76
  433.09277 76.0 76
  433.10608 89.0 89
  433.99924 10.0 10
  434.05862 21.0 21
  434.09485 92.0 92
  434.11536 22.0 22
  434.89035 17.0 17
  435.09442 39.0 39
  436.09497 17.0 17
  437.08798 14.0 14
  437.12183 17.0 17
  439.08508 34.0 34
  439.10358 66.0 66
  440.03656 14.0 14
  440.09854 20.0 20
  440.11545 24.0 24
  441.11737 16.0 16
  441.40564 12.0 12
  444.45291 19.0 19
  445.07315 103.0 103
  445.09509 66.0 66
  445.1171 87.0 87
  446.07446 16.0 16
  446.0946 15.0 15
  446.10516 27.0 27
  446.18295 11.0 11
  447.09546 23.0 23
  447.11688 23.0 23
  448.1084 14.0 14
  451.06073 14.0 14
  451.0849 14.0 14
  451.11072 47.0 47
  457.06265 10.0 10
  457.09225 143.0 143
  457.12582 11.0 11
  458.09314 37.0 37
  458.10779 30.0 30
  459.09924 15.0 15
  459.1192 16.0 16
  463.04391 20.0 20
  463.07401 30.0 30
  463.11118 126.0 126
  463.13297 19.0 19
  463.25165 11.0 11
  463.84158 11.0 11
  464.10327 22.0 22
  466.23734 14.0 14
  467.33389 15.0 15
  469.10092 26.0 26
  471.52374 13.0 13
  472.24216 20.0 20
  475.07712 9.0 9
  475.0928 41.0 41
  475.11328 81.0 81
  476.07806 14.0 14
  476.09467 10.0 10
  476.11188 17.0 17
  477.07617 11.0 11
  478.10477 10.0 10
  481.05841 31.0 31
  481.10422 174.0 174
  481.12674 113.0 113
  481.8808 33.0 33
  482.10733 27.0 27
  482.12979 30.0 30
  483.09344 11.0 11
  488.56378 10.0 10
  493.09552 16.0 16
  493.11899 115.0 115
  493.14285 19.0 19
  494.10382 26.0 26
  494.13144 14.0 14
  499.08133 10.0 10
  499.10049 40.0 40
  499.1312 27.0 27
  509.8956 10.0 10
  511.10214 21.0 21
  511.12869 182.0 182
  511.28732 11.0 11
  512.1167 16.0 16
  512.14642 12.0 12
  513.12054 26.0 26
  523.89075 11.0 11
  529.14606 34.0 34
  530.1402 11.0 11
  531.13098 11.0 11
  532.15558 18.0 18
  533.42511 10.0 10
//
