ACCESSION: MSBNK-RIKEN-PR301919
RECORD_TITLE: isorhamnetin; LC-ESI-QTOF; MS2
DATE: 2019.03.28
AUTHORS: Tetsuya Mori, Center for Sustainable Resource Science, RIKEN
LICENSE: CC BY-NC-SA
PUBLICATION: Tsugawa H., Nakabayashi R., Mori T., Yamada Y., Takahashi M., Rai A., Sugiyama R., Yamamoto H., Nakaya T., Yamazaki M., Kooke R., Bac-Molenaar JA., Oztolan-Erol N., Keurentjes JJB., Arita M., Saito K. (2019) "A cheminformatics approach to characterize metabolomes in stable-isotope-labeled organisms" Nature Methods 16(4):295-298. [doi:10.1038/s41592-019-0358-2]
COMMENT: registered in RIKEN PlaSMA
CH$NAME: isorhamnetin
CH$COMPOUND_CLASS: Flavonols
CH$FORMULA: C16H12O7
CH$EXACT_MASS: 316.265
CH$SMILES: COC1=C(O)C=CC(=C1)C1=C(O)C(=O)C2=C(O)C=C(O)C=C2O1
CH$IUPAC: InChI=1S/C16H12O7/c1-22-11-4-7(2-3-9(11)18)16-15(21)14(20)13-10(19)5-8(17)6-12(13)23-16/h2-6,17-19,21H,1H3
CH$LINK: INCHIKEY IZQSVPBOUDKVDZ-UHFFFAOYSA-N
AC$INSTRUMENT: LC, Waters Acquity UPLC System; MS, Waters Xevo G2 Q-Tof
AC$INSTRUMENT_TYPE: LC-ESI-QTOF
AC$MASS_SPECTROMETRY: MS_TYPE MS2
AC$MASS_SPECTROMETRY: ION_MODE POSITIVE
AC$MASS_SPECTROMETRY: COLLISION_ENERGY 6V
AC$MASS_SPECTROMETRY: DESOLVATION_GAS_FLOW 800/h
AC$MASS_SPECTROMETRY: DESOLVATION_TEMPERATURE 450 C
AC$MASS_SPECTROMETRY: IONIZATION ESI
AC$CHROMATOGRAPHY: CAPILLARY_VOLTAGE +3.00 kV
AC$CHROMATOGRAPHY: COLUMN_NAME Acquity bridged ethyl hybrid C18 (1.7 um, 2.1 mm * 100 mm, Waters)
AC$CHROMATOGRAPHY: COLUMN_TEMPERATURE 40 C
AC$CHROMATOGRAPHY: FLOW_GRADIENT A/B = (99.5%/0.5% at 0 min, 99.5%/0.5% at 0.1 min, 20%/80% at 10 min, 0.5%/99.5% at 10.1 min, 0.5%/99.5% at 12.0 min, 99.5%/0.5% at 12.1 min, 99.5%/0.5% at 15.0 min)
AC$CHROMATOGRAPHY: FLOW_RATE 0.3 ml/min at 0 min, 0.3 ml/min at 10 min, 0.4 ml/min at 10.1 min, 0.4 ml/min at 14.4 min, 0.3 ml/min at 14.5 min
AC$CHROMATOGRAPHY: RETENTION_TIME 6.135867
AC$CHROMATOGRAPHY: SOLVENT A water including 0.1% formic acid
AC$CHROMATOGRAPHY: SOLVENT B acetonitrile including 0.1% formic acid
MS$FOCUSED_ION: PRECURSOR_TYPE [M+H]+
MS$FOCUSED_ION: PRECURSOR_M/Z 317.0655792
PK$SPLASH: splash10-0uxr-1940000000-b93b67aef1be6cb3a308
PK$NUM_PEAK: 192
PK$PEAK: m/z int. rel.int.
  64.03722 17.0 17
  66.04682 26.0 26
  67.02142 14.0 14
  68.99335 57.0 57
  68.99948 169.0 169
  69.03548 20.0 20
  71.31617 14.0 14
  79.05634 32.0 32
  83.01327 23.0 23
  86.12091 16.0 16
  91.05388 44.0 44
  91.09003 24.0 24
  92.00095 20.0 20
  92.02482 61.0 61
  93.02003 23.0 23
  93.0297 98.0 98
  93.03483 91.0 91
  93.49777 15.0 15
  94.04248 86.0 86
  95.01749 23.0 23
  96.01472 37.0 37
  96.05246 25.0 25
  97.02054 19.0 19
  97.02935 31.0 31
  100.22189 20.0 20
  103.05312 61.0 61
  103.05891 52.0 52
  104.05048 33.0 33
  104.05457 13.0 13
  105.07258 53.0 53
  107.03465 23.0 23
  107.05396 21.0 21
  107.54192 15.0 15
  108.01469 18.0 18
  108.02205 122.0 122
  109.02513 60.0 60
  109.03141 35.0 35
  111.00761 43.0 43
  112.98728 19.0 19
  115.00507 21.0 21
  115.05534 198.0 198
  115.56522 13.0 13
  116.05754 16.0 16
  117.03246 20.0 20
  117.06799 85.0 85
  117.07381 23.0 23
  117.63656 38.0 38
  119.02227 16.0 16
  119.05459 36.0 36
  121.03111 218.0 218
  121.06686 26.0 26
  122.03902 44.0 44
  123.03317 23.0 23
  123.0461 63.0 63
  124.00995 38.0 38
  124.02503 26.0 26
  125.02413 25.0 25
  126.03236 48.0 48
  126.05066 14.0 14
  126.76719 14.0 14
  127.05464 177.0 177
  129.02751 19.0 19
  131.05203 31.0 31
  133.06606 65.0 65
  133.07141 63.0 63
  134.07173 16.0 16
  135.00462 13.0 13
  136.01337 20.0 20
  137.02373 65.0 65
  138.02191 20.0 20
  139.05238 20.0 20
  144.04791 66.0 66
  144.05653 27.0 27
  145.05476 16.0 16
  147.03972 63.0 63
  147.04541 63.0 63
  147.05434 33.0 33
  148.05777 40.0 40
  149.7773 17.0 17
  151.03661 43.0 43
  152.04657 13.0 13
  153.01996 1000.0 999
  154.01358 40.0 40
  154.0213 26.0 26
  154.03265 51.0 51
  155.05081 163.0 163
  157.02773 13.0 13
  157.03537 32.0 32
  157.06374 14.0 14
  159.04153 122.0 122
  161.02814 23.0 23
  161.05731 88.0 88
  161.06548 42.0 42
  161.23172 16.0 16
  163.03442 41.0 41
  163.04477 28.0 28
  164.03883 26.0 26
  171.03711 25.0 25
  171.04633 60.0 60
  171.05498 18.0 18
  172.04971 43.0 43
  172.06038 22.0 22
  173.06487 96.0 96
  174.01576 31.0 31
  174.03633 21.0 21
  174.05522 15.0 15
  175.04686 58.0 58
  175.05803 16.0 16
  176.0253 14.0 14
  176.04964 79.0 79
  176.86594 14.0 14
  177.01495 23.0 23
  177.02605 18.0 18
  177.0482 44.0 44
  177.05603 23.0 23
  179.03004 18.0 18
  179.03868 13.0 13
  180.0338 21.0 21
  183.0278 26.0 26
  183.04193 99.0 99
  183.45825 23.0 23
  185.02786 19.0 19
  187.03607 13.0 13
  187.05057 34.0 34
  189.05498 40.0 40
  189.06741 13.0 13
  190.07126 14.0 14
  190.68529 14.0 14
  191.01305 21.0 21
  191.03925 20.0 20
  192.04752 16.0 16
  195.33965 13.0 13
  199.0345 15.0 15
  199.06053 16.0 16
  200.04466 56.0 56
  200.05547 18.0 18
  201.01991 40.0 40
  201.04161 16.0 16
  201.05794 16.0 16
  202.00627 38.0 38
  202.04837 15.0 15
  203.00345 17.0 17
  203.02882 120.0 120
  203.03775 245.0 245
  203.05048 31.0 31
  203.07034 15.0 15
  204.03026 18.0 18
  204.03627 31.0 31
  204.41356 18.0 18
  206.1761 22.0 22
  207.03206 19.0 19
  207.25494 14.0 14
  210.94244 17.0 17
  212.04652 24.0 24
  217.02908 35.0 35
  217.0518 370.0 370
  218.05429 33.0 33
  218.06299 28.0 28
  218.31442 16.0 16
  219.02412 61.0 61
  219.03683 36.0 36
  220.02811 30.0 30
  227.02599 56.0 56
  227.03358 19.0 19
  228.03577 33.0 33
  228.0499 67.0 67
  229.03464 16.0 16
  229.04933 159.0 159
  229.06017 46.0 46
  230.04564 46.0 46
  231.0336 27.0 27
  231.04324 21.0 21
  231.06328 27.0 27
  239.0322 30.0 30
  240.04268 26.0 26
  243.02234 23.0 23
  244.02945 13.0 13
  245.04626 235.0 235
  245.06683 52.0 52
  246.03197 24.0 24
  246.05363 47.0 47
  256.03839 14.0 14
  257.02328 19.0 19
  257.0553 18.0 18
  258.05042 27.0 27
  273.04605 44.0 44
  283.03247 16.0 16
  284.04129 16.0 16
  285.01651 22.0 22
  285.03824 74.0 74
  285.04816 40.0 40
  286.05234 31.0 31
//
