ACCESSION: MSBNK-RIKEN-PR307055
RECORD_TITLE: NP-000004(11); LC-ESI-QTOF; MS2
DATE: 2019.03.28
AUTHORS: Tetsuya Mori, Center for Sustainable Resource Science, RIKEN
LICENSE: CC BY-NC-SA
PUBLICATION: Tsugawa H., Nakabayashi R., Mori T., Yamada Y., Takahashi M., Rai A., Sugiyama R., Yamamoto H., Nakaya T., Yamazaki M., Kooke R., Bac-Molenaar JA., Oztolan-Erol N., Keurentjes JJB., Arita M., Saito K. (2019) "A cheminformatics approach to characterize metabolomes in stable-isotope-labeled organisms" Nature Methods 16(4):295-298. [doi:10.1038/s41592-019-0358-2]
COMMENT: registered in RIKEN PlaSMA
CH$NAME: NP-000004(11)
CH$COMPOUND_CLASS: Flavonoid 8-C-glycosides
CH$FORMULA: C26H28O14
CH$EXACT_MASS: 564.496
CH$SMILES: OCC1OC(C(O)C1O)C1=C2OC(=CC(=O)C2=C(O)C(C2OC(CO)C(O)C(O)C2O)=C1O)C1=CC=C(O)C=C1
CH$IUPAC: InChI=1S/C26H28O14/c27-6-12-17(31)21(35)23(37)25(39-12)15-19(33)14-10(30)5-11(8-1-3-9(29)4-2-8)38-24(14)16(20(15)34)26-22(36)18(32)13(7-28)40-26/h1-5,12-13,17-18,21-23,25-29,31-37H,6-7H2
CH$LINK: INCHIKEY TUIJPUWSXVFWSH-UHFFFAOYSA-N
AC$INSTRUMENT: LC, Waters Acquity UPLC System; MS, Waters Xevo G2 Q-Tof
AC$INSTRUMENT_TYPE: LC-ESI-QTOF
AC$MASS_SPECTROMETRY: MS_TYPE MS2
AC$MASS_SPECTROMETRY: ION_MODE NEGATIVE
AC$MASS_SPECTROMETRY: COLLISION_ENERGY 6V
AC$MASS_SPECTROMETRY: DESOLVATION_GAS_FLOW 800/h
AC$MASS_SPECTROMETRY: DESOLVATION_TEMPERATURE 450 C
AC$MASS_SPECTROMETRY: IONIZATION ESI
AC$CHROMATOGRAPHY: CAPILLARY_VOLTAGE -2.75 kV
AC$CHROMATOGRAPHY: COLUMN_NAME Acquity bridged ethyl hybrid C18 (1.7 um, 2.1 mm * 100 mm, Waters)
AC$CHROMATOGRAPHY: COLUMN_TEMPERATURE 40 C
AC$CHROMATOGRAPHY: FLOW_GRADIENT A/B = (99.5%/0.5% at 0 min, 99.5%/0.5% at 0.1 min, 20%/80% at 10 min, 0.5%/99.5% at 10.1 min, 0.5%/99.5% at 12.0 min, 99.5%/0.5% at 12.1 min, 99.5%/0.5% at 15.0 min)
AC$CHROMATOGRAPHY: FLOW_RATE 0.3 ml/min at 0 min, 0.3 ml/min at 10 min, 0.4 ml/min at 10.1 min, 0.4 ml/min at 14.4 min, 0.3 ml/min at 14.5 min
AC$CHROMATOGRAPHY: RETENTION_TIME 3.550883
AC$CHROMATOGRAPHY: SOLVENT A water including 0.1% formic acid
AC$CHROMATOGRAPHY: SOLVENT B acetonitrile including 0.1% formic acid
MS$FOCUSED_ION: PRECURSOR_TYPE [M-H]-
MS$FOCUSED_ION: PRECURSOR_M/Z 563.14062914783
PK$SPLASH: splash10-03di-0006290000-db8ceff676c6e4e2530f
PK$NUM_PEAK: 52
PK$PEAK: m/z int. rel.int.
  191.02953 8.0 8
  203.03419 7.0 7
  245.04588 8.0 8
  253.08 5.0 5
  268.07001 6.0 6
  283.06311 7.0 7
  296.06125 14.0 14
  296.07471 10.0 10
  297.06207 9.0 9
  297.0827 15.0 15
  298.08011 10.0 10
  301.0412 5.0 5
  311.05542 33.0 33
  312.0509 10.0 10
  323.05283 10.0 10
  324.06815 8.0 8
  325.07877 26.0 26
  325.10382 5.0 5
  326.07852 6.0 6
  337.07153 13.0 13
  343.16629 5.0 5
  353.06604 295.0 295
  353.09277 8.0 8
  354.0672 46.0 46
  354.08463 8.0 8
  355.07233 11.0 11
  356.06119 5.0 5
  365.05905 23.0 23
  365.0752 20.0 20
  383.0748 212.0 212
  384.07468 32.0 32
  385.08966 13.0 13
  397.08627 11.0 11
  408.0686 8.0 8
  413.08563 30.0 30
  425.08914 23.0 23
  443.09744 101.0 101
  443.12698 8.0 8
  444.10748 25.0 25
  455.08359 6.0 6
  473.10721 101.0 101
  473.13321 8.0 8
  474.09409 6.0 6
  474.11142 25.0 25
  475.11475 7.0 7
  490.81595 6.0 6
  503.10983 38.0 38
  503.13 12.0 12
  504.12466 7.0 7
  534.13342 7.0 7
  545.12854 25.0 25
  563.13922 1000.0 999
//
