ACCESSION: MSBNK-RIKEN-PR300237
RECORD_TITLE: Hirsuteine; LC-ESI-QTOF; MS2
DATE: 2019.03.28
AUTHORS: Tetsuya Mori, Center for Sustainable Resource Science, RIKEN
LICENSE: CC BY-NC-SA
PUBLICATION: Tsugawa H., Nakabayashi R., Mori T., Yamada Y., Takahashi M., Rai A., Sugiyama R., Yamamoto H., Nakaya T., Yamazaki M., Kooke R., Bac-Molenaar JA., Oztolan-Erol N., Keurentjes JJB., Arita M., Saito K. (2019) "A cheminformatics approach to characterize metabolomes in stable-isotope-labeled organisms" Nature Methods 16(4):295-298. [doi:10.1038/s41592-019-0358-2]
COMMENT: registered in RIKEN PlaSMA
CH$NAME: Hirsuteine
CH$COMPOUND_CLASS: Corynanthean-type alkaloids
CH$FORMULA: C22H26N2O3
CH$EXACT_MASS: 366.461
CH$SMILES: CO\C=C(/[C@H]1C[C@H]2N(CCC3=C2NC2=CC=CC=C32)C[C@@H]1C=C)C(=O)OC
CH$IUPAC: InChI=1S/C22H26N2O3/c1-4-14-12-24-10-9-16-15-7-5-6-8-19(15)23-21(16)20(24)11-17(14)18(13-26-2)22(25)27-3/h4-8,13-14,17,20,23H,1,9-12H2,2-3H3/b18-13+/t14-,17-,20+/m0/s1
CH$LINK: INCHIKEY TZUGIFAYWNNSAO-AZQGJTAVSA-N
AC$INSTRUMENT: LC, Waters Acquity UPLC System; MS, Waters Xevo G2 Q-Tof
AC$INSTRUMENT_TYPE: LC-ESI-QTOF
AC$MASS_SPECTROMETRY: MS_TYPE MS2
AC$MASS_SPECTROMETRY: ION_MODE POSITIVE
AC$MASS_SPECTROMETRY: COLLISION_ENERGY 6V
AC$MASS_SPECTROMETRY: DESOLVATION_GAS_FLOW 800/h
AC$MASS_SPECTROMETRY: DESOLVATION_TEMPERATURE 450 C
AC$MASS_SPECTROMETRY: IONIZATION ESI
AC$CHROMATOGRAPHY: CAPILLARY_VOLTAGE +3.00 kV
AC$CHROMATOGRAPHY: COLUMN_NAME Acquity bridged ethyl hybrid C18 (1.7 um, 2.1 mm * 100 mm, Waters)
AC$CHROMATOGRAPHY: COLUMN_TEMPERATURE 40 C
AC$CHROMATOGRAPHY: FLOW_GRADIENT A/B = (99.5%/0.5% at 0 min, 99.5%/0.5% at 0.1 min, 20%/80% at 10 min, 0.5%/99.5% at 10.1 min, 0.5%/99.5% at 12.0 min, 99.5%/0.5% at 12.1 min, 99.5%/0.5% at 15.0 min)
AC$CHROMATOGRAPHY: FLOW_RATE 0.3 ml/min at 0 min, 0.3 ml/min at 10 min, 0.4 ml/min at 10.1 min, 0.4 ml/min at 14.4 min, 0.3 ml/min at 14.5 min
AC$CHROMATOGRAPHY: RETENTION_TIME 5.6757
AC$CHROMATOGRAPHY: SOLVENT A water including 0.1% formic acid
AC$CHROMATOGRAPHY: SOLVENT B acetonitrile including 0.1% formic acid
MS$FOCUSED_ION: PRECURSOR_TYPE [M+H]+
MS$FOCUSED_ION: PRECURSOR_M/Z 367.2016192
PK$SPLASH: splash10-0006-0910000000-ac6b5e34e95089d8ae6e
PK$NUM_PEAK: 186
PK$PEAK: m/z int. rel.int.
  65.03886 10.0 10
  67.05648 8.0 8
  75.04331 43.0 43
  75.04809 13.0 13
  77.03809 11.0 11
  79.05439 17.0 17
  80.04999 7.0 7
  81.05078 6.0 6
  82.06378 32.0 32
  91.0534 59.0 59
  92.05238 11.0 11
  92.05849 9.0 9
  95.0466 18.0 18
  95.05424 13.0 13
  96.08156 7.0 7
  103.05135 18.0 18
  103.05815 15.0 15
  104.04678 5.0 5
  105.03634 7.0 7
  105.06966 12.0 12
  105.29389 5.0 5
  106.04142 30.0 30
  106.06747 27.0 27
  108.05359 10.0 10
  108.08056 44.0 44
  109.06416 51.0 51
  115.05379 83.0 83
  116.06347 9.0 9
  117.04649 6.0 6
  117.05874 42.0 42
  117.06992 139.0 139
  118.06592 72.0 72
  118.07611 10.0 10
  119.0515 6.0 6
  120.07908 25.0 25
  121.06509 38.0 38
  122.063 6.0 6
  123.04677 13.0 13
  123.08346 5.0 5
  126.09088 5.0 5
  126.0965 8.0 8
  127.05469 113.0 113
  128.04904 46.0 46
  128.05988 79.0 79
  129.06776 93.0 93
  130.06462 157.0 157
  131.04662 7.0 7
  131.06905 30.0 30
  132.05348 10.0 10
  132.06822 10.0 10
  132.0824 18.0 18
  133.05147 6.0 6
  133.08223 8.0 8
  134.05869 13.0 13
  135.06786 8.0 8
  135.07513 5.0 5
  138.05817 7.0 7
  141.05595 6.0 6
  141.06439 7.0 7
  142.06349 37.0 37
  142.0723 19.0 19
  143.07336 259.0 259
  143.08615 27.0 27
  144.04527 5.0 5
  144.08046 1000.0 999
  145.07059 5.0 5
  145.08418 112.0 112
  146.05954 19.0 19
  146.09012 5.0 5
  146.09732 14.0 14
  148.073 8.0 8
  149.0584 8.0 8
  149.06708 8.0 8
  151.05113 8.0 8
  152.05162 7.0 7
  152.06213 17.0 17
  153.07008 34.0 34
  154.06465 123.0 123
  155.07222 142.0 142
  156.07901 64.0 64
  157.08507 30.0 30
  157.09515 8.0 8
  158.0697 8.0 8
  158.09712 23.0 23
  159.06854 6.0 6
  159.09801 7.0 7
  163.07549 14.0 14
  165.06807 7.0 7
  165.075 6.0 6
  166.06387 11.0 11
  167.0724 132.0 132
  168.08 197.0 197
  169.07988 55.0 55
  169.09541 12.0 12
  170.09718 141.0 141
  171.09917 28.0 28
  171.10542 12.0 12
  174.09196 9.0 9
  174.09961 6.0 6
  178.07547 7.0 7
  178.0835 6.0 6
  179.069 13.0 13
  179.08589 11.0 11
  180.08156 118.0 118
  181.0883 54.0 54
  182.08092 6.0 6
  182.09502 50.0 50
  183.06561 10.0 10
  183.08942 21.0 21
  183.1033 5.0 5
  190.06902 5.0 5
  191.06583 25.0 25
  191.07562 54.0 54
  192.06874 7.0 7
  192.08192 55.0 55
  193.08769 50.0 50
  194.06416 6.0 6
  194.07687 5.0 5
  194.09724 55.0 55
  195.10205 18.0 18
  197.10497 7.0 7
  204.08151 56.0 56
  205.08989 51.0 51
  206.08052 10.0 10
  206.09456 44.0 44
  207.07326 8.0 8
  207.08913 20.0 20
  207.10207 17.0 17
  208.07242 6.0 6
  208.09566 13.0 13
  208.11328 13.0 13
  209.07863 9.0 9
  209.1068 6.0 6
  210.08806 10.0 10
  210.11662 7.0 7
  215.07571 6.0 6
  216.08418 7.0 7
  217.0802 17.0 17
  217.09111 63.0 63
  218.09279 25.0 25
  219.05367 6.0 6
  219.08507 7.0 7
  219.09969 22.0 22
  220.07304 8.0 8
  220.0876 11.0 11
  220.10019 5.0 5
  221.10397 15.0 15
  222.09096 15.0 15
  222.10092 7.0 7
  223.08521 6.0 6
  223.10643 6.0 6
  226.08287 12.0 12
  226.09189 8.0 8
  228.07704 9.0 9
  230.08936 15.0 15
  230.0986 26.0 26
  231.07944 7.0 7
  231.09491 22.0 22
  231.10861 6.0 6
  232.10376 15.0 15
  232.11223 17.0 17
  233.08452 10.0 10
  233.12126 7.0 7
  234.08669 8.0 8
  234.12241 9.0 9
  235.13049 7.0 7
  236.12846 6.0 6
  238.09512 6.0 6
  241.09375 5.0 5
  242.10049 5.0 5
  243.08791 12.0 12
  243.10429 10.0 10
  244.11292 8.0 8
  245.11237 9.0 9
  246.08876 7.0 7
  246.12804 7.0 7
  247.12804 13.0 13
  249.1385 11.0 11
  250.08311 8.0 8
  251.09018 5.0 5
  254.10042 6.0 6
  258.09747 5.0 5
  259.11914 6.0 6
  259.12766 6.0 6
  367.19629 10.0 10
  367.21313 8.0 8
//
