ACCESSION: MSBNK-RIKEN-PR303666
RECORD_TITLE: Quercetin 3-O-[2''-O-b-D-glucopyranosyl]-a-L-rhamnopyranoside; LC-ESI-QTOF; MS2
DATE: 2019.03.28
AUTHORS: Tetsuya Mori, Center for Sustainable Resource Science, RIKEN
LICENSE: CC BY-NC-SA
PUBLICATION: Tsugawa H., Nakabayashi R., Mori T., Yamada Y., Takahashi M., Rai A., Sugiyama R., Yamamoto H., Nakaya T., Yamazaki M., Kooke R., Bac-Molenaar JA., Oztolan-Erol N., Keurentjes JJB., Arita M., Saito K. (2019) "A cheminformatics approach to characterize metabolomes in stable-isotope-labeled organisms" Nature Methods 16(4):295-298. [doi:10.1038/s41592-019-0358-2]
COMMENT: registered in RIKEN PlaSMA
CH$NAME: Quercetin 3-O-[2''-O-b-D-glucopyranosyl]-a-L-rhamnopyranoside
CH$COMPOUND_CLASS: Flavonoid-3-O-glycosides
CH$FORMULA: C27H30O16
CH$EXACT_MASS: 610.521
CH$SMILES: CC1OC(OC2=C(OC3=CC(O)=CC(O)=C3C2=O)C2=CC(O)=C(O)C=C2)C(OC2OC(CO)C(O)C(O)C2O)C(O)C1O
CH$IUPAC: InChI=1S/C27H30O16/c1-8-17(33)21(37)25(43-26-22(38)20(36)18(34)15(7-28)41-26)27(39-8)42-24-19(35)16-13(32)5-10(29)6-14(16)40-23(24)9-2-3-11(30)12(31)4-9/h2-6,8,15,17-18,20-22,25-34,36-38H,7H2,1H3
CH$LINK: INCHIKEY DFNXNCCYQRPZMD-UHFFFAOYSA-N
AC$INSTRUMENT: LC, Waters Acquity UPLC System; MS, Waters Xevo G2 Q-Tof
AC$INSTRUMENT_TYPE: LC-ESI-QTOF
AC$MASS_SPECTROMETRY: MS_TYPE MS2
AC$MASS_SPECTROMETRY: ION_MODE POSITIVE
AC$MASS_SPECTROMETRY: COLLISION_ENERGY 6V
AC$MASS_SPECTROMETRY: DESOLVATION_GAS_FLOW 800/h
AC$MASS_SPECTROMETRY: DESOLVATION_TEMPERATURE 450 C
AC$MASS_SPECTROMETRY: IONIZATION ESI
AC$CHROMATOGRAPHY: CAPILLARY_VOLTAGE +3.00 kV
AC$CHROMATOGRAPHY: COLUMN_NAME Acquity bridged ethyl hybrid C18 (1.7 um, 2.1 mm * 100 mm, Waters)
AC$CHROMATOGRAPHY: COLUMN_TEMPERATURE 40 C
AC$CHROMATOGRAPHY: FLOW_GRADIENT A/B = (99.5%/0.5% at 0 min, 99.5%/0.5% at 0.1 min, 20%/80% at 10 min, 0.5%/99.5% at 10.1 min, 0.5%/99.5% at 12.0 min, 99.5%/0.5% at 12.1 min, 99.5%/0.5% at 15.0 min)
AC$CHROMATOGRAPHY: FLOW_RATE 0.3 ml/min at 0 min, 0.3 ml/min at 10 min, 0.4 ml/min at 10.1 min, 0.4 ml/min at 14.4 min, 0.3 ml/min at 14.5 min
AC$CHROMATOGRAPHY: RETENTION_TIME 4.1478
AC$CHROMATOGRAPHY: SOLVENT A water including 0.1% formic acid
AC$CHROMATOGRAPHY: SOLVENT B acetonitrile including 0.1% formic acid
MS$FOCUSED_ION: PRECURSOR_TYPE [M+H]+
MS$FOCUSED_ION: PRECURSOR_M/Z 611.1606613
PK$SPLASH: splash10-0udi-1109100000-d471b9dec3353b9f3220
PK$NUM_PEAK: 91
PK$PEAK: m/z int. rel.int.
  71.04852 56.0 56
  72.0581 15.0 15
  73.03094 6.0 6
  75.04341 22.0 22
  83.04445 6.0 6
  83.0515 10.0 10
  85.02258 24.0 24
  85.02982 68.0 68
  86.02652 13.0 13
  97.02572 7.0 7
  97.03184 10.0 10
  99.0462 7.0 7
  101.05854 6.0 6
  111.00308 7.0 7
  111.03769 9.0 9
  127.03909 57.0 57
  128.04137 11.0 11
  129.05298 163.0 163
  137.01477 9.0 9
  137.02214 8.0 8
  142.82635 7.0 7
  145.05275 22.0 22
  146.92892 10.0 10
  146.96019 6.0 6
  147.06395 39.0 39
  147.1803 9.0 9
  149.06578 6.0 6
  157.04701 7.0 7
  163.06041 8.0 8
  179.06073 6.0 6
  201.20332 8.0 8
  223.99284 7.0 7
  237.07785 8.0 8
  241.02563 15.0 15
  247.0768 7.0 7
  255.08296 8.0 8
  272.15866 6.0 6
  302.26855 6.0 6
  302.56042 6.0 6
  303.05017 1000.0 999
  303.2059 7.0 7
  304.02206 7.0 7
  304.05447 149.0 149
  305.04303 28.0 28
  305.06824 16.0 16
  315.0307 6.0 6
  315.05133 15.0 15
  316.06003 11.0 11
  319.08603 6.0 6
  327.04504 39.0 39
  327.06442 24.0 24
  328.0488 8.0 8
  328.06723 6.0 6
  329.02054 6.0 6
  341.06375 7.0 7
  345.04294 33.0 33
  345.06082 218.0 218
  346.06375 53.0 53
  346.07852 35.0 35
  346.72705 6.0 6
  347.05508 7.0 7
  347.7558 6.0 6
  355.06415 7.0 7
  361.4632 8.0 8
  367.0824 7.0 7
  369.0412 15.0 15
  369.05908 24.0 24
  369.07489 21.0 21
  370.06693 12.0 12
  372.08228 7.0 7
  375.0799 6.0 6
  395.05981 15.0 15
  395.08081 32.0 32
  396.04773 6.0 6
  396.06607 29.0 29
  396.07767 12.0 12
  413.0462 12.0 12
  413.08157 118.0 118
  413.11642 8.0 8
  414.0946 42.0 42
  415.07657 8.0 8
  431.06418 7.0 7
  431.09152 67.0 67
  431.125 6.0 6
  432.12009 8.0 8
  433.10056 7.0 7
  434.10843 8.0 8
  449.06461 6.0 6
  449.11115 60.0 60
  450.11765 6.0 6
  576.35339 6.0 6
//
