ACCESSION: MSBNK-RIKEN-PR310789
RECORD_TITLE: FA 12:3+2O; LC-ESI-QTOF; MS2
DATE: 2019.03.28
AUTHORS: Tetsuya Mori, Center for Sustainable Resource Science, RIKEN
LICENSE: CC BY-NC-SA
PUBLICATION: Tsugawa H., Nakabayashi R., Mori T., Yamada Y., Takahashi M., Rai A., Sugiyama R., Yamamoto H., Nakaya T., Yamazaki M., Kooke R., Bac-Molenaar JA., Oztolan-Erol N., Keurentjes JJB., Arita M., Saito K. (2019) "A cheminformatics approach to characterize metabolomes in stable-isotope-labeled organisms" Nature Methods 16(4):295-298. [doi:10.1038/s41592-019-0358-2]
COMMENT: Annotation level-3
CH$NAME: FA 12:3+2O
CH$COMPOUND_CLASS: Oxidized fatty acids
CH$FORMULA: C12H18O4
CH$EXACT_MASS: 226.272
CH$SMILES: O=C(O)CC1CCC(=O)C1(CC=CCCO)
CH$IUPAC: InChI=1S/C12H18O4/c13-7-3-1-2-4-10-9(8-12(15)16)5-6-11(10)14/h1-2,9-10,13H,3-8H2,(H,15,16)
CH$LINK: INCHIKEY RZGFUGXQKMEMOO-UHFFFAOYSA-N
AC$INSTRUMENT: LC, Waters Acquity UPLC System; MS, Waters Xevo G2 Q-Tof
AC$INSTRUMENT_TYPE: LC-ESI-QTOF
AC$MASS_SPECTROMETRY: MS_TYPE MS2
AC$MASS_SPECTROMETRY: ION_MODE POSITIVE
AC$MASS_SPECTROMETRY: COLLISION_ENERGY 6V
AC$MASS_SPECTROMETRY: DESOLVATION_GAS_FLOW 800/h
AC$MASS_SPECTROMETRY: DESOLVATION_TEMPERATURE 450 C
AC$MASS_SPECTROMETRY: IONIZATION ESI
AC$CHROMATOGRAPHY: CAPILLARY_VOLTAGE +3.00 kV
AC$CHROMATOGRAPHY: COLUMN_NAME Acquity bridged ethyl hybrid C18 (1.7 um, 2.1 mm * 100 mm, Waters)
AC$CHROMATOGRAPHY: COLUMN_TEMPERATURE 40 C
AC$CHROMATOGRAPHY: FLOW_GRADIENT A/B = (99.5%/0.5% at 0 min, 99.5%/0.5% at 0.1 min, 20%/80% at 10 min, 0.5%/99.5% at 10.1 min, 0.5%/99.5% at 12.0 min, 99.5%/0.5% at 12.1 min, 99.5%/0.5% at 15.0 min)
AC$CHROMATOGRAPHY: FLOW_RATE 0.3 ml/min at 0 min, 0.3 ml/min at 10 min, 0.4 ml/min at 10.1 min, 0.4 ml/min at 14.4 min, 0.3 ml/min at 14.5 min
AC$CHROMATOGRAPHY: RETENTION_TIME 3.39
AC$CHROMATOGRAPHY: SOLVENT A water including 0.1% formic acid
AC$CHROMATOGRAPHY: SOLVENT B acetonitrile including 0.1% formic acid
MS$FOCUSED_ION: PRECURSOR_TYPE [M+H]+
MS$FOCUSED_ION: PRECURSOR_M/Z 227.1287
PK$SPLASH: splash10-0a59-2940000000-0e9a73198bd27828b1ae
PK$NUM_PEAK: 20
PK$PEAK: m/z int. rel.int.
  50.09165 19.0 213
  84.04997 24.0 269
  85.05993 29.0 326
  93.07087 27.0 303
  109.02633 34.0 382
  117.07214 20.0 224
  123.04369 21.0 236
  125.06946 30.0 337
  131.08572 64.0 718
  137.05637 17.0 191
  146.10529 17.0 191
  167.10831 73.0 819
  168.91296 23.0 258
  174.0928 18.0 202
  191.11115 20.0 224
  192.11131 20.0 224
  209.11681 89.0 999
  209.12521 47.0 528
  210.12604 22.0 247
  227.13206 34.0 382
//
