ACCESSION: MSBNK-RIKEN-PR302018
RECORD_TITLE: Myricetin; LC-ESI-QTOF; MS2
DATE: 2019.03.28
AUTHORS: Tetsuya Mori, Center for Sustainable Resource Science, RIKEN
LICENSE: CC BY-NC-SA
PUBLICATION: Tsugawa H., Nakabayashi R., Mori T., Yamada Y., Takahashi M., Rai A., Sugiyama R., Yamamoto H., Nakaya T., Yamazaki M., Kooke R., Bac-Molenaar JA., Oztolan-Erol N., Keurentjes JJB., Arita M., Saito K. (2019) "A cheminformatics approach to characterize metabolomes in stable-isotope-labeled organisms" Nature Methods 16(4):295-298. [doi:10.1038/s41592-019-0358-2]
COMMENT: registered in RIKEN PlaSMA
CH$NAME: Myricetin
CH$COMPOUND_CLASS: Flavonols
CH$FORMULA: C15H10O8
CH$EXACT_MASS: 318.237
CH$SMILES: OC1=CC(O)=C2C(OC(=C(O)C2=O)C2=CC(O)=C(O)C(O)=C2)=C1
CH$IUPAC: InChI=1S/C15H10O8/c16-6-3-7(17)11-10(4-6)23-15(14(22)13(11)21)5-1-8(18)12(20)9(19)2-5/h1-4,16-20,22H
CH$LINK: INCHIKEY IKMDFBPHZNJCSN-UHFFFAOYSA-N
AC$INSTRUMENT: LC, Waters Acquity UPLC System; MS, Waters Xevo G2 Q-Tof
AC$INSTRUMENT_TYPE: LC-ESI-QTOF
AC$MASS_SPECTROMETRY: MS_TYPE MS2
AC$MASS_SPECTROMETRY: ION_MODE POSITIVE
AC$MASS_SPECTROMETRY: COLLISION_ENERGY 6V
AC$MASS_SPECTROMETRY: DESOLVATION_GAS_FLOW 800/h
AC$MASS_SPECTROMETRY: DESOLVATION_TEMPERATURE 450 C
AC$MASS_SPECTROMETRY: IONIZATION ESI
AC$CHROMATOGRAPHY: CAPILLARY_VOLTAGE +3.00 kV
AC$CHROMATOGRAPHY: COLUMN_NAME Acquity bridged ethyl hybrid C18 (1.7 um, 2.1 mm * 100 mm, Waters)
AC$CHROMATOGRAPHY: COLUMN_TEMPERATURE 40 C
AC$CHROMATOGRAPHY: FLOW_GRADIENT A/B = (99.5%/0.5% at 0 min, 99.5%/0.5% at 0.1 min, 20%/80% at 10 min, 0.5%/99.5% at 10.1 min, 0.5%/99.5% at 12.0 min, 99.5%/0.5% at 12.1 min, 99.5%/0.5% at 15.0 min)
AC$CHROMATOGRAPHY: FLOW_RATE 0.3 ml/min at 0 min, 0.3 ml/min at 10 min, 0.4 ml/min at 10.1 min, 0.4 ml/min at 14.4 min, 0.3 ml/min at 14.5 min
AC$CHROMATOGRAPHY: RETENTION_TIME 4.672667
AC$CHROMATOGRAPHY: SOLVENT A water including 0.1% formic acid
AC$CHROMATOGRAPHY: SOLVENT B acetonitrile including 0.1% formic acid
MS$FOCUSED_ION: PRECURSOR_TYPE [M+H]+
MS$FOCUSED_ION: PRECURSOR_M/Z 319.0448437
PK$SPLASH: splash10-0uxr-0970000000-b58f5bb40f8f3de47760
PK$NUM_PEAK: 138
PK$PEAK: m/z int. rel.int.
  68.9927 14.0 14
  69.00254 20.0 20
  79.01794 19.0 19
  95.01167 16.0 16
  95.04828 24.0 24
  97.02823 15.0 15
  107.05203 10.0 10
  109.0308 24.0 24
  110.61521 10.0 10
  111.00761 151.0 151
  112.01587 17.0 17
  119.0112 10.0 10
  119.05075 10.0 10
  121.02808 17.0 17
  121.05847 14.0 14
  125.01738 14.0 14
  125.02262 14.0 14
  126.02901 19.0 19
  131.04712 10.0 10
  133.05952 11.0 11
  134.06763 12.0 12
  135.00418 10.0 10
  136.96255 24.0 24
  137.01189 17.0 17
  137.02121 100.0 100
  137.04228 16.0 16
  138.02122 20.0 20
  143.04634 21.0 21
  147.0468 11.0 11
  149.01651 17.0 17
  153.01749 1000.0 999
  153.04527 50.0 50
  154.02156 50.0 50
  154.03128 15.0 15
  155.00117 11.0 11
  156.0564 22.0 22
  161.04504 10.0 10
  161.05122 30.0 30
  161.0735 10.0 10
  163.03706 24.0 24
  165.01747 421.0 421
  166.00987 13.0 13
  166.02042 19.0 19
  166.02913 12.0 12
  166.18716 10.0 10
  171.0455 32.0 32
  172.04921 17.0 17
  175.02234 13.0 13
  177.03456 13.0 13
  177.05554 37.0 37
  178.0649 10.0 10
  179.03482 171.0 171
  179.99693 12.0 12
  180.03337 28.0 28
  182.03838 10.0 10
  184.05841 11.0 11
  186.09708 21.0 21
  187.02422 10.0 10
  188.05824 10.0 10
  188.99612 13.0 13
  189.01077 28.0 28
  189.03006 15.0 15
  189.05617 41.0 41
  190.02742 20.0 20
  191.03102 10.0 10
  195.02431 19.0 19
  195.03516 33.0 33
  199.03613 78.0 78
  200.04596 15.0 15
  203.03448 103.0 103
  204.03008 20.0 20
  204.04485 20.0 20
  205.05734 14.0 14
  206.0551 11.0 11
  206.41943 14.0 14
  206.97462 13.0 13
  207.02689 16.0 16
  217.04546 214.0 214
  217.05408 191.0 191
  218.04399 15.0 15
  218.06139 19.0 19
  219.01749 13.0 13
  219.03008 12.0 12
  221.00879 15.0 15
  221.04422 15.0 15
  227.02724 16.0 16
  227.03764 24.0 24
  227.05444 12.0 12
  228.71329 13.0 13
  229.05341 13.0 13
  231.01137 10.0 10
  231.01962 20.0 20
  232.02757 11.0 11
  233.03415 39.0 39
  234.04591 10.0 10
  235.01315 15.0 15
  235.06105 32.0 32
  236.05969 15.0 15
  239.0302 11.0 11
  240.23267 10.0 10
  244.03966 29.0 29
  244.52782 25.0 25
  244.94086 14.0 14
  245.00975 29.0 29
  245.02943 69.0 69
  245.04703 300.0 300
  246.04408 37.0 37
  246.05605 42.0 42
  246.65047 10.0 10
  247.05247 10.0 10
  248.02298 15.0 15
  249.03526 15.0 15
  254.99957 19.0 19
  255.01801 38.0 38
  255.03416 35.0 35
  256.03601 19.0 19
  259.048 11.0 11
  261.02734 18.0 18
  261.03586 13.0 13
  263.05368 16.0 16
  263.13916 14.0 14
  272.02219 32.0 32
  272.03946 12.0 12
  272.9946 12.0 12
  273.02844 55.0 55
  273.04114 161.0 161
  273.07025 26.0 26
  273.33124 12.0 12
  274.04276 99.0 99
  274.67166 20.0 20
  275.03793 25.0 25
  275.0495 24.0 24
  277.00711 10.0 10
  290.0415 84.0 84
  291.04538 24.0 24
  301.03635 18.0 18
  319.01889 11.0 11
  319.04132 267.0 267
//
