ACCESSION: MSBNK-RIKEN-PR302832
RECORD_TITLE: Quercetin; LC-ESI-QTOF; MS2
DATE: 2019.03.28
AUTHORS: Tetsuya Mori, Center for Sustainable Resource Science, RIKEN
LICENSE: CC BY-NC-SA
PUBLICATION: Tsugawa H., Nakabayashi R., Mori T., Yamada Y., Takahashi M., Rai A., Sugiyama R., Yamamoto H., Nakaya T., Yamazaki M., Kooke R., Bac-Molenaar JA., Oztolan-Erol N., Keurentjes JJB., Arita M., Saito K. (2019) "A cheminformatics approach to characterize metabolomes in stable-isotope-labeled organisms" Nature Methods 16(4):295-298. [doi:10.1038/s41592-019-0358-2]
COMMENT: registered in RIKEN PlaSMA
CH$NAME: Quercetin
CH$COMPOUND_CLASS: Flavonols
CH$FORMULA: C15H10O7
CH$EXACT_MASS: 302.238
CH$SMILES: OC1=CC(O)=C2C(OC(=C(O)C2=O)C2=CC(O)=C(O)C=C2)=C1
CH$IUPAC: InChI=1S/C15H10O7/c16-7-4-10(19)12-11(5-7)22-15(14(21)13(12)20)6-1-2-8(17)9(18)3-6/h1-5,16-19,21H
CH$LINK: INCHIKEY REFJWTPEDVJJIY-UHFFFAOYSA-N
AC$INSTRUMENT: LC, Waters Acquity UPLC System; MS, Waters Xevo G2 Q-Tof
AC$INSTRUMENT_TYPE: LC-ESI-QTOF
AC$MASS_SPECTROMETRY: MS_TYPE MS2
AC$MASS_SPECTROMETRY: ION_MODE POSITIVE
AC$MASS_SPECTROMETRY: COLLISION_ENERGY 6V
AC$MASS_SPECTROMETRY: DESOLVATION_GAS_FLOW 800/h
AC$MASS_SPECTROMETRY: DESOLVATION_TEMPERATURE 450 C
AC$MASS_SPECTROMETRY: IONIZATION ESI
AC$CHROMATOGRAPHY: CAPILLARY_VOLTAGE +3.00 kV
AC$CHROMATOGRAPHY: COLUMN_NAME Acquity bridged ethyl hybrid C18 (1.7 um, 2.1 mm * 100 mm, Waters)
AC$CHROMATOGRAPHY: COLUMN_TEMPERATURE 40 C
AC$CHROMATOGRAPHY: FLOW_GRADIENT A/B = (99.5%/0.5% at 0 min, 99.5%/0.5% at 0.1 min, 20%/80% at 10 min, 0.5%/99.5% at 10.1 min, 0.5%/99.5% at 12.0 min, 99.5%/0.5% at 12.1 min, 99.5%/0.5% at 15.0 min)
AC$CHROMATOGRAPHY: FLOW_RATE 0.3 ml/min at 0 min, 0.3 ml/min at 10 min, 0.4 ml/min at 10.1 min, 0.4 ml/min at 14.4 min, 0.3 ml/min at 14.5 min
AC$CHROMATOGRAPHY: RETENTION_TIME 5.3665
AC$CHROMATOGRAPHY: SOLVENT A water including 0.1% formic acid
AC$CHROMATOGRAPHY: SOLVENT B acetonitrile including 0.1% formic acid
MS$FOCUSED_ION: PRECURSOR_TYPE [M+H]+
MS$FOCUSED_ION: PRECURSOR_M/Z 303.0499291
PK$SPLASH: splash10-0ufr-0961000000-8a469ca907d3e04f1c62
PK$NUM_PEAK: 223
PK$PEAK: m/z int. rel.int.
  69.03582 15.0 15
  69.99763 19.0 19
  81.02457 10.0 10
  93.03163 54.0 54
  93.03931 17.0 17
  93.22476 8.0 8
  95.04527 15.0 15
  95.05042 39.0 39
  103.05376 17.0 17
  105.03168 9.0 9
  106.376 8.0 8
  106.99946 10.0 10
  109.02922 132.0 132
  109.04304 10.0 10
  110.03039 8.0 8
  110.99736 8.0 8
  111.00799 77.0 77
  112.85958 7.0 7
  113.62166 7.0 7
  116.56139 12.0 12
  117.06459 24.0 24
  117.07245 22.0 22
  118.01839 16.0 16
  119.01011 14.0 14
  121.01719 20.0 20
  121.02678 118.0 118
  122.02206 10.0 10
  123.0164 15.0 15
  123.03289 16.0 16
  123.03931 13.0 13
  123.04787 20.0 20
  126.02177 7.0 7
  126.03345 17.0 17
  127.05827 14.0 14
  129.06093 10.0 10
  129.07175 25.0 25
  130.06752 20.0 20
  131.04958 37.0 37
  133.0172 14.0 14
  133.0242 9.0 9
  134.19278 7.0 7
  135.02596 21.0 21
  135.04463 52.0 52
  136.0159 10.0 10
  137.01163 64.0 64
  137.02078 180.0 180
  137.02794 231.0 231
  138.01904 21.0 21
  138.02629 24.0 24
  138.03714 29.0 29
  145.03166 15.0 15
  145.06052 63.0 63
  145.07051 31.0 31
  146.03917 10.0 10
  146.0612 7.0 7
  146.06862 9.0 9
  147.05042 22.0 22
  149.02168 90.0 90
  149.02867 37.0 37
  150.03165 25.0 25
  151.03218 18.0 18
  153.0081 172.0 172
  153.01863 684.0 683
  153.17889 7.0 7
  154.01929 46.0 46
  154.02673 40.0 40
  155.02812 19.0 19
  155.04474 42.0 42
  155.05376 88.0 88
  156.05347 7.0 7
  156.37131 7.0 7
  157.0535 11.0 11
  157.06364 29.0 29
  157.08241 13.0 13
  159.04373 8.0 8
  160.00677 10.0 10
  160.28461 10.0 10
  161.05766 123.0 123
  162.05801 25.0 25
  162.06935 8.0 8
  163.03192 34.0 34
  163.04591 56.0 56
  163.07651 7.0 7
  164.01424 11.0 11
  164.03328 13.0 13
  164.04385 10.0 10
  164.99742 7.0 7
  165.01804 444.0 444
  165.05809 10.0 10
  165.39185 8.0 8
  165.51817 8.0 8
  166.02452 125.0 125
  166.03485 14.0 14
  167.0161 10.0 10
  167.02744 25.0 25
  168.17259 7.0 7
  171.04755 15.0 15
  171.72694 10.0 10
  173.02214 52.0 52
  173.04834 11.0 11
  173.06088 98.0 98
  175.22345 8.0 8
  177.00829 12.0 12
  177.02628 9.0 9
  177.05336 8.0 8
  177.06192 10.0 10
  178.82219 8.0 8
  179.02921 10.0 10
  179.03957 46.0 46
  181.05588 7.0 7
  183.01605 15.0 15
  183.04631 154.0 154
  184.02356 13.0 13
  184.03105 7.0 7
  184.05025 24.0 24
  186.72179 7.0 7
  187.0329 63.0 63
  187.04802 30.0 30
  189.01259 8.0 8
  189.02779 15.0 15
  193.04674 8.0 8
  193.85242 8.0 8
  194.69901 14.0 14
  195.02135 18.0 18
  195.0332 27.0 27
  200.05196 8.0 8
  200.97678 10.0 10
  201.00533 7.0 7
  201.02345 7.0 7
  201.05397 387.0 387
  201.16214 7.0 7
  202.05673 8.0 8
  202.06767 7.0 7
  203.03592 22.0 22
  203.08119 7.0 7
  204.04639 12.0 12
  205.04303 15.0 15
  205.05643 8.0 8
  207.02106 17.0 17
  208.03563 9.0 9
  208.44127 8.0 8
  211.02235 13.0 13
  211.04048 9.0 9
  215.03114 24.0 24
  215.03966 8.0 8
  216.03877 15.0 15
  217.03929 12.0 12
  219.02155 12.0 12
  219.03665 8.0 8
  219.0632 82.0 82
  220.0303 7.0 7
  220.06606 36.0 36
  220.21164 11.0 11
  220.25279 7.0 7
  221.01857 10.0 10
  222.06349 7.0 7
  228.04323 41.0 41
  228.05534 12.0 12
  228.97983 10.0 10
  229.04956 1000.0 999
  230.04677 76.0 76
  230.0567 76.0 76
  230.3353 8.0 8
  230.4408 9.0 9
  231.04922 7.0 7
  231.0602 20.0 20
  231.38963 16.0 16
  231.73177 16.0 16
  232.03241 11.0 11
  232.04665 18.0 18
  232.06206 13.0 13
  233.01712 14.0 14
  233.04268 10.0 10
  233.05832 10.0 10
  236.01575 7.0 7
  239.01392 9.0 9
  239.04565 27.0 27
  240.05638 8.0 8
  242.05498 12.0 12
  242.96585 10.0 10
  242.98651 8.0 8
  243.00755 8.0 8
  243.02985 27.0 27
  245.03416 12.0 12
  245.04468 33.0 33
  246.05443 12.0 12
  247.03038 7.0 7
  247.05301 56.0 56
  247.07372 20.0 20
  248.07275 8.0 8
  248.08316 10.0 10
  252.06404 11.0 11
  252.53841 15.0 15
  257.02704 20.0 20
  257.04294 144.0 144
  257.0517 167.0 167
  257.6806 18.0 18
  258.03552 73.0 73
  258.05615 18.0 18
  258.07312 8.0 8
  259.03223 14.0 14
  259.04556 32.0 32
  261.0528 10.0 10
  267.01492 9.0 9
  271.65991 7.0 7
  274.0238 38.0 38
  274.05493 70.0 70
  275.05124 21.0 21
  275.06241 11.0 11
  276.52454 8.0 8
  276.5986 11.0 11
  284.03305 10.0 10
  285.02982 85.0 85
  285.04764 76.0 76
  286.01532 15.0 15
  286.03003 17.0 17
  286.048 19.0 19
  286.05667 7.0 7
  302.98837 7.0 7
  303.00909 26.0 26
  303.04239 321.0 321
  303.0563 343.0 343
  303.07428 49.0 49
//
