ACCESSION: MSBNK-RIKEN-PR304176
RECORD_TITLE: cis-resveratrol; LC-ESI-QTOF; MS2
DATE: 2019.03.28
AUTHORS: Tetsuya Mori, Center for Sustainable Resource Science, RIKEN
LICENSE: CC BY-NC-SA
PUBLICATION: Tsugawa H., Nakabayashi R., Mori T., Yamada Y., Takahashi M., Rai A., Sugiyama R., Yamamoto H., Nakaya T., Yamazaki M., Kooke R., Bac-Molenaar JA., Oztolan-Erol N., Keurentjes JJB., Arita M., Saito K. (2019) "A cheminformatics approach to characterize metabolomes in stable-isotope-labeled organisms" Nature Methods 16(4):295-298. [doi:10.1038/s41592-019-0358-2]
COMMENT: registered in RIKEN PlaSMA
CH$NAME: cis-resveratrol
CH$COMPOUND_CLASS: Stilbenes
CH$FORMULA: C14H12O3
CH$EXACT_MASS: 228.247
CH$SMILES: OC1=CC=C(\C=C/C2=CC(O)=CC(O)=C2)C=C1
CH$IUPAC: InChI=1S/C14H12O3/c15-12-5-3-10(4-6-12)1-2-11-7-13(16)9-14(17)8-11/h1-9,15-17H/b2-1-
CH$LINK: INCHIKEY LUKBXSAWLPMMSZ-UPHRSURJSA-N
AC$INSTRUMENT: LC, Waters Acquity UPLC System; MS, Waters Xevo G2 Q-Tof
AC$INSTRUMENT_TYPE: LC-ESI-QTOF
AC$MASS_SPECTROMETRY: MS_TYPE MS2
AC$MASS_SPECTROMETRY: ION_MODE POSITIVE
AC$MASS_SPECTROMETRY: COLLISION_ENERGY 6V
AC$MASS_SPECTROMETRY: DESOLVATION_GAS_FLOW 800/h
AC$MASS_SPECTROMETRY: DESOLVATION_TEMPERATURE 450 C
AC$MASS_SPECTROMETRY: IONIZATION ESI
AC$CHROMATOGRAPHY: CAPILLARY_VOLTAGE +3.00 kV
AC$CHROMATOGRAPHY: COLUMN_NAME Acquity bridged ethyl hybrid C18 (1.7 um, 2.1 mm * 100 mm, Waters)
AC$CHROMATOGRAPHY: COLUMN_TEMPERATURE 40 C
AC$CHROMATOGRAPHY: FLOW_GRADIENT A/B = (99.5%/0.5% at 0 min, 99.5%/0.5% at 0.1 min, 20%/80% at 10 min, 0.5%/99.5% at 10.1 min, 0.5%/99.5% at 12.0 min, 99.5%/0.5% at 12.1 min, 99.5%/0.5% at 15.0 min)
AC$CHROMATOGRAPHY: FLOW_RATE 0.3 ml/min at 0 min, 0.3 ml/min at 10 min, 0.4 ml/min at 10.1 min, 0.4 ml/min at 14.4 min, 0.3 ml/min at 14.5 min
AC$CHROMATOGRAPHY: RETENTION_TIME 5.593217
AC$CHROMATOGRAPHY: SOLVENT A water including 0.1% formic acid
AC$CHROMATOGRAPHY: SOLVENT B acetonitrile including 0.1% formic acid
MS$FOCUSED_ION: PRECURSOR_TYPE [M+H]+
MS$FOCUSED_ION: PRECURSOR_M/Z 229.0859207
PK$SPLASH: splash10-0a4i-1900000000-46e62b5c15694d93a34e
PK$NUM_PEAK: 97
PK$PEAK: m/z int. rel.int.
  68.99816 14.0 14
  71.01254 24.0 24
  77.0369 52.0 52
  79.04789 23.0 23
  79.05387 79.0 79
  89.03531 17.0 17
  91.05334 407.0 407
  93.02985 13.0 13
  93.03585 66.0 66
  94.04036 19.0 19
  95.05544 17.0 17
  105.05928 17.0 17
  106.03503 14.0 14
  107.04867 1000.0 999
  108.04829 36.0 36
  109.03059 15.0 15
  109.05183 15.0 15
  110.03911 35.0 35
  111.04432 17.0 17
  115.05666 22.0 22
  116.05592 69.0 69
  117.06008 19.0 19
  117.06897 19.0 19
  117.12222 23.0 23
  119.04575 100.0 100
  120.05645 28.0 28
  120.06155 42.0 42
  121.03191 16.0 16
  121.05682 18.0 18
  121.06569 17.0 17
  123.04039 35.0 35
  123.05099 19.0 19
  127.05516 21.0 21
  127.0601 19.0 19
  128.05579 18.0 18
  128.06511 16.0 16
  129.07216 17.0 17
  130.08054 23.0 23
  131.0421 15.0 15
  131.08107 26.0 26
  132.03339 22.0 22
  134.0377 31.0 31
  135.00412 23.0 23
  135.04442 92.0 92
  136.05128 80.0 80
  137.05418 18.0 18
  141.07187 53.0 53
  142.06514 17.0 17
  142.07477 22.0 22
  143.08304 32.0 32
  144.04517 18.0 18
  144.05617 27.0 27
  145.05551 48.0 48
  145.06505 20.0 20
  146.06361 34.0 34
  147.0446 23.0 23
  152.06177 31.0 31
  153.06438 75.0 75
  153.0723 129.0 129
  154.07809 67.0 67
  155.07584 34.0 34
  155.09167 19.0 19
  156.08766 32.0 32
  157.06197 37.0 37
  158.0696 32.0 32
  161.05824 18.0 18
  164.04799 18.0 18
  164.05995 34.0 34
  165.05063 14.0 14
  165.07124 396.0 396
  166.05898 14.0 14
  166.06689 35.0 35
  166.07812 70.0 70
  166.21478 14.0 14
  167.08563 23.0 23
  171.03671 18.0 18
  173.06271 20.0 20
  181.06306 248.0 248
  182.06686 33.0 33
  182.08102 69.0 69
  183.04655 15.0 15
  183.07735 28.0 28
  184.03529 21.0 21
  184.32224 15.0 15
  185.05479 15.0 15
  186.05827 15.0 15
  186.07034 18.0 18
  192.13121 14.0 14
  194.06213 17.0 17
  198.06816 19.0 19
  199.07327 15.0 15
  199.08545 18.0 18
  209.0603 17.0 17
  211.06944 14.0 14
  213.0535 96.0 96
  214.06497 18.0 18
  227.08009 14.0 14
//
