ACCESSION: MSBNK-RIKEN-PR303434
RECORD_TITLE: Isovitexin(4); LC-ESI-QTOF; MS2
DATE: 2019.03.28
AUTHORS: Tetsuya Mori, Center for Sustainable Resource Science, RIKEN
LICENSE: CC BY-NC-SA
PUBLICATION: Tsugawa H., Nakabayashi R., Mori T., Yamada Y., Takahashi M., Rai A., Sugiyama R., Yamamoto H., Nakaya T., Yamazaki M., Kooke R., Bac-Molenaar JA., Oztolan-Erol N., Keurentjes JJB., Arita M., Saito K. (2019) "A cheminformatics approach to characterize metabolomes in stable-isotope-labeled organisms" Nature Methods 16(4):295-298. [doi:10.1038/s41592-019-0358-2]
COMMENT: registered in RIKEN PlaSMA
CH$NAME: Isovitexin(4)
CH$COMPOUND_CLASS: Flavonoid C-glycosides
CH$FORMULA: C21H20O10
CH$EXACT_MASS: 432.381
CH$SMILES: OC[C@H]1O[C@H]([C@H](O)[C@@H](O)[C@@H]1O)C1=C(O)C2=C(OC(=CC2=O)C2=CC=C(O)C=C2)C=C1O
CH$IUPAC: InChI=1S/C21H20O10/c22-7-14-17(26)19(28)20(29)21(31-14)16-11(25)6-13-15(18(16)27)10(24)5-12(30-13)8-1-3-9(23)4-2-8/h1-6,14,17,19-23,25-29H,7H2/t14-,17-,19+,20-,21+/m1/s1
CH$LINK: INCHIKEY MYXNWGACZJSMBT-VJXVFPJBSA-N
AC$INSTRUMENT: LC, Waters Acquity UPLC System; MS, Waters Xevo G2 Q-Tof
AC$INSTRUMENT_TYPE: LC-ESI-QTOF
AC$MASS_SPECTROMETRY: MS_TYPE MS2
AC$MASS_SPECTROMETRY: ION_MODE POSITIVE
AC$MASS_SPECTROMETRY: COLLISION_ENERGY 6V
AC$MASS_SPECTROMETRY: DESOLVATION_GAS_FLOW 800/h
AC$MASS_SPECTROMETRY: DESOLVATION_TEMPERATURE 450 C
AC$MASS_SPECTROMETRY: IONIZATION ESI
AC$CHROMATOGRAPHY: CAPILLARY_VOLTAGE +3.00 kV
AC$CHROMATOGRAPHY: COLUMN_NAME Acquity bridged ethyl hybrid C18 (1.7 um, 2.1 mm * 100 mm, Waters)
AC$CHROMATOGRAPHY: COLUMN_TEMPERATURE 40 C
AC$CHROMATOGRAPHY: FLOW_GRADIENT A/B = (99.5%/0.5% at 0 min, 99.5%/0.5% at 0.1 min, 20%/80% at 10 min, 0.5%/99.5% at 10.1 min, 0.5%/99.5% at 12.0 min, 99.5%/0.5% at 12.1 min, 99.5%/0.5% at 15.0 min)
AC$CHROMATOGRAPHY: FLOW_RATE 0.3 ml/min at 0 min, 0.3 ml/min at 10 min, 0.4 ml/min at 10.1 min, 0.4 ml/min at 14.4 min, 0.3 ml/min at 14.5 min
AC$CHROMATOGRAPHY: RETENTION_TIME 3.9478
AC$CHROMATOGRAPHY: SOLVENT A water including 0.1% formic acid
AC$CHROMATOGRAPHY: SOLVENT B acetonitrile including 0.1% formic acid
MS$FOCUSED_ION: PRECURSOR_TYPE [M+H]+
MS$FOCUSED_ION: PRECURSOR_M/Z 433.1129233
PK$SPLASH: splash10-0159-0960000000-79764627607ec39665de
PK$NUM_PEAK: 225
PK$PEAK: m/z int. rel.int.
  55.01805 41.0 41
  65.03736 10.0 10
  67.02074 14.0 14
  69.0341 9.0 9
  77.03799 12.0 12
  79.01998 8.0 8
  81.03661 10.0 10
  85.02794 21.0 21
  91.05427 11.0 11
  93.00046 9.0 9
  93.03146 39.0 39
  93.04049 9.0 9
  95.04261 17.0 17
  95.05053 8.0 8
  99.00083 20.0 20
  102.04154 7.0 7
  103.03597 13.0 13
  104.05577 16.0 16
  105.03082 9.0 9
  107.05186 27.0 27
  109.02318 8.0 8
  109.03189 13.0 13
  109.05355 7.0 7
  110.03483 12.0 12
  118.03591 9.0 9
  119.04723 185.0 185
  119.05266 55.0 55
  121.02755 268.0 268
  122.01893 11.0 11
  122.02824 12.0 12
  122.98938 8.0 8
  123.00359 87.0 87
  123.01221 53.0 53
  124.01381 39.0 39
  125.01369 11.0 11
  125.02129 11.0 11
  131.05 74.0 74
  132.04861 19.0 19
  133.02556 23.0 23
  133.04077 12.0 12
  134.03616 17.0 17
  135.04137 7.0 7
  137.02187 77.0 77
  137.02943 23.0 23
  138.03183 103.0 103
  138.05894 9.0 9
  142.31976 9.0 9
  143.04898 30.0 30
  144.01778 9.0 9
  145.02846 190.0 190
  146.03055 21.0 21
  147.01157 11.0 11
  147.04587 52.0 52
  148.00458 9.0 9
  148.45169 9.0 9
  148.86244 9.0 9
  149.02142 186.0 186
  149.03566 29.0 29
  150.02229 25.0 25
  150.02844 13.0 13
  151.03656 11.0 11
  153.01947 24.0 24
  157.02289 12.0 12
  159.04797 40.0 40
  159.05426 17.0 17
  160.045 8.0 8
  160.05547 10.0 10
  162.0329 38.0 38
  163.00343 29.0 29
  163.02841 51.0 51
  163.04097 157.0 157
  163.868 8.0 8
  164.04597 12.0 12
  164.0564 7.0 7
  164.99277 16.0 16
  165.01781 1000.0 999
  165.03743 11.0 11
  165.07243 14.0 14
  166.02066 177.0 177
  167.01285 15.0 15
  167.04219 13.0 13
  168.84773 11.0 11
  169.42249 7.0 7
  169.58929 9.0 9
  170.37016 7.0 7
  171.0439 7.0 7
  171.06973 17.0 17
  172.04408 8.0 8
  173.01569 9.0 9
  173.07762 24.0 24
  175.0269 25.0 25
  175.04141 38.0 38
  175.08611 15.0 15
  176.01633 10.0 10
  176.05537 14.0 14
  177.02141 121.0 121
  177.51665 8.0 8
  178.00917 20.0 20
  178.03456 10.0 10
  178.06018 7.0 7
  179.02542 31.0 31
  179.07574 9.0 9
  179.4066 8.0 8
  179.83748 7.0 7
  182.07535 11.0 11
  183.08415 8.0 8
  186.06441 12.0 12
  187.04065 90.0 90
  188.04207 21.0 21
  189.0047 23.0 23
  189.02092 20.0 20
  190.02446 38.0 38
  190.98749 13.0 13
  191.02353 47.0 47
  191.0423 25.0 25
  194.07283 9.0 9
  195.01624 10.0 10
  195.02393 20.0 20
  200.07393 9.0 9
  200.08392 26.0 26
  203.02985 15.0 15
  203.04245 22.0 22
  203.06868 11.0 11
  205.04431 14.0 14
  207.0596 9.0 9
  210.06247 11.0 11
  211.06363 29.0 29
  211.07408 10.0 10
  213.04701 10.0 10
  213.07036 14.0 14
  215.02565 9.0 9
  215.03891 19.0 19
  221.09303 8.0 8
  226.05215 14.0 14
  227.03931 10.0 10
  227.07774 9.0 9
  229.05331 60.0 60
  230.05186 21.0 21
  230.06396 14.0 14
  231.07877 8.0 8
  234.07178 15.0 15
  235.04652 8.0 8
  239.06192 36.0 36
  239.07549 80.0 80
  240.0703 14.0 14
  242.04472 8.0 8
  242.06157 26.0 26
  243.01804 30.0 30
  243.03677 15.0 15
  243.06294 10.0 10
  251.06544 29.0 29
  253.03992 12.0 12
  254.09796 11.0 11
  255.04083 17.0 17
  255.05618 23.0 23
  255.06509 76.0 76
  256.0563 15.0 15
  256.06427 19.0 19
  256.08371 33.0 33
  257.08069 28.0 28
  259.0726 8.0 8
  262.06992 9.0 9
  263.07828 16.0 16
  266.05008 10.0 10
  266.05853 13.0 13
  267.00311 11.0 11
  267.06775 164.0 164
  268.06271 34.0 34
  268.07635 61.0 61
  269.05234 15.0 15
  269.06134 19.0 19
  269.07645 9.0 9
  270.0477 91.0 91
  271.05103 21.0 21
  271.06363 54.0 54
  272.06268 10.0 10
  275.07806 8.0 8
  275.09744 7.0 7
  277.08264 11.0 11
  279.021 10.0 10
  279.05231 34.0 34
  279.06592 57.0 57
  280.06693 18.0 18
  281.07379 25.0 25
  281.0892 66.0 66
  281.10251 9.0 9
  282.08319 8.0 8
  283.05963 744.0 743
  283.08127 76.0 76
  284.06555 350.0 350
  285.06985 77.0 77
  285.09576 9.0 9
  293.09134 8.0 8
  294.04846 9.0 9
  294.89719 7.0 7
  295.04156 9.0 9
  295.06116 93.0 93
  295.0773 26.0 26
  295.09225 20.0 20
  296.05847 8.0 8
  297.04575 9.0 9
  297.06064 7.0 7
  301.72604 8.0 8
  304.08551 10.0 10
  305.07632 32.0 32
  307.05353 10.0 10
  307.06741 31.0 31
  308.05005 9.0 9
  308.07047 26.0 26
  309.03851 11.0 11
  309.06357 21.0 21
  309.07642 55.0 55
  309.09625 10.0 10
  310.05701 23.0 23
  313.06976 35.0 35
  313.08392 12.0 12
  315.05627 8.0 8
  321.06805 10.0 10
  323.08627 25.0 25
  323.09494 41.0 41
  327.65198 7.0 7
  330.16071 7.0 7
  333.06339 10.0 10
  349.10391 9.0 9
  398.09637 9.0 9
//
