ACCESSION: MSBNK-RIKEN-PR300751
RECORD_TITLE: Aconitine; LC-ESI-QTOF; MS2
DATE: 2019.03.28
AUTHORS: Tetsuya Mori, Center for Sustainable Resource Science, RIKEN
LICENSE: CC BY-NC-SA
PUBLICATION: Tsugawa H., Nakabayashi R., Mori T., Yamada Y., Takahashi M., Rai A., Sugiyama R., Yamamoto H., Nakaya T., Yamazaki M., Kooke R., Bac-Molenaar JA., Oztolan-Erol N., Keurentjes JJB., Arita M., Saito K. (2019) "A cheminformatics approach to characterize metabolomes in stable-isotope-labeled organisms" Nature Methods 16(4):295-298. [doi:10.1038/s41592-019-0358-2]
COMMENT: registered in RIKEN PlaSMA
CH$NAME: Aconitine
CH$COMPOUND_CLASS: Aconitane-type diterpenoid alkaloids
CH$FORMULA: C34H47NO11
CH$EXACT_MASS: 645.746
CH$SMILES: CCN1C[C@@]2(COC)[C@H]3[C@@H](OC)[C@H]4C1[C@@]3([C@@H]1C[C@@]3(O)[C@H](OC(=O)C5=CC=CC=C5)[C@@H]1[C@]4(OC(C)=O)[C@@H](O)[C@@H]3OC)[C@H](C[C@H]2O)OC
CH$IUPAC: InChI=1S/C34H47NO11/c1-7-35-15-31(16-41-3)20(37)13-21(42-4)33-19-14-32(40)28(45-30(39)18-11-9-8-10-12-18)22(19)34(46-17(2)36,27(38)29(32)44-6)23(26(33)35)24(43-5)25(31)33/h8-12,19-29,37-38,40H,7,13-16H2,1-6H3/t19-,20-,21+,22-,23+,24+,25-,26?,27+,28-,29+,31+,32-,33+,34-/m1/s1
CH$LINK: INCHIKEY XFSBVAOIAHNAPC-XTHSEXKGSA-N
AC$INSTRUMENT: LC, Waters Acquity UPLC System; MS, Waters Xevo G2 Q-Tof
AC$INSTRUMENT_TYPE: LC-ESI-QTOF
AC$MASS_SPECTROMETRY: MS_TYPE MS2
AC$MASS_SPECTROMETRY: ION_MODE POSITIVE
AC$MASS_SPECTROMETRY: COLLISION_ENERGY 6V
AC$MASS_SPECTROMETRY: DESOLVATION_GAS_FLOW 800/h
AC$MASS_SPECTROMETRY: DESOLVATION_TEMPERATURE 450 C
AC$MASS_SPECTROMETRY: IONIZATION ESI
AC$CHROMATOGRAPHY: CAPILLARY_VOLTAGE +3.00 kV
AC$CHROMATOGRAPHY: COLUMN_NAME Acquity bridged ethyl hybrid C18 (1.7 um, 2.1 mm * 100 mm, Waters)
AC$CHROMATOGRAPHY: COLUMN_TEMPERATURE 40 C
AC$CHROMATOGRAPHY: FLOW_GRADIENT A/B = (99.5%/0.5% at 0 min, 99.5%/0.5% at 0.1 min, 20%/80% at 10 min, 0.5%/99.5% at 10.1 min, 0.5%/99.5% at 12.0 min, 99.5%/0.5% at 12.1 min, 99.5%/0.5% at 15.0 min)
AC$CHROMATOGRAPHY: FLOW_RATE 0.3 ml/min at 0 min, 0.3 ml/min at 10 min, 0.4 ml/min at 10.1 min, 0.4 ml/min at 14.4 min, 0.3 ml/min at 14.5 min
AC$CHROMATOGRAPHY: RETENTION_TIME 5.965333
AC$CHROMATOGRAPHY: SOLVENT A water including 0.1% formic acid
AC$CHROMATOGRAPHY: SOLVENT B acetonitrile including 0.1% formic acid
MS$FOCUSED_ION: PRECURSOR_TYPE [M+H]+
MS$FOCUSED_ION: PRECURSOR_M/Z 646.3221878
PK$SPLASH: splash10-0pvi-0975330000-03f1362b34cbfda8ea9e
PK$NUM_PEAK: 769
PK$PEAK: m/z int. rel.int.
  55.01432 5.0 5
  58.0631 10.0 10
  58.06743 12.0 12
  71.04639 6.0 6
  72.08494 11.0 11
  75.04711 39.0 39
  77.03628 25.0 25
  80.04996 11.0 11
  84.04243 7.0 7
  84.08315 9.0 9
  84.08714 6.0 6
  85.02347 10.0 10
  85.03025 14.0 14
  85.06232 6.0 6
  86.03312 8.0 8
  88.0747 7.0 7
  91.04475 8.0 8
  91.05516 5.0 5
  93.06641 9.0 9
  96.08126 13.0 13
  97.06786 25.0 25
  98.09776 13.0 13
  102.09147 9.0 9
  103.05354 6.0 6
  105.01897 6.0 6
  105.03378 1000.0 999
  105.07492 7.0 7
  106.02769 8.0 8
  106.03735 45.0 45
  106.07771 6.0 6
  106.29762 9.0 9
  107.03928 6.0 6
  108.0826 16.0 16
  109.0582 10.0 10
  109.06683 41.0 41
  109.08761 5.0 5
  110.05853 5.0 5
  110.06749 6.0 6
  110.09604 51.0 51
  111.04217 6.0 6
  111.07875 90.0 90
  111.08705 20.0 20
  112.07962 10.0 10
  113.08526 15.0 15
  114.09576 7.0 7
  115.0506 6.0 6
  115.07411 8.0 8
  117.0694 19.0 19
  119.04807 22.0 22
  120.05458 5.0 5
  121.05751 5.0 5
  121.06828 24.0 24
  121.08949 8.0 8
  121.86517 6.0 6
  122.01185 7.0 7
  122.09759 32.0 32
  122.10513 13.0 13
  123.10078 10.0 10
  124.10632 5.0 5
  126.65221 8.0 8
  128.05733 10.0 10
  129.05379 10.0 10
  129.06097 11.0 11
  129.07071 36.0 36
  129.09349 5.0 5
  131.05032 21.0 21
  131.07118 5.0 5
  131.08405 26.0 26
  131.09099 30.0 30
  131.70186 15.0 15
  132.08615 13.0 13
  133.03212 6.0 6
  133.06204 13.0 13
  133.10144 9.0 9
  134.06152 6.0 6
  134.09308 15.0 15
  134.09962 5.0 5
  135.04616 18.0 18
  135.08223 24.0 24
  136.04166 6.0 6
  137.05963 20.0 20
  138.0652 5.0 5
  138.4437 5.0 5
  140.10654 38.0 38
  141.04491 6.0 6
  141.06104 8.0 8
  141.07185 18.0 18
  141.09134 14.0 14
  141.09816 10.0 10
  142.06169 5.0 5
  142.12239 45.0 45
  143.08359 9.0 9
  144.05629 14.0 14
  144.07481 6.0 6
  144.09024 6.0 6
  144.10854 7.0 7
  145.04904 6.0 6
  145.07106 5.0 5
  145.08945 6.0 6
  145.5313 5.0 5
  146.09383 17.0 17
  147.04581 20.0 20
  147.07996 24.0 24
  148.11035 11.0 11
  149.09625 5.0 5
  149.11374 6.0 6
  151.07446 14.0 14
  151.10399 6.0 6
  152.09801 34.0 34
  152.11165 32.0 32
  153.01738 6.0 6
  153.05634 5.0 5
  153.07191 23.0 23
  153.1004 11.0 11
  153.10925 15.0 15
  155.08624 16.0 16
  156.09264 7.0 7
  157.06709 11.0 11
  158.07748 7.0 7
  158.08873 9.0 9
  158.0995 35.0 35
  159.04037 14.0 14
  159.05005 6.0 6
  159.06671 9.0 9
  159.07434 36.0 36
  159.10612 19.0 19
  159.12135 5.0 5
  160.11292 34.0 34
  160.11978 9.0 9
  161.02692 10.0 10
  161.08292 10.0 10
  161.10727 6.0 6
  161.11481 13.0 13
  162.06079 5.0 5
  162.09073 53.0 53
  162.12677 5.0 5
  163.02138 6.0 6
  163.07939 18.0 18
  163.08868 11.0 11
  164.11134 26.0 26
  165.0545 23.0 23
  165.07271 35.0 35
  165.09163 32.0 32
  166.06361 15.0 15
  166.07768 15.0 15
  166.0955 5.0 5
  166.10431 6.0 6
  167.08176 17.0 17
  167.09042 18.0 18
  169.0947 6.0 6
  170.06305 9.0 9
  170.07631 8.0 8
  171.08319 22.0 22
  171.10358 5.0 5
  172.08513 6.0 6
  172.10648 30.0 30
  173.03732 6.0 6
  173.05588 5.0 5
  173.09819 11.0 11
  173.11917 16.0 16
  173.93634 9.0 9
  174.0916 69.0 69
  175.03241 5.0 5
  175.09895 10.0 10
  176.06978 8.0 8
  176.11148 11.0 11
  177.0164 8.0 8
  177.0582 7.0 7
  177.10837 9.0 9
  178.07614 10.0 10
  178.08904 5.0 5
  178.11609 11.0 11
  179.07854 18.0 18
  179.09029 54.0 54
  179.74846 5.0 5
  179.86334 6.0 6
  180.09647 8.0 8
  181.06786 18.0 18
  181.08806 7.0 7
  181.1019 27.0 27
  182.09608 8.0 8
  183.07877 9.0 9
  184.0793 6.0 6
  184.09529 8.0 8
  184.11357 22.0 22
  184.12843 5.0 5
  185.11008 11.0 11
  185.1346 7.0 7
  186.09148 9.0 9
  186.11096 6.0 6
  186.12152 31.0 31
  186.13551 17.0 17
  186.24524 7.0 7
  187.07066 14.0 14
  187.13326 5.0 5
  188.07367 39.0 39
  188.08441 5.0 5
  188.13744 6.0 6
  189.07376 16.0 16
  189.08131 27.0 27
  189.09662 7.0 7
  190.06097 5.0 5
  190.07069 6.0 6
  190.07932 16.0 16
  190.08777 32.0 32
  190.103 12.0 12
  190.12053 34.0 34
  191.05902 5.0 5
  191.0704 17.0 17
  191.08748 40.0 40
  191.11172 9.0 9
  191.12122 10.0 10
  191.1329 9.0 9
  192.09708 5.0 5
  192.10315 11.0 11
  193.05992 14.0 14
  193.10086 20.0 20
  193.10774 15.0 15
  194.09764 6.0 6
  195.06837 5.0 5
  195.08521 25.0 25
  195.11421 13.0 13
  196.0808 15.0 15
  196.10968 5.0 5
  196.11996 18.0 18
  197.08612 6.0 6
  197.09686 15.0 15
  198.06743 7.0 7
  198.12195 19.0 19
  199.07272 9.0 9
  199.11584 8.0 8
  199.72258 6.0 6
  200.11188 6.0 6
  201.07013 9.0 9
  201.08542 11.0 11
  201.09581 10.0 10
  202.07312 10.0 10
  202.08374 20.0 20
  202.12202 62.0 62
  203.07162 8.0 8
  203.08557 22.0 22
  203.09691 32.0 32
  204.08733 17.0 17
  204.10104 17.0 17
  204.14653 21.0 21
  205.07605 7.0 7
  205.09335 14.0 14
  205.10559 51.0 51
  205.15141 7.0 7
  206.07355 6.0 6
  206.11128 18.0 18
  207.08119 32.0 32
  207.12654 11.0 11
  208.07275 8.0 8
  208.09357 8.0 8
  208.10988 5.0 5
  208.12274 9.0 9
  208.14172 9.0 9
  208.1713 6.0 6
  208.37479 6.0 6
  209.09076 20.0 20
  209.12924 5.0 5
  209.49019 7.0 7
  210.10535 5.0 5
  210.13054 40.0 40
  211.08101 10.0 10
  211.10257 9.0 9
  211.12128 5.0 5
  211.12987 7.0 7
  212.08018 6.0 6
  212.11536 25.0 25
  213.10889 5.0 5
  214.18564 6.0 6
  215.06793 12.0 12
  215.08702 28.0 28
  215.09715 17.0 17
  215.11253 14.0 14
  216.14174 20.0 20
  217.099 8.0 8
  217.10696 26.0 26
  217.13931 5.0 5
  217.27644 11.0 11
  218.06728 18.0 18
  218.07986 9.0 9
  218.1026 14.0 14
  218.11612 9.0 9
  218.13045 6.0 6
  218.14787 51.0 51
  218.15948 62.0 62
  218.55647 5.0 5
  219.07336 9.0 9
  219.08299 27.0 27
  219.09792 5.0 5
  219.14403 12.0 12
  219.15485 14.0 14
  220.095 29.0 29
  221.09534 36.0 36
  221.11662 5.0 5
  222.09094 7.0 7
  222.10703 10.0 10
  223.0744 9.0 9
  223.1073 16.0 16
  223.15338 6.0 6
  224.04369 6.0 6
  224.07797 5.0 5
  224.08536 6.0 6
  224.13998 13.0 13
  224.15015 13.0 13
  225.10037 17.0 17
  225.12823 8.0 8
  226.101 8.0 8
  227.11298 7.0 7
  227.12354 6.0 6
  228.09941 5.0 5
  228.13628 18.0 18
  229.14447 7.0 7
  230.08499 9.0 9
  230.10596 14.0 14
  230.12645 11.0 11
  230.15166 6.0 6
  231.08197 18.0 18
  231.09993 39.0 39
  231.12451 16.0 16
  232.09186 11.0 11
  232.12711 18.0 18
  233.06984 19.0 19
  233.09346 88.0 88
  233.10843 20.0 20
  233.13945 14.0 14
  234.07446 5.0 5
  234.10098 5.0 5
  234.11037 14.0 14
  234.12221 11.0 11
  235.07254 10.0 10
  235.11089 62.0 62
  235.12482 16.0 16
  236.12189 31.0 31
  236.14293 12.0 12
  236.15724 14.0 14
  236.16811 10.0 10
  237.09117 47.0 47
  237.11124 22.0 22
  237.12093 22.0 22
  237.13411 7.0 7
  238.06276 5.0 5
  238.12726 6.0 6
  239.10507 6.0 6
  239.1133 9.0 9
  239.1382 12.0 12
  240.10103 15.0 15
  240.14587 5.0 5
  241.09702 23.0 23
  241.12357 8.0 8
  242.1545 5.0 5
  242.81207 5.0 5
  243.07126 10.0 10
  243.09462 7.0 7
  244.13895 9.0 9
  245.06328 7.0 7
  245.09114 54.0 54
  245.17435 7.0 7
  246.82561 6.0 6
  247.08238 15.0 15
  247.10197 12.0 12
  247.11664 29.0 29
  248.07608 9.0 9
  248.14072 11.0 11
  248.15184 6.0 6
  248.16466 8.0 8
  249.09085 34.0 34
  249.12437 10.0 10
  249.13107 26.0 26
  249.15221 8.0 8
  249.84967 6.0 6
  250.09691 14.0 14
  250.15575 5.0 5
  251.06049 7.0 7
  251.08853 13.0 13
  251.10367 13.0 13
  251.11195 12.0 12
  251.13776 5.0 5
  251.1611 8.0 8
  252.1095 24.0 24
  252.13454 5.0 5
  253.08487 8.0 8
  253.1393 28.0 28
  254.17143 9.0 9
  255.10555 19.0 19
  256.09799 6.0 6
  256.11591 5.0 5
  258.10196 7.0 7
  258.11722 5.0 5
  259.08502 40.0 40
  259.10284 10.0 10
  260.10623 12.0 12
  260.12912 7.0 7
  261.08145 10.0 10
  261.09265 25.0 25
  261.13382 6.0 6
  262.09357 20.0 20
  262.11176 5.0 5
  262.12015 9.0 9
  262.15546 22.0 22
  262.16629 14.0 14
  262.19247 5.0 5
  263.11288 21.0 21
  263.13004 5.0 5
  264.13226 28.0 28
  264.14932 9.0 9
  264.16074 10.0 10
  265.077 19.0 19
  265.11984 11.0 11
  265.14429 19.0 19
  266.11942 15.0 15
  266.14383 19.0 19
  267.10721 5.0 5
  267.15982 6.0 6
  268.12094 5.0 5
  268.13666 13.0 13
  268.16885 13.0 13
  268.19754 5.0 5
  269.11789 12.0 12
  270.14975 6.0 6
  270.16541 7.0 7
  272.10815 5.0 5
  272.14542 10.0 10
  272.49704 5.0 5
  273.08182 8.0 8
  273.17389 10.0 10
  274.47855 6.0 6
  276.14227 6.0 6
  277.08444 5.0 5
  277.11078 11.0 11
  277.12213 30.0 30
  278.10599 6.0 6
  278.11652 11.0 11
  278.14554 6.0 6
  278.16309 11.0 11
  279.09906 13.0 13
  279.10965 8.0 8
  279.13779 19.0 19
  280.13333 22.0 22
  281.11502 16.0 16
  281.15109 8.0 8
  281.2128 6.0 6
  282.11615 5.0 5
  282.15204 11.0 11
  282.16425 6.0 6
  283.1304 6.0 6
  283.96979 7.0 7
  284.12866 5.0 5
  284.14279 8.0 8
  284.17178 8.0 8
  286.12796 6.0 6
  288.1011 6.0 6
  288.14136 8.0 8
  289.12146 14.0 14
  289.13937 14.0 14
  290.15494 53.0 53
  291.13138 12.0 12
  292.06415 5.0 5
  292.13818 29.0 29
  292.27121 8.0 8
  293.11322 22.0 22
  293.12888 5.0 5
  293.1405 10.0 10
  293.1987 6.0 6
  293.98724 6.0 6
  294.11615 6.0 6
  294.17249 18.0 18
  294.1922 13.0 13
  294.55823 6.0 6
  295.09711 5.0 5
  295.11111 9.0 9
  295.13507 5.0 5
  295.15863 13.0 13
  296.11908 5.0 5
  296.14828 7.0 7
  297.16577 14.0 14
  297.35251 8.0 8
  298.13821 5.0 5
  298.15829 10.0 10
  298.18594 6.0 6
  298.20386 7.0 7
  299.1543 6.0 6
  301.14206 5.0 5
  301.22992 7.0 7
  302.66574 7.0 7
  304.13315 26.0 26
  306.13928 6.0 6
  306.16846 5.0 5
  307.15378 8.0 8
  308.15625 9.0 9
  308.16699 37.0 37
  308.18317 7.0 7
  309.16547 10.0 10
  309.18677 11.0 11
  311.11948 15.0 15
  311.15488 8.0 8
  311.185 6.0 6
  312.19516 11.0 11
  312.38303 11.0 11
  314.18604 7.0 7
  316.12827 6.0 6
  318.13937 15.0 15
  318.15726 5.0 5
  319.15289 5.0 5
  320.16953 9.0 9
  321.1077 5.0 5
  321.12769 5.0 5
  322.11914 11.0 11
  322.14825 10.0 10
  322.17853 10.0 10
  322.18781 20.0 20
  323.13989 16.0 16
  323.15033 6.0 6
  323.17523 6.0 6
  324.13266 8.0 8
  324.15424 38.0 38
  324.18079 8.0 8
  325.15543 10.0 10
  325.17633 7.0 7
  325.2074 9.0 9
  326.14276 10.0 10
  326.19061 15.0 15
  326.21204 17.0 17
  326.22263 9.0 9
  327.21317 12.0 12
  332.17114 5.0 5
  333.16263 5.0 5
  335.1593 8.0 8
  336.1532 19.0 19
  336.17981 5.0 5
  337.16461 10.0 10
  337.26538 6.0 6
  338.16568 14.0 14
  339.09619 6.0 6
  340.01627 6.0 6
  340.13754 6.0 6
  340.15204 6.0 6
  340.19073 152.0 152
  341.17224 13.0 13
  341.20267 34.0 34
  341.69437 10.0 10
  342.168 6.0 6
  343.20279 6.0 6
  344.15091 5.0 5
  344.17941 23.0 23
  344.2085 9.0 9
  344.23468 19.0 19
  345.24136 7.0 7
  345.74194 6.0 6
  348.90436 8.0 8
  350.16339 16.0 16
  350.17847 26.0 26
  350.95493 8.0 8
  351.14279 6.0 6
  351.17938 10.0 10
  354.15576 8.0 8
  354.20319 159.0 159
  355.15488 5.0 5
  355.16837 5.0 5
  355.22232 19.0 19
  356.18423 20.0 20
  356.20001 6.0 6
  356.21878 12.0 12
  356.23788 8.0 8
  359.15543 6.0 6
  359.23413 9.0 9
  361.54788 6.0 6
  362.15125 7.0 7
  363.83527 5.0 5
  368.00656 5.0 5
  368.11401 9.0 9
  368.14514 14.0 14
  368.18631 521.0 520
  368.45166 5.0 5
  369.09552 5.0 5
  369.11395 10.0 10
  369.19238 123.0 123
  370.16751 5.0 5
  370.20346 32.0 32
  372.17834 11.0 11
  372.20734 42.0 42
  372.22385 102.0 102
  373.20889 36.0 36
  373.22165 18.0 18
  374.2088 13.0 13
  374.24014 8.0 8
  374.26788 12.0 12
  375.21048 6.0 6
  376.19794 15.0 15
  376.22208 7.0 7
  376.23807 21.0 21
  376.26083 15.0 15
  377.25854 12.0 12
  380.21915 6.0 6
  380.85471 5.0 5
  381.1377 5.0 5
  382.21484 11.0 11
  383.12357 6.0 6
  384.19083 12.0 12
  386.12112 5.0 5
  386.14133 5.0 5
  386.19141 11.0 11
  386.21317 29.0 29
  386.23773 19.0 19
  388.21027 7.0 7
  389.0759 7.0 7
  390.43878 6.0 6
  394.22641 5.0 5
  394.23645 12.0 12
  398.16751 5.0 5
  400.18484 7.0 7
  400.203 12.0 12
  400.2164 13.0 13
  401.21527 8.0 8
  403.13995 7.0 7
  403.16483 6.0 6
  404.1058 5.0 5
  404.14899 5.0 5
  404.19534 6.0 6
  404.23978 260.0 260
  405.24295 46.0 46
  405.25546 25.0 25
  406.2171 5.0 5
  406.24377 6.0 6
  414.21747 7.0 7
  416.14551 7.0 7
  418.1665 7.0 7
  418.21152 20.0 20
  418.24609 16.0 16
  418.27658 8.0 8
  419.22897 11.0 11
  420.22052 10.0 10
  421.24051 5.0 5
  426.17575 7.0 7
  427.20648 5.0 5
  428.19489 5.0 5
  428.21271 5.0 5
  428.82611 5.0 5
  430.1937 6.0 6
  430.22803 9.0 9
  431.20203 13.0 13
  432.19897 7.0 7
  434.23346 11.0 11
  436.20572 6.0 6
  437.20413 10.0 10
  440.16479 6.0 6
  442.68918 6.0 6
  444.14972 5.0 5
  444.22275 10.0 10
  444.2464 13.0 13
  445.19147 8.0 8
  446.1907 13.0 13
  449.21317 5.0 5
  450.16772 5.0 5
  450.22455 6.0 6
  450.71243 7.0 7
  453.40817 7.0 7
  454.18991 9.0 9
  455.56223 6.0 6
  456.23596 5.0 5
  458.22388 19.0 19
  461.19266 8.0 8
  461.9772 5.0 5
  462.19363 6.0 6
  462.21582 21.0 21
  462.23611 10.0 10
  462.25586 11.0 11
  463.10623 6.0 6
  463.25885 13.0 13
  465.21997 5.0 5
  465.23965 12.0 12
  465.25723 7.0 7
  472.20493 8.0 8
  472.24622 9.0 9
  473.17438 6.0 6
  476.233 38.0 38
  476.25052 38.0 38
  476.28033 15.0 15
  477.25787 30.0 30
  477.99316 5.0 5
  478.21619 24.0 24
  478.23267 32.0 32
  478.25299 7.0 7
  479.20114 5.0 5
  479.21826 8.0 8
  480.22833 10.0 10
  486.255 10.0 10
  490.22336 34.0 34
  491.23996 8.0 8
  491.25403 9.0 9
  491.57401 8.0 8
  492.24423 11.0 11
  493.24411 7.0 7
  494.25616 235.0 235
  494.31567 6.0 6
  495.25153 48.0 48
  495.28537 16.0 16
  495.69958 9.0 9
  496.245 14.0 14
  496.27365 6.0 6
  498.35757 5.0 5
  504.1524 5.0 5
  504.22644 18.0 18
  504.2652 15.0 15
  505.2207 7.0 7
  505.23557 26.0 26
  506.09317 9.0 9
  506.24933 5.0 5
  508.2814 29.0 29
  509.276 11.0 11
  521.42773 8.0 8
  521.94971 6.0 6
  522.23633 20.0 20
  522.2594 34.0 34
  522.27386 11.0 11
  523.26562 5.0 5
  523.54993 15.0 15
  524.28442 7.0 7
  525.20758 5.0 5
  526.24292 22.0 22
  526.28241 195.0 195
  526.30505 34.0 34
  527.2713 47.0 47
  527.29395 51.0 51
  527.31946 10.0 10
  528.26874 5.0 5
  528.29077 8.0 8
  536.18323 9.0 9
  536.26367 92.0 92
  536.28894 18.0 18
  536.58173 6.0 6
  537.23608 5.0 5
  537.26501 31.0 31
  537.28772 21.0 21
  537.57068 7.0 7
  537.98755 5.0 5
  538.26031 5.0 5
  542.48267 5.0 5
  544.25922 6.0 6
  554.15497 5.0 5
  554.24518 16.0 16
  554.27478 135.0 135
  554.30573 16.0 16
  555.26648 42.0 42
  555.29352 27.0 27
  561.62787 7.0 7
  568.28497 20.0 20
  569.29968 7.0 7
  570.30939 5.0 5
  585.25671 5.0 5
  586.24536 6.0 6
  586.30328 262.0 262
  587.10321 7.0 7
  587.26855 21.0 21
  587.30615 63.0 63
  587.33545 20.0 20
  587.7948 5.0 5
  588.24438 5.0 5
  588.2995 14.0 14
  588.32666 9.0 9
  615.27698 8.0 8
  632.34283 20.0 20
  634.32605 5.0 5
  646.31622 46.0 46
  646.33984 21.0 21
  646.42462 6.0 6
//
