ACCESSION: MSBNK-RIKEN-PR303409
RECORD_TITLE: NP-006989(12); LC-ESI-QTOF; MS2
DATE: 2019.03.28
AUTHORS: Tetsuya Mori, Center for Sustainable Resource Science, RIKEN
LICENSE: CC BY-NC-SA
PUBLICATION: Tsugawa H., Nakabayashi R., Mori T., Yamada Y., Takahashi M., Rai A., Sugiyama R., Yamamoto H., Nakaya T., Yamazaki M., Kooke R., Bac-Molenaar JA., Oztolan-Erol N., Keurentjes JJB., Arita M., Saito K. (2019) "A cheminformatics approach to characterize metabolomes in stable-isotope-labeled organisms" Nature Methods 16(4):295-298. [doi:10.1038/s41592-019-0358-2]
COMMENT: registered in RIKEN PlaSMA
CH$NAME: NP-006989(12)
CH$COMPOUND_CLASS: Flavonoid 8-C-glycosides
CH$FORMULA: C27H30O16
CH$EXACT_MASS: 610.521
CH$SMILES: OC[C@H]1O[C@H]([C@H](O)[C@@H](O)[C@@H]1O)C1=C(O)C(C2OC(CO)C(O)C(O)C2O)=C2OC(=CC(=O)C2=C1O)C1=CC(O)=C(O)C=C1
CH$IUPAC: InChI=1S/C27H30O16/c28-5-12-17(33)21(37)23(39)26(42-12)15-19(35)14-10(32)4-11(7-1-2-8(30)9(31)3-7)41-25(14)16(20(15)36)27-24(40)22(38)18(34)13(6-29)43-27/h1-4,12-13,17-18,21-24,26-31,33-40H,5-6H2/t12-,13?,17-,18?,21+,22?,23-,24?,26+,27?/m1/s1
CH$LINK: INCHIKEY ZLPSOQFIIQIIAX-FCSQLNSJSA-N
AC$INSTRUMENT: LC, Waters Acquity UPLC System; MS, Waters Xevo G2 Q-Tof
AC$INSTRUMENT_TYPE: LC-ESI-QTOF
AC$MASS_SPECTROMETRY: MS_TYPE MS2
AC$MASS_SPECTROMETRY: ION_MODE POSITIVE
AC$MASS_SPECTROMETRY: COLLISION_ENERGY 6V
AC$MASS_SPECTROMETRY: DESOLVATION_GAS_FLOW 800/h
AC$MASS_SPECTROMETRY: DESOLVATION_TEMPERATURE 450 C
AC$MASS_SPECTROMETRY: IONIZATION ESI
AC$CHROMATOGRAPHY: CAPILLARY_VOLTAGE +3.00 kV
AC$CHROMATOGRAPHY: COLUMN_NAME Acquity bridged ethyl hybrid C18 (1.7 um, 2.1 mm * 100 mm, Waters)
AC$CHROMATOGRAPHY: COLUMN_TEMPERATURE 40 C
AC$CHROMATOGRAPHY: FLOW_GRADIENT A/B = (99.5%/0.5% at 0 min, 99.5%/0.5% at 0.1 min, 20%/80% at 10 min, 0.5%/99.5% at 10.1 min, 0.5%/99.5% at 12.0 min, 99.5%/0.5% at 12.1 min, 99.5%/0.5% at 15.0 min)
AC$CHROMATOGRAPHY: FLOW_RATE 0.3 ml/min at 0 min, 0.3 ml/min at 10 min, 0.4 ml/min at 10.1 min, 0.4 ml/min at 14.4 min, 0.3 ml/min at 14.5 min
AC$CHROMATOGRAPHY: RETENTION_TIME 3.100167
AC$CHROMATOGRAPHY: SOLVENT A water including 0.1% formic acid
AC$CHROMATOGRAPHY: SOLVENT B acetonitrile including 0.1% formic acid
MS$FOCUSED_ION: PRECURSOR_TYPE [M+H]+
MS$FOCUSED_ION: PRECURSOR_M/Z 611.1606613
PK$SPLASH: splash10-03di-0019000000-9933abcddeecdf90d5a3
PK$NUM_PEAK: 324
PK$PEAK: m/z int. rel.int.
  70.50951 10.0 10
  85.28566 9.0 9
  104.04124 15.0 15
  108.05186 15.0 15
  109.03086 12.0 12
  133.06328 9.0 9
  134.54305 11.0 11
  135.04388 33.0 33
  137.02209 160.0 160
  156.09683 16.0 16
  161.02058 21.0 21
  163.03726 9.0 9
  165.01982 10.0 10
  170.02843 17.0 17
  171.0426 10.0 10
  172.04889 9.0 9
  175.03291 10.0 10
  176.04427 12.0 12
  177.01674 14.0 14
  177.04724 9.0 9
  178.61514 12.0 12
  178.71738 10.0 10
  179.07591 12.0 12
  184.05812 19.0 19
  189.01535 103.0 103
  189.06232 13.0 13
  191.03081 28.0 28
  199.03087 32.0 32
  201.01961 40.0 40
  201.03354 12.0 12
  201.05135 14.0 14
  203.02274 8.0 8
  203.03615 22.0 22
  203.04683 10.0 10
  203.70985 10.0 10
  207.03506 27.0 27
  210.02881 14.0 14
  211.02045 23.0 23
  211.03972 22.0 22
  213.05072 11.0 11
  213.06288 16.0 16
  215.02364 13.0 13
  215.041 18.0 18
  216.04108 14.0 14
  218.79874 9.0 9
  219.02339 10.0 10
  223.04204 10.0 10
  225.02744 11.0 11
  226.06239 11.0 11
  226.73381 10.0 10
  227.02814 57.0 57
  230.06416 15.0 15
  231.02849 14.0 14
  233.04036 16.0 16
  239.03859 38.0 38
  239.06425 14.0 14
  239.21956 19.0 19
  240.08282 17.0 17
  241.0459 14.0 14
  241.05836 9.0 9
  241.09653 13.0 13
  243.02888 20.0 20
  244.03484 10.0 10
  247.05765 11.0 11
  251.80885 8.0 8
  253.03767 19.0 19
  255.00742 13.0 13
  255.02768 46.0 46
  255.07938 19.0 19
  255.10574 12.0 12
  256.03223 9.0 9
  257.03088 9.0 9
  258.04092 14.0 14
  258.08664 16.0 16
  264.06473 15.0 15
  265.05429 10.0 10
  266.0379 14.0 14
  267.03372 17.0 17
  268.51004 22.0 22
  269.03751 11.0 11
  269.08594 17.0 17
  271.06876 10.0 10
  274.07092 8.0 8
  276.0419 11.0 11
  279.06012 14.0 14
  280.07919 20.0 20
  281.04077 28.0 28
  281.07974 10.0 10
  282.03299 22.0 22
  282.04752 24.0 24
  283.05045 31.0 31
  283.07306 10.0 10
  283.10901 11.0 11
  284.04868 14.0 14
  284.47275 11.0 11
  285.02264 10.0 10
  285.04871 47.0 47
  287.05402 9.0 9
  287.06696 10.0 10
  289.09161 8.0 8
  293.06854 10.0 10
  294.04977 10.0 10
  294.59839 9.0 9
  295.06024 58.0 58
  296.05688 12.0 12
  296.07202 17.0 17
  297.0578 23.0 23
  297.08185 28.0 28
  298.04565 18.0 18
  298.08798 13.0 13
  299.02884 21.0 21
  299.05542 63.0 63
  300.06894 19.0 19
  300.08234 12.0 12
  301.07281 15.0 15
  306.03729 9.0 9
  307.04999 10.0 10
  307.09766 9.0 9
  307.9545 10.0 10
  308.069 10.0 10
  309.02539 14.0 14
  309.05432 15.0 15
  309.07706 45.0 45
  310.04605 199.0 199
  310.08212 14.0 14
  310.56314 21.0 21
  311.00735 11.0 11
  311.05588 1000.0 999
  311.22186 14.0 14
  312.02277 9.0 9
  312.04419 34.0 34
  312.07285 33.0 33
  312.09314 9.0 9
  312.1084 17.0 17
  313.06174 52.0 52
  313.08121 27.0 27
  314.08249 25.0 25
  314.20129 8.0 8
  317.06601 10.0 10
  320.03885 12.0 12
  320.06772 17.0 17
  320.08258 11.0 11
  321.04602 15.0 15
  321.06433 10.0 10
  321.08148 21.0 21
  322.05255 10.0 10
  322.09146 16.0 16
  323.01254 10.0 10
  323.05032 205.0 205
  323.06393 269.0 269
  323.09256 9.0 9
  323.98572 14.0 14
  324.03784 17.0 17
  324.06503 66.0 66
  324.07852 22.0 22
  325.05444 32.0 32
  325.07098 76.0 76
  326.06644 15.0 15
  326.08289 51.0 51
  326.0997 12.0 12
  327.07486 13.0 13
  329.04742 18.0 18
  329.06891 9.0 9
  329.08047 15.0 15
  330.08405 15.0 15
  331.04642 18.0 18
  331.06638 16.0 16
  331.09695 14.0 14
  333.06088 36.0 36
  335.0546 99.0 99
  335.07202 15.0 15
  335.09131 31.0 31
  336.01245 19.0 19
  336.04181 12.0 12
  336.06171 81.0 81
  337.02969 11.0 11
  337.04309 11.0 11
  337.06757 265.0 265
  337.08093 148.0 148
  338.03632 14.0 14
  338.06369 59.0 59
  338.07672 148.0 148
  338.0993 11.0 11
  339.0462 59.0 59
  339.08859 50.0 50
  339.10046 20.0 20
  340.05093 11.0 11
  340.07904 10.0 10
  340.36591 10.0 10
  341.03229 23.0 23
  341.04926 87.0 87
  341.0672 399.0 399
  342.04535 10.0 10
  342.07233 28.0 28
  342.08539 27.0 27
  343.05362 12.0 12
  343.07214 16.0 16
  343.69424 8.0 8
  345.06973 37.0 37
  346.06519 22.0 22
  347.02893 21.0 21
  348.04401 40.0 40
  349.03302 13.0 13
  349.05542 26.0 26
  349.07755 98.0 98
  350.08362 27.0 27
  351.05371 12.0 12
  351.08347 131.0 131
  351.10092 36.0 36
  352.01346 16.0 16
  352.03595 11.0 11
  352.05341 12.0 12
  352.09177 71.0 71
  353.05206 143.0 143
  353.069 247.0 247
  353.08743 51.0 51
  354.0676 71.0 71
  355.06778 27.0 27
  356.0939 17.0 17
  357.0799 8.0 8
  358.09299 14.0 14
  359.07547 20.0 20
  359.09366 29.0 29
  359.87411 14.0 14
  361.0545 10.0 10
  361.07437 35.0 35
  362.09338 10.0 10
  362.35803 14.0 14
  363.07004 27.0 27
  363.08734 44.0 44
  363.10443 22.0 22
  364.05798 10.0 10
  364.15225 26.0 26
  365.06735 158.0 158
  365.08954 9.0 9
  366.04645 12.0 12
  366.07629 95.0 95
  367.03162 10.0 10
  367.05313 45.0 45
  367.08383 270.0 270
  367.4588 10.0 10
  368.05716 10.0 10
  368.07855 24.0 24
  368.09262 14.0 14
  369.04941 11.0 11
  369.08286 23.0 23
  369.09903 22.0 22
  370.08411 12.0 12
  371.07779 12.0 12
  372.08557 26.0 26
  373.07233 29.0 29
  373.1308 16.0 16
  375.06213 22.0 22
  375.07596 10.0 10
  377.0618 175.0 175
  377.08325 48.0 48
  378.06061 13.0 13
  378.08237 17.0 17
  379.06128 8.0 8
  379.08182 59.0 59
  381.08655 27.0 27
  381.10065 13.0 13
  382.07306 10.0 10
  382.11505 14.0 14
  383.10675 24.0 24
  383.31308 9.0 9
  387.10083 12.0 12
  387.39307 8.0 8
  388.08084 15.0 15
  389.06183 64.0 64
  389.07529 47.0 47
  390.06671 17.0 17
  390.08069 10.0 10
  391.06116 38.0 38
  391.08438 57.0 57
  391.10272 15.0 15
  391.11938 17.0 17
  392.07089 10.0 10
  393.05661 24.0 24
  395.07819 91.0 91
  396.06927 13.0 13
  397.08392 14.0 14
  401.0686 9.0 9
  401.08426 8.0 8
  401.13739 16.0 16
  402.0477 9.0 9
  403.0863 12.0 12
  404.08112 11.0 11
  404.09622 10.0 10
  405.04855 13.0 13
  405.10071 23.0 23
  407.07224 75.0 75
  407.09045 62.0 62
  408.06427 11.0 11
  408.08395 36.0 36
  408.84647 15.0 15
  415.06598 25.0 25
  416.08093 9.0 9
  416.09161 18.0 18
  417.09851 47.0 47
  419.06097 45.0 45
  419.07706 41.0 41
  420.06335 11.0 11
  421.09613 15.0 15
  425.0766 9.0 9
  425.09073 13.0 13
  426.09885 12.0 12
  429.09933 46.0 46
  429.79272 14.0 14
  431.05539 38.0 38
  431.07181 19.0 19
  431.16583 11.0 11
  433.09015 32.0 32
  434.08954 9.0 9
  435.12198 15.0 15
  437.09958 14.0 14
  443.06982 12.0 12
  452.10568 13.0 13
  455.1008 11.0 11
  457.1055 8.0 8
  475.11517 18.0 18
  492.44272 13.0 13
  504.10031 10.0 10
  611.14893 29.0 29
//
