ACCESSION: MSBNK-RIKEN-PR301230
RECORD_TITLE: Acetylaconitine; LC-ESI-QTOF; MS2
DATE: 2019.03.28
AUTHORS: Tetsuya Mori, Center for Sustainable Resource Science, RIKEN
LICENSE: CC BY-NC-SA
PUBLICATION: Tsugawa H., Nakabayashi R., Mori T., Yamada Y., Takahashi M., Rai A., Sugiyama R., Yamamoto H., Nakaya T., Yamazaki M., Kooke R., Bac-Molenaar JA., Oztolan-Erol N., Keurentjes JJB., Arita M., Saito K. (2019) "A cheminformatics approach to characterize metabolomes in stable-isotope-labeled organisms" Nature Methods 16(4):295-298. [doi:10.1038/s41592-019-0358-2]
COMMENT: registered in RIKEN PlaSMA
CH$NAME: Acetylaconitine
CH$COMPOUND_CLASS: Aconitane-type diterpenoid alkaloids
CH$FORMULA: C36H49NO12
CH$EXACT_MASS: 687.783
CH$SMILES: CCN1CC2(COC)[C@H]3C(OC)C4[C@@H]1C3([C@@H]1C[C@@]3(O)C(OC(=O)C5=CC=CC=C5)[C@@H]1[C@]4(OC(C)=O)C(O)[C@@H]3OC)C(CC2OC(C)=O)OC
CH$IUPAC: InChI=1S/C36H49NO12/c1-8-37-16-33(17-43-4)22(47-18(2)38)14-23(44-5)35-21-15-34(42)30(48-32(41)20-12-10-9-11-13-20)24(21)36(49-19(3)39,29(40)31(34)46-7)25(28(35)37)26(45-6)27(33)35/h9-13,21-31,40,42H,8,14-17H2,1-7H3/t21-,22?,23?,24-,25?,26?,27-,28-,29?,30?,31+,33?,34-,35?,36-/m1/s1
CH$LINK: INCHIKEY RIPYIJVYDYCPKW-WEVHBWGYSA-N
AC$INSTRUMENT: LC, Waters Acquity UPLC System; MS, Waters Xevo G2 Q-Tof
AC$INSTRUMENT_TYPE: LC-ESI-QTOF
AC$MASS_SPECTROMETRY: MS_TYPE MS2
AC$MASS_SPECTROMETRY: ION_MODE POSITIVE
AC$MASS_SPECTROMETRY: COLLISION_ENERGY 6V
AC$MASS_SPECTROMETRY: DESOLVATION_GAS_FLOW 800/h
AC$MASS_SPECTROMETRY: DESOLVATION_TEMPERATURE 450 C
AC$MASS_SPECTROMETRY: IONIZATION ESI
AC$CHROMATOGRAPHY: CAPILLARY_VOLTAGE +3.00 kV
AC$CHROMATOGRAPHY: COLUMN_NAME Acquity bridged ethyl hybrid C18 (1.7 um, 2.1 mm * 100 mm, Waters)
AC$CHROMATOGRAPHY: COLUMN_TEMPERATURE 40 C
AC$CHROMATOGRAPHY: FLOW_GRADIENT A/B = (99.5%/0.5% at 0 min, 99.5%/0.5% at 0.1 min, 20%/80% at 10 min, 0.5%/99.5% at 10.1 min, 0.5%/99.5% at 12.0 min, 99.5%/0.5% at 12.1 min, 99.5%/0.5% at 15.0 min)
AC$CHROMATOGRAPHY: FLOW_RATE 0.3 ml/min at 0 min, 0.3 ml/min at 10 min, 0.4 ml/min at 10.1 min, 0.4 ml/min at 14.4 min, 0.3 ml/min at 14.5 min
AC$CHROMATOGRAPHY: RETENTION_TIME 6.173483
AC$CHROMATOGRAPHY: SOLVENT A water including 0.1% formic acid
AC$CHROMATOGRAPHY: SOLVENT B acetonitrile including 0.1% formic acid
MS$FOCUSED_ION: PRECURSOR_TYPE [M+H]+
MS$FOCUSED_ION: PRECURSOR_M/Z 688.3327525
PK$SPLASH: splash10-0pvi-0984331000-a89d7748e32cfd884b2e
PK$NUM_PEAK: 600
PK$PEAK: m/z int. rel.int.
  56.05016 9.0 9
  58.06758 27.0 27
  72.08155 10.0 10
  75.04472 25.0 25
  77.03934 8.0 8
  77.04351 6.0 6
  79.05817 5.0 5
  84.04887 6.0 6
  84.08025 5.0 5
  85.02312 7.0 7
  85.02862 9.0 9
  87.04283 6.0 6
  89.07851 6.0 6
  92.05865 12.0 12
  94.06459 8.0 8
  95.04957 11.0 11
  97.06281 5.0 5
  101.08024 6.0 6
  102.08954 5.0 5
  105.01913 9.0 9
  105.0344 1000.0 999
  105.0763 10.0 10
  106.03628 84.0 84
  107.03967 12.0 12
  107.04832 10.0 10
  108.07775 10.0 10
  108.08471 25.0 25
  109.06488 46.0 46
  109.09134 6.0 6
  110.09745 16.0 16
  111.07738 17.0 17
  111.08214 31.0 31
  112.07853 11.0 11
  112.0843 9.0 9
  114.09055 6.0 6
  115.05459 6.0 6
  115.0741 8.0 8
  117.07003 40.0 40
  119.05083 13.0 13
  121.06457 17.0 17
  122.09409 21.0 21
  123.08078 8.0 8
  127.0759 6.0 6
  128.10764 5.0 5
  129.07092 56.0 56
  130.0717 7.0 7
  131.08171 11.0 11
  131.08836 32.0 32
  133.03159 8.0 8
  133.08952 7.0 7
  134.09265 11.0 11
  134.09947 6.0 6
  135.07962 24.0 24
  136.07761 6.0 6
  136.10976 7.0 7
  137.05684 19.0 19
  137.06357 17.0 17
  138.09482 9.0 9
  139.0408 6.0 6
  140.10692 11.0 11
  141.07025 11.0 11
  141.09409 5.0 5
  142.11588 6.0 6
  143.06998 10.0 10
  143.08675 23.0 23
  144.08144 5.0 5
  145.071 9.0 9
  145.10184 7.0 7
  146.03363 6.0 6
  146.0985 23.0 23
  147.04318 25.0 25
  147.07593 19.0 19
  147.0862 9.0 9
  148.08679 9.0 9
  148.10608 6.0 6
  149.0551 8.0 8
  149.0649 11.0 11
  150.09348 13.0 13
  152.10704 141.0 141
  153.04999 6.0 6
  153.07066 10.0 10
  154.08647 6.0 6
  154.11455 8.0 8
  155.08177 16.0 16
  155.09052 22.0 22
  157.06264 13.0 13
  158.07033 6.0 6
  158.09065 7.0 7
  158.09789 18.0 18
  159.08374 9.0 9
  160.0871 10.0 10
  160.1098 23.0 23
  161.09717 24.0 24
  162.10831 8.0 8
  162.12631 6.0 6
  163.09677 9.0 9
  165.05736 12.0 12
  165.07013 37.0 37
  165.08786 7.0 7
  167.05798 7.0 7
  167.0864 25.0 25
  168.05292 5.0 5
  168.09015 6.0 6
  169.07066 7.0 7
  170.06728 9.0 9
  170.075 7.0 7
  171.07996 9.0 9
  171.09239 9.0 9
  171.10645 12.0 12
  171.11617 6.0 6
  172.11044 20.0 20
  172.12122 15.0 15
  173.06381 6.0 6
  173.09615 12.0 12
  173.11847 5.0 5
  174.08626 55.0 55
  174.09541 74.0 74
  174.1226 12.0 12
  174.13309 7.0 7
  175.04056 9.0 9
  175.07584 11.0 11
  175.09366 15.0 15
  175.1003 15.0 15
  176.10095 9.0 9
  176.10918 10.0 10
  177.05037 6.0 6
  177.05972 11.0 11
  178.06511 6.0 6
  178.07935 7.0 7
  178.12251 22.0 22
  179.08931 26.0 26
  179.12604 6.0 6
  180.0807 6.0 6
  180.09552 12.0 12
  181.07535 10.0 10
  181.10367 14.0 14
  182.05936 8.0 8
  182.09726 11.0 11
  183.08432 7.0 7
  184.11128 45.0 45
  184.12886 5.0 5
  185.06882 10.0 10
  185.09422 7.0 7
  185.10201 12.0 12
  185.11931 18.0 18
  186.10533 8.0 8
  186.13097 56.0 56
  187.06712 6.0 6
  187.07335 13.0 13
  188.07005 54.0 54
  188.08151 18.0 18
  188.13345 7.0 7
  189.06482 10.0 10
  189.07556 10.0 10
  189.09021 8.0 8
  190.07068 13.0 13
  190.08408 20.0 20
  190.10507 14.0 14
  190.12448 14.0 14
  191.05476 5.0 5
  191.07498 9.0 9
  191.08801 36.0 36
  191.12967 7.0 7
  192.09546 5.0 5
  193.07047 19.0 19
  193.09093 6.0 6
  193.10141 36.0 36
  194.07823 9.0 9
  195.07539 10.0 10
  195.08719 12.0 12
  195.11652 17.0 17
  195.12384 5.0 5
  196.0766 7.0 7
  196.08847 7.0 7
  196.11441 28.0 28
  197.0576 6.0 6
  197.09181 5.0 5
  197.10368 12.0 12
  198.10074 6.0 6
  198.12955 8.0 8
  199.08133 11.0 11
  199.12999 8.0 8
  200.10696 5.0 5
  201.06697 9.0 9
  202.08504 70.0 70
  202.11835 25.0 25
  203.08214 22.0 22
  203.09169 58.0 58
  203.10767 11.0 11
  204.08871 14.0 14
  204.09766 15.0 15
  204.10948 7.0 7
  204.13708 33.0 33
  205.04503 5.0 5
  205.07047 8.0 8
  205.08325 8.0 8
  205.10385 97.0 97
  206.09912 15.0 15
  206.1209 6.0 6
  207.08055 30.0 30
  207.12044 8.0 8
  208.05907 6.0 6
  208.08543 11.0 11
  208.12196 13.0 13
  209.06067 5.0 5
  209.0948 26.0 26
  209.12581 5.0 5
  210.09972 5.0 5
  210.11539 6.0 6
  210.12578 8.0 8
  210.13834 10.0 10
  211.07693 9.0 9
  211.11905 16.0 16
  211.13043 5.0 5
  212.10837 6.0 6
  213.14151 9.0 9
  214.58687 5.0 5
  215.08003 10.0 10
  215.08975 27.0 27
  216.09135 25.0 25
  216.09966 22.0 22
  216.13853 13.0 13
  217.08504 12.0 12
  217.09604 24.0 24
  217.10776 23.0 23
  217.14554 6.0 6
  218.07275 11.0 11
  218.11243 9.0 9
  218.15472 198.0 198
  219.08163 34.0 34
  219.1084 12.0 12
  219.11856 17.0 17
  219.14435 12.0 12
  219.15605 56.0 56
  220.08569 15.0 15
  220.09619 6.0 6
  220.12727 7.0 7
  221.09895 37.0 37
  221.11055 11.0 11
  221.12352 5.0 5
  221.13689 8.0 8
  222.12476 9.0 9
  223.10437 15.0 15
  223.11798 9.0 9
  224.11249 5.0 5
  224.13226 19.0 19
  225.10847 9.0 9
  227.06781 7.0 7
  227.09219 12.0 12
  227.10616 5.0 5
  228.14339 12.0 12
  229.08356 17.0 17
  229.12216 8.0 8
  230.10762 5.0 5
  230.11908 6.0 6
  231.07079 10.0 10
  231.08667 7.0 7
  232.08963 19.0 19
  232.10176 8.0 8
  233.09785 98.0 98
  233.12128 9.0 9
  234.09528 17.0 17
  234.1106 15.0 15
  234.12457 7.0 7
  234.13344 9.0 9
  235.07381 18.0 18
  235.09242 8.0 8
  235.11 41.0 41
  235.1185 34.0 34
  235.1358 5.0 5
  236.06401 6.0 6
  236.08101 11.0 11
  236.10321 7.0 7
  236.11484 16.0 16
  236.14346 5.0 5
  237.09242 25.0 25
  237.11342 15.0 15
  237.13524 7.0 7
  238.0972 14.0 14
  238.12239 5.0 5
  238.14076 5.0 5
  238.1628 7.0 7
  239.10031 8.0 8
  239.11906 6.0 6
  239.13573 8.0 8
  240.10063 5.0 5
  240.13377 9.0 9
  241.0804 12.0 12
  242.1463 11.0 11
  243.08545 5.0 5
  244.08826 7.0 7
  244.13896 6.0 6
  245.09372 39.0 39
  246.09201 7.0 7
  246.15393 7.0 7
  247.08458 8.0 8
  247.11264 37.0 37
  247.12891 11.0 11
  247.13937 6.0 6
  248.07759 7.0 7
  248.14107 9.0 9
  248.15189 5.0 5
  249.08318 14.0 14
  249.09607 14.0 14
  249.10783 8.0 8
  249.12212 17.0 17
  249.14282 8.0 8
  250.09096 6.0 6
  250.10051 8.0 8
  250.12175 11.0 11
  251.10773 28.0 28
  251.12299 8.0 8
  251.13518 7.0 7
  251.16495 5.0 5
  252.1106 5.0 5
  252.12022 7.0 7
  253.12273 17.0 17
  254.12071 9.0 9
  254.47067 5.0 5
  256.12634 6.0 6
  257.08414 11.0 11
  258.147 7.0 7
  259.10947 5.0 5
  260.08524 7.0 7
  260.10916 16.0 16
  261.07477 13.0 13
  261.08978 61.0 61
  261.10345 20.0 20
  262.09644 15.0 15
  262.11966 30.0 30
  262.1517 13.0 13
  262.16589 20.0 20
  263.10516 29.0 29
  263.16702 8.0 8
  264.11285 12.0 12
  264.13486 19.0 19
  264.14352 15.0 15
  265.06772 7.0 7
  265.11819 33.0 33
  265.12854 13.0 13
  266.11942 12.0 12
  266.13031 6.0 6
  266.1481 9.0 9
  266.16937 6.0 6
  267.10242 8.0 8
  267.13849 14.0 14
  268.13394 14.0 14
  268.18811 8.0 8
  269.12314 5.0 5
  272.13287 20.0 20
  273.06812 6.0 6
  273.09399 14.0 14
  273.15826 10.0 10
  275.10507 17.0 17
  275.11801 10.0 10
  275.14062 8.0 8
  276.1145 12.0 12
  276.12857 10.0 10
  276.15695 9.0 9
  277.14725 8.0 8
  278.16174 6.0 6
  278.17316 9.0 9
  279.10498 15.0 15
  279.15302 15.0 15
  280.0788 5.0 5
  280.13358 28.0 28
  281.11856 5.0 5
  281.13809 8.0 8
  281.18253 6.0 6
  282.1597 8.0 8
  284.12958 5.0 5
  287.11966 7.0 7
  288.13922 5.0 5
  289.12585 5.0 5
  289.13477 8.0 8
  290.12131 7.0 7
  290.13885 6.0 6
  290.15213 26.0 26
  290.16229 17.0 17
  290.24155 5.0 5
  291.0965 7.0 7
  291.15601 11.0 11
  291.16583 9.0 9
  292.14102 8.0 8
  293.12131 45.0 45
  293.14508 7.0 7
  294.12759 14.0 14
  294.14722 6.0 6
  294.18018 11.0 11
  295.1228 8.0 8
  296.13467 6.0 6
  296.15973 16.0 16
  296.17682 6.0 6
  297.05191 7.0 7
  297.08261 5.0 5
  297.11414 6.0 6
  298.16489 6.0 6
  300.14545 6.0 6
  302.17627 5.0 5
  303.12564 6.0 6
  304.12094 5.0 5
  304.1409 12.0 12
  304.16135 6.0 6
  305.14163 57.0 57
  306.1554 22.0 22
  307.16608 5.0 5
  307.17654 10.0 10
  308.15982 10.0 10
  308.18124 8.0 8
  309.17258 7.0 7
  310.10699 8.0 8
  310.12231 14.0 14
  310.2211 6.0 6
  311.12906 18.0 18
  318.14362 37.0 37
  318.16168 16.0 16
  319.10669 5.0 5
  319.14926 9.0 9
  321.13766 6.0 6
  322.11917 5.0 5
  322.1441 8.0 8
  322.15494 12.0 12
  322.18008 73.0 73
  323.14798 5.0 5
  323.18497 30.0 30
  324.15677 14.0 14
  324.19696 12.0 12
  325.13931 7.0 7
  326.15341 6.0 6
  326.18509 13.0 13
  326.20773 36.0 36
  327.21133 11.0 11
  328.18848 8.0 8
  334.17645 7.0 7
  336.15359 8.0 8
  336.17368 6.0 6
  336.22168 6.0 6
  336.8779 6.0 6
  337.16647 12.0 12
  338.17242 16.0 16
  340.19559 10.0 10
  344.17706 9.0 9
  346.17648 6.0 6
  350.17465 63.0 63
  350.19193 28.0 28
  351.17947 26.0 26
  352.15387 9.0 9
  352.34805 6.0 6
  354.20526 256.0 256
  354.22107 71.0 71
  354.52325 6.0 6
  355.16739 6.0 6
  355.19431 21.0 21
  355.2179 70.0 70
  356.1814 15.0 15
  356.22079 10.0 10
  358.19684 9.0 9
  358.22113 12.0 12
  358.24005 11.0 11
  364.18173 9.0 9
  366.18192 13.0 13
  368.18689 15.0 15
  368.20129 6.0 6
  368.23813 6.0 6
  372.21201 5.0 5
  373.1257 7.0 7
  373.181 5.0 5
  375.18082 7.0 7
  382.19302 24.0 24
  382.20325 47.0 47
  383.12604 5.0 5
  383.21429 13.0 13
  385.12674 5.0 5
  385.9133 5.0 5
  386.23541 102.0 102
  387.22031 11.0 11
  387.23846 18.0 18
  390.16605 6.0 6
  396.18576 6.0 6
  410.15143 5.0 5
  410.18567 73.0 73
  410.20248 108.0 108
  411.18735 26.0 26
  411.20236 73.0 73
  412.20837 5.0 5
  413.20544 12.0 12
  414.18774 6.0 6
  414.21628 34.0 34
  414.23526 42.0 42
  414.24942 16.0 16
  415.1644 5.0 5
  415.21976 9.0 9
  415.24677 10.0 10
  418.18842 10.0 10
  418.25015 18.0 18
  418.26923 6.0 6
  418.70682 7.0 7
  419.25253 8.0 8
  419.27844 8.0 8
  420.27298 6.0 6
  428.18243 11.0 11
  430.21719 9.0 9
  434.19748 5.0 5
  434.2153 5.0 5
  436.23685 6.0 6
  440.18274 19.0 19
  443.21606 8.0 8
  444.17096 8.0 8
  444.19424 6.0 6
  444.22266 16.0 16
  444.24185 5.0 5
  445.23413 11.0 11
  446.19681 19.0 19
  446.24435 59.0 59
  446.26093 61.0 61
  447.16312 7.0 7
  447.17654 16.0 16
  447.19272 8.0 8
  447.22607 6.0 6
  447.25873 41.0 41
  447.27484 16.0 16
  452.20459 7.0 7
  458.20486 5.0 5
  460.20416 6.0 6
  460.23517 44.0 44
  461.19168 6.0 6
  461.22696 5.0 5
  462.25 6.0 6
  472.21918 39.0 39
  473.20773 11.0 11
  474.22244 6.0 6
  474.24533 8.0 8
  474.47571 5.0 5
  476.18423 12.0 12
  476.23712 141.0 141
  476.25394 88.0 88
  477.19739 7.0 7
  477.22784 12.0 12
  477.25272 67.0 67
  478.18802 6.0 6
  478.23056 22.0 22
  478.25098 20.0 20
  478.27866 8.0 8
  479.21793 6.0 6
  479.23172 12.0 12
  479.2915 6.0 6
  480.23212 13.0 13
  486.24402 5.0 5
  490.21716 6.0 6
  492.24594 14.0 14
  493.23486 5.0 5
  496.23419 6.0 6
  504.19666 8.0 8
  504.23856 112.0 112
  505.23492 29.0 29
  505.25558 20.0 20
  506.25351 11.0 11
  507.28296 6.0 6
  508.24628 10.0 10
  508.27216 43.0 43
  509.25592 11.0 11
  509.30826 8.0 8
  510.25229 38.0 38
  510.28098 8.0 8
  522.24976 5.0 5
  528.26453 6.0 6
  536.1969 6.0 6
  536.24152 58.0 58
  536.2641 130.0 130
  536.28259 103.0 103
  537.25189 49.0 49
  537.26947 70.0 70
  537.2926 19.0 19
  538.27124 30.0 30
  552.27893 6.0 6
  564.22687 6.0 6
  564.28046 5.0 5
  565.27039 12.0 12
  568.2912 320.0 320
  569.29077 94.0 94
  569.31915 29.0 29
  570.28308 10.0 10
  570.32526 5.0 5
  596.25385 10.0 10
  596.29083 101.0 101
  597.2326 6.0 6
  597.26593 15.0 15
  597.29535 29.0 29
  628.26398 12.0 12
  628.3017 121.0 121
  628.32703 94.0 94
  629.29962 47.0 47
  629.32715 37.0 37
  630.27271 6.0 6
  630.32068 25.0 25
  630.35175 8.0 8
  630.40698 6.0 6
  631.30817 5.0 5
  688.32465 15.0 15
  688.3504 10.0 10
//
