ACCESSION: MSBNK-RIKEN-PR100125
RECORD_TITLE: D-(+)-Glucosamine; LC-ESI-QTOF; MS2; CE:Ramp 5-60 V; [M+H]+
DATE: 2016.01.19 (Created 2009.09.10, modified 2011.05.06)
AUTHORS: Matsuda F, Suzuki M, Sawada Y, Plant Science Center, RIKEN.
LICENSE: CC BY-SA
COMMENT: Acquisition and generation of the data is financially supported in part by CREST/JST.
CH$NAME: D-(+)-Glucosamine
CH$NAME: GlcN
CH$NAME: 2-Amino-2-deoxy-D-glucose
CH$NAME: Chitosamine
CH$NAME: Cosamin
CH$COMPOUND_CLASS: Monosaccharide
CH$FORMULA: C6H13NO5
CH$EXACT_MASS: 179.07937
CH$SMILES: OCC(O1)C(O)C(O)C(N)C(O)1
CH$IUPAC: InChI=1S/C6H13NO5/c7-3-5(10)4(9)2(1-8)12-6(3)11/h2-6,8-11H,1,7H2/t2-,3-,4-,5-,6-/m1/s1
CH$LINK: CAS 3416-24-8
CH$LINK: CHEMSPIDER 388352
CH$LINK: KEGG C00329
CH$LINK: KNAPSACK C00001121
CH$LINK: PUBCHEM CID:439213
CH$LINK: INCHIKEY MSWZFWKMSRAUBD-QZABAPFNSA-N
CH$LINK: COMPTOX DTXSID4023098
AC$INSTRUMENT: UPLC Q-Tof Premier, Waters
AC$INSTRUMENT_TYPE: LC-ESI-QTOF
AC$MASS_SPECTROMETRY: MS_TYPE MS2
AC$MASS_SPECTROMETRY: ION_MODE POSITIVE
AC$MASS_SPECTROMETRY: COLLISION_ENERGY Ramp 5-60 V
AC$MASS_SPECTROMETRY: DATAFORMAT Continuum
AC$MASS_SPECTROMETRY: DATE 2008.07.25
AC$MASS_SPECTROMETRY: DESOLVATION_GAS_FLOW 600.0 L/Hr
AC$MASS_SPECTROMETRY: DESOLVATION_TEMPERATURE 420 C
AC$MASS_SPECTROMETRY: FRAGMENTATION_METHOD LOW-ENERGY CID
AC$MASS_SPECTROMETRY: IONIZATION ESI
AC$MASS_SPECTROMETRY: SCANNING 1.0 sec/scan (m/z = 50-1000)
AC$MASS_SPECTROMETRY: SOURCE_TEMPERATURE 120 C
AC$CHROMATOGRAPHY: CAPILLARY_VOLTAGE 3.0 kV
AC$CHROMATOGRAPHY: SAMPLING_CONE 23.0 V
AC$CHROMATOGRAPHY: SOLVENT A CH3CN(0.1%HCOOH)
AC$CHROMATOGRAPHY: SOLVENT B H2O(0.1%HCOOH)
MS$FOCUSED_ION: PRECURSOR_M/Z 180.08717
MS$FOCUSED_ION: PRECURSOR_TYPE [M+H]+
PK$SPLASH: splash10-001i-0900000000-4ce3229d9ccd4fc5f76a
PK$NUM_PEAK: 2
PK$PEAK: m/z int. rel.int.
  162.0775 70.2 147
  180.0872 478.5 999
//
