ACCESSION: MSBNK-RIKEN-PR302496
RECORD_TITLE: Apigenin-8-C-glucoside-2'-rhamnoside; LC-ESI-QTOF; MS2
DATE: 2019.03.28
AUTHORS: Tetsuya Mori, Center for Sustainable Resource Science, RIKEN
LICENSE: CC BY-NC-SA
PUBLICATION: Tsugawa H., Nakabayashi R., Mori T., Yamada Y., Takahashi M., Rai A., Sugiyama R., Yamamoto H., Nakaya T., Yamazaki M., Kooke R., Bac-Molenaar JA., Oztolan-Erol N., Keurentjes JJB., Arita M., Saito K. (2019) "A cheminformatics approach to characterize metabolomes in stable-isotope-labeled organisms" Nature Methods 16(4):295-298. [doi:10.1038/s41592-019-0358-2]
COMMENT: registered in RIKEN PlaSMA
CH$NAME: Apigenin-8-C-glucoside-2'-rhamnoside
CH$COMPOUND_CLASS: Flavonoid 8-C-glycosides
CH$FORMULA: C27H30O14
CH$EXACT_MASS: 578.523
CH$SMILES: C[C@H]1[C@@H]([C@H]([C@H]([C@@H](O1)O[C@@H]2[C@H]([C@@H]([C@H](O[C@H]2C3=C(C=C(C4=C3OC(=CC4=O)C5=CC=C(C=C5)O)O)O)CO)O)O)O)O)O
CH$IUPAC: InChI=1S/C27H30O14/c1-9-19(33)21(35)23(37)27(38-9)41-26-22(36)20(34)16(8-28)40-25(26)18-13(31)6-12(30)17-14(32)7-15(39-24(17)18)10-2-4-11(29)5-3-10/h2-7,9,16,19-23,25-31,33-37H,8H2,1H3/t9-,16+,19-,20+,21+,22-,23+,25-,26+,27-/m0/s1
CH$LINK: INCHIKEY LYGPBZVKGHHTIE-HUBYJIGHSA-N
AC$INSTRUMENT: LC, Waters Acquity UPLC System; MS, Waters Xevo G2 Q-Tof
AC$INSTRUMENT_TYPE: LC-ESI-QTOF
AC$MASS_SPECTROMETRY: MS_TYPE MS2
AC$MASS_SPECTROMETRY: ION_MODE POSITIVE
AC$MASS_SPECTROMETRY: COLLISION_ENERGY 6V
AC$MASS_SPECTROMETRY: DESOLVATION_GAS_FLOW 800/h
AC$MASS_SPECTROMETRY: DESOLVATION_TEMPERATURE 450 C
AC$MASS_SPECTROMETRY: IONIZATION ESI
AC$CHROMATOGRAPHY: CAPILLARY_VOLTAGE +3.00 kV
AC$CHROMATOGRAPHY: COLUMN_NAME Acquity bridged ethyl hybrid C18 (1.7 um, 2.1 mm * 100 mm, Waters)
AC$CHROMATOGRAPHY: COLUMN_TEMPERATURE 40 C
AC$CHROMATOGRAPHY: FLOW_GRADIENT A/B = (99.5%/0.5% at 0 min, 99.5%/0.5% at 0.1 min, 20%/80% at 10 min, 0.5%/99.5% at 10.1 min, 0.5%/99.5% at 12.0 min, 99.5%/0.5% at 12.1 min, 99.5%/0.5% at 15.0 min)
AC$CHROMATOGRAPHY: FLOW_RATE 0.3 ml/min at 0 min, 0.3 ml/min at 10 min, 0.4 ml/min at 10.1 min, 0.4 ml/min at 14.4 min, 0.3 ml/min at 14.5 min
AC$CHROMATOGRAPHY: RETENTION_TIME 3.8372
AC$CHROMATOGRAPHY: SOLVENT A water including 0.1% formic acid
AC$CHROMATOGRAPHY: SOLVENT B acetonitrile including 0.1% formic acid
MS$FOCUSED_ION: PRECURSOR_TYPE [M+H]+
MS$FOCUSED_ION: PRECURSOR_M/Z 579.1708321
PK$SPLASH: splash10-01q9-0197000000-5c60ce71b2341431bc17
PK$NUM_PEAK: 162
PK$PEAK: m/z int. rel.int.
  54.77106 5.0 5
  85.02744 8.0 8
  109.03037 6.0 6
  117.59799 5.0 5
  119.04875 8.0 8
  121.02847 81.0 81
  122.0298 5.0 5
  123.04298 7.0 7
  145.06335 13.0 13
  147.04013 6.0 6
  147.05051 9.0 9
  153.01654 14.0 14
  159.03993 6.0 6
  159.60791 7.0 7
  161.01912 6.0 6
  162.0118 7.0 7
  163.03658 15.0 15
  164.02954 8.0 8
  165.02327 26.0 26
  165.02971 7.0 7
  167.02275 9.0 9
  169.87785 8.0 8
  171.04466 7.0 7
  177.02678 23.0 23
  187.04019 7.0 7
  189.05499 22.0 22
  190.99937 6.0 6
  191.03871 15.0 15
  193.04623 13.0 13
  194.0463 7.0 7
  195.02312 6.0 6
  196.09006 6.0 6
  197.0583 7.0 7
  197.06784 5.0 5
  203.06779 13.0 13
  210.06931 6.0 6
  213.05223 8.0 8
  214.93915 6.0 6
  215.03172 10.0 10
  215.05157 8.0 8
  215.07021 8.0 8
  216.04689 6.0 6
  217.03099 12.0 12
  217.05304 48.0 48
  219.02284 6.0 6
  227.06903 6.0 6
  227.07918 5.0 5
  229.049 6.0 6
  231.06879 14.0 14
  232.07634 7.0 7
  233.23647 6.0 6
  235.05878 8.0 8
  238.06093 6.0 6
  241.05367 32.0 32
  243.02783 59.0 59
  243.06651 41.0 41
  243.07367 22.0 22
  244.01601 8.0 8
  244.07063 7.0 7
  245.02596 6.0 6
  252.07059 6.0 6
  255.05991 17.0 17
  256.07565 56.0 56
  257.08072 20.0 20
  259.06427 16.0 16
  261.03363 6.0 6
  261.28046 6.0 6
  262.03311 6.0 6
  264.07535 9.0 9
  264.72897 9.0 9
  265.03494 6.0 6
  266.06506 6.0 6
  267.06601 9.0 9
  271.05865 68.0 68
  272.05432 6.0 6
  279.05371 6.0 6
  281.06516 7.0 7
  281.08304 5.0 5
  282.97543 12.0 12
  283.01443 25.0 25
  283.02792 16.0 16
  283.06036 1000.0 999
  283.96136 9.0 9
  284.00443 7.0 7
  284.02612 13.0 13
  284.06659 680.0 679
  284.15561 6.0 6
  285.06006 27.0 27
  285.07477 88.0 88
  286.07251 21.0 21
  287.07993 5.0 5
  292.06973 6.0 6
  293.08276 5.0 5
  295.06 224.0 224
  295.0903 9.0 9
  295.10251 7.0 7
  296.05432 5.0 5
  296.07343 15.0 15
  297.04977 19.0 19
  297.06921 125.0 125
  297.08237 65.0 65
  297.09476 22.0 22
  298.07712 36.0 36
  302.85519 6.0 6
  308.06781 62.0 62
  309.07443 113.0 113
  310.08151 22.0 22
  311.04883 13.0 13
  311.11255 7.0 7
  311.19708 8.0 8
  312.06567 9.0 9
  313.01233 7.0 7
  313.0238 8.0 8
  313.04089 30.0 30
  313.07175 899.0 898
  313.10455 7.0 7
  314.04132 8.0 8
  314.0657 57.0 57
  314.07825 112.0 112
  315.05911 15.0 15
  315.08463 29.0 29
  317.0527 5.0 5
  322.08823 17.0 17
  322.18985 5.0 5
  323.05936 42.0 42
  323.09283 363.0 363
  324.08099 14.0 14
  324.09454 28.0 28
  324.10532 22.0 22
  325.07474 43.0 43
  326.06964 18.0 18
  327.08081 38.0 38
  328.08658 16.0 16
  335.0853 10.0 10
  337.06302 89.0 89
  337.07562 163.0 163
  338.05795 11.0 11
  338.07309 47.0 47
  339.08533 17.0 17
  340.05142 5.0 5
  340.08224 9.0 9
  341.06418 11.0 11
  343.08435 10.0 10
  349.06244 12.0 12
  349.07776 6.0 6
  350.06845 5.0 5
  350.82614 6.0 6
  351.06491 9.0 9
  351.08481 25.0 25
  352.06799 6.0 6
  352.08771 8.0 8
  355.06912 10.0 10
  355.08847 12.0 12
  367.06 10.0 10
  367.08322 34.0 34
  368.09052 12.0 12
  379.07993 29.0 29
  397.06198 12.0 12
  397.09644 64.0 64
  415.11441 6.0 6
  415.12717 7.0 7
  535.06818 6.0 6
//
