ACCESSION: MSBNK-RIKEN-PR300875
RECORD_TITLE: Speciosine; LC-ESI-QTOF; MS2
DATE: 2019.03.28
AUTHORS: Tetsuya Mori, Center for Sustainable Resource Science, RIKEN
LICENSE: CC BY-NC-SA
PUBLICATION: Tsugawa H., Nakabayashi R., Mori T., Yamada Y., Takahashi M., Rai A., Sugiyama R., Yamamoto H., Nakaya T., Yamazaki M., Kooke R., Bac-Molenaar JA., Oztolan-Erol N., Keurentjes JJB., Arita M., Saito K. (2019) "A cheminformatics approach to characterize metabolomes in stable-isotope-labeled organisms" Nature Methods 16(4):295-298. [doi:10.1038/s41592-019-0358-2]
COMMENT: registered in RIKEN PlaSMA
CH$NAME: Speciosine
CH$COMPOUND_CLASS: Tropones
CH$FORMULA: C28H31NO6
CH$EXACT_MASS: 477.557
CH$SMILES: COC1=C(OC)C(OC)=C2C(CCC(N(C)CC3=CC=CC=C3O)C3=CC(=O)C(OC)=CC=C23)=C1
CH$IUPAC: InChI=1S/C28H31NO6/c1-29(16-18-8-6-7-9-22(18)30)21-12-10-17-14-25(33-3)27(34-4)28(35-5)26(17)19-11-13-24(32-2)23(31)15-20(19)21/h6-9,11,13-15,21,30H,10,12,16H2,1-5H3
CH$LINK: INCHIKEY SOFSXTKPGSIDCI-UHFFFAOYSA-N
AC$INSTRUMENT: LC, Waters Acquity UPLC System; MS, Waters Xevo G2 Q-Tof
AC$INSTRUMENT_TYPE: LC-ESI-QTOF
AC$MASS_SPECTROMETRY: MS_TYPE MS2
AC$MASS_SPECTROMETRY: ION_MODE POSITIVE
AC$MASS_SPECTROMETRY: COLLISION_ENERGY 6V
AC$MASS_SPECTROMETRY: DESOLVATION_GAS_FLOW 800/h
AC$MASS_SPECTROMETRY: DESOLVATION_TEMPERATURE 450 C
AC$MASS_SPECTROMETRY: IONIZATION ESI
AC$CHROMATOGRAPHY: CAPILLARY_VOLTAGE +3.00 kV
AC$CHROMATOGRAPHY: COLUMN_NAME Acquity bridged ethyl hybrid C18 (1.7 um, 2.1 mm * 100 mm, Waters)
AC$CHROMATOGRAPHY: COLUMN_TEMPERATURE 40 C
AC$CHROMATOGRAPHY: FLOW_GRADIENT A/B = (99.5%/0.5% at 0 min, 99.5%/0.5% at 0.1 min, 20%/80% at 10 min, 0.5%/99.5% at 10.1 min, 0.5%/99.5% at 12.0 min, 99.5%/0.5% at 12.1 min, 99.5%/0.5% at 15.0 min)
AC$CHROMATOGRAPHY: FLOW_RATE 0.3 ml/min at 0 min, 0.3 ml/min at 10 min, 0.4 ml/min at 10.1 min, 0.4 ml/min at 14.4 min, 0.3 ml/min at 14.5 min
AC$CHROMATOGRAPHY: RETENTION_TIME 5.032233
AC$CHROMATOGRAPHY: SOLVENT A water including 0.1% formic acid
AC$CHROMATOGRAPHY: SOLVENT B acetonitrile including 0.1% formic acid
MS$FOCUSED_ION: PRECURSOR_TYPE [M+H]+
MS$FOCUSED_ION: PRECURSOR_M/Z 478.2224142
PK$SPLASH: splash10-00kn-0191000000-4706b7a8497b65d9c138
PK$NUM_PEAK: 811
PK$PEAK: m/z int. rel.int.
  51.62696 9.0 9
  56.05328 8.0 8
  70.06754 71.0 71
  71.01429 14.0 14
  71.06987 12.0 12
  72.03957 27.0 27
  74.06104 8.0 8
  77.02959 8.0 8
  77.03983 27.0 27
  79.04682 8.0 8
  79.05192 38.0 38
  81.06625 11.0 11
  84.03709 9.0 9
  84.04282 15.0 15
  84.04913 9.0 9
  85.06654 10.0 10
  86.05964 9.0 9
  86.06404 8.0 8
  87.06689 9.0 9
  91.05328 11.0 11
  96.08929 8.0 8
  103.05478 9.0 9
  105.06082 14.0 14
  105.07196 8.0 8
  107.05005 354.0 354
  107.06822 24.0 24
  107.68021 8.0 8
  108.05206 37.0 37
  116.06485 8.0 8
  119.56519 12.0 12
  120.06001 8.0 8
  120.0787 10.0 10
  121.04874 8.0 8
  121.07101 8.0 8
  122.03596 8.0 8
  122.91477 8.0 8
  123.04462 8.0 8
  123.07432 9.0 9
  127.05644 11.0 11
  131.08679 11.0 11
  132.05428 10.0 10
  132.29099 11.0 11
  134.06699 10.0 10
  135.07114 10.0 10
  135.41161 11.0 11
  136.01463 8.0 8
  136.04561 8.0 8
  136.0555 24.0 24
  136.07135 39.0 39
  136.07669 90.0 90
  137.05618 105.0 105
  137.06613 37.0 37
  138.06105 22.0 22
  138.09326 8.0 8
  138.97157 11.0 11
  139.05115 13.0 13
  139.06235 19.0 19
  140.06238 8.0 8
  140.59171 12.0 12
  140.61334 12.0 12
  142.07521 8.0 8
  144.05295 9.0 9
  144.06264 10.0 10
  145.06638 9.0 9
  146.06116 12.0 12
  147.0336 11.0 11
  147.04659 10.0 10
  147.06923 30.0 30
  147.0778 13.0 13
  148.02481 8.0 8
  148.05829 8.0 8
  149.04337 16.0 16
  149.04906 30.0 30
  149.60664 8.0 8
  152.06712 42.0 42
  152.10161 13.0 13
  153.07063 44.0 44
  154.08063 14.0 14
  155.05576 8.0 8
  155.08131 8.0 8
  155.08939 34.0 34
  157.06464 23.0 23
  157.27594 11.0 11
  158.06619 10.0 10
  158.07236 11.0 11
  159.08104 25.0 25
  159.08574 13.0 13
  160.06876 9.0 9
  160.07974 8.0 8
  161.02827 19.0 19
  161.05846 82.0 82
  162.02864 8.0 8
  162.06445 9.0 9
  162.09114 26.0 26
  163.94786 14.0 14
  164.04512 14.0 14
  164.06421 21.0 21
  164.07336 86.0 86
  164.08559 14.0 14
  165.04994 21.0 21
  165.05986 43.0 43
  165.06641 24.0 24
  165.07677 41.0 41
  166.0448 13.0 13
  166.0732 79.0 79
  166.08105 17.0 17
  167.0472 8.0 8
  167.08354 49.0 49
  168.05016 8.0 8
  168.07407 8.0 8
  168.40109 13.0 13
  169.06009 43.0 43
  171.06905 12.0 12
  171.07782 22.0 22
  172.08217 8.0 8
  173.06027 63.0 63
  173.07536 15.0 15
  174.06419 30.0 30
  174.0742 12.0 12
  174.09604 12.0 12
  174.9554 8.0 8
  175.06299 20.0 20
  175.07362 42.0 42
  176.06435 9.0 9
  176.07503 21.0 21
  176.08687 16.0 16
  176.57779 9.0 9
  176.59953 8.0 8
  177.0435 10.0 10
  177.05946 11.0 11
  177.07315 94.0 94
  178.06149 21.0 21
  178.07812 94.0 94
  178.08894 18.0 18
  178.7972 8.0 8
  179.05534 10.0 10
  179.08243 36.0 36
  180.06158 28.0 28
  180.08493 11.0 11
  180.09569 12.0 12
  180.50133 8.0 8
  181.04852 10.0 10
  181.05894 39.0 39
  181.0686 107.0 107
  181.0894 156.0 156
  181.10246 25.0 25
  181.10838 11.0 11
  182.05811 12.0 12
  182.07121 99.0 99
  182.08311 18.0 18
  183.04747 14.0 14
  183.0788 70.0 70
  183.08704 15.0 15
  184.04301 14.0 14
  184.05656 10.0 10
  184.07428 40.0 40
  184.08333 24.0 24
  185.06357 12.0 12
  185.09772 29.0 29
  186.06664 25.0 25
  187.03984 8.0 8
  188.07008 21.0 21
  188.08162 22.0 22
  188.63213 9.0 9
  189.05367 9.0 9
  189.06522 30.0 30
  189.07437 30.0 30
  189.08577 15.0 15
  189.09331 9.0 9
  190.04463 11.0 11
  190.05374 17.0 17
  190.07481 74.0 74
  190.09247 53.0 53
  190.12756 12.0 12
  190.62407 9.0 9
  191.07115 112.0 112
  191.09367 30.0 30
  192.04716 8.0 8
  192.05907 8.0 8
  192.07043 22.0 22
  192.08459 9.0 9
  192.0997 8.0 8
  192.32863 11.0 11
  193.05522 51.0 51
  193.065 48.0 48
  193.07869 24.0 24
  193.08986 14.0 14
  193.10245 20.0 20
  193.10999 9.0 9
  194.07558 119.0 119
  194.10071 8.0 8
  194.16925 8.0 8
  195.05042 10.0 10
  195.06148 20.0 20
  195.08051 314.0 314
  195.10278 12.0 12
  195.11617 8.0 8
  196.04106 12.0 12
  196.0546 20.0 20
  196.0728 8.0 8
  196.0874 176.0 176
  196.11057 10.0 10
  196.64606 11.0 11
  196.93607 13.0 13
  197.06155 277.0 277
  197.07599 34.0 34
  197.09154 30.0 30
  197.10225 43.0 43
  197.66357 9.0 9
  198.06508 75.0 75
  198.07512 27.0 27
  198.09528 23.0 23
  198.10072 10.0 10
  199.07704 160.0 160
  199.09857 8.0 8
  199.31815 8.0 8
  200.06908 8.0 8
  200.07948 33.0 33
  201.06096 10.0 10
  201.06981 13.0 13
  201.08563 11.0 11
  201.42105 15.0 15
  202.04851 8.0 8
  202.08281 8.0 8
  202.09244 10.0 10
  202.89377 8.0 8
  204.05176 14.0 14
  204.07767 37.0 37
  204.10065 36.0 36
  204.30116 13.0 13
  204.99706 9.0 9
  205.06497 124.0 124
  205.0864 11.0 11
  205.09648 9.0 9
  205.11124 15.0 15
  206.07094 87.0 87
  206.08415 24.0 24
  206.10939 14.0 14
  207.05281 9.0 9
  207.06613 53.0 53
  207.08144 252.0 252
  207.10237 28.0 28
  208.0428 26.0 26
  208.09015 126.0 126
  208.11186 14.0 14
  208.48361 20.0 20
  208.98923 9.0 9
  209.0275 13.0 13
  209.06013 158.0 158
  209.08636 67.0 67
  209.0976 90.0 90
  209.1066 59.0 59
  209.12137 10.0 10
  209.19304 12.0 12
  209.51292 9.0 9
  210.00803 9.0 9
  210.04825 21.0 21
  210.06049 37.0 37
  210.0728 99.0 99
  210.09367 14.0 14
  210.10564 52.0 52
  210.24214 9.0 9
  211.03491 14.0 14
  211.05785 21.0 21
  211.07472 333.0 333
  211.08438 110.0 110
  211.10556 42.0 42
  211.11853 8.0 8
  212.03741 30.0 30
  212.07964 135.0 135
  212.08864 39.0 39
  212.11865 9.0 9
  212.33234 10.0 10
  213.05275 40.0 40
  213.06126 16.0 16
  213.09024 288.0 288
  213.11836 12.0 12
  213.15515 12.0 12
  213.70984 8.0 8
  214.02602 9.0 9
  214.06236 84.0 84
  214.07521 13.0 13
  214.09952 76.0 76
  214.89595 15.0 15
  215.04916 10.0 10
  215.07233 63.0 63
  216.07782 27.0 27
  216.69067 8.0 8
  217.05226 19.0 19
  217.06319 27.0 27
  217.07747 12.0 12
  217.0862 13.0 13
  217.10367 20.0 20
  218.06715 8.0 8
  218.07835 14.0 14
  218.09541 56.0 56
  218.1032 48.0 48
  218.34435 10.0 10
  219.03955 8.0 8
  219.08374 154.0 154
  220.02301 10.0 10
  220.05295 9.0 9
  220.07457 38.0 38
  220.08681 49.0 49
  220.09846 46.0 46
  220.11076 18.0 18
  220.12267 12.0 12
  221.01619 8.0 8
  221.06242 95.0 95
  221.09406 101.0 101
  221.12674 21.0 21
  222.04591 19.0 19
  222.07004 123.0 123
  222.0899 88.0 88
  222.10355 99.0 99
  222.12436 39.0 39
  222.13445 9.0 9
  223.06337 66.0 66
  223.07584 409.0 409
  223.10625 55.0 55
  223.12863 26.0 26
  224.02956 12.0 12
  224.04497 10.0 10
  224.06654 39.0 39
  224.08313 318.0 318
  224.10564 16.0 16
  224.2778 10.0 10
  224.87268 10.0 10
  224.89587 10.0 10
  224.99474 8.0 8
  225.05551 135.0 135
  225.08273 128.0 128
  225.09103 277.0 277
  225.13559 11.0 11
  225.30807 17.0 17
  226.05556 133.0 133
  226.07695 39.0 39
  226.10104 72.0 72
  226.12549 18.0 18
  227.06444 118.0 118
  227.07417 211.0 211
  227.0833 53.0 53
  227.10265 76.0 76
  227.31122 8.0 8
  228.06049 10.0 10
  228.07591 111.0 111
  228.10075 10.0 10
  228.10934 34.0 34
  228.1219 8.0 8
  228.31252 8.0 8
  228.90053 8.0 8
  229.04881 9.0 9
  229.08698 59.0 59
  229.11021 8.0 8
  229.14122 8.0 8
  230.87697 11.0 11
  231.06929 18.0 18
  231.10498 17.0 17
  231.11649 8.0 8
  231.85577 9.0 9
  231.8884 10.0 10
  232.07455 8.0 8
  232.08437 20.0 20
  232.1098 9.0 9
  233.04683 26.0 26
  233.06627 112.0 112
  233.08846 62.0 62
  233.1001 20.0 20
  234.0668 134.0 134
  234.0802 32.0 32
  234.09378 52.0 52
  234.10635 19.0 19
  234.65309 9.0 9
  235.00456 10.0 10
  235.04939 11.0 11
  235.06018 55.0 55
  235.07664 385.0 385
  235.0975 21.0 21
  235.1154 8.0 8
  235.12935 15.0 15
  236.02495 10.0 10
  236.0325 24.0 24
  236.04208 19.0 19
  236.05093 10.0 10
  236.07625 122.0 122
  236.08792 111.0 111
  236.10016 92.0 92
  236.11189 62.0 62
  236.15291 12.0 12
  236.30911 10.0 10
  236.78415 14.0 14
  236.90233 9.0 9
  237.04897 74.0 74
  237.06361 59.0 59
  237.09387 300.0 300
  237.12279 25.0 25
  237.77628 8.0 8
  237.95395 8.0 8
  238.05283 21.0 21
  238.06543 21.0 21
  238.09383 112.0 112
  238.10406 63.0 63
  238.11615 28.0 28
  238.12843 32.0 32
  239.071 308.0 308
  239.09109 87.0 87
  239.10625 408.0 408
  239.12311 33.0 33
  240.01335 10.0 10
  240.03969 27.0 27
  240.0506 25.0 25
  240.08102 308.0 308
  240.10411 58.0 58
  240.11212 106.0 106
  240.12219 32.0 32
  240.5894 17.0 17
  241.03455 11.0 11
  241.04877 25.0 25
  241.08336 599.0 598
  241.0961 220.0 220
  241.11377 23.0 23
  241.12355 36.0 36
  241.13899 8.0 8
  241.69606 17.0 17
  241.85132 8.0 8
  242.04628 8.0 8
  242.05647 36.0 36
  242.07947 50.0 50
  242.09412 195.0 195
  242.3597 12.0 12
  243.01733 8.0 8
  243.05656 38.0 38
  243.06929 31.0 31
  243.09431 30.0 30
  243.11113 36.0 36
  243.37169 11.0 11
  244.06973 44.0 44
  244.08307 34.0 34
  244.11589 8.0 8
  245.08405 43.0 43
  245.1162 8.0 8
  246.06152 12.0 12
  246.09827 25.0 25
  246.9167 10.0 10
  247.04425 23.0 23
  247.08011 102.0 102
  247.09685 41.0 41
  247.11052 14.0 14
  247.14078 8.0 8
  248.03658 21.0 21
  248.05411 21.0 21
  248.07181 71.0 71
  248.10945 98.0 98
  248.18782 9.0 9
  249.0529 20.0 20
  249.09146 260.0 260
  249.11739 19.0 19
  249.1288 8.0 8
  249.25555 9.0 9
  249.76959 11.0 11
  250.03862 19.0 19
  250.05687 73.0 73
  250.06944 23.0 23
  250.08681 99.0 99
  250.1012 108.0 108
  250.12253 117.0 117
  250.14584 17.0 17
  251.05199 11.0 11
  251.06966 253.0 253
  251.10832 176.0 176
  251.13715 23.0 23
  251.27698 12.0 12
  251.93437 8.0 8
  251.98811 9.0 9
  252.04541 30.0 30
  252.07741 385.0 385
  252.10509 109.0 109
  252.12537 17.0 17
  253.02617 8.0 8
  253.04718 98.0 98
  253.0629 51.0 51
  253.08633 215.0 215
  253.09785 103.0 103
  253.11383 78.0 78
  253.12639 42.0 42
  253.9906 18.0 18
  254.05396 42.0 42
  254.08554 133.0 133
  254.09561 209.0 209
  254.11749 113.0 113
  254.13492 19.0 19
  254.24901 11.0 11
  255.06052 229.0 229
  255.09587 233.0 233
  255.10884 206.0 206
  255.12253 26.0 26
  256.0499 9.0 9
  256.06595 58.0 58
  256.07864 35.0 35
  256.10178 151.0 151
  256.11523 234.0 234
  256.98727 8.0 8
  257.08044 264.0 264
  257.10602 66.0 66
  257.71622 8.0 8
  257.75525 10.0 10
  257.87686 14.0 14
  258.06433 10.0 10
  258.07486 27.0 27
  258.08432 53.0 53
  258.09433 78.0 78
  258.11322 20.0 20
  258.88345 9.0 9
  259.07425 20.0 20
  259.09332 46.0 46
  260.07178 11.0 11
  260.08212 9.0 9
  260.09976 11.0 11
  261.04626 26.0 26
  261.06104 9.0 9
  261.08527 21.0 21
  261.09924 13.0 13
  261.11984 14.0 14
  262.00836 10.0 10
  262.05133 8.0 8
  262.06726 18.0 18
  262.09164 73.0 73
  262.11356 21.0 21
  262.12726 10.0 10
  263.0376 10.0 10
  263.0593 63.0 63
  263.07263 153.0 153
  263.08963 73.0 73
  263.10736 53.0 53
  264.01834 11.0 11
  264.03186 10.0 10
  264.06168 59.0 59
  264.07755 133.0 133
  264.08829 126.0 126
  264.10712 132.0 132
  264.15823 8.0 8
  264.72379 15.0 15
  265.03705 14.0 14
  265.07346 49.0 49
  265.08304 193.0 193
  265.09677 187.0 187
  265.11093 155.0 155
  265.18884 16.0 16
  266.05923 26.0 26
  266.07501 71.0 71
  266.08945 192.0 192
  266.11032 119.0 119
  266.12628 111.0 111
  267.03076 16.0 16
  267.05911 64.0 64
  267.07458 90.0 90
  267.10052 1000.0 999
  267.13489 28.0 28
  267.83145 13.0 13
  267.89276 10.0 10
  268.01828 9.0 9
  268.02618 13.0 13
  268.05643 43.0 43
  268.07233 272.0 272
  268.10629 319.0 319
  268.13568 43.0 43
  269.07889 105.0 105
  269.1001 48.0 48
  269.1171 153.0 153
  269.13675 8.0 8
  270.05722 17.0 17
  270.08694 186.0 186
  270.09863 52.0 52
  270.11603 57.0 57
  270.1377 20.0 20
  270.34293 10.0 10
  271.04483 19.0 19
  271.06061 13.0 13
  271.08966 109.0 109
  271.10165 35.0 35
  271.12173 47.0 47
  271.64026 8.0 8
  271.6601 8.0 8
  271.98077 8.0 8
  272.06598 21.0 21
  272.09851 40.0 40
  272.11414 35.0 35
  273.1109 32.0 32
  273.1362 10.0 10
  274.08316 18.0 18
  275.08679 21.0 21
  275.11456 12.0 12
  276.08636 37.0 37
  276.11047 73.0 73
  277.07193 51.0 51
  277.08414 52.0 52
  277.10742 65.0 65
  277.11935 21.0 21
  277.42081 10.0 10
  278.02759 9.0 9
  278.05655 43.0 43
  278.07806 112.0 112
  278.09009 133.0 133
  278.1196 203.0 203
  278.29684 12.0 12
  279.03171 8.0 8
  279.0556 66.0 66
  279.06946 79.0 79
  279.08566 100.0 100
  279.10675 169.0 169
  279.12405 171.0 171
  279.14581 21.0 21
  279.20929 11.0 11
  279.59766 10.0 10
  280.05252 41.0 41
  280.07175 85.0 85
  280.08908 121.0 121
  280.10858 134.0 134
  280.12845 78.0 78
  281.02487 9.0 9
  281.04507 42.0 42
  281.07025 46.0 46
  281.08319 87.0 87
  281.10498 243.0 243
  281.134 8.0 8
  281.69724 8.0 8
  282.06131 9.0 9
  282.0744 59.0 59
  282.11633 540.0 539
  282.12888 170.0 170
  282.97266 11.0 11
  283.04501 20.0 20
  283.06787 21.0 21
  283.09183 180.0 180
  283.10654 233.0 233
  283.12131 122.0 122
  283.138 20.0 20
  284.05884 32.0 32
  284.10422 317.0 317
  284.12488 43.0 43
  285.04538 8.0 8
  285.07108 122.0 122
  285.08347 173.0 173
  285.10809 58.0 58
  285.1174 47.0 47
  285.69412 8.0 8
  286.03433 9.0 9
  286.06854 9.0 9
  286.08096 42.0 42
  286.09357 102.0 102
  286.10938 92.0 92
  286.12558 37.0 37
  286.14096 16.0 16
  287.07114 19.0 19
  287.09241 219.0 219
  287.12332 40.0 40
  287.52402 8.0 8
  288.09686 35.0 35
  288.11417 9.0 9
  288.12643 11.0 11
  289.10138 9.0 9
  290.11401 10.0 10
  290.1246 18.0 18
  290.14288 12.0 12
  291.07175 26.0 26
  291.09097 18.0 18
  291.10571 9.0 9
  291.12634 27.0 27
  292.06961 12.0 12
  292.08554 82.0 82
  292.10019 54.0 54
  292.11627 37.0 37
  292.14075 10.0 10
  293.08698 119.0 119
  293.10239 44.0 44
  293.11267 39.0 39
  294.07919 136.0 136
  294.09305 74.0 74
  294.10965 202.0 202
  294.12799 56.0 56
  294.1442 11.0 11
  295.06061 67.0 67
  295.07599 80.0 80
  295.09601 716.0 715
  295.14749 10.0 10
  295.16226 13.0 13
  295.38049 11.0 11
  295.8121 8.0 8
  296.05179 11.0 11
  296.10001 255.0 255
  296.12729 469.0 469
  296.42499 10.0 10
  297.05359 11.0 11
  297.07153 88.0 88
  297.09512 32.0 32
  297.11304 64.0 64
  297.12216 33.0 33
  297.13589 30.0 30
  298.0629 9.0 9
  298.08136 16.0 16
  298.09634 35.0 35
  298.11365 126.0 126
  298.14059 10.0 10
  298.18997 8.0 8
  298.97748 10.0 10
  299.0733 41.0 41
  299.08658 39.0 39
  299.0968 24.0 24
  299.11688 109.0 109
  299.13751 10.0 10
  300.09637 81.0 81
  300.12616 14.0 14
  301.09677 16.0 16
  301.11154 99.0 99
  301.13309 18.0 18
  301.15298 11.0 11
  301.56912 12.0 12
  302.10367 8.0 8
  303.1149 9.0 9
  306.11801 85.0 85
  307.11127 37.0 37
  307.13065 12.0 12
  308.08881 46.0 46
  308.12442 188.0 188
  309.07901 12.0 12
  309.1022 142.0 142
  309.13766 86.0 86
  310.03903 10.0 10
  310.07364 11.0 11
  310.08923 46.0 46
  310.11475 279.0 279
  310.12744 84.0 84
  310.14365 36.0 36
  311.0517 12.0 12
  311.08414 146.0 146
  311.09705 179.0 179
  311.12753 52.0 52
  311.15457 10.0 10
  312.06219 9.0 9
  312.08844 97.0 97
  312.10272 45.0 45
  312.12253 36.0 36
  312.13678 21.0 21
  312.15347 54.0 54
  313.07321 19.0 19
  313.09598 58.0 58
  313.10907 24.0 24
  313.13376 44.0 44
  313.15311 22.0 22
  314.10431 126.0 126
  314.14145 78.0 78
  314.16098 11.0 11
  315.09045 31.0 31
  315.1091 37.0 37
  315.12927 8.0 8
  317.1441 12.0 12
  317.34988 8.0 8
  318.12952 11.0 11
  320.09518 12.0 12
  320.11142 9.0 9
  321.12979 15.0 15
  322.08066 10.0 10
  322.09824 27.0 27
  322.11743 8.0 8
  322.15128 10.0 10
  323.11801 20.0 20
  323.14978 10.0 10
  324.10483 48.0 48
  324.12708 123.0 123
  324.15726 16.0 16
  325.1051 114.0 114
  325.1203 83.0 83
  325.13986 9.0 9
  326.11752 69.0 69
  326.1322 26.0 26
  326.14706 15.0 15
  327.11349 73.0 73
  327.14236 8.0 8
  328.11786 12.0 12
  328.14648 12.0 12
  328.16547 8.0 8
  329.07825 8.0 8
  330.15018 16.0 16
  336.53519 8.0 8
  338.13586 29.0 29
  339.1004 9.0 9
  340.11459 11.0 11
  340.1333 21.0 21
  340.15234 11.0 11
  341.11737 28.0 28
  341.1326 17.0 17
  341.15302 8.0 8
  342.06982 10.0 10
  342.12415 77.0 77
  342.13647 45.0 45
  343.14267 29.0 29
  344.13849 7.0 7
  344.15015 14.0 14
  345.09509 10.0 10
  356.13345 19.0 19
  356.15442 16.0 16
  358.16617 15.0 15
  360.23453 9.0 9
  363.92584 12.0 12
  379.95966 12.0 12
  382.85745 9.0 9
  394.05905 9.0 9
  394.76593 8.0 8
  432.01056 11.0 11
  472.01273 10.0 10
  473.56143 12.0 12
//
