ACCESSION: MSBNK-RIKEN-PR304736
RECORD_TITLE: Aristolochic acid C; LC-ESI-QTOF; MS2
DATE: 2019.03.28
AUTHORS: Tetsuya Mori, Center for Sustainable Resource Science, RIKEN
LICENSE: CC BY-NC-SA
PUBLICATION: Tsugawa H., Nakabayashi R., Mori T., Yamada Y., Takahashi M., Rai A., Sugiyama R., Yamamoto H., Nakaya T., Yamazaki M., Kooke R., Bac-Molenaar JA., Oztolan-Erol N., Keurentjes JJB., Arita M., Saito K. (2019) "A cheminformatics approach to characterize metabolomes in stable-isotope-labeled organisms" Nature Methods 16(4):295-298. [doi:10.1038/s41592-019-0358-2]
COMMENT: registered in RIKEN PlaSMA
CH$NAME: Aristolochic acid C
CH$COMPOUND_CLASS: Aristolochic acids and derivatives
CH$FORMULA: C16H9NO7
CH$EXACT_MASS: 327.248
CH$SMILES: OC(=O)C1=CC2=C(OCO2)C2=C3C=C(O)C=CC3=CC(=C12)N(=O)=O
CH$IUPAC: InChI=1S/C16H9NO7/c18-8-2-1-7-3-11(17(21)22)13-10(16(19)20)5-12-15(24-6-23-12)14(13)9(7)4-8/h1-5,18H,6H2,(H,19,20)
CH$LINK: INCHIKEY NBFGYDJKTHENDP-UHFFFAOYSA-N
AC$INSTRUMENT: LC, Waters Acquity UPLC System; MS, Waters Xevo G2 Q-Tof
AC$INSTRUMENT_TYPE: LC-ESI-QTOF
AC$MASS_SPECTROMETRY: MS_TYPE MS2
AC$MASS_SPECTROMETRY: ION_MODE NEGATIVE
AC$MASS_SPECTROMETRY: COLLISION_ENERGY 6V
AC$MASS_SPECTROMETRY: DESOLVATION_GAS_FLOW 800/h
AC$MASS_SPECTROMETRY: DESOLVATION_TEMPERATURE 450 C
AC$MASS_SPECTROMETRY: IONIZATION ESI
AC$CHROMATOGRAPHY: CAPILLARY_VOLTAGE -2.75 kV
AC$CHROMATOGRAPHY: COLUMN_NAME Acquity bridged ethyl hybrid C18 (1.7 um, 2.1 mm * 100 mm, Waters)
AC$CHROMATOGRAPHY: COLUMN_TEMPERATURE 40 C
AC$CHROMATOGRAPHY: FLOW_GRADIENT A/B = (99.5%/0.5% at 0 min, 99.5%/0.5% at 0.1 min, 20%/80% at 10 min, 0.5%/99.5% at 10.1 min, 0.5%/99.5% at 12.0 min, 99.5%/0.5% at 12.1 min, 99.5%/0.5% at 15.0 min)
AC$CHROMATOGRAPHY: FLOW_RATE 0.3 ml/min at 0 min, 0.3 ml/min at 10 min, 0.4 ml/min at 10.1 min, 0.4 ml/min at 14.4 min, 0.3 ml/min at 14.5 min
AC$CHROMATOGRAPHY: RETENTION_TIME 5.954183
AC$CHROMATOGRAPHY: SOLVENT A water including 0.1% formic acid
AC$CHROMATOGRAPHY: SOLVENT B acetonitrile including 0.1% formic acid
MS$FOCUSED_ION: PRECURSOR_TYPE [M-H]-
MS$FOCUSED_ION: PRECURSOR_M/Z 326.03062514783
PK$SPLASH: splash10-0a4i-0190000000-53d8965e1fd6aa0bad3d
PK$NUM_PEAK: 24
PK$PEAK: m/z int. rel.int.
  151.05829 6.0 6
  152.06085 19.0 19
  178.04211 84.0 84
  179.04535 18.0 18
  180.05898 77.0 77
  181.06668 31.0 31
  188.58142 7.0 7
  191.04761 6.0 6
  206.03687 1000.0 999
  207.04231 307.0 307
  208.04027 17.0 17
  208.05197 89.0 89
  208.07037 6.0 6
  209.04723 23.0 23
  209.05922 23.0 23
  219.04604 41.0 41
  220.05013 15.0 15
  221.01608 6.0 6
  229.2373 6.0 6
  235.03217 23.0 23
  235.04376 51.0 51
  236.04752 452.0 452
  236.89359 6.0 6
  237.04976 71.0 71
//
