ACCESSION: MSBNK-RIKEN-PR100239
RECORD_TITLE: Eriodictyol-7-O-glucoside; LC-ESI-QTOF; MS2; CE:Ramp 5-60 V; [M+H]+
DATE: 2016.01.19 (Created 2009.09.10, modified 2011.05.06)
AUTHORS: Matsuda F, Suzuki M, Sawada Y, Plant Science Center, RIKEN.
LICENSE: CC BY-SA
COMMENT: Acquisition and generation of the data is financially supported in part by CREST/JST.
CH$NAME: Eriodictyol-7-O-glucoside
CH$NAME: Erid-7-Glc
CH$NAME: Miscanthoside
CH$NAME: Pyracanthoside
CH$NAME: ((S)-2-(3,4-Dihydroxyphenyl)-7-(beta-D-glucopyranosyloxy)-2,3-dihydro-5-hydroxy-4H-1-benzopyran-4-one
CH$COMPOUND_CLASS: Flavonoid
CH$FORMULA: C21H22O11
CH$EXACT_MASS: 450.11621
CH$SMILES: OCC(O1)C(O)C(O)C(O)C1Oc(c4)cc(O2)c(c(O)4)C(=O)CC2c(c3)cc(O)c(O)c3
CH$IUPAC: InChI=1S/C21H22O11/c22-7-16-18(27)19(28)20(29)21(32-16)30-9-4-12(25)17-13(26)6-14(31-15(17)5-9)8-1-2-10(23)11(24)3-8/h1-5,14,16,18-25,27-29H,6-7H2/t14-,16+,18+,19-,20+,21+/m0/s1
CH$LINK: CAS 38965-51-4
CH$LINK: CHEMSPIDER 16740887
CH$LINK: KNAPSACK C00008291
CH$LINK: PUBCHEM CID:5319853
CH$LINK: INCHIKEY RAFHNDRXYHOLSH-SFTVRKLSSA-N
AC$INSTRUMENT: UPLC Q-Tof Premier, Waters
AC$INSTRUMENT_TYPE: LC-ESI-QTOF
AC$MASS_SPECTROMETRY: MS_TYPE MS2
AC$MASS_SPECTROMETRY: ION_MODE POSITIVE
AC$MASS_SPECTROMETRY: COLLISION_ENERGY Ramp 5-60 V
AC$MASS_SPECTROMETRY: DATAFORMAT Continuum
AC$MASS_SPECTROMETRY: DESOLVATION_GAS_FLOW 600.0 L/Hr
AC$MASS_SPECTROMETRY: DESOLVATION_TEMPERATURE 400 C
AC$MASS_SPECTROMETRY: FRAGMENTATION_METHOD LOW-ENERGY CID
AC$MASS_SPECTROMETRY: IONIZATION ESI
AC$MASS_SPECTROMETRY: SOURCE_TEMPERATURE 120 C
AC$CHROMATOGRAPHY: CAPILLARY_VOLTAGE 3.0 kV
AC$CHROMATOGRAPHY: SAMPLING_CONE 23.0 V
AC$CHROMATOGRAPHY: SOLVENT A CH3CN(0.1%HCOOH)
AC$CHROMATOGRAPHY: SOLVENT B H2O(0.1%HCOOH)
MS$FOCUSED_ION: PRECURSOR_M/Z 451.12401
MS$FOCUSED_ION: PRECURSOR_TYPE [M+H]+
PK$SPLASH: splash10-0f79-0970000000-5ac7d8a8f470e753fac6
PK$NUM_PEAK: 8
PK$PEAK: m/z int. rel.int.
  117.0346 110.5 55
  135.0457 132.9 66
  145.0306 174.8 87
  153.0199 1235 617
  163.0404 773.5 386
  179.0356 74.22 37
  289.0715 2000 999
  451.1240 63.62 32
//
