ACCESSION: MSBNK-RIKEN-PR100295
RECORD_TITLE: D-(+)-Pantothenic acid; LC-ESI-QTOF; MS2; CE:Ramp 5-60 V; [M+H]+
DATE: 2016.01.19 (Created 2009.09.10, modified 2011.05.06)
AUTHORS: Matsuda F, Suzuki M, Sawada Y, Plant Science Center, RIKEN.
LICENSE: CC BY-SA
COMMENT: Acquisition and generation of the data is financially supported in part by CREST/JST.
CH$NAME: D-Pantothenic Acid
CH$NAME: Vitamin B5
CH$NAME: (R)-Pantothenate
CH$NAME: (R)-(+)-N-(2,4-Dihydroxy-3,3-dimethyl-1-oxobutyl)-beta-alanine
CH$NAME: D-(+)-Pantothenic acid
CH$COMPOUND_CLASS: Amino acids
CH$FORMULA: C9H17NO5
CH$EXACT_MASS: 219.11067
CH$SMILES: OCC(C)(C)[C@@H](O)C(=O)NCCC(O)=O
CH$IUPAC: InChI=1S/C9H17NO5/c1-9(2,5-11)7(14)8(15)10-4-3-6(12)13/h7,11,14H,3-5H2,1-2H3,(H,10,15)(H,12,13)/t7-/m0/s1
CH$LINK: CAS 79-83-4
CH$LINK: CHEMSPIDER 6361
CH$LINK: KAPPAVIEW KPC00867
CH$LINK: KEGG C00864
CH$LINK: KNAPSACK C00001550
CH$LINK: PUBCHEM CID:6613
CH$LINK: INCHIKEY GHOKWGTUZJEAQD-ZETCQYMHSA-N
CH$LINK: COMPTOX DTXSID9023417
AC$INSTRUMENT: UPLC Q-Tof Premier, Waters
AC$INSTRUMENT_TYPE: LC-ESI-QTOF
AC$MASS_SPECTROMETRY: MS_TYPE MS2
AC$MASS_SPECTROMETRY: ION_MODE POSITIVE
AC$MASS_SPECTROMETRY: COLLISION_ENERGY Ramp 5-60 V
AC$MASS_SPECTROMETRY: DATAFORMAT Continuum
AC$MASS_SPECTROMETRY: DATE 2008.07.28
AC$MASS_SPECTROMETRY: DESOLVATION_GAS_FLOW 600.0 L/Hr
AC$MASS_SPECTROMETRY: DESOLVATION_TEMPERATURE 420 C
AC$MASS_SPECTROMETRY: FRAGMENTATION_METHOD LOW-ENERGY CID
AC$MASS_SPECTROMETRY: IONIZATION ESI
AC$MASS_SPECTROMETRY: SCANNING 1.0 sec/scan (m/z = 50-1000)
AC$MASS_SPECTROMETRY: SOURCE_TEMPERATURE 120 C
AC$CHROMATOGRAPHY: CAPILLARY_VOLTAGE 3.0 kV
AC$CHROMATOGRAPHY: SAMPLING_CONE 23.0 V
AC$CHROMATOGRAPHY: SOLVENT A CH3CN(0.1%HCOOH)
AC$CHROMATOGRAPHY: SOLVENT B H2O(0.1%HCOOH)
MS$FOCUSED_ION: PRECURSOR_M/Z 220.11847
MS$FOCUSED_ION: PRECURSOR_TYPE [M+H]+
PK$SPLASH: splash10-00dl-9460000000-a6391c9eace085a7cd68
PK$NUM_PEAK: 9
PK$PEAK: m/z int. rel.int.
  70.0298 136 140
  85.0652 131.8 135
  90.0556 973.8 999
  98.0240 254.8 261
  116.0353 149.8 154
  124.0766 245.7 252
  184.0981 278.3 286
  202.1085 418.9 430
  220.1185 632.6 649
//
