ACCESSION: MSBNK-RIKEN-PR300178
RECORD_TITLE: Lyalosidic acid; LC-ESI-QTOF; MS2
DATE: 2019.03.28
AUTHORS: Tetsuya Mori, Center for Sustainable Resource Science, RIKEN
LICENSE: CC BY-NC-SA
PUBLICATION: Tsugawa H., Nakabayashi R., Mori T., Yamada Y., Takahashi M., Rai A., Sugiyama R., Yamamoto H., Nakaya T., Yamazaki M., Kooke R., Bac-Molenaar JA., Oztolan-Erol N., Keurentjes JJB., Arita M., Saito K. (2019) "A cheminformatics approach to characterize metabolomes in stable-isotope-labeled organisms" Nature Methods 16(4):295-298. [doi:10.1038/s41592-019-0358-2]
COMMENT: registered in RIKEN PlaSMA
CH$NAME: Lyalosidic acid
CH$COMPOUND_CLASS: Terpene glycosides
CH$FORMULA: C26H28N2O9
CH$EXACT_MASS: 512.515
CH$SMILES: OC[C@H]1O[C@@H](O[C@@H]2OC=C([C@H](CC3=NC=CC4=C3NC3=CC=CC=C43)[C@H]2C=C)C(O)=O)[C@H](O)[C@@H](O)[C@@H]1O
CH$IUPAC: InChI=1S/C26H28N2O9/c1-2-12-15(9-18-20-14(7-8-27-18)13-5-3-4-6-17(13)28-20)16(24(33)34)11-35-25(12)37-26-23(32)22(31)21(30)19(10-29)36-26/h2-8,11-12,15,19,21-23,25-26,28-32H,1,9-10H2,(H,33,34)/t12-,15-,19-,21-,22+,23-,25+,26+/m1/s1
CH$LINK: INCHIKEY UZLBTLIRYSYTRG-FMKZDVGKSA-N
AC$INSTRUMENT: LC, Waters Acquity UPLC System; MS, Waters Xevo G2 Q-Tof
AC$INSTRUMENT_TYPE: LC-ESI-QTOF
AC$MASS_SPECTROMETRY: MS_TYPE MS2
AC$MASS_SPECTROMETRY: ION_MODE POSITIVE
AC$MASS_SPECTROMETRY: COLLISION_ENERGY 6V
AC$MASS_SPECTROMETRY: DESOLVATION_GAS_FLOW 800/h
AC$MASS_SPECTROMETRY: DESOLVATION_TEMPERATURE 450 C
AC$MASS_SPECTROMETRY: IONIZATION ESI
AC$CHROMATOGRAPHY: CAPILLARY_VOLTAGE +3.00 kV
AC$CHROMATOGRAPHY: COLUMN_NAME Acquity bridged ethyl hybrid C18 (1.7 um, 2.1 mm * 100 mm, Waters)
AC$CHROMATOGRAPHY: COLUMN_TEMPERATURE 40 C
AC$CHROMATOGRAPHY: FLOW_GRADIENT A/B = (99.5%/0.5% at 0 min, 99.5%/0.5% at 0.1 min, 20%/80% at 10 min, 0.5%/99.5% at 10.1 min, 0.5%/99.5% at 12.0 min, 99.5%/0.5% at 12.1 min, 99.5%/0.5% at 15.0 min)
AC$CHROMATOGRAPHY: FLOW_RATE 0.3 ml/min at 0 min, 0.3 ml/min at 10 min, 0.4 ml/min at 10.1 min, 0.4 ml/min at 14.4 min, 0.3 ml/min at 14.5 min
AC$CHROMATOGRAPHY: RETENTION_TIME 3.717917
AC$CHROMATOGRAPHY: SOLVENT A water including 0.1% formic acid
AC$CHROMATOGRAPHY: SOLVENT B acetonitrile including 0.1% formic acid
MS$FOCUSED_ION: PRECURSOR_TYPE [M+H]+
MS$FOCUSED_ION: PRECURSOR_M/Z 513.1867569
PK$SPLASH: splash10-03di-0044090000-ee037d11619162e7cd11
PK$NUM_PEAK: 34
PK$PEAK: m/z int. rel.int.
  182.08359 62.0 62
  183.0896 26.0 26
  207.09129 8.0 8
  208.09863 7.0 7
  219.09152 10.0 10
  220.09662 7.0 7
  235.07968 10.0 10
  235.08997 19.0 19
  237.09921 13.0 13
  247.08852 28.0 28
  261.05835 5.0 5
  261.07031 6.0 6
  263.04901 5.0 5
  263.08154 231.0 231
  264.0864 59.0 59
  265.0881 7.0 7
  279.15112 8.0 8
  281.09189 36.0 36
  282.1011 11.0 11
  289.13647 8.0 8
  305.11633 6.0 6
  305.12985 12.0 12
  307.14453 105.0 105
  308.14731 19.0 19
  315.10794 8.0 8
  333.12445 125.0 125
  334.12805 27.0 27
  351.13385 194.0 194
  352.13556 56.0 56
  353.13397 6.0 6
  469.19366 13.0 13
  513.12103 14.0 14
  513.18677 1000.0 999
  513.25153 16.0 16
//
