ACCESSION: MSBNK-RIKEN-PR307636
RECORD_TITLE: Chikusetsusaponin IV; LC-ESI-QTOF; MS2
DATE: 2019.03.28
AUTHORS: Tetsuya Mori, Center for Sustainable Resource Science, RIKEN
LICENSE: CC BY-NC-SA
PUBLICATION: Tsugawa H., Nakabayashi R., Mori T., Yamada Y., Takahashi M., Rai A., Sugiyama R., Yamamoto H., Nakaya T., Yamazaki M., Kooke R., Bac-Molenaar JA., Oztolan-Erol N., Keurentjes JJB., Arita M., Saito K. (2019) "A cheminformatics approach to characterize metabolomes in stable-isotope-labeled organisms" Nature Methods 16(4):295-298. [doi:10.1038/s41592-019-0358-2]
COMMENT: registered in RIKEN PlaSMA
CH$NAME: Chikusetsusaponin IV
CH$COMPOUND_CLASS: Triterpene saponins
CH$FORMULA: C47H74O18
CH$EXACT_MASS: 927.091
CH$SMILES: CC1(C)CCC2(CCC3(C)C(=CCC4C5(C)CCC(OC6OC(C(OC7OC(CO)C(O)C7O)C(O)C6O)C(O)=O)C(C)(C)C5CCC34C)C2C1)C(=O)OC1OC(CO)C(O)C(O)C1O
CH$IUPAC: InChI=1S/C47H74O18/c1-42(2)14-16-47(41(59)65-39-33(55)30(52)28(50)23(19-48)61-39)17-15-45(6)21(22(47)18-42)8-9-26-44(5)12-11-27(43(3,4)25(44)10-13-46(26,45)7)62-40-34(56)31(53)35(36(64-40)37(57)58)63-38-32(54)29(51)24(20-49)60-38/h8,22-36,38-40,48-56H,9-20H2,1-7H3,(H,57,58)
CH$LINK: INCHIKEY KQSFNXMDCOFFGW-UHFFFAOYSA-N
AC$INSTRUMENT: LC, Waters Acquity UPLC System; MS, Waters Xevo G2 Q-Tof
AC$INSTRUMENT_TYPE: LC-ESI-QTOF
AC$MASS_SPECTROMETRY: MS_TYPE MS2
AC$MASS_SPECTROMETRY: ION_MODE NEGATIVE
AC$MASS_SPECTROMETRY: COLLISION_ENERGY 6V
AC$MASS_SPECTROMETRY: DESOLVATION_GAS_FLOW 800/h
AC$MASS_SPECTROMETRY: DESOLVATION_TEMPERATURE 450 C
AC$MASS_SPECTROMETRY: IONIZATION ESI
AC$CHROMATOGRAPHY: CAPILLARY_VOLTAGE -2.75 kV
AC$CHROMATOGRAPHY: COLUMN_NAME Acquity bridged ethyl hybrid C18 (1.7 um, 2.1 mm * 100 mm, Waters)
AC$CHROMATOGRAPHY: COLUMN_TEMPERATURE 40 C
AC$CHROMATOGRAPHY: FLOW_GRADIENT A/B = (99.5%/0.5% at 0 min, 99.5%/0.5% at 0.1 min, 20%/80% at 10 min, 0.5%/99.5% at 10.1 min, 0.5%/99.5% at 12.0 min, 99.5%/0.5% at 12.1 min, 99.5%/0.5% at 15.0 min)
AC$CHROMATOGRAPHY: FLOW_RATE 0.3 ml/min at 0 min, 0.3 ml/min at 10 min, 0.4 ml/min at 10.1 min, 0.4 ml/min at 14.4 min, 0.3 ml/min at 14.5 min
AC$CHROMATOGRAPHY: RETENTION_TIME 6.386483
AC$CHROMATOGRAPHY: SOLVENT A water including 0.1% formic acid
AC$CHROMATOGRAPHY: SOLVENT B acetonitrile including 0.1% formic acid
MS$FOCUSED_ION: PRECURSOR_TYPE [M-H]-
MS$FOCUSED_ION: PRECURSOR_M/Z 925.48023904783
PK$SPLASH: splash10-014i-4100090000-3544f4961a022444ce0e
PK$NUM_PEAK: 41
PK$PEAK: m/z int. rel.int.
  59.01231 108.0 108
  71.01103 51.0 51
  75.00639 5.0 5
  85.02725 14.0 14
  86.03194 7.0 7
  89.02262 475.0 475
  90.02612 15.0 15
  91.02907 10.0 10
  101.02524 43.0 43
  113.02224 48.0 48
  119.0351 43.0 43
  131.02519 14.0 14
  131.03314 64.0 64
  132.0379 9.0 9
  149.04442 44.0 44
  150.05019 5.0 5
  231.3158 7.0 7
  270.7782 5.0 5
  454.11359 8.0 8
  455.36279 8.0 8
  456.34644 9.0 9
  497.35229 18.0 18
  497.4238 5.0 5
  510.36084 9.0 9
  523.38525 5.0 5
  569.34082 21.0 21
  569.38202 1000.0 999
  570.3855 353.0 353
  571.3894 79.0 79
  572.38483 5.0 5
  583.39136 5.0 5
  583.41913 9.0 9
  587.39783 9.0 9
  613.36322 93.0 93
  613.38922 25.0 25
  614.36182 14.0 14
  614.39246 20.0 20
  631.3786 9.0 9
  763.42877 7.0 7
  793.42474 11.0 11
  793.45618 6.0 6
//
