ACCESSION: MSBNK-RIKEN-PR309213
RECORD_TITLE: (Methylsulfonyl)octyl glucosinolate; LC-ESI-QTOF; MS2
DATE: 2019.03.28
AUTHORS: Tetsuya Mori, Center for Sustainable Resource Science, RIKEN
LICENSE: CC BY-NC-SA
PUBLICATION: Tsugawa H., Nakabayashi R., Mori T., Yamada Y., Takahashi M., Rai A., Sugiyama R., Yamamoto H., Nakaya T., Yamazaki M., Kooke R., Bac-Molenaar JA., Oztolan-Erol N., Keurentjes JJB., Arita M., Saito K. (2019) "A cheminformatics approach to characterize metabolomes in stable-isotope-labeled organisms" Nature Methods 16(4):295-298. [doi:10.1038/s41592-019-0358-2]
COMMENT: Annotation level-3
CH$NAME: (Methylsulfonyl)octyl glucosinolate
CH$COMPOUND_CLASS: Glucosinolates
CH$FORMULA: C16H31NO11S3
CH$EXACT_MASS: 509.615
CH$SMILES: O=S(=O)(O)ON=C(CCCCCCCCS(=O)(=O)C)SC1OC(CO)C(O)C(O)C1(O)
CH$IUPAC: InChI=1S/C16H31NO11S3/c1-30(22,23)9-7-5-3-2-4-6-8-12(17-28-31(24,25)26)29-16-15(21)14(20)13(19)11(10-18)27-16/h11,13-16,18-21H,2-10H2,1H3,(H,24,25,26)
CH$LINK: INCHIKEY OZKVQSNRAFPWMK-UHFFFAOYSA-N
AC$INSTRUMENT: LC, Waters Acquity UPLC System; MS, Waters Xevo G2 Q-Tof
AC$INSTRUMENT_TYPE: LC-ESI-QTOF
AC$MASS_SPECTROMETRY: MS_TYPE MS2
AC$MASS_SPECTROMETRY: ION_MODE NEGATIVE
AC$MASS_SPECTROMETRY: COLLISION_ENERGY 6V
AC$MASS_SPECTROMETRY: DESOLVATION_GAS_FLOW 800/h
AC$MASS_SPECTROMETRY: DESOLVATION_TEMPERATURE 450 C
AC$MASS_SPECTROMETRY: IONIZATION ESI
AC$CHROMATOGRAPHY: CAPILLARY_VOLTAGE +3.00 kV
AC$CHROMATOGRAPHY: COLUMN_NAME Acquity bridged ethyl hybrid C18 (1.7 um, 2.1 mm * 100 mm, Waters)
AC$CHROMATOGRAPHY: COLUMN_TEMPERATURE 40 C
AC$CHROMATOGRAPHY: FLOW_GRADIENT A/B = (99.5%/0.5% at 0 min, 99.5%/0.5% at 0.1 min, 20%/80% at 10 min, 0.5%/99.5% at 10.1 min, 0.5%/99.5% at 12.0 min, 99.5%/0.5% at 12.1 min, 99.5%/0.5% at 15.0 min)
AC$CHROMATOGRAPHY: FLOW_RATE 0.3 ml/min at 0 min, 0.3 ml/min at 10 min, 0.4 ml/min at 10.1 min, 0.4 ml/min at 14.4 min, 0.3 ml/min at 14.5 min
AC$CHROMATOGRAPHY: RETENTION_TIME 3.32
AC$CHROMATOGRAPHY: SOLVENT A water including 0.1% formic acid
AC$CHROMATOGRAPHY: SOLVENT B acetonitrile including 0.1% formic acid
MS$FOCUSED_ION: PRECURSOR_TYPE [M-H]-
MS$FOCUSED_ION: PRECURSOR_M/Z 508.0984
PK$SPLASH: splash10-0a4j-3111090000-49adc910e07b773a7b4a
PK$NUM_PEAK: 8
PK$PEAK: m/z int. rel.int.
  95.94695 18.0 142
  96.95832 20.0 157
  96.96706 21.0 165
  103.98185 18.0 142
  240.99689 18.0 142
  345.98837 18.0 142
  508.09933 127.0 999
  508.14023 19.0 149
//
