ACCESSION: MSBNK-RIKEN-PR300872
RECORD_TITLE: Retrorsine; LC-ESI-QTOF; MS2
DATE: 2019.03.28
AUTHORS: Tetsuya Mori, Center for Sustainable Resource Science, RIKEN
LICENSE: CC BY-NC-SA
PUBLICATION: Tsugawa H., Nakabayashi R., Mori T., Yamada Y., Takahashi M., Rai A., Sugiyama R., Yamamoto H., Nakaya T., Yamazaki M., Kooke R., Bac-Molenaar JA., Oztolan-Erol N., Keurentjes JJB., Arita M., Saito K. (2019) "A cheminformatics approach to characterize metabolomes in stable-isotope-labeled organisms" Nature Methods 16(4):295-298. [doi:10.1038/s41592-019-0358-2]
COMMENT: registered in RIKEN PlaSMA
CH$NAME: Retrorsine
CH$COMPOUND_CLASS: Macrolides and analogues
CH$FORMULA: C18H25NO6
CH$EXACT_MASS: 351.399
CH$SMILES: C\C=C1\C[C@@H](C)[C@](O)(CO)C(=O)OCC2=CCN3CC[C@@H](OC1=O)[C@@H]23
CH$IUPAC: InChI=1S/C18H25NO6/c1-3-12-8-11(2)18(23,10-20)17(22)24-9-13-4-6-19-7-5-14(15(13)19)25-16(12)21/h3-4,11,14-15,20,23H,5-10H2,1-2H3/b12-3-/t11-,14-,15-,18-/m1/s1
CH$LINK: INCHIKEY BCJMNZRQJAVDLD-CQRYIUNCSA-N
AC$INSTRUMENT: LC, Waters Acquity UPLC System; MS, Waters Xevo G2 Q-Tof
AC$INSTRUMENT_TYPE: LC-ESI-QTOF
AC$MASS_SPECTROMETRY: MS_TYPE MS2
AC$MASS_SPECTROMETRY: ION_MODE POSITIVE
AC$MASS_SPECTROMETRY: COLLISION_ENERGY 6V
AC$MASS_SPECTROMETRY: DESOLVATION_GAS_FLOW 800/h
AC$MASS_SPECTROMETRY: DESOLVATION_TEMPERATURE 450 C
AC$MASS_SPECTROMETRY: IONIZATION ESI
AC$CHROMATOGRAPHY: CAPILLARY_VOLTAGE +3.00 kV
AC$CHROMATOGRAPHY: COLUMN_NAME Acquity bridged ethyl hybrid C18 (1.7 um, 2.1 mm * 100 mm, Waters)
AC$CHROMATOGRAPHY: COLUMN_TEMPERATURE 40 C
AC$CHROMATOGRAPHY: FLOW_GRADIENT A/B = (99.5%/0.5% at 0 min, 99.5%/0.5% at 0.1 min, 20%/80% at 10 min, 0.5%/99.5% at 10.1 min, 0.5%/99.5% at 12.0 min, 99.5%/0.5% at 12.1 min, 99.5%/0.5% at 15.0 min)
AC$CHROMATOGRAPHY: FLOW_RATE 0.3 ml/min at 0 min, 0.3 ml/min at 10 min, 0.4 ml/min at 10.1 min, 0.4 ml/min at 14.4 min, 0.3 ml/min at 14.5 min
AC$CHROMATOGRAPHY: RETENTION_TIME 3.2257
AC$CHROMATOGRAPHY: SOLVENT A water including 0.1% formic acid
AC$CHROMATOGRAPHY: SOLVENT B acetonitrile including 0.1% formic acid
MS$FOCUSED_ION: PRECURSOR_TYPE [M+H]+
MS$FOCUSED_ION: PRECURSOR_M/Z 352.175464
PK$SPLASH: splash10-0006-9700000000-64fa16834ad23584c7f2
PK$NUM_PEAK: 145
PK$PEAK: m/z int. rel.int.
  54.03638 30.0 30
  55.04484 16.0 16
  57.03286 24.0 24
  65.03906 49.0 49
  67.05465 437.0 437
  68.046 32.0 32
  68.0502 18.0 18
  68.05711 50.0 50
  68.65975 24.0 24
  69.04461 18.0 18
  69.0564 16.0 16
  69.07729 17.0 17
  70.03244 16.0 16
  77.03459 78.0 78
  77.03919 255.0 255
  78.03947 46.0 46
  78.04552 22.0 22
  78.05172 65.0 65
  78.66807 19.0 19
  79.04501 21.0 21
  79.04874 24.0 24
  79.0559 151.0 151
  80.04148 16.0 16
  80.04887 83.0 83
  80.05404 140.0 140
  80.06528 36.0 36
  81.0331 40.0 40
  81.04407 20.0 20
  81.05445 40.0 40
  81.05976 72.0 72
  81.06699 70.0 70
  81.0723 183.0 183
  81.76826 17.0 17
  82.06393 117.0 117
  83.04883 43.0 43
  83.05324 19.0 19
  83.07011 41.0 41
  84.04709 44.0 44
  86.06268 19.0 19
  91.05462 543.0 542
  92.04955 118.0 118
  92.05458 39.0 39
  93.04902 23.0 23
  93.06173 363.0 363
  93.07191 236.0 236
  94.06653 1000.0 999
  94.07663 85.0 85
  95.04904 24.0 24
  95.06653 69.0 69
  95.07181 92.0 92
  95.07907 59.0 59
  95.08546 169.0 169
  95.09244 31.0 31
  96.08175 502.0 501
  97.08682 16.0 16
  103.05167 256.0 256
  103.06274 26.0 26
  104.05965 38.0 38
  104.0648 34.0 34
  104.11245 17.0 17
  105.05897 43.0 43
  105.06702 109.0 109
  105.07453 38.0 38
  106.06487 248.0 248
  106.32936 18.0 18
  107.05017 16.0 16
  107.05648 23.0 23
  107.0648 23.0 23
  107.07053 47.0 47
  107.96883 16.0 16
  108.04535 18.0 18
  108.05397 26.0 26
  108.06313 38.0 38
  108.08175 250.0 250
  109.05216 26.0 26
  109.08661 24.0 24
  109.09591 20.0 20
  110.05796 41.0 41
  110.06805 23.0 23
  111.08163 24.0 24
  111.09592 17.0 17
  112.07226 34.0 34
  112.08261 26.0 26
  113.07826 51.0 51
  115.05514 19.0 19
  117.06016 42.0 42
  117.06908 30.0 30
  117.07442 18.0 18
  118.06528 199.0 199
  119.05546 25.0 25
  119.07343 22.0 22
  120.08142 755.0 754
  121.08891 131.0 131
  122.09212 163.0 163
  122.10255 50.0 50
  123.04311 17.0 17
  123.08039 214.0 214
  126.09369 18.0 18
  128.06706 31.0 31
  130.06677 17.0 17
  132.07506 16.0 16
  132.08214 20.0 20
  133.05515 25.0 25
  133.08591 19.0 19
  134.10248 50.0 50
  136.06 16.0 16
  136.07254 17.0 17
  136.08138 23.0 23
  137.07996 23.0 23
  138.09267 310.0 310
  139.09441 65.0 65
  141.54341 17.0 17
  141.71207 27.0 27
  145.11026 29.0 29
  146.06203 26.0 26
  147.10457 18.0 18
  148.07896 16.0 16
  151.07179 90.0 90
  151.07791 53.0 53
  152.47377 19.0 19
  153.07555 20.0 20
  154.09477 19.0 19
  155.08977 23.0 23
  156.09656 19.0 19
  156.11569 21.0 21
  157.09079 17.0 17
  157.10278 29.0 29
  158.07787 32.0 32
  158.09773 17.0 17
  159.10916 20.0 20
  163.48997 16.0 16
  171.11406 20.0 20
  173.09218 27.0 27
  176.14528 22.0 22
  178.12021 22.0 22
  186.09175 18.0 18
  197.07632 32.0 32
  220.13855 19.0 19
  221.14139 18.0 18
  222.14337 30.0 30
  237.12161 23.0 23
  256.58087 37.0 37
  271.53555 42.0 42
  275.14886 20.0 20
  276.17123 16.0 16
//
