ACCESSION: MSBNK-RIKEN-PR306958
RECORD_TITLE: Cyanidin-3-O-sambubioside-5-O-glucoside; LC-ESI-QTOF; MS2
DATE: 2019.03.28
AUTHORS: Tetsuya Mori, Center for Sustainable Resource Science, RIKEN
LICENSE: CC BY-NC-SA
PUBLICATION: Tsugawa H., Nakabayashi R., Mori T., Yamada Y., Takahashi M., Rai A., Sugiyama R., Yamamoto H., Nakaya T., Yamazaki M., Kooke R., Bac-Molenaar JA., Oztolan-Erol N., Keurentjes JJB., Arita M., Saito K. (2019) "A cheminformatics approach to characterize metabolomes in stable-isotope-labeled organisms" Nature Methods 16(4):295-298. [doi:10.1038/s41592-019-0358-2]
COMMENT: registered in RIKEN PlaSMA
CH$NAME: Cyanidin-3-O-sambubioside-5-O-glucoside
CH$COMPOUND_CLASS: Anthocyanidin-5-O-glycosides
CH$FORMULA: [C32H39O20]+
CH$EXACT_MASS: 743.644
CH$SMILES: OCC1OC(OC2=CC(O)=CC3=[O+]C(=C(OC4OC(CO)C(O)C(O)C4OC4OCC(O)C(O)C4O)C=C23)C2=CC(O)=C(O)C=C2)C(O)C(O)C1O
CH$IUPAC: InChI=1S/C32H38O20/c33-7-19-22(40)24(42)27(45)31(50-19)48-17-5-11(35)4-16-12(17)6-18(28(47-16)10-1-2-13(36)14(37)3-10)49-32-29(25(43)23(41)20(8-34)51-32)52-30-26(44)21(39)15(38)9-46-30/h1-6,15,19-27,29-34,38-45H,7-9H2,(H2-,35,36,37)/p+1
CH$LINK: INCHIKEY OLBLWNPOURNBCY-UHFFFAOYSA-O
AC$INSTRUMENT: LC, Waters Acquity UPLC System; MS, Waters Xevo G2 Q-Tof
AC$INSTRUMENT_TYPE: LC-ESI-QTOF
AC$MASS_SPECTROMETRY: MS_TYPE MS2
AC$MASS_SPECTROMETRY: ION_MODE NEGATIVE
AC$MASS_SPECTROMETRY: COLLISION_ENERGY 6V
AC$MASS_SPECTROMETRY: DESOLVATION_GAS_FLOW 800/h
AC$MASS_SPECTROMETRY: DESOLVATION_TEMPERATURE 450 C
AC$MASS_SPECTROMETRY: IONIZATION ESI
AC$CHROMATOGRAPHY: CAPILLARY_VOLTAGE -2.75 kV
AC$CHROMATOGRAPHY: COLUMN_NAME Acquity bridged ethyl hybrid C18 (1.7 um, 2.1 mm * 100 mm, Waters)
AC$CHROMATOGRAPHY: COLUMN_TEMPERATURE 40 C
AC$CHROMATOGRAPHY: FLOW_GRADIENT A/B = (99.5%/0.5% at 0 min, 99.5%/0.5% at 0.1 min, 20%/80% at 10 min, 0.5%/99.5% at 10.1 min, 0.5%/99.5% at 12.0 min, 99.5%/0.5% at 12.1 min, 99.5%/0.5% at 15.0 min)
AC$CHROMATOGRAPHY: FLOW_RATE 0.3 ml/min at 0 min, 0.3 ml/min at 10 min, 0.4 ml/min at 10.1 min, 0.4 ml/min at 14.4 min, 0.3 ml/min at 14.5 min
AC$CHROMATOGRAPHY: RETENTION_TIME 2.486433
AC$CHROMATOGRAPHY: SOLVENT A water including 0.1% formic acid
AC$CHROMATOGRAPHY: SOLVENT B acetonitrile including 0.1% formic acid
MS$FOCUSED_ION: PRECURSOR_TYPE [M-2H]-
MS$FOCUSED_ION: PRECURSOR_M/Z 741.18781861576
PK$SPLASH: splash10-001i-0090000000-7bbd9e50aa8b65a477c2
PK$NUM_PEAK: 24
PK$PEAK: m/z int. rel.int.
  82.06487 28.0 28
  111.88617 24.0 24
  183.04103 23.0 23
  212.04979 34.0 34
  217.00824 22.0 22
  223.03397 42.0 42
  226.33333 30.0 30
  227.03896 189.0 189
  228.03555 32.0 32
  228.0452 30.0 30
  233.07005 22.0 22
  238.01756 31.0 31
  239.03676 22.0 22
  241.04774 30.0 30
  255.02171 66.0 66
  255.03186 49.0 49
  266.03171 24.0 24
  283.0242 1000.0 999
  284.02808 451.0 451
  285.03922 53.0 53
  309.0358 25.0 25
  327.03766 29.0 29
  328.05869 23.0 23
  446.11551 28.0 28
//
