ACCESSION: MSBNK-RIKEN-PR309419
RECORD_TITLE: Phenylethanol + Hex-Pen; LC-ESI-QTOF; MS2
DATE: 2019.03.28
AUTHORS: Tetsuya Mori, Center for Sustainable Resource Science, RIKEN
LICENSE: CC BY-NC-SA
PUBLICATION: Tsugawa H., Nakabayashi R., Mori T., Yamada Y., Takahashi M., Rai A., Sugiyama R., Yamamoto H., Nakaya T., Yamazaki M., Kooke R., Bac-Molenaar JA., Oztolan-Erol N., Keurentjes JJB., Arita M., Saito K. (2019) "A cheminformatics approach to characterize metabolomes in stable-isotope-labeled organisms" Nature Methods 16(4):295-298. [doi:10.1038/s41592-019-0358-2]
COMMENT: Annotation level-3
CH$NAME: Phenylethanol + Hex-Pen
CH$COMPOUND_CLASS: Alkyl benzyl hexosides
CH$FORMULA: C19H28O10
CH$EXACT_MASS: 416.423
CH$SMILES: OCC3(O)(COC(OCC2OC(OCCC1=CC=CC=C1)C(O)C(O)C2(O))C3(O))
CH$IUPAC: InChI=1S/C19H28O10/c20-9-19(25)10-28-18(16(19)24)27-8-12-13(21)14(22)15(23)17(29-12)26-7-6-11-4-2-1-3-5-11/h1-5,12-18,20-25H,6-10H2
CH$LINK: INCHIKEY GZSQKOFXMZDKPV-UHFFFAOYSA-N
AC$INSTRUMENT: LC, Waters Acquity UPLC System; MS, Waters Xevo G2 Q-Tof
AC$INSTRUMENT_TYPE: LC-ESI-QTOF
AC$MASS_SPECTROMETRY: MS_TYPE MS2
AC$MASS_SPECTROMETRY: ION_MODE NEGATIVE
AC$MASS_SPECTROMETRY: COLLISION_ENERGY 6V
AC$MASS_SPECTROMETRY: DESOLVATION_GAS_FLOW 800/h
AC$MASS_SPECTROMETRY: DESOLVATION_TEMPERATURE 450 C
AC$MASS_SPECTROMETRY: IONIZATION ESI
AC$CHROMATOGRAPHY: CAPILLARY_VOLTAGE +3.00 kV
AC$CHROMATOGRAPHY: COLUMN_NAME Acquity bridged ethyl hybrid C18 (1.7 um, 2.1 mm * 100 mm, Waters)
AC$CHROMATOGRAPHY: COLUMN_TEMPERATURE 40 C
AC$CHROMATOGRAPHY: FLOW_GRADIENT A/B = (99.5%/0.5% at 0 min, 99.5%/0.5% at 0.1 min, 20%/80% at 10 min, 0.5%/99.5% at 10.1 min, 0.5%/99.5% at 12.0 min, 99.5%/0.5% at 12.1 min, 99.5%/0.5% at 15.0 min)
AC$CHROMATOGRAPHY: FLOW_RATE 0.3 ml/min at 0 min, 0.3 ml/min at 10 min, 0.4 ml/min at 10.1 min, 0.4 ml/min at 14.4 min, 0.3 ml/min at 14.5 min
AC$CHROMATOGRAPHY: RETENTION_TIME 3.5
AC$CHROMATOGRAPHY: SOLVENT A water including 0.1% formic acid
AC$CHROMATOGRAPHY: SOLVENT B acetonitrile including 0.1% formic acid
MS$FOCUSED_ION: PRECURSOR_TYPE [M+HCOO]-
MS$FOCUSED_ION: PRECURSOR_M/Z 461.1654
PK$SPLASH: splash10-014i-0100900000-12dd2972e71e3daa65ed
PK$NUM_PEAK: 16
PK$PEAK: m/z int. rel.int.
  101.02538 22.0 46
  109.03062 19.0 40
  113.02338 22.0 46
  113.03166 21.0 44
  116.07511 23.0 48
  183.11537 18.0 38
  230.07585 20.0 42
  269.09695 40.0 84
  269.10599 20.0 42
  415.16129 478.0 999
  416.14432 18.0 38
  416.16766 55.0 115
  416.18503 19.0 40
  417.1543 18.0 38
  435.07379 21.0 44
  461.17157 187.0 391
//
