ACCESSION: MSBNK-RIKEN-PR303843
RECORD_TITLE: Schizandrin; LC-ESI-QTOF; MS2
DATE: 2019.03.28
AUTHORS: Tetsuya Mori, Center for Sustainable Resource Science, RIKEN
LICENSE: CC BY-NC-SA
PUBLICATION: Tsugawa H., Nakabayashi R., Mori T., Yamada Y., Takahashi M., Rai A., Sugiyama R., Yamamoto H., Nakaya T., Yamazaki M., Kooke R., Bac-Molenaar JA., Oztolan-Erol N., Keurentjes JJB., Arita M., Saito K. (2019) "A cheminformatics approach to characterize metabolomes in stable-isotope-labeled organisms" Nature Methods 16(4):295-298. [doi:10.1038/s41592-019-0358-2]
COMMENT: registered in RIKEN PlaSMA
CH$NAME: Schizandrin
CH$COMPOUND_CLASS: Hydrolyzable tannins
CH$FORMULA: C24H32O7
CH$EXACT_MASS: 432.513
CH$SMILES: COC1=C(OC)C(OC)=C2C(CC(C)C(C)(O)CC3=CC(OC)=C(OC)C(OC)=C23)=C1
CH$IUPAC: InChI=1S/C24H32O7/c1-13-9-14-10-16(26-3)20(28-5)22(30-7)18(14)19-15(12-24(13,2)25)11-17(27-4)21(29-6)23(19)31-8/h10-11,13,25H,9,12H2,1-8H3
CH$LINK: INCHIKEY YEFOAORQXAOVJQ-UHFFFAOYSA-N
AC$INSTRUMENT: LC, Waters Acquity UPLC System; MS, Waters Xevo G2 Q-Tof
AC$INSTRUMENT_TYPE: LC-ESI-QTOF
AC$MASS_SPECTROMETRY: MS_TYPE MS2
AC$MASS_SPECTROMETRY: ION_MODE POSITIVE
AC$MASS_SPECTROMETRY: COLLISION_ENERGY 6V
AC$MASS_SPECTROMETRY: DESOLVATION_GAS_FLOW 800/h
AC$MASS_SPECTROMETRY: DESOLVATION_TEMPERATURE 450 C
AC$MASS_SPECTROMETRY: IONIZATION ESI
AC$CHROMATOGRAPHY: CAPILLARY_VOLTAGE +3.00 kV
AC$CHROMATOGRAPHY: COLUMN_NAME Acquity bridged ethyl hybrid C18 (1.7 um, 2.1 mm * 100 mm, Waters)
AC$CHROMATOGRAPHY: COLUMN_TEMPERATURE 40 C
AC$CHROMATOGRAPHY: FLOW_GRADIENT A/B = (99.5%/0.5% at 0 min, 99.5%/0.5% at 0.1 min, 20%/80% at 10 min, 0.5%/99.5% at 10.1 min, 0.5%/99.5% at 12.0 min, 99.5%/0.5% at 12.1 min, 99.5%/0.5% at 15.0 min)
AC$CHROMATOGRAPHY: FLOW_RATE 0.3 ml/min at 0 min, 0.3 ml/min at 10 min, 0.4 ml/min at 10.1 min, 0.4 ml/min at 14.4 min, 0.3 ml/min at 14.5 min
AC$CHROMATOGRAPHY: RETENTION_TIME 7.59405
AC$CHROMATOGRAPHY: SOLVENT A water including 0.1% formic acid
AC$CHROMATOGRAPHY: SOLVENT B acetonitrile including 0.1% formic acid
MS$FOCUSED_ION: PRECURSOR_TYPE [M+H]+
MS$FOCUSED_ION: PRECURSOR_M/Z 433.2220798
PK$SPLASH: splash10-014i-0009600000-2c08c133320684d74355
PK$NUM_PEAK: 147
PK$PEAK: m/z int. rel.int.
  131.0844 9.0 9
  212.11131 5.0 5
  240.07101 10.0 10
  247.09558 5.0 5
  256.10687 8.0 8
  257.07962 8.0 8
  269.07895 7.0 7
  270.08484 7.0 7
  271.09894 7.0 7
  272.10361 17.0 17
  277.12424 8.0 8
  282.10364 5.0 5
  283.0929 13.0 13
  285.06668 7.0 7
  285.10172 9.0 9
  286.11151 5.0 5
  286.12137 8.0 8
  288.09204 8.0 8
  288.10818 8.0 8
  291.13028 5.0 5
  292.10745 5.0 5
  294.11731 10.0 10
  296.10275 7.0 7
  298.11938 6.0 6
  299.08496 8.0 8
  299.12048 20.0 20
  300.09143 6.0 6
  300.10123 12.0 12
  300.13431 6.0 6
  301.08694 8.0 8
  307.13025 25.0 25
  308.10464 6.0 6
  308.14255 5.0 5
  309.14331 6.0 6
  310.12366 6.0 6
  310.1582 5.0 5
  311.11938 5.0 5
  311.14236 6.0 6
  312.10043 8.0 8
  312.1394 5.0 5
  313.10828 35.0 35
  313.13519 5.0 5
  314.10495 6.0 6
  314.12091 12.0 12
  315.12048 29.0 29
  315.13354 11.0 11
  316.0932 12.0 12
  316.12485 15.0 15
  317.10687 15.0 15
  317.12808 8.0 8
  322.11246 8.0 8
  322.12436 11.0 11
  322.15405 28.0 28
  323.12607 9.0 9
  323.16833 5.0 5
  324.13275 5.0 5
  324.14334 11.0 11
  324.17551 6.0 6
  325.1543 7.0 7
  327.11392 15.0 15
  327.16043 9.0 9
  328.13275 65.0 65
  329.09845 14.0 14
  329.13214 20.0 20
  329.14868 11.0 11
  330.14139 37.0 37
  331.11813 38.0 38
  331.15186 11.0 11
  332.11758 18.0 18
  332.12888 15.0 15
  332.14572 7.0 7
  333.12967 15.0 15
  337.12711 7.0 7
  337.14911 16.0 16
  338.09363 6.0 6
  338.14929 98.0 98
  339.14221 9.0 9
  339.15573 10.0 10
  340.13098 9.0 9
  341.14359 12.0 12
  341.17151 5.0 5
  341.18622 9.0 9
  342.14423 71.0 71
  343.11682 13.0 13
  343.13657 14.0 14
  343.16675 11.0 11
  344.12347 13.0 13
  344.13721 8.0 8
  345.11377 6.0 6
  345.13077 32.0 32
  346.14044 111.0 111
  347.14633 41.0 41
  348.16049 7.0 7
  348.20358 7.0 7
  350.15649 5.0 5
  351.16574 5.0 5
  352.1561 10.0 10
  352.17343 6.0 6
  353.13651 10.0 10
  353.14966 21.0 21
  353.1608 31.0 31
  353.17917 63.0 63
  354.13754 16.0 16
  354.16748 23.0 23
  355.1413 8.0 8
  355.15396 17.0 17
  357.16315 7.0 7
  357.17685 10.0 10
  358.11816 7.0 7
  358.13663 16.0 16
  358.15164 12.0 12
  358.17953 16.0 16
  359.14307 17.0 17
  359.15729 22.0 22
  360.14606 5.0 5
  361.15903 12.0 12
  368.14468 7.0 7
  368.15906 7.0 7
  369.14172 8.0 8
  369.17078 114.0 114
  370.17188 36.0 36
  371.16092 7.0 7
  371.18048 8.0 8
  372.1622 11.0 11
  373.16202 35.0 35
  374.16296 14.0 14
  374.18198 8.0 8
  383.18619 13.0 13
  384.1926 357.0 357
  385.15347 12.0 12
  385.16934 29.0 29
  385.19342 74.0 74
  385.20749 42.0 42
  386.17191 21.0 21
  386.1868 20.0 20
  389.203 12.0 12
  400.18314 72.0 72
  401.202 20.0 20
  415.2099 1000.0 999
  416.21378 281.0 281
  417.18369 8.0 8
  417.2193 27.0 27
  418.21793 5.0 5
  432.18204 11.0 11
  432.21118 39.0 39
  433.168 6.0 6
  433.21698 153.0 153
//
