ACCESSION: MSBNK-RIKEN-PR303767
RECORD_TITLE: Swertiamarin; LC-ESI-QTOF; MS2
DATE: 2019.03.28
AUTHORS: Tetsuya Mori, Center for Sustainable Resource Science, RIKEN
LICENSE: CC BY-NC-SA
PUBLICATION: Tsugawa H., Nakabayashi R., Mori T., Yamada Y., Takahashi M., Rai A., Sugiyama R., Yamamoto H., Nakaya T., Yamazaki M., Kooke R., Bac-Molenaar JA., Oztolan-Erol N., Keurentjes JJB., Arita M., Saito K. (2019) "A cheminformatics approach to characterize metabolomes in stable-isotope-labeled organisms" Nature Methods 16(4):295-298. [doi:10.1038/s41592-019-0358-2]
COMMENT: registered in RIKEN PlaSMA
CH$NAME: Swertiamarin
CH$COMPOUND_CLASS: O-glycosyl compounds
CH$FORMULA: C16H22O10
CH$EXACT_MASS: 374.342
CH$SMILES: OC[C@H]1O[C@@H](O[C@@H]2OC=C3C(=O)OCC[C@@]3(O)[C@H]2C=C)[C@H](O)[C@@H](O)[C@@H]1O
CH$IUPAC: InChI=1S/C16H22O10/c1-2-7-14(24-6-8-13(21)23-4-3-16(7,8)22)26-15-12(20)11(19)10(18)9(5-17)25-15/h2,6-7,9-12,14-15,17-20,22H,1,3-5H2/t7-,9+,10+,11-,12+,14-,15-,16+/m0/s1
CH$LINK: INCHIKEY HEYZWPRKKUGDCR-QBXMEVCASA-N
AC$INSTRUMENT: LC, Waters Acquity UPLC System; MS, Waters Xevo G2 Q-Tof
AC$INSTRUMENT_TYPE: LC-ESI-QTOF
AC$MASS_SPECTROMETRY: MS_TYPE MS2
AC$MASS_SPECTROMETRY: ION_MODE POSITIVE
AC$MASS_SPECTROMETRY: COLLISION_ENERGY 6V
AC$MASS_SPECTROMETRY: DESOLVATION_GAS_FLOW 800/h
AC$MASS_SPECTROMETRY: DESOLVATION_TEMPERATURE 450 C
AC$MASS_SPECTROMETRY: IONIZATION ESI
AC$CHROMATOGRAPHY: CAPILLARY_VOLTAGE +3.00 kV
AC$CHROMATOGRAPHY: COLUMN_NAME Acquity bridged ethyl hybrid C18 (1.7 um, 2.1 mm * 100 mm, Waters)
AC$CHROMATOGRAPHY: COLUMN_TEMPERATURE 40 C
AC$CHROMATOGRAPHY: FLOW_GRADIENT A/B = (99.5%/0.5% at 0 min, 99.5%/0.5% at 0.1 min, 20%/80% at 10 min, 0.5%/99.5% at 10.1 min, 0.5%/99.5% at 12.0 min, 99.5%/0.5% at 12.1 min, 99.5%/0.5% at 15.0 min)
AC$CHROMATOGRAPHY: FLOW_RATE 0.3 ml/min at 0 min, 0.3 ml/min at 10 min, 0.4 ml/min at 10.1 min, 0.4 ml/min at 14.4 min, 0.3 ml/min at 14.5 min
AC$CHROMATOGRAPHY: RETENTION_TIME 3.1978
AC$CHROMATOGRAPHY: SOLVENT A water including 0.1% formic acid
AC$CHROMATOGRAPHY: SOLVENT B acetonitrile including 0.1% formic acid
MS$FOCUSED_ION: PRECURSOR_TYPE [M+H]+
MS$FOCUSED_ION: PRECURSOR_M/Z 375.1285734
PK$SPLASH: splash10-004j-0900000000-9c170da937ebc4a57577
PK$NUM_PEAK: 29
PK$PEAK: m/z int. rel.int.
  79.06056 28.0 28
  97.02876 21.0 21
  103.05827 26.0 26
  121.06388 27.0 27
  134.21758 25.0 25
  139.07367 76.0 76
  140.0808 20.0 20
  143.03381 26.0 26
  147.04489 105.0 105
  149.07286 28.0 28
  167.06738 33.0 33
  167.07616 48.0 48
  168.05769 20.0 20
  169.04605 27.0 27
  177.05453 1000.0 999
  178.05449 86.0 86
  178.06546 47.0 47
  178.31335 21.0 21
  195.06702 801.0 800
  196.06766 95.0 95
  196.08481 30.0 30
  197.06976 21.0 21
  197.08121 21.0 21
  213.07622 106.0 106
  214.07645 20.0 20
  246.00095 21.0 21
  276.0 57.0 57
  375.11761 26.0 26
  375.14594 26.0 26
//
