ACCESSION: MSBNK-RIKEN-PR301736
RECORD_TITLE: Ethylrhoeagenine; LC-ESI-QTOF; MS2
DATE: 2019.03.28
AUTHORS: Tetsuya Mori, Center for Sustainable Resource Science, RIKEN
LICENSE: CC BY-NC-SA
PUBLICATION: Tsugawa H., Nakabayashi R., Mori T., Yamada Y., Takahashi M., Rai A., Sugiyama R., Yamamoto H., Nakaya T., Yamazaki M., Kooke R., Bac-Molenaar JA., Oztolan-Erol N., Keurentjes JJB., Arita M., Saito K. (2019) "A cheminformatics approach to characterize metabolomes in stable-isotope-labeled organisms" Nature Methods 16(4):295-298. [doi:10.1038/s41592-019-0358-2]
COMMENT: registered in RIKEN PlaSMA
CH$NAME: Ethylrhoeagenine
CH$COMPOUND_CLASS: Rhoeadine alkaloids
CH$FORMULA: C22H23NO6
CH$EXACT_MASS: 397.427
CH$SMILES: CCO[C@H]1O[C@H]2[C@H](N(C)CCC3=CC4=C(OCO4)C=C23)C2=C1C1=C(OCO1)C=C2
CH$IUPAC: InChI=1S/C22H23NO6/c1-3-24-22-18-13(4-5-15-21(18)28-11-25-15)19-20(29-22)14-9-17-16(26-10-27-17)8-12(14)6-7-23(19)2/h4-5,8-9,19-20,22H,3,6-7,10-11H2,1-2H3/t19-,20-,22+/m1/s1
CH$LINK: INCHIKEY RKBDCPZCGRWNMP-SJBKTWHCSA-N
AC$INSTRUMENT: LC, Waters Acquity UPLC System; MS, Waters Xevo G2 Q-Tof
AC$INSTRUMENT_TYPE: LC-ESI-QTOF
AC$MASS_SPECTROMETRY: MS_TYPE MS2
AC$MASS_SPECTROMETRY: ION_MODE POSITIVE
AC$MASS_SPECTROMETRY: COLLISION_ENERGY 6V
AC$MASS_SPECTROMETRY: DESOLVATION_GAS_FLOW 800/h
AC$MASS_SPECTROMETRY: DESOLVATION_TEMPERATURE 450 C
AC$MASS_SPECTROMETRY: IONIZATION ESI
AC$CHROMATOGRAPHY: CAPILLARY_VOLTAGE +3.00 kV
AC$CHROMATOGRAPHY: COLUMN_NAME Acquity bridged ethyl hybrid C18 (1.7 um, 2.1 mm * 100 mm, Waters)
AC$CHROMATOGRAPHY: COLUMN_TEMPERATURE 40 C
AC$CHROMATOGRAPHY: FLOW_GRADIENT A/B = (99.5%/0.5% at 0 min, 99.5%/0.5% at 0.1 min, 20%/80% at 10 min, 0.5%/99.5% at 10.1 min, 0.5%/99.5% at 12.0 min, 99.5%/0.5% at 12.1 min, 99.5%/0.5% at 15.0 min)
AC$CHROMATOGRAPHY: FLOW_RATE 0.3 ml/min at 0 min, 0.3 ml/min at 10 min, 0.4 ml/min at 10.1 min, 0.4 ml/min at 14.4 min, 0.3 ml/min at 14.5 min
AC$CHROMATOGRAPHY: RETENTION_TIME 5.150367
AC$CHROMATOGRAPHY: SOLVENT A water including 0.1% formic acid
AC$CHROMATOGRAPHY: SOLVENT B acetonitrile including 0.1% formic acid
MS$FOCUSED_ION: PRECURSOR_TYPE [M+H]+
MS$FOCUSED_ION: PRECURSOR_M/Z 398.1598139
PK$SPLASH: splash10-0f6x-0739000000-eb46ea4e203926e824a1
PK$NUM_PEAK: 124
PK$PEAK: m/z int. rel.int.
  91.05568 6.0 6
  119.04803 10.0 10
  131.04567 6.0 6
  135.04446 21.0 21
  147.04823 7.0 7
  148.05453 9.0 9
  149.05696 21.0 21
  149.0652 12.0 12
  159.06419 5.0 5
  161.06303 15.0 15
  163.07506 15.0 15
  174.05264 10.0 10
  175.0377 8.0 8
  175.06537 8.0 8
  176.06996 30.0 30
  177.07573 9.0 9
  177.08325 5.0 5
  178.07492 5.0 5
  188.07016 309.0 309
  189.07614 115.0 115
  190.04466 21.0 21
  190.05376 15.0 15
  190.0865 1000.0 999
  191.05321 5.0 5
  191.08844 117.0 117
  192.09726 7.0 7
  195.08246 9.0 9
  203.09407 6.0 6
  204.06097 11.0 11
  205.06799 16.0 16
  206.06541 6.0 6
  207.08545 9.0 9
  217.06613 12.0 12
  219.0679 5.0 5
  225.08717 5.0 5
  233.03714 6.0 6
  233.06149 41.0 41
  234.05656 9.0 9
  235.0712 33.0 33
  235.08543 9.0 9
  236.08151 16.0 16
  237.05257 12.0 12
  247.07394 23.0 23
  247.08377 10.0 10
  250.08476 5.0 5
  251.0715 38.0 38
  261.04361 6.0 6
  261.05853 29.0 29
  261.07178 7.0 7
  262.05209 8.0 8
  262.06958 7.0 7
  263.0495 15.0 15
  263.0715 92.0 92
  264.07248 9.0 9
  264.09613 6.0 6
  265.10379 8.0 8
  267.06699 9.0 9
  268.12875 10.0 10
  268.14154 12.0 12
  269.13425 5.0 5
  275.06976 48.0 48
  276.07986 12.0 12
  276.10379 32.0 32
  277.10178 6.0 6
  278.08783 8.0 8
  278.11603 9.0 9
  279.0658 27.0 27
  281.07806 22.0 22
  281.09689 7.0 7
  289.07178 7.0 7
  291.06595 69.0 69
  292.06842 20.0 20
  293.08179 17.0 17
  293.09488 8.0 8
  294.07504 10.0 10
  294.10291 18.0 18
  294.11627 11.0 11
  295.05728 6.0 6
  295.08951 7.0 7
  303.06503 214.0 214
  304.06476 28.0 28
  304.09778 25.0 25
  305.08643 12.0 12
  305.1153 5.0 5
  306.06482 7.0 7
  306.0827 7.0 7
  306.10147 10.0 10
  306.11646 12.0 12
  307.09259 12.0 12
  308.08594 17.0 17
  308.1022 13.0 13
  309.07425 35.0 35
  309.10129 6.0 6
  317.07877 6.0 6
  319.08139 29.0 29
  320.09207 261.0 261
  321.07382 12.0 12
  321.09631 81.0 81
  322.07047 19.0 19
  322.1077 66.0 66
  323.08383 5.0 5
  323.10452 5.0 5
  323.11374 14.0 14
  324.12552 31.0 31
  325.1192 6.0 6
  332.08109 9.0 9
  333.09891 23.0 23
  334.07062 10.0 10
  334.10754 344.0 344
  335.10919 70.0 70
  335.11923 30.0 30
  336.08139 7.0 7
  336.10635 17.0 17
  336.1235 8.0 8
  337.08624 30.0 30
  337.09784 27.0 27
  337.11948 8.0 8
  338.10287 11.0 11
  351.10211 7.0 7
  352.0834 11.0 11
  352.11771 539.0 538
  353.12088 121.0 121
  354.12115 17.0 17
  380.13361 8.0 8
//
