ACCESSION: MSBNK-RIKEN-PR310993
RECORD_TITLE: Vicenin 2; LC-ESI-QTOF; MS2
DATE: 2019.03.28
AUTHORS: Tetsuya Mori, Center for Sustainable Resource Science, RIKEN
LICENSE: CC BY-NC-SA
PUBLICATION: Tsugawa H., Nakabayashi R., Mori T., Yamada Y., Takahashi M., Rai A., Sugiyama R., Yamamoto H., Nakaya T., Yamazaki M., Kooke R., Bac-Molenaar JA., Oztolan-Erol N., Keurentjes JJB., Arita M., Saito K. (2019) "A cheminformatics approach to characterize metabolomes in stable-isotope-labeled organisms" Nature Methods 16(4):295-298. [doi:10.1038/s41592-019-0358-2]
COMMENT: Annotation level-1
CH$NAME: Vicenin 2
CH$COMPOUND_CLASS: Flavone C,C-glycosides
CH$FORMULA: C27H30O15
CH$EXACT_MASS: 594.522
CH$SMILES: O=C1C=C(OC=2C1=C(O)C(=C(O)C=2C3OC(CO)C(O)C(O)C3(O))C4OC(CO)C(O)C(O)C4(O))C5=CC=C(O)C=C5
CH$IUPAC: InChI=1S/C27H30O15/c28-6-12-17(32)21(36)23(38)26(41-12)15-19(34)14-10(31)5-11(8-1-3-9(30)4-2-8)40-25(14)16(20(15)35)27-24(39)22(37)18(33)13(7-29)42-27/h1-5,12-13,17-18,21-24,26-30,32-39H,6-7H2
CH$LINK: INCHIKEY FIAAVMJLAGNUKW-UHFFFAOYSA-N
AC$INSTRUMENT: LC, Waters Acquity UPLC System; MS, Waters Xevo G2 Q-Tof
AC$INSTRUMENT_TYPE: LC-ESI-QTOF
AC$MASS_SPECTROMETRY: MS_TYPE MS2
AC$MASS_SPECTROMETRY: ION_MODE POSITIVE
AC$MASS_SPECTROMETRY: COLLISION_ENERGY 6V
AC$MASS_SPECTROMETRY: DESOLVATION_GAS_FLOW 800/h
AC$MASS_SPECTROMETRY: DESOLVATION_TEMPERATURE 450 C
AC$MASS_SPECTROMETRY: IONIZATION ESI
AC$CHROMATOGRAPHY: CAPILLARY_VOLTAGE +3.00 kV
AC$CHROMATOGRAPHY: COLUMN_NAME Acquity bridged ethyl hybrid C18 (1.7 um, 2.1 mm * 100 mm, Waters)
AC$CHROMATOGRAPHY: COLUMN_TEMPERATURE 40 C
AC$CHROMATOGRAPHY: FLOW_GRADIENT A/B = (99.5%/0.5% at 0 min, 99.5%/0.5% at 0.1 min, 20%/80% at 10 min, 0.5%/99.5% at 10.1 min, 0.5%/99.5% at 12.0 min, 99.5%/0.5% at 12.1 min, 99.5%/0.5% at 15.0 min)
AC$CHROMATOGRAPHY: FLOW_RATE 0.3 ml/min at 0 min, 0.3 ml/min at 10 min, 0.4 ml/min at 10.1 min, 0.4 ml/min at 14.4 min, 0.3 ml/min at 14.5 min
AC$CHROMATOGRAPHY: RETENTION_TIME 3.3
AC$CHROMATOGRAPHY: SOLVENT A water including 0.1% formic acid
AC$CHROMATOGRAPHY: SOLVENT B acetonitrile including 0.1% formic acid
MS$FOCUSED_ION: PRECURSOR_TYPE [M+H]+
MS$FOCUSED_ION: PRECURSOR_M/Z 595.16575
PK$SPLASH: splash10-0002-0018790000-49371997b944af3615ec
PK$NUM_PEAK: 221
PK$PEAK: m/z int. rel.int.
  121.08922 17.0 7
  203.03812 18.0 7
  241.05083 22.0 8
  269.04419 25.0 10
  294.05127 59.0 23
  294.98788 38.0 15
  295.03775 32.0 12
  295.05157 125.0 48
  295.06238 164.0 63
  296.06229 116.0 45
  296.07687 26.0 10
  297.09702 25.0 10
  307.06534 105.0 40
  308.06226 49.0 19
  308.0751 41.0 16
  309.05521 25.0 10
  309.06799 28.0 11
  313.07562 25.0 10
  314.07556 48.0 18
  317.09488 17.0 7
  319.0611 39.0 15
  321.07074 101.0 39
  321.09119 55.0 21
  321.48444 41.0 16
  322.07782 18.0 7
  325.04086 63.0 24
  325.06293 254.0 98
  325.0769 298.0 115
  326.0722 92.0 35
  328.07974 29.0 11
  328.09091 29.0 11
  333.08337 19.0 7
  335.05524 22.0 8
  335.08368 42.0 16
  335.10562 21.0 8
  337.06824 562.0 217
  337.08075 181.0 70
  339.09201 23.0 9
  347.05188 25.0 10
  347.09323 38.0 15
  347.11288 17.0 7
  348.0799 24.0 9
  348.29474 18.0 7
  348.78088 35.0 13
  349.05875 44.0 17
  349.07486 124.0 48
  350.06952 44.0 17
  350.08517 46.0 18
  350.11191 19.0 7
  351.05048 24.0 9
  351.10043 35.0 13
  352.07208 18.0 7
  352.08698 35.0 13
  355.06714 61.0 24
  355.07602 124.0 48
  356.09326 59.0 23
  361.05493 49.0 19
  361.06818 56.0 22
  361.1011 28.0 11
  361.1207 52.0 20
  361.28827 25.0 10
  361.84286 18.0 7
  363.0834 83.0 32
  364.10159 17.0 7
  364.82315 18.0 7
  365.10544 50.0 19
  365.12012 18.0 7
  371.07281 27.0 10
  373.06415 70.0 27
  373.54831 17.0 7
  375.04648 25.0 10
  375.09229 79.0 30
  376.07455 27.0 10
  376.09637 18.0 7
  377.0997 38.0 15
  377.11429 24.0 9
  379.02094 18.0 7
  379.04413 43.0 17
  379.07947 194.0 75
  379.09601 152.0 59
  379.25378 24.0 9
  380.07861 100.0 39
  380.09198 42.0 16
  381.10828 29.0 11
  382.05957 27.0 10
  382.07565 17.0 7
  384.98306 26.0 10
  385.06482 24.0 9
  387.07791 33.0 13
  388.07495 31.0 12
  391.05487 24.0 9
  391.07156 137.0 53
  391.086 152.0 59
  391.10312 24.0 9
  392.07309 54.0 21
  392.08829 18.0 7
  393.08972 21.0 8
  395.0611 24.0 9
  399.07242 18.0 7
  401.08405 20.0 8
  401.10297 20.0 8
  403.02139 17.0 7
  403.07022 225.0 87
  409.06235 22.0 8
  409.09119 211.0 81
  409.11652 85.0 33
  409.12787 29.0 11
  410.0903 74.0 29
  411.11594 30.0 12
  415.06183 20.0 8
  415.11252 18.0 7
  417.09149 41.0 16
  418.11258 23.0 9
  420.11905 31.0 12
  420.13168 21.0 8
  421.03369 17.0 7
  421.06042 35.0 13
  421.08533 174.0 67
  421.10632 41.0 16
  421.98767 17.0 7
  427.05856 49.0 19
  427.09482 62.0 24
  427.11108 60.0 23
  428.08698 58.0 22
  428.11688 30.0 12
  429.10321 29.0 11
  433.08203 34.0 13
  433.11047 27.0 10
  437.81055 18.0 7
  439.06223 20.0 8
  439.08423 51.0 20
  439.10355 183.0 71
  439.12329 41.0 16
  440.04959 17.0 7
  440.11191 20.0 8
  445.08292 33.0 13
  445.09775 26.0 10
  446.0929 37.0 14
  451.09363 36.0 14
  457.07166 36.0 14
  457.10486 340.0 131
  457.12274 420.0 162
  458.07312 38.0 15
  458.10318 132.0 51
  458.12759 107.0 41
  458.14194 32.0 12
  459.10837 30.0 12
  459.1344 42.0 16
  460.11261 20.0 8
  463.11115 44.0 17
  469.06122 26.0 10
  471.11566 22.0 8
  471.13791 25.0 10
  473.88651 31.0 12
  475.09003 27.0 10
  475.11374 140.0 54
  475.13397 180.0 69
  476.11057 45.0 17
  476.13852 46.0 18
  477.11258 17.0 7
  481.01367 28.0 11
  481.07654 73.0 28
  481.10641 223.0 86
  481.15268 17.0 7
  481.43896 18.0 7
  481.66434 21.0 8
  482.05176 21.0 8
  482.12161 39.0 15
  483.05774 17.0 7
  483.13049 32.0 12
  483.14444 30.0 12
  487.11368 73.0 28
  494.12051 21.0 8
  495.13885 18.0 7
  499.11755 65.0 25
  499.13507 38.0 15
  500.10733 36.0 14
  501.11774 30.0 12
  505.10519 64.0 25
  511.08853 20.0 8
  511.1116 20.0 8
  511.13559 114.0 44
  512.10693 21.0 8
  512.12537 17.0 7
  512.14825 23.0 9
  523.11163 61.0 24
  523.12555 239.0 92
  524.14215 30.0 12
  529.12012 92.0 35
  529.14471 32.0 12
  530.11151 50.0 19
  530.13324 27.0 10
  541.13458 95.0 37
  541.93329 25.0 10
  542.14447 55.0 21
  543.13696 54.0 21
  543.15845 30.0 12
  559.11993 45.0 17
  559.15723 169.0 65
  559.19403 27.0 10
  560.14417 73.0 28
  560.54352 17.0 7
  561.10071 39.0 15
  561.32581 20.0 8
  576.19751 19.0 7
  577.11731 73.0 28
  577.13934 314.0 121
  577.17072 327.0 126
  578.11987 38.0 15
  578.14148 20.0 8
  578.16614 46.0 18
  578.18945 38.0 15
  579.17969 103.0 40
  579.20251 20.0 8
  580.15582 37.0 14
  584.63708 17.0 7
  585.92401 17.0 7
  589.8186 17.0 7
  595.16144 2593.0 999
  595.2713 18.0 7
  595.32111 25.0 10
//
