ACCESSION: MSBNK-RIKEN-PR310516
RECORD_TITLE: Bufalin; LC-ESI-QTOF; MS2
DATE: 2019.03.28
AUTHORS: Tetsuya Mori, Center for Sustainable Resource Science, RIKEN
LICENSE: CC BY-NC-SA
PUBLICATION: Tsugawa H., Nakabayashi R., Mori T., Yamada Y., Takahashi M., Rai A., Sugiyama R., Yamamoto H., Nakaya T., Yamazaki M., Kooke R., Bac-Molenaar JA., Oztolan-Erol N., Keurentjes JJB., Arita M., Saito K. (2019) "A cheminformatics approach to characterize metabolomes in stable-isotope-labeled organisms" Nature Methods 16(4):295-298. [doi:10.1038/s41592-019-0358-2]
COMMENT: Annotation level-1
CH$NAME: Bufalin
CH$COMPOUND_CLASS: Bufanolides and derivatives
CH$FORMULA: C24H34O4
CH$EXACT_MASS: 386.532
CH$SMILES: C[C@]12CC[C@@H](C[C@H]1CC[C@@H]3[C@@H]2CC[C@]4([C@@]3(CC[C@@H]4C5=COC(=O)C=C5)O)C)O
CH$IUPAC: InChI=1S/C24H34O4/c1-22-10-7-17(25)13-16(22)4-5-20-19(22)8-11-23(2)18(9-12-24(20,23)27)15-3-6-21(26)28-14-15/h3,6,14,16-20,25,27H,4-5,7-13H2,1-2H3/t16-,17+,18-,19+,20-,22+,23-,24+/m1/s1
CH$LINK: INCHIKEY QEEBRPGZBVVINN-BMPKRDENSA-N
AC$INSTRUMENT: LC, Waters Acquity UPLC System; MS, Waters Xevo G2 Q-Tof
AC$INSTRUMENT_TYPE: LC-ESI-QTOF
AC$MASS_SPECTROMETRY: MS_TYPE MS2
AC$MASS_SPECTROMETRY: ION_MODE POSITIVE
AC$MASS_SPECTROMETRY: COLLISION_ENERGY 6V
AC$MASS_SPECTROMETRY: DESOLVATION_GAS_FLOW 800/h
AC$MASS_SPECTROMETRY: DESOLVATION_TEMPERATURE 450 C
AC$MASS_SPECTROMETRY: IONIZATION ESI
AC$CHROMATOGRAPHY: CAPILLARY_VOLTAGE +3.00 kV
AC$CHROMATOGRAPHY: COLUMN_NAME Acquity bridged ethyl hybrid C18 (1.7 um, 2.1 mm * 100 mm, Waters)
AC$CHROMATOGRAPHY: COLUMN_TEMPERATURE 40 C
AC$CHROMATOGRAPHY: FLOW_GRADIENT A/B = (99.5%/0.5% at 0 min, 99.5%/0.5% at 0.1 min, 20%/80% at 10 min, 0.5%/99.5% at 10.1 min, 0.5%/99.5% at 12.0 min, 99.5%/0.5% at 12.1 min, 99.5%/0.5% at 15.0 min)
AC$CHROMATOGRAPHY: FLOW_RATE 0.3 ml/min at 0 min, 0.3 ml/min at 10 min, 0.4 ml/min at 10.1 min, 0.4 ml/min at 14.4 min, 0.3 ml/min at 14.5 min
AC$CHROMATOGRAPHY: RETENTION_TIME 6.99
AC$CHROMATOGRAPHY: SOLVENT A water including 0.1% formic acid
AC$CHROMATOGRAPHY: SOLVENT B acetonitrile including 0.1% formic acid
MS$FOCUSED_ION: PRECURSOR_TYPE [M+H]+
MS$FOCUSED_ION: PRECURSOR_M/Z 387.25299
PK$SPLASH: splash10-000i-0329000000-163981835518e09eb78f
PK$NUM_PEAK: 559
PK$PEAK: m/z int. rel.int.
  58.00595 18.0 1
  67.05132 48.0 2
  67.05604 30.0 1
  67.60568 21.0 1
  68.06358 22.0 1
  69.03117 22.0 1
  71.03614 30.0 1
  71.05771 40.0 1
  77.0384 18.0 1
  79.05447 110.0 4
  79.05963 22.0 1
  81.0649 56.0 2
  81.07219 63.0 2
  83.08622 52.0 2
  91.04954 33.0 1
  91.05613 66.0 2
  92.05908 23.0 1
  93.06827 178.0 6
  94.0672 19.0 1
  94.07518 73.0 2
  95.08013 71.0 2
  95.08694 196.0 6
  96.08643 20.0 1
  97.06279 99.0 3
  98.03377 19.0 1
  101.71467 20.0 1
  105.03195 34.0 1
  105.05917 36.0 1
  105.07038 382.0 13
  106.0703 61.0 2
  107.03979 20.0 1
  107.04945 22.0 1
  107.08562 605.0 20
  108.09041 108.0 4
  109.10201 269.0 9
  110.10329 36.0 1
  111.04563 18.0 1
  111.06991 24.0 1
  111.08395 19.0 1
  111.11629 27.0 1
  113.02528 18.0 1
  113.58698 33.0 1
  114.27686 38.0 1
  115.03598 25.0 1
  115.53654 18.0 1
  117.06622 36.0 1
  117.0706 99.0 3
  117.07848 25.0 1
  117.68439 24.0 1
  118.70702 20.0 1
  119.08259 160.0 5
  119.08926 103.0 3
  120.04862 17.0 1
  120.09135 17.0 1
  121.0635 34.0 1
  121.07042 70.0 2
  121.10092 384.0 13
  122.10144 18.0 1
  122.10717 18.0 1
  122.99845 18.0 1
  123.03964 84.0 3
  123.08607 18.0 1
  123.11739 28.0 1
  124.03848 17.0 1
  127.04936 26.0 1
  127.08324 35.0 1
  129.06949 105.0 3
  129.0775 23.0 1
  130.07204 21.0 1
  130.07899 24.0 1
  131.08727 301.0 10
  132.09149 40.0 1
  133.06471 17.0 1
  133.09454 153.0 5
  133.10492 390.0 13
  134.10339 63.0 2
  135.03264 27.0 1
  135.04053 22.0 1
  135.05116 20.0 1
  135.08334 17.0 1
  135.1158 360.0 12
  136.08401 19.0 1
  136.11435 57.0 2
  136.12221 165.0 5
  137.04121 18.0 1
  137.05022 21.0 1
  137.06366 67.0 2
  138.14485 17.0 1
  141.13832 23.0 1
  143.06161 20.0 1
  143.07016 19.0 1
  143.08403 238.0 8
  143.09355 81.0 3
  143.20735 17.0 1
  144.08635 47.0 2
  145.06345 113.0 4
  145.07169 20.0 1
  145.09811 235.0 8
  145.10406 325.0 11
  145.11641 20.0 1
  146.07678 19.0 1
  146.10274 20.0 1
  147.04843 29.0 1
  147.07074 63.0 2
  147.08527 95.0 3
  147.10301 36.0 1
  147.11685 638.0 21
  147.61426 22.0 1
  148.11687 21.0 1
  148.12517 41.0 1
  148.13243 24.0 1
  149.09404 52.0 2
  149.09982 39.0 1
  149.12479 63.0 2
  149.13435 298.0 10
  150.13368 48.0 2
  151.06944 18.0 1
  151.08167 34.0 1
  152.11838 21.0 1
  154.0829 19.0 1
  155.08276 163.0 5
  155.09116 34.0 1
  156.08098 17.0 1
  156.09804 64.0 2
  157.01959 30.0 1
  157.05487 22.0 1
  157.06923 34.0 1
  157.09995 171.0 6
  157.10994 21.0 1
  158.10153 23.0 1
  158.10898 47.0 2
  159.04939 18.0 1
  159.0847 39.0 1
  159.10188 38.0 1
  159.11746 747.0 24
  160.12106 130.0 4
  161.04857 20.0 1
  161.06586 41.0 1
  161.09596 249.0 8
  161.11122 21.0 1
  161.13135 609.0 20
  162.0965 112.0 4
  162.1366 118.0 4
  163.05733 34.0 1
  163.07468 44.0 1
  163.12233 17.0 1
  163.13997 54.0 2
  163.14679 35.0 1
  165.0621 55.0 2
  165.0965 17.0 1
  166.04938 26.0 1
  166.09329 49.0 2
  166.13057 18.0 1
  167.06593 72.0 2
  167.07402 43.0 1
  167.10974 61.0 2
  168.09245 46.0 2
  169.01067 29.0 1
  169.05598 17.0 1
  169.09915 115.0 4
  169.11435 22.0 1
  169.72841 24.0 1
  170.05312 21.0 1
  170.1003 17.0 1
  171.07774 25.0 1
  171.11604 92.0 3
  171.12366 89.0 3
  172.12552 64.0 2
  173.09346 47.0 2
  173.11618 31.0 1
  173.13103 355.0 12
  173.14311 68.0 2
  173.21304 20.0 1
  174.12192 22.0 1
  174.1339 92.0 3
  175.07297 45.0 1
  175.07944 90.0 3
  175.10612 64.0 2
  175.1143 27.0 1
  175.12547 33.0 1
  175.14464 236.0 8
  175.15208 77.0 3
  175.65289 18.0 1
  177.09009 57.0 2
  177.09854 24.0 1
  178.07918 20.0 1
  178.09207 20.0 1
  179.06006 17.0 1
  179.06902 32.0 1
  179.10133 85.0 3
  180.07007 47.0 2
  180.11861 17.0 1
  181.09554 38.0 1
  181.10851 35.0 1
  182.96455 18.0 1
  183.08316 58.0 2
  183.11597 214.0 7
  184.1219 18.0 1
  185.10805 48.0 2
  185.13049 209.0 7
  185.13985 100.0 3
  185.31438 20.0 1
  186.10493 19.0 1
  186.13145 42.0 1
  186.14009 40.0 1
  187.065 37.0 1
  187.08044 43.0 1
  187.08879 18.0 1
  187.11505 38.0 1
  187.12833 19.0 1
  187.1369 45.0 1
  187.14977 223.0 7
  188.11542 18.0 1
  188.15173 79.0 3
  189.00117 24.0 1
  189.06937 36.0 1
  189.08147 21.0 1
  189.08971 34.0 1
  189.13214 20.0 1
  189.14619 20.0 1
  189.17125 20.0 1
  190.10155 28.0 1
  192.1106 18.0 1
  193.07765 23.0 1
  193.12387 17.0 1
  195.07861 33.0 1
  195.1125 177.0 6
  195.12816 17.0 1
  196.08882 24.0 1
  196.11838 19.0 1
  197.13092 263.0 9
  197.14449 56.0 2
  198.12865 18.0 1
  198.14743 18.0 1
  199.08609 42.0 1
  199.10138 17.0 1
  199.10741 44.0 1
  199.11841 40.0 1
  199.13516 56.0 2
  199.15207 180.0 6
  199.16367 50.0 2
  200.13248 45.0 1
  200.15572 47.0 2
  201.08687 24.0 1
  201.09407 38.0 1
  201.10739 19.0 1
  201.12657 33.0 1
  201.14131 18.0 1
  201.15308 50.0 2
  201.1693 25.0 1
  201.18404 39.0 1
  202.08908 21.0 1
  202.1405 54.0 2
  202.15308 20.0 1
  203.08975 20.0 1
  203.10236 47.0 2
  203.11501 23.0 1
  203.13857 16.0 1
  203.1465 17.0 1
  203.16994 17.0 1
  203.18475 71.0 2
  204.10965 41.0 1
  204.17851 25.0 1
  205.10826 23.0 1
  205.12578 24.0 1
  207.11157 20.0 1
  207.12352 20.0 1
  208.13493 17.0 1
  209.09326 41.0 1
  209.10435 17.0 1
  209.12364 37.0 1
  209.13193 61.0 2
  209.14236 77.0 3
  209.32639 27.0 1
  210.10268 19.0 1
  210.13248 17.0 1
  210.14371 29.0 1
  211.10971 57.0 2
  211.15114 134.0 4
  212.14177 27.0 1
  213.09419 30.0 1
  213.12112 20.0 1
  213.13048 139.0 5
  213.15887 105.0 3
  213.1709 104.0 3
  213.26781 17.0 1
  214.13737 18.0 1
  214.16776 57.0 2
  214.17859 24.0 1
  214.28181 17.0 1
  215.0674 17.0 1
  215.10042 17.0 1
  215.10811 66.0 2
  215.1394 53.0 2
  215.17096 117.0 4
  215.18271 48.0 2
  215.19455 62.0 2
  216.15511 22.0 1
  217.11708 40.0 1
  217.12669 78.0 3
  217.20381 38.0 1
  217.21016 18.0 1
  218.12035 18.0 1
  218.17853 21.0 1
  218.9653 35.0 1
  219.13287 25.0 1
  219.14847 38.0 1
  220.14497 20.0 1
  221.12474 45.0 1
  222.15202 44.0 1
  222.25652 25.0 1
  223.10184 37.0 1
  223.1162 68.0 2
  223.15521 151.0 5
  224.13081 28.0 1
  224.83348 38.0 1
  225.08923 30.0 1
  225.11502 17.0 1
  225.13057 41.0 1
  225.16124 17.0 1
  226.11751 28.0 1
  227.14528 18.0 1
  227.16507 53.0 2
  227.17607 18.0 1
  229.09909 20.0 1
  229.12547 44.0 1
  229.15585 41.0 1
  229.19757 93.0 3
  230.12279 21.0 1
  230.19368 60.0 2
  231.12805 56.0 2
  231.13887 120.0 4
  231.15131 70.0 2
  231.16884 20.0 1
  231.3642 25.0 1
  232.14607 32.0 1
  232.16196 20.0 1
  233.09682 17.0 1
  233.13388 43.0 1
  233.15195 81.0 3
  233.19025 38.0 1
  234.13211 22.0 1
  235.04399 17.0 1
  235.12849 20.0 1
  235.14975 63.0 2
  235.16762 25.0 1
  236.16452 18.0 1
  236.68681 18.0 1
  237.11598 17.0 1
  237.12541 56.0 2
  237.14616 44.0 1
  237.15669 31.0 1
  237.17101 48.0 2
  239.09407 32.0 1
  239.16881 20.0 1
  240.18681 25.0 1
  241.10461 114.0 4
  241.12163 79.0 3
  241.14903 20.0 1
  242.11517 18.0 1
  242.19302 33.0 1
  243.1279 45.0 1
  243.13878 209.0 7
  243.17189 29.0 1
  244.14212 90.0 3
  245.13318 23.0 1
  245.14964 50.0 2
  245.16063 43.0 1
  245.40489 22.0 1
  245.61006 21.0 1
  247.13293 20.0 1
  247.16245 21.0 1
  249.16141 100.0 3
  249.81956 17.0 1
  251.13033 18.0 1
  251.13982 55.0 2
  251.1573 21.0 1
  251.77684 33.0 1
  252.11824 20.0 1
  252.16989 17.0 1
  252.18323 23.0 1
  252.19269 46.0 2
  252.67067 19.0 1
  253.01242 23.0 1
  253.12944 17.0 1
  253.15308 42.0 1
  253.19147 152.0 5
  254.186 23.0 1
  254.19872 24.0 1
  254.25079 20.0 1
  255.13359 55.0 2
  255.14836 38.0 1
  255.17395 18.0 1
  255.18643 38.0 1
  255.20302 505.0 17
  255.21497 757.0 25
  256.13184 24.0 1
  256.15985 27.0 1
  256.21619 369.0 12
  257.12695 17.0 1
  257.14679 20.0 1
  257.15652 25.0 1
  257.1944 37.0 1
  257.2269 174.0 6
  257.38187 18.0 1
  257.64868 30.0 1
  258.13266 21.0 1
  258.20508 18.0 1
  258.23676 20.0 1
  258.66849 22.0 1
  259.13907 17.0 1
  259.1535 41.0 1
  259.17932 21.0 1
  260.75546 22.0 1
  261.17282 18.0 1
  262.16766 38.0 1
  262.3494 25.0 1
  263.14673 22.0 1
  263.17996 25.0 1
  263.19312 24.0 1
  264.27957 21.0 1
  265.17191 17.0 1
  265.18845 38.0 1
  267.18695 56.0 2
  267.20627 106.0 3
  268.1727 17.0 1
  268.21735 18.0 1
  268.82639 51.0 2
  269.14828 219.0 7
  269.16672 98.0 3
  269.19608 22.0 1
  270.19809 82.0 3
  270.57077 30.0 1
  271.20712 19.0 1
  271.22754 22.0 1
  273.1189 18.0 1
  273.14847 28.0 1
  273.16898 17.0 1
  273.21295 49.0 2
  273.22885 86.0 3
  273.23672 25.0 1
  274.17419 17.0 1
  274.22476 34.0 1
  276.19208 30.0 1
  277.16074 17.0 1
  277.17166 18.0 1
  277.19461 46.0 2
  278.19751 25.0 1
  279.17096 42.0 1
  279.20923 35.0 1
  281.13693 20.0 1
  281.15735 23.0 1
  281.1781 22.0 1
  281.18958 42.0 1
  281.20251 28.0 1
  281.21527 24.0 1
  283.14398 19.0 1
  283.16846 69.0 2
  283.18127 30.0 1
  284.22314 25.0 1
  285.17932 19.0 1
  285.21375 19.0 1
  285.22336 23.0 1
  287.17661 39.0 1
  289.2009 27.0 1
  289.21298 22.0 1
  290.18295 21.0 1
  290.20496 25.0 1
  291.16248 64.0 2
  291.18335 45.0 1
  291.20157 49.0 2
  291.22281 62.0 2
  292.20691 37.0 1
  292.21658 34.0 1
  294.62613 20.0 1
  295.1409 19.0 1
  295.16064 25.0 1
  295.16989 18.0 1
  295.1893 51.0 2
  295.24301 17.0 1
  295.34525 20.0 1
  296.24921 35.0 1
  297.18362 23.0 1
  297.20367 18.0 1
  297.26779 20.0 1
  300.18768 24.0 1
  303.20236 18.0 1
  305.18735 68.0 2
  305.22488 343.0 11
  306.21689 57.0 2
  306.23932 37.0 1
  307.65616 25.0 1
  309.17477 21.0 1
  309.20389 23.0 1
  309.22641 40.0 1
  309.23706 28.0 1
  310.19504 34.0 1
  310.20502 22.0 1
  310.22159 22.0 1
  311.19794 19.0 1
  314.2554 24.0 1
  315.20987 164.0 5
  316.20996 24.0 1
  319.04736 17.0 1
  321.01703 21.0 1
  323.18353 19.0 1
  323.22607 26.0 1
  323.24396 107.0 4
  323.26459 17.0 1
  324.23779 45.0 1
  329.56119 28.0 1
  331.20923 18.0 1
  333.18634 25.0 1
  333.20743 17.0 1
  333.23019 205.0 7
  333.65942 24.0 1
  334.21283 17.0 1
  334.2327 18.0 1
  337.2084 23.0 1
  339.2446 42.0 1
  339.69336 17.0 1
  341.20242 18.0 1
  341.24658 88.0 3
  342.2471 51.0 2
  342.2598 67.0 2
  344.8721 19.0 1
  346.55386 22.0 1
  348.7074 20.0 1
  350.25983 18.0 1
  351.1683 47.0 2
  351.2338 1473.0 48
  351.30154 20.0 1
  352.23193 342.0 11
  352.24741 163.0 5
  352.76859 18.0 1
  352.83606 18.0 1
  353.06668 18.0 1
  353.23672 20.0 1
  353.76797 17.0 1
  366.20273 46.0 2
  368.74094 17.0 1
  368.77487 21.0 1
  369.24197 1015.0 33
  369.91281 23.0 1
  370.21945 19.0 1
  370.24414 108.0 4
  370.26031 77.0 3
  371.25995 19.0 1
  371.69342 20.0 1
  379.83218 18.0 1
  381.10077 33.0 1
  386.93774 21.0 1
  387.14612 20.0 1
  387.17941 30.0 1
  387.19302 115.0 4
  387.21237 50.0 2
  387.25409 30500.0 999
  387.31137 576.0 19
  387.44125 18.0 1
//
