ACCESSION: MSBNK-RIKEN-PR306716
RECORD_TITLE: Quercetin-3-O-glucuronide; LC-ESI-QTOF; MS2
DATE: 2019.03.28
AUTHORS: Tetsuya Mori, Center for Sustainable Resource Science, RIKEN
LICENSE: CC BY-NC-SA
PUBLICATION: Tsugawa H., Nakabayashi R., Mori T., Yamada Y., Takahashi M., Rai A., Sugiyama R., Yamamoto H., Nakaya T., Yamazaki M., Kooke R., Bac-Molenaar JA., Oztolan-Erol N., Keurentjes JJB., Arita M., Saito K. (2019) "A cheminformatics approach to characterize metabolomes in stable-isotope-labeled organisms" Nature Methods 16(4):295-298. [doi:10.1038/s41592-019-0358-2]
COMMENT: registered in RIKEN PlaSMA
CH$NAME: Quercetin-3-O-glucuronide
CH$COMPOUND_CLASS: Flavonoid-3-O-glucuronides
CH$FORMULA: C21H18O13
CH$EXACT_MASS: 478.362
CH$SMILES: OC1C(O)C(OC2=C(OC3=CC(O)=CC(O)=C3C2=O)C2=CC(O)=C(O)C=C2)OC(C1O)C(O)=O
CH$IUPAC: InChI=1S/C21H18O13/c22-7-4-10(25)12-11(5-7)32-17(6-1-2-8(23)9(24)3-6)18(13(12)26)33-21-16(29)14(27)15(28)19(34-21)20(30)31/h1-5,14-16,19,21-25,27-29H,(H,30,31)
CH$LINK: INCHIKEY DUBCCGAQYVUYEU-UHFFFAOYSA-N
AC$INSTRUMENT: LC, Waters Acquity UPLC System; MS, Waters Xevo G2 Q-Tof
AC$INSTRUMENT_TYPE: LC-ESI-QTOF
AC$MASS_SPECTROMETRY: MS_TYPE MS2
AC$MASS_SPECTROMETRY: ION_MODE NEGATIVE
AC$MASS_SPECTROMETRY: COLLISION_ENERGY 6V
AC$MASS_SPECTROMETRY: DESOLVATION_GAS_FLOW 800/h
AC$MASS_SPECTROMETRY: DESOLVATION_TEMPERATURE 450 C
AC$MASS_SPECTROMETRY: IONIZATION ESI
AC$CHROMATOGRAPHY: CAPILLARY_VOLTAGE -2.75 kV
AC$CHROMATOGRAPHY: COLUMN_NAME Acquity bridged ethyl hybrid C18 (1.7 um, 2.1 mm * 100 mm, Waters)
AC$CHROMATOGRAPHY: COLUMN_TEMPERATURE 40 C
AC$CHROMATOGRAPHY: FLOW_GRADIENT A/B = (99.5%/0.5% at 0 min, 99.5%/0.5% at 0.1 min, 20%/80% at 10 min, 0.5%/99.5% at 10.1 min, 0.5%/99.5% at 12.0 min, 99.5%/0.5% at 12.1 min, 99.5%/0.5% at 15.0 min)
AC$CHROMATOGRAPHY: FLOW_RATE 0.3 ml/min at 0 min, 0.3 ml/min at 10 min, 0.4 ml/min at 10.1 min, 0.4 ml/min at 14.4 min, 0.3 ml/min at 14.5 min
AC$CHROMATOGRAPHY: RETENTION_TIME 4.013533
AC$CHROMATOGRAPHY: SOLVENT A water including 0.1% formic acid
AC$CHROMATOGRAPHY: SOLVENT B acetonitrile including 0.1% formic acid
MS$FOCUSED_ION: PRECURSOR_TYPE [M-H]-
MS$FOCUSED_ION: PRECURSOR_M/Z 477.06746414783
PK$SPLASH: splash10-0udi-0945000000-644054cc592d944a98b9
PK$NUM_PEAK: 70
PK$PEAK: m/z int. rel.int.
  65.00211 25.0 25
  72.01436 17.0 17
  85.02962 25.0 25
  107.01256 97.0 97
  117.03003 23.0 23
  121.03062 15.0 15
  123.04002 17.0 17
  125.01802 20.0 20
  133.03453 23.0 23
  141.06689 17.0 17
  149.01932 29.0 29
  151.00177 738.0 737
  151.01331 51.0 51
  151.9994 23.0 23
  152.00859 15.0 15
  152.99786 17.0 17
  153.00478 14.0 14
  154.03816 21.0 21
  162.99922 149.0 149
  163.01088 17.0 17
  175.03796 15.0 15
  175.04851 15.0 15
  175.7478 14.0 14
  177.05835 24.0 24
  178.99751 581.0 580
  179.99451 16.0 16
  181.00516 15.0 15
  185.02507 14.0 14
  186.0645 17.0 17
  189.04895 29.0 29
  192.00131 15.0 15
  193.01949 21.0 21
  194.01389 20.0 20
  197.00601 19.0 19
  198.03517 34.0 34
  199.02702 15.0 15
  201.05214 35.0 35
  211.04187 23.0 23
  212.02838 15.0 15
  212.04881 20.0 20
  213.01805 15.0 15
  217.04886 18.0 18
  227.03802 37.0 37
  228.02678 14.0 14
  228.03648 32.0 32
  229.05792 28.0 28
  233.03862 17.0 17
  240.04324 15.0 15
  243.01942 52.0 52
  243.03098 25.0 25
  245.03413 57.0 57
  245.04675 86.0 86
  246.05447 17.0 17
  255.02544 135.0 135
  256.02887 44.0 44
  257.0607 23.0 23
  266.03088 15.0 15
  271.01971 116.0 116
  272.02899 126.0 126
  273.03607 96.0 96
  274.03156 17.0 17
  283.02597 27.0 27
  299.00531 14.0 14
  299.02225 63.0 63
  300.01337 51.0 51
  300.0293 46.0 46
  301.03397 1000.0 999
  301.0546 29.0 29
  302.03387 164.0 164
  302.05527 78.0 78
//
