ACCESSION: MSBNK-RIKEN-PR306869
RECORD_TITLE: Cyanidin-3-O-sophoroside; LC-ESI-QTOF; MS2
DATE: 2019.03.28
AUTHORS: Tetsuya Mori, Center for Sustainable Resource Science, RIKEN
LICENSE: CC BY-NC-SA
PUBLICATION: Tsugawa H., Nakabayashi R., Mori T., Yamada Y., Takahashi M., Rai A., Sugiyama R., Yamamoto H., Nakaya T., Yamazaki M., Kooke R., Bac-Molenaar JA., Oztolan-Erol N., Keurentjes JJB., Arita M., Saito K. (2019) "A cheminformatics approach to characterize metabolomes in stable-isotope-labeled organisms" Nature Methods 16(4):295-298. [doi:10.1038/s41592-019-0358-2]
COMMENT: registered in RIKEN PlaSMA
CH$NAME: Cyanidin-3-O-sophoroside
CH$COMPOUND_CLASS: Anthocyanidin-3-O-glycosides
CH$FORMULA: [C27H31O16]+
CH$EXACT_MASS: 611.529
CH$SMILES: OCC1OC(OC2C(OC3=C([O+]=C4C=C(O)C=C(O)C4=C3)C3=CC(O)=C(O)C=C3)OC(CO)C(O)C2O)C(O)C(O)C1O
CH$IUPAC: InChI=1S/C27H30O16/c28-7-17-19(34)21(36)23(38)26(41-17)43-25-22(37)20(35)18(8-29)42-27(25)40-16-6-11-13(32)4-10(30)5-15(11)39-24(16)9-1-2-12(31)14(33)3-9/h1-6,17-23,25-29,34-38H,7-8H2,(H3-,30,31,32,33)/p+1
CH$LINK: INCHIKEY SXYMMDGPXYVCER-UHFFFAOYSA-O
AC$INSTRUMENT: LC, Waters Acquity UPLC System; MS, Waters Xevo G2 Q-Tof
AC$INSTRUMENT_TYPE: LC-ESI-QTOF
AC$MASS_SPECTROMETRY: MS_TYPE MS2
AC$MASS_SPECTROMETRY: ION_MODE NEGATIVE
AC$MASS_SPECTROMETRY: COLLISION_ENERGY 6V
AC$MASS_SPECTROMETRY: DESOLVATION_GAS_FLOW 800/h
AC$MASS_SPECTROMETRY: DESOLVATION_TEMPERATURE 450 C
AC$MASS_SPECTROMETRY: IONIZATION ESI
AC$CHROMATOGRAPHY: CAPILLARY_VOLTAGE -2.75 kV
AC$CHROMATOGRAPHY: COLUMN_NAME Acquity bridged ethyl hybrid C18 (1.7 um, 2.1 mm * 100 mm, Waters)
AC$CHROMATOGRAPHY: COLUMN_TEMPERATURE 40 C
AC$CHROMATOGRAPHY: FLOW_GRADIENT A/B = (99.5%/0.5% at 0 min, 99.5%/0.5% at 0.1 min, 20%/80% at 10 min, 0.5%/99.5% at 10.1 min, 0.5%/99.5% at 12.0 min, 99.5%/0.5% at 12.1 min, 99.5%/0.5% at 15.0 min)
AC$CHROMATOGRAPHY: FLOW_RATE 0.3 ml/min at 0 min, 0.3 ml/min at 10 min, 0.4 ml/min at 10.1 min, 0.4 ml/min at 14.4 min, 0.3 ml/min at 14.5 min
AC$CHROMATOGRAPHY: RETENTION_TIME 2.786217
AC$CHROMATOGRAPHY: SOLVENT A water including 0.1% formic acid
AC$CHROMATOGRAPHY: SOLVENT B acetonitrile including 0.1% formic acid
MS$FOCUSED_ION: PRECURSOR_TYPE [M-2H]-
MS$FOCUSED_ION: PRECURSOR_M/Z 609.14555981576
PK$SPLASH: splash10-053r-0091005000-ac68b080c6762457d3ed
PK$NUM_PEAK: 44
PK$PEAK: m/z int. rel.int.
  89.02305 10.0 10
  125.02036 14.0 14
  137.02248 10.0 10
  147.00635 10.0 10
  174.99261 9.0 9
  177.007 10.0 10
  183.0489 8.0 8
  197.05614 13.0 13
  202.02423 9.0 9
  204.03441 11.0 11
  211.03696 24.0 24
  212.03729 17.0 17
  227.0307 13.0 13
  240.04271 13.0 13
  255.02808 33.0 33
  257.03955 22.0 22
  268.02969 9.0 9
  283.02173 30.0 30
  283.03207 14.0 14
  283.17999 8.0 8
  284.03027 1000.0 999
  284.05811 8.0 8
  285.02945 104.0 104
  285.04172 159.0 159
  286.05969 13.0 13
  295.04993 10.0 10
  295.06433 9.0 9
  300.04916 14.0 14
  309.04312 19.0 19
  310.03333 9.0 9
  310.04816 12.0 12
  333.03577 8.0 8
  339.04797 72.0 72
  339.05981 90.0 90
  340.05728 10.0 10
  341.05777 11.0 11
  351.04681 22.0 22
  352.0397 17.0 17
  364.90717 13.0 13
  381.06403 8.0 8
  385.09048 9.0 9
  387.05493 12.0 12
  442.41055 11.0 11
  609.14667 900.0 899
//
