ACCESSION: MSBNK-RIKEN-PR310589
RECORD_TITLE: Catharanthine; LC-ESI-QTOF; MS2
DATE: 2019.03.28
AUTHORS: Tetsuya Mori, Center for Sustainable Resource Science, RIKEN
LICENSE: CC BY-NC-SA
PUBLICATION: Tsugawa H., Nakabayashi R., Mori T., Yamada Y., Takahashi M., Rai A., Sugiyama R., Yamamoto H., Nakaya T., Yamazaki M., Kooke R., Bac-Molenaar JA., Oztolan-Erol N., Keurentjes JJB., Arita M., Saito K. (2019) "A cheminformatics approach to characterize metabolomes in stable-isotope-labeled organisms" Nature Methods 16(4):295-298. [doi:10.1038/s41592-019-0358-2]
COMMENT: Annotation level-1
CH$NAME: Catharanthine
CH$COMPOUND_CLASS: Alkaloids
CH$FORMULA: C21H24N2O2
CH$EXACT_MASS: 336.435
CH$SMILES: CCC1=CC2CN3CCC4=C(NC5=C4C=CC=C5)C(C2)(C13)C(=O)OC
CH$IUPAC: InChI=1S/C21H24N2O2/c1-3-14-10-13-11-21(20(24)25-2)18-16(8-9-23(12-13)19(14)21)15-6-4-5-7-17(15)22-18/h4-7,10,13,19,22H,3,8-9,11-12H2,1-2H3
CH$LINK: INCHIKEY CMKFQVZJOWHHDV-UHFFFAOYSA-N
AC$INSTRUMENT: LC, Waters Acquity UPLC System; MS, Waters Xevo G2 Q-Tof
AC$INSTRUMENT_TYPE: LC-ESI-QTOF
AC$MASS_SPECTROMETRY: MS_TYPE MS2
AC$MASS_SPECTROMETRY: ION_MODE POSITIVE
AC$MASS_SPECTROMETRY: COLLISION_ENERGY 6V
AC$MASS_SPECTROMETRY: DESOLVATION_GAS_FLOW 800/h
AC$MASS_SPECTROMETRY: DESOLVATION_TEMPERATURE 450 C
AC$MASS_SPECTROMETRY: IONIZATION ESI
AC$CHROMATOGRAPHY: CAPILLARY_VOLTAGE +3.00 kV
AC$CHROMATOGRAPHY: COLUMN_NAME Acquity bridged ethyl hybrid C18 (1.7 um, 2.1 mm * 100 mm, Waters)
AC$CHROMATOGRAPHY: COLUMN_TEMPERATURE 40 C
AC$CHROMATOGRAPHY: FLOW_GRADIENT A/B = (99.5%/0.5% at 0 min, 99.5%/0.5% at 0.1 min, 20%/80% at 10 min, 0.5%/99.5% at 10.1 min, 0.5%/99.5% at 12.0 min, 99.5%/0.5% at 12.1 min, 99.5%/0.5% at 15.0 min)
AC$CHROMATOGRAPHY: FLOW_RATE 0.3 ml/min at 0 min, 0.3 ml/min at 10 min, 0.4 ml/min at 10.1 min, 0.4 ml/min at 14.4 min, 0.3 ml/min at 14.5 min
AC$CHROMATOGRAPHY: RETENTION_TIME 5.04
AC$CHROMATOGRAPHY: SOLVENT A water including 0.1% formic acid
AC$CHROMATOGRAPHY: SOLVENT B acetonitrile including 0.1% formic acid
MS$FOCUSED_ION: PRECURSOR_TYPE [M+H]+
MS$FOCUSED_ION: PRECURSOR_M/Z 337.19105
PK$SPLASH: splash10-000f-0906000000-cb293a4f7b3257cba6f2
PK$NUM_PEAK: 198
PK$PEAK: m/z int. rel.int.
  59.00498 17.0 1
  59.01392 92.0 5
  59.01886 41.0 2
  77.03976 70.0 4
  79.05661 19.0 1
  90.17036 24.0 1
  91.05189 70.0 4
  91.05663 66.0 4
  92.06187 23.0 1
  93.04673 35.0 2
  93.06397 330.0 18
  93.07084 1537.0 84
  94.07353 185.0 10
  95.80909 18.0 1
  100.46643 24.0 1
  105.07062 77.0 4
  107.08707 22.0 1
  109.5076 23.0 1
  110.09864 25.0 1
  110.14278 35.0 2
  117.05516 40.0 2
  117.07021 152.0 8
  119.09006 17.0 1
  125.03951 23.0 1
  125.91013 49.0 3
  127.06007 43.0 2
  128.04362 25.0 1
  129.06934 27.0 1
  129.07626 68.0 4
  130.06746 26.0 1
  131.08241 49.0 3
  133.0657 532.0 29
  134.06122 23.0 1
  134.06723 52.0 3
  135.10281 21.0 1
  137.06256 18.0 1
  139.19807 18.0 1
  141.35483 18.0 1
  142.06874 51.0 3
  143.04893 17.0 1
  143.07219 208.0 11
  143.53877 20.0 1
  143.94359 17.0 1
  143.98586 26.0 1
  144.01912 18.0 1
  144.04686 134.0 7
  144.06364 73.0 4
  144.08127 18253.0 999
  144.11395 137.0 7
  144.14201 27.0 1
  144.44243 19.0 1
  144.83569 18.0 1
  144.84613 17.0 1
  144.98912 20.0 1
  145.04852 26.0 1
  145.06491 29.0 2
  145.08427 2284.0 125
  145.12634 18.0 1
  146.05035 19.0 1
  146.07504 17.0 1
  146.08849 194.0 11
  147.79413 17.0 1
  153.06416 27.0 1
  154.06261 35.0 2
  155.06439 20.0 1
  156.03796 22.0 1
  156.08119 36.0 2
  156.09435 20.0 1
  165.07036 19.0 1
  165.09084 1717.0 94
  165.11226 17.0 1
  165.22279 19.0 1
  166.08029 30.0 2
  166.0878 67.0 4
  166.09497 159.0 9
  167.07988 20.0 1
  167.1088 28.0 2
  168.07056 20.0 1
  168.08214 77.0 4
  168.09258 97.0 5
  169.07735 38.0 2
  169.77251 17.0 1
  170.09392 28.0 2
  170.11029 20.0 1
  171.09207 20.0 1
  171.09897 36.0 2
  171.75137 20.0 1
  172.59651 44.0 2
  173.10616 2342.0 128
  174.08604 18.0 1
  174.11128 281.0 15
  174.12445 23.0 1
  175.10892 17.0 1
  179.08679 23.0 1
  180.08118 40.0 2
  181.08467 39.0 2
  182.05473 18.0 1
  190.16312 23.0 1
  191.07109 26.0 1
  194.09555 22.0 1
  195.06035 20.0 1
  196.0688 26.0 1
  196.07756 20.0 1
  197.08151 25.0 1
  198.10269 22.0 1
  200.15527 31.0 2
  201.30595 18.0 1
  204.07695 25.0 1
  204.0833 79.0 4
  204.53102 26.0 1
  205.07336 25.0 1
  205.08955 59.0 3
  206.09775 38.0 2
  206.12415 24.0 1
  207.06967 28.0 2
  208.07977 47.0 3
  208.11046 17.0 1
  208.42027 26.0 1
  209.07933 23.0 1
  214.0898 75.0 4
  216.10913 20.0 1
  217.09648 19.0 1
  218.08827 42.0 2
  218.09938 98.0 5
  218.11078 29.0 2
  219.09457 62.0 3
  219.10365 23.0 1
  219.12134 44.0 2
  220.10953 75.0 4
  221.11269 63.0 3
  228.0938 66.0 4
  228.11 18.0 1
  229.11214 25.0 1
  233.08957 18.0 1
  233.11449 118.0 6
  234.08168 20.0 1
  234.09418 24.0 1
  234.11769 24.0 1
  234.12814 25.0 1
  234.13879 18.0 1
  235.13034 101.0 6
  243.11545 18.0 1
  244.10327 23.0 1
  246.09309 39.0 2
  247.10437 25.0 1
  248.11269 17.0 1
  248.12537 45.0 2
  248.13675 134.0 7
  248.15294 20.0 1
  248.67366 60.0 3
  249.11761 24.0 1
  249.15063 18.0 1
  249.16139 25.0 1
  250.15123 28.0 2
  251.84845 28.0 2
  254.11212 21.0 1
  258.12097 36.0 2
  258.13724 25.0 1
  259.12665 17.0 1
  260.11517 20.0 1
  261.10974 20.0 1
  261.11981 19.0 1
  263.16373 25.0 1
  263.20798 24.0 1
  272.1134 20.0 1
  276.14151 34.0 2
  277.14734 30.0 2
  277.16443 34.0 2
  278.12903 18.0 1
  280.12314 18.0 1
  296.56458 24.0 1
  299.19333 25.0 1
  303.67441 18.0 1
  305.15091 26.0 1
  305.17288 32.0 2
  305.18726 38.0 2
  308.16 56.0 3
  308.17752 36.0 2
  309.16422 37.0 2
  310.17297 20.0 1
  335.16617 21.0 1
  336.16693 63.0 3
  336.18439 81.0 4
  336.19534 28.0 2
  336.67004 17.0 1
  336.82394 24.0 1
  336.86121 20.0 1
  337.04642 21.0 1
  337.0968 26.0 1
  337.13199 19.0 1
  337.15094 28.0 2
  337.18634 10600.0 580
  337.20023 7599.0 416
  337.23828 281.0 15
  337.25403 118.0 6
  337.2796 35.0 2
  337.29752 19.0 1
  337.3511 18.0 1
//
