ACCESSION: MSBNK-RIKEN-PR301861
RECORD_TITLE: Chrysanthellin B; LC-ESI-QTOF; MS2
DATE: 2019.03.28
AUTHORS: Tetsuya Mori, Center for Sustainable Resource Science, RIKEN
LICENSE: CC BY-NC-SA
PUBLICATION: Tsugawa H., Nakabayashi R., Mori T., Yamada Y., Takahashi M., Rai A., Sugiyama R., Yamamoto H., Nakaya T., Yamazaki M., Kooke R., Bac-Molenaar JA., Oztolan-Erol N., Keurentjes JJB., Arita M., Saito K. (2019) "A cheminformatics approach to characterize metabolomes in stable-isotope-labeled organisms" Nature Methods 16(4):295-298. [doi:10.1038/s41592-019-0358-2]
COMMENT: registered in RIKEN PlaSMA
CH$NAME: Chrysanthellin B
CH$COMPOUND_CLASS: Triterpene saponins
CH$FORMULA: C58H94O26
CH$EXACT_MASS: 1207.364
CH$SMILES: CC1OC(OC2C(O)COC(OC3C(C)OC(OC4C(O)C(O)COC4OC(=O)C45CCC(C)(C)CC4C4=CCC6C7(C)CCC(OC8OC(CO)C(O)C(O)C8O)C(C)(CO)C7CCC6(C)C4(C)CC5O)C(O)C3O)C2O)C(O)C(O)C1O
CH$IUPAC: InChI=1S/C58H94O26/c1-23-34(64)37(67)40(70)48(77-23)82-45-28(62)21-75-47(43(45)73)81-44-24(2)78-49(42(72)39(44)69)83-46-35(65)27(61)20-76-51(46)84-52(74)58-16-15-53(3,4)17-26(58)25-9-10-31-54(5)13-12-33(80-50-41(71)38(68)36(66)29(19-59)79-50)55(6,22-60)30(54)11-14-56(31,7)57(25,8)18-32(58)63/h9,23-24,26-51,59-73H,10-22H2,1-8H3
CH$LINK: INCHIKEY WNGIVKPPGCCJNP-UHFFFAOYSA-N
AC$INSTRUMENT: LC, Waters Acquity UPLC System; MS, Waters Xevo G2 Q-Tof
AC$INSTRUMENT_TYPE: LC-ESI-QTOF
AC$MASS_SPECTROMETRY: MS_TYPE MS2
AC$MASS_SPECTROMETRY: ION_MODE POSITIVE
AC$MASS_SPECTROMETRY: COLLISION_ENERGY 6V
AC$MASS_SPECTROMETRY: DESOLVATION_GAS_FLOW 800/h
AC$MASS_SPECTROMETRY: DESOLVATION_TEMPERATURE 450 C
AC$MASS_SPECTROMETRY: IONIZATION ESI
AC$CHROMATOGRAPHY: CAPILLARY_VOLTAGE +3.00 kV
AC$CHROMATOGRAPHY: COLUMN_NAME Acquity bridged ethyl hybrid C18 (1.7 um, 2.1 mm * 100 mm, Waters)
AC$CHROMATOGRAPHY: COLUMN_TEMPERATURE 40 C
AC$CHROMATOGRAPHY: FLOW_GRADIENT A/B = (99.5%/0.5% at 0 min, 99.5%/0.5% at 0.1 min, 20%/80% at 10 min, 0.5%/99.5% at 10.1 min, 0.5%/99.5% at 12.0 min, 99.5%/0.5% at 12.1 min, 99.5%/0.5% at 15.0 min)
AC$CHROMATOGRAPHY: FLOW_RATE 0.3 ml/min at 0 min, 0.3 ml/min at 10 min, 0.4 ml/min at 10.1 min, 0.4 ml/min at 14.4 min, 0.3 ml/min at 14.5 min
AC$CHROMATOGRAPHY: RETENTION_TIME 5.791234
AC$CHROMATOGRAPHY: SOLVENT A water including 0.1% formic acid
AC$CHROMATOGRAPHY: SOLVENT B acetonitrile including 0.1% formic acid
MS$FOCUSED_ION: PRECURSOR_TYPE [M+H]+
MS$FOCUSED_ION: PRECURSOR_M/Z 1207.61061
PK$SPLASH: splash10-0pk9-3181924702-4ced0c0c7e3dc4ec6da1
PK$NUM_PEAK: 360
PK$PEAK: m/z int. rel.int.
  50.54151 11.0 11
  51.23268 13.0 13
  55.08486 13.0 13
  60.17884 11.0 11
  62.25325 12.0 12
  72.82298 14.0 14
  74.37474 13.0 13
  76.63281 13.0 13
  87.48981 12.0 12
  90.44215 16.0 16
  90.87286 11.0 11
  95.88091 11.0 11
  97.02344 16.0 16
  109.09922 13.0 13
  111.04243 76.0 76
  114.21693 17.0 17
  115.02977 15.0 15
  115.80721 12.0 12
  118.61142 13.0 13
  121.06973 18.0 18
  125.42917 13.0 13
  129.05566 41.0 41
  133.95708 14.0 14
  147.05417 16.0 16
  147.0657 38.0 38
  149.07851 11.0 11
  149.13081 11.0 11
  150.13402 12.0 12
  151.03561 19.0 19
  161.13515 28.0 28
  163.05635 14.0 14
  165.07657 13.0 13
  167.13351 15.0 15
  175.0667 20.0 20
  186.53314 13.0 13
  189.13023 13.0 13
  189.16446 25.0 25
  193.09047 26.0 26
  199.14122 13.0 13
  201.17189 18.0 18
  203.07108 12.0 12
  203.14052 38.0 38
  203.1718 12.0 12
  205.15323 13.0 13
  205.1653 14.0 14
  207.17494 59.0 59
  207.19032 21.0 21
  208.18919 11.0 11
  209.1758 12.0 12
  209.64961 12.0 12
  213.07986 15.0 15
  217.20378 15.0 15
  219.21782 13.0 13
  222.58731 11.0 11
  223.06168 12.0 12
  225.04489 12.0 12
  225.07489 46.0 46
  225.08565 11.0 11
  226.08771 14.0 14
  232.14316 13.0 13
  233.09773 13.0 13
  237.06746 18.0 18
  239.08104 15.0 15
  239.09181 48.0 48
  239.49246 11.0 11
  241.19608 15.0 15
  243.07945 32.0 32
  243.09274 36.0 36
  244.08713 13.0 13
  247.17566 24.0 24
  255.07759 11.0 11
  257.08163 18.0 18
  257.1015 59.0 59
  257.23505 25.0 25
  257.68262 14.0 14
  265.07996 13.0 13
  273.08881 24.0 24
  273.09869 15.0 15
  275.11166 102.0 102
  275.16873 11.0 11
  276.0896 15.0 15
  278.79071 13.0 13
  279.01956 19.0 19
  279.108 207.0 207
  280.10767 71.0 71
  280.11984 13.0 13
  289.08026 15.0 15
  289.10013 13.0 13
  293.12231 270.0 270
  294.11871 64.0 64
  294.13251 33.0 33
  295.10345 13.0 13
  297.11966 25.0 25
  306.02042 13.0 13
  309.12454 46.0 46
  311.14182 14.0 14
  315.23721 15.0 15
  320.88928 11.0 11
  327.2323 13.0 13
  342.7977 13.0 13
  345.23389 13.0 13
  350.30356 16.0 16
  353.11517 21.0 21
  353.1319 13.0 13
  358.34781 13.0 13
  371.13782 15.0 15
  375.12659 12.0 12
  387.22021 15.0 15
  388.14993 17.0 17
  389.1532 36.0 36
  389.31647 34.0 34
  390.64551 16.0 16
  391.31317 13.0 13
  391.32986 14.0 14
  391.34442 12.0 12
  392.35092 14.0 14
  397.33517 13.0 13
  401.15381 11.0 11
  402.10617 12.0 12
  405.10626 15.0 15
  405.12741 28.0 28
  407.15063 12.0 12
  407.31973 134.0 134
  408.23727 14.0 14
  408.31943 14.0 14
  408.34171 22.0 22
  409.34796 14.0 14
  411.28711 11.0 11
  413.29004 29.0 29
  413.30807 49.0 49
  415.32199 13.0 13
  416.4613 14.0 14
  419.15424 13.0 13
  420.16089 13.0 13
  421.31076 15.0 15
  425.15613 37.0 37
  425.18387 13.0 13
  425.32559 13.0 13
  425.34988 79.0 79
  426.17911 12.0 12
  426.33237 11.0 11
  427.14029 28.0 28
  427.33774 12.0 12
  427.34808 35.0 35
  427.36719 19.0 19
  428.35086 28.0 28
  429.35626 20.0 20
  435.3092 73.0 73
  435.33331 37.0 37
  436.32782 13.0 13
  437.3201 11.0 11
  437.34525 15.0 15
  441.33356 12.0 12
  441.34998 30.0 30
  450.18738 21.0 21
  450.87296 11.0 11
  453.3396 820.0 819
  454.33127 94.0 94
  454.35794 54.0 54
  454.80521 11.0 11
  455.0592 12.0 12
  455.1954 13.0 13
  455.33392 30.0 30
  469.99857 13.0 13
  471.34552 694.0 693
  471.37958 15.0 15
  471.64801 13.0 13
  472.34521 181.0 181
  473.34821 15.0 15
  489.36264 14.0 14
  489.52542 13.0 13
  490.34506 41.0 41
  499.67273 12.0 12
  504.37762 15.0 15
  521.16589 24.0 24
  521.19763 11.0 11
  523.16693 15.0 15
  551.20728 11.0 11
  553.39276 26.0 26
  557.20471 28.0 28
  559.61011 20.0 20
  563.36987 51.0 51
  563.39008 15.0 15
  564.38104 18.0 18
  568.53912 12.0 12
  572.40656 22.0 22
  573.21436 15.0 15
  573.39471 16.0 16
  580.43335 17.0 17
  581.38312 52.0 52
  581.40179 29.0 29
  582.3642 12.0 12
  582.39386 28.0 28
  583.41034 13.0 13
  584.41315 15.0 15
  587.25177 13.0 13
  588.20612 12.0 12
  588.401 16.0 16
  597.36993 44.0 44
  599.3764 83.0 83
  599.41132 47.0 47
  600.37598 13.0 13
  600.4071 58.0 58
  601.3692 14.0 14
  615.40259 16.0 16
  617.40601 138.0 138
  617.42291 42.0 42
  618.39117 30.0 30
  618.41498 159.0 159
  621.43103 19.0 19
  623.3869 12.0 12
  624.50024 13.0 13
  631.29895 14.0 14
  633.35437 19.0 19
  633.40118 47.0 47
  633.42896 13.0 13
  634.38745 11.0 11
  634.41602 18.0 18
  635.414 460.0 460
  636.41406 152.0 152
  636.43726 77.0 77
  637.40582 23.0 23
  637.4259 30.0 30
  638.38904 14.0 14
  642.8576 13.0 13
  646.42108 13.0 13
  651.38776 28.0 28
  651.41425 59.0 59
  651.43445 31.0 31
  652.41003 71.0 71
  652.44464 15.0 15
  667.38885 15.0 15
  684.25177 15.0 15
  691.44318 14.0 14
  700.04651 23.0 23
  715.42792 13.0 13
  719.25037 16.0 16
  720.49194 17.0 17
  721.26965 14.0 14
  722.24414 15.0 15
  725.44849 11.0 11
  729.46191 15.0 15
  731.41016 13.0 13
  731.43518 26.0 26
  744.46307 12.0 12
  745.44922 56.0 56
  745.4671 19.0 19
  747.44928 22.0 22
  749.41187 30.0 30
  749.45892 11.0 11
  761.41663 18.0 18
  763.44183 13.0 13
  764.42847 11.0 11
  765.41321 11.0 11
  765.4577 46.0 46
  767.45477 88.0 88
  767.4884 28.0 28
  767.51184 13.0 13
  768.38306 13.0 13
  768.40454 13.0 13
  768.44098 12.0 12
  768.47162 14.0 14
  779.41162 13.0 13
  779.44415 66.0 66
  779.47998 67.0 67
  779.50592 14.0 14
  780.41864 33.0 33
  780.46802 17.0 17
  781.41058 30.0 30
  781.44031 66.0 66
  781.46521 156.0 156
  781.4892 195.0 195
  781.80573 14.0 14
  782.43964 13.0 13
  782.47363 144.0 144
  782.50336 61.0 61
  783.43939 25.0 25
  783.46155 49.0 49
  783.49884 13.0 13
  783.52179 11.0 11
  784.42206 17.0 17
  784.4483 14.0 14
  784.47839 37.0 37
  785.4762 11.0 11
  785.6297 14.0 14
  785.90063 11.0 11
  788.32837 13.0 13
  797.32831 13.0 13
  797.42432 26.0 26
  797.45886 267.0 267
  797.48987 77.0 77
  798.44647 63.0 63
  798.4726 185.0 185
  798.49939 91.0 91
  799.48077 40.0 40
  800.51617 18.0 18
  817.01636 13.0 13
  838.66754 13.0 13
  844.48651 12.0 12
  875.66547 17.0 17
  877.51349 14.0 14
  878.49982 37.0 37
  880.50836 20.0 20
  893.50983 14.0 14
  894.45801 11.0 11
  895.54083 13.0 13
  896.5401 13.0 13
  897.49915 13.0 13
  900.48364 11.0 11
  908.51135 17.0 17
  913.48169 15.0 15
  913.52197 133.0 133
  913.56757 11.0 11
  913.78979 11.0 11
  914.50372 67.0 67
  915.49042 38.0 38
  915.51819 36.0 36
  915.55347 13.0 13
  916.50763 11.0 11
  916.55084 11.0 11
  925.55347 13.0 13
  927.52399 13.0 13
  929.50977 77.0 77
  929.57526 13.0 13
  930.474 11.0 11
  931.45264 14.0 14
  931.51801 15.0 15
  943.49817 42.0 42
  943.53564 96.0 96
  943.56464 36.0 36
  944.48633 28.0 28
  944.53784 130.0 130
  945.52161 96.0 96
  946.76776 11.0 11
  951.00983 17.0 17
  1045.27454 11.0 11
  1045.50659 32.0 32
  1045.55933 53.0 53
  1046.50195 16.0 16
  1046.54688 94.0 94
  1046.58911 40.0 40
  1047.5166 12.0 12
  1047.57812 14.0 14
  1057.57593 11.0 11
  1061.55981 26.0 26
  1062.57117 14.0 14
  1064.56738 15.0 15
  1071.10828 13.0 13
  1073.52698 11.0 11
  1075.5658 333.0 333
  1076.19226 12.0 12
  1076.55701 166.0 166
  1076.60132 55.0 55
  1077.54053 24.0 24
  1077.58008 66.0 66
  1078.57458 55.0 55
  1080.55505 25.0 25
  1167.20032 12.0 12
  1205.60291 11.0 11
  1207.60791 1000.0 999
//
