ACCESSION: MSBNK-RIKEN-PR040233
RECORD_TITLE: 4-Methoxycinnamic acid; LC-ESI-QTOF; MS2; CE:Ramp 5-60 V; [M-H]-
DATE: 2016.01.19 (Created 2008.04.25, modified 2011.05.06)
AUTHORS: Matsuda F, Plant Science Center, RIKEN.
LICENSE: CC BY-SA
CH$NAME: 4-Methoxycinnamic acid
CH$NAME: 3-(4-methoxyphenyl)prop-2-enoic acid
CH$COMPOUND_CLASS: Natural Product
CH$FORMULA: C10H10O3
CH$EXACT_MASS: 178.06299
CH$SMILES: COC1=CC=C(C=C1)/C=C/C(=O)O
CH$IUPAC: InChI=1S/C10H10O3/c1-13-9-5-2-8(3-6-9)4-7-10(11)12/h2-7H,1H3,(H,11,12)/b7-4+
CH$LINK: CAS 943-89-5
CH$LINK: PUBCHEM CID:699414
CH$LINK: INCHIKEY AFDXODALSZRGIH-QPJJXVBHSA-N
CH$LINK: COMPTOX DTXSID1046059
AC$INSTRUMENT: UPLC Q-Tof Premier, Waters
AC$INSTRUMENT_TYPE: LC-ESI-QTOF
AC$MASS_SPECTROMETRY: MS_TYPE MS2
AC$MASS_SPECTROMETRY: ION_MODE NEGATIVE
AC$MASS_SPECTROMETRY: COLLISION_ENERGY Ramp 5-60 V
AC$MASS_SPECTROMETRY: DATAFORMAT Continuum
AC$MASS_SPECTROMETRY: DESOLVATION_GAS_FLOW 600.0 L/Hr
AC$MASS_SPECTROMETRY: DESOLVATION_TEMPERATURE 400 C
AC$MASS_SPECTROMETRY: FRAGMENTATION_METHOD LOW-ENERGY CID
AC$MASS_SPECTROMETRY: IONIZATION ESI
AC$MASS_SPECTROMETRY: SCANNING 1.0 sec/scan (m/z = 50-1000)
AC$MASS_SPECTROMETRY: SOURCE_TEMPERATURE 120 C
AC$CHROMATOGRAPHY: CAPILLARY_VOLTAGE 3.0 kV
AC$CHROMATOGRAPHY: SAMPLING_CONE 23.0 V
AC$CHROMATOGRAPHY: SOLVENT A CH3CN(0.1%HCOOH)
AC$CHROMATOGRAPHY: SOLVENT B H2O(0.1%HCOOH)
MS$FOCUSED_ION: FULL_SCAN_FRAGMENT_ION_PEAK 177.1
MS$FOCUSED_ION: ION_TYPE [M-H]-
MS$DATA_PROCESSING: WHOLE MassLynx 4.1
PK$SPLASH: splash10-0fb9-0900000000-c6baccb046bfcd7d6282
PK$NUM_PEAK: 7
PK$PEAK: m/z int. rel.int.
  88.9985 17.5 22
  103.0551 529.9 675
  105.0702 31.22 39
  131.0510 33.46 42
  133.0663 231.8 295
  176.9785 22.52 28
  177.0552 784.1 999
//
