ACCESSION: MSBNK-RIKEN-PR301445
RECORD_TITLE: Petiline; LC-ESI-QTOF; MS2
DATE: 2019.03.28
AUTHORS: Tetsuya Mori, Center for Sustainable Resource Science, RIKEN
LICENSE: CC BY-NC-SA
PUBLICATION: Tsugawa H., Nakabayashi R., Mori T., Yamada Y., Takahashi M., Rai A., Sugiyama R., Yamamoto H., Nakaya T., Yamazaki M., Kooke R., Bac-Molenaar JA., Oztolan-Erol N., Keurentjes JJB., Arita M., Saito K. (2019) "A cheminformatics approach to characterize metabolomes in stable-isotope-labeled organisms" Nature Methods 16(4):295-298. [doi:10.1038/s41592-019-0358-2]
COMMENT: registered in RIKEN PlaSMA
CH$NAME: Petiline
CH$COMPOUND_CLASS: 22,26-epiminocholestanes
CH$FORMULA: C27H43NO2
CH$EXACT_MASS: 413.646
CH$SMILES: C[C@@H]([C@H]1CC[C@H]2[C@@H]3CC(=O)[C@H]4C[C@@H](O)CC[C@]4(C)[C@H]3CC[C@]12C)C1=NC[C@@H](C)CC1
CH$IUPAC: InChI=1S/C27H43NO2/c1-16-5-8-24(28-15-16)17(2)20-6-7-21-19-14-25(30)23-13-18(29)9-11-27(23,4)22(19)10-12-26(20,21)3/h16-23,29H,5-15H2,1-4H3/t16-,17-,18-,19-,20+,21-,22-,23+,26+,27+/m0/s1
CH$LINK: INCHIKEY QAGPPGDCPAPQLW-HAQROMNMSA-N
AC$INSTRUMENT: LC, Waters Acquity UPLC System; MS, Waters Xevo G2 Q-Tof
AC$INSTRUMENT_TYPE: LC-ESI-QTOF
AC$MASS_SPECTROMETRY: MS_TYPE MS2
AC$MASS_SPECTROMETRY: ION_MODE POSITIVE
AC$MASS_SPECTROMETRY: COLLISION_ENERGY 6V
AC$MASS_SPECTROMETRY: DESOLVATION_GAS_FLOW 800/h
AC$MASS_SPECTROMETRY: DESOLVATION_TEMPERATURE 450 C
AC$MASS_SPECTROMETRY: IONIZATION ESI
AC$CHROMATOGRAPHY: CAPILLARY_VOLTAGE +3.00 kV
AC$CHROMATOGRAPHY: COLUMN_NAME Acquity bridged ethyl hybrid C18 (1.7 um, 2.1 mm * 100 mm, Waters)
AC$CHROMATOGRAPHY: COLUMN_TEMPERATURE 40 C
AC$CHROMATOGRAPHY: FLOW_GRADIENT A/B = (99.5%/0.5% at 0 min, 99.5%/0.5% at 0.1 min, 20%/80% at 10 min, 0.5%/99.5% at 10.1 min, 0.5%/99.5% at 12.0 min, 99.5%/0.5% at 12.1 min, 99.5%/0.5% at 15.0 min)
AC$CHROMATOGRAPHY: FLOW_RATE 0.3 ml/min at 0 min, 0.3 ml/min at 10 min, 0.4 ml/min at 10.1 min, 0.4 ml/min at 14.4 min, 0.3 ml/min at 14.5 min
AC$CHROMATOGRAPHY: RETENTION_TIME 4.94645
AC$CHROMATOGRAPHY: SOLVENT A water including 0.1% formic acid
AC$CHROMATOGRAPHY: SOLVENT B acetonitrile including 0.1% formic acid
MS$FOCUSED_ION: PRECURSOR_TYPE [M+H]+
MS$FOCUSED_ION: PRECURSOR_M/Z 414.3366561
PK$SPLASH: splash10-054n-5900000000-d92a729f405fd498969a
PK$NUM_PEAK: 181
PK$PEAK: m/z int. rel.int.
  55.0508 7.0 7
  55.05783 10.0 10
  58.07237 8.0 8
  67.05521 198.0 198
  69.07018 75.0 75
  70.06769 53.0 53
  77.0378 62.0 62
  79.05215 134.0 134
  79.05623 264.0 264
  80.05953 14.0 14
  81.02991 7.0 7
  81.05717 6.0 6
  81.07076 422.0 422
  82.06937 16.0 16
  82.07594 7.0 7
  83.05149 5.0 5
  83.08492 46.0 46
  84.08131 90.0 90
  91.05488 248.0 248
  92.0563 27.0 27
  92.06429 8.0 8
  93.05663 6.0 6
  93.07038 1000.0 999
  94.06757 34.0 34
  94.0751 40.0 40
  95.05104 46.0 46
  95.08617 430.0 430
  96.07018 8.0 8
  96.07778 18.0 18
  96.08494 79.0 79
  97.06586 58.0 58
  97.09959 12.0 12
  98.09718 431.0 431
  99.09458 13.0 13
  99.10094 36.0 36
  103.05421 29.0 29
  105.04039 7.0 7
  105.05413 5.0 5
  105.0703 239.0 239
  106.07364 15.0 15
  106.0815 7.0 7
  107.04573 37.0 37
  107.05094 47.0 47
  107.06818 6.0 6
  107.08606 763.0 762
  107.11206 8.0 8
  108.0569 9.0 9
  108.09068 71.0 71
  109.06255 30.0 30
  109.07182 8.0 8
  109.08763 17.0 17
  109.10118 165.0 165
  110.09464 43.0 43
  110.10081 74.0 74
  110.11007 5.0 5
  111.08062 14.0 14
  111.10168 12.0 12
  111.10678 12.0 12
  112.10925 86.0 86
  112.11697 37.0 37
  113.11057 8.0 8
  115.0599 6.0 6
  116.06403 8.0 8
  117.06911 59.0 59
  117.07616 23.0 23
  118.07586 8.0 8
  119.08583 171.0 171
  120.08963 8.0 8
  121.06403 76.0 76
  121.10207 363.0 363
  122.06483 9.0 9
  122.07277 7.0 7
  122.10326 29.0 29
  122.11346 8.0 8
  123.07512 15.0 15
  123.08318 12.0 12
  123.11864 28.0 28
  124.11219 102.0 102
  125.05954 17.0 17
  125.11926 83.0 83
  126.10816 10.0 10
  126.12868 648.0 647
  127.12214 17.0 17
  127.1293 58.0 58
  127.13868 8.0 8
  128.06137 7.0 7
  129.0657 11.0 11
  129.07512 47.0 47
  131.06847 8.0 8
  131.08565 107.0 107
  132.09315 33.0 33
  133.10101 136.0 136
  134.1071 19.0 19
  135.07875 17.0 17
  135.08513 20.0 20
  135.11761 228.0 228
  136.08649 5.0 5
  136.10994 9.0 9
  136.12071 38.0 38
  137.10011 7.0 7
  137.11307 7.0 7
  137.12337 6.0 6
  137.13101 5.0 5
  138.12581 25.0 25
  138.13596 16.0 16
  141.0705 11.0 11
  142.07893 15.0 15
  143.08646 72.0 72
  144.09621 21.0 21
  145.05896 6.0 6
  145.08232 7.0 7
  145.08957 21.0 21
  145.10098 109.0 109
  146.07248 10.0 10
  146.10329 28.0 28
  147.07776 15.0 15
  147.0858 9.0 9
  147.0956 5.0 5
  147.11792 140.0 140
  148.11864 24.0 24
  149.08919 14.0 14
  149.13229 465.0 465
  150.11154 6.0 6
  150.13127 103.0 103
  151.12857 6.0 6
  152.12492 6.0 6
  152.14513 58.0 58
  155.08272 38.0 38
  157.10228 58.0 58
  158.10997 16.0 16
  159.09406 10.0 10
  159.11562 75.0 75
  160.12479 11.0 11
  161.09651 69.0 69
  161.11787 7.0 7
  161.13486 40.0 40
  162.1396 7.0 7
  163.11424 6.0 6
  163.15176 8.0 8
  164.11749 18.0 18
  166.16431 7.0 7
  167.08501 9.0 9
  168.09579 7.0 7
  169.10254 15.0 15
  170.10838 7.0 7
  171.11223 17.0 17
  171.12144 12.0 12
  173.0948 5.0 5
  173.1279 16.0 16
  173.13647 14.0 14
  173.14772 5.0 5
  175.11404 17.0 17
  175.14609 10.0 10
  176.1171 9.0 9
  177.12515 6.0 6
  181.09509 11.0 11
  182.10658 6.0 6
  183.11331 16.0 16
  183.11949 7.0 7
  185.12314 7.0 7
  185.1329 26.0 26
  187.14809 22.0 22
  188.15544 9.0 9
  197.13278 29.0 29
  199.13957 6.0 6
  199.15166 16.0 16
  199.16537 7.0 7
  201.16444 14.0 14
  207.1244 5.0 5
  210.14421 8.0 8
  211.14229 10.0 10
  211.15331 6.0 6
  212.14992 8.0 8
  215.1403 7.0 7
  230.16798 6.0 6
  243.17328 15.0 15
  253.18652 6.0 6
  258.164 5.0 5
  316.26584 5.0 5
  343.24542 8.0 8
  414.33624 318.0 318
//
