ACCESSION: MSBNK-RIKEN-PR307017
RECORD_TITLE: 6-Hydroxyflavanone; LC-ESI-QTOF; MS2
DATE: 2019.03.28
AUTHORS: Tetsuya Mori, Center for Sustainable Resource Science, RIKEN
LICENSE: CC BY-NC-SA
PUBLICATION: Tsugawa H., Nakabayashi R., Mori T., Yamada Y., Takahashi M., Rai A., Sugiyama R., Yamamoto H., Nakaya T., Yamazaki M., Kooke R., Bac-Molenaar JA., Oztolan-Erol N., Keurentjes JJB., Arita M., Saito K. (2019) "A cheminformatics approach to characterize metabolomes in stable-isotope-labeled organisms" Nature Methods 16(4):295-298. [doi:10.1038/s41592-019-0358-2]
COMMENT: registered in RIKEN PlaSMA
CH$NAME: 6-Hydroxyflavanone
CH$COMPOUND_CLASS: Flavanones
CH$FORMULA: C15H12O3
CH$EXACT_MASS: 240.258
CH$SMILES: OC1=CC2=C(OC(CC2=O)C2=CC=CC=C2)C=C1
CH$IUPAC: InChI=1S/C15H12O3/c16-11-6-7-14-12(8-11)13(17)9-15(18-14)10-4-2-1-3-5-10/h1-8,15-16H,9H2
CH$LINK: INCHIKEY XYHWPQUEOOBIOW-UHFFFAOYSA-N
AC$INSTRUMENT: LC, Waters Acquity UPLC System; MS, Waters Xevo G2 Q-Tof
AC$INSTRUMENT_TYPE: LC-ESI-QTOF
AC$MASS_SPECTROMETRY: MS_TYPE MS2
AC$MASS_SPECTROMETRY: ION_MODE NEGATIVE
AC$MASS_SPECTROMETRY: COLLISION_ENERGY 6V
AC$MASS_SPECTROMETRY: DESOLVATION_GAS_FLOW 800/h
AC$MASS_SPECTROMETRY: DESOLVATION_TEMPERATURE 450 C
AC$MASS_SPECTROMETRY: IONIZATION ESI
AC$CHROMATOGRAPHY: CAPILLARY_VOLTAGE -2.75 kV
AC$CHROMATOGRAPHY: COLUMN_NAME Acquity bridged ethyl hybrid C18 (1.7 um, 2.1 mm * 100 mm, Waters)
AC$CHROMATOGRAPHY: COLUMN_TEMPERATURE 40 C
AC$CHROMATOGRAPHY: FLOW_GRADIENT A/B = (99.5%/0.5% at 0 min, 99.5%/0.5% at 0.1 min, 20%/80% at 10 min, 0.5%/99.5% at 10.1 min, 0.5%/99.5% at 12.0 min, 99.5%/0.5% at 12.1 min, 99.5%/0.5% at 15.0 min)
AC$CHROMATOGRAPHY: FLOW_RATE 0.3 ml/min at 0 min, 0.3 ml/min at 10 min, 0.4 ml/min at 10.1 min, 0.4 ml/min at 14.4 min, 0.3 ml/min at 14.5 min
AC$CHROMATOGRAPHY: RETENTION_TIME 7.163183
AC$CHROMATOGRAPHY: SOLVENT A water including 0.1% formic acid
AC$CHROMATOGRAPHY: SOLVENT B acetonitrile including 0.1% formic acid
MS$FOCUSED_ION: PRECURSOR_TYPE [M-H]-
MS$FOCUSED_ION: PRECURSOR_M/Z 239.07136774783
PK$SPLASH: splash10-000i-0950000000-337b401eb450b60ea115
PK$NUM_PEAK: 24
PK$PEAK: m/z int. rel.int.
  79.01907 152.0 152
  80.02431 36.0 36
  107.01051 483.0 483
  108.01852 209.0 209
  108.02566 62.0 62
  115.05698 36.0 36
  135.007 465.0 465
  136.00285 35.0 35
  141.06905 32.0 32
  157.062 30.0 30
  161.01866 110.0 110
  183.07071 39.0 39
  193.07828 62.0 62
  195.07779 258.0 258
  196.05249 36.0 36
  196.08821 42.0 42
  197.06189 172.0 172
  197.08124 32.0 32
  210.05194 30.0 30
  210.06464 133.0 133
  211.07896 71.0 71
  237.04366 51.0 51
  237.0549 39.0 39
  239.07005 1000.0 999
//
