ACCESSION: MSBNK-RIKEN-PR301252
RECORD_TITLE: Guan-fu base Y; LC-ESI-QTOF; MS2
DATE: 2019.03.28
AUTHORS: Tetsuya Mori, Center for Sustainable Resource Science, RIKEN
LICENSE: CC BY-NC-SA
PUBLICATION: Tsugawa H., Nakabayashi R., Mori T., Yamada Y., Takahashi M., Rai A., Sugiyama R., Yamamoto H., Nakaya T., Yamazaki M., Kooke R., Bac-Molenaar JA., Oztolan-Erol N., Keurentjes JJB., Arita M., Saito K. (2019) "A cheminformatics approach to characterize metabolomes in stable-isotope-labeled organisms" Nature Methods 16(4):295-298. [doi:10.1038/s41592-019-0358-2]
COMMENT: registered in RIKEN PlaSMA
CH$NAME: Guan-fu base Y
CH$COMPOUND_CLASS: Atisane diterpenoids
CH$FORMULA: C22H29NO5
CH$EXACT_MASS: 387.476
CH$SMILES: CC(=O)OC1C[C@@]2(C)CN3[C@H]4CC56CC(=C)[C@@H]7C(O)[C@H]5[C@](C1)([C@@H]24)C3[C@@]6(O)C7O
CH$IUPAC: InChI=1S/C22H29NO5/c1-9-4-20-7-12-15-19(3)5-11(28-10(2)24)6-21(15)16(20)14(25)13(9)17(26)22(20,27)18(21)23(12)8-19/h11-18,25-27H,1,4-8H2,2-3H3/t11?,12-,13+,14?,15+,16+,17?,18?,19-,20?,21-,22-/m0/s1
CH$LINK: INCHIKEY XGTNTUKODZZCGL-LFXJTNOVSA-N
AC$INSTRUMENT: LC, Waters Acquity UPLC System; MS, Waters Xevo G2 Q-Tof
AC$INSTRUMENT_TYPE: LC-ESI-QTOF
AC$MASS_SPECTROMETRY: MS_TYPE MS2
AC$MASS_SPECTROMETRY: ION_MODE POSITIVE
AC$MASS_SPECTROMETRY: COLLISION_ENERGY 6V
AC$MASS_SPECTROMETRY: DESOLVATION_GAS_FLOW 800/h
AC$MASS_SPECTROMETRY: DESOLVATION_TEMPERATURE 450 C
AC$MASS_SPECTROMETRY: IONIZATION ESI
AC$CHROMATOGRAPHY: CAPILLARY_VOLTAGE +3.00 kV
AC$CHROMATOGRAPHY: COLUMN_NAME Acquity bridged ethyl hybrid C18 (1.7 um, 2.1 mm * 100 mm, Waters)
AC$CHROMATOGRAPHY: COLUMN_TEMPERATURE 40 C
AC$CHROMATOGRAPHY: FLOW_GRADIENT A/B = (99.5%/0.5% at 0 min, 99.5%/0.5% at 0.1 min, 20%/80% at 10 min, 0.5%/99.5% at 10.1 min, 0.5%/99.5% at 12.0 min, 99.5%/0.5% at 12.1 min, 99.5%/0.5% at 15.0 min)
AC$CHROMATOGRAPHY: FLOW_RATE 0.3 ml/min at 0 min, 0.3 ml/min at 10 min, 0.4 ml/min at 10.1 min, 0.4 ml/min at 14.4 min, 0.3 ml/min at 14.5 min
AC$CHROMATOGRAPHY: RETENTION_TIME 3.030383
AC$CHROMATOGRAPHY: SOLVENT A water including 0.1% formic acid
AC$CHROMATOGRAPHY: SOLVENT B acetonitrile including 0.1% formic acid
MS$FOCUSED_ION: PRECURSOR_TYPE [M+H]+
MS$FOCUSED_ION: PRECURSOR_M/Z 388.2118495
PK$SPLASH: splash10-0006-1950000000-5551e3a527490d1587b9
PK$NUM_PEAK: 250
PK$PEAK: m/z int. rel.int.
  57.03303 10.0 10
  67.05702 16.0 16
  77.03671 18.0 18
  79.04312 5.0 5
  79.05506 80.0 80
  80.048 7.0 7
  80.05766 10.0 10
  81.02028 7.0 7
  81.05644 8.0 8
  81.0692 20.0 20
  91.05078 31.0 31
  91.05535 98.0 98
  91.0644 7.0 7
  92.05685 12.0 12
  93.0711 159.0 159
  94.06633 18.0 18
  94.07609 10.0 10
  95.04761 14.0 14
  95.05694 5.0 5
  96.04403 5.0 5
  103.0545 47.0 47
  105.07062 371.0 371
  106.07182 17.0 17
  106.07823 20.0 20
  107.0728 8.0 8
  107.08284 22.0 22
  107.09052 19.0 19
  108.08155 7.0 7
  108.08932 6.0 6
  115.04868 5.0 5
  115.05395 19.0 19
  116.06021 19.0 19
  116.06721 28.0 28
  117.07298 47.0 47
  119.07954 16.0 16
  119.08764 39.0 39
  120.07743 12.0 12
  120.08342 13.0 13
  121.06602 21.0 21
  121.08195 11.0 11
  121.0908 9.0 9
  121.10011 46.0 46
  123.10869 9.0 9
  128.05109 8.0 8
  128.05823 22.0 22
  128.06557 35.0 35
  129.07007 76.0 76
  129.07501 45.0 45
  130.06287 34.0 34
  130.07416 16.0 16
  130.29648 5.0 5
  131.07231 6.0 6
  131.08762 146.0 146
  132.0621 7.0 7
  132.08109 17.0 17
  132.08638 13.0 13
  133.06491 10.0 10
  134.09476 10.0 10
  141.07732 8.0 8
  142.06566 7.0 7
  142.07974 22.0 22
  143.07465 80.0 80
  143.09106 26.0 26
  144.04126 5.0 5
  144.08084 1000.0 999
  145.08736 116.0 116
  145.10873 11.0 11
  146.09581 51.0 51
  147.06245 6.0 6
  147.0863 23.0 23
  149.0903 11.0 11
  149.09648 35.0 35
  149.11333 5.0 5
  153.06982 14.0 14
  154.07567 10.0 10
  155.08553 35.0 35
  155.09767 6.0 6
  156.08131 40.0 40
  157.07753 11.0 11
  157.0914 79.0 79
  158.09587 200.0 200
  159.08887 9.0 9
  159.10289 23.0 23
  159.10921 7.0 7
  160.07645 12.0 12
  160.10045 7.0 7
  160.11392 17.0 17
  162.09076 6.0 6
  163.07397 7.0 7
  165.06601 10.0 10
  165.07436 23.0 23
  165.07954 9.0 9
  166.07281 15.0 15
  167.0818 24.0 24
  168.07018 6.0 6
  168.07971 8.0 8
  169.09648 17.0 17
  170.09726 39.0 39
  170.1124 5.0 5
  171.08565 7.0 7
  171.10339 7.0 7
  172.08156 14.0 14
  172.10446 9.0 9
  172.1138 14.0 14
  173.09431 6.0 6
  173.11203 5.0 5
  175.09222 8.0 8
  178.07426 15.0 15
  178.08281 9.0 9
  179.08685 23.0 23
  180.08237 13.0 13
  180.09103 18.0 18
  181.09108 19.0 19
  181.10796 10.0 10
  182.05803 6.0 6
  182.09091 6.0 6
  182.10243 36.0 36
  183.10426 25.0 25
  184.08005 9.0 9
  184.1031 11.0 11
  184.11479 9.0 9
  186.08757 5.0 5
  188.1105 11.0 11
  191.08197 12.0 12
  191.28938 6.0 6
  192.09111 65.0 65
  192.13977 6.0 6
  193.09709 37.0 37
  193.10617 20.0 20
  194.08986 11.0 11
  194.09962 14.0 14
  195.10233 15.0 15
  195.10948 12.0 12
  196.07408 9.0 9
  196.11064 19.0 19
  196.12531 9.0 9
  197.12978 12.0 12
  198.10188 7.0 7
  198.11304 7.0 7
  198.12733 51.0 51
  200.14548 6.0 6
  203.08121 29.0 29
  203.10098 6.0 6
  205.09544 17.0 17
  205.1089 11.0 11
  206.10881 41.0 41
  207.1073 9.0 9
  207.1178 23.0 23
  208.11276 32.0 32
  209.09363 12.0 12
  209.10361 13.0 13
  209.11719 7.0 7
  210.12523 11.0 11
  217.09535 6.0 6
  217.10672 11.0 11
  218.10095 22.0 22
  219.10779 16.0 16
  219.12012 12.0 12
  220.11302 49.0 49
  220.12994 15.0 15
  221.11836 35.0 35
  221.13239 11.0 11
  221.14366 5.0 5
  222.12335 18.0 18
  222.13937 19.0 19
  223.11211 6.0 6
  223.13448 10.0 10
  224.14008 8.0 8
  228.54947 6.0 6
  230.10533 13.0 13
  231.10464 10.0 10
  231.11427 8.0 8
  231.66304 6.0 6
  232.11224 15.0 15
  232.12381 20.0 20
  232.13512 6.0 6
  233.0858 5.0 5
  233.12338 26.0 26
  234.10707 8.0 8
  234.12219 31.0 31
  234.1369 29.0 29
  235.12283 8.0 8
  235.13515 23.0 23
  236.10803 9.0 9
  236.14403 28.0 28
  245.11768 8.0 8
  247.13506 9.0 9
  247.14378 12.0 12
  248.14351 84.0 84
  249.14395 32.0 32
  249.15605 29.0 29
  250.12175 13.0 13
  250.15755 7.0 7
  251.11961 7.0 7
  252.1351 9.0 9
  254.18845 8.0 8
  258.12589 9.0 9
  258.14029 6.0 6
  259.13608 20.0 20
  260.14597 19.0 19
  261.14825 7.0 7
  262.15674 43.0 43
  262.16565 16.0 16
  262.17874 6.0 6
  263.08859 6.0 6
  263.13202 6.0 6
  263.16733 150.0 150
  263.19116 12.0 12
  264.11633 8.0 8
  264.15356 27.0 27
  264.17508 438.0 438
  265.16483 28.0 28
  265.17776 35.0 35
  265.1875 22.0 22
  267.16251 6.0 6
  274.16483 25.0 25
  275.16757 10.0 10
  276.12866 7.0 7
  276.14355 19.0 19
  276.17145 7.0 7
  277.14285 12.0 12
  277.15826 7.0 7
  278.15842 17.0 17
  281.17123 6.0 6
  282.17361 20.0 20
  282.18793 12.0 12
  282.20032 11.0 11
  283.19818 8.0 8
  291.16614 7.0 7
  292.13187 8.0 8
  292.1709 320.0 320
  293.16409 29.0 29
  293.17776 70.0 70
  294.16885 6.0 6
  310.17535 30.0 30
  310.18967 7.0 7
  310.20224 6.0 6
  311.18665 14.0 14
  323.17148 16.0 16
  323.18906 22.0 22
  323.21295 6.0 6
  324.17264 7.0 7
  324.18994 30.0 30
  324.20291 32.0 32
  325.19241 6.0 6
  328.1929 38.0 38
  329.18765 8.0 8
  352.17966 6.0 6
  388.20651 11.0 11
  388.22006 28.0 28
//
