ACCESSION: MSBNK-RIKEN-PR309297
RECORD_TITLE: Apigenin-6-C-glucoside-7-O-glucoside; LC-ESI-QTOF; MS2
DATE: 2019.03.28
AUTHORS: Tetsuya Mori, Center for Sustainable Resource Science, RIKEN
LICENSE: CC BY-NC-SA
PUBLICATION: Tsugawa H., Nakabayashi R., Mori T., Yamada Y., Takahashi M., Rai A., Sugiyama R., Yamamoto H., Nakaya T., Yamazaki M., Kooke R., Bac-Molenaar JA., Oztolan-Erol N., Keurentjes JJB., Arita M., Saito K. (2019) "A cheminformatics approach to characterize metabolomes in stable-isotope-labeled organisms" Nature Methods 16(4):295-298. [doi:10.1038/s41592-019-0358-2]
COMMENT: Annotation level-1
CH$NAME: Apigenin-6-C-glucoside-7-O-glucoside
CH$COMPOUND_CLASS: Flavone C,O-glycosides
CH$FORMULA: C27H30O15
CH$EXACT_MASS: 594.522
CH$SMILES: O=C2C=C(OC=3C=C(OC1OC(CO)C(O)C(O)C1(O))C(=C(O)C2=3)C4OC(CO)C(O)C(O)C4(O))C5=CC=C(O)C=C5
CH$IUPAC: InChI=1S/C27H30O15/c28-7-15-19(32)22(35)24(37)26(40-15)18-14(41-27-25(38)23(36)20(33)16(8-29)42-27)6-13-17(21(18)34)11(31)5-12(39-13)9-1-3-10(30)4-2-9/h1-6,15-16,19-20,22-30,32-38H,7-8H2
CH$LINK: INCHIKEY HGUVPEBGCAVWID-UHFFFAOYSA-N
AC$INSTRUMENT: LC, Waters Acquity UPLC System; MS, Waters Xevo G2 Q-Tof
AC$INSTRUMENT_TYPE: LC-ESI-QTOF
AC$MASS_SPECTROMETRY: MS_TYPE MS2
AC$MASS_SPECTROMETRY: ION_MODE NEGATIVE
AC$MASS_SPECTROMETRY: COLLISION_ENERGY 6V
AC$MASS_SPECTROMETRY: DESOLVATION_GAS_FLOW 800/h
AC$MASS_SPECTROMETRY: DESOLVATION_TEMPERATURE 450 C
AC$MASS_SPECTROMETRY: IONIZATION ESI
AC$CHROMATOGRAPHY: CAPILLARY_VOLTAGE +3.00 kV
AC$CHROMATOGRAPHY: COLUMN_NAME Acquity bridged ethyl hybrid C18 (1.7 um, 2.1 mm * 100 mm, Waters)
AC$CHROMATOGRAPHY: COLUMN_TEMPERATURE 40 C
AC$CHROMATOGRAPHY: FLOW_GRADIENT A/B = (99.5%/0.5% at 0 min, 99.5%/0.5% at 0.1 min, 20%/80% at 10 min, 0.5%/99.5% at 10.1 min, 0.5%/99.5% at 12.0 min, 99.5%/0.5% at 12.1 min, 99.5%/0.5% at 15.0 min)
AC$CHROMATOGRAPHY: FLOW_RATE 0.3 ml/min at 0 min, 0.3 ml/min at 10 min, 0.4 ml/min at 10.1 min, 0.4 ml/min at 14.4 min, 0.3 ml/min at 14.5 min
AC$CHROMATOGRAPHY: RETENTION_TIME 3.53
AC$CHROMATOGRAPHY: SOLVENT A water including 0.1% formic acid
AC$CHROMATOGRAPHY: SOLVENT B acetonitrile including 0.1% formic acid
MS$FOCUSED_ION: PRECURSOR_TYPE [M-H]-
MS$FOCUSED_ION: PRECURSOR_M/Z 593.15119
PK$SPLASH: splash10-0006-0034190000-cc2813a3f9a7ceef7eda
PK$NUM_PEAK: 113
PK$PEAK: m/z int. rel.int.
  64.82504 23.0 2
  117.02866 22.0 2
  123.04369 26.0 2
  148.05328 25.0 2
  161.01955 28.0 2
  162.02345 23.0 2
  179.03189 43.0 3
  197.47542 28.0 2
  203.03401 21.0 2
  209.0605 20.0 2
  221.00346 25.0 2
  225.05981 21.0 2
  227.03041 20.0 2
  233.45184 25.0 2
  253.08197 18.0 1
  261.93451 27.0 2
  268.03223 56.0 5
  268.04596 46.0 4
  269.0361 160.0 13
  269.05249 67.0 5
  269.36899 19.0 2
  270.03391 44.0 4
  278.80334 23.0 2
  281.04617 164.0 13
  281.05704 53.0 4
  282.0527 712.0 57
  283.05573 722.0 58
  283.07413 81.0 7
  284.05966 168.0 14
  285.07086 24.0 2
  285.65637 18.0 1
  287.1337 20.0 2
  288.14841 30.0 2
  291.06949 44.0 4
  291.98666 27.0 2
  293.05084 56.0 5
  295.02106 40.0 3
  295.04834 75.0 6
  295.08139 20.0 2
  295.67499 21.0 2
  296.03882 22.0 2
  296.06799 18.0 1
  297.03851 1304.0 105
  297.25925 21.0 2
  297.93085 21.0 2
  298.03091 61.0 5
  298.03815 166.0 13
  298.05283 39.0 3
  299.06332 19.0 2
  300.05914 25.0 2
  308.02057 20.0 2
  309.03271 34.0 3
  310.05475 129.0 10
  310.82355 19.0 2
  310.95966 18.0 1
  311.05414 3595.0 290
  311.58908 23.0 2
  312.04401 65.0 5
  312.06113 407.0 33
  313.0665 106.0 9
  318.38022 28.0 2
  321.05753 23.0 2
  323.05579 107.0 9
  324.06128 20.0 2
  325.07556 22.0 2
  326.04462 24.0 2
  327.04208 20.0 2
  335.05432 19.0 2
  335.08838 30.0 2
  337.021 45.0 4
  339.03931 18.0 1
  341.05978 180.0 15
  341.07513 254.0 20
  342.06403 20.0 2
  342.0722 53.0 4
  351.13589 23.0 2
  353.065 68.0 5
  353.08109 21.0 2
  354.03784 25.0 2
  358.12918 20.0 2
  359.90344 23.0 2
  365.04608 29.0 2
  369.05463 27.0 2
  377.30362 19.0 2
  382.71799 21.0 2
  383.06534 84.0 7
  383.08304 34.0 3
  395.0784 22.0 2
  430.08072 32.0 3
  430.09802 41.0 3
  430.45923 19.0 2
  430.88388 20.0 2
  431.09943 816.0 66
  432.08533 18.0 1
  432.11243 51.0 4
  433.10666 20.0 2
  433.89969 20.0 2
  467.74866 25.0 2
  472.41803 18.0 1
  473.10684 504.0 41
  473.12003 206.0 17
  473.15308 21.0 2
  474.1087 88.0 7
  474.13943 24.0 2
  474.28952 18.0 1
  475.10367 20.0 2
  479.75116 20.0 2
  513.62109 33.0 3
  557.31134 31.0 2
  576.41882 26.0 2
  585.64832 21.0 2
  591.13495 24.0 2
  593.1507 12401.0 999
//
