ACCESSION: MSBNK-RIKEN-PR100007
RECORD_TITLE: (+-)-Baclofen; LC-ESI-QTOF; MS2; CE:Ramp 5-60 V; [M+H]+
DATE: 2016.01.19 (Created 2009.09.10, modified 2011.05.06)
AUTHORS: Matsuda F, Suzuki M, Sawada Y, Plant Science Center, RIKEN.
LICENSE: CC BY-SA
COMMENT: Acquisition and generation of the data is financially supported in part by CREST/JST.
CH$NAME: (+-)-Baclofen
CH$NAME: Lioresal
CH$NAME: Kemstro
CH$NAME: Baclon
CH$NAME: Gabalon
CH$NAME: beta-(Aminomethyl)-p-chlorohydrocinnamic acid
CH$NAME: gamma-amino-beta-(p-chlorophenyl)butyric acid
CH$NAME: (+/-)-beta-(Aminomethyl)-4-chlorobenzenepropanoic acid
CH$COMPOUND_CLASS: Carboxylic acids
CH$FORMULA: C10H12ClNO2
CH$EXACT_MASS: 213.05566
CH$SMILES: NCC(CC(O)=O)c(c1)ccc(Cl)c1
CH$IUPAC: InChI=1S/C10H12ClNO2/c11-9-3-1-7(2-4-9)8(6-12)5-10(13)14/h1-4,8H,5-6,12H2,(H,13,14)
CH$LINK: CAS 1134-47-0
CH$LINK: CHEMSPIDER 2197
CH$LINK: KEGG D00241
CH$LINK: PUBCHEM CID:2284
CH$LINK: INCHIKEY KPYSYYIEGFHWSV-UHFFFAOYSA-N
CH$LINK: COMPTOX DTXSID5022641
AC$INSTRUMENT: UPLC Q-Tof Premier, Waters
AC$INSTRUMENT_TYPE: LC-ESI-QTOF
AC$MASS_SPECTROMETRY: MS_TYPE MS2
AC$MASS_SPECTROMETRY: ION_MODE POSITIVE
AC$MASS_SPECTROMETRY: COLLISION_ENERGY Ramp 5-60 V
AC$MASS_SPECTROMETRY: DATAFORMAT Continuum
AC$MASS_SPECTROMETRY: DESOLVATION_GAS_FLOW 600.0 L/Hr
AC$MASS_SPECTROMETRY: DESOLVATION_TEMPERATURE 400 C
AC$MASS_SPECTROMETRY: FRAGMENTATION_METHOD LOW-ENERGY CID
AC$MASS_SPECTROMETRY: IONIZATION ESI
AC$MASS_SPECTROMETRY: SOURCE_TEMPERATURE 120 C
AC$CHROMATOGRAPHY: CAPILLARY_VOLTAGE 3.0 kV
AC$CHROMATOGRAPHY: SAMPLING_CONE 23.0 V
AC$CHROMATOGRAPHY: SOLVENT A CH3CN(0.1%HCOOH)
AC$CHROMATOGRAPHY: SOLVENT B H2O(0.1%HCOOH)
MS$FOCUSED_ION: PRECURSOR_M/Z 214.06345
MS$FOCUSED_ION: PRECURSOR_TYPE [M+H]+
PK$SPLASH: splash10-03di-0190000000-bd0fff49defde62ed0fa
PK$NUM_PEAK: 3
PK$PEAK: m/z int. rel.int.
  151.0301 37.31 56
  197.0357 42.32 63
  214.0599 671.4 999
//
