ACCESSION: MSBNK-RIKEN-PR300378
RECORD_TITLE: Gelsevirine; LC-ESI-QTOF; MS2
DATE: 2019.03.28
AUTHORS: Tetsuya Mori, Center for Sustainable Resource Science, RIKEN
LICENSE: CC BY-NC-SA
PUBLICATION: Tsugawa H., Nakabayashi R., Mori T., Yamada Y., Takahashi M., Rai A., Sugiyama R., Yamamoto H., Nakaya T., Yamazaki M., Kooke R., Bac-Molenaar JA., Oztolan-Erol N., Keurentjes JJB., Arita M., Saito K. (2019) "A cheminformatics approach to characterize metabolomes in stable-isotope-labeled organisms" Nature Methods 16(4):295-298. [doi:10.1038/s41592-019-0358-2]
COMMENT: registered in RIKEN PlaSMA
CH$NAME: Gelsevirine
CH$COMPOUND_CLASS: Gelsemium alkaloids
CH$FORMULA: C21H24N2O3
CH$EXACT_MASS: 352.434
CH$SMILES: CON1C(=O)[C@@]2([C@H]3[C@H]4[C@H]5CO[C@@H]2C[C@H]5[C@@]3(CN4C)C=C)C2=CC=CC=C12
CH$IUPAC: InChI=1S/C21H24N2O3/c1-4-20-11-22(2)17-12-10-26-16(9-14(12)20)21(18(17)20)13-7-5-6-8-15(13)23(25-3)19(21)24/h4-8,12,14,16-18H,1,9-11H2,2-3H3/t12-,14+,16+,17+,18-,20-,21-/m0/s1
CH$LINK: INCHIKEY SSSCMFCWHWCCEH-MTYPYGCKSA-N
AC$INSTRUMENT: LC, Waters Acquity UPLC System; MS, Waters Xevo G2 Q-Tof
AC$INSTRUMENT_TYPE: LC-ESI-QTOF
AC$MASS_SPECTROMETRY: MS_TYPE MS2
AC$MASS_SPECTROMETRY: ION_MODE POSITIVE
AC$MASS_SPECTROMETRY: COLLISION_ENERGY 6V
AC$MASS_SPECTROMETRY: DESOLVATION_GAS_FLOW 800/h
AC$MASS_SPECTROMETRY: DESOLVATION_TEMPERATURE 450 C
AC$MASS_SPECTROMETRY: IONIZATION ESI
AC$CHROMATOGRAPHY: CAPILLARY_VOLTAGE +3.00 kV
AC$CHROMATOGRAPHY: COLUMN_NAME Acquity bridged ethyl hybrid C18 (1.7 um, 2.1 mm * 100 mm, Waters)
AC$CHROMATOGRAPHY: COLUMN_TEMPERATURE 40 C
AC$CHROMATOGRAPHY: FLOW_GRADIENT A/B = (99.5%/0.5% at 0 min, 99.5%/0.5% at 0.1 min, 20%/80% at 10 min, 0.5%/99.5% at 10.1 min, 0.5%/99.5% at 12.0 min, 99.5%/0.5% at 12.1 min, 99.5%/0.5% at 15.0 min)
AC$CHROMATOGRAPHY: FLOW_RATE 0.3 ml/min at 0 min, 0.3 ml/min at 10 min, 0.4 ml/min at 10.1 min, 0.4 ml/min at 14.4 min, 0.3 ml/min at 14.5 min
AC$CHROMATOGRAPHY: RETENTION_TIME 4.0535
AC$CHROMATOGRAPHY: SOLVENT A water including 0.1% formic acid
AC$CHROMATOGRAPHY: SOLVENT B acetonitrile including 0.1% formic acid
MS$FOCUSED_ION: PRECURSOR_TYPE [M+H]+
MS$FOCUSED_ION: PRECURSOR_M/Z 353.1859691
PK$SPLASH: splash10-016r-1980000000-eb42fc03f58ae9eccad2
PK$NUM_PEAK: 510
PK$PEAK: m/z int. rel.int.
  54.19712 15.0 15
  55.05775 22.0 22
  67.04118 17.0 17
  68.04434 37.0 37
  68.04984 146.0 146
  70.04509 32.0 32
  70.05658 17.0 17
  70.06451 23.0 23
  70.13977 15.0 15
  71.0511 19.0 19
  74.05634 23.0 23
  77.0343 13.0 13
  77.04098 39.0 39
  78.03969 13.0 13
  79.05296 40.0 40
  79.05692 98.0 98
  80.06092 15.0 15
  81.02935 25.0 25
  81.03693 33.0 33
  81.0525 15.0 15
  81.0599 47.0 47
  81.06638 23.0 23
  81.07101 27.0 27
  82.05901 21.0 21
  82.06424 60.0 60
  82.0709 13.0 13
  83.04648 13.0 13
  83.07504 40.0 40
  83.34444 43.0 43
  84.08624 25.0 25
  88.06473 18.0 18
  91.05473 210.0 210
  92.06162 37.0 37
  92.13952 15.0 15
  93.05666 86.0 86
  93.06911 109.0 109
  94.06212 89.0 89
  94.06721 173.0 173
  94.07587 23.0 23
  95.06139 26.0 26
  95.07425 110.0 110
  96.07462 58.0 58
  96.07977 65.0 65
  97.08998 19.0 19
  98.68642 15.0 15
  100.07206 74.0 74
  100.13245 13.0 13
  100.83802 13.0 13
  103.03931 15.0 15
  103.04501 36.0 36
  103.05229 32.0 32
  104.0517 71.0 71
  104.06745 29.0 29
  105.03293 19.0 19
  105.06648 20.0 20
  105.07553 32.0 32
  106.04031 19.0 19
  106.06024 40.0 40
  106.0669 18.0 18
  107.06227 15.0 15
  107.07158 49.0 49
  107.07704 23.0 23
  108.07068 24.0 24
  108.08076 279.0 279
  108.66245 12.0 12
  109.08715 15.0 15
  109.0937 44.0 44
  110.08926 117.0 117
  110.09561 167.0 167
  111.09215 24.0 24
  111.09698 19.0 19
  114.98943 15.0 15
  115.05326 211.0 211
  115.31171 12.0 12
  116.04243 14.0 14
  116.0495 23.0 23
  116.0575 63.0 63
  117.04498 17.0 17
  117.05583 33.0 33
  117.07346 63.0 63
  118.05251 18.0 18
  118.06604 71.0 71
  119.06717 27.0 27
  120.06372 28.0 28
  120.08026 312.0 312
  121.07806 19.0 19
  121.08411 22.0 22
  122.06131 15.0 15
  122.09061 12.0 12
  123.06506 17.0 17
  124.06396 15.0 15
  124.0751 39.0 39
  127.05688 66.0 66
  128.03748 14.0 14
  128.04901 91.0 91
  128.06102 87.0 87
  129.06261 64.0 64
  129.0697 263.0 263
  130.05098 30.0 30
  130.06537 374.0 374
  130.08038 41.0 41
  131.04761 15.0 15
  131.06712 191.0 191
  131.08443 23.0 23
  132.04243 188.0 188
  132.0529 29.0 29
  132.06696 25.0 25
  132.07835 99.0 99
  132.08957 31.0 31
  132.8111 24.0 24
  133.04022 80.0 80
  133.047 41.0 41
  133.06447 17.0 17
  133.07639 37.0 37
  133.08646 90.0 90
  134.04887 24.0 24
  134.06209 12.0 12
  134.09058 29.0 29
  134.09677 28.0 28
  135.02802 24.0 24
  135.08766 15.0 15
  135.09943 15.0 15
  136.07631 15.0 15
  136.10483 23.0 23
  139.05057 60.0 60
  140.03926 31.0 31
  140.05185 39.0 39
  141.06693 18.0 18
  141.07272 49.0 49
  141.52664 12.0 12
  142.05786 16.0 16
  142.06763 57.0 57
  142.07883 21.0 21
  143.07143 87.0 87
  143.08884 15.0 15
  144.0455 35.0 35
  144.06993 63.0 63
  144.08113 186.0 186
  144.09123 24.0 24
  145.04135 18.0 18
  145.05379 45.0 45
  145.08749 20.0 20
  145.09471 21.0 21
  146.02304 41.0 41
  146.0562 24.0 24
  146.09914 159.0 159
  148.11105 31.0 31
  148.60179 18.0 18
  149.3813 14.0 14
  150.09171 50.0 50
  151.04993 57.0 57
  151.05969 13.0 13
  151.47125 13.0 13
  152.04898 20.0 20
  152.05821 33.0 33
  153.04472 22.0 22
  153.06192 47.0 47
  154.03775 20.0 20
  154.06305 246.0 246
  154.07524 39.0 39
  155.05 17.0 17
  155.05956 13.0 13
  155.07655 101.0 101
  156.03873 68.0 68
  156.05695 20.0 20
  156.07224 25.0 25
  156.08337 145.0 145
  157.04486 20.0 20
  157.0726 56.0 56
  157.08052 38.0 38
  157.09016 68.0 68
  157.95372 17.0 17
  158.05849 89.0 89
  158.08572 29.0 29
  158.09946 122.0 122
  159.03162 24.0 24
  159.093 20.0 20
  159.10442 36.0 36
  160.07245 34.0 34
  160.09418 36.0 36
  160.1048 36.0 36
  161.30817 28.0 28
  164.04803 23.0 23
  164.06017 17.0 17
  165.05029 70.0 70
  165.06557 161.0 161
  165.07915 12.0 12
  166.04364 18.0 18
  166.0529 74.0 74
  166.06474 1000.0 999
  167.05914 104.0 104
  167.07076 397.0 397
  167.0903 12.0 12
  168.05244 23.0 23
  168.05827 25.0 25
  168.06972 93.0 93
  168.08464 94.0 94
  169.07036 52.0 52
  169.08173 42.0 42
  169.09152 59.0 59
  170.0377 22.0 22
  170.06004 155.0 155
  170.08762 49.0 49
  170.1476 15.0 15
  171.06688 21.0 21
  171.09007 33.0 33
  172.05809 17.0 17
  172.07648 76.0 76
  172.09245 40.0 40
  172.1143 12.0 12
  173.44606 15.0 15
  174.12839 21.0 21
  174.35413 25.0 25
  174.36592 12.0 12
  175.0527 30.0 30
  176.06648 33.0 33
  177.05394 31.0 31
  177.06599 23.0 23
  177.07635 55.0 55
  177.09557 20.0 20
  178.05927 175.0 175
  178.06947 263.0 263
  179.05457 15.0 15
  179.06427 98.0 98
  179.07617 132.0 132
  179.09335 24.0 24
  180.08083 648.0 647
  180.93614 12.0 12
  181.08318 71.0 71
  181.09009 33.0 33
  181.09828 20.0 20
  182.06233 51.0 51
  182.08829 17.0 17
  182.10034 93.0 93
  182.62575 23.0 23
  183.05005 17.0 17
  183.06006 27.0 27
  183.07092 90.0 90
  183.09355 90.0 90
  184.05479 15.0 15
  184.07669 167.0 167
  184.08873 17.0 17
  184.11221 12.0 12
  185.06575 15.0 15
  185.08527 19.0 19
  185.10284 24.0 24
  186.08635 14.0 14
  187.08388 26.0 26
  188.05077 14.0 14
  189.07164 33.0 33
  190.05746 41.0 41
  190.06827 106.0 106
  190.07863 125.0 125
  191.03992 14.0 14
  191.05972 14.0 14
  191.07365 150.0 150
  191.09232 52.0 52
  192.05664 14.0 14
  192.07106 94.0 94
  192.08473 55.0 55
  193.08356 14.0 14
  193.09288 60.0 60
  193.10425 34.0 34
  194.04276 21.0 21
  194.05812 30.0 30
  194.09694 202.0 202
  195.0468 28.0 28
  195.06259 114.0 114
  195.07428 17.0 17
  195.09067 32.0 32
  195.09772 82.0 82
  196.02419 12.0 12
  196.065 46.0 46
  196.0759 126.0 126
  196.08664 17.0 17
  196.53474 12.0 12
  197.06749 28.0 28
  197.07668 23.0 23
  197.10857 45.0 45
  198.04138 13.0 13
  198.05519 20.0 20
  198.07819 17.0 17
  198.11467 15.0 15
  199.05476 15.0 15
  199.06754 17.0 17
  199.09021 15.0 15
  200.06055 31.0 31
  200.08472 22.0 22
  200.88129 12.0 12
  201.05482 17.0 17
  201.06395 15.0 15
  201.07265 20.0 20
  201.85754 22.0 22
  202.0594 45.0 45
  202.07463 223.0 223
  202.09039 21.0 21
  203.04713 26.0 26
  203.07051 108.0 108
  203.08255 175.0 175
  203.13223 13.0 13
  204.06987 105.0 105
  204.08044 419.0 419
  204.10162 24.0 24
  204.40871 20.0 20
  205.05811 15.0 15
  205.0782 62.0 62
  205.08783 178.0 178
  206.05978 17.0 17
  206.08058 38.0 38
  206.09596 273.0 273
  207.07971 22.0 22
  207.09216 132.0 132
  207.1068 64.0 64
  208.05887 23.0 23
  208.07437 169.0 169
  208.11131 57.0 57
  209.06281 20.0 20
  209.07536 74.0 74
  209.08456 49.0 49
  209.10092 25.0 25
  209.11046 19.0 19
  209.12553 31.0 31
  210.08534 118.0 118
  210.12987 12.0 12
  211.04814 20.0 20
  211.08525 515.0 514
  212.08009 14.0 14
  212.09317 51.0 51
  212.12994 20.0 20
  213.08562 17.0 17
  213.09747 12.0 12
  214.03302 23.0 23
  214.06189 31.0 31
  214.07864 20.0 20
  214.16759 17.0 17
  215.06465 35.0 35
  215.07881 244.0 244
  216.04475 13.0 13
  216.07649 242.0 242
  216.0881 127.0 127
  217.06853 87.0 87
  217.08809 566.0 565
  218.07005 20.0 20
  218.08621 114.0 114
  218.09856 111.0 111
  218.10913 41.0 41
  219.06233 76.0 76
  219.08327 21.0 21
  219.09615 138.0 138
  219.11578 13.0 13
  220.07277 116.0 116
  220.09663 108.0 108
  220.11609 27.0 27
  220.12453 49.0 49
  221.07672 37.0 37
  221.09778 28.0 28
  221.12196 17.0 17
  222.07988 52.0 52
  222.09137 60.0 60
  222.13783 18.0 18
  223.0878 28.0 28
  223.1299 14.0 14
  224.09808 22.0 22
  225.07098 42.0 42
  225.48091 30.0 30
  226.06461 41.0 41
  226.07629 39.0 39
  227.04733 31.0 31
  227.0661 463.0 463
  227.07803 209.0 209
  227.98169 13.0 13
  228.07808 668.0 667
  228.09184 101.0 101
  229.04266 15.0 15
  229.06311 33.0 33
  229.07314 33.0 33
  229.08583 80.0 80
  229.10255 19.0 19
  230.09677 265.0 265
  230.10719 88.0 88
  230.27371 13.0 13
  231.07567 21.0 21
  231.08759 141.0 141
  231.10698 84.0 84
  232.06435 20.0 20
  232.08194 47.0 47
  232.10745 96.0 96
  232.1167 36.0 36
  233.08223 84.0 84
  233.09412 72.0 72
  233.10777 74.0 74
  234.03615 15.0 15
  234.05965 12.0 12
  234.07448 20.0 20
  234.08972 116.0 116
  234.10732 63.0 63
  234.12447 99.0 99
  234.59535 23.0 23
  234.79568 12.0 12
  235.09196 183.0 183
  235.11603 20.0 20
  235.12526 42.0 42
  235.14017 30.0 30
  236.1071 55.0 55
  236.1178 31.0 31
  236.13406 16.0 16
  237.10291 103.0 103
  238.09138 18.0 18
  238.10234 17.0 17
  239.1046 17.0 17
  240.04251 20.0 20
  240.08188 175.0 175
  241.03462 35.0 35
  241.08713 399.0 399
  241.10051 108.0 108
  242.06165 64.0 64
  242.08784 253.0 253
  242.10004 382.0 382
  243.0838 104.0 104
  243.10034 36.0 36
  244.06584 25.0 25
  244.08244 17.0 17
  244.09752 41.0 41
  244.11597 122.0 122
  245.07111 16.0 16
  245.10324 34.0 34
  245.11267 35.0 35
  245.1209 44.0 44
  246.09155 65.0 65
  247.0778 28.0 28
  247.08995 16.0 16
  247.10608 22.0 22
  247.13371 49.0 49
  248.07335 32.0 32
  248.08942 66.0 66
  248.10306 113.0 113
  249.07568 26.0 26
  249.10301 15.0 15
  249.11543 18.0 18
  249.147 15.0 15
  250.11671 30.0 30
  251.11461 15.0 15
  251.30148 13.0 13
  253.09605 20.0 20
  253.10594 12.0 12
  253.38864 36.0 36
  254.07053 20.0 20
  254.0947 194.0 194
  255.09248 46.0 46
  256.08023 16.0 16
  256.10645 14.0 14
  257.09637 12.0 12
  257.10608 15.0 15
  257.11905 18.0 18
  258.07559 21.0 21
  258.09225 108.0 108
  258.36456 16.0 16
  259.09341 15.0 15
  259.12717 13.0 13
  259.18097 18.0 18
  259.20697 16.0 16
  260.09232 64.0 64
  260.10733 21.0 21
  260.11957 15.0 15
  260.15005 15.0 15
  261.0816 15.0 15
  261.10251 82.0 82
  261.13464 29.0 29
  261.23386 14.0 14
  262.08508 16.0 16
  262.10434 14.0 14
  263.10019 29.0 29
  263.11386 20.0 20
  263.13562 15.0 15
  264.11353 21.0 21
  264.13327 31.0 31
  265.04456 14.0 14
  266.09149 16.0 16
  267.12146 13.0 13
  269.11322 20.0 20
  269.12848 20.0 20
  270.09641 25.0 25
  272.11188 79.0 79
  273.10638 20.0 20
  274.08798 15.0 15
  274.10263 16.0 16
  274.1178 37.0 37
  274.41342 16.0 16
  275.11258 36.0 36
  275.12579 12.0 12
  276.12067 51.0 51
  280.1741 15.0 15
  280.77155 17.0 17
  281.17197 13.0 13
  287.11115 24.0 24
  289.13083 19.0 19
  289.13889 41.0 41
  289.36783 17.0 17
  290.13876 24.0 24
  290.8316 17.0 17
  291.13324 44.0 44
  291.15631 52.0 52
  292.14853 27.0 27
  301.11963 13.0 13
  303.14069 15.0 15
  304.15164 15.0 15
  307.13669 16.0 16
  321.14597 18.0 18
  322.17032 31.0 31
  353.18295 131.0 131
//
