ACCESSION: MSBNK-RIKEN-PR306674
RECORD_TITLE: Dihydrohesperetin-7-O-neohesperidoside; LC-ESI-QTOF; MS2
DATE: 2019.03.28
AUTHORS: Tetsuya Mori, Center for Sustainable Resource Science, RIKEN
LICENSE: CC BY-NC-SA
PUBLICATION: Tsugawa H., Nakabayashi R., Mori T., Yamada Y., Takahashi M., Rai A., Sugiyama R., Yamamoto H., Nakaya T., Yamazaki M., Kooke R., Bac-Molenaar JA., Oztolan-Erol N., Keurentjes JJB., Arita M., Saito K. (2019) "A cheminformatics approach to characterize metabolomes in stable-isotope-labeled organisms" Nature Methods 16(4):295-298. [doi:10.1038/s41592-019-0358-2]
COMMENT: registered in RIKEN PlaSMA
CH$NAME: Dihydrohesperetin-7-O-neohesperidoside
CH$COMPOUND_CLASS: Flavonoid O-glycosides
CH$FORMULA: C28H36O15
CH$EXACT_MASS: 612.581
CH$SMILES: COC1=C(O)C=C(CCC(=O)C2=C(O)C=C(OC3OC(CO)C(O)C(O)C3OC3OC(C)C(O)C(O)C3O)C=C2O)C=C1
CH$IUPAC: InChI=1S/C28H36O15/c1-11-21(34)23(36)25(38)27(40-11)43-26-24(37)22(35)19(10-29)42-28(26)41-13-8-16(32)20(17(33)9-13)14(30)5-3-12-4-6-18(39-2)15(31)7-12/h4,6-9,11,19,21-29,31-38H,3,5,10H2,1-2H3
CH$LINK: INCHIKEY ITVGXXMINPYUHD-UHFFFAOYSA-N
AC$INSTRUMENT: LC, Waters Acquity UPLC System; MS, Waters Xevo G2 Q-Tof
AC$INSTRUMENT_TYPE: LC-ESI-QTOF
AC$MASS_SPECTROMETRY: MS_TYPE MS2
AC$MASS_SPECTROMETRY: ION_MODE NEGATIVE
AC$MASS_SPECTROMETRY: COLLISION_ENERGY 6V
AC$MASS_SPECTROMETRY: DESOLVATION_GAS_FLOW 800/h
AC$MASS_SPECTROMETRY: DESOLVATION_TEMPERATURE 450 C
AC$MASS_SPECTROMETRY: IONIZATION ESI
AC$CHROMATOGRAPHY: CAPILLARY_VOLTAGE -2.75 kV
AC$CHROMATOGRAPHY: COLUMN_NAME Acquity bridged ethyl hybrid C18 (1.7 um, 2.1 mm * 100 mm, Waters)
AC$CHROMATOGRAPHY: COLUMN_TEMPERATURE 40 C
AC$CHROMATOGRAPHY: FLOW_GRADIENT A/B = (99.5%/0.5% at 0 min, 99.5%/0.5% at 0.1 min, 20%/80% at 10 min, 0.5%/99.5% at 10.1 min, 0.5%/99.5% at 12.0 min, 99.5%/0.5% at 12.1 min, 99.5%/0.5% at 15.0 min)
AC$CHROMATOGRAPHY: FLOW_RATE 0.3 ml/min at 0 min, 0.3 ml/min at 10 min, 0.4 ml/min at 10.1 min, 0.4 ml/min at 14.4 min, 0.3 ml/min at 14.5 min
AC$CHROMATOGRAPHY: RETENTION_TIME 5.07335
AC$CHROMATOGRAPHY: SOLVENT A water including 0.1% formic acid
AC$CHROMATOGRAPHY: SOLVENT B acetonitrile including 0.1% formic acid
MS$FOCUSED_ION: PRECURSOR_TYPE [M-H]-
MS$FOCUSED_ION: PRECURSOR_M/Z 611.19814404783
PK$SPLASH: splash10-0gdi-0940000000-b4505b53224c91aae6f9
PK$NUM_PEAK: 155
PK$PEAK: m/z int. rel.int.
  57.03304 6.0 6
  73.02927 7.0 7
  83.01272 7.0 7
  83.0167 6.0 6
  85.02694 5.0 5
  87.01013 6.0 6
  92.36564 13.0 13
  97.02319 6.0 6
  104.17304 9.0 9
  107.01619 19.0 19
  121.02741 28.0 28
  122.03394 14.0 14
  123.04388 28.0 28
  123.05088 6.0 6
  124.01562 79.0 79
  124.02581 7.0 7
  125.02361 895.0 894
  126.02397 53.0 53
  126.03688 10.0 10
  127.02779 8.0 8
  131.0365 8.0 8
  132.05711 9.0 9
  134.03645 12.0 12
  135.04869 37.0 37
  136.04846 5.0 5
  137.02028 5.0 5
  138.03055 29.0 29
  139.00117 9.0 9
  139.03674 13.0 13
  139.04533 6.0 6
  145.02364 5.0 5
  145.06786 9.0 9
  148.01529 10.0 10
  149.01686 7.0 7
  149.02567 15.0 15
  149.05754 15.0 15
  149.07007 6.0 6
  151.00259 175.0 175
  151.03212 7.0 7
  151.04124 8.0 8
  152.0103 247.0 247
  152.05241 6.0 6
  153.01381 48.0 48
  153.03146 15.0 15
  155.04555 9.0 9
  159.04622 7.0 7
  160.0545 12.0 12
  162.02666 5.0 5
  165.01588 47.0 47
  165.0247 19.0 19
  165.0881 5.0 5
  165.93613 8.0 8
  166.02609 1000.0 999
  167.02692 84.0 84
  167.03581 98.0 98
  168.03259 18.0 18
  172.08817 82.0 82
  173.05736 13.0 13
  173.06538 10.0 10
  173.089 27.0 27
  174.06215 18.0 18
  174.07675 10.0 10
  175.03737 9.0 9
  175.07088 7.0 7
  176.01115 8.0 8
  177.0188 21.0 21
  178.05032 8.0 8
  179.01955 7.0 7
  179.03247 56.0 56
  181.00636 5.0 5
  184.04994 19.0 19
  186.08771 7.0 7
  187.0304 6.0 6
  187.42307 5.0 5
  189.0139 8.0 8
  190.03088 19.0 19
  191.03732 18.0 18
  192.03146 7.0 7
  193.08153 8.0 8
  193.0878 27.0 27
  195.03534 7.0 7
  199.06863 7.0 7
  199.0787 5.0 5
  200.07713 16.0 16
  200.08487 60.0 60
  201.05043 7.0 7
  201.05801 6.0 6
  202.06311 103.0 103
  203.02953 9.0 9
  203.03812 15.0 15
  203.0656 44.0 44
  204.03787 102.0 102
  205.01248 6.0 6
  205.05151 7.0 7
  208.0351 11.0 11
  213.65611 5.0 5
  215.07515 17.0 17
  216.08147 13.0 13
  217.0795 27.0 27
  217.08804 42.0 42
  219.06126 62.0 62
  219.07117 62.0 62
  220.04614 7.0 7
  220.06894 7.0 7
  221.04933 7.0 7
  226.0598 41.0 41
  226.32733 6.0 6
  227.03221 5.0 5
  227.05504 5.0 5
  227.07681 7.0 7
  228.03374 8.0 8
  229.05014 13.0 13
  231.02589 8.0 8
  239.07472 5.0 5
  241.07301 11.0 11
  241.08707 24.0 24
  242.08044 7.0 7
  242.09387 7.0 7
  243.06665 6.0 6
  243.08115 5.0 5
  244.07623 245.0 245
  245.06673 18.0 18
  245.07915 77.0 77
  249.05434 6.0 6
  252.05144 9.0 9
  253.04677 8.0 8
  253.05678 6.0 6
  257.09 7.0 7
  259.02829 6.0 6
  259.0986 5.0 5
  261.08029 6.0 6
  269.04944 23.0 23
  270.04892 36.0 36
  270.06223 5.0 5
  271.04968 7.0 7
  271.0592 6.0 6
  272.05713 7.0 7
  284.14078 7.0 7
  285.07376 31.0 31
  286.09464 5.0 5
  287.08472 14.0 14
  288.06528 218.0 218
  289.06821 34.0 34
  294.03885 9.0 9
  294.05048 11.0 11
  295.05978 6.0 6
  296.05643 7.0 7
  299.1907 7.0 7
  303.08826 274.0 274
  304.08401 22.0 22
  304.09454 24.0 24
  308.04514 6.0 6
  315.08667 5.0 5
  327.08136 11.0 11
  330.06979 8.0 8
//
