ACCESSION: MSBNK-RIKEN-PR300716
RECORD_TITLE: Dehydrocorydaline; LC-ESI-QTOF; MS2
DATE: 2019.03.28
AUTHORS: Tetsuya Mori, Center for Sustainable Resource Science, RIKEN
LICENSE: CC BY-NC-SA
PUBLICATION: Tsugawa H., Nakabayashi R., Mori T., Yamada Y., Takahashi M., Rai A., Sugiyama R., Yamamoto H., Nakaya T., Yamazaki M., Kooke R., Bac-Molenaar JA., Oztolan-Erol N., Keurentjes JJB., Arita M., Saito K. (2019) "A cheminformatics approach to characterize metabolomes in stable-isotope-labeled organisms" Nature Methods 16(4):295-298. [doi:10.1038/s41592-019-0358-2]
COMMENT: registered in RIKEN PlaSMA
CH$NAME: Dehydrocorydaline
CH$COMPOUND_CLASS: Protoberberine alkaloids and derivatives
CH$FORMULA: [C22H24NO4]+
CH$EXACT_MASS: 366.437
CH$SMILES: COC1=C(OC)C2=C[N+]3=C(C(C)=C2C=C1)C1=CC(OC)=C(OC)C=C1CC3
CH$IUPAC: InChI=1S/C22H24NO4/c1-13-15-6-7-18(24-2)22(27-5)17(15)12-23-9-8-14-10-19(25-3)20(26-4)11-16(14)21(13)23/h6-7,10-12H,8-9H2,1-5H3/q+1
CH$LINK: INCHIKEY RFKQJTRWODZPHF-UHFFFAOYSA-N
AC$INSTRUMENT: LC, Waters Acquity UPLC System; MS, Waters Xevo G2 Q-Tof
AC$INSTRUMENT_TYPE: LC-ESI-QTOF
AC$MASS_SPECTROMETRY: MS_TYPE MS2
AC$MASS_SPECTROMETRY: ION_MODE POSITIVE
AC$MASS_SPECTROMETRY: COLLISION_ENERGY 6V
AC$MASS_SPECTROMETRY: DESOLVATION_GAS_FLOW 800/h
AC$MASS_SPECTROMETRY: DESOLVATION_TEMPERATURE 450 C
AC$MASS_SPECTROMETRY: IONIZATION ESI
AC$CHROMATOGRAPHY: CAPILLARY_VOLTAGE +3.00 kV
AC$CHROMATOGRAPHY: COLUMN_NAME Acquity bridged ethyl hybrid C18 (1.7 um, 2.1 mm * 100 mm, Waters)
AC$CHROMATOGRAPHY: COLUMN_TEMPERATURE 40 C
AC$CHROMATOGRAPHY: FLOW_GRADIENT A/B = (99.5%/0.5% at 0 min, 99.5%/0.5% at 0.1 min, 20%/80% at 10 min, 0.5%/99.5% at 10.1 min, 0.5%/99.5% at 12.0 min, 99.5%/0.5% at 12.1 min, 99.5%/0.5% at 15.0 min)
AC$CHROMATOGRAPHY: FLOW_RATE 0.3 ml/min at 0 min, 0.3 ml/min at 10 min, 0.4 ml/min at 10.1 min, 0.4 ml/min at 14.4 min, 0.3 ml/min at 14.5 min
AC$CHROMATOGRAPHY: RETENTION_TIME 5.194383
AC$CHROMATOGRAPHY: SOLVENT A water including 0.1% formic acid
AC$CHROMATOGRAPHY: SOLVENT B acetonitrile including 0.1% formic acid
MS$FOCUSED_ION: PRECURSOR_TYPE [M]+
MS$FOCUSED_ION: PRECURSOR_M/Z 366.1694361
PK$SPLASH: splash10-014i-0009000000-803e6b14546501bf9e7b
PK$NUM_PEAK: 32
PK$PEAK: m/z int. rel.int.
  264.09924 6.0 6
  278.12299 8.0 8
  292.103 15.0 15
  293.10593 6.0 6
  305.142 12.0 12
  306.11505 55.0 55
  307.12241 26.0 26
  308.12802 61.0 61
  309.13013 14.0 14
  318.11411 7.0 7
  319.11649 6.0 6
  321.14651 5.0 5
  322.14487 133.0 133
  323.14642 25.0 25
  332.0957 6.0 6
  334.10794 51.0 51
  334.13196 14.0 14
  334.14792 17.0 17
  334.16006 8.0 8
  335.11526 32.0 32
  335.15112 10.0 10
  336.12259 54.0 54
  337.12622 14.0 14
  350.09933 5.0 5
  350.13968 223.0 223
  351.14569 149.0 149
  352.15164 35.0 35
  353.15457 9.0 9
  366.10779 5.0 5
  366.12378 6.0 6
  366.1694 1000.0 999
  366.22406 32.0 32
//
