ACCESSION: MSBNK-RIKEN-PR303316
RECORD_TITLE: NP-000062(6); LC-ESI-QTOF; MS2
DATE: 2019.03.28
AUTHORS: Tetsuya Mori, Center for Sustainable Resource Science, RIKEN
LICENSE: CC BY-NC-SA
PUBLICATION: Tsugawa H., Nakabayashi R., Mori T., Yamada Y., Takahashi M., Rai A., Sugiyama R., Yamamoto H., Nakaya T., Yamazaki M., Kooke R., Bac-Molenaar JA., Oztolan-Erol N., Keurentjes JJB., Arita M., Saito K. (2019) "A cheminformatics approach to characterize metabolomes in stable-isotope-labeled organisms" Nature Methods 16(4):295-298. [doi:10.1038/s41592-019-0358-2]
COMMENT: registered in RIKEN PlaSMA
CH$NAME: NP-000062(6)
CH$COMPOUND_CLASS: Flavonoid 8-C-glycosides
CH$FORMULA: C26H28O14
CH$EXACT_MASS: 564.496
CH$SMILES: OC[C@@H]1OC([C@H](O)[C@H]1O)C1=C(O)C(C2O[C@H](CO)[C@@H](O)[C@H](O)[C@H]2O)=C2OC(=CC(=O)C2=C1O)C1=CC=C(O)C=C1
CH$IUPAC: InChI=1S/C26H28O14/c27-6-12-17(31)21(35)23(37)26(40-12)16-20(34)15(25-22(36)18(32)13(7-28)39-25)19(33)14-10(30)5-11(38-24(14)16)8-1-3-9(29)4-2-8/h1-5,12-13,17-18,21-23,25-29,31-37H,6-7H2/t12-,13+,17-,18+,21+,22-,23-,25?,26?/m1/s1
CH$LINK: INCHIKEY DRLZZQRQMWQRLZ-FBMRRHFKSA-N
AC$INSTRUMENT: LC, Waters Acquity UPLC System; MS, Waters Xevo G2 Q-Tof
AC$INSTRUMENT_TYPE: LC-ESI-QTOF
AC$MASS_SPECTROMETRY: MS_TYPE MS2
AC$MASS_SPECTROMETRY: ION_MODE POSITIVE
AC$MASS_SPECTROMETRY: COLLISION_ENERGY 6V
AC$MASS_SPECTROMETRY: DESOLVATION_GAS_FLOW 800/h
AC$MASS_SPECTROMETRY: DESOLVATION_TEMPERATURE 450 C
AC$MASS_SPECTROMETRY: IONIZATION ESI
AC$CHROMATOGRAPHY: CAPILLARY_VOLTAGE +3.00 kV
AC$CHROMATOGRAPHY: COLUMN_NAME Acquity bridged ethyl hybrid C18 (1.7 um, 2.1 mm * 100 mm, Waters)
AC$CHROMATOGRAPHY: COLUMN_TEMPERATURE 40 C
AC$CHROMATOGRAPHY: FLOW_GRADIENT A/B = (99.5%/0.5% at 0 min, 99.5%/0.5% at 0.1 min, 20%/80% at 10 min, 0.5%/99.5% at 10.1 min, 0.5%/99.5% at 12.0 min, 99.5%/0.5% at 12.1 min, 99.5%/0.5% at 15.0 min)
AC$CHROMATOGRAPHY: FLOW_RATE 0.3 ml/min at 0 min, 0.3 ml/min at 10 min, 0.4 ml/min at 10.1 min, 0.4 ml/min at 14.4 min, 0.3 ml/min at 14.5 min
AC$CHROMATOGRAPHY: RETENTION_TIME 3.6386
AC$CHROMATOGRAPHY: SOLVENT A water including 0.1% formic acid
AC$CHROMATOGRAPHY: SOLVENT B acetonitrile including 0.1% formic acid
MS$FOCUSED_ION: PRECURSOR_TYPE [M+H]+
MS$FOCUSED_ION: PRECURSOR_M/Z 565.155182
PK$SPLASH: splash10-004j-0009600000-84efa3a636adc1f5d7d2
PK$NUM_PEAK: 337
PK$PEAK: m/z int. rel.int.
  85.02605 21.0 21
  86.03288 6.0 6
  103.03849 5.0 5
  121.02761 9.0 9
  145.0267 21.0 21
  201.05833 8.0 8
  203.38359 6.0 6
  208.96388 11.0 11
  211.205 9.0 9
  223.29825 11.0 11
  231.4623 9.0 9
  235.54182 6.0 6
  253.21437 11.0 11
  255.03714 12.0 12
  261.42899 17.0 17
  275.19516 7.0 7
  276.87393 11.0 11
  281.84058 13.0 13
  283.06503 8.0 8
  292.07391 10.0 10
  294.05493 33.0 33
  295.0358 9.0 9
  295.0578 153.0 153
  295.0755 56.0 56
  296.07059 7.0 7
  297.06332 10.0 10
  300.67725 7.0 7
  307.04129 22.0 22
  307.06403 179.0 179
  308.06857 41.0 41
  309.0795 40.0 40
  311.05011 12.0 12
  312.06216 7.0 7
  312.21707 5.0 5
  313.05682 6.0 6
  313.06998 7.0 7
  314.07809 6.0 6
  318.99988 6.0 6
  319.05966 5.0 5
  319.07104 9.0 9
  320.0687 6.0 6
  320.08633 9.0 9
  321.05746 10.0 10
  321.08197 21.0 21
  322.0408 11.0 11
  322.08139 9.0 9
  322.09259 14.0 14
  323.05231 19.0 19
  323.06989 9.0 9
  323.09207 6.0 6
  324.53189 6.0 6
  325.05145 53.0 53
  325.07584 430.0 430
  325.70813 6.0 6
  326.02441 7.0 7
  326.06375 28.0 28
  326.0777 133.0 133
  327.06006 7.0 7
  327.07721 18.0 18
  328.08029 5.0 5
  333.07751 36.0 36
  333.36801 5.0 5
  335.05597 25.0 25
  335.08231 28.0 28
  335.09021 12.0 12
  335.10776 23.0 23
  336.04822 13.0 13
  336.70508 5.0 5
  337.07156 299.0 299
  338.07043 67.0 67
  338.0903 25.0 25
  338.23868 13.0 13
  339.07074 8.0 8
  339.08832 6.0 6
  341.81824 6.0 6
  343.08899 13.0 13
  343.10928 6.0 6
  344.11771 6.0 6
  346.09613 13.0 13
  347.09634 30.0 30
  348.07663 19.0 19
  348.09024 7.0 7
  348.11404 15.0 15
  348.96506 5.0 5
  349.03568 19.0 19
  349.07147 279.0 279
  349.09021 42.0 42
  350.06464 36.0 36
  350.07602 67.0 67
  351.05966 13.0 13
  351.07858 35.0 35
  351.09457 67.0 67
  351.13547 7.0 7
  352.07626 8.0 8
  353.00342 7.0 7
  353.0708 9.0 9
  355.07599 62.0 62
  355.08606 110.0 110
  356.07855 23.0 23
  357.11954 11.0 11
  360.00699 8.0 8
  361.06964 146.0 146
  361.10934 8.0 8
  361.9697 6.0 6
  362.06863 18.0 18
  362.978 8.0 8
  363.0874 41.0 41
  363.09659 16.0 16
  364.08438 19.0 19
  365.07962 16.0 16
  365.09207 33.0 33
  365.11404 7.0 7
  366.10617 16.0 16
  367.06448 13.0 13
  367.08109 27.0 27
  367.09793 10.0 10
  368.07999 12.0 12
  369.71188 7.0 7
  371.68454 5.0 5
  373.05466 13.0 13
  373.08197 18.0 18
  373.10193 6.0 6
  374.0278 6.0 6
  374.08701 9.0 9
  375.09305 52.0 52
  376.08694 26.0 26
  376.10193 21.0 21
  377.07269 20.0 20
  377.09335 7.0 7
  378.10416 8.0 8
  379.02243 7.0 7
  379.03534 7.0 7
  379.08365 1000.0 999
  379.12628 6.0 6
  379.20404 9.0 9
  379.98138 7.0 7
  380.08679 271.0 271
  380.11649 8.0 8
  381.01398 7.0 7
  381.09018 51.0 51
  381.49661 6.0 6
  381.51346 6.0 6
  383.05051 7.0 7
  384.09418 12.0 12
  385.05136 16.0 16
  385.07367 21.0 21
  385.09125 43.0 43
  386.06088 8.0 8
  387.10123 7.0 7
  389.06982 22.0 22
  389.0921 17.0 17
  389.10706 21.0 21
  391.08234 176.0 176
  391.10483 22.0 22
  391.12933 7.0 7
  391.39963 7.0 7
  391.69934 5.0 5
  392.06668 14.0 14
  392.08701 75.0 75
  392.11053 9.0 9
  392.72137 6.0 6
  393.08426 9.0 9
  394.07501 9.0 9
  394.10101 14.0 14
  394.11871 12.0 12
  395.07178 7.0 7
  395.08334 16.0 16
  395.09683 16.0 16
  395.26978 6.0 6
  397.0946 458.0 458
  398.08469 29.0 29
  398.10062 58.0 58
  398.56531 7.0 7
  399.09549 29.0 29
  400.07071 6.0 6
  400.09943 8.0 8
  400.11493 9.0 9
  400.78088 8.0 8
  401.09982 7.0 7
  401.11636 21.0 21
  402.1073 9.0 9
  402.32858 11.0 11
  403.04117 12.0 12
  403.06686 72.0 72
  403.08322 132.0 132
  403.09747 72.0 72
  403.15363 6.0 6
  404.005 7.0 7
  404.06299 7.0 7
  404.082 45.0 45
  404.10645 24.0 24
  405.03952 17.0 17
  405.06766 21.0 21
  405.09485 33.0 33
  405.11703 6.0 6
  406.08878 7.0 7
  406.12671 9.0 9
  406.70056 6.0 6
  407.103 11.0 11
  408.9191 8.0 8
  409.09494 260.0 260
  410.00253 8.0 8
  410.0997 70.0 70
  411.07541 9.0 9
  411.10269 13.0 13
  412.47632 14.0 14
  414.55939 7.0 7
  415.05099 10.0 10
  415.07303 17.0 17
  415.1069 29.0 29
  416.07004 5.0 5
  416.09918 19.0 19
  416.96329 5.0 5
  417.09933 12.0 12
  419.04294 6.0 6
  419.1004 26.0 26
  419.11285 30.0 30
  420.11154 16.0 16
  420.14078 11.0 11
  420.81113 6.0 6
  421.06796 8.0 8
  421.09464 149.0 149
  421.12845 11.0 11
  422.0903 52.0 52
  422.11417 13.0 13
  423.07153 8.0 8
  423.09988 6.0 6
  424.11319 7.0 7
  426.56323 9.0 9
  427.06027 10.0 10
  427.09113 103.0 103
  427.10663 101.0 101
  427.12262 48.0 48
  428.06714 14.0 14
  428.09061 7.0 7
  428.11462 30.0 30
  428.12949 18.0 18
  429.08221 33.0 33
  429.10181 52.0 52
  429.12003 13.0 13
  431.09009 6.0 6
  433.01367 8.0 8
  433.05835 42.0 42
  433.08533 149.0 149
  433.09949 190.0 190
  434.04428 7.0 7
  434.06992 11.0 11
  434.09561 76.0 76
  434.11069 28.0 28
  434.95822 6.0 6
  435.08752 24.0 24
  435.13626 6.0 6
  437.12567 11.0 11
  437.39774 8.0 8
  439.10693 132.0 132
  440.10202 6.0 6
  440.11459 12.0 12
  441.10831 6.0 6
  442.0806 9.0 9
  445.0773 83.0 83
  445.09723 153.0 153
  445.12158 29.0 29
  446.06729 9.0 9
  446.09189 38.0 38
  446.1127 16.0 16
  447.07162 10.0 10
  447.08762 19.0 19
  447.10986 19.0 19
  447.15182 6.0 6
  448.12534 8.0 8
  449.09686 11.0 11
  451.03366 8.0 8
  451.0867 61.0 61
  451.10773 103.0 103
  451.16403 9.0 9
  452.10553 48.0 48
  452.12494 16.0 16
  453.00302 14.0 14
  453.11331 5.0 5
  454.11542 8.0 8
  456.38263 6.0 6
  456.7709 6.0 6
  457.09677 132.0 132
  457.13428 27.0 27
  458.07709 8.0 8
  458.09915 64.0 64
  459.07986 16.0 16
  459.10046 7.0 7
  459.20993 5.0 5
  462.66394 6.0 6
  463.10364 33.0 33
  464.1033 10.0 10
  464.13074 18.0 18
  465.10321 6.0 6
  465.11255 12.0 12
  466.15155 12.0 12
  468.12024 7.0 7
  469.07553 12.0 12
  469.11093 83.0 83
  470.10925 20.0 20
  475.0795 32.0 32
  475.10632 127.0 127
  475.14893 5.0 5
  476.09344 28.0 28
  477.11249 7.0 7
  477.13126 5.0 5
  477.21945 6.0 6
  481.11356 22.0 22
  481.1319 11.0 11
  483.11682 11.0 11
  483.146 6.0 6
  493.09384 23.0 23
  493.11761 116.0 116
  493.13748 21.0 21
  494.08945 6.0 6
  494.12567 11.0 11
  494.14859 6.0 6
  494.22586 5.0 5
  495.11887 26.0 26
  495.14081 5.0 5
  500.03848 6.0 6
  508.96576 11.0 11
  511.08023 8.0 8
  511.13483 93.0 93
  512.06842 7.0 7
  512.10126 12.0 12
  512.11908 13.0 13
  512.14331 8.0 8
  513.12933 9.0 9
  529.10956 8.0 8
  529.12732 11.0 11
  529.14661 13.0 13
  530.12451 22.0 22
  530.14703 9.0 9
  534.74097 6.0 6
  548.14722 8.0 8
  558.2359 8.0 8
//
