ACCESSION: MSBNK-RIKEN-PR303449
RECORD_TITLE: NP-000286(7); LC-ESI-QTOF; MS2
DATE: 2019.03.28
AUTHORS: Tetsuya Mori, Center for Sustainable Resource Science, RIKEN
LICENSE: CC BY-NC-SA
PUBLICATION: Tsugawa H., Nakabayashi R., Mori T., Yamada Y., Takahashi M., Rai A., Sugiyama R., Yamamoto H., Nakaya T., Yamazaki M., Kooke R., Bac-Molenaar JA., Oztolan-Erol N., Keurentjes JJB., Arita M., Saito K. (2019) "A cheminformatics approach to characterize metabolomes in stable-isotope-labeled organisms" Nature Methods 16(4):295-298. [doi:10.1038/s41592-019-0358-2]
COMMENT: registered in RIKEN PlaSMA
CH$NAME: NP-000286(7)
CH$COMPOUND_CLASS: Flavonoid C-glycosides
CH$FORMULA: C21H20O11
CH$EXACT_MASS: 448.38
CH$SMILES: OC[C@H]1O[C@H]([C@H](O)[C@@H](O)[C@@H]1O)C1=C(O)C2=C(OC(=CC2=O)C2=CC(O)=C(O)C=C2)C=C1O
CH$IUPAC: InChI=1S/C21H20O11/c22-6-14-17(27)19(29)20(30)21(32-14)16-11(26)5-13-15(18(16)28)10(25)4-12(31-13)7-1-2-8(23)9(24)3-7/h1-5,14,17,19-24,26-30H,6H2/t14-,17-,19+,20-,21+/m1/s1
CH$LINK: INCHIKEY ODBRNZZJSYPIDI-VJXVFPJBSA-N
AC$INSTRUMENT: LC, Waters Acquity UPLC System; MS, Waters Xevo G2 Q-Tof
AC$INSTRUMENT_TYPE: LC-ESI-QTOF
AC$MASS_SPECTROMETRY: MS_TYPE MS2
AC$MASS_SPECTROMETRY: ION_MODE POSITIVE
AC$MASS_SPECTROMETRY: COLLISION_ENERGY 6V
AC$MASS_SPECTROMETRY: DESOLVATION_GAS_FLOW 800/h
AC$MASS_SPECTROMETRY: DESOLVATION_TEMPERATURE 450 C
AC$MASS_SPECTROMETRY: IONIZATION ESI
AC$CHROMATOGRAPHY: CAPILLARY_VOLTAGE +3.00 kV
AC$CHROMATOGRAPHY: COLUMN_NAME Acquity bridged ethyl hybrid C18 (1.7 um, 2.1 mm * 100 mm, Waters)
AC$CHROMATOGRAPHY: COLUMN_TEMPERATURE 40 C
AC$CHROMATOGRAPHY: FLOW_GRADIENT A/B = (99.5%/0.5% at 0 min, 99.5%/0.5% at 0.1 min, 20%/80% at 10 min, 0.5%/99.5% at 10.1 min, 0.5%/99.5% at 12.0 min, 99.5%/0.5% at 12.1 min, 99.5%/0.5% at 15.0 min)
AC$CHROMATOGRAPHY: FLOW_RATE 0.3 ml/min at 0 min, 0.3 ml/min at 10 min, 0.4 ml/min at 10.1 min, 0.4 ml/min at 14.4 min, 0.3 ml/min at 14.5 min
AC$CHROMATOGRAPHY: RETENTION_TIME 3.589417
AC$CHROMATOGRAPHY: SOLVENT A water including 0.1% formic acid
AC$CHROMATOGRAPHY: SOLVENT B acetonitrile including 0.1% formic acid
MS$FOCUSED_ION: PRECURSOR_TYPE [M+H]+
MS$FOCUSED_ION: PRECURSOR_M/Z 449.1078379
PK$SPLASH: splash10-0gba-0953000000-8419bd64006f6583c29e
PK$NUM_PEAK: 231
PK$PEAK: m/z int. rel.int.
  80.06118 19.0 19
  82.04633 32.0 32
  85.02791 16.0 16
  92.06474 23.0 23
  93.03233 17.0 17
  95.01066 26.0 26
  95.02155 22.0 22
  96.05441 16.0 16
  96.06303 28.0 28
  96.15479 17.0 17
  102.30315 21.0 21
  103.05209 16.0 16
  104.29385 19.0 19
  105.03159 85.0 85
  107.0174 37.0 37
  109.02878 97.0 97
  110.03531 21.0 21
  111.04145 22.0 22
  117.03356 28.0 28
  119.05447 19.0 19
  121.02647 116.0 116
  121.06487 21.0 21
  122.03999 101.0 101
  122.99812 21.0 21
  123.00375 46.0 46
  123.01304 28.0 28
  124.0103 51.0 51
  125.00793 31.0 31
  132.05533 19.0 19
  134.02737 50.0 50
  134.03748 47.0 47
  135.04193 310.0 310
  136.04883 62.0 62
  137.01004 19.0 19
  137.02426 339.0 339
  138.0231 61.0 61
  138.03041 19.0 19
  140.04247 28.0 28
  141.06592 25.0 25
  143.01414 51.0 51
  145.06111 18.0 18
  146.03236 23.0 23
  146.98132 30.0 30
  147.02747 35.0 35
  147.0423 68.0 68
  148.04984 35.0 35
  149.02019 137.0 137
  149.02815 160.0 160
  150.02744 63.0 63
  150.03505 30.0 30
  153.02554 39.0 39
  154.0296 16.0 16
  155.09291 16.0 16
  158.03378 18.0 18
  159.04872 37.0 37
  160.05118 24.0 24
  160.06181 26.0 26
  161.02084 179.0 179
  162.01834 17.0 17
  162.03171 20.0 20
  162.039 16.0 16
  163.02605 41.0 41
  163.03381 54.0 54
  163.04103 18.0 18
  164.01593 34.0 34
  164.04591 18.0 18
  164.05705 23.0 23
  164.99425 41.0 41
  165.01926 1000.0 999
  165.99596 28.0 28
  166.00674 22.0 22
  166.0218 381.0 381
  166.04344 38.0 38
  167.02861 138.0 138
  167.0338 65.0 65
  171.42039 27.0 27
  173.02336 16.0 16
  175.50194 29.0 29
  176.06693 27.0 27
  177.01903 86.0 86
  177.0495 20.0 20
  177.05995 28.0 28
  178.02759 61.0 61
  179.03455 42.0 42
  179.0777 20.0 20
  179.09018 18.0 18
  179.9989 20.0 20
  180.00722 28.0 28
  180.04167 37.0 37
  180.05659 16.0 16
  180.07654 17.0 17
  180.99219 29.0 29
  181.01329 34.0 34
  181.0708 28.0 28
  186.34845 21.0 21
  187.03949 94.0 94
  188.04355 34.0 34
  188.94798 17.0 17
  189.01578 37.0 37
  189.02293 61.0 61
  189.05997 47.0 47
  190.02802 47.0 47
  190.07108 17.0 17
  190.99875 39.0 39
  191.02005 28.0 28
  191.03 55.0 55
  191.04573 17.0 17
  191.07893 25.0 25
  192.00996 22.0 22
  192.04121 32.0 32
  193.6763 40.0 40
  196.0386 60.0 60
  199.04181 17.0 17
  202.05812 28.0 28
  203.03636 60.0 60
  204.08417 39.0 39
  206.06087 31.0 31
  209.06596 39.0 39
  214.07083 20.0 20
  215.02827 42.0 42
  215.0381 47.0 47
  215.06168 27.0 27
  215.20543 17.0 17
  216.0466 30.0 30
  219.02243 32.0 32
  225.05087 29.0 29
  226.05788 47.0 47
  226.06737 25.0 25
  228.08034 23.0 23
  229.01205 20.0 20
  231.03809 16.0 16
  232.0257 26.0 26
  235.07732 33.0 33
  237.04843 24.0 24
  238.59605 27.0 27
  239.03438 36.0 36
  240.09866 18.0 18
  240.50525 17.0 17
  241.05139 17.0 17
  242.05563 16.0 16
  243.06357 43.0 43
  243.07445 15.0 15
  243.48381 19.0 19
  244.04587 20.0 20
  244.07396 25.0 25
  245.04742 65.0 65
  247.05307 24.0 24
  252.07353 24.0 24
  253.0294 23.0 23
  254.04742 32.0 32
  255.07292 18.0 18
  256.06955 24.0 24
  258.04089 20.0 20
  258.04803 52.0 52
  258.06134 19.0 19
  259.05722 16.0 16
  261.20718 27.0 27
  269.07544 24.0 24
  270.05316 18.0 18
  271.04767 18.0 18
  271.06378 44.0 44
  271.98883 32.0 32
  272.07126 35.0 35
  278.06921 35.0 35
  281.04764 16.0 16
  282.09109 40.0 40
  283.05423 121.0 121
  283.10513 17.0 17
  284.05267 65.0 65
  284.06833 124.0 124
  284.41089 27.0 27
  285.06863 21.0 21
  286.01053 22.0 22
  286.04855 52.0 52
  286.06012 37.0 37
  287.03751 18.0 18
  287.05551 65.0 65
  288.06589 39.0 39
  288.10535 25.0 25
  289.05139 26.0 26
  293.03799 52.0 52
  295.06741 102.0 102
  296.07321 27.0 27
  297.07095 69.0 69
  297.08731 20.0 20
  298.07523 51.0 51
  298.34766 16.0 16
  299.04605 222.0 222
  299.06036 555.0 554
  299.07977 57.0 57
  300.01276 23.0 23
  300.04602 67.0 67
  300.06696 497.0 497
  301.02945 18.0 18
  301.05289 40.0 40
  301.06879 201.0 201
  302.07562 44.0 44
  303.08096 18.0 18
  303.21521 28.0 28
  303.60455 18.0 18
  308.06027 26.0 26
  308.07056 30.0 30
  310.10089 51.0 51
  311.05896 57.0 57
  311.09479 22.0 22
  312.05704 99.0 99
  312.07233 30.0 30
  312.10648 20.0 20
  313.07208 29.0 29
  313.08942 19.0 19
  314.06528 17.0 17
  319.06033 23.0 23
  321.07962 55.0 55
  324.05588 22.0 22
  324.06625 23.0 23
  325.03842 20.0 20
  325.07434 238.0 238
  326.05368 18.0 18
  326.07138 64.0 64
  327.08359 56.0 56
  329.05319 17.0 17
  329.1619 35.0 35
  337.05682 27.0 27
  339.08942 67.0 67
  340.09079 20.0 20
  341.11734 26.0 26
  349.05508 19.0 19
  353.0611 27.0 27
  353.07452 17.0 17
  361.88486 56.0 56
  368.08319 34.0 34
//
