ACCESSION: MSBNK-RIKEN-PR304211
RECORD_TITLE: Indole-3-acetyl-L-tryptophan; LC-ESI-QTOF; MS2
DATE: 2019.03.28
AUTHORS: Tetsuya Mori, Center for Sustainable Resource Science, RIKEN
LICENSE: CC BY-NC-SA
PUBLICATION: Tsugawa H., Nakabayashi R., Mori T., Yamada Y., Takahashi M., Rai A., Sugiyama R., Yamamoto H., Nakaya T., Yamazaki M., Kooke R., Bac-Molenaar JA., Oztolan-Erol N., Keurentjes JJB., Arita M., Saito K. (2019) "A cheminformatics approach to characterize metabolomes in stable-isotope-labeled organisms" Nature Methods 16(4):295-298. [doi:10.1038/s41592-019-0358-2]
COMMENT: registered in RIKEN PlaSMA
CH$NAME: Indole-3-acetyl-L-tryptophan
CH$COMPOUND_CLASS: N-acyl-alpha amino acids
CH$FORMULA: C21H19N3O3
CH$EXACT_MASS: 361.401
CH$SMILES: OC(CC1=CNC2=CC=CC=C12)=NC(CC1=CNC2=CC=CC=C12)C(O)=O
CH$IUPAC: InChI=1S/C21H19N3O3/c25-20(10-14-12-23-18-8-4-2-6-16(14)18)24-19(21(26)27)9-13-11-22-17-7-3-1-5-15(13)17/h1-8,11-12,19,22-23H,9-10H2,(H,24,25)(H,26,27)
CH$LINK: INCHIKEY FOSPCYZZRVNHJS-UHFFFAOYSA-N
AC$INSTRUMENT: LC, Waters Acquity UPLC System; MS, Waters Xevo G2 Q-Tof
AC$INSTRUMENT_TYPE: LC-ESI-QTOF
AC$MASS_SPECTROMETRY: MS_TYPE MS2
AC$MASS_SPECTROMETRY: ION_MODE POSITIVE
AC$MASS_SPECTROMETRY: COLLISION_ENERGY 6V
AC$MASS_SPECTROMETRY: DESOLVATION_GAS_FLOW 800/h
AC$MASS_SPECTROMETRY: DESOLVATION_TEMPERATURE 450 C
AC$MASS_SPECTROMETRY: IONIZATION ESI
AC$CHROMATOGRAPHY: CAPILLARY_VOLTAGE +3.00 kV
AC$CHROMATOGRAPHY: COLUMN_NAME Acquity bridged ethyl hybrid C18 (1.7 um, 2.1 mm * 100 mm, Waters)
AC$CHROMATOGRAPHY: COLUMN_TEMPERATURE 40 C
AC$CHROMATOGRAPHY: FLOW_GRADIENT A/B = (99.5%/0.5% at 0 min, 99.5%/0.5% at 0.1 min, 20%/80% at 10 min, 0.5%/99.5% at 10.1 min, 0.5%/99.5% at 12.0 min, 99.5%/0.5% at 12.1 min, 99.5%/0.5% at 15.0 min)
AC$CHROMATOGRAPHY: FLOW_RATE 0.3 ml/min at 0 min, 0.3 ml/min at 10 min, 0.4 ml/min at 10.1 min, 0.4 ml/min at 14.4 min, 0.3 ml/min at 14.5 min
AC$CHROMATOGRAPHY: RETENTION_TIME 6.191566
AC$CHROMATOGRAPHY: SOLVENT A water including 0.1% formic acid
AC$CHROMATOGRAPHY: SOLVENT B acetonitrile including 0.1% formic acid
MS$FOCUSED_ION: PRECURSOR_TYPE [M+H]+
MS$FOCUSED_ION: PRECURSOR_M/Z 362.1499179
PK$SPLASH: splash10-001i-0900000000-d5361f53c8a1025f84d0
PK$NUM_PEAK: 33
PK$PEAK: m/z int. rel.int.
  77.03987 7.0 7
  91.05313 9.0 9
  103.05333 70.0 70
  103.06262 6.0 6
  115.04678 13.0 13
  115.05482 28.0 28
  117.06146 8.0 8
  117.07314 7.0 7
  118.05862 49.0 49
  118.06709 88.0 88
  119.06935 10.0 10
  127.05265 13.0 13
  128.04964 36.0 36
  130.06505 1000.0 999
  131.06804 150.0 150
  132.0685 8.0 8
  132.07822 59.0 59
  132.08618 17.0 17
  142.05246 7.0 7
  142.06551 42.0 42
  143.07256 47.0 47
  144.07239 6.0 6
  144.08083 29.0 29
  146.05859 93.0 93
  147.05478 11.0 11
  155.07491 6.0 6
  156.0636 7.0 7
  157.07504 29.0 29
  159.08757 23.0 23
  170.05803 48.0 48
  171.06839 11.0 11
  185.06393 6.0 6
  257.10059 7.0 7
//
