ACCESSION: MSBNK-CPU_Acyl-PAs-000004		
RECORD_TITLE:Serine_acylated_putrescine; ESI-QTOF; MS2; CE 20 V; [M+H]+		
DATE: 2025.04.16		
"AUTHORS: Yiran Zhang, Qinwen Xiao, Xinyao Zhou, Yan Li, Shilin Wang, Xinyi Zhou, Ruoxun Chen, Ying Zhang, Meiyu Gao, Fengguo Xu, Pei Zhang."		
LICENSE: CC BY		
CH$NAME: Serine_acylated_putrescine		
CH$COMPOUND_CLASS: Natural Product; Acylated Polyamines		
CH$FORMULA: C7H17N3O2		
CH$EXACT_MASS: 175.1321		
CH$SMILES: N[C@@H](CO)C(NCCCCN)=O		
"CH$IUPAC: InChI=1S/C7H17N3O2/c8-3-1-2-4-10-7(12)6(9)5-11/h6,11H,1-5,8-9H2,(H,10,12)/t6-/m0/s1"		
CH$LINK: CHEBI 234021		
CH$LINK: INCHIKEY JFCUIDUMNNHMIK-LURJTMIESA-N		
"AC$INSTRUMENT: 1290 HPLC, Agilent; Q-TOF, Agilent."		
AC$INSTRUMENT_TYPE: ESI-QTOF		
AC$MASS_SPECTROMETRY: MS_TYPE MS2		
AC$MASS_SPECTROMETRY: ION_MODE POSITIVE		
AC$MASS_SPECTROMETRY: IONIZATION ESI		
AC$MASS_SPECTROMETRY: COLLISION_ENERGY 20 V		
MS$FOCUSED_ION: PRECURSOR_M/Z 176.1399		
MS$FOCUSED_ION: PRECURSOR_TYPE [M+H]+		
PK$SPLASH: splash10-03k9-9000000000-28f2d2be5539a7478d06		
PK$NUM_PEAK: 7		
PK$PEAK: m/z int. rel.int.		
55.0541	1.09	11 
60.0445	100	999 
61.0478	3.04	30 
72.0808	71.06	711 
73.0841	4.02	40 
89.1068	1.59	16 
159.1123	2.37	24 
