ACCESSION: MSBNK-CPU_Acyl-PAs-000005		
RECORD_TITLE:Succinate_acylated_putrescine; ESI-QTOF; MS2; CE 20 V; [M+H]+		
DATE: 2025.04.16		
"AUTHORS: Yiran Zhang, Qinwen Xiao, Xinyao Zhou, Yan Li, Shilin Wang, Xinyi Zhou, Ruoxun Chen, Ying Zhang, Meiyu Gao, Fengguo Xu, Pei Zhang."		
LICENSE: CC BY		
CH$NAME: Succinate_acylated_putrescine		
CH$COMPOUND_CLASS: Natural Product; Acylated Polyamines		
CH$FORMULA: C8H16N2O3		
CH$EXACT_MASS: 188.1161		
CH$SMILES:O=C(O)CCC(NCCCCN)=O		
"CH$IUPAC: InChI=1S/C8H16N2O3/c9-5-1-2-6-10-7(11)3-4-8(12)13/h1-6,9H2,(H,10,11)(H,12,13)"		
CH$LINK: CHEBI 234024		
CH$LINK: INCHIKEY POVGBHBZEFNYOV-UHFFFAOYSA-N		
"AC$INSTRUMENT: 1290 HPLC, Agilent; Q-TOF, Agilent."		
AC$INSTRUMENT_TYPE: ESI-QTOF		
AC$MASS_SPECTROMETRY: MS_TYPE MS2		
AC$MASS_SPECTROMETRY: ION_MODE POSITIVE		
AC$MASS_SPECTROMETRY: IONIZATION ESI		
AC$MASS_SPECTROMETRY: COLLISION_ENERGY 20 V		
MS$FOCUSED_ION: PRECURSOR_M/Z 189.1232		
MS$FOCUSED_ION: PRECURSOR_TYPE [M+H]+		
PK$SPLASH: splash10-0fk9-9400000000-6b6bf97d626dcf62dbca		
PK$NUM_PEAK: 22		
PK$PEAK: m/z int. rel.int.		
55.0174	4.09	41 
55.0543	8.61	86 
56.057	1.27	13 
72.0441	3	30 
72.0806	100	999 
73.0283	6.36	64 
73.0839	7.98	80 
74.0236	2.52	25 
82.9803	1.03	10 
84.044	3.19	32 
88.0215	1.55	16 
98.0599	2.39	24 
100.0388	23.25	233 
101.023	13.68	137 
105.9623	3.65	37 
112.0386	5.1	51 
125.0591	3.47	35 
126.0909	2.91	29 
154.0855	16.47	165 
155.0884	1.32	13 
172.0958	7.16	72 
173.0995	1.45	15 
