ACCESSION: MSBNK-CPU_Acyl-PAs-000002		
"RECORD_TITLE:3,4,5-Trimethoxybenzoic_acid_acylated_spermidine; ESI-QTOF; MS2; CE 30 V; [M+H]+"		
DATE: 2025.04.16		
"AUTHORS: Yiran Zhang, Qinwen Xiao, Xinyao Zhou, Yan Li, Shilin Wang, Xinyi Zhou, Ruoxun Chen, Ying Zhang, Meiyu Gao, Fengguo Xu, Pei Zhang."		
LICENSE: CC BY		
"CH$NAME: 3,4,5-Trimethoxybenzoic_acid_acylated_spermidine"		
CH$COMPOUND_CLASS: Natural Product; Acylated Polyamines		
CH$FORMULA: C15H34N4O		
CH$EXACT_MASS: 339.2158		
CH$SMILES: O=C(NCCCNCCCCN)C(C)(C)C(C)CCN		
"CH$IUPAC: InChI=1S/C15H34N4O/c1-13(7-9-17)15(2,3)14(20)19-12-6-11-18-10-5-4-8-16/h13,18H,4-12,16-17H2,1-3H3,(H,19,20)"		
CH$LINK: CHEBI 234023		
CH$LINK: INCHIKEY PSAQFIYKVISTIB-UHFFFAOYSA-N 		
"AC$INSTRUMENT: 1290 HPLC, Agilent; Q-TOF, Agilent."		
AC$INSTRUMENT_TYPE: ESI-QTOF		
AC$MASS_SPECTROMETRY: MS_TYPE MS2		
AC$MASS_SPECTROMETRY: ION_MODE POSITIVE		
AC$MASS_SPECTROMETRY: IONIZATION ESI		
AC$MASS_SPECTROMETRY: COLLISION_ENERGY 30 V		
MS$FOCUSED_ION: PRECURSOR_M/Z 340.2237		
MS$FOCUSED_ION: PRECURSOR_TYPE [M+H]+		
PK$SPLASH: splash10-0002-3900000000-18e81737bd01bfe78d49		
PK$NUM_PEAK: 9		
PK$PEAK: m/z int. rel.int.		
72.0808	45.96	460 
73.0841	2.39	24 
139.0747	1.81	18 
152.0461	2.18	22 
167.0697	2.44	24 
191.0932	1.04	10 
195.0654	100	999 
196.0681	14.86	149 
197.07	1.51	15 
