ACCESSION: MSBNK-CPU_Acyl-PAs-000006		
RECORD_TITLE:Succinate_acylated_spermidine; ESI-QTOF; MS2; CE 40 V; [M+H]+		
DATE: 2025.04.16		
"AUTHORS: Yiran Zhang, Qinwen Xiao, Xinyao Zhou, Yan Li, Shilin Wang, Xinyi Zhou, Ruoxun Chen, Ying Zhang, Meiyu Gao, Fengguo Xu, Pei Zhang."		
LICENSE: CC BY		
CH$NAME: Succinate_acylated_spermidine		
CH$COMPOUND_CLASS: Natural Product; Acylated Polyamines		
CH$FORMULA: C11H23N3O3		
CH$EXACT_MASS: 245.1739		
CH$SMILES:O=C(O)CCC(NCCCNCCCCN)=O		
"CH$IUPAC: InChI=1S/C11H23N3O3/c12-6-1-2-7-13-8-3-9-14-10(15)4-5-11(16)17/h13H,1-9,12H2,(H,14,15)(H,16,17)"		
CH$LINK: CHEBI 234019		
CH$LINK: INCHIKEY OMHGBVGHDXYBEM-UHFFFAOYSA-N		
"AC$INSTRUMENT: 1290 HPLC, Agilent; Q-TOF, Agilent."		
AC$INSTRUMENT_TYPE: ESI-QTOF		
AC$MASS_SPECTROMETRY: MS_TYPE MS2		
AC$MASS_SPECTROMETRY: ION_MODE POSITIVE		
AC$MASS_SPECTROMETRY: IONIZATION ESI		
AC$MASS_SPECTROMETRY: COLLISION_ENERGY 40 V		
MS$FOCUSED_ION: PRECURSOR_M/Z 246.1829		
MS$FOCUSED_ION: PRECURSOR_TYPE [M+H]+		
PK$SPLASH: splash10-00di-9100000000-3fa08b89691b4b634ae7		
PK$NUM_PEAK: 19		
PK$PEAK: m/z int. rel.int.		
55.0176	8.43	84 
55.054	1.49	15 
56.0494	2.03	20 
58.065	11.1	111 
59.0491	2.32	23 
69.0694	1.25	13 
72.044	2.01	20 
72.0805	100	999 
73.0282	7.72	77 
73.0839	5.23	52 
84.0441	14.57	146 
84.0802	4.77	48 
100.0387	1.19	12 
101.0229	14.75	148 
112.0385	7.78	78 
112.0748	2.61	26 
112.1114	1.26	13 
140.0699	4.31	43 
158.0804	1.53	15 
