ACCESSION: MSBNK-CPU_Acyl-PAs-000007		
RECORD_TITLE:Valine_acylated_putrescine; ESI-QTOF; MS2; CE 30 V; [M+H]+		
DATE: 2025.04.16		
"AUTHORS: Yiran Zhang, Qinwen Xiao, Xinyao Zhou, Yan Li, Shilin Wang, Xinyi Zhou, Ruoxun Chen, Ying Zhang, Meiyu Gao, Fengguo Xu, Pei Zhang."		
LICENSE: CC BY		
CH$NAME: Valine_acylated_putrescine		
CH$COMPOUND_CLASS: Natural Product; Acylated Polyamines		
CH$FORMULA: C9H21N3O		
CH$EXACT_MASS: 187.1685		
CH$SMILES:N[C@@H](C(C)C)C(NCCCCN)=O		
"CH$IUPAC: InChI=1S/C9H21N3O/c1-7(2)8(11)9(13)12-6-4-3-5-10/h7-8H,3-6,10-11H2,1-2H3,(H,12,13)/t8-/m0/s1"		
CH$LINK: CHEBI 234022		
CH$LINK: INCHIKEY HDORORFDDFKEHV-QMMMGPOBSA-N		
"AC$INSTRUMENT: 1290 HPLC, Agilent; Q-TOF, Agilent."		
AC$INSTRUMENT_TYPE: ESI-QTOF		
AC$MASS_SPECTROMETRY: MS_TYPE MS2		
AC$MASS_SPECTROMETRY: ION_MODE POSITIVE		
AC$MASS_SPECTROMETRY: IONIZATION ESI		
AC$MASS_SPECTROMETRY: COLLISION_ENERGY 30 V		
MS$FOCUSED_ION: PRECURSOR_M/Z 188.1765		
MS$FOCUSED_ION: PRECURSOR_TYPE [M+H]+		
PK$SPLASH:splash10-00di-9000000000-d285659d50dd314be8c0		
PK$NUM_PEAK: 5		
PK$PEAK: m/z int. rel.int.		
55.0546	29.66	297 
56.0576	1.58	16 
57.0575	2.11	21 
72.0814	100	999 
73.0841	10.17	102 
