ACCESSION: MSBNK-CPU_Acyl-PAs-000003		
RECORD_TITLE:Fumarate_acylated_putrescine; ESI-QTOF; MS2; CE 20 V; [M+H]+		
DATE: 2025.04.16		
"AUTHORS: Yiran Zhang, Qinwen Xiao, Xinyao Zhou, Yan Li, Shilin Wang, Xinyi Zhou, Ruoxun Chen, Ying Zhang, Meiyu Gao, Fengguo Xu, Pei Zhang."		
LICENSE: CC BY		
CH$NAME: Fumarate_acylated_putrescine		
CH$COMPOUND_CLASS: Natural Product; Acylated Polyamines		
CH$FORMULA: C8H14N2O3		
CH$EXACT_MASS: 186.1004		
CH$SMILES: O=C(O)/C=C/C(NCCCCN)=O		
"CH$IUPAC: InChI=1S/C8H14N2O3/c9-5-1-2-6-10-7(11)3-4-8(12)13/h3-4H,1-2,5-6,9H2,(H,10,11)(H,12,13)/b4-3+"		
CH$LINK: CHEBI 234020		
CH$LINK: INCHIKEY CYCYLQMQUHHODW-ONEGZZNKSA-N 		
"AC$INSTRUMENT: 1290 HPLC, Agilent; Q-TOF, Agilent."		
AC$INSTRUMENT_TYPE: ESI-QTOF		
AC$MASS_SPECTROMETRY: MS_TYPE MS2		
AC$MASS_SPECTROMETRY: ION_MODE POSITIVE		
AC$MASS_SPECTROMETRY: IONIZATION ESI		
AC$MASS_SPECTROMETRY: COLLISION_ENERGY 20 V		
MS$FOCUSED_ION: PRECURSOR_M/Z 187.1076		
MS$FOCUSED_ION: PRECURSOR_TYPE [M+H]+		
PK$SPLASH: splash10-00di-9100000000-a3b402615be63258762e		
PK$NUM_PEAK: 25		
PK$PEAK: m/z int. rel.int.		
53.0022	6.03	60
55.0542	7.84	78
57.0699	1.96	20
68.0488	3.92	39
70.0654	1.2	12
71.0686	1.54	15
72.0805	100	999
73.0835	3.31	33
74.0232	6.75	68
74.088	1.46	15
80.0491	2.22	22
81.0342	1.14	11
85.0277	4.97	50
86.0964	1.33	13
89.1061	1.27	13
99.007	41.92	419
100.0103	1.87	19
100.9552	1.59	16
110.0236	3.18	32
116.0345	6.46	65
116.0709	1.06	11
124.0734	1.52	15
128.0337	14.97	150
170.0803	8.65	87
171.0833	1.95	20
