ACCESSION: MSBNK-Washington_State_Univ-BML00601
RECORD_TITLE: Oleanolic acid; LC-ESI-QTOF; MS2; CE 40 ev; [M-H]-
DATE: 2016.01.19 (Created 2012.10.26)
AUTHORS: Cuthbertson DJ, Johnson SR, Lange BM, Institute of Biological Chemistry, Washington State University
LICENSE: CC BY-SA
COMMENT: relative retention time with respect to 9-anthracene Carboxylic Acid is 1.630
CH$NAME: Oleanolic acid
CH$COMPOUND_CLASS: N/A
CH$FORMULA: C30H48O3
CH$EXACT_MASS: 456.360345
CH$SMILES: CC1(CCC2(CCC3(C(=CCC4C3(CCC5C4(CCC(C5(C)C)O)C)C)C2C1)C)C(=O)O)C
CH$IUPAC: InChI=1S/C30H48O3/c1-25(2)14-16-30(24(32)33)17-15-28(6)19(20(30)18-25)8-9-22-27(5)12-11-23(31)26(3,4)21(27)10-13-29(22,28)7/h8,20-23,31H,9-18H2,1-7H3,(H,32,33)
CH$LINK: CAS 508-02-1
CH$LINK: CHEMSPIDER 538085
CH$LINK: PUBCHEM CID:619166
CH$LINK: INCHIKEY MIJYXULNPSFWEK-UHFFFAOYSA-N
AC$INSTRUMENT: Agilent 1200 RRLC; Agilent 6520 QTOF
AC$INSTRUMENT_TYPE: LC-ESI-QTOF
AC$MASS_SPECTROMETRY: MS_TYPE MS2
AC$MASS_SPECTROMETRY: ION_MODE NEGATIVE
AC$MASS_SPECTROMETRY: COLLISION_ENERGY 40 ev
AC$MASS_SPECTROMETRY: COLLISION_GAS N2
AC$MASS_SPECTROMETRY: SCANNING m/z 100-1000
AC$CHROMATOGRAPHY: COLUMN_NAME Agilent C8 Cartridge Column 2.1X30mm 3.5 micron (guard); Agilent SB-Aq 2.1x50mm 1.8 micron (analytical)
AC$CHROMATOGRAPHY: COLUMN_TEMPERATURE 60 C
AC$CHROMATOGRAPHY: FLOW_GRADIENT linear from 98A/2B at 0 min to 2A/98B at 13 min, hold 6 min at 2A/98B, reequilibration 98A/2B (5 min)
AC$CHROMATOGRAPHY: FLOW_RATE 0.6 ml/min
AC$CHROMATOGRAPHY: RETENTION_TIME 12.039
AC$CHROMATOGRAPHY: SOLVENT A water with 0.2% acetic acid
AC$CHROMATOGRAPHY: SOLVENT B methanol with 0.2% acetic acid
MS$FOCUSED_ION: BASE_PEAK 455
MS$FOCUSED_ION: PRECURSOR_M/Z 455.3530
MS$FOCUSED_ION: PRECURSOR_TYPE [M-H]-
PK$SPLASH: splash10-0a4i-0000900000-68e605cd30e6d31bee44
PK$NUM_PEAK: 15
PK$PEAK: m/z int. rel.int.
  103.4133 27 11
  111.1275 44 18
  130.923 29 12
  182.7046 22 9
  207.6549 20 8
  230.6837 23 10
  240.9059 27 11
  252.2332 26 11
  306.9814 32 13
  313.1504 24 10
  317.9421 53 22
  407.3316 89 37
  410.1805 26 11
  429.6958 20 8
  455.3504 2417 999
//
