ACCESSION: MSBNK-Washington_State_Univ-BML01466
RECORD_TITLE: 5'-Iodo-5'-deoxyadenosine; LC-ESI-QTOF; MS2; CE 10 ev; [M+H]+
DATE: 2016.01.19 (Created 2012.10.26)
AUTHORS: Cuthbertson DJ, Johnson SR, Lange BM, Institute of Biological Chemistry, Washington State University
LICENSE: CC BY-SA
COMMENT: relative retention time with respect to 9-anthracene Carboxylic Acid is 0.499
CH$NAME: 5'-Iodo-5'-deoxyadenosine
CH$COMPOUND_CLASS: N/A
CH$FORMULA: C10H12IN5O3
CH$EXACT_MASS: 376.998487
CH$SMILES: C1=NC2=C(C(=N1)N)N=CN2C3C(C(C(O3)CI)O)O
CH$IUPAC: InChI=1S/C10H12IN5O3/c11-1-4-6(17)7(18)10(19-4)16-3-15-5-8(12)13-2-14-9(5)16/h2-4,6-7,10,17-18H,1H2,(H2,12,13,14)
CH$LINK: CAS 4099-81-4
CH$LINK: CHEMSPIDER 3579066
CH$LINK: PUBCHEM CID:4376867
CH$LINK: INCHIKEY FUWWLIOFNXNKQR-UHFFFAOYSA-N
AC$INSTRUMENT: Agilent 1200 RRLC; Agilent 6520 QTOF
AC$INSTRUMENT_TYPE: LC-ESI-QTOF
AC$MASS_SPECTROMETRY: MS_TYPE MS2
AC$MASS_SPECTROMETRY: ION_MODE POSITIVE
AC$MASS_SPECTROMETRY: COLLISION_ENERGY 10 ev
AC$MASS_SPECTROMETRY: COLLISION_GAS N2
AC$MASS_SPECTROMETRY: SCANNING m/z 100-1000
AC$CHROMATOGRAPHY: COLUMN_NAME Agilent C8 Cartridge Column 2.1X30mm 3.5 micron (guard); Agilent SB-Aq 2.1x50mm 1.8 micron (analytical)
AC$CHROMATOGRAPHY: COLUMN_TEMPERATURE 60 C
AC$CHROMATOGRAPHY: FLOW_GRADIENT linear from 98A/2B at 0 min to 2A/98B at 13 min, hold 6 min at 2A/98B, reequilibration 98A/2B (5 min)
AC$CHROMATOGRAPHY: FLOW_RATE 0.6 ml/min
AC$CHROMATOGRAPHY: RETENTION_TIME 3.690
AC$CHROMATOGRAPHY: SOLVENT A water with 0.2% acetic acid
AC$CHROMATOGRAPHY: SOLVENT B methanol with 0.2% acetic acid
MS$FOCUSED_ION: BASE_PEAK 136
MS$FOCUSED_ION: PRECURSOR_M/Z 378.0058
MS$FOCUSED_ION: PRECURSOR_TYPE [M+H]+
PK$SPLASH: splash10-000i-0902000000-059022a082bd0e6948eb
PK$NUM_PEAK: 7
PK$PEAK: m/z int. rel.int.
  136.0613 1839 999
  136.098 61 33
  136.1156 29 16
  136.1666 23 12
  378.0055 513 279
  378.048 27 15
  378.0718 22 12
//
