ACCESSION: MSBNK-Washington_State_Univ-BML01404
RECORD_TITLE: 2',3'-Dideoxythymidine; LC-ESI-QTOF; MS2; CE 10 ev; [M-H]-
DATE: 2016.01.19 (Created 2012.10.26)
AUTHORS: Cuthbertson DJ, Johnson SR, Lange BM, Institute of Biological Chemistry, Washington State University
LICENSE: CC BY-SA
COMMENT: relative retention time with respect to 9-anthracene Carboxylic Acid is 0.357
CH$NAME: 2',3'-Dideoxythymidine
CH$COMPOUND_CLASS: N/A
CH$FORMULA: C10H14N2O4
CH$EXACT_MASS: 226.095357
CH$SMILES: CC1=CN(C(=O)NC1=O)C2CCC(O2)CO
CH$IUPAC: InChI=1S/C10H14N2O4/c1-6-4-12(10(15)11-9(6)14)8-3-2-7(5-13)16-8/h4,7-8,13H,2-3,5H2,1H3,(H,11,14,15)
CH$LINK: CAS 3416-05-5
CH$LINK: CHEMSPIDER 5090
CH$LINK: PUBCHEM CID:5280
CH$LINK: INCHIKEY XKKCQTLDIPIRQD-UHFFFAOYSA-N
AC$INSTRUMENT: Agilent 1200 RRLC; Agilent 6520 QTOF
AC$INSTRUMENT_TYPE: LC-ESI-QTOF
AC$MASS_SPECTROMETRY: MS_TYPE MS2
AC$MASS_SPECTROMETRY: ION_MODE NEGATIVE
AC$MASS_SPECTROMETRY: COLLISION_ENERGY 10 ev
AC$MASS_SPECTROMETRY: COLLISION_GAS N2
AC$MASS_SPECTROMETRY: SCANNING m/z 100-1000
AC$CHROMATOGRAPHY: COLUMN_NAME Agilent C8 Cartridge Column 2.1X30mm 3.5 micron (guard); Agilent SB-Aq 2.1x50mm 1.8 micron (analytical)
AC$CHROMATOGRAPHY: COLUMN_TEMPERATURE 60 C
AC$CHROMATOGRAPHY: FLOW_GRADIENT linear from 98A/2B at 0 min to 2A/98B at 13 min, hold 6 min at 2A/98B, reequilibration 98A/2B (5 min)
AC$CHROMATOGRAPHY: FLOW_RATE 0.6 ml/min
AC$CHROMATOGRAPHY: RETENTION_TIME 2.625
AC$CHROMATOGRAPHY: SOLVENT A water with 0.2% acetic acid
AC$CHROMATOGRAPHY: SOLVENT B methanol with 0.2% acetic acid
MS$FOCUSED_ION: BASE_PEAK 225
MS$FOCUSED_ION: PRECURSOR_M/Z 225.0881
MS$FOCUSED_ION: PRECURSOR_TYPE [M-H]-
PK$SPLASH: splash10-004i-0090000000-da3ac7903cebe47a458b
PK$NUM_PEAK: 5
PK$PEAK: m/z int. rel.int.
  150.7298 29 26
  155.7207 61 54
  207.9156 22 19
  217.1819 29 26
  225.0877 1135 999
//
