ACCESSION: MSBNK-Washington_State_Univ-BML01295
RECORD_TITLE: Sophoricoside; LC-ESI-QTOF; MS2; CE 40 ev; [M+H]+
DATE: 2016.01.19 (Created 2012.10.26)
AUTHORS: Cuthbertson DJ, Johnson SR, Lange BM, Institute of Biological Chemistry, Washington State University
LICENSE: CC BY-SA
COMMENT: relative retention time with respect to 9-anthracene Carboxylic Acid is 0.777
CH$NAME: Sophoricoside
CH$NAME: 5,7-dihydroxy-3-(4-{[(2S,3R,4S,5S,6R)-3,4,5-trihydroxy-6-(hydroxymethyl)tetrahydro-2H-pyran-2-yl]oxy}phenyl)-4H-chromen-4-one
CH$COMPOUND_CLASS: N/A
CH$FORMULA: C21H20O10
CH$EXACT_MASS: 432.105647
CH$SMILES: C1=CC(=CC=C1C2=COC3=CC(=CC(=C3C2=O)O)O)OC4C(C(C(C(O4)CO)O)O)O
CH$IUPAC: InChI=1S/C21H20O10/c22-7-15-18(26)19(27)20(28)21(31-15)30-11-3-1-9(2-4-11)12-8-29-14-6-10(23)5-13(24)16(14)17(12)25/h1-6,8,15,18-24,26-28H,7H2
CH$LINK: CHEMSPIDER 4800150
CH$LINK: PUBCHEM CID:6078194
CH$LINK: INCHIKEY ISQRJFLLIDGZEP-UHFFFAOYSA-N
AC$INSTRUMENT: Agilent 1200 RRLC; Agilent 6520 QTOF
AC$INSTRUMENT_TYPE: LC-ESI-QTOF
AC$MASS_SPECTROMETRY: MS_TYPE MS2
AC$MASS_SPECTROMETRY: ION_MODE POSITIVE
AC$MASS_SPECTROMETRY: COLLISION_ENERGY 40 ev
AC$MASS_SPECTROMETRY: COLLISION_GAS N2
AC$MASS_SPECTROMETRY: SCANNING m/z 100-1000
AC$CHROMATOGRAPHY: COLUMN_NAME Agilent C8 Cartridge Column 2.1X30mm 3.5 micron (guard); Agilent SB-Aq 2.1x50mm 1.8 micron (analytical)
AC$CHROMATOGRAPHY: COLUMN_TEMPERATURE 60 C
AC$CHROMATOGRAPHY: FLOW_GRADIENT linear from 98A/2B at 0 min to 2A/98B at 13 min, hold 6 min at 2A/98B, reequilibration 98A/2B (5 min)
AC$CHROMATOGRAPHY: FLOW_RATE 0.6 ml/min
AC$CHROMATOGRAPHY: RETENTION_TIME 5.697
AC$CHROMATOGRAPHY: SOLVENT A water with 0.2% acetic acid
AC$CHROMATOGRAPHY: SOLVENT B methanol with 0.2% acetic acid
MS$FOCUSED_ION: BASE_PEAK 271
MS$FOCUSED_ION: PRECURSOR_M/Z 433.1129
MS$FOCUSED_ION: PRECURSOR_TYPE [M+H]+
PK$SPLASH: splash10-00di-0090000000-5d545b114d7df84f2d69
PK$NUM_PEAK: 6
PK$PEAK: m/z int. rel.int.
  153.016 61 128
  215.0728 46 97
  243.066 76 160
  253.051 39 82
  271.0588 476 999
  271.1028 26 55
//
