ACCESSION: MSBNK-Washington_State_Univ-BML00666
RECORD_TITLE: Psoralen; LC-ESI-QTOF; MS2; CE 40 ev; [M+H]+
DATE: 2016.01.19 (Created 2012.10.26)
AUTHORS: Cuthbertson DJ, Johnson SR, Lange BM, Institute of Biological Chemistry, Washington State University
LICENSE: CC BY-SA
COMMENT: relative retention time with respect to 9-anthracene Carboxylic Acid is 0.851
CH$NAME: Psoralen
CH$COMPOUND_CLASS: N/A
CH$FORMULA: C11H6O3
CH$EXACT_MASS: 186.031694
CH$SMILES: C1=CC(=O)OC2=CC3=C(C=CO3)C=C21
CH$IUPAC: InChI=1S/C11H6O3/c12-11-2-1-7-5-8-3-4-13-9(8)6-10(7)14-11/h1-6H
CH$LINK: CAS 66-97-7
CH$LINK: CHEMSPIDER 5964
CH$LINK: PUBCHEM CID:6199
CH$LINK: INCHIKEY ZCCUUQDIBDJBTK-UHFFFAOYSA-N
CH$LINK: COMPTOX DTXSID00216205
AC$INSTRUMENT: Agilent 1200 RRLC; Agilent 6520 QTOF
AC$INSTRUMENT_TYPE: LC-ESI-QTOF
AC$MASS_SPECTROMETRY: MS_TYPE MS2
AC$MASS_SPECTROMETRY: ION_MODE POSITIVE
AC$MASS_SPECTROMETRY: COLLISION_ENERGY 40 ev
AC$MASS_SPECTROMETRY: COLLISION_GAS N2
AC$MASS_SPECTROMETRY: SCANNING m/z 100-1000
AC$CHROMATOGRAPHY: COLUMN_NAME Agilent C8 Cartridge Column 2.1X30mm 3.5 micron (guard); Agilent SB-Aq 2.1x50mm 1.8 micron (analytical)
AC$CHROMATOGRAPHY: COLUMN_TEMPERATURE 60 C
AC$CHROMATOGRAPHY: FLOW_GRADIENT linear from 98A/2B at 0 min to 2A/98B at 13 min, hold 6 min at 2A/98B, reequilibration 98A/2B (5 min)
AC$CHROMATOGRAPHY: FLOW_RATE 0.6 ml/min
AC$CHROMATOGRAPHY: RETENTION_TIME 6.271
AC$CHROMATOGRAPHY: SOLVENT A water with 0.2% acetic acid
AC$CHROMATOGRAPHY: SOLVENT B methanol with 0.2% acetic acid
MS$FOCUSED_ION: BASE_PEAK 131
MS$FOCUSED_ION: PRECURSOR_M/Z 187.0390
MS$FOCUSED_ION: PRECURSOR_TYPE [M+H]+
PK$SPLASH: splash10-0f89-0900000000-bacd49139ec536fb55e7
PK$NUM_PEAK: 7
PK$PEAK: m/z int. rel.int.
  102.0488 122 177
  103.0546 419 608
  103.0818 33 48
  115.0532 236 342
  115.0637 24 35
  131.0485 689 999
  131.0849 36 52
//
