ACCESSION: MSBNK-Washington_State_Univ-BML00848
RECORD_TITLE: Sumaresinolic acid; LC-ESI-QTOF; MS2; CE 10 ev; [M-H]-
DATE: 2016.01.19 (Created 2012.10.26)
AUTHORS: Cuthbertson DJ, Johnson SR, Lange BM, Institute of Biological Chemistry, Washington State University
LICENSE: CC BY-SA
COMMENT: relative retention time with respect to 9-anthracene Carboxylic Acid is 1.540
CH$NAME: Sumaresinolic acid
CH$COMPOUND_CLASS: N/A
CH$FORMULA: C30H48O4
CH$EXACT_MASS: 472.35526
CH$SMILES: CC1(CCC2(CCC3(C(=CCC4C3(CC(C5C4(CCC(C5(C)C)O)C)O)C)C2C1)C)C(=O)O)C
CH$IUPAC: InChI=1S/C30H48O4/c1-25(2)12-14-30(24(33)34)15-13-28(6)18(19(30)16-25)8-9-21-27(5)11-10-22(32)26(3,4)23(27)20(31)17-29(21,28)7/h8,19-23,31-32H,9-17H2,1-7H3,(H,33,34)
CH$LINK: CAS 559-64-8
CH$LINK: CHEMSPIDER 3849649
CH$LINK: PUBCHEM CID:4660579
CH$LINK: INCHIKEY KLHSKTMVSOWVLD-UHFFFAOYSA-N
AC$INSTRUMENT: Agilent 1200 RRLC; Agilent 6520 QTOF
AC$INSTRUMENT_TYPE: LC-ESI-QTOF
AC$MASS_SPECTROMETRY: MS_TYPE MS2
AC$MASS_SPECTROMETRY: ION_MODE NEGATIVE
AC$MASS_SPECTROMETRY: COLLISION_ENERGY 10 ev
AC$MASS_SPECTROMETRY: COLLISION_GAS N2
AC$MASS_SPECTROMETRY: SCANNING m/z 100-1000
AC$CHROMATOGRAPHY: COLUMN_NAME Agilent C8 Cartridge Column 2.1X30mm 3.5 micron (guard); Agilent SB-Aq 2.1x50mm 1.8 micron (analytical)
AC$CHROMATOGRAPHY: COLUMN_TEMPERATURE 60 C
AC$CHROMATOGRAPHY: FLOW_GRADIENT linear from 98A/2B at 0 min to 2A/98B at 13 min, hold 6 min at 2A/98B, reequilibration 98A/2B (5 min)
AC$CHROMATOGRAPHY: FLOW_RATE 0.6 ml/min
AC$CHROMATOGRAPHY: RETENTION_TIME 11.291
AC$CHROMATOGRAPHY: SOLVENT A water with 0.2% acetic acid
AC$CHROMATOGRAPHY: SOLVENT B methanol with 0.2% acetic acid
MS$FOCUSED_ION: BASE_PEAK 471
MS$FOCUSED_ION: PRECURSOR_M/Z 471.3480
MS$FOCUSED_ION: PRECURSOR_TYPE [M-H]-
PK$SPLASH: splash10-00di-0000900000-f08e9ebd3a6dcd9eca06
PK$NUM_PEAK: 7
PK$PEAK: m/z int. rel.int.
  141.0112 32 13
  141.0194 30 12
  190.6522 30 12
  231.4098 43 17
  437.4352 22 9
  463.0034 31 12
  471.3455 2556 999
//
