ACCESSION: MSBNK-Washington_State_Univ-BML01671
RECORD_TITLE: Piperine; LC-ESI-QTOF; MS2; CE 40 ev; [M+H]+
DATE: 2016.01.19 (Created 2012.10.26)
AUTHORS: Cuthbertson DJ, Johnson SR, Lange BM, Institute of Biological Chemistry, Washington State University
LICENSE: CC BY-SA
COMMENT: relative retention time with respect to 9-anthracene Carboxylic Acid is 1.243
CH$NAME: Piperine
CH$COMPOUND_CLASS: N/A
CH$FORMULA: C17H19NO3
CH$EXACT_MASS: 285.136493
CH$SMILES: C1CCN(CC1)C(=O)C=CC=CC2=CC3=C(C=C2)OCO3
CH$IUPAC: InChI=1S/C17H19NO3/c19-17(18-10-4-1-5-11-18)7-3-2-6-14-8-9-15-16(12-14)21-13-20-15/h2-3,6-9,12H,1,4-5,10-11,13H2
CH$LINK: CAS 94-62-2
CH$LINK: CHEMSPIDER 553590
CH$LINK: PUBCHEM CID:4840
CH$LINK: INCHIKEY MXXWOMGUGJBKIW-UHFFFAOYSA-N
AC$INSTRUMENT: Agilent 1200 RRLC; Agilent 6520 QTOF
AC$INSTRUMENT_TYPE: LC-ESI-QTOF
AC$MASS_SPECTROMETRY: MS_TYPE MS2
AC$MASS_SPECTROMETRY: ION_MODE POSITIVE
AC$MASS_SPECTROMETRY: COLLISION_ENERGY 40 ev
AC$MASS_SPECTROMETRY: COLLISION_GAS N2
AC$MASS_SPECTROMETRY: SCANNING m/z 100-1000
AC$CHROMATOGRAPHY: COLUMN_NAME Agilent C8 Cartridge Column 2.1X30mm 3.5 micron (guard); Agilent SB-Aq 2.1x50mm 1.8 micron (analytical)
AC$CHROMATOGRAPHY: COLUMN_TEMPERATURE 60 C
AC$CHROMATOGRAPHY: FLOW_GRADIENT linear from 98A/2B at 0 min to 2A/98B at 13 min, hold 6 min at 2A/98B, reequilibration 98A/2B (5 min)
AC$CHROMATOGRAPHY: FLOW_RATE 0.6 ml/min
AC$CHROMATOGRAPHY: RETENTION_TIME 9.165
AC$CHROMATOGRAPHY: SOLVENT A water with 0.2% acetic acid
AC$CHROMATOGRAPHY: SOLVENT B methanol with 0.2% acetic acid
MS$FOCUSED_ION: BASE_PEAK 115
MS$FOCUSED_ION: PRECURSOR_M/Z 286.1438
MS$FOCUSED_ION: PRECURSOR_TYPE [M+H]+
PK$SPLASH: splash10-014i-0900000000-6ea38cff81b1752f2933
PK$NUM_PEAK: 23
PK$PEAK: m/z int. rel.int.
  103.0527 117 40
  105.0299 36 12
  112.0741 25 8
  115.0538 2952 999
  115.0819 140 47
  115.0948 28 9
  115.1119 29 10
  115.1524 42 14
  117.0342 38 13
  117.0661 71 24
  122.0979 32 11
  127.0547 76 26
  129.0687 38 13
  135.0432 630 213
  135.0625 22 7
  143.0481 917 310
  143.0846 34 12
  150.09 23 8
  151.0945 29 10
  159.0428 115 39
  171.0437 250 85
  173.0575 24 8
  201.0525 187 63
//
