ACCESSION: MSBNK-Washington_State_Univ-BML00718
RECORD_TITLE: Cycloheximide; LC-ESI-QTOF; MS2; CE 40 ev; [M+H]+
DATE: 2016.01.19 (Created 2012.10.26)
AUTHORS: Cuthbertson DJ, Johnson SR, Lange BM, Institute of Biological Chemistry, Washington State University
LICENSE: CC BY-SA
COMMENT: relative retention time with respect to 9-anthracene Carboxylic Acid is 0.773
CH$NAME: Cycloheximide
CH$COMPOUND_CLASS: N/A
CH$FORMULA: C15H23NO4
CH$EXACT_MASS: 281.162708
CH$SMILES: C[C@H]1C[C@@H](C(=O)[C@@H](C1)[C@@H](CC2CC(=O)NC(=O)C2)O)C
CH$IUPAC: InChI=1S/C15H23NO4/c1-8-3-9(2)15(20)11(4-8)12(17)5-10-6-13(18)16-14(19)7-10/h8-12,17H,3-7H2,1-2H3,(H,16,18,19)/t8-,9-,11-,12+/m0/s1
CH$LINK: CAS 66-81-9
CH$LINK: CHEBI CHEBI:27641
CH$LINK: CHEMSPIDER 5962
CH$LINK: COMPTOX DTXSID6024882
CH$LINK: INCHIKEY YPHMISFOHDHNIV-FSZOTQKASA-N
CH$LINK: KEGG C06685
CH$LINK: PUBCHEM CID:6197
AC$INSTRUMENT: Agilent 1200 RRLC; Agilent 6520 QTOF
AC$INSTRUMENT_TYPE: LC-ESI-QTOF
AC$MASS_SPECTROMETRY: MS_TYPE MS2
AC$MASS_SPECTROMETRY: ION_MODE POSITIVE
AC$MASS_SPECTROMETRY: COLLISION_ENERGY 40 ev
AC$MASS_SPECTROMETRY: COLLISION_GAS N2
AC$MASS_SPECTROMETRY: SCANNING m/z 100-1000
AC$CHROMATOGRAPHY: COLUMN_NAME Agilent C8 Cartridge Column 2.1X30mm 3.5 micron (guard); Agilent SB-Aq 2.1x50mm 1.8 micron (analytical)
AC$CHROMATOGRAPHY: COLUMN_TEMPERATURE 60 C
AC$CHROMATOGRAPHY: FLOW_GRADIENT linear from 98A/2B at 0 min to 2A/98B at 13 min, hold 6 min at 2A/98B, reequilibration 98A/2B (5 min)
AC$CHROMATOGRAPHY: FLOW_RATE 0.6 ml/min
AC$CHROMATOGRAPHY: RETENTION_TIME 5.689
AC$CHROMATOGRAPHY: SOLVENT A water with 0.2% acetic acid
AC$CHROMATOGRAPHY: SOLVENT B methanol with 0.2% acetic acid
MS$FOCUSED_ION: BASE_PEAK 119
MS$FOCUSED_ION: PRECURSOR_M/Z 282.1700
MS$FOCUSED_ION: PRECURSOR_TYPE [M+H]+
PK$SPLASH: splash10-066r-0900000000-aedba418cd290fea07b2
PK$NUM_PEAK: 22
PK$PEAK: m/z int. rel.int.
  105.07 74 821
  107.0483 33 366
  107.0839 28 311
  107.0909 30 333
  109.0985 28 311
  115.0507 33 366
  117.0705 76 844
  119.0831 90 999
  121.0212 26 289
  121.0665 25 278
  121.1008 24 266
  123.0455 60 666
  127.0519 39 433
  128.0602 23 255
  129.0678 27 300
  131.0875 60 666
  142.0761 40 444
  143.0808 26 289
  144.0932 40 444
  159.0881 35 389
  159.1148 32 355
  170.1117 20 222
//
