ACCESSION: MSBNK-Washington_State_Univ-BML01370
RECORD_TITLE: 1,7,7-trimethylbicyclo[2.2.1]hept-2-yl 4-hydroxy-3-methoxybenzoate; LC-ESI-QTOF; MS2; CE 10 ev; [M-H]-
DATE: 2016.01.19 (Created 2012.10.26)
AUTHORS: Cuthbertson DJ, Johnson SR, Lange BM, Institute of Biological Chemistry, Washington State University
LICENSE: CC BY-SA
COMMENT: relative retention time with respect to 9-anthracene Carboxylic Acid is 1.395
CH$NAME: 1,7,7-trimethylbicyclo[2.2.1]hept-2-yl 4-hydroxy-3-methoxybenzoate
CH$COMPOUND_CLASS: N/A
CH$FORMULA: C18H24O4
CH$EXACT_MASS: 304.167459
CH$SMILES: CC1(C2CCC1(C(C2)OC(=O)C3=CC(=C(C=C3)O)OC)C)C
CH$IUPAC: InChI=1S/C18H24O4/c1-17(2)12-7-8-18(17,3)15(10-12)22-16(20)11-5-6-13(19)14(9-11)21-4/h5-6,9,12,15,19H,7-8,10H2,1-4H3
CH$LINK: CHEMSPIDER 2219410
CH$LINK: PUBCHEM CID:2946267
CH$LINK: INCHIKEY KTOAGBIQQPGNIR-UHFFFAOYSA-N
AC$INSTRUMENT: Agilent 1200 RRLC; Agilent 6520 QTOF
AC$INSTRUMENT_TYPE: LC-ESI-QTOF
AC$MASS_SPECTROMETRY: MS_TYPE MS2
AC$MASS_SPECTROMETRY: ION_MODE NEGATIVE
AC$MASS_SPECTROMETRY: COLLISION_ENERGY 10 ev
AC$MASS_SPECTROMETRY: COLLISION_GAS N2
AC$MASS_SPECTROMETRY: SCANNING m/z 100-1000
AC$CHROMATOGRAPHY: COLUMN_NAME Agilent C8 Cartridge Column 2.1X30mm 3.5 micron (guard); Agilent SB-Aq 2.1x50mm 1.8 micron (analytical)
AC$CHROMATOGRAPHY: COLUMN_TEMPERATURE 60 C
AC$CHROMATOGRAPHY: FLOW_GRADIENT linear from 98A/2B at 0 min to 2A/98B at 13 min, hold 6 min at 2A/98B, reequilibration 98A/2B (5 min)
AC$CHROMATOGRAPHY: FLOW_RATE 0.6 ml/min
AC$CHROMATOGRAPHY: RETENTION_TIME 10.281
AC$CHROMATOGRAPHY: SOLVENT A water with 0.2% acetic acid
AC$CHROMATOGRAPHY: SOLVENT B methanol with 0.2% acetic acid
MS$FOCUSED_ION: BASE_PEAK 303
MS$FOCUSED_ION: PRECURSOR_M/Z 303.1602
MS$FOCUSED_ION: PRECURSOR_TYPE [M-H]-
PK$SPLASH: splash10-0udi-0009000000-c97a313ee06038f3d3d7
PK$NUM_PEAK: 16
PK$PEAK: m/z int. rel.int.
  107.0129 105 8
  123.0081 22 2
  151.0008 164 13
  152.0066 32 2
  186.9554 23 2
  195.5222 24 2
  203.0114 30 2
  219.4093 46 4
  220.9015 27 2
  220.9971 23 2
  288.1371 959 74
  288.1847 60 5
  288.2125 26 2
  302.9975 24 2
  303.091 25 2
  303.1589 12954 999
//
