ACCESSION: MSBNK-Washington_State_Univ-BML00179
RECORD_TITLE: 5-(6-acetyloxy-3,5,7-trimethoxy-4-oxochromen-2-yl)-2-methoxyphenyl acetate; LC-ESI-QTOF; MS2; CE 20 ev; [M+H]+
DATE: 2016.01.19 (Created 2012.10.26)
AUTHORS: Cuthbertson DJ, Johnson SR, Lange BM, Institute of Biological Chemistry, Washington State University
LICENSE: CC BY-SA
COMMENT: relative retention time with respect to 9-anthracene Carboxylic Acid is 1.247
CH$NAME: 5-(6-acetyloxy-3,5,7-trimethoxy-4-oxochromen-2-yl)-2-methoxyphenyl acetate
CH$COMPOUND_CLASS: N/A
CH$FORMULA: C23H22O10
CH$EXACT_MASS: 458.121297
CH$SMILES: CC(=O)OC1=C(C=CC(=C1)C2=C(C(=O)C3=C(C(=C(C=C3O2)OC)OC(=O)C)OC)OC)OC
CH$IUPAC: InChI=1S/C23H22O10/c1-11(24)31-15-9-13(7-8-14(15)27-3)20-23(30-6)19(26)18-16(33-20)10-17(28-4)21(22(18)29-5)32-12(2)25/h7-10H,1-6H3
CH$LINK: CHEMSPIDER 1065584
CH$LINK: PUBCHEM CID:1269246
CH$LINK: INCHIKEY FWZKNPRCZCUJMQ-UHFFFAOYSA-N
AC$INSTRUMENT: Agilent 1200 RRLC; Agilent 6520 QTOF
AC$INSTRUMENT_TYPE: LC-ESI-QTOF
AC$MASS_SPECTROMETRY: MS_TYPE MS2
AC$MASS_SPECTROMETRY: ION_MODE POSITIVE
AC$MASS_SPECTROMETRY: COLLISION_ENERGY 20 ev
AC$MASS_SPECTROMETRY: COLLISION_GAS N2
AC$MASS_SPECTROMETRY: SCANNING m/z 100-1000
AC$CHROMATOGRAPHY: COLUMN_NAME Agilent C8 Cartridge Column 2.1X30mm 3.5 micron (guard); Agilent SB-Aq 2.1x50mm 1.8 micron (analytical)
AC$CHROMATOGRAPHY: COLUMN_TEMPERATURE 60 C
AC$CHROMATOGRAPHY: FLOW_GRADIENT linear from 98A/2B at 0 min to 2A/98B at 13 min, hold 6 min at 2A/98B, reequilibration 98A/2B (5 min)
AC$CHROMATOGRAPHY: FLOW_RATE 0.6 ml/min
AC$CHROMATOGRAPHY: RETENTION_TIME 9.204
AC$CHROMATOGRAPHY: SOLVENT A water with 0.2% acetic acid
AC$CHROMATOGRAPHY: SOLVENT B methanol with 0.2% acetic acid
MS$FOCUSED_ION: BASE_PEAK 417
MS$FOCUSED_ION: PRECURSOR_M/Z 459.1286
MS$FOCUSED_ION: PRECURSOR_TYPE [M+H]+
PK$SPLASH: splash10-016r-0009700000-ad9ac8cbb8797e38129a
PK$NUM_PEAK: 14
PK$PEAK: m/z int. rel.int.
  284.5025 31 19
  299.0582 24 15
  342.0747 55 33
  345.0583 46 28
  359.0679 36 22
  359.0844 30 18
  360.0877 47 29
  375.0369 29 18
  375.1085 1588 966
  375.1638 69 42
  375.2 41 25
  417.1173 1642 999
  417.1732 51 31
  417.2132 28 17
//
