ACCESSION: MSBNK-Washington_State_Univ-BML01733
RECORD_TITLE: 4'-hydroxyflavanone; LC-ESI-QTOF; MS2; CE 10 ev; [M-H]-
DATE: 2016.01.19 (Created 2012.10.26)
AUTHORS: Cuthbertson DJ, Johnson SR, Lange BM, Institute of Biological Chemistry, Washington State University
LICENSE: CC BY-SA
COMMENT: relative retention time with respect to 9-anthracene Carboxylic Acid is 0.974
CH$NAME: 4'-hydroxyflavanone
CH$COMPOUND_CLASS: N/A
CH$FORMULA: C15H12O3
CH$EXACT_MASS: 240.078644
CH$SMILES: C1C(OC2=CC=CC=C2C1=O)C3=CC=C(C=C3)O
CH$IUPAC: InChI=1S/C15H12O3/c16-11-7-5-10(6-8-11)15-9-13(17)12-3-1-2-4-14(12)18-15/h1-8,15-16H,9H2
CH$LINK: CAS 6515-37-3
CH$LINK: CHEMSPIDER 145054
CH$LINK: PUBCHEM CID:165506
CH$LINK: INCHIKEY ZLHVIYHWWQYJID-UHFFFAOYSA-N
CH$LINK: COMPTOX DTXSID5022487
AC$INSTRUMENT: Agilent 1200 RRLC; Agilent 6520 QTOF
AC$INSTRUMENT_TYPE: LC-ESI-QTOF
AC$MASS_SPECTROMETRY: MS_TYPE MS2
AC$MASS_SPECTROMETRY: ION_MODE NEGATIVE
AC$MASS_SPECTROMETRY: COLLISION_ENERGY 10 ev
AC$MASS_SPECTROMETRY: COLLISION_GAS N2
AC$MASS_SPECTROMETRY: SCANNING m/z 100-1000
AC$CHROMATOGRAPHY: COLUMN_NAME Agilent C8 Cartridge Column 2.1X30mm 3.5 micron (guard); Agilent SB-Aq 2.1x50mm 1.8 micron (analytical)
AC$CHROMATOGRAPHY: COLUMN_TEMPERATURE 60 C
AC$CHROMATOGRAPHY: FLOW_GRADIENT linear from 98A/2B at 0 min to 2A/98B at 13 min, hold 6 min at 2A/98B, reequilibration 98A/2B (5 min)
AC$CHROMATOGRAPHY: FLOW_RATE 0.6 ml/min
AC$CHROMATOGRAPHY: RETENTION_TIME 7.143
AC$CHROMATOGRAPHY: SOLVENT A water with 0.2% acetic acid
AC$CHROMATOGRAPHY: SOLVENT B methanol with 0.2% acetic acid
MS$FOCUSED_ION: BASE_PEAK 239
MS$FOCUSED_ION: PRECURSOR_M/Z 239.0713
MS$FOCUSED_ION: PRECURSOR_TYPE [M-H]-
PK$SPLASH: splash10-00kr-0790000000-da9ba40a36ea840d2b1c
PK$NUM_PEAK: 20
PK$PEAK: m/z int. rel.int.
  119.0496 10803 721
  119.0814 365 24
  119.0961 149 10
  119.125 72 5
  119.1505 175 12
  119.186 31 2
  119.2147 29 2
  119.2725 36 2
  119.302 25 2
  119.3203 21 1
  119.4197 25 2
  119.4498 31 2
  119.4951 21 1
  119.524 28 2
  119.5673 32 2
  145.0266 24 2
  157.006 20 1
  195.0809 1130 75
  195.1101 71 5
  239.0706 14978 999
//
