ACCESSION: MSBNK-Washington_State_Univ-BML00480
RECORD_TITLE: Hydrocinchonine; LC-ESI-QTOF; MS2; CE 20 ev; [M+H]+
DATE: 2016.01.19 (Created 2012.10.26)
AUTHORS: Cuthbertson DJ, Johnson SR, Lange BM, Institute of Biological Chemistry, Washington State University
LICENSE: CC BY-SA
COMMENT: relative retention time with respect to 9-anthracene Carboxylic Acid is 0.674
CH$NAME: Hydrocinchonine
CH$COMPOUND_CLASS: N/A
CH$FORMULA: C19H24N2O
CH$EXACT_MASS: 296.188863
CH$SMILES: CCC1CN2CCC1CC2C(C3=CC=NC4=CC=CC=C34)O
CH$IUPAC: InChI=1S/C19H24N2O/c1-2-13-12-21-10-8-14(13)11-18(21)19(22)16-7-9-20-17-6-4-3-5-15(16)17/h3-7,9,13-14,18-19,22H,2,8,10-12H2,1H3
CH$LINK: CAS 485-65-4
CH$LINK: CHEMSPIDER 91899
CH$LINK: PUBCHEM CID:101711
CH$LINK: INCHIKEY WFJNHVWTKZUUTR-UHFFFAOYSA-N
AC$INSTRUMENT: Agilent 1200 RRLC; Agilent 6520 QTOF
AC$INSTRUMENT_TYPE: LC-ESI-QTOF
AC$MASS_SPECTROMETRY: MS_TYPE MS2
AC$MASS_SPECTROMETRY: ION_MODE POSITIVE
AC$MASS_SPECTROMETRY: COLLISION_ENERGY 20 ev
AC$MASS_SPECTROMETRY: COLLISION_GAS N2
AC$MASS_SPECTROMETRY: SCANNING m/z 100-1000
AC$CHROMATOGRAPHY: COLUMN_NAME Agilent C8 Cartridge Column 2.1X30mm 3.5 micron (guard); Agilent SB-Aq 2.1x50mm 1.8 micron (analytical)
AC$CHROMATOGRAPHY: COLUMN_TEMPERATURE 60 C
AC$CHROMATOGRAPHY: FLOW_GRADIENT linear from 98A/2B at 0 min to 2A/98B at 13 min, hold 6 min at 2A/98B, reequilibration 98A/2B (5 min)
AC$CHROMATOGRAPHY: FLOW_RATE 0.6 ml/min
AC$CHROMATOGRAPHY: RETENTION_TIME 4.962
AC$CHROMATOGRAPHY: SOLVENT A water with 0.2% acetic acid
AC$CHROMATOGRAPHY: SOLVENT B methanol with 0.2% acetic acid
MS$FOCUSED_ION: BASE_PEAK 297
MS$FOCUSED_ION: PRECURSOR_M/Z 297.1962
MS$FOCUSED_ION: PRECURSOR_TYPE [M+H]+
PK$SPLASH: splash10-0002-0090000000-69ff0519d4dd5076aa46
PK$NUM_PEAK: 2
PK$PEAK: m/z int. rel.int.
  279.1825 98 239
  297.1919 410 999
//
