ACCESSION: MSBNK-Washington_State_Univ-BML00192
RECORD_TITLE: Amorphigenin; LC-ESI-QTOF; MS2; CE 40 ev; [M+H]+
DATE: 2016.01.19 (Created 2012.10.26)
AUTHORS: Cuthbertson DJ, Johnson SR, Lange BM, Institute of Biological Chemistry, Washington State University
LICENSE: CC BY-SA
COMMENT: relative retention time with respect to 9-anthracene Carboxylic Acid is 1.086
CH$NAME: Amorphigenin
CH$COMPOUND_CLASS: N/A
CH$FORMULA: C23H22O7
CH$EXACT_MASS: 410.136553
CH$SMILES: COC1=C(C=C2C(=C1)[C@H]3[C@@H](CO2)OC4=C(C3=O)C=CC5=C4C[C@@H](O5)C(=C)CO)OC
CH$IUPAC: InChI=1S/C23H22O7/c1-11(9-24)16-7-14-15(29-16)5-4-12-22(25)21-13-6-18(26-2)19(27-3)8-17(13)28-10-20(21)30-23(12)14/h4-6,8,16,20-21,24H,1,7,9-10H2,2-3H3/t16-,20-,21+/m1/s1
CH$LINK: CAS 4208-09-7
CH$LINK: CHEMSPIDER 3546693
CH$LINK: PUBCHEM CID:92207
CH$LINK: INCHIKEY ZJMLELXRQUXRIU-HBGVWJBISA-N
CH$LINK: COMPTOX DTXSID70962267
AC$INSTRUMENT: Agilent 1200 RRLC; Agilent 6520 QTOF
AC$INSTRUMENT_TYPE: LC-ESI-QTOF
AC$MASS_SPECTROMETRY: MS_TYPE MS2
AC$MASS_SPECTROMETRY: ION_MODE POSITIVE
AC$MASS_SPECTROMETRY: COLLISION_ENERGY 40 ev
AC$MASS_SPECTROMETRY: COLLISION_GAS N2
AC$MASS_SPECTROMETRY: SCANNING m/z 100-1000
AC$CHROMATOGRAPHY: COLUMN_NAME Agilent C8 Cartridge Column 2.1X30mm 3.5 micron (guard); Agilent SB-Aq 2.1x50mm 1.8 micron (analytical)
AC$CHROMATOGRAPHY: COLUMN_TEMPERATURE 60 C
AC$CHROMATOGRAPHY: FLOW_GRADIENT linear from 98A/2B at 0 min to 2A/98B at 13 min, hold 6 min at 2A/98B, reequilibration 98A/2B (5 min)
AC$CHROMATOGRAPHY: FLOW_RATE 0.6 ml/min
AC$CHROMATOGRAPHY: RETENTION_TIME 8.015
AC$CHROMATOGRAPHY: SOLVENT A water with 0.2% acetic acid
AC$CHROMATOGRAPHY: SOLVENT B methanol with 0.2% acetic acid
MS$FOCUSED_ION: BASE_PEAK 191
MS$FOCUSED_ION: PRECURSOR_M/Z 411.1439
MS$FOCUSED_ION: PRECURSOR_TYPE [M+H]+
PK$SPLASH: splash10-0006-0900000000-834601d423e87ba48516
PK$NUM_PEAK: 41
PK$PEAK: m/z int. rel.int.
  107.0495 62 238
  108.0513 27 104
  108.0591 21 81
  117.0648 48 184
  121.0718 21 81
  124.0493 64 246
  127.0573 28 108
  131.0815 23 88
  133.0632 78 300
  135.0425 41 158
  136.0586 26 100
  137.0571 27 104
  139.0712 49 188
  141.0674 30 115
  144.0591 24 92
  145.0653 45 173
  147.0401 45 173
  148.0537 37 142
  149.0229 40 154
  151.0794 50 192
  153.0693 32 123
  155.0807 30 115
  159.0425 91 350
  159.0754 21 81
  165.0927 32 123
  167.0724 33 127
  168.0552 44 169
  169.0634 25 96
  170.0719 26 100
  171.0443 21 81
  173.0933 21 81
  177.0528 101 388
  179.0607 21 81
  179.0744 22 85
  183.0732 32 123
  191.0712 260 999
  192.0782 111 426
  193.0891 23 88
  198.0691 34 131
  211.0757 104 400
  229.086 75 288
//
