ACCESSION: MSBNK-Washington_State_Univ-BML00216
RECORD_TITLE: Capensine; LC-ESI-QTOF; MS2; CE 20 ev; [M-H]-
DATE: 2016.01.19 (Created 2012.10.26)
AUTHORS: Cuthbertson DJ, Johnson SR, Lange BM, Institute of Biological Chemistry, Washington State University
LICENSE: CC BY-SA
COMMENT: relative retention time with respect to 9-anthracene Carboxylic Acid is 1.051
CH$NAME: Capensine
CH$COMPOUND_CLASS: N/A
CH$FORMULA: C15H16O5
CH$EXACT_MASS: 276.099774
CH$SMILES: CC(=CCOC1=C(C=C2C=CC(=O)OC2=C1O)OC)C
CH$IUPAC: InChI=1S/C15H16O5/c1-9(2)6-7-19-15-11(18-3)8-10-4-5-12(16)20-14(10)13(15)17/h4-6,8,17H,7H2,1-3H3
CH$LINK: CHEMSPIDER 559932
CH$LINK: PUBCHEM CID:644959
CH$LINK: INCHIKEY QJZRVRVZRIXGMR-UHFFFAOYSA-N
AC$INSTRUMENT: Agilent 1200 RRLC; Agilent 6520 QTOF
AC$INSTRUMENT_TYPE: LC-ESI-QTOF
AC$MASS_SPECTROMETRY: MS_TYPE MS2
AC$MASS_SPECTROMETRY: ION_MODE NEGATIVE
AC$MASS_SPECTROMETRY: COLLISION_ENERGY 20 ev
AC$MASS_SPECTROMETRY: COLLISION_GAS N2
AC$MASS_SPECTROMETRY: SCANNING m/z 100-1000
AC$CHROMATOGRAPHY: COLUMN_NAME Agilent C8 Cartridge Column 2.1X30mm 3.5 micron (guard); Agilent SB-Aq 2.1x50mm 1.8 micron (analytical)
AC$CHROMATOGRAPHY: COLUMN_TEMPERATURE 60 C
AC$CHROMATOGRAPHY: FLOW_GRADIENT linear from 98A/2B at 0 min to 2A/98B at 13 min, hold 6 min at 2A/98B, reequilibration 98A/2B (5 min)
AC$CHROMATOGRAPHY: FLOW_RATE 0.6 ml/min
AC$CHROMATOGRAPHY: RETENTION_TIME 7.753
AC$CHROMATOGRAPHY: SOLVENT A water with 0.2% acetic acid
AC$CHROMATOGRAPHY: SOLVENT B methanol with 0.2% acetic acid
MS$FOCUSED_ION: BASE_PEAK 191
MS$FOCUSED_ION: PRECURSOR_M/Z 275.0925
MS$FOCUSED_ION: PRECURSOR_TYPE [M-H]-
PK$SPLASH: splash10-0006-0930000000-8b9d5bef00b3a829947c
PK$NUM_PEAK: 33
PK$PEAK: m/z int. rel.int.
  104.881 32 7
  107.0169 89 19
  111.2972 28 6
  119.0143 42 9
  130.9228 39 8
  135.0085 266 57
  147.0135 65 14
  150.0319 58 12
  163.0013 584 125
  175.0045 33 7
  178.0295 47 10
  190.9978 4675 999
  191.0361 154 33
  191.0597 83 18
  191.0728 30 6
  191.1273 68 15
  191.1862 29 6
  191.2895 34 7
  191.3235 27 6
  191.4423 29 6
  191.4904 38 8
  191.7597 26 6
  192.0106 46 10
  192.0965 35 7
  193.0959 26 6
  200.4782 48 10
  205.0121 37 8
  206.0219 1964 420
  206.0663 70 15
  206.0862 63 13
  206.7088 30 6
  232.3171 35 7
  233.9216 25 5
//
