ACCESSION: MSBNK-Washington_State_Univ-BML00793
RECORD_TITLE: Cryptopine; LC-ESI-QTOF; MS2; CE 20 ev; [M+H]+
DATE: 2016.01.19 (Created 2012.10.26)
AUTHORS: Cuthbertson DJ, Johnson SR, Lange BM, Institute of Biological Chemistry, Washington State University
LICENSE: CC BY-SA
COMMENT: relative retention time with respect to 9-anthracene Carboxylic Acid is 0.612
CH$NAME: Cryptopine
CH$COMPOUND_CLASS: N/A
CH$FORMULA: C21H23NO5
CH$EXACT_MASS: 369.157623
CH$SMILES: CN1CCC2=CC(=C(C=C2C(=O)CC3=C(C1)C4=C(C=C3)OCO4)OC)OC
CH$IUPAC: InChI=1S/C21H23NO5/c1-22-7-6-14-9-19(24-2)20(25-3)10-15(14)17(23)8-13-4-5-18-21(16(13)11-22)27-12-26-18/h4-5,9-10H,6-8,11-12H2,1-3H3
CH$LINK: CAS 482-74-6
CH$LINK: CHEMSPIDER 65491
CH$LINK: PUBCHEM CID:72616
CH$LINK: INCHIKEY XPOJSWHIKCNLEQ-UHFFFAOYSA-N
CH$LINK: COMPTOX DTXSID40197463
AC$INSTRUMENT: Agilent 1200 RRLC; Agilent 6520 QTOF
AC$INSTRUMENT_TYPE: LC-ESI-QTOF
AC$MASS_SPECTROMETRY: MS_TYPE MS2
AC$MASS_SPECTROMETRY: ION_MODE POSITIVE
AC$MASS_SPECTROMETRY: COLLISION_ENERGY 20 ev
AC$MASS_SPECTROMETRY: COLLISION_GAS N2
AC$MASS_SPECTROMETRY: SCANNING m/z 100-1000
AC$CHROMATOGRAPHY: COLUMN_NAME Agilent C8 Cartridge Column 2.1X30mm 3.5 micron (guard); Agilent SB-Aq 2.1x50mm 1.8 micron (analytical)
AC$CHROMATOGRAPHY: COLUMN_TEMPERATURE 60 C
AC$CHROMATOGRAPHY: FLOW_GRADIENT linear from 98A/2B at 0 min to 2A/98B at 13 min, hold 6 min at 2A/98B, reequilibration 98A/2B (5 min)
AC$CHROMATOGRAPHY: FLOW_RATE 0.6 ml/min
AC$CHROMATOGRAPHY: RETENTION_TIME 4.487
AC$CHROMATOGRAPHY: SOLVENT A water with 0.2% acetic acid
AC$CHROMATOGRAPHY: SOLVENT B methanol with 0.2% acetic acid
MS$FOCUSED_ION: BASE_PEAK 370
MS$FOCUSED_ION: PRECURSOR_M/Z 370.1649
MS$FOCUSED_ION: PRECURSOR_TYPE [M+H]+
PK$SPLASH: splash10-0kmi-0496000000-7bea27a94f3f110ddd36
PK$NUM_PEAK: 13
PK$PEAK: m/z int. rel.int.
  149.068 23 77
  150.0631 24 80
  165.0886 98 327
  190.0871 39 130
  194.1146 38 127
  204.1011 216 722
  205.1087 166 555
  222.122 22 74
  263.1001 45 150
  291.1031 24 80
  339.1093 24 80
  352.158 24 80
  370.1586 299 999
//
