ACCESSION: MSBNK-Washington_State_Univ-BML00212
RECORD_TITLE: Sissotrine; LC-ESI-QTOF; MS2; CE 20 ev; [M-H]-
DATE: 2016.01.19 (Created 2012.10.26)
AUTHORS: Cuthbertson DJ, Johnson SR, Lange BM, Institute of Biological Chemistry, Washington State University
LICENSE: CC BY-SA
COMMENT: relative retention time with respect to 9-anthracene Carboxylic Acid is 0.907
CH$NAME: Sissotrine
CH$COMPOUND_CLASS: N/A
CH$FORMULA: C22H22O10
CH$EXACT_MASS: 446.121297
CH$SMILES: COC1=CC=C(C=C1)C2=COC3=CC(=CC(=C3C2=O)O)OC4C(C(C(C(O4)CO)O)O)O
CH$IUPAC: InChI=1S/C22H22O10/c1-29-11-4-2-10(3-5-11)13-9-30-15-7-12(6-14(24)17(15)18(13)25)31-22-21(28)20(27)19(26)16(8-23)32-22/h2-7,9,16,19-24,26-28H,8H2,1H3
CH$LINK: CAS 5928-26-7
CH$LINK: CHEMSPIDER 4513980
CH$LINK: PUBCHEM CID:5358913
CH$LINK: INCHIKEY LFEUICHQZGNOHD-UHFFFAOYSA-N
CH$LINK: COMPTOX DTXSID50974707
AC$INSTRUMENT: Agilent 1200 RRLC; Agilent 6520 QTOF
AC$INSTRUMENT_TYPE: LC-ESI-QTOF
AC$MASS_SPECTROMETRY: MS_TYPE MS2
AC$MASS_SPECTROMETRY: ION_MODE NEGATIVE
AC$MASS_SPECTROMETRY: COLLISION_ENERGY 20 ev
AC$MASS_SPECTROMETRY: COLLISION_GAS N2
AC$MASS_SPECTROMETRY: SCANNING m/z 100-1000
AC$CHROMATOGRAPHY: COLUMN_NAME Agilent C8 Cartridge Column 2.1X30mm 3.5 micron (guard); Agilent SB-Aq 2.1x50mm 1.8 micron (analytical)
AC$CHROMATOGRAPHY: COLUMN_TEMPERATURE 60 C
AC$CHROMATOGRAPHY: FLOW_GRADIENT linear from 98A/2B at 0 min to 2A/98B at 13 min, hold 6 min at 2A/98B, reequilibration 98A/2B (5 min)
AC$CHROMATOGRAPHY: FLOW_RATE 0.6 ml/min
AC$CHROMATOGRAPHY: RETENTION_TIME 6.693
AC$CHROMATOGRAPHY: SOLVENT A water with 0.2% acetic acid
AC$CHROMATOGRAPHY: SOLVENT B methanol with 0.2% acetic acid
MS$FOCUSED_ION: BASE_PEAK 283
MS$FOCUSED_ION: PRECURSOR_M/Z 445.1140
MS$FOCUSED_ION: PRECURSOR_TYPE [M-H]-
PK$SPLASH: splash10-001i-0090000000-c58519e7d50fc1a2e8b7
PK$NUM_PEAK: 7
PK$PEAK: m/z int. rel.int.
  268.0391 180 89
  283.0596 2031 999
  283.0986 23 11
  283.1176 60 30
  297.078 25 12
  325.0732 29 14
  429.4834 24 12
//
