ACCESSION: MSBNK-Washington_State_Univ-BML00307
RECORD_TITLE: Hesperetin; LC-ESI-QTOF; MS2; CE 10 ev; [M-H]-
DATE: 2016.01.19 (Created 2012.10.26)
AUTHORS: Cuthbertson DJ, Johnson SR, Lange BM, Institute of Biological Chemistry, Washington State University
LICENSE: CC BY-SA
COMMENT: relative retention time with respect to 9-anthracene Carboxylic Acid is 0.957
CH$NAME: Hesperetin
CH$COMPOUND_CLASS: N/A
CH$FORMULA: C16H14O6
CH$EXACT_MASS: 302.079038
CH$SMILES: COC1=C(C=C(C=C1)C2CC(=O)C3=C(C=C(C=C3O2)O)O)O
CH$IUPAC: InChI=1S/C16H14O6/c1-21-13-3-2-8(4-10(13)18)14-7-12(20)16-11(19)5-9(17)6-15(16)22-14/h2-6,14,17-19H,7H2,1H3
CH$LINK: CAS 520-33-2
CH$LINK: CHEMSPIDER 3467
CH$LINK: PUBCHEM CID:3593
CH$LINK: INCHIKEY AIONOLUJZLIMTK-UHFFFAOYSA-N
CH$LINK: COMPTOX DTXSID80274404
AC$INSTRUMENT: Agilent 1200 RRLC; Agilent 6520 QTOF
AC$INSTRUMENT_TYPE: LC-ESI-QTOF
AC$MASS_SPECTROMETRY: MS_TYPE MS2
AC$MASS_SPECTROMETRY: ION_MODE NEGATIVE
AC$MASS_SPECTROMETRY: COLLISION_ENERGY 10 ev
AC$MASS_SPECTROMETRY: COLLISION_GAS N2
AC$MASS_SPECTROMETRY: SCANNING m/z 100-1000
AC$CHROMATOGRAPHY: COLUMN_NAME Agilent C8 Cartridge Column 2.1X30mm 3.5 micron (guard); Agilent SB-Aq 2.1x50mm 1.8 micron (analytical)
AC$CHROMATOGRAPHY: COLUMN_TEMPERATURE 60 C
AC$CHROMATOGRAPHY: FLOW_GRADIENT linear from 98A/2B at 0 min to 2A/98B at 13 min, hold 6 min at 2A/98B, reequilibration 98A/2B (5 min)
AC$CHROMATOGRAPHY: FLOW_RATE 0.6 ml/min
AC$CHROMATOGRAPHY: RETENTION_TIME 7.053
AC$CHROMATOGRAPHY: SOLVENT A water with 0.2% acetic acid
AC$CHROMATOGRAPHY: SOLVENT B methanol with 0.2% acetic acid
MS$FOCUSED_ION: BASE_PEAK 301
MS$FOCUSED_ION: PRECURSOR_M/Z 301.0717
MS$FOCUSED_ION: PRECURSOR_TYPE [M-H]-
PK$SPLASH: splash10-0udi-0009000000-e068a12319d0bfd192f1
PK$NUM_PEAK: 13
PK$PEAK: m/z int. rel.int.
  125.0236 523 13
  136.0159 300 7
  151.0027 341 8
  164.0115 803 20
  174.0319 310 8
  199.0395 331 8
  201.0163 240 6
  242.059 653 16
  257.0799 583 14
  258.0558 242 6
  283.0616 246 6
  286.0463 1315 33
  301.0715 40342 999
//
