ACCESSION: MSBNK-Washington_State_Univ-BML01030
RECORD_TITLE: Primuliten; LC-ESI-QTOF; MS2; CE 40 ev; [M+H]+
DATE: 2016.01.19 (Created 2012.10.26)
AUTHORS: Cuthbertson DJ, Johnson SR, Lange BM, Institute of Biological Chemistry, Washington State University
LICENSE: CC BY-SA
COMMENT: relative retention time with respect to 9-anthracene Carboxylic Acid is 1.268
CH$NAME: Primuliten
CH$COMPOUND_CLASS: N/A
CH$FORMULA: C15H10O3
CH$EXACT_MASS: 238.062994
CH$SMILES: C1=CC=C(C=C1)C2=CC(=O)C3=C(O2)C=CC=C3O
CH$IUPAC: InChI=1S/C15H10O3/c16-11-7-4-8-13-15(11)12(17)9-14(18-13)10-5-2-1-3-6-10/h1-9,16H
CH$LINK: CAS 491-78-1
CH$LINK: CHEMSPIDER 61420
CH$LINK: PUBCHEM CID:68112
CH$LINK: INCHIKEY IYBLVRRCNVHZQJ-UHFFFAOYSA-N
CH$LINK: COMPTOX DTXSID90197690
AC$INSTRUMENT: Agilent 1200 RRLC; Agilent 6520 QTOF
AC$INSTRUMENT_TYPE: LC-ESI-QTOF
AC$MASS_SPECTROMETRY: MS_TYPE MS2
AC$MASS_SPECTROMETRY: ION_MODE POSITIVE
AC$MASS_SPECTROMETRY: COLLISION_ENERGY 40 ev
AC$MASS_SPECTROMETRY: COLLISION_GAS N2
AC$MASS_SPECTROMETRY: SCANNING m/z 100-1000
AC$CHROMATOGRAPHY: COLUMN_NAME Agilent C8 Cartridge Column 2.1X30mm 3.5 micron (guard); Agilent SB-Aq 2.1x50mm 1.8 micron (analytical)
AC$CHROMATOGRAPHY: COLUMN_TEMPERATURE 60 C
AC$CHROMATOGRAPHY: FLOW_GRADIENT linear from 98A/2B at 0 min to 2A/98B at 13 min, hold 6 min at 2A/98B, reequilibration 98A/2B (5 min)
AC$CHROMATOGRAPHY: FLOW_RATE 0.6 ml/min
AC$CHROMATOGRAPHY: RETENTION_TIME 9.250
AC$CHROMATOGRAPHY: SOLVENT A water with 0.2% acetic acid
AC$CHROMATOGRAPHY: SOLVENT B methanol with 0.2% acetic acid
MS$FOCUSED_ION: BASE_PEAK 103
MS$FOCUSED_ION: PRECURSOR_M/Z 239.0703
MS$FOCUSED_ION: PRECURSOR_TYPE [M+H]+
PK$SPLASH: splash10-0fri-0900000000-f53acd30e4fee35995fa
PK$NUM_PEAK: 9
PK$PEAK: m/z int. rel.int.
  103.0547 131 999
  115.0606 32 244
  129.0265 23 175
  129.0333 59 450
  137.0206 92 702
  139.0525 105 801
  164.0568 45 343
  165.0691 95 724
  239.0716 36 275
//
