ACCESSION: MSBNK-Washington_State_Univ-BML00243
RECORD_TITLE: Kynurenic Acid; LC-ESI-QTOF; MS2; CE 20 ev; [M+H]+
DATE: 2016.01.19 (Created 2012.10.26)
AUTHORS: Cuthbertson DJ, Johnson SR, Lange BM, Institute of Biological Chemistry, Washington State University
LICENSE: CC BY-SA
COMMENT: relative retention time with respect to 9-anthracene Carboxylic Acid is 0.372
CH$NAME: Kynurenic Acid
CH$COMPOUND_CLASS: N/A
CH$FORMULA: C10H7NO3
CH$EXACT_MASS: 189.042593
CH$SMILES: C1=CC=C2C(=C1)C(=O)C=C(N2)C(=O)O
CH$IUPAC: InChI=1S/C10H7NO3/c12-9-5-8(10(13)14)11-7-4-2-1-3-6(7)9/h1-5H,(H,11,12)(H,13,14)
CH$LINK: CAS 492-27-3
CH$LINK: CHEMSPIDER 3712
CH$LINK: PUBCHEM CID:3845
CH$LINK: INCHIKEY HCZHHEIFKROPDY-UHFFFAOYSA-N
CH$LINK: COMPTOX DTXSID8075417
AC$INSTRUMENT: Agilent 1200 RRLC; Agilent 6520 QTOF
AC$INSTRUMENT_TYPE: LC-ESI-QTOF
AC$MASS_SPECTROMETRY: MS_TYPE MS2
AC$MASS_SPECTROMETRY: ION_MODE POSITIVE
AC$MASS_SPECTROMETRY: COLLISION_ENERGY 20 ev
AC$MASS_SPECTROMETRY: COLLISION_GAS N2
AC$MASS_SPECTROMETRY: SCANNING m/z 100-1000
AC$CHROMATOGRAPHY: COLUMN_NAME Agilent C8 Cartridge Column 2.1X30mm 3.5 micron (guard); Agilent SB-Aq 2.1x50mm 1.8 micron (analytical)
AC$CHROMATOGRAPHY: COLUMN_TEMPERATURE 60 C
AC$CHROMATOGRAPHY: FLOW_GRADIENT linear from 98A/2B at 0 min to 2A/98B at 13 min, hold 6 min at 2A/98B, reequilibration 98A/2B (5 min)
AC$CHROMATOGRAPHY: FLOW_RATE 0.6 ml/min
AC$CHROMATOGRAPHY: RETENTION_TIME 2.730
AC$CHROMATOGRAPHY: SOLVENT A water with 0.2% acetic acid
AC$CHROMATOGRAPHY: SOLVENT B methanol with 0.2% acetic acid
MS$FOCUSED_ION: BASE_PEAK 144
MS$FOCUSED_ION: PRECURSOR_M/Z 190.0499
MS$FOCUSED_ION: PRECURSOR_TYPE [M+H]+
PK$SPLASH: splash10-0006-0900000000-51e6b7c920848310eccc
PK$NUM_PEAK: 8
PK$PEAK: m/z int. rel.int.
  116.0486 1007 107
  144.0441 9445 999
  144.0797 261 28
  144.0967 100 11
  144.1118 50 5
  144.1274 81 9
  144.1553 243 26
  172.0349 93 10
//
