ACCESSION: MSBNK-Washington_State_Univ-BML00072
RECORD_TITLE: Harmaline; LC-ESI-QTOF; MS2; CE 20 ev; [M+H]+
DATE: 2016.01.19 (Created 2012.10.26)
AUTHORS: Cuthbertson DJ, Johnson SR, Lange BM, Institute of Biological Chemistry, Washington State University
LICENSE: CC BY-SA
COMMENT: relative retention time with respect to 9-anthracene Carboxylic Acid is 0.565
CH$NAME: Harmaline
CH$COMPOUND_CLASS: N/A
CH$FORMULA: C13H14N2O
CH$EXACT_MASS: 214.110613
CH$SMILES: CC1=C2C(=C3C=CC(=CC3=N2)OC)CCN1
CH$IUPAC: InChI=1S/C13H14N2O/c1-8-13-11(5-6-14-8)10-4-3-9(16-2)7-12(10)15-13/h3-4,7,14H,5-6H2,1-2H3
CH$LINK: CAS 6027-98-1
CH$LINK: CHEMSPIDER 4444444
CH$LINK: PUBCHEM CID:5280951
CH$LINK: INCHIKEY QJOZJXNKVMFAET-UHFFFAOYSA-N
AC$INSTRUMENT: Agilent 1200 RRLC; Agilent 6520 QTOF
AC$INSTRUMENT_TYPE: LC-ESI-QTOF
AC$MASS_SPECTROMETRY: MS_TYPE MS2
AC$MASS_SPECTROMETRY: ION_MODE POSITIVE
AC$MASS_SPECTROMETRY: COLLISION_ENERGY 20 ev
AC$MASS_SPECTROMETRY: COLLISION_GAS N2
AC$MASS_SPECTROMETRY: SCANNING m/z 100-1000
AC$CHROMATOGRAPHY: COLUMN_NAME Agilent C8 Cartridge Column 2.1X30mm 3.5 micron (guard); Agilent SB-Aq 2.1x50mm 1.8 micron (analytical)
AC$CHROMATOGRAPHY: COLUMN_TEMPERATURE 60 C
AC$CHROMATOGRAPHY: FLOW_GRADIENT linear from 98A/2B at 0 min to 2A/98B at 13 min, hold 6 min at 2A/98B, reequilibration 98A/2B (5 min)
AC$CHROMATOGRAPHY: FLOW_RATE 0.6 ml/min
AC$CHROMATOGRAPHY: RETENTION_TIME 4.125
AC$CHROMATOGRAPHY: SOLVENT A water with 0.2% acetic acid
AC$CHROMATOGRAPHY: SOLVENT B methanol with 0.2% acetic acid
MS$FOCUSED_ION: BASE_PEAK 215
MS$FOCUSED_ION: PRECURSOR_M/Z 215.1179
MS$FOCUSED_ION: PRECURSOR_TYPE [M+H]+
PK$SPLASH: splash10-0g4i-0890000000-ce1afbe36f0c9bc9152e
PK$NUM_PEAK: 9
PK$PEAK: m/z int. rel.int.
  130.0614 40 169
  133.0521 23 97
  159.068 22 93
  172.076 21 89
  172.0994 71 301
  174.0907 208 880
  198.0816 33 140
  200.0916 231 978
  215.1178 236 999
//
