ACCESSION: MSBNK-Washington_State_Univ-BML01489
RECORD_TITLE: 7-Hydroxy-3'-methoxyflavone; LC-ESI-QTOF; MS2; CE 20 ev; [M+H]+
DATE: 2016.01.19 (Created 2012.10.26)
AUTHORS: Cuthbertson DJ, Johnson SR, Lange BM, Institute of Biological Chemistry, Washington State University
LICENSE: CC BY-SA
COMMENT: relative retention time with respect to 9-anthracene Carboxylic Acid is 1.164
CH$NAME: 7-Hydroxy-3'-methoxyflavone
CH$COMPOUND_CLASS: N/A
CH$FORMULA: C16H12O4
CH$EXACT_MASS: 268.073559
CH$SMILES: COC1=CC=CC(=C1)C2=CC(=O)C3=C(O2)C=C(C=C3)O
CH$IUPAC: InChI=1S/C16H12O4/c1-19-12-4-2-3-10(7-12)15-9-14(18)13-6-5-11(17)8-16(13)20-15/h2-9,17H,1H3
CH$LINK: CHEMSPIDER 4537957
CH$LINK: PUBCHEM CID:5393153
CH$LINK: INCHIKEY PTXIWVJSAQPKEY-UHFFFAOYSA-N
AC$INSTRUMENT: Agilent 1200 RRLC; Agilent 6520 QTOF
AC$INSTRUMENT_TYPE: LC-ESI-QTOF
AC$MASS_SPECTROMETRY: MS_TYPE MS2
AC$MASS_SPECTROMETRY: ION_MODE POSITIVE
AC$MASS_SPECTROMETRY: COLLISION_ENERGY 20 ev
AC$MASS_SPECTROMETRY: COLLISION_GAS N2
AC$MASS_SPECTROMETRY: SCANNING m/z 100-1000
AC$CHROMATOGRAPHY: COLUMN_NAME Agilent C8 Cartridge Column 2.1X30mm 3.5 micron (guard); Agilent SB-Aq 2.1x50mm 1.8 micron (analytical)
AC$CHROMATOGRAPHY: COLUMN_TEMPERATURE 60 C
AC$CHROMATOGRAPHY: FLOW_GRADIENT linear from 98A/2B at 0 min to 2A/98B at 13 min, hold 6 min at 2A/98B, reequilibration 98A/2B (5 min)
AC$CHROMATOGRAPHY: FLOW_RATE 0.6 ml/min
AC$CHROMATOGRAPHY: RETENTION_TIME 8.603
AC$CHROMATOGRAPHY: SOLVENT A water with 0.2% acetic acid
AC$CHROMATOGRAPHY: SOLVENT B methanol with 0.2% acetic acid
MS$FOCUSED_ION: BASE_PEAK 269
MS$FOCUSED_ION: PRECURSOR_M/Z 269.0809
MS$FOCUSED_ION: PRECURSOR_TYPE [M+H]+
PK$SPLASH: splash10-014i-0090000000-9e64d40e3e074ed3877a
PK$NUM_PEAK: 14
PK$PEAK: m/z int. rel.int.
  104.9917 50 26
  116.0219 28 15
  131.0486 33 17
  137.0218 99 52
  159.0394 24 13
  197.0642 27 14
  226.0622 692 362
  226.098 49 26
  241.0806 22 12
  254.0553 316 165
  254.0714 26 14
  269.0805 1911 999
  269.126 45 24
  269.2305 22 12
//
