ACCESSION: MSBNK-Washington_State_Univ-BML01190
RECORD_TITLE: 2'-Deoxycytidine 5'-monophosphate; LC-ESI-QTOF; MS2; CE 20 ev; [M+H]+
DATE: 2016.01.19 (Created 2012.10.26)
AUTHORS: Cuthbertson DJ, Johnson SR, Lange BM, Institute of Biological Chemistry, Washington State University
LICENSE: CC BY-SA
COMMENT: relative retention time with respect to 9-anthracene Carboxylic Acid is 0.054
CH$NAME: 2'-Deoxycytidine 5'-monophosphate
CH$COMPOUND_CLASS: N/A
CH$FORMULA: C9H14N3O7P
CH$EXACT_MASS: 307.056936
CH$SMILES: C1C(C(OC1N2C=CC(=NC2=O)N)COP(=O)(O)O)O
CH$IUPAC: InChI=1S/C9H14N3O7P/c10-7-1-2-12(9(14)11-7)8-3-5(13)6(19-8)4-18-20(15,16)17/h1-2,5-6,8,13H,3-4H2,(H2,10,11,14)(H2,15,16,17)
CH$LINK: CAS 1032-65-1
CH$LINK: CHEMSPIDER 604
CH$LINK: PUBCHEM CID:624
CH$LINK: INCHIKEY NCMVOABPESMRCP-UHFFFAOYSA-N
AC$INSTRUMENT: Agilent 1200 RRLC; Agilent 6520 QTOF
AC$INSTRUMENT_TYPE: LC-ESI-QTOF
AC$MASS_SPECTROMETRY: MS_TYPE MS2
AC$MASS_SPECTROMETRY: ION_MODE POSITIVE
AC$MASS_SPECTROMETRY: COLLISION_ENERGY 20 ev
AC$MASS_SPECTROMETRY: COLLISION_GAS N2
AC$MASS_SPECTROMETRY: SCANNING m/z 100-1000
AC$CHROMATOGRAPHY: COLUMN_NAME Agilent C8 Cartridge Column 2.1X30mm 3.5 micron (guard); Agilent SB-Aq 2.1x50mm 1.8 micron (analytical)
AC$CHROMATOGRAPHY: COLUMN_TEMPERATURE 60 C
AC$CHROMATOGRAPHY: FLOW_GRADIENT linear from 98A/2B at 0 min to 2A/98B at 13 min, hold 6 min at 2A/98B, reequilibration 98A/2B (5 min)
AC$CHROMATOGRAPHY: FLOW_RATE 0.6 ml/min
AC$CHROMATOGRAPHY: RETENTION_TIME 0.400
AC$CHROMATOGRAPHY: SOLVENT A water with 0.2% acetic acid
AC$CHROMATOGRAPHY: SOLVENT B methanol with 0.2% acetic acid
MS$FOCUSED_ION: BASE_PEAK 112
MS$FOCUSED_ION: PRECURSOR_M/Z 308.0642
MS$FOCUSED_ION: PRECURSOR_TYPE [M+H]+
PK$SPLASH: splash10-03di-0900000000-de109af74718e0276047
PK$NUM_PEAK: 4
PK$PEAK: m/z int. rel.int.
  112.0509 1524 999
  112.0838 36 24
  168.9222 21 14
  170.9162 87 57
//
