ACCESSION: MSBNK-Washington_State_Univ-BML00333
RECORD_TITLE: 3,3'-Dihydroxyflavone; LC-ESI-QTOF; MS2; CE 10 ev; [M-H]-
DATE: 2016.01.19 (Created 2012.10.26)
AUTHORS: Cuthbertson DJ, Johnson SR, Lange BM, Institute of Biological Chemistry, Washington State University
LICENSE: CC BY-SA
COMMENT: relative retention time with respect to 9-anthracene Carboxylic Acid is 1.054
CH$NAME: 3,3'-Dihydroxyflavone
CH$COMPOUND_CLASS: N/A
CH$FORMULA: C15H10O4
CH$EXACT_MASS: 254.057909
CH$SMILES: C1=CC=C2C(=C1)C(=O)C(=C(O2)C3=CC(=CC=C3)O)O
CH$IUPAC: InChI=1S/C15H10O4/c16-10-5-3-4-9(8-10)15-14(18)13(17)11-6-1-2-7-12(11)19-15/h1-8,16,18H
CH$LINK: CAS 55977-09-8
CH$LINK: CHEMSPIDER 589031
CH$LINK: PUBCHEM CID:676295
CH$LINK: INCHIKEY QZESEGHSLFKZIV-UHFFFAOYSA-N
CH$LINK: COMPTOX DTXSID70350266
AC$INSTRUMENT: Agilent 1200 RRLC; Agilent 6520 QTOF
AC$INSTRUMENT_TYPE: LC-ESI-QTOF
AC$MASS_SPECTROMETRY: MS_TYPE MS2
AC$MASS_SPECTROMETRY: ION_MODE NEGATIVE
AC$MASS_SPECTROMETRY: COLLISION_ENERGY 10 ev
AC$MASS_SPECTROMETRY: COLLISION_GAS N2
AC$MASS_SPECTROMETRY: SCANNING m/z 100-1000
AC$CHROMATOGRAPHY: COLUMN_NAME Agilent C8 Cartridge Column 2.1X30mm 3.5 micron (guard); Agilent SB-Aq 2.1x50mm 1.8 micron (analytical)
AC$CHROMATOGRAPHY: COLUMN_TEMPERATURE 60 C
AC$CHROMATOGRAPHY: FLOW_GRADIENT linear from 98A/2B at 0 min to 2A/98B at 13 min, hold 6 min at 2A/98B, reequilibration 98A/2B (5 min)
AC$CHROMATOGRAPHY: FLOW_RATE 0.6 ml/min
AC$CHROMATOGRAPHY: RETENTION_TIME 7.772
AC$CHROMATOGRAPHY: SOLVENT A water with 0.2% acetic acid
AC$CHROMATOGRAPHY: SOLVENT B methanol with 0.2% acetic acid
MS$FOCUSED_ION: BASE_PEAK 253
MS$FOCUSED_ION: PRECURSOR_M/Z 253.0506
MS$FOCUSED_ION: PRECURSOR_TYPE [M-H]-
PK$SPLASH: splash10-0udi-0190000000-f646b851333086480d9f
PK$NUM_PEAK: 8
PK$PEAK: m/z int. rel.int.
  195.0441 2839 83
  197.0594 3573 105
  207.0421 358 11
  208.0554 207 6
  223.0367 183 5
  224.0472 632 19
  225.0551 2713 80
  253.0495 33972 999
//
