ACCESSION: MSBNK-Washington_State_Univ-BML00556
RECORD_TITLE: Kinetin-9-riboside; LC-ESI-QTOF; MS2; CE 20 ev; [M-H]-
DATE: 2016.01.19 (Created 2012.10.26)
AUTHORS: Cuthbertson DJ, Johnson SR, Lange BM, Institute of Biological Chemistry, Washington State University
LICENSE: CC BY-SA
COMMENT: relative retention time with respect to 9-anthracene Carboxylic Acid is 0.642
CH$NAME: Kinetin-9-riboside
CH$COMPOUND_CLASS: N/A
CH$FORMULA: C15H17N5O5
CH$EXACT_MASS: 347.122969
CH$SMILES: C1=COC(=C1)CNC2=NC=NC3=C2N=CN3[C@H]4[C@@H]([C@@H]([C@H](O4)CO)O)O
CH$IUPAC: InChI=1S/C15H17N5O5/c21-5-9-11(22)12(23)15(25-9)20-7-19-10-13(17-6-18-14(10)20)16-4-8-2-1-3-24-8/h1-3,6-7,9,11-12,15,21-23H,4-5H2,(H,16,17,18)/t9-,11-,12-,15-/m1/s1
CH$LINK: CAS 4338-47-0
CH$LINK: CHEMSPIDER 19164
CH$LINK: PUBCHEM CID:20345
CH$LINK: INCHIKEY CAGLGYNQQSIUGX-SDBHATRESA-N
AC$INSTRUMENT: Agilent 1200 RRLC; Agilent 6520 QTOF
AC$INSTRUMENT_TYPE: LC-ESI-QTOF
AC$MASS_SPECTROMETRY: MS_TYPE MS2
AC$MASS_SPECTROMETRY: ION_MODE NEGATIVE
AC$MASS_SPECTROMETRY: COLLISION_ENERGY 20 ev
AC$MASS_SPECTROMETRY: COLLISION_GAS N2
AC$MASS_SPECTROMETRY: SCANNING m/z 100-1000
AC$CHROMATOGRAPHY: COLUMN_NAME Agilent C8 Cartridge Column 2.1X30mm 3.5 micron (guard); Agilent SB-Aq 2.1x50mm 1.8 micron (analytical)
AC$CHROMATOGRAPHY: COLUMN_TEMPERATURE 60 C
AC$CHROMATOGRAPHY: FLOW_GRADIENT linear from 98A/2B at 0 min to 2A/98B at 13 min, hold 6 min at 2A/98B, reequilibration 98A/2B (5 min)
AC$CHROMATOGRAPHY: FLOW_RATE 0.6 ml/min
AC$CHROMATOGRAPHY: RETENTION_TIME 4.735
AC$CHROMATOGRAPHY: SOLVENT A water with 0.2% acetic acid
AC$CHROMATOGRAPHY: SOLVENT B methanol with 0.2% acetic acid
MS$FOCUSED_ION: BASE_PEAK 214
MS$FOCUSED_ION: PRECURSOR_M/Z 346.1157
MS$FOCUSED_ION: PRECURSOR_TYPE [M-H]-
PK$SPLASH: splash10-03di-0190000000-e4c539ec99103cf00619
PK$NUM_PEAK: 20
PK$PEAK: m/z int. rel.int.
  106.0311 49 10
  110.075 25 5
  132.0243 47 9
  133.0392 397 80
  134.0468 243 49
  169.0508 36 7
  170.0426 69 14
  172.055 25 5
  196.0616 216 43
  214.0735 4978 999
  214.1013 41 8
  214.1183 40 8
  214.1389 90 18
  214.1777 58 12
  214.2114 59 12
  214.4486 25 5
  214.4879 45 9
  215.0023 28 6
  215.0827 35 7
  346.114 397 80
//
