ACCESSION: MSBNK-Washington_State_Univ-BML00343
RECORD_TITLE: 3,3'-Dihydroxyflavone; LC-ESI-QTOF; MS2; CE 40 ev; [M-H]-
DATE: 2016.01.19 (Created 2012.10.26)
AUTHORS: Cuthbertson DJ, Johnson SR, Lange BM, Institute of Biological Chemistry, Washington State University
LICENSE: CC BY-SA
COMMENT: relative retention time with respect to 9-anthracene Carboxylic Acid is 1.054
CH$NAME: 3,3'-Dihydroxyflavone
CH$COMPOUND_CLASS: N/A
CH$FORMULA: C15H10O4
CH$EXACT_MASS: 254.057909
CH$SMILES: C1=CC=C2C(=C1)C(=O)C(=C(O2)C3=CC(=CC=C3)O)O
CH$IUPAC: InChI=1S/C15H10O4/c16-10-5-3-4-9(8-10)15-14(18)13(17)11-6-1-2-7-12(11)19-15/h1-8,16,18H
CH$LINK: CAS 55977-09-8
CH$LINK: CHEMSPIDER 589031
CH$LINK: PUBCHEM CID:676295
CH$LINK: INCHIKEY QZESEGHSLFKZIV-UHFFFAOYSA-N
CH$LINK: COMPTOX DTXSID70350266
AC$INSTRUMENT: Agilent 1200 RRLC; Agilent 6520 QTOF
AC$INSTRUMENT_TYPE: LC-ESI-QTOF
AC$MASS_SPECTROMETRY: MS_TYPE MS2
AC$MASS_SPECTROMETRY: ION_MODE NEGATIVE
AC$MASS_SPECTROMETRY: COLLISION_ENERGY 40 ev
AC$MASS_SPECTROMETRY: COLLISION_GAS N2
AC$MASS_SPECTROMETRY: SCANNING m/z 100-1000
AC$CHROMATOGRAPHY: COLUMN_NAME Agilent C8 Cartridge Column 2.1X30mm 3.5 micron (guard); Agilent SB-Aq 2.1x50mm 1.8 micron (analytical)
AC$CHROMATOGRAPHY: COLUMN_TEMPERATURE 60 C
AC$CHROMATOGRAPHY: FLOW_GRADIENT linear from 98A/2B at 0 min to 2A/98B at 13 min, hold 6 min at 2A/98B, reequilibration 98A/2B (5 min)
AC$CHROMATOGRAPHY: FLOW_RATE 0.6 ml/min
AC$CHROMATOGRAPHY: RETENTION_TIME 7.772
AC$CHROMATOGRAPHY: SOLVENT A water with 0.2% acetic acid
AC$CHROMATOGRAPHY: SOLVENT B methanol with 0.2% acetic acid
MS$FOCUSED_ION: BASE_PEAK 195
MS$FOCUSED_ION: PRECURSOR_M/Z 253.0506
MS$FOCUSED_ION: PRECURSOR_TYPE [M-H]-
PK$SPLASH: splash10-0002-0900000000-df5b6010e8fc081222be
PK$NUM_PEAK: 17
PK$PEAK: m/z int. rel.int.
  165.0669 74 7
  167.0498 695 65
  169.0646 844 78
  179.048 169 16
  180.0591 135 13
  182.0373 85 8
  195.0447 10742 999
  195.088 349 32
  195.1093 82 8
  195.1431 66 6
  195.1724 122 11
  195.2295 72 7
  195.3012 58 5
  196.0518 97 9
  197.0608 337 31
  208.0515 66 6
  223.0379 168 16
//
