ACCESSION: MSBNK-Washington_State_Univ-BML00725
RECORD_TITLE: Prazosin; LC-ESI-QTOF; MS2; CE 10 ev; [M-H]-
DATE: 2016.01.19 (Created 2012.10.26)
AUTHORS: Cuthbertson DJ, Johnson SR, Lange BM, Institute of Biological Chemistry, Washington State University
LICENSE: CC BY-SA
COMMENT: relative retention time with respect to 9-anthracene Carboxylic Acid is 0.759
CH$NAME: Prazosin
CH$COMPOUND_CLASS: N/A
CH$FORMULA: C19H21N5O4
CH$EXACT_MASS: 383.159354
CH$SMILES: COC1=C(C=C2C(=C1)C(=NC(=N2)N3CCN(CC3)C(=O)C4=CC=CO4)N)OC
CH$IUPAC: InChI=1S/C19H21N5O4/c1-26-15-10-12-13(11-16(15)27-2)21-19(22-17(12)20)24-7-5-23(6-8-24)18(25)14-4-3-9-28-14/h3-4,9-11H,5-8H2,1-2H3,(H2,20,21,22)
CH$LINK: CAS 19216-56-9
CH$LINK: CHEMSPIDER 4724
CH$LINK: PUBCHEM CID:4893
CH$LINK: INCHIKEY IENZQIKPVFGBNW-UHFFFAOYSA-N
CH$LINK: COMPTOX DTXSID4049082
AC$INSTRUMENT: Agilent 1200 RRLC; Agilent 6520 QTOF
AC$INSTRUMENT_TYPE: LC-ESI-QTOF
AC$MASS_SPECTROMETRY: MS_TYPE MS2
AC$MASS_SPECTROMETRY: ION_MODE NEGATIVE
AC$MASS_SPECTROMETRY: COLLISION_ENERGY 10 ev
AC$MASS_SPECTROMETRY: COLLISION_GAS N2
AC$MASS_SPECTROMETRY: SCANNING m/z 100-1000
AC$CHROMATOGRAPHY: COLUMN_NAME Agilent C8 Cartridge Column 2.1X30mm 3.5 micron (guard); Agilent SB-Aq 2.1x50mm 1.8 micron (analytical)
AC$CHROMATOGRAPHY: COLUMN_TEMPERATURE 60 C
AC$CHROMATOGRAPHY: FLOW_GRADIENT linear from 98A/2B at 0 min to 2A/98B at 13 min, hold 6 min at 2A/98B, reequilibration 98A/2B (5 min)
AC$CHROMATOGRAPHY: FLOW_RATE 0.6 ml/min
AC$CHROMATOGRAPHY: RETENTION_TIME 5.598
AC$CHROMATOGRAPHY: SOLVENT A water with 0.2% acetic acid
AC$CHROMATOGRAPHY: SOLVENT B methanol with 0.2% acetic acid
MS$FOCUSED_ION: BASE_PEAK 382
MS$FOCUSED_ION: PRECURSOR_M/Z 382.1521
MS$FOCUSED_ION: PRECURSOR_TYPE [M-H]-
PK$SPLASH: splash10-001i-0019000000-9cca43997ddcbdd78e84
PK$NUM_PEAK: 15
PK$PEAK: m/z int. rel.int.
  110.0285 31 32
  112.6152 26 27
  164.1038 36 37
  190.7071 27 28
  202.0656 25 26
  217.0023 61 63
  245.0888 33 34
  256.5906 29 30
  284.0905 21 22
  298.9936 32 33
  299.0143 28 29
  321.8736 23 24
  367.1119 83 85
  367.126 135 139
  382.1523 973 999
//
