ACCESSION: MSBNK-Washington_State_Univ-BML00575
RECORD_TITLE: Cotinine; LC-ESI-QTOF; MS2; CE 20 ev; [M+H]+
DATE: 2016.01.19 (Created 2012.10.26)
AUTHORS: Cuthbertson DJ, Johnson SR, Lange BM, Institute of Biological Chemistry, Washington State University
LICENSE: CC BY-SA
COMMENT: relative retention time with respect to 9-anthracene Carboxylic Acid is 0.268
CH$NAME: Cotinine
CH$COMPOUND_CLASS: N/A
CH$FORMULA: C10H12N2O
CH$EXACT_MASS: 176.094963
CH$SMILES: CN1C(CCC1=O)C2=CN=CC=C2
CH$IUPAC: InChI=1S/C10H12N2O/c1-12-9(4-5-10(12)13)8-3-2-6-11-7-8/h2-3,6-7,9H,4-5H2,1H3
CH$LINK: CAS 486-56-6
CH$LINK: CHEMSPIDER 395
CH$LINK: PUBCHEM CID:408
CH$LINK: INCHIKEY UIKROCXWUNQSPJ-UHFFFAOYSA-N
CH$LINK: COMPTOX DTXSID6047577
AC$INSTRUMENT: Agilent 1200 RRLC; Agilent 6520 QTOF
AC$INSTRUMENT_TYPE: LC-ESI-QTOF
AC$MASS_SPECTROMETRY: MS_TYPE MS2
AC$MASS_SPECTROMETRY: ION_MODE POSITIVE
AC$MASS_SPECTROMETRY: COLLISION_ENERGY 20 ev
AC$MASS_SPECTROMETRY: COLLISION_GAS N2
AC$MASS_SPECTROMETRY: SCANNING m/z 100-1000
AC$CHROMATOGRAPHY: COLUMN_NAME Agilent C8 Cartridge Column 2.1X30mm 3.5 micron (guard); Agilent SB-Aq 2.1x50mm 1.8 micron (analytical)
AC$CHROMATOGRAPHY: COLUMN_TEMPERATURE 60 C
AC$CHROMATOGRAPHY: FLOW_GRADIENT linear from 98A/2B at 0 min to 2A/98B at 13 min, hold 6 min at 2A/98B, reequilibration 98A/2B (5 min)
AC$CHROMATOGRAPHY: FLOW_RATE 0.6 ml/min
AC$CHROMATOGRAPHY: RETENTION_TIME 1.977
AC$CHROMATOGRAPHY: SOLVENT A water with 0.2% acetic acid
AC$CHROMATOGRAPHY: SOLVENT B methanol with 0.2% acetic acid
MS$FOCUSED_ION: BASE_PEAK 177
MS$FOCUSED_ION: PRECURSOR_M/Z 177.1023
MS$FOCUSED_ION: PRECURSOR_TYPE [M+H]+
PK$SPLASH: splash10-004i-0900000000-bb6734f53ed607f8551f
PK$NUM_PEAK: 8
PK$PEAK: m/z int. rel.int.
  106.0633 32 30
  116.9485 20 19
  118.0646 224 212
  119.0484 26 25
  120.0794 136 129
  146.0593 295 279
  149.0761 24 23
  177.101 1055 999
//
