ACCESSION: MSBNK-Washington_State_Univ-BML00850
RECORD_TITLE: Abrine; LC-ESI-QTOF; MS2; CE 20 ev; [M-H]-
DATE: 2016.01.19 (Created 2012.10.26)
AUTHORS: Cuthbertson DJ, Johnson SR, Lange BM, Institute of Biological Chemistry, Washington State University
LICENSE: CC BY-SA
COMMENT: relative retention time with respect to 9-anthracene Carboxylic Acid is 0.210
CH$NAME: Abrine
CH$COMPOUND_CLASS: N/A
CH$FORMULA: C12H14N2O2
CH$EXACT_MASS: 218.105528
CH$SMILES: CNC(CC1=CNC2=CC=CC=C21)C(=O)O
CH$IUPAC: InChI=1S/C12H14N2O2/c1-13-11(12(15)16)6-8-7-14-10-5-3-2-4-9(8)10/h2-5,7,11,13-14H,6H2,1H3,(H,15,16)
CH$LINK: CAS 526-31-8
CH$LINK: CHEMSPIDER 890
CH$LINK: PUBCHEM CID:914
CH$LINK: INCHIKEY CZCIKBSVHDNIDH-UHFFFAOYSA-N
CH$LINK: COMPTOX DTXSID40967027
AC$INSTRUMENT: Agilent 1200 RRLC; Agilent 6520 QTOF
AC$INSTRUMENT_TYPE: LC-ESI-QTOF
AC$MASS_SPECTROMETRY: MS_TYPE MS2
AC$MASS_SPECTROMETRY: ION_MODE NEGATIVE
AC$MASS_SPECTROMETRY: COLLISION_ENERGY 20 ev
AC$MASS_SPECTROMETRY: COLLISION_GAS N2
AC$MASS_SPECTROMETRY: SCANNING m/z 100-1000
AC$CHROMATOGRAPHY: COLUMN_NAME Agilent C8 Cartridge Column 2.1X30mm 3.5 micron (guard); Agilent SB-Aq 2.1x50mm 1.8 micron (analytical)
AC$CHROMATOGRAPHY: COLUMN_TEMPERATURE 60 C
AC$CHROMATOGRAPHY: FLOW_GRADIENT linear from 98A/2B at 0 min to 2A/98B at 13 min, hold 6 min at 2A/98B, reequilibration 98A/2B (5 min)
AC$CHROMATOGRAPHY: FLOW_RATE 0.6 ml/min
AC$CHROMATOGRAPHY: RETENTION_TIME 1.537
AC$CHROMATOGRAPHY: SOLVENT A water with 0.2% acetic acid
AC$CHROMATOGRAPHY: SOLVENT B methanol with 0.2% acetic acid
MS$FOCUSED_ION: BASE_PEAK 116
MS$FOCUSED_ION: PRECURSOR_M/Z 217.0982
MS$FOCUSED_ION: PRECURSOR_TYPE [M-H]-
PK$SPLASH: splash10-014i-0900000000-715bd37ec80dd2a5e4b2
PK$NUM_PEAK: 13
PK$PEAK: m/z int. rel.int.
  116.05 1662 999
  116.0819 43 26
  116.1264 25 15
  116.1507 23 14
  122.6337 26 16
  130.067 109 66
  142.0655 461 277
  142.0986 25 15
  156.9816 29 17
  157.0811 22 13
  186.0531 55 33
  213.9919 20 12
  217.0979 135 81
//
