ACCESSION: MSBNK-Washington_State_Univ-BML01612
RECORD_TITLE: Thermopsoside, crotonoyl; LC-ESI-QTOF; MS2; CE 40 ev; [M+H]+
DATE: 2016.01.19 (Created 2012.10.26)
AUTHORS: Cuthbertson DJ, Johnson SR, Lange BM, Institute of Biological Chemistry, Washington State University
LICENSE: CC BY-SA
COMMENT: relative retention time with respect to 9-anthracene Carboxylic Acid is 1.150
CH$NAME: Thermopsoside, crotonoyl
CH$COMPOUND_CLASS: N/A
CH$FORMULA: C26H26O12
CH$EXACT_MASS: 530.142426
CH$SMILES: C/C=C/C(=O)OCC1C(C(C(C(O1)OC2=CC(=C3C(=C2)OC(=CC3=O)C4=CC(=C(C=C4)O)OC)O)O)O)O
CH$IUPAC: InChI=1S/C26H26O12/c1-3-4-21(30)35-11-20-23(31)24(32)25(33)26(38-20)36-13-8-15(28)22-16(29)10-17(37-19(22)9-13)12-5-6-14(27)18(7-12)34-2/h3-10,20,23-28,31-33H,11H2,1-2H3/b4-3+
CH$LINK: CHEMSPIDER 22905582
CH$LINK: PUBCHEM CID:24208689
CH$LINK: INCHIKEY OAZSPRBLFZZMMR-ONEGZZNKSA-N
AC$INSTRUMENT: Agilent 1200 RRLC; Agilent 6520 QTOF
AC$INSTRUMENT_TYPE: LC-ESI-QTOF
AC$MASS_SPECTROMETRY: MS_TYPE MS2
AC$MASS_SPECTROMETRY: ION_MODE POSITIVE
AC$MASS_SPECTROMETRY: COLLISION_ENERGY 40 ev
AC$MASS_SPECTROMETRY: COLLISION_GAS N2
AC$MASS_SPECTROMETRY: SCANNING m/z 100-1000
AC$CHROMATOGRAPHY: COLUMN_NAME Agilent C8 Cartridge Column 2.1X30mm 3.5 micron (guard); Agilent SB-Aq 2.1x50mm 1.8 micron (analytical)
AC$CHROMATOGRAPHY: COLUMN_TEMPERATURE 60 C
AC$CHROMATOGRAPHY: FLOW_GRADIENT linear from 98A/2B at 0 min to 2A/98B at 13 min, hold 6 min at 2A/98B, reequilibration 98A/2B (5 min)
AC$CHROMATOGRAPHY: FLOW_RATE 0.6 ml/min
AC$CHROMATOGRAPHY: RETENTION_TIME 8.486
AC$CHROMATOGRAPHY: SOLVENT A water with 0.2% acetic acid
AC$CHROMATOGRAPHY: SOLVENT B methanol with 0.2% acetic acid
MS$FOCUSED_ION: BASE_PEAK 301
MS$FOCUSED_ION: PRECURSOR_M/Z 531.1497
MS$FOCUSED_ION: PRECURSOR_TYPE [M+H]+
PK$SPLASH: splash10-0udi-0039000000-b058494959bb5fed7173
PK$NUM_PEAK: 4
PK$PEAK: m/z int. rel.int.
  258.05 45 57
  286.0448 262 333
  301.0695 786 999
  301.118 44 56
//
