ACCESSION: MSBNK-Washington_State_Univ-BML01546
RECORD_TITLE: Haploperoside C; LC-ESI-QTOF; MS2; CE 20 ev; [M+H]+
DATE: 2016.01.19 (Created 2012.10.26)
AUTHORS: Cuthbertson DJ, Johnson SR, Lange BM, Institute of Biological Chemistry, Washington State University
LICENSE: CC BY-SA
COMMENT: relative retention time with respect to 9-anthracene Carboxylic Acid is 0.542
CH$NAME: Haploperoside C
CH$COMPOUND_CLASS: N/A
CH$FORMULA: C22H28O13
CH$EXACT_MASS: 500.152991
CH$SMILES: CC1C(C(C(C(O1)OCC2C(C(C(C(O2)OC3=C(C=C4C=CC(=O)OC4=C3)OC)O)O)O)O)O)O
CH$IUPAC: InChI=1S/C22H28O13/c1-8-15(24)17(26)19(28)21(32-8)31-7-13-16(25)18(27)20(29)22(35-13)34-12-6-10-9(5-11(12)30-2)3-4-14(23)33-10/h3-6,8,13,15-22,24-29H,7H2,1-2H3
CH$LINK: CAS 97938-28-8
CH$LINK: CHEMSPIDER 12944919
CH$LINK: PUBCHEM CID:20106091
CH$LINK: INCHIKEY FCIZPHNZRNLUJD-UHFFFAOYSA-N
CH$LINK: COMPTOX DTXSID40602542
AC$INSTRUMENT: Agilent 1200 RRLC; Agilent 6520 QTOF
AC$INSTRUMENT_TYPE: LC-ESI-QTOF
AC$MASS_SPECTROMETRY: MS_TYPE MS2
AC$MASS_SPECTROMETRY: ION_MODE POSITIVE
AC$MASS_SPECTROMETRY: COLLISION_ENERGY 20 ev
AC$MASS_SPECTROMETRY: COLLISION_GAS N2
AC$MASS_SPECTROMETRY: SCANNING m/z 100-1000
AC$CHROMATOGRAPHY: COLUMN_NAME Agilent C8 Cartridge Column 2.1X30mm 3.5 micron (guard); Agilent SB-Aq 2.1x50mm 1.8 micron (analytical)
AC$CHROMATOGRAPHY: COLUMN_TEMPERATURE 60 C
AC$CHROMATOGRAPHY: FLOW_GRADIENT linear from 98A/2B at 0 min to 2A/98B at 13 min, hold 6 min at 2A/98B, reequilibration 98A/2B (5 min)
AC$CHROMATOGRAPHY: FLOW_RATE 0.6 ml/min
AC$CHROMATOGRAPHY: RETENTION_TIME 3.997
AC$CHROMATOGRAPHY: SOLVENT A water with 0.2% acetic acid
AC$CHROMATOGRAPHY: SOLVENT B methanol with 0.2% acetic acid
MS$FOCUSED_ION: BASE_PEAK 193
MS$FOCUSED_ION: PRECURSOR_M/Z 501.1603
MS$FOCUSED_ION: PRECURSOR_TYPE [M+H]+
PK$SPLASH: splash10-0006-0900000000-72c790b841da6e227f46
PK$NUM_PEAK: 3
PK$PEAK: m/z int. rel.int.
  193.0486 1076 999
  193.0827 22 20
  193.0932 20 19
//
