ACCESSION: MSBNK-Washington_State_Univ-BML00486
RECORD_TITLE: Esculin; LC-ESI-QTOF; MS2; CE 40 ev; [M+H]+
DATE: 2016.01.19 (Created 2012.10.26)
AUTHORS: Cuthbertson DJ, Johnson SR, Lange BM, Institute of Biological Chemistry, Washington State University
LICENSE: CC BY-SA
COMMENT: relative retention time with respect to 9-anthracene Carboxylic Acid is 0.384
CH$NAME: Esculin
CH$COMPOUND_CLASS: N/A
CH$FORMULA: C15H16O9
CH$EXACT_MASS: 340.079432
CH$SMILES: C1=CC(=O)OC2=CC(=C(C=C21)OC3C(C(C(C(O3)CO)O)O)O)O
CH$IUPAC: InChI=1S/C15H16O9/c16-5-10-12(19)13(20)14(21)15(24-10)23-9-3-6-1-2-11(18)22-8(6)4-7(9)17/h1-4,10,12-17,19-21H,5H2
CH$LINK: CAS 531-75-9
CH$LINK: CHEMSPIDER 4508522
CH$LINK: PUBCHEM CID:5351506
CH$LINK: INCHIKEY XHCADAYNFIFUHF-UHFFFAOYSA-N
AC$INSTRUMENT: Agilent 1200 RRLC; Agilent 6520 QTOF
AC$INSTRUMENT_TYPE: LC-ESI-QTOF
AC$MASS_SPECTROMETRY: MS_TYPE MS2
AC$MASS_SPECTROMETRY: ION_MODE POSITIVE
AC$MASS_SPECTROMETRY: COLLISION_ENERGY 40 ev
AC$MASS_SPECTROMETRY: COLLISION_GAS N2
AC$MASS_SPECTROMETRY: SCANNING m/z 100-1000
AC$CHROMATOGRAPHY: COLUMN_NAME Agilent C8 Cartridge Column 2.1X30mm 3.5 micron (guard); Agilent SB-Aq 2.1x50mm 1.8 micron (analytical)
AC$CHROMATOGRAPHY: COLUMN_TEMPERATURE 60 C
AC$CHROMATOGRAPHY: FLOW_GRADIENT linear from 98A/2B at 0 min to 2A/98B at 13 min, hold 6 min at 2A/98B, reequilibration 98A/2B (5 min)
AC$CHROMATOGRAPHY: FLOW_RATE 0.6 ml/min
AC$CHROMATOGRAPHY: RETENTION_TIME 2.830
AC$CHROMATOGRAPHY: SOLVENT A water with 0.2% acetic acid
AC$CHROMATOGRAPHY: SOLVENT B methanol with 0.2% acetic acid
MS$FOCUSED_ION: BASE_PEAK 179
MS$FOCUSED_ION: PRECURSOR_M/Z 341.0867
MS$FOCUSED_ION: PRECURSOR_TYPE [M+H]+
PK$SPLASH: splash10-00c0-0900000000-80c75412526e8c4c3839
PK$NUM_PEAK: 6
PK$PEAK: m/z int. rel.int.
  105.0338 27 81
  123.0431 310 936
  133.0281 267 806
  135.043 24 72
  151.0383 77 232
  179.034 331 999
//
