ACCESSION: MSBNK-Washington_State_Univ-BML00090
RECORD_TITLE: Harmaline; LC-ESI-QTOF; MS2; CE 10 ev; [M-H]-
DATE: 2016.01.19 (Created 2012.10.26)
AUTHORS: Cuthbertson DJ, Johnson SR, Lange BM, Institute of Biological Chemistry, Washington State University
LICENSE: CC BY-SA
COMMENT: relative retention time with respect to 9-anthracene Carboxylic Acid is 0.563
CH$NAME: Harmaline
CH$COMPOUND_CLASS: N/A
CH$FORMULA: C13H14N2O
CH$EXACT_MASS: 214.110613
CH$SMILES: CC1=C2C(=C3C=CC(=CC3=N2)OC)CCN1
CH$IUPAC: InChI=1S/C13H14N2O/c1-8-13-11(5-6-14-8)10-4-3-9(16-2)7-12(10)15-13/h3-4,7,14H,5-6H2,1-2H3
CH$LINK: CAS 6027-98-1
CH$LINK: CHEMSPIDER 4444444
CH$LINK: PUBCHEM CID:5280951
CH$LINK: INCHIKEY QJOZJXNKVMFAET-UHFFFAOYSA-N
AC$INSTRUMENT: Agilent 1200 RRLC; Agilent 6520 QTOF
AC$INSTRUMENT_TYPE: LC-ESI-QTOF
AC$MASS_SPECTROMETRY: MS_TYPE MS2
AC$MASS_SPECTROMETRY: ION_MODE NEGATIVE
AC$MASS_SPECTROMETRY: COLLISION_ENERGY 10 ev
AC$MASS_SPECTROMETRY: COLLISION_GAS N2
AC$MASS_SPECTROMETRY: SCANNING m/z 100-1000
AC$CHROMATOGRAPHY: COLUMN_NAME Agilent C8 Cartridge Column 2.1X30mm 3.5 micron (guard); Agilent SB-Aq 2.1x50mm 1.8 micron (analytical)
AC$CHROMATOGRAPHY: COLUMN_TEMPERATURE 60 C
AC$CHROMATOGRAPHY: FLOW_GRADIENT linear from 98A/2B at 0 min to 2A/98B at 13 min, hold 6 min at 2A/98B, reequilibration 98A/2B (5 min)
AC$CHROMATOGRAPHY: FLOW_RATE 0.6 ml/min
AC$CHROMATOGRAPHY: RETENTION_TIME 4.145
AC$CHROMATOGRAPHY: SOLVENT A water with 0.2% acetic acid
AC$CHROMATOGRAPHY: SOLVENT B methanol with 0.2% acetic acid
MS$FOCUSED_ION: BASE_PEAK 198
MS$FOCUSED_ION: PRECURSOR_M/Z 213.1033
MS$FOCUSED_ION: PRECURSOR_TYPE [M-H]-
PK$SPLASH: splash10-01ot-0960000000-f90b54cc56378bcec0cf
PK$NUM_PEAK: 6
PK$PEAK: m/z int. rel.int.
  144.6243 20 15
  197.0677 131 101
  198.0803 1292 999
  198.1119 22 17
  198.1251 67 52
  213.102 1069 827
//
