ACCESSION: MSBNK-Washington_State_Univ-BML00625
RECORD_TITLE: Capsaicin; LC-ESI-QTOF; MS2; CE 40 ev; [M+H]+
DATE: 2016.01.19 (Created 2012.10.26)
AUTHORS: Cuthbertson DJ, Johnson SR, Lange BM, Institute of Biological Chemistry, Washington State University
LICENSE: CC BY-SA
COMMENT: relative retention time with respect to 9-anthracene Carboxylic Acid is 1.208
CH$NAME: Capsaicin
CH$NAME: (6E)-N-[(4-Hydroxy-3-methoxyphenyl)methyl]-8-methyl-6-nonenamide
CH$NAME: E-Capsaicin
CH$COMPOUND_CLASS: N/A
CH$FORMULA: C18H27NO3
CH$EXACT_MASS: 305.199094
CH$SMILES: CC(C)/C=C/CCCCC(=O)NCC1=CC(=C(C=C1)O)OC
CH$IUPAC: InChI=1S/C18H27NO3/c1-14(2)8-6-4-5-7-9-18(21)19-13-15-10-11-16(20)17(12-15)22-3/h6,8,10-12,14,20H,4-5,7,9,13H2,1-3H3,(H,19,21)/b8-6+
CH$LINK: CAS 404-86-4
CH$LINK: CHEMSPIDER 1265957
CH$LINK: COMPTOX DTXSID9020241
CH$LINK: INCHIKEY YKPUWZUDDOIDPM-SOFGYWHQSA-N
CH$LINK: KEGG C06866
CH$LINK: NIKKAJI J1.529F
CH$LINK: PUBCHEM CID:1548943
AC$INSTRUMENT: Agilent 1200 RRLC; Agilent 6520 QTOF
AC$INSTRUMENT_TYPE: LC-ESI-QTOF
AC$MASS_SPECTROMETRY: MS_TYPE MS2
AC$MASS_SPECTROMETRY: ION_MODE POSITIVE
AC$MASS_SPECTROMETRY: COLLISION_ENERGY 40 ev
AC$MASS_SPECTROMETRY: COLLISION_GAS N2
AC$MASS_SPECTROMETRY: SCANNING m/z 100-1000
AC$CHROMATOGRAPHY: COLUMN_NAME Agilent C8 Cartridge Column 2.1X30mm 3.5 micron (guard); Agilent SB-Aq 2.1x50mm 1.8 micron (analytical)
AC$CHROMATOGRAPHY: COLUMN_TEMPERATURE 60 C
AC$CHROMATOGRAPHY: FLOW_GRADIENT linear from 98A/2B at 0 min to 2A/98B at 13 min, hold 6 min at 2A/98B, reequilibration 98A/2B (5 min)
AC$CHROMATOGRAPHY: FLOW_RATE 0.6 ml/min
AC$CHROMATOGRAPHY: RETENTION_TIME 8.899
AC$CHROMATOGRAPHY: SOLVENT A water with 0.2% acetic acid
AC$CHROMATOGRAPHY: SOLVENT B methanol with 0.2% acetic acid
MS$FOCUSED_ION: BASE_PEAK 137
MS$FOCUSED_ION: PRECURSOR_M/Z 306.2064
MS$FOCUSED_ION: PRECURSOR_TYPE [M+H]+
PK$SPLASH: splash10-000i-0900000000-115ff22a4b55ca18afd6
PK$NUM_PEAK: 7
PK$PEAK: m/z int. rel.int.
  105.0722 22 15
  107.05 31 21
  107.086 27 18
  109.0653 27 18
  122.0357 750 499
  137.0591 1502 999
  137.0933 67 45
//
