ACCESSION: MSBNK-Washington_State_Univ-BML01541
RECORD_TITLE: 4',7-Dimethoxy-3-hydroxyflavone; LC-ESI-QTOF; MS2; CE 10 ev; [M+H]+
DATE: 2016.01.19 (Created 2012.10.26)
AUTHORS: Cuthbertson DJ, Johnson SR, Lange BM, Institute of Biological Chemistry, Washington State University
LICENSE: CC BY-SA
COMMENT: relative retention time with respect to 9-anthracene Carboxylic Acid is 1.307
CH$NAME: 4',7-Dimethoxy-3-hydroxyflavone
CH$COMPOUND_CLASS: N/A
CH$FORMULA: C17H14O5
CH$EXACT_MASS: 298.084124
CH$SMILES: COC1=CC=C(C=C1)C2=C(C(=O)C3=C(O2)C=C(C=C3)OC)O
CH$IUPAC: InChI=1S/C17H14O5/c1-20-11-5-3-10(4-6-11)17-16(19)15(18)13-8-7-12(21-2)9-14(13)22-17/h3-9,19H,1-2H3
CH$LINK: CAS 13198-99-7
CH$LINK: CHEMSPIDER 233492
CH$LINK: PUBCHEM CID:265699
CH$LINK: INCHIKEY IFHXSMSQHPVVSF-UHFFFAOYSA-N
CH$LINK: COMPTOX DTXSID00157285
AC$INSTRUMENT: Agilent 1200 RRLC; Agilent 6520 QTOF
AC$INSTRUMENT_TYPE: LC-ESI-QTOF
AC$MASS_SPECTROMETRY: MS_TYPE MS2
AC$MASS_SPECTROMETRY: ION_MODE POSITIVE
AC$MASS_SPECTROMETRY: COLLISION_ENERGY 10 ev
AC$MASS_SPECTROMETRY: COLLISION_GAS N2
AC$MASS_SPECTROMETRY: SCANNING m/z 100-1000
AC$CHROMATOGRAPHY: COLUMN_NAME Agilent C8 Cartridge Column 2.1X30mm 3.5 micron (guard); Agilent SB-Aq 2.1x50mm 1.8 micron (analytical)
AC$CHROMATOGRAPHY: COLUMN_TEMPERATURE 60 C
AC$CHROMATOGRAPHY: FLOW_GRADIENT linear from 98A/2B at 0 min to 2A/98B at 13 min, hold 6 min at 2A/98B, reequilibration 98A/2B (5 min)
AC$CHROMATOGRAPHY: FLOW_RATE 0.6 ml/min
AC$CHROMATOGRAPHY: RETENTION_TIME 9.640
AC$CHROMATOGRAPHY: SOLVENT A water with 0.2% acetic acid
AC$CHROMATOGRAPHY: SOLVENT B methanol with 0.2% acetic acid
MS$FOCUSED_ION: BASE_PEAK 299
MS$FOCUSED_ION: PRECURSOR_M/Z 299.0914
MS$FOCUSED_ION: PRECURSOR_TYPE [M+H]+
PK$SPLASH: splash10-0002-0190000000-c8d3b1b9a9ced4bfbedd
PK$NUM_PEAK: 2
PK$PEAK: m/z int. rel.int.
  178.9787 37 145
  299.0881 255 999
//
