ACCESSION: MSBNK-Washington_State_Univ-BML01660
RECORD_TITLE: Piperine; LC-ESI-QTOF; MS2; CE 20 ev; [M+H]+
DATE: 2016.01.19 (Created 2012.10.26)
AUTHORS: Cuthbertson DJ, Johnson SR, Lange BM, Institute of Biological Chemistry, Washington State University
LICENSE: CC BY-SA
COMMENT: relative retention time with respect to 9-anthracene Carboxylic Acid is 1.243
CH$NAME: Piperine
CH$COMPOUND_CLASS: N/A
CH$FORMULA: C17H19NO3
CH$EXACT_MASS: 285.136493
CH$SMILES: C1CCN(CC1)C(=O)C=CC=CC2=CC3=C(C=C2)OCO3
CH$IUPAC: InChI=1S/C17H19NO3/c19-17(18-10-4-1-5-11-18)7-3-2-6-14-8-9-15-16(12-14)21-13-20-15/h2-3,6-9,12H,1,4-5,10-11,13H2
CH$LINK: CAS 94-62-2
CH$LINK: CHEMSPIDER 553590
CH$LINK: PUBCHEM CID:4840
CH$LINK: INCHIKEY MXXWOMGUGJBKIW-UHFFFAOYSA-N
AC$INSTRUMENT: Agilent 1200 RRLC; Agilent 6520 QTOF
AC$INSTRUMENT_TYPE: LC-ESI-QTOF
AC$MASS_SPECTROMETRY: MS_TYPE MS2
AC$MASS_SPECTROMETRY: ION_MODE POSITIVE
AC$MASS_SPECTROMETRY: COLLISION_ENERGY 20 ev
AC$MASS_SPECTROMETRY: COLLISION_GAS N2
AC$MASS_SPECTROMETRY: SCANNING m/z 100-1000
AC$CHROMATOGRAPHY: COLUMN_NAME Agilent C8 Cartridge Column 2.1X30mm 3.5 micron (guard); Agilent SB-Aq 2.1x50mm 1.8 micron (analytical)
AC$CHROMATOGRAPHY: COLUMN_TEMPERATURE 60 C
AC$CHROMATOGRAPHY: FLOW_GRADIENT linear from 98A/2B at 0 min to 2A/98B at 13 min, hold 6 min at 2A/98B, reequilibration 98A/2B (5 min)
AC$CHROMATOGRAPHY: FLOW_RATE 0.6 ml/min
AC$CHROMATOGRAPHY: RETENTION_TIME 9.165
AC$CHROMATOGRAPHY: SOLVENT A water with 0.2% acetic acid
AC$CHROMATOGRAPHY: SOLVENT B methanol with 0.2% acetic acid
MS$FOCUSED_ION: BASE_PEAK 201
MS$FOCUSED_ION: PRECURSOR_M/Z 286.1438
MS$FOCUSED_ION: PRECURSOR_TYPE [M+H]+
PK$SPLASH: splash10-0udi-0690000000-6a4344362f7186e8154f
PK$NUM_PEAK: 27
PK$PEAK: m/z int. rel.int.
  112.0752 310 68
  114.0888 26 6
  115.0543 451 100
  115.0825 21 5
  117.069 33 7
  121.0501 23 5
  127.0633 25 6
  135.0436 1069 236
  135.0719 43 9
  143.0485 672 148
  143.0847 38 8
  150.0933 29 6
  151.0932 78 17
  151.1022 31 7
  159.0437 135 30
  171.0453 383 85
  173.0582 253 56
  187.0769 23 5
  201.0538 4527 999
  201.0927 158 35
  201.1196 96 21
  201.1544 41 9
  201.1875 39 9
  201.3912 24 5
  201.4098 21 5
  258.1544 20 4
  286.1414 336 74
//
