ACCESSION: MSBNK-Washington_State_Univ-BML00605
RECORD_TITLE: Hydrastine; LC-ESI-QTOF; MS2; CE 10 ev; [M+H]+
DATE: 2016.01.19 (Created 2012.10.26)
AUTHORS: Cuthbertson DJ, Johnson SR, Lange BM, Institute of Biological Chemistry, Washington State University
LICENSE: CC BY-SA
COMMENT: relative retention time with respect to 9-anthracene Carboxylic Acid is 0.578
CH$NAME: Hydrastine
CH$COMPOUND_CLASS: N/A
CH$FORMULA: C21H21NO6
CH$EXACT_MASS: 383.136887
CH$SMILES: CN1CCC2=CC3=C(C=C2C1C4C5=C(C(=C(C=C5)OC)OC)C(=O)O4)OCO3
CH$IUPAC: InChI=1S/C21H21NO6/c1-22-7-6-11-8-15-16(27-10-26-15)9-13(11)18(22)19-12-4-5-14(24-2)20(25-3)17(12)21(23)28-19/h4-5,8-9,18-19H,6-7,10H2,1-3H3
CH$LINK: CAS 118-08-1
CH$LINK: CHEMSPIDER 1269
CH$LINK: PUBCHEM CID:1309
CH$LINK: INCHIKEY JZUTXVTYJDCMDU-UHFFFAOYSA-N
AC$INSTRUMENT: Agilent 1200 RRLC; Agilent 6520 QTOF
AC$INSTRUMENT_TYPE: LC-ESI-QTOF
AC$MASS_SPECTROMETRY: MS_TYPE MS2
AC$MASS_SPECTROMETRY: ION_MODE POSITIVE
AC$MASS_SPECTROMETRY: COLLISION_ENERGY 10 ev
AC$MASS_SPECTROMETRY: COLLISION_GAS N2
AC$MASS_SPECTROMETRY: SCANNING m/z 100-1000
AC$CHROMATOGRAPHY: COLUMN_NAME Agilent C8 Cartridge Column 2.1X30mm 3.5 micron (guard); Agilent SB-Aq 2.1x50mm 1.8 micron (analytical)
AC$CHROMATOGRAPHY: COLUMN_TEMPERATURE 60 C
AC$CHROMATOGRAPHY: FLOW_GRADIENT linear from 98A/2B at 0 min to 2A/98B at 13 min, hold 6 min at 2A/98B, reequilibration 98A/2B (5 min)
AC$CHROMATOGRAPHY: FLOW_RATE 0.6 ml/min
AC$CHROMATOGRAPHY: RETENTION_TIME 4.258
AC$CHROMATOGRAPHY: SOLVENT A water with 0.2% acetic acid
AC$CHROMATOGRAPHY: SOLVENT B methanol with 0.2% acetic acid
MS$FOCUSED_ION: BASE_PEAK 384
MS$FOCUSED_ION: PRECURSOR_M/Z 384.1442
MS$FOCUSED_ION: PRECURSOR_TYPE [M+H]+
PK$SPLASH: splash10-001i-0109000000-d0838afa3cea34250ad3
PK$NUM_PEAK: 16
PK$PEAK: m/z int. rel.int.
  149.0587 92 12
  190.085 1183 153
  190.1236 48 6
  282.0896 40 5
  293.0784 127 16
  294.0893 64 8
  297.1106 84 11
  308.0684 52 7
  323.0891 1232 160
  323.1394 52 7
  323.1741 43 6
  335.0882 215 28
  341.1111 61 8
  353.1023 55 7
  366.124 106 14
  384.1427 7710 999
//
