ACCESSION: MSBNK-Washington_State_Univ-BML01020
RECORD_TITLE: Hydrocortisone; LC-ESI-QTOF; MS2; CE 20 ev; [M+H]+
DATE: 2016.01.19 (Created 2012.10.26)
AUTHORS: Cuthbertson DJ, Johnson SR, Lange BM, Institute of Biological Chemistry, Washington State University
LICENSE: CC BY-SA
COMMENT: relative retention time with respect to 9-anthracene Carboxylic Acid is 1.008
CH$NAME: (8S,9S,10R,11S,13S,14S,17R)-11,17-dihydroxy-17-(2-hydroxyacetyl)-10,13-dimethyl-2,6,7,8,9,11,12,14,15,16-decahydro-1H-cyclopenta[a]phenanthren-3-one
CH$NAME: Cortisol
CH$NAME: Hydrocortisone
CH$COMPOUND_CLASS: N/A
CH$FORMULA: C21H30O5
CH$EXACT_MASS: 362.20932
CH$SMILES: C[C@]12CCC(=O)C=C1CC[C@@H]3[C@@H]2[C@H](C[C@]4([C@H]3CC[C@@]4(C(=O)CO)O)C)O
CH$IUPAC: InChI=1S/C21H30O5/c1-19-7-5-13(23)9-12(19)3-4-14-15-6-8-21(26,17(25)11-22)20(15,2)10-16(24)18(14)19/h9,14-16,18,22,24,26H,3-8,10-11H2,1-2H3/t14-,15-,16-,18+,19-,20-,21-/m0/s1
CH$LINK: CAS 50-23-7 80562-38-5
CH$LINK: CHEBI CHEBI:17650
CH$LINK: CHEMSPIDER 5551
CH$LINK: COMPTOX DTXSID7020714
CH$LINK: HMDB HMDB00063
CH$LINK: INCHIKEY JYGXADMDTFJGBT-VWUMJDOOSA-N
CH$LINK: KEGG C00735
CH$LINK: LIPIDMAPS LMST02030001
CH$LINK: NIKKAJI J1.908I
CH$LINK: PUBCHEM CID:5754
AC$INSTRUMENT: Agilent 1200 RRLC; Agilent 6520 QTOF
AC$INSTRUMENT_TYPE: LC-ESI-QTOF
AC$MASS_SPECTROMETRY: MS_TYPE MS2
AC$MASS_SPECTROMETRY: ION_MODE POSITIVE
AC$MASS_SPECTROMETRY: COLLISION_ENERGY 20 ev
AC$MASS_SPECTROMETRY: COLLISION_GAS N2
AC$MASS_SPECTROMETRY: SCANNING m/z 100-1000
AC$CHROMATOGRAPHY: COLUMN_NAME Agilent C8 Cartridge Column 2.1X30mm 3.5 micron (guard); Agilent SB-Aq 2.1x50mm 1.8 micron (analytical)
AC$CHROMATOGRAPHY: COLUMN_TEMPERATURE 60 C
AC$CHROMATOGRAPHY: FLOW_GRADIENT linear from 98A/2B at 0 min to 2A/98B at 13 min, hold 6 min at 2A/98B, reequilibration 98A/2B (5 min)
AC$CHROMATOGRAPHY: FLOW_RATE 0.6 ml/min
AC$CHROMATOGRAPHY: RETENTION_TIME 7.353
AC$CHROMATOGRAPHY: SOLVENT A water with 0.2% acetic acid
AC$CHROMATOGRAPHY: SOLVENT B methanol with 0.2% acetic acid
MS$FOCUSED_ION: BASE_PEAK 121
MS$FOCUSED_ION: PRECURSOR_M/Z 363.2166
MS$FOCUSED_ION: PRECURSOR_TYPE [M+H]+
PK$SPLASH: splash10-00di-0942000000-ac4d917751fc391cdc89
PK$NUM_PEAK: 25
PK$PEAK: m/z int. rel.int.
  121.0635 171 999
  123.0808 43 251
  135.0781 21 123
  147.0781 35 204
  147.1222 36 210
  157.0996 37 216
  159.1185 29 169
  161.0964 28 164
  173.0888 20 117
  175.1063 25 146
  185.1299 20 117
  187.1092 48 280
  209.1305 24 140
  223.1495 27 158
  225.1254 42 245
  229.1616 20 117
  241.1587 31 181
  265.1536 21 123
  267.1719 30 175
  269.1917 27 158
  281.1893 24 140
  297.1758 28 164
  309.185 68 397
  327.1977 51 298
  363.2193 35 204
//
