ACCESSION: MSBNK-Washington_State_Univ-BML00107
RECORD_TITLE: 2-(3,4-diacetyloxyphenyl)-4-oxo-7-[3,4,5-triacetyloxy-6-(acetyloxymethyl)(2H-3 ,4,5,6-tetrahydropyran-2-yloxy)]chromen-5-yl acetate; LC-ESI-QTOF; MS2; CE 10 ev; [M+H]+
DATE: 2016.01.19 (Created 2012.10.26)
AUTHORS: Cuthbertson DJ, Johnson SR, Lange BM, Institute of Biological Chemistry, Washington State University
LICENSE: CC BY-SA
COMMENT: relative retention time with respect to 9-anthracene Carboxylic Acid is 1.339
CH$NAME: 2-(3,4-diacetyloxyphenyl)-4-oxo-7-[3,4,5-triacetyloxy-6-(acetyloxymethyl)(2H-3 ,4,5,6-tetrahydropyran-2-yloxy)]chromen-5-yl acetate
CH$COMPOUND_CLASS: N/A
CH$FORMULA: C35H34O18
CH$EXACT_MASS: 742.174514
CH$SMILES: CC(=O)OCC1C(C(C(C(O1)OC2=CC(=C3C(=C2)OC(=CC3=O)C4=CC(=C(C=C4)OC(=O)C)OC(=O)C)OC(=O)C)OC(=O)C)OC(=O)C)OC(=O)C
CH$IUPAC: InChI=1S/C35H34O18/c1-15(36)44-14-30-32(48-19(5)40)33(49-20(6)41)34(50-21(7)42)35(53-30)51-23-11-28(47-18(4)39)31-24(43)13-26(52-29(31)12-23)22-8-9-25(45-16(2)37)27(10-22)46-17(3)38/h8-13,30,32-35H,14H2,1-7H3
CH$LINK: CHEMSPIDER 2942098
CH$LINK: PUBCHEM CID:3710744
CH$LINK: INCHIKEY JDAPIOVVXOAJOM-UHFFFAOYSA-N
AC$INSTRUMENT: Agilent 1200 RRLC; Agilent 6520 QTOF
AC$INSTRUMENT_TYPE: LC-ESI-QTOF
AC$MASS_SPECTROMETRY: MS_TYPE MS2
AC$MASS_SPECTROMETRY: ION_MODE POSITIVE
AC$MASS_SPECTROMETRY: COLLISION_ENERGY 10 ev
AC$MASS_SPECTROMETRY: COLLISION_GAS N2
AC$MASS_SPECTROMETRY: SCANNING m/z 100-1000
AC$CHROMATOGRAPHY: COLUMN_NAME Agilent C8 Cartridge Column 2.1X30mm 3.5 micron (guard); Agilent SB-Aq 2.1x50mm 1.8 micron (analytical)
AC$CHROMATOGRAPHY: COLUMN_TEMPERATURE 60 C
AC$CHROMATOGRAPHY: FLOW_GRADIENT linear from 98A/2B at 0 min to 2A/98B at 13 min, hold 6 min at 2A/98B, reequilibration 98A/2B (5 min)
AC$CHROMATOGRAPHY: FLOW_RATE 0.6 ml/min
AC$CHROMATOGRAPHY: RETENTION_TIME 9.810
AC$CHROMATOGRAPHY: SOLVENT A water with 0.2% acetic acid
AC$CHROMATOGRAPHY: SOLVENT B methanol with 0.2% acetic acid
MS$FOCUSED_ION: BASE_PEAK 413
MS$FOCUSED_ION: PRECURSOR_M/Z 743.1818
MS$FOCUSED_ION: PRECURSOR_TYPE [M+H]+
PK$SPLASH: splash10-0w90-0204600900-2fcb8358611ba904889c
PK$NUM_PEAK: 12
PK$PEAK: m/z int. rel.int.
  109.0314 54 163
  169.0488 101 306
  271.0718 22 67
  287.05 21 64
  329.0727 24 73
  331.0979 24 73
  371.0746 209 633
  413.0863 330 999
  413.122 28 85
  701.1631 289 875
  701.2156 82 248
  743.1807 149 451
//
