ACCESSION: MSBNK-Washington_State_Univ-BML00201
RECORD_TITLE: Daphnoretin; LC-ESI-QTOF; MS2; CE 10 ev; [M-H]-
DATE: 2016.01.19 (Created 2012.10.26)
AUTHORS: Cuthbertson DJ, Johnson SR, Lange BM, Institute of Biological Chemistry, Washington State University
LICENSE: CC BY-SA
COMMENT: relative retention time with respect to 9-anthracene Carboxylic Acid is 1.011
CH$NAME: Daphnoretin
CH$COMPOUND_CLASS: N/A
CH$FORMULA: C19H12O7
CH$EXACT_MASS: 352.058303
CH$SMILES: COC1=C(C=C2C(=C1)C=C(C(=O)O2)OC3=CC4=C(C=C3)C=CC(=O)O4)O
CH$IUPAC: InChI=1S/C19H12O7/c1-23-16-6-11-7-17(19(22)26-15(11)9-13(16)20)24-12-4-2-10-3-5-18(21)25-14(10)8-12/h2-9,20H,1H3
CH$LINK: CAS 2034-69-7
CH$LINK: CHEMSPIDER 4444756
CH$LINK: PUBCHEM CID:5281406
CH$LINK: INCHIKEY JRHMMVBOTXEHGJ-UHFFFAOYSA-N
CH$LINK: COMPTOX DTXSID00174250
AC$INSTRUMENT: Agilent 1200 RRLC; Agilent 6520 QTOF
AC$INSTRUMENT_TYPE: LC-ESI-QTOF
AC$MASS_SPECTROMETRY: MS_TYPE MS2
AC$MASS_SPECTROMETRY: ION_MODE NEGATIVE
AC$MASS_SPECTROMETRY: COLLISION_ENERGY 10 ev
AC$MASS_SPECTROMETRY: COLLISION_GAS N2
AC$MASS_SPECTROMETRY: SCANNING m/z 100-1000
AC$CHROMATOGRAPHY: COLUMN_NAME Agilent C8 Cartridge Column 2.1X30mm 3.5 micron (guard); Agilent SB-Aq 2.1x50mm 1.8 micron (analytical)
AC$CHROMATOGRAPHY: COLUMN_TEMPERATURE 60 C
AC$CHROMATOGRAPHY: FLOW_GRADIENT linear from 98A/2B at 0 min to 2A/98B at 13 min, hold 6 min at 2A/98B, reequilibration 98A/2B (5 min)
AC$CHROMATOGRAPHY: FLOW_RATE 0.6 ml/min
AC$CHROMATOGRAPHY: RETENTION_TIME 7.458
AC$CHROMATOGRAPHY: SOLVENT A water with 0.2% acetic acid
AC$CHROMATOGRAPHY: SOLVENT B methanol with 0.2% acetic acid
MS$FOCUSED_ION: BASE_PEAK 351
MS$FOCUSED_ION: PRECURSOR_M/Z 351.0510
MS$FOCUSED_ION: PRECURSOR_TYPE [M-H]-
PK$SPLASH: splash10-0udi-0009000000-42b298db8d14b93b8877
PK$NUM_PEAK: 5
PK$PEAK: m/z int. rel.int.
  163.0027 739 23
  190.9969 976 30
  308.0318 297 9
  336.027 3722 116
  351.0507 32096 999
//
