ACCESSION: MSBNK-Washington_State_Univ-BML01756
RECORD_TITLE: 3,4,2',4',6'-Pentamethoxychalcone; LC-ESI-QTOF; MS2; CE 10 ev; [M+H]+
DATE: 2016.01.19 (Created 2012.10.26)
AUTHORS: Cuthbertson DJ, Johnson SR, Lange BM, Institute of Biological Chemistry, Washington State University
LICENSE: CC BY-SA
COMMENT: relative retention time with respect to 9-anthracene Carboxylic Acid is 1.168
CH$NAME: 3,4,2',4',6'-Pentamethoxychalcone
CH$COMPOUND_CLASS: N/A
CH$FORMULA: C20H22O6
CH$EXACT_MASS: 358.141638
CH$SMILES: COC1=C(C=C(C=C1)/C=C/C(=O)C2=C(C=C(C=C2OC)OC)OC)OC
CH$IUPAC: InChI=1S/C20H22O6/c1-22-14-11-18(25-4)20(19(12-14)26-5)15(21)8-6-13-7-9-16(23-2)17(10-13)24-3/h6-12H,1-5H3/b8-6+
CH$LINK: CAS 76650-20-9
CH$LINK: CHEMSPIDER 4508985
CH$LINK: PUBCHEM CID:5352007
CH$LINK: INCHIKEY TVKGYMYAOVADOP-SOFGYWHQSA-N
AC$INSTRUMENT: Agilent 1200 RRLC; Agilent 6520 QTOF
AC$INSTRUMENT_TYPE: LC-ESI-QTOF
AC$MASS_SPECTROMETRY: MS_TYPE MS2
AC$MASS_SPECTROMETRY: ION_MODE POSITIVE
AC$MASS_SPECTROMETRY: COLLISION_ENERGY 10 ev
AC$MASS_SPECTROMETRY: COLLISION_GAS N2
AC$MASS_SPECTROMETRY: SCANNING m/z 100-1000
AC$CHROMATOGRAPHY: COLUMN_NAME Agilent C8 Cartridge Column 2.1X30mm 3.5 micron (guard); Agilent SB-Aq 2.1x50mm 1.8 micron (analytical)
AC$CHROMATOGRAPHY: COLUMN_TEMPERATURE 60 C
AC$CHROMATOGRAPHY: FLOW_GRADIENT linear from 98A/2B at 0 min to 2A/98B at 13 min, hold 6 min at 2A/98B, reequilibration 98A/2B (5 min)
AC$CHROMATOGRAPHY: FLOW_RATE 0.6 ml/min
AC$CHROMATOGRAPHY: RETENTION_TIME 8.601
AC$CHROMATOGRAPHY: SOLVENT A water with 0.2% acetic acid
AC$CHROMATOGRAPHY: SOLVENT B methanol with 0.2% acetic acid
MS$FOCUSED_ION: BASE_PEAK 359
MS$FOCUSED_ION: PRECURSOR_M/Z 359.1489
MS$FOCUSED_ION: PRECURSOR_TYPE [M+H]+
PK$SPLASH: splash10-0a4j-0709000000-6039d2ec3137787b02c4
PK$NUM_PEAK: 10
PK$PEAK: m/z int. rel.int.
  152.0423 30 11
  180.0411 35 13
  191.0693 593 225
  191.1048 29 11
  195.064 1449 549
  195.1032 59 22
  195.1392 25 9
  317.1382 37 14
  341.1369 98 37
  359.1478 2637 999
//
