ACCESSION: MSBNK-Washington_State_Univ-BML00653
RECORD_TITLE: Hesperidin; LC-ESI-QTOF; MS2; CE 20 ev; [M+H]+
DATE: 2016.01.19 (Created 2012.10.26)
AUTHORS: Cuthbertson DJ, Johnson SR, Lange BM, Institute of Biological Chemistry, Washington State University
LICENSE: CC BY-SA
COMMENT: relative retention time with respect to 9-anthracene Carboxylic Acid is 0.770
CH$NAME: Hesperidin
CH$NAME: Cirantin
CH$NAME: Hesperidoside
CH$NAME: (2S)-7-[[6-O-(6-Deoxy-alpha-L-mannopyranosyl)-beta-D-glucopyranosyl]oxy]-2,3-dihydro-5-hydroxy-2-(3-hydroxy-4-methoxyphenyl)-4H-1-benzopyran-4-one
CH$NAME: (2S)-5-hydroxy-2-(3-hydroxy-4-methoxy-phenyl)-7-[(2S,3R,4S,5R,6R)-3,4,5-trihydroxy-6-[[(2R,3R,4R,5S,6S)-3,4,5-trihydroxy-6-methyl-oxan-2-yl]oxymethyl]oxan-2-yl]oxy-chroman-4-one
CH$NAME: Hesp-7-Glc-6pp-Rha
CH$NAME: Hesperetin 7-O-rutinoside
CH$NAME: Hesperetin 7-rhamnoglucoside
CH$COMPOUND_CLASS: N/A
CH$FORMULA: C28H34O15
CH$EXACT_MASS: 610.18977
CH$SMILES: C[C@H]1[C@@H]([C@H]([C@H]([C@@H](O1)OC[C@@H]2[C@H]([C@@H]([C@H]([C@@H](O2)OC3=CC(=C4C(=O)C[C@H](OC4=C3)C5=CC(=C(C=C5)OC)O)O)O)O)O)O)O)O
CH$IUPAC: InChI=1S/C28H34O15/c1-10-21(32)23(34)25(36)27(40-10)39-9-19-22(33)24(35)26(37)28(43-19)41-12-6-14(30)20-15(31)8-17(42-18(20)7-12)11-3-4-16(38-2)13(29)5-11/h3-7,10,17,19,21-30,32-37H,8-9H2,1-2H3/t10-,17-,19+,21-,22+,23+,24-,25+,26+,27+,28+/m0/s1
CH$LINK: CAS 520-26-3
CH$LINK: CHEBI CHEBI:28775
CH$LINK: CHEMSPIDER 10176
CH$LINK: COMPTOX DTXSID9044328
CH$LINK: INCHIKEY QUQPHWDTPGMPEX-QJBIFVCTSA-N
CH$LINK: KEGG C09755
CH$LINK: KNAPSACK C00000970
CH$LINK: NIKKAJI J4.480F
CH$LINK: PUBCHEM CID:10621
AC$INSTRUMENT: Agilent 1200 RRLC; Agilent 6520 QTOF
AC$INSTRUMENT_TYPE: LC-ESI-QTOF
AC$MASS_SPECTROMETRY: MS_TYPE MS2
AC$MASS_SPECTROMETRY: ION_MODE POSITIVE
AC$MASS_SPECTROMETRY: COLLISION_ENERGY 20 ev
AC$MASS_SPECTROMETRY: COLLISION_GAS N2
AC$MASS_SPECTROMETRY: SCANNING m/z 100-1000
AC$CHROMATOGRAPHY: COLUMN_NAME Agilent C8 Cartridge Column 2.1X30mm 3.5 micron (guard); Agilent SB-Aq 2.1x50mm 1.8 micron (analytical)
AC$CHROMATOGRAPHY: COLUMN_TEMPERATURE 60 C
AC$CHROMATOGRAPHY: FLOW_GRADIENT linear from 98A/2B at 0 min to 2A/98B at 13 min, hold 6 min at 2A/98B, reequilibration 98A/2B (5 min)
AC$CHROMATOGRAPHY: FLOW_RATE 0.6 ml/min
AC$CHROMATOGRAPHY: RETENTION_TIME 5.670
AC$CHROMATOGRAPHY: SOLVENT A water with 0.2% acetic acid
AC$CHROMATOGRAPHY: SOLVENT B methanol with 0.2% acetic acid
MS$FOCUSED_ION: BASE_PEAK 303
MS$FOCUSED_ION: PRECURSOR_M/Z 611.1971
MS$FOCUSED_ION: PRECURSOR_TYPE [M+H]+
PK$SPLASH: splash10-0udi-0219100000-46bfc03d3f5a6f909888
PK$NUM_PEAK: 18
PK$PEAK: m/z int. rel.int.
  129.0559 89 100
  153.0162 128 143
  179.0328 40 45
  195.0273 68 76
  263.0519 99 111
  281.0596 49 55
  281.0871 21 23
  285.0624 20 22
  303.0835 893 999
  303.1238 26 29
  303.1389 28 31
  303.1632 24 27
  345.0979 43 48
  369.0887 60 67
  413.1096 62 69
  431.1414 30 34
  449.1452 23 26
  465.1555 23 26
//
