ACCESSION: MSBNK-Washington_State_Univ-BML00975
RECORD_TITLE: 4-Methylumbelliferyl glucuronide; LC-ESI-QTOF; MS2; CE 40 ev; [M+H]+
DATE: 2016.01.19 (Created 2012.10.26)
AUTHORS: Cuthbertson DJ, Johnson SR, Lange BM, Institute of Biological Chemistry, Washington State University
LICENSE: CC BY-SA
COMMENT: relative retention time with respect to 9-anthracene Carboxylic Acid is 0.488
CH$NAME: 4-Methylumbelliferyl glucuronide
CH$COMPOUND_CLASS: N/A
CH$FORMULA: C16H16O9
CH$EXACT_MASS: 352.079432
CH$SMILES: CC1=CC(=O)OC2=C1C=CC(=C2)O[C@H]3[C@@H]([C@H]([C@@H]([C@H](O3)C(=O)O)O)O)O
CH$IUPAC: InChI=1S/C16H16O9/c1-6-4-10(17)24-9-5-7(2-3-8(6)9)23-16-13(20)11(18)12(19)14(25-16)15(21)22/h2-5,11-14,16,18-20H,1H3,(H,21,22)/t11-,12-,13+,14-,16+/m0/s1
CH$LINK: CAS 6160-80-1
CH$LINK: CHEMSPIDER 82667
CH$LINK: PUBCHEM CID:91553
CH$LINK: INCHIKEY ARQXEQLMMNGFDU-JHZZJYKESA-N
CH$LINK: COMPTOX DTXSID10891502
AC$INSTRUMENT: Agilent 1200 RRLC; Agilent 6520 QTOF
AC$INSTRUMENT_TYPE: LC-ESI-QTOF
AC$MASS_SPECTROMETRY: MS_TYPE MS2
AC$MASS_SPECTROMETRY: ION_MODE POSITIVE
AC$MASS_SPECTROMETRY: COLLISION_ENERGY 40 ev
AC$MASS_SPECTROMETRY: COLLISION_GAS N2
AC$MASS_SPECTROMETRY: SCANNING m/z 100-1000
AC$CHROMATOGRAPHY: COLUMN_NAME Agilent C8 Cartridge Column 2.1X30mm 3.5 micron (guard); Agilent SB-Aq 2.1x50mm 1.8 micron (analytical)
AC$CHROMATOGRAPHY: COLUMN_TEMPERATURE 60 C
AC$CHROMATOGRAPHY: FLOW_GRADIENT linear from 98A/2B at 0 min to 2A/98B at 13 min, hold 6 min at 2A/98B, reequilibration 98A/2B (5 min)
AC$CHROMATOGRAPHY: FLOW_RATE 0.6 ml/min
AC$CHROMATOGRAPHY: RETENTION_TIME 3.587
AC$CHROMATOGRAPHY: SOLVENT A water with 0.2% acetic acid
AC$CHROMATOGRAPHY: SOLVENT B methanol with 0.2% acetic acid
MS$FOCUSED_ION: BASE_PEAK 177
MS$FOCUSED_ION: PRECURSOR_M/Z 353.0867
MS$FOCUSED_ION: PRECURSOR_TYPE [M+H]+
PK$SPLASH: splash10-004i-0900000000-79aba5b5b355fd394e8a
PK$NUM_PEAK: 9
PK$PEAK: m/z int. rel.int.
  103.0515 60 119
  105.0686 176 350
  121.0668 89 177
  131.0483 25 50
  133.0648 84 167
  149.0639 25 50
  177.0546 502 999
  177.0924 24 48
  186.9524 28 56
//
