ACCESSION: MSBNK-Washington_State_Univ-BML01448
RECORD_TITLE: 2-[6-(diethylamino)purin-9-yl]-5-(hydroxymethyl)oxolane-3,4-diol; LC-ESI-QTOF; MS2; CE 10 ev; [M-H]-
DATE: 2016.01.19 (Created 2012.10.26)
AUTHORS: Cuthbertson DJ, Johnson SR, Lange BM, Institute of Biological Chemistry, Washington State University
LICENSE: CC BY-SA
COMMENT: relative retention time with respect to 9-anthracene Carboxylic Acid is 0.707
CH$NAME: 2-[6-(diethylamino)purin-9-yl]-5-(hydroxymethyl)oxolane-3,4-diol
CH$COMPOUND_CLASS: N/A
CH$FORMULA: C14H21N5O4
CH$EXACT_MASS: 323.159354
CH$SMILES: CCN(CC)C1=NC=NC2=C1N=CN2C3C(C(C(O3)CO)O)O
CH$IUPAC: InChI=1S/C14H21N5O4/c1-3-18(4-2)12-9-13(16-6-15-12)19(7-17-9)14-11(22)10(21)8(5-20)23-14/h6-8,10-11,14,20-22H,3-5H2,1-2H3
CH$LINK: CHEMSPIDER 2548482
CH$LINK: PUBCHEM CID:3300105
CH$LINK: INCHIKEY AVNJCDRLZOVEDM-UHFFFAOYSA-N
AC$INSTRUMENT: Agilent 1200 RRLC; Agilent 6520 QTOF
AC$INSTRUMENT_TYPE: LC-ESI-QTOF
AC$MASS_SPECTROMETRY: MS_TYPE MS2
AC$MASS_SPECTROMETRY: ION_MODE NEGATIVE
AC$MASS_SPECTROMETRY: COLLISION_ENERGY 10 ev
AC$MASS_SPECTROMETRY: COLLISION_GAS N2
AC$MASS_SPECTROMETRY: SCANNING m/z 100-1000
AC$CHROMATOGRAPHY: COLUMN_NAME Agilent C8 Cartridge Column 2.1X30mm 3.5 micron (guard); Agilent SB-Aq 2.1x50mm 1.8 micron (analytical)
AC$CHROMATOGRAPHY: COLUMN_TEMPERATURE 60 C
AC$CHROMATOGRAPHY: FLOW_GRADIENT linear from 98A/2B at 0 min to 2A/98B at 13 min, hold 6 min at 2A/98B, reequilibration 98A/2B (5 min)
AC$CHROMATOGRAPHY: FLOW_RATE 0.6 ml/min
AC$CHROMATOGRAPHY: RETENTION_TIME 5.214
AC$CHROMATOGRAPHY: SOLVENT A water with 0.2% acetic acid
AC$CHROMATOGRAPHY: SOLVENT B methanol with 0.2% acetic acid
MS$FOCUSED_ION: BASE_PEAK 190
MS$FOCUSED_ION: PRECURSOR_M/Z 322.1521
MS$FOCUSED_ION: PRECURSOR_TYPE [M-H]-
PK$SPLASH: splash10-0006-0900000000-70af0074df5c1e394206
PK$NUM_PEAK: 10
PK$PEAK: m/z int. rel.int.
  162.0788 54 28
  174.7289 23 12
  190.1093 1920 999
  190.1486 95 49
  190.1708 23 12
  190.2065 26 14
  190.2374 20 10
  252.8291 21 11
  288.0221 28 15
  298.8745 28 15
//
