ACCESSION: MSBNK-Washington_State_Univ-BML01672
RECORD_TITLE: 3',7-Dimethoxy-3-hydroxyflavone; LC-ESI-QTOF; MS2; CE 40 ev; [M+H]+
DATE: 2016.01.19 (Created 2012.10.26)
AUTHORS: Cuthbertson DJ, Johnson SR, Lange BM, Institute of Biological Chemistry, Washington State University
LICENSE: CC BY-SA
COMMENT: relative retention time with respect to 9-anthracene Carboxylic Acid is 1.294
CH$NAME: 3',7-Dimethoxy-3-hydroxyflavone
CH$COMPOUND_CLASS: N/A
CH$FORMULA: C17H14O5
CH$EXACT_MASS: 298.084124
CH$SMILES: COC1=CC2=C(C=C1)C(=O)C(=C(O2)C3=CC(=CC=C3)OC)O
CH$IUPAC: InChI=1S/C17H14O5/c1-20-11-5-3-4-10(8-11)17-16(19)15(18)13-7-6-12(21-2)9-14(13)22-17/h3-9,19H,1-2H3
CH$LINK: CHEMSPIDER 600236
CH$LINK: PUBCHEM CID:688836
CH$LINK: INCHIKEY PFMGWOVPHHEHAL-UHFFFAOYSA-N
AC$INSTRUMENT: Agilent 1200 RRLC; Agilent 6520 QTOF
AC$INSTRUMENT_TYPE: LC-ESI-QTOF
AC$MASS_SPECTROMETRY: MS_TYPE MS2
AC$MASS_SPECTROMETRY: ION_MODE POSITIVE
AC$MASS_SPECTROMETRY: COLLISION_ENERGY 40 ev
AC$MASS_SPECTROMETRY: COLLISION_GAS N2
AC$MASS_SPECTROMETRY: SCANNING m/z 100-1000
AC$CHROMATOGRAPHY: COLUMN_NAME Agilent C8 Cartridge Column 2.1X30mm 3.5 micron (guard); Agilent SB-Aq 2.1x50mm 1.8 micron (analytical)
AC$CHROMATOGRAPHY: COLUMN_TEMPERATURE 60 C
AC$CHROMATOGRAPHY: FLOW_GRADIENT linear from 98A/2B at 0 min to 2A/98B at 13 min, hold 6 min at 2A/98B, reequilibration 98A/2B (5 min)
AC$CHROMATOGRAPHY: FLOW_RATE 0.6 ml/min
AC$CHROMATOGRAPHY: RETENTION_TIME 9.542
AC$CHROMATOGRAPHY: SOLVENT A water with 0.2% acetic acid
AC$CHROMATOGRAPHY: SOLVENT B methanol with 0.2% acetic acid
MS$FOCUSED_ION: BASE_PEAK 151
MS$FOCUSED_ION: PRECURSOR_M/Z 299.0914
MS$FOCUSED_ION: PRECURSOR_TYPE [M+H]+
PK$SPLASH: splash10-0m29-0980000000-184ee96c853cc3e89a7b
PK$NUM_PEAK: 33
PK$PEAK: m/z int. rel.int.
  107.0479 44 182
  108.0203 86 355
  122.0362 21 87
  128.0518 22 91
  129.0694 56 231
  135.0416 96 396
  137.0568 35 144
  139.0489 21 87
  150.0353 27 111
  151.039 242 999
  152.0632 25 103
  154.0796 21 87
  157.0668 39 161
  163.0386 21 87
  168.0554 34 140
  169.0636 49 202
  182.0752 25 103
  184.0533 26 107
  185.0575 53 219
  197.0631 31 128
  199.0758 67 277
  210.0704 49 202
  211.0726 41 169
  213.0538 203 838
  225.0525 29 120
  227.0692 205 846
  228.0817 114 471
  241.0542 31 128
  255.0697 53 219
  256.0705 200 826
  267.0642 48 198
  284.0708 21 87
  299.0899 32 132
//
