ACCESSION: MSBNK-Washington_State_Univ-BML00044
RECORD_TITLE: Bucharaine; LC-ESI-QTOF; MS2; CE 10 ev; [M-H]-
DATE: 2016.01.19 (Created 2012.10.26)
AUTHORS: Cuthbertson DJ, Johnson SR, Lange BM, Institute of Biological Chemistry, Washington State University
LICENSE: CC BY-SA
COMMENT: relative retention time with respect to 9-anthracene Carboxylic Acid is 1.129
CH$NAME: Bucharaine
CH$COMPOUND_CLASS: N/A
CH$FORMULA: C19H25NO4
CH$EXACT_MASS: 331.178358
CH$SMILES: C/C(=C\COC1=CC(=O)NC2=CC=CC=C21)/CCC(C(C)(C)O)O
CH$IUPAC: InChI=1S/C19H25NO4/c1-13(8-9-17(21)19(2,3)23)10-11-24-16-12-18(22)20-15-7-5-4-6-14(15)16/h4-7,10,12,17,21,23H,8-9,11H2,1-3H3,(H,20,22)/b13-10+
CH$LINK: CAS 21059-47-2
CH$LINK: CHEMSPIDER 4495379
CH$LINK: PUBCHEM CID:5338262
CH$LINK: INCHIKEY PBWIOAMUZKICDN-JLHYYAGUSA-N
CH$LINK: COMPTOX DTXSID50416758
AC$INSTRUMENT: Agilent 1200 RRLC; Agilent 6520 QTOF
AC$INSTRUMENT_TYPE: LC-ESI-QTOF
AC$MASS_SPECTROMETRY: MS_TYPE MS2
AC$MASS_SPECTROMETRY: ION_MODE NEGATIVE
AC$MASS_SPECTROMETRY: COLLISION_ENERGY 10 ev
AC$MASS_SPECTROMETRY: COLLISION_GAS N2
AC$MASS_SPECTROMETRY: SCANNING m/z 100-1000
AC$CHROMATOGRAPHY: COLUMN_NAME Agilent C8 Cartridge Column 2.1X30mm 3.5 micron (guard); Agilent SB-Aq 2.1x50mm 1.8 micron (analytical)
AC$CHROMATOGRAPHY: COLUMN_TEMPERATURE 60 C
AC$CHROMATOGRAPHY: FLOW_GRADIENT linear from 98A/2B at 0 min to 2A/98B at 13 min, hold 6 min at 2A/98B, reequilibration 98A/2B (5 min)
AC$CHROMATOGRAPHY: FLOW_RATE 0.6 ml/min
AC$CHROMATOGRAPHY: RETENTION_TIME 8.276
AC$CHROMATOGRAPHY: SOLVENT A water with 0.2% acetic acid
AC$CHROMATOGRAPHY: SOLVENT B methanol with 0.2% acetic acid
MS$FOCUSED_ION: BASE_PEAK 160
MS$FOCUSED_ION: PRECURSOR_M/Z 330.1711
MS$FOCUSED_ION: PRECURSOR_TYPE [M-H]-
PK$SPLASH: splash10-03di-0904000000-6348c10cdc125d77a936
PK$NUM_PEAK: 8
PK$PEAK: m/z int. rel.int.
  101.955 72 13
  151.9383 64 12
  160.0392 5429 999
  160.0806 196 36
  160.1567 94 17
  213.0806 88 16
  226.3709 62 11
  330.1698 2682 494
//
