ACCESSION: MSBNK-Washington_State_Univ-BML00879
RECORD_TITLE: 11-(2-bromo-3,6-dimethoxyphenyl)-3,3-dimethyl-2,3,4-trihydro-5H,10H,11H-benzo[ b]benzo[2,1-f]1,4-diazepin-1-one; LC-ESI-QTOF; MS2; CE 20 ev; [M+H]+
DATE: 2016.01.19 (Created 2012.10.26)
AUTHORS: Cuthbertson DJ, Johnson SR, Lange BM, Institute of Biological Chemistry, Washington State University
LICENSE: CC BY-SA
COMMENT: relative retention time with respect to 9-anthracene Carboxylic Acid is 1.127
CH$NAME: 11-(2-bromo-3,6-dimethoxyphenyl)-3,3-dimethyl-2,3,4-trihydro-5H,10H,11H-benzo[ b]benzo[2,1-f]1,4-diazepin-1-one
CH$COMPOUND_CLASS: N/A
CH$FORMULA: C23H25BrN2O3
CH$EXACT_MASS: 456.104855
CH$SMILES: CC1(CC2=C(C(NC3=CC=CC=C3N2)C4=C(C=CC(=C4Br)OC)OC)C(=O)C1)C
CH$IUPAC: InChI=1S/C23H25BrN2O3/c1-23(2)11-15-19(16(27)12-23)22(26-14-8-6-5-7-13(14)25-15)20-17(28-3)9-10-18(29-4)21(20)24/h5-10,22,25-26H,11-12H2,1-4H3
CH$LINK: CHEMSPIDER 3763622
CH$LINK: PUBCHEM CID:4570635
CH$LINK: INCHIKEY AHTIKTYAZWVOGR-UHFFFAOYSA-N
AC$INSTRUMENT: Agilent 1200 RRLC; Agilent 6520 QTOF
AC$INSTRUMENT_TYPE: LC-ESI-QTOF
AC$MASS_SPECTROMETRY: MS_TYPE MS2
AC$MASS_SPECTROMETRY: ION_MODE POSITIVE
AC$MASS_SPECTROMETRY: COLLISION_ENERGY 20 ev
AC$MASS_SPECTROMETRY: COLLISION_GAS N2
AC$MASS_SPECTROMETRY: SCANNING m/z 100-1000
AC$CHROMATOGRAPHY: COLUMN_NAME Agilent C8 Cartridge Column 2.1X30mm 3.5 micron (guard); Agilent SB-Aq 2.1x50mm 1.8 micron (analytical)
AC$CHROMATOGRAPHY: COLUMN_TEMPERATURE 60 C
AC$CHROMATOGRAPHY: FLOW_GRADIENT linear from 98A/2B at 0 min to 2A/98B at 13 min, hold 6 min at 2A/98B, reequilibration 98A/2B (5 min)
AC$CHROMATOGRAPHY: FLOW_RATE 0.6 ml/min
AC$CHROMATOGRAPHY: RETENTION_TIME 8.265
AC$CHROMATOGRAPHY: SOLVENT A water with 0.2% acetic acid
AC$CHROMATOGRAPHY: SOLVENT B methanol with 0.2% acetic acid
MS$FOCUSED_ION: BASE_PEAK 241
MS$FOCUSED_ION: PRECURSOR_M/Z 457.1122
MS$FOCUSED_ION: PRECURSOR_TYPE [M+H]+
PK$SPLASH: splash10-0006-0090000000-16ee3dc7ae56ad9f8884
PK$NUM_PEAK: 10
PK$PEAK: m/z int. rel.int.
  157.0753 45 8
  185.0705 63 11
  215.1174 33 6
  241.1313 5566 999
  241.1745 197 35
  241.2003 100 18
  241.2345 40 7
  241.2737 68 12
  241.619 29 5
  457.1094 35 6
//
