ACCESSION: MSBNK-Washington_State_Univ-BML00677
RECORD_TITLE: Jasmonic acid; LC-ESI-QTOF; MS2; CE 10 ev; [M-H]-
DATE: 2016.01.19 (Created 2012.10.26)
AUTHORS: Cuthbertson DJ, Johnson SR, Lange BM, Institute of Biological Chemistry, Washington State University
LICENSE: CC BY-SA
COMMENT: relative retention time with respect to 9-anthracene Carboxylic Acid is 0.909
CH$NAME: Jasmonic acid
CH$COMPOUND_CLASS: N/A
CH$FORMULA: C12H18O3
CH$EXACT_MASS: 210.125594
CH$SMILES: CCC=CCC1C(CCC1=O)CC(=O)O
CH$IUPAC: InChI=1S/C12H18O3/c1-2-3-4-5-10-9(8-12(14)15)6-7-11(10)13/h3-4,9-10H,2,5-8H2,1H3,(H,14,15)
CH$LINK: CAS 77026-92-7
CH$LINK: CHEMSPIDER 484866
CH$LINK: PUBCHEM CID:557758
CH$LINK: INCHIKEY ZNJFBWYDHIGLCU-UHFFFAOYSA-N
AC$INSTRUMENT: Agilent 1200 RRLC; Agilent 6520 QTOF
AC$INSTRUMENT_TYPE: LC-ESI-QTOF
AC$MASS_SPECTROMETRY: MS_TYPE MS2
AC$MASS_SPECTROMETRY: ION_MODE NEGATIVE
AC$MASS_SPECTROMETRY: COLLISION_ENERGY 10 ev
AC$MASS_SPECTROMETRY: COLLISION_GAS N2
AC$MASS_SPECTROMETRY: SCANNING m/z 100-1000
AC$CHROMATOGRAPHY: COLUMN_NAME Agilent C8 Cartridge Column 2.1X30mm 3.5 micron (guard); Agilent SB-Aq 2.1x50mm 1.8 micron (analytical)
AC$CHROMATOGRAPHY: COLUMN_TEMPERATURE 60 C
AC$CHROMATOGRAPHY: FLOW_GRADIENT linear from 98A/2B at 0 min to 2A/98B at 13 min, hold 6 min at 2A/98B, reequilibration 98A/2B (5 min)
AC$CHROMATOGRAPHY: FLOW_RATE 0.6 ml/min
AC$CHROMATOGRAPHY: RETENTION_TIME 6.706
AC$CHROMATOGRAPHY: SOLVENT A water with 0.2% acetic acid
AC$CHROMATOGRAPHY: SOLVENT B methanol with 0.2% acetic acid
MS$FOCUSED_ION: BASE_PEAK 209
MS$FOCUSED_ION: PRECURSOR_M/Z 209.1183
MS$FOCUSED_ION: PRECURSOR_TYPE [M-H]-
PK$SPLASH: splash10-0a4i-0190000000-0492402294b0d36a7ff9
PK$NUM_PEAK: 8
PK$PEAK: m/z int. rel.int.
  109.0654 59 14
  123.121 41 9
  126.9749 27 6
  149.0987 31 7
  152.6637 39 9
  165.1291 370 85
  209.0727 67 15
  209.1175 4340 999
//
