ACCESSION: MSBNK-Washington_State_Univ-BML01465
RECORD_TITLE: 2',3'-Dideoxyadenosine; LC-ESI-QTOF; MS2; CE 10 ev; [M+H]+
DATE: 2016.01.19 (Created 2012.10.26)
AUTHORS: Cuthbertson DJ, Johnson SR, Lange BM, Institute of Biological Chemistry, Washington State University
LICENSE: CC BY-SA
COMMENT: relative retention time with respect to 9-anthracene Carboxylic Acid is 0.377
CH$NAME: 2',3'-Dideoxyadenosine
CH$COMPOUND_CLASS: N/A
CH$FORMULA: C10H13N5O2
CH$EXACT_MASS: 235.106925
CH$SMILES: C1CC(OC1CO)N2C=NC3=C2N=CN=C3N
CH$IUPAC: InChI=1S/C10H13N5O2/c11-9-8-10(13-4-12-9)15(5-14-8)7-2-1-6(3-16)17-7/h4-7,16H,1-3H2,(H2,11,12,13)
CH$LINK: CAS 4097-22-7
CH$LINK: CHEMSPIDER 231922
CH$LINK: PUBCHEM CID:263976
CH$LINK: INCHIKEY WVXRAFOPTSTNLL-UHFFFAOYSA-N
AC$INSTRUMENT: Agilent 1200 RRLC; Agilent 6520 QTOF
AC$INSTRUMENT_TYPE: LC-ESI-QTOF
AC$MASS_SPECTROMETRY: MS_TYPE MS2
AC$MASS_SPECTROMETRY: ION_MODE POSITIVE
AC$MASS_SPECTROMETRY: COLLISION_ENERGY 10 ev
AC$MASS_SPECTROMETRY: COLLISION_GAS N2
AC$MASS_SPECTROMETRY: SCANNING m/z 100-1000
AC$CHROMATOGRAPHY: COLUMN_NAME Agilent C8 Cartridge Column 2.1X30mm 3.5 micron (guard); Agilent SB-Aq 2.1x50mm 1.8 micron (analytical)
AC$CHROMATOGRAPHY: COLUMN_TEMPERATURE 60 C
AC$CHROMATOGRAPHY: FLOW_GRADIENT linear from 98A/2B at 0 min to 2A/98B at 13 min, hold 6 min at 2A/98B, reequilibration 98A/2B (5 min)
AC$CHROMATOGRAPHY: FLOW_RATE 0.6 ml/min
AC$CHROMATOGRAPHY: RETENTION_TIME 2.783
AC$CHROMATOGRAPHY: SOLVENT A water with 0.2% acetic acid
AC$CHROMATOGRAPHY: SOLVENT B methanol with 0.2% acetic acid
MS$FOCUSED_ION: BASE_PEAK 136
MS$FOCUSED_ION: PRECURSOR_M/Z 236.1142
MS$FOCUSED_ION: PRECURSOR_TYPE [M+H]+
PK$SPLASH: splash10-000i-0900000000-746adb201aace7b693ea
PK$NUM_PEAK: 7
PK$PEAK: m/z int. rel.int.
  101.0567 50 14
  119.0442 22 6
  136.0614 3579 999
  136.095 90 25
  136.1189 32 9
  136.1385 25 7
  136.1684 44 12
//
