ACCESSION: MSBNK-Washington_State_Univ-BML00865
RECORD_TITLE: alpha-Codeimethine; LC-ESI-QTOF; MS2; CE 10 ev; [M+H]+
DATE: 2016.01.19 (Created 2012.10.26)
AUTHORS: Cuthbertson DJ, Johnson SR, Lange BM, Institute of Biological Chemistry, Washington State University
LICENSE: CC BY-SA
COMMENT: relative retention time with respect to 9-anthracene Carboxylic Acid is 0.478
CH$NAME: alpha-Codeimethine
CH$COMPOUND_CLASS: N/A
CH$FORMULA: C19H23NO3
CH$EXACT_MASS: 313.167794
CH$SMILES: CN(C)CCC12C3C=CC(C1OC4=C(C=CC(=C24)C=C3)OC)O
CH$IUPAC: InChI=1S/C19H23NO3/c1-20(2)11-10-19-13-6-4-12-5-9-15(22-3)17(16(12)19)23-18(19)14(21)8-7-13/h4-9,13-14,18,21H,10-11H2,1-3H3
CH$LINK: CAS 23950-06-3
CH$LINK: CHEMSPIDER 2640438
CH$LINK: PUBCHEM CID:3395837
CH$LINK: INCHIKEY ZOCTZZQDDXGIRB-UHFFFAOYSA-N
AC$INSTRUMENT: Agilent 1200 RRLC; Agilent 6520 QTOF
AC$INSTRUMENT_TYPE: LC-ESI-QTOF
AC$MASS_SPECTROMETRY: MS_TYPE MS2
AC$MASS_SPECTROMETRY: ION_MODE POSITIVE
AC$MASS_SPECTROMETRY: COLLISION_ENERGY 10 ev
AC$MASS_SPECTROMETRY: COLLISION_GAS N2
AC$MASS_SPECTROMETRY: SCANNING m/z 100-1000
AC$CHROMATOGRAPHY: COLUMN_NAME Agilent C8 Cartridge Column 2.1X30mm 3.5 micron (guard); Agilent SB-Aq 2.1x50mm 1.8 micron (analytical)
AC$CHROMATOGRAPHY: COLUMN_TEMPERATURE 60 C
AC$CHROMATOGRAPHY: FLOW_GRADIENT linear from 98A/2B at 0 min to 2A/98B at 13 min, hold 6 min at 2A/98B, reequilibration 98A/2B (5 min)
AC$CHROMATOGRAPHY: FLOW_RATE 0.6 ml/min
AC$CHROMATOGRAPHY: RETENTION_TIME 3.506
AC$CHROMATOGRAPHY: SOLVENT A water with 0.2% acetic acid
AC$CHROMATOGRAPHY: SOLVENT B methanol with 0.2% acetic acid
MS$FOCUSED_ION: BASE_PEAK 314
MS$FOCUSED_ION: PRECURSOR_M/Z 314.1751
MS$FOCUSED_ION: PRECURSOR_TYPE [M+H]+
PK$SPLASH: splash10-03di-0149000000-7185aacd45f31d81df99
PK$NUM_PEAK: 21
PK$PEAK: m/z int. rel.int.
  137.065 25 9
  161.0573 25 9
  165.0686 20 8
  171.4484 23 9
  174.07 24 9
  181.0579 24 9
  183.0791 43 16
  187.0755 62 23
  193.0672 24 9
  194.0688 21 8
  199.0682 63 24
  215.1058 267 100
  225.0907 93 35
  237.0905 40 15
  241.0831 25 9
  243.0989 696 261
  243.1412 45 17
  254.1013 21 8
  269.1145 79 30
  296.1575 21 8
  314.1736 2661 999
//
