ACCESSION: MSBNK-Washington_State_Univ-BML00323
RECORD_TITLE: 3,3'-Dihydroxyflavone; LC-ESI-QTOF; MS2; CE 20 ev; [M+H]+
DATE: 2016.01.19 (Created 2012.10.26)
AUTHORS: Cuthbertson DJ, Johnson SR, Lange BM, Institute of Biological Chemistry, Washington State University
LICENSE: CC BY-SA
COMMENT: relative retention time with respect to 9-anthracene Carboxylic Acid is 1.055
CH$NAME: 3,3'-Dihydroxyflavone
CH$COMPOUND_CLASS: N/A
CH$FORMULA: C15H10O4
CH$EXACT_MASS: 254.057909
CH$SMILES: C1=CC=C2C(=C1)C(=O)C(=C(O2)C3=CC(=CC=C3)O)O
CH$IUPAC: InChI=1S/C15H10O4/c16-10-5-3-4-9(8-10)15-14(18)13(17)11-6-1-2-7-12(11)19-15/h1-8,16,18H
CH$LINK: CAS 55977-09-8
CH$LINK: CHEMSPIDER 589031
CH$LINK: PUBCHEM CID:676295
CH$LINK: INCHIKEY QZESEGHSLFKZIV-UHFFFAOYSA-N
CH$LINK: COMPTOX DTXSID70350266
AC$INSTRUMENT: Agilent 1200 RRLC; Agilent 6520 QTOF
AC$INSTRUMENT_TYPE: LC-ESI-QTOF
AC$MASS_SPECTROMETRY: MS_TYPE MS2
AC$MASS_SPECTROMETRY: ION_MODE POSITIVE
AC$MASS_SPECTROMETRY: COLLISION_ENERGY 20 ev
AC$MASS_SPECTROMETRY: COLLISION_GAS N2
AC$MASS_SPECTROMETRY: SCANNING m/z 100-1000
AC$CHROMATOGRAPHY: COLUMN_NAME Agilent C8 Cartridge Column 2.1X30mm 3.5 micron (guard); Agilent SB-Aq 2.1x50mm 1.8 micron (analytical)
AC$CHROMATOGRAPHY: COLUMN_TEMPERATURE 60 C
AC$CHROMATOGRAPHY: FLOW_GRADIENT linear from 98A/2B at 0 min to 2A/98B at 13 min, hold 6 min at 2A/98B, reequilibration 98A/2B (5 min)
AC$CHROMATOGRAPHY: FLOW_RATE 0.6 ml/min
AC$CHROMATOGRAPHY: RETENTION_TIME 7.710
AC$CHROMATOGRAPHY: SOLVENT A water with 0.2% acetic acid
AC$CHROMATOGRAPHY: SOLVENT B methanol with 0.2% acetic acid
MS$FOCUSED_ION: BASE_PEAK 255
MS$FOCUSED_ION: PRECURSOR_M/Z 255.0652
MS$FOCUSED_ION: PRECURSOR_TYPE [M+H]+
PK$SPLASH: splash10-0a4i-0690000000-96f79f79c3e91d7b5a80
PK$NUM_PEAK: 8
PK$PEAK: m/z int. rel.int.
  105.036 46 99
  121.0267 112 241
  133.0254 106 228
  171.0814 34 73
  181.0641 32 69
  199.0753 40 86
  209.0554 76 164
  255.0638 464 999
//
