ACCESSION: MSBNK-Washington_State_Univ-BML00791
RECORD_TITLE: N-acetylcytisine; LC-ESI-QTOF; MS2; CE 20 ev; [M+H]+
DATE: 2016.01.19 (Created 2012.10.26)
AUTHORS: Cuthbertson DJ, Johnson SR, Lange BM, Institute of Biological Chemistry, Washington State University
LICENSE: CC BY-SA
COMMENT: relative retention time with respect to 9-anthracene Carboxylic Acid is 0.447
CH$NAME: N-acetylcytisine
CH$NAME: 11-acetyl-6-oxo-7,11-diazatricyclo[7.3.1.0<2,7>]trideca-2,4-diene
CH$COMPOUND_CLASS: N/A
CH$FORMULA: C13H16N2O2
CH$EXACT_MASS: 232.121178
CH$SMILES: CC(=O)N1CC2CC(C1)C3=CC=CC(=O)N3C2
CH$IUPAC: InChI=1S/C13H16N2O2/c1-9(16)14-6-10-5-11(8-14)12-3-2-4-13(17)15(12)7-10/h2-4,10-11H,5-8H2,1H3
CH$LINK: CHEMSPIDER 2947995
CH$LINK: PUBCHEM CID:3716901
CH$LINK: INCHIKEY WCRIKJOQMRFVPX-UHFFFAOYSA-N
AC$INSTRUMENT: Agilent 1200 RRLC; Agilent 6520 QTOF
AC$INSTRUMENT_TYPE: LC-ESI-QTOF
AC$MASS_SPECTROMETRY: MS_TYPE MS2
AC$MASS_SPECTROMETRY: ION_MODE POSITIVE
AC$MASS_SPECTROMETRY: COLLISION_ENERGY 20 ev
AC$MASS_SPECTROMETRY: COLLISION_GAS N2
AC$MASS_SPECTROMETRY: SCANNING m/z 100-1000
AC$CHROMATOGRAPHY: COLUMN_NAME Agilent C8 Cartridge Column 2.1X30mm 3.5 micron (guard); Agilent SB-Aq 2.1x50mm 1.8 micron (analytical)
AC$CHROMATOGRAPHY: COLUMN_TEMPERATURE 60 C
AC$CHROMATOGRAPHY: FLOW_GRADIENT linear from 98A/2B at 0 min to 2A/98B at 13 min, hold 6 min at 2A/98B, reequilibration 98A/2B (5 min)
AC$CHROMATOGRAPHY: FLOW_RATE 0.6 ml/min
AC$CHROMATOGRAPHY: RETENTION_TIME 3.273
AC$CHROMATOGRAPHY: SOLVENT A water with 0.2% acetic acid
AC$CHROMATOGRAPHY: SOLVENT B methanol with 0.2% acetic acid
MS$FOCUSED_ION: BASE_PEAK 233
MS$FOCUSED_ION: PRECURSOR_M/Z 233.1285
MS$FOCUSED_ION: PRECURSOR_TYPE [M+H]+
PK$SPLASH: splash10-001m-0940000000-089ffc42cf5a4f7e255c
PK$NUM_PEAK: 12
PK$PEAK: m/z int. rel.int.
  117.0556 35 26
  142.0592 22 16
  148.0744 1176 859
  148.1107 32 23
  148.1179 25 18
  148.1866 25 18
  160.0756 304 222
  162.089 82 60
  191.1162 1047 765
  191.1525 66 48
  191.1675 29 21
  233.1265 1367 999
//
