ACCESSION: MSBNK-Washington_State_Univ-BML01712
RECORD_TITLE: 1,9-dimethyluric acid; LC-ESI-QTOF; MS2; CE 20 ev; [M+H]+
DATE: 2016.01.19 (Created 2012.10.26)
AUTHORS: Cuthbertson DJ, Johnson SR, Lange BM, Institute of Biological Chemistry, Washington State University
LICENSE: CC BY-SA
COMMENT: relative retention time with respect to 9-anthracene Carboxylic Acid is 0.247
CH$NAME: 1,9-dimethyluric acid
CH$COMPOUND_CLASS: N/A
CH$FORMULA: C7H8N4O3
CH$EXACT_MASS: 196.05964
CH$SMILES: CN1C2=C(C(=O)N(C(=O)N2)C)NC1=O
CH$IUPAC: InChI=1S/C7H8N4O3/c1-10-4-3(8-6(10)13)5(12)11(2)7(14)9-4/h1-2H3,(H,8,13)(H,9,14)
CH$LINK: CAS 55441-62-8
CH$LINK: CHEMSPIDER 97753
CH$LINK: PUBCHEM CID:108712
CH$LINK: INCHIKEY UARKDOLETOEBCU-UHFFFAOYSA-N
CH$LINK: COMPTOX DTXSID50970784
AC$INSTRUMENT: Agilent 1200 RRLC; Agilent 6520 QTOF
AC$INSTRUMENT_TYPE: LC-ESI-QTOF
AC$MASS_SPECTROMETRY: MS_TYPE MS2
AC$MASS_SPECTROMETRY: ION_MODE POSITIVE
AC$MASS_SPECTROMETRY: COLLISION_ENERGY 20 ev
AC$MASS_SPECTROMETRY: COLLISION_GAS N2
AC$MASS_SPECTROMETRY: SCANNING m/z 100-1000
AC$CHROMATOGRAPHY: COLUMN_NAME Agilent C8 Cartridge Column 2.1X30mm 3.5 micron (guard); Agilent SB-Aq 2.1x50mm 1.8 micron (analytical)
AC$CHROMATOGRAPHY: COLUMN_TEMPERATURE 60 C
AC$CHROMATOGRAPHY: FLOW_GRADIENT linear from 98A/2B at 0 min to 2A/98B at 13 min, hold 6 min at 2A/98B, reequilibration 98A/2B (5 min)
AC$CHROMATOGRAPHY: FLOW_RATE 0.6 ml/min
AC$CHROMATOGRAPHY: RETENTION_TIME 1.819
AC$CHROMATOGRAPHY: SOLVENT A water with 0.2% acetic acid
AC$CHROMATOGRAPHY: SOLVENT B methanol with 0.2% acetic acid
MS$FOCUSED_ION: BASE_PEAK 140
MS$FOCUSED_ION: PRECURSOR_M/Z 197.0669
MS$FOCUSED_ION: PRECURSOR_TYPE [M+H]+
PK$SPLASH: splash10-0006-0900000000-fa93fd789679e3751d85
PK$NUM_PEAK: 6
PK$PEAK: m/z int. rel.int.
  113.0317 22 95
  140.0458 232 999
  140.064 21 90
  166.0213 22 95
  169.0727 65 280
  197.0672 66 284
//
