ACCESSION: MSBNK-Washington_State_Univ-BML00714
RECORD_TITLE: Caffeine; LC-ESI-QTOF; MS2; CE 40 ev; [M+H]+
DATE: 2016.01.19 (Created 2012.10.26)
AUTHORS: Cuthbertson DJ, Johnson SR, Lange BM, Institute of Biological Chemistry, Washington State University
LICENSE: CC BY-SA
COMMENT: relative retention time with respect to 9-anthracene Carboxylic Acid is 0.560
CH$NAME: Caffeine
CH$COMPOUND_CLASS: N/A
CH$FORMULA: C8H10N4O2
CH$EXACT_MASS: 194.080376
CH$SMILES: CN1C=NC2=C1C(=O)N(C(=O)N2C)C
CH$IUPAC: InChI=1S/C8H10N4O2/c1-10-4-9-6-5(10)7(13)12(3)8(14)11(6)2/h4H,1-3H3
CH$LINK: CAS 58-08-2
CH$LINK: CHEMSPIDER 2424
CH$LINK: PUBCHEM CID:2519
CH$LINK: INCHIKEY RYYVLZVUVIJVGH-UHFFFAOYSA-N
CH$LINK: COMPTOX DTXSID0020232
AC$INSTRUMENT: Agilent 1200 RRLC; Agilent 6520 QTOF
AC$INSTRUMENT_TYPE: LC-ESI-QTOF
AC$MASS_SPECTROMETRY: MS_TYPE MS2
AC$MASS_SPECTROMETRY: ION_MODE POSITIVE
AC$MASS_SPECTROMETRY: COLLISION_ENERGY 40 ev
AC$MASS_SPECTROMETRY: COLLISION_GAS N2
AC$MASS_SPECTROMETRY: SCANNING m/z 100-1000
AC$CHROMATOGRAPHY: COLUMN_NAME Agilent C8 Cartridge Column 2.1X30mm 3.5 micron (guard); Agilent SB-Aq 2.1x50mm 1.8 micron (analytical)
AC$CHROMATOGRAPHY: COLUMN_TEMPERATURE 60 C
AC$CHROMATOGRAPHY: FLOW_GRADIENT linear from 98A/2B at 0 min to 2A/98B at 13 min, hold 6 min at 2A/98B, reequilibration 98A/2B (5 min)
AC$CHROMATOGRAPHY: FLOW_RATE 0.6 ml/min
AC$CHROMATOGRAPHY: RETENTION_TIME 4.122
AC$CHROMATOGRAPHY: SOLVENT A water with 0.2% acetic acid
AC$CHROMATOGRAPHY: SOLVENT B methanol with 0.2% acetic acid
MS$FOCUSED_ION: BASE_PEAK 123
MS$FOCUSED_ION: PRECURSOR_M/Z 195.0877
MS$FOCUSED_ION: PRECURSOR_TYPE [M+H]+
PK$SPLASH: splash10-00di-0900000000-5e7721bcb84a3ae2c1eb
PK$NUM_PEAK: 6
PK$PEAK: m/z int. rel.int.
  108.0533 31 74
  109.038 103 244
  110.0718 149 354
  123.0423 421 999
  123.0812 21 50
  138.0644 98 233
//
