ACCESSION: MSBNK-Washington_State_Univ-BML00045
RECORD_TITLE: 9-methoxy-2,2-dimethyl-6-hydro-2H-pyrano[5,6-c]quinolin-5-one; LC-ESI-QTOF; MS2; CE 10 ev; [M-H]-
DATE: 2016.01.19 (Created 2012.10.26)
AUTHORS: Cuthbertson DJ, Johnson SR, Lange BM, Institute of Biological Chemistry, Washington State University
LICENSE: CC BY-SA
COMMENT: relative retention time with respect to 9-anthracene Carboxylic Acid is 1.159
CH$NAME: 9-methoxy-2,2-dimethyl-6-hydro-2H-pyrano[5,6-c]quinolin-5-one
CH$COMPOUND_CLASS: N/A
CH$FORMULA: C15H15NO3
CH$EXACT_MASS: 257.105193
CH$SMILES: CC1(C=CC2=C(O1)C3=C(C=CC(=C3)OC)NC2=O)C
CH$IUPAC: InChI=1S/C15H15NO3/c1-15(2)7-6-10-13(19-15)11-8-9(18-3)4-5-12(11)16-14(10)17/h4-8H,1-3H3,(H,16,17)
CH$LINK: CHEMSPIDER 563381
CH$LINK: PUBCHEM CID:648601
CH$LINK: INCHIKEY IXRKDGGGFFCRIR-UHFFFAOYSA-N
AC$INSTRUMENT: Agilent 1200 RRLC; Agilent 6520 QTOF
AC$INSTRUMENT_TYPE: LC-ESI-QTOF
AC$MASS_SPECTROMETRY: MS_TYPE MS2
AC$MASS_SPECTROMETRY: ION_MODE NEGATIVE
AC$MASS_SPECTROMETRY: COLLISION_ENERGY 10 ev
AC$MASS_SPECTROMETRY: COLLISION_GAS N2
AC$MASS_SPECTROMETRY: SCANNING m/z 100-1000
AC$CHROMATOGRAPHY: COLUMN_NAME Agilent C8 Cartridge Column 2.1X30mm 3.5 micron (guard); Agilent SB-Aq 2.1x50mm 1.8 micron (analytical)
AC$CHROMATOGRAPHY: COLUMN_TEMPERATURE 60 C
AC$CHROMATOGRAPHY: FLOW_GRADIENT linear from 98A/2B at 0 min to 2A/98B at 13 min, hold 6 min at 2A/98B, reequilibration 98A/2B (5 min)
AC$CHROMATOGRAPHY: FLOW_RATE 0.6 ml/min
AC$CHROMATOGRAPHY: RETENTION_TIME 8.500
AC$CHROMATOGRAPHY: SOLVENT A water with 0.2% acetic acid
AC$CHROMATOGRAPHY: SOLVENT B methanol with 0.2% acetic acid
MS$FOCUSED_ION: BASE_PEAK 255
MS$FOCUSED_ION: PRECURSOR_M/Z 256.0979
MS$FOCUSED_ION: PRECURSOR_TYPE [M-H]-
PK$SPLASH: splash10-0a4i-0090000000-0051c3d5f0cb01ea9ce1
PK$NUM_PEAK: 8
PK$PEAK: m/z int. rel.int.
  241.0734 237 126
  255.0598 27 14
  255.2322 1873 999
  255.2752 107 57
  255.3024 37 20
  256.0969 561 299
  256.1398 29 15
  256.2363 233 124
//
