ACCESSION: MSBNK-Washington_State_Univ-BML01167
RECORD_TITLE: Epinephrine; LC-ESI-QTOF; MS2; CE 20 ev; [M-H]-
DATE: 2016.01.19 (Created 2012.10.26)
AUTHORS: Cuthbertson DJ, Johnson SR, Lange BM, Institute of Biological Chemistry, Washington State University
LICENSE: CC BY-SA
COMMENT: relative retention time with respect to 9-anthracene Carboxylic Acid is 0.050
CH$NAME: Epinephrine
CH$COMPOUND_CLASS: N/A
CH$FORMULA: C9H13NO3
CH$EXACT_MASS: 183.089543
CH$SMILES: CNCC(C1=CC(=C(C=C1)O)O)O
CH$IUPAC: InChI=1S/C9H13NO3/c1-10-5-9(13)6-2-3-7(11)8(12)4-6/h2-4,9-13H,5H2,1H3
CH$LINK: CAS 51-43-4
CH$LINK: CHEMSPIDER 815
CH$LINK: PUBCHEM CID:838
CH$LINK: INCHIKEY UCTWMZQNUQWSLP-UHFFFAOYSA-N
AC$INSTRUMENT: Agilent 1200 RRLC; Agilent 6520 QTOF
AC$INSTRUMENT_TYPE: LC-ESI-QTOF
AC$MASS_SPECTROMETRY: MS_TYPE MS2
AC$MASS_SPECTROMETRY: ION_MODE NEGATIVE
AC$MASS_SPECTROMETRY: COLLISION_ENERGY 20 ev
AC$MASS_SPECTROMETRY: COLLISION_GAS N2
AC$MASS_SPECTROMETRY: SCANNING m/z 100-1000
AC$CHROMATOGRAPHY: COLUMN_NAME Agilent C8 Cartridge Column 2.1X30mm 3.5 micron (guard); Agilent SB-Aq 2.1x50mm 1.8 micron (analytical)
AC$CHROMATOGRAPHY: COLUMN_TEMPERATURE 60 C
AC$CHROMATOGRAPHY: FLOW_GRADIENT linear from 98A/2B at 0 min to 2A/98B at 13 min, hold 6 min at 2A/98B, reequilibration 98A/2B (5 min)
AC$CHROMATOGRAPHY: FLOW_RATE 0.6 ml/min
AC$CHROMATOGRAPHY: RETENTION_TIME 0.369
AC$CHROMATOGRAPHY: SOLVENT A water with 0.2% acetic acid
AC$CHROMATOGRAPHY: SOLVENT B methanol with 0.2% acetic acid
MS$FOCUSED_ION: BASE_PEAK 122
MS$FOCUSED_ION: PRECURSOR_M/Z 182.0822
MS$FOCUSED_ION: PRECURSOR_TYPE [M-H]-
PK$SPLASH: splash10-00di-0900000000-272a764c388aec241faf
PK$NUM_PEAK: 7
PK$PEAK: m/z int. rel.int.
  103.0992 21 65
  106.9702 29 90
  122.0375 321 999
  149.0441 37 115
  149.0557 33 103
  164.0727 133 414
  164.1235 21 65
//
