ACCESSION: MSBNK-Washington_State_Univ-BML01204
RECORD_TITLE: Hippuric acid; LC-ESI-QTOF; MS2; CE 10 ev; [M-H]-
DATE: 2016.01.19 (Created 2012.10.26)
AUTHORS: Cuthbertson DJ, Johnson SR, Lange BM, Institute of Biological Chemistry, Washington State University
LICENSE: CC BY-SA
COMMENT: relative retention time with respect to 9-anthracene Carboxylic Acid is 0.315
CH$NAME: Hippuric acid
CH$COMPOUND_CLASS: N/A
CH$FORMULA: C9H9NO3
CH$EXACT_MASS: 179.058243
CH$SMILES: C1=CC=C(C=C1)C(=O)NCC(=O)O
CH$IUPAC: InChI=1S/C9H9NO3/c11-8(12)6-10-9(13)7-4-2-1-3-5-7/h1-5H,6H2,(H,10,13)(H,11,12)
CH$LINK: CAS 495-69-2
CH$LINK: CHEMSPIDER 451
CH$LINK: PUBCHEM CID:464
CH$LINK: INCHIKEY QIAFMBKCNZACKA-UHFFFAOYSA-N
CH$LINK: COMPTOX DTXSID9046073
AC$INSTRUMENT: Agilent 1200 RRLC; Agilent 6520 QTOF
AC$INSTRUMENT_TYPE: LC-ESI-QTOF
AC$MASS_SPECTROMETRY: MS_TYPE MS2
AC$MASS_SPECTROMETRY: ION_MODE NEGATIVE
AC$MASS_SPECTROMETRY: COLLISION_ENERGY 10 ev
AC$MASS_SPECTROMETRY: COLLISION_GAS N2
AC$MASS_SPECTROMETRY: SCANNING m/z 100-1000
AC$CHROMATOGRAPHY: COLUMN_NAME Agilent C8 Cartridge Column 2.1X30mm 3.5 micron (guard); Agilent SB-Aq 2.1x50mm 1.8 micron (analytical)
AC$CHROMATOGRAPHY: COLUMN_TEMPERATURE 60 C
AC$CHROMATOGRAPHY: FLOW_GRADIENT linear from 98A/2B at 0 min to 2A/98B at 13 min, hold 6 min at 2A/98B, reequilibration 98A/2B (5 min)
AC$CHROMATOGRAPHY: FLOW_RATE 0.6 ml/min
AC$CHROMATOGRAPHY: RETENTION_TIME 2.327
AC$CHROMATOGRAPHY: SOLVENT A water with 0.2% acetic acid
AC$CHROMATOGRAPHY: SOLVENT B methanol with 0.2% acetic acid
MS$FOCUSED_ION: BASE_PEAK 134
MS$FOCUSED_ION: PRECURSOR_M/Z 178.0509
MS$FOCUSED_ION: PRECURSOR_TYPE [M-H]-
PK$SPLASH: splash10-003r-0900000000-5d25dcc019489d867073
PK$NUM_PEAK: 6
PK$PEAK: m/z int. rel.int.
  122.5914 21 29
  134.0618 734 999
  134.0943 44 60
  147.103 30 41
  164.0694 52 71
  178.0499 613 834
//
