ACCESSION: MSBNK-Washington_State_Univ-BML01837
RECORD_TITLE: (S)-(-)-Perillic acid; LC-ESI-QTOF; MS2; CE 10 ev; [M-H]-
DATE: 2016.01.19 (Created 2012.10.26)
AUTHORS: Cuthbertson DJ, Johnson SR, Lange BM, Institute of Biological Chemistry, Washington State University
LICENSE: CC BY-SA
COMMENT: relative retention time with respect to 9-anthracene Carboxylic Acid is 1.043
CH$NAME: (S)-(-)-Perillic acid
CH$COMPOUND_CLASS: N/A
CH$FORMULA: C10H14O2
CH$EXACT_MASS: 166.09938
CH$SMILES: CC(=C)[C@H]1CCC(=CC1)C(=O)O
CH$IUPAC: InChI=1S/C10H14O2/c1-7(2)8-3-5-9(6-4-8)10(11)12/h5,8H,1,3-4,6H2,2H3,(H,11,12)/t8-/m1/s1
CH$LINK: CAS 23635-14-5
CH$LINK: CHEMSPIDER 2006319
CH$LINK: PUBCHEM CID:2724160
CH$LINK: INCHIKEY CDSMSBUVCWHORP-MRVPVSSYSA-N
AC$INSTRUMENT: Agilent 1200 RRLC; Agilent 6520 QTOF
AC$INSTRUMENT_TYPE: LC-ESI-QTOF
AC$MASS_SPECTROMETRY: MS_TYPE MS2
AC$MASS_SPECTROMETRY: ION_MODE NEGATIVE
AC$MASS_SPECTROMETRY: COLLISION_ENERGY 10 ev
AC$MASS_SPECTROMETRY: COLLISION_GAS N2
AC$MASS_SPECTROMETRY: SCANNING m/z 100-1000
AC$CHROMATOGRAPHY: COLUMN_NAME Agilent C8 Cartridge Column 2.1X30mm 3.5 micron (guard); Agilent SB-Aq 2.1x50mm 1.8 micron (analytical)
AC$CHROMATOGRAPHY: COLUMN_TEMPERATURE 60 C
AC$CHROMATOGRAPHY: FLOW_GRADIENT linear from 98A/2B at 0 min to 2A/98B at 13 min, hold 6 min at 2A/98B, reequilibration 98A/2B (5 min)
AC$CHROMATOGRAPHY: FLOW_RATE 0.6 ml/min
AC$CHROMATOGRAPHY: RETENTION_TIME 7.680
AC$CHROMATOGRAPHY: SOLVENT A water with 0.2% acetic acid
AC$CHROMATOGRAPHY: SOLVENT B methanol with 0.2% acetic acid
MS$FOCUSED_ION: BASE_PEAK 165
MS$FOCUSED_ION: PRECURSOR_M/Z 165.0921
MS$FOCUSED_ION: PRECURSOR_TYPE [M-H]-
PK$SPLASH: splash10-014i-0900000000-df38e9271084035a54a4
PK$NUM_PEAK: 7
PK$PEAK: m/z int. rel.int.
  118.1612 22 1
  121.1007 144 10
  143.5617 65 4
  146.3944 43 3
  149.0658 41 3
  165.0438 27 2
  165.0915 14746 999
//
