ACCESSION: MSBNK-Washington_State_Univ-BML01485
RECORD_TITLE: 2',6-Dihydroxyflavone; LC-ESI-QTOF; MS2; CE 20 ev; [M+H]+
DATE: 2016.01.19 (Created 2012.10.26)
AUTHORS: Cuthbertson DJ, Johnson SR, Lange BM, Institute of Biological Chemistry, Washington State University
LICENSE: CC BY-SA
COMMENT: relative retention time with respect to 9-anthracene Carboxylic Acid is 1.008
CH$NAME: 2',6-Dihydroxyflavone
CH$COMPOUND_CLASS: N/A
CH$FORMULA: C15H10O4
CH$EXACT_MASS: 254.057909
CH$SMILES: C1=CC=C(C(=C1)C2=CC(=O)C3=C(O2)C=CC(=C3)O)O
CH$IUPAC: InChI=1S/C15H10O4/c16-9-5-6-14-11(7-9)13(18)8-15(19-14)10-3-1-2-4-12(10)17/h1-8,16-17H
CH$LINK: CHEMSPIDER 600074
CH$LINK: PUBCHEM CID:688661
CH$LINK: INCHIKEY YCGXYGWBHFKQHY-UHFFFAOYSA-N
CH$LINK: COMPTOX DTXSID50350941
AC$INSTRUMENT: Agilent 1200 RRLC; Agilent 6520 QTOF
AC$INSTRUMENT_TYPE: LC-ESI-QTOF
AC$MASS_SPECTROMETRY: MS_TYPE MS2
AC$MASS_SPECTROMETRY: ION_MODE POSITIVE
AC$MASS_SPECTROMETRY: COLLISION_ENERGY 20 ev
AC$MASS_SPECTROMETRY: COLLISION_GAS N2
AC$MASS_SPECTROMETRY: SCANNING m/z 100-1000
AC$CHROMATOGRAPHY: COLUMN_NAME Agilent C8 Cartridge Column 2.1X30mm 3.5 micron (guard); Agilent SB-Aq 2.1x50mm 1.8 micron (analytical)
AC$CHROMATOGRAPHY: COLUMN_TEMPERATURE 60 C
AC$CHROMATOGRAPHY: FLOW_GRADIENT linear from 98A/2B at 0 min to 2A/98B at 13 min, hold 6 min at 2A/98B, reequilibration 98A/2B (5 min)
AC$CHROMATOGRAPHY: FLOW_RATE 0.6 ml/min
AC$CHROMATOGRAPHY: RETENTION_TIME 7.448
AC$CHROMATOGRAPHY: SOLVENT A water with 0.2% acetic acid
AC$CHROMATOGRAPHY: SOLVENT B methanol with 0.2% acetic acid
MS$FOCUSED_ION: BASE_PEAK 255
MS$FOCUSED_ION: PRECURSOR_M/Z 255.0652
MS$FOCUSED_ION: PRECURSOR_TYPE [M+H]+
PK$SPLASH: splash10-0a4i-0490000000-04788c77ef7f44de9dd3
PK$NUM_PEAK: 20
PK$PEAK: m/z int. rel.int.
  101.0409 23 6
  109.0275 58 16
  115.0545 31 8
  119.0478 105 29
  121.0283 74 20
  128.0666 20 5
  129.0667 22 6
  137.0227 1401 382
  137.0583 60 16
  153.0677 102 28
  165.0695 75 20
  176.9883 105 29
  181.0631 96 26
  199.0786 25 7
  211.0708 23 6
  227.0722 55 15
  255.0646 3665 999
  255.1099 177 48
  255.1443 58 16
  255.2116 38 10
//
