ACCESSION: MSBNK-Washington_State_Univ-BML01435
RECORD_TITLE: 2'-O-Methylcytidine; LC-ESI-QTOF; MS2; CE 40 ev; [M+H]+
DATE: 2016.01.19 (Created 2012.10.26)
AUTHORS: Cuthbertson DJ, Johnson SR, Lange BM, Institute of Biological Chemistry, Washington State University
LICENSE: CC BY-SA
COMMENT: relative retention time with respect to 9-anthracene Carboxylic Acid is 0.053
CH$NAME: 2'-O-Methylcytidine
CH$COMPOUND_CLASS: N/A
CH$FORMULA: C10H15N3O5
CH$EXACT_MASS: 257.101171
CH$SMILES: COC1C(C(OC1N2C=CC(=NC2=O)N)CO)O
CH$IUPAC: InChI=1S/C10H15N3O5/c1-17-8-7(15)5(4-14)18-9(8)13-3-2-6(11)12-10(13)16/h2-3,5,7-9,14-15H,4H2,1H3,(H2,11,12,16)
CH$LINK: CAS 2140-72-9
CH$LINK: CHEMSPIDER 266344
CH$LINK: PUBCHEM CID:301382
CH$LINK: INCHIKEY RFCQJGFZUQFYRF-UHFFFAOYSA-N
AC$INSTRUMENT: Agilent 1200 RRLC; Agilent 6520 QTOF
AC$INSTRUMENT_TYPE: LC-ESI-QTOF
AC$MASS_SPECTROMETRY: MS_TYPE MS2
AC$MASS_SPECTROMETRY: ION_MODE POSITIVE
AC$MASS_SPECTROMETRY: COLLISION_ENERGY 40 ev
AC$MASS_SPECTROMETRY: COLLISION_GAS N2
AC$MASS_SPECTROMETRY: SCANNING m/z 100-1000
AC$CHROMATOGRAPHY: COLUMN_NAME Agilent C8 Cartridge Column 2.1X30mm 3.5 micron (guard); Agilent SB-Aq 2.1x50mm 1.8 micron (analytical)
AC$CHROMATOGRAPHY: COLUMN_TEMPERATURE 60 C
AC$CHROMATOGRAPHY: FLOW_GRADIENT linear from 98A/2B at 0 min to 2A/98B at 13 min, hold 6 min at 2A/98B, reequilibration 98A/2B (5 min)
AC$CHROMATOGRAPHY: FLOW_RATE 0.6 ml/min
AC$CHROMATOGRAPHY: RETENTION_TIME 0.389
AC$CHROMATOGRAPHY: SOLVENT A water with 0.2% acetic acid
AC$CHROMATOGRAPHY: SOLVENT B methanol with 0.2% acetic acid
MS$FOCUSED_ION: BASE_PEAK 112
MS$FOCUSED_ION: PRECURSOR_M/Z 258.1085
MS$FOCUSED_ION: PRECURSOR_TYPE [M+H]+
PK$SPLASH: splash10-03di-0900000000-d5afe6e5a0730f9cc2cd
PK$NUM_PEAK: 7
PK$PEAK: m/z int. rel.int.
  112.0505 6389 999
  112.0798 224 35
  112.0969 32 5
  112.1273 27 4
  112.1479 56 9
  112.2125 20 3
  112.4602 25 4
//
