ACCESSION: MSBNK-Washington_State_Univ-BML01421
RECORD_TITLE: 2'-O-Methylcytidine; LC-ESI-QTOF; MS2; CE 10 ev; [M+H]+
DATE: 2016.01.19 (Created 2012.10.26)
AUTHORS: Cuthbertson DJ, Johnson SR, Lange BM, Institute of Biological Chemistry, Washington State University
LICENSE: CC BY-SA
COMMENT: relative retention time with respect to 9-anthracene Carboxylic Acid is 0.053
CH$NAME: 2'-O-Methylcytidine
CH$COMPOUND_CLASS: N/A
CH$FORMULA: C10H15N3O5
CH$EXACT_MASS: 257.101171
CH$SMILES: COC1C(C(OC1N2C=CC(=NC2=O)N)CO)O
CH$IUPAC: InChI=1S/C10H15N3O5/c1-17-8-7(15)5(4-14)18-9(8)13-3-2-6(11)12-10(13)16/h2-3,5,7-9,14-15H,4H2,1H3,(H2,11,12,16)
CH$LINK: CAS 2140-72-9
CH$LINK: CHEMSPIDER 266344
CH$LINK: PUBCHEM CID:301382
CH$LINK: INCHIKEY RFCQJGFZUQFYRF-UHFFFAOYSA-N
AC$INSTRUMENT: Agilent 1200 RRLC; Agilent 6520 QTOF
AC$INSTRUMENT_TYPE: LC-ESI-QTOF
AC$MASS_SPECTROMETRY: MS_TYPE MS2
AC$MASS_SPECTROMETRY: ION_MODE POSITIVE
AC$MASS_SPECTROMETRY: COLLISION_ENERGY 10 ev
AC$MASS_SPECTROMETRY: COLLISION_GAS N2
AC$MASS_SPECTROMETRY: SCANNING m/z 100-1000
AC$CHROMATOGRAPHY: COLUMN_NAME Agilent C8 Cartridge Column 2.1X30mm 3.5 micron (guard); Agilent SB-Aq 2.1x50mm 1.8 micron (analytical)
AC$CHROMATOGRAPHY: COLUMN_TEMPERATURE 60 C
AC$CHROMATOGRAPHY: FLOW_GRADIENT linear from 98A/2B at 0 min to 2A/98B at 13 min, hold 6 min at 2A/98B, reequilibration 98A/2B (5 min)
AC$CHROMATOGRAPHY: FLOW_RATE 0.6 ml/min
AC$CHROMATOGRAPHY: RETENTION_TIME 0.389
AC$CHROMATOGRAPHY: SOLVENT A water with 0.2% acetic acid
AC$CHROMATOGRAPHY: SOLVENT B methanol with 0.2% acetic acid
MS$FOCUSED_ION: BASE_PEAK 112
MS$FOCUSED_ION: PRECURSOR_M/Z 258.1085
MS$FOCUSED_ION: PRECURSOR_TYPE [M+H]+
PK$SPLASH: splash10-03di-0900000000-6af7829b66b4e7c7ac12
PK$NUM_PEAK: 28
PK$PEAK: m/z int. rel.int.
  101.0583 172 10
  112.0507 17872 999
  112.0827 466 26
  112.099 62 3
  112.1167 38 2
  112.1277 32 2
  112.1488 223 12
  112.1549 30 2
  112.1877 54 3
  112.225 32 2
  112.243 34 2
  112.2591 20 1
  112.2725 35 2
  112.3152 33 2
  112.3429 23 1
  112.3504 31 2
  112.4052 30 2
  112.4946 48 3
  112.5435 23 1
  112.6217 26 1
  112.7124 25 1
  112.7266 28 2
  112.877 25 1
  112.9163 22 1
  112.9625 20 1
  115.0374 25 1
  129.052 41 2
  147.0666 61 3
//
