ACCESSION: MSBNK-Washington_State_Univ-BML00788
RECORD_TITLE: Oxoglaucine; LC-ESI-QTOF; MS2; CE 10 ev; [M+H]+
DATE: 2016.01.19 (Created 2012.10.26)
AUTHORS: Cuthbertson DJ, Johnson SR, Lange BM, Institute of Biological Chemistry, Washington State University
LICENSE: CC BY-SA
COMMENT: relative retention time with respect to 9-anthracene Carboxylic Acid is 1.249
CH$NAME: Oxoglaucine
CH$COMPOUND_CLASS: N/A
CH$FORMULA: C20H17NO5
CH$EXACT_MASS: 351.110673
CH$SMILES: COC1=C(C2=C3C(=C1)C=CN=C3C(=O)C4=CC(=C(C=C42)OC)OC)OC
CH$IUPAC: InChI=1S/C20H17NO5/c1-23-13-8-11-12(9-14(13)24-2)19(22)18-16-10(5-6-21-18)7-15(25-3)20(26-4)17(11)16/h5-9H,1-4H3
CH$LINK: CAS 5574-24-3
CH$LINK: CHEMSPIDER 88148
CH$LINK: PUBCHEM CID:97662
CH$LINK: INCHIKEY ZYKCETVKVRJFGD-UHFFFAOYSA-N
CH$LINK: COMPTOX DTXSID20204285
AC$INSTRUMENT: Agilent 1200 RRLC; Agilent 6520 QTOF
AC$INSTRUMENT_TYPE: LC-ESI-QTOF
AC$MASS_SPECTROMETRY: MS_TYPE MS2
AC$MASS_SPECTROMETRY: ION_MODE POSITIVE
AC$MASS_SPECTROMETRY: COLLISION_ENERGY 10 ev
AC$MASS_SPECTROMETRY: COLLISION_GAS N2
AC$MASS_SPECTROMETRY: SCANNING m/z 100-1000
AC$CHROMATOGRAPHY: COLUMN_NAME Agilent C8 Cartridge Column 2.1X30mm 3.5 micron (guard); Agilent SB-Aq 2.1x50mm 1.8 micron (analytical)
AC$CHROMATOGRAPHY: COLUMN_TEMPERATURE 60 C
AC$CHROMATOGRAPHY: FLOW_GRADIENT linear from 98A/2B at 0 min to 2A/98B at 13 min, hold 6 min at 2A/98B, reequilibration 98A/2B (5 min)
AC$CHROMATOGRAPHY: FLOW_RATE 0.6 ml/min
AC$CHROMATOGRAPHY: RETENTION_TIME 9.152
AC$CHROMATOGRAPHY: SOLVENT A water with 0.2% acetic acid
AC$CHROMATOGRAPHY: SOLVENT B methanol with 0.2% acetic acid
MS$FOCUSED_ION: BASE_PEAK 352
MS$FOCUSED_ION: PRECURSOR_M/Z 352.1180
MS$FOCUSED_ION: PRECURSOR_TYPE [M+H]+
PK$SPLASH: splash10-0udi-0009000000-223dc59c7bba2e3b5408
PK$NUM_PEAK: 5
PK$PEAK: m/z int. rel.int.
  306.0744 148 56
  322.0638 30 11
  337.0852 50 19
  337.1071 28 11
  352.1143 2646 999
//
