ACCESSION: MSBNK-Washington_State_Univ-BML01766
RECORD_TITLE: 4-Hydroxy-2',3,4',6'-tetramethoxychalcone; LC-ESI-QTOF; MS2; CE 20 ev; [M+H]+
DATE: 2016.01.19 (Created 2012.10.26)
AUTHORS: Cuthbertson DJ, Johnson SR, Lange BM, Institute of Biological Chemistry, Washington State University
LICENSE: CC BY-SA
COMMENT: relative retention time with respect to 9-anthracene Carboxylic Acid is 1.058
CH$NAME: 4-Hydroxy-2',3,4',6'-tetramethoxychalcone
CH$COMPOUND_CLASS: N/A
CH$FORMULA: C19H20O6
CH$EXACT_MASS: 344.125988
CH$SMILES: COC1=CC(=C(C(=C1)OC)C(=O)/C=C/C2=CC(=C(C=C2)O)OC)OC
CH$IUPAC: InChI=1S/C19H20O6/c1-22-13-10-17(24-3)19(18(11-13)25-4)15(21)8-6-12-5-7-14(20)16(9-12)23-2/h5-11,20H,1-4H3/b8-6+
CH$LINK: CHEMSPIDER 8150356
CH$LINK: PUBCHEM CID:9974764
CH$LINK: INCHIKEY BAHHZVVNFAOLAZ-SOFGYWHQSA-N
AC$INSTRUMENT: Agilent 1200 RRLC; Agilent 6520 QTOF
AC$INSTRUMENT_TYPE: LC-ESI-QTOF
AC$MASS_SPECTROMETRY: MS_TYPE MS2
AC$MASS_SPECTROMETRY: ION_MODE POSITIVE
AC$MASS_SPECTROMETRY: COLLISION_ENERGY 20 ev
AC$MASS_SPECTROMETRY: COLLISION_GAS N2
AC$MASS_SPECTROMETRY: SCANNING m/z 100-1000
AC$CHROMATOGRAPHY: COLUMN_NAME Agilent C8 Cartridge Column 2.1X30mm 3.5 micron (guard); Agilent SB-Aq 2.1x50mm 1.8 micron (analytical)
AC$CHROMATOGRAPHY: COLUMN_TEMPERATURE 60 C
AC$CHROMATOGRAPHY: FLOW_GRADIENT linear from 98A/2B at 0 min to 2A/98B at 13 min, hold 6 min at 2A/98B, reequilibration 98A/2B (5 min)
AC$CHROMATOGRAPHY: FLOW_RATE 0.6 ml/min
AC$CHROMATOGRAPHY: RETENTION_TIME 7.788
AC$CHROMATOGRAPHY: SOLVENT A water with 0.2% acetic acid
AC$CHROMATOGRAPHY: SOLVENT B methanol with 0.2% acetic acid
MS$FOCUSED_ION: BASE_PEAK 195
MS$FOCUSED_ION: PRECURSOR_M/Z 345.1333
MS$FOCUSED_ION: PRECURSOR_TYPE [M+H]+
PK$SPLASH: splash10-0002-0900000000-849edb0a46f200bf8434
PK$NUM_PEAK: 10
PK$PEAK: m/z int. rel.int.
  104.9932 29 16
  117.0329 30 16
  145.0269 189 102
  152.0465 37 20
  177.0536 273 148
  180.0418 106 57
  195.0648 1847 999
  195.1024 66 36
  195.1266 23 12
  345.132 102 55
//
