ACCESSION: MSBNK-Washington_State_Univ-BML00670
RECORD_TITLE: Bergamottin; LC-ESI-QTOF; MS2; CE 40 ev; [M+H]+
DATE: 2016.01.19 (Created 2012.10.26)
AUTHORS: Cuthbertson DJ, Johnson SR, Lange BM, Institute of Biological Chemistry, Washington State University
LICENSE: CC BY-SA
COMMENT: relative retention time with respect to 9-anthracene Carboxylic Acid is 1.539
CH$NAME: Bergamottin
CH$NAME: 5-((2Z)-3,7-dimethylocta-2,6-dienyloxy)furano[3,2-g]chromen-2-one
CH$COMPOUND_CLASS: N/A
CH$FORMULA: C21H22O4
CH$EXACT_MASS: 338.151809
CH$SMILES: CC(=CCCC(=CCOC1=C2C=CC(=O)OC2=CC3=C1C=CO3)C)C
CH$IUPAC: InChI=1S/C21H22O4/c1-14(2)5-4-6-15(3)9-11-24-21-16-7-8-20(22)25-19(16)13-18-17(21)10-12-23-18/h5,7-10,12-13H,4,6,11H2,1-3H3
CH$LINK: CHEMSPIDER 106383
CH$LINK: PUBCHEM CID:119057
CH$LINK: INCHIKEY DBMJZOMNXBSRED-UHFFFAOYSA-N
AC$INSTRUMENT: Agilent 1200 RRLC; Agilent 6520 QTOF
AC$INSTRUMENT_TYPE: LC-ESI-QTOF
AC$MASS_SPECTROMETRY: MS_TYPE MS2
AC$MASS_SPECTROMETRY: ION_MODE POSITIVE
AC$MASS_SPECTROMETRY: COLLISION_ENERGY 40 ev
AC$MASS_SPECTROMETRY: COLLISION_GAS N2
AC$MASS_SPECTROMETRY: SCANNING m/z 100-1000
AC$CHROMATOGRAPHY: COLUMN_NAME Agilent C8 Cartridge Column 2.1X30mm 3.5 micron (guard); Agilent SB-Aq 2.1x50mm 1.8 micron (analytical)
AC$CHROMATOGRAPHY: COLUMN_TEMPERATURE 60 C
AC$CHROMATOGRAPHY: FLOW_GRADIENT linear from 98A/2B at 0 min to 2A/98B at 13 min, hold 6 min at 2A/98B, reequilibration 98A/2B (5 min)
AC$CHROMATOGRAPHY: FLOW_RATE 0.6 ml/min
AC$CHROMATOGRAPHY: RETENTION_TIME 11.337
AC$CHROMATOGRAPHY: SOLVENT A water with 0.2% acetic acid
AC$CHROMATOGRAPHY: SOLVENT B methanol with 0.2% acetic acid
MS$FOCUSED_ION: BASE_PEAK 147
MS$FOCUSED_ION: PRECURSOR_M/Z 339.1591
MS$FOCUSED_ION: PRECURSOR_TYPE [M+H]+
PK$SPLASH: splash10-0002-0910000000-f48fb66e42d2776aaeac
PK$NUM_PEAK: 6
PK$PEAK: m/z int. rel.int.
  103.0572 20 61
  119.0527 24 73
  131.05 122 372
  147.0437 328 999
  159.0459 69 210
  203.0325 74 225
//
