ACCESSION: MSBNK-Washington_State_Univ-BML01096
RECORD_TITLE: Salicin; LC-ESI-QTOF; MS2; CE 10 ev; [M-H]-
DATE: 2016.01.19 (Created 2012.10.26)
AUTHORS: Cuthbertson DJ, Johnson SR, Lange BM, Institute of Biological Chemistry, Washington State University
LICENSE: CC BY-SA
COMMENT: relative retention time with respect to 9-anthracene Carboxylic Acid is 0.247
CH$NAME: Salicin
CH$COMPOUND_CLASS: N/A
CH$FORMULA: C13H18O7
CH$EXACT_MASS: 286.105253
CH$SMILES: C1=CC=C(C(=C1)CO)OC2C(C(C(C(O2)CO)O)O)O
CH$IUPAC: InChI=1S/C13H18O7/c14-5-7-3-1-2-4-8(7)19-13-12(18)11(17)10(16)9(6-15)20-13/h1-4,9-18H,5-6H2
CH$LINK: CAS 138-52-3
CH$LINK: CHEMSPIDER 4961
CH$LINK: PUBCHEM CID:5145
CH$LINK: INCHIKEY NGFMICBWJRZIBI-UHFFFAOYSA-N
AC$INSTRUMENT: Agilent 1200 RRLC; Agilent 6520 QTOF
AC$INSTRUMENT_TYPE: LC-ESI-QTOF
AC$MASS_SPECTROMETRY: MS_TYPE MS2
AC$MASS_SPECTROMETRY: ION_MODE NEGATIVE
AC$MASS_SPECTROMETRY: COLLISION_ENERGY 10 ev
AC$MASS_SPECTROMETRY: COLLISION_GAS N2
AC$MASS_SPECTROMETRY: SCANNING m/z 100-1000
AC$CHROMATOGRAPHY: COLUMN_NAME Agilent C8 Cartridge Column 2.1X30mm 3.5 micron (guard); Agilent SB-Aq 2.1x50mm 1.8 micron (analytical)
AC$CHROMATOGRAPHY: COLUMN_TEMPERATURE 60 C
AC$CHROMATOGRAPHY: FLOW_GRADIENT linear from 98A/2B at 0 min to 2A/98B at 13 min, hold 6 min at 2A/98B, reequilibration 98A/2B (5 min)
AC$CHROMATOGRAPHY: FLOW_RATE 0.6 ml/min
AC$CHROMATOGRAPHY: RETENTION_TIME 1.814
AC$CHROMATOGRAPHY: SOLVENT A water with 0.2% acetic acid
AC$CHROMATOGRAPHY: SOLVENT B methanol with 0.2% acetic acid
MS$FOCUSED_ION: BASE_PEAK 123
MS$FOCUSED_ION: PRECURSOR_M/Z 285.0980
MS$FOCUSED_ION: PRECURSOR_TYPE [M-H]-
PK$SPLASH: splash10-00di-0900000000-8d599edf3a3687f65400
PK$NUM_PEAK: 5
PK$PEAK: m/z int. rel.int.
  121.0283 53 69
  123.0449 769 999
  191.2886 22 29
  196.4743 23 30
  284.2758 21 27
//
