ACCESSION: MSBNK-Washington_State_Univ-BML00157
RECORD_TITLE: Fraxetin; LC-ESI-QTOF; MS2; CE 10 ev; [M+H]+
DATE: 2016.01.19 (Created 2012.10.26)
AUTHORS: Cuthbertson DJ, Johnson SR, Lange BM, Institute of Biological Chemistry, Washington State University
LICENSE: CC BY-SA
COMMENT: relative retention time with respect to 9-anthracene Carboxylic Acid is 0.542
CH$NAME: Fraxetin
CH$COMPOUND_CLASS: N/A
CH$FORMULA: C10H8O5
CH$EXACT_MASS: 208.037173
CH$SMILES: COC1=C(C(=C2C(=C1)C=CC(=O)O2)O)O
CH$IUPAC: InChI=1S/C10H8O5/c1-14-6-4-5-2-3-7(11)15-10(5)9(13)8(6)12/h2-4,12-13H,1H3
CH$LINK: CAS 574-84-5
CH$LINK: CHEMSPIDER 4437972
CH$LINK: PUBCHEM CID:5273569
CH$LINK: INCHIKEY HAVWRBANWNTOJX-UHFFFAOYSA-N
CH$LINK: COMPTOX DTXSID00205992
AC$INSTRUMENT: Agilent 1200 RRLC; Agilent 6520 QTOF
AC$INSTRUMENT_TYPE: LC-ESI-QTOF
AC$MASS_SPECTROMETRY: MS_TYPE MS2
AC$MASS_SPECTROMETRY: ION_MODE POSITIVE
AC$MASS_SPECTROMETRY: COLLISION_ENERGY 10 ev
AC$MASS_SPECTROMETRY: COLLISION_GAS N2
AC$MASS_SPECTROMETRY: SCANNING m/z 100-1000
AC$CHROMATOGRAPHY: COLUMN_NAME Agilent C8 Cartridge Column 2.1X30mm 3.5 micron (guard); Agilent SB-Aq 2.1x50mm 1.8 micron (analytical)
AC$CHROMATOGRAPHY: COLUMN_TEMPERATURE 60 C
AC$CHROMATOGRAPHY: FLOW_GRADIENT linear from 98A/2B at 0 min to 2A/98B at 13 min, hold 6 min at 2A/98B, reequilibration 98A/2B (5 min)
AC$CHROMATOGRAPHY: FLOW_RATE 0.6 ml/min
AC$CHROMATOGRAPHY: RETENTION_TIME 3.997
AC$CHROMATOGRAPHY: SOLVENT A water with 0.2% acetic acid
AC$CHROMATOGRAPHY: SOLVENT B methanol with 0.2% acetic acid
MS$FOCUSED_ION: BASE_PEAK 209
MS$FOCUSED_ION: PRECURSOR_M/Z 209.0445
MS$FOCUSED_ION: PRECURSOR_TYPE [M+H]+
PK$SPLASH: splash10-0a4i-0290000000-a14b10fe2a9d32f203cc
PK$NUM_PEAK: 5
PK$PEAK: m/z int. rel.int.
  107.0474 29 52
  149.0216 57 102
  163.0411 34 61
  194.0211 27 48
  209.0441 559 999
//
