ACCESSION: MSBNK-Washington_State_Univ-BML00500
RECORD_TITLE: Dihydroergocristine; LC-ESI-QTOF; MS2; CE 10 ev; [M-H]-
DATE: 2016.01.19 (Created 2012.10.26)
AUTHORS: Cuthbertson DJ, Johnson SR, Lange BM, Institute of Biological Chemistry, Washington State University
LICENSE: CC BY-SA
COMMENT: relative retention time with respect to 9-anthracene Carboxylic Acid is 0.966
CH$NAME: Dihydroergocristine
CH$COMPOUND_CLASS: N/A
CH$FORMULA: C35H41N5O5
CH$EXACT_MASS: 611.310769
CH$SMILES: CC(C)C1(C(=O)N2C(C(=O)N3CCCC3C2(O1)O)CC4=CC=CC=C4)NC(=O)C5CC6C(CC7=CNC8=CC=CC6=C78)N(C5)C
CH$IUPAC: InChI=1S/C35H41N5O5/c1-20(2)34(37-31(41)23-16-25-24-11-7-12-26-30(24)22(18-36-26)17-27(25)38(3)19-23)33(43)40-28(15-21-9-5-4-6-10-21)32(42)39-14-8-13-29(39)35(40,44)45-34/h4-7,9-12,18,20,23,25,27-29,36,44H,8,13-17,19H2,1-3H3,(H,37,41)
CH$LINK: CAS 24730-10-7
CH$LINK: CHEMSPIDER 2957
CH$LINK: PUBCHEM CID:3065
CH$LINK: INCHIKEY DEQITUUQPICUMR-UHFFFAOYSA-N
AC$INSTRUMENT: Agilent 1200 RRLC; Agilent 6520 QTOF
AC$INSTRUMENT_TYPE: LC-ESI-QTOF
AC$MASS_SPECTROMETRY: MS_TYPE MS2
AC$MASS_SPECTROMETRY: ION_MODE NEGATIVE
AC$MASS_SPECTROMETRY: COLLISION_ENERGY 10 ev
AC$MASS_SPECTROMETRY: COLLISION_GAS N2
AC$MASS_SPECTROMETRY: SCANNING m/z 100-1000
AC$CHROMATOGRAPHY: COLUMN_NAME Agilent C8 Cartridge Column 2.1X30mm 3.5 micron (guard); Agilent SB-Aq 2.1x50mm 1.8 micron (analytical)
AC$CHROMATOGRAPHY: COLUMN_TEMPERATURE 60 C
AC$CHROMATOGRAPHY: FLOW_GRADIENT linear from 98A/2B at 0 min to 2A/98B at 13 min, hold 6 min at 2A/98B, reequilibration 98A/2B (5 min)
AC$CHROMATOGRAPHY: FLOW_RATE 0.6 ml/min
AC$CHROMATOGRAPHY: RETENTION_TIME 7.110
AC$CHROMATOGRAPHY: SOLVENT A water with 0.2% acetic acid
AC$CHROMATOGRAPHY: SOLVENT B methanol with 0.2% acetic acid
MS$FOCUSED_ION: BASE_PEAK 610
MS$FOCUSED_ION: PRECURSOR_M/Z 610.3035
MS$FOCUSED_ION: PRECURSOR_TYPE [M-H]-
PK$SPLASH: splash10-03di-0000009000-b35e8e944cb913ec8da3
PK$NUM_PEAK: 18
PK$PEAK: m/z int. rel.int.
  114.058 274 32
  148.4681 64 8
  226.0912 50 6
  243.116 87 10
  244.6292 129 15
  249.1174 70 8
  261.1267 122 14
  338.1686 47 6
  348.184 43 5
  366.1761 130 15
  366.2099 59 7
  387.7571 45 5
  451.2603 169 20
  495.2104 45 5
  495.2412 340 40
  566.2918 57 7
  577.9034 44 5
  610.3005 8470 999
//
