ACCESSION: MSBNK-Washington_State_Univ-BML00606
RECORD_TITLE: Chelidonine; LC-ESI-QTOF; MS2; CE 10 ev; [M+H]+
DATE: 2016.01.19 (Created 2012.10.26)
AUTHORS: Cuthbertson DJ, Johnson SR, Lange BM, Institute of Biological Chemistry, Washington State University
LICENSE: CC BY-SA
COMMENT: relative retention time with respect to 9-anthracene Carboxylic Acid is 0.621
CH$NAME: Chelidonin
CH$NAME: (+)-Chelidonine
CH$NAME: [1,3]Benzodioxolo[5,6-c]-1,3-dioxolo[4,5-i]phenanthridin-6-ol, 5b,6,7,12b,13,14-hexahydro-13-methyl-, (5bR,6S,12bS)-
CH$COMPOUND_CLASS: N/A
CH$FORMULA: C20H19NO5
CH$EXACT_MASS: 353.126323
CH$SMILES: CN1CC2=C(C=CC3=C2OCO3)[C@@H]4[C@H]1C5=CC6=C(C=C5C[C@@H]4O)OCO6
CH$IUPAC: InChI=1S/C20H19NO5/c1-21-7-13-11(2-3-15-20(13)26-9-23-15)18-14(22)4-10-5-16-17(25-8-24-16)6-12(10)19(18)21/h2-3,5-6,14,18-19,22H,4,7-9H2,1H3/t14-,18-,19+/m0/s1
CH$LINK: CAS 476-32-4
CH$LINK: CHEMSPIDER 171216
CH$LINK: COMPTOX DTXSID10878474
CH$LINK: INCHIKEY GHKISGDRQRSCII-ZOCIIQOWSA-N
CH$LINK: PUBCHEM CID:197810
AC$INSTRUMENT: Agilent 1200 RRLC; Agilent 6520 QTOF
AC$INSTRUMENT_TYPE: LC-ESI-QTOF
AC$MASS_SPECTROMETRY: MS_TYPE MS2
AC$MASS_SPECTROMETRY: ION_MODE POSITIVE
AC$MASS_SPECTROMETRY: COLLISION_ENERGY 10 ev
AC$MASS_SPECTROMETRY: COLLISION_GAS N2
AC$MASS_SPECTROMETRY: SCANNING m/z 100-1000
AC$CHROMATOGRAPHY: COLUMN_NAME Agilent C8 Cartridge Column 2.1X30mm 3.5 micron (guard); Agilent SB-Aq 2.1x50mm 1.8 micron (analytical)
AC$CHROMATOGRAPHY: COLUMN_TEMPERATURE 60 C
AC$CHROMATOGRAPHY: FLOW_GRADIENT linear from 98A/2B at 0 min to 2A/98B at 13 min, hold 6 min at 2A/98B, reequilibration 98A/2B (5 min)
AC$CHROMATOGRAPHY: FLOW_RATE 0.6 ml/min
AC$CHROMATOGRAPHY: RETENTION_TIME 4.576
AC$CHROMATOGRAPHY: SOLVENT A water with 0.2% acetic acid
AC$CHROMATOGRAPHY: SOLVENT B methanol with 0.2% acetic acid
MS$FOCUSED_ION: BASE_PEAK 354
MS$FOCUSED_ION: PRECURSOR_M/Z 354.1336
MS$FOCUSED_ION: PRECURSOR_TYPE [M+H]+
PK$SPLASH: splash10-0udi-0019000000-a22d0df1a01cfccda63f
PK$NUM_PEAK: 17
PK$PEAK: m/z int. rel.int.
  135.0433 59 9
  163.0343 39 6
  163.0467 40 6
  176.0687 47 7
  189.071 39 6
  245.0542 34 5
  247.0756 241 38
  275.0689 867 138
  275.1222 42 7
  293.0749 38 6
  295.0946 118 19
  305.079 1030 164
  305.1454 34 5
  323.0879 987 157
  323.1429 46 7
  336.1252 150 24
  354.1324 6292 999
//
