ACCESSION: MSBNK-Washington_State_Univ-BML01303
RECORD_TITLE: Glutamic acid; LC-ESI-QTOF; MS2; CE 20 ev; [M-H]-
DATE: 2016.01.19 (Created 2012.10.26)
AUTHORS: Cuthbertson DJ, Johnson SR, Lange BM, Institute of Biological Chemistry, Washington State University
LICENSE: CC BY-SA
COMMENT: relative retention time with respect to 9-anthracene Carboxylic Acid is 0.049
CH$NAME: Glutamic acid
CH$COMPOUND_CLASS: N/A
CH$FORMULA: C5H9NO4
CH$EXACT_MASS: 147.053158
CH$SMILES: C(CC(=O)O)C(C(=O)O)N
CH$IUPAC: InChI=1S/C5H9NO4/c6-3(5(9)10)1-2-4(7)8/h3H,1-2,6H2,(H,7,8)(H,9,10)
CH$LINK: CAS 56-86-0
CH$LINK: CHEMSPIDER 591
CH$LINK: PUBCHEM CID:611
CH$LINK: INCHIKEY WHUUTDBJXJRKMK-UHFFFAOYSA-N
CH$LINK: COMPTOX DTXSID0046987
AC$INSTRUMENT: Agilent 1200 RRLC; Agilent 6520 QTOF
AC$INSTRUMENT_TYPE: LC-ESI-QTOF
AC$MASS_SPECTROMETRY: MS_TYPE MS2
AC$MASS_SPECTROMETRY: ION_MODE NEGATIVE
AC$MASS_SPECTROMETRY: COLLISION_ENERGY 20 ev
AC$MASS_SPECTROMETRY: COLLISION_GAS N2
AC$MASS_SPECTROMETRY: SCANNING m/z 100-1000
AC$CHROMATOGRAPHY: COLUMN_NAME Agilent C8 Cartridge Column 2.1X30mm 3.5 micron (guard); Agilent SB-Aq 2.1x50mm 1.8 micron (analytical)
AC$CHROMATOGRAPHY: COLUMN_TEMPERATURE 60 C
AC$CHROMATOGRAPHY: FLOW_GRADIENT linear from 98A/2B at 0 min to 2A/98B at 13 min, hold 6 min at 2A/98B, reequilibration 98A/2B (5 min)
AC$CHROMATOGRAPHY: FLOW_RATE 0.6 ml/min
AC$CHROMATOGRAPHY: RETENTION_TIME 0.361
AC$CHROMATOGRAPHY: SOLVENT A water with 0.2% acetic acid
AC$CHROMATOGRAPHY: SOLVENT B methanol with 0.2% acetic acid
MS$FOCUSED_ION: BASE_PEAK 102
MS$FOCUSED_ION: PRECURSOR_M/Z 146.0459
MS$FOCUSED_ION: PRECURSOR_TYPE [M-H]-
PK$SPLASH: splash10-0udi-0900000000-c23ea6e031c1e4930944
PK$NUM_PEAK: 31
PK$PEAK: m/z int. rel.int.
  101.0283 35 7
  102.0554 5165 999
  102.0837 193 37
  102.1048 85 16
  102.1247 48 9
  102.1501 80 15
  102.1757 26 5
  102.1897 24 5
  102.2518 43 8
  102.3632 32 6
  102.4499 34 7
  102.4814 21 4
  102.6054 24 5
  102.6217 30 6
  102.6361 21 4
  102.678 24 5
  102.9645 20 4
  102.9903 38 7
  103.1596 21 4
  103.6461 36 7
  109.6851 24 5
  114.2533 20 4
  115.5707 73 14
  126.9002 47 9
  128.0361 834 161
  128.0643 55 11
  128.2674 25 5
  128.8667 26 5
  132.2532 20 4
  132.6773 21 4
  146.045 57 11
//
