ACCESSION: MSBNK-Washington_State_Univ-BML01300
RECORD_TITLE: Sophoricoside; LC-ESI-QTOF; MS2; CE 10 ev; [M-H]-
DATE: 2016.01.19 (Created 2012.10.26)
AUTHORS: Cuthbertson DJ, Johnson SR, Lange BM, Institute of Biological Chemistry, Washington State University
LICENSE: CC BY-SA
COMMENT: relative retention time with respect to 9-anthracene Carboxylic Acid is 0.779
CH$NAME: Sophoricoside
CH$NAME: 5,7-dihydroxy-3-(4-{[(2S,3R,4S,5S,6R)-3,4,5-trihydroxy-6-(hydroxymethyl)tetrahydro-2H-pyran-2-yl]oxy}phenyl)-4H-chromen-4-one
CH$COMPOUND_CLASS: N/A
CH$FORMULA: C21H20O10
CH$EXACT_MASS: 432.105647
CH$SMILES: C1=CC(=CC=C1C2=COC3=CC(=CC(=C3C2=O)O)O)OC4C(C(C(C(O4)CO)O)O)O
CH$IUPAC: InChI=1S/C21H20O10/c22-7-15-18(26)19(27)20(28)21(31-15)30-11-3-1-9(2-4-11)12-8-29-14-6-10(23)5-13(24)16(14)17(12)25/h1-6,8,15,18-24,26-28H,7H2
CH$LINK: CHEMSPIDER 4800150
CH$LINK: PUBCHEM CID:6078194
CH$LINK: INCHIKEY ISQRJFLLIDGZEP-UHFFFAOYSA-N
AC$INSTRUMENT: Agilent 1200 RRLC; Agilent 6520 QTOF
AC$INSTRUMENT_TYPE: LC-ESI-QTOF
AC$MASS_SPECTROMETRY: MS_TYPE MS2
AC$MASS_SPECTROMETRY: ION_MODE NEGATIVE
AC$MASS_SPECTROMETRY: COLLISION_ENERGY 10 ev
AC$MASS_SPECTROMETRY: COLLISION_GAS N2
AC$MASS_SPECTROMETRY: SCANNING m/z 100-1000
AC$CHROMATOGRAPHY: COLUMN_NAME Agilent C8 Cartridge Column 2.1X30mm 3.5 micron (guard); Agilent SB-Aq 2.1x50mm 1.8 micron (analytical)
AC$CHROMATOGRAPHY: COLUMN_TEMPERATURE 60 C
AC$CHROMATOGRAPHY: FLOW_GRADIENT linear from 98A/2B at 0 min to 2A/98B at 13 min, hold 6 min at 2A/98B, reequilibration 98A/2B (5 min)
AC$CHROMATOGRAPHY: FLOW_RATE 0.6 ml/min
AC$CHROMATOGRAPHY: RETENTION_TIME 5.732
AC$CHROMATOGRAPHY: SOLVENT A water with 0.2% acetic acid
AC$CHROMATOGRAPHY: SOLVENT B methanol with 0.2% acetic acid
MS$FOCUSED_ION: BASE_PEAK 431
MS$FOCUSED_ION: PRECURSOR_M/Z 431.0983
MS$FOCUSED_ION: PRECURSOR_TYPE [M-H]-
PK$SPLASH: splash10-001i-0000900000-e1b2649001b39a1d2508
PK$NUM_PEAK: 20
PK$PEAK: m/z int. rel.int.
  100.1529 29 1
  104.029 35 2
  150.2625 31 1
  153.374 37 2
  195.0274 23 1
  218.0419 34 1
  224.0337 26 1
  239.024 22 1
  239.0392 63 3
  267.0378 39 2
  268.0343 782 34
  268.0527 50 2
  268.0732 29 1
  269.044 165 7
  282.0426 30 1
  291.0276 23 1
  311.0546 21 1
  323.1076 20 1
  430.2088 21 1
  431.0977 22927 999
//
