ACCESSION: MSBNK-Washington_State_Univ-BML01165
RECORD_TITLE: Linolenic acid; LC-ESI-QTOF; MS2; CE 10 ev; [M-H]-
DATE: 2016.01.19 (Created 2012.10.26)
AUTHORS: Cuthbertson DJ, Johnson SR, Lange BM, Institute of Biological Chemistry, Washington State University
LICENSE: CC BY-SA
COMMENT: relative retention time with respect to 9-anthracene Carboxylic Acid is 1.566
CH$NAME: Linolenic acid
CH$COMPOUND_CLASS: N/A
CH$FORMULA: C18H30O2
CH$EXACT_MASS: 278.22458
CH$SMILES: CCC=CCC=CCC=CCCCCCCCC(=O)O
CH$IUPAC: InChI=1S/C18H30O2/c1-2-3-4-5-6-7-8-9-10-11-12-13-14-15-16-17-18(19)20/h3-4,6-7,9-10H,2,5,8,11-17H2,1H3,(H,19,20)
CH$LINK: CAS 463-40-1
CH$LINK: CHEMSPIDER 837
CH$LINK: PUBCHEM CID:860
CH$LINK: INCHIKEY DTOSIQBPPRVQHS-UHFFFAOYSA-N
CH$LINK: COMPTOX DTXSID7075058
AC$INSTRUMENT: Agilent 1200 RRLC; Agilent 6520 QTOF
AC$INSTRUMENT_TYPE: LC-ESI-QTOF
AC$MASS_SPECTROMETRY: MS_TYPE MS2
AC$MASS_SPECTROMETRY: ION_MODE NEGATIVE
AC$MASS_SPECTROMETRY: COLLISION_ENERGY 10 ev
AC$MASS_SPECTROMETRY: COLLISION_GAS N2
AC$MASS_SPECTROMETRY: SCANNING m/z 100-1000
AC$CHROMATOGRAPHY: COLUMN_NAME Agilent C8 Cartridge Column 2.1X30mm 3.5 micron (guard); Agilent SB-Aq 2.1x50mm 1.8 micron (analytical)
AC$CHROMATOGRAPHY: COLUMN_TEMPERATURE 60 C
AC$CHROMATOGRAPHY: FLOW_GRADIENT linear from 98A/2B at 0 min to 2A/98B at 13 min, hold 6 min at 2A/98B, reequilibration 98A/2B (5 min)
AC$CHROMATOGRAPHY: FLOW_RATE 0.6 ml/min
AC$CHROMATOGRAPHY: RETENTION_TIME 11.536
AC$CHROMATOGRAPHY: SOLVENT A water with 0.2% acetic acid
AC$CHROMATOGRAPHY: SOLVENT B methanol with 0.2% acetic acid
MS$FOCUSED_ION: BASE_PEAK 277
MS$FOCUSED_ION: PRECURSOR_M/Z 277.2173
MS$FOCUSED_ION: PRECURSOR_TYPE [M-H]-
PK$SPLASH: splash10-004i-0090000000-52a7bd13b96756162f93
PK$NUM_PEAK: 5
PK$PEAK: m/z int. rel.int.
  119.0338 76 87
  173.1918 28 32
  209.8382 30 34
  257.9412 33 38
  277.2165 877 999
//
