ACCESSION: MSBNK-Washington_State_Univ-BML01238
RECORD_TITLE: 5-Ethyl-2'-deoxyuridine; LC-ESI-QTOF; MS2; CE 10 ev; [M-H]-
DATE: 2016.01.19 (Created 2012.10.26)
AUTHORS: Cuthbertson DJ, Johnson SR, Lange BM, Institute of Biological Chemistry, Washington State University
LICENSE: CC BY-SA
COMMENT: relative retention time with respect to 9-anthracene Carboxylic Acid is 0.333
CH$NAME: 5-Ethyl-2'-deoxyuridine
CH$COMPOUND_CLASS: N/A
CH$FORMULA: C11H16N2O5
CH$EXACT_MASS: 256.105922
CH$SMILES: CCC1=CN(C(=O)NC1=O)C2CC(C(O2)CO)O
CH$IUPAC: InChI=1S/C11H16N2O5/c1-2-6-4-13(11(17)12-10(6)16)9-3-7(15)8(5-14)18-9/h4,7-9,14-15H,2-3,5H2,1H3,(H,12,16,17)
CH$LINK: CAS 15176-29-1
CH$LINK: CHEMSPIDER 1748
CH$LINK: PUBCHEM CID:1814
CH$LINK: INCHIKEY XACKNLSZYYIACO-UHFFFAOYSA-N
AC$INSTRUMENT: Agilent 1200 RRLC; Agilent 6520 QTOF
AC$INSTRUMENT_TYPE: LC-ESI-QTOF
AC$MASS_SPECTROMETRY: MS_TYPE MS2
AC$MASS_SPECTROMETRY: ION_MODE NEGATIVE
AC$MASS_SPECTROMETRY: COLLISION_ENERGY 10 ev
AC$MASS_SPECTROMETRY: COLLISION_GAS N2
AC$MASS_SPECTROMETRY: SCANNING m/z 100-1000
AC$CHROMATOGRAPHY: COLUMN_NAME Agilent C8 Cartridge Column 2.1X30mm 3.5 micron (guard); Agilent SB-Aq 2.1x50mm 1.8 micron (analytical)
AC$CHROMATOGRAPHY: COLUMN_TEMPERATURE 60 C
AC$CHROMATOGRAPHY: FLOW_GRADIENT linear from 98A/2B at 0 min to 2A/98B at 13 min, hold 6 min at 2A/98B, reequilibration 98A/2B (5 min)
AC$CHROMATOGRAPHY: FLOW_RATE 0.6 ml/min
AC$CHROMATOGRAPHY: RETENTION_TIME 2.447
AC$CHROMATOGRAPHY: SOLVENT A water with 0.2% acetic acid
AC$CHROMATOGRAPHY: SOLVENT B methanol with 0.2% acetic acid
MS$FOCUSED_ION: BASE_PEAK 255
MS$FOCUSED_ION: PRECURSOR_M/Z 255.0986
MS$FOCUSED_ION: PRECURSOR_TYPE [M-H]-
PK$SPLASH: splash10-0a4i-0190000000-5a7627090968486ceb2f
PK$NUM_PEAK: 17
PK$PEAK: m/z int. rel.int.
  126.5176 53 13
  130.0011 29 7
  130.3905 25 6
  132.034 44 11
  138.5559 29 7
  139.0456 38 10
  139.0539 176 44
  140.0733 22 6
  150.0949 23 6
  164.0711 22 6
  165.0653 272 68
  165.1031 22 6
  182.0828 37 9
  203.9973 30 8
  212.0942 58 15
  254.5243 20 5
  255.0968 3991 999
//
