ACCESSION: MSBNK-Washington_State_Univ-BML00083
RECORD_TITLE: Papaverine; LC-ESI-QTOF; MS2; CE 40 ev; [M+H]+
DATE: 2016.01.19 (Created 2012.10.26)
AUTHORS: Cuthbertson DJ, Johnson SR, Lange BM, Institute of Biological Chemistry, Washington State University
LICENSE: CC BY-SA
COMMENT: relative retention time with respect to 9-anthracene Carboxylic Acid is 0.758
CH$NAME: Papaverine
CH$COMPOUND_CLASS: N/A
CH$FORMULA: C20H21NO4
CH$EXACT_MASS: 339.147058
CH$SMILES: COC1=C(C=C(C=C1)CC2=NC=CC3=CC(=C(C=C32)OC)OC)OC
CH$IUPAC: InChI=1S/C20H21NO4/c1-22-17-6-5-13(10-18(17)23-2)9-16-15-12-20(25-4)19(24-3)11-14(15)7-8-21-16/h5-8,10-12H,9H2,1-4H3
CH$LINK: CAS 58-74-2
CH$LINK: CHEMSPIDER 4518
CH$LINK: PUBCHEM CID:4680
CH$LINK: INCHIKEY XQYZDYMELSJDRZ-UHFFFAOYSA-N
CH$LINK: COMPTOX DTXSID4023418
AC$INSTRUMENT: Agilent 1200 RRLC; Agilent 6520 QTOF
AC$INSTRUMENT_TYPE: LC-ESI-QTOF
AC$MASS_SPECTROMETRY: MS_TYPE MS2
AC$MASS_SPECTROMETRY: ION_MODE POSITIVE
AC$MASS_SPECTROMETRY: COLLISION_ENERGY 40 ev
AC$MASS_SPECTROMETRY: COLLISION_GAS N2
AC$MASS_SPECTROMETRY: SCANNING m/z 100-1000
AC$CHROMATOGRAPHY: COLUMN_NAME Agilent C8 Cartridge Column 2.1X30mm 3.5 micron (guard); Agilent SB-Aq 2.1x50mm 1.8 micron (analytical)
AC$CHROMATOGRAPHY: COLUMN_TEMPERATURE 60 C
AC$CHROMATOGRAPHY: FLOW_GRADIENT linear from 98A/2B at 0 min to 2A/98B at 13 min, hold 6 min at 2A/98B, reequilibration 98A/2B (5 min)
AC$CHROMATOGRAPHY: FLOW_RATE 0.6 ml/min
AC$CHROMATOGRAPHY: RETENTION_TIME 5.538
AC$CHROMATOGRAPHY: SOLVENT A water with 0.2% acetic acid
AC$CHROMATOGRAPHY: SOLVENT B methanol with 0.2% acetic acid
MS$FOCUSED_ION: BASE_PEAK 324
MS$FOCUSED_ION: PRECURSOR_M/Z 340.1544
MS$FOCUSED_ION: PRECURSOR_TYPE [M+H]+
PK$SPLASH: splash10-00di-0779000000-37837168aff5cb2db6db
PK$NUM_PEAK: 17
PK$PEAK: m/z int. rel.int.
  158.0647 22 51
  159.0645 28 66
  170.0592 29 68
  171.0669 313 732
  172.075 22 51
  186.0522 45 105
  187.0629 53 124
  202.0855 276 646
  252.1012 21 49
  280.0989 91 213
  280.1371 21 49
  294.1141 35 82
  296.1271 59 138
  308.0835 21 49
  308.0925 114 267
  309.1002 31 73
  324.1238 427 999
//
