ACCESSION: MSBNK-Washington_State_Univ-BML01588
RECORD_TITLE: 3-{[(7-methoxy-2-oxochromen-4-yl)methyl]methylamino}propanenitrile; LC-ESI-QTOF; MS2; CE 40 ev; [M-H]-
DATE: 2016.01.19 (Created 2012.10.26)
AUTHORS: Cuthbertson DJ, Johnson SR, Lange BM, Institute of Biological Chemistry, Washington State University
LICENSE: CC BY-SA
COMMENT: relative retention time with respect to 9-anthracene Carboxylic Acid is 0.944
CH$NAME: 3-{[(7-methoxy-2-oxochromen-4-yl)methyl]methylamino}propanenitrile
CH$COMPOUND_CLASS: N/A
CH$FORMULA: C15H16N2O3
CH$EXACT_MASS: 272.116092
CH$SMILES: CN(CCC#N)CC1=CC(=O)OC2=C1C=CC(=C2)OC
CH$IUPAC: InChI=1S/C15H16N2O3/c1-17(7-3-6-16)10-11-8-15(18)20-14-9-12(19-2)4-5-13(11)14/h4-5,8-9H,3,7,10H2,1-2H3
CH$LINK: CHEMSPIDER 3520425
CH$LINK: PUBCHEM CID:4315245
CH$LINK: INCHIKEY FMDMLXZPCLVWSQ-UHFFFAOYSA-N
AC$INSTRUMENT: Agilent 1200 RRLC; Agilent 6520 QTOF
AC$INSTRUMENT_TYPE: LC-ESI-QTOF
AC$MASS_SPECTROMETRY: MS_TYPE MS2
AC$MASS_SPECTROMETRY: ION_MODE NEGATIVE
AC$MASS_SPECTROMETRY: COLLISION_ENERGY 40 ev
AC$MASS_SPECTROMETRY: COLLISION_GAS N2
AC$MASS_SPECTROMETRY: SCANNING m/z 100-1000
AC$CHROMATOGRAPHY: COLUMN_NAME Agilent C8 Cartridge Column 2.1X30mm 3.5 micron (guard); Agilent SB-Aq 2.1x50mm 1.8 micron (analytical)
AC$CHROMATOGRAPHY: COLUMN_TEMPERATURE 60 C
AC$CHROMATOGRAPHY: FLOW_GRADIENT linear from 98A/2B at 0 min to 2A/98B at 13 min, hold 6 min at 2A/98B, reequilibration 98A/2B (5 min)
AC$CHROMATOGRAPHY: FLOW_RATE 0.6 ml/min
AC$CHROMATOGRAPHY: RETENTION_TIME 6.961
AC$CHROMATOGRAPHY: SOLVENT A water with 0.2% acetic acid
AC$CHROMATOGRAPHY: SOLVENT B methanol with 0.2% acetic acid
MS$FOCUSED_ION: BASE_PEAK 132
MS$FOCUSED_ION: PRECURSOR_M/Z 271.1088
MS$FOCUSED_ION: PRECURSOR_TYPE [M-H]-
PK$SPLASH: splash10-01qi-0900000000-f4baf12fb28c44b8629e
PK$NUM_PEAK: 20
PK$PEAK: m/z int. rel.int.
  104.0235 31 53
  105.0326 26 44
  118.0395 24 41
  129.7288 69 118
  132.0198 586 999
  133.0286 286 488
  133.0595 22 38
  145.0314 64 109
  146.0359 102 174
  147.044 221 377
  160.038 288 491
  161.0231 234 399
  161.0326 24 41
  170.4859 27 46
  175.0682 33 56
  186.0237 42 72
  188.0331 449 765
  198.5694 22 38
  201.0477 28 48
  202.0467 93 159
//
