ACCESSION: MSBNK-Univ_Connecticut-CO000499
RECORD_TITLE: Thonizide; LC-ESI-QTOF; MS2; CE:40 eV; [M]+
DATE: 2016.01.19 (Created 2008.07.15, modified 2013.06.04)
AUTHORS: Dennis W. Hill, Tzipporah M. Kertesz, Robert Friedman, David F. Grant
LICENSE: CC BY-SA
PUBLICATION: Mass Spectral Metabonomics beyond Elemental Formula: Chemical Database Querying by Matching Experimental with Computational Fragmentation Spectra, http://pubs.acs.org/doi/abs/10.1021/ac800548g
CH$NAME: Thonizide
CH$COMPOUND_CLASS: N/A
CH$FORMULA: [C32H55N4O]+
CH$EXACT_MASS: 511.43759
CH$SMILES: CCCCCCCCCCCCCCCC[N+](C)(C)CCN(CC1=CC=C(C=C1)OC)C2=NC=CC=N2
CH$IUPAC: InChI=1S/C32H55N4O/c1-5-6-7-8-9-10-11-12-13-14-15-16-17-18-27-36(2,3)28-26-35(32-33-24-19-25-34-32)29-30-20-22-31(37-4)23-21-30/h19-25H,5-18,26-29H2,1-4H3/q+1
CH$LINK: PUBCHEM CID:5456
CH$LINK: INCHIKEY IOYZYMQFUSNATM-UHFFFAOYSA-N
CH$LINK: COMPTOX DTXSID8048232
AC$INSTRUMENT: Micromass Q-TOF II
AC$INSTRUMENT_TYPE: LC-ESI-QTOF
AC$MASS_SPECTROMETRY: MS_TYPE MS2
AC$MASS_SPECTROMETRY: ION_MODE POSITIVE
AC$MASS_SPECTROMETRY: COLLISION_ENERGY 40 eV
AC$MASS_SPECTROMETRY: IONIZATION ESI
MS$FOCUSED_ION: PRECURSOR_M/Z 511.43759
MS$FOCUSED_ION: PRECURSOR_TYPE [M]+
PK$SPLASH: splash10-00di-0900000000-b9651585792ecaeac26b
PK$NUM_PEAK: 4
PK$PEAK: m/z int. rel.int.
  121.0667 10000 999
  122.0702 3169.543 317
  242.1311 562.123 56
  243.134 489.215 49
//
