ACCESSION: MSBNK-Univ_Connecticut-CO000446
RECORD_TITLE: Terbutaline; LC-ESI-QTOF; MS2; CE:10 eV; [M+H]+
DATE: 2016.01.19 (Created 2008.07.15, modified 2012.11.20)
AUTHORS: Dennis W. Hill, Tzipporah M. Kertesz, Robert Friedman, David F. Grant
LICENSE: CC BY-SA
PUBLICATION: Mass Spectral Metabonomics beyond Elemental Formula: Chemical Database Querying by Matching Experimental with Computational Fragmentation Spectra, http://pubs.acs.org/doi/abs/10.1021/ac800548g
CH$NAME: Terbutaline
CH$COMPOUND_CLASS: N/A
CH$FORMULA: C12H19NO3
CH$EXACT_MASS: 225.13649
CH$SMILES: [H]Oc(c([H])1)c([H])c(c([H])c(O[H])1)C([H])(O[H])C([H])([H])N([H])C(C([H])([H])[H])(C([H])([H])[H])C([H])([H])[H]
CH$IUPAC: InChI=1S/C12H19NO3/c1-12(2,3)13-7-11(16)8-4-9(14)6-10(15)5-8/h4-6,11,13-16H,7H2,1-3H3
CH$LINK: PUBCHEM CID:5403
CH$LINK: INCHIKEY XWTYSIMOBUGWOL-UHFFFAOYSA-N
CH$LINK: COMPTOX DTXSID7021310
AC$INSTRUMENT: Micromass Q-TOF II
AC$INSTRUMENT_TYPE: LC-ESI-QTOF
AC$MASS_SPECTROMETRY: MS_TYPE MS2
AC$MASS_SPECTROMETRY: ION_MODE POSITIVE
AC$MASS_SPECTROMETRY: COLLISION_ENERGY 10 eV
AC$MASS_SPECTROMETRY: IONIZATION ESI
MS$FOCUSED_ION: PRECURSOR_M/Z 226.14443
MS$FOCUSED_ION: PRECURSOR_TYPE [M+H]+
PK$SPLASH: splash10-004i-0190000000-f9271bb736a512dbdbab
PK$NUM_PEAK: 4
PK$PEAK: m/z int. rel.int.
  152.0708 1472.228 147
  170.0815 781.626 78
  208.1339 200.739 20
  226.1428 10000 999
//
