ACCESSION: MSBNK-Univ_Connecticut-CO000068
RECORD_TITLE: Apomorphine; LC-ESI-QTOF; MS2; CE:30 eV; [M+H]+
DATE: 2016.01.19 (Created 2008.07.15, modified 2012.11.20)
AUTHORS: Dennis W. Hill, Tzipporah M. Kertesz, Robert Friedman, David F. Grant
LICENSE: CC BY-SA
PUBLICATION: Mass Spectral Metabonomics beyond Elemental Formula: Chemical Database Querying by Matching Experimental with Computational Fragmentation Spectra, http://pubs.acs.org/doi/abs/10.1021/ac800548g
CH$NAME: Apomorphine
CH$COMPOUND_CLASS: N/A
CH$FORMULA: C17H17NO2
CH$EXACT_MASS: 267.12593
CH$SMILES: CN1CCC2=C3[C@H]1CC4=C(C3=CC=C2)C(=C(C=C4)O)O
CH$IUPAC: InChI=1S/C17H17NO2/c1-18-8-7-10-3-2-4-12-15(10)13(18)9-11-5-6-14(19)17(20)16(11)12/h2-6,13,19-20H,7-9H2,1H3/t13-/m1/s1
CH$LINK: PUBCHEM CID:6005
CH$LINK: INCHIKEY VMWNQDUVQKEIOC-CYBMUJFWSA-N
AC$INSTRUMENT: Micromass Q-TOF II
AC$INSTRUMENT_TYPE: LC-ESI-QTOF
AC$MASS_SPECTROMETRY: MS_TYPE MS2
AC$MASS_SPECTROMETRY: ION_MODE POSITIVE
AC$MASS_SPECTROMETRY: COLLISION_ENERGY 30 eV
AC$MASS_SPECTROMETRY: IONIZATION ESI
MS$FOCUSED_ION: PRECURSOR_M/Z 268.13387
MS$FOCUSED_ION: PRECURSOR_TYPE [M+H]+
PK$SPLASH: splash10-0006-0940000000-2986f1c61e42342e1607
PK$NUM_PEAK: 7
PK$PEAK: m/z int. rel.int.
  189.0702 358.017 36
  190.0779 1082.523 108
  191.0851 10000 999
  201.0694 273.612 27
  218.072 183.307 18
  219.08 3994.352 399
  237.0903 1076.561 108
//
