ACCESSION: MSBNK-Univ_Connecticut-CO000102
RECORD_TITLE: Cholesterol; LC-ESI-QTOF; MS2; CE:20 eV; [M+H]+
DATE: 2016.01.19 (Created 2008.07.15, modified 2012.11.20)
AUTHORS: Dennis W. Hill, Tzipporah M. Kertesz, Robert Friedman, David F. Grant
LICENSE: CC BY-SA
PUBLICATION: Mass Spectral Metabonomics beyond Elemental Formula: Chemical Database Querying by Matching Experimental with Computational Fragmentation Spectra, http://pubs.acs.org/doi/abs/10.1021/ac800548g
CH$NAME: Cholesterol
CH$COMPOUND_CLASS: N/A
CH$FORMULA: C27H46O
CH$EXACT_MASS: 386.35487
CH$SMILES: [H]C(C([H])([H])C([H])([H])C([H])([H])C(C(C4([H])[H])([H])C(C([H])([H])[H])(C3([H])[H])C(C4([H])[H])([H])C([H])(C([H])(C3([H])[H])1)C([H])([H])C([H])=C(C([H])([H])2)C1(C([H])([H])C([H])([H])C([H])(O[H])2)C([H])([H])[H])(C([H])([H])[H])[H])(C([H])([H])[H])C([H])([H])[H]
CH$IUPAC: InChI=1S/C27H46O/c1-18(2)7-6-8-19(3)23-11-12-24-22-10-9-20-17-21(28)13-15-26(20,4)25(22)14-16-27(23,24)5/h9,18-19,21-25,28H,6-8,10-17H2,1-5H3
CH$LINK: PUBCHEM CID:304
CH$LINK: INCHIKEY HVYWMOMLDIMFJA-UHFFFAOYSA-N
AC$INSTRUMENT: Micromass Q-TOF II
AC$INSTRUMENT_TYPE: LC-ESI-QTOF
AC$MASS_SPECTROMETRY: MS_TYPE MS2
AC$MASS_SPECTROMETRY: ION_MODE POSITIVE
AC$MASS_SPECTROMETRY: COLLISION_ENERGY 20 eV
AC$MASS_SPECTROMETRY: IONIZATION ESI
MS$FOCUSED_ION: PRECURSOR_M/Z 387.36281
MS$FOCUSED_ION: PRECURSOR_TYPE [M+H]+
PK$SPLASH: splash10-001i-0019000000-d33ae2f09b3745af19f7
PK$NUM_PEAK: 12
PK$PEAK: m/z int. rel.int.
  83.0481 322.738 32
  101.0619 134.549 13
  175.0149 1021.672 102
  231.0792 607.73 61
  275.0679 1082.716 108
  331.1319 10000 999
  351.2957 194.148 19
  369.243 232.617 23
  369.3481 388.658 39
  387.1996 1241.828 124
  387.2594 215.279 22
  387.3363 347.661 35
//
