ACCESSION: MSBNK-Univ_Connecticut-CO000017
RECORD_TITLE: Acetophenazine; LC-ESI-QTOF; MS2; CE:20 eV; [M+H]+
DATE: 2016.01.19 (Created 2008.07.15, modified 2012.11.20)
AUTHORS: Dennis W. Hill, Tzipporah M. Kertesz, Robert Friedman, David F. Grant
LICENSE: CC BY-SA
PUBLICATION: Mass Spectral Metabonomics beyond Elemental Formula: Chemical Database Querying by Matching Experimental with Computational Fragmentation Spectra, http://pubs.acs.org/doi/abs/10.1021/ac800548g
CH$NAME: Acetophenazine
CH$COMPOUND_CLASS: N/A
CH$FORMULA: C23H29N3O2S
CH$EXACT_MASS: 411.19805
CH$SMILES: [H]OC([H])([H])C([H])([H])N(C([H])([H])4)C([H])([H])C([H])([H])N(C([H])([H])4)C([H])([H])C([H])([H])C([H])([H])N(c32)c(c([H])1)c(Sc(c([H])c([H])c([H])c([H])3)2)c([H])c(C(=O)C([H])([H])[H])c([H])1
CH$IUPAC: InChI=1S/C23H29N3O2S/c1-18(28)19-7-8-21-23(17-19)29-22-6-3-2-5-20(22)26(21)10-4-9-24-11-13-25(14-12-24)15-16-27/h2-3,5-8,17,27H,4,9-16H2,1H3
CH$LINK: PUBCHEM CID:441185
CH$LINK: INCHIKEY FVHDZPDLOWZOOV-UHFFFAOYSA-N
AC$INSTRUMENT: Micromass Q-TOF II
AC$INSTRUMENT_TYPE: LC-ESI-QTOF
AC$MASS_SPECTROMETRY: MS_TYPE MS2
AC$MASS_SPECTROMETRY: ION_MODE POSITIVE
AC$MASS_SPECTROMETRY: COLLISION_ENERGY 20 eV
AC$MASS_SPECTROMETRY: IONIZATION ESI
MS$FOCUSED_ION: PRECURSOR_M/Z 412.20599
MS$FOCUSED_ION: PRECURSOR_TYPE [M+H]+
PK$SPLASH: splash10-03di-0200900000-ea7ead07d929a47c4fa5
PK$NUM_PEAK: 4
PK$PEAK: m/z int. rel.int.
  143.1179 656.157 66
  171.1491 2663.246 266
  254.063 138.619 14
  412.2031 10000 999
//
