ACCESSION: MSBNK-Univ_Connecticut-CO000137
RECORD_TITLE: Diphenoxylate; LC-ESI-QTOF; MS2; CE:20 eV; [M+H]+
DATE: 2016.01.19 (Created 2008.07.15, modified 2012.11.20)
AUTHORS: Dennis W. Hill, Tzipporah M. Kertesz, Robert Friedman, David F. Grant
LICENSE: CC BY-SA
PUBLICATION: Mass Spectral Metabonomics beyond Elemental Formula: Chemical Database Querying by Matching Experimental with Computational Fragmentation Spectra, http://pubs.acs.org/doi/abs/10.1021/ac800548g
CH$NAME: Diphenoxylate
CH$COMPOUND_CLASS: N/A
CH$FORMULA: C30H32N2O2
CH$EXACT_MASS: 452.24638
CH$SMILES: [H]C([H])([H])C([H])([H])OC(C(c(c4[H])c(c([H])c(c4[H])[H])[H])(C([H])([H])1)C([H])([H])C([H])([H])N(C(C(C(C#N)(c(c3[H])c(c([H])c(c([H])3)[H])[H])c(c2[H])c(c([H])c(c([H])2)[H])[H])([H])[H])([H])[H])C([H])([H])1)=O
CH$IUPAC: InChI=1S/C30H32N2O2/c1-2-34-28(33)29(25-12-6-3-7-13-25)18-21-32(22-19-29)23-20-30(24-31,26-14-8-4-9-15-26)27-16-10-5-11-17-27/h3-17H,2,18-23H2,1H3
CH$LINK: PUBCHEM CID:13505
CH$LINK: INCHIKEY HYPPXZBJBPSRLK-UHFFFAOYSA-N
CH$LINK: COMPTOX DTXSID8022951
AC$INSTRUMENT: Micromass Q-TOF II
AC$INSTRUMENT_TYPE: LC-ESI-QTOF
AC$MASS_SPECTROMETRY: MS_TYPE MS2
AC$MASS_SPECTROMETRY: ION_MODE POSITIVE
AC$MASS_SPECTROMETRY: COLLISION_ENERGY 20 eV
AC$MASS_SPECTROMETRY: IONIZATION ESI
MS$FOCUSED_ION: PRECURSOR_M/Z 453.25432
MS$FOCUSED_ION: PRECURSOR_TYPE [M+H]+
PK$SPLASH: splash10-0udi-0000900000-f16aa8a859221ed0173c
PK$NUM_PEAK: 3
PK$PEAK: m/z int. rel.int.
  379.219 138.359 14
  425.2262 108.88 11
  453.2537 10000 999
//
