ACCESSION: MSBNK-Univ_Connecticut-CO000226
RECORD_TITLE: Hydroxybutorphanol; LC-ESI-QTOF; MS2; CE:10 eV; [M+H]+
DATE: 2016.01.19 (Created 2008.07.15, modified 2012.11.20)
AUTHORS: Dennis W. Hill, Tzipporah M. Kertesz, Robert Friedman, David F. Grant
LICENSE: CC BY-SA
PUBLICATION: Mass Spectral Metabonomics beyond Elemental Formula: Chemical Database Querying by Matching Experimental with Computational Fragmentation Spectra, http://pubs.acs.org/doi/abs/10.1021/ac800548g
CH$NAME: Hydroxybutorphanol
CH$COMPOUND_CLASS: N/A
CH$FORMULA: C21H29NO3
CH$EXACT_MASS: 343.21474
CH$SMILES: [H]Oc(c([H])5)c([H])c(c(c([H])5)3)C(C([H])([H])4)(C([H])([H])1)C(O[H])(C([H])([H])C([H])([H])C([H])([H])4)C([H])(C([H])([H])3)N(C([H])([H])C([H])(C([H])([H])2)C([H])([H])C([H])(O[H])2)C([H])([H])1
CH$IUPAC: InChI=1S/C21H29NO3/c23-16-4-3-15-11-19-21(25)6-2-1-5-20(21,18(15)12-16)7-8-22(19)13-14-9-17(24)10-14/h3-4,12,14,17,19,23-25H,1-2,5-11,13H2
CH$LINK: PUBCHEM CID:3064246
CH$LINK: INCHIKEY NCMXKIHJYUFTRL-UHFFFAOYSA-N
CH$LINK: COMPTOX DTXSID80996654
AC$INSTRUMENT: Micromass Q-TOF II
AC$INSTRUMENT_TYPE: LC-ESI-QTOF
AC$MASS_SPECTROMETRY: MS_TYPE MS2
AC$MASS_SPECTROMETRY: ION_MODE POSITIVE
AC$MASS_SPECTROMETRY: COLLISION_ENERGY 10 eV
AC$MASS_SPECTROMETRY: IONIZATION ESI
MS$FOCUSED_ION: PRECURSOR_M/Z 344.22268
MS$FOCUSED_ION: PRECURSOR_TYPE [M+H]+
PK$SPLASH: splash10-0006-0009000000-eb95dc9aa795945344f3
PK$NUM_PEAK: 2
PK$PEAK: m/z int. rel.int.
  326.2117 162.093 16
  344.2216 10000 999
//
