ACCESSION: MSBNK-Univ_Connecticut-CO000241
RECORD_TITLE: Ketorolac; LC-ESI-QTOF; MS2; CE:10 eV; [M+H]+
DATE: 2016.01.19 (Created 2008.07.15, modified 2012.11.20)
AUTHORS: Dennis W. Hill, Tzipporah M. Kertesz, Robert Friedman, David F. Grant
LICENSE: CC BY-SA
PUBLICATION: Mass Spectral Metabonomics beyond Elemental Formula: Chemical Database Querying by Matching Experimental with Computational Fragmentation Spectra, http://pubs.acs.org/doi/abs/10.1021/ac800548g
CH$NAME: Ketorolac
CH$COMPOUND_CLASS: N/A
CH$FORMULA: C15H13NO3
CH$EXACT_MASS: 255.08954
CH$SMILES: [H]OC(=O)C([H])(C([H])([H])1)c(c([H])3)n(c(c([H])3)C(=O)c(c([H])2)c([H])c([H])c([H])c([H])2)C([H])([H])1
CH$IUPAC: InChI=1S/C15H13NO3/c17-14(10-4-2-1-3-5-10)13-7-6-12-11(15(18)19)8-9-16(12)13/h1-7,11H,8-9H2,(H,18,19)
CH$LINK: PUBCHEM CID:3826
CH$LINK: INCHIKEY OZWKMVRBQXNZKK-UHFFFAOYSA-N
CH$LINK: COMPTOX DTXSID8023189
AC$INSTRUMENT: Micromass Q-TOF II
AC$INSTRUMENT_TYPE: LC-ESI-QTOF
AC$MASS_SPECTROMETRY: MS_TYPE MS2
AC$MASS_SPECTROMETRY: ION_MODE POSITIVE
AC$MASS_SPECTROMETRY: COLLISION_ENERGY 10 eV
AC$MASS_SPECTROMETRY: IONIZATION ESI
MS$FOCUSED_ION: PRECURSOR_M/Z 256.09748
MS$FOCUSED_ION: PRECURSOR_TYPE [M+H]+
PK$SPLASH: splash10-0a4i-0190000000-cc495a56f46ce2f38f4c
PK$NUM_PEAK: 3
PK$PEAK: m/z int. rel.int.
  105.0332 909.428 91
  106.0653 205.354 21
  256.0948 10000 999
//
