ACCESSION: MSBNK-Univ_Connecticut-CO000276
RECORD_TITLE: Methylergonovine; LC-ESI-QTOF; MS2; CE:10 eV; [M+H]+
DATE: 2016.01.19 (Created 2008.07.15, modified 2012.11.20)
AUTHORS: Dennis W. Hill, Tzipporah M. Kertesz, Robert Friedman, David F. Grant
LICENSE: CC BY-SA
PUBLICATION: Mass Spectral Metabonomics beyond Elemental Formula: Chemical Database Querying by Matching Experimental with Computational Fragmentation Spectra, http://pubs.acs.org/doi/abs/10.1021/ac800548g
CH$NAME: Methylergonovine
CH$COMPOUND_CLASS: N/A
CH$FORMULA: C20H25N3O2
CH$EXACT_MASS: 339.19468
CH$SMILES: [H]OC([H])([H])C([H])(C([H])([H])C([H])([H])[H])N([H])C(=O)C([H])(C([H])=1)C([H])([H])N(C([H])([H])[H])C([H])(C([H])([H])2)C1c(c([H])4)c(c(c([H])c([H])4)3)c(c([H])n([H])3)2
CH$IUPAC: InChI=1S/C20H25N3O2/c1-3-14(11-24)22-20(25)13-7-16-15-5-4-6-17-19(15)12(9-21-17)8-18(16)23(2)10-13/h4-7,9,13-14,18,21,24H,3,8,10-11H2,1-2H3,(H,22,25)
CH$LINK: PUBCHEM CID:4140
CH$LINK: INCHIKEY UNBRKDKAWYKMIV-UHFFFAOYSA-N
AC$INSTRUMENT: Micromass Q-TOF II
AC$INSTRUMENT_TYPE: LC-ESI-QTOF
AC$MASS_SPECTROMETRY: MS_TYPE MS2
AC$MASS_SPECTROMETRY: ION_MODE POSITIVE
AC$MASS_SPECTROMETRY: COLLISION_ENERGY 10 eV
AC$MASS_SPECTROMETRY: IONIZATION ESI
MS$FOCUSED_ION: PRECURSOR_M/Z 340.20262
MS$FOCUSED_ION: PRECURSOR_TYPE [M+H]+
PK$SPLASH: splash10-0006-0009000000-7c62fb237e2a6a8f1ee0
PK$NUM_PEAK: 2
PK$PEAK: m/z int. rel.int.
  297.1592 115.341 12
  340.2007 10000 999
//
