ACCESSION: MSBNK-Univ_Connecticut-CO000213
RECORD_TITLE: Gingerol; LC-ESI-QTOF; MS2; CE:30 eV; [M+H]+
DATE: 2016.01.19 (Created 2008.07.15, modified 2012.11.20)
AUTHORS: Dennis W. Hill, Tzipporah M. Kertesz, Robert Friedman, David F. Grant
LICENSE: CC BY-SA
PUBLICATION: Mass Spectral Metabonomics beyond Elemental Formula: Chemical Database Querying by Matching Experimental with Computational Fragmentation Spectra, http://pubs.acs.org/doi/abs/10.1021/ac800548g
CH$NAME: 6-Gingerol
CH$NAME: (5S)-5-Hydroxy-1-(4-hydroxy-3-methoxyphenyl)-3-decanone
CH$COMPOUND_CLASS: N/A
CH$FORMULA: C17H26O4
CH$EXACT_MASS: 294.18311
CH$SMILES: CCCCC[C@@H](CC(=O)CCC1=CC(=C(C=C1)O)OC)O
CH$IUPAC: InChI=1S/C17H26O4/c1-3-4-5-6-14(18)12-15(19)9-7-13-8-10-16(20)17(11-13)21-2/h8,10-11,14,18,20H,3-7,9,12H2,1-2H3/t14-/m0/s1
CH$LINK: CAS 23513-14-6
CH$LINK: COMPTOX DTXSID3041035
CH$LINK: INCHIKEY NLDDIKRKFXEWBK-AWEZNQCLSA-N
CH$LINK: NIKKAJI J46.683B
CH$LINK: PUBCHEM CID:442793
AC$INSTRUMENT: Micromass Q-TOF II
AC$INSTRUMENT_TYPE: LC-ESI-QTOF
AC$MASS_SPECTROMETRY: MS_TYPE MS2
AC$MASS_SPECTROMETRY: ION_MODE POSITIVE
AC$MASS_SPECTROMETRY: COLLISION_ENERGY 30 eV
AC$MASS_SPECTROMETRY: IONIZATION ESI
MS$FOCUSED_ION: PRECURSOR_M/Z 295.19105
MS$FOCUSED_ION: PRECURSOR_TYPE [M+H]+
PK$SPLASH: splash10-000i-0900000000-35209ecc08a0fcbe3338
PK$NUM_PEAK: 10
PK$PEAK: m/z int. rel.int.
  94.0397 130.696 13
  103.0551 135.125 13
  117.0708 362.188 36
  122.0365 506.813 51
  131.0493 618.092 62
  137.0597 10000 999
  145.0644 689.251 69
  162.0665 126.041 13
  177.0937 153.709 15
  179.0714 203.331 20
//
