ACCESSION: MSBNK-Univ_Connecticut-CO000263
RECORD_TITLE: Meprobamate; LC-ESI-QTOF; MS2; CE:30 eV; [M+H]+
DATE: 2016.01.19 (Created 2008.07.15, modified 2012.11.20)
AUTHORS: Dennis W. Hill, Tzipporah M. Kertesz, Robert Friedman, David F. Grant
LICENSE: CC BY-SA
PUBLICATION: Mass Spectral Metabonomics beyond Elemental Formula: Chemical Database Querying by Matching Experimental with Computational Fragmentation Spectra, http://pubs.acs.org/doi/abs/10.1021/ac800548g
CH$NAME: Meprobamate
CH$COMPOUND_CLASS: N/A
CH$FORMULA: C9H18N2O4
CH$EXACT_MASS: 218.12666
CH$SMILES: [H]N([H])C(=O)OC([H])([H])C(C([H])([H])[H])(C([H])([H])OC(=O)N([H])[H])C([H])([H])C([H])([H])C([H])([H])[H]
CH$IUPAC: InChI=1S/C9H18N2O4/c1-3-4-9(2,5-14-7(10)12)6-15-8(11)13/h3-6H2,1-2H3,(H2,10,12)(H2,11,13)
CH$LINK: PUBCHEM CID:4064
CH$LINK: INCHIKEY NPPQSCRMBWNHMW-UHFFFAOYSA-N
CH$LINK: COMPTOX DTXSID3023261
AC$INSTRUMENT: Micromass Q-TOF II
AC$INSTRUMENT_TYPE: LC-ESI-QTOF
AC$MASS_SPECTROMETRY: MS_TYPE MS2
AC$MASS_SPECTROMETRY: ION_MODE POSITIVE
AC$MASS_SPECTROMETRY: COLLISION_ENERGY 30 eV
AC$MASS_SPECTROMETRY: IONIZATION ESI
MS$FOCUSED_ION: PRECURSOR_M/Z 219.13460
MS$FOCUSED_ION: PRECURSOR_TYPE [M+H]+
PK$SPLASH: splash10-0a4i-9000000000-dd49a24a00b896129dbb
PK$NUM_PEAK: 8
PK$PEAK: m/z int. rel.int.
  55.0543 10000 999
  57.07 102.251 10
  59.049 436.018 44
  62.0234 940.87 94
  69.07 2213.107 221
  71.0857 118.259 12
  73.065 118.459 12
  97.1025 780.09 78
//
