ACCESSION: MSBNK-Univ_Connecticut-CO000132
RECORD_TITLE: Dimefline; LC-ESI-QTOF; MS2; CE:20 eV; [M+H]+
DATE: 2016.01.19 (Created 2008.07.15, modified 2012.11.20)
AUTHORS: Dennis W. Hill, Tzipporah M. Kertesz, Robert Friedman, David F. Grant
LICENSE: CC BY-SA
PUBLICATION: Mass Spectral Metabonomics beyond Elemental Formula: Chemical Database Querying by Matching Experimental with Computational Fragmentation Spectra, http://pubs.acs.org/doi/abs/10.1021/ac800548g
CH$NAME: Dimefline
CH$COMPOUND_CLASS: N/A
CH$FORMULA: C20H21NO3
CH$EXACT_MASS: 323.15214
CH$SMILES: [H]C([H])([H])Oc(c([H])3)c(C([H])([H])N(C([H])([H])[H])C([H])([H])[H])c(O1)c(c([H])3)C(=O)C(C([H])([H])[H])=C1c(c([H])2)c([H])c([H])c([H])c([H])2
CH$IUPAC: InChI=1S/C20H21NO3/c1-13-18(22)15-10-11-17(23-4)16(12-21(2)3)20(15)24-19(13)14-8-6-5-7-9-14/h5-11H,12H2,1-4H3
CH$LINK: PUBCHEM CID:3078
CH$LINK: INCHIKEY ZXFQRFXLFWWKLX-UHFFFAOYSA-N
CH$LINK: COMPTOX DTXSID0048268
AC$INSTRUMENT: Micromass Q-TOF II
AC$INSTRUMENT_TYPE: LC-ESI-QTOF
AC$MASS_SPECTROMETRY: MS_TYPE MS2
AC$MASS_SPECTROMETRY: ION_MODE POSITIVE
AC$MASS_SPECTROMETRY: COLLISION_ENERGY 20 eV
AC$MASS_SPECTROMETRY: IONIZATION ESI
MS$FOCUSED_ION: PRECURSOR_M/Z 324.16008
MS$FOCUSED_ION: PRECURSOR_TYPE [M+H]+
PK$SPLASH: splash10-004i-0290000000-dafc898f5380f7c93c3c
PK$NUM_PEAK: 3
PK$PEAK: m/z int. rel.int.
  163.0347 2171.981 217
  181.0463 217.198 22
  279.083 10000 999
//
