ACCESSION: MSBNK-Univ_Connecticut-CO000158
RECORD_TITLE: Enalapril; LC-ESI-QTOF; MS2; CE:30 eV; [M+H]+
DATE: 2016.01.19 (Created 2008.07.15, modified 2012.11.20)
AUTHORS: Dennis W. Hill, Tzipporah M. Kertesz, Robert Friedman, David F. Grant
LICENSE: CC BY-SA
PUBLICATION: Mass Spectral Metabonomics beyond Elemental Formula: Chemical Database Querying by Matching Experimental with Computational Fragmentation Spectra, http://pubs.acs.org/doi/abs/10.1021/ac800548g
CH$NAME: Enalapril
CH$COMPOUND_CLASS: N/A
CH$FORMULA: C20H28N2O5
CH$EXACT_MASS: 376.19982
CH$SMILES: [H]OC(=O)C([H])(C([H])([H])1)N(C(=O)C([H])(C([H])([H])[H])N([H])C([H])(C(=O)OC([H])([H])C([H])([H])[H])C([H])([H])C([H])([H])c(c([H])2)c([H])c([H])c([H])c([H])2)C([H])([H])C([H])([H])1
CH$IUPAC: InChI=1S/C20H28N2O5/c1-3-27-20(26)16(12-11-15-8-5-4-6-9-15)21-14(2)18(23)22-13-7-10-17(22)19(24)25/h4-6,8-9,14,16-17,21H,3,7,10-13H2,1-2H3,(H,24,25)
CH$LINK: PUBCHEM CID:3222
CH$LINK: INCHIKEY GBXSMTUPTTWBMN-UHFFFAOYSA-N
AC$INSTRUMENT: Micromass Q-TOF II
AC$INSTRUMENT_TYPE: LC-ESI-QTOF
AC$MASS_SPECTROMETRY: MS_TYPE MS2
AC$MASS_SPECTROMETRY: ION_MODE POSITIVE
AC$MASS_SPECTROMETRY: COLLISION_ENERGY 30 eV
AC$MASS_SPECTROMETRY: IONIZATION ESI
MS$FOCUSED_ION: PRECURSOR_M/Z 377.20776
MS$FOCUSED_ION: PRECURSOR_TYPE [M+H]+
PK$SPLASH: splash10-001i-0930000000-7d715cef1e42e77c63a2
PK$NUM_PEAK: 16
PK$PEAK: m/z int. rel.int.
  56.0508 504.601 50
  70.0656 119.73 12
  73.0658 541.408 54
  91.0551 816.178 82
  102.0555 840.146 84
  116.0713 423.711 42
  117.0704 5298.523 529
  130.0865 6182.324 618
  134.0968 3178.9 318
  144.0805 125.829 13
  160.1123 9203.938 919
  162.1284 166.274 17
  206.1184 575.754 58
  232.1336 280.655 28
  234.1482 10000 999
  303.1705 1612.455 161
//
