ACCESSION: MSBNK-Univ_Connecticut-CO000093
RECORD_TITLE: Buprenorphine; LC-ESI-QTOF; MS2; CE:30 eV; [M+H]+
DATE: 2016.01.19 (Created 2008.07.15, modified 2012.11.20)
AUTHORS: Dennis W. Hill, Tzipporah M. Kertesz, Robert Friedman, David F. Grant
LICENSE: CC BY-SA
PUBLICATION: Mass Spectral Metabonomics beyond Elemental Formula: Chemical Database Querying by Matching Experimental with Computational Fragmentation Spectra, http://pubs.acs.org/doi/abs/10.1021/ac800548g
CH$NAME: Buprenorphine
CH$COMPOUND_CLASS: N/A
CH$FORMULA: C29H41NO4
CH$EXACT_MASS: 467.30356
CH$SMILES: C(O[H])(C(C([H])([H])[H])(C([H])([H])[H])C([H])([H])[H])(C(C([H])([H])6)([H])C(C([H])([H])7)(C(C514)(Oc(c(O[H])2)c1c(C(C(C56C7([H])[H])([H])N(C([H])([H])C4([H])[H])C([H])([H])C(C3([H])[H])(C3([H])[H])[H])([H])[H])c([H])c([H])2)[H])OC([H])([H])[H])C([H])([H])[H]
CH$IUPAC: InChI=1S/C29H41NO4/c1-25(2,3)26(4,32)20-15-27-10-11-29(20,33-5)24-28(27)12-13-30(16-17-6-7-17)21(27)14-18-8-9-19(31)23(34-24)22(18)28/h8-9,17,20-21,24,31-32H,6-7,10-16H2,1-5H3
CH$LINK: PUBCHEM CID:2476
CH$LINK: INCHIKEY RMRJXGBAOAMLHD-UHFFFAOYSA-N
AC$INSTRUMENT: Micromass Q-TOF II
AC$INSTRUMENT_TYPE: LC-ESI-QTOF
AC$MASS_SPECTROMETRY: MS_TYPE MS2
AC$MASS_SPECTROMETRY: ION_MODE POSITIVE
AC$MASS_SPECTROMETRY: COLLISION_ENERGY 30 eV
AC$MASS_SPECTROMETRY: IONIZATION ESI
MS$FOCUSED_ION: PRECURSOR_M/Z 468.31150
MS$FOCUSED_ION: PRECURSOR_TYPE [M+H]+
PK$SPLASH: splash10-014i-0000900000-a218c9df7e3fa83855c3
PK$NUM_PEAK: 3
PK$PEAK: m/z int. rel.int.
  396.2223 128.27 13
  414.2641 230.601 23
  468.3083 10000 999
//
