ACCESSION: MSBNK-Univ_Connecticut-CO000155
RECORD_TITLE: Drofenine; LC-ESI-QTOF; MS2; CE:50 eV; [M+H]+
DATE: 2016.01.19 (Created 2008.07.15, modified 2012.11.20)
AUTHORS: Dennis W. Hill, Tzipporah M. Kertesz, Robert Friedman, David F. Grant
LICENSE: CC BY-SA
PUBLICATION: Mass Spectral Metabonomics beyond Elemental Formula: Chemical Database Querying by Matching Experimental with Computational Fragmentation Spectra, http://pubs.acs.org/doi/abs/10.1021/ac800548g
CH$NAME: Drofenine
CH$COMPOUND_CLASS: N/A
CH$FORMULA: C20H31NO2
CH$EXACT_MASS: 317.23548
CH$SMILES: [H]c(c([H])2)c([H])c([H])c(c([H])2)C([H])(C(=O)OC([H])([H])C([H])([H])N(C([H])([H])C([H])([H])[H])C([H])([H])C([H])([H])[H])C([H])(C([H])([H])1)C([H])([H])C([H])([H])C([H])([H])C([H])([H])1
CH$IUPAC: InChI=1S/C20H31NO2/c1-3-21(4-2)15-16-23-20(22)19(17-11-7-5-8-12-17)18-13-9-6-10-14-18/h5,7-8,11-12,18-19H,3-4,6,9-10,13-16H2,1-2H3
CH$LINK: PUBCHEM CID:3166
CH$LINK: INCHIKEY AGJBLWCLQCKRJP-UHFFFAOYSA-N
CH$LINK: COMPTOX DTXSID0048472
AC$INSTRUMENT: Micromass Q-TOF II
AC$INSTRUMENT_TYPE: LC-ESI-QTOF
AC$MASS_SPECTROMETRY: MS_TYPE MS2
AC$MASS_SPECTROMETRY: ION_MODE POSITIVE
AC$MASS_SPECTROMETRY: COLLISION_ENERGY 50 eV
AC$MASS_SPECTROMETRY: IONIZATION ESI
MS$FOCUSED_ION: PRECURSOR_M/Z 318.24342
MS$FOCUSED_ION: PRECURSOR_TYPE [M+H]+
PK$SPLASH: splash10-0006-9000000000-2700ded7baa302a32645
PK$NUM_PEAK: 10
PK$PEAK: m/z int. rel.int.
  55.0543 313.725 31
  65.0371 179.54 18
  67.0539 101.637 10
  72.0807 303.666 30
  81.0708 223.018 22
  91.0545 10000 999
  95.0863 184.825 18
  100.1117 235.976 24
  105.0706 503.836 50
  117.0702 161.824 16
//
