ACCESSION: MSBNK-Univ_Connecticut-CO000291
RECORD_TITLE: Nandrolone; LC-ESI-QTOF; MS2; CE:10 eV; [M+H]+
DATE: 2016.01.19 (Created 2008.07.15, modified 2012.11.20)
AUTHORS: Dennis W. Hill, Tzipporah M. Kertesz, Robert Friedman, David F. Grant
LICENSE: CC BY-SA
PUBLICATION: Mass Spectral Metabonomics beyond Elemental Formula: Chemical Database Querying by Matching Experimental with Computational Fragmentation Spectra, http://pubs.acs.org/doi/abs/10.1021/ac800548g
CH$NAME: Nandrolone
CH$COMPOUND_CLASS: N/A
CH$FORMULA: C18H26O2
CH$EXACT_MASS: 274.19328
CH$SMILES: [H]OC([H])(C([H])([H])4)C(C([H])([H])[H])(C([H])([H])3)C([H])(C([H])([H])4)C([H])(C([H])([H])1)C([H])(C([H])([H])3)C([H])(C([H])([H])2)C(=C([H])C(=O)C([H])([H])2)C([H])([H])1
CH$IUPAC: InChI=1S/C18H26O2/c1-18-9-8-14-13-5-3-12(19)10-11(13)2-4-15(14)16(18)6-7-17(18)20/h10,13-17,20H,2-9H2,1H3/t13-,14+,15+,16-,17-,18-/m0/s1
CH$LINK: PUBCHEM CID:9904
CH$LINK: INCHIKEY NPAGDVCDWIYMMC-IZPLOLCNSA-N
CH$LINK: COMPTOX DTXSID7023350
AC$INSTRUMENT: Micromass Q-TOF II
AC$INSTRUMENT_TYPE: LC-ESI-QTOF
AC$MASS_SPECTROMETRY: MS_TYPE MS2
AC$MASS_SPECTROMETRY: ION_MODE POSITIVE
AC$MASS_SPECTROMETRY: COLLISION_ENERGY 10 eV
AC$MASS_SPECTROMETRY: IONIZATION ESI
MS$FOCUSED_ION: PRECURSOR_M/Z 275.20122
MS$FOCUSED_ION: PRECURSOR_TYPE [M+H]+
PK$SPLASH: splash10-004i-0090000000-494e848349f5e9b86582
PK$NUM_PEAK: 2
PK$PEAK: m/z int. rel.int.
  257.1898 142.773 14
  275.1979 10000 999
//
