ACCESSION: MSBNK-Univ_Connecticut-CO000166
RECORD_TITLE: Ephedrine; LC-ESI-QTOF; MS2; CE:10 eV; [M+H]+
DATE: 2016.01.19 (Created 2008.07.15, modified 2012.11.20)
AUTHORS: Dennis W. Hill, Tzipporah M. Kertesz, Robert Friedman, David F. Grant
LICENSE: CC BY-SA
PUBLICATION: Mass Spectral Metabonomics beyond Elemental Formula: Chemical Database Querying by Matching Experimental with Computational Fragmentation Spectra, http://pubs.acs.org/doi/abs/10.1021/ac800548g
CH$NAME: Ephedrine
CH$COMPOUND_CLASS: N/A
CH$FORMULA: C10H15NO
CH$EXACT_MASS: 165.11536
CH$SMILES: [H]OC([H])(c(c([H])1)c([H])c([H])c([H])c([H])1)C([H])(C([H])([H])[H])N([H])C([H])([H])[H]
CH$IUPAC: InChI=1S/C10H15NO/c1-8(11-2)10(12)9-6-4-3-5-7-9/h3-8,10-12H,1-2H3
CH$LINK: PUBCHEM CID:5032
CH$LINK: INCHIKEY KWGRBVOPPLSCSI-UHFFFAOYSA-N
AC$INSTRUMENT: Micromass Q-TOF II
AC$INSTRUMENT_TYPE: LC-ESI-QTOF
AC$MASS_SPECTROMETRY: MS_TYPE MS2
AC$MASS_SPECTROMETRY: ION_MODE POSITIVE
AC$MASS_SPECTROMETRY: COLLISION_ENERGY 10 eV
AC$MASS_SPECTROMETRY: IONIZATION ESI
MS$FOCUSED_ION: PRECURSOR_M/Z 166.12330
MS$FOCUSED_ION: PRECURSOR_TYPE [M+H]+
PK$SPLASH: splash10-00kb-0900000000-8ae010d8c14b5a69a8c0
PK$NUM_PEAK: 3
PK$PEAK: m/z int. rel.int.
  117.0705 100.181 10
  148.1121 10000 999
  166.1228 6740.456 673
//
