ACCESSION: MSBNK-Univ_Connecticut-CO000111
RECORD_TITLE: Cymarin; LC-ESI-QTOF; MS2; CE:10 eV; [M+H]+
DATE: 2016.01.19 (Created 2008.07.15, modified 2012.11.20)
AUTHORS: Dennis W. Hill, Tzipporah M. Kertesz, Robert Friedman, David F. Grant
LICENSE: CC BY-SA
PUBLICATION: Mass Spectral Metabonomics beyond Elemental Formula: Chemical Database Querying by Matching Experimental with Computational Fragmentation Spectra, http://pubs.acs.org/doi/abs/10.1021/ac800548g
CH$NAME: Cymarin
CH$COMPOUND_CLASS: N/A
CH$FORMULA: C30H44O9
CH$EXACT_MASS: 548.29853
CH$SMILES: C(OC(C([H])([H])1)([H])C(O[H])([H])C([H])(OC1(OC([H])(C([H])([H])2)C(C(O[H])(C([H])([H])6)C(C(C5(C6([H])[H])[H])([H])C([H])([H])C(C(C5(O[H])3)(C([H])([H])[H])C(C(=C([H])4)C(OC(=O)4)([H])[H])(C([H])([H])C3([H])[H])[H])([H])[H])(C([H])=O)C([H])([H])2)([H])[H])[H])C([H])([H])[H])([H])([H])[H]
CH$IUPAC: InChI=1S/C30H44O9/c1-17-26(33)23(36-3)13-25(38-17)39-19-4-9-28(16-31)21-5-8-27(2)20(18-12-24(32)37-15-18)7-11-30(27,35)22(21)6-10-29(28,34)14-19/h12,16-17,19-23,25-26,33-35H,4-11,13-15H2,1-3H3
CH$LINK: PUBCHEM CID:539061
CH$LINK: INCHIKEY XQCGNURMLWFQJR-UHFFFAOYSA-N
AC$INSTRUMENT: Micromass Q-TOF II
AC$INSTRUMENT_TYPE: LC-ESI-QTOF
AC$MASS_SPECTROMETRY: MS_TYPE MS2
AC$MASS_SPECTROMETRY: ION_MODE POSITIVE
AC$MASS_SPECTROMETRY: COLLISION_ENERGY 10 eV
AC$MASS_SPECTROMETRY: IONIZATION ESI
MS$FOCUSED_ION: PRECURSOR_M/Z 549.30647
MS$FOCUSED_ION: PRECURSOR_TYPE [M+H]+
PK$SPLASH: splash10-052k-0009350000-97412c1c8cd7f73ff7d3
PK$NUM_PEAK: 11
PK$PEAK: m/z int. rel.int.
  113.0587 258.025 26
  145.084 430.914 43
  323.1994 942.777 94
  325.2148 183.461 18
  341.2096 1061.061 106
  351.196 445.569 45
  359.2207 3448.011 344
  369.2045 3750.872 375
  387.2164 5317.516 531
  405.2273 6008.374 600
  549.3052 10000 999
//
