ACCESSION: MSBNK-Univ_Connecticut-CO000505
RECORD_TITLE: Tripelennamine; LC-ESI-QTOF; MS2; CE:50 eV; [M+H]+
DATE: 2016.01.19 (Created 2008.07.15, modified 2012.11.20)
AUTHORS: Dennis W. Hill, Tzipporah M. Kertesz, Robert Friedman, David F. Grant
LICENSE: CC BY-SA
PUBLICATION: Mass Spectral Metabonomics beyond Elemental Formula: Chemical Database Querying by Matching Experimental with Computational Fragmentation Spectra, http://pubs.acs.org/doi/abs/10.1021/ac800548g
CH$NAME: Tripelennamine
CH$COMPOUND_CLASS: N/A
CH$FORMULA: C16H21N3
CH$EXACT_MASS: 255.17355
CH$SMILES: [H]c(c([H])2)nc(c([H])c([H])2)N(C([H])([H])C([H])([H])N(C([H])([H])[H])C([H])([H])[H])C([H])([H])c(c([H])1)c([H])c([H])c([H])c([H])1
CH$IUPAC: InChI=1S/C16H21N3/c1-18(2)12-13-19(16-10-6-7-11-17-16)14-15-8-4-3-5-9-15/h3-11H,12-14H2,1-2H3
CH$LINK: PUBCHEM CID:5587
CH$LINK: INCHIKEY UFLGIAIHIAPJJC-UHFFFAOYSA-N
CH$LINK: COMPTOX DTXSID8023717
AC$INSTRUMENT: Micromass Q-TOF II
AC$INSTRUMENT_TYPE: LC-ESI-QTOF
AC$MASS_SPECTROMETRY: MS_TYPE MS2
AC$MASS_SPECTROMETRY: ION_MODE POSITIVE
AC$MASS_SPECTROMETRY: COLLISION_ENERGY 50 eV
AC$MASS_SPECTROMETRY: IONIZATION ESI
MS$FOCUSED_ION: PRECURSOR_M/Z 256.18149
MS$FOCUSED_ION: PRECURSOR_TYPE [M+H]+
PK$SPLASH: splash10-00kf-9400000000-e99107bbb2260bd80b26
PK$NUM_PEAK: 9
PK$PEAK: m/z int. rel.int.
  65.0383 1501.541 150
  70.0657 111.287 11
  72.0812 357.28 36
  78.0345 739.599 74
  91.0549 10000 999
  93.0584 496.148 50
  96.0455 499.615 50
  119.0611 6610.169 660
  120.0688 142.257 14
//
