ACCESSION: MSBNK-Univ_Connecticut-CO000252
RECORD_TITLE: Mebeverine; LC-ESI-QTOF; MS2; CE:20 eV; [M+H]+
DATE: 2016.01.19 (Created 2008.07.15, modified 2012.11.20)
AUTHORS: Dennis W. Hill, Tzipporah M. Kertesz, Robert Friedman, David F. Grant
LICENSE: CC BY-SA
PUBLICATION: Mass Spectral Metabonomics beyond Elemental Formula: Chemical Database Querying by Matching Experimental with Computational Fragmentation Spectra, http://pubs.acs.org/doi/abs/10.1021/ac800548g
CH$NAME: Mebeverine
CH$COMPOUND_CLASS: N/A
CH$FORMULA: C25H35NO5
CH$EXACT_MASS: 429.25152
CH$SMILES: C([H])(C([H])([H])[H])(C([H])([H])c(c([H])2)c([H])c([H])c(OC([H])([H])[H])c([H])2)N(C([H])([H])C([H])([H])[H])C([H])([H])C([H])([H])C([H])([H])C([H])([H])OC(=O)c(c([H])1)c([H])c(OC([H])([H])[H])c(OC([H])([H])[H])c([H])1
CH$IUPAC: InChI=1S/C25H35NO5/c1-6-26(19(2)17-20-9-12-22(28-3)13-10-20)15-7-8-16-31-25(27)21-11-14-23(29-4)24(18-21)30-5/h9-14,18-19H,6-8,15-17H2,1-5H3
CH$LINK: PUBCHEM CID:4031
CH$LINK: INCHIKEY VYVKHNNGDFVQGA-UHFFFAOYSA-N
CH$LINK: COMPTOX DTXSID6023238
AC$INSTRUMENT: Micromass Q-TOF II
AC$INSTRUMENT_TYPE: LC-ESI-QTOF
AC$MASS_SPECTROMETRY: MS_TYPE MS2
AC$MASS_SPECTROMETRY: ION_MODE POSITIVE
AC$MASS_SPECTROMETRY: COLLISION_ENERGY 20 eV
AC$MASS_SPECTROMETRY: IONIZATION ESI
MS$FOCUSED_ION: PRECURSOR_M/Z 430.25946
MS$FOCUSED_ION: PRECURSOR_TYPE [M+H]+
PK$SPLASH: splash10-001j-0700900000-99c57564f3fc24c545e0
PK$NUM_PEAK: 5
PK$PEAK: m/z int. rel.int.
  100.1128 167.497 17
  121.0652 585.929 59
  149.0957 8011.423 800
  248.2004 106.75 11
  430.2576 10000 999
//
