ACCESSION: MSBNK-Univ_Connecticut-CO000256
RECORD_TITLE: Mefenamic_Acid; LC-ESI-QTOF; MS2; CE:10 eV; [M+H]+
DATE: 2016.01.19 (Created 2008.07.15, modified 2012.11.20)
AUTHORS: Dennis W. Hill, Tzipporah M. Kertesz, Robert Friedman, David F. Grant
LICENSE: CC BY-SA
PUBLICATION: Mass Spectral Metabonomics beyond Elemental Formula: Chemical Database Querying by Matching Experimental with Computational Fragmentation Spectra, http://pubs.acs.org/doi/abs/10.1021/ac800548g
CH$NAME: Mefenamic_Acid
CH$COMPOUND_CLASS: N/A
CH$FORMULA: C15H15NO2
CH$EXACT_MASS: 241.11028
CH$SMILES: [H]OC(=O)c(c([H])2)c(c([H])c([H])c([H])2)N([H])c(c([H])1)c(C([H])([H])[H])c(C([H])([H])[H])c([H])c([H])1
CH$IUPAC: InChI=1S/C15H15NO2/c1-10-6-5-9-13(11(10)2)16-14-8-4-3-7-12(14)15(17)18/h3-9,16H,1-2H3,(H,17,18)
CH$LINK: PUBCHEM CID:4044
CH$LINK: INCHIKEY HYYBABOKPJLUIN-UHFFFAOYSA-N
CH$LINK: COMPTOX DTXSID5023243
AC$INSTRUMENT: Micromass Q-TOF II
AC$INSTRUMENT_TYPE: LC-ESI-QTOF
AC$MASS_SPECTROMETRY: MS_TYPE MS2
AC$MASS_SPECTROMETRY: ION_MODE POSITIVE
AC$MASS_SPECTROMETRY: COLLISION_ENERGY 10 eV
AC$MASS_SPECTROMETRY: IONIZATION ESI
MS$FOCUSED_ION: PRECURSOR_M/Z 242.11822
MS$FOCUSED_ION: PRECURSOR_TYPE [M+H]+
PK$SPLASH: splash10-006x-0090000000-c2b5392823249597db3c
PK$NUM_PEAK: 2
PK$PEAK: m/z int. rel.int.
  224.1063 8921.215 891
  242.1164 10000 999
//
