ACCESSION: MSBNK-Univ_Connecticut-CO000205
RECORD_TITLE: Folic_Acid; LC-ESI-QTOF; MS2; CE:50 eV; [M+H]+
DATE: 2016.01.19 (Created 2008.07.15, modified 2012.11.20)
AUTHORS: Dennis W. Hill, Tzipporah M. Kertesz, Robert Friedman, David F. Grant
LICENSE: CC BY-SA
PUBLICATION: Mass Spectral Metabonomics beyond Elemental Formula: Chemical Database Querying by Matching Experimental with Computational Fragmentation Spectra, http://pubs.acs.org/doi/abs/10.1021/ac800548g
CH$NAME: Folic acid
CH$NAME: (2S)-2-[[4-[(2-amino-4-oxo-1H-pteridin-6-yl)methylamino]benzoyl]amino]pentanedioic acid
CH$NAME: Vitamin B11
CH$NAME: Vitamin B9
CH$NAME: Vitamin M
CH$COMPOUND_CLASS: N/A
CH$FORMULA: C19H19N7O6
CH$EXACT_MASS: 441.139681
CH$SMILES: C1=CC(=CC=C1C(=O)N[C@@H](CCC(=O)O)C(=O)O)NCC2=CN=C3C(=N2)C(=O)NC(=N3)N
CH$IUPAC: InChI=1S/C19H19N7O6/c20-19-25-15-14(17(30)26-19)23-11(8-22-15)7-21-10-3-1-9(2-4-10)16(29)24-12(18(31)32)5-6-13(27)28/h1-4,8,12,21H,5-7H2,(H,24,29)(H,27,28)(H,31,32)(H3,20,22,25,26,30)/t12-/m0/s1
CH$LINK: CAS 59-30-3
CH$LINK: CHEBI CHEBI:27470
CH$LINK: CHEMSPIDER 5815
CH$LINK: COMPTOX DTXSID0022519
CH$LINK: INCHIKEY OVBPIULPVIDEAO-LBPRGKRZSA-N
CH$LINK: KEGG C00504
CH$LINK: KNAPSACK C00001539
CH$LINK: PUBCHEM CID:135398658
AC$INSTRUMENT: Micromass Q-TOF II
AC$INSTRUMENT_TYPE: LC-ESI-QTOF
AC$MASS_SPECTROMETRY: MS_TYPE MS2
AC$MASS_SPECTROMETRY: ION_MODE POSITIVE
AC$MASS_SPECTROMETRY: COLLISION_ENERGY 50 eV
AC$MASS_SPECTROMETRY: IONIZATION ESI
MS$FOCUSED_ION: PRECURSOR_M/Z 442.14762
MS$FOCUSED_ION: PRECURSOR_TYPE [M+H]+
PK$SPLASH: splash10-05di-0900000000-8db73a0a0618579c0c7d
PK$NUM_PEAK: 16
PK$PEAK: m/z int. rel.int.
  79.031 174.385 17
  81.0452 897.636 90
  92.0512 842.798 84
  97.0401 184.402 18
  106.0412 2520.107 252
  108.0564 5712.893 571
  120.0455 6241.774 624
  124.0514 262.491 26
  133.0528 351.938 35
  134.0368 1380.697 138
  148.0632 858.64 86
  149.0467 182.574 18
  176.0576 10000 999
  222.0776 127.663 13
  250.074 186.912 19
  295.0925 127.468 13
//
