ACCESSION: MSBNK-Univ_Connecticut-CO000417
RECORD_TITLE: Strychnine_N_Oxide; LC-ESI-QTOF; MS2; CE:20 eV; [M+H]+
DATE: 2016.01.19 (Created 2008.07.15, modified 2012.11.20)
AUTHORS: Dennis W. Hill, Tzipporah M. Kertesz, Robert Friedman, David F. Grant
LICENSE: CC BY-SA
PUBLICATION: Mass Spectral Metabonomics beyond Elemental Formula: Chemical Database Querying by Matching Experimental with Computational Fragmentation Spectra, http://pubs.acs.org/doi/abs/10.1021/ac800548g
CH$NAME: Strychnine_N_Oxide
CH$COMPOUND_CLASS: N/A
CH$FORMULA: C21H22N2O3
CH$EXACT_MASS: 350.16304
CH$SMILES: C1C[N+]2(CC3=CCO[C@H]4CC(=O)N5[C@H]6[C@H]4[C@H]3C[C@H]2[C@@]61C7=CC=CC=C75)[O-]
CH$IUPAC: InChI=1S/C21H22N2O3/c24-18-10-16-19-13-9-17-21(6-7-23(17,25)11-12(13)5-8-26-16)14-3-1-2-4-15(14)22(18)20(19)21/h1-5,13,16-17,19-20H,6-11H2/t13-,16-,17-,19-,20-,21+,23?/m0/s1
CH$LINK: PUBCHEM CID:73393
CH$LINK: INCHIKEY ADTDBAKUQAKBGZ-VXJIXCKJSA-N
CH$LINK: COMPTOX DTXSID80993305
AC$INSTRUMENT: Micromass Q-TOF II
AC$INSTRUMENT_TYPE: LC-ESI-QTOF
AC$MASS_SPECTROMETRY: MS_TYPE MS2
AC$MASS_SPECTROMETRY: ION_MODE POSITIVE
AC$MASS_SPECTROMETRY: COLLISION_ENERGY 20 eV
AC$MASS_SPECTROMETRY: IONIZATION ESI
MS$FOCUSED_ION: PRECURSOR_M/Z 351.17098
MS$FOCUSED_ION: PRECURSOR_TYPE [M+H]+
PK$SPLASH: splash10-0udi-0009000000-4464375baace1a06bfde
PK$NUM_PEAK: 2
PK$PEAK: m/z int. rel.int.
  334.1676 735.336 73
  351.1682 10000 999
//
