ACCESSION: MSBNK-Univ_Connecticut-CO000413
RECORD_TITLE: Strychnine; LC-ESI-QTOF; MS2; CE:30 eV; [M+H]+
DATE: 2016.01.19 (Created 2008.07.15, modified 2012.11.20)
AUTHORS: Dennis W. Hill, Tzipporah M. Kertesz, Robert Friedman, David F. Grant
LICENSE: CC BY-SA
PUBLICATION: Mass Spectral Metabonomics beyond Elemental Formula: Chemical Database Querying by Matching Experimental with Computational Fragmentation Spectra, http://pubs.acs.org/doi/abs/10.1021/ac800548g
CH$NAME: Strychnine
CH$COMPOUND_CLASS: N/A
CH$FORMULA: C21H22N2O2
CH$EXACT_MASS: 334.16813
CH$SMILES: [H]c(c([H])7)c([H])c(c(c([H])7)1)N(C(=O)5)C([H])(C([H])42)C1(C([H])([H])6)C([H])(N3C([H])([H])6)C([H])([H])C([H])(C(=C([H])C([H])([H])OC([H])(C([H])([H])5)4)C([H])([H])3)2
CH$IUPAC: InChI=1S/C21H22N2O2/c24-18-10-16-19-13-9-17-21(6-7-22(17)11-12(13)5-8-25-16)14-3-1-2-4-15(14)23(18)20(19)21/h1-5,13,16-17,19-20H,6-11H2
CH$LINK: PUBCHEM CID:5304
CH$LINK: INCHIKEY QMGVPVSNSZLJIA-UHFFFAOYSA-N
AC$INSTRUMENT: Micromass Q-TOF II
AC$INSTRUMENT_TYPE: LC-ESI-QTOF
AC$MASS_SPECTROMETRY: MS_TYPE MS2
AC$MASS_SPECTROMETRY: ION_MODE POSITIVE
AC$MASS_SPECTROMETRY: COLLISION_ENERGY 30 eV
AC$MASS_SPECTROMETRY: IONIZATION ESI
MS$FOCUSED_ION: PRECURSOR_M/Z 335.17607
MS$FOCUSED_ION: PRECURSOR_TYPE [M+H]+
PK$SPLASH: splash10-000i-0019000000-4a723a3d691d547ae524
PK$NUM_PEAK: 10
PK$PEAK: m/z int. rel.int.
  184.0748 618.131 62
  220.0735 137.482 14
  222.0905 368.812 37
  234.0884 118.506 12
  248.1099 106.059 11
  262.119 127.713 13
  264.1015 615.312 61
  266.1233 106.388 11
  307.1417 189.291 19
  335.1727 10000 999
//
