ACCESSION: MSBNK-Univ_Connecticut-CO000200
RECORD_TITLE: Fenoterol; LC-ESI-QTOF; MS2; CE:50 eV; [M+H]+
DATE: 2016.01.19 (Created 2008.07.15, modified 2012.11.20)
AUTHORS: Dennis W. Hill, Tzipporah M. Kertesz, Robert Friedman, David F. Grant
LICENSE: CC BY-SA
PUBLICATION: Mass Spectral Metabonomics beyond Elemental Formula: Chemical Database Querying by Matching Experimental with Computational Fragmentation Spectra, http://pubs.acs.org/doi/abs/10.1021/ac800548g
CH$NAME: Fenoterol
CH$COMPOUND_CLASS: N/A
CH$FORMULA: C17H21NO4
CH$EXACT_MASS: 303.14706
CH$SMILES: [H]Oc(c([H])2)c([H])c([H])c(c([H])2)C([H])([H])C([H])(C([H])([H])[H])N([H])C([H])([H])C([H])(O[H])c(c([H])1)c([H])c(O[H])c([H])c(O[H])1
CH$IUPAC: InChI=1S/C17H21NO4/c1-11(6-12-2-4-14(19)5-3-12)18-10-17(22)13-7-15(20)9-16(21)8-13/h2-5,7-9,11,17-22H,6,10H2,1H3
CH$LINK: PUBCHEM CID:3343
CH$LINK: INCHIKEY LSLYOANBFKQKPT-UHFFFAOYSA-N
CH$LINK: COMPTOX DTXSID4023046
AC$INSTRUMENT: Micromass Q-TOF II
AC$INSTRUMENT_TYPE: LC-ESI-QTOF
AC$MASS_SPECTROMETRY: MS_TYPE MS2
AC$MASS_SPECTROMETRY: ION_MODE POSITIVE
AC$MASS_SPECTROMETRY: COLLISION_ENERGY 50 eV
AC$MASS_SPECTROMETRY: IONIZATION ESI
MS$FOCUSED_ION: PRECURSOR_M/Z 304.15500
MS$FOCUSED_ION: PRECURSOR_TYPE [M+H]+
PK$SPLASH: splash10-0a4i-3900000000-8521f3088ff1f180cc5b
PK$NUM_PEAK: 8
PK$PEAK: m/z int. rel.int.
  77.0391 1597.753 160
  79.0549 1167.64 117
  91.055 174.157 17
  95.0494 566.742 57
  107.0496 10000 999
  115.0545 148.719 15
  120.0565 136 14
  125.0604 114.607 11
//
