ACCESSION: MSBNK-Waters-WA000124
RECORD_TITLE: Fenoxycarb; LC-ESI-QQ; MS2; CE:20 V; [M+H]+
DATE: 2016.01.19 (Created 2007.08.01, modified 2011.05.06)
AUTHORS: Nihon Waters K.K.
LICENSE: CC BY-NC
CH$NAME: Fenoxycarb
CH$COMPOUND_CLASS: N/A
CH$FORMULA: C17H19NO4
CH$EXACT_MASS: 301.13141
CH$SMILES: CCOC(=O)NCCOc(c2)ccc(c2)Oc(c1)cccc1
CH$IUPAC: InChI=1S/C17H19NO4/c1-2-20-17(19)18-12-13-21-14-8-10-16(11-9-14)22-15-6-4-3-5-7-15/h3-11H,2,12-13H2,1H3,(H,18,19)
CH$LINK: CAS 72490-01-8
CH$LINK: INCHIKEY HJUFTIJOISQSKQ-UHFFFAOYSA-N
CH$LINK: COMPTOX DTXSID7032393
AC$INSTRUMENT: QuattroPremier XE, Waters
AC$INSTRUMENT_TYPE: LC-ESI-QQ
AC$MASS_SPECTROMETRY: MS_TYPE MS2
AC$MASS_SPECTROMETRY: ION_MODE POSITIVE
AC$MASS_SPECTROMETRY: COLLISION_ENERGY 20 V
MS$FOCUSED_ION: PRECURSOR_TYPE [M+H]+
MS$FOCUSED_ION: PRECURSOR_M/Z 302.2
MS$DATA_PROCESSING: FIND_PEAK ignore rel.int. < 5
PK$SPLASH: splash10-000i-9100000000-464e60e10c88334f8dd9
PK$NUM_PEAK: 10
PK$PEAK: m/z int. rel.int.
  70 16 16
  87 999 999
  89 8 8
  116 184 184
  163 8 8
  183 8 8
  186 8 8
  211 12 12
  213 8 8
  256 39 39
//
