ACCESSION: MSBNK-Waters-WA000113
RECORD_TITLE: Naproanilide; LC-ESI-QQ; MS2; CE:20 V; [M+H]+
DATE: 2016.01.19 (Created 2007.08.01, modified 2011.05.06)
AUTHORS: Nihon Waters K.K.
LICENSE: CC BY-NC
CH$NAME: Naproanilide
CH$COMPOUND_CLASS: N/A
CH$FORMULA: C19H17NO2
CH$EXACT_MASS: 291.12593
CH$SMILES: O=C(Nc(c3)cccc3)C(C)Oc(c1)cc(c2)c(ccc2)c1
CH$IUPAC: InChI=1S/C19H17NO2/c1-14(19(21)20-17-9-3-2-4-10-17)22-18-12-11-15-7-5-6-8-16(15)13-18/h2-14H,1H3,(H,20,21)
CH$LINK: CAS 52570-16-8
CH$LINK: INCHIKEY LVKTWOXHRYGDMM-UHFFFAOYSA-N
CH$LINK: COMPTOX DTXSID8058118
AC$INSTRUMENT: QuattroPremier XE, Waters
AC$INSTRUMENT_TYPE: LC-ESI-QQ
AC$MASS_SPECTROMETRY: MS_TYPE MS2
AC$MASS_SPECTROMETRY: ION_MODE POSITIVE
AC$MASS_SPECTROMETRY: COLLISION_ENERGY 20 V
MS$FOCUSED_ION: PRECURSOR_TYPE [M+H]+
MS$FOCUSED_ION: PRECURSOR_M/Z 292.2
MS$DATA_PROCESSING: FIND_PEAK ignore rel.int. < 5
PK$SPLASH: splash10-00di-0900000000-78dec1e4a45bddc0f663
PK$NUM_PEAK: 19
PK$PEAK: m/z int. rel.int.
  55 8 8
  90 8 8
  92 8 8
  93 98 98
  103 24 24
  105 110 110
  106 31 31
  120 693 693
  121 16 16
  127 27 27
  129 35 35
  143 129 129
  144 55 55
  148 290 290
  149 67 67
  153 51 51
  171 999 999
  172 31 31
  199 27 27
//
