ACCESSION: MSBNK-Waters-WA000089
RECORD_TITLE: Thiabendazole; LC-ESI-QQ; MS2; CE:40 V; [M+H]+
DATE: 2016.01.19 (Created 2007.08.01, modified 2011.05.06)
AUTHORS: Nihon Waters K.K.
LICENSE: CC BY-NC
CH$NAME: Thiabendazole
CH$COMPOUND_CLASS: N/A
CH$FORMULA: C10H7N3S
CH$EXACT_MASS: 201.03607
CH$SMILES: C1=CC=C2C(=C1)NC(=N2)C3=CSC=N3
CH$IUPAC: InChI=1S/C10H7N3S/c1-2-4-8-7(3-1)12-10(13-8)9-5-14-6-11-9/h1-6H,(H,12,13)
CH$LINK: CAS 148-79-8
CH$LINK: INCHIKEY WJCNZQLZVWNLKY-UHFFFAOYSA-N
CH$LINK: COMPTOX DTXSID0021337
AC$INSTRUMENT: QuattroPremier XE, Waters
AC$INSTRUMENT_TYPE: LC-ESI-QQ
AC$MASS_SPECTROMETRY: MS_TYPE MS2
AC$MASS_SPECTROMETRY: ION_MODE POSITIVE
AC$MASS_SPECTROMETRY: COLLISION_ENERGY 40 V
MS$FOCUSED_ION: PRECURSOR_TYPE [M+H]+
MS$FOCUSED_ION: PRECURSOR_M/Z 201.92
MS$DATA_PROCESSING: FIND_PEAK ignore rel.int. < 5
PK$SPLASH: splash10-00lu-8900000000-00bc94ceacade88f3ae4
PK$NUM_PEAK: 26
PK$PEAK: m/z int. rel.int.
  62 8 8
  65 972 972
  66 20 20
  77 157 157
  84 8 8
  89 63 63
  92 658 658
  93 12 12
  101 31 31
  103 357 357
  105 8 8
  106 12 12
  111 8 8
  115 24 24
  117 63 63
  128 8 8
  131 999 999
  132 16 16
  134 51 51
  141 8 8
  143 141 141
  157 20 20
  168 8 8
  170 12 12
  175 309 309
  202 20 20
//
