ACCESSION: MSBNK-Waters-WA000133
RECORD_TITLE: Phenmedipham; LC-ESI-QQ; MS2; CE:10 V; [M+H]+
DATE: 2016.01.19 (Created 2007.08.01, modified 2011.05.06)
AUTHORS: Nihon Waters K.K.
LICENSE: CC BY-NC
CH$NAME: Phenmedipham
CH$COMPOUND_CLASS: N/A
CH$FORMULA: C16H16N2O4
CH$EXACT_MASS: 300.11101
CH$SMILES: COC(=O)Nc(c2)cc(cc2)OC(=O)Nc(c1)cc(C)cc1
CH$IUPAC: InChI=1S/C16H16N2O4/c1-11-5-3-6-12(9-11)18-16(20)22-14-8-4-7-13(10-14)17-15(19)21-2/h3-10H,1-2H3,(H,17,19)(H,18,20)
CH$LINK: CAS 13684-63-4
CH$LINK: INCHIKEY IDOWTHOLJBTAFI-UHFFFAOYSA-N
CH$LINK: COMPTOX DTXSID1024255
AC$INSTRUMENT: QuattroPremier XE, Waters
AC$INSTRUMENT_TYPE: LC-ESI-QQ
AC$MASS_SPECTROMETRY: MS_TYPE MS2
AC$MASS_SPECTROMETRY: ION_MODE POSITIVE
AC$MASS_SPECTROMETRY: COLLISION_ENERGY 10 V
MS$FOCUSED_ION: PRECURSOR_TYPE [M+H]+
MS$FOCUSED_ION: PRECURSOR_M/Z 318.2
MS$DATA_PROCESSING: FIND_PEAK ignore rel.int. < 5
PK$SPLASH: splash10-0gb9-0905000000-8fa09835705403e48f9c
PK$NUM_PEAK: 6
PK$PEAK: m/z int. rel.int.
  136 43 43
  168 999 999
  169 16 16
  301 509 509
  302 24 24
  318 55 55
//
