ACCESSION: MSBNK-Waters-WA000236
RECORD_TITLE: Haloxyfop; LC-ESI-QQ; MS2; CE:20 V; [M+H]+
DATE: 2016.01.19 (Created 2007.08.01, modified 2011.05.06)
AUTHORS: Nihon Waters K.K.
LICENSE: CC BY-NC
CH$NAME: Haloxyfop
CH$COMPOUND_CLASS: N/A
CH$FORMULA: C15H11ClF3NO4
CH$EXACT_MASS: 361.03287
CH$SMILES: OC(=O)C(C)Oc(c2)ccc(c2)Oc(n1)c(Cl)cc(c1)C(F)(F)F
CH$IUPAC: InChI=1S/C15H11ClF3NO4/c1-8(14(21)22)23-10-2-4-11(5-3-10)24-13-12(16)6-9(7-20-13)15(17,18)19/h2-8H,1H3,(H,21,22)
CH$LINK: CAS 69806-34-4
CH$LINK: INCHIKEY GOCUAJYOYBLQRH-UHFFFAOYSA-N
CH$LINK: COMPTOX DTXSID7042019
AC$INSTRUMENT: QuattroPremier XE, Waters
AC$INSTRUMENT_TYPE: LC-ESI-QQ
AC$MASS_SPECTROMETRY: MS_TYPE MS2
AC$MASS_SPECTROMETRY: ION_MODE POSITIVE
AC$MASS_SPECTROMETRY: COLLISION_ENERGY 20 V
MS$FOCUSED_ION: PRECURSOR_TYPE [M+H]+
MS$FOCUSED_ION: PRECURSOR_M/Z 362
MS$DATA_PROCESSING: FIND_PEAK ignore rel.int. < 5
PK$SPLASH: splash10-014i-2139000000-230078ddefef3e90cf7d
PK$NUM_PEAK: 14
PK$PEAK: m/z int. rel.int.
  91 317 317
  92 20 20
  118 74 74
  120 86 86
  198 8 8
  247 16 16
  260 8 8
  272 20 20
  288 337 337
  290 47 47
  316 999 999
  317 55 55
  362 114 114
  363 8 8
//
