ACCESSION: MSBNK-Waters-WA000077
RECORD_TITLE: Dimethirimol; LC-ESI-QQ; MS2; CE:10 V; [M+H]+
DATE: 2016.01.19 (Created 2007.08.01, modified 2011.05.06)
AUTHORS: Nihon Waters K.K.
LICENSE: CC BY-NC
CH$NAME: Dimethirimol
CH$COMPOUND_CLASS: N/A
CH$FORMULA: C11H19N3O
CH$EXACT_MASS: 209.15281
CH$SMILES: CCCCc(c(C)1)c(O)nc(N(C)C)n1
CH$IUPAC: InChI=1S/C11H19N3O/c1-5-6-7-9-8(2)12-11(14(3)4)13-10(9)15/h5-7H2,1-4H3,(H,12,13,15)
CH$LINK: CAS 5221-53-4
CH$LINK: INCHIKEY CJHXCRMKMMBYJQ-UHFFFAOYSA-N
CH$LINK: COMPTOX DTXSID8041874
AC$INSTRUMENT: QuattroPremier XE, Waters
AC$INSTRUMENT_TYPE: LC-ESI-QQ
AC$MASS_SPECTROMETRY: MS_TYPE MS2
AC$MASS_SPECTROMETRY: ION_MODE POSITIVE
AC$MASS_SPECTROMETRY: COLLISION_ENERGY 10 V
MS$FOCUSED_ION: PRECURSOR_TYPE [M+H]+
MS$FOCUSED_ION: PRECURSOR_M/Z 210.05
MS$DATA_PROCESSING: FIND_PEAK ignore rel.int. < 5
PK$SPLASH: splash10-03di-0090000000-041170e37819f845d255
PK$NUM_PEAK: 2
PK$PEAK: m/z int. rel.int.
  210 999 999
  211 12 12
//
