ACCESSION: MSBNK-Waters-WA000247
RECORD_TITLE: Fluroxypyr; LC-ESI-QQ; MS2; CE:20 V; [M-H]-
DATE: 2016.01.19 (Created 2007.08.01, modified 2011.05.06)
AUTHORS: Nihon Waters K.K.
LICENSE: CC BY-NC
CH$NAME: Fluroxypyr
CH$COMPOUND_CLASS: N/A
CH$FORMULA: C7H5Cl2FN2O3
CH$EXACT_MASS: 253.96613
CH$SMILES: OC(=O)COc(n1)c(Cl)c(N)c(Cl)c(F)1
CH$IUPAC: InChI=1S/C7H5Cl2FN2O3/c8-3-5(11)4(9)7(12-6(3)10)15-1-2(13)14/h1H2,(H2,11,12)(H,13,14)
CH$LINK: CAS 69377-81-7
CH$LINK: INCHIKEY MEFQWPUMEMWTJP-UHFFFAOYSA-N
CH$LINK: COMPTOX DTXSID2034627
AC$INSTRUMENT: QuattroPremier XE, Waters
AC$INSTRUMENT_TYPE: LC-ESI-QQ
AC$MASS_SPECTROMETRY: MS_TYPE MS2
AC$MASS_SPECTROMETRY: ION_MODE NEGATIVE
AC$MASS_SPECTROMETRY: COLLISION_ENERGY 20 V
MS$FOCUSED_ION: PRECURSOR_TYPE [M-H]-
MS$FOCUSED_ION: PRECURSOR_M/Z 252.8
MS$DATA_PROCESSING: FIND_PEAK ignore rel.int. < 5
PK$SPLASH: splash10-0002-0900000000-cae67d47d465e7a08be0
PK$NUM_PEAK: 13
PK$PEAK: m/z int. rel.int.
  71 8 8
  112 8 8
  132 8 8
  153 8 8
  158 16 16
  171 16 16
  188 16 16
  193 8 8
  195 999 999
  196 20 20
  233 20 20
  253 8 8
  288 8 8
//
