ACCESSION: MSBNK-Waters-WA000099
RECORD_TITLE: Tralkoxydim (isomer1); LC-ESI-QQ; MS2; CE:80 V; [M-H]-
DATE: 2016.01.19 (Created 2007.08.01, modified 2011.05.06)
AUTHORS: Nihon Waters K.K.
LICENSE: CC BY-NC
CH$NAME: Tralkoxydim (isomer1)
CH$COMPOUND_CLASS: N/A
CH$FORMULA: C20H27NO3
CH$EXACT_MASS: 329.19909
CH$SMILES: CCON=C(CC)C(=C(O)2)C(=O)CC(C2)c(c(C)1)c(C)cc(C)c1
CH$IUPAC: InChI=1S/C20H27NO3/c1-6-16(21-24-7-2)20-17(22)10-15(11-18(20)23)19-13(4)8-12(3)9-14(19)5/h8-9,15,22H,6-7,10-11H2,1-5H3/b21-16+
CH$LINK: CAS 87820-88-0
CH$LINK: INCHIKEY DQFPEYARZIQXRM-LTGZKZEYSA-N
AC$INSTRUMENT: QuattroPremier XE, Waters
AC$INSTRUMENT_TYPE: LC-ESI-QQ
AC$MASS_SPECTROMETRY: MS_TYPE MS2
AC$MASS_SPECTROMETRY: ION_MODE NEGATIVE
AC$MASS_SPECTROMETRY: COLLISION_ENERGY 80 V
MS$FOCUSED_ION: PRECURSOR_TYPE [M-H]-
MS$FOCUSED_ION: PRECURSOR_M/Z 328.4
MS$DATA_PROCESSING: FIND_PEAK ignore rel.int. < 5
PK$SPLASH: splash10-014i-9100000000-7377c251f690ba11adb6
PK$NUM_PEAK: 14
PK$PEAK: m/z int. rel.int.
  52 16 16
  59 16 16
  64 31 31
  66 999 999
  67 12 12
  74 12 12
  81 12 12
  82 8 8
  90 8 8
  91 16 16
  120 98 98
  134 114 114
  143 12 12
  171 24 24
//
