ACCESSION: MSBNK-Waters-WA000186
RECORD_TITLE: Acifluorfen; LC-ESI-QQ; MS2; CE:30 V; [M-H]-
DATE: 2016.01.19 (Created 2007.08.01, modified 2011.05.06)
AUTHORS: Nihon Waters K.K.
LICENSE: CC BY-NC
CH$NAME: Acifluorfen
CH$COMPOUND_CLASS: N/A
CH$FORMULA: C14H7ClF3NO5
CH$EXACT_MASS: 360.99648
CH$SMILES: O=N(=O)c(c2)c(C(O)=O)cc(c2)Oc(c1)c(Cl)cc(c1)C(F)(F)F
CH$IUPAC: InChI=1S/C14H7ClF3NO5/c15-10-5-7(14(16,17)18)1-4-12(10)24-8-2-3-11(19(22)23)9(6-8)13(20)21/h1-6H,(H,20,21)
CH$LINK: CAS 50594-66-6
CH$LINK: INCHIKEY NUFNQYOELLVIPL-UHFFFAOYSA-N
CH$LINK: COMPTOX DTXSID0020022
AC$INSTRUMENT: QuattroPremier XE, Waters
AC$INSTRUMENT_TYPE: LC-ESI-QQ
AC$MASS_SPECTROMETRY: MS_TYPE MS2
AC$MASS_SPECTROMETRY: ION_MODE NEGATIVE
AC$MASS_SPECTROMETRY: COLLISION_ENERGY 30 V
MS$FOCUSED_ION: PRECURSOR_TYPE [M-H]-
MS$FOCUSED_ION: PRECURSOR_M/Z 360
MS$DATA_PROCESSING: FIND_PEAK ignore rel.int. < 5
PK$SPLASH: splash10-0002-0910000000-6a31617652d0fb2a3119
PK$NUM_PEAK: 14
PK$PEAK: m/z int. rel.int.
  107 24 24
  112 8 8
  119 16 16
  137 43 43
  159 8 8
  174 12 12
  195 999 999
  196 27 27
  197 12 12
  201 8 8
  219 8 8
  222 208 208
  223 12 12
  285 12 12
//
