ACCESSION: MSBNK-Waters-WA000028
RECORD_TITLE: Indoxacarb; LC-ESI-QQ; MS2; CE:10 V; [M+H]+
DATE: 2016.01.19 (Created 2007.08.01, modified 2011.05.06)
AUTHORS: Nihon Waters K.K.
LICENSE: CC BY-NC
CH$NAME: Indoxacarb
CH$COMPOUND_CLASS: N/A
CH$FORMULA: C22H17ClF3N3O7
CH$EXACT_MASS: 527.07071
CH$SMILES: COC(=O)N(c(c4)ccc(OC(F)(F)F)c4)C(=O)N(C3)N=C(c21)C(O3)(C(=O)OC)Cc(cc(Cl)cc2)1
CH$IUPAC: InChI=1S/C22H17ClF3N3O7/c1-33-18(30)21-10-12-9-13(23)3-8-16(12)17(21)27-28(11-35-21)19(31)29(20(32)34-2)14-4-6-15(7-5-14)36-22(24,25)26/h3-9H,10-11H2,1-2H3/t21-/m0/s1
CH$LINK: CAS 173584-44-6
CH$LINK: INCHIKEY VBCVPMMZEGZULK-NRFANRHFSA-N
CH$LINK: COMPTOX DTXSID1032690
AC$INSTRUMENT: QuattroPremier XE, Waters
AC$INSTRUMENT_TYPE: LC-ESI-QQ
AC$MASS_SPECTROMETRY: MS_TYPE MS2
AC$MASS_SPECTROMETRY: ION_MODE POSITIVE
AC$MASS_SPECTROMETRY: COLLISION_ENERGY 10 V
MS$FOCUSED_ION: PRECURSOR_TYPE [M+H]+
MS$FOCUSED_ION: PRECURSOR_M/Z 528.25
MS$DATA_PROCESSING: FIND_PEAK ignore rel.int. < 5
PK$SPLASH: splash10-004i-0000090000-ac29fd5e6cfd1a44e5ee
PK$NUM_PEAK: 5
PK$PEAK: m/z int. rel.int.
  249 8 8
  293 20 20
  527 153 153
  528 999 999
  530 67 67
//
