ACCESSION: MSBNK-Waters-WA000108
RECORD_TITLE: Tridemorph; LC-ESI-QQ; MS2; CE:10 V; [M+H]+
DATE: 2016.01.19 (Created 2007.08.01, modified 2011.05.06)
AUTHORS: Nihon Waters K.K.
LICENSE: CC BY-NC
CH$NAME: Tridemorph
CH$COMPOUND_CLASS: N/A
CH$FORMULA: C19H39NO
CH$EXACT_MASS: 297.30316
CH$SMILES: CCCCCCCCCCCCCN(C1)CC(C)OC(C)1
CH$IUPAC: InChI=1S/C19H39NO/c1-4-5-6-7-8-9-10-11-12-13-14-15-20-16-18(2)21-19(3)17-20/h18-19H,4-17H2,1-3H3
CH$LINK: CAS 81412-43-3
CH$LINK: INCHIKEY YTOPFCCWCSOHFV-UHFFFAOYSA-N
CH$LINK: COMPTOX DTXSID3041376
AC$INSTRUMENT: QuattroPremier XE, Waters
AC$INSTRUMENT_TYPE: LC-ESI-QQ
AC$MASS_SPECTROMETRY: MS_TYPE MS2
AC$MASS_SPECTROMETRY: ION_MODE POSITIVE
AC$MASS_SPECTROMETRY: COLLISION_ENERGY 10 V
MS$FOCUSED_ION: PRECURSOR_TYPE [M+H]+
MS$FOCUSED_ION: PRECURSOR_M/Z 298.38
MS$DATA_PROCESSING: FIND_PEAK ignore rel.int. < 5
PK$SPLASH: splash10-0002-0090000000-e12c6cc2bae0f924fc41
PK$NUM_PEAK: 4
PK$PEAK: m/z int. rel.int.
  281 106 106
  283 8 8
  298 999 999
  300 59 59
//
