ACCESSION: MSBNK-Waters-WA000127
RECORD_TITLE: Ferimzone E; LC-ESI-QQ; MS2; CE:30 V; [M+H]+
DATE: 2016.01.19 (Created 2007.08.01, modified 2011.05.06)
AUTHORS: Nihon Waters K.K.
LICENSE: CC BY-NC
CH$NAME: Ferimzone E
CH$COMPOUND_CLASS: N/A
CH$FORMULA: C15H18N4
CH$EXACT_MASS: 254.15315
CH$SMILES: CC(=C1)NC(=NN=C(C)c(c2)c(C)ccc2)N=C(C)1
CH$IUPAC: InChI=1S/C15H18N4/c1-10-7-5-6-8-14(10)13(4)18-19-15-16-11(2)9-12(3)17-15/h5-9H,1-4H3,(H,16,17,19)/b18-13+
CH$LINK: CAS 77359-18-3
CH$LINK: INCHIKEY GOWLARCWZRESHU-QGOAFFKASA-N
AC$INSTRUMENT: QuattroPremier XE, Waters
AC$INSTRUMENT_TYPE: LC-ESI-QQ
AC$MASS_SPECTROMETRY: MS_TYPE MS2
AC$MASS_SPECTROMETRY: ION_MODE POSITIVE
AC$MASS_SPECTROMETRY: COLLISION_ENERGY 30 V
MS$FOCUSED_ION: PRECURSOR_TYPE [M+H]+
MS$FOCUSED_ION: PRECURSOR_M/Z 255.14
MS$DATA_PROCESSING: FIND_PEAK ignore rel.int. < 5
PK$SPLASH: splash10-0006-7900000000-0063e63cfa437ca041d0
PK$NUM_PEAK: 19
PK$PEAK: m/z int. rel.int.
  65 35 35
  66 8 8
  79 8 8
  81 27 27
  91 999 999
  92 16 16
  95 86 86
  104 47 47
  106 55 55
  114 27 27
  116 349 349
  118 8 8
  122 31 31
  123 494 494
  125 8 8
  130 12 12
  132 270 270
  133 8 8
  163 20 20
//
