ACCESSION: MSBNK-Waters-WA000039
RECORD_TITLE: Oryzalin; LC-ESI-QQ; MS2; CE:30 V; [M-H]-
DATE: 2016.01.19 (Created 2007.08.01, modified 2011.05.06)
AUTHORS: Nihon Waters K.K.
LICENSE: CC BY-NC
CH$NAME: Oryzalin
CH$COMPOUND_CLASS: N/A
CH$FORMULA: C12H18N4O6S
CH$EXACT_MASS: 346.09471
CH$SMILES: CCCN(CCC)c(c(N(=O)=O)1)c(N(=O)=O)cc(c1)S(N)(=O)=O
CH$IUPAC: InChI=1S/C12H18N4O6S/c1-3-5-14(6-4-2)12-10(15(17)18)7-9(23(13,21)22)8-11(12)16(19)20/h7-8H,3-6H2,1-2H3,(H2,13,21,22)
CH$LINK: CAS 19044-88-3
CH$LINK: INCHIKEY UNAHYJYOSSSJHH-UHFFFAOYSA-N
CH$LINK: COMPTOX DTXSID8024238
AC$INSTRUMENT: QuattroPremier XE, Waters
AC$INSTRUMENT_TYPE: LC-ESI-QQ
AC$MASS_SPECTROMETRY: MS_TYPE MS2
AC$MASS_SPECTROMETRY: ION_MODE NEGATIVE
AC$MASS_SPECTROMETRY: COLLISION_ENERGY 30 V
MS$FOCUSED_ION: PRECURSOR_TYPE [M-H]-
MS$FOCUSED_ION: PRECURSOR_M/Z 345.3
MS$DATA_PROCESSING: FIND_PEAK ignore rel.int. < 5
PK$SPLASH: splash10-00rw-0930000000-7a1fe07fa747c45f4a75
PK$NUM_PEAK: 100
PK$PEAK: m/z int. rel.int.
  101 82 82
  103 20 20
  105 184 184
  107 270 270
  108 98 98
  110 8 8
  114 12 12
  115 533 533
  118 235 235
  119 360 360
  121 157 157
  124 35 35
  129 137 137
  130 102 102
  132 243 243
  134 345 345
  135 227 227
  137 47 47
  142 31 31
  143 43 43
  145 223 223
  147 999 999
  148 149 149
  150 212 212
  151 129 129
  153 16 16
  155 51 51
  157 180 180
  159 215 215
  161 498 498
  163 282 282
  164 55 55
  166 27 27
  168 12 12
  170 27 27
  172 157 157
  174 846 846
  176 270 270
  178 43 43
  179 110 110
  182 208 208
  183 55 55
  185 8 8
  186 157 157
  187 63 63
  189 90 90
  191 302 302
  193 129 129
  195 125 125
  196 51 51
  197 8 8
  198 67 67
  201 71 71
  202 16 16
  203 270 270
  204 118 118
  206 16 16
  208 47 47
  210 98 98
  212 200 200
  213 24 24
  215 8 8
  216 35 35
  218 8 8
  220 51 51
  222 180 180
  224 153 153
  225 51 51
  227 368 368
  229 35 35
  230 8 8
  232 8 8
  234 90 90
  235 8 8
  236 35 35
  238 16 16
  239 94 94
  241 294 294
  242 16 16
  244 114 114
  251 59 59
  253 24 24
  255 12 12
  256 63 63
  258 47 47
  264 8 8
  266 12 12
  268 184 184
  269 51 51
  271 20 20
  273 118 118
  274 8 8
  281 404 404
  283 71 71
  284 8 8
  286 20 20
  299 145 145
  300 12 12
  309 31 31
  345 231 231
//
