ACCESSION: MSBNK-Waters-WA000196
RECORD_TITLE: Cloransulam-methyl; LC-ESI-QQ; MS2; CE:10 V; [M+H]+
DATE: 2016.01.19 (Created 2007.08.01, modified 2011.05.06)
AUTHORS: Nihon Waters K.K.
LICENSE: CC BY-NC
CH$NAME: Cloransulam-methyl
CH$COMPOUND_CLASS: N/A
CH$FORMULA: C15H13ClFN5O5S
CH$EXACT_MASS: 429.03100
CH$SMILES: CCOC(=N3)n(n1)c(C=C(F)3)nc1S(=O)(=O)Nc(c(Cl)2)c(ccc2)C(=O)OC
CH$IUPAC: InChI=1S/C15H13ClFN5O5S/c1-3-27-15-18-10(17)7-11-19-14(20-22(11)15)28(24,25)21-12-8(13(23)26-2)5-4-6-9(12)16/h4-7,21H,3H2,1-2H3
CH$LINK: CAS 147150-35-4
CH$LINK: INCHIKEY BIKACRYIQSLICJ-UHFFFAOYSA-N
CH$LINK: COMPTOX DTXSID8034372
AC$INSTRUMENT: QuattroPremier XE, Waters
AC$INSTRUMENT_TYPE: LC-ESI-QQ
AC$MASS_SPECTROMETRY: MS_TYPE MS2
AC$MASS_SPECTROMETRY: ION_MODE POSITIVE
AC$MASS_SPECTROMETRY: COLLISION_ENERGY 10 V
MS$FOCUSED_ION: PRECURSOR_TYPE [M+H]+
MS$FOCUSED_ION: PRECURSOR_M/Z 430
MS$DATA_PROCESSING: FIND_PEAK ignore rel.int. < 5
PK$SPLASH: splash10-001j-0006900000-6b3db0952d9628ba1ea8
PK$NUM_PEAK: 6
PK$PEAK: m/z int. rel.int.
  185 8 8
  370 24 24
  398 693 693
  399 24 24
  430 999 999
  431 63 63
//
