ACCESSION: MSBNK-Waters-WA000040
RECORD_TITLE: Oryzalin; LC-ESI-QQ; MS2; CE:40 V; [M-H]-
DATE: 2016.01.19 (Created 2007.08.01, modified 2011.05.06)
AUTHORS: Nihon Waters K.K.
LICENSE: CC BY-NC
CH$NAME: Oryzalin
CH$COMPOUND_CLASS: N/A
CH$FORMULA: C12H18N4O6S
CH$EXACT_MASS: 346.09471
CH$SMILES: CCCN(CCC)c(c(N(=O)=O)1)c(N(=O)=O)cc(c1)S(N)(=O)=O
CH$IUPAC: InChI=1S/C12H18N4O6S/c1-3-5-14(6-4-2)12-10(15(17)18)7-9(23(13,21)22)8-11(12)16(19)20/h7-8H,3-6H2,1-2H3,(H2,13,21,22)
CH$LINK: CAS 19044-88-3
CH$LINK: INCHIKEY UNAHYJYOSSSJHH-UHFFFAOYSA-N
CH$LINK: COMPTOX DTXSID8024238
AC$INSTRUMENT: QuattroPremier XE, Waters
AC$INSTRUMENT_TYPE: LC-ESI-QQ
AC$MASS_SPECTROMETRY: MS_TYPE MS2
AC$MASS_SPECTROMETRY: ION_MODE NEGATIVE
AC$MASS_SPECTROMETRY: COLLISION_ENERGY 40 V
MS$FOCUSED_ION: PRECURSOR_TYPE [M-H]-
MS$FOCUSED_ION: PRECURSOR_M/Z 345.3
MS$DATA_PROCESSING: FIND_PEAK ignore rel.int. < 5
PK$SPLASH: splash10-00ls-0910000000-6c6e92fc9fbac18f34ff
PK$NUM_PEAK: 92
PK$PEAK: m/z int. rel.int.
  101 110 110
  103 106 106
  105 337 337
  107 290 290
  109 98 98
  111 8 8
  113 12 12
  114 67 67
  116 756 756
  118 270 270
  119 188 188
  120 678 678
  122 82 82
  123 43 43
  128 98 98
  130 407 407
  132 635 635
  134 470 470
  135 188 188
  137 31 31
  138 16 16
  141 43 43
  143 153 153
  145 490 490
  147 999 999
  148 278 278
  150 82 82
  152 43 43
  155 63 63
  157 243 243
  158 98 98
  160 470 470
  161 231 231
  163 180 180
  165 63 63
  166 8 8
  168 24 24
  170 121 121
  171 8 8
  172 172 172
  174 274 274
  176 149 149
  177 12 12
  178 39 39
  180 20 20
  182 82 82
  184 43 43
  186 157 157
  187 125 125
  189 82 82
  190 8 8
  192 149 149
  193 12 12
  194 227 227
  195 20 20
  197 74 74
  199 121 121
  200 12 12
  201 27 27
  203 188 188
  204 67 67
  206 16 16
  208 35 35
  210 47 47
  211 94 94
  213 27 27
  217 16 16
  220 121 121
  222 243 243
  224 94 94
  225 8 8
  226 35 35
  228 125 125
  229 16 16
  233 8 8
  236 8 8
  238 67 67
  239 24 24
  241 125 125
  242 8 8
  244 59 59
  251 59 59
  252 12 12
  253 8 8
  255 27 27
  263 8 8
  267 157 157
  268 27 27
  273 39 39
  274 8 8
  281 8 8
  283 8 8
//
