ACCESSION: MSBNK-Waters-WA000141
RECORD_TITLE: Furathiocarb; LC-ESI-QQ; MS2; CE:10 V; [M+H]+
DATE: 2016.01.19 (Created 2007.08.01, modified 2011.05.06)
AUTHORS: Nihon Waters K.K.
LICENSE: CC BY-NC
CH$NAME: Furathiocarb
CH$COMPOUND_CLASS: N/A
CH$FORMULA: C18H26N2O5S
CH$EXACT_MASS: 382.15624
CH$SMILES: CCCCOC(=O)N(C)SN(C)C(=O)Oc(c2)c(O1)c(cc2)CC(C)(C)1
CH$IUPAC: InChI=1S/C18H26N2O5S/c1-6-7-11-23-16(21)19(4)26-20(5)17(22)24-14-10-8-9-13-12-18(2,3)25-15(13)14/h8-10H,6-7,11-12H2,1-5H3
CH$LINK: CAS 65907-30-4
CH$LINK: INCHIKEY HAWJXYBZNNRMNO-UHFFFAOYSA-N
CH$LINK: COMPTOX DTXSID3052725
AC$INSTRUMENT: QuattroPremier XE, Waters
AC$INSTRUMENT_TYPE: LC-ESI-QQ
AC$MASS_SPECTROMETRY: MS_TYPE MS2
AC$MASS_SPECTROMETRY: ION_MODE POSITIVE
AC$MASS_SPECTROMETRY: COLLISION_ENERGY 10 V
MS$FOCUSED_ION: PRECURSOR_TYPE [M+H]+
MS$FOCUSED_ION: PRECURSOR_M/Z 383.24
MS$DATA_PROCESSING: FIND_PEAK ignore rel.int. < 5
PK$SPLASH: splash10-0f89-0349000000-908b7117536baaf7c7c8
PK$NUM_PEAK: 17
PK$PEAK: m/z int. rel.int.
  105 24 24
  162 55 55
  164 31 31
  167 24 24
  177 12 12
  195 313 313
  196 8 8
  219 47 47
  220 8 8
  252 525 525
  253 16 16
  270 12 12
  283 12 12
  326 141 141
  327 8 8
  383 999 999
  384 63 63
//
