ACCESSION: MSBNK-Waters-WA000095
RECORD_TITLE: Tralkoxydim (isomer1); LC-ESI-QQ; MS2; CE:40 V; [M-H]-
DATE: 2016.01.19 (Created 2007.08.01, modified 2011.05.06)
AUTHORS: Nihon Waters K.K.
LICENSE: CC BY-NC
CH$NAME: Tralkoxydim (isomer1)
CH$COMPOUND_CLASS: N/A
CH$FORMULA: C20H27NO3
CH$EXACT_MASS: 329.19909
CH$SMILES: CCON=C(CC)C(=C(O)2)C(=O)CC(C2)c(c(C)1)c(C)cc(C)c1
CH$IUPAC: InChI=1S/C20H27NO3/c1-6-16(21-24-7-2)20-17(22)10-15(11-18(20)23)19-13(4)8-12(3)9-14(19)5/h8-9,15,22H,6-7,10-11H2,1-5H3/b21-16+
CH$LINK: CAS 87820-88-0
CH$LINK: INCHIKEY DQFPEYARZIQXRM-LTGZKZEYSA-N
AC$INSTRUMENT: QuattroPremier XE, Waters
AC$INSTRUMENT_TYPE: LC-ESI-QQ
AC$MASS_SPECTROMETRY: MS_TYPE MS2
AC$MASS_SPECTROMETRY: ION_MODE NEGATIVE
AC$MASS_SPECTROMETRY: COLLISION_ENERGY 40 V
MS$FOCUSED_ION: PRECURSOR_TYPE [M-H]-
MS$FOCUSED_ION: PRECURSOR_M/Z 328.4
MS$DATA_PROCESSING: FIND_PEAK ignore rel.int. < 5
PK$SPLASH: splash10-0udi-0090000000-81f6626a07db908c6b17
PK$NUM_PEAK: 16
PK$PEAK: m/z int. rel.int.
  52 8 8
  57 8 8
  66 8 8
  82 16 16
  108 8 8
  121 8 8
  134 12 12
  169 8 8
  171 43 43
  185 8 8
  187 20 20
  212 43 43
  254 999 999
  255 63 63
  282 16 16
  284 12 12
//
