ACCESSION: MSBNK-Waters-WA000050
RECORD_TITLE: Clothianidin; LC-ESI-QQ; MS2; CE:30 V; [M+H]+
DATE: 2016.01.19 (Created 2007.08.01, modified 2011.05.06)
AUTHORS: Nihon Waters K.K.
LICENSE: CC BY-NC
CH$NAME: Clothianidin
CH$COMPOUND_CLASS: N/A
CH$FORMULA: C6H8ClN5O2S
CH$EXACT_MASS: 249.00872
CH$SMILES: CNC(NCc(c1)sc(Cl)n1)=N[N+1]([O-1])=O
CH$IUPAC: InChI=1S/C6H8ClN5O2S/c1-8-6(11-12(13)14)10-3-4-2-9-5(7)15-4/h2H,3H2,1H3,(H2,8,10,11)
CH$LINK: CAS 210880-92-5
CH$LINK: INCHIKEY PGOOBECODWQEAB-UHFFFAOYSA-N
CH$LINK: COMPTOX DTXSID2034465
AC$INSTRUMENT: QuattroPremier XE, Waters
AC$INSTRUMENT_TYPE: LC-ESI-QQ
AC$MASS_SPECTROMETRY: MS_TYPE MS2
AC$MASS_SPECTROMETRY: ION_MODE POSITIVE
AC$MASS_SPECTROMETRY: COLLISION_ENERGY 30 V
MS$FOCUSED_ION: PRECURSOR_TYPE [M+H]+
MS$FOCUSED_ION: PRECURSOR_M/Z 249.96
MS$DATA_PROCESSING: FIND_PEAK ignore rel.int. < 5
PK$SPLASH: splash10-03e9-0900000000-319c9520a18bb6866d79
PK$NUM_PEAK: 21
PK$PEAK: m/z int. rel.int.
  100 8 8
  108 20 20
  110 831 831
  111 121 121
  113 917 917
  114 16 16
  118 8 8
  119 55 55
  125 20 20
  126 24 24
  132 999 999
  133 31 31
  142 39 39
  145 8 8
  147 71 71
  148 12 12
  153 43 43
  167 16 16
  169 161 161
  172 12 12
  175 27 27
//
