ACCESSION: MSBNK-Waters-WA000006
RECORD_TITLE: Methylazinphos; LC-ESI-QQ; MS2; CE:20 V; [M+H]+
DATE: 2016.01.19 (Created 2007.08.01, modified 2011.05.06)
AUTHORS: Nihon Waters K.K.
LICENSE: CC BY-NC
CH$NAME: Methylazinphos
CH$COMPOUND_CLASS: N/A
CH$FORMULA: C10H12N3O3PS2
CH$EXACT_MASS: 317.00577
CH$SMILES: COP(=S)(OC)SCN(N=1)C(=O)c(c2)c(ccc2)N1
CH$IUPAC: InChI=1S/C10H12N3O3PS2/c1-15-17(18,16-2)19-7-13-10(14)8-5-3-4-6-9(8)11-12-13/h3-6H,7H2,1-2H3
CH$LINK: CAS 86-50-0
CH$LINK: INCHIKEY CJJOSEISRRTUQB-UHFFFAOYSA-N
CH$LINK: COMPTOX DTXSID3020122
AC$INSTRUMENT: QuattroPremier XE, Waters
AC$INSTRUMENT_TYPE: LC-ESI-QQ
AC$MASS_SPECTROMETRY: MS_TYPE MS2
AC$MASS_SPECTROMETRY: ION_MODE POSITIVE
AC$MASS_SPECTROMETRY: COLLISION_ENERGY 20 V
MS$FOCUSED_ION: PRECURSOR_TYPE [M+H]+
MS$FOCUSED_ION: PRECURSOR_M/Z 318.05
MS$DATA_PROCESSING: FIND_PEAK ignore rel.int. < 5
PK$SPLASH: splash10-001i-0900000000-84ac584513bba9686e45
PK$NUM_PEAK: 19
PK$PEAK: m/z int. rel.int.
  77 27 27
  93 8 8
  103 16 16
  104 82 82
  105 20 20
  124 20 20
  125 439 439
  131 20 20
  132 999 999
  133 24 24
  159 8 8
  160 176 176
  161 8 8
  166 12 12
  167 74 74
  171 35 35
  183 24 24
  261 24 24
  262 8 8
//
