ACCESSION: MSBNK-Waters-WA000211
RECORD_TITLE: Dichlorprop; LC-ESI-QQ; MS2; CE:40 V; [M-H]-
DATE: 2016.01.19 (Created 2007.08.01, modified 2011.05.06)
AUTHORS: Nihon Waters K.K.
LICENSE: CC BY-NC
CH$NAME: Dichlorprop
CH$COMPOUND_CLASS: N/A
CH$FORMULA: C9H8Cl2O3
CH$EXACT_MASS: 233.98505
CH$SMILES: OC(=O)C(C)Oc(c1)c(Cl)cc(Cl)c1
CH$IUPAC: InChI=1S/C9H8Cl2O3/c1-5(9(12)13)14-8-3-2-6(10)4-7(8)11/h2-5H,1H3,(H,12,13)
CH$LINK: CAS 120-36-5
CH$LINK: INCHIKEY MZHCENGPTKEIGP-UHFFFAOYSA-N
CH$LINK: COMPTOX DTXSID0020440
AC$INSTRUMENT: QuattroPremier XE, Waters
AC$INSTRUMENT_TYPE: LC-ESI-QQ
AC$MASS_SPECTROMETRY: MS_TYPE MS2
AC$MASS_SPECTROMETRY: ION_MODE NEGATIVE
AC$MASS_SPECTROMETRY: COLLISION_ENERGY 40 V
MS$FOCUSED_ION: PRECURSOR_TYPE [M-H]-
MS$FOCUSED_ION: PRECURSOR_M/Z 232.8
MS$DATA_PROCESSING: FIND_PEAK ignore rel.int. < 5
PK$SPLASH: splash10-01t9-0930000000-902166c2e88465a8dc8e
PK$NUM_PEAK: 97
PK$PEAK: m/z int. rel.int.
  101 165 165
  103 208 208
  105 157 157
  106 43 43
  107 184 184
  109 223 223
  111 121 121
  113 282 282
  115 74 74
  116 188 188
  117 8 8
  119 200 200
  120 223 223
  122 321 321
  124 24 24
  125 999 999
  126 172 172
  127 12 12
  129 266 266
  130 165 165
  132 255 255
  133 63 63
  135 231 231
  136 31 31
  137 145 145
  139 235 235
  140 20 20
  142 172 172
  143 196 196
  145 145 145
  147 196 196
  149 274 274
  151 125 125
  153 212 212
  154 8 8
  155 168 168
  157 243 243
  159 200 200
  161 364 364
  163 145 145
  164 35 35
  165 255 255
  167 27 27
  168 309 309
  170 204 204
  171 47 47
  173 227 227
  174 27 27
  175 212 212
  177 184 184
  179 161 161
  181 125 125
  182 223 223
  184 27 27
  185 219 219
  186 63 63
  188 243 243
  189 35 35
  190 176 176
  192 94 94
  193 149 149
  195 176 176
  197 165 165
  198 24 24
  199 302 302
  201 157 157
  202 67 67
  204 212 212
  205 78 78
  207 200 200
  208 31 31
  209 192 192
  211 192 192
  213 243 243
  215 47 47
  216 149 149
  218 239 239
  219 27 27
  221 188 188
  223 188 188
  225 239 239
  226 98 98
  228 227 227
  230 168 168
  231 102 102
  233 184 184
  235 270 270
  236 47 47
  238 192 192
  239 94 94
  241 192 192
  242 110 110
  244 212 212
  245 39 39
  246 153 153
  248 192 192
  249 63 63
//
