ACCESSION: MSBNK-LCSB-LU101703
RECORD_TITLE: 2-Ethylhexyl 4-(dimethylamino)benzoate; LC-ESI-QFT; MS2; CE: 45; R=17500; [M+H]+
DATE: 2020.08.19
AUTHORS: Elapavalore, A.; Kondić, T.; Singh, R.; Schymanski, E.
LICENSE: CC BY
COPYRIGHT: Copyright © 2019 by Environmental Cheminformatics, LCSB, University of Luxembourg, Luxembourg
PUBLICATION: Elapavalore, A.; Kondić, T.; et al., Adding Open Spectral Data to MassBank and PubChem Using Open Source Tools to Support Non-Targeted Exposomics of Mixtures (submitted).
PROJECT: ENTACT U.S. Environmental Protection Agency’s Non-Targeted Analysis Collaborative Trial
COMMENT: CONFIDENCE standard compound
COMMENT: INTERNAL_ID 1017
COMMENT: DATASET 20200303_ENTACT_RP_MIX502
COMMENT: DATA_PROCESSING MERGING RMBmix ver. 0.2.7
COMMENT: DATA_PROCESSING PRESCREENING Shinyscreen ver. 0.8.0
COMMENT: ORIGINAL_ACQUISITION_NO 10792
COMMENT: ORIGINAL_PRECURSOR_SCAN_NO 10787
COMMENT: RAW_DATA available as MSV000091754 at [DOI:10.25345/C5S46HG75]
CH$NAME: 2-Ethylhexyl 4-(dimethylamino)benzoate
CH$COMPOUND_CLASS: N/A; Environmental Standard
CH$FORMULA: C17H27NO2
CH$EXACT_MASS: 277.2042
CH$SMILES: CCCCC(CC)COC(=O)C1=CC=C(C=C1)N(C)C
CH$IUPAC: InChI=1S/C17H27NO2/c1-5-7-8-14(6-2)13-20-17(19)15-9-11-16(12-10-15)18(3)4/h9-12,14H,5-8,13H2,1-4H3
CH$LINK: CAS 21245-02-3
CH$LINK: CHEBI CHEBI:135932
CH$LINK: KEGG D05335
CH$LINK: PUBCHEM CID:30541
CH$LINK: INCHIKEY WYWZRNAHINYAEF-UHFFFAOYSA-N
CH$LINK: CHEMSPIDER 28343
AC$INSTRUMENT: Q Exactive Orbitrap (Thermo Scientific)
AC$INSTRUMENT_TYPE: LC-ESI-QFT
AC$MASS_SPECTROMETRY: MS_TYPE MS2
AC$MASS_SPECTROMETRY: ION_MODE POSITIVE
AC$MASS_SPECTROMETRY: IONIZATION ESI
AC$MASS_SPECTROMETRY: FRAGMENTATION_MODE HCD
AC$MASS_SPECTROMETRY: COLLISION_ENERGY 45
AC$MASS_SPECTROMETRY: RESOLUTION 17500
AC$CHROMATOGRAPHY: COLUMN_NAME Acquity BEH C18 1.7um, 2.1x150mm (Waters)
AC$CHROMATOGRAPHY: FLOW_GRADIENT 90/10 at 0-2 min, 0/100 at 15-20 min, 90/10 at 20.1-30 min
AC$CHROMATOGRAPHY: FLOW_RATE 0.20 mL/min
AC$CHROMATOGRAPHY: RETENTION_TIME 20.789 min
AC$CHROMATOGRAPHY: SOLVENT A 0.1% formic acid
AC$CHROMATOGRAPHY: SOLVENT B methanol
MS$FOCUSED_ION: BASE_PEAK 79.0211
MS$FOCUSED_ION: PRECURSOR_M/Z 278.2115
MS$FOCUSED_ION: PRECURSOR_TYPE [M+H]+
MS$FOCUSED_ION: PRECURSOR_INTENSITY 24245478.78125
MS$DATA_PROCESSING: RECALIBRATE loess on assigned fragments and MS1
MS$DATA_PROCESSING: REANALYZE Peaks with additional N2/O included
MS$DATA_PROCESSING: WHOLE RMassBank 2.99.2
PK$SPLASH: splash10-0gb9-0900000000-b1d8ff267cdd1a7c2760
PK$ANNOTATION: m/z tentative_formula formula_count mass error(ppm)
  57.0699 C4H9+ 1 57.0699 0.58
  107.0729 C7H9N+ 1 107.073 -0.07
  120.0807 C8H10N+ 1 120.0808 -0.7
  121.0883 C8H11N+ 1 121.0886 -2.62
  122.0964 C8H12N+ 1 122.0964 -0.12
  134.0599 C8H8NO+ 1 134.06 -1.11
  148.0759 C9H10NO+ 1 148.0757 1.73
  150.055 C8H8NO2+ 1 150.055 0.49
  151.0628 C8H9NO2+ 1 151.0628 -0.1
  152.0705 C8H10NO2+ 1 152.0706 -0.37
  166.0862 C9H12NO2+ 1 166.0863 -0.15
  263.1879 C16H25NO2+ 1 263.188 -0.24
  278.2115 C17H28NO2+ 1 278.2115 0.22
PK$NUM_PEAK: 13
PK$PEAK: m/z int. rel.int.
  57.0699 19059.4 1
  107.0729 332128.5 20
  120.0807 19241.4 1
  121.0883 42852.5 2
  122.0964 236244.6 14
  134.0599 71351.4 4
  148.0759 32897 2
  150.055 177596.9 10
  151.0628 10012340 609
  152.0705 17927 1
  166.0862 16412813 999
  263.1879 18703.1 1
  278.2115 1307426.5 79
//
