ACCESSION: MSBNK-LCSB-LU073601
RECORD_TITLE: PharmaGSID_48516; LC-ESI-QFT; MS2; CE: 15; R=17500; [M+H]+
DATE: 2020.08.19
AUTHORS: Elapavalore, A.; Kondić, T.; Singh, R.; Schymanski, E.
LICENSE: CC BY
COPYRIGHT: Copyright © 2019 by Environmental Cheminformatics, LCSB, University of Luxembourg, Luxembourg
PUBLICATION: Elapavalore, A.; Kondić, T.; et al., Adding Open Spectral Data to MassBank and PubChem Using Open Source Tools to Support Non-Targeted Exposomics of Mixtures (submitted).
PROJECT: ENTACT U.S. Environmental Protection Agency’s Non-Targeted Analysis Collaborative Trial
COMMENT: CONFIDENCE standard compound
COMMENT: INTERNAL_ID 736
COMMENT: DATASET 20200303_ENTACT_RP_MIX506
COMMENT: DATA_PROCESSING MERGING RMBmix ver. 0.2.7
COMMENT: DATA_PROCESSING PRESCREENING Shinyscreen ver. 0.8.0
COMMENT: ORIGINAL_ACQUISITION_NO 8797
COMMENT: ORIGINAL_PRECURSOR_SCAN_NO 8795
COMMENT: RAW_DATA available as MSV000091754 at [DOI:10.25345/C5S46HG75]
CH$NAME: 2-chloro-4-fluoro-N-[(E)-2-phenylethenyl]sulfonylbenzamide
CH$NAME: 2-Chloro-4-fluoro-N-{[(E)-2-phenylethenyl]sulfonyl}benzamide
CH$NAME: PharmaGSID_48516
CH$COMPOUND_CLASS: N/A; Environmental Standard
CH$FORMULA: C15H11ClFNO3S
CH$EXACT_MASS: 339.0132
CH$SMILES: O=C(NS(=O)(=O)/C=C/c1ccccc1)c1ccc(F)cc1Cl
CH$IUPAC: InChI=1S/C15H11ClFNO3S/c16-14-10-12(17)6-7-13(14)15(19)18-22(20,21)9-8-11-4-2-1-3-5-11/h1-10H,(H,18,19)/b9-8+
CH$LINK: PUBCHEM CID:15603288
CH$LINK: INCHIKEY AUMLVMKWJGCERZ-CMDGGOBGSA-N
CH$LINK: CHEMSPIDER 13078769
AC$INSTRUMENT: Q Exactive Orbitrap (Thermo Scientific)
AC$INSTRUMENT_TYPE: LC-ESI-QFT
AC$MASS_SPECTROMETRY: MS_TYPE MS2
AC$MASS_SPECTROMETRY: ION_MODE POSITIVE
AC$MASS_SPECTROMETRY: IONIZATION ESI
AC$MASS_SPECTROMETRY: FRAGMENTATION_MODE HCD
AC$MASS_SPECTROMETRY: COLLISION_ENERGY 15
AC$MASS_SPECTROMETRY: RESOLUTION 17500
AC$CHROMATOGRAPHY: COLUMN_NAME Acquity BEH C18 1.7um, 2.1x150mm (Waters)
AC$CHROMATOGRAPHY: FLOW_GRADIENT 90/10 at 0-2 min, 0/100 at 15-20 min, 90/10 at 20.1-30 min
AC$CHROMATOGRAPHY: FLOW_RATE 0.20 mL/min
AC$CHROMATOGRAPHY: RETENTION_TIME 16.772 min
AC$CHROMATOGRAPHY: SOLVENT A 0.1% formic acid
AC$CHROMATOGRAPHY: SOLVENT B methanol
MS$FOCUSED_ION: BASE_PEAK 79.0211
MS$FOCUSED_ION: PRECURSOR_M/Z 340.0205
MS$FOCUSED_ION: PRECURSOR_TYPE [M+H]+
MS$FOCUSED_ION: PRECURSOR_INTENSITY 1746147.8125
MS$DATA_PROCESSING: RECALIBRATE loess on assigned fragments and MS1
MS$DATA_PROCESSING: REANALYZE Peaks with additional N2/O included
MS$DATA_PROCESSING: WHOLE RMassBank 2.99.2
PK$SPLASH: splash10-0a4i-0900000000-995f016c3fe57fff7578
PK$ANNOTATION: m/z tentative_formula formula_count mass error(ppm)
  103.0542 C8H7+ 2 103.0542 -0.67
  156.001 C7H4ClFN+ 6 156.0011 -0.43
  156.9851 C7H3ClFO+ 4 156.9851 0.21
  166.0322 C8H8NOS+ 3 166.0321 0.67
  167.0162 C8H7O2S+ 7 167.0161 0.17
  174.0119 C7H6ClFNO+ 7 174.0116 1.37
  185.0269 C8H9O3S+ 6 185.0267 0.98
PK$NUM_PEAK: 7
PK$PEAK: m/z int. rel.int.
  103.0542 57922.9 45
  156.001 7535.4 5
  156.9851 1264347 999
  166.0322 6097.5 4
  167.0162 398342.5 314
  174.0119 3173.9 2
  185.0269 3076 2
//
