ACCESSION: MSBNK-LCSB-LU091306
RECORD_TITLE: Chloroxuron; LC-ESI-QFT; MS2; CE: 90; R=17500; [M+H]+
DATE: 2020.08.19
AUTHORS: Elapavalore, A.; Kondić, T.; Singh, R.; Schymanski, E.
LICENSE: CC BY
COPYRIGHT: Copyright © 2019 by Environmental Cheminformatics, LCSB, University of Luxembourg, Luxembourg
PUBLICATION: Elapavalore, A.; Kondić, T.; et al., Adding Open Spectral Data to MassBank and PubChem Using Open Source Tools to Support Non-Targeted Exposomics of Mixtures (submitted).
PROJECT: ENTACT U.S. Environmental Protection Agency’s Non-Targeted Analysis Collaborative Trial
COMMENT: CONFIDENCE standard compound
COMMENT: INTERNAL_ID 913
COMMENT: DATASET 20200303_ENTACT_RP_MIX508
COMMENT: DATA_PROCESSING MERGING RMBmix ver. 0.2.7
COMMENT: DATA_PROCESSING PRESCREENING Shinyscreen ver. 0.8.0
COMMENT: ORIGINAL_ACQUISITION_NO 9397
COMMENT: ORIGINAL_PRECURSOR_SCAN_NO 9395
COMMENT: RAW_DATA available as MSV000091754 at [DOI:10.25345/C5S46HG75]
CH$NAME: Chloroxuron
CH$NAME: 3-[4-(4-chlorophenoxy)phenyl]-1,1-dimethylurea
CH$COMPOUND_CLASS: N/A; Environmental Standard
CH$FORMULA: C15H15ClN2O2
CH$EXACT_MASS: 290.0822
CH$SMILES: CN(C)C(=O)NC1=CC=C(OC2=CC=C(Cl)C=C2)C=C1
CH$IUPAC: InChI=1S/C15H15ClN2O2/c1-18(2)15(19)17-12-5-9-14(10-6-12)20-13-7-3-11(16)4-8-13/h3-10H,1-2H3,(H,17,19)
CH$LINK: CAS 1982-47-4
CH$LINK: PUBCHEM CID:16115
CH$LINK: INCHIKEY IVUXTESCPZUGJC-UHFFFAOYSA-N
CH$LINK: CHEMSPIDER 15299
AC$INSTRUMENT: Q Exactive Orbitrap (Thermo Scientific)
AC$INSTRUMENT_TYPE: LC-ESI-QFT
AC$MASS_SPECTROMETRY: MS_TYPE MS2
AC$MASS_SPECTROMETRY: ION_MODE POSITIVE
AC$MASS_SPECTROMETRY: IONIZATION ESI
AC$MASS_SPECTROMETRY: FRAGMENTATION_MODE HCD
AC$MASS_SPECTROMETRY: COLLISION_ENERGY 90
AC$MASS_SPECTROMETRY: RESOLUTION 17500
AC$CHROMATOGRAPHY: COLUMN_NAME Acquity BEH C18 1.7um, 2.1x150mm (Waters)
AC$CHROMATOGRAPHY: FLOW_GRADIENT 90/10 at 0-2 min, 0/100 at 15-20 min, 90/10 at 20.1-30 min
AC$CHROMATOGRAPHY: FLOW_RATE 0.20 mL/min
AC$CHROMATOGRAPHY: RETENTION_TIME 17.967 min
AC$CHROMATOGRAPHY: SOLVENT A 0.1% formic acid
AC$CHROMATOGRAPHY: SOLVENT B methanol
MS$FOCUSED_ION: BASE_PEAK 79.0211
MS$FOCUSED_ION: PRECURSOR_M/Z 291.0895
MS$FOCUSED_ION: PRECURSOR_TYPE [M+H]+
MS$FOCUSED_ION: PRECURSOR_INTENSITY 22838821.5
MS$DATA_PROCESSING: RECALIBRATE loess on assigned fragments and MS1
MS$DATA_PROCESSING: REANALYZE Peaks with additional N2/O included
MS$DATA_PROCESSING: WHOLE RMassBank 2.99.2
PK$SPLASH: splash10-00di-9100000000-7c9915101625e094b9f5
PK$ANNOTATION: m/z tentative_formula formula_count mass error(ppm)
  56.0131 C2H2NO+ 1 56.0131 0.19
  71.0604 C3H7N2+ 1 71.0604 -0.31
  72.0443 C3H6NO+ 2 72.0444 -0.79
  75.0229 C6H3+ 1 75.0229 -0.47
  79.0542 C6H7+ 1 79.0542 -0.57
  86.9997 C4H4Cl+ 1 86.9996 0.76
  91.0542 C7H7+ 1 91.0542 -0.53
  94.0413 C6H6O+ 2 94.0413 -0.04
  98.9996 C5H4Cl+ 1 98.9996 -0.17
  103.0542 C8H7+ 1 103.0542 -0.17
  106.0652 C7H8N+ 1 106.0651 0.26
  108.0445 C6H6NO+ 2 108.0444 0.91
  110.9995 C6H4Cl+ 1 110.9996 -0.58
  111.0441 C6H7O2+ 2 111.0441 0.09
  118.0651 C8H8N+ 1 118.0651 -0.19
  120.0808 C8H10N+ 1 120.0808 -0.19
  127.0543 C10H7+ 1 127.0542 0.56
  128.062 C10H8+ 1 128.0621 -0.13
  129.0102 C6H6ClO+ 2 129.0102 0.01
  132.0448 C5H9ClN2+ 2 132.0449 -0.76
  139.0057 C6H4ClN2+ 2 139.0058 -0.17
  145.0647 C10H9O+ 2 145.0648 -0.41
  149.0153 C9H6Cl+ 2 149.0153 0.56
  154.0651 C11H8N+ 2 154.0651 -0.29
  155.0604 C10H7N2+ 3 155.0604 -0.16
  155.0723 C11H9N+ 2 155.073 -4.01
  163.031 C10H8Cl+ 2 163.0309 0.52
  168.0569 C12H8O+ 2 168.057 -0.68
  175.0305 C11H8Cl+ 2 175.0309 -2.3
  183.0679 C12H9NO+ 2 183.0679 0.29
  190.0419 C11H9ClN+ 2 190.0418 0.48
  218.0367 C12H9ClNO+ 2 218.0367 0.03
PK$NUM_PEAK: 32
PK$PEAK: m/z int. rel.int.
  56.0131 239712.2 31
  71.0604 10874.5 1
  72.0443 7635223 999
  75.0229 106240.2 13
  79.0542 21313.7 2
  86.9997 43242.3 5
  91.0542 10467.8 1
  94.0413 12898.4 1
  98.9996 45229.4 5
  103.0542 13690.8 1
  106.0652 73048.4 9
  108.0445 22061.9 2
  110.9995 44352.4 5
  111.0441 14574.6 1
  118.0651 121288.1 15
  120.0808 11096 1
  127.0543 17485.7 2
  128.062 266108.8 34
  129.0102 128218.2 16
  132.0448 12318.6 1
  139.0057 239945.6 31
  145.0647 68269.5 8
  149.0153 26549.7 3
  154.0651 57559.1 7
  155.0604 103107 13
  155.0723 30059.9 3
  163.031 101211.9 13
  168.0569 21783.3 2
  175.0305 8527.7 1
  183.0679 28093.4 3
  190.0419 25205.6 3
  218.0367 16231 2
//
