ACCESSION: MSBNK-LCSB-LU108105
RECORD_TITLE: 2-(Propan-2-yl)-9H-thioxanthen-9-one; LC-ESI-QFT; MS2; CE: 75; R=17500; [M+H]+
DATE: 2020.08.19
AUTHORS: Elapavalore, A.; Kondić, T.; Singh, R.; Schymanski, E.
LICENSE: CC BY
COPYRIGHT: Copyright © 2019 by Environmental Cheminformatics, LCSB, University of Luxembourg, Luxembourg
PUBLICATION: Elapavalore, A.; Kondić, T.; et al., Adding Open Spectral Data to MassBank and PubChem Using Open Source Tools to Support Non-Targeted Exposomics of Mixtures (submitted).
PROJECT: ENTACT U.S. Environmental Protection Agency’s Non-Targeted Analysis Collaborative Trial
COMMENT: CONFIDENCE standard compound
COMMENT: INTERNAL_ID 1081
COMMENT: DATASET 20200303_ENTACT_RP_MIX503
COMMENT: DATA_PROCESSING MERGING RMBmix ver. 0.2.7
COMMENT: DATA_PROCESSING PRESCREENING Shinyscreen ver. 0.8.0
COMMENT: ORIGINAL_ACQUISITION_NO 10557
COMMENT: ORIGINAL_PRECURSOR_SCAN_NO 10552
COMMENT: RAW_DATA available as MSV000091754 at [DOI:10.25345/C5S46HG75]
CH$NAME: 2-(Propan-2-yl)-9H-thioxanthen-9-one
CH$NAME: 2-Isopropylthioxanthone
CH$NAME: 2-propan-2-ylthioxanthen-9-one
CH$COMPOUND_CLASS: N/A; Environmental Standard
CH$FORMULA: C16H14OS
CH$EXACT_MASS: 254.0765
CH$SMILES: CC(C)C1=CC2=C(SC3=C(C=CC=C3)C2=O)C=C1
CH$IUPAC: InChI=1S/C16H14OS/c1-10(2)11-7-8-15-13(9-11)16(17)12-5-3-4-6-14(12)18-15/h3-10H,1-2H3
CH$LINK: CAS 5495-84-1
CH$LINK: PUBCHEM CID:79633
CH$LINK: INCHIKEY KTALPKYXQZGAEG-UHFFFAOYSA-N
CH$LINK: CHEMSPIDER 71936
AC$INSTRUMENT: Q Exactive Orbitrap (Thermo Scientific)
AC$INSTRUMENT_TYPE: LC-ESI-QFT
AC$MASS_SPECTROMETRY: MS_TYPE MS2
AC$MASS_SPECTROMETRY: ION_MODE POSITIVE
AC$MASS_SPECTROMETRY: IONIZATION ESI
AC$MASS_SPECTROMETRY: FRAGMENTATION_MODE HCD
AC$MASS_SPECTROMETRY: COLLISION_ENERGY 75
AC$MASS_SPECTROMETRY: RESOLUTION 17500
AC$CHROMATOGRAPHY: COLUMN_NAME Acquity BEH C18 1.7um, 2.1x150mm (Waters)
AC$CHROMATOGRAPHY: FLOW_GRADIENT 90/10 at 0-2 min, 0/100 at 15-20 min, 90/10 at 20.1-30 min
AC$CHROMATOGRAPHY: FLOW_RATE 0.20 mL/min
AC$CHROMATOGRAPHY: RETENTION_TIME 20.292 min
AC$CHROMATOGRAPHY: SOLVENT A 0.1% formic acid
AC$CHROMATOGRAPHY: SOLVENT B methanol
MS$FOCUSED_ION: BASE_PEAK 79.0211
MS$FOCUSED_ION: PRECURSOR_M/Z 255.0838
MS$FOCUSED_ION: PRECURSOR_TYPE [M+H]+
MS$FOCUSED_ION: PRECURSOR_INTENSITY 6438946.875
MS$DATA_PROCESSING: RECALIBRATE loess on assigned fragments and MS1
MS$DATA_PROCESSING: REANALYZE Peaks with additional N2/O included
MS$DATA_PROCESSING: WHOLE RMassBank 2.99.2
PK$SPLASH: splash10-03e9-0690000000-edf5326182f800aee408
PK$ANNOTATION: m/z tentative_formula formula_count mass error(ppm)
  53.0022 C3HO+ 1 53.0022 0.91
  95.0493 C6H7O+ 1 95.0491 1.55
  105.0336 C7H5O+ 1 105.0335 0.7
  115.0545 C9H7+ 1 115.0542 2.25
  139.0542 C11H7+ 1 139.0542 0.07
  141.0698 C11H9+ 1 141.0699 -0.21
  152.0621 C12H8+ 1 152.0621 0.43
  180.0572 C13H8O+ 1 180.057 1.3
  181.065 C13H9O+ 1 181.0648 1.39
  183.0264 C12H7S+ 1 183.0263 0.61
  184.0342 C12H8S+ 1 184.0341 0.63
  185.042 C12H9S+ 1 185.0419 0.48
  197.0421 C13H9S+ 1 197.0419 0.65
  201.0371 C12H9OS+ 1 201.0369 1.08
  212.0292 C13H8OS+ 1 212.029 0.72
  213.0369 C13H9OS+ 1 213.0369 0.17
  224.029 C14H8OS+ 1 224.029 -0.18
  225.0368 C14H9OS+ 1 225.0369 -0.22
  239.0526 C15H11OS+ 1 239.0525 0.19
  240.0606 C15H12OS+ 1 240.0603 1.3
  255.0867 C16H15OS+ 1 255.0838 11.23
PK$NUM_PEAK: 21
PK$PEAK: m/z int. rel.int.
  53.0022 41669.6 19
  95.0493 2512.9 1
  105.0336 6707.8 3
  115.0545 3103.9 1
  139.0542 4573.3 2
  141.0698 27784.2 12
  152.0621 55207.7 25
  180.0572 5907.8 2
  181.065 4148.6 1
  183.0264 12770.1 5
  184.0342 1493793.2 685
  185.042 176198.1 80
  197.0421 16760.7 7
  201.0371 6104.9 2
  212.0292 26808.3 12
  213.0369 2177145 999
  224.029 4181.1 1
  225.0368 22014.6 10
  239.0526 126264.1 57
  240.0606 8348.4 3
  255.0867 2364 1
//
