ACCESSION: MSBNK-LCSB-LU091352
RECORD_TITLE: Chloroxuron; LC-ESI-QFT; MS2; CE: 30; R=17500; [M-H]-
DATE: 2020.08.19
AUTHORS: Elapavalore, A.; Kondić, T.; Singh, R.; Schymanski, E.
LICENSE: CC BY
COPYRIGHT: Copyright © 2019 by Environmental Cheminformatics, LCSB, University of Luxembourg, Luxembourg
PUBLICATION: Elapavalore, A.; Kondić, T.; et al., Adding Open Spectral Data to MassBank and PubChem Using Open Source Tools to Support Non-Targeted Exposomics of Mixtures (submitted).
PROJECT: ENTACT U.S. Environmental Protection Agency’s Non-Targeted Analysis Collaborative Trial
COMMENT: CONFIDENCE standard compound
COMMENT: INTERNAL_ID 913
COMMENT: DATASET 20200303_ENTACT_RP_MIX508
COMMENT: DATA_PROCESSING MERGING RMBmix ver. 0.2.7
COMMENT: DATA_PROCESSING PRESCREENING Shinyscreen ver. 0.8.0
COMMENT: ORIGINAL_ACQUISITION_NO 4934
COMMENT: ORIGINAL_PRECURSOR_SCAN_NO 4933
COMMENT: RAW_DATA available as MSV000091754 at [DOI:10.25345/C5S46HG75]
CH$NAME: Chloroxuron
CH$NAME: 3-[4-(4-chlorophenoxy)phenyl]-1,1-dimethylurea
CH$COMPOUND_CLASS: N/A; Environmental Standard
CH$FORMULA: C15H15ClN2O2
CH$EXACT_MASS: 290.0822
CH$SMILES: CN(C)C(=O)NC1=CC=C(OC2=CC=C(Cl)C=C2)C=C1
CH$IUPAC: InChI=1S/C15H15ClN2O2/c1-18(2)15(19)17-12-5-9-14(10-6-12)20-13-7-3-11(16)4-8-13/h3-10H,1-2H3,(H,17,19)
CH$LINK: CAS 1982-47-4
CH$LINK: PUBCHEM CID:16115
CH$LINK: INCHIKEY IVUXTESCPZUGJC-UHFFFAOYSA-N
CH$LINK: CHEMSPIDER 15299
AC$INSTRUMENT: Q Exactive Orbitrap (Thermo Scientific)
AC$INSTRUMENT_TYPE: LC-ESI-QFT
AC$MASS_SPECTROMETRY: MS_TYPE MS2
AC$MASS_SPECTROMETRY: ION_MODE NEGATIVE
AC$MASS_SPECTROMETRY: IONIZATION ESI
AC$MASS_SPECTROMETRY: FRAGMENTATION_MODE HCD
AC$MASS_SPECTROMETRY: COLLISION_ENERGY 30
AC$MASS_SPECTROMETRY: RESOLUTION 17500
AC$CHROMATOGRAPHY: COLUMN_NAME Acquity BEH C18 1.7um, 2.1x150mm (Waters)
AC$CHROMATOGRAPHY: FLOW_GRADIENT 90/10 at 0-2 min, 0/100 at 15-20 min, 90/10 at 20.1-30 min
AC$CHROMATOGRAPHY: FLOW_RATE 0.20 mL/min
AC$CHROMATOGRAPHY: RETENTION_TIME 17.931 min
AC$CHROMATOGRAPHY: SOLVENT A 0.1% formic acid
AC$CHROMATOGRAPHY: SOLVENT B methanol
MS$FOCUSED_ION: BASE_PEAK 112.9856
MS$FOCUSED_ION: PRECURSOR_M/Z 289.0749
MS$FOCUSED_ION: PRECURSOR_TYPE [M-H]-
MS$FOCUSED_ION: PRECURSOR_INTENSITY 5352068.604004
MS$DATA_PROCESSING: RECALIBRATE loess on assigned fragments and MS1
MS$DATA_PROCESSING: REANALYZE Peaks with additional N2/O included
MS$DATA_PROCESSING: WHOLE RMassBank 2.99.2
PK$SPLASH: splash10-000l-0290000000-1d0c8041ad06ad36cf53
PK$ANNOTATION: m/z tentative_formula formula_count mass error(ppm)
  120.0454 C7H6NO- 2 120.0455 -0.41
  126.9957 C6H4ClO- 1 126.9956 0.89
  133.0169 C7H3NO2- 2 133.0169 -0.29
  134.0247 C7H4NO2- 2 134.0248 -0.26
  134.0611 C8H8NO- 2 134.0611 -0.2
  163.0513 C8H7N2O2- 2 163.0513 -0.18
  178.0748 C9H10N2O2- 1 178.0748 -0.03
  182.0604 C12H8NO- 2 182.0611 -3.97
  208.0403 C13H6NO2- 2 208.0404 -0.31
  217.0299 C12H8ClNO- 2 217.03 -0.22
  218.0379 C12H9ClNO- 2 218.0378 0.35
  244.017 C13H7ClNO2- 1 244.0171 -0.33
  246.033 C13H9ClNO2- 1 246.0327 1.05
  273.0436 C14H10ClN2O2- 1 273.0436 -0.21
  289.075 C15H14ClN2O2- 1 289.0749 0.11
PK$NUM_PEAK: 15
PK$PEAK: m/z int. rel.int.
  120.0454 20299.6 14
  126.9957 8978.4 6
  133.0169 38244.8 27
  134.0247 60469.5 43
  134.0611 34049.6 24
  163.0513 127347.2 90
  178.0748 452804 322
  182.0604 2718.9 1
  208.0403 5734.5 4
  217.0299 19925.8 14
  218.0379 9286.7 6
  244.017 849202.6 605
  246.033 6757.1 4
  273.0436 2620.3 1
  289.075 1400795.5 999
//
