ACCESSION: MSBNK-LCSB-LU087054
RECORD_TITLE: Pantothenate; LC-ESI-QFT; MS2; CE: 60; R=17500; [M-H]-
DATE: 2020.08.19
AUTHORS: Elapavalore, A.; Kondić, T.; Singh, R.; Schymanski, E.
LICENSE: CC BY
COPYRIGHT: Copyright © 2019 by Environmental Cheminformatics, LCSB, University of Luxembourg, Luxembourg
PUBLICATION: Elapavalore, A.; Kondić, T.; et al., Adding Open Spectral Data to MassBank and PubChem Using Open Source Tools to Support Non-Targeted Exposomics of Mixtures (submitted).
PROJECT: ENTACT U.S. Environmental Protection Agency’s Non-Targeted Analysis Collaborative Trial
COMMENT: CONFIDENCE standard compound
COMMENT: INTERNAL_ID 870
COMMENT: DATASET 20200303_ENTACT_RP_MIX506
COMMENT: DATA_PROCESSING MERGING RMBmix ver. 0.2.7
COMMENT: DATA_PROCESSING PRESCREENING Shinyscreen ver. 0.8.0
COMMENT: ORIGINAL_ACQUISITION_NO 2007
COMMENT: ORIGINAL_PRECURSOR_SCAN_NO 2005
COMMENT: RAW_DATA available as MSV000091754 at [DOI:10.25345/C5S46HG75]
CH$NAME: Pantothenate
CH$NAME: Pantothenic acid
CH$NAME: 3-[[(2R)-2,4-dihydroxy-3,3-dimethylbutanoyl]amino]propanoic acid
CH$COMPOUND_CLASS: N/A; Environmental Standard
CH$FORMULA: C9H17NO5
CH$EXACT_MASS: 219.1107
CH$SMILES: CC(C)(CO)[C@@H](O)C(=O)NCCC(O)=O
CH$IUPAC: InChI=1S/C9H17NO5/c1-9(2,5-11)7(14)8(15)10-4-3-6(12)13/h7,11,14H,3-5H2,1-2H3,(H,10,15)(H,12,13)/t7-/m0/s1
CH$LINK: CAS 79-83-4
CH$LINK: CHEBI CHEBI:46905
CH$LINK: KEGG D07413
CH$LINK: PUBCHEM CID:6613
CH$LINK: INCHIKEY GHOKWGTUZJEAQD-ZETCQYMHSA-N
CH$LINK: CHEMSPIDER 6361
AC$INSTRUMENT: Q Exactive Orbitrap (Thermo Scientific)
AC$INSTRUMENT_TYPE: LC-ESI-QFT
AC$MASS_SPECTROMETRY: MS_TYPE MS2
AC$MASS_SPECTROMETRY: ION_MODE NEGATIVE
AC$MASS_SPECTROMETRY: IONIZATION ESI
AC$MASS_SPECTROMETRY: FRAGMENTATION_MODE HCD
AC$MASS_SPECTROMETRY: COLLISION_ENERGY 60
AC$MASS_SPECTROMETRY: RESOLUTION 17500
AC$CHROMATOGRAPHY: COLUMN_NAME Acquity BEH C18 1.7um, 2.1x150mm (Waters)
AC$CHROMATOGRAPHY: FLOW_GRADIENT 90/10 at 0-2 min, 0/100 at 15-20 min, 90/10 at 20.1-30 min
AC$CHROMATOGRAPHY: FLOW_RATE 0.20 mL/min
AC$CHROMATOGRAPHY: RETENTION_TIME 8.081 min
AC$CHROMATOGRAPHY: SOLVENT A 0.1% formic acid
AC$CHROMATOGRAPHY: SOLVENT B methanol
MS$FOCUSED_ION: BASE_PEAK 218.1034
MS$FOCUSED_ION: PRECURSOR_M/Z 218.1034
MS$FOCUSED_ION: PRECURSOR_TYPE [M-H]-
MS$FOCUSED_ION: PRECURSOR_INTENSITY 4308113.181885
MS$DATA_PROCESSING: RECALIBRATE loess on assigned fragments and MS1
MS$DATA_PROCESSING: REANALYZE Peaks with additional N2/O included
MS$DATA_PROCESSING: WHOLE RMassBank 2.99.2
PK$SPLASH: splash10-00ds-9100000000-a63502fe71fbb9dd5acc
PK$ANNOTATION: m/z tentative_formula formula_count mass error(ppm)
  59.0139 C2H3O2- 1 59.0139 0.01
  60.0091 CH2NO2- 1 60.0091 -0.41
  71.0139 C3H3O2- 1 71.0139 0.63
  71.0503 C4H7O- 1 71.0502 0.5
  72.0092 C2H2NO2- 1 72.0091 0.72
  72.0455 C3H6NO- 1 72.0455 0.49
  88.0404 C3H6NO2- 1 88.0404 0.26
  98.0612 C5H8NO- 1 98.0611 0.42
  99.0452 C5H7O2- 1 99.0452 0.71
  116.0351 C4H6NO3- 1 116.0353 -1.5
  116.0717 C5H10NO2- 1 116.0717 0.07
  129.0556 C6H9O3- 1 129.0557 -0.87
  146.0823 C6H12NO3- 1 146.0823 0.23
PK$NUM_PEAK: 13
PK$PEAK: m/z int. rel.int.
  59.0139 31765.6 76
  60.0091 1704.8 4
  71.0139 106858.4 256
  71.0503 416271.8 999
  72.0092 22009.8 52
  72.0455 5706.9 13
  88.0404 395006.9 947
  98.0612 9196.5 22
  99.0452 136198.2 326
  116.0351 3903.8 9
  116.0717 33341.5 80
  129.0556 6698.7 16
  146.0823 140373.1 336
//
