ACCESSION: MSBNK-LCSB-LU047153
RECORD_TITLE: Karbutilate; LC-ESI-QFT; MS2; CE: 45; R=17500; [M-H]-
DATE: 2020.08.19
AUTHORS: Elapavalore, A.; Kondić, T.; Singh, R.; Schymanski, E.
LICENSE: CC BY
COPYRIGHT: Copyright © 2019 by Environmental Cheminformatics, LCSB, University of Luxembourg, Luxembourg
PUBLICATION: Elapavalore, A.; Kondić, T.; et al., Adding Open Spectral Data to MassBank and PubChem Using Open Source Tools to Support Non-Targeted Exposomics of Mixtures (submitted).
PROJECT: ENTACT U.S. Environmental Protection Agency’s Non-Targeted Analysis Collaborative Trial
COMMENT: CONFIDENCE standard compound
COMMENT: INTERNAL_ID 471
COMMENT: DATASET 20200303_ENTACT_RP_MIX506
COMMENT: DATA_PROCESSING MERGING RMBmix ver. 0.2.7
COMMENT: DATA_PROCESSING PRESCREENING Shinyscreen ver. 0.8.0
COMMENT: ORIGINAL_ACQUISITION_NO 3871
COMMENT: ORIGINAL_PRECURSOR_SCAN_NO 3866
COMMENT: RAW_DATA available as MSV000091754 at [DOI:10.25345/C5S46HG75]
CH$NAME: Karbutilate
CH$NAME: [3-(dimethylcarbamoylamino)phenyl] N-tert-butylcarbamate
CH$COMPOUND_CLASS: N/A; Environmental Standard
CH$FORMULA: C14H21N3O3
CH$EXACT_MASS: 279.1583
CH$SMILES: CN(C)C(=O)NC1=CC=CC(OC(=O)NC(C)(C)C)=C1
CH$IUPAC: InChI=1S/C14H21N3O3/c1-14(2,3)16-13(19)20-11-8-6-7-10(9-11)15-12(18)17(4)5/h6-9H,1-5H3,(H,15,18)(H,16,19)
CH$LINK: CAS 4849-32-5
CH$LINK: PUBCHEM CID:312440
CH$LINK: INCHIKEY OWNAXTAAAQTBSP-UHFFFAOYSA-N
CH$LINK: CHEMSPIDER 276300
AC$INSTRUMENT: Q Exactive Orbitrap (Thermo Scientific)
AC$INSTRUMENT_TYPE: LC-ESI-QFT
AC$MASS_SPECTROMETRY: MS_TYPE MS2
AC$MASS_SPECTROMETRY: ION_MODE NEGATIVE
AC$MASS_SPECTROMETRY: IONIZATION ESI
AC$MASS_SPECTROMETRY: FRAGMENTATION_MODE HCD
AC$MASS_SPECTROMETRY: COLLISION_ENERGY 45
AC$MASS_SPECTROMETRY: RESOLUTION 17500
AC$CHROMATOGRAPHY: COLUMN_NAME Acquity BEH C18 1.7um, 2.1x150mm (Waters)
AC$CHROMATOGRAPHY: FLOW_GRADIENT 90/10 at 0-2 min, 0/100 at 15-20 min, 90/10 at 20.1-30 min
AC$CHROMATOGRAPHY: FLOW_RATE 0.20 mL/min
AC$CHROMATOGRAPHY: RETENTION_TIME 15.120 min
AC$CHROMATOGRAPHY: SOLVENT A 0.1% formic acid
AC$CHROMATOGRAPHY: SOLVENT B methanol
MS$FOCUSED_ION: BASE_PEAK 112.9857
MS$FOCUSED_ION: PRECURSOR_M/Z 278.151
MS$FOCUSED_ION: PRECURSOR_TYPE [M-H]-
MS$FOCUSED_ION: PRECURSOR_INTENSITY 552797.3691406
MS$DATA_PROCESSING: RECALIBRATE loess on assigned fragments and MS1
MS$DATA_PROCESSING: REANALYZE Peaks with additional N2/O included
MS$DATA_PROCESSING: WHOLE RMassBank 2.99.2
PK$SPLASH: splash10-001i-0900000000-6f77b7cc2e572a829264
PK$ANNOTATION: m/z tentative_formula formula_count mass error(ppm)
  134.0248 C7H4NO2- 1 134.0248 0.48
  179.0827 C9H11N2O2- 1 179.0826 0.42
PK$NUM_PEAK: 2
PK$PEAK: m/z int. rel.int.
  134.0248 132643.3 999
  179.0827 22710.3 171
//
