ACCESSION: MSBNK-LCSB-LU128502
RECORD_TITLE: 4,4`-Methylenebis(N,N-dimethylaniline); LC-ESI-QFT; MS2; CE: 30; R=17500; [M+H]+
DATE: 2020.08.19
AUTHORS: Elapavalore, A.; Kondić, T.; Singh, R.; Schymanski, E.
LICENSE: CC BY
COPYRIGHT: Copyright © 2019 by Environmental Cheminformatics, LCSB, University of Luxembourg, Luxembourg
PUBLICATION: Elapavalore, A.; Kondić, T.; et al., Adding Open Spectral Data to MassBank and PubChem Using Open Source Tools to Support Non-Targeted Exposomics of Mixtures (submitted).
PROJECT: ENTACT U.S. Environmental Protection Agency’s Non-Targeted Analysis Collaborative Trial
COMMENT: CONFIDENCE standard compound
COMMENT: INTERNAL_ID 1285
COMMENT: DATASET 20200303_ENTACT_RP_MIX504
COMMENT: DATA_PROCESSING MERGING RMBmix ver. 0.2.7
COMMENT: DATA_PROCESSING PRESCREENING Shinyscreen ver. 0.8.0
COMMENT: ORIGINAL_ACQUISITION_NO 5478
COMMENT: ORIGINAL_PRECURSOR_SCAN_NO 5477
COMMENT: RAW_DATA available as MSV000091754 at [DOI:10.25345/C5S46HG75]
CH$NAME: 4,4'-Methylenebis(N,N-dimethylaniline)
CH$NAME: 4-[[4-(dimethylamino)phenyl]methyl]-N,N-dimethylaniline
CH$COMPOUND_CLASS: N/A; Environmental Standard
CH$FORMULA: C17H22N2
CH$EXACT_MASS: 254.1783
CH$SMILES: CN(C)C1=CC=C(CC2=CC=C(C=C2)N(C)C)C=C1
CH$IUPAC: InChI=1S/C17H22N2/c1-18(2)16-9-5-14(6-10-16)13-15-7-11-17(12-8-15)19(3)4/h5-12H,13H2,1-4H3
CH$LINK: CAS 101-61-1
CH$LINK: CHEBI CHEBI:34370
CH$LINK: KEGG C14135
CH$LINK: PUBCHEM CID:7567
CH$LINK: INCHIKEY JNRLEMMIVRBKJE-UHFFFAOYSA-N
CH$LINK: CHEMSPIDER 21106506
AC$INSTRUMENT: Q Exactive Orbitrap (Thermo Scientific)
AC$INSTRUMENT_TYPE: LC-ESI-QFT
AC$MASS_SPECTROMETRY: MS_TYPE MS2
AC$MASS_SPECTROMETRY: ION_MODE POSITIVE
AC$MASS_SPECTROMETRY: IONIZATION ESI
AC$MASS_SPECTROMETRY: FRAGMENTATION_MODE HCD
AC$MASS_SPECTROMETRY: COLLISION_ENERGY 30
AC$MASS_SPECTROMETRY: RESOLUTION 17500
AC$CHROMATOGRAPHY: COLUMN_NAME Acquity BEH C18 1.7um, 2.1x150mm (Waters)
AC$CHROMATOGRAPHY: FLOW_GRADIENT 90/10 at 0-2 min, 0/100 at 15-20 min, 90/10 at 20.1-30 min
AC$CHROMATOGRAPHY: FLOW_RATE 0.20 mL/min
AC$CHROMATOGRAPHY: RETENTION_TIME 10.439 min
AC$CHROMATOGRAPHY: SOLVENT A 0.1% formic acid
AC$CHROMATOGRAPHY: SOLVENT B methanol
MS$FOCUSED_ION: BASE_PEAK 79.0212
MS$FOCUSED_ION: PRECURSOR_M/Z 255.1856
MS$FOCUSED_ION: PRECURSOR_TYPE [M+H]+
MS$FOCUSED_ION: PRECURSOR_INTENSITY 25792515.5
MS$DATA_PROCESSING: RECALIBRATE loess on assigned fragments and MS1
MS$DATA_PROCESSING: REANALYZE Peaks with additional N2/O included
MS$DATA_PROCESSING: WHOLE RMassBank 2.99.2
PK$SPLASH: splash10-0a4i-0090000000-435c6a9849adb4b468fe
PK$ANNOTATION: m/z tentative_formula formula_count mass error(ppm)
  120.0804 C8H10N+ 1 120.0808 -2.72
  134.0962 C9H12N+ 1 134.0964 -1.71
  196.1121 C14H14N+ 1 196.1121 0.24
  210.1275 C15H16N+ 1 210.1277 -0.89
  225.1378 C15H17N2+ 1 225.1386 -3.48
  239.154 C16H19N2+ 1 239.1543 -1.14
  240.162 C16H20N2+ 1 240.1621 -0.29
  255.1854 C17H23N2+ 1 255.1856 -0.73
PK$NUM_PEAK: 8
PK$PEAK: m/z int. rel.int.
  120.0804 55394.5 3
  134.0962 158117.8 9
  196.1121 93197.6 5
  210.1275 66278.4 3
  225.1378 23586.1 1
  239.154 236124.9 13
  240.162 7644951.5 441
  255.1854 17294460 999
//
