ACCESSION: MSBNK-LCSB-LU035656
RECORD_TITLE: Ethirimol; LC-ESI-QFT; MS2; CE: 90; R=17500; [M-H]-
DATE: 2020.08.19
AUTHORS: Elapavalore, A.; Kondić, T.; Singh, R.; Schymanski, E.
LICENSE: CC BY
COPYRIGHT: Copyright © 2019 by Environmental Cheminformatics, LCSB, University of Luxembourg, Luxembourg
PUBLICATION: Elapavalore, A.; Kondić, T.; et al., Adding Open Spectral Data to MassBank and PubChem Using Open Source Tools to Support Non-Targeted Exposomics of Mixtures (submitted).
PROJECT: ENTACT U.S. Environmental Protection Agency’s Non-Targeted Analysis Collaborative Trial
COMMENT: CONFIDENCE standard compound
COMMENT: INTERNAL_ID 356
COMMENT: DATASET 20200303_ENTACT_RP_MIX505
COMMENT: DATA_PROCESSING MERGING RMBmix ver. 0.2.7
COMMENT: DATA_PROCESSING PRESCREENING Shinyscreen ver. 0.8.0
COMMENT: ORIGINAL_ACQUISITION_NO 3299
COMMENT: ORIGINAL_PRECURSOR_SCAN_NO 3296
COMMENT: RAW_DATA available as MSV000091754 at [DOI:10.25345/C5S46HG75]
CH$NAME: Ethirimol
CH$NAME: 5-butyl-2-(ethylamino)-6-methyl-1H-pyrimidin-4-one
CH$COMPOUND_CLASS: N/A; Environmental Standard
CH$FORMULA: C11H19N3O
CH$EXACT_MASS: 209.1528
CH$SMILES: CCCCC1=C(O)N=C(NCC)N=C1C
CH$IUPAC: InChI=1S/C11H19N3O/c1-4-6-7-9-8(3)13-11(12-5-2)14-10(9)15/h4-7H2,1-3H3,(H2,12,13,14,15)
CH$LINK: CAS 23947-60-6
CH$LINK: CHEBI CHEBI:81989
CH$LINK: CHEMSPIDER 29820
CH$LINK: INCHIKEY BBXXLROWFHWFQY-UHFFFAOYSA-N
CH$LINK: KEGG C18828
CH$LINK: PUBCHEM CID:135424354
AC$INSTRUMENT: Q Exactive Orbitrap (Thermo Scientific)
AC$INSTRUMENT_TYPE: LC-ESI-QFT
AC$MASS_SPECTROMETRY: MS_TYPE MS2
AC$MASS_SPECTROMETRY: ION_MODE NEGATIVE
AC$MASS_SPECTROMETRY: IONIZATION ESI
AC$MASS_SPECTROMETRY: FRAGMENTATION_MODE HCD
AC$MASS_SPECTROMETRY: COLLISION_ENERGY 90
AC$MASS_SPECTROMETRY: RESOLUTION 17500
AC$CHROMATOGRAPHY: COLUMN_NAME Acquity BEH C18 1.7um, 2.1x150mm (Waters)
AC$CHROMATOGRAPHY: FLOW_GRADIENT 90/10 at 0-2 min, 0/100 at 15-20 min, 90/10 at 20.1-30 min
AC$CHROMATOGRAPHY: FLOW_RATE 0.20 mL/min
AC$CHROMATOGRAPHY: RETENTION_TIME 13.213 min
AC$CHROMATOGRAPHY: SOLVENT A 0.1% formic acid
AC$CHROMATOGRAPHY: SOLVENT B methanol
MS$FOCUSED_ION: BASE_PEAK 118.0298
MS$FOCUSED_ION: PRECURSOR_M/Z 208.1455
MS$FOCUSED_ION: PRECURSOR_TYPE [M-H]-
MS$FOCUSED_ION: PRECURSOR_INTENSITY 13309989.62256
MS$DATA_PROCESSING: RECALIBRATE loess on assigned fragments and MS1
MS$DATA_PROCESSING: REANALYZE Peaks with additional N2/O included
MS$DATA_PROCESSING: WHOLE RMassBank 2.99.2
PK$SPLASH: splash10-014i-9000000000-314d012142c065df36a5
PK$ANNOTATION: m/z tentative_formula formula_count mass error(ppm)
  67.0302 C3H3N2- 1 67.0302 0.55
  69.0458 C3H5N2- 1 69.0458 0.38
  82.0298 C4H4NO- 1 82.0298 -0.5
  82.041 C3H4N3- 1 82.0411 -0.44
  93.0459 C5H5N2- 1 93.0458 0.39
  97.0659 C6H9O- 2 97.0659 -0.3
  107.0615 C6H7N2- 1 107.0615 0.14
  121.0772 C7H9N2- 1 121.0771 0.87
  123.0568 C6H7N2O- 1 123.0564 3.1
  136.0516 C6H6N3O- 1 136.0516 0
  137.0594 C6H7N3O- 1 137.0595 -0.2
  137.1084 C8H13N2- 1 137.1084 0.05
  148.0517 C7H6N3O- 1 148.0516 0.52
  149.0597 C7H7N3O- 1 149.0595 1.77
  150.0673 C7H8N3O- 1 150.0673 0.25
  162.1038 C9H12N3- 2 162.1037 0.83
  164.0831 C8H10N3O- 1 164.0829 0.72
  180.1143 C9H14N3O- 1 180.1142 0.33
PK$NUM_PEAK: 18
PK$PEAK: m/z int. rel.int.
  67.0302 75822.9 41
  69.0458 1808628.4 999
  82.0298 6008.7 3
  82.041 4201.8 2
  93.0459 119453.6 65
  97.0659 2483.5 1
  107.0615 10728.1 5
  121.0772 7117.8 3
  123.0568 2218 1
  136.0516 79189 43
  137.0594 5667.9 3
  137.1084 25033.4 13
  148.0517 3642.2 2
  149.0597 3652.2 2
  150.0673 26928.3 14
  162.1038 3189.3 1
  164.0831 4397.8 2
  180.1143 6835.6 3
//
