ACCESSION: MSBNK-LCSB-LU049256
RECORD_TITLE: Diflubenzuron; LC-ESI-QFT; MS2; CE: 90; R=17500; [M-H]-
DATE: 2020.08.19
AUTHORS: Elapavalore, A.; Kondić, T.; Singh, R.; Schymanski, E.
LICENSE: CC BY
COPYRIGHT: Copyright © 2019 by Environmental Cheminformatics, LCSB, University of Luxembourg, Luxembourg
PUBLICATION: Elapavalore, A.; Kondić, T.; et al., Adding Open Spectral Data to MassBank and PubChem Using Open Source Tools to Support Non-Targeted Exposomics of Mixtures (submitted).
PROJECT: ENTACT U.S. Environmental Protection Agency’s Non-Targeted Analysis Collaborative Trial
COMMENT: CONFIDENCE standard compound
COMMENT: INTERNAL_ID 492
COMMENT: DATASET 20200303_ENTACT_RP_MIX506
COMMENT: DATA_PROCESSING MERGING RMBmix ver. 0.2.7
COMMENT: DATA_PROCESSING PRESCREENING Shinyscreen ver. 0.8.0
COMMENT: ORIGINAL_ACQUISITION_NO 5071
COMMENT: ORIGINAL_PRECURSOR_SCAN_NO 5069
COMMENT: RAW_DATA available as MSV000091754 at [DOI:10.25345/C5S46HG75]
CH$NAME: Diflubenzuron
CH$NAME: N-[(4-chlorophenyl)carbamoyl]-2,6-difluorobenzamide
CH$COMPOUND_CLASS: N/A; Environmental Standard
CH$FORMULA: C14H9ClF2N2O2
CH$EXACT_MASS: 310.0321
CH$SMILES: FC1=CC=CC(F)=C1C(=O)NC(=O)NC1=CC=C(Cl)C=C1
CH$IUPAC: InChI=1S/C14H9ClF2N2O2/c15-8-4-6-9(7-5-8)18-14(21)19-13(20)12-10(16)2-1-3-11(12)17/h1-7H,(H2,18,19,20,21)
CH$LINK: CAS 35367-38-5
CH$LINK: CHEBI CHEBI:34703
CH$LINK: KEGG D07829
CH$LINK: PUBCHEM CID:37123
CH$LINK: INCHIKEY QQQYTWIFVNKMRW-UHFFFAOYSA-N
CH$LINK: CHEMSPIDER 34065
AC$INSTRUMENT: Q Exactive Orbitrap (Thermo Scientific)
AC$INSTRUMENT_TYPE: LC-ESI-QFT
AC$MASS_SPECTROMETRY: MS_TYPE MS2
AC$MASS_SPECTROMETRY: ION_MODE NEGATIVE
AC$MASS_SPECTROMETRY: IONIZATION ESI
AC$MASS_SPECTROMETRY: FRAGMENTATION_MODE HCD
AC$MASS_SPECTROMETRY: COLLISION_ENERGY 90
AC$MASS_SPECTROMETRY: RESOLUTION 17500
AC$CHROMATOGRAPHY: COLUMN_NAME Acquity BEH C18 1.7um, 2.1x150mm (Waters)
AC$CHROMATOGRAPHY: FLOW_GRADIENT 90/10 at 0-2 min, 0/100 at 15-20 min, 90/10 at 20.1-30 min
AC$CHROMATOGRAPHY: FLOW_RATE 0.20 mL/min
AC$CHROMATOGRAPHY: RETENTION_TIME 18.369 min
AC$CHROMATOGRAPHY: SOLVENT A 0.1% formic acid
AC$CHROMATOGRAPHY: SOLVENT B methanol
MS$FOCUSED_ION: BASE_PEAK 292.098
MS$FOCUSED_ION: PRECURSOR_M/Z 309.0248
MS$FOCUSED_ION: PRECURSOR_TYPE [M-H]-
MS$FOCUSED_ION: PRECURSOR_INTENSITY 22283324.45117
MS$DATA_PROCESSING: RECALIBRATE loess on assigned fragments and MS1
MS$DATA_PROCESSING: REANALYZE Peaks with additional N2/O included
MS$DATA_PROCESSING: WHOLE RMassBank 2.99.2
PK$SPLASH: splash10-0006-9100000000-636fea77ea99dbbdf69d
PK$ANNOTATION: m/z tentative_formula formula_count mass error(ppm)
  73.0084 C6H- 1 73.0084 0.57
  93.0146 C6H2F- 2 93.0146 0.42
  113.0209 C6H3F2- 1 113.0208 0.43
  115.0301 C7H3N2- 2 115.0302 -0.77
  126.0116 C6H5ClN- 4 126.0116 0.27
  151.0068 C7H4ClN2- 4 151.0068 -0.02
PK$NUM_PEAK: 6
PK$PEAK: m/z int. rel.int.
  73.0084 129577.6 142
  93.0146 905564.3 999
  113.0209 135697.2 149
  115.0301 20650.3 22
  126.0116 35030.7 38
  151.0068 32100.1 35
//
