ACCESSION: MSBNK-LCSB-LU090653
RECORD_TITLE: 2,5-Dichlorophenol; LC-ESI-QFT; MS2; CE: 45; R=17500; [M-H]-
DATE: 2020.08.19
AUTHORS: Elapavalore, A.; Kondić, T.; Singh, R.; Schymanski, E.
LICENSE: CC BY
COPYRIGHT: Copyright © 2019 by Environmental Cheminformatics, LCSB, University of Luxembourg, Luxembourg
PUBLICATION: Elapavalore, A.; Kondić, T.; et al., Adding Open Spectral Data to MassBank and PubChem Using Open Source Tools to Support Non-Targeted Exposomics of Mixtures (submitted).
PROJECT: ENTACT U.S. Environmental Protection Agency’s Non-Targeted Analysis Collaborative Trial
COMMENT: CONFIDENCE standard compound
COMMENT: INTERNAL_ID 906
COMMENT: DATASET 20200303_ENTACT_RP_MIX506
COMMENT: DATA_PROCESSING MERGING RMBmix ver. 0.2.7
COMMENT: DATA_PROCESSING PRESCREENING Shinyscreen ver. 0.8.0
COMMENT: ORIGINAL_ACQUISITION_NO 4984
COMMENT: ORIGINAL_PRECURSOR_SCAN_NO 4981
COMMENT: RAW_DATA available as MSV000091754 at [DOI:10.25345/C5S46HG75]
CH$NAME: 2,5-Dichlorophenol
CH$COMPOUND_CLASS: N/A; Environmental Standard
CH$FORMULA: C6H4Cl2O
CH$EXACT_MASS: 161.9639
CH$SMILES: OC1=CC(Cl)=CC=C1Cl
CH$IUPAC: InChI=1S/C6H4Cl2O/c7-4-1-2-5(8)6(9)3-4/h1-3,9H
CH$LINK: CAS 583-78-8
CH$LINK: CHEBI CHEBI:27929
CH$LINK: KEGG C06602
CH$LINK: PUBCHEM CID:66
CH$LINK: INCHIKEY RANCECPPZPIPNO-UHFFFAOYSA-N
CH$LINK: CHEMSPIDER 65
AC$INSTRUMENT: Q Exactive Orbitrap (Thermo Scientific)
AC$INSTRUMENT_TYPE: LC-ESI-QFT
AC$MASS_SPECTROMETRY: MS_TYPE MS2
AC$MASS_SPECTROMETRY: ION_MODE NEGATIVE
AC$MASS_SPECTROMETRY: IONIZATION ESI
AC$MASS_SPECTROMETRY: FRAGMENTATION_MODE HCD
AC$MASS_SPECTROMETRY: COLLISION_ENERGY 45
AC$MASS_SPECTROMETRY: RESOLUTION 17500
AC$CHROMATOGRAPHY: COLUMN_NAME Acquity BEH C18 1.7um, 2.1x150mm (Waters)
AC$CHROMATOGRAPHY: FLOW_GRADIENT 90/10 at 0-2 min, 0/100 at 15-20 min, 90/10 at 20.1-30 min
AC$CHROMATOGRAPHY: FLOW_RATE 0.20 mL/min
AC$CHROMATOGRAPHY: RETENTION_TIME 18.134 min
AC$CHROMATOGRAPHY: SOLVENT A 0.1% formic acid
AC$CHROMATOGRAPHY: SOLVENT B methanol
MS$FOCUSED_ION: BASE_PEAK 291.1027
MS$FOCUSED_ION: PRECURSOR_M/Z 160.9566
MS$FOCUSED_ION: PRECURSOR_TYPE [M-H]-
MS$FOCUSED_ION: PRECURSOR_INTENSITY 10017392.97656
MS$DATA_PROCESSING: RECALIBRATE loess on assigned fragments and MS1
MS$DATA_PROCESSING: REANALYZE Peaks with additional N2/O included
MS$DATA_PROCESSING: WHOLE RMassBank 2.99.2
PK$SPLASH: splash10-03di-0900000000-288137ca4e1708039a76
PK$ANNOTATION: m/z tentative_formula formula_count mass error(ppm)
  89.0033 C6HO- 1 89.0033 0.11
  124.9799 C6H2ClO- 1 124.98 -0.2
  160.9566 C6H3Cl2O- 1 160.9566 -0.08
PK$NUM_PEAK: 3
PK$PEAK: m/z int. rel.int.
  89.0033 163751.8 49
  124.9799 1614705.4 489
  160.9566 3295722.8 999
//
