ACCESSION: MSBNK-LCSB-LU136653
RECORD_TITLE: Leflunomide; LC-ESI-QFT; MS2; CE: 45; R=17500; [M-H]-
DATE: 2020.08.19
AUTHORS: Elapavalore, A.; Kondić, T.; Singh, R.; Schymanski, E.
LICENSE: CC BY
COPYRIGHT: Copyright © 2019 by Environmental Cheminformatics, LCSB, University of Luxembourg, Luxembourg
PUBLICATION: Elapavalore, A.; Kondić, T.; et al., Adding Open Spectral Data to MassBank and PubChem Using Open Source Tools to Support Non-Targeted Exposomics of Mixtures (submitted).
PROJECT: ENTACT U.S. Environmental Protection Agency’s Non-Targeted Analysis Collaborative Trial
COMMENT: CONFIDENCE standard compound
COMMENT: INTERNAL_ID 1366
COMMENT: DATASET 20200303_ENTACT_RP_MIX504
COMMENT: DATA_PROCESSING MERGING RMBmix ver. 0.2.7
COMMENT: DATA_PROCESSING PRESCREENING Shinyscreen ver. 0.8.0
COMMENT: ORIGINAL_ACQUISITION_NO 4497
COMMENT: ORIGINAL_PRECURSOR_SCAN_NO 4495
COMMENT: RAW_DATA available as MSV000091754 at [DOI:10.25345/C5S46HG75]
CH$NAME: Leflunomide
CH$NAME: 5-methyl-N-[4-(trifluoromethyl)phenyl]-1,2-oxazole-4-carboxamide
CH$COMPOUND_CLASS: N/A; Environmental Standard
CH$FORMULA: C12H9F3N2O2
CH$EXACT_MASS: 270.0616
CH$SMILES: CC1=C(C=NO1)C(=O)NC1=CC=C(C=C1)C(F)(F)F
CH$IUPAC: InChI=1S/C12H9F3N2O2/c1-7-10(6-16-19-7)11(18)17-9-4-2-8(3-5-9)12(13,14)15/h2-6H,1H3,(H,17,18)
CH$LINK: CAS 75706-12-6
CH$LINK: CHEBI CHEBI:6402
CH$LINK: KEGG C07905
CH$LINK: PUBCHEM CID:3899
CH$LINK: INCHIKEY VHOGYURTWQBHIL-UHFFFAOYSA-N
CH$LINK: CHEMSPIDER 3762
AC$INSTRUMENT: Q Exactive Orbitrap (Thermo Scientific)
AC$INSTRUMENT_TYPE: LC-ESI-QFT
AC$MASS_SPECTROMETRY: MS_TYPE MS2
AC$MASS_SPECTROMETRY: ION_MODE NEGATIVE
AC$MASS_SPECTROMETRY: IONIZATION ESI
AC$MASS_SPECTROMETRY: FRAGMENTATION_MODE HCD
AC$MASS_SPECTROMETRY: COLLISION_ENERGY 45
AC$MASS_SPECTROMETRY: RESOLUTION 17500
AC$CHROMATOGRAPHY: COLUMN_NAME Acquity BEH C18 1.7um, 2.1x150mm (Waters)
AC$CHROMATOGRAPHY: FLOW_GRADIENT 90/10 at 0-2 min, 0/100 at 15-20 min, 90/10 at 20.1-30 min
AC$CHROMATOGRAPHY: FLOW_RATE 0.20 mL/min
AC$CHROMATOGRAPHY: RETENTION_TIME 17.631 min
AC$CHROMATOGRAPHY: SOLVENT A 0.1% formic acid
AC$CHROMATOGRAPHY: SOLVENT B methanol
MS$FOCUSED_ION: BASE_PEAK 269.0544
MS$FOCUSED_ION: PRECURSOR_M/Z 269.0543
MS$FOCUSED_ION: PRECURSOR_TYPE [M-H]-
MS$FOCUSED_ION: PRECURSOR_INTENSITY 159174113.166
MS$DATA_PROCESSING: RECALIBRATE loess on assigned fragments and MS1
MS$DATA_PROCESSING: REANALYZE Peaks with additional N2/O included
MS$DATA_PROCESSING: WHOLE RMassBank 2.99.2
PK$SPLASH: splash10-001i-9200000000-ec7a776f0f6c88c6bad9
PK$ANNOTATION: m/z tentative_formula formula_count mass error(ppm)
  64.0192 C4H2N- 1 64.0193 -0.97
  65.9986 C3NO- 1 65.9985 0.24
  82.0298 C4H4NO- 2 82.0298 0.05
  100.0193 C7H2N- 2 100.0193 0.38
  120.0256 C7H3FN- 2 120.0255 1.22
  138.0362 C7H5FNO- 3 138.0361 0.64
  140.0318 C7H4F2N- 2 140.0317 0.33
  160.038 C7H5F3N- 1 160.038 0.01
  185.033 C8H4F3N2- 2 185.0332 -1.23
  269.0544 C12H8F3N2O2- 1 269.0543 0.18
PK$NUM_PEAK: 10
PK$PEAK: m/z int. rel.int.
  64.0192 110408.7 2
  65.9986 2638254.5 66
  82.0298 39769060 999
  100.0193 42962.5 1
  120.0256 62157.2 1
  138.0362 182857 4
  140.0318 82394.9 2
  160.038 12635535 317
  185.033 50083.2 1
  269.0544 268734.5 6
//
