ACCESSION: MSBNK-LCSB-LU121301
RECORD_TITLE: Mecarbam; LC-ESI-QFT; MS2; CE: 15; R=17500; [M+H]+
DATE: 2020.08.19
AUTHORS: Elapavalore, A.; Kondić, T.; Singh, R.; Schymanski, E.
LICENSE: CC BY
COPYRIGHT: Copyright © 2019 by Environmental Cheminformatics, LCSB, University of Luxembourg, Luxembourg
PUBLICATION: Elapavalore, A.; Kondić, T.; et al., Adding Open Spectral Data to MassBank and PubChem Using Open Source Tools to Support Non-Targeted Exposomics of Mixtures (submitted).
PROJECT: ENTACT U.S. Environmental Protection Agency’s Non-Targeted Analysis Collaborative Trial
COMMENT: CONFIDENCE standard compound
COMMENT: INTERNAL_ID 1213
COMMENT: DATASET 20200303_ENTACT_RP_MIX504
COMMENT: DATA_PROCESSING MERGING RMBmix ver. 0.2.7
COMMENT: DATA_PROCESSING PRESCREENING Shinyscreen ver. 0.8.0
COMMENT: ORIGINAL_ACQUISITION_NO 9388
COMMENT: ORIGINAL_PRECURSOR_SCAN_NO 9384
COMMENT: RAW_DATA available as MSV000091754 at [DOI:10.25345/C5S46HG75]
CH$NAME: Mecarbam
CH$NAME: ethyl N-(2-diethoxyphosphinothioylsulfanylacetyl)-N-methylcarbamate
CH$COMPOUND_CLASS: N/A; Environmental Standard
CH$FORMULA: C10H20NO5PS2
CH$EXACT_MASS: 329.0521
CH$SMILES: CCOC(=O)N(C)C(=O)CSP(=S)(OCC)OCC
CH$IUPAC: InChI=1S/C10H20NO5PS2/c1-5-14-10(13)11(4)9(12)8-19-17(18,15-6-2)16-7-3/h5-8H2,1-4H3
CH$LINK: CAS 2595-54-2
CH$LINK: CHEBI CHEBI:38718
CH$LINK: KEGG C18661
CH$LINK: PUBCHEM CID:17434
CH$LINK: INCHIKEY KLGMSAOQDHLCOS-UHFFFAOYSA-N
CH$LINK: CHEMSPIDER 16491
AC$INSTRUMENT: Q Exactive Orbitrap (Thermo Scientific)
AC$INSTRUMENT_TYPE: LC-ESI-QFT
AC$MASS_SPECTROMETRY: MS_TYPE MS2
AC$MASS_SPECTROMETRY: ION_MODE POSITIVE
AC$MASS_SPECTROMETRY: IONIZATION ESI
AC$MASS_SPECTROMETRY: FRAGMENTATION_MODE HCD
AC$MASS_SPECTROMETRY: COLLISION_ENERGY 15
AC$MASS_SPECTROMETRY: RESOLUTION 17500
AC$CHROMATOGRAPHY: COLUMN_NAME Acquity BEH C18 1.7um, 2.1x150mm (Waters)
AC$CHROMATOGRAPHY: FLOW_GRADIENT 90/10 at 0-2 min, 0/100 at 15-20 min, 90/10 at 20.1-30 min
AC$CHROMATOGRAPHY: FLOW_RATE 0.20 mL/min
AC$CHROMATOGRAPHY: RETENTION_TIME 17.986 min
AC$CHROMATOGRAPHY: SOLVENT A 0.1% formic acid
AC$CHROMATOGRAPHY: SOLVENT B methanol
MS$FOCUSED_ION: BASE_PEAK 79.0211
MS$FOCUSED_ION: PRECURSOR_M/Z 330.0593
MS$FOCUSED_ION: PRECURSOR_TYPE [M+H]+
MS$FOCUSED_ION: PRECURSOR_INTENSITY 6921725.78125
MS$DATA_PROCESSING: RECALIBRATE loess on assigned fragments and MS1
MS$DATA_PROCESSING: REANALYZE Peaks with additional N2/O included
MS$DATA_PROCESSING: WHOLE RMassBank 2.99.2
PK$SPLASH: splash10-004i-0490000000-ce8bcdc31603d7673288
PK$ANNOTATION: m/z tentative_formula formula_count mass error(ppm)
  116.0343 C4H6NO3+ 1 116.0342 0.7
  170.97 C3H8O2PS2+ 2 170.9698 1.08
  198.9648 C4H8O3PS2+ 4 198.9647 0.68
  199.0012 C5H12O2PS2+ 2 199.0011 0.41
  226.996 C6H12O3PS2+ 4 226.996 -0.12
PK$NUM_PEAK: 5
PK$PEAK: m/z int. rel.int.
  116.0343 3816.8 98
  170.97 3137.1 80
  198.9648 5341.8 137
  199.0012 8044 207
  226.996 38805.1 999
//
