ACCESSION: MSBNK-LCSB-LU046604
RECORD_TITLE: Fluocinolone acetonide; LC-ESI-QFT; MS2; CE: 60; R=17500; [M+H]+
DATE: 2020.08.19
AUTHORS: Elapavalore, A.; Kondić, T.; Singh, R.; Schymanski, E.
LICENSE: CC BY
COPYRIGHT: Copyright © 2019 by Environmental Cheminformatics, LCSB, University of Luxembourg, Luxembourg
PUBLICATION: Elapavalore, A.; Kondić, T.; et al., Adding Open Spectral Data to MassBank and PubChem Using Open Source Tools to Support Non-Targeted Exposomics of Mixtures (submitted).
PROJECT: ENTACT U.S. Environmental Protection Agency’s Non-Targeted Analysis Collaborative Trial
COMMENT: CONFIDENCE standard compound
COMMENT: INTERNAL_ID 466
COMMENT: DATASET 20200303_ENTACT_RP_MIX506
COMMENT: DATA_PROCESSING MERGING RMBmix ver. 0.2.7
COMMENT: DATA_PROCESSING PRESCREENING Shinyscreen ver. 0.8.0
COMMENT: ORIGINAL_ACQUISITION_NO 8759
COMMENT: ORIGINAL_PRECURSOR_SCAN_NO 8757
COMMENT: RAW_DATA available as MSV000091754 at [DOI:10.25345/C5S46HG75]
CH$NAME: Fluocinolone acetonide
CH$NAME: (1S,2S,4R,8S,9S,11S,12R,13S,19S)-12,19-difluoro-11-hydroxy-8-(2-hydroxyacetyl)-6,6,9,13-tetramethyl-5,7-dioxapentacyclo[10.8.0.02,9.04,8.013,18]icosa-14,17-dien-16-one
CH$COMPOUND_CLASS: N/A; Environmental Standard
CH$FORMULA: C24H30F2O6
CH$EXACT_MASS: 452.2010
CH$SMILES: CC1(C)O[C@@H]2C[C@H]3[C@@H]4C[C@H](F)C5=CC(=O)C=C[C@]5(C)[C@@]4(F)[C@@H](O)C[C@]3(C)[C@@]2(O1)C(=O)CO
CH$IUPAC: InChI=1S/C24H30F2O6/c1-20(2)31-19-9-13-14-8-16(25)15-7-12(28)5-6-21(15,3)23(14,26)17(29)10-22(13,4)24(19,32-20)18(30)11-27/h5-7,13-14,16-17,19,27,29H,8-11H2,1-4H3/t13-,14-,16-,17-,19+,21-,22-,23-,24+/m0/s1
CH$LINK: CAS 67-73-2
CH$LINK: CHEBI CHEBI:31623
CH$LINK: KEGG D01825
CH$LINK: PUBCHEM CID:6215
CH$LINK: INCHIKEY FEBLZLNTKCEFIT-VSXGLTOVSA-N
CH$LINK: CHEMSPIDER 5980
AC$INSTRUMENT: Q Exactive Orbitrap (Thermo Scientific)
AC$INSTRUMENT_TYPE: LC-ESI-QFT
AC$MASS_SPECTROMETRY: MS_TYPE MS2
AC$MASS_SPECTROMETRY: ION_MODE POSITIVE
AC$MASS_SPECTROMETRY: IONIZATION ESI
AC$MASS_SPECTROMETRY: FRAGMENTATION_MODE HCD
AC$MASS_SPECTROMETRY: COLLISION_ENERGY 60
AC$MASS_SPECTROMETRY: RESOLUTION 17500
AC$CHROMATOGRAPHY: COLUMN_NAME Acquity BEH C18 1.7um, 2.1x150mm (Waters)
AC$CHROMATOGRAPHY: FLOW_GRADIENT 90/10 at 0-2 min, 0/100 at 15-20 min, 90/10 at 20.1-30 min
AC$CHROMATOGRAPHY: FLOW_RATE 0.20 mL/min
AC$CHROMATOGRAPHY: RETENTION_TIME 16.806 min
AC$CHROMATOGRAPHY: SOLVENT A 0.1% formic acid
AC$CHROMATOGRAPHY: SOLVENT B methanol
MS$FOCUSED_ION: BASE_PEAK 79.0211
MS$FOCUSED_ION: PRECURSOR_M/Z 453.2083
MS$FOCUSED_ION: PRECURSOR_TYPE [M+H]+
MS$FOCUSED_ION: PRECURSOR_INTENSITY 3566062.75
MS$DATA_PROCESSING: RECALIBRATE loess on assigned fragments and MS1
MS$DATA_PROCESSING: REANALYZE Peaks with additional N2/O included
MS$DATA_PROCESSING: WHOLE RMassBank 2.99.2
PK$SPLASH: splash10-00di-2940000000-fc76fd2325545f15fb27
PK$ANNOTATION: m/z tentative_formula formula_count mass error(ppm)
  53.0386 C4H5+ 1 53.0386 0.79
  55.0179 C3H3O+ 1 55.0178 0.25
  55.0542 C4H7+ 1 55.0542 -0.66
  57.0334 C3H5O+ 1 57.0335 -1.65
  59.0491 C3H7O+ 1 59.0491 0.01
  65.0386 C5H5+ 1 65.0386 0.68
  67.0542 C5H7+ 1 67.0542 -0.36
  69.0335 C4H5O+ 1 69.0335 0.23
  71.0128 C3H3O2+ 1 71.0128 0.72
  71.0491 C4H7O+ 1 71.0491 -0.68
  77.0384 C6H5+ 1 77.0386 -2.21
  79.0542 C6H7+ 2 79.0542 -0.01
  81.0334 C5H5O+ 2 81.0335 -0.63
  81.0699 C6H9+ 2 81.0699 -0.08
  83.0491 C5H7O+ 2 83.0491 -0.33
  87.0441 C4H7O2+ 2 87.0441 0.43
  91.0543 C7H7+ 2 91.0542 0.44
  93.0699 C7H9+ 2 93.0699 0.63
  94.0414 C6H6O+ 2 94.0413 0.66
  95.0492 C6H7O+ 2 95.0491 0.26
  95.0856 C7H11+ 2 95.0855 0.49
  97.0284 C5H5O2+ 2 97.0284 -0.16
  97.0449 C6H6F+ 2 97.0448 0.59
  97.0649 C6H9O+ 2 97.0648 1.01
  99.0605 C6H8F+ 2 99.0605 0.64
  101.0234 C4H5O3+ 2 101.0233 1.11
  103.0542 C8H7+ 2 103.0542 -0.15
  105.0699 C8H9+ 2 105.0699 0.43
  107.0492 C7H7O+ 2 107.0491 0.22
  107.0855 C8H11+ 2 107.0855 -0.01
  109.0449 C7H6F+ 2 109.0448 0.54
  109.0648 C7H9O+ 2 109.0648 -0.07
  111.044 C6H7O2+ 2 111.0441 -0.54
  111.0603 C7H8F+ 2 111.0605 -1.67
  111.0805 C7H11O+ 2 111.0804 0.21
  115.0389 C5H7O3+ 2 115.039 -0.77
  115.0542 C9H7+ 2 115.0542 0.12
  116.0621 C9H8+ 2 116.0621 0.22
  117.0699 C9H9+ 2 117.0699 0.25
  119.0492 C8H7O+ 2 119.0491 0.39
  119.0856 C9H11+ 2 119.0855 0.96
  121.0648 C8H9O+ 2 121.0648 0.13
  123.0441 C7H7O2+ 2 123.0441 -0.04
  123.0605 C8H8F+ 2 123.0605 0.3
  123.0803 C8H11O+ 2 123.0804 -1.41
  125.0598 C7H9O2+ 2 125.0597 1.06
  125.0761 C8H10F+ 2 125.0761 -0.43
  127.0552 C7H8FO+ 3 127.0554 -1.39
  128.062 C10H8+ 2 128.0621 -0.29
  129.0699 C10H9+ 2 129.0699 0.21
  130.0777 C10H10+ 2 130.0777 -0.13
  131.0492 C9H7O+ 2 131.0491 0.54
  131.0856 C10H11+ 2 131.0855 0.71
  132.0569 C9H8O+ 2 132.057 -0.25
  133.0648 C9H9O+ 2 133.0648 -0.11
  133.1012 C10H13+ 2 133.1012 -0.17
  135.0443 C8H7O2+ 2 135.0441 1.81
  135.0605 C9H8F+ 2 135.0605 0.03
  135.0804 C9H11O+ 2 135.0804 -0.18
  137.0597 C8H9O2+ 2 137.0597 0.26
  137.0762 C9H10F+ 2 137.0761 0.52
  139.0554 C8H8FO+ 3 139.0554 0.17
  139.0758 C8H11O2+ 3 139.0754 3.15
  141.0699 C11H9+ 2 141.0699 0.09
  142.0777 C11H10+ 2 142.0777 -0.22
  143.0854 C11H11+ 2 143.0855 -0.73
  144.0569 C10H8O+ 2 144.057 -0.75
  145.0648 C10H9O+ 2 145.0648 0.22
  146.0527 C10H7F+ 2 146.0526 0.74
  146.0727 C10H10O+ 2 146.0726 0.34
  147.0606 C10H8F+ 2 147.0605 1.06
  147.0804 C10H11O+ 2 147.0804 -0.16
  149.0594 C9H9O2+ 2 149.0597 -2.32
  149.0761 C10H10F+ 2 149.0761 -0.14
  151.0557 C9H8FO+ 3 151.0554 2.18
  152.0621 C12H8+ 3 152.0621 0.57
  153.07 C12H9+ 3 153.0699 0.89
  154.078 C12H10+ 3 154.0777 1.99
  155.0856 C12H11+ 3 155.0855 0.62
  157.0649 C11H9O+ 3 157.0648 0.71
  158.0727 C11H10O+ 3 158.0726 0.54
  159.0805 C11H11O+ 3 159.0804 0.08
  161.06 C10H9O2+ 3 161.0597 1.78
  161.0759 C11H10F+ 2 161.0761 -1.04
  161.0964 C11H13O+ 3 161.0961 1.82
  163.0556 C10H8FO+ 3 163.0554 1.12
  163.0752 C10H11O2+ 3 163.0754 -0.83
  165.0704 C13H9+ 3 165.0699 3.17
  166.0777 C13H10+ 3 166.0777 -0.23
  167.0854 C13H11+ 3 167.0855 -0.67
  168.0569 C12H8O+ 3 168.057 -0.5
  168.0932 C13H12+ 3 168.0934 -1.19
  169.0649 C12H9O+ 3 169.0648 0.51
  169.1008 C13H13+ 2 169.1012 -2.07
  170.0726 C12H10O+ 3 170.0726 -0.1
  171.0805 C12H11O+ 3 171.0804 0.27
  172.0881 C12H12O+ 3 172.0883 -1.13
  173.0762 C12H10F+ 2 173.0761 0.64
  173.0963 C12H13O+ 3 173.0961 1.18
  175.0754 C11H11O2+ 3 175.0754 0.29
  176.0632 C11H9FO+ 3 176.0632 -0.23
  177.0711 C11H10FO+ 3 177.071 0.31
  178.0777 C14H10+ 3 178.0777 0.05
  179.0856 C14H11+ 3 179.0855 0.16
  180.0936 C14H12+ 3 180.0934 1.61
  181.0653 C13H9O+ 3 181.0648 2.85
  181.1013 C14H13+ 3 181.1012 0.52
  182.0726 C13H10O+ 3 182.0726 0
  183.0806 C13H11O+ 3 183.0804 0.6
  183.1167 C14H15+ 3 183.1168 -0.61
  184.0883 C13H12O+ 3 184.0883 0.37
  185.0598 C12H9O2+ 3 185.0597 0.6
  185.0752 C13H10F+ 2 185.0761 -5.07
  185.0963 C13H13O+ 3 185.0961 1.21
  187.0755 C12H11O2+ 3 187.0754 0.55
  189.0708 C12H10FO+ 3 189.071 -0.97
  190.0776 C15H10+ 3 190.0777 -0.3
  191.086 C15H11+ 3 191.0855 2.59
  192.0933 C15H12+ 3 192.0934 -0.41
  193.1013 C15H13+ 3 193.1012 0.72
  194.0727 C14H10O+ 3 194.0726 0.62
  194.1089 C15H14+ 3 194.109 -0.52
  195.0806 C14H11O+ 3 195.0804 0.57
  195.117 C15H15+ 3 195.1168 0.68
  196.0883 C14H12O+ 3 196.0883 0.2
  197.0962 C14H13O+ 3 197.0961 0.69
  198.104 C14H14O+ 3 198.1039 0.32
  199.0754 C13H11O2+ 3 199.0754 0.31
  199.1119 C14H15O+ 3 199.1117 0.8
  202.0781 C16H10+ 3 202.0777 2.18
  203.0858 C16H11+ 3 203.0855 1.52
  204.0933 C16H12+ 3 204.0934 -0.48
  205.0653 C15H9O+ 3 205.0648 2.26
  205.1013 C16H13+ 3 205.1012 0.58
  206.073 C15H10O+ 3 206.0726 1.76
  206.1093 C16H14+ 3 206.109 1.42
  207.0804 C15H11O+ 3 207.0804 -0.14
  207.1172 C16H15+ 3 207.1168 1.74
  208.0884 C15H12O+ 3 208.0883 0.48
  209.0771 C12H11F2O+ 2 209.0772 -0.53
  209.0962 C15H13O+ 3 209.0961 0.5
  210.104 C15H14O+ 3 210.1039 0.45
  211.0755 C14H11O2+ 3 211.0754 0.52
  211.1117 C15H15O+ 3 211.1117 -0.39
  212.1197 C15H16O+ 3 212.1196 0.79
  213.0905 C14H13O2+ 3 213.091 -2.29
  215.0856 C17H11+ 3 215.0855 0.46
  216.0935 C17H12+ 3 216.0934 0.84
  217.1013 C17H13+ 3 217.1012 0.44
  218.0725 C16H10O+ 3 218.0726 -0.55
  218.109 C17H14+ 3 218.109 -0.17
  219.0805 C16H11O+ 3 219.0804 0.46
  219.1171 C17H15+ 3 219.1168 1.12
  220.0884 C16H12O+ 3 220.0883 0.76
  221.096 C16H13O+ 3 221.0961 -0.39
  222.104 C16H14O+ 3 222.1039 0.26
  223.1119 C16H15O+ 3 223.1117 0.63
  224.0833 C15H12O2+ 3 224.0832 0.48
  225.0913 C15H13O2+ 3 225.091 1.53
  225.1269 C16H17O+ 3 225.1274 -2.31
  226.0788 C15H11FO+ 3 226.0788 -0.22
  227.0858 C18H11+ 3 227.0855 1.28
  228.0935 C18H12+ 3 228.0934 0.63
  229.1014 C18H13+ 3 229.1012 0.79
  230.109 C18H14+ 3 230.109 0.08
  231.0805 C17H11O+ 3 231.0804 0.28
  231.1164 C18H15+ 3 231.1168 -1.87
  232.0886 C17H12O+ 3 232.0883 1.29
  233.0965 C17H13O+ 3 233.0961 1.57
  233.1321 C18H17+ 3 233.1325 -1.48
  234.1038 C17H14O+ 3 234.1039 -0.43
  235.0757 C16H11O2+ 3 235.0754 1.58
  235.1117 C17H15O+ 3 235.1117 -0.34
  236.0833 C16H12O2+ 3 236.0832 0.5
  236.1195 C17H16O+ 3 236.1196 -0.19
  237.0906 C16H13O2+ 3 237.091 -1.73
  237.1277 C17H17O+ 3 237.1274 1.26
  238.0983 C16H14O2+ 3 238.0988 -2.28
  239.1066 C16H15O2+ 3 239.1067 -0.33
  240.0939 C16H13FO+ 3 240.0945 -2.29
  241.1021 C16H14FO+ 3 241.1023 -0.99
  242.11 C16H15FO+ 3 242.1101 -0.71
  243.0806 C18H11O+ 3 243.0804 0.85
  243.1173 C19H15+ 3 243.1168 1.76
  244.0883 C18H12O+ 3 244.0883 0.19
  245.0964 C18H13O+ 3 245.0961 1.2
  245.1323 C19H17+ 3 245.1325 -0.64
  246.1039 C18H14O+ 3 246.1039 -0.27
  247.0757 C17H11O2+ 3 247.0754 1.33
  247.1117 C18H15O+ 3 247.1117 -0.06
  248.084 C14H13FO3+ 3 248.0843 -1.35
  248.1192 C18H16O+ 3 248.1196 -1.39
  249.0908 C17H13O2+ 3 249.091 -0.77
  249.1273 C18H17O+ 3 249.1274 -0.38
  250.0989 C17H14O2+ 3 250.0988 0.47
  251.1071 C17H15O2+ 3 251.1067 1.65
  251.1432 C18H19O+ 3 251.143 0.82
  253.1022 C17H14FO+ 3 253.1023 -0.32
  253.1225 C17H17O2+ 3 253.1223 0.83
  255.1163 C20H15+ 3 255.1168 -2.02
  257.0962 C19H13O+ 3 257.0961 0.39
  258.1039 C19H14O+ 3 258.1039 0.11
  259.1113 C19H15O+ 3 259.1117 -1.69
  260.1197 C19H16O+ 3 260.1196 0.5
  261.1275 C19H17O+ 3 261.1274 0.23
  262.0992 C18H14O2+ 3 262.0988 1.5
  263.0869 C18H12FO+ 3 263.0867 0.76
  263.1072 C18H15O2+ 3 263.1067 2.04
  264.1152 C15H17FO3+ 3 264.1156 -1.75
  273.1269 C20H17O+ 3 273.1274 -1.91
  274.0987 C19H14O2+ 3 274.0988 -0.35
  275.1068 C19H15O2+ 3 275.1067 0.4
  276.1146 C19H16O2+ 3 276.1145 0.36
  277.1039 C16H15F2O2+ 4 277.1035 1.58
  277.1222 C19H17O2+ 3 277.1223 -0.23
  279.1381 C19H19O2+ 3 279.138 0.57
  286.0989 C20H14O2+ 3 286.0988 0.3
  291.1378 C20H19O2+ 3 291.138 -0.52
PK$NUM_PEAK: 218
PK$PEAK: m/z int. rel.int.
  53.0386 14886.4 21
  55.0179 44262 64
  55.0542 8469.4 12
  57.0334 2178.9 3
  59.0491 94168.4 138
  65.0386 5947.5 8
  67.0542 21307 31
  69.0335 31078.8 45
  71.0128 3991.6 5
  71.0491 3099.5 4
  77.0384 4597.4 6
  79.0542 40304 59
  81.0334 8190.1 12
  81.0699 23790.7 34
  83.0491 7127 10
  87.0441 2905.7 4
  91.0543 125614.7 184
  93.0699 71471.1 104
  94.0414 2798.8 4
  95.0492 50609 74
  95.0856 19300.4 28
  97.0284 13231.3 19
  97.0449 4562.8 6
  97.0649 7619.4 11
  99.0605 7383.2 10
  101.0234 2709.2 3
  103.0542 28285.1 41
  105.0699 100991.9 148
  107.0492 18355.2 26
  107.0855 23362.8 34
  109.0449 13788.4 20
  109.0648 31837 46
  111.044 11423.5 16
  111.0603 3657.6 5
  111.0805 5856.6 8
  115.0389 7059.6 10
  115.0542 39234.9 57
  116.0621 6597 9
  117.0699 53140.7 77
  119.0492 8588.1 12
  119.0856 27693.5 40
  121.0648 680855.7 999
  123.0441 8070.3 11
  123.0605 12859.7 18
  123.0803 6531.1 9
  125.0598 3634.6 5
  125.0761 4627.7 6
  127.0552 5191.1 7
  128.062 31939.2 46
  129.0699 49429 72
  130.0777 2688.5 3
  131.0492 7539.3 11
  131.0856 28704.6 42
  132.0569 7813.6 11
  133.0648 37009.7 54
  133.1012 5731.8 8
  135.0443 10275.3 15
  135.0605 17883.6 26
  135.0804 44767.1 65
  137.0597 7716.6 11
  137.0762 33042.4 48
  139.0554 33022.7 48
  139.0758 3143.7 4
  141.0699 28687.3 42
  142.0777 9335.8 13
  143.0854 25581.9 37
  144.0569 11812.2 17
  145.0648 89674 131
  146.0527 10090.7 14
  146.0727 5300.7 7
  147.0606 7085.2 10
  147.0804 51808 76
  149.0594 2507 3
  149.0761 22604.5 33
  151.0557 3517.3 5
  152.0621 4741.8 6
  153.07 16532.3 24
  154.078 2986.1 4
  155.0856 19268.2 28
  157.0649 17211 25
  158.0727 24231.9 35
  159.0805 76384.5 112
  161.06 10991.7 16
  161.0759 4580.1 6
  161.0964 11554.1 16
  163.0556 10906.9 16
  163.0752 4418.9 6
  165.0704 32185.4 47
  166.0777 9358.8 13
  167.0854 18178.3 26
  168.0569 6261.2 9
  168.0932 3482.7 5
  169.0649 26441.2 38
  169.1008 4954 7
  170.0726 6963.2 10
  171.0805 91491.5 134
  172.0881 6708.2 9
  173.0762 6854.9 10
  173.0963 10216.9 14
  175.0754 8382.2 12
  176.0632 3086.1 4
  177.0711 22423.8 32
  178.0777 24094.9 35
  179.0856 36971.5 54
  180.0936 17747.3 26
  181.0653 23726.3 34
  181.1013 13777.5 20
  182.0726 19594 28
  183.0806 18302.3 26
  183.1167 6198.3 9
  184.0883 4898.2 7
  185.0598 27949.6 41
  185.0752 3074.5 4
  185.0963 14833.9 21
  187.0755 7869.9 11
  189.0708 19436.6 28
  190.0776 26042.9 38
  191.086 23563 34
  192.0933 18812.2 27
  193.1013 33616.5 49
  194.0727 14538.2 21
  194.1089 7162.9 10
  195.0806 39131.9 57
  195.117 16795.9 24
  196.0883 32611.3 47
  197.0962 45800.1 67
  198.104 5615 8
  199.0754 3856.4 5
  199.1119 5521.3 8
  202.0781 15648.1 22
  203.0858 29704.4 43
  204.0933 13896.6 20
  205.0653 13221.8 19
  205.1013 27577.7 40
  206.073 7330.9 10
  206.1093 8930.7 13
  207.0804 15432.4 22
  207.1172 15495.7 22
  208.0884 62691.8 91
  209.0771 3513.5 5
  209.0962 48896.9 71
  210.104 15322 22
  211.0755 6864.7 10
  211.1117 25448.3 37
  212.1197 11702.8 17
  213.0905 2729.5 4
  215.0856 26924.9 39
  216.0935 23359.5 34
  217.1013 16151.3 23
  218.0725 5450.1 7
  218.109 15149.1 22
  219.0805 24448.6 35
  219.1171 10441.1 15
  220.0884 21151.1 31
  221.096 41868.2 61
  222.104 46545.7 68
  223.1119 39382.6 57
  224.0833 9305.5 13
  225.0913 12205.3 17
  225.1269 5556.8 8
  226.0788 4571.8 6
  227.0858 8781 12
  228.0935 16338 23
  229.1014 18906.3 27
  230.109 19086.7 28
  231.0805 23738 34
  231.1164 12834.6 18
  232.0886 17812.6 26
  233.0965 38412.7 56
  233.1321 11045.1 16
  234.1038 24659.9 36
  235.0757 6513.7 9
  235.1117 49617.4 72
  236.0833 5419.9 7
  236.1195 11055.4 16
  237.0906 6345.5 9
  237.1277 10412.8 15
  238.0983 11897.8 17
  239.1066 5622.4 8
  240.0939 8267.4 12
  241.1021 6747.7 9
  242.11 2433.6 3
  243.0806 8076.7 11
  243.1173 12386.5 18
  244.0883 9079.3 13
  245.0964 27097.8 39
  245.1323 5541 8
  246.1039 41961.8 61
  247.0757 6457.7 9
  247.1117 18560.3 27
  248.084 3136.2 4
  248.1192 17365.7 25
  249.0908 7047.1 10
  249.1273 15346.5 22
  250.0989 4294.2 6
  251.1071 7983.8 11
  251.1432 6902.1 10
  253.1022 5033.8 7
  253.1225 5691 8
  255.1163 4360.3 6
  257.0962 6941.8 10
  258.1039 34211.6 50
  259.1113 17103.7 25
  260.1197 6655.4 9
  261.1275 20180.6 29
  262.0992 9912.4 14
  263.0869 3637.1 5
  263.1072 8330.3 12
  264.1152 6830.8 10
  273.1269 11155.8 16
  274.0987 7789.6 11
  275.1068 7322.8 10
  276.1146 6414.5 9
  277.1039 2267.6 3
  277.1222 6489.3 9
  279.1381 3802.1 5
  286.0989 3130.1 4
  291.1378 3845.5 5
//
