ACCESSION: MSBNK-LCSB-LU028455
RECORD_TITLE: 2-Chloro-4-nitrobenzamide; LC-ESI-QFT; MS2; CE: 75; R=17500; [M-H]-
DATE: 2020.08.19
AUTHORS: Elapavalore, A.; Kondić, T.; Singh, R.; Schymanski, E.
LICENSE: CC BY
COPYRIGHT: Copyright © 2019 by Environmental Cheminformatics, LCSB, University of Luxembourg, Luxembourg
PUBLICATION: Elapavalore, A.; Kondić, T.; et al., Adding Open Spectral Data to MassBank and PubChem Using Open Source Tools to Support Non-Targeted Exposomics of Mixtures (submitted).
PROJECT: ENTACT U.S. Environmental Protection Agency’s Non-Targeted Analysis Collaborative Trial
COMMENT: CONFIDENCE standard compound
COMMENT: INTERNAL_ID 284
COMMENT: DATASET 20200303_ENTACT_RP_MIX505
COMMENT: DATA_PROCESSING MERGING RMBmix ver. 0.2.7
COMMENT: DATA_PROCESSING PRESCREENING Shinyscreen ver. 0.8.0
COMMENT: ORIGINAL_ACQUISITION_NO 2956
COMMENT: ORIGINAL_PRECURSOR_SCAN_NO 2955
COMMENT: RAW_DATA available as MSV000091754 at [DOI:10.25345/C5S46HG75]
CH$NAME: 2-Chloro-4-nitrobenzamide
CH$NAME: Aklomide
CH$COMPOUND_CLASS: N/A; Environmental Standard
CH$FORMULA: C7H5ClN2O3
CH$EXACT_MASS: 199.9989
CH$SMILES: NC(=O)C1=C(Cl)C=C(C=C1)[N+]([O-])=O
CH$IUPAC: InChI=1S/C7H5ClN2O3/c8-6-3-4(10(12)13)1-2-5(6)7(9)11/h1-3H,(H2,9,11)
CH$LINK: CAS 3011-89-0
CH$LINK: CHEBI CHEBI:109542
CH$LINK: KEGG D02785
CH$LINK: PUBCHEM CID:2075
CH$LINK: INCHIKEY GFGSZUNNBQXGMK-UHFFFAOYSA-N
CH$LINK: CHEMSPIDER 1991
AC$INSTRUMENT: Q Exactive Orbitrap (Thermo Scientific)
AC$INSTRUMENT_TYPE: LC-ESI-QFT
AC$MASS_SPECTROMETRY: MS_TYPE MS2
AC$MASS_SPECTROMETRY: ION_MODE NEGATIVE
AC$MASS_SPECTROMETRY: IONIZATION ESI
AC$MASS_SPECTROMETRY: FRAGMENTATION_MODE HCD
AC$MASS_SPECTROMETRY: COLLISION_ENERGY 75
AC$MASS_SPECTROMETRY: RESOLUTION 17500
AC$CHROMATOGRAPHY: COLUMN_NAME Acquity BEH C18 1.7um, 2.1x150mm (Waters)
AC$CHROMATOGRAPHY: FLOW_GRADIENT 90/10 at 0-2 min, 0/100 at 15-20 min, 90/10 at 20.1-30 min
AC$CHROMATOGRAPHY: FLOW_RATE 0.20 mL/min
AC$CHROMATOGRAPHY: RETENTION_TIME 11.800 min
AC$CHROMATOGRAPHY: SOLVENT A 0.1% formic acid
AC$CHROMATOGRAPHY: SOLVENT B methanol
MS$FOCUSED_ION: BASE_PEAK 112.9857
MS$FOCUSED_ION: PRECURSOR_M/Z 198.9916
MS$FOCUSED_ION: PRECURSOR_TYPE [M-H]-
MS$FOCUSED_ION: PRECURSOR_INTENSITY 1882561.442627
MS$DATA_PROCESSING: RECALIBRATE loess on assigned fragments and MS1
MS$DATA_PROCESSING: REANALYZE Peaks with additional N2/O included
MS$DATA_PROCESSING: WHOLE RMassBank 2.99.2
PK$SPLASH: splash10-00dr-7900000000-9284d69e43f5feacccbe
PK$ANNOTATION: m/z tentative_formula formula_count mass error(ppm)
  50.0036 C3N- 1 50.0036 -0.88
  88.0068 C5N2- 1 88.0067 1.58
  122.9757 C5ClN2- 1 122.9755 1.27
PK$NUM_PEAK: 3
PK$PEAK: m/z int. rel.int.
  50.0036 3295.9 203
  88.0068 9636.3 594
  122.9757 16187.4 999
//
