ACCESSION: MSBNK-LCSB-LU022551
RECORD_TITLE: PharmaGSID_48507; LC-ESI-QFT; MS2; CE: 15; R=17500; [M-H]-
DATE: 2020.08.19
AUTHORS: Elapavalore, A.; Kondić, T.; Singh, R.; Schymanski, E.
LICENSE: CC BY
COPYRIGHT: Copyright © 2019 by Environmental Cheminformatics, LCSB, University of Luxembourg, Luxembourg
PUBLICATION: Elapavalore, A.; Kondić, T.; et al., Adding Open Spectral Data to MassBank and PubChem Using Open Source Tools to Support Non-Targeted Exposomics of Mixtures (submitted).
PROJECT: ENTACT U.S. Environmental Protection Agency’s Non-Targeted Analysis Collaborative Trial
COMMENT: CONFIDENCE standard compound
COMMENT: INTERNAL_ID 225
COMMENT: DATASET 20200303_ENTACT_RP_MIX505
COMMENT: DATA_PROCESSING MERGING RMBmix ver. 0.2.7
COMMENT: DATA_PROCESSING PRESCREENING Shinyscreen ver. 0.8.0
COMMENT: ORIGINAL_ACQUISITION_NO 4371
COMMENT: ORIGINAL_PRECURSOR_SCAN_NO 4369
COMMENT: RAW_DATA available as MSV000091754 at [DOI:10.25345/C5S46HG75]
CH$NAME: PharmaGSID_48507
CH$NAME: 5-(2,4-Difluorophenoxy)-2-[(2-hydroxy-2-methylpropyl)amino]-8-methylpyrido[2,3-d]pyrimidin-7(8H)-one
CH$COMPOUND_CLASS: N/A; Environmental Standard
CH$FORMULA: C18H18F2N4O3
CH$EXACT_MASS: 376.1347
CH$SMILES: CN1C(=O)C=C(OC2=C(F)C=C(F)C=C2)C2=C1N=C(NCC(C)(C)O)N=C2
CH$IUPAC: InChI=1S/C18H18F2N4O3/c1-18(2,26)9-22-17-21-8-11-14(7-15(25)24(3)16(11)23-17)27-13-5-4-10(19)6-12(13)20/h4-8,26H,9H2,1-3H3,(H,21,22,23)
CH$LINK: PUBCHEM CID:60196437
CH$LINK: INCHIKEY KOKXXPKAPFSRCR-UHFFFAOYSA-N
CH$LINK: CHEMSPIDER 34246695
AC$INSTRUMENT: Q Exactive Orbitrap (Thermo Scientific)
AC$INSTRUMENT_TYPE: LC-ESI-QFT
AC$MASS_SPECTROMETRY: MS_TYPE MS2
AC$MASS_SPECTROMETRY: ION_MODE NEGATIVE
AC$MASS_SPECTROMETRY: IONIZATION ESI
AC$MASS_SPECTROMETRY: FRAGMENTATION_MODE HCD
AC$MASS_SPECTROMETRY: COLLISION_ENERGY 15
AC$MASS_SPECTROMETRY: RESOLUTION 17500
AC$CHROMATOGRAPHY: COLUMN_NAME Acquity BEH C18 1.7um, 2.1x150mm (Waters)
AC$CHROMATOGRAPHY: FLOW_GRADIENT 90/10 at 0-2 min, 0/100 at 15-20 min, 90/10 at 20.1-30 min
AC$CHROMATOGRAPHY: FLOW_RATE 0.20 mL/min
AC$CHROMATOGRAPHY: RETENTION_TIME 16.608 min
AC$CHROMATOGRAPHY: SOLVENT A 0.1% formic acid
AC$CHROMATOGRAPHY: SOLVENT B methanol
MS$FOCUSED_ION: BASE_PEAK 206.007
MS$FOCUSED_ION: PRECURSOR_M/Z 375.1274
MS$FOCUSED_ION: PRECURSOR_TYPE [M-H]-
MS$FOCUSED_ION: PRECURSOR_INTENSITY 5487649.570312
MS$DATA_PROCESSING: RECALIBRATE loess on assigned fragments and MS1
MS$DATA_PROCESSING: REANALYZE Peaks with additional N2/O included
MS$DATA_PROCESSING: WHOLE RMassBank 2.99.2
PK$SPLASH: splash10-004i-0009000000-aaaef39140c93114132d
PK$ANNOTATION: m/z tentative_formula formula_count mass error(ppm)
  129.0155 C6H3F2O- 3 129.0157 -1.8
  176.0466 C8H6N3O2- 4 176.0466 0.13
  297.0798 C15H10FN4O2- 4 297.0793 1.52
  303.0699 C14H9F2N4O2- 3 303.0699 -0.15
  317.0855 C15H11F2N4O2- 3 317.0856 -0.23
  375.1275 C18H17F2N4O3- 1 375.1274 0.09
PK$NUM_PEAK: 6
PK$PEAK: m/z int. rel.int.
  129.0155 23607.4 6
  176.0466 3735.2 1
  297.0798 5447.1 1
  303.0699 34510.2 10
  317.0855 787670.9 233
  375.1275 3377074.5 999
//
