ACCESSION: MSBNK-LCSB-LU022301
RECORD_TITLE: SSR126768; LC-ESI-QFT; MS2; CE: 15; R=17500; [M+H]+
DATE: 2020.08.19
AUTHORS: Elapavalore, A.; Kondić, T.; Singh, R.; Schymanski, E.
LICENSE: CC BY
COPYRIGHT: Copyright © 2019 by Environmental Cheminformatics, LCSB, University of Luxembourg, Luxembourg
PUBLICATION: Elapavalore, A.; Kondić, T.; et al., Adding Open Spectral Data to MassBank and PubChem Using Open Source Tools to Support Non-Targeted Exposomics of Mixtures (submitted).
PROJECT: ENTACT U.S. Environmental Protection Agency’s Non-Targeted Analysis Collaborative Trial
COMMENT: CONFIDENCE standard compound
COMMENT: INTERNAL_ID 223
COMMENT: DATASET 20200303_ENTACT_RP_MIX505
COMMENT: DATA_PROCESSING MERGING RMBmix ver. 0.2.7
COMMENT: DATA_PROCESSING PRESCREENING Shinyscreen ver. 0.8.0
COMMENT: ORIGINAL_ACQUISITION_NO 9749
COMMENT: ORIGINAL_PRECURSOR_SCAN_NO 9744
COMMENT: RAW_DATA available as MSV000091754 at [DOI:10.25345/C5S46HG75]
CH$NAME: SSR126768
CH$NAME: 3-chloro-2-[(3R)-5-chloro-1-[(2,4-dimethoxyphenyl)methyl]-3-methyl-2-oxoindol-3-yl]-N-ethyl-N-(pyridin-3-ylmethyl)benzamide
CH$COMPOUND_CLASS: N/A; Environmental Standard
CH$FORMULA: C33H31Cl2N3O4
CH$EXACT_MASS: 603.1692
CH$SMILES: CCN(Cc1cccnc1)C(=O)c1cccc(Cl)c1[C@]1(C)C(=O)N(Cc2ccc(OC)cc2OC)c2ccc(Cl)cc21
CH$IUPAC: InChI=1S/C33H31Cl2N3O4/c1-5-37(19-21-8-7-15-36-18-21)31(39)25-9-6-10-27(35)30(25)33(2)26-16-23(34)12-14-28(26)38(32(33)40)20-22-11-13-24(41-3)17-29(22)42-4/h6-18H,5,19-20H2,1-4H3/t33-/m1/s1
CH$LINK: PUBCHEM CID:53316385
CH$LINK: INCHIKEY UNYCSANQWMNNCS-MGBGTMOVSA-N
CH$LINK: CHEMSPIDER 34246692
AC$INSTRUMENT: Q Exactive Orbitrap (Thermo Scientific)
AC$INSTRUMENT_TYPE: LC-ESI-QFT
AC$MASS_SPECTROMETRY: MS_TYPE MS2
AC$MASS_SPECTROMETRY: ION_MODE POSITIVE
AC$MASS_SPECTROMETRY: IONIZATION ESI
AC$MASS_SPECTROMETRY: FRAGMENTATION_MODE HCD
AC$MASS_SPECTROMETRY: COLLISION_ENERGY 15
AC$MASS_SPECTROMETRY: RESOLUTION 17500
AC$CHROMATOGRAPHY: COLUMN_NAME Acquity BEH C18 1.7um, 2.1x150mm (Waters)
AC$CHROMATOGRAPHY: FLOW_GRADIENT 90/10 at 0-2 min, 0/100 at 15-20 min, 90/10 at 20.1-30 min
AC$CHROMATOGRAPHY: FLOW_RATE 0.20 mL/min
AC$CHROMATOGRAPHY: RETENTION_TIME 18.525 min
AC$CHROMATOGRAPHY: SOLVENT A 0.1% formic acid
AC$CHROMATOGRAPHY: SOLVENT B methanol
MS$FOCUSED_ION: BASE_PEAK 79.0211
MS$FOCUSED_ION: PRECURSOR_M/Z 604.1764
MS$FOCUSED_ION: PRECURSOR_TYPE [M+H]+
MS$FOCUSED_ION: PRECURSOR_INTENSITY 8747418.25
MS$DATA_PROCESSING: RECALIBRATE loess on assigned fragments and MS1
MS$DATA_PROCESSING: REANALYZE Peaks with additional N2/O included
MS$DATA_PROCESSING: WHOLE RMassBank 2.99.2
PK$SPLASH: splash10-0udi-0800209000-4f8694b4ba9d94753c7c
PK$ANNOTATION: m/z tentative_formula formula_count mass error(ppm)
  121.0647 C8H9O+ 3 121.0648 -0.89
  151.0754 C9H11O2+ 6 151.0754 0.07
  466.1087 C25H22Cl2N3O2+ 7 466.1084 0.72
  604.1768 C33H32Cl2N3O4+ 1 604.1764 0.62
PK$NUM_PEAK: 4
PK$PEAK: m/z int. rel.int.
  121.0647 5085 1
  151.0754 4143077.2 901
  466.1087 1471088.8 320
  604.1768 4591430 999
//
