ACCESSION: MSBNK-LCSB-LU123102
RECORD_TITLE: Aplaviroc; LC-ESI-QFT; MS2; CE: 30; R=17500; [M+H]+
DATE: 2020.08.19
AUTHORS: Elapavalore, A.; Kondić, T.; Singh, R.; Schymanski, E.
LICENSE: CC BY
COPYRIGHT: Copyright © 2019 by Environmental Cheminformatics, LCSB, University of Luxembourg, Luxembourg
PUBLICATION: Elapavalore, A.; Kondić, T.; et al., Adding Open Spectral Data to MassBank and PubChem Using Open Source Tools to Support Non-Targeted Exposomics of Mixtures (submitted).
PROJECT: ENTACT U.S. Environmental Protection Agency’s Non-Targeted Analysis Collaborative Trial
COMMENT: CONFIDENCE standard compound
COMMENT: INTERNAL_ID 1231
COMMENT: DATASET 20200303_ENTACT_RP_MIX504
COMMENT: DATA_PROCESSING MERGING RMBmix ver. 0.2.7
COMMENT: DATA_PROCESSING PRESCREENING Shinyscreen ver. 0.8.0
COMMENT: ORIGINAL_ACQUISITION_NO 8356
COMMENT: ORIGINAL_PRECURSOR_SCAN_NO 8354
COMMENT: RAW_DATA available as MSV000091754 at [DOI:10.25345/C5S46HG75]
CH$NAME: Aplaviroc
CH$NAME: 4-[4-[[(3R)-1-butyl-3-[(R)-cyclohexyl(hydroxy)methyl]-2,5-dioxo-1,4,9-triazaspiro[5.5]undecan-9-yl]methyl]phenoxy]benzoic acid
CH$COMPOUND_CLASS: N/A; Environmental Standard
CH$FORMULA: C33H43N3O6
CH$EXACT_MASS: 577.3152
CH$SMILES: CCCCN1C(=O)[C@@H]([C@H](O)C2CCCCC2)NC(=O)C12CCN(Cc1ccc(Oc3ccc(C(=O)O)cc3)cc1)CC2
CH$IUPAC: InChI=1S/C33H43N3O6/c1-2-3-19-36-30(38)28(29(37)24-7-5-4-6-8-24)34-32(41)33(36)17-20-35(21-18-33)22-23-9-13-26(14-10-23)42-27-15-11-25(12-16-27)31(39)40/h9-16,24,28-29,37H,2-8,17-22H2,1H3,(H,34,41)(H,39,40)/t28-,29-/m1/s1
CH$LINK: CAS 674782-28-6
CH$LINK: PUBCHEM CID:3001322
CH$LINK: INCHIKEY GWNOTCOIYUNTQP-FQLXRVMXSA-N
CH$LINK: CHEMSPIDER 2272720
AC$INSTRUMENT: Q Exactive Orbitrap (Thermo Scientific)
AC$INSTRUMENT_TYPE: LC-ESI-QFT
AC$MASS_SPECTROMETRY: MS_TYPE MS2
AC$MASS_SPECTROMETRY: ION_MODE POSITIVE
AC$MASS_SPECTROMETRY: IONIZATION ESI
AC$MASS_SPECTROMETRY: FRAGMENTATION_MODE HCD
AC$MASS_SPECTROMETRY: COLLISION_ENERGY 30
AC$MASS_SPECTROMETRY: RESOLUTION 17500
AC$CHROMATOGRAPHY: COLUMN_NAME Acquity BEH C18 1.7um, 2.1x150mm (Waters)
AC$CHROMATOGRAPHY: FLOW_GRADIENT 90/10 at 0-2 min, 0/100 at 15-20 min, 90/10 at 20.1-30 min
AC$CHROMATOGRAPHY: FLOW_RATE 0.20 mL/min
AC$CHROMATOGRAPHY: RETENTION_TIME 16.012 min
AC$CHROMATOGRAPHY: SOLVENT A 0.1% formic acid
AC$CHROMATOGRAPHY: SOLVENT B methanol
MS$FOCUSED_ION: BASE_PEAK 79.0212
MS$FOCUSED_ION: PRECURSOR_M/Z 578.3225
MS$FOCUSED_ION: PRECURSOR_TYPE [M+H]+
MS$FOCUSED_ION: PRECURSOR_INTENSITY 7021371.5
MS$DATA_PROCESSING: RECALIBRATE loess on assigned fragments and MS1
MS$DATA_PROCESSING: REANALYZE Peaks with additional N2/O included
MS$DATA_PROCESSING: WHOLE RMassBank 2.99.2
PK$SPLASH: splash10-004i-0090000000-8ff7feb573bd488fde8d
PK$ANNOTATION: m/z tentative_formula formula_count mass error(ppm)
  56.0495 C3H6N+ 1 56.0495 1.01
  65.039 C5H5+ 1 65.0386 6
  110.0602 C6H8NO+ 1 110.06 1.32
  155.0855 C12H11+ 1 155.0855 -0.14
  181.0978 C9H13N2O2+ 1 181.0972 3.69
  183.1132 C9H15N2O2+ 1 183.1128 2.35
  227.0703 C14H11O3+ 3 227.0703 -0.02
  239.1633 C12H21N3O2+ 4 239.1628 2.01
  268.0972 C16H14NO3+ 3 268.0968 1.51
  277.1911 C16H25N2O2+ 3 277.1911 0.22
  295.2017 C16H27N2O3+ 4 295.2016 0.38
  466.2341 C26H32N3O5+ 4 466.2336 1.01
  578.3227 C33H44N3O6+ 1 578.3225 0.36
PK$NUM_PEAK: 13
PK$PEAK: m/z int. rel.int.
  56.0495 20968.7 1
  65.039 12559 1
  110.0602 21137.5 1
  155.0855 20274.1 1
  181.0978 14396.8 1
  183.1132 32558.7 2
  227.0703 11430203 999
  239.1633 21949.6 1
  268.0972 19775.5 1
  277.1911 77751.8 6
  295.2017 182721.8 15
  466.2341 258181.8 22
  578.3227 170474.5 14
//
