ACCESSION: MSBNK-LCSB-LU036606
RECORD_TITLE: Acetazolamide; LC-ESI-QFT; MS2; CE: 90; R=17500; [M+H]+
DATE: 2020.08.19
AUTHORS: Elapavalore, A.; Kondić, T.; Singh, R.; Schymanski, E.
LICENSE: CC BY
COPYRIGHT: Copyright © 2019 by Environmental Cheminformatics, LCSB, University of Luxembourg, Luxembourg
PUBLICATION: Elapavalore, A.; Kondić, T.; et al., Adding Open Spectral Data to MassBank and PubChem Using Open Source Tools to Support Non-Targeted Exposomics of Mixtures (submitted).
PROJECT: ENTACT U.S. Environmental Protection Agency’s Non-Targeted Analysis Collaborative Trial
COMMENT: CONFIDENCE standard compound
COMMENT: INTERNAL_ID 366
COMMENT: DATASET 20200303_ENTACT_RP_MIX505
COMMENT: DATA_PROCESSING MERGING RMBmix ver. 0.2.7
COMMENT: DATA_PROCESSING PRESCREENING Shinyscreen ver. 0.8.0
COMMENT: ORIGINAL_ACQUISITION_NO 4436
COMMENT: ORIGINAL_PRECURSOR_SCAN_NO 4434
COMMENT: RAW_DATA available as MSV000091754 at [DOI:10.25345/C5S46HG75]
CH$NAME: Acetazolamide
CH$NAME: N-(5-sulfamoyl-1,3,4-thiadiazol-2-yl)acetamide
CH$COMPOUND_CLASS: N/A; Environmental Standard
CH$FORMULA: C4H6N4O3S2
CH$EXACT_MASS: 221.9881
CH$SMILES: CC(=O)NC1=NN=C(S1)S(N)(=O)=O
CH$IUPAC: InChI=1S/C4H6N4O3S2/c1-2(9)6-3-7-8-4(12-3)13(5,10)11/h1H3,(H2,5,10,11)(H,6,7,9)
CH$LINK: CAS 59-66-5
CH$LINK: CHEBI CHEBI:27690
CH$LINK: KEGG D00218
CH$LINK: PUBCHEM CID:1986
CH$LINK: INCHIKEY BZKPWHYZMXOIDC-UHFFFAOYSA-N
CH$LINK: CHEMSPIDER 1909
AC$INSTRUMENT: Q Exactive Orbitrap (Thermo Scientific)
AC$INSTRUMENT_TYPE: LC-ESI-QFT
AC$MASS_SPECTROMETRY: MS_TYPE MS2
AC$MASS_SPECTROMETRY: ION_MODE POSITIVE
AC$MASS_SPECTROMETRY: IONIZATION ESI
AC$MASS_SPECTROMETRY: FRAGMENTATION_MODE HCD
AC$MASS_SPECTROMETRY: COLLISION_ENERGY 90
AC$MASS_SPECTROMETRY: RESOLUTION 17500
AC$CHROMATOGRAPHY: COLUMN_NAME Acquity BEH C18 1.7um, 2.1x150mm (Waters)
AC$CHROMATOGRAPHY: FLOW_GRADIENT 90/10 at 0-2 min, 0/100 at 15-20 min, 90/10 at 20.1-30 min
AC$CHROMATOGRAPHY: FLOW_RATE 0.20 mL/min
AC$CHROMATOGRAPHY: RETENTION_TIME 8.531 min
AC$CHROMATOGRAPHY: SOLVENT A 0.1% formic acid
AC$CHROMATOGRAPHY: SOLVENT B methanol
MS$FOCUSED_ION: BASE_PEAK 79.0211
MS$FOCUSED_ION: PRECURSOR_M/Z 222.9954
MS$FOCUSED_ION: PRECURSOR_TYPE [M+H]+
MS$FOCUSED_ION: PRECURSOR_INTENSITY 1480505.375
MS$DATA_PROCESSING: RECALIBRATE loess on assigned fragments and MS1
MS$DATA_PROCESSING: REANALYZE Peaks with additional N2/O included
MS$DATA_PROCESSING: WHOLE RMassBank 2.99.2
PK$SPLASH: splash10-00di-9100000000-5bd834171b5f190a57cf
PK$ANNOTATION: m/z tentative_formula formula_count mass error(ppm)
  56.0495 C3H6N+ 1 56.0495 -0.17
  57.9746 CNS+ 1 57.9746 -0.22
  58.9824 CHNS+ 1 58.9824 0.46
  59.9903 CH2NS+ 1 59.9902 0.67
  61.0106 C2H5S+ 1 61.0106 0.02
  63.9852 H2NOS+ 1 63.9852 0.01
  72.9855 CHN2S+ 1 72.9855 -0.18
  75.0011 CH3N2S+ 1 75.0011 0.04
  79.0212 C2H7OS+ 1 79.0212 -0.73
  79.9801 H2NO2S+ 1 79.9801 0.44
  99.9964 C2H2N3S+ 2 99.9964 0.01
  102.012 C2H4N3S+ 2 102.012 -0.89
  116.9663 H5O3S2+ 1 116.9675 -10.22
  118.9632 C3H3OS2+ 1 118.962 10.25
  130.982 CH7O3S2+ 1 130.9831 -8.64
  132.9788 C4H5OS2+ 1 132.9776 9.06
  180.9851 C2H5N4O2S2+ 2 180.9848 1.44
  181.9689 C2H4N3O3S2+ 1 181.9689 0.39
PK$NUM_PEAK: 18
PK$PEAK: m/z int. rel.int.
  56.0495 2366.7 8
  57.9746 6862.9 24
  58.9824 83952.7 297
  59.9903 35409.3 125
  61.0106 4689.9 16
  63.9852 20281.8 71
  72.9855 281911.8 999
  75.0011 3590.3 12
  79.0212 2611.1 9
  79.9801 8846.4 31
  99.9964 31732.7 112
  102.012 3342.8 11
  116.9663 15266.5 54
  118.9632 8718.8 30
  130.982 4174.9 14
  132.9788 4440.4 15
  180.9851 4875.9 17
  181.9689 52359.3 185
//
