ACCESSION: MSBNK-LCSB-LU025003
RECORD_TITLE: Michler`s ketone; LC-ESI-QFT; MS2; CE: 45; R=17500; [M+H]+
DATE: 2020.08.19
AUTHORS: Elapavalore, A.; Kondić, T.; Singh, R.; Schymanski, E.
LICENSE: CC BY
COPYRIGHT: Copyright © 2019 by Environmental Cheminformatics, LCSB, University of Luxembourg, Luxembourg
PUBLICATION: Elapavalore, A.; Kondić, T.; et al., Adding Open Spectral Data to MassBank and PubChem Using Open Source Tools to Support Non-Targeted Exposomics of Mixtures (submitted).
PROJECT: ENTACT U.S. Environmental Protection Agency’s Non-Targeted Analysis Collaborative Trial
COMMENT: CONFIDENCE standard compound
COMMENT: INTERNAL_ID 250
COMMENT: DATASET 20200303_ENTACT_RP_MIX505
COMMENT: DATA_PROCESSING MERGING RMBmix ver. 0.2.7
COMMENT: DATA_PROCESSING PRESCREENING Shinyscreen ver. 0.8.0
COMMENT: ORIGINAL_ACQUISITION_NO 9534
COMMENT: ORIGINAL_PRECURSOR_SCAN_NO 9532
COMMENT: RAW_DATA available as MSV000091754 at [DOI:10.25345/C5S46HG75]
CH$NAME: Michler's ketone
CH$NAME: bis[4-(dimethylamino)phenyl]methanone
CH$COMPOUND_CLASS: N/A; Environmental Standard
CH$FORMULA: C17H20N2O
CH$EXACT_MASS: 268.1576
CH$SMILES: CN(C)C1=CC=C(C=C1)C(=O)C1=CC=C(C=C1)N(C)C
CH$IUPAC: InChI=1S/C17H20N2O/c1-18(2)15-9-5-13(6-10-15)17(20)14-7-11-16(12-8-14)19(3)4/h5-12H,1-4H3
CH$LINK: CAS 96-98-0
CH$LINK: CHEBI CHEBI:82347
CH$LINK: KEGG C19266
CH$LINK: PUBCHEM CID:7031
CH$LINK: INCHIKEY VVBLNCFGVYUYGU-UHFFFAOYSA-N
CH$LINK: CHEMSPIDER 6764
AC$INSTRUMENT: Q Exactive Orbitrap (Thermo Scientific)
AC$INSTRUMENT_TYPE: LC-ESI-QFT
AC$MASS_SPECTROMETRY: MS_TYPE MS2
AC$MASS_SPECTROMETRY: ION_MODE POSITIVE
AC$MASS_SPECTROMETRY: IONIZATION ESI
AC$MASS_SPECTROMETRY: FRAGMENTATION_MODE HCD
AC$MASS_SPECTROMETRY: COLLISION_ENERGY 45
AC$MASS_SPECTROMETRY: RESOLUTION 17500
AC$CHROMATOGRAPHY: COLUMN_NAME Acquity BEH C18 1.7um, 2.1x150mm (Waters)
AC$CHROMATOGRAPHY: FLOW_GRADIENT 90/10 at 0-2 min, 0/100 at 15-20 min, 90/10 at 20.1-30 min
AC$CHROMATOGRAPHY: FLOW_RATE 0.20 mL/min
AC$CHROMATOGRAPHY: RETENTION_TIME 18.149 min
AC$CHROMATOGRAPHY: SOLVENT A 0.1% formic acid
AC$CHROMATOGRAPHY: SOLVENT B methanol
MS$FOCUSED_ION: BASE_PEAK 79.0211
MS$FOCUSED_ION: PRECURSOR_M/Z 269.1648
MS$FOCUSED_ION: PRECURSOR_TYPE [M+H]+
MS$FOCUSED_ION: PRECURSOR_INTENSITY 33732459
MS$DATA_PROCESSING: RECALIBRATE loess on assigned fragments and MS1
MS$DATA_PROCESSING: REANALYZE Peaks with additional N2/O included
MS$DATA_PROCESSING: WHOLE RMassBank 2.99.2
PK$SPLASH: splash10-0002-0900000000-c979887e29ec2c67daae
PK$ANNOTATION: m/z tentative_formula formula_count mass error(ppm)
  79.0542 C6H7+ 1 79.0542 -0.08
  81.0335 C5H5O+ 1 81.0335 -0.15
  91.0542 C7H7+ 1 91.0542 -0.17
  93.0698 C7H9+ 1 93.0699 -0.37
  96.0808 C6H10N+ 1 96.0808 0.39
  103.0541 C8H7+ 1 103.0542 -1
  105.0572 C7H7N+ 1 105.0573 -0.59
  118.0649 C8H8N+ 1 118.0651 -2.09
  120.0808 C8H10N+ 1 120.0808 0.42
  124.0753 C7H10NO+ 1 124.0757 -2.9
  148.0756 C9H10NO+ 1 148.0757 -0.33
  269.1649 C17H21N2O+ 1 269.1648 0.15
PK$NUM_PEAK: 12
PK$PEAK: m/z int. rel.int.
  79.0542 136042.5 4
  81.0335 34648.1 1
  91.0542 52951.1 1
  93.0698 47551.5 1
  96.0808 31215.9 1
  103.0541 36989.7 1
  105.0572 74434.9 2
  118.0649 29536.9 1
  120.0808 496400.2 17
  124.0753 34002 1
  148.0756 29085766 999
  269.1649 1389267 47
//
