ACCESSION: MSBNK-LCSB-LU048805
RECORD_TITLE: Nicotinic acid; LC-ESI-QFT; MS2; CE: 75; R=17500; [M+H]+
DATE: 2020.08.19
AUTHORS: Elapavalore, A.; Kondić, T.; Singh, R.; Schymanski, E.
LICENSE: CC BY
COPYRIGHT: Copyright © 2019 by Environmental Cheminformatics, LCSB, University of Luxembourg, Luxembourg
PUBLICATION: Elapavalore, A.; Kondić, T.; et al., Adding Open Spectral Data to MassBank and PubChem Using Open Source Tools to Support Non-Targeted Exposomics of Mixtures (submitted).
PROJECT: ENTACT U.S. Environmental Protection Agency’s Non-Targeted Analysis Collaborative Trial
COMMENT: CONFIDENCE standard compound
COMMENT: INTERNAL_ID 488
COMMENT: DATASET 20200303_ENTACT_RP_MIX506
COMMENT: DATA_PROCESSING MERGING RMBmix ver. 0.2.7
COMMENT: DATA_PROCESSING PRESCREENING Shinyscreen ver. 0.8.0
COMMENT: ORIGINAL_ACQUISITION_NO 1271
COMMENT: ORIGINAL_PRECURSOR_SCAN_NO 1269
COMMENT: RAW_DATA available as MSV000091754 at [DOI:10.25345/C5S46HG75]
CH$NAME: Nicotinic acid
CH$NAME: pyridine-3-carboxylic acid
CH$COMPOUND_CLASS: N/A; Environmental Standard
CH$FORMULA: C6H5NO2
CH$EXACT_MASS: 123.0320
CH$SMILES: OC(=O)C1=CC=CN=C1
CH$IUPAC: InChI=1S/C6H5NO2/c8-6(9)5-2-1-3-7-4-5/h1-4H,(H,8,9)
CH$LINK: CAS 59-67-6
CH$LINK: CHEBI CHEBI:15940
CH$LINK: KEGG D00049
CH$LINK: PUBCHEM CID:938
CH$LINK: INCHIKEY PVNIIMVLHYAWGP-UHFFFAOYSA-N
CH$LINK: CHEMSPIDER 913
AC$INSTRUMENT: Q Exactive Orbitrap (Thermo Scientific)
AC$INSTRUMENT_TYPE: LC-ESI-QFT
AC$MASS_SPECTROMETRY: MS_TYPE MS2
AC$MASS_SPECTROMETRY: ION_MODE POSITIVE
AC$MASS_SPECTROMETRY: IONIZATION ESI
AC$MASS_SPECTROMETRY: FRAGMENTATION_MODE HCD
AC$MASS_SPECTROMETRY: COLLISION_ENERGY 75
AC$MASS_SPECTROMETRY: RESOLUTION 17500
AC$CHROMATOGRAPHY: COLUMN_NAME Acquity BEH C18 1.7um, 2.1x150mm (Waters)
AC$CHROMATOGRAPHY: FLOW_GRADIENT 90/10 at 0-2 min, 0/100 at 15-20 min, 90/10 at 20.1-30 min
AC$CHROMATOGRAPHY: FLOW_RATE 0.20 mL/min
AC$CHROMATOGRAPHY: RETENTION_TIME 2.480 min
AC$CHROMATOGRAPHY: SOLVENT A 0.1% formic acid
AC$CHROMATOGRAPHY: SOLVENT B methanol
MS$FOCUSED_ION: BASE_PEAK 79.0211
MS$FOCUSED_ION: PRECURSOR_M/Z 124.0393
MS$FOCUSED_ION: PRECURSOR_TYPE [M+H]+
MS$FOCUSED_ION: PRECURSOR_INTENSITY 5104612.5
MS$DATA_PROCESSING: RECALIBRATE loess on assigned fragments and MS1
MS$DATA_PROCESSING: REANALYZE Peaks with additional N2/O included
MS$DATA_PROCESSING: WHOLE RMassBank 2.99.2
PK$SPLASH: splash10-00ea-9500000000-4abc627c427b20f4419d
PK$ANNOTATION: m/z tentative_formula formula_count mass error(ppm)
  52.0183 C3H2N+ 1 52.0182 1.59
  53.0386 C4H5+ 1 53.0386 0.72
  68.0495 C4H6N+ 1 68.0495 -0.36
  78.0338 C5H4N+ 1 78.0338 0.26
  79.0414 C5H5N+ 1 79.0417 -2.58
  80.0495 C5H6N+ 1 80.0495 -0.02
  96.0444 C5H6NO+ 1 96.0444 0.24
  106.0289 C6H4NO+ 1 106.0287 1.22
  111.0316 C5H5NO2+ 1 111.0315 1.07
  112.0394 C5H6NO2+ 1 112.0393 0.69
  122.0236 C6H4NO2+ 1 122.0237 -0.62
  124.0394 C6H6NO2+ 1 124.0393 0.57
PK$NUM_PEAK: 12
PK$PEAK: m/z int. rel.int.
  52.0183 9052.3 4
  53.0386 108897.6 51
  68.0495 52200.3 24
  78.0338 109419.8 51
  79.0414 12813 6
  80.0495 1787556.2 846
  96.0444 1379616.5 653
  106.0289 4911.6 2
  111.0316 8401.1 3
  112.0394 7100 3
  122.0236 9458.9 4
  124.0394 2109975.5 999
//
