ACCESSION: MSBNK-LCSB-LU073651
RECORD_TITLE: PharmaGSID_48516; LC-ESI-QFT; MS2; CE: 15; R=17500; [M-H]-
DATE: 2020.08.19
AUTHORS: Elapavalore, A.; Kondić, T.; Singh, R.; Schymanski, E.
LICENSE: CC BY
COPYRIGHT: Copyright © 2019 by Environmental Cheminformatics, LCSB, University of Luxembourg, Luxembourg
PUBLICATION: Elapavalore, A.; Kondić, T.; et al., Adding Open Spectral Data to MassBank and PubChem Using Open Source Tools to Support Non-Targeted Exposomics of Mixtures (submitted).
PROJECT: ENTACT U.S. Environmental Protection Agency’s Non-Targeted Analysis Collaborative Trial
COMMENT: CONFIDENCE standard compound
COMMENT: INTERNAL_ID 736
COMMENT: DATASET 20200303_ENTACT_RP_MIX506
COMMENT: DATA_PROCESSING MERGING RMBmix ver. 0.2.7
COMMENT: DATA_PROCESSING PRESCREENING Shinyscreen ver. 0.8.0
COMMENT: ORIGINAL_ACQUISITION_NO 4415
COMMENT: ORIGINAL_PRECURSOR_SCAN_NO 4412
COMMENT: RAW_DATA available as MSV000091754 at [DOI:10.25345/C5S46HG75]
CH$NAME: 2-chloro-4-fluoro-N-[(E)-2-phenylethenyl]sulfonylbenzamide
CH$NAME: 2-Chloro-4-fluoro-N-{[(E)-2-phenylethenyl]sulfonyl}benzamide
CH$NAME: PharmaGSID_48516
CH$COMPOUND_CLASS: N/A; Environmental Standard
CH$FORMULA: C15H11ClFNO3S
CH$EXACT_MASS: 339.0132
CH$SMILES: O=C(NS(=O)(=O)/C=C/c1ccccc1)c1ccc(F)cc1Cl
CH$IUPAC: InChI=1S/C15H11ClFNO3S/c16-14-10-12(17)6-7-13(14)15(19)18-22(20,21)9-8-11-4-2-1-3-5-11/h1-10H,(H,18,19)/b9-8+
CH$LINK: PUBCHEM CID:15603288
CH$LINK: INCHIKEY AUMLVMKWJGCERZ-CMDGGOBGSA-N
CH$LINK: CHEMSPIDER 13078769
AC$INSTRUMENT: Q Exactive Orbitrap (Thermo Scientific)
AC$INSTRUMENT_TYPE: LC-ESI-QFT
AC$MASS_SPECTROMETRY: MS_TYPE MS2
AC$MASS_SPECTROMETRY: ION_MODE NEGATIVE
AC$MASS_SPECTROMETRY: IONIZATION ESI
AC$MASS_SPECTROMETRY: FRAGMENTATION_MODE HCD
AC$MASS_SPECTROMETRY: COLLISION_ENERGY 15
AC$MASS_SPECTROMETRY: RESOLUTION 17500
AC$CHROMATOGRAPHY: COLUMN_NAME Acquity BEH C18 1.7um, 2.1x150mm (Waters)
AC$CHROMATOGRAPHY: FLOW_GRADIENT 90/10 at 0-2 min, 0/100 at 15-20 min, 90/10 at 20.1-30 min
AC$CHROMATOGRAPHY: FLOW_RATE 0.20 mL/min
AC$CHROMATOGRAPHY: RETENTION_TIME 16.712 min
AC$CHROMATOGRAPHY: SOLVENT A 0.1% formic acid
AC$CHROMATOGRAPHY: SOLVENT B methanol
MS$FOCUSED_ION: BASE_PEAK 429.0536
MS$FOCUSED_ION: PRECURSOR_M/Z 338.0059
MS$FOCUSED_ION: PRECURSOR_TYPE [M-H]-
MS$FOCUSED_ION: PRECURSOR_INTENSITY 19841592.14453
MS$DATA_PROCESSING: RECALIBRATE loess on assigned fragments and MS1
MS$DATA_PROCESSING: REANALYZE Peaks with additional N2/O included
MS$DATA_PROCESSING: WHOLE RMassBank 2.99.2
PK$SPLASH: splash10-000i-0009000000-8f882e605b246b095e2b
PK$ANNOTATION: m/z tentative_formula formula_count mass error(ppm)
  119.0502 C8H7O- 3 119.0502 -0.13
  171.9971 C7H4ClFNO- 7 171.9971 0.31
  208.0076 C9H6NO3S- 3 208.0074 0.87
  238.0678 C15H9FNO- 1 238.0674 1.62
  302.0293 C15H9FNO3S- 1 302.0293 0.14
  338.0059 C15H10ClFNO3S- 1 338.0059 -0.02
PK$NUM_PEAK: 6
PK$PEAK: m/z int. rel.int.
  119.0502 587081.4 47
  171.9971 188050.8 15
  208.0076 23079.2 1
  238.0678 24026.6 1
  302.0293 24084.3 1
  338.0059 12338456 999
//
