ACCESSION: MSBNK-LCSB-LU129803
RECORD_TITLE: 4-Chlorophenylurea; LC-ESI-QFT; MS2; CE: 45; R=17500; [M+H]+
DATE: 2020.08.19
AUTHORS: Elapavalore, A.; Kondić, T.; Singh, R.; Schymanski, E.
LICENSE: CC BY
COPYRIGHT: Copyright © 2019 by Environmental Cheminformatics, LCSB, University of Luxembourg, Luxembourg
PUBLICATION: Elapavalore, A.; Kondić, T.; et al., Adding Open Spectral Data to MassBank and PubChem Using Open Source Tools to Support Non-Targeted Exposomics of Mixtures (submitted).
PROJECT: ENTACT U.S. Environmental Protection Agency’s Non-Targeted Analysis Collaborative Trial
COMMENT: CONFIDENCE standard compound
COMMENT: INTERNAL_ID 1298
COMMENT: DATASET 20200303_ENTACT_RP_MIX504
COMMENT: DATA_PROCESSING MERGING RMBmix ver. 0.2.7
COMMENT: DATA_PROCESSING PRESCREENING Shinyscreen ver. 0.8.0
COMMENT: ORIGINAL_ACQUISITION_NO 7577
COMMENT: ORIGINAL_PRECURSOR_SCAN_NO 7574
COMMENT: RAW_DATA available as MSV000091754 at [DOI:10.25345/C5S46HG75]
CH$NAME: 4-Chlorophenylurea
CH$NAME: (4-chlorophenyl)urea
CH$COMPOUND_CLASS: N/A; Environmental Standard
CH$FORMULA: C7H7ClN2O
CH$EXACT_MASS: 170.0247
CH$SMILES: NC(=O)NC1=CC=C(Cl)C=C1
CH$IUPAC: InChI=1S/C7H7ClN2O/c8-5-1-3-6(4-2-5)10-7(9)11/h1-4H,(H3,9,10,11)
CH$LINK: CAS 140-38-5
CH$LINK: PUBCHEM CID:8796
CH$LINK: INCHIKEY RECCURWJDVZHIH-UHFFFAOYSA-N
CH$LINK: CHEMSPIDER 8466
AC$INSTRUMENT: Q Exactive Orbitrap (Thermo Scientific)
AC$INSTRUMENT_TYPE: LC-ESI-QFT
AC$MASS_SPECTROMETRY: MS_TYPE MS2
AC$MASS_SPECTROMETRY: ION_MODE POSITIVE
AC$MASS_SPECTROMETRY: IONIZATION ESI
AC$MASS_SPECTROMETRY: FRAGMENTATION_MODE HCD
AC$MASS_SPECTROMETRY: COLLISION_ENERGY 45
AC$MASS_SPECTROMETRY: RESOLUTION 17500
AC$CHROMATOGRAPHY: COLUMN_NAME Acquity BEH C18 1.7um, 2.1x150mm (Waters)
AC$CHROMATOGRAPHY: FLOW_GRADIENT 90/10 at 0-2 min, 0/100 at 15-20 min, 90/10 at 20.1-30 min
AC$CHROMATOGRAPHY: FLOW_RATE 0.20 mL/min
AC$CHROMATOGRAPHY: RETENTION_TIME 1.016 min
AC$CHROMATOGRAPHY: SOLVENT A 0.1% formic acid
AC$CHROMATOGRAPHY: SOLVENT B methanol
MS$FOCUSED_ION: BASE_PEAK 79.0212
MS$FOCUSED_ION: PRECURSOR_M/Z 171.032
MS$FOCUSED_ION: PRECURSOR_TYPE [M+H]+
MS$FOCUSED_ION: PRECURSOR_INTENSITY 1581700.53125
MS$DATA_PROCESSING: RECALIBRATE loess on assigned fragments and MS1
MS$DATA_PROCESSING: REANALYZE Peaks with additional N2/O included
MS$DATA_PROCESSING: WHOLE RMassBank 2.99.2
PK$SPLASH: splash10-00b9-8900000000-4633a40f3e0cc727a0d1
PK$ANNOTATION: m/z tentative_formula formula_count mass error(ppm)
  55.0542 C4H7+ 1 55.0542 0.39
  72.0444 C3H6NO+ 1 72.0444 -0.38
  73.0283 ClH8NO+ 1 73.0289 -7.55
  92.0493 C6H6N+ 1 92.0495 -1.44
  93.0573 C6H7N+ 1 93.0573 0.49
  114.971 C3ClN2O+ 1 114.9694 14.06
  126.0105 C6H5ClN+ 1 126.0105 0.28
  128.0262 C6H7ClN+ 1 128.0262 0.14
  128.9865 C4H2ClN2O+ 1 128.985 11.85
  143.0017 C5H4ClN2O+ 1 143.0007 7.54
  154.0055 C7H5ClNO+ 1 154.0054 0.25
  157.018 C6H6ClN2O+ 1 157.0163 10.73
PK$NUM_PEAK: 12
PK$PEAK: m/z int. rel.int.
  55.0542 34697 90
  72.0444 257171.9 669
  73.0283 3599.8 9
  92.0493 2290.5 5
  93.0573 217039.2 564
  114.971 4681.9 12
  126.0105 76175.3 198
  128.0262 383800.7 999
  128.9865 6580 17
  143.0017 2294.1 5
  154.0055 50162.4 130
  157.018 5996.5 15
//
