ACCESSION: MSBNK-LCSB-LU135553
RECORD_TITLE: 2,5-dihydroxybenzenesulfonate; LC-ESI-QFT; MS2; CE: 45; R=17500; [M-H]-
DATE: 2020.08.19
AUTHORS: Elapavalore, A.; Kondić, T.; Singh, R.; Schymanski, E.
LICENSE: CC BY
COPYRIGHT: Copyright © 2019 by Environmental Cheminformatics, LCSB, University of Luxembourg, Luxembourg
PUBLICATION: Elapavalore, A.; Kondić, T.; et al., Adding Open Spectral Data to MassBank and PubChem Using Open Source Tools to Support Non-Targeted Exposomics of Mixtures (submitted).
PROJECT: ENTACT U.S. Environmental Protection Agency’s Non-Targeted Analysis Collaborative Trial
COMMENT: CONFIDENCE standard compound
COMMENT: INTERNAL_ID 1355
COMMENT: DATASET 20200303_ENTACT_RP_MIX504
COMMENT: DATA_PROCESSING MERGING RMBmix ver. 0.2.7
COMMENT: DATA_PROCESSING PRESCREENING Shinyscreen ver. 0.8.0
COMMENT: ORIGINAL_ACQUISITION_NO 903
COMMENT: ORIGINAL_PRECURSOR_SCAN_NO 902
COMMENT: RAW_DATA available as MSV000091754 at [DOI:10.25345/C5S46HG75]
CH$NAME: 2,5-dihydroxybenzenesulfonate
CH$NAME: 2,5-dihydroxybenzenesulfonic acid
CH$COMPOUND_CLASS: N/A; Environmental Standard
CH$FORMULA: C6H6O5S
CH$EXACT_MASS: 189.9936
CH$SMILES: OC1=CC=C(O)C(=C1)S(O)(=O)=O
CH$IUPAC: InChI=1S/C6H6O5S/c7-4-1-2-5(8)6(3-4)12(9,10)11/h1-3,7-8H,(H,9,10,11)
CH$LINK: CAS 88-46-0
CH$LINK: CHEBI CHEBI:71157
CH$LINK: PUBCHEM CID:17507
CH$LINK: INCHIKEY IKQCSJBQLWJEPU-UHFFFAOYSA-N
CH$LINK: CHEMSPIDER 16554
AC$INSTRUMENT: Q Exactive Orbitrap (Thermo Scientific)
AC$INSTRUMENT_TYPE: LC-ESI-QFT
AC$MASS_SPECTROMETRY: MS_TYPE MS2
AC$MASS_SPECTROMETRY: ION_MODE NEGATIVE
AC$MASS_SPECTROMETRY: IONIZATION ESI
AC$MASS_SPECTROMETRY: FRAGMENTATION_MODE HCD
AC$MASS_SPECTROMETRY: COLLISION_ENERGY 45
AC$MASS_SPECTROMETRY: RESOLUTION 17500
AC$CHROMATOGRAPHY: COLUMN_NAME Acquity BEH C18 1.7um, 2.1x150mm (Waters)
AC$CHROMATOGRAPHY: FLOW_GRADIENT 90/10 at 0-2 min, 0/100 at 15-20 min, 90/10 at 20.1-30 min
AC$CHROMATOGRAPHY: FLOW_RATE 0.20 mL/min
AC$CHROMATOGRAPHY: RETENTION_TIME 3.325 min
AC$CHROMATOGRAPHY: SOLVENT A 0.1% formic acid
AC$CHROMATOGRAPHY: SOLVENT B methanol
MS$FOCUSED_ION: BASE_PEAK 198.9364
MS$FOCUSED_ION: PRECURSOR_M/Z 188.9863
MS$FOCUSED_ION: PRECURSOR_TYPE [M-H]-
MS$FOCUSED_ION: PRECURSOR_INTENSITY 1743556.199951
MS$DATA_PROCESSING: RECALIBRATE loess on assigned fragments and MS1
MS$DATA_PROCESSING: REANALYZE Peaks with additional N2/O included
MS$DATA_PROCESSING: WHOLE RMassBank 2.99.2
PK$SPLASH: splash10-000i-5900000000-eb915107ff8090d83838
PK$ANNOTATION: m/z tentative_formula formula_count mass error(ppm)
  69.0346 C4H5O- 1 69.0346 0.57
  79.9574 O3S- 1 79.9574 0
  80.9652 HO3S- 1 80.9652 -0.11
  83.0136 C4H3O2- 1 83.0139 -2.83
  85.0296 C4H5O2- 1 85.0295 0.93
  95.0138 C5H3O2- 1 95.0139 -0.64
  97.0295 C5H5O2- 1 97.0295 -0.06
  108.0216 C6H4O2- 1 108.0217 -0.91
  109.0294 C6H5O2- 1 109.0295 -0.6
  123.0088 C6H3O3- 1 123.0088 0.11
  125.0244 C6H5O3- 1 125.0244 -0.03
  188.9863 C6H5O5S- 1 188.9863 0.09
PK$NUM_PEAK: 12
PK$PEAK: m/z int. rel.int.
  69.0346 2358.5 3
  79.9574 221926.5 350
  80.9652 179051.1 283
  83.0136 2209.3 3
  85.0296 2962.8 4
  95.0138 13806.4 21
  97.0295 4391.4 6
  108.0216 5143.9 8
  109.0294 48521.8 76
  123.0088 31335.4 49
  125.0244 12170.9 19
  188.9863 631906.4 999
//
