ACCESSION: MSBNK-LCSB-LU054953
RECORD_TITLE: Bromoxynil; LC-ESI-QFT; MS2; CE: 45; R=17500; [M-H]-
DATE: 2020.08.19
AUTHORS: Elapavalore, A.; Kondić, T.; Singh, R.; Schymanski, E.
LICENSE: CC BY
COPYRIGHT: Copyright © 2019 by Environmental Cheminformatics, LCSB, University of Luxembourg, Luxembourg
PUBLICATION: Elapavalore, A.; Kondić, T.; et al., Adding Open Spectral Data to MassBank and PubChem Using Open Source Tools to Support Non-Targeted Exposomics of Mixtures (submitted).
PROJECT: ENTACT U.S. Environmental Protection Agency’s Non-Targeted Analysis Collaborative Trial
COMMENT: CONFIDENCE standard compound
COMMENT: INTERNAL_ID 549
COMMENT: DATASET 20200303_ENTACT_RP_MIX506
COMMENT: DATA_PROCESSING MERGING RMBmix ver. 0.2.7
COMMENT: DATA_PROCESSING PRESCREENING Shinyscreen ver. 0.8.0
COMMENT: ORIGINAL_ACQUISITION_NO 4333
COMMENT: ORIGINAL_PRECURSOR_SCAN_NO 4328
COMMENT: RAW_DATA available as MSV000091754 at [DOI:10.25345/C5S46HG75]
CH$NAME: Bromoxynil
CH$NAME: 3,5-dibromo-4-hydroxybenzonitrile
CH$COMPOUND_CLASS: N/A; Environmental Standard
CH$FORMULA: C7H3Br2NO
CH$EXACT_MASS: 274.8581
CH$SMILES: OC1=C(Br)C=C(C=C1Br)C#N
CH$IUPAC: InChI=1S/C7H3Br2NO/c8-5-1-4(3-10)2-6(9)7(5)11/h1-2,11H
CH$LINK: CAS 1689-84-5
CH$LINK: CHEBI CHEBI:17192
CH$LINK: KEGG C04178
CH$LINK: PUBCHEM CID:15531
CH$LINK: INCHIKEY UPMXNNIRAGDFEH-UHFFFAOYSA-N
CH$LINK: CHEMSPIDER 14775
AC$INSTRUMENT: Q Exactive Orbitrap (Thermo Scientific)
AC$INSTRUMENT_TYPE: LC-ESI-QFT
AC$MASS_SPECTROMETRY: MS_TYPE MS2
AC$MASS_SPECTROMETRY: ION_MODE NEGATIVE
AC$MASS_SPECTROMETRY: IONIZATION ESI
AC$MASS_SPECTROMETRY: FRAGMENTATION_MODE HCD
AC$MASS_SPECTROMETRY: COLLISION_ENERGY 45
AC$MASS_SPECTROMETRY: RESOLUTION 17500
AC$CHROMATOGRAPHY: COLUMN_NAME Acquity BEH C18 1.7um, 2.1x150mm (Waters)
AC$CHROMATOGRAPHY: FLOW_GRADIENT 90/10 at 0-2 min, 0/100 at 15-20 min, 90/10 at 20.1-30 min
AC$CHROMATOGRAPHY: FLOW_RATE 0.20 mL/min
AC$CHROMATOGRAPHY: RETENTION_TIME 16.482 min
AC$CHROMATOGRAPHY: SOLVENT A 0.1% formic acid
AC$CHROMATOGRAPHY: SOLVENT B methanol
MS$FOCUSED_ION: BASE_PEAK 275.8488
MS$FOCUSED_ION: PRECURSOR_M/Z 273.8509
MS$FOCUSED_ION: PRECURSOR_TYPE [M-H]-
MS$FOCUSED_ION: PRECURSOR_INTENSITY 13021551.63965
MS$DATA_PROCESSING: RECALIBRATE loess on assigned fragments and MS1
MS$DATA_PROCESSING: REANALYZE Peaks with additional N2/O included
MS$DATA_PROCESSING: WHOLE RMassBank 2.99.2
PK$SPLASH: splash10-004i-9020000000-4f74f3bb1c89d6e0bcfb
PK$ANNOTATION: m/z tentative_formula formula_count mass error(ppm)
  78.9189 Br- 1 78.9189 -0.17
  193.9247 C7HBrNO- 1 193.9247 -0.03
  273.8509 C7H2Br2NO- 1 273.8509 0.28
PK$NUM_PEAK: 3
PK$PEAK: m/z int. rel.int.
  78.9189 7438219.5 999
  193.9247 79796 10
  273.8509 1947260.2 261
//
