ACCESSION: MSBNK-LCSB-LU064054
RECORD_TITLE: 6-Thioguanine; LC-ESI-QFT; MS2; CE: 60; R=17500; [M-H]-
DATE: 2020.08.19
AUTHORS: Elapavalore, A.; Kondić, T.; Singh, R.; Schymanski, E.
LICENSE: CC BY
COPYRIGHT: Copyright © 2019 by Environmental Cheminformatics, LCSB, University of Luxembourg, Luxembourg
PUBLICATION: Elapavalore, A.; Kondić, T.; et al., Adding Open Spectral Data to MassBank and PubChem Using Open Source Tools to Support Non-Targeted Exposomics of Mixtures (submitted).
PROJECT: ENTACT U.S. Environmental Protection Agency’s Non-Targeted Analysis Collaborative Trial
COMMENT: CONFIDENCE standard compound
COMMENT: INTERNAL_ID 640
COMMENT: DATASET 20200303_ENTACT_RP_MIX506
COMMENT: DATA_PROCESSING MERGING RMBmix ver. 0.2.7
COMMENT: DATA_PROCESSING PRESCREENING Shinyscreen ver. 0.8.0
COMMENT: ORIGINAL_ACQUISITION_NO 855
COMMENT: ORIGINAL_PRECURSOR_SCAN_NO 852
COMMENT: RAW_DATA available as MSV000091754 at [DOI:10.25345/C5S46HG75]
CH$NAME: 6-Thioguanine
CH$NAME: 2-amino-7H-purine-6-thiol
CH$COMPOUND_CLASS: N/A; Environmental Standard
CH$FORMULA: C5H5N5S
CH$EXACT_MASS: 167.0266
CH$SMILES: NC1=NC2=C(NC=N2)C(=S)N1
CH$IUPAC: InChI=1S/C5H5N5S/c6-5-9-3-2(4(11)10-5)7-1-8-3/h1H,(H4,6,7,8,9,10,11)
CH$LINK: CAS 154-42-7
CH$LINK: CHEBI CHEBI:9555
CH$LINK: CHEMSPIDER 2005804
CH$LINK: INCHIKEY WYWHKKSPHMUBEB-UHFFFAOYSA-N
CH$LINK: KEGG C07648
CH$LINK: PUBCHEM CID:2723601
AC$INSTRUMENT: Q Exactive Orbitrap (Thermo Scientific)
AC$INSTRUMENT_TYPE: LC-ESI-QFT
AC$MASS_SPECTROMETRY: MS_TYPE MS2
AC$MASS_SPECTROMETRY: ION_MODE NEGATIVE
AC$MASS_SPECTROMETRY: IONIZATION ESI
AC$MASS_SPECTROMETRY: FRAGMENTATION_MODE HCD
AC$MASS_SPECTROMETRY: COLLISION_ENERGY 60
AC$MASS_SPECTROMETRY: RESOLUTION 17500
AC$CHROMATOGRAPHY: COLUMN_NAME Acquity BEH C18 1.7um, 2.1x150mm (Waters)
AC$CHROMATOGRAPHY: FLOW_GRADIENT 90/10 at 0-2 min, 0/100 at 15-20 min, 90/10 at 20.1-30 min
AC$CHROMATOGRAPHY: FLOW_RATE 0.20 mL/min
AC$CHROMATOGRAPHY: RETENTION_TIME 3.049 min
AC$CHROMATOGRAPHY: SOLVENT A 0.1% formic acid
AC$CHROMATOGRAPHY: SOLVENT B methanol
MS$FOCUSED_ION: BASE_PEAK 198.9364
MS$FOCUSED_ION: PRECURSOR_M/Z 166.0193
MS$FOCUSED_ION: PRECURSOR_TYPE [M-H]-
MS$FOCUSED_ION: PRECURSOR_INTENSITY 1822689.23877
MS$DATA_PROCESSING: RECALIBRATE loess on assigned fragments and MS1
MS$DATA_PROCESSING: REANALYZE Peaks with additional N2/O included
MS$DATA_PROCESSING: WHOLE RMassBank 2.99.2
PK$SPLASH: splash10-001i-3900000000-12aeea8a13233d21cf39
PK$ANNOTATION: m/z tentative_formula formula_count mass error(ppm)
  57.9756 CNS- 1 57.9757 -0.83
  66.0098 C2N3- 1 66.0098 0.12
  78.0097 C3N3- 1 78.0098 -0.46
  81.9757 C3NS- 1 81.9757 -0.04
  82.0411 C3H4N3- 1 82.0411 -0.15
  90.0098 C4N3- 1 90.0098 0.1
  96.9866 C3HN2S- 1 96.9866 0.05
  105.0207 C4HN4- 1 105.0207 0.04
  107.0363 C4H3N4- 1 107.0363 -0.2
  123.9972 C4H2N3S- 1 123.9975 -2.74
  132.0316 C5H2N5- 1 132.0316 0.05
  148.9927 C5HN4S- 1 148.9927 0.05
  166.0192 C5H4N5S- 1 166.0193 -0.3
PK$NUM_PEAK: 13
PK$PEAK: m/z int. rel.int.
  57.9756 32511.9 55
  66.0098 162520.3 279
  78.0097 7859.3 13
  81.9757 5435.7 9
  82.0411 21070.3 36
  90.0098 2538.7 4
  96.9866 7286.5 12
  105.0207 26574.2 45
  107.0363 59121 101
  123.9972 10113.3 17
  132.0316 581228.2 999
  148.9927 5939.5 10
  166.0192 28699.2 49
//
