ACCESSION: MSBNK-LCSB-LU094702
RECORD_TITLE: 3-Amino-4-methylbenzamide; LC-ESI-QFT; MS2; CE: 30; R=17500; [M+H]+
DATE: 2020.08.19
AUTHORS: Elapavalore, A.; Kondić, T.; Singh, R.; Schymanski, E.
LICENSE: CC BY
COPYRIGHT: Copyright © 2019 by Environmental Cheminformatics, LCSB, University of Luxembourg, Luxembourg
PUBLICATION: Elapavalore, A.; Kondić, T.; et al., Adding Open Spectral Data to MassBank and PubChem Using Open Source Tools to Support Non-Targeted Exposomics of Mixtures (submitted).
PROJECT: ENTACT U.S. Environmental Protection Agency’s Non-Targeted Analysis Collaborative Trial
COMMENT: CONFIDENCE standard compound
COMMENT: INTERNAL_ID 947
COMMENT: DATASET 20200303_ENTACT_RP_MIX501
COMMENT: DATA_PROCESSING MERGING RMBmix ver. 0.2.7
COMMENT: DATA_PROCESSING PRESCREENING Shinyscreen ver. 0.8.0
COMMENT: ORIGINAL_ACQUISITION_NO 1996
COMMENT: ORIGINAL_PRECURSOR_SCAN_NO 1995
COMMENT: RAW_DATA available as MSV000091754 at [DOI:10.25345/C5S46HG75]
CH$NAME: 3-Amino-4-methylbenzamide
CH$COMPOUND_CLASS: N/A; Environmental Standard
CH$FORMULA: C8H10N2O
CH$EXACT_MASS: 150.0793
CH$SMILES: CC1=C(N)C=C(C=C1)C(N)=O
CH$IUPAC: InChI=1S/C8H10N2O/c1-5-2-3-6(8(10)11)4-7(5)9/h2-4H,9H2,1H3,(H2,10,11)
CH$LINK: CAS 19406-86-1
CH$LINK: PUBCHEM CID:88043
CH$LINK: INCHIKEY VYBKAZXQKUFAHG-UHFFFAOYSA-N
CH$LINK: CHEMSPIDER 79429
AC$INSTRUMENT: Q Exactive Orbitrap (Thermo Scientific)
AC$INSTRUMENT_TYPE: LC-ESI-QFT
AC$MASS_SPECTROMETRY: MS_TYPE MS2
AC$MASS_SPECTROMETRY: ION_MODE POSITIVE
AC$MASS_SPECTROMETRY: IONIZATION ESI
AC$MASS_SPECTROMETRY: FRAGMENTATION_MODE HCD
AC$MASS_SPECTROMETRY: COLLISION_ENERGY 30
AC$MASS_SPECTROMETRY: RESOLUTION 17500
AC$CHROMATOGRAPHY: COLUMN_NAME Acquity BEH C18 1.7um, 2.1x150mm (Waters)
AC$CHROMATOGRAPHY: FLOW_GRADIENT 90/10 at 0-2 min, 0/100 at 15-20 min, 90/10 at 20.1-30 min
AC$CHROMATOGRAPHY: FLOW_RATE 0.20 mL/min
AC$CHROMATOGRAPHY: RETENTION_TIME 3.845 min
AC$CHROMATOGRAPHY: SOLVENT A 0.1% formic acid
AC$CHROMATOGRAPHY: SOLVENT B methanol
MS$FOCUSED_ION: BASE_PEAK 79.0211
MS$FOCUSED_ION: PRECURSOR_M/Z 151.0866
MS$FOCUSED_ION: PRECURSOR_TYPE [M+H]+
MS$FOCUSED_ION: PRECURSOR_INTENSITY 6038134.40625
MS$DATA_PROCESSING: RECALIBRATE loess on assigned fragments and MS1
MS$DATA_PROCESSING: REANALYZE Peaks with additional N2/O included
MS$DATA_PROCESSING: WHOLE RMassBank 2.99.2
PK$SPLASH: splash10-0a4i-0900000000-665e2ea95aee0b737ce1
PK$ANNOTATION: m/z tentative_formula formula_count mass error(ppm)
  91.0542 C7H7+ 1 91.0542 -0.26
  93.0573 C6H7N+ 1 93.0573 0.14
  95.0857 C7H11+ 1 95.0855 1.52
  106.0652 C7H8N+ 1 106.0651 0.78
  108.0807 C7H10N+ 1 108.0808 -0.42
  124.0758 C7H10NO+ 1 124.0757 0.98
  134.06 C8H8NO+ 1 134.06 -0.2
  151.0866 C8H11N2O+ 1 151.0866 0.07
PK$NUM_PEAK: 8
PK$PEAK: m/z int. rel.int.
  91.0542 7618.2 2
  93.0573 62228.9 17
  95.0857 4368.8 1
  106.0652 3975.4 1
  108.0807 3588266 999
  124.0758 8402.8 2
  134.06 153822 42
  151.0866 772333.2 215
//
