ACCESSION: MSBNK-LCSB-LU034102
RECORD_TITLE: SB281832; LC-ESI-QFT; MS2; CE: 30; R=17500; [M+H]+
DATE: 2020.08.19
AUTHORS: Elapavalore, A.; Kondić, T.; Singh, R.; Schymanski, E.
LICENSE: CC BY
COPYRIGHT: Copyright © 2019 by Environmental Cheminformatics, LCSB, University of Luxembourg, Luxembourg
PUBLICATION: Elapavalore, A.; Kondić, T.; et al., Adding Open Spectral Data to MassBank and PubChem Using Open Source Tools to Support Non-Targeted Exposomics of Mixtures (submitted).
PROJECT: ENTACT U.S. Environmental Protection Agency’s Non-Targeted Analysis Collaborative Trial
COMMENT: CONFIDENCE standard compound
COMMENT: INTERNAL_ID 341
COMMENT: DATASET 20200303_ENTACT_RP_MIX503
COMMENT: DATA_PROCESSING MERGING RMBmix ver. 0.2.7
COMMENT: DATA_PROCESSING PRESCREENING Shinyscreen ver. 0.8.0
COMMENT: ORIGINAL_ACQUISITION_NO 7977
COMMENT: ORIGINAL_PRECURSOR_SCAN_NO 7976
COMMENT: RAW_DATA available as MSV000091754 at [DOI:10.25345/C5S46HG75]
CH$NAME: SB281832
CH$NAME: 2-[4-(4-fluorophenyl)-5-(2-phenoxypyrimidin-4-yl)imidazol-1-yl]propane-1,3-diol
CH$COMPOUND_CLASS: N/A; Environmental Standard
CH$FORMULA: C22H19FN4O3
CH$EXACT_MASS: 406.1441
CH$SMILES: OCC(CO)N1C=NC(=C1C1=CC=NC(OC2=CC=CC=C2)=N1)C1=CC=C(F)C=C1
CH$IUPAC: InChI=1S/C22H19FN4O3/c23-16-8-6-15(7-9-16)20-21(27(14-25-20)17(12-28)13-29)19-10-11-24-22(26-19)30-18-4-2-1-3-5-18/h1-11,14,17,28-29H,12-13H2
CH$LINK: PUBCHEM CID:9931156
CH$LINK: INCHIKEY ZDKIAVFEUPUCMR-UHFFFAOYSA-N
CH$LINK: CHEMSPIDER 8106787
AC$INSTRUMENT: Q Exactive Orbitrap (Thermo Scientific)
AC$INSTRUMENT_TYPE: LC-ESI-QFT
AC$MASS_SPECTROMETRY: MS_TYPE MS2
AC$MASS_SPECTROMETRY: ION_MODE POSITIVE
AC$MASS_SPECTROMETRY: IONIZATION ESI
AC$MASS_SPECTROMETRY: FRAGMENTATION_MODE HCD
AC$MASS_SPECTROMETRY: COLLISION_ENERGY 30
AC$MASS_SPECTROMETRY: RESOLUTION 17500
AC$CHROMATOGRAPHY: COLUMN_NAME Acquity BEH C18 1.7um, 2.1x150mm (Waters)
AC$CHROMATOGRAPHY: FLOW_GRADIENT 90/10 at 0-2 min, 0/100 at 15-20 min, 90/10 at 20.1-30 min
AC$CHROMATOGRAPHY: FLOW_RATE 0.20 mL/min
AC$CHROMATOGRAPHY: RETENTION_TIME 15.246 min
AC$CHROMATOGRAPHY: SOLVENT A 0.1% formic acid
AC$CHROMATOGRAPHY: SOLVENT B methanol
MS$FOCUSED_ION: BASE_PEAK 79.0212
MS$FOCUSED_ION: PRECURSOR_M/Z 407.1514
MS$FOCUSED_ION: PRECURSOR_TYPE [M+H]+
MS$FOCUSED_ION: PRECURSOR_INTENSITY 22226489.625
MS$DATA_PROCESSING: RECALIBRATE loess on assigned fragments and MS1
MS$DATA_PROCESSING: REANALYZE Peaks with additional N2/O included
MS$DATA_PROCESSING: WHOLE RMassBank 2.99.2
PK$SPLASH: splash10-001i-0009300000-c25117f8fabe508aae98
PK$ANNOTATION: m/z tentative_formula formula_count mass error(ppm)
  187.0667 C11H8FN2+ 1 187.0666 0.67
  230.0725 C12H9FN3O+ 4 230.0724 0.32
  240.0568 C13H7FN3O+ 4 240.0568 0.34
  290.1087 C18H13FN3+ 4 290.1088 -0.52
  333.1146 C19H14FN4O+ 4 333.1146 -0.07
  389.1406 C22H18FN4O2+ 1 389.1408 -0.49
  407.1516 C22H20FN4O3+ 1 407.1514 0.44
PK$NUM_PEAK: 7
PK$PEAK: m/z int. rel.int.
  187.0667 33701.1 2
  230.0725 128277.7 8
  240.0568 15582.3 1
  290.1087 219340.3 14
  333.1146 15432547 999
  389.1406 22553.7 1
  407.1516 5283284 342
//
