ACCESSION: MSBNK-LCSB-LU071054
RECORD_TITLE: Coumatetralyl; LC-ESI-QFT; MS2; CE: 60; R=17500; [M-H]-
DATE: 2020.08.19
AUTHORS: Elapavalore, A.; Kondić, T.; Singh, R.; Schymanski, E.
LICENSE: CC BY
COPYRIGHT: Copyright © 2019 by Environmental Cheminformatics, LCSB, University of Luxembourg, Luxembourg
PUBLICATION: Elapavalore, A.; Kondić, T.; et al., Adding Open Spectral Data to MassBank and PubChem Using Open Source Tools to Support Non-Targeted Exposomics of Mixtures (submitted).
PROJECT: ENTACT U.S. Environmental Protection Agency’s Non-Targeted Analysis Collaborative Trial
COMMENT: CONFIDENCE standard compound
COMMENT: INTERNAL_ID 710
COMMENT: DATASET 20200303_ENTACT_RP_MIX506
COMMENT: DATA_PROCESSING MERGING RMBmix ver. 0.2.7
COMMENT: DATA_PROCESSING PRESCREENING Shinyscreen ver. 0.8.0
COMMENT: ORIGINAL_ACQUISITION_NO 4948
COMMENT: ORIGINAL_PRECURSOR_SCAN_NO 4946
COMMENT: RAW_DATA available as MSV000091754 at [DOI:10.25345/C5S46HG75]
CH$NAME: Coumatetralyl
CH$NAME: 4-hydroxy-3-(1,2,3,4-tetrahydronaphthalen-1-yl)chromen-2-one
CH$COMPOUND_CLASS: N/A; Environmental Standard
CH$FORMULA: C19H16O3
CH$EXACT_MASS: 292.1099
CH$SMILES: OC1=C(C2CCCC3=C2C=CC=C3)C(=O)OC2=C1C=CC=C2
CH$IUPAC: InChI=1S/C19H16O3/c20-18-15-9-3-4-11-16(15)22-19(21)17(18)14-10-5-7-12-6-1-2-8-13(12)14/h1-4,6,8-9,11,14,20H,5,7,10H2
CH$LINK: CAS 5836-29-3
CH$LINK: CHEBI CHEBI:80742
CH$LINK: KEGG C16806
CH$LINK: PUBCHEM CID:54678504
CH$LINK: INCHIKEY ULSLJYXHZDTLQK-UHFFFAOYSA-N
CH$LINK: CHEMSPIDER 10468736
AC$INSTRUMENT: Q Exactive Orbitrap (Thermo Scientific)
AC$INSTRUMENT_TYPE: LC-ESI-QFT
AC$MASS_SPECTROMETRY: MS_TYPE MS2
AC$MASS_SPECTROMETRY: ION_MODE NEGATIVE
AC$MASS_SPECTROMETRY: IONIZATION ESI
AC$MASS_SPECTROMETRY: FRAGMENTATION_MODE HCD
AC$MASS_SPECTROMETRY: COLLISION_ENERGY 60
AC$MASS_SPECTROMETRY: RESOLUTION 17500
AC$CHROMATOGRAPHY: COLUMN_NAME Acquity BEH C18 1.7um, 2.1x150mm (Waters)
AC$CHROMATOGRAPHY: FLOW_GRADIENT 90/10 at 0-2 min, 0/100 at 15-20 min, 90/10 at 20.1-30 min
AC$CHROMATOGRAPHY: FLOW_RATE 0.20 mL/min
AC$CHROMATOGRAPHY: RETENTION_TIME 18.177 min
AC$CHROMATOGRAPHY: SOLVENT A 0.1% formic acid
AC$CHROMATOGRAPHY: SOLVENT B methanol
MS$FOCUSED_ION: BASE_PEAK 434.9314
MS$FOCUSED_ION: PRECURSOR_M/Z 291.1027
MS$FOCUSED_ION: PRECURSOR_TYPE [M-H]-
MS$FOCUSED_ION: PRECURSOR_INTENSITY 77057940.12695
MS$DATA_PROCESSING: RECALIBRATE loess on assigned fragments and MS1
MS$DATA_PROCESSING: REANALYZE Peaks with additional N2/O included
MS$DATA_PROCESSING: WHOLE RMassBank 2.99.2
PK$SPLASH: splash10-0006-0910000000-42bf751815a1d3718821
PK$ANNOTATION: m/z tentative_formula formula_count mass error(ppm)
  59.0138 C2H3O2- 1 59.0139 -1.22
  65.0397 C5H5- 1 65.0397 0.35
  67.019 C4H3O- 1 67.0189 0.67
  91.0553 C7H7- 1 91.0553 -0.33
  93.0346 C6H5O- 1 93.0346 0.03
  106.0424 C7H6O- 1 106.0424 -0.04
  107.0502 C7H7O- 1 107.0502 -0.16
  108.0216 C6H4O2- 1 108.0217 -0.4
  115.0552 C9H7- 1 115.0553 -0.75
  117.0346 C8H5O- 1 117.0346 -0.14
  119.0502 C8H7O- 1 119.0502 -0.19
  121.0297 C7H5O2- 1 121.0295 1.33
  129.0711 C10H9- 1 129.071 0.81
  130.0423 C9H6O- 1 130.0424 -0.87
  133.0293 C8H5O2- 1 133.0295 -1.16
  135.0452 C8H7O2- 1 135.0452 0.26
  138.0323 C7H6O3- 1 138.0322 0.16
  141.071 C11H9- 1 141.071 0.14
  143.0502 C10H7O- 1 143.0502 -0.51
  153.0707 C12H9- 1 153.071 -1.96
  161.0242 C9H5O3- 1 161.0244 -1.28
  165.0711 C13H9- 1 165.071 0.79
  167.0866 C13H11- 1 167.0866 -0.37
  169.0661 C12H9O- 1 169.0659 1.16
  171.0816 C12H11O- 1 171.0815 0.29
  185.061 C12H9O2- 1 185.0608 0.8
  187.0401 C11H7O3- 1 187.0401 -0.02
  191.0867 C15H11- 1 191.0866 0.14
  203.086 C16H11- 1 203.0866 -3.01
  217.066 C16H9O- 1 217.0659 0.34
  217.1025 C17H13- 1 217.1023 1.01
  218.0738 C16H10O- 1 218.0737 0.28
  218.1098 C17H14- 1 218.1101 -1.44
  219.0815 C16H11O- 1 219.0815 -0.2
  229.1024 C18H13- 1 229.1023 0.53
  230.0736 C17H10O- 1 230.0737 -0.69
  231.0814 C17H11O- 1 231.0815 -0.48
  232.0894 C17H12O- 1 232.0894 0.32
  243.0815 C18H11O- 1 243.0815 -0.36
  245.0971 C18H13O- 1 245.0972 -0.28
  246.1049 C18H14O- 1 246.105 -0.33
  247.1127 C18H15O- 1 247.1128 -0.44
  263.1081 C18H15O2- 1 263.1078 1.25
  291.1028 C19H15O3- 1 291.1027 0.34
PK$NUM_PEAK: 44
PK$PEAK: m/z int. rel.int.
  59.0138 113808.5 9
  65.0397 34756.5 2
  67.019 38817.3 3
  91.0553 27794.6 2
  93.0346 2622338.8 226
  106.0424 3324286.5 286
  107.0502 18891.1 1
  108.0216 60923.2 5
  115.0552 107494.4 9
  117.0346 358763.2 30
  119.0502 1638729.2 141
  121.0297 55865 4
  129.0711 127991.2 11
  130.0423 12331.6 1
  133.0293 41312.9 3
  135.0452 2567454.2 221
  138.0323 664495.7 57
  141.071 11590257 999
  143.0502 3564187 307
  153.0707 21488 1
  161.0242 37534.4 3
  165.0711 26107.9 2
  167.0866 221487.9 19
  169.0661 42024.5 3
  171.0816 18520.2 1
  185.061 46754.3 4
  187.0401 1268852 109
  191.0867 76405 6
  203.086 14625.8 1
  217.066 53011.8 4
  217.1025 14663.6 1
  218.0738 27651.1 2
  218.1098 17514.3 1
  219.0815 1264795.1 109
  229.1024 34834.7 3
  230.0736 19828.1 1
  231.0814 49550.5 4
  232.0894 63308 5
  243.0815 242042.1 20
  245.0971 2007560.6 173
  246.1049 40112.5 3
  247.1127 1089869.5 93
  263.1081 57810.4 4
  291.1028 714080.6 61
//
