ACCESSION: MSBNK-LCSB-LU025952
RECORD_TITLE: 6-Chloro-2,3-dihydrobenzoxazol-2-one; LC-ESI-QFT; MS2; CE: 30; R=17500; [M-H]-
DATE: 2020.08.19
AUTHORS: Elapavalore, A.; Kondić, T.; Singh, R.; Schymanski, E.
LICENSE: CC BY
COPYRIGHT: Copyright © 2019 by Environmental Cheminformatics, LCSB, University of Luxembourg, Luxembourg
PUBLICATION: Elapavalore, A.; Kondić, T.; et al., Adding Open Spectral Data to MassBank and PubChem Using Open Source Tools to Support Non-Targeted Exposomics of Mixtures (submitted).
PROJECT: ENTACT U.S. Environmental Protection Agency’s Non-Targeted Analysis Collaborative Trial
COMMENT: CONFIDENCE standard compound
COMMENT: INTERNAL_ID 259
COMMENT: DATASET 20200303_ENTACT_RP_MIX505
COMMENT: DATA_PROCESSING MERGING RMBmix ver. 0.2.7
COMMENT: DATA_PROCESSING PRESCREENING Shinyscreen ver. 0.8.0
COMMENT: ORIGINAL_ACQUISITION_NO 4184
COMMENT: ORIGINAL_PRECURSOR_SCAN_NO 4181
COMMENT: RAW_DATA available as MSV000091754 at [DOI:10.25345/C5S46HG75]
CH$NAME: 6-Chloro-2,3-dihydrobenzoxazol-2-one
CH$NAME: 6-Chloro-2-benzoxazolinone
CH$NAME: 6-chloro-3H-1,3-benzoxazol-2-one
CH$COMPOUND_CLASS: N/A; Environmental Standard
CH$FORMULA: C7H4ClNO2
CH$EXACT_MASS: 168.9931
CH$SMILES: ClC1=CC2=C(NC(=O)O2)C=C1
CH$IUPAC: InChI=1S/C7H4ClNO2/c8-4-1-2-5-6(3-4)11-7(10)9-5/h1-3H,(H,9,10)
CH$LINK: CAS 19932-84-4
CH$LINK: PUBCHEM CID:29858
CH$LINK: INCHIKEY MATCZHXABVLZIE-UHFFFAOYSA-N
CH$LINK: CHEMSPIDER 27745
AC$INSTRUMENT: Q Exactive Orbitrap (Thermo Scientific)
AC$INSTRUMENT_TYPE: LC-ESI-QFT
AC$MASS_SPECTROMETRY: MS_TYPE MS2
AC$MASS_SPECTROMETRY: ION_MODE NEGATIVE
AC$MASS_SPECTROMETRY: IONIZATION ESI
AC$MASS_SPECTROMETRY: FRAGMENTATION_MODE HCD
AC$MASS_SPECTROMETRY: COLLISION_ENERGY 30
AC$MASS_SPECTROMETRY: RESOLUTION 17500
AC$CHROMATOGRAPHY: COLUMN_NAME Acquity BEH C18 1.7um, 2.1x150mm (Waters)
AC$CHROMATOGRAPHY: FLOW_GRADIENT 90/10 at 0-2 min, 0/100 at 15-20 min, 90/10 at 20.1-30 min
AC$CHROMATOGRAPHY: FLOW_RATE 0.20 mL/min
AC$CHROMATOGRAPHY: RETENTION_TIME 15.754 min
AC$CHROMATOGRAPHY: SOLVENT A 0.1% formic acid
AC$CHROMATOGRAPHY: SOLVENT B methanol
MS$FOCUSED_ION: BASE_PEAK 167.9858
MS$FOCUSED_ION: PRECURSOR_M/Z 167.9858
MS$FOCUSED_ION: PRECURSOR_TYPE [M-H]-
MS$FOCUSED_ION: PRECURSOR_INTENSITY 36549003.18164
MS$DATA_PROCESSING: RECALIBRATE loess on assigned fragments and MS1
MS$DATA_PROCESSING: REANALYZE Peaks with additional N2/O included
MS$DATA_PROCESSING: WHOLE RMassBank 2.99.2
PK$SPLASH: splash10-014i-0900000000-a992d2181f5783f70427
PK$ANNOTATION: m/z tentative_formula formula_count mass error(ppm)
  76.0192 C5H2N- 1 76.0193 -0.41
  132.0091 C7H2NO2- 1 132.0091 0.03
  167.9857 C7H3ClNO2- 1 167.9858 -0.46
PK$NUM_PEAK: 3
PK$PEAK: m/z int. rel.int.
  76.0192 43695.7 2
  132.0091 1238292.9 67
  167.9857 18403162 999
//
