ACCESSION: MSBNK-LCSB-LU045856
RECORD_TITLE: Thidiazuron; LC-ESI-QFT; MS2; CE: 90; R=17500; [M-H]-
DATE: 2020.08.19
AUTHORS: Elapavalore, A.; Kondić, T.; Singh, R.; Schymanski, E.
LICENSE: CC BY
COPYRIGHT: Copyright © 2019 by Environmental Cheminformatics, LCSB, University of Luxembourg, Luxembourg
PUBLICATION: Elapavalore, A.; Kondić, T.; et al., Adding Open Spectral Data to MassBank and PubChem Using Open Source Tools to Support Non-Targeted Exposomics of Mixtures (submitted).
PROJECT: ENTACT U.S. Environmental Protection Agency’s Non-Targeted Analysis Collaborative Trial
COMMENT: CONFIDENCE standard compound
COMMENT: INTERNAL_ID 458
COMMENT: DATASET 20200303_ENTACT_RP_MIX506
COMMENT: DATA_PROCESSING MERGING RMBmix ver. 0.2.7
COMMENT: DATA_PROCESSING PRESCREENING Shinyscreen ver. 0.8.0
COMMENT: ORIGINAL_ACQUISITION_NO 4001
COMMENT: ORIGINAL_PRECURSOR_SCAN_NO 3997
COMMENT: RAW_DATA available as MSV000091754 at [DOI:10.25345/C5S46HG75]
CH$NAME: Thidiazuron
CH$NAME: 1-phenyl-3-(thiadiazol-5-yl)urea
CH$COMPOUND_CLASS: N/A; Environmental Standard
CH$FORMULA: C9H8N4OS
CH$EXACT_MASS: 220.0419
CH$SMILES: O=C(NC1=CN=NS1)NC1=CC=CC=C1
CH$IUPAC: InChI=1S/C9H8N4OS/c14-9(12-8-6-10-13-15-8)11-7-4-2-1-3-5-7/h1-6H,(H2,11,12,14)
CH$LINK: CAS 51707-55-2
CH$LINK: CHEBI CHEBI:81977
CH$LINK: KEGG C18812
CH$LINK: PUBCHEM CID:40087
CH$LINK: INCHIKEY HFCYZXMHUIHAQI-UHFFFAOYSA-N
CH$LINK: CHEMSPIDER 36635
AC$INSTRUMENT: Q Exactive Orbitrap (Thermo Scientific)
AC$INSTRUMENT_TYPE: LC-ESI-QFT
AC$MASS_SPECTROMETRY: MS_TYPE MS2
AC$MASS_SPECTROMETRY: ION_MODE NEGATIVE
AC$MASS_SPECTROMETRY: IONIZATION ESI
AC$MASS_SPECTROMETRY: FRAGMENTATION_MODE HCD
AC$MASS_SPECTROMETRY: COLLISION_ENERGY 90
AC$MASS_SPECTROMETRY: RESOLUTION 17500
AC$CHROMATOGRAPHY: COLUMN_NAME Acquity BEH C18 1.7um, 2.1x150mm (Waters)
AC$CHROMATOGRAPHY: FLOW_GRADIENT 90/10 at 0-2 min, 0/100 at 15-20 min, 90/10 at 20.1-30 min
AC$CHROMATOGRAPHY: FLOW_RATE 0.20 mL/min
AC$CHROMATOGRAPHY: RETENTION_TIME 15.520 min
AC$CHROMATOGRAPHY: SOLVENT A 0.1% formic acid
AC$CHROMATOGRAPHY: SOLVENT B methanol
MS$FOCUSED_ION: BASE_PEAK 99.9976
MS$FOCUSED_ION: PRECURSOR_M/Z 219.0346
MS$FOCUSED_ION: PRECURSOR_TYPE [M-H]-
MS$FOCUSED_ION: PRECURSOR_INTENSITY 8358975.730469
MS$DATA_PROCESSING: RECALIBRATE loess on assigned fragments and MS1
MS$DATA_PROCESSING: REANALYZE Peaks with additional N2/O included
MS$DATA_PROCESSING: WHOLE RMassBank 2.99.2
PK$SPLASH: splash10-00di-9000000000-c9d4c2358f3bb1a25512
PK$ANNOTATION: m/z tentative_formula formula_count mass error(ppm)
  57.9757 CNS- 1 57.9757 0.42
  70.9835 C2HNS- 1 70.9835 0.31
  71.9914 C2H2NS- 1 71.9913 0.9
  92.0507 C6H6N- 1 92.0506 1.02
  99.9976 C2H2N3S- 2 99.9975 0.76
PK$NUM_PEAK: 5
PK$PEAK: m/z int. rel.int.
  57.9757 7004.3 6
  70.9835 1084762.6 999
  71.9914 9113.9 8
  92.0507 12265.8 11
  99.9976 88961.6 81
//
