ACCESSION: MSBNK-LCSB-LU046304
RECORD_TITLE: Fosthiazate; LC-ESI-QFT; MS2; CE: 60; R=17500; [M+H]+
DATE: 2020.08.19
AUTHORS: Elapavalore, A.; Kondić, T.; Singh, R.; Schymanski, E.
LICENSE: CC BY
COPYRIGHT: Copyright © 2019 by Environmental Cheminformatics, LCSB, University of Luxembourg, Luxembourg
PUBLICATION: Elapavalore, A.; Kondić, T.; et al., Adding Open Spectral Data to MassBank and PubChem Using Open Source Tools to Support Non-Targeted Exposomics of Mixtures (submitted).
PROJECT: ENTACT U.S. Environmental Protection Agency’s Non-Targeted Analysis Collaborative Trial
COMMENT: CONFIDENCE standard compound
COMMENT: INTERNAL_ID 463
COMMENT: DATASET 20200303_ENTACT_RP_MIX506
COMMENT: DATA_PROCESSING MERGING RMBmix ver. 0.2.7
COMMENT: DATA_PROCESSING PRESCREENING Shinyscreen ver. 0.8.0
COMMENT: ORIGINAL_ACQUISITION_NO 8295
COMMENT: ORIGINAL_PRECURSOR_SCAN_NO 8293
COMMENT: RAW_DATA available as MSV000091754 at [DOI:10.25345/C5S46HG75]
CH$NAME: Fosthiazate
CH$NAME: 3-[butan-2-ylsulfanyl(ethoxy)phosphoryl]-1,3-thiazolidin-2-one
CH$COMPOUND_CLASS: N/A; Environmental Standard
CH$FORMULA: C9H18NO3PS2
CH$EXACT_MASS: 283.0466
CH$SMILES: CCOP(=O)(SC(C)CC)N1CCSC1=O
CH$IUPAC: InChI=1S/C9H18NO3PS2/c1-4-8(3)16-14(12,13-5-2)10-6-7-15-9(10)11/h8H,4-7H2,1-3H3
CH$LINK: CAS 6294-01-5
CH$LINK: CHEBI CHEBI:38692
CH$LINK: KEGG C18402
CH$LINK: PUBCHEM CID:91758
CH$LINK: INCHIKEY DUFVKSUJRWYZQP-UHFFFAOYSA-N
CH$LINK: CHEMSPIDER 82856
AC$INSTRUMENT: Q Exactive Orbitrap (Thermo Scientific)
AC$INSTRUMENT_TYPE: LC-ESI-QFT
AC$MASS_SPECTROMETRY: MS_TYPE MS2
AC$MASS_SPECTROMETRY: ION_MODE POSITIVE
AC$MASS_SPECTROMETRY: IONIZATION ESI
AC$MASS_SPECTROMETRY: FRAGMENTATION_MODE HCD
AC$MASS_SPECTROMETRY: COLLISION_ENERGY 60
AC$MASS_SPECTROMETRY: RESOLUTION 17500
AC$CHROMATOGRAPHY: COLUMN_NAME Acquity BEH C18 1.7um, 2.1x150mm (Waters)
AC$CHROMATOGRAPHY: FLOW_GRADIENT 90/10 at 0-2 min, 0/100 at 15-20 min, 90/10 at 20.1-30 min
AC$CHROMATOGRAPHY: FLOW_RATE 0.20 mL/min
AC$CHROMATOGRAPHY: RETENTION_TIME 15.929 min
AC$CHROMATOGRAPHY: SOLVENT A 0.1% formic acid
AC$CHROMATOGRAPHY: SOLVENT B methanol
MS$FOCUSED_ION: BASE_PEAK 79.0211
MS$FOCUSED_ION: PRECURSOR_M/Z 284.0538
MS$FOCUSED_ION: PRECURSOR_TYPE [M+H]+
MS$FOCUSED_ION: PRECURSOR_INTENSITY 8034086.875
MS$DATA_PROCESSING: RECALIBRATE loess on assigned fragments and MS1
MS$DATA_PROCESSING: REANALYZE Peaks with additional N2/O included
MS$DATA_PROCESSING: WHOLE RMassBank 2.99.2
PK$SPLASH: splash10-0udi-0900000000-b1b811729c83e6df5dc8
PK$ANNOTATION: m/z tentative_formula formula_count mass error(ppm)
  55.0542 C4H7+ 2 55.0542 -0.87
  57.0699 C4H9+ 2 57.0699 0.81
  61.0107 C2H5S+ 1 61.0106 0.67
  76.0216 C2H6NS+ 1 76.0215 1.05
  104.0165 C3H6NOS+ 1 104.0165 0.59
  114.9614 H4O3PS+ 1 114.9613 1.01
  119.9937 C3H6NS2+ 1 119.9936 0.37
  121.9823 C2H5NOPS+ 2 121.9824 -0.7
  124.0159 C2H7NO3P+ 2 124.0158 0.63
  137.9596 C2H5NPS2+ 2 137.9596 0.43
  139.9568 CH3NO3PS+ 2 139.9566 1.53
  139.993 C2H7NO2PS+ 2 139.993 0.38
  154.0653 C5H14O3S+ 2 154.0658 -3.46
  155.0685 C8H11O3+ 2 155.0703 -11.59
  183.0873 C7H19OS2+ 2 183.0872 0.61
  199.9601 C3H7NO3PS2+ 2 199.9599 0.88
PK$NUM_PEAK: 16
PK$PEAK: m/z int. rel.int.
  55.0542 2096.7 3
  57.0699 10369.4 16
  61.0107 16386.2 26
  76.0216 9980.4 16
  104.0165 613144.1 999
  114.9614 36545.1 59
  119.9937 9767 15
  121.9823 3850.3 6
  124.0159 2632.9 4
  137.9596 28462.6 46
  139.9568 9101.3 14
  139.993 3947 6
  154.0653 2319.6 3
  155.0685 4907.2 7
  183.0873 3724.8 6
  199.9601 7715.4 12
//
