ACCESSION: MSBNK-LCSB-LU025704
RECORD_TITLE: Pymetrozine; LC-ESI-QFT; MS2; CE: 60; R=17500; [M+H]+
DATE: 2020.08.19
AUTHORS: Elapavalore, A.; Kondić, T.; Singh, R.; Schymanski, E.
LICENSE: CC BY
COPYRIGHT: Copyright © 2019 by Environmental Cheminformatics, LCSB, University of Luxembourg, Luxembourg
PUBLICATION: Elapavalore, A.; Kondić, T.; et al., Adding Open Spectral Data to MassBank and PubChem Using Open Source Tools to Support Non-Targeted Exposomics of Mixtures (submitted).
PROJECT: ENTACT U.S. Environmental Protection Agency’s Non-Targeted Analysis Collaborative Trial
COMMENT: CONFIDENCE standard compound
COMMENT: INTERNAL_ID 257
COMMENT: DATASET 20200303_ENTACT_RP_MIX505
COMMENT: DATA_PROCESSING MERGING RMBmix ver. 0.2.7
COMMENT: DATA_PROCESSING PRESCREENING Shinyscreen ver. 0.8.0
COMMENT: ORIGINAL_ACQUISITION_NO 2682
COMMENT: ORIGINAL_PRECURSOR_SCAN_NO 2681
COMMENT: RAW_DATA available as MSV000091754 at [DOI:10.25345/C5S46HG75]
CH$NAME: Pymetrozine
CH$NAME: 6-methyl-4-[(E)-pyridin-3-ylmethylideneamino]-2,5-dihydro-1,2,4-triazin-3-one
CH$COMPOUND_CLASS: N/A; Environmental Standard
CH$FORMULA: C10H11N5O
CH$EXACT_MASS: 217.0964
CH$SMILES: CC1=NNC(=O)N(C1)\N=C\C1=CC=CN=C1
CH$IUPAC: InChI=1S/C10H11N5O/c1-8-7-15(10(16)14-13-8)12-6-9-3-2-4-11-5-9/h2-6H,7H2,1H3,(H,14,16)/b12-6+
CH$LINK: CAS 123312-89-0
CH$LINK: CHEBI CHEBI:39311
CH$LINK: KEGG C18590
CH$LINK: PUBCHEM CID:9576037
CH$LINK: INCHIKEY QHMTXANCGGJZRX-WUXMJOGZSA-N
CH$LINK: CHEMSPIDER 7850487
AC$INSTRUMENT: Q Exactive Orbitrap (Thermo Scientific)
AC$INSTRUMENT_TYPE: LC-ESI-QFT
AC$MASS_SPECTROMETRY: MS_TYPE MS2
AC$MASS_SPECTROMETRY: ION_MODE POSITIVE
AC$MASS_SPECTROMETRY: IONIZATION ESI
AC$MASS_SPECTROMETRY: FRAGMENTATION_MODE HCD
AC$MASS_SPECTROMETRY: COLLISION_ENERGY 60
AC$MASS_SPECTROMETRY: RESOLUTION 17500
AC$CHROMATOGRAPHY: COLUMN_NAME Acquity BEH C18 1.7um, 2.1x150mm (Waters)
AC$CHROMATOGRAPHY: FLOW_GRADIENT 90/10 at 0-2 min, 0/100 at 15-20 min, 90/10 at 20.1-30 min
AC$CHROMATOGRAPHY: FLOW_RATE 0.20 mL/min
AC$CHROMATOGRAPHY: RETENTION_TIME 5.130 min
AC$CHROMATOGRAPHY: SOLVENT A 0.1% formic acid
AC$CHROMATOGRAPHY: SOLVENT B methanol
MS$FOCUSED_ION: BASE_PEAK 79.0211
MS$FOCUSED_ION: PRECURSOR_M/Z 218.1036
MS$FOCUSED_ION: PRECURSOR_TYPE [M+H]+
MS$FOCUSED_ION: PRECURSOR_INTENSITY 9870515.6875
MS$DATA_PROCESSING: RECALIBRATE loess on assigned fragments and MS1
MS$DATA_PROCESSING: REANALYZE Peaks with additional N2/O included
MS$DATA_PROCESSING: WHOLE RMassBank 2.99.2
PK$SPLASH: splash10-0a4i-0900000000-88e11a78c009b5922dbf
PK$ANNOTATION: m/z tentative_formula formula_count mass error(ppm)
  78.0338 C5H4N+ 1 78.0338 -0.58
  79.0416 C5H5N+ 1 79.0417 -0.53
  80.0494 C5H6N+ 1 80.0495 -0.73
  92.0495 C6H6N+ 1 92.0495 0.21
  93.0573 C6H7N+ 1 93.0573 0.32
  96.0443 C5H6NO+ 2 96.0444 -0.72
  97.0077 C8H+ 1 97.0073 4.29
  98.0349 C3H4N3O+ 1 98.0349 0.35
  105.0447 C6H5N2+ 1 105.0447 -0.27
  106.0525 C6H6N2+ 1 106.0525 -0.52
  107.0603 C6H7N2+ 1 107.0604 -0.47
  111.0315 C3H3N4O+ 1 111.0301 11.84
  120.0557 C6H6N3+ 2 120.0556 0.98
  121.0395 C6H5N2O+ 2 121.0396 -0.9
  134.0714 C7H8N3+ 2 134.0713 0.59
  218.1035 C10H12N5O+ 1 218.1036 -0.63
PK$NUM_PEAK: 16
PK$PEAK: m/z int. rel.int.
  78.0338 76522.7 12
  79.0416 140226.7 23
  80.0494 73506.1 12
  92.0495 23462.1 3
  93.0573 21520.8 3
  96.0443 53046.2 8
  97.0077 8144.9 1
  98.0349 23784.3 3
  105.0447 6044896.5 999
  106.0525 37648.9 6
  107.0603 64301.4 10
  111.0315 138451.4 22
  120.0557 12368.6 2
  121.0395 7969.8 1
  134.0714 12400.2 2
  218.1035 14843.8 2
//
