ACCESSION: MSBNK-LCSB-LU082305
RECORD_TITLE: Dibutyl phthalate; LC-ESI-QFT; MS2; CE: 75; R=17500; [M+H]+
DATE: 2020.08.19
AUTHORS: Elapavalore, A.; Kondić, T.; Singh, R.; Schymanski, E.
LICENSE: CC BY
COPYRIGHT: Copyright © 2019 by Environmental Cheminformatics, LCSB, University of Luxembourg, Luxembourg
PUBLICATION: Elapavalore, A.; Kondić, T.; et al., Adding Open Spectral Data to MassBank and PubChem Using Open Source Tools to Support Non-Targeted Exposomics of Mixtures (submitted).
PROJECT: ENTACT U.S. Environmental Protection Agency’s Non-Targeted Analysis Collaborative Trial
COMMENT: CONFIDENCE standard compound
COMMENT: INTERNAL_ID 823
COMMENT: DATASET 20200303_ENTACT_RP_MIX508
COMMENT: DATA_PROCESSING MERGING RMBmix ver. 0.2.7
COMMENT: DATA_PROCESSING PRESCREENING Shinyscreen ver. 0.8.0
COMMENT: ORIGINAL_ACQUISITION_NO 10036
COMMENT: ORIGINAL_PRECURSOR_SCAN_NO 10031
COMMENT: RAW_DATA available as MSV000091754 at [DOI:10.25345/C5S46HG75]
CH$NAME: Dibutyl phthalate
CH$NAME: dibutyl benzene-1,2-dicarboxylate
CH$COMPOUND_CLASS: N/A; Environmental Standard
CH$FORMULA: C16H22O4
CH$EXACT_MASS: 278.1518
CH$SMILES: CCCCOC(=O)C1=CC=CC=C1C(=O)OCCCC
CH$IUPAC: InChI=1S/C16H22O4/c1-3-5-11-19-15(17)13-9-7-8-10-14(13)16(18)20-12-6-4-2/h7-10H,3-6,11-12H2,1-2H3
CH$LINK: CAS 84-74-2
CH$LINK: CHEBI 34687
CH$LINK: KEGG C14214
CH$LINK: PUBCHEM CID:3026
CH$LINK: INCHIKEY DOIRQSBPFJWKBE-UHFFFAOYSA-N
CH$LINK: CHEMSPIDER 13837319
AC$INSTRUMENT: Q Exactive Orbitrap (Thermo Scientific)
AC$INSTRUMENT_TYPE: LC-ESI-QFT
AC$MASS_SPECTROMETRY: MS_TYPE MS2
AC$MASS_SPECTROMETRY: ION_MODE POSITIVE
AC$MASS_SPECTROMETRY: IONIZATION ESI
AC$MASS_SPECTROMETRY: FRAGMENTATION_MODE HCD
AC$MASS_SPECTROMETRY: COLLISION_ENERGY 75
AC$MASS_SPECTROMETRY: RESOLUTION 17500
AC$CHROMATOGRAPHY: COLUMN_NAME Acquity BEH C18 1.7um, 2.1x150mm (Waters)
AC$CHROMATOGRAPHY: FLOW_GRADIENT 90/10 at 0-2 min, 0/100 at 15-20 min, 90/10 at 20.1-30 min
AC$CHROMATOGRAPHY: FLOW_RATE 0.20 mL/min
AC$CHROMATOGRAPHY: RETENTION_TIME 19.148 min
AC$CHROMATOGRAPHY: SOLVENT A 0.1% formic acid
AC$CHROMATOGRAPHY: SOLVENT B methanol
MS$FOCUSED_ION: BASE_PEAK 79.0211
MS$FOCUSED_ION: PRECURSOR_M/Z 279.1591
MS$FOCUSED_ION: PRECURSOR_TYPE [M+H]+
MS$FOCUSED_ION: PRECURSOR_INTENSITY 10838678
MS$DATA_PROCESSING: RECALIBRATE loess on assigned fragments and MS1
MS$DATA_PROCESSING: REANALYZE Peaks with additional N2/O included
MS$DATA_PROCESSING: WHOLE RMassBank 2.99.2
PK$SPLASH: splash10-054n-6900000000-a13755f2266ec0d94c0d
PK$ANNOTATION: m/z tentative_formula formula_count mass error(ppm)
  53.0387 C4H5+ 1 53.0386 1.41
  57.07 C4H9+ 1 57.0699 1.94
  65.0387 C5H5+ 1 65.0386 1.43
  91.0542 C7H7+ 1 91.0542 0.05
  95.0493 C6H7O+ 1 95.0491 2.07
  109.065 C7H9O+ 1 109.0648 1.89
  115.0544 C9H7+ 1 115.0542 1.26
  121.0287 C7H5O2+ 1 121.0284 2.42
  128.0622 C10H8+ 1 128.0621 0.82
  129.0701 C10H9+ 1 129.0699 1.66
  149.0232 C8H5O3+ 1 149.0233 -1.14
  154.0777 C12H10+ 1 154.0777 -0.11
  165.0701 C13H9+ 1 165.0699 1.15
  178.0777 C14H10+ 1 178.0777 -0.2
PK$NUM_PEAK: 14
PK$PEAK: m/z int. rel.int.
  53.0387 4165.8 477
  57.07 5248 601
  65.0387 1918.6 219
  91.0542 8193.9 939
  95.0493 8217.2 942
  109.065 8713.2 999
  115.0544 2130 244
  121.0287 3796.4 435
  128.0622 3877.4 444
  129.0701 2417.7 277
  149.0232 8003.7 917
  154.0777 1743.1 199
  165.0701 3806.2 436
  178.0777 4831.1 553
//
