ACCESSION: MSBNK-LCSB-LU127352
RECORD_TITLE: 2-naphthalenesulfonate; LC-ESI-QFT; MS2; CE: 30; R=17500; [M-H]-
DATE: 2020.08.19
AUTHORS: Elapavalore, A.; Kondić, T.; Singh, R.; Schymanski, E.
LICENSE: CC BY
COPYRIGHT: Copyright © 2019 by Environmental Cheminformatics, LCSB, University of Luxembourg, Luxembourg
PUBLICATION: Elapavalore, A.; Kondić, T.; et al., Adding Open Spectral Data to MassBank and PubChem Using Open Source Tools to Support Non-Targeted Exposomics of Mixtures (submitted).
PROJECT: ENTACT U.S. Environmental Protection Agency’s Non-Targeted Analysis Collaborative Trial
COMMENT: CONFIDENCE standard compound
COMMENT: INTERNAL_ID 1273
COMMENT: DATASET 20200303_ENTACT_RP_MIX504
COMMENT: DATA_PROCESSING MERGING RMBmix ver. 0.2.7
COMMENT: DATA_PROCESSING PRESCREENING Shinyscreen ver. 0.8.0
COMMENT: ORIGINAL_ACQUISITION_NO 3292
COMMENT: ORIGINAL_PRECURSOR_SCAN_NO 3289
COMMENT: RAW_DATA available as MSV000091754 at [DOI:10.25345/C5S46HG75]
CH$NAME: 2-naphthalenesulfonate
CH$NAME: 2-Naphthalenesulfonic acid
CH$NAME: naphthalene-2-sulfonic acid
CH$COMPOUND_CLASS: N/A; Environmental Standard
CH$FORMULA: C10H8O3S
CH$EXACT_MASS: 208.0194
CH$SMILES: OS(=O)(=O)C1=CC2=C(C=CC=C2)C=C1
CH$IUPAC: InChI=1S/C10H8O3S/c11-14(12,13)10-6-5-8-3-1-2-4-9(8)7-10/h1-7H,(H,11,12,13)
CH$LINK: CAS 120-18-3
CH$LINK: CHEBI CHEBI:44229
CH$LINK: KEGG C16202
CH$LINK: PUBCHEM CID:8420
CH$LINK: INCHIKEY KVBGVZZKJNLNJU-UHFFFAOYSA-N
CH$LINK: CHEMSPIDER 8113
AC$INSTRUMENT: Q Exactive Orbitrap (Thermo Scientific)
AC$INSTRUMENT_TYPE: LC-ESI-QFT
AC$MASS_SPECTROMETRY: MS_TYPE MS2
AC$MASS_SPECTROMETRY: ION_MODE NEGATIVE
AC$MASS_SPECTROMETRY: IONIZATION ESI
AC$MASS_SPECTROMETRY: FRAGMENTATION_MODE HCD
AC$MASS_SPECTROMETRY: COLLISION_ENERGY 30
AC$MASS_SPECTROMETRY: RESOLUTION 17500
AC$CHROMATOGRAPHY: COLUMN_NAME Acquity BEH C18 1.7um, 2.1x150mm (Waters)
AC$CHROMATOGRAPHY: FLOW_GRADIENT 90/10 at 0-2 min, 0/100 at 15-20 min, 90/10 at 20.1-30 min
AC$CHROMATOGRAPHY: FLOW_RATE 0.20 mL/min
AC$CHROMATOGRAPHY: RETENTION_TIME 13.504 min
AC$CHROMATOGRAPHY: SOLVENT A 0.1% formic acid
AC$CHROMATOGRAPHY: SOLVENT B methanol
MS$FOCUSED_ION: BASE_PEAK 207.0121
MS$FOCUSED_ION: PRECURSOR_M/Z 207.0121
MS$FOCUSED_ION: PRECURSOR_TYPE [M-H]-
MS$FOCUSED_ION: PRECURSOR_INTENSITY 23341613.46826
MS$DATA_PROCESSING: RECALIBRATE loess on assigned fragments and MS1
MS$DATA_PROCESSING: REANALYZE Peaks with additional N2/O included
MS$DATA_PROCESSING: WHOLE RMassBank 2.99.2
PK$SPLASH: splash10-0a4i-0090000000-6329088b147dd8f94c87
PK$ANNOTATION: m/z tentative_formula formula_count mass error(ppm)
  79.957 O3S- 1 79.9574 -4.86
  143.0502 C10H7O- 1 143.0502 -0.32
  207.012 C10H7O3S- 1 207.0121 -0.65
PK$NUM_PEAK: 3
PK$PEAK: m/z int. rel.int.
  79.957 148185.4 12
  143.0502 812819.8 68
  207.012 11792449 999
//
