ACCESSION: MSBNK-LCSB-LU075103
RECORD_TITLE: Chlordimeform; LC-ESI-QFT; MS2; CE: 45; R=17500; [M+H]+
DATE: 2020.08.19
AUTHORS: Elapavalore, A.; Kondić, T.; Singh, R.; Schymanski, E.
LICENSE: CC BY
COPYRIGHT: Copyright © 2019 by Environmental Cheminformatics, LCSB, University of Luxembourg, Luxembourg
PUBLICATION: Elapavalore, A.; Kondić, T.; et al., Adding Open Spectral Data to MassBank and PubChem Using Open Source Tools to Support Non-Targeted Exposomics of Mixtures (submitted).
PROJECT: ENTACT U.S. Environmental Protection Agency’s Non-Targeted Analysis Collaborative Trial
COMMENT: CONFIDENCE standard compound
COMMENT: INTERNAL_ID 751
COMMENT: DATASET 20200303_ENTACT_RP_MIX507
COMMENT: DATA_PROCESSING MERGING RMBmix ver. 0.2.7
COMMENT: DATA_PROCESSING PRESCREENING Shinyscreen ver. 0.8.0
COMMENT: ORIGINAL_ACQUISITION_NO 5951
COMMENT: ORIGINAL_PRECURSOR_SCAN_NO 5949
COMMENT: RAW_DATA available as MSV000091754 at [DOI:10.25345/C5S46HG75]
CH$NAME: Chlordimeform
CH$NAME: N'-(4-chloro-2-methylphenyl)-N,N-dimethylmethanimidamide
CH$COMPOUND_CLASS: N/A; Environmental Standard
CH$FORMULA: C10H13ClN2
CH$EXACT_MASS: 196.0767
CH$SMILES: CN(C)C=NC1=CC=C(Cl)C=C1C
CH$IUPAC: InChI=1S/C10H13ClN2/c1-8-6-9(11)4-5-10(8)12-7-13(2)3/h4-7H,1-3H3
CH$LINK: CAS 6164-98-3
CH$LINK: CHEBI CHEBI:34629
CH$LINK: PUBCHEM CID:22544
CH$LINK: INCHIKEY STUSTWKEFDQFFZ-UHFFFAOYSA-N
CH$LINK: CHEMSPIDER 10468746
AC$INSTRUMENT: Q Exactive Orbitrap (Thermo Scientific)
AC$INSTRUMENT_TYPE: LC-ESI-QFT
AC$MASS_SPECTROMETRY: MS_TYPE MS2
AC$MASS_SPECTROMETRY: ION_MODE POSITIVE
AC$MASS_SPECTROMETRY: IONIZATION ESI
AC$MASS_SPECTROMETRY: FRAGMENTATION_MODE HCD
AC$MASS_SPECTROMETRY: COLLISION_ENERGY 45
AC$MASS_SPECTROMETRY: RESOLUTION 17500
AC$CHROMATOGRAPHY: COLUMN_NAME Acquity BEH C18 1.7um, 2.1x150mm (Waters)
AC$CHROMATOGRAPHY: FLOW_GRADIENT 90/10 at 0-2 min, 0/100 at 15-20 min, 90/10 at 20.1-30 min
AC$CHROMATOGRAPHY: FLOW_RATE 0.20 mL/min
AC$CHROMATOGRAPHY: RETENTION_TIME 11.330 min
AC$CHROMATOGRAPHY: SOLVENT A 0.1% formic acid
AC$CHROMATOGRAPHY: SOLVENT B methanol
MS$FOCUSED_ION: BASE_PEAK 79.0211
MS$FOCUSED_ION: PRECURSOR_M/Z 197.084
MS$FOCUSED_ION: PRECURSOR_TYPE [M+H]+
MS$FOCUSED_ION: PRECURSOR_INTENSITY 35756850.0625
MS$DATA_PROCESSING: RECALIBRATE loess on assigned fragments and MS1
MS$DATA_PROCESSING: REANALYZE Peaks with additional N2/O included
MS$DATA_PROCESSING: WHOLE RMassBank 2.99.2
PK$SPLASH: splash10-0002-0900000000-ebbad7cd761eee54178e
PK$ANNOTATION: m/z tentative_formula formula_count mass error(ppm)
  58.0651 C3H8N+ 1 58.0651 -0.02
  117.0573 C8H7N+ 1 117.0573 -0.11
  125.0152 C7H6Cl+ 2 125.0153 -0.83
  134.06 C5H11ClN2+ 1 134.0605 -3.87
  144.0557 C7H11ClN+ 1 144.0575 -12.28
  152.0262 C8H7ClN+ 1 152.0262 0.01
  197.084 C10H14ClN2+ 1 197.084 0.07
PK$NUM_PEAK: 7
PK$PEAK: m/z int. rel.int.
  58.0651 200187.6 13
  117.0573 2070850.5 144
  125.0152 71919.5 5
  134.06 42816.3 2
  144.0557 40247.4 2
  152.0262 1527754.1 106
  197.084 14291875 999
//
