ACCESSION: MSBNK-LCSB-LU123056
RECORD_TITLE: UK-343664; LC-ESI-QFT; MS2; CE: 90; R=17500; [M-H]-
DATE: 2020.08.19
AUTHORS: Elapavalore, A.; Kondić, T.; Singh, R.; Schymanski, E.
LICENSE: CC BY
COPYRIGHT: Copyright © 2019 by Environmental Cheminformatics, LCSB, University of Luxembourg, Luxembourg
PUBLICATION: Elapavalore, A.; Kondić, T.; et al., Adding Open Spectral Data to MassBank and PubChem Using Open Source Tools to Support Non-Targeted Exposomics of Mixtures (submitted).
PROJECT: ENTACT U.S. Environmental Protection Agency’s Non-Targeted Analysis Collaborative Trial
COMMENT: CONFIDENCE standard compound
COMMENT: INTERNAL_ID 1230
COMMENT: DATASET 20200303_ENTACT_RP_MIX504
COMMENT: DATA_PROCESSING MERGING RMBmix ver. 0.2.7
COMMENT: DATA_PROCESSING PRESCREENING Shinyscreen ver. 0.8.0
COMMENT: ORIGINAL_ACQUISITION_NO 3440
COMMENT: ORIGINAL_PRECURSOR_SCAN_NO 3438
COMMENT: RAW_DATA available as MSV000091754 at [DOI:10.25345/C5S46HG75]
CH$NAME: UK-343664
CH$NAME: 3-ethyl-5-[5-(4-ethylpiperazin-1-yl)sulfonyl-2-propoxyphenyl]-2-(pyridin-2-ylmethyl)-4H-pyrazolo[4,3-d]pyrimidin-7-one
CH$COMPOUND_CLASS: N/A; Environmental Standard
CH$FORMULA: C28H35N7O4S
CH$EXACT_MASS: 565.2471
CH$SMILES: CCCOC1=C(C=C(C=C1)S(=O)(=O)N1CCN(CC)CC1)C1=NC2=C(CC)N(CC3=CC=CC=N3)N=C2C(=O)N1
CH$IUPAC: InChI=1S/C28H35N7O4S/c1-4-17-39-24-11-10-21(40(37,38)34-15-13-33(6-3)14-16-34)18-22(24)27-30-25-23(5-2)35(32-26(25)28(36)31-27)19-20-9-7-8-12-29-20/h7-12,18H,4-6,13-17,19H2,1-3H3,(H,30,31,36)
CH$LINK: CAS 215297-27-1
CH$LINK: CHEMSPIDER 8135228
CH$LINK: INCHIKEY NIBCDDKWFDEBEP-UHFFFAOYSA-N
CH$LINK: PUBCHEM CID:135430996
AC$INSTRUMENT: Q Exactive Orbitrap (Thermo Scientific)
AC$INSTRUMENT_TYPE: LC-ESI-QFT
AC$MASS_SPECTROMETRY: MS_TYPE MS2
AC$MASS_SPECTROMETRY: ION_MODE NEGATIVE
AC$MASS_SPECTROMETRY: IONIZATION ESI
AC$MASS_SPECTROMETRY: FRAGMENTATION_MODE HCD
AC$MASS_SPECTROMETRY: COLLISION_ENERGY 90
AC$MASS_SPECTROMETRY: RESOLUTION 17500
AC$CHROMATOGRAPHY: COLUMN_NAME Acquity BEH C18 1.7um, 2.1x150mm (Waters)
AC$CHROMATOGRAPHY: FLOW_GRADIENT 90/10 at 0-2 min, 0/100 at 15-20 min, 90/10 at 20.1-30 min
AC$CHROMATOGRAPHY: FLOW_RATE 0.20 mL/min
AC$CHROMATOGRAPHY: RETENTION_TIME 14.172 min
AC$CHROMATOGRAPHY: SOLVENT A 0.1% formic acid
AC$CHROMATOGRAPHY: SOLVENT B methanol
MS$FOCUSED_ION: BASE_PEAK 112.9857
MS$FOCUSED_ION: PRECURSOR_M/Z 564.2398
MS$FOCUSED_ION: PRECURSOR_TYPE [M-H]-
MS$FOCUSED_ION: PRECURSOR_INTENSITY 379422.609375
MS$DATA_PROCESSING: RECALIBRATE loess on assigned fragments and MS1
MS$DATA_PROCESSING: REANALYZE Peaks with additional N2/O included
MS$DATA_PROCESSING: WHOLE RMassBank 2.99.2
PK$SPLASH: splash10-014i-2900000000-1ce0a5169919f42641d4
PK$ANNOTATION: m/z tentative_formula formula_count mass error(ppm)
  63.9625 O2S- 1 63.9624 0.59
  65.9986 C3NO- 1 65.9985 0.47
  118.0299 C7H4NO- 3 118.0298 0.49
  120.0568 C6H6N3- 3 120.0567 0.9
  133.0165 C7H3NO2- 3 133.0169 -3.34
  143.025 C8H3N2O- 5 143.0251 -0.28
  210.0667 C4H12N5O3S- 7 210.0666 0.43
PK$NUM_PEAK: 7
PK$PEAK: m/z int. rel.int.
  63.9625 3823.8 306
  65.9986 4467.8 358
  118.0299 12444.4 999
  120.0568 3769.1 302
  133.0165 3575.9 287
  143.025 7634.4 612
  210.0667 2383 191
//
