ACCESSION: MSBNK-LCSB-LU020102
RECORD_TITLE: 4-Methoxyaniline; LC-ESI-QFT; MS2; CE: 30; R=17500; [M+H]+
DATE: 2020.08.19
AUTHORS: Elapavalore, A.; Kondić, T.; Singh, R.; Schymanski, E.
LICENSE: CC BY
COPYRIGHT: Copyright © 2019 by Environmental Cheminformatics, LCSB, University of Luxembourg, Luxembourg
PUBLICATION: Elapavalore, A.; Kondić, T.; et al., Adding Open Spectral Data to MassBank and PubChem Using Open Source Tools to Support Non-Targeted Exposomics of Mixtures (submitted).
PROJECT: ENTACT U.S. Environmental Protection Agency’s Non-Targeted Analysis Collaborative Trial
COMMENT: CONFIDENCE standard compound
COMMENT: INTERNAL_ID 201
COMMENT: DATASET 20200303_ENTACT_RP_MIX501
COMMENT: DATA_PROCESSING MERGING RMBmix ver. 0.2.7
COMMENT: DATA_PROCESSING PRESCREENING Shinyscreen ver. 0.8.0
COMMENT: ORIGINAL_ACQUISITION_NO 2056
COMMENT: ORIGINAL_PRECURSOR_SCAN_NO 2055
COMMENT: RAW_DATA available as MSV000091754 at [DOI:10.25345/C5S46HG75]
CH$NAME: 4-Methoxyaniline
CH$NAME: p-Anisidine
CH$COMPOUND_CLASS: N/A; Environmental Standard
CH$FORMULA: C7H9NO
CH$EXACT_MASS: 123.0684
CH$SMILES: COC1=CC=C(N)C=C1
CH$IUPAC: InChI=1S/C7H9NO/c1-9-7-4-2-6(8)3-5-7/h2-5H,8H2,1H3
CH$LINK: CAS 104-94-9
CH$LINK: CHEBI CHEBI:82388
CH$LINK: KEGG C19326
CH$LINK: PUBCHEM CID:7732
CH$LINK: INCHIKEY BHAAPTBBJKJZER-UHFFFAOYSA-N
CH$LINK: CHEMSPIDER 13869414
AC$INSTRUMENT: Q Exactive Orbitrap (Thermo Scientific)
AC$INSTRUMENT_TYPE: LC-ESI-QFT
AC$MASS_SPECTROMETRY: MS_TYPE MS2
AC$MASS_SPECTROMETRY: ION_MODE POSITIVE
AC$MASS_SPECTROMETRY: IONIZATION ESI
AC$MASS_SPECTROMETRY: FRAGMENTATION_MODE HCD
AC$MASS_SPECTROMETRY: COLLISION_ENERGY 30
AC$MASS_SPECTROMETRY: RESOLUTION 17500
AC$CHROMATOGRAPHY: COLUMN_NAME Acquity BEH C18 1.7um, 2.1x150mm (Waters)
AC$CHROMATOGRAPHY: FLOW_GRADIENT 90/10 at 0-2 min, 0/100 at 15-20 min, 90/10 at 20.1-30 min
AC$CHROMATOGRAPHY: FLOW_RATE 0.20 mL/min
AC$CHROMATOGRAPHY: RETENTION_TIME 3.937 min
AC$CHROMATOGRAPHY: SOLVENT A 0.1% formic acid
AC$CHROMATOGRAPHY: SOLVENT B methanol
MS$FOCUSED_ION: BASE_PEAK 79.0211
MS$FOCUSED_ION: PRECURSOR_M/Z 124.0757
MS$FOCUSED_ION: PRECURSOR_TYPE [M+H]+
MS$FOCUSED_ION: PRECURSOR_INTENSITY 5687011
MS$DATA_PROCESSING: RECALIBRATE loess on assigned fragments and MS1
MS$DATA_PROCESSING: REANALYZE Peaks with additional N2/O included
MS$DATA_PROCESSING: WHOLE RMassBank 2.99.2
PK$SPLASH: splash10-00di-3900000000-d6ef9659952509579f3e
PK$ANNOTATION: m/z tentative_formula formula_count mass error(ppm)
  53.0386 C4H5+ 1 53.0386 0.8
  65.0385 C5H5+ 1 65.0386 -1.11
  77.0385 C6H5+ 1 77.0386 -1.05
  79.0543 C6H7+ 1 79.0542 0.49
  80.0494 C5H6N+ 1 80.0495 -0.44
  81.0573 C5H7N+ 1 81.0573 -0.1
  92.0495 C6H6N+ 1 92.0495 -0.04
  93.0573 C6H7N+ 1 93.0573 0.14
  94.0651 C6H8N+ 1 94.0651 -0.41
  95.0491 C6H7O+ 1 95.0491 -0.16
  96.0444 C5H6NO+ 1 96.0444 0.39
  97.0649 C6H9O+ 1 97.0648 0.86
  108.0444 C6H6NO+ 1 108.0444 0.22
  109.0522 C6H7NO+ 1 109.0522 0.05
  110.06 C6H8NO+ 1 110.06 -0.18
  123.0679 C7H9NO+ 1 123.0679 0.39
  124.0757 C7H10NO+ 1 124.0757 -0.07
PK$NUM_PEAK: 17
PK$PEAK: m/z int. rel.int.
  53.0386 7336 1
  65.0385 20760.6 4
  77.0385 5504.5 1
  79.0543 15522.6 3
  80.0494 8665.2 2
  81.0573 67313.5 15
  92.0495 741723.2 172
  93.0573 1006986 233
  94.0651 32003.1 7
  95.0491 24600.8 5
  96.0444 7250 1
  97.0649 18290.7 4
  108.0444 8969 2
  109.0522 421600.9 97
  110.06 52252.1 12
  123.0679 48874.8 11
  124.0757 4302197.5 999
//
