ACCESSION: MSBNK-LCSB-LU119704
RECORD_TITLE: PharmaGSID_48518; LC-ESI-QFT; MS2; CE: 60; R=17500; [M+H]+
DATE: 2020.08.19
AUTHORS: Elapavalore, A.; Kondić, T.; Singh, R.; Schymanski, E.
LICENSE: CC BY
COPYRIGHT: Copyright © 2019 by Environmental Cheminformatics, LCSB, University of Luxembourg, Luxembourg
PUBLICATION: Elapavalore, A.; Kondić, T.; et al., Adding Open Spectral Data to MassBank and PubChem Using Open Source Tools to Support Non-Targeted Exposomics of Mixtures (submitted).
PROJECT: ENTACT U.S. Environmental Protection Agency’s Non-Targeted Analysis Collaborative Trial
COMMENT: CONFIDENCE standard compound
COMMENT: INTERNAL_ID 1197
COMMENT: DATASET 20200303_ENTACT_RP_MIX503
COMMENT: DATA_PROCESSING MERGING RMBmix ver. 0.2.7
COMMENT: DATA_PROCESSING PRESCREENING Shinyscreen ver. 0.8.0
COMMENT: ORIGINAL_ACQUISITION_NO 8536
COMMENT: ORIGINAL_PRECURSOR_SCAN_NO 8534
COMMENT: RAW_DATA available as MSV000091754 at [DOI:10.25345/C5S46HG75]
CH$NAME: PharmaGSID_48518
CH$NAME: 2-bromo-4-fluoro-N-[(E)-2-thiophen-2-ylethenyl]sulfonylbenzamide
CH$COMPOUND_CLASS: N/A; Environmental Standard
CH$FORMULA: C13H9BrFNO3S2
CH$EXACT_MASS: 388.9191
CH$SMILES: FC1=CC(Br)=C(C=C1)C(=O)NS(=O)(=O)\C=C\C1=CC=CS1
CH$IUPAC: InChI=1S/C13H9BrFNO3S2/c14-12-8-9(15)3-4-11(12)13(17)16-21(18,19)7-5-10-2-1-6-20-10/h1-8H,(H,16,17)/b7-5+
CH$LINK: PUBCHEM CID:16036578
CH$LINK: INCHIKEY QXWJDGMLSMFETH-FNORWQNLSA-N
CH$LINK: CHEMSPIDER 13165173
AC$INSTRUMENT: Q Exactive Orbitrap (Thermo Scientific)
AC$INSTRUMENT_TYPE: LC-ESI-QFT
AC$MASS_SPECTROMETRY: MS_TYPE MS2
AC$MASS_SPECTROMETRY: ION_MODE POSITIVE
AC$MASS_SPECTROMETRY: IONIZATION ESI
AC$MASS_SPECTROMETRY: FRAGMENTATION_MODE HCD
AC$MASS_SPECTROMETRY: COLLISION_ENERGY 60
AC$MASS_SPECTROMETRY: RESOLUTION 17500
AC$CHROMATOGRAPHY: COLUMN_NAME Acquity BEH C18 1.7um, 2.1x150mm (Waters)
AC$CHROMATOGRAPHY: FLOW_GRADIENT 90/10 at 0-2 min, 0/100 at 15-20 min, 90/10 at 20.1-30 min
AC$CHROMATOGRAPHY: FLOW_RATE 0.20 mL/min
AC$CHROMATOGRAPHY: RETENTION_TIME 16.424 min
AC$CHROMATOGRAPHY: SOLVENT A 0.1% formic acid
AC$CHROMATOGRAPHY: SOLVENT B methanol
MS$FOCUSED_ION: BASE_PEAK 79.0212
MS$FOCUSED_ION: PRECURSOR_M/Z 389.9264
MS$FOCUSED_ION: PRECURSOR_TYPE [M+H]+
MS$FOCUSED_ION: PRECURSOR_INTENSITY 1414436.59375
MS$DATA_PROCESSING: RECALIBRATE loess on assigned fragments and MS1
MS$DATA_PROCESSING: REANALYZE Peaks with additional N2/O included
MS$DATA_PROCESSING: WHOLE RMassBank 2.99.2
PK$SPLASH: splash10-0a4i-1900000000-5780039485d48cb6a9f6
PK$ANNOTATION: m/z tentative_formula formula_count mass error(ppm)
  65.0385 C5H5+ 1 65.0386 -0.44
  68.9793 C3HS+ 1 68.9793 -1.33
  81.0336 C5H5O+ 2 81.0335 0.83
  82.9951 C4H3S+ 2 82.995 1.08
  83.0127 C4H3O2+ 2 83.0128 -1.18
  84.0028 C4H4S+ 2 84.0028 0.31
  86.9899 C3H3OS+ 2 86.9899 -0.57
  97.0107 C5H5S+ 2 97.0106 0.86
  102.967 C3H3S2+ 2 102.9671 -0.71
  108.0028 C6H4S+ 2 108.0028 0.07
  109.0107 C6H5S+ 2 109.0106 0.18
  112.0319 C6H5FO+ 2 112.0319 -0.25
  125.0057 C6H5OS+ 2 125.0056 1.39
  126.967 C5H3S2+ 2 126.9671 -0.77
  144.9778 C5H5OS2+ 2 144.9776 0.99
  148.9398 C4H3BrF+ 2 148.9397 0.58
  154.962 C6H3OS2+ 3 154.962 0.24
  172.9399 C5FNOS2+ 2 172.94 -0.48
  200.9347 C7H3BrFO+ 4 200.9346 0.63
PK$NUM_PEAK: 19
PK$PEAK: m/z int. rel.int.
  65.0385 147126.2 153
  68.9793 21160.9 22
  81.0336 4375.8 4
  82.9951 4281.9 4
  83.0127 5790.4 6
  84.0028 6079.4 6
  86.9899 6054.9 6
  97.0107 17368.1 18
  102.967 17433.7 18
  108.0028 9569.2 9
  109.0107 959479.8 999
  112.0319 10754.3 11
  125.0057 2947.8 3
  126.967 19154.2 19
  144.9778 7501.6 7
  148.9398 2206.7 2
  154.962 22452.2 23
  172.9399 2093.1 2
  200.9347 95827.5 99
//
