ACCESSION: MSBNK-LCSB-LU137953
RECORD_TITLE: Bensulide; LC-ESI-QFT; MS2; CE: 45; R=17500; [M-H]-
DATE: 2020.08.19
AUTHORS: Elapavalore, A.; Kondić, T.; Singh, R.; Schymanski, E.
LICENSE: CC BY
COPYRIGHT: Copyright © 2019 by Environmental Cheminformatics, LCSB, University of Luxembourg, Luxembourg
PUBLICATION: Elapavalore, A.; Kondić, T.; et al., Adding Open Spectral Data to MassBank and PubChem Using Open Source Tools to Support Non-Targeted Exposomics of Mixtures (submitted).
PROJECT: ENTACT U.S. Environmental Protection Agency’s Non-Targeted Analysis Collaborative Trial
COMMENT: CONFIDENCE standard compound
COMMENT: INTERNAL_ID 1379
COMMENT: DATASET 20200303_ENTACT_RP_MIX507
COMMENT: DATA_PROCESSING MERGING RMBmix ver. 0.2.7
COMMENT: DATA_PROCESSING PRESCREENING Shinyscreen ver. 0.8.0
COMMENT: ORIGINAL_ACQUISITION_NO 4592
COMMENT: ORIGINAL_PRECURSOR_SCAN_NO 4587
COMMENT: RAW_DATA available as MSV000091754 at [DOI:10.25345/C5S46HG75]
CH$NAME: Bensulide
CH$NAME: N-[2-di(propan-2-yloxy)phosphinothioylsulfanylethyl]benzenesulfonamide
CH$COMPOUND_CLASS: N/A; Environmental Standard
CH$FORMULA: C14H24NO4PS3
CH$EXACT_MASS: 397.0605
CH$SMILES: CC(C)OP(=S)(OC(C)C)SCCNS(=O)(=O)C1=CC=CC=C1
CH$IUPAC: InChI=1S/C14H24NO4PS3/c1-12(2)18-20(21,19-13(3)4)22-11-10-15-23(16,17)14-8-6-5-7-9-14/h5-9,12-13,15H,10-11H2,1-4H3
CH$LINK: CAS 741-58-2
CH$LINK: CHEBI CHEBI:81899
CH$LINK: KEGG C18703
CH$LINK: PUBCHEM CID:12932
CH$LINK: INCHIKEY RRNIZKPFKNDSRS-UHFFFAOYSA-N
CH$LINK: CHEMSPIDER 12397
AC$INSTRUMENT: Q Exactive Orbitrap (Thermo Scientific)
AC$INSTRUMENT_TYPE: LC-ESI-QFT
AC$MASS_SPECTROMETRY: MS_TYPE MS2
AC$MASS_SPECTROMETRY: ION_MODE NEGATIVE
AC$MASS_SPECTROMETRY: IONIZATION ESI
AC$MASS_SPECTROMETRY: FRAGMENTATION_MODE HCD
AC$MASS_SPECTROMETRY: COLLISION_ENERGY 45
AC$MASS_SPECTROMETRY: RESOLUTION 17500
AC$CHROMATOGRAPHY: COLUMN_NAME Acquity BEH C18 1.7um, 2.1x150mm (Waters)
AC$CHROMATOGRAPHY: FLOW_GRADIENT 90/10 at 0-2 min, 0/100 at 15-20 min, 90/10 at 20.1-30 min
AC$CHROMATOGRAPHY: FLOW_RATE 0.20 mL/min
AC$CHROMATOGRAPHY: RETENTION_TIME 18.203 min
AC$CHROMATOGRAPHY: SOLVENT A 0.1% formic acid
AC$CHROMATOGRAPHY: SOLVENT B methanol
MS$FOCUSED_ION: BASE_PEAK 213.0177
MS$FOCUSED_ION: PRECURSOR_M/Z 396.0532
MS$FOCUSED_ION: PRECURSOR_TYPE [M-H]-
MS$FOCUSED_ION: PRECURSOR_INTENSITY 1048378.014648
MS$DATA_PROCESSING: RECALIBRATE loess on assigned fragments and MS1
MS$DATA_PROCESSING: REANALYZE Peaks with additional N2/O included
MS$DATA_PROCESSING: WHOLE RMassBank 2.99.2
PK$SPLASH: splash10-03di-0910000000-cf9c3d235c297650921f
PK$ANNOTATION: m/z tentative_formula formula_count mass error(ppm)
  110.9134 OPS2- 1 110.9134 0.53
  170.9711 C3H8O2PS2- 2 170.9709 1.51
  213.0179 C6H14O2PS2- 4 213.0178 0.47
PK$NUM_PEAK: 3
PK$PEAK: m/z int. rel.int.
  110.9134 30617.7 999
  170.9711 6898.6 225
  213.0179 7409.1 241
//
