ACCESSION: MSBNK-LCSB-LU072151
RECORD_TITLE: 2-Mercaptobenzimidazole; LC-ESI-QFT; MS2; CE: 15; R=17500; [M-H]-
DATE: 2020.08.19
AUTHORS: Elapavalore, A.; Kondić, T.; Singh, R.; Schymanski, E.
LICENSE: CC BY
COPYRIGHT: Copyright © 2019 by Environmental Cheminformatics, LCSB, University of Luxembourg, Luxembourg
PUBLICATION: Elapavalore, A.; Kondić, T.; et al., Adding Open Spectral Data to MassBank and PubChem Using Open Source Tools to Support Non-Targeted Exposomics of Mixtures (submitted).
PROJECT: ENTACT U.S. Environmental Protection Agency’s Non-Targeted Analysis Collaborative Trial
COMMENT: CONFIDENCE standard compound
COMMENT: INTERNAL_ID 721
COMMENT: DATASET 20200303_ENTACT_RP_MIX506
COMMENT: DATA_PROCESSING MERGING RMBmix ver. 0.2.7
COMMENT: DATA_PROCESSING PRESCREENING Shinyscreen ver. 0.8.0
COMMENT: ORIGINAL_ACQUISITION_NO 2936
COMMENT: ORIGINAL_PRECURSOR_SCAN_NO 2933
COMMENT: RAW_DATA available as MSV000091754 at [DOI:10.25345/C5S46HG75]
CH$NAME: 2-Mercaptobenzimidazole
CH$NAME: 1H-benzimidazole-2-thiol
CH$COMPOUND_CLASS: N/A; Environmental Standard
CH$FORMULA: C7H6N2S
CH$EXACT_MASS: 150.0252
CH$SMILES: S=C1NC2=CC=CC=C2N1
CH$IUPAC: InChI=1S/C7H6N2S/c10-7-8-5-3-1-2-4-6(5)9-7/h1-4H,(H2,8,9,10)
CH$LINK: CAS 99-88-7
CH$LINK: CHEMSPIDER 616466
CH$LINK: INCHIKEY YHMYGUUIMTVXNW-UHFFFAOYSA-N
CH$LINK: PUBCHEM CID:707035
AC$INSTRUMENT: Q Exactive Orbitrap (Thermo Scientific)
AC$INSTRUMENT_TYPE: LC-ESI-QFT
AC$MASS_SPECTROMETRY: MS_TYPE MS2
AC$MASS_SPECTROMETRY: ION_MODE NEGATIVE
AC$MASS_SPECTROMETRY: IONIZATION ESI
AC$MASS_SPECTROMETRY: FRAGMENTATION_MODE HCD
AC$MASS_SPECTROMETRY: COLLISION_ENERGY 15
AC$MASS_SPECTROMETRY: RESOLUTION 17500
AC$CHROMATOGRAPHY: COLUMN_NAME Acquity BEH C18 1.7um, 2.1x150mm (Waters)
AC$CHROMATOGRAPHY: FLOW_GRADIENT 90/10 at 0-2 min, 0/100 at 15-20 min, 90/10 at 20.1-30 min
AC$CHROMATOGRAPHY: FLOW_RATE 0.20 mL/min
AC$CHROMATOGRAPHY: RETENTION_TIME 11.860 min
AC$CHROMATOGRAPHY: SOLVENT A 0.1% formic acid
AC$CHROMATOGRAPHY: SOLVENT B methanol
MS$FOCUSED_ION: BASE_PEAK 116.9285
MS$FOCUSED_ION: PRECURSOR_M/Z 149.0179
MS$FOCUSED_ION: PRECURSOR_TYPE [M-H]-
MS$FOCUSED_ION: PRECURSOR_INTENSITY 983416.8718262
MS$DATA_PROCESSING: RECALIBRATE loess on assigned fragments and MS1
MS$DATA_PROCESSING: REANALYZE Peaks with additional N2/O included
MS$DATA_PROCESSING: WHOLE RMassBank 2.99.2
PK$SPLASH: splash10-0002-0900000000-ca0554531938ea36fac4
PK$ANNOTATION: m/z tentative_formula formula_count mass error(ppm)
  57.9756 CNS- 1 57.9757 -0.76
  117.0459 C7H5N2- 1 117.0458 0.49
  148.0102 C7H4N2S- 1 148.0101 0.61
  149.0179 C7H5N2S- 1 149.0179 0.31
PK$NUM_PEAK: 4
PK$PEAK: m/z int. rel.int.
  57.9756 5385.3 10
  117.0459 145028.3 280
  148.0102 4118.5 7
  149.0179 515687.2 999
//
