ACCESSION: MSBNK-LCSB-LU060654
RECORD_TITLE: Clorophene; LC-ESI-QFT; MS2; CE: 60; R=17500; [M-H]-
DATE: 2020.08.19
AUTHORS: Elapavalore, A.; Kondić, T.; Singh, R.; Schymanski, E.
LICENSE: CC BY
COPYRIGHT: Copyright © 2019 by Environmental Cheminformatics, LCSB, University of Luxembourg, Luxembourg
PUBLICATION: Elapavalore, A.; Kondić, T.; et al., Adding Open Spectral Data to MassBank and PubChem Using Open Source Tools to Support Non-Targeted Exposomics of Mixtures (submitted).
PROJECT: ENTACT U.S. Environmental Protection Agency’s Non-Targeted Analysis Collaborative Trial
COMMENT: CONFIDENCE standard compound
COMMENT: INTERNAL_ID 606
COMMENT: DATASET 20200303_ENTACT_RP_MIX506
COMMENT: DATA_PROCESSING MERGING RMBmix ver. 0.2.7
COMMENT: DATA_PROCESSING PRESCREENING Shinyscreen ver. 0.8.0
COMMENT: ORIGINAL_ACQUISITION_NO 5197
COMMENT: ORIGINAL_PRECURSOR_SCAN_NO 5193
COMMENT: RAW_DATA available as MSV000091754 at [DOI:10.25345/C5S46HG75]
CH$NAME: Clorophene
CH$NAME: 2-benzyl-4-chlorophenol
CH$COMPOUND_CLASS: N/A; Environmental Standard
CH$FORMULA: C13H11ClO
CH$EXACT_MASS: 218.0498
CH$SMILES: OC1=C(CC2=CC=CC=C2)C=C(Cl)C=C1
CH$IUPAC: InChI=1S/C13H11ClO/c14-12-6-7-13(15)11(9-12)8-10-4-2-1-3-5-10/h1-7,9,15H,8H2
CH$LINK: CAS 120-32-1
CH$LINK: KEGG D03564
CH$LINK: PUBCHEM CID:8425
CH$LINK: INCHIKEY NCKMMSIFQUPKCK-UHFFFAOYSA-N
CH$LINK: CHEMSPIDER 8118
AC$INSTRUMENT: Q Exactive Orbitrap (Thermo Scientific)
AC$INSTRUMENT_TYPE: LC-ESI-QFT
AC$MASS_SPECTROMETRY: MS_TYPE MS2
AC$MASS_SPECTROMETRY: ION_MODE NEGATIVE
AC$MASS_SPECTROMETRY: IONIZATION ESI
AC$MASS_SPECTROMETRY: FRAGMENTATION_MODE HCD
AC$MASS_SPECTROMETRY: COLLISION_ENERGY 60
AC$MASS_SPECTROMETRY: RESOLUTION 17500
AC$CHROMATOGRAPHY: COLUMN_NAME Acquity BEH C18 1.7um, 2.1x150mm (Waters)
AC$CHROMATOGRAPHY: FLOW_GRADIENT 90/10 at 0-2 min, 0/100 at 15-20 min, 90/10 at 20.1-30 min
AC$CHROMATOGRAPHY: FLOW_RATE 0.20 mL/min
AC$CHROMATOGRAPHY: RETENTION_TIME 18.870 min
AC$CHROMATOGRAPHY: SOLVENT A 0.1% formic acid
AC$CHROMATOGRAPHY: SOLVENT B methanol
MS$FOCUSED_ION: BASE_PEAK 112.9856
MS$FOCUSED_ION: PRECURSOR_M/Z 217.0426
MS$FOCUSED_ION: PRECURSOR_TYPE [M-H]-
MS$FOCUSED_ION: PRECURSOR_INTENSITY 5656363.777344
MS$DATA_PROCESSING: RECALIBRATE loess on assigned fragments and MS1
MS$DATA_PROCESSING: REANALYZE Peaks with additional N2/O included
MS$DATA_PROCESSING: WHOLE RMassBank 2.99.2
PK$SPLASH: splash10-014i-0490000000-a6a17c93a5413d2b02b9
PK$ANNOTATION: m/z tentative_formula formula_count mass error(ppm)
  79.0188 C5H3O- 1 79.0189 -1.17
  93.0345 C6H5O- 1 93.0346 -0.79
  101.0397 C8H5- 1 101.0397 0.06
  127.0553 C10H7- 1 127.0553 -0.38
  131.0502 C9H7O- 1 131.0502 -0.49
  140.0035 C7H5ClO- 1 140.0034 0.55
  151.055 C12H7- 1 151.0553 -2.22
  152.0632 C12H8- 1 152.0631 0.02
  153.071 C12H9- 1 153.071 0.04
  169.0665 C12H9O- 1 169.0659 3.87
  180.0581 C13H8O- 1 180.0581 0.01
  181.066 C13H9O- 1 181.0659 0.53
  216.0348 C13H9ClO- 1 216.0347 0.22
  217.0425 C13H10ClO- 1 217.0426 -0.4
PK$NUM_PEAK: 14
PK$PEAK: m/z int. rel.int.
  79.0188 5780.6 10
  93.0345 11342.1 20
  101.0397 70128.4 129
  127.0553 7269.8 13
  131.0502 5614.9 10
  140.0035 6583.9 12
  151.055 8888.3 16
  152.0632 56140.6 103
  153.071 47617.8 87
  169.0665 2896.2 5
  180.0581 49267.9 91
  181.066 40251.8 74
  216.0348 5082.1 9
  217.0425 540654.9 999
//
