ACCESSION: MSBNK-LCSB-LU063101
RECORD_TITLE: SSR161421; LC-ESI-QFT; MS2; CE: 15; R=17500; [M+H]+
DATE: 2020.08.19
AUTHORS: Elapavalore, A.; Kondić, T.; Singh, R.; Schymanski, E.
LICENSE: CC BY
COPYRIGHT: Copyright © 2019 by Environmental Cheminformatics, LCSB, University of Luxembourg, Luxembourg
PUBLICATION: Elapavalore, A.; Kondić, T.; et al., Adding Open Spectral Data to MassBank and PubChem Using Open Source Tools to Support Non-Targeted Exposomics of Mixtures (submitted).
PROJECT: ENTACT U.S. Environmental Protection Agency’s Non-Targeted Analysis Collaborative Trial
COMMENT: CONFIDENCE standard compound
COMMENT: INTERNAL_ID 631
COMMENT: DATASET 20200303_ENTACT_RP_MIX506
COMMENT: DATA_PROCESSING MERGING RMBmix ver. 0.2.7
COMMENT: DATA_PROCESSING PRESCREENING Shinyscreen ver. 0.8.0
COMMENT: ORIGINAL_ACQUISITION_NO 8898
COMMENT: ORIGINAL_PRECURSOR_SCAN_NO 8897
COMMENT: RAW_DATA available as MSV000091754 at [DOI:10.25345/C5S46HG75]
CH$NAME: SSR161421
CH$NAME: N-[4-(benzylamino)-3-cyanoquinolin-2-yl]-4-methoxybenzamide
CH$COMPOUND_CLASS: N/A; Environmental Standard
CH$FORMULA: C25H20N4O2
CH$EXACT_MASS: 408.1586
CH$SMILES: COC1=CC=C(C=C1)C(=O)NC1=C(C#N)C(NCC2=CC=CC=C2)=C2C=CC=CC2=N1
CH$IUPAC: InChI=1S/C25H20N4O2/c1-31-19-13-11-18(12-14-19)25(30)29-24-21(15-26)23(20-9-5-6-10-22(20)28-24)27-16-17-7-3-2-4-8-17/h2-14H,16H2,1H3,(H2,27,28,29,30)
CH$LINK: PUBCHEM CID:10201497
CH$LINK: INCHIKEY FFHQNQNMELQOEF-UHFFFAOYSA-N
CH$LINK: CHEMSPIDER 8376996
AC$INSTRUMENT: Q Exactive Orbitrap (Thermo Scientific)
AC$INSTRUMENT_TYPE: LC-ESI-QFT
AC$MASS_SPECTROMETRY: MS_TYPE MS2
AC$MASS_SPECTROMETRY: ION_MODE POSITIVE
AC$MASS_SPECTROMETRY: IONIZATION ESI
AC$MASS_SPECTROMETRY: FRAGMENTATION_MODE HCD
AC$MASS_SPECTROMETRY: COLLISION_ENERGY 15
AC$MASS_SPECTROMETRY: RESOLUTION 17500
AC$CHROMATOGRAPHY: COLUMN_NAME Acquity BEH C18 1.7um, 2.1x150mm (Waters)
AC$CHROMATOGRAPHY: FLOW_GRADIENT 90/10 at 0-2 min, 0/100 at 15-20 min, 90/10 at 20.1-30 min
AC$CHROMATOGRAPHY: FLOW_RATE 0.20 mL/min
AC$CHROMATOGRAPHY: RETENTION_TIME 16.963 min
AC$CHROMATOGRAPHY: SOLVENT A 0.1% formic acid
AC$CHROMATOGRAPHY: SOLVENT B methanol
MS$FOCUSED_ION: BASE_PEAK 79.0211
MS$FOCUSED_ION: PRECURSOR_M/Z 409.1659
MS$FOCUSED_ION: PRECURSOR_TYPE [M+H]+
MS$FOCUSED_ION: PRECURSOR_INTENSITY 28182613
MS$DATA_PROCESSING: RECALIBRATE loess on assigned fragments and MS1
MS$DATA_PROCESSING: REANALYZE Peaks with additional N2/O included
MS$DATA_PROCESSING: WHOLE RMassBank 2.99.2
PK$SPLASH: splash10-0a4i-0000900000-e322b81999b225336bd2
PK$ANNOTATION: m/z tentative_formula formula_count mass error(ppm)
  135.0445 C8H7O2+ 2 135.0441 3.28
  394.1438 C24H18N4O2+ 1 394.1424 3.6
  409.1658 C25H21N4O2+ 1 409.1659 -0.28
PK$NUM_PEAK: 3
PK$PEAK: m/z int. rel.int.
  135.0445 298990.1 14
  394.1438 25234.2 1
  409.1658 20035790 999
//
