ACCESSION: MSBNK-LCSB-LU060701
RECORD_TITLE: 1,2-Dimethyl-5-nitroimidazole; LC-ESI-QFT; MS2; CE: 15; R=17500; [M+H]+
DATE: 2020.08.19
AUTHORS: Elapavalore, A.; Kondić, T.; Singh, R.; Schymanski, E.
LICENSE: CC BY
COPYRIGHT: Copyright © 2019 by Environmental Cheminformatics, LCSB, University of Luxembourg, Luxembourg
PUBLICATION: Elapavalore, A.; Kondić, T.; et al., Adding Open Spectral Data to MassBank and PubChem Using Open Source Tools to Support Non-Targeted Exposomics of Mixtures (submitted).
PROJECT: ENTACT U.S. Environmental Protection Agency’s Non-Targeted Analysis Collaborative Trial
COMMENT: CONFIDENCE standard compound
COMMENT: INTERNAL_ID 607
COMMENT: DATASET 20200303_ENTACT_RP_MIX506
COMMENT: DATA_PROCESSING MERGING RMBmix ver. 0.2.7
COMMENT: DATA_PROCESSING PRESCREENING Shinyscreen ver. 0.8.0
COMMENT: ORIGINAL_ACQUISITION_NO 4002
COMMENT: ORIGINAL_PRECURSOR_SCAN_NO 3998
COMMENT: RAW_DATA available as MSV000091754 at [DOI:10.25345/C5S46HG75]
CH$NAME: 1,2-Dimethyl-5-nitroimidazole
CH$NAME: Dimetridazole
CH$COMPOUND_CLASS: N/A; Environmental Standard
CH$FORMULA: C5H7N3O2
CH$EXACT_MASS: 141.0538
CH$SMILES: CN1C(C)=NC=C1[N+]([O-])=O
CH$IUPAC: InChI=1S/C5H7N3O2/c1-4-6-3-5(7(4)2)8(9)10/h3H,1-2H3
CH$LINK: CAS 551-92-8
CH$LINK: CHEBI CHEBI:141155
CH$LINK: KEGG D07855
CH$LINK: PUBCHEM CID:3090
CH$LINK: INCHIKEY IBXPYPUJPLLOIN-UHFFFAOYSA-N
CH$LINK: CHEMSPIDER 2980
AC$INSTRUMENT: Q Exactive Orbitrap (Thermo Scientific)
AC$INSTRUMENT_TYPE: LC-ESI-QFT
AC$MASS_SPECTROMETRY: MS_TYPE MS2
AC$MASS_SPECTROMETRY: ION_MODE POSITIVE
AC$MASS_SPECTROMETRY: IONIZATION ESI
AC$MASS_SPECTROMETRY: FRAGMENTATION_MODE HCD
AC$MASS_SPECTROMETRY: COLLISION_ENERGY 15
AC$MASS_SPECTROMETRY: RESOLUTION 17500
AC$CHROMATOGRAPHY: COLUMN_NAME Acquity BEH C18 1.7um, 2.1x150mm (Waters)
AC$CHROMATOGRAPHY: FLOW_GRADIENT 90/10 at 0-2 min, 0/100 at 15-20 min, 90/10 at 20.1-30 min
AC$CHROMATOGRAPHY: FLOW_RATE 0.20 mL/min
AC$CHROMATOGRAPHY: RETENTION_TIME 7.630 min
AC$CHROMATOGRAPHY: SOLVENT A 0.1% formic acid
AC$CHROMATOGRAPHY: SOLVENT B methanol
MS$FOCUSED_ION: BASE_PEAK 79.0211
MS$FOCUSED_ION: PRECURSOR_M/Z 142.0611
MS$FOCUSED_ION: PRECURSOR_TYPE [M+H]+
MS$FOCUSED_ION: PRECURSOR_INTENSITY 3211879.609375
MS$DATA_PROCESSING: RECALIBRATE loess on assigned fragments and MS1
MS$DATA_PROCESSING: REANALYZE Peaks with additional N2/O included
MS$DATA_PROCESSING: WHOLE RMassBank 2.99.2
PK$SPLASH: splash10-0006-3900000000-a947bf706fef7f5ed0a1
PK$ANNOTATION: m/z tentative_formula formula_count mass error(ppm)
  54.0338 C3H4N+ 1 54.0338 0.35
  55.0416 C3H5N+ 1 55.0417 -0.06
  56.0495 C3H6N+ 1 56.0495 -0.24
  72.0683 C3H8N2+ 1 72.0682 0.85
  81.0447 C4H5N2+ 1 81.0447 -0.57
  95.0603 C5H7N2+ 1 95.0604 -0.41
  96.0681 C5H8N2+ 1 96.0682 -0.61
  97.0395 C4H5N2O+ 1 97.0396 -1.92
  112.0631 C5H8N2O+ 1 112.0631 -0.45
  142.0611 C5H8N3O2+ 1 142.0611 -0.24
PK$NUM_PEAK: 10
PK$PEAK: m/z int. rel.int.
  54.0338 7443.2 4
  55.0416 26644 14
  56.0495 567886.2 305
  72.0683 3026.2 1
  81.0447 29695.3 15
  95.0603 61987.3 33
  96.0681 123401.4 66
  97.0395 4069.5 2
  112.0631 335527.1 180
  142.0611 1854667.1 999
//
