ACCESSION: MSBNK-LCSB-LU127004
RECORD_TITLE: Tebufenozide; LC-ESI-QFT; MS2; CE: 60; R=17500; [M+H]+
DATE: 2020.08.19
AUTHORS: Elapavalore, A.; Kondić, T.; Singh, R.; Schymanski, E.
LICENSE: CC BY
COPYRIGHT: Copyright © 2019 by Environmental Cheminformatics, LCSB, University of Luxembourg, Luxembourg
PUBLICATION: Elapavalore, A.; Kondić, T.; et al., Adding Open Spectral Data to MassBank and PubChem Using Open Source Tools to Support Non-Targeted Exposomics of Mixtures (submitted).
PROJECT: ENTACT U.S. Environmental Protection Agency’s Non-Targeted Analysis Collaborative Trial
COMMENT: CONFIDENCE standard compound
COMMENT: INTERNAL_ID 1270
COMMENT: DATASET 20200303_ENTACT_RP_MIX504
COMMENT: DATA_PROCESSING MERGING RMBmix ver. 0.2.7
COMMENT: DATA_PROCESSING PRESCREENING Shinyscreen ver. 0.8.0
COMMENT: ORIGINAL_ACQUISITION_NO 9485
COMMENT: ORIGINAL_PRECURSOR_SCAN_NO 9481
COMMENT: RAW_DATA available as MSV000091754 at [DOI:10.25345/C5S46HG75]
CH$NAME: Tebufenozide
CH$NAME: N-tert-butyl-N'-(4-ethylbenzoyl)-3,5-dimethylbenzohydrazide
CH$COMPOUND_CLASS: N/A; Environmental Standard
CH$FORMULA: C22H28N2O2
CH$EXACT_MASS: 352.2151
CH$SMILES: CCC1=CC=C(C=C1)C(=O)NN(C(=O)C1=CC(C)=CC(C)=C1)C(C)(C)C
CH$IUPAC: InChI=1S/C22H28N2O2/c1-7-17-8-10-18(11-9-17)20(25)23-24(22(4,5)6)21(26)19-13-15(2)12-16(3)14-19/h8-14H,7H2,1-6H3,(H,23,25)
CH$LINK: CAS 112410-23-8
CH$LINK: CHEBI CHEBI:38452
CH$LINK: KEGG C18526
CH$LINK: PUBCHEM CID:91773
CH$LINK: INCHIKEY QYPNKSZPJQQLRK-UHFFFAOYSA-N
CH$LINK: CHEMSPIDER 82870
AC$INSTRUMENT: Q Exactive Orbitrap (Thermo Scientific)
AC$INSTRUMENT_TYPE: LC-ESI-QFT
AC$MASS_SPECTROMETRY: MS_TYPE MS2
AC$MASS_SPECTROMETRY: ION_MODE POSITIVE
AC$MASS_SPECTROMETRY: IONIZATION ESI
AC$MASS_SPECTROMETRY: FRAGMENTATION_MODE HCD
AC$MASS_SPECTROMETRY: COLLISION_ENERGY 60
AC$MASS_SPECTROMETRY: RESOLUTION 17500
AC$CHROMATOGRAPHY: COLUMN_NAME Acquity BEH C18 1.7um, 2.1x150mm (Waters)
AC$CHROMATOGRAPHY: FLOW_GRADIENT 90/10 at 0-2 min, 0/100 at 15-20 min, 90/10 at 20.1-30 min
AC$CHROMATOGRAPHY: FLOW_RATE 0.20 mL/min
AC$CHROMATOGRAPHY: RETENTION_TIME 18.246 min
AC$CHROMATOGRAPHY: SOLVENT A 0.1% formic acid
AC$CHROMATOGRAPHY: SOLVENT B methanol
MS$FOCUSED_ION: BASE_PEAK 79.0212
MS$FOCUSED_ION: PRECURSOR_M/Z 353.2224
MS$FOCUSED_ION: PRECURSOR_TYPE [M+H]+
MS$FOCUSED_ION: PRECURSOR_INTENSITY 4488728.875
MS$DATA_PROCESSING: RECALIBRATE loess on assigned fragments and MS1
MS$DATA_PROCESSING: REANALYZE Peaks with additional N2/O included
MS$DATA_PROCESSING: WHOLE RMassBank 2.99.2
PK$SPLASH: splash10-001l-6900000000-dd9db0bcca7d494fe17d
PK$ANNOTATION: m/z tentative_formula formula_count mass error(ppm)
  65.0386 C5H5+ 1 65.0386 -0.33
  66.0419 H6N2O2+ 1 66.0424 -6.91
  72.0808 C4H10N+ 1 72.0808 -0.07
  79.0542 C6H7+ 1 79.0542 0.2
  91.0542 C7H7+ 1 91.0542 0.25
  92.0576 C2H8N2O2+ 1 92.058 -4.51
  103.0543 C8H7+ 1 103.0542 0.56
  105.07 C8H9+ 1 105.0699 1.5
  119.049 C8H7O+ 1 119.0491 -1.39
  123.0805 C8H11O+ 1 123.0804 0.21
  131.0493 C9H7O+ 1 131.0491 1.48
  133.0648 C9H9O+ 1 133.0648 0.36
  133.0759 C8H9N2+ 1 133.076 -0.92
  160.0519 C10H8O2+ 1 160.0519 0.36
  162.1278 C11H16N+ 1 162.1277 0.21
  241.0076 C20H+ 1 241.0073 1.46
PK$NUM_PEAK: 16
PK$PEAK: m/z int. rel.int.
  65.0386 5102.1 77
  66.0419 1986.7 30
  72.0808 7106.4 108
  79.0542 5281.4 80
  91.0542 47156.5 716
  92.0576 25726.5 391
  103.0543 4788.3 72
  105.07 18306.8 278
  119.049 2508.1 38
  123.0805 11675.2 177
  131.0493 1691 25
  133.0648 65711 999
  133.0759 8039.8 122
  160.0519 3812.9 57
  162.1278 3167.3 48
  241.0076 3180.7 48
//
