ACCESSION: MSBNK-LCSB-LU073652
RECORD_TITLE: PharmaGSID_48516; LC-ESI-QFT; MS2; CE: 30; R=17500; [M-H]-
DATE: 2020.08.19
AUTHORS: Elapavalore, A.; Kondić, T.; Singh, R.; Schymanski, E.
LICENSE: CC BY
COPYRIGHT: Copyright © 2019 by Environmental Cheminformatics, LCSB, University of Luxembourg, Luxembourg
PUBLICATION: Elapavalore, A.; Kondić, T.; et al., Adding Open Spectral Data to MassBank and PubChem Using Open Source Tools to Support Non-Targeted Exposomics of Mixtures (submitted).
PROJECT: ENTACT U.S. Environmental Protection Agency’s Non-Targeted Analysis Collaborative Trial
COMMENT: CONFIDENCE standard compound
COMMENT: INTERNAL_ID 736
COMMENT: DATASET 20200303_ENTACT_RP_MIX506
COMMENT: DATA_PROCESSING MERGING RMBmix ver. 0.2.7
COMMENT: DATA_PROCESSING PRESCREENING Shinyscreen ver. 0.8.0
COMMENT: ORIGINAL_ACQUISITION_NO 4427
COMMENT: ORIGINAL_PRECURSOR_SCAN_NO 4424
COMMENT: RAW_DATA available as MSV000091754 at [DOI:10.25345/C5S46HG75]
CH$NAME: 2-chloro-4-fluoro-N-[(E)-2-phenylethenyl]sulfonylbenzamide
CH$NAME: 2-Chloro-4-fluoro-N-{[(E)-2-phenylethenyl]sulfonyl}benzamide
CH$NAME: PharmaGSID_48516
CH$COMPOUND_CLASS: N/A; Environmental Standard
CH$FORMULA: C15H11ClFNO3S
CH$EXACT_MASS: 339.0132
CH$SMILES: O=C(NS(=O)(=O)/C=C/c1ccccc1)c1ccc(F)cc1Cl
CH$IUPAC: InChI=1S/C15H11ClFNO3S/c16-14-10-12(17)6-7-13(14)15(19)18-22(20,21)9-8-11-4-2-1-3-5-11/h1-10H,(H,18,19)/b9-8+
CH$LINK: PUBCHEM CID:15603288
CH$LINK: INCHIKEY AUMLVMKWJGCERZ-CMDGGOBGSA-N
CH$LINK: CHEMSPIDER 13078769
AC$INSTRUMENT: Q Exactive Orbitrap (Thermo Scientific)
AC$INSTRUMENT_TYPE: LC-ESI-QFT
AC$MASS_SPECTROMETRY: MS_TYPE MS2
AC$MASS_SPECTROMETRY: ION_MODE NEGATIVE
AC$MASS_SPECTROMETRY: IONIZATION ESI
AC$MASS_SPECTROMETRY: FRAGMENTATION_MODE HCD
AC$MASS_SPECTROMETRY: COLLISION_ENERGY 30
AC$MASS_SPECTROMETRY: RESOLUTION 17500
AC$CHROMATOGRAPHY: COLUMN_NAME Acquity BEH C18 1.7um, 2.1x150mm (Waters)
AC$CHROMATOGRAPHY: FLOW_GRADIENT 90/10 at 0-2 min, 0/100 at 15-20 min, 90/10 at 20.1-30 min
AC$CHROMATOGRAPHY: FLOW_RATE 0.20 mL/min
AC$CHROMATOGRAPHY: RETENTION_TIME 16.712 min
AC$CHROMATOGRAPHY: SOLVENT A 0.1% formic acid
AC$CHROMATOGRAPHY: SOLVENT B methanol
MS$FOCUSED_ION: BASE_PEAK 429.0536
MS$FOCUSED_ION: PRECURSOR_M/Z 338.0059
MS$FOCUSED_ION: PRECURSOR_TYPE [M-H]-
MS$FOCUSED_ION: PRECURSOR_INTENSITY 26083580.21094
MS$DATA_PROCESSING: RECALIBRATE loess on assigned fragments and MS1
MS$DATA_PROCESSING: REANALYZE Peaks with additional N2/O included
MS$DATA_PROCESSING: WHOLE RMassBank 2.99.2
PK$SPLASH: splash10-014r-0904000000-8a947db69ad54396c738
PK$ANNOTATION: m/z tentative_formula formula_count mass error(ppm)
  61.9706 NOS- 1 61.9706 0.25
  63.9625 O2S- 1 63.9624 0.65
  77.9657 NO2S- 1 77.9655 2.15
  79.9812 H2NO2S- 1 79.9812 0.13
  101.0397 C8H5- 2 101.0397 0.29
  105.9605 CNO3S- 1 105.9604 0.66
  116.0506 C8H6N- 2 116.0506 0.57
  117.0345 C8H5O- 4 117.0346 -0.59
  119.0502 C8H7O- 3 119.0502 -0.19
  128.9912 C6H3ClF- 2 128.9913 -0.28
  136.0203 C7H3FNO- 3 136.0204 -0.73
  165.0016 C8H5O2S- 7 165.0016 0.34
  167.0171 C8H7O2S- 6 167.0172 -0.81
  171.9971 C7H4ClFNO- 7 171.9971 0.31
  183.012 C8H7O3S- 6 183.0121 -1.01
  199.9825 C7H3FNO3S- 3 199.9823 0.98
  208.0073 C9H6NO3S- 3 208.0074 -0.45
  238.0674 C15H9FNO- 1 238.0674 0.21
  247.0337 C14H9ClFO- 2 247.0331 2.33
  302.0293 C15H9FNO3S- 1 302.0293 0.14
  338.0061 C15H10ClFNO3S- 1 338.0059 0.35
PK$NUM_PEAK: 21
PK$PEAK: m/z int. rel.int.
  61.9706 9761.4 1
  63.9625 11081.4 2
  77.9657 20783.9 3
  79.9812 75529.4 14
  101.0397 405488.1 76
  105.9605 43147.9 8
  116.0506 36798.3 6
  117.0345 20628.4 3
  119.0502 5323043.5 999
  128.9912 113810 21
  136.0203 16422.2 3
  165.0016 44237.7 8
  167.0171 16264.6 3
  171.9971 2476585.5 464
  183.012 25566.5 4
  199.9825 16460.7 3
  208.0073 144548.4 27
  238.0674 237201.3 44
  247.0337 7444.8 1
  302.0293 148024 27
  338.0061 4262179 799
//
