ACCESSION: MSBNK-LCSB-LU031752
RECORD_TITLE: PharmaGSID_48511; LC-ESI-QFT; MS2; CE: 30; R=17500; [M-H]-
DATE: 2020.08.19
AUTHORS: Elapavalore, A.; Kondić, T.; Singh, R.; Schymanski, E.
LICENSE: CC BY
COPYRIGHT: Copyright © 2019 by Environmental Cheminformatics, LCSB, University of Luxembourg, Luxembourg
PUBLICATION: Elapavalore, A.; Kondić, T.; et al., Adding Open Spectral Data to MassBank and PubChem Using Open Source Tools to Support Non-Targeted Exposomics of Mixtures (submitted).
PROJECT: ENTACT U.S. Environmental Protection Agency’s Non-Targeted Analysis Collaborative Trial
COMMENT: CONFIDENCE standard compound
COMMENT: INTERNAL_ID 317
COMMENT: DATASET 20200303_ENTACT_RP_MIX505
COMMENT: DATA_PROCESSING MERGING RMBmix ver. 0.2.7
COMMENT: DATA_PROCESSING PRESCREENING Shinyscreen ver. 0.8.0
COMMENT: ORIGINAL_ACQUISITION_NO 3846
COMMENT: ORIGINAL_PRECURSOR_SCAN_NO 3842
COMMENT: RAW_DATA available as MSV000091754 at [DOI:10.25345/C5S46HG75]
CH$NAME: PharmaGSID_48511
CH$NAME: 4-[(9-cyclopentyl-7,7-difluoro-5-methyl-6-oxo-8H-pyrimido[4,5-b][1,4]diazepin-2-yl)amino]-3-methoxy-N-(1-methylpiperidin-4-yl)benzamide
CH$COMPOUND_CLASS: N/A; Environmental Standard
CH$FORMULA: C27H35F2N7O3
CH$EXACT_MASS: 543.2769
CH$SMILES: COC1=C(NC2=NC3=C(C=N2)N(C)C(=O)C(F)(F)CN3C2CCCC2)C=CC(=C1)C(=O)NC1CCN(C)CC1
CH$IUPAC: InChI=1S/C27H35F2N7O3/c1-34-12-10-18(11-13-34)31-24(37)17-8-9-20(22(14-17)39-3)32-26-30-15-21-23(33-26)36(19-6-4-5-7-19)16-27(28,29)25(38)35(21)2/h8-9,14-15,18-19H,4-7,10-13,16H2,1-3H3,(H,31,37)(H,30,32,33)
CH$LINK: CAS 1062243-51-9
CH$LINK: PUBCHEM CID:25015677
CH$LINK: INCHIKEY DJNZZLZKAXGMMC-UHFFFAOYSA-N
CH$LINK: CHEMSPIDER 21437060
AC$INSTRUMENT: Q Exactive Orbitrap (Thermo Scientific)
AC$INSTRUMENT_TYPE: LC-ESI-QFT
AC$MASS_SPECTROMETRY: MS_TYPE MS2
AC$MASS_SPECTROMETRY: ION_MODE NEGATIVE
AC$MASS_SPECTROMETRY: IONIZATION ESI
AC$MASS_SPECTROMETRY: FRAGMENTATION_MODE HCD
AC$MASS_SPECTROMETRY: COLLISION_ENERGY 30
AC$MASS_SPECTROMETRY: RESOLUTION 17500
AC$CHROMATOGRAPHY: COLUMN_NAME Acquity BEH C18 1.7um, 2.1x150mm (Waters)
AC$CHROMATOGRAPHY: FLOW_GRADIENT 90/10 at 0-2 min, 0/100 at 15-20 min, 90/10 at 20.1-30 min
AC$CHROMATOGRAPHY: FLOW_RATE 0.20 mL/min
AC$CHROMATOGRAPHY: RETENTION_TIME 14.779 min
AC$CHROMATOGRAPHY: SOLVENT A 0.1% formic acid
AC$CHROMATOGRAPHY: SOLVENT B methanol
MS$FOCUSED_ION: BASE_PEAK 112.9857
MS$FOCUSED_ION: PRECURSOR_M/Z 542.2697
MS$FOCUSED_ION: PRECURSOR_TYPE [M-H]-
MS$FOCUSED_ION: PRECURSOR_INTENSITY 1870229.421387
MS$DATA_PROCESSING: RECALIBRATE loess on assigned fragments and MS1
MS$DATA_PROCESSING: REANALYZE Peaks with additional N2/O included
MS$DATA_PROCESSING: WHOLE RMassBank 2.99.2
PK$SPLASH: splash10-0006-0000090000-cdd635a486345908faa8
PK$ANNOTATION: m/z tentative_formula formula_count mass error(ppm)
  217.0968 C10H11N5O- 5 217.0969 -0.44
  247.1326 C13H17N3O2- 8 247.1326 -0.02
  280.1139 C13H14F2N4O- 10 280.1141 -0.87
  365.209 C25H27F2- 8 365.2086 1
  380.1844 C19H22N7O2- 11 380.184 1.02
  393.1478 C20H18FN6O2- 11 393.1481 -0.73
  395.1713 C19H21N7O3- 9 395.1711 0.54
  410.1947 C20H24N7O3- 9 410.1946 0.14
  419.1711 C21H21N7O3- 9 419.1711 0.02
  425.1748 C26H23N3O3- 9 425.1745 0.82
  470.231 C26H28N7O2- 5 470.231 0.08
  487.2338 C26H29N7O3- 4 487.2337 0.17
  506.2324 C26H29FN7O3- 1 506.2321 0.5
  507.2402 C26H30FN7O3- 1 507.24 0.54
  522.2633 C27H33FN7O3- 1 522.2634 -0.18
  526.2407 C26H30F2N7O3- 1 526.2384 4.44
  527.246 C26H31F2N7O3- 1 527.2462 -0.34
  542.2696 C27H34F2N7O3- 1 542.2697 -0.05
PK$NUM_PEAK: 18
PK$PEAK: m/z int. rel.int.
  217.0968 2624.4 2
  247.1326 4312.5 4
  280.1139 21279 21
  365.209 7568.3 7
  380.1844 9015.1 8
  393.1478 2913.9 2
  395.1713 17252.3 17
  410.1947 56404.6 56
  419.1711 2721.7 2
  425.1748 7078.3 7
  470.231 14627.5 14
  487.2338 9188 9
  506.2324 12951.1 12
  507.2402 41618.2 41
  522.2633 126862.1 126
  526.2407 4132.5 4
  527.246 275266.6 274
  542.2696 1002902.1 999
//
