ACCESSION: MSBNK-LCSB-LU106053
RECORD_TITLE: Octylparaben; LC-ESI-QFT; MS2; CE: 45; R=17500; [M-H]-
DATE: 2020.08.19
AUTHORS: Elapavalore, A.; Kondić, T.; Singh, R.; Schymanski, E.
LICENSE: CC BY
COPYRIGHT: Copyright © 2019 by Environmental Cheminformatics, LCSB, University of Luxembourg, Luxembourg
PUBLICATION: Elapavalore, A.; Kondić, T.; et al., Adding Open Spectral Data to MassBank and PubChem Using Open Source Tools to Support Non-Targeted Exposomics of Mixtures (submitted).
PROJECT: ENTACT U.S. Environmental Protection Agency’s Non-Targeted Analysis Collaborative Trial
COMMENT: CONFIDENCE standard compound
COMMENT: INTERNAL_ID 1060
COMMENT: DATASET 20200303_ENTACT_RP_MIX507
COMMENT: DATA_PROCESSING MERGING RMBmix ver. 0.2.7
COMMENT: DATA_PROCESSING PRESCREENING Shinyscreen ver. 0.8.0
COMMENT: ORIGINAL_ACQUISITION_NO 5044
COMMENT: ORIGINAL_PRECURSOR_SCAN_NO 5041
COMMENT: RAW_DATA available as MSV000091754 at [DOI:10.25345/C5S46HG75]
CH$NAME: Octylparaben
CH$NAME: octyl 4-hydroxybenzoate
CH$COMPOUND_CLASS: N/A; Environmental Standard
CH$FORMULA: C15H22O3
CH$EXACT_MASS: 250.1569
CH$SMILES: CCCCCCCCOC(=O)C1=CC=C(O)C=C1
CH$IUPAC: InChI=1S/C15H22O3/c1-2-3-4-5-6-7-12-18-15(17)13-8-10-14(16)11-9-13/h8-11,16H,2-7,12H2,1H3
CH$LINK: CAS 1219-38-1
CH$LINK: PUBCHEM CID:14642
CH$LINK: INCHIKEY RIKCMEDSBFQFAL-UHFFFAOYSA-N
CH$LINK: CHEMSPIDER 13976
AC$INSTRUMENT: Q Exactive Orbitrap (Thermo Scientific)
AC$INSTRUMENT_TYPE: LC-ESI-QFT
AC$MASS_SPECTROMETRY: MS_TYPE MS2
AC$MASS_SPECTROMETRY: ION_MODE NEGATIVE
AC$MASS_SPECTROMETRY: IONIZATION ESI
AC$MASS_SPECTROMETRY: FRAGMENTATION_MODE HCD
AC$MASS_SPECTROMETRY: COLLISION_ENERGY 45
AC$MASS_SPECTROMETRY: RESOLUTION 17500
AC$CHROMATOGRAPHY: COLUMN_NAME Acquity BEH C18 1.7um, 2.1x150mm (Waters)
AC$CHROMATOGRAPHY: FLOW_GRADIENT 90/10 at 0-2 min, 0/100 at 15-20 min, 90/10 at 20.1-30 min
AC$CHROMATOGRAPHY: FLOW_RATE 0.20 mL/min
AC$CHROMATOGRAPHY: RETENTION_TIME 19.726 min
AC$CHROMATOGRAPHY: SOLVENT A 0.1% formic acid
AC$CHROMATOGRAPHY: SOLVENT B methanol
MS$FOCUSED_ION: BASE_PEAK 249.1495
MS$FOCUSED_ION: PRECURSOR_M/Z 249.1496
MS$FOCUSED_ION: PRECURSOR_TYPE [M-H]-
MS$FOCUSED_ION: PRECURSOR_INTENSITY 131564582.7754
MS$DATA_PROCESSING: RECALIBRATE loess on assigned fragments and MS1
MS$DATA_PROCESSING: REANALYZE Peaks with additional N2/O included
MS$DATA_PROCESSING: WHOLE RMassBank 2.99.2
PK$SPLASH: splash10-000j-4930000000-456dd8b8282ca4dbc602
PK$ANNOTATION: m/z tentative_formula formula_count mass error(ppm)
  65.0033 C4HO- 1 65.0033 0.18
  67.019 C4H3O- 1 67.0189 0.83
  68.9982 C3HO2- 1 68.9982 -0.66
  69.0345 C4H5O- 1 69.0346 -1.12
  70.006 C3H2O2- 1 70.006 0.08
  71.0139 C3H3O2- 1 71.0139 0.04
  72.9931 C2HO3- 1 72.9931 -0.14
  78.0112 C5H2O- 1 78.0111 0.54
  79.019 C5H3O- 1 79.0189 0.2
  79.9903 C4O2- 1 79.9904 -0.96
  80.9982 C4HO2- 1 80.9982 0.16
  82.006 C4H2O2- 1 82.006 -0.08
  91.019 C6H3O- 1 91.0189 0.53
  92.0268 C6H4O- 1 92.0268 -0.05
  93.0346 C6H5O- 1 93.0346 0.13
  95.0139 C5H3O2- 1 95.0139 0.09
  97.0295 C5H5O2- 1 97.0295 0.41
  98.0009 C4H2O3- 1 98.0009 -0.21
  106.006 C6H2O2- 1 106.006 -0.05
  106.0426 C7H6O- 1 106.0424 1.6
  108.0217 C6H4O2- 1 108.0217 0.29
  109.0297 C6H5O2- 1 109.0295 1.85
  119.0138 C7H3O2- 1 119.0139 -0.18
  121.0295 C7H5O2- 1 121.0295 0.01
  123.0088 C6H3O3- 1 123.0088 0.26
  127.1129 C8H15O- 1 127.1128 0.12
  129.1286 C8H17O- 1 129.1285 1.01
  136.0166 C7H4O3- 1 136.0166 0.04
  137.0244 C7H5O3- 1 137.0244 -0.26
  149.0246 C8H5O3- 1 149.0244 1.46
  205.1596 C14H21O- 1 205.1598 -0.71
  209.0977 C15H13O- 1 209.0972 2.48
  249.1496 C15H21O3- 1 249.1496 0.01
PK$NUM_PEAK: 33
PK$PEAK: m/z int. rel.int.
  65.0033 27922.4 1
  67.019 45153.7 2
  68.9982 105084.1 6
  69.0345 76823.8 4
  70.006 142694 8
  71.0139 72219 4
  72.9931 54276.2 3
  78.0112 34150.4 2
  79.019 93139.7 5
  79.9903 46367.2 2
  80.9982 29018.7 1
  82.006 324909 19
  91.019 471185.1 28
  92.0268 3083423 187
  93.0346 7003791 426
  95.0139 4157300 253
  97.0295 41463.4 2
  98.0009 22552.1 1
  106.006 209032.9 12
  106.0426 86703.5 5
  108.0217 3767462.2 229
  109.0297 20479.1 1
  119.0138 557470.1 33
  121.0295 665561.5 40
  123.0088 561940.9 34
  127.1129 736593.7 44
  129.1286 33321.9 2
  136.0166 16406128 999
  137.0244 5544523 337
  149.0246 35229.1 2
  205.1596 67078.9 4
  209.0977 53160.7 3
  249.1496 12507458 761
//
