ACCESSION: MSBNK-LCSB-LU005203
RECORD_TITLE: Thiacloprid; LC-ESI-QFT; MS2; CE: 45; R=17500; [M+H]+
DATE: 2020.08.19
AUTHORS: Elapavalore, A.; Kondić, T.; Singh, R.; Schymanski, E.
LICENSE: CC BY
COPYRIGHT: Copyright © 2019 by Environmental Cheminformatics, LCSB, University of Luxembourg, Luxembourg
PUBLICATION: Elapavalore, A.; Kondić, T.; et al., Adding Open Spectral Data to MassBank and PubChem Using Open Source Tools to Support Non-Targeted Exposomics of Mixtures (submitted).
PROJECT: ENTACT U.S. Environmental Protection Agency’s Non-Targeted Analysis Collaborative Trial
COMMENT: CONFIDENCE standard compound
COMMENT: INTERNAL_ID 52
COMMENT: DATASET 20200303_ENTACT_RP_MIX503
COMMENT: DATA_PROCESSING MERGING RMBmix ver. 0.2.7
COMMENT: DATA_PROCESSING PRESCREENING Shinyscreen ver. 0.8.0
COMMENT: ORIGINAL_ACQUISITION_NO 7190
COMMENT: ORIGINAL_PRECURSOR_SCAN_NO 7188
COMMENT: RAW_DATA available as MSV000091754 at [DOI:10.25345/C5S46HG75]
CH$NAME: Thiacloprid
CH$NAME: [3-[(6-chloropyridin-3-yl)methyl]-1,3-thiazolidin-2-ylidene]cyanamide
CH$COMPOUND_CLASS: N/A; Environmental Standard
CH$FORMULA: C10H9ClN4S
CH$EXACT_MASS: 252.0236
CH$SMILES: C1CSC(=NC#N)N1CC2=CN=C(C=C2)Cl
CH$IUPAC: InChI=1S/C10H9ClN4S/c11-9-2-1-8(5-13-9)6-15-3-4-16-10(15)14-7-12/h1-2,5H,3-4,6H2
CH$LINK: CAS 111988-49-9
CH$LINK: CHEBI CHEBI:39175
CH$LINK: PUBCHEM CID:115224
CH$LINK: INCHIKEY HOKKPVIRMVDYPB-UHFFFAOYSA-N
CH$LINK: CHEMSPIDER 21865404
AC$INSTRUMENT: Q Exactive Orbitrap (Thermo Scientific)
AC$INSTRUMENT_TYPE: LC-ESI-QFT
AC$MASS_SPECTROMETRY: MS_TYPE MS2
AC$MASS_SPECTROMETRY: ION_MODE POSITIVE
AC$MASS_SPECTROMETRY: IONIZATION ESI
AC$MASS_SPECTROMETRY: FRAGMENTATION_MODE HCD
AC$MASS_SPECTROMETRY: COLLISION_ENERGY 45
AC$MASS_SPECTROMETRY: RESOLUTION 17500
AC$CHROMATOGRAPHY: COLUMN_NAME Acquity BEH C18 1.7um, 2.1x150mm (Waters)
AC$CHROMATOGRAPHY: FLOW_GRADIENT 90/10 at 0-2 min, 0/100 at 15-20 min, 90/10 at 20.1-30 min
AC$CHROMATOGRAPHY: FLOW_RATE 0.20 mL/min
AC$CHROMATOGRAPHY: RETENTION_TIME 13.720 min
AC$CHROMATOGRAPHY: SOLVENT A 0.1% formic acid
AC$CHROMATOGRAPHY: SOLVENT B methanol
MS$FOCUSED_ION: BASE_PEAK 79.0212
MS$FOCUSED_ION: PRECURSOR_M/Z 253.0309
MS$FOCUSED_ION: PRECURSOR_TYPE [M+H]+
MS$FOCUSED_ION: PRECURSOR_INTENSITY 9607864.3125
MS$DATA_PROCESSING: RECALIBRATE loess on assigned fragments and MS1
MS$DATA_PROCESSING: REANALYZE Peaks with additional N2/O included
MS$DATA_PROCESSING: WHOLE RMassBank 2.99.2
PK$SPLASH: splash10-004i-0900000000-adb868645505347aecb0
PK$ANNOTATION: m/z tentative_formula formula_count mass error(ppm)
  63.023 C5H3+ 1 63.0229 0.61
  72.9835 C3H2Cl+ 1 72.984 -6.27
  81.0335 C2H8ClN+ 1 81.034 -6.31
  90.0338 C6H4N+ 1 90.0338 -0.06
  91.0416 C6H5N+ 1 91.0417 -0.04
  98.9996 C5H4Cl+ 1 98.9996 -0.12
  126.0104 C6H5ClN+ 3 126.0105 -0.6
  128.0262 C6H7ClN+ 3 128.0262 0.53
  144.021 C4H5ClN4+ 2 144.0197 8.77
  151.0057 C7H4ClN2+ 2 151.0058 -0.42
  157.0511 C8H5N4+ 2 157.0509 1.18
  186.0139 C8H9ClNS+ 2 186.0139 -0.1
  190.0431 C9H8N3S+ 1 190.0433 -1.54
  193.0274 C8H6ClN4+ 1 193.0276 -0.85
  211.0092 C9H8ClN2S+ 2 211.0091 0.43
  217.0544 C10H9N4S+ 1 217.0542 0.78
  226.0198 C9H9ClN3S+ 1 226.02 -1.11
  236.0042 C10H7ClN3S+ 1 236.0044 -0.89
  253.0308 C10H10ClN4S+ 1 253.0309 -0.39
PK$NUM_PEAK: 19
PK$PEAK: m/z int. rel.int.
  63.023 10942 1
  72.9835 16487.8 1
  81.0335 24493.3 2
  90.0338 124517.2 11
  91.0416 23050.4 2
  98.9996 49387.6 4
  126.0104 10693783 999
  128.0262 13790.7 1
  144.021 71203.1 6
  151.0057 55926.2 5
  157.0511 19548.9 1
  186.0139 155528.8 14
  190.0431 15644.7 1
  193.0274 13696.2 1
  211.0092 45718 4
  217.0544 27511.1 2
  226.0198 47258.4 4
  236.0042 24501.9 2
  253.0308 195953.8 18
//
