ACCESSION: MSBNK-LCSB-LU030603
RECORD_TITLE: 2-Methyl-4-amino-6-methoxy-s-triazine; LC-ESI-QFT; MS2; CE: 45; R=17500; [M+H]+
DATE: 2020.08.19
AUTHORS: Elapavalore, A.; Kondić, T.; Singh, R.; Schymanski, E.
LICENSE: CC BY
COPYRIGHT: Copyright © 2019 by Environmental Cheminformatics, LCSB, University of Luxembourg, Luxembourg
PUBLICATION: Elapavalore, A.; Kondić, T.; et al., Adding Open Spectral Data to MassBank and PubChem Using Open Source Tools to Support Non-Targeted Exposomics of Mixtures (submitted).
PROJECT: ENTACT U.S. Environmental Protection Agency’s Non-Targeted Analysis Collaborative Trial
COMMENT: CONFIDENCE standard compound
COMMENT: INTERNAL_ID 306
COMMENT: DATASET 20200303_ENTACT_RP_MIX505
COMMENT: DATA_PROCESSING MERGING RMBmix ver. 0.2.7
COMMENT: DATA_PROCESSING PRESCREENING Shinyscreen ver. 0.8.0
COMMENT: ORIGINAL_ACQUISITION_NO 2626
COMMENT: ORIGINAL_PRECURSOR_SCAN_NO 2625
COMMENT: RAW_DATA available as MSV000091754 at [DOI:10.25345/C5S46HG75]
CH$NAME: 2-Methyl-4-amino-6-methoxy-s-triazine
CH$NAME: 2-Amino-4-methoxy-6-methyl-1,3,5-triazine
CH$NAME: 4-methoxy-6-methyl-1,3,5-triazin-2-amine
CH$COMPOUND_CLASS: N/A; Environmental Standard
CH$FORMULA: C5H8N4O
CH$EXACT_MASS: 140.0698
CH$SMILES: COC1=NC(C)=NC(N)=N1
CH$IUPAC: InChI=1S/C5H8N4O/c1-3-7-4(6)9-5(8-3)10-2/h1-2H3,(H2,6,7,8,9)
CH$LINK: CAS 1122-73-2
CH$LINK: CHEBI CHEBI:83511
CH$LINK: PUBCHEM CID:15466
CH$LINK: INCHIKEY NXFQWRWXEYTOTK-UHFFFAOYSA-N
CH$LINK: CHEMSPIDER 14716
AC$INSTRUMENT: Q Exactive Orbitrap (Thermo Scientific)
AC$INSTRUMENT_TYPE: LC-ESI-QFT
AC$MASS_SPECTROMETRY: MS_TYPE MS2
AC$MASS_SPECTROMETRY: ION_MODE POSITIVE
AC$MASS_SPECTROMETRY: IONIZATION ESI
AC$MASS_SPECTROMETRY: FRAGMENTATION_MODE HCD
AC$MASS_SPECTROMETRY: COLLISION_ENERGY 45
AC$MASS_SPECTROMETRY: RESOLUTION 17500
AC$CHROMATOGRAPHY: COLUMN_NAME Acquity BEH C18 1.7um, 2.1x150mm (Waters)
AC$CHROMATOGRAPHY: FLOW_GRADIENT 90/10 at 0-2 min, 0/100 at 15-20 min, 90/10 at 20.1-30 min
AC$CHROMATOGRAPHY: FLOW_RATE 0.20 mL/min
AC$CHROMATOGRAPHY: RETENTION_TIME 5.041 min
AC$CHROMATOGRAPHY: SOLVENT A 0.1% formic acid
AC$CHROMATOGRAPHY: SOLVENT B methanol
MS$FOCUSED_ION: BASE_PEAK 79.0211
MS$FOCUSED_ION: PRECURSOR_M/Z 141.0771
MS$FOCUSED_ION: PRECURSOR_TYPE [M+H]+
MS$FOCUSED_ION: PRECURSOR_INTENSITY 6489520.78125
MS$DATA_PROCESSING: RECALIBRATE loess on assigned fragments and MS1
MS$DATA_PROCESSING: REANALYZE Peaks with additional N2/O included
MS$DATA_PROCESSING: WHOLE RMassBank 2.99.2
PK$SPLASH: splash10-0006-4900000000-6c6c19925251b2b8cdca
PK$ANNOTATION: m/z tentative_formula formula_count mass error(ppm)
  56.0495 C3H6N+ 1 56.0495 0.24
  57.0447 C2H5N2+ 1 57.0447 0.04
  58.0287 C2H4NO+ 1 58.0287 -0.44
  68.0243 C2H2N3+ 1 68.0243 -1.02
  69.0082 C2HN2O+ 1 69.0083 -1.52
  73.0759 C3H9N2+ 1 73.076 -1.41
  82.0399 C3H4N3+ 1 82.04 -0.63
  83.024 C3H3N2O+ 1 83.024 -0.32
  84.0557 C3H6N3+ 1 84.0556 0.76
  85.0396 C3H5N2O+ 1 85.0396 -0.14
  100.0505 C3H6N3O+ 1 100.0505 -0.2
  124.0503 C5H6N3O+ 1 124.0505 -1.56
  141.077 C5H9N4O+ 1 141.0771 -0.3
PK$NUM_PEAK: 13
PK$PEAK: m/z int. rel.int.
  56.0495 380558.5 102
  57.0447 1076222.6 288
  58.0287 88734.6 23
  68.0243 34788.3 9
  69.0082 9654.9 2
  73.0759 6205.5 1
  82.0399 8953.4 2
  83.024 57138.8 15
  84.0557 31476.4 8
  85.0396 297635.6 79
  100.0505 258811.1 69
  124.0503 8639.3 2
  141.077 3726360 999
//
