ACCESSION: MSBNK-LCSB-LU043405
RECORD_TITLE: Octabenzone; LC-ESI-QFT; MS2; CE: 75; R=17500; [M+H]+
DATE: 2020.08.19
AUTHORS: Elapavalore, A.; Kondić, T.; Singh, R.; Schymanski, E.
LICENSE: CC BY
COPYRIGHT: Copyright © 2019 by Environmental Cheminformatics, LCSB, University of Luxembourg, Luxembourg
PUBLICATION: Elapavalore, A.; Kondić, T.; et al., Adding Open Spectral Data to MassBank and PubChem Using Open Source Tools to Support Non-Targeted Exposomics of Mixtures (submitted).
PROJECT: ENTACT U.S. Environmental Protection Agency’s Non-Targeted Analysis Collaborative Trial
COMMENT: CONFIDENCE standard compound
COMMENT: INTERNAL_ID 434
COMMENT: DATASET 20200303_ENTACT_RP_MIX505
COMMENT: DATA_PROCESSING MERGING RMBmix ver. 0.2.7
COMMENT: DATA_PROCESSING PRESCREENING Shinyscreen ver. 0.8.0
COMMENT: ORIGINAL_ACQUISITION_NO 11562
COMMENT: ORIGINAL_PRECURSOR_SCAN_NO 11560
COMMENT: RAW_DATA available as MSV000091754 at [DOI:10.25345/C5S46HG75]
CH$NAME: Octabenzone
CH$NAME: (2-hydroxy-4-octoxyphenyl)-phenylmethanone
CH$COMPOUND_CLASS: N/A; Environmental Standard
CH$FORMULA: C21H26O3
CH$EXACT_MASS: 326.1882
CH$SMILES: CCCCCCCCOC1=CC(O)=C(C=C1)C(=O)C1=CC=CC=C1
CH$IUPAC: InChI=1S/C21H26O3/c1-2-3-4-5-6-10-15-24-18-13-14-19(20(22)16-18)21(23)17-11-8-7-9-12-17/h7-9,11-14,16,22H,2-6,10,15H2,1H3
CH$LINK: CAS 1843-05-6
CH$LINK: CHEBI CHEBI:135390
CH$LINK: KEGG D00441
CH$LINK: PUBCHEM CID:15797
CH$LINK: INCHIKEY QUAMTGJKVDWJEQ-UHFFFAOYSA-N
CH$LINK: CHEMSPIDER 15020
AC$INSTRUMENT: Q Exactive Orbitrap (Thermo Scientific)
AC$INSTRUMENT_TYPE: LC-ESI-QFT
AC$MASS_SPECTROMETRY: MS_TYPE MS2
AC$MASS_SPECTROMETRY: ION_MODE POSITIVE
AC$MASS_SPECTROMETRY: IONIZATION ESI
AC$MASS_SPECTROMETRY: FRAGMENTATION_MODE HCD
AC$MASS_SPECTROMETRY: COLLISION_ENERGY 75
AC$MASS_SPECTROMETRY: RESOLUTION 17500
AC$CHROMATOGRAPHY: COLUMN_NAME Acquity BEH C18 1.7um, 2.1x150mm (Waters)
AC$CHROMATOGRAPHY: FLOW_GRADIENT 90/10 at 0-2 min, 0/100 at 15-20 min, 90/10 at 20.1-30 min
AC$CHROMATOGRAPHY: FLOW_RATE 0.20 mL/min
AC$CHROMATOGRAPHY: RETENTION_TIME 18.891 min
AC$CHROMATOGRAPHY: SOLVENT A 0.1% formic acid
AC$CHROMATOGRAPHY: SOLVENT B methanol
MS$FOCUSED_ION: BASE_PEAK 79.0211
MS$FOCUSED_ION: PRECURSOR_M/Z 327.1955
MS$FOCUSED_ION: PRECURSOR_TYPE [M+H]+
MS$FOCUSED_ION: PRECURSOR_INTENSITY 2663310.34375
MS$DATA_PROCESSING: RECALIBRATE loess on assigned fragments and MS1
MS$DATA_PROCESSING: REANALYZE Peaks with additional N2/O included
MS$DATA_PROCESSING: WHOLE RMassBank 2.99.2
PK$SPLASH: splash10-001i-9000000000-e71900f6106533f3e6cd
PK$ANNOTATION: m/z tentative_formula formula_count mass error(ppm)
  50.0152 C4H2+ 1 50.0151 1.5
  51.0229 C4H3+ 1 51.0229 0.26
  53.0023 C3HO+ 1 53.0022 1.7
  53.0386 C4H5+ 1 53.0386 0.82
  55.018 C3H3O+ 1 55.0178 2.48
  57.0699 C4H9+ 1 57.0699 0.47
  77.0385 C6H5+ 1 77.0386 -1.08
  81.0335 C5H5O+ 1 81.0335 0.42
  95.0492 C6H7O+ 1 95.0491 0.42
  115.0542 C9H7+ 1 115.0542 -0.03
  141.0699 C11H9+ 1 141.0699 0.2
PK$NUM_PEAK: 11
PK$PEAK: m/z int. rel.int.
  50.0152 2671.9 8
  51.0229 5510.4 17
  53.0023 8112.3 26
  53.0386 68953.9 223
  55.018 2184.8 7
  57.0699 26155.8 84
  77.0385 14531.2 47
  81.0335 308591.9 999
  95.0492 142460.3 461
  115.0542 2482.3 8
  141.0699 3879.4 12
//
