ACCESSION: MSBNK-LCSB-LU124351
RECORD_TITLE: 2`-Acetonaphthone; LC-ESI-QFT; MS2; CE: 15; R=17500; [M-H]-
DATE: 2020.08.19
AUTHORS: Elapavalore, A.; Kondić, T.; Singh, R.; Schymanski, E.
LICENSE: CC BY
COPYRIGHT: Copyright © 2019 by Environmental Cheminformatics, LCSB, University of Luxembourg, Luxembourg
PUBLICATION: Elapavalore, A.; Kondić, T.; et al., Adding Open Spectral Data to MassBank and PubChem Using Open Source Tools to Support Non-Targeted Exposomics of Mixtures (submitted).
PROJECT: ENTACT U.S. Environmental Protection Agency’s Non-Targeted Analysis Collaborative Trial
COMMENT: CONFIDENCE standard compound
COMMENT: INTERNAL_ID 1243
COMMENT: DATASET 20200303_ENTACT_RP_MIX508
COMMENT: DATA_PROCESSING MERGING RMBmix ver. 0.2.7
COMMENT: DATA_PROCESSING PRESCREENING Shinyscreen ver. 0.8.0
COMMENT: ORIGINAL_ACQUISITION_NO 4882
COMMENT: ORIGINAL_PRECURSOR_SCAN_NO 4877
COMMENT: RAW_DATA available as MSV000091754 at [DOI:10.25345/C5S46HG75]
CH$NAME: 2'-Acetonaphthone
CH$NAME: 2-Acetylnaphthalene
CH$NAME: 1-naphthalen-2-ylethanone
CH$COMPOUND_CLASS: N/A; Environmental Standard
CH$FORMULA: C12H10O
CH$EXACT_MASS: 170.0732
CH$SMILES: CC(=O)C1=CC2=CC=CC=C2C=C1
CH$IUPAC: InChI=1S/C12H10O/c1-9(13)11-7-6-10-4-2-3-5-12(10)8-11/h2-8H,1H3
CH$LINK: CAS 93-08-3
CH$LINK: CHEBI CHEBI:52364
CH$LINK: PUBCHEM CID:7122
CH$LINK: INCHIKEY XSAYZAUNJMRRIR-UHFFFAOYSA-N
CH$LINK: CHEMSPIDER 6855
AC$INSTRUMENT: Q Exactive Orbitrap (Thermo Scientific)
AC$INSTRUMENT_TYPE: LC-ESI-QFT
AC$MASS_SPECTROMETRY: MS_TYPE MS2
AC$MASS_SPECTROMETRY: ION_MODE NEGATIVE
AC$MASS_SPECTROMETRY: IONIZATION ESI
AC$MASS_SPECTROMETRY: FRAGMENTATION_MODE HCD
AC$MASS_SPECTROMETRY: COLLISION_ENERGY 15
AC$MASS_SPECTROMETRY: RESOLUTION 17500
AC$CHROMATOGRAPHY: COLUMN_NAME Acquity BEH C18 1.7um, 2.1x150mm (Waters)
AC$CHROMATOGRAPHY: FLOW_GRADIENT 90/10 at 0-2 min, 0/100 at 15-20 min, 90/10 at 20.1-30 min
AC$CHROMATOGRAPHY: FLOW_RATE 0.20 mL/min
AC$CHROMATOGRAPHY: RETENTION_TIME 17.822 min
AC$CHROMATOGRAPHY: SOLVENT A 0.1% formic acid
AC$CHROMATOGRAPHY: SOLVENT B methanol
MS$FOCUSED_ION: BASE_PEAK 253.0506
MS$FOCUSED_ION: PRECURSOR_M/Z 169.0659
MS$FOCUSED_ION: PRECURSOR_TYPE [M-H]-
MS$FOCUSED_ION: PRECURSOR_INTENSITY 455606.2753906
MS$DATA_PROCESSING: RECALIBRATE loess on assigned fragments and MS1
MS$DATA_PROCESSING: REANALYZE Peaks with additional N2/O included
MS$DATA_PROCESSING: WHOLE RMassBank 2.99.2
PK$SPLASH: splash10-00kf-9600000000-9f3d8aec6bfb7ff9f1f0
PK$ANNOTATION: m/z tentative_formula formula_count mass error(ppm)
  93.0346 C6H5O- 1 93.0346 -0.05
  141.0712 C11H9- 1 141.071 1.49
  169.0659 C12H9O- 1 169.0659 0
PK$NUM_PEAK: 3
PK$PEAK: m/z int. rel.int.
  93.0346 442054.6 999
  141.0712 2231.3 5
  169.0659 334677.8 756
//
