ACCESSION: MSBNK-LCSB-LU076301
RECORD_TITLE: 2,2`-(3-Chlorophenylimino)diethanol; LC-ESI-QFT; MS2; CE: 15; R=17500; [M+H]+
DATE: 2020.08.19
AUTHORS: Elapavalore, A.; Kondić, T.; Singh, R.; Schymanski, E.
LICENSE: CC BY
COPYRIGHT: Copyright © 2019 by Environmental Cheminformatics, LCSB, University of Luxembourg, Luxembourg
PUBLICATION: Elapavalore, A.; Kondić, T.; et al., Adding Open Spectral Data to MassBank and PubChem Using Open Source Tools to Support Non-Targeted Exposomics of Mixtures (submitted).
PROJECT: ENTACT U.S. Environmental Protection Agency’s Non-Targeted Analysis Collaborative Trial
COMMENT: CONFIDENCE standard compound
COMMENT: INTERNAL_ID 763
COMMENT: DATASET 20200303_ENTACT_RP_MIX507
COMMENT: DATA_PROCESSING MERGING RMBmix ver. 0.2.7
COMMENT: DATA_PROCESSING PRESCREENING Shinyscreen ver. 0.8.0
COMMENT: ORIGINAL_ACQUISITION_NO 8111
COMMENT: ORIGINAL_PRECURSOR_SCAN_NO 8109
COMMENT: RAW_DATA available as MSV000091754 at [DOI:10.25345/C5S46HG75]
CH$NAME: 2,2'-(3-Chlorophenylimino)diethanol
CH$NAME: 3-Chloro-N,N-bis(2-hydroxyethyl)aniline
CH$NAME: 2-[3-chloro-N-(2-hydroxyethyl)anilino]ethanol
CH$COMPOUND_CLASS: N/A; Environmental Standard
CH$FORMULA: C10H14ClNO2
CH$EXACT_MASS: 215.0713
CH$SMILES: OCCN(CCO)C1=CC(Cl)=CC=C1
CH$IUPAC: InChI=1S/C10H14ClNO2/c11-9-2-1-3-10(8-9)12(4-6-13)5-7-14/h1-3,8,13-14H,4-7H2
CH$LINK: CAS 92-00-2
CH$LINK: PUBCHEM CID:66688
CH$LINK: INCHIKEY MVQUJEUCFOGFJU-UHFFFAOYSA-N
CH$LINK: CHEMSPIDER 60054
AC$INSTRUMENT: Q Exactive Orbitrap (Thermo Scientific)
AC$INSTRUMENT_TYPE: LC-ESI-QFT
AC$MASS_SPECTROMETRY: MS_TYPE MS2
AC$MASS_SPECTROMETRY: ION_MODE POSITIVE
AC$MASS_SPECTROMETRY: IONIZATION ESI
AC$MASS_SPECTROMETRY: FRAGMENTATION_MODE HCD
AC$MASS_SPECTROMETRY: COLLISION_ENERGY 15
AC$MASS_SPECTROMETRY: RESOLUTION 17500
AC$CHROMATOGRAPHY: COLUMN_NAME Acquity BEH C18 1.7um, 2.1x150mm (Waters)
AC$CHROMATOGRAPHY: FLOW_GRADIENT 90/10 at 0-2 min, 0/100 at 15-20 min, 90/10 at 20.1-30 min
AC$CHROMATOGRAPHY: FLOW_RATE 0.20 mL/min
AC$CHROMATOGRAPHY: RETENTION_TIME 15.559 min
AC$CHROMATOGRAPHY: SOLVENT A 0.1% formic acid
AC$CHROMATOGRAPHY: SOLVENT B methanol
MS$FOCUSED_ION: BASE_PEAK 79.0212
MS$FOCUSED_ION: PRECURSOR_M/Z 216.0786
MS$FOCUSED_ION: PRECURSOR_TYPE [M+H]+
MS$FOCUSED_ION: PRECURSOR_INTENSITY 7187949.3125
MS$DATA_PROCESSING: RECALIBRATE loess on assigned fragments and MS1
MS$DATA_PROCESSING: REANALYZE Peaks with additional N2/O included
MS$DATA_PROCESSING: WHOLE RMassBank 2.99.2
PK$SPLASH: splash10-014i-0290000000-a114aea9142a645c95ce
PK$ANNOTATION: m/z tentative_formula formula_count mass error(ppm)
  119.073 C8H9N+ 1 119.073 0.27
  132.0807 C9H10N+ 1 132.0808 -0.36
  140.0267 C7H7ClN+ 2 140.0262 3.67
  144.0808 C10H10N+ 1 144.0808 -0.04
  145.0886 C10H11N+ 1 145.0886 -0.34
  152.0263 C8H7ClN+ 1 152.0262 1.01
  153.034 C8H8ClN+ 1 153.034 0.13
  154.0418 C8H9ClN+ 1 154.0418 0.14
  163.0992 C10H13NO+ 1 163.0992 0.39
  171.0449 C8H10ClNO+ 1 171.0445 2.32
  172.0524 C8H11ClNO+ 1 172.0524 0.1
  180.0575 C10H11ClN+ 1 180.0575 0.4
  198.0681 C10H13ClNO+ 1 198.068 0.58
  216.0786 C10H15ClNO2+ 1 216.0786 0.25
PK$NUM_PEAK: 14
PK$PEAK: m/z int. rel.int.
  119.073 14529 2
  132.0807 17129.6 3
  140.0267 20047.8 4
  144.0808 5900.5 1
  145.0886 19812.7 4
  152.0263 7302.8 1
  153.034 27549.7 5
  154.0418 197369.1 40
  163.0992 31957.1 6
  171.0449 6661.4 1
  172.0524 100313.5 20
  180.0575 127946.5 25
  198.0681 861985.6 175
  216.0786 4919853.5 999
//
