ACCESSION: MSBNK-LCSB-LU050306
RECORD_TITLE: 1,1`-Disulfanediyldiazepan-2-one; LC-ESI-QFT; MS2; CE: 90; R=17500; [M+H]+
DATE: 2020.08.19
AUTHORS: Elapavalore, A.; Kondić, T.; Singh, R.; Schymanski, E.
LICENSE: CC BY
COPYRIGHT: Copyright © 2019 by Environmental Cheminformatics, LCSB, University of Luxembourg, Luxembourg
PUBLICATION: Elapavalore, A.; Kondić, T.; et al., Adding Open Spectral Data to MassBank and PubChem Using Open Source Tools to Support Non-Targeted Exposomics of Mixtures (submitted).
PROJECT: ENTACT U.S. Environmental Protection Agency’s Non-Targeted Analysis Collaborative Trial
COMMENT: CONFIDENCE standard compound
COMMENT: INTERNAL_ID 503
COMMENT: DATASET 20200303_ENTACT_RP_MIX506
COMMENT: DATA_PROCESSING MERGING RMBmix ver. 0.2.7
COMMENT: DATA_PROCESSING PRESCREENING Shinyscreen ver. 0.8.0
COMMENT: ORIGINAL_ACQUISITION_NO 8416
COMMENT: ORIGINAL_PRECURSOR_SCAN_NO 8414
COMMENT: RAW_DATA available as MSV000091754 at [DOI:10.25345/C5S46HG75]
CH$NAME: 1,1'-Disulfanediyldiazepan-2-one
CH$NAME: 1-[(2-oxoazepan-1-yl)disulfanyl]azepan-2-one
CH$COMPOUND_CLASS: N/A; Environmental Standard
CH$FORMULA: C12H20N2O2S2
CH$EXACT_MASS: 288.0966
CH$SMILES: O=C1CCCCCN1SSN1CCCCCC1=O
CH$IUPAC: InChI=1S/C12H20N2O2S2/c15-11-7-3-1-5-9-13(11)17-18-14-10-6-2-4-8-12(14)16/h1-10H2
CH$LINK: CAS 2441-55-6
CH$LINK: PUBCHEM CID:90282
CH$LINK: INCHIKEY LGBYJXBCVZKJBL-UHFFFAOYSA-N
CH$LINK: CHEMSPIDER 81507
AC$INSTRUMENT: Q Exactive Orbitrap (Thermo Scientific)
AC$INSTRUMENT_TYPE: LC-ESI-QFT
AC$MASS_SPECTROMETRY: MS_TYPE MS2
AC$MASS_SPECTROMETRY: ION_MODE POSITIVE
AC$MASS_SPECTROMETRY: IONIZATION ESI
AC$MASS_SPECTROMETRY: FRAGMENTATION_MODE HCD
AC$MASS_SPECTROMETRY: COLLISION_ENERGY 90
AC$MASS_SPECTROMETRY: RESOLUTION 17500
AC$CHROMATOGRAPHY: COLUMN_NAME Acquity BEH C18 1.7um, 2.1x150mm (Waters)
AC$CHROMATOGRAPHY: FLOW_GRADIENT 90/10 at 0-2 min, 0/100 at 15-20 min, 90/10 at 20.1-30 min
AC$CHROMATOGRAPHY: FLOW_RATE 0.20 mL/min
AC$CHROMATOGRAPHY: RETENTION_TIME 16.230 min
AC$CHROMATOGRAPHY: SOLVENT A 0.1% formic acid
AC$CHROMATOGRAPHY: SOLVENT B methanol
MS$FOCUSED_ION: BASE_PEAK 79.0211
MS$FOCUSED_ION: PRECURSOR_M/Z 289.1039
MS$FOCUSED_ION: PRECURSOR_TYPE [M+H]+
MS$FOCUSED_ION: PRECURSOR_INTENSITY 5455034.25
MS$DATA_PROCESSING: RECALIBRATE loess on assigned fragments and MS1
MS$DATA_PROCESSING: REANALYZE Peaks with additional N2/O included
MS$DATA_PROCESSING: WHOLE RMassBank 2.99.2
PK$SPLASH: splash10-05o1-9000000000-98a88909dbdff908feba
PK$ANNOTATION: m/z tentative_formula formula_count mass error(ppm)
  55.0543 C4H7+ 1 55.0542 1.83
  56.0495 C3H6N+ 1 56.0495 0.23
  61.0107 C2H5S+ 1 61.0106 1.17
  69.0701 C5H9+ 1 69.0699 2.55
  82.0653 C5H8N+ 1 82.0651 1.87
  83.0729 C5H9N+ 1 83.073 -0.4
  96.081 C6H10N+ 1 96.0808 2.37
  114.0913 C6H12NO+ 1 114.0913 -0.07
PK$NUM_PEAK: 8
PK$PEAK: m/z int. rel.int.
  55.0543 6506.7 788
  56.0495 2176.2 263
  61.0107 1846.6 223
  69.0701 8240.7 999
  82.0653 6633 804
  83.0729 2636.7 319
  96.081 5370.6 651
  114.0913 2178.3 264
//
