ACCESSION: MSBNK-LCSB-LU064901
RECORD_TITLE: 3-Hydroxy-2-naphthoic o-anisidide; LC-ESI-QFT; MS2; CE: 15; R=17500; [M+H]+
DATE: 2020.08.19
AUTHORS: Elapavalore, A.; Kondić, T.; Singh, R.; Schymanski, E.
LICENSE: CC BY
COPYRIGHT: Copyright © 2019 by Environmental Cheminformatics, LCSB, University of Luxembourg, Luxembourg
PUBLICATION: Elapavalore, A.; Kondić, T.; et al., Adding Open Spectral Data to MassBank and PubChem Using Open Source Tools to Support Non-Targeted Exposomics of Mixtures (submitted).
PROJECT: ENTACT U.S. Environmental Protection Agency’s Non-Targeted Analysis Collaborative Trial
COMMENT: CONFIDENCE standard compound
COMMENT: INTERNAL_ID 649
COMMENT: DATASET 20200303_ENTACT_RP_MIX506
COMMENT: DATA_PROCESSING MERGING RMBmix ver. 0.2.7
COMMENT: DATA_PROCESSING PRESCREENING Shinyscreen ver. 0.8.0
COMMENT: ORIGINAL_ACQUISITION_NO 9646
COMMENT: ORIGINAL_PRECURSOR_SCAN_NO 9645
COMMENT: RAW_DATA available as MSV000091754 at [DOI:10.25345/C5S46HG75]
CH$NAME: 3-Hydroxy-2-naphthoic o-anisidide
CH$NAME: 3-Hydroxy-2'-methoxy-2-naphthanilide
CH$NAME: 3-hydroxy-N-(2-methoxyphenyl)naphthalene-2-carboxamide
CH$COMPOUND_CLASS: N/A; Environmental Standard
CH$FORMULA: C18H15NO3
CH$EXACT_MASS: 293.1052
CH$SMILES: COC1=CC=CC=C1NC(=O)C1=CC2=C(C=CC=C2)C=C1O
CH$IUPAC: InChI=1S/C18H15NO3/c1-22-17-9-5-4-8-15(17)19-18(21)14-10-12-6-2-3-7-13(12)11-16(14)20/h2-11,20H,1H3,(H,19,21)
CH$LINK: CAS 135-62-6
CH$LINK: PUBCHEM CID:67274
CH$LINK: INCHIKEY AQYMRQUYPFCXDM-UHFFFAOYSA-N
CH$LINK: CHEMSPIDER 60606
AC$INSTRUMENT: Q Exactive Orbitrap (Thermo Scientific)
AC$INSTRUMENT_TYPE: LC-ESI-QFT
AC$MASS_SPECTROMETRY: MS_TYPE MS2
AC$MASS_SPECTROMETRY: ION_MODE POSITIVE
AC$MASS_SPECTROMETRY: IONIZATION ESI
AC$MASS_SPECTROMETRY: FRAGMENTATION_MODE HCD
AC$MASS_SPECTROMETRY: COLLISION_ENERGY 15
AC$MASS_SPECTROMETRY: RESOLUTION 17500
AC$CHROMATOGRAPHY: COLUMN_NAME Acquity BEH C18 1.7um, 2.1x150mm (Waters)
AC$CHROMATOGRAPHY: FLOW_GRADIENT 90/10 at 0-2 min, 0/100 at 15-20 min, 90/10 at 20.1-30 min
AC$CHROMATOGRAPHY: FLOW_RATE 0.20 mL/min
AC$CHROMATOGRAPHY: RETENTION_TIME 18.374 min
AC$CHROMATOGRAPHY: SOLVENT A 0.1% formic acid
AC$CHROMATOGRAPHY: SOLVENT B methanol
MS$FOCUSED_ION: BASE_PEAK 79.0211
MS$FOCUSED_ION: PRECURSOR_M/Z 294.1125
MS$FOCUSED_ION: PRECURSOR_TYPE [M+H]+
MS$FOCUSED_ION: PRECURSOR_INTENSITY 3197305.65625
MS$DATA_PROCESSING: RECALIBRATE loess on assigned fragments and MS1
MS$DATA_PROCESSING: REANALYZE Peaks with additional N2/O included
MS$DATA_PROCESSING: WHOLE RMassBank 2.99.2
PK$SPLASH: splash10-00di-0900000000-59fec5cf09e9a2fad723
PK$ANNOTATION: m/z tentative_formula formula_count mass error(ppm)
  69.0698 C5H9+ 1 69.0699 -1.65
  115.0545 C9H7+ 1 115.0542 2.11
  115.0753 C6H11O2+ 1 115.0754 -0.18
  124.0759 C7H10NO+ 1 124.0757 1.3
  171.0441 C11H7O2+ 1 171.0441 0.05
  225.0676 C18H9+ 1 225.0699 -10.29
PK$NUM_PEAK: 6
PK$PEAK: m/z int. rel.int.
  69.0698 3220.1 1
  115.0545 7609.3 3
  115.0753 19813 9
  124.0759 2486.3 1
  171.0441 2015609.2 999
  225.0676 3630.5 1
//
