ACCESSION: MSBNK-LCSB-LU036105
RECORD_TITLE: CP-671305; LC-ESI-QFT; MS2; CE: 75; R=17500; [M+H]+
DATE: 2020.08.19
AUTHORS: Elapavalore, A.; Kondić, T.; Singh, R.; Schymanski, E.
LICENSE: CC BY
COPYRIGHT: Copyright © 2019 by Environmental Cheminformatics, LCSB, University of Luxembourg, Luxembourg
PUBLICATION: Elapavalore, A.; Kondić, T.; et al., Adding Open Spectral Data to MassBank and PubChem Using Open Source Tools to Support Non-Targeted Exposomics of Mixtures (submitted).
PROJECT: ENTACT U.S. Environmental Protection Agency’s Non-Targeted Analysis Collaborative Trial
COMMENT: CONFIDENCE standard compound
COMMENT: INTERNAL_ID 361
COMMENT: DATASET 20200303_ENTACT_RP_MIX505
COMMENT: DATA_PROCESSING MERGING RMBmix ver. 0.2.7
COMMENT: DATA_PROCESSING PRESCREENING Shinyscreen ver. 0.8.0
COMMENT: ORIGINAL_ACQUISITION_NO 8781
COMMENT: ORIGINAL_PRECURSOR_SCAN_NO 8779
COMMENT: RAW_DATA available as MSV000091754 at [DOI:10.25345/C5S46HG75]
CH$NAME: CP-671305
CH$NAME: (2R)-2-[4-[[[2-(1,3-benzodioxol-5-yloxy)pyridine-3-carbonyl]amino]methyl]-3-fluorophenoxy]propanoic acid
CH$COMPOUND_CLASS: N/A; Environmental Standard
CH$FORMULA: C23H19FN2O7
CH$EXACT_MASS: 454.1176
CH$SMILES: C[C@@H](OC1=CC=C(CNC(=O)C2=CC=CN=C2OC2=CC=C3OCOC3=C2)C(F)=C1)C(O)=O
CH$IUPAC: InChI=1S/C23H19FN2O7/c1-13(23(28)29)32-15-5-4-14(18(24)9-15)11-26-21(27)17-3-2-8-25-22(17)33-16-6-7-19-20(10-16)31-12-30-19/h2-10,13H,11-12H2,1H3,(H,26,27)(H,28,29)/t13-/m1/s1
CH$LINK: PUBCHEM CID:9955578
CH$LINK: INCHIKEY CNIGFESSDPOCKS-CYBMUJFWSA-N
CH$LINK: CHEMSPIDER 8131188
AC$INSTRUMENT: Q Exactive Orbitrap (Thermo Scientific)
AC$INSTRUMENT_TYPE: LC-ESI-QFT
AC$MASS_SPECTROMETRY: MS_TYPE MS2
AC$MASS_SPECTROMETRY: ION_MODE POSITIVE
AC$MASS_SPECTROMETRY: IONIZATION ESI
AC$MASS_SPECTROMETRY: FRAGMENTATION_MODE HCD
AC$MASS_SPECTROMETRY: COLLISION_ENERGY 75
AC$MASS_SPECTROMETRY: RESOLUTION 17500
AC$CHROMATOGRAPHY: COLUMN_NAME Acquity BEH C18 1.7um, 2.1x150mm (Waters)
AC$CHROMATOGRAPHY: FLOW_GRADIENT 90/10 at 0-2 min, 0/100 at 15-20 min, 90/10 at 20.1-30 min
AC$CHROMATOGRAPHY: FLOW_RATE 0.20 mL/min
AC$CHROMATOGRAPHY: RETENTION_TIME 16.757 min
AC$CHROMATOGRAPHY: SOLVENT A 0.1% formic acid
AC$CHROMATOGRAPHY: SOLVENT B methanol
MS$FOCUSED_ION: BASE_PEAK 79.0211
MS$FOCUSED_ION: PRECURSOR_M/Z 455.1249
MS$FOCUSED_ION: PRECURSOR_TYPE [M+H]+
MS$FOCUSED_ION: PRECURSOR_INTENSITY 11601461.0625
MS$DATA_PROCESSING: RECALIBRATE loess on assigned fragments and MS1
MS$DATA_PROCESSING: REANALYZE Peaks with additional N2/O included
MS$DATA_PROCESSING: WHOLE RMassBank 2.99.2
PK$SPLASH: splash10-004i-0900000000-9fd5b97f49ead3a3cad7
PK$ANNOTATION: m/z tentative_formula formula_count mass error(ppm)
  53.0386 C4H5+ 1 53.0386 0.32
  55.0178 C3H3O+ 1 55.0178 -0.01
  71.0291 C4H4F+ 1 71.0292 -0.69
  75.0229 C6H3+ 1 75.0229 -0.76
  77.0385 C6H5+ 1 77.0386 -1.08
  94.0414 C6H6O+ 2 94.0413 0.96
  95.0492 C6H7O+ 2 95.0491 0.18
  96.0369 C6H5F+ 1 96.037 -1.33
  97.0448 C6H6F+ 1 97.0448 0.13
  105.0338 C7H5O+ 2 105.0335 2.59
  105.0448 C6H5N2+ 3 105.0447 0.31
  113.0397 C6H6FO+ 2 113.0397 -0.22
  123.0354 C6H4FN2+ 1 123.0353 0.52
  125.0397 C7H6FO+ 2 125.0397 -0.13
  128.0494 C9H6N+ 3 128.0495 -0.28
  129.0334 C9H5O+ 2 129.0335 -0.45
  146.0598 C9H8NO+ 3 146.06 -1.84
  156.0443 C10H6NO+ 3 156.0444 -0.28
  184.0394 C11H6NO2+ 4 184.0393 0.34
  186.0549 C11H8NO2+ 4 186.055 -0.36
  202.0499 C11H8NO3+ 5 202.0499 -0.08
  212.0343 C12H6NO3+ 5 212.0342 0.38
  214.0497 C12H8NO3+ 5 214.0499 -0.57
  216.0653 C12H10NO3+ 5 216.0655 -1.08
  242.0446 C13H8NO4+ 4 242.0448 -0.68
  244.0609 C13H10NO4+ 5 244.0604 2
  260.0552 C13H10NO5+ 3 260.0553 -0.42
PK$NUM_PEAK: 27
PK$PEAK: m/z int. rel.int.
  53.0386 103402.1 9
  55.0178 23276.4 2
  71.0291 11452.4 1
  75.0229 16853 1
  77.0385 71525.5 6
  94.0414 13040.6 1
  95.0492 336649.3 31
  96.0369 20450.5 1
  97.0448 337105.9 31
  105.0338 19965.4 1
  105.0448 142949.5 13
  113.0397 59729.8 5
  123.0354 80895.3 7
  125.0397 10834372 999
  128.0494 127336.1 11
  129.0334 13243.1 1
  146.0598 26605.6 2
  156.0443 1010687.8 93
  184.0394 539638.8 49
  186.0549 27613.5 2
  202.0499 89846.2 8
  212.0343 151785.7 13
  214.0497 26146.9 2
  216.0653 36011.6 3
  242.0446 111031 10
  244.0609 16448.2 1
  260.0552 12713.9 1
//
