ACCESSION: MSBNK-LCSB-LU096703
RECORD_TITLE: 4-Methylumbelliferone; LC-ESI-QFT; MS2; CE: 45; R=17500; [M+H]+
DATE: 2020.08.19
AUTHORS: Elapavalore, A.; Kondić, T.; Singh, R.; Schymanski, E.
LICENSE: CC BY
COPYRIGHT: Copyright © 2019 by Environmental Cheminformatics, LCSB, University of Luxembourg, Luxembourg
PUBLICATION: Elapavalore, A.; Kondić, T.; et al., Adding Open Spectral Data to MassBank and PubChem Using Open Source Tools to Support Non-Targeted Exposomics of Mixtures (submitted).
PROJECT: ENTACT U.S. Environmental Protection Agency’s Non-Targeted Analysis Collaborative Trial
COMMENT: CONFIDENCE standard compound
COMMENT: INTERNAL_ID 967
COMMENT: DATASET 20200303_ENTACT_RP_MIX502
COMMENT: DATA_PROCESSING MERGING RMBmix ver. 0.2.7
COMMENT: DATA_PROCESSING PRESCREENING Shinyscreen ver. 0.8.0
COMMENT: ORIGINAL_ACQUISITION_NO 7358
COMMENT: ORIGINAL_PRECURSOR_SCAN_NO 7356
COMMENT: RAW_DATA available as MSV000091754 at [DOI:10.25345/C5S46HG75]
CH$NAME: 4-Methylumbelliferone
CH$NAME: 7-hydroxy-4-methylchromen-2-one
CH$COMPOUND_CLASS: N/A; Environmental Standard
CH$FORMULA: C10H8O3
CH$EXACT_MASS: 176.0473
CH$SMILES: CC1=CC(=O)OC2=C1C=CC(O)=C2
CH$IUPAC: InChI=1S/C10H8O3/c1-6-4-10(12)13-9-5-7(11)2-3-8(6)9/h2-5,11H,1H3
CH$LINK: CAS 90-33-5
CH$LINK: CHEBI CHEBI:17224
CH$LINK: KEGG D00170
CH$LINK: PUBCHEM CID:5280567
CH$LINK: INCHIKEY HSHNITRMYYLLCV-UHFFFAOYSA-N
CH$LINK: CHEMSPIDER 4444190
AC$INSTRUMENT: Q Exactive Orbitrap (Thermo Scientific)
AC$INSTRUMENT_TYPE: LC-ESI-QFT
AC$MASS_SPECTROMETRY: MS_TYPE MS2
AC$MASS_SPECTROMETRY: ION_MODE POSITIVE
AC$MASS_SPECTROMETRY: IONIZATION ESI
AC$MASS_SPECTROMETRY: FRAGMENTATION_MODE HCD
AC$MASS_SPECTROMETRY: COLLISION_ENERGY 45
AC$MASS_SPECTROMETRY: RESOLUTION 17500
AC$CHROMATOGRAPHY: COLUMN_NAME Acquity BEH C18 1.7um, 2.1x150mm (Waters)
AC$CHROMATOGRAPHY: FLOW_GRADIENT 90/10 at 0-2 min, 0/100 at 15-20 min, 90/10 at 20.1-30 min
AC$CHROMATOGRAPHY: FLOW_RATE 0.20 mL/min
AC$CHROMATOGRAPHY: RETENTION_TIME 14.071 min
AC$CHROMATOGRAPHY: SOLVENT A 0.1% formic acid
AC$CHROMATOGRAPHY: SOLVENT B methanol
MS$FOCUSED_ION: BASE_PEAK 79.0211
MS$FOCUSED_ION: PRECURSOR_M/Z 177.0546
MS$FOCUSED_ION: PRECURSOR_TYPE [M+H]+
MS$FOCUSED_ION: PRECURSOR_INTENSITY 3830317.75
MS$DATA_PROCESSING: RECALIBRATE loess on assigned fragments and MS1
MS$DATA_PROCESSING: REANALYZE Peaks with additional N2/O included
MS$DATA_PROCESSING: WHOLE RMassBank 2.99.2
PK$SPLASH: splash10-004i-0900000000-4fcd4f7569e5eaafefd7
PK$ANNOTATION: m/z tentative_formula formula_count mass error(ppm)
  53.0386 C4H5+ 1 53.0386 -0.2
  55.0178 C3H3O+ 1 55.0178 -0.1
  68.997 C3HO2+ 1 68.9971 -1.83
  79.0542 C6H7+ 1 79.0542 -0.88
  81.0698 C6H9+ 1 81.0699 -0.98
  91.0542 C7H7+ 1 91.0542 -0.81
  93.0698 C7H9+ 1 93.0699 -0.32
  95.0491 C6H7O+ 1 95.0491 -0.17
  103.0542 C8H7+ 1 103.0542 -0.48
  105.0699 C8H9+ 1 105.0699 -0.25
  107.049 C7H7O+ 1 107.0491 -1.44
  109.0648 C7H9O+ 1 109.0648 -0.08
  115.0542 C9H7+ 1 115.0542 -0.4
  121.0647 C8H9O+ 1 121.0648 -0.55
  131.0491 C9H7O+ 1 131.0491 -0.51
  132.057 C9H8O+ 1 132.057 0.32
  133.0648 C9H9O+ 1 133.0648 -0.24
  149.0598 C9H9O2+ 1 149.0597 0.55
  177.0545 C10H9O3+ 1 177.0546 -0.49
PK$NUM_PEAK: 19
PK$PEAK: m/z int. rel.int.
  53.0386 3858.8 1
  55.0178 30712.8 11
  68.997 37682 13
  79.0542 83784.6 30
  81.0698 31568.1 11
  91.0542 24863.5 9
  93.0698 43013.9 15
  95.0491 12155 4
  103.0542 84120.1 30
  105.0699 505725.1 184
  107.049 13510.8 4
  109.0648 3191.6 1
  115.0542 41018.4 15
  121.0647 324074 118
  131.0491 19600.4 7
  132.057 6008.7 2
  133.0648 97240.6 35
  149.0598 50244.7 18
  177.0545 2731435.5 999
//
