ACCESSION: MSBNK-LCSB-LU092754
RECORD_TITLE: Indole-3-butyric acid; LC-ESI-QFT; MS2; CE: 60; R=17500; [M-H]-
DATE: 2020.08.19
AUTHORS: Elapavalore, A.; Kondić, T.; Singh, R.; Schymanski, E.
LICENSE: CC BY
COPYRIGHT: Copyright © 2019 by Environmental Cheminformatics, LCSB, University of Luxembourg, Luxembourg
PUBLICATION: Elapavalore, A.; Kondić, T.; et al., Adding Open Spectral Data to MassBank and PubChem Using Open Source Tools to Support Non-Targeted Exposomics of Mixtures (submitted).
PROJECT: ENTACT U.S. Environmental Protection Agency’s Non-Targeted Analysis Collaborative Trial
COMMENT: CONFIDENCE standard compound
COMMENT: INTERNAL_ID 927
COMMENT: DATASET 20200303_ENTACT_RP_MIX506
COMMENT: DATA_PROCESSING MERGING RMBmix ver. 0.2.7
COMMENT: DATA_PROCESSING PRESCREENING Shinyscreen ver. 0.8.0
COMMENT: ORIGINAL_ACQUISITION_NO 4071
COMMENT: ORIGINAL_PRECURSOR_SCAN_NO 4070
COMMENT: RAW_DATA available as MSV000091754 at [DOI:10.25345/C5S46HG75]
CH$NAME: Indole-3-butyric acid
CH$NAME: 4-(1H-indol-3-yl)butanoic acid
CH$COMPOUND_CLASS: N/A; Environmental Standard
CH$FORMULA: C12H13NO2
CH$EXACT_MASS: 203.0946
CH$SMILES: OC(=O)CCCC1=CNC2=C1C=CC=C2
CH$IUPAC: InChI=1S/C12H13NO2/c14-12(15)7-3-4-9-8-13-11-6-2-1-5-10(9)11/h1-2,5-6,8,13H,3-4,7H2,(H,14,15)
CH$LINK: CAS 933-32-4
CH$LINK: CHEBI CHEBI:33070
CH$LINK: KEGG C11284
CH$LINK: PUBCHEM CID:8617
CH$LINK: INCHIKEY JTEDVYBZBROSJT-UHFFFAOYSA-N
CH$LINK: CHEMSPIDER 8298
AC$INSTRUMENT: Q Exactive Orbitrap (Thermo Scientific)
AC$INSTRUMENT_TYPE: LC-ESI-QFT
AC$MASS_SPECTROMETRY: MS_TYPE MS2
AC$MASS_SPECTROMETRY: ION_MODE NEGATIVE
AC$MASS_SPECTROMETRY: IONIZATION ESI
AC$MASS_SPECTROMETRY: FRAGMENTATION_MODE HCD
AC$MASS_SPECTROMETRY: COLLISION_ENERGY 60
AC$MASS_SPECTROMETRY: RESOLUTION 17500
AC$CHROMATOGRAPHY: COLUMN_NAME Acquity BEH C18 1.7um, 2.1x150mm (Waters)
AC$CHROMATOGRAPHY: FLOW_GRADIENT 90/10 at 0-2 min, 0/100 at 15-20 min, 90/10 at 20.1-30 min
AC$CHROMATOGRAPHY: FLOW_RATE 0.20 mL/min
AC$CHROMATOGRAPHY: RETENTION_TIME 15.810 min
AC$CHROMATOGRAPHY: SOLVENT A 0.1% formic acid
AC$CHROMATOGRAPHY: SOLVENT B methanol
MS$FOCUSED_ION: BASE_PEAK 112.9857
MS$FOCUSED_ION: PRECURSOR_M/Z 202.0874
MS$FOCUSED_ION: PRECURSOR_TYPE [M-H]-
MS$FOCUSED_ION: PRECURSOR_INTENSITY 11938588.13477
MS$DATA_PROCESSING: RECALIBRATE loess on assigned fragments and MS1
MS$DATA_PROCESSING: REANALYZE Peaks with additional N2/O included
MS$DATA_PROCESSING: WHOLE RMassBank 2.99.2
PK$SPLASH: splash10-014i-0900000000-64ceff7f3041495bd9d1
PK$ANNOTATION: m/z tentative_formula formula_count mass error(ppm)
  57.0346 C3H5O- 1 57.0346 -0.25
  59.0138 C2H3O2- 1 59.0139 -0.51
  71.0138 C3H3O2- 1 71.0139 -0.44
  73.0295 C3H5O2- 1 73.0295 0.52
  111.0814 C7H11O- 1 111.0815 -1.66
  116.0505 C8H6N- 1 116.0506 -0.29
  128.0505 C9H6N- 1 128.0506 -0.74
  129.0584 C9H7N- 1 129.0584 -0.12
  130.0661 C9H8N- 1 130.0662 -0.56
  142.066 C10H8N- 1 142.0662 -1.44
  156.0817 C11H10N- 1 156.0819 -1.07
  158.0975 C11H12N- 1 158.0975 -0.44
  161.0482 C9H7NO2- 1 161.0482 -0.27
  166.0664 C12H8N- 1 166.0662 1.28
  184.0766 C12H10NO- 1 184.0768 -1.23
  202.0871 C12H12NO2- 1 202.0874 -1.12
PK$NUM_PEAK: 16
PK$PEAK: m/z int. rel.int.
  57.0346 7288.3 22
  59.0138 8246.7 25
  71.0138 4668.1 14
  73.0295 13420.9 41
  111.0814 3569.7 11
  116.0505 323830.6 999
  128.0505 3237.1 9
  129.0584 6258.8 19
  130.0661 11507.5 35
  142.066 13445.5 41
  156.0817 24118.3 74
  158.0975 42053 129
  161.0482 12661.7 39
  166.0664 2751.7 8
  184.0766 10888 33
  202.0871 8927.2 27
//
