ACCESSION: MSBNK-LCSB-LU107804
RECORD_TITLE: Phosfolan; LC-ESI-QFT; MS2; CE: 60; R=17500; [M+H]+
DATE: 2020.08.19
AUTHORS: Elapavalore, A.; Kondić, T.; Singh, R.; Schymanski, E.
LICENSE: CC BY
COPYRIGHT: Copyright © 2019 by Environmental Cheminformatics, LCSB, University of Luxembourg, Luxembourg
PUBLICATION: Elapavalore, A.; Kondić, T.; et al., Adding Open Spectral Data to MassBank and PubChem Using Open Source Tools to Support Non-Targeted Exposomics of Mixtures (submitted).
PROJECT: ENTACT U.S. Environmental Protection Agency’s Non-Targeted Analysis Collaborative Trial
COMMENT: CONFIDENCE standard compound
COMMENT: INTERNAL_ID 1078
COMMENT: DATASET 20200303_ENTACT_RP_MIX503
COMMENT: DATA_PROCESSING MERGING RMBmix ver. 0.2.7
COMMENT: DATA_PROCESSING PRESCREENING Shinyscreen ver. 0.8.0
COMMENT: ORIGINAL_ACQUISITION_NO 7337
COMMENT: ORIGINAL_PRECURSOR_SCAN_NO 7335
COMMENT: RAW_DATA available as MSV000091754 at [DOI:10.25345/C5S46HG75]
CH$NAME: Phosfolan
CH$NAME: N-diethoxyphosphoryl-1,3-dithiolan-2-imine
CH$COMPOUND_CLASS: N/A; Environmental Standard
CH$FORMULA: C7H14NO3PS2
CH$EXACT_MASS: 255.0153
CH$SMILES: CCOP(=O)(OCC)N=C1SCCS1
CH$IUPAC: InChI=1S/C7H14NO3PS2/c1-3-10-12(9,11-4-2)8-7-13-5-6-14-7/h3-6H2,1-2H3
CH$LINK: CAS 947-02-4
CH$LINK: CHEBI CHEBI:82145
CH$LINK: KEGG C19011
CH$LINK: PUBCHEM CID:13689
CH$LINK: INCHIKEY ILBONRFSLATCRE-UHFFFAOYSA-N
CH$LINK: CHEMSPIDER 13098
AC$INSTRUMENT: Q Exactive Orbitrap (Thermo Scientific)
AC$INSTRUMENT_TYPE: LC-ESI-QFT
AC$MASS_SPECTROMETRY: MS_TYPE MS2
AC$MASS_SPECTROMETRY: ION_MODE POSITIVE
AC$MASS_SPECTROMETRY: IONIZATION ESI
AC$MASS_SPECTROMETRY: FRAGMENTATION_MODE HCD
AC$MASS_SPECTROMETRY: COLLISION_ENERGY 60
AC$MASS_SPECTROMETRY: RESOLUTION 17500
AC$CHROMATOGRAPHY: COLUMN_NAME Acquity BEH C18 1.7um, 2.1x150mm (Waters)
AC$CHROMATOGRAPHY: FLOW_GRADIENT 90/10 at 0-2 min, 0/100 at 15-20 min, 90/10 at 20.1-30 min
AC$CHROMATOGRAPHY: FLOW_RATE 0.20 mL/min
AC$CHROMATOGRAPHY: RETENTION_TIME 14.064 min
AC$CHROMATOGRAPHY: SOLVENT A 0.1% formic acid
AC$CHROMATOGRAPHY: SOLVENT B methanol
MS$FOCUSED_ION: BASE_PEAK 79.0212
MS$FOCUSED_ION: PRECURSOR_M/Z 256.0225
MS$FOCUSED_ION: PRECURSOR_TYPE [M+H]+
MS$FOCUSED_ION: PRECURSOR_INTENSITY 29663165.375
MS$DATA_PROCESSING: RECALIBRATE loess on assigned fragments and MS1
MS$DATA_PROCESSING: REANALYZE Peaks with additional N2/O included
MS$DATA_PROCESSING: WHOLE RMassBank 2.99.2
PK$SPLASH: splash10-01p9-5900000000-0b935b0e61e1f07214a3
PK$ANNOTATION: m/z tentative_formula formula_count mass error(ppm)
  58.9949 C2H3S+ 1 58.995 -1.54
  59.9902 CH2NS+ 1 59.9902 -0.55
  61.0106 C2H5S+ 1 61.0106 -0.86
  64.9787 H2O2P+ 1 64.9787 0.63
  80.9737 H2O3P+ 1 80.9736 1.31
  81.9815 H3O3P+ 1 81.9814 1.26
  86.0058 C3H4NS+ 1 86.0059 -1.11
  109.0049 C2H6O3P+ 1 109.0049 -0.21
  114.9613 H4O3PS+ 1 114.9613 -0.18
  119.9937 C3H6NS2+ 1 119.9936 0.57
  133.9593 C3H3O2PS+ 1 133.9586 5.39
  139.9564 CH3NO3PS+ 2 139.9566 -0.96
  140.9768 C2H6O3PS+ 1 140.977 -1.49
  167.9878 C3H7NO3PS+ 2 167.9879 -0.65
  196.0194 C5H11NO3PS+ 2 196.0192 1.12
  199.9599 C3H7NO3PS2+ 2 199.9599 -0.48
PK$NUM_PEAK: 16
PK$PEAK: m/z int. rel.int.
  58.9949 18274.4 1
  59.9902 1254592.1 71
  61.0106 9163774 524
  64.9787 24411.4 1
  80.9737 20910.2 1
  81.9815 18154.9 1
  86.0058 18293.3 1
  109.0049 199598.7 11
  114.9613 150467 8
  119.9937 38583.6 2
  133.9593 29716.4 1
  139.9564 17462792 999
  140.9768 28437.5 1
  167.9878 591177.1 33
  196.0194 18701.8 1
  199.9599 346222.1 19
//
