ACCESSION: MSBNK-LCSB-LU080804
RECORD_TITLE: (-)-Epigallocatechin gallate; LC-ESI-QFT; MS2; CE: 60; R=17500; [M+H]+
DATE: 2020.08.19
AUTHORS: Elapavalore, A.; Kondić, T.; Singh, R.; Schymanski, E.
LICENSE: CC BY
COPYRIGHT: Copyright © 2019 by Environmental Cheminformatics, LCSB, University of Luxembourg, Luxembourg
PUBLICATION: Elapavalore, A.; Kondić, T.; et al., Adding Open Spectral Data to MassBank and PubChem Using Open Source Tools to Support Non-Targeted Exposomics of Mixtures (submitted).
PROJECT: ENTACT U.S. Environmental Protection Agency’s Non-Targeted Analysis Collaborative Trial
COMMENT: CONFIDENCE standard compound
COMMENT: INTERNAL_ID 808
COMMENT: DATASET 20200303_ENTACT_RP_MIX505
COMMENT: DATA_PROCESSING MERGING RMBmix ver. 0.2.7
COMMENT: DATA_PROCESSING PRESCREENING Shinyscreen ver. 0.8.0
COMMENT: ORIGINAL_ACQUISITION_NO 5910
COMMENT: ORIGINAL_PRECURSOR_SCAN_NO 5905
COMMENT: RAW_DATA available as MSV000091754 at [DOI:10.25345/C5S46HG75]
CH$NAME: (-)-Epigallocatechin gallate
CH$NAME: [(2R,3R)-5,7-dihydroxy-2-(3,4,5-trihydroxyphenyl)-3,4-dihydro-2H-chromen-3-yl] 3,4,5-trihydroxybenzoate
CH$COMPOUND_CLASS: N/A; Environmental Standard
CH$FORMULA: C22H18O11
CH$EXACT_MASS: 458.0849
CH$SMILES: OC1=CC(O)=C2C[C@@H](OC(=O)C3=CC(O)=C(O)C(O)=C3)[C@H](OC2=C1)C1=CC(O)=C(O)C(O)=C1
CH$IUPAC: InChI=1S/C22H18O11/c23-10-5-12(24)11-7-18(33-22(31)9-3-15(27)20(30)16(28)4-9)21(32-17(11)6-10)8-1-13(25)19(29)14(26)2-8/h1-6,18,21,23-30H,7H2/t18-,21-/m1/s1
CH$LINK: CAS 863-65-0
CH$LINK: CHEBI CHEBI:4806
CH$LINK: KEGG C09731
CH$LINK: LIPIDMAPS LMPK12030005
CH$LINK: PUBCHEM CID:65064
CH$LINK: INCHIKEY WMBWREPUVVBILR-WIYYLYMNSA-N
CH$LINK: CHEMSPIDER 58575
AC$INSTRUMENT: Q Exactive Orbitrap (Thermo Scientific)
AC$INSTRUMENT_TYPE: LC-ESI-QFT
AC$MASS_SPECTROMETRY: MS_TYPE MS2
AC$MASS_SPECTROMETRY: ION_MODE POSITIVE
AC$MASS_SPECTROMETRY: IONIZATION ESI
AC$MASS_SPECTROMETRY: FRAGMENTATION_MODE HCD
AC$MASS_SPECTROMETRY: COLLISION_ENERGY 60
AC$MASS_SPECTROMETRY: RESOLUTION 17500
AC$CHROMATOGRAPHY: COLUMN_NAME Acquity BEH C18 1.7um, 2.1x150mm (Waters)
AC$CHROMATOGRAPHY: FLOW_GRADIENT 90/10 at 0-2 min, 0/100 at 15-20 min, 90/10 at 20.1-30 min
AC$CHROMATOGRAPHY: FLOW_RATE 0.20 mL/min
AC$CHROMATOGRAPHY: RETENTION_TIME 11.244 min
AC$CHROMATOGRAPHY: SOLVENT A 0.1% formic acid
AC$CHROMATOGRAPHY: SOLVENT B methanol
MS$FOCUSED_ION: BASE_PEAK 79.0211
MS$FOCUSED_ION: PRECURSOR_M/Z 459.0922
MS$FOCUSED_ION: PRECURSOR_TYPE [M+H]+
MS$FOCUSED_ION: PRECURSOR_INTENSITY 741340.3125
MS$DATA_PROCESSING: RECALIBRATE loess on assigned fragments and MS1
MS$DATA_PROCESSING: REANALYZE Peaks with additional N2/O included
MS$DATA_PROCESSING: WHOLE RMassBank 2.99.2
PK$SPLASH: splash10-000i-0900000000-ea59b87577f4a335e9e6
PK$ANNOTATION: m/z tentative_formula formula_count mass error(ppm)
  111.0442 C6H7O2+ 1 111.0441 0.89
  123.0441 C7H7O2+ 1 123.0441 0.32
  125.0235 C6H5O3+ 1 125.0233 1.48
  139.0391 C7H7O3+ 1 139.039 0.69
  143.0342 C6H7O4+ 1 143.0339 2.08
  151.0394 C8H7O3+ 1 151.039 2.65
  153.0184 C7H5O4+ 1 153.0182 0.92
  163.0391 C9H7O3+ 1 163.039 0.6
  177.055 C10H9O3+ 1 177.0546 2.07
  205.0498 C11H9O4+ 1 205.0495 1.07
PK$NUM_PEAK: 10
PK$PEAK: m/z int. rel.int.
  111.0442 6990.8 23
  123.0441 21018.5 70
  125.0235 9945.5 33
  139.0391 297504.3 999
  143.0342 20515.8 68
  151.0394 10222.5 34
  153.0184 94373.6 316
  163.0391 25453.9 85
  177.055 5077.4 17
  205.0498 5629.5 18
//
