ACCESSION: MSBNK-LCSB-LU132404
RECORD_TITLE: Fipexide; LC-ESI-QFT; MS2; CE: 60; R=17500; [M+H]+
DATE: 2020.08.19
AUTHORS: Elapavalore, A.; Kondić, T.; Singh, R.; Schymanski, E.
LICENSE: CC BY
COPYRIGHT: Copyright © 2019 by Environmental Cheminformatics, LCSB, University of Luxembourg, Luxembourg
PUBLICATION: Elapavalore, A.; Kondić, T.; et al., Adding Open Spectral Data to MassBank and PubChem Using Open Source Tools to Support Non-Targeted Exposomics of Mixtures (submitted).
PROJECT: ENTACT U.S. Environmental Protection Agency’s Non-Targeted Analysis Collaborative Trial
COMMENT: CONFIDENCE standard compound
COMMENT: INTERNAL_ID 1324
COMMENT: DATASET 20200303_ENTACT_RP_MIX504
COMMENT: DATA_PROCESSING MERGING RMBmix ver. 0.2.7
COMMENT: DATA_PROCESSING PRESCREENING Shinyscreen ver. 0.8.0
COMMENT: ORIGINAL_ACQUISITION_NO 7288
COMMENT: ORIGINAL_PRECURSOR_SCAN_NO 7286
COMMENT: RAW_DATA available as MSV000091754 at [DOI:10.25345/C5S46HG75]
CH$NAME: Fipexide
CH$NAME: 1-[4-(1,3-benzodioxol-5-ylmethyl)piperazin-1-yl]-2-(4-chlorophenoxy)ethanone
CH$COMPOUND_CLASS: N/A; Environmental Standard
CH$FORMULA: C20H21ClN2O4
CH$EXACT_MASS: 388.1190
CH$SMILES: ClC1=CC=C(OCC(=O)N2CCN(CC3=CC4=C(OCO4)C=C3)CC2)C=C1
CH$IUPAC: InChI=1S/C20H21ClN2O4/c21-16-2-4-17(5-3-16)25-13-20(24)23-9-7-22(8-10-23)12-15-1-6-18-19(11-15)27-14-26-18/h1-6,11H,7-10,12-14H2
CH$LINK: CAS 66085-59-4
CH$LINK: CHEBI CHEBI:94598
CH$LINK: KEGG D07345
CH$LINK: PUBCHEM CID:3351
CH$LINK: INCHIKEY BFUJHVVEMMWLHC-UHFFFAOYSA-N
CH$LINK: CHEMSPIDER 3234
AC$INSTRUMENT: Q Exactive Orbitrap (Thermo Scientific)
AC$INSTRUMENT_TYPE: LC-ESI-QFT
AC$MASS_SPECTROMETRY: MS_TYPE MS2
AC$MASS_SPECTROMETRY: ION_MODE POSITIVE
AC$MASS_SPECTROMETRY: IONIZATION ESI
AC$MASS_SPECTROMETRY: FRAGMENTATION_MODE HCD
AC$MASS_SPECTROMETRY: COLLISION_ENERGY 60
AC$MASS_SPECTROMETRY: RESOLUTION 17500
AC$CHROMATOGRAPHY: COLUMN_NAME Acquity BEH C18 1.7um, 2.1x150mm (Waters)
AC$CHROMATOGRAPHY: FLOW_GRADIENT 90/10 at 0-2 min, 0/100 at 15-20 min, 90/10 at 20.1-30 min
AC$CHROMATOGRAPHY: FLOW_RATE 0.20 mL/min
AC$CHROMATOGRAPHY: RETENTION_TIME 13.929 min
AC$CHROMATOGRAPHY: SOLVENT A 0.1% formic acid
AC$CHROMATOGRAPHY: SOLVENT B methanol
MS$FOCUSED_ION: BASE_PEAK 79.0212
MS$FOCUSED_ION: PRECURSOR_M/Z 389.1263
MS$FOCUSED_ION: PRECURSOR_TYPE [M+H]+
MS$FOCUSED_ION: PRECURSOR_INTENSITY 10619789.625
MS$DATA_PROCESSING: RECALIBRATE loess on assigned fragments and MS1
MS$DATA_PROCESSING: REANALYZE Peaks with additional N2/O included
MS$DATA_PROCESSING: WHOLE RMassBank 2.99.2
PK$SPLASH: splash10-000i-1900000000-454b8be8b4472d613318
PK$ANNOTATION: m/z tentative_formula formula_count mass error(ppm)
  51.0231 C4H3+ 1 51.0229 2.47
  53.0386 C4H5+ 1 53.0386 0.19
  65.0385 C5H5+ 1 65.0386 -0.57
  67.0542 C5H7+ 1 67.0542 -0.38
  77.0385 C6H5+ 1 77.0386 -1.12
  79.0542 C6H7+ 1 79.0542 -0.09
  84.0682 C4H8N2+ 1 84.0682 0.56
  94.0413 C6H6O+ 2 94.0413 0.08
  95.0492 C6H7O+ 2 95.0491 0.19
  105.0335 C7H5O+ 2 105.0335 0.49
  105.0447 C6H5N2+ 1 105.0447 -0.19
  107.0492 C7H7O+ 2 107.0491 0.49
  135.044 C8H7O2+ 2 135.0441 -0.33
PK$NUM_PEAK: 13
PK$PEAK: m/z int. rel.int.
  51.0231 11930.5 1
  53.0386 72320.9 10
  65.0385 7189.3 1
  67.0542 25491.7 3
  77.0385 85290.8 12
  79.0542 422662.1 64
  84.0682 9164.4 1
  94.0413 6960.5 1
  95.0492 222587.2 33
  105.0335 193905 29
  105.0447 84126.8 12
  107.0492 13683.8 2
  135.044 6587575 999
//
