ACCESSION: MSBNK-LCSB-LU060704
RECORD_TITLE: 1,2-Dimethyl-5-nitroimidazole; LC-ESI-QFT; MS2; CE: 60; R=17500; [M+H]+
DATE: 2020.08.19
AUTHORS: Elapavalore, A.; Kondić, T.; Singh, R.; Schymanski, E.
LICENSE: CC BY
COPYRIGHT: Copyright © 2019 by Environmental Cheminformatics, LCSB, University of Luxembourg, Luxembourg
PUBLICATION: Elapavalore, A.; Kondić, T.; et al., Adding Open Spectral Data to MassBank and PubChem Using Open Source Tools to Support Non-Targeted Exposomics of Mixtures (submitted).
PROJECT: ENTACT U.S. Environmental Protection Agency’s Non-Targeted Analysis Collaborative Trial
COMMENT: CONFIDENCE standard compound
COMMENT: INTERNAL_ID 607
COMMENT: DATASET 20200303_ENTACT_RP_MIX506
COMMENT: DATA_PROCESSING MERGING RMBmix ver. 0.2.7
COMMENT: DATA_PROCESSING PRESCREENING Shinyscreen ver. 0.8.0
COMMENT: ORIGINAL_ACQUISITION_NO 4003
COMMENT: ORIGINAL_PRECURSOR_SCAN_NO 4002
COMMENT: RAW_DATA available as MSV000091754 at [DOI:10.25345/C5S46HG75]
CH$NAME: 1,2-Dimethyl-5-nitroimidazole
CH$NAME: Dimetridazole
CH$COMPOUND_CLASS: N/A; Environmental Standard
CH$FORMULA: C5H7N3O2
CH$EXACT_MASS: 141.0538
CH$SMILES: CN1C(C)=NC=C1[N+]([O-])=O
CH$IUPAC: InChI=1S/C5H7N3O2/c1-4-6-3-5(7(4)2)8(9)10/h3H,1-2H3
CH$LINK: CAS 551-92-8
CH$LINK: CHEBI CHEBI:141155
CH$LINK: KEGG D07855
CH$LINK: PUBCHEM CID:3090
CH$LINK: INCHIKEY IBXPYPUJPLLOIN-UHFFFAOYSA-N
CH$LINK: CHEMSPIDER 2980
AC$INSTRUMENT: Q Exactive Orbitrap (Thermo Scientific)
AC$INSTRUMENT_TYPE: LC-ESI-QFT
AC$MASS_SPECTROMETRY: MS_TYPE MS2
AC$MASS_SPECTROMETRY: ION_MODE POSITIVE
AC$MASS_SPECTROMETRY: IONIZATION ESI
AC$MASS_SPECTROMETRY: FRAGMENTATION_MODE HCD
AC$MASS_SPECTROMETRY: COLLISION_ENERGY 60
AC$MASS_SPECTROMETRY: RESOLUTION 17500
AC$CHROMATOGRAPHY: COLUMN_NAME Acquity BEH C18 1.7um, 2.1x150mm (Waters)
AC$CHROMATOGRAPHY: FLOW_GRADIENT 90/10 at 0-2 min, 0/100 at 15-20 min, 90/10 at 20.1-30 min
AC$CHROMATOGRAPHY: FLOW_RATE 0.20 mL/min
AC$CHROMATOGRAPHY: RETENTION_TIME 7.630 min
AC$CHROMATOGRAPHY: SOLVENT A 0.1% formic acid
AC$CHROMATOGRAPHY: SOLVENT B methanol
MS$FOCUSED_ION: BASE_PEAK 79.0211
MS$FOCUSED_ION: PRECURSOR_M/Z 142.0611
MS$FOCUSED_ION: PRECURSOR_TYPE [M+H]+
MS$FOCUSED_ION: PRECURSOR_INTENSITY 3870939.25
MS$DATA_PROCESSING: RECALIBRATE loess on assigned fragments and MS1
MS$DATA_PROCESSING: REANALYZE Peaks with additional N2/O included
MS$DATA_PROCESSING: WHOLE RMassBank 2.99.2
PK$SPLASH: splash10-0bta-9300000000-637669fa449e167dbd26
PK$ANNOTATION: m/z tentative_formula formula_count mass error(ppm)
  54.0339 C3H4N+ 1 54.0338 0.91
  55.0417 C3H5N+ 1 55.0417 0.77
  56.0495 C3H6N+ 1 56.0495 0.64
  57.0447 C2H5N2+ 1 57.0447 0.04
  58.0287 C2H4NO+ 1 58.0287 -0.1
  68.0495 C4H6N+ 1 68.0495 -0.36
  69.0449 C3H5N2+ 1 69.0447 2.51
  71.0126 C3H3O2+ 1 71.0128 -1.53
  72.0681 C3H8N2+ 1 72.0682 -1.06
  81.0448 C4H5N2+ 1 81.0447 0.56
  83.0604 C4H7N2+ 1 83.0604 0.09
  85.0396 C3H5N2O+ 1 85.0396 -0.1
  95.0604 C5H7N2+ 1 95.0604 0.55
  96.0682 C5H8N2+ 1 96.0682 0.18
  97.0396 C4H5N2O+ 1 97.0396 -0.35
  112.0632 C5H8N2O+ 1 112.0631 0.36
  142.0612 C5H8N3O2+ 1 142.0611 0.73
PK$NUM_PEAK: 17
PK$PEAK: m/z int. rel.int.
  54.0339 95103.4 97
  55.0417 88590.6 90
  56.0495 973573.2 999
  57.0447 3452.2 3
  58.0287 2356.7 2
  68.0495 5113.4 5
  69.0449 2208.6 2
  71.0126 2879.6 2
  72.0681 7473.5 7
  81.0448 311340.1 319
  83.0604 5011.1 5
  85.0396 3844.9 3
  95.0604 592141.8 607
  96.0682 196951.2 202
  97.0396 6173.4 6
  112.0632 505905.2 519
  142.0612 357941.2 367
//
