ACCESSION: MSBNK-LCSB-LU072951
RECORD_TITLE: Monobenzyl phthalate; LC-ESI-QFT; MS2; CE: 15; R=17500; [M-H]-
DATE: 2020.08.19
AUTHORS: Elapavalore, A.; Kondić, T.; Singh, R.; Schymanski, E.
LICENSE: CC BY
COPYRIGHT: Copyright © 2019 by Environmental Cheminformatics, LCSB, University of Luxembourg, Luxembourg
PUBLICATION: Elapavalore, A.; Kondić, T.; et al., Adding Open Spectral Data to MassBank and PubChem Using Open Source Tools to Support Non-Targeted Exposomics of Mixtures (submitted).
PROJECT: ENTACT U.S. Environmental Protection Agency’s Non-Targeted Analysis Collaborative Trial
COMMENT: CONFIDENCE standard compound
COMMENT: INTERNAL_ID 729
COMMENT: DATASET 20200303_ENTACT_RP_MIX506
COMMENT: DATA_PROCESSING MERGING RMBmix ver. 0.2.7
COMMENT: DATA_PROCESSING PRESCREENING Shinyscreen ver. 0.8.0
COMMENT: ORIGINAL_ACQUISITION_NO 4386
COMMENT: ORIGINAL_PRECURSOR_SCAN_NO 4385
COMMENT: RAW_DATA available as MSV000091754 at [DOI:10.25345/C5S46HG75]
CH$NAME: Monobenzyl phthalate
CH$NAME: 2-phenylmethoxycarbonylbenzoic acid
CH$COMPOUND_CLASS: N/A; Environmental Standard
CH$FORMULA: C15H12O4
CH$EXACT_MASS: 256.0736
CH$SMILES: OC(=O)C1=C(C=CC=C1)C(=O)OCC1=CC=CC=C1
CH$IUPAC: InChI=1S/C15H12O4/c16-14(17)12-8-4-5-9-13(12)15(18)19-10-11-6-2-1-3-7-11/h1-9H,10H2,(H,16,17)
CH$LINK: CAS 2528-16-7
CH$LINK: PUBCHEM CID:31736
CH$LINK: INCHIKEY XIKIUQUXDNHBFR-UHFFFAOYSA-N
CH$LINK: CHEMSPIDER 29430
AC$INSTRUMENT: Q Exactive Orbitrap (Thermo Scientific)
AC$INSTRUMENT_TYPE: LC-ESI-QFT
AC$MASS_SPECTROMETRY: MS_TYPE MS2
AC$MASS_SPECTROMETRY: ION_MODE NEGATIVE
AC$MASS_SPECTROMETRY: IONIZATION ESI
AC$MASS_SPECTROMETRY: FRAGMENTATION_MODE HCD
AC$MASS_SPECTROMETRY: COLLISION_ENERGY 15
AC$MASS_SPECTROMETRY: RESOLUTION 17500
AC$CHROMATOGRAPHY: COLUMN_NAME Acquity BEH C18 1.7um, 2.1x150mm (Waters)
AC$CHROMATOGRAPHY: FLOW_GRADIENT 90/10 at 0-2 min, 0/100 at 15-20 min, 90/10 at 20.1-30 min
AC$CHROMATOGRAPHY: FLOW_RATE 0.20 mL/min
AC$CHROMATOGRAPHY: RETENTION_TIME 16.658 min
AC$CHROMATOGRAPHY: SOLVENT A 0.1% formic acid
AC$CHROMATOGRAPHY: SOLVENT B methanol
MS$FOCUSED_ION: BASE_PEAK 429.0536
MS$FOCUSED_ION: PRECURSOR_M/Z 255.0663
MS$FOCUSED_ION: PRECURSOR_TYPE [M-H]-
MS$FOCUSED_ION: PRECURSOR_INTENSITY 28779604.03711
MS$DATA_PROCESSING: RECALIBRATE loess on assigned fragments and MS1
MS$DATA_PROCESSING: REANALYZE Peaks with additional N2/O included
MS$DATA_PROCESSING: WHOLE RMassBank 2.99.2
PK$SPLASH: splash10-0a59-0900000000-27d566983ebde2e938f1
PK$ANNOTATION: m/z tentative_formula formula_count mass error(ppm)
  59.0138 C2H3O2- 1 59.0139 -1.09
  59.9854 CO3- 1 59.9853 1.34
  60.9932 CHO3- 1 60.9931 0.6
  65.0397 C5H5- 1 65.0397 1.05
  77.0394 C6H5- 1 77.0397 -3.62
  93.0346 C6H5O- 1 93.0346 0.36
  105.0346 C7H5O- 1 105.0346 0.3
  107.0503 C7H7O- 1 107.0502 0.2
  108.0217 C6H4O2- 1 108.0217 -0.05
  121.0295 C7H5O2- 1 121.0295 0.14
  123.0452 C7H7O2- 1 123.0452 0.14
  125.0608 C7H9O2- 1 125.0608 -0.41
  133.0294 C8H5O2- 1 133.0295 -0.59
  147.0088 C8H3O3- 1 147.0088 0.01
  149.0244 C8H5O3- 1 149.0244 0.05
  151.0401 C8H7O3- 1 151.0401 -0.02
  165.0193 C8H5O4- 1 165.0193 -0.29
  167.0863 C13H11- 1 167.0866 -1.65
  181.0661 C13H9O- 1 181.0659 1.04
  183.0816 C13H11O- 1 183.0815 0.4
  197.0606 C13H9O2- 1 197.0608 -0.93
  211.0764 C14H11O2- 1 211.0765 -0.11
PK$NUM_PEAK: 22
PK$PEAK: m/z int. rel.int.
  59.0138 21828.1 11
  59.9854 4991 2
  60.9932 9563 4
  65.0397 9266.4 4
  77.0394 26881.7 13
  93.0346 61122.1 31
  105.0346 249703.8 129
  107.0503 1923676 999
  108.0217 8912.3 4
  121.0295 916640.1 476
  123.0452 119453.1 62
  125.0608 19902.9 10
  133.0294 10939 5
  147.0088 198005 102
  149.0244 84171.7 43
  151.0401 46721.1 24
  165.0193 38108.3 19
  167.0863 5452 2
  181.0661 8011.2 4
  183.0816 1166597.5 605
  197.0606 22409.6 11
  211.0764 219266.6 113
//
