ACCESSION: MSBNK-LCSB-LU069653
RECORD_TITLE: Ioxynil; LC-ESI-QFT; MS2; CE: 45; R=17500; [M-H]-
DATE: 2020.08.19
AUTHORS: Elapavalore, A.; Kondić, T.; Singh, R.; Schymanski, E.
LICENSE: CC BY
COPYRIGHT: Copyright © 2019 by Environmental Cheminformatics, LCSB, University of Luxembourg, Luxembourg
PUBLICATION: Elapavalore, A.; Kondić, T.; et al., Adding Open Spectral Data to MassBank and PubChem Using Open Source Tools to Support Non-Targeted Exposomics of Mixtures (submitted).
PROJECT: ENTACT U.S. Environmental Protection Agency’s Non-Targeted Analysis Collaborative Trial
COMMENT: CONFIDENCE standard compound
COMMENT: INTERNAL_ID 696
COMMENT: DATASET 20200303_ENTACT_RP_MIX506
COMMENT: DATA_PROCESSING MERGING RMBmix ver. 0.2.7
COMMENT: DATA_PROCESSING PRESCREENING Shinyscreen ver. 0.8.0
COMMENT: ORIGINAL_ACQUISITION_NO 4633
COMMENT: ORIGINAL_PRECURSOR_SCAN_NO 4631
COMMENT: RAW_DATA available as MSV000091754 at [DOI:10.25345/C5S46HG75]
CH$NAME: Ioxynil
CH$NAME: 4-hydroxy-3,5-diiodobenzonitrile
CH$COMPOUND_CLASS: N/A; Environmental Standard
CH$FORMULA: C7H3I2NO
CH$EXACT_MASS: 370.8304
CH$SMILES: OC1=C(I)C=C(C=C1I)C#N
CH$IUPAC: InChI=1S/C7H3I2NO/c8-5-1-4(3-10)2-6(9)7(5)11/h1-2,11H
CH$LINK: CAS 1689-83-4
CH$LINK: CHEBI CHEBI:81821
CH$LINK: KEGG C18546
CH$LINK: PUBCHEM CID:15530
CH$LINK: INCHIKEY NRXQIUSYPAHGNM-UHFFFAOYSA-N
CH$LINK: CHEMSPIDER 14774
AC$INSTRUMENT: Q Exactive Orbitrap (Thermo Scientific)
AC$INSTRUMENT_TYPE: LC-ESI-QFT
AC$MASS_SPECTROMETRY: MS_TYPE MS2
AC$MASS_SPECTROMETRY: ION_MODE NEGATIVE
AC$MASS_SPECTROMETRY: IONIZATION ESI
AC$MASS_SPECTROMETRY: FRAGMENTATION_MODE HCD
AC$MASS_SPECTROMETRY: COLLISION_ENERGY 45
AC$MASS_SPECTROMETRY: RESOLUTION 17500
AC$CHROMATOGRAPHY: COLUMN_NAME Acquity BEH C18 1.7um, 2.1x150mm (Waters)
AC$CHROMATOGRAPHY: FLOW_GRADIENT 90/10 at 0-2 min, 0/100 at 15-20 min, 90/10 at 20.1-30 min
AC$CHROMATOGRAPHY: FLOW_RATE 0.20 mL/min
AC$CHROMATOGRAPHY: RETENTION_TIME 17.202 min
AC$CHROMATOGRAPHY: SOLVENT A 0.1% formic acid
AC$CHROMATOGRAPHY: SOLVENT B methanol
MS$FOCUSED_ION: BASE_PEAK 369.8229
MS$FOCUSED_ION: PRECURSOR_M/Z 369.8231
MS$FOCUSED_ION: PRECURSOR_TYPE [M-H]-
MS$FOCUSED_ION: PRECURSOR_INTENSITY 80291749.25781
MS$DATA_PROCESSING: RECALIBRATE loess on assigned fragments and MS1
MS$DATA_PROCESSING: REANALYZE Peaks with additional N2/O included
MS$DATA_PROCESSING: WHOLE RMassBank 2.99.2
PK$SPLASH: splash10-004i-0900000000-39dc850c16d8c2383647
PK$ANNOTATION: m/z tentative_formula formula_count mass error(ppm)
  64.0193 C4H2N- 1 64.0193 -0.19
  65.9985 C3NO- 1 65.9985 -0.87
  76.0192 C5H2N- 1 76.0193 -0.37
  91.0064 C5HNO- 1 91.0064 0.64
  92.0141 C5H2NO- 1 92.0142 -0.45
  104.0142 C6H2NO- 1 104.0142 -0.05
  116.0142 C7H2NO- 1 116.0142 -0.15
  126.905 I- 1 126.905 -0.36
  214.9238 C6H2IN- 1 214.9237 0.38
  230.9186 C6H2INO- 1 230.9187 -0.32
  241.9109 C7HINO- 1 241.9108 0.35
  242.9188 C7H2INO- 1 242.9187 0.48
  369.8231 C7H2I2NO- 1 369.8231 -0.21
PK$NUM_PEAK: 13
PK$PEAK: m/z int. rel.int.
  64.0193 92891 2
  65.9985 89135.4 2
  76.0192 87206.3 2
  91.0064 47871.9 1
  92.0141 106597.1 2
  104.0142 136438.3 3
  116.0142 640376.8 16
  126.905 39382844 999
  214.9238 259961.8 6
  230.9186 402777.7 10
  241.9109 68398.3 1
  242.9188 70602.4 1
  369.8231 2398910.5 60
//
