ACCESSION: MSBNK-LCSB-LU050402
RECORD_TITLE: Pargyline; LC-ESI-QFT; MS2; CE: 30; R=17500; [M+H]+
DATE: 2020.08.19
AUTHORS: Elapavalore, A.; Kondić, T.; Singh, R.; Schymanski, E.
LICENSE: CC BY
COPYRIGHT: Copyright © 2019 by Environmental Cheminformatics, LCSB, University of Luxembourg, Luxembourg
PUBLICATION: Elapavalore, A.; Kondić, T.; et al., Adding Open Spectral Data to MassBank and PubChem Using Open Source Tools to Support Non-Targeted Exposomics of Mixtures (submitted).
PROJECT: ENTACT U.S. Environmental Protection Agency’s Non-Targeted Analysis Collaborative Trial
COMMENT: CONFIDENCE standard compound
COMMENT: INTERNAL_ID 504
COMMENT: DATASET 20200303_ENTACT_RP_MIX506
COMMENT: DATA_PROCESSING MERGING RMBmix ver. 0.2.7
COMMENT: DATA_PROCESSING PRESCREENING Shinyscreen ver. 0.8.0
COMMENT: ORIGINAL_ACQUISITION_NO 4679
COMMENT: ORIGINAL_PRECURSOR_SCAN_NO 4674
COMMENT: RAW_DATA available as MSV000091754 at [DOI:10.25345/C5S46HG75]
CH$NAME: Pargyline
CH$NAME: N-benzyl-N-methylprop-2-yn-1-amine
CH$COMPOUND_CLASS: N/A; Environmental Standard
CH$FORMULA: C11H13N
CH$EXACT_MASS: 159.1048
CH$SMILES: CN(CC#C)CC1=CC=CC=C1
CH$IUPAC: InChI=1S/C11H13N/c1-3-9-12(2)10-11-7-5-4-6-8-11/h1,4-8H,9-10H2,2H3
CH$LINK: CAS 555-57-7
CH$LINK: CHEBI CHEBI:7930
CH$LINK: KEGG C07414
CH$LINK: PUBCHEM CID:4688
CH$LINK: INCHIKEY DPWPWRLQFGFJFI-UHFFFAOYSA-N
CH$LINK: CHEMSPIDER 4526
AC$INSTRUMENT: Q Exactive Orbitrap (Thermo Scientific)
AC$INSTRUMENT_TYPE: LC-ESI-QFT
AC$MASS_SPECTROMETRY: MS_TYPE MS2
AC$MASS_SPECTROMETRY: ION_MODE POSITIVE
AC$MASS_SPECTROMETRY: IONIZATION ESI
AC$MASS_SPECTROMETRY: FRAGMENTATION_MODE HCD
AC$MASS_SPECTROMETRY: COLLISION_ENERGY 30
AC$MASS_SPECTROMETRY: RESOLUTION 17500
AC$CHROMATOGRAPHY: COLUMN_NAME Acquity BEH C18 1.7um, 2.1x150mm (Waters)
AC$CHROMATOGRAPHY: FLOW_GRADIENT 90/10 at 0-2 min, 0/100 at 15-20 min, 90/10 at 20.1-30 min
AC$CHROMATOGRAPHY: FLOW_RATE 0.20 mL/min
AC$CHROMATOGRAPHY: RETENTION_TIME 8.888 min
AC$CHROMATOGRAPHY: SOLVENT A 0.1% formic acid
AC$CHROMATOGRAPHY: SOLVENT B methanol
MS$FOCUSED_ION: BASE_PEAK 79.0211
MS$FOCUSED_ION: PRECURSOR_M/Z 160.1121
MS$FOCUSED_ION: PRECURSOR_TYPE [M+H]+
MS$FOCUSED_ION: PRECURSOR_INTENSITY 5439780
MS$DATA_PROCESSING: RECALIBRATE loess on assigned fragments and MS1
MS$DATA_PROCESSING: REANALYZE Peaks with additional N2/O included
MS$DATA_PROCESSING: WHOLE RMassBank 2.99.2
PK$SPLASH: splash10-0006-9400000000-f5aefd0982718e5c3381
PK$ANNOTATION: m/z tentative_formula formula_count mass error(ppm)
  56.0494 C3H6N+ 1 56.0495 -0.92
  68.0495 C4H6N+ 1 68.0495 -0.14
  82.0652 C5H8N+ 1 82.0651 1.03
  91.0542 C7H7+ 1 91.0542 0.18
  117.0698 C9H9+ 1 117.0699 -0.4
  128.0624 C10H8+ 1 128.0621 2.69
  129.0699 C10H9+ 1 129.0699 -0.03
  131.0855 C10H11+ 1 131.0855 0.01
  145.089 C10H11N+ 1 145.0886 2.49
  160.1121 C11H14N+ 1 160.1121 0.25
PK$NUM_PEAK: 10
PK$PEAK: m/z int. rel.int.
  56.0494 12598.2 23
  68.0495 16584.1 30
  82.0652 2668.7 4
  91.0542 538613.3 999
  117.0698 1981 3
  128.0624 2208 4
  129.0699 49030.8 90
  131.0855 14984.9 27
  145.089 6320 11
  160.1121 205583.9 381
//
