ACCESSION: MSBNK-LCSB-LU063055
RECORD_TITLE: SB243213A; LC-ESI-QFT; MS2; CE: 75; R=17500; [M-H]-
DATE: 2020.08.19
AUTHORS: Elapavalore, A.; Kondić, T.; Singh, R.; Schymanski, E.
LICENSE: CC BY
COPYRIGHT: Copyright © 2019 by Environmental Cheminformatics, LCSB, University of Luxembourg, Luxembourg
PUBLICATION: Elapavalore, A.; Kondić, T.; et al., Adding Open Spectral Data to MassBank and PubChem Using Open Source Tools to Support Non-Targeted Exposomics of Mixtures (submitted).
PROJECT: ENTACT U.S. Environmental Protection Agency’s Non-Targeted Analysis Collaborative Trial
COMMENT: CONFIDENCE standard compound
COMMENT: INTERNAL_ID 630
COMMENT: DATASET 20200303_ENTACT_RP_MIX506
COMMENT: DATA_PROCESSING MERGING RMBmix ver. 0.2.7
COMMENT: DATA_PROCESSING PRESCREENING Shinyscreen ver. 0.8.0
COMMENT: ORIGINAL_ACQUISITION_NO 4923
COMMENT: ORIGINAL_PRECURSOR_SCAN_NO 4921
COMMENT: RAW_DATA available as MSV000091754 at [DOI:10.25345/C5S46HG75]
CH$NAME: SB243213A
CH$NAME: SB 243213
CH$NAME: 5-methyl-N-[6-(2-methylpyridin-3-yl)oxypyridin-3-yl]-6-(trifluoromethyl)-2,3-dihydroindole-1-carboxamide
CH$COMPOUND_CLASS: N/A; Environmental Standard
CH$FORMULA: C22H19F3N4O2
CH$EXACT_MASS: 428.1460
CH$SMILES: CC1=CC2=C(C=C1C(F)(F)F)N(CC2)C(=O)NC1=CC=C(OC2=CC=CN=C2C)N=C1
CH$IUPAC: InChI=1S/C22H19F3N4O2/c1-13-10-15-7-9-29(18(15)11-17(13)22(23,24)25)21(30)28-16-5-6-20(27-12-16)31-19-4-3-8-26-14(19)2/h3-6,8,10-12H,7,9H2,1-2H3,(H,28,30)
CH$LINK: CAS 200940-23-4
CH$LINK: CHEBI CHEBI:8980
CH$LINK: KEGG C11743
CH$LINK: PUBCHEM CID:443391
CH$LINK: INCHIKEY ZETBBVYSBABLHL-UHFFFAOYSA-N
CH$LINK: CHEMSPIDER 391620
AC$INSTRUMENT: Q Exactive Orbitrap (Thermo Scientific)
AC$INSTRUMENT_TYPE: LC-ESI-QFT
AC$MASS_SPECTROMETRY: MS_TYPE MS2
AC$MASS_SPECTROMETRY: ION_MODE NEGATIVE
AC$MASS_SPECTROMETRY: IONIZATION ESI
AC$MASS_SPECTROMETRY: FRAGMENTATION_MODE HCD
AC$MASS_SPECTROMETRY: COLLISION_ENERGY 75
AC$MASS_SPECTROMETRY: RESOLUTION 17500
AC$CHROMATOGRAPHY: COLUMN_NAME Acquity BEH C18 1.7um, 2.1x150mm (Waters)
AC$CHROMATOGRAPHY: FLOW_GRADIENT 90/10 at 0-2 min, 0/100 at 15-20 min, 90/10 at 20.1-30 min
AC$CHROMATOGRAPHY: FLOW_RATE 0.20 mL/min
AC$CHROMATOGRAPHY: RETENTION_TIME 17.974 min
AC$CHROMATOGRAPHY: SOLVENT A 0.1% formic acid
AC$CHROMATOGRAPHY: SOLVENT B methanol
MS$FOCUSED_ION: BASE_PEAK 203.0131
MS$FOCUSED_ION: PRECURSOR_M/Z 427.1387
MS$FOCUSED_ION: PRECURSOR_TYPE [M-H]-
MS$FOCUSED_ION: PRECURSOR_INTENSITY 19129757.59375
MS$DATA_PROCESSING: RECALIBRATE loess on assigned fragments and MS1
MS$DATA_PROCESSING: REANALYZE Peaks with additional N2/O included
MS$DATA_PROCESSING: WHOLE RMassBank 2.99.2
PK$SPLASH: splash10-052b-0900000000-08e077d9c5fab5d0cac0
PK$ANNOTATION: m/z tentative_formula formula_count mass error(ppm)
  114.0349 C8H4N- 4 114.0349 -0.1
  116.0506 C8H6N- 4 116.0506 0.57
  130.0663 C9H8N- 4 130.0662 0.26
  133.0459 C9H6F- 4 133.0459 0.36
  138.0348 C10H4N- 4 138.0349 -0.57
  140.0506 C10H6N- 4 140.0506 0.35
  158.0411 C10H5FN- 5 158.0412 -0.01
  160.0568 C10H7FN- 5 160.0568 -0.07
  171.0325 C10H5NO2- 4 171.0326 -0.35
  173.0583 C9H8F3- 4 173.0584 -0.13
  174.0361 C10H5FNO- 6 174.0361 0.4
  178.0474 C10H6F2N- 4 178.0474 0.19
  180.0631 C10H8F2N- 4 180.063 0.14
  198.0536 C10H7F3N- 4 198.0536 0.05
  200.0693 C10H9F3N- 4 200.0693 0.08
  244.0593 C11H9F3NO2- 5 244.0591 0.85
PK$NUM_PEAK: 16
PK$PEAK: m/z int. rel.int.
  114.0349 4136.7 1
  116.0506 7483 3
  130.0663 6565.5 2
  133.0459 59589.2 24
  138.0348 5156.8 2
  140.0506 614066.8 256
  158.0411 1542326.9 643
  160.0568 396200.4 165
  171.0325 3052.4 1
  173.0583 119634.7 49
  174.0361 3895.7 1
  178.0474 390656.5 162
  180.0631 213164.4 88
  198.0536 2395601.5 999
  200.0693 490027.2 204
  244.0593 10033.8 4
//
