ACCESSION: MSBNK-LCSB-LU040352
RECORD_TITLE: Famoxadone; LC-ESI-QFT; MS2; CE: 30; R=17500; [M-H]-
DATE: 2020.08.19
AUTHORS: Elapavalore, A.; Kondić, T.; Singh, R.; Schymanski, E.
LICENSE: CC BY
COPYRIGHT: Copyright © 2019 by Environmental Cheminformatics, LCSB, University of Luxembourg, Luxembourg
PUBLICATION: Elapavalore, A.; Kondić, T.; et al., Adding Open Spectral Data to MassBank and PubChem Using Open Source Tools to Support Non-Targeted Exposomics of Mixtures (submitted).
PROJECT: ENTACT U.S. Environmental Protection Agency’s Non-Targeted Analysis Collaborative Trial
COMMENT: CONFIDENCE standard compound
COMMENT: INTERNAL_ID 403
COMMENT: DATASET 20200303_ENTACT_RP_MIX505
COMMENT: DATA_PROCESSING MERGING RMBmix ver. 0.2.7
COMMENT: DATA_PROCESSING PRESCREENING Shinyscreen ver. 0.8.0
COMMENT: ORIGINAL_ACQUISITION_NO 5271
COMMENT: ORIGINAL_PRECURSOR_SCAN_NO 5269
COMMENT: RAW_DATA available as MSV000091754 at [DOI:10.25345/C5S46HG75]
CH$NAME: Famoxadone
CH$NAME: 3-anilino-5-methyl-5-(4-phenoxyphenyl)-1,3-oxazolidine-2,4-dione
CH$COMPOUND_CLASS: N/A; Environmental Standard
CH$FORMULA: C22H18N2O4
CH$EXACT_MASS: 374.1267
CH$SMILES: CC1(OC(=O)N(NC2=CC=CC=C2)C1=O)C1=CC=C(OC2=CC=CC=C2)C=C1
CH$IUPAC: InChI=1S/C22H18N2O4/c1-22(16-12-14-19(15-13-16)27-18-10-6-3-7-11-18)20(25)24(21(26)28-22)23-17-8-4-2-5-9-17/h2-15,23H,1H3
CH$LINK: CAS 15316-91-3
CH$LINK: CHEBI CHEBI:83250
CH$LINK: PUBCHEM CID:213032
CH$LINK: INCHIKEY PCCSBWNGDMYFCW-UHFFFAOYSA-N
CH$LINK: CHEMSPIDER 184727
AC$INSTRUMENT: Q Exactive Orbitrap (Thermo Scientific)
AC$INSTRUMENT_TYPE: LC-ESI-QFT
AC$MASS_SPECTROMETRY: MS_TYPE MS2
AC$MASS_SPECTROMETRY: ION_MODE NEGATIVE
AC$MASS_SPECTROMETRY: IONIZATION ESI
AC$MASS_SPECTROMETRY: FRAGMENTATION_MODE HCD
AC$MASS_SPECTROMETRY: COLLISION_ENERGY 30
AC$MASS_SPECTROMETRY: RESOLUTION 17500
AC$CHROMATOGRAPHY: COLUMN_NAME Acquity BEH C18 1.7um, 2.1x150mm (Waters)
AC$CHROMATOGRAPHY: FLOW_GRADIENT 90/10 at 0-2 min, 0/100 at 15-20 min, 90/10 at 20.1-30 min
AC$CHROMATOGRAPHY: FLOW_RATE 0.20 mL/min
AC$CHROMATOGRAPHY: RETENTION_TIME 18.575 min
AC$CHROMATOGRAPHY: SOLVENT A 0.1% formic acid
AC$CHROMATOGRAPHY: SOLVENT B methanol
MS$FOCUSED_ION: BASE_PEAK 112.9857
MS$FOCUSED_ION: PRECURSOR_M/Z 373.1194
MS$FOCUSED_ION: PRECURSOR_TYPE [M-H]-
MS$FOCUSED_ION: PRECURSOR_INTENSITY 957419.1279297
MS$DATA_PROCESSING: RECALIBRATE loess on assigned fragments and MS1
MS$DATA_PROCESSING: REANALYZE Peaks with additional N2/O included
MS$DATA_PROCESSING: WHOLE RMassBank 2.99.2
PK$SPLASH: splash10-001i-0291000000-15386cff3ec578064561
PK$ANNOTATION: m/z tentative_formula formula_count mass error(ppm)
  92.0505 C6H6N- 1 92.0506 -0.92
  93.0345 C6H5O- 1 93.0346 -1.06
  105.0346 C7H5O- 1 105.0346 0.08
  117.0459 C7H5N2- 1 117.0458 0.57
  121.0294 C7H5O2- 1 121.0295 -0.73
  123.0452 C7H7O2- 1 123.0452 0.27
  133.0408 C7H5N2O- 1 133.0407 0.59
  195.0814 C14H11O- 1 195.0815 -0.7
  224.0844 C15H12O2- 1 224.0843 0.7
  282.0773 C16H12NO4- 2 282.0772 0.35
  329.1295 C21H17N2O2- 1 329.1296 -0.01
  373.1192 C22H17N2O4- 1 373.1194 -0.44
PK$NUM_PEAK: 12
PK$PEAK: m/z int. rel.int.
  92.0505 2336.1 9
  93.0345 2342.2 9
  105.0346 3105.2 13
  117.0459 12856.1 54
  121.0294 6754 28
  123.0452 3477.5 14
  133.0408 38030.7 160
  195.0814 5789.9 24
  224.0844 5886.5 24
  282.0773 236961.8 999
  329.1295 31687 133
  373.1192 9578.9 40
//
