ACCESSION: MSBNK-LCSB-LU134756
RECORD_TITLE: Terbacil; LC-ESI-QFT; MS2; CE: 90; R=17500; [M-H]-
DATE: 2020.08.19
AUTHORS: Elapavalore, A.; Kondić, T.; Singh, R.; Schymanski, E.
LICENSE: CC BY
COPYRIGHT: Copyright © 2019 by Environmental Cheminformatics, LCSB, University of Luxembourg, Luxembourg
PUBLICATION: Elapavalore, A.; Kondić, T.; et al., Adding Open Spectral Data to MassBank and PubChem Using Open Source Tools to Support Non-Targeted Exposomics of Mixtures (submitted).
PROJECT: ENTACT U.S. Environmental Protection Agency’s Non-Targeted Analysis Collaborative Trial
COMMENT: CONFIDENCE standard compound
COMMENT: INTERNAL_ID 1347
COMMENT: DATASET 20200303_ENTACT_RP_MIX508
COMMENT: DATA_PROCESSING MERGING RMBmix ver. 0.2.7
COMMENT: DATA_PROCESSING PRESCREENING Shinyscreen ver. 0.8.0
COMMENT: ORIGINAL_ACQUISITION_NO 4010
COMMENT: ORIGINAL_PRECURSOR_SCAN_NO 4007
COMMENT: RAW_DATA available as MSV000091754 at [DOI:10.25345/C5S46HG75]
CH$NAME: Terbacil
CH$NAME: 3-tert-butyl-5-chloro-6-methyl-1H-pyrimidine-2,4-dione
CH$COMPOUND_CLASS: N/A; Environmental Standard
CH$FORMULA: C9H13ClN2O2
CH$EXACT_MASS: 216.0666
CH$SMILES: CC1=C(Cl)C(=O)N(C(=O)N1)C(C)(C)C
CH$IUPAC: InChI=1S/C9H13ClN2O2/c1-5-6(10)7(13)12(8(14)11-5)9(2,3)4/h1-4H3,(H,11,14)
CH$LINK: CAS 5902-51-2
CH$LINK: CHEBI CHEBI:9447
CH$LINK: KEGG C10963
CH$LINK: PUBCHEM CID:22188
CH$LINK: INCHIKEY NBQCNZYJJMBDKY-UHFFFAOYSA-N
CH$LINK: CHEMSPIDER 20830
AC$INSTRUMENT: Q Exactive Orbitrap (Thermo Scientific)
AC$INSTRUMENT_TYPE: LC-ESI-QFT
AC$MASS_SPECTROMETRY: MS_TYPE MS2
AC$MASS_SPECTROMETRY: ION_MODE NEGATIVE
AC$MASS_SPECTROMETRY: IONIZATION ESI
AC$MASS_SPECTROMETRY: FRAGMENTATION_MODE HCD
AC$MASS_SPECTROMETRY: COLLISION_ENERGY 90
AC$MASS_SPECTROMETRY: RESOLUTION 17500
AC$CHROMATOGRAPHY: COLUMN_NAME Acquity BEH C18 1.7um, 2.1x150mm (Waters)
AC$CHROMATOGRAPHY: FLOW_GRADIENT 90/10 at 0-2 min, 0/100 at 15-20 min, 90/10 at 20.1-30 min
AC$CHROMATOGRAPHY: FLOW_RATE 0.20 mL/min
AC$CHROMATOGRAPHY: RETENTION_TIME 15.621 min
AC$CHROMATOGRAPHY: SOLVENT A 0.1% formic acid
AC$CHROMATOGRAPHY: SOLVENT B methanol
MS$FOCUSED_ION: BASE_PEAK 215.0593
MS$FOCUSED_ION: PRECURSOR_M/Z 215.0593
MS$FOCUSED_ION: PRECURSOR_TYPE [M-H]-
MS$FOCUSED_ION: PRECURSOR_INTENSITY 34809233.25977
MS$DATA_PROCESSING: RECALIBRATE loess on assigned fragments and MS1
MS$DATA_PROCESSING: REANALYZE Peaks with additional N2/O included
MS$DATA_PROCESSING: WHOLE RMassBank 2.99.2
PK$SPLASH: splash10-00di-9400000000-8378a34f720ed2305e2e
PK$ANNOTATION: m/z tentative_formula formula_count mass error(ppm)
  60.9724 CClN- 1 60.9725 -0.85
  69.9936 C2NO2- 1 69.9935 1.75
  72.9725 C2ClN- 1 72.9725 0.42
  73.9804 C2HClN- 1 73.9803 0.78
  74.9643 C2ClO- 1 74.9643 0.39
  88.9675 C2ClNO- 1 88.9674 1.29
  115.9909 C4H3ClNO- 2 115.9909 -0.02
  158.9967 C5H4ClN2O2- 1 158.9967 0.28
PK$NUM_PEAK: 8
PK$PEAK: m/z int. rel.int.
  60.9724 20240.9 70
  69.9936 11176.8 38
  72.9725 81549.6 284
  73.9804 38884.7 135
  74.9643 286858.3 999
  88.9675 11320.8 39
  115.9909 33482.6 116
  158.9967 197065 686
//
