ACCESSION: MSBNK-LCSB-LU062101
RECORD_TITLE: 4-Hexylaniline; LC-ESI-QFT; MS2; CE: 15; R=17500; [M+H]+
DATE: 2020.08.19
AUTHORS: Elapavalore, A.; Kondić, T.; Singh, R.; Schymanski, E.
LICENSE: CC BY
COPYRIGHT: Copyright © 2019 by Environmental Cheminformatics, LCSB, University of Luxembourg, Luxembourg
PUBLICATION: Elapavalore, A.; Kondić, T.; et al., Adding Open Spectral Data to MassBank and PubChem Using Open Source Tools to Support Non-Targeted Exposomics of Mixtures (submitted).
PROJECT: ENTACT U.S. Environmental Protection Agency’s Non-Targeted Analysis Collaborative Trial
COMMENT: CONFIDENCE standard compound
COMMENT: INTERNAL_ID 621
COMMENT: DATASET 20200303_ENTACT_RP_MIX506
COMMENT: DATA_PROCESSING MERGING RMBmix ver. 0.2.7
COMMENT: DATA_PROCESSING PRESCREENING Shinyscreen ver. 0.8.0
COMMENT: ORIGINAL_ACQUISITION_NO 8684
COMMENT: ORIGINAL_PRECURSOR_SCAN_NO 8681
COMMENT: RAW_DATA available as MSV000091754 at [DOI:10.25345/C5S46HG75]
CH$NAME: 4-Hexylaniline
CH$COMPOUND_CLASS: N/A; Environmental Standard
CH$FORMULA: C12H19N
CH$EXACT_MASS: 177.1517
CH$SMILES: CCCCCCC1=CC=C(N)C=C1
CH$IUPAC: InChI=1S/C12H19N/c1-2-3-4-5-6-11-7-9-12(13)10-8-11/h7-10H,2-6,13H2,1H3
CH$LINK: CAS 33228-45-4
CH$LINK: PUBCHEM CID:36382
CH$LINK: INCHIKEY OVEMTTZEBOCJDV-UHFFFAOYSA-N
CH$LINK: CHEMSPIDER 33438
AC$INSTRUMENT: Q Exactive Orbitrap (Thermo Scientific)
AC$INSTRUMENT_TYPE: LC-ESI-QFT
AC$MASS_SPECTROMETRY: MS_TYPE MS2
AC$MASS_SPECTROMETRY: ION_MODE POSITIVE
AC$MASS_SPECTROMETRY: IONIZATION ESI
AC$MASS_SPECTROMETRY: FRAGMENTATION_MODE HCD
AC$MASS_SPECTROMETRY: COLLISION_ENERGY 15
AC$MASS_SPECTROMETRY: RESOLUTION 17500
AC$CHROMATOGRAPHY: COLUMN_NAME Acquity BEH C18 1.7um, 2.1x150mm (Waters)
AC$CHROMATOGRAPHY: FLOW_GRADIENT 90/10 at 0-2 min, 0/100 at 15-20 min, 90/10 at 20.1-30 min
AC$CHROMATOGRAPHY: FLOW_RATE 0.20 mL/min
AC$CHROMATOGRAPHY: RETENTION_TIME 16.558 min
AC$CHROMATOGRAPHY: SOLVENT A 0.1% formic acid
AC$CHROMATOGRAPHY: SOLVENT B methanol
MS$FOCUSED_ION: BASE_PEAK 79.0211
MS$FOCUSED_ION: PRECURSOR_M/Z 178.159
MS$FOCUSED_ION: PRECURSOR_TYPE [M+H]+
MS$FOCUSED_ION: PRECURSOR_INTENSITY 24505238.46875
MS$DATA_PROCESSING: RECALIBRATE loess on assigned fragments and MS1
MS$DATA_PROCESSING: REANALYZE Peaks with additional N2/O included
MS$DATA_PROCESSING: WHOLE RMassBank 2.99.2
PK$SPLASH: splash10-004i-0900000000-7fe6fe78771746abe1e8
PK$ANNOTATION: m/z tentative_formula formula_count mass error(ppm)
  57.0699 C4H9+ 1 57.0699 -0.13
  91.0539 C7H7+ 1 91.0542 -3.5
  94.0651 C6H8N+ 1 94.0651 -0.05
  106.0652 C7H8N+ 1 106.0651 1.06
  107.0724 C7H9N+ 1 107.073 -4.75
  178.1589 C12H20N+ 1 178.159 -0.43
PK$NUM_PEAK: 6
PK$PEAK: m/z int. rel.int.
  57.0699 31446.1 1
  91.0539 47171.7 2
  94.0651 474442.7 22
  106.0652 20888.8 1
  107.0724 26594.5 1
  178.1589 20673104 999
//
