ACCESSION: MSBNK-LCSB-LU075651
RECORD_TITLE: 3-Hydroxy-N-(3-nitrophenyl)naphthalene-2-carboxamide; LC-ESI-QFT; MS2; CE: 15; R=17500; [M-H]-
DATE: 2020.08.19
AUTHORS: Elapavalore, A.; Kondić, T.; Singh, R.; Schymanski, E.
LICENSE: CC BY
COPYRIGHT: Copyright © 2019 by Environmental Cheminformatics, LCSB, University of Luxembourg, Luxembourg
PUBLICATION: Elapavalore, A.; Kondić, T.; et al., Adding Open Spectral Data to MassBank and PubChem Using Open Source Tools to Support Non-Targeted Exposomics of Mixtures (submitted).
PROJECT: ENTACT U.S. Environmental Protection Agency’s Non-Targeted Analysis Collaborative Trial
COMMENT: CONFIDENCE standard compound
COMMENT: INTERNAL_ID 756
COMMENT: DATASET 20200303_ENTACT_RP_MIX507
COMMENT: DATA_PROCESSING MERGING RMBmix ver. 0.2.7
COMMENT: DATA_PROCESSING PRESCREENING Shinyscreen ver. 0.8.0
COMMENT: ORIGINAL_ACQUISITION_NO 4775
COMMENT: ORIGINAL_PRECURSOR_SCAN_NO 4771
COMMENT: RAW_DATA available as MSV000091754 at [DOI:10.25345/C5S46HG75]
CH$NAME: 3-Hydroxy-N-(3-nitrophenyl)naphthalene-2-carboxamide
CH$NAME: 3-Hydroxy-3'-nitro-2-naphthanilide
CH$COMPOUND_CLASS: N/A; Environmental Standard
CH$FORMULA: C17H12N2O4
CH$EXACT_MASS: 308.0797
CH$SMILES: OC1=CC2=C(C=CC=C2)C=C1C(=O)NC1=CC=CC(=C1)[N+]([O-])=O
CH$IUPAC: InChI=1S/C17H12N2O4/c20-16-9-12-5-2-1-4-11(12)8-15(16)17(21)18-13-6-3-7-14(10-13)19(22)23/h1-10,20H,(H,18,21)
CH$LINK: CAS 135-65-9
CH$LINK: PUBCHEM CID:67277
CH$LINK: INCHIKEY YZJSKRBKHCLMQC-UHFFFAOYSA-N
CH$LINK: CHEMSPIDER 60609
AC$INSTRUMENT: Q Exactive Orbitrap (Thermo Scientific)
AC$INSTRUMENT_TYPE: LC-ESI-QFT
AC$MASS_SPECTROMETRY: MS_TYPE MS2
AC$MASS_SPECTROMETRY: ION_MODE NEGATIVE
AC$MASS_SPECTROMETRY: IONIZATION ESI
AC$MASS_SPECTROMETRY: FRAGMENTATION_MODE HCD
AC$MASS_SPECTROMETRY: COLLISION_ENERGY 15
AC$MASS_SPECTROMETRY: RESOLUTION 17500
AC$CHROMATOGRAPHY: COLUMN_NAME Acquity BEH C18 1.7um, 2.1x150mm (Waters)
AC$CHROMATOGRAPHY: FLOW_GRADIENT 90/10 at 0-2 min, 0/100 at 15-20 min, 90/10 at 20.1-30 min
AC$CHROMATOGRAPHY: FLOW_RATE 0.20 mL/min
AC$CHROMATOGRAPHY: RETENTION_TIME 18.710 min
AC$CHROMATOGRAPHY: SOLVENT A 0.1% formic acid
AC$CHROMATOGRAPHY: SOLVENT B methanol
MS$FOCUSED_ION: BASE_PEAK 307.0723
MS$FOCUSED_ION: PRECURSOR_M/Z 307.0724
MS$FOCUSED_ION: PRECURSOR_TYPE [M-H]-
MS$FOCUSED_ION: PRECURSOR_INTENSITY 99195349.46289
MS$DATA_PROCESSING: RECALIBRATE loess on assigned fragments and MS1
MS$DATA_PROCESSING: REANALYZE Peaks with additional N2/O included
MS$DATA_PROCESSING: WHOLE RMassBank 2.99.2
PK$SPLASH: splash10-0a4i-0009000000-06f886825b311319d2d5
PK$ANNOTATION: m/z tentative_formula formula_count mass error(ppm)
  143.0506 C10H7O- 1 143.0502 2.44
  261.0785 C17H11NO2- 1 261.0795 -4.1
  307.0723 C17H11N2O4- 1 307.0724 -0.53
PK$NUM_PEAK: 3
PK$PEAK: m/z int. rel.int.
  143.0506 107488 2
  261.0785 59669.6 1
  307.0723 50517664 999
//
