ACCESSION: MSBNK-LCSB-LU116804
RECORD_TITLE: Fluorometholone; LC-ESI-QFT; MS2; CE: 60; R=17500; [M+H]+
DATE: 2020.08.19
AUTHORS: Elapavalore, A.; Kondić, T.; Singh, R.; Schymanski, E.
LICENSE: CC BY
COPYRIGHT: Copyright © 2019 by Environmental Cheminformatics, LCSB, University of Luxembourg, Luxembourg
PUBLICATION: Elapavalore, A.; Kondić, T.; et al., Adding Open Spectral Data to MassBank and PubChem Using Open Source Tools to Support Non-Targeted Exposomics of Mixtures (submitted).
PROJECT: ENTACT U.S. Environmental Protection Agency’s Non-Targeted Analysis Collaborative Trial
COMMENT: CONFIDENCE standard compound
COMMENT: INTERNAL_ID 1168
COMMENT: DATASET 20200303_ENTACT_RP_MIX508
COMMENT: DATA_PROCESSING MERGING RMBmix ver. 0.2.7
COMMENT: DATA_PROCESSING PRESCREENING Shinyscreen ver. 0.8.0
COMMENT: ORIGINAL_ACQUISITION_NO 8911
COMMENT: ORIGINAL_PRECURSOR_SCAN_NO 8909
COMMENT: RAW_DATA available as MSV000091754 at [DOI:10.25345/C5S46HG75]
CH$NAME: Fluorometholone
CH$NAME: (6S,8S,9R,10S,11S,13S,14S,17R)-17-acetyl-9-fluoro-11,17-dihydroxy-6,10,13-trimethyl-6,7,8,11,12,14,15,16-octahydrocyclopenta[a]phenanthren-3-one
CH$COMPOUND_CLASS: N/A; Environmental Standard
CH$FORMULA: C22H29FO4
CH$EXACT_MASS: 376.2050
CH$SMILES: C[C@H]1C[C@H]2[C@@H]3CC[C@](O)(C(C)=O)[C@@]3(C)C[C@H](O)[C@]2(F)[C@@]2(C)C=CC(=O)C=C12
CH$IUPAC: InChI=1S/C22H29FO4/c1-12-9-17-15-6-8-21(27,13(2)24)20(15,4)11-18(26)22(17,23)19(3)7-5-14(25)10-16(12)19/h5,7,10,12,15,17-18,26-27H,6,8-9,11H2,1-4H3/t12-,15-,17-,18-,19-,20-,21-,22-/m0/s1
CH$LINK: CAS 426-13-1
CH$LINK: CHEBI CHEBI:31625
CH$LINK: KEGG D01367
CH$LINK: PUBCHEM CID:9878
CH$LINK: INCHIKEY FAOZLTXFLGPHNG-KNAQIMQKSA-N
CH$LINK: CHEMSPIDER 9494
AC$INSTRUMENT: Q Exactive Orbitrap (Thermo Scientific)
AC$INSTRUMENT_TYPE: LC-ESI-QFT
AC$MASS_SPECTROMETRY: MS_TYPE MS2
AC$MASS_SPECTROMETRY: ION_MODE POSITIVE
AC$MASS_SPECTROMETRY: IONIZATION ESI
AC$MASS_SPECTROMETRY: FRAGMENTATION_MODE HCD
AC$MASS_SPECTROMETRY: COLLISION_ENERGY 60
AC$MASS_SPECTROMETRY: RESOLUTION 17500
AC$CHROMATOGRAPHY: COLUMN_NAME Acquity BEH C18 1.7um, 2.1x150mm (Waters)
AC$CHROMATOGRAPHY: FLOW_GRADIENT 90/10 at 0-2 min, 0/100 at 15-20 min, 90/10 at 20.1-30 min
AC$CHROMATOGRAPHY: FLOW_RATE 0.20 mL/min
AC$CHROMATOGRAPHY: RETENTION_TIME 16.967 min
AC$CHROMATOGRAPHY: SOLVENT A 0.1% formic acid
AC$CHROMATOGRAPHY: SOLVENT B methanol
MS$FOCUSED_ION: BASE_PEAK 79.0212
MS$FOCUSED_ION: PRECURSOR_M/Z 377.2123
MS$FOCUSED_ION: PRECURSOR_TYPE [M+H]+
MS$FOCUSED_ION: PRECURSOR_INTENSITY 8475011.375
MS$DATA_PROCESSING: RECALIBRATE loess on assigned fragments and MS1
MS$DATA_PROCESSING: REANALYZE Peaks with additional N2/O included
MS$DATA_PROCESSING: WHOLE RMassBank 2.99.2
PK$SPLASH: splash10-059i-2930000000-2c1062db319515520503
PK$ANNOTATION: m/z tentative_formula formula_count mass error(ppm)
  53.0387 C4H5+ 1 53.0386 1.77
  55.018 C3H3O+ 1 55.0178 2.69
  55.0542 C4H7+ 1 55.0542 -1.06
  59.0492 C3H7O+ 1 59.0491 1.28
  67.0542 C5H7+ 1 67.0542 -0.57
  69.0336 C4H5O+ 2 69.0335 2
  69.0699 C5H9+ 1 69.0699 0.34
  79.0542 C6H7+ 2 79.0542 0.11
  81.0699 C6H9+ 2 81.0699 -0.25
  83.0493 C5H7O+ 2 83.0491 1.8
  85.0649 C5H9O+ 2 85.0648 1.21
  87.0441 C4H7O2+ 2 87.0441 0.64
  91.0543 C7H7+ 2 91.0542 0.3
  93.0699 C7H9+ 2 93.0699 0.33
  95.0493 C6H7O+ 2 95.0491 1.51
  95.0855 C7H11+ 2 95.0855 0.21
  97.0649 C6H9O+ 2 97.0648 1.46
  99.0442 C5H7O2+ 2 99.0441 1.65
  103.0544 C8H7+ 2 103.0542 1.39
  105.0699 C8H9+ 2 105.0699 0.49
  107.0492 C7H7O+ 2 107.0491 0.64
  107.0855 C8H11+ 2 107.0855 -0.08
  109.0649 C7H9O+ 2 109.0648 0.77
  109.1013 C8H13+ 2 109.1012 1.32
  111.0805 C7H11O+ 2 111.0804 0.35
  115.0542 C9H7+ 2 115.0542 -0.13
  117.0699 C9H9+ 2 117.0699 0.2
  119.0856 C9H11+ 2 119.0855 0.21
  121.0648 C8H9O+ 2 121.0648 0.21
  123.0804 C8H11O+ 2 123.0804 -0.48
  125.0599 C7H9O2+ 2 125.0597 1.47
  128.0622 C10H8+ 2 128.0621 0.94
  129.0699 C10H9+ 2 129.0699 0.24
  130.0781 C10H10+ 2 130.0777 2.96
  131.0856 C10H11+ 2 131.0855 0.86
  132.057 C9H8O+ 2 132.057 -0.1
  133.0651 C9H9O+ 2 133.0648 1.99
  133.1013 C10H13+ 2 133.1012 0.66
  135.0805 C9H11O+ 2 135.0804 0.08
  137.0963 C9H13O+ 2 137.0961 1.56
  139.0754 C8H11O2+ 2 139.0754 0.21
  141.0704 C11H9+ 2 141.0699 3.67
  142.0778 C11H10+ 2 142.0777 0.44
  143.0857 C11H11+ 2 143.0855 0.88
  144.057 C10H8O+ 2 144.057 0.53
  145.0648 C10H9O+ 2 145.0648 -0.09
  145.1013 C11H13+ 2 145.1012 0.8
  146.0725 C10H10O+ 2 146.0726 -0.7
  147.0805 C10H11O+ 2 147.0804 0.46
  147.1168 C11H15+ 2 147.1168 -0.32
  149.0764 C10H10F+ 1 149.0761 2.01
  149.0964 C10H13O+ 2 149.0961 2.33
  154.0772 C12H10+ 2 154.0777 -2.98
  155.0857 C12H11+ 2 155.0855 1.18
  156.0936 C12H12+ 2 156.0934 1.29
  157.065 C11H9O+ 2 157.0648 1.55
  157.1012 C12H13+ 2 157.1012 -0.06
  158.0726 C11H10O+ 2 158.0726 0.1
  159.0806 C11H11O+ 2 159.0804 0.69
  160.0885 C11H12O+ 2 160.0883 1.37
  161.0961 C11H13O+ 2 161.0961 -0.04
  163.0919 C11H12F+ 1 163.0918 1
  163.1121 C11H15O+ 2 163.1117 1.95
  165.0704 C13H9+ 2 165.0699 2.91
  166.0778 C13H10+ 2 166.0777 0.89
  167.0727 C6H12FO4+ 2 167.0714 7.74
  167.0857 C13H11+ 2 167.0855 0.9
  169.1016 C13H13+ 2 169.1012 2.36
  171.0803 C12H11O+ 2 171.0804 -0.71
  171.117 C13H15+ 2 171.1168 1.12
  172.0884 C12H12O+ 2 172.0883 0.64
  173.0962 C12H13O+ 2 173.0961 0.75
  175.1119 C12H15O+ 2 175.1117 1.03
  179.0858 C14H11+ 2 179.0855 1.7
  181.0649 C13H9O+ 2 181.0648 0.41
  181.1016 C14H13+ 2 181.1012 2.13
  182.0727 C13H10O+ 2 182.0726 0.26
  183.0808 C13H11O+ 2 183.0804 1.69
  183.1171 C14H15+ 2 183.1168 1.31
  184.0886 C13H12O+ 2 184.0883 1.62
  185.096 C13H13O+ 2 185.0961 -0.35
  187.1116 C13H15O+ 2 187.1117 -0.88
  190.0778 C15H10+ 2 190.0777 0.67
  192.0938 C15H12+ 2 192.0934 2.22
  193.1015 C15H13+ 2 193.1012 1.52
  194.1094 C15H14+ 2 194.109 2.24
  195.0804 C14H11O+ 2 195.0804 -0.13
  195.117 C15H15+ 2 195.1168 0.92
  196.0885 C14H12O+ 2 196.0883 1.22
  197.0963 C14H13O+ 2 197.0961 1.16
  198.1038 C14H14O+ 2 198.1039 -0.51
  199.1116 C14H15O+ 2 199.1117 -0.94
  203.0862 C13H12FO+ 2 203.0867 -2.44
  204.0935 C16H12+ 2 204.0934 0.73
  206.1093 C16H14+ 2 206.109 1.22
  207.0806 C15H11O+ 2 207.0804 0.7
  207.117 C16H15+ 2 207.1168 0.88
  208.0882 C15H12O+ 2 208.0883 -0.16
  208.1243 C16H16+ 2 208.1247 -1.67
  209.0962 C15H13O+ 2 209.0961 0.53
  210.104 C15H14O+ 2 210.1039 0.41
  211.112 C15H15O+ 2 211.1117 1.3
  213.1279 C15H17O+ 2 213.1274 2.57
  217.1015 C17H13+ 2 217.1012 1.32
  218.1093 C17H14+ 2 218.109 1.34
  219.0808 C16H11O+ 2 219.0804 1.75
  219.1171 C17H15+ 2 219.1168 1.44
  220.0885 C16H12O+ 2 220.0883 1.08
  221.0959 C16H13O+ 2 221.0961 -0.83
  221.1331 C14H18FO+ 2 221.1336 -2.37
  222.104 C16H14O+ 2 222.1039 0.51
  223.1118 C16H15O+ 2 223.1117 0.47
  224.1194 C16H16O+ 2 224.1196 -0.59
  225.1274 C16H17O+ 2 225.1274 -0.08
  227.1067 C15H15O2+ 2 227.1067 0.08
  229.1223 C15H17O2+ 2 229.1223 -0.07
  231.1174 C18H15+ 2 231.1168 2.28
  233.1325 C18H17+ 2 233.1325 0.16
  234.1034 C17H14O+ 2 234.1039 -1.99
  235.1118 C17H15O+ 2 235.1117 0.44
  236.1196 C17H16O+ 2 236.1196 0.02
  237.1273 C17H17O+ 2 237.1274 -0.22
  238.1351 C17H18O+ 2 238.1352 -0.44
  239.1435 C17H19O+ 2 239.143 1.75
  245.096 C18H13O+ 2 245.0961 -0.26
  246.1039 C18H14O+ 2 246.1039 0.01
  247.1119 C18H15O+ 2 247.1117 0.84
  248.1198 C18H16O+ 2 248.1196 0.8
  249.1275 C18H17O+ 2 249.1274 0.63
  250.1356 C18H18O+ 2 250.1352 1.39
  251.1427 C18H19O+ 2 251.143 -1.39
  253.1589 C18H21O+ 2 253.1587 0.96
  259.1117 C19H15O+ 2 259.1117 -0.11
  260.1195 C19H16O+ 2 260.1196 -0.26
  263.143 C19H19O+ 2 263.143 -0.13
  273.127 C20H17O+ 2 273.1274 -1.48
  279.1746 C20H23O+ 2 279.1743 0.86
  287.1431 C21H19O+ 2 287.143 0.15
PK$NUM_PEAK: 138
PK$PEAK: m/z int. rel.int.
  53.0387 5988.5 39
  55.018 2206.4 14
  55.0542 13548.1 89
  59.0492 6946.3 45
  67.0542 18646.1 122
  69.0336 7913.5 52
  69.0699 6715.1 44
  79.0542 26243 172
  81.0699 20635.4 135
  83.0493 5847.8 38
  85.0649 2425.6 15
  87.0441 7272.8 47
  91.0543 55728.2 366
  93.0699 33321.1 218
  95.0493 13585.6 89
  95.0855 37935.2 249
  97.0649 7438.7 48
  99.0442 3636.8 23
  103.0544 3407.3 22
  105.0699 72990.5 479
  107.0492 10439.8 68
  107.0855 48547.4 319
  109.0649 14736.8 96
  109.1013 4743.3 31
  111.0805 5425.8 35
  115.0542 19571.1 128
  117.0699 37972.4 249
  119.0856 43568.6 286
  121.0648 96315.5 633
  123.0804 12028.3 79
  125.0599 7879.1 51
  128.0622 8400 55
  129.0699 10632.3 69
  130.0781 4206.6 27
  131.0856 16501.1 108
  132.057 2136.5 14
  133.0651 5795.7 38
  133.1013 26590 174
  135.0805 152003.3 999
  137.0963 4200.2 27
  139.0754 3197.4 21
  141.0704 3725 24
  142.0778 11416.7 75
  143.0857 25731 169
  144.057 2142.8 14
  145.0648 18595.5 122
  145.1013 19183.7 126
  146.0725 15808.2 103
  147.0805 29230.3 192
  147.1168 3007 19
  149.0764 3636.3 23
  149.0964 5176.6 34
  154.0772 2154.6 14
  155.0857 7926.5 52
  156.0936 5544 36
  157.065 3433.3 22
  157.1012 19496.1 128
  158.0726 14835 97
  159.0806 34627.7 227
  160.0885 5319.5 34
  161.0961 89698.8 589
  163.0919 3748.5 24
  163.1121 2370 15
  165.0704 4132.2 27
  166.0778 2370.2 15
  167.0727 2261.9 14
  167.0857 2981.3 19
  169.1016 3894.3 25
  171.0803 10764.1 70
  171.117 4738.2 31
  172.0884 15631.6 102
  173.0962 26473.2 173
  175.1119 10317.6 67
  179.0858 7031.5 46
  181.0649 3152.2 20
  181.1016 5381.7 35
  182.0727 4701.4 30
  183.0808 8393.9 55
  183.1171 3031.2 19
  184.0886 4809.4 31
  185.096 38725.2 254
  187.1116 10432.4 68
  190.0778 2515.3 16
  192.0938 4422.8 29
  193.1015 9541.6 62
  194.1094 5548.7 36
  195.0804 16481.9 108
  195.117 4464.9 29
  196.0885 10953.3 71
  197.0963 8513.7 55
  198.1038 3662.5 24
  199.1116 10211.3 67
  203.0862 6176.3 40
  204.0935 5189.3 34
  206.1093 2670 17
  207.0806 6876.6 45
  207.117 2610 17
  208.0882 19713.8 129
  208.1243 3704.4 24
  209.0962 38711.5 254
  210.104 12321.9 80
  211.112 10775.2 70
  213.1279 4433.5 29
  217.1015 4685.9 30
  218.1093 3428 22
  219.0808 4833.8 31
  219.1171 7027.4 46
  220.0885 3323.6 21
  221.0959 17106.8 112
  221.1331 2724.7 17
  222.104 38710.2 254
  223.1118 25318.3 166
  224.1194 11081.7 72
  225.1274 5118.6 33
  227.1067 3693.1 24
  229.1223 3061.9 20
  231.1174 4649.5 30
  233.1325 3992.1 26
  234.1034 9153.9 60
  235.1118 18667.3 122
  236.1196 25443.7 167
  237.1273 23508.1 154
  238.1351 4741.2 31
  239.1435 2062.2 13
  245.096 3274.7 21
  246.1039 2603.5 17
  247.1119 4858 31
  248.1198 8199.9 53
  249.1275 28858.8 189
  250.1356 3146.1 20
  251.1427 10895 71
  253.1589 2758.9 18
  259.1117 14898.6 97
  260.1195 2745 18
  263.143 24624.1 161
  273.127 14160.5 93
  279.1746 13491.8 88
  287.1431 2718.9 17
//
