ACCESSION: MSBNK-LCSB-LU115551
RECORD_TITLE: Salicylanilide; LC-ESI-QFT; MS2; CE: 15; R=17500; [M-H]-
DATE: 2020.08.19
AUTHORS: Elapavalore, A.; Kondić, T.; Singh, R.; Schymanski, E.
LICENSE: CC BY
COPYRIGHT: Copyright © 2019 by Environmental Cheminformatics, LCSB, University of Luxembourg, Luxembourg
PUBLICATION: Elapavalore, A.; Kondić, T.; et al., Adding Open Spectral Data to MassBank and PubChem Using Open Source Tools to Support Non-Targeted Exposomics of Mixtures (submitted).
PROJECT: ENTACT U.S. Environmental Protection Agency’s Non-Targeted Analysis Collaborative Trial
COMMENT: CONFIDENCE standard compound
COMMENT: INTERNAL_ID 1155
COMMENT: DATASET 20200303_ENTACT_RP_MIX508
COMMENT: DATA_PROCESSING MERGING RMBmix ver. 0.2.7
COMMENT: DATA_PROCESSING PRESCREENING Shinyscreen ver. 0.8.0
COMMENT: ORIGINAL_ACQUISITION_NO 4511
COMMENT: ORIGINAL_PRECURSOR_SCAN_NO 4507
COMMENT: RAW_DATA available as MSV000091754 at [DOI:10.25345/C5S46HG75]
CH$NAME: Salicylanilide
CH$NAME: 2-hydroxy-N-phenylbenzamide
CH$COMPOUND_CLASS: N/A; Environmental Standard
CH$FORMULA: C13H11NO2
CH$EXACT_MASS: 213.0790
CH$SMILES: OC1=C(C=CC=C1)C(=O)NC1=CC=CC=C1
CH$IUPAC: InChI=1S/C13H11NO2/c15-12-9-5-4-8-11(12)13(16)14-10-6-2-1-3-7-10/h1-9,15H,(H,14,16)
CH$LINK: CAS 87-17-2
CH$LINK: CHEBI CHEBI:239133
CH$LINK: KEGG C18915
CH$LINK: PUBCHEM CID:6872
CH$LINK: INCHIKEY WKEDVNSFRWHDNR-UHFFFAOYSA-N
CH$LINK: CHEMSPIDER 6610
AC$INSTRUMENT: Q Exactive Orbitrap (Thermo Scientific)
AC$INSTRUMENT_TYPE: LC-ESI-QFT
AC$MASS_SPECTROMETRY: MS_TYPE MS2
AC$MASS_SPECTROMETRY: ION_MODE NEGATIVE
AC$MASS_SPECTROMETRY: IONIZATION ESI
AC$MASS_SPECTROMETRY: FRAGMENTATION_MODE HCD
AC$MASS_SPECTROMETRY: COLLISION_ENERGY 15
AC$MASS_SPECTROMETRY: RESOLUTION 17500
AC$CHROMATOGRAPHY: COLUMN_NAME Acquity BEH C18 1.7um, 2.1x150mm (Waters)
AC$CHROMATOGRAPHY: FLOW_GRADIENT 90/10 at 0-2 min, 0/100 at 15-20 min, 90/10 at 20.1-30 min
AC$CHROMATOGRAPHY: FLOW_RATE 0.20 mL/min
AC$CHROMATOGRAPHY: RETENTION_TIME 16.915 min
AC$CHROMATOGRAPHY: SOLVENT A 0.1% formic acid
AC$CHROMATOGRAPHY: SOLVENT B methanol
MS$FOCUSED_ION: BASE_PEAK 212.0716
MS$FOCUSED_ION: PRECURSOR_M/Z 212.0717
MS$FOCUSED_ION: PRECURSOR_TYPE [M-H]-
MS$FOCUSED_ION: PRECURSOR_INTENSITY 75325857.87598
MS$DATA_PROCESSING: RECALIBRATE loess on assigned fragments and MS1
MS$DATA_PROCESSING: REANALYZE Peaks with additional N2/O included
MS$DATA_PROCESSING: WHOLE RMassBank 2.99.2
PK$SPLASH: splash10-03di-0090000000-0933e115d5e96c8cd9b8
PK$ANNOTATION: m/z tentative_formula formula_count mass error(ppm)
  92.0504 C6H6N- 1 92.0506 -1.85
  93.0346 C6H5O- 1 93.0346 -0.29
  118.0299 C7H4NO- 1 118.0298 0.24
  194.0615 C13H8NO- 1 194.0611 1.97
  212.0716 C13H10NO2- 1 212.0717 -0.4
PK$NUM_PEAK: 5
PK$PEAK: m/z int. rel.int.
  92.0504 786601.4 20
  93.0346 1993638.4 50
  118.0299 66331.3 1
  194.0615 68883.3 1
  212.0716 39150632 999
//
