ACCESSION: MSBNK-LCSB-LU059004
RECORD_TITLE: Diclosulam; LC-ESI-QFT; MS2; CE: 60; R=17500; [M+H]+
DATE: 2020.08.19
AUTHORS: Elapavalore, A.; Kondić, T.; Singh, R.; Schymanski, E.
LICENSE: CC BY
COPYRIGHT: Copyright © 2019 by Environmental Cheminformatics, LCSB, University of Luxembourg, Luxembourg
PUBLICATION: Elapavalore, A.; Kondić, T.; et al., Adding Open Spectral Data to MassBank and PubChem Using Open Source Tools to Support Non-Targeted Exposomics of Mixtures (submitted).
PROJECT: ENTACT U.S. Environmental Protection Agency’s Non-Targeted Analysis Collaborative Trial
COMMENT: CONFIDENCE standard compound
COMMENT: INTERNAL_ID 590
COMMENT: DATASET 20200303_ENTACT_RP_MIX506
COMMENT: DATA_PROCESSING MERGING RMBmix ver. 0.2.7
COMMENT: DATA_PROCESSING PRESCREENING Shinyscreen ver. 0.8.0
COMMENT: ORIGINAL_ACQUISITION_NO 8213
COMMENT: ORIGINAL_PRECURSOR_SCAN_NO 8211
COMMENT: RAW_DATA available as MSV000091754 at [DOI:10.25345/C5S46HG75]
CH$NAME: Diclosulam
CH$NAME: N-(2,6-dichlorophenyl)-5-ethoxy-7-fluoro-[1,2,4]triazolo[1,5-c]pyrimidine-2-sulfonamide
CH$COMPOUND_CLASS: N/A; Environmental Standard
CH$FORMULA: C13H10Cl2FN5O3S
CH$EXACT_MASS: 404.9865
CH$SMILES: CCOC1=NC(F)=CC2=NC(=NN12)S(=O)(=O)NC1=C(Cl)C=CC=C1Cl
CH$IUPAC: InChI=1S/C13H10Cl2FN5O3S/c1-2-24-13-17-9(16)6-10-18-12(19-21(10)13)25(22,23)20-11-7(14)4-3-5-8(11)15/h3-6,20H,2H2,1H3
CH$LINK: CAS 145701-21-9
CH$LINK: CHEBI CHEBI:81984
CH$LINK: KEGG C18821
CH$LINK: PUBCHEM CID:3081304
CH$LINK: INCHIKEY QNXAVFXEJCPCJO-UHFFFAOYSA-N
CH$LINK: CHEMSPIDER 2338933
AC$INSTRUMENT: Q Exactive Orbitrap (Thermo Scientific)
AC$INSTRUMENT_TYPE: LC-ESI-QFT
AC$MASS_SPECTROMETRY: MS_TYPE MS2
AC$MASS_SPECTROMETRY: ION_MODE POSITIVE
AC$MASS_SPECTROMETRY: IONIZATION ESI
AC$MASS_SPECTROMETRY: FRAGMENTATION_MODE HCD
AC$MASS_SPECTROMETRY: COLLISION_ENERGY 60
AC$MASS_SPECTROMETRY: RESOLUTION 17500
AC$CHROMATOGRAPHY: COLUMN_NAME Acquity BEH C18 1.7um, 2.1x150mm (Waters)
AC$CHROMATOGRAPHY: FLOW_GRADIENT 90/10 at 0-2 min, 0/100 at 15-20 min, 90/10 at 20.1-30 min
AC$CHROMATOGRAPHY: FLOW_RATE 0.20 mL/min
AC$CHROMATOGRAPHY: RETENTION_TIME 15.765 min
AC$CHROMATOGRAPHY: SOLVENT A 0.1% formic acid
AC$CHROMATOGRAPHY: SOLVENT B methanol
MS$FOCUSED_ION: BASE_PEAK 79.0211
MS$FOCUSED_ION: PRECURSOR_M/Z 405.9938
MS$FOCUSED_ION: PRECURSOR_TYPE [M+H]+
MS$FOCUSED_ION: PRECURSOR_INTENSITY 4231330.5625
MS$DATA_PROCESSING: RECALIBRATE loess on assigned fragments and MS1
MS$DATA_PROCESSING: REANALYZE Peaks with additional N2/O included
MS$DATA_PROCESSING: WHOLE RMassBank 2.99.2
PK$SPLASH: splash10-03di-0900000000-674bfe20f846239a986a
PK$ANNOTATION: m/z tentative_formula formula_count mass error(ppm)
  63.0229 C5H3+ 2 63.0229 -0.13
  67.0291 C3H3N2+ 1 67.0291 -0.17
  90.0339 C6H4N+ 4 90.0338 0.37
  98.9996 C5H4Cl+ 5 98.9996 0.01
  108.9608 C3H3Cl2+ 3 108.9606 1.5
  123.9948 C6H3ClN+ 9 123.9949 -0.46
  125.0027 C6H4ClN+ 10 125.0027 0.19
  126.0106 C6H5ClN+ 10 126.0105 0.57
  132.9608 C5H3Cl2+ 5 132.9606 1.06
  142.0054 C6H5ClNO+ 12 142.0054 -0.41
  146.94 C5HCl2O+ 5 146.9399 0.75
  147.9716 C5H4Cl2N+ 10 147.9715 0.41
  159.9717 C6H4Cl2N+ 11 159.9715 1.18
  160.9794 C6H5Cl2N+ 13 160.9794 0.06
  166.0165 C7H5ClN3+ 13 166.0167 -0.78
  171.9714 C7H4Cl2N+ 12 171.9715 -0.48
  175.9666 C6H4Cl2NO+ 12 175.9664 0.69
  176.9742 C6H5Cl2NO+ 13 176.9743 -0.34
PK$NUM_PEAK: 18
PK$PEAK: m/z int. rel.int.
  63.0229 7577.1 1
  67.0291 11928.7 1
  90.0339 26153.5 4
  98.9996 14703.2 2
  108.9608 6407.9 1
  123.9948 34617.8 5
  125.0027 73712.1 11
  126.0106 44613.6 6
  132.9608 14620.5 2
  142.0054 16754.9 2
  146.94 8198.4 1
  147.9716 10870.1 1
  159.9717 57730.4 9
  160.9794 6380006 999
  166.0165 7680.6 1
  171.9714 14969.4 2
  175.9666 121709.4 19
  176.9742 29968.1 4
//
