ACCESSION: MSBNK-LCSB-LU045155
RECORD_TITLE: 3-Ethylphenol; LC-ESI-QFT; MS2; CE: 75; R=17500; [M-H]-
DATE: 2020.08.19
AUTHORS: Elapavalore, A.; Kondić, T.; Singh, R.; Schymanski, E.
LICENSE: CC BY
COPYRIGHT: Copyright © 2019 by Environmental Cheminformatics, LCSB, University of Luxembourg, Luxembourg
PUBLICATION: Elapavalore, A.; Kondić, T.; et al., Adding Open Spectral Data to MassBank and PubChem Using Open Source Tools to Support Non-Targeted Exposomics of Mixtures (submitted).
PROJECT: ENTACT U.S. Environmental Protection Agency’s Non-Targeted Analysis Collaborative Trial
COMMENT: CONFIDENCE standard compound
COMMENT: INTERNAL_ID 451
COMMENT: DATASET 20200303_ENTACT_RP_MIX506
COMMENT: DATA_PROCESSING MERGING RMBmix ver. 0.2.7
COMMENT: DATA_PROCESSING PRESCREENING Shinyscreen ver. 0.8.0
COMMENT: ORIGINAL_ACQUISITION_NO 5517
COMMENT: ORIGINAL_PRECURSOR_SCAN_NO 5515
COMMENT: RAW_DATA available as MSV000091754 at [DOI:10.25345/C5S46HG75]
CH$NAME: 3-Ethylphenol
CH$COMPOUND_CLASS: N/A; Environmental Standard
CH$FORMULA: C8H10O
CH$EXACT_MASS: 122.0732
CH$SMILES: CCC1=CC=CC(O)=C1
CH$IUPAC: InChI=1S/C8H10O/c1-2-7-4-3-5-8(9)6-7/h3-6,9H,2H2,1H3
CH$LINK: CAS 620-17-7
CH$LINK: CHEBI CHEBI:34332
CH$LINK: KEGG C14386
CH$LINK: PUBCHEM CID:12101
CH$LINK: INCHIKEY HMNKTRSOROOSPP-UHFFFAOYSA-N
CH$LINK: CHEMSPIDER 11604
AC$INSTRUMENT: Q Exactive Orbitrap (Thermo Scientific)
AC$INSTRUMENT_TYPE: LC-ESI-QFT
AC$MASS_SPECTROMETRY: MS_TYPE MS2
AC$MASS_SPECTROMETRY: ION_MODE NEGATIVE
AC$MASS_SPECTROMETRY: IONIZATION ESI
AC$MASS_SPECTROMETRY: FRAGMENTATION_MODE HCD
AC$MASS_SPECTROMETRY: COLLISION_ENERGY 75
AC$MASS_SPECTROMETRY: RESOLUTION 17500
AC$CHROMATOGRAPHY: COLUMN_NAME Acquity BEH C18 1.7um, 2.1x150mm (Waters)
AC$CHROMATOGRAPHY: FLOW_GRADIENT 90/10 at 0-2 min, 0/100 at 15-20 min, 90/10 at 20.1-30 min
AC$CHROMATOGRAPHY: FLOW_RATE 0.20 mL/min
AC$CHROMATOGRAPHY: RETENTION_TIME 19.417 min
AC$CHROMATOGRAPHY: SOLVENT A 0.1% formic acid
AC$CHROMATOGRAPHY: SOLVENT B methanol
MS$FOCUSED_ION: BASE_PEAK 121.0659
MS$FOCUSED_ION: PRECURSOR_M/Z 121.0659
MS$FOCUSED_ION: PRECURSOR_TYPE [M-H]-
MS$FOCUSED_ION: PRECURSOR_INTENSITY 10932940.00391
MS$DATA_PROCESSING: RECALIBRATE loess on assigned fragments and MS1
MS$DATA_PROCESSING: REANALYZE Peaks with additional N2/O included
MS$DATA_PROCESSING: WHOLE RMassBank 2.99.2
PK$SPLASH: splash10-00di-0900000000-11db8863247d261aa2cc
PK$ANNOTATION: m/z tentative_formula formula_count mass error(ppm)
  67.0191 C4H3O- 1 67.0189 2.38
  79.0553 C6H7- 1 79.0553 0.26
  91.0552 C7H7- 1 91.0553 -0.92
  93.071 C7H9- 1 93.071 -0.06
  106.0423 C7H6O- 1 106.0424 -0.9
  119.0501 C8H7O- 1 119.0502 -1.02
  120.0581 C8H8O- 1 120.0581 0.03
  121.0659 C8H9O- 1 121.0659 -0.12
PK$NUM_PEAK: 8
PK$PEAK: m/z int. rel.int.
  67.0191 1782.5 1
  79.0553 2223.6 2
  91.0552 1935.8 2
  93.071 3264.1 3
  106.0423 17359.2 19
  119.0501 11654.1 12
  120.0581 13523.6 14
  121.0659 910841.6 999
//
