ACCESSION: MSBNK-LCSB-LU024203
RECORD_TITLE: 5HPP-33; LC-ESI-QFT; MS2; CE: 45; R=17500; [M+H]+
DATE: 2020.08.19
AUTHORS: Elapavalore, A.; Kondić, T.; Singh, R.; Schymanski, E.
LICENSE: CC BY
COPYRIGHT: Copyright © 2019 by Environmental Cheminformatics, LCSB, University of Luxembourg, Luxembourg
PUBLICATION: Elapavalore, A.; Kondić, T.; et al., Adding Open Spectral Data to MassBank and PubChem Using Open Source Tools to Support Non-Targeted Exposomics of Mixtures (submitted).
PROJECT: ENTACT U.S. Environmental Protection Agency’s Non-Targeted Analysis Collaborative Trial
COMMENT: CONFIDENCE standard compound
COMMENT: INTERNAL_ID 242
COMMENT: DATASET 20200303_ENTACT_RP_MIX505
COMMENT: DATA_PROCESSING MERGING RMBmix ver. 0.2.7
COMMENT: DATA_PROCESSING PRESCREENING Shinyscreen ver. 0.8.0
COMMENT: ORIGINAL_ACQUISITION_NO 9830
COMMENT: ORIGINAL_PRECURSOR_SCAN_NO 9826
COMMENT: RAW_DATA available as MSV000091754 at [DOI:10.25345/C5S46HG75]
CH$NAME: 5HPP-33
CH$NAME: 2-(2,6-Diisopropylphenyl)-5-hydroxyisoindoline-1,3-dione
CH$NAME: 2-[2,6-di(propan-2-yl)phenyl]-5-hydroxyisoindole-1,3-dione
CH$COMPOUND_CLASS: N/A; Environmental Standard
CH$FORMULA: C20H21NO3
CH$EXACT_MASS: 323.1521
CH$SMILES: CC(C)C1=CC=CC(C(C)C)=C1N1C(=O)C2=C(C=C(O)C=C2)C1=O
CH$IUPAC: InChI=1S/C20H21NO3/c1-11(2)14-6-5-7-15(12(3)4)18(14)21-19(23)16-9-8-13(22)10-17(16)20(21)24/h5-12,22H,1-4H3
CH$LINK: CAS 105624-86-0
CH$LINK: PUBCHEM CID:11723708
CH$LINK: INCHIKEY LAKWINYVWJPHQW-UHFFFAOYSA-N
CH$LINK: CHEMSPIDER 9898424
AC$INSTRUMENT: Q Exactive Orbitrap (Thermo Scientific)
AC$INSTRUMENT_TYPE: LC-ESI-QFT
AC$MASS_SPECTROMETRY: MS_TYPE MS2
AC$MASS_SPECTROMETRY: ION_MODE POSITIVE
AC$MASS_SPECTROMETRY: IONIZATION ESI
AC$MASS_SPECTROMETRY: FRAGMENTATION_MODE HCD
AC$MASS_SPECTROMETRY: COLLISION_ENERGY 45
AC$MASS_SPECTROMETRY: RESOLUTION 17500
AC$CHROMATOGRAPHY: COLUMN_NAME Acquity BEH C18 1.7um, 2.1x150mm (Waters)
AC$CHROMATOGRAPHY: FLOW_GRADIENT 90/10 at 0-2 min, 0/100 at 15-20 min, 90/10 at 20.1-30 min
AC$CHROMATOGRAPHY: FLOW_RATE 0.20 mL/min
AC$CHROMATOGRAPHY: RETENTION_TIME 18.685 min
AC$CHROMATOGRAPHY: SOLVENT A 0.1% formic acid
AC$CHROMATOGRAPHY: SOLVENT B methanol
MS$FOCUSED_ION: BASE_PEAK 79.0211
MS$FOCUSED_ION: PRECURSOR_M/Z 324.1594
MS$FOCUSED_ION: PRECURSOR_TYPE [M+H]+
MS$FOCUSED_ION: PRECURSOR_INTENSITY 2349191.84375
MS$DATA_PROCESSING: RECALIBRATE loess on assigned fragments and MS1
MS$DATA_PROCESSING: REANALYZE Peaks with additional N2/O included
MS$DATA_PROCESSING: WHOLE RMassBank 2.99.2
PK$SPLASH: splash10-0006-0090000000-cdba1cc0428eb5c94021
PK$ANNOTATION: m/z tentative_formula formula_count mass error(ppm)
  77.039 C6H5+ 1 77.0386 5.36
  91.0542 C7H7+ 1 91.0542 -0.34
  111.044 C6H7O2+ 1 111.0441 -0.62
  120.0444 C7H6NO+ 1 120.0444 0.05
  121.0284 C7H5O2+ 1 121.0284 0.13
  128.0492 C9H6N+ 1 128.0495 -1.83
  130.0283 C8H4NO+ 1 130.0287 -3.57
  146.0236 C8H4NO2+ 1 146.0237 -0.53
  149.0236 C8H5O3+ 1 149.0233 2.04
  173.0215 C10H5O3+ 1 173.0233 -10.65
  204.0812 C15H10N+ 1 204.0808 1.93
  232.0759 C16H10NO+ 1 232.0757 0.98
  240.0655 C14H10NO3+ 1 240.0655 0.12
  242.061 C17H8NO+ 1 242.06 4.06
  249.0787 C16H11NO2+ 1 249.0784 1.01
  262.0681 C20H8N+ 1 262.0651 11.44
  264.1018 C17H14NO2+ 1 264.1019 -0.32
  281.0474 C19H7NO2+ 1 281.0471 1.12
  282.1126 C17H16NO3+ 1 282.1125 0.57
PK$NUM_PEAK: 19
PK$PEAK: m/z int. rel.int.
  77.039 7321.1 3
  91.0542 7077.9 3
  111.044 2428.9 1
  120.0444 5105.4 2
  121.0284 27722.2 14
  128.0492 2412.2 1
  130.0283 2237.6 1
  146.0236 35620.5 18
  149.0236 2935.3 1
  173.0215 2524.7 1
  204.0812 3233.4 1
  232.0759 8162.1 4
  240.0655 1926341.4 999
  242.061 44624.1 23
  249.0787 4016.2 2
  262.0681 10543.6 5
  264.1018 5530.3 2
  281.0474 8990.3 4
  282.1126 7391.7 3
//
