ACCESSION: MSBNK-LCSB-LU123301
RECORD_TITLE: FR130739; LC-ESI-QFT; MS2; CE: 15; R=17500; [M+H]+
DATE: 2020.08.19
AUTHORS: Elapavalore, A.; Kondić, T.; Singh, R.; Schymanski, E.
LICENSE: CC BY
COPYRIGHT: Copyright © 2019 by Environmental Cheminformatics, LCSB, University of Luxembourg, Luxembourg
PUBLICATION: Elapavalore, A.; Kondić, T.; et al., Adding Open Spectral Data to MassBank and PubChem Using Open Source Tools to Support Non-Targeted Exposomics of Mixtures (submitted).
PROJECT: ENTACT U.S. Environmental Protection Agency’s Non-Targeted Analysis Collaborative Trial
COMMENT: CONFIDENCE standard compound
COMMENT: INTERNAL_ID 1233
COMMENT: DATASET 20200303_ENTACT_RP_MIX504
COMMENT: DATA_PROCESSING MERGING RMBmix ver. 0.2.7
COMMENT: DATA_PROCESSING PRESCREENING Shinyscreen ver. 0.8.0
COMMENT: ORIGINAL_ACQUISITION_NO 8718
COMMENT: ORIGINAL_PRECURSOR_SCAN_NO 8716
COMMENT: RAW_DATA available as MSV000091754 at [DOI:10.25345/C5S46HG75]
CH$NAME: FR130739
CH$NAME: FK-739 free acid
CH$NAME: 2-butyl-3-[[4-[2-(2H-tetrazol-5-yl)phenyl]phenyl]methyl]imidazo[4,5-b]pyridine
CH$COMPOUND_CLASS: N/A; Environmental Standard
CH$FORMULA: C24H23N7
CH$EXACT_MASS: 409.2015
CH$SMILES: CCCCC1=NC2=C(N=CC=C2)N1CC1=CC=C(C=C1)C1=CC=CC=C1C1=NN=NN1
CH$IUPAC: InChI=1S/C24H23N7/c1-2-3-10-22-26-21-9-6-15-25-24(21)31(22)16-17-11-13-18(14-12-17)19-7-4-5-8-20(19)23-27-29-30-28-23/h4-9,11-15H,2-3,10,16H2,1H3,(H,27,28,29,30)
CH$LINK: CAS 136042-19-8
CH$LINK: PUBCHEM CID:9801627
CH$LINK: INCHIKEY YILJWHUIUCRKEU-UHFFFAOYSA-N
CH$LINK: CHEMSPIDER 7977389
AC$INSTRUMENT: Q Exactive Orbitrap (Thermo Scientific)
AC$INSTRUMENT_TYPE: LC-ESI-QFT
AC$MASS_SPECTROMETRY: MS_TYPE MS2
AC$MASS_SPECTROMETRY: ION_MODE POSITIVE
AC$MASS_SPECTROMETRY: IONIZATION ESI
AC$MASS_SPECTROMETRY: FRAGMENTATION_MODE HCD
AC$MASS_SPECTROMETRY: COLLISION_ENERGY 15
AC$MASS_SPECTROMETRY: RESOLUTION 17500
AC$CHROMATOGRAPHY: COLUMN_NAME Acquity BEH C18 1.7um, 2.1x150mm (Waters)
AC$CHROMATOGRAPHY: FLOW_GRADIENT 90/10 at 0-2 min, 0/100 at 15-20 min, 90/10 at 20.1-30 min
AC$CHROMATOGRAPHY: FLOW_RATE 0.20 mL/min
AC$CHROMATOGRAPHY: RETENTION_TIME 16.703 min
AC$CHROMATOGRAPHY: SOLVENT A 0.1% formic acid
AC$CHROMATOGRAPHY: SOLVENT B methanol
MS$FOCUSED_ION: BASE_PEAK 79.0212
MS$FOCUSED_ION: PRECURSOR_M/Z 410.2088
MS$FOCUSED_ION: PRECURSOR_TYPE [M+H]+
MS$FOCUSED_ION: PRECURSOR_INTENSITY 18910414.75
MS$DATA_PROCESSING: RECALIBRATE loess on assigned fragments and MS1
MS$DATA_PROCESSING: REANALYZE Peaks with additional N2/O included
MS$DATA_PROCESSING: WHOLE RMassBank 2.99.2
PK$SPLASH: splash10-03di-0041900000-42e39e5b737718fef440
PK$ANNOTATION: m/z tentative_formula formula_count mass error(ppm)
  176.1183 C10H14N3+ 1 176.1182 0.17
  178.0771 C14H10+ 1 178.0777 -3.46
  179.0855 C14H11+ 1 179.0855 -0.27
  207.0917 C14H11N2+ 1 207.0917 -0.09
  235.0967 C14H11N4+ 1 235.0978 -4.81
  353.1888 C24H23N3+ 1 353.1886 0.47
  367.1918 C24H23N4+ 1 367.1917 0.33
  382.2027 C24H24N5+ 1 382.2026 0.31
  410.2088 C24H24N7+ 1 410.2088 0.08
PK$NUM_PEAK: 9
PK$PEAK: m/z int. rel.int.
  176.1183 907445.6 92
  178.0771 27935.6 2
  179.0855 25201.1 2
  207.0917 4687352 475
  235.0967 18434.2 1
  353.1888 76934.2 7
  367.1918 168804.5 17
  382.2027 920203.9 93
  410.2088 9849141 999
//
