ACCESSION: MSBNK-LCSB-LU069651
RECORD_TITLE: Ioxynil; LC-ESI-QFT; MS2; CE: 15; R=17500; [M-H]-
DATE: 2020.08.19
AUTHORS: Elapavalore, A.; Kondić, T.; Singh, R.; Schymanski, E.
LICENSE: CC BY
COPYRIGHT: Copyright © 2019 by Environmental Cheminformatics, LCSB, University of Luxembourg, Luxembourg
PUBLICATION: Elapavalore, A.; Kondić, T.; et al., Adding Open Spectral Data to MassBank and PubChem Using Open Source Tools to Support Non-Targeted Exposomics of Mixtures (submitted).
PROJECT: ENTACT U.S. Environmental Protection Agency’s Non-Targeted Analysis Collaborative Trial
COMMENT: CONFIDENCE standard compound
COMMENT: INTERNAL_ID 696
COMMENT: DATASET 20200303_ENTACT_RP_MIX506
COMMENT: DATA_PROCESSING MERGING RMBmix ver. 0.2.7
COMMENT: DATA_PROCESSING PRESCREENING Shinyscreen ver. 0.8.0
COMMENT: ORIGINAL_ACQUISITION_NO 4614
COMMENT: ORIGINAL_PRECURSOR_SCAN_NO 4611
COMMENT: RAW_DATA available as MSV000091754 at [DOI:10.25345/C5S46HG75]
CH$NAME: Ioxynil
CH$NAME: 4-hydroxy-3,5-diiodobenzonitrile
CH$COMPOUND_CLASS: N/A; Environmental Standard
CH$FORMULA: C7H3I2NO
CH$EXACT_MASS: 370.8304
CH$SMILES: OC1=C(I)C=C(C=C1I)C#N
CH$IUPAC: InChI=1S/C7H3I2NO/c8-5-1-4(3-10)2-6(9)7(5)11/h1-2,11H
CH$LINK: CAS 1689-83-4
CH$LINK: CHEBI CHEBI:81821
CH$LINK: KEGG C18546
CH$LINK: PUBCHEM CID:15530
CH$LINK: INCHIKEY NRXQIUSYPAHGNM-UHFFFAOYSA-N
CH$LINK: CHEMSPIDER 14774
AC$INSTRUMENT: Q Exactive Orbitrap (Thermo Scientific)
AC$INSTRUMENT_TYPE: LC-ESI-QFT
AC$MASS_SPECTROMETRY: MS_TYPE MS2
AC$MASS_SPECTROMETRY: ION_MODE NEGATIVE
AC$MASS_SPECTROMETRY: IONIZATION ESI
AC$MASS_SPECTROMETRY: FRAGMENTATION_MODE HCD
AC$MASS_SPECTROMETRY: COLLISION_ENERGY 15
AC$MASS_SPECTROMETRY: RESOLUTION 17500
AC$CHROMATOGRAPHY: COLUMN_NAME Acquity BEH C18 1.7um, 2.1x150mm (Waters)
AC$CHROMATOGRAPHY: FLOW_GRADIENT 90/10 at 0-2 min, 0/100 at 15-20 min, 90/10 at 20.1-30 min
AC$CHROMATOGRAPHY: FLOW_RATE 0.20 mL/min
AC$CHROMATOGRAPHY: RETENTION_TIME 17.202 min
AC$CHROMATOGRAPHY: SOLVENT A 0.1% formic acid
AC$CHROMATOGRAPHY: SOLVENT B methanol
MS$FOCUSED_ION: BASE_PEAK 369.8229
MS$FOCUSED_ION: PRECURSOR_M/Z 369.8231
MS$FOCUSED_ION: PRECURSOR_TYPE [M-H]-
MS$FOCUSED_ION: PRECURSOR_INTENSITY 83044476.36914
MS$DATA_PROCESSING: RECALIBRATE loess on assigned fragments and MS1
MS$DATA_PROCESSING: REANALYZE Peaks with additional N2/O included
MS$DATA_PROCESSING: WHOLE RMassBank 2.99.2
PK$SPLASH: splash10-014i-0009000000-1a9bc45df9cd203fd5f1
PK$ANNOTATION: m/z tentative_formula formula_count mass error(ppm)
  126.9049 I- 1 126.905 -0.78
  214.9246 C6H2IN- 1 214.9237 4.07
  242.9191 C7H2INO- 1 242.9187 1.8
  369.8229 C7H2I2NO- 1 369.8231 -0.54
PK$NUM_PEAK: 4
PK$PEAK: m/z int. rel.int.
  126.9049 2578825.5 64
  214.9246 47123.1 1
  242.9191 43375.9 1
  369.8229 40018328 999
//
