ACCESSION: MSBNK-LCSB-LU137156
RECORD_TITLE: 5-Chlorosalicylanilide; LC-ESI-QFT; MS2; CE: 90; R=17500; [M-H]-
DATE: 2020.08.19
AUTHORS: Elapavalore, A.; Kondić, T.; Singh, R.; Schymanski, E.
LICENSE: CC BY
COPYRIGHT: Copyright © 2019 by Environmental Cheminformatics, LCSB, University of Luxembourg, Luxembourg
PUBLICATION: Elapavalore, A.; Kondić, T.; et al., Adding Open Spectral Data to MassBank and PubChem Using Open Source Tools to Support Non-Targeted Exposomics of Mixtures (submitted).
PROJECT: ENTACT U.S. Environmental Protection Agency’s Non-Targeted Analysis Collaborative Trial
COMMENT: CONFIDENCE standard compound
COMMENT: INTERNAL_ID 1371
COMMENT: DATASET 20200303_ENTACT_RP_MIX504
COMMENT: DATA_PROCESSING MERGING RMBmix ver. 0.2.7
COMMENT: DATA_PROCESSING PRESCREENING Shinyscreen ver. 0.8.0
COMMENT: ORIGINAL_ACQUISITION_NO 4680
COMMENT: ORIGINAL_PRECURSOR_SCAN_NO 4677
COMMENT: RAW_DATA available as MSV000091754 at [DOI:10.25345/C5S46HG75]
CH$NAME: 5-Chlorosalicylanilide
CH$NAME: 5-chloro-2-hydroxy-N-phenylbenzamide
CH$COMPOUND_CLASS: N/A; Environmental Standard
CH$FORMULA: C13H10ClNO2
CH$EXACT_MASS: 247.0400
CH$SMILES: OC1=C(C=C(Cl)C=C1)C(=O)NC1=CC=CC=C1
CH$IUPAC: InChI=1S/C13H10ClNO2/c14-9-6-7-12(16)11(8-9)13(17)15-10-4-2-1-3-5-10/h1-8,16H,(H,15,17)
CH$LINK: CAS 4638-48-6
CH$LINK: PUBCHEM CID:14869
CH$LINK: INCHIKEY KGYNGVVNFRUOOZ-UHFFFAOYSA-N
CH$LINK: CHEMSPIDER 14179
AC$INSTRUMENT: Q Exactive Orbitrap (Thermo Scientific)
AC$INSTRUMENT_TYPE: LC-ESI-QFT
AC$MASS_SPECTROMETRY: MS_TYPE MS2
AC$MASS_SPECTROMETRY: ION_MODE NEGATIVE
AC$MASS_SPECTROMETRY: IONIZATION ESI
AC$MASS_SPECTROMETRY: FRAGMENTATION_MODE HCD
AC$MASS_SPECTROMETRY: COLLISION_ENERGY 90
AC$MASS_SPECTROMETRY: RESOLUTION 17500
AC$CHROMATOGRAPHY: COLUMN_NAME Acquity BEH C18 1.7um, 2.1x150mm (Waters)
AC$CHROMATOGRAPHY: FLOW_GRADIENT 90/10 at 0-2 min, 0/100 at 15-20 min, 90/10 at 20.1-30 min
AC$CHROMATOGRAPHY: FLOW_RATE 0.20 mL/min
AC$CHROMATOGRAPHY: RETENTION_TIME 18.244 min
AC$CHROMATOGRAPHY: SOLVENT A 0.1% formic acid
AC$CHROMATOGRAPHY: SOLVENT B methanol
MS$FOCUSED_ION: BASE_PEAK 246.0327
MS$FOCUSED_ION: PRECURSOR_M/Z 246.0327
MS$FOCUSED_ION: PRECURSOR_TYPE [M-H]-
MS$FOCUSED_ION: PRECURSOR_INTENSITY 84454846.61133
MS$DATA_PROCESSING: RECALIBRATE loess on assigned fragments and MS1
MS$DATA_PROCESSING: REANALYZE Peaks with additional N2/O included
MS$DATA_PROCESSING: WHOLE RMassBank 2.99.2
PK$SPLASH: splash10-002f-9500000000-7fe033787e5669f3dbdc
PK$ANNOTATION: m/z tentative_formula formula_count mass error(ppm)
  65.0034 C4HO- 2 65.0033 1.96
  89.0034 C6HO- 2 89.0033 0.85
  91.019 C6H3O- 2 91.0189 0.25
  92.0506 C6H6N- 1 92.0506 0.13
  93.0346 C6H5O- 2 93.0346 0.48
  124.98 C6H2ClO- 1 124.98 0.42
  126.9956 C6H4ClO- 1 126.9956 -0.08
  133.017 C7H3NO2- 1 133.0169 0.67
  151.9907 C7H3ClNO- 2 151.9909 -0.89
  164.0502 C12H6N- 1 164.0506 -2
  192.0451 C13H6NO- 1 192.0455 -2.03
  228.0218 C13H7ClNO- 1 228.0222 -1.54
PK$NUM_PEAK: 12
PK$PEAK: m/z int. rel.int.
  65.0034 24926.9 8
  89.0034 40686.2 13
  91.019 1352873.1 454
  92.0506 2975785.8 999
  93.0346 63416.5 21
  124.98 146423.2 49
  126.9956 2525511.5 847
  133.017 10052.9 3
  151.9907 13259 4
  164.0502 8003.6 2
  192.0451 11949.4 4
  228.0218 9778.4 3
//
