ACCESSION: MSBNK-LCSB-LU103901
RECORD_TITLE: Etofenprox; LC-ESI-QFT; MS2; CE: 15; R=17500; [M+H]+
DATE: 2020.08.19
AUTHORS: Elapavalore, A.; Kondić, T.; Singh, R.; Schymanski, E.
LICENSE: CC BY
COPYRIGHT: Copyright © 2019 by Environmental Cheminformatics, LCSB, University of Luxembourg, Luxembourg
PUBLICATION: Elapavalore, A.; Kondić, T.; et al., Adding Open Spectral Data to MassBank and PubChem Using Open Source Tools to Support Non-Targeted Exposomics of Mixtures (submitted).
PROJECT: ENTACT U.S. Environmental Protection Agency’s Non-Targeted Analysis Collaborative Trial
COMMENT: CONFIDENCE standard compound
COMMENT: INTERNAL_ID 1039
COMMENT: DATASET 20200303_ENTACT_RP_MIX508
COMMENT: DATA_PROCESSING MERGING RMBmix ver. 0.2.7
COMMENT: DATA_PROCESSING PRESCREENING Shinyscreen ver. 0.8.0
COMMENT: ORIGINAL_ACQUISITION_NO 8931
COMMENT: ORIGINAL_PRECURSOR_SCAN_NO 8930
COMMENT: RAW_DATA available as MSV000091754 at [DOI:10.25345/C5S46HG75]
CH$NAME: Etofenprox
CH$NAME: 1-ethoxy-4-[2-methyl-1-[(3-phenoxyphenyl)methoxy]propan-2-yl]benzene
CH$COMPOUND_CLASS: N/A; Environmental Standard
CH$FORMULA: C25H28O3
CH$EXACT_MASS: 376.2038
CH$SMILES: CCOC1=CC=C(C=C1)C(C)(C)COCC1=CC(OC2=CC=CC=C2)=CC=C1
CH$IUPAC: InChI=1S/C25H28O3/c1-4-27-22-15-13-21(14-16-22)25(2,3)19-26-18-20-9-8-12-24(17-20)28-23-10-6-5-7-11-23/h5-17H,4,18-19H2,1-3H3
CH$LINK: CAS 853-39-4
CH$LINK: CHEBI CHEBI:39348
CH$LINK: KEGG D09202
CH$LINK: PUBCHEM CID:71245
CH$LINK: INCHIKEY YREQHYQNNWYQCJ-UHFFFAOYSA-N
CH$LINK: CHEMSPIDER 64377
AC$INSTRUMENT: Q Exactive Orbitrap (Thermo Scientific)
AC$INSTRUMENT_TYPE: LC-ESI-QFT
AC$MASS_SPECTROMETRY: MS_TYPE MS2
AC$MASS_SPECTROMETRY: ION_MODE POSITIVE
AC$MASS_SPECTROMETRY: IONIZATION ESI
AC$MASS_SPECTROMETRY: FRAGMENTATION_MODE HCD
AC$MASS_SPECTROMETRY: COLLISION_ENERGY 15
AC$MASS_SPECTROMETRY: RESOLUTION 17500
AC$CHROMATOGRAPHY: COLUMN_NAME Acquity BEH C18 1.7um, 2.1x150mm (Waters)
AC$CHROMATOGRAPHY: FLOW_GRADIENT 90/10 at 0-2 min, 0/100 at 15-20 min, 90/10 at 20.1-30 min
AC$CHROMATOGRAPHY: FLOW_RATE 0.20 mL/min
AC$CHROMATOGRAPHY: RETENTION_TIME 16.967 min
AC$CHROMATOGRAPHY: SOLVENT A 0.1% formic acid
AC$CHROMATOGRAPHY: SOLVENT B methanol
MS$FOCUSED_ION: BASE_PEAK 79.0212
MS$FOCUSED_ION: PRECURSOR_M/Z 377.2111
MS$FOCUSED_ION: PRECURSOR_TYPE [M+H]+
MS$FOCUSED_ION: PRECURSOR_INTENSITY 7246455.5
MS$DATA_PROCESSING: RECALIBRATE loess on assigned fragments and MS1
MS$DATA_PROCESSING: REANALYZE Peaks with additional N2/O included
MS$DATA_PROCESSING: WHOLE RMassBank 2.99.2
PK$SPLASH: splash10-009i-0489000000-42c5da62099bec0625f5
PK$ANNOTATION: m/z tentative_formula formula_count mass error(ppm)
  85.0649 C5H9O+ 1 85.0648 1.12
  95.0855 C7H11+ 1 95.0855 -0.67
  99.0805 C6H11O+ 1 99.0804 0.33
  101.0598 C5H9O2+ 1 101.0597 0.93
  107.0857 C8H11+ 1 107.0855 1.56
  109.0649 C7H9O+ 1 109.0648 0.56
  111.0804 C7H11O+ 1 111.0804 -0.2
  119.0858 C9H11+ 1 119.0855 2.13
  121.0649 C8H9O+ 1 121.0648 0.71
  123.0804 C8H11O+ 1 123.0804 -0.24
  125.0599 C7H9O2+ 1 125.0597 1.23
  135.0804 C9H11O+ 1 135.0804 -0.03
  137.0965 C9H13O+ 1 137.0961 2.9
  139.0754 C8H11O2+ 1 139.0754 0.1
  145.1012 C11H13+ 1 145.1012 0.38
  147.0807 C10H11O+ 1 147.0804 1.6
  149.0961 C10H13O+ 1 149.0961 -0.23
  151.0757 C9H11O2+ 1 151.0754 1.99
  161.0962 C11H13O+ 1 161.0961 0.9
  163.0753 C10H11O2+ 1 163.0754 -0.24
  163.1117 C11H15O+ 1 163.1117 -0.11
  165.0911 C10H13O2+ 1 165.091 0.72
  171.117 C13H15+ 1 171.1168 1.3
  173.0961 C12H13O+ 1 173.0961 -0.14
  175.1118 C12H15O+ 1 175.1117 0.07
  177.0912 C11H13O2+ 1 177.091 0.84
  179.0872 C14H11+ 1 179.0855 9.28
  185.0963 C13H13O+ 1 185.0961 1.38
  187.1118 C13H15O+ 1 187.1117 0.1
  189.1276 C13H17O+ 1 189.1274 1.19
  193.1027 C15H13+ 1 193.1012 7.76
  197.0961 C14H13O+ 1 197.0961 0.16
  199.1119 C14H15O+ 1 199.1117 0.67
  201.0911 C13H13O2+ 1 201.091 0.45
  211.1117 C15H15O+ 1 211.1117 -0.07
  213.1275 C15H17O+ 1 213.1274 0.71
  217.1221 C14H17O2+ 1 217.1223 -0.98
  223.1115 C16H15O+ 1 223.1117 -0.9
  225.1274 C16H17O+ 1 225.1274 0.25
  227.1065 C15H15O2+ 1 227.1067 -0.66
  229.1224 C15H17O2+ 1 229.1223 0.53
  231.138 C15H19O2+ 1 231.138 0.06
  233.1338 C18H17+ 1 233.1325 5.59
  237.1276 C17H17O+ 1 237.1274 0.81
  239.1434 C17H19O+ 1 239.143 1.56
  249.1272 C18H17O+ 1 249.1274 -0.83
  251.1432 C18H19O+ 1 251.143 0.5
  253.1589 C18H21O+ 1 253.1587 0.9
  263.1433 C19H19O+ 1 263.143 0.91
  267.1382 C18H19O2+ 1 267.138 0.79
  269.1539 C18H21O2+ 1 269.1536 1.05
  277.1592 C20H21O+ 1 277.1587 1.71
  278.1669 C20H22O+ 1 278.1665 1.23
  279.1746 C20H23O+ 1 279.1743 0.75
  281.1536 C19H21O2+ 1 281.1536 -0.15
  293.1897 C21H25O+ 1 293.19 -0.98
  295.1693 C20H23O2+ 1 295.1693 0.24
  297.1476 C19H21O3+ 1 297.1485 -2.98
  297.1851 C20H25O2+ 1 297.1849 0.69
  303.1746 C22H23O+ 1 303.1743 0.86
  311.2012 C21H27O2+ 1 311.2006 2.01
  321.1853 C22H25O2+ 1 321.1849 1.18
  339.1959 C22H27O3+ 1 339.1955 1.37
PK$NUM_PEAK: 63
PK$PEAK: m/z int. rel.int.
  85.0649 12062.6 38
  95.0855 9899.5 31
  99.0805 4856.3 15
  101.0598 7385.8 23
  107.0857 2994.6 9
  109.0649 13002.3 41
  111.0804 2743.8 8
  119.0858 2472.2 7
  121.0649 5648.8 18
  123.0804 10358.2 33
  125.0599 11644.3 37
  135.0804 35106.3 112
  137.0965 5966.1 19
  139.0754 10036.8 32
  145.1012 9832 31
  147.0807 4015.1 12
  149.0961 10684.3 34
  151.0757 2712.2 8
  161.0962 35033.6 112
  163.0753 2385.2 7
  163.1117 2530.5 8
  165.0911 47348.7 152
  171.117 3477.1 11
  173.0961 10684.7 34
  175.1118 10570.8 34
  177.0912 10127.5 32
  179.0872 2631.9 8
  185.0963 17638.2 56
  187.1118 10656.7 34
  189.1276 5250.4 16
  193.1027 4157.5 13
  197.0961 2189.4 7
  199.1119 5611.3 18
  201.0911 6271 20
  211.1117 3705.1 11
  213.1275 7786.2 25
  217.1221 9626.5 30
  223.1115 3741.7 12
  225.1274 4188 13
  227.1065 2840.3 9
  229.1224 12840.1 41
  231.138 5608.1 18
  233.1338 6350.1 20
  237.1276 30036.3 96
  239.1434 7233.9 23
  249.1272 12062.2 38
  251.1432 70307.6 226
  253.1589 6929 22
  263.1433 4761.8 15
  267.1382 12673.6 40
  269.1539 16532.6 53
  277.1592 13752.1 44
  278.1669 5544 17
  279.1746 309228.2 995
  281.1536 4392.2 14
  293.1897 18805.7 60
  295.1693 17846.6 57
  297.1476 3122.6 10
  297.1851 54843.4 176
  303.1746 68631 220
  311.2012 22352.5 71
  321.1853 275318.7 885
  339.1959 310467.7 999
//
