ACCESSION: MSBNK-LCSB-LU073101
RECORD_TITLE: 3-Methyl-N-phenylaniline; LC-ESI-QFT; MS2; CE: 15; R=17500; [M+H]+
DATE: 2020.08.19
AUTHORS: Elapavalore, A.; Kondić, T.; Singh, R.; Schymanski, E.
LICENSE: CC BY
COPYRIGHT: Copyright © 2019 by Environmental Cheminformatics, LCSB, University of Luxembourg, Luxembourg
PUBLICATION: Elapavalore, A.; Kondić, T.; et al., Adding Open Spectral Data to MassBank and PubChem Using Open Source Tools to Support Non-Targeted Exposomics of Mixtures (submitted).
PROJECT: ENTACT U.S. Environmental Protection Agency’s Non-Targeted Analysis Collaborative Trial
COMMENT: CONFIDENCE standard compound
COMMENT: INTERNAL_ID 731
COMMENT: DATASET 20200303_ENTACT_RP_MIX506
COMMENT: DATA_PROCESSING MERGING RMBmix ver. 0.2.7
COMMENT: DATA_PROCESSING PRESCREENING Shinyscreen ver. 0.8.0
COMMENT: ORIGINAL_ACQUISITION_NO 9797
COMMENT: ORIGINAL_PRECURSOR_SCAN_NO 9795
COMMENT: RAW_DATA available as MSV000091754 at [DOI:10.25345/C5S46HG75]
CH$NAME: 3-Methyl-N-phenylaniline
CH$NAME: 3-Methyldiphenylamine
CH$COMPOUND_CLASS: N/A; Environmental Standard
CH$FORMULA: C13H13N
CH$EXACT_MASS: 183.1048
CH$SMILES: CC1=CC(NC2=CC=CC=C2)=CC=C1
CH$IUPAC: InChI=1S/C13H13N/c1-11-6-5-9-13(10-11)14-12-7-3-2-4-8-12/h2-10,14H,1H3
CH$LINK: CAS 1205-64-7
CH$LINK: PUBCHEM CID:14569
CH$LINK: INCHIKEY TWPMMLHBHPYSMT-UHFFFAOYSA-N
CH$LINK: CHEMSPIDER 13910
AC$INSTRUMENT: Q Exactive Orbitrap (Thermo Scientific)
AC$INSTRUMENT_TYPE: LC-ESI-QFT
AC$MASS_SPECTROMETRY: MS_TYPE MS2
AC$MASS_SPECTROMETRY: ION_MODE POSITIVE
AC$MASS_SPECTROMETRY: IONIZATION ESI
AC$MASS_SPECTROMETRY: FRAGMENTATION_MODE HCD
AC$MASS_SPECTROMETRY: COLLISION_ENERGY 15
AC$MASS_SPECTROMETRY: RESOLUTION 17500
AC$CHROMATOGRAPHY: COLUMN_NAME Acquity BEH C18 1.7um, 2.1x150mm (Waters)
AC$CHROMATOGRAPHY: FLOW_GRADIENT 90/10 at 0-2 min, 0/100 at 15-20 min, 90/10 at 20.1-30 min
AC$CHROMATOGRAPHY: FLOW_RATE 0.20 mL/min
AC$CHROMATOGRAPHY: RETENTION_TIME 18.660 min
AC$CHROMATOGRAPHY: SOLVENT A 0.1% formic acid
AC$CHROMATOGRAPHY: SOLVENT B methanol
MS$FOCUSED_ION: BASE_PEAK 79.0212
MS$FOCUSED_ION: PRECURSOR_M/Z 184.1121
MS$FOCUSED_ION: PRECURSOR_TYPE [M+H]+
MS$FOCUSED_ION: PRECURSOR_INTENSITY 7830253.625
MS$DATA_PROCESSING: RECALIBRATE loess on assigned fragments and MS1
MS$DATA_PROCESSING: REANALYZE Peaks with additional N2/O included
MS$DATA_PROCESSING: WHOLE RMassBank 2.99.2
PK$SPLASH: splash10-001i-0900000000-705a38203a0dfb46955d
PK$ANNOTATION: m/z tentative_formula formula_count mass error(ppm)
  92.0495 C6H6N+ 1 92.0495 0.07
  93.0569 C6H7N+ 1 93.0573 -4.18
  106.0651 C7H8N+ 1 106.0651 -0.23
  107.0728 C7H9N+ 1 107.073 -1.69
  169.0886 C12H11N+ 1 169.0886 -0.06
  184.1121 C13H14N+ 1 184.1121 0
PK$NUM_PEAK: 6
PK$PEAK: m/z int. rel.int.
  92.0495 119909.9 13
  93.0569 47373.3 5
  106.0651 92324.3 10
  107.0728 74901.4 8
  169.0886 87785.7 10
  184.1121 8727707 999
//
