ACCESSION: MSBNK-LCSB-LU112104
RECORD_TITLE: Famotidine; LC-ESI-QFT; MS2; CE: 60; R=17500; [M+H]+
DATE: 2020.08.19
AUTHORS: Elapavalore, A.; Kondić, T.; Singh, R.; Schymanski, E.
LICENSE: CC BY
COPYRIGHT: Copyright © 2019 by Environmental Cheminformatics, LCSB, University of Luxembourg, Luxembourg
PUBLICATION: Elapavalore, A.; Kondić, T.; et al., Adding Open Spectral Data to MassBank and PubChem Using Open Source Tools to Support Non-Targeted Exposomics of Mixtures (submitted).
PROJECT: ENTACT U.S. Environmental Protection Agency’s Non-Targeted Analysis Collaborative Trial
COMMENT: CONFIDENCE standard compound
COMMENT: INTERNAL_ID 1121
COMMENT: DATASET 20200303_ENTACT_RP_MIX505
COMMENT: DATA_PROCESSING MERGING RMBmix ver. 0.2.7
COMMENT: DATA_PROCESSING PRESCREENING Shinyscreen ver. 0.8.0
COMMENT: ORIGINAL_ACQUISITION_NO 4236
COMMENT: ORIGINAL_PRECURSOR_SCAN_NO 4235
COMMENT: RAW_DATA available as MSV000091754 at [DOI:10.25345/C5S46HG75]
CH$NAME: Famotidine
CH$NAME: 3-[[2-(diaminomethylideneamino)-1,3-thiazol-4-yl]methylsulfanyl]-N'-sulfamoylpropanimidamide
CH$COMPOUND_CLASS: N/A; Environmental Standard
CH$FORMULA: C8H15N7O2S3
CH$EXACT_MASS: 337.0449
CH$SMILES: NC(N)=NC1=NC(CSCCC(N)=NS(N)(=O)=O)=CS1
CH$IUPAC: InChI=1S/C8H15N7O2S3/c9-6(15-20(12,16)17)1-2-18-3-5-4-19-8(13-5)14-7(10)11/h4H,1-3H2,(H2,9,15)(H2,12,16,17)(H4,10,11,13,14)
CH$LINK: CAS 76824-35-6
CH$LINK: CHEBI CHEBI:4975
CH$LINK: KEGG D00318
CH$LINK: PUBCHEM CID:3325
CH$LINK: INCHIKEY XUFQPHANEAPEMJ-UHFFFAOYSA-N
CH$LINK: CHEMSPIDER 3208
AC$INSTRUMENT: Q Exactive Orbitrap (Thermo Scientific)
AC$INSTRUMENT_TYPE: LC-ESI-QFT
AC$MASS_SPECTROMETRY: MS_TYPE MS2
AC$MASS_SPECTROMETRY: ION_MODE POSITIVE
AC$MASS_SPECTROMETRY: IONIZATION ESI
AC$MASS_SPECTROMETRY: FRAGMENTATION_MODE HCD
AC$MASS_SPECTROMETRY: COLLISION_ENERGY 60
AC$MASS_SPECTROMETRY: RESOLUTION 17500
AC$CHROMATOGRAPHY: COLUMN_NAME Acquity BEH C18 1.7um, 2.1x150mm (Waters)
AC$CHROMATOGRAPHY: FLOW_GRADIENT 90/10 at 0-2 min, 0/100 at 15-20 min, 90/10 at 20.1-30 min
AC$CHROMATOGRAPHY: FLOW_RATE 0.20 mL/min
AC$CHROMATOGRAPHY: RETENTION_TIME 8.048 min
AC$CHROMATOGRAPHY: SOLVENT A 0.1% formic acid
AC$CHROMATOGRAPHY: SOLVENT B methanol
MS$FOCUSED_ION: BASE_PEAK 79.0211
MS$FOCUSED_ION: PRECURSOR_M/Z 338.0522
MS$FOCUSED_ION: PRECURSOR_TYPE [M+H]+
MS$FOCUSED_ION: PRECURSOR_INTENSITY 7890304
MS$DATA_PROCESSING: RECALIBRATE loess on assigned fragments and MS1
MS$DATA_PROCESSING: REANALYZE Peaks with additional N2/O included
MS$DATA_PROCESSING: WHOLE RMassBank 2.99.2
PK$SPLASH: splash10-0a4i-1900000000-ea77cd3106d5ba744260
PK$ANNOTATION: m/z tentative_formula formula_count mass error(ppm)
  54.0338 C3H4N+ 1 54.0338 0.16
  61.0106 C2H5S+ 1 61.0106 -0.48
  69.0447 C3H5N2+ 1 69.0447 -0.32
  71.0603 C3H7N2+ 1 71.0604 -0.69
  84.9855 C2HN2S+ 1 84.9855 0.19
  85.0508 C2H5N4+ 1 85.0509 -0.71
  86.0059 C3H4NS+ 1 86.0059 -0.25
  88.0216 C3H6NS+ 1 88.0215 0.06
  102.012 C2H4N3S+ 2 102.012 -0.36
  103.0323 C3H7N2S+ 1 103.0324 -1.16
  113.0168 C4H5N2S+ 1 113.0168 -0.31
  114.0247 C4H6N2S+ 1 114.0246 0.6
  115.0324 C4H7N2S+ 1 115.0324 -0.04
  131.0272 C4H7N2OS+ 2 131.0274 -1.04
  133.0065 C3H5N2O2S+ 3 133.0066 -0.8
  134.0597 C8H8NO+ 2 134.06 -2.57
  138.012 C5H4N3S+ 2 138.012 -0.12
  147.0045 C4H7N2S2+ 2 147.0045 -0.29
  155.0385 C5H7N4S+ 2 155.0386 -0.4
  156.0224 C5H6N3OS+ 4 156.0226 -1.02
  156.0463 C5H8N4S+ 2 156.0464 -0.76
  157.0544 C5H9N4S+ 2 157.0542 1.3
  170.0383 C6H8N3OS+ 4 170.0383 0.37
  171.9997 C5H6N3S2+ 3 171.9998 -0.27
  189.0263 C5H9N4S2+ 3 189.0263 -0.1
PK$NUM_PEAK: 25
PK$PEAK: m/z int. rel.int.
  54.0338 89179.2 41
  61.0106 2992.2 1
  69.0447 6990 3
  71.0603 688910.7 323
  84.9855 2501.8 1
  85.0508 8432.8 3
  86.0059 14890 6
  88.0216 4421.8 2
  102.012 49457.6 23
  103.0323 3817.3 1
  113.0168 623791.7 292
  114.0247 5911.6 2
  115.0324 5711.4 2
  131.0272 3044.8 1
  133.0065 4303.9 2
  134.0597 2680.4 1
  138.012 425479.6 199
  147.0045 149053.8 69
  155.0385 2128917.5 999
  156.0224 4531.8 2
  156.0463 30505 14
  157.0544 5496.8 2
  170.0383 6051.9 2
  171.9997 92327.1 43
  189.0263 527944.9 247
//
