ACCESSION: MSBNK-LCSB-LU030256
RECORD_TITLE: Tribromsalan; LC-ESI-QFT; MS2; CE: 90; R=17500; [M-H]-
DATE: 2020.08.19
AUTHORS: Elapavalore, A.; Kondić, T.; Singh, R.; Schymanski, E.
LICENSE: CC BY
COPYRIGHT: Copyright © 2019 by Environmental Cheminformatics, LCSB, University of Luxembourg, Luxembourg
PUBLICATION: Elapavalore, A.; Kondić, T.; et al., Adding Open Spectral Data to MassBank and PubChem Using Open Source Tools to Support Non-Targeted Exposomics of Mixtures (submitted).
PROJECT: ENTACT U.S. Environmental Protection Agency’s Non-Targeted Analysis Collaborative Trial
COMMENT: CONFIDENCE standard compound
COMMENT: INTERNAL_ID 302
COMMENT: DATASET 20200303_ENTACT_RP_MIX505
COMMENT: DATA_PROCESSING MERGING RMBmix ver. 0.2.7
COMMENT: DATA_PROCESSING PRESCREENING Shinyscreen ver. 0.8.0
COMMENT: ORIGINAL_ACQUISITION_NO 6012
COMMENT: ORIGINAL_PRECURSOR_SCAN_NO 6011
COMMENT: RAW_DATA available as MSV000091754 at [DOI:10.25345/C5S46HG75]
CH$NAME: Tribromsalan
CH$NAME: 3,5-dibromo-N-(4-bromophenyl)-2-hydroxybenzamide
CH$COMPOUND_CLASS: N/A; Environmental Standard
CH$FORMULA: C13H8Br3NO2
CH$EXACT_MASS: 446.8105
CH$SMILES: OC1=C(Br)C=C(Br)C=C1C(=O)NC1=CC=C(Br)C=C1
CH$IUPAC: InChI=1S/C13H8Br3NO2/c14-7-1-3-9(4-2-7)17-13(19)10-5-8(15)6-11(16)12(10)18/h1-6,18H,(H,17,19)
CH$LINK: CAS 87-10-5
CH$LINK: CHEBI CHEBI:127105
CH$LINK: KEGG D06218
CH$LINK: PUBCHEM CID:14868
CH$LINK: INCHIKEY KVSKGMLNBAPGKH-UHFFFAOYSA-N
CH$LINK: CHEMSPIDER 14178
AC$INSTRUMENT: Q Exactive Orbitrap (Thermo Scientific)
AC$INSTRUMENT_TYPE: LC-ESI-QFT
AC$MASS_SPECTROMETRY: MS_TYPE MS2
AC$MASS_SPECTROMETRY: ION_MODE NEGATIVE
AC$MASS_SPECTROMETRY: IONIZATION ESI
AC$MASS_SPECTROMETRY: FRAGMENTATION_MODE HCD
AC$MASS_SPECTROMETRY: COLLISION_ENERGY 90
AC$MASS_SPECTROMETRY: RESOLUTION 17500
AC$CHROMATOGRAPHY: COLUMN_NAME Acquity BEH C18 1.7um, 2.1x150mm (Waters)
AC$CHROMATOGRAPHY: FLOW_GRADIENT 90/10 at 0-2 min, 0/100 at 15-20 min, 90/10 at 20.1-30 min
AC$CHROMATOGRAPHY: FLOW_RATE 0.20 mL/min
AC$CHROMATOGRAPHY: RETENTION_TIME 20.992 min
AC$CHROMATOGRAPHY: SOLVENT A 0.1% formic acid
AC$CHROMATOGRAPHY: SOLVENT B methanol
MS$FOCUSED_ION: BASE_PEAK 112.9857
MS$FOCUSED_ION: PRECURSOR_M/Z 445.8032
MS$FOCUSED_ION: PRECURSOR_TYPE [M-H]-
MS$FOCUSED_ION: PRECURSOR_INTENSITY 3083665.90625
MS$DATA_PROCESSING: RECALIBRATE loess on assigned fragments and MS1
MS$DATA_PROCESSING: REANALYZE Peaks with additional N2/O included
MS$DATA_PROCESSING: WHOLE RMassBank 2.99.2
PK$SPLASH: splash10-004i-9000000000-679724b672a2c1d30106
PK$ANNOTATION: m/z tentative_formula formula_count mass error(ppm)
  78.9189 Br- 1 78.9189 0.18
  89.0033 C6HO- 1 89.0033 -0.05
  168.9294 C6H2BrO- 1 168.9295 -0.49
PK$NUM_PEAK: 3
PK$PEAK: m/z int. rel.int.
  78.9189 1629141.1 999
  89.0033 23907.3 14
  168.9294 29699.9 18
//
