ACCESSION: MSBNK-LCSB-LU035806
RECORD_TITLE: Atorvastatin; LC-ESI-QFT; MS2; CE: 90; R=17500; [M+H]+
DATE: 2020.08.19
AUTHORS: Elapavalore, A.; Kondić, T.; Singh, R.; Schymanski, E.
LICENSE: CC BY
COPYRIGHT: Copyright © 2019 by Environmental Cheminformatics, LCSB, University of Luxembourg, Luxembourg
PUBLICATION: Elapavalore, A.; Kondić, T.; et al., Adding Open Spectral Data to MassBank and PubChem Using Open Source Tools to Support Non-Targeted Exposomics of Mixtures (submitted).
PROJECT: ENTACT U.S. Environmental Protection Agency’s Non-Targeted Analysis Collaborative Trial
COMMENT: CONFIDENCE standard compound
COMMENT: INTERNAL_ID 358
COMMENT: DATASET 20200303_ENTACT_RP_MIX499
COMMENT: DATA_PROCESSING MERGING RMBmix ver. 0.2.7
COMMENT: DATA_PROCESSING PRESCREENING Shinyscreen ver. 0.8.0
COMMENT: ORIGINAL_ACQUISITION_NO 9233
COMMENT: ORIGINAL_PRECURSOR_SCAN_NO 9231
COMMENT: RAW_DATA available as MSV000091754 at [DOI:10.25345/C5S46HG75]
CH$NAME: Atorvastatin
CH$NAME: (3R,5R)-7-[2-(4-fluorophenyl)-3-phenyl-4-(phenylcarbamoyl)-5-propan-2-ylpyrrol-1-yl]-3,5-dihydroxyheptanoic acid
CH$COMPOUND_CLASS: N/A; Environmental Standard
CH$FORMULA: C33H35FN2O5
CH$EXACT_MASS: 558.2530
CH$SMILES: CC(C)c1c(C(=O)Nc2ccccc2)c(-c2ccccc2)c(-c2ccc(F)cc2)n1CC[C@@H](O)C[C@@H](O)CC(O)=O
CH$IUPAC: InChI=1S/C33H35FN2O5/c1-21(2)31-30(33(41)35-25-11-7-4-8-12-25)29(22-9-5-3-6-10-22)32(23-13-15-24(34)16-14-23)36(31)18-17-26(37)19-27(38)20-28(39)40/h3-16,21,26-27,37-38H,17-20H2,1-2H3,(H,35,41)(H,39,40)/t26-,27-/m1/s1
CH$LINK: CAS 134523-00-5
CH$LINK: CHEBI 39548
CH$LINK: KEGG C06834
CH$LINK: PUBCHEM CID:60823
CH$LINK: INCHIKEY XUKUURHRXDUEBC-KAYWLYCHSA-N
CH$LINK: CHEMSPIDER 54810
AC$INSTRUMENT: Q Exactive Orbitrap (Thermo Scientific)
AC$INSTRUMENT_TYPE: LC-ESI-QFT
AC$MASS_SPECTROMETRY: MS_TYPE MS2
AC$MASS_SPECTROMETRY: ION_MODE POSITIVE
AC$MASS_SPECTROMETRY: IONIZATION ESI
AC$MASS_SPECTROMETRY: FRAGMENTATION_MODE HCD
AC$MASS_SPECTROMETRY: COLLISION_ENERGY 90
AC$MASS_SPECTROMETRY: RESOLUTION 17500
AC$CHROMATOGRAPHY: COLUMN_NAME Acquity BEH C18 1.7um, 2.1x150mm (Waters)
AC$CHROMATOGRAPHY: FLOW_GRADIENT 90/10 at 0-2 min, 0/100 at 15-20 min, 90/10 at 20.1-30 min
AC$CHROMATOGRAPHY: FLOW_RATE 0.20 mL/min
AC$CHROMATOGRAPHY: RETENTION_TIME 17.824 min
AC$CHROMATOGRAPHY: SOLVENT A 0.1% formic acid
AC$CHROMATOGRAPHY: SOLVENT B methanol
MS$FOCUSED_ION: BASE_PEAK 79.0211
MS$FOCUSED_ION: PRECURSOR_M/Z 559.2603
MS$FOCUSED_ION: PRECURSOR_TYPE [M+H]+
MS$FOCUSED_ION: PRECURSOR_INTENSITY 8714304.25
MS$DATA_PROCESSING: RECALIBRATE loess on assigned fragments and MS1
MS$DATA_PROCESSING: REANALYZE Peaks with additional N2/O included
MS$DATA_PROCESSING: WHOLE RMassBank 2.99.2
PK$SPLASH: splash10-0f7t-2690000000-20cbaa90ef0b743fa4b1
PK$ANNOTATION: m/z tentative_formula formula_count mass error(ppm)
  51.023 C4H3+ 1 51.0229 1.6
  53.0022 C3HO+ 1 53.0022 0.77
  53.0386 C4H5+ 1 53.0386 0.4
  54.0338 C3H4N+ 1 54.0338 -0.53
  55.0179 C3H3O+ 1 55.0178 0.29
  55.0542 C4H7+ 1 55.0542 0.14
  57.0335 C3H5O+ 1 57.0335 -0.2
  59.0491 C3H7O+ 1 59.0491 -0.46
  61.0282 C2H5O2+ 1 61.0284 -3.1
  65.0385 C5H5+ 1 65.0386 -0.5
  67.0542 C5H7+ 1 67.0542 0.09
  68.997 C3HO2+ 1 68.9971 -0.98
  69.0334 C4H5O+ 1 69.0335 -0.88
  69.0698 C5H9+ 1 69.0699 -1.1
  71.0128 C3H3O2+ 1 71.0128 -0.04
  71.0491 C4H7O+ 1 71.0491 -0.47
  73.0284 C3H5O2+ 1 73.0284 -0.03
  77.0385 C6H5+ 1 77.0386 -0.45
  79.0542 C6H7+ 2 79.0542 -0.5
  80.0495 C5H6N+ 2 80.0495 -0.27
  81.0335 C5H5O+ 2 81.0335 0.64
  81.0699 C6H9+ 2 81.0699 0.25
  83.0491 C5H7O+ 2 83.0491 0.05
  89.0235 C3H5O3+ 2 89.0233 2
  91.0542 C7H7+ 2 91.0542 -0.24
  92.0495 C6H6N+ 2 92.0495 -0.28
  94.0415 C6H6O+ 2 94.0413 1.45
  94.0653 C6H8N+ 2 94.0651 1.88
  95.0491 C6H7O+ 2 95.0491 -0.14
  97.0284 C5H5O2+ 2 97.0284 0.33
  97.0646 C6H9O+ 2 97.0648 -1.95
  101.0597 C5H9O2+ 2 101.0597 -0.14
  103.0542 C8H7+ 2 103.0542 -0.32
  104.0494 C7H6N+ 3 104.0495 -0.32
  105.0447 C6H5N2+ 3 105.0447 0.11
  106.0653 C7H8N+ 2 106.0651 1.2
  107.049 C7H7O+ 2 107.0491 -1.57
  109.0448 C7H6F+ 1 109.0448 0.06
  115.0542 C9H7+ 2 115.0542 -0.1
  116.0494 C8H6N+ 3 116.0495 -0.29
  116.0622 C9H8+ 2 116.0621 0.93
  117.0573 C8H7N+ 3 117.0573 -0.18
  117.0698 C9H9+ 2 117.0699 -0.66
  118.065 C8H8N+ 3 118.0651 -0.92
  120.0444 C7H6NO+ 3 120.0444 -0.31
  121.0448 C8H6F+ 1 121.0448 0
  122.04 C7H5FN+ 1 122.0401 -0.32
  123.0353 C6H4FN2+ 1 123.0353 0.11
  124.0758 C7H10NO+ 3 124.0757 0.57
  127.0541 C10H7+ 2 127.0542 -0.97
  128.0497 C9H6N+ 3 128.0495 1.94
  128.062 C10H8+ 2 128.0621 -0.34
  129.0448 C8H5N2+ 3 129.0447 0.56
  129.0698 C10H9+ 2 129.0699 -0.55
  130.0651 C9H8N+ 3 130.0651 -0.26
  132.0444 C8H6NO+ 3 132.0444 0.2
  133.0448 C9H6F+ 1 133.0448 -0.27
  134.0399 C8H5FN+ 1 134.0401 -0.91
  134.0526 C9H7F+ 1 134.0526 -0.47
  134.0601 C8H8NO+ 3 134.06 0.59
  135.0478 C8H6FN+ 1 135.0479 -0.31
  135.0607 C9H8F+ 1 135.0605 1.48
  140.0497 C10H6N+ 3 140.0495 1.72
  141.0699 C11H9+ 2 141.0699 0.31
  142.0652 C10H8N+ 3 142.0651 0.56
  142.0775 C11H10+ 2 142.0777 -1.39
  143.0491 C10H7O+ 2 143.0491 -0.34
  143.073 C10H9N+ 3 143.073 0.05
  145.0449 C10H6F+ 1 145.0448 0.74
  145.0648 C10H9O+ 2 145.0648 0.02
  146.0399 C9H5FN+ 1 146.0401 -0.89
  146.0526 C10H7F+ 1 146.0526 -0.08
  146.06 C9H8NO+ 3 146.06 -0.14
  147.0603 C10H8F+ 1 147.0605 -0.99
  148.0557 C9H7FN+ 1 148.0557 0.2
  152.062 C12H8+ 2 152.0621 -0.59
  153.0575 C11H7N+ 3 153.0573 1.15
  153.0697 C12H9+ 2 153.0699 -0.97
  154.0651 C11H8N+ 3 154.0651 -0.22
  155.0603 C10H7N2+ 3 155.0604 -0.47
  155.0728 C11H9N+ 3 155.073 -1.08
  156.0809 C11H10N+ 3 156.0808 0.81
  159.0603 C11H8F+ 1 159.0605 -0.85
  160.0559 C10H7FN+ 1 160.0557 1.1
  160.0755 C10H10NO+ 3 160.0757 -0.98
  161.0634 C10H8FN+ 1 161.0635 -0.49
  163.0553 C10H8FO+ 2 163.0554 -0.13
  164.0506 C9H7FNO+ 2 164.0506 -0.37
  165.0699 C13H9+ 2 165.0699 0.27
  166.0651 C12H8N+ 3 166.0651 -0.16
  167.073 C12H9N+ 3 167.073 0.23
  167.0853 C13H11+ 2 167.0855 -1.34
  168.0809 C12H10N+ 3 168.0808 0.52
  169.0649 C12H9O+ 2 169.0648 0.65
  170.0524 C12H7F+ 1 170.0526 -1.32
  170.0601 C11H8NO+ 3 170.06 0.42
  171.0479 C11H6FN+ 1 171.0479 0.06
  171.0602 C12H8F+ 1 171.0605 -1.56
  172.0556 C11H7FN+ 1 172.0557 -0.45
  172.075 C11H10NO+ 4 172.0757 -4.25
  173.051 C10H6FN2+ 1 173.051 0.2
  173.064 C11H8FN+ 1 173.0635 2.74
  174.0712 C11H9FN+ 2 174.0714 -0.67
  177.0701 C14H9+ 2 177.0699 1.48
  178.0777 C14H10+ 2 178.0777 -0.13
  179.0854 C14H11+ 2 179.0855 -0.71
  180.0556 C13H8O+ 4 180.057 -7.84
  180.0807 C13H10N+ 4 180.0808 -0.25
  181.088 C13H11N+ 4 181.0886 -3.26
  182.0965 C13H12N+ 4 182.0964 0.21
  183.0604 C13H8F+ 1 183.0605 -0.33
  184.0554 C12H7FN+ 2 184.0557 -1.62
  185.0637 C12H8FN+ 1 185.0635 0.96
  186.0715 C12H9FN+ 1 186.0714 0.97
  189.0698 C15H9+ 3 189.0699 -0.33
  190.0659 C11H9FNO+ 3 190.0663 -1.88
  191.0859 C15H11+ 2 191.0855 1.72
  192.0808 C14H10N+ 4 192.0808 0.08
  193.0888 C14H11N+ 4 193.0886 0.97
  194.0963 C14H12N+ 4 194.0964 -0.58
  196.0679 C14H9F+ 1 196.0683 -1.76
  197.0768 C14H10F+ 1 197.0761 3.31
  198.055 C12H8NO2+ 3 198.055 -0.01
  198.0713 C13H9FN+ 2 198.0714 -0.29
  199.0795 C13H10FN+ 2 199.0792 1.5
  200.0875 C13H11FN+ 1 200.087 2.35
  202.0776 C16H10+ 3 202.0777 -0.32
  203.0854 C16H11+ 3 203.0855 -0.59
  204.0805 C15H10N+ 4 204.0808 -1.3
  206.0963 C15H12N+ 4 206.0964 -0.56
  207.0602 C15H8F+ 1 207.0605 -1.18
  208.068 C15H9F+ 1 208.0683 -1.15
  209.0761 C15H10F+ 1 209.0761 -0.1
  210.0715 C14H9FN+ 2 210.0714 0.74
  210.0832 C15H11F+ 1 210.0839 -3.27
  211.0792 C14H10FN+ 2 211.0792 -0.04
  212.0872 C14H11FN+ 2 212.087 0.85
  215.074 C13H10FNO+ 3 215.0741 -0.32
  215.0856 C17H11+ 3 215.0855 0.15
  216.0811 C16H10N+ 4 216.0808 1.67
  217.0886 C16H11N+ 4 217.0886 0
  218.0963 C16H12N+ 4 218.0964 -0.53
  219.0803 C16H11O+ 3 219.0804 -0.48
  220.0681 C16H9F+ 1 220.0683 -0.88
  221.076 C16H10F+ 1 221.0761 -0.43
  222.0713 C15H9FN+ 2 222.0714 -0.12
  222.0839 C16H11F+ 1 222.0839 0.07
  223.079 C15H10FN+ 2 223.0792 -0.64
  223.0919 C16H12F+ 1 223.0918 0.44
  224.0873 C15H11FN+ 2 224.087 1.3
  226.0776 C18H10+ 3 226.0777 -0.33
  227.0731 C17H9N+ 4 227.073 0.78
  227.0854 C18H11+ 3 227.0855 -0.64
  228.0808 C17H10N+ 4 228.0808 -0.07
  229.0886 C17H11N+ 4 229.0886 -0.17
  229.1003 C18H13+ 4 229.1012 -3.98
  230.0963 C17H12N+ 4 230.0964 -0.35
  233.0761 C17H10F+ 1 233.0761 -0.06
  234.0713 C16H9FN+ 2 234.0714 -0.08
  234.0839 C17H11F+ 1 234.0839 -0.23
  235.0792 C16H10FN+ 2 235.0792 -0.06
  236.0871 C16H11FN+ 2 236.087 0.55
  237.071 C16H10FO+ 2 237.071 -0.17
  237.0948 C16H12FN+ 2 237.0948 -0.33
  238.103 C16H13FN+ 2 238.1027 1.37
  239.0853 C19H11+ 3 239.0855 -1.15
  241.0885 C18H11N+ 4 241.0886 -0.51
  242.0966 C18H12N+ 4 242.0964 0.65
  243.1045 C18H13N+ 4 243.1043 0.93
  245.0759 C18H10F+ 1 245.0761 -0.7
  246.0712 C17H9FN+ 2 246.0714 -0.48
  246.0839 C18H11F+ 1 246.0839 -0.05
  247.079 C17H10FN+ 3 247.0792 -0.64
  247.092 C18H12F+ 1 247.0918 0.9
  248.087 C17H11FN+ 2 248.087 -0.18
  249.0947 C17H12FN+ 2 249.0948 -0.34
  250.1026 C17H13FN+ 3 250.1027 -0.37
  254.0962 C19H12N+ 4 254.0964 -0.97
  255.1047 C19H13N+ 4 255.1043 1.81
  256.1123 C19H14N+ 4 256.1121 0.69
  257.0759 C19H10F+ 2 257.0761 -0.76
  258.0843 C19H11F+ 1 258.0839 1.45
  259.079 C18H10FN+ 3 259.0792 -0.58
  259.0923 C19H12F+ 1 259.0918 2.24
  260.0869 C18H11FN+ 3 260.087 -0.26
  260.1018 C19H13F+ 3 260.0996 8.53
  261.0947 C18H12FN+ 3 261.0948 -0.41
  262.1026 C18H13FN+ 3 262.1027 -0.21
  263.074 C17H10FNO+ 4 263.0741 -0.33
  263.1101 C18H14FN+ 3 263.1105 -1.52
  264.082 C17H11FNO+ 4 264.0819 0.33
  264.1181 C18H15FN+ 3 264.1183 -0.86
  267.1045 C20H13N+ 4 267.1043 0.84
  270.0839 C20H11F+ 2 270.0839 -0.17
  272.0866 C19H11FN+ 3 272.087 -1.35
  273.0949 C19H12FN+ 3 273.0948 0.3
  274.1025 C19H13FN+ 3 274.1027 -0.52
  275.0738 C18H10FNO+ 4 275.0741 -1.08
  275.1102 C19H14FN+ 3 275.1105 -0.88
  276.0825 C18H11FNO+ 3 276.0819 1.99
  276.1182 C19H15FN+ 3 276.1183 -0.36
  283.0927 C21H12F+ 2 283.0918 3.48
  285.0949 C20H12FN+ 3 285.0948 0.3
  286.1031 C20H13FN+ 3 286.1027 1.65
  287.1102 C20H14FN+ 3 287.1105 -0.94
  288.0822 C19H11FNO+ 4 288.0819 0.96
  288.1185 C20H15FN+ 3 288.1183 0.61
  289.1269 C20H16FN+ 3 289.1261 2.58
  290.0974 C19H13FNO+ 4 290.0976 -0.69
  290.134 C20H17FN+ 3 290.134 0.12
  298.1032 C21H13FN+ 4 298.1027 1.68
  300.1184 C21H15FN+ 3 300.1183 0.38
  301.1261 C21H16FN+ 3 301.1261 0.04
  302.1338 C21H17FN+ 3 302.134 -0.49
  304.1131 C20H15FNO+ 4 304.1132 -0.43
  314.1341 C22H17FN+ 4 314.134 0.38
  318.1295 C21H17FNO+ 5 318.1289 1.9
PK$NUM_PEAK: 217
PK$PEAK: m/z int. rel.int.
  51.023 5855.2 8
  53.0022 12211.5 16
  53.0386 74577.9 102
  54.0338 3921.5 5
  55.0179 13827.6 19
  55.0542 69716.2 96
  57.0335 32545.2 44
  59.0491 9645.5 13
  61.0282 3431.3 4
  65.0385 73453.1 101
  67.0542 20976.8 28
  68.997 8030 11
  69.0334 50348.3 69
  69.0698 6823.1 9
  71.0128 31304.3 43
  71.0491 28391.7 39
  73.0284 8488.1 11
  77.0385 37272.9 51
  79.0542 80983.6 111
  80.0495 9857.9 13
  81.0335 7904.1 10
  81.0699 6788.8 9
  83.0491 74908.8 103
  89.0235 3230 4
  91.0542 86011.2 118
  92.0495 181180.7 249
  94.0415 5853.8 8
  94.0653 3680.3 5
  95.0491 275691.2 380
  97.0284 8115.2 11
  97.0646 4077.2 5
  101.0597 9363.1 12
  103.0542 83442.2 115
  104.0494 121853.2 168
  105.0447 98380.6 135
  106.0653 4595.9 6
  107.049 2647.7 3
  109.0448 103926.8 143
  115.0542 258347.8 356
  116.0494 21894.1 30
  116.0622 18023 24
  117.0573 85721.7 118
  117.0698 17930.9 24
  118.065 5427.8 7
  120.0444 13085.5 18
  121.0448 46189.2 63
  122.04 145810 201
  123.0353 14505.8 20
  124.0758 6890.2 9
  127.0541 72298.3 99
  128.0497 39684.9 54
  128.062 159738.7 220
  129.0448 22001.6 30
  129.0698 52825.5 72
  130.0651 37126.3 51
  132.0444 6076.3 8
  133.0448 196437.3 270
  134.0399 14815.5 20
  134.0526 8066.8 11
  134.0601 7634.5 10
  135.0478 50748.3 70
  135.0607 6439.7 8
  140.0497 9986.6 13
  141.0699 29484.7 40
  142.0652 11559.3 15
  142.0775 5970 8
  143.0491 8403.5 11
  143.073 23229.6 32
  145.0449 25007.7 34
  145.0648 141774.6 195
  146.0399 12388.8 17
  146.0526 83945.8 115
  146.06 46675 64
  147.0603 21272.9 29
  148.0557 22894.8 31
  152.062 49872.3 68
  153.0575 25991.7 35
  153.0697 65776.2 90
  154.0651 187312 258
  155.0603 174324.7 240
  155.0728 14335.5 19
  156.0809 12549.9 17
  159.0603 14716 20
  160.0559 13841.2 19
  160.0755 5128.3 7
  161.0634 14097.2 19
  163.0553 43097.5 59
  164.0506 28990.9 39
  165.0699 40632.7 56
  166.0651 22762.9 31
  167.073 42092.1 58
  167.0853 5249.5 7
  168.0809 10213.7 14
  169.0649 14341 19
  170.0524 14334.5 19
  170.0601 34428.8 47
  171.0479 19574.7 27
  171.0602 24588.2 33
  172.0556 136608.4 188
  172.075 20561.4 28
  173.051 92548.3 127
  173.064 8881.8 12
  174.0712 11086.8 15
  177.0701 10127.9 13
  178.0777 9530.6 13
  179.0854 3868 5
  180.0556 13065.7 18
  180.0807 45042.2 62
  181.088 9168.4 12
  182.0965 10079.8 13
  183.0604 66170 91
  184.0554 7780.8 10
  185.0637 28324.6 39
  186.0715 4578.6 6
  189.0698 39626.6 54
  190.0659 18890.8 26
  191.0859 7131.7 9
  192.0808 8295.9 11
  193.0888 8394.4 11
  194.0963 4972.3 6
  196.0679 45894.4 63
  197.0768 6030.2 8
  198.055 3933.3 5
  198.0713 30965.2 42
  199.0795 3980.9 5
  200.0875 11504.3 15
  202.0776 256407.3 353
  203.0854 89628.3 123
  204.0805 15936.3 21
  206.0963 4821.2 6
  207.0602 51920.9 71
  208.068 33588.2 46
  209.0761 164825.1 227
  210.0715 7386.9 10
  210.0832 4834.5 6
  211.0792 24012.8 33
  212.0872 4245.6 5
  215.074 5125.3 7
  215.0856 18165.8 25
  216.0811 24845.6 34
  217.0886 48414 66
  218.0963 14184.1 19
  219.0803 13566.1 18
  220.0681 153314.5 211
  221.076 107326.4 148
  222.0713 83288.4 114
  222.0839 62990.2 86
  223.079 11123 15
  223.0919 14000.1 19
  224.0873 9597 13
  226.0776 11883.9 16
  227.0731 18824.3 25
  227.0854 6601.6 9
  228.0808 53624.6 73
  229.0886 17029 23
  229.1003 5260.8 7
  230.0963 91238.3 125
  233.0761 377096.9 520
  234.0713 66344.8 91
  234.0839 19926.3 27
  235.0792 520698.4 718
  236.0871 66799.5 92
  237.071 10015.8 13
  237.0948 49057.8 67
  238.103 14808.8 20
  239.0853 16847.1 23
  241.0885 27021.7 37
  242.0966 16310 22
  243.1045 5195.3 7
  245.0759 6575.2 9
  246.0712 23643.3 32
  246.0839 36734.8 50
  247.079 28059.8 38
  247.092 16439.7 22
  248.087 724155.6 999
  249.0947 140064.4 193
  250.1026 286288.8 394
  254.0962 17773.7 24
  255.1047 3960.6 5
  256.1123 6349.9 8
  257.0759 20221.4 27
  258.0843 7260.8 10
  259.079 34113.7 47
  259.0923 20737.8 28
  260.0869 90601 124
  260.1018 5650.5 7
  261.0947 188970.2 260
  262.1026 131907.4 181
  263.074 9973.8 13
  263.1101 17609.9 24
  264.082 13742.8 18
  264.1181 26112.1 36
  267.1045 5578.1 7
  270.0839 9733.1 13
  272.0866 47468.8 65
  273.0949 20652.9 28
  274.1025 126931 175
  275.0738 3901.8 5
  275.1102 26370.8 36
  276.0825 34339.7 47
  276.1182 184681.1 254
  283.0927 4106.9 5
  285.0949 16273.9 22
  286.1031 32358.7 44
  287.1102 24298.7 33
  288.0822 3279.8 4
  288.1185 35414.8 48
  289.1269 3960.5 5
  290.0974 8355.9 11
  290.134 11071 15
  298.1032 7140.9 9
  300.1184 19237.4 26
  301.1261 3662.9 5
  302.1338 18715.9 25
  304.1131 4400.5 6
  314.1341 3242.5 4
  318.1295 3396 4
//
