ACCESSION: MSBNK-LCSB-LU060101
RECORD_TITLE: AVE3247; LC-ESI-QFT; MS2; CE: 15; R=17500; [M+H]+
DATE: 2020.08.19
AUTHORS: Elapavalore, A.; Kondić, T.; Singh, R.; Schymanski, E.
LICENSE: CC BY
COPYRIGHT: Copyright © 2019 by Environmental Cheminformatics, LCSB, University of Luxembourg, Luxembourg
PUBLICATION: Elapavalore, A.; Kondić, T.; et al., Adding Open Spectral Data to MassBank and PubChem Using Open Source Tools to Support Non-Targeted Exposomics of Mixtures (submitted).
PROJECT: ENTACT U.S. Environmental Protection Agency’s Non-Targeted Analysis Collaborative Trial
COMMENT: CONFIDENCE standard compound
COMMENT: INTERNAL_ID 601
COMMENT: DATASET 20200303_ENTACT_RP_MIX506
COMMENT: DATA_PROCESSING MERGING RMBmix ver. 0.2.7
COMMENT: DATA_PROCESSING PRESCREENING Shinyscreen ver. 0.8.0
COMMENT: ORIGINAL_ACQUISITION_NO 8341
COMMENT: ORIGINAL_PRECURSOR_SCAN_NO 8338
COMMENT: RAW_DATA available as MSV000091754 at [DOI:10.25345/C5S46HG75]
CH$NAME: AVE3247
CH$NAME: 1-[[5-(5-chlorothiophen-2-yl)-1,2-oxazol-3-yl]methyl]-2-[(1-cyclopropylpiperidin-4-yl)carbamoyl]benzimidazole-5-carboxylic acid
CH$COMPOUND_CLASS: N/A; Environmental Standard
CH$FORMULA: C25H24ClN5O4S
CH$EXACT_MASS: 525.1238
CH$SMILES: OC(=O)C1=CC=C2N(CC3=NOC(=C3)C3=CC=C(Cl)S3)C(=NC2=C1)C(=O)NC1CCN(CC1)C1CC1
CH$IUPAC: InChI=1S/C25H24ClN5O4S/c26-22-6-5-21(36-22)20-12-16(29-35-20)13-31-19-4-1-14(25(33)34)11-18(19)28-23(31)24(32)27-15-7-9-30(10-8-15)17-2-3-17/h1,4-6,11-12,15,17H,2-3,7-10,13H2,(H,27,32)(H,33,34)
CH$LINK: PUBCHEM CID:53316387
CH$LINK: INCHIKEY PQDRCVHHJPMGKO-UHFFFAOYSA-N
CH$LINK: CHEMSPIDER 34248535
AC$INSTRUMENT: Q Exactive Orbitrap (Thermo Scientific)
AC$INSTRUMENT_TYPE: LC-ESI-QFT
AC$MASS_SPECTROMETRY: MS_TYPE MS2
AC$MASS_SPECTROMETRY: ION_MODE POSITIVE
AC$MASS_SPECTROMETRY: IONIZATION ESI
AC$MASS_SPECTROMETRY: FRAGMENTATION_MODE HCD
AC$MASS_SPECTROMETRY: COLLISION_ENERGY 15
AC$MASS_SPECTROMETRY: RESOLUTION 17500
AC$CHROMATOGRAPHY: COLUMN_NAME Acquity BEH C18 1.7um, 2.1x150mm (Waters)
AC$CHROMATOGRAPHY: FLOW_GRADIENT 90/10 at 0-2 min, 0/100 at 15-20 min, 90/10 at 20.1-30 min
AC$CHROMATOGRAPHY: FLOW_RATE 0.20 mL/min
AC$CHROMATOGRAPHY: RETENTION_TIME 15.907 min
AC$CHROMATOGRAPHY: SOLVENT A 0.1% formic acid
AC$CHROMATOGRAPHY: SOLVENT B methanol
MS$FOCUSED_ION: BASE_PEAK 79.0211
MS$FOCUSED_ION: PRECURSOR_M/Z 526.131
MS$FOCUSED_ION: PRECURSOR_TYPE [M+H]+
MS$FOCUSED_ION: PRECURSOR_INTENSITY 2133726.53125
MS$DATA_PROCESSING: RECALIBRATE loess on assigned fragments and MS1
MS$DATA_PROCESSING: REANALYZE Peaks with additional N2/O included
MS$DATA_PROCESSING: WHOLE RMassBank 2.99.2
PK$SPLASH: splash10-004i-0000090000-04e3ac3ee53eb9845322
PK$ANNOTATION: m/z tentative_formula formula_count mass error(ppm)
  124.1121 C8H14N+ 3 124.1121 0.37
  167.1179 C9H15N2O+ 9 167.1179 0.25
  360.0205 C16H11ClN3O3S+ 15 360.0204 0.17
  455.0574 C21H16ClN4O4S+ 3 455.0575 -0.23
  526.1316 C25H25ClN5O4S+ 1 526.131 1.11
PK$NUM_PEAK: 5
PK$PEAK: m/z int. rel.int.
  124.1121 40646.5 15
  167.1179 132182.1 51
  360.0205 70574.7 27
  455.0574 6324.3 2
  526.1316 2558458 999
//
