ACCESSION: MSBNK-LCSB-LU126603
RECORD_TITLE: Carbamazepine; LC-ESI-QFT; MS2; CE: 45; R=17500; [M+H]+
DATE: 2020.08.19
AUTHORS: Elapavalore, A.; Kondić, T.; Singh, R.; Schymanski, E.
LICENSE: CC BY
COPYRIGHT: Copyright © 2019 by Environmental Cheminformatics, LCSB, University of Luxembourg, Luxembourg
PUBLICATION: Elapavalore, A.; Kondić, T.; et al., Adding Open Spectral Data to MassBank and PubChem Using Open Source Tools to Support Non-Targeted Exposomics of Mixtures (submitted).
PROJECT: ENTACT U.S. Environmental Protection Agency’s Non-Targeted Analysis Collaborative Trial
COMMENT: CONFIDENCE standard compound
COMMENT: INTERNAL_ID 1266
COMMENT: DATASET 20200303_ENTACT_RP_MIX504
COMMENT: DATA_PROCESSING MERGING RMBmix ver. 0.2.7
COMMENT: DATA_PROCESSING PRESCREENING Shinyscreen ver. 0.8.0
COMMENT: ORIGINAL_ACQUISITION_NO 8207
COMMENT: ORIGINAL_PRECURSOR_SCAN_NO 8205
COMMENT: RAW_DATA available as MSV000091754 at [DOI:10.25345/C5S46HG75]
CH$NAME: Carbamazepine
CH$COMPOUND_CLASS: N/A; Environmental Standard
CH$FORMULA: C15H12N2O
CH$EXACT_MASS: 236.0950
CH$SMILES: NC(=O)N1C2=CC=CC=C2C=CC2=C1C=CC=C2
CH$IUPAC: InChI=1S/C15H12N2O/c16-15(18)17-13-7-3-1-5-11(13)9-10-12-6-2-4-8-14(12)17/h1-10H,(H2,16,18)
CH$LINK: CAS 298-46-4
CH$LINK: CHEBI CHEBI:3387
CH$LINK: KEGG C06868
CH$LINK: PUBCHEM CID:2554
CH$LINK: INCHIKEY FFGPTBGBLSHEPO-UHFFFAOYSA-N
CH$LINK: CHEMSPIDER 2457
AC$INSTRUMENT: Q Exactive Orbitrap (Thermo Scientific)
AC$INSTRUMENT_TYPE: LC-ESI-QFT
AC$MASS_SPECTROMETRY: MS_TYPE MS2
AC$MASS_SPECTROMETRY: ION_MODE POSITIVE
AC$MASS_SPECTROMETRY: IONIZATION ESI
AC$MASS_SPECTROMETRY: FRAGMENTATION_MODE HCD
AC$MASS_SPECTROMETRY: COLLISION_ENERGY 45
AC$MASS_SPECTROMETRY: RESOLUTION 17500
AC$CHROMATOGRAPHY: COLUMN_NAME Acquity BEH C18 1.7um, 2.1x150mm (Waters)
AC$CHROMATOGRAPHY: FLOW_GRADIENT 90/10 at 0-2 min, 0/100 at 15-20 min, 90/10 at 20.1-30 min
AC$CHROMATOGRAPHY: FLOW_RATE 0.20 mL/min
AC$CHROMATOGRAPHY: RETENTION_TIME 15.734 min
AC$CHROMATOGRAPHY: SOLVENT A 0.1% formic acid
AC$CHROMATOGRAPHY: SOLVENT B methanol
MS$FOCUSED_ION: BASE_PEAK 79.0212
MS$FOCUSED_ION: PRECURSOR_M/Z 237.1022
MS$FOCUSED_ION: PRECURSOR_TYPE [M+H]+
MS$FOCUSED_ION: PRECURSOR_INTENSITY 25269289.25
MS$DATA_PROCESSING: RECALIBRATE loess on assigned fragments and MS1
MS$DATA_PROCESSING: REANALYZE Peaks with additional N2/O included
MS$DATA_PROCESSING: WHOLE RMassBank 2.99.2
PK$SPLASH: splash10-0006-0900000000-638bb2415e5fe50e8595
PK$ANNOTATION: m/z tentative_formula formula_count mass error(ppm)
  116.0495 C8H6N+ 1 116.0495 0.53
  165.0699 C13H9+ 1 165.0699 0.04
  167.0854 C13H11+ 1 167.0855 -0.56
  177.0698 C14H9+ 1 177.0699 -0.57
  179.0729 C13H9N+ 1 179.073 -0.17
  191.0728 C14H9N+ 1 191.073 -0.75
  192.0809 C14H10N+ 1 192.0808 0.79
  193.0888 C14H11N+ 1 193.0886 1.12
  194.0963 C14H12N+ 1 194.0964 -0.43
  220.0758 C15H10NO+ 1 220.0757 0.42
  237.1022 C15H13N2O+ 1 237.1022 -0.33
PK$NUM_PEAK: 11
PK$PEAK: m/z int. rel.int.
  116.0495 16546.8 1
  165.0699 19904.4 1
  167.0854 53479.7 3
  177.0698 17835.9 1
  179.0729 55374.6 3
  191.0728 16873.2 1
  192.0809 3458912.5 220
  193.0888 403690.6 25
  194.0963 15697924 999
  220.0758 83172.7 5
  237.1022 671272.6 42
//
