ACCESSION: MSBNK-LCSB-LU048204
RECORD_TITLE: Iprovalicarb; LC-ESI-QFT; MS2; CE: 60; R=17500; [M+H]+
DATE: 2020.08.19
AUTHORS: Elapavalore, A.; Kondić, T.; Singh, R.; Schymanski, E.
LICENSE: CC BY
COPYRIGHT: Copyright © 2019 by Environmental Cheminformatics, LCSB, University of Luxembourg, Luxembourg
PUBLICATION: Elapavalore, A.; Kondić, T.; et al., Adding Open Spectral Data to MassBank and PubChem Using Open Source Tools to Support Non-Targeted Exposomics of Mixtures (submitted).
PROJECT: ENTACT U.S. Environmental Protection Agency’s Non-Targeted Analysis Collaborative Trial
COMMENT: CONFIDENCE standard compound
COMMENT: INTERNAL_ID 482
COMMENT: DATASET 20200303_ENTACT_RP_MIX506
COMMENT: DATA_PROCESSING MERGING RMBmix ver. 0.2.7
COMMENT: DATA_PROCESSING PRESCREENING Shinyscreen ver. 0.8.0
COMMENT: ORIGINAL_ACQUISITION_NO 9260
COMMENT: ORIGINAL_PRECURSOR_SCAN_NO 9257
COMMENT: RAW_DATA available as MSV000091754 at [DOI:10.25345/C5S46HG75]
CH$NAME: Iprovalicarb
CH$NAME: propan-2-yl N-[(2S)-3-methyl-1-[1-(4-methylphenyl)ethylamino]-1-oxobutan-2-yl]carbamate
CH$COMPOUND_CLASS: N/A; Environmental Standard
CH$FORMULA: C18H28N2O3
CH$EXACT_MASS: 320.2100
CH$SMILES: CC(C)OC(=O)N[C@@H](C(C)C)C(=O)NC(C)C1=CC=C(C)C=C1
CH$IUPAC: InChI=1S/C18H28N2O3/c1-11(2)16(20-18(22)23-12(3)4)17(21)19-14(6)15-9-7-13(5)8-10-15/h7-12,14,16H,1-6H3,(H,19,21)(H,20,22)/t14?,16-/m0/s1
CH$LINK: CAS 140923-17-7
CH$LINK: CHEBI CHEBI:82023
CH$LINK: KEGG C18866
CH$LINK: PUBCHEM CID:10958189
CH$LINK: INCHIKEY NWUWYYSKZYIQAE-WMCAAGNKSA-N
CH$LINK: CHEMSPIDER 9133406
AC$INSTRUMENT: Q Exactive Orbitrap (Thermo Scientific)
AC$INSTRUMENT_TYPE: LC-ESI-QFT
AC$MASS_SPECTROMETRY: MS_TYPE MS2
AC$MASS_SPECTROMETRY: ION_MODE POSITIVE
AC$MASS_SPECTROMETRY: IONIZATION ESI
AC$MASS_SPECTROMETRY: FRAGMENTATION_MODE HCD
AC$MASS_SPECTROMETRY: COLLISION_ENERGY 60
AC$MASS_SPECTROMETRY: RESOLUTION 17500
AC$CHROMATOGRAPHY: COLUMN_NAME Acquity BEH C18 1.7um, 2.1x150mm (Waters)
AC$CHROMATOGRAPHY: FLOW_GRADIENT 90/10 at 0-2 min, 0/100 at 15-20 min, 90/10 at 20.1-30 min
AC$CHROMATOGRAPHY: FLOW_RATE 0.20 mL/min
AC$CHROMATOGRAPHY: RETENTION_TIME 17.761 min
AC$CHROMATOGRAPHY: SOLVENT A 0.1% formic acid
AC$CHROMATOGRAPHY: SOLVENT B methanol
MS$FOCUSED_ION: BASE_PEAK 79.0211
MS$FOCUSED_ION: PRECURSOR_M/Z 321.2173
MS$FOCUSED_ION: PRECURSOR_TYPE [M+H]+
MS$FOCUSED_ION: PRECURSOR_INTENSITY 7711514.25
MS$DATA_PROCESSING: RECALIBRATE loess on assigned fragments and MS1
MS$DATA_PROCESSING: REANALYZE Peaks with additional N2/O included
MS$DATA_PROCESSING: WHOLE RMassBank 2.99.2
PK$SPLASH: splash10-014i-2900000000-20fddcbb90f2133a0488
PK$ANNOTATION: m/z tentative_formula formula_count mass error(ppm)
  55.0542 C4H7+ 1 55.0542 -0.18
  57.0699 C4H9+ 1 57.0699 0.27
  72.0808 C4H10N+ 1 72.0808 0.39
  79.0542 C6H7+ 1 79.0542 -0.59
  91.0543 C7H7+ 1 91.0542 0.94
  93.07 C7H9+ 1 93.0699 1.45
  98.0601 C5H8NO+ 1 98.06 0.67
  103.0541 C8H7+ 1 103.0542 -0.89
  104.0622 C8H8+ 1 104.0621 1.35
  116.0707 C5H10NO2+ 1 116.0706 0.41
  117.07 C9H9+ 1 117.0699 0.84
  117.1022 C5H13N2O+ 1 117.1022 -0.2
  119.0856 C9H11+ 1 119.0855 1.02
  126.0185 C5H4NO3+ 1 126.0186 -0.41
PK$NUM_PEAK: 14
PK$PEAK: m/z int. rel.int.
  55.0542 5306 18
  57.0699 2054.6 7
  72.0808 22671.7 80
  79.0542 3588.8 12
  91.0543 48158.8 171
  93.07 3366.5 11
  98.0601 20788.6 74
  103.0541 3628 12
  104.0622 3692.3 13
  116.0707 29893.7 106
  117.07 37655.5 134
  117.1022 2346.7 8
  119.0856 280422.4 999
  126.0185 2491.2 8
//
