ACCESSION: MSBNK-LCSB-LU039356
RECORD_TITLE: Fabesetron; LC-ESI-QFT; MS2; CE: 90; R=17500; [M-H]-
DATE: 2020.08.19
AUTHORS: Elapavalore, A.; Kondić, T.; Singh, R.; Schymanski, E.
LICENSE: CC BY
COPYRIGHT: Copyright © 2019 by Environmental Cheminformatics, LCSB, University of Luxembourg, Luxembourg
PUBLICATION: Elapavalore, A.; Kondić, T.; et al., Adding Open Spectral Data to MassBank and PubChem Using Open Source Tools to Support Non-Targeted Exposomics of Mixtures (submitted).
PROJECT: ENTACT U.S. Environmental Protection Agency’s Non-Targeted Analysis Collaborative Trial
COMMENT: CONFIDENCE standard compound
COMMENT: INTERNAL_ID 393
COMMENT: DATASET 20200303_ENTACT_RP_MIX499
COMMENT: DATA_PROCESSING MERGING RMBmix ver. 0.2.7
COMMENT: DATA_PROCESSING PRESCREENING Shinyscreen ver. 0.8.0
COMMENT: ORIGINAL_ACQUISITION_NO 3660
COMMENT: ORIGINAL_PRECURSOR_SCAN_NO 3659
COMMENT: RAW_DATA available as MSV000091754 at [DOI:10.25345/C5S46HG75]
CH$NAME: Fabesetron
CH$NAME: (7R)-10-methyl-7-[(5-methyl-1H-imidazol-4-yl)methyl]-8,9-dihydro-7H-pyrido[1,2-a]indol-6-one
CH$COMPOUND_CLASS: N/A; Environmental Standard
CH$FORMULA: C18H19N3O
CH$EXACT_MASS: 293.1528
CH$SMILES: Cc1[nH]cnc1C[C@H]1CCc2c(C)c3ccccc3n2C1=O
CH$IUPAC: InChI=1S/C18H19N3O/c1-11-14-5-3-4-6-17(14)21-16(11)8-7-13(18(21)22)9-15-12(2)19-10-20-15/h3-6,10,13H,7-9H2,1-2H3,(H,19,20)/t13-/m1/s1
CH$LINK: CAS 15091-34-6
CH$LINK: CHEBI CHEBI:31588
CH$LINK: PUBCHEM CID:208947
CH$LINK: INCHIKEY AEKQMJRJRAHOAP-CYBMUJFWSA-N
CH$LINK: CHEMSPIDER 181040
AC$INSTRUMENT: Q Exactive Orbitrap (Thermo Scientific)
AC$INSTRUMENT_TYPE: LC-ESI-QFT
AC$MASS_SPECTROMETRY: MS_TYPE MS2
AC$MASS_SPECTROMETRY: ION_MODE NEGATIVE
AC$MASS_SPECTROMETRY: IONIZATION ESI
AC$MASS_SPECTROMETRY: FRAGMENTATION_MODE HCD
AC$MASS_SPECTROMETRY: COLLISION_ENERGY 90
AC$MASS_SPECTROMETRY: RESOLUTION 17500
AC$CHROMATOGRAPHY: COLUMN_NAME Acquity BEH C18 1.7um, 2.1x150mm (Waters)
AC$CHROMATOGRAPHY: FLOW_GRADIENT 90/10 at 0-2 min, 0/100 at 15-20 min, 90/10 at 20.1-30 min
AC$CHROMATOGRAPHY: FLOW_RATE 0.20 mL/min
AC$CHROMATOGRAPHY: RETENTION_TIME 15.358 min
AC$CHROMATOGRAPHY: SOLVENT A 0.1% formic acid
AC$CHROMATOGRAPHY: SOLVENT B methanol
MS$FOCUSED_ION: BASE_PEAK 112.9855
MS$FOCUSED_ION: PRECURSOR_M/Z 292.1455
MS$FOCUSED_ION: PRECURSOR_TYPE [M-H]-
MS$FOCUSED_ION: PRECURSOR_INTENSITY 2307154.194336
MS$DATA_PROCESSING: RECALIBRATE loess on assigned fragments and MS1
MS$DATA_PROCESSING: REANALYZE Peaks with additional N2/O included
MS$DATA_PROCESSING: WHOLE RMassBank 2.99.2
PK$SPLASH: splash10-0006-2900000000-4283d5f64fd53d572fe7
PK$ANNOTATION: m/z tentative_formula formula_count mass error(ppm)
  81.0459 C4H5N2- 1 81.0458 0.36
  129.0584 C9H7N- 1 129.0584 0.04
  130.0662 C9H8N- 1 130.0662 -0.02
  142.0663 C10H8N- 1 142.0662 0.52
  144.082 C10H10N- 1 144.0819 0.8
  154.0664 C11H8N- 1 154.0662 1.28
  155.0742 C11H9N- 1 155.074 1
  156.082 C11H10N- 1 156.0819 0.63
  157.0536 C10H7NO- 1 157.0533 1.59
  158.0611 C10H8NO- 1 158.0611 0.06
  168.0819 C12H10N- 1 168.0819 0.18
  170.0977 C12H12N- 1 170.0975 0.86
  181.0535 C12H7NO- 1 181.0533 1.05
  182.0616 C12H8NO- 1 182.0611 2.59
  196.077 C13H10NO- 1 196.0768 1.04
PK$NUM_PEAK: 15
PK$PEAK: m/z int. rel.int.
  81.0459 202283.6 551
  129.0584 27491 74
  130.0662 8051.8 21
  142.0663 72543.4 197
  144.082 366675.8 999
  154.0664 6755.6 18
  155.0742 27742.9 75
  156.082 147856 402
  157.0536 2318.3 6
  158.0611 1901.2 5
  168.0819 5403.7 14
  170.0977 50836 138
  181.0535 7404.2 20
  182.0616 2502.8 6
  196.077 4178.2 11
//
