ACCESSION: MSBNK-LCSB-LU055352
RECORD_TITLE: Triadimefon; LC-ESI-QFT; MS2; CE: 30; R=17500; [M-H]-
DATE: 2020.08.19
AUTHORS: Elapavalore, A.; Kondić, T.; Singh, R.; Schymanski, E.
LICENSE: CC BY
COPYRIGHT: Copyright © 2019 by Environmental Cheminformatics, LCSB, University of Luxembourg, Luxembourg
PUBLICATION: Elapavalore, A.; Kondić, T.; et al., Adding Open Spectral Data to MassBank and PubChem Using Open Source Tools to Support Non-Targeted Exposomics of Mixtures (submitted).
PROJECT: ENTACT U.S. Environmental Protection Agency’s Non-Targeted Analysis Collaborative Trial
COMMENT: CONFIDENCE standard compound
COMMENT: INTERNAL_ID 553
COMMENT: DATASET 20200303_ENTACT_RP_MIX506
COMMENT: DATA_PROCESSING MERGING RMBmix ver. 0.2.7
COMMENT: DATA_PROCESSING PRESCREENING Shinyscreen ver. 0.8.0
COMMENT: ORIGINAL_ACQUISITION_NO 4773
COMMENT: ORIGINAL_PRECURSOR_SCAN_NO 4771
COMMENT: RAW_DATA available as MSV000091754 at [DOI:10.25345/C5S46HG75]
CH$NAME: Triadimefon
CH$NAME: 1-(4-chlorophenoxy)-3,3-dimethyl-1-(1,2,4-triazol-1-yl)butan-2-one
CH$COMPOUND_CLASS: N/A; Environmental Standard
CH$FORMULA: C14H16ClN3O2
CH$EXACT_MASS: 293.0931
CH$SMILES: CC(C)(C)C(=O)C(OC1=CC=C(Cl)C=C1)N1C=NC=N1
CH$IUPAC: InChI=1S/C14H16ClN3O2/c1-14(2,3)12(19)13(18-9-16-8-17-18)20-11-6-4-10(15)5-7-11/h4-9,13H,1-3H3
CH$LINK: CAS 73804-20-3
CH$LINK: CHEBI CHEBI:84002
CH$LINK: KEGG C11156
CH$LINK: PUBCHEM CID:39385
CH$LINK: INCHIKEY WURBVZBTWMNKQT-UHFFFAOYSA-N
CH$LINK: CHEMSPIDER 36029
AC$INSTRUMENT: Q Exactive Orbitrap (Thermo Scientific)
AC$INSTRUMENT_TYPE: LC-ESI-QFT
AC$MASS_SPECTROMETRY: MS_TYPE MS2
AC$MASS_SPECTROMETRY: ION_MODE NEGATIVE
AC$MASS_SPECTROMETRY: IONIZATION ESI
AC$MASS_SPECTROMETRY: FRAGMENTATION_MODE HCD
AC$MASS_SPECTROMETRY: COLLISION_ENERGY 30
AC$MASS_SPECTROMETRY: RESOLUTION 17500
AC$CHROMATOGRAPHY: COLUMN_NAME Acquity BEH C18 1.7um, 2.1x150mm (Waters)
AC$CHROMATOGRAPHY: FLOW_GRADIENT 90/10 at 0-2 min, 0/100 at 15-20 min, 90/10 at 20.1-30 min
AC$CHROMATOGRAPHY: FLOW_RATE 0.20 mL/min
AC$CHROMATOGRAPHY: RETENTION_TIME 17.606 min
AC$CHROMATOGRAPHY: SOLVENT A 0.1% formic acid
AC$CHROMATOGRAPHY: SOLVENT B methanol
MS$FOCUSED_ION: BASE_PEAK 247.0324
MS$FOCUSED_ION: PRECURSOR_M/Z 292.0858
MS$FOCUSED_ION: PRECURSOR_TYPE [M-H]-
MS$FOCUSED_ION: PRECURSOR_INTENSITY 4590202.810547
MS$DATA_PROCESSING: RECALIBRATE loess on assigned fragments and MS1
MS$DATA_PROCESSING: REANALYZE Peaks with additional N2/O included
MS$DATA_PROCESSING: WHOLE RMassBank 2.99.2
PK$SPLASH: splash10-014i-9000000000-dca85e067f71c008769f
PK$ANNOTATION: m/z tentative_formula formula_count mass error(ppm)
  66.0099 C2N3- 1 66.0098 2.43
  68.0254 C2H2N3- 1 68.0254 0.42
  111.0008 C6H4Cl- 1 111.0007 0.78
  126.9956 C6H4ClO- 2 126.9956 -0.26
  152.0829 C7H10N3O- 3 152.0829 -0.56
  181.0861 C8H11N3O2- 1 181.0857 2.32
  211.0528 C11H12ClO2- 3 211.0531 -1.66
PK$NUM_PEAK: 7
PK$PEAK: m/z int. rel.int.
  66.0099 2162.1 1
  68.0254 1713667.9 999
  111.0008 6453.9 3
  126.9956 23124.1 13
  152.0829 27069.4 15
  181.0861 4921.8 2
  211.0528 2991.8 1
//
