ACCESSION: MSBNK-LCSB-LU054453
RECORD_TITLE: 1-Methoxy-2-nitrobenzene; LC-ESI-QFT; MS2; CE: 45; R=17500; [M-H]-
DATE: 2020.08.19
AUTHORS: Elapavalore, A.; Kondić, T.; Singh, R.; Schymanski, E.
LICENSE: CC BY
COPYRIGHT: Copyright © 2019 by Environmental Cheminformatics, LCSB, University of Luxembourg, Luxembourg
PUBLICATION: Elapavalore, A.; Kondić, T.; et al., Adding Open Spectral Data to MassBank and PubChem Using Open Source Tools to Support Non-Targeted Exposomics of Mixtures (submitted).
PROJECT: ENTACT U.S. Environmental Protection Agency’s Non-Targeted Analysis Collaborative Trial
COMMENT: CONFIDENCE standard compound
COMMENT: INTERNAL_ID 544
COMMENT: DATASET 20200303_ENTACT_RP_MIX506
COMMENT: DATA_PROCESSING MERGING RMBmix ver. 0.2.7
COMMENT: DATA_PROCESSING PRESCREENING Shinyscreen ver. 0.8.0
COMMENT: ORIGINAL_ACQUISITION_NO 3769
COMMENT: ORIGINAL_PRECURSOR_SCAN_NO 3768
COMMENT: RAW_DATA available as MSV000091754 at [DOI:10.25345/C5S46HG75]
CH$NAME: 1-Methoxy-2-nitrobenzene
CH$NAME: 2-Nitroanisole
CH$COMPOUND_CLASS: N/A; Environmental Standard
CH$FORMULA: C7H7NO3
CH$EXACT_MASS: 153.0426
CH$SMILES: COC1=C(C=CC=C1)[N+]([O-])=O
CH$IUPAC: InChI=1S/C7H7NO3/c1-11-7-5-3-2-4-6(7)8(9)10/h2-5H,1H3
CH$LINK: CAS 91-23-6
CH$LINK: CHEBI CHEBI:48722
CH$LINK: KEGG C19270
CH$LINK: PUBCHEM CID:7048
CH$LINK: INCHIKEY CFBYEGUGFPZCNF-UHFFFAOYSA-N
CH$LINK: CHEMSPIDER 6781
AC$INSTRUMENT: Q Exactive Orbitrap (Thermo Scientific)
AC$INSTRUMENT_TYPE: LC-ESI-QFT
AC$MASS_SPECTROMETRY: MS_TYPE MS2
AC$MASS_SPECTROMETRY: ION_MODE NEGATIVE
AC$MASS_SPECTROMETRY: IONIZATION ESI
AC$MASS_SPECTROMETRY: FRAGMENTATION_MODE HCD
AC$MASS_SPECTROMETRY: COLLISION_ENERGY 45
AC$MASS_SPECTROMETRY: RESOLUTION 17500
AC$CHROMATOGRAPHY: COLUMN_NAME Acquity BEH C18 1.7um, 2.1x150mm (Waters)
AC$CHROMATOGRAPHY: FLOW_GRADIENT 90/10 at 0-2 min, 0/100 at 15-20 min, 90/10 at 20.1-30 min
AC$CHROMATOGRAPHY: FLOW_RATE 0.20 mL/min
AC$CHROMATOGRAPHY: RETENTION_TIME 14.758 min
AC$CHROMATOGRAPHY: SOLVENT A 0.1% formic acid
AC$CHROMATOGRAPHY: SOLVENT B methanol
MS$FOCUSED_ION: BASE_PEAK 152.0021
MS$FOCUSED_ION: PRECURSOR_M/Z 152.0353
MS$FOCUSED_ION: PRECURSOR_TYPE [M-H]-
MS$FOCUSED_ION: PRECURSOR_INTENSITY 28970344.68066
MS$DATA_PROCESSING: RECALIBRATE loess on assigned fragments and MS1
MS$DATA_PROCESSING: REANALYZE Peaks with additional N2/O included
MS$DATA_PROCESSING: WHOLE RMassBank 2.99.2
PK$SPLASH: splash10-000i-9000000000-c1eed2042069940db186
PK$ANNOTATION: m/z tentative_formula formula_count mass error(ppm)
  88.0193 C6H2N- 1 88.0193 0.13
  104.0143 C6H2NO- 1 104.0142 1.49
PK$NUM_PEAK: 2
PK$PEAK: m/z int. rel.int.
  88.0193 1669668.8 999
  104.0143 7649.9 4
//
