ACCESSION: MSBNK-LCSB-LU079601
RECORD_TITLE: Apomorphine; LC-ESI-QFT; MS2; CE: 15; R=17500; [M+H]+
DATE: 2020.08.19
AUTHORS: Elapavalore, A.; Kondić, T.; Singh, R.; Schymanski, E.
LICENSE: CC BY
COPYRIGHT: Copyright © 2019 by Environmental Cheminformatics, LCSB, University of Luxembourg, Luxembourg
PUBLICATION: Elapavalore, A.; Kondić, T.; et al., Adding Open Spectral Data to MassBank and PubChem Using Open Source Tools to Support Non-Targeted Exposomics of Mixtures (submitted).
PROJECT: ENTACT U.S. Environmental Protection Agency’s Non-Targeted Analysis Collaborative Trial
COMMENT: CONFIDENCE standard compound
COMMENT: INTERNAL_ID 796
COMMENT: DATASET 20200303_ENTACT_RP_MIX508
COMMENT: DATA_PROCESSING MERGING RMBmix ver. 0.2.7
COMMENT: DATA_PROCESSING PRESCREENING Shinyscreen ver. 0.8.0
COMMENT: ORIGINAL_ACQUISITION_NO 5858
COMMENT: ORIGINAL_PRECURSOR_SCAN_NO 5856
COMMENT: RAW_DATA available as MSV000091754 at [DOI:10.25345/C5S46HG75]
CH$NAME: Apomorphine
CH$NAME: (6aR)-6-methyl-5,6,6a,7-tetrahydro-4H-dibenzo[de,g]quinoline-10,11-diol
CH$COMPOUND_CLASS: N/A; Environmental Standard
CH$FORMULA: C17H17NO2
CH$EXACT_MASS: 267.1259
CH$SMILES: CN1CCc2cccc3c2[C@H]1Cc1ccc(O)c(O)c1-3
CH$IUPAC: InChI=1S/C17H17NO2/c1-18-8-7-10-3-2-4-12-15(10)13(18)9-11-5-6-14(19)17(20)16(11)12/h2-6,13,19-20H,7-9H2,1H3/t13-/m1/s1
CH$LINK: CAS 58-00-4
CH$LINK: CHEBI CHEBI:48538
CH$LINK: KEGG D07460
CH$LINK: PUBCHEM CID:6005
CH$LINK: INCHIKEY VMWNQDUVQKEIOC-CYBMUJFWSA-N
CH$LINK: CHEMSPIDER 5783
AC$INSTRUMENT: Q Exactive Orbitrap (Thermo Scientific)
AC$INSTRUMENT_TYPE: LC-ESI-QFT
AC$MASS_SPECTROMETRY: MS_TYPE MS2
AC$MASS_SPECTROMETRY: ION_MODE POSITIVE
AC$MASS_SPECTROMETRY: IONIZATION ESI
AC$MASS_SPECTROMETRY: FRAGMENTATION_MODE HCD
AC$MASS_SPECTROMETRY: COLLISION_ENERGY 15
AC$MASS_SPECTROMETRY: RESOLUTION 17500
AC$CHROMATOGRAPHY: COLUMN_NAME Acquity BEH C18 1.7um, 2.1x150mm (Waters)
AC$CHROMATOGRAPHY: FLOW_GRADIENT 90/10 at 0-2 min, 0/100 at 15-20 min, 90/10 at 20.1-30 min
AC$CHROMATOGRAPHY: FLOW_RATE 0.20 mL/min
AC$CHROMATOGRAPHY: RETENTION_TIME 11.129 min
AC$CHROMATOGRAPHY: SOLVENT A 0.1% formic acid
AC$CHROMATOGRAPHY: SOLVENT B methanol
MS$FOCUSED_ION: BASE_PEAK 79.0211
MS$FOCUSED_ION: PRECURSOR_M/Z 268.1332
MS$FOCUSED_ION: PRECURSOR_TYPE [M+H]+
MS$FOCUSED_ION: PRECURSOR_INTENSITY 20024910.75
MS$DATA_PROCESSING: RECALIBRATE loess on assigned fragments and MS1
MS$DATA_PROCESSING: REANALYZE Peaks with additional N2/O included
MS$DATA_PROCESSING: WHOLE RMassBank 2.99.2
PK$SPLASH: splash10-014i-0090000000-eb0aa6934866abb4556a
PK$ANNOTATION: m/z tentative_formula formula_count mass error(ppm)
  189.071 C15H9+ 1 189.0699 6.06
  191.0853 C15H11+ 1 191.0855 -0.99
  219.0805 C16H11O+ 1 219.0804 0.22
  225.0909 C15H13O2+ 1 225.091 -0.45
  237.0911 C16H13O2+ 1 237.091 0.27
  268.1332 C17H18NO2+ 1 268.1332 0.08
PK$NUM_PEAK: 6
PK$PEAK: m/z int. rel.int.
  189.071 12834.5 1
  191.0853 28319.6 2
  219.0805 695370 67
  225.0909 30086.8 2
  237.0911 4904245.5 476
  268.1332 10273766 999
//
