ACCESSION: MSBNK-LCSB-LU118501
RECORD_TITLE: Methfuroxam; LC-ESI-QFT; MS2; CE: 15; R=17500; [M+H]+
DATE: 2020.08.19
AUTHORS: Elapavalore, A.; Kondić, T.; Singh, R.; Schymanski, E.
LICENSE: CC BY
COPYRIGHT: Copyright © 2019 by Environmental Cheminformatics, LCSB, University of Luxembourg, Luxembourg
PUBLICATION: Elapavalore, A.; Kondić, T.; et al., Adding Open Spectral Data to MassBank and PubChem Using Open Source Tools to Support Non-Targeted Exposomics of Mixtures (submitted).
PROJECT: ENTACT U.S. Environmental Protection Agency’s Non-Targeted Analysis Collaborative Trial
COMMENT: CONFIDENCE standard compound
COMMENT: INTERNAL_ID 1185
COMMENT: DATASET 20200303_ENTACT_RP_MIX503
COMMENT: DATA_PROCESSING MERGING RMBmix ver. 0.2.7
COMMENT: DATA_PROCESSING PRESCREENING Shinyscreen ver. 0.8.0
COMMENT: ORIGINAL_ACQUISITION_NO 8803
COMMENT: ORIGINAL_PRECURSOR_SCAN_NO 8801
COMMENT: RAW_DATA available as MSV000091754 at [DOI:10.25345/C5S46HG75]
CH$NAME: Methfuroxam
CH$NAME: 2,4,5-trimethyl-N-phenylfuran-3-carboxamide
CH$COMPOUND_CLASS: N/A; Environmental Standard
CH$FORMULA: C14H15NO2
CH$EXACT_MASS: 229.1103
CH$SMILES: CC1=C(C)C(C(=O)NC2=CC=CC=C2)=C(C)O1
CH$IUPAC: InChI=1S/C14H15NO2/c1-9-10(2)17-11(3)13(9)14(16)15-12-7-5-4-6-8-12/h4-8H,1-3H3,(H,15,16)
CH$LINK: CAS 28730-17-8
CH$LINK: CHEBI CHEBI:142825
CH$LINK: PUBCHEM CID:34313
CH$LINK: INCHIKEY ZWJNEYVWPYIKMB-UHFFFAOYSA-N
CH$LINK: CHEMSPIDER 31609
AC$INSTRUMENT: Q Exactive Orbitrap (Thermo Scientific)
AC$INSTRUMENT_TYPE: LC-ESI-QFT
AC$MASS_SPECTROMETRY: MS_TYPE MS2
AC$MASS_SPECTROMETRY: ION_MODE POSITIVE
AC$MASS_SPECTROMETRY: IONIZATION ESI
AC$MASS_SPECTROMETRY: FRAGMENTATION_MODE HCD
AC$MASS_SPECTROMETRY: COLLISION_ENERGY 15
AC$MASS_SPECTROMETRY: RESOLUTION 17500
AC$CHROMATOGRAPHY: COLUMN_NAME Acquity BEH C18 1.7um, 2.1x150mm (Waters)
AC$CHROMATOGRAPHY: FLOW_GRADIENT 90/10 at 0-2 min, 0/100 at 15-20 min, 90/10 at 20.1-30 min
AC$CHROMATOGRAPHY: FLOW_RATE 0.20 mL/min
AC$CHROMATOGRAPHY: RETENTION_TIME 16.865 min
AC$CHROMATOGRAPHY: SOLVENT A 0.1% formic acid
AC$CHROMATOGRAPHY: SOLVENT B methanol
MS$FOCUSED_ION: BASE_PEAK 79.0211
MS$FOCUSED_ION: PRECURSOR_M/Z 230.1176
MS$FOCUSED_ION: PRECURSOR_TYPE [M+H]+
MS$FOCUSED_ION: PRECURSOR_INTENSITY 8140959.28125
MS$DATA_PROCESSING: RECALIBRATE loess on assigned fragments and MS1
MS$DATA_PROCESSING: REANALYZE Peaks with additional N2/O included
MS$DATA_PROCESSING: WHOLE RMassBank 2.99.2
PK$SPLASH: splash10-001i-0690000000-de77dceb87f6c27608c6
PK$ANNOTATION: m/z tentative_formula formula_count mass error(ppm)
  92.0494 C6H6N+ 1 92.0495 -0.6
  93.0701 C7H9+ 1 93.0699 2.42
  111.0804 C7H11O+ 1 111.0804 0.07
  120.0444 C7H6NO+ 1 120.0444 0.01
  137.0597 C8H9O2+ 1 137.0597 0.06
  174.054 C10H8NO2+ 1 174.055 -5.7
  212.1068 C14H14NO+ 1 212.107 -0.77
  230.1176 C14H16NO2+ 1 230.1176 0.17
PK$NUM_PEAK: 8
PK$PEAK: m/z int. rel.int.
  92.0494 4550.5 1
  93.0701 12692.6 2
  111.0804 1918811.5 446
  120.0444 99531.9 23
  137.0597 1199084.6 279
  174.054 7746.5 1
  212.1068 8407.2 1
  230.1176 4291157 999
//
