ACCESSION: MSBNK-LCSB-LU089451
RECORD_TITLE: Acetohexamide; LC-ESI-QFT; MS2; CE: 15; R=17500; [M-H]-
DATE: 2020.08.19
AUTHORS: Elapavalore, A.; Kondić, T.; Singh, R.; Schymanski, E.
LICENSE: CC BY
COPYRIGHT: Copyright © 2019 by Environmental Cheminformatics, LCSB, University of Luxembourg, Luxembourg
PUBLICATION: Elapavalore, A.; Kondić, T.; et al., Adding Open Spectral Data to MassBank and PubChem Using Open Source Tools to Support Non-Targeted Exposomics of Mixtures (submitted).
PROJECT: ENTACT U.S. Environmental Protection Agency’s Non-Targeted Analysis Collaborative Trial
COMMENT: CONFIDENCE standard compound
COMMENT: INTERNAL_ID 894
COMMENT: DATASET 20200303_ENTACT_RP_MIX508
COMMENT: DATA_PROCESSING MERGING RMBmix ver. 0.2.7
COMMENT: DATA_PROCESSING PRESCREENING Shinyscreen ver. 0.8.0
COMMENT: ORIGINAL_ACQUISITION_NO 4165
COMMENT: ORIGINAL_PRECURSOR_SCAN_NO 4163
COMMENT: RAW_DATA available as MSV000091754 at [DOI:10.25345/C5S46HG75]
CH$NAME: Acetohexamide
CH$NAME: 1-(4-acetylphenyl)sulfonyl-3-cyclohexylurea
CH$COMPOUND_CLASS: N/A; Environmental Standard
CH$FORMULA: C15H20N2O4S
CH$EXACT_MASS: 324.1144
CH$SMILES: CC(=O)C1=CC=C(C=C1)S(=O)(=O)NC(=O)NC1CCCCC1
CH$IUPAC: InChI=1S/C15H20N2O4S/c1-11(18)12-7-9-14(10-8-12)22(20,21)17-15(19)16-13-5-3-2-4-6-13/h7-10,13H,2-6H2,1H3,(H2,16,17,19)
CH$LINK: CAS 968-81-0
CH$LINK: CHEBI CHEBI:28052
CH$LINK: KEGG D00219
CH$LINK: PUBCHEM CID:1989
CH$LINK: INCHIKEY VGZSUPCWNCWDAN-UHFFFAOYSA-N
CH$LINK: CHEMSPIDER 1912
AC$INSTRUMENT: Q Exactive Orbitrap (Thermo Scientific)
AC$INSTRUMENT_TYPE: LC-ESI-QFT
AC$MASS_SPECTROMETRY: MS_TYPE MS2
AC$MASS_SPECTROMETRY: ION_MODE NEGATIVE
AC$MASS_SPECTROMETRY: IONIZATION ESI
AC$MASS_SPECTROMETRY: FRAGMENTATION_MODE HCD
AC$MASS_SPECTROMETRY: COLLISION_ENERGY 15
AC$MASS_SPECTROMETRY: RESOLUTION 17500
AC$CHROMATOGRAPHY: COLUMN_NAME Acquity BEH C18 1.7um, 2.1x150mm (Waters)
AC$CHROMATOGRAPHY: FLOW_GRADIENT 90/10 at 0-2 min, 0/100 at 15-20 min, 90/10 at 20.1-30 min
AC$CHROMATOGRAPHY: FLOW_RATE 0.20 mL/min
AC$CHROMATOGRAPHY: RETENTION_TIME 16.005 min
AC$CHROMATOGRAPHY: SOLVENT A 0.1% formic acid
AC$CHROMATOGRAPHY: SOLVENT B methanol
MS$FOCUSED_ION: BASE_PEAK 323.107
MS$FOCUSED_ION: PRECURSOR_M/Z 323.1071
MS$FOCUSED_ION: PRECURSOR_TYPE [M-H]-
MS$FOCUSED_ION: PRECURSOR_INTENSITY 21529399.38965
MS$DATA_PROCESSING: RECALIBRATE loess on assigned fragments and MS1
MS$DATA_PROCESSING: REANALYZE Peaks with additional N2/O included
MS$DATA_PROCESSING: WHOLE RMassBank 2.99.2
PK$SPLASH: splash10-00di-0409000000-cd433bdc78873ef7b774
PK$ANNOTATION: m/z tentative_formula formula_count mass error(ppm)
  78.9734 HNO2S- 1 78.9733 0.93
  134.061 C8H8NO- 2 134.0611 -0.66
  135.0452 C8H7O2- 2 135.0452 0.09
  155.0048 C6H5NO2S- 1 155.0046 0.95
  198.023 C8H8NO3S- 3 198.023 -0.24
  323.1069 C15H19N2O4S- 1 323.1071 -0.71
PK$NUM_PEAK: 6
PK$PEAK: m/z int. rel.int.
  78.9734 15051.5 1
  134.061 123758 9
  135.0452 62131.3 4
  155.0048 13494.8 1
  198.023 6138094.5 487
  323.1069 12569632 999
//
