ACCESSION: MSBNK-LCSB-LU118504
RECORD_TITLE: Methfuroxam; LC-ESI-QFT; MS2; CE: 60; R=17500; [M+H]+
DATE: 2020.08.19
AUTHORS: Elapavalore, A.; Kondić, T.; Singh, R.; Schymanski, E.
LICENSE: CC BY
COPYRIGHT: Copyright © 2019 by Environmental Cheminformatics, LCSB, University of Luxembourg, Luxembourg
PUBLICATION: Elapavalore, A.; Kondić, T.; et al., Adding Open Spectral Data to MassBank and PubChem Using Open Source Tools to Support Non-Targeted Exposomics of Mixtures (submitted).
PROJECT: ENTACT U.S. Environmental Protection Agency’s Non-Targeted Analysis Collaborative Trial
COMMENT: CONFIDENCE standard compound
COMMENT: INTERNAL_ID 1185
COMMENT: DATASET 20200303_ENTACT_RP_MIX503
COMMENT: DATA_PROCESSING MERGING RMBmix ver. 0.2.7
COMMENT: DATA_PROCESSING PRESCREENING Shinyscreen ver. 0.8.0
COMMENT: ORIGINAL_ACQUISITION_NO 8772
COMMENT: ORIGINAL_PRECURSOR_SCAN_NO 8770
COMMENT: RAW_DATA available as MSV000091754 at [DOI:10.25345/C5S46HG75]
CH$NAME: Methfuroxam
CH$NAME: 2,4,5-trimethyl-N-phenylfuran-3-carboxamide
CH$COMPOUND_CLASS: N/A; Environmental Standard
CH$FORMULA: C14H15NO2
CH$EXACT_MASS: 229.1103
CH$SMILES: CC1=C(C)C(C(=O)NC2=CC=CC=C2)=C(C)O1
CH$IUPAC: InChI=1S/C14H15NO2/c1-9-10(2)17-11(3)13(9)14(16)15-12-7-5-4-6-8-12/h4-8H,1-3H3,(H,15,16)
CH$LINK: CAS 28730-17-8
CH$LINK: CHEBI CHEBI:142825
CH$LINK: PUBCHEM CID:34313
CH$LINK: INCHIKEY ZWJNEYVWPYIKMB-UHFFFAOYSA-N
CH$LINK: CHEMSPIDER 31609
AC$INSTRUMENT: Q Exactive Orbitrap (Thermo Scientific)
AC$INSTRUMENT_TYPE: LC-ESI-QFT
AC$MASS_SPECTROMETRY: MS_TYPE MS2
AC$MASS_SPECTROMETRY: ION_MODE POSITIVE
AC$MASS_SPECTROMETRY: IONIZATION ESI
AC$MASS_SPECTROMETRY: FRAGMENTATION_MODE HCD
AC$MASS_SPECTROMETRY: COLLISION_ENERGY 60
AC$MASS_SPECTROMETRY: RESOLUTION 17500
AC$CHROMATOGRAPHY: COLUMN_NAME Acquity BEH C18 1.7um, 2.1x150mm (Waters)
AC$CHROMATOGRAPHY: FLOW_GRADIENT 90/10 at 0-2 min, 0/100 at 15-20 min, 90/10 at 20.1-30 min
AC$CHROMATOGRAPHY: FLOW_RATE 0.20 mL/min
AC$CHROMATOGRAPHY: RETENTION_TIME 16.865 min
AC$CHROMATOGRAPHY: SOLVENT A 0.1% formic acid
AC$CHROMATOGRAPHY: SOLVENT B methanol
MS$FOCUSED_ION: BASE_PEAK 79.0211
MS$FOCUSED_ION: PRECURSOR_M/Z 230.1176
MS$FOCUSED_ION: PRECURSOR_TYPE [M+H]+
MS$FOCUSED_ION: PRECURSOR_INTENSITY 8901563.40625
MS$DATA_PROCESSING: RECALIBRATE loess on assigned fragments and MS1
MS$DATA_PROCESSING: REANALYZE Peaks with additional N2/O included
MS$DATA_PROCESSING: WHOLE RMassBank 2.99.2
PK$SPLASH: splash10-000i-3900000000-0e7963f012d44f3f8fd3
PK$ANNOTATION: m/z tentative_formula formula_count mass error(ppm)
  53.0386 C4H5+ 1 53.0386 0.46
  55.0178 C3H3O+ 1 55.0178 -0.99
  55.0542 C4H7+ 1 55.0542 0.38
  65.0385 C5H5+ 1 65.0386 -0.9
  67.0542 C5H7+ 1 67.0542 -0.55
  69.0334 C4H5O+ 1 69.0335 -0.85
  77.0385 C6H5+ 1 77.0386 -0.99
  79.0542 C6H7+ 1 79.0542 -0.83
  81.0699 C6H9+ 1 81.0699 0.06
  83.0491 C5H7O+ 1 83.0491 -0.09
  83.0855 C6H11+ 1 83.0855 -0.84
  91.0542 C7H7+ 1 91.0542 0.01
  92.0495 C6H6N+ 1 92.0495 -0.02
  93.0699 C7H9+ 1 93.0699 0.37
  94.0652 C6H8N+ 1 94.0651 0.34
  95.0491 C6H7O+ 1 95.0491 0.03
  109.0648 C7H9O+ 1 109.0648 0.27
  111.0804 C7H11O+ 1 111.0804 -0.07
  120.0444 C7H6NO+ 1 120.0444 0.07
  124.0758 C7H10NO+ 1 124.0757 1.04
  137.0597 C8H9O2+ 1 137.0597 -0.16
PK$NUM_PEAK: 21
PK$PEAK: m/z int. rel.int.
  53.0386 35244.6 7
  55.0178 20037.9 4
  55.0542 84380.2 17
  65.0385 33185 6
  67.0542 444967.5 91
  69.0334 12080.6 2
  77.0385 12551.7 2
  79.0542 25277.4 5
  81.0699 96900.1 19
  83.0491 9548 1
  83.0855 50107.2 10
  91.0542 49119.6 10
  92.0495 311567.7 63
  93.0699 173523.5 35
  94.0652 8739.5 1
  95.0491 652724.2 133
  109.0648 343127 70
  111.0804 627976.4 128
  120.0444 188936.2 38
  124.0758 10313 2
  137.0597 4873059.5 999
//
