ACCESSION: MSBNK-LCSB-LU034505
RECORD_TITLE: Hexamethylphosphoramide; LC-ESI-QFT; MS2; CE: 75; R=17500; [M+H]+
DATE: 2020.08.19
AUTHORS: Elapavalore, A.; Kondić, T.; Singh, R.; Schymanski, E.
LICENSE: CC BY
COPYRIGHT: Copyright © 2019 by Environmental Cheminformatics, LCSB, University of Luxembourg, Luxembourg
PUBLICATION: Elapavalore, A.; Kondić, T.; et al., Adding Open Spectral Data to MassBank and PubChem Using Open Source Tools to Support Non-Targeted Exposomics of Mixtures (submitted).
PROJECT: ENTACT U.S. Environmental Protection Agency’s Non-Targeted Analysis Collaborative Trial
COMMENT: CONFIDENCE standard compound
COMMENT: INTERNAL_ID 345
COMMENT: DATASET 20200303_ENTACT_RP_MIX505
COMMENT: DATA_PROCESSING MERGING RMBmix ver. 0.2.7
COMMENT: DATA_PROCESSING PRESCREENING Shinyscreen ver. 0.8.0
COMMENT: ORIGINAL_ACQUISITION_NO 6839
COMMENT: ORIGINAL_PRECURSOR_SCAN_NO 6836
COMMENT: RAW_DATA available as MSV000091754 at [DOI:10.25345/C5S46HG75]
CH$NAME: Hexamethylphosphoramide
CH$NAME: N-[bis(dimethylamino)phosphoryl]-N-methylmethanamine
CH$COMPOUND_CLASS: N/A; Environmental Standard
CH$FORMULA: C6H18N3OP
CH$EXACT_MASS: 179.1187
CH$SMILES: CN(C)P(=O)(N(C)C)N(C)C
CH$IUPAC: InChI=1S/C6H18N3OP/c1-7(2)11(10,8(3)4)9(5)6/h1-6H3
CH$LINK: CAS 630-31-9
CH$LINK: CHEBI CHEBI:24565
CH$LINK: KEGG C19250
CH$LINK: PUBCHEM CID:12679
CH$LINK: INCHIKEY GNOIPBMMFNIUFM-UHFFFAOYSA-N
CH$LINK: CHEMSPIDER 12158
AC$INSTRUMENT: Q Exactive Orbitrap (Thermo Scientific)
AC$INSTRUMENT_TYPE: LC-ESI-QFT
AC$MASS_SPECTROMETRY: MS_TYPE MS2
AC$MASS_SPECTROMETRY: ION_MODE POSITIVE
AC$MASS_SPECTROMETRY: IONIZATION ESI
AC$MASS_SPECTROMETRY: FRAGMENTATION_MODE HCD
AC$MASS_SPECTROMETRY: COLLISION_ENERGY 75
AC$MASS_SPECTROMETRY: RESOLUTION 17500
AC$CHROMATOGRAPHY: COLUMN_NAME Acquity BEH C18 1.7um, 2.1x150mm (Waters)
AC$CHROMATOGRAPHY: FLOW_GRADIENT 90/10 at 0-2 min, 0/100 at 15-20 min, 90/10 at 20.1-30 min
AC$CHROMATOGRAPHY: FLOW_RATE 0.20 mL/min
AC$CHROMATOGRAPHY: RETENTION_TIME 13.053 min
AC$CHROMATOGRAPHY: SOLVENT A 0.1% formic acid
AC$CHROMATOGRAPHY: SOLVENT B methanol
MS$FOCUSED_ION: BASE_PEAK 79.0211
MS$FOCUSED_ION: PRECURSOR_M/Z 180.126
MS$FOCUSED_ION: PRECURSOR_TYPE [M+H]+
MS$FOCUSED_ION: PRECURSOR_INTENSITY 30980862.125
MS$DATA_PROCESSING: RECALIBRATE loess on assigned fragments and MS1
MS$DATA_PROCESSING: REANALYZE Peaks with additional N2/O included
MS$DATA_PROCESSING: WHOLE RMassBank 2.99.2
PK$SPLASH: splash10-000i-2900000000-1a8eaab4586756272eaa
PK$ANNOTATION: m/z tentative_formula formula_count mass error(ppm)
  58.0652 C3H8N+ 1 58.0651 1
  59.9998 CH3NP+ 2 59.9998 0.07
  73.076 C3H9N2+ 1 73.076 -0.36
  75.9947 CH3NOP+ 2 75.9947 -0.12
  88.0995 C4H12N2+ 2 88.0995 0.19
  90.0103 C2H5NOP+ 2 90.0103 -0.08
  91.0182 C2H6NOP+ 2 91.0182 0.37
  92.026 C2H7NOP+ 2 92.026 0.38
  93.0338 C2H8NOP+ 2 93.0338 0.48
  106.0417 C3H9NOP+ 1 106.0416 0.68
  111.0442 C4H5N3O+ 1 111.0427 13.53
  124.0523 C5H6N3O+ 1 124.0505 13.94
  135.0682 C4H12N2OP+ 1 135.0682 0.14
PK$NUM_PEAK: 13
PK$PEAK: m/z int. rel.int.
  58.0652 16942.1 1
  59.9998 86031 8
  73.076 180827.6 18
  75.9947 45434.4 4
  88.0995 114134.6 11
  90.0103 50952 5
  91.0182 131500.5 13
  92.026 1635247.4 165
  93.0338 10903.6 1
  106.0417 116881.3 11
  111.0442 10213.7 1
  124.0523 18079.9 1
  135.0682 9898871 999
//
