ACCESSION: MSBNK-LCSB-LU064604
RECORD_TITLE: Econazole; LC-ESI-QFT; MS2; CE: 60; R=17500; [M+H]+
DATE: 2020.08.19
AUTHORS: Elapavalore, A.; Kondić, T.; Singh, R.; Schymanski, E.
LICENSE: CC BY
COPYRIGHT: Copyright © 2019 by Environmental Cheminformatics, LCSB, University of Luxembourg, Luxembourg
PUBLICATION: Elapavalore, A.; Kondić, T.; et al., Adding Open Spectral Data to MassBank and PubChem Using Open Source Tools to Support Non-Targeted Exposomics of Mixtures (submitted).
PROJECT: ENTACT U.S. Environmental Protection Agency’s Non-Targeted Analysis Collaborative Trial
COMMENT: CONFIDENCE standard compound
COMMENT: INTERNAL_ID 646
COMMENT: DATASET 20200303_ENTACT_RP_MIX506
COMMENT: DATA_PROCESSING MERGING RMBmix ver. 0.2.7
COMMENT: DATA_PROCESSING PRESCREENING Shinyscreen ver. 0.8.0
COMMENT: ORIGINAL_ACQUISITION_NO 8770
COMMENT: ORIGINAL_PRECURSOR_SCAN_NO 8769
COMMENT: RAW_DATA available as MSV000091754 at [DOI:10.25345/C5S46HG75]
CH$NAME: Econazole
CH$NAME: 1-[2-[(4-chlorophenyl)methoxy]-2-(2,4-dichlorophenyl)ethyl]imidazole
CH$COMPOUND_CLASS: N/A; Environmental Standard
CH$FORMULA: C18H15Cl3N2O
CH$EXACT_MASS: 380.0250
CH$SMILES: ClC1=CC=C(COC(CN2C=CN=C2)C2=C(Cl)C=C(Cl)C=C2)C=C1
CH$IUPAC: InChI=1S/C18H15Cl3N2O/c19-14-3-1-13(2-4-14)11-24-18(10-23-8-7-22-12-23)16-6-5-15(20)9-17(16)21/h1-9,12,18H,10-11H2
CH$LINK: CAS 1069-66-5
CH$LINK: CHEBI CHEBI:82873
CH$LINK: KEGG C08068
CH$LINK: PUBCHEM CID:3198
CH$LINK: INCHIKEY LEZWWPYKPKIXLL-UHFFFAOYSA-N
CH$LINK: CHEMSPIDER 3086
AC$INSTRUMENT: Q Exactive Orbitrap (Thermo Scientific)
AC$INSTRUMENT_TYPE: LC-ESI-QFT
AC$MASS_SPECTROMETRY: MS_TYPE MS2
AC$MASS_SPECTROMETRY: ION_MODE POSITIVE
AC$MASS_SPECTROMETRY: IONIZATION ESI
AC$MASS_SPECTROMETRY: FRAGMENTATION_MODE HCD
AC$MASS_SPECTROMETRY: COLLISION_ENERGY 60
AC$MASS_SPECTROMETRY: RESOLUTION 17500
AC$CHROMATOGRAPHY: COLUMN_NAME Acquity BEH C18 1.7um, 2.1x150mm (Waters)
AC$CHROMATOGRAPHY: FLOW_GRADIENT 90/10 at 0-2 min, 0/100 at 15-20 min, 90/10 at 20.1-30 min
AC$CHROMATOGRAPHY: FLOW_RATE 0.20 mL/min
AC$CHROMATOGRAPHY: RETENTION_TIME 16.818 min
AC$CHROMATOGRAPHY: SOLVENT A 0.1% formic acid
AC$CHROMATOGRAPHY: SOLVENT B methanol
MS$FOCUSED_ION: BASE_PEAK 79.0211
MS$FOCUSED_ION: PRECURSOR_M/Z 381.0323
MS$FOCUSED_ION: PRECURSOR_TYPE [M+H]+
MS$FOCUSED_ION: PRECURSOR_INTENSITY 16880581.75
MS$DATA_PROCESSING: RECALIBRATE loess on assigned fragments and MS1
MS$DATA_PROCESSING: REANALYZE Peaks with additional N2/O included
MS$DATA_PROCESSING: WHOLE RMassBank 2.99.2
PK$SPLASH: splash10-004i-0900000000-c57d348cec86c8544367
PK$ANNOTATION: m/z tentative_formula formula_count mass error(ppm)
  63.0227 C5H3+ 1 63.0229 -4.36
  69.0447 C3H5N2+ 1 69.0447 -0.69
  81.0447 C4H5N2+ 1 81.0447 -0.38
  82.0526 C4H6N2+ 1 82.0525 0.04
  89.0385 C7H5+ 1 89.0386 -0.54
  90.0463 C7H6+ 1 90.0464 -0.68
  98.9996 C5H4Cl+ 1 98.9996 -0.53
  125.0151 C7H6Cl+ 2 125.0153 -0.87
  137.0153 C8H6Cl+ 2 137.0153 0.4
  158.9765 C7H5Cl2+ 2 158.9763 1.63
  170.9759 C8H5Cl2+ 2 170.9763 -1.94
  171.9837 C8H6Cl2+ 2 171.9841 -2.53
  212.0383 C14H9Cl+ 2 212.0387 -1.82
  248.0151 C14H10Cl2+ 3 248.0154 -1.19
PK$NUM_PEAK: 14
PK$PEAK: m/z int. rel.int.
  63.0227 39323 1
  69.0447 894598.5 40
  81.0447 48728.3 2
  82.0526 68247.9 3
  89.0385 599605.4 27
  90.0463 66343.2 3
  98.9996 212960.3 9
  125.0151 21996728 999
  137.0153 22086.2 1
  158.9765 33454.6 1
  170.9759 24476.2 1
  171.9837 22773.6 1
  212.0383 22732.6 1
  248.0151 27056.1 1
//
