ACCESSION: MSBNK-LCSB-LU117901
RECORD_TITLE: 5,6-Benzoflavone; LC-ESI-QFT; MS2; CE: 15; R=17500; [M+H]+
DATE: 2020.08.19
AUTHORS: Elapavalore, A.; Kondić, T.; Singh, R.; Schymanski, E.
LICENSE: CC BY
COPYRIGHT: Copyright © 2019 by Environmental Cheminformatics, LCSB, University of Luxembourg, Luxembourg
PUBLICATION: Elapavalore, A.; Kondić, T.; et al., Adding Open Spectral Data to MassBank and PubChem Using Open Source Tools to Support Non-Targeted Exposomics of Mixtures (submitted).
PROJECT: ENTACT U.S. Environmental Protection Agency’s Non-Targeted Analysis Collaborative Trial
COMMENT: CONFIDENCE standard compound
COMMENT: INTERNAL_ID 1179
COMMENT: DATASET 20200303_ENTACT_RP_MIX508
COMMENT: DATA_PROCESSING MERGING RMBmix ver. 0.2.7
COMMENT: DATA_PROCESSING PRESCREENING Shinyscreen ver. 0.8.0
COMMENT: ORIGINAL_ACQUISITION_NO 10310
COMMENT: ORIGINAL_PRECURSOR_SCAN_NO 10308
COMMENT: RAW_DATA available as MSV000091754 at [DOI:10.25345/C5S46HG75]
CH$NAME: 5,6-Benzoflavone
CH$NAME: beta-Naphthoflavone
CH$NAME: 3-phenylbenzo[f]chromen-1-one
CH$COMPOUND_CLASS: N/A; Environmental Standard
CH$FORMULA: C19H12O2
CH$EXACT_MASS: 272.0837
CH$SMILES: O=C1C=C(OC2=C1C1=C(C=CC=C1)C=C2)C1=CC=CC=C1
CH$IUPAC: InChI=1S/C19H12O2/c20-16-12-18(14-7-2-1-3-8-14)21-17-11-10-13-6-4-5-9-15(13)19(16)17/h1-12H
CH$LINK: CAS 6051-87-2
CH$LINK: CHEBI CHEBI:77013
CH$LINK: PUBCHEM CID:2361
CH$LINK: INCHIKEY OUGIDAPQYNCXRA-UHFFFAOYSA-N
CH$LINK: CHEMSPIDER 2271
AC$INSTRUMENT: Q Exactive Orbitrap (Thermo Scientific)
AC$INSTRUMENT_TYPE: LC-ESI-QFT
AC$MASS_SPECTROMETRY: MS_TYPE MS2
AC$MASS_SPECTROMETRY: ION_MODE POSITIVE
AC$MASS_SPECTROMETRY: IONIZATION ESI
AC$MASS_SPECTROMETRY: FRAGMENTATION_MODE HCD
AC$MASS_SPECTROMETRY: COLLISION_ENERGY 15
AC$MASS_SPECTROMETRY: RESOLUTION 17500
AC$CHROMATOGRAPHY: COLUMN_NAME Acquity BEH C18 1.7um, 2.1x150mm (Waters)
AC$CHROMATOGRAPHY: FLOW_GRADIENT 90/10 at 0-2 min, 0/100 at 15-20 min, 90/10 at 20.1-30 min
AC$CHROMATOGRAPHY: FLOW_RATE 0.20 mL/min
AC$CHROMATOGRAPHY: RETENTION_TIME 19.580 min
AC$CHROMATOGRAPHY: SOLVENT A 0.1% formic acid
AC$CHROMATOGRAPHY: SOLVENT B methanol
MS$FOCUSED_ION: BASE_PEAK 79.0211
MS$FOCUSED_ION: PRECURSOR_M/Z 273.091
MS$FOCUSED_ION: PRECURSOR_TYPE [M+H]+
MS$FOCUSED_ION: PRECURSOR_INTENSITY 21349291.25
MS$DATA_PROCESSING: RECALIBRATE loess on assigned fragments and MS1
MS$DATA_PROCESSING: REANALYZE Peaks with additional N2/O included
MS$DATA_PROCESSING: WHOLE RMassBank 2.99.2
PK$SPLASH: splash10-00di-0090000000-01764c85da4465aa6160
PK$ANNOTATION: m/z tentative_formula formula_count mass error(ppm)
  127.055 C10H7+ 1 127.0542 6.21
  272.0837 C19H12O2+ 1 272.0832 1.83
  273.0909 C19H13O2+ 1 273.091 -0.45
PK$NUM_PEAK: 3
PK$PEAK: m/z int. rel.int.
  127.055 32306.7 1
  272.0837 25695.4 1
  273.0909 18421324 999
//
