ACCESSION: MSBNK-LCSB-LU078504
RECORD_TITLE: Diethylene glycol dibenzoate; LC-ESI-QFT; MS2; CE: 60; R=17500; [M+H]+
DATE: 2020.08.19
AUTHORS: Elapavalore, A.; Kondić, T.; Singh, R.; Schymanski, E.
LICENSE: CC BY
COPYRIGHT: Copyright © 2019 by Environmental Cheminformatics, LCSB, University of Luxembourg, Luxembourg
PUBLICATION: Elapavalore, A.; Kondić, T.; et al., Adding Open Spectral Data to MassBank and PubChem Using Open Source Tools to Support Non-Targeted Exposomics of Mixtures (submitted).
PROJECT: ENTACT U.S. Environmental Protection Agency’s Non-Targeted Analysis Collaborative Trial
COMMENT: CONFIDENCE standard compound
COMMENT: INTERNAL_ID 785
COMMENT: DATASET 20200303_ENTACT_RP_MIX508
COMMENT: DATA_PROCESSING MERGING RMBmix ver. 0.2.7
COMMENT: DATA_PROCESSING PRESCREENING Shinyscreen ver. 0.8.0
COMMENT: ORIGINAL_ACQUISITION_NO 9460
COMMENT: ORIGINAL_PRECURSOR_SCAN_NO 9458
COMMENT: RAW_DATA available as MSV000091754 at [DOI:10.25345/C5S46HG75]
CH$NAME: Diethylene glycol dibenzoate
CH$NAME: 2-(2-benzoyloxyethoxy)ethyl benzoate
CH$COMPOUND_CLASS: N/A; Environmental Standard
CH$FORMULA: C18H18O5
CH$EXACT_MASS: 314.1154
CH$SMILES: O=C(OCCOCCOC(=O)C1=CC=CC=C1)C1=CC=CC=C1
CH$IUPAC: InChI=1S/C18H18O5/c19-17(15-7-3-1-4-8-15)22-13-11-21-12-14-23-18(20)16-9-5-2-6-10-16/h1-10H,11-14H2
CH$LINK: CAS 120-55-8
CH$LINK: PUBCHEM CID:8437
CH$LINK: INCHIKEY NXQMCAOPTPLPRL-UHFFFAOYSA-N
CH$LINK: CHEMSPIDER 8129
AC$INSTRUMENT: Q Exactive Orbitrap (Thermo Scientific)
AC$INSTRUMENT_TYPE: LC-ESI-QFT
AC$MASS_SPECTROMETRY: MS_TYPE MS2
AC$MASS_SPECTROMETRY: ION_MODE POSITIVE
AC$MASS_SPECTROMETRY: IONIZATION ESI
AC$MASS_SPECTROMETRY: FRAGMENTATION_MODE HCD
AC$MASS_SPECTROMETRY: COLLISION_ENERGY 60
AC$MASS_SPECTROMETRY: RESOLUTION 17500
AC$CHROMATOGRAPHY: COLUMN_NAME Acquity BEH C18 1.7um, 2.1x150mm (Waters)
AC$CHROMATOGRAPHY: FLOW_GRADIENT 90/10 at 0-2 min, 0/100 at 15-20 min, 90/10 at 20.1-30 min
AC$CHROMATOGRAPHY: FLOW_RATE 0.20 mL/min
AC$CHROMATOGRAPHY: RETENTION_TIME 18.007 min
AC$CHROMATOGRAPHY: SOLVENT A 0.1% formic acid
AC$CHROMATOGRAPHY: SOLVENT B methanol
MS$FOCUSED_ION: BASE_PEAK 79.0211
MS$FOCUSED_ION: PRECURSOR_M/Z 315.1227
MS$FOCUSED_ION: PRECURSOR_TYPE [M+H]+
MS$FOCUSED_ION: PRECURSOR_INTENSITY 3299119.8125
MS$DATA_PROCESSING: RECALIBRATE loess on assigned fragments and MS1
MS$DATA_PROCESSING: REANALYZE Peaks with additional N2/O included
MS$DATA_PROCESSING: WHOLE RMassBank 2.99.2
PK$SPLASH: splash10-0a4i-2900000000-0613bfb6316f99c7db0f
PK$ANNOTATION: m/z tentative_formula formula_count mass error(ppm)
  83.0491 C5H7O+ 1 83.0491 0.06
  91.0544 C7H7+ 1 91.0542 2.4
  105.0336 C7H5O+ 1 105.0335 0.71
  109.0649 C7H9O+ 1 109.0648 0.77
  149.0599 C9H9O2+ 1 149.0597 1.06
  162.0664 C10H10O2+ 1 162.0675 -7.04
PK$NUM_PEAK: 6
PK$PEAK: m/z int. rel.int.
  83.0491 1710.5 307
  91.0544 2163.7 389
  105.0336 5555.4 999
  109.0649 3061.8 550
  149.0599 2368.7 425
  162.0664 1851.8 333
//
