ACCESSION: MSBNK-LCSB-LU061002
RECORD_TITLE: Tris(2-butoxyethyl) phosphate; LC-ESI-QFT; MS2; CE: 30; R=17500; [M+H]+
DATE: 2020.08.19
AUTHORS: Elapavalore, A.; Kondić, T.; Singh, R.; Schymanski, E.
LICENSE: CC BY
COPYRIGHT: Copyright © 2019 by Environmental Cheminformatics, LCSB, University of Luxembourg, Luxembourg
PUBLICATION: Elapavalore, A.; Kondić, T.; et al., Adding Open Spectral Data to MassBank and PubChem Using Open Source Tools to Support Non-Targeted Exposomics of Mixtures (submitted).
PROJECT: ENTACT U.S. Environmental Protection Agency’s Non-Targeted Analysis Collaborative Trial
COMMENT: CONFIDENCE standard compound
COMMENT: INTERNAL_ID 610
COMMENT: DATASET 20200303_ENTACT_RP_MIX506
COMMENT: DATA_PROCESSING MERGING RMBmix ver. 0.2.7
COMMENT: DATA_PROCESSING PRESCREENING Shinyscreen ver. 0.8.0
COMMENT: ORIGINAL_ACQUISITION_NO 10134
COMMENT: ORIGINAL_PRECURSOR_SCAN_NO 10129
COMMENT: RAW_DATA available as MSV000091754 at [DOI:10.25345/C5S46HG75]
CH$NAME: Tris(2-butoxyethyl) phosphate
CH$COMPOUND_CLASS: N/A; Environmental Standard
CH$FORMULA: C18H39O7P
CH$EXACT_MASS: 398.2433
CH$SMILES: CCCCOCCOP(=O)(OCCOCCCC)OCCOCCCC
CH$IUPAC: InChI=1S/C18H39O7P/c1-4-7-10-20-13-16-23-26(19,24-17-14-21-11-8-5-2)25-18-15-22-12-9-6-3/h4-18H2,1-3H3
CH$LINK: CAS 78-51-3
CH$LINK: CHEBI CHEBI:35038
CH$LINK: KEGG C14446
CH$LINK: PUBCHEM CID:6540
CH$LINK: INCHIKEY WTLBZVNBAKMVDP-UHFFFAOYSA-N
CH$LINK: CHEMSPIDER 6292
AC$INSTRUMENT: Q Exactive Orbitrap (Thermo Scientific)
AC$INSTRUMENT_TYPE: LC-ESI-QFT
AC$MASS_SPECTROMETRY: MS_TYPE MS2
AC$MASS_SPECTROMETRY: ION_MODE POSITIVE
AC$MASS_SPECTROMETRY: IONIZATION ESI
AC$MASS_SPECTROMETRY: FRAGMENTATION_MODE HCD
AC$MASS_SPECTROMETRY: COLLISION_ENERGY 30
AC$MASS_SPECTROMETRY: RESOLUTION 17500
AC$CHROMATOGRAPHY: COLUMN_NAME Acquity BEH C18 1.7um, 2.1x150mm (Waters)
AC$CHROMATOGRAPHY: FLOW_GRADIENT 90/10 at 0-2 min, 0/100 at 15-20 min, 90/10 at 20.1-30 min
AC$CHROMATOGRAPHY: FLOW_RATE 0.20 mL/min
AC$CHROMATOGRAPHY: RETENTION_TIME 19.345 min
AC$CHROMATOGRAPHY: SOLVENT A 0.1% formic acid
AC$CHROMATOGRAPHY: SOLVENT B methanol
MS$FOCUSED_ION: BASE_PEAK 79.0211
MS$FOCUSED_ION: PRECURSOR_M/Z 399.2506
MS$FOCUSED_ION: PRECURSOR_TYPE [M+H]+
MS$FOCUSED_ION: PRECURSOR_INTENSITY 33905320.6875
MS$DATA_PROCESSING: RECALIBRATE loess on assigned fragments and MS1
MS$DATA_PROCESSING: REANALYZE Peaks with additional N2/O included
MS$DATA_PROCESSING: WHOLE RMassBank 2.99.2
PK$SPLASH: splash10-0pba-9700000000-f583ae700bb2968d4d52
PK$ANNOTATION: m/z tentative_formula formula_count mass error(ppm)
  53.0022 C3HO+ 1 53.0022 0.52
  53.0386 C4H5+ 1 53.0386 -0.28
  55.0542 C4H7+ 1 55.0542 0.03
  57.0699 C4H9+ 1 57.0699 -0.13
  59.0491 C3H7O+ 1 59.0491 -0.12
  71.0854 C5H11+ 1 71.0855 -2.08
  83.0855 C6H11+ 1 83.0855 -0.44
  89.0597 C4H9O2+ 1 89.0597 -0.06
  98.9841 H4O4P+ 1 98.9842 -0.24
  101.0961 C6H13O+ 1 101.0961 -0.04
  116.995 H6O5P+ 1 116.9947 2.32
  124.9998 C2H6O4P+ 1 124.9998 -0.09
  143.0104 C2H8O5P+ 1 143.0104 -0.05
  145.1224 C8H17O2+ 1 145.1223 0.71
  169.0258 C4H10O5P+ 1 169.026 -1.58
  199.073 C6H16O5P+ 2 199.073 -0.05
  225.0885 C8H18O5P+ 2 225.0886 -0.62
  243.0992 C8H20O6P+ 2 243.0992 -0.12
  255.1346 C10H24O5P+ 2 255.1356 -3.72
  299.1618 C12H28O6P+ 1 299.1618 0.12
PK$NUM_PEAK: 20
PK$PEAK: m/z int. rel.int.
  53.0022 30069.2 8
  53.0386 19645.4 5
  55.0542 1315731.1 365
  57.0699 3599485.2 999
  59.0491 345529.4 95
  71.0854 10808.2 2
  83.0855 1496628.8 415
  89.0597 49534 13
  98.9841 586357.3 162
  101.0961 2759671.2 765
  116.995 5433.3 1
  124.9998 238717.5 66
  143.0104 794400.6 220
  145.1224 14450.1 4
  169.0258 15579.5 4
  199.073 2032822.6 564
  225.0885 29804.6 8
  243.0992 57914.2 16
  255.1346 7306.9 2
  299.1618 147788.5 41
//
