ACCESSION: MSBNK-LCSB-LU112156
RECORD_TITLE: Famotidine; LC-ESI-QFT; MS2; CE: 90; R=17500; [M-H]-
DATE: 2020.08.19
AUTHORS: Elapavalore, A.; Kondić, T.; Singh, R.; Schymanski, E.
LICENSE: CC BY
COPYRIGHT: Copyright © 2019 by Environmental Cheminformatics, LCSB, University of Luxembourg, Luxembourg
PUBLICATION: Elapavalore, A.; Kondić, T.; et al., Adding Open Spectral Data to MassBank and PubChem Using Open Source Tools to Support Non-Targeted Exposomics of Mixtures (submitted).
PROJECT: ENTACT U.S. Environmental Protection Agency’s Non-Targeted Analysis Collaborative Trial
COMMENT: CONFIDENCE standard compound
COMMENT: INTERNAL_ID 1121
COMMENT: DATASET 20200303_ENTACT_RP_MIX505
COMMENT: DATA_PROCESSING MERGING RMBmix ver. 0.2.7
COMMENT: DATA_PROCESSING PRESCREENING Shinyscreen ver. 0.8.0
COMMENT: ORIGINAL_ACQUISITION_NO 2002
COMMENT: ORIGINAL_PRECURSOR_SCAN_NO 2000
COMMENT: RAW_DATA available as MSV000091754 at [DOI:10.25345/C5S46HG75]
CH$NAME: Famotidine
CH$NAME: 3-[[2-(diaminomethylideneamino)-1,3-thiazol-4-yl]methylsulfanyl]-N'-sulfamoylpropanimidamide
CH$COMPOUND_CLASS: N/A; Environmental Standard
CH$FORMULA: C8H15N7O2S3
CH$EXACT_MASS: 337.0449
CH$SMILES: NC(N)=NC1=NC(CSCCC(N)=NS(N)(=O)=O)=CS1
CH$IUPAC: InChI=1S/C8H15N7O2S3/c9-6(15-20(12,16)17)1-2-18-3-5-4-19-8(13-5)14-7(10)11/h4H,1-3H2,(H2,9,15)(H2,12,16,17)(H4,10,11,13,14)
CH$LINK: CAS 76824-35-6
CH$LINK: CHEBI CHEBI:4975
CH$LINK: KEGG D00318
CH$LINK: PUBCHEM CID:3325
CH$LINK: INCHIKEY XUFQPHANEAPEMJ-UHFFFAOYSA-N
CH$LINK: CHEMSPIDER 3208
AC$INSTRUMENT: Q Exactive Orbitrap (Thermo Scientific)
AC$INSTRUMENT_TYPE: LC-ESI-QFT
AC$MASS_SPECTROMETRY: MS_TYPE MS2
AC$MASS_SPECTROMETRY: ION_MODE NEGATIVE
AC$MASS_SPECTROMETRY: IONIZATION ESI
AC$MASS_SPECTROMETRY: FRAGMENTATION_MODE HCD
AC$MASS_SPECTROMETRY: COLLISION_ENERGY 90
AC$MASS_SPECTROMETRY: RESOLUTION 17500
AC$CHROMATOGRAPHY: COLUMN_NAME Acquity BEH C18 1.7um, 2.1x150mm (Waters)
AC$CHROMATOGRAPHY: FLOW_GRADIENT 90/10 at 0-2 min, 0/100 at 15-20 min, 90/10 at 20.1-30 min
AC$CHROMATOGRAPHY: FLOW_RATE 0.20 mL/min
AC$CHROMATOGRAPHY: RETENTION_TIME 8.018 min
AC$CHROMATOGRAPHY: SOLVENT A 0.1% formic acid
AC$CHROMATOGRAPHY: SOLVENT B methanol
MS$FOCUSED_ION: BASE_PEAK 185.0456
MS$FOCUSED_ION: PRECURSOR_M/Z 336.0377
MS$FOCUSED_ION: PRECURSOR_TYPE [M-H]-
MS$FOCUSED_ION: PRECURSOR_INTENSITY 1021879.964355
MS$DATA_PROCESSING: RECALIBRATE loess on assigned fragments and MS1
MS$DATA_PROCESSING: REANALYZE Peaks with additional N2/O included
MS$DATA_PROCESSING: WHOLE RMassBank 2.99.2
PK$SPLASH: splash10-004l-9000000000-62cbecb8fe68f9ce1076
PK$ANNOTATION: m/z tentative_formula formula_count mass error(ppm)
  57.0458 C2H5N2- 1 57.0458 -0.91
  57.9756 CNS- 1 57.9757 -1.16
  58.9961 C2H3S- 1 58.9961 -0.49
  63.9625 O2S- 1 63.9624 0.79
  66.0098 C2N3- 1 66.0098 0.5
  77.9655 NO2S- 1 77.9655 0.25
  78.9733 HNO2S- 1 78.9733 -0.06
  83.0362 C2H3N4- 1 83.0363 -0.95
  86.0069 C3H4NS- 1 86.007 -0.61
  94.9921 H3N2O2S- 1 94.9921 0.27
  103.0335 C3H7N2S- 1 103.0335 0.05
  111.0022 C4H3N2S- 1 111.0022 -0.71
PK$NUM_PEAK: 12
PK$PEAK: m/z int. rel.int.
  57.0458 3003.2 19
  57.9756 15656.7 100
  58.9961 27605.9 177
  63.9625 15898.5 102
  66.0098 10204.4 65
  77.9655 131013.7 841
  78.9733 29286 188
  83.0362 2521.2 16
  86.0069 2062.6 13
  94.9921 155611 999
  103.0335 5511.1 35
  111.0022 13018.3 83
//
