ACCESSION: MSBNK-LCSB-LU035653
RECORD_TITLE: Ethirimol; LC-ESI-QFT; MS2; CE: 45; R=17500; [M-H]-
DATE: 2020.08.19
AUTHORS: Elapavalore, A.; Kondić, T.; Singh, R.; Schymanski, E.
LICENSE: CC BY
COPYRIGHT: Copyright © 2019 by Environmental Cheminformatics, LCSB, University of Luxembourg, Luxembourg
PUBLICATION: Elapavalore, A.; Kondić, T.; et al., Adding Open Spectral Data to MassBank and PubChem Using Open Source Tools to Support Non-Targeted Exposomics of Mixtures (submitted).
PROJECT: ENTACT U.S. Environmental Protection Agency’s Non-Targeted Analysis Collaborative Trial
COMMENT: CONFIDENCE standard compound
COMMENT: INTERNAL_ID 356
COMMENT: DATASET 20200303_ENTACT_RP_MIX505
COMMENT: DATA_PROCESSING MERGING RMBmix ver. 0.2.7
COMMENT: DATA_PROCESSING PRESCREENING Shinyscreen ver. 0.8.0
COMMENT: ORIGINAL_ACQUISITION_NO 3289
COMMENT: ORIGINAL_PRECURSOR_SCAN_NO 3286
COMMENT: RAW_DATA available as MSV000091754 at [DOI:10.25345/C5S46HG75]
CH$NAME: Ethirimol
CH$NAME: 5-butyl-2-(ethylamino)-6-methyl-1H-pyrimidin-4-one
CH$COMPOUND_CLASS: N/A; Environmental Standard
CH$FORMULA: C11H19N3O
CH$EXACT_MASS: 209.1528
CH$SMILES: CCCCC1=C(O)N=C(NCC)N=C1C
CH$IUPAC: InChI=1S/C11H19N3O/c1-4-6-7-9-8(3)13-11(12-5-2)14-10(9)15/h4-7H2,1-3H3,(H2,12,13,14,15)
CH$LINK: CAS 23947-60-6
CH$LINK: CHEBI CHEBI:81989
CH$LINK: CHEMSPIDER 29820
CH$LINK: INCHIKEY BBXXLROWFHWFQY-UHFFFAOYSA-N
CH$LINK: KEGG C18828
CH$LINK: PUBCHEM CID:135424354
AC$INSTRUMENT: Q Exactive Orbitrap (Thermo Scientific)
AC$INSTRUMENT_TYPE: LC-ESI-QFT
AC$MASS_SPECTROMETRY: MS_TYPE MS2
AC$MASS_SPECTROMETRY: ION_MODE NEGATIVE
AC$MASS_SPECTROMETRY: IONIZATION ESI
AC$MASS_SPECTROMETRY: FRAGMENTATION_MODE HCD
AC$MASS_SPECTROMETRY: COLLISION_ENERGY 45
AC$MASS_SPECTROMETRY: RESOLUTION 17500
AC$CHROMATOGRAPHY: COLUMN_NAME Acquity BEH C18 1.7um, 2.1x150mm (Waters)
AC$CHROMATOGRAPHY: FLOW_GRADIENT 90/10 at 0-2 min, 0/100 at 15-20 min, 90/10 at 20.1-30 min
AC$CHROMATOGRAPHY: FLOW_RATE 0.20 mL/min
AC$CHROMATOGRAPHY: RETENTION_TIME 13.213 min
AC$CHROMATOGRAPHY: SOLVENT A 0.1% formic acid
AC$CHROMATOGRAPHY: SOLVENT B methanol
MS$FOCUSED_ION: BASE_PEAK 118.0298
MS$FOCUSED_ION: PRECURSOR_M/Z 208.1455
MS$FOCUSED_ION: PRECURSOR_TYPE [M-H]-
MS$FOCUSED_ION: PRECURSOR_INTENSITY 11118395.01904
MS$DATA_PROCESSING: RECALIBRATE loess on assigned fragments and MS1
MS$DATA_PROCESSING: REANALYZE Peaks with additional N2/O included
MS$DATA_PROCESSING: WHOLE RMassBank 2.99.2
PK$SPLASH: splash10-014i-9330000000-4645c640d024a8ab11b3
PK$ANNOTATION: m/z tentative_formula formula_count mass error(ppm)
  67.0301 C3H3N2- 1 67.0302 -0.59
  69.0458 C3H5N2- 1 69.0458 -0.07
  136.0515 C6H6N3O- 1 136.0516 -0.68
  137.0596 C6H7N3O- 1 137.0595 0.69
  137.1084 C8H13N2- 1 137.1084 -0.4
  150.0673 C7H8N3O- 1 150.0673 0.35
  165.0907 C8H11N3O- 1 165.0908 -0.65
  180.1142 C9H14N3O- 1 180.1142 0.07
  192.1141 C10H14N3O- 1 192.1142 -0.46
  206.1297 C11H16N3O- 1 206.1299 -0.77
  208.1455 C11H18N3O- 1 208.1455 -0.37
PK$NUM_PEAK: 11
PK$PEAK: m/z int. rel.int.
  67.0301 16458.4 4
  69.0458 3401826 999
  136.0515 18325.7 5
  137.0596 3868.4 1
  137.1084 63146.5 18
  150.0673 10142.8 2
  165.0907 58207.4 17
  180.1142 1197210 351
  192.1141 16947.7 4
  206.1297 43633.9 12
  208.1455 1108500.2 325
//
