ACCESSION: MSBNK-LCSB-LU055104
RECORD_TITLE: 4,4`-Sulfonyldiphenol; LC-ESI-QFT; MS2; CE: 60; R=17500; [M+H]+
DATE: 2020.08.19
AUTHORS: Elapavalore, A.; Kondić, T.; Singh, R.; Schymanski, E.
LICENSE: CC BY
COPYRIGHT: Copyright © 2019 by Environmental Cheminformatics, LCSB, University of Luxembourg, Luxembourg
PUBLICATION: Elapavalore, A.; Kondić, T.; et al., Adding Open Spectral Data to MassBank and PubChem Using Open Source Tools to Support Non-Targeted Exposomics of Mixtures (submitted).
PROJECT: ENTACT U.S. Environmental Protection Agency’s Non-Targeted Analysis Collaborative Trial
COMMENT: CONFIDENCE standard compound
COMMENT: INTERNAL_ID 551
COMMENT: DATASET 20200303_ENTACT_RP_MIX506
COMMENT: DATA_PROCESSING MERGING RMBmix ver. 0.2.7
COMMENT: DATA_PROCESSING PRESCREENING Shinyscreen ver. 0.8.0
COMMENT: ORIGINAL_ACQUISITION_NO 7099
COMMENT: ORIGINAL_PRECURSOR_SCAN_NO 7095
COMMENT: RAW_DATA available as MSV000091754 at [DOI:10.25345/C5S46HG75]
CH$NAME: 4,4'-Sulfonyldiphenol
CH$NAME: 4-(4-hydroxyphenyl)sulfonylphenol
CH$COMPOUND_CLASS: N/A; Environmental Standard
CH$FORMULA: C12H10O4S
CH$EXACT_MASS: 250.0300
CH$SMILES: OC1=CC=C(C=C1)S(=O)(=O)C1=CC=C(O)C=C1
CH$IUPAC: InChI=1S/C12H10O4S/c13-9-1-5-11(6-2-9)17(15,16)12-7-3-10(14)4-8-12/h1-8,13-14H
CH$LINK: CAS 80-09-1
CH$LINK: CHEBI CHEBI:34372
CH$LINK: KEGG C14216
CH$LINK: PUBCHEM CID:6626
CH$LINK: INCHIKEY VPWNQTHUCYMVMZ-UHFFFAOYSA-N
CH$LINK: CHEMSPIDER 6374
AC$INSTRUMENT: Q Exactive Orbitrap (Thermo Scientific)
AC$INSTRUMENT_TYPE: LC-ESI-QFT
AC$MASS_SPECTROMETRY: MS_TYPE MS2
AC$MASS_SPECTROMETRY: ION_MODE POSITIVE
AC$MASS_SPECTROMETRY: IONIZATION ESI
AC$MASS_SPECTROMETRY: FRAGMENTATION_MODE HCD
AC$MASS_SPECTROMETRY: COLLISION_ENERGY 60
AC$MASS_SPECTROMETRY: RESOLUTION 17500
AC$CHROMATOGRAPHY: COLUMN_NAME Acquity BEH C18 1.7um, 2.1x150mm (Waters)
AC$CHROMATOGRAPHY: FLOW_GRADIENT 90/10 at 0-2 min, 0/100 at 15-20 min, 90/10 at 20.1-30 min
AC$CHROMATOGRAPHY: FLOW_RATE 0.20 mL/min
AC$CHROMATOGRAPHY: RETENTION_TIME 13.605 min
AC$CHROMATOGRAPHY: SOLVENT A 0.1% formic acid
AC$CHROMATOGRAPHY: SOLVENT B methanol
MS$FOCUSED_ION: BASE_PEAK 79.0211
MS$FOCUSED_ION: PRECURSOR_M/Z 251.0373
MS$FOCUSED_ION: PRECURSOR_TYPE [M+H]+
MS$FOCUSED_ION: PRECURSOR_INTENSITY 2224754.625
MS$DATA_PROCESSING: RECALIBRATE loess on assigned fragments and MS1
MS$DATA_PROCESSING: REANALYZE Peaks with additional N2/O included
MS$DATA_PROCESSING: WHOLE RMassBank 2.99.2
PK$SPLASH: splash10-07vi-7900000000-045903de221d975ac1a4
PK$ANNOTATION: m/z tentative_formula formula_count mass error(ppm)
  51.023 C4H3+ 1 51.0229 2.02
  53.0022 C3HO+ 1 53.0022 0.88
  53.0387 C4H5+ 1 53.0386 2.52
  55.0179 C3H3O+ 1 55.0178 0.94
  61.0106 C2H5S+ 1 61.0106 -0.01
  65.0386 C5H5+ 1 65.0386 0.33
  68.9971 C3HO2+ 1 68.9971 0.35
  69.0335 C4H5O+ 1 69.0335 0.79
  71.0128 C3H3O2+ 1 71.0128 0.94
  79.0179 C5H3O+ 1 79.0178 0.77
  81.0335 C5H5O+ 1 81.0335 0.69
  83.0127 C4H3O2+ 1 83.0128 -0.78
  93.0335 C6H5O+ 1 93.0335 -0.18
  94.0414 C6H6O+ 1 94.0413 1.06
  95.0493 C6H7O+ 1 95.0491 1.39
  97.0287 C5H5O2+ 1 97.0284 2.83
  109.0285 C6H5O2+ 1 109.0284 0.99
  110.0363 C6H6O2+ 1 110.0362 0.6
  111.0441 C6H7O2+ 1 111.0441 0.63
  122.0367 C7H6O2+ 1 122.0362 3.67
  141 C6H5O2S+ 1 141.0005 -3.14
  156.9955 C6H5O3S+ 1 156.9954 0.83
PK$NUM_PEAK: 22
PK$PEAK: m/z int. rel.int.
  51.023 2192.6 4
  53.0022 5781 12
  53.0387 4093.8 8
  55.0179 19337.6 42
  61.0106 19203.2 41
  65.0386 458040 999
  68.9971 12191.1 26
  69.0335 4685.7 10
  71.0128 12997.1 28
  79.0179 7453.1 16
  81.0335 21478.7 46
  83.0127 2358.4 5
  93.0335 20739.9 45
  94.0414 20608.6 44
  95.0493 2806.3 6
  97.0287 2928.4 6
  109.0285 271764 592
  110.0363 7970.6 17
  111.0441 365310.9 796
  122.0367 4978.7 10
  141 3185.8 6
  156.9955 88491.3 193
//
