ACCESSION: MSBNK-LCSB-LU107801
RECORD_TITLE: Phosfolan; LC-ESI-QFT; MS2; CE: 15; R=17500; [M+H]+
DATE: 2020.08.19
AUTHORS: Elapavalore, A.; Kondić, T.; Singh, R.; Schymanski, E.
LICENSE: CC BY
COPYRIGHT: Copyright © 2019 by Environmental Cheminformatics, LCSB, University of Luxembourg, Luxembourg
PUBLICATION: Elapavalore, A.; Kondić, T.; et al., Adding Open Spectral Data to MassBank and PubChem Using Open Source Tools to Support Non-Targeted Exposomics of Mixtures (submitted).
PROJECT: ENTACT U.S. Environmental Protection Agency’s Non-Targeted Analysis Collaborative Trial
COMMENT: CONFIDENCE standard compound
COMMENT: INTERNAL_ID 1078
COMMENT: DATASET 20200303_ENTACT_RP_MIX503
COMMENT: DATA_PROCESSING MERGING RMBmix ver. 0.2.7
COMMENT: DATA_PROCESSING PRESCREENING Shinyscreen ver. 0.8.0
COMMENT: ORIGINAL_ACQUISITION_NO 7376
COMMENT: ORIGINAL_PRECURSOR_SCAN_NO 7374
COMMENT: RAW_DATA available as MSV000091754 at [DOI:10.25345/C5S46HG75]
CH$NAME: Phosfolan
CH$NAME: N-diethoxyphosphoryl-1,3-dithiolan-2-imine
CH$COMPOUND_CLASS: N/A; Environmental Standard
CH$FORMULA: C7H14NO3PS2
CH$EXACT_MASS: 255.0153
CH$SMILES: CCOP(=O)(OCC)N=C1SCCS1
CH$IUPAC: InChI=1S/C7H14NO3PS2/c1-3-10-12(9,11-4-2)8-7-13-5-6-14-7/h3-6H2,1-2H3
CH$LINK: CAS 947-02-4
CH$LINK: CHEBI CHEBI:82145
CH$LINK: KEGG C19011
CH$LINK: PUBCHEM CID:13689
CH$LINK: INCHIKEY ILBONRFSLATCRE-UHFFFAOYSA-N
CH$LINK: CHEMSPIDER 13098
AC$INSTRUMENT: Q Exactive Orbitrap (Thermo Scientific)
AC$INSTRUMENT_TYPE: LC-ESI-QFT
AC$MASS_SPECTROMETRY: MS_TYPE MS2
AC$MASS_SPECTROMETRY: ION_MODE POSITIVE
AC$MASS_SPECTROMETRY: IONIZATION ESI
AC$MASS_SPECTROMETRY: FRAGMENTATION_MODE HCD
AC$MASS_SPECTROMETRY: COLLISION_ENERGY 15
AC$MASS_SPECTROMETRY: RESOLUTION 17500
AC$CHROMATOGRAPHY: COLUMN_NAME Acquity BEH C18 1.7um, 2.1x150mm (Waters)
AC$CHROMATOGRAPHY: FLOW_GRADIENT 90/10 at 0-2 min, 0/100 at 15-20 min, 90/10 at 20.1-30 min
AC$CHROMATOGRAPHY: FLOW_RATE 0.20 mL/min
AC$CHROMATOGRAPHY: RETENTION_TIME 14.064 min
AC$CHROMATOGRAPHY: SOLVENT A 0.1% formic acid
AC$CHROMATOGRAPHY: SOLVENT B methanol
MS$FOCUSED_ION: BASE_PEAK 79.0212
MS$FOCUSED_ION: PRECURSOR_M/Z 256.0225
MS$FOCUSED_ION: PRECURSOR_TYPE [M+H]+
MS$FOCUSED_ION: PRECURSOR_INTENSITY 30079382.65625
MS$DATA_PROCESSING: RECALIBRATE loess on assigned fragments and MS1
MS$DATA_PROCESSING: REANALYZE Peaks with additional N2/O included
MS$DATA_PROCESSING: WHOLE RMassBank 2.99.2
PK$SPLASH: splash10-0a6s-0490000000-f3d621060f0bb9162530
PK$ANNOTATION: m/z tentative_formula formula_count mass error(ppm)
  61.0106 C2H5S+ 1 61.0106 -0.17
  139.9565 CH3NO3PS+ 2 139.9566 -0.41
  167.9879 C3H7NO3PS+ 2 167.9879 0.26
  196.0193 C5H11NO3PS+ 2 196.0192 0.73
  199.96 C3H7NO3PS2+ 2 199.9599 0.36
  227.9913 C5H11NO3PS2+ 1 227.9912 0.12
  256.0225 C7H15NO3PS2+ 1 256.0225 -0.13
PK$NUM_PEAK: 7
PK$PEAK: m/z int. rel.int.
  61.0106 1009725.8 88
  139.9565 666068.2 58
  167.9879 2448814.8 214
  196.0193 4392208.5 383
  199.96 1830894.6 160
  227.9913 6154804.5 538
  256.0225 11426907 999
//
