ACCESSION: MSBNK-LCSB-LU109302
RECORD_TITLE: CP-457677; LC-ESI-QFT; MS2; CE: 30; R=17500; [M+H]+
DATE: 2020.08.19
AUTHORS: Elapavalore, A.; Kondić, T.; Singh, R.; Schymanski, E.
LICENSE: CC BY
COPYRIGHT: Copyright © 2019 by Environmental Cheminformatics, LCSB, University of Luxembourg, Luxembourg
PUBLICATION: Elapavalore, A.; Kondić, T.; et al., Adding Open Spectral Data to MassBank and PubChem Using Open Source Tools to Support Non-Targeted Exposomics of Mixtures (submitted).
PROJECT: ENTACT U.S. Environmental Protection Agency’s Non-Targeted Analysis Collaborative Trial
COMMENT: CONFIDENCE standard compound
COMMENT: INTERNAL_ID 1093
COMMENT: DATASET 20200303_ENTACT_RP_MIX503
COMMENT: DATA_PROCESSING MERGING RMBmix ver. 0.2.7
COMMENT: DATA_PROCESSING PRESCREENING Shinyscreen ver. 0.8.0
COMMENT: ORIGINAL_ACQUISITION_NO 8711
COMMENT: ORIGINAL_PRECURSOR_SCAN_NO 8708
COMMENT: RAW_DATA available as MSV000091754 at [DOI:10.25345/C5S46HG75]
CH$NAME: CP-457677
CH$NAME: 3-Pyridinecarboxamide, 2-(4-fluorophenoxy)-N-((4-(1-hydroxy-1-methylethyl)phenyl)methyl)-
CH$NAME: 2-(4-fluorophenoxy)-N-[[4-(2-hydroxypropan-2-yl)phenyl]methyl]pyridine-3-carboxamide
CH$COMPOUND_CLASS: N/A; Environmental Standard
CH$FORMULA: C22H21FN2O3
CH$EXACT_MASS: 380.1536
CH$SMILES: CC(C)(O)C1=CC=C(CNC(=O)C2=CC=CN=C2OC2=CC=C(F)C=C2)C=C1
CH$IUPAC: InChI=1S/C22H21FN2O3/c1-22(2,27)16-7-5-15(6-8-16)14-25-20(26)19-4-3-13-24-21(19)28-18-11-9-17(23)10-12-18/h3-13,27H,14H2,1-2H3,(H,25,26)
CH$LINK: PUBCHEM CID:10407399
CH$LINK: INCHIKEY UHBUSMAHWHZQKS-UHFFFAOYSA-N
CH$LINK: CHEMSPIDER 8582837
AC$INSTRUMENT: Q Exactive Orbitrap (Thermo Scientific)
AC$INSTRUMENT_TYPE: LC-ESI-QFT
AC$MASS_SPECTROMETRY: MS_TYPE MS2
AC$MASS_SPECTROMETRY: ION_MODE POSITIVE
AC$MASS_SPECTROMETRY: IONIZATION ESI
AC$MASS_SPECTROMETRY: FRAGMENTATION_MODE HCD
AC$MASS_SPECTROMETRY: COLLISION_ENERGY 30
AC$MASS_SPECTROMETRY: RESOLUTION 17500
AC$CHROMATOGRAPHY: COLUMN_NAME Acquity BEH C18 1.7um, 2.1x150mm (Waters)
AC$CHROMATOGRAPHY: FLOW_GRADIENT 90/10 at 0-2 min, 0/100 at 15-20 min, 90/10 at 20.1-30 min
AC$CHROMATOGRAPHY: FLOW_RATE 0.20 mL/min
AC$CHROMATOGRAPHY: RETENTION_TIME 16.667 min
AC$CHROMATOGRAPHY: SOLVENT A 0.1% formic acid
AC$CHROMATOGRAPHY: SOLVENT B methanol
MS$FOCUSED_ION: BASE_PEAK 79.0212
MS$FOCUSED_ION: PRECURSOR_M/Z 381.1609
MS$FOCUSED_ION: PRECURSOR_TYPE [M+H]+
MS$FOCUSED_ION: PRECURSOR_INTENSITY 7897274.875
MS$DATA_PROCESSING: RECALIBRATE loess on assigned fragments and MS1
MS$DATA_PROCESSING: REANALYZE Peaks with additional N2/O included
MS$DATA_PROCESSING: WHOLE RMassBank 2.99.2
PK$SPLASH: splash10-001i-0911000000-a544254b776b0dd2a022
PK$ANNOTATION: m/z tentative_formula formula_count mass error(ppm)
  57.0335 C3H5O+ 1 57.0335 0.35
  59.0491 C3H7O+ 1 59.0491 -0.59
  91.0542 C7H7+ 2 91.0542 0.1
  105.0699 C8H9+ 2 105.0699 0.69
  107.0855 C8H11+ 2 107.0855 0.19
  115.0542 C9H7+ 2 115.0542 -0.54
  116.062 C9H8+ 2 116.0621 -0.43
  119.0856 C9H11+ 2 119.0855 0.65
  121.1013 C9H13+ 2 121.1012 0.76
  129.0699 C10H9+ 2 129.0699 0.23
  131.0855 C10H11+ 2 131.0855 0.15
  134.0725 C9H10O+ 2 134.0726 -0.86
  147.1046 C10H13N+ 2 147.1043 2.43
  149.0961 C10H13O+ 2 149.0961 0.23
  216.0456 C12H7FNO2+ 2 216.0455 0.12
  245.072 C13H10FN2O2+ 2 245.0721 -0.27
  323.1192 C19H16FN2O2+ 2 323.119 0.4
  363.1504 C22H20FN2O2+ 1 363.1503 0.15
PK$NUM_PEAK: 18
PK$PEAK: m/z int. rel.int.
  57.0335 74936.4 21
  59.0491 12353 3
  91.0542 57850.9 16
  105.0699 9141.1 2
  107.0855 52141.3 14
  115.0542 6188.2 1
  116.062 9748.1 2
  119.0856 32070.9 9
  121.1013 10072.9 2
  129.0699 9980.6 2
  131.0855 3490140.2 999
  134.0725 5135 1
  147.1046 5036.7 1
  149.0961 1085097.5 310
  216.0456 919419.9 263
  245.072 24133.8 6
  323.1192 8936 2
  363.1504 882601.4 252
//
