ACCESSION: MSBNK-LCSB-LU035701
RECORD_TITLE: Flamprop-isopropyl; LC-ESI-QFT; MS2; CE: 15; R=17500; [M+H]+
DATE: 2020.08.19
AUTHORS: Elapavalore, A.; Kondić, T.; Singh, R.; Schymanski, E.
LICENSE: CC BY
COPYRIGHT: Copyright © 2019 by Environmental Cheminformatics, LCSB, University of Luxembourg, Luxembourg
PUBLICATION: Elapavalore, A.; Kondić, T.; et al., Adding Open Spectral Data to MassBank and PubChem Using Open Source Tools to Support Non-Targeted Exposomics of Mixtures (submitted).
PROJECT: ENTACT U.S. Environmental Protection Agency’s Non-Targeted Analysis Collaborative Trial
COMMENT: CONFIDENCE standard compound
COMMENT: INTERNAL_ID 357
COMMENT: DATASET 20200303_ENTACT_RP_MIX505
COMMENT: DATA_PROCESSING MERGING RMBmix ver. 0.2.7
COMMENT: DATA_PROCESSING PRESCREENING Shinyscreen ver. 0.8.0
COMMENT: ORIGINAL_ACQUISITION_NO 9727
COMMENT: ORIGINAL_PRECURSOR_SCAN_NO 9726
COMMENT: RAW_DATA available as MSV000091754 at [DOI:10.25345/C5S46HG75]
CH$NAME: Flamprop-isopropyl
CH$NAME: propan-2-yl 2-(N-benzoyl-3-chloro-4-fluoroanilino)propanoate
CH$COMPOUND_CLASS: N/A; Environmental Standard
CH$FORMULA: C19H19ClFNO3
CH$EXACT_MASS: 363.1037
CH$SMILES: CC(C)OC(=O)C(C)N(C(=O)C1=CC=CC=C1)C1=CC(Cl)=C(F)C=C1
CH$IUPAC: InChI=1S/C19H19ClFNO3/c1-12(2)25-19(24)13(3)22(15-9-10-17(21)16(20)11-15)18(23)14-7-5-4-6-8-14/h4-13H,1-3H3
CH$LINK: CAS 63782-90-1
CH$LINK: PUBCHEM CID:40520
CH$LINK: INCHIKEY IKVXBIIHQGXQRQ-UHFFFAOYSA-N
CH$LINK: CHEMSPIDER 37022
AC$INSTRUMENT: Q Exactive Orbitrap (Thermo Scientific)
AC$INSTRUMENT_TYPE: LC-ESI-QFT
AC$MASS_SPECTROMETRY: MS_TYPE MS2
AC$MASS_SPECTROMETRY: ION_MODE POSITIVE
AC$MASS_SPECTROMETRY: IONIZATION ESI
AC$MASS_SPECTROMETRY: FRAGMENTATION_MODE HCD
AC$MASS_SPECTROMETRY: COLLISION_ENERGY 15
AC$MASS_SPECTROMETRY: RESOLUTION 17500
AC$CHROMATOGRAPHY: COLUMN_NAME Acquity BEH C18 1.7um, 2.1x150mm (Waters)
AC$CHROMATOGRAPHY: FLOW_GRADIENT 90/10 at 0-2 min, 0/100 at 15-20 min, 90/10 at 20.1-30 min
AC$CHROMATOGRAPHY: FLOW_RATE 0.20 mL/min
AC$CHROMATOGRAPHY: RETENTION_TIME 18.490 min
AC$CHROMATOGRAPHY: SOLVENT A 0.1% formic acid
AC$CHROMATOGRAPHY: SOLVENT B methanol
MS$FOCUSED_ION: BASE_PEAK 79.0211
MS$FOCUSED_ION: PRECURSOR_M/Z 364.111
MS$FOCUSED_ION: PRECURSOR_TYPE [M+H]+
MS$FOCUSED_ION: PRECURSOR_INTENSITY 15574153.65625
MS$DATA_PROCESSING: RECALIBRATE loess on assigned fragments and MS1
MS$DATA_PROCESSING: REANALYZE Peaks with additional N2/O included
MS$DATA_PROCESSING: WHOLE RMassBank 2.99.2
PK$SPLASH: splash10-0a4i-0901000000-d740b87ee204d72e33f7
PK$ANNOTATION: m/z tentative_formula formula_count mass error(ppm)
  53.0387 C4H5+ 1 53.0386 3.05
  77.0386 C6H5+ 2 77.0386 0.11
  95.0492 C6H7O+ 3 95.0491 0.42
  105.0336 C7H5O+ 4 105.0335 0.92
  152.051 C8H7FNO+ 2 152.0506 2.5
  172.0325 C8H8ClFN+ 3 172.0324 0.66
  276.0588 C15H12ClFNO+ 4 276.0586 0.58
  304.0538 C16H12ClFNO2+ 3 304.0535 0.96
PK$NUM_PEAK: 8
PK$PEAK: m/z int. rel.int.
  53.0387 2732.7 1
  77.0386 7800.7 3
  95.0492 9546.2 4
  105.0336 1964419.9 999
  152.051 2890.7 1
  172.0325 90175.2 45
  276.0588 78330.4 39
  304.0538 349628 177
//
