ACCESSION: MSBNK-LCSB-LU063255
RECORD_TITLE: AVE2865; LC-ESI-QFT; MS2; CE: 75; R=17500; [M-H]-
DATE: 2020.08.19
AUTHORS: Elapavalore, A.; Kondić, T.; Singh, R.; Schymanski, E.
LICENSE: CC BY
COPYRIGHT: Copyright © 2019 by Environmental Cheminformatics, LCSB, University of Luxembourg, Luxembourg
PUBLICATION: Elapavalore, A.; Kondić, T.; et al., Adding Open Spectral Data to MassBank and PubChem Using Open Source Tools to Support Non-Targeted Exposomics of Mixtures (submitted).
PROJECT: ENTACT U.S. Environmental Protection Agency’s Non-Targeted Analysis Collaborative Trial
COMMENT: CONFIDENCE standard compound
COMMENT: INTERNAL_ID 632
COMMENT: DATASET 20200303_ENTACT_RP_MIX506
COMMENT: DATA_PROCESSING MERGING RMBmix ver. 0.2.7
COMMENT: DATA_PROCESSING PRESCREENING Shinyscreen ver. 0.8.0
COMMENT: ORIGINAL_ACQUISITION_NO 5075
COMMENT: ORIGINAL_PRECURSOR_SCAN_NO 5074
COMMENT: RAW_DATA available as MSV000091754 at [DOI:10.25345/C5S46HG75]
CH$NAME: AVE2865
CH$NAME: 1-{2-[3-(2-Chloro-4,5-Difluoro-Benzoyl)-Ureido]-4-Fluoro-Phenyl}-Piperidine-4-Carboxylic Acid
CH$NAME: 1-[2-[(2-chloro-4,5-difluorobenzoyl)carbamoylamino]-4-fluorophenyl]piperidine-4-carboxylic acid
CH$COMPOUND_CLASS: N/A; Environmental Standard
CH$FORMULA: C20H17ClF3N3O4
CH$EXACT_MASS: 455.0860
CH$SMILES: OC(=O)C1CCN(CC1)C1=C(NC(=O)NC(=O)C2=CC(F)=C(F)C=C2Cl)C=C(F)C=C1
CH$IUPAC: InChI=1S/C20H17ClF3N3O4/c21-13-9-15(24)14(23)8-12(13)18(28)26-20(31)25-16-7-11(22)1-2-17(16)27-5-3-10(4-6-27)19(29)30/h1-2,7-10H,3-6H2,(H,29,30)(H2,25,26,28,31)
CH$LINK: PUBCHEM CID:12148754
CH$LINK: INCHIKEY KAJJGOCSAXKXBD-UHFFFAOYSA-N
CH$LINK: CHEMSPIDER 10631476
AC$INSTRUMENT: Q Exactive Orbitrap (Thermo Scientific)
AC$INSTRUMENT_TYPE: LC-ESI-QFT
AC$MASS_SPECTROMETRY: MS_TYPE MS2
AC$MASS_SPECTROMETRY: ION_MODE NEGATIVE
AC$MASS_SPECTROMETRY: IONIZATION ESI
AC$MASS_SPECTROMETRY: FRAGMENTATION_MODE HCD
AC$MASS_SPECTROMETRY: COLLISION_ENERGY 75
AC$MASS_SPECTROMETRY: RESOLUTION 17500
AC$CHROMATOGRAPHY: COLUMN_NAME Acquity BEH C18 1.7um, 2.1x150mm (Waters)
AC$CHROMATOGRAPHY: FLOW_GRADIENT 90/10 at 0-2 min, 0/100 at 15-20 min, 90/10 at 20.1-30 min
AC$CHROMATOGRAPHY: FLOW_RATE 0.20 mL/min
AC$CHROMATOGRAPHY: RETENTION_TIME 18.369 min
AC$CHROMATOGRAPHY: SOLVENT A 0.1% formic acid
AC$CHROMATOGRAPHY: SOLVENT B methanol
MS$FOCUSED_ION: BASE_PEAK 292.098
MS$FOCUSED_ION: PRECURSOR_M/Z 454.0787
MS$FOCUSED_ION: PRECURSOR_TYPE [M-H]-
MS$FOCUSED_ION: PRECURSOR_INTENSITY 6896921
MS$DATA_PROCESSING: RECALIBRATE loess on assigned fragments and MS1
MS$DATA_PROCESSING: REANALYZE Peaks with additional N2/O included
MS$DATA_PROCESSING: WHOLE RMassBank 2.99.2
PK$SPLASH: splash10-0udi-0910000000-678753fe1d780db6df28
PK$ANNOTATION: m/z tentative_formula formula_count mass error(ppm)
  50.0036 C3N- 1 50.0036 -1.18
  69.0346 C4H5O- 2 69.0346 -0.17
  76.0193 C5H2N- 2 76.0193 0.34
  92.0506 C6H6N- 2 92.0506 0.28
  102.0223 C6H2N2- 2 102.0223 -0.04
  103.0302 C6H3N2- 2 103.0302 0.12
  110.041 C6H5FN- 3 110.0412 -1.3
  115.03 C7H3N2- 3 115.0302 -1.57
  124.0443 C6H5FN2- 5 124.0442 0.31
  125.0521 C6H6FN2- 5 125.052 0.7
  131.0251 C7H3N2O- 5 131.0251 -0.21
  134.0414 C8H5FN- 4 134.0412 1.54
  135.0364 C7H4FN2- 5 135.0364 0.33
  147.0199 C7H3N2O2- 7 147.02 -0.63
  148.0444 C8H5FN2- 6 148.0442 1.07
  149.0359 C4H8ClN3O- 7 149.0361 -1.3
  149.052 C8H6FN2- 6 149.052 -0.25
  150.0235 C7H3FN2O- 8 150.0235 0.03
  151.0313 C7H4FN2O- 8 151.0313 -0.15
  161.052 C9H6FN2- 8 161.052 -0.41
  163.0313 C8H4FN2O- 9 163.0313 0.05
  165.0469 C8H6FN2O- 9 165.047 -0.09
  175.0675 C10H8FN2- 9 175.0677 -0.93
  176.0388 C9H5FN2O- 11 176.0391 -1.81
  180.0341 C8H5FN2O2- 10 180.0341 0.13
  189.0833 C11H10FN2- 10 189.0834 -0.06
  191.0986 C11H12FN2- 6 191.099 -2.34
  199.0681 ClF3H15N2O4- 11 199.0678 1.69
  199.0875 C12H11N2O- 9 199.0877 -0.75
  201.083 C12H10FN2- 10 201.0834 -1.94
  219.0939 C12H12FN2O- 8 219.0939 -0.06
PK$NUM_PEAK: 31
PK$PEAK: m/z int. rel.int.
  50.0036 4776.5 9
  69.0346 2401.4 4
  76.0193 4104.3 8
  92.0506 2879.5 5
  102.0223 4188.9 8
  103.0302 8465 17
  110.041 6049.9 12
  115.03 2482.8 5
  124.0443 14947.5 30
  125.0521 9483.5 19
  131.0251 52722.9 108
  134.0414 3045.6 6
  135.0364 271034.9 557
  147.0199 4294.4 8
  148.0444 9395.4 19
  149.0359 2931.8 6
  149.052 17819.6 36
  150.0235 151971.2 312
  151.0313 485515 999
  161.052 12382.1 25
  163.0313 22822.4 46
  165.0469 14077.7 28
  175.0675 4206.5 8
  176.0388 11777.5 24
  180.0341 18725.7 38
  189.0833 9446.8 19
  191.0986 3270.4 6
  199.0681 4889.9 10
  199.0875 6602.4 13
  201.083 4660.3 9
  219.0939 155353 319
//
