ACCESSION: MSBNK-LCSB-LU086354
RECORD_TITLE: Halofenozide; LC-ESI-QFT; MS2; CE: 60; R=17500; [M-H]-
DATE: 2020.08.19
AUTHORS: Elapavalore, A.; Kondić, T.; Singh, R.; Schymanski, E.
LICENSE: CC BY
COPYRIGHT: Copyright © 2019 by Environmental Cheminformatics, LCSB, University of Luxembourg, Luxembourg
PUBLICATION: Elapavalore, A.; Kondić, T.; et al., Adding Open Spectral Data to MassBank and PubChem Using Open Source Tools to Support Non-Targeted Exposomics of Mixtures (submitted).
PROJECT: ENTACT U.S. Environmental Protection Agency’s Non-Targeted Analysis Collaborative Trial
COMMENT: CONFIDENCE standard compound
COMMENT: INTERNAL_ID 863
COMMENT: DATASET 20200303_ENTACT_RP_MIX508
COMMENT: DATA_PROCESSING MERGING RMBmix ver. 0.2.7
COMMENT: DATA_PROCESSING PRESCREENING Shinyscreen ver. 0.8.0
COMMENT: ORIGINAL_ACQUISITION_NO 4611
COMMENT: ORIGINAL_PRECURSOR_SCAN_NO 4607
COMMENT: RAW_DATA available as MSV000091754 at [DOI:10.25345/C5S46HG75]
CH$NAME: Halofenozide
CH$NAME: N'-benzoyl-N'-tert-butyl-4-chlorobenzohydrazide
CH$COMPOUND_CLASS: N/A; Environmental Standard
CH$FORMULA: C18H19ClN2O2
CH$EXACT_MASS: 330.1135
CH$SMILES: CC(C)(C)N(NC(=O)C1=CC=C(Cl)C=C1)C(=O)C1=CC=CC=C1
CH$IUPAC: InChI=1S/C18H19ClN2O2/c1-18(2,3)21(17(23)14-7-5-4-6-8-14)20-16(22)13-9-11-15(19)12-10-13/h4-12H,1-3H3,(H,20,22)
CH$LINK: CAS 112226-61-6
CH$LINK: CHEBI CHEBI:38451
CH$LINK: KEGG C18791
CH$LINK: PUBCHEM CID:114994
CH$LINK: INCHIKEY CNKHSLKYRMDDNQ-UHFFFAOYSA-N
CH$LINK: CHEMSPIDER 102925
AC$INSTRUMENT: Q Exactive Orbitrap (Thermo Scientific)
AC$INSTRUMENT_TYPE: LC-ESI-QFT
AC$MASS_SPECTROMETRY: MS_TYPE MS2
AC$MASS_SPECTROMETRY: ION_MODE NEGATIVE
AC$MASS_SPECTROMETRY: IONIZATION ESI
AC$MASS_SPECTROMETRY: FRAGMENTATION_MODE HCD
AC$MASS_SPECTROMETRY: COLLISION_ENERGY 60
AC$MASS_SPECTROMETRY: RESOLUTION 17500
AC$CHROMATOGRAPHY: COLUMN_NAME Acquity BEH C18 1.7um, 2.1x150mm (Waters)
AC$CHROMATOGRAPHY: FLOW_GRADIENT 90/10 at 0-2 min, 0/100 at 15-20 min, 90/10 at 20.1-30 min
AC$CHROMATOGRAPHY: FLOW_RATE 0.20 mL/min
AC$CHROMATOGRAPHY: RETENTION_TIME 17.298 min
AC$CHROMATOGRAPHY: SOLVENT A 0.1% formic acid
AC$CHROMATOGRAPHY: SOLVENT B methanol
MS$FOCUSED_ION: BASE_PEAK 329.1061
MS$FOCUSED_ION: PRECURSOR_M/Z 329.1062
MS$FOCUSED_ION: PRECURSOR_TYPE [M-H]-
MS$FOCUSED_ION: PRECURSOR_INTENSITY 103294105.8145
MS$DATA_PROCESSING: RECALIBRATE loess on assigned fragments and MS1
MS$DATA_PROCESSING: REANALYZE Peaks with additional N2/O included
MS$DATA_PROCESSING: WHOLE RMassBank 2.99.2
PK$SPLASH: splash10-00di-0900000000-4b7cc92e680f56005d72
PK$ANNOTATION: m/z tentative_formula formula_count mass error(ppm)
  77.0394 C6H5- 1 77.0397 -4.2
  93.0346 C6H5O- 2 93.0346 -0.05
  108.0217 C6H4O2- 2 108.0217 -0.12
  111.0007 C6H4Cl- 1 111.0007 0
  117.0458 C7H5N2- 1 117.0458 -0.3
  120.0456 C7H6NO- 2 120.0455 0.68
  121.0295 C7H5O2- 2 121.0295 -0.14
  151.007 C7H4ClN2- 2 151.0068 0.84
  154.0066 C7H5ClNO- 2 154.0065 0.62
  154.9906 C7H4ClO2- 1 154.9905 0.28
  161.0357 C8H5N2O2- 2 161.0357 0.17
  176.1082 C11H14NO- 2 176.1081 0.56
  194.9965 C8H4ClN2O2- 1 194.9967 -0.75
  271.0288 C14H8ClN2O2- 1 271.028 2.93
PK$NUM_PEAK: 14
PK$PEAK: m/z int. rel.int.
  77.0394 49800.6 2
  93.0346 173344.4 9
  108.0217 44821.1 2
  111.0007 656695.6 35
  117.0458 38268.6 2
  120.0456 44743.2 2
  121.0295 18361300 999
  151.007 46694.2 2
  154.0066 34237.1 1
  154.9906 547833.4 29
  161.0357 142382 7
  176.1082 65212.7 3
  194.9965 125426.5 6
  271.0288 19051.8 1
//
