ACCESSION: MSBNK-LCSB-LU063001
RECORD_TITLE: SB243213A; LC-ESI-QFT; MS2; CE: 15; R=17500; [M+H]+
DATE: 2020.08.19
AUTHORS: Elapavalore, A.; Kondić, T.; Singh, R.; Schymanski, E.
LICENSE: CC BY
COPYRIGHT: Copyright © 2019 by Environmental Cheminformatics, LCSB, University of Luxembourg, Luxembourg
PUBLICATION: Elapavalore, A.; Kondić, T.; et al., Adding Open Spectral Data to MassBank and PubChem Using Open Source Tools to Support Non-Targeted Exposomics of Mixtures (submitted).
PROJECT: ENTACT U.S. Environmental Protection Agency’s Non-Targeted Analysis Collaborative Trial
COMMENT: CONFIDENCE standard compound
COMMENT: INTERNAL_ID 630
COMMENT: DATASET 20200303_ENTACT_RP_MIX506
COMMENT: DATA_PROCESSING MERGING RMBmix ver. 0.2.7
COMMENT: DATA_PROCESSING PRESCREENING Shinyscreen ver. 0.8.0
COMMENT: ORIGINAL_ACQUISITION_NO 9448
COMMENT: ORIGINAL_PRECURSOR_SCAN_NO 9447
COMMENT: RAW_DATA available as MSV000091754 at [DOI:10.25345/C5S46HG75]
CH$NAME: SB243213A
CH$NAME: SB 243213
CH$NAME: 5-methyl-N-[6-(2-methylpyridin-3-yl)oxypyridin-3-yl]-6-(trifluoromethyl)-2,3-dihydroindole-1-carboxamide
CH$COMPOUND_CLASS: N/A; Environmental Standard
CH$FORMULA: C22H19F3N4O2
CH$EXACT_MASS: 428.1460
CH$SMILES: CC1=CC2=C(C=C1C(F)(F)F)N(CC2)C(=O)NC1=CC=C(OC2=CC=CN=C2C)N=C1
CH$IUPAC: InChI=1S/C22H19F3N4O2/c1-13-10-15-7-9-29(18(15)11-17(13)22(23,24)25)21(30)28-16-5-6-20(27-12-16)31-19-4-3-8-26-14(19)2/h3-6,8,10-12H,7,9H2,1-2H3,(H,28,30)
CH$LINK: CAS 200940-23-4
CH$LINK: CHEBI CHEBI:8980
CH$LINK: KEGG C11743
CH$LINK: PUBCHEM CID:443391
CH$LINK: INCHIKEY ZETBBVYSBABLHL-UHFFFAOYSA-N
CH$LINK: CHEMSPIDER 391620
AC$INSTRUMENT: Q Exactive Orbitrap (Thermo Scientific)
AC$INSTRUMENT_TYPE: LC-ESI-QFT
AC$MASS_SPECTROMETRY: MS_TYPE MS2
AC$MASS_SPECTROMETRY: ION_MODE POSITIVE
AC$MASS_SPECTROMETRY: IONIZATION ESI
AC$MASS_SPECTROMETRY: FRAGMENTATION_MODE HCD
AC$MASS_SPECTROMETRY: COLLISION_ENERGY 15
AC$MASS_SPECTROMETRY: RESOLUTION 17500
AC$CHROMATOGRAPHY: COLUMN_NAME Acquity BEH C18 1.7um, 2.1x150mm (Waters)
AC$CHROMATOGRAPHY: FLOW_GRADIENT 90/10 at 0-2 min, 0/100 at 15-20 min, 90/10 at 20.1-30 min
AC$CHROMATOGRAPHY: FLOW_RATE 0.20 mL/min
AC$CHROMATOGRAPHY: RETENTION_TIME 18.000 min
AC$CHROMATOGRAPHY: SOLVENT A 0.1% formic acid
AC$CHROMATOGRAPHY: SOLVENT B methanol
MS$FOCUSED_ION: BASE_PEAK 79.0211
MS$FOCUSED_ION: PRECURSOR_M/Z 429.1533
MS$FOCUSED_ION: PRECURSOR_TYPE [M+H]+
MS$FOCUSED_ION: PRECURSOR_INTENSITY 30581808
MS$DATA_PROCESSING: RECALIBRATE loess on assigned fragments and MS1
MS$DATA_PROCESSING: REANALYZE Peaks with additional N2/O included
MS$DATA_PROCESSING: WHOLE RMassBank 2.99.2
PK$SPLASH: splash10-004i-0000900000-1bc81b91998c7b4a0483
PK$ANNOTATION: m/z tentative_formula formula_count mass error(ppm)
  228.0766 C12H10N3O2+ 4 228.0768 -0.79
  429.1532 C22H20F3N4O2+ 1 429.1533 -0.16
PK$NUM_PEAK: 2
PK$PEAK: m/z int. rel.int.
  228.0766 1794144.4 75
  429.1532 23775464 999
//
