ACCESSION: MSBNK-LCSB-LU069355
RECORD_TITLE: Tolbutamide; LC-ESI-QFT; MS2; CE: 75; R=17500; [M-H]-
DATE: 2020.08.19
AUTHORS: Elapavalore, A.; Kondić, T.; Singh, R.; Schymanski, E.
LICENSE: CC BY
COPYRIGHT: Copyright © 2019 by Environmental Cheminformatics, LCSB, University of Luxembourg, Luxembourg
PUBLICATION: Elapavalore, A.; Kondić, T.; et al., Adding Open Spectral Data to MassBank and PubChem Using Open Source Tools to Support Non-Targeted Exposomics of Mixtures (submitted).
PROJECT: ENTACT U.S. Environmental Protection Agency’s Non-Targeted Analysis Collaborative Trial
COMMENT: CONFIDENCE standard compound
COMMENT: INTERNAL_ID 693
COMMENT: DATASET 20200303_ENTACT_RP_MIX506
COMMENT: DATA_PROCESSING MERGING RMBmix ver. 0.2.7
COMMENT: DATA_PROCESSING PRESCREENING Shinyscreen ver. 0.8.0
COMMENT: ORIGINAL_ACQUISITION_NO 4161
COMMENT: ORIGINAL_PRECURSOR_SCAN_NO 4157
COMMENT: RAW_DATA available as MSV000091754 at [DOI:10.25345/C5S46HG75]
CH$NAME: Tolbutamide
CH$NAME: 1-butyl-3-(4-methylphenyl)sulfonylurea
CH$COMPOUND_CLASS: N/A; Environmental Standard
CH$FORMULA: C12H18N2O3S
CH$EXACT_MASS: 270.1038
CH$SMILES: CCCCNC(=O)NS(=O)(=O)C1=CC=C(C)C=C1
CH$IUPAC: InChI=1S/C12H18N2O3S/c1-3-4-9-13-12(15)14-18(16,17)11-7-5-10(2)6-8-11/h5-8H,3-4,9H2,1-2H3,(H2,13,14,15)
CH$LINK: CAS 64-77-7
CH$LINK: CHEBI CHEBI:27999
CH$LINK: KEGG C07148
CH$LINK: PUBCHEM CID:5505
CH$LINK: INCHIKEY JLRGJRBPOGGCBT-UHFFFAOYSA-N
CH$LINK: CHEMSPIDER 5304
AC$INSTRUMENT: Q Exactive Orbitrap (Thermo Scientific)
AC$INSTRUMENT_TYPE: LC-ESI-QFT
AC$MASS_SPECTROMETRY: MS_TYPE MS2
AC$MASS_SPECTROMETRY: ION_MODE NEGATIVE
AC$MASS_SPECTROMETRY: IONIZATION ESI
AC$MASS_SPECTROMETRY: FRAGMENTATION_MODE HCD
AC$MASS_SPECTROMETRY: COLLISION_ENERGY 75
AC$MASS_SPECTROMETRY: RESOLUTION 17500
AC$CHROMATOGRAPHY: COLUMN_NAME Acquity BEH C18 1.7um, 2.1x150mm (Waters)
AC$CHROMATOGRAPHY: FLOW_GRADIENT 90/10 at 0-2 min, 0/100 at 15-20 min, 90/10 at 20.1-30 min
AC$CHROMATOGRAPHY: FLOW_RATE 0.20 mL/min
AC$CHROMATOGRAPHY: RETENTION_TIME 16.151 min
AC$CHROMATOGRAPHY: SOLVENT A 0.1% formic acid
AC$CHROMATOGRAPHY: SOLVENT B methanol
MS$FOCUSED_ION: BASE_PEAK 112.9857
MS$FOCUSED_ION: PRECURSOR_M/Z 269.0965
MS$FOCUSED_ION: PRECURSOR_TYPE [M-H]-
MS$FOCUSED_ION: PRECURSOR_INTENSITY 2373371.895508
MS$DATA_PROCESSING: RECALIBRATE loess on assigned fragments and MS1
MS$DATA_PROCESSING: REANALYZE Peaks with additional N2/O included
MS$DATA_PROCESSING: WHOLE RMassBank 2.99.2
PK$SPLASH: splash10-0a6r-5900000000-cd0167ed47eb6fc5dd6d
PK$ANNOTATION: m/z tentative_formula formula_count mass error(ppm)
  61.9706 NOS- 1 61.9706 0.12
  63.9625 O2S- 1 63.9624 0.05
  77.9656 NO2S- 1 77.9655 0.39
  78.9734 HNO2S- 1 78.9733 0.35
  79.9812 H2NO2S- 1 79.9812 0.13
  80.9652 HO3S- 1 80.9652 0.76
  93.9605 NO3S- 1 93.9604 0.39
  103.0426 C7H5N- 2 103.0427 -1.39
  104.0506 C7H6N- 2 104.0506 0.68
  106.0662 C7H8N- 2 106.0662 0.05
  107.0502 C7H7O- 1 107.0502 -0.16
  122.0612 C7H8NO- 1 122.0611 0.31
  150.0561 C8H8NO2- 1 150.0561 0.54
  170.0282 C7H8NO2S- 1 170.0281 0.17
  174.9721 C8HNO2S- 1 174.9733 -7.25
PK$NUM_PEAK: 15
PK$PEAK: m/z int. rel.int.
  61.9706 204909.1 115
  63.9625 107062.4 60
  77.9656 79837 44
  78.9734 326654.6 183
  79.9812 621130.6 349
  80.9652 27912.6 15
  93.9605 182280.9 102
  103.0426 2565.6 1
  104.0506 2979.6 1
  106.0662 1776687.1 999
  107.0502 68392.6 38
  122.0612 107383.3 60
  150.0561 13795 7
  170.0282 510287.9 286
  174.9721 7794.7 4
//
