ACCESSION: MSBNK-LCSB-LU092751
RECORD_TITLE: Indole-3-butyric acid; LC-ESI-QFT; MS2; CE: 15; R=17500; [M-H]-
DATE: 2020.08.19
AUTHORS: Elapavalore, A.; Kondić, T.; Singh, R.; Schymanski, E.
LICENSE: CC BY
COPYRIGHT: Copyright © 2019 by Environmental Cheminformatics, LCSB, University of Luxembourg, Luxembourg
PUBLICATION: Elapavalore, A.; Kondić, T.; et al., Adding Open Spectral Data to MassBank and PubChem Using Open Source Tools to Support Non-Targeted Exposomics of Mixtures (submitted).
PROJECT: ENTACT U.S. Environmental Protection Agency’s Non-Targeted Analysis Collaborative Trial
COMMENT: CONFIDENCE standard compound
COMMENT: INTERNAL_ID 927
COMMENT: DATASET 20200303_ENTACT_RP_MIX506
COMMENT: DATA_PROCESSING MERGING RMBmix ver. 0.2.7
COMMENT: DATA_PROCESSING PRESCREENING Shinyscreen ver. 0.8.0
COMMENT: ORIGINAL_ACQUISITION_NO 4086
COMMENT: ORIGINAL_PRECURSOR_SCAN_NO 4084
COMMENT: RAW_DATA available as MSV000091754 at [DOI:10.25345/C5S46HG75]
CH$NAME: Indole-3-butyric acid
CH$NAME: 4-(1H-indol-3-yl)butanoic acid
CH$COMPOUND_CLASS: N/A; Environmental Standard
CH$FORMULA: C12H13NO2
CH$EXACT_MASS: 203.0946
CH$SMILES: OC(=O)CCCC1=CNC2=C1C=CC=C2
CH$IUPAC: InChI=1S/C12H13NO2/c14-12(15)7-3-4-9-8-13-11-6-2-1-5-10(9)11/h1-2,5-6,8,13H,3-4,7H2,(H,14,15)
CH$LINK: CAS 933-32-4
CH$LINK: CHEBI CHEBI:33070
CH$LINK: KEGG C11284
CH$LINK: PUBCHEM CID:8617
CH$LINK: INCHIKEY JTEDVYBZBROSJT-UHFFFAOYSA-N
CH$LINK: CHEMSPIDER 8298
AC$INSTRUMENT: Q Exactive Orbitrap (Thermo Scientific)
AC$INSTRUMENT_TYPE: LC-ESI-QFT
AC$MASS_SPECTROMETRY: MS_TYPE MS2
AC$MASS_SPECTROMETRY: ION_MODE NEGATIVE
AC$MASS_SPECTROMETRY: IONIZATION ESI
AC$MASS_SPECTROMETRY: FRAGMENTATION_MODE HCD
AC$MASS_SPECTROMETRY: COLLISION_ENERGY 15
AC$MASS_SPECTROMETRY: RESOLUTION 17500
AC$CHROMATOGRAPHY: COLUMN_NAME Acquity BEH C18 1.7um, 2.1x150mm (Waters)
AC$CHROMATOGRAPHY: FLOW_GRADIENT 90/10 at 0-2 min, 0/100 at 15-20 min, 90/10 at 20.1-30 min
AC$CHROMATOGRAPHY: FLOW_RATE 0.20 mL/min
AC$CHROMATOGRAPHY: RETENTION_TIME 15.810 min
AC$CHROMATOGRAPHY: SOLVENT A 0.1% formic acid
AC$CHROMATOGRAPHY: SOLVENT B methanol
MS$FOCUSED_ION: BASE_PEAK 112.9857
MS$FOCUSED_ION: PRECURSOR_M/Z 202.0874
MS$FOCUSED_ION: PRECURSOR_TYPE [M-H]-
MS$FOCUSED_ION: PRECURSOR_INTENSITY 8424160.016602
MS$DATA_PROCESSING: RECALIBRATE loess on assigned fragments and MS1
MS$DATA_PROCESSING: REANALYZE Peaks with additional N2/O included
MS$DATA_PROCESSING: WHOLE RMassBank 2.99.2
PK$SPLASH: splash10-0udi-0490000000-170a55f40e15003f23ea
PK$ANNOTATION: m/z tentative_formula formula_count mass error(ppm)
  57.0345 C3H5O- 1 57.0346 -1.59
  59.0138 C2H3O2- 1 59.0139 -0.77
  71.0138 C3H3O2- 1 71.0139 -0.12
  73.0295 C3H5O2- 1 73.0295 0.52
  85.0295 C4H5O2- 1 85.0295 -0.22
  116.0506 C8H6N- 1 116.0506 0.24
  129.0583 C9H7N- 1 129.0584 -0.59
  130.0661 C9H8N- 1 130.0662 -0.56
  135.0452 C8H7O2- 1 135.0452 0.37
  142.0663 C10H8N- 1 142.0662 0.82
  156.0818 C11H10N- 1 156.0819 -0.48
  158.0975 C11H12N- 1 158.0975 0.14
  161.0481 C9H7NO2- 1 161.0482 -0.65
  184.0769 C12H10NO- 1 184.0768 0.34
  202.0875 C12H12NO2- 1 202.0874 0.54
PK$NUM_PEAK: 15
PK$PEAK: m/z int. rel.int.
  57.0345 2488.2 1
  59.0138 9018.5 5
  71.0138 4238.7 2
  73.0295 11892 6
  85.0295 3216.1 1
  116.0506 336233.3 192
  129.0583 5791.3 3
  130.0661 4262 2
  135.0452 7938 4
  142.0663 11253.1 6
  156.0818 7567.6 4
  158.0975 508489.7 290
  161.0481 10115.9 5
  184.0769 52336.9 29
  202.0875 1747970.5 999
//
