ACCESSION: MSBNK-LCSB-LU106802
RECORD_TITLE: 5-Methoxypsoralen; LC-ESI-QFT; MS2; CE: 30; R=17500; [M+H]+
DATE: 2020.08.19
AUTHORS: Elapavalore, A.; Kondić, T.; Singh, R.; Schymanski, E.
LICENSE: CC BY
COPYRIGHT: Copyright © 2019 by Environmental Cheminformatics, LCSB, University of Luxembourg, Luxembourg
PUBLICATION: Elapavalore, A.; Kondić, T.; et al., Adding Open Spectral Data to MassBank and PubChem Using Open Source Tools to Support Non-Targeted Exposomics of Mixtures (submitted).
PROJECT: ENTACT U.S. Environmental Protection Agency’s Non-Targeted Analysis Collaborative Trial
COMMENT: CONFIDENCE standard compound
COMMENT: INTERNAL_ID 1068
COMMENT: DATASET 20200303_ENTACT_RP_MIX503
COMMENT: DATA_PROCESSING MERGING RMBmix ver. 0.2.7
COMMENT: DATA_PROCESSING PRESCREENING Shinyscreen ver. 0.8.0
COMMENT: ORIGINAL_ACQUISITION_NO 8427
COMMENT: ORIGINAL_PRECURSOR_SCAN_NO 8425
COMMENT: RAW_DATA available as MSV000091754 at [DOI:10.25345/C5S46HG75]
CH$NAME: 5-Methoxypsoralen
CH$NAME: Bergapten
CH$NAME: 4-methoxyfuro[3,2-g]chromen-7-one
CH$COMPOUND_CLASS: N/A; Environmental Standard
CH$FORMULA: C12H8O4
CH$EXACT_MASS: 216.0423
CH$SMILES: COC1=C2C=COC2=CC2=C1C=CC(=O)O2
CH$IUPAC: InChI=1S/C12H8O4/c1-14-12-7-2-3-11(13)16-10(7)6-9-8(12)4-5-15-9/h2-6H,1H3
CH$LINK: CAS 484-20-8
CH$LINK: CHEBI CHEBI:18293
CH$LINK: KEGG C01557
CH$LINK: PUBCHEM CID:2355
CH$LINK: INCHIKEY BGEBZHIAGXMEMV-UHFFFAOYSA-N
CH$LINK: CHEMSPIDER 2265
AC$INSTRUMENT: Q Exactive Orbitrap (Thermo Scientific)
AC$INSTRUMENT_TYPE: LC-ESI-QFT
AC$MASS_SPECTROMETRY: MS_TYPE MS2
AC$MASS_SPECTROMETRY: ION_MODE POSITIVE
AC$MASS_SPECTROMETRY: IONIZATION ESI
AC$MASS_SPECTROMETRY: FRAGMENTATION_MODE HCD
AC$MASS_SPECTROMETRY: COLLISION_ENERGY 30
AC$MASS_SPECTROMETRY: RESOLUTION 17500
AC$CHROMATOGRAPHY: COLUMN_NAME Acquity BEH C18 1.7um, 2.1x150mm (Waters)
AC$CHROMATOGRAPHY: FLOW_GRADIENT 90/10 at 0-2 min, 0/100 at 15-20 min, 90/10 at 20.1-30 min
AC$CHROMATOGRAPHY: FLOW_RATE 0.20 mL/min
AC$CHROMATOGRAPHY: RETENTION_TIME 16.127 min
AC$CHROMATOGRAPHY: SOLVENT A 0.1% formic acid
AC$CHROMATOGRAPHY: SOLVENT B methanol
MS$FOCUSED_ION: BASE_PEAK 79.0212
MS$FOCUSED_ION: PRECURSOR_M/Z 217.0495
MS$FOCUSED_ION: PRECURSOR_TYPE [M+H]+
MS$FOCUSED_ION: PRECURSOR_INTENSITY 7210277
MS$DATA_PROCESSING: RECALIBRATE loess on assigned fragments and MS1
MS$DATA_PROCESSING: REANALYZE Peaks with additional N2/O included
MS$DATA_PROCESSING: WHOLE RMassBank 2.99.2
PK$SPLASH: splash10-014i-0090000000-ca0b6443e02abb1e24a4
PK$ANNOTATION: m/z tentative_formula formula_count mass error(ppm)
  111.0442 C6H7O2+ 1 111.0441 1.52
  115.0543 C9H7+ 1 115.0542 0.92
  117.0699 C9H9+ 1 117.0699 0.2
  145.0647 C10H9O+ 1 145.0648 -0.69
  161.0595 C10H9O2+ 1 161.0597 -1.11
  173.0597 C11H9O2+ 1 173.0597 0.05
  174.0309 C10H6O3+ 1 174.0311 -1.46
  189.0546 C11H9O3+ 1 189.0546 -0.11
  202.0261 C11H6O4+ 1 202.0261 -0.05
  217.0495 C12H9O4+ 1 217.0495 -0.23
PK$NUM_PEAK: 10
PK$PEAK: m/z int. rel.int.
  111.0442 4982 1
  115.0543 7827.6 1
  117.0699 11628.1 2
  145.0647 9643.3 1
  161.0595 17096.5 3
  173.0597 77499.5 15
  174.0309 9407.1 1
  189.0546 10481 2
  202.0261 639981.9 131
  217.0495 4873529 999
//
