ACCESSION: MSBNK-LCSB-LU045706
RECORD_TITLE: Thiodicarb; LC-ESI-QFT; MS2; CE: 90; R=17500; [M+H]+
DATE: 2020.08.19
AUTHORS: Elapavalore, A.; Kondić, T.; Singh, R.; Schymanski, E.
LICENSE: CC BY
COPYRIGHT: Copyright © 2019 by Environmental Cheminformatics, LCSB, University of Luxembourg, Luxembourg
PUBLICATION: Elapavalore, A.; Kondić, T.; et al., Adding Open Spectral Data to MassBank and PubChem Using Open Source Tools to Support Non-Targeted Exposomics of Mixtures (submitted).
PROJECT: ENTACT U.S. Environmental Protection Agency’s Non-Targeted Analysis Collaborative Trial
COMMENT: CONFIDENCE standard compound
COMMENT: INTERNAL_ID 457
COMMENT: DATASET 20200303_ENTACT_RP_MIX506
COMMENT: DATA_PROCESSING MERGING RMBmix ver. 0.2.7
COMMENT: DATA_PROCESSING PRESCREENING Shinyscreen ver. 0.8.0
COMMENT: ORIGINAL_ACQUISITION_NO 8163
COMMENT: ORIGINAL_PRECURSOR_SCAN_NO 8160
COMMENT: RAW_DATA available as MSV000091754 at [DOI:10.25345/C5S46HG75]
CH$NAME: Thiodicarb
CH$NAME: methyl (1E)-N-[methyl-[methyl-[(E)-1-methylsulfanylethylideneamino]oxycarbonylamino]sulfanylcarbamoyl]oxyethanimidothioate
CH$COMPOUND_CLASS: N/A; Environmental Standard
CH$FORMULA: C10H18N4O4S3
CH$EXACT_MASS: 354.049
CH$SMILES: CS\C(C)=N\OC(=O)N(C)SN(C)C(=O)O\N=C(/C)SC
CH$IUPAC: InChI=1S/C10H18N4O4S3/c1-7(19-5)11-17-9(15)13(3)21-14(4)10(16)18-12-8(2)20-6/h1-6H3/b11-7+,12-8+
CH$LINK: CAS 59669-26-0
CH$LINK: PUBCHEM CID:9601227
CH$LINK: INCHIKEY XDOTVMNBCQVZKG-MKICQXMISA-N
CH$LINK: CHEMSPIDER 7875353
AC$INSTRUMENT: Q Exactive Orbitrap (Thermo Scientific)
AC$INSTRUMENT_TYPE: LC-ESI-QFT
AC$MASS_SPECTROMETRY: MS_TYPE MS2
AC$MASS_SPECTROMETRY: ION_MODE POSITIVE
AC$MASS_SPECTROMETRY: IONIZATION ESI
AC$MASS_SPECTROMETRY: FRAGMENTATION_MODE HCD
AC$MASS_SPECTROMETRY: COLLISION_ENERGY 90
AC$MASS_SPECTROMETRY: RESOLUTION 17500
AC$CHROMATOGRAPHY: COLUMN_NAME Acquity BEH C18 1.7um, 2.1x150mm (Waters)
AC$CHROMATOGRAPHY: FLOW_GRADIENT 90/10 at 0-2 min, 0/100 at 15-20 min, 90/10 at 20.1-30 min
AC$CHROMATOGRAPHY: FLOW_RATE 0.20 mL/min
AC$CHROMATOGRAPHY: RETENTION_TIME 15.765 min
AC$CHROMATOGRAPHY: SOLVENT A 0.1% formic acid
AC$CHROMATOGRAPHY: SOLVENT B methanol
MS$FOCUSED_ION: BASE_PEAK 79.0211
MS$FOCUSED_ION: PRECURSOR_M/Z 355.0563
MS$FOCUSED_ION: PRECURSOR_TYPE [M+H]+
MS$FOCUSED_ION: PRECURSOR_INTENSITY 2128490
MS$DATA_PROCESSING: RECALIBRATE loess on assigned fragments and MS1
MS$DATA_PROCESSING: REANALYZE Peaks with additional N2/O included
MS$DATA_PROCESSING: WHOLE RMassBank 2.99.2
PK$SPLASH: splash10-0079-9000000000-19b9ed5a231efcd41ca2
PK$ANNOTATION: m/z tentative_formula formula_count mass error(ppm)
  56.0495 C3H6N+ 1 56.0495 -0.11
  59.9903 CH2NS+ 1 59.9902 0.94
  61.0105 C2H5S+ 1 61.0106 -2.2
  62.0058 CH4NS+ 1 62.0059 -1.1
  71.9903 C2H2NS+ 1 71.9902 1.32
  72.998 C2H3NS+ 1 72.9981 -0.38
  78.967 CH3S2+ 1 78.9671 -0.69
  88.0216 C3H6NS+ 1 88.0215 0.27
PK$NUM_PEAK: 8
PK$PEAK: m/z int. rel.int.
  56.0495 2932.1 143
  59.9903 3401.9 166
  61.0105 1678.3 82
  62.0058 6894.5 337
  71.9903 2197 107
  72.998 18029.3 883
  78.967 3423.1 167
  88.0216 20397.5 999
//
