ACCESSION: MSBNK-LCSB-LU071701
RECORD_TITLE: epsilon-Decalactone; LC-ESI-QFT; MS2; CE: 15; R=17500; [M+H]+
DATE: 2020.08.19
AUTHORS: Elapavalore, A.; Kondić, T.; Singh, R.; Schymanski, E.
LICENSE: CC BY
COPYRIGHT: Copyright © 2019 by Environmental Cheminformatics, LCSB, University of Luxembourg, Luxembourg
PUBLICATION: Elapavalore, A.; Kondić, T.; et al., Adding Open Spectral Data to MassBank and PubChem Using Open Source Tools to Support Non-Targeted Exposomics of Mixtures (submitted).
PROJECT: ENTACT U.S. Environmental Protection Agency’s Non-Targeted Analysis Collaborative Trial
COMMENT: CONFIDENCE standard compound
COMMENT: INTERNAL_ID 717
COMMENT: DATASET 20200303_ENTACT_RP_MIX506
COMMENT: DATA_PROCESSING MERGING RMBmix ver. 0.2.7
COMMENT: DATA_PROCESSING PRESCREENING Shinyscreen ver. 0.8.0
COMMENT: ORIGINAL_ACQUISITION_NO 9272
COMMENT: ORIGINAL_PRECURSOR_SCAN_NO 9267
COMMENT: RAW_DATA available as MSV000091754 at [DOI:10.25345/C5S46HG75]
CH$NAME: epsilon-Decalactone
CH$NAME: 7-butyloxepan-2-one
CH$COMPOUND_CLASS: N/A; Environmental Standard
CH$FORMULA: C10H18O2
CH$EXACT_MASS: 170.1307
CH$SMILES: CCCCC1CCCCC(=O)O1
CH$IUPAC: InChI=1S/C10H18O2/c1-2-3-6-9-7-4-5-8-10(11)12-9/h9H,2-8H2,1H3
CH$LINK: CAS 5579-78-2
CH$LINK: PUBCHEM CID:62583
CH$LINK: INCHIKEY YKVIWISPFDZYOW-UHFFFAOYSA-N
CH$LINK: CHEMSPIDER 56345
AC$INSTRUMENT: Q Exactive Orbitrap (Thermo Scientific)
AC$INSTRUMENT_TYPE: LC-ESI-QFT
AC$MASS_SPECTROMETRY: MS_TYPE MS2
AC$MASS_SPECTROMETRY: ION_MODE POSITIVE
AC$MASS_SPECTROMETRY: IONIZATION ESI
AC$MASS_SPECTROMETRY: FRAGMENTATION_MODE HCD
AC$MASS_SPECTROMETRY: COLLISION_ENERGY 15
AC$MASS_SPECTROMETRY: RESOLUTION 17500
AC$CHROMATOGRAPHY: COLUMN_NAME Acquity BEH C18 1.7um, 2.1x150mm (Waters)
AC$CHROMATOGRAPHY: FLOW_GRADIENT 90/10 at 0-2 min, 0/100 at 15-20 min, 90/10 at 20.1-30 min
AC$CHROMATOGRAPHY: FLOW_RATE 0.20 mL/min
AC$CHROMATOGRAPHY: RETENTION_TIME 17.660 min
AC$CHROMATOGRAPHY: SOLVENT A 0.1% formic acid
AC$CHROMATOGRAPHY: SOLVENT B methanol
MS$FOCUSED_ION: BASE_PEAK 79.0212
MS$FOCUSED_ION: PRECURSOR_M/Z 171.138
MS$FOCUSED_ION: PRECURSOR_TYPE [M+H]+
MS$FOCUSED_ION: PRECURSOR_INTENSITY 547874.109375
MS$DATA_PROCESSING: RECALIBRATE loess on assigned fragments and MS1
MS$DATA_PROCESSING: REANALYZE Peaks with additional N2/O included
MS$DATA_PROCESSING: WHOLE RMassBank 2.99.2
PK$SPLASH: splash10-00di-2900000000-94b86168493e085c61d3
PK$ANNOTATION: m/z tentative_formula formula_count mass error(ppm)
  55.0542 C4H7+ 1 55.0542 -0.04
  57.0335 C3H5O+ 1 57.0335 0.75
  57.0699 C4H9+ 1 57.0699 0.74
  73.0284 C3H5O2+ 1 73.0284 0.26
  83.0855 C6H11+ 1 83.0855 -0.9
  85.0649 C5H9O+ 1 85.0648 1
  99.0441 C5H7O2+ 1 99.0441 0.06
  101.0598 C5H9O2+ 1 101.0597 1.25
  109.1013 C8H13+ 1 109.1012 1.53
  129.0911 C7H13O2+ 1 129.091 0.83
  171.1382 C10H19O2+ 1 171.138 1.14
PK$NUM_PEAK: 11
PK$PEAK: m/z int. rel.int.
  55.0542 2958.3 2
  57.0335 12004.5 11
  57.0699 123363.7 117
  73.0284 113131.4 107
  83.0855 7975 7
  85.0649 1762.3 1
  99.0441 2590.3 2
  101.0598 35312.8 33
  109.1013 8091.9 7
  129.0911 10513.1 10
  171.1382 1047010.7 999
//
