ACCESSION: MSBNK-LCSB-LU044654
RECORD_TITLE: Monuron; LC-ESI-QFT; MS2; CE: 60; R=17500; [M-H]-
DATE: 2020.08.19
AUTHORS: Elapavalore, A.; Kondić, T.; Singh, R.; Schymanski, E.
LICENSE: CC BY
COPYRIGHT: Copyright © 2019 by Environmental Cheminformatics, LCSB, University of Luxembourg, Luxembourg
PUBLICATION: Elapavalore, A.; Kondić, T.; et al., Adding Open Spectral Data to MassBank and PubChem Using Open Source Tools to Support Non-Targeted Exposomics of Mixtures (submitted).
PROJECT: ENTACT U.S. Environmental Protection Agency’s Non-Targeted Analysis Collaborative Trial
COMMENT: CONFIDENCE standard compound
COMMENT: INTERNAL_ID 446
COMMENT: DATASET 20200303_ENTACT_RP_MIX506
COMMENT: DATA_PROCESSING MERGING RMBmix ver. 0.2.7
COMMENT: DATA_PROCESSING PRESCREENING Shinyscreen ver. 0.8.0
COMMENT: ORIGINAL_ACQUISITION_NO 3846
COMMENT: ORIGINAL_PRECURSOR_SCAN_NO 3844
COMMENT: RAW_DATA available as MSV000091754 at [DOI:10.25345/C5S46HG75]
CH$NAME: Monuron
CH$NAME: 3-(4-chlorophenyl)-1,1-dimethylurea
CH$COMPOUND_CLASS: N/A; Environmental Standard
CH$FORMULA: C9H11ClN2O
CH$EXACT_MASS: 198.0560
CH$SMILES: CN(C)C(=O)NC1=CC=C(Cl)C=C1
CH$IUPAC: InChI=1S/C9H11ClN2O/c1-12(2)9(13)11-8-5-3-7(10)4-6-8/h3-6H,1-2H3,(H,11,13)
CH$LINK: CAS 140-41-0
CH$LINK: CHEBI CHEBI:38214
CH$LINK: KEGG C19087
CH$LINK: PUBCHEM CID:8800
CH$LINK: INCHIKEY BMLIZLVNXIYGCK-UHFFFAOYSA-N
CH$LINK: CHEMSPIDER 8470
AC$INSTRUMENT: Q Exactive Orbitrap (Thermo Scientific)
AC$INSTRUMENT_TYPE: LC-ESI-QFT
AC$MASS_SPECTROMETRY: MS_TYPE MS2
AC$MASS_SPECTROMETRY: ION_MODE NEGATIVE
AC$MASS_SPECTROMETRY: IONIZATION ESI
AC$MASS_SPECTROMETRY: FRAGMENTATION_MODE HCD
AC$MASS_SPECTROMETRY: COLLISION_ENERGY 60
AC$MASS_SPECTROMETRY: RESOLUTION 17500
AC$CHROMATOGRAPHY: COLUMN_NAME Acquity BEH C18 1.7um, 2.1x150mm (Waters)
AC$CHROMATOGRAPHY: FLOW_GRADIENT 90/10 at 0-2 min, 0/100 at 15-20 min, 90/10 at 20.1-30 min
AC$CHROMATOGRAPHY: FLOW_RATE 0.20 mL/min
AC$CHROMATOGRAPHY: RETENTION_TIME 15.120 min
AC$CHROMATOGRAPHY: SOLVENT A 0.1% formic acid
AC$CHROMATOGRAPHY: SOLVENT B methanol
MS$FOCUSED_ION: BASE_PEAK 112.9857
MS$FOCUSED_ION: PRECURSOR_M/Z 197.0487
MS$FOCUSED_ION: PRECURSOR_TYPE [M-H]-
MS$FOCUSED_ION: PRECURSOR_INTENSITY 884799.7441406
MS$DATA_PROCESSING: RECALIBRATE loess on assigned fragments and MS1
MS$DATA_PROCESSING: REANALYZE Peaks with additional N2/O included
MS$DATA_PROCESSING: WHOLE RMassBank 2.99.2
PK$SPLASH: splash10-0udi-0900000000-de1ad4aba23067eef8cb
PK$ANNOTATION: m/z tentative_formula formula_count mass error(ppm)
  116.0141 C7H2NO- 2 116.0142 -0.55
  126.0115 C6H5ClN- 2 126.0116 -0.52
  151.9908 C7H3ClNO- 1 151.9909 -0.26
  197.0485 C9H10ClN2O- 1 197.0487 -1.06
PK$NUM_PEAK: 4
PK$PEAK: m/z int. rel.int.
  116.0141 20473 327
  126.0115 6430.5 102
  151.9908 62409.8 999
  197.0485 4982.5 79
//
