ACCESSION: MSBNK-LCSB-LU045803
RECORD_TITLE: Thidiazuron; LC-ESI-QFT; MS2; CE: 45; R=17500; [M+H]+
DATE: 2020.08.19
AUTHORS: Elapavalore, A.; Kondić, T.; Singh, R.; Schymanski, E.
LICENSE: CC BY
COPYRIGHT: Copyright © 2019 by Environmental Cheminformatics, LCSB, University of Luxembourg, Luxembourg
PUBLICATION: Elapavalore, A.; Kondić, T.; et al., Adding Open Spectral Data to MassBank and PubChem Using Open Source Tools to Support Non-Targeted Exposomics of Mixtures (submitted).
PROJECT: ENTACT U.S. Environmental Protection Agency’s Non-Targeted Analysis Collaborative Trial
COMMENT: CONFIDENCE standard compound
COMMENT: INTERNAL_ID 458
COMMENT: DATASET 20200303_ENTACT_RP_MIX506
COMMENT: DATA_PROCESSING MERGING RMBmix ver. 0.2.7
COMMENT: DATA_PROCESSING PRESCREENING Shinyscreen ver. 0.8.0
COMMENT: ORIGINAL_ACQUISITION_NO 8147
COMMENT: ORIGINAL_PRECURSOR_SCAN_NO 8144
COMMENT: RAW_DATA available as MSV000091754 at [DOI:10.25345/C5S46HG75]
CH$NAME: Thidiazuron
CH$NAME: 1-phenyl-3-(thiadiazol-5-yl)urea
CH$COMPOUND_CLASS: N/A; Environmental Standard
CH$FORMULA: C9H8N4OS
CH$EXACT_MASS: 220.0419
CH$SMILES: O=C(NC1=CN=NS1)NC1=CC=CC=C1
CH$IUPAC: InChI=1S/C9H8N4OS/c14-9(12-8-6-10-13-15-8)11-7-4-2-1-3-5-7/h1-6H,(H2,11,12,14)
CH$LINK: CAS 51707-55-2
CH$LINK: CHEBI CHEBI:81977
CH$LINK: KEGG C18812
CH$LINK: PUBCHEM CID:40087
CH$LINK: INCHIKEY HFCYZXMHUIHAQI-UHFFFAOYSA-N
CH$LINK: CHEMSPIDER 36635
AC$INSTRUMENT: Q Exactive Orbitrap (Thermo Scientific)
AC$INSTRUMENT_TYPE: LC-ESI-QFT
AC$MASS_SPECTROMETRY: MS_TYPE MS2
AC$MASS_SPECTROMETRY: ION_MODE POSITIVE
AC$MASS_SPECTROMETRY: IONIZATION ESI
AC$MASS_SPECTROMETRY: FRAGMENTATION_MODE HCD
AC$MASS_SPECTROMETRY: COLLISION_ENERGY 45
AC$MASS_SPECTROMETRY: RESOLUTION 17500
AC$CHROMATOGRAPHY: COLUMN_NAME Acquity BEH C18 1.7um, 2.1x150mm (Waters)
AC$CHROMATOGRAPHY: FLOW_GRADIENT 90/10 at 0-2 min, 0/100 at 15-20 min, 90/10 at 20.1-30 min
AC$CHROMATOGRAPHY: FLOW_RATE 0.20 mL/min
AC$CHROMATOGRAPHY: RETENTION_TIME 15.561 min
AC$CHROMATOGRAPHY: SOLVENT A 0.1% formic acid
AC$CHROMATOGRAPHY: SOLVENT B methanol
MS$FOCUSED_ION: BASE_PEAK 79.0211
MS$FOCUSED_ION: PRECURSOR_M/Z 221.0492
MS$FOCUSED_ION: PRECURSOR_TYPE [M+H]+
MS$FOCUSED_ION: PRECURSOR_INTENSITY 5331899.625
MS$DATA_PROCESSING: RECALIBRATE loess on assigned fragments and MS1
MS$DATA_PROCESSING: REANALYZE Peaks with additional N2/O included
MS$DATA_PROCESSING: WHOLE RMassBank 2.99.2
PK$SPLASH: splash10-0udi-0900000000-7b5f92ed93347fc7a1f2
PK$ANNOTATION: m/z tentative_formula formula_count mass error(ppm)
  59.9903 CH2NS+ 1 59.9902 0.31
  71.9902 C2H2NS+ 1 71.9902 -0.06
  74.0058 C2H4NS+ 1 74.0059 -1.46
  91.0543 C7H7+ 1 91.0542 0.44
  92.0495 C6H6N+ 1 92.0495 -0.1
  94.0651 C6H8N+ 1 94.0651 0.03
  95.0492 C6H7O+ 1 95.0491 0.91
  102.012 C2H4N3S+ 2 102.012 -0.32
  120.0443 C7H6NO+ 2 120.0444 -0.58
  127.9913 C3H2N3OS+ 1 127.9913 -0.45
  130.9818 C7HNS+ 1 130.9824 -4.87
  144.9976 C8H3NS+ 1 144.9981 -3.41
  159.0131 C9H5NS+ 1 159.0137 -4.09
  221.0491 C9H9N4OS+ 1 221.0492 -0.06
PK$NUM_PEAK: 14
PK$PEAK: m/z int. rel.int.
  59.9903 5265.9 1
  71.9902 8260.7 2
  74.0058 12729.8 3
  91.0543 11223.3 3
  92.0495 18393.9 4
  94.0651 203783.2 54
  95.0492 6968.6 1
  102.012 3719518.5 999
  120.0443 53493.9 14
  127.9913 381900.9 102
  130.9818 8849.1 2
  144.9976 10026.3 2
  159.0131 9710.4 2
  221.0491 62161.8 16
//
