ACCESSION: MSBNK-LCSB-LU086604
RECORD_TITLE: 4`-Sulfamylacetanilide; LC-ESI-QFT; MS2; CE: 60; R=17500; [M+H]+
DATE: 2020.08.19
AUTHORS: Elapavalore, A.; Kondić, T.; Singh, R.; Schymanski, E.
LICENSE: CC BY
COPYRIGHT: Copyright © 2019 by Environmental Cheminformatics, LCSB, University of Luxembourg, Luxembourg
PUBLICATION: Elapavalore, A.; Kondić, T.; et al., Adding Open Spectral Data to MassBank and PubChem Using Open Source Tools to Support Non-Targeted Exposomics of Mixtures (submitted).
PROJECT: ENTACT U.S. Environmental Protection Agency’s Non-Targeted Analysis Collaborative Trial
COMMENT: CONFIDENCE standard compound
COMMENT: INTERNAL_ID 866
COMMENT: DATASET 20200303_ENTACT_RP_MIX501
COMMENT: DATA_PROCESSING MERGING RMBmix ver. 0.2.7
COMMENT: DATA_PROCESSING PRESCREENING Shinyscreen ver. 0.8.0
COMMENT: ORIGINAL_ACQUISITION_NO 4331
COMMENT: ORIGINAL_PRECURSOR_SCAN_NO 4328
COMMENT: RAW_DATA available as MSV000091754 at [DOI:10.25345/C5S46HG75]
CH$NAME: 4'-Sulfamylacetanilide
CH$NAME: 4-Acetamidobenzenesulfonamide
CH$NAME: N-(4-sulfamoylphenyl)acetamide
CH$COMPOUND_CLASS: N/A; Environmental Standard
CH$FORMULA: C8H10N2O3S
CH$EXACT_MASS: 214.0412
CH$SMILES: CC(=O)NC1=CC=C(C=C1)S(N)(=O)=O
CH$IUPAC: InChI=1S/C8H10N2O3S/c1-6(11)10-7-2-4-8(5-3-7)14(9,12)13/h2-5H,1H3,(H,10,11)(H2,9,12,13)
CH$LINK: CAS 121-61-9
CH$LINK: PUBCHEM CID:8482
CH$LINK: INCHIKEY PKOFBDHYTMYVGJ-UHFFFAOYSA-N
CH$LINK: CHEMSPIDER 8169
AC$INSTRUMENT: Q Exactive Orbitrap (Thermo Scientific)
AC$INSTRUMENT_TYPE: LC-ESI-QFT
AC$MASS_SPECTROMETRY: MS_TYPE MS2
AC$MASS_SPECTROMETRY: ION_MODE POSITIVE
AC$MASS_SPECTROMETRY: IONIZATION ESI
AC$MASS_SPECTROMETRY: FRAGMENTATION_MODE HCD
AC$MASS_SPECTROMETRY: COLLISION_ENERGY 60
AC$MASS_SPECTROMETRY: RESOLUTION 17500
AC$CHROMATOGRAPHY: COLUMN_NAME Acquity BEH C18 1.7um, 2.1x150mm (Waters)
AC$CHROMATOGRAPHY: FLOW_GRADIENT 90/10 at 0-2 min, 0/100 at 15-20 min, 90/10 at 20.1-30 min
AC$CHROMATOGRAPHY: FLOW_RATE 0.20 mL/min
AC$CHROMATOGRAPHY: RETENTION_TIME 8.299 min
AC$CHROMATOGRAPHY: SOLVENT A 0.1% formic acid
AC$CHROMATOGRAPHY: SOLVENT B methanol
MS$FOCUSED_ION: BASE_PEAK 79.0212
MS$FOCUSED_ION: PRECURSOR_M/Z 215.0485
MS$FOCUSED_ION: PRECURSOR_TYPE [M+H]+
MS$FOCUSED_ION: PRECURSOR_INTENSITY 1549891.46875
MS$DATA_PROCESSING: RECALIBRATE loess on assigned fragments and MS1
MS$DATA_PROCESSING: REANALYZE Peaks with additional N2/O included
MS$DATA_PROCESSING: WHOLE RMassBank 2.99.2
PK$SPLASH: splash10-0006-9100000000-fa626bb6e3e931198ac8
PK$ANNOTATION: m/z tentative_formula formula_count mass error(ppm)
  61.0107 C2H5S+ 1 61.0106 0.11
  65.0386 C5H5+ 1 65.0386 0.3
  66.0464 C5H6+ 1 66.0464 0.36
  79.0213 C2H7OS+ 1 79.0212 0.61
  79.9802 H2NO2S+ 1 79.9801 1.21
  92.0495 C6H6N+ 1 92.0495 0.54
  93.0336 C6H5O+ 1 93.0335 1.43
  93.0574 C6H7N+ 1 93.0573 0.96
  94.0652 C6H8N+ 1 94.0651 0.64
  95.0493 C6H7O+ 1 95.0491 1.53
  106.0651 C7H8N+ 1 106.0651 -0.08
  108.0445 C6H6NO+ 1 108.0444 0.65
  110.0601 C6H8NO+ 1 110.06 0.3
  111.0439 C6H7O2+ 1 111.0441 -1.39
  134.0601 C8H8NO+ 1 134.06 0.59
  135.068 C8H9NO+ 1 135.0679 1.29
  136.0758 C8H10NO+ 1 136.0757 0.75
  153.9596 C5NO3S+ 1 153.9593 1.7
  156.0115 C6H6NO2S+ 1 156.0114 1.08
  173.0383 C6H9N2O2S+ 1 173.0379 2.27
  198.0225 C8H8NO3S+ 1 198.0219 2.6
PK$NUM_PEAK: 21
PK$PEAK: m/z int. rel.int.
  61.0107 5836.9 9
  65.0386 98341 161
  66.0464 3549 5
  79.0213 30438.1 50
  79.9802 4583.5 7
  92.0495 15758.1 25
  93.0336 44892.5 73
  93.0574 607162.7 999
  94.0652 146888.3 241
  95.0493 1818.7 2
  106.0651 4381.9 7
  108.0445 61157.7 100
  110.0601 10645.4 17
  111.0439 1880.4 3
  134.0601 62454.1 102
  135.068 7273.1 11
  136.0758 46227.1 76
  153.9596 5479.8 9
  156.0115 4799.5 7
  173.0383 2004.2 3
  198.0225 3197.9 5
//
