ACCESSION: MSBNK-LCSB-LU046504
RECORD_TITLE: Methabenzthiazuron; LC-ESI-QFT; MS2; CE: 60; R=17500; [M+H]+
DATE: 2020.08.19
AUTHORS: Elapavalore, A.; Kondić, T.; Singh, R.; Schymanski, E.
LICENSE: CC BY
COPYRIGHT: Copyright © 2019 by Environmental Cheminformatics, LCSB, University of Luxembourg, Luxembourg
PUBLICATION: Elapavalore, A.; Kondić, T.; et al., Adding Open Spectral Data to MassBank and PubChem Using Open Source Tools to Support Non-Targeted Exposomics of Mixtures (submitted).
PROJECT: ENTACT U.S. Environmental Protection Agency’s Non-Targeted Analysis Collaborative Trial
COMMENT: CONFIDENCE standard compound
COMMENT: INTERNAL_ID 465
COMMENT: DATASET 20200303_ENTACT_RP_MIX506
COMMENT: DATA_PROCESSING MERGING RMBmix ver. 0.2.7
COMMENT: DATA_PROCESSING PRESCREENING Shinyscreen ver. 0.8.0
COMMENT: ORIGINAL_ACQUISITION_NO 8589
COMMENT: ORIGINAL_PRECURSOR_SCAN_NO 8584
COMMENT: RAW_DATA available as MSV000091754 at [DOI:10.25345/C5S46HG75]
CH$NAME: Methabenzthiazuron
CH$NAME: 1-(1,3-benzothiazol-2-yl)-1,3-dimethylurea
CH$COMPOUND_CLASS: N/A; Environmental Standard
CH$FORMULA: C10H11N3OS
CH$EXACT_MASS: 221.0623
CH$SMILES: CNC(=O)N(C)C1=NC2=C(S1)C=CC=C2
CH$IUPAC: InChI=1S/C10H11N3OS/c1-11-9(14)13(2)10-12-7-5-3-4-6-8(7)15-10/h3-6H,1-2H3,(H,11,14)
CH$LINK: CAS 18691-97-9
CH$LINK: CHEBI CHEBI:6803
CH$LINK: KEGG C10909
CH$LINK: PUBCHEM CID:29216
CH$LINK: INCHIKEY RRVIAQKBTUQODI-UHFFFAOYSA-N
CH$LINK: CHEMSPIDER 27173
AC$INSTRUMENT: Q Exactive Orbitrap (Thermo Scientific)
AC$INSTRUMENT_TYPE: LC-ESI-QFT
AC$MASS_SPECTROMETRY: MS_TYPE MS2
AC$MASS_SPECTROMETRY: ION_MODE POSITIVE
AC$MASS_SPECTROMETRY: IONIZATION ESI
AC$MASS_SPECTROMETRY: FRAGMENTATION_MODE HCD
AC$MASS_SPECTROMETRY: COLLISION_ENERGY 60
AC$MASS_SPECTROMETRY: RESOLUTION 17500
AC$CHROMATOGRAPHY: COLUMN_NAME Acquity BEH C18 1.7um, 2.1x150mm (Waters)
AC$CHROMATOGRAPHY: FLOW_GRADIENT 90/10 at 0-2 min, 0/100 at 15-20 min, 90/10 at 20.1-30 min
AC$CHROMATOGRAPHY: FLOW_RATE 0.20 mL/min
AC$CHROMATOGRAPHY: RETENTION_TIME 16.489 min
AC$CHROMATOGRAPHY: SOLVENT A 0.1% formic acid
AC$CHROMATOGRAPHY: SOLVENT B methanol
MS$FOCUSED_ION: BASE_PEAK 79.0211
MS$FOCUSED_ION: PRECURSOR_M/Z 222.0696
MS$FOCUSED_ION: PRECURSOR_TYPE [M+H]+
MS$FOCUSED_ION: PRECURSOR_INTENSITY 3861059.96875
MS$DATA_PROCESSING: RECALIBRATE loess on assigned fragments and MS1
MS$DATA_PROCESSING: REANALYZE Peaks with additional N2/O included
MS$DATA_PROCESSING: WHOLE RMassBank 2.99.2
PK$SPLASH: splash10-014i-0900000000-e24d8b6bc36a5a68fc02
PK$ANNOTATION: m/z tentative_formula formula_count mass error(ppm)
  58.0288 C2H4NO+ 1 58.0287 0.55
  65.0385 C5H5+ 1 65.0386 -0.61
  71.0603 C3H7N2+ 1 71.0604 -0.51
  80.0494 C5H6N+ 1 80.0495 -0.69
  92.0495 C6H6N+ 1 92.0495 0.32
  109.0107 C6H5S+ 1 109.0106 0.82
  123.0137 C6H5NS+ 1 123.0137 -0.29
  124.0216 C6H6NS+ 1 124.0215 0.67
  132.0683 C8H8N2+ 1 132.0682 0.54
  136.0215 C7H6NS+ 1 136.0215 -0.65
  150.0247 C7H6N2S+ 1 150.0246 0.48
  163.0326 C8H7N2S+ 1 163.0324 1.06
  164.0406 C8H8N2S+ 1 164.0403 1.72
  165.0482 C8H9N2S+ 1 165.0481 0.53
PK$NUM_PEAK: 14
PK$PEAK: m/z int. rel.int.
  58.0288 29312.4 9
  65.0385 3663.4 1
  71.0603 11133.5 3
  80.0494 8402.6 2
  92.0495 110238.6 34
  109.0107 24563.7 7
  123.0137 5784 1
  124.0216 425489.2 131
  132.0683 7065.1 2
  136.0215 4553.9 1
  150.0247 709686.4 219
  163.0326 20424.1 6
  164.0406 3473.3 1
  165.0482 3231831.5 999
//
