ACCESSION: MSBNK-LCSB-LU107904
RECORD_TITLE: Terbucarb; LC-ESI-QFT; MS2; CE: 60; R=17500; [M+H]+
DATE: 2020.08.19
AUTHORS: Elapavalore, A.; Kondić, T.; Singh, R.; Schymanski, E.
LICENSE: CC BY
COPYRIGHT: Copyright © 2019 by Environmental Cheminformatics, LCSB, University of Luxembourg, Luxembourg
PUBLICATION: Elapavalore, A.; Kondić, T.; et al., Adding Open Spectral Data to MassBank and PubChem Using Open Source Tools to Support Non-Targeted Exposomics of Mixtures (submitted).
PROJECT: ENTACT U.S. Environmental Protection Agency’s Non-Targeted Analysis Collaborative Trial
COMMENT: CONFIDENCE standard compound
COMMENT: INTERNAL_ID 1079
COMMENT: DATASET 20200303_ENTACT_RP_MIX508
COMMENT: DATA_PROCESSING MERGING RMBmix ver. 0.2.7
COMMENT: DATA_PROCESSING PRESCREENING Shinyscreen ver. 0.8.0
COMMENT: ORIGINAL_ACQUISITION_NO 10932
COMMENT: ORIGINAL_PRECURSOR_SCAN_NO 10927
COMMENT: RAW_DATA available as MSV000091754 at [DOI:10.25345/C5S46HG75]
CH$NAME: Terbucarb
CH$NAME: (2,6-ditert-butyl-4-methylphenyl) N-methylcarbamate
CH$COMPOUND_CLASS: N/A; Environmental Standard
CH$FORMULA: C17H27NO2
CH$EXACT_MASS: 277.2042
CH$SMILES: CNC(=O)OC1=C(C=C(C)C=C1C(C)(C)C)C(C)(C)C
CH$IUPAC: InChI=1S/C17H27NO2/c1-11-9-12(16(2,3)4)14(20-15(19)18-8)13(10-11)17(5,6)7/h9-10H,1-8H3,(H,18,19)
CH$LINK: CAS 1918-11-2
CH$LINK: CHEBI CHEBI:82250
CH$LINK: PUBCHEM CID:15967
CH$LINK: INCHIKEY PNRAZZZISDRWMV-UHFFFAOYSA-N
CH$LINK: CHEMSPIDER 15172
AC$INSTRUMENT: Q Exactive Orbitrap (Thermo Scientific)
AC$INSTRUMENT_TYPE: LC-ESI-QFT
AC$MASS_SPECTROMETRY: MS_TYPE MS2
AC$MASS_SPECTROMETRY: ION_MODE POSITIVE
AC$MASS_SPECTROMETRY: IONIZATION ESI
AC$MASS_SPECTROMETRY: FRAGMENTATION_MODE HCD
AC$MASS_SPECTROMETRY: COLLISION_ENERGY 60
AC$MASS_SPECTROMETRY: RESOLUTION 17500
AC$CHROMATOGRAPHY: COLUMN_NAME Acquity BEH C18 1.7um, 2.1x150mm (Waters)
AC$CHROMATOGRAPHY: FLOW_GRADIENT 90/10 at 0-2 min, 0/100 at 15-20 min, 90/10 at 20.1-30 min
AC$CHROMATOGRAPHY: FLOW_RATE 0.20 mL/min
AC$CHROMATOGRAPHY: RETENTION_TIME 20.802 min
AC$CHROMATOGRAPHY: SOLVENT A 0.1% formic acid
AC$CHROMATOGRAPHY: SOLVENT B methanol
MS$FOCUSED_ION: BASE_PEAK 79.0211
MS$FOCUSED_ION: PRECURSOR_M/Z 278.2115
MS$FOCUSED_ION: PRECURSOR_TYPE [M+H]+
MS$FOCUSED_ION: PRECURSOR_INTENSITY 46531100.57813
MS$DATA_PROCESSING: RECALIBRATE loess on assigned fragments and MS1
MS$DATA_PROCESSING: REANALYZE Peaks with additional N2/O included
MS$DATA_PROCESSING: WHOLE RMassBank 2.99.2
PK$SPLASH: splash10-0udi-0900000000-148d20edbe0c505cf3e8
PK$ANNOTATION: m/z tentative_formula formula_count mass error(ppm)
  55.0543 C4H7+ 1 55.0542 0.46
  91.0541 C7H7+ 1 91.0542 -0.87
  106.0651 C7H8N+ 1 106.0651 -0.38
  107.0729 C7H9N+ 1 107.073 -0.13
  120.0805 C8H10N+ 1 120.0808 -2.09
  121.0886 C8H11N+ 1 121.0886 -0.03
  122.0964 C8H12N+ 1 122.0964 -0.18
  134.06 C8H8NO+ 1 134.06 -0.15
  148.0757 C9H10NO+ 1 148.0757 -0.02
  150.0552 C8H8NO2+ 1 150.055 1.39
  151.0627 C8H9NO2+ 1 151.0628 -0.42
  166.0862 C9H12NO2+ 1 166.0863 -0.27
  278.2112 C17H28NO2+ 1 278.2115 -0.81
PK$NUM_PEAK: 13
PK$PEAK: m/z int. rel.int.
  55.0543 34899 1
  91.0541 34741.4 1
  106.0651 140117.6 4
  107.0729 991780.1 34
  120.0805 73893.3 2
  121.0886 107775.3 3
  122.0964 368354.8 12
  134.06 1093719.9 37
  148.0757 61750.8 2
  150.0552 1586202.5 54
  151.0627 28970798 999
  166.0862 9981408 344
  278.2112 42283.2 1
//
