ACCESSION: MSBNK-LCSB-LU086305
RECORD_TITLE: Halofenozide; LC-ESI-QFT; MS2; CE: 75; R=17500; [M+H]+
DATE: 2020.08.19
AUTHORS: Elapavalore, A.; Kondić, T.; Singh, R.; Schymanski, E.
LICENSE: CC BY
COPYRIGHT: Copyright © 2019 by Environmental Cheminformatics, LCSB, University of Luxembourg, Luxembourg
PUBLICATION: Elapavalore, A.; Kondić, T.; et al., Adding Open Spectral Data to MassBank and PubChem Using Open Source Tools to Support Non-Targeted Exposomics of Mixtures (submitted).
PROJECT: ENTACT U.S. Environmental Protection Agency’s Non-Targeted Analysis Collaborative Trial
COMMENT: CONFIDENCE standard compound
COMMENT: INTERNAL_ID 863
COMMENT: DATASET 20200303_ENTACT_RP_MIX508
COMMENT: DATA_PROCESSING MERGING RMBmix ver. 0.2.7
COMMENT: DATA_PROCESSING PRESCREENING Shinyscreen ver. 0.8.0
COMMENT: ORIGINAL_ACQUISITION_NO 9073
COMMENT: ORIGINAL_PRECURSOR_SCAN_NO 9068
COMMENT: RAW_DATA available as MSV000091754 at [DOI:10.25345/C5S46HG75]
CH$NAME: Halofenozide
CH$NAME: N'-benzoyl-N'-tert-butyl-4-chlorobenzohydrazide
CH$COMPOUND_CLASS: N/A; Environmental Standard
CH$FORMULA: C18H19ClN2O2
CH$EXACT_MASS: 330.1135
CH$SMILES: CC(C)(C)N(NC(=O)C1=CC=C(Cl)C=C1)C(=O)C1=CC=CC=C1
CH$IUPAC: InChI=1S/C18H19ClN2O2/c1-18(2,3)21(17(23)14-7-5-4-6-8-14)20-16(22)13-9-11-15(19)12-10-13/h4-12H,1-3H3,(H,20,22)
CH$LINK: CAS 112226-61-6
CH$LINK: CHEBI CHEBI:38451
CH$LINK: KEGG C18791
CH$LINK: PUBCHEM CID:114994
CH$LINK: INCHIKEY CNKHSLKYRMDDNQ-UHFFFAOYSA-N
CH$LINK: CHEMSPIDER 102925
AC$INSTRUMENT: Q Exactive Orbitrap (Thermo Scientific)
AC$INSTRUMENT_TYPE: LC-ESI-QFT
AC$MASS_SPECTROMETRY: MS_TYPE MS2
AC$MASS_SPECTROMETRY: ION_MODE POSITIVE
AC$MASS_SPECTROMETRY: IONIZATION ESI
AC$MASS_SPECTROMETRY: FRAGMENTATION_MODE HCD
AC$MASS_SPECTROMETRY: COLLISION_ENERGY 75
AC$MASS_SPECTROMETRY: RESOLUTION 17500
AC$CHROMATOGRAPHY: COLUMN_NAME Acquity BEH C18 1.7um, 2.1x150mm (Waters)
AC$CHROMATOGRAPHY: FLOW_GRADIENT 90/10 at 0-2 min, 0/100 at 15-20 min, 90/10 at 20.1-30 min
AC$CHROMATOGRAPHY: FLOW_RATE 0.20 mL/min
AC$CHROMATOGRAPHY: RETENTION_TIME 17.343 min
AC$CHROMATOGRAPHY: SOLVENT A 0.1% formic acid
AC$CHROMATOGRAPHY: SOLVENT B methanol
MS$FOCUSED_ION: BASE_PEAK 79.0211
MS$FOCUSED_ION: PRECURSOR_M/Z 331.1208
MS$FOCUSED_ION: PRECURSOR_TYPE [M+H]+
MS$FOCUSED_ION: PRECURSOR_INTENSITY 1389511.125
MS$DATA_PROCESSING: RECALIBRATE loess on assigned fragments and MS1
MS$DATA_PROCESSING: REANALYZE Peaks with additional N2/O included
MS$DATA_PROCESSING: WHOLE RMassBank 2.99.2
PK$SPLASH: splash10-000i-1390000000-500a08f920b4112ff203
PK$ANNOTATION: m/z tentative_formula formula_count mass error(ppm)
  72.0806 C4H10N+ 1 72.0808 -1.97
  95.049 C6H7O+ 2 95.0491 -1.38
  105.0336 C7H5O+ 2 105.0335 0.64
  194.0967 C14H12N+ 2 194.0964 1.31
  223.1228 C15H15N2+ 3 223.123 -0.63
  239.1545 C16H19N2+ 1 239.1543 1.1
PK$NUM_PEAK: 6
PK$PEAK: m/z int. rel.int.
  72.0806 1602.9 95
  95.049 1886.1 112
  105.0336 3726 221
  194.0967 3133.3 186
  223.1228 2947 175
  239.1545 16812.5 999
//
