ACCESSION: MSBNK-LCSB-LU081555
RECORD_TITLE: Pyrinuron; LC-ESI-QFT; MS2; CE: 75; R=17500; [M-H]-
DATE: 2020.08.19
AUTHORS: Elapavalore, A.; Kondić, T.; Singh, R.; Schymanski, E.
LICENSE: CC BY
COPYRIGHT: Copyright © 2019 by Environmental Cheminformatics, LCSB, University of Luxembourg, Luxembourg
PUBLICATION: Elapavalore, A.; Kondić, T.; et al., Adding Open Spectral Data to MassBank and PubChem Using Open Source Tools to Support Non-Targeted Exposomics of Mixtures (submitted).
PROJECT: ENTACT U.S. Environmental Protection Agency’s Non-Targeted Analysis Collaborative Trial
COMMENT: CONFIDENCE standard compound
COMMENT: INTERNAL_ID 815
COMMENT: DATASET 20200303_ENTACT_RP_MIX508
COMMENT: DATA_PROCESSING MERGING RMBmix ver. 0.2.7
COMMENT: DATA_PROCESSING PRESCREENING Shinyscreen ver. 0.8.0
COMMENT: ORIGINAL_ACQUISITION_NO 2906
COMMENT: ORIGINAL_PRECURSOR_SCAN_NO 2903
COMMENT: RAW_DATA available as MSV000091754 at [DOI:10.25345/C5S46HG75]
CH$NAME: Pyrinuron
CH$NAME: Pyriminil
CH$NAME: 1-(4-nitrophenyl)-3-(pyridin-3-ylmethyl)urea
CH$COMPOUND_CLASS: N/A; Environmental Standard
CH$FORMULA: C13H12N4O3
CH$EXACT_MASS: 272.0909
CH$SMILES: [O-][N+](=O)C1=CC=C(NC(=O)NCC2=CC=CN=C2)C=C1
CH$IUPAC: InChI=1S/C13H12N4O3/c18-13(15-9-10-2-1-7-14-8-10)16-11-3-5-12(6-4-11)17(19)20/h1-8H,9H2,(H2,15,16,18)
CH$LINK: CAS 53558-25-1
CH$LINK: PUBCHEM CID:40813
CH$LINK: INCHIKEY CLKZWXHKFXZIMA-UHFFFAOYSA-N
CH$LINK: CHEMSPIDER 37276
AC$INSTRUMENT: Q Exactive Orbitrap (Thermo Scientific)
AC$INSTRUMENT_TYPE: LC-ESI-QFT
AC$MASS_SPECTROMETRY: MS_TYPE MS2
AC$MASS_SPECTROMETRY: ION_MODE NEGATIVE
AC$MASS_SPECTROMETRY: IONIZATION ESI
AC$MASS_SPECTROMETRY: FRAGMENTATION_MODE HCD
AC$MASS_SPECTROMETRY: COLLISION_ENERGY 75
AC$MASS_SPECTROMETRY: RESOLUTION 17500
AC$CHROMATOGRAPHY: COLUMN_NAME Acquity BEH C18 1.7um, 2.1x150mm (Waters)
AC$CHROMATOGRAPHY: FLOW_GRADIENT 90/10 at 0-2 min, 0/100 at 15-20 min, 90/10 at 20.1-30 min
AC$CHROMATOGRAPHY: FLOW_RATE 0.20 mL/min
AC$CHROMATOGRAPHY: RETENTION_TIME 11.626 min
AC$CHROMATOGRAPHY: SOLVENT A 0.1% formic acid
AC$CHROMATOGRAPHY: SOLVENT B methanol
MS$FOCUSED_ION: BASE_PEAK 271.0836
MS$FOCUSED_ION: PRECURSOR_M/Z 271.0837
MS$FOCUSED_ION: PRECURSOR_TYPE [M-H]-
MS$FOCUSED_ION: PRECURSOR_INTENSITY 5072488.580811
MS$DATA_PROCESSING: RECALIBRATE loess on assigned fragments and MS1
MS$DATA_PROCESSING: REANALYZE Peaks with additional N2/O included
MS$DATA_PROCESSING: WHOLE RMassBank 2.99.2
PK$SPLASH: splash10-000i-0900000000-b993e4cf5b15b63bc8ea
PK$ANNOTATION: m/z tentative_formula formula_count mass error(ppm)
  107.0377 C6H5NO- 2 107.0377 0.16
  137.0356 C6H5N2O2- 1 137.0357 -0.05
PK$NUM_PEAK: 2
PK$PEAK: m/z int. rel.int.
  107.0377 537330.9 433
  137.0356 1239407.8 999
//
