ACCESSION: MSBNK-LCSB-LU040053
RECORD_TITLE: Pyrithiobac; LC-ESI-QFT; MS2; CE: 45; R=17500; [M-H]-
DATE: 2020.08.19
AUTHORS: Elapavalore, A.; Kondić, T.; Singh, R.; Schymanski, E.
LICENSE: CC BY
COPYRIGHT: Copyright © 2019 by Environmental Cheminformatics, LCSB, University of Luxembourg, Luxembourg
PUBLICATION: Elapavalore, A.; Kondić, T.; et al., Adding Open Spectral Data to MassBank and PubChem Using Open Source Tools to Support Non-Targeted Exposomics of Mixtures (submitted).
PROJECT: ENTACT U.S. Environmental Protection Agency’s Non-Targeted Analysis Collaborative Trial
COMMENT: CONFIDENCE standard compound
COMMENT: INTERNAL_ID 400
COMMENT: DATASET 20200303_ENTACT_RP_MIX505
COMMENT: DATA_PROCESSING MERGING RMBmix ver. 0.2.7
COMMENT: DATA_PROCESSING PRESCREENING Shinyscreen ver. 0.8.0
COMMENT: ORIGINAL_ACQUISITION_NO 4691
COMMENT: ORIGINAL_PRECURSOR_SCAN_NO 4686
COMMENT: RAW_DATA available as MSV000091754 at [DOI:10.25345/C5S46HG75]
CH$NAME: Pyrithiobac
CH$NAME: 2-chloro-6-(4,6-dimethoxypyrimidin-2-yl)sulfanylbenzoic acid
CH$COMPOUND_CLASS: N/A; Environmental Standard
CH$FORMULA: C13H11ClN2O4S
CH$EXACT_MASS: 326.0128
CH$SMILES: COC1=CC(OC)=NC(SC2=C(C(O)=O)C(Cl)=CC=C2)=N1
CH$IUPAC: InChI=1S/C13H11ClN2O4S/c1-19-9-6-10(20-2)16-13(15-9)21-8-5-3-4-7(14)11(8)12(17)18/h3-6H,1-2H3,(H,17,18)
CH$LINK: CAS 123342-93-8
CH$LINK: PUBCHEM CID:91781
CH$LINK: INCHIKEY QEGVVEOAVNHRAA-UHFFFAOYSA-N
CH$LINK: CHEMSPIDER 82878
AC$INSTRUMENT: Q Exactive Orbitrap (Thermo Scientific)
AC$INSTRUMENT_TYPE: LC-ESI-QFT
AC$MASS_SPECTROMETRY: MS_TYPE MS2
AC$MASS_SPECTROMETRY: ION_MODE NEGATIVE
AC$MASS_SPECTROMETRY: IONIZATION ESI
AC$MASS_SPECTROMETRY: FRAGMENTATION_MODE HCD
AC$MASS_SPECTROMETRY: COLLISION_ENERGY 45
AC$MASS_SPECTROMETRY: RESOLUTION 17500
AC$CHROMATOGRAPHY: COLUMN_NAME Acquity BEH C18 1.7um, 2.1x150mm (Waters)
AC$CHROMATOGRAPHY: FLOW_GRADIENT 90/10 at 0-2 min, 0/100 at 15-20 min, 90/10 at 20.1-30 min
AC$CHROMATOGRAPHY: FLOW_RATE 0.20 mL/min
AC$CHROMATOGRAPHY: RETENTION_TIME 17.343 min
AC$CHROMATOGRAPHY: SOLVENT A 0.1% formic acid
AC$CHROMATOGRAPHY: SOLVENT B methanol
MS$FOCUSED_ION: BASE_PEAK 329.1063
MS$FOCUSED_ION: PRECURSOR_M/Z 325.0055
MS$FOCUSED_ION: PRECURSOR_TYPE [M-H]-
MS$FOCUSED_ION: PRECURSOR_INTENSITY 1155542.171875
MS$DATA_PROCESSING: RECALIBRATE loess on assigned fragments and MS1
MS$DATA_PROCESSING: REANALYZE Peaks with additional N2/O included
MS$DATA_PROCESSING: WHOLE RMassBank 2.99.2
PK$SPLASH: splash10-001i-1920000000-623f5e9cef489398a9b7
PK$ANNOTATION: m/z tentative_formula formula_count mass error(ppm)
  65.9985 C3NO- 2 65.9985 -0.38
  79.0302 C4H3N2- 1 79.0302 0.5
  150.0115 C8H5ClN- 3 150.0116 -0.43
  155.0463 C6H7N2O3- 1 155.0462 0.62
  164.9985 C8H4ClNO- 4 164.9987 -0.94
  183.012 C8H7O3S- 3 183.0121 -0.84
  184.0201 C8H8O3S- 2 184.02 0.51
  193.0175 C9H6ClN2O- 4 193.0174 0.35
  216.0099 C11H5ClN2O- 4 216.0096 1.43
  234.0202 C11H7ClN2O2- 2 234.0202 0.15
PK$NUM_PEAK: 10
PK$PEAK: m/z int. rel.int.
  65.9985 6061.2 306
  79.0302 2183.9 110
  150.0115 15052.2 760
  155.0463 13439.7 678
  164.9985 4708.7 237
  183.012 19773.8 999
  184.0201 9544.2 482
  193.0175 7869.1 397
  216.0099 9602.7 485
  234.0202 6718.7 339
//
