ACCESSION: MSBNK-LCSB-LU029701
RECORD_TITLE: C.I. Solvent Yellow 14; LC-ESI-QFT; MS2; CE: 15; R=17500; [M+H]+
DATE: 2020.08.19
AUTHORS: Elapavalore, A.; Kondić, T.; Singh, R.; Schymanski, E.
LICENSE: CC BY
COPYRIGHT: Copyright © 2019 by Environmental Cheminformatics, LCSB, University of Luxembourg, Luxembourg
PUBLICATION: Elapavalore, A.; Kondić, T.; et al., Adding Open Spectral Data to MassBank and PubChem Using Open Source Tools to Support Non-Targeted Exposomics of Mixtures (submitted).
PROJECT: ENTACT U.S. Environmental Protection Agency’s Non-Targeted Analysis Collaborative Trial
COMMENT: CONFIDENCE standard compound
COMMENT: INTERNAL_ID 297
COMMENT: DATASET 20200303_ENTACT_RP_MIX505
COMMENT: DATA_PROCESSING MERGING RMBmix ver. 0.2.7
COMMENT: DATA_PROCESSING PRESCREENING Shinyscreen ver. 0.8.0
COMMENT: ORIGINAL_ACQUISITION_NO 10943
COMMENT: ORIGINAL_PRECURSOR_SCAN_NO 10942
COMMENT: RAW_DATA available as MSV000091754 at [DOI:10.25345/C5S46HG75]
CH$NAME: C.I. Solvent Yellow 14
CH$NAME: 1-phenyldiazenylnaphthalen-2-ol
CH$COMPOUND_CLASS: N/A; Environmental Standard
CH$FORMULA: C16H12N2O
CH$EXACT_MASS: 248.0950
CH$SMILES: OC1=CC=C2C=CC=CC2=C1N=NC1=CC=CC=C1
CH$IUPAC: InChI=1S/C16H12N2O/c19-15-11-10-12-6-4-5-9-14(12)16(15)18-17-13-7-2-1-3-8-13/h1-11,19H
CH$LINK: CAS 842-07-9
CH$LINK: CHEBI CHEBI:30958
CH$LINK: PUBCHEM CID:13297
CH$LINK: INCHIKEY MRQIXHXHHPWVIL-UHFFFAOYSA-N
CH$LINK: CHEMSPIDER 20481333
AC$INSTRUMENT: Q Exactive Orbitrap (Thermo Scientific)
AC$INSTRUMENT_TYPE: LC-ESI-QFT
AC$MASS_SPECTROMETRY: MS_TYPE MS2
AC$MASS_SPECTROMETRY: ION_MODE POSITIVE
AC$MASS_SPECTROMETRY: IONIZATION ESI
AC$MASS_SPECTROMETRY: FRAGMENTATION_MODE HCD
AC$MASS_SPECTROMETRY: COLLISION_ENERGY 15
AC$MASS_SPECTROMETRY: RESOLUTION 17500
AC$CHROMATOGRAPHY: COLUMN_NAME Acquity BEH C18 1.7um, 2.1x150mm (Waters)
AC$CHROMATOGRAPHY: FLOW_GRADIENT 90/10 at 0-2 min, 0/100 at 15-20 min, 90/10 at 20.1-30 min
AC$CHROMATOGRAPHY: FLOW_RATE 0.20 mL/min
AC$CHROMATOGRAPHY: RETENTION_TIME 20.798 min
AC$CHROMATOGRAPHY: SOLVENT A 0.1% formic acid
AC$CHROMATOGRAPHY: SOLVENT B methanol
MS$FOCUSED_ION: BASE_PEAK 79.0211
MS$FOCUSED_ION: PRECURSOR_M/Z 249.1022
MS$FOCUSED_ION: PRECURSOR_TYPE [M+H]+
MS$FOCUSED_ION: PRECURSOR_INTENSITY 1668329.53125
MS$DATA_PROCESSING: RECALIBRATE loess on assigned fragments and MS1
MS$DATA_PROCESSING: REANALYZE Peaks with additional N2/O included
MS$DATA_PROCESSING: WHOLE RMassBank 2.99.2
PK$SPLASH: splash10-0002-1190000000-989d3a815c73466b0a47
PK$ANNOTATION: m/z tentative_formula formula_count mass error(ppm)
  92.0495 C6H6N+ 1 92.0495 0.21
  93.0574 C6H7N+ 1 93.0573 0.73
  128.0498 C9H6N+ 1 128.0495 2.34
  156.0444 C10H6NO+ 1 156.0444 0.3
  221.1077 C15H13N2+ 1 221.1073 1.85
  231.0917 C16H11N2+ 1 231.0917 0.08
  232.0787 C16H10NO+ 1 232.0757 12.82
  232.0997 C16H12N2+ 1 232.0995 0.69
  233.0834 C16H11NO+ 1 233.0835 -0.57
  248.0952 C16H12N2O+ 1 248.0944 3.3
  249.1021 C16H13N2O+ 1 249.1022 -0.43
PK$NUM_PEAK: 11
PK$PEAK: m/z int. rel.int.
  92.0495 3788.5 5
  93.0574 176838 244
  128.0498 4279.2 5
  156.0444 211781.9 292
  221.1077 6808.4 9
  231.0917 57638.4 79
  232.0787 36027.8 49
  232.0997 313308.9 432
  233.0834 5193.1 7
  248.0952 7070.5 9
  249.1021 723099.2 999
//
