ACCESSION: MSBNK-LCSB-LU136703
RECORD_TITLE: Dicrotophos; LC-ESI-QFT; MS2; CE: 45; R=17500; [M+H]+
DATE: 2020.08.19
AUTHORS: Elapavalore, A.; Kondić, T.; Singh, R.; Schymanski, E.
LICENSE: CC BY
COPYRIGHT: Copyright © 2019 by Environmental Cheminformatics, LCSB, University of Luxembourg, Luxembourg
PUBLICATION: Elapavalore, A.; Kondić, T.; et al., Adding Open Spectral Data to MassBank and PubChem Using Open Source Tools to Support Non-Targeted Exposomics of Mixtures (submitted).
PROJECT: ENTACT U.S. Environmental Protection Agency’s Non-Targeted Analysis Collaborative Trial
COMMENT: CONFIDENCE standard compound
COMMENT: INTERNAL_ID 1367
COMMENT: DATASET 20200303_ENTACT_RP_MIX504
COMMENT: DATA_PROCESSING MERGING RMBmix ver. 0.2.7
COMMENT: DATA_PROCESSING PRESCREENING Shinyscreen ver. 0.8.0
COMMENT: ORIGINAL_ACQUISITION_NO 6200
COMMENT: ORIGINAL_PRECURSOR_SCAN_NO 6197
COMMENT: RAW_DATA available as MSV000091754 at [DOI:10.25345/C5S46HG75]
CH$NAME: Dicrotophos
CH$NAME: [(E)-4-(dimethylamino)-4-oxobut-2-en-2-yl] dimethyl phosphate
CH$COMPOUND_CLASS: N/A; Environmental Standard
CH$FORMULA: C8H16NO5P
CH$EXACT_MASS: 237.0766
CH$SMILES: COP(=O)(OC)O\C(C)=C\C(=O)N(C)C
CH$IUPAC: InChI=1S/C8H16NO5P/c1-7(6-8(10)9(2)3)14-15(11,12-4)13-5/h6H,1-5H3/b7-6+
CH$LINK: CAS 141-66-2
CH$LINK: CHEBI CHEBI:38658
CH$LINK: KEGG C18656
CH$LINK: PUBCHEM CID:5371560
CH$LINK: INCHIKEY VEENJGZXVHKXNB-VOTSOKGWSA-N
CH$LINK: CHEMSPIDER 4522051
AC$INSTRUMENT: Q Exactive Orbitrap (Thermo Scientific)
AC$INSTRUMENT_TYPE: LC-ESI-QFT
AC$MASS_SPECTROMETRY: MS_TYPE MS2
AC$MASS_SPECTROMETRY: ION_MODE POSITIVE
AC$MASS_SPECTROMETRY: IONIZATION ESI
AC$MASS_SPECTROMETRY: FRAGMENTATION_MODE HCD
AC$MASS_SPECTROMETRY: COLLISION_ENERGY 45
AC$MASS_SPECTROMETRY: RESOLUTION 17500
AC$CHROMATOGRAPHY: COLUMN_NAME Acquity BEH C18 1.7um, 2.1x150mm (Waters)
AC$CHROMATOGRAPHY: FLOW_GRADIENT 90/10 at 0-2 min, 0/100 at 15-20 min, 90/10 at 20.1-30 min
AC$CHROMATOGRAPHY: FLOW_RATE 0.20 mL/min
AC$CHROMATOGRAPHY: RETENTION_TIME 11.813 min
AC$CHROMATOGRAPHY: SOLVENT A 0.1% formic acid
AC$CHROMATOGRAPHY: SOLVENT B methanol
MS$FOCUSED_ION: BASE_PEAK 79.0212
MS$FOCUSED_ION: PRECURSOR_M/Z 238.0839
MS$FOCUSED_ION: PRECURSOR_TYPE [M+H]+
MS$FOCUSED_ION: PRECURSOR_INTENSITY 15452876.65625
MS$DATA_PROCESSING: RECALIBRATE loess on assigned fragments and MS1
MS$DATA_PROCESSING: REANALYZE Peaks with additional N2/O included
MS$DATA_PROCESSING: WHOLE RMassBank 2.99.2
PK$SPLASH: splash10-024i-8900000000-a56732db8f5595602117
PK$ANNOTATION: m/z tentative_formula formula_count mass error(ppm)
  53.0385 C4H5+ 2 53.0386 -1.11
  55.0178 C3H3O+ 1 55.0178 -0.3
  55.0416 C3H5N+ 1 55.0417 -0.19
  55.0542 C4H7+ 2 55.0542 0.32
  56.013 C2H2NO+ 1 56.0131 -1.02
  56.0496 C3H6N+ 1 56.0495 2.1
  58.0288 C2H4NO+ 1 58.0287 0.62
  58.0651 C3H8N+ 1 58.0651 0.09
  67.0178 C4H3O+ 2 67.0178 -0.26
  68.0494 C4H6N+ 1 68.0495 -0.8
  69.0335 C4H5O+ 2 69.0335 -0.39
  70.0651 C4H8N+ 1 70.0651 -0.19
  72.0443 C3H6NO+ 1 72.0444 -0.59
  81.0335 C5H5O+ 2 81.0335 -0.32
  84.0808 C5H10N+ 1 84.0808 -0.1
  94.0652 C6H8N+ 1 94.0651 0.75
  110.0601 C6H8NO+ 1 110.06 0.9
  112.0757 C6H10NO+ 1 112.0757 -0.19
  112.9998 CH6O4P+ 1 112.9998 -0.42
  127.0155 C2H8O4P+ 1 127.0155 -0.1
  193.026 C6H10O5P+ 1 193.026 -0.44
PK$NUM_PEAK: 21
PK$PEAK: m/z int. rel.int.
  53.0385 2981.4 1
  55.0178 19377.7 7
  55.0416 6854 2
  55.0542 10708.3 4
  56.013 3002.7 1
  56.0496 6402.5 2
  58.0288 10605.9 4
  58.0651 48513.9 18
  67.0178 303950.8 118
  68.0494 5848.2 2
  69.0335 13731.3 5
  70.0651 183494 71
  72.0443 2570017.2 999
  81.0335 14812.8 5
  84.0808 51723.8 20
  94.0652 10048.9 3
  110.0601 12959.5 5
  112.0757 1544083.2 600
  112.9998 5751.1 2
  127.0155 1825007.8 709
  193.026 19507.5 7
//
