ACCESSION: MSBNK-LCSB-LU119701
RECORD_TITLE: PharmaGSID_48518; LC-ESI-QFT; MS2; CE: 15; R=17500; [M+H]+
DATE: 2020.08.19
AUTHORS: Elapavalore, A.; Kondić, T.; Singh, R.; Schymanski, E.
LICENSE: CC BY
COPYRIGHT: Copyright © 2019 by Environmental Cheminformatics, LCSB, University of Luxembourg, Luxembourg
PUBLICATION: Elapavalore, A.; Kondić, T.; et al., Adding Open Spectral Data to MassBank and PubChem Using Open Source Tools to Support Non-Targeted Exposomics of Mixtures (submitted).
PROJECT: ENTACT U.S. Environmental Protection Agency’s Non-Targeted Analysis Collaborative Trial
COMMENT: CONFIDENCE standard compound
COMMENT: INTERNAL_ID 1197
COMMENT: DATASET 20200303_ENTACT_RP_MIX503
COMMENT: DATA_PROCESSING MERGING RMBmix ver. 0.2.7
COMMENT: DATA_PROCESSING PRESCREENING Shinyscreen ver. 0.8.0
COMMENT: ORIGINAL_ACQUISITION_NO 8572
COMMENT: ORIGINAL_PRECURSOR_SCAN_NO 8570
COMMENT: RAW_DATA available as MSV000091754 at [DOI:10.25345/C5S46HG75]
CH$NAME: PharmaGSID_48518
CH$NAME: 2-bromo-4-fluoro-N-[(E)-2-thiophen-2-ylethenyl]sulfonylbenzamide
CH$COMPOUND_CLASS: N/A; Environmental Standard
CH$FORMULA: C13H9BrFNO3S2
CH$EXACT_MASS: 388.9191
CH$SMILES: FC1=CC(Br)=C(C=C1)C(=O)NS(=O)(=O)\C=C\C1=CC=CS1
CH$IUPAC: InChI=1S/C13H9BrFNO3S2/c14-12-8-9(15)3-4-11(12)13(17)16-21(18,19)7-5-10-2-1-6-20-10/h1-8H,(H,16,17)/b7-5+
CH$LINK: PUBCHEM CID:16036578
CH$LINK: INCHIKEY QXWJDGMLSMFETH-FNORWQNLSA-N
CH$LINK: CHEMSPIDER 13165173
AC$INSTRUMENT: Q Exactive Orbitrap (Thermo Scientific)
AC$INSTRUMENT_TYPE: LC-ESI-QFT
AC$MASS_SPECTROMETRY: MS_TYPE MS2
AC$MASS_SPECTROMETRY: ION_MODE POSITIVE
AC$MASS_SPECTROMETRY: IONIZATION ESI
AC$MASS_SPECTROMETRY: FRAGMENTATION_MODE HCD
AC$MASS_SPECTROMETRY: COLLISION_ENERGY 15
AC$MASS_SPECTROMETRY: RESOLUTION 17500
AC$CHROMATOGRAPHY: COLUMN_NAME Acquity BEH C18 1.7um, 2.1x150mm (Waters)
AC$CHROMATOGRAPHY: FLOW_GRADIENT 90/10 at 0-2 min, 0/100 at 15-20 min, 90/10 at 20.1-30 min
AC$CHROMATOGRAPHY: FLOW_RATE 0.20 mL/min
AC$CHROMATOGRAPHY: RETENTION_TIME 16.424 min
AC$CHROMATOGRAPHY: SOLVENT A 0.1% formic acid
AC$CHROMATOGRAPHY: SOLVENT B methanol
MS$FOCUSED_ION: BASE_PEAK 79.0212
MS$FOCUSED_ION: PRECURSOR_M/Z 389.9264
MS$FOCUSED_ION: PRECURSOR_TYPE [M+H]+
MS$FOCUSED_ION: PRECURSOR_INTENSITY 1128944.5
MS$DATA_PROCESSING: RECALIBRATE loess on assigned fragments and MS1
MS$DATA_PROCESSING: REANALYZE Peaks with additional N2/O included
MS$DATA_PROCESSING: WHOLE RMassBank 2.99.2
PK$SPLASH: splash10-00di-0900000000-bfb55f50827b4340cd2d
PK$ANNOTATION: m/z tentative_formula formula_count mass error(ppm)
  97.0106 C5H5S+ 2 97.0106 -0.4
  109.0106 C6H5S+ 2 109.0106 -0.17
  127.0212 C6H7OS+ 2 127.0212 0.09
  144.9777 C5H5OS2+ 2 144.9776 0.46
  154.962 C6H3OS2+ 3 154.962 0.24
  172.9727 C6H5O2S2+ 4 172.9725 0.84
PK$NUM_PEAK: 6
PK$PEAK: m/z int. rel.int.
  97.0106 3571 6
  109.0106 17326 31
  127.0212 6380.1 11
  144.9777 3206.2 5
  154.962 13068.9 23
  172.9727 557655.2 999
//
