ACCESSION: MSBNK-LCSB-LU047704
RECORD_TITLE: 2-(Phenylsulfonyl)aniline; LC-ESI-QFT; MS2; CE: 60; R=17500; [M+H]+
DATE: 2020.08.19
AUTHORS: Elapavalore, A.; Kondić, T.; Singh, R.; Schymanski, E.
LICENSE: CC BY
COPYRIGHT: Copyright © 2019 by Environmental Cheminformatics, LCSB, University of Luxembourg, Luxembourg
PUBLICATION: Elapavalore, A.; Kondić, T.; et al., Adding Open Spectral Data to MassBank and PubChem Using Open Source Tools to Support Non-Targeted Exposomics of Mixtures (submitted).
PROJECT: ENTACT U.S. Environmental Protection Agency’s Non-Targeted Analysis Collaborative Trial
COMMENT: CONFIDENCE standard compound
COMMENT: INTERNAL_ID 477
COMMENT: DATASET 20200303_ENTACT_RP_MIX506
COMMENT: DATA_PROCESSING MERGING RMBmix ver. 0.2.7
COMMENT: DATA_PROCESSING PRESCREENING Shinyscreen ver. 0.8.0
COMMENT: ORIGINAL_ACQUISITION_NO 7964
COMMENT: ORIGINAL_PRECURSOR_SCAN_NO 7961
COMMENT: RAW_DATA available as MSV000091754 at [DOI:10.25345/C5S46HG75]
CH$NAME: 2-(Phenylsulfonyl)aniline
CH$NAME: 2-(benzenesulfonyl)aniline
CH$COMPOUND_CLASS: N/A; Environmental Standard
CH$FORMULA: C12H11NO2S
CH$EXACT_MASS: 233.0510
CH$SMILES: NC1=CC=CC=C1S(=O)(=O)C1=CC=CC=C1
CH$IUPAC: InChI=1S/C12H11NO2S/c13-11-8-4-5-9-12(11)16(14,15)10-6-2-1-3-7-10/h1-9H,13H2
CH$LINK: CAS 462-94-2
CH$LINK: PUBCHEM CID:77956
CH$LINK: INCHIKEY JBCUKQQIWSWEOK-UHFFFAOYSA-N
CH$LINK: CHEMSPIDER 70346
AC$INSTRUMENT: Q Exactive Orbitrap (Thermo Scientific)
AC$INSTRUMENT_TYPE: LC-ESI-QFT
AC$MASS_SPECTROMETRY: MS_TYPE MS2
AC$MASS_SPECTROMETRY: ION_MODE POSITIVE
AC$MASS_SPECTROMETRY: IONIZATION ESI
AC$MASS_SPECTROMETRY: FRAGMENTATION_MODE HCD
AC$MASS_SPECTROMETRY: COLLISION_ENERGY 60
AC$MASS_SPECTROMETRY: RESOLUTION 17500
AC$CHROMATOGRAPHY: COLUMN_NAME Acquity BEH C18 1.7um, 2.1x150mm (Waters)
AC$CHROMATOGRAPHY: FLOW_GRADIENT 90/10 at 0-2 min, 0/100 at 15-20 min, 90/10 at 20.1-30 min
AC$CHROMATOGRAPHY: FLOW_RATE 0.20 mL/min
AC$CHROMATOGRAPHY: RETENTION_TIME 15.284 min
AC$CHROMATOGRAPHY: SOLVENT A 0.1% formic acid
AC$CHROMATOGRAPHY: SOLVENT B methanol
MS$FOCUSED_ION: BASE_PEAK 79.0211
MS$FOCUSED_ION: PRECURSOR_M/Z 234.0583
MS$FOCUSED_ION: PRECURSOR_TYPE [M+H]+
MS$FOCUSED_ION: PRECURSOR_INTENSITY 4250690.4375
MS$DATA_PROCESSING: RECALIBRATE loess on assigned fragments and MS1
MS$DATA_PROCESSING: REANALYZE Peaks with additional N2/O included
MS$DATA_PROCESSING: WHOLE RMassBank 2.99.2
PK$SPLASH: splash10-0006-9200000000-ddfbac420d8589da72bf
PK$ANNOTATION: m/z tentative_formula formula_count mass error(ppm)
  53.0387 C4H5+ 1 53.0386 1.51
  65.0386 C5H5+ 1 65.0386 0.21
  66.0464 C5H6+ 1 66.0464 -0.31
  77.0387 C6H5+ 1 77.0386 1.35
  79.0418 C5H5N+ 1 79.0417 2.15
  80.0495 C5H6N+ 1 80.0495 0.08
  91.0543 C7H7+ 1 91.0542 0.94
  92.0495 C6H6N+ 1 92.0495 0.48
  93.0574 C6H7N+ 1 93.0573 0.74
  95.0492 C6H7O+ 1 95.0491 0.75
  108.0444 C6H6NO+ 1 108.0444 0.28
  109.0523 C6H7NO+ 1 109.0522 0.94
  110.0601 C6H8NO+ 1 110.06 0.34
  160.0522 C10H8O2+ 1 160.0519 2.05
  188.0539 C11H10NS+ 1 188.0528 5.35
  206.0645 C11H12NOS+ 1 206.0634 5.41
PK$NUM_PEAK: 16
PK$PEAK: m/z int. rel.int.
  53.0387 4209.1 5
  65.0386 133360.1 160
  66.0464 7041.1 8
  77.0387 1876.6 2
  79.0418 2024.9 2
  80.0495 78816.4 94
  91.0543 44072.9 53
  92.0495 829521.9 999
  93.0574 332746.7 400
  95.0492 14921.9 17
  108.0444 256180.2 308
  109.0523 2243.2 2
  110.0601 19263.4 23
  160.0522 2220.2 2
  188.0539 67782.6 81
  206.0645 148651.6 179
//
