ACCESSION: MSBNK-LCSB-LU004505
RECORD_TITLE: Clomazone; LC-ESI-QFT; MS2; CE: 75; R=17500; [M+H]+
DATE: 2020.08.19
AUTHORS: Elapavalore, A.; Kondić, T.; Singh, R.; Schymanski, E.
LICENSE: CC BY
COPYRIGHT: Copyright © 2019 by Environmental Cheminformatics, LCSB, University of Luxembourg, Luxembourg
PUBLICATION: Elapavalore, A.; Kondić, T.; et al., Adding Open Spectral Data to MassBank and PubChem Using Open Source Tools to Support Non-Targeted Exposomics of Mixtures (submitted).
PROJECT: ENTACT U.S. Environmental Protection Agency’s Non-Targeted Analysis Collaborative Trial
COMMENT: CONFIDENCE standard compound
COMMENT: INTERNAL_ID 45
COMMENT: DATASET 20200303_ENTACT_RP_MIX506
COMMENT: DATA_PROCESSING MERGING RMBmix ver. 0.2.7
COMMENT: DATA_PROCESSING PRESCREENING Shinyscreen ver. 0.8.0
COMMENT: ORIGINAL_ACQUISITION_NO 8849
COMMENT: ORIGINAL_PRECURSOR_SCAN_NO 8847
COMMENT: RAW_DATA available as MSV000091754 at [DOI:10.25345/C5S46HG75]
CH$NAME: Clomazone
CH$NAME: 2-[(2-chlorophenyl)methyl]-4,4-dimethyl-1,2-oxazolidin-3-one
CH$COMPOUND_CLASS: N/A; Environmental Standard
CH$FORMULA: C12H14ClNO2
CH$EXACT_MASS: 239.0713
CH$SMILES: CC1(C)CON(CC2=C(Cl)C=CC=C2)C1=O
CH$IUPAC: InChI=1S/C12H14ClNO2/c1-12(2)8-16-14(11(12)15)7-9-5-3-4-6-10(9)13/h3-6H,7-8H2,1-2H3
CH$LINK: CAS 81777-89-1
CH$LINK: CHEBI CHEBI:3751
CH$LINK: KEGG C11095
CH$LINK: PUBCHEM CID:54778
CH$LINK: INCHIKEY KIEDNEWSYUYDSN-UHFFFAOYSA-N
CH$LINK: CHEMSPIDER 49469
AC$INSTRUMENT: Q Exactive Orbitrap (Thermo Scientific)
AC$INSTRUMENT_TYPE: LC-ESI-QFT
AC$MASS_SPECTROMETRY: MS_TYPE MS2
AC$MASS_SPECTROMETRY: ION_MODE POSITIVE
AC$MASS_SPECTROMETRY: IONIZATION ESI
AC$MASS_SPECTROMETRY: FRAGMENTATION_MODE HCD
AC$MASS_SPECTROMETRY: COLLISION_ENERGY 75
AC$MASS_SPECTROMETRY: RESOLUTION 17500
AC$CHROMATOGRAPHY: COLUMN_NAME Acquity BEH C18 1.7um, 2.1x150mm (Waters)
AC$CHROMATOGRAPHY: FLOW_GRADIENT 90/10 at 0-2 min, 0/100 at 15-20 min, 90/10 at 20.1-30 min
AC$CHROMATOGRAPHY: FLOW_RATE 0.20 mL/min
AC$CHROMATOGRAPHY: RETENTION_TIME 16.986 min
AC$CHROMATOGRAPHY: SOLVENT A 0.1% formic acid
AC$CHROMATOGRAPHY: SOLVENT B methanol
MS$FOCUSED_ION: BASE_PEAK 79.0211
MS$FOCUSED_ION: PRECURSOR_M/Z 240.0786
MS$FOCUSED_ION: PRECURSOR_TYPE [M+H]+
MS$FOCUSED_ION: PRECURSOR_INTENSITY 6223531.125
MS$DATA_PROCESSING: RECALIBRATE loess on assigned fragments and MS1
MS$DATA_PROCESSING: REANALYZE Peaks with additional N2/O included
MS$DATA_PROCESSING: WHOLE RMassBank 2.99.2
PK$SPLASH: splash10-004i-1900000000-d03f699a531a3c6b59c6
PK$ANNOTATION: m/z tentative_formula formula_count mass error(ppm)
  55.0543 C4H7+ 1 55.0542 1
  63.0228 C5H3+ 1 63.0229 -2.43
  65.0386 C5H5+ 1 65.0386 0.33
  66.0464 C5H6+ 1 66.0464 0.04
  72.0444 C3H6NO+ 1 72.0444 -0.03
  79.0543 C6H7+ 1 79.0542 0.76
  89.0386 C7H5+ 1 89.0386 0.06
  90.0464 C7H6+ 1 90.0464 0.42
  91.0543 C7H7+ 1 91.0542 0.77
  98.9996 C5H4Cl+ 1 98.9996 0.16
  118.065 C8H8N+ 1 118.0651 -1.18
  119.073 C8H9N+ 1 119.073 0.59
  125.0153 C7H6Cl+ 1 125.0153 0.29
  134.0965 C9H12N+ 1 134.0964 0.21
  152.0621 C12H8+ 2 152.0621 0.47
  165.07 C7H14ClO2+ 1 165.0677 13.87
  166.078 C7H15ClO2+ 1 166.0755 14.9
PK$NUM_PEAK: 17
PK$PEAK: m/z int. rel.int.
  55.0543 9764.8 1
  63.0228 15331.4 2
  65.0386 10072.8 1
  66.0464 11133.2 1
  72.0444 30414.4 5
  79.0543 6398.3 1
  89.0386 428156.4 76
  90.0464 75204.8 13
  91.0543 55886.8 10
  98.9996 168946.1 30
  118.065 12227.3 2
  119.073 7825.3 1
  125.0153 5561363.5 999
  134.0965 480761.2 86
  152.0621 55325.7 9
  165.07 53486.3 9
  166.078 21244.4 3
//
