ACCESSION: MSBNK-LCSB-LU062902
RECORD_TITLE: SB236057A; LC-ESI-QFT; MS2; CE: 30; R=17500; [M+H]+
DATE: 2020.08.19
AUTHORS: Elapavalore, A.; Kondić, T.; Singh, R.; Schymanski, E.
LICENSE: CC BY
COPYRIGHT: Copyright © 2019 by Environmental Cheminformatics, LCSB, University of Luxembourg, Luxembourg
PUBLICATION: Elapavalore, A.; Kondić, T.; et al., Adding Open Spectral Data to MassBank and PubChem Using Open Source Tools to Support Non-Targeted Exposomics of Mixtures (submitted).
PROJECT: ENTACT U.S. Environmental Protection Agency’s Non-Targeted Analysis Collaborative Trial
COMMENT: CONFIDENCE standard compound
COMMENT: INTERNAL_ID 629
COMMENT: DATASET 20200303_ENTACT_RP_MIX506
COMMENT: DATA_PROCESSING MERGING RMBmix ver. 0.2.7
COMMENT: DATA_PROCESSING PRESCREENING Shinyscreen ver. 0.8.0
COMMENT: ORIGINAL_ACQUISITION_NO 8145
COMMENT: ORIGINAL_PRECURSOR_SCAN_NO 8143
COMMENT: RAW_DATA available as MSV000091754 at [DOI:10.25345/C5S46HG75]
CH$NAME: SB236057A
CH$NAME: (1'-ethylspiro[6,7-dihydro-2H-furo[2,3-f]indole-3,4'-piperidine]-5-yl)-[4-[2-methyl-4-(5-methyl-1,3,4-oxadiazol-2-yl)phenyl]phenyl]methanone
CH$COMPOUND_CLASS: N/A; Environmental Standard
CH$FORMULA: C33H34N4O3
CH$EXACT_MASS: 534.2631
CH$SMILES: CCN1CCC2(COC3=C2C=C2N(CCC2=C3)C(=O)C2=CC=C(C=C2)C2=CC=C(C=C2C)C2=NN=C(C)O2)CC1
CH$IUPAC: InChI=1S/C33H34N4O3/c1-4-36-15-12-33(13-16-36)20-39-30-18-25-11-14-37(29(25)19-28(30)33)32(38)24-7-5-23(6-8-24)27-10-9-26(17-21(27)2)31-35-34-22(3)40-31/h5-10,17-19H,4,11-16,20H2,1-3H3
CH$LINK: PUBCHEM CID:5311426
CH$LINK: INCHIKEY WXAKEEQOWUHGCI-UHFFFAOYSA-N
CH$LINK: CHEMSPIDER 4470914
AC$INSTRUMENT: Q Exactive Orbitrap (Thermo Scientific)
AC$INSTRUMENT_TYPE: LC-ESI-QFT
AC$MASS_SPECTROMETRY: MS_TYPE MS2
AC$MASS_SPECTROMETRY: ION_MODE POSITIVE
AC$MASS_SPECTROMETRY: IONIZATION ESI
AC$MASS_SPECTROMETRY: FRAGMENTATION_MODE HCD
AC$MASS_SPECTROMETRY: COLLISION_ENERGY 30
AC$MASS_SPECTROMETRY: RESOLUTION 17500
AC$CHROMATOGRAPHY: COLUMN_NAME Acquity BEH C18 1.7um, 2.1x150mm (Waters)
AC$CHROMATOGRAPHY: FLOW_GRADIENT 90/10 at 0-2 min, 0/100 at 15-20 min, 90/10 at 20.1-30 min
AC$CHROMATOGRAPHY: FLOW_RATE 0.20 mL/min
AC$CHROMATOGRAPHY: RETENTION_TIME 15.538 min
AC$CHROMATOGRAPHY: SOLVENT A 0.1% formic acid
AC$CHROMATOGRAPHY: SOLVENT B methanol
MS$FOCUSED_ION: BASE_PEAK 79.0211
MS$FOCUSED_ION: PRECURSOR_M/Z 535.2704
MS$FOCUSED_ION: PRECURSOR_TYPE [M+H]+
MS$FOCUSED_ION: PRECURSOR_INTENSITY 15789432.75
MS$DATA_PROCESSING: RECALIBRATE loess on assigned fragments and MS1
MS$DATA_PROCESSING: REANALYZE Peaks with additional N2/O included
MS$DATA_PROCESSING: WHOLE RMassBank 2.99.2
PK$SPLASH: splash10-000i-0000090000-846f22f29cc2c1d51431
PK$ANNOTATION: m/z tentative_formula formula_count mass error(ppm)
  58.0651 C3H8N+ 1 58.0651 -0.51
  84.0808 C5H10N+ 1 84.0808 -0.18
  86.0964 C5H12N+ 1 86.0964 -0.64
  96.0808 C6H10N+ 1 96.0808 -0.09
  110.0964 C7H12N+ 1 110.0964 0.13
  122.0963 C8H12N+ 1 122.0964 -1.13
  123.1043 C8H13N+ 1 123.1043 0.34
  124.112 C8H14N+ 1 124.1121 -0.25
  257.1652 C16H21N2O+ 1 257.1648 1.25
  258.1722 C16H22N2O+ 2 258.1727 -1.63
  277.0971 C17H13N2O2+ 2 277.0972 -0.1
  412.1646 C25H22N3O3+ 3 412.1656 -2.35
  450.1814 C28H24N3O3+ 3 450.1812 0.38
  478.2129 C30H28N3O3+ 2 478.2125 0.7
  478.2497 C33H34O3+ 2 478.2502 -1.1
  494.2428 C31H32N3O3+ 1 494.2438 -2.08
  507.241 C31H31N4O3+ 1 507.2391 3.85
  533.2556 C33H33N4O3+ 1 533.2547 1.61
  535.2707 C33H35N4O3+ 1 535.2704 0.53
PK$NUM_PEAK: 19
PK$PEAK: m/z int. rel.int.
  58.0651 38326.4 3
  84.0808 487022.8 38
  86.0964 36711.5 2
  96.0808 45972.2 3
  110.0964 85004.1 6
  122.0963 19940.7 1
  123.1043 12654.1 1
  124.112 80758 6
  257.1652 20594.7 1
  258.1722 21477.7 1
  277.0971 381776.2 30
  412.1646 15859 1
  450.1814 103882.3 8
  478.2129 27392.2 2
  478.2497 24426.6 1
  494.2428 37384 2
  507.241 17423.5 1
  533.2556 111355.6 8
  535.2707 12599590 999
//
