ACCESSION: MSBNK-LCSB-LU103801
RECORD_TITLE: Diflufenzopyr; LC-ESI-QFT; MS2; CE: 15; R=17500; [M+H]+
DATE: 2020.08.19
AUTHORS: Elapavalore, A.; Kondić, T.; Singh, R.; Schymanski, E.
LICENSE: CC BY
COPYRIGHT: Copyright © 2019 by Environmental Cheminformatics, LCSB, University of Luxembourg, Luxembourg
PUBLICATION: Elapavalore, A.; Kondić, T.; et al., Adding Open Spectral Data to MassBank and PubChem Using Open Source Tools to Support Non-Targeted Exposomics of Mixtures (submitted).
PROJECT: ENTACT U.S. Environmental Protection Agency’s Non-Targeted Analysis Collaborative Trial
COMMENT: CONFIDENCE standard compound
COMMENT: INTERNAL_ID 1038
COMMENT: DATASET 20200303_ENTACT_RP_MIX508
COMMENT: DATA_PROCESSING MERGING RMBmix ver. 0.2.7
COMMENT: DATA_PROCESSING PRESCREENING Shinyscreen ver. 0.8.0
COMMENT: ORIGINAL_ACQUISITION_NO 8633
COMMENT: ORIGINAL_PRECURSOR_SCAN_NO 8630
COMMENT: RAW_DATA available as MSV000091754 at [DOI:10.25345/C5S46HG75]
CH$NAME: Diflufenzopyr
CH$NAME: 2-[(E)-N-[(3,5-difluorophenyl)carbamoylamino]-C-methylcarbonimidoyl]pyridine-3-carboxylic acid
CH$COMPOUND_CLASS: N/A; Environmental Standard
CH$FORMULA: C15H12F2N4O3
CH$EXACT_MASS: 334.0877
CH$SMILES: C\C(=N/NC(=O)NC1=CC(F)=CC(F)=C1)C1=NC=CC=C1C(O)=O
CH$IUPAC: InChI=1S/C15H12F2N4O3/c1-8(13-12(14(22)23)3-2-4-18-13)20-21-15(24)19-11-6-9(16)5-10(17)7-11/h2-7H,1H3,(H,22,23)(H2,19,21,24)/b20-8+
CH$LINK: CAS 109293-97-2
CH$LINK: PUBCHEM CID:6125184
CH$LINK: INCHIKEY IRJQWZWMQCVOLA-DNTJNYDQSA-N
CH$LINK: CHEMSPIDER 4816775
AC$INSTRUMENT: Q Exactive Orbitrap (Thermo Scientific)
AC$INSTRUMENT_TYPE: LC-ESI-QFT
AC$MASS_SPECTROMETRY: MS_TYPE MS2
AC$MASS_SPECTROMETRY: ION_MODE POSITIVE
AC$MASS_SPECTROMETRY: IONIZATION ESI
AC$MASS_SPECTROMETRY: FRAGMENTATION_MODE HCD
AC$MASS_SPECTROMETRY: COLLISION_ENERGY 15
AC$MASS_SPECTROMETRY: RESOLUTION 17500
AC$CHROMATOGRAPHY: COLUMN_NAME Acquity BEH C18 1.7um, 2.1x150mm (Waters)
AC$CHROMATOGRAPHY: FLOW_GRADIENT 90/10 at 0-2 min, 0/100 at 15-20 min, 90/10 at 20.1-30 min
AC$CHROMATOGRAPHY: FLOW_RATE 0.20 mL/min
AC$CHROMATOGRAPHY: RETENTION_TIME 16.398 min
AC$CHROMATOGRAPHY: SOLVENT A 0.1% formic acid
AC$CHROMATOGRAPHY: SOLVENT B methanol
MS$FOCUSED_ION: BASE_PEAK 79.0211
MS$FOCUSED_ION: PRECURSOR_M/Z 335.095
MS$FOCUSED_ION: PRECURSOR_TYPE [M+H]+
MS$FOCUSED_ION: PRECURSOR_INTENSITY 2565253.5
MS$DATA_PROCESSING: RECALIBRATE loess on assigned fragments and MS1
MS$DATA_PROCESSING: REANALYZE Peaks with additional N2/O included
MS$DATA_PROCESSING: WHOLE RMassBank 2.99.2
PK$SPLASH: splash10-0bt9-0690000000-332befa3d0d436d56f05
PK$ANNOTATION: m/z tentative_formula formula_count mass error(ppm)
  148.0393 C8H6NO2+ 5 148.0393 0.04
  162.0661 C8H8N3O+ 4 162.0662 -0.26
  163.0505 C8H7N2O2+ 2 163.0502 2.04
  180.0767 C8H10N3O2+ 4 180.0768 -0.26
  188.0457 C9H6N3O2+ 4 188.0455 1.51
  206.0561 C9H8N3O3+ 3 206.056 0.21
PK$NUM_PEAK: 6
PK$PEAK: m/z int. rel.int.
  148.0393 4745.7 12
  162.0661 225639.5 601
  163.0505 5030.1 13
  180.0767 50269.6 134
  188.0457 3042.2 8
  206.0561 374570.7 999
//
