ACCESSION: MSBNK-LCSB-LU039953
RECORD_TITLE: 4-Nitro-N-phenylaniline; LC-ESI-QFT; MS2; CE: 45; R=17500; [M-H]-
DATE: 2020.08.19
AUTHORS: Elapavalore, A.; Kondić, T.; Singh, R.; Schymanski, E.
LICENSE: CC BY
COPYRIGHT: Copyright © 2019 by Environmental Cheminformatics, LCSB, University of Luxembourg, Luxembourg
PUBLICATION: Elapavalore, A.; Kondić, T.; et al., Adding Open Spectral Data to MassBank and PubChem Using Open Source Tools to Support Non-Targeted Exposomics of Mixtures (submitted).
PROJECT: ENTACT U.S. Environmental Protection Agency’s Non-Targeted Analysis Collaborative Trial
COMMENT: CONFIDENCE standard compound
COMMENT: INTERNAL_ID 399
COMMENT: DATASET 20200303_ENTACT_RP_MIX505
COMMENT: DATA_PROCESSING MERGING RMBmix ver. 0.2.7
COMMENT: DATA_PROCESSING PRESCREENING Shinyscreen ver. 0.8.0
COMMENT: ORIGINAL_ACQUISITION_NO 4917
COMMENT: ORIGINAL_PRECURSOR_SCAN_NO 4916
COMMENT: RAW_DATA available as MSV000091754 at [DOI:10.25345/C5S46HG75]
CH$NAME: 4-Nitro-N-phenylaniline
CH$NAME: 4-Nitrodiphenylamine
CH$COMPOUND_CLASS: N/A; Environmental Standard
CH$FORMULA: C12H10N2O2
CH$EXACT_MASS: 214.0742
CH$SMILES: [O-][N+](=O)C1=CC=C(NC2=CC=CC=C2)C=C1
CH$IUPAC: InChI=1S/C12H10N2O2/c15-14(16)12-8-6-11(7-9-12)13-10-4-2-1-3-5-10/h1-9,13H
CH$LINK: CAS 836-30-6
CH$LINK: PUBCHEM CID:13271
CH$LINK: INCHIKEY XXYMSQQCBUKFHE-UHFFFAOYSA-N
CH$LINK: CHEMSPIDER 12712
AC$INSTRUMENT: Q Exactive Orbitrap (Thermo Scientific)
AC$INSTRUMENT_TYPE: LC-ESI-QFT
AC$MASS_SPECTROMETRY: MS_TYPE MS2
AC$MASS_SPECTROMETRY: ION_MODE NEGATIVE
AC$MASS_SPECTROMETRY: IONIZATION ESI
AC$MASS_SPECTROMETRY: FRAGMENTATION_MODE HCD
AC$MASS_SPECTROMETRY: COLLISION_ENERGY 45
AC$MASS_SPECTROMETRY: RESOLUTION 17500
AC$CHROMATOGRAPHY: COLUMN_NAME Acquity BEH C18 1.7um, 2.1x150mm (Waters)
AC$CHROMATOGRAPHY: FLOW_GRADIENT 90/10 at 0-2 min, 0/100 at 15-20 min, 90/10 at 20.1-30 min
AC$CHROMATOGRAPHY: FLOW_RATE 0.20 mL/min
AC$CHROMATOGRAPHY: RETENTION_TIME 17.870 min
AC$CHROMATOGRAPHY: SOLVENT A 0.1% formic acid
AC$CHROMATOGRAPHY: SOLVENT B methanol
MS$FOCUSED_ION: BASE_PEAK 213.067
MS$FOCUSED_ION: PRECURSOR_M/Z 213.067
MS$FOCUSED_ION: PRECURSOR_TYPE [M-H]-
MS$FOCUSED_ION: PRECURSOR_INTENSITY 33052413.30664
MS$DATA_PROCESSING: RECALIBRATE loess on assigned fragments and MS1
MS$DATA_PROCESSING: REANALYZE Peaks with additional N2/O included
MS$DATA_PROCESSING: WHOLE RMassBank 2.99.2
PK$SPLASH: splash10-03di-0290000000-5cb9d57c6c1f73deb56e
PK$ANNOTATION: m/z tentative_formula formula_count mass error(ppm)
  93.0345 C6H5O- 1 93.0346 -0.97
  116.0505 C8H6N- 1 116.0506 -0.73
  122.0249 C6H4NO2- 1 122.0248 1.01
  137.0355 C6H5N2O2- 1 137.0357 -0.94
  140.0504 C10H6N- 1 140.0506 -1.12
  166.0661 C12H8N- 1 166.0662 -1.01
  167.0614 C11H7N2- 1 167.0615 -0.15
  168.0454 C11H6NO- 1 168.0455 -0.46
  170.0609 C11H8NO- 1 170.0611 -1.67
  178.0532 C12H6N2- 1 178.0536 -2.78
  181.0534 C12H7NO- 1 181.0533 0.3
  182.0609 C12H8NO- 1 182.0611 -1.11
  183.0688 C12H9NO- 1 183.069 -1.09
  195.0559 C12H7N2O- 1 195.0564 -2.47
  198.056 C12H8NO2- 1 198.0561 -0.05
  211.0513 C12H7N2O2- 1 211.0513 -0.02
  213.0667 C12H9N2O2- 1 213.067 -1
PK$NUM_PEAK: 17
PK$PEAK: m/z int. rel.int.
  93.0345 44316.6 5
  116.0505 14319.4 1
  122.0249 11404.8 1
  137.0355 68448.8 8
  140.0504 14839.9 1
  166.0661 38653.9 4
  167.0614 9972.3 1
  168.0454 18705.1 2
  170.0609 18263.3 2
  178.0532 12425.5 1
  181.0534 16206.5 1
  182.0609 219862.3 25
  183.0688 1964168.2 230
  195.0559 32280 3
  198.056 11659.1 1
  211.0513 426912.1 50
  213.0667 8521725 999
//
