ACCESSION: MSBNK-LCSB-LU041052
RECORD_TITLE: N-(3-Chloro-4-methylphenyl)acetamide; LC-ESI-QFT; MS2; CE: 30; R=17500; [M-H]-
DATE: 2020.08.19
AUTHORS: Elapavalore, A.; Kondić, T.; Singh, R.; Schymanski, E.
LICENSE: CC BY
COPYRIGHT: Copyright © 2019 by Environmental Cheminformatics, LCSB, University of Luxembourg, Luxembourg
PUBLICATION: Elapavalore, A.; Kondić, T.; et al., Adding Open Spectral Data to MassBank and PubChem Using Open Source Tools to Support Non-Targeted Exposomics of Mixtures (submitted).
PROJECT: ENTACT U.S. Environmental Protection Agency’s Non-Targeted Analysis Collaborative Trial
COMMENT: CONFIDENCE standard compound
COMMENT: INTERNAL_ID 410
COMMENT: DATASET 20200303_ENTACT_RP_MIX505
COMMENT: DATA_PROCESSING MERGING RMBmix ver. 0.2.7
COMMENT: DATA_PROCESSING PRESCREENING Shinyscreen ver. 0.8.0
COMMENT: ORIGINAL_ACQUISITION_NO 4389
COMMENT: ORIGINAL_PRECURSOR_SCAN_NO 4387
COMMENT: RAW_DATA available as MSV000091754 at [DOI:10.25345/C5S46HG75]
CH$NAME: N-(3-Chloro-4-methylphenyl)acetamide
CH$COMPOUND_CLASS: N/A; Environmental Standard
CH$FORMULA: C9H10ClNO
CH$EXACT_MASS: 183.0451
CH$SMILES: CC(=O)NC1=CC(Cl)=C(C)C=C1
CH$IUPAC: InChI=1S/C9H10ClNO/c1-6-3-4-8(5-9(6)10)11-7(2)12/h3-5H,1-2H3,(H,11,12)
CH$LINK: CAS 7149-79-3
CH$LINK: PUBCHEM CID:23537
CH$LINK: INCHIKEY IGLVCWPPISIXPR-UHFFFAOYSA-N
CH$LINK: CHEMSPIDER 22007
AC$INSTRUMENT: Q Exactive Orbitrap (Thermo Scientific)
AC$INSTRUMENT_TYPE: LC-ESI-QFT
AC$MASS_SPECTROMETRY: MS_TYPE MS2
AC$MASS_SPECTROMETRY: ION_MODE NEGATIVE
AC$MASS_SPECTROMETRY: IONIZATION ESI
AC$MASS_SPECTROMETRY: FRAGMENTATION_MODE HCD
AC$MASS_SPECTROMETRY: COLLISION_ENERGY 30
AC$MASS_SPECTROMETRY: RESOLUTION 17500
AC$CHROMATOGRAPHY: COLUMN_NAME Acquity BEH C18 1.7um, 2.1x150mm (Waters)
AC$CHROMATOGRAPHY: FLOW_GRADIENT 90/10 at 0-2 min, 0/100 at 15-20 min, 90/10 at 20.1-30 min
AC$CHROMATOGRAPHY: FLOW_RATE 0.20 mL/min
AC$CHROMATOGRAPHY: RETENTION_TIME 16.441 min
AC$CHROMATOGRAPHY: SOLVENT A 0.1% formic acid
AC$CHROMATOGRAPHY: SOLVENT B methanol
MS$FOCUSED_ION: BASE_PEAK 197.0204
MS$FOCUSED_ION: PRECURSOR_M/Z 182.0378
MS$FOCUSED_ION: PRECURSOR_TYPE [M-H]-
MS$FOCUSED_ION: PRECURSOR_INTENSITY 1030310.927734
MS$DATA_PROCESSING: RECALIBRATE loess on assigned fragments and MS1
MS$DATA_PROCESSING: REANALYZE Peaks with additional N2/O included
MS$DATA_PROCESSING: WHOLE RMassBank 2.99.2
PK$SPLASH: splash10-001i-0900000000-7311cd77a84bfa2e1dca
PK$ANNOTATION: m/z tentative_formula formula_count mass error(ppm)
  140.0273 C7H7ClN- 1 140.0273 0.23
  146.0611 C9H8NO- 1 146.0611 -0.07
  182.0379 C9H9ClNO- 1 182.0378 0.44
PK$NUM_PEAK: 3
PK$PEAK: m/z int. rel.int.
  140.0273 81208.9 336
  146.0611 15399.9 63
  182.0379 240904.3 999
//
