ACCESSION: MSBNK-LCSB-LU131201
RECORD_TITLE: Aldoxycarb; LC-ESI-QFT; MS2; CE: 15; R=17500; [M+H]+
DATE: 2020.08.19
AUTHORS: Elapavalore, A.; Kondić, T.; Singh, R.; Schymanski, E.
LICENSE: CC BY
COPYRIGHT: Copyright © 2019 by Environmental Cheminformatics, LCSB, University of Luxembourg, Luxembourg
PUBLICATION: Elapavalore, A.; Kondić, T.; et al., Adding Open Spectral Data to MassBank and PubChem Using Open Source Tools to Support Non-Targeted Exposomics of Mixtures (submitted).
PROJECT: ENTACT U.S. Environmental Protection Agency’s Non-Targeted Analysis Collaborative Trial
COMMENT: CONFIDENCE standard compound
COMMENT: INTERNAL_ID 1312
COMMENT: DATASET 20200303_ENTACT_RP_MIX504
COMMENT: DATA_PROCESSING MERGING RMBmix ver. 0.2.7
COMMENT: DATA_PROCESSING PRESCREENING Shinyscreen ver. 0.8.0
COMMENT: ORIGINAL_ACQUISITION_NO 5220
COMMENT: ORIGINAL_PRECURSOR_SCAN_NO 5216
COMMENT: RAW_DATA available as MSV000091754 at [DOI:10.25345/C5S46HG75]
CH$NAME: Aldoxycarb
CH$NAME: [(E)-(2-methyl-2-methylsulfonylpropylidene)amino] N-methylcarbamate
CH$COMPOUND_CLASS: N/A; Environmental Standard
CH$FORMULA: C7H14N2O4S
CH$EXACT_MASS: 222.0674
CH$SMILES: CNC(=O)O\N=C\C(C)(C)S(C)(=O)=O
CH$IUPAC: InChI=1S/C7H14N2O4S/c1-7(2,14(4,11)12)5-9-13-6(10)8-3/h5H,1-4H3,(H,8,10)/b9-5+
CH$LINK: CAS 1646-88-4
CH$LINK: CHEBI CHEBI:82051
CH$LINK: KEGG C18906
CH$LINK: PUBCHEM CID:9570093
CH$LINK: INCHIKEY YRRKLBAKDXSTNC-WEVVVXLNSA-N
CH$LINK: CHEMSPIDER 7844561
AC$INSTRUMENT: Q Exactive Orbitrap (Thermo Scientific)
AC$INSTRUMENT_TYPE: LC-ESI-QFT
AC$MASS_SPECTROMETRY: MS_TYPE MS2
AC$MASS_SPECTROMETRY: ION_MODE POSITIVE
AC$MASS_SPECTROMETRY: IONIZATION ESI
AC$MASS_SPECTROMETRY: FRAGMENTATION_MODE HCD
AC$MASS_SPECTROMETRY: COLLISION_ENERGY 15
AC$MASS_SPECTROMETRY: RESOLUTION 17500
AC$CHROMATOGRAPHY: COLUMN_NAME Acquity BEH C18 1.7um, 2.1x150mm (Waters)
AC$CHROMATOGRAPHY: FLOW_GRADIENT 90/10 at 0-2 min, 0/100 at 15-20 min, 90/10 at 20.1-30 min
AC$CHROMATOGRAPHY: FLOW_RATE 0.20 mL/min
AC$CHROMATOGRAPHY: RETENTION_TIME 9.939 min
AC$CHROMATOGRAPHY: SOLVENT A 0.1% formic acid
AC$CHROMATOGRAPHY: SOLVENT B methanol
MS$FOCUSED_ION: BASE_PEAK 79.0212
MS$FOCUSED_ION: PRECURSOR_M/Z 223.0747
MS$FOCUSED_ION: PRECURSOR_TYPE [M+H]+
MS$FOCUSED_ION: PRECURSOR_INTENSITY 1053376
MS$DATA_PROCESSING: RECALIBRATE loess on assigned fragments and MS1
MS$DATA_PROCESSING: REANALYZE Peaks with additional N2/O included
MS$DATA_PROCESSING: WHOLE RMassBank 2.99.2
PK$SPLASH: splash10-006t-7940000000-3f19e503377b2407e6d7
PK$ANNOTATION: m/z tentative_formula formula_count mass error(ppm)
  61.0107 C2H5S+ 1 61.0106 0.93
  76.0394 C2H6NO2+ 1 76.0393 1.17
  81.0007 CH5O2S+ 1 81.0005 2.62
  146.9945 C7HNO3+ 1 146.9951 -4.05
  148.0431 C5H10NO2S+ 1 148.0427 2.65
  167.0862 C5H15N2O2S+ 1 167.0849 7.63
  195.0814 C6H15N2O3S+ 1 195.0798 8.04
  223.0759 C7H15N2O4S+ 1 223.0747 5.56
PK$NUM_PEAK: 8
PK$PEAK: m/z int. rel.int.
  61.0107 3583.9 736
  76.0394 2770.4 569
  81.0007 1774.5 364
  146.9945 2329 478
  148.0431 2326.9 478
  167.0862 2421.5 497
  195.0814 2855.5 587
  223.0759 4858.1 999
//
