ACCESSION: MSBNK-LCSB-LU019551
RECORD_TITLE: Lufenuron; LC-ESI-QFT; MS2; CE: 15; R=17500; [M-H]-
DATE: 2020.08.19
AUTHORS: Elapavalore, A.; Kondić, T.; Singh, R.; Schymanski, E.
LICENSE: CC BY
COPYRIGHT: Copyright © 2019 by Environmental Cheminformatics, LCSB, University of Luxembourg, Luxembourg
PUBLICATION: Elapavalore, A.; Kondić, T.; et al., Adding Open Spectral Data to MassBank and PubChem Using Open Source Tools to Support Non-Targeted Exposomics of Mixtures (submitted).
PROJECT: ENTACT U.S. Environmental Protection Agency’s Non-Targeted Analysis Collaborative Trial
COMMENT: CONFIDENCE standard compound
COMMENT: INTERNAL_ID 195
COMMENT: DATASET 20200303_ENTACT_RP_MIX501
COMMENT: DATA_PROCESSING MERGING RMBmix ver. 0.2.7
COMMENT: DATA_PROCESSING PRESCREENING Shinyscreen ver. 0.8.0
COMMENT: ORIGINAL_ACQUISITION_NO 4912
COMMENT: ORIGINAL_PRECURSOR_SCAN_NO 4910
COMMENT: RAW_DATA available as MSV000091754 at [DOI:10.25345/C5S46HG75]
CH$NAME: Lufenuron
CH$COMPOUND_CLASS: N/A; Environmental Standard
CH$FORMULA: C17H8Cl2F8N2O3
CH$EXACT_MASS: 509.9784
CH$SMILES: FC(C(F)(F)F)C(F)(F)OC1=CC(Cl)=C(NC(=O)NC(=O)C2=C(F)C=CC=C2F)C=C1Cl
CH$IUPAC: InChI=1S/C17H8Cl2F8N2O3/c18-6-5-11(32-17(26,27)14(22)16(23,24)25)7(19)4-10(6)28-15(31)29-13(30)12-8(20)2-1-3-9(12)21/h1-5,14H,(H2,28,29,30,31)
CH$LINK: CAS 103055-07-8
CH$LINK: CHEBI CHEBI:39384
CH$LINK: KEGG C18434
CH$LINK: PUBCHEM CID:71777
CH$LINK: INCHIKEY PWPJGUXAGUPAHP-UHFFFAOYSA-N
CH$LINK: CHEMSPIDER 64813
AC$INSTRUMENT: Q Exactive Orbitrap (Thermo Scientific)
AC$INSTRUMENT_TYPE: LC-ESI-QFT
AC$MASS_SPECTROMETRY: MS_TYPE MS2
AC$MASS_SPECTROMETRY: ION_MODE NEGATIVE
AC$MASS_SPECTROMETRY: IONIZATION ESI
AC$MASS_SPECTROMETRY: FRAGMENTATION_MODE HCD
AC$MASS_SPECTROMETRY: COLLISION_ENERGY 15
AC$MASS_SPECTROMETRY: RESOLUTION 17500
AC$CHROMATOGRAPHY: COLUMN_NAME Acquity BEH C18 1.7um, 2.1x150mm (Waters)
AC$CHROMATOGRAPHY: FLOW_GRADIENT 90/10 at 0-2 min, 0/100 at 15-20 min, 90/10 at 20.1-30 min
AC$CHROMATOGRAPHY: FLOW_RATE 0.20 mL/min
AC$CHROMATOGRAPHY: RETENTION_TIME 19.448 min
AC$CHROMATOGRAPHY: SOLVENT A 0.1% formic acid
AC$CHROMATOGRAPHY: SOLVENT B methanol
MS$FOCUSED_ION: BASE_PEAK 112.9856
MS$FOCUSED_ION: PRECURSOR_M/Z 508.9711
MS$FOCUSED_ION: PRECURSOR_TYPE [M-H]-
MS$FOCUSED_ION: PRECURSOR_INTENSITY 7648528.976563
MS$DATA_PROCESSING: RECALIBRATE loess on assigned fragments and MS1
MS$DATA_PROCESSING: REANALYZE Peaks with additional N2/O included
MS$DATA_PROCESSING: WHOLE RMassBank 2.99.2
PK$SPLASH: splash10-004i-0019000000-a08508c6b68b0cf89eb4
PK$ANNOTATION: m/z tentative_formula formula_count mass error(ppm)
  146.9873 C3F5O- 8 146.9875 -1.18
  156.0267 C7H4F2NO- 6 156.0266 0.4
  201.9469 C7H2Cl2NO2- 5 201.9468 0.52
  285.9455 C9H2Cl2F4NO- 10 285.9455 -0.04
  302.998 C14H5ClFN2O3- 18 302.9978 0.5
  325.958 C9H4Cl2F6NO- 16 325.958 0.07
  350.9531 C10H3Cl2F6N2O- 11 350.9532 -0.41
  408.9989 C16H3F8NO3- 4 408.9991 -0.41
  452.9883 C17H5ClF7N2O3- 1 452.9882 0.07
PK$NUM_PEAK: 9
PK$PEAK: m/z int. rel.int.
  146.9873 46899.4 22
  156.0267 181739.7 86
  201.9469 456265.4 218
  285.9455 2482.1 1
  302.998 58066.4 27
  325.958 2088062.2 999
  350.9531 91324.8 43
  408.9989 8793.2 4
  452.9883 196319.3 93
//
