ACCESSION: MSBNK-LCSB-LU053453
RECORD_TITLE: Diofenolan; LC-ESI-QFT; MS2; CE: 45; R=17500; [M-H]-
DATE: 2020.08.19
AUTHORS: Elapavalore, A.; Kondić, T.; Singh, R.; Schymanski, E.
LICENSE: CC BY
COPYRIGHT: Copyright © 2019 by Environmental Cheminformatics, LCSB, University of Luxembourg, Luxembourg
PUBLICATION: Elapavalore, A.; Kondić, T.; et al., Adding Open Spectral Data to MassBank and PubChem Using Open Source Tools to Support Non-Targeted Exposomics of Mixtures (submitted).
PROJECT: ENTACT U.S. Environmental Protection Agency’s Non-Targeted Analysis Collaborative Trial
COMMENT: CONFIDENCE standard compound
COMMENT: INTERNAL_ID 534
COMMENT: DATASET 20200303_ENTACT_RP_MIX506
COMMENT: DATA_PROCESSING MERGING RMBmix ver. 0.2.7
COMMENT: DATA_PROCESSING PRESCREENING Shinyscreen ver. 0.8.0
COMMENT: ORIGINAL_ACQUISITION_NO 4600
COMMENT: ORIGINAL_PRECURSOR_SCAN_NO 4597
COMMENT: RAW_DATA available as MSV000091754 at [DOI:10.25345/C5S46HG75]
CH$NAME: Diofenolan
CH$NAME: 2-ethyl-4-[(4-phenoxyphenoxy)methyl]-1,3-dioxolane
CH$COMPOUND_CLASS: N/A; Environmental Standard
CH$FORMULA: C18H20O4
CH$EXACT_MASS: 300.1362
CH$SMILES: CCC1OCC(COC2=CC=C(OC3=CC=CC=C3)C=C2)O1
CH$IUPAC: InChI=1S/C18H20O4/c1-2-18-20-13-17(22-18)12-19-14-8-10-16(11-9-14)21-15-6-4-3-5-7-15/h3-11,17-18H,2,12-13H2,1H3
CH$LINK: CAS 63837-33-2
CH$LINK: PUBCHEM CID:4578030
CH$LINK: INCHIKEY ZDOOQPFIGYHZFV-UHFFFAOYSA-N
CH$LINK: CHEMSPIDER 3770710
AC$INSTRUMENT: Q Exactive Orbitrap (Thermo Scientific)
AC$INSTRUMENT_TYPE: LC-ESI-QFT
AC$MASS_SPECTROMETRY: MS_TYPE MS2
AC$MASS_SPECTROMETRY: ION_MODE NEGATIVE
AC$MASS_SPECTROMETRY: IONIZATION ESI
AC$MASS_SPECTROMETRY: FRAGMENTATION_MODE HCD
AC$MASS_SPECTROMETRY: COLLISION_ENERGY 45
AC$MASS_SPECTROMETRY: RESOLUTION 17500
AC$CHROMATOGRAPHY: COLUMN_NAME Acquity BEH C18 1.7um, 2.1x150mm (Waters)
AC$CHROMATOGRAPHY: FLOW_GRADIENT 90/10 at 0-2 min, 0/100 at 15-20 min, 90/10 at 20.1-30 min
AC$CHROMATOGRAPHY: FLOW_RATE 0.20 mL/min
AC$CHROMATOGRAPHY: RETENTION_TIME 17.121 min
AC$CHROMATOGRAPHY: SOLVENT A 0.1% formic acid
AC$CHROMATOGRAPHY: SOLVENT B methanol
MS$FOCUSED_ION: BASE_PEAK 141.0113
MS$FOCUSED_ION: PRECURSOR_M/Z 299.1289
MS$FOCUSED_ION: PRECURSOR_TYPE [M-H]-
MS$FOCUSED_ION: PRECURSOR_INTENSITY 1093893.361328
MS$DATA_PROCESSING: RECALIBRATE loess on assigned fragments and MS1
MS$DATA_PROCESSING: REANALYZE Peaks with additional N2/O included
MS$DATA_PROCESSING: WHOLE RMassBank 2.99.2
PK$SPLASH: splash10-0a4i-0900000000-a0462abe4e3ef3c41c58
PK$ANNOTATION: m/z tentative_formula formula_count mass error(ppm)
  81.0346 C5H5O- 1 81.0346 -0.23
  108.0217 C6H4O2- 1 108.0217 0.38
  109.0295 C6H5O2- 1 109.0295 -0.08
  121.0296 C7H5O2- 1 121.0295 0.64
  122.0374 C7H6O2- 1 122.0373 0.98
  123.0452 C7H7O2- 1 123.0452 0.14
  137.024 C7H5O3- 1 137.0244 -3.2
  148.0529 C9H8O2- 1 148.053 -0.54
  149.0608 C9H9O2- 1 149.0608 0.19
  154.0273 C7H6O4- 1 154.0272 1.18
  162.0683 C10H10O2- 1 162.0686 -2.15
  173.061 C11H9O2- 1 173.0608 1.08
  174.0686 C11H10O2- 1 174.0686 -0.31
  175.0763 C11H11O2- 1 175.0765 -1.16
  177.092 C11H13O2- 1 177.0921 -0.68
  189.092 C12H13O2- 1 189.0921 -0.52
  299.1287 C18H19O4- 1 299.1289 -0.69
PK$NUM_PEAK: 17
PK$PEAK: m/z int. rel.int.
  81.0346 1825.7 4
  108.0217 6645.9 18
  109.0295 367576.2 999
  121.0296 7512.1 20
  122.0374 14306.4 38
  123.0452 110637.7 300
  137.024 3627.3 9
  148.0529 3396.7 9
  149.0608 22307.7 60
  154.0273 6089.2 16
  162.0683 2472.6 6
  173.061 3909.8 10
  174.0686 5339 14
  175.0763 3881.6 10
  177.092 23697.4 64
  189.092 14687.9 39
  299.1287 4770.6 12
//
