ACCESSION: MSBNK-LCSB-LU045903
RECORD_TITLE: Icaridin; LC-ESI-QFT; MS2; CE: 45; R=17500; [M+H]+
DATE: 2020.08.19
AUTHORS: Elapavalore, A.; Kondić, T.; Singh, R.; Schymanski, E.
LICENSE: CC BY
COPYRIGHT: Copyright © 2019 by Environmental Cheminformatics, LCSB, University of Luxembourg, Luxembourg
PUBLICATION: Elapavalore, A.; Kondić, T.; et al., Adding Open Spectral Data to MassBank and PubChem Using Open Source Tools to Support Non-Targeted Exposomics of Mixtures (submitted).
PROJECT: ENTACT U.S. Environmental Protection Agency’s Non-Targeted Analysis Collaborative Trial
COMMENT: CONFIDENCE standard compound
COMMENT: INTERNAL_ID 459
COMMENT: DATASET 20200303_ENTACT_RP_MIX506
COMMENT: DATA_PROCESSING MERGING RMBmix ver. 0.2.7
COMMENT: DATA_PROCESSING PRESCREENING Shinyscreen ver. 0.8.0
COMMENT: ORIGINAL_ACQUISITION_NO 8867
COMMENT: ORIGINAL_PRECURSOR_SCAN_NO 8865
COMMENT: RAW_DATA available as MSV000091754 at [DOI:10.25345/C5S46HG75]
CH$NAME: Icaridin
CH$NAME: butan-2-yl 2-(2-hydroxyethyl)piperidine-1-carboxylate
CH$COMPOUND_CLASS: N/A; Environmental Standard
CH$FORMULA: C12H23NO3
CH$EXACT_MASS: 229.1678
CH$SMILES: CCC(C)OC(=O)N1CCCCC1CCO
CH$IUPAC: InChI=1S/C12H23NO3/c1-3-10(2)16-12(15)13-8-5-4-6-11(13)7-9-14/h10-11,14H,3-9H2,1-2H3
CH$LINK: CAS 119515-38-7
CH$LINK: CHEBI CHEBI:143733
CH$LINK: PUBCHEM CID:125098
CH$LINK: INCHIKEY QLHULAHOXSSASE-UHFFFAOYSA-N
CH$LINK: CHEMSPIDER 111359
AC$INSTRUMENT: Q Exactive Orbitrap (Thermo Scientific)
AC$INSTRUMENT_TYPE: LC-ESI-QFT
AC$MASS_SPECTROMETRY: MS_TYPE MS2
AC$MASS_SPECTROMETRY: ION_MODE POSITIVE
AC$MASS_SPECTROMETRY: IONIZATION ESI
AC$MASS_SPECTROMETRY: FRAGMENTATION_MODE HCD
AC$MASS_SPECTROMETRY: COLLISION_ENERGY 45
AC$MASS_SPECTROMETRY: RESOLUTION 17500
AC$CHROMATOGRAPHY: COLUMN_NAME Acquity BEH C18 1.7um, 2.1x150mm (Waters)
AC$CHROMATOGRAPHY: FLOW_GRADIENT 90/10 at 0-2 min, 0/100 at 15-20 min, 90/10 at 20.1-30 min
AC$CHROMATOGRAPHY: FLOW_RATE 0.20 mL/min
AC$CHROMATOGRAPHY: RETENTION_TIME 16.941 min
AC$CHROMATOGRAPHY: SOLVENT A 0.1% formic acid
AC$CHROMATOGRAPHY: SOLVENT B methanol
MS$FOCUSED_ION: BASE_PEAK 79.0211
MS$FOCUSED_ION: PRECURSOR_M/Z 230.1751
MS$FOCUSED_ION: PRECURSOR_TYPE [M+H]+
MS$FOCUSED_ION: PRECURSOR_INTENSITY 9591943.125
MS$DATA_PROCESSING: RECALIBRATE loess on assigned fragments and MS1
MS$DATA_PROCESSING: REANALYZE Peaks with additional N2/O included
MS$DATA_PROCESSING: WHOLE RMassBank 2.99.2
PK$SPLASH: splash10-001i-1900000000-024d79a88ef8e57d6590
PK$ANNOTATION: m/z tentative_formula formula_count mass error(ppm)
  57.0699 C4H9+ 1 57.0699 1.01
  67.0542 C5H7+ 1 67.0542 -0.13
  69.0697 C5H9+ 1 69.0699 -2.31
  71.0491 C4H7O+ 1 71.0491 -0.58
  84.0807 C5H10N+ 1 84.0808 -1.17
  95.0856 C7H11+ 1 95.0855 0.98
  112.1121 C7H14N+ 1 112.1121 0.33
  113.0961 C7H13O+ 1 113.0961 -0.26
  128.0707 C6H10NO2+ 1 128.0706 0.6
  130.1227 C7H16NO+ 1 130.1226 0.68
  156.1021 C8H14NO2+ 1 156.1019 1.17
  173.0937 C12H13O+ 1 173.0961 -13.54
PK$NUM_PEAK: 12
PK$PEAK: m/z int. rel.int.
  57.0699 1929.2 9
  67.0542 4638.8 23
  69.0697 1589.2 7
  71.0491 11999.2 59
  84.0807 7466.4 37
  95.0856 17913.1 89
  112.1121 26889.7 133
  113.0961 8185 40
  128.0707 8462.1 42
  130.1227 200593.4 999
  156.1021 7441 37
  173.0937 6177.1 30
//
