ACCESSION: MSBNK-LCSB-LU019653
RECORD_TITLE: Buturon; LC-ESI-QFT; MS2; CE: 45; R=17500; [M-H]-
DATE: 2020.08.19
AUTHORS: Elapavalore, A.; Kondić, T.; Singh, R.; Schymanski, E.
LICENSE: CC BY
COPYRIGHT: Copyright © 2019 by Environmental Cheminformatics, LCSB, University of Luxembourg, Luxembourg
PUBLICATION: Elapavalore, A.; Kondić, T.; et al., Adding Open Spectral Data to MassBank and PubChem Using Open Source Tools to Support Non-Targeted Exposomics of Mixtures (submitted).
PROJECT: ENTACT U.S. Environmental Protection Agency’s Non-Targeted Analysis Collaborative Trial
COMMENT: CONFIDENCE standard compound
COMMENT: INTERNAL_ID 196
COMMENT: DATASET 20200303_ENTACT_RP_MIX501
COMMENT: DATA_PROCESSING MERGING RMBmix ver. 0.2.7
COMMENT: DATA_PROCESSING PRESCREENING Shinyscreen ver. 0.8.0
COMMENT: ORIGINAL_ACQUISITION_NO 4035
COMMENT: ORIGINAL_PRECURSOR_SCAN_NO 4033
COMMENT: RAW_DATA available as MSV000091754 at [DOI:10.25345/C5S46HG75]
CH$NAME: Buturon
CH$NAME: 1-but-3-yn-2-yl-3-(4-chlorophenyl)-1-methylurea
CH$COMPOUND_CLASS: N/A; Environmental Standard
CH$FORMULA: C12H13ClN2O
CH$EXACT_MASS: 236.0716
CH$SMILES: CC(C#C)N(C)C(=O)NC1=CC=C(Cl)C=C1
CH$IUPAC: InChI=1S/C12H13ClN2O/c1-4-9(2)15(3)12(16)14-11-7-5-10(13)6-8-11/h1,5-9H,2-3H3,(H,14,16)
CH$LINK: CAS 3766-60-7
CH$LINK: CHEBI CHEBI:82199
CH$LINK: KEGG C19074
CH$LINK: PUBCHEM CID:19587
CH$LINK: INCHIKEY BYYMILHAKOURNM-UHFFFAOYSA-N
CH$LINK: CHEMSPIDER 18451
AC$INSTRUMENT: Q Exactive Orbitrap (Thermo Scientific)
AC$INSTRUMENT_TYPE: LC-ESI-QFT
AC$MASS_SPECTROMETRY: MS_TYPE MS2
AC$MASS_SPECTROMETRY: ION_MODE NEGATIVE
AC$MASS_SPECTROMETRY: IONIZATION ESI
AC$MASS_SPECTROMETRY: FRAGMENTATION_MODE HCD
AC$MASS_SPECTROMETRY: COLLISION_ENERGY 45
AC$MASS_SPECTROMETRY: RESOLUTION 17500
AC$CHROMATOGRAPHY: COLUMN_NAME Acquity BEH C18 1.7um, 2.1x150mm (Waters)
AC$CHROMATOGRAPHY: FLOW_GRADIENT 90/10 at 0-2 min, 0/100 at 15-20 min, 90/10 at 20.1-30 min
AC$CHROMATOGRAPHY: FLOW_RATE 0.20 mL/min
AC$CHROMATOGRAPHY: RETENTION_TIME 16.550 min
AC$CHROMATOGRAPHY: SOLVENT A 0.1% formic acid
AC$CHROMATOGRAPHY: SOLVENT B methanol
MS$FOCUSED_ION: BASE_PEAK 112.9856
MS$FOCUSED_ION: PRECURSOR_M/Z 235.0644
MS$FOCUSED_ION: PRECURSOR_TYPE [M-H]-
MS$FOCUSED_ION: PRECURSOR_INTENSITY 809700.9550781
MS$DATA_PROCESSING: RECALIBRATE loess on assigned fragments and MS1
MS$DATA_PROCESSING: REANALYZE Peaks with additional N2/O included
MS$DATA_PROCESSING: WHOLE RMassBank 2.99.2
PK$SPLASH: splash10-004i-1900000000-f2f57972e7e4705dacb0
PK$ANNOTATION: m/z tentative_formula formula_count mass error(ppm)
  81.0219 C4H3NO- 2 81.022 -1.35
  82.0662 C5H8N- 1 82.0662 -0.8
  96.0454 C5H6NO- 2 96.0455 -0.47
  123.0564 C6H7N2O- 2 123.0564 0.06
  126.0116 C6H5ClN- 2 126.0116 0.03
  137.0162 C8H6Cl- 2 137.0164 -0.97
  151.9907 C7H3ClNO- 1 151.9909 -1.01
  153.0225 C7H6ClN2- 2 153.0225 0.17
  166.0428 C9H9ClN- 2 166.0429 -0.45
PK$NUM_PEAK: 9
PK$PEAK: m/z int. rel.int.
  81.0219 1952.3 15
  82.0662 6665.7 54
  96.0454 7306.3 59
  123.0564 2422.1 19
  126.0116 122408 999
  137.0162 2809.2 22
  151.9907 2312.6 18
  153.0225 4565.1 37
  166.0428 5301.9 43
//
