ACCESSION: MSBNK-LCSB-LU032705
RECORD_TITLE: Mefenamic acid; LC-ESI-QFT; MS2; CE: 75; R=17500; [M+H]+
DATE: 2020.08.19
AUTHORS: Elapavalore, A.; Kondić, T.; Singh, R.; Schymanski, E.
LICENSE: CC BY
COPYRIGHT: Copyright © 2019 by Environmental Cheminformatics, LCSB, University of Luxembourg, Luxembourg
PUBLICATION: Elapavalore, A.; Kondić, T.; et al., Adding Open Spectral Data to MassBank and PubChem Using Open Source Tools to Support Non-Targeted Exposomics of Mixtures (submitted).
PROJECT: ENTACT U.S. Environmental Protection Agency’s Non-Targeted Analysis Collaborative Trial
COMMENT: CONFIDENCE standard compound
COMMENT: INTERNAL_ID 327
COMMENT: DATASET 20200303_ENTACT_RP_MIX505
COMMENT: DATA_PROCESSING MERGING RMBmix ver. 0.2.7
COMMENT: DATA_PROCESSING PRESCREENING Shinyscreen ver. 0.8.0
COMMENT: ORIGINAL_ACQUISITION_NO 10194
COMMENT: ORIGINAL_PRECURSOR_SCAN_NO 10192
COMMENT: RAW_DATA available as MSV000091754 at [DOI:10.25345/C5S46HG75]
CH$NAME: Mefenamic acid
CH$NAME: 2-(2,3-dimethylanilino)benzoic acid
CH$COMPOUND_CLASS: N/A; Environmental Standard
CH$FORMULA: C15H15NO2
CH$EXACT_MASS: 241.1103
CH$SMILES: CC1=C(C)C(NC2=C(C=CC=C2)C(O)=O)=CC=C1
CH$IUPAC: InChI=1S/C15H15NO2/c1-10-6-5-9-13(11(10)2)16-14-8-4-3-7-12(14)15(17)18/h3-9,16H,1-2H3,(H,17,18)
CH$LINK: CAS 61-68-7
CH$LINK: CHEBI CHEBI:6717
CH$LINK: KEGG C02168
CH$LINK: PUBCHEM CID:4044
CH$LINK: INCHIKEY HYYBABOKPJLUIN-UHFFFAOYSA-N
CH$LINK: CHEMSPIDER 3904
AC$INSTRUMENT: Q Exactive Orbitrap (Thermo Scientific)
AC$INSTRUMENT_TYPE: LC-ESI-QFT
AC$MASS_SPECTROMETRY: MS_TYPE MS2
AC$MASS_SPECTROMETRY: ION_MODE POSITIVE
AC$MASS_SPECTROMETRY: IONIZATION ESI
AC$MASS_SPECTROMETRY: FRAGMENTATION_MODE HCD
AC$MASS_SPECTROMETRY: COLLISION_ENERGY 75
AC$MASS_SPECTROMETRY: RESOLUTION 17500
AC$CHROMATOGRAPHY: COLUMN_NAME Acquity BEH C18 1.7um, 2.1x150mm (Waters)
AC$CHROMATOGRAPHY: FLOW_GRADIENT 90/10 at 0-2 min, 0/100 at 15-20 min, 90/10 at 20.1-30 min
AC$CHROMATOGRAPHY: FLOW_RATE 0.20 mL/min
AC$CHROMATOGRAPHY: RETENTION_TIME 19.468 min
AC$CHROMATOGRAPHY: SOLVENT A 0.1% formic acid
AC$CHROMATOGRAPHY: SOLVENT B methanol
MS$FOCUSED_ION: BASE_PEAK 79.0211
MS$FOCUSED_ION: PRECURSOR_M/Z 242.1176
MS$FOCUSED_ION: PRECURSOR_TYPE [M+H]+
MS$FOCUSED_ION: PRECURSOR_INTENSITY 1632568.984375
MS$DATA_PROCESSING: RECALIBRATE loess on assigned fragments and MS1
MS$DATA_PROCESSING: REANALYZE Peaks with additional N2/O included
MS$DATA_PROCESSING: WHOLE RMassBank 2.99.2
PK$SPLASH: splash10-0a4i-0290000000-1d400f0bd920455f9771
PK$ANNOTATION: m/z tentative_formula formula_count mass error(ppm)
  55.0542 C4H7+ 1 55.0542 -1.34
  60.0807 C3H10N+ 1 60.0808 -1.14
  65.0385 C5H5+ 1 65.0386 -1.24
  179.0728 C13H9N+ 1 179.073 -0.7
  180.0809 C13H10N+ 1 180.0808 0.51
  181.0888 C13H11N+ 1 181.0886 0.95
  183.0679 C12H9NO+ 1 183.0679 0.44
  194.0965 C14H12N+ 1 194.0964 0.44
  196.0758 C13H10NO+ 1 196.0757 0.61
  208.0759 C14H10NO+ 1 208.0757 0.94
  209.0836 C14H11NO+ 1 209.0835 0.59
  211.0631 C13H9NO2+ 1 211.0628 1.55
  222.0914 C15H12NO+ 1 222.0913 0.31
  223.0999 C15H13NO+ 1 223.0992 3.14
  224.1071 C15H14NO+ 1 224.107 0.42
PK$NUM_PEAK: 15
PK$PEAK: m/z int. rel.int.
  55.0542 1952.2 5
  60.0807 5338.7 14
  65.0385 3363.3 8
  179.0728 3386.7 8
  180.0809 111490.1 294
  181.0888 39295.8 103
  183.0679 9140.7 24
  194.0965 6065.4 16
  196.0758 4557 12
  208.0759 108002.9 285
  209.0836 378113.5 999
  211.0631 2472.7 6
  222.0914 12732.4 33
  223.0999 7912.7 20
  224.1071 85287.1 225
//
