ACCESSION: MSBNK-LCSB-LU027254
RECORD_TITLE: Tolazamide; LC-ESI-QFT; MS2; CE: 60; R=17500; [M-H]-
DATE: 2020.08.19
AUTHORS: Elapavalore, A.; Kondić, T.; Singh, R.; Schymanski, E.
LICENSE: CC BY
COPYRIGHT: Copyright © 2019 by Environmental Cheminformatics, LCSB, University of Luxembourg, Luxembourg
PUBLICATION: Elapavalore, A.; Kondić, T.; et al., Adding Open Spectral Data to MassBank and PubChem Using Open Source Tools to Support Non-Targeted Exposomics of Mixtures (submitted).
PROJECT: ENTACT U.S. Environmental Protection Agency’s Non-Targeted Analysis Collaborative Trial
COMMENT: CONFIDENCE standard compound
COMMENT: INTERNAL_ID 272
COMMENT: DATASET 20200303_ENTACT_RP_MIX505
COMMENT: DATA_PROCESSING MERGING RMBmix ver. 0.2.7
COMMENT: DATA_PROCESSING PRESCREENING Shinyscreen ver. 0.8.0
COMMENT: ORIGINAL_ACQUISITION_NO 4245
COMMENT: ORIGINAL_PRECURSOR_SCAN_NO 4243
COMMENT: RAW_DATA available as MSV000091754 at [DOI:10.25345/C5S46HG75]
CH$NAME: Tolazamide
CH$NAME: 1-(azepan-1-yl)-3-(4-methylphenyl)sulfonylurea
CH$COMPOUND_CLASS: N/A; Environmental Standard
CH$FORMULA: C14H21N3O3S
CH$EXACT_MASS: 311.1304
CH$SMILES: CC1=CC=C(C=C1)S(=O)(=O)NC(=O)NN1CCCCCC1
CH$IUPAC: InChI=1S/C14H21N3O3S/c1-12-6-8-13(9-7-12)21(19,20)16-14(18)15-17-10-4-2-3-5-11-17/h6-9H,2-5,10-11H2,1H3,(H2,15,16,18)
CH$LINK: CAS 1156-19-0
CH$LINK: CHEBI CHEBI:9613
CH$LINK: KEGG D00379
CH$LINK: PUBCHEM CID:5503
CH$LINK: INCHIKEY OUDSBRTVNLOZBN-UHFFFAOYSA-N
CH$LINK: CHEMSPIDER 5302
AC$INSTRUMENT: Q Exactive Orbitrap (Thermo Scientific)
AC$INSTRUMENT_TYPE: LC-ESI-QFT
AC$MASS_SPECTROMETRY: MS_TYPE MS2
AC$MASS_SPECTROMETRY: ION_MODE NEGATIVE
AC$MASS_SPECTROMETRY: IONIZATION ESI
AC$MASS_SPECTROMETRY: FRAGMENTATION_MODE HCD
AC$MASS_SPECTROMETRY: COLLISION_ENERGY 60
AC$MASS_SPECTROMETRY: RESOLUTION 17500
AC$CHROMATOGRAPHY: COLUMN_NAME Acquity BEH C18 1.7um, 2.1x150mm (Waters)
AC$CHROMATOGRAPHY: FLOW_GRADIENT 90/10 at 0-2 min, 0/100 at 15-20 min, 90/10 at 20.1-30 min
AC$CHROMATOGRAPHY: FLOW_RATE 0.20 mL/min
AC$CHROMATOGRAPHY: RETENTION_TIME 16.140 min
AC$CHROMATOGRAPHY: SOLVENT A 0.1% formic acid
AC$CHROMATOGRAPHY: SOLVENT B methanol
MS$FOCUSED_ION: BASE_PEAK 112.9857
MS$FOCUSED_ION: PRECURSOR_M/Z 310.1231
MS$FOCUSED_ION: PRECURSOR_TYPE [M-H]-
MS$FOCUSED_ION: PRECURSOR_INTENSITY 6885149.314941
MS$DATA_PROCESSING: RECALIBRATE loess on assigned fragments and MS1
MS$DATA_PROCESSING: REANALYZE Peaks with additional N2/O included
MS$DATA_PROCESSING: WHOLE RMassBank 2.99.2
PK$SPLASH: splash10-05fr-1900000000-1bef8420922583486350
PK$ANNOTATION: m/z tentative_formula formula_count mass error(ppm)
  61.9706 NOS- 1 61.9706 -0.29
  63.9624 O2S- 1 63.9624 -0.46
  77.9656 NO2S- 1 77.9655 0.45
  78.9733 HNO2S- 1 78.9733 -0.74
  79.9812 H2NO2S- 1 79.9812 0.2
  80.9652 HO3S- 1 80.9652 -0.03
  93.9604 NO3S- 1 93.9604 -0.12
  105.0583 C7H7N- 2 105.0584 -0.56
  106.0662 C7H8N- 2 106.0662 -0.12
  107.0502 C7H7O- 2 107.0502 -0.11
  122.0612 C7H8NO- 1 122.0611 0.19
  150.056 C8H8NO2- 1 150.0561 -0.34
  155.0171 C7H7O2S- 2 155.0172 -0.66
  170.0281 C7H8NO2S- 1 170.0281 -0.09
PK$NUM_PEAK: 14
PK$PEAK: m/z int. rel.int.
  61.9706 72088.1 20
  63.9624 66355.8 19
  77.9656 44109.2 12
  78.9733 158973.8 46
  79.9812 415918.5 120
  80.9652 9311 2
  93.9604 73825.5 21
  105.0583 6532.2 1
  106.0662 2515376.8 730
  107.0502 57115.9 16
  122.0612 46657.9 13
  150.056 19990.4 5
  155.0171 4268.4 1
  170.0281 3439697.2 999
//
