ACCESSION: MSBNK-LCSB-LU024253
RECORD_TITLE: 5HPP-33; LC-ESI-QFT; MS2; CE: 45; R=17500; [M-H]-
DATE: 2020.08.19
AUTHORS: Elapavalore, A.; Kondić, T.; Singh, R.; Schymanski, E.
LICENSE: CC BY
COPYRIGHT: Copyright © 2019 by Environmental Cheminformatics, LCSB, University of Luxembourg, Luxembourg
PUBLICATION: Elapavalore, A.; Kondić, T.; et al., Adding Open Spectral Data to MassBank and PubChem Using Open Source Tools to Support Non-Targeted Exposomics of Mixtures (submitted).
PROJECT: ENTACT U.S. Environmental Protection Agency’s Non-Targeted Analysis Collaborative Trial
COMMENT: CONFIDENCE standard compound
COMMENT: INTERNAL_ID 242
COMMENT: DATASET 20200303_ENTACT_RP_MIX505
COMMENT: DATA_PROCESSING MERGING RMBmix ver. 0.2.7
COMMENT: DATA_PROCESSING PRESCREENING Shinyscreen ver. 0.8.0
COMMENT: ORIGINAL_ACQUISITION_NO 5226
COMMENT: ORIGINAL_PRECURSOR_SCAN_NO 5223
COMMENT: RAW_DATA available as MSV000091754 at [DOI:10.25345/C5S46HG75]
CH$NAME: 5HPP-33
CH$NAME: 2-(2,6-Diisopropylphenyl)-5-hydroxyisoindoline-1,3-dione
CH$NAME: 2-[2,6-di(propan-2-yl)phenyl]-5-hydroxyisoindole-1,3-dione
CH$COMPOUND_CLASS: N/A; Environmental Standard
CH$FORMULA: C20H21NO3
CH$EXACT_MASS: 323.1521
CH$SMILES: CC(C)C1=CC=CC(C(C)C)=C1N1C(=O)C2=C(C=C(O)C=C2)C1=O
CH$IUPAC: InChI=1S/C20H21NO3/c1-11(2)14-6-5-7-15(12(3)4)18(14)21-19(23)16-9-8-13(22)10-17(16)20(21)24/h5-12,22H,1-4H3
CH$LINK: CAS 105624-86-0
CH$LINK: PUBCHEM CID:11723708
CH$LINK: INCHIKEY LAKWINYVWJPHQW-UHFFFAOYSA-N
CH$LINK: CHEMSPIDER 9898424
AC$INSTRUMENT: Q Exactive Orbitrap (Thermo Scientific)
AC$INSTRUMENT_TYPE: LC-ESI-QFT
AC$MASS_SPECTROMETRY: MS_TYPE MS2
AC$MASS_SPECTROMETRY: ION_MODE NEGATIVE
AC$MASS_SPECTROMETRY: IONIZATION ESI
AC$MASS_SPECTROMETRY: FRAGMENTATION_MODE HCD
AC$MASS_SPECTROMETRY: COLLISION_ENERGY 45
AC$MASS_SPECTROMETRY: RESOLUTION 17500
AC$CHROMATOGRAPHY: COLUMN_NAME Acquity BEH C18 1.7um, 2.1x150mm (Waters)
AC$CHROMATOGRAPHY: FLOW_GRADIENT 90/10 at 0-2 min, 0/100 at 15-20 min, 90/10 at 20.1-30 min
AC$CHROMATOGRAPHY: FLOW_RATE 0.20 mL/min
AC$CHROMATOGRAPHY: RETENTION_TIME 18.689 min
AC$CHROMATOGRAPHY: SOLVENT A 0.1% formic acid
AC$CHROMATOGRAPHY: SOLVENT B methanol
MS$FOCUSED_ION: BASE_PEAK 322.1447
MS$FOCUSED_ION: PRECURSOR_M/Z 322.1449
MS$FOCUSED_ION: PRECURSOR_TYPE [M-H]-
MS$FOCUSED_ION: PRECURSOR_INTENSITY 84675534.04688
MS$DATA_PROCESSING: RECALIBRATE loess on assigned fragments and MS1
MS$DATA_PROCESSING: REANALYZE Peaks with additional N2/O included
MS$DATA_PROCESSING: WHOLE RMassBank 2.99.2
PK$SPLASH: splash10-00di-0009000000-2582d1e5f2f417ae65fa
PK$ANNOTATION: m/z tentative_formula formula_count mass error(ppm)
  91.0189 C6H3O- 1 91.0189 -0.95
  93.0345 C6H5O- 1 93.0346 -1.14
  108.0218 C6H4O2- 1 108.0217 0.7
  160.0164 C9H4O3- 1 160.0166 -0.99
  161.0118 C8H3NO3- 1 161.0118 -0.48
  174.0558 C10H8NO2- 1 174.0561 -1.6
  187.1002 C12H13NO- 1 187.1003 -0.51
  223.0639 C14H9NO2- 1 223.0639 0.16
  235.1001 C16H13NO- 1 235.1003 -0.83
  236.0712 C15H10NO2- 1 236.0717 -2.01
  239.0953 C15H13NO2- 1 239.0952 0.4
  248.1079 C17H14NO- 1 248.1081 -0.57
  251.0951 C16H13NO2- 1 251.0952 -0.14
  262.1237 C18H16NO- 1 262.1237 -0.25
  263.107 C18H15O2- 1 263.1078 -2.94
  263.1316 C18H17NO- 1 263.1316 0.17
  264.0676 C16H10NO3- 1 264.0666 3.65
  264.1019 C17H14NO2- 1 264.103 -4.01
  264.1165 C18H16O2- 1 264.1156 3.49
  267.0899 C16H13NO3- 1 267.0901 -0.87
  278.1185 C18H16NO2- 1 278.1187 -0.61
  278.1545 C19H20NO- 1 278.155 -2.07
  279.1264 C18H17NO2- 1 279.1265 -0.11
  280.0976 C17H14NO3- 1 280.0979 -1.22
  290.0819 C18H12NO3- 1 290.0823 -1.1
  290.119 C19H16NO2- 1 290.1187 1.29
  292.0977 C18H14NO3- 1 292.0979 -0.86
  306.1135 C19H16NO3- 1 306.1136 -0.22
  307.1213 C19H17NO3- 1 307.1214 -0.26
  322.1447 C20H20NO3- 1 322.1449 -0.66
PK$NUM_PEAK: 30
PK$PEAK: m/z int. rel.int.
  91.0189 38026.9 1
  93.0345 57345.6 1
  108.0218 117645.7 3
  160.0164 62846.7 1
  161.0118 695573.4 18
  174.0558 60852.2 1
  187.1002 60609.9 1
  223.0639 142955.3 3
  235.1001 248964.7 6
  236.0712 118242.2 3
  239.0953 236034 6
  248.1079 639079.6 17
  251.0951 882238.4 23
  262.1237 681822.8 18
  263.107 46347 1
  263.1316 730147.6 19
  264.0676 77015 2
  264.1019 110875.3 2
  264.1165 112751.5 3
  267.0899 91493.5 2
  278.1185 76894.3 2
  278.1545 53123.7 1
  279.1264 47761.1 1
  280.0976 45956.1 1
  290.0819 47955 1
  290.119 77509.5 2
  292.0977 47367.4 1
  306.1135 11236143 300
  307.1213 3707536.2 99
  322.1447 37317804 999
//
