ACCESSION: MSBNK-LCSB-LU073603
RECORD_TITLE: PharmaGSID_48516; LC-ESI-QFT; MS2; CE: 45; R=17500; [M+H]+
DATE: 2020.08.19
AUTHORS: Elapavalore, A.; Kondić, T.; Singh, R.; Schymanski, E.
LICENSE: CC BY
COPYRIGHT: Copyright © 2019 by Environmental Cheminformatics, LCSB, University of Luxembourg, Luxembourg
PUBLICATION: Elapavalore, A.; Kondić, T.; et al., Adding Open Spectral Data to MassBank and PubChem Using Open Source Tools to Support Non-Targeted Exposomics of Mixtures (submitted).
PROJECT: ENTACT U.S. Environmental Protection Agency’s Non-Targeted Analysis Collaborative Trial
COMMENT: CONFIDENCE standard compound
COMMENT: INTERNAL_ID 736
COMMENT: DATASET 20200303_ENTACT_RP_MIX506
COMMENT: DATA_PROCESSING MERGING RMBmix ver. 0.2.7
COMMENT: DATA_PROCESSING PRESCREENING Shinyscreen ver. 0.8.0
COMMENT: ORIGINAL_ACQUISITION_NO 8783
COMMENT: ORIGINAL_PRECURSOR_SCAN_NO 8781
COMMENT: RAW_DATA available as MSV000091754 at [DOI:10.25345/C5S46HG75]
CH$NAME: 2-chloro-4-fluoro-N-[(E)-2-phenylethenyl]sulfonylbenzamide
CH$NAME: 2-Chloro-4-fluoro-N-{[(E)-2-phenylethenyl]sulfonyl}benzamide
CH$NAME: PharmaGSID_48516
CH$COMPOUND_CLASS: N/A; Environmental Standard
CH$FORMULA: C15H11ClFNO3S
CH$EXACT_MASS: 339.0132
CH$SMILES: O=C(NS(=O)(=O)/C=C/c1ccccc1)c1ccc(F)cc1Cl
CH$IUPAC: InChI=1S/C15H11ClFNO3S/c16-14-10-12(17)6-7-13(14)15(19)18-22(20,21)9-8-11-4-2-1-3-5-11/h1-10H,(H,18,19)/b9-8+
CH$LINK: PUBCHEM CID:15603288
CH$LINK: INCHIKEY AUMLVMKWJGCERZ-CMDGGOBGSA-N
CH$LINK: CHEMSPIDER 13078769
AC$INSTRUMENT: Q Exactive Orbitrap (Thermo Scientific)
AC$INSTRUMENT_TYPE: LC-ESI-QFT
AC$MASS_SPECTROMETRY: MS_TYPE MS2
AC$MASS_SPECTROMETRY: ION_MODE POSITIVE
AC$MASS_SPECTROMETRY: IONIZATION ESI
AC$MASS_SPECTROMETRY: FRAGMENTATION_MODE HCD
AC$MASS_SPECTROMETRY: COLLISION_ENERGY 45
AC$MASS_SPECTROMETRY: RESOLUTION 17500
AC$CHROMATOGRAPHY: COLUMN_NAME Acquity BEH C18 1.7um, 2.1x150mm (Waters)
AC$CHROMATOGRAPHY: FLOW_GRADIENT 90/10 at 0-2 min, 0/100 at 15-20 min, 90/10 at 20.1-30 min
AC$CHROMATOGRAPHY: FLOW_RATE 0.20 mL/min
AC$CHROMATOGRAPHY: RETENTION_TIME 16.772 min
AC$CHROMATOGRAPHY: SOLVENT A 0.1% formic acid
AC$CHROMATOGRAPHY: SOLVENT B methanol
MS$FOCUSED_ION: BASE_PEAK 79.0211
MS$FOCUSED_ION: PRECURSOR_M/Z 340.0205
MS$FOCUSED_ION: PRECURSOR_TYPE [M+H]+
MS$FOCUSED_ION: PRECURSOR_INTENSITY 1791870.125
MS$DATA_PROCESSING: RECALIBRATE loess on assigned fragments and MS1
MS$DATA_PROCESSING: REANALYZE Peaks with additional N2/O included
MS$DATA_PROCESSING: WHOLE RMassBank 2.99.2
PK$SPLASH: splash10-0udi-0900000000-6390ff0676c4b0abb241
PK$ANNOTATION: m/z tentative_formula formula_count mass error(ppm)
  53.0386 C4H5+ 1 53.0386 1.01
  77.0385 C6H5+ 1 77.0386 -0.73
  95.0492 C6H7O+ 3 95.0491 0.42
  102.0464 C8H6+ 2 102.0464 0.41
  103.0543 C8H7+ 2 103.0542 0.44
  105.0448 H11NO3S+ 1 105.0454 -6.1
  118.0417 C5H9ClN+ 4 118.0418 -0.99
  121.0646 C8H9O+ 3 121.0648 -1.44
  135.0806 C9H11O+ 2 135.0804 1.18
  156.0013 C7H4ClFN+ 6 156.0011 1.13
  156.9852 C7H3ClFO+ 3 156.9851 0.8
  167.0162 C8H7O2S+ 7 167.0161 0.45
  174.0117 C7H6ClFNO+ 7 174.0116 0.23
PK$NUM_PEAK: 13
PK$PEAK: m/z int. rel.int.
  53.0386 6052.2 4
  77.0385 3212.4 2
  95.0492 21605.7 15
  102.0464 5143.8 3
  103.0543 1357482.2 999
  105.0448 7316.4 5
  118.0417 3293.7 2
  121.0646 4093 3
  135.0806 2661.8 1
  156.0013 12207.7 8
  156.9852 586194.5 431
  167.0162 47751.4 35
  174.0117 8250.9 6
//
