ACCESSION: MSBNK-LCSB-LU136303
RECORD_TITLE: Pyrimethamine; LC-ESI-QFT; MS2; CE: 45; R=17500; [M+H]+
DATE: 2020.08.19
AUTHORS: Elapavalore, A.; Kondić, T.; Singh, R.; Schymanski, E.
LICENSE: CC BY
COPYRIGHT: Copyright © 2019 by Environmental Cheminformatics, LCSB, University of Luxembourg, Luxembourg
PUBLICATION: Elapavalore, A.; Kondić, T.; et al., Adding Open Spectral Data to MassBank and PubChem Using Open Source Tools to Support Non-Targeted Exposomics of Mixtures (submitted).
PROJECT: ENTACT U.S. Environmental Protection Agency’s Non-Targeted Analysis Collaborative Trial
COMMENT: CONFIDENCE standard compound
COMMENT: INTERNAL_ID 1363
COMMENT: DATASET 20200303_ENTACT_RP_MIX504
COMMENT: DATA_PROCESSING MERGING RMBmix ver. 0.2.7
COMMENT: DATA_PROCESSING PRESCREENING Shinyscreen ver. 0.8.0
COMMENT: ORIGINAL_ACQUISITION_NO 7117
COMMENT: ORIGINAL_PRECURSOR_SCAN_NO 7115
COMMENT: RAW_DATA available as MSV000091754 at [DOI:10.25345/C5S46HG75]
CH$NAME: Pyrimethamine
CH$NAME: 5-(4-chlorophenyl)-6-ethylpyrimidine-2,4-diamine
CH$COMPOUND_CLASS: N/A; Environmental Standard
CH$FORMULA: C12H13ClN4
CH$EXACT_MASS: 248.0829
CH$SMILES: CCC1=NC(N)=NC(N)=C1C1=CC=C(Cl)C=C1
CH$IUPAC: InChI=1S/C12H13ClN4/c1-2-9-10(11(14)17-12(15)16-9)7-3-5-8(13)6-4-7/h3-6H,2H2,1H3,(H4,14,15,16,17)
CH$LINK: CAS 58-14-0
CH$LINK: CHEBI CHEBI:8673
CH$LINK: KEGG C07391
CH$LINK: PUBCHEM CID:4993
CH$LINK: INCHIKEY WKSAUQYGYAYLPV-UHFFFAOYSA-N
CH$LINK: CHEMSPIDER 4819
AC$INSTRUMENT: Q Exactive Orbitrap (Thermo Scientific)
AC$INSTRUMENT_TYPE: LC-ESI-QFT
AC$MASS_SPECTROMETRY: MS_TYPE MS2
AC$MASS_SPECTROMETRY: ION_MODE POSITIVE
AC$MASS_SPECTROMETRY: IONIZATION ESI
AC$MASS_SPECTROMETRY: FRAGMENTATION_MODE HCD
AC$MASS_SPECTROMETRY: COLLISION_ENERGY 45
AC$MASS_SPECTROMETRY: RESOLUTION 17500
AC$CHROMATOGRAPHY: COLUMN_NAME Acquity BEH C18 1.7um, 2.1x150mm (Waters)
AC$CHROMATOGRAPHY: FLOW_GRADIENT 90/10 at 0-2 min, 0/100 at 15-20 min, 90/10 at 20.1-30 min
AC$CHROMATOGRAPHY: FLOW_RATE 0.20 mL/min
AC$CHROMATOGRAPHY: RETENTION_TIME 13.596 min
AC$CHROMATOGRAPHY: SOLVENT A 0.1% formic acid
AC$CHROMATOGRAPHY: SOLVENT B methanol
MS$FOCUSED_ION: BASE_PEAK 79.0211
MS$FOCUSED_ION: PRECURSOR_M/Z 249.0902
MS$FOCUSED_ION: PRECURSOR_TYPE [M+H]+
MS$FOCUSED_ION: PRECURSOR_INTENSITY 15110731.75
MS$DATA_PROCESSING: RECALIBRATE loess on assigned fragments and MS1
MS$DATA_PROCESSING: REANALYZE Peaks with additional N2/O included
MS$DATA_PROCESSING: WHOLE RMassBank 2.99.2
PK$SPLASH: splash10-0002-0090000000-eac2f54546c415517d68
PK$ANNOTATION: m/z tentative_formula formula_count mass error(ppm)
  56.0495 C3H6N+ 1 56.0495 0.06
  60.0556 CH6N3+ 1 60.0556 -0.54
  152.0261 C8H7ClN+ 2 152.0262 -0.44
  163.0307 C10H8Cl+ 2 163.0309 -1.26
  177.0213 C9H6ClN2+ 2 177.0214 -0.41
  190.042 C11H9ClN+ 2 190.0418 0.87
  196.087 C12H10N3+ 1 196.0869 0.19
  197.0949 C12H11N3+ 1 197.0947 0.52
  207.0683 C11H12ClN2+ 2 207.0684 -0.35
  213.1135 C12H13N4+ 1 213.1135 0.17
  232.0634 C12H11ClN3+ 1 232.0636 -1.06
  233.0588 C11H10ClN4+ 1 233.0589 -0.23
  234.0666 C11H11ClN4+ 1 234.0667 -0.2
  249.09 C12H14ClN4+ 1 249.0902 -0.71
PK$NUM_PEAK: 14
PK$PEAK: m/z int. rel.int.
  56.0495 15933.7 1
  60.0556 23413.8 1
  152.0261 85399.8 6
  163.0307 65547.8 4
  177.0213 1176213.2 89
  190.042 37668.8 2
  196.087 21614 1
  197.0949 35030 2
  207.0683 184057.4 13
  213.1135 69862.8 5
  232.0634 115273.9 8
  233.0588 1072386.6 81
  234.0666 295986 22
  249.09 13143248 999
//
