ACCESSION: MSBNK-LCSB-LU072104
RECORD_TITLE: 2-Mercaptobenzimidazole; LC-ESI-QFT; MS2; CE: 60; R=17500; [M+H]+
DATE: 2020.08.19
AUTHORS: Elapavalore, A.; Kondić, T.; Singh, R.; Schymanski, E.
LICENSE: CC BY
COPYRIGHT: Copyright © 2019 by Environmental Cheminformatics, LCSB, University of Luxembourg, Luxembourg
PUBLICATION: Elapavalore, A.; Kondić, T.; et al., Adding Open Spectral Data to MassBank and PubChem Using Open Source Tools to Support Non-Targeted Exposomics of Mixtures (submitted).
PROJECT: ENTACT U.S. Environmental Protection Agency’s Non-Targeted Analysis Collaborative Trial
COMMENT: CONFIDENCE standard compound
COMMENT: INTERNAL_ID 721
COMMENT: DATASET 20200303_ENTACT_RP_MIX506
COMMENT: DATA_PROCESSING MERGING RMBmix ver. 0.2.7
COMMENT: DATA_PROCESSING PRESCREENING Shinyscreen ver. 0.8.0
COMMENT: ORIGINAL_ACQUISITION_NO 6251
COMMENT: ORIGINAL_PRECURSOR_SCAN_NO 6248
COMMENT: RAW_DATA available as MSV000091754 at [DOI:10.25345/C5S46HG75]
CH$NAME: 2-Mercaptobenzimidazole
CH$NAME: 1H-benzimidazole-2-thiol
CH$COMPOUND_CLASS: N/A; Environmental Standard
CH$FORMULA: C7H6N2S
CH$EXACT_MASS: 150.0252
CH$SMILES: S=C1NC2=CC=CC=C2N1
CH$IUPAC: InChI=1S/C7H6N2S/c10-7-8-5-3-1-2-4-6(5)9-7/h1-4H,(H2,8,9,10)
CH$LINK: CAS 99-88-7
CH$LINK: CHEMSPIDER 616466
CH$LINK: INCHIKEY YHMYGUUIMTVXNW-UHFFFAOYSA-N
CH$LINK: PUBCHEM CID:707035
AC$INSTRUMENT: Q Exactive Orbitrap (Thermo Scientific)
AC$INSTRUMENT_TYPE: LC-ESI-QFT
AC$MASS_SPECTROMETRY: MS_TYPE MS2
AC$MASS_SPECTROMETRY: ION_MODE POSITIVE
AC$MASS_SPECTROMETRY: IONIZATION ESI
AC$MASS_SPECTROMETRY: FRAGMENTATION_MODE HCD
AC$MASS_SPECTROMETRY: COLLISION_ENERGY 60
AC$MASS_SPECTROMETRY: RESOLUTION 17500
AC$CHROMATOGRAPHY: COLUMN_NAME Acquity BEH C18 1.7um, 2.1x150mm (Waters)
AC$CHROMATOGRAPHY: FLOW_GRADIENT 90/10 at 0-2 min, 0/100 at 15-20 min, 90/10 at 20.1-30 min
AC$CHROMATOGRAPHY: FLOW_RATE 0.20 mL/min
AC$CHROMATOGRAPHY: RETENTION_TIME 11.929 min
AC$CHROMATOGRAPHY: SOLVENT A 0.1% formic acid
AC$CHROMATOGRAPHY: SOLVENT B methanol
MS$FOCUSED_ION: BASE_PEAK 79.0211
MS$FOCUSED_ION: PRECURSOR_M/Z 151.0324
MS$FOCUSED_ION: PRECURSOR_TYPE [M+H]+
MS$FOCUSED_ION: PRECURSOR_INTENSITY 2755542
MS$DATA_PROCESSING: RECALIBRATE loess on assigned fragments and MS1
MS$DATA_PROCESSING: REANALYZE Peaks with additional N2/O included
MS$DATA_PROCESSING: WHOLE RMassBank 2.99.2
PK$SPLASH: splash10-0udi-2900000000-e4e0efb399bc2e5181be
PK$ANNOTATION: m/z tentative_formula formula_count mass error(ppm)
  61.0106 C2H5S+ 1 61.0106 -1.01
  65.0386 C5H5+ 1 65.0386 1.04
  92.0495 C6H6N+ 1 92.0495 0.65
  93.0574 C6H7N+ 1 93.0573 0.83
  118.0526 C7H6N2+ 1 118.0525 0.39
  119.0604 C7H7N2+ 1 119.0604 0.49
  124.0215 C6H6NS+ 1 124.0215 -0.13
  134.0063 C7H4NS+ 1 134.0059 2.82
  150.0249 C7H6N2S+ 1 150.0246 1.7
  151.0325 C7H7N2S+ 1 151.0324 0.6
PK$NUM_PEAK: 10
PK$PEAK: m/z int. rel.int.
  61.0106 8813 4
  65.0386 12026.2 6
  92.0495 69829.9 36
  93.0574 546866.9 289
  118.0526 226845.1 119
  119.0604 93045.6 49
  124.0215 9072.1 4
  134.0063 2113 1
  150.0249 5661.5 2
  151.0325 1888770 999
//
