ACCESSION: MSBNK-LCSB-LU133402
RECORD_TITLE: Dinotefuran; LC-ESI-QFT; MS2; CE: 30; R=17500; [M+H]+
DATE: 2020.08.19
AUTHORS: Elapavalore, A.; Kondić, T.; Singh, R.; Schymanski, E.
LICENSE: CC BY
COPYRIGHT: Copyright © 2019 by Environmental Cheminformatics, LCSB, University of Luxembourg, Luxembourg
PUBLICATION: Elapavalore, A.; Kondić, T.; et al., Adding Open Spectral Data to MassBank and PubChem Using Open Source Tools to Support Non-Targeted Exposomics of Mixtures (submitted).
PROJECT: ENTACT U.S. Environmental Protection Agency’s Non-Targeted Analysis Collaborative Trial
COMMENT: CONFIDENCE standard compound
COMMENT: INTERNAL_ID 1334
COMMENT: DATASET 20200303_ENTACT_RP_MIX504
COMMENT: DATA_PROCESSING MERGING RMBmix ver. 0.2.7
COMMENT: DATA_PROCESSING PRESCREENING Shinyscreen ver. 0.8.0
COMMENT: ORIGINAL_ACQUISITION_NO 4888
COMMENT: ORIGINAL_PRECURSOR_SCAN_NO 4886
COMMENT: RAW_DATA available as MSV000091754 at [DOI:10.25345/C5S46HG75]
CH$NAME: Dinotefuran
CH$NAME: Scorpion
CH$NAME: 2-methyl-1-nitro-3-(oxolan-3-ylmethyl)guanidine
CH$COMPOUND_CLASS: N/A; Environmental Standard
CH$FORMULA: C7H14N4O3
CH$EXACT_MASS: 202.1066
CH$SMILES: CNC(NCC1CCOC1)=N[N+]([O-])=O
CH$IUPAC: InChI=1S/C7H14N4O3/c1-8-7(10-11(12)13)9-4-6-2-3-14-5-6/h6H,2-5H2,1H3,(H2,8,9,10)
CH$LINK: CAS 322639-07-6
CH$LINK: KEGG C18509
CH$LINK: PUBCHEM CID:197701
CH$LINK: INCHIKEY YKBZOVFACRVRJN-UHFFFAOYSA-N
CH$LINK: CHEMSPIDER 171124
AC$INSTRUMENT: Q Exactive Orbitrap (Thermo Scientific)
AC$INSTRUMENT_TYPE: LC-ESI-QFT
AC$MASS_SPECTROMETRY: MS_TYPE MS2
AC$MASS_SPECTROMETRY: ION_MODE POSITIVE
AC$MASS_SPECTROMETRY: IONIZATION ESI
AC$MASS_SPECTROMETRY: FRAGMENTATION_MODE HCD
AC$MASS_SPECTROMETRY: COLLISION_ENERGY 30
AC$MASS_SPECTROMETRY: RESOLUTION 17500
AC$CHROMATOGRAPHY: COLUMN_NAME Acquity BEH C18 1.7um, 2.1x150mm (Waters)
AC$CHROMATOGRAPHY: FLOW_GRADIENT 90/10 at 0-2 min, 0/100 at 15-20 min, 90/10 at 20.1-30 min
AC$CHROMATOGRAPHY: FLOW_RATE 0.20 mL/min
AC$CHROMATOGRAPHY: RETENTION_TIME 9.332 min
AC$CHROMATOGRAPHY: SOLVENT A 0.1% formic acid
AC$CHROMATOGRAPHY: SOLVENT B methanol
MS$FOCUSED_ION: BASE_PEAK 79.0212
MS$FOCUSED_ION: PRECURSOR_M/Z 203.1139
MS$FOCUSED_ION: PRECURSOR_TYPE [M+H]+
MS$FOCUSED_ION: PRECURSOR_INTENSITY 2568442.03125
MS$DATA_PROCESSING: RECALIBRATE loess on assigned fragments and MS1
MS$DATA_PROCESSING: REANALYZE Peaks with additional N2/O included
MS$DATA_PROCESSING: WHOLE RMassBank 2.99.2
PK$SPLASH: splash10-03fr-2900000000-9f9c30b66d7e2e9c1ea8
PK$ANNOTATION: m/z tentative_formula formula_count mass error(ppm)
  73.0634 C2H7N3+ 1 73.0634 -0.36
  87.0792 C3H9N3+ 2 87.0791 1.01
  100.0869 C4H10N3+ 2 100.0869 -0.42
  112.0871 C5H10N3+ 2 112.0869 1.22
  113.0949 C5H11N3+ 2 113.0947 1.04
  114.1027 C5H12N3+ 2 114.1026 1.21
  128.1184 C6H14N3+ 1 128.1182 1.46
  129.0897 C5H11N3O+ 2 129.0897 0.6
  129.1264 C6H15N3+ 1 129.126 3.01
  145.085 C5H11N3O2+ 2 145.0846 3.21
PK$NUM_PEAK: 10
PK$PEAK: m/z int. rel.int.
  73.0634 8391.2 265
  87.0792 16240 513
  100.0869 8971.1 283
  112.0871 3831.8 121
  113.0949 10052.9 317
  114.1027 19048.5 602
  128.1184 1677.6 53
  129.0897 31582.8 999
  129.1264 2019 63
  145.085 3629.7 114
//
