ACCESSION: MSBNK-LCSB-LU136706
RECORD_TITLE: Dicrotophos; LC-ESI-QFT; MS2; CE: 90; R=17500; [M+H]+
DATE: 2020.08.19
AUTHORS: Elapavalore, A.; Kondić, T.; Singh, R.; Schymanski, E.
LICENSE: CC BY
COPYRIGHT: Copyright © 2019 by Environmental Cheminformatics, LCSB, University of Luxembourg, Luxembourg
PUBLICATION: Elapavalore, A.; Kondić, T.; et al., Adding Open Spectral Data to MassBank and PubChem Using Open Source Tools to Support Non-Targeted Exposomics of Mixtures (submitted).
PROJECT: ENTACT U.S. Environmental Protection Agency’s Non-Targeted Analysis Collaborative Trial
COMMENT: CONFIDENCE standard compound
COMMENT: INTERNAL_ID 1367
COMMENT: DATASET 20200303_ENTACT_RP_MIX504
COMMENT: DATA_PROCESSING MERGING RMBmix ver. 0.2.7
COMMENT: DATA_PROCESSING PRESCREENING Shinyscreen ver. 0.8.0
COMMENT: ORIGINAL_ACQUISITION_NO 6175
COMMENT: ORIGINAL_PRECURSOR_SCAN_NO 6173
COMMENT: RAW_DATA available as MSV000091754 at [DOI:10.25345/C5S46HG75]
CH$NAME: Dicrotophos
CH$NAME: [(E)-4-(dimethylamino)-4-oxobut-2-en-2-yl] dimethyl phosphate
CH$COMPOUND_CLASS: N/A; Environmental Standard
CH$FORMULA: C8H16NO5P
CH$EXACT_MASS: 237.0766
CH$SMILES: COP(=O)(OC)O\C(C)=C\C(=O)N(C)C
CH$IUPAC: InChI=1S/C8H16NO5P/c1-7(6-8(10)9(2)3)14-15(11,12-4)13-5/h6H,1-5H3/b7-6+
CH$LINK: CAS 141-66-2
CH$LINK: CHEBI CHEBI:38658
CH$LINK: KEGG C18656
CH$LINK: PUBCHEM CID:5371560
CH$LINK: INCHIKEY VEENJGZXVHKXNB-VOTSOKGWSA-N
CH$LINK: CHEMSPIDER 4522051
AC$INSTRUMENT: Q Exactive Orbitrap (Thermo Scientific)
AC$INSTRUMENT_TYPE: LC-ESI-QFT
AC$MASS_SPECTROMETRY: MS_TYPE MS2
AC$MASS_SPECTROMETRY: ION_MODE POSITIVE
AC$MASS_SPECTROMETRY: IONIZATION ESI
AC$MASS_SPECTROMETRY: FRAGMENTATION_MODE HCD
AC$MASS_SPECTROMETRY: COLLISION_ENERGY 90
AC$MASS_SPECTROMETRY: RESOLUTION 17500
AC$CHROMATOGRAPHY: COLUMN_NAME Acquity BEH C18 1.7um, 2.1x150mm (Waters)
AC$CHROMATOGRAPHY: FLOW_GRADIENT 90/10 at 0-2 min, 0/100 at 15-20 min, 90/10 at 20.1-30 min
AC$CHROMATOGRAPHY: FLOW_RATE 0.20 mL/min
AC$CHROMATOGRAPHY: RETENTION_TIME 11.813 min
AC$CHROMATOGRAPHY: SOLVENT A 0.1% formic acid
AC$CHROMATOGRAPHY: SOLVENT B methanol
MS$FOCUSED_ION: BASE_PEAK 79.0212
MS$FOCUSED_ION: PRECURSOR_M/Z 238.0839
MS$FOCUSED_ION: PRECURSOR_TYPE [M+H]+
MS$FOCUSED_ION: PRECURSOR_INTENSITY 17192451
MS$DATA_PROCESSING: RECALIBRATE loess on assigned fragments and MS1
MS$DATA_PROCESSING: REANALYZE Peaks with additional N2/O included
MS$DATA_PROCESSING: WHOLE RMassBank 2.99.2
PK$SPLASH: splash10-00di-9200000000-f03a877afd5e3baaaab3
PK$ANNOTATION: m/z tentative_formula formula_count mass error(ppm)
  53.0022 C3HO+ 1 53.0022 1.06
  53.0386 C4H5+ 2 53.0386 0.48
  54.0339 C3H4N+ 1 54.0338 1.18
  55.0179 C3H3O+ 1 55.0178 0.19
  55.0417 C3H5N+ 1 55.0417 0.71
  55.0542 C4H7+ 2 55.0542 -0.31
  56.0131 C2H2NO+ 1 56.0131 0.34
  56.0495 C3H6N+ 1 56.0495 1.01
  58.0287 C2H4NO+ 1 58.0287 0.03
  58.0651 C3H8N+ 1 58.0651 0.02
  67.0178 C4H3O+ 2 67.0178 0.08
  68.0495 C4H6N+ 1 68.0495 0.54
  69.0335 C4H5O+ 2 69.0335 0.16
  70.0652 C4H8N+ 1 70.0651 0.35
  72.0444 C3H6NO+ 1 72.0444 -0.06
  78.9944 CH4O2P+ 1 78.9943 0.11
  82.0652 C5H8N+ 1 82.0651 1.24
  84.0809 C5H10N+ 1 84.0808 0.98
  110.06 C6H8NO+ 1 110.06 0
  112.0758 C6H10NO+ 1 112.0757 1.11
  112.9999 CH6O4P+ 1 112.9998 0.32
  127.0155 C2H8O4P+ 1 127.0155 0.38
PK$NUM_PEAK: 22
PK$PEAK: m/z int. rel.int.
  53.0022 8139.3 2
  53.0386 8546.4 3
  54.0339 8792.1 3
  55.0179 19464.9 7
  55.0417 81645.7 29
  55.0542 6164.2 2
  56.0131 45403.4 16
  56.0495 6731.3 2
  58.0287 18182.9 6
  58.0651 19186.2 6
  67.0178 576739.8 208
  68.0495 7089.4 2
  69.0335 18779.8 6
  70.0652 197342.8 71
  72.0444 2768527.5 999
  78.9944 46533.8 16
  82.0652 4321.1 1
  84.0809 26886.2 9
  110.06 9255.5 3
  112.0758 48155.9 17
  112.9999 178174.6 64
  127.0155 893466.9 322
//
