ACCESSION: MSBNK-LCSB-LU071001
RECORD_TITLE: Coumatetralyl; LC-ESI-QFT; MS2; CE: 15; R=17500; [M+H]+
DATE: 2020.08.19
AUTHORS: Elapavalore, A.; Kondić, T.; Singh, R.; Schymanski, E.
LICENSE: CC BY
COPYRIGHT: Copyright © 2019 by Environmental Cheminformatics, LCSB, University of Luxembourg, Luxembourg
PUBLICATION: Elapavalore, A.; Kondić, T.; et al., Adding Open Spectral Data to MassBank and PubChem Using Open Source Tools to Support Non-Targeted Exposomics of Mixtures (submitted).
PROJECT: ENTACT U.S. Environmental Protection Agency’s Non-Targeted Analysis Collaborative Trial
COMMENT: CONFIDENCE standard compound
COMMENT: INTERNAL_ID 710
COMMENT: DATASET 20200303_ENTACT_RP_MIX506
COMMENT: DATA_PROCESSING MERGING RMBmix ver. 0.2.7
COMMENT: DATA_PROCESSING PRESCREENING Shinyscreen ver. 0.8.0
COMMENT: ORIGINAL_ACQUISITION_NO 9526
COMMENT: ORIGINAL_PRECURSOR_SCAN_NO 9525
COMMENT: RAW_DATA available as MSV000091754 at [DOI:10.25345/C5S46HG75]
CH$NAME: Coumatetralyl
CH$NAME: 4-hydroxy-3-(1,2,3,4-tetrahydronaphthalen-1-yl)chromen-2-one
CH$COMPOUND_CLASS: N/A; Environmental Standard
CH$FORMULA: C19H16O3
CH$EXACT_MASS: 292.1099
CH$SMILES: OC1=C(C2CCCC3=C2C=CC=C3)C(=O)OC2=C1C=CC=C2
CH$IUPAC: InChI=1S/C19H16O3/c20-18-15-9-3-4-11-16(15)22-19(21)17(18)14-10-5-7-12-6-1-2-8-13(12)14/h1-4,6,8-9,11,14,20H,5,7,10H2
CH$LINK: CAS 5836-29-3
CH$LINK: CHEBI CHEBI:80742
CH$LINK: KEGG C16806
CH$LINK: PUBCHEM CID:54678504
CH$LINK: INCHIKEY ULSLJYXHZDTLQK-UHFFFAOYSA-N
CH$LINK: CHEMSPIDER 10468736
AC$INSTRUMENT: Q Exactive Orbitrap (Thermo Scientific)
AC$INSTRUMENT_TYPE: LC-ESI-QFT
AC$MASS_SPECTROMETRY: MS_TYPE MS2
AC$MASS_SPECTROMETRY: ION_MODE POSITIVE
AC$MASS_SPECTROMETRY: IONIZATION ESI
AC$MASS_SPECTROMETRY: FRAGMENTATION_MODE HCD
AC$MASS_SPECTROMETRY: COLLISION_ENERGY 15
AC$MASS_SPECTROMETRY: RESOLUTION 17500
AC$CHROMATOGRAPHY: COLUMN_NAME Acquity BEH C18 1.7um, 2.1x150mm (Waters)
AC$CHROMATOGRAPHY: FLOW_GRADIENT 90/10 at 0-2 min, 0/100 at 15-20 min, 90/10 at 20.1-30 min
AC$CHROMATOGRAPHY: FLOW_RATE 0.20 mL/min
AC$CHROMATOGRAPHY: RETENTION_TIME 18.147 min
AC$CHROMATOGRAPHY: SOLVENT A 0.1% formic acid
AC$CHROMATOGRAPHY: SOLVENT B methanol
MS$FOCUSED_ION: BASE_PEAK 79.0211
MS$FOCUSED_ION: PRECURSOR_M/Z 293.1172
MS$FOCUSED_ION: PRECURSOR_TYPE [M+H]+
MS$FOCUSED_ION: PRECURSOR_INTENSITY 17255685.28125
MS$DATA_PROCESSING: RECALIBRATE loess on assigned fragments and MS1
MS$DATA_PROCESSING: REANALYZE Peaks with additional N2/O included
MS$DATA_PROCESSING: WHOLE RMassBank 2.99.2
PK$SPLASH: splash10-0006-0090000000-1bbeaf861c38bd519b88
PK$ANNOTATION: m/z tentative_formula formula_count mass error(ppm)
  91.054 C7H7+ 1 91.0542 -3
  131.0853 C10H11+ 1 131.0855 -1.38
  163.0389 C9H7O3+ 1 163.039 -0.59
  175.0388 C10H7O3+ 1 175.039 -0.88
  189.054 C11H9O3+ 1 189.0546 -3.17
  215.0696 C13H11O3+ 1 215.0703 -2.89
  293.1168 C19H17O3+ 1 293.1172 -1.49
PK$NUM_PEAK: 7
PK$PEAK: m/z int. rel.int.
  91.054 100929.9 7
  131.0853 100269.5 7
  163.0389 81329.8 6
  175.0388 486650.1 37
  189.054 15964.8 1
  215.0696 14431.8 1
  293.1168 12795014 999
//
