ACCESSION: MSBNK-LCSB-LU070954
RECORD_TITLE: Flutriafol; LC-ESI-QFT; MS2; CE: 60; R=17500; [M-H]-
DATE: 2020.08.19
AUTHORS: Elapavalore, A.; Kondić, T.; Singh, R.; Schymanski, E.
LICENSE: CC BY
COPYRIGHT: Copyright © 2019 by Environmental Cheminformatics, LCSB, University of Luxembourg, Luxembourg
PUBLICATION: Elapavalore, A.; Kondić, T.; et al., Adding Open Spectral Data to MassBank and PubChem Using Open Source Tools to Support Non-Targeted Exposomics of Mixtures (submitted).
PROJECT: ENTACT U.S. Environmental Protection Agency’s Non-Targeted Analysis Collaborative Trial
COMMENT: CONFIDENCE standard compound
COMMENT: INTERNAL_ID 709
COMMENT: DATASET 20200303_ENTACT_RP_MIX506
COMMENT: DATA_PROCESSING MERGING RMBmix ver. 0.2.7
COMMENT: DATA_PROCESSING PRESCREENING Shinyscreen ver. 0.8.0
COMMENT: ORIGINAL_ACQUISITION_NO 4219
COMMENT: ORIGINAL_PRECURSOR_SCAN_NO 4218
COMMENT: RAW_DATA available as MSV000091754 at [DOI:10.25345/C5S46HG75]
CH$NAME: Flutriafol
CH$NAME: 1-(2-fluorophenyl)-1-(4-fluorophenyl)-2-(1,2,4-triazol-1-yl)ethanol
CH$COMPOUND_CLASS: N/A; Environmental Standard
CH$FORMULA: C16H13F2N3O
CH$EXACT_MASS: 301.1027
CH$SMILES: OC(CN1C=NC=N1)(C1=CC=C(F)C=C1)C1=C(F)C=CC=C1
CH$IUPAC: InChI=1S/C16H13F2N3O/c17-13-7-5-12(6-8-13)16(22,9-21-11-19-10-20-21)14-3-1-2-4-15(14)18/h1-8,10-11,22H,9H2
CH$LINK: CAS 76674-21-0
CH$LINK: CHEBI CHEBI:83707
CH$LINK: KEGG C18734
CH$LINK: PUBCHEM CID:91727
CH$LINK: INCHIKEY JWUCHKBSVLQQCO-UHFFFAOYSA-N
CH$LINK: CHEMSPIDER 82827
AC$INSTRUMENT: Q Exactive Orbitrap (Thermo Scientific)
AC$INSTRUMENT_TYPE: LC-ESI-QFT
AC$MASS_SPECTROMETRY: MS_TYPE MS2
AC$MASS_SPECTROMETRY: ION_MODE NEGATIVE
AC$MASS_SPECTROMETRY: IONIZATION ESI
AC$MASS_SPECTROMETRY: FRAGMENTATION_MODE HCD
AC$MASS_SPECTROMETRY: COLLISION_ENERGY 60
AC$MASS_SPECTROMETRY: RESOLUTION 17500
AC$CHROMATOGRAPHY: COLUMN_NAME Acquity BEH C18 1.7um, 2.1x150mm (Waters)
AC$CHROMATOGRAPHY: FLOW_GRADIENT 90/10 at 0-2 min, 0/100 at 15-20 min, 90/10 at 20.1-30 min
AC$CHROMATOGRAPHY: FLOW_RATE 0.20 mL/min
AC$CHROMATOGRAPHY: RETENTION_TIME 16.244 min
AC$CHROMATOGRAPHY: SOLVENT A 0.1% formic acid
AC$CHROMATOGRAPHY: SOLVENT B methanol
MS$FOCUSED_ION: BASE_PEAK 112.9857
MS$FOCUSED_ION: PRECURSOR_M/Z 300.0954
MS$FOCUSED_ION: PRECURSOR_TYPE [M-H]-
MS$FOCUSED_ION: PRECURSOR_INTENSITY 862659.6303711
MS$DATA_PROCESSING: RECALIBRATE loess on assigned fragments and MS1
MS$DATA_PROCESSING: REANALYZE Peaks with additional N2/O included
MS$DATA_PROCESSING: WHOLE RMassBank 2.99.2
PK$SPLASH: splash10-0ck9-3900000000-9852f48fa02f0060f81c
PK$ANNOTATION: m/z tentative_formula formula_count mass error(ppm)
  65.9986 C3NO- 1 65.9985 0.63
  68.0255 C2H2N3- 1 68.0254 1.65
  95.0302 C6H4F- 3 95.0303 -0.61
  108.0203 C4H2N3O- 1 108.0203 -0.54
  120.0255 C7H3FN- 2 120.0255 -0.09
  162.0363 C9H5FNO- 2 162.0361 1.24
  204.0575 C10H7FN3O- 3 204.0579 -1.89
PK$NUM_PEAK: 7
PK$PEAK: m/z int. rel.int.
  65.9986 3197.4 267
  68.0255 5988.3 501
  95.0302 3333.8 278
  108.0203 11938 999
  120.0255 10475 876
  162.0363 6305.3 527
  204.0575 2844.3 238
//
