ACCESSION: MSBNK-LCSB-LU066001
RECORD_TITLE: FR140423; LC-ESI-QFT; MS2; CE: 15; R=17500; [M+H]+
DATE: 2020.08.19
AUTHORS: Elapavalore, A.; Kondić, T.; Singh, R.; Schymanski, E.
LICENSE: CC BY
COPYRIGHT: Copyright © 2019 by Environmental Cheminformatics, LCSB, University of Luxembourg, Luxembourg
PUBLICATION: Elapavalore, A.; Kondić, T.; et al., Adding Open Spectral Data to MassBank and PubChem Using Open Source Tools to Support Non-Targeted Exposomics of Mixtures (submitted).
PROJECT: ENTACT U.S. Environmental Protection Agency’s Non-Targeted Analysis Collaborative Trial
COMMENT: CONFIDENCE standard compound
COMMENT: INTERNAL_ID 660
COMMENT: DATASET 20200303_ENTACT_RP_MIX506
COMMENT: DATA_PROCESSING MERGING RMBmix ver. 0.2.7
COMMENT: DATA_PROCESSING PRESCREENING Shinyscreen ver. 0.8.0
COMMENT: ORIGINAL_ACQUISITION_NO 8527
COMMENT: ORIGINAL_PRECURSOR_SCAN_NO 8525
COMMENT: RAW_DATA available as MSV000091754 at [DOI:10.25345/C5S46HG75]
CH$NAME: FR140423
CH$NAME: 3-(Difluoromethyl)-1-(4-methoxyphenyl)-5-(4-(methylsulfinyl)phenyl)pyrazole
CH$NAME: 3-(difluoromethyl)-1-(4-methoxyphenyl)-5-(4-methylsulfinylphenyl)pyrazole
CH$COMPOUND_CLASS: N/A; Environmental Standard
CH$FORMULA: C18H16F2N2O2S
CH$EXACT_MASS: 362.0901
CH$SMILES: COC1=CC=C(C=C1)N1N=C(C=C1C1=CC=C(C=C1)S(C)=O)C(F)F
CH$IUPAC: InChI=1S/C18H16F2N2O2S/c1-24-14-7-5-13(6-8-14)22-17(11-16(21-22)18(19)20)12-3-9-15(10-4-12)25(2)23/h3-11,18H,1-2H3
CH$LINK: CAS 151506-44-4
CH$LINK: PUBCHEM CID:132932
CH$LINK: INCHIKEY JJAPPCJXQFKMJL-UHFFFAOYSA-N
CH$LINK: CHEMSPIDER 117317
AC$INSTRUMENT: Q Exactive Orbitrap (Thermo Scientific)
AC$INSTRUMENT_TYPE: LC-ESI-QFT
AC$MASS_SPECTROMETRY: MS_TYPE MS2
AC$MASS_SPECTROMETRY: ION_MODE POSITIVE
AC$MASS_SPECTROMETRY: IONIZATION ESI
AC$MASS_SPECTROMETRY: FRAGMENTATION_MODE HCD
AC$MASS_SPECTROMETRY: COLLISION_ENERGY 15
AC$MASS_SPECTROMETRY: RESOLUTION 17500
AC$CHROMATOGRAPHY: COLUMN_NAME Acquity BEH C18 1.7um, 2.1x150mm (Waters)
AC$CHROMATOGRAPHY: FLOW_GRADIENT 90/10 at 0-2 min, 0/100 at 15-20 min, 90/10 at 20.1-30 min
AC$CHROMATOGRAPHY: FLOW_RATE 0.20 mL/min
AC$CHROMATOGRAPHY: RETENTION_TIME 16.264 min
AC$CHROMATOGRAPHY: SOLVENT A 0.1% formic acid
AC$CHROMATOGRAPHY: SOLVENT B methanol
MS$FOCUSED_ION: BASE_PEAK 79.0211
MS$FOCUSED_ION: PRECURSOR_M/Z 363.0973
MS$FOCUSED_ION: PRECURSOR_TYPE [M+H]+
MS$FOCUSED_ION: PRECURSOR_INTENSITY 6076993.59375
MS$DATA_PROCESSING: RECALIBRATE loess on assigned fragments and MS1
MS$DATA_PROCESSING: REANALYZE Peaks with additional N2/O included
MS$DATA_PROCESSING: WHOLE RMassBank 2.99.2
PK$SPLASH: splash10-03di-0009000000-ff69a8610d032d30f09c
PK$ANNOTATION: m/z tentative_formula formula_count mass error(ppm)
  346.0948 C18H16F2N2OS+ 1 346.0946 0.62
  348.0739 C17H14F2N2O2S+ 1 348.0739 0.13
  363.0974 C18H17F2N2O2S+ 1 363.0973 0.15
PK$NUM_PEAK: 3
PK$PEAK: m/z int. rel.int.
  346.0948 28410.1 4
  348.0739 306661.1 51
  363.0974 6000663 999
//
