ACCESSION: MSBNK-LCSB-LU025306
RECORD_TITLE: Danazol; LC-ESI-QFT; MS2; CE: 90; R=17500; [M+H]+
DATE: 2020.08.19
AUTHORS: Elapavalore, A.; Kondić, T.; Singh, R.; Schymanski, E.
LICENSE: CC BY
COPYRIGHT: Copyright © 2019 by Environmental Cheminformatics, LCSB, University of Luxembourg, Luxembourg
PUBLICATION: Elapavalore, A.; Kondić, T.; et al., Adding Open Spectral Data to MassBank and PubChem Using Open Source Tools to Support Non-Targeted Exposomics of Mixtures (submitted).
PROJECT: ENTACT U.S. Environmental Protection Agency’s Non-Targeted Analysis Collaborative Trial
COMMENT: CONFIDENCE standard compound
COMMENT: INTERNAL_ID 253
COMMENT: DATASET 20200303_ENTACT_RP_MIX505
COMMENT: DATA_PROCESSING MERGING RMBmix ver. 0.2.7
COMMENT: DATA_PROCESSING PRESCREENING Shinyscreen ver. 0.8.0
COMMENT: ORIGINAL_ACQUISITION_NO 9824
COMMENT: ORIGINAL_PRECURSOR_SCAN_NO 9822
COMMENT: RAW_DATA available as MSV000091754 at [DOI:10.25345/C5S46HG75]
CH$NAME: Danazol
CH$NAME: (1S,2R,13R,14S,17R,18S)-17-ethynyl-2,18-dimethyl-7-oxa-6-azapentacyclo[11.7.0.02,10.04,8.014,18]icosa-4(8),5,9-trien-17-ol
CH$COMPOUND_CLASS: N/A; Environmental Standard
CH$FORMULA: C22H27NO2
CH$EXACT_MASS: 337.2042
CH$SMILES: C[C@]12CC[C@H]3[C@@H](CCC4=CC5=C(C[C@]34C)C=NO5)[C@@H]1CC[C@@]2(O)C#C
CH$IUPAC: InChI=1S/C22H27NO2/c1-4-22(24)10-8-18-16-6-5-15-11-19-14(13-23-25-19)12-20(15,2)17(16)7-9-21(18,22)3/h1,11,13,16-18,24H,5-10,12H2,2-3H3/t16-,17+,18+,20+,21+,22+/m1/s1
CH$LINK: CAS 17230-88-5
CH$LINK: CHEBI CHEBI:4315
CH$LINK: KEGG C06938
CH$LINK: PUBCHEM CID:28417
CH$LINK: INCHIKEY POZRVZJJTULAOH-LHZXLZLDSA-N
CH$LINK: CHEMSPIDER 26436
AC$INSTRUMENT: Q Exactive Orbitrap (Thermo Scientific)
AC$INSTRUMENT_TYPE: LC-ESI-QFT
AC$MASS_SPECTROMETRY: MS_TYPE MS2
AC$MASS_SPECTROMETRY: ION_MODE POSITIVE
AC$MASS_SPECTROMETRY: IONIZATION ESI
AC$MASS_SPECTROMETRY: FRAGMENTATION_MODE HCD
AC$MASS_SPECTROMETRY: COLLISION_ENERGY 90
AC$MASS_SPECTROMETRY: RESOLUTION 17500
AC$CHROMATOGRAPHY: COLUMN_NAME Acquity BEH C18 1.7um, 2.1x150mm (Waters)
AC$CHROMATOGRAPHY: FLOW_GRADIENT 90/10 at 0-2 min, 0/100 at 15-20 min, 90/10 at 20.1-30 min
AC$CHROMATOGRAPHY: FLOW_RATE 0.20 mL/min
AC$CHROMATOGRAPHY: RETENTION_TIME 18.811 min
AC$CHROMATOGRAPHY: SOLVENT A 0.1% formic acid
AC$CHROMATOGRAPHY: SOLVENT B methanol
MS$FOCUSED_ION: BASE_PEAK 79.0211
MS$FOCUSED_ION: PRECURSOR_M/Z 338.2115
MS$FOCUSED_ION: PRECURSOR_TYPE [M+H]+
MS$FOCUSED_ION: PRECURSOR_INTENSITY 5493240.6875
MS$DATA_PROCESSING: RECALIBRATE loess on assigned fragments and MS1
MS$DATA_PROCESSING: REANALYZE Peaks with additional N2/O included
MS$DATA_PROCESSING: WHOLE RMassBank 2.99.2
PK$SPLASH: splash10-002f-6900000000-6ecb63406ebf7809a3d3
PK$ANNOTATION: m/z tentative_formula formula_count mass error(ppm)
  50.0152 C4H2+ 1 50.0151 1.88
  51.023 C4H3+ 1 51.0229 0.49
  53.0022 C3HO+ 1 53.0022 0.26
  53.0386 C4H5+ 1 53.0386 0.53
  54.0339 C3H4N+ 1 54.0338 0.65
  55.0179 C3H3O+ 1 55.0178 0.89
  55.0543 C4H7+ 1 55.0542 0.53
  56.0495 C3H6N+ 1 56.0495 0.58
  63.023 C5H3+ 1 63.0229 0.93
  65.0386 C5H5+ 1 65.0386 -0.19
  67.0416 C4H5N+ 1 67.0417 -0.04
  67.0542 C5H7+ 1 67.0542 -0.08
  68.0495 C4H6N+ 1 68.0495 0.13
  69.0334 C4H5O+ 1 69.0335 -0.72
  69.0699 C5H9+ 1 69.0699 0.27
  70.0287 C3H4NO+ 1 70.0287 -0.49
  70.0651 C4H8N+ 1 70.0651 -0.49
  77.0385 C6H5+ 1 77.0386 -0.49
  78.0339 C5H4N+ 1 78.0338 1.09
  78.0463 C6H6+ 1 78.0464 -0.9
  79.0542 C6H7+ 1 79.0542 -0.08
  80.0495 C5H6N+ 1 80.0495 -0.07
  81.0335 C5H5O+ 1 81.0335 0.14
  81.0574 C5H7N+ 1 81.0573 0.91
  81.0699 C6H9+ 1 81.0699 0.41
  82.0653 C5H8N+ 1 82.0651 1.53
  84.0444 C4H6NO+ 1 84.0444 -0.02
  91.0543 C7H7+ 1 91.0542 0.42
  92.0495 C6H6N+ 1 92.0495 0.21
  93.0573 C6H7N+ 1 93.0573 0.23
  93.0699 C7H9+ 1 93.0699 0.53
  94.0652 C6H8N+ 1 94.0651 0.74
  95.0492 C6H7O+ 1 95.0491 0.34
  95.0855 C7H11+ 1 95.0855 0.17
  96.0443 C5H6NO+ 1 96.0444 -0.95
  96.0809 C6H10N+ 1 96.0808 1.5
  102.0463 C8H6+ 1 102.0464 -0.9
  103.0543 C8H7+ 1 103.0542 0.33
  104.0495 C7H6N+ 1 104.0495 -0.05
  104.0621 C8H8+ 1 104.0621 0.73
  105.0699 C8H9+ 1 105.0699 0.55
  106.0651 C7H8N+ 1 106.0651 0.18
  107.0491 C7H7O+ 1 107.0491 -0.02
  107.073 C7H9N+ 1 107.073 0.43
  107.0856 C8H11+ 1 107.0855 0.33
  108.0446 C6H6NO+ 1 108.0444 1.6
  108.0809 C7H10N+ 1 108.0808 1.38
  109.0525 C6H7NO+ 1 109.0522 2.6
  109.065 C7H9O+ 1 109.0648 2.02
  109.1013 C8H13+ 1 109.1012 1.45
  110.0601 C6H8NO+ 1 110.06 0.47
  115.0543 C9H7+ 1 115.0542 0.44
  116.0621 C9H8+ 1 116.0621 0.27
  117.0574 C8H7N+ 1 117.0573 0.65
  117.0699 C9H9+ 1 117.0699 0.5
  118.065 C8H8N+ 1 118.0651 -0.67
  118.0777 C9H10+ 1 118.0777 0.21
  119.0493 C8H7O+ 1 119.0491 1.4
  119.0731 C8H9N+ 1 119.073 1.03
  119.0856 C9H11+ 1 119.0855 0.69
  120.0444 C7H6NO+ 1 120.0444 -0.33
  120.0808 C8H10N+ 1 120.0808 0.36
  121.0648 C8H9O+ 1 121.0648 0.19
  121.0889 C8H11N+ 1 121.0886 2.34
  122.0601 C7H8NO+ 1 122.06 0.49
  122.0964 C8H12N+ 1 122.0964 -0.52
  123.068 C7H9NO+ 1 123.0679 0.71
  124.0758 C7H10NO+ 1 124.0757 0.73
  127.0542 C10H7+ 1 127.0542 -0.33
  128.0621 C10H8+ 1 128.0621 0.17
  129.0699 C10H9+ 1 129.0699 0.08
  130.0652 C9H8N+ 1 130.0651 0.59
  130.0777 C10H10+ 1 130.0777 0.1
  131.049 C9H7O+ 1 131.0491 -1.09
  131.0732 C9H9N+ 1 131.073 1.89
  131.0856 C10H11+ 1 131.0855 0.47
  132.0571 C9H8O+ 1 132.057 0.67
  132.0808 C9H10N+ 1 132.0808 0.51
  133.0525 C8H7NO+ 1 133.0522 2.43
  133.0649 C9H9O+ 1 133.0648 1.15
  133.0887 C9H11N+ 1 133.0886 0.87
  133.1012 C10H13+ 1 133.1012 0.28
  134.0602 C8H8NO+ 1 134.06 1.18
  134.0965 C9H12N+ 1 134.0964 0.43
  135.0807 C9H11O+ 1 135.0804 2.19
  141.0699 C11H9+ 1 141.0699 -0.02
  142.0778 C11H10+ 1 142.0777 0.53
  143.0729 C10H9N+ 1 143.073 -0.28
  143.0856 C11H11+ 1 143.0855 0.34
  144.0572 C10H8O+ 1 144.057 1.68
  144.0809 C10H10N+ 1 144.0808 1.11
  144.093 C11H12+ 1 144.0934 -2.19
  145.0648 C10H9O+ 1 145.0648 0.01
  145.0887 C10H11N+ 1 145.0886 0.6
  145.1013 C11H13+ 1 145.1012 0.58
  146.0601 C9H8NO+ 1 146.06 0.56
  146.0723 C10H10O+ 1 146.0726 -1.96
  146.0964 C10H12N+ 1 146.0964 0.09
  147.0679 C9H9NO+ 1 147.0679 0.16
  147.0805 C10H11O+ 1 147.0804 0.35
  148.0757 C9H10NO+ 1 148.0757 -0.23
  149.0838 C9H11NO+ 1 149.0835 2.04
  152.0622 C12H8+ 1 152.0621 0.76
  153.0699 C12H9+ 1 153.0699 0.28
  154.066 C11H8N+ 1 154.0651 5.56
  154.0778 C12H10+ 1 154.0777 0.59
  155.0855 C12H11+ 1 155.0855 -0.28
  156.081 C11H10N+ 1 156.0808 1.23
  156.0936 C12H12+ 1 156.0934 1.4
  157.0648 C11H9O+ 1 157.0648 0.11
  157.0888 C11H11N+ 1 157.0886 1.43
  157.1013 C12H13+ 1 157.1012 0.64
  158.0729 C11H10O+ 1 158.0726 1.96
  158.0964 C11H12N+ 1 158.0964 0.09
  159.0806 C11H11O+ 1 159.0804 1.3
  159.105 C11H13N+ 1 159.1043 4.52
  160.0756 C10H10NO+ 1 160.0757 -0.87
  160.1124 C11H14N+ 1 160.1121 1.84
  162.0917 C10H12NO+ 1 162.0913 2
  165.07 C13H9+ 1 165.0699 0.65
  166.0778 C13H10+ 1 166.0777 0.48
  167.0732 C12H9N+ 1 167.073 1.79
  167.0856 C13H11+ 1 167.0855 0.4
  168.0809 C12H10N+ 1 168.0808 0.8
  168.0934 C13H12+ 1 168.0934 0.42
  169.0647 C12H9O+ 1 169.0648 -0.6
  169.1013 C13H13+ 1 169.1012 0.97
  170.0963 C12H12N+ 1 170.0964 -0.61
  171.1041 C12H13N+ 1 171.1043 -0.68
  172.112 C12H14N+ 1 172.1121 -0.22
  174.0911 C11H12NO+ 1 174.0913 -1.18
  177.0699 C14H9+ 1 177.0699 0.11
  178.0777 C14H10+ 1 178.0777 -0.13
  179.0857 C14H11+ 1 179.0855 0.82
  180.0803 C13H10N+ 1 180.0808 -2.54
  180.0935 C14H12+ 1 180.0934 0.84
  181.0647 C13H9O+ 1 181.0648 -0.28
  181.0889 C13H11N+ 1 181.0886 1.45
  181.1011 C14H13+ 1 181.1012 -0.33
  182.0729 C13H10O+ 1 182.0726 1.75
  182.0964 C13H12N+ 1 182.0964 -0.21
  182.1096 C14H14+ 1 182.109 3.13
  183.0802 C13H11O+ 1 183.0804 -1.41
  183.1172 C14H15+ 1 183.1168 2.05
  184.1121 C13H14N+ 1 184.1121 0.16
  189.0699 C15H9+ 1 189.0699 0.24
  190.0776 C15H10+ 1 190.0777 -0.38
  191.0856 C15H11+ 1 191.0855 0.36
  192.0932 C15H12+ 1 192.0934 -0.89
  193.1014 C15H13+ 1 193.1012 1.19
  194.0971 C14H12N+ 1 194.0964 3.43
  194.1093 C15H14+ 1 194.109 1.45
  195.0805 C14H11O+ 1 195.0804 0.34
  195.117 C15H15+ 1 195.1168 0.76
  196.1121 C14H14N+ 1 196.1121 0.25
  197.1323 C15H17+ 1 197.1325 -1.13
  202.0778 C16H10+ 1 202.0777 0.37
  203.0853 C16H11+ 1 203.0855 -0.96
  204.0933 C16H12+ 1 204.0934 -0.1
  205.1013 C16H13+ 1 205.1012 0.37
  206.0965 C15H12N+ 1 206.0964 0.56
  207.1161 C16H15+ 1 207.1168 -3.49
  208.1122 C15H14N+ 1 208.1121 0.46
  210.1277 C15H16N+ 1 210.1277 -0.3
  215.0857 C17H11+ 1 215.0855 0.88
  216.0933 C17H12+ 1 216.0934 -0.38
  217.1007 C17H13+ 1 217.1012 -2.04
  219.1168 C17H15+ 1 219.1168 -0.23
  220.1113 C16H14N+ 1 220.1121 -3.38
  229.1015 C18H13+ 1 229.1012 1.21
  231.1177 C18H15+ 1 231.1168 3.88
  248.1436 C18H18N+ 1 248.1434 1.04
PK$NUM_PEAK: 172
PK$PEAK: m/z int. rel.int.
  50.0152 3216.4 6
  51.023 5702.3 11
  53.0022 19114.9 37
  53.0386 77915.1 152
  54.0339 6886.5 13
  55.0179 26863.8 52
  55.0543 36884.1 72
  56.0495 40894 80
  63.023 2594.6 5
  65.0386 73182.5 143
  67.0416 8151.1 15
  67.0542 86159.6 169
  68.0495 8455.9 16
  69.0334 8219.2 16
  69.0699 5095.3 10
  70.0287 59527 116
  70.0651 56688.1 111
  77.0385 21546.9 42
  78.0339 2650.4 5
  78.0463 8661.3 16
  79.0542 213245.9 418
  80.0495 45339.6 88
  81.0335 19257.7 37
  81.0574 7455.8 14
  81.0699 56356.5 110
  82.0653 12642.2 24
  84.0444 15673.2 30
  91.0543 509018.2 999
  92.0495 38515.7 75
  93.0573 16935.9 33
  93.0699 135672.9 266
  94.0652 59297.6 116
  95.0492 177020.6 347
  95.0855 22401.1 43
  96.0443 14808 29
  96.0809 2319.2 4
  102.0463 5298.2 10
  103.0543 88832.5 174
  104.0495 5735.6 11
  104.0621 10088.7 19
  105.0699 182783.5 358
  106.0651 81450.2 159
  107.0491 13354.3 26
  107.073 17702.9 34
  107.0856 17983.6 35
  108.0446 3399.9 6
  108.0809 12777.8 25
  109.0525 3552.2 6
  109.065 12171.5 23
  109.1013 2928.5 5
  110.0601 12679.2 24
  115.0543 163238.5 320
  116.0621 48459.1 95
  117.0574 13696.2 26
  117.0699 79270.1 155
  118.065 27333.5 53
  118.0777 3016.4 5
  119.0493 6859.5 13
  119.0731 11041 21
  119.0856 51748.6 101
  120.0444 14080.9 27
  120.0808 94033.4 184
  121.0648 73254.7 143
  121.0889 6339.9 12
  122.0601 12596.2 24
  122.0964 9088.8 17
  123.068 5353 10
  124.0758 3716.6 7
  127.0542 8442.7 16
  128.0621 185616.5 364
  129.0699 106195.6 208
  130.0652 21339.2 41
  130.0777 21094.1 41
  131.049 11366.4 22
  131.0732 13316.4 26
  131.0856 42364.8 83
  132.0571 7048.8 13
  132.0808 23201.8 45
  133.0525 6966.4 13
  133.0649 6531.1 12
  133.0887 4599.1 9
  133.1012 8524.6 16
  134.0602 4318.1 8
  134.0965 8682.9 17
  135.0807 6728.7 13
  141.0699 110046.2 215
  142.0778 63208.5 124
  143.0729 10816.1 21
  143.0856 39621.8 77
  144.0572 4705.9 9
  144.0809 23976.9 47
  144.093 4526.9 8
  145.0648 29273.6 57
  145.0887 7159.3 14
  145.1013 10455.4 20
  146.0601 7008.3 13
  146.0723 4783.6 9
  146.0964 14884 29
  147.0679 2758.3 5
  147.0805 13106.8 25
  148.0757 33742.1 66
  149.0838 4817.5 9
  152.0622 31304.9 61
  153.0699 70689.8 138
  154.066 3508.1 6
  154.0778 28581.1 56
  155.0855 48100.4 94
  156.081 6441.5 12
  156.0936 11328.9 22
  157.0648 4951.6 9
  157.0888 7070.9 13
  157.1013 13960.2 27
  158.0729 4204.3 8
  158.0964 6869.8 13
  159.0806 3913.5 7
  159.105 3984.2 7
  160.0756 4848.4 9
  160.1124 4943.1 9
  162.0917 5061.8 9
  165.07 86578.4 169
  166.0778 24935.3 48
  167.0732 5071.7 9
  167.0856 41989.4 82
  168.0809 8021.7 15
  168.0934 9400.6 18
  169.0647 6214.7 12
  169.1013 11004.5 21
  170.0963 5029.3 9
  171.1041 2371.4 4
  172.112 5151 10
  174.0911 3555.5 6
  177.0699 2977.2 5
  178.0777 45334.3 88
  179.0857 43058.5 84
  180.0803 2863.2 5
  180.0935 12195.6 23
  181.0647 3851.1 7
  181.0889 3604.2 7
  181.1011 14385.8 28
  182.0729 3094.7 6
  182.0964 6242.5 12
  182.1096 3289.3 6
  183.0802 3504.4 6
  183.1172 3584.7 7
  184.1121 4325.3 8
  189.0699 15979.6 31
  190.0776 16766.6 32
  191.0856 30285.2 59
  192.0932 12493.2 24
  193.1014 14485.3 28
  194.0971 3094.4 6
  194.1093 2535.6 4
  195.0805 2932.7 5
  195.117 5942.3 11
  196.1121 3330.5 6
  197.1323 2199.2 4
  202.0778 26857.1 52
  203.0853 25164 49
  204.0933 8397.5 16
  205.1013 8558.9 16
  206.0965 4298.7 8
  207.1161 3662.1 7
  208.1122 4037.6 7
  210.1277 3128.6 6
  215.0857 18540.3 36
  216.0933 4213.2 8
  217.1007 10373.5 20
  219.1168 3214.7 6
  220.1113 2536.7 4
  229.1015 6877 13
  231.1177 3068.9 6
  248.1436 3110.2 6
//
