ACCESSION: MSBNK-LCSB-LU084503
RECORD_TITLE: 1,3-Diphenylguanidine; LC-ESI-QFT; MS2; CE: 45; R=17500; [M+H]+
DATE: 2020.08.19
AUTHORS: Elapavalore, A.; Kondić, T.; Singh, R.; Schymanski, E.
LICENSE: CC BY
COPYRIGHT: Copyright © 2019 by Environmental Cheminformatics, LCSB, University of Luxembourg, Luxembourg
PUBLICATION: Elapavalore, A.; Kondić, T.; et al., Adding Open Spectral Data to MassBank and PubChem Using Open Source Tools to Support Non-Targeted Exposomics of Mixtures (submitted).
PROJECT: ENTACT U.S. Environmental Protection Agency’s Non-Targeted Analysis Collaborative Trial
COMMENT: CONFIDENCE standard compound
COMMENT: INTERNAL_ID 845
COMMENT: DATASET 20200303_ENTACT_RP_MIX505
COMMENT: DATA_PROCESSING MERGING RMBmix ver. 0.2.7
COMMENT: DATA_PROCESSING PRESCREENING Shinyscreen ver. 0.8.0
COMMENT: ORIGINAL_ACQUISITION_NO 6137
COMMENT: ORIGINAL_PRECURSOR_SCAN_NO 6136
COMMENT: RAW_DATA available as MSV000091754 at [DOI:10.25345/C5S46HG75]
CH$NAME: 1,3-Diphenylguanidine
CH$NAME: 1,2-diphenylguanidine
CH$COMPOUND_CLASS: N/A; Environmental Standard
CH$FORMULA: C13H13N3
CH$EXACT_MASS: 211.1109
CH$SMILES: N=C(NC1=CC=CC=C1)NC1=CC=CC=C1
CH$IUPAC: InChI=1S/C13H13N3/c14-13(15-11-7-3-1-4-8-11)16-12-9-5-2-6-10-12/h1-10H,(H3,14,15,16)
CH$LINK: CAS 102-06-7
CH$LINK: CHEBI CHEBI:144319
CH$LINK: PUBCHEM CID:7594
CH$LINK: INCHIKEY OWRCNXZUPFZXOS-UHFFFAOYSA-N
CH$LINK: CHEMSPIDER 7313
AC$INSTRUMENT: Q Exactive Orbitrap (Thermo Scientific)
AC$INSTRUMENT_TYPE: LC-ESI-QFT
AC$MASS_SPECTROMETRY: MS_TYPE MS2
AC$MASS_SPECTROMETRY: ION_MODE POSITIVE
AC$MASS_SPECTROMETRY: IONIZATION ESI
AC$MASS_SPECTROMETRY: FRAGMENTATION_MODE HCD
AC$MASS_SPECTROMETRY: COLLISION_ENERGY 45
AC$MASS_SPECTROMETRY: RESOLUTION 17500
AC$CHROMATOGRAPHY: COLUMN_NAME Acquity BEH C18 1.7um, 2.1x150mm (Waters)
AC$CHROMATOGRAPHY: FLOW_GRADIENT 90/10 at 0-2 min, 0/100 at 15-20 min, 90/10 at 20.1-30 min
AC$CHROMATOGRAPHY: FLOW_RATE 0.20 mL/min
AC$CHROMATOGRAPHY: RETENTION_TIME 11.649 min
AC$CHROMATOGRAPHY: SOLVENT A 0.1% formic acid
AC$CHROMATOGRAPHY: SOLVENT B methanol
MS$FOCUSED_ION: BASE_PEAK 79.0211
MS$FOCUSED_ION: PRECURSOR_M/Z 212.1182
MS$FOCUSED_ION: PRECURSOR_TYPE [M+H]+
MS$FOCUSED_ION: PRECURSOR_INTENSITY 56136139.53125
MS$DATA_PROCESSING: RECALIBRATE loess on assigned fragments and MS1
MS$DATA_PROCESSING: REANALYZE Peaks with additional N2/O included
MS$DATA_PROCESSING: WHOLE RMassBank 2.99.2
PK$SPLASH: splash10-014l-5930000000-e10e7c63eea34d197cb1
PK$ANNOTATION: m/z tentative_formula formula_count mass error(ppm)
  51.0231 C4H3+ 1 51.0229 3.03
  53.0386 C4H5+ 1 53.0386 1.25
  77.0382 C6H5+ 1 77.0386 -4.55
  92.0495 C6H6N+ 1 92.0495 -0.12
  94.0651 C6H8N+ 1 94.0651 0.17
  95.0491 C4H5N3+ 1 95.0478 13.91
  105.0447 C6H5N2+ 1 105.0447 0.24
  119.0604 C7H7N2+ 1 119.0604 0.16
  168.0806 C12H10N+ 1 168.0808 -1.11
  195.0917 C13H11N2+ 1 195.0917 0.32
  212.1182 C13H14N3+ 1 212.1182 -0.14
PK$NUM_PEAK: 11
PK$PEAK: m/z int. rel.int.
  51.0231 37742.5 1
  53.0386 92227.6 4
  77.0382 193031.8 8
  92.0495 720658.5 31
  94.0651 15999774 696
  95.0491 275217.8 11
  105.0447 105733 4
  119.0604 22942002 999
  168.0806 32850.3 1
  195.0917 7911158 344
  212.1182 10906719 474
//
