ACCESSION: MSBNK-LCSB-LU131852
RECORD_TITLE: Chlorbromuron; LC-ESI-QFT; MS2; CE: 30; R=17500; [M-H]-
DATE: 2020.08.19
AUTHORS: Elapavalore, A.; Kondić, T.; Singh, R.; Schymanski, E.
LICENSE: CC BY
COPYRIGHT: Copyright © 2019 by Environmental Cheminformatics, LCSB, University of Luxembourg, Luxembourg
PUBLICATION: Elapavalore, A.; Kondić, T.; et al., Adding Open Spectral Data to MassBank and PubChem Using Open Source Tools to Support Non-Targeted Exposomics of Mixtures (submitted).
PROJECT: ENTACT U.S. Environmental Protection Agency’s Non-Targeted Analysis Collaborative Trial
COMMENT: CONFIDENCE standard compound
COMMENT: INTERNAL_ID 1318
COMMENT: DATASET 20200303_ENTACT_RP_MIX504
COMMENT: DATA_PROCESSING MERGING RMBmix ver. 0.2.7
COMMENT: DATA_PROCESSING PRESCREENING Shinyscreen ver. 0.8.0
COMMENT: ORIGINAL_ACQUISITION_NO 4514
COMMENT: ORIGINAL_PRECURSOR_SCAN_NO 4511
COMMENT: RAW_DATA available as MSV000091754 at [DOI:10.25345/C5S46HG75]
CH$NAME: Chlorbromuron
CH$NAME: 3-(4-bromo-3-chlorophenyl)-1-methoxy-1-methylurea
CH$COMPOUND_CLASS: N/A; Environmental Standard
CH$FORMULA: C9H10BrClN2O2
CH$EXACT_MASS: 291.9614
CH$SMILES: CON(C)C(=O)NC1=CC(Cl)=C(Br)C=C1
CH$IUPAC: InChI=1S/C9H10BrClN2O2/c1-13(15-2)9(14)12-6-3-4-7(10)8(11)5-6/h3-5H,1-2H3,(H,12,14)
CH$LINK: CAS 13360-45-7
CH$LINK: CHEBI CHEBI:3608
CH$LINK: KEGG C11009
CH$LINK: PUBCHEM CID:25912
CH$LINK: INCHIKEY NLYNUTMZTCLNOO-UHFFFAOYSA-N
CH$LINK: CHEMSPIDER 24141
AC$INSTRUMENT: Q Exactive Orbitrap (Thermo Scientific)
AC$INSTRUMENT_TYPE: LC-ESI-QFT
AC$MASS_SPECTROMETRY: MS_TYPE MS2
AC$MASS_SPECTROMETRY: ION_MODE NEGATIVE
AC$MASS_SPECTROMETRY: IONIZATION ESI
AC$MASS_SPECTROMETRY: FRAGMENTATION_MODE HCD
AC$MASS_SPECTROMETRY: COLLISION_ENERGY 30
AC$MASS_SPECTROMETRY: RESOLUTION 17500
AC$CHROMATOGRAPHY: COLUMN_NAME Acquity BEH C18 1.7um, 2.1x150mm (Waters)
AC$CHROMATOGRAPHY: FLOW_GRADIENT 90/10 at 0-2 min, 0/100 at 15-20 min, 90/10 at 20.1-30 min
AC$CHROMATOGRAPHY: FLOW_RATE 0.20 mL/min
AC$CHROMATOGRAPHY: RETENTION_TIME 17.618 min
AC$CHROMATOGRAPHY: SOLVENT A 0.1% formic acid
AC$CHROMATOGRAPHY: SOLVENT B methanol
MS$FOCUSED_ION: BASE_PEAK 269.0544
MS$FOCUSED_ION: PRECURSOR_M/Z 290.9541
MS$FOCUSED_ION: PRECURSOR_TYPE [M-H]-
MS$FOCUSED_ION: PRECURSOR_INTENSITY 2910967.65625
MS$DATA_PROCESSING: RECALIBRATE loess on assigned fragments and MS1
MS$DATA_PROCESSING: REANALYZE Peaks with additional N2/O included
MS$DATA_PROCESSING: WHOLE RMassBank 2.99.2
PK$SPLASH: splash10-0ufr-6090000000-c10d744daeef22d1953f
PK$ANNOTATION: m/z tentative_formula formula_count mass error(ppm)
  78.9189 Br- 1 78.9189 0.2
  202.9143 C6H3BrClN- 2 202.9143 -0.16
  203.9221 C6H4BrClN- 2 203.9221 -0.22
  229.9016 C7H2BrClNO- 1 229.9014 0.92
  258.9279 C8H5BrClN2O- 1 258.9279 0
  275.9306 C8H6BrClN2O2- 1 275.9307 -0.35
  290.9546 C9H9BrClN2O2- 1 290.9541 1.74
PK$NUM_PEAK: 7
PK$PEAK: m/z int. rel.int.
  78.9189 423392.1 806
  202.9143 4284.5 8
  203.9221 524298.8 999
  229.9016 9335.1 17
  258.9279 40587.3 77
  275.9306 37207.9 70
  290.9546 3701.2 7
//
