ACCESSION: MSBNK-LCSB-LU135001
RECORD_TITLE: Tetraethylene glycol di(2-ethylhexanoate); LC-ESI-QFT; MS2; CE: 15; R=17500; [M+H]+
DATE: 2020.08.19
AUTHORS: Elapavalore, A.; Kondić, T.; Singh, R.; Schymanski, E.
LICENSE: CC BY
COPYRIGHT: Copyright © 2019 by Environmental Cheminformatics, LCSB, University of Luxembourg, Luxembourg
PUBLICATION: Elapavalore, A.; Kondić, T.; et al., Adding Open Spectral Data to MassBank and PubChem Using Open Source Tools to Support Non-Targeted Exposomics of Mixtures (submitted).
PROJECT: ENTACT U.S. Environmental Protection Agency’s Non-Targeted Analysis Collaborative Trial
COMMENT: CONFIDENCE standard compound
COMMENT: INTERNAL_ID 1350
COMMENT: DATASET 20200303_ENTACT_RP_MIX504
COMMENT: DATA_PROCESSING MERGING RMBmix ver. 0.2.7
COMMENT: DATA_PROCESSING PRESCREENING Shinyscreen ver. 0.8.0
COMMENT: ORIGINAL_ACQUISITION_NO 10700
COMMENT: ORIGINAL_PRECURSOR_SCAN_NO 10696
COMMENT: RAW_DATA available as MSV000091754 at [DOI:10.25345/C5S46HG75]
CH$NAME: Tetraethylene glycol di(2-ethylhexanoate)
CH$NAME: 2-[2-[2-[2-(2-ethylhexanoyloxy)ethoxy]ethoxy]ethoxy]ethyl 2-ethylhexanoate
CH$COMPOUND_CLASS: N/A; Environmental Standard
CH$FORMULA: C24H46O7
CH$EXACT_MASS: 446.3244
CH$SMILES: CCCCC(CC)C(=O)OCCOCCOCCOCCOC(=O)C(CC)CCCC
CH$IUPAC: InChI=1S/C24H46O7/c1-5-9-11-21(7-3)23(25)30-19-17-28-15-13-27-14-16-29-18-20-31-24(26)22(8-4)12-10-6-2/h21-22H,5-20H2,1-4H3
CH$LINK: CAS 18268-70-7
CH$LINK: PUBCHEM CID:28999
CH$LINK: INCHIKEY GYHPTPQZVBYHLC-UHFFFAOYSA-N
CH$LINK: CHEMSPIDER 26976
AC$INSTRUMENT: Q Exactive Orbitrap (Thermo Scientific)
AC$INSTRUMENT_TYPE: LC-ESI-QFT
AC$MASS_SPECTROMETRY: MS_TYPE MS2
AC$MASS_SPECTROMETRY: ION_MODE POSITIVE
AC$MASS_SPECTROMETRY: IONIZATION ESI
AC$MASS_SPECTROMETRY: FRAGMENTATION_MODE HCD
AC$MASS_SPECTROMETRY: COLLISION_ENERGY 15
AC$MASS_SPECTROMETRY: RESOLUTION 17500
AC$CHROMATOGRAPHY: COLUMN_NAME Acquity BEH C18 1.7um, 2.1x150mm (Waters)
AC$CHROMATOGRAPHY: FLOW_GRADIENT 90/10 at 0-2 min, 0/100 at 15-20 min, 90/10 at 20.1-30 min
AC$CHROMATOGRAPHY: FLOW_RATE 0.20 mL/min
AC$CHROMATOGRAPHY: RETENTION_TIME 20.468 min
AC$CHROMATOGRAPHY: SOLVENT A 0.1% formic acid
AC$CHROMATOGRAPHY: SOLVENT B methanol
MS$FOCUSED_ION: BASE_PEAK 79.0212
MS$FOCUSED_ION: PRECURSOR_M/Z 447.3316
MS$FOCUSED_ION: PRECURSOR_TYPE [M+H]+
MS$FOCUSED_ION: PRECURSOR_INTENSITY 981878.140625
MS$DATA_PROCESSING: RECALIBRATE loess on assigned fragments and MS1
MS$DATA_PROCESSING: REANALYZE Peaks with additional N2/O included
MS$DATA_PROCESSING: WHOLE RMassBank 2.99.2
PK$SPLASH: splash10-00di-0900000000-8c334b91eb16ac29c0f3
PK$ANNOTATION: m/z tentative_formula formula_count mass error(ppm)
  57.0699 C4H9+ 1 57.0699 1.26
  171.1381 C10H19O2+ 1 171.138 0.79
PK$NUM_PEAK: 2
PK$PEAK: m/z int. rel.int.
  57.0699 2947 9
  171.1381 298293.9 999
//
