ACCESSION: MSBNK-LCSB-LU029352
RECORD_TITLE: Pirinixic acid; LC-ESI-QFT; MS2; CE: 30; R=17500; [M-H]-
DATE: 2020.08.19
AUTHORS: Elapavalore, A.; Kondić, T.; Singh, R.; Schymanski, E.
LICENSE: CC BY
COPYRIGHT: Copyright © 2019 by Environmental Cheminformatics, LCSB, University of Luxembourg, Luxembourg
PUBLICATION: Elapavalore, A.; Kondić, T.; et al., Adding Open Spectral Data to MassBank and PubChem Using Open Source Tools to Support Non-Targeted Exposomics of Mixtures (submitted).
PROJECT: ENTACT U.S. Environmental Protection Agency’s Non-Targeted Analysis Collaborative Trial
COMMENT: CONFIDENCE standard compound
COMMENT: INTERNAL_ID 293
COMMENT: DATASET 20200303_ENTACT_RP_MIX505
COMMENT: DATA_PROCESSING MERGING RMBmix ver. 0.2.7
COMMENT: DATA_PROCESSING PRESCREENING Shinyscreen ver. 0.8.0
COMMENT: ORIGINAL_ACQUISITION_NO 4984
COMMENT: ORIGINAL_PRECURSOR_SCAN_NO 4982
COMMENT: RAW_DATA available as MSV000091754 at [DOI:10.25345/C5S46HG75]
CH$NAME: Pirinixic acid
CH$NAME: 2-[4-chloro-6-(2,3-dimethylanilino)pyrimidin-2-yl]sulfanylacetic acid
CH$COMPOUND_CLASS: N/A; Environmental Standard
CH$FORMULA: C14H14ClN3O2S
CH$EXACT_MASS: 323.0495
CH$SMILES: CC1=C(C)C(NC2=NC(SCC(O)=O)=NC(Cl)=C2)=CC=C1
CH$IUPAC: InChI=1S/C14H14ClN3O2S/c1-8-4-3-5-10(9(8)2)16-12-6-11(15)17-14(18-12)21-7-13(19)20/h3-6H,7H2,1-2H3,(H,19,20)(H,16,17,18)
CH$LINK: CAS 50892-23-4
CH$LINK: CHEBI CHEBI:32509
CH$LINK: KEGG C15617
CH$LINK: PUBCHEM CID:5694
CH$LINK: INCHIKEY SZRPDCCEHVWOJX-UHFFFAOYSA-N
CH$LINK: CHEMSPIDER 5492
AC$INSTRUMENT: Q Exactive Orbitrap (Thermo Scientific)
AC$INSTRUMENT_TYPE: LC-ESI-QFT
AC$MASS_SPECTROMETRY: MS_TYPE MS2
AC$MASS_SPECTROMETRY: ION_MODE NEGATIVE
AC$MASS_SPECTROMETRY: IONIZATION ESI
AC$MASS_SPECTROMETRY: FRAGMENTATION_MODE HCD
AC$MASS_SPECTROMETRY: COLLISION_ENERGY 30
AC$MASS_SPECTROMETRY: RESOLUTION 17500
AC$CHROMATOGRAPHY: COLUMN_NAME Acquity BEH C18 1.7um, 2.1x150mm (Waters)
AC$CHROMATOGRAPHY: FLOW_GRADIENT 90/10 at 0-2 min, 0/100 at 15-20 min, 90/10 at 20.1-30 min
AC$CHROMATOGRAPHY: FLOW_RATE 0.20 mL/min
AC$CHROMATOGRAPHY: RETENTION_TIME 17.832 min
AC$CHROMATOGRAPHY: SOLVENT A 0.1% formic acid
AC$CHROMATOGRAPHY: SOLVENT B methanol
MS$FOCUSED_ION: BASE_PEAK 317.1395
MS$FOCUSED_ION: PRECURSOR_M/Z 322.0422
MS$FOCUSED_ION: PRECURSOR_TYPE [M-H]-
MS$FOCUSED_ION: PRECURSOR_INTENSITY 13707638.33203
MS$DATA_PROCESSING: RECALIBRATE loess on assigned fragments and MS1
MS$DATA_PROCESSING: REANALYZE Peaks with additional N2/O included
MS$DATA_PROCESSING: WHOLE RMassBank 2.99.2
PK$SPLASH: splash10-004i-0090000000-0230b998eef8e2ebb0bd
PK$ANNOTATION: m/z tentative_formula formula_count mass error(ppm)
  57.9757 CNS- 1 57.9757 -0.63
  65.0145 C3HN2- 1 65.0145 -0.24
  71.9912 C2H2NS- 1 71.9913 -1.59
  138.9971 C5H3N2OS- 4 138.9972 -0.18
  145.0269 C7H3N3O- 1 145.0282 -8.57
  169.0771 C11H9N2- 1 169.0771 -0.02
  194.072 C12H8N3- 4 194.0724 -1.82
  196.088 C12H10N3- 2 196.088 -0.21
  227.0522 C12H9N3S- 3 227.0523 -0.47
  232.0646 C12H11ClN3- 3 232.0647 -0.46
  242.0755 C13H12N3S- 1 242.0757 -1.02
  243.0599 C13H11N2OS- 2 243.0598 0.71
  248.0596 C12H11ClN3O- 3 248.0596 -0.03
  262.021 C12H9ClN3S- 2 262.0211 -0.29
  264.0371 C12H11ClN3S- 2 264.0368 1.23
  278.0523 C13H13ClN3S- 1 278.0524 -0.36
PK$NUM_PEAK: 16
PK$PEAK: m/z int. rel.int.
  57.9757 18409.4 4
  65.0145 159499.6 39
  71.9912 6587.4 1
  138.9971 57493.3 14
  145.0269 12419.3 3
  169.0771 314211.1 77
  194.072 26840.9 6
  196.088 12415.2 3
  227.0522 65296.6 16
  232.0646 13742.9 3
  242.0755 24106 5
  243.0599 9095.3 2
  248.0596 121719.8 29
  262.021 32768.5 8
  264.0371 5257.1 1
  278.0523 4072235.2 999
//
