ACCESSION: MSBNK-LCSB-LU054252
RECORD_TITLE: Fluconazole; LC-ESI-QFT; MS2; CE: 30; R=17500; [M-H]-
DATE: 2020.08.19
AUTHORS: Elapavalore, A.; Kondić, T.; Singh, R.; Schymanski, E.
LICENSE: CC BY
COPYRIGHT: Copyright © 2019 by Environmental Cheminformatics, LCSB, University of Luxembourg, Luxembourg
PUBLICATION: Elapavalore, A.; Kondić, T.; et al., Adding Open Spectral Data to MassBank and PubChem Using Open Source Tools to Support Non-Targeted Exposomics of Mixtures (submitted).
PROJECT: ENTACT U.S. Environmental Protection Agency’s Non-Targeted Analysis Collaborative Trial
COMMENT: CONFIDENCE standard compound
COMMENT: INTERNAL_ID 542
COMMENT: DATASET 20200303_ENTACT_RP_MIX506
COMMENT: DATA_PROCESSING MERGING RMBmix ver. 0.2.7
COMMENT: DATA_PROCESSING PRESCREENING Shinyscreen ver. 0.8.0
COMMENT: ORIGINAL_ACQUISITION_NO 3236
COMMENT: ORIGINAL_PRECURSOR_SCAN_NO 3231
COMMENT: RAW_DATA available as MSV000091754 at [DOI:10.25345/C5S46HG75]
CH$NAME: Fluconazole
CH$NAME: 2-(2,4-difluorophenyl)-1,3-bis(1,2,4-triazol-1-yl)propan-2-ol
CH$COMPOUND_CLASS: N/A; Environmental Standard
CH$FORMULA: C13H12F2N6O
CH$EXACT_MASS: 306.1041
CH$SMILES: OC(CN1C=NC=N1)(CN1C=NC=N1)C1=C(F)C=C(F)C=C1
CH$IUPAC: InChI=1S/C13H12F2N6O/c14-10-1-2-11(12(15)3-10)13(22,4-20-8-16-6-18-20)5-21-9-17-7-19-21/h1-3,6-9,22H,4-5H2
CH$LINK: CAS 86386-73-4
CH$LINK: CHEBI CHEBI:46081
CH$LINK: KEGG D00322
CH$LINK: PUBCHEM CID:3365
CH$LINK: INCHIKEY RFHAOTPXVQNOHP-UHFFFAOYSA-N
CH$LINK: CHEMSPIDER 3248
AC$INSTRUMENT: Q Exactive Orbitrap (Thermo Scientific)
AC$INSTRUMENT_TYPE: LC-ESI-QFT
AC$MASS_SPECTROMETRY: MS_TYPE MS2
AC$MASS_SPECTROMETRY: ION_MODE NEGATIVE
AC$MASS_SPECTROMETRY: IONIZATION ESI
AC$MASS_SPECTROMETRY: FRAGMENTATION_MODE HCD
AC$MASS_SPECTROMETRY: COLLISION_ENERGY 30
AC$MASS_SPECTROMETRY: RESOLUTION 17500
AC$CHROMATOGRAPHY: COLUMN_NAME Acquity BEH C18 1.7um, 2.1x150mm (Waters)
AC$CHROMATOGRAPHY: FLOW_GRADIENT 90/10 at 0-2 min, 0/100 at 15-20 min, 90/10 at 20.1-30 min
AC$CHROMATOGRAPHY: FLOW_RATE 0.20 mL/min
AC$CHROMATOGRAPHY: RETENTION_TIME 12.986 min
AC$CHROMATOGRAPHY: SOLVENT A 0.1% formic acid
AC$CHROMATOGRAPHY: SOLVENT B methanol
MS$FOCUSED_ION: BASE_PEAK 305.0967
MS$FOCUSED_ION: PRECURSOR_M/Z 305.0968
MS$FOCUSED_ION: PRECURSOR_TYPE [M-H]-
MS$FOCUSED_ION: PRECURSOR_INTENSITY 9831884.104492
MS$DATA_PROCESSING: RECALIBRATE loess on assigned fragments and MS1
MS$DATA_PROCESSING: REANALYZE Peaks with additional N2/O included
MS$DATA_PROCESSING: WHOLE RMassBank 2.99.2
PK$SPLASH: splash10-0006-3900000000-422c71e85360e077dca8
PK$ANNOTATION: m/z tentative_formula formula_count mass error(ppm)
  65.9983 C3NO- 1 65.9985 -3.07
  67.0303 C3H3N2- 1 67.0302 2
  68.0254 C2H2N3- 1 68.0254 -0.14
  82.0411 C3H4N3- 2 82.0411 0.04
  94.0298 C5H4NO- 3 94.0298 -0.54
  94.0411 C4H4N3- 3 94.0411 -0.09
  95.0252 C4H3N2O- 1 95.0251 1.24
  108.0204 C4H2N3O- 2 108.0203 0.16
  113.0205 C6H3F2- 2 113.0208 -3.35
  122.036 C5H4N3O- 3 122.036 -0.14
  136.0516 C6H6N3O- 3 136.0516 0.06
  149.047 C6H5N4O- 1 149.0469 0.83
  149.058 C5H5N6- 3 149.0581 -0.83
  164.0578 C6H6N5O- 1 164.0578 -0.19
  191.0687 C7H7N6O- 2 191.0687 -0.12
  222.0483 C10H6F2N3O- 3 222.0484 -0.81
PK$NUM_PEAK: 16
PK$PEAK: m/z int. rel.int.
  65.9983 2569.4 1
  67.0303 2321.6 1
  68.0254 894366.4 393
  82.0411 4472.3 1
  94.0298 15064.2 6
  94.0411 63669.1 28
  95.0252 4715.4 2
  108.0204 108486.1 47
  113.0205 3946 1
  122.036 149080.3 65
  136.0516 5584.1 2
  149.047 6094.8 2
  149.058 28995.6 12
  164.0578 13724.5 6
  191.0687 2270025.2 999
  222.0483 31952.8 14
//
