ACCESSION: MSBNK-LCSB-LU041501
RECORD_TITLE: CI-1029; LC-ESI-QFT; MS2; CE: 15; R=17500; [M+H]+
DATE: 2020.08.19
AUTHORS: Elapavalore, A.; Kondić, T.; Singh, R.; Schymanski, E.
LICENSE: CC BY
COPYRIGHT: Copyright © 2019 by Environmental Cheminformatics, LCSB, University of Luxembourg, Luxembourg
PUBLICATION: Elapavalore, A.; Kondić, T.; et al., Adding Open Spectral Data to MassBank and PubChem Using Open Source Tools to Support Non-Targeted Exposomics of Mixtures (submitted).
PROJECT: ENTACT U.S. Environmental Protection Agency’s Non-Targeted Analysis Collaborative Trial
COMMENT: CONFIDENCE standard compound
COMMENT: INTERNAL_ID 415
COMMENT: DATASET 20200303_ENTACT_RP_MIX505
COMMENT: DATA_PROCESSING MERGING RMBmix ver. 0.2.7
COMMENT: DATA_PROCESSING PRESCREENING Shinyscreen ver. 0.8.0
COMMENT: ORIGINAL_ACQUISITION_NO 8267
COMMENT: ORIGINAL_PRECURSOR_SCAN_NO 8265
COMMENT: RAW_DATA available as MSV000091754 at [DOI:10.25345/C5S46HG75]
CH$NAME: CI-1029
CH$NAME: (2S)-2-[2-(4-aminophenyl)ethyl]-5-[2-tert-butyl-4-(hydroxymethyl)-5-methylphenyl]sulfanyl-4-hydroxy-2-propan-2-yl-3H-pyran-6-one
CH$COMPOUND_CLASS: N/A; Environmental Standard
CH$FORMULA: C28H37NO4S
CH$EXACT_MASS: 483.2443
CH$SMILES: CC(C)[C@]1(CCC2=CC=C(N)C=C2)CC(O)=C(SC2=CC(C)=C(CO)C=C2C(C)(C)C)C(=O)O1
CH$IUPAC: InChI=1S/C28H37NO4S/c1-17(2)28(12-11-19-7-9-21(29)10-8-19)15-23(31)25(26(32)33-28)34-24-13-18(3)20(16-30)14-22(24)27(4,5)6/h7-10,13-14,17,30-31H,11-12,15-16,29H2,1-6H3/t28-/m0/s1
CH$LINK: CAS 207736-05-8
CH$LINK: PUBCHEM CID:54687772
CH$LINK: INCHIKEY ZUBPKHVCBGWWGO-NDEPHWFRSA-N
CH$LINK: CHEMSPIDER 18993509
AC$INSTRUMENT: Q Exactive Orbitrap (Thermo Scientific)
AC$INSTRUMENT_TYPE: LC-ESI-QFT
AC$MASS_SPECTROMETRY: MS_TYPE MS2
AC$MASS_SPECTROMETRY: ION_MODE POSITIVE
AC$MASS_SPECTROMETRY: IONIZATION ESI
AC$MASS_SPECTROMETRY: FRAGMENTATION_MODE HCD
AC$MASS_SPECTROMETRY: COLLISION_ENERGY 15
AC$MASS_SPECTROMETRY: RESOLUTION 17500
AC$CHROMATOGRAPHY: COLUMN_NAME Acquity BEH C18 1.7um, 2.1x150mm (Waters)
AC$CHROMATOGRAPHY: FLOW_GRADIENT 90/10 at 0-2 min, 0/100 at 15-20 min, 90/10 at 20.1-30 min
AC$CHROMATOGRAPHY: FLOW_RATE 0.20 mL/min
AC$CHROMATOGRAPHY: RETENTION_TIME 15.723 min
AC$CHROMATOGRAPHY: SOLVENT A 0.1% formic acid
AC$CHROMATOGRAPHY: SOLVENT B methanol
MS$FOCUSED_ION: BASE_PEAK 79.0211
MS$FOCUSED_ION: PRECURSOR_M/Z 484.2516
MS$FOCUSED_ION: PRECURSOR_TYPE [M+H]+
MS$FOCUSED_ION: PRECURSOR_INTENSITY 2850605.375
MS$DATA_PROCESSING: RECALIBRATE loess on assigned fragments and MS1
MS$DATA_PROCESSING: REANALYZE Peaks with additional N2/O included
MS$DATA_PROCESSING: WHOLE RMassBank 2.99.2
PK$SPLASH: splash10-052g-0409600000-453da1ce9177c29eb471
PK$ANNOTATION: m/z tentative_formula formula_count mass error(ppm)
  106.0652 C7H8N+ 2 106.0651 0.82
  392.1679 C24H26NO2S+ 2 392.1679 0.04
  448.2306 C28H34NO2S+ 1 448.2305 0.23
PK$NUM_PEAK: 3
PK$PEAK: m/z int. rel.int.
  106.0652 16184.5 525
  392.1679 30793.1 999
  448.2306 20916.4 678
//
