ACCESSION: MSBNK-LCSB-LU038804
RECORD_TITLE: N-(4-Methoxyphenyl)-3-oxobutanamide; LC-ESI-QFT; MS2; CE: 60; R=17500; [M+H]+
DATE: 2020.08.19
AUTHORS: Elapavalore, A.; Kondić, T.; Singh, R.; Schymanski, E.
LICENSE: CC BY
COPYRIGHT: Copyright © 2019 by Environmental Cheminformatics, LCSB, University of Luxembourg, Luxembourg
PUBLICATION: Elapavalore, A.; Kondić, T.; et al., Adding Open Spectral Data to MassBank and PubChem Using Open Source Tools to Support Non-Targeted Exposomics of Mixtures (submitted).
PROJECT: ENTACT U.S. Environmental Protection Agency’s Non-Targeted Analysis Collaborative Trial
COMMENT: CONFIDENCE standard compound
COMMENT: INTERNAL_ID 388
COMMENT: DATASET 20200303_ENTACT_RP_MIX505
COMMENT: DATA_PROCESSING MERGING RMBmix ver. 0.2.7
COMMENT: DATA_PROCESSING PRESCREENING Shinyscreen ver. 0.8.0
COMMENT: ORIGINAL_ACQUISITION_NO 6763
COMMENT: ORIGINAL_PRECURSOR_SCAN_NO 6758
COMMENT: RAW_DATA available as MSV000091754 at [DOI:10.25345/C5S46HG75]
CH$NAME: N-(4-Methoxyphenyl)-3-oxobutanamide
CH$NAME: 4'-Methoxyacetoacetanilide
CH$COMPOUND_CLASS: N/A; Environmental Standard
CH$FORMULA: C11H13NO3
CH$EXACT_MASS: 207.0895
CH$SMILES: COC1=CC=C(NC(=O)CC(C)=O)C=C1
CH$IUPAC: InChI=1S/C11H13NO3/c1-8(13)7-11(14)12-9-3-5-10(15-2)6-4-9/h3-6H,7H2,1-2H3,(H,12,14)
CH$LINK: CAS 5437-98-9
CH$LINK: PUBCHEM CID:21576
CH$LINK: INCHIKEY SWAJJKROCOJICG-UHFFFAOYSA-N
CH$LINK: CHEMSPIDER 20278
AC$INSTRUMENT: Q Exactive Orbitrap (Thermo Scientific)
AC$INSTRUMENT_TYPE: LC-ESI-QFT
AC$MASS_SPECTROMETRY: MS_TYPE MS2
AC$MASS_SPECTROMETRY: ION_MODE POSITIVE
AC$MASS_SPECTROMETRY: IONIZATION ESI
AC$MASS_SPECTROMETRY: FRAGMENTATION_MODE HCD
AC$MASS_SPECTROMETRY: COLLISION_ENERGY 60
AC$MASS_SPECTROMETRY: RESOLUTION 17500
AC$CHROMATOGRAPHY: COLUMN_NAME Acquity BEH C18 1.7um, 2.1x150mm (Waters)
AC$CHROMATOGRAPHY: FLOW_GRADIENT 90/10 at 0-2 min, 0/100 at 15-20 min, 90/10 at 20.1-30 min
AC$CHROMATOGRAPHY: FLOW_RATE 0.20 mL/min
AC$CHROMATOGRAPHY: RETENTION_TIME 12.857 min
AC$CHROMATOGRAPHY: SOLVENT A 0.1% formic acid
AC$CHROMATOGRAPHY: SOLVENT B methanol
MS$FOCUSED_ION: BASE_PEAK 79.0211
MS$FOCUSED_ION: PRECURSOR_M/Z 208.0968
MS$FOCUSED_ION: PRECURSOR_TYPE [M+H]+
MS$FOCUSED_ION: PRECURSOR_INTENSITY 1989522.375
MS$DATA_PROCESSING: RECALIBRATE loess on assigned fragments and MS1
MS$DATA_PROCESSING: REANALYZE Peaks with additional N2/O included
MS$DATA_PROCESSING: WHOLE RMassBank 2.99.2
PK$SPLASH: splash10-00di-3900000000-1d70f408045f5f28f50c
PK$ANNOTATION: m/z tentative_formula formula_count mass error(ppm)
  59.0492 C3H7O+ 1 59.0491 0.45
  65.0385 C5H5+ 1 65.0386 -0.65
  81.0574 C5H7N+ 1 81.0573 1.29
  85.0285 C4H5O2+ 1 85.0284 0.7
  92.0495 C6H6N+ 1 92.0495 0.46
  93.0574 C6H7N+ 1 93.0573 0.81
  94.0652 C6H8N+ 1 94.0651 0.33
  95.0492 C6H7O+ 1 95.0491 0.58
  108.044 C6H6NO+ 1 108.0444 -3.55
  109.0523 C6H7NO+ 1 109.0522 0.85
  110.0601 C6H8NO+ 1 110.06 0.74
  121.0649 C8H9O+ 1 121.0648 0.94
  122.0601 C7H8NO+ 1 122.06 0.68
  123.0678 C7H9NO+ 1 123.0679 -0.35
  124.0758 C7H10NO+ 1 124.0757 0.79
  125.0599 C7H9O2+ 1 125.0597 1.72
  148.0758 C9H10NO+ 1 148.0757 0.8
  150.055 C8H8NO2+ 1 150.055 0.27
PK$NUM_PEAK: 18
PK$PEAK: m/z int. rel.int.
  59.0492 70755.6 115
  65.0385 2598.4 4
  81.0574 6340.6 10
  85.0285 92523.4 151
  92.0495 85244.4 139
  93.0574 108730.3 177
  94.0652 6144.6 10
  95.0492 12908.8 21
  108.044 2211.9 3
  109.0523 52942.7 86
  110.0601 6160.4 10
  121.0649 19203.2 31
  122.0601 206320 337
  123.0678 10074.3 16
  124.0758 610338.4 999
  125.0599 2514.8 4
  148.0758 34853.7 57
  150.055 30177.4 49
//
