ACCESSION: MSBNK-LCSB-LU035651
RECORD_TITLE: Ethirimol; LC-ESI-QFT; MS2; CE: 15; R=17500; [M-H]-
DATE: 2020.08.19
AUTHORS: Elapavalore, A.; Kondić, T.; Singh, R.; Schymanski, E.
LICENSE: CC BY
COPYRIGHT: Copyright © 2019 by Environmental Cheminformatics, LCSB, University of Luxembourg, Luxembourg
PUBLICATION: Elapavalore, A.; Kondić, T.; et al., Adding Open Spectral Data to MassBank and PubChem Using Open Source Tools to Support Non-Targeted Exposomics of Mixtures (submitted).
PROJECT: ENTACT U.S. Environmental Protection Agency’s Non-Targeted Analysis Collaborative Trial
COMMENT: CONFIDENCE standard compound
COMMENT: INTERNAL_ID 356
COMMENT: DATASET 20200303_ENTACT_RP_MIX505
COMMENT: DATA_PROCESSING MERGING RMBmix ver. 0.2.7
COMMENT: DATA_PROCESSING PRESCREENING Shinyscreen ver. 0.8.0
COMMENT: ORIGINAL_ACQUISITION_NO 3299
COMMENT: ORIGINAL_PRECURSOR_SCAN_NO 3298
COMMENT: RAW_DATA available as MSV000091754 at [DOI:10.25345/C5S46HG75]
CH$NAME: Ethirimol
CH$NAME: 5-butyl-2-(ethylamino)-6-methyl-1H-pyrimidin-4-one
CH$COMPOUND_CLASS: N/A; Environmental Standard
CH$FORMULA: C11H19N3O
CH$EXACT_MASS: 209.1528
CH$SMILES: CCCCC1=C(O)N=C(NCC)N=C1C
CH$IUPAC: InChI=1S/C11H19N3O/c1-4-6-7-9-8(3)13-11(12-5-2)14-10(9)15/h4-7H2,1-3H3,(H2,12,13,14,15)
CH$LINK: CAS 23947-60-6
CH$LINK: CHEBI CHEBI:81989
CH$LINK: CHEMSPIDER 29820
CH$LINK: INCHIKEY BBXXLROWFHWFQY-UHFFFAOYSA-N
CH$LINK: KEGG C18828
CH$LINK: PUBCHEM CID:135424354
AC$INSTRUMENT: Q Exactive Orbitrap (Thermo Scientific)
AC$INSTRUMENT_TYPE: LC-ESI-QFT
AC$MASS_SPECTROMETRY: MS_TYPE MS2
AC$MASS_SPECTROMETRY: ION_MODE NEGATIVE
AC$MASS_SPECTROMETRY: IONIZATION ESI
AC$MASS_SPECTROMETRY: FRAGMENTATION_MODE HCD
AC$MASS_SPECTROMETRY: COLLISION_ENERGY 15
AC$MASS_SPECTROMETRY: RESOLUTION 17500
AC$CHROMATOGRAPHY: COLUMN_NAME Acquity BEH C18 1.7um, 2.1x150mm (Waters)
AC$CHROMATOGRAPHY: FLOW_GRADIENT 90/10 at 0-2 min, 0/100 at 15-20 min, 90/10 at 20.1-30 min
AC$CHROMATOGRAPHY: FLOW_RATE 0.20 mL/min
AC$CHROMATOGRAPHY: RETENTION_TIME 13.213 min
AC$CHROMATOGRAPHY: SOLVENT A 0.1% formic acid
AC$CHROMATOGRAPHY: SOLVENT B methanol
MS$FOCUSED_ION: BASE_PEAK 118.0298
MS$FOCUSED_ION: PRECURSOR_M/Z 208.1455
MS$FOCUSED_ION: PRECURSOR_TYPE [M-H]-
MS$FOCUSED_ION: PRECURSOR_INTENSITY 11794674.20312
MS$DATA_PROCESSING: RECALIBRATE loess on assigned fragments and MS1
MS$DATA_PROCESSING: REANALYZE Peaks with additional N2/O included
MS$DATA_PROCESSING: WHOLE RMassBank 2.99.2
PK$SPLASH: splash10-0a4i-1090000000-d854525e2161d8ee74e7
PK$ANNOTATION: m/z tentative_formula formula_count mass error(ppm)
  69.0458 C3H5N2- 1 69.0458 0.38
  165.0908 C8H11N3O- 1 165.0908 0.45
  180.1143 C9H14N3O- 1 180.1142 0.58
  206.1302 C11H16N3O- 1 206.1299 1.31
  208.1455 C11H18N3O- 1 208.1455 -0.15
PK$NUM_PEAK: 5
PK$PEAK: m/z int. rel.int.
  69.0458 758513.8 121
  165.0908 15072.1 2
  180.1143 631992.6 101
  206.1302 12296 1
  208.1455 6233099.5 999
//
