ACCESSION: MSBNK-LCSB-LU050856
RECORD_TITLE: Farglitazar; LC-ESI-QFT; MS2; CE: 90; R=17500; [M-H]-
DATE: 2020.08.19
AUTHORS: Elapavalore, A.; Kondić, T.; Singh, R.; Schymanski, E.
LICENSE: CC BY
COPYRIGHT: Copyright © 2019 by Environmental Cheminformatics, LCSB, University of Luxembourg, Luxembourg
PUBLICATION: Elapavalore, A.; Kondić, T.; et al., Adding Open Spectral Data to MassBank and PubChem Using Open Source Tools to Support Non-Targeted Exposomics of Mixtures (submitted).
PROJECT: ENTACT U.S. Environmental Protection Agency’s Non-Targeted Analysis Collaborative Trial
COMMENT: CONFIDENCE standard compound
COMMENT: INTERNAL_ID 508
COMMENT: DATASET 20200303_ENTACT_RP_MIX506
COMMENT: DATA_PROCESSING MERGING RMBmix ver. 0.2.7
COMMENT: DATA_PROCESSING PRESCREENING Shinyscreen ver. 0.8.0
COMMENT: ORIGINAL_ACQUISITION_NO 5746
COMMENT: ORIGINAL_PRECURSOR_SCAN_NO 5743
COMMENT: RAW_DATA available as MSV000091754 at [DOI:10.25345/C5S46HG75]
CH$NAME: Farglitazar
CH$NAME: (2S)-2-(2-benzoylanilino)-3-[4-[2-(5-methyl-2-phenyl-1,3-oxazol-4-yl)ethoxy]phenyl]propanoic acid
CH$COMPOUND_CLASS: N/A; Environmental Standard
CH$FORMULA: C34H30N2O5
CH$EXACT_MASS: 546.2155
CH$SMILES: CC1=C(CCOC2=CC=C(C[C@H](NC3=C(C=CC=C3)C(=O)C3=CC=CC=C3)C(O)=O)C=C2)N=C(O1)C1=CC=CC=C1
CH$IUPAC: InChI=1S/C34H30N2O5/c1-23-29(36-33(41-23)26-12-6-3-7-13-26)20-21-40-27-18-16-24(17-19-27)22-31(34(38)39)35-30-15-9-8-14-28(30)32(37)25-10-4-2-5-11-25/h2-19,31,35H,20-22H2,1H3,(H,38,39)/t31-/m0/s1
CH$LINK: CAS 196808-45-4
CH$LINK: KEGG D04132
CH$LINK: PUBCHEM CID:170364
CH$LINK: INCHIKEY ZZCHHVUQYRMYLW-HKBQPEDESA-N
CH$LINK: CHEMSPIDER 148961
AC$INSTRUMENT: Q Exactive Orbitrap (Thermo Scientific)
AC$INSTRUMENT_TYPE: LC-ESI-QFT
AC$MASS_SPECTROMETRY: MS_TYPE MS2
AC$MASS_SPECTROMETRY: ION_MODE NEGATIVE
AC$MASS_SPECTROMETRY: IONIZATION ESI
AC$MASS_SPECTROMETRY: FRAGMENTATION_MODE HCD
AC$MASS_SPECTROMETRY: COLLISION_ENERGY 90
AC$MASS_SPECTROMETRY: RESOLUTION 17500
AC$CHROMATOGRAPHY: COLUMN_NAME Acquity BEH C18 1.7um, 2.1x150mm (Waters)
AC$CHROMATOGRAPHY: FLOW_GRADIENT 90/10 at 0-2 min, 0/100 at 15-20 min, 90/10 at 20.1-30 min
AC$CHROMATOGRAPHY: FLOW_RATE 0.20 mL/min
AC$CHROMATOGRAPHY: RETENTION_TIME 20.138 min
AC$CHROMATOGRAPHY: SOLVENT A 0.1% formic acid
AC$CHROMATOGRAPHY: SOLVENT B methanol
MS$FOCUSED_ION: BASE_PEAK 112.9856
MS$FOCUSED_ION: PRECURSOR_M/Z 545.2082
MS$FOCUSED_ION: PRECURSOR_TYPE [M-H]-
MS$FOCUSED_ION: PRECURSOR_INTENSITY 5322340.363281
MS$DATA_PROCESSING: RECALIBRATE loess on assigned fragments and MS1
MS$DATA_PROCESSING: REANALYZE Peaks with additional N2/O included
MS$DATA_PROCESSING: WHOLE RMassBank 2.99.2
PK$SPLASH: splash10-0006-3900000000-21a30263df7df554dd3f
PK$ANNOTATION: m/z tentative_formula formula_count mass error(ppm)
  92.0506 C6H6N- 1 92.0506 -0.05
  93.0346 C6H5O- 1 93.0346 0.28
  95.0502 C6H7O- 1 95.0502 -0.5
  102.0348 C7H4N- 1 102.0349 -1.34
  106.0424 C7H6O- 1 106.0424 0.25
  107.0503 C7H7O- 1 107.0502 0.13
  108.0217 C6H4O2- 1 108.0217 0.24
  117.0347 C8H5O- 1 117.0346 0.65
  118.0298 C7H4NO- 1 118.0298 -0.08
  119.0502 C8H7O- 1 119.0502 0
  123.0453 C7H7O2- 1 123.0452 1.44
  131.0376 C8H5NO- 1 131.0377 -0.7
  132.0458 C8H6NO- 1 132.0455 2.69
  138.0324 C7H6O3- 1 138.0322 1.05
  144.0455 C9H6NO- 1 144.0455 0.38
  166.0663 C12H8N- 1 166.0662 0.17
  190.0663 C14H8N- 2 190.0662 0.62
  192.0817 C14H10N- 2 192.0819 -0.71
  193.0659 C14H9O- 1 193.0659 0.05
  194.0612 C13H8NO- 2 194.0611 0.4
  195.0814 C14H11O- 1 195.0815 -0.78
  207.0693 C14H9NO- 2 207.069 1.58
  208.0767 C14H10NO- 2 208.0768 -0.47
  210.0554 C13H8NO2- 2 210.0561 -2.94
  220.0774 C15H10NO- 2 220.0768 2.74
  221.0607 C15H9O2- 1 221.0608 -0.55
  236.0711 C15H10NO2- 2 236.0717 -2.57
  296.1095 C21H14NO- 2 296.1081 4.8
PK$NUM_PEAK: 28
PK$PEAK: m/z int. rel.int.
  92.0506 42551 338
  93.0346 125475.8 999
  95.0502 2849.1 22
  102.0348 3588.7 28
  106.0424 8695.1 69
  107.0503 119046.5 947
  108.0217 4213 33
  117.0347 11892 94
  118.0298 2343.4 18
  119.0502 92072.8 733
  123.0453 9571.7 76
  131.0376 13549.4 107
  132.0458 2395 19
  138.0324 4448.4 35
  144.0455 54882 436
  166.0663 7934.5 63
  190.0663 6639.1 52
  192.0817 18879.7 150
  193.0659 3285.5 26
  194.0612 24537.8 195
  195.0814 3285.6 26
  207.0693 4187.3 33
  208.0767 4334.3 34
  210.0554 2391.3 19
  220.0774 5000.5 39
  221.0607 4624.4 36
  236.0711 3173.2 25
  296.1095 2247.1 17
//
