ACCESSION: MSBNK-LCSB-LU077004
RECORD_TITLE: 3-Hydroxy-4-butyrophenetidide; LC-ESI-QFT; MS2; CE: 60; R=17500; [M+H]+
DATE: 2020.08.19
AUTHORS: Elapavalore, A.; Kondić, T.; Singh, R.; Schymanski, E.
LICENSE: CC BY
COPYRIGHT: Copyright © 2019 by Environmental Cheminformatics, LCSB, University of Luxembourg, Luxembourg
PUBLICATION: Elapavalore, A.; Kondić, T.; et al., Adding Open Spectral Data to MassBank and PubChem Using Open Source Tools to Support Non-Targeted Exposomics of Mixtures (submitted).
PROJECT: ENTACT U.S. Environmental Protection Agency’s Non-Targeted Analysis Collaborative Trial
COMMENT: CONFIDENCE standard compound
COMMENT: INTERNAL_ID 770
COMMENT: DATASET 20200303_ENTACT_RP_MIX507
COMMENT: DATA_PROCESSING MERGING RMBmix ver. 0.2.7
COMMENT: DATA_PROCESSING PRESCREENING Shinyscreen ver. 0.8.0
COMMENT: ORIGINAL_ACQUISITION_NO 7505
COMMENT: ORIGINAL_PRECURSOR_SCAN_NO 7504
COMMENT: RAW_DATA available as MSV000091754 at [DOI:10.25345/C5S46HG75]
CH$NAME: 3-Hydroxy-4-butyrophenetidide
CH$NAME: Bucetin
CH$NAME: N-(4-ethoxyphenyl)-3-hydroxybutanamide
CH$COMPOUND_CLASS: N/A; Environmental Standard
CH$FORMULA: C12H17NO3
CH$EXACT_MASS: 223.1208
CH$SMILES: CCOC1=CC=C(NC(=O)CC(C)O)C=C1
CH$IUPAC: InChI=1S/C12H17NO3/c1-3-16-11-6-4-10(5-7-11)13-12(15)8-9(2)14/h4-7,9,14H,3,8H2,1-2H3,(H,13,15)
CH$LINK: CAS 1083-57-4
CH$LINK: CHEBI CHEBI:31311
CH$LINK: KEGG D01116
CH$LINK: PUBCHEM CID:14130
CH$LINK: INCHIKEY LIAWQASKBFCRNR-UHFFFAOYSA-N
CH$LINK: CHEMSPIDER 13507
AC$INSTRUMENT: Q Exactive Orbitrap (Thermo Scientific)
AC$INSTRUMENT_TYPE: LC-ESI-QFT
AC$MASS_SPECTROMETRY: MS_TYPE MS2
AC$MASS_SPECTROMETRY: ION_MODE POSITIVE
AC$MASS_SPECTROMETRY: IONIZATION ESI
AC$MASS_SPECTROMETRY: FRAGMENTATION_MODE HCD
AC$MASS_SPECTROMETRY: COLLISION_ENERGY 60
AC$MASS_SPECTROMETRY: RESOLUTION 17500
AC$CHROMATOGRAPHY: COLUMN_NAME Acquity BEH C18 1.7um, 2.1x150mm (Waters)
AC$CHROMATOGRAPHY: FLOW_GRADIENT 90/10 at 0-2 min, 0/100 at 15-20 min, 90/10 at 20.1-30 min
AC$CHROMATOGRAPHY: FLOW_RATE 0.20 mL/min
AC$CHROMATOGRAPHY: RETENTION_TIME 14.372 min
AC$CHROMATOGRAPHY: SOLVENT A 0.1% formic acid
AC$CHROMATOGRAPHY: SOLVENT B methanol
MS$FOCUSED_ION: BASE_PEAK 79.0211
MS$FOCUSED_ION: PRECURSOR_M/Z 224.1281
MS$FOCUSED_ION: PRECURSOR_TYPE [M+H]+
MS$FOCUSED_ION: PRECURSOR_INTENSITY 11811334.5625
MS$DATA_PROCESSING: RECALIBRATE loess on assigned fragments and MS1
MS$DATA_PROCESSING: REANALYZE Peaks with additional N2/O included
MS$DATA_PROCESSING: WHOLE RMassBank 2.99.2
PK$SPLASH: splash10-0a4r-0900000000-965b7447b727ddce1f9e
PK$ANNOTATION: m/z tentative_formula formula_count mass error(ppm)
  65.0384 C5H5+ 1 65.0386 -2.31
  69.0335 C4H5O+ 1 69.0335 -0.42
  79.0544 C6H7+ 1 79.0542 1.57
  80.0495 C5H6N+ 1 80.0495 0.34
  81.0335 C5H5O+ 1 81.0335 -0.26
  82.0651 C5H8N+ 1 82.0651 -0.03
  87.0441 C4H7O2+ 1 87.0441 -0.03
  91.0543 C7H7+ 1 91.0542 0.39
  92.0494 C6H6N+ 1 92.0495 -0.82
  93.0333 C6H5O+ 1 93.0335 -2.29
  93.0575 C6H7N+ 1 93.0573 1.66
  106.0654 C7H8N+ 1 106.0651 2.58
  107.049 C7H7O+ 1 107.0491 -1.28
  108.0443 C6H6NO+ 1 108.0444 -0.42
  109.0522 C6H7NO+ 1 109.0522 -0.31
  110.06 C6H8NO+ 1 110.06 -0.34
  111.0441 C6H7O2+ 1 111.0441 0.23
  136.0757 C8H10NO+ 1 136.0757 0.15
  138.0913 C8H12NO+ 1 138.0913 -0.03
  150.0912 C9H12NO+ 1 150.0913 -0.71
  160.0757 C10H10NO+ 1 160.0757 0.05
  164.0704 C9H10NO2+ 1 164.0706 -1.03
  164.107 C10H14NO+ 1 164.107 -0.06
  178.0862 C10H12NO2+ 1 178.0863 -0.58
  178.1226 C11H16NO+ 1 178.1226 -0.37
  206.1177 C12H16NO2+ 1 206.1176 0.65
PK$NUM_PEAK: 26
PK$PEAK: m/z int. rel.int.
  65.0384 10563.1 2
  69.0335 73760 15
  79.0544 4768.3 1
  80.0495 9430.9 1
  81.0335 59664.8 12
  82.0651 6223.7 1
  87.0441 8543.5 1
  91.0543 9960.8 2
  92.0494 17594.8 3
  93.0333 11030.2 2
  93.0575 9545.3 2
  106.0654 6179.1 1
  107.049 14821.9 3
  108.0443 4753188.5 999
  109.0522 47920.2 10
  110.06 288847.9 60
  111.0441 23071 4
  136.0757 2380956 500
  138.0913 449247.4 94
  150.0912 10422.3 2
  160.0757 5484.3 1
  164.0704 24669.3 5
  164.107 43021.6 9
  178.0862 7573.9 1
  178.1226 5634.6 1
  206.1177 7936.2 1
//
