ACCESSION: MSBNK-LCSB-LU059001
RECORD_TITLE: Diclosulam; LC-ESI-QFT; MS2; CE: 15; R=17500; [M+H]+
DATE: 2020.08.19
AUTHORS: Elapavalore, A.; Kondić, T.; Singh, R.; Schymanski, E.
LICENSE: CC BY
COPYRIGHT: Copyright © 2019 by Environmental Cheminformatics, LCSB, University of Luxembourg, Luxembourg
PUBLICATION: Elapavalore, A.; Kondić, T.; et al., Adding Open Spectral Data to MassBank and PubChem Using Open Source Tools to Support Non-Targeted Exposomics of Mixtures (submitted).
PROJECT: ENTACT U.S. Environmental Protection Agency’s Non-Targeted Analysis Collaborative Trial
COMMENT: CONFIDENCE standard compound
COMMENT: INTERNAL_ID 590
COMMENT: DATASET 20200303_ENTACT_RP_MIX506
COMMENT: DATA_PROCESSING MERGING RMBmix ver. 0.2.7
COMMENT: DATA_PROCESSING PRESCREENING Shinyscreen ver. 0.8.0
COMMENT: ORIGINAL_ACQUISITION_NO 8267
COMMENT: ORIGINAL_PRECURSOR_SCAN_NO 8264
COMMENT: RAW_DATA available as MSV000091754 at [DOI:10.25345/C5S46HG75]
CH$NAME: Diclosulam
CH$NAME: N-(2,6-dichlorophenyl)-5-ethoxy-7-fluoro-[1,2,4]triazolo[1,5-c]pyrimidine-2-sulfonamide
CH$COMPOUND_CLASS: N/A; Environmental Standard
CH$FORMULA: C13H10Cl2FN5O3S
CH$EXACT_MASS: 404.9865
CH$SMILES: CCOC1=NC(F)=CC2=NC(=NN12)S(=O)(=O)NC1=C(Cl)C=CC=C1Cl
CH$IUPAC: InChI=1S/C13H10Cl2FN5O3S/c1-2-24-13-17-9(16)6-10-18-12(19-21(10)13)25(22,23)20-11-7(14)4-3-5-8(11)15/h3-6,20H,2H2,1H3
CH$LINK: CAS 145701-21-9
CH$LINK: CHEBI CHEBI:81984
CH$LINK: KEGG C18821
CH$LINK: PUBCHEM CID:3081304
CH$LINK: INCHIKEY QNXAVFXEJCPCJO-UHFFFAOYSA-N
CH$LINK: CHEMSPIDER 2338933
AC$INSTRUMENT: Q Exactive Orbitrap (Thermo Scientific)
AC$INSTRUMENT_TYPE: LC-ESI-QFT
AC$MASS_SPECTROMETRY: MS_TYPE MS2
AC$MASS_SPECTROMETRY: ION_MODE POSITIVE
AC$MASS_SPECTROMETRY: IONIZATION ESI
AC$MASS_SPECTROMETRY: FRAGMENTATION_MODE HCD
AC$MASS_SPECTROMETRY: COLLISION_ENERGY 15
AC$MASS_SPECTROMETRY: RESOLUTION 17500
AC$CHROMATOGRAPHY: COLUMN_NAME Acquity BEH C18 1.7um, 2.1x150mm (Waters)
AC$CHROMATOGRAPHY: FLOW_GRADIENT 90/10 at 0-2 min, 0/100 at 15-20 min, 90/10 at 20.1-30 min
AC$CHROMATOGRAPHY: FLOW_RATE 0.20 mL/min
AC$CHROMATOGRAPHY: RETENTION_TIME 15.765 min
AC$CHROMATOGRAPHY: SOLVENT A 0.1% formic acid
AC$CHROMATOGRAPHY: SOLVENT B methanol
MS$FOCUSED_ION: BASE_PEAK 79.0211
MS$FOCUSED_ION: PRECURSOR_M/Z 405.9938
MS$FOCUSED_ION: PRECURSOR_TYPE [M+H]+
MS$FOCUSED_ION: PRECURSOR_INTENSITY 2686957
MS$DATA_PROCESSING: RECALIBRATE loess on assigned fragments and MS1
MS$DATA_PROCESSING: REANALYZE Peaks with additional N2/O included
MS$DATA_PROCESSING: WHOLE RMassBank 2.99.2
PK$SPLASH: splash10-0a4i-0303900000-c1dbfa131292751b3428
PK$ANNOTATION: m/z tentative_formula formula_count mass error(ppm)
  160.9793 C6H5Cl2N+ 13 160.9794 -0.04
  176.9743 C6H5Cl2NO+ 13 176.9743 0.09
  223.9336 C6H4Cl2NO2S+ 8 223.9334 0.76
  314.0005 C11H7Cl2FN5O+ 7 314.0006 -0.33
  377.9627 C11H7Cl2FN5O3S+ 1 377.9625 0.53
  405.994 C13H11Cl2FN5O3S+ 1 405.9938 0.53
PK$NUM_PEAK: 6
PK$PEAK: m/z int. rel.int.
  160.9793 1129838.5 361
  176.9743 35874.4 11
  223.9336 20678.5 6
  314.0005 25880 8
  377.9627 1134153 362
  405.994 3125760.8 999
//
