ACCESSION: MSBNK-LCSB-LU104555
RECORD_TITLE: Ethionamide; LC-ESI-QFT; MS2; CE: 75; R=17500; [M-H]-
DATE: 2020.08.19
AUTHORS: Elapavalore, A.; Kondić, T.; Singh, R.; Schymanski, E.
LICENSE: CC BY
COPYRIGHT: Copyright © 2019 by Environmental Cheminformatics, LCSB, University of Luxembourg, Luxembourg
PUBLICATION: Elapavalore, A.; Kondić, T.; et al., Adding Open Spectral Data to MassBank and PubChem Using Open Source Tools to Support Non-Targeted Exposomics of Mixtures (submitted).
PROJECT: ENTACT U.S. Environmental Protection Agency’s Non-Targeted Analysis Collaborative Trial
COMMENT: CONFIDENCE standard compound
COMMENT: INTERNAL_ID 1045
COMMENT: DATASET 20200303_ENTACT_RP_MIX499
COMMENT: DATA_PROCESSING MERGING RMBmix ver. 0.2.7
COMMENT: DATA_PROCESSING PRESCREENING Shinyscreen ver. 0.8.0
COMMENT: ORIGINAL_ACQUISITION_NO 1607
COMMENT: ORIGINAL_PRECURSOR_SCAN_NO 1605
COMMENT: RAW_DATA available as MSV000091754 at [DOI:10.25345/C5S46HG75]
CH$NAME: Ethionamide
CH$NAME: 2-ethylpyridine-4-carboximidothioic acid
CH$COMPOUND_CLASS: N/A; Environmental Standard
CH$FORMULA: C8H10N2S
CH$EXACT_MASS: 166.0565
CH$SMILES: CCC1=NC=CC(=C1)C(N)=S
CH$IUPAC: InChI=1S/C8H10N2S/c1-2-7-5-6(8(9)11)3-4-10-7/h3-5H,2H2,1H3,(H2,9,11)
CH$LINK: CAS 536-33-4
CH$LINK: CHEBI CHEBI:4885
CH$LINK: CHEMSPIDER 2041901
CH$LINK: INCHIKEY AEOCXXJPGCBFJA-UHFFFAOYSA-N
CH$LINK: KEGG C07665
CH$LINK: PUBCHEM CID:2761171
AC$INSTRUMENT: Q Exactive Orbitrap (Thermo Scientific)
AC$INSTRUMENT_TYPE: LC-ESI-QFT
AC$MASS_SPECTROMETRY: MS_TYPE MS2
AC$MASS_SPECTROMETRY: ION_MODE NEGATIVE
AC$MASS_SPECTROMETRY: IONIZATION ESI
AC$MASS_SPECTROMETRY: FRAGMENTATION_MODE HCD
AC$MASS_SPECTROMETRY: COLLISION_ENERGY 75
AC$MASS_SPECTROMETRY: RESOLUTION 17500
AC$CHROMATOGRAPHY: COLUMN_NAME Acquity BEH C18 1.7um, 2.1x150mm (Waters)
AC$CHROMATOGRAPHY: FLOW_GRADIENT 90/10 at 0-2 min, 0/100 at 15-20 min, 90/10 at 20.1-30 min
AC$CHROMATOGRAPHY: FLOW_RATE 0.20 mL/min
AC$CHROMATOGRAPHY: RETENTION_TIME 6.556 min
AC$CHROMATOGRAPHY: SOLVENT A 0.1% formic acid
AC$CHROMATOGRAPHY: SOLVENT B methanol
MS$FOCUSED_ION: BASE_PEAK 75.0087
MS$FOCUSED_ION: PRECURSOR_M/Z 165.0492
MS$FOCUSED_ION: PRECURSOR_TYPE [M-H]-
MS$FOCUSED_ION: PRECURSOR_INTENSITY 955377.0943604
MS$DATA_PROCESSING: RECALIBRATE loess on assigned fragments and MS1
MS$DATA_PROCESSING: REANALYZE Peaks with additional N2/O included
MS$DATA_PROCESSING: WHOLE RMassBank 2.99.2
PK$SPLASH: splash10-0a4i-9000000000-984b83388a36049d540b
PK$ANNOTATION: m/z tentative_formula formula_count mass error(ppm)
  57.9757 CNS- 1 57.9757 -0.31
  106.0662 C7H8N- 1 106.0662 -0.52
  165.0495 C8H9N2S- 1 165.0492 1.79
PK$NUM_PEAK: 3
PK$PEAK: m/z int. rel.int.
  57.9757 214322.6 999
  106.0662 6762.2 31
  165.0495 1920.4 8
//
