ACCESSION: MSBNK-LCSB-LU035705
RECORD_TITLE: Flamprop-isopropyl; LC-ESI-QFT; MS2; CE: 75; R=17500; [M+H]+
DATE: 2020.08.19
AUTHORS: Elapavalore, A.; Kondić, T.; Singh, R.; Schymanski, E.
LICENSE: CC BY
COPYRIGHT: Copyright © 2019 by Environmental Cheminformatics, LCSB, University of Luxembourg, Luxembourg
PUBLICATION: Elapavalore, A.; Kondić, T.; et al., Adding Open Spectral Data to MassBank and PubChem Using Open Source Tools to Support Non-Targeted Exposomics of Mixtures (submitted).
PROJECT: ENTACT U.S. Environmental Protection Agency’s Non-Targeted Analysis Collaborative Trial
COMMENT: CONFIDENCE standard compound
COMMENT: INTERNAL_ID 357
COMMENT: DATASET 20200303_ENTACT_RP_MIX505
COMMENT: DATA_PROCESSING MERGING RMBmix ver. 0.2.7
COMMENT: DATA_PROCESSING PRESCREENING Shinyscreen ver. 0.8.0
COMMENT: ORIGINAL_ACQUISITION_NO 9675
COMMENT: ORIGINAL_PRECURSOR_SCAN_NO 9673
COMMENT: RAW_DATA available as MSV000091754 at [DOI:10.25345/C5S46HG75]
CH$NAME: Flamprop-isopropyl
CH$NAME: propan-2-yl 2-(N-benzoyl-3-chloro-4-fluoroanilino)propanoate
CH$COMPOUND_CLASS: N/A; Environmental Standard
CH$FORMULA: C19H19ClFNO3
CH$EXACT_MASS: 363.1037
CH$SMILES: CC(C)OC(=O)C(C)N(C(=O)C1=CC=CC=C1)C1=CC(Cl)=C(F)C=C1
CH$IUPAC: InChI=1S/C19H19ClFNO3/c1-12(2)25-19(24)13(3)22(15-9-10-17(21)16(20)11-15)18(23)14-7-5-4-6-8-14/h4-13H,1-3H3
CH$LINK: CAS 63782-90-1
CH$LINK: PUBCHEM CID:40520
CH$LINK: INCHIKEY IKVXBIIHQGXQRQ-UHFFFAOYSA-N
CH$LINK: CHEMSPIDER 37022
AC$INSTRUMENT: Q Exactive Orbitrap (Thermo Scientific)
AC$INSTRUMENT_TYPE: LC-ESI-QFT
AC$MASS_SPECTROMETRY: MS_TYPE MS2
AC$MASS_SPECTROMETRY: ION_MODE POSITIVE
AC$MASS_SPECTROMETRY: IONIZATION ESI
AC$MASS_SPECTROMETRY: FRAGMENTATION_MODE HCD
AC$MASS_SPECTROMETRY: COLLISION_ENERGY 75
AC$MASS_SPECTROMETRY: RESOLUTION 17500
AC$CHROMATOGRAPHY: COLUMN_NAME Acquity BEH C18 1.7um, 2.1x150mm (Waters)
AC$CHROMATOGRAPHY: FLOW_GRADIENT 90/10 at 0-2 min, 0/100 at 15-20 min, 90/10 at 20.1-30 min
AC$CHROMATOGRAPHY: FLOW_RATE 0.20 mL/min
AC$CHROMATOGRAPHY: RETENTION_TIME 18.490 min
AC$CHROMATOGRAPHY: SOLVENT A 0.1% formic acid
AC$CHROMATOGRAPHY: SOLVENT B methanol
MS$FOCUSED_ION: BASE_PEAK 79.0211
MS$FOCUSED_ION: PRECURSOR_M/Z 364.111
MS$FOCUSED_ION: PRECURSOR_TYPE [M+H]+
MS$FOCUSED_ION: PRECURSOR_INTENSITY 13578149.25
MS$DATA_PROCESSING: RECALIBRATE loess on assigned fragments and MS1
MS$DATA_PROCESSING: REANALYZE Peaks with additional N2/O included
MS$DATA_PROCESSING: WHOLE RMassBank 2.99.2
PK$SPLASH: splash10-0a4j-9700000000-c7003ef1e2036f94cb20
PK$ANNOTATION: m/z tentative_formula formula_count mass error(ppm)
  50.0152 C4H2+ 1 50.0151 1.19
  51.023 C4H3+ 1 51.0229 0.71
  53.0386 C4H5+ 1 53.0386 1.11
  55.0179 C3H3O+ 2 55.0178 1.23
  77.0386 C6H5+ 2 77.0386 -0.09
  81.0336 C5H5O+ 3 81.0335 0.8
  81.07 C6H9+ 2 81.0699 1.44
  94.0414 C6H6O+ 3 94.0413 0.47
  95.0492 C6H7O+ 3 95.0491 0.58
  105.0336 C7H5O+ 4 105.0335 1.14
  106.0417 C4H9ClN+ 4 106.0418 -0.77
  109.0648 C7H9O+ 4 109.0648 0.34
  136.0559 C8H7FN+ 1 136.0557 1.08
  137.0639 C8H8FN+ 1 137.0635 2.43
  172.0324 C8H8ClFN+ 3 172.0324 -0.05
PK$NUM_PEAK: 15
PK$PEAK: m/z int. rel.int.
  50.0152 13061.2 12
  51.023 26484.3 25
  53.0386 273590.4 266
  55.0179 10932.4 10
  77.0386 73205.5 71
  81.0336 23553 22
  81.07 2845.7 2
  94.0414 27072.7 26
  95.0492 751831.9 731
  105.0336 1026466.8 999
  106.0417 2410.4 2
  109.0648 11348.4 11
  136.0559 4122.1 4
  137.0639 5018.6 4
  172.0324 5597.7 5
//
