ACCESSION: MSBNK-LCSB-LU096404
RECORD_TITLE: Nonivamide; LC-ESI-QFT; MS2; CE: 60; R=17500; [M+H]+
DATE: 2020.08.19
AUTHORS: Elapavalore, A.; Kondić, T.; Singh, R.; Schymanski, E.
LICENSE: CC BY
COPYRIGHT: Copyright © 2019 by Environmental Cheminformatics, LCSB, University of Luxembourg, Luxembourg
PUBLICATION: Elapavalore, A.; Kondić, T.; et al., Adding Open Spectral Data to MassBank and PubChem Using Open Source Tools to Support Non-Targeted Exposomics of Mixtures (submitted).
PROJECT: ENTACT U.S. Environmental Protection Agency’s Non-Targeted Analysis Collaborative Trial
COMMENT: CONFIDENCE standard compound
COMMENT: INTERNAL_ID 964
COMMENT: DATASET 20200303_ENTACT_RP_MIX502
COMMENT: DATA_PROCESSING MERGING RMBmix ver. 0.2.7
COMMENT: DATA_PROCESSING PRESCREENING Shinyscreen ver. 0.8.0
COMMENT: ORIGINAL_ACQUISITION_NO 9279
COMMENT: ORIGINAL_PRECURSOR_SCAN_NO 9277
COMMENT: RAW_DATA available as MSV000091754 at [DOI:10.25345/C5S46HG75]
CH$NAME: Nonivamide
CH$NAME: N-[(4-hydroxy-3-methoxyphenyl)methyl]nonanamide
CH$COMPOUND_CLASS: N/A; Environmental Standard
CH$FORMULA: C17H27NO3
CH$EXACT_MASS: 293.1991
CH$SMILES: CCCCCCCCC(=O)NCC1=CC(OC)=C(O)C=C1
CH$IUPAC: InChI=1S/C17H27NO3/c1-3-4-5-6-7-8-9-17(20)18-13-14-10-11-15(19)16(12-14)21-2/h10-12,19H,3-9,13H2,1-2H3,(H,18,20)
CH$LINK: CAS 630-63-7
CH$LINK: CHEBI CHEBI:46936
CH$LINK: KEGG D08282
CH$LINK: PUBCHEM CID:2998
CH$LINK: INCHIKEY RGOVYLWUIBMPGK-UHFFFAOYSA-N
CH$LINK: CHEMSPIDER 2891
AC$INSTRUMENT: Q Exactive Orbitrap (Thermo Scientific)
AC$INSTRUMENT_TYPE: LC-ESI-QFT
AC$MASS_SPECTROMETRY: MS_TYPE MS2
AC$MASS_SPECTROMETRY: ION_MODE POSITIVE
AC$MASS_SPECTROMETRY: IONIZATION ESI
AC$MASS_SPECTROMETRY: FRAGMENTATION_MODE HCD
AC$MASS_SPECTROMETRY: COLLISION_ENERGY 60
AC$MASS_SPECTROMETRY: RESOLUTION 17500
AC$CHROMATOGRAPHY: COLUMN_NAME Acquity BEH C18 1.7um, 2.1x150mm (Waters)
AC$CHROMATOGRAPHY: FLOW_GRADIENT 90/10 at 0-2 min, 0/100 at 15-20 min, 90/10 at 20.1-30 min
AC$CHROMATOGRAPHY: FLOW_RATE 0.20 mL/min
AC$CHROMATOGRAPHY: RETENTION_TIME 17.928 min
AC$CHROMATOGRAPHY: SOLVENT A 0.1% formic acid
AC$CHROMATOGRAPHY: SOLVENT B methanol
MS$FOCUSED_ION: BASE_PEAK 79.0211
MS$FOCUSED_ION: PRECURSOR_M/Z 294.2064
MS$FOCUSED_ION: PRECURSOR_TYPE [M+H]+
MS$FOCUSED_ION: PRECURSOR_INTENSITY 7211170.125
MS$DATA_PROCESSING: RECALIBRATE loess on assigned fragments and MS1
MS$DATA_PROCESSING: REANALYZE Peaks with additional N2/O included
MS$DATA_PROCESSING: WHOLE RMassBank 2.99.2
PK$SPLASH: splash10-000i-1900000000-416163cdbfcf57a86988
PK$ANNOTATION: m/z tentative_formula formula_count mass error(ppm)
  53.0386 C4H5+ 1 53.0386 1.02
  57.0699 C4H9+ 1 57.0699 0.38
  65.0386 C5H5+ 1 65.0386 -0.24
  66.0463 C5H6+ 1 66.0464 -1.15
  67.0541 C5H7+ 1 67.0542 -1.7
  71.0855 C5H11+ 1 71.0855 -0.36
  79.0542 C6H7+ 1 79.0542 0.09
  81.0699 C6H9+ 1 81.0699 -0.32
  88.0757 C4H10NO+ 1 88.0757 0.61
  91.0543 C7H7+ 1 91.0542 0.37
  94.0414 C6H6O+ 1 94.0413 0.53
  95.0491 C6H7O+ 1 95.0491 -0.26
  102.0914 C5H12NO+ 1 102.0913 0.21
  105.0335 C7H5O+ 1 105.0335 0.27
  107.0493 C7H7O+ 1 107.0491 1.2
  109.0648 C7H9O+ 1 109.0648 0.2
  122.0362 C7H6O2+ 1 122.0362 0.12
  137.0597 C8H9O2+ 1 137.0597 0.24
  158.1541 C9H20NO+ 1 158.1539 0.89
PK$NUM_PEAK: 19
PK$PEAK: m/z int. rel.int.
  53.0386 2429.4 1
  57.0699 28032.5 21
  65.0386 3088.2 2
  66.0463 6961.8 5
  67.0541 3710.9 2
  71.0855 21100.4 16
  79.0542 25655.5 19
  81.0699 30251.1 23
  88.0757 9788.3 7
  91.0543 23168.8 17
  94.0414 62677 47
  95.0491 4788.6 3
  102.0914 3013.3 2
  105.0335 3251.4 2
  107.0493 14440.6 11
  109.0648 26869.4 20
  122.0362 202249.7 154
  137.0597 1307613.2 999
  158.1541 11987.5 9
//
