ACCESSION: MSBNK-LCSB-LU101102
RECORD_TITLE: 3-Methyl-1-phenyl-1H-pyrazol-5-amine; LC-ESI-QFT; MS2; CE: 30; R=17500; [M+H]+
DATE: 2020.08.19
AUTHORS: Elapavalore, A.; Kondić, T.; Singh, R.; Schymanski, E.
LICENSE: CC BY
COPYRIGHT: Copyright © 2019 by Environmental Cheminformatics, LCSB, University of Luxembourg, Luxembourg
PUBLICATION: Elapavalore, A.; Kondić, T.; et al., Adding Open Spectral Data to MassBank and PubChem Using Open Source Tools to Support Non-Targeted Exposomics of Mixtures (submitted).
PROJECT: ENTACT U.S. Environmental Protection Agency’s Non-Targeted Analysis Collaborative Trial
COMMENT: CONFIDENCE standard compound
COMMENT: INTERNAL_ID 1011
COMMENT: DATASET 20200303_ENTACT_RP_MIX502
COMMENT: DATA_PROCESSING MERGING RMBmix ver. 0.2.7
COMMENT: DATA_PROCESSING PRESCREENING Shinyscreen ver. 0.8.0
COMMENT: ORIGINAL_ACQUISITION_NO 5011
COMMENT: ORIGINAL_PRECURSOR_SCAN_NO 5010
COMMENT: RAW_DATA available as MSV000091754 at [DOI:10.25345/C5S46HG75]
CH$NAME: 3-Methyl-1-phenyl-1H-pyrazol-5-amine
CH$NAME: 5-methyl-2-phenylpyrazol-3-amine
CH$COMPOUND_CLASS: N/A; Environmental Standard
CH$FORMULA: C10H11N3
CH$EXACT_MASS: 173.0953
CH$SMILES: CC1=NN(C(N)=C1)C1=CC=CC=C1
CH$IUPAC: InChI=1S/C10H11N3/c1-8-7-10(11)13(12-8)9-5-3-2-4-6-9/h2-7H,11H2,1H3
CH$LINK: CAS 1131-18-6
CH$LINK: PUBCHEM CID:70801
CH$LINK: INCHIKEY FMKMKBLHMONXJM-UHFFFAOYSA-N
CH$LINK: CHEMSPIDER 63966
AC$INSTRUMENT: Q Exactive Orbitrap (Thermo Scientific)
AC$INSTRUMENT_TYPE: LC-ESI-QFT
AC$MASS_SPECTROMETRY: MS_TYPE MS2
AC$MASS_SPECTROMETRY: ION_MODE POSITIVE
AC$MASS_SPECTROMETRY: IONIZATION ESI
AC$MASS_SPECTROMETRY: FRAGMENTATION_MODE HCD
AC$MASS_SPECTROMETRY: COLLISION_ENERGY 30
AC$MASS_SPECTROMETRY: RESOLUTION 17500
AC$CHROMATOGRAPHY: COLUMN_NAME Acquity BEH C18 1.7um, 2.1x150mm (Waters)
AC$CHROMATOGRAPHY: FLOW_GRADIENT 90/10 at 0-2 min, 0/100 at 15-20 min, 90/10 at 20.1-30 min
AC$CHROMATOGRAPHY: FLOW_RATE 0.20 mL/min
AC$CHROMATOGRAPHY: RETENTION_TIME 9.555 min
AC$CHROMATOGRAPHY: SOLVENT A 0.1% formic acid
AC$CHROMATOGRAPHY: SOLVENT B methanol
MS$FOCUSED_ION: BASE_PEAK 79.0211
MS$FOCUSED_ION: PRECURSOR_M/Z 174.1026
MS$FOCUSED_ION: PRECURSOR_TYPE [M+H]+
MS$FOCUSED_ION: PRECURSOR_INTENSITY 3452432
MS$DATA_PROCESSING: RECALIBRATE loess on assigned fragments and MS1
MS$DATA_PROCESSING: REANALYZE Peaks with additional N2/O included
MS$DATA_PROCESSING: WHOLE RMassBank 2.99.2
PK$SPLASH: splash10-00di-0900000000-655df5b1daee065c2980
PK$ANNOTATION: m/z tentative_formula formula_count mass error(ppm)
  92.0494 C6H6N+ 1 92.0495 -1.15
  106.0651 C7H8N+ 1 106.0651 -0.61
  116.0493 C8H6N+ 1 116.0495 -1.39
  130.0651 C9H8N+ 1 130.0651 0.01
  132.0808 C9H10N+ 1 132.0808 -0.07
  133.0759 C8H9N2+ 1 133.076 -0.72
  134.0712 C7H8N3+ 1 134.0713 -0.67
  157.0761 C10H9N2+ 1 157.076 0.34
  174.1025 C10H12N3+ 1 174.1026 -0.46
PK$NUM_PEAK: 9
PK$PEAK: m/z int. rel.int.
  92.0494 4271.9 1
  106.0651 66093.9 23
  116.0493 5676 2
  130.0651 4491.9 1
  132.0808 11627.7 4
  133.0759 102755.3 37
  134.0712 4353.1 1
  157.0761 9629.3 3
  174.1025 2759819.5 999
//
