ACCESSION: MSBNK-LCSB-LU096401
RECORD_TITLE: Nonivamide; LC-ESI-QFT; MS2; CE: 15; R=17500; [M+H]+
DATE: 2020.08.19
AUTHORS: Elapavalore, A.; Kondić, T.; Singh, R.; Schymanski, E.
LICENSE: CC BY
COPYRIGHT: Copyright © 2019 by Environmental Cheminformatics, LCSB, University of Luxembourg, Luxembourg
PUBLICATION: Elapavalore, A.; Kondić, T.; et al., Adding Open Spectral Data to MassBank and PubChem Using Open Source Tools to Support Non-Targeted Exposomics of Mixtures (submitted).
PROJECT: ENTACT U.S. Environmental Protection Agency’s Non-Targeted Analysis Collaborative Trial
COMMENT: CONFIDENCE standard compound
COMMENT: INTERNAL_ID 964
COMMENT: DATASET 20200303_ENTACT_RP_MIX502
COMMENT: DATA_PROCESSING MERGING RMBmix ver. 0.2.7
COMMENT: DATA_PROCESSING PRESCREENING Shinyscreen ver. 0.8.0
COMMENT: ORIGINAL_ACQUISITION_NO 9298
COMMENT: ORIGINAL_PRECURSOR_SCAN_NO 9296
COMMENT: RAW_DATA available as MSV000091754 at [DOI:10.25345/C5S46HG75]
CH$NAME: Nonivamide
CH$NAME: N-[(4-hydroxy-3-methoxyphenyl)methyl]nonanamide
CH$COMPOUND_CLASS: N/A; Environmental Standard
CH$FORMULA: C17H27NO3
CH$EXACT_MASS: 293.1991
CH$SMILES: CCCCCCCCC(=O)NCC1=CC(OC)=C(O)C=C1
CH$IUPAC: InChI=1S/C17H27NO3/c1-3-4-5-6-7-8-9-17(20)18-13-14-10-11-15(19)16(12-14)21-2/h10-12,19H,3-9,13H2,1-2H3,(H,18,20)
CH$LINK: CAS 630-63-7
CH$LINK: CHEBI CHEBI:46936
CH$LINK: KEGG D08282
CH$LINK: PUBCHEM CID:2998
CH$LINK: INCHIKEY RGOVYLWUIBMPGK-UHFFFAOYSA-N
CH$LINK: CHEMSPIDER 2891
AC$INSTRUMENT: Q Exactive Orbitrap (Thermo Scientific)
AC$INSTRUMENT_TYPE: LC-ESI-QFT
AC$MASS_SPECTROMETRY: MS_TYPE MS2
AC$MASS_SPECTROMETRY: ION_MODE POSITIVE
AC$MASS_SPECTROMETRY: IONIZATION ESI
AC$MASS_SPECTROMETRY: FRAGMENTATION_MODE HCD
AC$MASS_SPECTROMETRY: COLLISION_ENERGY 15
AC$MASS_SPECTROMETRY: RESOLUTION 17500
AC$CHROMATOGRAPHY: COLUMN_NAME Acquity BEH C18 1.7um, 2.1x150mm (Waters)
AC$CHROMATOGRAPHY: FLOW_GRADIENT 90/10 at 0-2 min, 0/100 at 15-20 min, 90/10 at 20.1-30 min
AC$CHROMATOGRAPHY: FLOW_RATE 0.20 mL/min
AC$CHROMATOGRAPHY: RETENTION_TIME 17.928 min
AC$CHROMATOGRAPHY: SOLVENT A 0.1% formic acid
AC$CHROMATOGRAPHY: SOLVENT B methanol
MS$FOCUSED_ION: BASE_PEAK 79.0211
MS$FOCUSED_ION: PRECURSOR_M/Z 294.2064
MS$FOCUSED_ION: PRECURSOR_TYPE [M+H]+
MS$FOCUSED_ION: PRECURSOR_INTENSITY 7403099.84375
MS$DATA_PROCESSING: RECALIBRATE loess on assigned fragments and MS1
MS$DATA_PROCESSING: REANALYZE Peaks with additional N2/O included
MS$DATA_PROCESSING: WHOLE RMassBank 2.99.2
PK$SPLASH: splash10-000i-0900000000-e2309af7be186034ed99
PK$ANNOTATION: m/z tentative_formula formula_count mass error(ppm)
  71.0854 C5H11+ 1 71.0855 -2.08
  137.0597 C8H9O2+ 1 137.0597 -0.09
  141.1274 C9H17O+ 1 141.1274 -0.18
  158.154 C9H20NO+ 1 158.1539 0.6
  170.1539 C10H20NO+ 1 170.1539 -0.05
PK$NUM_PEAK: 5
PK$PEAK: m/z int. rel.int.
  71.0854 3194.9 2
  137.0597 1195869.4 999
  141.1274 69623.7 58
  158.154 18021.6 15
  170.1539 47375.8 39
//
