ACCESSION: MSBNK-LCSB-LU069351
RECORD_TITLE: Tolbutamide; LC-ESI-QFT; MS2; CE: 15; R=17500; [M-H]-
DATE: 2020.08.19
AUTHORS: Elapavalore, A.; Kondić, T.; Singh, R.; Schymanski, E.
LICENSE: CC BY
COPYRIGHT: Copyright © 2019 by Environmental Cheminformatics, LCSB, University of Luxembourg, Luxembourg
PUBLICATION: Elapavalore, A.; Kondić, T.; et al., Adding Open Spectral Data to MassBank and PubChem Using Open Source Tools to Support Non-Targeted Exposomics of Mixtures (submitted).
PROJECT: ENTACT U.S. Environmental Protection Agency’s Non-Targeted Analysis Collaborative Trial
COMMENT: CONFIDENCE standard compound
COMMENT: INTERNAL_ID 693
COMMENT: DATASET 20200303_ENTACT_RP_MIX506
COMMENT: DATA_PROCESSING MERGING RMBmix ver. 0.2.7
COMMENT: DATA_PROCESSING PRESCREENING Shinyscreen ver. 0.8.0
COMMENT: ORIGINAL_ACQUISITION_NO 4203
COMMENT: ORIGINAL_PRECURSOR_SCAN_NO 4202
COMMENT: RAW_DATA available as MSV000091754 at [DOI:10.25345/C5S46HG75]
CH$NAME: Tolbutamide
CH$NAME: 1-butyl-3-(4-methylphenyl)sulfonylurea
CH$COMPOUND_CLASS: N/A; Environmental Standard
CH$FORMULA: C12H18N2O3S
CH$EXACT_MASS: 270.1038
CH$SMILES: CCCCNC(=O)NS(=O)(=O)C1=CC=C(C)C=C1
CH$IUPAC: InChI=1S/C12H18N2O3S/c1-3-4-9-13-12(15)14-18(16,17)11-7-5-10(2)6-8-11/h5-8H,3-4,9H2,1-2H3,(H2,13,14,15)
CH$LINK: CAS 64-77-7
CH$LINK: CHEBI CHEBI:27999
CH$LINK: KEGG C07148
CH$LINK: PUBCHEM CID:5505
CH$LINK: INCHIKEY JLRGJRBPOGGCBT-UHFFFAOYSA-N
CH$LINK: CHEMSPIDER 5304
AC$INSTRUMENT: Q Exactive Orbitrap (Thermo Scientific)
AC$INSTRUMENT_TYPE: LC-ESI-QFT
AC$MASS_SPECTROMETRY: MS_TYPE MS2
AC$MASS_SPECTROMETRY: ION_MODE NEGATIVE
AC$MASS_SPECTROMETRY: IONIZATION ESI
AC$MASS_SPECTROMETRY: FRAGMENTATION_MODE HCD
AC$MASS_SPECTROMETRY: COLLISION_ENERGY 15
AC$MASS_SPECTROMETRY: RESOLUTION 17500
AC$CHROMATOGRAPHY: COLUMN_NAME Acquity BEH C18 1.7um, 2.1x150mm (Waters)
AC$CHROMATOGRAPHY: FLOW_GRADIENT 90/10 at 0-2 min, 0/100 at 15-20 min, 90/10 at 20.1-30 min
AC$CHROMATOGRAPHY: FLOW_RATE 0.20 mL/min
AC$CHROMATOGRAPHY: RETENTION_TIME 16.151 min
AC$CHROMATOGRAPHY: SOLVENT A 0.1% formic acid
AC$CHROMATOGRAPHY: SOLVENT B methanol
MS$FOCUSED_ION: BASE_PEAK 112.9857
MS$FOCUSED_ION: PRECURSOR_M/Z 269.0965
MS$FOCUSED_ION: PRECURSOR_TYPE [M-H]-
MS$FOCUSED_ION: PRECURSOR_INTENSITY 2986065.171387
MS$DATA_PROCESSING: RECALIBRATE loess on assigned fragments and MS1
MS$DATA_PROCESSING: REANALYZE Peaks with additional N2/O included
MS$DATA_PROCESSING: WHOLE RMassBank 2.99.2
PK$SPLASH: splash10-00di-0930000000-7b3520d4eac4b55e5c53
PK$ANNOTATION: m/z tentative_formula formula_count mass error(ppm)
  78.9734 HNO2S- 1 78.9733 0.16
  106.0663 C7H8N- 2 106.0662 0.27
  170.0282 C7H8NO2S- 1 170.0281 0.26
  174.9722 C8HNO2S- 1 174.9733 -6.64
  269.0967 C12H17N2O3S- 1 269.0965 0.48
PK$NUM_PEAK: 5
PK$PEAK: m/z int. rel.int.
  78.9734 5804.5 4
  106.0663 2453.7 1
  170.0282 1337857.2 999
  174.9722 16008.3 11
  269.0967 577753.6 431
//
