ACCESSION: MSBNK-LCSB-LU049552
RECORD_TITLE: 3,3`,5,5`-Tetrabromobisphenol A; LC-ESI-QFT; MS2; CE: 30; R=17500; [M-H]-
DATE: 2020.08.19
AUTHORS: Elapavalore, A.; Kondić, T.; Singh, R.; Schymanski, E.
LICENSE: CC BY
COPYRIGHT: Copyright © 2019 by Environmental Cheminformatics, LCSB, University of Luxembourg, Luxembourg
PUBLICATION: Elapavalore, A.; Kondić, T.; et al., Adding Open Spectral Data to MassBank and PubChem Using Open Source Tools to Support Non-Targeted Exposomics of Mixtures (submitted).
PROJECT: ENTACT U.S. Environmental Protection Agency’s Non-Targeted Analysis Collaborative Trial
COMMENT: CONFIDENCE standard compound
COMMENT: INTERNAL_ID 495
COMMENT: DATASET 20200303_ENTACT_RP_MIX506
COMMENT: DATA_PROCESSING MERGING RMBmix ver. 0.2.7
COMMENT: DATA_PROCESSING PRESCREENING Shinyscreen ver. 0.8.0
COMMENT: ORIGINAL_ACQUISITION_NO 5496
COMMENT: ORIGINAL_PRECURSOR_SCAN_NO 5494
COMMENT: RAW_DATA available as MSV000091754 at [DOI:10.25345/C5S46HG75]
CH$NAME: 3,3',5,5'-Tetrabromobisphenol A
CH$NAME: Tetrabromobisphenol A
CH$NAME: 2,6-dibromo-4-[2-(3,5-dibromo-4-hydroxyphenyl)propan-2-yl]phenol
CH$COMPOUND_CLASS: N/A; Environmental Standard
CH$FORMULA: C15H12Br4O2
CH$EXACT_MASS: 539.7571
CH$SMILES: CC(C)(C1=CC(Br)=C(O)C(Br)=C1)C1=CC(Br)=C(O)C(Br)=C1
CH$IUPAC: InChI=1S/C15H12Br4O2/c1-15(2,7-3-9(16)13(20)10(17)4-7)8-5-11(18)14(21)12(19)6-8/h3-6,20-21H,1-2H3
CH$LINK: CAS 79-94-7
CH$LINK: CHEBI CHEBI:33217
CH$LINK: KEGG C13620
CH$LINK: PUBCHEM CID:6618
CH$LINK: INCHIKEY VEORPZCZECFIRK-UHFFFAOYSA-N
CH$LINK: CHEMSPIDER 6366
AC$INSTRUMENT: Q Exactive Orbitrap (Thermo Scientific)
AC$INSTRUMENT_TYPE: LC-ESI-QFT
AC$MASS_SPECTROMETRY: MS_TYPE MS2
AC$MASS_SPECTROMETRY: ION_MODE NEGATIVE
AC$MASS_SPECTROMETRY: IONIZATION ESI
AC$MASS_SPECTROMETRY: FRAGMENTATION_MODE HCD
AC$MASS_SPECTROMETRY: COLLISION_ENERGY 30
AC$MASS_SPECTROMETRY: RESOLUTION 17500
AC$CHROMATOGRAPHY: COLUMN_NAME Acquity BEH C18 1.7um, 2.1x150mm (Waters)
AC$CHROMATOGRAPHY: FLOW_GRADIENT 90/10 at 0-2 min, 0/100 at 15-20 min, 90/10 at 20.1-30 min
AC$CHROMATOGRAPHY: FLOW_RATE 0.20 mL/min
AC$CHROMATOGRAPHY: RETENTION_TIME 19.390 min
AC$CHROMATOGRAPHY: SOLVENT A 0.1% formic acid
AC$CHROMATOGRAPHY: SOLVENT B methanol
MS$FOCUSED_ION: BASE_PEAK 542.7457
MS$FOCUSED_ION: PRECURSOR_M/Z 538.7498
MS$FOCUSED_ION: PRECURSOR_TYPE [M-H]-
MS$FOCUSED_ION: PRECURSOR_INTENSITY 1610773.789063
MS$DATA_PROCESSING: RECALIBRATE loess on assigned fragments and MS1
MS$DATA_PROCESSING: REANALYZE Peaks with additional N2/O included
MS$DATA_PROCESSING: WHOLE RMassBank 2.99.2
PK$SPLASH: splash10-002r-9010070000-9c5009df59429e7d8193
PK$ANNOTATION: m/z tentative_formula formula_count mass error(ppm)
  78.9189 Br- 1 78.9189 0.41
  248.8563 C6H3Br2O- 1 248.8556 2.72
  288.8871 C9H7Br2O- 1 288.8869 0.64
  299.8784 C10H6Br2O- 1 299.8791 -2.39
  339.8739 C12H6Br2O2- 1 339.874 -0.24
  351.8733 C13H6Br2O2- 1 351.874 -2.13
  415.8068 C13H7Br3O- 1 415.8052 3.82
  431.7998 C13H7Br3O2- 1 431.8002 -0.85
  443.8001 C14H7Br3O2- 1 443.8002 -0.07
  444.8076 C14H8Br3O2- 1 444.808 -0.85
  523.7264 C14H8Br4O2- 1 523.7263 0.23
  538.7499 C15H11Br4O2- 1 538.7498 0.15
PK$NUM_PEAK: 12
PK$PEAK: m/z int. rel.int.
  78.9189 431391.2 999
  248.8563 5487 12
  288.8871 78035.6 180
  299.8784 3106.1 7
  339.8739 13552.4 31
  351.8733 2923.8 6
  415.8068 2480 5
  431.7998 6399.6 14
  443.8001 16133.1 37
  444.8076 10747.4 24
  523.7264 23853.1 55
  538.7499 354478.7 820
//
