ACCESSION: MSBNK-LCSB-LU057004
RECORD_TITLE: Clomipramine; LC-ESI-QFT; MS2; CE: 60; R=17500; [M+H]+
DATE: 2020.08.19
AUTHORS: Elapavalore, A.; Kondić, T.; Singh, R.; Schymanski, E.
LICENSE: CC BY
COPYRIGHT: Copyright © 2019 by Environmental Cheminformatics, LCSB, University of Luxembourg, Luxembourg
PUBLICATION: Elapavalore, A.; Kondić, T.; et al., Adding Open Spectral Data to MassBank and PubChem Using Open Source Tools to Support Non-Targeted Exposomics of Mixtures (submitted).
PROJECT: ENTACT U.S. Environmental Protection Agency’s Non-Targeted Analysis Collaborative Trial
COMMENT: CONFIDENCE standard compound
COMMENT: INTERNAL_ID 570
COMMENT: DATASET 20200303_ENTACT_RP_MIX506
COMMENT: DATA_PROCESSING MERGING RMBmix ver. 0.2.7
COMMENT: DATA_PROCESSING PRESCREENING Shinyscreen ver. 0.8.0
COMMENT: ORIGINAL_ACQUISITION_NO 8468
COMMENT: ORIGINAL_PRECURSOR_SCAN_NO 8467
COMMENT: RAW_DATA available as MSV000091754 at [DOI:10.25345/C5S46HG75]
CH$NAME: Clomipramine
CH$NAME: 3-(2-chloro-5,6-dihydrobenzo[b][1]benzazepin-11-yl)-N,N-dimethylpropan-1-amine
CH$COMPOUND_CLASS: N/A; Environmental Standard
CH$FORMULA: C19H23ClN2
CH$EXACT_MASS: 314.1550
CH$SMILES: CN(C)CCCN1C2=CC(Cl)=CC=C2CCC2=C1C=CC=C2
CH$IUPAC: InChI=1S/C19H23ClN2/c1-21(2)12-5-13-22-18-7-4-3-6-15(18)8-9-16-10-11-17(20)14-19(16)22/h3-4,6-7,10-11,14H,5,8-9,12-13H2,1-2H3
CH$LINK: CAS 303-49-1
CH$LINK: CHEBI CHEBI:47780
CH$LINK: KEGG C06918
CH$LINK: PUBCHEM CID:2801
CH$LINK: INCHIKEY GDLIGKIOYRNHDA-UHFFFAOYSA-N
CH$LINK: CHEMSPIDER 2699
AC$INSTRUMENT: Q Exactive Orbitrap (Thermo Scientific)
AC$INSTRUMENT_TYPE: LC-ESI-QFT
AC$MASS_SPECTROMETRY: MS_TYPE MS2
AC$MASS_SPECTROMETRY: ION_MODE POSITIVE
AC$MASS_SPECTROMETRY: IONIZATION ESI
AC$MASS_SPECTROMETRY: FRAGMENTATION_MODE HCD
AC$MASS_SPECTROMETRY: COLLISION_ENERGY 60
AC$MASS_SPECTROMETRY: RESOLUTION 17500
AC$CHROMATOGRAPHY: COLUMN_NAME Acquity BEH C18 1.7um, 2.1x150mm (Waters)
AC$CHROMATOGRAPHY: FLOW_GRADIENT 90/10 at 0-2 min, 0/100 at 15-20 min, 90/10 at 20.1-30 min
AC$CHROMATOGRAPHY: FLOW_RATE 0.20 mL/min
AC$CHROMATOGRAPHY: RETENTION_TIME 16.241 min
AC$CHROMATOGRAPHY: SOLVENT A 0.1% formic acid
AC$CHROMATOGRAPHY: SOLVENT B methanol
MS$FOCUSED_ION: BASE_PEAK 79.0211
MS$FOCUSED_ION: PRECURSOR_M/Z 315.1623
MS$FOCUSED_ION: PRECURSOR_TYPE [M+H]+
MS$FOCUSED_ION: PRECURSOR_INTENSITY 33154042.84375
MS$DATA_PROCESSING: RECALIBRATE loess on assigned fragments and MS1
MS$DATA_PROCESSING: REANALYZE Peaks with additional N2/O included
MS$DATA_PROCESSING: WHOLE RMassBank 2.99.2
PK$SPLASH: splash10-0a4r-9000000000-8497e6c1f02a9f9f085c
PK$ANNOTATION: m/z tentative_formula formula_count mass error(ppm)
  56.0495 C3H6N+ 1 56.0495 0.17
  58.0651 C3H8N+ 1 58.0651 -0.31
  71.0729 C4H9N+ 1 71.073 -1.3
  84.0807 C5H10N+ 1 84.0808 -0.9
  86.0964 C5H12N+ 1 86.0964 -0.47
  91.0543 C7H7+ 1 91.0542 0.35
  158.0964 C11H12N+ 1 158.0964 -0.08
  192.0809 C14H10N+ 1 192.0808 0.71
  206.0964 C15H12N+ 1 206.0964 -0.27
  207.1043 C15H13N+ 1 207.1043 0.13
  214.0416 C13H9ClN+ 1 214.0418 -0.88
  220.1121 C16H14N+ 1 220.1121 0.18
  227.0496 C14H10ClN+ 1 227.0496 -0.16
  234.1276 C17H16N+ 1 234.1277 -0.33
  235.1355 C17H17N+ 1 235.1356 -0.3
  242.073 C15H13ClN+ 1 242.0731 -0.23
  254.073 C16H13ClN+ 1 254.0731 -0.27
  270.1042 C17H17ClN+ 1 270.1044 -0.68
PK$NUM_PEAK: 18
PK$PEAK: m/z int. rel.int.
  56.0495 87704.6 6
  58.0651 13557843 999
  71.0729 122286.9 9
  84.0807 23249.9 1
  86.0964 10288498 758
  91.0543 21336.6 1
  158.0964 16996.1 1
  192.0809 13869.5 1
  206.0964 52118.8 3
  207.1043 168526.8 12
  214.0416 13968.4 1
  220.1121 267804.7 19
  227.0496 995411.9 73
  234.1276 66501.1 4
  235.1355 142017.2 10
  242.073 899105.1 66
  254.073 16573.9 1
  270.1042 29775.9 2
//
