ACCESSION: MSBNK-LCSB-LU091102
RECORD_TITLE: Ipconazole; LC-ESI-QFT; MS2; CE: 30; R=17500; [M+H]+
DATE: 2020.08.19
AUTHORS: Elapavalore, A.; Kondić, T.; Singh, R.; Schymanski, E.
LICENSE: CC BY
COPYRIGHT: Copyright © 2019 by Environmental Cheminformatics, LCSB, University of Luxembourg, Luxembourg
PUBLICATION: Elapavalore, A.; Kondić, T.; et al., Adding Open Spectral Data to MassBank and PubChem Using Open Source Tools to Support Non-Targeted Exposomics of Mixtures (submitted).
PROJECT: ENTACT U.S. Environmental Protection Agency’s Non-Targeted Analysis Collaborative Trial
COMMENT: CONFIDENCE standard compound
COMMENT: INTERNAL_ID 911
COMMENT: DATASET 20200303_ENTACT_RP_MIX505
COMMENT: DATA_PROCESSING MERGING RMBmix ver. 0.2.7
COMMENT: DATA_PROCESSING PRESCREENING Shinyscreen ver. 0.8.0
COMMENT: ORIGINAL_ACQUISITION_NO 10122
COMMENT: ORIGINAL_PRECURSOR_SCAN_NO 10120
COMMENT: RAW_DATA available as MSV000091754 at [DOI:10.25345/C5S46HG75]
CH$NAME: Ipconazole
CH$NAME: 2-[(4-chlorophenyl)methyl]-5-propan-2-yl-1-(1,2,4-triazol-1-ylmethyl)cyclopentan-1-ol
CH$COMPOUND_CLASS: N/A; Environmental Standard
CH$FORMULA: C18H24ClN3O
CH$EXACT_MASS: 333.1608
CH$SMILES: CC(C)C1CCC(CC2=CC=C(Cl)C=C2)C1(O)CN1C=NC=N1
CH$IUPAC: InChI=1S/C18H24ClN3O/c1-13(2)17-8-5-15(9-14-3-6-16(19)7-4-14)18(17,23)10-22-12-20-11-21-22/h3-4,6-7,11-13,15,17,23H,5,8-10H2,1-2H3
CH$LINK: CAS 125225-28-7
CH$LINK: CHEBI CHEBI:81770
CH$LINK: KEGG C18471
CH$LINK: PUBCHEM CID:86211
CH$LINK: INCHIKEY QTYCMDBMOLSEAM-UHFFFAOYSA-N
CH$LINK: CHEMSPIDER 77765
AC$INSTRUMENT: Q Exactive Orbitrap (Thermo Scientific)
AC$INSTRUMENT_TYPE: LC-ESI-QFT
AC$MASS_SPECTROMETRY: MS_TYPE MS2
AC$MASS_SPECTROMETRY: ION_MODE POSITIVE
AC$MASS_SPECTROMETRY: IONIZATION ESI
AC$MASS_SPECTROMETRY: FRAGMENTATION_MODE HCD
AC$MASS_SPECTROMETRY: COLLISION_ENERGY 30
AC$MASS_SPECTROMETRY: RESOLUTION 17500
AC$CHROMATOGRAPHY: COLUMN_NAME Acquity BEH C18 1.7um, 2.1x150mm (Waters)
AC$CHROMATOGRAPHY: FLOW_GRADIENT 90/10 at 0-2 min, 0/100 at 15-20 min, 90/10 at 20.1-30 min
AC$CHROMATOGRAPHY: FLOW_RATE 0.20 mL/min
AC$CHROMATOGRAPHY: RETENTION_TIME 19.299 min
AC$CHROMATOGRAPHY: SOLVENT A 0.1% formic acid
AC$CHROMATOGRAPHY: SOLVENT B methanol
MS$FOCUSED_ION: BASE_PEAK 79.0211
MS$FOCUSED_ION: PRECURSOR_M/Z 334.1681
MS$FOCUSED_ION: PRECURSOR_TYPE [M+H]+
MS$FOCUSED_ION: PRECURSOR_INTENSITY 24212664
MS$DATA_PROCESSING: RECALIBRATE loess on assigned fragments and MS1
MS$DATA_PROCESSING: REANALYZE Peaks with additional N2/O included
MS$DATA_PROCESSING: WHOLE RMassBank 2.99.2
PK$SPLASH: splash10-00di-9001000000-347cb4c1dfe954e6cd8f
PK$ANNOTATION: m/z tentative_formula formula_count mass error(ppm)
  67.054 C5H7+ 1 67.0542 -2.81
  69.0698 C5H9+ 1 69.0699 -0.39
  70.0399 C2H4N3+ 1 70.04 -0.96
  81.0699 C6H9+ 1 81.0699 0.69
  83.0854 C6H11+ 1 83.0855 -1.04
  95.0856 C7H11+ 1 95.0855 0.33
  97.1014 C7H13+ 1 97.1012 2.74
  109.1012 C8H13+ 1 109.1012 0.12
  121.1012 C9H13+ 1 121.1012 -0.2
  125.0153 C7H6Cl+ 2 125.0153 -0.03
  139.031 C8H8Cl+ 2 139.0309 0.54
  151.0309 C9H8Cl+ 2 151.0309 -0.01
  163.0309 C10H8Cl+ 2 163.0309 -0.18
  165.0466 C10H10Cl+ 2 165.0466 0.5
  177.0466 C11H10Cl+ 2 177.0466 0.14
  191.0622 C12H12Cl+ 2 191.0622 0.08
  205.0782 C13H14Cl+ 2 205.0779 1.45
  247.1247 C16H20Cl+ 2 247.1248 -0.63
  334.1681 C18H25ClN3O+ 1 334.1681 0.05
PK$NUM_PEAK: 19
PK$PEAK: m/z int. rel.int.
  67.054 21585.5 1
  69.0698 19024.1 1
  70.0399 16199353 999
  81.0699 27381.5 1
  83.0854 31584.9 1
  95.0856 61355.2 3
  97.1014 22412.6 1
  109.1012 174659.8 10
  121.1012 21078.4 1
  125.0153 344853.9 21
  139.031 31957.5 1
  151.0309 77645 4
  163.0309 49351.2 3
  165.0466 36774.8 2
  177.0466 95459.5 5
  191.0622 210581.2 12
  205.0782 23258.3 1
  247.1247 63240.4 3
  334.1681 2428860 149
//
