ACCESSION: MSBNK-LCSB-LU077254
RECORD_TITLE: 5-Phenyl-1H-tetrazole; LC-ESI-QFT; MS2; CE: 60; R=17500; [M-H]-
DATE: 2020.08.19
AUTHORS: Elapavalore, A.; Kondić, T.; Singh, R.; Schymanski, E.
LICENSE: CC BY
COPYRIGHT: Copyright © 2019 by Environmental Cheminformatics, LCSB, University of Luxembourg, Luxembourg
PUBLICATION: Elapavalore, A.; Kondić, T.; et al., Adding Open Spectral Data to MassBank and PubChem Using Open Source Tools to Support Non-Targeted Exposomics of Mixtures (submitted).
PROJECT: ENTACT U.S. Environmental Protection Agency’s Non-Targeted Analysis Collaborative Trial
COMMENT: CONFIDENCE standard compound
COMMENT: INTERNAL_ID 772
COMMENT: DATASET 20200303_ENTACT_RP_MIX507
COMMENT: DATA_PROCESSING MERGING RMBmix ver. 0.2.7
COMMENT: DATA_PROCESSING PRESCREENING Shinyscreen ver. 0.8.0
COMMENT: ORIGINAL_ACQUISITION_NO 3211
COMMENT: ORIGINAL_PRECURSOR_SCAN_NO 3210
COMMENT: RAW_DATA available as MSV000091754 at [DOI:10.25345/C5S46HG75]
CH$NAME: 5-Phenyl-1H-tetrazole
CH$NAME: 5-phenyl-2H-tetrazole
CH$COMPOUND_CLASS: N/A; Environmental Standard
CH$FORMULA: C7H6N4
CH$EXACT_MASS: 146.0592
CH$SMILES: N1N=NN=C1C1=CC=CC=C1
CH$IUPAC: InChI=1S/C7H6N4/c1-2-4-6(5-3-1)7-8-10-11-9-7/h1-5H,(H,8,9,10,11)
CH$LINK: CAS 3999-10-8
CH$LINK: PUBCHEM CID:87425
CH$LINK: INCHIKEY MARUHZGHZWCEQU-UHFFFAOYSA-N
CH$LINK: CHEMSPIDER 78860
AC$INSTRUMENT: Q Exactive Orbitrap (Thermo Scientific)
AC$INSTRUMENT_TYPE: LC-ESI-QFT
AC$MASS_SPECTROMETRY: MS_TYPE MS2
AC$MASS_SPECTROMETRY: ION_MODE NEGATIVE
AC$MASS_SPECTROMETRY: IONIZATION ESI
AC$MASS_SPECTROMETRY: FRAGMENTATION_MODE HCD
AC$MASS_SPECTROMETRY: COLLISION_ENERGY 60
AC$MASS_SPECTROMETRY: RESOLUTION 17500
AC$CHROMATOGRAPHY: COLUMN_NAME Acquity BEH C18 1.7um, 2.1x150mm (Waters)
AC$CHROMATOGRAPHY: FLOW_GRADIENT 90/10 at 0-2 min, 0/100 at 15-20 min, 90/10 at 20.1-30 min
AC$CHROMATOGRAPHY: FLOW_RATE 0.20 mL/min
AC$CHROMATOGRAPHY: RETENTION_TIME 13.231 min
AC$CHROMATOGRAPHY: SOLVENT A 0.1% formic acid
AC$CHROMATOGRAPHY: SOLVENT B methanol
MS$FOCUSED_ION: BASE_PEAK 112.9856
MS$FOCUSED_ION: PRECURSOR_M/Z 145.052
MS$FOCUSED_ION: PRECURSOR_TYPE [M-H]-
MS$FOCUSED_ION: PRECURSOR_INTENSITY 2844143.172607
MS$DATA_PROCESSING: RECALIBRATE loess on assigned fragments and MS1
MS$DATA_PROCESSING: REANALYZE Peaks with additional N2/O included
MS$DATA_PROCESSING: WHOLE RMassBank 2.99.2
PK$SPLASH: splash10-00kr-9700000000-2c6e149c46cea405bfa6
PK$ANNOTATION: m/z tentative_formula formula_count mass error(ppm)
  89.0397 C7H5- 1 89.0397 0.1
  117.0458 C7H5N2- 1 117.0458 0.19
PK$NUM_PEAK: 2
PK$PEAK: m/z int. rel.int.
  89.0397 58563.8 999
  117.0458 46736.5 797
//
