ACCESSION: MSBNK-LCSB-LU041201
RECORD_TITLE: Sulfaquinoxaline; LC-ESI-QFT; MS2; CE: 15; R=17500; [M+H]+
DATE: 2020.08.19
AUTHORS: Elapavalore, A.; Kondić, T.; Singh, R.; Schymanski, E.
LICENSE: CC BY
COPYRIGHT: Copyright © 2019 by Environmental Cheminformatics, LCSB, University of Luxembourg, Luxembourg
PUBLICATION: Elapavalore, A.; Kondić, T.; et al., Adding Open Spectral Data to MassBank and PubChem Using Open Source Tools to Support Non-Targeted Exposomics of Mixtures (submitted).
PROJECT: ENTACT U.S. Environmental Protection Agency’s Non-Targeted Analysis Collaborative Trial
COMMENT: CONFIDENCE standard compound
COMMENT: INTERNAL_ID 412
COMMENT: DATASET 20200303_ENTACT_RP_MIX505
COMMENT: DATA_PROCESSING MERGING RMBmix ver. 0.2.7
COMMENT: DATA_PROCESSING PRESCREENING Shinyscreen ver. 0.8.0
COMMENT: ORIGINAL_ACQUISITION_NO 7362
COMMENT: ORIGINAL_PRECURSOR_SCAN_NO 7359
COMMENT: RAW_DATA available as MSV000091754 at [DOI:10.25345/C5S46HG75]
CH$NAME: Sulfaquinoxaline
CH$NAME: 4-amino-N-quinoxalin-2-ylbenzenesulfonamide
CH$COMPOUND_CLASS: N/A; Environmental Standard
CH$FORMULA: C14H12N4O2S
CH$EXACT_MASS: 300.0681
CH$SMILES: NC1=CC=C(C=C1)S(=O)(=O)NC1=CN=C2C=CC=CC2=N1
CH$IUPAC: InChI=1S/C14H12N4O2S/c15-10-5-7-11(8-6-10)21(19,20)18-14-9-16-12-3-1-2-4-13(12)17-14/h1-9H,15H2,(H,17,18)
CH$LINK: CAS 59-40-5
CH$LINK: CHEBI CHEBI:94719
CH$LINK: PUBCHEM CID:5338
CH$LINK: INCHIKEY NHZLNPMOSADWGC-UHFFFAOYSA-N
CH$LINK: CHEMSPIDER 5147
AC$INSTRUMENT: Q Exactive Orbitrap (Thermo Scientific)
AC$INSTRUMENT_TYPE: LC-ESI-QFT
AC$MASS_SPECTROMETRY: MS_TYPE MS2
AC$MASS_SPECTROMETRY: ION_MODE POSITIVE
AC$MASS_SPECTROMETRY: IONIZATION ESI
AC$MASS_SPECTROMETRY: FRAGMENTATION_MODE HCD
AC$MASS_SPECTROMETRY: COLLISION_ENERGY 15
AC$MASS_SPECTROMETRY: RESOLUTION 17500
AC$CHROMATOGRAPHY: COLUMN_NAME Acquity BEH C18 1.7um, 2.1x150mm (Waters)
AC$CHROMATOGRAPHY: FLOW_GRADIENT 90/10 at 0-2 min, 0/100 at 15-20 min, 90/10 at 20.1-30 min
AC$CHROMATOGRAPHY: FLOW_RATE 0.20 mL/min
AC$CHROMATOGRAPHY: RETENTION_TIME 13.985 min
AC$CHROMATOGRAPHY: SOLVENT A 0.1% formic acid
AC$CHROMATOGRAPHY: SOLVENT B methanol
MS$FOCUSED_ION: BASE_PEAK 79.0211
MS$FOCUSED_ION: PRECURSOR_M/Z 301.0754
MS$FOCUSED_ION: PRECURSOR_TYPE [M+H]+
MS$FOCUSED_ION: PRECURSOR_INTENSITY 6080762.125
MS$DATA_PROCESSING: RECALIBRATE loess on assigned fragments and MS1
MS$DATA_PROCESSING: REANALYZE Peaks with additional N2/O included
MS$DATA_PROCESSING: WHOLE RMassBank 2.99.2
PK$SPLASH: splash10-0udi-0409000000-e14d57214b2c4ef86785
PK$ANNOTATION: m/z tentative_formula formula_count mass error(ppm)
  92.0497 C6H6N+ 1 92.0495 2.7
  94.0652 C6H8N+ 1 94.0651 0.33
  108.0443 C6H6NO+ 2 108.0444 -0.87
  146.0713 C8H8N3+ 2 146.0713 0.13
  152.0816 C7H10N3O+ 2 152.0818 -1.82
  156.0114 C6H6NO2S+ 2 156.0114 -0.12
  208.0175 C8H6N3O2S+ 1 208.0175 -0.09
  226.0278 C14H2N4+ 2 226.0274 1.88
  235.0979 C14H11N4+ 1 235.0978 0.45
  301.0754 C14H13N4O2S+ 1 301.0754 0
PK$NUM_PEAK: 10
PK$PEAK: m/z int. rel.int.
  92.0497 25825.1 5
  94.0652 7786.7 1
  108.0443 45911.7 9
  146.0713 145724.5 29
  152.0816 6658.7 1
  156.0114 2227102 445
  208.0175 13119.4 2
  226.0278 7080.3 1
  235.0979 28189.5 5
  301.0754 4988713 999
//
