ACCESSION: MSBNK-LCSB-LU057705
RECORD_TITLE: Hexazinone; LC-ESI-QFT; MS2; CE: 75; R=17500; [M+H]+
DATE: 2020.08.19
AUTHORS: Elapavalore, A.; Kondić, T.; Singh, R.; Schymanski, E.
LICENSE: CC BY
COPYRIGHT: Copyright © 2019 by Environmental Cheminformatics, LCSB, University of Luxembourg, Luxembourg
PUBLICATION: Elapavalore, A.; Kondić, T.; et al., Adding Open Spectral Data to MassBank and PubChem Using Open Source Tools to Support Non-Targeted Exposomics of Mixtures (submitted).
PROJECT: ENTACT U.S. Environmental Protection Agency’s Non-Targeted Analysis Collaborative Trial
COMMENT: CONFIDENCE standard compound
COMMENT: INTERNAL_ID 577
COMMENT: DATASET 20200303_ENTACT_RP_MIX506
COMMENT: DATA_PROCESSING MERGING RMBmix ver. 0.2.7
COMMENT: DATA_PROCESSING PRESCREENING Shinyscreen ver. 0.8.0
COMMENT: ORIGINAL_ACQUISITION_NO 7989
COMMENT: ORIGINAL_PRECURSOR_SCAN_NO 7987
COMMENT: RAW_DATA available as MSV000091754 at [DOI:10.25345/C5S46HG75]
CH$NAME: Hexazinone
CH$NAME: 3-cyclohexyl-6-(dimethylamino)-1-methyl-1,3,5-triazine-2,4-dione
CH$COMPOUND_CLASS: N/A; Environmental Standard
CH$FORMULA: C12H20N4O2
CH$EXACT_MASS: 252.1586
CH$SMILES: CN(C)C1=NC(=O)N(C2CCCCC2)C(=O)N1C
CH$IUPAC: InChI=1S/C12H20N4O2/c1-14(2)10-13-11(17)16(12(18)15(10)3)9-7-5-4-6-8-9/h9H,4-8H2,1-3H3
CH$LINK: CAS 51235-04-2
CH$LINK: CHEBI CHEBI:5705
CH$LINK: KEGG C10926
CH$LINK: PUBCHEM CID:39965
CH$LINK: INCHIKEY CAWXEEYDBZRFPE-UHFFFAOYSA-N
CH$LINK: CHEMSPIDER 36542
AC$INSTRUMENT: Q Exactive Orbitrap (Thermo Scientific)
AC$INSTRUMENT_TYPE: LC-ESI-QFT
AC$MASS_SPECTROMETRY: MS_TYPE MS2
AC$MASS_SPECTROMETRY: ION_MODE POSITIVE
AC$MASS_SPECTROMETRY: IONIZATION ESI
AC$MASS_SPECTROMETRY: FRAGMENTATION_MODE HCD
AC$MASS_SPECTROMETRY: COLLISION_ENERGY 75
AC$MASS_SPECTROMETRY: RESOLUTION 17500
AC$CHROMATOGRAPHY: COLUMN_NAME Acquity BEH C18 1.7um, 2.1x150mm (Waters)
AC$CHROMATOGRAPHY: FLOW_GRADIENT 90/10 at 0-2 min, 0/100 at 15-20 min, 90/10 at 20.1-30 min
AC$CHROMATOGRAPHY: FLOW_RATE 0.20 mL/min
AC$CHROMATOGRAPHY: RETENTION_TIME 15.350 min
AC$CHROMATOGRAPHY: SOLVENT A 0.1% formic acid
AC$CHROMATOGRAPHY: SOLVENT B methanol
MS$FOCUSED_ION: BASE_PEAK 79.0211
MS$FOCUSED_ION: PRECURSOR_M/Z 253.1659
MS$FOCUSED_ION: PRECURSOR_TYPE [M+H]+
MS$FOCUSED_ION: PRECURSOR_INTENSITY 14896310.75
MS$DATA_PROCESSING: RECALIBRATE loess on assigned fragments and MS1
MS$DATA_PROCESSING: REANALYZE Peaks with additional N2/O included
MS$DATA_PROCESSING: WHOLE RMassBank 2.99.2
PK$SPLASH: splash10-00di-9100000000-0d3a0bcbf7e6e9875495
PK$ANNOTATION: m/z tentative_formula formula_count mass error(ppm)
  53.0386 C4H5+ 1 53.0386 1.15
  55.0291 C2H3N2+ 1 55.0291 -0.29
  55.0542 C4H7+ 1 55.0542 0.24
  56.0369 C2H4N2+ 1 56.0369 -0.13
  56.0494 C3H6N+ 1 56.0495 -0.58
  57.0448 C2H5N2+ 1 57.0447 0.77
  58.0287 C2H4NO+ 1 58.0287 -0.24
  58.0651 C3H8N+ 1 58.0651 -0.12
  69.0083 C2HN2O+ 1 69.0083 -1.01
  69.0447 C3H5N2+ 1 69.0447 -0.25
  69.9923 C2NO2+ 1 69.9924 -0.52
  70.0525 C3H6N2+ 1 70.0525 -0.17
  71.0603 C3H7N2+ 1 71.0604 -0.83
  72.0443 C3H6NO+ 1 72.0444 -0.87
  83.024 C3H3N2O+ 1 83.024 -0.27
  83.0855 C6H11+ 1 83.0855 0.02
  85.076 C4H9N2+ 1 85.076 -0.2
  96.0556 C4H6N3+ 2 96.0556 -0.19
  101.0346 C3H5N2O2+ 1 101.0346 0.02
  114.0662 C4H8N3O+ 2 114.0662 -0.02
  128.0818 C5H10N3O+ 2 128.0818 -0.26
  171.0876 C6H11N4O2+ 1 171.0877 -0.13
PK$NUM_PEAK: 22
PK$PEAK: m/z int. rel.int.
  53.0386 7410.4 1
  55.0291 42132.5 6
  55.0542 296440.9 45
  56.0369 37558.3 5
  56.0494 12363.6 1
  57.0448 11464.2 1
  58.0287 95035.3 14
  58.0651 144010.6 21
  69.0083 56849.5 8
  69.0447 38514.7 5
  69.9923 54717.4 8
  70.0525 42891.8 6
  71.0603 6575147.5 999
  72.0443 243794.9 37
  83.024 519635.1 78
  83.0855 92676.3 14
  85.076 3531760.8 536
  96.0556 25294.2 3
  101.0346 360017.6 54
  114.0662 251147.7 38
  128.0818 46890.7 7
  171.0876 775051.1 117
//
