ACCESSION: MSBNK-LCSB-LU056352
RECORD_TITLE: PFOSA; LC-ESI-QFT; MS2; CE: 30; R=17500; [M-H]-
DATE: 2020.08.19
AUTHORS: Elapavalore, A.; Kondić, T.; Singh, R.; Schymanski, E.
LICENSE: CC BY
COPYRIGHT: Copyright © 2019 by Environmental Cheminformatics, LCSB, University of Luxembourg, Luxembourg
PUBLICATION: Elapavalore, A.; Kondić, T.; et al., Adding Open Spectral Data to MassBank and PubChem Using Open Source Tools to Support Non-Targeted Exposomics of Mixtures (submitted).
PROJECT: ENTACT U.S. Environmental Protection Agency’s Non-Targeted Analysis Collaborative Trial
COMMENT: CONFIDENCE standard compound
COMMENT: INTERNAL_ID 563
COMMENT: DATASET 20200303_ENTACT_RP_MIX506
COMMENT: DATA_PROCESSING MERGING RMBmix ver. 0.2.7
COMMENT: DATA_PROCESSING PRESCREENING Shinyscreen ver. 0.8.0
COMMENT: ORIGINAL_ACQUISITION_NO 5438
COMMENT: ORIGINAL_PRECURSOR_SCAN_NO 5437
COMMENT: RAW_DATA available as MSV000091754 at [DOI:10.25345/C5S46HG75]
CH$NAME: PFOSA
CH$NAME: Perfluorooctanesulfonamide
CH$NAME: 1,1,2,2,3,3,4,4,5,5,6,6,7,7,8,8,8-heptadecafluorooctane-1-sulfonamide
CH$COMPOUND_CLASS: N/A; Environmental Standard
CH$FORMULA: C8H2F17NO2S
CH$EXACT_MASS: 498.9535
CH$SMILES: NS(=O)(=O)C(F)(F)C(F)(F)C(F)(F)C(F)(F)C(F)(F)C(F)(F)C(F)(F)C(F)(F)F
CH$IUPAC: InChI=1S/C8H2F17NO2S/c9-1(10,3(13,14)5(17,18)7(21,22)23)2(11,12)4(15,16)6(19,20)8(24,25)29(26,27)28/h(H2,26,27,28)
CH$LINK: CAS 754-91-6
CH$LINK: CHEBI CHEBI:138089
CH$LINK: PUBCHEM CID:69785
CH$LINK: INCHIKEY RRRXPPIDPYTNJG-UHFFFAOYSA-N
CH$LINK: CHEMSPIDER 62984
AC$INSTRUMENT: Q Exactive Orbitrap (Thermo Scientific)
AC$INSTRUMENT_TYPE: LC-ESI-QFT
AC$MASS_SPECTROMETRY: MS_TYPE MS2
AC$MASS_SPECTROMETRY: ION_MODE NEGATIVE
AC$MASS_SPECTROMETRY: IONIZATION ESI
AC$MASS_SPECTROMETRY: FRAGMENTATION_MODE HCD
AC$MASS_SPECTROMETRY: COLLISION_ENERGY 30
AC$MASS_SPECTROMETRY: RESOLUTION 17500
AC$CHROMATOGRAPHY: COLUMN_NAME Acquity BEH C18 1.7um, 2.1x150mm (Waters)
AC$CHROMATOGRAPHY: FLOW_GRADIENT 90/10 at 0-2 min, 0/100 at 15-20 min, 90/10 at 20.1-30 min
AC$CHROMATOGRAPHY: FLOW_RATE 0.20 mL/min
AC$CHROMATOGRAPHY: RETENTION_TIME 19.172 min
AC$CHROMATOGRAPHY: SOLVENT A 0.1% formic acid
AC$CHROMATOGRAPHY: SOLVENT B methanol
MS$FOCUSED_ION: BASE_PEAK 497.9461
MS$FOCUSED_ION: PRECURSOR_M/Z 497.9462
MS$FOCUSED_ION: PRECURSOR_TYPE [M-H]-
MS$FOCUSED_ION: PRECURSOR_INTENSITY 4604538.051758
MS$DATA_PROCESSING: RECALIBRATE loess on assigned fragments and MS1
MS$DATA_PROCESSING: REANALYZE Peaks with additional N2/O included
MS$DATA_PROCESSING: WHOLE RMassBank 2.99.2
PK$SPLASH: splash10-004i-9000000000-25f0ae97dda0615a70e7
PK$ANNOTATION: m/z tentative_formula formula_count mass error(ppm)
  63.9625 O2S- 1 63.9624 0.17
  77.9656 NO2S- 1 77.9655 0.39
  82.9608 FO2S- 1 82.9609 -0.32
  118.9925 C2F5- 2 118.9926 -0.23
  168.9894 C3F7- 4 168.9894 0.14
  293.9709 CF14O- 2 293.9731 -7.51
  477.9401 C8F16NO2S- 1 477.94 0.25
  497.9463 C8HF17NO2S- 1 497.9462 0.12
PK$NUM_PEAK: 8
PK$PEAK: m/z int. rel.int.
  63.9625 23105.5 9
  77.9656 2536649 999
  82.9608 15768.6 6
  118.9925 8622.9 3
  168.9894 36603.5 14
  293.9709 3362.1 1
  477.9401 11990.6 4
  497.9463 273821.8 107
//
