ACCESSION: MSBNK-LCSB-LU112102
RECORD_TITLE: Famotidine; LC-ESI-QFT; MS2; CE: 30; R=17500; [M+H]+
DATE: 2020.08.19
AUTHORS: Elapavalore, A.; Kondić, T.; Singh, R.; Schymanski, E.
LICENSE: CC BY
COPYRIGHT: Copyright © 2019 by Environmental Cheminformatics, LCSB, University of Luxembourg, Luxembourg
PUBLICATION: Elapavalore, A.; Kondić, T.; et al., Adding Open Spectral Data to MassBank and PubChem Using Open Source Tools to Support Non-Targeted Exposomics of Mixtures (submitted).
PROJECT: ENTACT U.S. Environmental Protection Agency’s Non-Targeted Analysis Collaborative Trial
COMMENT: CONFIDENCE standard compound
COMMENT: INTERNAL_ID 1121
COMMENT: DATASET 20200303_ENTACT_RP_MIX505
COMMENT: DATA_PROCESSING MERGING RMBmix ver. 0.2.7
COMMENT: DATA_PROCESSING PRESCREENING Shinyscreen ver. 0.8.0
COMMENT: ORIGINAL_ACQUISITION_NO 4226
COMMENT: ORIGINAL_PRECURSOR_SCAN_NO 4225
COMMENT: RAW_DATA available as MSV000091754 at [DOI:10.25345/C5S46HG75]
CH$NAME: Famotidine
CH$NAME: 3-[[2-(diaminomethylideneamino)-1,3-thiazol-4-yl]methylsulfanyl]-N'-sulfamoylpropanimidamide
CH$COMPOUND_CLASS: N/A; Environmental Standard
CH$FORMULA: C8H15N7O2S3
CH$EXACT_MASS: 337.0449
CH$SMILES: NC(N)=NC1=NC(CSCCC(N)=NS(N)(=O)=O)=CS1
CH$IUPAC: InChI=1S/C8H15N7O2S3/c9-6(15-20(12,16)17)1-2-18-3-5-4-19-8(13-5)14-7(10)11/h4H,1-3H2,(H2,9,15)(H2,12,16,17)(H4,10,11,13,14)
CH$LINK: CAS 76824-35-6
CH$LINK: CHEBI CHEBI:4975
CH$LINK: KEGG D00318
CH$LINK: PUBCHEM CID:3325
CH$LINK: INCHIKEY XUFQPHANEAPEMJ-UHFFFAOYSA-N
CH$LINK: CHEMSPIDER 3208
AC$INSTRUMENT: Q Exactive Orbitrap (Thermo Scientific)
AC$INSTRUMENT_TYPE: LC-ESI-QFT
AC$MASS_SPECTROMETRY: MS_TYPE MS2
AC$MASS_SPECTROMETRY: ION_MODE POSITIVE
AC$MASS_SPECTROMETRY: IONIZATION ESI
AC$MASS_SPECTROMETRY: FRAGMENTATION_MODE HCD
AC$MASS_SPECTROMETRY: COLLISION_ENERGY 30
AC$MASS_SPECTROMETRY: RESOLUTION 17500
AC$CHROMATOGRAPHY: COLUMN_NAME Acquity BEH C18 1.7um, 2.1x150mm (Waters)
AC$CHROMATOGRAPHY: FLOW_GRADIENT 90/10 at 0-2 min, 0/100 at 15-20 min, 90/10 at 20.1-30 min
AC$CHROMATOGRAPHY: FLOW_RATE 0.20 mL/min
AC$CHROMATOGRAPHY: RETENTION_TIME 8.048 min
AC$CHROMATOGRAPHY: SOLVENT A 0.1% formic acid
AC$CHROMATOGRAPHY: SOLVENT B methanol
MS$FOCUSED_ION: BASE_PEAK 79.0211
MS$FOCUSED_ION: PRECURSOR_M/Z 338.0522
MS$FOCUSED_ION: PRECURSOR_TYPE [M+H]+
MS$FOCUSED_ION: PRECURSOR_INTENSITY 8327918.21875
MS$DATA_PROCESSING: RECALIBRATE loess on assigned fragments and MS1
MS$DATA_PROCESSING: REANALYZE Peaks with additional N2/O included
MS$DATA_PROCESSING: WHOLE RMassBank 2.99.2
PK$SPLASH: splash10-000i-1900000000-8779756d1d58f179d0a9
PK$ANNOTATION: m/z tentative_formula formula_count mass error(ppm)
  54.0338 C3H4N+ 1 54.0338 0.16
  71.0604 C3H7N2+ 1 71.0604 -0.16
  113.0168 C4H5N2S+ 1 113.0168 0.43
  138.0122 C5H4N3S+ 2 138.012 1.32
  155.0386 C5H7N4S+ 2 155.0386 0.29
  157.055 C7H11NOS+ 2 157.0556 -3.75
  171.9992 C5H6N3S2+ 3 171.9998 -3.2
  189.0264 C5H9N4S2+ 3 189.0263 0.47
  242.0531 C8H12N5S2+ 3 242.0529 0.8
  259.0795 C8H15N6S2+ 1 259.0794 0.45
PK$NUM_PEAK: 10
PK$PEAK: m/z int. rel.int.
  54.0338 15805.8 4
  71.0604 705151.4 212
  113.0168 5929.4 1
  138.0122 6099.7 1
  155.0386 176786.3 53
  157.055 10816.2 3
  171.9992 3692.3 1
  189.0264 3312082.5 999
  242.0531 31925.5 9
  259.0795 181745.3 54
//
