ACCESSION: MSBNK-LCSB-LU052305
RECORD_TITLE: Acetyl tributyl citrate; LC-ESI-QFT; MS2; CE: 75; R=17500; [M+H]+
DATE: 2020.08.19
AUTHORS: Elapavalore, A.; Kondić, T.; Singh, R.; Schymanski, E.
LICENSE: CC BY
COPYRIGHT: Copyright © 2019 by Environmental Cheminformatics, LCSB, University of Luxembourg, Luxembourg
PUBLICATION: Elapavalore, A.; Kondić, T.; et al., Adding Open Spectral Data to MassBank and PubChem Using Open Source Tools to Support Non-Targeted Exposomics of Mixtures (submitted).
PROJECT: ENTACT U.S. Environmental Protection Agency’s Non-Targeted Analysis Collaborative Trial
COMMENT: CONFIDENCE standard compound
COMMENT: INTERNAL_ID 523
COMMENT: DATASET 20200303_ENTACT_RP_MIX506
COMMENT: DATA_PROCESSING MERGING RMBmix ver. 0.2.7
COMMENT: DATA_PROCESSING PRESCREENING Shinyscreen ver. 0.8.0
COMMENT: ORIGINAL_ACQUISITION_NO 10264
COMMENT: ORIGINAL_PRECURSOR_SCAN_NO 10263
COMMENT: RAW_DATA available as MSV000091754 at [DOI:10.25345/C5S46HG75]
CH$NAME: Acetyl tributyl citrate
CH$NAME: tributyl 2-acetyloxypropane-1,2,3-tricarboxylate
CH$COMPOUND_CLASS: N/A; Environmental Standard
CH$FORMULA: C20H34O8
CH$EXACT_MASS: 402.2254
CH$SMILES: CCCCOC(=O)CC(CC(=O)OCCCC)(OC(C)=O)C(=O)OCCCC
CH$IUPAC: InChI=1S/C20H34O8/c1-5-8-11-25-17(22)14-20(28-16(4)21,19(24)27-13-10-7-3)15-18(23)26-12-9-6-2/h5-15H2,1-4H3
CH$LINK: CAS 77-90-7
CH$LINK: PUBCHEM CID:6505
CH$LINK: INCHIKEY QZCLKYGREBVARF-UHFFFAOYSA-N
CH$LINK: CHEMSPIDER 6259
AC$INSTRUMENT: Q Exactive Orbitrap (Thermo Scientific)
AC$INSTRUMENT_TYPE: LC-ESI-QFT
AC$MASS_SPECTROMETRY: MS_TYPE MS2
AC$MASS_SPECTROMETRY: ION_MODE POSITIVE
AC$MASS_SPECTROMETRY: IONIZATION ESI
AC$MASS_SPECTROMETRY: FRAGMENTATION_MODE HCD
AC$MASS_SPECTROMETRY: COLLISION_ENERGY 75
AC$MASS_SPECTROMETRY: RESOLUTION 17500
AC$CHROMATOGRAPHY: COLUMN_NAME Acquity BEH C18 1.7um, 2.1x150mm (Waters)
AC$CHROMATOGRAPHY: FLOW_GRADIENT 90/10 at 0-2 min, 0/100 at 15-20 min, 90/10 at 20.1-30 min
AC$CHROMATOGRAPHY: FLOW_RATE 0.20 mL/min
AC$CHROMATOGRAPHY: RETENTION_TIME 19.698 min
AC$CHROMATOGRAPHY: SOLVENT A 0.1% formic acid
AC$CHROMATOGRAPHY: SOLVENT B methanol
MS$FOCUSED_ION: BASE_PEAK 79.0211
MS$FOCUSED_ION: PRECURSOR_M/Z 403.2326
MS$FOCUSED_ION: PRECURSOR_TYPE [M+H]+
MS$FOCUSED_ION: PRECURSOR_INTENSITY 8662782.625
MS$DATA_PROCESSING: RECALIBRATE loess on assigned fragments and MS1
MS$DATA_PROCESSING: REANALYZE Peaks with additional N2/O included
MS$DATA_PROCESSING: WHOLE RMassBank 2.99.2
PK$SPLASH: splash10-014i-9600000000-e0597296cb7bcbf9403d
PK$ANNOTATION: m/z tentative_formula formula_count mass error(ppm)
  57.0699 C4H9+ 1 57.0699 0.34
  68.9971 C3HO2+ 1 68.9971 0.35
  87.0077 C3H3O3+ 1 87.0077 0.17
  111.0078 C5H3O3+ 1 111.0077 1.26
  125.0234 C6H5O3+ 1 125.0233 0.46
  129.0184 C5H5O4+ 1 129.0182 1.08
  139.0028 C6H3O4+ 1 139.0026 1.3
  208.113 C5H20O8+ 1 208.1153 -11.08
PK$NUM_PEAK: 8
PK$PEAK: m/z int. rel.int.
  57.0699 9938.4 138
  68.9971 71852.6 999
  87.0077 8252 114
  111.0078 21195.2 294
  125.0234 2065.5 28
  129.0184 27362.1 380
  139.0028 12234.8 170
  208.113 2250.5 31
//
