ACCESSION: MSBNK-LCSB-LU021953
RECORD_TITLE: (9Z,12R)-12-Hydroxyoctadec-9-enoic acid; LC-ESI-QFT; MS2; CE: 45; R=17500; [M-H]-
DATE: 2020.08.19
AUTHORS: Elapavalore, A.; Kondić, T.; Singh, R.; Schymanski, E.
LICENSE: CC BY
COPYRIGHT: Copyright © 2019 by Environmental Cheminformatics, LCSB, University of Luxembourg, Luxembourg
PUBLICATION: Elapavalore, A.; Kondić, T.; et al., Adding Open Spectral Data to MassBank and PubChem Using Open Source Tools to Support Non-Targeted Exposomics of Mixtures (submitted).
PROJECT: ENTACT U.S. Environmental Protection Agency’s Non-Targeted Analysis Collaborative Trial
COMMENT: CONFIDENCE standard compound
COMMENT: INTERNAL_ID 219
COMMENT: DATASET 20200303_ENTACT_RP_MIX505
COMMENT: DATA_PROCESSING MERGING RMBmix ver. 0.2.7
COMMENT: DATA_PROCESSING PRESCREENING Shinyscreen ver. 0.8.0
COMMENT: ORIGINAL_ACQUISITION_NO 5665
COMMENT: ORIGINAL_PRECURSOR_SCAN_NO 5662
COMMENT: RAW_DATA available as MSV000091754 at [DOI:10.25345/C5S46HG75]
CH$NAME: (9Z,12R)-12-Hydroxyoctadec-9-enoic acid
CH$NAME: Ricinoleic acid
CH$NAME: (Z,12R)-12-hydroxyoctadec-9-enoic acid
CH$COMPOUND_CLASS: N/A; Environmental Standard
CH$FORMULA: C18H34O3
CH$EXACT_MASS: 298.2508
CH$SMILES: CCCCCC[C@@H](O)C\C=C/CCCCCCCC(O)=O
CH$IUPAC: InChI=1S/C18H34O3/c1-2-3-4-11-14-17(19)15-12-9-7-5-6-8-10-13-16-18(20)21/h9,12,17,19H,2-8,10-11,13-16H2,1H3,(H,20,21)/b12-9-/t17-/m1/s1
CH$LINK: CAS 141-22-0
CH$LINK: CHEBI CHEBI:28592
CH$LINK: KEGG C08365
CH$LINK: LIPIDMAPS LMFA02000184
CH$LINK: PUBCHEM CID:643684
CH$LINK: INCHIKEY WBHHMMIMDMUBKC-QJWNTBNXSA-N
CH$LINK: CHEMSPIDER 558800
AC$INSTRUMENT: Q Exactive Orbitrap (Thermo Scientific)
AC$INSTRUMENT_TYPE: LC-ESI-QFT
AC$MASS_SPECTROMETRY: MS_TYPE MS2
AC$MASS_SPECTROMETRY: ION_MODE NEGATIVE
AC$MASS_SPECTROMETRY: IONIZATION ESI
AC$MASS_SPECTROMETRY: FRAGMENTATION_MODE HCD
AC$MASS_SPECTROMETRY: COLLISION_ENERGY 45
AC$MASS_SPECTROMETRY: RESOLUTION 17500
AC$CHROMATOGRAPHY: COLUMN_NAME Acquity BEH C18 1.7um, 2.1x150mm (Waters)
AC$CHROMATOGRAPHY: FLOW_GRADIENT 90/10 at 0-2 min, 0/100 at 15-20 min, 90/10 at 20.1-30 min
AC$CHROMATOGRAPHY: FLOW_RATE 0.20 mL/min
AC$CHROMATOGRAPHY: RETENTION_TIME 19.824 min
AC$CHROMATOGRAPHY: SOLVENT A 0.1% formic acid
AC$CHROMATOGRAPHY: SOLVENT B methanol
MS$FOCUSED_ION: BASE_PEAK 297.2435
MS$FOCUSED_ION: PRECURSOR_M/Z 297.2435
MS$FOCUSED_ION: PRECURSOR_TYPE [M-H]-
MS$FOCUSED_ION: PRECURSOR_INTENSITY 35019169.75293
MS$DATA_PROCESSING: RECALIBRATE loess on assigned fragments and MS1
MS$DATA_PROCESSING: REANALYZE Peaks with additional N2/O included
MS$DATA_PROCESSING: WHOLE RMassBank 2.99.2
PK$SPLASH: splash10-001i-0910000000-e35a5e898db2f7caf1f5
PK$ANNOTATION: m/z tentative_formula formula_count mass error(ppm)
  59.0139 C2H3O2- 1 59.0139 0.4
  83.0503 C5H7O- 1 83.0502 1.22
  97.066 C6H9O- 1 97.0659 0.64
  111.0815 C7H11O- 1 111.0815 -0.26
  113.0972 C7H13O- 1 113.0972 -0.11
  127.1129 C8H15O- 1 127.1128 0.55
  149.0969 C10H13O- 1 149.0972 -1.67
  165.1285 C11H17O- 1 165.1285 0.03
  183.139 C11H19O2- 1 183.1391 -0.38
  261.2222 C18H29O- 1 261.2224 -0.79
  279.2329 C18H31O2- 1 279.233 -0.11
  295.2282 C18H31O3- 1 295.2279 0.98
  297.2434 C18H33O3- 1 297.2435 -0.25
PK$NUM_PEAK: 13
PK$PEAK: m/z int. rel.int.
  59.0139 7731.4 1
  83.0503 9940.8 2
  97.066 14198.8 3
  111.0815 20663.7 4
  113.0972 93229.5 22
  127.1129 8932.2 2
  149.0969 4907.7 1
  165.1285 42068.4 9
  183.139 4213809.5 999
  261.2222 11462.1 2
  279.2329 489070.9 115
  295.2282 31679.4 7
  297.2434 391884.1 92
//
