ACCESSION: MSBNK-LCSB-LU109201
RECORD_TITLE: 2,2-Dimethyl-2,3-dihydro-1-benzofuran-7-amine; LC-ESI-QFT; MS2; CE: 15; R=17500; [M+H]+
DATE: 2020.08.19
AUTHORS: Elapavalore, A.; Kondić, T.; Singh, R.; Schymanski, E.
LICENSE: CC BY
COPYRIGHT: Copyright © 2019 by Environmental Cheminformatics, LCSB, University of Luxembourg, Luxembourg
PUBLICATION: Elapavalore, A.; Kondić, T.; et al., Adding Open Spectral Data to MassBank and PubChem Using Open Source Tools to Support Non-Targeted Exposomics of Mixtures (submitted).
PROJECT: ENTACT U.S. Environmental Protection Agency’s Non-Targeted Analysis Collaborative Trial
COMMENT: CONFIDENCE standard compound
COMMENT: INTERNAL_ID 1092
COMMENT: DATASET 20200303_ENTACT_RP_MIX503
COMMENT: DATA_PROCESSING MERGING RMBmix ver. 0.2.7
COMMENT: DATA_PROCESSING PRESCREENING Shinyscreen ver. 0.8.0
COMMENT: ORIGINAL_ACQUISITION_NO 6457
COMMENT: ORIGINAL_PRECURSOR_SCAN_NO 6456
COMMENT: RAW_DATA available as MSV000091754 at [DOI:10.25345/C5S46HG75]
CH$NAME: 2,2-Dimethyl-2,3-dihydro-1-benzofuran-7-amine
CH$NAME: 2,2-dimethyl-3H-1-benzofuran-7-amine
CH$COMPOUND_CLASS: N/A; Environmental Standard
CH$FORMULA: C10H13NO
CH$EXACT_MASS: 163.0997
CH$SMILES: CC1(C)CC2=C(O1)C(N)=CC=C2
CH$IUPAC: InChI=1S/C10H13NO/c1-10(2)6-7-4-3-5-8(11)9(7)12-10/h3-5H,6,11H2,1-2H3
CH$LINK: CAS 6936-64-7
CH$LINK: PUBCHEM CID:91697
CH$LINK: INCHIKEY LMTIGABGABPAGU-UHFFFAOYSA-N
CH$LINK: CHEMSPIDER 82800
AC$INSTRUMENT: Q Exactive Orbitrap (Thermo Scientific)
AC$INSTRUMENT_TYPE: LC-ESI-QFT
AC$MASS_SPECTROMETRY: MS_TYPE MS2
AC$MASS_SPECTROMETRY: ION_MODE POSITIVE
AC$MASS_SPECTROMETRY: IONIZATION ESI
AC$MASS_SPECTROMETRY: FRAGMENTATION_MODE HCD
AC$MASS_SPECTROMETRY: COLLISION_ENERGY 15
AC$MASS_SPECTROMETRY: RESOLUTION 17500
AC$CHROMATOGRAPHY: COLUMN_NAME Acquity BEH C18 1.7um, 2.1x150mm (Waters)
AC$CHROMATOGRAPHY: FLOW_GRADIENT 90/10 at 0-2 min, 0/100 at 15-20 min, 90/10 at 20.1-30 min
AC$CHROMATOGRAPHY: FLOW_RATE 0.20 mL/min
AC$CHROMATOGRAPHY: RETENTION_TIME 12.296 min
AC$CHROMATOGRAPHY: SOLVENT A 0.1% formic acid
AC$CHROMATOGRAPHY: SOLVENT B methanol
MS$FOCUSED_ION: BASE_PEAK 79.0212
MS$FOCUSED_ION: PRECURSOR_M/Z 164.107
MS$FOCUSED_ION: PRECURSOR_TYPE [M+H]+
MS$FOCUSED_ION: PRECURSOR_INTENSITY 24368829.625
MS$DATA_PROCESSING: RECALIBRATE loess on assigned fragments and MS1
MS$DATA_PROCESSING: REANALYZE Peaks with additional N2/O included
MS$DATA_PROCESSING: WHOLE RMassBank 2.99.2
PK$SPLASH: splash10-03k9-0900000000-4a91fbf9cb40eefba968
PK$ANNOTATION: m/z tentative_formula formula_count mass error(ppm)
  55.0543 C4H7+ 1 55.0542 0.45
  91.0542 C7H7+ 1 91.0542 -0.41
  94.0652 C6H8N+ 1 94.0651 0.34
  108.0444 C6H6NO+ 1 108.0444 0.12
  109.0523 C6H7NO+ 1 109.0522 0.37
  110.06 C6H8NO+ 1 110.06 -0.08
  119.0856 C9H11+ 1 119.0855 0.65
  122.06 C7H8NO+ 1 122.06 -0.06
  129.0698 C10H9+ 1 129.0699 -0.48
  136.0757 C8H10NO+ 1 136.0757 0.22
  146.0964 C10H12N+ 1 146.0964 -0.29
  147.0804 C10H11O+ 1 147.0804 -0.02
  149.0837 C9H11NO+ 1 149.0835 1.27
  164.107 C10H14NO+ 1 164.107 0.05
PK$NUM_PEAK: 14
PK$PEAK: m/z int. rel.int.
  55.0543 53201.8 5
  91.0542 89487.8 8
  94.0652 115197.1 11
  108.0444 118426.8 11
  109.0523 1436549.6 140
  110.06 103664.6 10
  119.0856 333729 32
  122.06 5557796.5 542
  129.0698 13083.7 1
  136.0757 402725.1 39
  146.0964 18018.9 1
  147.0804 1876226.2 183
  149.0837 40765.6 3
  164.107 10234186 999
//
