ACCESSION: MSBNK-LCSB-LU130606
RECORD_TITLE: Hydroxyzine; LC-ESI-QFT; MS2; CE: 90; R=17500; [M+H]+
DATE: 2020.08.19
AUTHORS: Elapavalore, A.; Kondić, T.; Singh, R.; Schymanski, E.
LICENSE: CC BY
COPYRIGHT: Copyright © 2019 by Environmental Cheminformatics, LCSB, University of Luxembourg, Luxembourg
PUBLICATION: Elapavalore, A.; Kondić, T.; et al., Adding Open Spectral Data to MassBank and PubChem Using Open Source Tools to Support Non-Targeted Exposomics of Mixtures (submitted).
PROJECT: ENTACT U.S. Environmental Protection Agency’s Non-Targeted Analysis Collaborative Trial
COMMENT: CONFIDENCE standard compound
COMMENT: INTERNAL_ID 1306
COMMENT: DATASET 20200303_ENTACT_RP_MIX504
COMMENT: DATA_PROCESSING MERGING RMBmix ver. 0.2.7
COMMENT: DATA_PROCESSING PRESCREENING Shinyscreen ver. 0.8.0
COMMENT: ORIGINAL_ACQUISITION_NO 8120
COMMENT: ORIGINAL_PRECURSOR_SCAN_NO 8118
COMMENT: RAW_DATA available as MSV000091754 at [DOI:10.25345/C5S46HG75]
CH$NAME: Hydroxyzine
CH$NAME: 2-[2-[4-[(4-chlorophenyl)-phenylmethyl]piperazin-1-yl]ethoxy]ethanol
CH$COMPOUND_CLASS: N/A; Environmental Standard
CH$FORMULA: C21H27ClN2O2
CH$EXACT_MASS: 374.1761
CH$SMILES: OCCOCCN1CCN(CC1)C(C1=CC=CC=C1)C1=CC=C(Cl)C=C1
CH$IUPAC: InChI=1S/C21H27ClN2O2/c22-20-8-6-19(7-9-20)21(18-4-2-1-3-5-18)24-12-10-23(11-13-24)14-16-26-17-15-25/h1-9,21,25H,10-17H2
CH$LINK: CAS 68-88-2
CH$LINK: CHEBI CHEBI:5818
CH$LINK: KEGG C07045
CH$LINK: PUBCHEM CID:3658
CH$LINK: INCHIKEY ZQDWXGKKHFNSQK-UHFFFAOYSA-N
CH$LINK: CHEMSPIDER 3531
AC$INSTRUMENT: Q Exactive Orbitrap (Thermo Scientific)
AC$INSTRUMENT_TYPE: LC-ESI-QFT
AC$MASS_SPECTROMETRY: MS_TYPE MS2
AC$MASS_SPECTROMETRY: ION_MODE POSITIVE
AC$MASS_SPECTROMETRY: IONIZATION ESI
AC$MASS_SPECTROMETRY: FRAGMENTATION_MODE HCD
AC$MASS_SPECTROMETRY: COLLISION_ENERGY 90
AC$MASS_SPECTROMETRY: RESOLUTION 17500
AC$CHROMATOGRAPHY: COLUMN_NAME Acquity BEH C18 1.7um, 2.1x150mm (Waters)
AC$CHROMATOGRAPHY: FLOW_GRADIENT 90/10 at 0-2 min, 0/100 at 15-20 min, 90/10 at 20.1-30 min
AC$CHROMATOGRAPHY: FLOW_RATE 0.20 mL/min
AC$CHROMATOGRAPHY: RETENTION_TIME 15.635 min
AC$CHROMATOGRAPHY: SOLVENT A 0.1% formic acid
AC$CHROMATOGRAPHY: SOLVENT B methanol
MS$FOCUSED_ION: BASE_PEAK 79.0212
MS$FOCUSED_ION: PRECURSOR_M/Z 375.1834
MS$FOCUSED_ION: PRECURSOR_TYPE [M+H]+
MS$FOCUSED_ION: PRECURSOR_INTENSITY 19946458
MS$DATA_PROCESSING: RECALIBRATE loess on assigned fragments and MS1
MS$DATA_PROCESSING: REANALYZE Peaks with additional N2/O included
MS$DATA_PROCESSING: WHOLE RMassBank 2.99.2
PK$SPLASH: splash10-014i-0900000000-2915b70558d8c344f84d
PK$ANNOTATION: m/z tentative_formula formula_count mass error(ppm)
  83.0603 C4H7N2+ 1 83.0604 -1.11
  84.0682 C4H8N2+ 1 84.0682 0.29
  98.9995 C5H4Cl+ 1 98.9996 -0.73
  115.0542 C9H7+ 1 115.0542 -0.12
  139.0541 C11H7+ 2 139.0542 -0.82
  163.0536 C13H7+ 2 163.0542 -3.83
  164.0623 C13H8+ 1 164.0621 1.79
  165.0699 C13H9+ 2 165.0699 0.32
  166.0775 C13H10+ 2 166.0777 -1.13
  168.0567 C12H8O+ 2 168.057 -1.49
  183.0803 C13H11O+ 2 183.0804 -0.74
  193.0761 C13H9N2+ 3 193.076 0.34
  196.0518 C13H8O2+ 2 196.0519 -0.55
  199.0309 C13H8Cl+ 2 199.0309 -0.15
  201.0468 C13H10Cl+ 2 201.0466 1.04
PK$NUM_PEAK: 15
PK$PEAK: m/z int. rel.int.
  83.0603 24604.4 2
  84.0682 31826.8 2
  98.9995 23080.7 1
  115.0542 56396.9 4
  139.0541 45063.4 3
  163.0536 21030 1
  164.0623 74273.4 6
  165.0699 11960359 999
  166.0775 5689412 475
  168.0567 94484.2 7
  183.0803 32319.2 2
  193.0761 28762 2
  196.0518 33408.4 2
  199.0309 213196.7 17
  201.0468 66942.4 5
//
