ACCESSION: MSBNK-LCSB-LU067902
RECORD_TITLE: 6-Acetyl-1,1,2,4,4,7-hexamethyltetralin; LC-ESI-QFT; MS2; CE: 30; R=17500; [M+H]+
DATE: 2020.08.19
AUTHORS: Elapavalore, A.; Kondić, T.; Singh, R.; Schymanski, E.
LICENSE: CC BY
COPYRIGHT: Copyright © 2019 by Environmental Cheminformatics, LCSB, University of Luxembourg, Luxembourg
PUBLICATION: Elapavalore, A.; Kondić, T.; et al., Adding Open Spectral Data to MassBank and PubChem Using Open Source Tools to Support Non-Targeted Exposomics of Mixtures (submitted).
PROJECT: ENTACT U.S. Environmental Protection Agency’s Non-Targeted Analysis Collaborative Trial
COMMENT: CONFIDENCE standard compound
COMMENT: INTERNAL_ID 679
COMMENT: DATASET 20200303_ENTACT_RP_MIX506
COMMENT: DATA_PROCESSING MERGING RMBmix ver. 0.2.7
COMMENT: DATA_PROCESSING PRESCREENING Shinyscreen ver. 0.8.0
COMMENT: ORIGINAL_ACQUISITION_NO 10833
COMMENT: ORIGINAL_PRECURSOR_SCAN_NO 10831
COMMENT: RAW_DATA available as MSV000091754 at [DOI:10.25345/C5S46HG75]
CH$NAME: 6-Acetyl-1,1,2,4,4,7-hexamethyltetralin
CH$NAME: Tonalid
CH$NAME: 1-(3,5,5,6,8,8-hexamethyl-6,7-dihydronaphthalen-2-yl)ethanone
CH$COMPOUND_CLASS: N/A; Environmental Standard
CH$FORMULA: C18H26O
CH$EXACT_MASS: 258.1984
CH$SMILES: CC1CC(C)(C)C2=C(C=C(C)C(=C2)C(C)=O)C1(C)C
CH$IUPAC: InChI=1S/C18H26O/c1-11-8-16-15(9-14(11)13(3)19)17(4,5)10-12(2)18(16,6)7/h8-9,12H,10H2,1-7H3
CH$LINK: CAS 1506-02-1
CH$LINK: CHEBI CHEBI:88666
CH$LINK: PUBCHEM CID:89440
CH$LINK: INCHIKEY DNRJTBAOUJJKDY-UHFFFAOYSA-N
CH$LINK: CHEMSPIDER 80719
AC$INSTRUMENT: Q Exactive Orbitrap (Thermo Scientific)
AC$INSTRUMENT_TYPE: LC-ESI-QFT
AC$MASS_SPECTROMETRY: MS_TYPE MS2
AC$MASS_SPECTROMETRY: ION_MODE POSITIVE
AC$MASS_SPECTROMETRY: IONIZATION ESI
AC$MASS_SPECTROMETRY: FRAGMENTATION_MODE HCD
AC$MASS_SPECTROMETRY: COLLISION_ENERGY 30
AC$MASS_SPECTROMETRY: RESOLUTION 17500
AC$CHROMATOGRAPHY: COLUMN_NAME Acquity BEH C18 1.7um, 2.1x150mm (Waters)
AC$CHROMATOGRAPHY: FLOW_GRADIENT 90/10 at 0-2 min, 0/100 at 15-20 min, 90/10 at 20.1-30 min
AC$CHROMATOGRAPHY: FLOW_RATE 0.20 mL/min
AC$CHROMATOGRAPHY: RETENTION_TIME 20.652 min
AC$CHROMATOGRAPHY: SOLVENT A 0.1% formic acid
AC$CHROMATOGRAPHY: SOLVENT B methanol
MS$FOCUSED_ION: BASE_PEAK 79.0211
MS$FOCUSED_ION: PRECURSOR_M/Z 259.2056
MS$FOCUSED_ION: PRECURSOR_TYPE [M+H]+
MS$FOCUSED_ION: PRECURSOR_INTENSITY 7662293.3125
MS$DATA_PROCESSING: RECALIBRATE loess on assigned fragments and MS1
MS$DATA_PROCESSING: REANALYZE Peaks with additional N2/O included
MS$DATA_PROCESSING: WHOLE RMassBank 2.99.2
PK$SPLASH: splash10-004i-0920000000-b753de6dc6b3f0de1b01
PK$ANNOTATION: m/z tentative_formula formula_count mass error(ppm)
  57.0699 C4H9+ 1 57.0699 1.01
  133.1012 C10H13+ 1 133.1012 0.29
  145.1011 C11H13+ 1 145.1012 -0.26
  147.0805 C10H11O+ 1 147.0804 0.67
  159.1168 C12H15+ 1 159.1168 0.12
  161.096 C11H13O+ 1 161.0961 -0.64
  175.1117 C12H15O+ 1 175.1117 -0.11
  189.1274 C13H17O+ 1 189.1274 -0.19
  203.143 C14H19O+ 1 203.143 -0.38
  215.1795 C16H23+ 1 215.1794 0.33
  259.2062 C18H27O+ 1 259.2056 1.96
PK$NUM_PEAK: 11
PK$PEAK: m/z int. rel.int.
  57.0699 2668.8 2
  133.1012 37319.3 33
  145.1011 3346.6 2
  147.0805 8821.8 7
  159.1168 4800 4
  161.096 53801.1 48
  175.1117 1114898 999
  189.1274 24907.4 22
  203.143 15634.1 14
  215.1795 7732.2 6
  259.2062 376222.9 337
//
