ACCESSION: MSBNK-LCSB-LU068803
RECORD_TITLE: 1-Cyclohexylpyrrolidin-2-one; LC-ESI-QFT; MS2; CE: 45; R=17500; [M+H]+
DATE: 2020.08.19
AUTHORS: Elapavalore, A.; Kondić, T.; Singh, R.; Schymanski, E.
LICENSE: CC BY
COPYRIGHT: Copyright © 2019 by Environmental Cheminformatics, LCSB, University of Luxembourg, Luxembourg
PUBLICATION: Elapavalore, A.; Kondić, T.; et al., Adding Open Spectral Data to MassBank and PubChem Using Open Source Tools to Support Non-Targeted Exposomics of Mixtures (submitted).
PROJECT: ENTACT U.S. Environmental Protection Agency’s Non-Targeted Analysis Collaborative Trial
COMMENT: CONFIDENCE standard compound
COMMENT: INTERNAL_ID 688
COMMENT: DATASET 20200303_ENTACT_RP_MIX506
COMMENT: DATA_PROCESSING MERGING RMBmix ver. 0.2.7
COMMENT: DATA_PROCESSING PRESCREENING Shinyscreen ver. 0.8.0
COMMENT: ORIGINAL_ACQUISITION_NO 8105
COMMENT: ORIGINAL_PRECURSOR_SCAN_NO 8104
COMMENT: RAW_DATA available as MSV000091754 at [DOI:10.25345/C5S46HG75]
CH$NAME: 1-Cyclohexylpyrrolidin-2-one
CH$NAME: N-Cyclohexyl-2-pyrrolidone
CH$COMPOUND_CLASS: N/A; Environmental Standard
CH$FORMULA: C10H17NO
CH$EXACT_MASS: 167.1310
CH$SMILES: O=C1CCCN1C1CCCCC1
CH$IUPAC: InChI=1S/C10H17NO/c12-10-7-4-8-11(10)9-5-2-1-3-6-9/h9H,1-8H2
CH$LINK: CAS 6837-24-7
CH$LINK: PUBCHEM CID:81278
CH$LINK: INCHIKEY PZYDAVFRVJXFHS-UHFFFAOYSA-N
CH$LINK: CHEMSPIDER 73333
AC$INSTRUMENT: Q Exactive Orbitrap (Thermo Scientific)
AC$INSTRUMENT_TYPE: LC-ESI-QFT
AC$MASS_SPECTROMETRY: MS_TYPE MS2
AC$MASS_SPECTROMETRY: ION_MODE POSITIVE
AC$MASS_SPECTROMETRY: IONIZATION ESI
AC$MASS_SPECTROMETRY: FRAGMENTATION_MODE HCD
AC$MASS_SPECTROMETRY: COLLISION_ENERGY 45
AC$MASS_SPECTROMETRY: RESOLUTION 17500
AC$CHROMATOGRAPHY: COLUMN_NAME Acquity BEH C18 1.7um, 2.1x150mm (Waters)
AC$CHROMATOGRAPHY: FLOW_GRADIENT 90/10 at 0-2 min, 0/100 at 15-20 min, 90/10 at 20.1-30 min
AC$CHROMATOGRAPHY: FLOW_RATE 0.20 mL/min
AC$CHROMATOGRAPHY: RETENTION_TIME 15.477 min
AC$CHROMATOGRAPHY: SOLVENT A 0.1% formic acid
AC$CHROMATOGRAPHY: SOLVENT B methanol
MS$FOCUSED_ION: BASE_PEAK 79.0211
MS$FOCUSED_ION: PRECURSOR_M/Z 168.1383
MS$FOCUSED_ION: PRECURSOR_TYPE [M+H]+
MS$FOCUSED_ION: PRECURSOR_INTENSITY 20750082.125
MS$DATA_PROCESSING: RECALIBRATE loess on assigned fragments and MS1
MS$DATA_PROCESSING: REANALYZE Peaks with additional N2/O included
MS$DATA_PROCESSING: WHOLE RMassBank 2.99.2
PK$SPLASH: splash10-00kr-9400000000-7c613a4f1dbb8aa958b9
PK$ANNOTATION: m/z tentative_formula formula_count mass error(ppm)
  53.0386 C4H5+ 1 53.0386 -0.36
  55.0542 C4H7+ 1 55.0542 -0.66
  69.0334 C4H5O+ 1 69.0335 -1.76
  83.0854 C6H11+ 1 83.0855 -0.99
  86.0599 C4H8NO+ 1 86.06 -1.25
  168.1381 C10H18NO+ 1 168.1383 -0.93
PK$NUM_PEAK: 6
PK$PEAK: m/z int. rel.int.
  53.0386 10921.7 1
  55.0542 557824.4 55
  69.0334 86864.1 8
  83.0854 1596941.5 158
  86.0599 10096474 999
  168.1381 5591518 553
//
