ACCESSION: MSBNK-LCSB-LU125504
RECORD_TITLE: Thiophanate; LC-ESI-QFT; MS2; CE: 60; R=17500; [M+H]+
DATE: 2020.08.19
AUTHORS: Elapavalore, A.; Kondić, T.; Singh, R.; Schymanski, E.
LICENSE: CC BY
COPYRIGHT: Copyright © 2019 by Environmental Cheminformatics, LCSB, University of Luxembourg, Luxembourg
PUBLICATION: Elapavalore, A.; Kondić, T.; et al., Adding Open Spectral Data to MassBank and PubChem Using Open Source Tools to Support Non-Targeted Exposomics of Mixtures (submitted).
PROJECT: ENTACT U.S. Environmental Protection Agency’s Non-Targeted Analysis Collaborative Trial
COMMENT: CONFIDENCE standard compound
COMMENT: INTERNAL_ID 1255
COMMENT: DATASET 20200303_ENTACT_RP_MIX504
COMMENT: DATA_PROCESSING MERGING RMBmix ver. 0.2.7
COMMENT: DATA_PROCESSING PRESCREENING Shinyscreen ver. 0.8.0
COMMENT: ORIGINAL_ACQUISITION_NO 8603
COMMENT: ORIGINAL_PRECURSOR_SCAN_NO 8601
COMMENT: RAW_DATA available as MSV000091754 at [DOI:10.25345/C5S46HG75]
CH$NAME: Thiophanate
CH$NAME: N'-ethoxycarbonyl-N-[2-[(N-ethoxycarbonyl-C-sulfanylcarbonimidoyl)amino]phenyl]carbamimidothioic acid
CH$COMPOUND_CLASS: N/A; Environmental Standard
CH$FORMULA: C14H18N4O4S2
CH$EXACT_MASS: 370.0769
CH$SMILES: CCOC(=O)NC(=S)NC1=C(NC(=S)NC(=O)OCC)C=CC=C1
CH$IUPAC: InChI=1S/C14H18N4O4S2/c1-3-21-13(19)17-11(23)15-9-7-5-6-8-10(9)16-12(24)18-14(20)22-4-2/h5-8H,3-4H2,1-2H3,(H2,15,17,19,23)(H2,16,18,20,24)
CH$LINK: CAS 37359-51-6
CH$LINK: CHEBI CHEBI:82060
CH$LINK: CHEMSPIDER 2297684
CH$LINK: INCHIKEY YFNCATAIYKQPOO-UHFFFAOYSA-N
CH$LINK: KEGG C18918
CH$LINK: PUBCHEM CID:3032792
AC$INSTRUMENT: Q Exactive Orbitrap (Thermo Scientific)
AC$INSTRUMENT_TYPE: LC-ESI-QFT
AC$MASS_SPECTROMETRY: MS_TYPE MS2
AC$MASS_SPECTROMETRY: ION_MODE POSITIVE
AC$MASS_SPECTROMETRY: IONIZATION ESI
AC$MASS_SPECTROMETRY: FRAGMENTATION_MODE HCD
AC$MASS_SPECTROMETRY: COLLISION_ENERGY 60
AC$MASS_SPECTROMETRY: RESOLUTION 17500
AC$CHROMATOGRAPHY: COLUMN_NAME Acquity BEH C18 1.7um, 2.1x150mm (Waters)
AC$CHROMATOGRAPHY: FLOW_GRADIENT 90/10 at 0-2 min, 0/100 at 15-20 min, 90/10 at 20.1-30 min
AC$CHROMATOGRAPHY: FLOW_RATE 0.20 mL/min
AC$CHROMATOGRAPHY: RETENTION_TIME 16.519 min
AC$CHROMATOGRAPHY: SOLVENT A 0.1% formic acid
AC$CHROMATOGRAPHY: SOLVENT B methanol
MS$FOCUSED_ION: BASE_PEAK 79.0212
MS$FOCUSED_ION: PRECURSOR_M/Z 371.0842
MS$FOCUSED_ION: PRECURSOR_TYPE [M+H]+
MS$FOCUSED_ION: PRECURSOR_INTENSITY 13818279.25
MS$DATA_PROCESSING: RECALIBRATE loess on assigned fragments and MS1
MS$DATA_PROCESSING: REANALYZE Peaks with additional N2/O included
MS$DATA_PROCESSING: WHOLE RMassBank 2.99.2
PK$SPLASH: splash10-0udi-3900000000-035b32d32f5b44bf4747
PK$ANNOTATION: m/z tentative_formula formula_count mass error(ppm)
  59.9902 CH2NS+ 1 59.9902 -0.15
  62.0236 CH4NO2+ 1 62.0237 -0.22
  65.0385 C5H5+ 1 65.0386 -1.04
  85.9695 C2NOS+ 1 85.9695 -0.13
  88.0216 C3H6NS+ 1 88.0215 0.25
  90.055 C3H8NO2+ 1 90.055 0.56
  92.0495 C6H6N+ 2 92.0495 -0.19
  93.0573 C6H7N+ 2 93.0573 0.16
  103.9801 C2H2NO2S+ 2 103.9801 -0.15
  107.0604 C6H7N2+ 2 107.0604 0.18
  109.076 C6H9N2+ 2 109.076 0.19
  118.0525 C7H6N2+ 2 118.0525 -0.29
  119.0604 C7H7N2+ 2 119.0604 0.32
  122.0059 C6H4NS+ 3 122.0059 -0.25
  124.0215 C6H6NS+ 3 124.0215 -0.07
  132.0115 C4H6NO2S+ 2 132.0114 1.13
  132.0553 C7H6N3+ 3 132.0556 -2.32
  133.0635 C7H7N3+ 3 133.0634 0.47
  134.0713 C7H8N3+ 3 134.0713 -0.08
  135.0138 C7H5NS+ 3 135.0137 0.68
  135.0552 C7H7N2O+ 2 135.0553 -0.58
  149.0169 C7H5N2S+ 2 149.0168 0.9
  150.0247 C7H6N2S+ 2 150.0246 0.71
  151.0324 C7H7N2S+ 2 151.0324 -0.28
  160.0505 C8H6N3O+ 3 160.0505 -0.22
  176.0278 C8H6N3S+ 4 176.0277 0.68
  178.0612 C8H8N3O2+ 3 178.0611 0.29
  192.989 C8H5N2S2+ 2 192.9889 0.66
  202.0071 C9H4N3OS+ 5 202.007 0.59
PK$NUM_PEAK: 29
PK$PEAK: m/z int. rel.int.
  59.9902 1143272.1 178
  62.0236 453300.4 70
  65.0385 19889.3 3
  85.9695 741562.5 115
  88.0216 10463.8 1
  90.055 22845.3 3
  92.0495 196744.2 30
  93.0573 795356.4 124
  103.9801 293984.3 45
  107.0604 92148.3 14
  109.076 334356.4 52
  118.0525 299002 46
  119.0604 152296.5 23
  122.0059 9716.7 1
  124.0215 18438.6 2
  132.0115 11424.6 1
  132.0553 19252 3
  133.0635 8930.6 1
  134.0713 358297.9 55
  135.0138 13795.7 2
  135.0552 68058.8 10
  149.0169 346191.5 53
  150.0247 31146.2 4
  151.0324 6407477.5 999
  160.0505 365354.1 56
  176.0278 44917.7 7
  178.0612 61367 9
  192.989 65250.3 10
  202.0071 8254 1
//
