ACCESSION: MSBNK-LCSB-LU068704
RECORD_TITLE: Indapamide; LC-ESI-QFT; MS2; CE: 60; R=17500; [M+H]+
DATE: 2020.08.19
AUTHORS: Elapavalore, A.; Kondić, T.; Singh, R.; Schymanski, E.
LICENSE: CC BY
COPYRIGHT: Copyright © 2019 by Environmental Cheminformatics, LCSB, University of Luxembourg, Luxembourg
PUBLICATION: Elapavalore, A.; Kondić, T.; et al., Adding Open Spectral Data to MassBank and PubChem Using Open Source Tools to Support Non-Targeted Exposomics of Mixtures (submitted).
PROJECT: ENTACT U.S. Environmental Protection Agency’s Non-Targeted Analysis Collaborative Trial
COMMENT: CONFIDENCE standard compound
COMMENT: INTERNAL_ID 687
COMMENT: DATASET 20200303_ENTACT_RP_MIX506
COMMENT: DATA_PROCESSING MERGING RMBmix ver. 0.2.7
COMMENT: DATA_PROCESSING PRESCREENING Shinyscreen ver. 0.8.0
COMMENT: ORIGINAL_ACQUISITION_NO 7849
COMMENT: ORIGINAL_PRECURSOR_SCAN_NO 7846
COMMENT: RAW_DATA available as MSV000091754 at [DOI:10.25345/C5S46HG75]
CH$NAME: Indapamide
CH$NAME: 4-chloro-N-(2-methyl-2,3-dihydroindol-1-yl)-3-sulfamoylbenzamide
CH$COMPOUND_CLASS: N/A; Environmental Standard
CH$FORMULA: C16H16ClN3O3S
CH$EXACT_MASS: 365.0601
CH$SMILES: CC1CC2=C(C=CC=C2)N1NC(=O)C1=CC(=C(Cl)C=C1)S(N)(=O)=O
CH$IUPAC: InChI=1S/C16H16ClN3O3S/c1-10-8-11-4-2-3-5-14(11)20(10)19-16(21)12-6-7-13(17)15(9-12)24(18,22)23/h2-7,9-10H,8H2,1H3,(H,19,21)(H2,18,22,23)
CH$LINK: CAS 26807-65-8
CH$LINK: CHEBI CHEBI:5893
CH$LINK: KEGG D00345
CH$LINK: PUBCHEM CID:3702
CH$LINK: INCHIKEY NDDAHWYSQHTHNT-UHFFFAOYSA-N
CH$LINK: CHEMSPIDER 3574
AC$INSTRUMENT: Q Exactive Orbitrap (Thermo Scientific)
AC$INSTRUMENT_TYPE: LC-ESI-QFT
AC$MASS_SPECTROMETRY: MS_TYPE MS2
AC$MASS_SPECTROMETRY: ION_MODE POSITIVE
AC$MASS_SPECTROMETRY: IONIZATION ESI
AC$MASS_SPECTROMETRY: FRAGMENTATION_MODE HCD
AC$MASS_SPECTROMETRY: COLLISION_ENERGY 60
AC$MASS_SPECTROMETRY: RESOLUTION 17500
AC$CHROMATOGRAPHY: COLUMN_NAME Acquity BEH C18 1.7um, 2.1x150mm (Waters)
AC$CHROMATOGRAPHY: FLOW_GRADIENT 90/10 at 0-2 min, 0/100 at 15-20 min, 90/10 at 20.1-30 min
AC$CHROMATOGRAPHY: FLOW_RATE 0.20 mL/min
AC$CHROMATOGRAPHY: RETENTION_TIME 15.072 min
AC$CHROMATOGRAPHY: SOLVENT A 0.1% formic acid
AC$CHROMATOGRAPHY: SOLVENT B methanol
MS$FOCUSED_ION: BASE_PEAK 79.0211
MS$FOCUSED_ION: PRECURSOR_M/Z 366.0674
MS$FOCUSED_ION: PRECURSOR_TYPE [M+H]+
MS$FOCUSED_ION: PRECURSOR_INTENSITY 1068817.375
MS$DATA_PROCESSING: RECALIBRATE loess on assigned fragments and MS1
MS$DATA_PROCESSING: REANALYZE Peaks with additional N2/O included
MS$DATA_PROCESSING: WHOLE RMassBank 2.99.2
PK$SPLASH: splash10-00l6-5900000000-09d88c17ca3d02ebde71
PK$ANNOTATION: m/z tentative_formula formula_count mass error(ppm)
  65.0385 C5H5+ 1 65.0386 -0.49
  91.0543 C7H7+ 1 91.0542 1.02
  105.0699 C8H9+ 2 105.0699 0.43
  107.0491 C7H7O+ 3 107.0491 -0.21
  109.0649 C7H9O+ 3 109.0648 0.77
  115.0541 C9H7+ 3 115.0542 -0.68
  117.0574 C8H7N+ 3 117.0573 0.67
  118.0652 C8H8N+ 3 118.0651 0.63
  119.0606 C7H7N2+ 3 119.0604 1.58
  130.0652 C9H8N+ 4 130.0651 0.36
  131.073 C9H9N+ 3 131.073 0.62
  132.0809 C9H10N+ 3 132.0808 0.98
  217.9671 C7H5ClNO3S+ 5 217.9673 -0.98
PK$NUM_PEAK: 13
PK$PEAK: m/z int. rel.int.
  65.0385 12753.1 64
  91.0543 197673.5 999
  105.0699 12968.5 65
  107.0491 1916.2 9
  109.0649 14952.2 75
  115.0541 2665.3 13
  117.0574 142222.7 718
  118.0652 17487.6 88
  119.0606 14958.2 75
  130.0652 7836.6 39
  131.073 4683.6 23
  132.0809 143516.8 725
  217.9671 5255.6 26
//
