ACCESSION: MSBNK-LCSB-LU063103
RECORD_TITLE: SSR161421; LC-ESI-QFT; MS2; CE: 45; R=17500; [M+H]+
DATE: 2020.08.19
AUTHORS: Elapavalore, A.; Kondić, T.; Singh, R.; Schymanski, E.
LICENSE: CC BY
COPYRIGHT: Copyright © 2019 by Environmental Cheminformatics, LCSB, University of Luxembourg, Luxembourg
PUBLICATION: Elapavalore, A.; Kondić, T.; et al., Adding Open Spectral Data to MassBank and PubChem Using Open Source Tools to Support Non-Targeted Exposomics of Mixtures (submitted).
PROJECT: ENTACT U.S. Environmental Protection Agency’s Non-Targeted Analysis Collaborative Trial
COMMENT: CONFIDENCE standard compound
COMMENT: INTERNAL_ID 631
COMMENT: DATASET 20200303_ENTACT_RP_MIX506
COMMENT: DATA_PROCESSING MERGING RMBmix ver. 0.2.7
COMMENT: DATA_PROCESSING PRESCREENING Shinyscreen ver. 0.8.0
COMMENT: ORIGINAL_ACQUISITION_NO 8870
COMMENT: ORIGINAL_PRECURSOR_SCAN_NO 8865
COMMENT: RAW_DATA available as MSV000091754 at [DOI:10.25345/C5S46HG75]
CH$NAME: SSR161421
CH$NAME: N-[4-(benzylamino)-3-cyanoquinolin-2-yl]-4-methoxybenzamide
CH$COMPOUND_CLASS: N/A; Environmental Standard
CH$FORMULA: C25H20N4O2
CH$EXACT_MASS: 408.1586
CH$SMILES: COC1=CC=C(C=C1)C(=O)NC1=C(C#N)C(NCC2=CC=CC=C2)=C2C=CC=CC2=N1
CH$IUPAC: InChI=1S/C25H20N4O2/c1-31-19-13-11-18(12-14-19)25(30)29-24-21(15-26)23(20-9-5-6-10-22(20)28-24)27-16-17-7-3-2-4-8-17/h2-14H,16H2,1H3,(H2,27,28,29,30)
CH$LINK: PUBCHEM CID:10201497
CH$LINK: INCHIKEY FFHQNQNMELQOEF-UHFFFAOYSA-N
CH$LINK: CHEMSPIDER 8376996
AC$INSTRUMENT: Q Exactive Orbitrap (Thermo Scientific)
AC$INSTRUMENT_TYPE: LC-ESI-QFT
AC$MASS_SPECTROMETRY: MS_TYPE MS2
AC$MASS_SPECTROMETRY: ION_MODE POSITIVE
AC$MASS_SPECTROMETRY: IONIZATION ESI
AC$MASS_SPECTROMETRY: FRAGMENTATION_MODE HCD
AC$MASS_SPECTROMETRY: COLLISION_ENERGY 45
AC$MASS_SPECTROMETRY: RESOLUTION 17500
AC$CHROMATOGRAPHY: COLUMN_NAME Acquity BEH C18 1.7um, 2.1x150mm (Waters)
AC$CHROMATOGRAPHY: FLOW_GRADIENT 90/10 at 0-2 min, 0/100 at 15-20 min, 90/10 at 20.1-30 min
AC$CHROMATOGRAPHY: FLOW_RATE 0.20 mL/min
AC$CHROMATOGRAPHY: RETENTION_TIME 16.963 min
AC$CHROMATOGRAPHY: SOLVENT A 0.1% formic acid
AC$CHROMATOGRAPHY: SOLVENT B methanol
MS$FOCUSED_ION: BASE_PEAK 79.0211
MS$FOCUSED_ION: PRECURSOR_M/Z 409.1659
MS$FOCUSED_ION: PRECURSOR_TYPE [M+H]+
MS$FOCUSED_ION: PRECURSOR_INTENSITY 20566598
MS$DATA_PROCESSING: RECALIBRATE loess on assigned fragments and MS1
MS$DATA_PROCESSING: REANALYZE Peaks with additional N2/O included
MS$DATA_PROCESSING: WHOLE RMassBank 2.99.2
PK$SPLASH: splash10-000i-0900000000-46fd99401e296fb68ae1
PK$ANNOTATION: m/z tentative_formula formula_count mass error(ppm)
  53.0386 C4H5+ 1 53.0386 0.15
  77.0382 C6H5+ 1 77.0386 -4.69
  79.0541 C6H7+ 1 79.0542 -0.98
  91.0542 C7H7+ 1 91.0542 -0.4
  92.0255 C6H4O+ 2 92.0257 -2.27
  95.0491 C6H7O+ 2 95.0491 -0.54
  105.0447 C6H5N2+ 1 105.0447 -0.53
  107.0491 C7H7O+ 2 107.0491 -0.28
  125.0597 C7H9O2+ 2 125.0597 -0.35
  135.0439 C8H7O2+ 2 135.0441 -0.9
  173.0711 C10H9N2O+ 1 173.0709 0.95
  231.0914 C16H11N2+ 1 231.0917 -1.19
  258.1025 C17H12N3+ 2 258.1026 -0.24
  276.1132 C17H14N3O+ 2 276.1131 0.25
  391.1558 C25H19N4O+ 1 391.1553 1.12
PK$NUM_PEAK: 15
PK$PEAK: m/z int. rel.int.
  53.0386 107642.8 3
  77.0382 55103.1 2
  79.0541 78543.7 2
  91.0542 749786 27
  92.0255 159875.4 5
  95.0491 313561.8 11
  105.0447 124233.2 4
  107.0491 55394.4 2
  125.0597 469954.5 17
  135.0439 26885220 999
  173.0711 33837.8 1
  231.0914 28928.2 1
  258.1025 57615.7 2
  276.1132 34399.5 1
  391.1558 50825.6 1
//
