ACCESSION: MSBNK-LCSB-LU073906
RECORD_TITLE: 3-Dimethylaminophenol; LC-ESI-QFT; MS2; CE: 90; R=17500; [M+H]+
DATE: 2020.08.19
AUTHORS: Elapavalore, A.; Kondić, T.; Singh, R.; Schymanski, E.
LICENSE: CC BY
COPYRIGHT: Copyright © 2019 by Environmental Cheminformatics, LCSB, University of Luxembourg, Luxembourg
PUBLICATION: Elapavalore, A.; Kondić, T.; et al., Adding Open Spectral Data to MassBank and PubChem Using Open Source Tools to Support Non-Targeted Exposomics of Mixtures (submitted).
PROJECT: ENTACT U.S. Environmental Protection Agency’s Non-Targeted Analysis Collaborative Trial
COMMENT: CONFIDENCE standard compound
COMMENT: INTERNAL_ID 739
COMMENT: DATASET 20200303_ENTACT_RP_MIX501
COMMENT: DATA_PROCESSING MERGING RMBmix ver. 0.2.7
COMMENT: DATA_PROCESSING PRESCREENING Shinyscreen ver. 0.8.0
COMMENT: ORIGINAL_ACQUISITION_NO 1949
COMMENT: ORIGINAL_PRECURSOR_SCAN_NO 1947
COMMENT: RAW_DATA available as MSV000091754 at [DOI:10.25345/C5S46HG75]
CH$NAME: 3-Dimethylaminophenol
CH$NAME: 3-(dimethylamino)phenol
CH$COMPOUND_CLASS: N/A; Environmental Standard
CH$FORMULA: C8H11NO
CH$EXACT_MASS: 137.0841
CH$SMILES: CN(C)C1=CC=CC(O)=C1
CH$IUPAC: InChI=1S/C8H11NO/c1-9(2)7-4-3-5-8(10)6-7/h3-6,10H,1-2H3
CH$LINK: CAS 99-07-0
CH$LINK: PUBCHEM CID:7421
CH$LINK: INCHIKEY MESJRHHDBDCQTH-UHFFFAOYSA-N
CH$LINK: CHEMSPIDER 7143
AC$INSTRUMENT: Q Exactive Orbitrap (Thermo Scientific)
AC$INSTRUMENT_TYPE: LC-ESI-QFT
AC$MASS_SPECTROMETRY: MS_TYPE MS2
AC$MASS_SPECTROMETRY: ION_MODE POSITIVE
AC$MASS_SPECTROMETRY: IONIZATION ESI
AC$MASS_SPECTROMETRY: FRAGMENTATION_MODE HCD
AC$MASS_SPECTROMETRY: COLLISION_ENERGY 90
AC$MASS_SPECTROMETRY: RESOLUTION 17500
AC$CHROMATOGRAPHY: COLUMN_NAME Acquity BEH C18 1.7um, 2.1x150mm (Waters)
AC$CHROMATOGRAPHY: FLOW_GRADIENT 90/10 at 0-2 min, 0/100 at 15-20 min, 90/10 at 20.1-30 min
AC$CHROMATOGRAPHY: FLOW_RATE 0.20 mL/min
AC$CHROMATOGRAPHY: RETENTION_TIME 3.789 min
AC$CHROMATOGRAPHY: SOLVENT A 0.1% formic acid
AC$CHROMATOGRAPHY: SOLVENT B methanol
MS$FOCUSED_ION: BASE_PEAK 79.0211
MS$FOCUSED_ION: PRECURSOR_M/Z 138.0913
MS$FOCUSED_ION: PRECURSOR_TYPE [M+H]+
MS$FOCUSED_ION: PRECURSOR_INTENSITY 4953660.84375
MS$DATA_PROCESSING: RECALIBRATE loess on assigned fragments and MS1
MS$DATA_PROCESSING: REANALYZE Peaks with additional N2/O included
MS$DATA_PROCESSING: WHOLE RMassBank 2.99.2
PK$SPLASH: splash10-00di-0900000000-78735e0de3609e561c31
PK$ANNOTATION: m/z tentative_formula formula_count mass error(ppm)
  65.0386 C5H5+ 1 65.0386 -0.4
  78.0463 C6H6+ 1 78.0464 -0.74
  79.0542 C6H7+ 1 79.0542 -0.77
  80.0494 C5H6N+ 1 80.0495 -0.35
  86.0035 C6N+ 1 86.0025 11.9
  94.0413 C6H6O+ 1 94.0413 0.05
  94.0651 C6H8N+ 1 94.0651 0.16
  95.0491 C6H7O+ 1 95.0491 -0.56
  95.0729 C6H9N+ 1 95.073 -0.38
  106.0651 C7H8N+ 1 106.0651 -0.08
  107.0493 C7H7O+ 1 107.0491 1.73
  108.0444 C6H6NO+ 1 108.0444 -0.06
  122.06 C7H8NO+ 1 122.06 -0.02
  123.0678 C7H9NO+ 1 123.0679 -0.72
  136.0757 C8H10NO+ 1 136.0757 0.3
  138.0913 C8H12NO+ 1 138.0913 -0.1
PK$NUM_PEAK: 16
PK$PEAK: m/z int. rel.int.
  65.0386 13452 8
  78.0463 8295.1 5
  79.0542 5545.2 3
  80.0494 4646.9 2
  86.0035 10485.1 6
  94.0413 86269.6 54
  94.0651 19597.7 12
  95.0491 25732.8 16
  95.0729 8612.6 5
  106.0651 37952.7 23
  107.0493 3413.4 2
  108.0444 7275.6 4
  122.06 1591020.6 999
  123.0678 1248866.9 784
  136.0757 3864 2
  138.0913 11964.2 7
//
