ACCESSION: MSBNK-LCSB-LU028151
RECORD_TITLE: Chloridazon; LC-ESI-QFT; MS2; CE: 15; R=17500; [M-H]-
DATE: 2020.08.19
AUTHORS: Elapavalore, A.; Kondić, T.; Singh, R.; Schymanski, E.
LICENSE: CC BY
COPYRIGHT: Copyright © 2019 by Environmental Cheminformatics, LCSB, University of Luxembourg, Luxembourg
PUBLICATION: Elapavalore, A.; Kondić, T.; et al., Adding Open Spectral Data to MassBank and PubChem Using Open Source Tools to Support Non-Targeted Exposomics of Mixtures (submitted).
PROJECT: ENTACT U.S. Environmental Protection Agency’s Non-Targeted Analysis Collaborative Trial
COMMENT: CONFIDENCE standard compound
COMMENT: INTERNAL_ID 281
COMMENT: DATASET 20200303_ENTACT_RP_MIX505
COMMENT: DATA_PROCESSING MERGING RMBmix ver. 0.2.7
COMMENT: DATA_PROCESSING PRESCREENING Shinyscreen ver. 0.8.0
COMMENT: ORIGINAL_ACQUISITION_NO 3282
COMMENT: ORIGINAL_PRECURSOR_SCAN_NO 3278
COMMENT: RAW_DATA available as MSV000091754 at [DOI:10.25345/C5S46HG75]
CH$NAME: Chloridazon
CH$NAME: 5-amino-4-chloro-2-phenylpyridazin-3-one
CH$COMPOUND_CLASS: N/A; Environmental Standard
CH$FORMULA: C10H8ClN3O
CH$EXACT_MASS: 221.0356
CH$SMILES: NC1=C(Cl)C(=O)N(N=C1)C1=CC=CC=C1
CH$IUPAC: InChI=1S/C10H8ClN3O/c11-9-8(12)6-13-14(10(9)15)7-4-2-1-3-5-7/h1-6H,12H2
CH$LINK: CAS 1698-60-8
CH$LINK: CHEBI CHEBI:81838
CH$LINK: KEGG C18570
CH$LINK: PUBCHEM CID:15546
CH$LINK: INCHIKEY WYKYKTKDBLFHCY-UHFFFAOYSA-N
CH$LINK: CHEMSPIDER 14790
AC$INSTRUMENT: Q Exactive Orbitrap (Thermo Scientific)
AC$INSTRUMENT_TYPE: LC-ESI-QFT
AC$MASS_SPECTROMETRY: MS_TYPE MS2
AC$MASS_SPECTROMETRY: ION_MODE NEGATIVE
AC$MASS_SPECTROMETRY: IONIZATION ESI
AC$MASS_SPECTROMETRY: FRAGMENTATION_MODE HCD
AC$MASS_SPECTROMETRY: COLLISION_ENERGY 15
AC$MASS_SPECTROMETRY: RESOLUTION 17500
AC$CHROMATOGRAPHY: COLUMN_NAME Acquity BEH C18 1.7um, 2.1x150mm (Waters)
AC$CHROMATOGRAPHY: FLOW_GRADIENT 90/10 at 0-2 min, 0/100 at 15-20 min, 90/10 at 20.1-30 min
AC$CHROMATOGRAPHY: FLOW_RATE 0.20 mL/min
AC$CHROMATOGRAPHY: RETENTION_TIME 13.150 min
AC$CHROMATOGRAPHY: SOLVENT A 0.1% formic acid
AC$CHROMATOGRAPHY: SOLVENT B methanol
MS$FOCUSED_ION: BASE_PEAK 118.0299
MS$FOCUSED_ION: PRECURSOR_M/Z 220.0283
MS$FOCUSED_ION: PRECURSOR_TYPE [M-H]-
MS$FOCUSED_ION: PRECURSOR_INTENSITY 6247071.258789
MS$DATA_PROCESSING: RECALIBRATE loess on assigned fragments and MS1
MS$DATA_PROCESSING: REANALYZE Peaks with additional N2/O included
MS$DATA_PROCESSING: WHOLE RMassBank 2.99.2
PK$SPLASH: splash10-00di-0090000000-edfdc4249afacb87c807
PK$ANNOTATION: m/z tentative_formula formula_count mass error(ppm)
  60.9725 CClN- 1 60.9725 -0.25
  65.0146 C3HN2- 1 65.0145 0.58
  65.9984 C3NO- 2 65.9985 -1.42
  73.9803 C2HClN- 1 73.9803 0.19
  74.9643 C2ClO- 1 74.9643 0.12
  100.9674 C3ClNO- 1 100.9674 -0.07
  100.9912 C3H2ClN2- 1 100.9912 0.33
  117.0458 C7H5N2- 1 117.0458 0.18
  118.0299 C7H4NO- 2 118.0298 0.46
  126.9706 C4ClN2O- 1 126.9705 1.23
  141.0455 C9H5N2- 1 141.0458 -2.37
  144.0568 C8H6N3- 1 144.0567 0.51
  150.0116 C8H5ClN- 2 150.0116 0.08
  184.0517 C10H6N3O- 1 184.0516 0.54
  193.0168 C9H6ClN2O- 1 193.0174 -3.13
  220.0283 C10H7ClN3O- 1 220.0283 -0.06
PK$NUM_PEAK: 16
PK$PEAK: m/z int. rel.int.
  60.9725 4847.8 1
  65.0146 59828.5 15
  65.9984 20722.5 5
  73.9803 129373.6 33
  74.9643 79058.4 20
  100.9674 69660.6 17
  100.9912 92077 23
  117.0458 30776.1 7
  118.0299 11383.1 2
  126.9706 12912.5 3
  141.0455 4065.2 1
  144.0568 27438 7
  150.0116 62922.5 16
  184.0517 28142 7
  193.0168 5856.2 1
  220.0283 3885389.8 999
//
