ACCESSION: MSBNK-LCSB-LU092156
RECORD_TITLE: Fluometuron; LC-ESI-QFT; MS2; CE: 90; R=17500; [M-H]-
DATE: 2020.08.19
AUTHORS: Elapavalore, A.; Kondić, T.; Singh, R.; Schymanski, E.
LICENSE: CC BY
COPYRIGHT: Copyright © 2019 by Environmental Cheminformatics, LCSB, University of Luxembourg, Luxembourg
PUBLICATION: Elapavalore, A.; Kondić, T.; et al., Adding Open Spectral Data to MassBank and PubChem Using Open Source Tools to Support Non-Targeted Exposomics of Mixtures (submitted).
PROJECT: ENTACT U.S. Environmental Protection Agency’s Non-Targeted Analysis Collaborative Trial
COMMENT: CONFIDENCE standard compound
COMMENT: INTERNAL_ID 921
COMMENT: DATASET 20200303_ENTACT_RP_MIX508
COMMENT: DATA_PROCESSING MERGING RMBmix ver. 0.2.7
COMMENT: DATA_PROCESSING PRESCREENING Shinyscreen ver. 0.8.0
COMMENT: ORIGINAL_ACQUISITION_NO 4172
COMMENT: ORIGINAL_PRECURSOR_SCAN_NO 4171
COMMENT: RAW_DATA available as MSV000091754 at [DOI:10.25345/C5S46HG75]
CH$NAME: Fluometuron
CH$NAME: 1,1-dimethyl-3-[3-(trifluoromethyl)phenyl]urea
CH$COMPOUND_CLASS: N/A; Environmental Standard
CH$FORMULA: C10H11F3N2O
CH$EXACT_MASS: 232.0823
CH$SMILES: CN(C)C(=O)NC1=CC=CC(=C1)C(F)(F)F
CH$IUPAC: InChI=1S/C10H11F3N2O/c1-15(2)9(16)14-8-5-3-4-7(6-8)10(11,12)13/h3-6H,1-2H3,(H,14,16)
CH$LINK: CAS 2164-17-2
CH$LINK: CHEBI CHEBI:82012
CH$LINK: KEGG C18853
CH$LINK: PUBCHEM CID:16562
CH$LINK: INCHIKEY RZILCCPWPBTYDO-UHFFFAOYSA-N
CH$LINK: CHEMSPIDER 15702
AC$INSTRUMENT: Q Exactive Orbitrap (Thermo Scientific)
AC$INSTRUMENT_TYPE: LC-ESI-QFT
AC$MASS_SPECTROMETRY: MS_TYPE MS2
AC$MASS_SPECTROMETRY: ION_MODE NEGATIVE
AC$MASS_SPECTROMETRY: IONIZATION ESI
AC$MASS_SPECTROMETRY: FRAGMENTATION_MODE HCD
AC$MASS_SPECTROMETRY: COLLISION_ENERGY 90
AC$MASS_SPECTROMETRY: RESOLUTION 17500
AC$CHROMATOGRAPHY: COLUMN_NAME Acquity BEH C18 1.7um, 2.1x150mm (Waters)
AC$CHROMATOGRAPHY: FLOW_GRADIENT 90/10 at 0-2 min, 0/100 at 15-20 min, 90/10 at 20.1-30 min
AC$CHROMATOGRAPHY: FLOW_RATE 0.20 mL/min
AC$CHROMATOGRAPHY: RETENTION_TIME 16.063 min
AC$CHROMATOGRAPHY: SOLVENT A 0.1% formic acid
AC$CHROMATOGRAPHY: SOLVENT B methanol
MS$FOCUSED_ION: BASE_PEAK 221.0818
MS$FOCUSED_ION: PRECURSOR_M/Z 231.0751
MS$FOCUSED_ION: PRECURSOR_TYPE [M-H]-
MS$FOCUSED_ION: PRECURSOR_INTENSITY 18169718.52441
MS$DATA_PROCESSING: RECALIBRATE loess on assigned fragments and MS1
MS$DATA_PROCESSING: REANALYZE Peaks with additional N2/O included
MS$DATA_PROCESSING: WHOLE RMassBank 2.99.2
PK$SPLASH: splash10-0002-5900000000-ae771fa44a020ad39c28
PK$ANNOTATION: m/z tentative_formula formula_count mass error(ppm)
  65.9985 C3NO- 1 65.9985 -0.12
  68.9957 CF3- 1 68.9958 -0.72
  90.0352 C6H4N- 2 90.0349 3.62
  92.9957 C3F3- 1 92.9958 -0.33
  94.9937 C5FO- 1 94.9939 -1.63
  98.0037 C7N- 2 98.0036 0.53
  100.0193 C7H2N- 2 100.0193 0.22
  118.0099 C7HFN- 2 118.0099 0.15
  118.994 C7FO- 1 118.9939 1
  120.0254 C7H3FN- 2 120.0255 -0.49
  136.0203 C7H3FNO- 2 136.0204 -1.12
  138.0161 C7H2F2N- 2 138.0161 0.03
  140.0316 C7H4F2N- 2 140.0317 -1.23
  143.0116 C7H2F3- 1 143.0114 1.54
  146.0048 C8HFNO- 1 146.0048 0.19
  158.0224 C7H3F3N- 1 158.0223 0.61
  160.038 C7H5F3N- 1 160.038 0.06
  166.0109 C8H2F2NO- 1 166.011 -0.5
  186.0173 C8H3F3NO- 1 186.0172 0.32
  200.0205 C8H3F3N2O- 1 200.0203 1.04
  215.0445 C9H6F3N2O- 1 215.0438 3.46
PK$NUM_PEAK: 21
PK$PEAK: m/z int. rel.int.
  65.9985 5009.2 11
  68.9957 4960.4 11
  90.0352 2139.6 4
  92.9957 5239.4 11
  94.9937 3630.6 8
  98.0037 443306.7 999
  100.0193 10166 22
  118.0099 141636.8 319
  118.994 7817.3 17
  120.0254 22851.3 51
  136.0203 3385.8 7
  138.0161 32969.5 74
  140.0316 3799.2 8
  143.0116 7308.8 16
  146.0048 233655.8 526
  158.0224 7898.6 17
  160.038 82092.6 184
  166.0109 56619.8 127
  186.0173 96357.1 217
  200.0205 8215.9 18
  215.0445 7096.2 15
//
