ACCESSION: MSBNK-LCSB-LU121101
RECORD_TITLE: Glybenclamide; LC-ESI-QFT; MS2; CE: 15; R=17500; [M+H]+
DATE: 2020.08.19
AUTHORS: Elapavalore, A.; Kondić, T.; Singh, R.; Schymanski, E.
LICENSE: CC BY
COPYRIGHT: Copyright © 2019 by Environmental Cheminformatics, LCSB, University of Luxembourg, Luxembourg
PUBLICATION: Elapavalore, A.; Kondić, T.; et al., Adding Open Spectral Data to MassBank and PubChem Using Open Source Tools to Support Non-Targeted Exposomics of Mixtures (submitted).
PROJECT: ENTACT U.S. Environmental Protection Agency’s Non-Targeted Analysis Collaborative Trial
COMMENT: CONFIDENCE standard compound
COMMENT: INTERNAL_ID 1211
COMMENT: DATASET 20200303_ENTACT_RP_MIX504
COMMENT: DATA_PROCESSING MERGING RMBmix ver. 0.2.7
COMMENT: DATA_PROCESSING PRESCREENING Shinyscreen ver. 0.8.0
COMMENT: ORIGINAL_ACQUISITION_NO 9326
COMMENT: ORIGINAL_PRECURSOR_SCAN_NO 9324
COMMENT: RAW_DATA available as MSV000091754 at [DOI:10.25345/C5S46HG75]
CH$NAME: Glybenclamide
CH$NAME: Glyburide
CH$NAME: 5-chloro-N-[2-[4-(cyclohexylcarbamoylsulfamoyl)phenyl]ethyl]-2-methoxybenzamide
CH$COMPOUND_CLASS: N/A; Environmental Standard
CH$FORMULA: C23H28ClN3O5S
CH$EXACT_MASS: 493.1438
CH$SMILES: COC1=C(C=C(Cl)C=C1)C(=O)NCCC1=CC=C(C=C1)S(=O)(=O)NC(=O)NC1CCCCC1
CH$IUPAC: InChI=1S/C23H28ClN3O5S/c1-32-21-12-9-17(24)15-20(21)22(28)25-14-13-16-7-10-19(11-8-16)33(30,31)27-23(29)26-18-5-3-2-4-6-18/h7-12,15,18H,2-6,13-14H2,1H3,(H,25,28)(H2,26,27,29)
CH$LINK: CAS 10238-21-8
CH$LINK: CHEBI CHEBI:5441
CH$LINK: KEGG C07022
CH$LINK: PUBCHEM CID:3488
CH$LINK: INCHIKEY ZNNLBTZKUZBEKO-UHFFFAOYSA-N
CH$LINK: CHEMSPIDER 3368
AC$INSTRUMENT: Q Exactive Orbitrap (Thermo Scientific)
AC$INSTRUMENT_TYPE: LC-ESI-QFT
AC$MASS_SPECTROMETRY: MS_TYPE MS2
AC$MASS_SPECTROMETRY: ION_MODE POSITIVE
AC$MASS_SPECTROMETRY: IONIZATION ESI
AC$MASS_SPECTROMETRY: FRAGMENTATION_MODE HCD
AC$MASS_SPECTROMETRY: COLLISION_ENERGY 15
AC$MASS_SPECTROMETRY: RESOLUTION 17500
AC$CHROMATOGRAPHY: COLUMN_NAME Acquity BEH C18 1.7um, 2.1x150mm (Waters)
AC$CHROMATOGRAPHY: FLOW_GRADIENT 90/10 at 0-2 min, 0/100 at 15-20 min, 90/10 at 20.1-30 min
AC$CHROMATOGRAPHY: FLOW_RATE 0.20 mL/min
AC$CHROMATOGRAPHY: RETENTION_TIME 17.866 min
AC$CHROMATOGRAPHY: SOLVENT A 0.1% formic acid
AC$CHROMATOGRAPHY: SOLVENT B methanol
MS$FOCUSED_ION: BASE_PEAK 79.0212
MS$FOCUSED_ION: PRECURSOR_M/Z 494.1511
MS$FOCUSED_ION: PRECURSOR_TYPE [M+H]+
MS$FOCUSED_ION: PRECURSOR_INTENSITY 7739135.5
MS$DATA_PROCESSING: RECALIBRATE loess on assigned fragments and MS1
MS$DATA_PROCESSING: REANALYZE Peaks with additional N2/O included
MS$DATA_PROCESSING: WHOLE RMassBank 2.99.2
PK$SPLASH: splash10-014i-0009000000-85dec632ee350a0d4d14
PK$ANNOTATION: m/z tentative_formula formula_count mass error(ppm)
  100.1121 C6H14N+ 2 100.1121 0.44
  169.005 C8H6ClO2+ 8 169.0051 -0.47
  304.0736 C16H15ClNO3+ 10 304.0735 0.22
  352.0403 C16H15ClNO4S+ 9 352.0405 -0.56
  369.0674 C16H18ClN2O4S+ 8 369.067 0.9
  370.0509 C16H17ClNO5S+ 7 370.051 -0.44
  395.0468 C17H16ClN2O5S+ 6 395.0463 1.18
PK$NUM_PEAK: 7
PK$PEAK: m/z int. rel.int.
  100.1121 110786.3 38
  169.005 104566 36
  304.0736 12282.6 4
  352.0403 8347.3 2
  369.0674 2853460.5 999
  370.0509 20428.2 7
  395.0468 196690 68
//
