ACCESSION: MSBNK-LCSB-LU054302
RECORD_TITLE: 1,5-Naphthalenediamine; LC-ESI-QFT; MS2; CE: 30; R=17500; [M+H]+
DATE: 2020.08.19
AUTHORS: Elapavalore, A.; Kondić, T.; Singh, R.; Schymanski, E.
LICENSE: CC BY
COPYRIGHT: Copyright © 2019 by Environmental Cheminformatics, LCSB, University of Luxembourg, Luxembourg
PUBLICATION: Elapavalore, A.; Kondić, T.; et al., Adding Open Spectral Data to MassBank and PubChem Using Open Source Tools to Support Non-Targeted Exposomics of Mixtures (submitted).
PROJECT: ENTACT U.S. Environmental Protection Agency’s Non-Targeted Analysis Collaborative Trial
COMMENT: CONFIDENCE standard compound
COMMENT: INTERNAL_ID 543
COMMENT: DATASET 20200303_ENTACT_RP_MIX506
COMMENT: DATA_PROCESSING MERGING RMBmix ver. 0.2.7
COMMENT: DATA_PROCESSING PRESCREENING Shinyscreen ver. 0.8.0
COMMENT: ORIGINAL_ACQUISITION_NO 1314
COMMENT: ORIGINAL_PRECURSOR_SCAN_NO 1311
COMMENT: RAW_DATA available as MSV000091754 at [DOI:10.25345/C5S46HG75]
CH$NAME: 1,5-Naphthalenediamine
CH$NAME: naphthalene-1,5-diamine
CH$COMPOUND_CLASS: N/A; Environmental Standard
CH$FORMULA: C10H10N2
CH$EXACT_MASS: 158.0844
CH$SMILES: NC1=CC=CC2=C(N)C=CC=C12
CH$IUPAC: InChI=1S/C10H10N2/c11-9-5-1-3-7-8(9)4-2-6-10(7)12/h1-6H,11-12H2
CH$LINK: CAS 2243-62-1
CH$LINK: CHEBI CHEBI:53003
CH$LINK: KEGG C19463
CH$LINK: PUBCHEM CID:16720
CH$LINK: INCHIKEY KQSABULTKYLFEV-UHFFFAOYSA-N
CH$LINK: CHEMSPIDER 15851
AC$INSTRUMENT: Q Exactive Orbitrap (Thermo Scientific)
AC$INSTRUMENT_TYPE: LC-ESI-QFT
AC$MASS_SPECTROMETRY: MS_TYPE MS2
AC$MASS_SPECTROMETRY: ION_MODE POSITIVE
AC$MASS_SPECTROMETRY: IONIZATION ESI
AC$MASS_SPECTROMETRY: FRAGMENTATION_MODE HCD
AC$MASS_SPECTROMETRY: COLLISION_ENERGY 30
AC$MASS_SPECTROMETRY: RESOLUTION 17500
AC$CHROMATOGRAPHY: COLUMN_NAME Acquity BEH C18 1.7um, 2.1x150mm (Waters)
AC$CHROMATOGRAPHY: FLOW_GRADIENT 90/10 at 0-2 min, 0/100 at 15-20 min, 90/10 at 20.1-30 min
AC$CHROMATOGRAPHY: FLOW_RATE 0.20 mL/min
AC$CHROMATOGRAPHY: RETENTION_TIME 2.581 min
AC$CHROMATOGRAPHY: SOLVENT A 0.1% formic acid
AC$CHROMATOGRAPHY: SOLVENT B methanol
MS$FOCUSED_ION: BASE_PEAK 79.0211
MS$FOCUSED_ION: PRECURSOR_M/Z 159.0917
MS$FOCUSED_ION: PRECURSOR_TYPE [M+H]+
MS$FOCUSED_ION: PRECURSOR_INTENSITY 6510995.28125
MS$DATA_PROCESSING: RECALIBRATE loess on assigned fragments and MS1
MS$DATA_PROCESSING: REANALYZE Peaks with additional N2/O included
MS$DATA_PROCESSING: WHOLE RMassBank 2.99.2
PK$SPLASH: splash10-0a4i-0900000000-d9c003e5ae69153ae38e
PK$ANNOTATION: m/z tentative_formula formula_count mass error(ppm)
  115.0539 C9H7+ 1 115.0542 -2.8
  118.0653 C8H8N+ 1 118.0651 1.47
  132.0809 C9H10N+ 1 132.0808 1.1
  142.0648 C10H8N+ 1 142.0651 -2.13
  143.0731 C10H9N+ 1 143.073 0.78
  158.084 C10H10N2+ 1 158.0838 0.71
  159.0917 C10H11N2+ 1 159.0917 -0.14
PK$NUM_PEAK: 7
PK$PEAK: m/z int. rel.int.
  115.0539 3908.6 1
  118.0653 4726.3 1
  132.0809 10277 4
  142.0648 10937.8 4
  143.0731 36488.2 15
  158.084 22690.9 9
  159.0917 2405918 999
//
