ACCESSION: MSBNK-LCSB-LU096405
RECORD_TITLE: Nonivamide; LC-ESI-QFT; MS2; CE: 75; R=17500; [M+H]+
DATE: 2020.08.19
AUTHORS: Elapavalore, A.; Kondić, T.; Singh, R.; Schymanski, E.
LICENSE: CC BY
COPYRIGHT: Copyright © 2019 by Environmental Cheminformatics, LCSB, University of Luxembourg, Luxembourg
PUBLICATION: Elapavalore, A.; Kondić, T.; et al., Adding Open Spectral Data to MassBank and PubChem Using Open Source Tools to Support Non-Targeted Exposomics of Mixtures (submitted).
PROJECT: ENTACT U.S. Environmental Protection Agency’s Non-Targeted Analysis Collaborative Trial
COMMENT: CONFIDENCE standard compound
COMMENT: INTERNAL_ID 964
COMMENT: DATASET 20200303_ENTACT_RP_MIX502
COMMENT: DATA_PROCESSING MERGING RMBmix ver. 0.2.7
COMMENT: DATA_PROCESSING PRESCREENING Shinyscreen ver. 0.8.0
COMMENT: ORIGINAL_ACQUISITION_NO 9289
COMMENT: ORIGINAL_PRECURSOR_SCAN_NO 9288
COMMENT: RAW_DATA available as MSV000091754 at [DOI:10.25345/C5S46HG75]
CH$NAME: Nonivamide
CH$NAME: N-[(4-hydroxy-3-methoxyphenyl)methyl]nonanamide
CH$COMPOUND_CLASS: N/A; Environmental Standard
CH$FORMULA: C17H27NO3
CH$EXACT_MASS: 293.1991
CH$SMILES: CCCCCCCCC(=O)NCC1=CC(OC)=C(O)C=C1
CH$IUPAC: InChI=1S/C17H27NO3/c1-3-4-5-6-7-8-9-17(20)18-13-14-10-11-15(19)16(12-14)21-2/h10-12,19H,3-9,13H2,1-2H3,(H,18,20)
CH$LINK: CAS 630-63-7
CH$LINK: CHEBI CHEBI:46936
CH$LINK: KEGG D08282
CH$LINK: PUBCHEM CID:2998
CH$LINK: INCHIKEY RGOVYLWUIBMPGK-UHFFFAOYSA-N
CH$LINK: CHEMSPIDER 2891
AC$INSTRUMENT: Q Exactive Orbitrap (Thermo Scientific)
AC$INSTRUMENT_TYPE: LC-ESI-QFT
AC$MASS_SPECTROMETRY: MS_TYPE MS2
AC$MASS_SPECTROMETRY: ION_MODE POSITIVE
AC$MASS_SPECTROMETRY: IONIZATION ESI
AC$MASS_SPECTROMETRY: FRAGMENTATION_MODE HCD
AC$MASS_SPECTROMETRY: COLLISION_ENERGY 75
AC$MASS_SPECTROMETRY: RESOLUTION 17500
AC$CHROMATOGRAPHY: COLUMN_NAME Acquity BEH C18 1.7um, 2.1x150mm (Waters)
AC$CHROMATOGRAPHY: FLOW_GRADIENT 90/10 at 0-2 min, 0/100 at 15-20 min, 90/10 at 20.1-30 min
AC$CHROMATOGRAPHY: FLOW_RATE 0.20 mL/min
AC$CHROMATOGRAPHY: RETENTION_TIME 17.928 min
AC$CHROMATOGRAPHY: SOLVENT A 0.1% formic acid
AC$CHROMATOGRAPHY: SOLVENT B methanol
MS$FOCUSED_ION: BASE_PEAK 79.0211
MS$FOCUSED_ION: PRECURSOR_M/Z 294.2064
MS$FOCUSED_ION: PRECURSOR_TYPE [M+H]+
MS$FOCUSED_ION: PRECURSOR_INTENSITY 6624106.4375
MS$DATA_PROCESSING: RECALIBRATE loess on assigned fragments and MS1
MS$DATA_PROCESSING: REANALYZE Peaks with additional N2/O included
MS$DATA_PROCESSING: WHOLE RMassBank 2.99.2
PK$SPLASH: splash10-0079-3900000000-a31096fff995095c6565
PK$ANNOTATION: m/z tentative_formula formula_count mass error(ppm)
  51.0231 C4H3+ 1 51.0229 3.16
  53.0387 C4H5+ 1 53.0386 2.32
  55.0179 C3H3O+ 1 55.0178 1.29
  55.0544 C4H7+ 1 55.0542 3
  57.0699 C4H9+ 1 57.0699 0.45
  65.0386 C5H5+ 1 65.0386 -0.35
  66.0464 C5H6+ 1 66.0464 -0.57
  67.0541 C5H7+ 1 67.0542 -1.81
  71.0855 C5H11+ 1 71.0855 -0.04
  77.0385 C6H5+ 1 77.0386 -0.58
  79.0542 C6H7+ 1 79.0542 -0.2
  81.0699 C6H9+ 1 81.0699 -0.23
  88.0758 C4H10NO+ 1 88.0757 1.22
  91.0542 C7H7+ 1 91.0542 0.12
  94.0413 C6H6O+ 1 94.0413 0.12
  95.0491 C6H7O+ 1 95.0491 -0.01
  105.0334 C7H5O+ 1 105.0335 -0.67
  107.0491 C7H7O+ 1 107.0491 -0.09
  109.0648 C7H9O+ 1 109.0648 0.06
  122.0362 C7H6O2+ 1 122.0362 0.06
  135.0441 C8H7O2+ 1 135.0441 0.43
  137.0597 C8H9O2+ 1 137.0597 0.24
  158.1539 C9H20NO+ 1 158.1539 -0.17
PK$NUM_PEAK: 23
PK$PEAK: m/z int. rel.int.
  51.0231 2237.7 3
  53.0387 5057.1 8
  55.0179 4345.3 7
  55.0544 1761.1 3
  57.0699 16344.1 28
  65.0386 10930.7 19
  66.0464 23520.2 41
  67.0541 3651 6
  71.0855 8255.8 14
  77.0385 3051.3 5
  79.0542 39654.8 70
  81.0699 25023.1 44
  88.0758 4668.3 8
  91.0542 31732.4 56
  94.0413 188574 333
  95.0491 12515.5 22
  105.0334 1851.7 3
  107.0491 16497.7 29
  109.0648 23674.2 41
  122.0362 351082.2 621
  135.0441 4849.8 8
  137.0597 564360.5 999
  158.1539 2960.2 5
//
