ACCESSION: MSBNK-LCSB-LU060301
RECORD_TITLE: 1-(4-Methoxyphenyl)-1-pentene-3-one; LC-ESI-QFT; MS2; CE: 15; R=17500; [M+H]+
DATE: 2020.08.19
AUTHORS: Elapavalore, A.; Kondić, T.; Singh, R.; Schymanski, E.
LICENSE: CC BY
COPYRIGHT: Copyright © 2019 by Environmental Cheminformatics, LCSB, University of Luxembourg, Luxembourg
PUBLICATION: Elapavalore, A.; Kondić, T.; et al., Adding Open Spectral Data to MassBank and PubChem Using Open Source Tools to Support Non-Targeted Exposomics of Mixtures (submitted).
PROJECT: ENTACT U.S. Environmental Protection Agency’s Non-Targeted Analysis Collaborative Trial
COMMENT: CONFIDENCE standard compound
COMMENT: INTERNAL_ID 603
COMMENT: DATASET 20200303_ENTACT_RP_MIX506
COMMENT: DATA_PROCESSING MERGING RMBmix ver. 0.2.7
COMMENT: DATA_PROCESSING PRESCREENING Shinyscreen ver. 0.8.0
COMMENT: ORIGINAL_ACQUISITION_NO 8924
COMMENT: ORIGINAL_PRECURSOR_SCAN_NO 8921
COMMENT: RAW_DATA available as MSV000091754 at [DOI:10.25345/C5S46HG75]
CH$NAME: 1-(4-Methoxyphenyl)-1-pentene-3-one
CH$NAME: 1-Penten-3-one, 1-(4-methoxyphenyl)-, (1E)-
CH$NAME: 1-(4-methoxyphenyl)pent-1-en-3-one
CH$COMPOUND_CLASS: N/A; Environmental Standard
CH$FORMULA: C12H14O2
CH$EXACT_MASS: 190.0994
CH$SMILES: CCC(=O)C=CC1=CC=C(OC)C=C1
CH$IUPAC: InChI=1S/C12H14O2/c1-3-11(13)7-4-10-5-8-12(14-2)9-6-10/h4-9H,3H2,1-2H3
CH$LINK: CAS 104-27-8
CH$LINK: PUBCHEM CID:61008
CH$LINK: INCHIKEY SLDQOBRACOQXGE-UHFFFAOYSA-N
CH$LINK: CHEMSPIDER 54969
AC$INSTRUMENT: Q Exactive Orbitrap (Thermo Scientific)
AC$INSTRUMENT_TYPE: LC-ESI-QFT
AC$MASS_SPECTROMETRY: MS_TYPE MS2
AC$MASS_SPECTROMETRY: ION_MODE POSITIVE
AC$MASS_SPECTROMETRY: IONIZATION ESI
AC$MASS_SPECTROMETRY: FRAGMENTATION_MODE HCD
AC$MASS_SPECTROMETRY: COLLISION_ENERGY 15
AC$MASS_SPECTROMETRY: RESOLUTION 17500
AC$CHROMATOGRAPHY: COLUMN_NAME Acquity BEH C18 1.7um, 2.1x150mm (Waters)
AC$CHROMATOGRAPHY: FLOW_GRADIENT 90/10 at 0-2 min, 0/100 at 15-20 min, 90/10 at 20.1-30 min
AC$CHROMATOGRAPHY: FLOW_RATE 0.20 mL/min
AC$CHROMATOGRAPHY: RETENTION_TIME 17.008 min
AC$CHROMATOGRAPHY: SOLVENT A 0.1% formic acid
AC$CHROMATOGRAPHY: SOLVENT B methanol
MS$FOCUSED_ION: BASE_PEAK 79.0211
MS$FOCUSED_ION: PRECURSOR_M/Z 191.1067
MS$FOCUSED_ION: PRECURSOR_TYPE [M+H]+
MS$FOCUSED_ION: PRECURSOR_INTENSITY 7460897.3125
MS$DATA_PROCESSING: RECALIBRATE loess on assigned fragments and MS1
MS$DATA_PROCESSING: REANALYZE Peaks with additional N2/O included
MS$DATA_PROCESSING: WHOLE RMassBank 2.99.2
PK$SPLASH: splash10-0006-0900000000-3f16c221ee24e9a9bf1e
PK$ANNOTATION: m/z tentative_formula formula_count mass error(ppm)
  57.0335 C3H5O+ 1 57.0335 0.08
  115.0541 C9H7+ 1 115.0542 -1.08
  121.0648 C8H9O+ 1 121.0648 0.2
  135.044 C8H7O2+ 1 135.0441 -0.23
  135.0803 C9H11O+ 1 135.0804 -0.97
  141.0697 C11H9+ 1 141.0699 -0.99
  142.0776 C11H10+ 1 142.0777 -0.86
  143.0857 C11H11+ 1 143.0855 1.19
  147.0798 C10H11O+ 1 147.0804 -4.11
  158.0726 C11H10O+ 1 158.0726 0.05
  159.0806 C11H11O+ 1 159.0804 1.23
  163.1113 C11H15O+ 1 163.1117 -2.94
  173.0961 C12H13O+ 1 173.0961 0.3
  191.1066 C12H15O2+ 1 191.1067 -0.18
PK$NUM_PEAK: 14
PK$PEAK: m/z int. rel.int.
  57.0335 238495.9 53
  115.0541 4623 1
  121.0648 49206.3 11
  135.044 37198.2 8
  135.0803 10699.4 2
  141.0697 15303.1 3
  142.0776 9330.4 2
  143.0857 14178.7 3
  147.0798 5564.2 1
  158.0726 708007.6 159
  159.0806 12811.5 2
  163.1113 4726 1
  173.0961 644265 145
  191.1066 4422289 999
//
