ACCESSION: MSBNK-LCSB-LU045805
RECORD_TITLE: Thidiazuron; LC-ESI-QFT; MS2; CE: 75; R=17500; [M+H]+
DATE: 2020.08.19
AUTHORS: Elapavalore, A.; Kondić, T.; Singh, R.; Schymanski, E.
LICENSE: CC BY
COPYRIGHT: Copyright © 2019 by Environmental Cheminformatics, LCSB, University of Luxembourg, Luxembourg
PUBLICATION: Elapavalore, A.; Kondić, T.; et al., Adding Open Spectral Data to MassBank and PubChem Using Open Source Tools to Support Non-Targeted Exposomics of Mixtures (submitted).
PROJECT: ENTACT U.S. Environmental Protection Agency’s Non-Targeted Analysis Collaborative Trial
COMMENT: CONFIDENCE standard compound
COMMENT: INTERNAL_ID 458
COMMENT: DATASET 20200303_ENTACT_RP_MIX506
COMMENT: DATA_PROCESSING MERGING RMBmix ver. 0.2.7
COMMENT: DATA_PROCESSING PRESCREENING Shinyscreen ver. 0.8.0
COMMENT: ORIGINAL_ACQUISITION_NO 8104
COMMENT: ORIGINAL_PRECURSOR_SCAN_NO 8102
COMMENT: RAW_DATA available as MSV000091754 at [DOI:10.25345/C5S46HG75]
CH$NAME: Thidiazuron
CH$NAME: 1-phenyl-3-(thiadiazol-5-yl)urea
CH$COMPOUND_CLASS: N/A; Environmental Standard
CH$FORMULA: C9H8N4OS
CH$EXACT_MASS: 220.0419
CH$SMILES: O=C(NC1=CN=NS1)NC1=CC=CC=C1
CH$IUPAC: InChI=1S/C9H8N4OS/c14-9(12-8-6-10-13-15-8)11-7-4-2-1-3-5-7/h1-6H,(H2,11,12,14)
CH$LINK: CAS 51707-55-2
CH$LINK: CHEBI CHEBI:81977
CH$LINK: KEGG C18812
CH$LINK: PUBCHEM CID:40087
CH$LINK: INCHIKEY HFCYZXMHUIHAQI-UHFFFAOYSA-N
CH$LINK: CHEMSPIDER 36635
AC$INSTRUMENT: Q Exactive Orbitrap (Thermo Scientific)
AC$INSTRUMENT_TYPE: LC-ESI-QFT
AC$MASS_SPECTROMETRY: MS_TYPE MS2
AC$MASS_SPECTROMETRY: ION_MODE POSITIVE
AC$MASS_SPECTROMETRY: IONIZATION ESI
AC$MASS_SPECTROMETRY: FRAGMENTATION_MODE HCD
AC$MASS_SPECTROMETRY: COLLISION_ENERGY 75
AC$MASS_SPECTROMETRY: RESOLUTION 17500
AC$CHROMATOGRAPHY: COLUMN_NAME Acquity BEH C18 1.7um, 2.1x150mm (Waters)
AC$CHROMATOGRAPHY: FLOW_GRADIENT 90/10 at 0-2 min, 0/100 at 15-20 min, 90/10 at 20.1-30 min
AC$CHROMATOGRAPHY: FLOW_RATE 0.20 mL/min
AC$CHROMATOGRAPHY: RETENTION_TIME 15.561 min
AC$CHROMATOGRAPHY: SOLVENT A 0.1% formic acid
AC$CHROMATOGRAPHY: SOLVENT B methanol
MS$FOCUSED_ION: BASE_PEAK 79.0211
MS$FOCUSED_ION: PRECURSOR_M/Z 221.0492
MS$FOCUSED_ION: PRECURSOR_TYPE [M+H]+
MS$FOCUSED_ION: PRECURSOR_INTENSITY 5406129.0625
MS$DATA_PROCESSING: RECALIBRATE loess on assigned fragments and MS1
MS$DATA_PROCESSING: REANALYZE Peaks with additional N2/O included
MS$DATA_PROCESSING: WHOLE RMassBank 2.99.2
PK$SPLASH: splash10-0udi-2900000000-f2fa99eed08cf8f567c3
PK$ANNOTATION: m/z tentative_formula formula_count mass error(ppm)
  50.015 C4H2+ 1 50.0151 -1.06
  51.023 C4H3+ 1 51.0229 1.27
  53.0386 C4H5+ 1 53.0386 0.29
  59.9903 CH2NS+ 1 59.9902 0.12
  61.0106 C2H5S+ 1 61.0106 -0.7
  65.0386 C5H5+ 1 65.0386 0.1
  71.9902 C2H2NS+ 1 71.9902 -0.27
  72.998 C2H3NS+ 1 72.9981 -0.48
  74.0059 C2H4NS+ 1 74.0059 0.4
  77.0385 C6H5+ 1 77.0386 -0.53
  91.0543 C7H7+ 1 91.0542 0.94
  92.0495 C6H6N+ 1 92.0495 0.23
  94.0652 C6H8N+ 1 94.0651 0.6
  95.0492 C6H7O+ 2 95.0491 0.42
  102.0121 C2H4N3S+ 2 102.012 0.43
  105.0448 C6H5N2+ 1 105.0447 0.41
  120.0444 C7H6NO+ 2 120.0444 0.25
  124.0758 C5H8N4+ 1 124.0743 12.06
  127.9913 C3H2N3OS+ 1 127.9913 0.27
  130.9819 C7HNS+ 1 130.9824 -3.82
  144.9974 C8H3NS+ 1 144.9981 -4.67
PK$NUM_PEAK: 21
PK$PEAK: m/z int. rel.int.
  50.015 1654.7 1
  51.023 4054.3 3
  53.0386 27775.3 22
  59.9903 37500.5 30
  61.0106 4306.8 3
  65.0386 10621.8 8
  71.9902 80708.4 64
  72.998 16023.6 12
  74.0059 11361.5 9
  77.0385 8594 6
  91.0543 11114.2 8
  92.0495 101917.9 81
  94.0652 92052.5 74
  95.0492 73936 59
  102.0121 1242109.4 999
  105.0448 32505.8 26
  120.0444 34999.5 28
  124.0758 2677.2 2
  127.9913 180171.2 144
  130.9819 12827.8 10
  144.9974 3506.4 2
//
