ACCESSION: MSBNK-LCSB-LU036103
RECORD_TITLE: CP-671305; LC-ESI-QFT; MS2; CE: 45; R=17500; [M+H]+
DATE: 2020.08.19
AUTHORS: Elapavalore, A.; Kondić, T.; Singh, R.; Schymanski, E.
LICENSE: CC BY
COPYRIGHT: Copyright © 2019 by Environmental Cheminformatics, LCSB, University of Luxembourg, Luxembourg
PUBLICATION: Elapavalore, A.; Kondić, T.; et al., Adding Open Spectral Data to MassBank and PubChem Using Open Source Tools to Support Non-Targeted Exposomics of Mixtures (submitted).
PROJECT: ENTACT U.S. Environmental Protection Agency’s Non-Targeted Analysis Collaborative Trial
COMMENT: CONFIDENCE standard compound
COMMENT: INTERNAL_ID 361
COMMENT: DATASET 20200303_ENTACT_RP_MIX505
COMMENT: DATA_PROCESSING MERGING RMBmix ver. 0.2.7
COMMENT: DATA_PROCESSING PRESCREENING Shinyscreen ver. 0.8.0
COMMENT: ORIGINAL_ACQUISITION_NO 8805
COMMENT: ORIGINAL_PRECURSOR_SCAN_NO 8802
COMMENT: RAW_DATA available as MSV000091754 at [DOI:10.25345/C5S46HG75]
CH$NAME: CP-671305
CH$NAME: (2R)-2-[4-[[[2-(1,3-benzodioxol-5-yloxy)pyridine-3-carbonyl]amino]methyl]-3-fluorophenoxy]propanoic acid
CH$COMPOUND_CLASS: N/A; Environmental Standard
CH$FORMULA: C23H19FN2O7
CH$EXACT_MASS: 454.1176
CH$SMILES: C[C@@H](OC1=CC=C(CNC(=O)C2=CC=CN=C2OC2=CC=C3OCOC3=C2)C(F)=C1)C(O)=O
CH$IUPAC: InChI=1S/C23H19FN2O7/c1-13(23(28)29)32-15-5-4-14(18(24)9-15)11-26-21(27)17-3-2-8-25-22(17)33-16-6-7-19-20(10-16)31-12-30-19/h2-10,13H,11-12H2,1H3,(H,26,27)(H,28,29)/t13-/m1/s1
CH$LINK: PUBCHEM CID:9955578
CH$LINK: INCHIKEY CNIGFESSDPOCKS-CYBMUJFWSA-N
CH$LINK: CHEMSPIDER 8131188
AC$INSTRUMENT: Q Exactive Orbitrap (Thermo Scientific)
AC$INSTRUMENT_TYPE: LC-ESI-QFT
AC$MASS_SPECTROMETRY: MS_TYPE MS2
AC$MASS_SPECTROMETRY: ION_MODE POSITIVE
AC$MASS_SPECTROMETRY: IONIZATION ESI
AC$MASS_SPECTROMETRY: FRAGMENTATION_MODE HCD
AC$MASS_SPECTROMETRY: COLLISION_ENERGY 45
AC$MASS_SPECTROMETRY: RESOLUTION 17500
AC$CHROMATOGRAPHY: COLUMN_NAME Acquity BEH C18 1.7um, 2.1x150mm (Waters)
AC$CHROMATOGRAPHY: FLOW_GRADIENT 90/10 at 0-2 min, 0/100 at 15-20 min, 90/10 at 20.1-30 min
AC$CHROMATOGRAPHY: FLOW_RATE 0.20 mL/min
AC$CHROMATOGRAPHY: RETENTION_TIME 16.757 min
AC$CHROMATOGRAPHY: SOLVENT A 0.1% formic acid
AC$CHROMATOGRAPHY: SOLVENT B methanol
MS$FOCUSED_ION: BASE_PEAK 79.0211
MS$FOCUSED_ION: PRECURSOR_M/Z 455.1249
MS$FOCUSED_ION: PRECURSOR_TYPE [M+H]+
MS$FOCUSED_ION: PRECURSOR_INTENSITY 11062094.25
MS$DATA_PROCESSING: RECALIBRATE loess on assigned fragments and MS1
MS$DATA_PROCESSING: REANALYZE Peaks with additional N2/O included
MS$DATA_PROCESSING: WHOLE RMassBank 2.99.2
PK$SPLASH: splash10-004i-0920000000-da3f879c475ed67a8ddf
PK$ANNOTATION: m/z tentative_formula formula_count mass error(ppm)
  95.0491 C6H7O+ 2 95.0491 0.02
  97.0447 C6H6F+ 1 97.0448 -1.21
  125.0397 C7H6FO+ 2 125.0397 -0.07
  156.0447 C10H6NO+ 3 156.0444 2.16
  184.0394 C11H6NO2+ 3 184.0393 0.59
  197.0609 C10H10FO3+ 3 197.0608 0.36
  202.0499 C11H8NO3+ 5 202.0499 0.15
  212.0343 C12H6NO3+ 5 212.0342 0.16
  214.0499 C12H8NO3+ 5 214.0499 0.28
  216.0654 C12H10NO3+ 5 216.0655 -0.59
  230.0439 C12H8NO4+ 3 230.0448 -3.98
  242.0447 C13H8NO4+ 4 242.0448 -0.18
  244.0606 C13H10NO4+ 4 244.0604 0.5
  260.0553 C13H10NO5+ 4 260.0553 -0.06
PK$NUM_PEAK: 14
PK$PEAK: m/z int. rel.int.
  95.0491 11767 1
  97.0447 15653.4 1
  125.0397 11512246 999
  156.0447 24083.4 2
  184.0394 220662 19
  197.0609 811044.6 70
  202.0499 25645.3 2
  212.0343 243099.8 21
  214.0499 12006.9 1
  216.0654 12279.4 1
  230.0439 15692.2 1
  242.0447 2539088.5 220
  244.0606 23260.5 2
  260.0553 154288.2 13
//
