ACCESSION: MSBNK-LCSB-LU093555
RECORD_TITLE: 1-Phenyl-2-thiourea; LC-ESI-QFT; MS2; CE: 75; R=17500; [M-H]-
DATE: 2020.08.19
AUTHORS: Elapavalore, A.; Kondić, T.; Singh, R.; Schymanski, E.
LICENSE: CC BY
COPYRIGHT: Copyright © 2019 by Environmental Cheminformatics, LCSB, University of Luxembourg, Luxembourg
PUBLICATION: Elapavalore, A.; Kondić, T.; et al., Adding Open Spectral Data to MassBank and PubChem Using Open Source Tools to Support Non-Targeted Exposomics of Mixtures (submitted).
PROJECT: ENTACT U.S. Environmental Protection Agency’s Non-Targeted Analysis Collaborative Trial
COMMENT: CONFIDENCE standard compound
COMMENT: INTERNAL_ID 935
COMMENT: DATASET 20200303_ENTACT_RP_MIX508
COMMENT: DATA_PROCESSING MERGING RMBmix ver. 0.2.7
COMMENT: DATA_PROCESSING PRESCREENING Shinyscreen ver. 0.8.0
COMMENT: ORIGINAL_ACQUISITION_NO 2573
COMMENT: ORIGINAL_PRECURSOR_SCAN_NO 2571
COMMENT: RAW_DATA available as MSV000091754 at [DOI:10.25345/C5S46HG75]
CH$NAME: 1-Phenyl-2-thiourea
CH$NAME: N'-phenylcarbamimidothioic acid
CH$COMPOUND_CLASS: N/A; Environmental Standard
CH$FORMULA: C7H8N2S
CH$EXACT_MASS: 152.0408
CH$SMILES: NC(=S)NC1=CC=CC=C1
CH$IUPAC: InChI=1S/C7H8N2S/c8-7(10)9-6-4-2-1-3-5-6/h1-5H,(H3,8,9,10)
CH$LINK: CAS 103-85-5
CH$LINK: CHEBI CHEBI:46261
CH$LINK: CHEMSPIDER 589165
CH$LINK: INCHIKEY FULZLIGZKMKICU-UHFFFAOYSA-N
CH$LINK: PUBCHEM CID:676454
AC$INSTRUMENT: Q Exactive Orbitrap (Thermo Scientific)
AC$INSTRUMENT_TYPE: LC-ESI-QFT
AC$MASS_SPECTROMETRY: MS_TYPE MS2
AC$MASS_SPECTROMETRY: ION_MODE NEGATIVE
AC$MASS_SPECTROMETRY: IONIZATION ESI
AC$MASS_SPECTROMETRY: FRAGMENTATION_MODE HCD
AC$MASS_SPECTROMETRY: COLLISION_ENERGY 75
AC$MASS_SPECTROMETRY: RESOLUTION 17500
AC$CHROMATOGRAPHY: COLUMN_NAME Acquity BEH C18 1.7um, 2.1x150mm (Waters)
AC$CHROMATOGRAPHY: FLOW_GRADIENT 90/10 at 0-2 min, 0/100 at 15-20 min, 90/10 at 20.1-30 min
AC$CHROMATOGRAPHY: FLOW_RATE 0.20 mL/min
AC$CHROMATOGRAPHY: RETENTION_TIME 10.322 min
AC$CHROMATOGRAPHY: SOLVENT A 0.1% formic acid
AC$CHROMATOGRAPHY: SOLVENT B methanol
MS$FOCUSED_ION: BASE_PEAK 116.9285
MS$FOCUSED_ION: PRECURSOR_M/Z 151.0335
MS$FOCUSED_ION: PRECURSOR_TYPE [M-H]-
MS$FOCUSED_ION: PRECURSOR_INTENSITY 902849.5717773
MS$DATA_PROCESSING: RECALIBRATE loess on assigned fragments and MS1
MS$DATA_PROCESSING: REANALYZE Peaks with additional N2/O included
MS$DATA_PROCESSING: WHOLE RMassBank 2.99.2
PK$SPLASH: splash10-014i-4900000000-1b37c3293603e6a0d97e
PK$ANNOTATION: m/z tentative_formula formula_count mass error(ppm)
  57.9757 CNS- 1 57.9757 0.15
  92.0504 C6H6N- 1 92.0506 -1.52
  117.0459 C7H5N2- 1 117.0458 0.49
PK$NUM_PEAK: 3
PK$PEAK: m/z int. rel.int.
  57.9757 23022.3 352
  92.0504 11110.7 170
  117.0459 65171 999
//
