ACCESSION: MSBNK-LCSB-LU067851
RECORD_TITLE: 5-Nitroisophthalic acid; LC-ESI-QFT; MS2; CE: 15; R=17500; [M-H]-
DATE: 2020.08.19
AUTHORS: Elapavalore, A.; Kondić, T.; Singh, R.; Schymanski, E.
LICENSE: CC BY
COPYRIGHT: Copyright © 2019 by Environmental Cheminformatics, LCSB, University of Luxembourg, Luxembourg
PUBLICATION: Elapavalore, A.; Kondić, T.; et al., Adding Open Spectral Data to MassBank and PubChem Using Open Source Tools to Support Non-Targeted Exposomics of Mixtures (submitted).
PROJECT: ENTACT U.S. Environmental Protection Agency’s Non-Targeted Analysis Collaborative Trial
COMMENT: CONFIDENCE standard compound
COMMENT: INTERNAL_ID 678
COMMENT: DATASET 20200303_ENTACT_RP_MIX506
COMMENT: DATA_PROCESSING MERGING RMBmix ver. 0.2.7
COMMENT: DATA_PROCESSING PRESCREENING Shinyscreen ver. 0.8.0
COMMENT: ORIGINAL_ACQUISITION_NO 3609
COMMENT: ORIGINAL_PRECURSOR_SCAN_NO 3604
COMMENT: RAW_DATA available as MSV000091754 at [DOI:10.25345/C5S46HG75]
CH$NAME: 5-Nitroisophthalic acid
CH$NAME: 5-nitrobenzene-1,3-dicarboxylic acid
CH$COMPOUND_CLASS: N/A; Environmental Standard
CH$FORMULA: C8H5NO6
CH$EXACT_MASS: 211.0117
CH$SMILES: OC(=O)C1=CC(=CC(=C1)C(O)=O)[N+]([O-])=O
CH$IUPAC: InChI=1S/C8H5NO6/c10-7(11)4-1-5(8(12)13)3-6(2-4)9(14)15/h1-3H,(H,10,11)(H,12,13)
CH$LINK: CAS 618-88-2
CH$LINK: PUBCHEM CID:12069
CH$LINK: INCHIKEY NBDAHKQJXVLAID-UHFFFAOYSA-N
CH$LINK: CHEMSPIDER 11572
AC$INSTRUMENT: Q Exactive Orbitrap (Thermo Scientific)
AC$INSTRUMENT_TYPE: LC-ESI-QFT
AC$MASS_SPECTROMETRY: MS_TYPE MS2
AC$MASS_SPECTROMETRY: ION_MODE NEGATIVE
AC$MASS_SPECTROMETRY: IONIZATION ESI
AC$MASS_SPECTROMETRY: FRAGMENTATION_MODE HCD
AC$MASS_SPECTROMETRY: COLLISION_ENERGY 15
AC$MASS_SPECTROMETRY: RESOLUTION 17500
AC$CHROMATOGRAPHY: COLUMN_NAME Acquity BEH C18 1.7um, 2.1x150mm (Waters)
AC$CHROMATOGRAPHY: FLOW_GRADIENT 90/10 at 0-2 min, 0/100 at 15-20 min, 90/10 at 20.1-30 min
AC$CHROMATOGRAPHY: FLOW_RATE 0.20 mL/min
AC$CHROMATOGRAPHY: RETENTION_TIME 14.316 min
AC$CHROMATOGRAPHY: SOLVENT A 0.1% formic acid
AC$CHROMATOGRAPHY: SOLVENT B methanol
MS$FOCUSED_ION: BASE_PEAK 112.9857
MS$FOCUSED_ION: PRECURSOR_M/Z 210.0044
MS$FOCUSED_ION: PRECURSOR_TYPE [M-H]-
MS$FOCUSED_ION: PRECURSOR_INTENSITY 1482595.405762
MS$DATA_PROCESSING: RECALIBRATE loess on assigned fragments and MS1
MS$DATA_PROCESSING: REANALYZE Peaks with additional N2/O included
MS$DATA_PROCESSING: WHOLE RMassBank 2.99.2
PK$SPLASH: splash10-014i-0900000000-573644af66bd4914ed56
PK$ANNOTATION: m/z tentative_formula formula_count mass error(ppm)
  63.024 C5H3- 1 63.024 -0.01
  65.0033 C4HO- 1 65.0033 0.13
  107.0138 C6H3O2- 1 107.0139 -0.29
  119.0138 C7H3O2- 1 119.0139 -0.06
  122.0247 C6H4NO2- 1 122.0248 -0.62
  123.0087 C6H3O3- 1 123.0088 -0.16
  136.0168 C7H4O3- 1 136.0166 1.24
  166.0146 C7H4NO4- 1 166.0146 0.12
  210.0044 C8H4NO6- 1 210.0044 -0.08
PK$NUM_PEAK: 9
PK$PEAK: m/z int. rel.int.
  63.024 7005.2 9
  65.0033 5116.4 7
  107.0138 10247.2 14
  119.0138 95783.1 131
  122.0247 12618 17
  123.0087 19779.8 27
  136.0168 2234.1 3
  166.0146 729172.4 999
  210.0044 30270.9 41
//
