ACCESSION: MSBNK-LCSB-LU103856
RECORD_TITLE: Diflufenzopyr; LC-ESI-QFT; MS2; CE: 90; R=17500; [M-H]-
DATE: 2020.08.19
AUTHORS: Elapavalore, A.; Kondić, T.; Singh, R.; Schymanski, E.
LICENSE: CC BY
COPYRIGHT: Copyright © 2019 by Environmental Cheminformatics, LCSB, University of Luxembourg, Luxembourg
PUBLICATION: Elapavalore, A.; Kondić, T.; et al., Adding Open Spectral Data to MassBank and PubChem Using Open Source Tools to Support Non-Targeted Exposomics of Mixtures (submitted).
PROJECT: ENTACT U.S. Environmental Protection Agency’s Non-Targeted Analysis Collaborative Trial
COMMENT: CONFIDENCE standard compound
COMMENT: INTERNAL_ID 1038
COMMENT: DATASET 20200303_ENTACT_RP_MIX508
COMMENT: DATA_PROCESSING MERGING RMBmix ver. 0.2.7
COMMENT: DATA_PROCESSING PRESCREENING Shinyscreen ver. 0.8.0
COMMENT: ORIGINAL_ACQUISITION_NO 4268
COMMENT: ORIGINAL_PRECURSOR_SCAN_NO 4265
COMMENT: RAW_DATA available as MSV000091754 at [DOI:10.25345/C5S46HG75]
CH$NAME: Diflufenzopyr
CH$NAME: 2-[(E)-N-[(3,5-difluorophenyl)carbamoylamino]-C-methylcarbonimidoyl]pyridine-3-carboxylic acid
CH$COMPOUND_CLASS: N/A; Environmental Standard
CH$FORMULA: C15H12F2N4O3
CH$EXACT_MASS: 334.0877
CH$SMILES: C\C(=N/NC(=O)NC1=CC(F)=CC(F)=C1)C1=NC=CC=C1C(O)=O
CH$IUPAC: InChI=1S/C15H12F2N4O3/c1-8(13-12(14(22)23)3-2-4-18-13)20-21-15(24)19-11-6-9(16)5-10(17)7-11/h2-7H,1H3,(H,22,23)(H2,19,21,24)/b20-8+
CH$LINK: CAS 109293-97-2
CH$LINK: PUBCHEM CID:6125184
CH$LINK: INCHIKEY IRJQWZWMQCVOLA-DNTJNYDQSA-N
CH$LINK: CHEMSPIDER 4816775
AC$INSTRUMENT: Q Exactive Orbitrap (Thermo Scientific)
AC$INSTRUMENT_TYPE: LC-ESI-QFT
AC$MASS_SPECTROMETRY: MS_TYPE MS2
AC$MASS_SPECTROMETRY: ION_MODE NEGATIVE
AC$MASS_SPECTROMETRY: IONIZATION ESI
AC$MASS_SPECTROMETRY: FRAGMENTATION_MODE HCD
AC$MASS_SPECTROMETRY: COLLISION_ENERGY 90
AC$MASS_SPECTROMETRY: RESOLUTION 17500
AC$CHROMATOGRAPHY: COLUMN_NAME Acquity BEH C18 1.7um, 2.1x150mm (Waters)
AC$CHROMATOGRAPHY: FLOW_GRADIENT 90/10 at 0-2 min, 0/100 at 15-20 min, 90/10 at 20.1-30 min
AC$CHROMATOGRAPHY: FLOW_RATE 0.20 mL/min
AC$CHROMATOGRAPHY: RETENTION_TIME 16.368 min
AC$CHROMATOGRAPHY: SOLVENT A 0.1% formic acid
AC$CHROMATOGRAPHY: SOLVENT B methanol
MS$FOCUSED_ION: BASE_PEAK 112.9856
MS$FOCUSED_ION: PRECURSOR_M/Z 333.0805
MS$FOCUSED_ION: PRECURSOR_TYPE [M-H]-
MS$FOCUSED_ION: PRECURSOR_INTENSITY 9273108.322754
MS$DATA_PROCESSING: RECALIBRATE loess on assigned fragments and MS1
MS$DATA_PROCESSING: REANALYZE Peaks with additional N2/O included
MS$DATA_PROCESSING: WHOLE RMassBank 2.99.2
PK$SPLASH: splash10-0570-4900000000-45c5a08f40aa07120ff6
PK$ANNOTATION: m/z tentative_formula formula_count mass error(ppm)
  65.0034 C4HO- 1 65.0033 1.03
  65.9986 C3NO- 1 65.9985 0.46
  76.0192 C5H2N- 2 76.0193 -0.65
  79.0554 C6H7- 3 79.0553 0.65
  87.0115 C6HN- 3 87.0114 0.45
  88.0193 C6H2N- 3 88.0193 0.52
  90.035 C6H4N- 3 90.0349 0.49
  91.03 C5H3N2- 2 91.0302 -1.66
  93.0459 C5H5N2- 2 93.0458 0.99
  102.035 C7H4N- 3 102.0349 0.73
  103.0302 C6H3N2- 2 103.0302 -0.07
  104.0506 C7H6N- 3 104.0506 0.27
  106.0663 C7H8N- 3 106.0662 1.14
  108.0256 C6H3FN- 3 108.0255 0.58
  128.0318 C6H4F2N- 1 128.0317 0.38
  132.0567 C7H6N3- 3 132.0567 0.06
  160.0518 C8H6N3O- 5 160.0516 0.79
PK$NUM_PEAK: 17
PK$PEAK: m/z int. rel.int.
  65.0034 4242 10
  65.9986 2457.2 6
  76.0192 1992 4
  79.0554 36065 88
  87.0115 21933.5 53
  88.0193 341197.6 836
  90.035 5247.9 12
  91.03 3164.5 7
  93.0459 3124.4 7
  102.035 13366.1 32
  103.0302 9593.6 23
  104.0506 15395.5 37
  106.0663 4202.7 10
  108.0256 260293.8 638
  128.0318 407560.4 999
  132.0567 28639.5 70
  160.0518 37723 92
//
