ACCESSION: MSBNK-LCSB-LU089302
RECORD_TITLE: Volinanserin; LC-ESI-QFT; MS2; CE: 30; R=17500; [M+H]+
DATE: 2020.08.19
AUTHORS: Elapavalore, A.; Kondić, T.; Singh, R.; Schymanski, E.
LICENSE: CC BY
COPYRIGHT: Copyright © 2019 by Environmental Cheminformatics, LCSB, University of Luxembourg, Luxembourg
PUBLICATION: Elapavalore, A.; Kondić, T.; et al., Adding Open Spectral Data to MassBank and PubChem Using Open Source Tools to Support Non-Targeted Exposomics of Mixtures (submitted).
PROJECT: ENTACT U.S. Environmental Protection Agency’s Non-Targeted Analysis Collaborative Trial
COMMENT: CONFIDENCE standard compound
COMMENT: INTERNAL_ID 893
COMMENT: DATASET 20200303_ENTACT_RP_MIX501
COMMENT: DATA_PROCESSING MERGING RMBmix ver. 0.2.7
COMMENT: DATA_PROCESSING PRESCREENING Shinyscreen ver. 0.8.0
COMMENT: ORIGINAL_ACQUISITION_NO 7111
COMMENT: ORIGINAL_PRECURSOR_SCAN_NO 7109
COMMENT: RAW_DATA available as MSV000091754 at [DOI:10.25345/C5S46HG75]
CH$NAME: Volinanserin
CH$COMPOUND_CLASS: N/A; Environmental Standard
CH$FORMULA: C22H28FNO3
CH$EXACT_MASS: 373.2053
CH$SMILES: COC1=C(OC)C(=CC=C1)[C@H](O)C1CCN(CCC2=CC=C(F)C=C2)CC1
CH$IUPAC: InChI=1S/C22H28FNO3/c1-26-20-5-3-4-19(22(20)27-2)21(25)17-11-14-24(15-12-17)13-10-16-6-8-18(23)9-7-16/h3-9,17,21,25H,10-15H2,1-2H3/t21-/m1/s1
CH$LINK: CAS 139290-65-6
CH$LINK: PUBCHEM CID:5311271
CH$LINK: INCHIKEY HXTGXYRHXAGCFP-OAQYLSRUSA-N
CH$LINK: CHEMSPIDER 4470782
AC$INSTRUMENT: Q Exactive Orbitrap (Thermo Scientific)
AC$INSTRUMENT_TYPE: LC-ESI-QFT
AC$MASS_SPECTROMETRY: MS_TYPE MS2
AC$MASS_SPECTROMETRY: ION_MODE POSITIVE
AC$MASS_SPECTROMETRY: IONIZATION ESI
AC$MASS_SPECTROMETRY: FRAGMENTATION_MODE HCD
AC$MASS_SPECTROMETRY: COLLISION_ENERGY 30
AC$MASS_SPECTROMETRY: RESOLUTION 17500
AC$CHROMATOGRAPHY: COLUMN_NAME Acquity BEH C18 1.7um, 2.1x150mm (Waters)
AC$CHROMATOGRAPHY: FLOW_GRADIENT 90/10 at 0-2 min, 0/100 at 15-20 min, 90/10 at 20.1-30 min
AC$CHROMATOGRAPHY: FLOW_RATE 0.20 mL/min
AC$CHROMATOGRAPHY: RETENTION_TIME 13.634 min
AC$CHROMATOGRAPHY: SOLVENT A 0.1% formic acid
AC$CHROMATOGRAPHY: SOLVENT B methanol
MS$FOCUSED_ION: BASE_PEAK 79.0212
MS$FOCUSED_ION: PRECURSOR_M/Z 374.2126
MS$FOCUSED_ION: PRECURSOR_TYPE [M+H]+
MS$FOCUSED_ION: PRECURSOR_INTENSITY 41178117
MS$DATA_PROCESSING: RECALIBRATE loess on assigned fragments and MS1
MS$DATA_PROCESSING: REANALYZE Peaks with additional N2/O included
MS$DATA_PROCESSING: WHOLE RMassBank 2.99.2
PK$SPLASH: splash10-0a4i-0209000000-bfd9ffac521270439239
PK$ANNOTATION: m/z tentative_formula formula_count mass error(ppm)
  82.065 C5H8N+ 1 82.0651 -1.66
  85.0886 C5H11N+ 2 85.0886 0.38
  96.0808 C6H10N+ 2 96.0808 0.14
  98.0964 C6H12N+ 2 98.0964 -0.72
  103.0542 C8H7+ 2 103.0542 -0.24
  123.0604 C8H8F+ 1 123.0605 -0.7
  136.0517 C8H8O2+ 2 136.0519 -1.34
  151.0754 C9H11O2+ 2 151.0754 0.09
  152.0869 C9H11FN+ 1 152.087 -0.55
  166.1026 C10H13FN+ 1 166.1027 -0.33
  178.1026 C11H13FN+ 2 178.1027 -0.25
  189.0911 C9H14FO3+ 2 189.0921 -5.65
  191.1065 C12H15O2+ 2 191.1067 -0.67
  204.1183 C13H15FN+ 2 204.1183 -0.17
  205.1221 C13H17O2+ 2 205.1223 -0.92
  206.1337 C13H17FN+ 2 206.134 -1.3
  217.1223 C14H17O2+ 2 217.1223 0.09
  218.1339 C14H17FN+ 2 218.134 -0.19
  232.1331 C14H18NO2+ 2 232.1332 -0.62
  234.1486 C14H20NO2+ 2 234.1489 -0.89
  246.1488 C15H20NO2+ 2 246.1489 -0.39
  250.1436 C14H20NO3+ 1 250.1438 -0.87
  324.1758 C21H23FNO+ 2 324.1758 0
  341.1785 C21H24FNO2+ 1 341.1786 -0.16
  356.2019 C22H27FNO2+ 1 356.202 -0.36
  359.1885 C21H26FNO3+ 1 359.1891 -1.69
  374.2126 C22H29FNO3+ 1 374.2126 -0.11
PK$NUM_PEAK: 27
PK$PEAK: m/z int. rel.int.
  82.065 33966.4 1
  85.0886 62590.2 2
  96.0808 24257.6 1
  98.0964 85295.8 3
  103.0542 54830.5 2
  123.0604 1654225.8 77
  136.0517 42687.1 1
  151.0754 134721.8 6
  152.0869 4575815 214
  166.1026 153287.5 7
  178.1026 244943.1 11
  189.0911 44150.6 2
  191.1065 55952.8 2
  204.1183 1599080.8 74
  205.1221 81356.9 3
  206.1337 23403.9 1
  217.1223 83087.7 3
  218.1339 113325.9 5
  232.1331 228763.4 10
  234.1486 30524.7 1
  246.1488 24447.2 1
  250.1436 21354.6 1
  324.1758 49746.4 2
  341.1785 162057.3 7
  356.2019 21322456 999
  359.1885 21589.2 1
  374.2126 6939357.5 325
//
