ACCESSION: MSBNK-LCSB-LU068505
RECORD_TITLE: Pyrazophos; LC-ESI-QFT; MS2; CE: 75; R=17500; [M+H]+
DATE: 2020.08.19
AUTHORS: Elapavalore, A.; Kondić, T.; Singh, R.; Schymanski, E.
LICENSE: CC BY
COPYRIGHT: Copyright © 2019 by Environmental Cheminformatics, LCSB, University of Luxembourg, Luxembourg
PUBLICATION: Elapavalore, A.; Kondić, T.; et al., Adding Open Spectral Data to MassBank and PubChem Using Open Source Tools to Support Non-Targeted Exposomics of Mixtures (submitted).
PROJECT: ENTACT U.S. Environmental Protection Agency’s Non-Targeted Analysis Collaborative Trial
COMMENT: CONFIDENCE standard compound
COMMENT: INTERNAL_ID 685
COMMENT: DATASET 20200303_ENTACT_RP_MIX506
COMMENT: DATA_PROCESSING MERGING RMBmix ver. 0.2.7
COMMENT: DATA_PROCESSING PRESCREENING Shinyscreen ver. 0.8.0
COMMENT: ORIGINAL_ACQUISITION_NO 9839
COMMENT: ORIGINAL_PRECURSOR_SCAN_NO 9837
COMMENT: RAW_DATA available as MSV000091754 at [DOI:10.25345/C5S46HG75]
CH$NAME: Pyrazophos
CH$NAME: ethyl 2-diethoxyphosphinothioyloxy-5-methylpyrazolo[1,5-a]pyrimidine-6-carboxylate
CH$COMPOUND_CLASS: N/A; Environmental Standard
CH$FORMULA: C14H20N3O5PS
CH$EXACT_MASS: 373.0861
CH$SMILES: CCOC(=O)C1=CN2N=C(OP(=S)(OCC)OCC)C=C2N=C1C
CH$IUPAC: InChI=1S/C14H20N3O5PS/c1-5-19-14(18)11-9-17-12(15-10(11)4)8-13(16-17)22-23(24,20-6-2)21-7-3/h8-9H,5-7H2,1-4H3
CH$LINK: CAS 13457-18-6
CH$LINK: CHEBI CHEBI:81942
CH$LINK: KEGG C18761
CH$LINK: PUBCHEM CID:26033
CH$LINK: INCHIKEY JOOMJVFZQRQWKR-UHFFFAOYSA-N
CH$LINK: CHEMSPIDER 24247
AC$INSTRUMENT: Q Exactive Orbitrap (Thermo Scientific)
AC$INSTRUMENT_TYPE: LC-ESI-QFT
AC$MASS_SPECTROMETRY: MS_TYPE MS2
AC$MASS_SPECTROMETRY: ION_MODE POSITIVE
AC$MASS_SPECTROMETRY: IONIZATION ESI
AC$MASS_SPECTROMETRY: FRAGMENTATION_MODE HCD
AC$MASS_SPECTROMETRY: COLLISION_ENERGY 75
AC$MASS_SPECTROMETRY: RESOLUTION 17500
AC$CHROMATOGRAPHY: COLUMN_NAME Acquity BEH C18 1.7um, 2.1x150mm (Waters)
AC$CHROMATOGRAPHY: FLOW_GRADIENT 90/10 at 0-2 min, 0/100 at 15-20 min, 90/10 at 20.1-30 min
AC$CHROMATOGRAPHY: FLOW_RATE 0.20 mL/min
AC$CHROMATOGRAPHY: RETENTION_TIME 18.878 min
AC$CHROMATOGRAPHY: SOLVENT A 0.1% formic acid
AC$CHROMATOGRAPHY: SOLVENT B methanol
MS$FOCUSED_ION: BASE_PEAK 79.0211
MS$FOCUSED_ION: PRECURSOR_M/Z 374.0934
MS$FOCUSED_ION: PRECURSOR_TYPE [M+H]+
MS$FOCUSED_ION: PRECURSOR_INTENSITY 13380059.25
MS$DATA_PROCESSING: RECALIBRATE loess on assigned fragments and MS1
MS$DATA_PROCESSING: REANALYZE Peaks with additional N2/O included
MS$DATA_PROCESSING: WHOLE RMassBank 2.99.2
PK$SPLASH: splash10-01tc-1900000000-af92fd98e738473eb5d2
PK$ANNOTATION: m/z tentative_formula formula_count mass error(ppm)
  51.0229 C4H3+ 2 51.0229 -0.45
  52.0182 C3H2N+ 1 52.0182 1
  53.0022 C3HO+ 1 53.0022 0.88
  54.0338 C3H4N+ 1 54.0338 -0.08
  55.0178 C3H3O+ 1 55.0178 -1.48
  55.029 C2H3N2+ 1 55.0291 -1.12
  56.0494 C3H6N+ 1 56.0495 -0.51
  61.0106 C2H5S+ 1 61.0106 -0.08
  64.9786 H2O2P+ 1 64.9787 -0.72
  65.0385 C5H5+ 2 65.0386 -1.78
  66.0337 C4H4N+ 2 66.0338 -1.31
  67.0177 C4H3O+ 2 67.0178 -2.17
  67.029 C3H3N2+ 1 67.0291 -0.85
  67.0416 C4H5N+ 2 67.0417 -0.32
  68.013 C3H2NO+ 1 68.0131 -1.48
  68.0494 C4H6N+ 2 68.0495 -1.82
  70.0287 C3H4NO+ 1 70.0287 -0.96
  71.0128 C3H3O2+ 1 71.0128 1.15
  74.0964 C4H12N+ 2 74.0964 -0.92
  78.0337 C5H4N+ 2 78.0338 -1.4
  78.9401 OPS+ 1 78.9402 -1.09
  78.9943 CH4O2P+ 1 78.9943 -1.06
  79.029 C4H3N2+ 2 79.0291 -1.2
  80.0131 C4H2NO+ 2 80.0131 -0.49
  80.0368 C4H4N2+ 2 80.0369 -1.22
  80.0494 C5H6N+ 2 80.0495 -1.26
  80.9735 H2O3P+ 1 80.9736 -1.56
  81.0447 C4H5N2+ 2 81.0447 -0.57
  82.0287 C4H4NO+ 2 82.0287 -0.35
  82.0526 C4H6N2+ 2 82.0525 0.97
  82.9892 H4O3P+ 1 82.9893 -0.69
  83.0127 C4H3O2+ 2 83.0128 -0.69
  83.0604 C4H7N2+ 2 83.0604 0.18
  84.0444 C4H6NO+ 2 84.0444 -0.26
  92.0367 C5H4N2+ 2 92.0369 -1.89
  92.0495 C6H6N+ 3 92.0495 -0.1
  93.01 C2H6O2P+ 2 93.01 0.23
  93.0447 C5H5N2+ 2 93.0447 -0.05
  94.0287 C5H4NO+ 2 94.0287 -0.12
  94.0651 C6H8N+ 3 94.0651 -0.05
  95.0603 C5H7N2+ 2 95.0604 -0.57
  96.0444 C5H6NO+ 2 96.0444 -0.32
  96.9507 H2O2PS+ 1 96.9508 -0.41
  97.0397 C4H5N2O+ 2 97.0396 1.07
  98.9664 H4O2PS+ 1 98.9664 -0.5
  98.9841 H4O4P+ 1 98.9842 -0.32
  99.0552 C4H7N2O+ 2 99.0553 -0.67
  100.0393 C4H6NO2+ 2 100.0393 -0.27
  104.0367 C6H4N2+ 3 104.0369 -2.19
  105.0447 C6H5N2+ 3 105.0447 -0.61
  106.0288 C6H4NO+ 3 106.0287 0.14
  106.0523 C6H6N2+ 3 106.0525 -2.65
  107.0239 C5H3N2O+ 2 107.024 -0.94
  107.0605 C6H7N2+ 4 107.0604 0.97
  108.0317 C5H4N2O+ 2 108.0318 -0.83
  108.0444 C6H6NO+ 3 108.0444 0.42
  109.005 C2H6O3P+ 3 109.0049 1.13
  109.0395 C5H5N2O+ 2 109.0396 -1.06
  110.0235 C5H4NO2+ 2 110.0237 -0.97
  110.0349 C4H4N3O+ 3 110.0349 0.12
  110.0599 C6H8NO+ 3 110.06 -0.91
  111.0313 C5H5NO2+ 2 111.0315 -1.95
  111.0552 C5H7N2O+ 2 111.0553 -0.43
  112.0393 C5H6NO2+ 2 112.0393 -0.34
  112.9998 CH6O4P+ 2 112.9998 0.02
  113.9535 H3O3PS+ 1 113.9535 0.18
  114.9613 H4O3PS+ 1 114.9613 -0.39
  119.024 C6H3N2O+ 4 119.024 0.11
  120.0447 C3H9N2OP+ 3 120.0447 -0.11
  120.0556 C6H6N3+ 5 120.0556 -0.35
  121.0396 C6H5N2O+ 4 121.0396 -0.39
  122.0237 C6H4NO2+ 3 122.0237 0.76
  122.0713 C6H8N3+ 5 122.0713 0.23
  123.0551 C6H7N2O+ 3 123.0553 -1.74
  124.0393 C6H6NO2+ 3 124.0393 0.14
  124.0506 C5H6N3O+ 4 124.0505 0.3
  126.0425 C5H6N2O2+ 3 126.0424 1
  127.0499 C5H7N2O2+ 2 127.0502 -2.53
  128.0339 C5H6NO3+ 2 128.0342 -2.32
  128.0454 C4H6N3O2+ 3 128.0455 -0.67
  128.9769 CH6O3PS+ 3 128.977 -0.24
  130.0399 C7H4N3+ 5 130.04 -0.3
  130.9562 H4O4PS+ 1 130.9562 -0.48
  131.0101 CH8O5P+ 3 131.0104 -2.39
  131.0239 C7H3N2O+ 4 131.024 -0.81
  131.0477 C7H5N3+ 5 131.0478 -0.5
  131.06 C8H7N2+ 3 131.0604 -2.62
  131.9637 H5O4PS+ 2 131.9641 -2.42
  132.0558 C7H6N3+ 5 132.0556 1.14
  132.9718 H6O4PS+ 3 132.9719 -0.54
  133.0396 C7H5N2O+ 4 133.0396 -0.41
  133.0633 C7H7N3+ 5 133.0634 -1.14
  134.0473 C7H6N2O+ 4 134.0475 -1.07
  137.0169 C6H5N2S+ 4 137.0168 0.51
  137.0344 C6H5N2O2+ 4 137.0346 -0.81
  138.055 C7H8NO2+ 3 138.055 -0.03
  138.0662 C6H8N3O+ 5 138.0662 0.28
  139.0502 C6H7N2O2+ 4 139.0502 -0.21
  142.9927 C2H8O3PS+ 4 142.9926 0.25
  145.9797 CH7O4PS+ 4 145.9797 0.15
  146.9874 CH8O4PS+ 4 146.9875 -1.08
  148.0504 C7H6N3O+ 5 148.0505 -0.7
  149.0345 C7H5N2O2+ 4 149.0346 -0.33
  150.0661 C7H8N3O+ 5 150.0662 -0.55
  151.0499 C7H7N2O2+ 5 151.0502 -2.31
  152.0458 C6H6N3O2+ 4 152.0455 2.26
  152.058 C7H8N2O2+ 4 152.058 0.13
  153.0658 C7H9N2O2+ 4 153.0659 -0.24
  155.045 C6H7N2O3+ 3 155.0451 -0.73
  159.0427 C8H5N3O+ 7 159.0427 -0.16
  160.0505 C8H6N3O+ 7 160.0505 0.05
  162.9955 C7H3N2OS+ 6 162.9961 -3.29
  164.0278 C7H6N3S+ 8 164.0277 0.53
  164.0457 C7H6N3O2+ 4 164.0455 1.39
  165.0117 C7H5N2OS+ 5 165.0117 0.03
  166.0611 C7H8N3O2+ 5 166.0611 -0.25
  167.0449 C7H7N2O3+ 3 167.0451 -1.56
  169.0371 C7H7NO4+ 2 169.037 0.78
  169.0616 C3H12N3O3P+ 4 169.0611 2.79
  170.9638 C9O2P+ 5 170.963 4.72
  172.967 C2H6O5PS+ 6 172.9668 0.9
  175.0375 C8H5N3O2+ 6 175.0376 -0.97
  176.0454 C8H6N3O2+ 5 176.0455 -0.17
  177.0295 C8H5N2O3+ 4 177.0295 0.23
  177.0531 C8H7N3O2+ 6 177.0533 -0.84
  178.061 C8H8N3O2+ 6 178.0611 -0.82
  180.0764 C10H12O3+ 6 180.0781 -9.42
  180.0889 C9H12N2O2+ 6 180.0893 -2.23
  181.0065 C7H5N2O2S+ 7 181.0066 -0.78
  182.0143 C7H6N2O2S+ 7 182.0144 -0.67
  183.0223 C7H7N2O2S+ 7 183.0223 -0.07
  184.9672 C3H6O5PS+ 6 184.9668 1.93
  190.007 C8H4N3OS+ 8 190.007 -0.05
  192.0226 C8H6N3OS+ 8 192.0226 0.08
  193.0481 C8H7N3O3+ 3 193.0482 -0.36
  194.056 C8H8N3O3+ 3 194.056 -0.18
  196.9676 C4H6O5PS+ 6 196.9668 4.15
  199.0171 C7H7N2O3S+ 8 199.0172 -0.53
  205.0844 C10H11N3O2+ 7 205.0846 -0.84
  206.0924 C10H12N3O2+ 7 206.0924 0.23
  207.0099 C8H5N3O2S+ 8 207.0097 0.98
  208.0175 C8H6N3O2S+ 8 208.0175 0.12
  208.0715 C9H10N3O3+ 3 208.0717 -0.78
  210.0328 C8H8N3O2S+ 9 210.0332 -1.64
  211.0537 C9H11N2O2S+ 7 211.0536 0.7
  212.0215 C11H4N2O3+ 4 212.0216 -0.68
  213.0327 C8H9N2O3S+ 8 213.0328 -0.72
  222.0062 C8H5N3O3P+ 4 222.0063 -0.63
  222.0876 C10H12N3O3+ 4 222.0873 1.35
  222.9706 C5H6NO5PS+ 6 222.9699 3.02
  227.0483 C9H11N2O3S+ 8 227.0485 -0.79
  238.0639 C10H12N3O2S+ 8 238.0645 -2.37
  239.0093 C8H6N3O4P+ 6 239.009 1.08
  240.0162 C12H4N2O4+ 4 240.0166 -1.29
  256.0117 C8H7N3O5P+ 6 256.0118 -0.15
  268.9749 C12H2N2O4P+ 3 268.9747 0.91
  271.9894 C8H7N3O4PS+ 6 271.9889 1.87
  274.0216 C14H11O2PS+ 2 274.0212 1.68
PK$NUM_PEAK: 158
PK$PEAK: m/z int. rel.int.
  51.0229 3106.2 1
  52.0182 5047.1 1
  53.0022 12344.7 4
  54.0338 46852.2 17
  55.0178 4796.5 1
  55.029 4750.3 1
  56.0494 26785 9
  61.0106 7663.2 2
  64.9786 396548.2 146
  65.0385 26146.4 9
  66.0337 63782.5 23
  67.0177 13593.6 5
  67.029 9221.7 3
  67.0416 8173.9 3
  68.013 84033.9 30
  68.0494 22008.7 8
  70.0287 23477.3 8
  71.0128 3459.7 1
  74.0964 7103.8 2
  78.0337 39648.5 14
  78.9401 7084 2
  78.9943 21266 7
  79.029 5963.9 2
  80.0131 54466.9 20
  80.0368 4057.3 1
  80.0494 10226.6 3
  80.9735 4095 1
  81.0447 48015.7 17
  82.0287 18361.6 6
  82.0526 4355.1 1
  82.9892 17984.7 6
  83.0127 9081 3
  83.0604 4348.1 1
  84.0444 8141.1 3
  92.0367 3807.3 1
  92.0495 53962.8 19
  93.01 98681.5 36
  93.0447 241466.9 89
  94.0287 186993 68
  94.0651 15639.8 5
  95.0603 79767.5 29
  96.0444 12881.8 4
  96.9507 42347.9 15
  97.0397 7001.9 2
  98.9664 14434.3 5
  98.9841 202321.3 74
  99.0552 48762.5 17
  100.0393 43373.9 15
  104.0367 3507.6 1
  105.0447 50784.6 18
  106.0288 25206.1 9
  106.0523 7621.4 2
  107.0239 6633.2 2
  107.0605 4738.5 1
  108.0317 6295.1 2
  108.0444 7096.6 2
  109.005 15031.1 5
  109.0395 38875.5 14
  110.0235 16540.9 6
  110.0349 9997.6 3
  110.0599 22275.7 8
  111.0313 9510.4 3
  111.0552 112667 41
  112.0393 48692.9 17
  112.9998 8670 3
  113.9535 408897.2 150
  114.9613 1921031.2 708
  119.024 10836.6 3
  120.0447 42489.1 15
  120.0556 372384.9 137
  121.0396 209912.2 77
  122.0237 8991.6 3
  122.0713 36200.2 13
  123.0551 20729.1 7
  124.0393 12937.6 4
  124.0506 21227.2 7
  126.0425 6609.9 2
  127.0499 5879.3 2
  128.0339 5953.8 2
  128.0454 7880.5 2
  128.9769 63185.1 23
  130.0399 22778.2 8
  130.9562 26312.7 9
  131.0101 4244 1
  131.0239 12732.3 4
  131.0477 46752.4 17
  131.06 6463.6 2
  131.9637 3033.4 1
  132.0558 5357.7 1
  132.9718 21366 7
  133.0396 31332.6 11
  133.0633 18919.2 6
  134.0473 19347.6 7
  137.0169 19790.3 7
  137.0344 12219.5 4
  138.055 5932.1 2
  138.0662 11362.6 4
  139.0502 468368.9 172
  142.9927 12664.1 4
  145.9797 6148.9 2
  146.9874 21079.6 7
  148.0504 1426697.5 525
  149.0345 191804.9 70
  150.0661 79647.8 29
  151.0499 14841.4 5
  152.0458 7265.6 2
  152.058 46140.7 17
  153.0658 5873.4 2
  155.045 9574 3
  159.0427 312130.8 115
  160.0505 31346.3 11
  162.9955 7167.5 2
  164.0278 13723.4 5
  164.0457 3502.9 1
  165.0117 201171.5 74
  166.0611 879384.3 324
  167.0449 21471.5 7
  169.0371 15041.8 5
  169.0616 3255.8 1
  170.9638 7751.6 2
  172.967 14575 5
  175.0375 25448.8 9
  176.0454 2710246.5 999
  177.0295 245701.6 90
  177.0531 868680 320
  178.061 130578.3 48
  180.0764 23702.1 8
  180.0889 7923.4 2
  181.0065 92565.9 34
  182.0143 3721.1 1
  183.0223 500099.4 184
  184.9672 4476.4 1
  190.007 10960.4 4
  192.0226 35741.3 13
  193.0481 11006.4 4
  194.056 2400399 884
  196.9676 3900.3 1
  199.0171 144322.7 53
  205.0844 39155.4 14
  206.0924 19317.4 7
  207.0099 17602.9 6
  208.0175 26481.8 9
  208.0715 71049.4 26
  210.0328 53857.8 19
  211.0537 11306.7 4
  212.0215 5761.3 2
  213.0327 26741.3 9
  222.0062 5756.8 2
  222.0876 23020.4 8
  222.9706 5125.3 1
  227.0483 4355.4 1
  238.0639 3447.8 1
  239.0093 4634.7 1
  240.0162 22034.2 8
  256.0117 19252.2 7
  268.9749 12140.2 4
  271.9894 7319.4 2
  274.0216 4669 1
//
