ACCESSION: MSBNK-LCSB-LU057554
RECORD_TITLE: Heptylparaben; LC-ESI-QFT; MS2; CE: 60; R=17500; [M-H]-
DATE: 2020.08.19
AUTHORS: Elapavalore, A.; Kondić, T.; Singh, R.; Schymanski, E.
LICENSE: CC BY
COPYRIGHT: Copyright © 2019 by Environmental Cheminformatics, LCSB, University of Luxembourg, Luxembourg
PUBLICATION: Elapavalore, A.; Kondić, T.; et al., Adding Open Spectral Data to MassBank and PubChem Using Open Source Tools to Support Non-Targeted Exposomics of Mixtures (submitted).
PROJECT: ENTACT U.S. Environmental Protection Agency’s Non-Targeted Analysis Collaborative Trial
COMMENT: CONFIDENCE standard compound
COMMENT: INTERNAL_ID 575
COMMENT: DATASET 20200303_ENTACT_RP_MIX506
COMMENT: DATA_PROCESSING MERGING RMBmix ver. 0.2.7
COMMENT: DATA_PROCESSING PRESCREENING Shinyscreen ver. 0.8.0
COMMENT: ORIGINAL_ACQUISITION_NO 5514
COMMENT: ORIGINAL_PRECURSOR_SCAN_NO 5512
COMMENT: RAW_DATA available as MSV000091754 at [DOI:10.25345/C5S46HG75]
CH$NAME: Heptylparaben
CH$NAME: heptyl 4-hydroxybenzoate
CH$COMPOUND_CLASS: N/A; Environmental Standard
CH$FORMULA: C14H20O3
CH$EXACT_MASS: 236.1412
CH$SMILES: CCCCCCCOC(=O)C1=CC=C(O)C=C1
CH$IUPAC: InChI=1S/C14H20O3/c1-2-3-4-5-6-11-17-14(16)12-7-9-13(15)10-8-12/h7-10,15H,2-6,11H2,1H3
CH$LINK: CAS 108-75-8
CH$LINK: CHEBI CHEBI:34788
CH$LINK: KEGG C14718
CH$LINK: PUBCHEM CID:14138
CH$LINK: INCHIKEY ZTJORNVITHUQJA-UHFFFAOYSA-N
CH$LINK: CHEMSPIDER 13515
AC$INSTRUMENT: Q Exactive Orbitrap (Thermo Scientific)
AC$INSTRUMENT_TYPE: LC-ESI-QFT
AC$MASS_SPECTROMETRY: MS_TYPE MS2
AC$MASS_SPECTROMETRY: ION_MODE NEGATIVE
AC$MASS_SPECTROMETRY: IONIZATION ESI
AC$MASS_SPECTROMETRY: FRAGMENTATION_MODE HCD
AC$MASS_SPECTROMETRY: COLLISION_ENERGY 60
AC$MASS_SPECTROMETRY: RESOLUTION 17500
AC$CHROMATOGRAPHY: COLUMN_NAME Acquity BEH C18 1.7um, 2.1x150mm (Waters)
AC$CHROMATOGRAPHY: FLOW_GRADIENT 90/10 at 0-2 min, 0/100 at 15-20 min, 90/10 at 20.1-30 min
AC$CHROMATOGRAPHY: FLOW_RATE 0.20 mL/min
AC$CHROMATOGRAPHY: RETENTION_TIME 19.502 min
AC$CHROMATOGRAPHY: SOLVENT A 0.1% formic acid
AC$CHROMATOGRAPHY: SOLVENT B methanol
MS$FOCUSED_ION: BASE_PEAK 235.1339
MS$FOCUSED_ION: PRECURSOR_M/Z 235.134
MS$FOCUSED_ION: PRECURSOR_TYPE [M-H]-
MS$FOCUSED_ION: PRECURSOR_INTENSITY 89233375.11328
MS$DATA_PROCESSING: RECALIBRATE loess on assigned fragments and MS1
MS$DATA_PROCESSING: REANALYZE Peaks with additional N2/O included
MS$DATA_PROCESSING: WHOLE RMassBank 2.99.2
PK$SPLASH: splash10-0006-9500000000-71274383cc7e21522a12
PK$ANNOTATION: m/z tentative_formula formula_count mass error(ppm)
  53.0033 C3HO- 1 53.0033 -0.27
  65.0032 C4HO- 1 65.0033 -1.04
  65.0397 C5H5- 1 65.0397 0.47
  67.019 C4H3O- 1 67.0189 0.33
  68.9982 C3HO2- 1 68.9982 -0.48
  69.0346 C4H5O- 1 69.0346 0.38
  70.0061 C3H2O2- 1 70.006 1.12
  71.0138 C3H3O2- 1 71.0139 -0.44
  72.9932 C2HO3- 1 72.9931 0.54
  78.0111 C5H2O- 1 78.0111 0.22
  79.0189 C5H3O- 1 79.0189 -0.2
  79.9904 C4O2- 1 79.9904 -0.2
  80.9983 C4HO2- 1 80.9982 1.2
  82.006 C4H2O2- 1 82.006 -0.13
  91.019 C6H3O- 1 91.0189 0.44
  92.0268 C6H4O- 1 92.0268 0.43
  93.0346 C6H5O- 1 93.0346 -0.05
  95.0138 C5H3O2- 1 95.0139 -0.17
  97.0296 C5H5O2- 1 97.0295 1.51
  98.001 C4H2O3- 1 98.0009 0.41
  106.006 C6H2O2- 1 106.006 -0.1
  106.0424 C7H6O- 1 106.0424 -0.11
  107.0138 C6H3O2- 1 107.0139 -0.43
  108.0217 C6H4O2- 1 108.0217 0.02
  109.0295 C6H5O2- 1 109.0295 0.13
  111.0815 C7H11O- 1 111.0815 -0.29
  113.0972 C7H13O- 1 113.0972 0.33
  119.0139 C7H3O2- 1 119.0139 0.14
  121.0295 C7H5O2- 1 121.0295 -0.3
  123.0088 C6H3O3- 1 123.0088 0.15
  136.0165 C7H4O3- 1 136.0166 -0.33
  137.0244 C7H5O3- 1 137.0244 -0.3
  149.0246 C8H5O3- 1 149.0244 1.17
  235.134 C14H19O3- 1 235.134 0.3
PK$NUM_PEAK: 34
PK$PEAK: m/z int. rel.int.
  53.0033 12331 1
  65.0032 18805.9 1
  65.0397 39289.3 3
  67.019 40242.9 3
  68.9982 103642.8 9
  69.0346 92819.4 8
  70.0061 51255 4
  71.0138 83056.5 7
  72.9932 49107.6 4
  78.0111 19653.8 1
  79.0189 75868.8 7
  79.9904 38820.1 3
  80.9983 19165.3 1
  82.006 286636.6 26
  91.019 773477.9 72
  92.0268 1636117.1 153
  93.0346 10617376 999
  95.0138 4192261.8 394
  97.0296 64616.4 6
  98.001 16534.6 1
  106.006 230551.2 21
  106.0424 15224.4 1
  107.0138 42005 3
  108.0217 3830918.8 360
  109.0295 16410.5 1
  111.0815 17514.4 1
  113.0972 599392.8 56
  119.0139 205874.3 19
  121.0295 411158.7 38
  123.0088 540925.8 50
  136.0165 2802348 263
  137.0244 2190915.5 206
  149.0246 16791.6 1
  235.134 403295.1 37
//
