ACCESSION: MSBNK-LCSB-LU040855
RECORD_TITLE: Forskolin; LC-ESI-QFT; MS2; CE: 75; R=17500; [M-H]-
DATE: 2020.08.19
AUTHORS: Elapavalore, A.; Kondić, T.; Singh, R.; Schymanski, E.
LICENSE: CC BY
COPYRIGHT: Copyright © 2019 by Environmental Cheminformatics, LCSB, University of Luxembourg, Luxembourg
PUBLICATION: Elapavalore, A.; Kondić, T.; et al., Adding Open Spectral Data to MassBank and PubChem Using Open Source Tools to Support Non-Targeted Exposomics of Mixtures (submitted).
PROJECT: ENTACT U.S. Environmental Protection Agency’s Non-Targeted Analysis Collaborative Trial
COMMENT: CONFIDENCE standard compound
COMMENT: INTERNAL_ID 408
COMMENT: DATASET 20200303_ENTACT_RP_MIX505
COMMENT: DATA_PROCESSING MERGING RMBmix ver. 0.2.7
COMMENT: DATA_PROCESSING PRESCREENING Shinyscreen ver. 0.8.0
COMMENT: ORIGINAL_ACQUISITION_NO 4747
COMMENT: ORIGINAL_PRECURSOR_SCAN_NO 4745
COMMENT: RAW_DATA available as MSV000091754 at [DOI:10.25345/C5S46HG75]
CH$NAME: Forskolin
CH$NAME: [(3R,4aR,5S,6S,6aS,10S,10aR,10bS)-3-ethenyl-6,10,10b-trihydroxy-3,4a,7,7,10a-pentamethyl-1-oxo-5,6,6a,8,9,10-hexahydro-2H-benzo[f]chromen-5-yl] acetate
CH$COMPOUND_CLASS: N/A; Environmental Standard
CH$FORMULA: C22H34O7
CH$EXACT_MASS: 410.2305
CH$SMILES: CC(=O)O[C@H]1[C@@H](O)[C@H]2C(C)(C)CC[C@H](O)[C@]2(C)[C@@]2(O)C(=O)C[C@@](C)(O[C@]12C)C=C
CH$IUPAC: InChI=1S/C22H34O7/c1-8-19(5)11-14(25)22(27)20(6)13(24)9-10-18(3,4)16(20)15(26)17(28-12(2)23)21(22,7)29-19/h8,13,15-17,24,26-27H,1,9-11H2,2-7H3/t13-,15-,16-,17-,19-,20-,21+,22-/m0/s1
CH$LINK: CAS 64657-11-0
CH$LINK: CHEBI CHEBI:42471
CH$LINK: KEGG D03584
CH$LINK: LIPIDMAPS LMPR0104030004
CH$LINK: PUBCHEM CID:47936
CH$LINK: INCHIKEY OHCQJHSOBUTRHG-KGGHGJDLSA-N
CH$LINK: CHEMSPIDER 43607
AC$INSTRUMENT: Q Exactive Orbitrap (Thermo Scientific)
AC$INSTRUMENT_TYPE: LC-ESI-QFT
AC$MASS_SPECTROMETRY: MS_TYPE MS2
AC$MASS_SPECTROMETRY: ION_MODE NEGATIVE
AC$MASS_SPECTROMETRY: IONIZATION ESI
AC$MASS_SPECTROMETRY: FRAGMENTATION_MODE HCD
AC$MASS_SPECTROMETRY: COLLISION_ENERGY 75
AC$MASS_SPECTROMETRY: RESOLUTION 17500
AC$CHROMATOGRAPHY: COLUMN_NAME Acquity BEH C18 1.7um, 2.1x150mm (Waters)
AC$CHROMATOGRAPHY: FLOW_GRADIENT 90/10 at 0-2 min, 0/100 at 15-20 min, 90/10 at 20.1-30 min
AC$CHROMATOGRAPHY: FLOW_RATE 0.20 mL/min
AC$CHROMATOGRAPHY: RETENTION_TIME 17.494 min
AC$CHROMATOGRAPHY: SOLVENT A 0.1% formic acid
AC$CHROMATOGRAPHY: SOLVENT B methanol
MS$FOCUSED_ION: BASE_PEAK 307.0977
MS$FOCUSED_ION: PRECURSOR_M/Z 409.2232
MS$FOCUSED_ION: PRECURSOR_TYPE [M-H]-
MS$FOCUSED_ION: PRECURSOR_INTENSITY 6479354.820313
MS$DATA_PROCESSING: RECALIBRATE loess on assigned fragments and MS1
MS$DATA_PROCESSING: REANALYZE Peaks with additional N2/O included
MS$DATA_PROCESSING: WHOLE RMassBank 2.99.2
PK$SPLASH: splash10-0a4i-9000000000-54997a37086923147f8a
PK$ANNOTATION: m/z tentative_formula formula_count mass error(ppm)
  57.0346 C3H5O- 1 57.0346 -0.39
  59.0138 C2H3O2- 1 59.0139 -0.44
  73.0295 C3H5O2- 1 73.0295 0.26
  80.0267 C5H4O- 1 80.0268 -0.34
  83.0502 C5H7O- 1 83.0502 -0.71
  95.0503 C6H7O- 1 95.0502 0.67
  97.0659 C6H9O- 1 97.0659 0.17
  107.0504 C7H7O- 1 107.0502 1.17
  111.0817 C7H11O- 1 111.0815 1.39
  121.066 C8H9O- 1 121.0659 0.58
  122.0374 C7H6O2- 1 122.0373 0.37
  123.0453 C7H7O2- 1 123.0452 1.14
  123.0815 C8H11O- 1 123.0815 -0.67
  149.0972 C10H13O- 1 149.0972 -0.03
  151.0763 C9H11O2- 1 151.0765 -1.05
  161.0966 C11H13O- 1 161.0972 -3.73
PK$NUM_PEAK: 16
PK$PEAK: m/z int. rel.int.
  57.0346 7620.5 11
  59.0138 676649.9 999
  73.0295 3591.9 5
  80.0267 2253 3
  83.0502 3371 4
  95.0503 6151.6 9
  97.0659 7202.4 10
  107.0504 3637 5
  111.0817 2352.5 3
  121.066 2843.6 4
  122.0374 2970.6 4
  123.0453 3034.1 4
  123.0815 2927.3 4
  149.0972 2445.6 3
  151.0763 3372.5 4
  161.0966 2065.7 3
//
