ACCESSION: MSBNK-LCSB-LU031703
RECORD_TITLE: PharmaGSID_48511; LC-ESI-QFT; MS2; CE: 45; R=17500; [M+H]+
DATE: 2020.08.19
AUTHORS: Elapavalore, A.; Kondić, T.; Singh, R.; Schymanski, E.
LICENSE: CC BY
COPYRIGHT: Copyright © 2019 by Environmental Cheminformatics, LCSB, University of Luxembourg, Luxembourg
PUBLICATION: Elapavalore, A.; Kondić, T.; et al., Adding Open Spectral Data to MassBank and PubChem Using Open Source Tools to Support Non-Targeted Exposomics of Mixtures (submitted).
PROJECT: ENTACT U.S. Environmental Protection Agency’s Non-Targeted Analysis Collaborative Trial
COMMENT: CONFIDENCE standard compound
COMMENT: INTERNAL_ID 317
COMMENT: DATASET 20200303_ENTACT_RP_MIX505
COMMENT: DATA_PROCESSING MERGING RMBmix ver. 0.2.7
COMMENT: DATA_PROCESSING PRESCREENING Shinyscreen ver. 0.8.0
COMMENT: ORIGINAL_ACQUISITION_NO 7785
COMMENT: ORIGINAL_PRECURSOR_SCAN_NO 7784
COMMENT: RAW_DATA available as MSV000091754 at [DOI:10.25345/C5S46HG75]
CH$NAME: PharmaGSID_48511
CH$NAME: 4-[(9-cyclopentyl-7,7-difluoro-5-methyl-6-oxo-8H-pyrimido[4,5-b][1,4]diazepin-2-yl)amino]-3-methoxy-N-(1-methylpiperidin-4-yl)benzamide
CH$COMPOUND_CLASS: N/A; Environmental Standard
CH$FORMULA: C27H35F2N7O3
CH$EXACT_MASS: 543.2769
CH$SMILES: COC1=C(NC2=NC3=C(C=N2)N(C)C(=O)C(F)(F)CN3C2CCCC2)C=CC(=C1)C(=O)NC1CCN(C)CC1
CH$IUPAC: InChI=1S/C27H35F2N7O3/c1-34-12-10-18(11-13-34)31-24(37)17-8-9-20(22(14-17)39-3)32-26-30-15-21-23(33-26)36(19-6-4-5-7-19)16-27(28,29)25(38)35(21)2/h8-9,14-15,18-19H,4-7,10-13,16H2,1-3H3,(H,31,37)(H,30,32,33)
CH$LINK: CAS 1062243-51-9
CH$LINK: PUBCHEM CID:25015677
CH$LINK: INCHIKEY DJNZZLZKAXGMMC-UHFFFAOYSA-N
CH$LINK: CHEMSPIDER 21437060
AC$INSTRUMENT: Q Exactive Orbitrap (Thermo Scientific)
AC$INSTRUMENT_TYPE: LC-ESI-QFT
AC$MASS_SPECTROMETRY: MS_TYPE MS2
AC$MASS_SPECTROMETRY: ION_MODE POSITIVE
AC$MASS_SPECTROMETRY: IONIZATION ESI
AC$MASS_SPECTROMETRY: FRAGMENTATION_MODE HCD
AC$MASS_SPECTROMETRY: COLLISION_ENERGY 45
AC$MASS_SPECTROMETRY: RESOLUTION 17500
AC$CHROMATOGRAPHY: COLUMN_NAME Acquity BEH C18 1.7um, 2.1x150mm (Waters)
AC$CHROMATOGRAPHY: FLOW_GRADIENT 90/10 at 0-2 min, 0/100 at 15-20 min, 90/10 at 20.1-30 min
AC$CHROMATOGRAPHY: FLOW_RATE 0.20 mL/min
AC$CHROMATOGRAPHY: RETENTION_TIME 14.825 min
AC$CHROMATOGRAPHY: SOLVENT A 0.1% formic acid
AC$CHROMATOGRAPHY: SOLVENT B methanol
MS$FOCUSED_ION: BASE_PEAK 79.0211
MS$FOCUSED_ION: PRECURSOR_M/Z 544.2842
MS$FOCUSED_ION: PRECURSOR_TYPE [M+H]+
MS$FOCUSED_ION: PRECURSOR_INTENSITY 9200419
MS$DATA_PROCESSING: RECALIBRATE loess on assigned fragments and MS1
MS$DATA_PROCESSING: REANALYZE Peaks with additional N2/O included
MS$DATA_PROCESSING: WHOLE RMassBank 2.99.2
PK$SPLASH: splash10-001i-0003900000-00aab1456cadd257ce71
PK$ANNOTATION: m/z tentative_formula formula_count mass error(ppm)
  55.0543 C4H7+ 1 55.0542 1.15
  70.0652 C4H8N+ 1 70.0651 0.38
  96.0809 C6H10N+ 3 96.0808 1.66
  98.0965 C6H12N+ 3 98.0964 0.83
  255.0751 C12H9N5O2+ 5 255.0751 0.08
  283.0705 C13H9N5O3+ 7 283.07 1.97
  291.0922 C13H11F2N5O+ 8 291.0926 -1.43
  297.1162 C18H16FNO2+ 9 297.116 0.71
  306.1168 C19H15FN2O+ 7 306.1163 1.74
  318.08 C19H11FN2O2+ 8 318.0799 0.33
  319.0878 C19H12FN2O2+ 8 319.0877 0.29
  334.1113 C20H15FN2O2+ 8 334.1112 0.34
  335.0825 C14H11F2N5O3+ 10 335.0824 0.02
  347.0827 C20H12FN2O3+ 10 347.0826 0.19
  362.1062 C21H15FN2O3+ 10 362.1061 0.13
  371.1556 C24H20FN2O+ 10 371.1554 0.62
  403.1455 C24H20FN2O3+ 10 403.1452 0.54
  419.1404 C25H16FN6+ 8 419.1415 -2.69
  430.169 C26H23FN2O3+ 7 430.1687 0.64
PK$NUM_PEAK: 19
PK$PEAK: m/z int. rel.int.
  55.0543 14802.2 1
  70.0652 30791.5 3
  96.0809 16300.9 1
  98.0965 152227 18
  255.0751 23150.6 2
  283.0705 8732.7 1
  291.0922 16252.2 1
  297.1162 12900.9 1
  306.1168 13130.1 1
  318.08 10565.7 1
  319.0878 429487.5 52
  334.1113 1102164 134
  335.0825 21789 2
  347.0827 31703.6 3
  362.1062 1609178.5 196
  371.1556 30835.4 3
  403.1455 60494.7 7
  419.1404 12983.9 1
  430.169 8161237.5 999
//
