ACCESSION: MSBNK-LCSB-LU086202
RECORD_TITLE: Pentaethylene glycol; LC-ESI-QFT; MS2; CE: 30; R=17500; [M+H]+
DATE: 2020.08.19
AUTHORS: Elapavalore, A.; Kondić, T.; Singh, R.; Schymanski, E.
LICENSE: CC BY
COPYRIGHT: Copyright © 2019 by Environmental Cheminformatics, LCSB, University of Luxembourg, Luxembourg
PUBLICATION: Elapavalore, A.; Kondić, T.; et al., Adding Open Spectral Data to MassBank and PubChem Using Open Source Tools to Support Non-Targeted Exposomics of Mixtures (submitted).
PROJECT: ENTACT U.S. Environmental Protection Agency’s Non-Targeted Analysis Collaborative Trial
COMMENT: CONFIDENCE standard compound
COMMENT: INTERNAL_ID 862
COMMENT: DATASET 20200303_ENTACT_RP_MIX508
COMMENT: DATA_PROCESSING MERGING RMBmix ver. 0.2.7
COMMENT: DATA_PROCESSING PRESCREENING Shinyscreen ver. 0.8.0
COMMENT: ORIGINAL_ACQUISITION_NO 6681
COMMENT: ORIGINAL_PRECURSOR_SCAN_NO 6677
COMMENT: RAW_DATA available as MSV000091754 at [DOI:10.25345/C5S46HG75]
CH$NAME: Pentaethylene glycol
CH$NAME: 2-[2-[2-[2-(2-hydroxyethoxy)ethoxy]ethoxy]ethoxy]ethanol
CH$COMPOUND_CLASS: N/A; Environmental Standard
CH$FORMULA: C10H22O6
CH$EXACT_MASS: 238.1416
CH$SMILES: OCCOCCOCCOCCOCCO
CH$IUPAC: InChI=1S/C10H22O6/c11-1-3-13-5-7-15-9-10-16-8-6-14-4-2-12/h11-12H,1-10H2
CH$LINK: CAS 4792-15-8
CH$LINK: CHEBI CHEBI:39631
CH$LINK: PUBCHEM CID:62551
CH$LINK: INCHIKEY JLFNLZLINWHATN-UHFFFAOYSA-N
CH$LINK: CHEMSPIDER 56318
AC$INSTRUMENT: Q Exactive Orbitrap (Thermo Scientific)
AC$INSTRUMENT_TYPE: LC-ESI-QFT
AC$MASS_SPECTROMETRY: MS_TYPE MS2
AC$MASS_SPECTROMETRY: ION_MODE POSITIVE
AC$MASS_SPECTROMETRY: IONIZATION ESI
AC$MASS_SPECTROMETRY: FRAGMENTATION_MODE HCD
AC$MASS_SPECTROMETRY: COLLISION_ENERGY 30
AC$MASS_SPECTROMETRY: RESOLUTION 17500
AC$CHROMATOGRAPHY: COLUMN_NAME Acquity BEH C18 1.7um, 2.1x150mm (Waters)
AC$CHROMATOGRAPHY: FLOW_GRADIENT 90/10 at 0-2 min, 0/100 at 15-20 min, 90/10 at 20.1-30 min
AC$CHROMATOGRAPHY: FLOW_RATE 0.20 mL/min
AC$CHROMATOGRAPHY: RETENTION_TIME 12.679 min
AC$CHROMATOGRAPHY: SOLVENT A 0.1% formic acid
AC$CHROMATOGRAPHY: SOLVENT B methanol
MS$FOCUSED_ION: BASE_PEAK 79.0211
MS$FOCUSED_ION: PRECURSOR_M/Z 239.1489
MS$FOCUSED_ION: PRECURSOR_TYPE [M+H]+
MS$FOCUSED_ION: PRECURSOR_INTENSITY 29534398
MS$DATA_PROCESSING: RECALIBRATE loess on assigned fragments and MS1
MS$DATA_PROCESSING: REANALYZE Peaks with additional N2/O included
MS$DATA_PROCESSING: WHOLE RMassBank 2.99.2
PK$SPLASH: splash10-000i-0190000000-10722f339c16bcd8597f
PK$ANNOTATION: m/z tentative_formula formula_count mass error(ppm)
  150.1027 C10H14O+ 1 150.1039 -8.14
  166.0975 C10H14O2+ 1 166.0988 -8.28
  167.1047 C10H15O2+ 1 167.1067 -11.5
  168.1131 C10H16O2+ 1 168.1145 -7.96
  195.1604 C9H23O4+ 1 195.1591 6.83
  239.1502 C10H23O6+ 1 239.1489 5.27
PK$NUM_PEAK: 6
PK$PEAK: m/z int. rel.int.
  150.1027 39029 8
  166.0975 71534.5 15
  167.1047 35571.7 7
  168.1131 14019.7 3
  195.1604 781905.1 172
  239.1502 4537604 999
//
