ACCESSION: MSBNK-LCSB-LU122403
RECORD_TITLE: Methyl trans-styryl ketone; LC-ESI-QFT; MS2; CE: 45; R=17500; [M+H]+
DATE: 2020.08.19
AUTHORS: Elapavalore, A.; Kondić, T.; Singh, R.; Schymanski, E.
LICENSE: CC BY
COPYRIGHT: Copyright © 2019 by Environmental Cheminformatics, LCSB, University of Luxembourg, Luxembourg
PUBLICATION: Elapavalore, A.; Kondić, T.; et al., Adding Open Spectral Data to MassBank and PubChem Using Open Source Tools to Support Non-Targeted Exposomics of Mixtures (submitted).
PROJECT: ENTACT U.S. Environmental Protection Agency’s Non-Targeted Analysis Collaborative Trial
COMMENT: CONFIDENCE standard compound
COMMENT: INTERNAL_ID 1224
COMMENT: DATASET 20200303_ENTACT_RP_MIX508
COMMENT: DATA_PROCESSING MERGING RMBmix ver. 0.2.7
COMMENT: DATA_PROCESSING PRESCREENING Shinyscreen ver. 0.8.0
COMMENT: ORIGINAL_ACQUISITION_NO 10359
COMMENT: ORIGINAL_PRECURSOR_SCAN_NO 10356
COMMENT: RAW_DATA available as MSV000091754 at [DOI:10.25345/C5S46HG75]
CH$NAME: Methyl trans-styryl ketone
CH$NAME: Benzylideneacetone
CH$NAME: (E)-4-phenylbut-3-en-2-one
CH$COMPOUND_CLASS: N/A; Environmental Standard
CH$FORMULA: C10H10O
CH$EXACT_MASS: 146.0732
CH$SMILES: CC(=O)\C=C\C1=CC=CC=C1
CH$IUPAC: InChI=1S/C10H10O/c1-9(11)7-8-10-5-3-2-4-6-10/h2-8H,1H3/b8-7+
CH$LINK: CAS 122-57-6
CH$LINK: CHEBI CHEBI:78399
CH$LINK: PUBCHEM CID:637759
CH$LINK: INCHIKEY BWHOZHOGCMHOBV-BQYQJAHWSA-N
CH$LINK: CHEMSPIDER 21106584
AC$INSTRUMENT: Q Exactive Orbitrap (Thermo Scientific)
AC$INSTRUMENT_TYPE: LC-ESI-QFT
AC$MASS_SPECTROMETRY: MS_TYPE MS2
AC$MASS_SPECTROMETRY: ION_MODE POSITIVE
AC$MASS_SPECTROMETRY: IONIZATION ESI
AC$MASS_SPECTROMETRY: FRAGMENTATION_MODE HCD
AC$MASS_SPECTROMETRY: COLLISION_ENERGY 45
AC$MASS_SPECTROMETRY: RESOLUTION 17500
AC$CHROMATOGRAPHY: COLUMN_NAME Acquity BEH C18 1.7um, 2.1x150mm (Waters)
AC$CHROMATOGRAPHY: FLOW_GRADIENT 90/10 at 0-2 min, 0/100 at 15-20 min, 90/10 at 20.1-30 min
AC$CHROMATOGRAPHY: FLOW_RATE 0.20 mL/min
AC$CHROMATOGRAPHY: RETENTION_TIME 19.670 min
AC$CHROMATOGRAPHY: SOLVENT A 0.1% formic acid
AC$CHROMATOGRAPHY: SOLVENT B methanol
MS$FOCUSED_ION: BASE_PEAK 79.0211
MS$FOCUSED_ION: PRECURSOR_M/Z 147.0804
MS$FOCUSED_ION: PRECURSOR_TYPE [M+H]+
MS$FOCUSED_ION: PRECURSOR_INTENSITY 1762955.28125
MS$DATA_PROCESSING: RECALIBRATE loess on assigned fragments and MS1
MS$DATA_PROCESSING: REANALYZE Peaks with additional N2/O included
MS$DATA_PROCESSING: WHOLE RMassBank 2.99.2
PK$SPLASH: splash10-014j-2900000000-369a3322c28fa76efe8a
PK$ANNOTATION: m/z tentative_formula formula_count mass error(ppm)
  55.0179 C3H3O+ 1 55.0178 1.17
  69.0333 C4H5O+ 1 69.0335 -2.2
  79.0543 C6H7+ 1 79.0542 0.88
  91.0543 C7H7+ 1 91.0542 1.06
  93.07 C7H9+ 1 93.0699 1.07
  95.0489 C6H7O+ 1 95.0491 -2.83
  103.0543 C8H7+ 1 103.0542 0.94
  104.0621 C8H8+ 1 104.0621 0.6
  105.07 C8H9+ 1 105.0699 0.92
  107.0492 C7H7O+ 1 107.0491 0.5
  115.0543 C9H7+ 1 115.0542 0.99
  117.07 C9H9+ 1 117.0699 0.85
  119.0857 C9H11+ 1 119.0855 1.11
  121.0647 C8H9O+ 1 121.0648 -1.11
  128.062 C10H8+ 1 128.0621 -0.49
  129.07 C10H9+ 1 129.0699 0.84
  131.049 C9H7O+ 1 131.0491 -0.93
  132.0571 C9H8O+ 1 132.057 0.71
  145.0651 C10H9O+ 1 145.0648 2.12
  147.0806 C10H11O+ 1 147.0804 0.88
PK$NUM_PEAK: 20
PK$PEAK: m/z int. rel.int.
  55.0179 4724.1 11
  69.0333 4338 10
  79.0543 12309.9 30
  91.0543 165153.6 414
  93.07 9008.4 22
  95.0489 2348.5 5
  103.0543 10764.5 27
  104.0621 6867.4 17
  105.07 5132.6 12
  107.0492 21689.4 54
  115.0543 4466.5 11
  117.07 68342.3 171
  119.0857 397827.3 999
  121.0647 2806 7
  128.062 4545.2 11
  129.07 51353.6 128
  131.049 1730.1 4
  132.0571 19305.3 48
  145.0651 2551 6
  147.0806 242364.6 608
//
