ACCESSION: MSBNK-LCSB-LU064805
RECORD_TITLE: Propamocarb; LC-ESI-QFT; MS2; CE: 75; R=17500; [M+H]+
DATE: 2020.08.19
AUTHORS: Elapavalore, A.; Kondić, T.; Singh, R.; Schymanski, E.
LICENSE: CC BY
COPYRIGHT: Copyright © 2019 by Environmental Cheminformatics, LCSB, University of Luxembourg, Luxembourg
PUBLICATION: Elapavalore, A.; Kondić, T.; et al., Adding Open Spectral Data to MassBank and PubChem Using Open Source Tools to Support Non-Targeted Exposomics of Mixtures (submitted).
PROJECT: ENTACT U.S. Environmental Protection Agency’s Non-Targeted Analysis Collaborative Trial
COMMENT: CONFIDENCE standard compound
COMMENT: INTERNAL_ID 648
COMMENT: DATASET 20200303_ENTACT_RP_MIX505
COMMENT: DATA_PROCESSING MERGING RMBmix ver. 0.2.7
COMMENT: DATA_PROCESSING PRESCREENING Shinyscreen ver. 0.8.0
COMMENT: ORIGINAL_ACQUISITION_NO 3978
COMMENT: ORIGINAL_PRECURSOR_SCAN_NO 3976
COMMENT: RAW_DATA available as MSV000091754 at [DOI:10.25345/C5S46HG75]
CH$NAME: Propamocarb
CH$NAME: propyl N-[3-(dimethylamino)propyl]carbamate
CH$COMPOUND_CLASS: N/A; Environmental Standard
CH$FORMULA: C9H20N2O2
CH$EXACT_MASS: 188.1525
CH$SMILES: CCCOC(=O)NCCCN(C)C
CH$IUPAC: InChI=1S/C9H20N2O2/c1-4-8-13-9(12)10-6-5-7-11(2)3/h4-8H2,1-3H3,(H,10,12)
CH$LINK: CAS 24579-73-5
CH$LINK: CHEBI CHEBI:82033
CH$LINK: KEGG C18885
CH$LINK: PUBCHEM CID:32490
CH$LINK: INCHIKEY WZZLDXDUQPOXNW-UHFFFAOYSA-N
CH$LINK: CHEMSPIDER 30114
AC$INSTRUMENT: Q Exactive Orbitrap (Thermo Scientific)
AC$INSTRUMENT_TYPE: LC-ESI-QFT
AC$MASS_SPECTROMETRY: MS_TYPE MS2
AC$MASS_SPECTROMETRY: ION_MODE POSITIVE
AC$MASS_SPECTROMETRY: IONIZATION ESI
AC$MASS_SPECTROMETRY: FRAGMENTATION_MODE HCD
AC$MASS_SPECTROMETRY: COLLISION_ENERGY 75
AC$MASS_SPECTROMETRY: RESOLUTION 17500
AC$CHROMATOGRAPHY: COLUMN_NAME Acquity BEH C18 1.7um, 2.1x150mm (Waters)
AC$CHROMATOGRAPHY: FLOW_GRADIENT 90/10 at 0-2 min, 0/100 at 15-20 min, 90/10 at 20.1-30 min
AC$CHROMATOGRAPHY: FLOW_RATE 0.20 mL/min
AC$CHROMATOGRAPHY: RETENTION_TIME 7.606 min
AC$CHROMATOGRAPHY: SOLVENT A 0.1% formic acid
AC$CHROMATOGRAPHY: SOLVENT B methanol
MS$FOCUSED_ION: BASE_PEAK 79.0211
MS$FOCUSED_ION: PRECURSOR_M/Z 189.1598
MS$FOCUSED_ION: PRECURSOR_TYPE [M+H]+
MS$FOCUSED_ION: PRECURSOR_INTENSITY 15198273.25
MS$DATA_PROCESSING: RECALIBRATE loess on assigned fragments and MS1
MS$DATA_PROCESSING: REANALYZE Peaks with additional N2/O included
MS$DATA_PROCESSING: WHOLE RMassBank 2.99.2
PK$SPLASH: splash10-0fk9-9600000000-41102ee059ad50ee61b2
PK$ANNOTATION: m/z tentative_formula formula_count mass error(ppm)
  53.0022 C3HO+ 1 53.0022 -0.24
  53.9975 C2NO+ 1 53.9974 1.16
  56.0131 C2H2NO+ 1 56.0131 0.32
  56.0495 C3H6N+ 1 56.0495 -0.3
  58.0651 C3H8N+ 1 58.0651 -0.06
  71.0728 C4H9N+ 1 71.073 -2.02
  74.0236 C2H4NO2+ 1 74.0237 -0.88
  84.0444 C4H6NO+ 1 84.0444 -0.02
  84.0807 C5H10N+ 1 84.0808 -1.21
  86.0964 C5H12N+ 1 86.0964 -0.23
  102.0549 C4H8NO2+ 1 102.055 -0.16
  106.065 C7H8N+ 1 106.0651 -0.76
  129.1022 C6H13N2O+ 1 129.1022 -0.27
  144.1017 C7H14NO2+ 1 144.1019 -1.51
PK$NUM_PEAK: 14
PK$PEAK: m/z int. rel.int.
  53.0022 30515.3 6
  53.9975 6867.4 1
  56.0131 11988.2 2
  56.0495 16880.1 3
  58.0651 1264127.1 278
  71.0728 8071.5 1
  74.0236 4526940.5 999
  84.0444 22708.8 5
  84.0807 20974.1 4
  86.0964 192072.2 42
  102.0549 4244580 936
  106.065 4911.8 1
  129.1022 13425.4 2
  144.1017 5632.6 1
//
