ACCESSION: MSBNK-LCSB-LU087953
RECORD_TITLE: 3-((Ethylphenylamino)methyl)benzenesulfonic acid; LC-ESI-QFT; MS2; CE: 45; R=17500; [M-H]-
DATE: 2020.08.19
AUTHORS: Elapavalore, A.; Kondić, T.; Singh, R.; Schymanski, E.
LICENSE: CC BY
COPYRIGHT: Copyright © 2019 by Environmental Cheminformatics, LCSB, University of Luxembourg, Luxembourg
PUBLICATION: Elapavalore, A.; Kondić, T.; et al., Adding Open Spectral Data to MassBank and PubChem Using Open Source Tools to Support Non-Targeted Exposomics of Mixtures (submitted).
PROJECT: ENTACT U.S. Environmental Protection Agency’s Non-Targeted Analysis Collaborative Trial
COMMENT: CONFIDENCE standard compound
COMMENT: INTERNAL_ID 879
COMMENT: DATASET 20200303_ENTACT_RP_MIX506
COMMENT: DATA_PROCESSING MERGING RMBmix ver. 0.2.7
COMMENT: DATA_PROCESSING PRESCREENING Shinyscreen ver. 0.8.0
COMMENT: ORIGINAL_ACQUISITION_NO 2781
COMMENT: ORIGINAL_PRECURSOR_SCAN_NO 2780
COMMENT: RAW_DATA available as MSV000091754 at [DOI:10.25345/C5S46HG75]
CH$NAME: 3-((Ethylphenylamino)methyl)benzenesulfonic acid
CH$NAME: 3-[(N-ethylanilino)methyl]benzenesulfonic acid
CH$COMPOUND_CLASS: N/A; Environmental Standard
CH$FORMULA: C15H17NO3S
CH$EXACT_MASS: 291.0929
CH$SMILES: CCN(CC1=CC(=CC=C1)S(O)(=O)=O)C1=CC=CC=C1
CH$IUPAC: InChI=1S/C15H17NO3S/c1-2-16(14-8-4-3-5-9-14)12-13-7-6-10-15(11-13)20(17,18)19/h3-11H,2,12H2,1H3,(H,17,18,19)
CH$LINK: CAS 92-60-4
CH$LINK: PUBCHEM CID:66858
CH$LINK: INCHIKEY BQGRVFPPZJPWPB-UHFFFAOYSA-N
CH$LINK: CHEMSPIDER 60222
AC$INSTRUMENT: Q Exactive Orbitrap (Thermo Scientific)
AC$INSTRUMENT_TYPE: LC-ESI-QFT
AC$MASS_SPECTROMETRY: MS_TYPE MS2
AC$MASS_SPECTROMETRY: ION_MODE NEGATIVE
AC$MASS_SPECTROMETRY: IONIZATION ESI
AC$MASS_SPECTROMETRY: FRAGMENTATION_MODE HCD
AC$MASS_SPECTROMETRY: COLLISION_ENERGY 45
AC$MASS_SPECTROMETRY: RESOLUTION 17500
AC$CHROMATOGRAPHY: COLUMN_NAME Acquity BEH C18 1.7um, 2.1x150mm (Waters)
AC$CHROMATOGRAPHY: FLOW_GRADIENT 90/10 at 0-2 min, 0/100 at 15-20 min, 90/10 at 20.1-30 min
AC$CHROMATOGRAPHY: FLOW_RATE 0.20 mL/min
AC$CHROMATOGRAPHY: RETENTION_TIME 11.234 min
AC$CHROMATOGRAPHY: SOLVENT A 0.1% formic acid
AC$CHROMATOGRAPHY: SOLVENT B methanol
MS$FOCUSED_ION: BASE_PEAK 290.0858
MS$FOCUSED_ION: PRECURSOR_M/Z 290.0856
MS$FOCUSED_ION: PRECURSOR_TYPE [M-H]-
MS$FOCUSED_ION: PRECURSOR_INTENSITY 4248061.008789
MS$DATA_PROCESSING: RECALIBRATE loess on assigned fragments and MS1
MS$DATA_PROCESSING: REANALYZE Peaks with additional N2/O included
MS$DATA_PROCESSING: WHOLE RMassBank 2.99.2
PK$SPLASH: splash10-00di-0930000000-7da585cae14d7e54e81f
PK$ANNOTATION: m/z tentative_formula formula_count mass error(ppm)
  79.957 O3S- 1 79.9574 -4.56
  121.0296 C7H5O2- 1 121.0295 0.39
  170.0043 C7H6O3S- 2 170.0043 0.11
  171.0122 C7H7O3S- 2 171.0121 0.31
  201.9942 C13NO2- 2 201.9935 3.78
  260.0387 C13H10NO3S- 1 260.0387 0.11
  290.0857 C15H16NO3S- 1 290.0856 0.34
PK$NUM_PEAK: 7
PK$PEAK: m/z int. rel.int.
  79.957 49945.4 17
  121.0296 8261.5 2
  170.0043 2836844.2 999
  171.0122 11802.9 4
  201.9942 1055013 371
  260.0387 16932.5 5
  290.0857 140635.1 49
//
