ACCESSION: MSBNK-LCSB-LU088605
RECORD_TITLE: 1,1,3-Trimethyl-2-thiourea; LC-ESI-QFT; MS2; CE: 75; R=17500; [M+H]+
DATE: 2020.08.19
AUTHORS: Elapavalore, A.; Kondić, T.; Singh, R.; Schymanski, E.
LICENSE: CC BY
COPYRIGHT: Copyright © 2019 by Environmental Cheminformatics, LCSB, University of Luxembourg, Luxembourg
PUBLICATION: Elapavalore, A.; Kondić, T.; et al., Adding Open Spectral Data to MassBank and PubChem Using Open Source Tools to Support Non-Targeted Exposomics of Mixtures (submitted).
PROJECT: ENTACT U.S. Environmental Protection Agency’s Non-Targeted Analysis Collaborative Trial
COMMENT: CONFIDENCE standard compound
COMMENT: INTERNAL_ID 886
COMMENT: DATASET 20200303_ENTACT_RP_MIX508
COMMENT: DATA_PROCESSING MERGING RMBmix ver. 0.2.7
COMMENT: DATA_PROCESSING PRESCREENING Shinyscreen ver. 0.8.0
COMMENT: ORIGINAL_ACQUISITION_NO 3617
COMMENT: ORIGINAL_PRECURSOR_SCAN_NO 3615
COMMENT: RAW_DATA available as MSV000091754 at [DOI:10.25345/C5S46HG75]
CH$NAME: 1,1,3-Trimethyl-2-thiourea
CH$NAME: N,N,N'-trimethylcarbamimidothioic acid
CH$COMPOUND_CLASS: N/A; Environmental Standard
CH$FORMULA: C4H10N2S
CH$EXACT_MASS: 118.0565
CH$SMILES: CNC(=S)N(C)C
CH$IUPAC: InChI=1S/C4H10N2S/c1-5-4(7)6(2)3/h1-3H3,(H,5,7)
CH$LINK: CAS 2489-77-2
CH$LINK: CHEMSPIDER 2060159
CH$LINK: INCHIKEY JAEZSIYNWDWMMN-UHFFFAOYSA-N
CH$LINK: PUBCHEM CID:2779938
AC$INSTRUMENT: Q Exactive Orbitrap (Thermo Scientific)
AC$INSTRUMENT_TYPE: LC-ESI-QFT
AC$MASS_SPECTROMETRY: MS_TYPE MS2
AC$MASS_SPECTROMETRY: ION_MODE POSITIVE
AC$MASS_SPECTROMETRY: IONIZATION ESI
AC$MASS_SPECTROMETRY: FRAGMENTATION_MODE HCD
AC$MASS_SPECTROMETRY: COLLISION_ENERGY 75
AC$MASS_SPECTROMETRY: RESOLUTION 17500
AC$CHROMATOGRAPHY: COLUMN_NAME Acquity BEH C18 1.7um, 2.1x150mm (Waters)
AC$CHROMATOGRAPHY: FLOW_GRADIENT 90/10 at 0-2 min, 0/100 at 15-20 min, 90/10 at 20.1-30 min
AC$CHROMATOGRAPHY: FLOW_RATE 0.20 mL/min
AC$CHROMATOGRAPHY: RETENTION_TIME 6.955 min
AC$CHROMATOGRAPHY: SOLVENT A 0.1% formic acid
AC$CHROMATOGRAPHY: SOLVENT B methanol
MS$FOCUSED_ION: BASE_PEAK 79.0211
MS$FOCUSED_ION: PRECURSOR_M/Z 119.0637
MS$FOCUSED_ION: PRECURSOR_TYPE [M+H]+
MS$FOCUSED_ION: PRECURSOR_INTENSITY 2459594.484375
MS$DATA_PROCESSING: RECALIBRATE loess on assigned fragments and MS1
MS$DATA_PROCESSING: REANALYZE Peaks with additional N2/O included
MS$DATA_PROCESSING: WHOLE RMassBank 2.99.2
PK$SPLASH: splash10-000i-9000000000-bbbbf4693235f059b17d
PK$ANNOTATION: m/z tentative_formula formula_count mass error(ppm)
  56.0495 C3H6N+ 1 56.0495 0.24
  58.0652 C3H8N+ 1 58.0651 0.46
  59.073 C3H9N+ 1 59.073 0.09
  72.9981 C2H3NS+ 1 72.9981 0.71
  74.0059 C2H4NS+ 1 74.0059 0.3
  88.0216 C3H6NS+ 1 88.0215 0.65
PK$NUM_PEAK: 6
PK$PEAK: m/z int. rel.int.
  56.0495 4567.7 48
  58.0652 5819.8 61
  59.073 3708.7 39
  72.9981 5956.4 63
  74.0059 22704.3 241
  88.0216 93846.3 999
//
