ACCESSION: MSBNK-LCSB-LU031051
RECORD_TITLE: Ingliforib; LC-ESI-QFT; MS2; CE: 15; R=17500; [M-H]-
DATE: 2020.08.19
AUTHORS: Elapavalore, A.; Kondić, T.; Singh, R.; Schymanski, E.
LICENSE: CC BY
COPYRIGHT: Copyright © 2019 by Environmental Cheminformatics, LCSB, University of Luxembourg, Luxembourg
PUBLICATION: Elapavalore, A.; Kondić, T.; et al., Adding Open Spectral Data to MassBank and PubChem Using Open Source Tools to Support Non-Targeted Exposomics of Mixtures (submitted).
PROJECT: ENTACT U.S. Environmental Protection Agency’s Non-Targeted Analysis Collaborative Trial
COMMENT: CONFIDENCE standard compound
COMMENT: INTERNAL_ID 310
COMMENT: DATASET 20200303_ENTACT_RP_MIX505
COMMENT: DATA_PROCESSING MERGING RMBmix ver. 0.2.7
COMMENT: DATA_PROCESSING PRESCREENING Shinyscreen ver. 0.8.0
COMMENT: ORIGINAL_ACQUISITION_NO 4692
COMMENT: ORIGINAL_PRECURSOR_SCAN_NO 4691
COMMENT: RAW_DATA available as MSV000091754 at [DOI:10.25345/C5S46HG75]
CH$NAME: Ingliforib
CH$NAME: 5-chloro-N-[(2S,3R)-4-[(3R,4S)-3,4-dihydroxypyrrolidin-1-yl]-3-hydroxy-4-oxo-1-phenylbutan-2-yl]-1H-indole-2-carboxamide
CH$COMPOUND_CLASS: N/A; Environmental Standard
CH$FORMULA: C23H24ClN3O5
CH$EXACT_MASS: 457.1404
CH$SMILES: O[C@H]([C@H](CC1=CC=CC=C1)NC(=O)C1=CC2=CC(Cl)=CC=C2N1)C(=O)N1C[C@H](O)[C@H](O)C1
CH$IUPAC: InChI=1S/C23H24ClN3O5/c24-15-6-7-16-14(9-15)10-18(25-16)22(31)26-17(8-13-4-2-1-3-5-13)21(30)23(32)27-11-19(28)20(29)12-27/h1-7,9-10,17,19-21,25,28-30H,8,11-12H2,(H,26,31)/t17-,19-,20+,21+/m0/s1
CH$LINK: CAS 186392-65-4
CH$LINK: KEGG D04537
CH$LINK: PUBCHEM CID:6451325
CH$LINK: INCHIKEY GVDRRZOORHCTAN-MJUUVYJYSA-N
CH$LINK: CHEMSPIDER 4953797
AC$INSTRUMENT: Q Exactive Orbitrap (Thermo Scientific)
AC$INSTRUMENT_TYPE: LC-ESI-QFT
AC$MASS_SPECTROMETRY: MS_TYPE MS2
AC$MASS_SPECTROMETRY: ION_MODE NEGATIVE
AC$MASS_SPECTROMETRY: IONIZATION ESI
AC$MASS_SPECTROMETRY: FRAGMENTATION_MODE HCD
AC$MASS_SPECTROMETRY: COLLISION_ENERGY 15
AC$MASS_SPECTROMETRY: RESOLUTION 17500
AC$CHROMATOGRAPHY: COLUMN_NAME Acquity BEH C18 1.7um, 2.1x150mm (Waters)
AC$CHROMATOGRAPHY: FLOW_GRADIENT 90/10 at 0-2 min, 0/100 at 15-20 min, 90/10 at 20.1-30 min
AC$CHROMATOGRAPHY: FLOW_RATE 0.20 mL/min
AC$CHROMATOGRAPHY: RETENTION_TIME 17.367 min
AC$CHROMATOGRAPHY: SOLVENT A 0.1% formic acid
AC$CHROMATOGRAPHY: SOLVENT B methanol
MS$FOCUSED_ION: BASE_PEAK 329.1063
MS$FOCUSED_ION: PRECURSOR_M/Z 456.1332
MS$FOCUSED_ION: PRECURSOR_TYPE [M-H]-
MS$FOCUSED_ION: PRECURSOR_INTENSITY 16547404.53516
MS$DATA_PROCESSING: RECALIBRATE loess on assigned fragments and MS1
MS$DATA_PROCESSING: REANALYZE Peaks with additional N2/O included
MS$DATA_PROCESSING: WHOLE RMassBank 2.99.2
PK$SPLASH: splash10-0a4i-0001900000-aed8bd56b5cb57188028
PK$ANNOTATION: m/z tentative_formula formula_count mass error(ppm)
  193.0174 C9H6ClN2O- 3 193.0174 -0.2
  194.0014 C9H5ClNO2- 5 194.0014 -0.31
  262.1085 C14H16NO4- 4 262.1085 0.09
  295.0646 C17H12ClN2O- 4 295.0644 0.64
  325.075 C18H14ClN2O2- 5 325.0749 0.07
  353.0699 C19H14ClN2O3- 3 353.0698 0.13
  438.123 C23H21ClN3O4- 1 438.1226 0.81
  456.1331 C23H23ClN3O5- 1 456.1332 -0.09
PK$NUM_PEAK: 8
PK$PEAK: m/z int. rel.int.
  193.0174 590908.8 55
  194.0014 12817.4 1
  262.1085 28733.3 2
  295.0646 20262.1 1
  325.075 1416653.6 131
  353.0699 156384.7 14
  438.123 56244.7 5
  456.1331 10726591 999
//
