ACCESSION: MSBNK-LCSB-LU045501
RECORD_TITLE: Nomifensine; LC-ESI-QFT; MS2; CE: 15; R=17500; [M+H]+
DATE: 2020.08.19
AUTHORS: Elapavalore, A.; Kondić, T.; Singh, R.; Schymanski, E.
LICENSE: CC BY
COPYRIGHT: Copyright © 2019 by Environmental Cheminformatics, LCSB, University of Luxembourg, Luxembourg
PUBLICATION: Elapavalore, A.; Kondić, T.; et al., Adding Open Spectral Data to MassBank and PubChem Using Open Source Tools to Support Non-Targeted Exposomics of Mixtures (submitted).
PROJECT: ENTACT U.S. Environmental Protection Agency’s Non-Targeted Analysis Collaborative Trial
COMMENT: CONFIDENCE standard compound
COMMENT: INTERNAL_ID 455
COMMENT: DATASET 20200303_ENTACT_RP_MIX506
COMMENT: DATA_PROCESSING MERGING RMBmix ver. 0.2.7
COMMENT: DATA_PROCESSING PRESCREENING Shinyscreen ver. 0.8.0
COMMENT: ORIGINAL_ACQUISITION_NO 6852
COMMENT: ORIGINAL_PRECURSOR_SCAN_NO 6850
COMMENT: RAW_DATA available as MSV000091754 at [DOI:10.25345/C5S46HG75]
CH$NAME: Nomifensine
CH$NAME: 2-methyl-4-phenyl-3,4-dihydro-1H-isoquinolin-8-amine
CH$COMPOUND_CLASS: N/A; Environmental Standard
CH$FORMULA: C16H18N2
CH$EXACT_MASS: 238.1470
CH$SMILES: CN1CC(C2=CC=CC=C2)C2=CC=CC(N)=C2C1
CH$IUPAC: InChI=1S/C16H18N2/c1-18-10-14(12-6-3-2-4-7-12)13-8-5-9-16(17)15(13)11-18/h2-9,14H,10-11,17H2,1H3
CH$LINK: CAS 89664-18-6
CH$LINK: CHEBI CHEBI:116225
CH$LINK: PUBCHEM CID:4528
CH$LINK: INCHIKEY XXPANQJNYNUNES-UHFFFAOYSA-N
CH$LINK: CHEMSPIDER 4371
AC$INSTRUMENT: Q Exactive Orbitrap (Thermo Scientific)
AC$INSTRUMENT_TYPE: LC-ESI-QFT
AC$MASS_SPECTROMETRY: MS_TYPE MS2
AC$MASS_SPECTROMETRY: ION_MODE POSITIVE
AC$MASS_SPECTROMETRY: IONIZATION ESI
AC$MASS_SPECTROMETRY: FRAGMENTATION_MODE HCD
AC$MASS_SPECTROMETRY: COLLISION_ENERGY 15
AC$MASS_SPECTROMETRY: RESOLUTION 17500
AC$CHROMATOGRAPHY: COLUMN_NAME Acquity BEH C18 1.7um, 2.1x150mm (Waters)
AC$CHROMATOGRAPHY: FLOW_GRADIENT 90/10 at 0-2 min, 0/100 at 15-20 min, 90/10 at 20.1-30 min
AC$CHROMATOGRAPHY: FLOW_RATE 0.20 mL/min
AC$CHROMATOGRAPHY: RETENTION_TIME 13.050 min
AC$CHROMATOGRAPHY: SOLVENT A 0.1% formic acid
AC$CHROMATOGRAPHY: SOLVENT B methanol
MS$FOCUSED_ION: BASE_PEAK 79.0211
MS$FOCUSED_ION: PRECURSOR_M/Z 239.1543
MS$FOCUSED_ION: PRECURSOR_TYPE [M+H]+
MS$FOCUSED_ION: PRECURSOR_INTENSITY 36367871
MS$DATA_PROCESSING: RECALIBRATE loess on assigned fragments and MS1
MS$DATA_PROCESSING: REANALYZE Peaks with additional N2/O included
MS$DATA_PROCESSING: WHOLE RMassBank 2.99.2
PK$SPLASH: splash10-000i-0090000000-40cedb0058c2d93ad424
PK$ANNOTATION: m/z tentative_formula formula_count mass error(ppm)
  91.0542 C7H7+ 1 91.0542 -0.82
  118.0649 C8H8N+ 1 118.0651 -1.89
  120.0807 C8H10N+ 1 120.0808 -0.39
  130.065 C9H8N+ 1 130.0651 -0.81
  132.0806 C9H10N+ 1 132.0808 -1.44
  161.1073 C10H13N2+ 1 161.1073 -0.38
  194.0965 C14H12N+ 1 194.0964 0.52
  196.112 C14H14N+ 1 196.1121 -0.37
  208.1119 C15H14N+ 1 208.1121 -0.65
  210.1277 C15H16N+ 1 210.1277 -0.15
  222.127 C16H16N+ 1 222.1277 -3.13
  237.139 C16H17N2+ 1 237.1386 1.69
  239.1541 C16H19N2+ 1 239.1543 -0.89
PK$NUM_PEAK: 13
PK$PEAK: m/z int. rel.int.
  91.0542 234034.3 9
  118.0649 43943.3 1
  120.0807 124166.8 4
  130.065 151499.2 5
  132.0806 39708.5 1
  161.1073 51984.8 2
  194.0965 35055.5 1
  196.112 690883.3 27
  208.1119 427493.3 16
  210.1277 162171.3 6
  222.127 56364.5 2
  237.139 37455.1 1
  239.1541 25253626 999
//
