ACCESSION: MSBNK-LCSB-LU054251
RECORD_TITLE: Fluconazole; LC-ESI-QFT; MS2; CE: 15; R=17500; [M-H]-
DATE: 2020.08.19
AUTHORS: Elapavalore, A.; Kondić, T.; Singh, R.; Schymanski, E.
LICENSE: CC BY
COPYRIGHT: Copyright © 2019 by Environmental Cheminformatics, LCSB, University of Luxembourg, Luxembourg
PUBLICATION: Elapavalore, A.; Kondić, T.; et al., Adding Open Spectral Data to MassBank and PubChem Using Open Source Tools to Support Non-Targeted Exposomics of Mixtures (submitted).
PROJECT: ENTACT U.S. Environmental Protection Agency’s Non-Targeted Analysis Collaborative Trial
COMMENT: CONFIDENCE standard compound
COMMENT: INTERNAL_ID 542
COMMENT: DATASET 20200303_ENTACT_RP_MIX506
COMMENT: DATA_PROCESSING MERGING RMBmix ver. 0.2.7
COMMENT: DATA_PROCESSING PRESCREENING Shinyscreen ver. 0.8.0
COMMENT: ORIGINAL_ACQUISITION_NO 3230
COMMENT: ORIGINAL_PRECURSOR_SCAN_NO 3229
COMMENT: RAW_DATA available as MSV000091754 at [DOI:10.25345/C5S46HG75]
CH$NAME: Fluconazole
CH$NAME: 2-(2,4-difluorophenyl)-1,3-bis(1,2,4-triazol-1-yl)propan-2-ol
CH$COMPOUND_CLASS: N/A; Environmental Standard
CH$FORMULA: C13H12F2N6O
CH$EXACT_MASS: 306.1041
CH$SMILES: OC(CN1C=NC=N1)(CN1C=NC=N1)C1=C(F)C=C(F)C=C1
CH$IUPAC: InChI=1S/C13H12F2N6O/c14-10-1-2-11(12(15)3-10)13(22,4-20-8-16-6-18-20)5-21-9-17-7-19-21/h1-3,6-9,22H,4-5H2
CH$LINK: CAS 86386-73-4
CH$LINK: CHEBI CHEBI:46081
CH$LINK: KEGG D00322
CH$LINK: PUBCHEM CID:3365
CH$LINK: INCHIKEY RFHAOTPXVQNOHP-UHFFFAOYSA-N
CH$LINK: CHEMSPIDER 3248
AC$INSTRUMENT: Q Exactive Orbitrap (Thermo Scientific)
AC$INSTRUMENT_TYPE: LC-ESI-QFT
AC$MASS_SPECTROMETRY: MS_TYPE MS2
AC$MASS_SPECTROMETRY: ION_MODE NEGATIVE
AC$MASS_SPECTROMETRY: IONIZATION ESI
AC$MASS_SPECTROMETRY: FRAGMENTATION_MODE HCD
AC$MASS_SPECTROMETRY: COLLISION_ENERGY 15
AC$MASS_SPECTROMETRY: RESOLUTION 17500
AC$CHROMATOGRAPHY: COLUMN_NAME Acquity BEH C18 1.7um, 2.1x150mm (Waters)
AC$CHROMATOGRAPHY: FLOW_GRADIENT 90/10 at 0-2 min, 0/100 at 15-20 min, 90/10 at 20.1-30 min
AC$CHROMATOGRAPHY: FLOW_RATE 0.20 mL/min
AC$CHROMATOGRAPHY: RETENTION_TIME 12.986 min
AC$CHROMATOGRAPHY: SOLVENT A 0.1% formic acid
AC$CHROMATOGRAPHY: SOLVENT B methanol
MS$FOCUSED_ION: BASE_PEAK 305.0967
MS$FOCUSED_ION: PRECURSOR_M/Z 305.0968
MS$FOCUSED_ION: PRECURSOR_TYPE [M-H]-
MS$FOCUSED_ION: PRECURSOR_INTENSITY 9564937.800049
MS$DATA_PROCESSING: RECALIBRATE loess on assigned fragments and MS1
MS$DATA_PROCESSING: REANALYZE Peaks with additional N2/O included
MS$DATA_PROCESSING: WHOLE RMassBank 2.99.2
PK$SPLASH: splash10-0006-0900000000-52b4adb741c7d26c8d82
PK$ANNOTATION: m/z tentative_formula formula_count mass error(ppm)
  68.0254 C2H2N3- 1 68.0254 -0.71
  94.0411 C4H4N3- 3 94.0411 -0.01
  108.0204 C4H2N3O- 2 108.0203 0.16
  122.0361 C5H4N3O- 3 122.036 0.61
  149.0583 C5H5N6- 3 149.0581 1.22
  191.0687 C7H7N6O- 2 191.0687 0.12
  222.0485 C10H6F2N3O- 3 222.0484 0.15
PK$NUM_PEAK: 7
PK$PEAK: m/z int. rel.int.
  68.0254 180204.6 60
  94.0411 3540.3 1
  108.0204 8561.3 2
  122.0361 20739.6 6
  149.0583 3209.2 1
  191.0687 2986738.8 999
  222.0485 38251.3 12
//
