ACCESSION: MSBNK-LCSB-LU096605
RECORD_TITLE: 2-Chloro-N,N-dimethyl-3-oxobutanamide; LC-ESI-QFT; MS2; CE: 75; R=17500; [M+H]+
DATE: 2020.08.19
AUTHORS: Elapavalore, A.; Kondić, T.; Singh, R.; Schymanski, E.
LICENSE: CC BY
COPYRIGHT: Copyright © 2019 by Environmental Cheminformatics, LCSB, University of Luxembourg, Luxembourg
PUBLICATION: Elapavalore, A.; Kondić, T.; et al., Adding Open Spectral Data to MassBank and PubChem Using Open Source Tools to Support Non-Targeted Exposomics of Mixtures (submitted).
PROJECT: ENTACT U.S. Environmental Protection Agency’s Non-Targeted Analysis Collaborative Trial
COMMENT: CONFIDENCE standard compound
COMMENT: INTERNAL_ID 966
COMMENT: DATASET 20200303_ENTACT_RP_MIX508
COMMENT: DATA_PROCESSING MERGING RMBmix ver. 0.2.7
COMMENT: DATA_PROCESSING PRESCREENING Shinyscreen ver. 0.8.0
COMMENT: ORIGINAL_ACQUISITION_NO 4374
COMMENT: ORIGINAL_PRECURSOR_SCAN_NO 4371
COMMENT: RAW_DATA available as MSV000091754 at [DOI:10.25345/C5S46HG75]
CH$NAME: 2-Chloro-N,N-dimethyl-3-oxobutanamide
CH$COMPOUND_CLASS: N/A; Environmental Standard
CH$FORMULA: C6H10ClNO2
CH$EXACT_MASS: 163.0400
CH$SMILES: CN(C)C(=O)C(Cl)C(C)=O
CH$IUPAC: InChI=1S/C6H10ClNO2/c1-4(9)5(7)6(10)8(2)3/h5H,1-3H3
CH$LINK: CAS 6054-09-7
CH$LINK: PUBCHEM CID:93011
CH$LINK: INCHIKEY QJACRCAPQIYMIH-UHFFFAOYSA-N
CH$LINK: CHEMSPIDER 83964
AC$INSTRUMENT: Q Exactive Orbitrap (Thermo Scientific)
AC$INSTRUMENT_TYPE: LC-ESI-QFT
AC$MASS_SPECTROMETRY: MS_TYPE MS2
AC$MASS_SPECTROMETRY: ION_MODE POSITIVE
AC$MASS_SPECTROMETRY: IONIZATION ESI
AC$MASS_SPECTROMETRY: FRAGMENTATION_MODE HCD
AC$MASS_SPECTROMETRY: COLLISION_ENERGY 75
AC$MASS_SPECTROMETRY: RESOLUTION 17500
AC$CHROMATOGRAPHY: COLUMN_NAME Acquity BEH C18 1.7um, 2.1x150mm (Waters)
AC$CHROMATOGRAPHY: FLOW_GRADIENT 90/10 at 0-2 min, 0/100 at 15-20 min, 90/10 at 20.1-30 min
AC$CHROMATOGRAPHY: FLOW_RATE 0.20 mL/min
AC$CHROMATOGRAPHY: RETENTION_TIME 8.382 min
AC$CHROMATOGRAPHY: SOLVENT A 0.1% formic acid
AC$CHROMATOGRAPHY: SOLVENT B methanol
MS$FOCUSED_ION: BASE_PEAK 79.0211
MS$FOCUSED_ION: PRECURSOR_M/Z 164.0473
MS$FOCUSED_ION: PRECURSOR_TYPE [M+H]+
MS$FOCUSED_ION: PRECURSOR_INTENSITY 1246011.65625
MS$DATA_PROCESSING: RECALIBRATE loess on assigned fragments and MS1
MS$DATA_PROCESSING: REANALYZE Peaks with additional N2/O included
MS$DATA_PROCESSING: WHOLE RMassBank 2.99.2
PK$SPLASH: splash10-00di-9000000000-aa6c927490759c4c5300
PK$ANNOTATION: m/z tentative_formula formula_count mass error(ppm)
  56.0131 C2H2NO+ 1 56.0131 -0.29
  58.0652 C3H8N+ 1 58.0651 0.99
  72.0444 C3H6NO+ 1 72.0444 -0.48
  94.0651 C6H8N+ 1 94.0651 0.22
  95.0492 C6H7O+ 2 95.0491 1.03
  104.0262 C4H7ClN+ 1 104.0262 0.91
  105.0336 C4H8ClN+ 1 105.034 -4.07
  109.0523 C6H7NO+ 1 109.0522 1.01
  122.0369 C4H9ClNO+ 1 122.0367 1.19
  150.0425 C6H11ClO2+ 1 150.0442 -11.5
PK$NUM_PEAK: 10
PK$PEAK: m/z int. rel.int.
  56.0131 3277.3 13
  58.0652 2784.7 11
  72.0444 237889.5 999
  94.0651 4037.7 16
  95.0492 3308.7 13
  104.0262 5502.1 23
  105.0336 2922 12
  109.0523 3405.2 14
  122.0369 1743.5 7
  150.0425 4985 20
//
