ACCESSION: MSBNK-LCSB-LU045702
RECORD_TITLE: Thiodicarb; LC-ESI-QFT; MS2; CE: 30; R=17500; [M+H]+
DATE: 2020.08.19
AUTHORS: Elapavalore, A.; Kondić, T.; Singh, R.; Schymanski, E.
LICENSE: CC BY
COPYRIGHT: Copyright © 2019 by Environmental Cheminformatics, LCSB, University of Luxembourg, Luxembourg
PUBLICATION: Elapavalore, A.; Kondić, T.; et al., Adding Open Spectral Data to MassBank and PubChem Using Open Source Tools to Support Non-Targeted Exposomics of Mixtures (submitted).
PROJECT: ENTACT U.S. Environmental Protection Agency’s Non-Targeted Analysis Collaborative Trial
COMMENT: CONFIDENCE standard compound
COMMENT: INTERNAL_ID 457
COMMENT: DATASET 20200303_ENTACT_RP_MIX506
COMMENT: DATA_PROCESSING MERGING RMBmix ver. 0.2.7
COMMENT: DATA_PROCESSING PRESCREENING Shinyscreen ver. 0.8.0
COMMENT: ORIGINAL_ACQUISITION_NO 8251
COMMENT: ORIGINAL_PRECURSOR_SCAN_NO 8248
COMMENT: RAW_DATA available as MSV000091754 at [DOI:10.25345/C5S46HG75]
CH$NAME: Thiodicarb
CH$NAME: methyl (1E)-N-[methyl-[methyl-[(E)-1-methylsulfanylethylideneamino]oxycarbonylamino]sulfanylcarbamoyl]oxyethanimidothioate
CH$COMPOUND_CLASS: N/A; Environmental Standard
CH$FORMULA: C10H18N4O4S3
CH$EXACT_MASS: 354.049
CH$SMILES: CS\C(C)=N\OC(=O)N(C)SN(C)C(=O)O\N=C(/C)SC
CH$IUPAC: InChI=1S/C10H18N4O4S3/c1-7(19-5)11-17-9(15)13(3)21-14(4)10(16)18-12-8(2)20-6/h1-6H3/b11-7+,12-8+
CH$LINK: CAS 59669-26-0
CH$LINK: PUBCHEM CID:9601227
CH$LINK: INCHIKEY XDOTVMNBCQVZKG-MKICQXMISA-N
CH$LINK: CHEMSPIDER 7875353
AC$INSTRUMENT: Q Exactive Orbitrap (Thermo Scientific)
AC$INSTRUMENT_TYPE: LC-ESI-QFT
AC$MASS_SPECTROMETRY: MS_TYPE MS2
AC$MASS_SPECTROMETRY: ION_MODE POSITIVE
AC$MASS_SPECTROMETRY: IONIZATION ESI
AC$MASS_SPECTROMETRY: FRAGMENTATION_MODE HCD
AC$MASS_SPECTROMETRY: COLLISION_ENERGY 30
AC$MASS_SPECTROMETRY: RESOLUTION 17500
AC$CHROMATOGRAPHY: COLUMN_NAME Acquity BEH C18 1.7um, 2.1x150mm (Waters)
AC$CHROMATOGRAPHY: FLOW_GRADIENT 90/10 at 0-2 min, 0/100 at 15-20 min, 90/10 at 20.1-30 min
AC$CHROMATOGRAPHY: FLOW_RATE 0.20 mL/min
AC$CHROMATOGRAPHY: RETENTION_TIME 15.765 min
AC$CHROMATOGRAPHY: SOLVENT A 0.1% formic acid
AC$CHROMATOGRAPHY: SOLVENT B methanol
MS$FOCUSED_ION: BASE_PEAK 79.0211
MS$FOCUSED_ION: PRECURSOR_M/Z 355.0563
MS$FOCUSED_ION: PRECURSOR_TYPE [M+H]+
MS$FOCUSED_ION: PRECURSOR_INTENSITY 2072468.75
MS$DATA_PROCESSING: RECALIBRATE loess on assigned fragments and MS1
MS$DATA_PROCESSING: REANALYZE Peaks with additional N2/O included
MS$DATA_PROCESSING: WHOLE RMassBank 2.99.2
PK$SPLASH: splash10-000i-9200000000-6c3c2f0ed9945840e621
PK$ANNOTATION: m/z tentative_formula formula_count mass error(ppm)
  62.0058 CH4NS+ 1 62.0059 -1.28
  72.9979 C2H3NS+ 1 72.9981 -2.88
  78.967 CH3S2+ 1 78.9671 -0.5
  88.0216 C3H6NS+ 1 88.0215 0.27
  107.9937 C2H6NS2+ 1 107.9936 0.48
PK$NUM_PEAK: 5
PK$PEAK: m/z int. rel.int.
  62.0058 2934.6 35
  72.9979 1782.8 21
  78.967 5669.6 69
  88.0216 81502.2 999
  107.9937 24077.2 295
//
