ACCESSION: MSBNK-LCSB-LU055154
RECORD_TITLE: 4,4`-Sulfonyldiphenol; LC-ESI-QFT; MS2; CE: 60; R=17500; [M-H]-
DATE: 2020.08.19
AUTHORS: Elapavalore, A.; Kondić, T.; Singh, R.; Schymanski, E.
LICENSE: CC BY
COPYRIGHT: Copyright © 2019 by Environmental Cheminformatics, LCSB, University of Luxembourg, Luxembourg
PUBLICATION: Elapavalore, A.; Kondić, T.; et al., Adding Open Spectral Data to MassBank and PubChem Using Open Source Tools to Support Non-Targeted Exposomics of Mixtures (submitted).
PROJECT: ENTACT U.S. Environmental Protection Agency’s Non-Targeted Analysis Collaborative Trial
COMMENT: CONFIDENCE standard compound
COMMENT: INTERNAL_ID 551
COMMENT: DATASET 20200303_ENTACT_RP_MIX506
COMMENT: DATA_PROCESSING MERGING RMBmix ver. 0.2.7
COMMENT: DATA_PROCESSING PRESCREENING Shinyscreen ver. 0.8.0
COMMENT: ORIGINAL_ACQUISITION_NO 3374
COMMENT: ORIGINAL_PRECURSOR_SCAN_NO 3371
COMMENT: RAW_DATA available as MSV000091754 at [DOI:10.25345/C5S46HG75]
CH$NAME: 4,4'-Sulfonyldiphenol
CH$NAME: 4-(4-hydroxyphenyl)sulfonylphenol
CH$COMPOUND_CLASS: N/A; Environmental Standard
CH$FORMULA: C12H10O4S
CH$EXACT_MASS: 250.0300
CH$SMILES: OC1=CC=C(C=C1)S(=O)(=O)C1=CC=C(O)C=C1
CH$IUPAC: InChI=1S/C12H10O4S/c13-9-1-5-11(6-2-9)17(15,16)12-7-3-10(14)4-8-12/h1-8,13-14H
CH$LINK: CAS 80-09-1
CH$LINK: CHEBI CHEBI:34372
CH$LINK: KEGG C14216
CH$LINK: PUBCHEM CID:6626
CH$LINK: INCHIKEY VPWNQTHUCYMVMZ-UHFFFAOYSA-N
CH$LINK: CHEMSPIDER 6374
AC$INSTRUMENT: Q Exactive Orbitrap (Thermo Scientific)
AC$INSTRUMENT_TYPE: LC-ESI-QFT
AC$MASS_SPECTROMETRY: MS_TYPE MS2
AC$MASS_SPECTROMETRY: ION_MODE NEGATIVE
AC$MASS_SPECTROMETRY: IONIZATION ESI
AC$MASS_SPECTROMETRY: FRAGMENTATION_MODE HCD
AC$MASS_SPECTROMETRY: COLLISION_ENERGY 60
AC$MASS_SPECTROMETRY: RESOLUTION 17500
AC$CHROMATOGRAPHY: COLUMN_NAME Acquity BEH C18 1.7um, 2.1x150mm (Waters)
AC$CHROMATOGRAPHY: FLOW_GRADIENT 90/10 at 0-2 min, 0/100 at 15-20 min, 90/10 at 20.1-30 min
AC$CHROMATOGRAPHY: FLOW_RATE 0.20 mL/min
AC$CHROMATOGRAPHY: RETENTION_TIME 13.529 min
AC$CHROMATOGRAPHY: SOLVENT A 0.1% formic acid
AC$CHROMATOGRAPHY: SOLVENT B methanol
MS$FOCUSED_ION: BASE_PEAK 249.0227
MS$FOCUSED_ION: PRECURSOR_M/Z 249.0227
MS$FOCUSED_ION: PRECURSOR_TYPE [M-H]-
MS$FOCUSED_ION: PRECURSOR_INTENSITY 10624888.90137
MS$DATA_PROCESSING: RECALIBRATE loess on assigned fragments and MS1
MS$DATA_PROCESSING: REANALYZE Peaks with additional N2/O included
MS$DATA_PROCESSING: WHOLE RMassBank 2.99.2
PK$SPLASH: splash10-0a4i-1900000000-c6057738bd7a3159c7eb
PK$ANNOTATION: m/z tentative_formula formula_count mass error(ppm)
  63.9625 O2S- 1 63.9624 0.47
  68.9982 C3HO2- 1 68.9982 0.29
  69.0345 C4H5O- 1 69.0346 -0.84
  79.9574 O3S- 1 79.9574 0.02
  82.006 C4H2O2- 1 82.006 -0.41
  91.0189 C6H3O- 1 91.0189 -0.57
  92.0267 C6H4O- 1 92.0268 -0.65
  93.0346 C6H5O- 1 93.0346 -0.05
  95.0139 C5H3O2- 1 95.0139 0.07
  106.0061 C6H2O2- 1 106.006 0.26
  108.0216 C6H4O2- 1 108.0217 -0.33
  109.0292 C6H5O2- 1 109.0295 -2.67
  117.0346 C8H5O- 1 117.0346 -0.14
  123.0088 C6H3O3- 1 123.0088 0.46
  139.9938 C6H4O2S- 1 139.9937 0.14
  143.0503 C10H7O- 1 143.0502 0.77
  155.9887 C6H4O3S- 1 155.9887 -0.03
  156.0582 C11H8O- 1 156.0581 0.83
  156.9965 C6H5O3S- 1 156.9965 -0.01
  157.0659 C11H9O- 1 157.0659 -0.13
  184.0529 C12H8O2- 1 184.053 -0.29
  185.0608 C12H9O2- 1 185.0608 -0.19
  249.0226 C12H9O4S- 1 249.0227 -0.31
PK$NUM_PEAK: 23
PK$PEAK: m/z int. rel.int.
  63.9625 19051 3
  68.9982 7188.9 1
  69.0345 8037.3 1
  79.9574 439566.6 76
  82.006 10346.8 1
  91.0189 7583.8 1
  92.0267 36709.6 6
  93.0346 78684.5 13
  95.0139 348720.2 60
  106.0061 20722.9 3
  108.0216 5715096 999
  109.0292 19134.9 3
  117.0346 25260.6 4
  123.0088 47619 8
  139.9938 30287.7 5
  143.0503 14604.5 2
  155.9887 249011.6 43
  156.0582 16869.1 2
  156.9965 35334.8 6
  157.0659 22002.4 3
  184.0529 241923.9 42
  185.0608 68981.4 12
  249.0226 364028.3 63
//
