ACCESSION: MSBNK-LCSB-LU113752
RECORD_TITLE: Dichlorophen; LC-ESI-QFT; MS2; CE: 30; R=17500; [M-H]-
DATE: 2020.08.19
AUTHORS: Elapavalore, A.; Kondić, T.; Singh, R.; Schymanski, E.
LICENSE: CC BY
COPYRIGHT: Copyright © 2019 by Environmental Cheminformatics, LCSB, University of Luxembourg, Luxembourg
PUBLICATION: Elapavalore, A.; Kondić, T.; et al., Adding Open Spectral Data to MassBank and PubChem Using Open Source Tools to Support Non-Targeted Exposomics of Mixtures (submitted).
PROJECT: ENTACT U.S. Environmental Protection Agency’s Non-Targeted Analysis Collaborative Trial
COMMENT: CONFIDENCE standard compound
COMMENT: INTERNAL_ID 1137
COMMENT: DATASET 20200303_ENTACT_RP_MIX508
COMMENT: DATA_PROCESSING MERGING RMBmix ver. 0.2.7
COMMENT: DATA_PROCESSING PRESCREENING Shinyscreen ver. 0.8.0
COMMENT: ORIGINAL_ACQUISITION_NO 5109
COMMENT: ORIGINAL_PRECURSOR_SCAN_NO 5106
COMMENT: RAW_DATA available as MSV000091754 at [DOI:10.25345/C5S46HG75]
CH$NAME: Dichlorophen
CH$NAME: 4-chloro-2-[(5-chloro-2-hydroxyphenyl)methyl]phenol
CH$COMPOUND_CLASS: N/A; Environmental Standard
CH$FORMULA: C13H10Cl2O2
CH$EXACT_MASS: 268.0058
CH$SMILES: OC1=CC=C(Cl)C=C1CC1=CC(Cl)=CC=C1O
CH$IUPAC: InChI=1S/C13H10Cl2O2/c14-10-1-3-12(16)8(6-10)5-9-7-11(15)2-4-13(9)17/h1-4,6-7,16-17H,5H2
CH$LINK: CAS 97-23-4
CH$LINK: CHEBI CHEBI:34689
CH$LINK: KEGG C14292
CH$LINK: PUBCHEM CID:3037
CH$LINK: INCHIKEY MDNWOSOZYLHTCG-UHFFFAOYSA-N
CH$LINK: CHEMSPIDER 2929
AC$INSTRUMENT: Q Exactive Orbitrap (Thermo Scientific)
AC$INSTRUMENT_TYPE: LC-ESI-QFT
AC$MASS_SPECTROMETRY: MS_TYPE MS2
AC$MASS_SPECTROMETRY: ION_MODE NEGATIVE
AC$MASS_SPECTROMETRY: IONIZATION ESI
AC$MASS_SPECTROMETRY: FRAGMENTATION_MODE HCD
AC$MASS_SPECTROMETRY: COLLISION_ENERGY 30
AC$MASS_SPECTROMETRY: RESOLUTION 17500
AC$CHROMATOGRAPHY: COLUMN_NAME Acquity BEH C18 1.7um, 2.1x150mm (Waters)
AC$CHROMATOGRAPHY: FLOW_GRADIENT 90/10 at 0-2 min, 0/100 at 15-20 min, 90/10 at 20.1-30 min
AC$CHROMATOGRAPHY: FLOW_RATE 0.20 mL/min
AC$CHROMATOGRAPHY: RETENTION_TIME 18.384 min
AC$CHROMATOGRAPHY: SOLVENT A 0.1% formic acid
AC$CHROMATOGRAPHY: SOLVENT B methanol
MS$FOCUSED_ION: BASE_PEAK 266.9986
MS$FOCUSED_ION: PRECURSOR_M/Z 266.9985
MS$FOCUSED_ION: PRECURSOR_TYPE [M-H]-
MS$FOCUSED_ION: PRECURSOR_INTENSITY 64591168.57813
MS$DATA_PROCESSING: RECALIBRATE loess on assigned fragments and MS1
MS$DATA_PROCESSING: REANALYZE Peaks with additional N2/O included
MS$DATA_PROCESSING: WHOLE RMassBank 2.99.2
PK$SPLASH: splash10-004i-0930000000-078273af4a7c778b1e5d
PK$ANNOTATION: m/z tentative_formula formula_count mass error(ppm)
  126.9956 C6H4ClO- 1 126.9956 -0.19
  231.0219 C13H8ClO2- 1 231.0218 0.37
  248.9876 C13H7Cl2O- 1 248.9879 -1.42
  266.9986 C13H9Cl2O2- 1 266.9985 0.21
PK$NUM_PEAK: 4
PK$PEAK: m/z int. rel.int.
  126.9956 28535718 999
  231.0219 161169.2 5
  248.9876 57952.5 2
  266.9986 9481219 331
//
