ACCESSION: MSBNK-LCSB-LU057952
RECORD_TITLE: MCPA; LC-ESI-QFT; MS2; CE: 30; R=17500; [M-H]-
DATE: 2020.08.19
AUTHORS: Elapavalore, A.; Kondić, T.; Singh, R.; Schymanski, E.
LICENSE: CC BY
COPYRIGHT: Copyright © 2019 by Environmental Cheminformatics, LCSB, University of Luxembourg, Luxembourg
PUBLICATION: Elapavalore, A.; Kondić, T.; et al., Adding Open Spectral Data to MassBank and PubChem Using Open Source Tools to Support Non-Targeted Exposomics of Mixtures (submitted).
PROJECT: ENTACT U.S. Environmental Protection Agency’s Non-Targeted Analysis Collaborative Trial
COMMENT: CONFIDENCE standard compound
COMMENT: INTERNAL_ID 579
COMMENT: DATASET 20200303_ENTACT_RP_MIX506
COMMENT: DATA_PROCESSING MERGING RMBmix ver. 0.2.7
COMMENT: DATA_PROCESSING PRESCREENING Shinyscreen ver. 0.8.0
COMMENT: ORIGINAL_ACQUISITION_NO 4593
COMMENT: ORIGINAL_PRECURSOR_SCAN_NO 4590
COMMENT: RAW_DATA available as MSV000091754 at [DOI:10.25345/C5S46HG75]
CH$NAME: MCPA
CH$NAME: (4-Chloro-2-methylphenoxy)acetic acid
CH$NAME: 2-(4-chloro-2-methylphenoxy)acetic acid
CH$COMPOUND_CLASS: N/A; Environmental Standard
CH$FORMULA: C9H9ClO3
CH$EXACT_MASS: 200.0240
CH$SMILES: CC1=C(OCC(O)=O)C=CC(Cl)=C1
CH$IUPAC: InChI=1S/C9H9ClO3/c1-6-4-7(10)2-3-8(6)13-5-9(11)12/h2-4H,5H2,1H3,(H,11,12)
CH$LINK: CAS 94-74-6
CH$LINK: CHEBI CHEBI:50099
CH$LINK: KEGG C18528
CH$LINK: PUBCHEM CID:7204
CH$LINK: INCHIKEY WHKUVVPPKQRRBV-UHFFFAOYSA-N
CH$LINK: CHEMSPIDER 6935
AC$INSTRUMENT: Q Exactive Orbitrap (Thermo Scientific)
AC$INSTRUMENT_TYPE: LC-ESI-QFT
AC$MASS_SPECTROMETRY: MS_TYPE MS2
AC$MASS_SPECTROMETRY: ION_MODE NEGATIVE
AC$MASS_SPECTROMETRY: IONIZATION ESI
AC$MASS_SPECTROMETRY: FRAGMENTATION_MODE HCD
AC$MASS_SPECTROMETRY: COLLISION_ENERGY 30
AC$MASS_SPECTROMETRY: RESOLUTION 17500
AC$CHROMATOGRAPHY: COLUMN_NAME Acquity BEH C18 1.7um, 2.1x150mm (Waters)
AC$CHROMATOGRAPHY: FLOW_GRADIENT 90/10 at 0-2 min, 0/100 at 15-20 min, 90/10 at 20.1-30 min
AC$CHROMATOGRAPHY: FLOW_RATE 0.20 mL/min
AC$CHROMATOGRAPHY: RETENTION_TIME 17.121 min
AC$CHROMATOGRAPHY: SOLVENT A 0.1% formic acid
AC$CHROMATOGRAPHY: SOLVENT B methanol
MS$FOCUSED_ION: BASE_PEAK 141.0113
MS$FOCUSED_ION: PRECURSOR_M/Z 199.0167
MS$FOCUSED_ION: PRECURSOR_TYPE [M-H]-
MS$FOCUSED_ION: PRECURSOR_INTENSITY 12789227.22852
MS$DATA_PROCESSING: RECALIBRATE loess on assigned fragments and MS1
MS$DATA_PROCESSING: REANALYZE Peaks with additional N2/O included
MS$DATA_PROCESSING: WHOLE RMassBank 2.99.2
PK$SPLASH: splash10-0006-0900000000-6c149cd900391807ce45
PK$ANNOTATION: m/z tentative_formula formula_count mass error(ppm)
  125.0163 C7H6Cl- 1 125.0164 -0.27
  140.0034 C7H5ClO- 1 140.0034 -0.65
  141.0113 C7H6ClO- 1 141.0113 0.14
  155.027 C8H8ClO- 1 155.0269 0.66
  199.0168 C9H8ClO3- 1 199.0167 0.19
PK$NUM_PEAK: 5
PK$PEAK: m/z int. rel.int.
  125.0163 46610.2 6
  140.0034 12395 1
  141.0113 6868239.5 999
  155.027 58050.5 8
  199.0168 77073 11
//
