ACCESSION: MSBNK-LCSB-LU067604
RECORD_TITLE: PK 11195; LC-ESI-QFT; MS2; CE: 60; R=17500; [M+H]+
DATE: 2020.08.19
AUTHORS: Elapavalore, A.; Kondić, T.; Singh, R.; Schymanski, E.
LICENSE: CC BY
COPYRIGHT: Copyright © 2019 by Environmental Cheminformatics, LCSB, University of Luxembourg, Luxembourg
PUBLICATION: Elapavalore, A.; Kondić, T.; et al., Adding Open Spectral Data to MassBank and PubChem Using Open Source Tools to Support Non-Targeted Exposomics of Mixtures (submitted).
PROJECT: ENTACT U.S. Environmental Protection Agency’s Non-Targeted Analysis Collaborative Trial
COMMENT: CONFIDENCE standard compound
COMMENT: INTERNAL_ID 676
COMMENT: DATASET 20200303_ENTACT_RP_MIX506
COMMENT: DATA_PROCESSING MERGING RMBmix ver. 0.2.7
COMMENT: DATA_PROCESSING PRESCREENING Shinyscreen ver. 0.8.0
COMMENT: ORIGINAL_ACQUISITION_NO 9676
COMMENT: ORIGINAL_PRECURSOR_SCAN_NO 9671
COMMENT: RAW_DATA available as MSV000091754 at [DOI:10.25345/C5S46HG75]
CH$NAME: PK 11195
CH$NAME: 1-(2-Chlorophenyl)-N-methyl-N-(1-methylpropyl)-3-isoquinolinecarboxamide
CH$NAME: N-butan-2-yl-1-(2-chlorophenyl)-N-methylisoquinoline-3-carboxamide
CH$COMPOUND_CLASS: N/A; Environmental Standard
CH$FORMULA: C21H21ClN2O
CH$EXACT_MASS: 352.1342
CH$SMILES: CCC(C)N(C)C(=O)C1=CC2=C(C=CC=C2)C(=N1)C1=CC=CC=C1Cl
CH$IUPAC: InChI=1S/C21H21ClN2O/c1-4-14(2)24(3)21(25)19-13-15-9-5-6-10-16(15)20(23-19)17-11-7-8-12-18(17)22/h5-14H,4H2,1-3H3
CH$LINK: CAS 85532-75-8
CH$LINK: CHEBI CHEBI:73290
CH$LINK: PUBCHEM CID:1345
CH$LINK: INCHIKEY RAVIZVQZGXBOQO-UHFFFAOYSA-N
CH$LINK: CHEMSPIDER 1305
AC$INSTRUMENT: Q Exactive Orbitrap (Thermo Scientific)
AC$INSTRUMENT_TYPE: LC-ESI-QFT
AC$MASS_SPECTROMETRY: MS_TYPE MS2
AC$MASS_SPECTROMETRY: ION_MODE POSITIVE
AC$MASS_SPECTROMETRY: IONIZATION ESI
AC$MASS_SPECTROMETRY: FRAGMENTATION_MODE HCD
AC$MASS_SPECTROMETRY: COLLISION_ENERGY 60
AC$MASS_SPECTROMETRY: RESOLUTION 17500
AC$CHROMATOGRAPHY: COLUMN_NAME Acquity BEH C18 1.7um, 2.1x150mm (Waters)
AC$CHROMATOGRAPHY: FLOW_GRADIENT 90/10 at 0-2 min, 0/100 at 15-20 min, 90/10 at 20.1-30 min
AC$CHROMATOGRAPHY: FLOW_RATE 0.20 mL/min
AC$CHROMATOGRAPHY: RETENTION_TIME 18.557 min
AC$CHROMATOGRAPHY: SOLVENT A 0.1% formic acid
AC$CHROMATOGRAPHY: SOLVENT B methanol
MS$FOCUSED_ION: BASE_PEAK 79.0211
MS$FOCUSED_ION: PRECURSOR_M/Z 353.1415
MS$FOCUSED_ION: PRECURSOR_TYPE [M+H]+
MS$FOCUSED_ION: PRECURSOR_INTENSITY 24059018.25
MS$DATA_PROCESSING: RECALIBRATE loess on assigned fragments and MS1
MS$DATA_PROCESSING: REANALYZE Peaks with additional N2/O included
MS$DATA_PROCESSING: WHOLE RMassBank 2.99.2
PK$SPLASH: splash10-052r-0090000000-4e5b9e613ab601cf7785
PK$ANNOTATION: m/z tentative_formula formula_count mass error(ppm)
  57.0699 C4H9+ 1 57.0699 0.61
  115.0544 C9H7+ 1 115.0542 1.51
  140.0496 C10H6N+ 1 140.0495 0.63
  176.0622 C14H8+ 1 176.0621 0.72
  185.0716 C11H9N2O+ 2 185.0709 3.38
  192.0814 C14H10N+ 1 192.0808 3.26
  193.065 C14H9O+ 2 193.0648 1
  201.0575 C15H7N+ 1 201.0573 0.81
  202.0652 C15H8N+ 1 202.0651 0.3
  203.073 C15H9N+ 1 203.073 0.18
  211.0311 C14H8Cl+ 2 211.0309 0.89
  216.0808 C16H10N+ 1 216.0808 0
  217.0888 C16H11N+ 1 217.0886 0.94
  220.0757 C15H10NO+ 2 220.0757 0.08
  225.0466 C15H10Cl+ 2 225.0466 0.11
  230.0715 C17H10O+ 2 230.0726 -4.79
  237.034 C15H8ClN+ 2 237.034 -0.04
  238.0418 C15H9ClN+ 2 238.0418 0.05
  251.0502 C16H10ClN+ 2 251.0496 2.4
  252.0575 C16H11ClN+ 2 252.0575 0.29
  256.0524 C15H11ClNO+ 1 256.0524 -0.01
  258.0563 C14H11ClN2O+ 1 258.0554 3.23
  270.068 C16H13ClNO+ 1 270.068 -0.2
  279.0684 C17H12ClN2+ 2 279.0684 0.22
  284.0834 C17H15ClNO+ 1 284.0837 -0.91
  297.0791 C17H14ClN2O+ 1 297.0789 0.72
PK$NUM_PEAK: 26
PK$PEAK: m/z int. rel.int.
  57.0699 44585.1 4
  115.0544 19000.2 1
  140.0496 11960.6 1
  176.0622 42526.1 4
  185.0716 31597.8 3
  192.0814 11804.2 1
  193.065 14181.9 1
  201.0575 37853.1 3
  202.0652 238329.2 23
  203.073 3518409.5 354
  211.0311 43944.3 4
  216.0808 22530.9 2
  217.0888 107527.9 10
  220.0757 1050809.9 105
  225.0466 10107.6 1
  230.0715 16596.7 1
  237.034 22337.7 2
  238.0418 9927519 999
  251.0502 12367.7 1
  252.0575 357285.5 35
  256.0524 7467480.5 751
  258.0563 12983 1
  270.068 235817.6 23
  279.0684 872043.3 87
  284.0834 38155.6 3
  297.0791 21239.4 2
//
