ACCESSION: MSBNK-LCSB-LU125555
RECORD_TITLE: Thiophanate; LC-ESI-QFT; MS2; CE: 75; R=17500; [M-H]-
DATE: 2020.08.19
AUTHORS: Elapavalore, A.; Kondić, T.; Singh, R.; Schymanski, E.
LICENSE: CC BY
COPYRIGHT: Copyright © 2019 by Environmental Cheminformatics, LCSB, University of Luxembourg, Luxembourg
PUBLICATION: Elapavalore, A.; Kondić, T.; et al., Adding Open Spectral Data to MassBank and PubChem Using Open Source Tools to Support Non-Targeted Exposomics of Mixtures (submitted).
PROJECT: ENTACT U.S. Environmental Protection Agency’s Non-Targeted Analysis Collaborative Trial
COMMENT: CONFIDENCE standard compound
COMMENT: INTERNAL_ID 1255
COMMENT: DATASET 20200303_ENTACT_RP_MIX504
COMMENT: DATA_PROCESSING MERGING RMBmix ver. 0.2.7
COMMENT: DATA_PROCESSING PRESCREENING Shinyscreen ver. 0.8.0
COMMENT: ORIGINAL_ACQUISITION_NO 4112
COMMENT: ORIGINAL_PRECURSOR_SCAN_NO 4109
COMMENT: RAW_DATA available as MSV000091754 at [DOI:10.25345/C5S46HG75]
CH$NAME: Thiophanate
CH$NAME: N'-ethoxycarbonyl-N-[2-[(N-ethoxycarbonyl-C-sulfanylcarbonimidoyl)amino]phenyl]carbamimidothioic acid
CH$COMPOUND_CLASS: N/A; Environmental Standard
CH$FORMULA: C14H18N4O4S2
CH$EXACT_MASS: 370.0769
CH$SMILES: CCOC(=O)NC(=S)NC1=C(NC(=S)NC(=O)OCC)C=CC=C1
CH$IUPAC: InChI=1S/C14H18N4O4S2/c1-3-21-13(19)17-11(23)15-9-7-5-6-8-10(9)16-12(24)18-14(20)22-4-2/h5-8H,3-4H2,1-2H3,(H2,15,17,19,23)(H2,16,18,20,24)
CH$LINK: CAS 37359-51-6
CH$LINK: CHEBI CHEBI:82060
CH$LINK: CHEMSPIDER 2297684
CH$LINK: INCHIKEY YFNCATAIYKQPOO-UHFFFAOYSA-N
CH$LINK: KEGG C18918
CH$LINK: PUBCHEM CID:3032792
AC$INSTRUMENT: Q Exactive Orbitrap (Thermo Scientific)
AC$INSTRUMENT_TYPE: LC-ESI-QFT
AC$MASS_SPECTROMETRY: MS_TYPE MS2
AC$MASS_SPECTROMETRY: ION_MODE NEGATIVE
AC$MASS_SPECTROMETRY: IONIZATION ESI
AC$MASS_SPECTROMETRY: FRAGMENTATION_MODE HCD
AC$MASS_SPECTROMETRY: COLLISION_ENERGY 75
AC$MASS_SPECTROMETRY: RESOLUTION 17500
AC$CHROMATOGRAPHY: COLUMN_NAME Acquity BEH C18 1.7um, 2.1x150mm (Waters)
AC$CHROMATOGRAPHY: FLOW_GRADIENT 90/10 at 0-2 min, 0/100 at 15-20 min, 90/10 at 20.1-30 min
AC$CHROMATOGRAPHY: FLOW_RATE 0.20 mL/min
AC$CHROMATOGRAPHY: RETENTION_TIME 16.509 min
AC$CHROMATOGRAPHY: SOLVENT A 0.1% formic acid
AC$CHROMATOGRAPHY: SOLVENT B methanol
MS$FOCUSED_ION: BASE_PEAK 165.092
MS$FOCUSED_ION: PRECURSOR_M/Z 369.0697
MS$FOCUSED_ION: PRECURSOR_TYPE [M-H]-
MS$FOCUSED_ION: PRECURSOR_INTENSITY 3437864.935547
MS$DATA_PROCESSING: RECALIBRATE loess on assigned fragments and MS1
MS$DATA_PROCESSING: REANALYZE Peaks with additional N2/O included
MS$DATA_PROCESSING: WHOLE RMassBank 2.99.2
PK$SPLASH: splash10-05mk-0900000000-266113259af69add4b56
PK$ANNOTATION: m/z tentative_formula formula_count mass error(ppm)
  57.9756 CNS- 1 57.9757 -1.13
  117.0458 C7H5N2- 2 117.0458 -0.04
  132.0565 C7H6N3- 3 132.0567 -1.51
  148.0099 C7H4N2S- 2 148.0101 -1.17
  149.0178 C7H5N2S- 2 149.0179 -0.33
  158.036 C8H4N3O- 3 158.036 -0.16
PK$NUM_PEAK: 6
PK$PEAK: m/z int. rel.int.
  57.9756 10946.1 99
  117.0458 100077.3 911
  132.0565 11765.6 107
  148.0099 2840.7 25
  149.0178 109626.5 999
  158.036 87009 792
//
