ACCESSION: MSBNK-LCSB-LU111504
RECORD_TITLE: N-methyl-alpha-phenylbenzeneacetamide; LC-ESI-QFT; MS2; CE: 60; R=17500; [M+H]+
DATE: 2020.08.19
AUTHORS: Elapavalore, A.; Kondić, T.; Singh, R.; Schymanski, E.
LICENSE: CC BY
COPYRIGHT: Copyright © 2019 by Environmental Cheminformatics, LCSB, University of Luxembourg, Luxembourg
PUBLICATION: Elapavalore, A.; Kondić, T.; et al., Adding Open Spectral Data to MassBank and PubChem Using Open Source Tools to Support Non-Targeted Exposomics of Mixtures (submitted).
PROJECT: ENTACT U.S. Environmental Protection Agency’s Non-Targeted Analysis Collaborative Trial
COMMENT: CONFIDENCE standard compound
COMMENT: INTERNAL_ID 1115
COMMENT: DATASET 20200303_ENTACT_RP_MIX503
COMMENT: DATA_PROCESSING MERGING RMBmix ver. 0.2.7
COMMENT: DATA_PROCESSING PRESCREENING Shinyscreen ver. 0.8.0
COMMENT: ORIGINAL_ACQUISITION_NO 8357
COMMENT: ORIGINAL_PRECURSOR_SCAN_NO 8353
COMMENT: RAW_DATA available as MSV000091754 at [DOI:10.25345/C5S46HG75]
CH$NAME: N-methyl-alpha-phenylbenzeneacetamide
CH$NAME: N-methyl-2,2-diphenylacetamide
CH$COMPOUND_CLASS: N/A; Environmental Standard
CH$FORMULA: C15H15NO
CH$EXACT_MASS: 225.1154
CH$SMILES: CNC(=O)C(C1=CC=CC=C1)C1=CC=CC=C1
CH$IUPAC: InChI=1S/C15H15NO/c1-16-15(17)14(12-8-4-2-5-9-12)13-10-6-3-7-11-13/h2-11,14H,1H3,(H,16,17)
CH$LINK: CAS 954-21-2
CH$LINK: PUBCHEM CID:70381
CH$LINK: INCHIKEY DIZKGJLRHOCMTP-UHFFFAOYSA-N
CH$LINK: CHEMSPIDER 63562
AC$INSTRUMENT: Q Exactive Orbitrap (Thermo Scientific)
AC$INSTRUMENT_TYPE: LC-ESI-QFT
AC$MASS_SPECTROMETRY: MS_TYPE MS2
AC$MASS_SPECTROMETRY: ION_MODE POSITIVE
AC$MASS_SPECTROMETRY: IONIZATION ESI
AC$MASS_SPECTROMETRY: FRAGMENTATION_MODE HCD
AC$MASS_SPECTROMETRY: COLLISION_ENERGY 60
AC$MASS_SPECTROMETRY: RESOLUTION 17500
AC$CHROMATOGRAPHY: COLUMN_NAME Acquity BEH C18 1.7um, 2.1x150mm (Waters)
AC$CHROMATOGRAPHY: FLOW_GRADIENT 90/10 at 0-2 min, 0/100 at 15-20 min, 90/10 at 20.1-30 min
AC$CHROMATOGRAPHY: FLOW_RATE 0.20 mL/min
AC$CHROMATOGRAPHY: RETENTION_TIME 16.084 min
AC$CHROMATOGRAPHY: SOLVENT A 0.1% formic acid
AC$CHROMATOGRAPHY: SOLVENT B methanol
MS$FOCUSED_ION: BASE_PEAK 79.0212
MS$FOCUSED_ION: PRECURSOR_M/Z 226.1226
MS$FOCUSED_ION: PRECURSOR_TYPE [M+H]+
MS$FOCUSED_ION: PRECURSOR_INTENSITY 27948757.71875
MS$DATA_PROCESSING: RECALIBRATE loess on assigned fragments and MS1
MS$DATA_PROCESSING: REANALYZE Peaks with additional N2/O included
MS$DATA_PROCESSING: WHOLE RMassBank 2.99.2
PK$SPLASH: splash10-00di-0900000000-18649ca253ffd3471132
PK$ANNOTATION: m/z tentative_formula formula_count mass error(ppm)
  58.0287 C2H4NO+ 1 58.0287 -0.05
  91.0542 C7H7+ 1 91.0542 -0.16
  107.0491 C7H7O+ 1 107.0491 -0.02
  120.0807 C8H10N+ 1 120.0808 -0.25
  141.0699 C11H9+ 1 141.0699 0.11
  146.0601 C9H8NO+ 1 146.06 0.29
  148.0756 C9H10NO+ 1 148.0757 -0.39
  152.062 C12H8+ 1 152.0621 -0.18
  154.0774 C12H10+ 1 154.0777 -1.71
  165.0699 C13H9+ 1 165.0699 0.17
  166.0777 C13H10+ 1 166.0777 0.28
  167.0855 C13H11+ 1 167.0855 -0.25
  169.0647 C12H9O+ 1 169.0648 -0.61
  193.0885 C14H11N+ 1 193.0886 -0.61
  226.1227 C15H16NO+ 1 226.1226 0.23
PK$NUM_PEAK: 15
PK$PEAK: m/z int. rel.int.
  58.0287 265861.8 16
  91.0542 639487.7 39
  107.0491 28043.4 1
  120.0807 16220820 999
  141.0699 114155.6 7
  146.0601 18742.5 1
  148.0756 198789.8 12
  152.062 561346.2 34
  154.0774 18713.7 1
  165.0699 652431.2 40
  166.0777 236583 14
  167.0855 3335524.2 205
  169.0647 25546.5 1
  193.0885 73754 4
  226.1227 17509.6 1
//
