ACCESSION: MSBNK-LCSB-LU107902
RECORD_TITLE: Terbucarb; LC-ESI-QFT; MS2; CE: 30; R=17500; [M+H]+
DATE: 2020.08.19
AUTHORS: Elapavalore, A.; Kondić, T.; Singh, R.; Schymanski, E.
LICENSE: CC BY
COPYRIGHT: Copyright © 2019 by Environmental Cheminformatics, LCSB, University of Luxembourg, Luxembourg
PUBLICATION: Elapavalore, A.; Kondić, T.; et al., Adding Open Spectral Data to MassBank and PubChem Using Open Source Tools to Support Non-Targeted Exposomics of Mixtures (submitted).
PROJECT: ENTACT U.S. Environmental Protection Agency’s Non-Targeted Analysis Collaborative Trial
COMMENT: CONFIDENCE standard compound
COMMENT: INTERNAL_ID 1079
COMMENT: DATASET 20200303_ENTACT_RP_MIX508
COMMENT: DATA_PROCESSING MERGING RMBmix ver. 0.2.7
COMMENT: DATA_PROCESSING PRESCREENING Shinyscreen ver. 0.8.0
COMMENT: ORIGINAL_ACQUISITION_NO 10982
COMMENT: ORIGINAL_PRECURSOR_SCAN_NO 10981
COMMENT: RAW_DATA available as MSV000091754 at [DOI:10.25345/C5S46HG75]
CH$NAME: Terbucarb
CH$NAME: (2,6-ditert-butyl-4-methylphenyl) N-methylcarbamate
CH$COMPOUND_CLASS: N/A; Environmental Standard
CH$FORMULA: C17H27NO2
CH$EXACT_MASS: 277.2042
CH$SMILES: CNC(=O)OC1=C(C=C(C)C=C1C(C)(C)C)C(C)(C)C
CH$IUPAC: InChI=1S/C17H27NO2/c1-11-9-12(16(2,3)4)14(20-15(19)18-8)13(10-11)17(5,6)7/h9-10H,1-8H3,(H,18,19)
CH$LINK: CAS 1918-11-2
CH$LINK: CHEBI CHEBI:82250
CH$LINK: PUBCHEM CID:15967
CH$LINK: INCHIKEY PNRAZZZISDRWMV-UHFFFAOYSA-N
CH$LINK: CHEMSPIDER 15172
AC$INSTRUMENT: Q Exactive Orbitrap (Thermo Scientific)
AC$INSTRUMENT_TYPE: LC-ESI-QFT
AC$MASS_SPECTROMETRY: MS_TYPE MS2
AC$MASS_SPECTROMETRY: ION_MODE POSITIVE
AC$MASS_SPECTROMETRY: IONIZATION ESI
AC$MASS_SPECTROMETRY: FRAGMENTATION_MODE HCD
AC$MASS_SPECTROMETRY: COLLISION_ENERGY 30
AC$MASS_SPECTROMETRY: RESOLUTION 17500
AC$CHROMATOGRAPHY: COLUMN_NAME Acquity BEH C18 1.7um, 2.1x150mm (Waters)
AC$CHROMATOGRAPHY: FLOW_GRADIENT 90/10 at 0-2 min, 0/100 at 15-20 min, 90/10 at 20.1-30 min
AC$CHROMATOGRAPHY: FLOW_RATE 0.20 mL/min
AC$CHROMATOGRAPHY: RETENTION_TIME 20.802 min
AC$CHROMATOGRAPHY: SOLVENT A 0.1% formic acid
AC$CHROMATOGRAPHY: SOLVENT B methanol
MS$FOCUSED_ION: BASE_PEAK 79.0211
MS$FOCUSED_ION: PRECURSOR_M/Z 278.2115
MS$FOCUSED_ION: PRECURSOR_TYPE [M+H]+
MS$FOCUSED_ION: PRECURSOR_INTENSITY 35730529.78125
MS$DATA_PROCESSING: RECALIBRATE loess on assigned fragments and MS1
MS$DATA_PROCESSING: REANALYZE Peaks with additional N2/O included
MS$DATA_PROCESSING: WHOLE RMassBank 2.99.2
PK$SPLASH: splash10-00or-0790000000-00d79d5bc39f1a7ea30c
PK$ANNOTATION: m/z tentative_formula formula_count mass error(ppm)
  107.0729 C7H9N+ 1 107.073 -0.55
  121.0892 C8H11N+ 1 121.0886 5.08
  122.0964 C8H12N+ 1 122.0964 -0.12
  134.0605 C8H8NO+ 1 134.06 3.5
  150.0553 C8H8NO2+ 1 150.055 2.61
  151.0627 C8H9NO2+ 1 151.0628 -0.22
  166.0862 C9H12NO2+ 1 166.0863 -0.17
  263.1877 C16H25NO2+ 1 263.188 -1.01
  278.2114 C17H28NO2+ 1 278.2115 -0.15
PK$NUM_PEAK: 9
PK$PEAK: m/z int. rel.int.
  107.0729 43040.7 1
  121.0892 70205.1 3
  122.0964 69174 3
  134.0605 27195.7 1
  150.0553 33664.2 1
  151.0627 1878900.4 85
  166.0862 15143368 692
  263.1877 112479 5
  278.2114 21856850 999
//
