ACCESSION: MSBNK-LCSB-LU030805
RECORD_TITLE: Lauryldiethanolamine; LC-ESI-QFT; MS2; CE: 75; R=17500; [M+H]+
DATE: 2020.08.19
AUTHORS: Elapavalore, A.; Kondić, T.; Singh, R.; Schymanski, E.
LICENSE: CC BY
COPYRIGHT: Copyright © 2019 by Environmental Cheminformatics, LCSB, University of Luxembourg, Luxembourg
PUBLICATION: Elapavalore, A.; Kondić, T.; et al., Adding Open Spectral Data to MassBank and PubChem Using Open Source Tools to Support Non-Targeted Exposomics of Mixtures (submitted).
PROJECT: ENTACT U.S. Environmental Protection Agency’s Non-Targeted Analysis Collaborative Trial
COMMENT: CONFIDENCE standard compound
COMMENT: INTERNAL_ID 308
COMMENT: DATASET 20200303_ENTACT_RP_MIX505
COMMENT: DATA_PROCESSING MERGING RMBmix ver. 0.2.7
COMMENT: DATA_PROCESSING PRESCREENING Shinyscreen ver. 0.8.0
COMMENT: ORIGINAL_ACQUISITION_NO 9043
COMMENT: ORIGINAL_PRECURSOR_SCAN_NO 9041
COMMENT: RAW_DATA available as MSV000091754 at [DOI:10.25345/C5S46HG75]
CH$NAME: Lauryldiethanolamine
CH$NAME: 2-[dodecyl(2-hydroxyethyl)amino]ethanol
CH$COMPOUND_CLASS: N/A; Environmental Standard
CH$FORMULA: C16H35NO2
CH$EXACT_MASS: 273.2668
CH$SMILES: CCCCCCCCCCCCN(CCO)CCO
CH$IUPAC: InChI=1S/C16H35NO2/c1-2-3-4-5-6-7-8-9-10-11-12-17(13-15-18)14-16-19/h18-19H,2-16H2,1H3
CH$LINK: CAS 1541-67-9
CH$LINK: PUBCHEM CID:352309
CH$LINK: INCHIKEY NKFNBVMJTSYZDV-UHFFFAOYSA-N
CH$LINK: CHEMSPIDER 312822
AC$INSTRUMENT: Q Exactive Orbitrap (Thermo Scientific)
AC$INSTRUMENT_TYPE: LC-ESI-QFT
AC$MASS_SPECTROMETRY: MS_TYPE MS2
AC$MASS_SPECTROMETRY: ION_MODE POSITIVE
AC$MASS_SPECTROMETRY: IONIZATION ESI
AC$MASS_SPECTROMETRY: FRAGMENTATION_MODE HCD
AC$MASS_SPECTROMETRY: COLLISION_ENERGY 75
AC$MASS_SPECTROMETRY: RESOLUTION 17500
AC$CHROMATOGRAPHY: COLUMN_NAME Acquity BEH C18 1.7um, 2.1x150mm (Waters)
AC$CHROMATOGRAPHY: FLOW_GRADIENT 90/10 at 0-2 min, 0/100 at 15-20 min, 90/10 at 20.1-30 min
AC$CHROMATOGRAPHY: FLOW_RATE 0.20 mL/min
AC$CHROMATOGRAPHY: RETENTION_TIME 17.298 min
AC$CHROMATOGRAPHY: SOLVENT A 0.1% formic acid
AC$CHROMATOGRAPHY: SOLVENT B methanol
MS$FOCUSED_ION: BASE_PEAK 79.0211
MS$FOCUSED_ION: PRECURSOR_M/Z 274.2741
MS$FOCUSED_ION: PRECURSOR_TYPE [M+H]+
MS$FOCUSED_ION: PRECURSOR_INTENSITY 43845948.5625
MS$DATA_PROCESSING: RECALIBRATE loess on assigned fragments and MS1
MS$DATA_PROCESSING: REANALYZE Peaks with additional N2/O included
MS$DATA_PROCESSING: WHOLE RMassBank 2.99.2
PK$SPLASH: splash10-05fr-9000000000-8931b7e663d6576d88ae
PK$ANNOTATION: m/z tentative_formula formula_count mass error(ppm)
  53.0022 C3HO+ 1 53.0022 1.05
  53.9975 C2NO+ 1 53.9974 0.88
  55.0416 C3H5N+ 1 55.0417 -0.88
  55.0542 C4H7+ 1 55.0542 0.25
  56.0495 C3H6N+ 1 56.0495 0.79
  57.0699 C4H9+ 1 57.0699 0.54
  58.0652 C3H8N+ 1 58.0651 0.54
  60.0444 C2H6NO+ 1 60.0444 -0.49
  62.06 C2H8NO+ 1 62.06 0.02
  67.9893 C3O2+ 1 67.9893 -0.45
  68.0495 C4H6N+ 1 68.0495 0.25
  69.0698 C5H9+ 1 69.0699 -0.39
  70.0651 C4H8N+ 1 70.0651 -0.17
  71.0855 C5H11+ 1 71.0855 -0.02
  72.0808 C4H10N+ 1 72.0808 0.52
  74.06 C3H8NO+ 1 74.06 -0.17
  84.0809 C5H10N+ 1 84.0808 1.33
  85.1012 C6H13+ 1 85.1012 0.32
  86.0601 C4H8NO+ 1 86.06 0.31
  88.0757 C4H10NO+ 1 88.0757 0.43
  102.0914 C5H12NO+ 1 102.0913 0.57
  106.0863 C4H12NO2+ 1 106.0863 0.36
PK$NUM_PEAK: 22
PK$PEAK: m/z int. rel.int.
  53.0022 283549.2 79
  53.9975 46172.4 13
  55.0416 14983.9 4
  55.0542 112941.8 31
  56.0495 40918.3 11
  57.0699 2261496 637
  58.0652 228509.2 64
  60.0444 38003.1 10
  62.06 65722.8 18
  67.9893 29125.4 8
  68.0495 122046.5 34
  69.0698 32266.2 9
  70.0651 3541861.8 999
  71.0855 326811.9 92
  72.0808 25255.5 7
  74.06 41092.9 11
  84.0809 8911.5 2
  85.1012 39735.1 11
  86.0601 29279.7 8
  88.0757 1520308.9 428
  102.0914 316676.1 89
  106.0863 258007 72
//
