ACCESSION: MSBNK-LCSB-LU132104
RECORD_TITLE: Bupropion; LC-ESI-QFT; MS2; CE: 60; R=17500; [M+H]+
DATE: 2020.08.19
AUTHORS: Elapavalore, A.; Kondić, T.; Singh, R.; Schymanski, E.
LICENSE: CC BY
COPYRIGHT: Copyright © 2019 by Environmental Cheminformatics, LCSB, University of Luxembourg, Luxembourg
PUBLICATION: Elapavalore, A.; Kondić, T.; et al., Adding Open Spectral Data to MassBank and PubChem Using Open Source Tools to Support Non-Targeted Exposomics of Mixtures (submitted).
PROJECT: ENTACT U.S. Environmental Protection Agency’s Non-Targeted Analysis Collaborative Trial
COMMENT: CONFIDENCE standard compound
COMMENT: INTERNAL_ID 1321
COMMENT: DATASET 20200303_ENTACT_RP_MIX504
COMMENT: DATA_PROCESSING MERGING RMBmix ver. 0.2.7
COMMENT: DATA_PROCESSING PRESCREENING Shinyscreen ver. 0.8.0
COMMENT: ORIGINAL_ACQUISITION_NO 7025
COMMENT: ORIGINAL_PRECURSOR_SCAN_NO 7023
COMMENT: RAW_DATA available as MSV000091754 at [DOI:10.25345/C5S46HG75]
CH$NAME: Bupropion
CH$NAME: 2-(tert-butylamino)-1-(3-chlorophenyl)propan-1-one
CH$COMPOUND_CLASS: N/A; Environmental Standard
CH$FORMULA: C13H18ClNO
CH$EXACT_MASS: 239.1077
CH$SMILES: CC(NC(C)(C)C)C(=O)C1=CC=CC(Cl)=C1
CH$IUPAC: InChI=1S/C13H18ClNO/c1-9(15-13(2,3)4)12(16)10-6-5-7-11(14)8-10/h5-9,15H,1-4H3
CH$LINK: CAS 34841-39-9
CH$LINK: CHEBI CHEBI:3219
CH$LINK: KEGG C06860
CH$LINK: PUBCHEM CID:444
CH$LINK: INCHIKEY SNPPWIUOZRMYNY-UHFFFAOYSA-N
CH$LINK: CHEMSPIDER 431
AC$INSTRUMENT: Q Exactive Orbitrap (Thermo Scientific)
AC$INSTRUMENT_TYPE: LC-ESI-QFT
AC$MASS_SPECTROMETRY: MS_TYPE MS2
AC$MASS_SPECTROMETRY: ION_MODE POSITIVE
AC$MASS_SPECTROMETRY: IONIZATION ESI
AC$MASS_SPECTROMETRY: FRAGMENTATION_MODE HCD
AC$MASS_SPECTROMETRY: COLLISION_ENERGY 60
AC$MASS_SPECTROMETRY: RESOLUTION 17500
AC$CHROMATOGRAPHY: COLUMN_NAME Acquity BEH C18 1.7um, 2.1x150mm (Waters)
AC$CHROMATOGRAPHY: FLOW_GRADIENT 90/10 at 0-2 min, 0/100 at 15-20 min, 90/10 at 20.1-30 min
AC$CHROMATOGRAPHY: FLOW_RATE 0.20 mL/min
AC$CHROMATOGRAPHY: RETENTION_TIME 13.415 min
AC$CHROMATOGRAPHY: SOLVENT A 0.1% formic acid
AC$CHROMATOGRAPHY: SOLVENT B methanol
MS$FOCUSED_ION: BASE_PEAK 79.0211
MS$FOCUSED_ION: PRECURSOR_M/Z 240.115
MS$FOCUSED_ION: PRECURSOR_TYPE [M+H]+
MS$FOCUSED_ION: PRECURSOR_INTENSITY 23870015.15625
MS$DATA_PROCESSING: RECALIBRATE loess on assigned fragments and MS1
MS$DATA_PROCESSING: REANALYZE Peaks with additional N2/O included
MS$DATA_PROCESSING: WHOLE RMassBank 2.99.2
PK$SPLASH: splash10-001i-1900000000-5311858028ca99b021a8
PK$ANNOTATION: m/z tentative_formula formula_count mass error(ppm)
  53.0022 C3HO+ 2 53.0022 0.49
  57.0699 C4H9+ 1 57.0699 0.12
  72.0445 C3H6NO+ 1 72.0444 1.52
  77.0385 C6H5+ 1 77.0386 -1.22
  95.049 C6H7O+ 2 95.0491 -1.57
  103.0542 C8H7+ 1 103.0542 0.05
  104.0621 C8H8+ 1 104.0621 0.23
  130.0652 C9H8N+ 1 130.0651 0.84
  131.073 C9H9N+ 1 131.073 0.04
  132.0569 C9H8O+ 2 132.057 -0.47
  139.0309 C8H8Cl+ 1 139.0309 0.11
  148.0757 C9H10NO+ 1 148.0757 -0.2
  151.0183 C8H6ClN+ 2 151.0183 -0.37
  158.0717 C11H10O+ 2 158.0726 -5.53
  166.0419 C9H9ClN+ 2 166.0418 0.3
  167.0258 C9H8ClO+ 1 167.0258 0.08
  184.0524 C9H11ClNO+ 1 184.0524 0.25
PK$NUM_PEAK: 17
PK$PEAK: m/z int. rel.int.
  53.0022 11553.5 2
  57.0699 946779.1 211
  72.0445 5070.9 1
  77.0385 8136.5 1
  95.049 4625.1 1
  103.0542 331932.3 74
  104.0621 4589.6 1
  130.0652 284757.6 63
  131.073 4471292 999
  132.0569 40832.3 9
  139.0309 1544934 345
  148.0757 18339.1 4
  151.0183 51336.1 11
  158.0717 7523.1 1
  166.0419 1144422.1 255
  167.0258 532648.7 119
  184.0524 80035.6 17
//
