ACCESSION: MSBNK-LCSB-LU092504
RECORD_TITLE: N,N-Dimethylacetoacetamide; LC-ESI-QFT; MS2; CE: 60; R=17500; [M+H]+
DATE: 2020.08.19
AUTHORS: Elapavalore, A.; Kondić, T.; Singh, R.; Schymanski, E.
LICENSE: CC BY
COPYRIGHT: Copyright © 2019 by Environmental Cheminformatics, LCSB, University of Luxembourg, Luxembourg
PUBLICATION: Elapavalore, A.; Kondić, T.; et al., Adding Open Spectral Data to MassBank and PubChem Using Open Source Tools to Support Non-Targeted Exposomics of Mixtures (submitted).
PROJECT: ENTACT U.S. Environmental Protection Agency’s Non-Targeted Analysis Collaborative Trial
COMMENT: CONFIDENCE standard compound
COMMENT: INTERNAL_ID 925
COMMENT: DATASET 20200303_ENTACT_RP_MIX508
COMMENT: DATA_PROCESSING MERGING RMBmix ver. 0.2.7
COMMENT: DATA_PROCESSING PRESCREENING Shinyscreen ver. 0.8.0
COMMENT: ORIGINAL_ACQUISITION_NO 2020
COMMENT: ORIGINAL_PRECURSOR_SCAN_NO 2019
COMMENT: RAW_DATA available as MSV000091754 at [DOI:10.25345/C5S46HG75]
CH$NAME: N,N-Dimethylacetoacetamide
CH$NAME: N,N-dimethyl-3-oxobutanamide
CH$COMPOUND_CLASS: N/A; Environmental Standard
CH$FORMULA: C6H11NO2
CH$EXACT_MASS: 129.0790
CH$SMILES: CN(C)C(=O)CC(C)=O
CH$IUPAC: InChI=1S/C6H11NO2/c1-5(8)4-6(9)7(2)3/h4H2,1-3H3
CH$LINK: CAS 2044-64-6
CH$LINK: PUBCHEM CID:16278
CH$LINK: INCHIKEY YPEWWOUWRRQBAX-UHFFFAOYSA-N
CH$LINK: CHEMSPIDER 15446
AC$INSTRUMENT: Q Exactive Orbitrap (Thermo Scientific)
AC$INSTRUMENT_TYPE: LC-ESI-QFT
AC$MASS_SPECTROMETRY: MS_TYPE MS2
AC$MASS_SPECTROMETRY: ION_MODE POSITIVE
AC$MASS_SPECTROMETRY: IONIZATION ESI
AC$MASS_SPECTROMETRY: FRAGMENTATION_MODE HCD
AC$MASS_SPECTROMETRY: COLLISION_ENERGY 60
AC$MASS_SPECTROMETRY: RESOLUTION 17500
AC$CHROMATOGRAPHY: COLUMN_NAME Acquity BEH C18 1.7um, 2.1x150mm (Waters)
AC$CHROMATOGRAPHY: FLOW_GRADIENT 90/10 at 0-2 min, 0/100 at 15-20 min, 90/10 at 20.1-30 min
AC$CHROMATOGRAPHY: FLOW_RATE 0.20 mL/min
AC$CHROMATOGRAPHY: RETENTION_TIME 3.896 min
AC$CHROMATOGRAPHY: SOLVENT A 0.1% formic acid
AC$CHROMATOGRAPHY: SOLVENT B methanol
MS$FOCUSED_ION: BASE_PEAK 79.0211
MS$FOCUSED_ION: PRECURSOR_M/Z 130.0863
MS$FOCUSED_ION: PRECURSOR_TYPE [M+H]+
MS$FOCUSED_ION: PRECURSOR_INTENSITY 2105932
MS$DATA_PROCESSING: RECALIBRATE loess on assigned fragments and MS1
MS$DATA_PROCESSING: REANALYZE Peaks with additional N2/O included
MS$DATA_PROCESSING: WHOLE RMassBank 2.99.2
PK$SPLASH: splash10-00di-9000000000-370200f2cc7782db47d9
PK$ANNOTATION: m/z tentative_formula formula_count mass error(ppm)
  70.0651 C4H8N+ 1 70.0651 -0.65
  72.0444 C3H6NO+ 1 72.0444 -0.26
  84.0446 C4H6NO+ 1 84.0444 2.69
  84.0809 C5H10N+ 1 84.0808 1.04
  85.0284 C4H5O2+ 1 85.0284 0.15
  88.0757 C4H10NO+ 1 88.0757 0.07
  109.0154 C5H3NO2+ 1 109.0158 -3.6
  112.0757 C6H10NO+ 1 112.0757 -0.06
  130.0864 C6H12NO2+ 1 130.0863 1.02
PK$NUM_PEAK: 9
PK$PEAK: m/z int. rel.int.
  70.0651 17992.3 82
  72.0444 217555.5 999
  84.0446 1541.1 7
  84.0809 5421.8 24
  85.0284 44589.8 204
  88.0757 2295.3 10
  109.0154 2468 11
  112.0757 5990.8 27
  130.0864 9492.7 43
//
