ACCESSION: MSBNK-LCSB-LU026652
RECORD_TITLE: PD-0333941; LC-ESI-QFT; MS2; CE: 30; R=17500; [M-H]-
DATE: 2020.08.19
AUTHORS: Elapavalore, A.; Kondić, T.; Singh, R.; Schymanski, E.
LICENSE: CC BY
COPYRIGHT: Copyright © 2019 by Environmental Cheminformatics, LCSB, University of Luxembourg, Luxembourg
PUBLICATION: Elapavalore, A.; Kondić, T.; et al., Adding Open Spectral Data to MassBank and PubChem Using Open Source Tools to Support Non-Targeted Exposomics of Mixtures (submitted).
PROJECT: ENTACT U.S. Environmental Protection Agency’s Non-Targeted Analysis Collaborative Trial
COMMENT: CONFIDENCE standard compound
COMMENT: INTERNAL_ID 266
COMMENT: DATASET 20200303_ENTACT_RP_MIX505
COMMENT: DATA_PROCESSING MERGING RMBmix ver. 0.2.7
COMMENT: DATA_PROCESSING PRESCREENING Shinyscreen ver. 0.8.0
COMMENT: ORIGINAL_ACQUISITION_NO 5321
COMMENT: ORIGINAL_PRECURSOR_SCAN_NO 5318
COMMENT: RAW_DATA available as MSV000091754 at [DOI:10.25345/C5S46HG75]
CH$NAME: PD-0333941
CH$NAME: 3-[4-[2-(5-methyl-2-phenyl-1,3-oxazol-4-yl)ethoxy]indol-1-yl]propanoic acid
CH$COMPOUND_CLASS: N/A; Environmental Standard
CH$FORMULA: C23H22N2O4
CH$EXACT_MASS: 390.1580
CH$SMILES: CC1=C(CCOC2=CC=CC3=C2C=CN3CCC(O)=O)N=C(O1)C1=CC=CC=C1
CH$IUPAC: InChI=1S/C23H22N2O4/c1-16-19(24-23(29-16)17-6-3-2-4-7-17)12-15-28-21-9-5-8-20-18(21)10-13-25(20)14-11-22(26)27/h2-10,13H,11-12,14-15H2,1H3,(H,26,27)
CH$LINK: PUBCHEM CID:10134976
CH$LINK: INCHIKEY OMSPUVWUIHNYCS-UHFFFAOYSA-N
CH$LINK: CHEMSPIDER 8310489
AC$INSTRUMENT: Q Exactive Orbitrap (Thermo Scientific)
AC$INSTRUMENT_TYPE: LC-ESI-QFT
AC$MASS_SPECTROMETRY: MS_TYPE MS2
AC$MASS_SPECTROMETRY: ION_MODE NEGATIVE
AC$MASS_SPECTROMETRY: IONIZATION ESI
AC$MASS_SPECTROMETRY: FRAGMENTATION_MODE HCD
AC$MASS_SPECTROMETRY: COLLISION_ENERGY 30
AC$MASS_SPECTROMETRY: RESOLUTION 17500
AC$CHROMATOGRAPHY: COLUMN_NAME Acquity BEH C18 1.7um, 2.1x150mm (Waters)
AC$CHROMATOGRAPHY: FLOW_GRADIENT 90/10 at 0-2 min, 0/100 at 15-20 min, 90/10 at 20.1-30 min
AC$CHROMATOGRAPHY: FLOW_RATE 0.20 mL/min
AC$CHROMATOGRAPHY: RETENTION_TIME 18.689 min
AC$CHROMATOGRAPHY: SOLVENT A 0.1% formic acid
AC$CHROMATOGRAPHY: SOLVENT B methanol
MS$FOCUSED_ION: BASE_PEAK 322.1448
MS$FOCUSED_ION: PRECURSOR_M/Z 389.1507
MS$FOCUSED_ION: PRECURSOR_TYPE [M-H]-
MS$FOCUSED_ION: PRECURSOR_INTENSITY 14691199.00586
MS$DATA_PROCESSING: RECALIBRATE loess on assigned fragments and MS1
MS$DATA_PROCESSING: REANALYZE Peaks with additional N2/O included
MS$DATA_PROCESSING: WHOLE RMassBank 2.99.2
PK$SPLASH: splash10-00lr-0908000000-e614b532db9c6c29b918
PK$ANNOTATION: m/z tentative_formula formula_count mass error(ppm)
  120.0455 C7H6NO- 1 120.0455 0.2
  131.0376 C8H5NO- 1 131.0377 -0.17
  132.0454 C8H6NO- 1 132.0455 -0.49
  144.0455 C9H6NO- 1 144.0455 0.21
  145.0534 C9H7NO- 1 145.0533 0.33
  146.0613 C9H8NO- 1 146.0611 1.29
  158.0611 C10H8NO- 1 158.0611 -0.35
  172.077 C11H10NO- 1 172.0768 1.31
  196.0769 C13H10NO- 2 196.0768 0.42
  317.1295 C20H17N2O2- 1 317.1296 -0.3
  389.1509 C23H21N2O4- 1 389.1507 0.64
PK$NUM_PEAK: 11
PK$PEAK: m/z int. rel.int.
  120.0455 30011.8 6
  131.0376 4497997 953
  132.0454 646904.1 137
  144.0455 52640.9 11
  145.0534 6638 1
  146.0613 9429.5 1
  158.0611 8444.1 1
  172.077 14096.9 2
  196.0769 46080 9
  317.1295 4714951.5 999
  389.1509 11465.8 2
//
