ACCESSION: MSBNK-LCSB-LU073503
RECORD_TITLE: Ro 23-7637; LC-ESI-QFT; MS2; CE: 45; R=17500; [M+H]+
DATE: 2020.08.19
AUTHORS: Elapavalore, A.; Kondić, T.; Singh, R.; Schymanski, E.
LICENSE: CC BY
COPYRIGHT: Copyright © 2019 by Environmental Cheminformatics, LCSB, University of Luxembourg, Luxembourg
PUBLICATION: Elapavalore, A.; Kondić, T.; et al., Adding Open Spectral Data to MassBank and PubChem Using Open Source Tools to Support Non-Targeted Exposomics of Mixtures (submitted).
PROJECT: ENTACT U.S. Environmental Protection Agency’s Non-Targeted Analysis Collaborative Trial
COMMENT: CONFIDENCE standard compound
COMMENT: INTERNAL_ID 735
COMMENT: DATASET 20200303_ENTACT_RP_MIX506
COMMENT: DATA_PROCESSING MERGING RMBmix ver. 0.2.7
COMMENT: DATA_PROCESSING PRESCREENING Shinyscreen ver. 0.8.0
COMMENT: ORIGINAL_ACQUISITION_NO 10201
COMMENT: ORIGINAL_PRECURSOR_SCAN_NO 10200
COMMENT: RAW_DATA available as MSV000091754 at [DOI:10.25345/C5S46HG75]
CH$NAME: Ro 23-7637
CH$NAME: 1-[4-(2,2-diphenylethenyl)piperidin-1-yl]-9-pyridin-3-ylnonan-1-one
CH$COMPOUND_CLASS: N/A; Environmental Standard
CH$FORMULA: C33H40N2O
CH$EXACT_MASS: 480.3141
CH$SMILES: O=C(CCCCCCCCC1=CN=CC=C1)N1CCC(CC1)C=C(C1=CC=CC=C1)C1=CC=CC=C1
CH$IUPAC: InChI=1S/C33H40N2O/c36-33(20-12-4-2-1-3-7-14-29-15-13-23-34-27-29)35-24-21-28(22-25-35)26-32(30-16-8-5-9-17-30)31-18-10-6-11-19-31/h5-6,8-11,13,15-19,23,26-28H,1-4,7,12,14,20-22,24-25H2
CH$LINK: CAS 107071-66-9
CH$LINK: PUBCHEM CID:129491
CH$LINK: INCHIKEY NHKWRRHZTGQJMT-UHFFFAOYSA-N
CH$LINK: CHEMSPIDER 114671
AC$INSTRUMENT: Q Exactive Orbitrap (Thermo Scientific)
AC$INSTRUMENT_TYPE: LC-ESI-QFT
AC$MASS_SPECTROMETRY: MS_TYPE MS2
AC$MASS_SPECTROMETRY: ION_MODE POSITIVE
AC$MASS_SPECTROMETRY: IONIZATION ESI
AC$MASS_SPECTROMETRY: FRAGMENTATION_MODE HCD
AC$MASS_SPECTROMETRY: COLLISION_ENERGY 45
AC$MASS_SPECTROMETRY: RESOLUTION 17500
AC$CHROMATOGRAPHY: COLUMN_NAME Acquity BEH C18 1.7um, 2.1x150mm (Waters)
AC$CHROMATOGRAPHY: FLOW_GRADIENT 90/10 at 0-2 min, 0/100 at 15-20 min, 90/10 at 20.1-30 min
AC$CHROMATOGRAPHY: FLOW_RATE 0.20 mL/min
AC$CHROMATOGRAPHY: RETENTION_TIME 19.459 min
AC$CHROMATOGRAPHY: SOLVENT A 0.1% formic acid
AC$CHROMATOGRAPHY: SOLVENT B methanol
MS$FOCUSED_ION: BASE_PEAK 79.0211
MS$FOCUSED_ION: PRECURSOR_M/Z 481.3213
MS$FOCUSED_ION: PRECURSOR_TYPE [M+H]+
MS$FOCUSED_ION: PRECURSOR_INTENSITY 45662329
MS$DATA_PROCESSING: RECALIBRATE loess on assigned fragments and MS1
MS$DATA_PROCESSING: REANALYZE Peaks with additional N2/O included
MS$DATA_PROCESSING: WHOLE RMassBank 2.99.2
PK$SPLASH: splash10-02t9-3390000000-1c5bf81fd50f56649b83
PK$ANNOTATION: m/z tentative_formula formula_count mass error(ppm)
  55.0542 C4H7+ 1 55.0542 -0.32
  56.0495 C3H6N+ 1 56.0495 -0.31
  57.0699 C4H9+ 1 57.0699 -0.13
  58.0651 C3H8N+ 1 58.0651 -0.51
  65.0385 C5H5+ 1 65.0386 -1.66
  67.0542 C5H7+ 1 67.0542 0.09
  69.0573 C4H7N+ 1 69.0573 -0.51
  69.0698 C5H9+ 1 69.0699 -0.66
  80.0494 C5H6N+ 1 80.0495 -0.69
  82.0651 C5H8N+ 1 82.0651 -0.64
  84.0807 C5H10N+ 1 84.0808 -0.45
  85.1011 C6H13+ 1 85.1012 -1.43
  91.0542 C7H7+ 1 91.0542 -0.49
  92.0494 C6H6N+ 1 92.0495 -0.84
  93.0571 C6H7N+ 1 93.0573 -1.63
  94.0651 C6H8N+ 1 94.0651 -0.13
  96.0807 C6H10N+ 1 96.0808 -0.8
  105.0697 C8H9+ 1 105.0699 -1.24
  106.065 C7H8N+ 1 106.0651 -0.81
  107.0729 C7H9N+ 1 107.073 -0.05
  110.0598 C6H8NO+ 1 110.06 -2.57
  117.0698 C9H9+ 1 117.0699 -0.6
  118.065 C8H8N+ 1 118.0651 -0.73
  119.0729 C8H9N+ 1 119.073 -0.11
  120.0807 C8H10N+ 1 120.0808 -0.77
  129.0697 C10H9+ 1 129.0699 -1.68
  131.0856 C10H11+ 1 131.0855 0.25
  132.0806 C9H10N+ 1 132.0808 -1.1
  133.0886 C9H11N+ 1 133.0886 -0.15
  134.0963 C9H12N+ 1 134.0964 -0.81
  141.0698 C11H9+ 1 141.0699 -0.89
  143.0855 C11H11+ 1 143.0855 -0.41
  146.0965 C10H12N+ 1 146.0964 0.72
  148.1119 C10H14N+ 1 148.1121 -1.01
  152.0619 C12H8+ 1 152.0621 -1.13
  155.0856 C12H11+ 1 155.0855 0.23
  157.1013 C12H13+ 1 157.1012 0.66
  160.112 C11H14N+ 1 160.1121 -0.32
  162.1278 C11H16N+ 1 162.1277 0.57
  165.0697 C13H9+ 1 165.0699 -0.8
  166.0775 C13H10+ 1 166.0777 -0.96
  167.0854 C13H11+ 1 167.0855 -0.57
  169.1012 C13H13+ 1 169.1012 0.28
  172.112 C12H14N+ 1 172.1121 -0.54
  179.0854 C14H11+ 1 179.0855 -0.44
  181.1011 C14H13+ 1 181.1012 -0.32
  186.1274 C13H16N+ 1 186.1277 -1.52
  190.1589 C13H20N+ 1 190.159 -0.52
  191.0853 C15H11+ 1 191.0855 -1.16
  193.1011 C15H13+ 1 193.1012 -0.47
  205.101 C16H13+ 1 205.1012 -0.98
  207.1168 C16H15+ 1 207.1168 -0.1
  218.1538 C14H20NO+ 1 218.1539 -0.73
  219.1166 C17H15+ 1 219.1168 -1.11
  220.1693 C14H22NO+ 1 220.1696 -1.22
  264.1745 C19H22N+ 1 264.1747 -0.83
  481.3213 C33H41N2O+ 1 481.3213 0.01
PK$NUM_PEAK: 57
PK$PEAK: m/z int. rel.int.
  55.0542 155213.7 11
  56.0495 2525053.5 181
  57.0699 37921.4 2
  58.0651 50173.8 3
  65.0385 46415.8 3
  67.0542 51987.9 3
  69.0573 51208.4 3
  69.0698 18119 1
  80.0494 25177.3 1
  82.0651 1114630.2 79
  84.0807 4430841 317
  85.1011 16468.5 1
  91.0542 473756.3 33
  92.0494 1386112.8 99
  93.0571 148375.1 10
  94.0651 117464.1 8
  96.0807 49615.8 3
  105.0697 62981 4
  106.065 533210.8 38
  107.0729 29583.5 2
  110.0598 18731.4 1
  117.0698 248811.7 17
  118.065 22024.9 1
  119.0729 41980 3
  120.0807 181956.4 13
  129.0697 71347.2 5
  131.0856 89589.3 6
  132.0806 113138.2 8
  133.0886 90361.6 6
  134.0963 209372.7 15
  141.0698 27591.4 1
  143.0855 253497.9 18
  146.0965 21483.6 1
  148.1119 142878.7 10
  152.0619 15897.5 1
  155.0856 19529.9 1
  157.1013 16655.3 1
  160.112 116680.7 8
  162.1278 14772.3 1
  165.0697 41294.2 2
  166.0775 14989.7 1
  167.0854 5071464 363
  169.1012 77892.8 5
  172.112 21089.1 1
  179.0854 20056.6 1
  181.1011 113386.3 8
  186.1274 20549.7 1
  190.1589 2730794 195
  191.0853 21968.5 1
  193.1011 20537.4 1
  205.101 61084.5 4
  207.1168 32653.7 2
  218.1538 12883190 924
  219.1166 39071.6 2
  220.1693 20912.2 1
  264.1745 13924208 999
  481.3213 129112.6 9
//
