ACCESSION: MSBNK-LCSB-LU053854
RECORD_TITLE: CP-409092; LC-ESI-QFT; MS2; CE: 60; R=17500; [M-H]-
DATE: 2020.08.19
AUTHORS: Elapavalore, A.; Kondić, T.; Singh, R.; Schymanski, E.
LICENSE: CC BY
COPYRIGHT: Copyright © 2019 by Environmental Cheminformatics, LCSB, University of Luxembourg, Luxembourg
PUBLICATION: Elapavalore, A.; Kondić, T.; et al., Adding Open Spectral Data to MassBank and PubChem Using Open Source Tools to Support Non-Targeted Exposomics of Mixtures (submitted).
PROJECT: ENTACT U.S. Environmental Protection Agency’s Non-Targeted Analysis Collaborative Trial
COMMENT: CONFIDENCE standard compound
COMMENT: INTERNAL_ID 538
COMMENT: DATASET 20200303_ENTACT_RP_MIX506
COMMENT: DATA_PROCESSING MERGING RMBmix ver. 0.2.7
COMMENT: DATA_PROCESSING PRESCREENING Shinyscreen ver. 0.8.0
COMMENT: ORIGINAL_ACQUISITION_NO 3061
COMMENT: ORIGINAL_PRECURSOR_SCAN_NO 3060
COMMENT: RAW_DATA available as MSV000091754 at [DOI:10.25345/C5S46HG75]
CH$NAME: CP-409092
CH$NAME: 1H-Indole-3-carboxamide, 4,5,6,7-tetrahydro-N-(4-((methylamino)methyl)phenyl)-4-oxo-
CH$NAME: N-[4-(methylaminomethyl)phenyl]-4-oxo-1,5,6,7-tetrahydroindole-3-carboxamide
CH$COMPOUND_CLASS: N/A; Environmental Standard
CH$FORMULA: C17H19N3O2
CH$EXACT_MASS: 297.1477
CH$SMILES: CNCC1=CC=C(NC(=O)C2=CNC3=C2C(=O)CCC3)C=C1
CH$IUPAC: InChI=1S/C17H19N3O2/c1-18-9-11-5-7-12(8-6-11)20-17(22)13-10-19-14-3-2-4-15(21)16(13)14/h5-8,10,18-19H,2-4,9H2,1H3,(H,20,22)
CH$LINK: PUBCHEM CID:9839190
CH$LINK: INCHIKEY XFJIYNUISLDNLP-UHFFFAOYSA-N
CH$LINK: CHEMSPIDER 8014908
AC$INSTRUMENT: Q Exactive Orbitrap (Thermo Scientific)
AC$INSTRUMENT_TYPE: LC-ESI-QFT
AC$MASS_SPECTROMETRY: MS_TYPE MS2
AC$MASS_SPECTROMETRY: ION_MODE NEGATIVE
AC$MASS_SPECTROMETRY: IONIZATION ESI
AC$MASS_SPECTROMETRY: FRAGMENTATION_MODE HCD
AC$MASS_SPECTROMETRY: COLLISION_ENERGY 60
AC$MASS_SPECTROMETRY: RESOLUTION 17500
AC$CHROMATOGRAPHY: COLUMN_NAME Acquity BEH C18 1.7um, 2.1x150mm (Waters)
AC$CHROMATOGRAPHY: FLOW_GRADIENT 90/10 at 0-2 min, 0/100 at 15-20 min, 90/10 at 20.1-30 min
AC$CHROMATOGRAPHY: FLOW_RATE 0.20 mL/min
AC$CHROMATOGRAPHY: RETENTION_TIME 12.411 min
AC$CHROMATOGRAPHY: SOLVENT A 0.1% formic acid
AC$CHROMATOGRAPHY: SOLVENT B methanol
MS$FOCUSED_ION: BASE_PEAK 296.1404
MS$FOCUSED_ION: PRECURSOR_M/Z 296.1405
MS$FOCUSED_ION: PRECURSOR_TYPE [M-H]-
MS$FOCUSED_ION: PRECURSOR_INTENSITY 11493231.67114
MS$DATA_PROCESSING: RECALIBRATE loess on assigned fragments and MS1
MS$DATA_PROCESSING: REANALYZE Peaks with additional N2/O included
MS$DATA_PROCESSING: WHOLE RMassBank 2.99.2
PK$SPLASH: splash10-001i-0900000000-20176ce46f6965fa8fc7
PK$ANNOTATION: m/z tentative_formula formula_count mass error(ppm)
  65.0033 C4HO- 1 65.0033 0.02
  65.9985 C3NO- 1 65.9985 0.17
  66.035 C4H4N- 1 66.0349 0.73
  80.0506 C5H6N- 1 80.0506 0.37
  81.022 C4H3NO- 1 81.022 0.46
  92.0506 C6H6N- 1 92.0506 -0.14
  96.0455 C5H6NO- 1 96.0455 -0.29
  103.0428 C7H5N- 1 103.0427 0.17
  104.0506 C7H6N- 1 104.0506 0.02
  106.0662 C7H8N- 1 106.0662 -0.16
  107.0375 C6H5NO- 1 107.0377 -1.06
  108.0455 C6H6NO- 1 108.0455 -0.31
  109.0169 C5H3NO2- 1 109.0169 -0.34
  116.0504 C8H6N- 1 116.0506 -1.14
  120.0456 C7H6NO- 1 120.0455 1.33
  121.017 C6H3NO2- 1 121.0169 0.48
  122.0611 C7H8NO- 1 122.0611 -0.06
  132.0456 C8H6NO- 1 132.0455 0.49
  133.0536 C8H7NO- 1 133.0533 1.89
  134.0611 C8H8NO- 1 134.0611 0.08
  135.0927 C8H11N2- 1 135.0928 -0.39
  148.0404 C8H6NO2- 1 148.0404 -0.11
  149.0482 C8H7NO2- 1 149.0482 -0.5
  159.0328 C9H5NO2- 1 159.0326 1.42
  159.0565 C9H7N2O- 1 159.0564 0.71
  160.0404 C9H6NO2- 1 160.0404 0
  170.0045 C13N- 1 170.0036 4.9
  179.0828 C9H11N2O2- 1 179.0826 0.93
  201.9935 C13NO2- 1 201.9935 0.08
  265.0984 C16H13N2O2- 1 265.0983 0.71
  266.1061 C16H14N2O2- 1 266.1061 -0.03
  280.1087 C16H14N3O2- 1 280.1092 -1.65
  296.1403 C17H18N3O2- 1 296.1405 -0.4
PK$NUM_PEAK: 33
PK$PEAK: m/z int. rel.int.
  65.0033 6188.2 1
  65.9985 34266.1 9
  66.035 4013.4 1
  80.0506 13034.2 3
  81.022 10134.5 2
  92.0506 51156.5 14
  96.0455 6716.9 1
  103.0428 35257.4 9
  104.0506 56055.2 15
  106.0662 383375.5 106
  107.0375 18530.9 5
  108.0455 7547.1 2
  109.0169 4932.1 1
  116.0504 12276.2 3
  120.0456 12509.7 3
  121.017 9799.6 2
  122.0611 1296289.4 359
  132.0456 44051.2 12
  133.0536 6918.1 1
  134.0611 3603503.2 999
  135.0927 735907.1 204
  148.0404 80877.3 22
  149.0482 131735.1 36
  159.0328 8175.8 2
  159.0565 19496 5
  160.0404 43589.9 12
  170.0045 9549.8 2
  179.0828 8558.1 2
  201.9935 5116.4 1
  265.0984 8029.8 2
  266.1061 191891.4 53
  280.1087 7328.7 2
  296.1403 80281.3 22
//
