ACCESSION: MSBNK-LCSB-LU005003
RECORD_TITLE: Clothianidin; LC-ESI-QFT; MS2; CE: 45; R=17500; [M+H]+
DATE: 2020.08.19
AUTHORS: Elapavalore, A.; Kondić, T.; Singh, R.; Schymanski, E.
LICENSE: CC BY
COPYRIGHT: Copyright © 2019 by Environmental Cheminformatics, LCSB, University of Luxembourg, Luxembourg
PUBLICATION: Elapavalore, A.; Kondić, T.; et al., Adding Open Spectral Data to MassBank and PubChem Using Open Source Tools to Support Non-Targeted Exposomics of Mixtures (submitted).
PROJECT: ENTACT U.S. Environmental Protection Agency’s Non-Targeted Analysis Collaborative Trial
COMMENT: CONFIDENCE standard compound
COMMENT: INTERNAL_ID 50
COMMENT: DATASET 20200303_ENTACT_RP_MIX506
COMMENT: DATA_PROCESSING MERGING RMBmix ver. 0.2.7
COMMENT: DATA_PROCESSING PRESCREENING Shinyscreen ver. 0.8.0
COMMENT: ORIGINAL_ACQUISITION_NO 6599
COMMENT: ORIGINAL_PRECURSOR_SCAN_NO 6595
COMMENT: RAW_DATA available as MSV000091754 at [DOI:10.25345/C5S46HG75]
CH$NAME: Clothianidin
CH$NAME: 1-[(2-chloro-1,3-thiazol-5-yl)methyl]-2-methyl-3-nitroguanidine
CH$COMPOUND_CLASS: N/A; Environmental Standard
CH$FORMULA: C6H8ClN5O2S
CH$EXACT_MASS: 249.0087
CH$SMILES: CN\C(NCC1=CN=C(Cl)S1)=N/[N+]([O-])=O
CH$IUPAC: InChI=1S/C6H8ClN5O2S/c1-8-6(11-12(13)14)10-3-4-2-9-5(7)15-4/h2H,3H2,1H3,(H2,8,10,11)
CH$LINK: CAS 210880-92-5
CH$LINK: KEGG C18508
CH$LINK: PUBCHEM CID:213027
CH$LINK: INCHIKEY PGOOBECODWQEAB-UHFFFAOYSA-N
CH$LINK: CHEMSPIDER 184723
AC$INSTRUMENT: Q Exactive Orbitrap (Thermo Scientific)
AC$INSTRUMENT_TYPE: LC-ESI-QFT
AC$MASS_SPECTROMETRY: MS_TYPE MS2
AC$MASS_SPECTROMETRY: ION_MODE POSITIVE
AC$MASS_SPECTROMETRY: IONIZATION ESI
AC$MASS_SPECTROMETRY: FRAGMENTATION_MODE HCD
AC$MASS_SPECTROMETRY: COLLISION_ENERGY 45
AC$MASS_SPECTROMETRY: RESOLUTION 17500
AC$CHROMATOGRAPHY: COLUMN_NAME Acquity BEH C18 1.7um, 2.1x150mm (Waters)
AC$CHROMATOGRAPHY: FLOW_GRADIENT 90/10 at 0-2 min, 0/100 at 15-20 min, 90/10 at 20.1-30 min
AC$CHROMATOGRAPHY: FLOW_RATE 0.20 mL/min
AC$CHROMATOGRAPHY: RETENTION_TIME 12.566 min
AC$CHROMATOGRAPHY: SOLVENT A 0.1% formic acid
AC$CHROMATOGRAPHY: SOLVENT B methanol
MS$FOCUSED_ION: BASE_PEAK 79.0211
MS$FOCUSED_ION: PRECURSOR_M/Z 250.016
MS$FOCUSED_ION: PRECURSOR_TYPE [M+H]+
MS$FOCUSED_ION: PRECURSOR_INTENSITY 1166643.125
MS$DATA_PROCESSING: RECALIBRATE loess on assigned fragments and MS1
MS$DATA_PROCESSING: REANALYZE Peaks with additional N2/O included
MS$DATA_PROCESSING: WHOLE RMassBank 2.99.2
PK$SPLASH: splash10-02ai-0900000000-d59b13c1379eaa6411b9
PK$ANNOTATION: m/z tentative_formula formula_count mass error(ppm)
  61.0106 C2H5S+ 1 61.0106 -0.01
  70.995 C3H3S+ 1 70.995 0.68
  86.006 C3H4NS+ 1 86.0059 1.65
  110.0714 C5H8N3+ 1 110.0713 0.87
  111.0792 C5H9N3+ 1 111.0791 0.55
  113.0168 C4H5N2S+ 2 113.0168 0.11
  131.967 C4H3ClNS+ 1 131.9669 0.45
  142.0434 C5H8N3S+ 1 142.0433 0.6
  146.9779 C4H4ClN2S+ 1 146.9778 0.37
  147.9858 C4H5ClN2S+ 2 147.9856 0.91
  153.0232 C5H5N4S+ 1 153.0229 1.37
  168.0467 C6H8N4S+ 1 168.0464 1.43
  169.0544 C6H9N4S+ 1 169.0542 0.8
  174.9728 C5H4ClN2OS+ 2 174.9727 0.31
PK$NUM_PEAK: 14
PK$PEAK: m/z int. rel.int.
  61.0106 2163.1 20
  70.995 1746.5 16
  86.006 2419.8 22
  110.0714 26999.5 253
  111.0792 3188.1 29
  113.0168 46453.7 435
  131.967 106474.3 999
  142.0434 3319.9 31
  146.9779 4125.4 38
  147.9858 4203.6 39
  153.0232 2058.4 19
  168.0467 11542.6 108
  169.0544 74040.9 694
  174.9728 2940.7 27
//
