ACCESSION: MSBNK-LCSB-LU080553
RECORD_TITLE: Thiophanate-methyl; LC-ESI-QFT; MS2; CE: 45; R=17500; [M-H]-
DATE: 2020.08.19
AUTHORS: Elapavalore, A.; Kondić, T.; Singh, R.; Schymanski, E.
LICENSE: CC BY
COPYRIGHT: Copyright © 2019 by Environmental Cheminformatics, LCSB, University of Luxembourg, Luxembourg
PUBLICATION: Elapavalore, A.; Kondić, T.; et al., Adding Open Spectral Data to MassBank and PubChem Using Open Source Tools to Support Non-Targeted Exposomics of Mixtures (submitted).
PROJECT: ENTACT U.S. Environmental Protection Agency’s Non-Targeted Analysis Collaborative Trial
COMMENT: CONFIDENCE standard compound
COMMENT: INTERNAL_ID 805
COMMENT: DATASET 20200303_ENTACT_RP_MIX508
COMMENT: DATA_PROCESSING MERGING RMBmix ver. 0.2.7
COMMENT: DATA_PROCESSING PRESCREENING Shinyscreen ver. 0.8.0
COMMENT: ORIGINAL_ACQUISITION_NO 3838
COMMENT: ORIGINAL_PRECURSOR_SCAN_NO 3835
COMMENT: RAW_DATA available as MSV000091754 at [DOI:10.25345/C5S46HG75]
CH$NAME: Thiophanate-methyl
CH$NAME: N'-methoxycarbonyl-N-[2-[(N-methoxycarbonyl-C-sulfanylcarbonimidoyl)amino]phenyl]carbamimidothioic acid
CH$COMPOUND_CLASS: N/A; Environmental Standard
CH$FORMULA: C12H14N4O4S2
CH$EXACT_MASS: 342.0456
CH$SMILES: COC(=O)NC(=S)NC1=C(NC(=S)NC(=O)OC)C=CC=C1
CH$IUPAC: InChI=1S/C12H14N4O4S2/c1-19-11(17)15-9(21)13-7-5-3-4-6-8(7)14-10(22)16-12(18)20-2/h3-6H,1-2H3,(H2,13,15,17,21)(H2,14,16,18,22)
CH$LINK: CAS 23564-05-8
CH$LINK: CHEBI CHEBI:35014
CH$LINK: CHEMSPIDER 2297683
CH$LINK: INCHIKEY QGHREAKMXXNCOA-UHFFFAOYSA-N
CH$LINK: KEGG C14432
CH$LINK: PUBCHEM CID:3032791
AC$INSTRUMENT: Q Exactive Orbitrap (Thermo Scientific)
AC$INSTRUMENT_TYPE: LC-ESI-QFT
AC$MASS_SPECTROMETRY: MS_TYPE MS2
AC$MASS_SPECTROMETRY: ION_MODE NEGATIVE
AC$MASS_SPECTROMETRY: IONIZATION ESI
AC$MASS_SPECTROMETRY: FRAGMENTATION_MODE HCD
AC$MASS_SPECTROMETRY: COLLISION_ENERGY 45
AC$MASS_SPECTROMETRY: RESOLUTION 17500
AC$CHROMATOGRAPHY: COLUMN_NAME Acquity BEH C18 1.7um, 2.1x150mm (Waters)
AC$CHROMATOGRAPHY: FLOW_GRADIENT 90/10 at 0-2 min, 0/100 at 15-20 min, 90/10 at 20.1-30 min
AC$CHROMATOGRAPHY: FLOW_RATE 0.20 mL/min
AC$CHROMATOGRAPHY: RETENTION_TIME 15.153 min
AC$CHROMATOGRAPHY: SOLVENT A 0.1% formic acid
AC$CHROMATOGRAPHY: SOLVENT B methanol
MS$FOCUSED_ION: BASE_PEAK 253.0506
MS$FOCUSED_ION: PRECURSOR_M/Z 341.0384
MS$FOCUSED_ION: PRECURSOR_TYPE [M-H]-
MS$FOCUSED_ION: PRECURSOR_INTENSITY 2028111.773437
MS$DATA_PROCESSING: RECALIBRATE loess on assigned fragments and MS1
MS$DATA_PROCESSING: REANALYZE Peaks with additional N2/O included
MS$DATA_PROCESSING: WHOLE RMassBank 2.99.2
PK$SPLASH: splash10-052b-0900000000-02ac28374832932d3f31
PK$ANNOTATION: m/z tentative_formula formula_count mass error(ppm)
  81.0457 C4H5N2- 1 81.0458 -1.25
  117.0457 C7H5N2- 2 117.0458 -1.08
  132.0566 C7H6N3- 3 132.0567 -1.21
  149.0179 C7H5N2S- 2 149.0179 -0.25
  158.036 C8H4N3O- 3 158.036 -0.11
  189.0667 C10H9N2O2- 2 189.067 -1.3
  190.0621 C9H8N3O2- 2 190.0622 -0.7
PK$NUM_PEAK: 7
PK$PEAK: m/z int. rel.int.
  81.0457 6576.3 55
  117.0457 7066.8 59
  132.0566 10711.2 89
  149.0179 118936.4 999
  158.036 65925.9 553
  189.0667 6428.2 53
  190.0621 4647.3 39
//
