ACCESSION: MSBNK-LCSB-LU040201
RECORD_TITLE: Buprofezin; LC-ESI-QFT; MS2; CE: 15; R=17500; [M+H]+
DATE: 2020.08.19
AUTHORS: Elapavalore, A.; Kondić, T.; Singh, R.; Schymanski, E.
LICENSE: CC BY
COPYRIGHT: Copyright © 2019 by Environmental Cheminformatics, LCSB, University of Luxembourg, Luxembourg
PUBLICATION: Elapavalore, A.; Kondić, T.; et al., Adding Open Spectral Data to MassBank and PubChem Using Open Source Tools to Support Non-Targeted Exposomics of Mixtures (submitted).
PROJECT: ENTACT U.S. Environmental Protection Agency’s Non-Targeted Analysis Collaborative Trial
COMMENT: CONFIDENCE standard compound
COMMENT: INTERNAL_ID 402
COMMENT: DATASET 20200303_ENTACT_RP_MIX505
COMMENT: DATA_PROCESSING MERGING RMBmix ver. 0.2.7
COMMENT: DATA_PROCESSING PRESCREENING Shinyscreen ver. 0.8.0
COMMENT: ORIGINAL_ACQUISITION_NO 10129
COMMENT: ORIGINAL_PRECURSOR_SCAN_NO 10128
COMMENT: RAW_DATA available as MSV000091754 at [DOI:10.25345/C5S46HG75]
CH$NAME: Buprofezin
CH$NAME: 2-tert-butylimino-5-phenyl-3-propan-2-yl-1,3,5-thiadiazinan-4-one
CH$COMPOUND_CLASS: N/A; Environmental Standard
CH$FORMULA: C16H23N3OS
CH$EXACT_MASS: 305.1562
CH$SMILES: CC(C)N1C(SCN(C1=O)C1=CC=CC=C1)=NC(C)(C)C
CH$IUPAC: InChI=1S/C16H23N3OS/c1-12(2)19-14(17-16(3,4)5)21-11-18(15(19)20)13-9-7-6-8-10-13/h6-10,12H,11H2,1-5H3
CH$LINK: CAS 69327-76-0
CH$LINK: CHEBI CHEBI:3218
CH$LINK: PUBCHEM CID:50367
CH$LINK: INCHIKEY PRLVTUNWOQKEAI-UHFFFAOYSA-N
CH$LINK: CHEMSPIDER 21864735
AC$INSTRUMENT: Q Exactive Orbitrap (Thermo Scientific)
AC$INSTRUMENT_TYPE: LC-ESI-QFT
AC$MASS_SPECTROMETRY: MS_TYPE MS2
AC$MASS_SPECTROMETRY: ION_MODE POSITIVE
AC$MASS_SPECTROMETRY: IONIZATION ESI
AC$MASS_SPECTROMETRY: FRAGMENTATION_MODE HCD
AC$MASS_SPECTROMETRY: COLLISION_ENERGY 15
AC$MASS_SPECTROMETRY: RESOLUTION 17500
AC$CHROMATOGRAPHY: COLUMN_NAME Acquity BEH C18 1.7um, 2.1x150mm (Waters)
AC$CHROMATOGRAPHY: FLOW_GRADIENT 90/10 at 0-2 min, 0/100 at 15-20 min, 90/10 at 20.1-30 min
AC$CHROMATOGRAPHY: FLOW_RATE 0.20 mL/min
AC$CHROMATOGRAPHY: RETENTION_TIME 19.254 min
AC$CHROMATOGRAPHY: SOLVENT A 0.1% formic acid
AC$CHROMATOGRAPHY: SOLVENT B methanol
MS$FOCUSED_ION: BASE_PEAK 79.0212
MS$FOCUSED_ION: PRECURSOR_M/Z 306.1635
MS$FOCUSED_ION: PRECURSOR_TYPE [M+H]+
MS$FOCUSED_ION: PRECURSOR_INTENSITY 46397318.42187
MS$DATA_PROCESSING: RECALIBRATE loess on assigned fragments and MS1
MS$DATA_PROCESSING: REANALYZE Peaks with additional N2/O included
MS$DATA_PROCESSING: WHOLE RMassBank 2.99.2
PK$SPLASH: splash10-0udi-0293000000-b0655bb0672e464c9efd
PK$ANNOTATION: m/z tentative_formula formula_count mass error(ppm)
  57.0699 C4H9+ 1 57.0699 0.21
  85.0761 C4H9N2+ 1 85.076 1.1
  86.0599 C4H8NO+ 1 86.06 -2
  106.0652 C7H8N+ 1 106.0651 0.61
  116.0529 C5H10NS+ 1 116.0528 0.37
  141.1387 C8H17N2+ 1 141.1386 0.58
  142.1228 C8H16NO+ 1 142.1226 1.38
  145.043 C5H9N2OS+ 1 145.043 0.16
  201.1057 C9H17N2OS+ 1 201.1056 0.51
  208.0538 C9H10N3OS+ 1 208.0539 -0.35
  250.101 C12H16N3OS+ 2 250.1009 0.41
  264.1171 C13H18N3OS+ 1 264.1165 2.27
  306.1636 C16H24N3OS+ 1 306.1635 0.39
PK$NUM_PEAK: 13
PK$PEAK: m/z int. rel.int.
  57.0699 951797.9 96
  85.0761 21584.2 2
  86.0599 27717.2 2
  106.0652 394450.1 40
  116.0529 1864756.4 189
  141.1387 85726.2 8
  142.1228 26991.3 2
  145.043 188101.2 19
  201.1057 9841191 999
  208.0538 39243.7 3
  250.101 340471.3 34
  264.1171 28278.1 2
  306.1636 3498601.2 355
//
