ACCESSION: MSBNK-LCSB-LU134506
RECORD_TITLE: Isoxaben; LC-ESI-QFT; MS2; CE: 90; R=17500; [M+H]+
DATE: 2020.08.19
AUTHORS: Elapavalore, A.; Kondić, T.; Singh, R.; Schymanski, E.
LICENSE: CC BY
COPYRIGHT: Copyright © 2019 by Environmental Cheminformatics, LCSB, University of Luxembourg, Luxembourg
PUBLICATION: Elapavalore, A.; Kondić, T.; et al., Adding Open Spectral Data to MassBank and PubChem Using Open Source Tools to Support Non-Targeted Exposomics of Mixtures (submitted).
PROJECT: ENTACT U.S. Environmental Protection Agency’s Non-Targeted Analysis Collaborative Trial
COMMENT: CONFIDENCE standard compound
COMMENT: INTERNAL_ID 1345
COMMENT: DATASET 20200303_ENTACT_RP_MIX504
COMMENT: DATA_PROCESSING MERGING RMBmix ver. 0.2.7
COMMENT: DATA_PROCESSING PRESCREENING Shinyscreen ver. 0.8.0
COMMENT: ORIGINAL_ACQUISITION_NO 9028
COMMENT: ORIGINAL_PRECURSOR_SCAN_NO 9026
COMMENT: RAW_DATA available as MSV000091754 at [DOI:10.25345/C5S46HG75]
CH$NAME: Isoxaben
CH$NAME: 2,6-dimethoxy-N-[3-(3-methylpentan-3-yl)-1,2-oxazol-5-yl]benzamide
CH$COMPOUND_CLASS: N/A; Environmental Standard
CH$FORMULA: C18H24N2O4
CH$EXACT_MASS: 332.1736
CH$SMILES: CCC(C)(CC)C1=NOC(NC(=O)C2=C(OC)C=CC=C2OC)=C1
CH$IUPAC: InChI=1S/C18H24N2O4/c1-6-18(3,7-2)14-11-15(24-20-14)19-17(21)16-12(22-4)9-8-10-13(16)23-5/h8-11H,6-7H2,1-5H3,(H,19,21)
CH$LINK: CAS 87387-81-3
CH$LINK: CHEBI CHEBI:63956
CH$LINK: KEGG C18504
CH$LINK: PUBCHEM CID:73672
CH$LINK: INCHIKEY PMHURSZHKKJGBM-UHFFFAOYSA-N
CH$LINK: CHEMSPIDER 66323
AC$INSTRUMENT: Q Exactive Orbitrap (Thermo Scientific)
AC$INSTRUMENT_TYPE: LC-ESI-QFT
AC$MASS_SPECTROMETRY: MS_TYPE MS2
AC$MASS_SPECTROMETRY: ION_MODE POSITIVE
AC$MASS_SPECTROMETRY: IONIZATION ESI
AC$MASS_SPECTROMETRY: FRAGMENTATION_MODE HCD
AC$MASS_SPECTROMETRY: COLLISION_ENERGY 90
AC$MASS_SPECTROMETRY: RESOLUTION 17500
AC$CHROMATOGRAPHY: COLUMN_NAME Acquity BEH C18 1.7um, 2.1x150mm (Waters)
AC$CHROMATOGRAPHY: FLOW_GRADIENT 90/10 at 0-2 min, 0/100 at 15-20 min, 90/10 at 20.1-30 min
AC$CHROMATOGRAPHY: FLOW_RATE 0.20 mL/min
AC$CHROMATOGRAPHY: RETENTION_TIME 17.390 min
AC$CHROMATOGRAPHY: SOLVENT A 0.1% formic acid
AC$CHROMATOGRAPHY: SOLVENT B methanol
MS$FOCUSED_ION: BASE_PEAK 79.0212
MS$FOCUSED_ION: PRECURSOR_M/Z 333.1809
MS$FOCUSED_ION: PRECURSOR_TYPE [M+H]+
MS$FOCUSED_ION: PRECURSOR_INTENSITY 23056401.5
MS$DATA_PROCESSING: RECALIBRATE loess on assigned fragments and MS1
MS$DATA_PROCESSING: REANALYZE Peaks with additional N2/O included
MS$DATA_PROCESSING: WHOLE RMassBank 2.99.2
PK$SPLASH: splash10-0avi-1900000000-149860552a29355b121f
PK$ANNOTATION: m/z tentative_formula formula_count mass error(ppm)
  50.0152 C4H2+ 1 50.0151 1.82
  51.0231 C4H3+ 1 51.0229 2.92
  53.0021 C3HO+ 1 53.0022 -1.96
  53.0386 C4H5+ 1 53.0386 0.19
  55.0178 C3H3O+ 1 55.0178 -0.99
  63.0229 C5H3+ 1 63.0229 -1.04
  64.0307 C5H4+ 1 64.0308 -1.13
  65.0385 C5H5+ 1 65.0386 -1.04
  66.0464 C5H6+ 1 66.0464 -0.71
  67.0542 C5H7+ 1 67.0542 -0.61
  68.997 C3HO2+ 1 68.9971 -1.05
  75.0229 C6H3+ 1 75.0229 -0.52
  77.0385 C6H5+ 1 77.0386 -0.72
  78.0463 C6H6+ 1 78.0464 -0.74
  79.0542 C6H7+ 1 79.0542 -0.48
  81.0335 C5H5O+ 1 81.0335 0.24
  81.0699 C6H9+ 1 81.0699 0.23
  82.0413 C5H6O+ 1 82.0413 -0.37
  91.0542 C7H7+ 1 91.0542 -0.59
  92.0257 C6H4O+ 1 92.0257 -0.13
  93.0333 C6H5O+ 1 93.0335 -1.75
  94.0413 C6H6O+ 1 94.0413 -0.09
  95.0491 C6H7O+ 1 95.0491 -0.05
  103.0179 C7H3O+ 1 103.0178 0.28
  105.0336 C7H5O+ 1 105.0335 1.36
  105.0448 C6H5N2+ 1 105.0447 0.25
  107.0127 C6H3O2+ 1 107.0128 -0.28
  109.0648 C7H9O+ 1 109.0648 -0.27
  120.0206 C7H4O2+ 1 120.0206 0.44
  121.0285 C7H5O2+ 1 121.0284 0.85
  122.0362 C7H6O2+ 1 122.0362 -0.37
  123.0439 C7H7O2+ 1 123.0441 -1.64
  125.0233 C6H5O3+ 1 125.0233 -0.15
  125.0596 C7H9O2+ 1 125.0597 -0.71
  133.0282 C8H5O2+ 1 133.0284 -1.3
  135.044 C8H7O2+ 1 135.0441 -0.56
  135.0554 C7H7N2O+ 1 135.0553 1
  137.0596 C8H9O2+ 1 137.0597 -0.73
  138.0311 C7H6O3+ 1 138.0311 -0.53
  139.0389 C7H7O3+ 1 139.039 -0.62
  150.0311 C8H6O3+ 1 150.0311 -0.16
  165.0546 C9H9O3+ 1 165.0546 -0.06
  168.0417 C8H8O4+ 1 168.0417 -0.32
  182.0574 C9H10O4+ 2 182.0574 -0.02
PK$NUM_PEAK: 44
PK$PEAK: m/z int. rel.int.
  50.0152 12731.7 2
  51.0231 23656.4 3
  53.0021 39765.7 6
  53.0386 285166.9 47
  55.0178 85228.1 14
  63.0229 29142.2 4
  64.0307 21110.8 3
  65.0385 86048.8 14
  66.0464 75476.3 12
  67.0542 20033.6 3
  68.997 19720.4 3
  75.0229 202582.3 33
  77.0385 279769.9 46
  78.0463 12755.9 2
  79.0542 430023.9 71
  81.0335 65277.7 10
  81.0699 43532.3 7
  82.0413 18793.8 3
  91.0542 28047 4
  92.0257 564109 93
  93.0333 9496.1 1
  94.0413 137485.8 22
  95.0491 821697.1 136
  103.0179 13824.7 2
  105.0336 105401.8 17
  105.0448 306005.6 50
  107.0127 6000296 999
  109.0648 144396.2 24
  120.0206 187987.4 31
  121.0285 93428.4 15
  122.0362 5769625 960
  123.0439 18211.7 3
  125.0233 252538.5 42
  125.0596 104519 17
  133.0282 7597.3 1
  135.044 259358.5 43
  135.0554 36818.4 6
  137.0596 24753.1 4
  138.0311 17054.4 2
  139.0389 130301.6 21
  150.0311 2034478.6 338
  165.0546 1424567.8 237
  168.0417 1933538 321
  182.0574 181363.1 30
//
