ACCESSION: MSBNK-LCSB-LU051956
RECORD_TITLE: Bicalutamide; LC-ESI-QFT; MS2; CE: 90; R=17500; [M-H]-
DATE: 2020.08.19
AUTHORS: Elapavalore, A.; Kondić, T.; Singh, R.; Schymanski, E.
LICENSE: CC BY
COPYRIGHT: Copyright © 2019 by Environmental Cheminformatics, LCSB, University of Luxembourg, Luxembourg
PUBLICATION: Elapavalore, A.; Kondić, T.; et al., Adding Open Spectral Data to MassBank and PubChem Using Open Source Tools to Support Non-Targeted Exposomics of Mixtures (submitted).
PROJECT: ENTACT U.S. Environmental Protection Agency’s Non-Targeted Analysis Collaborative Trial
COMMENT: CONFIDENCE standard compound
COMMENT: INTERNAL_ID 519
COMMENT: DATASET 20200303_ENTACT_RP_MIX506
COMMENT: DATA_PROCESSING MERGING RMBmix ver. 0.2.7
COMMENT: DATA_PROCESSING PRESCREENING Shinyscreen ver. 0.8.0
COMMENT: ORIGINAL_ACQUISITION_NO 4405
COMMENT: ORIGINAL_PRECURSOR_SCAN_NO 4401
COMMENT: RAW_DATA available as MSV000091754 at [DOI:10.25345/C5S46HG75]
CH$NAME: Bicalutamide
CH$NAME: N-[4-cyano-3-(trifluoromethyl)phenyl]-3-(4-fluorophenyl)sulfonyl-2-hydroxy-2-methylpropanamide
CH$COMPOUND_CLASS: N/A; Environmental Standard
CH$FORMULA: C18H14F4N2O4S
CH$EXACT_MASS: 430.0610
CH$SMILES: CC(O)(CS(=O)(=O)C1=CC=C(F)C=C1)C(=O)NC1=CC(=C(C=C1)C#N)C(F)(F)F
CH$IUPAC: InChI=1S/C18H14F4N2O4S/c1-17(26,10-29(27,28)14-6-3-12(19)4-7-14)16(25)24-13-5-2-11(9-23)15(8-13)18(20,21)22/h2-8,26H,10H2,1H3,(H,24,25)
CH$LINK: CAS 90357-06-5
CH$LINK: CHEBI CHEBI:91617
CH$LINK: PUBCHEM CID:2375
CH$LINK: INCHIKEY LKJPYSCBVHEWIU-UHFFFAOYSA-N
CH$LINK: CHEMSPIDER 2284
AC$INSTRUMENT: Q Exactive Orbitrap (Thermo Scientific)
AC$INSTRUMENT_TYPE: LC-ESI-QFT
AC$MASS_SPECTROMETRY: MS_TYPE MS2
AC$MASS_SPECTROMETRY: ION_MODE NEGATIVE
AC$MASS_SPECTROMETRY: IONIZATION ESI
AC$MASS_SPECTROMETRY: FRAGMENTATION_MODE HCD
AC$MASS_SPECTROMETRY: COLLISION_ENERGY 90
AC$MASS_SPECTROMETRY: RESOLUTION 17500
AC$CHROMATOGRAPHY: COLUMN_NAME Acquity BEH C18 1.7um, 2.1x150mm (Waters)
AC$CHROMATOGRAPHY: FLOW_GRADIENT 90/10 at 0-2 min, 0/100 at 15-20 min, 90/10 at 20.1-30 min
AC$CHROMATOGRAPHY: FLOW_RATE 0.20 mL/min
AC$CHROMATOGRAPHY: RETENTION_TIME 16.682 min
AC$CHROMATOGRAPHY: SOLVENT A 0.1% formic acid
AC$CHROMATOGRAPHY: SOLVENT B methanol
MS$FOCUSED_ION: BASE_PEAK 429.0536
MS$FOCUSED_ION: PRECURSOR_M/Z 429.0538
MS$FOCUSED_ION: PRECURSOR_TYPE [M-H]-
MS$FOCUSED_ION: PRECURSOR_INTENSITY 67332787.44141
MS$DATA_PROCESSING: RECALIBRATE loess on assigned fragments and MS1
MS$DATA_PROCESSING: REANALYZE Peaks with additional N2/O included
MS$DATA_PROCESSING: WHOLE RMassBank 2.99.2
PK$SPLASH: splash10-000i-2900000000-4fc2cf70fcd3da48daf2
PK$ANNOTATION: m/z tentative_formula formula_count mass error(ppm)
  59.0139 C2H3O2- 1 59.0139 0.01
  63.9625 O2S- 1 63.9624 0.17
  66.0349 C4H4N- 1 66.0349 0.15
  68.9958 CF3- 1 68.9958 -0.11
  74.0036 C5N- 1 74.0036 0.35
  78.986 CH3O2S- 1 78.9859 0.51
  91.0189 C6H3O- 3 91.0189 -0.73
  95.0303 C6H4F- 2 95.0303 0.44
  98.0037 C7N- 3 98.0036 0.39
  111.0252 C6H4FO- 3 111.0252 0.39
  115.0302 C7H3N2- 4 115.0302 -0.11
  118.0099 C7HFN- 5 118.0099 0.42
  125.0145 C8HN2- 5 125.0145 -0.03
  130.0173 C7H2N2O- 4 130.0173 0.11
  136.0204 C7H3FNO- 5 136.0204 -0.28
  138.0161 C7H2F2N- 6 138.0161 0.2
  143.0052 C8FN2- 6 143.0051 0.36
  144.0258 C9H3FN- 8 144.0255 1.95
  145.0208 C8H2FN2- 6 145.0207 0.19
  158.0223 C7H3F3N- 6 158.0223 0.08
  165.027 C8H3F2N2- 7 165.027 -0.02
  183.0176 C8H2F3N2- 8 183.0176 0.24
  184.0255 C8H3F3N2- 7 184.0254 0.75
  184.0381 C9H5F3N- 8 184.038 0.82
  185.0332 C8H4F3N2- 9 185.0332 -0.06
  186.0172 C8H3F3NO- 10 186.0172 -0.25
  231.037 C9H10FNO3S- 11 231.0371 -0.22
PK$NUM_PEAK: 27
PK$PEAK: m/z int. rel.int.
  59.0139 85379.9 5
  63.9625 3148383.8 217
  66.0349 19994.8 1
  68.9958 79256 5
  74.0036 137076 9
  78.986 1913395.6 132
  91.0189 61131.9 4
  95.0303 494670 34
  98.0037 438377.2 30
  111.0252 321539.8 22
  115.0302 556040.4 38
  118.0099 311642.6 21
  125.0145 542579.8 37
  130.0173 277154.8 19
  136.0204 82386.4 5
  138.0161 412838.5 28
  143.0052 23583.3 1
  144.0258 19374.1 1
  145.0208 955918.9 66
  158.0223 1095701.9 75
  165.027 366540.2 25
  183.0176 198163 13
  184.0255 44194.8 3
  184.0381 211768.6 14
  185.0332 14455501 999
  186.0172 34747.3 2
  231.037 20809.7 1
//
