ACCESSION: MSBNK-LCSB-LU078056
RECORD_TITLE: Benzylparaben; LC-ESI-QFT; MS2; CE: 90; R=17500; [M-H]-
DATE: 2020.08.19
AUTHORS: Elapavalore, A.; Kondić, T.; Singh, R.; Schymanski, E.
LICENSE: CC BY
COPYRIGHT: Copyright © 2019 by Environmental Cheminformatics, LCSB, University of Luxembourg, Luxembourg
PUBLICATION: Elapavalore, A.; Kondić, T.; et al., Adding Open Spectral Data to MassBank and PubChem Using Open Source Tools to Support Non-Targeted Exposomics of Mixtures (submitted).
PROJECT: ENTACT U.S. Environmental Protection Agency’s Non-Targeted Analysis Collaborative Trial
COMMENT: CONFIDENCE standard compound
COMMENT: INTERNAL_ID 780
COMMENT: DATASET 20200303_ENTACT_RP_MIX501
COMMENT: DATA_PROCESSING MERGING RMBmix ver. 0.2.7
COMMENT: DATA_PROCESSING PRESCREENING Shinyscreen ver. 0.8.0
COMMENT: ORIGINAL_ACQUISITION_NO 4364
COMMENT: ORIGINAL_PRECURSOR_SCAN_NO 4361
COMMENT: RAW_DATA available as MSV000091754 at [DOI:10.25345/C5S46HG75]
CH$NAME: Benzylparaben
CH$NAME: benzyl 4-hydroxybenzoate
CH$COMPOUND_CLASS: N/A; Environmental Standard
CH$FORMULA: C14H12O3
CH$EXACT_MASS: 228.0786
CH$SMILES: OC1=CC=C(C=C1)C(=O)OCC1=CC=CC=C1
CH$IUPAC: InChI=1S/C14H12O3/c15-13-8-6-12(7-9-13)14(16)17-10-11-4-2-1-3-5-11/h1-9,15H,10H2
CH$LINK: CAS 94-18-8
CH$LINK: CHEBI CHEBI:34571
CH$LINK: KEGG C14393
CH$LINK: PUBCHEM CID:7180
CH$LINK: INCHIKEY MOZDKDIOPSPTBH-UHFFFAOYSA-N
CH$LINK: CHEMSPIDER 6912
AC$INSTRUMENT: Q Exactive Orbitrap (Thermo Scientific)
AC$INSTRUMENT_TYPE: LC-ESI-QFT
AC$MASS_SPECTROMETRY: MS_TYPE MS2
AC$MASS_SPECTROMETRY: ION_MODE NEGATIVE
AC$MASS_SPECTROMETRY: IONIZATION ESI
AC$MASS_SPECTROMETRY: FRAGMENTATION_MODE HCD
AC$MASS_SPECTROMETRY: COLLISION_ENERGY 90
AC$MASS_SPECTROMETRY: RESOLUTION 17500
AC$CHROMATOGRAPHY: COLUMN_NAME Acquity BEH C18 1.7um, 2.1x150mm (Waters)
AC$CHROMATOGRAPHY: FLOW_GRADIENT 90/10 at 0-2 min, 0/100 at 15-20 min, 90/10 at 20.1-30 min
AC$CHROMATOGRAPHY: FLOW_RATE 0.20 mL/min
AC$CHROMATOGRAPHY: RETENTION_TIME 17.507 min
AC$CHROMATOGRAPHY: SOLVENT A 0.1% formic acid
AC$CHROMATOGRAPHY: SOLVENT B methanol
MS$FOCUSED_ION: BASE_PEAK 227.0714
MS$FOCUSED_ION: PRECURSOR_M/Z 227.0714
MS$FOCUSED_ION: PRECURSOR_TYPE [M-H]-
MS$FOCUSED_ION: PRECURSOR_INTENSITY 65646015.69043
MS$DATA_PROCESSING: RECALIBRATE loess on assigned fragments and MS1
MS$DATA_PROCESSING: REANALYZE Peaks with additional N2/O included
MS$DATA_PROCESSING: WHOLE RMassBank 2.99.2
PK$SPLASH: splash10-052b-9600000000-51de2b94cb408b03a76f
PK$ANNOTATION: m/z tentative_formula formula_count mass error(ppm)
  53.0033 C3HO- 1 53.0033 -0.36
  65.0033 C4HO- 1 65.0033 0.01
  66.011 C4H2O- 1 66.0111 -1.01
  67.0189 C4H3O- 1 67.0189 -0.18
  68.9982 C3HO2- 1 68.9982 -0.15
  69.0346 C4H5O- 1 69.0346 0.05
  70.006 C3H2O2- 1 70.006 -0.59
  71.0139 C3H3O2- 1 71.0139 0.69
  72.9932 C2HO3- 1 72.9931 1.27
  78.0111 C5H2O- 1 78.0111 -0.19
  79.0189 C5H3O- 1 79.0189 -0.11
  79.9903 C4O2- 1 79.9904 -0.62
  80.9982 C4HO2- 1 80.9982 0.33
  82.0061 C4H2O2- 1 82.006 0.32
  83.0141 C4H3O2- 1 83.0139 2.42
  86.001 C3H2O3- 1 86.0009 1.05
  91.0188 C6H3O- 1 91.0189 -1.06
  92.0268 C6H4O- 1 92.0268 0.09
  93.0346 C6H5O- 1 93.0346 0
  95.0139 C5H3O2- 1 95.0139 -0.02
  97.0295 C5H5O2- 1 97.0295 -0.4
  98.0011 C4H2O3- 1 98.0009 1.4
  106.006 C6H2O2- 1 106.006 0.05
  107.0139 C6H3O2- 1 107.0139 0.88
  107.0504 C7H7O- 1 107.0502 1.37
  108.0217 C6H4O2- 1 108.0217 -0.02
  109.0295 C6H5O2- 1 109.0295 -0.27
  121.0295 C7H5O2- 1 121.0295 0.15
  123.0088 C6H3O3- 1 123.0088 0.15
  125.0242 C6H5O3- 1 125.0244 -1.44
  136.0166 C7H4O3- 1 136.0166 -0.07
PK$NUM_PEAK: 31
PK$PEAK: m/z int. rel.int.
  53.0033 17983.7 5
  65.0033 11635.9 3
  66.011 7280.4 2
  67.0189 30875.4 10
  68.9982 104064.4 34
  69.0346 83955.6 27
  70.006 30446.1 9
  71.0139 53824.9 17
  72.9932 42371 13
  78.0111 14190.3 4
  79.0189 43240.6 14
  79.9903 36040.3 11
  80.9982 26271.2 8
  82.0061 202452.6 66
  83.0141 11054.3 3
  86.001 10588.9 3
  91.0188 28632.7 9
  92.0268 821655.7 268
  93.0346 46920.3 15
  95.0139 3051487.8 999
  97.0295 46610 15
  98.0011 12800.1 4
  106.006 153030.7 50
  107.0139 24747 8
  107.0504 12900.8 4
  108.0217 2952032.5 966
  109.0295 13263.8 4
  121.0295 34176.9 11
  123.0088 359254.2 117
  125.0242 11850 3
  136.0166 47679.1 15
//
