ACCESSION: MSBNK-LCSB-LU086053
RECORD_TITLE: 2,2`-Bisphenol F; LC-ESI-QFT; MS2; CE: 45; R=17500; [M-H]-
DATE: 2020.08.19
AUTHORS: Elapavalore, A.; Kondić, T.; Singh, R.; Schymanski, E.
LICENSE: CC BY
COPYRIGHT: Copyright © 2019 by Environmental Cheminformatics, LCSB, University of Luxembourg, Luxembourg
PUBLICATION: Elapavalore, A.; Kondić, T.; et al., Adding Open Spectral Data to MassBank and PubChem Using Open Source Tools to Support Non-Targeted Exposomics of Mixtures (submitted).
PROJECT: ENTACT U.S. Environmental Protection Agency’s Non-Targeted Analysis Collaborative Trial
COMMENT: CONFIDENCE standard compound
COMMENT: INTERNAL_ID 860
COMMENT: DATASET 20200303_ENTACT_RP_MIX500
COMMENT: DATA_PROCESSING MERGING RMBmix ver. 0.2.7
COMMENT: DATA_PROCESSING PRESCREENING Shinyscreen ver. 0.8.0
COMMENT: ORIGINAL_ACQUISITION_NO 4024
COMMENT: ORIGINAL_PRECURSOR_SCAN_NO 4022
COMMENT: RAW_DATA available as MSV000091754 at [DOI:10.25345/C5S46HG75]
CH$NAME: 2,2`-Bisphenol F
CH$NAME: 2,2`-Methylenediphenol
CH$NAME: 2-[(2-hydroxyphenyl)methyl]phenol
CH$COMPOUND_CLASS: N/A; Environmental Standard
CH$FORMULA: C13H12O2
CH$EXACT_MASS: 200.0837
CH$SMILES: OC1=C(CC2=C(O)C=CC=C2)C=CC=C1
CH$IUPAC: InChI=1S/C13H12O2/c14-12-7-3-1-5-10(12)9-11-6-2-4-8-13(11)15/h1-8,14-15H,9H2
CH$LINK: CAS 1333-16-0
CH$LINK: CHEBI CHEBI:34207
CH$LINK: KEGG C14747
CH$LINK: PUBCHEM CID:75575
CH$LINK: INCHIKEY MQCPOLNSJCWPGT-UHFFFAOYSA-N
CH$LINK: CHEMSPIDER 68100
AC$INSTRUMENT: Q Exactive Orbitrap (Thermo Scientific)
AC$INSTRUMENT_TYPE: LC-ESI-QFT
AC$MASS_SPECTROMETRY: MS_TYPE MS2
AC$MASS_SPECTROMETRY: ION_MODE NEGATIVE
AC$MASS_SPECTROMETRY: IONIZATION ESI
AC$MASS_SPECTROMETRY: FRAGMENTATION_MODE HCD
AC$MASS_SPECTROMETRY: COLLISION_ENERGY 45
AC$MASS_SPECTROMETRY: RESOLUTION 17500
AC$CHROMATOGRAPHY: COLUMN_NAME Acquity BEH C18 1.7um, 2.1x150mm (Waters)
AC$CHROMATOGRAPHY: FLOW_GRADIENT 90/10 at 0-2 min, 0/100 at 15-20 min, 90/10 at 20.1-30 min
AC$CHROMATOGRAPHY: FLOW_RATE 0.20 mL/min
AC$CHROMATOGRAPHY: RETENTION_TIME 16.739 min
AC$CHROMATOGRAPHY: SOLVENT A 0.1% formic acid
AC$CHROMATOGRAPHY: SOLVENT B methanol
MS$FOCUSED_ION: BASE_PEAK 127.0068
MS$FOCUSED_ION: PRECURSOR_M/Z 199.0765
MS$FOCUSED_ION: PRECURSOR_TYPE [M-H]-
MS$FOCUSED_ION: PRECURSOR_INTENSITY 37139741.74023
MS$DATA_PROCESSING: RECALIBRATE loess on assigned fragments and MS1
MS$DATA_PROCESSING: REANALYZE Peaks with additional N2/O included
MS$DATA_PROCESSING: WHOLE RMassBank 2.99.2
PK$SPLASH: splash10-0006-9000000000-b0cd33de259c9eacd13e
PK$ANNOTATION: m/z tentative_formula formula_count mass error(ppm)
  93.0346 C6H5O- 1 93.0346 -0.17
  199.0764 C13H11O2- 1 199.0765 -0.07
PK$NUM_PEAK: 2
PK$PEAK: m/z int. rel.int.
  93.0346 18861694 999
  199.0764 535877.9 28
//
