ACCESSION: MSBNK-LCSB-LU035001
RECORD_TITLE: Hydramethylnon; LC-ESI-QFT; MS2; CE: 15; R=17500; [M+H]+
DATE: 2020.08.19
AUTHORS: Elapavalore, A.; Kondić, T.; Singh, R.; Schymanski, E.
LICENSE: CC BY
COPYRIGHT: Copyright © 2019 by Environmental Cheminformatics, LCSB, University of Luxembourg, Luxembourg
PUBLICATION: Elapavalore, A.; Kondić, T.; et al., Adding Open Spectral Data to MassBank and PubChem Using Open Source Tools to Support Non-Targeted Exposomics of Mixtures (submitted).
PROJECT: ENTACT U.S. Environmental Protection Agency’s Non-Targeted Analysis Collaborative Trial
COMMENT: CONFIDENCE standard compound
COMMENT: INTERNAL_ID 350
COMMENT: DATASET 20200303_ENTACT_RP_MIX505
COMMENT: DATA_PROCESSING MERGING RMBmix ver. 0.2.7
COMMENT: DATA_PROCESSING PRESCREENING Shinyscreen ver. 0.8.0
COMMENT: ORIGINAL_ACQUISITION_NO 9337
COMMENT: ORIGINAL_PRECURSOR_SCAN_NO 9336
COMMENT: RAW_DATA available as MSV000091754 at [DOI:10.25345/C5S46HG75]
CH$NAME: Hydramethylnon
CH$NAME: N-[[(1E,4E)-1,5-bis[4-(trifluoromethyl)phenyl]penta-1,4-dien-3-ylidene]amino]-5,5-dimethyl-4,6-dihydro-1H-pyrimidin-2-amine
CH$COMPOUND_CLASS: N/A; Environmental Standard
CH$FORMULA: C25H24F6N4
CH$EXACT_MASS: 494.1905
CH$SMILES: CC1(C)CNC(NC1)=NN=C(\C=C\C1=CC=C(C=C1)C(F)(F)F)/C=C/C1=CC=C(C=C1)C(F)(F)F
CH$IUPAC: InChI=1S/C25H24F6N4/c1-23(2)15-32-22(33-16-23)35-34-21(13-7-17-3-9-19(10-4-17)24(26,27)28)14-8-18-5-11-20(12-6-18)25(29,30)31/h3-14H,15-16H2,1-2H3,(H2,32,33,35)/b13-7+,14-8+
CH$LINK: CAS 67485-29-4
CH$LINK: CHEBI CHEBI:2630
CH$LINK: KEGG C10994
CH$LINK: PUBCHEM CID:5281875
CH$LINK: INCHIKEY IQVNEKKDSLOHHK-FNCQTZNRSA-N
CH$LINK: CHEMSPIDER 4445168
AC$INSTRUMENT: Q Exactive Orbitrap (Thermo Scientific)
AC$INSTRUMENT_TYPE: LC-ESI-QFT
AC$MASS_SPECTROMETRY: MS_TYPE MS2
AC$MASS_SPECTROMETRY: ION_MODE POSITIVE
AC$MASS_SPECTROMETRY: IONIZATION ESI
AC$MASS_SPECTROMETRY: FRAGMENTATION_MODE HCD
AC$MASS_SPECTROMETRY: COLLISION_ENERGY 15
AC$MASS_SPECTROMETRY: RESOLUTION 17500
AC$CHROMATOGRAPHY: COLUMN_NAME Acquity BEH C18 1.7um, 2.1x150mm (Waters)
AC$CHROMATOGRAPHY: FLOW_GRADIENT 90/10 at 0-2 min, 0/100 at 15-20 min, 90/10 at 20.1-30 min
AC$CHROMATOGRAPHY: FLOW_RATE 0.20 mL/min
AC$CHROMATOGRAPHY: RETENTION_TIME 17.750 min
AC$CHROMATOGRAPHY: SOLVENT A 0.1% formic acid
AC$CHROMATOGRAPHY: SOLVENT B methanol
MS$FOCUSED_ION: BASE_PEAK 79.0211
MS$FOCUSED_ION: PRECURSOR_M/Z 495.1978
MS$FOCUSED_ION: PRECURSOR_TYPE [M+H]+
MS$FOCUSED_ION: PRECURSOR_INTENSITY 48159609
MS$DATA_PROCESSING: RECALIBRATE loess on assigned fragments and MS1
MS$DATA_PROCESSING: REANALYZE Peaks with additional N2/O included
MS$DATA_PROCESSING: WHOLE RMassBank 2.99.2
PK$SPLASH: splash10-0002-0000900000-0057742e60c9e0d48378
PK$ANNOTATION: m/z tentative_formula formula_count mass error(ppm)
  323.1469 C16H18F3N4+ 2 323.1478 -2.95
  495.1976 C25H25F6N4+ 1 495.1978 -0.35
PK$NUM_PEAK: 2
PK$PEAK: m/z int. rel.int.
  323.1469 58486.4 1
  495.1976 40703684 999
//
