ACCESSION: MSBNK-LCSB-LU097254
RECORD_TITLE: 2,4-Di-tert-butylphenol; LC-ESI-QFT; MS2; CE: 60; R=17500; [M-H]-
DATE: 2020.08.19
AUTHORS: Elapavalore, A.; Kondić, T.; Singh, R.; Schymanski, E.
LICENSE: CC BY
COPYRIGHT: Copyright © 2019 by Environmental Cheminformatics, LCSB, University of Luxembourg, Luxembourg
PUBLICATION: Elapavalore, A.; Kondić, T.; et al., Adding Open Spectral Data to MassBank and PubChem Using Open Source Tools to Support Non-Targeted Exposomics of Mixtures (submitted).
PROJECT: ENTACT U.S. Environmental Protection Agency’s Non-Targeted Analysis Collaborative Trial
COMMENT: CONFIDENCE standard compound
COMMENT: INTERNAL_ID 972
COMMENT: DATASET 20200303_ENTACT_RP_MIX502
COMMENT: DATA_PROCESSING MERGING RMBmix ver. 0.2.7
COMMENT: DATA_PROCESSING PRESCREENING Shinyscreen ver. 0.8.0
COMMENT: ORIGINAL_ACQUISITION_NO 4900
COMMENT: ORIGINAL_PRECURSOR_SCAN_NO 4898
COMMENT: RAW_DATA available as MSV000091754 at [DOI:10.25345/C5S46HG75]
CH$NAME: 2,4-Di-tert-butylphenol
CH$NAME: 2,4-ditert-butylphenol
CH$COMPOUND_CLASS: N/A; Environmental Standard
CH$FORMULA: C14H22O
CH$EXACT_MASS: 206.1671
CH$SMILES: CC(C)(C)C1=CC(=C(O)C=C1)C(C)(C)C
CH$IUPAC: InChI=1S/C14H22O/c1-13(2,3)10-7-8-12(15)11(9-10)14(4,5)6/h7-9,15H,1-6H3
CH$LINK: CAS 96-76-4
CH$LINK: CHEBI CHEBI:89188
CH$LINK: PUBCHEM CID:7311
CH$LINK: INCHIKEY ICKWICRCANNIBI-UHFFFAOYSA-N
CH$LINK: CHEMSPIDER 7037
AC$INSTRUMENT: Q Exactive Orbitrap (Thermo Scientific)
AC$INSTRUMENT_TYPE: LC-ESI-QFT
AC$MASS_SPECTROMETRY: MS_TYPE MS2
AC$MASS_SPECTROMETRY: ION_MODE NEGATIVE
AC$MASS_SPECTROMETRY: IONIZATION ESI
AC$MASS_SPECTROMETRY: FRAGMENTATION_MODE HCD
AC$MASS_SPECTROMETRY: COLLISION_ENERGY 60
AC$MASS_SPECTROMETRY: RESOLUTION 17500
AC$CHROMATOGRAPHY: COLUMN_NAME Acquity BEH C18 1.7um, 2.1x150mm (Waters)
AC$CHROMATOGRAPHY: FLOW_GRADIENT 90/10 at 0-2 min, 0/100 at 15-20 min, 90/10 at 20.1-30 min
AC$CHROMATOGRAPHY: FLOW_RATE 0.20 mL/min
AC$CHROMATOGRAPHY: RETENTION_TIME 19.669 min
AC$CHROMATOGRAPHY: SOLVENT A 0.1% formic acid
AC$CHROMATOGRAPHY: SOLVENT B methanol
MS$FOCUSED_ION: BASE_PEAK 205.1598
MS$FOCUSED_ION: PRECURSOR_M/Z 205.1598
MS$FOCUSED_ION: PRECURSOR_TYPE [M-H]-
MS$FOCUSED_ION: PRECURSOR_INTENSITY 28280652.40918
MS$DATA_PROCESSING: RECALIBRATE loess on assigned fragments and MS1
MS$DATA_PROCESSING: REANALYZE Peaks with additional N2/O included
MS$DATA_PROCESSING: WHOLE RMassBank 2.99.2
PK$SPLASH: splash10-0a4i-0190000000-28906e6bc677a61b8d25
PK$ANNOTATION: m/z tentative_formula formula_count mass error(ppm)
  133.0661 C9H9O- 1 133.0659 1.79
  149.0971 C10H13O- 1 149.0972 -0.63
  189.1285 C13H17O- 1 189.1285 0.26
  205.1597 C14H21O- 1 205.1598 -0.31
PK$NUM_PEAK: 4
PK$PEAK: m/z int. rel.int.
  133.0661 6059.1 1
  149.0971 41166.9 7
  189.1285 603022.9 114
  205.1597 5272939 999
//
