ACCESSION: MSBNK-LCSB-LU112151
RECORD_TITLE: Famotidine; LC-ESI-QFT; MS2; CE: 15; R=17500; [M-H]-
DATE: 2020.08.19
AUTHORS: Elapavalore, A.; Kondić, T.; Singh, R.; Schymanski, E.
LICENSE: CC BY
COPYRIGHT: Copyright © 2019 by Environmental Cheminformatics, LCSB, University of Luxembourg, Luxembourg
PUBLICATION: Elapavalore, A.; Kondić, T.; et al., Adding Open Spectral Data to MassBank and PubChem Using Open Source Tools to Support Non-Targeted Exposomics of Mixtures (submitted).
PROJECT: ENTACT U.S. Environmental Protection Agency’s Non-Targeted Analysis Collaborative Trial
COMMENT: CONFIDENCE standard compound
COMMENT: INTERNAL_ID 1121
COMMENT: DATASET 20200303_ENTACT_RP_MIX505
COMMENT: DATA_PROCESSING MERGING RMBmix ver. 0.2.7
COMMENT: DATA_PROCESSING PRESCREENING Shinyscreen ver. 0.8.0
COMMENT: ORIGINAL_ACQUISITION_NO 2003
COMMENT: ORIGINAL_PRECURSOR_SCAN_NO 2000
COMMENT: RAW_DATA available as MSV000091754 at [DOI:10.25345/C5S46HG75]
CH$NAME: Famotidine
CH$NAME: 3-[[2-(diaminomethylideneamino)-1,3-thiazol-4-yl]methylsulfanyl]-N'-sulfamoylpropanimidamide
CH$COMPOUND_CLASS: N/A; Environmental Standard
CH$FORMULA: C8H15N7O2S3
CH$EXACT_MASS: 337.0449
CH$SMILES: NC(N)=NC1=NC(CSCCC(N)=NS(N)(=O)=O)=CS1
CH$IUPAC: InChI=1S/C8H15N7O2S3/c9-6(15-20(12,16)17)1-2-18-3-5-4-19-8(13-5)14-7(10)11/h4H,1-3H2,(H2,9,15)(H2,12,16,17)(H4,10,11,13,14)
CH$LINK: CAS 76824-35-6
CH$LINK: CHEBI CHEBI:4975
CH$LINK: KEGG D00318
CH$LINK: PUBCHEM CID:3325
CH$LINK: INCHIKEY XUFQPHANEAPEMJ-UHFFFAOYSA-N
CH$LINK: CHEMSPIDER 3208
AC$INSTRUMENT: Q Exactive Orbitrap (Thermo Scientific)
AC$INSTRUMENT_TYPE: LC-ESI-QFT
AC$MASS_SPECTROMETRY: MS_TYPE MS2
AC$MASS_SPECTROMETRY: ION_MODE NEGATIVE
AC$MASS_SPECTROMETRY: IONIZATION ESI
AC$MASS_SPECTROMETRY: FRAGMENTATION_MODE HCD
AC$MASS_SPECTROMETRY: COLLISION_ENERGY 15
AC$MASS_SPECTROMETRY: RESOLUTION 17500
AC$CHROMATOGRAPHY: COLUMN_NAME Acquity BEH C18 1.7um, 2.1x150mm (Waters)
AC$CHROMATOGRAPHY: FLOW_GRADIENT 90/10 at 0-2 min, 0/100 at 15-20 min, 90/10 at 20.1-30 min
AC$CHROMATOGRAPHY: FLOW_RATE 0.20 mL/min
AC$CHROMATOGRAPHY: RETENTION_TIME 8.018 min
AC$CHROMATOGRAPHY: SOLVENT A 0.1% formic acid
AC$CHROMATOGRAPHY: SOLVENT B methanol
MS$FOCUSED_ION: BASE_PEAK 185.0456
MS$FOCUSED_ION: PRECURSOR_M/Z 336.0377
MS$FOCUSED_ION: PRECURSOR_TYPE [M-H]-
MS$FOCUSED_ION: PRECURSOR_INTENSITY 1398098.343262
MS$DATA_PROCESSING: RECALIBRATE loess on assigned fragments and MS1
MS$DATA_PROCESSING: REANALYZE Peaks with additional N2/O included
MS$DATA_PROCESSING: WHOLE RMassBank 2.99.2
PK$SPLASH: splash10-0002-3910000000-5356a6dbbd88dcdbc9fc
PK$ANNOTATION: m/z tentative_formula formula_count mass error(ppm)
  77.9656 NO2S- 1 77.9655 0.55
  94.9921 H3N2O2S- 1 94.9921 0.51
  111.0022 C4H3N2S- 1 111.0022 -0.16
  148.0187 C3H6N3O2S- 3 148.0186 0.59
  187.0118 C5H7N4S2- 3 187.0118 0.23
  215.0426 C7H11N4S2- 1 215.0431 -2.08
  240.0384 C8H10N5S2- 3 240.0383 0.32
  257.0646 C8H13N6S2- 1 257.0649 -0.92
PK$NUM_PEAK: 8
PK$PEAK: m/z int. rel.int.
  77.9656 72706.6 160
  94.9921 144195.7 317
  111.0022 3126.6 6
  148.0187 453163.5 999
  187.0118 145082.4 319
  215.0426 1838.9 4
  240.0384 58562 129
  257.0646 11014.4 24
//
