ACCESSION: MSBNK-LCSB-LU104853
RECORD_TITLE: 2-Chloro-4-phenylphenol; LC-ESI-QFT; MS2; CE: 45; R=17500; [M-H]-
DATE: 2020.08.19
AUTHORS: Elapavalore, A.; Kondić, T.; Singh, R.; Schymanski, E.
LICENSE: CC BY
COPYRIGHT: Copyright © 2019 by Environmental Cheminformatics, LCSB, University of Luxembourg, Luxembourg
PUBLICATION: Elapavalore, A.; Kondić, T.; et al., Adding Open Spectral Data to MassBank and PubChem Using Open Source Tools to Support Non-Targeted Exposomics of Mixtures (submitted).
PROJECT: ENTACT U.S. Environmental Protection Agency’s Non-Targeted Analysis Collaborative Trial
COMMENT: CONFIDENCE standard compound
COMMENT: INTERNAL_ID 1048
COMMENT: DATASET 20200303_ENTACT_RP_MIX505
COMMENT: DATA_PROCESSING MERGING RMBmix ver. 0.2.7
COMMENT: DATA_PROCESSING PRESCREENING Shinyscreen ver. 0.8.0
COMMENT: ORIGINAL_ACQUISITION_NO 5105
COMMENT: ORIGINAL_PRECURSOR_SCAN_NO 5101
COMMENT: RAW_DATA available as MSV000091754 at [DOI:10.25345/C5S46HG75]
CH$NAME: 2-Chloro-4-phenylphenol
CH$NAME: 4-Hydroxy-2-chlorobiphenyl
CH$NAME: 3-chloro-4-phenylphenol
CH$COMPOUND_CLASS: N/A; Environmental Standard
CH$FORMULA: C12H9ClO
CH$EXACT_MASS: 204.0342
CH$SMILES: OC1=CC(Cl)=C(C=C1)C1=CC=CC=C1
CH$IUPAC: InChI=1S/C12H9ClO/c13-12-8-10(14)6-7-11(12)9-4-2-1-3-5-9/h1-8,14H
CH$LINK: CAS 92-04-6
CH$LINK: CHEBI CHEBI:34268
CH$LINK: KEGG C14755
CH$LINK: PUBCHEM CID:79688
CH$LINK: INCHIKEY MXORDJXBRHNWBE-UHFFFAOYSA-N
CH$LINK: CHEMSPIDER 71988
AC$INSTRUMENT: Q Exactive Orbitrap (Thermo Scientific)
AC$INSTRUMENT_TYPE: LC-ESI-QFT
AC$MASS_SPECTROMETRY: MS_TYPE MS2
AC$MASS_SPECTROMETRY: ION_MODE NEGATIVE
AC$MASS_SPECTROMETRY: IONIZATION ESI
AC$MASS_SPECTROMETRY: FRAGMENTATION_MODE HCD
AC$MASS_SPECTROMETRY: COLLISION_ENERGY 45
AC$MASS_SPECTROMETRY: RESOLUTION 17500
AC$CHROMATOGRAPHY: COLUMN_NAME Acquity BEH C18 1.7um, 2.1x150mm (Waters)
AC$CHROMATOGRAPHY: FLOW_GRADIENT 90/10 at 0-2 min, 0/100 at 15-20 min, 90/10 at 20.1-30 min
AC$CHROMATOGRAPHY: FLOW_RATE 0.20 mL/min
AC$CHROMATOGRAPHY: RETENTION_TIME 18.329 min
AC$CHROMATOGRAPHY: SOLVENT A 0.1% formic acid
AC$CHROMATOGRAPHY: SOLVENT B methanol
MS$FOCUSED_ION: BASE_PEAK 112.9857
MS$FOCUSED_ION: PRECURSOR_M/Z 203.0269
MS$FOCUSED_ION: PRECURSOR_TYPE [M-H]-
MS$FOCUSED_ION: PRECURSOR_INTENSITY 3377760.577148
MS$DATA_PROCESSING: RECALIBRATE loess on assigned fragments and MS1
MS$DATA_PROCESSING: REANALYZE Peaks with additional N2/O included
MS$DATA_PROCESSING: WHOLE RMassBank 2.99.2
PK$SPLASH: splash10-0udi-0190000000-e7b545dcd100f826b7fa
PK$ANNOTATION: m/z tentative_formula formula_count mass error(ppm)
  65.0034 C4HO- 1 65.0033 1.1
  139.0554 C11H7- 1 139.0553 0.25
  141.0347 C10H5O- 1 141.0346 0.46
  167.0502 C12H7O- 1 167.0502 -0.04
  203.027 C12H8ClO- 1 203.0269 0.29
PK$NUM_PEAK: 5
PK$PEAK: m/z int. rel.int.
  65.0034 3856.6 6
  139.0554 5034.1 8
  141.0347 2970 5
  167.0502 89127.7 153
  203.027 580600.2 999
//
