ACCESSION: MSBNK-LCSB-LU030352
RECORD_TITLE: 2-[4-(Diethylamino)-2-hydroxybenzoyl]benzoic acid; LC-ESI-QFT; MS2; CE: 30; R=17500; [M-H]-
DATE: 2020.08.19
AUTHORS: Elapavalore, A.; Kondić, T.; Singh, R.; Schymanski, E.
LICENSE: CC BY
COPYRIGHT: Copyright © 2019 by Environmental Cheminformatics, LCSB, University of Luxembourg, Luxembourg
PUBLICATION: Elapavalore, A.; Kondić, T.; et al., Adding Open Spectral Data to MassBank and PubChem Using Open Source Tools to Support Non-Targeted Exposomics of Mixtures (submitted).
PROJECT: ENTACT U.S. Environmental Protection Agency’s Non-Targeted Analysis Collaborative Trial
COMMENT: CONFIDENCE standard compound
COMMENT: INTERNAL_ID 303
COMMENT: DATASET 20200303_ENTACT_RP_MIX505
COMMENT: DATA_PROCESSING MERGING RMBmix ver. 0.2.7
COMMENT: DATA_PROCESSING PRESCREENING Shinyscreen ver. 0.8.0
COMMENT: ORIGINAL_ACQUISITION_NO 4857
COMMENT: ORIGINAL_PRECURSOR_SCAN_NO 4855
COMMENT: RAW_DATA available as MSV000091754 at [DOI:10.25345/C5S46HG75]
CH$NAME: 2-[4-(Diethylamino)-2-hydroxybenzoyl]benzoic acid
CH$NAME: 2-(4-(Diethylamino)-2-hydroxybenzoyl)benzoic acid
CH$COMPOUND_CLASS: N/A; Environmental Standard
CH$FORMULA: C18H19NO4
CH$EXACT_MASS: 313.1314
CH$SMILES: CCN(CC)C1=CC(O)=C(C=C1)C(=O)C1=C(C=CC=C1)C(O)=O
CH$IUPAC: InChI=1S/C18H19NO4/c1-3-19(4-2)12-9-10-15(16(20)11-12)17(21)13-7-5-6-8-14(13)18(22)23/h5-11,20H,3-4H2,1-2H3,(H,22,23)
CH$LINK: CAS 5809-23-4
CH$LINK: PUBCHEM CID:79878
CH$LINK: INCHIKEY FQNKTJPBXAZUGC-UHFFFAOYSA-N
CH$LINK: CHEMSPIDER 72169
AC$INSTRUMENT: Q Exactive Orbitrap (Thermo Scientific)
AC$INSTRUMENT_TYPE: LC-ESI-QFT
AC$MASS_SPECTROMETRY: MS_TYPE MS2
AC$MASS_SPECTROMETRY: ION_MODE NEGATIVE
AC$MASS_SPECTROMETRY: IONIZATION ESI
AC$MASS_SPECTROMETRY: FRAGMENTATION_MODE HCD
AC$MASS_SPECTROMETRY: COLLISION_ENERGY 30
AC$MASS_SPECTROMETRY: RESOLUTION 17500
AC$CHROMATOGRAPHY: COLUMN_NAME Acquity BEH C18 1.7um, 2.1x150mm (Waters)
AC$CHROMATOGRAPHY: FLOW_GRADIENT 90/10 at 0-2 min, 0/100 at 15-20 min, 90/10 at 20.1-30 min
AC$CHROMATOGRAPHY: FLOW_RATE 0.20 mL/min
AC$CHROMATOGRAPHY: RETENTION_TIME 17.529 min
AC$CHROMATOGRAPHY: SOLVENT A 0.1% formic acid
AC$CHROMATOGRAPHY: SOLVENT B methanol
MS$FOCUSED_ION: BASE_PEAK 307.0977
MS$FOCUSED_ION: PRECURSOR_M/Z 312.1241
MS$FOCUSED_ION: PRECURSOR_TYPE [M-H]-
MS$FOCUSED_ION: PRECURSOR_INTENSITY 24320644.74609
MS$DATA_PROCESSING: RECALIBRATE loess on assigned fragments and MS1
MS$DATA_PROCESSING: REANALYZE Peaks with additional N2/O included
MS$DATA_PROCESSING: WHOLE RMassBank 2.99.2
PK$SPLASH: splash10-014i-0190000000-8e79929e1253fc35c7fd
PK$ANNOTATION: m/z tentative_formula formula_count mass error(ppm)
  120.045 C7H6NO- 1 120.0455 -3.74
  121.0295 C7H5O2- 1 121.0295 -0.04
  135.069 C8H9NO- 1 135.069 0.38
  164.108 C10H14NO- 1 164.1081 -0.34
  196.0527 C13H8O2- 1 196.053 -1.57
  224.0717 C14H10NO2- 1 224.0717 -0.11
  238.0868 C15H12NO2- 1 238.0874 -2.43
  239.0952 C15H13NO2- 1 239.0952 -0.05
  240.1029 C15H14NO2- 1 240.103 -0.36
  250.1236 C17H16NO- 2 250.1237 -0.55
  266.1186 C17H16NO2- 1 266.1187 -0.17
  268.1343 C17H18NO2- 1 268.1343 -0.15
PK$NUM_PEAK: 12
PK$PEAK: m/z int. rel.int.
  120.045 18091.4 1
  121.0295 60775 6
  135.069 36568.2 3
  164.108 1586993 168
  196.0527 14378.4 1
  224.0717 754425.2 79
  238.0868 34108.4 3
  239.0952 366580.5 38
  240.1029 143703.6 15
  250.1236 49667.6 5
  266.1186 12664.4 1
  268.1343 9434449 999
//
