ACCESSION: MSBNK-LCSB-LU014602
RECORD_TITLE: 4-Methoxyaniline; LC-ESI-QFT; MS2; CE: 30; R=17500; [M+H]+
DATE: 2020.08.19
AUTHORS: Elapavalore, A.; Kondić, T.; Singh, R.; Schymanski, E.
LICENSE: CC BY
COPYRIGHT: Copyright © 2019 by Environmental Cheminformatics, LCSB, University of Luxembourg, Luxembourg
PUBLICATION: Elapavalore, A.; Kondić, T.; et al., Adding Open Spectral Data to MassBank and PubChem Using Open Source Tools to Support Non-Targeted Exposomics of Mixtures (submitted).
PROJECT: ENTACT U.S. Environmental Protection Agency’s Non-Targeted Analysis Collaborative Trial
COMMENT: CONFIDENCE standard compound
COMMENT: INTERNAL_ID 146
COMMENT: DATASET 20200303_ENTACT_RP_MIX500
COMMENT: DATA_PROCESSING MERGING RMBmix ver. 0.2.7
COMMENT: DATA_PROCESSING PRESCREENING Shinyscreen ver. 0.8.0
COMMENT: ORIGINAL_ACQUISITION_NO 2049
COMMENT: ORIGINAL_PRECURSOR_SCAN_NO 2047
COMMENT: RAW_DATA available as MSV000091754 at [DOI:10.25345/C5S46HG75]
CH$NAME: 4-Methoxyaniline
CH$NAME: p-Anisidine
CH$COMPOUND_CLASS: N/A; Environmental Standard
CH$FORMULA: C7H9NO
CH$EXACT_MASS: 123.0684
CH$SMILES: COC1=CC=C(N)C=C1
CH$IUPAC: InChI=1S/C7H9NO/c1-9-7-4-2-6(8)3-5-7/h2-5H,8H2,1H3
CH$LINK: CAS 104-94-9
CH$LINK: CHEBI CHEBI:82388
CH$LINK: KEGG C19326
CH$LINK: PUBCHEM CID:7732
CH$LINK: INCHIKEY BHAAPTBBJKJZER-UHFFFAOYSA-N
CH$LINK: CHEMSPIDER 13869414
AC$INSTRUMENT: Q Exactive Orbitrap (Thermo Scientific)
AC$INSTRUMENT_TYPE: LC-ESI-QFT
AC$MASS_SPECTROMETRY: MS_TYPE MS2
AC$MASS_SPECTROMETRY: ION_MODE POSITIVE
AC$MASS_SPECTROMETRY: IONIZATION ESI
AC$MASS_SPECTROMETRY: FRAGMENTATION_MODE HCD
AC$MASS_SPECTROMETRY: COLLISION_ENERGY 30
AC$MASS_SPECTROMETRY: RESOLUTION 17500
AC$CHROMATOGRAPHY: COLUMN_NAME Acquity BEH C18 1.7um, 2.1x150mm (Waters)
AC$CHROMATOGRAPHY: FLOW_GRADIENT 90/10 at 0-2 min, 0/100 at 15-20 min, 90/10 at 20.1-30 min
AC$CHROMATOGRAPHY: FLOW_RATE 0.20 mL/min
AC$CHROMATOGRAPHY: RETENTION_TIME 3.938 min
AC$CHROMATOGRAPHY: SOLVENT A 0.1% formic acid
AC$CHROMATOGRAPHY: SOLVENT B methanol
MS$FOCUSED_ION: BASE_PEAK 79.0211
MS$FOCUSED_ION: PRECURSOR_M/Z 124.0757
MS$FOCUSED_ION: PRECURSOR_TYPE [M+H]+
MS$FOCUSED_ION: PRECURSOR_INTENSITY 4697845.65625
MS$DATA_PROCESSING: RECALIBRATE loess on assigned fragments and MS1
MS$DATA_PROCESSING: REANALYZE Peaks with additional N2/O included
MS$DATA_PROCESSING: WHOLE RMassBank 2.99.2
PK$SPLASH: splash10-00di-3900000000-cf626ac135d862139ae1
PK$ANNOTATION: m/z tentative_formula formula_count mass error(ppm)
  53.0387 C4H5+ 1 53.0386 1.52
  65.0385 C5H5+ 1 65.0386 -0.88
  68.0494 C4H6N+ 1 68.0495 -1.46
  79.0543 C6H7+ 1 79.0542 1
  80.0495 C5H6N+ 1 80.0495 0.93
  81.0573 C5H7N+ 1 81.0573 -0.05
  92.0495 C6H6N+ 1 92.0495 0.16
  93.0573 C6H7N+ 1 93.0573 0.35
  94.0651 C6H8N+ 1 94.0651 -0.2
  95.0492 C6H7O+ 1 95.0491 0.86
  96.0444 C5H6NO+ 1 96.0444 -0.21
  96.0807 C6H10N+ 1 96.0808 -0.3
  97.0649 C6H9O+ 1 97.0648 0.74
  109.0523 C6H7NO+ 1 109.0522 0.47
  110.06 C6H8NO+ 1 110.06 -0.19
  123.0679 C7H9NO+ 1 123.0679 0.63
  124.0757 C7H10NO+ 1 124.0757 0.1
PK$NUM_PEAK: 17
PK$PEAK: m/z int. rel.int.
  53.0387 6737.5 2
  65.0385 16813.8 5
  68.0494 3630.8 1
  79.0543 12803.6 3
  80.0495 8322 2
  81.0573 49346.8 15
  92.0495 548417.7 166
  93.0573 743493.6 226
  94.0651 22403.1 6
  95.0492 21069 6
  96.0444 5646.4 1
  96.0807 4543.6 1
  97.0649 12588.9 3
  109.0523 295197.9 89
  110.06 38124.8 11
  123.0679 36862.5 11
  124.0757 3282586.5 999
//
