ACCESSION: MSBNK-LCSB-LU064705
RECORD_TITLE: Quinclorac; LC-ESI-QFT; MS2; CE: 75; R=17500; [M+H]+
DATE: 2020.08.19
AUTHORS: Elapavalore, A.; Kondić, T.; Singh, R.; Schymanski, E.
LICENSE: CC BY
COPYRIGHT: Copyright © 2019 by Environmental Cheminformatics, LCSB, University of Luxembourg, Luxembourg
PUBLICATION: Elapavalore, A.; Kondić, T.; et al., Adding Open Spectral Data to MassBank and PubChem Using Open Source Tools to Support Non-Targeted Exposomics of Mixtures (submitted).
PROJECT: ENTACT U.S. Environmental Protection Agency’s Non-Targeted Analysis Collaborative Trial
COMMENT: CONFIDENCE standard compound
COMMENT: INTERNAL_ID 647
COMMENT: DATASET 20200303_ENTACT_RP_MIX506
COMMENT: DATA_PROCESSING MERGING RMBmix ver. 0.2.7
COMMENT: DATA_PROCESSING PRESCREENING Shinyscreen ver. 0.8.0
COMMENT: ORIGINAL_ACQUISITION_NO 7836
COMMENT: ORIGINAL_PRECURSOR_SCAN_NO 7833
COMMENT: RAW_DATA available as MSV000091754 at [DOI:10.25345/C5S46HG75]
CH$NAME: Quinclorac
CH$NAME: 3,7-dichloroquinoline-8-carboxylic acid
CH$COMPOUND_CLASS: N/A; Environmental Standard
CH$FORMULA: C10H5Cl2NO2
CH$EXACT_MASS: 240.9697
CH$SMILES: OC(=O)C1=C(Cl)C=CC2=CC(Cl)=CN=C12
CH$IUPAC: InChI=1S/C10H5Cl2NO2/c11-6-3-5-1-2-7(12)8(10(14)15)9(5)13-4-6/h1-4H,(H,14,15)
CH$LINK: CAS 84087-01-4
CH$LINK: CHEBI CHEBI:81974
CH$LINK: KEGG C18806
CH$LINK: PUBCHEM CID:91739
CH$LINK: INCHIKEY FFSSWMQPCJRCRV-UHFFFAOYSA-N
CH$LINK: CHEMSPIDER 82837
AC$INSTRUMENT: Q Exactive Orbitrap (Thermo Scientific)
AC$INSTRUMENT_TYPE: LC-ESI-QFT
AC$MASS_SPECTROMETRY: MS_TYPE MS2
AC$MASS_SPECTROMETRY: ION_MODE POSITIVE
AC$MASS_SPECTROMETRY: IONIZATION ESI
AC$MASS_SPECTROMETRY: FRAGMENTATION_MODE HCD
AC$MASS_SPECTROMETRY: COLLISION_ENERGY 75
AC$MASS_SPECTROMETRY: RESOLUTION 17500
AC$CHROMATOGRAPHY: COLUMN_NAME Acquity BEH C18 1.7um, 2.1x150mm (Waters)
AC$CHROMATOGRAPHY: FLOW_GRADIENT 90/10 at 0-2 min, 0/100 at 15-20 min, 90/10 at 20.1-30 min
AC$CHROMATOGRAPHY: FLOW_RATE 0.20 mL/min
AC$CHROMATOGRAPHY: RETENTION_TIME 15.027 min
AC$CHROMATOGRAPHY: SOLVENT A 0.1% formic acid
AC$CHROMATOGRAPHY: SOLVENT B methanol
MS$FOCUSED_ION: BASE_PEAK 79.0211
MS$FOCUSED_ION: PRECURSOR_M/Z 241.977
MS$FOCUSED_ION: PRECURSOR_TYPE [M+H]+
MS$FOCUSED_ION: PRECURSOR_INTENSITY 2206510.1875
MS$DATA_PROCESSING: RECALIBRATE loess on assigned fragments and MS1
MS$DATA_PROCESSING: REANALYZE Peaks with additional N2/O included
MS$DATA_PROCESSING: WHOLE RMassBank 2.99.2
PK$SPLASH: splash10-03di-0960000000-d3a7958045e1567726d0
PK$ANNOTATION: m/z tentative_formula formula_count mass error(ppm)
  84.9597 CH3Cl2+ 1 84.9606 -10.73
  102.9703 CH5Cl2O+ 1 102.9712 -8.68
  124.0183 C9H2N+ 1 124.0182 0.96
  142.029 C9H4NO+ 1 142.0287 1.8
  153.9382 C7Cl2+ 1 153.9372 7.03
  159.9949 C9H3ClN+ 1 159.9949 0.09
  161.0028 C9H4ClN+ 1 161.0027 0.77
  168.9614 C8H3Cl2+ 1 168.9606 4.32
  178.0054 C9H5ClNO+ 1 178.0054 -0.19
  182.9777 C9H5Cl2+ 1 182.9763 7.7
  195.9717 C9H4Cl2N+ 1 195.9715 1.08
  213.9823 C9H6Cl2NO+ 1 213.9821 0.91
  223.9667 C10H4Cl2NO+ 1 223.9664 0.99
  241.9772 C10H6Cl2NO2+ 1 241.977 0.94
PK$NUM_PEAK: 14
PK$PEAK: m/z int. rel.int.
  84.9597 19172.7 33
  102.9703 4546.8 7
  124.0183 2738 4
  142.029 2321.8 4
  153.9382 4353.5 7
  159.9949 6060.7 10
  161.0028 573574.8 999
  168.9614 10625.3 18
  178.0054 8640.2 15
  182.9777 2970.2 5
  195.9717 91870 160
  213.9823 260280.3 453
  223.9667 137888 240
  241.9772 80510 140
//
