ACCESSION: MSBNK-LCSB-LU134605
RECORD_TITLE: Propiconazole; LC-ESI-QFT; MS2; CE: 75; R=17500; [M+H]+
DATE: 2020.08.19
AUTHORS: Elapavalore, A.; Kondić, T.; Singh, R.; Schymanski, E.
LICENSE: CC BY
COPYRIGHT: Copyright © 2019 by Environmental Cheminformatics, LCSB, University of Luxembourg, Luxembourg
PUBLICATION: Elapavalore, A.; Kondić, T.; et al., Adding Open Spectral Data to MassBank and PubChem Using Open Source Tools to Support Non-Targeted Exposomics of Mixtures (submitted).
PROJECT: ENTACT U.S. Environmental Protection Agency’s Non-Targeted Analysis Collaborative Trial
COMMENT: CONFIDENCE standard compound
COMMENT: INTERNAL_ID 1346
COMMENT: DATASET 20200303_ENTACT_RP_MIX504
COMMENT: DATA_PROCESSING MERGING RMBmix ver. 0.2.7
COMMENT: DATA_PROCESSING PRESCREENING Shinyscreen ver. 0.8.0
COMMENT: ORIGINAL_ACQUISITION_NO 9695
COMMENT: ORIGINAL_PRECURSOR_SCAN_NO 9694
COMMENT: RAW_DATA available as MSV000091754 at [DOI:10.25345/C5S46HG75]
CH$NAME: Propiconazole
CH$NAME: 1-[[2-(2,4-dichlorophenyl)-4-propyl-1,3-dioxolan-2-yl]methyl]-1,2,4-triazole
CH$COMPOUND_CLASS: N/A; Environmental Standard
CH$FORMULA: C15H17Cl2N3O2
CH$EXACT_MASS: 341.0698
CH$SMILES: CCCC1COC(CN2C=NC=N2)(O1)C1=C(Cl)C=C(Cl)C=C1
CH$IUPAC: InChI=1S/C15H17Cl2N3O2/c1-2-3-12-7-21-15(22-12,8-20-10-18-9-19-20)13-5-4-11(16)6-14(13)17/h4-6,9-10,12H,2-3,7-8H2,1H3
CH$LINK: CAS 60207-90-1
CH$LINK: CHEBI CHEBI:8489
CH$LINK: KEGG C11121
CH$LINK: PUBCHEM CID:43234
CH$LINK: INCHIKEY STJLVHWMYQXCPB-UHFFFAOYSA-N
CH$LINK: CHEMSPIDER 39402
AC$INSTRUMENT: Q Exactive Orbitrap (Thermo Scientific)
AC$INSTRUMENT_TYPE: LC-ESI-QFT
AC$MASS_SPECTROMETRY: MS_TYPE MS2
AC$MASS_SPECTROMETRY: ION_MODE POSITIVE
AC$MASS_SPECTROMETRY: IONIZATION ESI
AC$MASS_SPECTROMETRY: FRAGMENTATION_MODE HCD
AC$MASS_SPECTROMETRY: COLLISION_ENERGY 75
AC$MASS_SPECTROMETRY: RESOLUTION 17500
AC$CHROMATOGRAPHY: COLUMN_NAME Acquity BEH C18 1.7um, 2.1x150mm (Waters)
AC$CHROMATOGRAPHY: FLOW_GRADIENT 90/10 at 0-2 min, 0/100 at 15-20 min, 90/10 at 20.1-30 min
AC$CHROMATOGRAPHY: FLOW_RATE 0.20 mL/min
AC$CHROMATOGRAPHY: RETENTION_TIME 18.657 min
AC$CHROMATOGRAPHY: SOLVENT A 0.1% formic acid
AC$CHROMATOGRAPHY: SOLVENT B methanol
MS$FOCUSED_ION: BASE_PEAK 79.0212
MS$FOCUSED_ION: PRECURSOR_M/Z 342.0771
MS$FOCUSED_ION: PRECURSOR_TYPE [M+H]+
MS$FOCUSED_ION: PRECURSOR_INTENSITY 9329320.125
MS$DATA_PROCESSING: RECALIBRATE loess on assigned fragments and MS1
MS$DATA_PROCESSING: REANALYZE Peaks with additional N2/O included
MS$DATA_PROCESSING: WHOLE RMassBank 2.99.2
PK$SPLASH: splash10-0a4i-1900000000-4d959cefe78446669018
PK$ANNOTATION: m/z tentative_formula formula_count mass error(ppm)
  53.0022 C3HO+ 2 53.0022 0.7
  53.9974 C2NO+ 1 53.9974 0.07
  67.0542 C5H7+ 1 67.0542 -0.15
  69.0699 C5H9+ 1 69.0699 0.04
  70.04 C2H4N3+ 1 70.04 0.1
  72.9839 C3H2Cl+ 1 72.984 -0.42
  84.0557 C3H6N3+ 1 84.0556 0.87
  89.0386 C7H5+ 1 89.0386 -0.04
  98.9997 C5H4Cl+ 1 98.9996 0.58
  122.9996 C7H4Cl+ 1 122.9996 0.18
  124.0075 C7H5Cl+ 1 124.0074 0.51
  128.0024 C6H5ClO+ 4 128.0023 0.31
  129.0101 C6H6ClO+ 4 129.0102 -0.62
  132.9607 C5H3Cl2+ 1 132.9606 0.27
  139.0059 C6H4ClN2+ 3 139.0058 1.14
  146.9765 C6H5Cl2+ 2 146.9763 1.33
  151.0184 C8H6ClN+ 3 151.0183 0.54
  152.0023 C8H5ClO+ 4 152.0023 -0.41
  158.9763 C7H5Cl2+ 2 158.9763 0.21
  162.9713 C6H5Cl2O+ 3 162.9712 0.52
  172.9556 C7H3Cl2O+ 2 172.9555 0.46
  172.9666 C6H3Cl2N2+ 2 172.9668 -0.88
  190.9662 C7H5Cl2O2+ 4 190.9661 0.67
PK$NUM_PEAK: 23
PK$PEAK: m/z int. rel.int.
  53.0022 188372.9 36
  53.9974 27270.4 5
  67.0542 42853.5 8
  69.0699 376115.1 72
  70.04 172664.4 33
  72.9839 7544.6 1
  84.0557 6982.5 1
  89.0386 41864.2 8
  98.9997 59424 11
  122.9996 350340.6 67
  124.0075 84829.3 16
  128.0024 7171.8 1
  129.0101 9535.6 1
  132.9607 47552.1 9
  139.0059 13649.7 2
  146.9765 10914 2
  151.0184 5346.7 1
  152.0023 15561.5 2
  158.9763 5208842.5 999
  162.9713 9199.3 1
  172.9556 306946.1 58
  172.9666 42371.4 8
  190.9662 17406.5 3
//
