ACCESSION: MSBNK-LCSB-LU061652
RECORD_TITLE: Imazapic; LC-ESI-QFT; MS2; CE: 30; R=17500; [M-H]-
DATE: 2020.08.19
AUTHORS: Elapavalore, A.; Kondić, T.; Singh, R.; Schymanski, E.
LICENSE: CC BY
COPYRIGHT: Copyright © 2019 by Environmental Cheminformatics, LCSB, University of Luxembourg, Luxembourg
PUBLICATION: Elapavalore, A.; Kondić, T.; et al., Adding Open Spectral Data to MassBank and PubChem Using Open Source Tools to Support Non-Targeted Exposomics of Mixtures (submitted).
PROJECT: ENTACT U.S. Environmental Protection Agency’s Non-Targeted Analysis Collaborative Trial
COMMENT: CONFIDENCE standard compound
COMMENT: INTERNAL_ID 616
COMMENT: DATASET 20200303_ENTACT_RP_MIX506
COMMENT: DATA_PROCESSING MERGING RMBmix ver. 0.2.7
COMMENT: DATA_PROCESSING PRESCREENING Shinyscreen ver. 0.8.0
COMMENT: ORIGINAL_ACQUISITION_NO 3400
COMMENT: ORIGINAL_PRECURSOR_SCAN_NO 3398
COMMENT: RAW_DATA available as MSV000091754 at [DOI:10.25345/C5S46HG75]
CH$NAME: Imazapic
CH$NAME: 5-methyl-2-(4-methyl-5-oxo-4-propan-2-yl-1H-imidazol-2-yl)pyridine-3-carboxylic acid
CH$COMPOUND_CLASS: N/A; Environmental Standard
CH$FORMULA: C14H17N3O3
CH$EXACT_MASS: 275.1270
CH$SMILES: CC(C)C1(C)NC(=NC1=O)C1=NC=C(C)C=C1C(O)=O
CH$IUPAC: InChI=1S/C14H17N3O3/c1-7(2)14(4)13(20)16-11(17-14)10-9(12(18)19)5-8(3)6-15-10/h5-7H,1-4H3,(H,18,19)(H,16,17,20)
CH$LINK: CAS 81334-60-3
CH$LINK: CHEBI CHEBI:147378
CH$LINK: PUBCHEM CID:91770
CH$LINK: INCHIKEY PVSGXWMWNRGTKE-UHFFFAOYSA-N
CH$LINK: CHEMSPIDER 82867
AC$INSTRUMENT: Q Exactive Orbitrap (Thermo Scientific)
AC$INSTRUMENT_TYPE: LC-ESI-QFT
AC$MASS_SPECTROMETRY: MS_TYPE MS2
AC$MASS_SPECTROMETRY: ION_MODE NEGATIVE
AC$MASS_SPECTROMETRY: IONIZATION ESI
AC$MASS_SPECTROMETRY: FRAGMENTATION_MODE HCD
AC$MASS_SPECTROMETRY: COLLISION_ENERGY 30
AC$MASS_SPECTROMETRY: RESOLUTION 17500
AC$CHROMATOGRAPHY: COLUMN_NAME Acquity BEH C18 1.7um, 2.1x150mm (Waters)
AC$CHROMATOGRAPHY: FLOW_GRADIENT 90/10 at 0-2 min, 0/100 at 15-20 min, 90/10 at 20.1-30 min
AC$CHROMATOGRAPHY: FLOW_RATE 0.20 mL/min
AC$CHROMATOGRAPHY: RETENTION_TIME 13.562 min
AC$CHROMATOGRAPHY: SOLVENT A 0.1% formic acid
AC$CHROMATOGRAPHY: SOLVENT B methanol
MS$FOCUSED_ION: BASE_PEAK 249.0227
MS$FOCUSED_ION: PRECURSOR_M/Z 274.1197
MS$FOCUSED_ION: PRECURSOR_TYPE [M-H]-
MS$FOCUSED_ION: PRECURSOR_INTENSITY 2798649.631836
MS$DATA_PROCESSING: RECALIBRATE loess on assigned fragments and MS1
MS$DATA_PROCESSING: REANALYZE Peaks with additional N2/O included
MS$DATA_PROCESSING: WHOLE RMassBank 2.99.2
PK$SPLASH: splash10-0019-0960000000-e78ba6ee492d3c7364d0
PK$ANNOTATION: m/z tentative_formula formula_count mass error(ppm)
  187.0752 C10H9N3O- 2 187.0751 0.26
  188.083 C10H10N3O- 2 188.0829 0.52
  189.1032 C11H13N2O- 1 189.1033 -0.94
  215.1064 C12H13N3O- 2 215.1064 0.02
  230.1299 C13H16N3O- 1 230.1299 0.09
  274.1197 C14H16N3O3- 1 274.1197 -0.15
PK$NUM_PEAK: 6
PK$PEAK: m/z int. rel.int.
  187.0752 1002273.8 999
  188.083 21489.4 21
  189.1032 7990.4 7
  215.1064 26292 26
  230.1299 737063.8 734
  274.1197 2757 2
//
