ACCESSION: MSBNK-LCSB-LU038753
RECORD_TITLE: 3-Oxo-N-(2-oxo-2,3-dihydro-1H-benzimidazol-5-yl)butanamide; LC-ESI-QFT; MS2; CE: 45; R=17500; [M-H]-
DATE: 2020.08.19
AUTHORS: Elapavalore, A.; Kondić, T.; Singh, R.; Schymanski, E.
LICENSE: CC BY
COPYRIGHT: Copyright © 2019 by Environmental Cheminformatics, LCSB, University of Luxembourg, Luxembourg
PUBLICATION: Elapavalore, A.; Kondić, T.; et al., Adding Open Spectral Data to MassBank and PubChem Using Open Source Tools to Support Non-Targeted Exposomics of Mixtures (submitted).
PROJECT: ENTACT U.S. Environmental Protection Agency’s Non-Targeted Analysis Collaborative Trial
COMMENT: CONFIDENCE standard compound
COMMENT: INTERNAL_ID 387
COMMENT: DATASET 20200303_ENTACT_RP_MIX505
COMMENT: DATA_PROCESSING MERGING RMBmix ver. 0.2.7
COMMENT: DATA_PROCESSING PRESCREENING Shinyscreen ver. 0.8.0
COMMENT: ORIGINAL_ACQUISITION_NO 2368
COMMENT: ORIGINAL_PRECURSOR_SCAN_NO 2365
COMMENT: RAW_DATA available as MSV000091754 at [DOI:10.25345/C5S46HG75]
CH$NAME: 3-Oxo-N-(2-oxo-2,3-dihydro-1H-benzimidazol-5-yl)butanamide
CH$NAME: 3-oxo-N-(2-oxo-1,3-dihydrobenzimidazol-5-yl)butanamide
CH$COMPOUND_CLASS: N/A; Environmental Standard
CH$FORMULA: C11H11N3O3
CH$EXACT_MASS: 233.0800
CH$SMILES: CC(=O)CC(=O)NC1=CC2=C(NC(=O)N2)C=C1
CH$IUPAC: InChI=1S/C11H11N3O3/c1-6(15)4-10(16)12-7-2-3-8-9(5-7)14-11(17)13-8/h2-3,5H,4H2,1H3,(H,12,16)(H2,13,14,17)
CH$LINK: CAS 26576-46-5
CH$LINK: PUBCHEM CID:117822
CH$LINK: INCHIKEY VEMDQCGHZNXORX-UHFFFAOYSA-N
CH$LINK: CHEMSPIDER 105286
AC$INSTRUMENT: Q Exactive Orbitrap (Thermo Scientific)
AC$INSTRUMENT_TYPE: LC-ESI-QFT
AC$MASS_SPECTROMETRY: MS_TYPE MS2
AC$MASS_SPECTROMETRY: ION_MODE NEGATIVE
AC$MASS_SPECTROMETRY: IONIZATION ESI
AC$MASS_SPECTROMETRY: FRAGMENTATION_MODE HCD
AC$MASS_SPECTROMETRY: COLLISION_ENERGY 45
AC$MASS_SPECTROMETRY: RESOLUTION 17500
AC$CHROMATOGRAPHY: COLUMN_NAME Acquity BEH C18 1.7um, 2.1x150mm (Waters)
AC$CHROMATOGRAPHY: FLOW_GRADIENT 90/10 at 0-2 min, 0/100 at 15-20 min, 90/10 at 20.1-30 min
AC$CHROMATOGRAPHY: FLOW_RATE 0.20 mL/min
AC$CHROMATOGRAPHY: RETENTION_TIME 9.570 min
AC$CHROMATOGRAPHY: SOLVENT A 0.1% formic acid
AC$CHROMATOGRAPHY: SOLVENT B methanol
MS$FOCUSED_ION: BASE_PEAK 134.036
MS$FOCUSED_ION: PRECURSOR_M/Z 232.0728
MS$FOCUSED_ION: PRECURSOR_TYPE [M-H]-
MS$FOCUSED_ION: PRECURSOR_INTENSITY 583339.1425781
MS$DATA_PROCESSING: RECALIBRATE loess on assigned fragments and MS1
MS$DATA_PROCESSING: REANALYZE Peaks with additional N2/O included
MS$DATA_PROCESSING: WHOLE RMassBank 2.99.2
PK$SPLASH: splash10-000t-5900000000-9416f8b3e4aa981c6c1b
PK$ANNOTATION: m/z tentative_formula formula_count mass error(ppm)
  83.0139 C4H3O2- 1 83.0139 0.13
  120.0565 C6H6N3- 2 120.0567 -1.48
  121.0407 C6H5N2O- 1 121.0407 -0.13
  134.0363 C6H4N3O- 2 134.036 2.45
  146.0361 C7H4N3O- 2 146.036 0.6
  147.0438 C7H5N3O- 2 147.0438 0.09
  148.0517 C7H6N3O- 2 148.0516 0.21
  174.0308 C8H4N3O2- 2 174.0309 -0.51
  190.0617 C9H8N3O2- 2 190.0622 -2.46
PK$NUM_PEAK: 9
PK$PEAK: m/z int. rel.int.
  83.0139 158706.5 893
  120.0565 3879.9 21
  121.0407 3854.3 21
  134.0363 2470.3 13
  146.0361 23519.8 132
  147.0438 3893.9 21
  148.0517 177444.5 999
  174.0308 22368.9 125
  190.0617 2242.4 12
//
