ACCESSION: MSBNK-LCSB-LU023105
RECORD_TITLE: Ametryn; LC-ESI-QFT; MS2; CE: 75; R=17500; [M+H]+
DATE: 2020.08.19
AUTHORS: Elapavalore, A.; Kondić, T.; Singh, R.; Schymanski, E.
LICENSE: CC BY
COPYRIGHT: Copyright © 2019 by Environmental Cheminformatics, LCSB, University of Luxembourg, Luxembourg
PUBLICATION: Elapavalore, A.; Kondić, T.; et al., Adding Open Spectral Data to MassBank and PubChem Using Open Source Tools to Support Non-Targeted Exposomics of Mixtures (submitted).
PROJECT: ENTACT U.S. Environmental Protection Agency’s Non-Targeted Analysis Collaborative Trial
COMMENT: CONFIDENCE standard compound
COMMENT: INTERNAL_ID 231
COMMENT: DATASET 20200303_ENTACT_RP_MIX505
COMMENT: DATA_PROCESSING MERGING RMBmix ver. 0.2.7
COMMENT: DATA_PROCESSING PRESCREENING Shinyscreen ver. 0.8.0
COMMENT: ORIGINAL_ACQUISITION_NO 8093
COMMENT: ORIGINAL_PRECURSOR_SCAN_NO 8091
COMMENT: RAW_DATA available as MSV000091754 at [DOI:10.25345/C5S46HG75]
CH$NAME: Ametryn
CH$NAME: 4-N-ethyl-6-methylsulfanyl-2-N-propan-2-yl-1,3,5-triazine-2,4-diamine
CH$COMPOUND_CLASS: N/A; Environmental Standard
CH$FORMULA: C9H17N5S
CH$EXACT_MASS: 227.1205
CH$SMILES: CCNC1=NC(SC)=NC(NC(C)C)=N1
CH$IUPAC: InChI=1S/C9H17N5S/c1-5-10-7-12-8(11-6(2)3)14-9(13-7)15-4/h6H,5H2,1-4H3,(H2,10,11,12,13,14)
CH$LINK: CAS 834-12-8
CH$LINK: CHEBI CHEBI:22472
CH$LINK: KEGG C18700
CH$LINK: PUBCHEM CID:13263
CH$LINK: INCHIKEY RQVYBGPQFYCBGX-UHFFFAOYSA-N
CH$LINK: CHEMSPIDER 12705
AC$INSTRUMENT: Q Exactive Orbitrap (Thermo Scientific)
AC$INSTRUMENT_TYPE: LC-ESI-QFT
AC$MASS_SPECTROMETRY: MS_TYPE MS2
AC$MASS_SPECTROMETRY: ION_MODE POSITIVE
AC$MASS_SPECTROMETRY: IONIZATION ESI
AC$MASS_SPECTROMETRY: FRAGMENTATION_MODE HCD
AC$MASS_SPECTROMETRY: COLLISION_ENERGY 75
AC$MASS_SPECTROMETRY: RESOLUTION 17500
AC$CHROMATOGRAPHY: COLUMN_NAME Acquity BEH C18 1.7um, 2.1x150mm (Waters)
AC$CHROMATOGRAPHY: FLOW_GRADIENT 90/10 at 0-2 min, 0/100 at 15-20 min, 90/10 at 20.1-30 min
AC$CHROMATOGRAPHY: FLOW_RATE 0.20 mL/min
AC$CHROMATOGRAPHY: RETENTION_TIME 15.455 min
AC$CHROMATOGRAPHY: SOLVENT A 0.1% formic acid
AC$CHROMATOGRAPHY: SOLVENT B methanol
MS$FOCUSED_ION: BASE_PEAK 79.0211
MS$FOCUSED_ION: PRECURSOR_M/Z 228.1277
MS$FOCUSED_ION: PRECURSOR_TYPE [M+H]+
MS$FOCUSED_ION: PRECURSOR_INTENSITY 53516833.625
MS$DATA_PROCESSING: RECALIBRATE loess on assigned fragments and MS1
MS$DATA_PROCESSING: REANALYZE Peaks with additional N2/O included
MS$DATA_PROCESSING: WHOLE RMassBank 2.99.2
PK$SPLASH: splash10-01ba-9300000000-fb1ddfb80e8d2da15cb8
PK$ANNOTATION: m/z tentative_formula formula_count mass error(ppm)
  57.0447 C2H5N2+ 1 57.0447 -0.1
  68.0243 C2H2N3+ 1 68.0243 -0.46
  69.0447 C3H5N2+ 1 69.0447 -0.32
  70.04 C2H4N3+ 1 70.04 -0.2
  71.0603 C3H7N2+ 1 71.0604 -0.48
  74.0059 C2H4NS+ 1 74.0059 -0.61
  85.0509 C2H5N4+ 1 85.0509 0
  85.0761 C4H9N2+ 1 85.076 0.84
  91.0325 C2H7N2S+ 1 91.0324 0.15
  96.0556 C4H6N3+ 1 96.0556 -0.11
  99.0011 C3H3N2S+ 1 99.0011 -0.75
  102.0372 C4H8NS+ 1 102.0372 0.33
  110.0461 C3H4N5+ 1 110.0461 0.07
  113.0822 C4H9N4+ 1 113.0822 -0.18
  116.0277 C3H6N3S+ 1 116.0277 0.02
  138.0775 C5H8N5+ 1 138.0774 0.26
  140.0931 C5H10N5+ 1 140.0931 0.3
  143.0261 C3H5N5S+ 1 143.026 0.34
  144.059 C5H10N3S+ 1 144.059 0.1
  158.0495 C4H8N5S+ 1 158.0495 0.17
  169.0542 C6H9N4S+ 1 169.0542 -0.31
  170.0492 C5H8N5S+ 1 170.0495 -1.53
  171.0573 C5H9N5S+ 1 171.0573 0.1
  180.1241 C8H14N5+ 1 180.1244 -1.53
  184.0651 C6H10N5S+ 1 184.0651 -0.35
  186.0808 C6H12N5S+ 1 186.0808 0.27
  228.1282 C9H18N5S+ 1 228.1277 1.87
PK$NUM_PEAK: 27
PK$PEAK: m/z int. rel.int.
  57.0447 11707.5 1
  68.0243 8708060 999
  69.0447 14072 1
  70.04 24712.2 2
  71.0603 5012371.5 575
  74.0059 2236886.5 256
  85.0509 1092093.2 125
  85.0761 106320 12
  91.0325 4410061 505
  96.0556 6774149.5 777
  99.0011 22182.2 2
  102.0372 166383.3 19
  110.0461 717441.2 82
  113.0822 518667.8 59
  116.0277 3720896 426
  138.0775 1426364.9 163
  140.0931 22022.5 2
  143.0261 16359.5 1
  144.059 1100959.2 126
  158.0495 957915.8 109
  169.0542 19033.9 2
  170.0492 10977.3 1
  171.0573 26993.9 3
  180.1241 11369 1
  184.0651 24057 2
  186.0808 2196015.2 251
  228.1282 24964.4 2
//
