ACCESSION: MSBNK-LCSB-LU134304
RECORD_TITLE: Cladribine; LC-ESI-QFT; MS2; CE: 60; R=17500; [M+H]+
DATE: 2020.08.19
AUTHORS: Elapavalore, A.; Kondić, T.; Singh, R.; Schymanski, E.
LICENSE: CC BY
COPYRIGHT: Copyright © 2019 by Environmental Cheminformatics, LCSB, University of Luxembourg, Luxembourg
PUBLICATION: Elapavalore, A.; Kondić, T.; et al., Adding Open Spectral Data to MassBank and PubChem Using Open Source Tools to Support Non-Targeted Exposomics of Mixtures (submitted).
PROJECT: ENTACT U.S. Environmental Protection Agency’s Non-Targeted Analysis Collaborative Trial
COMMENT: CONFIDENCE standard compound
COMMENT: INTERNAL_ID 1343
COMMENT: DATASET 20200303_ENTACT_RP_MIX504
COMMENT: DATA_PROCESSING MERGING RMBmix ver. 0.2.7
COMMENT: DATA_PROCESSING PRESCREENING Shinyscreen ver. 0.8.0
COMMENT: ORIGINAL_ACQUISITION_NO 5700
COMMENT: ORIGINAL_PRECURSOR_SCAN_NO 5699
COMMENT: RAW_DATA available as MSV000091754 at [DOI:10.25345/C5S46HG75]
CH$NAME: Cladribine
CH$COMPOUND_CLASS: N/A; Environmental Standard
CH$FORMULA: C10H12ClN5O3
CH$EXACT_MASS: 285.0629
CH$SMILES: NC1=NC(Cl)=NC2=C1N=CN2[C@H]1C[C@H](O)[C@@H](CO)O1
CH$IUPAC: InChI=1S/C10H12ClN5O3/c11-10-14-8(12)7-9(15-10)16(3-13-7)6-1-4(18)5(2-17)19-6/h3-6,17-18H,1-2H2,(H2,12,14,15)/t4-,5+,6+/m0/s1
CH$LINK: CAS 4291-63-8
CH$LINK: CHEBI CHEBI:567361
CH$LINK: KEGG D01370
CH$LINK: PUBCHEM CID:20279
CH$LINK: INCHIKEY PTOAARAWEBMLNO-KVQBGUIXSA-N
CH$LINK: CHEMSPIDER 19105
AC$INSTRUMENT: Q Exactive Orbitrap (Thermo Scientific)
AC$INSTRUMENT_TYPE: LC-ESI-QFT
AC$MASS_SPECTROMETRY: MS_TYPE MS2
AC$MASS_SPECTROMETRY: ION_MODE POSITIVE
AC$MASS_SPECTROMETRY: IONIZATION ESI
AC$MASS_SPECTROMETRY: FRAGMENTATION_MODE HCD
AC$MASS_SPECTROMETRY: COLLISION_ENERGY 60
AC$MASS_SPECTROMETRY: RESOLUTION 17500
AC$CHROMATOGRAPHY: COLUMN_NAME Acquity BEH C18 1.7um, 2.1x150mm (Waters)
AC$CHROMATOGRAPHY: FLOW_GRADIENT 90/10 at 0-2 min, 0/100 at 15-20 min, 90/10 at 20.1-30 min
AC$CHROMATOGRAPHY: FLOW_RATE 0.20 mL/min
AC$CHROMATOGRAPHY: RETENTION_TIME 10.837 min
AC$CHROMATOGRAPHY: SOLVENT A 0.1% formic acid
AC$CHROMATOGRAPHY: SOLVENT B methanol
MS$FOCUSED_ION: BASE_PEAK 79.0212
MS$FOCUSED_ION: PRECURSOR_M/Z 286.0701
MS$FOCUSED_ION: PRECURSOR_TYPE [M+H]+
MS$FOCUSED_ION: PRECURSOR_INTENSITY 2661732.1875
MS$DATA_PROCESSING: RECALIBRATE loess on assigned fragments and MS1
MS$DATA_PROCESSING: REANALYZE Peaks with additional N2/O included
MS$DATA_PROCESSING: WHOLE RMassBank 2.99.2
PK$SPLASH: splash10-00di-2900000000-c43d01433deb57d8235b
PK$ANNOTATION: m/z tentative_formula formula_count mass error(ppm)
  53.0022 C3HO+ 2 53.0022 0.7
  53.0386 C4H5+ 1 53.0386 1.12
  55.0179 C3H3O+ 2 55.0178 1.09
  57.0335 C3H5O+ 2 57.0335 0.6
  69.0335 C4H5O+ 2 69.0335 0.27
  70.0399 C2H4N3+ 1 70.04 -0.44
  71.0491 C4H7O+ 2 71.0491 0
  73.0284 C3H5O2+ 2 73.0284 -0.04
  75.0441 C3H7O2+ 2 75.0441 0.15
  81.0336 C5H5O+ 2 81.0335 0.8
  99.0441 C5H7O2+ 4 99.0441 0.4
  107.0354 C4H3N4+ 3 107.0352 1.37
  117.0547 C5H9O3+ 4 117.0546 0.64
  134.0462 C5H4N5+ 4 134.0461 0.65
  135.0302 C5H3N4O+ 4 135.0301 0.48
  152.0568 C5H6N5O+ 3 152.0567 0.86
  170.0229 C5H5ClN5+ 4 170.0228 0.61
PK$NUM_PEAK: 17
PK$PEAK: m/z int. rel.int.
  53.0022 3411.1 4
  53.0386 7937.3 10
  55.0179 3582.3 4
  57.0335 19386.2 24
  69.0335 46809.8 59
  70.0399 2781.6 3
  71.0491 58031.9 73
  73.0284 91304.1 115
  75.0441 2070.5 2
  81.0336 25165.7 31
  99.0441 53707.9 67
  107.0354 11781 14
  117.0547 33811.7 42
  134.0462 288930.9 364
  135.0302 26530.4 33
  152.0568 119800.6 151
  170.0229 792566.4 999
//
