ACCESSION: MSBNK-LCSB-LU078105
RECORD_TITLE: Kinetin; LC-ESI-QFT; MS2; CE: 75; R=17500; [M+H]+
DATE: 2020.08.19
AUTHORS: Elapavalore, A.; Kondić, T.; Singh, R.; Schymanski, E.
LICENSE: CC BY
COPYRIGHT: Copyright © 2019 by Environmental Cheminformatics, LCSB, University of Luxembourg, Luxembourg
PUBLICATION: Elapavalore, A.; Kondić, T.; et al., Adding Open Spectral Data to MassBank and PubChem Using Open Source Tools to Support Non-Targeted Exposomics of Mixtures (submitted).
PROJECT: ENTACT U.S. Environmental Protection Agency’s Non-Targeted Analysis Collaborative Trial
COMMENT: CONFIDENCE standard compound
COMMENT: INTERNAL_ID 781
COMMENT: DATASET 20200303_ENTACT_RP_MIX501
COMMENT: DATA_PROCESSING MERGING RMBmix ver. 0.2.7
COMMENT: DATA_PROCESSING PRESCREENING Shinyscreen ver. 0.8.0
COMMENT: ORIGINAL_ACQUISITION_NO 5890
COMMENT: ORIGINAL_PRECURSOR_SCAN_NO 5889
COMMENT: RAW_DATA available as MSV000091754 at [DOI:10.25345/C5S46HG75]
CH$NAME: Kinetin
CH$NAME: N-(furan-2-ylmethyl)-7H-purin-6-amine
CH$COMPOUND_CLASS: N/A; Environmental Standard
CH$FORMULA: C10H9N5O
CH$EXACT_MASS: 215.0807
CH$SMILES: C(NC1=C2N=CN=C2N=CN1)C1=CC=CO1
CH$IUPAC: InChI=1S/C10H9N5O/c1-2-7(16-3-1)4-11-9-8-10(13-5-12-8)15-6-14-9/h1-3,5-6H,4H2,(H2,11,12,13,14,15)
CH$LINK: CAS 87-42-3
CH$LINK: CHEBI CHEBI:27407
CH$LINK: KEGG C08272
CH$LINK: PUBCHEM CID:3830
CH$LINK: INCHIKEY QANMHLXAZMSUEX-UHFFFAOYSA-N
CH$LINK: CHEMSPIDER 3698
AC$INSTRUMENT: Q Exactive Orbitrap (Thermo Scientific)
AC$INSTRUMENT_TYPE: LC-ESI-QFT
AC$MASS_SPECTROMETRY: MS_TYPE MS2
AC$MASS_SPECTROMETRY: ION_MODE POSITIVE
AC$MASS_SPECTROMETRY: IONIZATION ESI
AC$MASS_SPECTROMETRY: FRAGMENTATION_MODE HCD
AC$MASS_SPECTROMETRY: COLLISION_ENERGY 75
AC$MASS_SPECTROMETRY: RESOLUTION 17500
AC$CHROMATOGRAPHY: COLUMN_NAME Acquity BEH C18 1.7um, 2.1x150mm (Waters)
AC$CHROMATOGRAPHY: FLOW_GRADIENT 90/10 at 0-2 min, 0/100 at 15-20 min, 90/10 at 20.1-30 min
AC$CHROMATOGRAPHY: FLOW_RATE 0.20 mL/min
AC$CHROMATOGRAPHY: RETENTION_TIME 11.252 min
AC$CHROMATOGRAPHY: SOLVENT A 0.1% formic acid
AC$CHROMATOGRAPHY: SOLVENT B methanol
MS$FOCUSED_ION: BASE_PEAK 79.0211
MS$FOCUSED_ION: PRECURSOR_M/Z 216.088
MS$FOCUSED_ION: PRECURSOR_TYPE [M+H]+
MS$FOCUSED_ION: PRECURSOR_INTENSITY 13755748.8125
MS$DATA_PROCESSING: RECALIBRATE loess on assigned fragments and MS1
MS$DATA_PROCESSING: REANALYZE Peaks with additional N2/O included
MS$DATA_PROCESSING: WHOLE RMassBank 2.99.2
PK$SPLASH: splash10-001i-9000000000-d71c06da434be964283f
PK$ANNOTATION: m/z tentative_formula formula_count mass error(ppm)
  53.0386 C4H5+ 1 53.0386 0.22
  70.0651 C4H8N+ 1 70.0651 -0.62
  80.0495 C5H6N+ 1 80.0495 0.03
  81.0335 C5H5O+ 1 81.0335 -0.32
  94.0399 C4H4N3+ 1 94.04 -1.16
  107.0604 C6H7N2+ 1 107.0604 -0.22
  119.0352 C5H3N4+ 2 119.0352 -0.08
  121.051 C5H5N4+ 2 121.0509 0.76
  135.0665 C6H7N4+ 2 135.0665 -0.06
  136.0618 C5H6N5+ 2 136.0618 -0.13
  137.0457 C5H5N4O+ 1 137.0458 -0.29
  144.0557 C8H6N3+ 2 144.0556 0.21
  146.0587 C7H6N4+ 2 146.0587 -0.05
  148.0617 C6H6N5+ 2 148.0618 -0.4
  161.0821 C8H9N4+ 1 161.0822 -0.24
  171.0665 C9H7N4+ 1 171.0665 0.04
  172.0616 C8H6N5+ 2 172.0618 -0.9
  173.0696 C8H7N5+ 2 173.0696 0.01
  188.093 C9H10N5+ 1 188.0931 -0.38
PK$NUM_PEAK: 19
PK$PEAK: m/z int. rel.int.
  53.0386 1089065.1 141
  70.0651 18372.6 2
  80.0495 8564.6 1
  81.0335 7699251 999
  94.0399 20755.8 2
  107.0604 9673.2 1
  119.0352 108736.5 14
  121.051 59582.8 7
  135.0665 38956.5 5
  136.0618 155487.7 20
  137.0457 39397.5 5
  144.0557 11342.3 1
  146.0587 18437.7 2
  148.0617 268083.3 34
  161.0821 26325.1 3
  171.0665 42041.6 5
  172.0616 32060.4 4
  173.0696 86422 11
  188.093 46704 6
//
