ACCESSION: MSBNK-LCSB-LU044302
RECORD_TITLE: CP-122721; LC-ESI-QFT; MS2; CE: 30; R=17500; [M+H]+
DATE: 2020.08.19
AUTHORS: Elapavalore, A.; Kondić, T.; Singh, R.; Schymanski, E.
LICENSE: CC BY
COPYRIGHT: Copyright © 2019 by Environmental Cheminformatics, LCSB, University of Luxembourg, Luxembourg
PUBLICATION: Elapavalore, A.; Kondić, T.; et al., Adding Open Spectral Data to MassBank and PubChem Using Open Source Tools to Support Non-Targeted Exposomics of Mixtures (submitted).
PROJECT: ENTACT U.S. Environmental Protection Agency’s Non-Targeted Analysis Collaborative Trial
COMMENT: CONFIDENCE standard compound
COMMENT: INTERNAL_ID 443
COMMENT: DATASET 20200303_ENTACT_RP_MIX505
COMMENT: DATA_PROCESSING MERGING RMBmix ver. 0.2.7
COMMENT: DATA_PROCESSING PRESCREENING Shinyscreen ver. 0.8.0
COMMENT: ORIGINAL_ACQUISITION_NO 8236
COMMENT: ORIGINAL_PRECURSOR_SCAN_NO 8233
COMMENT: RAW_DATA available as MSV000091754 at [DOI:10.25345/C5S46HG75]
CH$NAME: CP-122721
CH$NAME: (2S,3S)-N-[[2-methoxy-5-(trifluoromethoxy)phenyl]methyl]-2-phenylpiperidin-3-amine
CH$COMPOUND_CLASS: N/A; Environmental Standard
CH$FORMULA: C20H23F3N2O2
CH$EXACT_MASS: 380.1712
CH$SMILES: COC1=C(CN[C@H]2CCCN[C@H]2C2=CC=CC=C2)C=C(OC(F)(F)F)C=C1
CH$IUPAC: InChI=1S/C20H23F3N2O2/c1-26-18-10-9-16(27-20(21,22)23)12-15(18)13-25-17-8-5-11-24-19(17)14-6-3-2-4-7-14/h2-4,6-7,9-10,12,17,19,24-25H,5,8,11,13H2,1H3/t17-,19-/m0/s1
CH$LINK: CAS 145742-28-5
CH$LINK: PUBCHEM CID:9821217
CH$LINK: INCHIKEY ZIWFCOIGUNPHPM-HKUYNNGSSA-N
CH$LINK: CHEMSPIDER 7996966
AC$INSTRUMENT: Q Exactive Orbitrap (Thermo Scientific)
AC$INSTRUMENT_TYPE: LC-ESI-QFT
AC$MASS_SPECTROMETRY: MS_TYPE MS2
AC$MASS_SPECTROMETRY: ION_MODE POSITIVE
AC$MASS_SPECTROMETRY: IONIZATION ESI
AC$MASS_SPECTROMETRY: FRAGMENTATION_MODE HCD
AC$MASS_SPECTROMETRY: COLLISION_ENERGY 30
AC$MASS_SPECTROMETRY: RESOLUTION 17500
AC$CHROMATOGRAPHY: COLUMN_NAME Acquity BEH C18 1.7um, 2.1x150mm (Waters)
AC$CHROMATOGRAPHY: FLOW_GRADIENT 90/10 at 0-2 min, 0/100 at 15-20 min, 90/10 at 20.1-30 min
AC$CHROMATOGRAPHY: FLOW_RATE 0.20 mL/min
AC$CHROMATOGRAPHY: RETENTION_TIME 15.712 min
AC$CHROMATOGRAPHY: SOLVENT A 0.1% formic acid
AC$CHROMATOGRAPHY: SOLVENT B methanol
MS$FOCUSED_ION: BASE_PEAK 79.0211
MS$FOCUSED_ION: PRECURSOR_M/Z 381.1784
MS$FOCUSED_ION: PRECURSOR_TYPE [M+H]+
MS$FOCUSED_ION: PRECURSOR_INTENSITY 54432126.1875
MS$DATA_PROCESSING: RECALIBRATE loess on assigned fragments and MS1
MS$DATA_PROCESSING: REANALYZE Peaks with additional N2/O included
MS$DATA_PROCESSING: WHOLE RMassBank 2.99.2
PK$SPLASH: splash10-03di-0900000000-11c5c68c5042e798d8cf
PK$ANNOTATION: m/z tentative_formula formula_count mass error(ppm)
  82.065 C5H8N+ 1 82.0651 -2
  91.0544 C7H7+ 2 91.0542 1.42
  131.0856 C10H11+ 2 131.0855 0.82
  132.0808 C9H10N+ 2 132.0808 0.51
  160.112 C11H14N+ 3 160.1121 -0.25
  205.0471 C9H8F3O2+ 3 205.0471 0.27
  364.1519 C20H21F3NO2+ 1 364.1519 0.08
  381.1786 C20H24F3N2O2+ 1 381.1784 0.5
PK$NUM_PEAK: 8
PK$PEAK: m/z int. rel.int.
  82.065 108798.6 1
  91.0544 160772.2 2
  131.0856 78075 1
  132.0808 329795.4 6
  160.112 54711324 999
  205.0471 2024320.9 36
  364.1519 297801.9 5
  381.1786 1743695.6 31
//
