ACCESSION: MSBNK-LCSB-LU126901
RECORD_TITLE: Hexaconazole; LC-ESI-QFT; MS2; CE: 15; R=17500; [M+H]+
DATE: 2020.08.19
AUTHORS: Elapavalore, A.; Kondić, T.; Singh, R.; Schymanski, E.
LICENSE: CC BY
COPYRIGHT: Copyright © 2019 by Environmental Cheminformatics, LCSB, University of Luxembourg, Luxembourg
PUBLICATION: Elapavalore, A.; Kondić, T.; et al., Adding Open Spectral Data to MassBank and PubChem Using Open Source Tools to Support Non-Targeted Exposomics of Mixtures (submitted).
PROJECT: ENTACT U.S. Environmental Protection Agency’s Non-Targeted Analysis Collaborative Trial
COMMENT: CONFIDENCE standard compound
COMMENT: INTERNAL_ID 1269
COMMENT: DATASET 20200303_ENTACT_RP_MIX508
COMMENT: DATA_PROCESSING MERGING RMBmix ver. 0.2.7
COMMENT: DATA_PROCESSING PRESCREENING Shinyscreen ver. 0.8.0
COMMENT: ORIGINAL_ACQUISITION_NO 9950
COMMENT: ORIGINAL_PRECURSOR_SCAN_NO 9948
COMMENT: RAW_DATA available as MSV000091754 at [DOI:10.25345/C5S46HG75]
CH$NAME: Hexaconazole
CH$NAME: 2-(2,4-dichlorophenyl)-1-(1,2,4-triazol-1-yl)hexan-2-ol
CH$COMPOUND_CLASS: N/A; Environmental Standard
CH$FORMULA: C14H17Cl2N3O
CH$EXACT_MASS: 313.0749
CH$SMILES: CCCCC(O)(CN1C=NC=N1)C1=CC=C(Cl)C=C1Cl
CH$IUPAC: InChI=1S/C14H17Cl2N3O/c1-2-3-6-14(20,8-19-10-17-9-18-19)12-5-4-11(15)7-13(12)16/h4-5,7,9-10,20H,2-3,6,8H2,1H3
CH$LINK: CAS 79983-71-4
CH$LINK: CHEBI CHEBI:83711
CH$LINK: KEGG C18466
CH$LINK: PUBCHEM CID:66461
CH$LINK: INCHIKEY STMIIPIFODONDC-UHFFFAOYSA-N
CH$LINK: CHEMSPIDER 59833
AC$INSTRUMENT: Q Exactive Orbitrap (Thermo Scientific)
AC$INSTRUMENT_TYPE: LC-ESI-QFT
AC$MASS_SPECTROMETRY: MS_TYPE MS2
AC$MASS_SPECTROMETRY: ION_MODE POSITIVE
AC$MASS_SPECTROMETRY: IONIZATION ESI
AC$MASS_SPECTROMETRY: FRAGMENTATION_MODE HCD
AC$MASS_SPECTROMETRY: COLLISION_ENERGY 15
AC$MASS_SPECTROMETRY: RESOLUTION 17500
AC$CHROMATOGRAPHY: COLUMN_NAME Acquity BEH C18 1.7um, 2.1x150mm (Waters)
AC$CHROMATOGRAPHY: FLOW_GRADIENT 90/10 at 0-2 min, 0/100 at 15-20 min, 90/10 at 20.1-30 min
AC$CHROMATOGRAPHY: FLOW_RATE 0.20 mL/min
AC$CHROMATOGRAPHY: RETENTION_TIME 18.898 min
AC$CHROMATOGRAPHY: SOLVENT A 0.1% formic acid
AC$CHROMATOGRAPHY: SOLVENT B methanol
MS$FOCUSED_ION: BASE_PEAK 79.0211
MS$FOCUSED_ION: PRECURSOR_M/Z 314.0821
MS$FOCUSED_ION: PRECURSOR_TYPE [M+H]+
MS$FOCUSED_ION: PRECURSOR_INTENSITY 23081907.21875
MS$DATA_PROCESSING: RECALIBRATE loess on assigned fragments and MS1
MS$DATA_PROCESSING: REANALYZE Peaks with additional N2/O included
MS$DATA_PROCESSING: WHOLE RMassBank 2.99.2
PK$SPLASH: splash10-03di-2009000000-8f19290570e8a01e17e7
PK$ANNOTATION: m/z tentative_formula formula_count mass error(ppm)
  70.0399 C2H4N3+ 1 70.04 -0.79
  105.0335 C7H5O+ 3 105.0335 0.42
  158.9756 C7H5Cl2+ 2 158.9763 -3.99
  162.0659 C8H8N3O+ 2 162.0662 -1.67
  170.0162 C14H2+ 1 170.0151 6.57
  184.9919 C9H7Cl2+ 2 184.9919 -0.33
  245.0494 C12H15Cl2O+ 3 245.0494 -0.33
  314.0821 C14H18Cl2N3O+ 1 314.0821 -0.2
PK$NUM_PEAK: 8
PK$PEAK: m/z int. rel.int.
  70.0399 3962143.5 258
  105.0335 54785.7 3
  158.9756 61745.5 4
  162.0659 16120.6 1
  170.0162 19671.3 1
  184.9919 18839.9 1
  245.0494 94778.4 6
  314.0821 15320230 999
//
