ACCESSION: MSBNK-LCSB-LU092206
RECORD_TITLE: 6-Nitrobenzimidazole; LC-ESI-QFT; MS2; CE: 90; R=17500; [M+H]+
DATE: 2020.08.19
AUTHORS: Elapavalore, A.; Kondić, T.; Singh, R.; Schymanski, E.
LICENSE: CC BY
COPYRIGHT: Copyright © 2019 by Environmental Cheminformatics, LCSB, University of Luxembourg, Luxembourg
PUBLICATION: Elapavalore, A.; Kondić, T.; et al., Adding Open Spectral Data to MassBank and PubChem Using Open Source Tools to Support Non-Targeted Exposomics of Mixtures (submitted).
PROJECT: ENTACT U.S. Environmental Protection Agency’s Non-Targeted Analysis Collaborative Trial
COMMENT: CONFIDENCE standard compound
COMMENT: INTERNAL_ID 922
COMMENT: DATASET 20200303_ENTACT_RP_MIX508
COMMENT: DATA_PROCESSING MERGING RMBmix ver. 0.2.7
COMMENT: DATA_PROCESSING PRESCREENING Shinyscreen ver. 0.8.0
COMMENT: ORIGINAL_ACQUISITION_NO 5257
COMMENT: ORIGINAL_PRECURSOR_SCAN_NO 5254
COMMENT: RAW_DATA available as MSV000091754 at [DOI:10.25345/C5S46HG75]
CH$NAME: 6-Nitrobenzimidazole
CH$NAME: 5-Nitrobenzimidazole
CH$COMPOUND_CLASS: N/A; Environmental Standard
CH$FORMULA: C7H5N3O2
CH$EXACT_MASS: 163.0382
CH$SMILES: [O-][N+](=O)C1=CC2=C(NC=N2)C=C1
CH$IUPAC: InChI=1S/C7H5N3O2/c11-10(12)5-1-2-6-7(3-5)9-4-8-6/h1-4H,(H,8,9)
CH$LINK: CAS 94-52-0
CH$LINK: PUBCHEM CID:7195
CH$LINK: INCHIKEY XPAZGLFMMUODDK-UHFFFAOYSA-N
CH$LINK: CHEMSPIDER 6927
AC$INSTRUMENT: Q Exactive Orbitrap (Thermo Scientific)
AC$INSTRUMENT_TYPE: LC-ESI-QFT
AC$MASS_SPECTROMETRY: MS_TYPE MS2
AC$MASS_SPECTROMETRY: ION_MODE POSITIVE
AC$MASS_SPECTROMETRY: IONIZATION ESI
AC$MASS_SPECTROMETRY: FRAGMENTATION_MODE HCD
AC$MASS_SPECTROMETRY: COLLISION_ENERGY 90
AC$MASS_SPECTROMETRY: RESOLUTION 17500
AC$CHROMATOGRAPHY: COLUMN_NAME Acquity BEH C18 1.7um, 2.1x150mm (Waters)
AC$CHROMATOGRAPHY: FLOW_GRADIENT 90/10 at 0-2 min, 0/100 at 15-20 min, 90/10 at 20.1-30 min
AC$CHROMATOGRAPHY: FLOW_RATE 0.20 mL/min
AC$CHROMATOGRAPHY: RETENTION_TIME 10.079 min
AC$CHROMATOGRAPHY: SOLVENT A 0.1% formic acid
AC$CHROMATOGRAPHY: SOLVENT B methanol
MS$FOCUSED_ION: BASE_PEAK 79.0211
MS$FOCUSED_ION: PRECURSOR_M/Z 164.0455
MS$FOCUSED_ION: PRECURSOR_TYPE [M+H]+
MS$FOCUSED_ION: PRECURSOR_INTENSITY 13838925.4375
MS$DATA_PROCESSING: RECALIBRATE loess on assigned fragments and MS1
MS$DATA_PROCESSING: REANALYZE Peaks with additional N2/O included
MS$DATA_PROCESSING: WHOLE RMassBank 2.99.2
PK$SPLASH: splash10-0uxr-1900000000-fd9e87a9ccd2f7a33a44
PK$ANNOTATION: m/z tentative_formula formula_count mass error(ppm)
  52.0181 C3H2N+ 1 52.0182 -0.78
  54.0338 C3H4N+ 1 54.0338 0.3
  63.0228 C5H3+ 1 63.0229 -2.42
  64.0307 C5H4+ 1 64.0308 -1.33
  65.026 C4H3N+ 1 65.026 0.3
  67.0417 C4H5N+ 1 67.0417 0.84
  78.0337 C5H4N+ 1 78.0338 -0.99
  79.0416 C5H5N+ 1 79.0417 -0.53
  90.0338 C6H4N+ 1 90.0338 -0.02
  91.0416 C6H5N+ 1 91.0417 -0.34
  92.0368 C5H4N2+ 1 92.0369 -1.61
  93.0448 C5H5N2+ 1 93.0447 1.29
  94.0525 C5H6N2+ 1 94.0525 -0.24
  95.0366 C5H5NO+ 1 95.0366 -0.15
  96.0444 C5H6NO+ 1 96.0444 0.2
  105.0448 C6H5N2+ 1 105.0447 0.76
  106.0525 C6H6N2+ 1 106.0525 -0.21
  109.0396 C5H5N2O+ 1 109.0396 -0.57
  117.0447 C7H5N2+ 1 117.0447 -0.08
  118.0525 C7H6N2+ 1 118.0525 -0.68
  133.0396 C7H5N2O+ 1 133.0396 -0.38
  134.0473 C7H6N2O+ 1 134.0475 -0.92
  150.0423 C7H6N2O2+ 1 150.0424 -0.52
  152.0465 C6H6N3O2+ 1 152.0455 7.06
  164.0455 C7H6N3O2+ 1 164.0455 0.48
PK$NUM_PEAK: 25
PK$PEAK: m/z int. rel.int.
  52.0181 5961.3 1
  54.0338 20164.5 3
  63.0228 12908.2 2
  64.0307 21460.2 3
  65.026 10043.7 1
  67.0417 12674.5 2
  78.0337 8357 1
  79.0416 34252.9 6
  90.0338 8333.2 1
  91.0416 1044517.3 193
  92.0368 7611.1 1
  93.0448 14275.7 2
  94.0525 79398.9 14
  95.0366 6600 1
  96.0444 20820.6 3
  105.0448 9615.1 1
  106.0525 143340.1 26
  109.0396 6490.2 1
  117.0447 61933.4 11
  118.0525 4480392.5 831
  133.0396 342124.8 63
  134.0473 117557.5 21
  150.0423 5384583 999
  152.0465 23182.9 4
  164.0455 21743 4
//
