ACCESSION: MSBNK-LCSB-LU039101
RECORD_TITLE: Nelivaptan; LC-ESI-QFT; MS2; CE: 15; R=17500; [M+H]+
DATE: 2020.08.19
AUTHORS: Elapavalore, A.; Kondić, T.; Singh, R.; Schymanski, E.
LICENSE: CC BY
COPYRIGHT: Copyright © 2019 by Environmental Cheminformatics, LCSB, University of Luxembourg, Luxembourg
PUBLICATION: Elapavalore, A.; Kondić, T.; et al., Adding Open Spectral Data to MassBank and PubChem Using Open Source Tools to Support Non-Targeted Exposomics of Mixtures (submitted).
PROJECT: ENTACT U.S. Environmental Protection Agency’s Non-Targeted Analysis Collaborative Trial
COMMENT: CONFIDENCE standard compound
COMMENT: INTERNAL_ID 391
COMMENT: DATASET 20200303_ENTACT_RP_MIX505
COMMENT: DATA_PROCESSING MERGING RMBmix ver. 0.2.7
COMMENT: DATA_PROCESSING PRESCREENING Shinyscreen ver. 0.8.0
COMMENT: ORIGINAL_ACQUISITION_NO 9563
COMMENT: ORIGINAL_PRECURSOR_SCAN_NO 9558
COMMENT: RAW_DATA available as MSV000091754 at [DOI:10.25345/C5S46HG75]
CH$NAME: Nelivaptan
CH$NAME: (2S,4R)-1-[(3R)-5-chloro-1-(2,4-dimethoxyphenyl)sulfonyl-3-(2-methoxyphenyl)-2-oxoindol-3-yl]-4-hydroxy-N,N-dimethylpyrrolidine-2-carboxamide
CH$COMPOUND_CLASS: N/A; Environmental Standard
CH$FORMULA: C30H32ClN3O8S
CH$EXACT_MASS: 629.1599
CH$SMILES: COC1=CC(OC)=C(C=C1)S(=O)(=O)N1C(=O)[C@@](N2C[C@H](O)C[C@H]2C(=O)N(C)C)(C2=CC(Cl)=CC=C12)C1=CC=CC=C1OC
CH$IUPAC: InChI=1S/C30H32ClN3O8S/c1-32(2)28(36)24-15-19(35)17-33(24)30(21-8-6-7-9-25(21)41-4)22-14-18(31)10-12-23(22)34(29(30)37)43(38,39)27-13-11-20(40-3)16-26(27)42-5/h6-14,16,19,24,35H,15,17H2,1-5H3/t19-,24+,30+/m1/s1
CH$LINK: CAS 439687-69-1
CH$LINK: PUBCHEM CID:9895468
CH$LINK: INCHIKEY NJXZWIIMWNEOGJ-WEWKHQNJSA-N
CH$LINK: CHEMSPIDER 8071134
AC$INSTRUMENT: Q Exactive Orbitrap (Thermo Scientific)
AC$INSTRUMENT_TYPE: LC-ESI-QFT
AC$MASS_SPECTROMETRY: MS_TYPE MS2
AC$MASS_SPECTROMETRY: ION_MODE POSITIVE
AC$MASS_SPECTROMETRY: IONIZATION ESI
AC$MASS_SPECTROMETRY: FRAGMENTATION_MODE HCD
AC$MASS_SPECTROMETRY: COLLISION_ENERGY 15
AC$MASS_SPECTROMETRY: RESOLUTION 17500
AC$CHROMATOGRAPHY: COLUMN_NAME Acquity BEH C18 1.7um, 2.1x150mm (Waters)
AC$CHROMATOGRAPHY: FLOW_GRADIENT 90/10 at 0-2 min, 0/100 at 15-20 min, 90/10 at 20.1-30 min
AC$CHROMATOGRAPHY: FLOW_RATE 0.20 mL/min
AC$CHROMATOGRAPHY: RETENTION_TIME 18.171 min
AC$CHROMATOGRAPHY: SOLVENT A 0.1% formic acid
AC$CHROMATOGRAPHY: SOLVENT B methanol
MS$FOCUSED_ION: BASE_PEAK 79.0211
MS$FOCUSED_ION: PRECURSOR_M/Z 630.1671
MS$FOCUSED_ION: PRECURSOR_TYPE [M+H]+
MS$FOCUSED_ION: PRECURSOR_INTENSITY 7493667.75
MS$DATA_PROCESSING: RECALIBRATE loess on assigned fragments and MS1
MS$DATA_PROCESSING: REANALYZE Peaks with additional N2/O included
MS$DATA_PROCESSING: WHOLE RMassBank 2.99.2
PK$SPLASH: splash10-00di-0120900000-f74ee564a0041622fde3
PK$ANNOTATION: m/z tentative_formula formula_count mass error(ppm)
  151.0754 C9H11O2+ 7 151.0754 0.07
  153.0548 C8H9O3+ 5 153.0546 1.46
  157.0972 C7H13N2O2+ 5 157.0972 0.02
  185.0266 C8H9O3S+ 8 185.0267 -0.51
  201.0216 C8H9O4S+ 10 201.0216 -0.07
  219.0321 C8H11O5S+ 9 219.0322 -0.3
  233.0478 C9H13O5S+ 10 233.0478 -0.03
  254.0367 C15H9ClNO+ 13 254.0367 -0.12
  270.0317 C15H9ClNO2+ 14 270.0316 0.38
  472.0619 C23H19ClNO6S+ 13 472.0616 0.57
PK$NUM_PEAK: 10
PK$PEAK: m/z int. rel.int.
  151.0754 765081.2 103
  153.0548 11545.3 1
  157.0972 95181.7 12
  185.0266 7562.7 1
  201.0216 1210677.4 163
  219.0321 220658.7 29
  233.0478 127244.5 17
  254.0367 113478.6 15
  270.0317 42710.8 5
  472.0619 7400339.5 999
//
