ACCESSION: MSBNK-LCSB-LU125903
RECORD_TITLE: CP-471358; LC-ESI-QFT; MS2; CE: 45; R=17500; [M+H]+
DATE: 2020.08.19
AUTHORS: Elapavalore, A.; Kondić, T.; Singh, R.; Schymanski, E.
LICENSE: CC BY
COPYRIGHT: Copyright © 2019 by Environmental Cheminformatics, LCSB, University of Luxembourg, Luxembourg
PUBLICATION: Elapavalore, A.; Kondić, T.; et al., Adding Open Spectral Data to MassBank and PubChem Using Open Source Tools to Support Non-Targeted Exposomics of Mixtures (submitted).
PROJECT: ENTACT U.S. Environmental Protection Agency’s Non-Targeted Analysis Collaborative Trial
COMMENT: CONFIDENCE standard compound
COMMENT: INTERNAL_ID 1259
COMMENT: DATASET 20200303_ENTACT_RP_MIX504
COMMENT: DATA_PROCESSING MERGING RMBmix ver. 0.2.7
COMMENT: DATA_PROCESSING PRESCREENING Shinyscreen ver. 0.8.0
COMMENT: ORIGINAL_ACQUISITION_NO 8737
COMMENT: ORIGINAL_PRECURSOR_SCAN_NO 8734
COMMENT: RAW_DATA available as MSV000091754 at [DOI:10.25345/C5S46HG75]
CH$NAME: CP-471358
CH$NAME: 3-[[4-(4-fluorophenoxy)phenyl]sulfonyl-[1-(hydroxycarbamoyl)cyclopentyl]amino]propanoic acid
CH$COMPOUND_CLASS: N/A; Environmental Standard
CH$FORMULA: C21H23FN2O7S
CH$EXACT_MASS: 466.1210
CH$SMILES: ONC(=O)C1(CCCC1)N(CCC(O)=O)S(=O)(=O)C1=CC=C(OC2=CC=C(F)C=C2)C=C1
CH$IUPAC: InChI=1S/C21H23FN2O7S/c22-15-3-5-16(6-4-15)31-17-7-9-18(10-8-17)32(29,30)24(14-11-19(25)26)21(20(27)23-28)12-1-2-13-21/h3-10,28H,1-2,11-14H2,(H,23,27)(H,25,26)
CH$LINK: PUBCHEM CID:9869142
CH$LINK: INCHIKEY VHHGUBHZBLPTKL-UHFFFAOYSA-N
CH$LINK: CHEMSPIDER 8044833
AC$INSTRUMENT: Q Exactive Orbitrap (Thermo Scientific)
AC$INSTRUMENT_TYPE: LC-ESI-QFT
AC$MASS_SPECTROMETRY: MS_TYPE MS2
AC$MASS_SPECTROMETRY: ION_MODE POSITIVE
AC$MASS_SPECTROMETRY: IONIZATION ESI
AC$MASS_SPECTROMETRY: FRAGMENTATION_MODE HCD
AC$MASS_SPECTROMETRY: COLLISION_ENERGY 45
AC$MASS_SPECTROMETRY: RESOLUTION 17500
AC$CHROMATOGRAPHY: COLUMN_NAME Acquity BEH C18 1.7um, 2.1x150mm (Waters)
AC$CHROMATOGRAPHY: FLOW_GRADIENT 90/10 at 0-2 min, 0/100 at 15-20 min, 90/10 at 20.1-30 min
AC$CHROMATOGRAPHY: FLOW_RATE 0.20 mL/min
AC$CHROMATOGRAPHY: RETENTION_TIME 16.757 min
AC$CHROMATOGRAPHY: SOLVENT A 0.1% formic acid
AC$CHROMATOGRAPHY: SOLVENT B methanol
MS$FOCUSED_ION: BASE_PEAK 79.0212
MS$FOCUSED_ION: PRECURSOR_M/Z 467.1283
MS$FOCUSED_ION: PRECURSOR_TYPE [M+H]+
MS$FOCUSED_ION: PRECURSOR_INTENSITY 1172183.875
MS$DATA_PROCESSING: RECALIBRATE loess on assigned fragments and MS1
MS$DATA_PROCESSING: REANALYZE Peaks with additional N2/O included
MS$DATA_PROCESSING: WHOLE RMassBank 2.99.2
PK$SPLASH: splash10-0a4j-9600000000-f8ae4ffe24c9d4dc511f
PK$ANNOTATION: m/z tentative_formula formula_count mass error(ppm)
  67.054 C5H7+ 1 67.0542 -3
  90.0549 C3H8NO2+ 2 90.055 -0.71
  96.0808 C6H10N+ 3 96.0808 0.56
  156.1018 C8H14NO2+ 4 156.1019 -0.56
PK$NUM_PEAK: 4
PK$PEAK: m/z int. rel.int.
  67.054 1893.5 267
  90.0549 3499.2 494
  96.0808 4012 566
  156.1018 7074.5 999
//
