ACCESSION: MSBNK-LCSB-LU079902
RECORD_TITLE: Oxazepam; LC-ESI-QFT; MS2; CE: 30; R=17500; [M+H]+
DATE: 2020.08.19
AUTHORS: Elapavalore, A.; Kondić, T.; Singh, R.; Schymanski, E.
LICENSE: CC BY
COPYRIGHT: Copyright © 2019 by Environmental Cheminformatics, LCSB, University of Luxembourg, Luxembourg
PUBLICATION: Elapavalore, A.; Kondić, T.; et al., Adding Open Spectral Data to MassBank and PubChem Using Open Source Tools to Support Non-Targeted Exposomics of Mixtures (submitted).
PROJECT: ENTACT U.S. Environmental Protection Agency’s Non-Targeted Analysis Collaborative Trial
COMMENT: CONFIDENCE standard compound
COMMENT: INTERNAL_ID 799
COMMENT: DATASET 20200303_ENTACT_RP_MIX508
COMMENT: DATA_PROCESSING MERGING RMBmix ver. 0.2.7
COMMENT: DATA_PROCESSING PRESCREENING Shinyscreen ver. 0.8.0
COMMENT: ORIGINAL_ACQUISITION_NO 8781
COMMENT: ORIGINAL_PRECURSOR_SCAN_NO 8778
COMMENT: RAW_DATA available as MSV000091754 at [DOI:10.25345/C5S46HG75]
CH$NAME: Oxazepam
CH$NAME: 7-chloro-3-hydroxy-5-phenyl-1,3-dihydro-1,4-benzodiazepin-2-one
CH$COMPOUND_CLASS: N/A; Environmental Standard
CH$FORMULA: C15H11ClN2O2
CH$EXACT_MASS: 286.0509
CH$SMILES: OC1N=C(C2=CC=CC=C2)C2=CC(Cl)=CC=C2NC1=O
CH$IUPAC: InChI=1S/C15H11ClN2O2/c16-10-6-7-12-11(8-10)13(9-4-2-1-3-5-9)18-15(20)14(19)17-12/h1-8,15,20H,(H,17,19)
CH$LINK: CAS 604-75-1
CH$LINK: CHEBI CHEBI:7823
CH$LINK: KEGG C07359
CH$LINK: PUBCHEM CID:4616
CH$LINK: INCHIKEY ADIMAYPTOBDMTL-UHFFFAOYSA-N
CH$LINK: CHEMSPIDER 4455
AC$INSTRUMENT: Q Exactive Orbitrap (Thermo Scientific)
AC$INSTRUMENT_TYPE: LC-ESI-QFT
AC$MASS_SPECTROMETRY: MS_TYPE MS2
AC$MASS_SPECTROMETRY: ION_MODE POSITIVE
AC$MASS_SPECTROMETRY: IONIZATION ESI
AC$MASS_SPECTROMETRY: FRAGMENTATION_MODE HCD
AC$MASS_SPECTROMETRY: COLLISION_ENERGY 30
AC$MASS_SPECTROMETRY: RESOLUTION 17500
AC$CHROMATOGRAPHY: COLUMN_NAME Acquity BEH C18 1.7um, 2.1x150mm (Waters)
AC$CHROMATOGRAPHY: FLOW_GRADIENT 90/10 at 0-2 min, 0/100 at 15-20 min, 90/10 at 20.1-30 min
AC$CHROMATOGRAPHY: FLOW_RATE 0.20 mL/min
AC$CHROMATOGRAPHY: RETENTION_TIME 16.615 min
AC$CHROMATOGRAPHY: SOLVENT A 0.1% formic acid
AC$CHROMATOGRAPHY: SOLVENT B methanol
MS$FOCUSED_ION: BASE_PEAK 79.0211
MS$FOCUSED_ION: PRECURSOR_M/Z 287.0582
MS$FOCUSED_ION: PRECURSOR_TYPE [M+H]+
MS$FOCUSED_ION: PRECURSOR_INTENSITY 13483332.125
MS$DATA_PROCESSING: RECALIBRATE loess on assigned fragments and MS1
MS$DATA_PROCESSING: REANALYZE Peaks with additional N2/O included
MS$DATA_PROCESSING: WHOLE RMassBank 2.99.2
PK$SPLASH: splash10-014l-0090000000-dfe305ea1b2a05ae4bba
PK$ANNOTATION: m/z tentative_formula formula_count mass error(ppm)
  93.0573 C6H7N+ 1 93.0573 0.2
  104.0494 C7H6N+ 1 104.0495 -0.76
  128.0261 C6H7ClN+ 2 128.0262 -0.65
  153.0214 C7H6ClN2+ 2 153.0214 0.15
  156.0209 C7H7ClNO+ 2 156.0211 -1.14
  163.0058 C8H4ClN2+ 2 163.0058 0.37
  166.0054 C8H5ClNO+ 2 166.0054 -0.11
  207.0676 C14H9NO+ 2 207.0679 -1.43
  216.0573 C13H11ClN+ 1 216.0575 -0.57
  231.0684 C13H12ClN2+ 1 231.0684 0.16
  241.0526 C14H10ClN2+ 1 241.0527 -0.35
  242.0364 C14H9ClNO+ 1 242.0367 -1.31
  257.0481 C14H10ClN2O+ 1 257.0476 2.03
  258.0554 C14H11ClN2O+ 1 258.0554 -0.26
  259.0633 C14H12ClN2O+ 1 259.0633 0.29
  269.0475 C15H10ClN2O+ 1 269.0476 -0.3
  287.0582 C15H12ClN2O2+ 1 287.0582 -0.1
PK$NUM_PEAK: 17
PK$PEAK: m/z int. rel.int.
  93.0573 5476.6 1
  104.0494 101375.5 21
  128.0261 79159.7 16
  153.0214 18877.2 4
  156.0209 60164.8 12
  163.0058 5584.5 1
  166.0054 151559.7 32
  207.0676 8468.6 1
  216.0573 31471.8 6
  231.0684 652542.1 138
  241.0526 4600612 976
  242.0364 69714.7 14
  257.0481 15955.6 3
  258.0554 21972.1 4
  259.0633 14428.7 3
  269.0475 4706685 999
  287.0582 1567767.9 332
//
