ACCESSION: MSBNK-LCSB-LU039454
RECORD_TITLE: 4-Nitroanthranilic acid; LC-ESI-QFT; MS2; CE: 60; R=17500; [M-H]-
DATE: 2020.08.19
AUTHORS: Elapavalore, A.; Kondić, T.; Singh, R.; Schymanski, E.
LICENSE: CC BY
COPYRIGHT: Copyright © 2019 by Environmental Cheminformatics, LCSB, University of Luxembourg, Luxembourg
PUBLICATION: Elapavalore, A.; Kondić, T.; et al., Adding Open Spectral Data to MassBank and PubChem Using Open Source Tools to Support Non-Targeted Exposomics of Mixtures (submitted).
PROJECT: ENTACT U.S. Environmental Protection Agency’s Non-Targeted Analysis Collaborative Trial
COMMENT: CONFIDENCE standard compound
COMMENT: INTERNAL_ID 394
COMMENT: DATASET 20200303_ENTACT_RP_MIX505
COMMENT: DATA_PROCESSING MERGING RMBmix ver. 0.2.7
COMMENT: DATA_PROCESSING PRESCREENING Shinyscreen ver. 0.8.0
COMMENT: ORIGINAL_ACQUISITION_NO 3790
COMMENT: ORIGINAL_PRECURSOR_SCAN_NO 3785
COMMENT: RAW_DATA available as MSV000091754 at [DOI:10.25345/C5S46HG75]
CH$NAME: 4-Nitroanthranilic acid
CH$NAME: 2-amino-4-nitrobenzoic acid
CH$COMPOUND_CLASS: N/A; Environmental Standard
CH$FORMULA: C7H6N2O4
CH$EXACT_MASS: 182.0328
CH$SMILES: NC1=C(C=CC(=C1)[N+]([O-])=O)C(O)=O
CH$IUPAC: InChI=1S/C7H6N2O4/c8-6-3-4(9(12)13)1-2-5(6)7(10)11/h1-3H,8H2,(H,10,11)
CH$LINK: CAS 619-17-0
CH$LINK: CHEBI CHEBI:75335
CH$LINK: PUBCHEM CID:12076
CH$LINK: INCHIKEY UEALKTCRMBVTFN-UHFFFAOYSA-N
CH$LINK: CHEMSPIDER 11579
AC$INSTRUMENT: Q Exactive Orbitrap (Thermo Scientific)
AC$INSTRUMENT_TYPE: LC-ESI-QFT
AC$MASS_SPECTROMETRY: MS_TYPE MS2
AC$MASS_SPECTROMETRY: ION_MODE NEGATIVE
AC$MASS_SPECTROMETRY: IONIZATION ESI
AC$MASS_SPECTROMETRY: FRAGMENTATION_MODE HCD
AC$MASS_SPECTROMETRY: COLLISION_ENERGY 60
AC$MASS_SPECTROMETRY: RESOLUTION 17500
AC$CHROMATOGRAPHY: COLUMN_NAME Acquity BEH C18 1.7um, 2.1x150mm (Waters)
AC$CHROMATOGRAPHY: FLOW_GRADIENT 90/10 at 0-2 min, 0/100 at 15-20 min, 90/10 at 20.1-30 min
AC$CHROMATOGRAPHY: FLOW_RATE 0.20 mL/min
AC$CHROMATOGRAPHY: RETENTION_TIME 14.834 min
AC$CHROMATOGRAPHY: SOLVENT A 0.1% formic acid
AC$CHROMATOGRAPHY: SOLVENT B methanol
MS$FOCUSED_ION: BASE_PEAK 307.0282
MS$FOCUSED_ION: PRECURSOR_M/Z 181.0255
MS$FOCUSED_ION: PRECURSOR_TYPE [M-H]-
MS$FOCUSED_ION: PRECURSOR_INTENSITY 5871408.293457
MS$DATA_PROCESSING: RECALIBRATE loess on assigned fragments and MS1
MS$DATA_PROCESSING: REANALYZE Peaks with additional N2/O included
MS$DATA_PROCESSING: WHOLE RMassBank 2.99.2
PK$SPLASH: splash10-0a4r-0900000000-c825deefa7e99e61e94d
PK$ANNOTATION: m/z tentative_formula formula_count mass error(ppm)
  79.0429 C5H5N- 1 79.0427 2.11
  80.0268 C5H4O- 1 80.0268 0.33
  90.035 C6H4N- 1 90.0349 0.32
  92.9938 HN2O4- 1 92.9942 -4.14
  106.0299 C6H4NO- 1 106.0298 0.75
  107.0377 C6H5NO- 1 107.0377 0.2
  122.0247 C6H4NO2- 1 122.0248 -0.55
  137.0357 C6H5N2O2- 1 137.0357 0.06
PK$NUM_PEAK: 8
PK$PEAK: m/z int. rel.int.
  79.0429 3162.1 4
  80.0268 80095.6 110
  90.035 14236.4 19
  92.9938 4535.9 6
  106.0299 5482.2 7
  107.0377 723797.8 999
  122.0247 1918.9 2
  137.0357 443760.8 612
//
