ACCESSION: MSBNK-LCSB-LU057403
RECORD_TITLE: 4-Hexyloxyaniline; LC-ESI-QFT; MS2; CE: 45; R=17500; [M+H]+
DATE: 2020.08.19
AUTHORS: Elapavalore, A.; Kondić, T.; Singh, R.; Schymanski, E.
LICENSE: CC BY
COPYRIGHT: Copyright © 2019 by Environmental Cheminformatics, LCSB, University of Luxembourg, Luxembourg
PUBLICATION: Elapavalore, A.; Kondić, T.; et al., Adding Open Spectral Data to MassBank and PubChem Using Open Source Tools to Support Non-Targeted Exposomics of Mixtures (submitted).
PROJECT: ENTACT U.S. Environmental Protection Agency’s Non-Targeted Analysis Collaborative Trial
COMMENT: CONFIDENCE standard compound
COMMENT: INTERNAL_ID 574
COMMENT: DATASET 20200303_ENTACT_RP_MIX506
COMMENT: DATA_PROCESSING MERGING RMBmix ver. 0.2.7
COMMENT: DATA_PROCESSING PRESCREENING Shinyscreen ver. 0.8.0
COMMENT: ORIGINAL_ACQUISITION_NO 8330
COMMENT: ORIGINAL_PRECURSOR_SCAN_NO 8328
COMMENT: RAW_DATA available as MSV000091754 at [DOI:10.25345/C5S46HG75]
CH$NAME: 4-Hexyloxyaniline
CH$NAME: 4-hexoxyaniline
CH$COMPOUND_CLASS: N/A; Environmental Standard
CH$FORMULA: C12H19NO
CH$EXACT_MASS: 193.1467
CH$SMILES: CCCCCCOC1=CC=C(N)C=C1
CH$IUPAC: InChI=1S/C12H19NO/c1-2-3-4-5-10-14-12-8-6-11(13)7-9-12/h6-9H,2-5,10,13H2,1H3
CH$LINK: CAS 39905-57-2
CH$LINK: PUBCHEM CID:38360
CH$LINK: INCHIKEY DJRKHTCUXRGYEU-UHFFFAOYSA-N
CH$LINK: CHEMSPIDER 35159
AC$INSTRUMENT: Q Exactive Orbitrap (Thermo Scientific)
AC$INSTRUMENT_TYPE: LC-ESI-QFT
AC$MASS_SPECTROMETRY: MS_TYPE MS2
AC$MASS_SPECTROMETRY: ION_MODE POSITIVE
AC$MASS_SPECTROMETRY: IONIZATION ESI
AC$MASS_SPECTROMETRY: FRAGMENTATION_MODE HCD
AC$MASS_SPECTROMETRY: COLLISION_ENERGY 45
AC$MASS_SPECTROMETRY: RESOLUTION 17500
AC$CHROMATOGRAPHY: COLUMN_NAME Acquity BEH C18 1.7um, 2.1x150mm (Waters)
AC$CHROMATOGRAPHY: FLOW_GRADIENT 90/10 at 0-2 min, 0/100 at 15-20 min, 90/10 at 20.1-30 min
AC$CHROMATOGRAPHY: FLOW_RATE 0.20 mL/min
AC$CHROMATOGRAPHY: RETENTION_TIME 15.896 min
AC$CHROMATOGRAPHY: SOLVENT A 0.1% formic acid
AC$CHROMATOGRAPHY: SOLVENT B methanol
MS$FOCUSED_ION: BASE_PEAK 79.0211
MS$FOCUSED_ION: PRECURSOR_M/Z 194.1539
MS$FOCUSED_ION: PRECURSOR_TYPE [M+H]+
MS$FOCUSED_ION: PRECURSOR_INTENSITY 17972993.53125
MS$DATA_PROCESSING: RECALIBRATE loess on assigned fragments and MS1
MS$DATA_PROCESSING: REANALYZE Peaks with additional N2/O included
MS$DATA_PROCESSING: WHOLE RMassBank 2.99.2
PK$SPLASH: splash10-03dl-0900000000-8d3f27efdf9282da4880
PK$ANNOTATION: m/z tentative_formula formula_count mass error(ppm)
  53.0022 C3HO+ 1 53.0022 0.3
  57.0699 C4H9+ 1 57.0699 -0.33
  65.0385 C5H5+ 1 65.0386 -0.96
  67.0541 C5H7+ 1 67.0542 -1.27
  80.0494 C5H6N+ 1 80.0495 -0.69
  82.0651 C5H8N+ 1 82.0651 -0.45
  85.1011 C6H13+ 1 85.1012 -0.89
  92.0494 C6H6N+ 1 92.0495 -0.43
  93.0335 C6H5O+ 1 93.0335 -0.01
  93.0572 C6H7N+ 1 93.0573 -1.39
  109.0522 C6H7NO+ 1 109.0522 0.31
  110.06 C6H8NO+ 1 110.06 -0.56
  124.0757 C7H10NO+ 1 124.0757 0.13
  193.1464 C12H19NO+ 1 193.1461 1.58
  194.1539 C12H20NO+ 1 194.1539 -0.21
PK$NUM_PEAK: 15
PK$PEAK: m/z int. rel.int.
  53.0022 16297.9 1
  57.0699 47764 5
  65.0385 253795.5 27
  67.0541 46105.3 5
  80.0494 11246.5 1
  82.0651 259478.6 28
  85.1011 10492.2 1
  92.0494 578136.2 63
  93.0335 411796.2 45
  93.0572 27484 3
  109.0522 92769.4 10
  110.06 9083680 999
  124.0757 15589.2 1
  193.1464 15492.3 1
  194.1539 6325420.5 695
//
