ACCESSION: MSBNK-LCSB-LU026653
RECORD_TITLE: PD-0333941; LC-ESI-QFT; MS2; CE: 45; R=17500; [M-H]-
DATE: 2020.08.19
AUTHORS: Elapavalore, A.; Kondić, T.; Singh, R.; Schymanski, E.
LICENSE: CC BY
COPYRIGHT: Copyright © 2019 by Environmental Cheminformatics, LCSB, University of Luxembourg, Luxembourg
PUBLICATION: Elapavalore, A.; Kondić, T.; et al., Adding Open Spectral Data to MassBank and PubChem Using Open Source Tools to Support Non-Targeted Exposomics of Mixtures (submitted).
PROJECT: ENTACT U.S. Environmental Protection Agency’s Non-Targeted Analysis Collaborative Trial
COMMENT: CONFIDENCE standard compound
COMMENT: INTERNAL_ID 266
COMMENT: DATASET 20200303_ENTACT_RP_MIX505
COMMENT: DATA_PROCESSING MERGING RMBmix ver. 0.2.7
COMMENT: DATA_PROCESSING PRESCREENING Shinyscreen ver. 0.8.0
COMMENT: ORIGINAL_ACQUISITION_NO 5239
COMMENT: ORIGINAL_PRECURSOR_SCAN_NO 5234
COMMENT: RAW_DATA available as MSV000091754 at [DOI:10.25345/C5S46HG75]
CH$NAME: PD-0333941
CH$NAME: 3-[4-[2-(5-methyl-2-phenyl-1,3-oxazol-4-yl)ethoxy]indol-1-yl]propanoic acid
CH$COMPOUND_CLASS: N/A; Environmental Standard
CH$FORMULA: C23H22N2O4
CH$EXACT_MASS: 390.1580
CH$SMILES: CC1=C(CCOC2=CC=CC3=C2C=CN3CCC(O)=O)N=C(O1)C1=CC=CC=C1
CH$IUPAC: InChI=1S/C23H22N2O4/c1-16-19(24-23(29-16)17-6-3-2-4-7-17)12-15-28-21-9-5-8-20-18(21)10-13-25(20)14-11-22(26)27/h2-10,13H,11-12,14-15H2,1H3,(H,26,27)
CH$LINK: PUBCHEM CID:10134976
CH$LINK: INCHIKEY OMSPUVWUIHNYCS-UHFFFAOYSA-N
CH$LINK: CHEMSPIDER 8310489
AC$INSTRUMENT: Q Exactive Orbitrap (Thermo Scientific)
AC$INSTRUMENT_TYPE: LC-ESI-QFT
AC$MASS_SPECTROMETRY: MS_TYPE MS2
AC$MASS_SPECTROMETRY: ION_MODE NEGATIVE
AC$MASS_SPECTROMETRY: IONIZATION ESI
AC$MASS_SPECTROMETRY: FRAGMENTATION_MODE HCD
AC$MASS_SPECTROMETRY: COLLISION_ENERGY 45
AC$MASS_SPECTROMETRY: RESOLUTION 17500
AC$CHROMATOGRAPHY: COLUMN_NAME Acquity BEH C18 1.7um, 2.1x150mm (Waters)
AC$CHROMATOGRAPHY: FLOW_GRADIENT 90/10 at 0-2 min, 0/100 at 15-20 min, 90/10 at 20.1-30 min
AC$CHROMATOGRAPHY: FLOW_RATE 0.20 mL/min
AC$CHROMATOGRAPHY: RETENTION_TIME 18.689 min
AC$CHROMATOGRAPHY: SOLVENT A 0.1% formic acid
AC$CHROMATOGRAPHY: SOLVENT B methanol
MS$FOCUSED_ION: BASE_PEAK 322.1448
MS$FOCUSED_ION: PRECURSOR_M/Z 389.1507
MS$FOCUSED_ION: PRECURSOR_TYPE [M-H]-
MS$FOCUSED_ION: PRECURSOR_INTENSITY 14390846.57813
MS$DATA_PROCESSING: RECALIBRATE loess on assigned fragments and MS1
MS$DATA_PROCESSING: REANALYZE Peaks with additional N2/O included
MS$DATA_PROCESSING: WHOLE RMassBank 2.99.2
PK$SPLASH: splash10-001i-0900000000-380e35f2a55b1b29dbfe
PK$ANNOTATION: m/z tentative_formula formula_count mass error(ppm)
  119.0502 C8H7O- 1 119.0502 -0.43
  120.0453 C7H6NO- 1 120.0455 -1.46
  131.0376 C8H5NO- 1 131.0377 -0.64
  132.0453 C8H6NO- 1 132.0455 -1.19
  144.0455 C9H6NO- 1 144.0455 0.11
  145.0532 C9H7NO- 1 145.0533 -0.82
  146.0609 C9H8NO- 1 146.0611 -1.63
  158.0612 C10H8NO- 1 158.0611 0.22
  172.0769 C11H10NO- 1 172.0768 0.6
  196.0771 C13H10NO- 1 196.0768 1.36
  317.1294 C20H17N2O2- 1 317.1296 -0.58
PK$NUM_PEAK: 11
PK$PEAK: m/z int. rel.int.
  119.0502 8438 1
  120.0453 21534.8 2
  131.0376 8404990 999
  132.0453 595241.9 70
  144.0455 52749.6 6
  145.0532 9466.4 1
  146.0609 9375 1
  158.0612 12474 1
  172.0769 24469.9 2
  196.0771 24866.6 2
  317.1294 172788.4 20
//
