ACCESSION: MSBNK-LCSB-LU128654
RECORD_TITLE: Nitrofurazone; LC-ESI-QFT; MS2; CE: 60; R=17500; [M-H]-
DATE: 2020.08.19
AUTHORS: Elapavalore, A.; Kondić, T.; Singh, R.; Schymanski, E.
LICENSE: CC BY
COPYRIGHT: Copyright © 2019 by Environmental Cheminformatics, LCSB, University of Luxembourg, Luxembourg
PUBLICATION: Elapavalore, A.; Kondić, T.; et al., Adding Open Spectral Data to MassBank and PubChem Using Open Source Tools to Support Non-Targeted Exposomics of Mixtures (submitted).
PROJECT: ENTACT U.S. Environmental Protection Agency’s Non-Targeted Analysis Collaborative Trial
COMMENT: CONFIDENCE standard compound
COMMENT: INTERNAL_ID 1286
COMMENT: DATASET 20200303_ENTACT_RP_MIX504
COMMENT: DATA_PROCESSING MERGING RMBmix ver. 0.2.7
COMMENT: DATA_PROCESSING PRESCREENING Shinyscreen ver. 0.8.0
COMMENT: ORIGINAL_ACQUISITION_NO 2685
COMMENT: ORIGINAL_PRECURSOR_SCAN_NO 2682
COMMENT: RAW_DATA available as MSV000091754 at [DOI:10.25345/C5S46HG75]
CH$NAME: Nitrofurazone
CH$NAME: [(E)-(5-nitrofuran-2-yl)methylideneamino]urea
CH$COMPOUND_CLASS: N/A; Environmental Standard
CH$FORMULA: C6H6N4O4
CH$EXACT_MASS: 198.0389
CH$SMILES: NC(=O)N\N=C\C1=CC=C(O1)[N+]([O-])=O
CH$IUPAC: InChI=1S/C6H6N4O4/c7-6(11)9-8-3-4-1-2-5(14-4)10(12)13/h1-3H,(H3,7,9,11)/b8-3+
CH$LINK: CAS 59-87-0
CH$LINK: CHEBI CHEBI:44368
CH$LINK: KEGG D00862
CH$LINK: PUBCHEM CID:5447130
CH$LINK: INCHIKEY IAIWVQXQOWNYOU-FPYGCLRLSA-N
CH$LINK: CHEMSPIDER 4566720
AC$INSTRUMENT: Q Exactive Orbitrap (Thermo Scientific)
AC$INSTRUMENT_TYPE: LC-ESI-QFT
AC$MASS_SPECTROMETRY: MS_TYPE MS2
AC$MASS_SPECTROMETRY: ION_MODE NEGATIVE
AC$MASS_SPECTROMETRY: IONIZATION ESI
AC$MASS_SPECTROMETRY: FRAGMENTATION_MODE HCD
AC$MASS_SPECTROMETRY: COLLISION_ENERGY 60
AC$MASS_SPECTROMETRY: RESOLUTION 17500
AC$CHROMATOGRAPHY: COLUMN_NAME Acquity BEH C18 1.7um, 2.1x150mm (Waters)
AC$CHROMATOGRAPHY: FLOW_GRADIENT 90/10 at 0-2 min, 0/100 at 15-20 min, 90/10 at 20.1-30 min
AC$CHROMATOGRAPHY: FLOW_RATE 0.20 mL/min
AC$CHROMATOGRAPHY: RETENTION_TIME 11.044 min
AC$CHROMATOGRAPHY: SOLVENT A 0.1% formic acid
AC$CHROMATOGRAPHY: SOLVENT B methanol
MS$FOCUSED_ION: BASE_PEAK 116.9285
MS$FOCUSED_ION: PRECURSOR_M/Z 197.0316
MS$FOCUSED_ION: PRECURSOR_TYPE [M-H]-
MS$FOCUSED_ION: PRECURSOR_INTENSITY 1753893.531982
MS$DATA_PROCESSING: RECALIBRATE loess on assigned fragments and MS1
MS$DATA_PROCESSING: REANALYZE Peaks with additional N2/O included
MS$DATA_PROCESSING: WHOLE RMassBank 2.99.2
PK$SPLASH: splash10-05o1-9100000000-3bfaf343549c655346fd
PK$ANNOTATION: m/z tentative_formula formula_count mass error(ppm)
  67.0302 C3H3N2- 1 67.0302 0.7
  79.0303 C4H3N2- 1 79.0302 1.48
  80.0381 C4H4N2- 1 80.038 0.87
  82.0173 C3H2N2O- 1 82.0173 0.65
  92.0254 C4H2N3- 1 92.0254 -0.72
  95.0138 C5H3O2- 2 95.0139 -0.64
  107.0252 C5H3N2O- 1 107.0251 0.88
PK$NUM_PEAK: 7
PK$PEAK: m/z int. rel.int.
  67.0302 7528.6 713
  79.0303 3109.3 294
  80.0381 5221.6 494
  82.0173 5974.6 566
  92.0254 1861.2 176
  95.0138 10545 999
  107.0252 6679.7 632
//
