ACCESSION: MSBNK-LCSB-LU133456
RECORD_TITLE: Dinotefuran; LC-ESI-QFT; MS2; CE: 90; R=17500; [M-H]-
DATE: 2020.08.19
AUTHORS: Elapavalore, A.; Kondić, T.; Singh, R.; Schymanski, E.
LICENSE: CC BY
COPYRIGHT: Copyright © 2019 by Environmental Cheminformatics, LCSB, University of Luxembourg, Luxembourg
PUBLICATION: Elapavalore, A.; Kondić, T.; et al., Adding Open Spectral Data to MassBank and PubChem Using Open Source Tools to Support Non-Targeted Exposomics of Mixtures (submitted).
PROJECT: ENTACT U.S. Environmental Protection Agency’s Non-Targeted Analysis Collaborative Trial
COMMENT: CONFIDENCE standard compound
COMMENT: INTERNAL_ID 1334
COMMENT: DATASET 20200303_ENTACT_RP_MIX504
COMMENT: DATA_PROCESSING MERGING RMBmix ver. 0.2.7
COMMENT: DATA_PROCESSING PRESCREENING Shinyscreen ver. 0.8.0
COMMENT: ORIGINAL_ACQUISITION_NO 2265
COMMENT: ORIGINAL_PRECURSOR_SCAN_NO 2263
COMMENT: RAW_DATA available as MSV000091754 at [DOI:10.25345/C5S46HG75]
CH$NAME: Dinotefuran
CH$NAME: Scorpion
CH$NAME: 2-methyl-1-nitro-3-(oxolan-3-ylmethyl)guanidine
CH$COMPOUND_CLASS: N/A; Environmental Standard
CH$FORMULA: C7H14N4O3
CH$EXACT_MASS: 202.1066
CH$SMILES: CNC(NCC1CCOC1)=N[N+]([O-])=O
CH$IUPAC: InChI=1S/C7H14N4O3/c1-8-7(10-11(12)13)9-4-6-2-3-14-5-6/h6H,2-5H2,1H3,(H2,8,9,10)
CH$LINK: CAS 322639-07-6
CH$LINK: KEGG C18509
CH$LINK: PUBCHEM CID:197701
CH$LINK: INCHIKEY YKBZOVFACRVRJN-UHFFFAOYSA-N
CH$LINK: CHEMSPIDER 171124
AC$INSTRUMENT: Q Exactive Orbitrap (Thermo Scientific)
AC$INSTRUMENT_TYPE: LC-ESI-QFT
AC$MASS_SPECTROMETRY: MS_TYPE MS2
AC$MASS_SPECTROMETRY: ION_MODE NEGATIVE
AC$MASS_SPECTROMETRY: IONIZATION ESI
AC$MASS_SPECTROMETRY: FRAGMENTATION_MODE HCD
AC$MASS_SPECTROMETRY: COLLISION_ENERGY 90
AC$MASS_SPECTROMETRY: RESOLUTION 17500
AC$CHROMATOGRAPHY: COLUMN_NAME Acquity BEH C18 1.7um, 2.1x150mm (Waters)
AC$CHROMATOGRAPHY: FLOW_GRADIENT 90/10 at 0-2 min, 0/100 at 15-20 min, 90/10 at 20.1-30 min
AC$CHROMATOGRAPHY: FLOW_RATE 0.20 mL/min
AC$CHROMATOGRAPHY: RETENTION_TIME 9.295 min
AC$CHROMATOGRAPHY: SOLVENT A 0.1% formic acid
AC$CHROMATOGRAPHY: SOLVENT B methanol
MS$FOCUSED_ION: BASE_PEAK 201.0993
MS$FOCUSED_ION: PRECURSOR_M/Z 201.0993
MS$FOCUSED_ION: PRECURSOR_TYPE [M-H]-
MS$FOCUSED_ION: PRECURSOR_INTENSITY 10103142.15918
MS$DATA_PROCESSING: RECALIBRATE loess on assigned fragments and MS1
MS$DATA_PROCESSING: REANALYZE Peaks with additional N2/O included
MS$DATA_PROCESSING: WHOLE RMassBank 2.99.2
PK$SPLASH: splash10-03di-9000000000-2be5df7ecbac89e8f884
PK$ANNOTATION: m/z tentative_formula formula_count mass error(ppm)
  52.0192 C3H2N- 1 52.0193 -1.6
  55.0301 C2H3N2- 1 55.0302 -1.01
  61.0043 HN2O2- 1 61.0044 -0.22
  66.0349 C4H4N- 1 66.0349 0.22
  67.0301 C3H3N2- 1 67.0302 -0.44
  68.0506 C4H6N- 1 68.0506 -0.27
  81.0458 C4H5N2- 1 81.0458 -0.38
  125.0721 C6H9N2O- 1 125.072 0.61
PK$NUM_PEAK: 8
PK$PEAK: m/z int. rel.int.
  52.0192 2277 5
  55.0301 60842.8 139
  61.0043 435421.3 999
  66.0349 15775.1 36
  67.0301 3552.3 8
  68.0506 10288.6 23
  81.0458 1943.4 4
  125.0721 2874.3 6
//
