ACCESSION: MSBNK-LCSB-LU039554
RECORD_TITLE: Topiramate; LC-ESI-QFT; MS2; CE: 60; R=17500; [M-H]-
DATE: 2020.08.19
AUTHORS: Elapavalore, A.; Kondić, T.; Singh, R.; Schymanski, E.
LICENSE: CC BY
COPYRIGHT: Copyright © 2019 by Environmental Cheminformatics, LCSB, University of Luxembourg, Luxembourg
PUBLICATION: Elapavalore, A.; Kondić, T.; et al., Adding Open Spectral Data to MassBank and PubChem Using Open Source Tools to Support Non-Targeted Exposomics of Mixtures (submitted).
PROJECT: ENTACT U.S. Environmental Protection Agency’s Non-Targeted Analysis Collaborative Trial
COMMENT: CONFIDENCE standard compound
COMMENT: INTERNAL_ID 395
COMMENT: DATASET 20200303_ENTACT_RP_MIX505
COMMENT: DATA_PROCESSING MERGING RMBmix ver. 0.2.7
COMMENT: DATA_PROCESSING PRESCREENING Shinyscreen ver. 0.8.0
COMMENT: ORIGINAL_ACQUISITION_NO 3597
COMMENT: ORIGINAL_PRECURSOR_SCAN_NO 3596
COMMENT: RAW_DATA available as MSV000091754 at [DOI:10.25345/C5S46HG75]
CH$NAME: Topiramate
CH$NAME: [(1R,2S,6S,9R)-4,4,11,11-tetramethyl-3,5,7,10,12-pentaoxatricyclo[7.3.0.02,6]dodecan-6-yl]methyl sulfamate
CH$COMPOUND_CLASS: N/A; Environmental Standard
CH$FORMULA: C12H21NO8S
CH$EXACT_MASS: 339.0988
CH$SMILES: CC1(C)O[C@@H]2CO[C@@]3(COS(N)(=O)=O)OC(C)(C)O[C@H]3[C@@H]2O1
CH$IUPAC: InChI=1S/C12H21NO8S/c1-10(2)18-7-5-16-12(6-17-22(13,14)15)9(8(7)19-10)20-11(3,4)21-12/h7-9H,5-6H2,1-4H3,(H2,13,14,15)/t7-,8-,9+,12+/m1/s1
CH$LINK: CAS 97240-79-4
CH$LINK: CHEBI CHEBI:63631
CH$LINK: KEGG C07502
CH$LINK: PUBCHEM CID:5284627
CH$LINK: INCHIKEY KJADKKWYZYXHBB-XBWDGYHZSA-N
CH$LINK: CHEMSPIDER 4447672
AC$INSTRUMENT: Q Exactive Orbitrap (Thermo Scientific)
AC$INSTRUMENT_TYPE: LC-ESI-QFT
AC$MASS_SPECTROMETRY: MS_TYPE MS2
AC$MASS_SPECTROMETRY: ION_MODE NEGATIVE
AC$MASS_SPECTROMETRY: IONIZATION ESI
AC$MASS_SPECTROMETRY: FRAGMENTATION_MODE HCD
AC$MASS_SPECTROMETRY: COLLISION_ENERGY 60
AC$MASS_SPECTROMETRY: RESOLUTION 17500
AC$CHROMATOGRAPHY: COLUMN_NAME Acquity BEH C18 1.7um, 2.1x150mm (Waters)
AC$CHROMATOGRAPHY: FLOW_GRADIENT 90/10 at 0-2 min, 0/100 at 15-20 min, 90/10 at 20.1-30 min
AC$CHROMATOGRAPHY: FLOW_RATE 0.20 mL/min
AC$CHROMATOGRAPHY: RETENTION_TIME 14.210 min
AC$CHROMATOGRAPHY: SOLVENT A 0.1% formic acid
AC$CHROMATOGRAPHY: SOLVENT B methanol
MS$FOCUSED_ION: BASE_PEAK 211.0612
MS$FOCUSED_ION: PRECURSOR_M/Z 338.0915
MS$FOCUSED_ION: PRECURSOR_TYPE [M-H]-
MS$FOCUSED_ION: PRECURSOR_INTENSITY 6262394.635254
MS$DATA_PROCESSING: RECALIBRATE loess on assigned fragments and MS1
MS$DATA_PROCESSING: REANALYZE Peaks with additional N2/O included
MS$DATA_PROCESSING: WHOLE RMassBank 2.99.2
PK$SPLASH: splash10-004i-9000000000-8b5729bff109dc88c890
PK$ANNOTATION: m/z tentative_formula formula_count mass error(ppm)
  61.9706 NOS- 1 61.9706 -0.91
  63.9625 O2S- 1 63.9624 0.19
  77.9655 NO2S- 1 77.9655 0.06
  79.9573 O3S- 1 79.9574 -0.2
  79.9812 H2NO2S- 1 79.9812 0.3
  80.9651 HO3S- 1 80.9652 -0.78
  83.0139 C4H3O2- 1 83.0139 0.96
  85.0296 C4H5O2- 1 85.0295 0.65
  94.9683 HNO3S- 1 94.9683 0.01
  95.9761 H2NO3S- 1 95.9761 0.23
  96.9601 HO4S- 1 96.9601 -0.18
  97.0295 C5H5O2- 1 97.0295 -0.06
  112.0405 C5H6NO2- 1 112.0404 0.56
  122.0247 C6H4NO2- 2 122.0248 -0.24
  124.0406 C6H6NO2- 2 124.0404 1.43
  125.0246 C6H5O3- 1 125.0244 1.49
PK$NUM_PEAK: 16
PK$PEAK: m/z int. rel.int.
  61.9706 11406.2 3
  63.9625 70449.2 18
  77.9655 3779541.5 999
  79.9573 53691.5 14
  79.9812 24892.4 6
  80.9651 20640.5 5
  83.0139 6408.1 1
  85.0296 8165.8 2
  94.9683 5655.1 1
  95.9761 315286.3 83
  96.9601 9638.3 2
  97.0295 14212.5 3
  112.0405 4382.7 1
  122.0247 4632.1 1
  124.0406 4987 1
  125.0246 5045.3 1
//
