ACCESSION: MSBNK-LCSB-LU062301
RECORD_TITLE: Pirimiphos-ethyl; LC-ESI-QFT; MS2; CE: 15; R=17500; [M+H]+
DATE: 2020.08.19
AUTHORS: Elapavalore, A.; Kondić, T.; Singh, R.; Schymanski, E.
LICENSE: CC BY
COPYRIGHT: Copyright © 2019 by Environmental Cheminformatics, LCSB, University of Luxembourg, Luxembourg
PUBLICATION: Elapavalore, A.; Kondić, T.; et al., Adding Open Spectral Data to MassBank and PubChem Using Open Source Tools to Support Non-Targeted Exposomics of Mixtures (submitted).
PROJECT: ENTACT U.S. Environmental Protection Agency’s Non-Targeted Analysis Collaborative Trial
COMMENT: CONFIDENCE standard compound
COMMENT: INTERNAL_ID 623
COMMENT: DATASET 20200303_ENTACT_RP_MIX506
COMMENT: DATA_PROCESSING MERGING RMBmix ver. 0.2.7
COMMENT: DATA_PROCESSING PRESCREENING Shinyscreen ver. 0.8.0
COMMENT: ORIGINAL_ACQUISITION_NO 10210
COMMENT: ORIGINAL_PRECURSOR_SCAN_NO 10209
COMMENT: RAW_DATA available as MSV000091754 at [DOI:10.25345/C5S46HG75]
CH$NAME: Pirimiphos-ethyl
CH$COMPOUND_CLASS: N/A; Environmental Standard
CH$FORMULA: C13H24N3O3PS
CH$EXACT_MASS: 333.1276
CH$SMILES: CCOP(=S)(OCC)OC1=CC(C)=NC(=N1)N(CC)CC
CH$IUPAC: InChI=1S/C13H24N3O3PS/c1-6-16(7-2)13-14-11(5)10-12(15-13)19-20(21,17-8-3)18-9-4/h10H,6-9H2,1-5H3
CH$LINK: CAS 23505-41-1
CH$LINK: CHEBI CHEBI:82146
CH$LINK: KEGG C19012
CH$LINK: PUBCHEM CID:31957
CH$LINK: INCHIKEY TZBPRYIIJAJUOY-UHFFFAOYSA-N
CH$LINK: CHEMSPIDER 29635
AC$INSTRUMENT: Q Exactive Orbitrap (Thermo Scientific)
AC$INSTRUMENT_TYPE: LC-ESI-QFT
AC$MASS_SPECTROMETRY: MS_TYPE MS2
AC$MASS_SPECTROMETRY: ION_MODE POSITIVE
AC$MASS_SPECTROMETRY: IONIZATION ESI
AC$MASS_SPECTROMETRY: FRAGMENTATION_MODE HCD
AC$MASS_SPECTROMETRY: COLLISION_ENERGY 15
AC$MASS_SPECTROMETRY: RESOLUTION 17500
AC$CHROMATOGRAPHY: COLUMN_NAME Acquity BEH C18 1.7um, 2.1x150mm (Waters)
AC$CHROMATOGRAPHY: FLOW_GRADIENT 90/10 at 0-2 min, 0/100 at 15-20 min, 90/10 at 20.1-30 min
AC$CHROMATOGRAPHY: FLOW_RATE 0.20 mL/min
AC$CHROMATOGRAPHY: RETENTION_TIME 19.447 min
AC$CHROMATOGRAPHY: SOLVENT A 0.1% formic acid
AC$CHROMATOGRAPHY: SOLVENT B methanol
MS$FOCUSED_ION: BASE_PEAK 79.0211
MS$FOCUSED_ION: PRECURSOR_M/Z 334.1349
MS$FOCUSED_ION: PRECURSOR_TYPE [M+H]+
MS$FOCUSED_ION: PRECURSOR_INTENSITY 87538428.82812
MS$DATA_PROCESSING: RECALIBRATE loess on assigned fragments and MS1
MS$DATA_PROCESSING: REANALYZE Peaks with additional N2/O included
MS$DATA_PROCESSING: WHOLE RMassBank 2.99.2
PK$SPLASH: splash10-001i-0009000000-54e423024c0bb99a5cf2
PK$ANNOTATION: m/z tentative_formula formula_count mass error(ppm)
  182.1287 C9H16N3O+ 3 182.1288 -0.28
  198.1059 C9H16N3S+ 6 198.1059 -0.44
  306.1035 C11H21N3O3PS+ 1 306.1036 -0.24
  334.1347 C13H25N3O3PS+ 1 334.1349 -0.51
PK$NUM_PEAK: 4
PK$PEAK: m/z int. rel.int.
  182.1287 1583812.5 24
  198.1059 2869269.5 44
  306.1035 1823462.1 28
  334.1347 64182024 999
//
