ACCESSION: MSBNK-LCSB-LU036651
RECORD_TITLE: Acetazolamide; LC-ESI-QFT; MS2; CE: 15; R=17500; [M-H]-
DATE: 2020.08.19
AUTHORS: Elapavalore, A.; Kondić, T.; Singh, R.; Schymanski, E.
LICENSE: CC BY
COPYRIGHT: Copyright © 2019 by Environmental Cheminformatics, LCSB, University of Luxembourg, Luxembourg
PUBLICATION: Elapavalore, A.; Kondić, T.; et al., Adding Open Spectral Data to MassBank and PubChem Using Open Source Tools to Support Non-Targeted Exposomics of Mixtures (submitted).
PROJECT: ENTACT U.S. Environmental Protection Agency’s Non-Targeted Analysis Collaborative Trial
COMMENT: CONFIDENCE standard compound
COMMENT: INTERNAL_ID 366
COMMENT: DATASET 20200303_ENTACT_RP_MIX505
COMMENT: DATA_PROCESSING MERGING RMBmix ver. 0.2.7
COMMENT: DATA_PROCESSING PRESCREENING Shinyscreen ver. 0.8.0
COMMENT: ORIGINAL_ACQUISITION_NO 2116
COMMENT: ORIGINAL_PRECURSOR_SCAN_NO 2112
COMMENT: RAW_DATA available as MSV000091754 at [DOI:10.25345/C5S46HG75]
CH$NAME: Acetazolamide
CH$NAME: N-(5-sulfamoyl-1,3,4-thiadiazol-2-yl)acetamide
CH$COMPOUND_CLASS: N/A; Environmental Standard
CH$FORMULA: C4H6N4O3S2
CH$EXACT_MASS: 221.9881
CH$SMILES: CC(=O)NC1=NN=C(S1)S(N)(=O)=O
CH$IUPAC: InChI=1S/C4H6N4O3S2/c1-2(9)6-3-7-8-4(12-3)13(5,10)11/h1H3,(H2,5,10,11)(H,6,7,9)
CH$LINK: CAS 59-66-5
CH$LINK: CHEBI CHEBI:27690
CH$LINK: KEGG D00218
CH$LINK: PUBCHEM CID:1986
CH$LINK: INCHIKEY BZKPWHYZMXOIDC-UHFFFAOYSA-N
CH$LINK: CHEMSPIDER 1909
AC$INSTRUMENT: Q Exactive Orbitrap (Thermo Scientific)
AC$INSTRUMENT_TYPE: LC-ESI-QFT
AC$MASS_SPECTROMETRY: MS_TYPE MS2
AC$MASS_SPECTROMETRY: ION_MODE NEGATIVE
AC$MASS_SPECTROMETRY: IONIZATION ESI
AC$MASS_SPECTROMETRY: FRAGMENTATION_MODE HCD
AC$MASS_SPECTROMETRY: COLLISION_ENERGY 15
AC$MASS_SPECTROMETRY: RESOLUTION 17500
AC$CHROMATOGRAPHY: COLUMN_NAME Acquity BEH C18 1.7um, 2.1x150mm (Waters)
AC$CHROMATOGRAPHY: FLOW_GRADIENT 90/10 at 0-2 min, 0/100 at 15-20 min, 90/10 at 20.1-30 min
AC$CHROMATOGRAPHY: FLOW_RATE 0.20 mL/min
AC$CHROMATOGRAPHY: RETENTION_TIME 8.459 min
AC$CHROMATOGRAPHY: SOLVENT A 0.1% formic acid
AC$CHROMATOGRAPHY: SOLVENT B methanol
MS$FOCUSED_ION: BASE_PEAK 220.9808
MS$FOCUSED_ION: PRECURSOR_M/Z 220.9809
MS$FOCUSED_ION: PRECURSOR_TYPE [M-H]-
MS$FOCUSED_ION: PRECURSOR_INTENSITY 4309368.914307
MS$DATA_PROCESSING: RECALIBRATE loess on assigned fragments and MS1
MS$DATA_PROCESSING: REANALYZE Peaks with additional N2/O included
MS$DATA_PROCESSING: WHOLE RMassBank 2.99.2
PK$SPLASH: splash10-05gi-9050000000-8b94d96cde2ac8e1bd51
PK$ANNOTATION: m/z tentative_formula formula_count mass error(ppm)
  57.9757 CNS- 1 57.9757 -0.56
  61.9706 NOS- 1 61.9706 -0.23
  63.9625 O2S- 1 63.9624 1.15
  72.9866 CHN2S- 1 72.9866 -0.42
  77.9655 NO2S- 1 77.9655 -0.14
  79.9812 H2NO2S- 1 79.9812 -0.08
  83.0251 C3H3N2O- 1 83.0251 0.1
  97.9819 C2N3S- 2 97.9818 0.38
  114.9969 C3H3N2OS- 1 114.9972 -1.99
  115.0084 C2H3N4S- 2 115.0084 0.44
  115.9923 C2H2N3OS- 2 115.9924 -0.67
  119.9873 CH2N3O2S- 2 119.9873 -0.12
  136.9484 CHN2O2S2- 1 136.9485 -0.39
  142.008 C4H4N3OS- 1 142.0081 -0.1
  158.0028 C4H4N3O2S- 1 158.003 -1.32
  178.9704 C2H3N4O2S2- 2 178.9703 0.8
  220.9808 C4H5N4O3S2- 1 220.9809 -0.12
PK$NUM_PEAK: 17
PK$PEAK: m/z int. rel.int.
  57.9757 750341.2 548
  61.9706 10695.1 7
  63.9625 1941.4 1
  72.9866 33691.5 24
  77.9655 28791.9 21
  79.9812 150764.6 110
  83.0251 1109258.4 810
  97.9819 2309.1 1
  114.9969 2087.7 1
  115.0084 13659.6 9
  115.9923 15999.2 11
  119.9873 3573.4 2
  136.9484 8725.4 6
  142.008 36843.3 26
  158.0028 3988.5 2
  178.9704 4425.6 3
  220.9808 1367475.2 999
//
