ACCESSION: MSBNK-LCSB-LU123156
RECORD_TITLE: Aplaviroc; LC-ESI-QFT; MS2; CE: 90; R=17500; [M-H]-
DATE: 2020.08.19
AUTHORS: Elapavalore, A.; Kondić, T.; Singh, R.; Schymanski, E.
LICENSE: CC BY
COPYRIGHT: Copyright © 2019 by Environmental Cheminformatics, LCSB, University of Luxembourg, Luxembourg
PUBLICATION: Elapavalore, A.; Kondić, T.; et al., Adding Open Spectral Data to MassBank and PubChem Using Open Source Tools to Support Non-Targeted Exposomics of Mixtures (submitted).
PROJECT: ENTACT U.S. Environmental Protection Agency’s Non-Targeted Analysis Collaborative Trial
COMMENT: CONFIDENCE standard compound
COMMENT: INTERNAL_ID 1231
COMMENT: DATASET 20200303_ENTACT_RP_MIX504
COMMENT: DATA_PROCESSING MERGING RMBmix ver. 0.2.7
COMMENT: DATA_PROCESSING PRESCREENING Shinyscreen ver. 0.8.0
COMMENT: ORIGINAL_ACQUISITION_NO 3939
COMMENT: ORIGINAL_PRECURSOR_SCAN_NO 3936
COMMENT: RAW_DATA available as MSV000091754 at [DOI:10.25345/C5S46HG75]
CH$NAME: Aplaviroc
CH$NAME: 4-[4-[[(3R)-1-butyl-3-[(R)-cyclohexyl(hydroxy)methyl]-2,5-dioxo-1,4,9-triazaspiro[5.5]undecan-9-yl]methyl]phenoxy]benzoic acid
CH$COMPOUND_CLASS: N/A; Environmental Standard
CH$FORMULA: C33H43N3O6
CH$EXACT_MASS: 577.3152
CH$SMILES: CCCCN1C(=O)[C@@H]([C@H](O)C2CCCCC2)NC(=O)C12CCN(Cc1ccc(Oc3ccc(C(=O)O)cc3)cc1)CC2
CH$IUPAC: InChI=1S/C33H43N3O6/c1-2-3-19-36-30(38)28(29(37)24-7-5-4-6-8-24)34-32(41)33(36)17-20-35(21-18-33)22-23-9-13-26(14-10-23)42-27-15-11-25(12-16-27)31(39)40/h9-16,24,28-29,37H,2-8,17-22H2,1H3,(H,34,41)(H,39,40)/t28-,29-/m1/s1
CH$LINK: CAS 674782-28-6
CH$LINK: PUBCHEM CID:3001322
CH$LINK: INCHIKEY GWNOTCOIYUNTQP-FQLXRVMXSA-N
CH$LINK: CHEMSPIDER 2272720
AC$INSTRUMENT: Q Exactive Orbitrap (Thermo Scientific)
AC$INSTRUMENT_TYPE: LC-ESI-QFT
AC$MASS_SPECTROMETRY: MS_TYPE MS2
AC$MASS_SPECTROMETRY: ION_MODE NEGATIVE
AC$MASS_SPECTROMETRY: IONIZATION ESI
AC$MASS_SPECTROMETRY: FRAGMENTATION_MODE HCD
AC$MASS_SPECTROMETRY: COLLISION_ENERGY 90
AC$MASS_SPECTROMETRY: RESOLUTION 17500
AC$CHROMATOGRAPHY: COLUMN_NAME Acquity BEH C18 1.7um, 2.1x150mm (Waters)
AC$CHROMATOGRAPHY: FLOW_GRADIENT 90/10 at 0-2 min, 0/100 at 15-20 min, 90/10 at 20.1-30 min
AC$CHROMATOGRAPHY: FLOW_RATE 0.20 mL/min
AC$CHROMATOGRAPHY: RETENTION_TIME 15.958 min
AC$CHROMATOGRAPHY: SOLVENT A 0.1% formic acid
AC$CHROMATOGRAPHY: SOLVENT B methanol
MS$FOCUSED_ION: BASE_PEAK 229.0506
MS$FOCUSED_ION: PRECURSOR_M/Z 576.3079
MS$FOCUSED_ION: PRECURSOR_TYPE [M-H]-
MS$FOCUSED_ION: PRECURSOR_INTENSITY 2724620.979004
MS$DATA_PROCESSING: RECALIBRATE loess on assigned fragments and MS1
MS$DATA_PROCESSING: REANALYZE Peaks with additional N2/O included
MS$DATA_PROCESSING: WHOLE RMassBank 2.99.2
PK$SPLASH: splash10-0006-9200000000-3126ab1ea4841335c704
PK$ANNOTATION: m/z tentative_formula formula_count mass error(ppm)
  73.0408 C2H5N2O- 1 73.0407 1.19
  80.0506 C5H6N- 1 80.0506 0.55
  93.0346 C6H5O- 2 93.0346 0.24
  95.0501 C6H7O- 2 95.0502 -1.22
  97.0043 C3HN2O2- 1 97.0044 -0.08
  107.0503 C7H7O- 2 107.0502 0.62
  108.0454 C6H6NO- 1 108.0455 -0.68
  118.0299 C7H4NO- 1 118.0298 0.75
  127.0878 C6H11N2O- 1 127.0877 1.13
  129.1035 C6H13N2O- 1 129.1033 1.52
PK$NUM_PEAK: 10
PK$PEAK: m/z int. rel.int.
  73.0408 3324.2 91
  80.0506 1944.3 53
  93.0346 36247.9 999
  95.0501 5202.9 143
  97.0043 6249.6 172
  107.0503 2548.9 70
  108.0454 4181 115
  118.0299 5366.4 147
  127.0878 1959.5 54
  129.1035 2628.3 72
//
