ACCESSION: MSBNK-LCSB-LU031155
RECORD_TITLE: MK-547; LC-ESI-QFT; MS2; CE: 75; R=17500; [M-H]-
DATE: 2020.08.19
AUTHORS: Elapavalore, A.; Kondić, T.; Singh, R.; Schymanski, E.
LICENSE: CC BY
COPYRIGHT: Copyright © 2019 by Environmental Cheminformatics, LCSB, University of Luxembourg, Luxembourg
PUBLICATION: Elapavalore, A.; Kondić, T.; et al., Adding Open Spectral Data to MassBank and PubChem Using Open Source Tools to Support Non-Targeted Exposomics of Mixtures (submitted).
PROJECT: ENTACT U.S. Environmental Protection Agency’s Non-Targeted Analysis Collaborative Trial
COMMENT: CONFIDENCE standard compound
COMMENT: INTERNAL_ID 311
COMMENT: DATASET 20200303_ENTACT_RP_MIX505
COMMENT: DATA_PROCESSING MERGING RMBmix ver. 0.2.7
COMMENT: DATA_PROCESSING PRESCREENING Shinyscreen ver. 0.8.0
COMMENT: ORIGINAL_ACQUISITION_NO 5220
COMMENT: ORIGINAL_PRECURSOR_SCAN_NO 5219
COMMENT: RAW_DATA available as MSV000091754 at [DOI:10.25345/C5S46HG75]
CH$NAME: MK-547
CH$NAME: J-104132
CH$NAME: (5S,6R,7R)-5-(1,3-benzodioxol-5-yl)-2-butyl-7-[2-[(2S)-2-carboxypropyl]-4-methoxyphenyl]-6,7-dihydro-5H-cyclopenta[b]pyridine-6-carboxylic acid
CH$COMPOUND_CLASS: N/A; Environmental Standard
CH$FORMULA: C31H33NO7
CH$EXACT_MASS: 531.2257
CH$SMILES: CCCCc1ccc2c(n1)[C@@H](c1ccc(OC)cc1C[C@H](C)C(O)=O)[C@H](C(O)=O)[C@H]2c1ccc2c(c1)OCO2
CH$IUPAC: InChI=1S/C31H33NO7/c1-4-5-6-20-8-10-23-26(18-7-12-24-25(15-18)39-16-38-24)28(31(35)36)27(29(23)32-20)22-11-9-21(37-3)14-19(22)13-17(2)30(33)34/h7-12,14-15,17,26-28H,4-6,13,16H2,1-3H3,(H,33,34)(H,35,36)/t17-,26-,27-,28+/m0/s1
CH$LINK: CAS 2549-50-0
CH$LINK: PUBCHEM CID:186002
CH$LINK: INCHIKEY IUHMIOAKWHUFKU-YINIXLNUSA-N
CH$LINK: CHEMSPIDER 161679
AC$INSTRUMENT: Q Exactive Orbitrap (Thermo Scientific)
AC$INSTRUMENT_TYPE: LC-ESI-QFT
AC$MASS_SPECTROMETRY: MS_TYPE MS2
AC$MASS_SPECTROMETRY: ION_MODE NEGATIVE
AC$MASS_SPECTROMETRY: IONIZATION ESI
AC$MASS_SPECTROMETRY: FRAGMENTATION_MODE HCD
AC$MASS_SPECTROMETRY: COLLISION_ENERGY 75
AC$MASS_SPECTROMETRY: RESOLUTION 17500
AC$CHROMATOGRAPHY: COLUMN_NAME Acquity BEH C18 1.7um, 2.1x150mm (Waters)
AC$CHROMATOGRAPHY: FLOW_GRADIENT 90/10 at 0-2 min, 0/100 at 15-20 min, 90/10 at 20.1-30 min
AC$CHROMATOGRAPHY: FLOW_RATE 0.20 mL/min
AC$CHROMATOGRAPHY: RETENTION_TIME 18.559 min
AC$CHROMATOGRAPHY: SOLVENT A 0.1% formic acid
AC$CHROMATOGRAPHY: SOLVENT B methanol
MS$FOCUSED_ION: BASE_PEAK 112.9856
MS$FOCUSED_ION: PRECURSOR_M/Z 530.2184
MS$FOCUSED_ION: PRECURSOR_TYPE [M-H]-
MS$FOCUSED_ION: PRECURSOR_INTENSITY 888341.4375
MS$DATA_PROCESSING: RECALIBRATE loess on assigned fragments and MS1
MS$DATA_PROCESSING: REANALYZE Peaks with additional N2/O included
MS$DATA_PROCESSING: WHOLE RMassBank 2.99.2
PK$SPLASH: splash10-006x-9231000000-542a83d0040aa3ab0c69
PK$ANNOTATION: m/z tentative_formula formula_count mass error(ppm)
  65.0033 C4HO- 1 65.0033 -0.31
  91.0189 C6H3O- 1 91.0189 -0.61
  93.0346 C6H5O- 1 93.0346 0.58
  119.0503 C8H7O- 1 119.0502 0.72
  135.0816 C9H11O- 1 135.0815 0.59
  220.077 C15H10NO- 2 220.0768 0.78
  221.0837 C15H11NO- 2 221.0846 -4.32
  354.1496 C24H20NO2- 2 354.15 -0.99
PK$NUM_PEAK: 8
PK$PEAK: m/z int. rel.int.
  65.0033 3302.9 458
  91.0189 7203.9 999
  93.0346 6489.3 899
  119.0503 2555 354
  135.0816 2018.2 279
  220.077 5223 724
  221.0837 2245.5 311
  354.1496 2124.1 294
//
