ACCESSION: MSBNK-LCSB-LU128501
RECORD_TITLE: 4,4`-Methylenebis(N,N-dimethylaniline); LC-ESI-QFT; MS2; CE: 15; R=17500; [M+H]+
DATE: 2020.08.19
AUTHORS: Elapavalore, A.; Kondić, T.; Singh, R.; Schymanski, E.
LICENSE: CC BY
COPYRIGHT: Copyright © 2019 by Environmental Cheminformatics, LCSB, University of Luxembourg, Luxembourg
PUBLICATION: Elapavalore, A.; Kondić, T.; et al., Adding Open Spectral Data to MassBank and PubChem Using Open Source Tools to Support Non-Targeted Exposomics of Mixtures (submitted).
PROJECT: ENTACT U.S. Environmental Protection Agency’s Non-Targeted Analysis Collaborative Trial
COMMENT: CONFIDENCE standard compound
COMMENT: INTERNAL_ID 1285
COMMENT: DATASET 20200303_ENTACT_RP_MIX504
COMMENT: DATA_PROCESSING MERGING RMBmix ver. 0.2.7
COMMENT: DATA_PROCESSING PRESCREENING Shinyscreen ver. 0.8.0
COMMENT: ORIGINAL_ACQUISITION_NO 5482
COMMENT: ORIGINAL_PRECURSOR_SCAN_NO 5480
COMMENT: RAW_DATA available as MSV000091754 at [DOI:10.25345/C5S46HG75]
CH$NAME: 4,4'-Methylenebis(N,N-dimethylaniline)
CH$NAME: 4-[[4-(dimethylamino)phenyl]methyl]-N,N-dimethylaniline
CH$COMPOUND_CLASS: N/A; Environmental Standard
CH$FORMULA: C17H22N2
CH$EXACT_MASS: 254.1783
CH$SMILES: CN(C)C1=CC=C(CC2=CC=C(C=C2)N(C)C)C=C1
CH$IUPAC: InChI=1S/C17H22N2/c1-18(2)16-9-5-14(6-10-16)13-15-7-11-17(12-8-15)19(3)4/h5-12H,13H2,1-4H3
CH$LINK: CAS 101-61-1
CH$LINK: CHEBI CHEBI:34370
CH$LINK: KEGG C14135
CH$LINK: PUBCHEM CID:7567
CH$LINK: INCHIKEY JNRLEMMIVRBKJE-UHFFFAOYSA-N
CH$LINK: CHEMSPIDER 21106506
AC$INSTRUMENT: Q Exactive Orbitrap (Thermo Scientific)
AC$INSTRUMENT_TYPE: LC-ESI-QFT
AC$MASS_SPECTROMETRY: MS_TYPE MS2
AC$MASS_SPECTROMETRY: ION_MODE POSITIVE
AC$MASS_SPECTROMETRY: IONIZATION ESI
AC$MASS_SPECTROMETRY: FRAGMENTATION_MODE HCD
AC$MASS_SPECTROMETRY: COLLISION_ENERGY 15
AC$MASS_SPECTROMETRY: RESOLUTION 17500
AC$CHROMATOGRAPHY: COLUMN_NAME Acquity BEH C18 1.7um, 2.1x150mm (Waters)
AC$CHROMATOGRAPHY: FLOW_GRADIENT 90/10 at 0-2 min, 0/100 at 15-20 min, 90/10 at 20.1-30 min
AC$CHROMATOGRAPHY: FLOW_RATE 0.20 mL/min
AC$CHROMATOGRAPHY: RETENTION_TIME 10.439 min
AC$CHROMATOGRAPHY: SOLVENT A 0.1% formic acid
AC$CHROMATOGRAPHY: SOLVENT B methanol
MS$FOCUSED_ION: BASE_PEAK 79.0212
MS$FOCUSED_ION: PRECURSOR_M/Z 255.1856
MS$FOCUSED_ION: PRECURSOR_TYPE [M+H]+
MS$FOCUSED_ION: PRECURSOR_INTENSITY 26007024.8125
MS$DATA_PROCESSING: RECALIBRATE loess on assigned fragments and MS1
MS$DATA_PROCESSING: REANALYZE Peaks with additional N2/O included
MS$DATA_PROCESSING: WHOLE RMassBank 2.99.2
PK$SPLASH: splash10-0a4i-0090000000-c8f12c89dd430a450bff
PK$ANNOTATION: m/z tentative_formula formula_count mass error(ppm)
  134.0972 C9H12N+ 1 134.0964 5.8
  239.1537 C16H19N2+ 1 239.1543 -2.48
  240.162 C16H20N2+ 1 240.1621 -0.48
  255.1854 C17H23N2+ 1 255.1856 -0.73
PK$NUM_PEAK: 4
PK$PEAK: m/z int. rel.int.
  134.0972 38172.4 1
  239.1537 89118 3
  240.162 797003.6 33
  255.1854 23680786 999
//
