ACCESSION: MSBNK-LCSB-LU033255
RECORD_TITLE: Novaluron; LC-ESI-QFT; MS2; CE: 75; R=17500; [M-H]-
DATE: 2020.08.19
AUTHORS: Elapavalore, A.; Kondić, T.; Singh, R.; Schymanski, E.
LICENSE: CC BY
COPYRIGHT: Copyright © 2019 by Environmental Cheminformatics, LCSB, University of Luxembourg, Luxembourg
PUBLICATION: Elapavalore, A.; Kondić, T.; et al., Adding Open Spectral Data to MassBank and PubChem Using Open Source Tools to Support Non-Targeted Exposomics of Mixtures (submitted).
PROJECT: ENTACT U.S. Environmental Protection Agency’s Non-Targeted Analysis Collaborative Trial
COMMENT: CONFIDENCE standard compound
COMMENT: INTERNAL_ID 332
COMMENT: DATASET 20200303_ENTACT_RP_MIX505
COMMENT: DATA_PROCESSING MERGING RMBmix ver. 0.2.7
COMMENT: DATA_PROCESSING PRESCREENING Shinyscreen ver. 0.8.0
COMMENT: ORIGINAL_ACQUISITION_NO 5323
COMMENT: ORIGINAL_PRECURSOR_SCAN_NO 5320
COMMENT: RAW_DATA available as MSV000091754 at [DOI:10.25345/C5S46HG75]
CH$NAME: Novaluron
CH$NAME: N-[[3-chloro-4-[1,1,2-trifluoro-2-(trifluoromethoxy)ethoxy]phenyl]carbamoyl]-2,6-difluorobenzamide
CH$COMPOUND_CLASS: N/A; Environmental Standard
CH$FORMULA: C17H9ClF8N2O4
CH$EXACT_MASS: 492.0123
CH$SMILES: FC(OC(F)(F)F)C(F)(F)OC1=C(Cl)C=C(NC(=O)NC(=O)C2=C(F)C=CC=C2F)C=C1
CH$IUPAC: InChI=1S/C17H9ClF8N2O4/c18-8-6-7(4-5-11(8)31-16(22,23)14(21)32-17(24,25)26)27-15(30)28-13(29)12-9(19)2-1-3-10(12)20/h1-6,14H,(H2,27,28,29,30)
CH$LINK: CAS 116714-46-6
CH$LINK: CHEBI CHEBI:39385
CH$LINK: KEGG C18875
CH$LINK: PUBCHEM CID:93541
CH$LINK: INCHIKEY NJPPVKZQTLUDBO-UHFFFAOYSA-N
CH$LINK: CHEMSPIDER 84442
AC$INSTRUMENT: Q Exactive Orbitrap (Thermo Scientific)
AC$INSTRUMENT_TYPE: LC-ESI-QFT
AC$MASS_SPECTROMETRY: MS_TYPE MS2
AC$MASS_SPECTROMETRY: ION_MODE NEGATIVE
AC$MASS_SPECTROMETRY: IONIZATION ESI
AC$MASS_SPECTROMETRY: FRAGMENTATION_MODE HCD
AC$MASS_SPECTROMETRY: COLLISION_ENERGY 75
AC$MASS_SPECTROMETRY: RESOLUTION 17500
AC$CHROMATOGRAPHY: COLUMN_NAME Acquity BEH C18 1.7um, 2.1x150mm (Waters)
AC$CHROMATOGRAPHY: FLOW_GRADIENT 90/10 at 0-2 min, 0/100 at 15-20 min, 90/10 at 20.1-30 min
AC$CHROMATOGRAPHY: FLOW_RATE 0.20 mL/min
AC$CHROMATOGRAPHY: RETENTION_TIME 18.982 min
AC$CHROMATOGRAPHY: SOLVENT A 0.1% formic acid
AC$CHROMATOGRAPHY: SOLVENT B methanol
MS$FOCUSED_ION: BASE_PEAK 183.0582
MS$FOCUSED_ION: PRECURSOR_M/Z 491.005
MS$FOCUSED_ION: PRECURSOR_TYPE [M-H]-
MS$FOCUSED_ION: PRECURSOR_INTENSITY 17875140.7207
MS$DATA_PROCESSING: RECALIBRATE loess on assigned fragments and MS1
MS$DATA_PROCESSING: REANALYZE Peaks with additional N2/O included
MS$DATA_PROCESSING: WHOLE RMassBank 2.99.2
PK$SPLASH: splash10-001i-9100000000-b4e390a1d4ac1afe3bac
PK$ANNOTATION: m/z tentative_formula formula_count mass error(ppm)
  65.9986 C3NO- 2 65.9985 1.24
  68.9958 CF3- 1 68.9958 0.49
  73.0084 C6H- 1 73.0084 0.63
  82.9696 C4Cl- 2 82.9694 2.93
  84.9907 CF3O- 1 84.9907 0.34
  93.0146 C6H2F- 2 93.0146 0.48
  98.0039 C7N- 3 98.0036 2.41
  113.0209 C6H3F2- 3 113.0208 0.46
  130.0174 C7H2N2O- 5 130.0173 0.88
  132.009 C7H2NO2- 5 132.0091 -0.78
  135.996 C7H3ClN- 8 135.996 0.49
  140.9988 C6H4ClNO- 8 140.9987 0.75
  162.9825 C3F5O2- 9 162.9824 0.55
  165.994 C7H3ClN2O- 9 165.9939 0.11
  167.9858 C7H3ClNO2- 9 167.9858 0
  179.0264 C8H4FN2O2- 9 179.0262 0.8
PK$NUM_PEAK: 16
PK$PEAK: m/z int. rel.int.
  65.9986 2163.7 1
  68.9958 106336.4 53
  73.0084 32317.1 16
  82.9696 5064.5 2
  84.9907 1971271.5 999
  93.0146 630190.1 319
  98.0039 4889.4 2
  113.0209 295495 149
  130.0174 5212.9 2
  132.009 4458 2
  135.996 3105.9 1
  140.9988 73481.2 37
  162.9825 14753 7
  165.994 67316.3 34
  167.9858 8559.7 4
  179.0264 4778.7 2
//
