ACCESSION: MSBNK-LCSB-LU053451
RECORD_TITLE: Diofenolan; LC-ESI-QFT; MS2; CE: 15; R=17500; [M-H]-
DATE: 2020.08.19
AUTHORS: Elapavalore, A.; Kondić, T.; Singh, R.; Schymanski, E.
LICENSE: CC BY
COPYRIGHT: Copyright © 2019 by Environmental Cheminformatics, LCSB, University of Luxembourg, Luxembourg
PUBLICATION: Elapavalore, A.; Kondić, T.; et al., Adding Open Spectral Data to MassBank and PubChem Using Open Source Tools to Support Non-Targeted Exposomics of Mixtures (submitted).
PROJECT: ENTACT U.S. Environmental Protection Agency’s Non-Targeted Analysis Collaborative Trial
COMMENT: CONFIDENCE standard compound
COMMENT: INTERNAL_ID 534
COMMENT: DATASET 20200303_ENTACT_RP_MIX506
COMMENT: DATA_PROCESSING MERGING RMBmix ver. 0.2.7
COMMENT: DATA_PROCESSING PRESCREENING Shinyscreen ver. 0.8.0
COMMENT: ORIGINAL_ACQUISITION_NO 4581
COMMENT: ORIGINAL_PRECURSOR_SCAN_NO 4576
COMMENT: RAW_DATA available as MSV000091754 at [DOI:10.25345/C5S46HG75]
CH$NAME: Diofenolan
CH$NAME: 2-ethyl-4-[(4-phenoxyphenoxy)methyl]-1,3-dioxolane
CH$COMPOUND_CLASS: N/A; Environmental Standard
CH$FORMULA: C18H20O4
CH$EXACT_MASS: 300.1362
CH$SMILES: CCC1OCC(COC2=CC=C(OC3=CC=CC=C3)C=C2)O1
CH$IUPAC: InChI=1S/C18H20O4/c1-2-18-20-13-17(22-18)12-19-14-8-10-16(11-9-14)21-15-6-4-3-5-7-15/h3-11,17-18H,2,12-13H2,1H3
CH$LINK: CAS 63837-33-2
CH$LINK: PUBCHEM CID:4578030
CH$LINK: INCHIKEY ZDOOQPFIGYHZFV-UHFFFAOYSA-N
CH$LINK: CHEMSPIDER 3770710
AC$INSTRUMENT: Q Exactive Orbitrap (Thermo Scientific)
AC$INSTRUMENT_TYPE: LC-ESI-QFT
AC$MASS_SPECTROMETRY: MS_TYPE MS2
AC$MASS_SPECTROMETRY: ION_MODE NEGATIVE
AC$MASS_SPECTROMETRY: IONIZATION ESI
AC$MASS_SPECTROMETRY: FRAGMENTATION_MODE HCD
AC$MASS_SPECTROMETRY: COLLISION_ENERGY 15
AC$MASS_SPECTROMETRY: RESOLUTION 17500
AC$CHROMATOGRAPHY: COLUMN_NAME Acquity BEH C18 1.7um, 2.1x150mm (Waters)
AC$CHROMATOGRAPHY: FLOW_GRADIENT 90/10 at 0-2 min, 0/100 at 15-20 min, 90/10 at 20.1-30 min
AC$CHROMATOGRAPHY: FLOW_RATE 0.20 mL/min
AC$CHROMATOGRAPHY: RETENTION_TIME 17.121 min
AC$CHROMATOGRAPHY: SOLVENT A 0.1% formic acid
AC$CHROMATOGRAPHY: SOLVENT B methanol
MS$FOCUSED_ION: BASE_PEAK 141.0113
MS$FOCUSED_ION: PRECURSOR_M/Z 299.1289
MS$FOCUSED_ION: PRECURSOR_TYPE [M-H]-
MS$FOCUSED_ION: PRECURSOR_INTENSITY 851066.0410156
MS$DATA_PROCESSING: RECALIBRATE loess on assigned fragments and MS1
MS$DATA_PROCESSING: REANALYZE Peaks with additional N2/O included
MS$DATA_PROCESSING: WHOLE RMassBank 2.99.2
PK$SPLASH: splash10-0a4i-0910000000-72ebb761b643843ef82a
PK$ANNOTATION: m/z tentative_formula formula_count mass error(ppm)
  109.0295 C6H5O2- 1 109.0295 -0.01
  123.0452 C7H7O2- 1 123.0452 0.33
  149.0603 C9H9O2- 1 149.0608 -3.29
  177.0923 C11H13O2- 1 177.0921 1.39
  189.0921 C12H13O2- 1 189.0921 0.05
  299.129 C18H19O4- 1 299.1289 0.43
PK$NUM_PEAK: 6
PK$PEAK: m/z int. rel.int.
  109.0295 456156.7 999
  123.0452 15358.6 33
  149.0603 1668.8 3
  177.0923 5208.9 11
  189.0921 62143.1 136
  299.129 119843.3 262
//
