ACCESSION: MSBNK-LCSB-LU022751
RECORD_TITLE: Picloram; LC-ESI-QFT; MS2; CE: 15; R=17500; [M-H]-
DATE: 2020.08.19
AUTHORS: Elapavalore, A.; Kondić, T.; Singh, R.; Schymanski, E.
LICENSE: CC BY
COPYRIGHT: Copyright © 2019 by Environmental Cheminformatics, LCSB, University of Luxembourg, Luxembourg
PUBLICATION: Elapavalore, A.; Kondić, T.; et al., Adding Open Spectral Data to MassBank and PubChem Using Open Source Tools to Support Non-Targeted Exposomics of Mixtures (submitted).
PROJECT: ENTACT U.S. Environmental Protection Agency’s Non-Targeted Analysis Collaborative Trial
COMMENT: CONFIDENCE standard compound
COMMENT: INTERNAL_ID 227
COMMENT: DATASET 20200303_ENTACT_RP_MIX505
COMMENT: DATA_PROCESSING MERGING RMBmix ver. 0.2.7
COMMENT: DATA_PROCESSING PRESCREENING Shinyscreen ver. 0.8.0
COMMENT: ORIGINAL_ACQUISITION_NO 2942
COMMENT: ORIGINAL_PRECURSOR_SCAN_NO 2939
COMMENT: RAW_DATA available as MSV000091754 at [DOI:10.25345/C5S46HG75]
CH$NAME: Picloram
CH$NAME: 4-amino-3,5,6-trichloropyridine-2-carboxylic acid
CH$COMPOUND_CLASS: N/A; Environmental Standard
CH$FORMULA: C6H3Cl3N2O2
CH$EXACT_MASS: 239.9260
CH$SMILES: NC1=C(Cl)C(Cl)=NC(C(O)=O)=C1Cl
CH$IUPAC: InChI=1S/C6H3Cl3N2O2/c7-1-3(10)2(8)5(9)11-4(1)6(12)13/h(H2,10,11)(H,12,13)
CH$LINK: CAS 1918-02-1
CH$LINK: CHEBI CHEBI:34922
CH$LINK: KEGG C14310
CH$LINK: PUBCHEM CID:15965
CH$LINK: INCHIKEY NQQVFXUMIDALNH-UHFFFAOYSA-N
CH$LINK: CHEMSPIDER 15170
AC$INSTRUMENT: Q Exactive Orbitrap (Thermo Scientific)
AC$INSTRUMENT_TYPE: LC-ESI-QFT
AC$MASS_SPECTROMETRY: MS_TYPE MS2
AC$MASS_SPECTROMETRY: ION_MODE NEGATIVE
AC$MASS_SPECTROMETRY: IONIZATION ESI
AC$MASS_SPECTROMETRY: FRAGMENTATION_MODE HCD
AC$MASS_SPECTROMETRY: COLLISION_ENERGY 15
AC$MASS_SPECTROMETRY: RESOLUTION 17500
AC$CHROMATOGRAPHY: COLUMN_NAME Acquity BEH C18 1.7um, 2.1x150mm (Waters)
AC$CHROMATOGRAPHY: FLOW_GRADIENT 90/10 at 0-2 min, 0/100 at 15-20 min, 90/10 at 20.1-30 min
AC$CHROMATOGRAPHY: FLOW_RATE 0.20 mL/min
AC$CHROMATOGRAPHY: RETENTION_TIME 11.864 min
AC$CHROMATOGRAPHY: SOLVENT A 0.1% formic acid
AC$CHROMATOGRAPHY: SOLVENT B methanol
MS$FOCUSED_ION: BASE_PEAK 116.9285
MS$FOCUSED_ION: PRECURSOR_M/Z 238.9187
MS$FOCUSED_ION: PRECURSOR_TYPE [M-H]-
MS$FOCUSED_ION: PRECURSOR_INTENSITY 812491.6062012
MS$DATA_PROCESSING: RECALIBRATE loess on assigned fragments and MS1
MS$DATA_PROCESSING: REANALYZE Peaks with additional N2/O included
MS$DATA_PROCESSING: WHOLE RMassBank 2.99.2
PK$SPLASH: splash10-0006-0900000000-dfa02aca11bf6b5a48a6
PK$ANNOTATION: m/z tentative_formula formula_count mass error(ppm)
  122.9754 C5ClN2- 1 122.9755 -1.03
  158.9522 C5HCl2N2- 1 158.9522 -0.3
  194.9289 C5H2Cl3N2- 1 194.9289 0.16
PK$NUM_PEAK: 3
PK$PEAK: m/z int. rel.int.
  122.9754 3143.4 14
  158.9522 7361.1 32
  194.9289 223764.4 999
//
