ACCESSION: MSBNK-LCSB-LU046955
RECORD_TITLE: Fluorosalan; LC-ESI-QFT; MS2; CE: 75; R=17500; [M-H]-
DATE: 2020.08.19
AUTHORS: Elapavalore, A.; Kondić, T.; Singh, R.; Schymanski, E.
LICENSE: CC BY
COPYRIGHT: Copyright © 2019 by Environmental Cheminformatics, LCSB, University of Luxembourg, Luxembourg
PUBLICATION: Elapavalore, A.; Kondić, T.; et al., Adding Open Spectral Data to MassBank and PubChem Using Open Source Tools to Support Non-Targeted Exposomics of Mixtures (submitted).
PROJECT: ENTACT U.S. Environmental Protection Agency’s Non-Targeted Analysis Collaborative Trial
COMMENT: CONFIDENCE standard compound
COMMENT: INTERNAL_ID 469
COMMENT: DATASET 20200303_ENTACT_RP_MIX506
COMMENT: DATA_PROCESSING MERGING RMBmix ver. 0.2.7
COMMENT: DATA_PROCESSING PRESCREENING Shinyscreen ver. 0.8.0
COMMENT: ORIGINAL_ACQUISITION_NO 5888
COMMENT: ORIGINAL_PRECURSOR_SCAN_NO 5886
COMMENT: RAW_DATA available as MSV000091754 at [DOI:10.25345/C5S46HG75]
CH$NAME: Fluorosalan
CH$NAME: 3,5-dibromo-2-hydroxy-N-[3-(trifluoromethyl)phenyl]benzamide
CH$COMPOUND_CLASS: N/A; Environmental Standard
CH$FORMULA: C14H8Br2F3NO2
CH$EXACT_MASS: 436.8874
CH$SMILES: OC1=C(C=C(Br)C=C1Br)C(=O)NC1=CC(=CC=C1)C(F)(F)F
CH$IUPAC: InChI=1S/C14H8Br2F3NO2/c15-8-5-10(12(21)11(16)6-8)13(22)20-9-3-1-2-7(4-9)14(17,18)19/h1-6,21H,(H,20,22)
CH$LINK: CAS 4776-06-1
CH$LINK: CHEBI CHEBI:135715
CH$LINK: KEGG D04222
CH$LINK: PUBCHEM CID:20906
CH$LINK: INCHIKEY VYKKDKFTDMVOBU-UHFFFAOYSA-N
CH$LINK: CHEMSPIDER 19667
AC$INSTRUMENT: Q Exactive Orbitrap (Thermo Scientific)
AC$INSTRUMENT_TYPE: LC-ESI-QFT
AC$MASS_SPECTROMETRY: MS_TYPE MS2
AC$MASS_SPECTROMETRY: ION_MODE NEGATIVE
AC$MASS_SPECTROMETRY: IONIZATION ESI
AC$MASS_SPECTROMETRY: FRAGMENTATION_MODE HCD
AC$MASS_SPECTROMETRY: COLLISION_ENERGY 75
AC$MASS_SPECTROMETRY: RESOLUTION 17500
AC$CHROMATOGRAPHY: COLUMN_NAME Acquity BEH C18 1.7um, 2.1x150mm (Waters)
AC$CHROMATOGRAPHY: FLOW_GRADIENT 90/10 at 0-2 min, 0/100 at 15-20 min, 90/10 at 20.1-30 min
AC$CHROMATOGRAPHY: FLOW_RATE 0.20 mL/min
AC$CHROMATOGRAPHY: RETENTION_TIME 20.723 min
AC$CHROMATOGRAPHY: SOLVENT A 0.1% formic acid
AC$CHROMATOGRAPHY: SOLVENT B methanol
MS$FOCUSED_ION: BASE_PEAK 437.8779
MS$FOCUSED_ION: PRECURSOR_M/Z 435.8801
MS$FOCUSED_ION: PRECURSOR_TYPE [M-H]-
MS$FOCUSED_ION: PRECURSOR_INTENSITY 447480.1704102
MS$DATA_PROCESSING: RECALIBRATE loess on assigned fragments and MS1
MS$DATA_PROCESSING: REANALYZE Peaks with additional N2/O included
MS$DATA_PROCESSING: WHOLE RMassBank 2.99.2
PK$SPLASH: splash10-004i-9000000000-0f8a220b6534fa3e1ee5
PK$ANNOTATION: m/z tentative_formula formula_count mass error(ppm)
  78.9189 Br- 1 78.9189 0.02
  89.0033 C6HO- 2 89.0033 0.54
  120.0256 C7H3FN- 2 120.0255 0.86
  160.0379 C7H5F3N- 1 160.038 -0.17
  168.9294 C6H2BrO- 2 168.9295 -0.14
PK$NUM_PEAK: 5
PK$PEAK: m/z int. rel.int.
  78.9189 889027.4 999
  89.0033 14495.3 16
  120.0256 6725 7
  160.0379 31036 34
  168.9294 53007.6 59
//
