ACCESSION: MSBNK-LCSB-LU073401
RECORD_TITLE: Zamifenacin; LC-ESI-QFT; MS2; CE: 15; R=17500; [M+H]+
DATE: 2020.08.19
AUTHORS: Elapavalore, A.; Kondić, T.; Singh, R.; Schymanski, E.
LICENSE: CC BY
COPYRIGHT: Copyright © 2019 by Environmental Cheminformatics, LCSB, University of Luxembourg, Luxembourg
PUBLICATION: Elapavalore, A.; Kondić, T.; et al., Adding Open Spectral Data to MassBank and PubChem Using Open Source Tools to Support Non-Targeted Exposomics of Mixtures (submitted).
PROJECT: ENTACT U.S. Environmental Protection Agency’s Non-Targeted Analysis Collaborative Trial
COMMENT: CONFIDENCE standard compound
COMMENT: INTERNAL_ID 734
COMMENT: DATASET 20200303_ENTACT_RP_MIX506
COMMENT: DATA_PROCESSING MERGING RMBmix ver. 0.2.7
COMMENT: DATA_PROCESSING PRESCREENING Shinyscreen ver. 0.8.0
COMMENT: ORIGINAL_ACQUISITION_NO 8409
COMMENT: ORIGINAL_PRECURSOR_SCAN_NO 8407
COMMENT: RAW_DATA available as MSV000091754 at [DOI:10.25345/C5S46HG75]
CH$NAME: Zamifenacin
CH$NAME: (3R)-3-benzhydryloxy-1-[2-(1,3-benzodioxol-5-yl)ethyl]piperidine
CH$COMPOUND_CLASS: N/A; Environmental Standard
CH$FORMULA: C27H29NO3
CH$EXACT_MASS: 415.2147
CH$SMILES: C(CC1=CC2=C(OCO2)C=C1)N1CCC[C@H](C1)OC(C1=CC=CC=C1)C1=CC=CC=C1
CH$IUPAC: InChI=1S/C27H29NO3/c1-3-8-22(9-4-1)27(23-10-5-2-6-11-23)31-24-12-7-16-28(19-24)17-15-21-13-14-25-26(18-21)30-20-29-25/h1-6,8-11,13-14,18,24,27H,7,12,15-17,19-20H2/t24-/m1/s1
CH$LINK: CAS 127308-82-1
CH$LINK: CHEBI CHEBI:93417
CH$LINK: PUBCHEM CID:3086618
CH$LINK: INCHIKEY BDNFQGRSKSQXRI-XMMPIXPASA-N
CH$LINK: CHEMSPIDER 2343200
AC$INSTRUMENT: Q Exactive Orbitrap (Thermo Scientific)
AC$INSTRUMENT_TYPE: LC-ESI-QFT
AC$MASS_SPECTROMETRY: MS_TYPE MS2
AC$MASS_SPECTROMETRY: ION_MODE POSITIVE
AC$MASS_SPECTROMETRY: IONIZATION ESI
AC$MASS_SPECTROMETRY: FRAGMENTATION_MODE HCD
AC$MASS_SPECTROMETRY: COLLISION_ENERGY 15
AC$MASS_SPECTROMETRY: RESOLUTION 17500
AC$CHROMATOGRAPHY: COLUMN_NAME Acquity BEH C18 1.7um, 2.1x150mm (Waters)
AC$CHROMATOGRAPHY: FLOW_GRADIENT 90/10 at 0-2 min, 0/100 at 15-20 min, 90/10 at 20.1-30 min
AC$CHROMATOGRAPHY: FLOW_RATE 0.20 mL/min
AC$CHROMATOGRAPHY: RETENTION_TIME 16.040 min
AC$CHROMATOGRAPHY: SOLVENT A 0.1% formic acid
AC$CHROMATOGRAPHY: SOLVENT B methanol
MS$FOCUSED_ION: BASE_PEAK 79.0211
MS$FOCUSED_ION: PRECURSOR_M/Z 416.222
MS$FOCUSED_ION: PRECURSOR_TYPE [M+H]+
MS$FOCUSED_ION: PRECURSOR_INTENSITY 46944484
MS$DATA_PROCESSING: RECALIBRATE loess on assigned fragments and MS1
MS$DATA_PROCESSING: REANALYZE Peaks with additional N2/O included
MS$DATA_PROCESSING: WHOLE RMassBank 2.99.2
PK$SPLASH: splash10-014i-0900700000-9db43cf3610db329006f
PK$ANNOTATION: m/z tentative_formula formula_count mass error(ppm)
  149.0596 C9H9O2+ 1 149.0597 -0.47
  165.0689 C13H9+ 1 165.0699 -5.8
  166.0779 C13H10+ 1 166.0777 0.97
  167.0854 C13H11+ 1 167.0855 -0.67
  248.128 C14H18NO3+ 1 248.1281 -0.44
  280.1699 C19H22NO+ 1 280.1696 1.28
  416.2219 C27H30NO3+ 1 416.222 -0.19
PK$NUM_PEAK: 7
PK$PEAK: m/z int. rel.int.
  149.0596 82487.3 4
  165.0689 49139.4 2
  166.0779 20449 1
  167.0854 19511892 999
  248.128 377665.9 19
  280.1699 43802.8 2
  416.2219 16666369 853
//
