ACCESSION: MSBNK-LCSB-LU061756
RECORD_TITLE: Triflumuron; LC-ESI-QFT; MS2; CE: 90; R=17500; [M-H]-
DATE: 2020.08.19
AUTHORS: Elapavalore, A.; Kondić, T.; Singh, R.; Schymanski, E.
LICENSE: CC BY
COPYRIGHT: Copyright © 2019 by Environmental Cheminformatics, LCSB, University of Luxembourg, Luxembourg
PUBLICATION: Elapavalore, A.; Kondić, T.; et al., Adding Open Spectral Data to MassBank and PubChem Using Open Source Tools to Support Non-Targeted Exposomics of Mixtures (submitted).
PROJECT: ENTACT U.S. Environmental Protection Agency’s Non-Targeted Analysis Collaborative Trial
COMMENT: CONFIDENCE standard compound
COMMENT: INTERNAL_ID 617
COMMENT: DATASET 20200303_ENTACT_RP_MIX506
COMMENT: DATA_PROCESSING MERGING RMBmix ver. 0.2.7
COMMENT: DATA_PROCESSING PRESCREENING Shinyscreen ver. 0.8.0
COMMENT: ORIGINAL_ACQUISITION_NO 5229
COMMENT: ORIGINAL_PRECURSOR_SCAN_NO 5227
COMMENT: RAW_DATA available as MSV000091754 at [DOI:10.25345/C5S46HG75]
CH$NAME: Triflumuron
CH$NAME: 2-chloro-N-[[4-(trifluoromethoxy)phenyl]carbamoyl]benzamide
CH$COMPOUND_CLASS: N/A; Environmental Standard
CH$FORMULA: C15H10ClF3N2O3
CH$EXACT_MASS: 358.0332
CH$SMILES: FC(F)(F)OC1=CC=C(NC(=O)NC(=O)C2=CC=CC=C2Cl)C=C1
CH$IUPAC: InChI=1S/C15H10ClF3N2O3/c16-12-4-2-1-3-11(12)13(22)21-14(23)20-9-5-7-10(8-6-9)24-15(17,18)19/h1-8H,(H2,20,21,22,23)
CH$LINK: CAS 64628-44-0
CH$LINK: CHEBI CHEBI:39388
CH$LINK: KEGG C18615
CH$LINK: PUBCHEM CID:47445
CH$LINK: INCHIKEY XAIPTRIXGHTTNT-UHFFFAOYSA-N
CH$LINK: CHEMSPIDER 43172
AC$INSTRUMENT: Q Exactive Orbitrap (Thermo Scientific)
AC$INSTRUMENT_TYPE: LC-ESI-QFT
AC$MASS_SPECTROMETRY: MS_TYPE MS2
AC$MASS_SPECTROMETRY: ION_MODE NEGATIVE
AC$MASS_SPECTROMETRY: IONIZATION ESI
AC$MASS_SPECTROMETRY: FRAGMENTATION_MODE HCD
AC$MASS_SPECTROMETRY: COLLISION_ENERGY 90
AC$MASS_SPECTROMETRY: RESOLUTION 17500
AC$CHROMATOGRAPHY: COLUMN_NAME Acquity BEH C18 1.7um, 2.1x150mm (Waters)
AC$CHROMATOGRAPHY: FLOW_GRADIENT 90/10 at 0-2 min, 0/100 at 15-20 min, 90/10 at 20.1-30 min
AC$CHROMATOGRAPHY: FLOW_RATE 0.20 mL/min
AC$CHROMATOGRAPHY: RETENTION_TIME 18.726 min
AC$CHROMATOGRAPHY: SOLVENT A 0.1% formic acid
AC$CHROMATOGRAPHY: SOLVENT B methanol
MS$FOCUSED_ION: BASE_PEAK 357.026
MS$FOCUSED_ION: PRECURSOR_M/Z 357.0259
MS$FOCUSED_ION: PRECURSOR_TYPE [M-H]-
MS$FOCUSED_ION: PRECURSOR_INTENSITY 30380330.16406
MS$DATA_PROCESSING: RECALIBRATE loess on assigned fragments and MS1
MS$DATA_PROCESSING: REANALYZE Peaks with additional N2/O included
MS$DATA_PROCESSING: WHOLE RMassBank 2.99.2
PK$SPLASH: splash10-001i-9000000000-33de99053769ae32a3af
PK$ANNOTATION: m/z tentative_formula formula_count mass error(ppm)
  68.9958 CF3- 1 68.9958 0.34
  78.0349 C5H4N- 2 78.0349 0.34
  84.9907 CF3O- 1 84.9907 0.01
  90.0349 C6H4N- 2 90.0349 -0.3
  107.0376 C6H5NO- 3 107.0377 -0.56
  110.0412 C6H5FN- 3 110.0412 0.09
  132.033 C7H4N2O- 3 132.0329 0.74
PK$NUM_PEAK: 7
PK$PEAK: m/z int. rel.int.
  68.9958 103105.7 21
  78.0349 8845.1 1
  84.9907 4800758.5 999
  90.0349 48185.5 10
  107.0376 61919.2 12
  110.0412 162910.3 33
  132.033 5891.2 1
//
