ACCESSION: MSBNK-LCSB-LU039553
RECORD_TITLE: Topiramate; LC-ESI-QFT; MS2; CE: 45; R=17500; [M-H]-
DATE: 2020.08.19
AUTHORS: Elapavalore, A.; Kondić, T.; Singh, R.; Schymanski, E.
LICENSE: CC BY
COPYRIGHT: Copyright © 2019 by Environmental Cheminformatics, LCSB, University of Luxembourg, Luxembourg
PUBLICATION: Elapavalore, A.; Kondić, T.; et al., Adding Open Spectral Data to MassBank and PubChem Using Open Source Tools to Support Non-Targeted Exposomics of Mixtures (submitted).
PROJECT: ENTACT U.S. Environmental Protection Agency’s Non-Targeted Analysis Collaborative Trial
COMMENT: CONFIDENCE standard compound
COMMENT: INTERNAL_ID 395
COMMENT: DATASET 20200303_ENTACT_RP_MIX505
COMMENT: DATA_PROCESSING MERGING RMBmix ver. 0.2.7
COMMENT: DATA_PROCESSING PRESCREENING Shinyscreen ver. 0.8.0
COMMENT: ORIGINAL_ACQUISITION_NO 3586
COMMENT: ORIGINAL_PRECURSOR_SCAN_NO 3584
COMMENT: RAW_DATA available as MSV000091754 at [DOI:10.25345/C5S46HG75]
CH$NAME: Topiramate
CH$NAME: [(1R,2S,6S,9R)-4,4,11,11-tetramethyl-3,5,7,10,12-pentaoxatricyclo[7.3.0.02,6]dodecan-6-yl]methyl sulfamate
CH$COMPOUND_CLASS: N/A; Environmental Standard
CH$FORMULA: C12H21NO8S
CH$EXACT_MASS: 339.0988
CH$SMILES: CC1(C)O[C@@H]2CO[C@@]3(COS(N)(=O)=O)OC(C)(C)O[C@H]3[C@@H]2O1
CH$IUPAC: InChI=1S/C12H21NO8S/c1-10(2)18-7-5-16-12(6-17-22(13,14)15)9(8(7)19-10)20-11(3,4)21-12/h7-9H,5-6H2,1-4H3,(H2,13,14,15)/t7-,8-,9+,12+/m1/s1
CH$LINK: CAS 97240-79-4
CH$LINK: CHEBI CHEBI:63631
CH$LINK: KEGG C07502
CH$LINK: PUBCHEM CID:5284627
CH$LINK: INCHIKEY KJADKKWYZYXHBB-XBWDGYHZSA-N
CH$LINK: CHEMSPIDER 4447672
AC$INSTRUMENT: Q Exactive Orbitrap (Thermo Scientific)
AC$INSTRUMENT_TYPE: LC-ESI-QFT
AC$MASS_SPECTROMETRY: MS_TYPE MS2
AC$MASS_SPECTROMETRY: ION_MODE NEGATIVE
AC$MASS_SPECTROMETRY: IONIZATION ESI
AC$MASS_SPECTROMETRY: FRAGMENTATION_MODE HCD
AC$MASS_SPECTROMETRY: COLLISION_ENERGY 45
AC$MASS_SPECTROMETRY: RESOLUTION 17500
AC$CHROMATOGRAPHY: COLUMN_NAME Acquity BEH C18 1.7um, 2.1x150mm (Waters)
AC$CHROMATOGRAPHY: FLOW_GRADIENT 90/10 at 0-2 min, 0/100 at 15-20 min, 90/10 at 20.1-30 min
AC$CHROMATOGRAPHY: FLOW_RATE 0.20 mL/min
AC$CHROMATOGRAPHY: RETENTION_TIME 14.210 min
AC$CHROMATOGRAPHY: SOLVENT A 0.1% formic acid
AC$CHROMATOGRAPHY: SOLVENT B methanol
MS$FOCUSED_ION: BASE_PEAK 211.0612
MS$FOCUSED_ION: PRECURSOR_M/Z 338.0915
MS$FOCUSED_ION: PRECURSOR_TYPE [M-H]-
MS$FOCUSED_ION: PRECURSOR_INTENSITY 5453745.873047
MS$DATA_PROCESSING: RECALIBRATE loess on assigned fragments and MS1
MS$DATA_PROCESSING: REANALYZE Peaks with additional N2/O included
MS$DATA_PROCESSING: WHOLE RMassBank 2.99.2
PK$SPLASH: splash10-004i-9000000000-4fe0845a957fcb1f504f
PK$ANNOTATION: m/z tentative_formula formula_count mass error(ppm)
  61.9707 NOS- 1 61.9706 1
  63.9624 O2S- 1 63.9624 -0.34
  77.9655 NO2S- 1 77.9655 -0.04
  79.9573 O3S- 1 79.9574 -0.49
  79.9812 H2NO2S- 1 79.9812 -0.28
  80.9652 HO3S- 1 80.9652 0.16
  83.0139 C4H3O2- 1 83.0139 0.13
  89.9656 CNO2S- 1 89.9655 1.03
  94.0298 C5H4NO- 1 94.0298 -0.81
  95.9761 H2NO3S- 1 95.9761 0.15
  96.9601 HO4S- 1 96.9601 -0.1
  97.0295 C5H5O2- 1 97.0295 0.41
  98.0248 C4H4NO2- 1 98.0248 0.35
  110.0248 C5H4NO2- 1 110.0248 0.29
  112.0403 C5H6NO2- 1 112.0404 -0.87
  113.0246 C5H5O3- 1 113.0244 1.79
  122.0248 C6H4NO2- 2 122.0248 0.51
  124.0404 C6H6NO2- 2 124.0404 -0.11
  125.0245 C6H5O3- 1 125.0244 0.88
  140.0353 C6H6NO3- 2 140.0353 0.06
  161.9867 C4H4NO4S- 1 161.9867 0.45
  338.0916 C12H20NO8S- 1 338.0915 0.31
PK$NUM_PEAK: 22
PK$PEAK: m/z int. rel.int.
  61.9707 6253.6 1
  63.9624 35405.9 9
  77.9655 3897644.8 999
  79.9573 43163.4 11
  79.9812 31992.5 8
  80.9652 35554.4 9
  83.0139 9110.7 2
  89.9656 6892.6 1
  94.0298 4831.9 1
  95.9761 468983.7 120
  96.9601 10228.8 2
  97.0295 6594.3 1
  98.0248 9689 2
  110.0248 14846.3 3
  112.0403 11423.6 2
  113.0246 4654.9 1
  122.0248 10008.9 2
  124.0404 19079.8 4
  125.0245 6712.7 1
  140.0353 3976.3 1
  161.9867 7856.4 2
  338.0916 49087.3 12
//
