ACCESSION: MSBNK-LCSB-LU026352
RECORD_TITLE: 2-Chlorobenzenesulfonamide; LC-ESI-QFT; MS2; CE: 30; R=17500; [M-H]-
DATE: 2020.08.19
AUTHORS: Elapavalore, A.; Kondić, T.; Singh, R.; Schymanski, E.
LICENSE: CC BY
COPYRIGHT: Copyright © 2019 by Environmental Cheminformatics, LCSB, University of Luxembourg, Luxembourg
PUBLICATION: Elapavalore, A.; Kondić, T.; et al., Adding Open Spectral Data to MassBank and PubChem Using Open Source Tools to Support Non-Targeted Exposomics of Mixtures (submitted).
PROJECT: ENTACT U.S. Environmental Protection Agency’s Non-Targeted Analysis Collaborative Trial
COMMENT: CONFIDENCE standard compound
COMMENT: INTERNAL_ID 263
COMMENT: DATASET 20200303_ENTACT_RP_MIX505
COMMENT: DATA_PROCESSING MERGING RMBmix ver. 0.2.7
COMMENT: DATA_PROCESSING PRESCREENING Shinyscreen ver. 0.8.0
COMMENT: ORIGINAL_ACQUISITION_NO 4178
COMMENT: ORIGINAL_PRECURSOR_SCAN_NO 4175
COMMENT: RAW_DATA available as MSV000091754 at [DOI:10.25345/C5S46HG75]
CH$NAME: 2-Chlorobenzenesulfonamide
CH$COMPOUND_CLASS: N/A; Environmental Standard
CH$FORMULA: C6H6ClNO2S
CH$EXACT_MASS: 190.9808
CH$SMILES: NS(=O)(=O)C1=CC=CC=C1Cl
CH$IUPAC: InChI=1S/C6H6ClNO2S/c7-5-3-1-2-4-6(5)11(8,9)10/h1-4H,(H2,8,9,10)
CH$LINK: CAS 7153-71-1
CH$LINK: PUBCHEM CID:81410
CH$LINK: INCHIKEY JCCBZCMSYUSCFM-UHFFFAOYSA-N
CH$LINK: CHEMSPIDER 73458
AC$INSTRUMENT: Q Exactive Orbitrap (Thermo Scientific)
AC$INSTRUMENT_TYPE: LC-ESI-QFT
AC$MASS_SPECTROMETRY: MS_TYPE MS2
AC$MASS_SPECTROMETRY: ION_MODE NEGATIVE
AC$MASS_SPECTROMETRY: IONIZATION ESI
AC$MASS_SPECTROMETRY: FRAGMENTATION_MODE HCD
AC$MASS_SPECTROMETRY: COLLISION_ENERGY 30
AC$MASS_SPECTROMETRY: RESOLUTION 17500
AC$CHROMATOGRAPHY: COLUMN_NAME Acquity BEH C18 1.7um, 2.1x150mm (Waters)
AC$CHROMATOGRAPHY: FLOW_GRADIENT 90/10 at 0-2 min, 0/100 at 15-20 min, 90/10 at 20.1-30 min
AC$CHROMATOGRAPHY: FLOW_RATE 0.20 mL/min
AC$CHROMATOGRAPHY: RETENTION_TIME 15.742 min
AC$CHROMATOGRAPHY: SOLVENT A 0.1% formic acid
AC$CHROMATOGRAPHY: SOLVENT B methanol
MS$FOCUSED_ION: BASE_PEAK 167.9858
MS$FOCUSED_ION: PRECURSOR_M/Z 189.9735
MS$FOCUSED_ION: PRECURSOR_TYPE [M-H]-
MS$FOCUSED_ION: PRECURSOR_INTENSITY 1820420.4375
MS$DATA_PROCESSING: RECALIBRATE loess on assigned fragments and MS1
MS$DATA_PROCESSING: REANALYZE Peaks with additional N2/O included
MS$DATA_PROCESSING: WHOLE RMassBank 2.99.2
PK$SPLASH: splash10-000i-0900000000-daca1322bc8b26a0d676
PK$ANNOTATION: m/z tentative_formula formula_count mass error(ppm)
  61.9707 NOS- 1 61.9706 0.69
  77.9655 NO2S- 1 77.9655 -0.23
  78.9731 HNO2S- 1 78.9733 -2.67
  79.9812 H2NO2S- 1 79.9812 -0.08
  126.0116 C6H5ClN- 1 126.0116 0.33
  126.9955 C6H4ClO- 1 126.9956 -0.86
  189.9736 C6H5ClNO2S- 1 189.9735 0.51
PK$NUM_PEAK: 7
PK$PEAK: m/z int. rel.int.
  61.9707 4219.4 2
  77.9655 14865.9 8
  78.9731 8952.2 4
  79.9812 37001.3 20
  126.0116 813899.6 447
  126.9955 16284.1 8
  189.9736 1815203.1 999
//
