ACCESSION: MSBNK-LCSB-LU089455
RECORD_TITLE: Acetohexamide; LC-ESI-QFT; MS2; CE: 75; R=17500; [M-H]-
DATE: 2020.08.19
AUTHORS: Elapavalore, A.; Kondić, T.; Singh, R.; Schymanski, E.
LICENSE: CC BY
COPYRIGHT: Copyright © 2019 by Environmental Cheminformatics, LCSB, University of Luxembourg, Luxembourg
PUBLICATION: Elapavalore, A.; Kondić, T.; et al., Adding Open Spectral Data to MassBank and PubChem Using Open Source Tools to Support Non-Targeted Exposomics of Mixtures (submitted).
PROJECT: ENTACT U.S. Environmental Protection Agency’s Non-Targeted Analysis Collaborative Trial
COMMENT: CONFIDENCE standard compound
COMMENT: INTERNAL_ID 894
COMMENT: DATASET 20200303_ENTACT_RP_MIX508
COMMENT: DATA_PROCESSING MERGING RMBmix ver. 0.2.7
COMMENT: DATA_PROCESSING PRESCREENING Shinyscreen ver. 0.8.0
COMMENT: ORIGINAL_ACQUISITION_NO 4170
COMMENT: ORIGINAL_PRECURSOR_SCAN_NO 4165
COMMENT: RAW_DATA available as MSV000091754 at [DOI:10.25345/C5S46HG75]
CH$NAME: Acetohexamide
CH$NAME: 1-(4-acetylphenyl)sulfonyl-3-cyclohexylurea
CH$COMPOUND_CLASS: N/A; Environmental Standard
CH$FORMULA: C15H20N2O4S
CH$EXACT_MASS: 324.1144
CH$SMILES: CC(=O)C1=CC=C(C=C1)S(=O)(=O)NC(=O)NC1CCCCC1
CH$IUPAC: InChI=1S/C15H20N2O4S/c1-11(18)12-7-9-14(10-8-12)22(20,21)17-15(19)16-13-5-3-2-4-6-13/h7-10,13H,2-6H2,1H3,(H2,16,17,19)
CH$LINK: CAS 968-81-0
CH$LINK: CHEBI CHEBI:28052
CH$LINK: KEGG D00219
CH$LINK: PUBCHEM CID:1989
CH$LINK: INCHIKEY VGZSUPCWNCWDAN-UHFFFAOYSA-N
CH$LINK: CHEMSPIDER 1912
AC$INSTRUMENT: Q Exactive Orbitrap (Thermo Scientific)
AC$INSTRUMENT_TYPE: LC-ESI-QFT
AC$MASS_SPECTROMETRY: MS_TYPE MS2
AC$MASS_SPECTROMETRY: ION_MODE NEGATIVE
AC$MASS_SPECTROMETRY: IONIZATION ESI
AC$MASS_SPECTROMETRY: FRAGMENTATION_MODE HCD
AC$MASS_SPECTROMETRY: COLLISION_ENERGY 75
AC$MASS_SPECTROMETRY: RESOLUTION 17500
AC$CHROMATOGRAPHY: COLUMN_NAME Acquity BEH C18 1.7um, 2.1x150mm (Waters)
AC$CHROMATOGRAPHY: FLOW_GRADIENT 90/10 at 0-2 min, 0/100 at 15-20 min, 90/10 at 20.1-30 min
AC$CHROMATOGRAPHY: FLOW_RATE 0.20 mL/min
AC$CHROMATOGRAPHY: RETENTION_TIME 16.005 min
AC$CHROMATOGRAPHY: SOLVENT A 0.1% formic acid
AC$CHROMATOGRAPHY: SOLVENT B methanol
MS$FOCUSED_ION: BASE_PEAK 323.107
MS$FOCUSED_ION: PRECURSOR_M/Z 323.1071
MS$FOCUSED_ION: PRECURSOR_TYPE [M-H]-
MS$FOCUSED_ION: PRECURSOR_INTENSITY 32927456.29687
MS$DATA_PROCESSING: RECALIBRATE loess on assigned fragments and MS1
MS$DATA_PROCESSING: REANALYZE Peaks with additional N2/O included
MS$DATA_PROCESSING: WHOLE RMassBank 2.99.2
PK$SPLASH: splash10-001l-6900000000-1bb5ad4c09972d94ae97
PK$ANNOTATION: m/z tentative_formula formula_count mass error(ppm)
  61.9706 NOS- 1 61.9706 -0.65
  63.9624 O2S- 1 63.9624 -0.58
  77.9655 NO2S- 1 77.9655 0.29
  78.9733 HNO2S- 1 78.9733 -0.32
  79.9812 H2NO2S- 1 79.9812 0.15
  91.0426 C6H5N- 2 91.0427 -1.11
  92.0506 C6H6N- 2 92.0506 -0.19
  93.0346 C6H5O- 1 93.0346 -0.13
  93.9604 NO3S- 1 93.9604 -0.51
  107.0377 C6H5NO- 2 107.0377 0.23
  108.0217 C6H4O2- 1 108.0217 0.1
  116.0506 C8H6N- 2 116.0506 -0.02
  119.0377 C7H5NO- 2 119.0377 0.01
  119.0502 C8H7O- 2 119.0502 -0.53
  134.0611 C8H8NO- 2 134.0611 -0.09
  135.0451 C8H7O2- 2 135.0452 -0.48
  198.0231 C8H8NO3S- 3 198.023 0.07
PK$NUM_PEAK: 17
PK$PEAK: m/z int. rel.int.
  61.9706 47394.8 4
  63.9624 17754.2 1
  77.9655 85471.1 7
  78.9733 79231.2 6
  79.9812 74387.3 6
  91.0426 89578.8 7
  92.0506 8009896 685
  93.0346 100755.3 8
  93.9604 15575.1 1
  107.0377 64084.5 5
  108.0217 38156.6 3
  116.0506 127466 10
  119.0377 26690 2
  119.0502 13232.8 1
  134.0611 11672735 999
  135.0451 240827.2 20
  198.0231 111093.4 9
//
