ACCESSION: MSBNK-LCSB-LU023701
RECORD_TITLE: Crufomate; LC-ESI-QFT; MS2; CE: 15; R=17500; [M+H]+
DATE: 2020.08.19
AUTHORS: Elapavalore, A.; Kondić, T.; Singh, R.; Schymanski, E.
LICENSE: CC BY
COPYRIGHT: Copyright © 2019 by Environmental Cheminformatics, LCSB, University of Luxembourg, Luxembourg
PUBLICATION: Elapavalore, A.; Kondić, T.; et al., Adding Open Spectral Data to MassBank and PubChem Using Open Source Tools to Support Non-Targeted Exposomics of Mixtures (submitted).
PROJECT: ENTACT U.S. Environmental Protection Agency’s Non-Targeted Analysis Collaborative Trial
COMMENT: CONFIDENCE standard compound
COMMENT: INTERNAL_ID 237
COMMENT: DATASET 20200303_ENTACT_RP_MIX505
COMMENT: DATA_PROCESSING MERGING RMBmix ver. 0.2.7
COMMENT: DATA_PROCESSING PRESCREENING Shinyscreen ver. 0.8.0
COMMENT: ORIGINAL_ACQUISITION_NO 9626
COMMENT: ORIGINAL_PRECURSOR_SCAN_NO 9624
COMMENT: RAW_DATA available as MSV000091754 at [DOI:10.25345/C5S46HG75]
CH$NAME: Crufomate
CH$NAME: N-[(4-tert-butyl-2-chlorophenoxy)-methoxyphosphoryl]methanamine
CH$COMPOUND_CLASS: N/A; Environmental Standard
CH$FORMULA: C12H19ClNO3P
CH$EXACT_MASS: 291.0791
CH$SMILES: CNP(=O)(OC)OC1=CC=C(C=C1Cl)C(C)(C)C
CH$IUPAC: InChI=1S/C12H19ClNO3P/c1-12(2,3)9-6-7-11(10(13)8-9)17-18(15,14-4)16-5/h6-8H,1-5H3,(H,14,15)
CH$LINK: CAS 299-86-5
CH$LINK: CHEBI CHEBI:82111
CH$LINK: KEGG D03610
CH$LINK: PUBCHEM CID:9300
CH$LINK: INCHIKEY BOFHKBLZOYVHSI-UHFFFAOYSA-N
CH$LINK: CHEMSPIDER 8941
AC$INSTRUMENT: Q Exactive Orbitrap (Thermo Scientific)
AC$INSTRUMENT_TYPE: LC-ESI-QFT
AC$MASS_SPECTROMETRY: MS_TYPE MS2
AC$MASS_SPECTROMETRY: ION_MODE POSITIVE
AC$MASS_SPECTROMETRY: IONIZATION ESI
AC$MASS_SPECTROMETRY: FRAGMENTATION_MODE HCD
AC$MASS_SPECTROMETRY: COLLISION_ENERGY 15
AC$MASS_SPECTROMETRY: RESOLUTION 17500
AC$CHROMATOGRAPHY: COLUMN_NAME Acquity BEH C18 1.7um, 2.1x150mm (Waters)
AC$CHROMATOGRAPHY: FLOW_GRADIENT 90/10 at 0-2 min, 0/100 at 15-20 min, 90/10 at 20.1-30 min
AC$CHROMATOGRAPHY: FLOW_RATE 0.20 mL/min
AC$CHROMATOGRAPHY: RETENTION_TIME 18.298 min
AC$CHROMATOGRAPHY: SOLVENT A 0.1% formic acid
AC$CHROMATOGRAPHY: SOLVENT B methanol
MS$FOCUSED_ION: BASE_PEAK 79.0211
MS$FOCUSED_ION: PRECURSOR_M/Z 292.0864
MS$FOCUSED_ION: PRECURSOR_TYPE [M+H]+
MS$FOCUSED_ION: PRECURSOR_INTENSITY 21641858.5
MS$DATA_PROCESSING: RECALIBRATE loess on assigned fragments and MS1
MS$DATA_PROCESSING: REANALYZE Peaks with additional N2/O included
MS$DATA_PROCESSING: WHOLE RMassBank 2.99.2
PK$SPLASH: splash10-0006-0090000000-c9addb7c796d70e41cab
PK$ANNOTATION: m/z tentative_formula formula_count mass error(ppm)
  57.0699 C4H9+ 2 57.0699 0.47
  108.0216 C3H7ClNO+ 3 108.0211 4.77
  126.0313 C2H9NO3P+ 3 126.0315 -0.91
  169.0427 C5H13ClNOP+ 3 169.0418 5.54
  236.0238 C8H12ClNO3P+ 2 236.0238 0.09
  278.0697 C11H18ClNO3P+ 1 278.0707 -3.77
  292.0863 C12H20ClNO3P+ 1 292.0864 -0.35
PK$NUM_PEAK: 7
PK$PEAK: m/z int. rel.int.
  57.0699 81154 4
  108.0216 19368 1
  126.0313 63173.4 3
  169.0427 21895.8 1
  236.0238 1260644.1 66
  278.0697 26371.6 1
  292.0863 19045990 999
//
