ACCESSION: MSBNK-LCSB-LU056605
RECORD_TITLE: Azaconazole; LC-ESI-QFT; MS2; CE: 75; R=17500; [M+H]+
DATE: 2020.08.19
AUTHORS: Elapavalore, A.; Kondić, T.; Singh, R.; Schymanski, E.
LICENSE: CC BY
COPYRIGHT: Copyright © 2019 by Environmental Cheminformatics, LCSB, University of Luxembourg, Luxembourg
PUBLICATION: Elapavalore, A.; Kondić, T.; et al., Adding Open Spectral Data to MassBank and PubChem Using Open Source Tools to Support Non-Targeted Exposomics of Mixtures (submitted).
PROJECT: ENTACT U.S. Environmental Protection Agency’s Non-Targeted Analysis Collaborative Trial
COMMENT: CONFIDENCE standard compound
COMMENT: INTERNAL_ID 566
COMMENT: DATASET 20200303_ENTACT_RP_MIX506
COMMENT: DATA_PROCESSING MERGING RMBmix ver. 0.2.7
COMMENT: DATA_PROCESSING PRESCREENING Shinyscreen ver. 0.8.0
COMMENT: ORIGINAL_ACQUISITION_NO 8706
COMMENT: ORIGINAL_PRECURSOR_SCAN_NO 8705
COMMENT: RAW_DATA available as MSV000091754 at [DOI:10.25345/C5S46HG75]
CH$NAME: Azaconazole
CH$NAME: 1-[[2-(2,4-dichlorophenyl)-1,3-dioxolan-2-yl]methyl]-1,2,4-triazole
CH$COMPOUND_CLASS: N/A; Environmental Standard
CH$FORMULA: C12H11Cl2N3O2
CH$EXACT_MASS: 299.0228
CH$SMILES: ClC1=CC(Cl)=C(C=C1)C1(CN2C=NC=N2)OCCO1
CH$IUPAC: InChI=1S/C12H11Cl2N3O2/c13-9-1-2-10(11(14)5-9)12(18-3-4-19-12)6-17-8-15-7-16-17/h1-2,5,7-8H,3-4,6H2
CH$LINK: CAS 60207-31-0
CH$LINK: CHEBI CHEBI:81898
CH$LINK: KEGG D03023
CH$LINK: PUBCHEM CID:43233
CH$LINK: INCHIKEY AKNQMEBLVAMSNZ-UHFFFAOYSA-N
CH$LINK: CHEMSPIDER 39401
AC$INSTRUMENT: Q Exactive Orbitrap (Thermo Scientific)
AC$INSTRUMENT_TYPE: LC-ESI-QFT
AC$MASS_SPECTROMETRY: MS_TYPE MS2
AC$MASS_SPECTROMETRY: ION_MODE POSITIVE
AC$MASS_SPECTROMETRY: IONIZATION ESI
AC$MASS_SPECTROMETRY: FRAGMENTATION_MODE HCD
AC$MASS_SPECTROMETRY: COLLISION_ENERGY 75
AC$MASS_SPECTROMETRY: RESOLUTION 17500
AC$CHROMATOGRAPHY: COLUMN_NAME Acquity BEH C18 1.7um, 2.1x150mm (Waters)
AC$CHROMATOGRAPHY: FLOW_GRADIENT 90/10 at 0-2 min, 0/100 at 15-20 min, 90/10 at 20.1-30 min
AC$CHROMATOGRAPHY: FLOW_RATE 0.20 mL/min
AC$CHROMATOGRAPHY: RETENTION_TIME 16.727 min
AC$CHROMATOGRAPHY: SOLVENT A 0.1% formic acid
AC$CHROMATOGRAPHY: SOLVENT B methanol
MS$FOCUSED_ION: BASE_PEAK 79.0211
MS$FOCUSED_ION: PRECURSOR_M/Z 300.0301
MS$FOCUSED_ION: PRECURSOR_TYPE [M+H]+
MS$FOCUSED_ION: PRECURSOR_INTENSITY 8367365.875
MS$DATA_PROCESSING: RECALIBRATE loess on assigned fragments and MS1
MS$DATA_PROCESSING: REANALYZE Peaks with additional N2/O included
MS$DATA_PROCESSING: WHOLE RMassBank 2.99.2
PK$SPLASH: splash10-0a4i-0900000000-e024664a91c16bb5e09b
PK$ANNOTATION: m/z tentative_formula formula_count mass error(ppm)
  70.04 C2H4N3+ 1 70.04 0.42
  72.984 C3H2Cl+ 1 72.984 1.02
  89.0385 C7H5+ 1 89.0386 -0.62
  98.9996 C5H4Cl+ 1 98.9996 0.39
  117.0699 C9H9+ 1 117.0699 -0.14
  122.9997 C7H4Cl+ 1 122.9996 0.54
  124.0075 C7H5Cl+ 1 124.0074 0.94
  132.9608 C5H3Cl2+ 1 132.9606 1.52
  152.0024 C8H5ClO+ 4 152.0023 0.17
  158.9764 C7H5Cl2+ 2 158.9763 0.48
  172.9557 C7H3Cl2O+ 2 172.9555 0.81
  172.9662 C9ClNO+ 2 172.9663 -0.27
  196.0292 C7H12Cl2NO+ 4 196.029 0.83
  216.9817 C9H7Cl2O2+ 3 216.9818 -0.12
PK$NUM_PEAK: 14
PK$PEAK: m/z int. rel.int.
  70.04 165329.7 17
  72.984 9898.7 1
  89.0385 46490 4
  98.9996 73198.5 7
  117.0699 19349.3 2
  122.9997 460314 47
  124.0075 115356.7 11
  132.9608 46736.4 4
  152.0024 30342.1 3
  158.9764 9647003 999
  172.9557 537547.6 55
  172.9662 45544.5 4
  196.0292 14493.1 1
  216.9817 45554.6 4
//
