ACCESSION: MSBNK-LCSB-LU107803
RECORD_TITLE: Phosfolan; LC-ESI-QFT; MS2; CE: 45; R=17500; [M+H]+
DATE: 2020.08.19
AUTHORS: Elapavalore, A.; Kondić, T.; Singh, R.; Schymanski, E.
LICENSE: CC BY
COPYRIGHT: Copyright © 2019 by Environmental Cheminformatics, LCSB, University of Luxembourg, Luxembourg
PUBLICATION: Elapavalore, A.; Kondić, T.; et al., Adding Open Spectral Data to MassBank and PubChem Using Open Source Tools to Support Non-Targeted Exposomics of Mixtures (submitted).
PROJECT: ENTACT U.S. Environmental Protection Agency’s Non-Targeted Analysis Collaborative Trial
COMMENT: CONFIDENCE standard compound
COMMENT: INTERNAL_ID 1078
COMMENT: DATASET 20200303_ENTACT_RP_MIX508
COMMENT: DATA_PROCESSING MERGING RMBmix ver. 0.2.7
COMMENT: DATA_PROCESSING PRESCREENING Shinyscreen ver. 0.8.0
COMMENT: ORIGINAL_ACQUISITION_NO 7406
COMMENT: ORIGINAL_PRECURSOR_SCAN_NO 7404
COMMENT: RAW_DATA available as MSV000091754 at [DOI:10.25345/C5S46HG75]
CH$NAME: Phosfolan
CH$NAME: N-diethoxyphosphoryl-1,3-dithiolan-2-imine
CH$COMPOUND_CLASS: N/A; Environmental Standard
CH$FORMULA: C7H14NO3PS2
CH$EXACT_MASS: 255.0153
CH$SMILES: CCOP(=O)(OCC)N=C1SCCS1
CH$IUPAC: InChI=1S/C7H14NO3PS2/c1-3-10-12(9,11-4-2)8-7-13-5-6-14-7/h3-6H2,1-2H3
CH$LINK: CAS 947-02-4
CH$LINK: CHEBI CHEBI:82145
CH$LINK: KEGG C19011
CH$LINK: PUBCHEM CID:13689
CH$LINK: INCHIKEY ILBONRFSLATCRE-UHFFFAOYSA-N
CH$LINK: CHEMSPIDER 13098
AC$INSTRUMENT: Q Exactive Orbitrap (Thermo Scientific)
AC$INSTRUMENT_TYPE: LC-ESI-QFT
AC$MASS_SPECTROMETRY: MS_TYPE MS2
AC$MASS_SPECTROMETRY: ION_MODE POSITIVE
AC$MASS_SPECTROMETRY: IONIZATION ESI
AC$MASS_SPECTROMETRY: FRAGMENTATION_MODE HCD
AC$MASS_SPECTROMETRY: COLLISION_ENERGY 45
AC$MASS_SPECTROMETRY: RESOLUTION 17500
AC$CHROMATOGRAPHY: COLUMN_NAME Acquity BEH C18 1.7um, 2.1x150mm (Waters)
AC$CHROMATOGRAPHY: FLOW_GRADIENT 90/10 at 0-2 min, 0/100 at 15-20 min, 90/10 at 20.1-30 min
AC$CHROMATOGRAPHY: FLOW_RATE 0.20 mL/min
AC$CHROMATOGRAPHY: RETENTION_TIME 14.046 min
AC$CHROMATOGRAPHY: SOLVENT A 0.1% formic acid
AC$CHROMATOGRAPHY: SOLVENT B methanol
MS$FOCUSED_ION: BASE_PEAK 79.0211
MS$FOCUSED_ION: PRECURSOR_M/Z 256.0225
MS$FOCUSED_ION: PRECURSOR_TYPE [M+H]+
MS$FOCUSED_ION: PRECURSOR_INTENSITY 30253866.96875
MS$DATA_PROCESSING: RECALIBRATE loess on assigned fragments and MS1
MS$DATA_PROCESSING: REANALYZE Peaks with additional N2/O included
MS$DATA_PROCESSING: WHOLE RMassBank 2.99.2
PK$SPLASH: splash10-000i-3900000000-22809cb095c031a5e8ba
PK$ANNOTATION: m/z tentative_formula formula_count mass error(ppm)
  59.9902 CH2NS+ 1 59.9902 -1.19
  61.0106 C2H5S+ 1 61.0106 -0.43
  64.9788 H2O2P+ 1 64.9787 2.03
  80.9738 H2O3P+ 1 80.9736 2.69
  81.9815 H3O3P+ 1 81.9814 1.41
  109.005 C2H6O3P+ 1 109.0049 0.85
  114.9613 H4O3PS+ 1 114.9613 0.09
  119.9938 C3H6NS2+ 1 119.9936 1.91
  133.9591 C3H3O2PS+ 1 133.9586 3.93
  139.9565 CH3NO3PS+ 2 139.9566 -0.52
  167.9878 C3H7NO3PS+ 2 167.9879 -0.42
  196.0192 C5H11NO3PS+ 1 196.0192 -0.04
  199.9599 C3H7NO3PS2+ 2 199.9599 -0.17
  227.9912 C5H11NO3PS2+ 1 227.9912 -0.22
  256.0227 C7H15NO3PS2+ 1 256.0225 0.77
PK$NUM_PEAK: 15
PK$PEAK: m/z int. rel.int.
  59.9902 133974.5 9
  61.0106 6907735.5 470
  64.9788 23650.9 1
  80.9738 20677.8 1
  81.9815 22611.5 1
  109.005 101196.3 6
  114.9613 17491.6 1
  119.9938 15864.1 1
  133.9591 25673.2 1
  139.9565 14681232 999
  167.9878 3383865.5 230
  196.0192 461244.6 31
  199.9599 1737245.2 118
  227.9912 461034.2 31
  256.0227 47889.6 3
//
