ACCESSION: MSBNK-LCSB-LU129556
RECORD_TITLE: Fluroxypyr-meptyl; LC-ESI-QFT; MS2; CE: 90; R=17500; [M-H]-
DATE: 2020.08.19
AUTHORS: Elapavalore, A.; Kondić, T.; Singh, R.; Schymanski, E.
LICENSE: CC BY
COPYRIGHT: Copyright © 2019 by Environmental Cheminformatics, LCSB, University of Luxembourg, Luxembourg
PUBLICATION: Elapavalore, A.; Kondić, T.; et al., Adding Open Spectral Data to MassBank and PubChem Using Open Source Tools to Support Non-Targeted Exposomics of Mixtures (submitted).
PROJECT: ENTACT U.S. Environmental Protection Agency’s Non-Targeted Analysis Collaborative Trial
COMMENT: CONFIDENCE standard compound
COMMENT: INTERNAL_ID 1295
COMMENT: DATASET 20200303_ENTACT_RP_MIX504
COMMENT: DATA_PROCESSING MERGING RMBmix ver. 0.2.7
COMMENT: DATA_PROCESSING PRESCREENING Shinyscreen ver. 0.8.0
COMMENT: ORIGINAL_ACQUISITION_NO 5185
COMMENT: ORIGINAL_PRECURSOR_SCAN_NO 5184
COMMENT: RAW_DATA available as MSV000091754 at [DOI:10.25345/C5S46HG75]
CH$NAME: Fluroxypyr-meptyl
CH$NAME: octan-2-yl 2-(4-amino-3,5-dichloro-6-fluoropyridin-2-yl)oxyacetate
CH$COMPOUND_CLASS: N/A; Environmental Standard
CH$FORMULA: C15H21Cl2FN2O3
CH$EXACT_MASS: 366.0913
CH$SMILES: CCCCCCC(C)OC(=O)COC1=NC(F)=C(Cl)C(N)=C1Cl
CH$IUPAC: InChI=1S/C15H21Cl2FN2O3/c1-3-4-5-6-7-9(2)23-10(21)8-22-15-12(17)13(19)11(16)14(18)20-15/h9H,3-8H2,1-2H3,(H2,19,20)
CH$LINK: CAS 69377-81-7
CH$LINK: PUBCHEM CID:54745
CH$LINK: INCHIKEY OLZQTUCTGLHFTQ-UHFFFAOYSA-N
CH$LINK: CHEMSPIDER 49451
AC$INSTRUMENT: Q Exactive Orbitrap (Thermo Scientific)
AC$INSTRUMENT_TYPE: LC-ESI-QFT
AC$MASS_SPECTROMETRY: MS_TYPE MS2
AC$MASS_SPECTROMETRY: ION_MODE NEGATIVE
AC$MASS_SPECTROMETRY: IONIZATION ESI
AC$MASS_SPECTROMETRY: FRAGMENTATION_MODE HCD
AC$MASS_SPECTROMETRY: COLLISION_ENERGY 90
AC$MASS_SPECTROMETRY: RESOLUTION 17500
AC$CHROMATOGRAPHY: COLUMN_NAME Acquity BEH C18 1.7um, 2.1x150mm (Waters)
AC$CHROMATOGRAPHY: FLOW_GRADIENT 90/10 at 0-2 min, 0/100 at 15-20 min, 90/10 at 20.1-30 min
AC$CHROMATOGRAPHY: FLOW_RATE 0.20 mL/min
AC$CHROMATOGRAPHY: RETENTION_TIME 19.914 min
AC$CHROMATOGRAPHY: SOLVENT A 0.1% formic acid
AC$CHROMATOGRAPHY: SOLVENT B methanol
MS$FOCUSED_ION: BASE_PEAK 112.9856
MS$FOCUSED_ION: PRECURSOR_M/Z 365.084
MS$FOCUSED_ION: PRECURSOR_TYPE [M-H]-
MS$FOCUSED_ION: PRECURSOR_INTENSITY 323718.6879883
MS$DATA_PROCESSING: RECALIBRATE loess on assigned fragments and MS1
MS$DATA_PROCESSING: REANALYZE Peaks with additional N2/O included
MS$DATA_PROCESSING: WHOLE RMassBank 2.99.2
PK$SPLASH: splash10-0002-9600000000-215fc4d343fc97b70ecd
PK$ANNOTATION: m/z tentative_formula formula_count mass error(ppm)
  95.0052 C4FN2- 1 95.0051 0.59
  123.0002 C5FN2O- 4 123 1.49
  157.9688 C5ClFN2O- 3 157.9689 -0.29
  183.012 C11H2FNO- 6 183.0126 -3
PK$NUM_PEAK: 4
PK$PEAK: m/z int. rel.int.
  95.0052 31909 999
  123.0002 8676.7 271
  157.9688 11443.4 358
  183.012 3515 110
//
