ACCESSION: MSBNK-LCSB-LU065952
RECORD_TITLE: Pravastatin; LC-ESI-QFT; MS2; CE: 30; R=17500; [M-H]-
DATE: 2020.08.19
AUTHORS: Elapavalore, A.; Kondić, T.; Singh, R.; Schymanski, E.
LICENSE: CC BY
COPYRIGHT: Copyright © 2019 by Environmental Cheminformatics, LCSB, University of Luxembourg, Luxembourg
PUBLICATION: Elapavalore, A.; Kondić, T.; et al., Adding Open Spectral Data to MassBank and PubChem Using Open Source Tools to Support Non-Targeted Exposomics of Mixtures (submitted).
PROJECT: ENTACT U.S. Environmental Protection Agency’s Non-Targeted Analysis Collaborative Trial
COMMENT: CONFIDENCE standard compound
COMMENT: INTERNAL_ID 659
COMMENT: DATASET 20200303_ENTACT_RP_MIX506
COMMENT: DATA_PROCESSING MERGING RMBmix ver. 0.2.7
COMMENT: DATA_PROCESSING PRESCREENING Shinyscreen ver. 0.8.0
COMMENT: ORIGINAL_ACQUISITION_NO 4285
COMMENT: ORIGINAL_PRECURSOR_SCAN_NO 4283
COMMENT: RAW_DATA available as MSV000091754 at [DOI:10.25345/C5S46HG75]
CH$NAME: Pravastatin
CH$NAME: (3R,5R)-7-[(1S,2S,6S,8S,8aR)-6-hydroxy-2-methyl-8-[(2S)-2-methylbutanoyl]oxy-1,2,6,7,8,8a-hexahydronaphthalen-1-yl]-3,5-dihydroxyheptanoic acid
CH$COMPOUND_CLASS: N/A; Environmental Standard
CH$FORMULA: C23H36O7
CH$EXACT_MASS: 424.2461
CH$SMILES: CC[C@H](C)C(=O)O[C@H]1C[C@H](O)C=C2C=C[C@H](C)[C@H](CC[C@@H](O)C[C@@H](O)CC(O)=O)[C@H]21
CH$IUPAC: InChI=1S/C23H36O7/c1-4-13(2)23(29)30-20-11-17(25)9-15-6-5-14(3)19(22(15)20)8-7-16(24)10-18(26)12-21(27)28/h5-6,9,13-14,16-20,22,24-26H,4,7-8,10-12H2,1-3H3,(H,27,28)/t13-,14-,16+,17+,18+,19-,20-,22-/m0/s1
CH$LINK: CAS 81093-37-0
CH$LINK: CHEBI CHEBI:63618
CH$LINK: KEGG D08410
CH$LINK: PUBCHEM CID:54687
CH$LINK: INCHIKEY TUZYXOIXSAXUGO-PZAWKZKUSA-N
CH$LINK: CHEMSPIDER 49398
AC$INSTRUMENT: Q Exactive Orbitrap (Thermo Scientific)
AC$INSTRUMENT_TYPE: LC-ESI-QFT
AC$MASS_SPECTROMETRY: MS_TYPE MS2
AC$MASS_SPECTROMETRY: ION_MODE NEGATIVE
AC$MASS_SPECTROMETRY: IONIZATION ESI
AC$MASS_SPECTROMETRY: FRAGMENTATION_MODE HCD
AC$MASS_SPECTROMETRY: COLLISION_ENERGY 30
AC$MASS_SPECTROMETRY: RESOLUTION 17500
AC$CHROMATOGRAPHY: COLUMN_NAME Acquity BEH C18 1.7um, 2.1x150mm (Waters)
AC$CHROMATOGRAPHY: FLOW_GRADIENT 90/10 at 0-2 min, 0/100 at 15-20 min, 90/10 at 20.1-30 min
AC$CHROMATOGRAPHY: FLOW_RATE 0.20 mL/min
AC$CHROMATOGRAPHY: RETENTION_TIME 16.416 min
AC$CHROMATOGRAPHY: SOLVENT A 0.1% formic acid
AC$CHROMATOGRAPHY: SOLVENT B methanol
MS$FOCUSED_ION: BASE_PEAK 187.134
MS$FOCUSED_ION: PRECURSOR_M/Z 423.2388
MS$FOCUSED_ION: PRECURSOR_TYPE [M-H]-
MS$FOCUSED_ION: PRECURSOR_INTENSITY 2070924
MS$DATA_PROCESSING: RECALIBRATE loess on assigned fragments and MS1
MS$DATA_PROCESSING: REANALYZE Peaks with additional N2/O included
MS$DATA_PROCESSING: WHOLE RMassBank 2.99.2
PK$SPLASH: splash10-0pb9-9600000000-b4986da780d16b0e6559
PK$ANNOTATION: m/z tentative_formula formula_count mass error(ppm)
  57.0345 C3H5O- 1 57.0346 -1.52
  59.0138 C2H3O2- 1 59.0139 -0.31
  85.0295 C4H5O2- 1 85.0295 0.32
  101.0608 C5H9O2- 1 101.0608 0.17
  141.071 C11H9- 1 141.071 0.24
  199.113 C14H15O- 1 199.1128 0.6
  217.1238 C14H17O2- 1 217.1234 1.73
  225.129 C16H17O- 1 225.1285 2.31
  243.0688 C14H11O4- 1 243.0663 10.18
  267.1388 C18H19O2- 1 267.1391 -1.02
  285.1504 C18H21O3- 1 285.1496 2.76
  287.0596 C15H11O6- 1 287.0561 11.99
  303.1601 C18H23O4- 1 303.1602 -0.25
  321.1707 C18H25O5- 1 321.1707 -0.25
PK$NUM_PEAK: 14
PK$PEAK: m/z int. rel.int.
  57.0345 8717.1 9
  59.0138 910772.4 999
  85.0295 318286 349
  101.0608 793462.8 870
  141.071 68159.8 74
  199.113 28228.1 30
  217.1238 6268.7 6
  225.129 2563.4 2
  243.0688 34309.3 37
  267.1388 3662.6 4
  285.1504 4597.9 5
  287.0596 8073.7 8
  303.1601 86224.6 94
  321.1707 28247.1 30
//
