ACCESSION: MSBNK-LCSB-LU014601
RECORD_TITLE: 4-Methoxyaniline; LC-ESI-QFT; MS2; CE: 15; R=17500; [M+H]+
DATE: 2020.08.19
AUTHORS: Elapavalore, A.; Kondić, T.; Singh, R.; Schymanski, E.
LICENSE: CC BY
COPYRIGHT: Copyright © 2019 by Environmental Cheminformatics, LCSB, University of Luxembourg, Luxembourg
PUBLICATION: Elapavalore, A.; Kondić, T.; et al., Adding Open Spectral Data to MassBank and PubChem Using Open Source Tools to Support Non-Targeted Exposomics of Mixtures (submitted).
PROJECT: ENTACT U.S. Environmental Protection Agency’s Non-Targeted Analysis Collaborative Trial
COMMENT: CONFIDENCE standard compound
COMMENT: INTERNAL_ID 146
COMMENT: DATASET 20200303_ENTACT_RP_MIX500
COMMENT: DATA_PROCESSING MERGING RMBmix ver. 0.2.7
COMMENT: DATA_PROCESSING PRESCREENING Shinyscreen ver. 0.8.0
COMMENT: ORIGINAL_ACQUISITION_NO 2037
COMMENT: ORIGINAL_PRECURSOR_SCAN_NO 2035
COMMENT: RAW_DATA available as MSV000091754 at [DOI:10.25345/C5S46HG75]
CH$NAME: 4-Methoxyaniline
CH$NAME: p-Anisidine
CH$COMPOUND_CLASS: N/A; Environmental Standard
CH$FORMULA: C7H9NO
CH$EXACT_MASS: 123.0684
CH$SMILES: COC1=CC=C(N)C=C1
CH$IUPAC: InChI=1S/C7H9NO/c1-9-7-4-2-6(8)3-5-7/h2-5H,8H2,1H3
CH$LINK: CAS 104-94-9
CH$LINK: CHEBI CHEBI:82388
CH$LINK: KEGG C19326
CH$LINK: PUBCHEM CID:7732
CH$LINK: INCHIKEY BHAAPTBBJKJZER-UHFFFAOYSA-N
CH$LINK: CHEMSPIDER 13869414
AC$INSTRUMENT: Q Exactive Orbitrap (Thermo Scientific)
AC$INSTRUMENT_TYPE: LC-ESI-QFT
AC$MASS_SPECTROMETRY: MS_TYPE MS2
AC$MASS_SPECTROMETRY: ION_MODE POSITIVE
AC$MASS_SPECTROMETRY: IONIZATION ESI
AC$MASS_SPECTROMETRY: FRAGMENTATION_MODE HCD
AC$MASS_SPECTROMETRY: COLLISION_ENERGY 15
AC$MASS_SPECTROMETRY: RESOLUTION 17500
AC$CHROMATOGRAPHY: COLUMN_NAME Acquity BEH C18 1.7um, 2.1x150mm (Waters)
AC$CHROMATOGRAPHY: FLOW_GRADIENT 90/10 at 0-2 min, 0/100 at 15-20 min, 90/10 at 20.1-30 min
AC$CHROMATOGRAPHY: FLOW_RATE 0.20 mL/min
AC$CHROMATOGRAPHY: RETENTION_TIME 3.938 min
AC$CHROMATOGRAPHY: SOLVENT A 0.1% formic acid
AC$CHROMATOGRAPHY: SOLVENT B methanol
MS$FOCUSED_ION: BASE_PEAK 79.0211
MS$FOCUSED_ION: PRECURSOR_M/Z 124.0757
MS$FOCUSED_ION: PRECURSOR_TYPE [M+H]+
MS$FOCUSED_ION: PRECURSOR_INTENSITY 5639418.9375
MS$DATA_PROCESSING: RECALIBRATE loess on assigned fragments and MS1
MS$DATA_PROCESSING: REANALYZE Peaks with additional N2/O included
MS$DATA_PROCESSING: WHOLE RMassBank 2.99.2
PK$SPLASH: splash10-00di-3900000000-5ec2de36ee7abed274a5
PK$ANNOTATION: m/z tentative_formula formula_count mass error(ppm)
  53.0386 C4H5+ 1 53.0386 0.73
  65.0385 C5H5+ 1 65.0386 -1.47
  79.0542 C6H7+ 1 79.0542 -0.06
  80.0495 C5H6N+ 1 80.0495 0.74
  81.0573 C5H7N+ 1 81.0573 -0.24
  92.0495 C6H6N+ 1 92.0495 -0.09
  93.0573 C6H7N+ 1 93.0573 0.18
  94.0652 C6H8N+ 1 94.0651 0.29
  95.0492 C6H7O+ 1 95.0491 1.1
  96.0444 C5H6NO+ 1 96.0444 -0.05
  96.0808 C6H10N+ 1 96.0808 0.41
  97.0648 C6H9O+ 1 97.0648 0.42
  107.049 C7H7O+ 1 107.0491 -1.76
  108.0444 C6H6NO+ 1 108.0444 -0.13
  109.0522 C6H7NO+ 1 109.0522 0.19
  110.06 C6H8NO+ 1 110.06 0.02
  123.0679 C7H9NO+ 1 123.0679 0.38
  124.0757 C7H10NO+ 1 124.0757 -0.08
PK$NUM_PEAK: 18
PK$PEAK: m/z int. rel.int.
  53.0386 6408.3 1
  65.0385 15721.7 4
  79.0542 12256 3
  80.0495 9838.8 2
  81.0573 59546.3 17
  92.0495 554396.8 165
  93.0573 758204.6 226
  94.0652 25935.1 7
  95.0492 17617.7 5
  96.0444 7184.5 2
  96.0808 3972.7 1
  97.0648 11177.3 3
  107.049 3751.2 1
  108.0444 6458.6 1
  109.0522 323137.8 96
  110.06 38846.1 11
  123.0679 37495.9 11
  124.0757 3339346.2 999
//
