ACCESSION: MSBNK-LCSB-LU073904
RECORD_TITLE: 3-Dimethylaminophenol; LC-ESI-QFT; MS2; CE: 60; R=17500; [M+H]+
DATE: 2020.08.19
AUTHORS: Elapavalore, A.; Kondić, T.; Singh, R.; Schymanski, E.
LICENSE: CC BY
COPYRIGHT: Copyright © 2019 by Environmental Cheminformatics, LCSB, University of Luxembourg, Luxembourg
PUBLICATION: Elapavalore, A.; Kondić, T.; et al., Adding Open Spectral Data to MassBank and PubChem Using Open Source Tools to Support Non-Targeted Exposomics of Mixtures (submitted).
PROJECT: ENTACT U.S. Environmental Protection Agency’s Non-Targeted Analysis Collaborative Trial
COMMENT: CONFIDENCE standard compound
COMMENT: INTERNAL_ID 739
COMMENT: DATASET 20200303_ENTACT_RP_MIX501
COMMENT: DATA_PROCESSING MERGING RMBmix ver. 0.2.7
COMMENT: DATA_PROCESSING PRESCREENING Shinyscreen ver. 0.8.0
COMMENT: ORIGINAL_ACQUISITION_NO 1951
COMMENT: ORIGINAL_PRECURSOR_SCAN_NO 1949
COMMENT: RAW_DATA available as MSV000091754 at [DOI:10.25345/C5S46HG75]
CH$NAME: 3-Dimethylaminophenol
CH$NAME: 3-(dimethylamino)phenol
CH$COMPOUND_CLASS: N/A; Environmental Standard
CH$FORMULA: C8H11NO
CH$EXACT_MASS: 137.0841
CH$SMILES: CN(C)C1=CC=CC(O)=C1
CH$IUPAC: InChI=1S/C8H11NO/c1-9(2)7-4-3-5-8(10)6-7/h3-6,10H,1-2H3
CH$LINK: CAS 99-07-0
CH$LINK: PUBCHEM CID:7421
CH$LINK: INCHIKEY MESJRHHDBDCQTH-UHFFFAOYSA-N
CH$LINK: CHEMSPIDER 7143
AC$INSTRUMENT: Q Exactive Orbitrap (Thermo Scientific)
AC$INSTRUMENT_TYPE: LC-ESI-QFT
AC$MASS_SPECTROMETRY: MS_TYPE MS2
AC$MASS_SPECTROMETRY: ION_MODE POSITIVE
AC$MASS_SPECTROMETRY: IONIZATION ESI
AC$MASS_SPECTROMETRY: FRAGMENTATION_MODE HCD
AC$MASS_SPECTROMETRY: COLLISION_ENERGY 60
AC$MASS_SPECTROMETRY: RESOLUTION 17500
AC$CHROMATOGRAPHY: COLUMN_NAME Acquity BEH C18 1.7um, 2.1x150mm (Waters)
AC$CHROMATOGRAPHY: FLOW_GRADIENT 90/10 at 0-2 min, 0/100 at 15-20 min, 90/10 at 20.1-30 min
AC$CHROMATOGRAPHY: FLOW_RATE 0.20 mL/min
AC$CHROMATOGRAPHY: RETENTION_TIME 3.789 min
AC$CHROMATOGRAPHY: SOLVENT A 0.1% formic acid
AC$CHROMATOGRAPHY: SOLVENT B methanol
MS$FOCUSED_ION: BASE_PEAK 79.0211
MS$FOCUSED_ION: PRECURSOR_M/Z 138.0913
MS$FOCUSED_ION: PRECURSOR_TYPE [M+H]+
MS$FOCUSED_ION: PRECURSOR_INTENSITY 3035097.1875
MS$DATA_PROCESSING: RECALIBRATE loess on assigned fragments and MS1
MS$DATA_PROCESSING: REANALYZE Peaks with additional N2/O included
MS$DATA_PROCESSING: WHOLE RMassBank 2.99.2
PK$SPLASH: splash10-00di-0900000000-219753314d07c65aa2bf
PK$ANNOTATION: m/z tentative_formula formula_count mass error(ppm)
  65.0385 C5H5+ 1 65.0386 -0.75
  79.0542 C6H7+ 1 79.0542 -0.38
  86.0036 C6N+ 1 86.0025 12.61
  94.0414 C6H6O+ 1 94.0413 1.19
  94.0651 C6H8N+ 1 94.0651 -0.66
  106.0653 C7H8N+ 1 106.0651 1.43
  107.0492 C7H7O+ 1 107.0491 0.87
  120.0808 C8H10N+ 1 120.0808 0.08
  122.0602 C7H8NO+ 1 122.06 0.92
  123.0679 C7H9NO+ 1 123.0679 0.14
  136.0759 C8H10NO+ 1 136.0757 1.76
  138.0914 C8H12NO+ 1 138.0913 0.56
PK$NUM_PEAK: 12
PK$PEAK: m/z int. rel.int.
  65.0385 3234.2 1
  79.0542 4522.6 1
  86.0036 5899.8 2
  94.0414 10141.5 4
  94.0651 3580.2 1
  106.0653 7764.6 3
  107.0492 16212.7 6
  120.0808 4476.3 1
  122.0602 276899.2 112
  123.0679 2468300.5 999
  136.0759 7184 2
  138.0914 397371.2 160
//
