ACCESSION: MSBNK-LCSB-LU096454
RECORD_TITLE: Nonivamide; LC-ESI-QFT; MS2; CE: 60; R=17500; [M-H]-
DATE: 2020.08.19
AUTHORS: Elapavalore, A.; Kondić, T.; Singh, R.; Schymanski, E.
LICENSE: CC BY
COPYRIGHT: Copyright © 2019 by Environmental Cheminformatics, LCSB, University of Luxembourg, Luxembourg
PUBLICATION: Elapavalore, A.; Kondić, T.; et al., Adding Open Spectral Data to MassBank and PubChem Using Open Source Tools to Support Non-Targeted Exposomics of Mixtures (submitted).
PROJECT: ENTACT U.S. Environmental Protection Agency’s Non-Targeted Analysis Collaborative Trial
COMMENT: CONFIDENCE standard compound
COMMENT: INTERNAL_ID 964
COMMENT: DATASET 20200303_ENTACT_RP_MIX502
COMMENT: DATA_PROCESSING MERGING RMBmix ver. 0.2.7
COMMENT: DATA_PROCESSING PRESCREENING Shinyscreen ver. 0.8.0
COMMENT: ORIGINAL_ACQUISITION_NO 4374
COMMENT: ORIGINAL_PRECURSOR_SCAN_NO 4372
COMMENT: RAW_DATA available as MSV000091754 at [DOI:10.25345/C5S46HG75]
CH$NAME: Nonivamide
CH$NAME: N-[(4-hydroxy-3-methoxyphenyl)methyl]nonanamide
CH$COMPOUND_CLASS: N/A; Environmental Standard
CH$FORMULA: C17H27NO3
CH$EXACT_MASS: 293.1991
CH$SMILES: CCCCCCCCC(=O)NCC1=CC(OC)=C(O)C=C1
CH$IUPAC: InChI=1S/C17H27NO3/c1-3-4-5-6-7-8-9-17(20)18-13-14-10-11-15(19)16(12-14)21-2/h10-12,19H,3-9,13H2,1-2H3,(H,18,20)
CH$LINK: CAS 630-63-7
CH$LINK: KEGG D08282
CH$LINK: PUBCHEM CID:2998
CH$LINK: INCHIKEY RGOVYLWUIBMPGK-UHFFFAOYSA-N
CH$LINK: CHEMSPIDER 2891
AC$INSTRUMENT: Q Exactive Orbitrap (Thermo Scientific)
AC$INSTRUMENT_TYPE: LC-ESI-QFT
AC$MASS_SPECTROMETRY: MS_TYPE MS2
AC$MASS_SPECTROMETRY: ION_MODE NEGATIVE
AC$MASS_SPECTROMETRY: IONIZATION ESI
AC$MASS_SPECTROMETRY: FRAGMENTATION_MODE HCD
AC$MASS_SPECTROMETRY: COLLISION_ENERGY 60
AC$MASS_SPECTROMETRY: RESOLUTION 17500
AC$CHROMATOGRAPHY: COLUMN_NAME Acquity BEH C18 1.7um, 2.1x150mm (Waters)
AC$CHROMATOGRAPHY: FLOW_GRADIENT 90/10 at 0-2 min, 0/100 at 15-20 min, 90/10 at 20.1-30 min
AC$CHROMATOGRAPHY: FLOW_RATE 0.20 mL/min
AC$CHROMATOGRAPHY: RETENTION_TIME 17.915 min
AC$CHROMATOGRAPHY: SOLVENT A 0.1% formic acid
AC$CHROMATOGRAPHY: SOLVENT B methanol
MS$FOCUSED_ION: BASE_PEAK 406.0997
MS$FOCUSED_ION: PRECURSOR_M/Z 292.1918
MS$FOCUSED_ION: PRECURSOR_TYPE [M-H]-
MS$FOCUSED_ION: PRECURSOR_INTENSITY 3146559.304688
MS$DATA_PROCESSING: RECALIBRATE loess on assigned fragments and MS1
MS$DATA_PROCESSING: REANALYZE Peaks with additional N2/O included
MS$DATA_PROCESSING: WHOLE RMassBank 2.99.2
PK$SPLASH: splash10-0a4i-0900000000-bea368f052fc74b2e53a
PK$ANNOTATION: m/z tentative_formula formula_count mass error(ppm)
  58.0298 C2H4NO- 1 58.0298 -0.45
  124.0403 C6H6NO2- 1 124.0404 -1.01
  156.1393 C9H18NO- 1 156.1394 -0.45
PK$NUM_PEAK: 3
PK$PEAK: m/z int. rel.int.
  58.0298 8416.3 108
  124.0403 2302.7 29
  156.1393 77400.6 999
//
