ACCESSION: MSBNK-LCSB-LU091104
RECORD_TITLE: Ipconazole; LC-ESI-QFT; MS2; CE: 60; R=17500; [M+H]+
DATE: 2020.08.19
AUTHORS: Elapavalore, A.; Kondić, T.; Singh, R.; Schymanski, E.
LICENSE: CC BY
COPYRIGHT: Copyright © 2019 by Environmental Cheminformatics, LCSB, University of Luxembourg, Luxembourg
PUBLICATION: Elapavalore, A.; Kondić, T.; et al., Adding Open Spectral Data to MassBank and PubChem Using Open Source Tools to Support Non-Targeted Exposomics of Mixtures (submitted).
PROJECT: ENTACT U.S. Environmental Protection Agency’s Non-Targeted Analysis Collaborative Trial
COMMENT: CONFIDENCE standard compound
COMMENT: INTERNAL_ID 911
COMMENT: DATASET 20200303_ENTACT_RP_MIX505
COMMENT: DATA_PROCESSING MERGING RMBmix ver. 0.2.7
COMMENT: DATA_PROCESSING PRESCREENING Shinyscreen ver. 0.8.0
COMMENT: ORIGINAL_ACQUISITION_NO 10131
COMMENT: ORIGINAL_PRECURSOR_SCAN_NO 10129
COMMENT: RAW_DATA available as MSV000091754 at [DOI:10.25345/C5S46HG75]
CH$NAME: Ipconazole
CH$NAME: 2-[(4-chlorophenyl)methyl]-5-propan-2-yl-1-(1,2,4-triazol-1-ylmethyl)cyclopentan-1-ol
CH$COMPOUND_CLASS: N/A; Environmental Standard
CH$FORMULA: C18H24ClN3O
CH$EXACT_MASS: 333.1608
CH$SMILES: CC(C)C1CCC(CC2=CC=C(Cl)C=C2)C1(O)CN1C=NC=N1
CH$IUPAC: InChI=1S/C18H24ClN3O/c1-13(2)17-8-5-15(9-14-3-6-16(19)7-4-14)18(17,23)10-22-12-20-11-21-22/h3-4,6-7,11-13,15,17,23H,5,8-10H2,1-2H3
CH$LINK: CAS 125225-28-7
CH$LINK: CHEBI CHEBI:81770
CH$LINK: KEGG C18471
CH$LINK: PUBCHEM CID:86211
CH$LINK: INCHIKEY QTYCMDBMOLSEAM-UHFFFAOYSA-N
CH$LINK: CHEMSPIDER 77765
AC$INSTRUMENT: Q Exactive Orbitrap (Thermo Scientific)
AC$INSTRUMENT_TYPE: LC-ESI-QFT
AC$MASS_SPECTROMETRY: MS_TYPE MS2
AC$MASS_SPECTROMETRY: ION_MODE POSITIVE
AC$MASS_SPECTROMETRY: IONIZATION ESI
AC$MASS_SPECTROMETRY: FRAGMENTATION_MODE HCD
AC$MASS_SPECTROMETRY: COLLISION_ENERGY 60
AC$MASS_SPECTROMETRY: RESOLUTION 17500
AC$CHROMATOGRAPHY: COLUMN_NAME Acquity BEH C18 1.7um, 2.1x150mm (Waters)
AC$CHROMATOGRAPHY: FLOW_GRADIENT 90/10 at 0-2 min, 0/100 at 15-20 min, 90/10 at 20.1-30 min
AC$CHROMATOGRAPHY: FLOW_RATE 0.20 mL/min
AC$CHROMATOGRAPHY: RETENTION_TIME 19.299 min
AC$CHROMATOGRAPHY: SOLVENT A 0.1% formic acid
AC$CHROMATOGRAPHY: SOLVENT B methanol
MS$FOCUSED_ION: BASE_PEAK 79.0211
MS$FOCUSED_ION: PRECURSOR_M/Z 334.1681
MS$FOCUSED_ION: PRECURSOR_TYPE [M+H]+
MS$FOCUSED_ION: PRECURSOR_INTENSITY 28426980
MS$DATA_PROCESSING: RECALIBRATE loess on assigned fragments and MS1
MS$DATA_PROCESSING: REANALYZE Peaks with additional N2/O included
MS$DATA_PROCESSING: WHOLE RMassBank 2.99.2
PK$SPLASH: splash10-00di-9100000000-587334a2640b15c76335
PK$ANNOTATION: m/z tentative_formula formula_count mass error(ppm)
  55.0542 C4H7+ 1 55.0542 0.18
  59.0491 C3H7O+ 2 59.0491 -1.03
  67.0542 C5H7+ 1 67.0542 -1.1
  69.0698 C5H9+ 1 69.0699 -0.95
  70.0399 C2H4N3+ 1 70.04 -1.4
  79.0541 C6H7+ 1 79.0542 -1.14
  81.0699 C6H9+ 1 81.0699 -0.16
  93.0697 C7H9+ 1 93.0699 -1.44
  95.0854 C7H11+ 1 95.0855 -1.03
  109.1012 C8H13+ 1 109.1012 -0.23
  115.0542 C9H7+ 1 115.0542 -0.09
  116.0621 C9H8+ 1 116.0621 0.01
  125.0152 C7H6Cl+ 2 125.0153 -0.46
  128.0619 C10H8+ 1 128.0621 -1.26
  130.0777 C10H10+ 1 130.0777 -0.37
  139.0308 C8H8Cl+ 2 139.0309 -1.11
  142.0775 C11H10+ 1 142.0777 -1.4
  149.0153 C9H6Cl+ 2 149.0153 0.26
  151.0308 C9H8Cl+ 2 151.0309 -0.52
  156.0933 C12H12+ 1 156.0934 -0.55
  163.0308 C10H8Cl+ 2 163.0309 -0.46
  165.0462 C10H10Cl+ 2 165.0466 -1.9
  177.0464 C11H10Cl+ 2 177.0466 -0.63
  191.0622 C12H12Cl+ 2 191.0622 -0.16
PK$NUM_PEAK: 24
PK$PEAK: m/z int. rel.int.
  55.0542 58796.9 3
  59.0491 40617.7 2
  67.0542 168452 8
  69.0698 50849.7 2
  70.0399 19259312 999
  79.0541 45916.1 2
  81.0699 83608.2 4
  93.0697 28664.3 1
  95.0854 72463.3 3
  109.1012 107313.2 5
  115.0542 39718.1 2
  116.0621 45889.3 2
  125.0152 2209177.2 114
  128.0619 45479.2 2
  130.0777 23589.7 1
  139.0308 52852.4 2
  142.0775 41991 2
  149.0153 20734.6 1
  151.0308 127815.2 6
  156.0933 32215.9 1
  163.0308 146376.7 7
  165.0462 25272.7 1
  177.0464 39896.7 2
  191.0622 43164.8 2
//
