ACCESSION: MSBNK-LCSB-LU024956
RECORD_TITLE: 5,5-Dimethylbarbituric acid; LC-ESI-QFT; MS2; CE: 90; R=17500; [M-H]-
DATE: 2020.08.19
AUTHORS: Elapavalore, A.; Kondić, T.; Singh, R.; Schymanski, E.
LICENSE: CC BY
COPYRIGHT: Copyright © 2019 by Environmental Cheminformatics, LCSB, University of Luxembourg, Luxembourg
PUBLICATION: Elapavalore, A.; Kondić, T.; et al., Adding Open Spectral Data to MassBank and PubChem Using Open Source Tools to Support Non-Targeted Exposomics of Mixtures (submitted).
PROJECT: ENTACT U.S. Environmental Protection Agency’s Non-Targeted Analysis Collaborative Trial
COMMENT: CONFIDENCE standard compound
COMMENT: INTERNAL_ID 249
COMMENT: DATASET 20200303_ENTACT_RP_MIX505
COMMENT: DATA_PROCESSING MERGING RMBmix ver. 0.2.7
COMMENT: DATA_PROCESSING PRESCREENING Shinyscreen ver. 0.8.0
COMMENT: ORIGINAL_ACQUISITION_NO 4668
COMMENT: ORIGINAL_PRECURSOR_SCAN_NO 4666
COMMENT: RAW_DATA available as MSV000091754 at [DOI:10.25345/C5S46HG75]
CH$NAME: 5,5-Dimethylbarbituric acid
CH$NAME: 5,5-dimethyl-1,3-diazinane-2,4,6-trione
CH$COMPOUND_CLASS: N/A; Environmental Standard
CH$FORMULA: C6H8N2O3
CH$EXACT_MASS: 156.0535
CH$SMILES: CC1(C)C(=O)NC(=O)NC1=O
CH$IUPAC: InChI=1S/C6H8N2O3/c1-6(2)3(9)7-5(11)8-4(6)10/h1-2H3,(H2,7,8,9,10,11)
CH$LINK: CAS 24448-94-0
CH$LINK: PUBCHEM CID:90509
CH$LINK: INCHIKEY LAOZSCRCYVBSJA-UHFFFAOYSA-N
CH$LINK: CHEMSPIDER 81718
AC$INSTRUMENT: Q Exactive Orbitrap (Thermo Scientific)
AC$INSTRUMENT_TYPE: LC-ESI-QFT
AC$MASS_SPECTROMETRY: MS_TYPE MS2
AC$MASS_SPECTROMETRY: ION_MODE NEGATIVE
AC$MASS_SPECTROMETRY: IONIZATION ESI
AC$MASS_SPECTROMETRY: FRAGMENTATION_MODE HCD
AC$MASS_SPECTROMETRY: COLLISION_ENERGY 90
AC$MASS_SPECTROMETRY: RESOLUTION 17500
AC$CHROMATOGRAPHY: COLUMN_NAME Acquity BEH C18 1.7um, 2.1x150mm (Waters)
AC$CHROMATOGRAPHY: FLOW_GRADIENT 90/10 at 0-2 min, 0/100 at 15-20 min, 90/10 at 20.1-30 min
AC$CHROMATOGRAPHY: FLOW_RATE 0.20 mL/min
AC$CHROMATOGRAPHY: RETENTION_TIME 17.343 min
AC$CHROMATOGRAPHY: SOLVENT A 0.1% formic acid
AC$CHROMATOGRAPHY: SOLVENT B methanol
MS$FOCUSED_ION: BASE_PEAK 329.1063
MS$FOCUSED_ION: PRECURSOR_M/Z 155.0462
MS$FOCUSED_ION: PRECURSOR_TYPE [M-H]-
MS$FOCUSED_ION: PRECURSOR_INTENSITY 16033252.12891
MS$DATA_PROCESSING: RECALIBRATE loess on assigned fragments and MS1
MS$DATA_PROCESSING: REANALYZE Peaks with additional N2/O included
MS$DATA_PROCESSING: WHOLE RMassBank 2.99.2
PK$SPLASH: splash10-014i-9000000000-0245398afb99096539e8
PK$ANNOTATION: m/z tentative_formula formula_count mass error(ppm)
  54.0349 C3H4N- 1 54.0349 -0.84
  64.0067 C3N2- 1 64.0067 0.23
  65.0145 C3HN2- 1 65.0145 0.23
  65.9986 C3NO- 1 65.9985 0.2
  79.0302 C4H3N2- 1 79.0302 0.31
  80.0016 C3N2O- 1 80.0016 0.21
  97.017 C4H3NO2- 1 97.0169 0.44
  109.0043 C4HN2O2- 1 109.0044 -0.06
  110.0121 C4H2N2O2- 1 110.0122 -0.65
  125.0357 C5H5N2O2- 1 125.0357 0.06
  140.0226 C5H4N2O3- 1 140.0227 -0.9
  141.0306 C5H5N2O3- 1 141.0306 0.31
  155.0464 C6H7N2O3- 1 155.0462 1.5
PK$NUM_PEAK: 13
PK$PEAK: m/z int. rel.int.
  54.0349 3176.6 1
  64.0067 214678.1 99
  65.0145 206243.4 95
  65.9986 2151401.2 999
  79.0302 90082.6 41
  80.0016 8760.6 4
  97.017 10748.9 4
  109.0043 16704.4 7
  110.0121 28927.3 13
  125.0357 8623.6 4
  140.0226 6923.7 3
  141.0306 9094.4 4
  155.0464 2947.8 1
//
