ACCESSION: MSBNK-LCSB-LU078803
RECORD_TITLE: Fluorescein; LC-ESI-QFT; MS2; CE: 45; R=17500; [M+H]+
DATE: 2020.08.19
AUTHORS: Elapavalore, A.; Kondić, T.; Singh, R.; Schymanski, E.
LICENSE: CC BY
COPYRIGHT: Copyright © 2019 by Environmental Cheminformatics, LCSB, University of Luxembourg, Luxembourg
PUBLICATION: Elapavalore, A.; Kondić, T.; et al., Adding Open Spectral Data to MassBank and PubChem Using Open Source Tools to Support Non-Targeted Exposomics of Mixtures (submitted).
PROJECT: ENTACT U.S. Environmental Protection Agency’s Non-Targeted Analysis Collaborative Trial
COMMENT: CONFIDENCE standard compound
COMMENT: INTERNAL_ID 788
COMMENT: DATASET 20200303_ENTACT_RP_MIX508
COMMENT: DATA_PROCESSING MERGING RMBmix ver. 0.2.7
COMMENT: DATA_PROCESSING PRESCREENING Shinyscreen ver. 0.8.0
COMMENT: ORIGINAL_ACQUISITION_NO 8336
COMMENT: ORIGINAL_PRECURSOR_SCAN_NO 8335
COMMENT: RAW_DATA available as MSV000091754 at [DOI:10.25345/C5S46HG75]
CH$NAME: Fluorescein
CH$NAME: 3',6'-dihydroxyspiro[2-benzofuran-3,9'-xanthene]-1-one
CH$COMPOUND_CLASS: N/A; Environmental Standard
CH$FORMULA: C20H12O5
CH$EXACT_MASS: 332.0685
CH$SMILES: OC1=CC2=C(C=C1)C1(OC(=O)C3=C1C=CC=C3)C1=C(O2)C=C(O)C=C1
CH$IUPAC: InChI=1S/C20H12O5/c21-11-5-7-15-17(9-11)24-18-10-12(22)6-8-16(18)20(15)14-4-2-1-3-13(14)19(23)25-20/h1-10,21-22H
CH$LINK: CAS 518-45-6
CH$LINK: CHEBI CHEBI:31624
CH$LINK: KEGG D01261
CH$LINK: PUBCHEM CID:16850
CH$LINK: INCHIKEY GNBHRKFJIUUOQI-UHFFFAOYSA-N
CH$LINK: CHEMSPIDER 15968
AC$INSTRUMENT: Q Exactive Orbitrap (Thermo Scientific)
AC$INSTRUMENT_TYPE: LC-ESI-QFT
AC$MASS_SPECTROMETRY: MS_TYPE MS2
AC$MASS_SPECTROMETRY: ION_MODE POSITIVE
AC$MASS_SPECTROMETRY: IONIZATION ESI
AC$MASS_SPECTROMETRY: FRAGMENTATION_MODE HCD
AC$MASS_SPECTROMETRY: COLLISION_ENERGY 45
AC$MASS_SPECTROMETRY: RESOLUTION 17500
AC$CHROMATOGRAPHY: COLUMN_NAME Acquity BEH C18 1.7um, 2.1x150mm (Waters)
AC$CHROMATOGRAPHY: FLOW_GRADIENT 90/10 at 0-2 min, 0/100 at 15-20 min, 90/10 at 20.1-30 min
AC$CHROMATOGRAPHY: FLOW_RATE 0.20 mL/min
AC$CHROMATOGRAPHY: RETENTION_TIME 15.821 min
AC$CHROMATOGRAPHY: SOLVENT A 0.1% formic acid
AC$CHROMATOGRAPHY: SOLVENT B methanol
MS$FOCUSED_ION: BASE_PEAK 79.0211
MS$FOCUSED_ION: PRECURSOR_M/Z 333.0757
MS$FOCUSED_ION: PRECURSOR_TYPE [M+H]+
MS$FOCUSED_ION: PRECURSOR_INTENSITY 18399140.375
MS$DATA_PROCESSING: RECALIBRATE loess on assigned fragments and MS1
MS$DATA_PROCESSING: REANALYZE Peaks with additional N2/O included
MS$DATA_PROCESSING: WHOLE RMassBank 2.99.2
PK$SPLASH: splash10-001i-0009000000-063a2998eb5136a3d92f
PK$ANNOTATION: m/z tentative_formula formula_count mass error(ppm)
  231.0803 C17H11O+ 1 231.0804 -0.59
  259.0753 C18H11O2+ 1 259.0754 -0.2
  271.0753 C19H11O2+ 1 271.0754 -0.05
  287.0703 C19H11O3+ 1 287.0703 0.1
  289.086 C19H13O3+ 1 289.0859 0.14
  305.081 C19H13O4+ 1 305.0808 0.38
  315.0655 C20H11O4+ 1 315.0652 1.04
  316.0714 C20H12O4+ 1 316.073 -5.07
  333.0758 C20H13O5+ 1 333.0757 0.05
PK$NUM_PEAK: 9
PK$PEAK: m/z int. rel.int.
  231.0803 18811.9 1
  259.0753 30359.2 2
  271.0753 245272.8 19
  287.0703 467601.7 36
  289.086 234085.4 18
  305.081 193696 15
  315.0655 66917 5
  316.0714 14265 1
  333.0758 12853707 999
//
