ACCESSION: MSBNK-LCSB-LU020103
RECORD_TITLE: 4-Methoxyaniline; LC-ESI-QFT; MS2; CE: 45; R=17500; [M+H]+
DATE: 2020.08.19
AUTHORS: Elapavalore, A.; Kondić, T.; Singh, R.; Schymanski, E.
LICENSE: CC BY
COPYRIGHT: Copyright © 2019 by Environmental Cheminformatics, LCSB, University of Luxembourg, Luxembourg
PUBLICATION: Elapavalore, A.; Kondić, T.; et al., Adding Open Spectral Data to MassBank and PubChem Using Open Source Tools to Support Non-Targeted Exposomics of Mixtures (submitted).
PROJECT: ENTACT U.S. Environmental Protection Agency’s Non-Targeted Analysis Collaborative Trial
COMMENT: CONFIDENCE standard compound
COMMENT: INTERNAL_ID 201
COMMENT: DATASET 20200303_ENTACT_RP_MIX501
COMMENT: DATA_PROCESSING MERGING RMBmix ver. 0.2.7
COMMENT: DATA_PROCESSING PRESCREENING Shinyscreen ver. 0.8.0
COMMENT: ORIGINAL_ACQUISITION_NO 2049
COMMENT: ORIGINAL_PRECURSOR_SCAN_NO 2048
COMMENT: RAW_DATA available as MSV000091754 at [DOI:10.25345/C5S46HG75]
CH$NAME: 4-Methoxyaniline
CH$NAME: p-Anisidine
CH$COMPOUND_CLASS: N/A; Environmental Standard
CH$FORMULA: C7H9NO
CH$EXACT_MASS: 123.0684
CH$SMILES: COC1=CC=C(N)C=C1
CH$IUPAC: InChI=1S/C7H9NO/c1-9-7-4-2-6(8)3-5-7/h2-5H,8H2,1H3
CH$LINK: CAS 104-94-9
CH$LINK: CHEBI CHEBI:82388
CH$LINK: KEGG C19326
CH$LINK: PUBCHEM CID:7732
CH$LINK: INCHIKEY BHAAPTBBJKJZER-UHFFFAOYSA-N
CH$LINK: CHEMSPIDER 13869414
AC$INSTRUMENT: Q Exactive Orbitrap (Thermo Scientific)
AC$INSTRUMENT_TYPE: LC-ESI-QFT
AC$MASS_SPECTROMETRY: MS_TYPE MS2
AC$MASS_SPECTROMETRY: ION_MODE POSITIVE
AC$MASS_SPECTROMETRY: IONIZATION ESI
AC$MASS_SPECTROMETRY: FRAGMENTATION_MODE HCD
AC$MASS_SPECTROMETRY: COLLISION_ENERGY 45
AC$MASS_SPECTROMETRY: RESOLUTION 17500
AC$CHROMATOGRAPHY: COLUMN_NAME Acquity BEH C18 1.7um, 2.1x150mm (Waters)
AC$CHROMATOGRAPHY: FLOW_GRADIENT 90/10 at 0-2 min, 0/100 at 15-20 min, 90/10 at 20.1-30 min
AC$CHROMATOGRAPHY: FLOW_RATE 0.20 mL/min
AC$CHROMATOGRAPHY: RETENTION_TIME 3.937 min
AC$CHROMATOGRAPHY: SOLVENT A 0.1% formic acid
AC$CHROMATOGRAPHY: SOLVENT B methanol
MS$FOCUSED_ION: BASE_PEAK 79.0211
MS$FOCUSED_ION: PRECURSOR_M/Z 124.0757
MS$FOCUSED_ION: PRECURSOR_TYPE [M+H]+
MS$FOCUSED_ION: PRECURSOR_INTENSITY 5953986.4375
MS$DATA_PROCESSING: RECALIBRATE loess on assigned fragments and MS1
MS$DATA_PROCESSING: REANALYZE Peaks with additional N2/O included
MS$DATA_PROCESSING: WHOLE RMassBank 2.99.2
PK$SPLASH: splash10-00dl-5900000000-6a1f97698c29a6315189
PK$ANNOTATION: m/z tentative_formula formula_count mass error(ppm)
  53.0386 C4H5+ 1 53.0386 0
  65.0386 C5H5+ 1 65.0386 -0.4
  77.0386 C6H5+ 1 77.0386 0.14
  79.0542 C6H7+ 1 79.0542 -0.38
  80.0494 C5H6N+ 1 80.0495 -1.4
  81.0573 C5H7N+ 1 81.0573 0.18
  92.0495 C6H6N+ 1 92.0495 -0.04
  93.0573 C6H7N+ 1 93.0573 0.06
  94.0651 C6H8N+ 1 94.0651 -0.01
  95.0492 C6H7O+ 1 95.0491 0.33
  96.0443 C5H6NO+ 1 96.0444 -0.48
  96.0809 C6H10N+ 1 96.0808 1.02
  97.0648 C6H9O+ 1 97.0648 0.39
  107.0491 C7H7O+ 1 107.0491 0.02
  108.0444 C6H6NO+ 1 108.0444 0.22
  109.0522 C6H7NO+ 1 109.0522 0.12
  110.06 C6H8NO+ 1 110.06 -0.32
  123.0679 C7H9NO+ 1 123.0679 0.64
  124.0757 C7H10NO+ 1 124.0757 -0.07
PK$NUM_PEAK: 19
PK$PEAK: m/z int. rel.int.
  53.0386 12753.6 3
  65.0386 36457.3 10
  77.0386 7777.1 2
  79.0542 20448.1 5
  80.0494 19913.7 5
  81.0573 108070.1 30
  92.0495 847526.8 239
  93.0573 1300090.4 367
  94.0651 39942.3 11
  95.0492 43319.7 12
  96.0443 8759.1 2
  96.0809 5747.3 1
  97.0648 16586.1 4
  107.0491 5417.6 1
  108.0444 9858.7 2
  109.0522 541432.6 153
  110.06 59999.6 16
  123.0679 54051.4 15
  124.0757 3533017 999
//
