ACCESSION: MSBNK-LCSB-LU119005
RECORD_TITLE: Tebuconazole; LC-ESI-QFT; MS2; CE: 75; R=17500; [M+H]+
DATE: 2020.08.19
AUTHORS: Elapavalore, A.; Kondić, T.; Singh, R.; Schymanski, E.
LICENSE: CC BY
COPYRIGHT: Copyright © 2019 by Environmental Cheminformatics, LCSB, University of Luxembourg, Luxembourg
PUBLICATION: Elapavalore, A.; Kondić, T.; et al., Adding Open Spectral Data to MassBank and PubChem Using Open Source Tools to Support Non-Targeted Exposomics of Mixtures (submitted).
PROJECT: ENTACT U.S. Environmental Protection Agency’s Non-Targeted Analysis Collaborative Trial
COMMENT: CONFIDENCE standard compound
COMMENT: INTERNAL_ID 1190
COMMENT: DATASET 20200303_ENTACT_RP_MIX508
COMMENT: DATA_PROCESSING MERGING RMBmix ver. 0.2.7
COMMENT: DATA_PROCESSING PRESCREENING Shinyscreen ver. 0.8.0
COMMENT: ORIGINAL_ACQUISITION_NO 9738
COMMENT: ORIGINAL_PRECURSOR_SCAN_NO 9737
COMMENT: RAW_DATA available as MSV000091754 at [DOI:10.25345/C5S46HG75]
CH$NAME: Tebuconazole
CH$NAME: 1-(4-chlorophenyl)-4,4-dimethyl-3-(1,2,4-triazol-1-ylmethyl)pentan-3-ol
CH$COMPOUND_CLASS: N/A; Environmental Standard
CH$FORMULA: C16H22ClN3O
CH$EXACT_MASS: 307.1451
CH$SMILES: CC(C)(C)C(O)(CCC1=CC=C(Cl)C=C1)CN1C=NC=N1
CH$IUPAC: InChI=1S/C16H22ClN3O/c1-15(2,3)16(21,10-20-12-18-11-19-20)9-8-13-4-6-14(17)7-5-13/h4-7,11-12,21H,8-10H2,1-3H3
CH$LINK: CAS 84808-29-7
CH$LINK: CHEBI CHEBI:83779
CH$LINK: KEGG C18489
CH$LINK: PUBCHEM CID:86102
CH$LINK: INCHIKEY PXMNMQRDXWABCY-UHFFFAOYSA-N
CH$LINK: CHEMSPIDER 77680
AC$INSTRUMENT: Q Exactive Orbitrap (Thermo Scientific)
AC$INSTRUMENT_TYPE: LC-ESI-QFT
AC$MASS_SPECTROMETRY: MS_TYPE MS2
AC$MASS_SPECTROMETRY: ION_MODE POSITIVE
AC$MASS_SPECTROMETRY: IONIZATION ESI
AC$MASS_SPECTROMETRY: FRAGMENTATION_MODE HCD
AC$MASS_SPECTROMETRY: COLLISION_ENERGY 75
AC$MASS_SPECTROMETRY: RESOLUTION 17500
AC$CHROMATOGRAPHY: COLUMN_NAME Acquity BEH C18 1.7um, 2.1x150mm (Waters)
AC$CHROMATOGRAPHY: FLOW_GRADIENT 90/10 at 0-2 min, 0/100 at 15-20 min, 90/10 at 20.1-30 min
AC$CHROMATOGRAPHY: FLOW_RATE 0.20 mL/min
AC$CHROMATOGRAPHY: RETENTION_TIME 18.593 min
AC$CHROMATOGRAPHY: SOLVENT A 0.1% formic acid
AC$CHROMATOGRAPHY: SOLVENT B methanol
MS$FOCUSED_ION: BASE_PEAK 79.0212
MS$FOCUSED_ION: PRECURSOR_M/Z 308.1524
MS$FOCUSED_ION: PRECURSOR_TYPE [M+H]+
MS$FOCUSED_ION: PRECURSOR_INTENSITY 21549901.90625
MS$DATA_PROCESSING: RECALIBRATE loess on assigned fragments and MS1
MS$DATA_PROCESSING: REANALYZE Peaks with additional N2/O included
MS$DATA_PROCESSING: WHOLE RMassBank 2.99.2
PK$SPLASH: splash10-00di-9100000000-c2cd3ad130c6c19de8cc
PK$ANNOTATION: m/z tentative_formula formula_count mass error(ppm)
  53.0022 C3HO+ 2 53.0022 0.77
  55.0542 C4H7+ 1 55.0542 0.11
  57.0699 C4H9+ 1 57.0699 -0.33
  59.0491 C3H7O+ 2 59.0491 -0.33
  69.0698 C5H9+ 1 69.0699 -1.32
  70.0399 C2H4N3+ 1 70.04 -1.23
  83.0855 C6H11+ 1 83.0855 -0.41
  89.0385 C7H5+ 1 89.0386 -1.1
  91.0543 C7H7+ 1 91.0542 0.81
  98.9997 C5H4Cl+ 1 98.9996 0.99
  103.0542 C8H7+ 1 103.0542 -0.32
  115.0542 C9H7+ 1 115.0542 -0.33
  116.062 C9H8+ 1 116.0621 -0.29
  125.0152 C7H6Cl+ 2 125.0153 -0.33
  128.0618 C10H8+ 1 128.0621 -1.8
  129.0697 C10H9+ 1 129.0699 -1.53
  130.0776 C10H10+ 1 130.0777 -0.44
  133.0648 C9H9O+ 3 133.0648 0.04
  137.0153 C8H6Cl+ 2 137.0153 0.53
  139.0308 C8H8Cl+ 2 139.0309 -0.54
  143.0604 C9H7N2+ 2 143.0604 -0.04
  144.0932 C11H12+ 1 144.0934 -1.23
  151.0309 C9H8Cl+ 2 151.0309 -0.32
  165.0463 C10H10Cl+ 2 165.0466 -1.39
PK$NUM_PEAK: 24
PK$PEAK: m/z int. rel.int.
  53.0022 23130.1 1
  55.0542 136051.9 7
  57.0699 301860.8 16
  59.0491 563480.1 30
  69.0698 37364.7 2
  70.0399 18432262 999
  83.0855 54784.1 2
  89.0385 62879.6 3
  91.0543 28858 1
  98.9997 29227.8 1
  103.0542 97749.5 5
  115.0542 305568 16
  116.062 513789.2 27
  125.0152 2133112.5 115
  128.0618 18731.3 1
  129.0697 75183.7 4
  130.0776 118009.4 6
  133.0648 21520.4 1
  137.0153 24605 1
  139.0308 92314.1 5
  143.0604 31160 1
  144.0932 19206.8 1
  151.0309 200302.3 10
  165.0463 29368.5 1
//
