ACCESSION: MSBNK-LCSB-LU136701
RECORD_TITLE: Dicrotophos; LC-ESI-QFT; MS2; CE: 15; R=17500; [M+H]+
DATE: 2020.08.19
AUTHORS: Elapavalore, A.; Kondić, T.; Singh, R.; Schymanski, E.
LICENSE: CC BY
COPYRIGHT: Copyright © 2019 by Environmental Cheminformatics, LCSB, University of Luxembourg, Luxembourg
PUBLICATION: Elapavalore, A.; Kondić, T.; et al., Adding Open Spectral Data to MassBank and PubChem Using Open Source Tools to Support Non-Targeted Exposomics of Mixtures (submitted).
PROJECT: ENTACT U.S. Environmental Protection Agency’s Non-Targeted Analysis Collaborative Trial
COMMENT: CONFIDENCE standard compound
COMMENT: INTERNAL_ID 1367
COMMENT: DATASET 20200303_ENTACT_RP_MIX507
COMMENT: DATA_PROCESSING MERGING RMBmix ver. 0.2.7
COMMENT: DATA_PROCESSING PRESCREENING Shinyscreen ver. 0.8.0
COMMENT: ORIGINAL_ACQUISITION_NO 6204
COMMENT: ORIGINAL_PRECURSOR_SCAN_NO 6202
COMMENT: RAW_DATA available as MSV000091754 at [DOI:10.25345/C5S46HG75]
CH$NAME: Dicrotophos
CH$NAME: [(E)-4-(dimethylamino)-4-oxobut-2-en-2-yl] dimethyl phosphate
CH$COMPOUND_CLASS: N/A; Environmental Standard
CH$FORMULA: C8H16NO5P
CH$EXACT_MASS: 237.0766
CH$SMILES: COP(=O)(OC)O\C(C)=C\C(=O)N(C)C
CH$IUPAC: InChI=1S/C8H16NO5P/c1-7(6-8(10)9(2)3)14-15(11,12-4)13-5/h6H,1-5H3/b7-6+
CH$LINK: CAS 141-66-2
CH$LINK: CHEBI CHEBI:38658
CH$LINK: KEGG C18656
CH$LINK: PUBCHEM CID:5371560
CH$LINK: INCHIKEY VEENJGZXVHKXNB-VOTSOKGWSA-N
CH$LINK: CHEMSPIDER 4522051
AC$INSTRUMENT: Q Exactive Orbitrap (Thermo Scientific)
AC$INSTRUMENT_TYPE: LC-ESI-QFT
AC$MASS_SPECTROMETRY: MS_TYPE MS2
AC$MASS_SPECTROMETRY: ION_MODE POSITIVE
AC$MASS_SPECTROMETRY: IONIZATION ESI
AC$MASS_SPECTROMETRY: FRAGMENTATION_MODE HCD
AC$MASS_SPECTROMETRY: COLLISION_ENERGY 15
AC$MASS_SPECTROMETRY: RESOLUTION 17500
AC$CHROMATOGRAPHY: COLUMN_NAME Acquity BEH C18 1.7um, 2.1x150mm (Waters)
AC$CHROMATOGRAPHY: FLOW_GRADIENT 90/10 at 0-2 min, 0/100 at 15-20 min, 90/10 at 20.1-30 min
AC$CHROMATOGRAPHY: FLOW_RATE 0.20 mL/min
AC$CHROMATOGRAPHY: RETENTION_TIME 11.817 min
AC$CHROMATOGRAPHY: SOLVENT A 0.1% formic acid
AC$CHROMATOGRAPHY: SOLVENT B methanol
MS$FOCUSED_ION: BASE_PEAK 79.0211
MS$FOCUSED_ION: PRECURSOR_M/Z 238.0839
MS$FOCUSED_ION: PRECURSOR_TYPE [M+H]+
MS$FOCUSED_ION: PRECURSOR_INTENSITY 15022168.25
MS$DATA_PROCESSING: RECALIBRATE loess on assigned fragments and MS1
MS$DATA_PROCESSING: REANALYZE Peaks with additional N2/O included
MS$DATA_PROCESSING: WHOLE RMassBank 2.99.2
PK$SPLASH: splash10-03di-0900000000-5327076e0559f921affb
PK$ANNOTATION: m/z tentative_formula formula_count mass error(ppm)
  58.0651 C3H8N+ 1 58.0651 0.37
  67.0177 C4H3O+ 2 67.0178 -2.03
  70.0651 C4H8N+ 1 70.0651 -0.97
  72.0443 C3H6NO+ 1 72.0444 -0.73
  81.0335 C5H5O+ 2 81.0335 -0.36
  84.0809 C5H10N+ 1 84.0808 0.91
  110.0604 C6H8NO+ 1 110.06 2.85
  112.0757 C6H10NO+ 1 112.0757 -0.27
  127.0154 C2H8O4P+ 1 127.0155 -0.18
  193.0261 C6H10O5P+ 1 193.026 0.34
  238.0839 C8H17NO5P+ 1 238.0839 0.22
PK$NUM_PEAK: 11
PK$PEAK: m/z int. rel.int.
  58.0651 5889.9 1
  67.0177 41345.4 10
  70.0651 22398.8 5
  72.0443 621256.9 156
  81.0335 4165.4 1
  84.0809 6139.7 1
  110.0604 4056.3 1
  112.0757 3968812.8 999
  127.0154 1164529.9 293
  193.0261 1452610.8 365
  238.0839 268304.3 67
//
