ACCESSION: MSBNK-LCSB-LU098255
RECORD_TITLE: 4-nitrophenol; LC-ESI-QFT; MS2; CE: 75; R=17500; [M-H]-
DATE: 2020.08.19
AUTHORS: Elapavalore, A.; Kondić, T.; Singh, R.; Schymanski, E.
LICENSE: CC BY
COPYRIGHT: Copyright © 2019 by Environmental Cheminformatics, LCSB, University of Luxembourg, Luxembourg
PUBLICATION: Elapavalore, A.; Kondić, T.; et al., Adding Open Spectral Data to MassBank and PubChem Using Open Source Tools to Support Non-Targeted Exposomics of Mixtures (submitted).
PROJECT: ENTACT U.S. Environmental Protection Agency’s Non-Targeted Analysis Collaborative Trial
COMMENT: CONFIDENCE standard compound
COMMENT: INTERNAL_ID 982
COMMENT: DATASET 20200303_ENTACT_RP_MIX508
COMMENT: DATA_PROCESSING MERGING RMBmix ver. 0.2.7
COMMENT: DATA_PROCESSING PRESCREENING Shinyscreen ver. 0.8.0
COMMENT: ORIGINAL_ACQUISITION_NO 3492
COMMENT: ORIGINAL_PRECURSOR_SCAN_NO 3491
COMMENT: RAW_DATA available as MSV000091754 at [DOI:10.25345/C5S46HG75]
CH$NAME: 4-nitrophenol
CH$COMPOUND_CLASS: N/A; Environmental Standard
CH$FORMULA: C6H5NO3
CH$EXACT_MASS: 139.0269
CH$SMILES: OC1=CC=C(C=C1)[N+]([O-])=O
CH$IUPAC: InChI=1S/C6H5NO3/c8-6-3-1-5(2-4-6)7(9)10/h1-4,8H
CH$LINK: CAS 100-02-7
CH$LINK: CHEBI CHEBI:16836
CH$LINK: KEGG C00870
CH$LINK: PUBCHEM CID:980
CH$LINK: INCHIKEY BTJIUGUIPKRLHP-UHFFFAOYSA-N
CH$LINK: CHEMSPIDER 955
AC$INSTRUMENT: Q Exactive Orbitrap (Thermo Scientific)
AC$INSTRUMENT_TYPE: LC-ESI-QFT
AC$MASS_SPECTROMETRY: MS_TYPE MS2
AC$MASS_SPECTROMETRY: ION_MODE NEGATIVE
AC$MASS_SPECTROMETRY: IONIZATION ESI
AC$MASS_SPECTROMETRY: FRAGMENTATION_MODE HCD
AC$MASS_SPECTROMETRY: COLLISION_ENERGY 75
AC$MASS_SPECTROMETRY: RESOLUTION 17500
AC$CHROMATOGRAPHY: COLUMN_NAME Acquity BEH C18 1.7um, 2.1x150mm (Waters)
AC$CHROMATOGRAPHY: FLOW_GRADIENT 90/10 at 0-2 min, 0/100 at 15-20 min, 90/10 at 20.1-30 min
AC$CHROMATOGRAPHY: FLOW_RATE 0.20 mL/min
AC$CHROMATOGRAPHY: RETENTION_TIME 13.886 min
AC$CHROMATOGRAPHY: SOLVENT A 0.1% formic acid
AC$CHROMATOGRAPHY: SOLVENT B methanol
MS$FOCUSED_ION: BASE_PEAK 138.0196
MS$FOCUSED_ION: PRECURSOR_M/Z 138.0197
MS$FOCUSED_ION: PRECURSOR_TYPE [M-H]-
MS$FOCUSED_ION: PRECURSOR_INTENSITY 61738513.12012
MS$DATA_PROCESSING: RECALIBRATE loess on assigned fragments and MS1
MS$DATA_PROCESSING: REANALYZE Peaks with additional N2/O included
MS$DATA_PROCESSING: WHOLE RMassBank 2.99.2
PK$SPLASH: splash10-0a4i-0900000000-2317f3efb6ebd1b15c80
PK$ANNOTATION: m/z tentative_formula formula_count mass error(ppm)
  82.006 C4H2O2- 1 82.006 -0.09
  91.0189 C6H3O- 1 91.0189 -0.71
  92.0268 C6H4O- 1 92.0268 0.37
  95.0139 C5H3O2- 1 95.0139 0.49
  108.0217 C6H4O2- 1 108.0217 -0.05
  123.0089 C6H3O3- 1 123.0088 0.91
  138.0197 C6H4NO3- 1 138.0197 -0.09
PK$NUM_PEAK: 7
PK$PEAK: m/z int. rel.int.
  82.006 17078.3 1
  91.0189 16050.3 1
  92.0268 218970 21
  95.0139 157597.5 15
  108.0217 10227982 999
  123.0089 20425.6 1
  138.0197 1886388.1 184
//
