ACCESSION: MSBNK-LCSB-LU047103
RECORD_TITLE: Karbutilate; LC-ESI-QFT; MS2; CE: 45; R=17500; [M+H]+
DATE: 2020.08.19
AUTHORS: Elapavalore, A.; Kondić, T.; Singh, R.; Schymanski, E.
LICENSE: CC BY
COPYRIGHT: Copyright © 2019 by Environmental Cheminformatics, LCSB, University of Luxembourg, Luxembourg
PUBLICATION: Elapavalore, A.; Kondić, T.; et al., Adding Open Spectral Data to MassBank and PubChem Using Open Source Tools to Support Non-Targeted Exposomics of Mixtures (submitted).
PROJECT: ENTACT U.S. Environmental Protection Agency’s Non-Targeted Analysis Collaborative Trial
COMMENT: CONFIDENCE standard compound
COMMENT: INTERNAL_ID 471
COMMENT: DATASET 20200303_ENTACT_RP_MIX506
COMMENT: DATA_PROCESSING MERGING RMBmix ver. 0.2.7
COMMENT: DATA_PROCESSING PRESCREENING Shinyscreen ver. 0.8.0
COMMENT: ORIGINAL_ACQUISITION_NO 7921
COMMENT: ORIGINAL_PRECURSOR_SCAN_NO 7919
COMMENT: RAW_DATA available as MSV000091754 at [DOI:10.25345/C5S46HG75]
CH$NAME: Karbutilate
CH$NAME: [3-(dimethylcarbamoylamino)phenyl] N-tert-butylcarbamate
CH$COMPOUND_CLASS: N/A; Environmental Standard
CH$FORMULA: C14H21N3O3
CH$EXACT_MASS: 279.1583
CH$SMILES: CN(C)C(=O)NC1=CC=CC(OC(=O)NC(C)(C)C)=C1
CH$IUPAC: InChI=1S/C14H21N3O3/c1-14(2,3)16-13(19)20-11-8-6-7-10(9-11)15-12(18)17(4)5/h6-9H,1-5H3,(H,15,18)(H,16,19)
CH$LINK: CAS 4849-32-5
CH$LINK: PUBCHEM CID:312440
CH$LINK: INCHIKEY OWNAXTAAAQTBSP-UHFFFAOYSA-N
CH$LINK: CHEMSPIDER 276300
AC$INSTRUMENT: Q Exactive Orbitrap (Thermo Scientific)
AC$INSTRUMENT_TYPE: LC-ESI-QFT
AC$MASS_SPECTROMETRY: MS_TYPE MS2
AC$MASS_SPECTROMETRY: ION_MODE POSITIVE
AC$MASS_SPECTROMETRY: IONIZATION ESI
AC$MASS_SPECTROMETRY: FRAGMENTATION_MODE HCD
AC$MASS_SPECTROMETRY: COLLISION_ENERGY 45
AC$MASS_SPECTROMETRY: RESOLUTION 17500
AC$CHROMATOGRAPHY: COLUMN_NAME Acquity BEH C18 1.7um, 2.1x150mm (Waters)
AC$CHROMATOGRAPHY: FLOW_GRADIENT 90/10 at 0-2 min, 0/100 at 15-20 min, 90/10 at 20.1-30 min
AC$CHROMATOGRAPHY: FLOW_RATE 0.20 mL/min
AC$CHROMATOGRAPHY: RETENTION_TIME 15.141 min
AC$CHROMATOGRAPHY: SOLVENT A 0.1% formic acid
AC$CHROMATOGRAPHY: SOLVENT B methanol
MS$FOCUSED_ION: BASE_PEAK 79.0211
MS$FOCUSED_ION: PRECURSOR_M/Z 280.1656
MS$FOCUSED_ION: PRECURSOR_TYPE [M+H]+
MS$FOCUSED_ION: PRECURSOR_INTENSITY 7510550
MS$DATA_PROCESSING: RECALIBRATE loess on assigned fragments and MS1
MS$DATA_PROCESSING: REANALYZE Peaks with additional N2/O included
MS$DATA_PROCESSING: WHOLE RMassBank 2.99.2
PK$SPLASH: splash10-00di-9300000000-a2cecc5a5a9aa15f4998
PK$ANNOTATION: m/z tentative_formula formula_count mass error(ppm)
  70.065 C4H8N+ 1 70.0651 -1.62
  72.0444 C3H6NO+ 1 72.0444 -0.13
  88.0757 C4H10NO+ 1 88.0757 0.37
  108.0446 C6H6NO+ 1 108.0444 1.83
  111.044 C6H7O2+ 2 111.0441 -0.33
  117.0697 C9H9+ 1 117.0699 -1.83
  128.107 C7H14NO+ 1 128.107 0.17
  136.0394 C7H6NO2+ 1 136.0393 0.94
  146.0724 C10H10O+ 2 146.0726 -1.44
  160.1124 C11H14N+ 1 160.1121 1.77
  181.0972 C9H13N2O2+ 1 181.0972 0.33
PK$NUM_PEAK: 11
PK$PEAK: m/z int. rel.int.
  70.065 1736.4 3
  72.0444 512711.2 999
  88.0757 13739.5 26
  108.0446 3101.8 6
  111.044 4244.5 8
  117.0697 3293.8 6
  128.107 3940.9 7
  136.0394 58518.3 114
  146.0724 3402 6
  160.1124 4372.1 8
  181.0972 146058.3 284
//
