ACCESSION: MSBNK-LCSB-LU139001
RECORD_TITLE: Propoxycarbazone; LC-ESI-QFT; MS2; CE: 15; R=17500; [M+H]+
DATE: 2020.08.19
AUTHORS: Elapavalore, A.; Kondić, T.; Singh, R.; Schymanski, E.
LICENSE: CC BY
COPYRIGHT: Copyright © 2019 by Environmental Cheminformatics, LCSB, University of Luxembourg, Luxembourg
PUBLICATION: Elapavalore, A.; Kondić, T.; et al., Adding Open Spectral Data to MassBank and PubChem Using Open Source Tools to Support Non-Targeted Exposomics of Mixtures (submitted).
PROJECT: ENTACT U.S. Environmental Protection Agency’s Non-Targeted Analysis Collaborative Trial
COMMENT: CONFIDENCE standard compound
COMMENT: INTERNAL_ID 1390
COMMENT: DATASET 20200303_ENTACT_RP_MIX506
COMMENT: DATA_PROCESSING MERGING RMBmix ver. 0.2.7
COMMENT: DATA_PROCESSING PRESCREENING Shinyscreen ver. 0.8.0
COMMENT: ORIGINAL_ACQUISITION_NO 8164
COMMENT: ORIGINAL_PRECURSOR_SCAN_NO 8162
COMMENT: RAW_DATA available as MSV000091754 at [DOI:10.25345/C5S46HG75]
CH$NAME: Propoxycarbazone
CH$NAME: methyl 2-[(4-methyl-5-oxo-3-propoxy-1,2,4-triazole-1-carbonyl)sulfamoyl]benzoate
CH$COMPOUND_CLASS: N/A; Environmental Standard
CH$FORMULA: C15H18N4O7S
CH$EXACT_MASS: 398.0896
CH$SMILES: CCCOC1=NN(C(=O)NS(=O)(=O)C2=C(C=CC=C2)C(=O)OC)C(=O)N1C
CH$IUPAC: InChI=1S/C15H18N4O7S/c1-4-9-26-14-16-19(15(22)18(14)2)13(21)17-27(23,24)11-8-6-5-7-10(11)12(20)25-3/h5-8H,4,9H2,1-3H3,(H,17,21)
CH$LINK: CAS 145026-81-9
CH$LINK: PUBCHEM CID:177355
CH$LINK: INCHIKEY JTHMVYBOQLDDIY-UHFFFAOYSA-N
CH$LINK: CHEMSPIDER 154427
AC$INSTRUMENT: Q Exactive Orbitrap (Thermo Scientific)
AC$INSTRUMENT_TYPE: LC-ESI-QFT
AC$MASS_SPECTROMETRY: MS_TYPE MS2
AC$MASS_SPECTROMETRY: ION_MODE POSITIVE
AC$MASS_SPECTROMETRY: IONIZATION ESI
AC$MASS_SPECTROMETRY: FRAGMENTATION_MODE HCD
AC$MASS_SPECTROMETRY: COLLISION_ENERGY 15
AC$MASS_SPECTROMETRY: RESOLUTION 17500
AC$CHROMATOGRAPHY: COLUMN_NAME Acquity BEH C18 1.7um, 2.1x150mm (Waters)
AC$CHROMATOGRAPHY: FLOW_GRADIENT 90/10 at 0-2 min, 0/100 at 15-20 min, 90/10 at 20.1-30 min
AC$CHROMATOGRAPHY: FLOW_RATE 0.20 mL/min
AC$CHROMATOGRAPHY: RETENTION_TIME 15.573 min
AC$CHROMATOGRAPHY: SOLVENT A 0.1% formic acid
AC$CHROMATOGRAPHY: SOLVENT B methanol
MS$FOCUSED_ION: BASE_PEAK 79.0211
MS$FOCUSED_ION: PRECURSOR_M/Z 399.0969
MS$FOCUSED_ION: PRECURSOR_TYPE [M+H]+
MS$FOCUSED_ION: PRECURSOR_INTENSITY 3084686
MS$DATA_PROCESSING: RECALIBRATE loess on assigned fragments and MS1
MS$DATA_PROCESSING: REANALYZE Peaks with additional N2/O included
MS$DATA_PROCESSING: WHOLE RMassBank 2.99.2
PK$SPLASH: splash10-0a4j-0900000000-78f736298a8e635ece36
PK$ANNOTATION: m/z tentative_formula formula_count mass error(ppm)
  116.0455 C3H6N3O2+ 2 116.0455 0.19
  158.0925 C6H12N3O2+ 3 158.0924 0.47
  199.006 C8H7O4S+ 5 199.006 0.4
  209.9856 C8H4NO4S+ 4 209.9856 0.45
  227.9963 C8H6NO5S+ 4 227.9961 0.98
  282.0179 C10H8N3O5S+ 6 282.0179 -0.01
PK$NUM_PEAK: 6
PK$PEAK: m/z int. rel.int.
  116.0455 30352.5 130
  158.0925 231864.5 999
  199.006 203338.3 876
  209.9856 25007.2 107
  227.9963 2331.2 10
  282.0179 3519.7 15
//
