ACCESSION: MSBNK-LCSB-LU069656
RECORD_TITLE: Ioxynil; LC-ESI-QFT; MS2; CE: 90; R=17500; [M-H]-
DATE: 2020.08.19
AUTHORS: Elapavalore, A.; Kondić, T.; Singh, R.; Schymanski, E.
LICENSE: CC BY
COPYRIGHT: Copyright © 2019 by Environmental Cheminformatics, LCSB, University of Luxembourg, Luxembourg
PUBLICATION: Elapavalore, A.; Kondić, T.; et al., Adding Open Spectral Data to MassBank and PubChem Using Open Source Tools to Support Non-Targeted Exposomics of Mixtures (submitted).
PROJECT: ENTACT U.S. Environmental Protection Agency’s Non-Targeted Analysis Collaborative Trial
COMMENT: CONFIDENCE standard compound
COMMENT: INTERNAL_ID 696
COMMENT: DATASET 20200303_ENTACT_RP_MIX506
COMMENT: DATA_PROCESSING MERGING RMBmix ver. 0.2.7
COMMENT: DATA_PROCESSING PRESCREENING Shinyscreen ver. 0.8.0
COMMENT: ORIGINAL_ACQUISITION_NO 4621
COMMENT: ORIGINAL_PRECURSOR_SCAN_NO 4618
COMMENT: RAW_DATA available as MSV000091754 at [DOI:10.25345/C5S46HG75]
CH$NAME: Ioxynil
CH$NAME: 4-hydroxy-3,5-diiodobenzonitrile
CH$COMPOUND_CLASS: N/A; Environmental Standard
CH$FORMULA: C7H3I2NO
CH$EXACT_MASS: 370.8304
CH$SMILES: OC1=C(I)C=C(C=C1I)C#N
CH$IUPAC: InChI=1S/C7H3I2NO/c8-5-1-4(3-10)2-6(9)7(5)11/h1-2,11H
CH$LINK: CAS 1689-83-4
CH$LINK: CHEBI CHEBI:81821
CH$LINK: KEGG C18546
CH$LINK: PUBCHEM CID:15530
CH$LINK: INCHIKEY NRXQIUSYPAHGNM-UHFFFAOYSA-N
CH$LINK: CHEMSPIDER 14774
AC$INSTRUMENT: Q Exactive Orbitrap (Thermo Scientific)
AC$INSTRUMENT_TYPE: LC-ESI-QFT
AC$MASS_SPECTROMETRY: MS_TYPE MS2
AC$MASS_SPECTROMETRY: ION_MODE NEGATIVE
AC$MASS_SPECTROMETRY: IONIZATION ESI
AC$MASS_SPECTROMETRY: FRAGMENTATION_MODE HCD
AC$MASS_SPECTROMETRY: COLLISION_ENERGY 90
AC$MASS_SPECTROMETRY: RESOLUTION 17500
AC$CHROMATOGRAPHY: COLUMN_NAME Acquity BEH C18 1.7um, 2.1x150mm (Waters)
AC$CHROMATOGRAPHY: FLOW_GRADIENT 90/10 at 0-2 min, 0/100 at 15-20 min, 90/10 at 20.1-30 min
AC$CHROMATOGRAPHY: FLOW_RATE 0.20 mL/min
AC$CHROMATOGRAPHY: RETENTION_TIME 17.202 min
AC$CHROMATOGRAPHY: SOLVENT A 0.1% formic acid
AC$CHROMATOGRAPHY: SOLVENT B methanol
MS$FOCUSED_ION: BASE_PEAK 369.8229
MS$FOCUSED_ION: PRECURSOR_M/Z 369.8231
MS$FOCUSED_ION: PRECURSOR_TYPE [M-H]-
MS$FOCUSED_ION: PRECURSOR_INTENSITY 82415863.30273
MS$DATA_PROCESSING: RECALIBRATE loess on assigned fragments and MS1
MS$DATA_PROCESSING: REANALYZE Peaks with additional N2/O included
MS$DATA_PROCESSING: WHOLE RMassBank 2.99.2
PK$SPLASH: splash10-004i-0900000000-734f6254e5a775303251
PK$ANNOTATION: m/z tentative_formula formula_count mass error(ppm)
  65.0033 C4HO- 1 65.0033 0.25
  65.9985 C3NO- 1 65.9985 -0.18
  88.0193 C6H2N- 1 88.0193 0.22
  89.0033 C6HO- 1 89.0033 0.02
  89.9986 C5NO- 1 89.9985 0.3
  116.0141 C7H2NO- 1 116.0142 -0.35
  126.905 I- 1 126.905 -0.42
  230.9187 C6H2INO- 1 230.9187 0.21
PK$NUM_PEAK: 8
PK$PEAK: m/z int. rel.int.
  65.0033 227724.1 5
  65.9985 157729 3
  88.0193 392385.3 9
  89.0033 367510.9 8
  89.9986 104020.7 2
  116.0141 529202.7 12
  126.905 42454984 999
  230.9187 49261 1
//
