ACCESSION: MSBNK-LCSB-LU004702
RECORD_TITLE: Terbutryn; LC-ESI-QFT; MS2; CE: 30; R=17500; [M+H]+
DATE: 2020.08.19
AUTHORS: Elapavalore, A.; Kondić, T.; Singh, R.; Schymanski, E.
LICENSE: CC BY
COPYRIGHT: Copyright © 2019 by Environmental Cheminformatics, LCSB, University of Luxembourg, Luxembourg
PUBLICATION: Elapavalore, A.; Kondić, T.; et al., Adding Open Spectral Data to MassBank and PubChem Using Open Source Tools to Support Non-Targeted Exposomics of Mixtures (submitted).
PROJECT: ENTACT U.S. Environmental Protection Agency’s Non-Targeted Analysis Collaborative Trial
COMMENT: CONFIDENCE standard compound
COMMENT: INTERNAL_ID 47
COMMENT: DATASET 20200303_ENTACT_RP_MIX501
COMMENT: DATA_PROCESSING MERGING RMBmix ver. 0.2.7
COMMENT: DATA_PROCESSING PRESCREENING Shinyscreen ver. 0.8.0
COMMENT: ORIGINAL_ACQUISITION_NO 8556
COMMENT: ORIGINAL_PRECURSOR_SCAN_NO 8555
COMMENT: RAW_DATA available as MSV000091754 at [DOI:10.25345/C5S46HG75]
CH$NAME: Terbutryn
CH$NAME: 2-N-tert-butyl-4-N-ethyl-6-methylsulfanyl-1,3,5-triazine-2,4-diamine
CH$COMPOUND_CLASS: N/A; Environmental Standard
CH$FORMULA: C10H19N5S
CH$EXACT_MASS: 241.1361
CH$SMILES: CCNC1=NC(SC)=NC(NC(C)(C)C)=N1
CH$IUPAC: InChI=1S/C10H19N5S/c1-6-11-7-12-8(15-10(2,3)4)14-9(13-7)16-5/h6H2,1-5H3,(H2,11,12,13,14,15)
CH$LINK: CAS 886-50-0
CH$LINK: CHEBI CHEBI:44156
CH$LINK: KEGG C18811
CH$LINK: PUBCHEM CID:13450
CH$LINK: INCHIKEY IROINLKCQGIITA-UHFFFAOYSA-N
CH$LINK: CHEMSPIDER 12874
AC$INSTRUMENT: Q Exactive Orbitrap (Thermo Scientific)
AC$INSTRUMENT_TYPE: LC-ESI-QFT
AC$MASS_SPECTROMETRY: MS_TYPE MS2
AC$MASS_SPECTROMETRY: ION_MODE POSITIVE
AC$MASS_SPECTROMETRY: IONIZATION ESI
AC$MASS_SPECTROMETRY: FRAGMENTATION_MODE HCD
AC$MASS_SPECTROMETRY: COLLISION_ENERGY 30
AC$MASS_SPECTROMETRY: RESOLUTION 17500
AC$CHROMATOGRAPHY: COLUMN_NAME Acquity BEH C18 1.7um, 2.1x150mm (Waters)
AC$CHROMATOGRAPHY: FLOW_GRADIENT 90/10 at 0-2 min, 0/100 at 15-20 min, 90/10 at 20.1-30 min
AC$CHROMATOGRAPHY: FLOW_RATE 0.20 mL/min
AC$CHROMATOGRAPHY: RETENTION_TIME 16.520 min
AC$CHROMATOGRAPHY: SOLVENT A 0.1% formic acid
AC$CHROMATOGRAPHY: SOLVENT B methanol
MS$FOCUSED_ION: BASE_PEAK 79.0212
MS$FOCUSED_ION: PRECURSOR_M/Z 242.1434
MS$FOCUSED_ION: PRECURSOR_TYPE [M+H]+
MS$FOCUSED_ION: PRECURSOR_INTENSITY 57153215.75
MS$DATA_PROCESSING: RECALIBRATE loess on assigned fragments and MS1
MS$DATA_PROCESSING: REANALYZE Peaks with additional N2/O included
MS$DATA_PROCESSING: WHOLE RMassBank 2.99.2
PK$SPLASH: splash10-000l-0950000000-55ea5c5a57d4ec72ea86
PK$ANNOTATION: m/z tentative_formula formula_count mass error(ppm)
  57.0698 C4H9+ 1 57.0699 -0.96
  71.0602 C3H7N2+ 1 71.0604 -2.96
  91.0325 C2H7N2S+ 1 91.0324 0.06
  96.0552 C4H6N3+ 1 96.0556 -4.72
  138.0775 C5H8N5+ 1 138.0774 0.58
  144.0591 C5H10N3S+ 1 144.059 0.85
  158.0494 C4H8N5S+ 1 158.0495 -0.48
  171.0569 C5H9N5S+ 1 171.0573 -2.7
  186.0808 C6H12N5S+ 1 186.0808 0.23
  227.1201 C9H17N5S+ 1 227.1199 0.89
  242.1434 C10H20N5S+ 1 242.1434 -0.07
PK$NUM_PEAK: 11
PK$PEAK: m/z int. rel.int.
  57.0698 77016.2 2
  71.0602 63752.1 2
  91.0325 126140 4
  96.0552 44397.2 1
  138.0775 57813.1 2
  144.0591 31501.5 1
  158.0494 111365.3 4
  171.0569 48681.9 1
  186.0808 27379948 999
  227.1201 35961.3 1
  242.1434 16715454 609
//
