ACCESSION: MSBNK-LCSB-LU033102
RECORD_TITLE: Pyridaben; LC-ESI-QFT; MS2; CE: 30; R=17500; [M+H]+
DATE: 2020.08.19
AUTHORS: Elapavalore, A.; Kondić, T.; Singh, R.; Schymanski, E.
LICENSE: CC BY
COPYRIGHT: Copyright © 2019 by Environmental Cheminformatics, LCSB, University of Luxembourg, Luxembourg
PUBLICATION: Elapavalore, A.; Kondić, T.; et al., Adding Open Spectral Data to MassBank and PubChem Using Open Source Tools to Support Non-Targeted Exposomics of Mixtures (submitted).
PROJECT: ENTACT U.S. Environmental Protection Agency’s Non-Targeted Analysis Collaborative Trial
COMMENT: CONFIDENCE standard compound
COMMENT: INTERNAL_ID 331
COMMENT: DATASET 20200303_ENTACT_RP_MIX503
COMMENT: DATA_PROCESSING MERGING RMBmix ver. 0.2.7
COMMENT: DATA_PROCESSING PRESCREENING Shinyscreen ver. 0.8.0
COMMENT: ORIGINAL_ACQUISITION_NO 10708
COMMENT: ORIGINAL_PRECURSOR_SCAN_NO 10707
COMMENT: RAW_DATA available as MSV000091754 at [DOI:10.25345/C5S46HG75]
CH$NAME: Pyridaben
CH$COMPOUND_CLASS: N/A; Environmental Standard
CH$FORMULA: C19H25ClN2OS
CH$EXACT_MASS: 364.1376
CH$SMILES: CC(C)(C)N1N=CC(SCC2=CC=C(C=C2)C(C)(C)C)=C(Cl)C1=O
CH$IUPAC: InChI=1S/C19H25ClN2OS/c1-18(2,3)14-9-7-13(8-10-14)12-24-15-11-21-22(19(4,5)6)17(23)16(15)20/h7-11H,12H2,1-6H3
CH$LINK: CAS 2793-06-8
CH$LINK: CHEBI CHEBI:38626
CH$LINK: KEGG C18614
CH$LINK: PUBCHEM CID:91754
CH$LINK: INCHIKEY DWFZBUWUXWZWKD-UHFFFAOYSA-N
CH$LINK: CHEMSPIDER 82852
AC$INSTRUMENT: Q Exactive Orbitrap (Thermo Scientific)
AC$INSTRUMENT_TYPE: LC-ESI-QFT
AC$MASS_SPECTROMETRY: MS_TYPE MS2
AC$MASS_SPECTROMETRY: ION_MODE POSITIVE
AC$MASS_SPECTROMETRY: IONIZATION ESI
AC$MASS_SPECTROMETRY: FRAGMENTATION_MODE HCD
AC$MASS_SPECTROMETRY: COLLISION_ENERGY 30
AC$MASS_SPECTROMETRY: RESOLUTION 17500
AC$CHROMATOGRAPHY: COLUMN_NAME Acquity BEH C18 1.7um, 2.1x150mm (Waters)
AC$CHROMATOGRAPHY: FLOW_GRADIENT 90/10 at 0-2 min, 0/100 at 15-20 min, 90/10 at 20.1-30 min
AC$CHROMATOGRAPHY: FLOW_RATE 0.20 mL/min
AC$CHROMATOGRAPHY: RETENTION_TIME 20.462 min
AC$CHROMATOGRAPHY: SOLVENT A 0.1% formic acid
AC$CHROMATOGRAPHY: SOLVENT B methanol
MS$FOCUSED_ION: BASE_PEAK 79.0211
MS$FOCUSED_ION: PRECURSOR_M/Z 365.1449
MS$FOCUSED_ION: PRECURSOR_TYPE [M+H]+
MS$FOCUSED_ION: PRECURSOR_INTENSITY 12479159.375
MS$DATA_PROCESSING: RECALIBRATE loess on assigned fragments and MS1
MS$DATA_PROCESSING: REANALYZE Peaks with additional N2/O included
MS$DATA_PROCESSING: WHOLE RMassBank 2.99.2
PK$SPLASH: splash10-0002-0902000000-3e7b61e1d9bc546066e2
PK$ANNOTATION: m/z tentative_formula formula_count mass error(ppm)
  105.0698 C8H9+ 1 105.0699 -0.4
  119.0856 C9H11+ 1 119.0855 0.78
  132.0934 C10H12+ 1 132.0934 0.63
  147.1168 C11H15+ 1 147.1168 -0.28
  309.0823 C15H18ClN2OS+ 2 309.0823 -0.02
PK$NUM_PEAK: 5
PK$PEAK: m/z int. rel.int.
  105.0698 5428.8 3
  119.0856 6488.9 3
  132.0934 3907.5 2
  147.1168 1805850.2 999
  309.0823 562864.8 311
//
