ACCESSION: MSBNK-LCSB-LU103853
RECORD_TITLE: Diflufenzopyr; LC-ESI-QFT; MS2; CE: 45; R=17500; [M-H]-
DATE: 2020.08.19
AUTHORS: Elapavalore, A.; Kondić, T.; Singh, R.; Schymanski, E.
LICENSE: CC BY
COPYRIGHT: Copyright © 2019 by Environmental Cheminformatics, LCSB, University of Luxembourg, Luxembourg
PUBLICATION: Elapavalore, A.; Kondić, T.; et al., Adding Open Spectral Data to MassBank and PubChem Using Open Source Tools to Support Non-Targeted Exposomics of Mixtures (submitted).
PROJECT: ENTACT U.S. Environmental Protection Agency’s Non-Targeted Analysis Collaborative Trial
COMMENT: CONFIDENCE standard compound
COMMENT: INTERNAL_ID 1038
COMMENT: DATASET 20200303_ENTACT_RP_MIX508
COMMENT: DATA_PROCESSING MERGING RMBmix ver. 0.2.7
COMMENT: DATA_PROCESSING PRESCREENING Shinyscreen ver. 0.8.0
COMMENT: ORIGINAL_ACQUISITION_NO 4267
COMMENT: ORIGINAL_PRECURSOR_SCAN_NO 4264
COMMENT: RAW_DATA available as MSV000091754 at [DOI:10.25345/C5S46HG75]
CH$NAME: Diflufenzopyr
CH$NAME: 2-[(E)-N-[(3,5-difluorophenyl)carbamoylamino]-C-methylcarbonimidoyl]pyridine-3-carboxylic acid
CH$COMPOUND_CLASS: N/A; Environmental Standard
CH$FORMULA: C15H12F2N4O3
CH$EXACT_MASS: 334.0877
CH$SMILES: C\C(=N/NC(=O)NC1=CC(F)=CC(F)=C1)C1=NC=CC=C1C(O)=O
CH$IUPAC: InChI=1S/C15H12F2N4O3/c1-8(13-12(14(22)23)3-2-4-18-13)20-21-15(24)19-11-6-9(16)5-10(17)7-11/h2-7H,1H3,(H,22,23)(H2,19,21,24)/b20-8+
CH$LINK: CAS 109293-97-2
CH$LINK: PUBCHEM CID:6125184
CH$LINK: INCHIKEY IRJQWZWMQCVOLA-DNTJNYDQSA-N
CH$LINK: CHEMSPIDER 4816775
AC$INSTRUMENT: Q Exactive Orbitrap (Thermo Scientific)
AC$INSTRUMENT_TYPE: LC-ESI-QFT
AC$MASS_SPECTROMETRY: MS_TYPE MS2
AC$MASS_SPECTROMETRY: ION_MODE NEGATIVE
AC$MASS_SPECTROMETRY: IONIZATION ESI
AC$MASS_SPECTROMETRY: FRAGMENTATION_MODE HCD
AC$MASS_SPECTROMETRY: COLLISION_ENERGY 45
AC$MASS_SPECTROMETRY: RESOLUTION 17500
AC$CHROMATOGRAPHY: COLUMN_NAME Acquity BEH C18 1.7um, 2.1x150mm (Waters)
AC$CHROMATOGRAPHY: FLOW_GRADIENT 90/10 at 0-2 min, 0/100 at 15-20 min, 90/10 at 20.1-30 min
AC$CHROMATOGRAPHY: FLOW_RATE 0.20 mL/min
AC$CHROMATOGRAPHY: RETENTION_TIME 16.368 min
AC$CHROMATOGRAPHY: SOLVENT A 0.1% formic acid
AC$CHROMATOGRAPHY: SOLVENT B methanol
MS$FOCUSED_ION: BASE_PEAK 112.9856
MS$FOCUSED_ION: PRECURSOR_M/Z 333.0805
MS$FOCUSED_ION: PRECURSOR_TYPE [M-H]-
MS$FOCUSED_ION: PRECURSOR_INTENSITY 6188914.239258
MS$DATA_PROCESSING: RECALIBRATE loess on assigned fragments and MS1
MS$DATA_PROCESSING: REANALYZE Peaks with additional N2/O included
MS$DATA_PROCESSING: WHOLE RMassBank 2.99.2
PK$SPLASH: splash10-004i-0900000000-822d5be152c5a833023f
PK$ANNOTATION: m/z tentative_formula formula_count mass error(ppm)
  79.0554 C6H7- 3 79.0553 0.46
  88.0192 C6H2N- 3 88.0193 -0.52
  90.035 C6H4N- 3 90.0349 0.4
  102.0349 C7H4N- 3 102.0349 0.06
  103.0301 C6H3N2- 2 103.0302 -0.21
  104.0506 C7H6N- 3 104.0506 0.19
  106.0662 C7H8N- 3 106.0662 -0.52
  108.0255 C6H3FN- 3 108.0255 -0.33
  122.0612 C7H8NO- 4 122.0611 0.65
  128.0317 C6H4F2N- 1 128.0317 0.03
  132.0455 C8H6NO- 5 132.0455 0.19
  132.0567 C7H6N3- 3 132.0567 -0.41
  134.0724 C7H8N3- 3 134.0724 0.11
  148.0405 C8H6NO2- 5 148.0404 0.35
  151.0035 C5HN3O3- 1 151.0023 7.67
  154.0111 C7H2F2NO- 4 154.011 0.47
  160.0517 C8H6N3O- 4 160.0516 0.12
  178.0623 C8H8N3O2- 4 178.0622 0.33
  227.0351 C14H3N4- 3 227.0363 -5.42
  255.0299 C15H3N4O- 4 255.0312 -5.42
  256.0365 C15H4N4O- 4 256.0391 -9.86
  283.0247 C13H4FN4O3- 1 283.0273 -9.25
  284.0321 C13H5FN4O3- 1 284.0351 -10.66
PK$NUM_PEAK: 23
PK$PEAK: m/z int. rel.int.
  79.0554 29535.8 31
  88.0192 5627.8 6
  90.035 5579.4 6
  102.0349 4450.7 4
  103.0301 2352.8 2
  104.0506 127246.1 137
  106.0662 64979.1 70
  108.0255 9896 10
  122.0612 13263.2 14
  128.0317 922943.9 999
  132.0455 33569.6 36
  132.0567 22574.8 24
  134.0724 308957.5 334
  148.0405 25063.1 27
  151.0035 7935 8
  154.0111 3275.8 3
  160.0517 429433.7 464
  178.0623 48011.4 51
  227.0351 3022.6 3
  255.0299 20148.7 21
  256.0365 3203.4 3
  283.0247 2497.2 2
  284.0321 16720.2 18
//
