ACCESSION: MSBNK-LCSB-LU085352
RECORD_TITLE: PharmaGSID_47261; LC-ESI-QFT; MS2; CE: 30; R=17500; [M-H]-
DATE: 2020.08.19
AUTHORS: Elapavalore, A.; Kondić, T.; Singh, R.; Schymanski, E.
LICENSE: CC BY
COPYRIGHT: Copyright © 2019 by Environmental Cheminformatics, LCSB, University of Luxembourg, Luxembourg
PUBLICATION: Elapavalore, A.; Kondić, T.; et al., Adding Open Spectral Data to MassBank and PubChem Using Open Source Tools to Support Non-Targeted Exposomics of Mixtures (submitted).
PROJECT: ENTACT U.S. Environmental Protection Agency’s Non-Targeted Analysis Collaborative Trial
COMMENT: CONFIDENCE standard compound
COMMENT: INTERNAL_ID 853
COMMENT: DATASET 20200303_ENTACT_RP_MIX508
COMMENT: DATA_PROCESSING MERGING RMBmix ver. 0.2.7
COMMENT: DATA_PROCESSING PRESCREENING Shinyscreen ver. 0.8.0
COMMENT: ORIGINAL_ACQUISITION_NO 4388
COMMENT: ORIGINAL_PRECURSOR_SCAN_NO 4386
COMMENT: RAW_DATA available as MSV000091754 at [DOI:10.25345/C5S46HG75]
CH$NAME: PharmaGSID_47261
CH$NAME: (2S,3S)-3-methyl-2-(3-oxo-1,2-benzothiazol-2-yl)pentanoic acid
CH$COMPOUND_CLASS: N/A; Environmental Standard
CH$FORMULA: C13H15NO3S
CH$EXACT_MASS: 265.0773
CH$SMILES: CC[C@H](C)[C@H](N1SC2=CC=CC=C2C1=O)C(O)=O
CH$IUPAC: InChI=1S/C13H15NO3S/c1-3-8(2)11(13(16)17)14-12(15)9-6-4-5-7-10(9)18-14/h4-8,11H,3H2,1-2H3,(H,16,17)/t8-,11-/m0/s1
CH$LINK: PUBCHEM CID:462368
CH$LINK: INCHIKEY FUSYFEXGXRDJNB-KWQFWETISA-N
CH$LINK: CHEMSPIDER 406719
AC$INSTRUMENT: Q Exactive Orbitrap (Thermo Scientific)
AC$INSTRUMENT_TYPE: LC-ESI-QFT
AC$MASS_SPECTROMETRY: MS_TYPE MS2
AC$MASS_SPECTROMETRY: ION_MODE NEGATIVE
AC$MASS_SPECTROMETRY: IONIZATION ESI
AC$MASS_SPECTROMETRY: FRAGMENTATION_MODE HCD
AC$MASS_SPECTROMETRY: COLLISION_ENERGY 30
AC$MASS_SPECTROMETRY: RESOLUTION 17500
AC$CHROMATOGRAPHY: COLUMN_NAME Acquity BEH C18 1.7um, 2.1x150mm (Waters)
AC$CHROMATOGRAPHY: FLOW_GRADIENT 90/10 at 0-2 min, 0/100 at 15-20 min, 90/10 at 20.1-30 min
AC$CHROMATOGRAPHY: FLOW_RATE 0.20 mL/min
AC$CHROMATOGRAPHY: RETENTION_TIME 16.614 min
AC$CHROMATOGRAPHY: SOLVENT A 0.1% formic acid
AC$CHROMATOGRAPHY: SOLVENT B methanol
MS$FOCUSED_ION: BASE_PEAK 179.0713
MS$FOCUSED_ION: PRECURSOR_M/Z 264.07
MS$FOCUSED_ION: PRECURSOR_TYPE [M-H]-
MS$FOCUSED_ION: PRECURSOR_INTENSITY 18412674.35645
MS$DATA_PROCESSING: RECALIBRATE loess on assigned fragments and MS1
MS$DATA_PROCESSING: REANALYZE Peaks with additional N2/O included
MS$DATA_PROCESSING: WHOLE RMassBank 2.99.2
PK$SPLASH: splash10-00di-0190000000-2f3df831e4d210a228b7
PK$ANNOTATION: m/z tentative_formula formula_count mass error(ppm)
  108.0041 C6H4S- 1 108.0039 1.91
  109.0117 C6H5S- 1 109.0117 -0.32
  120.0454 C7H6NO- 1 120.0455 -0.34
  134.0071 C7H4NS- 1 134.007 1.09
  137.0067 C7H5OS- 1 137.0067 0.06
  150.0019 C7H4NOS- 1 150.0019 -0.19
  152.0176 C7H6NOS- 1 152.0176 0.05
  163.0098 C8H5NOS- 1 163.0097 0.49
  179.0717 C10H11O3- 2 179.0714 1.62
  205.0567 C11H11NOS- 1 205.0567 -0.16
  220.0801 C12H14NOS- 1 220.0802 -0.08
PK$NUM_PEAK: 11
PK$PEAK: m/z int. rel.int.
  108.0041 9623.7 1
  109.0117 727316.6 130
  120.0454 12919.4 2
  134.0071 7367.3 1
  137.0067 42292 7
  150.0019 178146.1 31
  152.0176 73862.5 13
  163.0098 6736.7 1
  179.0717 12762.6 2
  205.0567 39493.8 7
  220.0801 5579450 999
//
