ACCESSION: MSBNK-LCSB-LU047802
RECORD_TITLE: CP-863187; LC-ESI-QFT; MS2; CE: 30; R=17500; [M+H]+
DATE: 2020.08.19
AUTHORS: Elapavalore, A.; Kondić, T.; Singh, R.; Schymanski, E.
LICENSE: CC BY
COPYRIGHT: Copyright © 2019 by Environmental Cheminformatics, LCSB, University of Luxembourg, Luxembourg
PUBLICATION: Elapavalore, A.; Kondić, T.; et al., Adding Open Spectral Data to MassBank and PubChem Using Open Source Tools to Support Non-Targeted Exposomics of Mixtures (submitted).
PROJECT: ENTACT U.S. Environmental Protection Agency’s Non-Targeted Analysis Collaborative Trial
COMMENT: CONFIDENCE standard compound
COMMENT: INTERNAL_ID 478
COMMENT: DATASET 20200303_ENTACT_RP_MIX506
COMMENT: DATA_PROCESSING MERGING RMBmix ver. 0.2.7
COMMENT: DATA_PROCESSING PRESCREENING Shinyscreen ver. 0.8.0
COMMENT: ORIGINAL_ACQUISITION_NO 8368
COMMENT: ORIGINAL_PRECURSOR_SCAN_NO 8366
COMMENT: RAW_DATA available as MSV000091754 at [DOI:10.25345/C5S46HG75]
CH$NAME: CP-863187
CH$NAME: 1,2,4-Triazolo(4,3-a)pyridine, 6-(4-(2,5-difluorophenyl)-5-oxazolyl)-3-(1-methylethyl)-
CH$NAME: 4-(2,5-difluorophenyl)-5-(3-propan-2-yl-[1,2,4]triazolo[4,3-a]pyridin-6-yl)-1,3-oxazole
CH$COMPOUND_CLASS: N/A; Environmental Standard
CH$FORMULA: C18H14F2N4O
CH$EXACT_MASS: 340.1136
CH$SMILES: CC(C)C1=NN=C2C=CC(=CN12)C1=C(N=CO1)C1=CC(F)=CC=C1F
CH$IUPAC: InChI=1S/C18H14F2N4O/c1-10(2)18-23-22-15-6-3-11(8-24(15)18)17-16(21-9-25-17)13-7-12(19)4-5-14(13)20/h3-10H,1-2H3
CH$LINK: PUBCHEM CID:9949821
CH$LINK: INCHIKEY UACOXBQBNWQWOK-UHFFFAOYSA-N
CH$LINK: CHEMSPIDER 8125432
AC$INSTRUMENT: Q Exactive Orbitrap (Thermo Scientific)
AC$INSTRUMENT_TYPE: LC-ESI-QFT
AC$MASS_SPECTROMETRY: MS_TYPE MS2
AC$MASS_SPECTROMETRY: ION_MODE POSITIVE
AC$MASS_SPECTROMETRY: IONIZATION ESI
AC$MASS_SPECTROMETRY: FRAGMENTATION_MODE HCD
AC$MASS_SPECTROMETRY: COLLISION_ENERGY 30
AC$MASS_SPECTROMETRY: RESOLUTION 17500
AC$CHROMATOGRAPHY: COLUMN_NAME Acquity BEH C18 1.7um, 2.1x150mm (Waters)
AC$CHROMATOGRAPHY: FLOW_GRADIENT 90/10 at 0-2 min, 0/100 at 15-20 min, 90/10 at 20.1-30 min
AC$CHROMATOGRAPHY: FLOW_RATE 0.20 mL/min
AC$CHROMATOGRAPHY: RETENTION_TIME 15.986 min
AC$CHROMATOGRAPHY: SOLVENT A 0.1% formic acid
AC$CHROMATOGRAPHY: SOLVENT B methanol
MS$FOCUSED_ION: BASE_PEAK 79.0211
MS$FOCUSED_ION: PRECURSOR_M/Z 341.1208
MS$FOCUSED_ION: PRECURSOR_TYPE [M+H]+
MS$FOCUSED_ION: PRECURSOR_INTENSITY 33454519.5
MS$DATA_PROCESSING: RECALIBRATE loess on assigned fragments and MS1
MS$DATA_PROCESSING: REANALYZE Peaks with additional N2/O included
MS$DATA_PROCESSING: WHOLE RMassBank 2.99.2
PK$SPLASH: splash10-0006-0009000000-4fbea0de22b1378ee7b0
PK$ANNOTATION: m/z tentative_formula formula_count mass error(ppm)
  190.0458 C11H6F2N+ 1 190.0463 -2.54
  217.0571 C12H7F2N2+ 1 217.0572 -0.38
  229.0572 C13H7F2N2+ 1 229.0572 0.28
  272.0628 C14H8F2N3O+ 2 272.063 -0.56
  326.097 C17H12F2N4O+ 1 326.0974 -1.22
  341.1207 C18H15F2N4O+ 1 341.1208 -0.4
PK$NUM_PEAK: 6
PK$PEAK: m/z int. rel.int.
  190.0458 202885.7 7
  217.0571 72874.8 2
  229.0572 29813.5 1
  272.0628 1575897.8 57
  326.097 48756.6 1
  341.1207 27330380 999
//
