ACCESSION: MSBNK-LCSB-LU133154
RECORD_TITLE: 6-hydroxynaphthalene-2-sulfonate; LC-ESI-QFT; MS2; CE: 60; R=17500; [M-H]-
DATE: 2020.08.19
AUTHORS: Elapavalore, A.; Kondić, T.; Singh, R.; Schymanski, E.
LICENSE: CC BY
COPYRIGHT: Copyright © 2019 by Environmental Cheminformatics, LCSB, University of Luxembourg, Luxembourg
PUBLICATION: Elapavalore, A.; Kondić, T.; et al., Adding Open Spectral Data to MassBank and PubChem Using Open Source Tools to Support Non-Targeted Exposomics of Mixtures (submitted).
PROJECT: ENTACT U.S. Environmental Protection Agency’s Non-Targeted Analysis Collaborative Trial
COMMENT: CONFIDENCE standard compound
COMMENT: INTERNAL_ID 1331
COMMENT: DATASET 20200303_ENTACT_RP_MIX504
COMMENT: DATA_PROCESSING MERGING RMBmix ver. 0.2.7
COMMENT: DATA_PROCESSING PRESCREENING Shinyscreen ver. 0.8.0
COMMENT: ORIGINAL_ACQUISITION_NO 1927
COMMENT: ORIGINAL_PRECURSOR_SCAN_NO 1926
COMMENT: RAW_DATA available as MSV000091754 at [DOI:10.25345/C5S46HG75]
CH$NAME: 6-hydroxynaphthalene-2-sulfonate
CH$NAME: 2-Naphthol-6-sulfonic acid
CH$NAME: 6-hydroxynaphthalene-2-sulfonic acid
CH$COMPOUND_CLASS: N/A; Environmental Standard
CH$FORMULA: C10H8O4S
CH$EXACT_MASS: 224.0143
CH$SMILES: OC1=CC2=C(C=C1)C=C(C=C2)S(O)(=O)=O
CH$IUPAC: InChI=1S/C10H8O4S/c11-9-3-1-8-6-10(15(12,13)14)4-2-7(8)5-9/h1-6,11H,(H,12,13,14)
CH$LINK: CAS 93-01-6
CH$LINK: PUBCHEM CID:7117
CH$LINK: INCHIKEY VVPHSMHEYVOVLH-UHFFFAOYSA-N
CH$LINK: CHEMSPIDER 6850
AC$INSTRUMENT: Q Exactive Orbitrap (Thermo Scientific)
AC$INSTRUMENT_TYPE: LC-ESI-QFT
AC$MASS_SPECTROMETRY: MS_TYPE MS2
AC$MASS_SPECTROMETRY: ION_MODE NEGATIVE
AC$MASS_SPECTROMETRY: IONIZATION ESI
AC$MASS_SPECTROMETRY: FRAGMENTATION_MODE HCD
AC$MASS_SPECTROMETRY: COLLISION_ENERGY 60
AC$MASS_SPECTROMETRY: RESOLUTION 17500
AC$CHROMATOGRAPHY: COLUMN_NAME Acquity BEH C18 1.7um, 2.1x150mm (Waters)
AC$CHROMATOGRAPHY: FLOW_GRADIENT 90/10 at 0-2 min, 0/100 at 15-20 min, 90/10 at 20.1-30 min
AC$CHROMATOGRAPHY: FLOW_RATE 0.20 mL/min
AC$CHROMATOGRAPHY: RETENTION_TIME 7.768 min
AC$CHROMATOGRAPHY: SOLVENT A 0.1% formic acid
AC$CHROMATOGRAPHY: SOLVENT B methanol
MS$FOCUSED_ION: BASE_PEAK 75.0088
MS$FOCUSED_ION: PRECURSOR_M/Z 223.0071
MS$FOCUSED_ION: PRECURSOR_TYPE [M-H]-
MS$FOCUSED_ION: PRECURSOR_INTENSITY 1971139.137939
MS$DATA_PROCESSING: RECALIBRATE loess on assigned fragments and MS1
MS$DATA_PROCESSING: REANALYZE Peaks with additional N2/O included
MS$DATA_PROCESSING: WHOLE RMassBank 2.99.2
PK$SPLASH: splash10-0a6r-6930000000-e040128ed9d001deb62d
PK$ANNOTATION: m/z tentative_formula formula_count mass error(ppm)
  79.9574 O3S- 1 79.9574 0.58
  80.9651 HO3S- 1 80.9652 -0.58
  130.0424 C9H6O- 1 130.0424 -0.06
  131.0504 C9H7O- 1 131.0502 1.01
  141.0347 C10H5O- 1 141.0346 0.94
  143.0503 C10H7O- 1 143.0502 0.11
  158.0374 C10H6O2- 1 158.0373 0.32
  159.0452 C10H7O2- 1 159.0452 0.34
  195.0119 C9H7O3S- 1 195.0121 -1.4
  221.9994 C10H6O4S- 1 221.9992 0.71
  223.0072 C10H7O4S- 1 223.0071 0.45
PK$NUM_PEAK: 11
PK$PEAK: m/z int. rel.int.
  79.9574 528174.2 999
  80.9651 10042.5 18
  130.0424 3778.9 7
  131.0504 9088 17
  141.0347 3753.9 7
  143.0503 80453.2 152
  158.0374 347021.5 656
  159.0452 301898.5 571
  195.0119 4012.1 7
  221.9994 3606.9 6
  223.0072 258920.4 489
//
