ACCESSION: MSBNK-LCSB-LU135103
RECORD_TITLE: Dipropyl 2,5-pyridinedicarboxylate; LC-ESI-QFT; MS2; CE: 45; R=17500; [M+H]+
DATE: 2020.08.19
AUTHORS: Elapavalore, A.; Kondić, T.; Singh, R.; Schymanski, E.
LICENSE: CC BY
COPYRIGHT: Copyright © 2019 by Environmental Cheminformatics, LCSB, University of Luxembourg, Luxembourg
PUBLICATION: Elapavalore, A.; Kondić, T.; et al., Adding Open Spectral Data to MassBank and PubChem Using Open Source Tools to Support Non-Targeted Exposomics of Mixtures (submitted).
PROJECT: ENTACT U.S. Environmental Protection Agency’s Non-Targeted Analysis Collaborative Trial
COMMENT: CONFIDENCE standard compound
COMMENT: INTERNAL_ID 1351
COMMENT: DATASET 20200303_ENTACT_RP_MIX504
COMMENT: DATA_PROCESSING MERGING RMBmix ver. 0.2.7
COMMENT: DATA_PROCESSING PRESCREENING Shinyscreen ver. 0.8.0
COMMENT: ORIGINAL_ACQUISITION_NO 9244
COMMENT: ORIGINAL_PRECURSOR_SCAN_NO 9242
COMMENT: RAW_DATA available as MSV000091754 at [DOI:10.25345/C5S46HG75]
CH$NAME: Dipropyl 2,5-pyridinedicarboxylate
CH$NAME: Dipropyl isocinchomeronate
CH$NAME: dipropyl pyridine-2,5-dicarboxylate
CH$COMPOUND_CLASS: N/A; Environmental Standard
CH$FORMULA: C13H17NO4
CH$EXACT_MASS: 251.1158
CH$SMILES: CCCOC(=O)C1=CC=C(N=C1)C(=O)OCCC
CH$IUPAC: InChI=1S/C13H17NO4/c1-3-7-17-12(15)10-5-6-11(14-9-10)13(16)18-8-4-2/h5-6,9H,3-4,7-8H2,1-2H3
CH$LINK: CAS 136-45-8
CH$LINK: PUBCHEM CID:8693
CH$LINK: INCHIKEY IITCWRFYJWUUPC-UHFFFAOYSA-N
CH$LINK: CHEMSPIDER 8369
AC$INSTRUMENT: Q Exactive Orbitrap (Thermo Scientific)
AC$INSTRUMENT_TYPE: LC-ESI-QFT
AC$MASS_SPECTROMETRY: MS_TYPE MS2
AC$MASS_SPECTROMETRY: ION_MODE POSITIVE
AC$MASS_SPECTROMETRY: IONIZATION ESI
AC$MASS_SPECTROMETRY: FRAGMENTATION_MODE HCD
AC$MASS_SPECTROMETRY: COLLISION_ENERGY 45
AC$MASS_SPECTROMETRY: RESOLUTION 17500
AC$CHROMATOGRAPHY: COLUMN_NAME Acquity BEH C18 1.7um, 2.1x150mm (Waters)
AC$CHROMATOGRAPHY: FLOW_GRADIENT 90/10 at 0-2 min, 0/100 at 15-20 min, 90/10 at 20.1-30 min
AC$CHROMATOGRAPHY: FLOW_RATE 0.20 mL/min
AC$CHROMATOGRAPHY: RETENTION_TIME 17.731 min
AC$CHROMATOGRAPHY: SOLVENT A 0.1% formic acid
AC$CHROMATOGRAPHY: SOLVENT B methanol
MS$FOCUSED_ION: BASE_PEAK 79.0212
MS$FOCUSED_ION: PRECURSOR_M/Z 252.123
MS$FOCUSED_ION: PRECURSOR_TYPE [M+H]+
MS$FOCUSED_ION: PRECURSOR_INTENSITY 36185503.03125
MS$DATA_PROCESSING: RECALIBRATE loess on assigned fragments and MS1
MS$DATA_PROCESSING: REANALYZE Peaks with additional N2/O included
MS$DATA_PROCESSING: WHOLE RMassBank 2.99.2
PK$SPLASH: splash10-001i-0910000000-b832ce811ff9758365de
PK$ANNOTATION: m/z tentative_formula formula_count mass error(ppm)
  53.0022 C3HO+ 1 53.0022 -0.37
  78.0337 C5H4N+ 1 78.0338 -1.39
  95.0369 C5H5NO+ 1 95.0366 3.27
  112.0393 C5H6NO2+ 1 112.0393 -0.32
  122.0236 C6H4NO2+ 1 122.0237 -0.79
  140.0341 C6H6NO3+ 1 140.0342 -0.57
  154.0496 C7H8NO3+ 1 154.0499 -1.45
  164.0707 C9H10NO2+ 1 164.0706 0.35
  168.0291 C7H6NO4+ 1 168.0291 -0.4
  182.0811 C9H12NO3+ 1 182.0812 -0.3
  184.0856 C13H12O+ 1 184.0883 -14.23
  196.0967 C10H14NO3+ 1 196.0968 -0.79
  210.076 C10H12NO4+ 1 210.0761 -0.5
  224.0916 C11H14NO4+ 1 224.0917 -0.72
PK$NUM_PEAK: 14
PK$PEAK: m/z int. rel.int.
  53.0022 49980.2 3
  78.0337 87077.7 5
  95.0369 46259.3 3
  112.0393 64723.4 4
  122.0236 360330.7 24
  140.0341 6277865 431
  154.0496 75288.9 5
  164.0707 23875 1
  168.0291 1727456.9 118
  182.0811 14541587 999
  184.0856 29542.6 2
  196.0967 183372.6 12
  210.076 4013020.2 275
  224.0916 49764.3 3
//
