ACCESSION: MSBNK-LCSB-LU024153
RECORD_TITLE: 4-Ethoxy-4-oxobut-2-enoic acid; LC-ESI-QFT; MS2; CE: 45; R=17500; [M-H]-
DATE: 2020.08.19
AUTHORS: Elapavalore, A.; Kondić, T.; Singh, R.; Schymanski, E.
LICENSE: CC BY
COPYRIGHT: Copyright © 2019 by Environmental Cheminformatics, LCSB, University of Luxembourg, Luxembourg
PUBLICATION: Elapavalore, A.; Kondić, T.; et al., Adding Open Spectral Data to MassBank and PubChem Using Open Source Tools to Support Non-Targeted Exposomics of Mixtures (submitted).
PROJECT: ENTACT U.S. Environmental Protection Agency’s Non-Targeted Analysis Collaborative Trial
COMMENT: CONFIDENCE standard compound
COMMENT: INTERNAL_ID 241
COMMENT: DATASET 20200303_ENTACT_RP_MIX505
COMMENT: DATA_PROCESSING MERGING RMBmix ver. 0.2.7
COMMENT: DATA_PROCESSING PRESCREENING Shinyscreen ver. 0.8.0
COMMENT: ORIGINAL_ACQUISITION_NO 3184
COMMENT: ORIGINAL_PRECURSOR_SCAN_NO 3182
COMMENT: RAW_DATA available as MSV000091754 at [DOI:10.25345/C5S46HG75]
CH$NAME: 4-Ethoxy-4-oxobut-2-enoic acid
CH$COMPOUND_CLASS: N/A; Environmental Standard
CH$FORMULA: C6H8O4
CH$EXACT_MASS: 144.0423
CH$SMILES: CCOC(=O)C=CC(O)=O
CH$IUPAC: InChI=1S/C6H8O4/c1-2-10-6(9)4-3-5(7)8/h3-4H,2H2,1H3,(H,7,8)
CH$LINK: CAS 2459-05-4
CH$LINK: PUBCHEM CID:41331
CH$LINK: INCHIKEY XLYMOEINVGRTEX-UHFFFAOYSA-N
CH$LINK: CHEMSPIDER 37714
AC$INSTRUMENT: Q Exactive Orbitrap (Thermo Scientific)
AC$INSTRUMENT_TYPE: LC-ESI-QFT
AC$MASS_SPECTROMETRY: MS_TYPE MS2
AC$MASS_SPECTROMETRY: ION_MODE NEGATIVE
AC$MASS_SPECTROMETRY: IONIZATION ESI
AC$MASS_SPECTROMETRY: FRAGMENTATION_MODE HCD
AC$MASS_SPECTROMETRY: COLLISION_ENERGY 45
AC$MASS_SPECTROMETRY: RESOLUTION 17500
AC$CHROMATOGRAPHY: COLUMN_NAME Acquity BEH C18 1.7um, 2.1x150mm (Waters)
AC$CHROMATOGRAPHY: FLOW_GRADIENT 90/10 at 0-2 min, 0/100 at 15-20 min, 90/10 at 20.1-30 min
AC$CHROMATOGRAPHY: FLOW_RATE 0.20 mL/min
AC$CHROMATOGRAPHY: RETENTION_TIME 12.845 min
AC$CHROMATOGRAPHY: SOLVENT A 0.1% formic acid
AC$CHROMATOGRAPHY: SOLVENT B methanol
MS$FOCUSED_ION: BASE_PEAK 143.035
MS$FOCUSED_ION: PRECURSOR_M/Z 143.035
MS$FOCUSED_ION: PRECURSOR_TYPE [M-H]-
MS$FOCUSED_ION: PRECURSOR_INTENSITY 2455014.573242
MS$DATA_PROCESSING: RECALIBRATE loess on assigned fragments and MS1
MS$DATA_PROCESSING: REANALYZE Peaks with additional N2/O included
MS$DATA_PROCESSING: WHOLE RMassBank 2.99.2
PK$SPLASH: splash10-00di-9000000000-6f88ce3760bfaee57dc8
PK$ANNOTATION: m/z tentative_formula formula_count mass error(ppm)
  55.0189 C3H3O- 1 55.0189 -1.32
  57.0345 C3H5O- 1 57.0346 -0.72
  69.0346 C4H5O- 1 69.0346 0.53
  71.0139 C3H3O2- 1 71.0139 0.25
  71.0503 C4H7O- 1 71.0502 0.56
  75.0086 C2H3O3- 1 75.0088 -1.86
  81.0347 C5H5O- 1 81.0346 0.87
  84.0216 C4H4O2- 1 84.0217 -0.34
  99.0453 C5H7O2- 1 99.0452 1.09
  143.0347 C6H7O4- 1 143.035 -1.76
PK$NUM_PEAK: 10
PK$PEAK: m/z int. rel.int.
  55.0189 3466.6 41
  57.0345 1782.5 21
  69.0346 7094.8 84
  71.0139 83897.6 999
  71.0503 11309.7 134
  75.0086 2004.3 23
  81.0347 2885.1 34
  84.0216 12889.4 153
  99.0453 2120.4 25
  143.0347 1581.3 18
//
