ACCESSION: MSBNK-LCSB-LU018902
RECORD_TITLE: PharmaGSID_47333; LC-ESI-QFT; MS2; CE: 30; R=17500; [M+H]+
DATE: 2020.08.19
AUTHORS: Elapavalore, A.; Kondić, T.; Singh, R.; Schymanski, E.
LICENSE: CC BY
COPYRIGHT: Copyright © 2019 by Environmental Cheminformatics, LCSB, University of Luxembourg, Luxembourg
PUBLICATION: Elapavalore, A.; Kondić, T.; et al., Adding Open Spectral Data to MassBank and PubChem Using Open Source Tools to Support Non-Targeted Exposomics of Mixtures (submitted).
PROJECT: ENTACT U.S. Environmental Protection Agency’s Non-Targeted Analysis Collaborative Trial
COMMENT: CONFIDENCE standard compound
COMMENT: INTERNAL_ID 189
COMMENT: DATASET 20200303_ENTACT_RP_MIX501
COMMENT: DATA_PROCESSING MERGING RMBmix ver. 0.2.7
COMMENT: DATA_PROCESSING PRESCREENING Shinyscreen ver. 0.8.0
COMMENT: ORIGINAL_ACQUISITION_NO 7117
COMMENT: ORIGINAL_PRECURSOR_SCAN_NO 7115
COMMENT: RAW_DATA available as MSV000091754 at [DOI:10.25345/C5S46HG75]
CH$NAME: (3S)-3-(2-methylpyrimidin-5-yl)-9-(5,6,7,8-tetrahydro-1,8-naphthyridin-2-yl)nonanoic acid
CH$NAME: PharmaGSID_47333
CH$COMPOUND_CLASS: N/A; Environmental Standard
CH$FORMULA: C22H30N4O2
CH$EXACT_MASS: 382.2369
CH$SMILES: CC1=NC=C(C=N1)[C@@H](CCCCCCC1=NC2=C(CCCN2)C=C1)CC(O)=O
CH$IUPAC: InChI=1S/C22H30N4O2/c1-16-24-14-19(15-25-16)18(13-21(27)28)7-4-2-3-5-9-20-11-10-17-8-6-12-23-22(17)26-20/h10-11,14-15,18H,2-9,12-13H2,1H3,(H,23,26)(H,27,28)/t18-/m0/s1
CH$LINK: PUBCHEM CID:9951932
CH$LINK: INCHIKEY NJDBZBVQIMZWPP-SFHVURJKSA-N
CH$LINK: CHEMSPIDER 8127543
AC$INSTRUMENT: Q Exactive Orbitrap (Thermo Scientific)
AC$INSTRUMENT_TYPE: LC-ESI-QFT
AC$MASS_SPECTROMETRY: MS_TYPE MS2
AC$MASS_SPECTROMETRY: ION_MODE POSITIVE
AC$MASS_SPECTROMETRY: IONIZATION ESI
AC$MASS_SPECTROMETRY: FRAGMENTATION_MODE HCD
AC$MASS_SPECTROMETRY: COLLISION_ENERGY 30
AC$MASS_SPECTROMETRY: RESOLUTION 17500
AC$CHROMATOGRAPHY: COLUMN_NAME Acquity BEH C18 1.7um, 2.1x150mm (Waters)
AC$CHROMATOGRAPHY: FLOW_GRADIENT 90/10 at 0-2 min, 0/100 at 15-20 min, 90/10 at 20.1-30 min
AC$CHROMATOGRAPHY: FLOW_RATE 0.20 mL/min
AC$CHROMATOGRAPHY: RETENTION_TIME 13.643 min
AC$CHROMATOGRAPHY: SOLVENT A 0.1% formic acid
AC$CHROMATOGRAPHY: SOLVENT B methanol
MS$FOCUSED_ION: BASE_PEAK 79.0212
MS$FOCUSED_ION: PRECURSOR_M/Z 383.2442
MS$FOCUSED_ION: PRECURSOR_TYPE [M+H]+
MS$FOCUSED_ION: PRECURSOR_INTENSITY 22114678.25
MS$DATA_PROCESSING: RECALIBRATE loess on assigned fragments and MS1
MS$DATA_PROCESSING: REANALYZE Peaks with additional N2/O included
MS$DATA_PROCESSING: WHOLE RMassBank 2.99.2
PK$SPLASH: splash10-001i-0009000000-dc8cb848e576fd27cc98
PK$ANNOTATION: m/z tentative_formula formula_count mass error(ppm)
  148.1002 C9H12N2+ 1 148.0995 4.9
  161.1085 C10H13N2+ 1 161.1073 7.2
  281.2009 C19H25N2+ 2 281.2012 -1.17
  323.2228 C20H27N4+ 2 323.223 -0.56
  339.2544 C21H31N4+ 1 339.2543 0.13
  365.2337 C22H29N4O+ 1 365.2336 0.2
  383.2442 C22H31N4O2+ 1 383.2442 0.02
PK$NUM_PEAK: 7
PK$PEAK: m/z int. rel.int.
  148.1002 25635.7 1
  161.1085 30430.8 1
  281.2009 57257.5 3
  323.2228 25286.8 1
  339.2544 54057.2 2
  365.2337 448944.8 24
  383.2442 18484206 999
//
