ACCESSION: MSBNK-LCSB-LU118806
RECORD_TITLE: N,N`-Dicyclohexylthiourea; LC-ESI-QFT; MS2; CE: 90; R=17500; [M+H]+
DATE: 2020.08.19
AUTHORS: Elapavalore, A.; Kondić, T.; Singh, R.; Schymanski, E.
LICENSE: CC BY
COPYRIGHT: Copyright © 2019 by Environmental Cheminformatics, LCSB, University of Luxembourg, Luxembourg
PUBLICATION: Elapavalore, A.; Kondić, T.; et al., Adding Open Spectral Data to MassBank and PubChem Using Open Source Tools to Support Non-Targeted Exposomics of Mixtures (submitted).
PROJECT: ENTACT U.S. Environmental Protection Agency’s Non-Targeted Analysis Collaborative Trial
COMMENT: CONFIDENCE standard compound
COMMENT: INTERNAL_ID 1188
COMMENT: DATASET 20200303_ENTACT_RP_MIX505
COMMENT: DATA_PROCESSING MERGING RMBmix ver. 0.2.7
COMMENT: DATA_PROCESSING PRESCREENING Shinyscreen ver. 0.8.0
COMMENT: ORIGINAL_ACQUISITION_NO 9319
COMMENT: ORIGINAL_PRECURSOR_SCAN_NO 9318
COMMENT: RAW_DATA available as MSV000091754 at [DOI:10.25345/C5S46HG75]
CH$NAME: N,N'-Dicyclohexylthiourea
CH$NAME: N,N'-dicyclohexylcarbamimidothioic acid
CH$COMPOUND_CLASS: N/A; Environmental Standard
CH$FORMULA: C13H24N2S
CH$EXACT_MASS: 240.1660
CH$SMILES: S=C(NC1CCCCC1)NC1CCCCC1
CH$IUPAC: InChI=1S/C13H24N2S/c16-13(14-11-7-3-1-4-8-11)15-12-9-5-2-6-10-12/h11-12H,1-10H2,(H2,14,15,16)
CH$LINK: CAS 1212-29-9
CH$LINK: CHEMSPIDER 635041
CH$LINK: INCHIKEY KAJICSGLHKRDLN-UHFFFAOYSA-N
CH$LINK: PUBCHEM CID:727200
AC$INSTRUMENT: Q Exactive Orbitrap (Thermo Scientific)
AC$INSTRUMENT_TYPE: LC-ESI-QFT
AC$MASS_SPECTROMETRY: MS_TYPE MS2
AC$MASS_SPECTROMETRY: ION_MODE POSITIVE
AC$MASS_SPECTROMETRY: IONIZATION ESI
AC$MASS_SPECTROMETRY: FRAGMENTATION_MODE HCD
AC$MASS_SPECTROMETRY: COLLISION_ENERGY 90
AC$MASS_SPECTROMETRY: RESOLUTION 17500
AC$CHROMATOGRAPHY: COLUMN_NAME Acquity BEH C18 1.7um, 2.1x150mm (Waters)
AC$CHROMATOGRAPHY: FLOW_GRADIENT 90/10 at 0-2 min, 0/100 at 15-20 min, 90/10 at 20.1-30 min
AC$CHROMATOGRAPHY: FLOW_RATE 0.20 mL/min
AC$CHROMATOGRAPHY: RETENTION_TIME 17.830 min
AC$CHROMATOGRAPHY: SOLVENT A 0.1% formic acid
AC$CHROMATOGRAPHY: SOLVENT B methanol
MS$FOCUSED_ION: BASE_PEAK 79.0211
MS$FOCUSED_ION: PRECURSOR_M/Z 241.1733
MS$FOCUSED_ION: PRECURSOR_TYPE [M+H]+
MS$FOCUSED_ION: PRECURSOR_INTENSITY 26698780.75
MS$DATA_PROCESSING: RECALIBRATE loess on assigned fragments and MS1
MS$DATA_PROCESSING: REANALYZE Peaks with additional N2/O included
MS$DATA_PROCESSING: WHOLE RMassBank 2.99.2
PK$SPLASH: splash10-0a4i-9000000000-d9d3b29a4539ed3ae56a
PK$ANNOTATION: m/z tentative_formula formula_count mass error(ppm)
  53.0386 C4H5+ 1 53.0386 0.82
  55.0543 C4H7+ 1 55.0542 0.53
  59.9903 CH2NS+ 1 59.9902 0.1
  77.0168 CH5N2S+ 1 77.0168 -0.3
  81.07 C6H9+ 1 81.0699 1.44
  83.0855 C6H11+ 1 83.0855 0.06
  91.0542 C7H7+ 1 91.0542 -0.17
  98.0965 C6H12N+ 1 98.0964 0.36
  100.1121 C6H14N+ 1 100.1121 -0.03
  109.0887 C7H11N+ 1 109.0886 0.85
  159.0951 C7H15N2S+ 1 159.095 0.61
PK$NUM_PEAK: 11
PK$PEAK: m/z int. rel.int.
  53.0386 108620.9 23
  55.0543 4671153.5 999
  59.9903 1289280.8 275
  77.0168 1028226.6 219
  81.07 5263.5 1
  83.0855 1451381 310
  91.0542 7438.5 1
  98.0965 6820.7 1
  100.1121 13682.9 2
  109.0887 5495 1
  159.0951 6883.2 1
//
