ACCESSION: MSBNK-LCSB-LU056002
RECORD_TITLE: Butachlor; LC-ESI-QFT; MS2; CE: 30; R=17500; [M+H]+
DATE: 2020.08.19
AUTHORS: Elapavalore, A.; Kondić, T.; Singh, R.; Schymanski, E.
LICENSE: CC BY
COPYRIGHT: Copyright © 2019 by Environmental Cheminformatics, LCSB, University of Luxembourg, Luxembourg
PUBLICATION: Elapavalore, A.; Kondić, T.; et al., Adding Open Spectral Data to MassBank and PubChem Using Open Source Tools to Support Non-Targeted Exposomics of Mixtures (submitted).
PROJECT: ENTACT U.S. Environmental Protection Agency’s Non-Targeted Analysis Collaborative Trial
COMMENT: CONFIDENCE standard compound
COMMENT: INTERNAL_ID 560
COMMENT: DATASET 20200303_ENTACT_RP_MIX506
COMMENT: DATA_PROCESSING MERGING RMBmix ver. 0.2.7
COMMENT: DATA_PROCESSING PRESCREENING Shinyscreen ver. 0.8.0
COMMENT: ORIGINAL_ACQUISITION_NO 10349
COMMENT: ORIGINAL_PRECURSOR_SCAN_NO 10345
COMMENT: RAW_DATA available as MSV000091754 at [DOI:10.25345/C5S46HG75]
CH$NAME: Butachlor
CH$NAME: N-(butoxymethyl)-2-chloro-N-(2,6-diethylphenyl)acetamide
CH$COMPOUND_CLASS: N/A; Environmental Standard
CH$FORMULA: C17H26ClNO2
CH$EXACT_MASS: 311.1652
CH$SMILES: CCCCOCN(C(=O)CCl)C1=C(CC)C=CC=C1CC
CH$IUPAC: InChI=1S/C17H26ClNO2/c1-4-7-11-21-13-19(16(20)12-18)17-14(5-2)9-8-10-15(17)6-3/h8-10H,4-7,11-13H2,1-3H3
CH$LINK: CAS 23184-66-9
CH$LINK: CHEBI CHEBI:3230
CH$LINK: KEGG C10931
CH$LINK: PUBCHEM CID:31677
CH$LINK: INCHIKEY HKPHPIREJKHECO-UHFFFAOYSA-N
CH$LINK: CHEMSPIDER 29376
AC$INSTRUMENT: Q Exactive Orbitrap (Thermo Scientific)
AC$INSTRUMENT_TYPE: LC-ESI-QFT
AC$MASS_SPECTROMETRY: MS_TYPE MS2
AC$MASS_SPECTROMETRY: ION_MODE POSITIVE
AC$MASS_SPECTROMETRY: IONIZATION ESI
AC$MASS_SPECTROMETRY: FRAGMENTATION_MODE HCD
AC$MASS_SPECTROMETRY: COLLISION_ENERGY 30
AC$MASS_SPECTROMETRY: RESOLUTION 17500
AC$CHROMATOGRAPHY: COLUMN_NAME Acquity BEH C18 1.7um, 2.1x150mm (Waters)
AC$CHROMATOGRAPHY: FLOW_GRADIENT 90/10 at 0-2 min, 0/100 at 15-20 min, 90/10 at 20.1-30 min
AC$CHROMATOGRAPHY: FLOW_RATE 0.20 mL/min
AC$CHROMATOGRAPHY: RETENTION_TIME 19.583 min
AC$CHROMATOGRAPHY: SOLVENT A 0.1% formic acid
AC$CHROMATOGRAPHY: SOLVENT B methanol
MS$FOCUSED_ION: BASE_PEAK 79.0211
MS$FOCUSED_ION: PRECURSOR_M/Z 312.1725
MS$FOCUSED_ION: PRECURSOR_TYPE [M+H]+
MS$FOCUSED_ION: PRECURSOR_INTENSITY 1362598.875
MS$DATA_PROCESSING: RECALIBRATE loess on assigned fragments and MS1
MS$DATA_PROCESSING: REANALYZE Peaks with additional N2/O included
MS$DATA_PROCESSING: WHOLE RMassBank 2.99.2
PK$SPLASH: splash10-0a4r-9240000000-94097fcaa538458feb79
PK$ANNOTATION: m/z tentative_formula formula_count mass error(ppm)
  55.0542 C4H7+ 1 55.0542 0.38
  57.0699 C4H9+ 1 57.0699 0.21
  87.0805 C5H11O+ 2 87.0804 0.77
  90.0104 C3H5ClN+ 2 90.0105 -0.74
  162.1277 C11H16N+ 2 162.1277 -0.09
  208.0889 C12H15ClN+ 2 208.0888 0.48
  238.0995 C13H17ClNO+ 2 238.0993 0.8
PK$NUM_PEAK: 7
PK$PEAK: m/z int. rel.int.
  55.0542 3459.7 24
  57.0699 141634.3 999
  87.0805 18128 127
  90.0104 8687.2 61
  162.1277 51640.1 364
  208.0889 3817.6 26
  238.0995 75973.1 535
//
