ACCESSION: MSBNK-LCSB-LU078654
RECORD_TITLE: 4-Amino-6-tert-butyl-3-thioxo-3,4-dihydro-1,2,4-triazin-5(2H)-one; LC-ESI-QFT; MS2; CE: 60; R=17500; [M-H]-
DATE: 2020.08.19
AUTHORS: Elapavalore, A.; Kondić, T.; Singh, R.; Schymanski, E.
LICENSE: CC BY
COPYRIGHT: Copyright © 2019 by Environmental Cheminformatics, LCSB, University of Luxembourg, Luxembourg
PUBLICATION: Elapavalore, A.; Kondić, T.; et al., Adding Open Spectral Data to MassBank and PubChem Using Open Source Tools to Support Non-Targeted Exposomics of Mixtures (submitted).
PROJECT: ENTACT U.S. Environmental Protection Agency’s Non-Targeted Analysis Collaborative Trial
COMMENT: CONFIDENCE standard compound
COMMENT: INTERNAL_ID 786
COMMENT: DATASET 20200303_ENTACT_RP_MIX508
COMMENT: DATA_PROCESSING MERGING RMBmix ver. 0.2.7
COMMENT: DATA_PROCESSING PRESCREENING Shinyscreen ver. 0.8.0
COMMENT: ORIGINAL_ACQUISITION_NO 3753
COMMENT: ORIGINAL_PRECURSOR_SCAN_NO 3749
COMMENT: RAW_DATA available as MSV000091754 at [DOI:10.25345/C5S46HG75]
CH$NAME: 4-Amino-6-tert-butyl-3-thioxo-3,4-dihydro-1,2,4-triazin-5(2H)-one
CH$NAME: 4-amino-6-tert-butyl-3-sulfanyl-1,2,4-triazin-5-one
CH$COMPOUND_CLASS: N/A; Environmental Standard
CH$FORMULA: C7H12N4OS
CH$EXACT_MASS: 200.0732
CH$SMILES: CC(C)(C)C1=NNC(=S)N(N)C1=O
CH$IUPAC: InChI=1S/C7H12N4OS/c1-7(2,3)4-5(12)11(8)6(13)10-9-4/h8H2,1-3H3,(H,10,13)
CH$LINK: CAS 33509-43-2
CH$LINK: CHEMSPIDER 589194
CH$LINK: INCHIKEY OFKAVNQBCRJBJE-UHFFFAOYSA-N
CH$LINK: PUBCHEM CID:676486
AC$INSTRUMENT: Q Exactive Orbitrap (Thermo Scientific)
AC$INSTRUMENT_TYPE: LC-ESI-QFT
AC$MASS_SPECTROMETRY: MS_TYPE MS2
AC$MASS_SPECTROMETRY: ION_MODE NEGATIVE
AC$MASS_SPECTROMETRY: IONIZATION ESI
AC$MASS_SPECTROMETRY: FRAGMENTATION_MODE HCD
AC$MASS_SPECTROMETRY: COLLISION_ENERGY 60
AC$MASS_SPECTROMETRY: RESOLUTION 17500
AC$CHROMATOGRAPHY: COLUMN_NAME Acquity BEH C18 1.7um, 2.1x150mm (Waters)
AC$CHROMATOGRAPHY: FLOW_GRADIENT 90/10 at 0-2 min, 0/100 at 15-20 min, 90/10 at 20.1-30 min
AC$CHROMATOGRAPHY: FLOW_RATE 0.20 mL/min
AC$CHROMATOGRAPHY: RETENTION_TIME 14.944 min
AC$CHROMATOGRAPHY: SOLVENT A 0.1% formic acid
AC$CHROMATOGRAPHY: SOLVENT B methanol
MS$FOCUSED_ION: BASE_PEAK 199.0659
MS$FOCUSED_ION: PRECURSOR_M/Z 199.0659
MS$FOCUSED_ION: PRECURSOR_TYPE [M-H]-
MS$FOCUSED_ION: PRECURSOR_INTENSITY 14066355.1958
MS$DATA_PROCESSING: RECALIBRATE loess on assigned fragments and MS1
MS$DATA_PROCESSING: REANALYZE Peaks with additional N2/O included
MS$DATA_PROCESSING: WHOLE RMassBank 2.99.2
PK$SPLASH: splash10-0a4i-9000000000-07d2a4a8020d59b75fbc
PK$ANNOTATION: m/z tentative_formula formula_count mass error(ppm)
  56.0254 CH2N3- 1 56.0254 -0.73
  57.9756 CNS- 1 57.9757 -1.1
  71.9787 CN2S- 1 71.9788 -1.26
  72.9867 CHN2S- 1 72.9866 1.63
  170.0518 C7H10N2OS- 1 170.0519 -0.49
  199.0659 C7H11N4OS- 1 199.0659 -0.11
PK$NUM_PEAK: 6
PK$PEAK: m/z int. rel.int.
  56.0254 59589.6 7
  57.9756 7539558 999
  71.9787 26473.3 3
  72.9867 12161.5 1
  170.0518 14967.2 1
  199.0659 773969.2 102
//
