ACCESSION: MSBNK-LCSB-LU067051
RECORD_TITLE: Fomesafen; LC-ESI-QFT; MS2; CE: 15; R=17500; [M-H]-
DATE: 2020.08.19
AUTHORS: Elapavalore, A.; Kondić, T.; Singh, R.; Schymanski, E.
LICENSE: CC BY
COPYRIGHT: Copyright © 2019 by Environmental Cheminformatics, LCSB, University of Luxembourg, Luxembourg
PUBLICATION: Elapavalore, A.; Kondić, T.; et al., Adding Open Spectral Data to MassBank and PubChem Using Open Source Tools to Support Non-Targeted Exposomics of Mixtures (submitted).
PROJECT: ENTACT U.S. Environmental Protection Agency’s Non-Targeted Analysis Collaborative Trial
COMMENT: CONFIDENCE standard compound
COMMENT: INTERNAL_ID 670
COMMENT: DATASET 20200303_ENTACT_RP_MIX506
COMMENT: DATA_PROCESSING MERGING RMBmix ver. 0.2.7
COMMENT: DATA_PROCESSING PRESCREENING Shinyscreen ver. 0.8.0
COMMENT: ORIGINAL_ACQUISITION_NO 4860
COMMENT: ORIGINAL_PRECURSOR_SCAN_NO 4858
COMMENT: RAW_DATA available as MSV000091754 at [DOI:10.25345/C5S46HG75]
CH$NAME: Fomesafen
CH$NAME: 5-[2-chloro-4-(trifluoromethyl)phenoxy]-N-methylsulfonyl-2-nitrobenzamide
CH$COMPOUND_CLASS: N/A; Environmental Standard
CH$FORMULA: C15H10ClF3N2O6S
CH$EXACT_MASS: 437.9900
CH$SMILES: CS(=O)(=O)NC(=O)C1=CC(OC2=CC=C(C=C2Cl)C(F)(F)F)=CC=C1[N+]([O-])=O
CH$IUPAC: InChI=1S/C15H10ClF3N2O6S/c1-28(25,26)20-14(22)10-7-9(3-4-12(10)21(23)24)27-13-5-2-8(6-11(13)16)15(17,18)19/h2-7H,1H3,(H,20,22)
CH$LINK: CAS 1165-39-5
CH$LINK: CHEBI CHEBI:81925
CH$LINK: KEGG C18736
CH$LINK: PUBCHEM CID:51556
CH$LINK: INCHIKEY BGZZWXTVIYUUEY-UHFFFAOYSA-N
CH$LINK: CHEMSPIDER 46694
AC$INSTRUMENT: Q Exactive Orbitrap (Thermo Scientific)
AC$INSTRUMENT_TYPE: LC-ESI-QFT
AC$MASS_SPECTROMETRY: MS_TYPE MS2
AC$MASS_SPECTROMETRY: ION_MODE NEGATIVE
AC$MASS_SPECTROMETRY: IONIZATION ESI
AC$MASS_SPECTROMETRY: FRAGMENTATION_MODE HCD
AC$MASS_SPECTROMETRY: COLLISION_ENERGY 15
AC$MASS_SPECTROMETRY: RESOLUTION 17500
AC$CHROMATOGRAPHY: COLUMN_NAME Acquity BEH C18 1.7um, 2.1x150mm (Waters)
AC$CHROMATOGRAPHY: FLOW_GRADIENT 90/10 at 0-2 min, 0/100 at 15-20 min, 90/10 at 20.1-30 min
AC$CHROMATOGRAPHY: FLOW_RATE 0.20 mL/min
AC$CHROMATOGRAPHY: RETENTION_TIME 17.863 min
AC$CHROMATOGRAPHY: SOLVENT A 0.1% formic acid
AC$CHROMATOGRAPHY: SOLVENT B methanol
MS$FOCUSED_ION: BASE_PEAK 227.999
MS$FOCUSED_ION: PRECURSOR_M/Z 436.9827
MS$FOCUSED_ION: PRECURSOR_TYPE [M-H]-
MS$FOCUSED_ION: PRECURSOR_INTENSITY 21504812.19727
MS$DATA_PROCESSING: RECALIBRATE loess on assigned fragments and MS1
MS$DATA_PROCESSING: REANALYZE Peaks with additional N2/O included
MS$DATA_PROCESSING: WHOLE RMassBank 2.99.2
PK$SPLASH: splash10-000i-0000900000-170db04fab5a15cbdb80
PK$ANNOTATION: m/z tentative_formula formula_count mass error(ppm)
  59.0138 C2H3O2- 1 59.0139 -0.31
  72.0091 C2H2NO2- 1 72.0091 0.4
  75.9862 CH2NOS- 1 75.9863 -0.13
  85.0295 C4H5O2- 3 85.0295 0.05
  101.0608 C5H9O2- 1 101.0608 0.25
  119.9761 C2H2NO3S- 2 119.9761 -0.17
  122.0008 CH5F3OS- 7 122.0019 -8.79
  315.9992 C13H6ClF3NO3- 11 315.9994 -0.51
  436.9825 C15H9ClF3N2O6S- 1 436.9827 -0.47
PK$NUM_PEAK: 9
PK$PEAK: m/z int. rel.int.
  59.0138 192484.2 18
  72.0091 170335 16
  75.9862 26374.5 2
  85.0295 61541.8 5
  101.0608 74832.9 7
  119.9761 297344.3 28
  122.0008 10725.2 1
  315.9992 312849.4 30
  436.9825 10406998 999
//
