ACCESSION: MSBNK-LCSB-LU076052
RECORD_TITLE: Purpurin; LC-ESI-QFT; MS2; CE: 30; R=17500; [M-H]-
DATE: 2020.08.19
AUTHORS: Elapavalore, A.; Kondić, T.; Singh, R.; Schymanski, E.
LICENSE: CC BY
COPYRIGHT: Copyright © 2019 by Environmental Cheminformatics, LCSB, University of Luxembourg, Luxembourg
PUBLICATION: Elapavalore, A.; Kondić, T.; et al., Adding Open Spectral Data to MassBank and PubChem Using Open Source Tools to Support Non-Targeted Exposomics of Mixtures (submitted).
PROJECT: ENTACT U.S. Environmental Protection Agency’s Non-Targeted Analysis Collaborative Trial
COMMENT: CONFIDENCE standard compound
COMMENT: INTERNAL_ID 760
COMMENT: DATASET 20200303_ENTACT_RP_MIX507
COMMENT: DATA_PROCESSING MERGING RMBmix ver. 0.2.7
COMMENT: DATA_PROCESSING PRESCREENING Shinyscreen ver. 0.8.0
COMMENT: ORIGINAL_ACQUISITION_NO 4861
COMMENT: ORIGINAL_PRECURSOR_SCAN_NO 4860
COMMENT: RAW_DATA available as MSV000091754 at [DOI:10.25345/C5S46HG75]
CH$NAME: Purpurin
CH$NAME: 1,2,4-trihydroxyanthracene-9,10-dione
CH$COMPOUND_CLASS: N/A; Environmental Standard
CH$FORMULA: C14H8O5
CH$EXACT_MASS: 256.0372
CH$SMILES: OC1=CC(O)=C(O)C2=C1C(=O)C1=C(C=CC=C1)C2=O
CH$IUPAC: InChI=1S/C14H8O5/c15-8-5-9(16)14(19)11-10(8)12(17)6-3-1-2-4-7(6)13(11)18/h1-5,15-16,19H
CH$LINK: CAS 81-54-9
CH$LINK: CHEBI CHEBI:8645
CH$LINK: KEGG C10395
CH$LINK: PUBCHEM CID:6683
CH$LINK: INCHIKEY BBNQQADTFFCFGB-UHFFFAOYSA-N
CH$LINK: CHEMSPIDER 6431
AC$INSTRUMENT: Q Exactive Orbitrap (Thermo Scientific)
AC$INSTRUMENT_TYPE: LC-ESI-QFT
AC$MASS_SPECTROMETRY: MS_TYPE MS2
AC$MASS_SPECTROMETRY: ION_MODE NEGATIVE
AC$MASS_SPECTROMETRY: IONIZATION ESI
AC$MASS_SPECTROMETRY: FRAGMENTATION_MODE HCD
AC$MASS_SPECTROMETRY: COLLISION_ENERGY 30
AC$MASS_SPECTROMETRY: RESOLUTION 17500
AC$CHROMATOGRAPHY: COLUMN_NAME Acquity BEH C18 1.7um, 2.1x150mm (Waters)
AC$CHROMATOGRAPHY: FLOW_GRADIENT 90/10 at 0-2 min, 0/100 at 15-20 min, 90/10 at 20.1-30 min
AC$CHROMATOGRAPHY: FLOW_RATE 0.20 mL/min
AC$CHROMATOGRAPHY: RETENTION_TIME 19.032 min
AC$CHROMATOGRAPHY: SOLVENT A 0.1% formic acid
AC$CHROMATOGRAPHY: SOLVENT B methanol
MS$FOCUSED_ION: BASE_PEAK 112.9856
MS$FOCUSED_ION: PRECURSOR_M/Z 255.0299
MS$FOCUSED_ION: PRECURSOR_TYPE [M-H]-
MS$FOCUSED_ION: PRECURSOR_INTENSITY 297659.4711914
MS$DATA_PROCESSING: RECALIBRATE loess on assigned fragments and MS1
MS$DATA_PROCESSING: REANALYZE Peaks with additional N2/O included
MS$DATA_PROCESSING: WHOLE RMassBank 2.99.2
PK$SPLASH: splash10-0a4i-0090000000-c10132c7149f134bfa13
PK$ANNOTATION: m/z tentative_formula formula_count mass error(ppm)
  227.0351 C13H7O4- 1 227.035 0.36
  255.03 C14H7O5- 1 255.0299 0.29
PK$NUM_PEAK: 2
PK$PEAK: m/z int. rel.int.
  227.0351 10157.7 40
  255.03 247852 999
//
