ACCESSION: MSBNK-LCSB-LU032803
RECORD_TITLE: Colchicine; LC-ESI-QFT; MS2; CE: 45; R=17500; [M+H]+
DATE: 2020.08.19
AUTHORS: Elapavalore, A.; Kondić, T.; Singh, R.; Schymanski, E.
LICENSE: CC BY
COPYRIGHT: Copyright © 2019 by Environmental Cheminformatics, LCSB, University of Luxembourg, Luxembourg
PUBLICATION: Elapavalore, A.; Kondić, T.; et al., Adding Open Spectral Data to MassBank and PubChem Using Open Source Tools to Support Non-Targeted Exposomics of Mixtures (submitted).
PROJECT: ENTACT U.S. Environmental Protection Agency’s Non-Targeted Analysis Collaborative Trial
COMMENT: CONFIDENCE standard compound
COMMENT: INTERNAL_ID 328
COMMENT: DATASET 20200303_ENTACT_RP_MIX505
COMMENT: DATA_PROCESSING MERGING RMBmix ver. 0.2.7
COMMENT: DATA_PROCESSING PRESCREENING Shinyscreen ver. 0.8.0
COMMENT: ORIGINAL_ACQUISITION_NO 7693
COMMENT: ORIGINAL_PRECURSOR_SCAN_NO 7689
COMMENT: RAW_DATA available as MSV000091754 at [DOI:10.25345/C5S46HG75]
CH$NAME: Colchicine
CH$NAME: N-[(7S)-1,2,3,10-tetramethoxy-9-oxo-6,7-dihydro-5H-benzo[a]heptalen-7-yl]acetamide
CH$COMPOUND_CLASS: N/A; Environmental Standard
CH$FORMULA: C22H25NO6
CH$EXACT_MASS: 399.1682
CH$SMILES: COC1=CC2=C(C(OC)=C1OC)C1=CC=C(OC)C(=O)C=C1[C@H](CC2)NC(C)=O
CH$IUPAC: InChI=1S/C22H25NO6/c1-12(24)23-16-8-6-13-10-19(27-3)21(28-4)22(29-5)20(13)14-7-9-18(26-2)17(25)11-15(14)16/h7,9-11,16H,6,8H2,1-5H3,(H,23,24)/t16-/m0/s1
CH$LINK: CAS 64-86-8
CH$LINK: CHEBI CHEBI:27882
CH$LINK: KEGG C07592
CH$LINK: PUBCHEM CID:6167
CH$LINK: INCHIKEY IAKHMKGGTNLKSZ-INIZCTEOSA-N
CH$LINK: CHEMSPIDER 5933
AC$INSTRUMENT: Q Exactive Orbitrap (Thermo Scientific)
AC$INSTRUMENT_TYPE: LC-ESI-QFT
AC$MASS_SPECTROMETRY: MS_TYPE MS2
AC$MASS_SPECTROMETRY: ION_MODE POSITIVE
AC$MASS_SPECTROMETRY: IONIZATION ESI
AC$MASS_SPECTROMETRY: FRAGMENTATION_MODE HCD
AC$MASS_SPECTROMETRY: COLLISION_ENERGY 45
AC$MASS_SPECTROMETRY: RESOLUTION 17500
AC$CHROMATOGRAPHY: COLUMN_NAME Acquity BEH C18 1.7um, 2.1x150mm (Waters)
AC$CHROMATOGRAPHY: FLOW_GRADIENT 90/10 at 0-2 min, 0/100 at 15-20 min, 90/10 at 20.1-30 min
AC$CHROMATOGRAPHY: FLOW_RATE 0.20 mL/min
AC$CHROMATOGRAPHY: RETENTION_TIME 14.647 min
AC$CHROMATOGRAPHY: SOLVENT A 0.1% formic acid
AC$CHROMATOGRAPHY: SOLVENT B methanol
MS$FOCUSED_ION: BASE_PEAK 79.0211
MS$FOCUSED_ION: PRECURSOR_M/Z 400.1755
MS$FOCUSED_ION: PRECURSOR_TYPE [M+H]+
MS$FOCUSED_ION: PRECURSOR_INTENSITY 12656912
MS$DATA_PROCESSING: RECALIBRATE loess on assigned fragments and MS1
MS$DATA_PROCESSING: REANALYZE Peaks with additional N2/O included
MS$DATA_PROCESSING: WHOLE RMassBank 2.99.2
PK$SPLASH: splash10-03gj-0195000000-552c6985f9fc08d6b72f
PK$ANNOTATION: m/z tentative_formula formula_count mass error(ppm)
  56.0495 C3H6N+ 1 56.0495 -0.1
  60.0444 C2H6NO+ 1 60.0444 0.39
  68.0495 C4H6N+ 1 68.0495 0.25
  70.0288 C3H4NO+ 1 70.0287 0.38
  71.0493 C4H7O+ 1 71.0491 2.25
  75.044 C3H7O2+ 1 75.0441 -0.7
  79.0543 C6H7+ 1 79.0542 1.56
  84.0444 C4H6NO+ 1 84.0444 0.44
  85.0284 C4H5O2+ 1 85.0284 0.16
  86.06 C4H8NO+ 1 86.06 -0.14
  91.0542 C7H7+ 1 91.0542 0.25
  95.0492 C6H7O+ 1 95.0491 0.82
  100.0393 C4H6NO2+ 1 100.0393 0.44
  102.055 C4H8NO2+ 1 102.055 0.58
  108.0447 C6H6NO+ 1 108.0444 2.45
  117.0702 C9H9+ 1 117.0699 2.72
  119.0492 C8H7O+ 1 119.0491 0.7
  121.0648 C8H9O+ 1 121.0648 -0.13
  123.0442 C7H7O2+ 1 123.0441 1.06
  125.0597 C7H9O2+ 1 125.0597 -0.3
  130.0653 C9H8N+ 1 130.0651 1.06
  131.0493 C9H7O+ 1 131.0491 1.47
  133.065 C9H9O+ 1 133.0648 1.26
  135.0441 C8H7O2+ 1 135.0441 0.11
  136.076 C8H10NO+ 1 136.0757 2.22
  137.0598 C8H9O2+ 1 137.0597 0.49
  138.0548 C7H8NO2+ 1 138.055 -0.91
  138.0678 C8H10O2+ 1 138.0675 1.83
  145.0649 C10H9O+ 1 145.0648 0.85
  146.0602 C9H8NO+ 1 146.06 0.98
  146.0723 C10H10O+ 1 146.0726 -2.48
  147.0682 C9H9NO+ 1 147.0679 2.34
  148.0518 C9H8O2+ 1 148.0519 -0.29
  148.0759 C9H10NO+ 1 148.0757 1.32
  149.0601 C9H9O2+ 1 149.0597 2.69
  150.0551 C8H8NO2+ 1 150.055 1.29
  150.0676 C9H10O2+ 1 150.0675 0.46
  151.0754 C9H11O2+ 1 151.0754 0.07
  152.0706 C8H10NO2+ 1 152.0706 0.1
  155.0705 C8H11O3+ 1 155.0703 1.48
  158.0603 C10H8NO+ 1 158.06 1.4
  158.0727 C11H10O+ 1 158.0726 0.42
  160.0518 C10H8O2+ 1 160.0519 -0.64
  160.0759 C10H10NO+ 1 160.0757 1.33
  161.0599 C10H9O2+ 1 161.0597 1.18
  162.0672 C10H10O2+ 1 162.0675 -1.82
  163.0754 C10H11O2+ 1 163.0754 0.45
  165.0711 C13H9+ 1 165.0699 7.58
  165.0785 C9H11NO2+ 1 165.0784 0.69
  166.0629 C9H10O3+ 2 166.0624 2.76
  166.0865 C9H12NO2+ 1 166.0863 1.53
  167.0705 C9H11O3+ 2 167.0703 1.39
  173.0598 C11H9O2+ 1 173.0597 0.68
  173.0837 C11H11NO+ 1 173.0835 1.26
  174.0678 C11H10O2+ 1 174.0675 1.48
  174.0915 C11H12NO+ 1 174.0913 1.1
  175.063 C10H9NO2+ 1 175.0628 1.24
  175.0756 C11H11O2+ 1 175.0754 1.31
  176.0707 C10H10NO2+ 1 176.0706 0.65
  176.0836 C11H12O2+ 1 176.0832 2.19
  177.0548 C10H9O3+ 2 177.0546 1.04
  177.0789 C10H11NO2+ 1 177.0784 2.47
  177.0909 C11H13O2+ 1 177.091 -0.47
  178.0627 C10H10O3+ 2 178.0624 1.48
  179.0703 C10H11O3+ 2 179.0703 0.38
  179.085 C14H11+ 1 179.0855 -2.76
  180.0781 C13H10N+ 2 180.0808 -14.99
  181.086 C10H13O3+ 2 181.0859 0.5
  183.0802 C13H11O+ 1 183.0804 -1.41
  188.0712 C11H10NO2+ 1 188.0706 3.01
  188.0829 C12H12O2+ 1 188.0832 -1.71
  190.0626 C11H10O3+ 2 190.0624 0.89
  190.0859 C11H12NO2+ 2 190.0863 -2.11
  191.0705 C11H11O3+ 2 191.0703 0.98
  192.0664 C10H10NO3+ 1 192.0655 4.43
  192.0784 C11H12O3+ 2 192.0781 1.48
  193.0733 C10H11NO3+ 2 193.0733 0.01
  194.0941 C11H14O3+ 2 194.0937 1.67
  195.0808 C14H11O+ 1 195.0804 1.59
  196.0886 C14H12O+ 1 196.0883 1.68
  197.0601 C13H9O2+ 1 197.0597 1.9
  198.0687 C13H10O2+ 1 198.0675 6.15
  199.0755 C13H11O2+ 1 199.0754 0.93
  202.0863 C12H12NO2+ 2 202.0863 0.26
  203.0944 C12H13NO2+ 2 203.0941 1.41
  204.0657 C11H10NO3+ 2 204.0655 1.02
  204.0785 C12H12O3+ 2 204.0781 2.05
  205.0736 C11H11NO3+ 2 205.0733 1.26
  205.0861 C12H13O3+ 2 205.0859 0.73
  206.0723 C15H10O+ 1 206.0726 -1.49
  206.0817 C11H12NO3+ 1 206.0812 2.62
  206.0941 C12H14O3+ 2 206.0937 1.71
  207.0804 C15H11O+ 1 207.0804 0.02
  207.1016 C12H15O3+ 2 207.1016 0.18
  208.0887 C15H12O+ 1 208.0883 2.1
  209.0593 C14H9O2+ 1 209.0597 -1.93
  209.0965 C15H13O+ 1 209.0961 2.04
  210.0679 C14H10O2+ 1 210.0675 1.59
  211.0753 C14H11O2+ 1 211.0754 -0.06
  211.1122 C15H15O+ 1 211.1117 2.36
  212.0834 C14H12O2+ 1 212.0832 1.05
  213.0914 C14H13O2+ 1 213.091 2.07
  216.0787 C13H12O3+ 2 216.0781 3
  217.0651 C16H9O+ 1 217.0648 1.24
  218.082 C12H12NO3+ 1 218.0812 3.67
  218.0936 C13H14O3+ 2 218.0937 -0.47
  219.0789 C16H11O+ 1 219.0804 -7.22
  219.0893 C12H13NO3+ 2 219.089 1.38
  219.1018 C13H15O3+ 2 219.1016 1.08
  220.0868 C16H12O+ 1 220.0883 -6.82
  220.0986 C12H14NO3+ 1 220.0968 8.19
  220.1086 C13H16O3+ 1 220.1094 -3.61
  221.0957 C16H13O+ 1 221.0961 -1.59
  222.0664 C15H10O2+ 1 222.0675 -5.02
  222.113 C12H16NO3+ 2 222.1125 2.6
  223.0755 C15H11O2+ 1 223.0754 0.43
  223.1117 C16H15O+ 1 223.1117 -0.16
  224.0833 C15H12O2+ 1 224.0832 0.72
  225.054 C14H9O3+ 2 225.0546 -2.74
  225.08 C14H11NO2+ 1 225.0784 6.86
  225.0909 C15H13O2+ 1 225.091 -0.68
  226.0625 C14H10O3+ 2 226.0624 0.26
  226.0987 C15H14O2+ 1 226.0988 -0.45
  227.0701 C14H11O3+ 2 227.0703 -0.86
  227.1067 C15H15O2+ 1 227.1067 0.31
  229.086 C14H13O3+ 2 229.0859 0.26
  231.1014 C14H15O3+ 2 231.1016 -0.81
  233.06 C16H9O2+ 1 233.0597 1.16
  234.0678 C16H10O2+ 1 234.0675 1.18
  234.0913 C16H12NO+ 2 234.0913 -0.22
  234.1127 C13H16NO3+ 2 234.1125 0.91
  235.0754 C16H11O2+ 1 235.0754 0.22
  235.0978 C13H15O4+ 2 235.0965 5.49
  236.0717 C15H10NO2+ 1 236.0706 4.58
  236.0834 C16H12O2+ 1 236.0832 0.95
  236.1072 C16H14NO+ 2 236.107 0.86
  237.0911 C16H13O2+ 1 237.091 0.52
  237.1148 C16H15NO+ 2 237.1148 -0.21
  238.0618 C15H10O3+ 2 238.0624 -2.56
  238.0862 C15H12NO2+ 2 238.0863 -0.41
  238.0989 C16H14O2+ 1 238.0988 0.22
  239.0703 C15H11O3+ 2 239.0703 0.09
  239.1067 C16H15O2+ 1 239.1067 0.18
  240.0782 C15H12O3+ 2 240.0781 0.43
  240.1022 C15H14NO2+ 2 240.1019 1.1
  240.115 C16H16O2+ 1 240.1145 1.98
  241.0862 C15H13O3+ 2 241.0859 1.21
  242.0939 C15H14O3+ 2 242.0937 0.53
  243.0655 C14H11O4+ 2 243.0652 1.41
  243.102 C15H15O3+ 2 243.1016 1.87
  245.1047 C14H15NO3+ 2 245.1046 0.29
  246.1137 C14H16NO3+ 1 246.1125 5.03
  247.0756 C17H11O2+ 1 247.0754 0.9
  247.0987 C17H13NO+ 2 247.0992 -1.9
  248.0834 C17H12O2+ 1 248.0832 0.73
  248.1074 C17H14NO+ 2 248.107 1.82
  249.0911 C17H13O2+ 1 249.091 0.38
  250.0863 C16H12NO2+ 2 250.0863 0.05
  250.0992 C17H14O2+ 1 250.0988 1.5
  250.1225 C17H16NO+ 2 250.1226 -0.6
  251.0706 C16H11O3+ 2 251.0703 1.13
  251.0941 C16H13NO2+ 2 251.0941 -0.11
  251.1068 C17H15O2+ 1 251.1067 0.67
  252.0786 C16H12O3+ 2 252.0781 1.87
  252.1019 C16H14NO2+ 2 252.1019 0.15
  252.1151 C17H16O2+ 1 252.1145 2.26
  253.086 C16H13O3+ 2 253.0859 0.19
  253.1097 C16H15NO2+ 2 253.1097 -0.19
  253.1224 C17H17O2+ 1 253.1223 0.46
  254.0809 C15H12NO3+ 2 254.0812 -0.92
  254.094 C16H14O3+ 2 254.0937 0.87
  254.1176 C16H16NO2+ 2 254.1176 0.37
  254.1305 C17H18O2+ 1 254.1301 1.62
  255.0655 C15H11O4+ 2 255.0652 1.04
  255.1017 C16H15O3+ 2 255.1016 0.59
  256.0967 C15H14NO3+ 2 256.0968 -0.57
  256.1099 C16H16O3+ 2 256.1094 1.92
  257.0806 C15H13O4+ 2 257.0808 -0.82
  257.1178 C16H17O3+ 2 257.1172 2.35
  258.0888 C15H14O4+ 2 258.0887 0.44
  258.1127 C15H16NO3+ 2 258.1125 1.01
  259.0961 C15H15O4+ 2 259.0965 -1.6
  260.1083 C18H14NO+ 1 260.107 5.08
  261.1014 C14H15NO4+ 1 261.0996 7.23
  262.0626 C17H10O3+ 2 262.0624 0.59
  262.0866 C17H12NO2+ 2 262.0863 1.15
  263.0704 C17H11O3+ 2 263.0703 0.43
  263.0939 C17H13NO2+ 2 263.0941 -0.63
  264.0645 C16H10NO3+ 2 264.0655 -3.76
  264.0791 C17H12O3+ 2 264.0781 3.75
  264.1019 C17H14NO2+ 2 264.1019 0.14
  265.0861 C17H13O3+ 2 265.0859 0.58
  265.1094 C17H15NO2+ 2 265.1097 -1.28
  266.0939 C17H14O3+ 2 266.0937 0.66
  266.1173 C17H16NO2+ 2 266.1176 -1.08
  267.1017 C17H15O3+ 2 267.1016 0.62
  267.1247 C17H17NO2+ 2 267.1254 -2.6
  268.0733 C16H12O4+ 2 268.073 0.95
  268.0966 C16H14NO3+ 2 268.0968 -0.78
  268.1099 C17H16O3+ 2 268.1094 1.83
  269.0808 C16H13O4+ 2 269.0808 -0.11
  269.1041 C16H15NO3+ 2 269.1046 -2.06
  269.1175 C17H17O3+ 2 269.1172 1.22
  270.0888 C16H14O4+ 2 270.0887 0.53
  270.1119 C16H16NO3+ 2 270.1125 -2.09
  270.1257 C17H18O3+ 2 270.125 2.42
  271.0966 C16H15O4+ 2 271.0965 0.37
  272.0691 C15H12O5+ 2 272.0679 4.29
  272.105 C16H16O4+ 2 272.1043 2.35
  272.1286 C16H18NO3+ 2 272.1281 1.77
  273.112 C16H17O4+ 2 273.1121 -0.37
  275.0941 C18H13NO2+ 2 275.0941 -0.06
  276.0784 C18H12O3+ 2 276.0781 1.02
  276.1023 C18H14NO2+ 2 276.1019 1.34
  276.1209 C15H18NO4+ 1 276.123 -7.88
  277.0863 C18H13O3+ 2 277.0859 1.53
  277.1095 C18H15NO2+ 2 277.1097 -0.69
  278.0946 C18H14O3+ 2 278.0937 2.92
  278.1177 C15H18O5+ 2 278.1149 10.23
  279.0654 C17H11O4+ 2 279.0652 0.71
  279.0885 C17H13NO3+ 2 279.089 -1.93
  279.1024 C18H15O3+ 2 279.1016 3.09
  279.1254 C18H17NO2+ 2 279.1254 0.01
  280.0737 C17H12O4+ 2 280.073 2.42
  280.0953 C14H16O6+ 2 280.0941 4.12
  280.1105 C18H16O3+ 2 280.1094 3.91
  280.1333 C18H18NO2+ 2 280.1332 0.4
  281.081 C17H13O4+ 2 281.0808 0.41
  281.1175 C18H17O3+ 2 281.1172 1.04
  282.1258 C18H18O3+ 2 282.125 2.51
  283.0966 C17H15O4+ 2 283.0965 0.55
  284.1048 C17H16O4+ 2 284.1043 1.59
  284.1283 C17H18NO3+ 2 284.1281 0.49
  285.076 C16H13O5+ 2 285.0757 0.93
  285.1124 C17H17O4+ 2 285.1121 0.8
  286.0842 C19H12NO2+ 2 286.0863 -7.3
  286.1074 C16H16NO4+ 1 286.1074 -0.09
  287.0914 C16H15O5+ 2 287.0914 0
  287.1289 C17H19O4+ 2 287.1278 3.9
  293.0811 C18H13O4+ 2 293.0808 1
  293.1048 C18H15NO3+ 2 293.1046 0.66
  294.089 C18H14O4+ 2 294.0887 1.27
  294.1126 C18H16NO3+ 2 294.1125 0.52
  295.0969 C18H15O4+ 2 295.0965 1.43
  295.1202 C18H17NO3+ 2 295.1203 -0.24
  296.0909 C17H14NO4+ 1 296.0917 -2.82
  296.1279 C18H18NO3+ 2 296.1281 -0.89
  297.075 C17H13O5+ 2 297.0757 -2.42
  297.1127 C18H17O4+ 2 297.1121 1.76
  297.1361 C18H19NO3+ 2 297.1359 0.61
  298.084 C17H14O5+ 2 298.0836 1.55
  298.1204 C18H18O4+ 2 298.12 1.52
  298.1439 C18H20NO3+ 2 298.1438 0.58
  299.0919 C17H15O5+ 2 299.0914 1.71
  299.1148 C17H17NO4+ 1 299.1152 -1.27
  299.1285 C18H19O4+ 2 299.1278 2.29
  300.1005 C17H16O5+ 2 300.0992 4.11
  300.1226 C17H18NO4+ 1 300.123 -1.4
  301.1074 C17H17O5+ 2 301.1071 1.12
  301.1311 C17H19NO4+ 1 301.1309 0.8
  301.1477 C21H19NO+ 3 301.1461 5.37
  302.1153 C17H18O5+ 2 302.1149 1.28
  304.0967 C19H14NO3+ 2 304.0968 -0.36
  305.1046 C19H15NO3+ 2 305.1046 -0.19
  306.1126 C19H16NO3+ 2 306.1125 0.27
  307.1208 C19H17NO3+ 2 307.1203 1.63
  308.1049 C19H16O4+ 2 308.1043 2
  308.1285 C19H18NO3+ 2 308.1281 1.29
  309.1125 C19H17O4+ 2 309.1121 1.17
  309.1358 C19H19NO3+ 2 309.1359 -0.53
  310.1216 C22H16NO+ 2 310.1226 -3.28
  311.0917 C18H15O5+ 2 311.0914 0.93
  311.115 C18H17NO4+ 1 311.1152 -0.56
  312.123 C18H18NO4+ 1 312.123 -0.11
  313.1436 C19H21O4+ 2 313.1434 0.63
  314.1014 C17H16NO5+ 1 314.1023 -2.77
  314.1383 C18H20NO4+ 1 314.1387 -1.24
  315.107 C17H17NO5+ 1 315.1101 -9.96
  315.1475 C18H21NO4+ 1 315.1465 2.99
  316.1544 C18H22NO4+ 1 316.1543 0.24
  320.0919 C19H14NO4+ 1 320.0917 0.67
  320.1286 C20H18NO3+ 2 320.1281 1.59
  321.0992 C19H15NO4+ 1 321.0996 -0.98
  322.1072 C19H16NO4+ 1 322.1074 -0.64
  322.1437 C20H20NO3+ 2 322.1438 -0.09
  323.1148 C19H17NO4+ 1 323.1152 -1.33
  323.1305 C20H19O4+ 1 323.1278 8.3
  324.1231 C19H18NO4+ 1 324.123 0.24
  325.1075 C19H17O5+ 2 325.1071 1.26
  325.1314 C19H19NO4+ 1 325.1309 1.52
  326.1152 C19H18O5+ 2 326.1149 1.04
  326.139 C19H20NO4+ 1 326.1387 1.11
  327.1456 C19H21NO4+ 1 327.1465 -2.84
  328.118 C18H18NO5+ 1 328.1179 0.13
  330.1344 C18H20NO5+ 1 330.1336 2.47
  330.1697 C19H24NO4+ 1 330.17 -0.79
  334.1078 C20H16NO4+ 1 334.1074 1.18
  335.1154 C20H17NO4+ 1 335.1152 0.6
  336.1236 C20H18NO4+ 1 336.123 1.66
  337.095 C19H15NO5+ 1 337.0945 1.65
  338.1046 C19H16NO5+ 1 338.1023 6.66
  338.1389 C20H20NO4+ 1 338.1387 0.68
  339.1467 C20H21NO4+ 1 339.1465 0.56
  340.1545 C20H22NO4+ 1 340.1543 0.43
  341.1387 C20H21O5+ 1 341.1384 1.13
  342.1337 C19H20NO5+ 1 342.1336 0.21
  343.1417 C19H21NO5+ 1 343.1414 0.89
  350.1381 C21H20NO4+ 1 350.1387 -1.56
  351.1093 C20H17NO5+ 1 351.1101 -2.34
  351.147 C21H21NO4+ 1 351.1465 1.46
  352.1182 C20H18NO5+ 1 352.1179 0.75
  354.1327 C20H20NO5+ 1 354.1336 -2.59
  354.1695 C21H24NO4+ 1 354.17 -1.5
  357.1205 C19H19NO6+ 1 357.1207 -0.59
  357.1578 C20H23NO5+ 1 357.1571 2.03
  358.165 C20H24NO5+ 1 358.1649 0.38
  366.1344 C21H20NO5+ 1 366.1336 2.19
  367.1416 C21H21NO5+ 1 367.1414 0.49
  368.1494 C21H22NO5+ 1 368.1492 0.29
  370.1286 C20H20NO6+ 1 370.1285 0.33
  382.1649 C22H24NO5+ 1 382.1649 0.08
  384.1445 C21H22NO6+ 1 384.1442 0.83
  400.1761 C22H26NO6+ 1 400.1755 1.6
PK$NUM_PEAK: 323
PK$PEAK: m/z int. rel.int.
  56.0495 11865.8 25
  60.0444 33525.4 71
  68.0495 5467.1 11
  70.0288 7327.5 15
  71.0493 5091 10
  75.044 8229.1 17
  79.0543 2588.4 5
  84.0444 15681 33
  85.0284 5325.1 11
  86.06 9834.4 21
  91.0542 5062.1 10
  95.0492 5252.2 11
  100.0393 16052.3 34
  102.055 3120.3 6
  108.0447 3483.5 7
  117.0702 4357.1 9
  119.0492 7954.9 17
  121.0648 3391.8 7
  123.0442 3445.2 7
  125.0597 4836.1 10
  130.0653 4761.8 10
  131.0493 4281 9
  133.065 2582.4 5
  135.0441 3163.4 6
  136.076 3278.8 7
  137.0598 58284.7 124
  138.0548 6179.9 13
  138.0678 6529.8 13
  145.0649 17517.8 37
  146.0602 4110.7 8
  146.0723 2644.4 5
  147.0682 3907.1 8
  148.0518 5435.8 11
  148.0759 3518 7
  149.0601 3079.4 6
  150.0551 10239.9 21
  150.0676 5765.4 12
  151.0754 22316.1 47
  152.0706 30337.1 64
  155.0705 5403 11
  158.0603 5458.1 11
  158.0727 3114.7 6
  160.0518 6993.7 14
  160.0759 18678.2 39
  161.0599 4897 10
  162.0672 2421.4 5
  163.0754 5624.1 12
  165.0711 5640.9 12
  165.0785 41042.8 87
  166.0629 7033.1 15
  166.0865 3359.9 7
  167.0705 11567.3 24
  173.0598 17833.5 38
  173.0837 2874.5 6
  174.0678 4500.7 9
  174.0915 3840.6 8
  175.063 13198.6 28
  175.0756 10996.7 23
  176.0707 29547.7 63
  176.0836 10713.7 22
  177.0548 7807.4 16
  177.0789 2624.6 5
  177.0909 4465.4 9
  178.0627 3758.2 8
  179.0703 14087.5 30
  179.085 4196 8
  180.0781 3607.2 7
  181.086 95667.6 204
  183.0802 5313.1 11
  188.0712 10878.8 23
  188.0829 20361.9 43
  190.0626 5663 12
  190.0859 14671.7 31
  191.0705 16402.4 35
  192.0664 3536.8 7
  192.0784 4502.3 9
  193.0733 12594.7 26
  194.0941 6585.7 14
  195.0808 9326.9 19
  196.0886 3038.3 6
  197.0601 3883.2 8
  198.0687 2833.9 6
  199.0755 4319.7 9
  202.0863 9630.5 20
  203.0944 40510.3 86
  204.0657 11443.5 24
  204.0785 11192.8 23
  205.0736 7925.8 16
  205.0861 17656.5 37
  206.0723 5502.4 11
  206.0817 11405.6 24
  206.0941 17855.9 38
  207.0804 14508 31
  207.1016 47436.5 101
  208.0887 5334.3 11
  209.0593 3025.2 6
  209.0965 10961.1 23
  210.0679 8661 18
  211.0753 9033.5 19
  211.1122 4569.8 9
  212.0834 7605.9 16
  213.0914 5340.2 11
  216.0787 4778 10
  217.0651 3560.5 7
  218.082 6106.3 13
  218.0936 4102.2 8
  219.0789 5477.1 11
  219.0893 24891.5 53
  219.1018 7979 17
  220.0868 4253.7 9
  220.0986 13289.4 28
  220.1086 3861.1 8
  221.0957 15228.8 32
  222.0664 2654 5
  222.113 11652.9 24
  223.0755 25687.3 54
  223.1117 4444.1 9
  224.0833 20591.8 44
  225.054 3539.1 7
  225.08 4200.3 8
  225.0909 20825.7 44
  226.0625 4920 10
  226.0987 26462.6 56
  227.0701 19349.1 41
  227.1067 6218.5 13
  229.086 5586.4 11
  231.1014 6102.3 13
  233.06 3884.6 8
  234.0678 15053.5 32
  234.0913 8504 18
  234.1127 78905 168
  235.0754 58945.6 126
  235.0978 6178.3 13
  236.0717 4244.2 9
  236.0834 18455.7 39
  236.1072 10734.4 22
  237.0911 39750.7 85
  237.1148 10414.8 22
  238.0618 4186 8
  238.0862 2490.3 5
  238.0989 34630.9 74
  239.0703 12237.1 26
  239.1067 62077.6 132
  240.0782 22224.7 47
  240.1022 4584.2 9
  240.115 11964.8 25
  241.0862 29285.9 62
  242.0939 51575 110
  243.0655 5365.9 11
  243.102 5231.5 11
  245.1047 5626.2 12
  246.1137 5659 12
  247.0756 12097.9 25
  247.0987 4039.2 8
  248.0834 18469.6 39
  248.1074 4916.1 10
  249.0911 46211.5 98
  250.0863 14414 30
  250.0992 57618 123
  250.1225 3895.6 8
  251.0706 66729.1 142
  251.0941 8571.8 18
  251.1068 61699.4 132
  252.0786 43863.8 93
  252.1019 24205.8 51
  252.1151 33896.4 72
  253.086 38720.1 82
  253.1097 7232.8 15
  253.1224 12256.9 26
  254.0809 5359.2 11
  254.094 30405.5 65
  254.1176 6672.5 14
  254.1305 6210.5 13
  255.0655 31091.4 66
  255.1017 72248.8 154
  256.0967 4831.3 10
  256.1099 19246 41
  257.0806 13610.7 29
  257.1178 15130.2 32
  258.0888 24105.6 51
  258.1127 5251.7 11
  259.0961 2808.6 6
  260.1083 3132.7 6
  261.1014 3527.3 7
  262.0626 9480.2 20
  262.0866 8832.2 18
  263.0704 53597 114
  263.0939 11021.7 23
  264.0645 4748.5 10
  264.0791 13450.6 28
  264.1019 30306.1 64
  265.0861 68689.4 147
  265.1094 27294.3 58
  266.0939 82795.5 177
  266.1173 25832.4 55
  267.1017 295602.9 632
  267.1247 23639.1 50
  268.0733 17208.8 36
  268.0966 34725.3 74
  268.1099 53611.6 114
  269.0808 39736 85
  269.1041 6151.2 13
  269.1175 18565.3 39
  270.0888 90144.1 192
  270.1119 7374.8 15
  270.1257 28520 61
  271.0966 32992.8 70
  272.0691 3368.9 7
  272.105 9911.6 21
  272.1286 11091.5 23
  273.112 24940.5 53
  275.0941 3630.4 7
  276.0784 8748.1 18
  276.1023 9441 20
  276.1209 3969.2 8
  277.0863 49520.8 106
  277.1095 18526.5 39
  278.0946 137517.3 294
  278.1177 11636.3 24
  279.0654 79340 169
  279.0885 8439.6 18
  279.1024 82411 176
  279.1254 11467.9 24
  280.0737 19759 42
  280.0953 57848.1 123
  280.1105 20765.7 44
  280.1333 10337.7 22
  281.081 11791 25
  281.1175 152524 326
  282.1258 436301.7 934
  283.0966 198168.2 424
  284.1048 62085.9 132
  284.1283 28061.1 60
  285.076 18895.1 40
  285.1124 263369.9 563
  286.0842 9508 20
  286.1074 17258.4 36
  287.0914 57182.8 122
  287.1289 5226.7 11
  293.0811 52741.6 112
  293.1048 42662.9 91
  294.089 94629.2 202
  294.1126 91909.3 196
  295.0969 453895.1 971
  295.1202 134616.2 288
  296.0909 82386 176
  296.1279 49021.4 104
  297.075 5347.5 11
  297.1127 51087.4 109
  297.1361 23815.5 50
  298.084 21914.1 46
  298.1204 144819.2 310
  298.1439 113979.4 244
  299.0919 14207.2 30
  299.1148 30857.9 66
  299.1285 34051.8 72
  300.1005 14120.9 30
  300.1226 112675.2 241
  301.1074 17498.4 37
  301.1311 54799.9 117
  301.1477 3848.7 8
  302.1153 36439.1 78
  304.0967 4566.1 9
  305.1046 4085 8
  306.1126 17113.3 36
  307.1208 20436.2 43
  308.1049 26734.5 57
  308.1285 69631.2 149
  309.1125 132633.7 283
  309.1358 32861.7 70
  310.1216 466601 999
  311.0917 322959.2 691
  311.115 86439.9 185
  312.123 80085.3 171
  313.1436 75690.1 162
  314.1014 36094.9 77
  314.1383 62334.9 133
  315.107 12292.7 26
  315.1475 9854.1 21
  316.1544 43673.9 93
  320.0919 12575.5 26
  320.1286 6848.9 14
  321.0992 13768.4 29
  322.1072 4603.6 9
  322.1437 11252.5 24
  323.1148 9729.6 20
  323.1305 7546.3 16
  324.1231 143448.2 307
  325.1075 29783.3 63
  325.1314 53515.4 114
  326.1152 177751.8 380
  326.139 186605 399
  327.1456 23768.6 50
  328.118 192945.3 413
  330.1344 15473.3 33
  330.1697 12906.3 27
  334.1078 11450 24
  335.1154 9118.1 19
  336.1236 27113 58
  337.095 5480.4 11
  338.1046 3910.8 8
  338.1389 25668.8 54
  339.1467 108592.4 232
  340.1545 96860.8 207
  341.1387 103452 221
  342.1337 131721.1 282
  343.1417 53018.2 113
  350.1381 12144.6 26
  351.1093 3673.1 7
  351.147 5511.2 11
  352.1182 41069.7 87
  354.1327 3811.8 8
  354.1695 19044.2 40
  357.1205 5261.5 11
  357.1578 8743.9 18
  358.165 170835.4 365
  366.1344 16514 35
  367.1416 49955.7 106
  368.1494 5167.5 11
  370.1286 6088.1 13
  382.1649 24153.2 51
  384.1445 7557.1 16
  400.1761 36269.8 77
//
