ACCESSION: MSBNK-LCSB-LU096603
RECORD_TITLE: 2-Chloro-N,N-dimethyl-3-oxobutanamide; LC-ESI-QFT; MS2; CE: 45; R=17500; [M+H]+
DATE: 2020.08.19
AUTHORS: Elapavalore, A.; Kondić, T.; Singh, R.; Schymanski, E.
LICENSE: CC BY
COPYRIGHT: Copyright © 2019 by Environmental Cheminformatics, LCSB, University of Luxembourg, Luxembourg
PUBLICATION: Elapavalore, A.; Kondić, T.; et al., Adding Open Spectral Data to MassBank and PubChem Using Open Source Tools to Support Non-Targeted Exposomics of Mixtures (submitted).
PROJECT: ENTACT U.S. Environmental Protection Agency’s Non-Targeted Analysis Collaborative Trial
COMMENT: CONFIDENCE standard compound
COMMENT: INTERNAL_ID 966
COMMENT: DATASET 20200303_ENTACT_RP_MIX508
COMMENT: DATA_PROCESSING MERGING RMBmix ver. 0.2.7
COMMENT: DATA_PROCESSING PRESCREENING Shinyscreen ver. 0.8.0
COMMENT: ORIGINAL_ACQUISITION_NO 4392
COMMENT: ORIGINAL_PRECURSOR_SCAN_NO 4387
COMMENT: RAW_DATA available as MSV000091754 at [DOI:10.25345/C5S46HG75]
CH$NAME: 2-Chloro-N,N-dimethyl-3-oxobutanamide
CH$COMPOUND_CLASS: N/A; Environmental Standard
CH$FORMULA: C6H10ClNO2
CH$EXACT_MASS: 163.0400
CH$SMILES: CN(C)C(=O)C(Cl)C(C)=O
CH$IUPAC: InChI=1S/C6H10ClNO2/c1-4(9)5(7)6(10)8(2)3/h5H,1-3H3
CH$LINK: CAS 6054-09-7
CH$LINK: PUBCHEM CID:93011
CH$LINK: INCHIKEY QJACRCAPQIYMIH-UHFFFAOYSA-N
CH$LINK: CHEMSPIDER 83964
AC$INSTRUMENT: Q Exactive Orbitrap (Thermo Scientific)
AC$INSTRUMENT_TYPE: LC-ESI-QFT
AC$MASS_SPECTROMETRY: MS_TYPE MS2
AC$MASS_SPECTROMETRY: ION_MODE POSITIVE
AC$MASS_SPECTROMETRY: IONIZATION ESI
AC$MASS_SPECTROMETRY: FRAGMENTATION_MODE HCD
AC$MASS_SPECTROMETRY: COLLISION_ENERGY 45
AC$MASS_SPECTROMETRY: RESOLUTION 17500
AC$CHROMATOGRAPHY: COLUMN_NAME Acquity BEH C18 1.7um, 2.1x150mm (Waters)
AC$CHROMATOGRAPHY: FLOW_GRADIENT 90/10 at 0-2 min, 0/100 at 15-20 min, 90/10 at 20.1-30 min
AC$CHROMATOGRAPHY: FLOW_RATE 0.20 mL/min
AC$CHROMATOGRAPHY: RETENTION_TIME 8.382 min
AC$CHROMATOGRAPHY: SOLVENT A 0.1% formic acid
AC$CHROMATOGRAPHY: SOLVENT B methanol
MS$FOCUSED_ION: BASE_PEAK 79.0211
MS$FOCUSED_ION: PRECURSOR_M/Z 164.0473
MS$FOCUSED_ION: PRECURSOR_TYPE [M+H]+
MS$FOCUSED_ION: PRECURSOR_INTENSITY 1449370.390625
MS$DATA_PROCESSING: RECALIBRATE loess on assigned fragments and MS1
MS$DATA_PROCESSING: REANALYZE Peaks with additional N2/O included
MS$DATA_PROCESSING: WHOLE RMassBank 2.99.2
PK$SPLASH: splash10-00di-9000000000-4f170daeb574903f4d25
PK$ANNOTATION: m/z tentative_formula formula_count mass error(ppm)
  72.0444 C3H6NO+ 1 72.0444 -0.05
  104.0262 C4H7ClN+ 1 104.0262 0.69
  105.0337 C4H8ClN+ 1 105.034 -2.4
  109.0526 C6H7NO+ 1 109.0522 3.11
  118.9896 C4H4ClO2+ 1 118.9894 1.18
  122.0369 C4H9ClNO+ 1 122.0367 1.44
  164.0474 C6H11ClNO2+ 1 164.0473 0.48
PK$NUM_PEAK: 7
PK$PEAK: m/z int. rel.int.
  72.0444 355671.7 999
  104.0262 5338.4 14
  105.0337 3735.1 10
  109.0526 3048.6 8
  118.9896 5642.6 15
  122.0369 6292.1 17
  164.0474 3102.8 8
//
