ACCESSION: MSBNK-LCSB-LU135555
RECORD_TITLE: 2,5-dihydroxybenzenesulfonate; LC-ESI-QFT; MS2; CE: 75; R=17500; [M-H]-
DATE: 2020.08.19
AUTHORS: Elapavalore, A.; Kondić, T.; Singh, R.; Schymanski, E.
LICENSE: CC BY
COPYRIGHT: Copyright © 2019 by Environmental Cheminformatics, LCSB, University of Luxembourg, Luxembourg
PUBLICATION: Elapavalore, A.; Kondić, T.; et al., Adding Open Spectral Data to MassBank and PubChem Using Open Source Tools to Support Non-Targeted Exposomics of Mixtures (submitted).
PROJECT: ENTACT U.S. Environmental Protection Agency’s Non-Targeted Analysis Collaborative Trial
COMMENT: CONFIDENCE standard compound
COMMENT: INTERNAL_ID 1355
COMMENT: DATASET 20200303_ENTACT_RP_MIX504
COMMENT: DATA_PROCESSING MERGING RMBmix ver. 0.2.7
COMMENT: DATA_PROCESSING PRESCREENING Shinyscreen ver. 0.8.0
COMMENT: ORIGINAL_ACQUISITION_NO 907
COMMENT: ORIGINAL_PRECURSOR_SCAN_NO 905
COMMENT: RAW_DATA available as MSV000091754 at [DOI:10.25345/C5S46HG75]
CH$NAME: 2,5-dihydroxybenzenesulfonate
CH$NAME: 2,5-dihydroxybenzenesulfonic acid
CH$COMPOUND_CLASS: N/A; Environmental Standard
CH$FORMULA: C6H6O5S
CH$EXACT_MASS: 189.9936
CH$SMILES: OC1=CC=C(O)C(=C1)S(O)(=O)=O
CH$IUPAC: InChI=1S/C6H6O5S/c7-4-1-2-5(8)6(3-4)12(9,10)11/h1-3,7-8H,(H,9,10,11)
CH$LINK: CAS 88-46-0
CH$LINK: CHEBI CHEBI:71157
CH$LINK: PUBCHEM CID:17507
CH$LINK: INCHIKEY IKQCSJBQLWJEPU-UHFFFAOYSA-N
CH$LINK: CHEMSPIDER 16554
AC$INSTRUMENT: Q Exactive Orbitrap (Thermo Scientific)
AC$INSTRUMENT_TYPE: LC-ESI-QFT
AC$MASS_SPECTROMETRY: MS_TYPE MS2
AC$MASS_SPECTROMETRY: ION_MODE NEGATIVE
AC$MASS_SPECTROMETRY: IONIZATION ESI
AC$MASS_SPECTROMETRY: FRAGMENTATION_MODE HCD
AC$MASS_SPECTROMETRY: COLLISION_ENERGY 75
AC$MASS_SPECTROMETRY: RESOLUTION 17500
AC$CHROMATOGRAPHY: COLUMN_NAME Acquity BEH C18 1.7um, 2.1x150mm (Waters)
AC$CHROMATOGRAPHY: FLOW_GRADIENT 90/10 at 0-2 min, 0/100 at 15-20 min, 90/10 at 20.1-30 min
AC$CHROMATOGRAPHY: FLOW_RATE 0.20 mL/min
AC$CHROMATOGRAPHY: RETENTION_TIME 3.325 min
AC$CHROMATOGRAPHY: SOLVENT A 0.1% formic acid
AC$CHROMATOGRAPHY: SOLVENT B methanol
MS$FOCUSED_ION: BASE_PEAK 198.9364
MS$FOCUSED_ION: PRECURSOR_M/Z 188.9863
MS$FOCUSED_ION: PRECURSOR_TYPE [M-H]-
MS$FOCUSED_ION: PRECURSOR_INTENSITY 1989616.866211
MS$DATA_PROCESSING: RECALIBRATE loess on assigned fragments and MS1
MS$DATA_PROCESSING: REANALYZE Peaks with additional N2/O included
MS$DATA_PROCESSING: WHOLE RMassBank 2.99.2
PK$SPLASH: splash10-004i-9100000000-e61a1458d736f79f039b
PK$ANNOTATION: m/z tentative_formula formula_count mass error(ppm)
  69.0346 C4H5O- 1 69.0346 -0.09
  79.9574 O3S- 1 79.9574 0.1
  80.9652 HO3S- 1 80.9652 -0.11
  83.014 C4H3O2- 1 83.0139 1.95
  85.0295 C4H5O2- 1 85.0295 -0.15
  95.0138 C5H3O2- 1 95.0139 -0.08
  97.0295 C5H5O2- 1 97.0295 0.41
  108.0217 C6H4O2- 1 108.0217 0.08
  109.0294 C6H5O2- 1 109.0295 -0.53
  123.0088 C6H3O3- 1 123.0088 0.11
  124.0165 C6H4O3- 1 124.0166 -1.1
  125.0244 C6H5O3- 1 125.0244 -0.21
  188.9863 C6H5O5S- 1 188.9863 -0.23
PK$NUM_PEAK: 13
PK$PEAK: m/z int. rel.int.
  69.0346 15559.1 21
  79.9574 736000.8 999
  80.9652 167600.7 227
  83.014 4081.6 5
  85.0295 5057.9 6
  95.0138 22150.5 30
  97.0295 10420.9 14
  108.0217 62606.7 84
  109.0294 64065.9 86
  123.0088 10143.9 13
  124.0165 3335.7 4
  125.0244 8341.3 11
  188.9863 49939.4 67
//
