ACCESSION: MSBNK-LCSB-LU138703
RECORD_TITLE: 2,2,4-Trimethylpentane-1,3-diyl dibenzoate; LC-ESI-QFT; MS2; CE: 45; R=17500; [M+H]+
DATE: 2020.08.19
AUTHORS: Elapavalore, A.; Kondić, T.; Singh, R.; Schymanski, E.
LICENSE: CC BY
COPYRIGHT: Copyright © 2019 by Environmental Cheminformatics, LCSB, University of Luxembourg, Luxembourg
PUBLICATION: Elapavalore, A.; Kondić, T.; et al., Adding Open Spectral Data to MassBank and PubChem Using Open Source Tools to Support Non-Targeted Exposomics of Mixtures (submitted).
PROJECT: ENTACT U.S. Environmental Protection Agency’s Non-Targeted Analysis Collaborative Trial
COMMENT: CONFIDENCE standard compound
COMMENT: INTERNAL_ID 1387
COMMENT: DATASET 20200303_ENTACT_RP_MIX506
COMMENT: DATA_PROCESSING MERGING RMBmix ver. 0.2.7
COMMENT: DATA_PROCESSING PRESCREENING Shinyscreen ver. 0.8.0
COMMENT: ORIGINAL_ACQUISITION_NO 10565
COMMENT: ORIGINAL_PRECURSOR_SCAN_NO 10560
COMMENT: RAW_DATA available as MSV000091754 at [DOI:10.25345/C5S46HG75]
CH$NAME: 2,2,4-Trimethylpentane-1,3-diyl dibenzoate
CH$NAME: (3-benzoyloxy-2,2,4-trimethylpentyl) benzoate
CH$COMPOUND_CLASS: N/A; Environmental Standard
CH$FORMULA: C22H26O4
CH$EXACT_MASS: 354.1831
CH$SMILES: CC(C)C(OC(=O)C1=CC=CC=C1)C(C)(C)COC(=O)C1=CC=CC=C1
CH$IUPAC: InChI=1S/C22H26O4/c1-16(2)19(26-21(24)18-13-9-6-10-14-18)22(3,4)15-25-20(23)17-11-7-5-8-12-17/h5-14,16,19H,15H2,1-4H3
CH$LINK: CAS 68052-23-3
CH$LINK: PUBCHEM CID:107080
CH$LINK: INCHIKEY FTSXVYQZLNPTCM-UHFFFAOYSA-N
CH$LINK: CHEMSPIDER 96353
AC$INSTRUMENT: Q Exactive Orbitrap (Thermo Scientific)
AC$INSTRUMENT_TYPE: LC-ESI-QFT
AC$MASS_SPECTROMETRY: MS_TYPE MS2
AC$MASS_SPECTROMETRY: ION_MODE POSITIVE
AC$MASS_SPECTROMETRY: IONIZATION ESI
AC$MASS_SPECTROMETRY: FRAGMENTATION_MODE HCD
AC$MASS_SPECTROMETRY: COLLISION_ENERGY 45
AC$MASS_SPECTROMETRY: RESOLUTION 17500
AC$CHROMATOGRAPHY: COLUMN_NAME Acquity BEH C18 1.7um, 2.1x150mm (Waters)
AC$CHROMATOGRAPHY: FLOW_GRADIENT 90/10 at 0-2 min, 0/100 at 15-20 min, 90/10 at 20.1-30 min
AC$CHROMATOGRAPHY: FLOW_RATE 0.20 mL/min
AC$CHROMATOGRAPHY: RETENTION_TIME 20.157 min
AC$CHROMATOGRAPHY: SOLVENT A 0.1% formic acid
AC$CHROMATOGRAPHY: SOLVENT B methanol
MS$FOCUSED_ION: BASE_PEAK 79.0211
MS$FOCUSED_ION: PRECURSOR_M/Z 355.1904
MS$FOCUSED_ION: PRECURSOR_TYPE [M+H]+
MS$FOCUSED_ION: PRECURSOR_INTENSITY 1878989.21875
MS$DATA_PROCESSING: RECALIBRATE loess on assigned fragments and MS1
MS$DATA_PROCESSING: REANALYZE Peaks with additional N2/O included
MS$DATA_PROCESSING: WHOLE RMassBank 2.99.2
PK$SPLASH: splash10-00xr-0900000000-c02af76a5e68e104388c
PK$ANNOTATION: m/z tentative_formula formula_count mass error(ppm)
  123.0244 C10H3+ 1 123.0229 11.77
  165.0707 C13H9+ 1 165.0699 4.74
PK$NUM_PEAK: 2
PK$PEAK: m/z int. rel.int.
  123.0244 2884.4 999
  165.0707 2379.8 824
//
