ACCESSION: MSBNK-LCSB-LU082754
RECORD_TITLE: Diphenylhydantoin; LC-ESI-QFT; MS2; CE: 60; R=17500; [M-H]-
DATE: 2020.08.19
AUTHORS: Elapavalore, A.; Kondić, T.; Singh, R.; Schymanski, E.
LICENSE: CC BY
COPYRIGHT: Copyright © 2019 by Environmental Cheminformatics, LCSB, University of Luxembourg, Luxembourg
PUBLICATION: Elapavalore, A.; Kondić, T.; et al., Adding Open Spectral Data to MassBank and PubChem Using Open Source Tools to Support Non-Targeted Exposomics of Mixtures (submitted).
PROJECT: ENTACT U.S. Environmental Protection Agency’s Non-Targeted Analysis Collaborative Trial
COMMENT: CONFIDENCE standard compound
COMMENT: INTERNAL_ID 827
COMMENT: DATASET 20200303_ENTACT_RP_MIX508
COMMENT: DATA_PROCESSING MERGING RMBmix ver. 0.2.7
COMMENT: DATA_PROCESSING PRESCREENING Shinyscreen ver. 0.8.0
COMMENT: ORIGINAL_ACQUISITION_NO 3943
COMMENT: ORIGINAL_PRECURSOR_SCAN_NO 3941
COMMENT: RAW_DATA available as MSV000091754 at [DOI:10.25345/C5S46HG75]
CH$NAME: Diphenylhydantoin
CH$NAME: Phenytoin
CH$NAME: 5,5-diphenylimidazolidine-2,4-dione
CH$COMPOUND_CLASS: N/A; Environmental Standard
CH$FORMULA: C15H12N2O2
CH$EXACT_MASS: 252.0899
CH$SMILES: O=C1NC(=O)C(N1)(C1=CC=CC=C1)C1=CC=CC=C1
CH$IUPAC: InChI=1S/C15H12N2O2/c18-13-15(17-14(19)16-13,11-7-3-1-4-8-11)12-9-5-2-6-10-12/h1-10H,(H2,16,17,18,19)
CH$LINK: CAS 57-41-0
CH$LINK: CHEBI CHEBI:8107
CH$LINK: KEGG C07443
CH$LINK: PUBCHEM CID:1775
CH$LINK: INCHIKEY CXOFVDLJLONNDW-UHFFFAOYSA-N
CH$LINK: CHEMSPIDER 1710
AC$INSTRUMENT: Q Exactive Orbitrap (Thermo Scientific)
AC$INSTRUMENT_TYPE: LC-ESI-QFT
AC$MASS_SPECTROMETRY: MS_TYPE MS2
AC$MASS_SPECTROMETRY: ION_MODE NEGATIVE
AC$MASS_SPECTROMETRY: IONIZATION ESI
AC$MASS_SPECTROMETRY: FRAGMENTATION_MODE HCD
AC$MASS_SPECTROMETRY: COLLISION_ENERGY 60
AC$MASS_SPECTROMETRY: RESOLUTION 17500
AC$CHROMATOGRAPHY: COLUMN_NAME Acquity BEH C18 1.7um, 2.1x150mm (Waters)
AC$CHROMATOGRAPHY: FLOW_GRADIENT 90/10 at 0-2 min, 0/100 at 15-20 min, 90/10 at 20.1-30 min
AC$CHROMATOGRAPHY: FLOW_RATE 0.20 mL/min
AC$CHROMATOGRAPHY: RETENTION_TIME 15.511 min
AC$CHROMATOGRAPHY: SOLVENT A 0.1% formic acid
AC$CHROMATOGRAPHY: SOLVENT B methanol
MS$FOCUSED_ION: BASE_PEAK 165.0557
MS$FOCUSED_ION: PRECURSOR_M/Z 251.0826
MS$FOCUSED_ION: PRECURSOR_TYPE [M-H]-
MS$FOCUSED_ION: PRECURSOR_INTENSITY 5412336.097656
MS$DATA_PROCESSING: RECALIBRATE loess on assigned fragments and MS1
MS$DATA_PROCESSING: REANALYZE Peaks with additional N2/O included
MS$DATA_PROCESSING: WHOLE RMassBank 2.99.2
PK$SPLASH: splash10-0udi-0900000000-80040b7c99e7a18635af
PK$ANNOTATION: m/z tentative_formula formula_count mass error(ppm)
  93.0347 C6H5O- 1 93.0346 1.59
  102.035 C7H4N- 1 102.0349 0.28
  105.0346 C7H5O- 1 105.0346 -0.19
  109.0295 C6H5O2- 1 109.0295 0.13
  120.0456 C7H6NO- 1 120.0455 0.87
  121.0295 C7H5O2- 1 121.0295 -0.26
  122.0373 C7H6O2- 1 122.0373 -0.24
  123.0452 C7H7O2- 1 123.0452 -0.02
  131.0378 C8H5NO- 1 131.0377 1.33
  146.0248 C8H4NO2- 1 146.0248 0.21
  180.0817 C13H10N- 1 180.0819 -0.79
  207.0689 C14H9NO- 1 207.069 -0.43
  208.0769 C14H10NO- 1 208.0768 0.39
  251.0827 C15H11N2O2- 1 251.0826 0.32
PK$NUM_PEAK: 14
PK$PEAK: m/z int. rel.int.
  93.0347 2504.5 1
  102.035 1288270.2 999
  105.0346 3637.7 2
  109.0295 3314.2 2
  120.0456 4047.8 3
  121.0295 10354.5 8
  122.0373 5668.5 4
  123.0452 3555.8 2
  131.0378 4900.9 3
  146.0248 74089.1 57
  180.0817 3939.3 3
  207.0689 9121.5 7
  208.0769 49939 38
  251.0827 6867.9 5
//
