ACCESSION: MSBNK-LCSB-LU136702
RECORD_TITLE: Dicrotophos; LC-ESI-QFT; MS2; CE: 30; R=17500; [M+H]+
DATE: 2020.08.19
AUTHORS: Elapavalore, A.; Kondić, T.; Singh, R.; Schymanski, E.
LICENSE: CC BY
COPYRIGHT: Copyright © 2019 by Environmental Cheminformatics, LCSB, University of Luxembourg, Luxembourg
PUBLICATION: Elapavalore, A.; Kondić, T.; et al., Adding Open Spectral Data to MassBank and PubChem Using Open Source Tools to Support Non-Targeted Exposomics of Mixtures (submitted).
PROJECT: ENTACT U.S. Environmental Protection Agency’s Non-Targeted Analysis Collaborative Trial
COMMENT: CONFIDENCE standard compound
COMMENT: INTERNAL_ID 1367
COMMENT: DATASET 20200303_ENTACT_RP_MIX507
COMMENT: DATA_PROCESSING MERGING RMBmix ver. 0.2.7
COMMENT: DATA_PROCESSING PRESCREENING Shinyscreen ver. 0.8.0
COMMENT: ORIGINAL_ACQUISITION_NO 6206
COMMENT: ORIGINAL_PRECURSOR_SCAN_NO 6204
COMMENT: RAW_DATA available as MSV000091754 at [DOI:10.25345/C5S46HG75]
CH$NAME: Dicrotophos
CH$NAME: [(E)-4-(dimethylamino)-4-oxobut-2-en-2-yl] dimethyl phosphate
CH$COMPOUND_CLASS: N/A; Environmental Standard
CH$FORMULA: C8H16NO5P
CH$EXACT_MASS: 237.0766
CH$SMILES: COP(=O)(OC)O\C(C)=C\C(=O)N(C)C
CH$IUPAC: InChI=1S/C8H16NO5P/c1-7(6-8(10)9(2)3)14-15(11,12-4)13-5/h6H,1-5H3/b7-6+
CH$LINK: CAS 141-66-2
CH$LINK: CHEBI CHEBI:38658
CH$LINK: KEGG C18656
CH$LINK: PUBCHEM CID:5371560
CH$LINK: INCHIKEY VEENJGZXVHKXNB-VOTSOKGWSA-N
CH$LINK: CHEMSPIDER 4522051
AC$INSTRUMENT: Q Exactive Orbitrap (Thermo Scientific)
AC$INSTRUMENT_TYPE: LC-ESI-QFT
AC$MASS_SPECTROMETRY: MS_TYPE MS2
AC$MASS_SPECTROMETRY: ION_MODE POSITIVE
AC$MASS_SPECTROMETRY: IONIZATION ESI
AC$MASS_SPECTROMETRY: FRAGMENTATION_MODE HCD
AC$MASS_SPECTROMETRY: COLLISION_ENERGY 30
AC$MASS_SPECTROMETRY: RESOLUTION 17500
AC$CHROMATOGRAPHY: COLUMN_NAME Acquity BEH C18 1.7um, 2.1x150mm (Waters)
AC$CHROMATOGRAPHY: FLOW_GRADIENT 90/10 at 0-2 min, 0/100 at 15-20 min, 90/10 at 20.1-30 min
AC$CHROMATOGRAPHY: FLOW_RATE 0.20 mL/min
AC$CHROMATOGRAPHY: RETENTION_TIME 11.817 min
AC$CHROMATOGRAPHY: SOLVENT A 0.1% formic acid
AC$CHROMATOGRAPHY: SOLVENT B methanol
MS$FOCUSED_ION: BASE_PEAK 79.0211
MS$FOCUSED_ION: PRECURSOR_M/Z 238.0839
MS$FOCUSED_ION: PRECURSOR_TYPE [M+H]+
MS$FOCUSED_ION: PRECURSOR_INTENSITY 15341526.625
MS$DATA_PROCESSING: RECALIBRATE loess on assigned fragments and MS1
MS$DATA_PROCESSING: REANALYZE Peaks with additional N2/O included
MS$DATA_PROCESSING: WHOLE RMassBank 2.99.2
PK$SPLASH: splash10-03fr-2900000000-f4c5657f17f14083eabf
PK$ANNOTATION: m/z tentative_formula formula_count mass error(ppm)
  55.0178 C3H3O+ 1 55.0178 -0.23
  55.0544 C4H7+ 2 55.0542 2.73
  58.0288 C2H4NO+ 1 58.0287 0.91
  58.0651 C3H8N+ 1 58.0651 -0.02
  67.0178 C4H3O+ 2 67.0178 -0.78
  69.0335 C4H5O+ 2 69.0335 0.13
  70.0651 C4H8N+ 1 70.0651 -0.53
  72.0444 C3H6NO+ 1 72.0444 -0.51
  81.0335 C5H5O+ 2 81.0335 0.49
  84.0808 C5H10N+ 1 84.0808 -0.27
  94.0653 C6H8N+ 1 94.0651 1.5
  110.06 C6H8NO+ 1 110.06 -0.62
  112.0757 C6H10NO+ 1 112.0757 -0.06
  127.0155 C2H8O4P+ 1 127.0155 0
  193.0261 C6H10O5P+ 1 193.026 0.5
  238.0842 C8H17NO5P+ 1 238.0839 1.5
PK$NUM_PEAK: 16
PK$PEAK: m/z int. rel.int.
  55.0178 4654.3 1
  55.0544 3423.2 1
  58.0288 6447.2 1
  58.0651 29584.9 8
  67.0178 111433.2 33
  69.0335 6056.2 1
  70.0651 60163.5 17
  72.0444 1384452.2 412
  81.0335 11920.8 3
  84.0808 24909.5 7
  94.0653 4527.4 1
  110.06 6006.1 1
  112.0757 3354482.5 999
  127.0155 1852385.5 551
  193.0261 410479.8 122
  238.0842 21707.7 6
//
