ACCESSION: MSBNK-LCSB-LU136552
RECORD_TITLE: Carminic acid; LC-ESI-QFT; MS2; CE: 30; R=17500; [M-H]-
DATE: 2020.08.19
AUTHORS: Elapavalore, A.; Kondić, T.; Singh, R.; Schymanski, E.
LICENSE: CC BY
COPYRIGHT: Copyright © 2019 by Environmental Cheminformatics, LCSB, University of Luxembourg, Luxembourg
PUBLICATION: Elapavalore, A.; Kondić, T.; et al., Adding Open Spectral Data to MassBank and PubChem Using Open Source Tools to Support Non-Targeted Exposomics of Mixtures (submitted).
PROJECT: ENTACT U.S. Environmental Protection Agency’s Non-Targeted Analysis Collaborative Trial
COMMENT: CONFIDENCE standard compound
COMMENT: INTERNAL_ID 1365
COMMENT: DATASET 20200303_ENTACT_RP_MIX504
COMMENT: DATA_PROCESSING MERGING RMBmix ver. 0.2.7
COMMENT: DATA_PROCESSING PRESCREENING Shinyscreen ver. 0.8.0
COMMENT: ORIGINAL_ACQUISITION_NO 3231
COMMENT: ORIGINAL_PRECURSOR_SCAN_NO 3228
COMMENT: RAW_DATA available as MSV000091754 at [DOI:10.25345/C5S46HG75]
CH$NAME: Carminic acid
CH$NAME: 3,5,6,8-tetrahydroxy-1-methyl-9,10-dioxo-7-[(2S,3R,4R,5S,6R)-3,4,5-trihydroxy-6-(hydroxymethyl)oxan-2-yl]anthracene-2-carboxylic acid
CH$COMPOUND_CLASS: N/A; Environmental Standard
CH$FORMULA: C22H20O13
CH$EXACT_MASS: 492.0904
CH$SMILES: CC1=C2C(=O)C3=C(C(O)=C(O)C([C@@H]4O[C@H](CO)[C@@H](O)[C@H](O)[C@H]4O)=C3O)C(=O)C2=CC(O)=C1C(O)=O
CH$IUPAC: InChI=1S/C22H20O13/c1-4-8-5(2-6(24)9(4)22(33)34)13(25)10-11(15(8)27)16(28)12(18(30)17(10)29)21-20(32)19(31)14(26)7(3-23)35-21/h2,7,14,19-21,23-24,26,28-32H,3H2,1H3,(H,33,34)/t7-,14-,19+,20-,21+/m1/s1
CH$LINK: CAS 1260-17-9
CH$LINK: CHEBI CHEBI:78310
CH$LINK: PUBCHEM CID:10255083
CH$LINK: INCHIKEY DGQLVPJVXFOQEV-JNVSTXMASA-N
CH$LINK: CHEMSPIDER 8430568
AC$INSTRUMENT: Q Exactive Orbitrap (Thermo Scientific)
AC$INSTRUMENT_TYPE: LC-ESI-QFT
AC$MASS_SPECTROMETRY: MS_TYPE MS2
AC$MASS_SPECTROMETRY: ION_MODE NEGATIVE
AC$MASS_SPECTROMETRY: IONIZATION ESI
AC$MASS_SPECTROMETRY: FRAGMENTATION_MODE HCD
AC$MASS_SPECTROMETRY: COLLISION_ENERGY 30
AC$MASS_SPECTROMETRY: RESOLUTION 17500
AC$CHROMATOGRAPHY: COLUMN_NAME Acquity BEH C18 1.7um, 2.1x150mm (Waters)
AC$CHROMATOGRAPHY: FLOW_GRADIENT 90/10 at 0-2 min, 0/100 at 15-20 min, 90/10 at 20.1-30 min
AC$CHROMATOGRAPHY: FLOW_RATE 0.20 mL/min
AC$CHROMATOGRAPHY: RETENTION_TIME 13.263 min
AC$CHROMATOGRAPHY: SOLVENT A 0.1% formic acid
AC$CHROMATOGRAPHY: SOLVENT B methanol
MS$FOCUSED_ION: BASE_PEAK 112.9857
MS$FOCUSED_ION: PRECURSOR_M/Z 491.0831
MS$FOCUSED_ION: PRECURSOR_TYPE [M-H]-
MS$FOCUSED_ION: PRECURSOR_INTENSITY 309034.8076172
MS$DATA_PROCESSING: RECALIBRATE loess on assigned fragments and MS1
MS$DATA_PROCESSING: REANALYZE Peaks with additional N2/O included
MS$DATA_PROCESSING: WHOLE RMassBank 2.99.2
PK$SPLASH: splash10-0a6s-0029200000-bca1e1f08eb842842ed3
PK$ANNOTATION: m/z tentative_formula formula_count mass error(ppm)
  283.0605 C16H11O5- 1 283.0612 -2.41
  285.0399 C15H9O6- 1 285.0405 -1.81
  298.049 C16H10O6- 1 298.0483 2.53
  299.0559 C16H11O6- 1 299.0561 -0.79
  311.0557 C17H11O6- 1 311.0561 -1.44
  327.0512 C17H11O7- 1 327.051 0.38
  339.0505 C18H11O7- 1 339.051 -1.59
  357.0616 C18H13O8- 1 357.0616 0.14
  447.093 C21H19O11- 1 447.0933 -0.67
  491.0821 C22H19O13- 1 491.0831 -2.16
PK$NUM_PEAK: 10
PK$PEAK: m/z int. rel.int.
  283.0605 2690.2 23
  285.0399 5990.8 52
  298.049 10634.3 93
  299.0559 28743.4 252
  311.0557 2834.4 24
  327.0512 90132.1 791
  339.0505 8299.8 72
  357.0616 113789.5 999
  447.093 47967.6 421
  491.0821 3794.7 33
//
