ACCESSION: MSBNK-LCSB-LU040205
RECORD_TITLE: Buprofezin; LC-ESI-QFT; MS2; CE: 75; R=17500; [M+H]+
DATE: 2020.08.19
AUTHORS: Elapavalore, A.; Kondić, T.; Singh, R.; Schymanski, E.
LICENSE: CC BY
COPYRIGHT: Copyright © 2019 by Environmental Cheminformatics, LCSB, University of Luxembourg, Luxembourg
PUBLICATION: Elapavalore, A.; Kondić, T.; et al., Adding Open Spectral Data to MassBank and PubChem Using Open Source Tools to Support Non-Targeted Exposomics of Mixtures (submitted).
PROJECT: ENTACT U.S. Environmental Protection Agency’s Non-Targeted Analysis Collaborative Trial
COMMENT: CONFIDENCE standard compound
COMMENT: INTERNAL_ID 402
COMMENT: DATASET 20200303_ENTACT_RP_MIX505
COMMENT: DATA_PROCESSING MERGING RMBmix ver. 0.2.7
COMMENT: DATA_PROCESSING PRESCREENING Shinyscreen ver. 0.8.0
COMMENT: ORIGINAL_ACQUISITION_NO 10079
COMMENT: ORIGINAL_PRECURSOR_SCAN_NO 10078
COMMENT: RAW_DATA available as MSV000091754 at [DOI:10.25345/C5S46HG75]
CH$NAME: Buprofezin
CH$NAME: 2-tert-butylimino-5-phenyl-3-propan-2-yl-1,3,5-thiadiazinan-4-one
CH$COMPOUND_CLASS: N/A; Environmental Standard
CH$FORMULA: C16H23N3OS
CH$EXACT_MASS: 305.1562
CH$SMILES: CC(C)N1C(SCN(C1=O)C1=CC=CC=C1)=NC(C)(C)C
CH$IUPAC: InChI=1S/C16H23N3OS/c1-12(2)19-14(17-16(3,4)5)21-11-18(15(19)20)13-9-7-6-8-10-13/h6-10,12H,11H2,1-5H3
CH$LINK: CAS 69327-76-0
CH$LINK: CHEBI CHEBI:3218
CH$LINK: PUBCHEM CID:50367
CH$LINK: INCHIKEY PRLVTUNWOQKEAI-UHFFFAOYSA-N
CH$LINK: CHEMSPIDER 21864735
AC$INSTRUMENT: Q Exactive Orbitrap (Thermo Scientific)
AC$INSTRUMENT_TYPE: LC-ESI-QFT
AC$MASS_SPECTROMETRY: MS_TYPE MS2
AC$MASS_SPECTROMETRY: ION_MODE POSITIVE
AC$MASS_SPECTROMETRY: IONIZATION ESI
AC$MASS_SPECTROMETRY: FRAGMENTATION_MODE HCD
AC$MASS_SPECTROMETRY: COLLISION_ENERGY 75
AC$MASS_SPECTROMETRY: RESOLUTION 17500
AC$CHROMATOGRAPHY: COLUMN_NAME Acquity BEH C18 1.7um, 2.1x150mm (Waters)
AC$CHROMATOGRAPHY: FLOW_GRADIENT 90/10 at 0-2 min, 0/100 at 15-20 min, 90/10 at 20.1-30 min
AC$CHROMATOGRAPHY: FLOW_RATE 0.20 mL/min
AC$CHROMATOGRAPHY: RETENTION_TIME 19.254 min
AC$CHROMATOGRAPHY: SOLVENT A 0.1% formic acid
AC$CHROMATOGRAPHY: SOLVENT B methanol
MS$FOCUSED_ION: BASE_PEAK 79.0212
MS$FOCUSED_ION: PRECURSOR_M/Z 306.1635
MS$FOCUSED_ION: PRECURSOR_TYPE [M+H]+
MS$FOCUSED_ION: PRECURSOR_INTENSITY 52879998.5
MS$DATA_PROCESSING: RECALIBRATE loess on assigned fragments and MS1
MS$DATA_PROCESSING: REANALYZE Peaks with additional N2/O included
MS$DATA_PROCESSING: WHOLE RMassBank 2.99.2
PK$SPLASH: splash10-0a4i-9500000000-b43d140050e160137769
PK$ANNOTATION: m/z tentative_formula formula_count mass error(ppm)
  53.0022 C3HO+ 1 53.0022 0.48
  53.0386 C4H5+ 1 53.0386 0.1
  53.9974 C2NO+ 1 53.9974 0.17
  57.0699 C4H9+ 1 57.0699 0.41
  59.9903 CH2NS+ 1 59.9902 0.23
  77.0385 C6H5+ 1 77.0386 -0.39
  78.0465 C6H6+ 1 78.0464 1.34
  79.0542 C6H7+ 1 79.0542 -0.37
  85.076 C4H9N2+ 1 85.076 -0.15
  85.9695 C2NOS+ 1 85.9695 -0.06
  86.0601 C4H8NO+ 1 86.06 0.31
  95.0492 C6H7O+ 2 95.0491 0.58
  102.0372 C4H8NS+ 1 102.0372 0.03
  102.996 C2H3N2OS+ 1 102.9961 -0.41
  104.0494 C7H6N+ 1 104.0495 -0.85
  105.0448 C6H5N2+ 1 105.0447 0.67
  106.0652 C7H8N+ 1 106.0651 0.46
PK$NUM_PEAK: 17
PK$PEAK: m/z int. rel.int.
  53.0022 87926.9 21
  53.0386 31840.9 7
  53.9974 11718.7 2
  57.0699 4076734.8 999
  59.9903 1638348.5 401
  77.0385 20121.2 4
  78.0465 27625.1 6
  79.0542 198013.1 48
  85.076 17013.4 4
  85.9695 15857.1 3
  86.0601 199651.5 48
  95.0492 79202.4 19
  102.0372 18784.6 4
  102.996 63606 15
  104.0494 8337.1 2
  105.0448 44694.4 10
  106.0652 3552214.2 870
//
