ACCESSION: MSBNK-LCSB-LU123351
RECORD_TITLE: FR130739; LC-ESI-QFT; MS2; CE: 15; R=17500; [M-H]-
DATE: 2020.08.19
AUTHORS: Elapavalore, A.; Kondić, T.; Singh, R.; Schymanski, E.
LICENSE: CC BY
COPYRIGHT: Copyright © 2019 by Environmental Cheminformatics, LCSB, University of Luxembourg, Luxembourg
PUBLICATION: Elapavalore, A.; Kondić, T.; et al., Adding Open Spectral Data to MassBank and PubChem Using Open Source Tools to Support Non-Targeted Exposomics of Mixtures (submitted).
PROJECT: ENTACT U.S. Environmental Protection Agency’s Non-Targeted Analysis Collaborative Trial
COMMENT: CONFIDENCE standard compound
COMMENT: INTERNAL_ID 1233
COMMENT: DATASET 20200303_ENTACT_RP_MIX504
COMMENT: DATA_PROCESSING MERGING RMBmix ver. 0.2.7
COMMENT: DATA_PROCESSING PRESCREENING Shinyscreen ver. 0.8.0
COMMENT: ORIGINAL_ACQUISITION_NO 4181
COMMENT: ORIGINAL_PRECURSOR_SCAN_NO 4177
COMMENT: RAW_DATA available as MSV000091754 at [DOI:10.25345/C5S46HG75]
CH$NAME: FR130739
CH$NAME: FK-739 free acid
CH$NAME: 2-butyl-3-[[4-[2-(2H-tetrazol-5-yl)phenyl]phenyl]methyl]imidazo[4,5-b]pyridine
CH$COMPOUND_CLASS: N/A; Environmental Standard
CH$FORMULA: C24H23N7
CH$EXACT_MASS: 409.2015
CH$SMILES: CCCCC1=NC2=C(N=CC=C2)N1CC1=CC=C(C=C1)C1=CC=CC=C1C1=NN=NN1
CH$IUPAC: InChI=1S/C24H23N7/c1-2-3-10-22-26-21-9-6-15-25-24(21)31(22)16-17-11-13-18(14-12-17)19-7-4-5-8-20(19)23-27-29-30-28-23/h4-9,11-15H,2-3,10,16H2,1H3,(H,27,28,29,30)
CH$LINK: CAS 136042-19-8
CH$LINK: PUBCHEM CID:9801627
CH$LINK: INCHIKEY YILJWHUIUCRKEU-UHFFFAOYSA-N
CH$LINK: CHEMSPIDER 7977389
AC$INSTRUMENT: Q Exactive Orbitrap (Thermo Scientific)
AC$INSTRUMENT_TYPE: LC-ESI-QFT
AC$MASS_SPECTROMETRY: MS_TYPE MS2
AC$MASS_SPECTROMETRY: ION_MODE NEGATIVE
AC$MASS_SPECTROMETRY: IONIZATION ESI
AC$MASS_SPECTROMETRY: FRAGMENTATION_MODE HCD
AC$MASS_SPECTROMETRY: COLLISION_ENERGY 15
AC$MASS_SPECTROMETRY: RESOLUTION 17500
AC$CHROMATOGRAPHY: COLUMN_NAME Acquity BEH C18 1.7um, 2.1x150mm (Waters)
AC$CHROMATOGRAPHY: FLOW_GRADIENT 90/10 at 0-2 min, 0/100 at 15-20 min, 90/10 at 20.1-30 min
AC$CHROMATOGRAPHY: FLOW_RATE 0.20 mL/min
AC$CHROMATOGRAPHY: RETENTION_TIME 16.686 min
AC$CHROMATOGRAPHY: SOLVENT A 0.1% formic acid
AC$CHROMATOGRAPHY: SOLVENT B methanol
MS$FOCUSED_ION: BASE_PEAK 408.1942
MS$FOCUSED_ION: PRECURSOR_M/Z 408.1942
MS$FOCUSED_ION: PRECURSOR_TYPE [M-H]-
MS$FOCUSED_ION: PRECURSOR_INTENSITY 15944836.13379
MS$DATA_PROCESSING: RECALIBRATE loess on assigned fragments and MS1
MS$DATA_PROCESSING: REANALYZE Peaks with additional N2/O included
MS$DATA_PROCESSING: WHOLE RMassBank 2.99.2
PK$SPLASH: splash10-0ab9-0501900000-d4c19dd1e28920c87206
PK$ANNOTATION: m/z tentative_formula formula_count mass error(ppm)
  131.049 C7H5N3- 1 131.0489 0.43
  144.0567 C8H6N3- 1 144.0567 -0.3
  165.071 C13H9- 1 165.071 -0.14
  172.0882 C10H10N3- 1 172.088 1.18
  173.0957 C10H11N3- 1 173.0958 -0.66
  174.1036 C10H12N3- 1 174.1037 -0.55
  177.071 C14H9- 1 177.071 0.23
  179.0865 C14H11- 1 179.0866 -0.93
  186.1039 C11H12N3- 1 186.1037 1.08
  195.0815 C12H9N3- 1 195.0802 6.64
  295.1118 C20H13N3- 1 295.1115 0.87
  309.1275 C21H15N3- 1 309.1271 1.15
  352.1818 C24H22N3- 1 352.1819 -0.48
  380.1881 C24H22N5- 1 380.1881 0.06
  408.1941 C24H22N7- 1 408.1942 -0.23
PK$NUM_PEAK: 15
PK$PEAK: m/z int. rel.int.
  131.049 12559.6 1
  144.0567 231349 31
  165.071 12392.1 1
  172.0882 20321.2 2
  173.0957 62352.5 8
  174.1036 4073626.2 546
  177.071 11368.8 1
  179.0865 10153.4 1
  186.1039 16485.1 2
  195.0815 37475.6 5
  295.1118 9123.6 1
  309.1275 12197.3 1
  352.1818 140414 18
  380.1881 1035182.2 138
  408.1941 7442130 999
//
