ACCESSION: MSBNK-LCSB-LU043001
RECORD_TITLE: Quizalofop-ethyl; LC-ESI-QFT; MS2; CE: 15; R=17500; [M+H]+
DATE: 2020.08.19
AUTHORS: Elapavalore, A.; Kondić, T.; Singh, R.; Schymanski, E.
LICENSE: CC BY
COPYRIGHT: Copyright © 2019 by Environmental Cheminformatics, LCSB, University of Luxembourg, Luxembourg
PUBLICATION: Elapavalore, A.; Kondić, T.; et al., Adding Open Spectral Data to MassBank and PubChem Using Open Source Tools to Support Non-Targeted Exposomics of Mixtures (submitted).
PROJECT: ENTACT U.S. Environmental Protection Agency’s Non-Targeted Analysis Collaborative Trial
COMMENT: CONFIDENCE standard compound
COMMENT: INTERNAL_ID 430
COMMENT: DATASET 20200303_ENTACT_RP_MIX505
COMMENT: DATA_PROCESSING MERGING RMBmix ver. 0.2.7
COMMENT: DATA_PROCESSING PRESCREENING Shinyscreen ver. 0.8.0
COMMENT: ORIGINAL_ACQUISITION_NO 10226
COMMENT: ORIGINAL_PRECURSOR_SCAN_NO 10224
COMMENT: RAW_DATA available as MSV000091754 at [DOI:10.25345/C5S46HG75]
CH$NAME: Quizalofop-ethyl
CH$NAME: ethyl 2-[4-(6-chloroquinoxalin-2-yl)oxyphenoxy]propanoate
CH$COMPOUND_CLASS: N/A; Environmental Standard
CH$FORMULA: C19H17ClN2O4
CH$EXACT_MASS: 372.0877
CH$SMILES: CCOC(=O)C(C)OC1=CC=C(OC2=CN=C3C=C(Cl)C=CC3=N2)C=C1
CH$IUPAC: InChI=1S/C19H17ClN2O4/c1-3-24-19(23)12(2)25-14-5-7-15(8-6-14)26-18-11-21-17-10-13(20)4-9-16(17)22-18/h4-12H,3H2,1-2H3
CH$LINK: CAS 76578-12-6
CH$LINK: CHEBI CHEBI:81807
CH$LINK: KEGG C18530
CH$LINK: PUBCHEM CID:53518
CH$LINK: INCHIKEY OSUHJPCHFDQAIT-UHFFFAOYSA-N
CH$LINK: CHEMSPIDER 48336
AC$INSTRUMENT: Q Exactive Orbitrap (Thermo Scientific)
AC$INSTRUMENT_TYPE: LC-ESI-QFT
AC$MASS_SPECTROMETRY: MS_TYPE MS2
AC$MASS_SPECTROMETRY: ION_MODE POSITIVE
AC$MASS_SPECTROMETRY: IONIZATION ESI
AC$MASS_SPECTROMETRY: FRAGMENTATION_MODE HCD
AC$MASS_SPECTROMETRY: COLLISION_ENERGY 15
AC$MASS_SPECTROMETRY: RESOLUTION 17500
AC$CHROMATOGRAPHY: COLUMN_NAME Acquity BEH C18 1.7um, 2.1x150mm (Waters)
AC$CHROMATOGRAPHY: FLOW_GRADIENT 90/10 at 0-2 min, 0/100 at 15-20 min, 90/10 at 20.1-30 min
AC$CHROMATOGRAPHY: FLOW_RATE 0.20 mL/min
AC$CHROMATOGRAPHY: RETENTION_TIME 19.435 min
AC$CHROMATOGRAPHY: SOLVENT A 0.1% formic acid
AC$CHROMATOGRAPHY: SOLVENT B methanol
MS$FOCUSED_ION: BASE_PEAK 79.0211
MS$FOCUSED_ION: PRECURSOR_M/Z 373.095
MS$FOCUSED_ION: PRECURSOR_TYPE [M+H]+
MS$FOCUSED_ION: PRECURSOR_INTENSITY 12043441.64063
MS$DATA_PROCESSING: RECALIBRATE loess on assigned fragments and MS1
MS$DATA_PROCESSING: REANALYZE Peaks with additional N2/O included
MS$DATA_PROCESSING: WHOLE RMassBank 2.99.2
PK$SPLASH: splash10-00di-0029000000-cc67f1520918c9566126
PK$ANNOTATION: m/z tentative_formula formula_count mass error(ppm)
  163.0068 C8H4ClN2+ 2 163.0058 6.31
  273.0421 C17H7NO3+ 2 273.042 0.16
  285.0416 C18H7NO3+ 2 285.042 -1.59
  299.0582 C16H12ClN2O2+ 2 299.0582 -0.08
  327.0527 C17H12ClN2O3+ 1 327.0531 -1.07
  345.0641 C17H14ClN2O4+ 1 345.0637 1.26
  373.095 C19H18ClN2O4+ 1 373.095 0.13
PK$NUM_PEAK: 7
PK$PEAK: m/z int. rel.int.
  163.0068 7861.3 1
  273.0421 9725.4 1
  285.0416 18276.5 2
  299.0582 1654423 241
  327.0527 17830.2 2
  345.0641 25226.6 3
  373.095 6836112 999
//
