ACCESSION: MSBNK-LCSB-LU097903
RECORD_TITLE: Physostigmine; LC-ESI-QFT; MS2; CE: 45; R=17500; [M+H]+
DATE: 2020.08.19
AUTHORS: Elapavalore, A.; Kondić, T.; Singh, R.; Schymanski, E.
LICENSE: CC BY
COPYRIGHT: Copyright © 2019 by Environmental Cheminformatics, LCSB, University of Luxembourg, Luxembourg
PUBLICATION: Elapavalore, A.; Kondić, T.; et al., Adding Open Spectral Data to MassBank and PubChem Using Open Source Tools to Support Non-Targeted Exposomics of Mixtures (submitted).
PROJECT: ENTACT U.S. Environmental Protection Agency’s Non-Targeted Analysis Collaborative Trial
COMMENT: CONFIDENCE standard compound
COMMENT: INTERNAL_ID 979
COMMENT: DATASET 20200303_ENTACT_RP_MIX502
COMMENT: DATA_PROCESSING MERGING RMBmix ver. 0.2.7
COMMENT: DATA_PROCESSING PRESCREENING Shinyscreen ver. 0.8.0
COMMENT: ORIGINAL_ACQUISITION_NO 5582
COMMENT: ORIGINAL_PRECURSOR_SCAN_NO 5581
COMMENT: RAW_DATA available as MSV000091754 at [DOI:10.25345/C5S46HG75]
CH$NAME: Physostigmine
CH$NAME: [(3aR,8bS)-3,4,8b-trimethyl-2,3a-dihydro-1H-pyrrolo[2,3-b]indol-7-yl] N-methylcarbamate
CH$COMPOUND_CLASS: N/A; Environmental Standard
CH$FORMULA: C15H21N3O2
CH$EXACT_MASS: 275.1634
CH$SMILES: CNC(=O)OC1=CC2=C(C=C1)N(C)[C@H]1N(C)CC[C@@]21C
CH$IUPAC: InChI=1S/C15H21N3O2/c1-15-7-8-17(3)13(15)18(4)12-6-5-10(9-11(12)15)20-14(19)16-2/h5-6,9,13H,7-8H2,1-4H3,(H,16,19)/t13-,15+/m1/s1
CH$LINK: CAS 57-47-6
CH$LINK: CHEBI CHEBI:27953
CH$LINK: KEGG D00196
CH$LINK: PUBCHEM CID:5983
CH$LINK: INCHIKEY PIJVFDBKTWXHHD-HIFRSBDPSA-N
CH$LINK: CHEMSPIDER 5763
AC$INSTRUMENT: Q Exactive Orbitrap (Thermo Scientific)
AC$INSTRUMENT_TYPE: LC-ESI-QFT
AC$MASS_SPECTROMETRY: MS_TYPE MS2
AC$MASS_SPECTROMETRY: ION_MODE POSITIVE
AC$MASS_SPECTROMETRY: IONIZATION ESI
AC$MASS_SPECTROMETRY: FRAGMENTATION_MODE HCD
AC$MASS_SPECTROMETRY: COLLISION_ENERGY 45
AC$MASS_SPECTROMETRY: RESOLUTION 17500
AC$CHROMATOGRAPHY: COLUMN_NAME Acquity BEH C18 1.7um, 2.1x150mm (Waters)
AC$CHROMATOGRAPHY: FLOW_GRADIENT 90/10 at 0-2 min, 0/100 at 15-20 min, 90/10 at 20.1-30 min
AC$CHROMATOGRAPHY: FLOW_RATE 0.20 mL/min
AC$CHROMATOGRAPHY: RETENTION_TIME 10.625 min
AC$CHROMATOGRAPHY: SOLVENT A 0.1% formic acid
AC$CHROMATOGRAPHY: SOLVENT B methanol
MS$FOCUSED_ION: BASE_PEAK 79.0211
MS$FOCUSED_ION: PRECURSOR_M/Z 276.1707
MS$FOCUSED_ION: PRECURSOR_TYPE [M+H]+
MS$FOCUSED_ION: PRECURSOR_INTENSITY 10968940.21875
MS$DATA_PROCESSING: RECALIBRATE loess on assigned fragments and MS1
MS$DATA_PROCESSING: REANALYZE Peaks with additional N2/O included
MS$DATA_PROCESSING: WHOLE RMassBank 2.99.2
PK$SPLASH: splash10-03di-0900000000-8ddc839e71abaa65eaee
PK$ANNOTATION: m/z tentative_formula formula_count mass error(ppm)
  58.0651 C3H8N+ 1 58.0651 -0.06
  134.0963 C9H12N+ 1 134.0964 -0.83
  147.0678 C9H9NO+ 1 147.0679 -0.67
  160.0758 C10H10NO+ 1 160.0757 0.43
  161.0835 C10H11NO+ 1 161.0835 -0.02
  162.0913 C10H12NO+ 1 162.0913 -0.28
  173.0834 C11H11NO+ 1 173.0835 -0.64
  176.107 C11H14NO+ 1 176.107 0.11
  188.107 C12H14NO+ 1 188.107 0.04
  219.1128 C12H15N2O2+ 1 219.1128 0.2
  233.1287 C13H17N2O2+ 1 233.1285 0.94
  245.1285 C14H17N2O2+ 1 245.1285 0.38
PK$NUM_PEAK: 12
PK$PEAK: m/z int. rel.int.
  58.0651 6110.2 3
  134.0963 9998.2 6
  147.0678 52124.8 32
  160.0758 2464.2 1
  161.0835 36212.4 22
  162.0913 1590310.4 999
  173.0834 9513.6 5
  176.107 367957.9 231
  188.107 253543.5 159
  219.1128 34411.2 21
  233.1287 8458.2 5
  245.1285 9988.9 6
//
