ACCESSION: MSBNK-LCSB-LU100754
RECORD_TITLE: Zoalene; LC-ESI-QFT; MS2; CE: 60; R=17500; [M-H]-
DATE: 2020.08.19
AUTHORS: Elapavalore, A.; Kondić, T.; Singh, R.; Schymanski, E.
LICENSE: CC BY
COPYRIGHT: Copyright © 2019 by Environmental Cheminformatics, LCSB, University of Luxembourg, Luxembourg
PUBLICATION: Elapavalore, A.; Kondić, T.; et al., Adding Open Spectral Data to MassBank and PubChem Using Open Source Tools to Support Non-Targeted Exposomics of Mixtures (submitted).
PROJECT: ENTACT U.S. Environmental Protection Agency’s Non-Targeted Analysis Collaborative Trial
COMMENT: CONFIDENCE standard compound
COMMENT: INTERNAL_ID 1007
COMMENT: DATASET 20200303_ENTACT_RP_MIX502
COMMENT: DATA_PROCESSING MERGING RMBmix ver. 0.2.7
COMMENT: DATA_PROCESSING PRESCREENING Shinyscreen ver. 0.8.0
COMMENT: ORIGINAL_ACQUISITION_NO 2937
COMMENT: ORIGINAL_PRECURSOR_SCAN_NO 2935
COMMENT: RAW_DATA available as MSV000091754 at [DOI:10.25345/C5S46HG75]
CH$NAME: Zoalene
CH$NAME: Dinitolmide
CH$NAME: 2-methyl-3,5-dinitrobenzamide
CH$COMPOUND_CLASS: N/A; Environmental Standard
CH$FORMULA: C8H7N3O5
CH$EXACT_MASS: 225.0386
CH$SMILES: CC1=C(C=C(C=C1C(N)=O)[N+]([O-])=O)[N+]([O-])=O
CH$IUPAC: InChI=1S/C8H7N3O5/c1-4-6(8(9)12)2-5(10(13)14)3-7(4)11(15)16/h2-3H,1H3,(H2,9,12)
CH$LINK: CAS 148-01-6
CH$LINK: KEGG D07857
CH$LINK: PUBCHEM CID:3092
CH$LINK: INCHIKEY ZEFNOZRLAWVAQF-UHFFFAOYSA-N
CH$LINK: CHEMSPIDER 2982
AC$INSTRUMENT: Q Exactive Orbitrap (Thermo Scientific)
AC$INSTRUMENT_TYPE: LC-ESI-QFT
AC$MASS_SPECTROMETRY: MS_TYPE MS2
AC$MASS_SPECTROMETRY: ION_MODE NEGATIVE
AC$MASS_SPECTROMETRY: IONIZATION ESI
AC$MASS_SPECTROMETRY: FRAGMENTATION_MODE HCD
AC$MASS_SPECTROMETRY: COLLISION_ENERGY 60
AC$MASS_SPECTROMETRY: RESOLUTION 17500
AC$CHROMATOGRAPHY: COLUMN_NAME Acquity BEH C18 1.7um, 2.1x150mm (Waters)
AC$CHROMATOGRAPHY: FLOW_GRADIENT 90/10 at 0-2 min, 0/100 at 15-20 min, 90/10 at 20.1-30 min
AC$CHROMATOGRAPHY: FLOW_RATE 0.20 mL/min
AC$CHROMATOGRAPHY: RETENTION_TIME 12.504 min
AC$CHROMATOGRAPHY: SOLVENT A 0.1% formic acid
AC$CHROMATOGRAPHY: SOLVENT B methanol
MS$FOCUSED_ION: BASE_PEAK 224.0313
MS$FOCUSED_ION: PRECURSOR_M/Z 224.0313
MS$FOCUSED_ION: PRECURSOR_TYPE [M-H]-
MS$FOCUSED_ION: PRECURSOR_INTENSITY 6653398.711426
MS$DATA_PROCESSING: RECALIBRATE loess on assigned fragments and MS1
MS$DATA_PROCESSING: REANALYZE Peaks with additional N2/O included
MS$DATA_PROCESSING: WHOLE RMassBank 2.99.2
PK$SPLASH: splash10-004i-9100000000-df1c2710fd11e3c1f24a
PK$ANNOTATION: m/z tentative_formula formula_count mass error(ppm)
  72.9931 C2HO3- 1 72.9931 0.07
  77.0397 C6H5- 1 77.0397 0.61
  78.035 C5H4N- 1 78.0349 1.19
  88.0193 C6H2N- 1 88.0193 0.6
  105.0346 C7H5O- 2 105.0346 0.17
  109.0293 C6H5O2- 2 109.0295 -1.95
  121.0294 C7H5O2- 2 121.0295 -1.09
  135.0202 C6H3N2O2- 1 135.02 1.69
  166.0143 C7H4NO4- 1 166.0146 -1.63
PK$NUM_PEAK: 9
PK$PEAK: m/z int. rel.int.
  72.9931 2685.4 12
  77.0397 214906.1 999
  78.035 3970.2 18
  88.0193 2528.4 11
  105.0346 17692 82
  109.0293 1731.9 8
  121.0294 1745.1 8
  135.0202 10583.5 49
  166.0143 9940 46
//
