ACCESSION: MSBNK-LCSB-LU137602
RECORD_TITLE: PharmaGSID_47259; LC-ESI-QFT; MS2; CE: 30; R=17500; [M+H]+
DATE: 2020.08.19
AUTHORS: Elapavalore, A.; Kondić, T.; Singh, R.; Schymanski, E.
LICENSE: CC BY
COPYRIGHT: Copyright © 2019 by Environmental Cheminformatics, LCSB, University of Luxembourg, Luxembourg
PUBLICATION: Elapavalore, A.; Kondić, T.; et al., Adding Open Spectral Data to MassBank and PubChem Using Open Source Tools to Support Non-Targeted Exposomics of Mixtures (submitted).
PROJECT: ENTACT U.S. Environmental Protection Agency’s Non-Targeted Analysis Collaborative Trial
COMMENT: CONFIDENCE standard compound
COMMENT: INTERNAL_ID 1376
COMMENT: DATASET 20200303_ENTACT_RP_MIX504
COMMENT: DATA_PROCESSING MERGING RMBmix ver. 0.2.7
COMMENT: DATA_PROCESSING PRESCREENING Shinyscreen ver. 0.8.0
COMMENT: ORIGINAL_ACQUISITION_NO 7091
COMMENT: ORIGINAL_PRECURSOR_SCAN_NO 7088
COMMENT: RAW_DATA available as MSV000091754 at [DOI:10.25345/C5S46HG75]
CH$NAME: PharmaGSID_47259
CH$NAME: 1,3-Dichloro-6,7,8,9,10,12-hexahydroazepino(2,1-b)quinazoline
CH$NAME: 1,3-dichloro-6,7,8,9,10,12-hexahydroazepino[2,1-b]quinazoline
CH$COMPOUND_CLASS: N/A; Environmental Standard
CH$FORMULA: C13H14Cl2N2
CH$EXACT_MASS: 268.0534
CH$SMILES: ClC1=CC2=C(CN3CCCCCC3=N2)C(Cl)=C1
CH$IUPAC: InChI=1S/C13H14Cl2N2/c14-9-6-11(15)10-8-17-5-3-1-2-4-13(17)16-12(10)7-9/h6-7H,1-5,8H2
CH$LINK: CAS 149028-28-4
CH$LINK: PUBCHEM CID:9838284
CH$LINK: INCHIKEY WTPSHLVHJOJDIF-UHFFFAOYSA-N
CH$LINK: CHEMSPIDER 8014004
AC$INSTRUMENT: Q Exactive Orbitrap (Thermo Scientific)
AC$INSTRUMENT_TYPE: LC-ESI-QFT
AC$MASS_SPECTROMETRY: MS_TYPE MS2
AC$MASS_SPECTROMETRY: ION_MODE POSITIVE
AC$MASS_SPECTROMETRY: IONIZATION ESI
AC$MASS_SPECTROMETRY: FRAGMENTATION_MODE HCD
AC$MASS_SPECTROMETRY: COLLISION_ENERGY 30
AC$MASS_SPECTROMETRY: RESOLUTION 17500
AC$CHROMATOGRAPHY: COLUMN_NAME Acquity BEH C18 1.7um, 2.1x150mm (Waters)
AC$CHROMATOGRAPHY: FLOW_GRADIENT 90/10 at 0-2 min, 0/100 at 15-20 min, 90/10 at 20.1-30 min
AC$CHROMATOGRAPHY: FLOW_RATE 0.20 mL/min
AC$CHROMATOGRAPHY: RETENTION_TIME 13.543 min
AC$CHROMATOGRAPHY: SOLVENT A 0.1% formic acid
AC$CHROMATOGRAPHY: SOLVENT B methanol
MS$FOCUSED_ION: BASE_PEAK 79.0211
MS$FOCUSED_ION: PRECURSOR_M/Z 269.0607
MS$FOCUSED_ION: PRECURSOR_TYPE [M+H]+
MS$FOCUSED_ION: PRECURSOR_INTENSITY 24709115.84375
MS$DATA_PROCESSING: RECALIBRATE loess on assigned fragments and MS1
MS$DATA_PROCESSING: REANALYZE Peaks with additional N2/O included
MS$DATA_PROCESSING: WHOLE RMassBank 2.99.2
PK$SPLASH: splash10-014i-0090000000-b7b9294f33dbddff1c19
PK$ANNOTATION: m/z tentative_formula formula_count mass error(ppm)
  134.0964 C9H12N+ 1 134.0964 0.11
  148.0757 C6H13ClN2+ 1 148.0762 -3.49
  234.0903 C13H15ClN2+ 1 234.0918 -6.35
  269.0603 C13H15Cl2N2+ 1 269.0607 -1.3
PK$NUM_PEAK: 4
PK$PEAK: m/z int. rel.int.
  134.0964 38745 1
  148.0757 54679.6 2
  234.0903 24842.2 1
  269.0603 22169274 999
//
