ACCESSION: MSBNK-LCSB-LU120101
RECORD_TITLE: Thiabendazole; LC-ESI-QFT; MS2; CE: 15; R=17500; [M+H]+
DATE: 2020.08.19
AUTHORS: Elapavalore, A.; Kondić, T.; Singh, R.; Schymanski, E.
LICENSE: CC BY
COPYRIGHT: Copyright © 2019 by Environmental Cheminformatics, LCSB, University of Luxembourg, Luxembourg
PUBLICATION: Elapavalore, A.; Kondić, T.; et al., Adding Open Spectral Data to MassBank and PubChem Using Open Source Tools to Support Non-Targeted Exposomics of Mixtures (submitted).
PROJECT: ENTACT U.S. Environmental Protection Agency’s Non-Targeted Analysis Collaborative Trial
COMMENT: CONFIDENCE standard compound
COMMENT: INTERNAL_ID 1201
COMMENT: DATASET 20200303_ENTACT_RP_MIX504
COMMENT: DATA_PROCESSING MERGING RMBmix ver. 0.2.7
COMMENT: DATA_PROCESSING PRESCREENING Shinyscreen ver. 0.8.0
COMMENT: ORIGINAL_ACQUISITION_NO 5856
COMMENT: ORIGINAL_PRECURSOR_SCAN_NO 5854
COMMENT: RAW_DATA available as MSV000091754 at [DOI:10.25345/C5S46HG75]
CH$NAME: Thiabendazole
CH$NAME: 4-(1H-benzimidazol-2-yl)-1,3-thiazole
CH$COMPOUND_CLASS: N/A; Environmental Standard
CH$FORMULA: C10H7N3S
CH$EXACT_MASS: 201.0361
CH$SMILES: N1C2=C(C=CC=C2)N=C1C1=CSC=N1
CH$IUPAC: InChI=1S/C10H7N3S/c1-2-4-8-7(3-1)12-10(13-8)9-5-14-6-11-9/h1-6H,(H,12,13)
CH$LINK: CAS 945-65-3
CH$LINK: CHEBI CHEBI:45979
CH$LINK: KEGG C07131
CH$LINK: PUBCHEM CID:5430
CH$LINK: INCHIKEY WJCNZQLZVWNLKY-UHFFFAOYSA-N
CH$LINK: CHEMSPIDER 5237
AC$INSTRUMENT: Q Exactive Orbitrap (Thermo Scientific)
AC$INSTRUMENT_TYPE: LC-ESI-QFT
AC$MASS_SPECTROMETRY: MS_TYPE MS2
AC$MASS_SPECTROMETRY: ION_MODE POSITIVE
AC$MASS_SPECTROMETRY: IONIZATION ESI
AC$MASS_SPECTROMETRY: FRAGMENTATION_MODE HCD
AC$MASS_SPECTROMETRY: COLLISION_ENERGY 15
AC$MASS_SPECTROMETRY: RESOLUTION 17500
AC$CHROMATOGRAPHY: COLUMN_NAME Acquity BEH C18 1.7um, 2.1x150mm (Waters)
AC$CHROMATOGRAPHY: FLOW_GRADIENT 90/10 at 0-2 min, 0/100 at 15-20 min, 90/10 at 20.1-30 min
AC$CHROMATOGRAPHY: FLOW_RATE 0.20 mL/min
AC$CHROMATOGRAPHY: RETENTION_TIME 11.145 min
AC$CHROMATOGRAPHY: SOLVENT A 0.1% formic acid
AC$CHROMATOGRAPHY: SOLVENT B methanol
MS$FOCUSED_ION: BASE_PEAK 79.0212
MS$FOCUSED_ION: PRECURSOR_M/Z 202.0433
MS$FOCUSED_ION: PRECURSOR_TYPE [M+H]+
MS$FOCUSED_ION: PRECURSOR_INTENSITY 29415160
MS$DATA_PROCESSING: RECALIBRATE loess on assigned fragments and MS1
MS$DATA_PROCESSING: REANALYZE Peaks with additional N2/O included
MS$DATA_PROCESSING: WHOLE RMassBank 2.99.2
PK$SPLASH: splash10-0udi-0090000000-f5d31b73f429e4b39614
PK$ANNOTATION: m/z tentative_formula formula_count mass error(ppm)
  175.0316 C9H7N2S+ 1 175.0324 -5.1
  201.0354 C10H7N3S+ 1 201.0355 -0.46
  202.0433 C10H8N3S+ 1 202.0433 -0.21
PK$NUM_PEAK: 3
PK$PEAK: m/z int. rel.int.
  175.0316 33555 1
  201.0354 33991.5 1
  202.0433 32967880 999
//
