ACCESSION: MSBNK-LCSB-LU036151
RECORD_TITLE: CP-671305; LC-ESI-QFT; MS2; CE: 15; R=17500; [M-H]-
DATE: 2020.08.19
AUTHORS: Elapavalore, A.; Kondić, T.; Singh, R.; Schymanski, E.
LICENSE: CC BY
COPYRIGHT: Copyright © 2019 by Environmental Cheminformatics, LCSB, University of Luxembourg, Luxembourg
PUBLICATION: Elapavalore, A.; Kondić, T.; et al., Adding Open Spectral Data to MassBank and PubChem Using Open Source Tools to Support Non-Targeted Exposomics of Mixtures (submitted).
PROJECT: ENTACT U.S. Environmental Protection Agency’s Non-Targeted Analysis Collaborative Trial
COMMENT: CONFIDENCE standard compound
COMMENT: INTERNAL_ID 361
COMMENT: DATASET 20200303_ENTACT_RP_MIX505
COMMENT: DATA_PROCESSING MERGING RMBmix ver. 0.2.7
COMMENT: DATA_PROCESSING PRESCREENING Shinyscreen ver. 0.8.0
COMMENT: ORIGINAL_ACQUISITION_NO 4421
COMMENT: ORIGINAL_PRECURSOR_SCAN_NO 4416
COMMENT: RAW_DATA available as MSV000091754 at [DOI:10.25345/C5S46HG75]
CH$NAME: CP-671305
CH$NAME: (2R)-2-[4-[[[2-(1,3-benzodioxol-5-yloxy)pyridine-3-carbonyl]amino]methyl]-3-fluorophenoxy]propanoic acid
CH$COMPOUND_CLASS: N/A; Environmental Standard
CH$FORMULA: C23H19FN2O7
CH$EXACT_MASS: 454.1176
CH$SMILES: C[C@@H](OC1=CC=C(CNC(=O)C2=CC=CN=C2OC2=CC=C3OCOC3=C2)C(F)=C1)C(O)=O
CH$IUPAC: InChI=1S/C23H19FN2O7/c1-13(23(28)29)32-15-5-4-14(18(24)9-15)11-26-21(27)17-3-2-8-25-22(17)33-16-6-7-19-20(10-16)31-12-30-19/h2-10,13H,11-12H2,1H3,(H,26,27)(H,28,29)/t13-/m1/s1
CH$LINK: PUBCHEM CID:9955578
CH$LINK: INCHIKEY CNIGFESSDPOCKS-CYBMUJFWSA-N
CH$LINK: CHEMSPIDER 8131188
AC$INSTRUMENT: Q Exactive Orbitrap (Thermo Scientific)
AC$INSTRUMENT_TYPE: LC-ESI-QFT
AC$MASS_SPECTROMETRY: MS_TYPE MS2
AC$MASS_SPECTROMETRY: ION_MODE NEGATIVE
AC$MASS_SPECTROMETRY: IONIZATION ESI
AC$MASS_SPECTROMETRY: FRAGMENTATION_MODE HCD
AC$MASS_SPECTROMETRY: COLLISION_ENERGY 15
AC$MASS_SPECTROMETRY: RESOLUTION 17500
AC$CHROMATOGRAPHY: COLUMN_NAME Acquity BEH C18 1.7um, 2.1x150mm (Waters)
AC$CHROMATOGRAPHY: FLOW_GRADIENT 90/10 at 0-2 min, 0/100 at 15-20 min, 90/10 at 20.1-30 min
AC$CHROMATOGRAPHY: FLOW_RATE 0.20 mL/min
AC$CHROMATOGRAPHY: RETENTION_TIME 16.733 min
AC$CHROMATOGRAPHY: SOLVENT A 0.1% formic acid
AC$CHROMATOGRAPHY: SOLVENT B methanol
MS$FOCUSED_ION: BASE_PEAK 316.055
MS$FOCUSED_ION: PRECURSOR_M/Z 453.1104
MS$FOCUSED_ION: PRECURSOR_TYPE [M-H]-
MS$FOCUSED_ION: PRECURSOR_INTENSITY 14493783.80078
MS$DATA_PROCESSING: RECALIBRATE loess on assigned fragments and MS1
MS$DATA_PROCESSING: REANALYZE Peaks with additional N2/O included
MS$DATA_PROCESSING: WHOLE RMassBank 2.99.2
PK$SPLASH: splash10-0a59-0097000000-8f713c82f4b0a2cb97d4
PK$ANNOTATION: m/z tentative_formula formula_count mass error(ppm)
  71.0139 C3H3O2- 1 71.0139 0.47
  94.0302 C5H4NO- 2 94.0298 3.57
  229.0621 C12H9N2O3- 4 229.0619 0.92
  257.0568 C13H9N2O4- 3 257.0568 0.23
  299.0673 C15H11N2O5- 3 299.0673 -0.06
  317.0581 C15H10FN2O5- 5 317.0579 0.68
  381.0893 C20H14FN2O5- 3 381.0892 0.23
PK$NUM_PEAK: 7
PK$PEAK: m/z int. rel.int.
  71.0139 34694.9 6
  94.0302 6615.1 1
  229.0621 7663.6 1
  257.0568 5180910 999
  299.0673 234417 45
  317.0581 13057.7 2
  381.0893 4759407.5 917
//
