ACCESSION: MSBNK-LCSB-LU127402
RECORD_TITLE: Amiprofos-methyl; LC-ESI-QFT; MS2; CE: 30; R=17500; [M+H]+
DATE: 2020.08.19
AUTHORS: Elapavalore, A.; Kondić, T.; Singh, R.; Schymanski, E.
LICENSE: CC BY
COPYRIGHT: Copyright © 2019 by Environmental Cheminformatics, LCSB, University of Luxembourg, Luxembourg
PUBLICATION: Elapavalore, A.; Kondić, T.; et al., Adding Open Spectral Data to MassBank and PubChem Using Open Source Tools to Support Non-Targeted Exposomics of Mixtures (submitted).
PROJECT: ENTACT U.S. Environmental Protection Agency’s Non-Targeted Analysis Collaborative Trial
COMMENT: CONFIDENCE standard compound
COMMENT: INTERNAL_ID 1274
COMMENT: DATASET 20200303_ENTACT_RP_MIX504
COMMENT: DATA_PROCESSING MERGING RMBmix ver. 0.2.7
COMMENT: DATA_PROCESSING PRESCREENING Shinyscreen ver. 0.8.0
COMMENT: ORIGINAL_ACQUISITION_NO 9378
COMMENT: ORIGINAL_PRECURSOR_SCAN_NO 9374
COMMENT: RAW_DATA available as MSV000091754 at [DOI:10.25345/C5S46HG75]
CH$NAME: Amiprofos-methyl
CH$NAME: N-[methoxy-(4-methyl-2-nitrophenoxy)phosphinothioyl]propan-2-amine
CH$COMPOUND_CLASS: N/A; Environmental Standard
CH$FORMULA: C11H17N2O4PS
CH$EXACT_MASS: 304.0647
CH$SMILES: COP(=S)(NC(C)C)OC1=C(C=C(C)C=C1)[N+]([O-])=O
CH$IUPAC: InChI=1S/C11H17N2O4PS/c1-8(2)12-18(19,16-4)17-11-6-5-9(3)7-10(11)13(14)15/h5-8H,1-4H3,(H,12,19)
CH$LINK: CAS 55840-20-5
CH$LINK: PUBCHEM CID:100524
CH$LINK: INCHIKEY VHEWQRWLIDWRMR-UHFFFAOYSA-N
CH$LINK: CHEMSPIDER 90823
AC$INSTRUMENT: Q Exactive Orbitrap (Thermo Scientific)
AC$INSTRUMENT_TYPE: LC-ESI-QFT
AC$MASS_SPECTROMETRY: MS_TYPE MS2
AC$MASS_SPECTROMETRY: ION_MODE POSITIVE
AC$MASS_SPECTROMETRY: IONIZATION ESI
AC$MASS_SPECTROMETRY: FRAGMENTATION_MODE HCD
AC$MASS_SPECTROMETRY: COLLISION_ENERGY 30
AC$MASS_SPECTROMETRY: RESOLUTION 17500
AC$CHROMATOGRAPHY: COLUMN_NAME Acquity BEH C18 1.7um, 2.1x150mm (Waters)
AC$CHROMATOGRAPHY: FLOW_GRADIENT 90/10 at 0-2 min, 0/100 at 15-20 min, 90/10 at 20.1-30 min
AC$CHROMATOGRAPHY: FLOW_RATE 0.20 mL/min
AC$CHROMATOGRAPHY: RETENTION_TIME 17.986 min
AC$CHROMATOGRAPHY: SOLVENT A 0.1% formic acid
AC$CHROMATOGRAPHY: SOLVENT B methanol
MS$FOCUSED_ION: BASE_PEAK 79.0211
MS$FOCUSED_ION: PRECURSOR_M/Z 305.0719
MS$FOCUSED_ION: PRECURSOR_TYPE [M+H]+
MS$FOCUSED_ION: PRECURSOR_INTENSITY 1651569.75
MS$DATA_PROCESSING: RECALIBRATE loess on assigned fragments and MS1
MS$DATA_PROCESSING: REANALYZE Peaks with additional N2/O included
MS$DATA_PROCESSING: WHOLE RMassBank 2.99.2
PK$SPLASH: splash10-0f6x-9700000000-9017f1451adfd353dd75
PK$ANNOTATION: m/z tentative_formula formula_count mass error(ppm)
  90.9764 C2H4PS+ 1 90.9766 -1.86
  152.0295 C4H11NOPS+ 2 152.0293 0.72
PK$NUM_PEAK: 2
PK$PEAK: m/z int. rel.int.
  90.9764 2801 999
  152.0295 2282 813
//
