ACCESSION: MSBNK-LCSB-LU131406
RECORD_TITLE: Dihexyl phthalate; LC-ESI-QFT; MS2; CE: 90; R=17500; [M+H]+
DATE: 2020.08.19
AUTHORS: Elapavalore, A.; Kondić, T.; Singh, R.; Schymanski, E.
LICENSE: CC BY
COPYRIGHT: Copyright © 2019 by Environmental Cheminformatics, LCSB, University of Luxembourg, Luxembourg
PUBLICATION: Elapavalore, A.; Kondić, T.; et al., Adding Open Spectral Data to MassBank and PubChem Using Open Source Tools to Support Non-Targeted Exposomics of Mixtures (submitted).
PROJECT: ENTACT U.S. Environmental Protection Agency’s Non-Targeted Analysis Collaborative Trial
COMMENT: CONFIDENCE standard compound
COMMENT: INTERNAL_ID 1314
COMMENT: DATASET 20200303_ENTACT_RP_MIX504
COMMENT: DATA_PROCESSING MERGING RMBmix ver. 0.2.7
COMMENT: DATA_PROCESSING PRESCREENING Shinyscreen ver. 0.8.0
COMMENT: ORIGINAL_ACQUISITION_NO 10870
COMMENT: ORIGINAL_PRECURSOR_SCAN_NO 10868
COMMENT: RAW_DATA available as MSV000091754 at [DOI:10.25345/C5S46HG75]
CH$NAME: Dihexyl phthalate
CH$NAME: dihexyl benzene-1,2-dicarboxylate
CH$COMPOUND_CLASS: N/A; Environmental Standard
CH$FORMULA: C20H30O4
CH$EXACT_MASS: 334.2144
CH$SMILES: CCCCCCOC(=O)C1=C(C=CC=C1)C(=O)OCCCCCC
CH$IUPAC: InChI=1S/C20H30O4/c1-3-5-7-11-15-23-19(21)17-13-9-10-14-18(17)20(22)24-16-12-8-6-4-2/h9-10,13-14H,3-8,11-12,15-16H2,1-2H3
CH$LINK: CAS 84-75-3
CH$LINK: CHEBI CHEBI:34678
CH$LINK: KEGG C14504
CH$LINK: PUBCHEM CID:6786
CH$LINK: INCHIKEY KCXZNSGUUQJJTR-UHFFFAOYSA-N
CH$LINK: CHEMSPIDER 6528
AC$INSTRUMENT: Q Exactive Orbitrap (Thermo Scientific)
AC$INSTRUMENT_TYPE: LC-ESI-QFT
AC$MASS_SPECTROMETRY: MS_TYPE MS2
AC$MASS_SPECTROMETRY: ION_MODE POSITIVE
AC$MASS_SPECTROMETRY: IONIZATION ESI
AC$MASS_SPECTROMETRY: FRAGMENTATION_MODE HCD
AC$MASS_SPECTROMETRY: COLLISION_ENERGY 90
AC$MASS_SPECTROMETRY: RESOLUTION 17500
AC$CHROMATOGRAPHY: COLUMN_NAME Acquity BEH C18 1.7um, 2.1x150mm (Waters)
AC$CHROMATOGRAPHY: FLOW_GRADIENT 90/10 at 0-2 min, 0/100 at 15-20 min, 90/10 at 20.1-30 min
AC$CHROMATOGRAPHY: FLOW_RATE 0.20 mL/min
AC$CHROMATOGRAPHY: RETENTION_TIME 20.894 min
AC$CHROMATOGRAPHY: SOLVENT A 0.1% formic acid
AC$CHROMATOGRAPHY: SOLVENT B methanol
MS$FOCUSED_ION: BASE_PEAK 79.0212
MS$FOCUSED_ION: PRECURSOR_M/Z 335.2217
MS$FOCUSED_ION: PRECURSOR_TYPE [M+H]+
MS$FOCUSED_ION: PRECURSOR_INTENSITY 5150418.25
MS$DATA_PROCESSING: RECALIBRATE loess on assigned fragments and MS1
MS$DATA_PROCESSING: REANALYZE Peaks with additional N2/O included
MS$DATA_PROCESSING: WHOLE RMassBank 2.99.2
PK$SPLASH: splash10-01b9-7900000000-4c14e15fa86aeb68fd45
PK$ANNOTATION: m/z tentative_formula formula_count mass error(ppm)
  65.0386 C5H5+ 1 65.0386 0.72
  93.0337 C6H5O+ 1 93.0335 1.86
  111.0441 C6H7O2+ 1 111.0441 0.78
  121.0284 C7H5O2+ 1 121.0284 -0.28
  149.0235 C8H5O3+ 1 149.0233 1.14
PK$NUM_PEAK: 5
PK$PEAK: m/z int. rel.int.
  65.0386 21695.7 999
  93.0337 3142.4 144
  111.0441 4294.4 197
  121.0284 13428.9 618
  149.0235 10411.4 479
//
