ACCESSION: MSBNK-LCSB-LU019401
RECORD_TITLE: 4-Methylphthalic anhydride; LC-ESI-QFT; MS2; CE: 15; R=17500; [M+H]+
DATE: 2020.08.19
AUTHORS: Elapavalore, A.; Kondić, T.; Singh, R.; Schymanski, E.
LICENSE: CC BY
COPYRIGHT: Copyright © 2019 by Environmental Cheminformatics, LCSB, University of Luxembourg, Luxembourg
PUBLICATION: Elapavalore, A.; Kondić, T.; et al., Adding Open Spectral Data to MassBank and PubChem Using Open Source Tools to Support Non-Targeted Exposomics of Mixtures (submitted).
PROJECT: ENTACT U.S. Environmental Protection Agency’s Non-Targeted Analysis Collaborative Trial
COMMENT: CONFIDENCE standard compound
COMMENT: INTERNAL_ID 194
COMMENT: DATASET 20200303_ENTACT_RP_MIX501
COMMENT: DATA_PROCESSING MERGING RMBmix ver. 0.2.7
COMMENT: DATA_PROCESSING PRESCREENING Shinyscreen ver. 0.8.0
COMMENT: ORIGINAL_ACQUISITION_NO 8626
COMMENT: ORIGINAL_PRECURSOR_SCAN_NO 8622
COMMENT: RAW_DATA available as MSV000091754 at [DOI:10.25345/C5S46HG75]
CH$NAME: 4-Methylphthalic anhydride
CH$NAME: 5-methyl-2-benzofuran-1,3-dione
CH$COMPOUND_CLASS: N/A; Environmental Standard
CH$FORMULA: C9H6O3
CH$EXACT_MASS: 162.0317
CH$SMILES: CC1=CC2=C(C=C1)C(=O)OC2=O
CH$IUPAC: InChI=1S/C9H6O3/c1-5-2-3-6-7(4-5)9(11)12-8(6)10/h2-4H,1H3
CH$LINK: CAS 1938-61-0
CH$LINK: PUBCHEM CID:88069
CH$LINK: INCHIKEY ZOXBWJMCXHTKNU-UHFFFAOYSA-N
CH$LINK: CHEMSPIDER 79454
AC$INSTRUMENT: Q Exactive Orbitrap (Thermo Scientific)
AC$INSTRUMENT_TYPE: LC-ESI-QFT
AC$MASS_SPECTROMETRY: MS_TYPE MS2
AC$MASS_SPECTROMETRY: ION_MODE POSITIVE
AC$MASS_SPECTROMETRY: IONIZATION ESI
AC$MASS_SPECTROMETRY: FRAGMENTATION_MODE HCD
AC$MASS_SPECTROMETRY: COLLISION_ENERGY 15
AC$MASS_SPECTROMETRY: RESOLUTION 17500
AC$CHROMATOGRAPHY: COLUMN_NAME Acquity BEH C18 1.7um, 2.1x150mm (Waters)
AC$CHROMATOGRAPHY: FLOW_GRADIENT 90/10 at 0-2 min, 0/100 at 15-20 min, 90/10 at 20.1-30 min
AC$CHROMATOGRAPHY: FLOW_RATE 0.20 mL/min
AC$CHROMATOGRAPHY: RETENTION_TIME 16.611 min
AC$CHROMATOGRAPHY: SOLVENT A 0.1% formic acid
AC$CHROMATOGRAPHY: SOLVENT B methanol
MS$FOCUSED_ION: BASE_PEAK 79.0212
MS$FOCUSED_ION: PRECURSOR_M/Z 163.039
MS$FOCUSED_ION: PRECURSOR_TYPE [M+H]+
MS$FOCUSED_ION: PRECURSOR_INTENSITY 2017065
MS$DATA_PROCESSING: RECALIBRATE loess on assigned fragments and MS1
MS$DATA_PROCESSING: REANALYZE Peaks with additional N2/O included
MS$DATA_PROCESSING: WHOLE RMassBank 2.99.2
PK$SPLASH: splash10-03di-0900000000-8a410938a6509d2b8183
PK$ANNOTATION: m/z tentative_formula formula_count mass error(ppm)
  53.0386 C4H5+ 1 53.0386 -0.43
  77.0387 C6H5+ 1 77.0386 1.53
  79.0542 C6H7+ 1 79.0542 -0.19
  92.0256 C6H4O+ 1 92.0257 -1.14
  95.0492 C6H7O+ 1 95.0491 0.89
  105.0335 C7H5O+ 1 105.0335 0.15
  107.049 C7H7O+ 1 107.0491 -1.05
  133.0284 C8H5O2+ 1 133.0284 0.27
  135.0441 C8H7O2+ 1 135.0441 -0.02
  163.039 C9H7O3+ 1 163.039 0.07
PK$NUM_PEAK: 10
PK$PEAK: m/z int. rel.int.
  53.0386 6603.4 2
  77.0387 6125.7 1
  79.0542 15221.4 4
  92.0256 4254 1
  95.0492 19375.4 6
  105.0335 65188.4 20
  107.049 4710.8 1
  133.0284 205671 65
  135.0441 156669 50
  163.039 3128898.2 999
//
