ACCESSION: MSBNK-LCSB-LU106705
RECORD_TITLE: 2-Aminobenzimidazole; LC-ESI-QFT; MS2; CE: 75; R=17500; [M+H]+
DATE: 2020.08.19
AUTHORS: Elapavalore, A.; Kondić, T.; Singh, R.; Schymanski, E.
LICENSE: CC BY
COPYRIGHT: Copyright © 2019 by Environmental Cheminformatics, LCSB, University of Luxembourg, Luxembourg
PUBLICATION: Elapavalore, A.; Kondić, T.; et al., Adding Open Spectral Data to MassBank and PubChem Using Open Source Tools to Support Non-Targeted Exposomics of Mixtures (submitted).
PROJECT: ENTACT U.S. Environmental Protection Agency’s Non-Targeted Analysis Collaborative Trial
COMMENT: CONFIDENCE standard compound
COMMENT: INTERNAL_ID 1067
COMMENT: DATASET 20200303_ENTACT_RP_MIX508
COMMENT: DATA_PROCESSING MERGING RMBmix ver. 0.2.7
COMMENT: DATA_PROCESSING PRESCREENING Shinyscreen ver. 0.8.0
COMMENT: ORIGINAL_ACQUISITION_NO 4534
COMMENT: ORIGINAL_PRECURSOR_SCAN_NO 4533
COMMENT: RAW_DATA available as MSV000091754 at [DOI:10.25345/C5S46HG75]
CH$NAME: 2-Aminobenzimidazole
CH$COMPOUND_CLASS: N/A; Environmental Standard
CH$FORMULA: C7H7N3
CH$EXACT_MASS: 133.0640
CH$SMILES: NC1=NC2=CC=CC=C2N1
CH$IUPAC: InChI=1S/C7H7N3/c8-7-9-5-3-1-2-4-6(5)10-7/h1-4H,(H3,8,9,10)
CH$LINK: CAS 934-32-7
CH$LINK: CHEBI CHEBI:27822
CH$LINK: KEGG C10901
CH$LINK: PUBCHEM CID:13624
CH$LINK: INCHIKEY JWYUFVNJZUSCSM-UHFFFAOYSA-N
CH$LINK: CHEMSPIDER 13035
AC$INSTRUMENT: Q Exactive Orbitrap (Thermo Scientific)
AC$INSTRUMENT_TYPE: LC-ESI-QFT
AC$MASS_SPECTROMETRY: MS_TYPE MS2
AC$MASS_SPECTROMETRY: ION_MODE POSITIVE
AC$MASS_SPECTROMETRY: IONIZATION ESI
AC$MASS_SPECTROMETRY: FRAGMENTATION_MODE HCD
AC$MASS_SPECTROMETRY: COLLISION_ENERGY 75
AC$MASS_SPECTROMETRY: RESOLUTION 17500
AC$CHROMATOGRAPHY: COLUMN_NAME Acquity BEH C18 1.7um, 2.1x150mm (Waters)
AC$CHROMATOGRAPHY: FLOW_GRADIENT 90/10 at 0-2 min, 0/100 at 15-20 min, 90/10 at 20.1-30 min
AC$CHROMATOGRAPHY: FLOW_RATE 0.20 mL/min
AC$CHROMATOGRAPHY: RETENTION_TIME 8.666 min
AC$CHROMATOGRAPHY: SOLVENT A 0.1% formic acid
AC$CHROMATOGRAPHY: SOLVENT B methanol
MS$FOCUSED_ION: BASE_PEAK 79.0212
MS$FOCUSED_ION: PRECURSOR_M/Z 134.0713
MS$FOCUSED_ION: PRECURSOR_TYPE [M+H]+
MS$FOCUSED_ION: PRECURSOR_INTENSITY 31396272.53125
MS$DATA_PROCESSING: RECALIBRATE loess on assigned fragments and MS1
MS$DATA_PROCESSING: REANALYZE Peaks with additional N2/O included
MS$DATA_PROCESSING: WHOLE RMassBank 2.99.2
PK$SPLASH: splash10-001i-4900000000-41c40fd058a4be06faa5
PK$ANNOTATION: m/z tentative_formula formula_count mass error(ppm)
  65.0385 C5H5+ 1 65.0386 -0.8
  80.0494 C5H6N+ 1 80.0495 -0.75
  90.0337 C6H4N+ 1 90.0338 -0.87
  92.0494 C6H6N+ 1 92.0495 -0.48
  93.0573 C6H7N+ 1 93.0573 -0.46
  107.0603 C6H7N2+ 1 107.0604 -0.46
  117.0447 C7H5N2+ 1 117.0447 -0.01
  133.0636 C7H7N3+ 1 133.0634 0.96
  134.0712 C7H8N3+ 1 134.0713 -0.85
PK$NUM_PEAK: 9
PK$PEAK: m/z int. rel.int.
  65.0385 1014459.1 67
  80.0494 258088.7 17
  90.0337 18801.8 1
  92.0494 5111750.5 339
  93.0573 997403.2 66
  107.0603 961901.1 63
  117.0447 112005 7
  133.0636 191807.9 12
  134.0712 15057924 999
//
