ACCESSION: MSBNK-LCSB-LU021453
RECORD_TITLE: 4-Hydroxyacetophenone; LC-ESI-QFT; MS2; CE: 45; R=17500; [M-H]-
DATE: 2020.08.19
AUTHORS: Elapavalore, A.; Kondić, T.; Singh, R.; Schymanski, E.
LICENSE: CC BY
COPYRIGHT: Copyright © 2019 by Environmental Cheminformatics, LCSB, University of Luxembourg, Luxembourg
PUBLICATION: Elapavalore, A.; Kondić, T.; et al., Adding Open Spectral Data to MassBank and PubChem Using Open Source Tools to Support Non-Targeted Exposomics of Mixtures (submitted).
PROJECT: ENTACT U.S. Environmental Protection Agency’s Non-Targeted Analysis Collaborative Trial
COMMENT: CONFIDENCE standard compound
COMMENT: INTERNAL_ID 214
COMMENT: DATASET 20200303_ENTACT_RP_MIX505
COMMENT: DATA_PROCESSING MERGING RMBmix ver. 0.2.7
COMMENT: DATA_PROCESSING PRESCREENING Shinyscreen ver. 0.8.0
COMMENT: ORIGINAL_ACQUISITION_NO 3087
COMMENT: ORIGINAL_PRECURSOR_SCAN_NO 3084
COMMENT: RAW_DATA available as MSV000091754 at [DOI:10.25345/C5S46HG75]
CH$NAME: 4-Hydroxyacetophenone
CH$NAME: 4'-Hydroxyacetophenone
CH$NAME: 1-(4-hydroxyphenyl)ethanone
CH$COMPOUND_CLASS: N/A; Environmental Standard
CH$FORMULA: C8H8O2
CH$EXACT_MASS: 136.0524
CH$SMILES: CC(=O)C1=CC=C(O)C=C1
CH$IUPAC: InChI=1S/C8H8O2/c1-6(9)7-2-4-8(10)5-3-7/h2-5,10H,1H3
CH$LINK: CAS 70-70-2
CH$LINK: CHEBI CHEBI:28032
CH$LINK: KEGG C10700
CH$LINK: PUBCHEM CID:7469
CH$LINK: INCHIKEY TXFPEBPIARQUIG-UHFFFAOYSA-N
CH$LINK: CHEMSPIDER 7189
AC$INSTRUMENT: Q Exactive Orbitrap (Thermo Scientific)
AC$INSTRUMENT_TYPE: LC-ESI-QFT
AC$MASS_SPECTROMETRY: MS_TYPE MS2
AC$MASS_SPECTROMETRY: ION_MODE NEGATIVE
AC$MASS_SPECTROMETRY: IONIZATION ESI
AC$MASS_SPECTROMETRY: FRAGMENTATION_MODE HCD
AC$MASS_SPECTROMETRY: COLLISION_ENERGY 45
AC$MASS_SPECTROMETRY: RESOLUTION 17500
AC$CHROMATOGRAPHY: COLUMN_NAME Acquity BEH C18 1.7um, 2.1x150mm (Waters)
AC$CHROMATOGRAPHY: FLOW_GRADIENT 90/10 at 0-2 min, 0/100 at 15-20 min, 90/10 at 20.1-30 min
AC$CHROMATOGRAPHY: FLOW_RATE 0.20 mL/min
AC$CHROMATOGRAPHY: RETENTION_TIME 12.451 min
AC$CHROMATOGRAPHY: SOLVENT A 0.1% formic acid
AC$CHROMATOGRAPHY: SOLVENT B methanol
MS$FOCUSED_ION: BASE_PEAK 135.0451
MS$FOCUSED_ION: PRECURSOR_M/Z 135.0452
MS$FOCUSED_ION: PRECURSOR_TYPE [M-H]-
MS$FOCUSED_ION: PRECURSOR_INTENSITY 26775473.58252
MS$DATA_PROCESSING: RECALIBRATE loess on assigned fragments and MS1
MS$DATA_PROCESSING: REANALYZE Peaks with additional N2/O included
MS$DATA_PROCESSING: WHOLE RMassBank 2.99.2
PK$SPLASH: splash10-000l-4900000000-7f0d9b3e383595edf476
PK$ANNOTATION: m/z tentative_formula formula_count mass error(ppm)
  68.9982 C3HO2- 1 68.9982 -0.22
  69.0347 C4H5O- 1 69.0346 1.19
  82.0061 C4H2O2- 1 82.006 0.79
  92.0267 C6H4O- 1 92.0268 -0.94
  93.0346 C6H5O- 1 93.0346 0.01
  95.0138 C5H3O2- 1 95.0139 -0.04
  97.0297 C5H5O2- 1 97.0295 1.91
  106.0061 C6H2O2- 1 106.006 1.03
  108.0217 C6H4O2- 1 108.0217 0.06
  117.0346 C8H5O- 1 117.0346 0.21
  120.0217 C7H4O2- 1 120.0217 -0.2
  135.0451 C8H7O2- 1 135.0452 -0.03
PK$NUM_PEAK: 12
PK$PEAK: m/z int. rel.int.
  68.9982 6938.9 1
  69.0347 6440.9 1
  82.0061 11054 2
  92.0267 65746.4 13
  93.0346 3051972.8 608
  95.0138 242175.5 48
  97.0297 5139.1 1
  106.0061 12884.1 2
  108.0217 1257352.6 250
  117.0346 19136.7 3
  120.0217 59279 11
  135.0451 5008108.5 999
//
