ACCESSION: MSBNK-LCSB-LU088503
RECORD_TITLE: N-Butylurea; LC-ESI-QFT; MS2; CE: 45; R=17500; [M+H]+
DATE: 2020.08.19
AUTHORS: Elapavalore, A.; Kondić, T.; Singh, R.; Schymanski, E.
LICENSE: CC BY
COPYRIGHT: Copyright © 2019 by Environmental Cheminformatics, LCSB, University of Luxembourg, Luxembourg
PUBLICATION: Elapavalore, A.; Kondić, T.; et al., Adding Open Spectral Data to MassBank and PubChem Using Open Source Tools to Support Non-Targeted Exposomics of Mixtures (submitted).
PROJECT: ENTACT U.S. Environmental Protection Agency’s Non-Targeted Analysis Collaborative Trial
COMMENT: CONFIDENCE standard compound
COMMENT: INTERNAL_ID 885
COMMENT: DATASET 20200303_ENTACT_RP_MIX501
COMMENT: DATA_PROCESSING MERGING RMBmix ver. 0.2.7
COMMENT: DATA_PROCESSING PRESCREENING Shinyscreen ver. 0.8.0
COMMENT: ORIGINAL_ACQUISITION_NO 5337
COMMENT: ORIGINAL_PRECURSOR_SCAN_NO 5335
COMMENT: RAW_DATA available as MSV000091754 at [DOI:10.25345/C5S46HG75]
CH$NAME: N-Butylurea
CH$NAME: butylurea
CH$COMPOUND_CLASS: N/A; Environmental Standard
CH$FORMULA: C5H12N2O
CH$EXACT_MASS: 116.0950
CH$SMILES: CCCCNC(N)=O
CH$IUPAC: InChI=1S/C5H12N2O/c1-2-3-4-7-5(6)8/h2-4H2,1H3,(H3,6,7,8)
CH$LINK: CAS 689-11-2
CH$LINK: PUBCHEM CID:11595
CH$LINK: INCHIKEY CNWSQCLBDWYLAN-UHFFFAOYSA-N
CH$LINK: CHEMSPIDER 11107
AC$INSTRUMENT: Q Exactive Orbitrap (Thermo Scientific)
AC$INSTRUMENT_TYPE: LC-ESI-QFT
AC$MASS_SPECTROMETRY: MS_TYPE MS2
AC$MASS_SPECTROMETRY: ION_MODE POSITIVE
AC$MASS_SPECTROMETRY: IONIZATION ESI
AC$MASS_SPECTROMETRY: FRAGMENTATION_MODE HCD
AC$MASS_SPECTROMETRY: COLLISION_ENERGY 45
AC$MASS_SPECTROMETRY: RESOLUTION 17500
AC$CHROMATOGRAPHY: COLUMN_NAME Acquity BEH C18 1.7um, 2.1x150mm (Waters)
AC$CHROMATOGRAPHY: FLOW_GRADIENT 90/10 at 0-2 min, 0/100 at 15-20 min, 90/10 at 20.1-30 min
AC$CHROMATOGRAPHY: FLOW_RATE 0.20 mL/min
AC$CHROMATOGRAPHY: RETENTION_TIME 10.164 min
AC$CHROMATOGRAPHY: SOLVENT A 0.1% formic acid
AC$CHROMATOGRAPHY: SOLVENT B methanol
MS$FOCUSED_ION: BASE_PEAK 79.0212
MS$FOCUSED_ION: PRECURSOR_M/Z 117.1022
MS$FOCUSED_ION: PRECURSOR_TYPE [M+H]+
MS$FOCUSED_ION: PRECURSOR_INTENSITY 7042351.84375
MS$DATA_PROCESSING: RECALIBRATE loess on assigned fragments and MS1
MS$DATA_PROCESSING: REANALYZE Peaks with additional N2/O included
MS$DATA_PROCESSING: WHOLE RMassBank 2.99.2
PK$SPLASH: splash10-06di-9500000000-447023dd6368b1370159
PK$ANNOTATION: m/z tentative_formula formula_count mass error(ppm)
  53.0023 C3HO+ 1 53.0022 1.75
  53.9975 C2NO+ 1 53.9974 0.94
  55.0542 C4H7+ 1 55.0542 -0.99
  57.0699 C4H9+ 1 57.0699 0.37
  61.0396 CH5N2O+ 1 61.0396 0.18
  72.0444 C3H6NO+ 1 72.0444 0.52
  74.0964 C4H12N+ 1 74.0964 -0.29
  100.0758 C5H10NO+ 1 100.0757 0.98
  117.1022 C5H13N2O+ 1 117.1022 0
PK$NUM_PEAK: 9
PK$PEAK: m/z int. rel.int.
  53.0023 13455.4 14
  53.9975 3497.6 3
  55.0542 2031.9 2
  57.0699 834510.9 879
  61.0396 161730.6 170
  72.0444 3429 3
  74.0964 512202.8 539
  100.0758 6894.7 7
  117.1022 948352.3 999
//
