ACCESSION: MSBNK-LCSB-LU081506
RECORD_TITLE: Pyrinuron; LC-ESI-QFT; MS2; CE: 90; R=17500; [M+H]+
DATE: 2020.08.19
AUTHORS: Elapavalore, A.; Kondić, T.; Singh, R.; Schymanski, E.
LICENSE: CC BY
COPYRIGHT: Copyright © 2019 by Environmental Cheminformatics, LCSB, University of Luxembourg, Luxembourg
PUBLICATION: Elapavalore, A.; Kondić, T.; et al., Adding Open Spectral Data to MassBank and PubChem Using Open Source Tools to Support Non-Targeted Exposomics of Mixtures (submitted).
PROJECT: ENTACT U.S. Environmental Protection Agency’s Non-Targeted Analysis Collaborative Trial
COMMENT: CONFIDENCE standard compound
COMMENT: INTERNAL_ID 815
COMMENT: DATASET 20200303_ENTACT_RP_MIX505
COMMENT: DATA_PROCESSING MERGING RMBmix ver. 0.2.7
COMMENT: DATA_PROCESSING PRESCREENING Shinyscreen ver. 0.8.0
COMMENT: ORIGINAL_ACQUISITION_NO 6117
COMMENT: ORIGINAL_PRECURSOR_SCAN_NO 6115
COMMENT: RAW_DATA available as MSV000091754 at [DOI:10.25345/C5S46HG75]
CH$NAME: Pyrinuron
CH$NAME: Pyriminil
CH$NAME: 1-(4-nitrophenyl)-3-(pyridin-3-ylmethyl)urea
CH$COMPOUND_CLASS: N/A; Environmental Standard
CH$FORMULA: C13H12N4O3
CH$EXACT_MASS: 272.0909
CH$SMILES: [O-][N+](=O)C1=CC=C(NC(=O)NCC2=CC=CN=C2)C=C1
CH$IUPAC: InChI=1S/C13H12N4O3/c18-13(15-9-10-2-1-7-14-8-10)16-11-3-5-12(6-4-11)17(19)20/h1-8H,9H2,(H2,15,16,18)
CH$LINK: CAS 53558-25-1
CH$LINK: PUBCHEM CID:40813
CH$LINK: INCHIKEY CLKZWXHKFXZIMA-UHFFFAOYSA-N
CH$LINK: CHEMSPIDER 37276
AC$INSTRUMENT: Q Exactive Orbitrap (Thermo Scientific)
AC$INSTRUMENT_TYPE: LC-ESI-QFT
AC$MASS_SPECTROMETRY: MS_TYPE MS2
AC$MASS_SPECTROMETRY: ION_MODE POSITIVE
AC$MASS_SPECTROMETRY: IONIZATION ESI
AC$MASS_SPECTROMETRY: FRAGMENTATION_MODE HCD
AC$MASS_SPECTROMETRY: COLLISION_ENERGY 90
AC$MASS_SPECTROMETRY: RESOLUTION 17500
AC$CHROMATOGRAPHY: COLUMN_NAME Acquity BEH C18 1.7um, 2.1x150mm (Waters)
AC$CHROMATOGRAPHY: FLOW_GRADIENT 90/10 at 0-2 min, 0/100 at 15-20 min, 90/10 at 20.1-30 min
AC$CHROMATOGRAPHY: FLOW_RATE 0.20 mL/min
AC$CHROMATOGRAPHY: RETENTION_TIME 11.679 min
AC$CHROMATOGRAPHY: SOLVENT A 0.1% formic acid
AC$CHROMATOGRAPHY: SOLVENT B methanol
MS$FOCUSED_ION: BASE_PEAK 79.0211
MS$FOCUSED_ION: PRECURSOR_M/Z 273.0982
MS$FOCUSED_ION: PRECURSOR_TYPE [M+H]+
MS$FOCUSED_ION: PRECURSOR_INTENSITY 2570902.4375
MS$DATA_PROCESSING: RECALIBRATE loess on assigned fragments and MS1
MS$DATA_PROCESSING: REANALYZE Peaks with additional N2/O included
MS$DATA_PROCESSING: WHOLE RMassBank 2.99.2
PK$SPLASH: splash10-0006-9400000000-324a15e3d2cfb6cdd3be
PK$ANNOTATION: m/z tentative_formula formula_count mass error(ppm)
  53.0387 C4H5+ 1 53.0386 1.76
  54.0339 C3H4N+ 1 54.0338 0.86
  56.0131 C2H2NO+ 1 56.0131 0.59
  65.0386 C5H5+ 1 65.0386 0.28
  66.0464 C5H6+ 1 66.0464 -0.48
  67.0416 C4H5N+ 1 67.0417 -0.72
  68.0495 C4H6N+ 1 68.0495 0.02
  79.0179 C5H3O+ 1 79.0178 0.22
  79.0417 C5H5N+ 1 79.0417 0.05
  80.0495 C5H6N+ 1 80.0495 0.12
  82.0652 C5H8N+ 1 82.0651 0.51
  92.0495 C6H6N+ 1 92.0495 0.54
  93.0574 C6H7N+ 1 93.0573 0.81
  96.0444 C5H6NO+ 2 96.0444 0.16
  107.0605 C6H7N2+ 1 107.0604 1.1
  108.0444 C6H6NO+ 2 108.0444 0.12
  108.0683 C6H8N2+ 1 108.0682 1.05
  109.0522 C6H7NO+ 2 109.0522 0.29
  109.0761 C6H9N2+ 1 109.076 0.87
  110.0602 C6H8NO+ 2 110.06 1.3
  111.0313 C5H5NO2+ 2 111.0315 -1.28
  117.0448 C7H5N2+ 1 117.0447 0.87
  122.0475 C6H6N2O+ 1 122.0475 0.2
  134.0476 C7H6N2O+ 1 134.0475 1.09
  135.0553 C7H7N2O+ 1 135.0553 0.31
PK$NUM_PEAK: 25
PK$PEAK: m/z int. rel.int.
  53.0387 4708.7 4
  54.0339 7211.4 6
  56.0131 45709.9 39
  65.0386 64796.7 56
  66.0464 17116.4 14
  67.0416 17109.6 14
  68.0495 9072.4 7
  79.0179 2776.4 2
  79.0417 5325.8 4
  80.0495 183237.7 158
  82.0652 3065.4 2
  92.0495 134501.8 116
  93.0574 1154987 999
  96.0444 3752.6 3
  107.0605 27654 23
  108.0444 8157.6 7
  108.0683 2666.8 2
  109.0522 9008.3 7
  109.0761 55809.7 48
  110.0602 28505.2 24
  111.0313 3693.9 3
  117.0448 6835.9 5
  122.0475 44505.2 38
  134.0476 2604.2 2
  135.0553 636583.9 550
//
