ACCESSION: MSBNK-LCSB-LU015303
RECORD_TITLE: 1-Dodecyl-2-pyrrolidinone; LC-ESI-QFT; MS2; CE: 45; R=17500; [M+H]+
DATE: 2020.08.19
AUTHORS: Elapavalore, A.; Kondić, T.; Singh, R.; Schymanski, E.
LICENSE: CC BY
COPYRIGHT: Copyright © 2019 by Environmental Cheminformatics, LCSB, University of Luxembourg, Luxembourg
PUBLICATION: Elapavalore, A.; Kondić, T.; et al., Adding Open Spectral Data to MassBank and PubChem Using Open Source Tools to Support Non-Targeted Exposomics of Mixtures (submitted).
PROJECT: ENTACT U.S. Environmental Protection Agency’s Non-Targeted Analysis Collaborative Trial
COMMENT: CONFIDENCE standard compound
COMMENT: INTERNAL_ID 153
COMMENT: DATASET 20200303_ENTACT_RP_MIX500
COMMENT: DATA_PROCESSING MERGING RMBmix ver. 0.2.7
COMMENT: DATA_PROCESSING PRESCREENING Shinyscreen ver. 0.8.0
COMMENT: ORIGINAL_ACQUISITION_NO 10775
COMMENT: ORIGINAL_PRECURSOR_SCAN_NO 10773
COMMENT: RAW_DATA available as MSV000091754 at [DOI:10.25345/C5S46HG75]
CH$NAME: 1-Dodecyl-2-pyrrolidinone
CH$NAME: 1-dodecylpyrrolidin-2-one
CH$COMPOUND_CLASS: N/A; Environmental Standard
CH$FORMULA: C16H31NO
CH$EXACT_MASS: 253.2406
CH$SMILES: CCCCCCCCCCCCN1CCCC1=O
CH$IUPAC: InChI=1S/C16H31NO/c1-2-3-4-5-6-7-8-9-10-11-14-17-15-12-13-16(17)18/h2-15H2,1H3
CH$LINK: CAS 2687-96-9
CH$LINK: PUBCHEM CID:62459
CH$LINK: INCHIKEY NJPQAIBZIHNJDO-UHFFFAOYSA-N
CH$LINK: CHEMSPIDER 56239
AC$INSTRUMENT: Q Exactive Orbitrap (Thermo Scientific)
AC$INSTRUMENT_TYPE: LC-ESI-QFT
AC$MASS_SPECTROMETRY: MS_TYPE MS2
AC$MASS_SPECTROMETRY: ION_MODE POSITIVE
AC$MASS_SPECTROMETRY: IONIZATION ESI
AC$MASS_SPECTROMETRY: FRAGMENTATION_MODE HCD
AC$MASS_SPECTROMETRY: COLLISION_ENERGY 45
AC$MASS_SPECTROMETRY: RESOLUTION 17500
AC$CHROMATOGRAPHY: COLUMN_NAME Acquity BEH C18 1.7um, 2.1x150mm (Waters)
AC$CHROMATOGRAPHY: FLOW_GRADIENT 90/10 at 0-2 min, 0/100 at 15-20 min, 90/10 at 20.1-30 min
AC$CHROMATOGRAPHY: FLOW_RATE 0.20 mL/min
AC$CHROMATOGRAPHY: RETENTION_TIME 20.681 min
AC$CHROMATOGRAPHY: SOLVENT A 0.1% formic acid
AC$CHROMATOGRAPHY: SOLVENT B methanol
MS$FOCUSED_ION: BASE_PEAK 79.0211
MS$FOCUSED_ION: PRECURSOR_M/Z 254.2478
MS$FOCUSED_ION: PRECURSOR_TYPE [M+H]+
MS$FOCUSED_ION: PRECURSOR_INTENSITY 37045348
MS$DATA_PROCESSING: RECALIBRATE loess on assigned fragments and MS1
MS$DATA_PROCESSING: REANALYZE Peaks with additional N2/O included
MS$DATA_PROCESSING: WHOLE RMassBank 2.99.2
PK$SPLASH: splash10-0udr-8090000000-4ed4527ca9a61794f55f
PK$ANNOTATION: m/z tentative_formula formula_count mass error(ppm)
  53.0023 C3HO+ 1 53.0022 1.39
  55.0542 C4H7+ 1 55.0542 0.16
  57.0699 C4H9+ 1 57.0699 0.51
  68.0495 C4H6N+ 1 68.0495 -0.34
  69.0334 C4H5O+ 1 69.0335 -0.9
  70.0651 C4H8N+ 1 70.0651 0.03
  71.0855 C5H11+ 1 71.0855 -0.96
  85.1012 C6H13+ 1 85.1012 0.26
  86.06 C4H8NO+ 1 86.06 -0.45
  98.06 C5H8NO+ 1 98.06 -0.54
  100.0757 C5H10NO+ 1 100.0757 -0.07
  114.0913 C6H12NO+ 1 114.0913 -0.03
  128.1069 C7H14NO+ 1 128.107 -0.38
  142.1227 C8H16NO+ 1 142.1226 0.17
  156.1384 C9H18NO+ 1 156.1383 0.52
  170.154 C10H20NO+ 1 170.1539 0.21
  184.1697 C11H22NO+ 1 184.1696 0.52
  198.185 C12H24NO+ 1 198.1852 -1.08
  254.2477 C16H32NO+ 1 254.2478 -0.54
PK$NUM_PEAK: 19
PK$PEAK: m/z int. rel.int.
  53.0023 44951.7 2
  55.0542 18127.6 1
  57.0699 1158777.9 73
  68.0495 43393.6 2
  69.0334 305104.4 19
  70.0651 33120.6 2
  71.0855 635048.3 40
  85.1012 227239.3 14
  86.06 12222786 775
  98.06 334398 21
  100.0757 67049.8 4
  114.0913 141367 8
  128.1069 244545.8 15
  142.1227 140945.2 8
  156.1384 53553.9 3
  170.154 29730.9 1
  184.1697 24245.9 1
  198.185 19704 1
  254.2477 15741637 999
//
