ACCESSION: MSBNK-LCSB-LU004706
RECORD_TITLE: Terbutryn; LC-ESI-QFT; MS2; CE: 90; R=17500; [M+H]+
DATE: 2020.08.19
AUTHORS: Elapavalore, A.; Kondić, T.; Singh, R.; Schymanski, E.
LICENSE: CC BY
COPYRIGHT: Copyright © 2019 by Environmental Cheminformatics, LCSB, University of Luxembourg, Luxembourg
PUBLICATION: Elapavalore, A.; Kondić, T.; et al., Adding Open Spectral Data to MassBank and PubChem Using Open Source Tools to Support Non-Targeted Exposomics of Mixtures (submitted).
PROJECT: ENTACT U.S. Environmental Protection Agency’s Non-Targeted Analysis Collaborative Trial
COMMENT: CONFIDENCE standard compound
COMMENT: INTERNAL_ID 47
COMMENT: DATASET 20200303_ENTACT_RP_MIX501
COMMENT: DATA_PROCESSING MERGING RMBmix ver. 0.2.7
COMMENT: DATA_PROCESSING PRESCREENING Shinyscreen ver. 0.8.0
COMMENT: ORIGINAL_ACQUISITION_NO 8502
COMMENT: ORIGINAL_PRECURSOR_SCAN_NO 8501
COMMENT: RAW_DATA available as MSV000091754 at [DOI:10.25345/C5S46HG75]
CH$NAME: Terbutryn
CH$NAME: 2-N-tert-butyl-4-N-ethyl-6-methylsulfanyl-1,3,5-triazine-2,4-diamine
CH$COMPOUND_CLASS: N/A; Environmental Standard
CH$FORMULA: C10H19N5S
CH$EXACT_MASS: 241.1361
CH$SMILES: CCNC1=NC(SC)=NC(NC(C)(C)C)=N1
CH$IUPAC: InChI=1S/C10H19N5S/c1-6-11-7-12-8(15-10(2,3)4)14-9(13-7)16-5/h6H2,1-5H3,(H2,11,12,13,14,15)
CH$LINK: CAS 886-50-0
CH$LINK: CHEBI CHEBI:44156
CH$LINK: KEGG C18811
CH$LINK: PUBCHEM CID:13450
CH$LINK: INCHIKEY IROINLKCQGIITA-UHFFFAOYSA-N
CH$LINK: CHEMSPIDER 12874
AC$INSTRUMENT: Q Exactive Orbitrap (Thermo Scientific)
AC$INSTRUMENT_TYPE: LC-ESI-QFT
AC$MASS_SPECTROMETRY: MS_TYPE MS2
AC$MASS_SPECTROMETRY: ION_MODE POSITIVE
AC$MASS_SPECTROMETRY: IONIZATION ESI
AC$MASS_SPECTROMETRY: FRAGMENTATION_MODE HCD
AC$MASS_SPECTROMETRY: COLLISION_ENERGY 90
AC$MASS_SPECTROMETRY: RESOLUTION 17500
AC$CHROMATOGRAPHY: COLUMN_NAME Acquity BEH C18 1.7um, 2.1x150mm (Waters)
AC$CHROMATOGRAPHY: FLOW_GRADIENT 90/10 at 0-2 min, 0/100 at 15-20 min, 90/10 at 20.1-30 min
AC$CHROMATOGRAPHY: FLOW_RATE 0.20 mL/min
AC$CHROMATOGRAPHY: RETENTION_TIME 16.520 min
AC$CHROMATOGRAPHY: SOLVENT A 0.1% formic acid
AC$CHROMATOGRAPHY: SOLVENT B methanol
MS$FOCUSED_ION: BASE_PEAK 79.0212
MS$FOCUSED_ION: PRECURSOR_M/Z 242.1434
MS$FOCUSED_ION: PRECURSOR_TYPE [M+H]+
MS$FOCUSED_ION: PRECURSOR_INTENSITY 51744662.40625
MS$DATA_PROCESSING: RECALIBRATE loess on assigned fragments and MS1
MS$DATA_PROCESSING: REANALYZE Peaks with additional N2/O included
MS$DATA_PROCESSING: WHOLE RMassBank 2.99.2
PK$SPLASH: splash10-01b9-9100000000-39e21db537673114c39c
PK$ANNOTATION: m/z tentative_formula formula_count mass error(ppm)
  57.0699 C4H9+ 1 57.0699 0.31
  61.0107 C2H5S+ 1 61.0106 1.05
  68.0243 C2H2N3+ 1 68.0243 -0.17
  69.0448 C3H5N2+ 1 69.0447 1.09
  70.04 C2H4N3+ 1 70.04 1.09
  71.0604 C3H7N2+ 1 71.0604 -0.06
  74.0059 C2H4NS+ 1 74.0059 -0.21
  85.0509 C2H5N4+ 1 85.0509 0.39
  91.0325 C2H7N2S+ 1 91.0324 0.48
  96.0556 C4H6N3+ 1 96.0556 0.12
  99.001 C3H3N2S+ 1 99.0011 -0.97
  102.0373 C4H8NS+ 1 102.0372 0.65
  110.0462 C3H4N5+ 1 110.0461 0.4
  112.0614 C3H6N5+ 1 112.0618 -3
  113.0822 C4H9N4+ 1 113.0822 -0.13
  116.0277 C3H6N3S+ 1 116.0277 0.29
  138.0775 C5H8N5+ 1 138.0774 0.36
  143.0259 C3H5N5S+ 1 143.026 -0.83
  144.0591 C5H10N3S+ 1 144.059 0.53
  158.0496 C4H8N5S+ 1 158.0495 0.58
  184.065 C6H10N5S+ 1 184.0651 -0.74
  186.0809 C6H12N5S+ 1 186.0808 0.72
PK$NUM_PEAK: 22
PK$PEAK: m/z int. rel.int.
  57.0699 415742.5 38
  61.0107 37723.7 3
  68.0243 10728566 999
  69.0448 11494 1
  70.04 42128.9 3
  71.0604 5431301.5 505
  74.0059 3738791.5 348
  85.0509 1350289.2 125
  91.0325 3325780.2 309
  96.0556 4051221.2 377
  99.001 38097.9 3
  102.0373 93053.7 8
  110.0462 850168.2 79
  112.0614 11617.9 1
  113.0822 220400.9 20
  116.0277 2343819.2 218
  138.0775 611355.1 56
  143.0259 14653.2 1
  144.0591 524568.2 48
  158.0496 432402.8 40
  184.065 16365.1 1
  186.0809 397297.5 36
//
