ACCESSION: MSBNK-LCSB-LU116806
RECORD_TITLE: Fluorometholone; LC-ESI-QFT; MS2; CE: 90; R=17500; [M+H]+
DATE: 2020.08.19
AUTHORS: Elapavalore, A.; Kondić, T.; Singh, R.; Schymanski, E.
LICENSE: CC BY
COPYRIGHT: Copyright © 2019 by Environmental Cheminformatics, LCSB, University of Luxembourg, Luxembourg
PUBLICATION: Elapavalore, A.; Kondić, T.; et al., Adding Open Spectral Data to MassBank and PubChem Using Open Source Tools to Support Non-Targeted Exposomics of Mixtures (submitted).
PROJECT: ENTACT U.S. Environmental Protection Agency’s Non-Targeted Analysis Collaborative Trial
COMMENT: CONFIDENCE standard compound
COMMENT: INTERNAL_ID 1168
COMMENT: DATASET 20200303_ENTACT_RP_MIX508
COMMENT: DATA_PROCESSING MERGING RMBmix ver. 0.2.7
COMMENT: DATA_PROCESSING PRESCREENING Shinyscreen ver. 0.8.0
COMMENT: ORIGINAL_ACQUISITION_NO 8875
COMMENT: ORIGINAL_PRECURSOR_SCAN_NO 8870
COMMENT: RAW_DATA available as MSV000091754 at [DOI:10.25345/C5S46HG75]
CH$NAME: Fluorometholone
CH$NAME: (6S,8S,9R,10S,11S,13S,14S,17R)-17-acetyl-9-fluoro-11,17-dihydroxy-6,10,13-trimethyl-6,7,8,11,12,14,15,16-octahydrocyclopenta[a]phenanthren-3-one
CH$COMPOUND_CLASS: N/A; Environmental Standard
CH$FORMULA: C22H29FO4
CH$EXACT_MASS: 376.2050
CH$SMILES: C[C@H]1C[C@H]2[C@@H]3CC[C@](O)(C(C)=O)[C@@]3(C)C[C@H](O)[C@]2(F)[C@@]2(C)C=CC(=O)C=C12
CH$IUPAC: InChI=1S/C22H29FO4/c1-12-9-17-15-6-8-21(27,13(2)24)20(15,4)11-18(26)22(17,23)19(3)7-5-14(25)10-16(12)19/h5,7,10,12,15,17-18,26-27H,6,8-9,11H2,1-4H3/t12-,15-,17-,18-,19-,20-,21-,22-/m0/s1
CH$LINK: CAS 426-13-1
CH$LINK: CHEBI CHEBI:31625
CH$LINK: KEGG D01367
CH$LINK: PUBCHEM CID:9878
CH$LINK: INCHIKEY FAOZLTXFLGPHNG-KNAQIMQKSA-N
CH$LINK: CHEMSPIDER 9494
AC$INSTRUMENT: Q Exactive Orbitrap (Thermo Scientific)
AC$INSTRUMENT_TYPE: LC-ESI-QFT
AC$MASS_SPECTROMETRY: MS_TYPE MS2
AC$MASS_SPECTROMETRY: ION_MODE POSITIVE
AC$MASS_SPECTROMETRY: IONIZATION ESI
AC$MASS_SPECTROMETRY: FRAGMENTATION_MODE HCD
AC$MASS_SPECTROMETRY: COLLISION_ENERGY 90
AC$MASS_SPECTROMETRY: RESOLUTION 17500
AC$CHROMATOGRAPHY: COLUMN_NAME Acquity BEH C18 1.7um, 2.1x150mm (Waters)
AC$CHROMATOGRAPHY: FLOW_GRADIENT 90/10 at 0-2 min, 0/100 at 15-20 min, 90/10 at 20.1-30 min
AC$CHROMATOGRAPHY: FLOW_RATE 0.20 mL/min
AC$CHROMATOGRAPHY: RETENTION_TIME 16.967 min
AC$CHROMATOGRAPHY: SOLVENT A 0.1% formic acid
AC$CHROMATOGRAPHY: SOLVENT B methanol
MS$FOCUSED_ION: BASE_PEAK 79.0212
MS$FOCUSED_ION: PRECURSOR_M/Z 377.2123
MS$FOCUSED_ION: PRECURSOR_TYPE [M+H]+
MS$FOCUSED_ION: PRECURSOR_INTENSITY 7944908.375
MS$DATA_PROCESSING: RECALIBRATE loess on assigned fragments and MS1
MS$DATA_PROCESSING: REANALYZE Peaks with additional N2/O included
MS$DATA_PROCESSING: WHOLE RMassBank 2.99.2
PK$SPLASH: splash10-00kf-3910000000-4db2735fffc1d3040f7a
PK$ANNOTATION: m/z tentative_formula formula_count mass error(ppm)
  53.0386 C4H5+ 1 53.0386 0.83
  55.0179 C3H3O+ 1 55.0178 0.2
  55.0542 C4H7+ 1 55.0542 -0.37
  59.0491 C3H7O+ 1 59.0491 -0.78
  65.0386 C5H5+ 1 65.0386 0.14
  67.0542 C5H7+ 1 67.0542 0
  69.0335 C4H5O+ 1 69.0335 0.46
  69.07 C5H9+ 1 69.0699 1.11
  79.0542 C6H7+ 2 79.0542 -0.28
  81.0336 C5H5O+ 2 81.0335 0.99
  81.0699 C6H9+ 2 81.0699 0.5
  91.0543 C7H7+ 2 91.0542 0.39
  93.07 C7H9+ 2 93.0699 0.82
  95.0492 C6H7O+ 2 95.0491 0.54
  95.0857 C7H11+ 2 95.0855 2.22
  103.0543 C8H7+ 2 103.0542 0.28
  104.0619 C8H8+ 2 104.0621 -1.16
  105.0699 C8H9+ 2 105.0699 0.63
  107.0492 C7H7O+ 2 107.0491 0.28
  107.0856 C8H11+ 2 107.0855 0.7
  109.0649 C7H9O+ 2 109.0648 0.77
  111.0805 C7H11O+ 2 111.0804 0.83
  115.0543 C9H7+ 2 115.0542 0.59
  116.062 C9H8+ 2 116.0621 -0.16
  117.0699 C9H9+ 2 117.0699 0.46
  119.0856 C9H11+ 2 119.0855 0.34
  121.0649 C8H9O+ 2 121.0648 0.52
  128.062 C10H8+ 2 128.0621 -0.13
  129.0699 C10H9+ 2 129.0699 0.36
  130.0778 C10H10+ 2 130.0777 0.85
  131.0492 C9H7O+ 2 131.0491 0.58
  131.0856 C10H11+ 2 131.0855 0.28
  132.0571 C9H8O+ 2 132.057 1.17
  133.065 C9H9O+ 2 133.0648 1.42
  133.1011 C10H13+ 2 133.1012 -0.71
  135.0805 C9H11O+ 2 135.0804 0.42
  141.0699 C11H9+ 2 141.0699 -0.11
  142.0777 C11H10+ 2 142.0777 0.01
  143.0856 C11H11+ 2 143.0855 0.77
  144.057 C10H8O+ 2 144.057 0.21
  145.0649 C10H9O+ 2 145.0648 0.54
  145.101 C11H13+ 2 145.1012 -0.89
  146.0726 C10H10O+ 2 146.0726 0.03
  147.0806 C10H11O+ 2 147.0804 0.77
  152.0621 C12H8+ 2 152.0621 0.06
  153.0701 C12H9+ 2 153.0699 1.77
  154.0777 C12H10+ 2 154.0777 0.09
  155.0857 C12H11+ 2 155.0855 1.09
  156.0935 C12H12+ 2 156.0934 1.19
  157.0648 C11H9O+ 2 157.0648 0.28
  157.1012 C12H13+ 2 157.1012 -0.06
  158.0729 C11H10O+ 2 158.0726 1.74
  159.0806 C11H11O+ 2 159.0804 1.27
  160.0881 C11H12O+ 2 160.0883 -1.3
  161.096 C11H13O+ 2 161.0961 -0.33
  165.0701 C13H9+ 2 165.0699 1.43
  166.0778 C13H10+ 2 166.0777 0.52
  167.0855 C13H11+ 2 167.0855 0.07
  169.065 C12H9O+ 2 169.0648 1.51
  169.101 C13H13+ 2 169.1012 -1.25
  171.0804 C12H11O+ 2 171.0804 -0.35
  172.0882 C12H12O+ 2 172.0883 -0.42
  178.0777 C14H10+ 2 178.0777 -0.28
  179.0857 C14H11+ 2 179.0855 0.84
  180.0927 C14H12+ 2 180.0934 -3.63
  181.0649 C13H9O+ 2 181.0648 0.33
  181.101 C14H13+ 2 181.1012 -1.07
  182.0728 C13H10O+ 2 182.0726 1.1
  183.0805 C13H11O+ 2 183.0804 0.19
  185.0961 C13H13O+ 2 185.0961 0.07
  189.07 C15H9+ 2 189.0699 0.41
  190.0778 C15H10+ 2 190.0777 0.67
  191.0854 C15H11+ 2 191.0855 -0.51
  192.0933 C15H12+ 2 192.0934 -0.48
  193.1014 C15H13+ 2 193.1012 1.36
  194.0728 C14H10O+ 2 194.0726 0.87
  195.0805 C14H11O+ 2 195.0804 0.5
  196.0885 C14H12O+ 2 196.0883 1.3
  197.0961 C14H13O+ 2 197.0961 -0.15
  203.0857 C16H11+ 2 203.0855 0.93
  204.0935 C16H12+ 2 204.0934 0.81
  205.1012 C16H13+ 2 205.1012 0.31
  207.0806 C15H11O+ 2 207.0804 0.62
  208.0882 C15H12O+ 2 208.0883 -0.38
  209.0961 C15H13O+ 2 209.0961 0.24
  210.1042 C15H14O+ 2 210.1039 1.21
  215.0857 C17H11+ 2 215.0855 0.99
  216.0935 C17H12+ 2 216.0934 0.73
  217.1012 C17H13+ 2 217.1012 0.06
  219.0807 C16H11O+ 2 219.0804 0.99
  219.1174 C14H16FO+ 2 219.118 -2.59
  220.0884 C16H12O+ 2 220.0883 0.39
  221.0962 C16H13O+ 2 221.0961 0.62
  222.1039 C16H14O+ 2 222.1039 -0.1
  223.1119 C16H15O+ 2 223.1117 0.81
  231.1167 C18H15+ 2 231.1168 -0.75
  233.0957 C17H13O+ 2 233.0961 -1.51
  234.1038 C17H14O+ 2 234.1039 -0.69
  235.1121 C17H15O+ 2 235.1117 1.42
  245.0957 C18H13O+ 2 245.0961 -1.63
  248.1199 C18H16O+ 2 248.1196 1.29
  249.1272 C18H17O+ 2 249.1274 -0.71
  293.1865 C21H25O+ 1 293.19 -11.9
PK$NUM_PEAK: 103
PK$PEAK: m/z int. rel.int.
  53.0386 17073.7 92
  55.0179 4100.6 22
  55.0542 18438.6 99
  59.0491 5238.7 28
  65.0386 15678 84
  67.0542 27913.3 150
  69.0335 5269.1 28
  69.07 2279.3 12
  79.0542 42288.3 228
  81.0336 2896.7 15
  81.0699 12482.6 67
  91.0543 185258.8 999
  93.07 26112.1 140
  95.0492 35101.6 189
  95.0857 11372.7 61
  103.0543 15625.9 84
  104.0619 2060.5 11
  105.0699 82965.3 447
  107.0492 16138.6 87
  107.0856 19840.7 106
  109.0649 13365.5 72
  111.0805 2390.7 12
  115.0543 96019.4 517
  116.062 14114.8 76
  117.0699 39133.1 211
  119.0856 19786.5 106
  121.0649 53492.8 288
  128.062 33246.4 179
  129.0699 24514.5 132
  130.0778 6615.3 35
  131.0492 11302.8 60
  131.0856 9694.5 52
  132.0571 7335.8 39
  133.065 5089.8 27
  133.1011 8865.8 47
  135.0805 22175.6 119
  141.0699 26477.7 142
  142.0777 25549.9 137
  143.0856 7453.3 40
  144.057 7042.4 37
  145.0649 26783.3 144
  145.101 4817.3 25
  146.0726 20430.5 110
  147.0806 2649.5 14
  152.0621 6667.2 35
  153.0701 9865.9 53
  154.0777 5179.7 27
  155.0857 10680.2 57
  156.0935 3119.1 16
  157.0648 11361.5 61
  157.1012 3837.9 20
  158.0729 14128.4 76
  159.0806 11283.8 60
  160.0881 2420 13
  161.096 6643.6 35
  165.0701 25216.7 135
  166.0778 8112.1 43
  167.0855 8345.3 45
  169.065 5704.1 30
  169.101 2511.2 13
  171.0804 6128.4 33
  172.0882 6324.4 34
  178.0777 18089.7 97
  179.0857 25182.7 135
  180.0927 2576.5 13
  181.0649 12099.2 65
  181.101 4428 23
  182.0728 6007 32
  183.0805 9349.7 50
  185.0961 4782.2 25
  189.07 6480.8 34
  190.0778 7157.1 38
  191.0854 10367 55
  192.0933 7067.8 38
  193.1014 14474.7 78
  194.0728 7511.8 40
  195.0805 19293.5 104
  196.0885 5504.2 29
  197.0961 2621 14
  203.0857 12934.2 69
  204.0935 4802.6 25
  205.1012 6836.5 36
  207.0806 16351.2 88
  208.0882 12541.5 67
  209.0961 11371.5 61
  210.1042 2586.8 13
  215.0857 9616.4 51
  216.0935 5902.2 31
  217.1012 7858.4 42
  219.0807 9965.2 53
  219.1174 3128.5 16
  220.0884 2944.2 15
  221.0962 21406.1 115
  222.1039 6238 33
  223.1119 2938.9 15
  231.1167 2598.3 14
  233.0957 9125.3 49
  234.1038 6799.4 36
  235.1121 7667.7 41
  245.0957 1991.3 10
  248.1199 3404.3 18
  249.1272 5064.6 27
  293.1865 1939.5 10
//
