ACCESSION: MSBNK-LCSB-LU125906
RECORD_TITLE: CP-471358; LC-ESI-QFT; MS2; CE: 90; R=17500; [M+H]+
DATE: 2020.08.19
AUTHORS: Elapavalore, A.; Kondić, T.; Singh, R.; Schymanski, E.
LICENSE: CC BY
COPYRIGHT: Copyright © 2019 by Environmental Cheminformatics, LCSB, University of Luxembourg, Luxembourg
PUBLICATION: Elapavalore, A.; Kondić, T.; et al., Adding Open Spectral Data to MassBank and PubChem Using Open Source Tools to Support Non-Targeted Exposomics of Mixtures (submitted).
PROJECT: ENTACT U.S. Environmental Protection Agency’s Non-Targeted Analysis Collaborative Trial
COMMENT: CONFIDENCE standard compound
COMMENT: INTERNAL_ID 1259
COMMENT: DATASET 20200303_ENTACT_RP_MIX504
COMMENT: DATA_PROCESSING MERGING RMBmix ver. 0.2.7
COMMENT: DATA_PROCESSING PRESCREENING Shinyscreen ver. 0.8.0
COMMENT: ORIGINAL_ACQUISITION_NO 8683
COMMENT: ORIGINAL_PRECURSOR_SCAN_NO 8681
COMMENT: RAW_DATA available as MSV000091754 at [DOI:10.25345/C5S46HG75]
CH$NAME: CP-471358
CH$NAME: 3-[[4-(4-fluorophenoxy)phenyl]sulfonyl-[1-(hydroxycarbamoyl)cyclopentyl]amino]propanoic acid
CH$COMPOUND_CLASS: N/A; Environmental Standard
CH$FORMULA: C21H23FN2O7S
CH$EXACT_MASS: 466.1210
CH$SMILES: ONC(=O)C1(CCCC1)N(CCC(O)=O)S(=O)(=O)C1=CC=C(OC2=CC=C(F)C=C2)C=C1
CH$IUPAC: InChI=1S/C21H23FN2O7S/c22-15-3-5-16(6-4-15)31-17-7-9-18(10-8-17)32(29,30)24(14-11-19(25)26)21(20(27)23-28)12-1-2-13-21/h3-10,28H,1-2,11-14H2,(H,23,27)(H,25,26)
CH$LINK: PUBCHEM CID:9869142
CH$LINK: INCHIKEY VHHGUBHZBLPTKL-UHFFFAOYSA-N
CH$LINK: CHEMSPIDER 8044833
AC$INSTRUMENT: Q Exactive Orbitrap (Thermo Scientific)
AC$INSTRUMENT_TYPE: LC-ESI-QFT
AC$MASS_SPECTROMETRY: MS_TYPE MS2
AC$MASS_SPECTROMETRY: ION_MODE POSITIVE
AC$MASS_SPECTROMETRY: IONIZATION ESI
AC$MASS_SPECTROMETRY: FRAGMENTATION_MODE HCD
AC$MASS_SPECTROMETRY: COLLISION_ENERGY 90
AC$MASS_SPECTROMETRY: RESOLUTION 17500
AC$CHROMATOGRAPHY: COLUMN_NAME Acquity BEH C18 1.7um, 2.1x150mm (Waters)
AC$CHROMATOGRAPHY: FLOW_GRADIENT 90/10 at 0-2 min, 0/100 at 15-20 min, 90/10 at 20.1-30 min
AC$CHROMATOGRAPHY: FLOW_RATE 0.20 mL/min
AC$CHROMATOGRAPHY: RETENTION_TIME 16.757 min
AC$CHROMATOGRAPHY: SOLVENT A 0.1% formic acid
AC$CHROMATOGRAPHY: SOLVENT B methanol
MS$FOCUSED_ION: BASE_PEAK 79.0212
MS$FOCUSED_ION: PRECURSOR_M/Z 467.1283
MS$FOCUSED_ION: PRECURSOR_TYPE [M+H]+
MS$FOCUSED_ION: PRECURSOR_INTENSITY 2288100.25
MS$DATA_PROCESSING: RECALIBRATE loess on assigned fragments and MS1
MS$DATA_PROCESSING: REANALYZE Peaks with additional N2/O included
MS$DATA_PROCESSING: WHOLE RMassBank 2.99.2
PK$SPLASH: splash10-001j-8900000000-d8654227af2802f6a410
PK$ANNOTATION: m/z tentative_formula formula_count mass error(ppm)
  65.0387 C5H5+ 1 65.0386 1.19
  96.0808 C6H10N+ 3 96.0808 0
  133.0448 C9H6F+ 4 133.0448 0
  159.0608 C11H8F+ 4 159.0605 2
PK$NUM_PEAK: 4
PK$PEAK: m/z int. rel.int.
  65.0387 2385.4 249
  96.0808 9130.1 954
  133.0448 9554.6 999
  159.0608 2890.9 302
//
