ACCESSION: MSBNK-LCSB-LU127601
RECORD_TITLE: Todralazine; LC-ESI-QFT; MS2; CE: 15; R=17500; [M+H]+
DATE: 2020.08.19
AUTHORS: Elapavalore, A.; Kondić, T.; Singh, R.; Schymanski, E.
LICENSE: CC BY
COPYRIGHT: Copyright © 2019 by Environmental Cheminformatics, LCSB, University of Luxembourg, Luxembourg
PUBLICATION: Elapavalore, A.; Kondić, T.; et al., Adding Open Spectral Data to MassBank and PubChem Using Open Source Tools to Support Non-Targeted Exposomics of Mixtures (submitted).
PROJECT: ENTACT U.S. Environmental Protection Agency’s Non-Targeted Analysis Collaborative Trial
COMMENT: CONFIDENCE standard compound
COMMENT: INTERNAL_ID 1276
COMMENT: DATASET 20200303_ENTACT_RP_MIX504
COMMENT: DATA_PROCESSING MERGING RMBmix ver. 0.2.7
COMMENT: DATA_PROCESSING PRESCREENING Shinyscreen ver. 0.8.0
COMMENT: ORIGINAL_ACQUISITION_NO 4779
COMMENT: ORIGINAL_PRECURSOR_SCAN_NO 4777
COMMENT: RAW_DATA available as MSV000091754 at [DOI:10.25345/C5S46HG75]
CH$NAME: Todralazine
CH$NAME: ethyl N-(phthalazin-1-ylamino)carbamate
CH$COMPOUND_CLASS: N/A; Environmental Standard
CH$FORMULA: C11H12N4O2
CH$EXACT_MASS: 232.0960
CH$SMILES: CCOC(=O)NNC1=NN=CC2=CC=CC=C12
CH$IUPAC: InChI=1S/C11H12N4O2/c1-2-17-11(16)15-14-10-9-6-4-3-5-8(9)7-12-13-10/h3-7H,2H2,1H3,(H,13,14)(H,15,16)
CH$LINK: CAS 14679-73-3
CH$LINK: CHEBI CHEBI:94706
CH$LINK: KEGG D08613
CH$LINK: PUBCHEM CID:5501
CH$LINK: INCHIKEY WGZDBVOTUVNQFP-UHFFFAOYSA-N
CH$LINK: CHEMSPIDER 5300
AC$INSTRUMENT: Q Exactive Orbitrap (Thermo Scientific)
AC$INSTRUMENT_TYPE: LC-ESI-QFT
AC$MASS_SPECTROMETRY: MS_TYPE MS2
AC$MASS_SPECTROMETRY: ION_MODE POSITIVE
AC$MASS_SPECTROMETRY: IONIZATION ESI
AC$MASS_SPECTROMETRY: FRAGMENTATION_MODE HCD
AC$MASS_SPECTROMETRY: COLLISION_ENERGY 15
AC$MASS_SPECTROMETRY: RESOLUTION 17500
AC$CHROMATOGRAPHY: COLUMN_NAME Acquity BEH C18 1.7um, 2.1x150mm (Waters)
AC$CHROMATOGRAPHY: FLOW_GRADIENT 90/10 at 0-2 min, 0/100 at 15-20 min, 90/10 at 20.1-30 min
AC$CHROMATOGRAPHY: FLOW_RATE 0.20 mL/min
AC$CHROMATOGRAPHY: RETENTION_TIME 9.110 min
AC$CHROMATOGRAPHY: SOLVENT A 0.1% formic acid
AC$CHROMATOGRAPHY: SOLVENT B methanol
MS$FOCUSED_ION: BASE_PEAK 79.0212
MS$FOCUSED_ION: PRECURSOR_M/Z 233.1033
MS$FOCUSED_ION: PRECURSOR_TYPE [M+H]+
MS$FOCUSED_ION: PRECURSOR_INTENSITY 17139261.75
MS$DATA_PROCESSING: RECALIBRATE loess on assigned fragments and MS1
MS$DATA_PROCESSING: REANALYZE Peaks with additional N2/O included
MS$DATA_PROCESSING: WHOLE RMassBank 2.99.2
PK$SPLASH: splash10-001i-0190000000-2187da8678fecaf1834e
PK$ANNOTATION: m/z tentative_formula formula_count mass error(ppm)
  89.0384 C7H5+ 1 89.0386 -2.52
  116.0496 C8H6N+ 1 116.0495 1.32
  131.0604 C8H7N2+ 1 131.0604 0.41
  132.0682 C8H8N2+ 1 132.0682 0.2
  145.0633 C8H7N3+ 2 145.0634 -0.81
  159.0666 C8H7N4+ 2 159.0665 0.69
  160.0741 C8H8N4+ 2 160.0743 -1.4
  160.0997 C10H12N2+ 1 160.0995 1.05
  161.0823 C8H9N4+ 2 161.0822 0.53
  187.0616 C9H7N4O+ 2 187.0614 0.72
  189.1135 C10H13N4+ 1 189.1135 -0.02
  205.0721 C9H9N4O2+ 1 205.072 0.65
  233.1034 C11H13N4O2+ 1 233.1033 0.28
PK$NUM_PEAK: 13
PK$PEAK: m/z int. rel.int.
  89.0384 37931.8 3
  116.0496 15245.7 1
  131.0604 13737.1 1
  132.0682 36520.9 3
  145.0633 17685.7 1
  159.0666 85773.3 8
  160.0741 32647 3
  160.0997 27670.5 2
  161.0823 1170210.8 110
  187.0616 955670.8 90
  189.1135 84234.3 7
  205.0721 1724366.5 162
  233.1034 10574786 999
//
