ACCESSION: MSBNK-LCSB-LU064505
RECORD_TITLE: Thiobencarb; LC-ESI-QFT; MS2; CE: 75; R=17500; [M+H]+
DATE: 2020.08.19
AUTHORS: Elapavalore, A.; Kondić, T.; Singh, R.; Schymanski, E.
LICENSE: CC BY
COPYRIGHT: Copyright © 2019 by Environmental Cheminformatics, LCSB, University of Luxembourg, Luxembourg
PUBLICATION: Elapavalore, A.; Kondić, T.; et al., Adding Open Spectral Data to MassBank and PubChem Using Open Source Tools to Support Non-Targeted Exposomics of Mixtures (submitted).
PROJECT: ENTACT U.S. Environmental Protection Agency’s Non-Targeted Analysis Collaborative Trial
COMMENT: CONFIDENCE standard compound
COMMENT: INTERNAL_ID 645
COMMENT: DATASET 20200303_ENTACT_RP_MIX506
COMMENT: DATA_PROCESSING MERGING RMBmix ver. 0.2.7
COMMENT: DATA_PROCESSING PRESCREENING Shinyscreen ver. 0.8.0
COMMENT: ORIGINAL_ACQUISITION_NO 9919
COMMENT: ORIGINAL_PRECURSOR_SCAN_NO 9915
COMMENT: RAW_DATA available as MSV000091754 at [DOI:10.25345/C5S46HG75]
CH$NAME: Thiobencarb
CH$NAME: S-[(4-chlorophenyl)methyl] N,N-diethylcarbamothioate
CH$COMPOUND_CLASS: N/A; Environmental Standard
CH$FORMULA: C12H16ClNOS
CH$EXACT_MASS: 257.0641
CH$SMILES: CCN(CC)C(=O)SCC1=CC=C(Cl)C=C1
CH$IUPAC: InChI=1S/C12H16ClNOS/c1-3-14(4-2)12(15)16-9-10-5-7-11(13)8-6-10/h5-8H,3-4,9H2,1-2H3
CH$LINK: CAS 28249-77-6
CH$LINK: CHEBI CHEBI:35011
CH$LINK: KEGG C14428
CH$LINK: PUBCHEM CID:34192
CH$LINK: INCHIKEY QHTQREMOGMZHJV-UHFFFAOYSA-N
CH$LINK: CHEMSPIDER 31512
AC$INSTRUMENT: Q Exactive Orbitrap (Thermo Scientific)
AC$INSTRUMENT_TYPE: LC-ESI-QFT
AC$MASS_SPECTROMETRY: MS_TYPE MS2
AC$MASS_SPECTROMETRY: ION_MODE POSITIVE
AC$MASS_SPECTROMETRY: IONIZATION ESI
AC$MASS_SPECTROMETRY: FRAGMENTATION_MODE HCD
AC$MASS_SPECTROMETRY: COLLISION_ENERGY 75
AC$MASS_SPECTROMETRY: RESOLUTION 17500
AC$CHROMATOGRAPHY: COLUMN_NAME Acquity BEH C18 1.7um, 2.1x150mm (Waters)
AC$CHROMATOGRAPHY: FLOW_GRADIENT 90/10 at 0-2 min, 0/100 at 15-20 min, 90/10 at 20.1-30 min
AC$CHROMATOGRAPHY: FLOW_RATE 0.20 mL/min
AC$CHROMATOGRAPHY: RETENTION_TIME 19.037 min
AC$CHROMATOGRAPHY: SOLVENT A 0.1% formic acid
AC$CHROMATOGRAPHY: SOLVENT B methanol
MS$FOCUSED_ION: BASE_PEAK 79.0212
MS$FOCUSED_ION: PRECURSOR_M/Z 258.0714
MS$FOCUSED_ION: PRECURSOR_TYPE [M+H]+
MS$FOCUSED_ION: PRECURSOR_INTENSITY 2777583.359375
MS$DATA_PROCESSING: RECALIBRATE loess on assigned fragments and MS1
MS$DATA_PROCESSING: REANALYZE Peaks with additional N2/O included
MS$DATA_PROCESSING: WHOLE RMassBank 2.99.2
PK$SPLASH: splash10-004i-1900000000-201bef186262e54c299c
PK$ANNOTATION: m/z tentative_formula formula_count mass error(ppm)
  58.065 C3H8N+ 1 58.0651 -1.43
  63.0227 C5H3+ 1 63.0229 -3.45
  65.0387 C5H5+ 1 65.0386 1.27
  72.0443 C3H6NO+ 1 72.0444 -0.87
  79.0211 C2H7OS+ 1 79.0212 -1.63
  89.0386 C7H5+ 1 89.0386 0.15
  90.0466 C7H6+ 1 90.0464 2.37
  91.0542 C7H7+ 1 91.0542 -0.49
  98.9996 C5H4Cl+ 1 98.9996 0.01
  100.112 C6H14N+ 1 100.1121 -0.44
  125.0153 C7H6Cl+ 1 125.0153 0.41
  138.0125 C7H6OS+ 3 138.0134 -6.53
PK$NUM_PEAK: 12
PK$PEAK: m/z int. rel.int.
  58.065 7913.3 12
  63.0227 2632.6 4
  65.0387 1714.8 2
  72.0443 6685.5 10
  79.0211 3905.7 6
  89.0386 56945.2 91
  90.0466 8837 14
  91.0542 1927.7 3
  98.9996 22705.3 36
  100.112 11564.1 18
  125.0153 622909.6 999
  138.0125 2162.2 3
//
