ACCESSION: MSBNK-LCSB-LU046505
RECORD_TITLE: Methabenzthiazuron; LC-ESI-QFT; MS2; CE: 75; R=17500; [M+H]+
DATE: 2020.08.19
AUTHORS: Elapavalore, A.; Kondić, T.; Singh, R.; Schymanski, E.
LICENSE: CC BY
COPYRIGHT: Copyright © 2019 by Environmental Cheminformatics, LCSB, University of Luxembourg, Luxembourg
PUBLICATION: Elapavalore, A.; Kondić, T.; et al., Adding Open Spectral Data to MassBank and PubChem Using Open Source Tools to Support Non-Targeted Exposomics of Mixtures (submitted).
PROJECT: ENTACT U.S. Environmental Protection Agency’s Non-Targeted Analysis Collaborative Trial
COMMENT: CONFIDENCE standard compound
COMMENT: INTERNAL_ID 465
COMMENT: DATASET 20200303_ENTACT_RP_MIX506
COMMENT: DATA_PROCESSING MERGING RMBmix ver. 0.2.7
COMMENT: DATA_PROCESSING PRESCREENING Shinyscreen ver. 0.8.0
COMMENT: ORIGINAL_ACQUISITION_NO 8593
COMMENT: ORIGINAL_PRECURSOR_SCAN_NO 8591
COMMENT: RAW_DATA available as MSV000091754 at [DOI:10.25345/C5S46HG75]
CH$NAME: Methabenzthiazuron
CH$NAME: 1-(1,3-benzothiazol-2-yl)-1,3-dimethylurea
CH$COMPOUND_CLASS: N/A; Environmental Standard
CH$FORMULA: C10H11N3OS
CH$EXACT_MASS: 221.0623
CH$SMILES: CNC(=O)N(C)C1=NC2=C(S1)C=CC=C2
CH$IUPAC: InChI=1S/C10H11N3OS/c1-11-9(14)13(2)10-12-7-5-3-4-6-8(7)15-10/h3-6H,1-2H3,(H,11,14)
CH$LINK: CAS 18691-97-9
CH$LINK: CHEBI CHEBI:6803
CH$LINK: KEGG C10909
CH$LINK: PUBCHEM CID:29216
CH$LINK: INCHIKEY RRVIAQKBTUQODI-UHFFFAOYSA-N
CH$LINK: CHEMSPIDER 27173
AC$INSTRUMENT: Q Exactive Orbitrap (Thermo Scientific)
AC$INSTRUMENT_TYPE: LC-ESI-QFT
AC$MASS_SPECTROMETRY: MS_TYPE MS2
AC$MASS_SPECTROMETRY: ION_MODE POSITIVE
AC$MASS_SPECTROMETRY: IONIZATION ESI
AC$MASS_SPECTROMETRY: FRAGMENTATION_MODE HCD
AC$MASS_SPECTROMETRY: COLLISION_ENERGY 75
AC$MASS_SPECTROMETRY: RESOLUTION 17500
AC$CHROMATOGRAPHY: COLUMN_NAME Acquity BEH C18 1.7um, 2.1x150mm (Waters)
AC$CHROMATOGRAPHY: FLOW_GRADIENT 90/10 at 0-2 min, 0/100 at 15-20 min, 90/10 at 20.1-30 min
AC$CHROMATOGRAPHY: FLOW_RATE 0.20 mL/min
AC$CHROMATOGRAPHY: RETENTION_TIME 16.489 min
AC$CHROMATOGRAPHY: SOLVENT A 0.1% formic acid
AC$CHROMATOGRAPHY: SOLVENT B methanol
MS$FOCUSED_ION: BASE_PEAK 79.0211
MS$FOCUSED_ION: PRECURSOR_M/Z 222.0696
MS$FOCUSED_ION: PRECURSOR_TYPE [M+H]+
MS$FOCUSED_ION: PRECURSOR_INTENSITY 4976722.8125
MS$DATA_PROCESSING: RECALIBRATE loess on assigned fragments and MS1
MS$DATA_PROCESSING: REANALYZE Peaks with additional N2/O included
MS$DATA_PROCESSING: WHOLE RMassBank 2.99.2
PK$SPLASH: splash10-0uxr-0900000000-6f2856b78bcbb546e19b
PK$ANNOTATION: m/z tentative_formula formula_count mass error(ppm)
  58.0288 C2H4NO+ 1 58.0287 0.95
  65.0386 C5H5+ 1 65.0386 -0.26
  71.0605 C3H7N2+ 1 71.0604 1.1
  80.0495 C5H6N+ 1 80.0495 -0.02
  92.0495 C6H6N+ 1 92.0495 0.56
  94.0653 C6H8N+ 1 94.0651 2.06
  96.003 C5H4S+ 1 96.0028 1.46
  97.0108 C5H5S+ 1 97.0106 1.86
  106.0652 C7H8N+ 1 106.0651 0.56
  109.0107 C6H5S+ 1 109.0106 0.89
  111.0264 C6H7S+ 1 111.0263 1.29
  118.0526 C7H6N2+ 1 118.0525 0.2
  123.0138 C6H5NS+ 1 123.0137 0.45
  123.0263 C7H7S+ 1 123.0263 -0.07
  124.0217 C6H6NS+ 1 124.0215 0.97
  131.0605 C8H7N2+ 1 131.0604 0.87
  132.0683 C8H8N2+ 1 132.0682 0.77
  136.0217 C7H6NS+ 1 136.0215 1.03
  138.0372 C7H8NS+ 1 138.0372 0.28
  149.017 C7H5N2S+ 1 149.0168 1.69
  150.0248 C7H6N2S+ 1 150.0246 0.89
  163.0325 C8H7N2S+ 1 163.0324 0.41
  165.0483 C8H9N2S+ 1 165.0481 0.99
PK$NUM_PEAK: 23
PK$PEAK: m/z int. rel.int.
  58.0288 44649.1 28
  65.0386 20435.9 13
  71.0605 6870 4
  80.0495 55180.1 35
  92.0495 170634.6 109
  94.0653 2910.8 1
  96.003 5534.7 3
  97.0108 5807.6 3
  106.0652 3106.1 1
  109.0107 78936.5 50
  111.0264 3486.7 2
  118.0526 5505.9 3
  123.0138 56563.6 36
  123.0263 3982.6 2
  124.0217 581603.8 371
  131.0605 2532.4 1
  132.0683 27344.2 17
  136.0217 11289.6 7
  138.0372 4753 3
  149.017 4102.1 2
  150.0248 1562241.2 999
  163.0325 25214.7 16
  165.0483 1535139.6 981
//
