ACCESSION: MSBNK-LCSB-LU127054
RECORD_TITLE: Tebufenozide; LC-ESI-QFT; MS2; CE: 60; R=17500; [M-H]-
DATE: 2020.08.19
AUTHORS: Elapavalore, A.; Kondić, T.; Singh, R.; Schymanski, E.
LICENSE: CC BY
COPYRIGHT: Copyright © 2019 by Environmental Cheminformatics, LCSB, University of Luxembourg, Luxembourg
PUBLICATION: Elapavalore, A.; Kondić, T.; et al., Adding Open Spectral Data to MassBank and PubChem Using Open Source Tools to Support Non-Targeted Exposomics of Mixtures (submitted).
PROJECT: ENTACT U.S. Environmental Protection Agency’s Non-Targeted Analysis Collaborative Trial
COMMENT: CONFIDENCE standard compound
COMMENT: INTERNAL_ID 1270
COMMENT: DATASET 20200303_ENTACT_RP_MIX504
COMMENT: DATA_PROCESSING MERGING RMBmix ver. 0.2.7
COMMENT: DATA_PROCESSING PRESCREENING Shinyscreen ver. 0.8.0
COMMENT: ORIGINAL_ACQUISITION_NO 4696
COMMENT: ORIGINAL_PRECURSOR_SCAN_NO 4694
COMMENT: RAW_DATA available as MSV000091754 at [DOI:10.25345/C5S46HG75]
CH$NAME: Tebufenozide
CH$NAME: N-tert-butyl-N'-(4-ethylbenzoyl)-3,5-dimethylbenzohydrazide
CH$COMPOUND_CLASS: N/A; Environmental Standard
CH$FORMULA: C22H28N2O2
CH$EXACT_MASS: 352.2151
CH$SMILES: CCC1=CC=C(C=C1)C(=O)NN(C(=O)C1=CC(C)=CC(C)=C1)C(C)(C)C
CH$IUPAC: InChI=1S/C22H28N2O2/c1-7-17-8-10-18(11-9-17)20(25)23-24(22(4,5)6)21(26)19-13-15(2)12-16(3)14-19/h8-14H,7H2,1-6H3,(H,23,25)
CH$LINK: CAS 112410-23-8
CH$LINK: CHEBI CHEBI:38452
CH$LINK: KEGG C18526
CH$LINK: PUBCHEM CID:91773
CH$LINK: INCHIKEY QYPNKSZPJQQLRK-UHFFFAOYSA-N
CH$LINK: CHEMSPIDER 82870
AC$INSTRUMENT: Q Exactive Orbitrap (Thermo Scientific)
AC$INSTRUMENT_TYPE: LC-ESI-QFT
AC$MASS_SPECTROMETRY: MS_TYPE MS2
AC$MASS_SPECTROMETRY: ION_MODE NEGATIVE
AC$MASS_SPECTROMETRY: IONIZATION ESI
AC$MASS_SPECTROMETRY: FRAGMENTATION_MODE HCD
AC$MASS_SPECTROMETRY: COLLISION_ENERGY 60
AC$MASS_SPECTROMETRY: RESOLUTION 17500
AC$CHROMATOGRAPHY: COLUMN_NAME Acquity BEH C18 1.7um, 2.1x150mm (Waters)
AC$CHROMATOGRAPHY: FLOW_GRADIENT 90/10 at 0-2 min, 0/100 at 15-20 min, 90/10 at 20.1-30 min
AC$CHROMATOGRAPHY: FLOW_RATE 0.20 mL/min
AC$CHROMATOGRAPHY: RETENTION_TIME 18.217 min
AC$CHROMATOGRAPHY: SOLVENT A 0.1% formic acid
AC$CHROMATOGRAPHY: SOLVENT B methanol
MS$FOCUSED_ION: BASE_PEAK 246.0326
MS$FOCUSED_ION: PRECURSOR_M/Z 351.2078
MS$FOCUSED_ION: PRECURSOR_TYPE [M-H]-
MS$FOCUSED_ION: PRECURSOR_INTENSITY 47810758.69727
MS$DATA_PROCESSING: RECALIBRATE loess on assigned fragments and MS1
MS$DATA_PROCESSING: REANALYZE Peaks with additional N2/O included
MS$DATA_PROCESSING: WHOLE RMassBank 2.99.2
PK$SPLASH: splash10-052b-0900000000-d00e52c032fbb07c1b09
PK$ANNOTATION: m/z tentative_formula formula_count mass error(ppm)
  93.0347 C6H5O- 1 93.0346 0.97
  94.0424 C6H6O- 1 94.0424 -0.05
  105.071 C8H9- 1 105.071 -0.21
  107.0503 C7H7O- 1 107.0502 0.47
  121.0658 C8H9O- 1 121.0659 -0.4
  122.0373 C7H6O2- 1 122.0373 -0.12
  136.0527 C8H8O2- 1 136.053 -2.21
  145.0772 C9H9N2- 1 145.0771 0.44
  148.0769 C9H10NO- 1 148.0768 0.63
  149.0607 C9H9O2- 1 149.0608 -0.55
  160.0646 C9H8N2O- 1 160.0642 2.34
  161.0724 C9H9N2O- 1 161.072 2.25
  189.067 C10H9N2O2- 1 189.067 0.3
  204.1391 C13H18NO- 1 204.1394 -1.51
PK$NUM_PEAK: 14
PK$PEAK: m/z int. rel.int.
  93.0347 6976 1
  94.0424 9885.7 2
  105.071 2446984.8 518
  107.0503 14734.3 3
  121.0658 37954.5 8
  122.0373 134954.9 28
  136.0527 7438.9 1
  145.0772 27841.9 5
  148.0769 42930.6 9
  149.0607 4716009.5 999
  160.0646 7496.3 1
  161.0724 6440.5 1
  189.067 87418.8 18
  204.1391 32811.5 6
//
