ACCESSION: MSBNK-LCSB-LU017201
RECORD_TITLE: 4,4`-Sulfonylbis[2-(prop-2-en-1-yl)phenol]; LC-ESI-QFT; MS2; CE: 15; R=17500; [M+H]+
DATE: 2020.08.19
AUTHORS: Elapavalore, A.; Kondić, T.; Singh, R.; Schymanski, E.
LICENSE: CC BY
COPYRIGHT: Copyright © 2019 by Environmental Cheminformatics, LCSB, University of Luxembourg, Luxembourg
PUBLICATION: Elapavalore, A.; Kondić, T.; et al., Adding Open Spectral Data to MassBank and PubChem Using Open Source Tools to Support Non-Targeted Exposomics of Mixtures (submitted).
PROJECT: ENTACT U.S. Environmental Protection Agency’s Non-Targeted Analysis Collaborative Trial
COMMENT: CONFIDENCE standard compound
COMMENT: INTERNAL_ID 172
COMMENT: DATASET 20200303_ENTACT_RP_MIX500
COMMENT: DATA_PROCESSING MERGING RMBmix ver. 0.2.7
COMMENT: DATA_PROCESSING PRESCREENING Shinyscreen ver. 0.8.0
COMMENT: ORIGINAL_ACQUISITION_NO 8887
COMMENT: ORIGINAL_PRECURSOR_SCAN_NO 8885
COMMENT: RAW_DATA available as MSV000091754 at [DOI:10.25345/C5S46HG75]
CH$NAME: 4,4'-Sulfonylbis[2-(prop-2-en-1-yl)phenol]
CH$NAME: Phenol, 4,4'-sulfonylbis[2-(2-propenyl)-
CH$NAME: 4-(4-hydroxy-3-prop-2-enylphenyl)sulfonyl-2-prop-2-enylphenol
CH$COMPOUND_CLASS: N/A; Environmental Standard
CH$FORMULA: C18H18O4S
CH$EXACT_MASS: 330.0926
CH$SMILES: OC1=C(CC=C)C=C(C=C1)S(=O)(=O)C1=CC(CC=C)=C(O)C=C1
CH$IUPAC: InChI=1S/C18H18O4S/c1-3-5-13-11-15(7-9-17(13)19)23(21,22)16-8-10-18(20)14(12-16)6-4-2/h3-4,7-12,19-20H,1-2,5-6H2
CH$LINK: CAS 41481-66-7
CH$LINK: PUBCHEM CID:833466
CH$LINK: INCHIKEY MTMKZABGIQJAEX-UHFFFAOYSA-N
CH$LINK: CHEMSPIDER 727854
AC$INSTRUMENT: Q Exactive Orbitrap (Thermo Scientific)
AC$INSTRUMENT_TYPE: LC-ESI-QFT
AC$MASS_SPECTROMETRY: MS_TYPE MS2
AC$MASS_SPECTROMETRY: ION_MODE POSITIVE
AC$MASS_SPECTROMETRY: IONIZATION ESI
AC$MASS_SPECTROMETRY: FRAGMENTATION_MODE HCD
AC$MASS_SPECTROMETRY: COLLISION_ENERGY 15
AC$MASS_SPECTROMETRY: RESOLUTION 17500
AC$CHROMATOGRAPHY: COLUMN_NAME Acquity BEH C18 1.7um, 2.1x150mm (Waters)
AC$CHROMATOGRAPHY: FLOW_GRADIENT 90/10 at 0-2 min, 0/100 at 15-20 min, 90/10 at 20.1-30 min
AC$CHROMATOGRAPHY: FLOW_RATE 0.20 mL/min
AC$CHROMATOGRAPHY: RETENTION_TIME 17.082 min
AC$CHROMATOGRAPHY: SOLVENT A 0.1% formic acid
AC$CHROMATOGRAPHY: SOLVENT B methanol
MS$FOCUSED_ION: BASE_PEAK 79.0211
MS$FOCUSED_ION: PRECURSOR_M/Z 331.0999
MS$FOCUSED_ION: PRECURSOR_TYPE [M+H]+
MS$FOCUSED_ION: PRECURSOR_INTENSITY 5459534.71875
MS$DATA_PROCESSING: RECALIBRATE loess on assigned fragments and MS1
MS$DATA_PROCESSING: REANALYZE Peaks with additional N2/O included
MS$DATA_PROCESSING: WHOLE RMassBank 2.99.2
PK$SPLASH: splash10-001i-0109000000-b5b00b0226286adfd80e
PK$ANNOTATION: m/z tentative_formula formula_count mass error(ppm)
  105.0699 C8H9+ 1 105.0699 0.37
  133.0647 C9H9O+ 1 133.0648 -0.39
  145.0649 C10H9O+ 1 145.0648 0.62
  149.0597 C9H9O2+ 1 149.0597 -0.08
  151.0754 C9H11O2+ 1 151.0754 0.57
  156.9953 C6H5O3S+ 1 156.9954 -0.35
  173.0962 C12H13O+ 1 173.0961 0.59
  197.0268 C9H9O3S+ 1 197.0267 0.43
  263.037 C13H11O4S+ 2 263.0373 -1.15
  303.0685 C16H15O4S+ 1 303.0686 -0.21
  331.0999 C18H19O4S+ 1 331.0999 0
PK$NUM_PEAK: 11
PK$PEAK: m/z int. rel.int.
  105.0699 5001.6 1
  133.0647 77587.4 15
  145.0649 13712.6 2
  149.0597 48615 9
  151.0754 7719.5 1
  156.9953 36248.6 7
  173.0962 9720.2 1
  197.0268 556385.6 112
  263.037 6056.2 1
  303.0685 65358.9 13
  331.0999 4937568.5 999
//
