ACCESSION: MSBNK-LCSB-LU033106
RECORD_TITLE: Pyridaben; LC-ESI-QFT; MS2; CE: 90; R=17500; [M+H]+
DATE: 2020.08.19
AUTHORS: Elapavalore, A.; Kondić, T.; Singh, R.; Schymanski, E.
LICENSE: CC BY
COPYRIGHT: Copyright © 2019 by Environmental Cheminformatics, LCSB, University of Luxembourg, Luxembourg
PUBLICATION: Elapavalore, A.; Kondić, T.; et al., Adding Open Spectral Data to MassBank and PubChem Using Open Source Tools to Support Non-Targeted Exposomics of Mixtures (submitted).
PROJECT: ENTACT U.S. Environmental Protection Agency’s Non-Targeted Analysis Collaborative Trial
COMMENT: CONFIDENCE standard compound
COMMENT: INTERNAL_ID 331
COMMENT: DATASET 20200303_ENTACT_RP_MIX499
COMMENT: DATA_PROCESSING MERGING RMBmix ver. 0.2.7
COMMENT: DATA_PROCESSING PRESCREENING Shinyscreen ver. 0.8.0
COMMENT: ORIGINAL_ACQUISITION_NO 10598
COMMENT: ORIGINAL_PRECURSOR_SCAN_NO 10596
COMMENT: RAW_DATA available as MSV000091754 at [DOI:10.25345/C5S46HG75]
CH$NAME: Pyridaben
CH$COMPOUND_CLASS: N/A; Environmental Standard
CH$FORMULA: C19H25ClN2OS
CH$EXACT_MASS: 364.1376
CH$SMILES: CC(C)(C)N1N=CC(SCC2=CC=C(C=C2)C(C)(C)C)=C(Cl)C1=O
CH$IUPAC: InChI=1S/C19H25ClN2OS/c1-18(2,3)14-9-7-13(8-10-14)12-24-15-11-21-22(19(4,5)6)17(23)16(15)20/h7-11H,12H2,1-6H3
CH$LINK: CAS 2793-06-8
CH$LINK: CHEBI CHEBI:38626
CH$LINK: KEGG C18614
CH$LINK: PUBCHEM CID:91754
CH$LINK: INCHIKEY DWFZBUWUXWZWKD-UHFFFAOYSA-N
CH$LINK: CHEMSPIDER 82852
AC$INSTRUMENT: Q Exactive Orbitrap (Thermo Scientific)
AC$INSTRUMENT_TYPE: LC-ESI-QFT
AC$MASS_SPECTROMETRY: MS_TYPE MS2
AC$MASS_SPECTROMETRY: ION_MODE POSITIVE
AC$MASS_SPECTROMETRY: IONIZATION ESI
AC$MASS_SPECTROMETRY: FRAGMENTATION_MODE HCD
AC$MASS_SPECTROMETRY: COLLISION_ENERGY 90
AC$MASS_SPECTROMETRY: RESOLUTION 17500
AC$CHROMATOGRAPHY: COLUMN_NAME Acquity BEH C18 1.7um, 2.1x150mm (Waters)
AC$CHROMATOGRAPHY: FLOW_GRADIENT 90/10 at 0-2 min, 0/100 at 15-20 min, 90/10 at 20.1-30 min
AC$CHROMATOGRAPHY: FLOW_RATE 0.20 mL/min
AC$CHROMATOGRAPHY: RETENTION_TIME 20.420 min
AC$CHROMATOGRAPHY: SOLVENT A 0.1% formic acid
AC$CHROMATOGRAPHY: SOLVENT B methanol
MS$FOCUSED_ION: BASE_PEAK 79.0212
MS$FOCUSED_ION: PRECURSOR_M/Z 365.1449
MS$FOCUSED_ION: PRECURSOR_TYPE [M+H]+
MS$FOCUSED_ION: PRECURSOR_INTENSITY 17539455.25
MS$DATA_PROCESSING: RECALIBRATE loess on assigned fragments and MS1
MS$DATA_PROCESSING: REANALYZE Peaks with additional N2/O included
MS$DATA_PROCESSING: WHOLE RMassBank 2.99.2
PK$SPLASH: splash10-0159-0900000000-07372c7fa5c2fcbae072
PK$ANNOTATION: m/z tentative_formula formula_count mass error(ppm)
  53.0386 C4H5+ 1 53.0386 0.04
  55.0543 C4H7+ 1 55.0542 0.56
  57.07 C4H9+ 1 57.0699 1.39
  65.0386 C5H5+ 1 65.0386 -0.26
  67.0543 C5H7+ 1 67.0542 1.79
  69.0698 C5H9+ 1 69.0699 -1.22
  79.0542 C6H7+ 1 79.0542 -0.21
  91.0543 C7H7+ 1 91.0542 0.34
  93.0699 C7H9+ 1 93.0699 0.21
  103.0543 C8H7+ 1 103.0542 0.34
  104.0621 C8H8+ 1 104.0621 0.09
  105.0699 C8H9+ 1 105.0699 0.49
  107.0855 C8H11+ 1 107.0855 0.14
  109.065 C7H9O+ 2 109.0648 1.55
  115.0543 C9H7+ 1 115.0542 0.24
  116.0621 C9H8+ 1 116.0621 0.21
  117.0699 C9H9+ 1 117.0699 0.25
  119.0856 C9H11+ 1 119.0855 0.58
  129.0695 C10H9+ 1 129.0699 -3.27
  131.0856 C10H11+ 1 131.0855 0.44
  132.0934 C10H12+ 1 132.0934 0.35
  145.1011 C11H13+ 1 145.1012 -0.67
  147.1168 C11H15+ 1 147.1168 0.11
PK$NUM_PEAK: 23
PK$PEAK: m/z int. rel.int.
  53.0386 5071.4 4
  55.0543 34349.1 27
  57.07 3847.6 3
  65.0386 7976.5 6
  67.0543 3281.8 2
  69.0698 6891.2 5
  79.0542 44651 35
  91.0543 213366.6 169
  93.0699 19823.4 15
  103.0543 29158.3 23
  104.0621 93125.6 74
  105.0699 359057.6 285
  107.0855 48479.7 38
  109.065 6913.2 5
  115.0543 45696.4 36
  116.0621 8181.5 6
  117.0699 1256280.9 999
  119.0856 388428.6 308
  129.0695 5948.3 4
  131.0856 68583.2 54
  132.0934 835088.8 664
  145.1011 14342.9 11
  147.1168 108595.9 86
//
