ACCESSION: MSBNK-LCSB-LU031101
RECORD_TITLE: MK-547; LC-ESI-QFT; MS2; CE: 15; R=17500; [M+H]+
DATE: 2020.08.19
AUTHORS: Elapavalore, A.; Kondić, T.; Singh, R.; Schymanski, E.
LICENSE: CC BY
COPYRIGHT: Copyright © 2019 by Environmental Cheminformatics, LCSB, University of Luxembourg, Luxembourg
PUBLICATION: Elapavalore, A.; Kondić, T.; et al., Adding Open Spectral Data to MassBank and PubChem Using Open Source Tools to Support Non-Targeted Exposomics of Mixtures (submitted).
PROJECT: ENTACT U.S. Environmental Protection Agency’s Non-Targeted Analysis Collaborative Trial
COMMENT: CONFIDENCE standard compound
COMMENT: INTERNAL_ID 311
COMMENT: DATASET 20200303_ENTACT_RP_MIX505
COMMENT: DATA_PROCESSING MERGING RMBmix ver. 0.2.7
COMMENT: DATA_PROCESSING PRESCREENING Shinyscreen ver. 0.8.0
COMMENT: ORIGINAL_ACQUISITION_NO 9776
COMMENT: ORIGINAL_PRECURSOR_SCAN_NO 9774
COMMENT: RAW_DATA available as MSV000091754 at [DOI:10.25345/C5S46HG75]
CH$NAME: MK-547
CH$NAME: J-104132
CH$NAME: (5S,6R,7R)-5-(1,3-benzodioxol-5-yl)-2-butyl-7-[2-[(2S)-2-carboxypropyl]-4-methoxyphenyl]-6,7-dihydro-5H-cyclopenta[b]pyridine-6-carboxylic acid
CH$COMPOUND_CLASS: N/A; Environmental Standard
CH$FORMULA: C31H33NO7
CH$EXACT_MASS: 531.2257
CH$SMILES: CCCCc1ccc2c(n1)[C@@H](c1ccc(OC)cc1C[C@H](C)C(O)=O)[C@H](C(O)=O)[C@H]2c1ccc2c(c1)OCO2
CH$IUPAC: InChI=1S/C31H33NO7/c1-4-5-6-20-8-10-23-26(18-7-12-24-25(15-18)39-16-38-24)28(31(35)36)27(29(23)32-20)22-11-9-21(37-3)14-19(22)13-17(2)30(33)34/h7-12,14-15,17,26-28H,4-6,13,16H2,1-3H3,(H,33,34)(H,35,36)/t17-,26-,27-,28+/m0/s1
CH$LINK: CAS 2549-50-0
CH$LINK: PUBCHEM CID:186002
CH$LINK: INCHIKEY IUHMIOAKWHUFKU-YINIXLNUSA-N
CH$LINK: CHEMSPIDER 161679
AC$INSTRUMENT: Q Exactive Orbitrap (Thermo Scientific)
AC$INSTRUMENT_TYPE: LC-ESI-QFT
AC$MASS_SPECTROMETRY: MS_TYPE MS2
AC$MASS_SPECTROMETRY: ION_MODE POSITIVE
AC$MASS_SPECTROMETRY: IONIZATION ESI
AC$MASS_SPECTROMETRY: FRAGMENTATION_MODE HCD
AC$MASS_SPECTROMETRY: COLLISION_ENERGY 15
AC$MASS_SPECTROMETRY: RESOLUTION 17500
AC$CHROMATOGRAPHY: COLUMN_NAME Acquity BEH C18 1.7um, 2.1x150mm (Waters)
AC$CHROMATOGRAPHY: FLOW_GRADIENT 90/10 at 0-2 min, 0/100 at 15-20 min, 90/10 at 20.1-30 min
AC$CHROMATOGRAPHY: FLOW_RATE 0.20 mL/min
AC$CHROMATOGRAPHY: RETENTION_TIME 18.582 min
AC$CHROMATOGRAPHY: SOLVENT A 0.1% formic acid
AC$CHROMATOGRAPHY: SOLVENT B methanol
MS$FOCUSED_ION: BASE_PEAK 79.0212
MS$FOCUSED_ION: PRECURSOR_M/Z 532.233
MS$FOCUSED_ION: PRECURSOR_TYPE [M+H]+
MS$FOCUSED_ION: PRECURSOR_INTENSITY 21729364
MS$DATA_PROCESSING: RECALIBRATE loess on assigned fragments and MS1
MS$DATA_PROCESSING: REANALYZE Peaks with additional N2/O included
MS$DATA_PROCESSING: WHOLE RMassBank 2.99.2
PK$SPLASH: splash10-001i-0000090000-314622a0efa7b62f3da7
PK$ANNOTATION: m/z tentative_formula formula_count mass error(ppm)
  177.091 C11H13O2+ 1 177.091 -0.22
  294.1488 C19H20NO2+ 2 294.1489 -0.34
  338.1386 C20H20NO4+ 2 338.1387 -0.31
  514.2229 C31H32NO6+ 1 514.2224 0.96
  517.2119 C30H31NO7+ 1 517.2095 4.67
  532.2332 C31H34NO7+ 1 532.233 0.32
PK$NUM_PEAK: 6
PK$PEAK: m/z int. rel.int.
  177.091 95219.8 4
  294.1488 31035.3 1
  338.1386 123643.3 6
  514.2229 70220.7 3
  517.2119 20347.5 1
  532.2332 19250324 999
//
