ACCESSION: MSBNK-LCSB-LU079653
RECORD_TITLE: Apomorphine; LC-ESI-QFT; MS2; CE: 45; R=17500; [M-H]-
DATE: 2020.08.19
AUTHORS: Elapavalore, A.; Kondić, T.; Singh, R.; Schymanski, E.
LICENSE: CC BY
COPYRIGHT: Copyright © 2019 by Environmental Cheminformatics, LCSB, University of Luxembourg, Luxembourg
PUBLICATION: Elapavalore, A.; Kondić, T.; et al., Adding Open Spectral Data to MassBank and PubChem Using Open Source Tools to Support Non-Targeted Exposomics of Mixtures (submitted).
PROJECT: ENTACT U.S. Environmental Protection Agency’s Non-Targeted Analysis Collaborative Trial
COMMENT: CONFIDENCE standard compound
COMMENT: INTERNAL_ID 796
COMMENT: DATASET 20200303_ENTACT_RP_MIX508
COMMENT: DATA_PROCESSING MERGING RMBmix ver. 0.2.7
COMMENT: DATA_PROCESSING PRESCREENING Shinyscreen ver. 0.8.0
COMMENT: ORIGINAL_ACQUISITION_NO 2761
COMMENT: ORIGINAL_PRECURSOR_SCAN_NO 2760
COMMENT: RAW_DATA available as MSV000091754 at [DOI:10.25345/C5S46HG75]
CH$NAME: Apomorphine
CH$NAME: (6aR)-6-methyl-5,6,6a,7-tetrahydro-4H-dibenzo[de,g]quinoline-10,11-diol
CH$COMPOUND_CLASS: N/A; Environmental Standard
CH$FORMULA: C17H17NO2
CH$EXACT_MASS: 267.1259
CH$SMILES: CN1CCc2cccc3c2[C@H]1Cc1ccc(O)c(O)c1-3
CH$IUPAC: InChI=1S/C17H17NO2/c1-18-8-7-10-3-2-4-12-15(10)13(18)9-11-5-6-14(19)17(20)16(11)12/h2-6,13,19-20H,7-9H2,1H3/t13-/m1/s1
CH$LINK: CAS 58-00-4
CH$LINK: CHEBI CHEBI:48538
CH$LINK: KEGG D07460
CH$LINK: PUBCHEM CID:6005
CH$LINK: INCHIKEY VMWNQDUVQKEIOC-CYBMUJFWSA-N
CH$LINK: CHEMSPIDER 5783
AC$INSTRUMENT: Q Exactive Orbitrap (Thermo Scientific)
AC$INSTRUMENT_TYPE: LC-ESI-QFT
AC$MASS_SPECTROMETRY: MS_TYPE MS2
AC$MASS_SPECTROMETRY: ION_MODE NEGATIVE
AC$MASS_SPECTROMETRY: IONIZATION ESI
AC$MASS_SPECTROMETRY: FRAGMENTATION_MODE HCD
AC$MASS_SPECTROMETRY: COLLISION_ENERGY 45
AC$MASS_SPECTROMETRY: RESOLUTION 17500
AC$CHROMATOGRAPHY: COLUMN_NAME Acquity BEH C18 1.7um, 2.1x150mm (Waters)
AC$CHROMATOGRAPHY: FLOW_GRADIENT 90/10 at 0-2 min, 0/100 at 15-20 min, 90/10 at 20.1-30 min
AC$CHROMATOGRAPHY: FLOW_RATE 0.20 mL/min
AC$CHROMATOGRAPHY: RETENTION_TIME 11.104 min
AC$CHROMATOGRAPHY: SOLVENT A 0.1% formic acid
AC$CHROMATOGRAPHY: SOLVENT B methanol
MS$FOCUSED_ION: BASE_PEAK 266.1186
MS$FOCUSED_ION: PRECURSOR_M/Z 266.1187
MS$FOCUSED_ION: PRECURSOR_TYPE [M-H]-
MS$FOCUSED_ION: PRECURSOR_INTENSITY 5275628.56958
MS$DATA_PROCESSING: RECALIBRATE loess on assigned fragments and MS1
MS$DATA_PROCESSING: REANALYZE Peaks with additional N2/O included
MS$DATA_PROCESSING: WHOLE RMassBank 2.99.2
PK$SPLASH: splash10-01b9-0090000000-7b915e9b696b31d043c0
PK$ANNOTATION: m/z tentative_formula formula_count mass error(ppm)
  167.0865 C13H11- 1 167.0866 -1
  179.0867 C14H11- 1 179.0866 0.36
  195.0815 C14H11O- 1 195.0815 -0.16
  205.0663 C15H9O- 1 205.0659 1.83
  208.0529 C14H8O2- 1 208.053 -0.17
  222.0686 C15H10O2- 1 222.0686 -0.04
  223.0764 C15H11O2- 1 223.0765 -0.04
  235.0767 C16H11O2- 1 235.0765 0.94
  236.0718 C15H10NO2- 1 236.0717 0.24
  248.072 C16H10NO2- 1 248.0717 1.4
  249.0795 C16H11NO2- 1 249.0795 0.05
  250.0873 C16H12NO2- 1 250.0874 -0.25
  251.0952 C16H13NO2- 1 251.0952 0.12
  264.103 C17H14NO2- 1 264.103 0.09
  266.1186 C17H16NO2- 1 266.1187 -0.23
PK$NUM_PEAK: 15
PK$PEAK: m/z int. rel.int.
  167.0865 7324.6 3
  179.0867 8597.9 3
  195.0815 5682.4 2
  205.0663 2405.3 1
  208.0529 7935.6 3
  222.0686 66787.2 28
  223.0764 1261762.5 546
  235.0767 9706.4 4
  236.0718 7100.4 3
  248.072 14183.8 6
  249.0795 34531.2 14
  250.0873 69262.4 29
  251.0952 13225.3 5
  264.103 29827.6 12
  266.1186 2307193.2 999
//
