ACCESSION: MSBNK-LCSB-LU064005
RECORD_TITLE: 6-Thioguanine; LC-ESI-QFT; MS2; CE: 75; R=17500; [M+H]+
DATE: 2020.08.19
AUTHORS: Elapavalore, A.; Kondić, T.; Singh, R.; Schymanski, E.
LICENSE: CC BY
COPYRIGHT: Copyright © 2019 by Environmental Cheminformatics, LCSB, University of Luxembourg, Luxembourg
PUBLICATION: Elapavalore, A.; Kondić, T.; et al., Adding Open Spectral Data to MassBank and PubChem Using Open Source Tools to Support Non-Targeted Exposomics of Mixtures (submitted).
PROJECT: ENTACT U.S. Environmental Protection Agency’s Non-Targeted Analysis Collaborative Trial
COMMENT: CONFIDENCE standard compound
COMMENT: INTERNAL_ID 640
COMMENT: DATASET 20200303_ENTACT_RP_MIX506
COMMENT: DATA_PROCESSING MERGING RMBmix ver. 0.2.7
COMMENT: DATA_PROCESSING PRESCREENING Shinyscreen ver. 0.8.0
COMMENT: ORIGINAL_ACQUISITION_NO 1575
COMMENT: ORIGINAL_PRECURSOR_SCAN_NO 1574
COMMENT: RAW_DATA available as MSV000091754 at [DOI:10.25345/C5S46HG75]
CH$NAME: 6-Thioguanine
CH$NAME: 2-amino-7H-purine-6-thiol
CH$COMPOUND_CLASS: N/A; Environmental Standard
CH$FORMULA: C5H5N5S
CH$EXACT_MASS: 167.0266
CH$SMILES: NC1=NC2=C(NC=N2)C(=S)N1
CH$IUPAC: InChI=1S/C5H5N5S/c6-5-9-3-2(4(11)10-5)7-1-8-3/h1H,(H4,6,7,8,9,10,11)
CH$LINK: CAS 154-42-7
CH$LINK: CHEBI CHEBI:9555
CH$LINK: CHEMSPIDER 2005804
CH$LINK: INCHIKEY WYWHKKSPHMUBEB-UHFFFAOYSA-N
CH$LINK: KEGG C07648
CH$LINK: PUBCHEM CID:2723601
AC$INSTRUMENT: Q Exactive Orbitrap (Thermo Scientific)
AC$INSTRUMENT_TYPE: LC-ESI-QFT
AC$MASS_SPECTROMETRY: MS_TYPE MS2
AC$MASS_SPECTROMETRY: ION_MODE POSITIVE
AC$MASS_SPECTROMETRY: IONIZATION ESI
AC$MASS_SPECTROMETRY: FRAGMENTATION_MODE HCD
AC$MASS_SPECTROMETRY: COLLISION_ENERGY 75
AC$MASS_SPECTROMETRY: RESOLUTION 17500
AC$CHROMATOGRAPHY: COLUMN_NAME Acquity BEH C18 1.7um, 2.1x150mm (Waters)
AC$CHROMATOGRAPHY: FLOW_GRADIENT 90/10 at 0-2 min, 0/100 at 15-20 min, 90/10 at 20.1-30 min
AC$CHROMATOGRAPHY: FLOW_RATE 0.20 mL/min
AC$CHROMATOGRAPHY: RETENTION_TIME 3.077 min
AC$CHROMATOGRAPHY: SOLVENT A 0.1% formic acid
AC$CHROMATOGRAPHY: SOLVENT B methanol
MS$FOCUSED_ION: BASE_PEAK 79.0211
MS$FOCUSED_ION: PRECURSOR_M/Z 168.0338
MS$FOCUSED_ION: PRECURSOR_TYPE [M+H]+
MS$FOCUSED_ION: PRECURSOR_INTENSITY 4481282
MS$DATA_PROCESSING: RECALIBRATE loess on assigned fragments and MS1
MS$DATA_PROCESSING: REANALYZE Peaks with additional N2/O included
MS$DATA_PROCESSING: WHOLE RMassBank 2.99.2
PK$SPLASH: splash10-0ue9-0900000000-04068909b02e76ad1a30
PK$ANNOTATION: m/z tentative_formula formula_count mass error(ppm)
  55.0291 C2H3N2+ 1 55.0291 1.17
  62.0059 CH4NS+ 1 62.0059 -0.67
  65.0134 C3HN2+ 1 65.0134 -0.17
  67.0291 C3H3N2+ 1 67.0291 -0.17
  68.0243 C2H2N3+ 1 68.0243 -0.73
  69.9745 C2NS+ 1 69.9746 -0.89
  71.9902 C2H2NS+ 1 71.9902 -0.8
  80.0243 C3H2N3+ 1 80.0243 -0.62
  81.9745 C3NS+ 1 81.9746 -0.84
  82.04 C3H4N3+ 1 82.04 0.45
  83.9903 C3H2NS+ 1 83.9902 0.35
  87.0013 C2H3N2S+ 1 87.0011 1.42
  92.0243 C4H2N3+ 1 92.0243 0.13
  93.0322 C4H3N3+ 1 93.0321 0.72
  96.9855 C3HN2S+ 1 96.9855 0.34
  99.0011 C3H3N2S+ 1 99.0011 0.01
  107.0352 C4H3N4+ 1 107.0352 0.24
  108.9855 C4HN2S+ 1 108.9855 0.39
  109.0509 C4H5N4+ 1 109.0509 0.45
  114.0124 C3H4N3S+ 1 114.012 3.24
  123.9965 C4H2N3S+ 1 123.9964 0.59
  126.0121 C4H4N3S+ 1 126.012 0.27
  134.0461 C5H4N5+ 1 134.0461 -0.04
  136.062 C5H6N5+ 1 136.0618 1.46
  141.0228 C4H5N4S+ 1 141.0229 -0.8
  151.0073 C5H3N4S+ 1 151.0073 0.13
  168.0339 C5H6N5S+ 1 168.0338 0.26
PK$NUM_PEAK: 27
PK$PEAK: m/z int. rel.int.
  55.0291 13674.3 5
  62.0059 2981.9 1
  65.0134 2554.8 1
  67.0291 9454.2 4
  68.0243 4981 2
  69.9745 2609.4 1
  71.9902 24663.1 10
  80.0243 52232.5 22
  81.9745 38304.3 16
  82.04 16115.9 6
  83.9903 58533 25
  87.0013 4724.5 2
  92.0243 77475.6 33
  93.0322 7012.8 2
  96.9855 25916.4 11
  99.0011 85048.9 36
  107.0352 511960.1 218
  108.9855 239985.8 102
  109.0509 89128.6 38
  114.0124 2727.7 1
  123.9965 70135.6 29
  126.0121 735855.1 314
  134.0461 1277528.8 545
  136.062 4760.1 2
  141.0228 3326.5 1
  151.0073 2338873.8 999
  168.0339 420723.6 179
//
