ACCESSION: MSBNK-LCSB-LU131205
RECORD_TITLE: Aldoxycarb; LC-ESI-QFT; MS2; CE: 75; R=17500; [M+H]+
DATE: 2020.08.19
AUTHORS: Elapavalore, A.; Kondić, T.; Singh, R.; Schymanski, E.
LICENSE: CC BY
COPYRIGHT: Copyright © 2019 by Environmental Cheminformatics, LCSB, University of Luxembourg, Luxembourg
PUBLICATION: Elapavalore, A.; Kondić, T.; et al., Adding Open Spectral Data to MassBank and PubChem Using Open Source Tools to Support Non-Targeted Exposomics of Mixtures (submitted).
PROJECT: ENTACT U.S. Environmental Protection Agency’s Non-Targeted Analysis Collaborative Trial
COMMENT: CONFIDENCE standard compound
COMMENT: INTERNAL_ID 1312
COMMENT: DATASET 20200303_ENTACT_RP_MIX504
COMMENT: DATA_PROCESSING MERGING RMBmix ver. 0.2.7
COMMENT: DATA_PROCESSING PRESCREENING Shinyscreen ver. 0.8.0
COMMENT: ORIGINAL_ACQUISITION_NO 5181
COMMENT: ORIGINAL_PRECURSOR_SCAN_NO 5176
COMMENT: RAW_DATA available as MSV000091754 at [DOI:10.25345/C5S46HG75]
CH$NAME: Aldoxycarb
CH$NAME: [(E)-(2-methyl-2-methylsulfonylpropylidene)amino] N-methylcarbamate
CH$COMPOUND_CLASS: N/A; Environmental Standard
CH$FORMULA: C7H14N2O4S
CH$EXACT_MASS: 222.0674
CH$SMILES: CNC(=O)O\N=C\C(C)(C)S(C)(=O)=O
CH$IUPAC: InChI=1S/C7H14N2O4S/c1-7(2,14(4,11)12)5-9-13-6(10)8-3/h5H,1-4H3,(H,8,10)/b9-5+
CH$LINK: CAS 1646-88-4
CH$LINK: CHEBI CHEBI:82051
CH$LINK: KEGG C18906
CH$LINK: PUBCHEM CID:9570093
CH$LINK: INCHIKEY YRRKLBAKDXSTNC-WEVVVXLNSA-N
CH$LINK: CHEMSPIDER 7844561
AC$INSTRUMENT: Q Exactive Orbitrap (Thermo Scientific)
AC$INSTRUMENT_TYPE: LC-ESI-QFT
AC$MASS_SPECTROMETRY: MS_TYPE MS2
AC$MASS_SPECTROMETRY: ION_MODE POSITIVE
AC$MASS_SPECTROMETRY: IONIZATION ESI
AC$MASS_SPECTROMETRY: FRAGMENTATION_MODE HCD
AC$MASS_SPECTROMETRY: COLLISION_ENERGY 75
AC$MASS_SPECTROMETRY: RESOLUTION 17500
AC$CHROMATOGRAPHY: COLUMN_NAME Acquity BEH C18 1.7um, 2.1x150mm (Waters)
AC$CHROMATOGRAPHY: FLOW_GRADIENT 90/10 at 0-2 min, 0/100 at 15-20 min, 90/10 at 20.1-30 min
AC$CHROMATOGRAPHY: FLOW_RATE 0.20 mL/min
AC$CHROMATOGRAPHY: RETENTION_TIME 9.939 min
AC$CHROMATOGRAPHY: SOLVENT A 0.1% formic acid
AC$CHROMATOGRAPHY: SOLVENT B methanol
MS$FOCUSED_ION: BASE_PEAK 79.0212
MS$FOCUSED_ION: PRECURSOR_M/Z 223.0747
MS$FOCUSED_ION: PRECURSOR_TYPE [M+H]+
MS$FOCUSED_ION: PRECURSOR_INTENSITY 796358.8125
MS$DATA_PROCESSING: RECALIBRATE loess on assigned fragments and MS1
MS$DATA_PROCESSING: REANALYZE Peaks with additional N2/O included
MS$DATA_PROCESSING: WHOLE RMassBank 2.99.2
PK$SPLASH: splash10-03e9-9300000000-7e3aefd17b30825a259c
PK$ANNOTATION: m/z tentative_formula formula_count mass error(ppm)
  56.0494 C3H6N+ 1 56.0495 -1.57
  59.0492 C3H7O+ 1 59.0491 1.46
  61.0107 C2H5S+ 1 61.0106 0.62
  62.99 CH3OS+ 1 62.9899 1.11
  79.0212 C2H7OS+ 1 79.0212 -0.65
  79.0543 C6H7+ 1 79.0542 1.07
  86.0601 C4H8NO+ 1 86.06 0.68
  91.0575 C4H11S+ 1 91.0576 -0.57
  130.9822 C7HNS+ 1 130.9824 -1.83
  165.0702 C5H13N2O2S+ 1 165.0692 5.84
PK$NUM_PEAK: 10
PK$PEAK: m/z int. rel.int.
  56.0494 2063 246
  59.0492 1806.8 215
  61.0107 8367 999
  62.99 3261.6 389
  79.0212 2643.1 315
  79.0543 1864.6 222
  86.0601 2703.8 322
  91.0575 2509.9 299
  130.9822 7562 902
  165.0702 1792.4 214
//
