ACCESSION: MSBNK-LCSB-LU117551
RECORD_TITLE: Flutolanil; LC-ESI-QFT; MS2; CE: 15; R=17500; [M-H]-
DATE: 2020.08.19
AUTHORS: Elapavalore, A.; Kondić, T.; Singh, R.; Schymanski, E.
LICENSE: CC BY
COPYRIGHT: Copyright © 2019 by Environmental Cheminformatics, LCSB, University of Luxembourg, Luxembourg
PUBLICATION: Elapavalore, A.; Kondić, T.; et al., Adding Open Spectral Data to MassBank and PubChem Using Open Source Tools to Support Non-Targeted Exposomics of Mixtures (submitted).
PROJECT: ENTACT U.S. Environmental Protection Agency’s Non-Targeted Analysis Collaborative Trial
COMMENT: CONFIDENCE standard compound
COMMENT: INTERNAL_ID 1175
COMMENT: DATASET 20200303_ENTACT_RP_MIX499
COMMENT: DATA_PROCESSING MERGING RMBmix ver. 0.2.7
COMMENT: DATA_PROCESSING PRESCREENING Shinyscreen ver. 0.8.0
COMMENT: ORIGINAL_ACQUISITION_NO 4349
COMMENT: ORIGINAL_PRECURSOR_SCAN_NO 4346
COMMENT: RAW_DATA available as MSV000091754 at [DOI:10.25345/C5S46HG75]
CH$NAME: Flutolanil
CH$NAME: N-(3-propan-2-yloxyphenyl)-2-(trifluoromethyl)benzamide
CH$COMPOUND_CLASS: N/A; Environmental Standard
CH$FORMULA: C17H16F3NO2
CH$EXACT_MASS: 323.1133
CH$SMILES: CC(C)OC1=CC(NC(=O)C2=C(C=CC=C2)C(F)(F)F)=CC=C1
CH$IUPAC: InChI=1S/C17H16F3NO2/c1-11(2)23-13-7-5-6-12(10-13)21-16(22)14-8-3-4-9-15(14)17(18,19)20/h3-11H,1-2H3,(H,21,22)
CH$LINK: CAS 66332-96-5
CH$LINK: CHEBI CHEBI:81792
CH$LINK: KEGG C18502
CH$LINK: PUBCHEM CID:47898
CH$LINK: INCHIKEY PTCGDEVVHUXTMP-UHFFFAOYSA-N
CH$LINK: CHEMSPIDER 43579
AC$INSTRUMENT: Q Exactive Orbitrap (Thermo Scientific)
AC$INSTRUMENT_TYPE: LC-ESI-QFT
AC$MASS_SPECTROMETRY: MS_TYPE MS2
AC$MASS_SPECTROMETRY: ION_MODE NEGATIVE
AC$MASS_SPECTROMETRY: IONIZATION ESI
AC$MASS_SPECTROMETRY: FRAGMENTATION_MODE HCD
AC$MASS_SPECTROMETRY: COLLISION_ENERGY 15
AC$MASS_SPECTROMETRY: RESOLUTION 17500
AC$CHROMATOGRAPHY: COLUMN_NAME Acquity BEH C18 1.7um, 2.1x150mm (Waters)
AC$CHROMATOGRAPHY: FLOW_GRADIENT 90/10 at 0-2 min, 0/100 at 15-20 min, 90/10 at 20.1-30 min
AC$CHROMATOGRAPHY: FLOW_RATE 0.20 mL/min
AC$CHROMATOGRAPHY: RETENTION_TIME 17.426 min
AC$CHROMATOGRAPHY: SOLVENT A 0.1% formic acid
AC$CHROMATOGRAPHY: SOLVENT B methanol
MS$FOCUSED_ION: BASE_PEAK 456.1333
MS$FOCUSED_ION: PRECURSOR_M/Z 322.106
MS$FOCUSED_ION: PRECURSOR_TYPE [M-H]-
MS$FOCUSED_ION: PRECURSOR_INTENSITY 16753400.02148
MS$DATA_PROCESSING: RECALIBRATE loess on assigned fragments and MS1
MS$DATA_PROCESSING: REANALYZE Peaks with additional N2/O included
MS$DATA_PROCESSING: WHOLE RMassBank 2.99.2
PK$SPLASH: splash10-00di-0209000000-decd6721e52258df0704
PK$ANNOTATION: m/z tentative_formula formula_count mass error(ppm)
  92.0504 C6H6N- 2 92.0506 -1.98
  134.0246 C7H4NO2- 1 134.0248 -0.93
  145.0269 C7H4F3- 1 145.0271 -0.83
  150.0923 C9H12NO- 2 150.0924 -0.62
  176.0716 C10H10NO2- 2 176.0717 -0.47
  189.0168 C8H4F3O2- 3 189.0169 -0.34
  238.0511 C12H7F3NO- 1 238.0485 10.88
  240.0465 C14H7FNO2- 2 240.0466 -0.57
  260.0528 C14H8F2NO2- 2 260.0529 -0.23
  279.051 C14H8F3NO2- 2 279.0513 -1.03
  280.0587 C14H9F3NO2- 2 280.0591 -1.5
  302.0992 C17H14F2NO2- 1 302.0998 -1.88
  322.1059 C17H15F3NO2- 1 322.106 -0.4
PK$NUM_PEAK: 13
PK$PEAK: m/z int. rel.int.
  92.0504 12413.8 1
  134.0246 108658.5 10
  145.0269 2616064.2 260
  150.0923 12961.7 1
  176.0716 109986.8 10
  189.0168 112673.6 11
  238.0511 12411.5 1
  240.0465 115090.6 11
  260.0528 410263.5 40
  279.051 26644.4 2
  280.0587 13281.3 1
  302.0992 22589.2 2
  322.1059 10029767 999
//
