ACCESSION: MSBNK-LCSB-LU094705
RECORD_TITLE: 3-Amino-4-methylbenzamide; LC-ESI-QFT; MS2; CE: 75; R=17500; [M+H]+
DATE: 2020.08.19
AUTHORS: Elapavalore, A.; Kondić, T.; Singh, R.; Schymanski, E.
LICENSE: CC BY
COPYRIGHT: Copyright © 2019 by Environmental Cheminformatics, LCSB, University of Luxembourg, Luxembourg
PUBLICATION: Elapavalore, A.; Kondić, T.; et al., Adding Open Spectral Data to MassBank and PubChem Using Open Source Tools to Support Non-Targeted Exposomics of Mixtures (submitted).
PROJECT: ENTACT U.S. Environmental Protection Agency’s Non-Targeted Analysis Collaborative Trial
COMMENT: CONFIDENCE standard compound
COMMENT: INTERNAL_ID 947
COMMENT: DATASET 20200303_ENTACT_RP_MIX501
COMMENT: DATA_PROCESSING MERGING RMBmix ver. 0.2.7
COMMENT: DATA_PROCESSING PRESCREENING Shinyscreen ver. 0.8.0
COMMENT: ORIGINAL_ACQUISITION_NO 2001
COMMENT: ORIGINAL_PRECURSOR_SCAN_NO 1999
COMMENT: RAW_DATA available as MSV000091754 at [DOI:10.25345/C5S46HG75]
CH$NAME: 3-Amino-4-methylbenzamide
CH$COMPOUND_CLASS: N/A; Environmental Standard
CH$FORMULA: C8H10N2O
CH$EXACT_MASS: 150.0793
CH$SMILES: CC1=C(N)C=C(C=C1)C(N)=O
CH$IUPAC: InChI=1S/C8H10N2O/c1-5-2-3-6(8(10)11)4-7(5)9/h2-4H,9H2,1H3,(H2,10,11)
CH$LINK: CAS 19406-86-1
CH$LINK: PUBCHEM CID:88043
CH$LINK: INCHIKEY VYBKAZXQKUFAHG-UHFFFAOYSA-N
CH$LINK: CHEMSPIDER 79429
AC$INSTRUMENT: Q Exactive Orbitrap (Thermo Scientific)
AC$INSTRUMENT_TYPE: LC-ESI-QFT
AC$MASS_SPECTROMETRY: MS_TYPE MS2
AC$MASS_SPECTROMETRY: ION_MODE POSITIVE
AC$MASS_SPECTROMETRY: IONIZATION ESI
AC$MASS_SPECTROMETRY: FRAGMENTATION_MODE HCD
AC$MASS_SPECTROMETRY: COLLISION_ENERGY 75
AC$MASS_SPECTROMETRY: RESOLUTION 17500
AC$CHROMATOGRAPHY: COLUMN_NAME Acquity BEH C18 1.7um, 2.1x150mm (Waters)
AC$CHROMATOGRAPHY: FLOW_GRADIENT 90/10 at 0-2 min, 0/100 at 15-20 min, 90/10 at 20.1-30 min
AC$CHROMATOGRAPHY: FLOW_RATE 0.20 mL/min
AC$CHROMATOGRAPHY: RETENTION_TIME 3.845 min
AC$CHROMATOGRAPHY: SOLVENT A 0.1% formic acid
AC$CHROMATOGRAPHY: SOLVENT B methanol
MS$FOCUSED_ION: BASE_PEAK 79.0211
MS$FOCUSED_ION: PRECURSOR_M/Z 151.0866
MS$FOCUSED_ION: PRECURSOR_TYPE [M+H]+
MS$FOCUSED_ION: PRECURSOR_INTENSITY 3992345.25
MS$DATA_PROCESSING: RECALIBRATE loess on assigned fragments and MS1
MS$DATA_PROCESSING: REANALYZE Peaks with additional N2/O included
MS$DATA_PROCESSING: WHOLE RMassBank 2.99.2
PK$SPLASH: splash10-052f-9700000000-1239f5e138432f11c2d8
PK$ANNOTATION: m/z tentative_formula formula_count mass error(ppm)
  53.0386 C4H5+ 1 53.0386 0
  65.0385 C5H5+ 1 65.0386 -0.87
  66.0464 C5H6+ 1 66.0464 0.36
  67.0543 C5H7+ 1 67.0542 1.22
  79.0542 C6H7+ 1 79.0542 -0.19
  80.0497 C5H6N+ 1 80.0495 2.51
  81.0699 C6H9+ 1 81.0699 0.52
  91.0542 C7H7+ 1 91.0542 0.24
  92.0495 C6H6N+ 1 92.0495 0.46
  93.0573 C6H7N+ 1 93.0573 0.3
  95.0491 C6H7O+ 1 95.0491 -0.32
  105.0447 C6H5N2+ 1 105.0447 -0.03
  106.0652 C7H8N+ 1 106.0651 0.35
  107.049 C7H7O+ 1 107.0491 -1.34
  107.073 C7H9N+ 1 107.073 0.6
  108.0808 C7H10N+ 1 108.0808 -0.07
  109.0648 C7H9O+ 1 109.0648 0.17
  110.0601 C6H8NO+ 1 110.06 0.44
  119.0604 C7H7N2+ 1 119.0604 -0.19
  124.0757 C7H10NO+ 1 124.0757 0.36
  134.06 C8H8NO+ 1 134.06 0.02
  151.0862 C8H11N2O+ 1 151.0866 -2.65
PK$NUM_PEAK: 22
PK$PEAK: m/z int. rel.int.
  53.0386 2612.7 1
  65.0385 25726.6 15
  66.0464 5864.5 3
  67.0543 4812.1 2
  79.0542 65934.8 39
  80.0497 3632.8 2
  81.0699 8772.4 5
  91.0542 299623.8 181
  92.0495 7553.5 4
  93.0573 1647596.4 999
  95.0491 13204 8
  105.0447 4850.5 2
  106.0652 120747.8 73
  107.049 1839.8 1
  107.073 12301.6 7
  108.0808 1356085 822
  109.0648 45229.8 27
  110.0601 4576.2 2
  119.0604 23717.4 14
  124.0757 62137.4 37
  134.06 54172.4 32
  151.0862 2611.3 1
//
