ACCESSION: MSBNK-LCSB-LU091206
RECORD_TITLE: 4-Aminobenzamide; LC-ESI-QFT; MS2; CE: 90; R=17500; [M+H]+
DATE: 2020.08.19
AUTHORS: Elapavalore, A.; Kondić, T.; Singh, R.; Schymanski, E.
LICENSE: CC BY
COPYRIGHT: Copyright © 2019 by Environmental Cheminformatics, LCSB, University of Luxembourg, Luxembourg
PUBLICATION: Elapavalore, A.; Kondić, T.; et al., Adding Open Spectral Data to MassBank and PubChem Using Open Source Tools to Support Non-Targeted Exposomics of Mixtures (submitted).
PROJECT: ENTACT U.S. Environmental Protection Agency’s Non-Targeted Analysis Collaborative Trial
COMMENT: CONFIDENCE standard compound
COMMENT: INTERNAL_ID 912
COMMENT: DATASET 20200303_ENTACT_RP_MIX501
COMMENT: DATA_PROCESSING MERGING RMBmix ver. 0.2.7
COMMENT: DATA_PROCESSING PRESCREENING Shinyscreen ver. 0.8.0
COMMENT: ORIGINAL_ACQUISITION_NO 1342
COMMENT: ORIGINAL_PRECURSOR_SCAN_NO 1341
COMMENT: RAW_DATA available as MSV000091754 at [DOI:10.25345/C5S46HG75]
CH$NAME: 4-Aminobenzamide
CH$COMPOUND_CLASS: N/A; Environmental Standard
CH$FORMULA: C7H8N2O
CH$EXACT_MASS: 136.0637
CH$SMILES: NC(=O)C1=CC=C(N)C=C1
CH$IUPAC: InChI=1S/C7H8N2O/c8-6-3-1-5(2-4-6)7(9)10/h1-4H,8H2,(H2,9,10)
CH$LINK: CAS 2835-68-9
CH$LINK: PUBCHEM CID:76079
CH$LINK: INCHIKEY QIKYZXDTTPVVAC-UHFFFAOYSA-N
CH$LINK: CHEMSPIDER 68568
AC$INSTRUMENT: Q Exactive Orbitrap (Thermo Scientific)
AC$INSTRUMENT_TYPE: LC-ESI-QFT
AC$MASS_SPECTROMETRY: MS_TYPE MS2
AC$MASS_SPECTROMETRY: ION_MODE POSITIVE
AC$MASS_SPECTROMETRY: IONIZATION ESI
AC$MASS_SPECTROMETRY: FRAGMENTATION_MODE HCD
AC$MASS_SPECTROMETRY: COLLISION_ENERGY 90
AC$MASS_SPECTROMETRY: RESOLUTION 17500
AC$CHROMATOGRAPHY: COLUMN_NAME Acquity BEH C18 1.7um, 2.1x150mm (Waters)
AC$CHROMATOGRAPHY: FLOW_GRADIENT 90/10 at 0-2 min, 0/100 at 15-20 min, 90/10 at 20.1-30 min
AC$CHROMATOGRAPHY: FLOW_RATE 0.20 mL/min
AC$CHROMATOGRAPHY: RETENTION_TIME 2.658 min
AC$CHROMATOGRAPHY: SOLVENT A 0.1% formic acid
AC$CHROMATOGRAPHY: SOLVENT B methanol
MS$FOCUSED_ION: BASE_PEAK 79.0211
MS$FOCUSED_ION: PRECURSOR_M/Z 137.0709
MS$FOCUSED_ION: PRECURSOR_TYPE [M+H]+
MS$FOCUSED_ION: PRECURSOR_INTENSITY 2844448.78125
MS$DATA_PROCESSING: RECALIBRATE loess on assigned fragments and MS1
MS$DATA_PROCESSING: REANALYZE Peaks with additional N2/O included
MS$DATA_PROCESSING: WHOLE RMassBank 2.99.2
PK$SPLASH: splash10-00r6-9400000000-6b134fba2dcc6d78f8f1
PK$ANNOTATION: m/z tentative_formula formula_count mass error(ppm)
  53.0022 C3HO+ 1 53.0022 0.31
  53.0386 C4H5+ 1 53.0386 0.94
  55.0178 C3H3O+ 1 55.0178 -0.29
  55.0544 C4H7+ 1 55.0542 3.65
  65.0386 C5H5+ 1 65.0386 -0.17
  67.0542 C5H7+ 1 67.0542 -0.49
  68.0495 C4H6N+ 1 68.0495 0.2
  69.0335 C4H5O+ 1 69.0335 -0.2
  77.0385 C6H5+ 1 77.0386 -0.36
  78.0339 C5H4N+ 1 78.0338 1.05
  79.018 C5H3O+ 1 79.0178 1.75
  81.0336 C5H5O+ 1 81.0335 1.66
  82.0288 C4H4NO+ 1 82.0287 0.3
  86.0036 C6N+ 1 86.0025 12.26
  92.0495 C6H6N+ 1 92.0495 0.12
  93.0573 C6H7N+ 1 93.0573 0.14
  94.0652 C6H8N+ 1 94.0651 0.4
  95.0492 C6H7O+ 1 95.0491 0.16
  96.0444 C5H6NO+ 1 96.0444 0.15
  105.0448 C6H5N2+ 1 105.0447 0.41
  108.0444 C6H6NO+ 1 108.0444 0.37
  110.0601 C6H8NO+ 1 110.06 0.44
  119.0605 C7H7N2+ 1 119.0604 0.96
  120.0444 C7H6NO+ 1 120.0444 0.34
PK$NUM_PEAK: 24
PK$PEAK: m/z int. rel.int.
  53.0022 2460.2 4
  53.0386 36396.7 69
  55.0178 4697.5 9
  55.0544 2246.5 4
  65.0386 486116.2 931
  67.0542 5917.3 11
  68.0495 36828.3 70
  69.0335 5482.9 10
  77.0385 17883.7 34
  78.0339 5294 10
  79.018 5952.2 11
  81.0336 2939.5 5
  82.0288 1773.4 3
  86.0036 103411.1 198
  92.0495 521289.1 999
  93.0573 14585.9 27
  94.0652 194748.7 373
  95.0492 102500.6 196
  96.0444 7000.2 13
  105.0448 40487.9 77
  108.0444 9945.7 19
  110.0601 162430.2 311
  119.0605 4104.7 7
  120.0444 495600.5 949
//
